####################################################################### 
# 
# This file contains crystal structure data downloaded from the 
# Cambridge Structural Database (CSD) hosted by the Cambridge 
# Crystallographic Data Centre (CCDC).
# 
# Full information about CCDC data access policies and citation 
# guidelines are available at http://www.ccdc.cam.ac.uk/access/V1 
# 
# Audit and citation data items may have been added by the CCDC. 
# Please retain this information to preserve the provenance of 
# this file and to allow appropriate attribution of the data. 
# 
#######################################################################

data_sc095_0m
_audit_block_doi                 10.5517/ccqthpp
_database_code_depnum_ccdc_archive 'CCDC 679913'
loop_
_citation_id
_citation_doi
_citation_year
1 10.1002/ejic.200800274 2008
_audit_update_record             
;
2008-02-29 deposited with the CCDC.	2024-07-10 downloaded from the CCDC.
;

_audit_creation_method           SHELXL-97
_chemical_name_systematic        
;
?
;
_chemical_name_common            ?
_chemical_melting_point          ?
_chemical_formula_moiety         ?
_chemical_formula_sum            'C53 H71 Cl2 N3 O7 Zn'
_chemical_formula_weight         998.40

loop_
_atom_type_symbol
_atom_type_description
_atom_type_scat_dispersion_real
_atom_type_scat_dispersion_imag
_atom_type_scat_source
C C 0.0033 0.0016 'International Tables Vol C Tables 4.2.6.8 and 6.1.1.4'
H H 0.0000 0.0000 'International Tables Vol C Tables 4.2.6.8 and 6.1.1.4'
N N 0.0061 0.0033 'International Tables Vol C Tables 4.2.6.8 and 6.1.1.4'
O O 0.0106 0.0060 'International Tables Vol C Tables 4.2.6.8 and 6.1.1.4'
Zn Zn 0.2839 1.4301 'International Tables Vol C Tables 4.2.6.8 and 6.1.1.4'
Cl Cl 0.1484 0.1585 'International Tables Vol C Tables 4.2.6.8 and 6.1.1.4'

_symmetry_cell_setting           Triclinic
_symmetry_space_group_name_H-M   P-1

loop_
_symmetry_equiv_pos_as_xyz
'x, y, z'
'-x, -y, -z'

_cell_length_a                   9.6480(6)
_cell_length_b                   16.1632(9)
_cell_length_c                   17.5764(9)
_cell_angle_alpha                87.570(3)
_cell_angle_beta                 74.285(3)
_cell_angle_gamma                74.177(3)
_cell_volume                     2537.0(2)
_cell_formula_units_Z            2
_cell_measurement_temperature    100(2)
_cell_measurement_reflns_used    6930
_cell_measurement_theta_min      2.71
_cell_measurement_theta_max      30.89

_exptl_crystal_description       Needle
_exptl_crystal_colour            orange
_exptl_crystal_size_max          0.40
_exptl_crystal_size_mid          0.05
_exptl_crystal_size_min          0.05
_exptl_crystal_density_meas      ?
_exptl_crystal_density_diffrn    1.307
_exptl_crystal_density_method    'not measured'
_exptl_crystal_F_000             1060
_exptl_absorpt_coefficient_mu    0.643
_exptl_absorpt_correction_type   empirical
_exptl_absorpt_correction_T_min  0.7830
_exptl_absorpt_correction_T_max  0.9686
_exptl_absorpt_process_details   
;
SADABS Version 2.1 2003 Bruker-Nonius
Blessing, Acta Cryst. (1995) A51 33-38
;
_exptl_special_details           
;
It should be noted that the esd's of the cell dimensions are probably too low;
they should be multiplied by a factor of 2 to 10
;
_diffrn_ambient_temperature      100(2)
_diffrn_measurement_specimen_suppport 
'magnetic support whith 10 micron nylon fiber cryoloop'
_diffrn_radiation_wavelength     0.71073
_diffrn_radiation_type           MoK\a
_diffrn_source                   'rotating anode X-ray tube'
_diffrn_source_type              'Bruker-Nonius FR 591'
_diffrn_source_power             50
_diffrn_source_current           90
_diffrn_source_size              '3 mm x 0.3 mm fine focus'
_diffrn_radiation_monochromator  'Multilayer Montel 200 mirrors'
_diffrn_detector_type            '4K CCD area detector APEX II'
_diffrn_measurement_device_type  'Kappa 4-axis goniometer bruker-nonius'
_diffrn_measurement_method       
;
Fullsphere data collection, phi and omega scans
;
_diffrn_detector_area_resol_mean 512
_diffrn_standards_number         ?
_diffrn_standards_interval_count ?
_diffrn_standards_interval_time  ?
_diffrn_standards_decay_%        ?
_diffrn_reflns_number            23805
_diffrn_reflns_av_R_equivalents  0.0484
_diffrn_reflns_av_sigmaI/netI    0.0776
_diffrn_reflns_limit_h_min       -10
_diffrn_reflns_limit_h_max       13
_diffrn_reflns_limit_k_min       -23
_diffrn_reflns_limit_k_max       22
_diffrn_reflns_limit_l_min       -24
_diffrn_reflns_limit_l_max       24
_diffrn_reflns_theta_min         2.85
_diffrn_reflns_theta_max         30.94
_reflns_number_total             13472
_reflns_number_gt                9787
_reflns_threshold_expression     >2sigma(I)

_computing_data_collection       'Bruker-Nonius Apex v1.0-22 2002'
_computing_cell_refinement       'Bruker-Nonius Apex v1.0-22 2002'
_computing_data_reduction        'SAINT+ Version 7.06A Bruker-Nonius, 2004'
_computing_structure_solution    'Shelxtl Version 6.12 (Sheldrick, 2001)'
_computing_structure_refinement  'Shelxtl Version 6.12 (Sheldrick, 2001)'
_computing_molecular_graphics    'Shelxtl Version 6.12 (Sheldrick, 2001)'
_computing_publication_material  'Shelxtl Version 6.12 (Sheldrick, 2001)'

_refine_special_details          
;
Refinement of F^2^ against ALL reflections. The weighted R-factor wR and
goodness of fit S are based on F^2^, conventional R-factors R are based
on F, with F set to zero for negative F^2^. The threshold expression of
F^2^ > 2sigma(F^2^) is used only for calculating R-factors(gt) etc. and is
not relevant to the choice of reflections for refinement. R-factors based
on F^2^ are statistically about twice as large as those based on F, and R-
factors based on ALL data will be even larger. The structure contains
five tetrahydrofurane molecules which in some cases are highly disordered.
;

_refine_ls_structure_factor_coef Fsqd
_refine_ls_matrix_type           full
_refine_ls_weighting_scheme      calc
_refine_ls_weighting_details     
'calc w=1/[\s^2^(Fo^2^)+(0.1171P)^2^+2.8997P] where P=(Fo^2^+2Fc^2^)/3'
_atom_sites_solution_primary     direct
_atom_sites_solution_secondary   difmap
_atom_sites_solution_hydrogens   geom
_refine_ls_hydrogen_treatment    noref
_refine_ls_extinction_method     none
_refine_ls_extinction_coef       ?
_refine_ls_number_reflns         13472
_refine_ls_number_parameters     696
_refine_ls_number_restraints     184
_refine_ls_R_factor_all          0.0988
_refine_ls_R_factor_gt           0.0696
_refine_ls_wR_factor_ref         0.2116
_refine_ls_wR_factor_gt          0.1884
_refine_ls_goodness_of_fit_ref   1.043
_refine_ls_restrained_S_all      1.063
_refine_ls_shift/su_max          0.000
_refine_ls_shift/su_mean         0.000

loop_
_atom_site_label
_atom_site_type_symbol
_atom_site_fract_x
_atom_site_fract_y
_atom_site_fract_z
_atom_site_U_iso_or_equiv
_atom_site_adp_type
_atom_site_occupancy
_atom_site_symmetry_multiplicity
_atom_site_calc_flag
_atom_site_refinement_flags
_atom_site_disorder_assembly
_atom_site_disorder_group
Zn1 Zn 0.90393(4) 0.17502(2) 0.22721(2) 0.01598(11) Uani 1 1 d . . .
Cl1 Cl 0.66257(11) -0.18113(5) 0.10922(6) 0.0312(2) Uani 1 1 d . . .
N1 N 1.0873(3) 0.22020(15) 0.17770(15) 0.0177(5) Uani 1 1 d . . .
O1 O 0.7828(3) 0.29205(13) 0.26198(13) 0.0206(4) Uani 1 1 d . . .
C1 C 0.8204(4) 0.36342(18) 0.26014(18) 0.0181(5) Uani 1 1 d . . .
Cl2 Cl 0.44020(10) 0.10597(6) 0.29683(5) 0.02998(19) Uani 1 1 d . . .
N2 N 1.0333(3) 0.07916(16) 0.13731(15) 0.0177(5) Uani 1 1 d . . .
O2 O 0.7280(3) 0.13450(14) 0.22974(14) 0.0229(5) Uani 1 1 d . . .
C2 C 0.7073(4) 0.44159(19) 0.29307(19) 0.0207(6) Uani 1 1 d . . .
C3 C 0.7521(4) 0.51530(19) 0.29533(19) 0.0228(6) Uani 1 1 d . . .
H3 H 0.6777 0.5659 0.3188 0.027 Uiso 1 1 calc R . .
N3 N 0.9437(3) 0.11316(15) 0.32872(15) 0.0177(5) Uani 1 1 d . . .
C4 C 0.9008(4) 0.52100(18) 0.26511(18) 0.0199(6) Uani 1 1 d . . .
C5 C 1.0053(4) 0.44804(18) 0.22879(18) 0.0193(6) Uani 1 1 d . . .
H5 H 1.1051 0.4503 0.2051 0.023 Uiso 1 1 calc R . .
C6 C 0.9686(3) 0.36911(18) 0.22557(17) 0.0173(5) Uani 1 1 d . . .
C7 C 1.0901(3) 0.29971(18) 0.18352(18) 0.0182(5) Uani 1 1 d . . .
H7 H 1.1810 0.3131 0.1575 0.022 Uiso 1 1 calc R . .
C8 C 0.5439(4) 0.4400(2) 0.3269(2) 0.0259(7) Uani 1 1 d . . .
C9 C 0.5298(5) 0.3826(3) 0.3994(2) 0.0347(8) Uani 1 1 d . . .
H9A H 0.5936 0.3241 0.3837 0.052 Uiso 1 1 calc R . .
H9B H 0.4255 0.3811 0.4202 0.052 Uiso 1 1 calc R . .
H9C H 0.5614 0.4060 0.4404 0.052 Uiso 1 1 calc R . .
C10 C 0.4874(4) 0.4073(3) 0.2639(2) 0.0330(8) Uani 1 1 d . . .
H10A H 0.4946 0.4453 0.2189 0.049 Uiso 1 1 calc R . .
H10B H 0.3829 0.4070 0.2863 0.049 Uiso 1 1 calc R . .
H10C H 0.5485 0.3488 0.2462 0.049 Uiso 1 1 calc R . .
C11 C 0.4398(5) 0.5303(2) 0.3548(3) 0.0388(9) Uani 1 1 d . . .
H11A H 0.4675 0.5516 0.3985 0.058 Uiso 1 1 calc R . .
H11B H 0.3360 0.5273 0.3729 0.058 Uiso 1 1 calc R . .
H11C H 0.4499 0.5696 0.3109 0.058 Uiso 1 1 calc R . .
C12 C 0.9378(4) 0.60539(19) 0.2757(2) 0.0251(7) Uani 1 1 d . . .
C13 C 0.8428(5) 0.6788(2) 0.2378(2) 0.0313(8) Uani 1 1 d . . .
H13A H 0.8633 0.7331 0.2472 0.047 Uiso 1 1 calc R . .
H13B H 0.7365 0.6833 0.2613 0.047 Uiso 1 1 calc R . .
H13C H 0.8680 0.6668 0.1808 0.047 Uiso 1 1 calc R . .
C14 C 0.9017(5) 0.6258(2) 0.3649(2) 0.0342(8) Uani 1 1 d . . .
H14A H 0.9648 0.5801 0.3888 0.051 Uiso 1 1 calc R . .
H14B H 0.7961 0.6295 0.3899 0.051 Uiso 1 1 calc R . .
H14C H 0.9210 0.6809 0.3727 0.051 Uiso 1 1 calc R . .
C15 C 1.1028(5) 0.5989(2) 0.2381(2) 0.0308(8) Uani 1 1 d . . .
H15A H 1.1644 0.5524 0.2622 0.046 Uiso 1 1 calc R . .
H15B H 1.1230 0.6534 0.2470 0.046 Uiso 1 1 calc R . .
H15C H 1.1272 0.5866 0.1812 0.046 Uiso 1 1 calc R . .
C16 C 1.2109(3) 0.15928(18) 0.12966(17) 0.0170(5) Uani 1 1 d . . .
C17 C 1.3563(4) 0.16718(19) 0.1046(2) 0.0234(6) Uani 1 1 d . . .
H17 H 1.3788 0.2156 0.1220 0.028 Uiso 1 1 calc R . .
C18 C 1.4685(4) 0.1050(2) 0.0546(2) 0.0235(6) Uani 1 1 d . . .
H18 H 1.5669 0.1118 0.0380 0.028 Uiso 1 1 calc R . .
C19 C 1.4404(3) 0.03244(17) 0.02786(17) 0.0168(5) Uani 1 1 d . . .
C20 C 1.2967(3) 0.02260(18) 0.05659(17) 0.0171(5) Uani 1 1 d . . .
H20 H 1.2762 -0.0278 0.0418 0.021 Uiso 1 1 calc R . .
C21 C 1.1816(3) 0.08481(18) 0.10655(17) 0.0164(5) Uani 1 1 d . . .
C22 C 0.9872(4) 0.01941(19) 0.11378(19) 0.0197(6) Uani 1 1 d . . .
H22 H 1.0558 -0.0193 0.0729 0.024 Uiso 1 1 calc R . .
C23 C 0.8402(4) 0.00664(19) 0.14446(18) 0.0199(6) Uani 1 1 d . . .
C24 C 0.8195(4) -0.0679(2) 0.1160(2) 0.0233(6) Uani 1 1 d . . .
H24 H 0.8981 -0.1042 0.0769 0.028 Uiso 1 1 calc R . .
C25 C 0.6864(4) -0.0884(2) 0.1445(2) 0.0235(6) Uani 1 1 d . . .
C26 C 0.5681(4) -0.0349(2) 0.2008(2) 0.0259(7) Uani 1 1 d . . .
H26 H 0.4761 -0.0495 0.2203 0.031 Uiso 1 1 calc R . .
C27 C 0.5862(4) 0.0382(2) 0.22735(19) 0.0222(6) Uani 1 1 d . . .
C28 C 0.7208(4) 0.06381(19) 0.20212(18) 0.0186(6) Uani 1 1 d . . .
C29 C 0.8282(4) 0.1002(2) 0.38592(19) 0.0238(6) Uani 1 1 d . . .
H29 H 0.7302 0.1220 0.3796 0.029 Uiso 1 1 calc R . .
C30 C 0.8451(4) 0.0569(2) 0.45354(19) 0.0239(6) Uani 1 1 d . . .
H30 H 0.7600 0.0497 0.4928 0.029 Uiso 1 1 calc R . .
C31 C 0.9886(3) 0.02364(17) 0.46403(17) 0.0169(5) Uani 1 1 d . . .
C32 C 1.1080(4) 0.0371(2) 0.40430(18) 0.0206(6) Uani 1 1 d . . .
H32 H 1.2075 0.0155 0.4085 0.025 Uiso 1 1 calc R . .
C33 C 1.0806(4) 0.08216(19) 0.33866(18) 0.0203(6) Uani 1 1 d . . .
H33 H 1.1632 0.0914 0.2988 0.024 Uiso 1 1 calc R . .
C1S C 0.0478(5) 0.8743(3) 0.2742(3) 0.0362(8) Uani 1 1 d . . .
H1SA H -0.0052 0.9307 0.3020 0.043 Uiso 1 1 calc R . .
H1SB H -0.0068 0.8648 0.2366 0.043 Uiso 1 1 calc R . .
O1S O 0.0535(5) 0.8088(3) 0.3288(3) 0.0657(10) Uani 1 1 d U . .
C2S C 0.2076(5) 0.8732(3) 0.2300(3) 0.0379(9) Uani 1 1 d . . .
H2SA H 0.2279 0.9286 0.2378 0.046 Uiso 1 1 calc R . .
H2SB H 0.2269 0.8617 0.1726 0.046 Uiso 1 1 calc R . .
C3S C 0.3041(6) 0.7993(3) 0.2671(3) 0.0507(12) Uani 1 1 d . . .
H3SA H 0.3407 0.7459 0.2336 0.061 Uiso 1 1 calc R . .
H3SB H 0.3902 0.8151 0.2767 0.061 Uiso 1 1 calc R . .
C4S C 0.1911(7) 0.7899(3) 0.3446(3) 0.0529(13) Uani 1 1 d . . .
H4SA H 0.2176 0.7305 0.3632 0.064 Uiso 1 1 calc R . .
H4SB H 0.1894 0.8302 0.3859 0.064 Uiso 1 1 calc R . .
O1SB O 0.2003(4) 0.81085(18) 0.02613(18) 0.0408(7) Uani 1 1 d . . .
C1SB C 0.1646(6) 0.7443(3) 0.0775(3) 0.0424(10) Uani 1 1 d . . .
H1SE H 0.0784 0.7688 0.1233 0.051 Uiso 1 1 calc R . .
H1SF H 0.2511 0.7140 0.0974 0.051 Uiso 1 1 calc R . .
C2SB C 0.1266(7) 0.6835(3) 0.0290(3) 0.0511(13) Uani 1 1 d . . .
H2SC H 0.1854 0.6236 0.0327 0.061 Uiso 1 1 calc R . .
H2SD H 0.0188 0.6865 0.0473 0.061 Uiso 1 1 calc R . .
C3SB C 0.1657(7) 0.7126(3) -0.0537(3) 0.0514(11) Uani 1 1 d U . .
H3SC H 0.0746 0.7427 -0.0698 0.062 Uiso 1 1 calc R . .
H3SD H 0.2236 0.6633 -0.0910 0.062 Uiso 1 1 calc R . .
C4SB C 0.2588(6) 0.7729(3) -0.0513(2) 0.0400(9) Uani 1 1 d . . .
H4SC H 0.3657 0.7412 -0.0607 0.048 Uiso 1 1 calc R . .
H4SD H 0.2488 0.8173 -0.0915 0.048 Uiso 1 1 calc R . .
O1SC O 0.5222(3) 0.1032(2) 0.59206(18) 0.0428(7) Uani 1 1 d . . .
C1SC C 0.4968(6) 0.1897(3) 0.5656(3) 0.0437(10) Uani 1 1 d . . .
H1SC H 0.5928 0.2025 0.5393 0.052 Uiso 1 1 calc R . .
H1SD H 0.4424 0.2312 0.6107 0.052 Uiso 1 1 calc R . .
C2SC C 0.4036(5) 0.1947(3) 0.5078(2) 0.0357(8) Uani 1 1 d . . .
H2SE H 0.4678 0.1836 0.4528 0.043 Uiso 1 1 calc R . .
H2SF H 0.3304 0.2519 0.5115 0.043 Uiso 1 1 calc R . .
C3SC C 0.3242(5) 0.1241(3) 0.5337(3) 0.0403(9) Uani 1 1 d . . .
H3SE H 0.2144 0.1488 0.5515 0.048 Uiso 1 1 calc R . .
H3SF H 0.3482 0.0815 0.4899 0.048 Uiso 1 1 calc R . .
C4SC C 0.3842(6) 0.0834(3) 0.6008(3) 0.0479(11) Uani 1 1 d U . .
H4SE H 0.3132 0.1069 0.6522 0.058 Uiso 1 1 calc R . .
H4SF H 0.3999 0.0204 0.5987 0.058 Uiso 1 1 calc R . .
C1SD C -0.0683(8) 0.3949(5) 0.4548(12) 0.072(6) Uani 0.50 1 d PDU A 1
H1SG H -0.1194 0.4313 0.4183 0.086 Uiso 0.50 1 d PR A 1
H1SH H -0.0937 0.4296 0.5042 0.086 Uiso 0.50 1 d PR A 1
O1SD O 0.0907(7) 0.3808(4) 0.4202(4) 0.0326(12) Uani 0.50 1 d PDU A 1
C2SD C -0.1314(9) 0.3159(6) 0.4652(9) 0.064(3) Uani 0.50 1 d PDU A 1
H2SH H -0.1955 0.3202 0.5202 0.076 Uiso 0.50 1 d PR A 1
H2SG H -0.1885 0.3088 0.4280 0.076 Uiso 0.50 1 d PR A 1
C3SD C 0.0178(10) 0.2479(5) 0.4598(5) 0.0419(15) Uani 0.50 1 d PDU A 1
H3SG H 0.0507 0.2380 0.5089 0.050 Uiso 0.50 1 d PR A 1
H3SH H 0.0110 0.1932 0.4398 0.050 Uiso 0.50 1 d PR A 1
C4SD C 0.1256(15) 0.2901(4) 0.4006(9) 0.098(6) Uani 0.50 1 d PDU A 1
H4SG H 0.1176 0.2779 0.3474 0.118 Uiso 0.50 1 d PR A 1
H4SH H 0.2194 0.2524 0.4092 0.118 Uiso 0.50 1 d PR A 1
O1SX O 0.1998(12) 0.3073(8) 0.3661(8) 0.0326(12) Uani 0.195(5) 1 d PDU B 2
C1SX C 0.1486(19) 0.2342(7) 0.3985(17) 0.064(3) Uani 0.195(5) 1 d PDU B 2
H1SM H 0.2068 0.2027 0.4343 0.076 Uiso 0.195(5) 1 calc PR B 2
H1SN H 0.1522 0.1942 0.3565 0.076 Uiso 0.195(5) 1 calc PR B 2
C2SX C -0.0132(16) 0.2802(8) 0.4437(9) 0.022(3) Uani 0.195(5) 1 d PDU B 2
H2SM H -0.0307 0.2601 0.4986 0.027 Uiso 0.195(5) 1 calc PR B 2
H2SN H -0.0811 0.2613 0.4193 0.027 Uiso 0.195(5) 1 calc PR B 2
C3SX C -0.0589(16) 0.3792(8) 0.4476(10) 0.017(4) Uani 0.195(5) 1 d PDU B 2
H3SM H -0.0478 0.4042 0.4954 0.020 Uiso 0.195(5) 1 calc PR B 2
H3SN H -0.1596 0.4054 0.4401 0.020 Uiso 0.195(5) 1 calc PR B 2
C4SX C 0.0696(15) 0.3791(9) 0.3730(11) 0.0419(15) Uani 0.195(5) 1 d PD B 2
H4SM H 0.0325 0.3785 0.3258 0.050 Uiso 0.195(5) 1 calc PR B 2
H4SN H 0.0992 0.4330 0.3734 0.050 Uiso 0.195(5) 1 calc PR B 2
O1SY O -0.1386(10) 0.3445(5) 0.5053(5) 0.037(2) Uani 0.305(5) 1 d PDU B 3
C1SY C -0.0908(12) 0.4153(5) 0.4646(8) 0.025(3) Uani 0.305(5) 1 d PDU B 3
H1SO H -0.0922 0.4603 0.5015 0.030 Uiso 0.305(5) 1 calc PR B 3
H1SP H -0.1500 0.4411 0.4273 0.030 Uiso 0.305(5) 1 calc PR B 3
C2SY C 0.0696(12) 0.3636(7) 0.4217(9) 0.037(2) Uani 0.305(5) 1 d PD B 3
H2SO H 0.1008 0.3911 0.3709 0.044 Uiso 0.305(5) 1 calc PR B 3
H2SP H 0.1364 0.3691 0.4540 0.044 Uiso 0.305(5) 1 calc PR B 3
C3SY C 0.0970(14) 0.2670(8) 0.4039(9) 0.0419(15) Uani 0.305(5) 1 d PDU B 3
H3SO H 0.1214 0.2521 0.3468 0.050 Uiso 0.305(5) 1 calc PR B 3
H3SP H 0.1708 0.2290 0.4286 0.050 Uiso 0.305(5) 1 calc PR B 3
C4SY C -0.0668(15) 0.2734(6) 0.4489(7) 0.036(3) Uani 0.305(5) 1 d PDU B 3
H4SO H -0.1253 0.2779 0.4098 0.044 Uiso 0.305(5) 1 calc PR B 3
H4SP H -0.0701 0.2193 0.4770 0.044 Uiso 0.305(5) 1 calc PR B 3
C1SE C 0.2601(17) 0.3884(11) -0.0100(7) 0.087(5) Uani 0.451(7) 1 d PDU C 1
H1SK H 0.1542 0.4206 0.0123 0.104 Uiso 0.451(7) 1 calc PR C 1
H1SL H 0.2617 0.3297 -0.0251 0.104 Uiso 0.451(7) 1 calc PR C 1
O1SE O 0.3367(14) 0.3816(7) 0.0509(5) 0.0790(19) Uani 0.451(7) 1 d PD C 1
C2SE C 0.3250(19) 0.4326(12) -0.0855(7) 0.074(4) Uani 0.451(7) 1 d PDU C 1
H2SK H 0.3662 0.3921 -0.1319 0.089 Uiso 0.451(7) 1 calc PR C 1
H2SL H 0.2486 0.4828 -0.0969 0.089 Uiso 0.451(7) 1 calc PR C 1
C3SE C 0.4497(18) 0.4608(11) -0.0632(7) 0.086(5) Uani 0.451(7) 1 d PDU C 1
H3SK H 0.4406 0.5226 -0.0727 0.103 Uiso 0.451(7) 1 calc PR C 1
H3SL H 0.5499 0.4266 -0.0937 0.103 Uiso 0.451(7) 1 calc PR C 1
C4SE C 0.4231(18) 0.4429(10) 0.0258(7) 0.082(3) Uani 0.451(7) 1 d PDU C 1
H4SK H 0.5211 0.4207 0.0376 0.098 Uiso 0.451(7) 1 calc PR C 1
H4SL H 0.3703 0.4976 0.0565 0.098 Uiso 0.451(7) 1 calc PR C 1
C1S' C 0.1603(12) 0.4321(9) 0.0117(6) 0.077(3) Uani 0.549(7) 1 d PDU C 2
H1SI H 0.0758 0.4794 0.0410 0.092 Uiso 0.549(7) 1 calc PR C 2
H1SJ H 0.1273 0.3790 0.0138 0.092 Uiso 0.549(7) 1 calc PR C 2
O1S' O 0.2879(10) 0.4192(6) 0.0427(5) 0.0790(19) Uani 0.549(7) 1 d PDU C 2
C2S' C 0.2215(14) 0.4558(8) -0.0743(6) 0.081(4) Uani 0.549(7) 1 d PDU C 2
H2SI H 0.2154 0.5180 -0.0772 0.097 Uiso 0.549(7) 1 calc PR C 2
H2SJ H 0.1635 0.4422 -0.1083 0.097 Uiso 0.549(7) 1 calc PR C 2
C3S' C 0.3857(14) 0.4017(8) -0.1010(6) 0.067(3) Uani 0.549(7) 1 d PDU C 2
H3SI H 0.3995 0.3541 -0.1384 0.