
#######################################################################
#
#                 Cambridge Crystallographic Data Centre
#                                CCDC
#
#######################################################################
#
# If this CIF has been generated from an entry in the Cambridge
# Structural Database, then it will include bibliographic, chemical,
# crystal, experimental, refinement or atomic coordinate data resulting
# from the CCDC's data processing and validation procedures.
#
#######################################################################

data_CSD_CIF_IGODIR
_audit_creation_date 2003-01-14
_audit_creation_method CSD-ConQuest-V1
_database_code_CSD IGODIR
_database_code_depnum_ccdc_archive 'CCDC 185060'
_chemical_formula_sum 'C2 H5 O3 Re1'
_chemical_formula_moiety
;
C2 H5 O3 Re1
;
_journal_coden_Cambridge 186
_journal_year 2002
_journal_page_first 3342
_journal_name_full 'J.Chem.Soc.,Dalton Trans. '
loop_
_publ_author_name
"A.J.Downs"
"M.R.Geisberger"
"J.C.Green"
"T.M.Greene"
"A.Haarland"
"W.A.Herrmann"
"L.J.Morris"
"S.Parsons"
"W.Scherer"
"H.V.Volden"
_chemical_name_systematic
;
Ethyl-trioxo-rhenium(vii)
;
_chemical_name_common
;
Teaching Subset: Fundamental Chemistry, Symmetry
;
_chemical_melting_point 252
_cell_volume    490.973
_exptl_crystal_colour 'colorless'
_exptl_crystal_density_diffrn 3.56
_exptl_crystal_description 'cylinder'
_diffrn_ambient_temperature 150
#These two values have been output from a single CSD field.
_refine_ls_R_factor_gt 0.0406
_refine_ls_wR_factor_gt 0.0406
_symmetry_cell_setting monoclinic
_symmetry_space_group_name_H-M 'P 21/n'
_symmetry_Int_Tables_number 14
loop_
_symmetry_equiv_pos_site_id
_symmetry_equiv_pos_as_xyz
1 x,y,z
2 1/2-x,1/2+y,1/2-z
3 -x,-y,-z
4 -1/2+x,-1/2-y,-1/2+z
_cell_length_a 6.421(3)
_cell_length_b 5.111(2)
_cell_length_c 15.108(5)
_cell_angle_alpha 90
_cell_angle_beta 98.01(4)
_cell_angle_gamma 90
_cell_formula_units_Z 4
loop_
_atom_type_symbol
_atom_type_radius_bond
C 0.68
H 0.23
O 0.68
Re 1.35
loop_
_atom_site_label
_atom_site_type_symbol
_atom_site_fract_x
_atom_site_fract_y
_atom_site_fract_z
Re1 Re 0.50117(8) 0.18763(13) 0.18711(3)
C1 C 0.235(2) 0.316(3) 0.101(1)
C2 C 0.239(3) 0.205(4) 0.009(1)
O1 O 0.4756(19) 0.308(2) 0.2879(7)
O2 O 0.4889(16) -0.145(2) 0.1810(6)
O3 O 0.7093(17) 0.314(2) 0.1423(7)
H1 H 0.23720 0.51190 0.09820
H2 H 0.10580 0.25710 0.12500
H3 H 0.11110 0.26670 -0.03190
H4 H 0.36800 0.26380 -0.01520
H5 H 0.23650 0.00900 0.01150
#END
