####################################################################### 
# 
# This file contains crystal structure data downloaded from the 
# Cambridge Structural Database (CSD) hosted by the Cambridge 
# Crystallographic Data Centre (CCDC).
# 
# Full information about CCDC data access policies and citation 
# guidelines are available at http://www.ccdc.cam.ac.uk/access/V1 
# 
# Audit and citation data items may have been added by the CCDC. 
# Please retain this information to preserve the provenance of 
# this file and to allow appropriate attribution of the data. 
# 
#######################################################################

data_www
_audit_block_doi                 10.5517/cc13r6nq
_database_code_depnum_ccdc_archive 'CCDC 1035203'
loop_
_citation_id
_citation_doi
_citation_year
1 10.1002/zaac.201400550 2015
_audit_update_record             
;
2014-11-19 deposited with the CCDC.	2024-07-10 downloaded from the CCDC.
;

_audit_creation_method           SHELXL-97
_chemical_name_systematic        
; 
 ? 
;
_chemical_name_common            ?
_chemical_melting_point          ?
_chemical_formula_moiety         ?
_chemical_formula_sum            'C38 H20 Cd N4 O9'
_chemical_formula_weight         788.98

loop_
_atom_type_symbol
_atom_type_description
_atom_type_scat_dispersion_real
_atom_type_scat_dispersion_imag
_atom_type_scat_source
C C 0.0033 0.0016 'International Tables Vol C Tables 4.2.6.8 and 6.1.1.4'
H H 0.0000 0.0000 'International Tables Vol C Tables 4.2.6.8 and 6.1.1.4'
Cd Cd -0.8075 1.2024 'International Tables Vol C Tables 4.2.6.8 and 6.1.1.4'
N N 0.0061 0.0033 'International Tables Vol C Tables 4.2.6.8 and 6.1.1.4'
O O 0.0106 0.0060 'International Tables Vol C Tables 4.2.6.8 and 6.1.1.4'

_symmetry_cell_setting           triclinic
_symmetry_space_group_name_H-M   P-1

loop_
_symmetry_equiv_pos_as_xyz
'x, y, z'
'-x, -y, -z'

_cell_length_a                   9.084(13)
_cell_length_b                   15.20(2)
_cell_length_c                   17.21(3)
_cell_angle_alpha                112.567(16)
_cell_angle_beta                 93.529(18)
_cell_angle_gamma                96.450(15)
_cell_volume                     2166(6)
_cell_formula_units_Z            2
_cell_measurement_temperature    293(2)
_cell_measurement_reflns_used    ?
_cell_measurement_theta_min      ?
_cell_measurement_theta_max      ?

_exptl_crystal_description       block
_exptl_crystal_colour            yellow
_exptl_crystal_size_max          ?
_exptl_crystal_size_mid          ?
_exptl_crystal_size_min          ?
_exptl_crystal_density_meas      ?
_exptl_crystal_density_diffrn    1.210
_exptl_crystal_density_method    'not measured'
_exptl_crystal_F_000             792
_exptl_absorpt_coefficient_mu    0.554
_exptl_absorpt_correction_type   ?
_exptl_absorpt_correction_T_min  ?
_exptl_absorpt_correction_T_max  ?
_exptl_absorpt_process_details   ?

_exptl_special_details           
; 
 ? 
;

_diffrn_ambient_temperature      293(2)
_diffrn_radiation_wavelength     0.71073
_diffrn_radiation_type           MoK\a
_diffrn_radiation_source         'fine-focus sealed tube'
_diffrn_radiation_monochromator  graphite
_diffrn_measurement_device_type  ?
_diffrn_measurement_method       ?
_diffrn_detector_area_resol_mean ?
_diffrn_standards_number         ?
_diffrn_standards_interval_count ?
_diffrn_standards_interval_time  ?
_diffrn_standards_decay_%        ?
_diffrn_reflns_number            4131
_diffrn_reflns_av_R_equivalents  0.0000
_diffrn_reflns_av_sigmaI/netI    0.1030
_diffrn_reflns_limit_h_min       -9
_diffrn_reflns_limit_h_max       9
_diffrn_reflns_limit_k_min       -15
_diffrn_reflns_limit_k_max       14
_diffrn_reflns_limit_l_min       0
_diffrn_reflns_limit_l_max       16
_diffrn_reflns_theta_min         1.52
_diffrn_reflns_theta_max         21.68
_reflns_number_total             4131
_reflns_number_gt                2897
_reflns_threshold_expression     >2sigma(I)

_computing_data_collection       ?
_computing_cell_refinement       ?
_computing_data_reduction        ?
_computing_structure_solution    'SHELXS-97 (Sheldrick, 1990)'
_computing_structure_refinement  'SHELXL-97 (Sheldrick, 1997)'
_computing_molecular_graphics    ?
_computing_publication_material  ?

_refine_special_details          
; 
 Refinement of F^2^ against ALL reflections.  The weighted R-factor wR and 
 goodness of fit S are based on F^2^, conventional R-factors R are based 
 on F, with F set to zero for negative F^2^. The threshold expression of 
 F^2^ > 2sigma(F^2^) is used only for calculating R-factors(gt) etc. and is 
 not relevant to the choice of reflections for refinement.  R-factors based 
 on F^2^ are statistically about twice as large as those based on F, and R- 
 factors based on ALL data will be even larger. 
;

_refine_ls_structure_factor_coef Fsqd
_refine_ls_matrix_type           full
_refine_ls_weighting_scheme      calc
_refine_ls_weighting_details     
'calc w=1/[\s^2^(Fo^2^)+(0.0968P)^2^+0.0000P] where P=(Fo^2^+2Fc^2^)/3'
_atom_sites_solution_primary     direct
_atom_sites_solution_secondary   difmap
_atom_sites_solution_hydrogens   geom
_refine_ls_hydrogen_treatment    mixed
_refine_ls_extinction_method     none
_refine_ls_extinction_coef       ?
_refine_ls_number_reflns         4131
_refine_ls_number_parameters     469
_refine_ls_number_restraints     24
_refine_ls_R_factor_all          0.0931
_refine_ls_R_factor_gt           0.0636
_refine_ls_wR_factor_ref         0.1742
_refine_ls_wR_factor_gt          0.1619
_refine_ls_goodness_of_fit_ref   1.028
_refine_ls_restrained_S_all      1.037
_refine_ls_shift/su_max          0.000
_refine_ls_shift/su_mean         0.000

loop_
_atom_site_label
_atom_site_type_symbol
_atom_site_fract_x
_atom_site_fract_y
_atom_site_fract_z
_atom_site_U_iso_or_equiv
_atom_site_adp_type
_atom_site_occupancy
_atom_site_symmetry_multiplicity
_atom_site_calc_flag
_atom_site_refinement_flags
_atom_site_disorder_assembly
_atom_site_disorder_group
Cd1 Cd 0.84425(8) 0.09233(5) 0.49264(5) 0.0394(3) Uani 1 1 d . . .
N1 N 0.9904(9) 0.1034(7) 0.3874(6) 0.054(3) Uani 1 1 d . . .
O1 O 1.4045(8) 0.0989(6) 0.2359(5) 0.062(2) Uani 1 1 d . . .
C1 C 1.0973(12) 0.1248(8) 0.1131(8) 0.059(3) Uani 1 1 d . . .
N2 N 1.1873(9) 0.1171(6) 0.1781(6) 0.049(2) Uani 1 1 d . . .
O2 O 0.9665(9) 0.1257(7) 0.1182(5) 0.086(3) Uani 1 1 d . . .
C2 C 1.1721(10) 0.1304(8) 0.0429(7) 0.047(3) Uani 1 1 d . . .
N3 N 0.7256(9) 0.1048(7) 0.6116(6) 0.041(2) Uani 1 1 d . . .
O3 O 0.3079(9) 0.1485(7) 0.7723(5) 0.083(3) Uani 1 1 d . . .
C3 C 1.3220(10) 0.1256(7) 0.0414(7) 0.042(3) Uani 1 1 d . . .
O4 O 0.7447(8) 0.1183(6) 0.8905(5) 0.065(2) Uani 1 1 d . . .
N4 N 0.5260(9) 0.1293(6) 0.8291(6) 0.047(2) Uani 1 1 d . . .
C4 C 1.4070(10) 0.1168(7) 0.1057(7) 0.038(3) Uani 1 1 d . . .
O5 O 0.8282(8) 0.2659(5) 0.5348(5) 0.056(2) Uani 1 1 d . . .
C5 C 1.3376(12) 0.1116(7) 0.1778(8) 0.049(3) Uani 1 1 d . . .
O6 O 0.6796(9) 0.1543(5) 0.4312(5) 0.070(2) Uani 1 1 d . . .
C6 C 1.5584(11) 0.1160(7) 0.1053(7) 0.053(3) Uani 1 1 d . . .
H6A H 1.6158 0.1138 0.1510 0.063 Uiso 1 1 calc R . .
O7 O 0.5278(8) 0.5071(5) 0.3579(6) 0.077(3) Uani 1 1 d U . .
C7 C 1.6233(11) 0.1185(7) 0.0350(8) 0.052(3) Uani 1 1 d . . .
H7A H 1.7246 0.1148 0.0330 0.062 Uiso 1 1 calc R . .
O8 O 0.7341(7) 0.9417(4) 0.4376(4) 0.0458(18) Uani 1 1 d . . .
C8 C 1.5427(10) 0.1262(7) -0.0310(7) 0.042(3) Uani 1 1 d . . .
O9 O 0.9529(7) 0.8919(5) 0.4230(4) 0.0502(19) Uani 1 1 d . . .
C9 C 1.3921(10) 0.1298(7) -0.0282(7) 0.040(3) Uani 1 1 d . . .
C10 C 1.3083(11) 0.1390(8) -0.0939(7) 0.054(3) Uani 1 1 d . . .
C11 C 1.1570(12) 0.1425(9) -0.0914(8) 0.074(4) Uani 1 1 d . . .
H11A H 1.1000 0.1481 -0.1356 0.088 Uiso 1 1 calc R . .
C12 C 1.0915(12) 0.1377(9) -0.0222(8) 0.075(4) Uani 1 1 d . . .
H12A H 0.9897 0.1396 -0.0207 0.090 Uiso 1 1 calc R . .
C13 C 0.6146(12) 0.1254(7) 0.8964(7) 0.046(3) Uani 1 1 d . . .
C14 C 0.3745(11) 0.1393(8) 0.8310(8) 0.058(3) Uani 1 1 d . . .
C15 C 0.5889(11) 0.1204(9) 0.7534(8) 0.046(3) Uani 1 1 d . . .
C16 C 0.5500(11) 0.0452(8) 0.6823(8) 0.044(3) Uani 1 1 d . . .
H16A H 0.4764 -0.0041 0.6791 0.053 Uiso 1 1 calc R . .
C17 C 0.6181(12) 0.0403(7) 0.6137(7) 0.041(3) Uani 1 1 d . . .
H17A H 0.5866 -0.0132 0.5636 0.049 Uiso 1 1 calc R . .
C18 C 0.7626(12) 0.1799(9) 0.6814(9) 0.054(3) Uani 1 1 d . . .
H18A H 0.8364 0.2281 0.6823 0.065 Uiso 1 1 calc R . .
C19 C 0.6991(13) 0.1920(8) 0.7533(8) 0.065(4) Uani 1 1 d . . .
H19A H 0.7286 0.2475 0.8020 0.078 Uiso 1 1 calc R . .
C20 C 1.0217(12) 0.0271(8) 0.3272(8) 0.054(3) Uani 1 1 d . . .
H20A H 0.9971 -0.0323 0.3305 0.065 Uiso 1 1 calc R . .
C21 C 1.0889(12) 0.0304(8) 0.2597(8) 0.056(3) Uani 1 1 d . . .
H21A H 1.1126 -0.0259 0.2192 0.067 Uiso 1 1 calc R . .
C22 C 1.1207(11) 0.1128(9) 0.2513(8) 0.049(3) Uani 1 1 d . . .
C23 C 1.0942(16) 0.1959(9) 0.3155(9) 0.092(5) Uani 1 1 d . . .
H23A H 1.1195 0.2562 0.3140 0.110 Uiso 1 1 calc R . .
C24 C 1.0292(17) 0.1850(10) 0.3810(9) 0.096(5) Uani 1 1 d . . .
H24A H 1.0110 0.2405 0.4247 0.115 Uiso 1 1 calc R . .
C25 C 0.7300(13) 0.2411(8) 0.4731(9) 0.052(3) Uani 1 1 d U . .
C26 C 0.6758(11) 0.3134(7) 0.4463(7) 0.044(3) Uani 1 1 d U . .
C27 C 0.7282(13) 0.4080(8) 0.4869(8) 0.068(4) Uani 1 1 d . . .
H27A H 0.7972 0.4277 0.5347 0.081 Uiso 1 1 calc R . .
C28 C 0.6833(14) 0.4768(8) 0.4603(8) 0.069(4) Uani 1 1 d . . .
H28A H 0.7217 0.5416 0.4894 0.082 Uiso 1 1 calc R . .
C29 C 0.5835(14) 0.4481(8) 0.3918(9) 0.066(3) Uani 1 1 d U . .
C30 C 0.5259(16) 0.3525(9) 0.3505(10) 0.100(5) Uani 1 1 d . . .
H30A H 0.4561 0.3325 0.3030 0.120 Uiso 1 1 calc R . .
C31 C 0.5717(15) 0.2873(8) 0.3794(9) 0.086(5) Uani 1 1 d . . .
H31A H 0.5300 0.2229 0.3521 0.103 Uiso 1 1 calc R . .
C32 C 0.6035(12) 0.5967(7) 0.3750(8) 0.060(3) Uani 1 1 d . . .
C33 C 0.5206(12) 0.6698(7) 0.3873(8) 0.060(3) Uani 1 1 d . . .
H33A H 0.4176 0.6577 0.3860 0.072 Uiso 1 1 calc R . .
C34 C 0.5866(10) 0.7586(7) 0.4011(7) 0.045(3) Uani 1 1 d . . .
H34A H 0.5288 0.8074 0.4087 0.054 Uiso 1 1 calc R . .
C35 C 0.7378(10) 0.7784(6) 0.4041(7) 0.038(3) Uani 1 1 d . . .
C36 C 0.8224(11) 0.7046(7) 0.3897(8) 0.057(3) Uani 1 1 d . . .
H36A H 0.9251 0.7165 0.3896 0.068 Uiso 1 1 calc R . .
C37 C 0.7557(12) 0.6155(8) 0.3756(9) 0.068(4) Uani 1 1 d . . .
H37A H 0.8128 0.5661 0.3663 0.082 Uiso 1 1 calc R . .
C38 C 0.8140(11) 0.8768(7) 0.4230(6) 0.040(3) Uani 1 1 d . . .

loop_
_atom_site_aniso_label
_atom_site_aniso_U_11
_atom_site_aniso_U_22
_atom_site_aniso_U_33
_atom_site_aniso_U_23
_atom_site_aniso_U_13
_atom_site_aniso_U_12
Cd1 0.0347(5) 0.0497(5) 0.0503(6) 0.0342(4) 0.0168(4) 0.0123(3)
N1 0.051(6) 0.054(6) 0.068(8) 0.035(6) 0.018(5) 0.008(5)
O1 0.050(5) 0.108(6) 0.054(6) 0.058(5) 0.011(4) 0.014(4)
C1 0.031(7) 0.099(9) 0.076(10) 0.060(8) 0.015(7) 0.021(6)
N2 0.032(5) 0.078(6) 0.052(7) 0.039(5) 0.019(5) 0.012(4)
O2 0.043(5) 0.181(9) 0.079(7) 0.089(6) 0.038(5) 0.042(5)
C2 0.025(6) 0.101(9) 0.042(8) 0.050(7) 0.015(6) 0.025(5)
N3 0.039(5) 0.045(6) 0.052(7) 0.031(6) 0.015(5) 0.004(4)
O3 0.048(5) 0.188(9) 0.060(6) 0.083(6) 0.027(5) 0.058(5)
C3 0.028(6) 0.066(7) 0.046(8) 0.034(6) 0.013(6) 0.015(5)
O4 0.033(5) 0.121(7) 0.055(6) 0.043(5) 0.016(4) 0.022(4)
N4 0.037(6) 0.077(6) 0.037(6) 0.031(5) 0.015(5) 0.019(4)
C4 0.031(6) 0.065(7) 0.032(7) 0.031(6) 0.014(6) 0.010(5)
O5 0.048(5) 0.060(5) 0.080(6) 0.048(5) 0.003(5) 0.020(4)
C5 0.040(7) 0.057(7) 0.060(9) 0.035(6) 0.002(7) 0.005(5)
O6 0.077(6) 0.054(5) 0.094(7) 0.049(5) -0.012(5) 0.004(4)
C6 0.040(7) 0.085(9) 0.044(8) 0.035(7) 0.007(6) 0.016(6)
O7 0.073(5) 0.048(4) 0.128(7) 0.061(4) -0.019(5) -0.002(4)
C7 0.017(6) 0.092(9) 0.056(9) 0.037(7) 0.010(6) 0.015(5)
O8 0.042(4) 0.053(4) 0.046(5) 0.021(4) 0.005(4) 0.012(4)
C8 0.020(6) 0.065(7) 0.048(8) 0.028(6) 0.003(6) 0.012(5)
O9 0.035(5) 0.071(5) 0.060(5) 0.045(4) 0.003(4) -0.002(3)
C9 0.018(6) 0.072(7) 0.034(7) 0.027(6) -0.008(6) 0.010(5)
C10 0.039(7) 0.100(9) 0.043(8) 0.040(7) 0.027(7) 0.032(6)
C11 0.041(8) 0.159(13) 0.053(9) 0.067(9) 0.021(7) 0.044(7)
C12 0.032(7) 0.151(12) 0.072(10) 0.066(9) 0.029(8) 0.041(7)
C13 0.028(7) 0.074(8) 0.049(9) 0.035(6) 0.017(7) 0.017(5)
C14 0.027(7) 0.102(9) 0.054(9) 0.037(7) 0.007(7) 0.025(6)
C15 0.039(7) 0.085(9) 0.038(9) 0.041(8) 0.029(6) 0.028(6)
C16 0.037(6) 0.073(9) 0.035(8) 0.029(7) 0.023(6) 0.022(6)
C17 0.057(7) 0.047(7) 0.027(7) 0.020(5) 0.004(6) 0.022(6)
C18 0.049(7) 0.059(8) 0.063(10) 0.033(8) 0.025(7) 0.004(6)
C19 0.059(8) 0.068(8) 0.065(10) 0.020(7) 0.025(8) 0.007(6)
C20 0.073(8) 0.055(8) 0.051(8) 0.032(7) 0.034(7) 0.022(6)
C21 0.070(8) 0.056(8) 0.052(9) 0.025(7) 0.034(7) 0.017(6)
C22 0.039(7) 0.075(9) 0.050(9) 0.040(8) 0.018(6) 0.006(6)
C23 0.136(13) 0.059(9) 0.082(11) 0.022(8) 0.068(10) 0.009(8)
C24 0.141(14) 0.071(11) 0.052(10) -0.002(8) 0.059(10) -0.002(8)
C25 0.055(6) 0.045(6) 0.076(8) 0.044(6) 0.020(6) 0.003(5)
C26 0.053(6) 0.030(5) 0.063(7) 0.034(5) -0.003(5) 0.008(4)
C27 0.062(8) 0.069(9) 0.093(10) 0.056(8) -0.001(7) 0.014(6)
C28 0.084(9) 0.041(7) 0.086(11) 0.041(7) -0.017(8) -0.013(6)
C29 0.069(7) 0.050(6) 0.099(8) 0.054(6) -0.006(6) 0.003(5)
C30 0.111(12) 0.055(9) 0.144(14) 0.066(9) -0.055(10) -0.014(8)
C31 0.104(11) 0.046(8) 0.112(12) 0.054(8) -0.059(10) -0.015(7)
C32 0.048(8) 0.052(7) 0.106(11) 0.058(7) -0.002(7) 0.016(6)
C33 0.038(7) 0.059(8) 0.108(11) 0.060(7) 0.005(7) 0.004(6)
C34 0.021(6) 0.050(7) 0.083(9) 0.044(6) 0.011(6) 0.015(5)
C35 0.037(6) 0.027(6) 0.061(8) 0.028(5) 0.011(5) 0.011(4)
C36 0.036(6) 0.057(8) 0.098(10) 0.052(7) 0.010(6) 0.011(6)
C37 0.046(8) 0.055(8) 0.132(12) 0.060(8) 0.022(7) 0.028(6)
C38 0.039(7) 0.060(7) 0.044(8) 0.041(6) 0.009(6) 0.020(6)

_geom_special_details            
; 
 All esds (except the esd in the dihedral angle between two l.s. planes) 
 are estimated using the full covariance matrix.  The cell esds are taken 
 into account individually in the estimation of esds in distances, angles 
 and torsion angles; correlations between esds in cell parameters are only 
 used when they are defined by crystal symmetry.  An approximate (isotropic) 
 treatment of cell esds is used for estimating esds involving l.s. planes. 
;

loop_
_geom_bond_atom_site_label_1
_geom_bond_atom_site_label_2
_geom_bond_distance
_geom_bond_site_symmetry_2
_geom_bond_publ_flag
Cd1 O8 2.201(7) 1_545 ?
Cd1 O9 2.205(7) 2_766 ?
Cd1 O6 2.265(7) . ?
Cd1 N3 2.326(9) . ?
Cd1 N1 2.356(9) . ?
Cd1 O5 2.477(7) . ?
Cd1 C25 2.715(11) . ?
N1 C20 1.299(12) . ?
N1 C24 1.299(15) . ?
O1 C5 1.227(12) . ?
C1 O2 1.198(12) . ?
C1 N2 1.394(14) . ?
C1 C2 1.447(15) . ?
N2 C5 1.377(13) . ?
N2 C22 1.452(13) . ?
C2 C12 1.348(15) . ?
C2 C3 1.373(13) . ?
N3 C18 1.293(13) . ?
N3 C17 1.316(12) . ?
O3 C14 1.207(13) . ?
C3 C4 1.367(14) . ?
C3 C9 1.410(14) . ?
O4 C13 1.205(11) . ?
N4 C13 1.393(13) . ?
N4 C14 1.403(12) . ?
N4 C15 1.420(13) . ?
C4 C6 1.378(13) . ?
C4 C5 1.450(15) . ?
O5 C25 1.252(13) . ?
O6 C25 1.251(12) . ?
C6 C7 1.389(14) . ?
C6 H6A 0.9300 . ?
O7 C32 1.367(12) . ?
O7 C29 1.368(13) . ?
C7 C8 1.364(14) . ?
C7 H7A 0.9300 . ?
O8 C38 1.247(10) . ?
O8 Cd1 2.201(7) 1_565 ?
C8 C9 1.379(13) . ?
C8 C13 1.442(14) 1_654 ?
O9 C38 1.257(11) . ?
O9 Cd1 2.205(7) 2_766 ?
C9 C10 1.384(14) . ?
C10 C11 1.384(14) . ?
C10 C14 1.461(16) 1_654 ?
C11 C12 1.386(15) . ?
C11 H11A 0.9300 . ?
C12 H12A 0.9300 . ?
C13 C8 1.442(14) 1_456 ?
C14 C10 1.461(16) 1_456 ?
C15 C16 1.308(14) . ?
C15 C19 1.395(15) . ?
C16 C17 1.346(14) . ?
C16 H16A 0.9300 . ?
C17 H17A 0.9300 . ?
C18 C19 1.355(15) . ?
C18 H18A 0.9300 . ?
C19 H19A 0.9300 . ?
C20 C21 1.361(14) . ?
C20 H20A 0.9300 . ?
C21 C22 1.318(14) . ?
C21 H21A 0.9300 . ?
C22 C23 1.379(15) . ?
C23 C24 1.359(17) . ?
C23 H23A 0.9300 . ?
C24 H24A 0.9300 . ?
C25 C26 1.466(14) . ?
C26 C31 1.345(14) . ?
C26 C27 1.347(14) . ?
C27 C28 1.381(14) . ?
C27 H27A 0.9300 . ?
C28 C29 1.337(15) . ?
C28 H28A 0.9300 . ?
C29 C30 1.371(15) . ?
C30 C31 1.360(15) . ?
C30 H30A 0.9300 . ?
C31 H31A 0.9300 . ?
C32 C33 1.369(13) . ?
C32 C37 1.378(14) . ?
C33 C34 1.339(12) . ?
C33 H33A 0.9300 . ?
C34 C35 1.366(12) . ?
C34 H34A 0.9300 . ?
C35 C36 1.384(12) . ?
C35 C38 1.479(13) . ?
C36 C37 1.343(13) . ?
C36 H36A 0.9300 . ?
C37 H37A 0.9300 . ?

loop_
_geom_angle_atom_site_label_1
_geom_angle_atom_site_label_2
_geom_angle_atom_site_label_3
_geom_angle
_geom_angle_site_symmetry_1
_geom_angle_site_symmetry_3
_geom_angle_publ_flag
O8 Cd1 O9 110.6(2) 1_545 2_766 ?
O8 Cd1 O6 97.8(3) 1_545 . ?
O9 Cd1 O6 151.6(3) 2_766 . ?
O8 Cd1 N3 85.7(3) 1_545 . ?
O9 Cd1 N3 83.4(3) 2_766 . ?
O6 Cd1 N3 98.5(3) . . ?
O8 Cd1 N1 103.4(3) 1_545 . ?
O9 Cd1 N1 90.6(3) 2_766 . ?
O6 Cd1 N1 83.3(3) . . ?
N3 Cd1 N1 170.4(3) . . ?
O8 Cd1 O5 149.3(3) 1_545 . ?
O9 Cd1 O5 97.7(3) 2_766 . ?
O6 Cd1 O5 54.5(3) . . ?
N3 Cd1 O5 86.0(3) . . ?
N1 Cd1 O5 87.5(3) . . ?
O8 Cd1 C25 124.5(3) 1_545 . ?
O9 Cd1 C25 124.6(3) 2_766 . ?
O6 Cd1 C25 27.2(3) . . ?
N3 Cd1 C25 94.5(3) . . ?
N1 Cd1 C25 82.8(3) . . ?
O5 Cd1 C25 27.4(3) . . ?
C20 N1 C24 116.4(10) . . ?
C20 N1 Cd1 121.6(8) . . ?
C24 N1 Cd1 121.6(8) . . ?
O2 C1 N2 119.2(11) . . ?
O2 C1 C2 124.8(11) . . ?
N2 C1 C2 115.9(9) . . ?
C5 N2 C1 124.5(10) . . ?
C5 N2 C22 116.4(9) . . ?
C1 N2 C22 119.1(8) . . ?
C12 C2 C3 120.4(10) . . ?
C12 C2 C1 119.0(9) . . ?
C3 C2 C1 120.6(10) . . ?
C18 N3 C17 115.6(10) . . ?
C18 N3 Cd1 119.8(7) . . ?
C17 N3 Cd1 124.5(8) . . ?
C4 C3 C2 122.1(10) . . ?
C4 C3 C9 118.3(9) . . ?
C2 C3 C9 119.6(10) . . ?
C13 N4 C14 123.4(10) . . ?
C13 N4 C15 119.4(8) . . ?
C14 N4 C15 117.2(9) . . ?
C3 C4 C6 121.7(10) . . ?
C3 C4 C5 119.5(9) . . ?
C6 C4 C5 118.8(10) . . ?
C25 O5 Cd1 86.9(6) . . ?
O1 C5 N2 119.2(11) . . ?
O1 C5 C4 123.4(10) . . ?
N2 C5 C4 117.4(10) . . ?
C25 O6 Cd1 96.