####################################################################### 
# 
# This file contains crystal structure data downloaded from the 
# Cambridge Structural Database (CSD) hosted by the Cambridge 
# Crystallographic Data Centre (CCDC).
# 
# Full information about CCDC data access policies and citation 
# guidelines are available at http://www.ccdc.cam.ac.uk/access/V1 
# 
# Audit and citation data items may have been added by the CCDC. 
# Please retain this information to preserve the provenance of 
# this file and to allow appropriate attribution of the data. 
# 
#######################################################################

data_exp_3263
_audit_block_doi                 10.5517/cc12ry3w
_database_code_depnum_ccdc_archive 'CCDC 1006108'
loop_
_citation_id
_citation_doi
_citation_year
1 10.1002/zaac.201400513 2015
_audit_update_record             
;
2014-05-31 deposited with the CCDC.	2024-07-10 downloaded from the CCDC.
;

_audit_creation_method           SHELXL-97
_chemical_name_systematic        
; 
 ? 
;
_chemical_name_common            ?
_chemical_melting_point          ?
_chemical_formula_moiety         ?
_chemical_formula_sum            'C42 H30 Cu6 N12 O'
_chemical_formula_weight         1100.02

loop_
_atom_type_symbol
_atom_type_description
_atom_type_scat_dispersion_real
_atom_type_scat_dispersion_imag
_atom_type_scat_source
C C 0.0033 0.0016 'International Tables Vol C Tables 4.2.6.8 and 6.1.1.4'
H H 0.0000 0.0000 'International Tables Vol C Tables 4.2.6.8 and 6.1.1.4'
O O 0.0106 0.0060 'International Tables Vol C Tables 4.2.6.8 and 6.1.1.4'
Cu Cu 0.3201 1.2651 'International Tables Vol C Tables 4.2.6.8 and 6.1.1.4'
N N 0.0061 0.0033 'International Tables Vol C Tables 4.2.6.8 and 6.1.1.4'

_symmetry_cell_setting           hexagonal
_symmetry_space_group_name_H-M   'P 6/m'
_symmetry_space_group_name_Hall  '-P 6'

loop_
_symmetry_equiv_pos_as_xyz
'x, y, z'
'x-y, x, z'
'-y, x-y, z'
'-x, -y, z'
'-x+y, -x, z'
'y, -x+y, z'
'-x, -y, -z'
'-x+y, -x, -z'
'y, -x+y, -z'
'x, y, -z'
'x-y, x, -z'
'-y, x-y, -z'

_cell_length_a                   14.656(2)
_cell_length_b                   14.656(2)
_cell_length_c                   11.4627(8)
_cell_angle_alpha                90.00
_cell_angle_beta                 90.00
_cell_angle_gamma                120.00
_cell_volume                     2132.3(4)
_cell_formula_units_Z            2
_cell_measurement_temperature    293(2)
_cell_measurement_reflns_used    ?
_cell_measurement_theta_min      ?
_cell_measurement_theta_max      ?

_exptl_crystal_description       needle
_exptl_crystal_colour            yellow
_exptl_crystal_size_max          0.24
_exptl_crystal_size_mid          0.12
_exptl_crystal_size_min          0.10
_exptl_crystal_density_meas      ?
_exptl_crystal_density_diffrn    1.713
_exptl_crystal_density_method    'not measured'
_exptl_crystal_F_000             1096
_exptl_absorpt_coefficient_mu    2.987
_exptl_absorpt_correction_type   Multi-scan
_exptl_absorpt_correction_T_min  0.657
_exptl_absorpt_correction_T_max  0.742
_exptl_absorpt_process_details   'SADABS (Bruker, 2002)'

_exptl_special_details           
; 
 ? 
;

_diffrn_ambient_temperature      293(2)
_diffrn_radiation_wavelength     0.71073
_diffrn_radiation_type           MoK\a
_diffrn_radiation_source         'fine-focus sealed tube'
_diffrn_radiation_monochromator  graphite
_diffrn_measurement_device_type  'Bruker APEX area-dectector diffractometer'
_diffrn_measurement_method       '\f and \w-scan'
_diffrn_detector_area_resol_mean ?
_diffrn_standards_number         0
_diffrn_standards_interval_count 0
_diffrn_standards_interval_time  0
_diffrn_standards_decay_%        0
_diffrn_reflns_number            14590
_diffrn_reflns_av_R_equivalents  0.1059
_diffrn_reflns_av_sigmaI/netI    0.1475
_diffrn_reflns_limit_h_min       -19
_diffrn_reflns_limit_h_max       19
_diffrn_reflns_limit_k_min       -18
_diffrn_reflns_limit_k_max       19
_diffrn_reflns_limit_l_min       -14
_diffrn_reflns_limit_l_max       14
_diffrn_reflns_theta_min         2.78
_diffrn_reflns_theta_max         28.58
_reflns_number_total             1836
_reflns_number_gt                697
_reflns_threshold_expression     >2sigma(I)

_computing_data_collection       'SMART (Bruker, 2002)'
_computing_cell_refinement       'SMART (Bruker, 2002)'
_computing_data_reduction        SAINT
_computing_structure_solution    'SHELXS-97 (Sheldrick, 1990)'
_computing_structure_refinement  'SHELXL-97 (Sheldrick, 1997)'
_computing_molecular_graphics    'ORTEP-II (Johnson, 1976)'
_computing_publication_material  SHELXL-97

_refine_special_details          
; 
 Refinement of F^2^ against ALL reflections.  The weighted R-factor wR and 
 goodness of fit S are based on F^2^, conventional R-factors R are based 
 on F, with F set to zero for negative F^2^. The threshold expression of 
 F^2^ > 2sigma(F^2^) is used only for calculating R-factors(gt) etc. and is 
 not relevant to the choice of reflections for refinement.  R-factors based 
 on F^2^ are statistically about twice as large as those based on F, and R- 
 factors based on ALL data will be even larger. 
;

_refine_ls_structure_factor_coef Fsqd
_refine_ls_matrix_type           full
_refine_ls_weighting_scheme      calc
_refine_ls_weighting_details     
'calc w=1/[\s^2^(Fo^2^)+(0.0923P)^2^+0.0000P] where P=(Fo^2^+2Fc^2^)/3'
_atom_sites_solution_primary     direct
_atom_sites_solution_secondary   difmap
_atom_sites_solution_hydrogens   geom
_refine_ls_hydrogen_treatment    mixed
_refine_ls_extinction_method     none
_refine_ls_extinction_coef       ?
_refine_ls_number_reflns         1836
_refine_ls_number_parameters     96
_refine_ls_number_restraints     0
_refine_ls_R_factor_all          0.2224
_refine_ls_R_factor_gt           0.0847
_refine_ls_wR_factor_ref         0.2396
_refine_ls_wR_factor_gt          0.1735
_refine_ls_goodness_of_fit_ref   0.977
_refine_ls_restrained_S_all      0.977
_refine_ls_shift/su_max          0.000
_refine_ls_shift/su_mean         0.000

loop_
_atom_site_label
_atom_site_type_symbol
_atom_site_fract_x
_atom_site_fract_y
_atom_site_fract_z
_atom_site_U_iso_or_equiv
_atom_site_adp_type
_atom_site_occupancy
_atom_site_symmetry_multiplicity
_atom_site_calc_flag
_atom_site_refinement_flags
_atom_site_disorder_assembly
_atom_site_disorder_group
Cu1 Cu 0.56758(9) 0.42490(8) 0.25014(9) 0.0504(5) Uani 1 1 d . . .
N2 N 0.5240(6) 0.3754(6) 0.4020(6) 0.055(2) Uani 1 1 d . . .
N1 N 0.6080(6) 0.4757(6) 0.0980(6) 0.052(2) Uani 1 1 d . . .
C5 C 0.5831(9) 0.4200(10) 0.0000 0.041(3) Uani 1 2 d S . .
H5 H 0.5506 0.3469 0.0000 0.049 Uiso 1 2 calc SR . .
C4 C 0.5684(9) 0.4317(9) 0.5000 0.045(3) Uani 1 2 d S . .
H3 H 0.6232 0.5012 0.5000 0.054 Uiso 1 2 calc SR . .
C6 C 0.6481(6) 0.5766(8) 0.0617(7) 0.046(2) Uani 1 1 d . . .
C7 C 0.6811(8) 0.6686(9) 0.1227(9) 0.067(3) Uani 1 1 d . . .
H7 H 0.6804 0.6684 0.2039 0.080 Uiso 1 1 calc R . .
C3 C 0.4451(7) 0.2817(7) 0.4390(6) 0.045(2) Uani 1 1 d . . .
C2 C 0.3757(7) 0.1959(7) 0.3767(8) 0.056(3) Uani 1 1 d . . .
H1 H 0.3769 0.1967 0.2956 0.067 Uiso 1 1 calc R . .
C8 C 0.7147(8) 0.7598(8) 0.0628(8) 0.069(3) Uani 1 1 d . . .
H8 H 0.7379 0.8226 0.1032 0.083 Uiso 1 1 calc R . .
C1 C 0.3030(7) 0.1070(8) 0.4375(8) 0.071(3) Uani 1 1 d . . .
H4 H 0.2542 0.0474 0.3970 0.086 Uiso 1 1 calc R . .
O1 O 0.0000 0.0000 0.263(5) 0.47(5) Uiso 1 6 d S . .

loop_
_atom_site_aniso_label
_atom_site_aniso_U_11
_atom_site_aniso_U_22
_atom_site_aniso_U_33
_atom_site_aniso_U_23
_atom_site_aniso_U_13
_atom_site_aniso_U_12
Cu1 0.0635(8) 0.0653(8) 0.0188(6) 0.0036(5) 0.0013(5) 0.0295(6)
N2 0.062(5) 0.062(5) 0.031(5) 0.001(4) -0.001(4) 0.024(5)
N1 0.064(5) 0.066(6) 0.023(4) 0.001(4) -0.003(4) 0.030(4)
C5 0.039(7) 0.052(8) 0.025(7) 0.000 0.000 0.017(6)
C4 0.043(8) 0.043(8) 0.032(8) 0.000 0.000 0.009(6)
C6 0.043(5) 0.055(6) 0.037(5) -0.003(4) -0.004(4) 0.022(5)
C7 0.075(8) 0.082(8) 0.051(7) -0.008(6) -0.004(6) 0.045(7)
C3 0.064(6) 0.054(6) 0.027(4) -0.003(4) 0.001(4) 0.036(5)
C2 0.077(7) 0.052(6) 0.046(6) 0.002(5) 0.003(5) 0.038(6)
C8 0.091(8) 0.064(7) 0.069(7) -0.020(6) -0.013(6) 0.051(7)
C1 0.080(8) 0.049(6) 0.077(8) -0.013(5) -0.029(5) 0.026(6)

_geom_special_details            
; 
 All esds (except the esd in the dihedral angle between two l.s. planes) 
 are estimated using the full covariance matrix.  The cell esds are taken 
 into account individually in the estimation of esds in distances, angles 
 and torsion angles; correlations between esds in cell parameters are only 
 used when they are defined by crystal symmetry.  An approximate (isotropic) 
 treatment of cell esds is used for estimating esds involving l.s. planes. 
;

loop_
_geom_bond_atom_site_label_1
_geom_bond_atom_site_label_2
_geom_bond_distance
_geom_bond_site_symmetry_2
_geom_bond_publ_flag
Cu1 N2 1.871(7) . ?
Cu1 N1 1.872(7) . ?
N2 C3 1.347(11) . ?
N2 C4 1.352(9) . ?
N1 C5 1.328(9) . ?
N1 C6 1.355(10) . ?
C5 N1 1.328(9) 10 ?
C5 H5 0.9300 . ?
C4 N2 1.352(9) 10_556 ?
C4 H3 0.9300 . ?
C6 C7 1.375(12) . ?
C6 C6 1.414(16) 10 ?
C7 C8 1.357(12) . ?
C7 H7 0.9300 . ?
C3 C2 1.358(11) . ?
C3 C3 1.399(15) 10_556 ?
C2 C1 1.390(11) . ?
C2 H1 0.9300 . ?
C8 C8 1.441(19) 10 ?
C8 H8 0.9300 . ?
C1 C1 1.433(19) 10_556 ?
C1 H4 0.9300 . ?

loop_
_geom_angle_atom_site_label_1
_geom_angle_atom_site_label_2
_geom_angle_atom_site_label_3
_geom_angle
_geom_angle_site_symmetry_1
_geom_angle_site_symmetry_3
_geom_angle_publ_flag
N2 Cu1 N1 178.2(3) . . ?
C3 N2 C4 105.5(8) . . ?
C3 N2 Cu1 129.8(6) . . ?
C4 N2 Cu1 124.7(6) . . ?
C5 N1 C6 104.3(8) . . ?
C5 N1 Cu1 127.5(7) . . ?
C6 N1 Cu1 126.8(6) . . ?
N1 C5 N1 115.5(12) . 10 ?
N1 C5 H5 122.3 . . ?
N1 C5 H5 122.3 10 . ?
N2 C4 N2 112.3(11) . 10_556 ?
N2 C4 H3 123.9 . . ?
N2 C4 H3 123.9 10_556 . ?
N1 C6 C7 131.4(8) . . ?
N1 C6 C6 107.9(5) . 10 ?
C7 C6 C6 120.6(6) . 10 ?
C8 C7 C6 119.0(10) . . ?
C8 C7 H7 120.5 . . ?
C6 C7 H7 120.5 . . ?
N2 C3 C2 129.9(8) . . ?
N2 C3 C3 108.3(4) . 10_556 ?
C2 C3 C3 121.7(5) . 10_556 ?
C3 C2 C1 118.2(9) . . ?
C3 C2 H1 120.9 . . ?
C1 C2 H1 120.9 . . ?
C7 C8 C8 120.4(6) . 10 ?
C7 C8 H8 119.8 . . ?
C8 C8 H8 119.8 10 . ?
C2 C1 C1 120.1(5) . 10_556 ?
C2 C1 H4 120.0 . . ?
C1 C1 H4 120.0 10_556 . ?

loop_
_geom_torsion_atom_site_label_1
_geom_torsion_atom_site_label_2
_geom_torsion_atom_site_label_3
_geom_torsion_atom_site_label_4
_geom_torsion
_geom_torsion_site_symmetry_1
_geom_torsion_site_symmetry_2
_geom_torsion_site_symmetry_3
_geom_torsion_site_symmetry_4
_geom_torsion_publ_flag
N1 Cu1 N2 C3 85(11) . . . . ?
N1 Cu1 N2 C4 -94(11) . . . . ?
N2 Cu1 N1 C5 -102(11) . . . . ?
N2 Cu1 N1 C6 62(11) . . . . ?
C6 N1 C5 N1 3.1(13) . . . 10 ?
Cu1 N1 C5 N1 169.9(4) . . . 10 ?
C3 N2 C4 N2 3.2(13) . . . 10_556 ?
Cu1 N2 C4 N2 -177.7(4) . . . 10_556 ?
C5 N1 C6 C7 175.4(10) . . . . ?
Cu1 N1 C6 C7 8.4(15) . . . . ?
C5 N1 C6 C6 -1.7(8) . . . 10 ?
Cu1 N1 C6 C6 -168.7(5) . . . 10 ?
N1 C6 C7 C8 -177.4(9) . . . . ?
C6 C6 C7 C8 -0.6(12) 10 . . . ?
C4 N2 C3 C2 -179.6(10) . . . . ?
Cu1 N2 C3 C2 1.3(14) . . . . ?
C4 N2 C3 C3 -1.9(8) . . . 10_556 ?
Cu1 N2 C3 C3 179.0(5) . . . 10_556 ?
N2 C3 C2 C1 178.0(9) . . . . ?
C3 C3 C2 C1 0.6(11) 10_556 . . . ?
C6 C7 C8 C8 0.6(12) . . . 10 ?
C3 C2 C1 C1 -0.6(11) . . . 10_556 ?

_diffrn_measured_fraction_theta_max 0.981
_diffrn_reflns_theta_full        28.58
_diffrn_measured_fraction_theta_full 0.981
_refine_diff_density_max         0.712
_refine_diff_density_min         -0.587
_refine_diff_density_rms         0.132
