####################################################################### 
# 
# This file contains crystal structure data downloaded from the 
# Cambridge Structural Database (CSD) hosted by the Cambridge 
# Crystallographic Data Centre (CCDC).
# 
# Full information about CCDC data access policies and citation 
# guidelines are available at http://www.ccdc.cam.ac.uk/access/V1 
# 
# Audit and citation data items may have been added by the CCDC. 
# Please retain this information to preserve the provenance of 
# this file and to allow appropriate attribution of the data. 
# 
#######################################################################

data_UWDM4_BF4
_audit_block_doi                 10.5517/cc13rm1j
_database_code_depnum_ccdc_archive 'CCDC 1035587'
loop_
_citation_id
_citation_doi
_citation_year
1 10.1038/nchem.2258 2015
_audit_update_record             
;
2014-11-21 deposited with the CCDC.	2024-07-10 downloaded from the CCDC.
;

_audit_creation_method           SHELXL-2013
_chemical_name_systematic        
;
 ?
;
_chemical_name_common            ?
_chemical_melting_point          ?
_chemical_formula_moiety         "C192 H177 N12 O50 Zn8''B3 F12''C32 H96 O16"
_chemical_formula_sum            'C224 H273 B3 F12 N12 O66 Zn8'
_chemical_formula_weight         4972.92

loop_
_atom_type_symbol
_atom_type_description
_atom_type_scat_dispersion_real
_atom_type_scat_dispersion_imag
_atom_type_scat_source
C C 0.0033 0.0016 'International Tables Vol C Tables 4.2.6.8 and 6.1.1.4'
H H 0.0000 0.0000 'International Tables Vol C Tables 4.2.6.8 and 6.1.1.4'
N N 0.0061 0.0033 'International Tables Vol C Tables 4.2.6.8 and 6.1.1.4'
O O 0.0106 0.0060 'International Tables Vol C Tables 4.2.6.8 and 6.1.1.4'
Zn Zn 0.2839 1.4301 'International Tables Vol C Tables 4.2.6.8 and 6.1.1.4'
B B 0.0013 0.0007 'International Tables Vol C Tables 4.2.6.8 and 6.1.1.4'
F F 0.0171 0.0103 'International Tables Vol C Tables 4.2.6.8 and 6.1.1.4'

_space_group_crystal_system      trigonal
_space_group_IT_number           155
_space_group_name_H-M_alt        'R 3 2 :H'
_space_group_name_Hall           'R 3 2"'

_shelx_space_group_comment       
;
The symmetry employed for this shelxl refinement is uniquely defined
by the following loop, which should always be used as a source of
symmetry information in preference to the above space-group names.
They are only intended as comments.
;

loop_
_space_group_symop_operation_xyz
'x, y, z'
'-y, x-y, z'
'-x+y, -x, z'
'y, x, -z'
'x-y, -y, -z'
'-x, -x+y, -z'
'x+2/3, y+1/3, z+1/3'
'-y+2/3, x-y+1/3, z+1/3'
'-x+y+2/3, -x+1/3, z+1/3'
'y+2/3, x+1/3, -z+1/3'
'x-y+2/3, -y+1/3, -z+1/3'
'-x+2/3, -x+y+1/3, -z+1/3'
'x+1/3, y+2/3, z+2/3'
'-y+1/3, x-y+2/3, z+2/3'
'-x+y+1/3, -x+2/3, z+2/3'
'y+1/3, x+2/3, -z+2/3'
'x-y+1/3, -y+2/3, -z+2/3'
'-x+1/3, -x+y+2/3, -z+2/3'

_cell_length_a                   33.030(4)
_cell_length_b                   33.030(4)
_cell_length_c                   28.099(4)
_cell_angle_alpha                90
_cell_angle_beta                 90
_cell_angle_gamma                120
_cell_volume                     26549(7)
_cell_formula_units_Z            3
_cell_measurement_temperature    150(2)
_cell_measurement_reflns_used    235
_cell_measurement_theta_min      2.136
_cell_measurement_theta_max      23.257

_exptl_crystal_description       block
_exptl_crystal_colour            pale_yellow
_exptl_crystal_density_meas      ?
_exptl_crystal_density_method    ?
_exptl_crystal_density_diffrn    0.933
_exptl_crystal_F_000             7776
_exptl_transmission_factor_min   ?
_exptl_transmission_factor_max   ?
_exptl_crystal_size_max          0.260
_exptl_crystal_size_mid          0.180
_exptl_crystal_size_min          0.080
_exptl_absorpt_coefficient_mu    0.595
_shelx_estimated_absorpt_T_min   0.861
_shelx_estimated_absorpt_T_max   0.954
_exptl_absorpt_correction_type   empirical
_exptl_absorpt_correction_T_min  0.6245
_exptl_absorpt_correction_T_max  0.7454
_exptl_absorpt_process_details   sadabs

_exptl_special_details           
;
 ?
;

_diffrn_ambient_temperature      150(2)
_diffrn_radiation_wavelength     0.71073
_diffrn_radiation_type           MoK\a
_diffrn_source                   'fine-focus sealed tube'
_diffrn_measurement_device_type  ?
_diffrn_measurement_method       ?
_diffrn_detector_area_resol_mean ?
_diffrn_reflns_number            73402
_diffrn_reflns_av_unetI/netI     0.0515
_diffrn_reflns_av_R_equivalents  0.0846
_diffrn_reflns_limit_h_min       -36
_diffrn_reflns_limit_h_max       36
_diffrn_reflns_limit_k_min       -36
_diffrn_reflns_limit_k_max       36
_diffrn_reflns_limit_l_min       -31
_diffrn_reflns_limit_l_max       31
_diffrn_reflns_theta_min         2.136
_diffrn_reflns_theta_max         23.257
_diffrn_reflns_theta_full        25.242
_diffrn_measured_fraction_theta_max 0.998
_diffrn_measured_fraction_theta_full 0.794
_diffrn_reflns_Laue_measured_fraction_max 0.998
_diffrn_reflns_Laue_measured_fraction_full 0.794
_diffrn_reflns_point_group_measured_fraction_max 0.998
_diffrn_reflns_point_group_measured_fraction_full 0.792
_reflns_number_total             8490
_reflns_number_gt                5182
_reflns_threshold_expression     'I > 2\s(I)'
_reflns_Friedel_coverage         0.887
_reflns_Friedel_fraction_max     0.999
_reflns_Friedel_fraction_full    0.790

_reflns_special_details          
;
 Reflections were merged by SHELXL according to the crystal
 class for the calculation of statistics and refinement.
 
 Structure factors included contributions from the .fab file.
 
 _reflns_Friedel_fraction is defined as the number of unique
 Friedel pairs measured divided by the number that would be
 possible theoretically, ignoring centric projections and
 systematic absences.

 A series of DFIX, DANG, DELU and SIMU restraints were used to 
 maintain a 24C8 crown ether and allow refinement of this
 group with chemically meaningful bond distance and angles.
;

_computing_data_collection       'Bruker SMART'
_computing_cell_refinement       'Bruker SAINT'
_computing_data_reduction        'Bruker SHELXTL XPREP'
_computing_structure_solution    'SHELXS-97 (Sheldrick, 2008)'
_computing_structure_refinement  'SHELXL-2013 (Sheldrick, 2013)'
_computing_molecular_graphics    'Bruker SHELXTL XP'
_computing_publication_material  'Bruker SHELXTL XCIF'

_refine_special_details          SQUEEZE
_refine_ls_structure_factor_coef Fsqd
_refine_ls_matrix_type           full
_refine_ls_weighting_scheme      calc
_refine_ls_weighting_details     
;
 w=1/[\s^2^(Fo^2^)+(0.2000P)^2^]
 where P=(Fo^2^+2Fc^2^)/3
;
_atom_sites_solution_primary     direct
_atom_sites_solution_secondary   difmap
_atom_sites_solution_hydrogens   geom
_refine_ls_hydrogen_treatment    constr
_refine_ls_extinction_method     none
_refine_ls_extinction_coef       .
_refine_ls_abs_structure_details 
;
 Flack x determined using 1988 quotients [(I+)-(I-)]/[(I+)+(I-)]
 (Parsons and Flack (2004), Acta Cryst. A60, s61).
;
_refine_ls_abs_structure_Flack   0.079(11)
_chemical_absolute_configuration ?
_refine_ls_number_reflns         8490
_refine_ls_number_parameters     466
_refine_ls_number_restraints     223
_refine_ls_R_factor_all          0.1311
_refine_ls_R_factor_gt           0.0782
_refine_ls_wR_factor_ref         0.2814
_refine_ls_wR_factor_gt          0.2135
_refine_ls_goodness_of_fit_ref   0.997
_refine_ls_restrained_S_all      0.998
_refine_ls_shift/su_max          0.000
_refine_ls_shift/su_mean         0.000

loop_
_platon_squeeze_void_nr
_platon_squeeze_void_average_x
_platon_squeeze_void_average_y
_platon_squeeze_void_average_z
_platon_squeeze_void_volume
_platon_squeeze_void_count_electrons
_platon_squeeze_void_content
1 -0.003 -0.002 -0.001 12580 1636 ' '
_platon_squeeze_details          
;
 The unit cell was calculated to contain 3 BF4 anions
 which could not be located and an estimated 48 molecules
 of ethanol. These were treated as a diffuse 
 contribution to the overall scattering without specific
 atom positions by SQUEEZE/PLATON
;
loop_
_atom_site_label
_atom_site_type_symbol
_atom_site_fract_x
_atom_site_fract_y
_atom_site_fract_z
_atom_site_U_iso_or_equiv
_atom_site_adp_type
_atom_site_occupancy
_atom_site_site_symmetry_order
_atom_site_calc_flag
_atom_site_refinement_flags_posn
_atom_site_refinement_flags_adp
_atom_site_refinement_flags_occupancy
_atom_site_disorder_assembly
_atom_site_disorder_group
Zn1 Zn 0.6667 0.3333 -0.02709(7) 0.0661(6) Uani 1 3 d S T P . .
Zn2 Zn 0.60366(4) 0.30586(5) 0.06652(5) 0.0859(5) Uani 1 1 d . . . . .
O1 O 0.6901(3) 0.3954(2) -0.0552(3) 0.086(2) Uani 1 1 d . . . . .
O2 O 0.9165(5) 0.9122(5) -0.2399(6) 0.179(7) Uani 1 1 d . . . . .
O3 O 0.7245(5) 0.4358(3) 0.0091(4) 0.128(4) Uani 1 1 d . . . . .
O4 O 0.9844(6) 0.9055(4) -0.2434(6) 0.159(6) Uani 1 1 d . . . . .
O5 O 0.6667 0.3333 0.0411(4) 0.065(2) Uani 1 3 d S T P . .
N1 N 0.7554(4) 0.6475(3) -0.0740(4) 0.100(3) Uani 1 1 d . . . . .
H1A H 0.7363 0.6239 -0.0558 0.120 Uiso 1 1 calc R U . . .
N2 N 0.7927(4) 0.7180(4) -0.1047(5) 0.107(4) Uani 1 1 d . . . . .
H2A H 0.8031 0.7479 -0.1096 0.128 Uiso 1 1 calc R U . . .
C1 C 0.7140(5) 0.4322(4) -0.0321(6) 0.091(4) Uani 1 1 d . . . . .
C2 C 0.7304(4) 0.4772(2) -0.0598(4) 0.114(5) Uani 1 1 d G . . . .
C3 C 0.7538(4) 0.5189(3) -0.0346(4) 0.130(5) Uani 1 1 d G . . . .
H3A H 0.7584 0.5185 -0.0013 0.156 Uiso 1 1 calc R U . . .
C4 C 0.7704(4) 0.5613(2) -0.0582(4) 0.143(7) Uani 1 1 d G . . . .
H4A H 0.7864 0.5899 -0.0410 0.171 Uiso 1 1 calc R U . . .
C5 C 0.7637(4) 0.5620(3) -0.1070(4) 0.145(8) Uani 1 1 d G . . . .
C6 C 0.7402(5) 0.5203(4) -0.1321(3) 0.154(8) Uani 1 1 d G . . . .
H6A H 0.7356 0.5207 -0.1655 0.184 Uiso 1 1 calc R U . . .
C7 C 0.7236(4) 0.4779(3) -0.1085(4) 0.118(6) Uani 1 1 d G . . . .
H7A H 0.7076 0.4493 -0.1257 0.141 Uiso 1 1 calc R U . . .
C8 C 0.7850(5) 0.6098(3) -0.1302(5) 0.157(8) Uani 1 1 d G . . . .
C9 C 0.7808(4) 0.6458(3) -0.1096(4) 0.125(6) Uani 1 1 d G . . . .
C10 C 0.8029(5) 0.6900(3) -0.1302(5) 0.138(7) Uani 1 1 d G . . . .
C11 C 0.8291(6) 0.6982(3) -0.1714(6) 0.227(16) Uani 1 1 d G . . . .
C12 C 0.8333(7) 0.6622(4) -0.1921(5) 0.228(14) Uani 1 1 d G . . . .
H12A H 0.8512 0.6678 -0.2202 0.274 Uiso 1 1 calc R U . . .
C13 C 0.8112(6) 0.6180(4) -0.1714(5) 0.188(10) Uani 1 1 d G . . . .
H13A H 0.8141 0.5934 -0.1855 0.226 Uiso 1 1 calc R U . . .
C14 C 0.8561(5) 0.7470(3) -0.1946(7) 0.207(13) Uani 1 1 d G . . . .
C15 C 0.9029(5) 0.7650(4) -0.2066(8) 0.27(2) Uani 1 1 d G . . . .
H15A H 0.9167 0.7458 -0.2043 0.324 Uiso 1 1 calc R U . . .
C16 C 0.9294(5) 0.8111(4) -0.2218(7) 0.238(16) Uani 1 1 d G . . . .
H16A H 0.9613 0.8234 -0.2300 0.286 Uiso 1 1 calc R U . . .
C17 C 0.9091(6) 0.8391(3) -0.2251(6) 0.217(15) Uani 1 1 d G . . . .
C18 C 0.8624(6) 0.8211(4) -0.2132(6) 0.188(11) Uani 1 1 d G . . . .
H18A H 0.8486 0.8403 -0.2154 0.225 Uiso 1 1 calc R U . . .
C19 C 0.8359(4) 0.7751(4) -0.1979(6) 0.185(10) Uani 1 1 d G . . . .
H19A H 0.8039 0.7627 -0.1898 0.222 Uiso 1 1 calc R U . . .
C20 C 0.9418(10) 0.8901(6) -0.2422(11) 0.203(11) Uani 1 1 d . . . . .
C21 C 0.7640(6) 0.6915(5) -0.0708(7) 0.119(6) Uani 1 1 d . . . . .
C22 C 0.7441(5) 0.7080(5) -0.0338(6) 0.096(4) Uani 1 1 d . . . . .
C23 C 0.6999(5) 0.6824(5) -0.0168(6) 0.114(5) Uani 1 1 d . . . . .
H23A H 0.6805 0.6515 -0.0283 0.137 Uiso 1 1 calc R U . . .
C24 C 0.7696(6) 0.7550(6) -0.0174(8) 0.165(9) Uani 1 1 d . . . . .
H24A H 0.7982 0.7762 -0.0326 0.198 Uiso 1 1 calc R U . . .
O6 O 0.5166(14) 0.4854(16) 0.3310(10) 0.25(2) Uani 0.5 1 d D . P A -1
O7 O 0.5326(8) 0.5823(9) 0.3580(10) 0.153(8) Uani 0.5 1 d D U P A -1
O8 O 0.5621(7) 0.6581(6) 0.3037(7) 0.130(6) Uani 0.5 1 d D U P A -1
O9 O 0.5823(11) 0.6691(12) 0.1985(11) 0.195(11) Uani 0.5 1 d D U P A -1
O10 O 0.6801(15) 0.664(2) 0.1506(16) 0.276(17) Uani 0.5 1 d D U P A -1
O11 O 0.7193(13) 0.5953(14) 0.2190(13) 0.239(13) Uani 0.5 1 d D U P A -1
O12 O 0.6552(11) 0.5061(11) 0.2278(10) 0.180(9) Uani 0.5 1 d D U P A -1
O13 O 0.5652(16) 0.4456(15) 0.2827(14) 0.250(15) Uani 0.5 1 d D U P A -1
C25 C 0.5040(15) 0.5001(12) 0.3713(17) 0.196(15) Uani 0.5 1 d D U P A -1
H25A H 0.5011 0.4787 0.3975 0.236 Uiso 0.5 1 calc R U P A -1
H25B H 0.4725 0.4956 0.3658 0.236 Uiso 0.5 1 calc R U P A -1
C26 C 0.5347(15) 0.5494(12) 0.3890(14) 0.181(13) Uani 0.5 1 d D U P A -1
H26A H 0.5244 0.5525 0.4213 0.217 Uiso 0.5 1 calc R U P A -1
H26B H 0.5674 0.5561 0.3913 0.217 Uiso 0.5 1 calc R U P A -1
C27 C 0.5528(12) 0.6271(10) 0.3786(11) 0.165(9) Uani 0.5 1 d D U P A -1
H27A H 0.5869 0.6400 0.3825 0.198 Uiso 0.5 1 calc R U P A -1
H27B H 0.5390 0.6250 0.4104 0.198 Uiso 0.5 1 calc R U P A -1
C28 C 0.5442(11) 0.6581(11) 0.3478(10) 0.156(9) Uani 0.5 1 d D U P A -1
H28A H 0.5102 0.6465 0.3455 0.187 Uiso 0.5 1 calc R U P A -1
H28B H 0.5597 0.6901 0.3610 0.187 Uiso 0.5 1 calc R U P A -1
C29 C 0.5560(15) 0.6876(12) 0.2717(11) 0.177(11) Uani 0.5 1 d D U P A -1
H29A H 0.5591 0.7148 0.2896 0.213 Uiso 0.5 1 calc R U P A -1
H29B H 0.5237 0.6703 0.2591 0.213 Uiso 0.5 1 calc R U P A -1
C30 C 0.5885(15) 0.7048(13) 0.2313(13) 0.198(12) Uani 0.5 1 d D U P A -1
H30A H 0.5845 0.7287 0.2141 0.238 Uiso 0.5 1 calc R U P A -1
H30B H 0.6210 0.7202 0.2436 0.238 Uiso 0.5 1 calc R U P A -1
C31 C 0.6161(17) 0.685(2) 0.1603(16) 0.259(18) Uani 0.5 1 d D U P A -1
H31A H 0.6180 0.7130 0.1464 0.311 Uiso 0.5 1 calc R U P A -1
H31B H 0.6033 0.6602 0.1353 0.311 Uiso 0.5 1 calc R U P A -1
C32 C 0.6645(15) 0.6953(17) 0.171(2) 0.257(17) Uani 0.5 1 d D U P A -1
H32A H 0.6861 0.7273 0.1590 0.308 Uiso 0.5 1 calc R U P A -1
H32B H 0.6681 0.6956 0.2055 0.308 Uiso 0.5 1 calc R U P A -1
C33 C 0.6964(17) 0.6462(18) 0.1871(17) 0.236(16) Uani 0.5 1 d D U P A -1
H33A H 0.6775 0.6423 0.2159 0.283 Uiso 0.5 1 calc R U P A -1
H33B H 0.7290 0.6704 0.1946 0.283 Uiso 0.5 1 calc R U P A -1
C34 C 0.6962(14) 0.6017(18) 0.1796(16) 0.232(16) Uani 0.5 1 d D U P A -1
H34A H 0.6637 0.5754 0.1774 0.278 Uiso 0.5 1 calc R U P A -1
H34B H 0.7127 0.6031 0.1497 0.278 Uiso 0.5 1 calc R U P A -1
C35 C 0.7363(16) 0.5636(17) 0.215(2) 0.260(16) Uani 0.5 1 d D U P A -1
H35A H 0.7685 0.5773 0.2273 0.312 Uiso 0.5 1 calc R U P A -1
H35B H 0.7357 0.5541 0.1812 0.312 Uiso 0.5 1 calc R U P A -1
C36 C 0.7029(13) 0.5240(15) 0.2440(19) 0.234(15) Uani 0.5 1 d D U P A -1
H36A H 0.7107 0.4987 0.2425 0.281 Uiso 0.5 1 calc R U P A -1
H36B H 0.7055 0.5342 0.2775 0.281 Uiso 0.5 1 calc R U P A -1
C37 C 0.6351(14) 0.4578(13) 0.2367(18) 0.219(16) Uani 0.5 1 d D U P A -1
H37A H 0.6499 0.4537 0.2655 0.263 Uiso 0.5 1 calc R U P A -1
H37B H 0.6427 0.4435 0.2097 0.263 Uiso 0.5 1 calc R U P A -1
C38 C 0.5839(15) 0.4320(17) 0.2436(19) 0.251(18) Uani 0.5 1 d D U P A -1
H38A H 0.5693 0.4349 0.2140 0.301 Uiso 0.5 1 calc R U P A -1
H38B H 0.5739 0.3985 0.2476 0.301 Uiso 0.5 1 calc R U P A -1
C39 C 0.5180(18) 0.435(2) 0.2733(19) 0.26(2) Uani 0.5 1 d D U P A -1
H39A H 0.5002 0.4021 0.2611 0.313 Uiso 0.5 1 calc R U P A -1
H39B H 0.5185 0.4555 0.2478 0.313 Uiso 0.5 1 calc R U P A -1
C40 C 0.493(2) 0.4388(15) 0.315(2) 0.26(3) Uani 0.5 1 d D U P A -1
H40A H 0.4603 0.4297 0.3059 0.313 Uiso 0.5 1 calc R U P A -1
H40B H 0.4913 0.4177 0.3408 0.313 Uiso 0.5 1 calc R U P A -1

loop_
_atom_site_aniso_label
_atom_site_aniso_U_11
_atom_site_aniso_U_22
_atom_site_aniso_U_33
_atom_site_aniso_U_23
_atom_site_aniso_U_13
_atom_site_aniso_U_12
Zn1 0.0481(6) 0.0481(6) 0.1020(14) 0.000 0.000 0.0241(3)
Zn2 0.0673(8) 0.0683(9) 0.1186(11) 0.0106(9) 0.0111(6) 0.0313(7)
O1 0.091(6) 0.048(4) 0.119(6) 0.016(4) 0.008(5) 0.033(4)
O2 0.176(14) 0.134(11) 0.237(17) 0.084(10) 0.089(12) 0.083(10)
O3 0.150(10) 0.064(5) 0.143(8) 0.010(5) -0.051(8) 0.034(6)
O4 0.149(12) 0.113(9) 0.238(15) 0.070(9) 0.080(11) 0.083(9)
O5 0.051(3) 0.051(3) 0.093(7) 0.000 0.000 0.0254(17)
N1 0.093(8) 0.057(6) 0.135(9) 0.019(6) 0.005(7) 0.027(5)
N2 0.109(9) 0.061(6) 0.141(10) 0.030(7) 0.030(8) 0.036(6)
C1 0.068(8) 0.055(7) 0.147(11) 0.028(8) 0.037(9) 0.029(7)
C2 0.082(9) 0.060(8) 0.203(16) 0.032(9) 0.025(10) 0.038(7)
C3 0.104(12) 0.072(9) 0.211(15) 0.035(9) 0.010(12) 0.042(9)
C4 0.125(15) 0.057(8) 0.237(19) 0.041(10) 0.045(14) 0.039(8)
C5 0.149(15) 0.101(13) 0.204(18) 0.087(14) 0.091(14) 0.077(11)
C6 0.23(2) 0.081(10) 0.184(16) 0.055(11) 0.072(15) 0.102(13)
C7 0.165(16) 0.074(8) 0.121(10) 0.033(8) 0.050(10) 0.065(9)
C8 0.152(15) 0.093(11) 0.25(2) 0.081(13) 0.097(16) 0.079(11)
C9 0.119(12) 0.059(8) 0.196(17) 0.042(9) 0.061(12) 0.044(8)
C10 0.115(12) 0.100(11) 0.212(19) 0.083(13) 0.081(13) 0.063(10)
C11 0.30(3) 0.084(11) 0.33(3) 0.095(16) 0.20(3) 0.117(17)
C12 0.26(3) 0.146(18) 0.30(3) 0.135(19) 0.18(3) 0.12(2)
C13 0.21(2) 0.125