####################################################################### 
# 
# This file contains crystal structure data downloaded from the 
# Cambridge Structural Database (CSD) hosted by the Cambridge 
# Crystallographic Data Centre (CCDC).
# 
# Full information about CCDC data access policies and citation 
# guidelines are available at http://www.ccdc.cam.ac.uk/access/V1 
# 
# Audit and citation data items may have been added by the CCDC. 
# Please retain this information to preserve the provenance of 
# this file and to allow appropriate attribution of the data. 
# 
#######################################################################

data_f:\crystal\cu2-series-2\p-2\p-2-o\060427cm
_audit_block_doi                 10.5517/ccnszn1
_database_code_depnum_ccdc_archive 'CCDC 619834'
loop_
_citation_id
_citation_doi
_citation_year
1 10.1007/s10904-014-0051-y 2014
_audit_update_record             
;
2006-09-05 deposited with the CCDC.	2024-07-10 downloaded from the CCDC.
;
#TrackingRef '3-p.cif'


_audit_creation_method           SHELXL-97
_chemical_name_systematic        
;
?
;
_chemical_name_common            ?
_chemical_melting_point          ?
_chemical_formula_moiety         ?
_chemical_formula_sum            'C43 H46 Cu2 N4 O9 P2'
_chemical_formula_weight         951.86

loop_
_atom_type_symbol
_atom_type_description
_atom_type_scat_dispersion_real
_atom_type_scat_dispersion_imag
_atom_type_scat_source
C C 0.0033 0.0016 'International Tables Vol C Tables 4.2.6.8 and 6.1.1.4'
H H 0.0000 0.0000 'International Tables Vol C Tables 4.2.6.8 and 6.1.1.4'
N N 0.0061 0.0033 'International Tables Vol C Tables 4.2.6.8 and 6.1.1.4'
O O 0.0106 0.0060 'International Tables Vol C Tables 4.2.6.8 and 6.1.1.4'
P P 0.1023 0.0942 'International Tables Vol C Tables 4.2.6.8 and 6.1.1.4'
Cu Cu 0.3201 1.2651 'International Tables Vol C Tables 4.2.6.8 and 6.1.1.4'

_symmetry_cell_setting           Monoclinic
_symmetry_space_group_name_H-M   C2/c

loop_
_symmetry_equiv_pos_as_xyz
'x, y, z'
'-x, y, -z+1/2'
'x+1/2, y+1/2, z'
'-x+1/2, y+1/2, -z+1/2'
'-x, -y, -z'
'x, -y, z-1/2'
'-x+1/2, -y+1/2, -z'
'x+1/2, -y+1/2, z-1/2'

_cell_length_a                   28.266(6)
_cell_length_b                   9.924(2)
_cell_length_c                   20.898(4)
_cell_angle_alpha                90.00
_cell_angle_beta                 130.358(3)
_cell_angle_gamma                90.00
_cell_volume                     4467.0(16)
_cell_formula_units_Z            4
_cell_measurement_temperature    292(2)
_cell_measurement_reflns_used    ?
_cell_measurement_theta_min      ?
_cell_measurement_theta_max      ?

_exptl_crystal_description       block
_exptl_crystal_colour            yellow
_exptl_crystal_size_max          0.26
_exptl_crystal_size_mid          0.16
_exptl_crystal_size_min          0.14
_exptl_crystal_density_meas      ?
_exptl_crystal_density_diffrn    1.415
_exptl_crystal_density_method    'not measured'
_exptl_crystal_F_000             1968
_exptl_absorpt_coefficient_mu    1.081
_exptl_absorpt_correction_type   multi-scan
_exptl_absorpt_correction_T_min  0.816
_exptl_absorpt_correction_T_max  0.857
_exptl_absorpt_process_details   ?

_exptl_special_details           
;
?
;

_diffrn_ambient_temperature      292(2)
_diffrn_radiation_wavelength     0.71073
_diffrn_radiation_type           MoK\a
_diffrn_radiation_source         'fine-focus sealed tube'
_diffrn_radiation_monochromator  graphite
_diffrn_measurement_device_type  'CCD area detector'
_diffrn_measurement_method       'phi and omega scans'
_diffrn_detector_area_resol_mean ?
_diffrn_standards_number         ?
_diffrn_standards_interval_count ?
_diffrn_standards_interval_time  ?
_diffrn_standards_decay_%        ?
_diffrn_reflns_number            14019
_diffrn_reflns_av_R_equivalents  0.0516
_diffrn_reflns_av_sigmaI/netI    0.0641
_diffrn_reflns_limit_h_min       -36
_diffrn_reflns_limit_h_max       34
_diffrn_reflns_limit_k_min       -12
_diffrn_reflns_limit_k_max       10
_diffrn_reflns_limit_l_min       -26
_diffrn_reflns_limit_l_max       24
_diffrn_reflns_theta_min         1.89
_diffrn_reflns_theta_max         27.00
_reflns_number_total             4878
_reflns_number_gt                3520
_reflns_threshold_expression     >2sigma(I)

_computing_data_collection       'Bruker SMART'
_computing_cell_refinement       'Bruker SMART'
_computing_data_reduction        'Bruker SAINT'
_computing_structure_solution    'SHELXS-97 (Sheldrick, 1990)'
_computing_structure_refinement  'SHELXL-97 (Sheldrick, 1997)'
_computing_molecular_graphics    'Bruker SHELXTL'
_computing_publication_material  'Bruker SHELXTL'

_refine_special_details          
;
Refinement of F^2^ against ALL reflections. The weighted R-factor wR and
goodness of fit S are based on F^2^, conventional R-factors R are based
on F, with F set to zero for negative F^2^. The threshold expression of
F^2^ > 2sigma(F^2^) is used only for calculating R-factors(gt) etc. and is
not relevant to the choice of reflections for refinement. R-factors based
on F^2^ are statistically about twice as large as those based on F, and R-
factors based on ALL data will be even larger.
;

_refine_ls_structure_factor_coef Fsqd
_refine_ls_matrix_type           full
_refine_ls_weighting_scheme      calc
_refine_ls_weighting_details     
'calc w=1/[\s^2^(Fo^2^)+(0.0723P)^2^+0.0000P] where P=(Fo^2^+2Fc^2^)/3'
_atom_sites_solution_primary     direct
_atom_sites_solution_secondary   difmap
_atom_sites_solution_hydrogens   geom
_refine_ls_hydrogen_treatment    mixed
_refine_ls_extinction_method     none
_refine_ls_extinction_coef       ?
_refine_ls_number_reflns         4878
_refine_ls_number_parameters     275
_refine_ls_number_restraints     0
_refine_ls_R_factor_all          0.0835
_refine_ls_R_factor_gt           0.0579
_refine_ls_wR_factor_ref         0.1480
_refine_ls_wR_factor_gt          0.1382
_refine_ls_goodness_of_fit_ref   1.063
_refine_ls_restrained_S_all      1.063
_refine_ls_shift/su_max          0.000
_refine_ls_shift/su_mean         0.000

loop_
_atom_site_label
_atom_site_type_symbol
_atom_site_fract_x
_atom_site_fract_y
_atom_site_fract_z
_atom_site_U_iso_or_equiv
_atom_site_adp_type
_atom_site_occupancy
_atom_site_symmetry_multiplicity
_atom_site_calc_flag
_atom_site_refinement_flags
_atom_site_disorder_assembly
_atom_site_disorder_group
Cu1 Cu 0.187842(18) 0.18616(4) 0.49628(3) 0.04009(17) Uani 1 1 d . . .
P1 P 0.22029(4) 0.40007(9) 0.41080(6) 0.0383(2) Uani 1 1 d . . .
C11 C 0.1663(2) 0.4456(5) 0.5436(3) 0.0674(12) Uani 1 1 d . . .
H11 H 0.1565 0.3873 0.5684 0.081 Uiso 1 1 calc R . .
C10 C 0.1648(3) 0.5823(6) 0.5537(4) 0.0910(17) Uani 1 1 d . . .
H10 H 0.1549 0.6153 0.5854 0.109 Uiso 1 1 calc R . .
C9 C 0.1781(3) 0.6680(5) 0.5166(4) 0.0858(16) Uani 1 1 d . . .
H9 H 0.1781 0.7607 0.5233 0.103 Uiso 1 1 calc R . .
C8 C 0.1915(2) 0.6162(4) 0.4692(3) 0.0636(11) Uani 1 1 d . . .
H8 H 0.1997 0.6738 0.4422 0.076 Uiso 1 1 calc R . .
C7 C 0.19294(15) 0.4791(4) 0.4615(2) 0.0425(8) Uani 1 1 d . . .
C1 C 0.20648(17) 0.5284(4) 0.3380(2) 0.0468(9) Uani 1 1 d . . .
C6 C 0.1512(2) 0.6029(5) 0.2863(3) 0.0742(14) Uani 1 1 d . . .
H6 H 0.1203 0.5892 0.2896 0.089 Uiso 1 1 calc R . .
C5 C 0.1424(3) 0.6954(6) 0.2311(4) 0.0969(19) Uani 1 1 d . . .
H5 H 0.1055 0.7439 0.1969 0.116 Uiso 1 1 calc R . .
C4 C 0.1870(4) 0.7171(6) 0.2258(4) 0.0962(19) Uani 1 1 d . . .
H4 H 0.1805 0.7814 0.1885 0.115 Uiso 1 1 calc R . .
C3 C 0.2416(3) 0.6459(6) 0.2747(3) 0.0883(17) Uani 1 1 d . . .
H3 H 0.2717 0.6607 0.2699 0.106 Uiso 1 1 calc R . .
C2 C 0.2517(2) 0.5496(5) 0.3324(3) 0.0613(11) Uani 1 1 d . . .
H2 H 0.2886 0.5010 0.3662 0.074 Uiso 1 1 calc R . .
C12 C 0.16152(15) 0.2730(4) 0.3385(2) 0.0418(8) Uani 1 1 d . . .
C13 C 0.1362(2) 0.2663(5) 0.2556(3) 0.0669(13) Uani 1 1 d . . .
H13 H 0.1448 0.3331 0.2331 0.080 Uiso 1 1 calc R . .
C14 C 0.0978(3) 0.1585(6) 0.2062(3) 0.0913(18) Uani 1 1 d . . .
H14 H 0.0804 0.1520 0.1503 0.110 Uiso 1 1 calc R . .
C15 C 0.0860(3) 0.0621(6) 0.2412(3) 0.0890(17) Uani 1 1 d . . .
H15 H 0.0604 -0.0107 0.2095 0.107 Uiso 1 1 calc R . .
N2 N 0.15068(14) 0.1773(3) 0.37284(19) 0.0454(7) Uani 1 1 d . . .
C16 C 0.1125(2) 0.0749(5) 0.3235(3) 0.0700(13) Uani 1 1 d . . .
H16 H 0.1037 0.0099 0.3466 0.084 Uiso 1 1 calc R . .
C17 C 0.09150(16) 0.0321(4) 0.4790(3) 0.0511(10) Uani 1 1 d . . .
C18 C 0.04412(15) 0.0160(4) 0.4902(2) 0.0425(9) Uani 1 1 d . . .
C19 C 0.03000(16) 0.1211(4) 0.5186(2) 0.0473(9) Uani 1 1 d . . .
H19 H 0.0502 0.2033 0.5311 0.057 Uiso 1 1 calc R . .
C20 C -0.01340(16) 0.1069(4) 0.5286(2) 0.0492(9) Uani 1 1 d . . .
H20 H -0.0222 0.1789 0.5480 0.059 Uiso 1 1 calc R . .
N1 N 0.18127(13) 0.3926(3) 0.49982(19) 0.0460(7) Uani 1 1 d . . .
O1 O 0.11976(12) 0.1434(3) 0.50155(19) 0.0632(8) Uani 1 1 d . . .
O2 O 0.10002(15) -0.0642(3) 0.4491(2) 0.0749(9) Uani 1 1 d . . .
O4 O 0.0221(14) 0.425(5) 0.3094(16) 0.67(3) Uani 1 1 d . . .
H4A H 0.0566 0.3936 0.3325 1.006 Uiso 1 1 calc R . .
O5 O 0.0000 0.5000 0.5000 0.481(18) Uani 1 2 d S . .
C21 C 0.0136(9) 0.443(3) 0.3739(16) 0.53(3) Uani 1 1 d . . .
H21A H 0.0146 0.3569 0.3954 0.789 Uiso 1 1 calc R . .
H21B H -0.0257 0.4858 0.3477 0.789 Uiso 1 1 calc R . .
H21C H 0.0464 0.4987 0.4192 0.789 Uiso 1 1 calc R . .
O3 O 0.9811(3) 0.2591(8) 0.6735(4) 0.195(3) Uani 1 1 d . . .
C22 C 1.0000 0.222(4) 0.7500 0.75(6) Uani 1 2 d S . .

loop_
_atom_site_aniso_label
_atom_site_aniso_U_11
_atom_site_aniso_U_22
_atom_site_aniso_U_33
_atom_site_aniso_U_23
_atom_site_aniso_U_13
_atom_site_aniso_U_12
Cu1 0.0330(2) 0.0445(3) 0.0451(3) 0.00019(19) 0.0263(2) -0.00476(18)
P1 0.0350(4) 0.0427(5) 0.0380(5) 0.0018(4) 0.0240(4) -0.0040(4)
C11 0.092(3) 0.062(3) 0.085(3) -0.008(2) 0.074(3) -0.005(2)
C10 0.126(5) 0.074(4) 0.120(5) -0.022(3) 0.100(4) 0.002(3)
C9 0.117(5) 0.049(3) 0.115(5) -0.013(3) 0.086(4) -0.003(3)
C8 0.078(3) 0.050(3) 0.071(3) -0.002(2) 0.052(3) -0.004(2)
C7 0.0384(18) 0.041(2) 0.046(2) 0.0000(15) 0.0266(17) 0.0000(15)
C1 0.050(2) 0.048(2) 0.042(2) 0.0050(16) 0.0299(18) -0.0019(17)
C6 0.077(3) 0.081(3) 0.071(3) 0.031(2) 0.051(3) 0.023(2)
C5 0.118(5) 0.092(4) 0.082(4) 0.040(3) 0.066(4) 0.039(3)
C4 0.142(6) 0.075(4) 0.081(4) 0.023(3) 0.076(4) 0.004(4)
C3 0.099(4) 0.106(4) 0.075(4) 0.004(3) 0.063(3) -0.029(3)
C2 0.064(3) 0.069(3) 0.055(3) 0.002(2) 0.041(2) -0.010(2)
C12 0.0353(18) 0.050(2) 0.0371(19) -0.0042(15) 0.0221(16) -0.0062(15)
C13 0.070(3) 0.082(3) 0.045(2) -0.008(2) 0.036(2) -0.027(2)
C14 0.092(4) 0.124(5) 0.050(3) -0.032(3) 0.042(3) -0.047(3)
C15 0.093(4) 0.103(4) 0.063(3) -0.038(3) 0.047(3) -0.049(3)
N2 0.0430(16) 0.0496(18) 0.0405(16) -0.0068(13) 0.0257(14) -0.0106(13)
C16 0.075(3) 0.067(3) 0.057(3) -0.011(2) 0.038(2) -0.030(2)
C17 0.0366(19) 0.058(3) 0.061(3) 0.011(2) 0.0327(19) 0.0001(18)
C18 0.0304(16) 0.055(2) 0.0389(19) 0.0063(16) 0.0211(16) -0.0077(15)
C19 0.0403(19) 0.050(2) 0.052(2) -0.0009(17) 0.0300(18) -0.0114(16)
C20 0.045(2) 0.047(2) 0.059(2) -0.0034(17) 0.0353(19) -0.0072(16)
N1 0.0524(18) 0.0472(19) 0.0544(19) -0.0006(14) 0.0417(16) -0.0018(14)
O1 0.0512(16) 0.0706(19) 0.085(2) -0.0055(16) 0.0521(16) -0.0187(14)
O2 0.083(2) 0.065(2) 0.119(3) 0.0024(18) 0.085(2) -0.0008(16)
O4 0.39(3) 1.03(7) 0.56(5) -0.13(4) 0.29(4) 0.15(3)
O5 0.77(5) 0.285(18) 0.85(5) 0.19(3) 0.73(5) 0.19(2)
C21 0.155(15) 0.77(6) 0.39(4) 0.08(3) 0.058(18) -0.23(3)
O3 0.237(8) 0.206(6) 0.152(6) -0.028(5) 0.130(6) -0.043(6)
C22 1.73(18) 0.28(4) 1.16(13) 0.000 1.36(14) 0.000

_geom_special_details            
;
All esds (except the esd in the dihedral angle between two l.s. planes)
are estimated using the full covariance matrix. The cell esds are taken
into account individually in the estimation of esds in distances, angles
and torsion angles; correlations between esds in cell parameters are only
used when they are defined by crystal symmetry. An approximate (isotropic)
treatment of cell esds is used for estimating esds involving l.s. planes.
;

loop_
_geom_bond_atom_site_label_1
_geom_bond_atom_site_label_2
_geom_bond_distance
_geom_bond_site_symmetry_2
_geom_bond_publ_flag
Cu1 O1 2.042(3) . ?
Cu1 N1 2.063(3) . ?
Cu1 N2 2.063(3) . ?
Cu1 P1 2.1715(10) 7_556 ?
P1 C1 1.822(4) . ?
P1 C12 1.839(4) . ?
P1 C7 1.843(4) . ?
P1 Cu1 2.1716(10) 7_556 ?
C11 N1 1.339(5) . ?
C11 C10 1.378(6) . ?
C10 C9 1.357(8) . ?
C9 C8 1.371(7) . ?
C8 C7 1.374(5) . ?
C7 N1 1.352(5) . ?
C1 C2 1.372(6) . ?
C1 C6 1.404(6) . ?
C6 C5 1.366(7) . ?
C5 C4 1.350(9) . ?
C4 C3 1.374(8) . ?
C3 C2 1.416(6) . ?
C12 N2 1.339(5) . ?
C12 C13 1.384(6) . ?
C13 C14 1.392(6) . ?
C14 C15 1.371(7) . ?
C15 C16 1.366(7) . ?
N2 C16 1.350(5) . ?
C17 O2 1.247(5) . ?
C17 O1 1.262(5) . ?
C17 C18 1.510(5) . ?
C18 C19 1.380(5) . ?
C18 C20 1.398(5) 5_556 ?
C19 C20 1.380(5) . ?
C20 C18 1.398(5) 5_556 ?
O4 C21 1.53(3) . ?
O3 C22 1.368(12) . ?
C22 O3 1.368(12) 2_756 ?

loop_
_geom_angle_atom_site_label_1
_geom_angle_atom_site_label_2
_geom_angle_atom_site_label_3
_geom_angle
_geom_angle_site_symmetry_1
_geom_angle_site_symmetry_3
_geom_angle_publ_flag
O1 Cu1 N1 95.42(12) . . ?
O1 Cu1 N2 108.91(12) . . ?
N1 Cu1 N2 95.87(12) . . ?
O1 Cu1 P1 119.53(9) . 7_556 ?
N1 Cu1 P1 116.27(9) . 7_556 ?
N2 Cu1 P1 116.56(9) . 7_556 ?
C1 P1 C12 101.69(17) . . ?
C1 P1 C7 103.88(18) . . ?
C12 P1 C7 105.78(17) . . ?
C1 P1 Cu1 120.51(13) . 7_556 ?
C12 P1 Cu1 112.66(12) . 7_556 ?
C7 P1 Cu1 110.94(12) . 7_556 ?
N1 C11 C10 123.1(5) . . ?
C9 C10 C11 118.8(5) . . ?
C10 C9 C8 119.1(5) . . ?
C9 C8 C7 119.9(4) . . ?
N1 C7 C8 121.6(4) . . ?
N1 C7 P1 115.1(3) . . ?
C8 C7 P1 122.9(3) . . ?
C2 C1 C6 119.1(4) . . ?
C2 C1 P1 118.1(3) . . ?
C6 C1 P1 122.8(3) . . ?
C5 C6 C1 120.5(5) . . ?
C4 C5 C6 120.5(6) . . ?
C5 C4 C3 121.1(5) . . ?
C4 C3 C2 119.2(5) . . ?
C1 C2 C3 119.5(5) . . ?
N2 C12 C13 121.7(3) . . ?
N2 C12 P1 116.4(3) . . ?
C13 C12 P1 121.4(3) . . ?
C12 C13 C14 119.2(4) . . ?
C15 C14 C13 118.9(5) . . ?
C16 C15 C14 118.9(4) . . ?
C12 N2 C16 118.2(3) . . ?
C12 N2 Cu1 122.1(2) . . ?
C16 N2 Cu1 119.7(3) . . ?
N2 C16 C15 123.1(4) . . ?
O2 C17 O1 125.2(4) . . ?
O2 C17 C18 118.3(4) . . ?
O1 C17 C18 116.5(4) . . ?
C19 C18 C20 118.8(3) . 5_556 ?
C19 C18 C17 121.2(3) . . ?
C20 C18 C17 120.0(4) 5_556 . ?
C20 C19 C18 121.4(3) . . ?
C19 C20 C18 119.8(4) . 5_556 ?
C11 N1 C7 117.5(3) . . ?
C11 N1 Cu1 119.3(3) . . ?
C7 N1 Cu1 123.2(2) . . ?
C17 O1 Cu1 123.5(3) . . ?
O3 C22 O3 149(3) 2_756 . ?

_diffrn_measured_fraction_theta_max 0.998
_diffrn_reflns_theta_full        27.00
_diffrn_measured_fraction_theta_full 0.998
_refine_diff_density_max         0.523
_refine_diff_density_min         -0.319
_refine_diff_density_rms         0.078
