
#######################################################################
#
#                 Cambridge Crystallographic Data Centre
#                                CCDC
#
#######################################################################
#
# If this CIF has been generated from an entry in the Cambridge
# Structural Database, then it will include bibliographic, chemical,
# crystal, experimental, refinement or atomic coordinate data resulting
# from the CCDC's data processing and validation procedures.
#
#######################################################################

data_CSD_CIF_IHIPOE
_audit_creation_date 2003-10-14
_audit_creation_method CSD-ConQuest-V1
_database_code_CSD IHIPOE
_database_code_depnum_ccdc_archive 'CCDC 189632'
_chemical_formula_sum 'C75 H73 F6 O1 P3 Ru1'
_chemical_formula_moiety
;
C70 H63 O1 P2 Ru1 1+,F6 P1 1-,C5 H10
;
_journal_coden_Cambridge 36
_journal_volume 670
_journal_year 2003
_journal_page_first 75
_journal_name_full 'J.Organomet.Chem. '
loop_
_publ_author_name
"V.Cadierno"
"M.P.Gamasa"
"J.Gimeno"
"E.Perez-Carreno"
"S.Garcia-Granda"
_chemical_name_systematic
;
(3-((1R,3S,4R)-1,7,7-Trimethyl-2-oxobicyclo(2.2.1)hept-3-yl)-3,3-diphenylprop-
1-en-1-ylidene)-(\h^5^-indenyl)-bis(triphenylphosphine)-ruthenium(ii) 
hexafluorophosphate cyclopentane solvate
;
_chemical_name_common
;
Teaching Subset: Fundamental Chemistry
;
_cell_volume   3197.506
_exptl_crystal_colour 'yellow'
_exptl_crystal_density_diffrn 1.349
_exptl_special_details
;
Absolute configuration

;
_exptl_crystal_description 'prism'
_exptl_crystal_preparation 'cyclopentane/dichloromethane'
_diffrn_ambient_temperature 200
_refine_special_details
;
The cyclopentane solvent molecule is disordered although the disorder was not 
modelled.
;
#These two values have been output from a single CSD field.
_refine_ls_R_factor_gt 0.0893
_refine_ls_wR_factor_gt 0.0893
_symmetry_cell_setting monoclinic
_symmetry_space_group_name_H-M 'P 21'
_symmetry_Int_Tables_number 4
loop_
_symmetry_equiv_pos_site_id
_symmetry_equiv_pos_as_xyz
1 x,y,z
2 -x,1/2+y,-z
_cell_length_a 14.838(2)
_cell_length_b 14.693(3)
_cell_length_c 15.416(4)
_cell_angle_alpha 90
_cell_angle_beta 107.94(5)
_cell_angle_gamma 90
_cell_formula_units_Z 2
loop_
_atom_type_symbol
_atom_type_radius_bond
C 0.68
H 0.23
F 0.64
O 0.68
P 1.05
Ru 1.40
loop_
_atom_site_label
_atom_site_type_symbol
_atom_site_fract_x
_atom_site_fract_y
_atom_site_fract_z
Ru1 Ru 0.47692(14) 0.74274(13) 0.32467(13)
P1 P 0.4872(5) 0.6625(5) 0.1979(5)
P2 P 0.4710(6) 0.6229(4) 0.4270(5)
O1 O 0.1195(12) 0.5875(11) 0.2662(15)
C1 C 0.3455(16) 0.7355(19) 0.2753(13)
C2 C 0.2551(16) 0.7293(15) 0.2611(14)
H1 H 0.23740 0.69240 0.30220
C3 C 0.171(2) 0.7739(15) 0.1857(19)
C4 C 0.106(2) 0.6930(17) 0.1336(19)
H2 H 0.14720 0.65970 0.10590
C5 C -0.022(2) 0.5908(19) 0.124(2)
C6 C 0.074(3) 0.617(2) 0.193(2)
C7 C -0.0019(19) 0.5470(16) 0.0384(17)
H3 H -0.05480 0.51080 0.00230
H4 H 0.05520 0.51040 0.05560
C8 C 0.0108(18) 0.6376(14) -0.0127(17)
H5 H 0.06840 0.63460 -0.02980
H6 H -0.04240 0.64550 -0.06770
C9 C 0.0156(18) 0.7141(18) 0.0500(17)
H7 H 0.01200 0.77520 0.02370
C10 C -0.063(2) 0.6895(17) 0.098(2)
C11 C -0.0861(15) 0.7305(18) 0.1701(15)
H8 H -0.10580 0.79210 0.15430
H9 H -0.03170 0.73010 0.22370
H10 H -0.13680 0.69720 0.18200
C12 C -0.1556(19) 0.6809(17) 0.0165(18)
H11 H -0.18690 0.62490 0.02160
H12 H -0.14060 0.68140 -0.03980
H13 H -0.19670 0.73110 0.01740
C13 C 0.5388(15) 0.8305(12) 0.4464(14)
H14 H 0.52770 0.80870 0.49880
C14 C 0.4697(18) 0.8910(13) 0.3746(16)
H15 H 0.41510 0.92060 0.37720
C15 C 0.5108(19) 0.8896(15) 0.3046(18)
H16 H 0.48090 0.91120 0.24610
C16 C 0.6083(17) 0.8496(14) 0.3338(16)
C17 C 0.6178(19) 0.8132(14) 0.4233(16)
C18 C 0.708(2) 0.7812(15) 0.4682(19)
H17 H 0.71770 0.75530 0.52540
C19 C 0.781(2) 0.7846(16) 0.435(2)
H18 H 0.84090 0.76490 0.47060
C20 C 0.767(2) 0.8179(19) 0.349(2)
H19 H 0.81810 0.81750 0.32550
C21 C 0.687(2) 0.8499(17) 0.2971(19)
H20 H 0.68030 0.87200 0.23890
C22 C 0.3861(18) 0.6121(15) 0.1029(18)
C23 C 0.362(2) 0.6233(19) 0.016(2)
H21 H 0.39740 0.65990 -0.01030
C24 C 0.282(2) 0.579(2) -0.036(2)
H22 H 0.25990 0.59050 -0.09810
C25 C 0.234(2) 0.5211(16) -0.001(2)
H23 H 0.18050 0.49410 -0.04110
C26 C 0.2567(18) 0.4986(17) 0.0854(19)
H24 H 0.22440 0.45380 0.10660
C27 C 0.3341(19) 0.5475(16) 0.1442(19)
H25 H 0.35180 0.53940 0.20710
C28 C 0.5376(17) 0.738(2) 0.1230(15)
C29 C 0.614(2) 0.7087(17) 0.095(2)
H26 H 0.64890 0.65560 0.11190
C30 C 0.627(2) 0.784(2) 0.030(3)
H27 H 0.66290 0.76950 -0.00810
C31 C 0.592(2) 0.871(2) 0.023(2)
H28 H 0.62250 0.92080 0.00760
C32 C 0.503(3) 0.878(2) 0.041(2)
H29 H 0.45820 0.92100 0.01060
C33 C 0.4878(18) 0.8200(18) 0.1044(18)
H30 H 0.44450 0.83500 0.13470
C34 C 0.582(2) 0.5736(16) 0.2181(18)
C35 C 0.671(2) 0.5896(18) 0.2758(18)
H31 H 0.68020 0.64520 0.30610
C36 C 0.7478(19) 0.5321(17) 0.2941(17)
H32 H 0.80880 0.54880 0.32830
C37 C 0.726(2) 0.4541(18) 0.2593(19)
H33 H 0.77640 0.41320 0.27400
C38 C 0.645(2) 0.4190(19) 0.2056(19)
H34 H 0.63940 0.35920 0.18490
C39 C 0.5647(19) 0.4839(17) 0.1819(16)
H35 H 0.50490 0.46670 0.14480
C40 C -0.068(2) 0.530(2) 0.182(2)
H36 H -0.07300 0.46860 0.15900
H37 H -0.12930 0.55280 0.17770
H38 H -0.02830 0.53050 0.24420
C41 C 0.5802(19) 0.5997(16) 0.5124(19)
C42 C 0.6024(19) 0.6246(15) 0.6020(19)
H39 H 0.55820 0.65380 0.62390
C43 C 0.699(2) 0.6038(16) 0.6631(19)
H40 H 0.71340 0.61400 0.72550
C44 C 0.763(2) 0.5709(16) 0.629(2)
H41 H 0.82510 0.56480 0.66750
C45 C 0.744(2) 0.5470(18) 0.546(2)
H42 H 0.79060 0.52010 0.52550
C46 C 0.652(2) 0.5617(17) 0.485(2)
H43 H 0.63960 0.54520 0.42430
C47 C 0.3900(18) 0.6547(17) 0.4957(18)
C48 C 0.3533(15) 0.745(2) 0.4979(14)
H44 H 0.36220 0.79200 0.46100
C49 C 0.3069(19) 0.755(2) 0.556(2)
H45 H 0.27480 0.81010 0.55150
C50 C 0.298(2) 0.702(2) 0.617(3)
H46 H 0.26750 0.72250 0.65720
C51 C 0.336(2) 0.610(2) 0.625(2)
H47 H 0.32920 0.56860 0.66780
C52 C 0.3853(18) 0.5913(17) 0.5605(17)
H48 H 0.41460 0.53510 0.56220
C53 C 0.4236(17) 0.5116(14) 0.3869(14)
C54 C 0.4742(19) 0.4526(16) 0.3556(17)
H49 H 0.53700 0.46510 0.36030
C55 C 0.4299(19) 0.3676(16) 0.3136(16)
H50 H 0.46530 0.32300 0.29620
C56 C 0.3325(19) 0.3551(17) 0.3004(16)
H51 H 0.30600 0.29990 0.27570
C57 C 0.272(2) 0.419(2) 0.321(2)
H52 H 0.20690 0.41300 0.30860
C58 C 0.3291(17) 0.4992(15) 0.3677(15)
H53 H 0.29590 0.54570 0.38540
C59 C 0.2145(17) 0.8277(15) 0.1300(18)
C60 C 0.2633(18) 0.9131(17) 0.163(2)
H54 H 0.27120 0.93140 0.22220
C61 C 0.298(2) 0.9674(19) 0.107(2)
H55 H 0.33040 1.02000 0.13250
C62 C 0.288(2) 0.9490(19) 0.014(2)
H56 H 0.31250 0.98490 -0.02270
C63 C 0.236(2) 0.871(2) -0.014(2)
H57 H 0.22600 0.85380 -0.07390
C64 C 0.1982(18) 0.8170(17) 0.0374(18)
H58 H 0.15880 0.76980 0.00820
C65 C 0.1163(17) 0.8350(16) 0.2351(18)
C66 C 0.1223(19) 0.8249(18) 0.323(2)
H59 H 0.16540 0.78200 0.35650
C67 C 0.0698(19) 0.8727(17) 0.372(2)
H60 H 0.07310 0.86050 0.43160
C68 C 0.014(2) 0.9388(17) 0.319(2)
H61 H -0.02550 0.97250 0.34420
C69 C 0.013(2) 0.9574(19) 0.233(2)
H62 H -0.02330 1.00610 0.20250
C70 C 0.065(2) 0.9049(18) 0.188(2)
H63 H 0.06320 0.91790 0.12830
P3 P 0.9443(16) 0.2456(18) 0.2743(15)
F1 F 1.032(2) 0.1872(19) 0.341(2)
F2 F 0.9223(18) 0.1851(15) 0.1731(18)
F3 F 0.895(2) 0.148(2) 0.2854(19)
F4 F 0.911(2) 0.2818(18) 0.360(2)
F5 F 1.008(4) 0.290(3) 0.248(3)
F6 F 0.827(3) 0.249(3) 0.216(3)
C71 C 0.041(2) 0.016(2) 0.550(2)
H64 H 0.09990 0.00270 0.59680
H65 H 0.04640 -0.00290 0.49140
C72 C -0.092(3) 0.106(3) 0.525(3)
H66 H -0.11090 0.13730 0.57190
H67 H -0.12090 0.13700 0.46760
C73 C -0.127(4) 0.006(3) 0.518(3)
H68 H -0.18040 -0.00060 0.54140
H69 H -0.14600 -0.01530 0.45500
C74 C 0.020(3) 0.111(3) 0.549(3)
H70 H 0.03850 0.14300 0.50230
H71 H 0.04880 0.13900 0.60770
C75 C -0.048(5) -0.039(4) 0.571(5)
H72 H -0.04910 -0.10300 0.55370
H73 H -0.04330 -0.03570 0.63520
#END
