
#######################################################################
#
#                 Cambridge Crystallographic Data Centre
#                                CCDC
#
#######################################################################
#
# If this CIF has been generated from an entry in the Cambridge
# Structural Database, then it will include bibliographic, chemical,
# crystal, experimental, refinement or atomic coordinate data resulting
# from the CCDC's data processing and validation procedures.
#
#######################################################################

data_CSD_CIF_IJUDIA
_audit_creation_date 2003-11-28
_audit_creation_method CSD-ConQuest-V1
_database_code_CSD IJUDIA
_database_code_depnum_ccdc_archive 'CCDC 216583'
_chemical_formula_sum 'C15 H22 N2 O9 Re2'
_chemical_formula_moiety
;
(C6 H13 N2 1+)n,n(C9 H9 O9 Re2 1-)
;
_journal_coden_Cambridge 9
_journal_volume 42
_journal_year 2003
_journal_page_first 4262
_journal_name_full 'Inorg.Chem. '
loop_
_publ_author_name
"Youngjo Kim"
"J.G.Verkade"
_chemical_name_systematic
;
catena-((\m~2~-Hydrogen)-1,4-diazabicyclo(2.2.2)octane 
tris(\m~2~-methoxo)-hexacarbonyl-di-rhenium)
;
_chemical_name_common
;
Teaching Subset: Fundamental Chemistry
;
_cell_volume   1047.206
_exptl_crystal_colour 'colorless'
_exptl_crystal_density_diffrn 2.368
_exptl_crystal_description 'prism'
_diffrn_ambient_temperature 293
#These two values have been output from a single CSD field.
_refine_ls_R_factor_gt 0.0179
_refine_ls_wR_factor_gt 0.0179
_symmetry_cell_setting hexagonal
_symmetry_space_group_name_H-M 'P 63/m m c'
_symmetry_Int_Tables_number 194
loop_
_symmetry_equiv_pos_site_id
_symmetry_equiv_pos_as_xyz
1 x,y,z
2 -y,x-y,z
3 -x+y,-x,z
4 y,-x+y,1/2+z
5 x-y,x,1/2+z
6 y,x,-z
7 -x+y,y,1/2-z
8 x,x-y,1/2-z
9 -x,-y,1/2+z
10 x-y,-y,-z
11 -x,-x+y,-z
12 -y,-x,1/2-z
13 -x,-y,-z
14 y,-x+y,-z
15 x-y,x,-z
16 -y,x-y,-1/2-z
17 -x+y,-x,-1/2-z
18 -y,-x,z
19 x-y,-y,-1/2+z
20 -x,-x+y,-1/2+z
21 x,y,-1/2-z
22 -x+y,y,z
23 x,x-y,z
24 y,x,-1/2+z
_cell_length_a 10.6721(15)
_cell_length_b 10.6721(15)
_cell_length_c 10.617(2)
_cell_angle_alpha 90
_cell_angle_beta 90
_cell_angle_gamma 120
_cell_formula_units_Z 2
loop_
_atom_type_symbol
_atom_type_radius_bond
C 0.68
H 0.23
N 0.79
O 0.68
Re 1.25
loop_
_atom_site_label
_atom_site_type_symbol
_atom_site_fract_x
_atom_site_fract_y
_atom_site_fract_z
Re1 Re 0.33330 0.66670 0.10439(2)
O1 O 0.4099(3) 0.8198(5) 0.25000
C1 C 0.2520(2) 0.5039(5) -0.0005(4)
O2 O 0.2015(2) 0.4030(4) -0.0648(4)
C2 C 0.4820(4) 0.9639(8) 0.25000
N1 N 0.00000 1.00000 0.1316(4)
C3 C 0.0751(2) 0.9249(2) 0.1787(4)
H1 H 0.026(3) 0.832(4) 0.149(3)
H2 H 0.00000 1.00000 0.00000
H3? H 0.41820 0.99880 0.22540
H4? H 0.56120 0.99880 0.19160
H5? H 0.51880 0.99880 0.33300
O1A O 0.1802(3) 0.5901(5) 0.25000
C2A C 0.0361(4) 0.5181(8) 0.25000
O1B O 0.4099(3) 0.5901(5) 0.25000
C2B C 0.4819(4) 0.5180(8) 0.25000
C1A C 0.4961(2) 0.7481(5) -0.0005(4)
O2A O 0.5970(2) 0.7985(4) -0.0648(4)
C1B C 0.2519(2) 0.7480(5) -0.0005(4)
O2B O 0.2015(2) 0.7985(4) -0.0648(4)
Re1F Re 0.33340 0.66670 0.39561(2)
C1F C 0.2519(2) 0.5039(5) 0.5005(4)
O2F O 0.2015(2) 0.4030(4) 0.5648(4)
C1G C 0.2520(2) 0.7481(5) 0.5005(4)
O2G O 0.2015(2) 0.7985(4) 0.5648(4)
C1K C 0.4961(2) 0.7480(5) 0.5005(4)
O2K O 0.5970(2) 0.7985(4) 0.5648(4)
C3A C 0.0751(2) 1.1502(2) 0.1787(4)
C3B C -0.1502(2) 0.9249(2) 0.1787(4)
C3T C 0.0751(2) 0.9249(2) 0.3213(4)
H1Q H 0.168(3) 0.974(4) 0.149(3)
N1E N 0.00000 1.00000 -0.1316(4)
C3G C 0.0751(2) 1.1502(2) 0.3213(4)
H1A H 0.168(3) 1.194(4) 0.149(3)
H1V H 0.026(3) 1.194(4) 0.149(3)
C3F C -0.1502(2) 0.9249(2) 0.3213(4)
H1B H -0.194(3) 0.974(4) 0.149(3)
H1U H -0.194(3) 0.832(4) 0.149(3)
N1F N 0.00000 1.00000 0.3684(4)
H1T H 0.026(3) 0.832(4) 0.351(3)
H1K H 0.168(3) 0.974(4) 0.351(3)
H1G H 0.026(3) 1.194(4) 0.351(3)
H1O H 0.168(3) 1.194(4) 0.351(3)
H1F H -0.194(3) 0.832(4) 0.351(3)
H1P H -0.194(3) 0.974(4) 0.351(3)
H2C H 0.00000 1.00000 0.50000
#END
