####################################################################### 
# 
# This file contains crystal structure data downloaded from the 
# Cambridge Structural Database (CSD) hosted by the Cambridge 
# Crystallographic Data Centre (CCDC).
# 
# Full information about CCDC data access policies and citation 
# guidelines are available at http://www.ccdc.cam.ac.uk/access/V1 
# 
# Audit and citation data items may have been added by the CCDC. 
# Please retain this information to preserve the provenance of 
# this file and to allow appropriate attribution of the data. 
# 
#######################################################################

data_p-421c
_audit_block_doi                 10.5517/ccwdbp8
_database_code_depnum_ccdc_archive 'CCDC 816220'
loop_
_citation_id
_citation_doi
_citation_year
1 10.1021/ic1018373 2010
_audit_update_record             
;
2011-03-08 deposited with the CCDC.	2024-07-10 downloaded from the CCDC.
;

_audit_creation_method           SHELXL-97
_chemical_name_systematic        
;
?
;
_chemical_name_common            ?
_chemical_melting_point          ?
_chemical_formula_moiety         ?
_chemical_formula_sum            'C108 H138 F36 N6 P12 Pt3'
_chemical_formula_weight         3161.15

loop_
_atom_type_symbol
_atom_type_description
_atom_type_scat_dispersion_real
_atom_type_scat_dispersion_imag
_atom_type_scat_source
C C -0.0020 0.0028 'International Tables Vol C Tables 4.2.6.8 and 6.1.1.4'
H H 0.0000 0.0000 'International Tables Vol C Tables 4.2.6.8 and 6.1.1.4'
N N -0.0031 0.0056 'International Tables Vol C Tables 4.2.6.8 and 6.1.1.4'
F F -0.0055 0.0172 'International Tables Vol C Tables 4.2.6.8 and 6.1.1.4'
P P 0.1274 0.1530 'International Tables Vol C Tables 4.2.6.8 and 6.1.1.4'
Pt Pt -7.6156 10.5557 'International Tables Vol C Tables 4.2.6.8 and 6.1.1.4'

_symmetry_cell_setting           Tetragonal
_symmetry_space_group_name_H-M   P-42(1)c

loop_
_symmetry_equiv_pos_as_xyz
'x, y, z'
'-x, -y, z'
'y, -x, -z'
'-y, x, -z'
'-x+1/2, y+1/2, -z+1/2'
'x+1/2, -y+1/2, -z+1/2'
'-y+1/2, -x+1/2, z+1/2'
'y+1/2, x+1/2, z+1/2'

_cell_length_a                   32.987(5)
_cell_length_b                   32.987(5)
_cell_length_c                   31.918(6)
_cell_angle_alpha                90.00
_cell_angle_beta                 90.00
_cell_angle_gamma                90.00
_cell_volume                     34730(10)
_cell_formula_units_Z            8
_cell_measurement_temperature    90(2)
_cell_measurement_reflns_used    1.56
_cell_measurement_theta_min      30.37
_cell_measurement_theta_max      23131

_exptl_crystal_description       block
_exptl_crystal_colour            ?
_exptl_crystal_size_max          0.42
_exptl_crystal_size_mid          0.42
_exptl_crystal_size_min          0.38
_exptl_crystal_density_meas      ?
_exptl_crystal_density_diffrn    1.209
_exptl_crystal_density_method    'not measured'
_exptl_crystal_F_000             12528
_exptl_absorpt_coefficient_mu    4.137
_exptl_absorpt_correction_type   multi-scan
_exptl_absorpt_correction_T_min  0.2754
_exptl_absorpt_correction_T_max  0.3024
_exptl_absorpt_process_details   HKL2000

_exptl_special_details           
;
?
;

_diffrn_ambient_temperature      90(2)
_diffrn_radiation_wavelength     0.90000
_diffrn_radiation_type           synchrotron
_diffrn_radiation_source         'bending magnet 6B MX beamline'
_diffrn_radiation_monochromator  'Si(111) double crystal monochromator'
_diffrn_measurement_device_type  'CCD area detector'
_diffrn_measurement_method       'omega scan'
_diffrn_detector_area_resol_mean ?
_diffrn_standards_number         ?
_diffrn_standards_interval_count ?
_diffrn_standards_interval_time  ?
_diffrn_standards_decay_%        ?
_diffrn_reflns_number            154346
_diffrn_reflns_av_R_equivalents  0.0674
_diffrn_reflns_av_sigmaI/netI    0.0365
_diffrn_reflns_limit_h_min       -36
_diffrn_reflns_limit_h_max       36
_diffrn_reflns_limit_k_min       -36
_diffrn_reflns_limit_k_max       37
_diffrn_reflns_limit_l_min       -32
_diffrn_reflns_limit_l_max       32
_diffrn_reflns_theta_min         1.56
_diffrn_reflns_theta_max         30.37
_reflns_number_total             23131
_reflns_number_gt                19314
_reflns_threshold_expression     >2sigma(I)

_computing_data_collection       'ADSC Quantum-210 ADX Program'
_computing_cell_refinement       HKL2000
_computing_data_reduction        HKL2000
_computing_structure_solution    'SHELXS-97 (Sheldrick, 1990)'
_computing_structure_refinement  'SHELXL-97 (Sheldrick, 1997)'
_computing_molecular_graphics    'Materials Studio 5.0'
_computing_publication_material  'Materials Studio 5.0'

_refine_special_details          
;
Refinement of F^2^ against ALL reflections. The weighted R-factor wR and
goodness of fit S are based on F^2^, conventional R-factors R are based
on F, with F set to zero for negative F^2^. The threshold expression of
F^2^ > 2sigma(F^2^) is used only for calculating R-factors(gt) etc. and is
not relevant to the choice of reflections for refinement. R-factors based
on F^2^ are statistically about twice as large as those based on F, and R-
factors based on ALL data will be even larger.
;

_refine_ls_structure_factor_coef Fsqd
_refine_ls_matrix_type           full
_refine_ls_weighting_scheme      calc
_refine_ls_weighting_details     
'calc w=1/[\s^2^(Fo^2^)+(0.1794P)^2^+44.2231P] where P=(Fo^2^+2Fc^2^)/3'
_atom_sites_solution_primary     direct
_atom_sites_solution_secondary   difmap
_atom_sites_solution_hydrogens   geom
_refine_ls_hydrogen_treatment    constr
_refine_ls_extinction_method     SHELXL
_refine_ls_extinction_coef       0.00123(6)
_refine_ls_extinction_expression Fc^*^=kFc[1+0.001xFc^2^\l^3^/sin(2\q)]^-1/4^
_refine_ls_abs_structure_details 'Flack H D (1983), Acta Cryst. A39, 876-881'
_refine_ls_abs_structure_Flack   0.015(6)
_refine_ls_number_reflns         23131
_refine_ls_number_parameters     1487
_refine_ls_number_restraints     3157
_refine_ls_R_factor_all          0.0981
_refine_ls_R_factor_gt           0.0841
_refine_ls_wR_factor_ref         0.2396
_refine_ls_wR_factor_gt          0.2244
_refine_ls_goodness_of_fit_ref   1.060
_refine_ls_restrained_S_all      1.047
_refine_ls_shift/su_max          0.001
_refine_ls_shift/su_mean         0.000

loop_
_atom_site_label
_atom_site_type_symbol
_atom_site_fract_x
_atom_site_fract_y
_atom_site_fract_z
_atom_site_U_iso_or_equiv
_atom_site_adp_type
_atom_site_occupancy
_atom_site_symmetry_multiplicity
_atom_site_calc_flag
_atom_site_refinement_flags
_atom_site_disorder_assembly
_atom_site_disorder_group
Pt1 Pt -0.179959(15) -0.249469(18) -0.354572(18) 0.0708(2) Uani 1 1 d U . .
Pt2 Pt -0.33512(2) -0.466767(18) -0.10950(2) 0.0876(3) Uani 1 1 d U . .
Pt3 Pt -0.895791(18) -0.36608(3) -0.36789(3) 0.1012(3) Uani 1 1 d DU . .
N1 N -0.3713(4) -0.4363(3) -0.1538(3) 0.072(2) Uani 1 1 d U . .
N2 N -0.8352(3) -0.3483(4) -0.3629(4) 0.086(3) Uani 1 1 d U . .
N3 N -0.2418(3) -0.2576(4) -0.3559(3) 0.079(2) Uani 1 1 d U . .
N4 N -0.7101(4) -0.1836(3) -0.5943(3) 0.076(3) Uani 1 1 d U . .
N5 N -0.6538(3) -0.4853(3) -0.1504(4) 0.081(3) Uani 1 1 d U . .
N6 N -0.3980(5) -0.1290(4) -0.5820(5) 0.103(4) Uani 1 1 d U . .
C1 C -0.4663(4) -0.4040(4) -0.2745(4) 0.072(3) Uani 1 1 d U . .
H1A H -0.4667 -0.4327 -0.2715 0.087 Uiso 1 1 calc R . .
C2 C -0.4425(4) -0.3814(4) -0.2469(4) 0.072(3) Uani 1 1 d U . .
C3 C -0.4170(4) -0.4003(4) -0.2146(4) 0.068(3) Uani 1 1 d U . .
C4 C -0.4435(4) -0.3390(4) -0.2516(4) 0.073(3) Uani 1 1 d U . .
H4B H -0.4277 -0.3224 -0.2336 0.088 Uiso 1 1 calc R . .
C5 C -0.4893(4) -0.3863(4) -0.3059(4) 0.076(3) Uani 1 1 d U . .
H5B H -0.5046 -0.4025 -0.3248 0.091 Uiso 1 1 calc R . .
C6 C -0.4894(4) -0.3451(4) -0.3092(4) 0.070(3) Uani 1 1 d U . .
C7 C -0.4674(4) -0.3213(4) -0.2826(4) 0.073(3) Uani 1 1 d U . .
H7A H -0.4684 -0.2927 -0.2851 0.087 Uiso 1 1 calc R . .
C8 C -0.5152(4) -0.3244(4) -0.3421(4) 0.073(3) Uani 1 1 d U . .
C9 C -0.5705(4) -0.3490(4) -0.2700(4) 0.068(3) Uani 1 1 d U . .
H9A H -0.5560 -0.3251 -0.2627 0.081 Uiso 1 1 calc R . .
C10 C -0.5762(3) -0.3570(5) -0.3117(4) 0.072(3) Uani 1 1 d U . .
C11 C -0.6070(4) -0.4093(4) -0.2485(4) 0.067(3) Uani 1 1 d U . .
C12 C -0.6220(4) -0.4338(4) -0.2140(4) 0.069(3) Uani 1 1 d U . .
C13 C -0.6135(4) -0.4174(5) -0.2887(4) 0.080(3) Uani 1 1 d U . .
H13A H -0.6296 -0.4402 -0.2960 0.096 Uiso 1 1 calc R . .
C14 C -0.5971(4) -0.3926(5) -0.3210(5) 0.086(3) Uani 1 1 d U . .
H14A H -0.6004 -0.4005 -0.3495 0.103 Uiso 1 1 calc R . .
C15 C -0.5560(3) -0.3318(4) -0.3440(4) 0.068(3) Uani 1 1 d U . .
C16 C -0.4971(4) -0.3001(4) -0.3736(4) 0.074(3) Uani 1 1 d U . .
C17 C -0.3766(4) -0.3935(5) -0.2123(4) 0.079(3) Uani 1 1 d U . .
H17A H -0.3634 -0.3767 -0.2323 0.095 Uiso 1 1 calc R . .
C18 C -0.4110(5) -0.4439(5) -0.1554(4) 0.084(3) Uani 1 1 d U . .
H18A H -0.4230 -0.4618 -0.1356 0.101 Uiso 1 1 calc R . .
C19 C -0.4349(4) -0.4255(4) -0.1860(4) 0.076(3) Uani 1 1 d U . .
H19A H -0.4633 -0.4303 -0.1871 0.091 Uiso 1 1 calc R . .
C20 C -0.3549(4) -0.4116(4) -0.1803(4) 0.072(3) Uani 1 1 d U . .
H20A H -0.3269 -0.4056 -0.1776 0.087 Uiso 1 1 calc R . .
C21 C -0.5859(4) -0.2673(4) -0.4379(4) 0.075(3) Uani 1 1 d U . .
C22 C -0.5193(4) -0.2813(4) -0.4043(4) 0.073(3) Uani 1 1 d U . .
C23 C -0.5799(4) -0.3120(4) -0.3762(4) 0.069(3) Uani 1 1 d U . .
C24 C -0.4485(7) -0.2423(6) -0.4883(6) 0.122(6) Uani 1 1 d U . .
H24A H -0.4262 -0.2524 -0.5039 0.146 Uiso 1 1 calc R . .
C25 C -0.4590(5) -0.2018(5) -0.4926(5) 0.089(4) Uani 1 1 d U . .
C26 C -0.4849(6) -0.1873(5) -0.4632(5) 0.108(5) Uani 1 1 d U . .
H26A H -0.4897 -0.1590 -0.4616 0.130 Uiso 1 1 calc R . .
C27 C -0.5047(6) -0.2131(5) -0.4353(5) 0.094(4) Uani 1 1 d U . .
H27A H -0.5230 -0.2017 -0.4156 0.113 Uiso 1 1 calc R . .
C28 C -0.4991(4) -0.2531(4) -0.4351(4) 0.071(3) Uani 1 1 d U . .
C29 C -0.4697(6) -0.2692(6) -0.4615(6) 0.115(5) Uani 1 1 d U . .
H29A H -0.4639 -0.2974 -0.4615 0.138 Uiso 1 1 calc R . .
C30 C -0.4513(4) -0.2929(5) -0.3728(4) 0.074(3) Uani 1 1 d U . .
C31 C -0.4245(4) -0.3256(5) -0.3743(4) 0.081(3) Uani 1 1 d U . .
H31A H -0.4344 -0.3524 -0.3783 0.097 Uiso 1 1 calc R . .
C32 C -0.4376(4) -0.2527(5) -0.3661(5) 0.088(3) Uani 1 1 d U . .
H32A H -0.4562 -0.2310 -0.3632 0.106 Uiso 1 1 calc R . .
C33 C -0.3949(4) -0.2461(5) -0.3639(4) 0.082(3) Uani 1 1 d U . .
H33A H -0.3845 -0.2194 -0.3613 0.098 Uiso 1 1 calc R . .
C34 C -0.3835(4) -0.3187(5) -0.3700(4) 0.079(3) Uani 1 1 d U . .
H34A H -0.3651 -0.3408 -0.3700 0.095 Uiso 1 1 calc R . .
C35 C -0.3690(4) -0.2788(5) -0.3656(4) 0.075(3) Uani 1 1 d U . .
C36 C -0.5615(4) -0.2881(4) -0.4054(4) 0.070(3) Uani 1 1 d U . .
C37 C -0.6242(4) -0.3181(5) -0.3772(4) 0.072(3) Uani 1 1 d U . .
C38 C -0.6841(4) -0.3548(6) -0.3948(5) 0.093(4) Uani 1 1 d U . .
H38A H -0.6965 -0.3773 -0.4084 0.111 Uiso 1 1 calc R . .
C39 C -0.6427(4) -0.3507(5) -0.3964(5) 0.090(4) Uani 1 1 d U . .
H39A H -0.6268 -0.3703 -0.4106 0.107 Uiso 1 1 calc R . .
C40 C -0.6909(4) -0.2942(5) -0.3534(5) 0.085(3) Uani 1 1 d U . .
H40A H -0.7073 -0.2753 -0.3386 0.102 Uiso 1 1 calc R . .
C41 C -0.7086(4) -0.3266(5) -0.3738(4) 0.079(3) Uani 1 1 d U . .
C42 C -0.7527(4) -0.3333(5) -0.3697(4) 0.082(3) Uani 1 1 d U . .
C43 C -0.6037(4) -0.4377(4) -0.1771(4) 0.074(3) Uani 1 1 d U . .
H43A H -0.5793 -0.4232 -0.1720 0.089 Uiso 1 1 calc R . .
C44 C -0.6594(5) -0.4569(5) -0.2190(5) 0.088(3) Uani 1 1 d U . .
H44A H -0.6744 -0.4555 -0.2443 0.106 Uiso 1 1 calc R . .
C45 C -0.7658(4) -0.3713(6) -0.3536(5) 0.097(4) Uani 1 1 d U . .
H45A H -0.7471 -0.3919 -0.3458 0.116 Uiso 1 1 calc R . .
C46 C -0.8093(5) -0.3770(6) -0.3495(6) 0.105(4) Uani 1 1 d U . .
H46A H -0.8195 -0.4012 -0.3372 0.126 Uiso 1 1 calc R . .
C47 C -0.8210(4) -0.3127(6) -0.3755(5) 0.098(4) Uani 1 1 d U . .
H47A H -0.8403 -0.2919 -0.3805 0.117 Uiso 1 1 calc R . .
C48 C -0.2651(4) -0.2334(5) -0.3790(5) 0.084(3) Uani 1 1 d U . .
H48A H -0.2530 -0.2111 -0.3933 0.101 Uiso 1 1 calc R . .
C49 C -0.3240(4) -0.2718(4) -0.3608(4) 0.071(3) Uani 1 1 d U . .
C50 C -0.3016(4) -0.2952(5) -0.3362(4) 0.073(3) Uani 1 1 d U . .
H50A H -0.3135 -0.3165 -0.3205 0.088 Uiso 1 1 calc R . .
C51 C -0.6712(4) -0.1894(4) -0.6030(4) 0.077(3) Uani 1 1 d U . .
H51A H -0.6619 -0.1843 -0.6307 0.093 Uiso 1 1 calc R . .
C52 C -0.7247(5) -0.1899(5) -0.5568(4) 0.086(4) Uani 1 1 d U . .
H52A H -0.7527 -0.1853 -0.5517 0.104 Uiso 1 1 calc R . .
C53 C -0.6435(5) -0.2027(5) -0.5734(5) 0.084(3) Uani 1 1 d U . .
H53 H -0.6154 -0.2053 -0.5795 0.101 Uiso 1 1 calc R . .
C54 C -0.6603(4) -0.2123(4) -0.5320(4) 0.078(3) Uani 1 1 d U . .
C55 C -0.6324(4) -0.2289(5) -0.4995(5) 0.083(3) Uani 1 1 d U . .
C56 C -0.6197(4) -0.4626(4) -0.1455(4) 0.078(3) Uani 1 1 d U . .
H56A H -0.6060 -0.4637 -0.1194 0.094 Uiso 1 1 calc R . .
C57 C -0.6487(4) -0.2892(5) -0.3545(5) 0.084(3) Uani 1 1 d U . .
H57A H -0.6364 -0.2671 -0.3405 0.101 Uiso 1 1 calc R . .
C58 C -0.7820(4) -0.3033(5) -0.3819(5) 0.093(4) Uani 1 1 d U . .
H58A H -0.7741 -0.2781 -0.3938 0.111 Uiso 1 1 calc R . .
C59 C -0.2586(4) -0.2874(5) -0.3338(5) 0.080(3) Uani 1 1 d U . .
H59A H -0.2421 -0.3038 -0.3162 0.096 Uiso 1 1 calc R . .
C60 C -0.4387(5) -0.1777(6) -0.5232(6) 0.099(4) Uani 1 1 d U . .
C61 C -0.3990(7) -0.1668(7) -0.5170(6) 0.122(5) Uani 1 1 d U . .
H61 H -0.3856 -0.1744 -0.4918 0.147 Uiso 1 1 calc R . .
C62 C -0.5845(5) -0.2803(6) -0.4787(5) 0.096(4) Uani 1 1 d U . .
H62A H -0.5684 -0.3031 -0.4858 0.115 Uiso 1 1 calc R . .
C63 C -0.6113(5) -0.2332(5) -0.4278(5) 0.090(4) Uani 1 1 d U . .
H63A H -0.6118 -0.2230 -0.4000 0.108 Uiso 1 1 calc R . .
C64 C -0.7002(5) -0.2032(5) -0.5244(4) 0.085(3) Uani 1 1 d U . .
H64A H -0.7109 -0.2059 -0.4969 0.102 Uiso 1 1 calc R . .
C65 C -0.6062(5) -0.2607(5) -0.5096(5) 0.093(4) Uani 1 1 d U . .
H65A H -0.6034 -0.2690 -0.5380 0.111 Uiso 1 1 calc R . .
C66 C -0.5845(4) -0.3733(4) -0.2380(4) 0.063(2) Uani 1 1 d U . .
H66A H -0.5793 -0.3665 -0.2096 0.076 Uiso 1 1 calc R . .
C67 C -0.3078(4) -0.2399(5) -0.3829(5) 0.085(4) Uani 1 1 d U . .
H67A H -0.3242 -0.2230 -0.4000 0.102 Uiso 1 1 calc R . .
C68 C -0.6726(4) -0.4810(4) -0.1862(5) 0.082(3) Uani 1 1 d U . .
H68A H -0.6972 -0.4955 -0.1900 0.099 Uiso 1 1 calc R . .
C69 C -0.6351(5) -0.2150(5) -0.4582(5) 0.088(4) Uani 1 1 d U . .
H69A H -0.6529 -0.1934 -0.4511 0.106 Uiso 1 1 calc R . .
C70 C -0.4357(7) -0.1370(9) -0.5858(9) 0.158(8) Uani 1 1 d U . .
H70A H -0.4504 -0.1282 -0.6097 0.190 Uiso 1 1 calc R . .
C71 C -0.4560(8) -0.1604(9) -0.5523(8) 0.162(8) Uani 1 1 d U . .
H71A H -0.4847 -0.1622 -0.5533 0.195 Uiso 1 1 calc R . .
C72 C -0.3779(7) -0.1442(7) -0.5480(6) 0.123(5) Uani 1 1 d U . .
H72A H -0.3496 -0.1396 -0.5451 0.147 Uiso 1 1 calc R . .
P1 P -0.11152(10) -0.24861(13) -0.36282(13) 0.0874(10) Uani 1 1 d DU . .
C1P C -0.0938(6) -0.2995(4) -0.3675(6) 0.119(5) Uani 1 1 d DU . .
H1PA H -0.1081 -0.3126 -0.3911 0.143 Uiso 1 1 calc R . .
H1PB H -0.0646 -0.2988 -0.3744 0.143 Uiso 1 1 calc R . .
C2P C -0.0996(7) -0.3252(6) -0.3286(6) 0.123(5) Uani 1 1 d DU . .
H2PA H -0.0892 -0.3526 -0.3339 0.184 Uiso 1 1 calc R . .
H2PB H -0.1285 -0.3267 -0.3218 0.184 Uiso 1 1 calc R . .
H2PC H -0.0849 -0.3131 -0.3051 0.184 Uiso 1 1 calc R . .
C3P C -0.1001(5) -0.2230(6) -0.4124(5) 0.115(4) Uani 1 1 d DU . .
H3PA H -0.0703 -0.2198 -0.4144 0.138 Uiso 1 1 calc R . .
H3PB H -0.1086 -0.2409 -0.4356 0.138 Uiso 1 1 calc R . .
C4P C -0.1196(7) -0.1813(6) -0.4191(7) 0.132(6) Uani 1 1 d DU . .
H4PA H -0.1123 -0.1711 -0.4469 0.198 Uiso 1 1 calc R . .
H4PB H -0.1098 -0.1624 -0.3977 0.198 Uiso 1 1 calc R . .
H4PC H -0.1491 -0.1838 -0.4170 0.198 Uiso 1 1 calc R . .
C5P C -0.0792(3) -0.2244(6) -0.3256(5) 0.097(4) Uani 1 1 d DU . .
H5PA H -0.0866 -0.1954 -0.3241 0.117 Uiso 1 1 calc R . .
H5PB H -0.0844 -0.2364 -0.2977 0.117 Uiso 1 1 calc R . .
C6P C -0.0343(4) -0.2274(6) -0.3345(5) 0.096(4) Uani 1 1 d DU . .
H6PA H -0.0191 -0.2133 -0.3125 0.145 Uiso 1 1 calc R . .
H6PB H -0.0284 -0.2149 -0.3617 0.145 Uiso 1 1 calc R . .
H6PC H -0.0262 -0.2560 -0.3352 0.145 Uiso 1 1 calc R . .
P2 P -0.18587(10) -0.20610(11) -0.29937(11) 0.0730(8) Uani 1 1 d DU . .
C7P C -0.2385(3) -0.2005(5) -0.2821(4) 0.085(3) Uani 1 1 d DU . .
H7PA H -0.2550 -0.1911 -0.3062 0.102 Uiso 1 1 calc R . .
H7PB H -0.2489 -0.2275 -0.2737 0.102 Uiso 1 1 calc R . .
C8P C -0.2444(5) -0.1712(5) -0.2458(5) 0.097(4) Uani 1 1 d DU . .
H8PA H -0.2731 -0.1709 -0.2376 0.145 Uiso 1 1 calc R . .
H8PB H -0.2362 -0.1439 -0.2545 0.145 Uiso 1 1 calc R . .
H8PC H -0.2278 -0.1799 -0.2220 0.145 Uiso 1 1 calc R . .
C9P C -0.1719(4) -0.1544(3) -0.3121(4) 0.080(3) Uani 1 1 d DU . .
H9PA H -0.1728 -0.1381 -0.2860 0.096 Uiso 1 1 calc R . .
H9PB H -0.1435 -0.1543 -0.3221 0.096 Uiso 1 1 calc R . .
C10P C -0.1981(5) -0.1336(5) -0.3449(5) 0.101(4) Uani 1 1 d DU . .
H10A H -0.1883 -0.1059 -0.3494 0.151 Uiso 1 1 calc R . .
H10B H -0.2263 -0.1328 -0.3351 0.151 Uiso 1 1 calc R . .
H10C H -0.1967 -0.1488 -0.3712 0.151 Uiso 1 1 calc R . .
C11P C -0.1579(4) -0.2207(4) -0.2535(4) 0.082(3) Uani 1 1 d DU . .
H11A H -0.1285 -0.2192 -0.2595 0.099 Uiso 1 1 calc R . .
H11B H -0.1639 -0.2015 -0.2304 0.099 Uiso 1 1 calc R . .
C12P C -0.1688(5) -0.2640(4) -0.2395(5) 0.083(3) Uani 1 1 d DU . .
H12A H -0.1528 -0.2712 -0.2146 0.125 Uiso 1 1 calc R . .
H12B H -0.1626 -0.2831 -0.2621 0.125 Uiso 1 1 calc R . .
H12C H -0.1977 -0.2654 -0.2327 0.125 Uiso 1 1 calc R . .
P3 P -0.33548(18) -0.41080(13) -0.06765(15) 0.1104(15) Uani 1 1 d DU . .
C13P C -0.3656(6) -0.4220(9) -0.0213(5) 0.151(6) Uani 1 1 d DU . .
H13B H -0.3531 -0.4451 -0.0063 0.181 Uiso 1 1 calc R . .
H13C H -0.3648 -0.3982 -0.0023 0.181 Uiso 1 1 calc R . .
C14P C -0.4100(7) -0.4322(11) -0.0311(11) 0.199(9) Uani 1 1 d DU . .
H14B H -0.4246 -0.4375 -0.0049 0.299 Uiso 1 1 calc R . .
H14C H -0.4112 -0.4564 -0.0490 0.299 Uiso 1 1 calc R . .
H14D H -0.4227 -0.4094 -0.0457 0.299 Uiso 1 1 calc R . .
C15P C -0.3614(8) -0.3680(5) -0.0915(5) 0.129(6) Uani 1 1 d DU . .
H15A H -0.3441 -0.3579 -0.1146 0.155 Uiso 1 1 calc R . .
H15B H -0.3867 -0.3784 -0.1043 0.155 Uiso 1 1 calc R . .
C16P C -0.3726(7) -0.3321(5) -0.0644(6) 0.124(5) Uani 1 1 d DU . .
H16A H -0.3874 -0.3121 -0.0813 0.186 Uiso 1 1 calc R . .
H16B H -0.3479 -0.3196 -0.0533 0.186 Uiso 1 1 calc R . .
H16C H -0.3897 -0.3411 -0.0412 0.186 Uiso 1 1 calc R . .
C17P C -0.2888(5) -0.3907(6) -0.0486(6) 0.124(5) Uani 1 1 d DU . .
H17B H -0.2940 -0.3691 -0.0278 0.148 Uiso 1 1 calc R . .
H17C H -0.2727 -0.4123 -0.0350 0.148 Uiso 1 1 calc R . .
P4 P -0.2964(2) -0.50721(16) -0.06822(19) 0.137(2) Uani 1 1 d DU . .
C19P C -0.2601(8) -0.5323(10) -0.1018(8) 0.191(7) Uani 1 1 d DU . .
H19B H -0.2457 -0.5545 -0.0873 0.230 Uiso 1 1 calc R . .
H19C H -0.2726 -0.5425 -0.