####################################################################### 
# 
# This file contains crystal structure data downloaded from the 
# Cambridge Structural Database (CSD) hosted by the Cambridge 
# Crystallographic Data Centre (CCDC).
# 
# Full information about CCDC data access policies and citation 
# guidelines are available at http://www.ccdc.cam.ac.uk/access/V1 
# 
# Audit and citation data items may have been added by the CCDC. 
# Please retain this information to preserve the provenance of 
# this file and to allow appropriate attribution of the data. 
# 
#######################################################################

data_p-3-cl
_audit_block_doi                 10.5517/ccnmryy
_database_code_depnum_ccdc_archive 'CCDC 614821'
loop_
_citation_id
_citation_doi
_citation_year
1 10.1002/ejic.201000664 2010
_audit_update_record             
;
2006-07-13 deposited with the CCDC.	2024-07-10 downloaded from the CCDC.
;
_audit_creation_method           SHELXL-97
_chemical_name_systematic        
;
?
;
_chemical_name_common            ?
_chemical_melting_point          ?
_chemical_formula_moiety         ?
_chemical_formula_sum            'C60 H57 Cl9 N6 O17 Sm'
_chemical_formula_weight         1603.52
loop_
_atom_type_symbol
_atom_type_description
_atom_type_scat_dispersion_real
_atom_type_scat_dispersion_imag
_atom_type_scat_source
C C 0.0033 0.0016 'International Tables Vol C Tables 4.2.6.8 and 6.1.1.4'
H H 0.0000 0.0000 'International Tables Vol C Tables 4.2.6.8 and 6.1.1.4'
N N 0.0061 0.0033 'International Tables Vol C Tables 4.2.6.8 and 6.1.1.4'
O O 0.0106 0.0060 'International Tables Vol C Tables 4.2.6.8 and 6.1.1.4'
Cl Cl 0.1484 0.1585 'International Tables Vol C Tables 4.2.6.8 and 6.1.1.4'
Sm Sm -0.1638 3.4418 'International Tables Vol C Tables 4.2.6.8 and 6.1.1.4'
_symmetry_cell_setting           Trigonal
_symmetry_space_group_name_H-M   P-3
loop_
_symmetry_equiv_pos_as_xyz
'x, y, z'
'-y, x-y, z'
'-x+y, -x, z'
'-x, -y, -z'
'y, -x+y, -z'
'x-y, x, -z'
_cell_length_a                   19.9784(12)
_cell_length_b                   19.9784(12)
_cell_length_c                   11.0176(14)
_cell_angle_alpha                90.00
_cell_angle_beta                 90.00
_cell_angle_gamma                120.00
_cell_volume                     3808.4(6)
_cell_formula_units_Z            2
_cell_measurement_temperature    294(2)
_cell_measurement_reflns_used    4539
_cell_measurement_theta_min      2.19
_cell_measurement_theta_max      19.84
_exptl_crystal_description       block
_exptl_crystal_colour            colorless
_exptl_crystal_size_max          0.39
_exptl_crystal_size_mid          0.17
_exptl_crystal_size_min          0.06
_exptl_crystal_density_meas      0
_exptl_crystal_density_diffrn    1.398
_exptl_crystal_density_method    'not measured'
_exptl_crystal_F_000             1620
_exptl_absorpt_coefficient_mu    1.150
_exptl_absorpt_correction_type   none
_exptl_absorpt_correction_T_min  0.6626
_exptl_absorpt_correction_T_max  0.9342
_exptl_absorpt_process_details   ?
_exptl_special_details           
;
?
;
_diffrn_ambient_temperature      294(2)
_diffrn_radiation_wavelength     0.71073
_diffrn_radiation_type           MoK\a
_diffrn_radiation_source         'fine-focus sealed tube'
_diffrn_radiation_monochromator  graphite
_diffrn_measurement_device_type  'CCD area detector'
_diffrn_measurement_method       'phi and omega scans'
_diffrn_detector_area_resol_mean ?
_diffrn_standards_number         ?
_diffrn_standards_interval_count ?
_diffrn_standards_interval_time  ?
_diffrn_standards_decay_%        ?
_diffrn_reflns_number            23402
_diffrn_reflns_av_R_equivalents  0.0512
_diffrn_reflns_av_sigmaI/netI    0.0485
_diffrn_reflns_limit_h_min       -24
_diffrn_reflns_limit_h_max       25
_diffrn_reflns_limit_k_min       -25
_diffrn_reflns_limit_k_max       19
_diffrn_reflns_limit_l_min       -14
_diffrn_reflns_limit_l_max       13
_diffrn_reflns_theta_min         1.85
_diffrn_reflns_theta_max         27.47
_reflns_number_total             5808
_reflns_number_gt                4563
_reflns_threshold_expression     >2sigma(I)
_computing_data_collection       'Bruker SMART'
_computing_cell_refinement       'Bruker SMART'
_computing_data_reduction        'Bruker SAINT'
_computing_structure_solution    'Bruker SHELXTL'
_computing_structure_refinement  'Bruker SHELXTL'
_computing_molecular_graphics    'Bruker SHELXTL'
_computing_publication_material  'Bruker SHELXTL'
_refine_special_details          
;
Refinement of F^2^ against ALL reflections. The weighted R-factor wR and
goodness of fit S are based on F^2^, conventional R-factors R are based
on F, with F set to zero for negative F^2^. The threshold expression of
F^2^ > 2sigma(F^2^) is used only for calculating R-factors(gt) etc. and is
not relevant to the choice of reflections for refinement. R-factors based
on F^2^ are statistically about twice as large as those based on F, and R-
factors based on ALL data will be even larger.
;
_refine_ls_structure_factor_coef Fsqd
_refine_ls_matrix_type           full
_refine_ls_weighting_scheme      calc
_refine_ls_weighting_details     
'calc w=1/[\s^2^(Fo^2^)+(0.1320P)^2^+0.2033P] where P=(Fo^2^+2Fc^2^)/3'
_atom_sites_solution_primary     direct
_atom_sites_solution_secondary   difmap
_atom_sites_solution_hydrogens   geom
_refine_ls_hydrogen_treatment    mixed
_refine_ls_extinction_method     SHELXL
_refine_ls_extinction_coef       0.0011(7)
_refine_ls_extinction_expression Fc^*^=kFc[1+0.001xFc^2^\l^3^/sin(2\q)]^-1/4^
_refine_ls_number_reflns         5808
_refine_ls_number_parameters     282
_refine_ls_number_restraints     3
_refine_ls_R_factor_all          0.0799
_refine_ls_R_factor_gt           0.0617
_refine_ls_wR_factor_ref         0.1908
_refine_ls_wR_factor_gt          0.1723
_refine_ls_goodness_of_fit_ref   1.009
_refine_ls_restrained_S_all      1.009
_refine_ls_shift/su_max          0.708
_refine_ls_shift/su_mean         0.003
loop_
_atom_site_label
_atom_site_type_symbol
_atom_site_fract_x
_atom_site_fract_y
_atom_site_fract_z
_atom_site_U_iso_or_equiv
_atom_site_adp_type
_atom_site_occupancy
_atom_site_symmetry_multiplicity
_atom_site_calc_flag
_atom_site_refinement_flags
_atom_site_disorder_assembly
_atom_site_disorder_group
Sm1 Sm 0.3333 0.6667 -0.13629(3) 0.04417(18) Uani 1 3 d S . .
O1 O 0.4662(2) 0.7788(2) -0.1811(4) 0.0698(9) Uani 1 1 d . . .
C4 C 0.3908(3) 0.8981(2) 0.0110(4) 0.0485(10) Uani 1 1 d . . .
O3 O 0.36568(19) 0.76891(17) -0.0002(3) 0.0553(8) Uani 1 1 d . . .
O5 O 0.4354(2) 0.9690(2) 0.1935(3) 0.0705(10) Uani 1 1 d . . .
O2 O 0.4267(2) 0.6830(2) -0.3042(3) 0.0670(9) Uani 1 1 d . . .
N2 N 0.4361(3) 0.8394(2) 0.1582(4) 0.0641(11) Uani 1 1 d . . .
H2 H 0.4573 0.8836 0.1939 0.077 Uiso 1 1 calc R . .
C5 C 0.4062(3) 0.9635(3) 0.0797(4) 0.0527(10) Uani 1 1 d . . .
C3 C 0.3637(3) 0.8926(3) -0.1064(5) 0.0660(13) Uani 1 1 d . . .
H3 H 0.3535 0.8499 -0.1535 0.079 Uiso 1 1 calc R . .
C6 C 0.3932(3) 1.0204(3) 0.0309(5) 0.0646(13) Uani 1 1 d . . .
H6 H 0.4037 1.0638 0.0766 0.078 Uiso 1 1 calc R . .
C2 C 0.3515(4) 0.9498(3) -0.1549(5) 0.0782(17) Uani 1 1 d . . .
H2A H 0.3343 0.9458 -0.2344 0.094 Uiso 1 1 calc R . .
C1 C 0.3647(4) 1.0120(3) -0.0857(5) 0.0748(16) Uani 1 1 d . . .
H1 H 0.3544 1.0491 -0.1174 0.090 Uiso 1 1 calc R . .
C7 C 0.3982(2) 0.8324(3) 0.0565(4) 0.0491(10) Uani 1 1 d . . .
C16 C 0.4701(3) 1.0124(3) 0.3951(5) 0.0618(13) Uani 1 1 d . . .
C17 C 0.5449(3) 1.0622(3) 0.4288(5) 0.0671(14) Uani 1 1 d . . .
H17 H 0.5754 1.1047 0.3798 0.081 Uiso 1 1 calc R . .
C15 C 0.4400(4) 1.0271(3) 0.2763(5) 0.0697(14) Uani 1 1 d . . .
H15A H 0.3895 1.0220 0.2880 0.084 Uiso 1 1 calc R . .
H15B H 0.4752 1.0785 0.2458 0.084 Uiso 1 1 calc R . .
C18 C 0.4232(3) 0.9487(3) 0.4660(5) 0.0696(14) Uani 1 1 d . . .
C19 C 0.3403(4) 0.8917(5) 0.4327(7) 0.115(3) Uani 1 1 d . . .
H19A H 0.3175 0.8530 0.4948 0.172 Uiso 1 1 calc R . .
H19B H 0.3391 0.8675 0.3568 0.172 Uiso 1 1 calc R . .
H19C H 0.3117 0.9184 0.4252 0.172 Uiso 1 1 calc R . .
C9 C 0.5294(4) 0.8063(3) 0.2404(6) 0.0705(14) Uani 1 1 d . . .
C8 C 0.4448(4) 0.7781(3) 0.2152(6) 0.0778(16) Uani 1 1 d . . .
H8A H 0.4242 0.7335 0.1619 0.093 Uiso 1 1 calc R . .
H8B H 0.4160 0.7625 0.2906 0.093 Uiso 1 1 calc R . .
C14 C 0.5727(5) 0.7922(4) 0.1635(9) 0.105(3) Uani 1 1 d . . .
H14 H 0.5507 0.7656 0.0918 0.127 Uiso 1 1 calc R . .
C10 C 0.5616(5) 0.8465(5) 0.3458(7) 0.107(3) Uani 1 1 d . . .
H10 H 0.5302 0.8541 0.3995 0.128 Uiso 1 1 calc R . .
O4 O 0.5362(3) 0.7897(3) -0.3378(6) 0.118(2) Uani 1 1 d . . .
N1 N 0.4782(3) 0.7516(3) -0.2759(5) 0.0717(13) Uani 1 1 d . . .
C12 C 0.6784(8) 0.8563(9) 0.294(2) 0.179(9) Uani 1 1 d . . .
H12 H 0.7293 0.8716 0.3140 0.215 Uiso 1 1 calc R . .
C11 C 0.6369(8) 0.8756(8) 0.3749(13) 0.167(6) Uani 1 1 d . . .
H11 H 0.6592 0.9061 0.4433 0.201 Uiso 1 1 calc R . .
C13 C 0.6497(9) 0.8165(7) 0.188(2) 0.179(7) Uani 1 1 d . . .
H13 H 0.6799 0.8062 0.1356 0.215 Uiso 1 1 calc R . .
Cl2 Cl 0.8298(6) 0.0677(6) 0.3320(13) 0.473(8) Uani 1 1 d D . .
Cl3 Cl 0.8917(16) 0.1102(19) 0.1201(15) 0.95(3) Uani 1 1 d D . .
C20 C 0.8696(8) 0.1569(9) 0.240(2) 0.39(2) Uani 1 1 d D . .
H20 H 0.8430 0.1864 0.2274 0.473 Uiso 1 1 calc R . .
Cl1 Cl 0.9604(5) 0.1944(6) 0.3163(14) 0.495(8) Uani 1 1 d D . .
O1W O 0.3333 0.6667 0.4605(19) 0.343(16) Uani 1 3 d S . .
O2W O 0.0000 0.0000 0.206(15) 1.25(15) Uani 1 3 d S . .
loop_
_atom_site_aniso_label
_atom_site_aniso_U_11
_atom_site_aniso_U_22
_atom_site_aniso_U_33
_atom_site_aniso_U_23
_atom_site_aniso_U_13
_atom_site_aniso_U_12
Sm1 0.0434(2) 0.0434(2) 0.0456(3) 0.000 0.000 0.02172(10)
O1 0.061(2) 0.058(2) 0.077(2) -0.0015(18) 0.0131(18) 0.0200(17)
C4 0.048(2) 0.041(2) 0.048(2) 0.0030(17) -0.0025(18) 0.0158(18)
O3 0.0612(19) 0.0416(16) 0.0598(19) -0.0090(14) -0.0040(15) 0.0232(14)
O5 0.108(3) 0.057(2) 0.056(2) -0.0159(16) -0.0241(19) 0.049(2)
O2 0.065(2) 0.066(2) 0.068(2) 0.0000(17) 0.0119(17) 0.0316(19)
N2 0.081(3) 0.047(2) 0.066(3) -0.0081(18) -0.025(2) 0.033(2)
C5 0.057(3) 0.047(2) 0.052(2) -0.0035(19) -0.007(2) 0.025(2)
C3 0.082(4) 0.055(3) 0.055(3) -0.006(2) -0.009(3) 0.029(3)
C6 0.087(4) 0.049(3) 0.062(3) -0.003(2) -0.006(3) 0.038(3)
C2 0.107(5) 0.071(3) 0.056(3) 0.001(3) -0.020(3) 0.044(3)
C1 0.100(4) 0.061(3) 0.072(4) 0.008(3) -0.007(3) 0.047(3)
C7 0.042(2) 0.047(2) 0.055(3) -0.0021(19) 0.0019(18) 0.0197(19)
C16 0.078(3) 0.049(3) 0.053(3) -0.009(2) -0.009(2) 0.028(3)
C17 0.077(3) 0.046(3) 0.052(3) -0.002(2) 0.002(2) 0.012(2)
C15 0.095(4) 0.057(3) 0.060(3) -0.015(2) -0.010(3) 0.041(3)
C18 0.064(3) 0.053(3) 0.068(3) -0.004(2) -0.002(3) 0.012(2)
C19 0.072(4) 0.111(6) 0.094(5) 0.009(4) -0.017(4) -0.005(4)
C9 0.085(4) 0.049(3) 0.081(4) 0.006(2) -0.011(3) 0.036(3)
C8 0.087(4) 0.053(3) 0.092(4) 0.004(3) -0.022(3) 0.033(3)
C14 0.111(6) 0.060(4) 0.152(7) 0.019(4) 0.020(5) 0.047(4)
C10 0.112(6) 0.103(5) 0.072(4) -0.001(4) -0.027(4) 0.030(5)
O4 0.102(4) 0.083(3) 0.135(5) 0.008(3) 0.067(3) 0.020(3)
N1 0.067(3) 0.061(3) 0.085(3) 0.014(2) 0.028(2) 0.031(2)
C12 0.099(8) 0.125(11) 0.31(2) 0.100(13) -0.028(11) 0.052(8)
C11 0.144(10) 0.150(10) 0.160(11) 0.020(8) -0.087(9) 0.038(9)
C13 0.141(12) 0.101(8) 0.32(2) 0.079(11) 0.059(13) 0.078(9)
Cl2 0.310(10) 0.266(8) 0.75(3) 0.159(12) -0.014(12) 0.072(7)
Cl3 1.01(6) 1.36(7) 0.326(14) -0.07(3) -0.08(2) 0.46(5)
C20 0.098(10) 0.150(14) 0.90(8) -0.02(3) 0.02(2) 0.035(10)
Cl1 0.245(8) 0.364(11) 0.79(2) -0.081(13) 0.127(11) 0.084(8)
O1W 0.43(3) 0.43(3) 0.170(19) 0.000 0.000 0.215(13)
O2W 0.88(13) 0.88(13) 2.0(4) 0.000 0.000 0.44(7)
_geom_special_details            
;
All esds (except the esd in the dihedral angle between two l.s. planes)
are estimated using the full covariance matrix. The cell esds are taken
into account individually in the estimation of esds in distances, angles
and torsion angles; correlations between esds in cell parameters are only
used when they are defined by crystal symmetry. An approximate (isotropic)
treatment of cell esds is used for estimating esds involving l.s. planes.
;
loop_
_geom_bond_atom_site_label_1
_geom_bond_atom_site_label_2
_geom_bond_distance
_geom_bond_site_symmetry_2
_geom_bond_publ_flag
Sm1 O3 2.349(3) 3_565 ?
Sm1 O3 2.349(3) . ?
Sm1 O3 2.349(3) 2_665 ?
Sm1 O1 2.522(3) 2_665 ?
Sm1 O1 2.522(3) . ?
Sm1 O1 2.522(3) 3_565 ?
Sm1 O2 2.529(3) 2_665 ?
Sm1 O2 2.529(4) . ?
Sm1 O2 2.529(3) 3_565 ?
Sm1 N1 2.951(4) 2_665 ?
Sm1 N1 2.951(4) 3_565 ?
O1 N1 1.254(6) . ?
C4 C3 1.385(7) . ?
C4 C5 1.404(6) . ?
C4 C7 1.481(6) . ?
O3 C7 1.263(5) . ?
O5 C5 1.364(6) . ?
O5 C15 1.442(6) . ?
O2 N1 1.274(6) . ?
N2 C7 1.319(6) . ?
N2 C8 1.463(6) . ?
C5 C6 1.394(7) . ?
C3 C2 1.389(8) . ?
C6 C1 1.381(8) . ?
C2 C1 1.366(8) . ?
C16 C17 1.369(8) . ?
C16 C18 1.385(8) . ?
C16 C15 1.528(8) . ?
C17 C18 1.392(8) 4_676 ?
C18 C17 1.392(8) 4_676 ?
C18 C19 1.512(8) . ?
C9 C14 1.337(10) . ?
C9 C10 1.375(9) . ?
C9 C8 1.515(8) . ?
C14 C13 1.389(16) . ?
C10 C11 1.351(15) . ?
O4 N1 1.227(6) . ?
C12 C13 1.37(2) . ?
C12 C11 1.40(2) . ?
Cl2 C20 1.850(16) . ?
Cl3 C20 1.796(17) . ?
C20 Cl1 1.788(15) . ?
loop_
_geom_angle_atom_site_label_1
_geom_angle_atom_site_label_2
_geom_angle_atom_site_label_3
_geom_angle
_geom_angle_site_symmetry_1
_geom_angle_site_symmetry_3
_geom_angle_publ_flag
O3 Sm1 O3 83.62(12) 3_565 . ?
O3 Sm1 O3 83.63(12) 3_565 2_665 ?
O3 Sm1 O3 83.62(12) . 2_665 ?
O3 Sm1 O1 150.36(13) 3_565 2_665 ?
O3 Sm1 O1 82.09(12) . 2_665 ?
O3 Sm1 O1 69.09(12) 2_665 2_665 ?
O3 Sm1 O1 82.09(12) 3_565 . ?
O3 Sm1 O1 69.09(12) . . ?
O3 Sm1 O1 150.36(13) 2_665 . ?
O1 Sm1 O1 116.27(6) 2_665 . ?
O3 Sm1 O1 69.09(12) 3_565 3_565 ?
O3 Sm1 O1 150.36(13) . 3_565 ?
O3 Sm1 O1 82.09(12) 2_665 3_565 ?
O1 Sm1 O1 116.27(6) 2_665 3_565 ?
O1 Sm1 O1 116.27(6) . 3_565 ?
O3 Sm1 O2 155.43(13) 3_565 2_665 ?
O3 Sm1 O2 90.06(12) . 2_665 ?
O3 Sm1 O2 119.33(12) 2_665 2_665 ?
O1 Sm1 O2 50.30(12) 2_665 2_665 ?
O1 Sm1 O2 73.49(13) . 2_665 ?
O1 Sm1 O2 119.57(13) 3_565 2_665 ?
O3 Sm1 O2 90.06(13) 3_565 . ?
O3 Sm1 O2 119.34(12) . . ?
O3 Sm1 O2 155.44(13) 2_665 . ?
O1 Sm1 O2 119.57(13) 2_665 . ?
O1 Sm1 O2 50.30(12) . . ?
O1 Sm1 O2 73.50(13) 3_565 . ?
O2 Sm1 O2 72.39(14) 2_665 . ?
O3 Sm1 O2 119.33(12) 3_565 3_565 ?
O3 Sm1 O2 155.43(13) . 3_565 ?
O3 Sm1 O2 90.06(13) 2_665 3_565 ?
O1 Sm1 O2 73.50(13) 2_665 3_565 ?
O1 Sm1 O2 119.57(13) . 3_565 ?
O1 Sm1 O2 50.30(12) 3_565 3_565 ?
O2 Sm1 O2 72.40(14) 2_665 3_565 ?
O2 Sm1 O2 72.39(14) . 3_565 ?
O3 Sm1 N1 170.30(13) 3_565 2_665 ?
O3 Sm1 N1 86.78(13) . 2_665 ?
O3 Sm1 N1 93.93(13) 2_665 2_665 ?
O1 Sm1 N1 24.95(13) 2_665 2_665 ?
O1 Sm1 N1 95.81(13) . 2_665 ?
O1 Sm1 N1 119.96(13) 3_565 2_665 ?
O2 Sm1 N1 25.41(12) 2_665 2_665 ?
O2 Sm1 N1 95.88(14) . 2_665 ?
O2 Sm1 N1 69.94(13) 3_565 2_665 ?
O3 Sm1 N1 93.93(13) 3_565 3_565 ?
O3 Sm1 N1 170.30(13) . 3_565 ?
O3 Sm1 N1 86.78(13) 2_665 3_565 ?
O1 Sm1 N1 95.81(13) 2_665 3_565 ?
O1 Sm1 N1 119.96(13) . 3_565 ?
O1 Sm1 N1 24.95(13) 3_565 3_565 ?
O2 Sm1 N1 95.88(14) 2_665 3_565 ?
O2 Sm1 N1 69.94(13) . 3_565 ?
O2 Sm1 N1 25.40(12) 3_565 3_565 ?
N1 Sm1 N1 95.30(15) 2_665 3_565 ?
N1 O1 Sm1 97.0(3) . . ?
C3 C4 C5 118.1(4) . . ?
C3 C4 C7 117.0(4) . . ?
C5 C4 C7 124.8(4) . . ?
C7 O3 Sm1 165.5(3) . . ?
C5 O5 C15 120.0(4) . . ?
N1 O2 Sm1 96.2(3) . . ?
C7 N2 C8 125.2(4) . . ?
O5 C5 C6 122.3(4) . . ?
O5 C5 C4 117.2(4) . . ?
C6 C5 C4 120.5(4) . . ?
C4 C3 C2 121.1(5) . . ?
C1 C6 C5 119.6(5) . . ?
C1 C2 C3 120.0(5) . . ?
C2 C1 C6 120.6(5) . . ?
O3 C7 N2 120.5(4) . . ?
O3 C7 C4 119.5(4) . . ?
N2 C7 C4 119.9(4) . . ?
C17 C16 C18 120.4(5) . . ?
C17 C16 C15 119.0(5) . . ?
C18 C16 C15 120.6(5) . . ?
C16 C17 C18 122.1(5) . 4_676 ?
O5 C15 C16 105.1(4) . . ?
C16 C18 C17 117.5(5) . 4_676 ?
C16 C18 C19 122.6(6) . . ?
C17 C18 C19 119.9(6) 4_676 . ?
C14 C9 C10 119.6(8) . . ?
C14 C9 C8 121.6(7) . . ?
C10 C9 C8 118.8(7) . . ?
N2 C8 C9 110.2(5) . . ?
C9 C14 C13 121.5(12) . . ?
C11 C10 C9 123.2(11) . . ?
O4 N1 O1 121.3(5) . . ?
O4 N1 O2 122.4(5) . . ?
O1 N1 O2 116.3(4) . . ?
C13 C12 C11 124.8(14) . . ?
C10 C11 C12 114.6(13) . . ?
C12 C13 C14 116.1(15) . . ?
Cl1 C20 Cl3 95.9(11) . . ?
Cl1 C20 Cl2 90.2(10) . . ?
Cl3 C20 Cl2 90.0(11) . . ?
_diffrn_measured_fraction_theta_max 0.997
_diffrn_reflns_theta_full        27.47
_diffrn_measured_fraction_theta_full 0.997
_refine_diff_density_max         0.924
_refine_diff_density_min         -0.757
_refine_diff_density_rms         0.105
