####################################################################### 
# 
# This file contains crystal structure data downloaded from the 
# Cambridge Structural Database (CSD) hosted by the Cambridge 
# Crystallographic Data Centre (CCDC).
# 
# Full information about CCDC data access policies and citation 
# guidelines are available at http://www.ccdc.cam.ac.uk/access/V1 
# 
# Audit and citation data items may have been added by the CCDC. 
# Please retain this information to preserve the provenance of 
# this file and to allow appropriate attribution of the data. 
# 
#######################################################################

data_p-3_1
_audit_block_doi                 10.5517/ccnmrww
_database_code_depnum_ccdc_archive 'CCDC 614819'
loop_
_citation_id
_citation_doi
_citation_year
1 10.1002/ejic.201000664 2010
_audit_update_record             
;
2006-07-13 deposited with the CCDC.	2024-07-10 downloaded from the CCDC.
;
_audit_creation_method           SHELXL-97
_chemical_name_systematic        
;
?
;
_chemical_name_common            ?
_chemical_melting_point          ?
_chemical_formula_moiety         ?
_chemical_formula_sum            'C60 H57 Cl9 Er N6 O20'
_chemical_formula_weight         1668.43
loop_
_atom_type_symbol
_atom_type_description
_atom_type_scat_dispersion_real
_atom_type_scat_dispersion_imag
_atom_type_scat_source
C C 0.0033 0.0016 'International Tables Vol C Tables 4.2.6.8 and 6.1.1.4'
N N 0.0061 0.0033 'International Tables Vol C Tables 4.2.6.8 and 6.1.1.4'
O O 0.0106 0.0060 'International Tables Vol C Tables 4.2.6.8 and 6.1.1.4'
Cl Cl 0.1484 0.1585 'International Tables Vol C Tables 4.2.6.8 and 6.1.1.4'
Er Er -0.2586 4.9576 'International Tables Vol C Tables 4.2.6.8 and 6.1.1.4'
H H 0.0000 0.0000 'International Tables Vol C Tables 4.2.6.8 and 6.1.1.4'
_symmetry_cell_setting           Trigonal
_symmetry_space_group_name_H-M   P-3
loop_
_symmetry_equiv_pos_as_xyz
'x, y, z'
'-y, x-y, z'
'-x+y, -x, z'
'-x, -y, -z'
'y, -x+y, -z'
'x-y, x, -z'
_cell_length_a                   19.8946(2)
_cell_length_b                   19.8946(2)
_cell_length_c                   10.9951(2)
_cell_angle_alpha                90.00
_cell_angle_beta                 90.00
_cell_angle_gamma                120.00
_cell_volume                     3768.77(9)
_cell_formula_units_Z            2
_cell_measurement_temperature    294(2)
_cell_measurement_reflns_used    3493
_cell_measurement_theta_min      2.20
_cell_measurement_theta_max      19.04
_exptl_crystal_description       block
_exptl_crystal_colour            pink
_exptl_crystal_size_max          0.43
_exptl_crystal_size_mid          0.15
_exptl_crystal_size_min          0.10
_exptl_crystal_density_meas      0
_exptl_crystal_density_diffrn    1.470
_exptl_crystal_density_method    'not measured'
_exptl_crystal_F_000             1680
_exptl_absorpt_coefficient_mu    1.502
_exptl_absorpt_correction_type   none
_exptl_absorpt_correction_T_min  0.5645
_exptl_absorpt_correction_T_max  0.8643
_exptl_absorpt_process_details   ?
_exptl_special_details           
;
?
;
_diffrn_ambient_temperature      294(2)
_diffrn_radiation_wavelength     0.71073
_diffrn_radiation_type           MoK\a
_diffrn_radiation_source         'fine-focus sealed tube'
_diffrn_radiation_monochromator  graphite
_diffrn_measurement_device_type  'CCD area detector'
_diffrn_measurement_method       'phi and omega scans'
_diffrn_detector_area_resol_mean ?
_diffrn_standards_number         ?
_diffrn_standards_interval_count ?
_diffrn_standards_interval_time  ?
_diffrn_standards_decay_%        ?
_diffrn_reflns_number            23503
_diffrn_reflns_av_R_equivalents  0.0591
_diffrn_reflns_av_sigmaI/netI    0.0584
_diffrn_reflns_limit_h_min       -25
_diffrn_reflns_limit_h_max       25
_diffrn_reflns_limit_k_min       -22
_diffrn_reflns_limit_k_max       25
_diffrn_reflns_limit_l_min       -14
_diffrn_reflns_limit_l_max       13
_diffrn_reflns_theta_min         2.05
_diffrn_reflns_theta_max         27.48
_reflns_number_total             5743
_reflns_number_gt                4369
_reflns_threshold_expression     >2sigma(I)
_computing_data_collection       'Bruker SMART'
_computing_cell_refinement       'Bruker SMART'
_computing_data_reduction        'Bruker SAINT'
_computing_structure_solution    'Bruker SHELXTL'
_computing_structure_refinement  'Bruker SHELXTL'
_computing_molecular_graphics    'Bruker SHELXTL'
_computing_publication_material  'Bruker SHELXTL'

_refine_special_details          
;
Refinement of F^2^ against ALL reflections. The weighted R-factor wR and
goodness of fit S are based on F^2^, conventional R-factors R are based
on F, with F set to zero for negative F^2^. The threshold expression of
F^2^ > 2sigma(F^2^) is used only for calculating R-factors(gt) etc. and is
not relevant to the choice of reflections for refinement. R-factors based
on F^2^ are statistically about twice as large as those based on F, and R-
factors based on ALL data will be even larger.
;
_refine_ls_structure_factor_coef Fsqd
_refine_ls_matrix_type           full
_refine_ls_weighting_scheme      calc
_refine_ls_weighting_details     
'calc w=1/[\s^2^(Fo^2^)+(0.0806P)^2^+6.3375P] where P=(Fo^2^+2Fc^2^)/3'
_atom_sites_solution_primary     direct
_atom_sites_solution_secondary   difmap
_atom_sites_solution_hydrogens   geom
_refine_ls_hydrogen_treatment    mixed
_refine_ls_extinction_method     SHELXL
_refine_ls_extinction_coef       0.0000(4)
_refine_ls_extinction_expression Fc^*^=kFc[1+0.001xFc^2^\l^3^/sin(2\q)]^-1/4^
_refine_ls_number_reflns         5743
_refine_ls_number_parameters     285
_refine_ls_number_restraints     3
_refine_ls_R_factor_all          0.0791
_refine_ls_R_factor_gt           0.0570
_refine_ls_wR_factor_ref         0.1558
_refine_ls_wR_factor_gt          0.1412
_refine_ls_goodness_of_fit_ref   0.980
_refine_ls_restrained_S_all      0.980
_refine_ls_shift/su_max          3.218
_refine_ls_shift/su_mean         0.015
loop_
_atom_site_label
_atom_site_type_symbol
_atom_site_fract_x
_atom_site_fract_y
_atom_site_fract_z
_atom_site_U_iso_or_equiv
_atom_site_adp_type
_atom_site_occupancy
_atom_site_symmetry_multiplicity
_atom_site_calc_flag
_atom_site_refinement_flags
_atom_site_disorder_assembly
_atom_site_disorder_group
C1 C 0.6518(8) 0.8330(7) 0.3048(18) 0.152(6) Uani 1 1 d . . .
H1 H 0.6829 0.8739 0.3564 0.182 Uiso 1 1 calc R . .
C2 C 0.6805(8) 0.8224(9) 0.201(2) 0.160(8) Uani 1 1 d . . .
H2 H 0.7321 0.8567 0.1817 0.192 Uiso 1 1 calc R . .
C3 C 0.6369(8) 0.7630(9) 0.1239(12) 0.147(5) Uani 1 1 d . . .
H3 H 0.6583 0.7556 0.0535 0.176 Uiso 1 1 calc R . .
C4 C 0.5614(5) 0.7152(6) 0.1520(7) 0.096(3) Uani 1 1 d . . .
H4 H 0.5303 0.6756 0.0983 0.115 Uiso 1 1 calc R . .
C5 C 0.5295(4) 0.7234(4) 0.2573(6) 0.0640(16) Uani 1 1 d . . .
C6 C 0.5745(6) 0.7817(5) 0.3341(9) 0.096(3) Uani 1 1 d . . .
H6 H 0.5539 0.7876 0.4066 0.116 Uiso 1 1 calc R . .
C7 C 0.4448(4) 0.6681(4) 0.2862(6) 0.0674(17) Uani 1 1 d . . .
H7A H 0.4256 0.6934 0.3401 0.081 Uiso 1 1 calc R . .
H7B H 0.4146 0.6545 0.2118 0.081 Uiso 1 1 calc R . .
C8 C 0.3969(3) 0.5670(3) 0.4444(5) 0.0434(11) Uani 1 1 d . . .
C9 C 0.3902(3) 0.4938(3) 0.4913(4) 0.0412(10) Uani 1 1 d . . .
C10 C 0.4057(3) 0.4431(3) 0.4204(5) 0.0471(11) Uani 1 1 d . . .
C11 C 0.3926(4) 0.3733(3) 0.4702(6) 0.0611(15) Uani 1 1 d . . .
H11 H 0.4028 0.3401 0.4243 0.073 Uiso 1 1 calc R . .
C12 C 0.3649(4) 0.3532(4) 0.5860(6) 0.0693(17) Uani 1 1 d . . .
H12 H 0.3550 0.3057 0.6174 0.083 Uiso 1 1 calc R . .
C13 C 0.3515(4) 0.4021(4) 0.6565(6) 0.0728(18) Uani 1 1 d . . .
H13 H 0.3343 0.3886 0.7361 0.087 Uiso 1 1 calc R . .
C14 C 0.3638(4) 0.4716(3) 0.6087(5) 0.0577(14) Uani 1 1 d . . .
H14 H 0.3541 0.5042 0.6568 0.069 Uiso 1 1 calc R . .
C15 C 0.4398(4) 0.4139(4) 0.2242(5) 0.0650(16) Uani 1 1 d . . .
H15A H 0.3895 0.3678 0.2125 0.078 Uiso 1 1 calc R . .
H15B H 0.4756 0.3983 0.2554 0.078 Uiso 1 1 calc R . .
C16 C 0.4695(4) 0.4577(3) 0.1058(5) 0.0557(14) Uani 1 1 d . . .
C17 C 0.5443(4) 0.4817(4) 0.0706(5) 0.0647(16) Uani 1 1 d . . .
H17 H 0.5742 0.4684 0.1189 0.078 Uiso 1 1 calc R . .
C18 C 0.4228(3) 0.4752(4) 0.0334(6) 0.0632(15) Uani 1 1 d . . .
C19 C 0.3400(4) 0.4504(6) 0.0657(8) 0.109(3) Uani 1 1 d . . .
H19A H 0.3102 0.3948 0.0707 0.163 Uiso 1 1 calc R . .
H19B H 0.3183 0.4682 0.0042 0.163 Uiso 1 1 calc R . .
H19C H 0.3387 0.4724 0.1427 0.163 Uiso 1 1 calc R . .
C20 C 0.8435(8) 0.1329(8) 0.271(2) 0.37(2) Uani 1 1 d D . .
H20 H 0.8160 0.1603 0.2940 0.441 Uiso 1 1 calc R . .
Cl1 Cl 0.9310(6) 0.1696(6) 0.1712(13) 0.471(8) Uani 1 1 d D . .
Cl2 Cl 0.893(2) 0.0993(18) 0.3710(16) 1.08(3) Uani 1 1 d D . .
Cl3 Cl 0.8043(6) 0.0420(6) 0.1892(14) 0.511(9) Uani 1 1 d D . .
Er1 Er 0.3333 0.6667 0.63210(3) 0.03912(16) Uani 1 3 d S . .
N1 N 0.4751(3) 0.7250(3) 0.7705(5) 0.0591(12) Uani 1 1 d . . .
N2 N 0.4355(3) 0.5976(3) 0.3444(4) 0.0573(12) Uani 1 1 d . . .
H2A H 0.4573 0.5746 0.3098 0.069 Uiso 1 1 calc R . .
O1 O 0.4231(2) 0.7423(2) 0.7956(3) 0.0563(9) Uani 1 1 d . . .
O2 O 0.4631(2) 0.6859(2) 0.6747(4) 0.0601(10) Uani 1 1 d . . .
O3 O 0.5327(3) 0.7457(4) 0.8331(5) 0.1047(19) Uani 1 1 d . . .
O4 O 0.3333 0.6667 0.0385(16) 0.279(12) Uani 1 3 d S . .
O5 O 1.0000 1.0000 0.892(11) 1.28(15) Uani 1 3 d S . .
O6 O 0.0000 0.0000 0.459(3) 1.37(13) Uani 1 3 d S . .
O7 O 0.4339(3) 0.4670(2) 0.3069(4) 0.0628(11) Uani 1 1 d . . .
O8 O 0.3633(2) 0.5970(2) 0.5005(3) 0.0473(8) Uani 1 1 d . . .
loop_
_atom_site_aniso_label
_atom_site_aniso_U_11
_atom_site_aniso_U_22
_atom_site_aniso_U_33
_atom_site_aniso_U_23
_atom_site_aniso_U_13
_atom_site_aniso_U_12
C1 0.122(11) 0.071(6) 0.268(19) 0.016(9) -0.050(11) 0.053(8)
C2 0.080(8) 0.113(10) 0.28(2) 0.104(13) 0.020(11) 0.040(7)
C3 0.128(10) 0.194(13) 0.145(11) 0.100(10) 0.083(9) 0.100(10)
C4 0.102(6) 0.128(7) 0.073(5) 0.029(5) 0.030(4) 0.069(6)
C5 0.078(4) 0.059(4) 0.067(4) 0.023(3) 0.017(3) 0.043(3)
C6 0.102(6) 0.069(5) 0.135(8) -0.004(5) -0.017(6) 0.055(5)
C7 0.080(4) 0.067(4) 0.076(4) 0.022(3) 0.017(3) 0.052(3)
C8 0.039(2) 0.045(3) 0.047(3) -0.007(2) -0.008(2) 0.021(2)
C9 0.043(3) 0.047(3) 0.040(3) 0.005(2) 0.003(2) 0.028(2)
C10 0.054(3) 0.051(3) 0.044(3) 0.003(2) 0.005(2) 0.032(2)
C11 0.079(4) 0.058(3) 0.062(4) 0.003(3) 0.009(3) 0.046(3)
C12 0.093(5) 0.063(4) 0.065(4) 0.022(3) 0.012(3) 0.049(4)
C13 0.105(5) 0.089(5) 0.048(3) 0.022(3) 0.017(3) 0.066(4)
C14 0.077(4) 0.067(4) 0.045(3) 0.006(3) 0.008(3) 0.048(3)
C15 0.096(5) 0.066(4) 0.052(3) 0.001(3) 0.017(3) 0.054(4)
C16 0.071(4) 0.063(3) 0.050(3) -0.004(3) 0.007(3) 0.047(3)
C17 0.075(4) 0.099(5) 0.049(3) -0.001(3) -0.001(3) 0.066(4)
C18 0.057(3) 0.085(4) 0.060(4) -0.005(3) 0.002(3) 0.045(3)
C19 0.066(5) 0.184(10) 0.092(6) 0.025(6) 0.019(4) 0.075(6)
C20 0.124(12) 0.076(9) 0.87(7) 0.03(2) 0.03(2) 0.024(8)
Cl1 0.257(8) 0.311(10) 0.74(2) -0.025(12) 0.141(12) 0.065(7)
Cl2 1.47(8) 1.13(6) 0.334(17) 0.02(3) -0.27(3) 0.43(6)
Cl3 0.343(11) 0.290(10) 0.82(3) 0.192(14) -0.035(14) 0.101(9)
Er1 0.03947(18) 0.03947(18) 0.0384(2) 0.000 0.000 0.01974(9)
N1 0.059(3) 0.059(3) 0.063(3) -0.003(2) -0.015(2) 0.032(2)
N2 0.070(3) 0.060(3) 0.061(3) 0.017(2) 0.024(2) 0.046(3)
O1 0.056(2) 0.058(2) 0.053(2) -0.0081(17) -0.0066(17) 0.0265(19)
O2 0.054(2) 0.070(3) 0.062(3) -0.009(2) -0.0096(18) 0.036(2)
O3 0.090(4) 0.135(5) 0.106(4) -0.046(4) -0.058(3) 0.070(4)
O4 0.36(2) 0.36(2) 0.115(14) 0.000 0.000 0.181(10)
O5 1.34(18) 1.34(18) 1.2(4) 0.000 0.000 0.67(9)
O6 2.0(2) 2.0(2) 0.11(4) 0.000 0.000 1.00(10)
O7 0.096(3) 0.057(2) 0.052(2) 0.0087(18) 0.024(2) 0.050(2)
O8 0.054(2) 0.0492(19) 0.048(2) -0.0017(15) 0.0047(16) 0.0329(17)
_geom_special_details            
;
All esds (except the esd in the dihedral angle between two l.s. planes)
are estimated using the full covariance matrix. The cell esds are taken
into account individually in the estimation of esds in distances, angles
and torsion angles; correlations between esds in cell parameters are only
used when they are defined by crystal symmetry. An approximate (isotropic)
treatment of cell esds is used for estimating esds involving l.s. planes.
;
loop_
_geom_bond_atom_site_label_1
_geom_bond_atom_site_label_2
_geom_bond_distance
_geom_bond_site_symmetry_2
_geom_bond_publ_flag
C1 C2 1.34(2) . ?
C1 C6 1.392(16) . ?
C1 H1 0.9300 . ?
C2 C3 1.36(2) . ?
C2 H2 0.9300 . ?
C3 C4 1.352(14) . ?
C3 H3 0.9300 . ?
C4 C5 1.369(9) . ?
C4 H4 0.9300 . ?
C5 C6 1.349(10) . ?
C5 C7 1.515(9) . ?
C6 H6 0.9300 . ?
C7 N2 1.468(7) . ?
C7 H7A 0.9700 . ?
C7 H7B 0.9700 . ?
C8 O8 1.258(6) . ?
C8 N2 1.305(7) . ?
C8 C9 1.487(7) . ?
C9 C14 1.380(7) . ?
C9 C10 1.425(7) . ?
C10 O7 1.354(6) . ?
C10 C11 1.390(7) . ?
C11 C12 1.366(8) . ?
C11 H11 0.9300 . ?
C12 C13 1.369(9) . ?
C12 H12 0.9300 . ?
C13 C14 1.382(8) . ?
C13 H13 0.9300 . ?
C14 H14 0.9300 . ?
C15 O7 1.442(6) . ?
C15 C16 1.513(8) . ?
C15 H15A 0.9700 . ?
C15 H15B 0.9700 . ?
C16 C17 1.371(8) . ?
C16 C18 1.392(8) . ?
C17 C18 1.381(9) 4_665 ?
C17 H17 0.9300 . ?
C18 C17 1.381(9) 4_665 ?
C18 C19 1.508(9) . ?
C19 H19A 0.9600 . ?
C19 H19B 0.9600 . ?
C19 H19C 0.9600 . ?
C20 Cl3 1.809(15) . ?
C20 Cl2 1.818(17) . ?
C20 Cl1 1.869(15) . ?
C20 H20 0.9800 . ?
Er1 O8 2.279(3) . ?
Er1 O8 2.279(3) 3_565 ?
Er1 O8 2.279(3) 2_665 ?
Er1 O1 2.449(4) 2_665 ?
Er1 O1 2.449(4) 3_565 ?
Er1 O1 2.449(4) . ?
Er1 O2 2.459(4) 2_665 ?
Er1 O2 2.459(4) 3_565 ?
Er1 O2 2.459(4) . ?
Er1 N1 2.888(5) 2_665 ?
Er1 N1 2.888(5) 3_565 ?
N1 O3 1.219(6) . ?
N1 O2 1.259(6) . ?
N1 O1 1.273(6) . ?
N2 H2A 0.8600 . ?
O6 O6 0.91(7) 4_556 ?
loop_
_geom_angle_atom_site_label_1
_geom_angle_atom_site_label_2
_geom_angle_atom_site_label_3
_geom_angle
_geom_angle_site_symmetry_1
_geom_angle_site_symmetry_3
_geom_angle_publ_flag
C2 C1 C6 119.0(15) . . ?
C2 C1 H1 120.5 . . ?
C6 C1 H1 120.5 . . ?
C1 C2 C3 122.2(14) . . ?
C1 C2 H2 118.9 . . ?
C3 C2 H2 118.9 . . ?
C4 C3 C2 118.1(13) . . ?
C4 C3 H3 121.0 . . ?
C2 C3 H3 121.0 . . ?
C3 C4 C5 121.8(11) . . ?
C3 C4 H4 119.1 . . ?
C5 C4 H4 119.1 . . ?
C6 C5 C4 118.9(8) . . ?
C6 C5 C7 120.8(7) . . ?
C4 C5 C7 120.3(7) . . ?
C5 C6 C1 120.0(11) . . ?
C5 C6 H6 120.0 . . ?
C1 C6 H6 120.0 . . ?
N2 C7 C5 110.4(5) . . ?
N2 C7 H7A 109.6 . . ?
C5 C7 H7A 109.6 . . ?
N2 C7 H7B 109.6 . . ?
C5 C7 H7B 109.6 . . ?
H7A C7 H7B 108.1 . . ?
O8 C8 N2 121.4(5) . . ?
O8 C8 C9 119.1(5) . . ?
N2 C8 C9 119.5(4) . . ?
C14 C9 C10 117.8(5) . . ?
C14 C9 C8 118.1(4) . . ?
C10 C9 C8 124.0(4) . . ?
O7 C10 C11 123.5(5) . . ?
O7 C10 C9 117.0(4) . . ?
C11 C10 C9 119.5(5) . . ?
C12 C11 C10 120.5(5) . . ?
C12 C11 H11 119.8 . . ?
C10 C11 H11 119.8 . . ?
C11 C12 C13 120.8(6) . . ?
C11 C12 H12 119.6 . . ?
C13 C12 H12 119.6 . . ?
C12 C13 C14 119.7(6) . . ?
C12 C13 H13 120.1 . . ?
C14 C13 H13 120.1 . . ?
C9 C14 C13 121.7(5) . . ?
C9 C14 H14 119.2 . . ?
C13 C14 H14 119.2 . . ?
O7 C15 C16 105.8(4) . . ?
O7 C15 H15A 110.6 . . ?
C16 C15 H15A 110.6 . . ?
O7 C15 H15B 110.6 . . ?
C16 C15 H15B 110.6 . . ?
H15A C15 H15B 108.7 . . ?
C17 C16 C18 119.6(6) . . ?
C17 C16 C15 119.1(6) . . ?
C18 C16 C15 121.3(6) . . ?
C16 C17 C18 123.0(6) . 4_665 ?
C16 C17 H17 118.5 . . ?
C18 C17 H17 118.5 4_665 . ?
C17 C18 C16 117.4(5) 4_665 . ?
C17 C18 C19 119.9(6) 4_665 . ?
C16 C18 C19 122.7(6) . . ?
C18 C19 H19A 109.5 . . ?
C18 C19 H19B 109.5 . . ?
H19A C19 H19B 109.5 . . ?
C18 C19 H19C 109.5 . . ?
H19A C19 H19C 109.5 . . ?
H19B C19 H19C 109.5 . . ?
Cl3 C20 Cl2 88.6(11) . . ?
Cl3 C20 Cl1 87.3(9) . . ?
Cl2 C20 Cl1 85.8(11) . . ?
Cl3 C20 H20 127.2 . . ?
Cl2 C20 H20 127.2 . . ?
Cl1 C20 H20 127.2 . . ?
O8 Er1 O8 84.01(13) . 3_565 ?
O8 Er1 O8 84.01(13) . 2_665 ?
O8 Er1 O8 84.01(13) 3_565 2_665 ?
O8 Er1 O1 153.93(13) . 2_665 ?
O8 Er1 O1 89.54(13) 3_565 2_665 ?
O8 Er1 O1 120.48(13) 2_665 2_665 ?
O8 Er1 O1 89.54(13) . 3_565 ?
O8 Er1 O1 120.48(13) 3_565 3_565 ?
O8 Er1 O1 153.93(13) 2_665 3_565 ?
O1 Er1 O1 72.06(14) 2_665 3_565 ?
O8 Er1 O1 120.48(13) . . ?
O8 Er1 O1 153.93(13) 3_565 . ?
O8 Er1 O1 89.54(13) 2_665 . ?
O1 Er1 O1 72.06(15) 2_665 . ?
O1 Er1 O1 72.06(14) 3_565 . ?
O8 Er1 O2 150.45(13) . 2_665 ?
O8 Er1 O2 81.44(13) 3_565 2_665 ?
O8 Er1 O2 69.03(13) 2_665 2_665 ?
O1 Er1 O2 51.53(13) 2_665 2_665 ?
O1 Er1 O2 119.99(13) 3_565 2_665 ?
O1 Er1 O2 72.67(14) . 2_665 ?
O8 Er1 O2 81.44(13) . 3_565 ?
O8 Er1 O2 69.03(13) 3_565 3_565 ?
O8 Er1 O2 150.45(14) 2_665 3_565 ?
O1 Er1 O2 72.68(14) 2_665 3_565 ?
O1 Er1 O2 51.53(13) 3_565 3_565 ?
O1 Er1 O2 119.99(13) . 3_565 ?
O2 Er1 O2 116.45(6) 2_665 3_565 ?
O8 Er1 O2 69.03(13) . . ?
O8 Er1 O2 150.45(13) 3_565 . ?
O8 Er1 O2 81.44(13) 2_665 . ?
O1 Er1 O2 119.99(13) 2_665 . ?
O1 Er1 O2 72.68(14) 3_565 . ?
O1 Er1 O2 51.53(13) . . ?
O2 Er1 O2 116.45(6) 2_665 . ?
O2 Er1 O2 116.45(6) 3_565 . ?
O8 Er1 N1 170.45(13) . 2_665 ?
O8 Er1 N1 86.45(14) 3_565 2_665 ?
O8 Er1 N1 94.53(14) 2_665 2_665 ?
O1 Er1 N1 25.96(13) 2_665 2_665 ?
O1 Er1 N1 95.73(14) 3_565 2_665 ?
O1 Er1 N1 68.86(14) . 2_665 ?
O2 Er1 N1 25.65(13) 2_665 2_665 ?
O2 Er1 N1 95.60(14) 3_565 2_665 ?
O2 Er1 N1 120.16(14) . 2_665 ?
O8 Er1 N1 86.45(14) . 3_565 ?
O8 Er1 N1 94.53(14) 3_565 3_565 ?
O8 Er1 N1 170.45(13) 2_665 3_565 ?
O1 Er1 N1 68.86(14) 2_665 3_565 ?
O1 Er1 N1 25.96(13) 3_565 3_565 ?
O1 Er1 N1 95.73(14) . 3_565 ?
O2 Er1 N1 120.16(14) 2_665 3_565 ?
O2 Er1 N1 25.65(13) 3_565 3_565 ?
O2 Er1 N1 95.60(14) . 3_565 ?
N1 Er1 N1 94.81(15) 2_665 3_565 ?
O3 N1 O2 122.5(5) . . ?
O3 N1 O1 122.7(5) . . ?
O2 N1 O1 114.8(4) . . ?
C8 N2 C7 125.2(5) . . ?
C8 N2 H2A 117.4 . . ?
C7 N2 H2A 117.4 . . ?
N1 O1 Er1 96.7(3) . . ?
N1 O2 Er1 96.6(3) . . ?
C10 O7 C15 119.7(4) . . ?
C8 O8 Er1 164.2(3) . . ?
loop_
_geom_torsion_atom_site_label_1
_geom_torsion_atom_site_label_2
_geom_torsion_atom_site_label_3
_geom_torsion_atom_site_label_4
_geom_torsion
_geom_torsion_site_symmetry_1
_geom_torsion_site_symmetry_2
_geom_torsion_site_symmetry_3
_geom_torsion_site_symmetry_4
_geom_torsion_publ_flag
C6 C1 C2 C3 0(2) . . . . ?
C1 C2 C3 C4 2(2) . . . . ?
C2 C3 C4 C5 -2.5(16) . . . . ?
C3 C4 C5 C6 1.0(12) . . . . ?
C3 C4 C5 C7 -179.4(8) . . . . ?
C4 C5 C6 C1 0.9(11) . . . . ?
C7 C5 C6 C1 -178.6(7) . . . . ?
C2 C1 C6 C5 -1.4(16) . . . . ?
C6 C5 C7 N2 -95.9(7) . . . . ?
C4 C5 C7 N2 84.5(8) . . . . ?
O8 C8 C9 C14 -15.4(7) . . . . ?
N2 C8 C9 C14 166.5(5) . . . . ?
O8 C8 C9 C10 161.4(5) . . . . ?
N2 C8 C9 C10 -16.8(8) . . . . ?
C14 C9 C10 O7 -177.9(5) . . . . ?
C8 C9 C10 O7 5.4(8) . . . . ?
C14 C9 C10 C11 1.2(8) . . . . ?
C8 C9 C10 C11 -175.6(5) . . . . ?
O7 C10 C11 C12 179.2(6) . . . . ?
C9 C10 C11 C12 0.2(9) . . . . ?
C10 C11 C12 C13 -1.8(11) . . . . ?
C11 C12 C13 C14 2.1(11) . . . . ?
C1