####################################################################### 
# 
# This file contains crystal structure data downloaded from the 
# Cambridge Structural Database (CSD) hosted by the Cambridge 
# Crystallographic Data Centre (CCDC).
# 
# Full information about CCDC data access policies and citation 
# guidelines are available at http://www.ccdc.cam.ac.uk/access/V1 
# 
# Audit and citation data items may have been added by the CCDC. 
# Please retain this information to preserve the provenance of 
# this file and to allow appropriate attribution of the data. 
# 
#######################################################################

data_p-3
_audit_block_doi                 10.5517/ccnmrxx
_database_code_depnum_ccdc_archive 'CCDC 614820'
loop_
_citation_id
_citation_doi
_citation_year
1 10.1002/ejic.201000664 2010
_audit_update_record             
;
2006-07-13 deposited with the CCDC.	2024-07-10 downloaded from the CCDC.
;
_audit_creation_method           SHELXL-97
_chemical_name_systematic        
;
?
;
_chemical_name_common            ?
_chemical_melting_point          ?
_chemical_formula_moiety         ?
_chemical_formula_sum            'C120 H122 Cl18 Eu2 N6 O22'
_chemical_formula_weight         2942.26
loop_
_atom_type_symbol
_atom_type_description
_atom_type_scat_dispersion_real
_atom_type_scat_dispersion_imag
_atom_type_scat_source
C C 0.0033 0.0016 'International Tables Vol C Tables 4.2.6.8 and 6.1.1.4'
H H 0.0000 0.0000 'International Tables Vol C Tables 4.2.6.8 and 6.1.1.4'
N N 0.0061 0.0033 'International Tables Vol C Tables 4.2.6.8 and 6.1.1.4'
O O 0.0106 0.0060 'International Tables Vol C Tables 4.2.6.8 and 6.1.1.4'
Cl Cl 0.1484 0.1585 'International Tables Vol C Tables 4.2.6.8 and 6.1.1.4'
Eu Eu -0.1578 3.6682 'International Tables Vol C Tables 4.2.6.8 and 6.1.1.4'
_symmetry_cell_setting           Trigonal
_symmetry_space_group_name_H-M   P-3
loop_
_symmetry_equiv_pos_as_xyz
'x, y, z'
'-y, x-y, z'
'-x+y, -x, z'
'-x, -y, -z'
'y, -x+y, -z'
'x-y, x, -z'
_cell_length_a                   19.9067(7)
_cell_length_b                   19.9067(7)
_cell_length_c                   11.0186(4)
_cell_angle_alpha                90.00
_cell_angle_beta                 90.00
_cell_angle_gamma                120.00
_cell_volume                     3781.4(2)
_cell_formula_units_Z            1
_cell_measurement_temperature    294(2)
_cell_measurement_reflns_used    7075
_cell_measurement_theta_min      2.19
_cell_measurement_theta_max      22.61
_exptl_crystal_description       block
_exptl_crystal_colour            colorless
_exptl_crystal_size_max          0.55
_exptl_crystal_size_mid          0.47
_exptl_crystal_size_min          0.15
_exptl_crystal_density_meas      0
_exptl_crystal_density_diffrn    1.292
_exptl_crystal_density_method    'not measured'
_exptl_crystal_F_000             1492
_exptl_absorpt_coefficient_mu    1.198
_exptl_absorpt_correction_type   none
_exptl_absorpt_correction_T_min  ?
_exptl_absorpt_correction_T_max  ?
_exptl_absorpt_process_details   ?
_exptl_special_details           
;
?
;
_diffrn_ambient_temperature      294(2)
_diffrn_radiation_wavelength     0.71073
_diffrn_radiation_type           MoK\a
_diffrn_radiation_source         'fine-focus sealed tube'
_diffrn_radiation_monochromator  graphite
_diffrn_measurement_device_type  'CCD area detector'
_diffrn_measurement_method       'phi and omega scans'
_diffrn_detector_area_resol_mean ?
_diffrn_standards_number         ?
_diffrn_standards_interval_count ?
_diffrn_standards_interval_time  ?
_diffrn_standards_decay_%        ?
_diffrn_reflns_number            22995
_diffrn_reflns_av_R_equivalents  0.1168
_diffrn_reflns_av_sigmaI/netI    0.0700
_diffrn_reflns_limit_h_min       -25
_diffrn_reflns_limit_h_max       24
_diffrn_reflns_limit_k_min       -25
_diffrn_reflns_limit_k_max       20
_diffrn_reflns_limit_l_min       -14
_diffrn_reflns_limit_l_max       13
_diffrn_reflns_theta_min         1.85
_diffrn_reflns_theta_max         27.00
_reflns_number_total             5497
_reflns_number_gt                4484
_reflns_threshold_expression     >2sigma(I)
_computing_data_collection       'Bruker SMART'
_computing_cell_refinement       'Bruker SMART'
_computing_data_reduction        'Bruker SAINT'
_computing_structure_solution    'SHELXS-97 (Sheldrick, 1990)'
_computing_structure_refinement  'SHELXL-97 (Sheldrick, 1997)'
_computing_molecular_graphics    'Bruker SHELXTL'
_computing_publication_material  'Bruker SHELXTL'
_refine_special_details          
;
Refinement of F^2^ against ALL reflections. The weighted R-factor wR and
goodness of fit S are based on F^2^, conventional R-factors R are based
on F, with F set to zero for negative F^2^. The threshold expression of
F^2^ > 2sigma(F^2^) is used only for calculating R-factors(gt) etc. and is
not relevant to the choice of reflections for refinement. R-factors based
on F^2^ are statistically about twice as large as those based on F, and R-
factors based on ALL data will be even larger.
;
_refine_ls_structure_factor_coef Fsqd
_refine_ls_matrix_type           full
_refine_ls_weighting_scheme      calc
_refine_ls_weighting_details     
'calc w=1/[\s^2^(Fo^2^)+(0.1062P)^2^+0.0000P] where P=(Fo^2^+2Fc^2^)/3'
_atom_sites_solution_primary     direct
_atom_sites_solution_secondary   difmap
_atom_sites_solution_hydrogens   geom
_refine_ls_hydrogen_treatment    mixed
_refine_ls_extinction_method     SHELXL
_refine_ls_extinction_coef       0.0000(6)
_refine_ls_extinction_expression Fc^*^=kFc[1+0.001xFc^2^\l^3^/sin(2\q)]^-1/4^
_refine_ls_number_reflns         5497
_refine_ls_number_parameters     282
_refine_ls_number_restraints     0
_refine_ls_R_factor_all          0.0651
_refine_ls_R_factor_gt           0.0543
_refine_ls_wR_factor_ref         0.1606
_refine_ls_wR_factor_gt          0.1513
_refine_ls_goodness_of_fit_ref   0.993
_refine_ls_restrained_S_all      0.993
_refine_ls_shift/su_max          1.437
_refine_ls_shift/su_mean         0.005
loop_
_atom_site_label
_atom_site_type_symbol
_atom_site_fract_x
_atom_site_fract_y
_atom_site_fract_z
_atom_site_U_iso_or_equiv
_atom_site_adp_type
_atom_site_occupancy
_atom_site_symmetry_multiplicity
_atom_site_calc_flag
_atom_site_refinement_flags
_atom_site_disorder_assembly
_atom_site_disorder_group
Eu1 Eu 0.3333 0.6667 0.63459(3) 0.03855(16) Uani 1 3 d S . .
C1 C 0.5618(4) 0.7143(5) 0.1528(6) 0.101(2) Uani 1 1 d . . .
H1 H 0.5306 0.6742 0.1000 0.122 Uiso 1 1 calc R . .
C2 C 0.6367(7) 0.7612(9) 0.1234(11) 0.155(5) Uani 1 1 d . . .
H2 H 0.6586 0.7534 0.0541 0.186 Uiso 1 1 calc R . .
C3 C 0.6794(6) 0.8221(8) 0.2030(16) 0.158(6) Uani 1 1 d . . .
H3 H 0.7308 0.8572 0.1842 0.190 Uiso 1 1 calc R . .
C4 C 0.6496(7) 0.8327(6) 0.3065(16) 0.161(5) Uani 1 1 d . . .
H4 H 0.6799 0.8740 0.3579 0.193 Uiso 1 1 calc R . .
C5 C 0.5728(5) 0.7806(4) 0.3345(8) 0.103(2) Uani 1 1 d . . .
H5 H 0.5516 0.7858 0.4066 0.123 Uiso 1 1 calc R . .
C6 C 0.5292(3) 0.7230(3) 0.2581(5) 0.0635(12) Uani 1 1 d . . .
C7 C 0.4453(3) 0.6673(3) 0.2856(5) 0.0712(14) Uani 1 1 d . . .
H7A H 0.4254 0.6918 0.3397 0.085 Uiso 1 1 calc R . .
H7B H 0.4154 0.6539 0.2111 0.085 Uiso 1 1 calc R . .
C8 C 0.3982(2) 0.5663(2) 0.4429(4) 0.0430(9) Uani 1 1 d . . .
C9 C 0.3908(2) 0.4928(2) 0.4881(4) 0.0434(9) Uani 1 1 d . . .
C10 C 0.3646(3) 0.4711(3) 0.6065(4) 0.0590(11) Uani 1 1 d . . .
H10 H 0.3558 0.5043 0.6546 0.071 Uiso 1 1 calc R . .
C11 C 0.3515(4) 0.4014(3) 0.6544(5) 0.0739(15) Uani 1 1 d . . .
H11 H 0.3339 0.3879 0.7337 0.089 Uiso 1 1 calc R . .
C12 C 0.3646(3) 0.3523(3) 0.5836(5) 0.0706(14) Uani 1 1 d . . .
H12 H 0.3537 0.3043 0.6142 0.085 Uiso 1 1 calc R . .
C13 C 0.3936(3) 0.3732(3) 0.4680(4) 0.0609(12) Uani 1 1 d . . .
H13 H 0.4046 0.3405 0.4226 0.073 Uiso 1 1 calc R . .
C14 C 0.4063(2) 0.4421(2) 0.4192(4) 0.0479(9) Uani 1 1 d . . .
C15 C 0.4406(3) 0.4132(3) 0.2239(4) 0.0657(13) Uani 1 1 d . . .
H15A H 0.3903 0.3673 0.2126 0.079 Uiso 1 1 calc R . .
H15B H 0.4764 0.3977 0.2549 0.079 Uiso 1 1 calc R . .
C16 C 0.4703(3) 0.4575(3) 0.1050(4) 0.0566(11) Uani 1 1 d . . .
C17 C 0.5446(3) 0.4825(3) 0.0712(4) 0.0620(12) Uani 1 1 d . . .
H17 H 0.5751 0.4702 0.1201 0.074 Uiso 1 1 calc R . .
C18 C 0.4229(3) 0.4744(3) 0.0333(4) 0.0640(12) Uani 1 1 d . . .
C19 C 0.3400(4) 0.4486(5) 0.0666(7) 0.110(3) Uani 1 1 d . . .
H19A H 0.3185 0.4684 0.0081 0.165 Uiso 1 1 calc R . .
H19B H 0.3385 0.4679 0.1457 0.165 Uiso 1 1 calc R . .
H19C H 0.3102 0.3929 0.0671 0.165 Uiso 1 1 calc R . .
C22 C 0.1294(8) 0.2859(9) 0.718(4) 0.46(3) Uani 1 1 d . . .
H22 H 0.1551 0.3396 0.6890 0.549 Uiso 1 1 calc R . .
Cl1 Cl 0.0391(5) 0.2330(5) 0.8140(14) 0.526(8) Uani 1 1 d . . .
Cl2 Cl 0.0919(17) 0.182(2) 0.6178(16) 1.12(4) Uani 1 1 d . . .
Cl3 Cl 0.1700(5) 0.2368(6) 0.8303(12) 0.478(7) Uani 1 1 d . . .
N1 N 0.4362(2) 0.5967(2) 0.3424(4) 0.0577(10) Uani 1 1 d . . .
H1A H 0.4574 0.5735 0.3070 0.069 Uiso 1 1 calc R . .
N2 N 0.2489(2) 0.5222(2) 0.7737(4) 0.0615(10) Uani 1 1 d . . .
O1 O 0.36551(17) 0.59664(17) 0.4998(3) 0.0483(7) Uani 1 1 d . . .
O2 O 0.4353(2) 0.46658(19) 0.3056(3) 0.0643(9) Uani 1 1 d . . .
O3 O 0.31820(19) 0.57457(18) 0.8015(3) 0.0598(8) Uani 1 1 d . . .
O4 O 0.22149(18) 0.53391(18) 0.6796(3) 0.0623(8) Uani 1 1 d . . .
O5 O 0.2117(3) 0.4645(3) 0.8360(5) 0.1103(17) Uani 1 1 d . . .
O1W O 0.3333 0.6667 0.0398(13) 0.284(11) Uani 1 3 d S . .
O2W O 0.0000 0.0000 0.168(12) 1.32(13) Uani 1 3 d S . .
loop_
_atom_site_aniso_label
_atom_site_aniso_U_11
_atom_site_aniso_U_22
_atom_site_aniso_U_33
_atom_site_aniso_U_23
_atom_site_aniso_U_13
_atom_site_aniso_U_12
Eu1 0.03729(17) 0.03729(17) 0.0411(2) 0.000 0.000 0.01865(9)
C1 0.098(5) 0.148(7) 0.079(4) 0.038(4) 0.030(4) 0.077(5)
C2 0.124(8) 0.200(12) 0.157(9) 0.099(9) 0.071(7) 0.094(9)
C3 0.080(6) 0.112(8) 0.275(18) 0.107(11) 0.018(9) 0.042(6)
C4 0.123(9) 0.075(6) 0.295(17) 0.010(8) -0.050(10) 0.058(6)
C5 0.099(5) 0.075(4) 0.158(7) -0.003(4) -0.021(5) 0.060(4)
C6 0.075(3) 0.053(3) 0.075(3) 0.020(2) 0.014(3) 0.042(3)
C7 0.079(3) 0.072(3) 0.082(3) 0.026(3) 0.022(3) 0.052(3)
C8 0.039(2) 0.042(2) 0.049(2) -0.0015(16) -0.0028(16) 0.0212(17)
C9 0.042(2) 0.049(2) 0.044(2) 0.0032(17) 0.0022(16) 0.0273(18)
C10 0.076(3) 0.070(3) 0.048(2) 0.004(2) 0.008(2) 0.050(3)
C11 0.104(4) 0.087(4) 0.052(3) 0.021(3) 0.018(3) 0.065(4)
C12 0.093(4) 0.062(3) 0.071(3) 0.021(2) 0.010(3) 0.049(3)
C13 0.081(3) 0.056(3) 0.062(3) 0.006(2) 0.009(2) 0.047(3)
C14 0.054(2) 0.051(2) 0.047(2) 0.0011(17) 0.0041(18) 0.032(2)
C15 0.094(4) 0.064(3) 0.058(3) 0.001(2) 0.015(3) 0.054(3)
C16 0.075(3) 0.068(3) 0.048(2) -0.004(2) 0.006(2) 0.052(3)
C17 0.074(3) 0.094(4) 0.045(2) -0.004(2) -0.003(2) 0.061(3)
C18 0.058(3) 0.087(4) 0.064(3) -0.007(3) 0.000(2) 0.049(3)
C19 0.069(4) 0.188(8) 0.093(5) 0.026(5) 0.022(3) 0.080(5)
C22 0.100(10) 0.154(13) 1.12(8) 0.03(3) 0.00(2) 0.066(10)
Cl1 0.247(8) 0.446(13) 0.88(2) -0.238(15) -0.166(11) 0.171(9)
Cl2 1.18(7) 1.97(11) 0.423(18) 0.10(3) 0.16(3) 0.94(7)
Cl3 0.310(9) 0.432(11) 0.76(2) 0.184(13) 0.040(11) 0.237(9)
N1 0.068(2) 0.054(2) 0.066(2) 0.0159(18) 0.0237(19) 0.041(2)
N2 0.061(2) 0.055(2) 0.068(3) 0.0201(19) 0.013(2) 0.028(2)
O1 0.0558(17) 0.0484(16) 0.0502(16) -0.0066(13) 0.0009(13) 0.0333(14)
O2 0.098(3) 0.0611(19) 0.0538(18) 0.0090(15) 0.0250(17) 0.055(2)
O3 0.0606(19) 0.0584(19) 0.0586(18) 0.0088(14) -0.0015(15) 0.0284(17)
O4 0.0525(18) 0.0568(19) 0.067(2) 0.0127(15) 0.0004(15) 0.0193(15)
O5 0.081(3) 0.093(3) 0.125(4) 0.064(3) 0.007(3) 0.020(2)
O1W 0.365(17) 0.365(17) 0.123(12) 0.000 0.000 0.182(9)
O2W 1.3(2) 1.3(2) 1.4(3) 0.000 0.000 0.63(10)
_geom_special_details            
;
All esds (except the esd in the dihedral angle between two l.s. planes)
are estimated using the full covariance matrix. The cell esds are taken
into account individually in the estimation of esds in distances, angles
and torsion angles; correlations between esds in cell parameters are only
used when they are defined by crystal symmetry. An approximate (isotropic)
treatment of cell esds is used for estimating esds involving l.s. planes.
;
loop_
_geom_bond_atom_site_label_1
_geom_bond_atom_site_label_2
_geom_bond_distance
_geom_bond_site_symmetry_2
_geom_bond_publ_flag
Eu1 O1 2.335(3) 3_565 ?
Eu1 O1 2.335(3) 2_665 ?
Eu1 O1 2.335(3) . ?
Eu1 O3 2.506(3) . ?
Eu1 O3 2.506(3) 3_565 ?
Eu1 O3 2.506(3) 2_665 ?
Eu1 O4 2.511(3) 3_565 ?
Eu1 O4 2.511(3) 2_665 ?
Eu1 O4 2.511(3) . ?
Eu1 N2 2.934(4) 2_665 ?
Eu1 N2 2.934(4) . ?
Eu1 N2 2.934(4) 3_565 ?
C1 C2 1.345(12) . ?
C1 C6 1.382(8) . ?
C2 C3 1.389(17) . ?
C3 C4 1.349(17) . ?
C4 C5 1.386(14) . ?
C5 C6 1.334(9) . ?
C6 C7 1.504(7) . ?
C7 N1 1.464(6) . ?
C8 O1 1.255(5) . ?
C8 N1 1.306(5) . ?
C8 C9 1.481(6) . ?
C9 C10 1.391(6) . ?
C9 C14 1.415(6) . ?
C10 C11 1.380(7) . ?
C11 C12 1.375(7) . ?
C12 C13 1.374(7) . ?
C13 C14 1.374(6) . ?
C14 O2 1.362(5) . ?
C15 O2 1.436(5) . ?
C15 C16 1.524(7) . ?
C16 C17 1.357(7) . ?
C16 C18 1.393(7) . ?
C17 C18 1.388(7) 4_665 ?
C18 C17 1.388(7) 4_665 ?
C18 C19 1.508(7) . ?
C22 Cl1 1.89(3) . ?
C22 Cl2 2.12(3) . ?
C22 Cl3 1.98(3) . ?
N2 O5 1.220(5) . ?
N2 O4 1.247(5) . ?
N2 O3 1.282(5) . ?
loop_
_geom_angle_atom_site_label_1
_geom_angle_atom_site_label_2
_geom_angle_atom_site_label_3
_geom_angle
_geom_angle_site_symmetry_1
_geom_angle_site_symmetry_3
_geom_angle_publ_flag
O1 Eu1 O1 83.88(10) 3_565 2_665 ?
O1 Eu1 O1 83.88(10) 3_565 . ?
O1 Eu1 O1 83.88(10) 2_665 . ?
O1 Eu1 O3 119.76(10) 3_565 . ?
O1 Eu1 O3 154.84(11) 2_665 . ?
O1 Eu1 O3 89.90(11) . . ?
O1 Eu1 O3 89.90(11) 3_565 3_565 ?
O1 Eu1 O3 119.76(10) 2_665 3_565 ?
O1 Eu1 O3 154.84(11) . 3_565 ?
O3 Eu1 O3 72.10(12) . 3_565 ?
O1 Eu1 O3 154.84(11) 3_565 2_665 ?
O1 Eu1 O3 89.90(11) 2_665 2_665 ?
O1 Eu1 O3 119.76(10) . 2_665 ?
O3 Eu1 O3 72.10(12) . 2_665 ?
O3 Eu1 O3 72.10(12) 3_565 2_665 ?
O1 Eu1 O4 81.99(11) 3_565 3_565 ?
O1 Eu1 O4 69.16(10) 2_665 3_565 ?
O1 Eu1 O4 150.66(11) . 3_565 ?
O3 Eu1 O4 119.43(11) . 3_565 ?
O3 Eu1 O4 50.66(11) 3_565 3_565 ?
O3 Eu1 O4 73.02(11) 2_665 3_565 ?
O1 Eu1 O4 150.66(11) 3_565 2_665 ?
O1 Eu1 O4 81.99(11) 2_665 2_665 ?
O1 Eu1 O4 69.16(10) . 2_665 ?
O3 Eu1 O4 73.02(11) . 2_665 ?
O3 Eu1 O4 119.43(11) 3_565 2_665 ?
O3 Eu1 O4 50.66(11) 2_665 2_665 ?
O4 Eu1 O4 116.20(5) 3_565 2_665 ?
O1 Eu1 O4 69.16(10) 3_565 . ?
O1 Eu1 O4 150.66(11) 2_665 . ?
O1 Eu1 O4 81.99(11) . . ?
O3 Eu1 O4 50.66(11) . . ?
O3 Eu1 O4 73.02(11) 3_565 . ?
O3 Eu1 O4 119.43(11) 2_665 . ?
O4 Eu1 O4 116.20(5) 3_565 . ?
O4 Eu1 O4 116.20(5) 2_665 . ?
O1 Eu1 N2 170.42(11) 3_565 2_665 ?
O1 Eu1 N2 86.61(11) 2_665 2_665 ?
O1 Eu1 N2 94.00(11) . 2_665 ?
O3 Eu1 N2 69.48(11) . 2_665 ?
O3 Eu1 N2 95.82(12) 3_565 2_665 ?
O3 Eu1 N2 25.76(11) 2_665 2_665 ?
O4 Eu1 N2 95.68(12) 3_565 2_665 ?
O4 Eu1 N2 24.95(11) 2_665 2_665 ?
O4 Eu1 N2 119.88(11) . 2_665 ?
O1 Eu1 N2 94.00(11) 3_565 . ?
O1 Eu1 N2 170.42(11) 2_665 . ?
O1 Eu1 N2 86.61(11) . . ?
O3 Eu1 N2 25.76(11) . . ?
O3 Eu1 N2 69.48(11) 3_565 . ?
O3 Eu1 N2 95.82(12) 2_665 . ?
O4 Eu1 N2 119.88(11) 3_565 . ?
O4 Eu1 N2 95.68(12) 2_665 . ?
O4 Eu1 N2 24.95(11) . . ?
N2 Eu1 N2 95.20(12) 2_665 . ?
O1 Eu1 N2 86.61(11) 3_565 3_565 ?
O1 Eu1 N2 94.00(11) 2_665 3_565 ?
O1 Eu1 N2 170.42(11) . 3_565 ?
O3 Eu1 N2 95.82(12) . 3_565 ?
O3 Eu1 N2 25.76(11) 3_565 3_565 ?
O3 Eu1 N2 69.48(11) 2_665 3_565 ?
O4 Eu1 N2 24.95(11) 3_565 3_565 ?
O4 Eu1 N2 119.88(11) 2_665 3_565 ?
O4 Eu1 N2 95.68(12) . 3_565 ?
N2 Eu1 N2 95.20(12) 2_665 3_565 ?
N2 Eu1 N2 95.20(12) . 3_565 ?
C2 C1 C6 122.8(10) . . ?
C1 C2 C3 115.8(11) . . ?
C4 C3 C2 123.0(11) . . ?
C3 C4 C5 118.5(12) . . ?
C6 C5 C4 120.2(10) . . ?
C5 C6 C1 119.5(7) . . ?
C5 C6 C7 120.8(6) . . ?
C1 C6 C7 119.7(6) . . ?
N1 C7 C6 110.6(4) . . ?
O1 C8 N1 121.4(4) . . ?
O1 C8 C9 119.2(4) . . ?
N1 C8 C9 119.4(4) . . ?
C10 C9 C14 117.6(4) . . ?
C10 C9 C8 117.3(4) . . ?
C14 C9 C8 125.1(4) . . ?
C9 C10 C11 121.6(4) . . ?
C12 C11 C10 119.3(5) . . ?
C11 C12 C13 120.7(4) . . ?
C12 C13 C14 120.4(4) . . ?
O2 C14 C13 123.4(4) . . ?
O2 C14 C9 116.3(4) . . ?
C13 C14 C9 120.3(4) . . ?
O2 C15 C16 105.2(4) . . ?
C17 C16 C18 120.2(5) . . ?
C17 C16 C15 118.9(5) . . ?
C18 C16 C15 120.9(5) . . ?
C16 C17 C18 122.6(5) . 4_665 ?
C17 C18 C16 117.2(4) 4_665 . ?
C17 C18 C19 120.3(5) 4_665 . ?
C16 C18 C19 122.5(5) . . ?
Cl1 C22 Cl2 88.6(10) . . ?
Cl1 C22 Cl3 83.5(16) . . ?
Cl2 C22 Cl3 83.0(10) . . ?
C8 N1 C7 124.9(4) . . ?
O5 N2 O4 121.8(5) . . ?
O5 N2 O3 122.1(4) . . ?
O4 N2 O3 116.1(4) . . ?
O5 N2 Eu1 175.7(4) . . ?
O4 N2 Eu1 58.2(2) . . ?
O3 N2 Eu1 58.1(2) . . ?
C8 O1 Eu1 165.5(3) . . ?
C14 O2 C15 119.1(3) . . ?
N2 O3 Eu1 96.1(2) . . ?
N2 O4 Eu1 96.9(3) . . ?
_diffrn_measured_fraction_theta_max 1.000
_diffrn_reflns_theta_full        27.00
_diffrn_measured_fraction_theta_full 1.000
_refine_diff_density_max         1.555
_refine_diff_density_min         -0.890
_refine_diff_density_rms         0.112
