####################################################################### 
# 
# This file contains crystal structure data downloaded from the 
# Cambridge Structural Database (CSD) hosted by the Cambridge 
# Crystallographic Data Centre (CCDC).
# 
# Full information about CCDC data access policies and citation 
# guidelines are available at http://www.ccdc.cam.ac.uk/access/V1 
# 
# Audit and citation data items may have been added by the CCDC. 
# Please retain this information to preserve the provenance of 
# this file and to allow appropriate attribution of the data. 
# 
#######################################################################

data_w05122901_0m
_audit_block_doi                 10.5517/ccnmrzz
_database_code_depnum_ccdc_archive 'CCDC 614822'
loop_
_citation_id
_citation_doi
_citation_year
1 10.1002/ejic.201000664 2010
_audit_update_record             
;
2006-07-13 deposited with the CCDC.	2024-07-10 downloaded from the CCDC.
;

_audit_creation_method           SHELXL-97
_chemical_name_systematic        
;
?
;
_chemical_name_common            ?
_chemical_melting_point          ?
_chemical_formula_moiety         ?
_chemical_formula_sum            'C60 H59 Cl9 N6 O16 Tb'
_chemical_formula_weight         1598.08

loop_
_atom_type_symbol
_atom_type_description
_atom_type_scat_dispersion_real
_atom_type_scat_dispersion_imag
_atom_type_scat_source
C C 0.0033 0.0016 'International Tables Vol C Tables 4.2.6.8 and 6.1.1.4'
H H 0.0000 0.0000 'International Tables Vol C Tables 4.2.6.8 and 6.1.1.4'
N N 0.0061 0.0033 'International Tables Vol C Tables 4.2.6.8 and 6.1.1.4'
O O 0.0106 0.0060 'International Tables Vol C Tables 4.2.6.8 and 6.1.1.4'
Cl Cl 0.1484 0.1585 'International Tables Vol C Tables 4.2.6.8 and 6.1.1.4'
Tb Tb -0.1723 4.1537 'International Tables Vol C Tables 4.2.6.8 and 6.1.1.4'

_symmetry_cell_setting           Trigonal
_symmetry_space_group_name_H-M   P-3

loop_
_symmetry_equiv_pos_as_xyz
'x, y, z'
'-y, x-y, z'
'-x+y, -x, z'
'-x, -y, -z'
'y, -x+y, -z'
'x-y, x, -z'

_cell_length_a                   19.9167(2)
_cell_length_b                   19.9167(2)
_cell_length_c                   10.9841(2)
_cell_angle_alpha                90.00
_cell_angle_beta                 90.00
_cell_angle_gamma                120.00
_cell_volume                     3773.37(9)
_cell_formula_units_Z            2
_cell_measurement_temperature    273(2)
_cell_measurement_reflns_used    7647
_cell_measurement_theta_min      2.20
_cell_measurement_theta_max      22.80

_exptl_crystal_description       block
_exptl_crystal_colour            colorless
_exptl_crystal_size_max          0.35
_exptl_crystal_size_mid          0.32
_exptl_crystal_size_min          0.20
_exptl_crystal_density_meas      0
_exptl_crystal_density_diffrn    1.283
_exptl_crystal_density_method    'not measured'
_exptl_crystal_F_000             1492
_exptl_absorpt_coefficient_mu    1.318
_exptl_absorpt_correction_type   none
_exptl_absorpt_correction_T_min  0.6972
_exptl_absorpt_correction_T_max  0.8084
_exptl_absorpt_process_details   ?

_exptl_special_details           
;
?
;

_diffrn_ambient_temperature      273(2)
_diffrn_radiation_wavelength     0.71073
_diffrn_radiation_type           MoK\a
_diffrn_radiation_source         'fine-focus sealed tube'
_diffrn_radiation_monochromator  graphite
_diffrn_measurement_device_type  'CCD area detector'
_diffrn_measurement_method       'phi and omega scans'
_diffrn_detector_area_resol_mean ?
_diffrn_standards_number         ?
_diffrn_standards_interval_count ?
_diffrn_standards_interval_time  ?
_diffrn_standards_decay_%        ?
_diffrn_reflns_number            24124
_diffrn_reflns_av_R_equivalents  0.0315
_diffrn_reflns_av_sigmaI/netI    0.0320
_diffrn_reflns_limit_h_min       -25
_diffrn_reflns_limit_h_max       18
_diffrn_reflns_limit_k_min       -25
_diffrn_reflns_limit_k_max       26
_diffrn_reflns_limit_l_min       -14
_diffrn_reflns_limit_l_max       14
_diffrn_reflns_theta_min         1.85
_diffrn_reflns_theta_max         28.68
_reflns_number_total             6076
_reflns_number_gt                5188
_reflns_threshold_expression     >2sigma(I)

_computing_data_collection       'Bruker SMART'
_computing_cell_refinement       'Bruker SMART'
_computing_data_reduction        'Bruker SAINT'
_computing_structure_solution    'SHELXS-97 (Sheldrick, 1990)'
_computing_structure_refinement  'SHELXL-97 (Sheldrick, 1997)'
_computing_molecular_graphics    'Bruker SHELXTL'
_computing_publication_material  'Bruker SHELXTL'

_refine_special_details          
;
Refinement of F^2^ against ALL reflections. The weighted R-factor wR and
goodness of fit S are based on F^2^, conventional R-factors R are based
on F, with F set to zero for negative F^2^. The threshold expression of
F^2^ > 2sigma(F^2^) is used only for calculating R-factors(gt) etc. and is
not relevant to the choice of reflections for refinement. R-factors based
on F^2^ are statistically about twice as large as those based on F, and R-
factors based on ALL data will be even larger.
;

_refine_ls_structure_factor_coef Fsqd
_refine_ls_matrix_type           full
_refine_ls_weighting_scheme      calc
_refine_ls_weighting_details     
'calc w=1/[\s^2^(Fo^2^)+(0.0904P)^2^+3.5807P] where P=(Fo^2^+2Fc^2^)/3'
_atom_sites_solution_primary     direct
_atom_sites_solution_secondary   difmap
_atom_sites_solution_hydrogens   geom
_refine_ls_hydrogen_treatment    mixed
_refine_ls_extinction_method     none
_refine_ls_extinction_coef       ?
_refine_ls_number_reflns         6076
_refine_ls_number_parameters     278
_refine_ls_number_restraints     0
_refine_ls_R_factor_all          0.0576
_refine_ls_R_factor_gt           0.0474
_refine_ls_wR_factor_ref         0.1393
_refine_ls_wR_factor_gt          0.1306
_refine_ls_goodness_of_fit_ref   0.966
_refine_ls_restrained_S_all      0.966
_refine_ls_shift/su_max          0.001
_refine_ls_shift/su_mean         0.000

loop_
_atom_site_label
_atom_site_type_symbol
_atom_site_fract_x
_atom_site_fract_y
_atom_site_fract_z
_atom_site_U_iso_or_equiv
_atom_site_adp_type
_atom_site_occupancy
_atom_site_symmetry_multiplicity
_atom_site_calc_flag
_atom_site_refinement_flags
_atom_site_disorder_assembly
_atom_site_disorder_group
Tb1 Tb 0.3333 0.6667 -0.13445(2) 0.03701(11) Uani 1 3 d S . .
C1 C 0.2188(4) 0.4268(4) 0.1643(8) 0.102(2) Uani 1 1 d . . .
H1 H 0.2133 0.4479 0.0920 0.123 Uiso 1 1 calc R . .
C2 C 0.1667(5) 0.3492(7) 0.1931(15) 0.159(5) Uani 1 1 d . . .
H2 H 0.1253 0.3184 0.1420 0.191 Uiso 1 1 calc R . .
C3 C 0.1784(7) 0.3204(6) 0.2977(17) 0.163(6) Uani 1 1 d . . .
H3 H 0.1443 0.2688 0.3170 0.196 Uiso 1 1 calc R . .
C4 C 0.2380(8) 0.3634(7) 0.3763(11) 0.153(5) Uani 1 1 d . . .
H4 H 0.2455 0.3418 0.4463 0.184 Uiso 1 1 calc R . .
C5 C 0.2850(5) 0.4382(4) 0.3479(6) 0.097(2) Uani 1 1 d . . .
H5 H 0.3246 0.4694 0.4015 0.117 Uiso 1 1 calc R . .
C6 C 0.2766(3) 0.4705(3) 0.2416(4) 0.0641(12) Uani 1 1 d . . .
C7 C 0.3326(3) 0.5549(3) 0.2151(5) 0.0685(12) Uani 1 1 d . . .
H7A H 0.3080 0.5752 0.1619 0.082 Uiso 1 1 calc R . .
H7B H 0.3462 0.5842 0.2905 0.082 Uiso 1 1 calc R . .
C8 C 0.4338(2) 0.6030(2) 0.0557(3) 0.0418(7) Uani 1 1 d . . .
C9 C 0.5069(2) 0.6096(2) 0.0102(3) 0.0416(7) Uani 1 1 d . . .
C10 C 0.5287(3) 0.6361(3) -0.1085(4) 0.0583(10) Uani 1 1 d . . .
H10 H 0.4955 0.6449 -0.1568 0.070 Uiso 1 1 calc R . .
C11 C 0.5986(3) 0.6496(3) -0.1563(4) 0.0718(13) Uani 1 1 d . . .
H11 H 0.6123 0.6676 -0.2357 0.086 Uiso 1 1 calc R . .
C12 C 0.6476(3) 0.6364(3) -0.0858(5) 0.0688(12) Uani 1 1 d . . .
H12 H 0.6954 0.6472 -0.1170 0.083 Uiso 1 1 calc R . .
C13 C 0.6272(3) 0.6074(3) 0.0304(4) 0.0588(10) Uani 1 1 d . . .
H13 H 0.6601 0.5966 0.0758 0.071 Uiso 1 1 calc R . .
C14 C 0.5574(2) 0.5942(2) 0.0795(3) 0.0462(8) Uani 1 1 d . . .
C15 C 0.5870(3) 0.5605(3) 0.2759(4) 0.0643(12) Uani 1 1 d . . .
H15A H 0.6324 0.6113 0.2877 0.077 Uiso 1 1 calc R . .
H15B H 0.6035 0.5254 0.2450 0.077 Uiso 1 1 calc R . .
C16 C 0.5428(3) 0.5303(3) 0.3943(4) 0.0549(10) Uani 1 1 d . . .
C17 C 0.5254(3) 0.5773(3) 0.4663(4) 0.0621(11) Uani 1 1 d . . .
C18 C 0.5504(5) 0.6600(3) 0.4332(6) 0.108(2) Uani 1 1 d . . .
H18A H 0.5343 0.6825 0.4958 0.162 Uiso 1 1 calc R . .
H18B H 0.5271 0.6610 0.3573 0.162 Uiso 1 1 calc R . .
H18C H 0.6058 0.6891 0.4255 0.162 Uiso 1 1 calc R . .
C19 C 0.5184(3) 0.4556(3) 0.4288(4) 0.0622(11) Uani 1 1 d . . .
H19 H 0.5314 0.4255 0.3803 0.075 Uiso 1 1 calc R . .
N1 N 0.4030(2) 0.5642(2) 0.1568(3) 0.0572(9) Uani 1 1 d . . .
H1A H 0.4261 0.5426 0.1915 0.069 Uiso 1 1 calc R . .
N2 N 0.2744(2) 0.5236(2) -0.2727(3) 0.0598(9) Uani 1 1 d . . .
O1 O 0.40329(15) 0.63569(16) -0.0003(2) 0.0475(6) Uani 1 1 d . . .
O2 O 0.53330(18) 0.5650(2) 0.1932(3) 0.0628(8) Uani 1 1 d . . .
O3 O 0.25718(17) 0.57523(17) -0.3005(3) 0.0581(7) Uani 1 1 d . . .
O4 O 0.31333(18) 0.53536(17) -0.1781(3) 0.0607(7) Uani 1 1 d . . .
O5 O 0.2543(3) 0.4661(3) -0.3357(4) 0.1066(16) Uani 1 1 d . . .
O6W O 0.3333 0.6667 0.4599(15) 0.331(14) Uani 1 3 d S . .
Cl1 Cl 0.206(2) 0.0990(17) 0.1214(14) 1.08(3) Uani 1 1 d . . .
Cl2 Cl 0.2361(6) 0.1690(5) 0.3321(12) 0.496(8) Uani 1 1 d . . .
Cl3 Cl 0.2339(6) 0.0399(5) 0.3129(13) 0.531(8) Uani 1 1 d . . .
C20 C 0.2865(10) 0.1293(9) 0.233(4) 0.39(2) Uani 1 1 d . . .
H20 H 0.3420 0.1558 0.2139 0.464 Uiso 1 1 calc R . .

loop_
_atom_site_aniso_label
_atom_site_aniso_U_11
_atom_site_aniso_U_22
_atom_site_aniso_U_33
_atom_site_aniso_U_23
_atom_site_aniso_U_13
_atom_site_aniso_U_12
Tb1 0.03673(13) 0.03673(13) 0.03755(16) 0.000 0.000 0.01837(6)
C1 0.075(4) 0.105(5) 0.151(6) -0.023(5) -0.008(4) 0.063(4)
C2 0.070(5) 0.126(9) 0.289(16) -0.056(10) 0.009(7) 0.056(6)
C3 0.118(8) 0.088(6) 0.276(18) 0.025(9) 0.111(11) 0.047(6)
C4 0.204(11) 0.128(8) 0.151(9) 0.076(7) 0.103(9) 0.101(8)
C5 0.136(6) 0.100(5) 0.072(3) 0.030(3) 0.037(4) 0.071(4)
C6 0.058(3) 0.077(3) 0.071(3) 0.018(2) 0.023(2) 0.044(2)
C7 0.069(3) 0.080(3) 0.076(3) 0.022(2) 0.024(2) 0.052(3)
C8 0.0441(18) 0.0383(17) 0.0466(18) -0.0035(14) -0.0041(14) 0.0232(15)
C9 0.0488(19) 0.0429(18) 0.0386(16) 0.0011(14) 0.0029(14) 0.0271(16)
C10 0.069(3) 0.076(3) 0.046(2) 0.0097(19) 0.0039(18) 0.048(2)
C11 0.082(3) 0.102(4) 0.052(2) 0.017(2) 0.021(2) 0.061(3)
C12 0.060(3) 0.089(3) 0.071(3) 0.009(2) 0.019(2) 0.048(3)
C13 0.054(2) 0.077(3) 0.059(2) 0.009(2) 0.0051(19) 0.043(2)
C14 0.050(2) 0.051(2) 0.0475(18) 0.0040(15) 0.0022(15) 0.0322(17)
C15 0.064(3) 0.095(3) 0.053(2) 0.013(2) 0.0002(19) 0.055(3)
C16 0.066(3) 0.071(3) 0.0453(19) 0.0035(18) -0.0051(18) 0.048(2)
C17 0.088(3) 0.058(2) 0.055(2) 0.0033(19) -0.003(2) 0.048(2)
C18 0.184(8) 0.068(3) 0.089(4) 0.019(3) 0.024(4) 0.076(5)
C19 0.096(3) 0.071(3) 0.047(2) -0.0018(19) -0.005(2) 0.063(3)
N1 0.0552(19) 0.071(2) 0.062(2) 0.0235(17) 0.0168(16) 0.0438(18)
N2 0.060(2) 0.056(2) 0.064(2) -0.0190(17) -0.0058(17) 0.0300(18)
O1 0.0493(14) 0.0519(14) 0.0506(14) 0.0010(11) -0.0037(11) 0.0321(12)
O2 0.0601(17) 0.098(2) 0.0494(15) 0.0234(15) 0.0081(13) 0.0535(18)
O3 0.0588(17) 0.0570(17) 0.0566(16) -0.0093(13) -0.0095(13) 0.0276(14)
O4 0.0692(19) 0.0563(17) 0.0623(17) -0.0105(14) -0.0121(15) 0.0356(15)
O5 0.130(4) 0.091(3) 0.118(3) -0.063(3) -0.053(3) 0.070(3)
O6W 0.43(2) 0.43(2) 0.127(12) 0.000 0.000 0.216(11)
Cl1 1.71(9) 1.10(6) 0.353(14) 0.12(2) -0.02(3) 0.64(6)
Cl2 0.466(13) 0.332(9) 0.78(2) 0.046(12) 0.181(14) 0.267(10)
Cl3 0.496(15) 0.266(8) 0.82(2) -0.157(12) -0.222(16) 0.181(10)
C20 0.156(13) 0.105(9) 0.90(7) -0.02(2) -0.03(2) 0.062(9)

_geom_special_details            
;
All esds (except the esd in the dihedral angle between two l.s. planes)
are estimated using the full covariance matrix. The cell esds are taken
into account individually in the estimation of esds in distances, angles
and torsion angles; correlations between esds in cell parameters are only
used when they are defined by crystal symmetry. An approximate (isotropic)
treatment of cell esds is used for estimating esds involving l.s. planes.
;

loop_
_geom_bond_atom_site_label_1
_geom_bond_atom_site_label_2
_geom_bond_distance
_geom_bond_site_symmetry_2
_geom_bond_publ_flag
Tb1 O1 2.313(2) 3_565 ?
Tb1 O1 2.313(2) 2_665 ?
Tb1 O1 2.313(2) . ?
Tb1 O4 2.487(3) 3_565 ?
Tb1 O4 2.487(3) . ?
Tb1 O4 2.487(3) 2_665 ?
Tb1 O3 2.486(3) 2_665 ?
Tb1 O3 2.486(3) . ?
Tb1 O3 2.486(3) 3_565 ?
Tb1 N2 2.909(3) 3_565 ?
Tb1 N2 2.909(3) 2_665 ?
C1 C6 1.343(8) . ?
C1 C2 1.400(13) . ?
C2 C3 1.355(16) . ?
C3 C4 1.368(17) . ?
C4 C5 1.340(12) . ?
C5 C6 1.384(7) . ?
C6 C7 1.508(7) . ?
C7 N1 1.468(5) . ?
C8 O1 1.252(4) . ?
C8 N1 1.317(5) . ?
C8 C9 1.481(5) . ?
C9 C10 1.392(5) . ?
C9 C14 1.414(5) . ?
C10 C11 1.381(6) . ?
C11 C12 1.371(7) . ?
C12 C13 1.375(6) . ?
C13 C14 1.389(5) . ?
C14 O2 1.359(5) . ?
C15 O2 1.440(5) . ?
C15 C16 1.516(6) . ?
C16 C19 1.369(6) . ?
C16 C17 1.394(6) . ?
C17 C19 1.395(7) 4_666 ?
C17 C18 1.507(7) . ?
C19 C17 1.395(7) 4_666 ?
N2 O5 1.221(5) . ?
N2 O4 1.247(5) . ?
N2 O3 1.274(5) . ?
Cl1 C20 1.86(3) . ?
Cl2 C20 1.90(3) . ?
Cl2 Cl3 2.558(12) . ?
Cl3 C20 1.78(3) . ?

loop_
_geom_angle_atom_site_label_1
_geom_angle_atom_site_label_2
_geom_angle_atom_site_label_3
_geom_angle
_geom_angle_site_symmetry_1
_geom_angle_site_symmetry_3
_geom_angle_publ_flag
O1 Tb1 O1 83.78(10) 3_565 2_665 ?
O1 Tb1 O1 83.78(10) 3_565 . ?
O1 Tb1 O1 83.78(10) 2_665 . ?
O1 Tb1 O4 69.12(9) 3_565 3_565 ?
O1 Tb1 O4 81.68(10) 2_665 3_565 ?
O1 Tb1 O4 150.38(10) . 3_565 ?
O1 Tb1 O4 81.68(10) 3_565 . ?
O1 Tb1 O4 150.38(10) 2_665 . ?
O1 Tb1 O4 69.12(9) . . ?
O4 Tb1 O4 116.38(5) 3_565 . ?
O1 Tb1 O4 150.38(10) 3_565 2_665 ?
O1 Tb1 O4 69.11(9) 2_665 2_665 ?
O1 Tb1 O4 81.68(10) . 2_665 ?
O4 Tb1 O4 116.38(5) 3_565 2_665 ?
O4 Tb1 O4 116.38(5) . 2_665 ?
O1 Tb1 O3 154.64(10) 3_565 2_665 ?
O1 Tb1 O3 120.00(10) 2_665 2_665 ?
O1 Tb1 O3 89.88(10) . 2_665 ?
O4 Tb1 O3 119.73(10) 3_565 2_665 ?
O4 Tb1 O3 73.13(10) . 2_665 ?
O4 Tb1 O3 50.96(10) 2_665 2_665 ?
O1 Tb1 O3 89.88(10) 3_565 . ?
O1 Tb1 O3 154.64(10) 2_665 . ?
O1 Tb1 O3 120.00(10) . . ?
O4 Tb1 O3 73.13(10) 3_565 . ?
O4 Tb1 O3 50.96(10) . . ?
O4 Tb1 O3 119.73(10) 2_665 . ?
O3 Tb1 O3 72.10(11) 2_665 . ?
O1 Tb1 O3 120.01(10) 3_565 3_565 ?
O1 Tb1 O3 89.88(10) 2_665 3_565 ?
O1 Tb1 O3 154.63(10) . 3_565 ?
O4 Tb1 O3 50.96(10) 3_565 3_565 ?
O4 Tb1 O3 119.73(10) . 3_565 ?
O4 Tb1 O3 73.13(10) 2_665 3_565 ?
O3 Tb1 O3 72.10(11) 2_665 3_565 ?
O3 Tb1 O3 72.10(11) . 3_565 ?
O1 Tb1 N2 94.18(10) 3_565 3_565 ?
O1 Tb1 N2 86.49(10) 2_665 3_565 ?
O1 Tb1 N2 170.22(10) . 3_565 ?
O4 Tb1 N2 25.19(10) 3_565 3_565 ?
O4 Tb1 N2 120.15(10) . 3_565 ?
O4 Tb1 N2 95.79(11) 2_665 3_565 ?
O3 Tb1 N2 95.87(11) 2_665 3_565 ?
O3 Tb1 N2 69.46(10) . 3_565 ?
O3 Tb1 N2 25.82(10) 3_565 3_565 ?
O1 Tb1 N2 170.21(10) 3_565 2_665 ?
O1 Tb1 N2 94.18(10) 2_665 2_665 ?
O1 Tb1 N2 86.48(10) . 2_665 ?
O4 Tb1 N2 120.15(10) 3_565 2_665 ?
O4 Tb1 N2 95.79(11) . 2_665 ?
O4 Tb1 N2 25.19(10) 2_665 2_665 ?
O3 Tb1 N2 25.82(10) 2_665 2_665 ?
O3 Tb1 N2 95.87(11) . 2_665 ?
O3 Tb1 N2 69.46(10) 3_565 2_665 ?
N2 Tb1 N2 95.25(11) 3_565 2_665 ?
C6 C1 C2 119.7(9) . . ?
C3 C2 C1 117.9(11) . . ?
C4 C3 C2 123.4(11) . . ?
C5 C4 C3 117.0(11) . . ?
C4 C5 C6 122.3(9) . . ?
C1 C6 C5 119.7(6) . . ?
C1 C6 C7 121.2(5) . . ?
C5 C6 C7 119.2(6) . . ?
N1 C7 C6 110.6(4) . . ?
O1 C8 N1 121.1(3) . . ?
O1 C8 C9 119.9(3) . . ?
N1 C8 C9 119.0(3) . . ?
C10 C9 C14 117.7(3) . . ?
C10 C9 C8 117.2(3) . . ?
C14 C9 C8 125.0(3) . . ?
C11 C10 C9 121.6(4) . . ?
C12 C11 C10 119.4(4) . . ?
C11 C12 C13 121.1(4) . . ?
C12 C13 C14 119.8(4) . . ?
O2 C14 C13 123.0(3) . . ?
O2 C14 C9 116.7(3) . . ?
C13 C14 C9 120.2(3) . . ?
O2 C15 C16 105.3(3) . . ?
C19 C16 C17 120.1(4) . . ?
C19 C16 C15 119.2(4) . . ?
C17 C16 C15 120.7(4) . . ?
C19 C17 C16 117.4(4) 4_666 . ?
C19 C17 C18 120.0(4) 4_666 . ?
C16 C17 C18 122.6(5) . . ?
C17 C19 C16 122.5(4) 4_666 . ?
C8 N1 C7 125.2(3) . . ?
O5 N2 O4 122.1(4) . . ?
O5 N2 O3 121.8(4) . . ?
O4 N2 O3 116.2(3) . . ?
C8 O1 Tb1 164.8(2) . . ?
C14 O2 C15 119.4(3) . . ?
N2 O3 Tb1 95.9(2) . . ?
N2 O4 Tb1 96.7(2) . . ?
C20 Cl2 Cl3 44.1(8) . . ?
C20 Cl3 Cl2 47.9(9) . . ?
Cl1 C20 Cl3 91.1(11) . . ?
Cl1 C20 Cl2 87.8(12) . . ?
Cl3 C20 Cl2 88.0(15) . . ?

_diffrn_measured_fraction_theta_max 0.935
_diffrn_reflns_theta_full        28.68
_diffrn_measured_fraction_theta_full 0.935
_refine_diff_density_max         1.024
_refine_diff_density_min         -0.843
_refine_diff_density_rms         0.108

