####################################################################### 
# 
# This file contains crystal structure data downloaded from the 
# Cambridge Structural Database (CSD) hosted by the Cambridge 
# Crystallographic Data Centre (CCDC).
# 
# Full information about CCDC data access policies and citation 
# guidelines are available at http://www.ccdc.cam.ac.uk/access/V1 
# 
# Audit and citation data items may have been added by the CCDC. 
# Please retain this information to preserve the provenance of 
# this file and to allow appropriate attribution of the data. 
# 
#######################################################################

data_4
_audit_block_doi                 10.5517/cctq07r
_database_code_depnum_ccdc_archive 'CCDC 765924'
loop_
_citation_id
_citation_doi
_citation_year
1 10.1016/j.inoche.2010.09.012 2010
_audit_update_record             
;
2010-02-10 deposited with the CCDC.	2024-07-10 downloaded from the CCDC.
;
#TrackingRef 'cifall.CIF'


_audit_creation_method           SHELXL-97
_chemical_name_systematic        
;
?
;
_chemical_name_common            ?
_chemical_melting_point          ?
_chemical_formula_moiety         ?
_chemical_formula_sum            'C14 H10 Br2 Cu2 N8 O'
_chemical_formula_weight         593.20

loop_
_atom_type_symbol
_atom_type_description
_atom_type_scat_dispersion_real
_atom_type_scat_dispersion_imag
_atom_type_scat_source
C C 0.0033 0.0016 'International Tables Vol C Tables 4.2.6.8 and 6.1.1.4'
H H 0.0000 0.0000 'International Tables Vol C Tables 4.2.6.8 and 6.1.1.4'
N N 0.0061 0.0033 'International Tables Vol C Tables 4.2.6.8 and 6.1.1.4'
O O 0.0106 0.0060 'International Tables Vol C Tables 4.2.6.8 and 6.1.1.4'
Cu Cu 0.3201 1.2651 'International Tables Vol C Tables 4.2.6.8 and 6.1.1.4'
Br Br -0.2901 2.4595 'International Tables Vol C Tables 4.2.6.8 and 6.1.1.4'

_symmetry_cell_setting           Monoclinic
_symmetry_space_group_name_H-M   C2/c

loop_
_symmetry_equiv_pos_as_xyz
'x, y, z'
'-x, y, -z+1/2'
'x+1/2, y+1/2, z'
'-x+1/2, y+1/2, -z+1/2'
'-x, -y, -z'
'x, -y, z-1/2'
'-x+1/2, -y+1/2, -z'
'x+1/2, -y+1/2, z-1/2'

_cell_length_a                   12.3339(6)
_cell_length_b                   25.1322(12)
_cell_length_c                   7.2905(3)
_cell_angle_alpha                90.00
_cell_angle_beta                 93.907(3)
_cell_angle_gamma                90.00
_cell_volume                     2254.64(18)
_cell_formula_units_Z            4
_cell_measurement_temperature    296(2)
_cell_measurement_reflns_used    5511
_cell_measurement_theta_min      2.9415
_cell_measurement_theta_max      27.455

_exptl_crystal_description       block
_exptl_crystal_colour            brown
_exptl_crystal_size_max          0.4
_exptl_crystal_size_mid          0.32
_exptl_crystal_size_min          0.3
_exptl_crystal_density_meas      ?
_exptl_crystal_density_diffrn    1.748
_exptl_crystal_density_method    'not measured'
_exptl_crystal_F_000             1144
_exptl_absorpt_coefficient_mu    5.449
_exptl_absorpt_correction_type   empirical
_exptl_absorpt_correction_T_min  0.4626
_exptl_absorpt_correction_T_max  0.9946
_exptl_absorpt_process_details   ?

_exptl_special_details           
;
?
;

_diffrn_ambient_temperature      296(2)
_diffrn_radiation_wavelength     0.71073
_diffrn_radiation_type           MoK\a
_diffrn_radiation_source         'fine-focus sealed tube'
_diffrn_radiation_monochromator  graphite
_diffrn_measurement_device_type  'CCD area detector'
_diffrn_measurement_method       'phi and omega scans'
_diffrn_detector_area_resol_mean ?
_diffrn_standards_number         ?
_diffrn_standards_interval_count ?
_diffrn_standards_interval_time  ?
_diffrn_standards_decay_%        ?
_diffrn_reflns_number            15345
_diffrn_reflns_av_R_equivalents  0.0632
_diffrn_reflns_av_sigmaI/netI    0.0483
_diffrn_reflns_limit_h_min       -18
_diffrn_reflns_limit_h_max       17
_diffrn_reflns_limit_k_min       -33
_diffrn_reflns_limit_k_max       37
_diffrn_reflns_limit_l_min       -9
_diffrn_reflns_limit_l_max       11
_diffrn_reflns_theta_min         1.62
_diffrn_reflns_theta_max         33.21
_reflns_number_total             4149
_reflns_number_gt                2362
_reflns_threshold_expression     >2sigma(I)

_computing_data_collection       'Bruker XSCANS'
_computing_cell_refinement       'Bruker XSCANS'
_computing_data_reduction        'Bruker SHELXTL'
_computing_structure_solution    'SHELXS-97 (Sheldrick, 1990)'
_computing_structure_refinement  'SHELXL-97 (Sheldrick, 1997)'
_computing_molecular_graphics    'Bruker SHELXTL'
_computing_publication_material  'Bruker SHELXTL'

_refine_special_details          
;
Refinement of F^2^ against ALL reflections. The weighted R-factor wR and
goodness of fit S are based on F^2^, conventional R-factors R are based
on F, with F set to zero for negative F^2^. The threshold expression of
F^2^ > 2sigma(F^2^) is used only for calculating R-factors(gt) etc. and is
not relevant to the choice of reflections for refinement. R-factors based
on F^2^ are statistically about twice as large as those based on F, and R-
factors based on ALL data will be even larger.
;

_refine_ls_structure_factor_coef Fsqd
_refine_ls_matrix_type           full
_refine_ls_weighting_scheme      calc
_refine_ls_weighting_details     
'calc w=1/[\s^2^(Fo^2^)+(0.0460P)^2^+0.0000P] where P=(Fo^2^+2Fc^2^)/3'
_atom_sites_solution_primary     direct
_atom_sites_solution_secondary   difmap
_atom_sites_solution_hydrogens   geom
_refine_ls_hydrogen_treatment    mixed
_refine_ls_extinction_method     none
_refine_ls_extinction_coef       ?
_refine_ls_number_reflns         4149
_refine_ls_number_parameters     143
_refine_ls_number_restraints     0
_refine_ls_R_factor_all          0.0661
_refine_ls_R_factor_gt           0.0349
_refine_ls_wR_factor_ref         0.0929
_refine_ls_wR_factor_gt          0.0885
_refine_ls_goodness_of_fit_ref   0.937
_refine_ls_restrained_S_all      0.937
_refine_ls_shift/su_max          0.000
_refine_ls_shift/su_mean         0.000

loop_
_atom_site_label
_atom_site_type_symbol
_atom_site_fract_x
_atom_site_fract_y
_atom_site_fract_z
_atom_site_U_iso_or_equiv
_atom_site_adp_type
_atom_site_occupancy
_atom_site_symmetry_multiplicity
_atom_site_calc_flag
_atom_site_refinement_flags
_atom_site_disorder_assembly
_atom_site_disorder_group
Cu Cu -0.05278(3) 0.043345(13) 0.06722(5) 0.06670(13) Uani 1 1 d . . .
Br Br 0.14170(2) 0.031826(10) 0.12860(3) 0.05156(10) Uani 1 1 d . . .
O O -0.5000 0.25801(9) -0.7500 0.0636(7) Uani 1 2 d S . .
N1 N -0.22634(15) 0.15904(7) -0.2186(2) 0.0466(4) Uani 1 1 d . . .
N2 N -0.2045(2) 0.18289(9) -0.0548(3) 0.0800(8) Uani 1 1 d . . .
N3 N -0.1412(2) 0.15171(9) 0.0428(3) 0.0726(7) Uani 1 1 d . . .
N4 N -0.12182(17) 0.10774(8) -0.0517(3) 0.0532(5) Uani 1 1 d . . .
C1 C -0.43447(18) 0.23003(9) -0.6208(3) 0.0488(5) Uani 1 1 d . . .
C2 C -0.3798(2) 0.18474(12) -0.6615(4) 0.0616(7) Uani 1 1 d . . .
H2 H -0.382(2) 0.1719(11) -0.768(4) 0.076(9) Uiso 1 1 d . . .
C3 C -0.3109(2) 0.16070(12) -0.5304(4) 0.0615(7) Uani 1 1 d . . .
H3 H -0.272(2) 0.1306(11) -0.547(4) 0.069(8) Uiso 1 1 d . . .
C4 C -0.29761(17) 0.18322(9) -0.3581(3) 0.0426(5) Uani 1 1 d . . .
C5 C -0.3505(2) 0.22881(10) -0.3174(4) 0.0545(6) Uani 1 1 d . . .
H5 H -0.335(2) 0.2412(10) -0.205(4) 0.060(8) Uiso 1 1 d . . .
C6 C -0.4193(2) 0.25275(10) -0.4505(4) 0.0553(6) Uani 1 1 d . . .
H6 H -0.4497(18) 0.2834(10) -0.423(3) 0.053(7) Uiso 1 1 d . . .
C7 C -0.1735(2) 0.11353(11) -0.2114(4) 0.0585(6) Uani 1 1 d . . .
H7 H -0.171(2) 0.0956(11) -0.313(4) 0.073(9) Uiso 1 1 d . . .

loop_
_atom_site_aniso_label
_atom_site_aniso_U_11
_atom_site_aniso_U_22
_atom_site_aniso_U_33
_atom_site_aniso_U_23
_atom_site_aniso_U_13
_atom_site_aniso_U_12
Cu 0.0826(3) 0.0632(2) 0.0529(2) 0.00278(14) -0.00599(17) 0.01890(16)
Br 0.06008(18) 0.05724(16) 0.03714(13) -0.00016(9) 0.00165(10) -0.00911(11)
O 0.0769(17) 0.0524(14) 0.0569(15) 0.000 -0.0300(13) 0.000
N1 0.0564(12) 0.0436(10) 0.0381(10) -0.0076(8) -0.0083(8) 0.0026(8)
N2 0.119(2) 0.0601(13) 0.0549(14) -0.0217(11) -0.0360(14) 0.0299(14)
N3 0.1039(19) 0.0530(13) 0.0557(13) -0.0133(10) -0.0327(13) 0.0201(12)
N4 0.0671(13) 0.0472(11) 0.0436(11) -0.0025(9) -0.0074(9) 0.0077(9)
C1 0.0446(13) 0.0521(13) 0.0480(13) 0.0022(10) -0.0101(10) -0.0049(10)
C2 0.0700(18) 0.0696(17) 0.0431(14) -0.0146(13) -0.0118(12) 0.0100(14)
C3 0.0657(17) 0.0635(16) 0.0528(15) -0.0174(12) -0.0143(12) 0.0187(14)
C4 0.0428(12) 0.0448(12) 0.0389(11) -0.0035(9) -0.0066(9) 0.0017(9)
C5 0.0675(16) 0.0530(14) 0.0409(12) -0.0121(11) -0.0100(11) 0.0100(12)
C6 0.0621(15) 0.0502(14) 0.0517(14) -0.0077(11) -0.0097(11) 0.0107(12)
C7 0.0772(18) 0.0523(14) 0.0439(14) -0.0102(11) -0.0106(12) 0.0192(13)

_geom_special_details            
;
All esds (except the esd in the dihedral angle between two l.s. planes)
are estimated using the full covariance matrix. The cell esds are taken
into account individually in the estimation of esds in distances, angles
and torsion angles; correlations between esds in cell parameters are only
used when they are defined by crystal symmetry. An approximate (isotropic)
treatment of cell esds is used for estimating esds involving l.s. planes.
;

loop_
_geom_bond_atom_site_label_1
_geom_bond_atom_site_label_2
_geom_bond_distance
_geom_bond_site_symmetry_2
_geom_bond_publ_flag
Cu N4 1.9989(19) . ?
Cu Br 2.4272(5) . ?
Cu Br 2.5565(4) 2 ?
Cu Br 2.5684(4) 5 ?
Cu Cu 2.7525(7) 5 ?
Cu Cu 2.8853(7) 2 ?
Br Cu 2.5565(4) 2 ?
Br Cu 2.5684(4) 5 ?
O C1 1.389(2) 2_453 ?
O C1 1.389(2) . ?
N1 C7 1.316(3) . ?
N1 N2 1.347(3) . ?
N1 C4 1.433(3) . ?
N2 N3 1.286(3) . ?
N3 N4 1.333(3) . ?
N4 C7 1.297(3) . ?
C1 C2 1.366(3) . ?
C1 C6 1.368(3) . ?
C2 C3 1.375(4) . ?
C2 H2 0.84(3) . ?
C3 C4 1.377(3) . ?
C3 H3 0.91(3) . ?
C4 C5 1.361(3) . ?
C5 C6 1.383(4) . ?
C5 H5 0.88(3) . ?
C6 H6 0.88(2) . ?
C7 H7 0.87(3) . ?

loop_
_geom_angle_atom_site_label_1
_geom_angle_atom_site_label_2
_geom_angle_atom_site_label_3
_geom_angle
_geom_angle_site_symmetry_1
_geom_angle_site_symmetry_3
_geom_angle_publ_flag
N4 Cu Br 124.26(6) . . ?
N4 Cu Br 105.83(6) . 2 ?
Br Cu Br 107.669(15) . 2 ?
N4 Cu Br 101.61(6) . 5 ?
Br Cu Br 113.199(14) . 5 ?
Br Cu Br 101.929(15) 2 5 ?
N4 Cu Cu 133.18(6) . 5 ?
Br Cu Cu 59.054(14) . 5 ?
Br Cu Cu 117.42(2) 2 5 ?
Br Cu Cu 54.145(14) 5 5 ?
N4 Cu Cu 123.56(6) . 2 ?
Br Cu Cu 56.746(14) . 2 ?
Br Cu Cu 52.555(13) 2 2 ?
Br Cu Cu 131.462(10) 5 2 ?
Cu Cu Cu 97.718(18) 5 2 ?
Cu Br Cu 70.699(15) . 2 ?
Cu Br Cu 66.801(14) . 5 ?
Cu Br Cu 111.919(14) 2 5 ?
C1 O C1 119.2(3) 2_453 . ?
C7 N1 N2 106.4(2) . . ?
C7 N1 C4 132.5(2) . . ?
N2 N1 C4 121.08(18) . . ?
N3 N2 N1 107.3(2) . . ?
N2 N3 N4 110.0(2) . . ?
C7 N4 N3 106.1(2) . . ?
C7 N4 Cu 130.48(16) . . ?
N3 N4 Cu 122.22(16) . . ?
C2 C1 C6 120.4(2) . . ?
C2 C1 O 123.2(2) . . ?
C6 C1 O 116.2(2) . . ?
C1 C2 C3 120.4(2) . . ?
C1 C2 H2 122(2) . . ?
C3 C2 H2 117(2) . . ?
C2 C3 C4 118.9(2) . . ?
C2 C3 H3 125.4(18) . . ?
C4 C3 H3 115.7(18) . . ?
C5 C4 C3 121.0(2) . . ?
C5 C4 N1 118.8(2) . . ?
C3 C4 N1 120.1(2) . . ?
C4 C5 C6 119.6(2) . . ?
C4 C5 H5 114.6(17) . . ?
C6 C5 H5 125.7(17) . . ?
C1 C6 C5 119.7(2) . . ?
C1 C6 H6 122.1(15) . . ?
C5 C6 H6 118.1(15) . . ?
N4 C7 N1 110.2(2) . . ?
N4 C7 H7 131.5(19) . . ?
N1 C7 H7 117.6(19) . . ?

_diffrn_measured_fraction_theta_max 0.958
_diffrn_reflns_theta_full        25.00
_diffrn_measured_fraction_theta_full 0.998
_refine_diff_density_max         0.623
_refine_diff_density_min         -0.584
_refine_diff_density_rms         0.085
