
#######################################################################
#
#                 Cambridge Crystallographic Data Centre
#                                CCDC
#
#######################################################################
#
# If this CIF has been generated from an entry in the Cambridge
# Structural Database, then it will include bibliographic, chemical,
# crystal, experimental, refinement or atomic coordinate data resulting
# from the CCDC's data processing and validation procedures.
#
#######################################################################

data_CSD_CIF_INDIGO03
_audit_creation_date 1990-01-09
_audit_creation_method CSD-ConQuest-V1
_database_code_CSD INDIGO03
_database_code_depnum_ccdc_archive 'CCDC 1180370'
_chemical_formula_sum 'C16 H10 N2 O2'
_chemical_formula_moiety
;
C16 H10 N2 O2
;
_journal_coden_Cambridge 643
_journal_volume 184
_journal_year 1988
_journal_page_first 269
_journal_name_full 'Z.Krist.Cryst.Mater. '
loop_
_publ_author_name
"P.Susse"
"M.Steins"
"V.Kupcik"
_chemical_name_systematic
;
Indigo
;
_chemical_name_common
;
Teaching Subset: Fundamental Chemistry, Symmetry
;
_cell_volume    580.497
_exptl_crystal_density_diffrn 1.5
_exptl_special_details
;
polymorph A

;
_diffrn_ambient_temperature ?
_diffrn_radiation_probe x-ray
_diffrn_source synchrotron
_diffrn_special_details
;
The study was carried out at room temperature,in the range 283-303K

;
#These two values have been output from a single CSD field.
_refine_ls_R_factor_gt 0.051
_refine_ls_wR_factor_gt 0.051
_symmetry_cell_setting monoclinic
_symmetry_space_group_name_H-M 'P 21/c'
_symmetry_Int_Tables_number 14
loop_
_symmetry_equiv_pos_site_id
_symmetry_equiv_pos_as_xyz
1 x,y,z
2 -x,1/2+y,1/2-z
3 -x,-y,-z
4 x,-1/2-y,-1/2+z
_cell_length_a 9.24
_cell_length_b 5.77
_cell_length_c 12.22
_cell_angle_alpha 90
_cell_angle_beta 117.0
_cell_angle_gamma 90
_cell_formula_units_Z 2
loop_
_atom_type_symbol
_atom_type_radius_bond
C 0.68
H 0.23
N 0.68
O 0.68
loop_
_atom_site_label
_atom_site_type_symbol
_atom_site_fract_x
_atom_site_fract_y
_atom_site_fract_z
C1 C 0.0476(4) 0.0940(5) 0.0207(3)
C2 C 0.0986(4) 0.2128(6) 0.1379(3)
C3 C 0.1955(4) 0.4054(5) 0.1388(3)
C4 C 0.2720(4) 0.5802(6) 0.2235(3)
C5 C 0.3630(4) 0.7413(6) 0.1962(4)
C6 C 0.3732(4) 0.7308(7) 0.0866(4)
C7 C 0.2949(4) 0.5589(6) 0.0005(3)
C8 C 0.2054(4) 0.3947(6) 0.0276(3)
N1 N 0.1207(3) 0.2062(4) -0.0411(3)
O1 O 0.0598(3) 0.1491(4) 0.2178(2)
H1 H 0.261(3) 0.606(6) 0.300(3)
H2 H 0.424(3) 0.865(5) 0.260(3)
H3 H 0.437(6) 0.861(9) 0.066(4)
H4 H 0.301(4) 0.555(6) -0.087(3)
H5 H 0.099(4) 0.159(6) -0.124(3)
C1B C -0.0476(4) -0.0940(5) -0.0207(3)
C2B C -0.0986(4) -0.2128(6) -0.1379(3)
N1B N -0.1207(3) -0.2062(4) 0.0411(3)
C3B C -0.1955(4) -0.4054(5) -0.1388(3)
O1B O -0.0598(3) -0.1491(4) -0.2178(2)
C8B C -0.2054(4) -0.3947(6) -0.0276(3)
H5B H -0.099(4) -0.159(6) 0.124(3)
C4B C -0.2720(4) -0.5802(6) -0.2235(3)
C7B C -0.2949(4) -0.5589(6) -0.0005(3)
C5B C -0.3630(4) -0.7413(6) -0.1962(4)
H1B H -0.261(3) -0.606(6) -0.300(3)
C6B C -0.3732(4) -0.7308(7) -0.0866(4)
H4B H -0.301(4) -0.555(6) 0.087(3)
H2B H -0.424(3) -0.865(5) -0.260(3)
H3B H -0.437(6) -0.861(9) -0.066(4)
#END
