
#######################################################################
#
#                 Cambridge Crystallographic Data Centre
#                                CCDC
#
#######################################################################
#
# If this CIF has been generated from an entry in the Cambridge
# Structural Database, then it will include bibliographic, chemical,
# crystal, experimental, refinement or atomic coordinate data resulting
# from the CCDC's data processing and validation procedures.
#
#######################################################################

data_CSD_CIF_INDMET
_audit_creation_date 1972-07-27
_audit_creation_method CSD-ConQuest-V1
_database_code_CSD INDMET
_database_code_depnum_ccdc_archive 'CCDC 1180373'
_chemical_formula_sum 'C19 H16 Cl1 N1 O4'
_chemical_formula_moiety
;
C19 H16 Cl1 N1 O4
;
_journal_coden_Cambridge 4
_journal_volume 94
_journal_year 1972
_journal_page_first 1340
_journal_name_full 'J.Am.Chem.Soc. '
loop_
_publ_author_name
"T.J.Kistenmacher"
"R.E.Marsh"
_chemical_name_systematic
;
1-(4-Chlorobenzoyl)-5-methoxy-2-methylindole-3-acetic acid
;
_chemical_name_common
;
Indomethacin; Arthrexin; Elmetacin; Indaflex; Indocid; Indocin; Indolar SR; 
Indomed; Indoxen; Metindol; Mikametan; Nu-Indo; Reumacide; Tivorbex; 
DrugBank: DB00328; Teaching Subset: Drug Molecules
;
_cell_volume    865.773
_exptl_crystal_density_diffrn 1.37
_exptl_special_details
;
gamma polymorph
antiinflammatory agent; Indomethacin was investigated in 2020 as a potential 
candidate to target COVID-19 (coronavirus)
;
_diffrn_ambient_temperature ?
_diffrn_special_details
;
The study was carried out at room temperature,in the range 283-303K

;
#These two values have been output from a single CSD field.
_refine_ls_R_factor_gt 0.059
_refine_ls_wR_factor_gt 0.059
_symmetry_cell_setting triclinic
_symmetry_space_group_name_H-M 'P -1'
_symmetry_Int_Tables_number 2
loop_
_symmetry_equiv_pos_site_id
_symmetry_equiv_pos_as_xyz
1 x,y,z
2 -x,-y,-z
_cell_length_a 9.295(2)
_cell_length_b 10.969(1)
_cell_length_c 9.742(1)
_cell_angle_alpha 69.38(1)
_cell_angle_beta 110.79(1)
_cell_angle_gamma 92.78(1)
_cell_formula_units_Z 2
loop_
_atom_type_symbol
_atom_type_radius_bond
C 0.68
H 0.23
Cl 0.99
N 0.68
O 0.68
loop_
_atom_site_label
_atom_site_type_symbol
_atom_site_fract_x
_atom_site_fract_y
_atom_site_fract_z
Cl1 Cl -0.30360 0.07020 0.05090
C1 C 0.37660 -0.07660 0.36220
C2 C 0.20630 -0.04700 0.29480
C3 C 0.14540 0.07340 0.27750
C4 C -0.01160 0.10720 0.20640
C5 C -0.10730 0.02350 0.14830
C6 C -0.04920 -0.09560 0.16240
C7 C 0.10690 -0.13070 0.23690
C8 C 0.66470 -0.20770 0.37960
C9 C 0.72810 -0.49060 0.64930
C10 C 0.84990 -0.49360 0.80120
C11 C 0.57320 -0.26910 0.47930
C12 C 0.38060 -0.70520 1.01830
C13 C 0.59720 -0.38970 0.59180
C14 C 0.47460 -0.40740 0.65200
C15 C 0.44780 -0.51190 0.77110
C16 C 0.31930 -0.49890 0.80520
C17 C 0.22000 -0.38340 0.72440
C18 C 0.24610 -0.27980 0.60770
C19 C 0.37290 -0.29370 0.56940
H1 H 0.21700 0.12500 0.32000
H2 H -0.05300 0.19200 0.19700
H3 H -0.11700 -0.15000 0.12200
H4 H 0.15000 -0.21400 0.24700
H5 H 0.71500 -0.14300 0.40800
H6 H 0.60400 -0.17500 0.27300
H7 H 0.73800 -0.27100 0.38600
H8 H 0.78100 -0.47300 0.57500
H9 H 0.69100 -0.57500 0.66400
H10 H 0.48100 -0.68400 1.07200
H11 H 0.39600 -0.75500 0.96000
H12 H 0.34100 -0.75100 1.10200
H13 H 1.00100 -0.60500 0.99900
H14 H 0.51900 -0.59000 0.82400
H15 H 0.13100 -0.37900 0.74900
H16 H 0.17200 -0.20600 0.55100
N1 N 0.43310 -0.20770 0.45990
O1 O 0.46370 0.00450 0.33030
O2 O 0.27730 -0.59190 0.91890
O3 O 0.91780 -0.60920 0.89330
O4 O 0.88430 -0.39620 0.83320
#END
