####################################################################### 
# 
# This file contains crystal structure data downloaded from the 
# Cambridge Structural Database (CSD) hosted by the Cambridge 
# Crystallographic Data Centre (CCDC).
# 
# Full information about CCDC data access policies and citation 
# guidelines are available at http://www.ccdc.cam.ac.uk/access/V1 
# 
# Audit and citation data items may have been added by the CCDC. 
# Please retain this information to preserve the provenance of 
# this file and to allow appropriate attribution of the data. 
# 
#######################################################################

data_IPOZIW
#This CIF has been generated from an entry in the Cambridge Structural Database
_database_code_depnum_ccdc_archive 'CCDC 1180684'
_database_code_CSD               IPOZIW
loop_
_citation_id
_citation_doi
_citation_year
1 10.1023/A:1014436406651 2001
_audit_creation_method           'Created from the CSD'
_audit_update_record             
;
2024-07-10 downloaded from the CCDC.
;
_database_code_NBS               827497
_chemical_formula_moiety         '(C48 H84 N18 Ni3 O12)n,18n(H2 O1)'
_chemical_name_systematic        
"catena-(bis(\m~3~-Benzene-1,3,5-tricarboxylato-O,O',O'')-tris((1,8-dimethyl-1,3,6,8,10,13-hexa-azacyclotetradecane)-nickel(ii)) octadecahydrate)"
_chemical_absolute_configuration unk
_diffrn_ambient_temperature      293
_exptl_crystal_density_diffrn    1.201
#These two values have been output from a single CSD field.
_refine_ls_R_factor_gt           0.0716
_refine_ls_wR_factor_gt          0.0716
_diffrn_radiation_probe          x-ray
_symmetry_cell_setting           monoclinic
_symmetry_space_group_name_H-M   'P 21/c'
_symmetry_Int_Tables_number      14
_space_group_name_Hall           '-P 2ybc'
loop_
_symmetry_equiv_pos_site_id
_symmetry_equiv_pos_as_xyz
1 x,y,z
2 -x,1/2+y,1/2-z
3 -x,-y,-z
4 x,1/2-y,1/2+z
_cell_length_a                   9.47840(10)
_cell_length_b                   28.3558(2)
_cell_length_c                   16.8801(2)
_cell_angle_alpha                90
_cell_angle_beta                 101.8360(10)
_cell_angle_gamma                90
_cell_volume                     4440.37
_exptl_crystal_colour            'pale purple'
_exptl_crystal_description       plate-like
_cell_formula_units_Z            2
loop_
_atom_site_label
_atom_site_type_symbol
_atom_site_fract_x
_atom_site_fract_y
_atom_site_fract_z
Ni1 Ni 0.0000 0.0000 0.0000
Ni2 Ni 0.38304(7) 0.24605(2) 0.18412(4)
N1 N -0.1418(8) 0.0201(2) 0.1605(4)
N2 N -0.1961(6) -0.0173(2) 0.0260(3)
N3 N -0.0909(6) -0.0190(2) -0.1164(3)
N4 N 0.5341(6) 0.1736(2) 0.0726(3)
N5 N 0.4955(5) 0.2580(2) 0.0941(3)
N6 N 0.3260(5) 0.3156(2) 0.1731(3)
N7 N 0.2375(7) 0.3182(3) 0.2998(4)
N8 N 0.2699(5) 0.2337(2) 0.2738(3)
N9 N 0.4391(5) 0.17609(14) 0.1964(3)
O1 O -0.0549(4) 0.07317(12) -0.0213(2)
O2 O -0.1872(5) 0.07850(13) -0.1464(3)
O3 O 0.1941(4) 0.22425(13) 0.0932(2)
O4 O 0.0607(5) 0.28911(15) 0.0674(3)
O5 O -0.4287(4) 0.23207(12) -0.2276(2)
O6 O -0.3058(5) 0.29696(14) -0.1849(3)
C1 C -0.1219(12) -0.0237(3) 0.2100(5)
C2 C -0.2410(8) 0.0151(3) 0.0839(5)
C3 C -0.2953(7) -0.0212(7) -0.0528(5)
C4 C -0.2237(7) -0.0449(2) -0.1113(4)
C5 C -0.0125(10) 0.0444(2) 0.1587(4)
C6 C 0.6869(9) 0.1713(4) 0.1068(6)
C7 C 0.4864(7) 0.2185(2) 0.0363(3)
C8 C 0.4387(7) 0.3033(2) 0.0571(4)
C9 C 0.4211(8) 0.3372(2) 0.1234(5)
C10 C 0.3257(8) 0.3395(2) 0.2513(4)
C11 C 0.0826(9) 0.3222(4) 0.2664(6)
C12 C 0.2821(8) 0.2722(3) 0.3334(4)
C13 C 0.3218(8) 0.1881(3) 0.3097(4)
C14 C 0.3382(8) 0.1554(2) 0.2429(4)
C15 C 0.4432(7) 0.1518(2) 0.1202(4)
C16 C -0.1211(6) 0.0961(2) -0.0815(3)
C17 C 0.0879(6) 0.2468(2) 0.0553(3)
C18 C -0.3268(6) 0.2537(2) -0.1839(3)
C19 C -0.1203(5) 0.1489(2) -0.0741(3)
C20 C -0.0204(5) 0.1720(2) -0.0147(3)
C21 C -0.0196(5) 0.2208(2) -0.0083(3)
C22 C -0.1192(5) 0.2468(2) -0.0646(3)
C23 C -0.2210(5) 0.2244(2) -0.1229(3)
C24 C -0.2208(5) 0.1757(2) -0.1278(3)
H1 H -0.1874(6) -0.0465(2) 0.0488(3)
H2 H -0.1180(6) 0.0080(2) -0.1444(3)
H3 H 0.5899(5) 0.2623(2) 0.1178(3)
H4 H 0.2343(5) 0.3169(2) 0.1434(3)
H5 H 0.1751(5) 0.2304(2) 0.2500(3)
H6 H 0.5291(5) 0.17448(14) 0.2280(3)
H7 H -0.0824(75) -0.0479(8) 0.1815(20)
H8 H -0.2134(17) -0.0338(15) 0.2200(38)
H9 H -0.0572(63) -0.0175(8) 0.2607(19)
H10 H -0.2566(8) 0.0460(3) 0.0589(5)
H11 H -0.3327(8) 0.0043(3) 0.0941(5)
H12 H -0.3266(7) 0.0100(2) -0.0725(5)
H13 H -0.3798(7) -0.0391(2) -0.0469(5)
H14 H -0.2877(7) -0.0457(2) -0.1641(4)
H15 H -0.2002(7) -0.0771(2) -0.0943(4)
H16 H -0.0366(10) 0.0745(2) 0.1321(4)
H17 H 0.0364(10) 0.0508(2) 0.2139(4)
H18 H 0.7400(9) 0.1812(23) 0.0671(15)
H19 H 0.7129(16) 0.1395(6) 0.1230(38)
H20 H 0.7092(15) 0.1917(19) 0.1532(25)
H21 H 0.3871(7) 0.2153(2) 0.0076(3)
H22 H 0.5440(7) 0.2262(2) -0.0032(3)
H23 H 0.3464(7) 0.2982(2) 0.0209(4)
H24 H 0.5048(7) 0.3163(2) 0.0260(4)
H25 H 0.5145(8) 0.3443(2) 0.1572(5)
H26 H 0.3791(8) 0.3665(2) 0.0999(5)
H27 H 0.4239(8) 0.3406(2) 0.2822(4)
H28 H 0.2938(8) 0.3718(2) 0.2401(4)
H29 H 0.0298(9) 0.3105(28) 0.3050(22)
H30 H 0.0585(18) 0.3040(25) 0.2175(29)
H31 H 0.0582(18) 0.3547(6) 0.2547(48)
H32 H 0.2243(8) 0.2642(3) 0.3727(4)
H33 H 0.3817(8) 0.2742(3) 0.3621(4)
H34 H 0.2536(8) 0.1752(3) 0.3396(4)
H35 H 0.4138(8) 0.1921(3) 0.3468(4)
H36 H 0.3747(8) 0.1252(2) 0.2653(4)
H37 H 0.2451(8) 0.1502(2) 0.2075(4)
H38 H 0.4763(7) 0.1197(2) 0.1325(4)
H39 H 0.3459(7) 0.1501(2) 0.0881(4)
H40 H 0.0470(5) 0.1544(2) 0.0212(3)
H41 H -0.1166(5) 0.2796(2) -0.0627(3)
H42 H -0.2885(5) 0.1606(2) -0.1673(3)
C5B C 0.0125(10) -0.0444(2) -0.1587(4)
N1B N 0.1418(8) -0.0201(2) -0.1605(4)
C1B C 0.1219(12) 0.0237(3) -0.2100(5)
H7B H 0.0824(75) 0.0479(8) -0.1815(20)
H8B H 0.2134(17) 0.0338(15) -0.2200(38)
H9B H 0.0572(63) 0.0175(8) -0.2607(19)
C2B C 0.2410(8) -0.0151(3) -0.0839(5)
N2B N 0.1961(6) 0.0173(2) -0.0260(3)
C3B C 0.2953(7) 0.0212(7) 0.0528(5)
C4B C 0.2237(7) 0.0449(2) 0.1113(4)
N3B N 0.0909(6) 0.0190(2) 0.1164(3)
H2B H 0.1180(6) -0.0080(2) 0.1444(3)
H14B H 0.2877(7) 0.0457(2) 0.1641(4)
H15B H 0.2002(7) 0.0771(2) 0.0943(4)
H12B H 0.3266(7) -0.0100(2) 0.0725(5)
H13B H 0.3798(7) 0.0391(2) 0.0469(5)
H1B H 0.1874(6) 0.0465(2) -0.0488(3)
H10B H 0.2566(8) -0.0460(3) -0.0589(5)
H11B H 0.3327(8) -0.0043(3) -0.0941(5)
H16B H 0.0366(10) -0.0745(2) -0.1321(4)
H17B H -0.0364(10) -0.0508(2) -0.2139(4)
O1B O 0.0549(4) -0.07317(12) 0.0213(2)
O2B O 0.1872(5) -0.07850(13) 0.1464(3)
O3B O -0.1941(4) -0.22425(13) -0.0932(2)
O4B O -0.0607(5) -0.28911(15) -0.0674(3)
O5B O 0.4287(4) -0.23207(12) 0.2276(2)
O6B O 0.3058(5) -0.29696(14) 0.1849(3)
C16B C 0.1211(6) -0.0961(2) 0.0815(3)
C17B C -0.0879(6) -0.2468(2) -0.0553(3)
C18B C 0.3268(6) -0.2537(2) 0.1839(3)
C19B C 0.1203(5) -0.1489(2) 0.0741(3)
C20B C 0.0204(5) -0.1720(2) 0.0147(3)
C21B C 0.0196(5) -0.2208(2) 0.0083(3)
C22B C 0.1192(5) -0.2468(2) 0.0646(3)
C23B C 0.2210(5) -0.2244(2) 0.1229(3)
C24B C 0.2208(5) -0.1757(2) 0.1278(3)
H40B H -0.0470(5) -0.1544(2) -0.0212(3)
H41B H 0.1166(5) -0.2796(2) 0.0627(3)
H42B H 0.2885(5) -0.1606(2) 0.1673(3)
Ni2B Ni -0.38304(7) -0.24605(2) -0.18412(4)
N4B N -0.5341(6) -0.1736(2) -0.0726(3)
N5B N -0.4955(5) -0.2580(2) -0.0941(3)
N6B N -0.3260(5) -0.3156(2) -0.1731(3)
N7B N -0.2375(7) -0.3182(3) -0.2998(4)
N8B N -0.2699(5) -0.2337(2) -0.2738(3)
N9B N -0.4391(5) -0.17609(14) -0.1964(3)
C6B C -0.6869(9) -0.1713(4) -0.1068(6)
C7B C -0.4864(7) -0.2185(2) -0.0363(3)
C8B C -0.4387(7) -0.3033(2) -0.0571(4)
C9B C -0.4211(8) -0.3372(2) -0.1234(5)
C10B C -0.3257(8) -0.3395(2) -0.2513(4)
C11B C -0.0826(9) -0.3222(4) -0.2664(6)
C12B C -0.2821(8) -0.2722(3) -0.3334(4)
C13B C -0.3218(8) -0.1881(3) -0.3097(4)
C14B C -0.3382(8) -0.1554(2) -0.2429(4)
C15B C -0.4432(7) -0.1518(2) -0.1202(4)
H3B H -0.5899(5) -0.2623(2) -0.1178(3)
H4B H -0.2343(5) -0.3169(2) -0.1434(3)
H5B H -0.1751(5) -0.2304(2) -0.2500(3)
H6B H -0.5291(5) -0.17448(14) -0.2280(3)
H18B H -0.7400(9) -0.1812(23) -0.0671(15)
H19B H -0.7129(16) -0.1395(6) -0.1230(38)
H20B H -0.7092(15) -0.1917(19) -0.1532(25)
H21B H -0.3871(7) -0.2153(2) -0.0076(3)
H22B H -0.5440(7) -0.2262(2) 0.0032(3)
H23B H -0.3464(7) -0.2982(2) -0.0209(4)
H24B H -0.5048(7) -0.3163(2) -0.0260(4)
H25B H -0.5145(8) -0.3443(2) -0.1572(5)
H26B H -0.3791(8) -0.3665(2) -0.0999(5)
H27B H -0.4239(8) -0.3406(2) -0.2822(4)
H28B H -0.2938(8) -0.3718(2) -0.2401(4)
H29B H -0.0298(9) -0.3105(28) -0.3050(22)
H30B H -0.0585(18) -0.3040(25) -0.2175(29)
H31B H -0.0582(18) -0.3547(6) -0.2547(48)
H32B H -0.2243(8) -0.2642(3) -0.3727(4)
H33B H -0.3817(8) -0.2742(3) -0.3621(4)
H34B H -0.2536(8) -0.1752(3) -0.3396(4)
H35B H -0.4138(8) -0.1921(3) -0.3468(4)
H36B H -0.3747(8) -0.1252(2) -0.2653(4)
H37B H -0.2451(8) -0.1502(2) -0.2075(4)
H38B H -0.4763(7) -0.1197(2) -0.1325(4)
H39B H -0.3459(7) -0.1501(2) -0.0881(4)
O5C O 0.5713(4) 0.26793(12) 0.2724(2)
Ni2C Ni -0.61696(7) 0.25395(2) -0.31588(4)
Ni2A Ni 0.61696(7) -0.25395(2) 0.31588(4)
O5A O -0.5713(4) -0.26793(12) -0.2724(2)
O7 O 0.2135(10) 0.6056(3) 0.8086(5)
O8 O 0.5120(13) 0.4392(5) 0.3217(11)
O9 O 0.4841(65) 0.4786(19) 0.2165(34)
O10 O 0.0242(24) 0.6931(24) 0.2393(34)
O12 O 0.3158(16) 0.6366(5) 0.0624(9)
O13 O 0.0871(18) 0.3657(5) 0.9612(11)
O14 O 0.2125(7) 0.6898(4) 0.8957(6)
O15 O 0.3193(21) 0.5723(6) 0.2488(9)
O16 O 0.3141(16) 0.3868(3) 0.4290(5)
O17 O 0.5029(47) 0.3984(9) 0.4451(18)
O11? O 0.0558(61) 0.6573(23) 0.2014(25)

#END
