####################################################################### 
# 
# This file contains crystal structure data downloaded from the 
# Cambridge Structural Database (CSD) hosted by the Cambridge 
# Crystallographic Data Centre (CCDC).
# 
# Full information about CCDC data access policies and citation 
# guidelines are available at http://www.ccdc.cam.ac.uk/access/V1 
# 
# Audit and citation data items may have been added by the CCDC. 
# Please retain this information to preserve the provenance of 
# this file and to allow appropriate attribution of the data. 
# 
#######################################################################

data_ap1
_audit_block_doi                 10.5517/ccvq4k7
_database_code_depnum_ccdc_archive 'CCDC 795849'
loop_
_citation_id
_citation_doi
_citation_year
1 10.1080/00958972.2011.574286 2011
_audit_update_record             
;
2010-10-06 deposited with the CCDC.	2024-07-10 downloaded from the CCDC.
;
#TrackingRef 'ap1.cif'


_audit_creation_method           SHELXL-97
_chemical_name_systematic        
;
?
;
_chemical_name_common            ?
_chemical_melting_point          ?
_chemical_formula_moiety         'C24 H40 Co N4 O4, 2(Cl O4),2(C3 H6 O), 2(O)'

_chemical_formula_sum            'C30 H52 Cl2 Co N4 O16'
_chemical_formula_weight         854.59

loop_
_atom_type_symbol
_atom_type_description
_atom_type_scat_dispersion_real
_atom_type_scat_dispersion_imag
_atom_type_scat_source
C C 0.0181 0.0091 'International Tables Vol C Tables 4.2.6.8 and 6.1.1.4'
H H 0.0000 0.0000 'International Tables Vol C Tables 4.2.6.8 and 6.1.1.4'
N N 0.0311 0.0180 'International Tables Vol C Tables 4.2.6.8 and 6.1.1.4'
O O 0.0492 0.0322 'International Tables Vol C Tables 4.2.6.8 and 6.1.1.4'
Cl Cl 0.3639 0.7018 'International Tables Vol C Tables 4.2.6.8 and 6.1.1.4'
Co Co -2.3653 3.6143 'International Tables Vol C Tables 4.2.6.8 and 6.1.1.4'

_symmetry_cell_setting           Triclinic
_symmetry_space_group_name_H-M   P-1
_symmetry_space_group_name_Hall  '-P 1'


loop_
_symmetry_equiv_pos_as_xyz
'x, y, z'
'-x, -y, -z'

_cell_length_a                   7.548(2)
_cell_length_b                   9.942(4)
_cell_length_c                   12.968(3)
_cell_angle_alpha                106.01(2)
_cell_angle_beta                 90.13(3)
_cell_angle_gamma                95.23(2)
_cell_volume                     931.1(5)
_cell_formula_units_Z            1
_cell_measurement_temperature    120(2)
_cell_measurement_reflns_used    83
_cell_measurement_theta_min      15
_cell_measurement_theta_max      40

_exptl_crystal_description       block
_exptl_crystal_colour            pink
_exptl_crystal_size_max          0.20
_exptl_crystal_size_mid          0.15
_exptl_crystal_size_min          0.10
_exptl_crystal_density_meas      ?
_exptl_crystal_density_diffrn    1.524
_exptl_crystal_density_method    'not measured'
_exptl_crystal_F_000             449
_exptl_absorpt_coefficient_mu    5.603
_exptl_absorpt_correction_type   multi-scan
_exptl_absorpt_correction_T_min  0.4004
_exptl_absorpt_correction_T_max  0.6042
_exptl_absorpt_process_details   
'R. H. Blessing, Acta Crystallogr., Sect A 1995, 51, 33-38'


_exptl_special_details           
;
?
;

_diffrn_ambient_temperature      120(2)
_diffrn_radiation_wavelength     1.54180
_diffrn_radiation_type           CuK\a
_diffrn_radiation_source         'fine-focus sealed tube'
_diffrn_radiation_monochromator  graphite
_diffrn_measurement_device_type  ?
_diffrn_measurement_method       ?
_diffrn_detector_area_resol_mean ?
_diffrn_standards_number         ?
_diffrn_standards_interval_count ?
_diffrn_standards_interval_time  ?
_diffrn_standards_decay_%        ?
_diffrn_reflns_number            4548
_diffrn_reflns_av_R_equivalents  0.0305
_diffrn_reflns_av_sigmaI/netI    0.0441
_diffrn_reflns_limit_h_min       -7
_diffrn_reflns_limit_h_max       8
_diffrn_reflns_limit_k_min       -10
_diffrn_reflns_limit_k_max       10
_diffrn_reflns_limit_l_min       -14
_diffrn_reflns_limit_l_max       9
_diffrn_reflns_theta_min         3.55
_diffrn_reflns_theta_max         58.76
_reflns_number_total             2366
_reflns_number_gt                2318
_reflns_threshold_expression     >2sigma(I)

_computing_data_collection       ?
_computing_cell_refinement       ?
_computing_data_reduction        ?
_computing_structure_solution    'SHELXS-97 (Sheldrick, 1990)'
_computing_structure_refinement  'SHELXL-97 (Sheldrick, 1997)'
_computing_molecular_graphics    ?
_computing_publication_material  ?

_refine_special_details          
;
Refinement of F^2^ against ALL reflections. The weighted R-factor wR and
goodness of fit S are based on F^2^, conventional R-factors R are based
on F, with F set to zero for negative F^2^. The threshold expression of
F^2^ > 2sigma(F^2^) is used only for calculating R-factors(gt) etc. and is
not relevant to the choice of reflections for refinement. R-factors based
on F^2^ are statistically about twice as large as those based on F, and R-
factors based on ALL data will be even larger.
;

_refine_ls_structure_factor_coef Fsqd
_refine_ls_matrix_type           full
_refine_ls_weighting_scheme      calc
_refine_ls_weighting_details     
'calc w=1/[\s^2^(Fo^2^)+(0.1372P)^2^+2.9114P] where P=(Fo^2^+2Fc^2^)/3'
_atom_sites_solution_primary     direct
_atom_sites_solution_secondary   difmap
_atom_sites_solution_hydrogens   geom
_refine_ls_hydrogen_treatment    none
_refine_ls_extinction_method     none
_refine_ls_extinction_coef       ?
_refine_ls_number_reflns         2366
_refine_ls_number_parameters     258
_refine_ls_number_restraints     29
_refine_ls_R_factor_all          0.0739
_refine_ls_R_factor_gt           0.0731
_refine_ls_wR_factor_ref         0.2106
_refine_ls_wR_factor_gt          0.2097
_refine_ls_goodness_of_fit_ref   1.080
_refine_ls_restrained_S_all      1.123
_refine_ls_shift/su_max          0.000
_refine_ls_shift/su_mean         0.000

loop_
_atom_site_label
_atom_site_type_symbol
_atom_site_fract_x
_atom_site_fract_y
_atom_site_fract_z
_atom_site_U_iso_or_equiv
_atom_site_adp_type
_atom_site_occupancy
_atom_site_symmetry_multiplicity
_atom_site_calc_flag
_atom_site_refinement_flags
_atom_site_disorder_assembly
_atom_site_disorder_group
C1 C 0.1018(7) 0.1005(6) 0.1755(4) 0.0190(13) Uani 1 1 d . . .
C2 C 0.0216(7) -0.0361(6) 0.1406(5) 0.0211(13) Uani 1 1 d . . .
H2 H 0.0805 -0.1123 0.1505 0.025 Uiso 1 1 calc R . .
C3 C -0.1459(7) -0.0598(6) 0.0909(4) 0.0195(13) Uani 1 1 d . . .
H3 H -0.1994 -0.1537 0.0669 0.023 Uiso 1 1 calc R . .
C4 C -0.1575(7) 0.1754(6) 0.1114(5) 0.0232(14) Uani 1 1 d . . .
H4 H -0.2203 0.2502 0.1024 0.028 Uiso 1 1 calc R . .
C5 C 0.0087(7) 0.2085(6) 0.1608(5) 0.0207(13) Uani 1 1 d . . .
H5 H 0.0589 0.3034 0.1845 0.025 Uiso 1 1 calc R . .
C6 C 0.2910(7) 0.1307(6) 0.2202(5) 0.0167(13) Uani 1 1 d . . .
C7 C 0.5032(7) 0.2177(7) 0.3736(5) 0.0255(14) Uani 1 1 d . . .
H7 H 0.4909 0.2528 0.4531 0.031 Uiso 1 1 calc R . .
C8 C 0.5945(8) 0.3399(7) 0.3374(6) 0.0346(16) Uani 1 1 d . . .
H8A H 0.5188 0.4176 0.3527 0.052 Uiso 1 1 calc R . .
H8B H 0.6143 0.3088 0.2601 0.052 Uiso 1 1 calc R . .
H8C H 0.7091 0.3715 0.3761 0.052 Uiso 1 1 calc R . .
C9 C 0.6108(8) 0.0916(8) 0.3537(5) 0.0330(16) Uani 1 1 d . . .
H9A H 0.5452 0.0174 0.3787 0.050 Uiso 1 1 calc R . .
H9B H 0.7255 0.1196 0.3929 0.050 Uiso 1 1 calc R . .
H9C H 0.6312 0.0564 0.2768 0.050 Uiso 1 1 calc R . .
C10 C 0.1703(8) 0.1959(7) 0.4020(5) 0.0243(14) Uani 1 1 d . . .
H10 H 0.0576 0.1556 0.3597 0.029 Uiso 1 1 calc R . .
C11 C 0.1537(8) 0.3526(7) 0.4552(5) 0.0311(15) Uani 1 1 d . . .
H11A H 0.1397 0.4008 0.3997 0.047 Uiso 1 1 calc R . .
H11B H 0.2612 0.3943 0.4991 0.047 Uiso 1 1 calc R . .
H11C H 0.0497 0.3625 0.5009 0.047 Uiso 1 1 calc R . .
C12 C 0.1923(10) 0.1148(8) 0.4842(6) 0.0409(18) Uani 1 1 d . . .
H12A H 0.2021 0.0156 0.4470 0.061 Uiso 1 1 calc R . .
H12B H 0.0886 0.1224 0.5301 0.061 Uiso 1 1 calc R . .
H12C H 0.3002 0.1539 0.5284 0.061 Uiso 1 1 calc R . .
C13 C 0.2511(16) 0.4559(13) 0.8642(10) 0.097(6) Uani 1 1 d D . .
C14 C 0.4042(11) 0.5563(9) 0.8971(7) 0.051(2) Uani 1 1 d . . .
H14A H 0.4848 0.5484 0.8371 0.077 Uiso 1 1 calc R . .
H14B H 0.4660 0.5376 0.9575 0.077 Uiso 1 1 calc R . .
H14C H 0.3660 0.6514 0.9193 0.077 Uiso 1 1 calc R . .
C15 C 0.118(2) 0.473(2) 0.9527(14) 0.144(7) Uani 1 1 d . . .
H15A H 0.0104 0.4093 0.9268 0.216 Uiso 1 1 calc R . .
H15B H 0.0869 0.5703 0.9742 0.216 Uiso 1 1 calc R . .
H15C H 0.1700 0.4505 1.0145 0.216 Uiso 1 1 calc R . .
N1 N -0.2359(6) 0.0437(5) 0.0751(4) 0.0190(11) Uani 1 1 d . . .
N2 N 0.3186(6) 0.1792(5) 0.3259(4) 0.0180(11) Uani 1 1 d . . .
O1W O -0.4625(5) 0.1887(4) -0.0425(3) 0.0230(9) Uani 1 1 d . . .
H12W H -0.4391 0.1807 -0.1080 0.040 Uiso 1 1 d . . .
H11W H -0.4545 0.2602 0.0012 0.019 Uiso 1 1 d . . .
O2W O 0.6729(13) 0.6067(11) 0.9750(10) 0.125(3) Uani 1 1 d . . .
O1 O 0.4154(5) 0.1106(4) 0.1547(3) 0.0203(9) Uani 1 1 d . . .
O6 O 0.212(2) 0.3852(19) 0.7739(9) 0.258(11) Uani 1 1 d D . .
Co1 Co -0.5000 0.0000 0.0000 0.0155(4) Uani 1 2 d S . .
Cl' Cl 0.6876(10) 0.3217(14) 0.7092(11) 0.0261(15) Uani 0.536(7) 1 d PD A 1
Cl Cl 0.7414(12) 0.3235(17) 0.7159(13) 0.0261(15) Uani 0.464(7) 1 d PD A 2
O2' O 0.7223(16) 0.2306(16) 0.7733(12) 0.044(3) Uani 0.536(7) 1 d PD A 1
O2 O 0.6378(17) 0.2237(19) 0.7588(15) 0.044(3) Uani 0.464(7) 1 d PD A 2
O3' O 0.695(4) 0.295(4) 0.6021(13) 0.062(6) Uani 0.536(7) 1 d PD A 1
O3 O 0.762(5) 0.274(4) 0.6087(15) 0.062(6) Uani 0.464(7) 1 d PD A 2
O4' O 0.719(10) 0.467(2) 0.757(4) 0.045(8) Uani 0.536(7) 1 d PD A 1
O4 O 0.740(12) 0.463(3) 0.779(5) 0.045(8) Uani 0.464(7) 1 d PD A 2
O5' O 0.4957(11) 0.3135(12) 0.6894(9) 0.057(2) Uani 0.536(7) 1 d PD A 1
O5 O 0.9229(12) 0.3040(13) 0.7257(11) 0.057(2) Uani 0.464(7) 1 d PD A 2

loop_
_atom_site_aniso_label
_atom_site_aniso_U_11
_atom_site_aniso_U_22
_atom_site_aniso_U_33
_atom_site_aniso_U_23
_atom_site_aniso_U_13
_atom_site_aniso_U_12
C1 0.016(3) 0.028(4) 0.013(3) 0.007(3) -0.004(2) 0.004(2)
C2 0.015(3) 0.025(4) 0.025(3) 0.008(3) 0.000(2) 0.006(2)
C3 0.020(3) 0.019(3) 0.019(3) 0.004(3) -0.006(2) -0.003(2)
C4 0.017(3) 0.020(4) 0.031(3) 0.002(3) -0.004(2) 0.009(2)
C5 0.017(3) 0.016(3) 0.025(3) -0.001(3) -0.004(2) 0.001(2)
C6 0.015(3) 0.013(3) 0.023(3) 0.006(3) -0.007(2) 0.002(2)
C7 0.019(3) 0.031(4) 0.022(3) -0.001(3) -0.010(2) 0.006(3)
C8 0.022(3) 0.021(4) 0.052(4) -0.005(3) -0.008(3) -0.001(3)
C9 0.027(3) 0.041(4) 0.030(3) 0.004(3) -0.007(3) 0.014(3)
C10 0.021(3) 0.032(4) 0.019(3) 0.004(3) -0.001(2) 0.002(3)
C11 0.027(3) 0.035(4) 0.028(3) 0.000(3) 0.005(3) 0.011(3)
C12 0.057(5) 0.041(5) 0.028(4) 0.015(3) 0.001(3) 0.003(4)
C13 0.067(6) 0.070(8) 0.095(9) -0.059(7) 0.053(7) -0.041(6)
C14 0.048(4) 0.038(5) 0.064(5) 0.005(4) 0.000(4) 0.006(4)
C15 0.110(11) 0.22(2) 0.142(14) 0.103(15) 0.024(10) 0.046(12)
N1 0.015(2) 0.021(3) 0.020(2) 0.001(2) -0.0026(19) 0.005(2)
N2 0.016(2) 0.016(3) 0.019(3) 0.001(2) -0.0068(19) 0.0006(19)
O1W 0.022(2) 0.020(2) 0.025(2) 0.0038(19) -0.0083(17) 0.0002(17)
O2W 0.107(7) 0.115(8) 0.161(10) 0.048(7) 0.009(6) 0.016(6)
O1 0.0133(19) 0.025(2) 0.020(2) 0.0029(18) -0.0046(17) 0.0028(16)
O6 0.171(15) 0.32(3) 0.37(3) 0.24(2) 0.019(18) 0.024(17)
Co1 0.0101(6) 0.0159(8) 0.0197(7) 0.0030(6) -0.0064(5) 0.0025(5)
Cl' 0.030(5) 0.0250(12) 0.0231(18) 0.0061(12) 0.000(4) 0.004(4)
Cl 0.030(5) 0.0250(12) 0.0231(18) 0.0061(12) 0.000(4) 0.004(4)
O2' 0.046(8) 0.050(5) 0.044(5) 0.027(4) 0.000(7) 0.002(8)
O2 0.046(8) 0.050(5) 0.044(5) 0.027(4) 0.000(7) 0.002(8)
O3' 0.11(2) 0.048(10) 0.023(4) 0.013(4) -0.023(7) -0.005(11)
O3 0.11(2) 0.048(10) 0.023(4) 0.013(4) -0.023(7) -0.005(11)
O4' 0.057(15) 0.035(4) 0.041(19) 0.010(5) -0.021(13) 0.002(3)
O4 0.057(15) 0.035(4) 0.041(19) 0.010(5) -0.021(13) 0.002(3)
O5' 0.027(4) 0.056(5) 0.082(6) 0.009(5) -0.016(4) 0.003(3)
O5 0.027(4) 0.056(5) 0.082(6) 0.009(5) -0.016(4) 0.003(3)

_geom_special_details            
;
All esds (except the esd in the dihedral angle between two l.s. planes)
are estimated using the full covariance matrix. The cell esds are taken
into account individually in the estimation of esds in distances, angles
and torsion angles; correlations between esds in cell parameters are only
used when they are defined by crystal symmetry. An approximate (isotropic)
treatment of cell esds is used for estimating esds involving l.s. planes.
;

loop_
_geom_bond_atom_site_label_1
_geom_bond_atom_site_label_2
_geom_bond_distance
_geom_bond_site_symmetry_2
_geom_bond_publ_flag
C1 C2 1.388(9) . ?
C1 C5 1.390(9) . ?
C1 C6 1.512(8) . ?
C2 C3 1.388(8) . ?
C2 H2 0.9500 . ?
C3 N1 1.344(7) . ?
C3 H3 0.9500 . ?
C4 N1 1.343(8) . ?
C4 C5 1.378(8) . ?
C4 H4 0.9500 . ?
C5 H5 0.9500 . ?
C6 O1 1.260(7) . ?
C6 N2 1.330(7) . ?
C7 N2 1.496(7) . ?
C7 C9 1.519(9) . ?
C7 C8 1.528(10) . ?
C7 H7 1.0000 . ?
C8 H8A 0.9800 . ?
C8 H8B 0.9800 . ?
C8 H8C 0.9800 . ?
C9 H9A 0.9800 . ?
C9 H9B 0.9800 . ?
C9 H9C 0.9800 . ?
C10 N2 1.485(8) . ?
C10 C12 1.520(9) . ?
C10 C11 1.537(9) . ?
C10 H10 1.0000 . ?
C11 H11A 0.9800 . ?
C11 H11B 0.9800 . ?
C11 H11C 0.9800 . ?
C12 H12A 0.9800 . ?
C12 H12B 0.9800 . ?
C12 H12C 0.9800 . ?
C13 O6 1.208(18) . ?
C13 C14 1.437(12) . ?
C13 C15 1.513(18) . ?
C14 H14A 0.9800 . ?
C14 H14B 0.9800 . ?
C14 H14C 0.9800 . ?
C15 H15A 0.9800 . ?
C15 H15B 0.9800 . ?
C15 H15C 0.9800 . ?
N1 Co1 2.170(4) . ?
O1W Co1 2.093(4) . ?
O1W H12W 0.8512 . ?
O1W H11W 0.7743 . ?
O1 Co1 2.135(4) 1_655 ?
Co1 O1W 2.093(4) 2_455 ?
Co1 O1 2.135(4) 2 ?
Co1 O1 2.135(4) 1_455 ?
Co1 N1 2.170(4) 2_455 ?
Cl' O3' 1.342(11) . ?
Cl' O4' 1.405(15) . ?
Cl' O2' 1.427(11) . ?
Cl' O5' 1.461(10) . ?
Cl O3 1.355(13) . ?
Cl O4 1.406(16) . ?
Cl O5 1.411(12) . ?
Cl O2 1.439(12) . ?

loop_
_geom_angle_atom_site_label_1
_geom_angle_atom_site_label_2
_geom_angle_atom_site_label_3
_geom_angle
_geom_angle_site_symmetry_1
_geom_angle_site_symmetry_3
_geom_angle_publ_flag
C2 C1 C5 118.2(5) . . ?
C2 C1 C6 121.1(5) . . ?
C5 C1 C6 120.5(5) . . ?
C1 C2 C3 119.0(5) . . ?
C1 C2 H2 120.5 . . ?
C3 C2 H2 120.5 . . ?
N1 C3 C2 123.2(6) . . ?
N1 C3 H3 118.4 . . ?
C2 C3 H3 118.4 . . ?
N1 C4 C5 123.9(5) . . ?
N1 C4 H4 118.1 . . ?
C5 C4 H4 118.1 . . ?
C4 C5 C1 118.8(6) . . ?
C4 C5 H5 120.6 . . ?
C1 C5 H5 120.6 . . ?
O1 C6 N2 123.1(5) . . ?
O1 C6 C1 117.9(5) . . ?
N2 C6 C1 118.9(5) . . ?
N2 C7 C9 112.3(5) . . ?
N2 C7 C8 110.5(5) . . ?
C9 C7 C8 113.6(5) . . ?
N2 C7 H7 106.7 . . ?
C9 C7 H7 106.7 . . ?
C8 C7 H7 106.7 . . ?
C7 C8 H8A 109.5 . . ?
C7 C8 H8B 109.5 . . ?
H8A C8 H8B 109.5 . . ?
C7 C8 H8C 109.5 . . ?
H8A C8 H8C 109.5 . . ?
H8B C8 H8C 109.5 . . ?
C7 C9 H9A 109.5 . . ?
C7 C9 H9B 109.5 . . ?
H9A C9 H9B 109.5 . . ?
C7 C9 H9C 109.5 . . ?
H9A C9 H9C 109.5 . . ?
H9B C9 H9C 109.5 . . ?
N2 C10 C12 111.3(5) . . ?
N2 C10 C11 110.2(5) . . ?
C12 C10 C11 112.1(5) . . ?
N2 C10 H10 107.7 . . ?
C12 C10 H10 107.7 . . ?
C11 C10 H10 107.7 . . ?
C10 C11 H11A 109.5 . . ?
C10 C11 H11B 109.5 . . ?
H11A C11 H11B 109.5 . . ?
C10 C11 H11C 109.5 . . ?
H11A C11 H11C 109.5 . . ?
H11B C11 H11C 109.5 . . ?
C10 C12 H12A 109.5 . . ?
C10 C12 H12B 109.5 . . ?
H12A C12 H12B 109.5 . . ?
C10 C12 H12C 109.5 . . ?
H12A C12 H12C 109.5 . . ?
H12B C12 H12C 109.5 . . ?
O6 C13 C14 126.7(14) . . ?
O6 C13 C15 121.3(15) . . ?
C14 C13 C15 110.6(11) . . ?
C13 C14 H14A 109.5 . . ?
C13 C14 H14B 109.5 . . ?
H14A C14 H14B 109.5 . . ?
C13 C14 H14C 109.5 . . ?
H14A C14 H14C 109.5 . . ?
H14B C14 H14C 109.5 . . ?
C13 C15 H15A 109.5 . . ?
C13 C15 H15B 109.5 . . ?
H15A C15 H15B 109.5 . . ?
C13 C15 H15C 109.5 . . ?
H15A C15 H15C 109.5 . . ?
H15B C15 H15C 109.5 . . ?
C4 N1 C3 116.9(5) . . ?
C4 N1 Co1 121.8(4) . . ?
C3 N1 Co1 121.3(4) . . ?
C6 N2 C10 122.3(4) . . ?
C6 N2 C7 120.9(5) . . ?
C10 N2 C7 116.8(5) . . ?
Co1 O1W H12W 115.5 . . ?
Co1 O1W H11W 120.5 . . ?
H12W O1W H11W 123.1 . . ?
C6 O1 Co1 147.4(4) . 1_655 ?
O1W Co1 O1W 180.0 . 2_455 ?
O1W Co1 O1 89.78(16) . 2 ?
O1W Co1 O1 90.22(16) 2_455 2 ?
O1W Co1 O1 90.22(16) . 1_455 ?
O1W Co1 O1 89.78(16) 2_455 1_455 ?
O1 Co1 O1 180.0 2 1_455 ?
O1W Co1 N1 89.31(16) . . ?
O1W Co1 N1 90.69(16) 2_455 . ?
O1 Co1 N1 95.46(16) 2 . ?
O1 Co1 N1 84.54(16) 1_455 . ?
O1W Co1 N1 90.69(16) . 2_455 ?
O1W Co1 N1 89.31(16) 2_455 2_455 ?
O1 Co1 N1 84.54(16) 2 2_455 ?
O1 Co1 N1 95.46(16) 1_455 2_455 ?
N1 Co1 N1 180.0 . 2_455 ?
O3' Cl' O4' 110(3) . . ?
O3' Cl' O2' 127.6(17) . . ?
O4' Cl' O2' 117(2) . . ?
O3' Cl' O5' 84.0(14) . . ?
O4' Cl' O5' 99(3) . . ?
O2' Cl' O5' 109.0(9) . . ?
O3 Cl O4 129(4) . . ?
O3 Cl O5 85.7(15) . . ?
O4 Cl O5 101(4) . . ?
O3 Cl O2 112(2) . . ?
O4 Cl O2 113(4) . . ?
O5 Cl O2 108.3(11) . . ?

loop_
_geom_torsion_atom_site_label_1
_geom_torsion_atom_site_label_2
_geom_torsion_atom_site_label_3
_geom_torsion_atom_site_label_4
_geom_torsion
_geom_torsion_site_symmetry_1
_geom_torsion_site_symmetry_2
_geom_torsion_site_symmetry_3
_geom_torsion_site_symmetry_4
_geom_torsion_publ_flag
C5 C1 C2 C3 1.1(8) . . . . ?
C6 C1 C2 C3 -174.0(5) . . . . ?
C1 C2 C3 N1 -0.3(9) . . . . ?
N1 C4 C5 C1 -0.6(9) . . . . ?
C2 C1 C5 C4 -0.7(8) . . . . ?
C6 C1 C5 C4 174.5(5) . . . . ?
C2 C1 C6 O1 78.1(7) . . . . ?
C5 C1 C6 O1 -96.9(7) . . . . ?
C2 C1 C6 N2 -103.1(6) . . . . ?
C5 C1 C6 N2 81.9(7) . . . . ?
C5 C4 N1 C3 1.5(8) . . . . ?
C5 C4 N1 Co1 179.1(4) . . . . ?
C2 C3 N1 C4 -1.0(8) . . . . ?
C2 C3 N1 Co1 -178.6(4) . . . . ?
O1 C6 N2 C10 -177.1(5) . . . . ?
C1 C6 N2 C10 4.2(8) . . . . ?
O1 C6 N2 C7 1.9(8) . . . . ?
C1 C6 N2 C7 -176.8(5) . . . . ?
C12 C10 N2 C6 123.6(6) . . . . ?
C11 C10 N2 C6 -111.4(6) . . . . ?
C12 C10 N2 C7 -55.4(7) . . . . ?
C11 C10 N2 C7 69.6(6) . . . . ?
C9 C7 N2 C6 -64.5(7) . . . . ?
C8 C7 N2 C6 63.4(7) . . . . ?
C9 C7 N2 C10 114.6(6) . . . . ?
C8 C7 N2 C10 -117.5(6) . . . . ?
N2 C6 O1 Co1 155.4(5) . . . 1_655 ?
C1 C6 O1 Co1 -25.9(9) . . . 1_655 ?
C4 N1 Co1 O1W 24.9(4) . . . . ?
C3 N1 Co1 O1W -157.6(4) . . . . ?
C4 N1 Co1 O1W -155.1(4) . . . 2_455 ?
C3 N1 Co1 O1W 22.4(4) . . . 2_455 ?
C4 N1 Co1 O1 114.6(4) . . . 2 ?
C3 N1 Co1 O1 -67.9(4) . . . 2 ?
C4 N1 Co1 O1 -65.4(4) . . . 1_455 ?
C3 N1 Co1 O1 112.1(4) . . . 1_455 ?

_diffrn_measured_fraction_theta_max 0.889
_diffrn_reflns_theta_full        58.76
_diffrn_measured_fraction_theta_full 0.889
_refine_diff_density_max         0.533
_refine_diff_density_min         -0.874
_refine_diff_density_rms         0.122


