
#######################################################################
#
#                 Cambridge Crystallographic Data Centre
#                                CCDC
#
#######################################################################
#
# If this CIF has been generated from an entry in the Cambridge
# Structural Database, then it will include bibliographic, chemical,
# crystal, experimental, refinement or atomic coordinate data resulting
# from the CCDC's data processing and validation procedures.
#
#######################################################################

data_CSD_CIF_IQILAW
_audit_creation_date 2011-07-18
_audit_creation_method CSD-ConQuest-V1
_database_code_CSD IQILAW
_database_code_depnum_ccdc_archive 'CCDC 788040'
_chemical_formula_sum 'C14 H20 N2 O3'
_chemical_formula_moiety
;
C14 H20 N2 O3
;
_journal_coden_Cambridge 525
_journal_volume 105
_journal_year 2011
_journal_page_first 763
_journal_name_full 'J.Inorg.Biochem. '
loop_
_publ_author_name
"D.M.Griffith"
"B.Szocs"
"T.Keogh"
"K.Yu.Suponitsky"
"E.Farkas"
"P.Buglyo"
"C.J.Marmion"
_chemical_name_systematic
;
N-Hydroxy-N'-phenyloctanediamide
;
_chemical_name_common
;
Vorinostat; Zolinza; DrugBank: DB02546; PDB Chemical Component code: SHH; 
Teaching Subset: Drug Molecules, 'Bound' Drugs
;
_cell_volume   1381.209
_exptl_crystal_colour 'colorless'
_exptl_crystal_density_diffrn 1.271
_exptl_special_details
;
P21/n polymorph I
inhibits histone deacetylases; vorinostat was investigated in 2020 as a 
potential candidate to target COVID-19 (coronavirus)
;
_exptl_crystal_description 'plate'
_diffrn_ambient_temperature 100
#These two values have been output from a single CSD field.
_refine_ls_R_factor_gt 0.0485
_refine_ls_wR_factor_gt 0.0485
_symmetry_cell_setting monoclinic
_symmetry_space_group_name_H-M 'P 21/n'
_symmetry_Int_Tables_number 14
loop_
_symmetry_equiv_pos_site_id
_symmetry_equiv_pos_as_xyz
1 x,y,z
2 1/2-x,1/2+y,1/2-z
3 -x,-y,-z
4 -1/2+x,-1/2-y,-1/2+z
_cell_length_a 10.9943(17)
_cell_length_b 7.7488(11)
_cell_length_c 16.398(3)
_cell_angle_alpha 90
_cell_angle_beta 98.620(7)
_cell_angle_gamma 90
_cell_formula_units_Z 4
loop_
_atom_type_symbol
_atom_type_radius_bond
C 0.68
H 0.23
N 0.68
O 0.68
loop_
_atom_site_label
_atom_site_type_symbol
_atom_site_fract_x
_atom_site_fract_y
_atom_site_fract_z
O1 O 0.51869(10) 0.34579(15) 0.11112(6)
O2 O -0.29021(10) 0.74677(14) 0.16218(6)
O3 O -0.45118(10) 0.56359(17) 0.23840(7)
H1 H -0.47670 0.49930 0.19740
N1 N 0.48941(11) 0.24010(15) -0.01951(7)
H2 H 0.43630 0.23490 -0.06690
N2 N -0.32486(11) 0.53784(18) 0.25080(8)
H3 H -0.29640 0.45510 0.28730
C1 C 0.60849(13) 0.18080(18) -0.02646(8)
C2 C 0.69936(14) 0.1522(2) 0.04122(9)
H4 H 0.68290 0.17330 0.09560
C3 C 0.81398(14) 0.0924(2) 0.02839(10)
H5 H 0.87610 0.07370 0.07440
C4 C 0.83937(14) 0.0598(2) -0.05026(10)
H6 H 0.91830 0.01920 -0.05820
C5 C 0.74850(14) 0.0869(2) -0.11746(9)
H7 H 0.76510 0.06410 -0.17160
C6 C 0.63373(13) 0.14700(19) -0.10582(9)
H8 H 0.57190 0.16530 -0.15210
C7 C 0.45035(13) 0.31723(18) 0.04588(8)
C8 C 0.31662(12) 0.3683(2) 0.03191(8)
H9 H 0.26850 0.27520 0.00080
H10 H 0.30710 0.47360 -0.00270
C9 C 0.26301(13) 0.40265(19) 0.11046(8)
H11 H 0.31010 0.49630 0.14190
H12 H 0.27090 0.29750 0.14520
C10 C 0.12818(13) 0.4540(2) 0.09150(8)
H13 H 0.12080 0.55850 0.05630
H14 H 0.08170 0.36010 0.05990
C11 C 0.07119(13) 0.4902(2) 0.16851(8)
H15 H 0.11890 0.58230 0.20070
H16 H 0.07690 0.38490 0.20310
C12 C -0.06323(13) 0.5457(2) 0.14963(8)
H17 H -0.06940 0.65150 0.11540
H18 H -0.11140 0.45390 0.11750
C13 C -0.11770(13) 0.5805(2) 0.22802(9)
H19 H -0.10860 0.47600 0.26320
H20 H -0.07130 0.67510 0.25910
C14 C -0.25236(13) 0.6293(2) 0.21009(8)
#END
