
#######################################################################
#
#                 Cambridge Crystallographic Data Centre
#                                CCDC
#
#######################################################################
#
# If this CIF has been generated from an entry in the Cambridge
# Structural Database, then it will include bibliographic, chemical,
# crystal, experimental, refinement or atomic coordinate data resulting
# from the CCDC's data processing and validation procedures.
#
#######################################################################

data_CSD_CIF_IQUHUY
_audit_creation_date 2011-07-18
_audit_creation_method CSD-ConQuest-V1
_database_code_CSD IQUHUY
_database_code_depnum_ccdc_archive 'CCDC 762199'
_chemical_formula_sum 'C9 H5 N1'
_chemical_formula_moiety
;
C9 H5 N1
;
_journal_coden_Cambridge 119
_journal_volume 976
_journal_year 2010
_journal_page_first 200
_journal_name_full 'J.Mol.Struct. '
loop_
_publ_author_name
"S.Mahapatra"
"Y.Azim"
"G.R.Desiraju"
_chemical_name_systematic
;
4-Ethynylcyanobenzene
;
_chemical_name_common
;
Teaching Subset: Fundamental Chemistry
;
_cell_volume    354.236
_exptl_crystal_colour 'colorless'
_exptl_crystal_density_diffrn 1.202
_exptl_crystal_description 'block'
_diffrn_ambient_temperature 298
_refine_special_details
;
The cyano and ethyne ligands have mixed occupancy and are disordered by 
symmetry.
;
#These two values have been output from a single CSD field.
_refine_ls_R_factor_gt 0.0539
_refine_ls_wR_factor_gt 0.0539
_symmetry_cell_setting monoclinic
_symmetry_space_group_name_H-M 'C 2/m'
_symmetry_Int_Tables_number 12
loop_
_symmetry_equiv_pos_site_id
_symmetry_equiv_pos_as_xyz
1 x,y,z
2 -x,y,-z
3 1/2+x,1/2+y,z
4 1/2-x,1/2+y,-z
5 -x,-y,-z
6 x,-y,z
7 -1/2-x,-1/2-y,-z
8 -1/2+x,-1/2-y,z
_cell_length_a 10.585(3)
_cell_length_b 8.558(2)
_cell_length_c 3.9106(11)
_cell_angle_alpha 90
_cell_angle_beta 90.460(19)
_cell_angle_gamma 90
_cell_formula_units_Z 2
loop_
_atom_type_symbol
_atom_type_radius_bond
C 0.68
H 0.23
N 0.68
loop_
_atom_site_label
_atom_site_type_symbol
_atom_site_fract_x
_atom_site_fract_y
_atom_site_fract_z
N1 N 0.8460(4) 0.00000 1.3826(8)
C1 C 0.7466(3) 0.00000 1.2753(7)
C2 C 0.5597(2) -0.1396(3) 1.0683(5)
C3 C 0.6221(3) 0.00000 1.1382(6)
H1 H 0.609(2) -0.233(3) 1.127(5)
C4? C 0.1540(4) 0.00000 0.6174(8)
H2? H 0.061(3) 0.00000 0.568(7)
N1A N 0.1540(4) 0.00000 0.6174(8)
C1A C 0.2534(3) 0.00000 0.7247(7)
C2A C 0.4403(2) -0.1396(3) 0.9317(5)
C2D C 0.4403(2) 0.1396(3) 0.9317(5)
C2E C 0.5597(2) 0.1396(3) 1.0683(5)
C3A C 0.3779(3) 0.00000 0.8618(6)
H1E H 0.609(2) 0.233(3) 1.127(5)
H1D H 0.391(2) 0.233(3) 0.873(5)
H1A H 0.391(2) -0.233(3) 0.873(5)
#END
