####################################################################### 
# 
# This file contains crystal structure data downloaded from the 
# Cambridge Structural Database (CSD) hosted by the Cambridge 
# Crystallographic Data Centre (CCDC).
# 
# Full information about CCDC data access policies and citation 
# guidelines are available at http://www.ccdc.cam.ac.uk/access/V1 
# 
# Audit and citation data items may have been added by the CCDC. 
# Please retain this information to preserve the provenance of 
# this file and to allow appropriate attribution of the data. 
# 
#######################################################################

data_Compound2
_audit_block_doi                 10.5517/cctt3vk
_database_code_depnum_ccdc_archive 'CCDC 768919'
loop_
_citation_id
_citation_doi
_citation_year
1 10.1016/j.poly.2010.12.030 2011
_audit_update_record             
;
2010-03-09 deposited with the CCDC.	2024-07-10 downloaded from the CCDC.
;
#TrackingRef 'Cu-ethane.cif'


_audit_creation_method           SHELXL-97
_chemical_name_systematic        
;
?
;
_chemical_name_common            ?
_chemical_melting_point          ?
_chemical_formula_moiety         ?
_chemical_formula_sum            'C40.50 H62.50 Cl2 Cu N9.50 O13.50'
_chemical_formula_weight         1032.94

loop_
_atom_type_symbol
_atom_type_description
_atom_type_scat_dispersion_real
_atom_type_scat_dispersion_imag
_atom_type_scat_source
C C 0.0181 0.0091 'International Tables Vol C Tables 4.2.6.8 and 6.1.1.4'
H H 0.0000 0.0000 'International Tables Vol C Tables 4.2.6.8 and 6.1.1.4'
N N 0.0311 0.0180 'International Tables Vol C Tables 4.2.6.8 and 6.1.1.4'
O O 0.0492 0.0322 'International Tables Vol C Tables 4.2.6.8 and 6.1.1.4'
Cu Cu -1.9646 0.5888 'International Tables Vol C Tables 4.2.6.8 and 6.1.1.4'
Cl Cl 0.3639 0.7018 'International Tables Vol C Tables 4.2.6.8 and 6.1.1.4'

_symmetry_cell_setting           monoclinic
_symmetry_space_group_name_H-M   P21/a

loop_
_symmetry_equiv_pos_as_xyz
'x, y, z'
'-x+1/2, y+1/2, -z'
'-x, -y, -z'
'x-1/2, -y-1/2, z'

_cell_length_a                   17.5449(3)
_cell_length_b                   13.3798(2)
_cell_length_c                   24.2480(4)
_cell_angle_alpha                90.00
_cell_angle_beta                 104.6180(10)
_cell_angle_gamma                90.00
_cell_volume                     5507.90(15)
_cell_formula_units_Z            4
_cell_measurement_temperature    180(2)
_cell_measurement_reflns_used    31129
_cell_measurement_theta_min      6.51
_cell_measurement_theta_max      72.04

_exptl_crystal_description       parall
_exptl_crystal_colour            purple
_exptl_crystal_size_max          0.45
_exptl_crystal_size_mid          0.18
_exptl_crystal_size_min          0.12
_exptl_crystal_density_meas      ?
_exptl_crystal_density_diffrn    1.246
_exptl_crystal_density_method    'not measured'
_exptl_crystal_F_000             2172
_exptl_absorpt_coefficient_mu    1.988
_exptl_absorpt_correction_type   empirical
_exptl_absorpt_correction_T_min  0.729
_exptl_absorpt_correction_T_max  1.000
_exptl_absorpt_process_details   'CrystalClear, Rigaku MSC, 2005'

_exptl_special_details           
;
?
;

_diffrn_ambient_temperature      180(2)
_diffrn_radiation_wavelength     1.54178
_diffrn_radiation_type           CuK\a
_diffrn_radiation_source         'fine-focus sealed tube'
_diffrn_radiation_monochromator  graphite
_diffrn_measurement_device_type  'Rigaku R-AXIS SPIDER IPDS'
_diffrn_measurement_method       '\q scans'
_diffrn_detector_area_resol_mean ?
_diffrn_standards_number         ?
_diffrn_standards_interval_count ?
_diffrn_standards_interval_time  ?
_diffrn_standards_decay_%        ?
_diffrn_reflns_number            37155
_diffrn_reflns_av_R_equivalents  0.0334
_diffrn_reflns_av_sigmaI/netI    0.0343
_diffrn_reflns_limit_h_min       -14
_diffrn_reflns_limit_h_max       20
_diffrn_reflns_limit_k_min       -15
_diffrn_reflns_limit_k_max       15
_diffrn_reflns_limit_l_min       -28
_diffrn_reflns_limit_l_max       27
_diffrn_reflns_theta_min         6.51
_diffrn_reflns_theta_max         65.00
_reflns_number_total             9180
_reflns_number_gt                7142
_reflns_threshold_expression     >2sigma(I)

_computing_data_collection       'CrystalClear, Rigaku MSC, 2005'
_computing_cell_refinement       'CrystalClear, Rigaku MSC, 2005'
_computing_data_reduction        'CrystalClear, Rigaku MSC, 2005'
_computing_structure_solution    'SHELXS-97 (Sheldrick, 1997)'
_computing_structure_refinement  'SHELXL-97 (Sheldrick, 1997)'
_computing_molecular_graphics    'Diamond 3.1'
_computing_publication_material  ?

_refine_special_details          
;
Refinement of F^2^ against ALL reflections. The weighted R-factor wR and
goodness of fit S are based on F^2^, conventional R-factors R are based
on F, with F set to zero for negative F^2^. The threshold expression of
F^2^ > 2sigma(F^2^) is used only for calculating R-factors(gt) etc. and is
not relevant to the choice of reflections for refinement. R-factors based
on F^2^ are statistically about twice as large as those based on F, and R-
factors based on ALL data will be even larger.
;

_refine_ls_structure_factor_coef Fsqd
_refine_ls_matrix_type           full
_refine_ls_weighting_scheme      calc
_refine_ls_weighting_details     
'calc w=1/[\s^2^(Fo^2^)+(0.1720P)^2^+1.6600P] where P=(Fo^2^+2Fc^2^)/3'
_atom_sites_solution_primary     direct
_atom_sites_solution_secondary   difmap
_atom_sites_solution_hydrogens   geom
_refine_ls_hydrogen_treatment    mixed
_refine_ls_extinction_method     none
_refine_ls_extinction_coef       ?
_refine_ls_number_reflns         9180
_refine_ls_number_parameters     762
_refine_ls_number_restraints     30
_refine_ls_R_factor_all          0.0834
_refine_ls_R_factor_gt           0.0716
_refine_ls_wR_factor_ref         0.2524
_refine_ls_wR_factor_gt          0.2336
_refine_ls_goodness_of_fit_ref   1.102
_refine_ls_restrained_S_all      1.110
_refine_ls_shift/su_max          0.008
_refine_ls_shift/su_mean         0.001

loop_
_atom_site_label
_atom_site_type_symbol
_atom_site_fract_x
_atom_site_fract_y
_atom_site_fract_z
_atom_site_U_iso_or_equiv
_atom_site_adp_type
_atom_site_occupancy
_atom_site_symmetry_multiplicity
_atom_site_calc_flag
_atom_site_refinement_flags
_atom_site_disorder_assembly
_atom_site_disorder_group
Cu Cu 0.24590(2) 0.55928(3) 0.250816(16) 0.0331(2) Uani 1 1 d . . .
N1 N 0.24567(13) 0.7119(2) 0.25595(10) 0.0317(6) Uani 1 1 d . . .
N2 N 0.24602(14) 1.4078(2) 0.24433(11) 0.0373(7) Uani 1 1 d . . .
C1 C 0.23988(19) 0.7589(2) 0.30389(14) 0.0370(7) Uani 1 1 d . . .
C2 C 0.2408(2) 0.8613(2) 0.30929(15) 0.0401(8) Uani 1 1 d . . .
C3 C 0.24851(18) 0.9207(3) 0.26352(15) 0.0370(7) Uani 1 1 d . . .
C4 C 0.2535(2) 0.8719(2) 0.21463(15) 0.0387(8) Uani 1 1 d . . .
C5 C 0.25272(19) 0.7694(2) 0.21228(14) 0.0356(7) Uani 1 1 d . . .
C6 C 0.2499(2) 1.0334(3) 0.26980(18) 0.0454(8) Uani 1 1 d . . .
C7 C 0.2507(3) 1.0918(3) 0.21544(17) 0.0490(9) Uani 1 1 d . . .
C8 C 0.2493(2) 1.2015(3) 0.22551(16) 0.0458(8) Uani 1 1 d . . .
C9 C 0.3176(2) 1.2544(3) 0.25055(18) 0.0498(9) Uani 1 1 d . . .
C10 C 0.3139(2) 1.3556(3) 0.25955(16) 0.0449(9) Uani 1 1 d . . .
C11 C 0.1801(2) 1.3567(3) 0.22075(16) 0.0451(9) Uani 1 1 d . . .
C12 C 0.1794(2) 1.2555(3) 0.21129(17) 0.0486(9) Uani 1 1 d . . .
N21 N 0.31554(17) 0.55193(19) 0.33058(12) 0.0372(7) Uani 1 1 d . . .
C21 C 0.2929(2) 0.5037(3) 0.37211(16) 0.0466(9) Uani 1 1 d . . .
C22 C 0.3390(2) 0.4975(3) 0.42705(16) 0.0533(10) Uani 1 1 d . . .
C23 C 0.4122(2) 0.5442(3) 0.44094(15) 0.0484(9) Uani 1 1 d . . .
C24 C 0.4348(2) 0.5942(3) 0.39841(16) 0.0505(10) Uani 1 1 d . . .
C25 C 0.3862(2) 0.5972(3) 0.34452(15) 0.0437(8) Uani 1 1 d . . .
C26 C 0.4658(3) 0.5357(4) 0.49990(17) 0.0619(12) Uani 1 1 d . . .
H26A H 0.4355 0.5106 0.5264 0.080 Uiso 1 1 calc R . .
H26B H 0.4868 0.6025 0.5132 0.080 Uiso 1 1 calc R . .
N31 N 0.17924(16) 0.56521(18) 0.16936(12) 0.0360(7) Uani 1 1 d . . .
C31 C 0.1049(2) 0.5981(3) 0.15756(16) 0.0455(9) Uani 1 1 d . . .
C32 C 0.0556(2) 0.5950(3) 0.10338(16) 0.0513(10) Uani 1 1 d . . .
C33 C 0.0821(2) 0.5566(3) 0.05928(15) 0.0484(10) Uani 1 1 d . . .
C34 C 0.1590(2) 0.5225(3) 0.07135(16) 0.0519(10) Uani 1 1 d . . .
C35 C 0.2055(2) 0.5284(3) 0.12593(15) 0.0464(9) Uani 1 1 d . . .
C36 C 0.0281(3) 0.5441(4) 0.00073(18) 0.0563(11) Uani 1 1 d . . .
O41 O 0.13058(15) 0.5476(2) 0.28527(12) 0.0504(7) Uani 1 1 d . . .
C41 C 0.0869(3) 0.5959(4) 0.30612(19) 0.0601(11) Uani 1 1 d . . .
N41 N 0.0099(2) 0.5879(3) 0.29456(18) 0.0703(11) Uani 1 1 d . . .
C42 C -0.0327(3) 0.5140(6) 0.2541(3) 0.109(2) Uani 1 1 d . . .
H42A H -0.0657 0.4733 0.2725 0.141 Uiso 1 1 calc R . .
H42B H 0.0050 0.4709 0.2418 0.141 Uiso 1 1 calc R . .
H42C H -0.0660 0.5483 0.2210 0.141 Uiso 1 1 calc R . .
C43 C -0.0365(4) 0.6533(6) 0.3203(4) 0.125(3) Uani 1 1 d . . .
H43A H -0.0834 0.6748 0.2914 0.163 Uiso 1 1 calc R . .
H43B H -0.0051 0.7120 0.3361 0.163 Uiso 1 1 calc R . .
H43C H -0.0525 0.6177 0.3508 0.163 Uiso 1 1 calc R . .
O51 O 0.36406(15) 0.55844(19) 0.21442(12) 0.0483(6) Uani 1 1 d . . .
C51 C 0.4090(2) 0.6094(3) 0.19578(18) 0.0531(10) Uani 1 1 d . . .
N51 N 0.48614(19) 0.5999(3) 0.20759(18) 0.0660(10) Uani 1 1 d . . .
C52 C 0.5353(3) 0.6657(5) 0.1853(3) 0.108(2) Uani 1 1 d . . .
H52A H 0.5804 0.6864 0.2161 0.140 Uiso 1 1 calc R . .
H52B H 0.5050 0.7248 0.1688 0.140 Uiso 1 1 calc R . .
H52C H 0.5543 0.6310 0.1558 0.140 Uiso 1 1 calc R . .
C53 C 0.5275(3) 0.5222(5) 0.2457(3) 0.096(2) Uani 1 1 d . . .
H53A H 0.5583 0.4812 0.2257 0.124 Uiso 1 1 calc R . .
H53B H 0.4891 0.4799 0.2579 0.124 Uiso 1 1 calc R . .
H53C H 0.5628 0.5531 0.2792 0.124 Uiso 1 1 calc R . .
Cl1 Cl 0.31443(7) 0.85010(9) 0.07321(5) 0.0661(3) Uani 1 1 d . . .
O11 O 0.2005(3) 0.7005(3) 0.43230(18) 0.1091(14) Uani 1 1 d . . .
O12 O 0.1085(3) 0.7714(4) 0.4768(2) 0.1378(19) Uani 1 1 d . . .
O13 O 0.2157(4) 0.8617(5) 0.4660(3) 0.174(3) Uani 1 1 d . . .
O14 O 0.1181(3) 0.8270(4) 0.3886(2) 0.1137(15) Uani 1 1 d . . .
Cl2 Cl 0.16100(8) 0.78681(10) 0.44280(5) 0.0761(4) Uani 1 1 d . . .
O15 O 0.3746(3) 0.8387(5) 0.1239(2) 0.146(2) Uani 1 1 d . . .
O16 O 0.2901(4) 0.9483(5) 0.0798(4) 0.202(3) Uani 1 1 d . . .
O17 O 0.3448(4) 0.8417(4) 0.0259(2) 0.1389(19) Uani 1 1 d . . .
O18 O 0.2543(4) 0.7860(5) 0.0750(2) 0.181(3) Uani 1 1 d . . .
O61 O 0.4926(3) 0.1675(4) 0.1681(3) 0.145(2) Uani 1 1 d . . .
N61 N 0.3799(3) 0.2304(4) 0.1164(2) 0.0884(13) Uani 1 1 d . . .
C61 C 0.4285(3) 0.1594(5) 0.1376(3) 0.0890(16) Uani 1 1 d . . .
H61 H 0.4107 0.0931 0.1277 0.116 Uiso 1 1 calc R . .
C62 C 0.3057(5) 0.2045(9) 0.0800(4) 0.175(4) Uani 1 1 d . . .
H62A H 0.2966 0.2439 0.0449 0.227 Uiso 1 1 calc R . .
H62B H 0.2641 0.2187 0.0993 0.227 Uiso 1 1 calc R . .
H62C H 0.3053 0.1332 0.0708 0.227 Uiso 1 1 calc R . .
C63 C 0.4027(6) 0.3326(6) 0.1307(4) 0.176(4) Uani 1 1 d . . .
H63A H 0.3893 0.3737 0.0961 0.229 Uiso 1 1 calc R . .
H63B H 0.4597 0.3357 0.1476 0.229 Uiso 1 1 calc R . .
H63C H 0.3748 0.3578 0.1581 0.229 Uiso 1 1 calc R . .
O71 O 0.5734(3) 0.4586(5) 0.1113(3) 0.135(2) Uani 1 1 d D . .
C71 C 0.5995(4) 0.4723(6) 0.0711(4) 0.109(2) Uani 1 1 d D . .
H71 H 0.6314 0.5300 0.0720 0.142 Uiso 1 1 calc R . .
N71 N 0.5882(3) 0.4146(4) 0.0250(3) 0.1014(15) Uani 1 1 d D . .
C72 C 0.5371(6) 0.3284(6) 0.0193(4) 0.176(4) Uani 1 1 d D . .
H72A H 0.5500 0.2813 -0.0079 0.229 Uiso 1 1 calc R . .
H72B H 0.4821 0.3498 0.0056 0.229 Uiso 1 1 calc R . .
H72C H 0.5445 0.2957 0.0565 0.229 Uiso 1 1 calc R . .
C73 C 0.6227(4) 0.4363(6) -0.0236(3) 0.123(2) Uani 1 1 d D . .
H73A H 0.6509 0.3772 -0.0319 0.160 Uiso 1 1 calc R . .
H73B H 0.6595 0.4925 -0.0138 0.160 Uiso 1 1 calc R . .
H73C H 0.5805 0.4535 -0.0572 0.160 Uiso 1 1 calc R . .
O81 O -0.0018(6) 0.1543(10) 0.3358(7) 0.096(5) Uani 0.30 1 d PD . .
C81 C 0.0541(9) 0.1979(15) 0.3368(7) 0.239(15) Uani 0.50 1 d PD . .
N81 N 0.1306(5) 0.1905(7) 0.3677(4) 0.083(3) Uani 0.50 1 d PD . .
C82 C 0.1862(9) 0.2719(9) 0.3626(5) 0.122(5) Uani 0.50 1 d PD . .
C83 C 0.1658(12) 0.1086(10) 0.4061(6) 0.153(8) Uani 0.50 1 d PD . .
O82 O 0.235(2) 0.157(3) 0.4029(11) 0.184(15) Uani 0.20 1 d PU . .
O91 O -0.0627(8) 0.4184(11) 0.3772(6) 0.159(5) Uani 0.50 1 d PD . .
C91 C -0.0316(9) 0.3770(13) 0.4220(7) 0.176(11) Uani 0.50 1 d PD . .
N91 N 0.0380(7) 0.3918(8) 0.4559(5) 0.123(5) Uani 0.50 1 d PD . .
C92 C 0.0922(8) 0.4699(9) 0.4447(6) 0.219(6) Uani 1 1 d D . .
C93 C 0.0769(6) 0.3381(8) 0.5140(5) 0.201(5) Uani 1 1 d D . .
N92 N 0.1084(8) 0.4346(12) 0.5048(7) 0.133(4) Uani 0.50 1 d P . .
C94 C 0.1267(13) 0.5144(15) 0.561(3) 0.39(4) Uani 0.50 1 d P . .
O92 O 0.095(6) 0.517(4) 0.5979(18) 0.79(8) Uani 0.50 1 d P . .
H1 H 0.2293(19) 0.711(3) 0.3385(14) 0.040(9) Uiso 1 1 d . . .
H2 H 0.234(2) 0.891(3) 0.3509(15) 0.045(9) Uiso 1 1 d . . .
H4 H 0.265(2) 0.917(3) 0.1847(16) 0.050(10) Uiso 1 1 d . . .
H5 H 0.251(2) 0.736(3) 0.1781(19) 0.063(12) Uiso 1 1 d . . .
H6A H 0.202(3) 1.055(3) 0.2784(19) 0.069(14) Uiso 1 1 d . . .
H6B H 0.300(3) 1.045(3) 0.305(2) 0.066(13) Uiso 1 1 d . . .
H7A H 0.206(2) 1.073(3) 0.1878(19) 0.050(11) Uiso 1 1 d . . .
H7B H 0.301(3) 1.085(4) 0.199(2) 0.075(14) Uiso 1 1 d . . .
H9 H 0.369(2) 1.213(3) 0.2645(17) 0.060(11) Uiso 1 1 d . . .
H10 H 0.361(2) 1.395(3) 0.2755(14) 0.034(8) Uiso 1 1 d . . .
H11 H 0.130(2) 1.392(3) 0.2115(16) 0.048(10) Uiso 1 1 d . . .
H12 H 0.131(3) 1.215(4) 0.197(2) 0.095(16) Uiso 1 1 d . . .
H21 H 0.251(2) 0.475(3) 0.3595(17) 0.051(12) Uiso 1 1 d . . .
H22 H 0.320(2) 0.453(3) 0.452(2) 0.067(13) Uiso 1 1 d . . .
H24 H 0.481(2) 0.630(3) 0.4069(16) 0.047(10) Uiso 1 1 d . . .
H25 H 0.404(2) 0.627(3) 0.3125(16) 0.043(10) Uiso 1 1 d . . .
H31 H 0.091(2) 0.621(3) 0.1877(18) 0.047(11) Uiso 1 1 d . . .
H32 H 0.003(3) 0.618(4) 0.098(2) 0.082(16) Uiso 1 1 d . . .
H34 H 0.189(3) 0.502(3) 0.040(2) 0.068(13) Uiso 1 1 d . . .
H35 H 0.258(2) 0.512(3) 0.1357(16) 0.045(10) Uiso 1 1 d . . .
H36A H -0.002(2) 0.592(3) -0.0051(17) 0.048(12) Uiso 1 1 d . . .
H36B H 0.059(2) 0.533(3) -0.029(2) 0.068(13) Uiso 1 1 d . . .
H41 H 0.117(4) 0.655(5) 0.337(3) 0.11(2) Uiso 1 1 d . . .
H51 H 0.386(3) 0.659(4) 0.1672(19) 0.066(13) Uiso 1 1 d . . .

loop_
_atom_site_aniso_label
_atom_site_aniso_U_11
_atom_site_aniso_U_22
_atom_site_aniso_U_33
_atom_site_aniso_U_23
_atom_site_aniso_U_13
_atom_site_aniso_U_12
Cu 0.0411(4) 0.0169(3) 0.0315(3) 0.00013(15) -0.0088(2) -0.00014(16)
N1 0.0370(15) 0.0202(14) 0.0322(14) 0.0004(9) -0.0021(11) 0.0005(9)
N2 0.0434(16) 0.0193(15) 0.0425(16) -0.0002(10) -0.0017(12) -0.0009(10)
C1 0.0416(18) 0.0273(18) 0.0373(17) -0.0011(13) 0.0013(14) -0.0017(13)
C2 0.050(2) 0.0237(18) 0.0431(18) -0.0043(13) 0.0048(15) -0.0006(13)
C3 0.0383(18) 0.0225(17) 0.0460(17) -0.0017(14) 0.0026(13) 0.0002(12)
C4 0.0464(19) 0.0257(18) 0.0409(18) 0.0032(14) 0.0052(14) 0.0010(13)
C5 0.0430(18) 0.0252(17) 0.0333(16) -0.0005(13) 0.0000(13) 0.0019(13)
C6 0.058(2) 0.0211(18) 0.056(2) -0.0052(16) 0.0123(17) -0.0013(15)
C7 0.071(3) 0.0202(18) 0.053(2) -0.0019(15) 0.010(2) -0.0001(17)
C8 0.061(2) 0.0226(18) 0.050(2) 0.0005(15) 0.0073(16) -0.0004(15)
C9 0.048(2) 0.026(2) 0.070(2) 0.0053(16) 0.0069(18) 0.0066(15)
C10 0.043(2) 0.0288(19) 0.056(2) 0.0042(15) -0.0005(16) 0.0027(14)
C11 0.044(2) 0.0271(19) 0.057(2) -0.0024(15) -0.0009(16) 0.0002(14)
C12 0.054(2) 0.0254(19) 0.058(2) -0.0019(15) -0.0011(17) -0.0062(15)
N21 0.0422(16) 0.0255(15) 0.0343(14) 0.0043(10) -0.0084(12) -0.0012(11)
C21 0.044(2) 0.043(2) 0.0428(19) 0.0119(16) -0.0066(16) -0.0069(16)
C22 0.057(2) 0.058(3) 0.0381(19) 0.0138(18) -0.0011(17) 0.0048(19)
C23 0.052(2) 0.048(2) 0.0332(18) 0.0031(15) -0.0115(16) 0.0083(17)
C24 0.047(2) 0.048(2) 0.043(2) 0.0011(17) -0.0125(16) -0.0077(18)
C25 0.045(2) 0.036(2) 0.0397(18) 0.0066(15) -0.0078(15) -0.0063(15)
C26 0.065(3) 0.071(3) 0.036(2) 0.0002(19) -0.0128(18) 0.016(2)
N31 0.0427(16) 0.0208(14) 0.0345(14) -0.0031(10) -0.0086(12) 0.0023(10)
C31 0.053(2) 0.038(2) 0.0363(18) -0.0063(15) -0.0066(15) 0.0106(16)
C32 0.051(2) 0.047(2) 0.043(2) -0.0040(17) -0.0128(16) 0.0092(18)
C33 0.061(2) 0.037(2) 0.0345(19) -0.0054(14) -0.0108(17) -0.0029(16)
C34 0.053(2) 0.057(3) 0.0393(19) -0.0105(17) -0.0012(17) 0.0001(18)
C35 0.045(2) 0.047(2) 0.0395(19) -0.0103(16) -0.0033(16) 0.0009(16)
C36 0.063(3) 0.055(3) 0.036(2) -0.0006(18) -0.015(2) -0.002(2)
O41 0.0398(14) 0.0561(17) 0.0534(15) -0.0024(12) 0.0080(12) 0.0049(11)
C41 0.054(3) 0.062(3) 0.058(2) 0.000(2) 0.004(2) -0.001(2)
N41 0.0404(19) 0.078(3) 0.090(3) -0.015(2) 0.0123(18) -0.0071(18)
C42 0.071(4) 0.120(6) 0.124(5) -0.033(4) 0.004(3) -0.006(3)
C43 0.076(4) 0.104(5) 0.192(8) -0.061(5) 0.028(4) 0.005(3)
O51 0.0425(14) 0.0474(17) 0.0524(15) 0.0011(11) 0.0071(12) -0.0057(11)
C51 0.053(2) 0.044(2) 0.055(2) -0.0010(18) -0.0013(18) -0.0036(18)
N51 0.0416(19) 0.050(2) 0.103(3) 0.009(2) 0.0108(18) -0.0061(15)
C52 0.068(3) 0.083(4) 0.179(7) 0.037(4) 0.043(4) -0.009(3)
C53 0.054(3) 0.076(4) 0.146(6) 0.029(4) 0.005(3) 0.009(3)
Cl1 0.0709(7) 0.0672(8) 0.0618(6) 0.0132(5) 0.0195(5) -0.0005(5)
O11 0.144(4) 0.091(3) 0.096(3) -0.006(2) 0.037(2) 0.041(3)
O12 0.155(4) 0.148(4) 0.144(4) 0.038(3) 0.101(4) 0.024(3)
O13 0.173(5) 0.156(6) 0.208(6) -0.109(5) 0.076(5) -0.070(4)
O14 0.117(3) 0.117(4) 0.121(3) 0.042(3) 0.057(3) 0.041(3)
Cl2 0.0863(8) 0.0704(8) 0.0810(8) -0.0150(6) 0.0384(6) -0.0004(6)
O15 0.089(3) 0.232(7) 0.111(4) 0.059(4) 0.013(3) -0.003(3)
O16 0.226(7) 0.126(5) 0.289(9) 0.069(5) 0.131(7) 0.091(5)
O17 0.205(5) 0.138(4) 0.102(3) 0.002(3) 0.093(4) -0.039(4)
O18 0.205(