####################################################################### 
# 
# This file contains crystal structure data downloaded from the 
# Cambridge Structural Database (CSD) hosted by the Cambridge 
# Crystallographic Data Centre (CCDC).
# 
# Full information about CCDC data access policies and citation 
# guidelines are available at http://www.ccdc.cam.ac.uk/access/V1 
# 
# Audit and citation data items may have been added by the CCDC. 
# Please retain this information to preserve the provenance of 
# this file and to allow appropriate attribution of the data. 
# 
#######################################################################

data_Compound5
_audit_block_doi                 10.5517/cctt3xm
_database_code_depnum_ccdc_archive 'CCDC 768921'
loop_
_citation_id
_citation_doi
_citation_year
1 10.1016/j.poly.2010.12.030 2011
_audit_update_record             
;
2010-03-09 deposited with the CCDC.	2024-07-10 downloaded from the CCDC.
;
#TrackingRef 'Cu-ethane.cif'


_audit_creation_method           SHELXL-97
_chemical_name_systematic        
;
?
;
_chemical_name_common            ?
_chemical_melting_point          ?
_chemical_formula_moiety         ?
_chemical_formula_sum            'C20 H25.40 Cu2 N2 O8.70'
_chemical_formula_weight         560.10

loop_
_atom_type_symbol
_atom_type_description
_atom_type_scat_dispersion_real
_atom_type_scat_dispersion_imag
_atom_type_scat_source
C C 0.0033 0.0016 'International Tables Vol C Tables 4.2.6.8 and 6.1.1.4'
H H 0.0000 0.0000 'International Tables Vol C Tables 4.2.6.8 and 6.1.1.4'
N N 0.0061 0.0033 'International Tables Vol C Tables 4.2.6.8 and 6.1.1.4'
O O 0.0106 0.0060 'International Tables Vol C Tables 4.2.6.8 and 6.1.1.4'
Cu Cu 0.3201 1.2651 'International Tables Vol C Tables 4.2.6.8 and 6.1.1.4'

_symmetry_cell_setting           monoclinic
_symmetry_space_group_name_H-M   C2/c

loop_
_symmetry_equiv_pos_as_xyz
'x, y, z'
'-x, y, -z+1/2'
'x+1/2, y+1/2, z'
'-x+1/2, y+1/2, -z+1/2'
'-x, -y, -z'
'x, -y, z-1/2'
'-x+1/2, -y+1/2, -z'
'x+1/2, -y+1/2, z-1/2'

_cell_length_a                   25.200(10)
_cell_length_b                   13.162(6)
_cell_length_c                   8.828(5)
_cell_angle_alpha                90.00
_cell_angle_beta                 93.85(2)
_cell_angle_gamma                90.00
_cell_volume                     2921(2)
_cell_formula_units_Z            4
_cell_measurement_temperature    298
_cell_measurement_reflns_used    25
_cell_measurement_theta_min      5.5
_cell_measurement_theta_max      11.0

_exptl_crystal_description       parall
_exptl_crystal_colour            green
_exptl_crystal_size_max          0.55
_exptl_crystal_size_mid          0.10
_exptl_crystal_size_min          0.10
_exptl_crystal_density_meas      ?
_exptl_crystal_density_diffrn    1.273
_exptl_crystal_density_method    'not measured'
_exptl_crystal_F_000             1148
_exptl_absorpt_coefficient_mu    1.496
_exptl_absorpt_correction_type   none
_exptl_absorpt_correction_T_min  ?
_exptl_absorpt_correction_T_max  ?
_exptl_absorpt_process_details   ?

_exptl_special_details           
;
?
;

_diffrn_ambient_temperature      298
_diffrn_radiation_wavelength     0.71073
_diffrn_radiation_type           MoK\a
_diffrn_radiation_source         'fine-focus sealed tube'
_diffrn_radiation_monochromator  graphite
_diffrn_measurement_device_type  'Crystal Logic Dual Goniometer'
_diffrn_measurement_method       '\q/2\q scans'
_diffrn_detector_area_resol_mean ?
_diffrn_standards_number         3
_diffrn_standards_interval_count 97
_diffrn_standards_interval_time  ?
_diffrn_standards_decay_%        -0.9
_diffrn_reflns_number            2756
_diffrn_reflns_av_R_equivalents  0.0171
_diffrn_reflns_av_sigmaI/netI    0.0576
_diffrn_reflns_limit_h_min       -29
_diffrn_reflns_limit_h_max       29
_diffrn_reflns_limit_k_min       -15
_diffrn_reflns_limit_k_max       0
_diffrn_reflns_limit_l_min       0
_diffrn_reflns_limit_l_max       10
_diffrn_reflns_theta_min         2.85
_diffrn_reflns_theta_max         25.04
_reflns_number_total             2573
_reflns_number_gt                2046
_reflns_threshold_expression     >2sigma(I)

_computing_data_collection       ?
_computing_cell_refinement       ?
_computing_data_reduction        ?
_computing_structure_solution    'SHELXS-97 (Sheldrick, 1997)'
_computing_structure_refinement  'SHELXL-97 (Sheldrick, 1997)'
_computing_molecular_graphics    ?
_computing_publication_material  ?

_refine_special_details          
;
Refinement of F^2^ against ALL reflections. The weighted R-factor wR and
goodness of fit S are based on F^2^, conventional R-factors R are based
on F, with F set to zero for negative F^2^. The threshold expression of
F^2^ > 2sigma(F^2^) is used only for calculating R-factors(gt) etc. and is
not relevant to the choice of reflections for refinement. R-factors based
on F^2^ are statistically about twice as large as those based on F, and R-
factors based on ALL data will be even larger.
;

_refine_ls_structure_factor_coef Fsqd
_refine_ls_matrix_type           full
_refine_ls_weighting_scheme      calc
_refine_ls_weighting_details     
'calc w=1/[\s^2^(Fo^2^)+(0.0691P)^2^+14.3472P] where P=(Fo^2^+2Fc^2^)/3'
_atom_sites_solution_primary     direct
_atom_sites_solution_secondary   difmap
_atom_sites_solution_hydrogens   geom
_refine_ls_hydrogen_treatment    constr
_refine_ls_extinction_method     none
_refine_ls_extinction_coef       ?
_refine_ls_number_reflns         2573
_refine_ls_number_parameters     151
_refine_ls_number_restraints     0
_refine_ls_R_factor_all          0.0748
_refine_ls_R_factor_gt           0.0538
_refine_ls_wR_factor_ref         0.1656
_refine_ls_wR_factor_gt          0.1485
_refine_ls_goodness_of_fit_ref   1.102
_refine_ls_restrained_S_all      1.102
_refine_ls_shift/su_max          0.008
_refine_ls_shift/su_mean         0.000

loop_
_atom_site_label
_atom_site_type_symbol
_atom_site_fract_x
_atom_site_fract_y
_atom_site_fract_z
_atom_site_U_iso_or_equiv
_atom_site_adp_type
_atom_site_occupancy
_atom_site_symmetry_multiplicity
_atom_site_calc_flag
_atom_site_refinement_flags
_atom_site_disorder_assembly
_atom_site_disorder_group
Cu1 Cu 0.29227(2) 0.28302(5) 0.08152(7) 0.0361(2) Uani 1 1 d . . .
O1 O 0.32291(17) 0.3004(4) -0.1170(5) 0.0583(12) Uani 1 1 d . . .
O2 O 0.25128(17) 0.2467(4) -0.2528(5) 0.0542(11) Uani 1 1 d . . .
O3 O 0.25600(17) 0.4151(3) 0.0532(5) 0.0573(11) Uani 1 1 d . . .
O4 O 0.18427(17) 0.3601(3) -0.0840(5) 0.0573(11) Uani 1 1 d . . .
N1 N 0.35834(16) 0.3454(3) 0.2250(5) 0.0393(10) Uani 1 1 d . . .
C1 C 0.2974(2) 0.2812(4) -0.2402(6) 0.0464(13) Uani 1 1 d . . .
C2 C 0.3242(3) 0.3025(6) -0.3843(7) 0.069(2) Uani 1 1 d . . .
H2A H 0.3059 0.2670 -0.4671 0.090 Uiso 1 1 calc R . .
H2B H 0.3604 0.2800 -0.3731 0.090 Uiso 1 1 calc R . .
H2C H 0.3232 0.3742 -0.4045 0.090 Uiso 1 1 calc R . .
C3 C 0.2125(2) 0.4288(4) -0.0192(7) 0.0478(14) Uani 1 1 d . . .
C4 C 0.1919(3) 0.5367(6) -0.0316(11) 0.089(3) Uani 1 1 d . . .
H4A H 0.1537 0.5359 -0.0399 0.116 Uiso 1 1 calc R . .
H4B H 0.2048 0.5684 -0.1200 0.116 Uiso 1 1 calc R . .
H4C H 0.2042 0.5741 0.0573 0.116 Uiso 1 1 calc R . .
C5 C 0.4016(2) 0.2916(5) 0.2649(7) 0.0483(14) Uani 1 1 d . . .
H5 H 0.4051 0.2273 0.2232 0.063 Uiso 1 1 calc R . .
C6 C 0.4417(2) 0.3276(5) 0.3664(7) 0.0458(13) Uani 1 1 d . . .
H6 H 0.4712 0.2872 0.3925 0.060 Uiso 1 1 calc R . .
C7 C 0.4379(2) 0.4234(5) 0.4288(6) 0.0401(12) Uani 1 1 d . . .
C8 C 0.3931(2) 0.4791(4) 0.3868(6) 0.0423(13) Uani 1 1 d . . .
H8 H 0.3889 0.5442 0.4252 0.055 Uiso 1 1 calc R . .
C9 C 0.3543(2) 0.4373(4) 0.2866(6) 0.0419(13) Uani 1 1 d . . .
H9 H 0.3240 0.4754 0.2610 0.054 Uiso 1 1 calc R . .
C10 C 0.4809(2) 0.4661(5) 0.5378(6) 0.0514(16) Uani 1 1 d . . .
H10A H 0.4645 0.5044 0.6162 0.067 Uiso 1 1 calc R . .
H10B H 0.5006 0.4104 0.5867 0.067 Uiso 1 1 calc R . .
O1W O 0.5000 0.091(4) 0.2500 0.210(17) Uiso 0.40 2 d SP . .
O2W O 0.5000 0.928(5) 0.2500 0.23(3) Uiso 0.30 2 d SP . .

loop_
_atom_site_aniso_label
_atom_site_aniso_U_11
_atom_site_aniso_U_22
_atom_site_aniso_U_33
_atom_site_aniso_U_23
_atom_site_aniso_U_13
_atom_site_aniso_U_12
Cu1 0.0342(4) 0.0409(4) 0.0313(4) 0.0002(3) -0.0101(2) -0.0125(3)
O1 0.052(2) 0.081(3) 0.041(2) 0.000(2) 0.0002(18) -0.030(2)
O2 0.054(2) 0.075(3) 0.0324(19) -0.0017(19) -0.0039(16) -0.024(2)
O3 0.057(3) 0.042(2) 0.069(3) 0.001(2) -0.027(2) -0.0054(19)
O4 0.051(2) 0.048(2) 0.070(3) -0.002(2) -0.022(2) -0.002(2)
N1 0.034(2) 0.042(2) 0.040(2) 0.000(2) -0.0102(18) -0.0133(19)
C1 0.056(4) 0.045(3) 0.039(3) -0.002(3) 0.004(3) -0.010(3)
C2 0.086(5) 0.079(5) 0.045(4) -0.004(3) 0.020(3) -0.030(4)
C3 0.053(3) 0.038(3) 0.051(3) 0.003(3) -0.006(3) -0.002(3)
C4 0.085(6) 0.051(4) 0.126(8) 0.000(5) -0.026(5) 0.009(4)
C5 0.040(3) 0.048(3) 0.055(3) -0.012(3) -0.014(2) 0.001(3)
C6 0.033(3) 0.054(3) 0.048(3) 0.004(3) -0.013(2) -0.001(2)
C7 0.034(3) 0.059(3) 0.027(2) 0.001(2) -0.005(2) -0.019(2)
C8 0.041(3) 0.047(3) 0.038(3) -0.007(2) -0.008(2) -0.017(2)
C9 0.036(3) 0.047(3) 0.041(3) 0.002(2) -0.011(2) -0.006(2)
C10 0.043(3) 0.075(4) 0.034(3) -0.003(3) -0.011(2) -0.027(3)

_geom_special_details            
;
All esds (except the esd in the dihedral angle between two l.s. planes)
are estimated using the full covariance matrix. The cell esds are taken
into account individually in the estimation of esds in distances, angles
and torsion angles; correlations between esds in cell parameters are only
used when they are defined by crystal symmetry. An approximate (isotropic)
treatment of cell esds is used for estimating esds involving l.s. planes.
;

loop_
_geom_bond_atom_site_label_1
_geom_bond_atom_site_label_2
_geom_bond_distance
_geom_bond_site_symmetry_2
_geom_bond_publ_flag
Cu1 O2 1.966(4) 7 ?
Cu1 O3 1.972(4) . ?
Cu1 O4 1.974(4) 7 ?
Cu1 O1 1.976(4) . ?
Cu1 N1 2.184(4) . ?
Cu1 Cu1 2.6372(14) 7 ?
O1 C1 1.251(7) . ?
O2 C1 1.246(7) . ?
O2 Cu1 1.966(4) 7 ?
O3 C3 1.243(7) . ?
O4 C3 1.264(7) . ?
O4 Cu1 1.974(4) 7 ?
N1 C5 1.327(7) . ?
N1 C9 1.332(7) . ?
C1 C2 1.505(8) . ?
C2 H2A 0.9600 . ?
C2 H2B 0.9600 . ?
C2 H2C 0.9600 . ?
C3 C4 1.514(9) . ?
C4 H4A 0.9600 . ?
C4 H4B 0.9600 . ?
C4 H4C 0.9600 . ?
C5 C6 1.389(7) . ?
C5 H5 0.9300 . ?
C6 C7 1.382(8) . ?
C6 H6 0.9300 . ?
C7 C8 1.375(8) . ?
C7 C10 1.510(7) . ?
C8 C9 1.387(7) . ?
C8 H8 0.9300 . ?
C9 H9 0.9300 . ?
C10 C10 1.500(11) 5_666 ?
C10 H10A 0.9700 . ?
C10 H10B 0.9700 . ?

loop_
_geom_angle_atom_site_label_1
_geom_angle_atom_site_label_2
_geom_angle_atom_site_label_3
_geom_angle
_geom_angle_site_symmetry_1
_geom_angle_site_symmetry_3
_geom_angle_publ_flag
O2 Cu1 O3 89.7(2) 7 . ?
O2 Cu1 O4 89.1(2) 7 7 ?
O3 Cu1 O4 168.10(16) . 7 ?
O2 Cu1 O1 167.65(16) 7 . ?
O3 Cu1 O1 89.5(2) . . ?
O4 Cu1 O1 89.2(2) 7 . ?
O2 Cu1 N1 94.13(17) 7 . ?
O3 Cu1 N1 94.05(17) . . ?
O4 Cu1 N1 97.84(17) 7 . ?
O1 Cu1 N1 98.22(17) . . ?
O2 Cu1 Cu1 83.22(13) 7 7 ?
O3 Cu1 Cu1 82.57(12) . 7 ?
O4 Cu1 Cu1 85.52(12) 7 7 ?
O1 Cu1 Cu1 84.46(12) . 7 ?
N1 Cu1 Cu1 175.70(13) . 7 ?
C1 O1 Cu1 122.6(4) . . ?
C1 O2 Cu1 124.7(4) . 7 ?
C3 O3 Cu1 125.2(4) . . ?
C3 O4 Cu1 121.2(4) . 7 ?
C5 N1 C9 117.4(4) . . ?
C5 N1 Cu1 122.2(4) . . ?
C9 N1 Cu1 120.2(3) . . ?
O2 C1 O1 124.9(5) . . ?
O2 C1 C2 117.4(5) . . ?
O1 C1 C2 117.6(5) . . ?
C1 C2 H2A 109.5 . . ?
C1 C2 H2B 109.5 . . ?
H2A C2 H2B 109.5 . . ?
C1 C2 H2C 109.5 . . ?
H2A C2 H2C 109.5 . . ?
H2B C2 H2C 109.5 . . ?
O3 C3 O4 125.5(6) . . ?
O3 C3 C4 117.3(6) . . ?
O4 C3 C4 117.2(5) . . ?
C3 C4 H4A 109.5 . . ?
C3 C4 H4B 109.5 . . ?
H4A C4 H4B 109.5 . . ?
C3 C4 H4C 109.5 . . ?
H4A C4 H4C 109.5 . . ?
H4B C4 H4C 109.5 . . ?
N1 C5 C6 122.6(5) . . ?
N1 C5 H5 118.7 . . ?
C6 C5 H5 118.7 . . ?
C7 C6 C5 120.0(5) . . ?
C7 C6 H6 120.0 . . ?
C5 C6 H6 120.0 . . ?
C8 C7 C6 117.2(5) . . ?
C8 C7 C10 121.0(5) . . ?
C6 C7 C10 121.8(5) . . ?
C7 C8 C9 119.4(5) . . ?
C7 C8 H8 120.3 . . ?
C9 C8 H8 120.3 . . ?
N1 C9 C8 123.4(5) . . ?
N1 C9 H9 118.3 . . ?
C8 C9 H9 118.3 . . ?
C10 C10 C7 113.1(6) 5_666 . ?
C10 C10 H10A 109.0 5_666 . ?
C7 C10 H10A 109.0 . . ?
C10 C10 H10B 109.0 5_666 . ?
C7 C10 H10B 109.0 . . ?
H10A C10 H10B 107.8 . . ?

_diffrn_measured_fraction_theta_max 0.995
_diffrn_reflns_theta_full        25.04
_diffrn_measured_fraction_theta_full 0.995
_refine_diff_density_max         0.871
_refine_diff_density_min         -0.427
_refine_diff_density_rms         0.113

#===END

