
#######################################################################
#
#                 Cambridge Crystallographic Data Centre
#                                CCDC
#
#######################################################################
#
# If this CIF has been generated from an entry in the Cambridge
# Structural Database, then it will include bibliographic, chemical,
# crystal, experimental, refinement or atomic coordinate data resulting
# from the CCDC's data processing and validation procedures.
#
#######################################################################

data_CSD_CIF_IREJAR
_audit_creation_date 2011-07-22
_audit_creation_method CSD-ConQuest-V1
_database_code_CSD IREJAR
_database_code_depnum_ccdc_archive 'CCDC 777831'
_chemical_formula_sum 'C18 H20 O2 S2'
_chemical_formula_moiety
;
C18 H20 O2 S2
;
_journal_coden_Cambridge 1291
_journal_volume 2010
_journal_year 2010
_journal_page_first 6727
_journal_name_full 'Eur.J.Org.Chem. '
loop_
_publ_author_name
"E.Yu.Schmidt"
"B.A.Trofimov"
"N.V.Zorina"
"A.I.Mikhaleva"
"I.A.Ushakov"
"E.V.Skital'tseva"
"O.N.Kazheva"
"G.G.Alexandrov"
"O.A.Dyachenko"
_chemical_name_systematic
;
1-(3,4,5-Trimethyl-2,6-bis(2-thienyl)-3,4-dihydro-2H-pyran-2-yl)ethanone
;
_chemical_name_common
;
Teaching Subset: Fundamental Chemistry
;
_cell_volume   1678.728
_exptl_crystal_density_diffrn 1.315
_diffrn_ambient_temperature 296
#These two values have been output from a single CSD field.
_refine_ls_R_factor_gt 0.0402
_refine_ls_wR_factor_gt 0.0402
_symmetry_cell_setting monoclinic
_symmetry_space_group_name_H-M 'P 21/n'
_symmetry_Int_Tables_number 14
loop_
_symmetry_equiv_pos_site_id
_symmetry_equiv_pos_as_xyz
1 x,y,z
2 1/2-x,1/2+y,1/2-z
3 -x,-y,-z
4 -1/2+x,-1/2-y,-1/2+z
_cell_length_a 11.8887(9)
_cell_length_b 9.1706(7)
_cell_length_c 15.4214(11)
_cell_angle_alpha 90
_cell_angle_beta 93.195(1)
_cell_angle_gamma 90
_cell_formula_units_Z 4
loop_
_atom_type_symbol
_atom_type_radius_bond
C 0.68
H 0.23
O 0.68
S 1.02
loop_
_atom_site_label
_atom_site_type_symbol
_atom_site_fract_x
_atom_site_fract_y
_atom_site_fract_z
S1 S 0.22054(3) 0.29410(5) 1.14752(2)
S2 S 0.25261(3) 0.78215(4) 1.03859(3)
O1 O 0.27664(8) 0.47844(11) 1.00364(6)
O2 O 0.12248(10) 0.48820(14) 0.79912(7)
C1 C 0.24468(11) 0.54759(15) 0.92205(8)
C2 C 0.35150(11) 0.55654(16) 0.86939(9)
C3 C 0.38786(11) 0.40132(16) 0.84730(9)
C4 C 0.37621(11) 0.29892(15) 0.92351(9)
C5 C 0.33141(11) 0.34495(15) 0.99665(9)
C6 C 0.32910(11) 0.26634(15) 1.07923(9)
C7 C 0.40521(12) 0.16748(17) 1.11532(9)
C8 C 0.37426(14) 0.11275(19) 1.19635(10)
C9 C 0.27646(14) 0.1709(2) 1.22168(11)
C10 C 0.19978(11) 0.69507(15) 0.94609(9)
C11 C 0.12241(13) 0.78062(18) 0.90143(10)
C12 C 0.10683(14) 0.91756(18) 0.94200(11)
C13 C 0.17147(14) 0.93343(18) 1.01630(12)
C14 C 0.14557(11) 0.46385(16) 0.87504(9)
C15 C 0.07771(15) 0.3608(2) 0.92637(13)
C16 C 0.34209(14) 0.6565(2) 0.78984(11)
C17 C 0.50977(13) 0.3994(2) 0.81875(11)
C18 C 0.41698(13) 0.14522(17) 0.9121(1)
H1 H 0.4110(14) 0.5939(18) 0.9112(10)
H2 H 0.3392(14) 0.3658(19) 0.7974(11)
H3 H 0.4703(15) 0.144(2) 1.0883(11)
H4 H 0.4199(15) 0.046(2) 1.2331(12)
H5 H 0.2395(17) 0.159(2) 1.2732(13)
H6 H 0.0839(17) 0.750(2) 0.8472(13)
H7 H 0.0579(16) 0.990(2) 0.9193(12)
H8 H 0.1783(18) 1.011(2) 1.0559(13)
H9 H 0.008(2) 0.351(3) 0.8955(14)
H10 H 0.069(2) 0.394(3) 0.9823(17)
H11 H 0.1183(18) 0.268(2) 0.9344(13)
H12 H 0.2928(17) 0.616(2) 0.7412(14)
H13 H 0.3177(18) 0.754(2) 0.8032(13)
H14 H 0.4187(17) 0.673(2) 0.7676(12)
H15 H 0.5351(18) 0.303(2) 0.8015(13)
H16 H 0.5615(15) 0.433(2) 0.8654(12)
H17 H 0.5195(16) 0.460(2) 0.7704(12)
H18 H 0.3810(16) 0.080(2) 0.9505(12)
H19 H 0.5012(16) 0.138(2) 0.9215(12)
H20 H 0.4051(16) 0.116(2) 0.8527(13)
#END
