####################################################################### 
# 
# This file contains crystal structure data downloaded from the 
# Cambridge Structural Database (CSD) hosted by the Cambridge 
# Crystallographic Data Centre (CCDC).
# 
# Full information about CCDC data access policies and citation 
# guidelines are available at http://www.ccdc.cam.ac.uk/access/V1 
# 
# Audit and citation data items may have been added by the CCDC. 
# Please retain this information to preserve the provenance of 
# this file and to allow appropriate attribution of the data. 
# 
#######################################################################

data_1
_audit_block_doi                 10.5517/ccvt6c6
_database_code_depnum_ccdc_archive 'CCDC 798788'
loop_
_citation_id
_citation_doi
_citation_year
1 10.1016/j.ica.2011.02.001 2011
_audit_update_record             
;
2010-10-29 deposited with the CCDC.	2024-07-10 downloaded from the CCDC.
;
#TrackingRef 'CIFfinVK201205.cif'


_exptl_special_details           
;
The crystal was
placed in the cold stream of an Oxford
Cryosystems open-flow nitrogen cryostat (Cosier &
Glazer, 1986) with a nominal stability of 0.1K.

Cosier, J. & Glazer, A.M., 1986. J. Appl. Cryst. 105 107.
;
_refine_special_details          
;
?
;

_cell_length_a                   25.434(5)
_cell_length_b                   18.702(5)
_cell_length_c                   19.865(5)
_cell_angle_alpha                90
_cell_angle_beta                 112.203(5)
_cell_angle_gamma                90
_cell_volume                     8748(4)

_symmetry_cell_setting           Monoclinic
_symmetry_space_group_name_H-M   'C 1 2/c 1 '
_symmetry_space_group_name_Hall  '-C 2yc'
loop_
_symmetry_equiv_pos_as_xyz
x,y,z
-x,-y,-z
x+1/2,y+1/2,z
-x+1/2,-y+1/2,-z
-x,y,-z+1/2
x,-y,z+1/2
-x+1/2,y+1/2,-z+1/2
x+1/2,-y+1/2,z+1/2

loop_
_atom_type_symbol
_atom_type_scat_dispersion_real
_atom_type_scat_dispersion_imag
_atom_type_scat_Cromer_Mann_a1
_atom_type_scat_Cromer_Mann_b1
_atom_type_scat_Cromer_Mann_a2
_atom_type_scat_Cromer_Mann_b2
_atom_type_scat_Cromer_Mann_a3
_atom_type_scat_Cromer_Mann_b3
_atom_type_scat_Cromer_Mann_a4
_atom_type_scat_Cromer_Mann_b4
_atom_type_scat_Cromer_Mann_c
_atom_type_scat_source
C 0.0033 0.0016 2.3100 20.8439 1.0200 10.2075 1.5886 0.5687 0.8650 51.6512
0.2156 'International Tables Vol C 4.2.6.8 and 6.1.1.4'
H 0.0000 0.0000 0.4930 10.5109 0.3229 26.1257 0.1402 3.1424 0.0408 57.7998
0.0030 'International Tables Vol C 4.2.6.8 and 6.1.1.4'
N 0.0061 0.0033 12.2126 0.0057 3.1322 9.8933 2.0125 28.9975 1.1663 0.5826
-11.5290 'International Tables Vol C 4.2.6.8 and 6.1.1.4'
Fe 0.3463 0.8444 11.7695 4.7611 7.3573 0.3072 3.5222 15.3535 2.3045 76.8805
1.0369 'International Tables Vol C 4.2.6.8 and 6.1.1.4'
W -0.8490 6.8722 29.0818 1.7203 15.4300 9.2259 14.4327 0.3217 5.1198 57.0560
9.8875 'International Tables Vol C 4.2.6.8 and 6.1.1.4'
Cl 0.1484 0.1585 11.4604 0.0104 7.1964 1.1662 6.2556 18.5194 1.6455 47.7784
-9.5574 'International Tables Vol C 4.2.6.8 and 6.1.1.4'
K 0.2009 0.2494 8.2186 12.7949 7.4398 0.7748 1.0519 213.1870 0.8659 41.6841
1.4228 'International Tables Vol C 4.2.6.8 and 6.1.1.4'
O 0.0106 0.0060 3.0485 13.2771 2.2868 5.7011 1.5463 0.3239 0.8670 32.9089
0.2508 'International Tables Vol C 4.2.6.8 and 6.1.1.4'


_cell_formula_units_Z            8

_chemical_formula_sum            'C30.5 H41.5 Cl0.5 Fe1.5 N15.5 O3.5 W'
_chemical_formula_moiety         'C30.5 H34.5 Fe1.5 N15.5 W, 0.5Cl, 3.5(H2 O)'
_chemical_compound_source        ?
_chemical_formula_weight         966.61


_cell_measurement_reflns_used    12252
_cell_measurement_theta_min      3
_cell_measurement_theta_max      24
_cell_measurement_temperature    180

_exptl_crystal_description       block
_exptl_crystal_colour            dark
_exptl_crystal_size_min          0.100
_exptl_crystal_size_mid          0.100
_exptl_crystal_size_max          0.150

_exptl_crystal_density_diffrn    1.468
_exptl_crystal_density_meas      ?
_exptl_crystal_density_method    'not measured'
# Non-dispersive F(000):
_exptl_crystal_F_000             3804
_exptl_absorpt_coefficient_mu    3.198


_exptl_absorpt_correction_type   multi-scan
_exptl_absorpt_process_details   'Blessing, acta cryst. (1995), a51, 33-38'
_exptl_absorpt_correction_T_min  0.56
_exptl_absorpt_correction_T_max  0.73
_diffrn_measurement_device_type  'Oxford Diffraction XCALIBUR'
_diffrn_measurement_device       Area
_diffrn_radiation_monochromator  graphite
_diffrn_radiation_type           'Mo K\a'
_diffrn_radiation_wavelength     0.71073
_diffrn_measurement_method       '\f & \w scans'

# If a reference occurs more than once, delete the author
# and date from subsequent references.
_computing_data_collection       'Xcalibur, (Oxford Diffraction, 2002)'
_computing_cell_refinement       'CrysAlis RED, (Oxford Diffraction, 2002)'
_computing_data_reduction        'CrysAlis RED, (Oxford Diffraction, 2002)'
_computing_structure_solution    'SIR92 (Altomare et al., 1994)'
_computing_structure_refinement  'CRYSTALS (Betteridge et al., 2003)'
_computing_publication_material  'CRYSTALS (Betteridge et al., 2003)'
_computing_molecular_graphics    'CAMERON (Watkin et al., 1996)'

_diffrn_standards_interval_time  .
_diffrn_standards_interval_count .
_diffrn_standards_number         0
_diffrn_standards_decay_%        ?

_diffrn_ambient_temperature      180
_diffrn_reflns_number            76786
_reflns_number_total             11706
_diffrn_reflns_av_R_equivalents  0.071
# Number of reflections without Friedels Law is 11706
# Number of reflections with Friedels Law is 0
# Theoretical number of reflections is about 11697


_diffrn_reflns_theta_min         2.742
_diffrn_reflns_theta_max         29.082
_diffrn_measured_fraction_theta_max 0.998

_diffrn_reflns_theta_full        29.082
_diffrn_measured_fraction_theta_full 0.998


_diffrn_reflns_limit_h_min       -34
_diffrn_reflns_limit_h_max       27
_diffrn_reflns_limit_k_min       -25
_diffrn_reflns_limit_k_max       25
_diffrn_reflns_limit_l_min       -27
_diffrn_reflns_limit_l_max       27
_reflns_limit_h_min              -34
_reflns_limit_h_max              32
_reflns_limit_k_min              0
_reflns_limit_k_max              25
_reflns_limit_l_min              0
_reflns_limit_l_max              27

_atom_sites_solution_primary     direct #heavy,direct,difmap,geom
# _atom_sites_solution_secondary difmap
_atom_sites_solution_hydrogens   geom

_refine_diff_density_min         -1.29
_refine_diff_density_max         1.51


# The current dictionary definitions do not cover the
# situation where the reflections used for refinement were
# selected by a user-defined sigma threshold


# The values actually used during refinement
_oxford_reflns_threshold_expression_ref I>2.4\s(I)
_refine_ls_number_reflns         4792
_refine_ls_number_restraints     4
_refine_ls_number_parameters     473
_oxford_refine_ls_R_factor_ref   0.0495
_refine_ls_wR_factor_ref         0.0518
_refine_ls_goodness_of_fit_ref   1.1526
_refine_ls_shift/su_max          0.0005944
_refine_ls_shift/su_mean         0.0000145


# The values computed from all data
_oxford_reflns_number_all        11682
_refine_ls_R_factor_all          0.1180
_refine_ls_wR_factor_all         0.0633

# The values computed with a 2 sigma cutoff - a la SHELX
_reflns_threshold_expression     I>2.0\s(I)
_reflns_number_gt                5336
_refine_ls_R_factor_gt           0.0532
_refine_ls_wR_factor_gt          0.0539

# choose from: rm (reference molecule of known chirality),
# ad (anomolous dispersion - Flack), rmad (rm and ad),
# syn (from synthesis), unk (unknown) or . (not applicable).
_chemical_absolute_configuration .


_refine_ls_structure_factor_coef F
_refine_ls_matrix_type           full
_refine_ls_hydrogen_treatment    constr # none, undef, noref, refall,
# refxyz, refU, constr or mixed
_refine_ls_weighting_scheme      calc
_refine_ls_weighting_details     
;
Method, part 1, Chebychev polynomial, (Watkin, 1994, Prince, 1982)
[weight] = 1.0/[A~0~*T~0~(x)+A~1~*T~1~(x) ... +A~n-1~]*T~n-1~(x)]
where A~i~ are the Chebychev coefficients listed below and x= Fcalc/Fmax
Method = Robust Weighting (Prince, 1982)
W = [weight] * [1-(deltaF/6*sigmaF)^2^]^2^
A~i~ are:
8.44 1.58 5.32 4.52
;

# Uequiv = arithmetic mean of Ui i.e. Ueqiv = (U1+U2+U3)/3

# Replace last . with number of unfound hydrogen atomsattached to an atom.

# ..._refinement_flags_...
# . no refinement constraints S special position constraint on site
# G rigid group refinement of site R riding atom
# D distance or angle restraint on site T thermal displacement constraints
# U Uiso or Uij restraint (rigid bond) P partial occupancy constraint


loop_
_atom_site_label
_atom_site_type_symbol
_atom_site_fract_x
_atom_site_fract_y
_atom_site_fract_z
_atom_site_U_iso_or_equiv
_atom_site_occupancy
_atom_site_adp_type
_atom_site_refinement_flags_posn
_atom_site_refinement_flags_adp
_atom_site_refinement_flags_occupancy
_atom_site_disorder_assembly
_atom_site_disorder_group
_atom_site_attached_hydrogens
W1 W 0.326732(15) 0.45014(2) 0.32516(2) 0.0224 1.0000 Uani . . . . . .
Fe1 Fe 0.26570(7) 0.18461(8) 0.31180(8) 0.0399 1.0000 Uani . . . . . .
Fe2 Fe 0.5000 0.41935(11) 0.2500 0.0285 1.0000 Uani S T . . . .
C1 C 0.3131(5) 0.3413(6) 0.3411(5) 0.0407 1.0000 Uani . . . . . .
C2 C 0.3884(4) 0.4286(5) 0.2801(5) 0.0312 1.0000 Uani . . . . . .
C3 C 0.2918(5) 0.5400(6) 0.2618(5) 0.0419 1.0000 Uani . . . . . .
C4 C 0.3863(4) 0.5377(5) 0.3574(6) 0.0387 1.0000 Uani . . . . . .
C5 C 0.3989(4) 0.4119(6) 0.4166(6) 0.0378 1.0000 Uani . . . . . .
C6 C 0.2855(4) 0.4077(5) 0.2169(5) 0.0306 1.0000 Uani . . . . . .
C7 C 0.2372(4) 0.4401(7) 0.3030(6) 0.0459 1.0000 Uani . . . . . .
C8 C 0.3124(4) 0.4955(5) 0.4163(6) 0.0360 1.0000 Uani . . . . . .
C9 C 0.1685(5) 0.2219(7) 0.3611(7) 0.0506 1.0000 Uani . . . . . .
C10 C 0.1388(6) 0.2257(9) 0.4083(8) 0.0673 1.0000 Uani . . . . . .
C11 C 0.1603(8) 0.1946(10) 0.4740(9) 0.0733 1.0000 Uani . . . . . .
C12 C 0.2109(8) 0.1637(9) 0.4961(8) 0.0688 1.0000 Uani . . . . . .
C13 C 0.2405(6) 0.1606(6) 0.4491(6) 0.0480 1.0000 Uani . . . . . .
C14 C 0.2976(8) 0.1267(7) 0.4674(7) 0.0647 1.0000 Uani . . . . . .
C15 C 0.3248(7) 0.0854(10) 0.5358(9) 0.0815 1.0000 Uani . . . . . .
C16 C 0.3726(9) 0.1062(11) 0.4251(12) 0.0942 1.0000 Uani . . . . . .
C17 C 0.3886(10) 0.1410(14) 0.3689(13) 0.1098 1.0000 Uani . . . . . .
C18 C 0.3534(9) 0.1692(13) 0.2395(12) 0.1017 1.0000 Uani . . . . . .
C19 C 0.2973(10) 0.1743(12) 0.1768(11) 0.0984 1.0000 Uani . . . . . .
C20 C 0.1993(7) 0.2146(8) 0.1440(6) 0.0656 1.0000 Uani . . . . . .
C21 C 0.1664(7) 0.2581(8) 0.1778(7) 0.0625 1.0000 Uani . . . . . .
C22 C 0.1483(6) 0.2495(8) 0.2866(8) 0.0621 1.0000 Uani . . . . . .
C23 C 0.0928(6) 0.2865(10) 0.2552(10) 0.0817 1.0000 Uani . . . . . .
C24 C 0.500000(7) 0.1551(14) 0.250000(7) 0.0933 1.0000 Uani S T . . . .
C25 C 0.4789(6) 0.1938(8) 0.1849(10) 0.0704 1.0000 Uani . . . . . .
C26 C 0.4790(5) 0.2675(7) 0.1855(7) 0.0508 1.0000 Uani . . . . . .
C27 C 0.4579(5) 0.3134(8) 0.1214(7) 0.0533 1.0000 Uani . . . . . .
C28 C 0.4340(8) 0.2826(12) 0.0462(8) 0.0950 1.0000 Uani . . . . . .
C29 C 0.4400(5) 0.4360(9) 0.0783(6) 0.0649 1.0000 Uani . . . . . .
C30 C 0.4281(6) 0.5019(8) 0.1107(7) 0.0592 1.0000 Uani . . . . . .
C31 C 0.4750(6) 0.5801(8) 0.2151(8) 0.0615 1.0000 Uani . . . . . .
N1 N 0.3036(5) 0.2806(5) 0.3442(5) 0.0489 1.0000 Uani . . . . . .
N2 N 0.4229(3) 0.4199(5) 0.2575(4) 0.0347 1.0000 Uani . . . . . .
N3 N 0.2716(5) 0.5891(6) 0.2255(5) 0.0583 1.0000 Uani . . . . . .
N4 N 0.4176(5) 0.5842(6) 0.3714(8) 0.0691 1.0000 Uani . . . . . .
N5 N 0.4363(5) 0.3849(6) 0.4630(6) 0.0611 1.0000 Uani . . . . . .
N6 N 0.2632(5) 0.3843(5) 0.1591(5) 0.0507 1.0000 Uani . . . . . .
N7 N 0.1898(4) 0.4375(9) 0.2959(7) 0.0837 1.0000 Uani . . . . . .
N8 N 0.3036(4) 0.5220(6) 0.4633(5) 0.0521 1.0000 Uani . . . . . .
N9 N 0.2194(5) 0.1910(5) 0.3846(5) 0.0496 1.0000 Uani . . . . . .
N10 N 0.3174(5) 0.1355(6) 0.4186(6) 0.0596 1.0000 Uani . . . . . .
N11 N 0.3441(6) 0.1391(8) 0.3014(8) 0.0812 1.0000 Uani . . . . . .
N12 N 0.2581(6) 0.2150(6) 0.1985(6) 0.0607 1.0000 Uani . . . . . .
N13 N 0.1817(5) 0.2378(6) 0.2535(5) 0.0513 1.0000 Uani . . . . . .
N14 N 0.5000 0.3048(7) 0.2500 0.0415 1.0000 Uani S T . . . .
N15 N 0.4604(3) 0.3805(6) 0.1355(5) 0.0399 1.0000 Uani . . . . . .
N16 N 0.4780(4) 0.5154(5) 0.1768(5) 0.0455 1.0000 Uani . . . . . .
O1 O 0.3703(17) 0.101(2) 0.066(2) 0.138(12) 0.5000 Uiso . . . . . .
O2 O 0.4045(15) 0.007(2) 0.2017(19) 0.128(11) 0.5000 Uiso . . . . . .
O3 O 0.4839(16) 0.159(2) 0.584(2) 0.136(11) 0.5000 Uiso . . . . . .
O4 O 0.5390(18) 0.081(2) 0.473(2) 0.150(13) 0.5000 Uiso . . . . . .
O5 O 0.2397(9) 0.3811(11) 0.0098(11) 0.095(6) 0.6500 Uiso . . . . . .
Cl1 Cl 0.5002(4) 0.3043(5) 0.5871(5) 0.086(2) 0.5000 Uiso . . . . . .
O6 O 0.524(3) 0.057(3) 0.541(3) 0.22(2) 0.5000 Uiso . . . . . .
O7 O 0.2996(19) 0.353(3) 0.040(2) 0.119(14) 0.3500 Uiso . . . . . .
H101 H 0.1040 0.2497 0.3939 0.0809 1.0000 Uiso R . . . . .
H111 H 0.1400 0.1946 0.5043 0.0880 1.0000 Uiso R . . . . .
H121 H 0.2268 0.1438 0.5424 0.0811 1.0000 Uiso R . . . . .
H151 H 0.3593 0.0645 0.5362 0.1230 1.0000 Uiso R . . . . .
H152 H 0.3333 0.1167 0.5766 0.1230 1.0000 Uiso R . . . . .
H153 H 0.2996 0.0485 0.5386 0.1230 1.0000 Uiso R . . . . .
H161 H 0.4006 0.1171 0.4729 0.1110 1.0000 Uiso R . . . . .
H162 H 0.3702 0.0548 0.4182 0.1110 1.0000 Uiso R . . . . .
H182 H 0.3696 0.2166 0.2525 0.1250 1.0000 Uiso R . . . . .
H181 H 0.3793 0.1395 0.2265 0.1251 1.0000 Uiso R . . . . .
H191 H 0.3026 0.1975 0.1361 0.1170 1.0000 Uiso R . . . . .
H192 H 0.2823 0.1265 0.1628 0.1171 1.0000 Uiso R . . . . .
H201 H 0.1974 0.2361 0.0988 0.0778 1.0000 Uiso R . . . . .
H202 H 0.1848 0.1661 0.1343 0.0779 1.0000 Uiso R . . . . .
H211 H 0.1756 0.3079 0.1758 0.0750 1.0000 Uiso R . . . . .
H212 H 0.1259 0.2509 0.1510 0.0751 1.0000 Uiso R . . . . .
H232 H 0.0815 0.2893 0.2034 0.1191 1.0000 Uiso R . . . . .
H231 H 0.0964 0.3337 0.2754 0.1190 1.0000 Uiso R . . . . .
H233 H 0.0647 0.2601 0.2663 0.1190 1.0000 Uiso R . . . . .
H241 H 0.5000 0.1054 0.2500 0.1230 1.0000 Uiso RS . . . . .
H251 H 0.4641 0.1695 0.1407 0.0839 1.0000 Uiso R . . . . .
H281 H 0.4221 0.3201 0.0107 0.1389 1.0000 Uiso R . . . . .
H282 H 0.4626 0.2545 0.0382 0.1390 1.0000 Uiso R . . . . .
H283 H 0.4020 0.2528 0.0413 0.1389 1.0000 Uiso R . . . . .
H291 H 0.4690 0.4459 0.0589 0.0760 1.0000 Uiso R . . . . .
H292 H 0.4055 0.4198 0.0395 0.0760 1.0000 Uiso R . . . . .
H302 H 0.4213 0.5417 0.0769 0.0730 1.0000 Uiso R . . . . .
H301 H 0.3947 0.4952 0.1227 0.0730 1.0000 Uiso R . . . . .
H311 H 0.4757 0.6221 0.1868 0.0739 1.0000 Uiso R . . . . .
H312 H 0.4400 0.5800 0.2239 0.0740 1.0000 Uiso R . . . . .
H163 H 0.5059 0.5211 0.1630 0.0542 1.0000 Uiso R . . . . .
H122 H 0.2694 0.2587 0.2015 0.0732 1.0000 Uiso R . . . . .
H112 H 0.3373 0.0945 0.2917 0.0980 1.0000 Uiso R . . . . .
H171 H 0.3977 0.1887 0.3807 0.1345 1.0000 Uiso R . . . . .
H172 H 0.4200 0.1174 0.3663 0.1345 1.0000 Uiso R . . . . .
loop_
_atom_site_aniso_label
_atom_site_aniso_U_11
_atom_site_aniso_U_22
_atom_site_aniso_U_33
_atom_site_aniso_U_23
_atom_site_aniso_U_13
_atom_site_aniso_U_12
W1 0.02070(14) 0.02354(15) 0.02332(15) -0.0008(2) 0.00885(9) -0.0008(2)
Fe1 0.0599(10) 0.0273(7) 0.0335(8) -0.0058(6) 0.0187(7) -0.0154(7)
Fe2 0.0230(8) 0.0399(10) 0.0246(9) 0.0000 0.0113(7) 0.0000
C1 0.046(6) 0.048(6) 0.015(4) 0.007(4) -0.003(4) -0.025(5)
C2 0.037(5) 0.030(5) 0.025(4) 0.007(3) 0.009(4) 0.002(3)
C3 0.059(6) 0.031(6) 0.031(5) -0.003(4) 0.012(4) 0.007(5)
C4 0.035(5) 0.033(7) 0.053(6) -0.010(4) 0.023(4) 0.001(4)
C5 0.035(5) 0.040(6) 0.033(5) -0.012(4) 0.008(4) -0.011(4)
C6 0.028(4) 0.029(5) 0.030(5) 0.006(4) 0.006(4) 0.002(4)
C7 0.020(4) 0.075(9) 0.044(5) -0.018(6) 0.013(4) -0.002(5)
C8 0.030(5) 0.035(5) 0.042(5) -0.006(4) 0.012(4) -0.012(4)
C9 0.048(7) 0.052(7) 0.050(7) -0.003(5) 0.017(5) -0.019(6)
C10 0.056(7) 0.086(11) 0.058(8) -0.006(7) 0.020(7) -0.021(8)
C11 0.075(10) 0.086(11) 0.065(9) -0.009(8) 0.033(8) -0.041(9)
C12 0.099(12) 0.072(9) 0.046(7) -0.004(6) 0.039(8) -0.019(9)
C13 0.070(8) 0.035(6) 0.034(5) 0.004(4) 0.015(5) -0.023(5)
C14 0.108(12) 0.037(7) 0.047(7) 0.000(5) 0.028(8) -0.017(7)
C15 0.075(10) 0.082(11) 0.073(10) 0.038(9) 0.012(8) 0.003(9)
C16 0.091(13) 0.103(14) 0.097(13) 0.042(11) 0.045(11) 0.012(11)
C17 0.098(15) 0.132(19) 0.117(17) 0.032(15) 0.060(14) 0.020(14)
C18 0.086(13) 0.134(19) 0.111(16) 0.015(13) 0.065(13) 0.019(12)
C19 0.139(19) 0.099(15) 0.075(12) -0.011(10) 0.059(13) 0.003(13)
C20 0.087(10) 0.076(10) 0.022(5) -0.012(6) 0.008(6) -0.048(8)
C21 0.071(9) 0.065(8) 0.034(6) 0.015(6) 0.000(6) -0.020(7)
C22 0.052(7) 0.054(8) 0.065(9) 0.007(6) 0.005(6) -0.025(6)
C23 0.038(7) 0.094(12) 0.095(12) 0.027(10) 0.004(7) -0.008(7)
C24 0.073(15) 0.051(13) 0.16(3) 0.0000 0.046(17) 0.0000
C25 0.057(8) 0.054(9) 0.098(12) -0.024(8) 0.027(8) -0.009(7)
C26 0.042(6) 0.051(7) 0.062(7) -0.019(6) 0.022(6) -0.004(5)
C27 0.037(6) 0.081(10) 0.047(7) -0.025(6) 0.021(5) -0.013(6)
C28 0.081(11) 0.161(19) 0.047(8) -0.052(10) 0.029(8) -0.034(12)
C29 0.039(5) 0.116(14) 0.035(5) 0.022(7) 0.008(4) 0.028(7)
C30 0.050(7) 0.069(9) 0.0