####################################################################### 
# 
# This file contains crystal structure data downloaded from the 
# Cambridge Structural Database (CSD) hosted by the Cambridge 
# Crystallographic Data Centre (CCDC).
# 
# Full information about CCDC data access policies and citation 
# guidelines are available at http://www.ccdc.cam.ac.uk/access/V1 
# 
# Audit and citation data items may have been added by the CCDC. 
# Please retain this information to preserve the provenance of 
# this file and to allow appropriate attribution of the data. 
# 
#######################################################################

data_I
_audit_block_doi                 10.5517/ccwyk8m
_database_code_depnum_ccdc_archive 'CCDC 832761'
loop_
_citation_id
_citation_doi
_citation_year
1 10.1524/ncrs.2011.0126 2011
_audit_update_record             
;
2011-07-05 deposited with the CCDC.	2024-07-10 downloaded from the CCDC.
;

_audit_creation_method           SHELXL-97
_chemical_name_systematic        
;
?
;
_chemical_name_common            ?
_chemical_melting_point          ?
_chemical_formula_moiety         'C102 H68 Dy2 N10 Ni2 O20, 2(C3 H7 N O)'
_chemical_formula_sum            'C108 H82 Dy2 N12 Ni2 O22'
_chemical_formula_weight         2342.28

loop_
_atom_type_symbol
_atom_type_description
_atom_type_scat_dispersion_real
_atom_type_scat_dispersion_imag
_atom_type_scat_source
C C 0.0033 0.0016 'International Tables Vol C Tables 4.2.6.8 and 6.1.1.4'
H H 0.0000 0.0000 'International Tables Vol C Tables 4.2.6.8 and 6.1.1.4'
N N 0.0061 0.0033 'International Tables Vol C Tables 4.2.6.8 and 6.1.1.4'
O O 0.0106 0.0060 'International Tables Vol C Tables 4.2.6.8 and 6.1.1.4'
Ni Ni 0.3393 1.1124 'International Tables Vol C Tables 4.2.6.8 and 6.1.1.4'
Dy Dy -0.1892 4.4098 'International Tables Vol C Tables 4.2.6.8 and 6.1.1.4'

_symmetry_cell_setting           monoclinic
_symmetry_space_group_name_H-M   'P 21'

loop_
_symmetry_equiv_pos_as_xyz
'x, y, z'
'-x, y+1/2, -z'

_cell_length_a                   8.76020(10)
_cell_length_b                   27.8308(8)
_cell_length_c                   21.2201(6)
_cell_angle_alpha                90.00
_cell_angle_beta                 97.6801(15)
_cell_angle_gamma                90.00
_cell_volume                     5127.1(2)
_cell_formula_units_Z            2
_cell_measurement_temperature    110(2)
_cell_measurement_reflns_used    8964
_cell_measurement_theta_min      1.41
_cell_measurement_theta_max      25.68

_exptl_crystal_description       plate
_exptl_crystal_colour            red
_exptl_crystal_size_max          0.40
_exptl_crystal_size_mid          0.30
_exptl_crystal_size_min          0.10
_exptl_crystal_density_meas      ?
_exptl_crystal_density_diffrn    1.517
_exptl_crystal_density_method    'not measured'
_exptl_crystal_F_000             2356
_exptl_absorpt_coefficient_mu    1.880
_exptl_absorpt_correction_type   multi-scan
_exptl_absorpt_correction_T_min  0.5202
_exptl_absorpt_correction_T_max  0.8343
_exptl_absorpt_process_details   'Blessing, 1995'

_diffrn_ambient_temperature      110(2)
_diffrn_radiation_wavelength     0.71073
_diffrn_radiation_type           MoK\a
_diffrn_radiation_source         'fine-focus sealed tube'
_diffrn_radiation_monochromator  graphite
_diffrn_measurement_device_type  'Nonius KappaCCD'
_diffrn_measurement_method       '1.0 deg. \f & \w scans'
_diffrn_detector_area_resol_mean 12.8
_diffrn_standards_number         0
_diffrn_standards_interval_count ?
_diffrn_standards_interval_time  ?
_diffrn_standards_decay_%        ?
_diffrn_reflns_number            33676
_diffrn_reflns_av_R_equivalents  0.0780
_diffrn_reflns_av_sigmaI/netI    0.0891
_diffrn_reflns_limit_h_min       -10
_diffrn_reflns_limit_h_max       10
_diffrn_reflns_limit_k_min       -30
_diffrn_reflns_limit_k_max       33
_diffrn_reflns_limit_l_min       -25
_diffrn_reflns_limit_l_max       25
_diffrn_reflns_theta_min         2.07
_diffrn_reflns_theta_max         25.70
_reflns_number_total             16870
_reflns_number_gt                14075
_reflns_threshold_expression     >2sigma(I)

_computing_data_collection       'Collect, Nonius B.V.'
_computing_cell_refinement       Denzo
_computing_data_reduction        'Denzo & Scalepack'
_computing_structure_solution    SIR-97
_computing_structure_refinement  'SHELXL-97 (Sheldrick, 1997)'
_computing_molecular_graphics    MERCURY
_computing_publication_material  ?

_refine_special_details          
;
Refinement of F^2^ against ALL reflections. The weighted R-factor wR and
goodness of fit S are based on F^2^, conventional R-factors R are based
on F, with F set to zero for negative F^2^. The threshold expression of
F^2^ > 2sigma(F^2^) is used only for calculating R-factors(gt) etc. and is
not relevant to the choice of reflections for refinement. R-factors based
on F^2^ are statistically about twice as large as those based on F, and R-
factors based on ALL data will be even larger.

The crystal structure contains additional interstitial water solvent,
which is severely disordered. It could not be modeled reliably by
discrete atoms. Correspondingly, the contribution of the water
crystallization solvent to the diffraction pattern was subtracted by
the SQUEEZE procedure, using the PLATON solvent (Spek, 2009).
;

_refine_ls_structure_factor_coef Fsqd
_refine_ls_matrix_type           full
_refine_ls_weighting_scheme      calc
_refine_ls_weighting_details     
'calc w=1/[\s^2^(Fo^2^)+(0.0540P)^2^+0.0000P] where P=(Fo^2^+2Fc^2^)/3'
_atom_sites_solution_primary     direct
_atom_sites_solution_secondary   difmap
_atom_sites_solution_hydrogens   geom
_refine_ls_hydrogen_treatment    constr
_refine_ls_extinction_method     none
_refine_ls_extinction_coef       ?
_refine_ls_abs_structure_details 'Flack H D (1983), Acta Cryst. A39, 876-881'
_refine_ls_abs_structure_Flack   0.280(9)
_refine_ls_number_reflns         16870
_refine_ls_number_parameters     1324
_refine_ls_number_restraints     1
_refine_ls_R_factor_all          0.0654
_refine_ls_R_factor_gt           0.0483
_refine_ls_wR_factor_ref         0.1078
_refine_ls_wR_factor_gt          0.1015
_refine_ls_goodness_of_fit_ref   1.011
_refine_ls_restrained_S_all      1.011
_refine_ls_shift/su_max          0.008
_refine_ls_shift/su_mean         0.000

loop_
_atom_site_label
_atom_site_type_symbol
_atom_site_fract_x
_atom_site_fract_y
_atom_site_fract_z
_atom_site_U_iso_or_equiv
_atom_site_adp_type
_atom_site_occupancy
_atom_site_symmetry_multiplicity
_atom_site_calc_flag
_atom_site_refinement_flags
_atom_site_disorder_assembly
_atom_site_disorder_group
Dy1 Dy 0.18551(4) 0.688528(13) 1.246220(17) 0.01912(10) Uani 1 1 d . . .
Dy2 Dy 0.76994(4) 0.578300(13) 0.251657(17) 0.01599(9) Uani 1 1 d . . .
Ni1 Ni 0.72439(10) 0.68611(4) 0.75987(4) 0.0156(2) Uani 1 1 d . . .
C1 C 0.6496(8) 0.7385(3) 0.8760(4) 0.0181(18) Uani 1 1 d . . .
C2 C 0.6779(8) 0.7830(3) 0.9072(4) 0.0208(19) Uani 1 1 d . . .
H2 H 0.6560 0.7908 0.9486 0.025 Uiso 1 1 calc R . .
C3 C 0.7420(8) 0.8125(3) 0.8674(4) 0.022(2) Uani 1 1 d . . .
H3 H 0.7740 0.8448 0.8756 0.026 Uiso 1 1 calc R . .
C4 C 0.7520(8) 0.7860(3) 0.8111(4) 0.0179(19) Uani 1 1 d . . .
C5 C 0.7913(9) 0.8060(3) 0.7543(4) 0.017(2) Uani 1 1 d . . .
C6 C 0.7850(9) 0.7800(3) 0.6991(4) 0.0182(19) Uani 1 1 d . . .
C7 C 0.8056(10) 0.7998(3) 0.6383(4) 0.028(2) Uani 1 1 d . . .
H7 H 0.8124 0.8329 0.6281 0.034 Uiso 1 1 calc R . .
C8 C 0.8133(10) 0.7622(3) 0.5984(4) 0.027(2) Uani 1 1 d . . .
H8 H 0.8223 0.7639 0.5543 0.033 Uiso 1 1 calc R . .
C9 C 0.8052(9) 0.7192(3) 0.6349(4) 0.021(2) Uani 1 1 d . . .
C10 C 0.8434(8) 0.6739(3) 0.6149(4) 0.020(2) Uani 1 1 d . . .
C11 C 0.8359(9) 0.6340(3) 0.6516(4) 0.022(2) Uani 1 1 d . . .
C12 C 0.8872(9) 0.5871(3) 0.6376(4) 0.026(2) Uani 1 1 d . . .
H12 H 0.9394 0.5792 0.6025 0.031 Uiso 1 1 calc R . .
C13 C 0.8504(9) 0.5554(3) 0.6818(4) 0.024(2) Uani 1 1 d . . .
H13 H 0.8707 0.5219 0.6835 0.029 Uiso 1 1 calc R . .
C14 C 0.7747(8) 0.5831(4) 0.7251(4) 0.0193(19) Uani 1 1 d . . .
C15 C 0.6986(9) 0.5637(3) 0.7726(4) 0.019(2) Uani 1 1 d . . .
C16 C 0.6301(8) 0.5928(3) 0.8145(4) 0.019(2) Uani 1 1 d . . .
C17 C 0.5328(8) 0.5755(3) 0.8581(4) 0.0208(17) Uani 1 1 d . . .
H17 H 0.4979 0.5433 0.8611 0.025 Uiso 1 1 calc R . .
C18 C 0.4989(8) 0.6127(3) 0.8940(3) 0.0167(17) Uani 1 1 d . . .
H18 H 0.4396 0.6115 0.9284 0.020 Uiso 1 1 calc R . .
C19 C 0.5693(9) 0.6544(3) 0.8707(4) 0.0171(19) Uani 1 1 d . . .
C20 C 0.5778(8) 0.6994(3) 0.9013(4) 0.0161(18) Uani 1 1 d . . .
N21 N 0.7006(7) 0.7395(3) 0.8161(3) 0.0171(16) Uani 1 1 d . . .
N22 N 0.7793(7) 0.7300(3) 0.6962(3) 0.0185(16) Uani 1 1 d . . .
N23 N 0.7740(7) 0.6322(2) 0.7083(3) 0.0170(15) Uani 1 1 d . . .
N24 N 0.6446(7) 0.6422(3) 0.8197(3) 0.0190(16) Uani 1 1 d . . .
C25 C 0.8432(9) 0.8571(3) 0.7564(4) 0.0210(19) Uani 1 1 d . . .
C26 C 0.9898(8) 0.8675(3) 0.7906(4) 0.0196(18) Uani 1 1 d . . .
H26 H 1.0465 0.8428 0.8143 0.023 Uiso 1 1 calc R . .
C27 C 1.0517(9) 0.9138(3) 0.7899(4) 0.022(2) Uani 1 1 d . . .
H27 H 1.1506 0.9204 0.8124 0.027 Uiso 1 1 calc R . .
C28 C 0.9694(8) 0.9496(3) 0.7567(4) 0.0167(18) Uani 1 1 d . . .
C29 C 0.8276(10) 0.9410(3) 0.7260(5) 0.023(2) Uani 1 1 d . . .
H29 H 0.7705 0.9664 0.7040 0.028 Uiso 1 1 calc R . .
C30 C 0.7622(9) 0.8938(3) 0.7262(4) 0.027(2) Uani 1 1 d . . .
H30 H 0.6613 0.8882 0.7051 0.033 Uiso 1 1 calc R . .
C31 C 1.0474(8) 0.9976(3) 0.7557(4) 0.0198(19) Uani 1 1 d . . .
O32 O 1.1852(6) 1.00010(19) 0.7817(3) 0.0225(13) Uani 1 1 d . . .
O33 O 0.9809(6) 1.0333(2) 0.7281(3) 0.0221(13) Uani 1 1 d . . .
C34 C 0.8871(8) 0.6681(3) 0.5498(4) 0.0185(18) Uani 1 1 d . . .
C35 C 1.0148(8) 0.6901(4) 0.5316(4) 0.028(2) Uani 1 1 d . . .
H35 H 1.0794 0.7087 0.5618 0.034 Uiso 1 1 calc R . .
C36 C 1.0524(8) 0.6857(3) 0.4694(3) 0.0211(17) Uani 1 1 d . . .
H36 H 1.1401 0.7019 0.4580 0.025 Uiso 1 1 calc R . .
C37 C 0.9648(9) 0.6585(3) 0.4257(4) 0.0203(19) Uani 1 1 d . . .
C38 C 0.8408(10) 0.6345(4) 0.4431(4) 0.044(3) Uani 1 1 d . . .
H38 H 0.7802 0.6147 0.4130 0.052 Uiso 1 1 calc R . .
C39 C 0.8022(11) 0.6389(4) 0.5045(4) 0.043(3) Uani 1 1 d . . .
H39 H 0.7164 0.6216 0.5157 0.052 Uiso 1 1 calc R . .
C40 C 1.0025(8) 0.6534(3) 0.3597(4) 0.0174(18) Uani 1 1 d . . .
O41 O 1.1170(6) 0.6768(2) 0.3467(3) 0.0310(16) Uani 1 1 d . . .
O42 O 0.9206(6) 0.6261(2) 0.3217(3) 0.0254(14) Uani 1 1 d . . .
C43 C 0.6913(8) 0.5103(3) 0.7770(4) 0.0181(19) Uani 1 1 d . . .
C44 C 0.7582(9) 0.4862(3) 0.8285(5) 0.031(2) Uani 1 1 d . . .
H44 H 0.8114 0.5041 0.8627 0.037 Uiso 1 1 calc R . .
C45 C 0.7533(11) 0.4378(3) 0.8341(5) 0.029(2) Uani 1 1 d . . .
H45 H 0.8025 0.4221 0.8711 0.035 Uiso 1 1 calc R . .
C46 C 0.6755(9) 0.4117(3) 0.7848(4) 0.0214(19) Uani 1 1 d . . .
C47 C 0.6079(10) 0.4349(3) 0.7333(5) 0.030(2) Uani 1 1 d . . .
H47 H 0.5541 0.4169 0.6994 0.036 Uiso 1 1 calc R . .
C48 C 0.6138(8) 0.4839(3) 0.7279(4) 0.0177(18) Uani 1 1 d . . .
H48 H 0.5650 0.4995 0.6908 0.021 Uiso 1 1 calc R . .
C49 C 0.6672(10) 0.3572(4) 0.7870(4) 0.029(2) Uani 1 1 d . . .
O50 O 0.7227(7) 0.3380(2) 0.8422(3) 0.0364(16) Uani 1 1 d . . .
H50 H 0.7259 0.3050 0.8413 0.043 Uiso 1 1 d . . .
O51 O 0.6152(7) 0.3326(2) 0.7407(3) 0.0382(16) Uani 1 1 d . . .
C52 C 0.5230(8) 0.7050(3) 0.9631(4) 0.0153(18) Uani 1 1 d . . .
C53 C 0.5754(8) 0.6732(3) 1.0105(4) 0.022(2) Uani 1 1 d . . .
H53 H 0.6481 0.6493 1.0026 0.026 Uiso 1 1 calc R . .
C54 C 0.5242(8) 0.6750(3) 1.0707(4) 0.025(2) Uani 1 1 d . . .
H54 H 0.5592 0.6519 1.1024 0.030 Uiso 1 1 calc R . .
C55 C 0.4232(8) 0.7104(3) 1.0832(3) 0.0131(16) Uani 1 1 d . . .
C56 C 0.3739(8) 0.7439(3) 1.0365(4) 0.0180(18) Uani 1 1 d . . .
H56 H 0.3077 0.7693 1.0454 0.022 Uiso 1 1 calc R . .
C57 C 0.4208(8) 0.7405(3) 0.9770(4) 0.0183(18) Uani 1 1 d . . .
H57 H 0.3825 0.7629 0.9449 0.022 Uiso 1 1 calc R . .
C58 C 0.3558(8) 0.7087(3) 1.1449(4) 0.0175(19) Uani 1 1 d . . .
O59 O 0.3794(5) 0.67180(19) 1.1795(3) 0.0205(13) Uani 1 1 d . . .
O60 O 0.2677(6) 0.7419(2) 1.1593(3) 0.0224(13) Uani 1 1 d . . .
Ni2 Ni 0.22260(11) 0.59199(3) 0.73652(5) 0.0161(2) Uani 1 1 d . . .
C61 C 0.2981(9) 0.5360(3) 0.6245(4) 0.0157(18) Uani 1 1 d . . .
C62 C 0.2858(9) 0.4893(3) 0.5973(4) 0.024(2) Uani 1 1 d . . .
H62 H 0.3099 0.4804 0.5566 0.028 Uiso 1 1 calc R . .
C63 C 0.2333(9) 0.4600(3) 0.6402(4) 0.024(2) Uani 1 1 d . . .
H63 H 0.2109 0.4267 0.6355 0.029 Uiso 1 1 calc R . .
C64 C 0.2181(8) 0.4896(3) 0.6945(4) 0.020(2) Uani 1 1 d . . .
C65 C 0.1879(8) 0.4712(3) 0.7526(4) 0.020(2) Uani 1 1 d . . .
C66 C 0.1792(9) 0.4998(3) 0.8051(4) 0.020(2) Uani 1 1 d . . .
C67 C 0.1651(9) 0.4823(3) 0.8679(4) 0.025(2) Uani 1 1 d . . .
H67 H 0.1737 0.4499 0.8820 0.030 Uiso 1 1 calc R . .
C68 C 0.1372(9) 0.5216(3) 0.9029(4) 0.024(2) Uani 1 1 d . . .
H68 H 0.1225 0.5215 0.9464 0.029 Uiso 1 1 calc R . .
C69 C 0.1336(8) 0.5632(3) 0.8626(4) 0.0158(18) Uani 1 1 d . . .
C70 C 0.0894(9) 0.6087(3) 0.8788(4) 0.0167(18) Uani 1 1 d . . .
C71 C 0.1013(8) 0.6484(3) 0.8404(4) 0.0157(17) Uani 1 1 d . . .
C72 C 0.0549(8) 0.6963(3) 0.8535(4) 0.0198(19) Uani 1 1 d . . .
H72 H -0.0018 0.7057 0.8866 0.024 Uiso 1 1 calc R . .
C73 C 0.1052(8) 0.7247(3) 0.8113(4) 0.0208(19) Uani 1 1 d . . .
H73 H 0.0934 0.7586 0.8090 0.025 Uiso 1 1 calc R . .
C74 C 0.1802(9) 0.6957(3) 0.7698(4) 0.0205(19) Uani 1 1 d . . .
C75 C 0.2587(8) 0.7135(3) 0.7217(4) 0.0184(18) Uani 1 1 d . . .
C76 C 0.3209(7) 0.6832(4) 0.6806(4) 0.0207(18) Uani 1 1 d . . .
C77 C 0.4109(8) 0.7005(3) 0.6312(4) 0.022(2) Uani 1 1 d . . .
H77 H 0.4437 0.7326 0.6256 0.026 Uiso 1 1 calc R . .
C78 C 0.4378(8) 0.6622(3) 0.5954(4) 0.0229(19) Uani 1 1 d . . .
H78 H 0.4928 0.6621 0.5597 0.028 Uiso 1 1 calc R . .
C79 C 0.3666(9) 0.6210(3) 0.6216(4) 0.021(2) Uani 1 1 d . . .
C80 C 0.3620(7) 0.5760(3) 0.5954(3) 0.0199(17) Uani 1 1 d . . .
N81 N 0.2537(8) 0.5373(2) 0.6837(3) 0.0184(16) Uani 1 1 d . . .
N82 N 0.1678(7) 0.5493(3) 0.8027(3) 0.0191(16) Uani 1 1 d . . .
N83 N 0.1719(7) 0.6476(2) 0.7851(3) 0.0149(15) Uani 1 1 d . . .
N84 N 0.3002(7) 0.6337(3) 0.6750(3) 0.0203(16) Uani 1 1 d . . .
C85 C 0.1669(9) 0.4170(3) 0.7571(4) 0.023(2) Uani 1 1 d . . .
C86 C 0.0345(9) 0.3962(3) 0.7305(4) 0.029(2) Uani 1 1 d . . .
H86 H -0.0451 0.4156 0.7091 0.035 Uiso 1 1 calc R . .
C87 C 0.0124(11) 0.3472(4) 0.7339(5) 0.039(3) Uani 1 1 d . . .
H87 H -0.0798 0.3327 0.7139 0.046 Uiso 1 1 calc R . .
C88 C 0.1318(9) 0.3188(3) 0.7681(5) 0.031(2) Uani 1 1 d . . .
C89 C 0.2669(10) 0.3403(3) 0.7966(5) 0.034(2) Uani 1 1 d . . .
H89 H 0.3475 0.3214 0.8186 0.041 Uiso 1 1 calc R . .
C90 C 0.2817(10) 0.3895(3) 0.7924(4) 0.030(2) Uani 1 1 d . . .
H90 H 0.3709 0.4048 0.8136 0.036 Uiso 1 1 calc R . .
C91 C 0.1140(12) 0.2640(3) 0.7694(5) 0.038(2) Uani 1 1 d . . .
O92 O 0.2347(8) 0.2416(2) 0.7887(4) 0.058(2) Uani 1 1 d . . .
O93 O -0.0176(7) 0.2481(2) 0.7534(3) 0.0384(17) Uani 1 1 d . . .
C94 C 0.0389(8) 0.6154(3) 0.9428(3) 0.0154(17) Uani 1 1 d . . .
C95 C 0.1178(8) 0.6477(3) 0.9858(4) 0.0179(17) Uani 1 1 d . . .
H95 H 0.1983 0.6666 0.9728 0.021 Uiso 1 1 calc R . .
C96 C 0.0812(8) 0.6527(3) 1.0471(4) 0.0200(18) Uani 1 1 d . . .
H96 H 0.1327 0.6761 1.0749 0.024 Uiso 1 1 calc R . .
C97 C -0.0330(8) 0.6230(3) 1.0683(4) 0.0162(17) Uani 1 1 d . . .
C98 C -0.1130(8) 0.5909(3) 1.0235(4) 0.0205(19) Uani 1 1 d . . .
H98 H -0.1918 0.5712 1.0364 0.025 Uiso 1 1 calc R . .
C99 C -0.0806(8) 0.5872(3) 0.9626(4) 0.0198(19) Uani 1 1 d . . .
H99 H -0.1380 0.5659 0.9335 0.024 Uiso 1 1 calc R . .
C100 C -0.0560(8) 0.6237(3) 1.1362(4) 0.0175(18) Uani 1 1 d . . .
O101 O 0.0113(6) 0.6556(2) 1.1719(3) 0.0237(13) Uani 1 1 d . . .
O102 O -0.1378(6) 0.5912(2) 1.1554(3) 0.0273(15) Uani 1 1 d . . .
C103 C 0.2773(9) 0.7661(3) 0.7166(4) 0.023(2) Uani 1 1 d . . .
C104 C 0.2031(9) 0.7900(3) 0.6616(4) 0.026(2) Uani 1 1 d . . .
H104 H 0.1424 0.7722 0.6292 0.031 Uiso 1 1 calc R . .
C105 C 0.2201(9) 0.8403(3) 0.6554(4) 0.0230(19) Uani 1 1 d . . .
H105 H 0.1681 0.8565 0.6194 0.028 Uiso 1 1 calc R . .
C106 C 0.3122(9) 0.8658(3) 0.7017(4) 0.0280(19) Uani 1 1 d . . .
C107 C 0.3852(8) 0.8424(3) 0.7557(4) 0.024(2) Uani 1 1 d . . .
H107 H 0.4487 0.8600 0.7874 0.029 Uiso 1 1 calc R . .
C108 C 0.3641(9) 0.7925(3) 0.7629(4) 0.0224(19) Uani 1 1 d . . .
H108 H 0.4109 0.7770 0.8004 0.027 Uiso 1 1 calc R . .
C109 C 0.3400(9) 0.9174(3) 0.6934(4) 0.024(2) Uani 1 1 d . . .
O110 O 0.4370(7) 0.9397(2) 0.7284(3) 0.0316(16) Uani 1 1 d . . .
O111 O 0.2512(7) 0.9381(2) 0.6466(3) 0.0294(15) Uani 1 1 d . . .
H111 H 0.2606 0.9711 0.6481 0.042 Uiso 1 1 d . . .
C112 C 0.4178(8) 0.5692(3) 0.5325(4) 0.0200(19) Uani 1 1 d . . .
C113 C 0.3524(9) 0.5961(3) 0.4777(4) 0.0222(18) Uani 1 1 d . . .
H113 H 0.2702 0.6179 0.4810 0.027 Uiso 1 1 calc R . .
C114 C 0.4070(8) 0.5908(3) 0.4211(4) 0.022(2) Uani 1 1 d . . .
H114 H 0.3629 0.6094 0.3858 0.027 Uiso 1 1 calc R . .
C115 C 0.5263(8) 0.5588(3) 0.4132(4) 0.0204(19) Uani 1 1 d . . .
C116 C 0.5880(8) 0.5308(3) 0.4661(4) 0.024(2) Uani 1 1 d . . .
H116 H 0.6677 0.5085 0.4615 0.028 Uiso 1 1 calc R . .
C117 C 0.5347(8) 0.5353(3) 0.5250(4) 0.0233(19) Uani 1 1 d . . .
H117 H 0.5765 0.5157 0.5597 0.028 Uiso 1 1 calc R . .
C118 C 0.5993(9) 0.5583(3) 0.3535(4) 0.0158(18) Uani 1 1 d . . .
O119 O 0.5466(5) 0.5864(2) 0.3099(2) 0.0222(13) Uani 1 1 d . . .
O120 O 0.7187(6) 0.5332(2) 0.3488(3) 0.0197(13) Uani 1 1 d . . .
O121 O 0.3943(7) 0.7155(3) 1.3086(3) 0.0453(18) Uani 1 1 d . . .
C122 C 0.5135(10) 0.7405(4) 1.3187(5) 0.043(3) Uani 1 1 d . . .
H122 H 0.5531 0.7545 1.2834 0.052 Uiso 1 1 calc R . .
N123 N 0.5861(9) 0.7485(3) 1.3753(4) 0.047(2) Uani 1 1 d . . .
C12