
#######################################################################
#
#                 Cambridge Crystallographic Data Centre
#                                CCDC
#
#######################################################################
#
# If this CIF has been generated from an entry in the Cambridge
# Structural Database, then it will include bibliographic, chemical,
# crystal, experimental, refinement or atomic coordinate data resulting
# from the CCDC's data processing and validation procedures.
#
#######################################################################

data_CSD_CIF_ISODRN
_audit_creation_date 1979-05-25
_audit_creation_method CSD-ConQuest-V1
_database_code_CSD ISODRN
_database_code_depnum_ccdc_archive 'CCDC 1180973'
_chemical_formula_sum 'C12 H8 Cl6'
_chemical_formula_moiety
;
C12 H8 Cl6
;
_journal_coeditor_code "IUCr A17305"
_journal_coden_Cambridge 107
_journal_volume 35
_journal_year 1979
_journal_page_first 493
_journal_name_full 'Acta Crystallogr.,Sect.B:Struct.Crystallogr.Cryst.Chem. '
loop_
_publ_author_name
"C.H.L.Kennard"
"G.Smith"
"S.Hovmoller"
_chemical_name_systematic
;
1,2,3,4,10,10-Hexachloro-1,4,4a,5,8,8a-hexahydro-endo-1,4-endo-5,8-dimethano-n
aphthalene
;
_chemical_name_common
;
Isodrin; Teaching Subset: Fundamental Chemistry
;
_chemical_melting_point 513
_cell_volume   2838.365
_exptl_crystal_density_diffrn 1.71
_exptl_special_details
;
Melting point range 513-5K
insecticidal agent

;
_diffrn_ambient_temperature ?
_diffrn_special_details
;
The study was carried out at room temperature,in the range 283-303K

;
#These two values have been output from a single CSD field.
_refine_ls_R_factor_gt 0.088
_refine_ls_wR_factor_gt 0.088
loop_
_citation_database_id_CSD
_citation_special_details
ALDRIN "is a stereoisomer of this entry"
_symmetry_cell_setting orthorhombic
_symmetry_space_group_name_H-M 'P b c a'
_symmetry_Int_Tables_number 61
loop_
_symmetry_equiv_pos_site_id
_symmetry_equiv_pos_as_xyz
1 x,y,z
2 1/2-x,-y,1/2+z
3 1/2+x,1/2-y,-z
4 -x,1/2+y,1/2-z
5 -x,-y,-z
6 -1/2+x,y,-1/2-z
7 -1/2-x,-1/2+y,z
8 x,-1/2-y,-1/2+z
_cell_length_a 14.909(6)
_cell_length_b 14.781(12)
_cell_length_c 12.880(18)
_cell_angle_alpha 90
_cell_angle_beta 90
_cell_angle_gamma 90
_cell_formula_units_Z 8
loop_
_atom_type_symbol
_atom_type_radius_bond
C 0.68
H 0.23
Cl 0.99
loop_
_atom_site_label
_atom_site_type_symbol
_atom_site_fract_x
_atom_site_fract_y
_atom_site_fract_z
Cl1 Cl 0.26560 0.21610 0.97010
Cl2 Cl 0.31180 0.24460 0.75270
Cl3 Cl 0.09690 0.15840 0.80460
Cl4 Cl -0.00020 0.29010 0.97640
Cl5 Cl 0.14230 0.45670 1.04030
Cl6 Cl 0.32950 0.43150 0.90840
C1 C 0.20030 0.40310 0.75920
C2 C 0.13330 0.32900 0.73110
C3 C 0.13800 0.26660 0.82950
C4 C 0.09870 0.31340 0.91560
C5 C 0.15370 0.38110 0.94260
C6 C 0.23070 0.37710 0.87300
C7 C 0.14310 0.49280 0.72410
C8 C 0.06700 0.50050 0.80030
C9 C 0.00940 0.43770 0.77710
C10 C 0.04610 0.38180 0.69470
C11 C 0.23540 0.27710 0.84890
C12 C 0.09240 0.45310 0.64090
H1 H 0.25330 0.41890 0.70850
H2 H 0.15780 0.28690 0.66730
H3 H 0.18300 0.53600 0.74300
H4 H 0.07300 0.53720 0.85010
H5 H -0.04340 0.40910 0.81210
H6 H -0.00480 0.34000 0.67190
H7 H 0.14290 0.42070 0.60080
H8 H 0.03370 0.47590 0.61120
#END
