
#######################################################################
#
#                 Cambridge Crystallographic Data Centre
#                                CCDC
#
#######################################################################
#
# If this CIF has been generated from an entry in the Cambridge
# Structural Database, then it will include bibliographic, chemical,
# crystal, experimental, refinement or atomic coordinate data resulting
# from the CCDC's data processing and validation procedures.
#
#######################################################################

data_CSD_CIF_ITETIK
_audit_creation_date 2004-07-08
_audit_creation_method CSD-ConQuest-V1
_database_code_CSD ITETIK
_database_code_depnum_ccdc_archive 'CCDC 222542'
_chemical_formula_sum 'C50 H31 Cu1 N3 O1'
_chemical_formula_moiety
;
C50 H31 Cu1 N3 O1
;
_journal_coden_Cambridge 179
_journal_volume 43
_journal_year 2004
_journal_page_first 1346
_journal_name_full 'Angew.Chem.,Int.Ed. '
loop_
_publ_author_name
"D.A.Colby"
"G.M.Ferrence"
"T.D.Lash"
_chemical_name_systematic
;
(2,7,12,17-Tetraphenyl-27,28,29-triazahexacyclo(16.7.1.1^3,5^.1^8,11^.1^13,16^
.0^19,25^)nonacosa-1(26),2,4,6(29),7,9,11,13(27),14,16,18,20,22,24-tetradecaen
-26-olato-N,N',N'',O)-copper(ii)
;
_chemical_name_common
;
Teaching Subset: Fundamental Chemistry
;
_chemical_melting_point 623.15
_cell_volume   1740.408
_exptl_crystal_colour 'green'
_exptl_crystal_density_diffrn 1.437
_exptl_special_details
;
Melts above 623.15K

;
_exptl_crystal_description 'block'
_exptl_crystal_preparation 'chloroform/hexanes'
_diffrn_ambient_temperature 193
#These two values have been output from a single CSD field.
_refine_ls_R_factor_gt 0.0423
_refine_ls_wR_factor_gt 0.0423
_symmetry_cell_setting triclinic
_symmetry_space_group_name_H-M 'P -1'
_symmetry_Int_Tables_number 2
loop_
_symmetry_equiv_pos_site_id
_symmetry_equiv_pos_as_xyz
1 x,y,z
2 -x,-y,-z
_cell_length_a 9.3736(10)
_cell_length_b 13.7503(15)
_cell_length_c 14.6811(16)
_cell_angle_alpha 67.209(2)
_cell_angle_beta 87.286(2)
_cell_angle_gamma 86.332(2)
_cell_formula_units_Z 2
loop_
_atom_type_symbol
_atom_type_radius_bond
C 0.68
H 0.23
Cu 1.38
N 0.68
O 0.68
loop_
_atom_site_label
_atom_site_type_symbol
_atom_site_fract_x
_atom_site_fract_y
_atom_site_fract_z
C1 C -0.1839(2) 0.38818(18) 0.37595(18)
C2 C -0.3186(2) 0.38591(18) 0.42677(18)
C3 C -0.4518(3) 0.4037(2) 0.38242(19)
H1 H -0.44870 0.42600 0.31250
C4 C -0.5880(3) 0.3936(2) 0.4257(2)
H2 H -0.66430 0.41130 0.38090
C5 C -0.6292(3) 0.3618(2) 0.5239(2)
H3 H -0.72930 0.36160 0.53750
C6 C -0.2917(2) 0.34738(17) 0.53276(18)
C7 C -0.3937(3) 0.3228(2) 0.60979(19)
H4 H -0.35650 0.29760 0.67440
C8 C -0.5420(3) 0.3299(2) 0.6054(2)
H5 H -0.59130 0.30990 0.66750
C9 C -0.1402(2) 0.32597(18) 0.54488(18)
C10 C -0.0621(2) 0.27838(18) 0.63373(17)
C11 C -0.1074(2) 0.30614(19) 0.71995(18)
C12 C -0.1252(3) 0.4125(2) 0.70612(19)
H6 H -0.10790 0.46560 0.64260
C13 C -0.1676(3) 0.4413(2) 0.7840(2)
H7 H -0.17840 0.51400 0.77380
C14 C -0.1943(3) 0.3650(2) 0.8766(2)
H8 H -0.22250 0.38510 0.93020
C15 C -0.1800(3) 0.2592(2) 0.8911(2)
H9 H -0.20030 0.20660 0.95440
C16 C -0.1363(3) 0.2299(2) 0.81362(19)
H10 H -0.12590 0.15710 0.82430
C17 C 0.0535(2) 0.20553(18) 0.64481(18)
C18 C 0.1413(3) 0.16307(19) 0.73108(18)
H11 H 0.13940 0.18680 0.78390
C19 C 0.2263(3) 0.0838(2) 0.72308(18)
H12 H 0.29580 0.04190 0.76890
C20 C 0.1927(2) 0.07422(19) 0.63240(17)
C21 C 0.2460(2) -0.00740(19) 0.60192(18)
C22 C 0.3386(2) -0.09500(18) 0.67113(18)
C23 C 0.2952(3) -0.1505(2) 0.76941(19)
H13 H 0.20430 -0.13360 0.79240
C24 C 0.3836(3) -0.2298(2) 0.8336(2)
H14 H 0.35420 -0.26530 0.90070
C25 C 0.5148(3) -0.2575(2) 0.8000(2)
H15 H 0.57470 -0.31220 0.84390
C26 C 0.5579(3) -0.20547(19) 0.7030(2)
H16 H 0.64670 -0.22550 0.67960
C27 C 0.4713(2) -0.12328(19) 0.63893(19)
H17 H 0.50310 -0.08620 0.57270
C28 C 0.2196(2) -0.01046(18) 0.51071(18)
C29 C 0.2589(3) -0.09583(19) 0.47889(19)
H18 H 0.29890 -0.16340 0.51880
C30 C 0.2287(3) -0.06232(19) 0.38257(19)
H19 H 0.24370 -0.10190 0.34210
C31 C 0.1693(2) 0.04501(19) 0.35170(18)
C32 C 0.1397(2) 0.11359(19) 0.25509(18)
C33 C 0.1860(3) 0.08076(19) 0.17206(18)
C34 C 0.3244(3) 0.0388(2) 0.1678(2)
H20 H 0.39000 0.03250 0.21740
C35 C 0.3672(3) 0.0062(3) 0.0919(2)
H21 H 0.46020 -0.02560 0.09160
C36 C 0.2748(3) 0.0198(3) 0.0166(2)
H22 H 0.30510 -0.00090 -0.03620
C37 C 0.1390(3) 0.0634(2) 0.0183(2)
H23 H 0.07610 0.07430 -0.03400
C38 C 0.0942(3) 0.0913(2) 0.09664(19)
H24 H -0.00120 0.11830 0.09890
C39 C 0.0744(2) 0.21648(19) 0.23033(18)
C40 C 0.0626(3) 0.2955(2) 0.13110(19)
H25 H 0.10270 0.29000 0.07250
C41 C -0.0159(3) 0.3784(2) 0.13715(19)
H26 H -0.04060 0.44230 0.08340
C42 C -0.0560(3) 0.35331(19) 0.23949(18)
C43 C -0.1550(2) 0.41208(19) 0.27333(18)
C44 C -0.2358(3) 0.50368(19) 0.19930(18)
C45 C -0.3074(3) 0.4959(2) 0.12177(19)
H27 H -0.30380 0.43050 0.11370
C46 C -0.3836(3) 0.5818(2) 0.0563(2)
H28 H -0.43320 0.57450 0.00460
C47 C -0.3882(3) 0.6778(2) 0.0653(2)
H29 H -0.43930 0.73710 0.01940
C48 C -0.3180(3) 0.6871(2) 0.1418(2)
H30 H -0.32090 0.75330 0.14850
C49 C -0.2431(3) 0.6009(2) 0.20908(19)
H31 H -0.19650 0.60810 0.26210
C50 C -0.0760(2) 0.35092(18) 0.44850(18)
Cu1 Cu 0.07092(3) 0.19988(2) 0.43710(2)
N1 N 0.0928(2) 0.15192(15) 0.58238(14)
N2 N 0.1580(2) 0.07243(16) 0.43219(15)
N3 N 0.0092(2) 0.25387(16) 0.29662(15)
O1 O 0.06057(16) 0.34387(12) 0.42990(12)
#END
