
#######################################################################
#
#                 Cambridge Crystallographic Data Centre
#                                CCDC
#
#######################################################################
#
# If this CIF has been generated from an entry in the Cambridge
# Structural Database, then it will include bibliographic, chemical,
# crystal, experimental, refinement or atomic coordinate data resulting
# from the CCDC's data processing and validation procedures.
#
#######################################################################

data_CSD_CIF_ITOYOG
_audit_creation_date 2011-08-30
_audit_creation_method CSD-ConQuest-V1
_database_code_CSD ITOYOG
_database_code_depnum_ccdc_archive 'CCDC 774514'
_chemical_formula_sum 'C6 H8 O4 S1'
_chemical_formula_moiety
;
C6 H8 O4 S1
;
_journal_coden_Cambridge 35
_journal_volume 75
_journal_year 2010
_journal_page_first 6685
_journal_name_full 'J.Org.Chem. '
loop_
_publ_author_name
"T.Gunasundari"
"S.Chandrasekaran"
_chemical_name_systematic
;
1-Deoxy-5-thio-D-mannopyrano-3,6-lactone
;
_chemical_name_common
;
4,8-Dihydroxy-6-oxa-2-thiabicyclo[3.2.1]octan-7-one
;
_chemical_melting_point 461
_cell_volume    714.555
_exptl_crystal_colour 'colorless'
_exptl_crystal_density_diffrn 1.638
_exptl_special_details
;
Melting point range 461-462K

;
_exptl_crystal_description 'block'
_diffrn_ambient_temperature 296
#These two values have been output from a single CSD field.
_refine_ls_R_factor_gt 0.035
_refine_ls_wR_factor_gt 0.035
_symmetry_cell_setting tetragonal
_symmetry_space_group_name_H-M 'P 42'
_symmetry_Int_Tables_number 77
loop_
_symmetry_equiv_pos_site_id
_symmetry_equiv_pos_as_xyz
1 x,y,z
2 -y,x,1/2+z
3 y,-x,1/2+z
4 -x,-y,z
_cell_length_a 9.0100(4)
_cell_length_b 9.0100(4)
_cell_length_c 8.8021(5)
_cell_angle_alpha 90
_cell_angle_beta 90
_cell_angle_gamma 90
_cell_formula_units_Z 4
loop_
_atom_type_symbol
_atom_type_radius_bond
C 0.68
H 0.23
O 0.68
S 1.02
loop_
_atom_site_label
_atom_site_type_symbol
_atom_site_fract_x
_atom_site_fract_y
_atom_site_fract_z
S1 S 0.18360(6) 0.35905(6) 0.45298(8)
O1 O 0.3624(2) 0.43452(19) 0.8700(2)
H1 H 0.32240 0.51620 0.87000
O2 O 0.13075(17) 0.19939(18) 0.78887(17)
O3 O -0.08328(18) 0.1802(2) 0.6634(2)
O4 O 0.42599(18) 0.12894(18) 0.5193(2)
H2 H 0.44630 0.04980 0.47830
C1 C 0.3390(2) 0.3640(2) 0.7262(3)
H3 H 0.43400 0.36170 0.67220
C2 C 0.2881(2) 0.2036(2) 0.7504(3)
H4 H 0.34740 0.15530 0.82960
C3 C 0.0496(2) 0.1830(2) 0.6597(3)
C4 C 0.1540(2) 0.1733(2) 0.5259(3)
H5 H 0.11680 0.10580 0.44730
C5 C 0.2297(2) 0.4512(2) 0.6307(3)
H6 H 0.27150 0.54800 0.60850
H7 H 0.13940 0.46640 0.68880
C6 C 0.2935(2) 0.1138(2) 0.6020(3)
H8 H 0.27860 0.00860 0.62590
#END
