####################################################################### 
# 
# This file contains crystal structure data downloaded from the 
# Cambridge Structural Database (CSD) hosted by the Cambridge 
# Crystallographic Data Centre (CCDC).
# 
# Full information about CCDC data access policies and citation 
# guidelines are available at http://www.ccdc.cam.ac.uk/access/V1 
# 
# Audit and citation data items may have been added by the CCDC. 
# Please retain this information to preserve the provenance of 
# this file and to allow appropriate attribution of the data. 
# 
#######################################################################

data_P1
_audit_block_doi                 10.5517/cctppw1
_database_code_depnum_ccdc_archive 'CCDC 765634'
loop_
_citation_id
_citation_doi
_citation_year
1 10.1246/bcsj.20100361 2011
_audit_update_record             
;
2010-02-08 deposited with the CCDC.	2024-07-10 downloaded from the CCDC.
;
#TrackingRef 'CutpmtmPolymers.cif'


#==============================================================================

# CHEMICAL DATA

_chemical_formula_sum            'C57 H63 Cl6 Cu6 N18 O9 S9 '
_chemical_formula_moiety         'C57 H63 Cl6 Cu6 N18 O9 S9 '
_chemical_formula_weight         2026.77
_chemical_melting_point          ?

#==============================================================================

# CRYSTAL DATA
_symmetry_cell_setting           triclinic
_symmetry_space_group_name_H-M   'P -1'
_symmetry_space_group_name_Hall  '-P 1'
_symmetry_Int_Tables_number      2
loop_
_symmetry_equiv_pos_site_id
_symmetry_equiv_pos_as_xyz
1 +X,+Y,+Z
2 -X,-Y,-Z

#------------------------------------------------------------------------------

_cell_length_a                   11.191(4)
_cell_length_b                   18.547(6)
_cell_length_c                   19.309(7)
_cell_angle_alpha                75.053(10)
_cell_angle_beta                 85.930(12)
_cell_angle_gamma                77.835(10)
_cell_volume                     3785(2)
_cell_formula_units_Z            2
_cell_measurement_reflns_used    6654
_cell_measurement_theta_min      4.0
_cell_measurement_theta_max      27.5
_cell_measurement_temperature    193.1

#------------------------------------------------------------------------------

_exptl_crystal_description       prism
_exptl_crystal_colour            purple
_exptl_crystal_size_max          0.15
_exptl_crystal_size_mid          0.05
_exptl_crystal_size_min          0.05
_exptl_crystal_density_diffrn    1.778
_exptl_crystal_density_meas      ?
_exptl_crystal_density_method    'not measured'
_exptl_crystal_F_000             2046.00
_exptl_absorpt_coefficient_mu    2.181
_exptl_absorpt_correction_type   multi-scan
_exptl_absorpt_process_details   'Jacobson, R. (1998) Private communication'
_exptl_absorpt_correction_T_min  0.490
_exptl_absorpt_correction_T_max  0.897

#==============================================================================

# EXPERIMENTAL DATA

_diffrn_radiation_type           'Mo K\a'
_diffrn_radiation_wavelength     0.71070
_diffrn_measurement_device_type  'Rigaku Mercury'
_diffrn_measurement_method       \w
_diffrn_detector_area_resol_mean 7.31
_diffrn_reflns_number            30083
_diffrn_reflns_av_R_equivalents  0.092
_diffrn_reflns_theta_max         27.48
_diffrn_measured_fraction_theta_max 0.958
_diffrn_reflns_theta_full        27.48
_diffrn_measured_fraction_theta_full 0.958
_diffrn_reflns_limit_h_min       -9
_diffrn_reflns_limit_h_max       14
_diffrn_reflns_limit_k_min       -23
_diffrn_reflns_limit_k_max       24
_diffrn_reflns_limit_l_min       -25
_diffrn_reflns_limit_l_max       24
_diffrn_ambient_temperature      193.1

#==============================================================================

# REFINEMENT DATA

_refine_special_details          
;
Refinement was performed using all reflections. The weighted
R-factor (wR) and goodness of fit (S) are based on F^2^.
R-factor (gt) are based on F. The threshold expression of
F^2^ > 2.0 sigma(F^2^) is used only for calculating R-factor (gt).
;
_reflns_number_total             16633
_reflns_number_gt                11053
_reflns_threshold_expression     F^2^>2.0\s(F^2^)
_refine_ls_structure_factor_coef Fsqd
_refine_ls_R_factor_gt           0.1210
_refine_ls_wR_factor_ref         0.2292
_refine_ls_hydrogen_treatment    constr
_refine_ls_number_reflns         16633
_refine_ls_number_parameters     965
_refine_ls_goodness_of_fit_ref   1.210
_refine_ls_weighting_scheme      calc
_refine_ls_weighting_details     
'w = 1/[\s^2^(Fo^2^)+(0.0100P)^2^+48.6212P] where P=(Fo^2^+2Fc^2^)/3'
_refine_ls_shift/su_max          0.0020
_refine_diff_density_max         1.30
_refine_diff_density_min         -1.10
_refine_ls_extinction_method     none
_refine_ls_extinction_coef       ?

loop_
_atom_type_symbol
_atom_type_description
_atom_type_scat_dispersion_real
_atom_type_scat_dispersion_imag
_atom_type_scat_source
C C 0.003 0.002
;
International Tables for Crystallography
(1992, Vol. C, Tables 4.2.6.8 and 6.1.1.4)
;
H H 0.000 0.000
;
International Tables for Crystallography
(1992, Vol. C, Table 6.1.1.4)
;
Cl Cl 0.148 0.159
;
International Tables for Crystallography
(1992, Vol. C, Tables 4.2.6.8 and 6.1.1.4)
;
Cu Cu 0.320 1.265
;
International Tables for Crystallography
(1992, Vol. C, Tables 4.2.6.8 and 6.1.1.4)
;
N N 0.006 0.003
;
International Tables for Crystallography
(1992, Vol. C, Tables 4.2.6.8 and 6.1.1.4)
;
O O 0.011 0.006
;
International Tables for Crystallography
(1992, Vol. C, Tables 4.2.6.8 and 6.1.1.4)
;
S S 0.125 0.123
;
International Tables for Crystallography
(1992, Vol. C, Tables 4.2.6.8 and 6.1.1.4)
;

#==============================================================================

# ATOMIC COORDINATES AND THERMAL PARAMETERS

loop_
_atom_site_label
_atom_site_type_symbol
_atom_site_fract_x
_atom_site_fract_y
_atom_site_fract_z
_atom_site_U_iso_or_equiv
_atom_site_adp_type
_atom_site_occupancy
_atom_site_symmetry_multiplicity
_atom_site_calc_flag
_atom_site_refinement_flags
_atom_site_disorder_assembly
_atom_site_disorder_group
Cu(1) Cu 0.41090(11) 0.00795(7) 0.33373(7) 0.0268(2) Uani 1.00 1 d . . .
Cu(2) Cu 0.29875(11) 0.35369(7) -0.05569(7) 0.0281(2) Uani 1.00 1 d . . .
Cu(3) Cu 0.71112(11) 0.19486(8) 0.13863(8) 0.0331(3) Uani 1.00 1 d . . .
Cu(4) Cu -0.01171(11) 0.20590(8) 0.16196(8) 0.0347(3) Uani 1.00 1 d . . .
Cu(5) Cu 0.08029(11) 0.30078(7) 0.67013(7) 0.0303(3) Uani 1.00 1 d . . .
Cu(6) Cu 0.36023(11) 0.50563(7) 0.48284(8) 0.0331(3) Uani 1.00 1 d . . .
Cl(1) Cl 0.4534(2) -0.12243(15) 0.36288(17) 0.0385(6) Uani 1.00 1 d . . .
Cl(2) Cl 0.2558(2) 0.48174(15) -0.10893(16) 0.0366(6) Uani 1.00 1 d . . .
Cl(3) Cl 0.7975(2) 0.24109(19) 0.22198(17) 0.0437(7) Uani 1.00 1 d . . .
Cl(4) Cl 0.9020(2) 0.16322(17) 0.07121(15) 0.0361(6) Uani 1.00 1 d . . .
Cl(5) Cl 0.1321(2) 0.16960(16) 0.69157(18) 0.0436(7) Uani 1.00 1 d . . .
Cl(6) Cl 0.5457(2) 0.48457(16) 0.41189(15) 0.0355(6) Uani 1.00 1 d . . .
S(1) S 0.3356(2) 0.16305(16) 0.38140(17) 0.0392(6) Uani 1.00 1 d . . .
S(2) S 0.5136(2) 0.15734(14) 0.26374(15) 0.0265(5) Uani 1.00 1 d . . .
S(3) S 0.2587(2) 0.16127(15) 0.23842(17) 0.0371(7) Uani 1.00 1 d . . .
S(4) S 0.3675(2) 0.18169(16) -0.06674(18) 0.0402(7) Uani 1.00 1 d . . .
S(5) S 0.1971(2) 0.21607(14) 0.04602(15) 0.0288(5) Uani 1.00 1 d . . .
S(6) S 0.4543(2) 0.21775(16) 0.05908(18) 0.0396(7) Uani 1.00 1 d . . .
S(7) S 0.0144(2) 0.44936(18) 0.73105(16) 0.0397(6) Uani 1.00 1 d . . .
S(8) S 0.1573(2) 0.45950(14) 0.59890(16) 0.0300(5) Uani 1.00 1 d . . .
S(9) S -0.1027(2) 0.45652(15) 0.59680(17) 0.0360(6) Uani 1.00 1 d . . .
O(1) O 0.0981(9) -0.0051(8) 0.4517(7) 0.092(4) Uani 1.00 1 d . . .
O(2) O 0.9209(14) 0.2536(8) 0.4391(9) 0.123(5) Uani 1.00 1 d . . .
O(3) O 0.9900(10) 0.3883(6) 0.3598(7) 0.093(4) Uani 1.00 1 d . . .
O(4) O 0.4144(16) 0.3328(8) 0.3087(7) 0.109(4) Uani 1.00 1 d . . .
O(5) O 0.384(2) 0.4397(9) 0.1783(7) 0.166(9) Uani 1.00 1 d . . .
O(6) O 0.3077(18) 0.7480(17) 0.1360(11) 0.202(10) Uani 1.00 1 d . . .
O(7) O 0.313(2) 0.626(2) 0.2529(14) 0.239(13) Uani 1.00 1 d . . .
O(8) O 0.2252(18) 0.9354(10) 0.1394(8) 0.140(6) Uani 1.00 1 d . . .
O(9) O 0.269(3) 1.0267(13) 0.0118(19) 0.27(2) Uani 1.00 1 d . . .
N(1) N 0.3716(7) 0.0132(4) 0.4385(4) 0.030(2) Uani 1.00 1 d . . .
N(2) N 0.2987(8) 0.0978(5) 0.5134(5) 0.037(2) Uani 1.00 1 d . . .
N(3) N 0.5403(7) 0.0143(4) 0.2517(4) 0.0278(18) Uani 1.00 1 d . . .
N(4) N 0.6622(6) 0.0948(4) 0.1752(4) 0.0247(17) Uani 1.00 1 d . . .
N(5) N 0.2294(7) 0.0192(5) 0.2937(5) 0.036(2) Uani 1.00 1 d . . .
N(6) N 0.0647(7) 0.1072(5) 0.2277(5) 0.036(2) Uani 1.00 1 d . . .
N(7) N 0.3303(6) 0.3232(4) -0.1495(4) 0.0273(18) Uani 1.00 1 d . . .
N(8) N 0.3996(8) 0.2185(5) -0.2039(5) 0.040(2) Uani 1.00 1 d . . .
N(9) N 0.1783(7) 0.3646(4) 0.0297(4) 0.0278(18) Uani 1.00 1 d . . .
N(10) N 0.0477(7) 0.3015(5) 0.1177(4) 0.0303(19) Uani 1.00 1 d . . .
N(11) N 0.4753(7) 0.3562(5) -0.0162(5) 0.035(2) Uani 1.00 1 d . . .
N(12) N 0.6314(6) 0.2884(4) 0.0666(4) 0.0293(19) Uani 1.00 1 d . . .
N(13) N 0.0516(7) 0.2975(5) 0.7762(5) 0.036(2) Uani 1.00 1 d . . .
N(14) N -0.0175(8) 0.3727(6) 0.8610(5) 0.044(2) Uani 1.00 1 d . . .
N(15) N 0.2106(7) 0.3142(4) 0.5878(4) 0.0241(17) Uani 1.00 1 d . . .
N(16) N 0.3149(6) 0.4040(4) 0.5105(4) 0.0242(17) Uani 1.00 1 d . . .
N(17) N -0.0952(8) 0.3080(5) 0.6235(6) 0.043(2) Uani 1.00 1 d . . .
N(18) N -0.2691(7) 0.3930(4) 0.5633(5) 0.035(2) Uani 1.00 1 d . . .
C(1) C 0.3774(8) 0.1241(5) 0.3059(5) 0.028(2) Uani 1.00 1 d . . .
C(2) C 0.3361(8) 0.0813(6) 0.4509(6) 0.030(2) Uani 1.00 1 d . . .
C(3) C 0.3704(9) -0.0449(6) 0.4958(6) 0.035(2) Uani 1.00 1 d . . .
C(4) C 0.3345(10) -0.0352(7) 0.5628(6) 0.040(2) Uani 1.00 1 d . . .
C(5) C 0.2993(10) 0.0371(7) 0.5710(7) 0.042(2) Uani 1.00 1 d . . .
C(6) C 0.5750(7) 0.0812(5) 0.2280(5) 0.023(2) Uani 1.00 1 d . . .
C(7) C 0.5915(10) -0.0425(6) 0.2211(5) 0.036(2) Uani 1.00 1 d . . .
C(8) C 0.6779(10) -0.0326(6) 0.1678(6) 0.040(2) Uani 1.00 1 d . . .
C(9) C 0.7133(9) 0.0357(6) 0.1466(6) 0.034(2) Uani 1.00 1 d . . .
C(10) C 0.1785(7) 0.0873(5) 0.2572(6) 0.029(2) Uani 1.00 1 d . . .
C(11) C 0.1637(10) -0.0357(6) 0.3080(7) 0.045(3) Uani 1.00 1 d . . .
C(12) C 0.0482(11) -0.0213(7) 0.2808(7) 0.053(3) Uani 1.00 1 d . . .
C(13) C 0.0004(11) 0.0499(7) 0.2422(7) 0.050(3) Uani 1.00 1 d . . .
C(14) C 0.3323(9) 0.2410(5) -0.0052(5) 0.030(2) Uani 1.00 1 d . . .
C(15) C 0.3658(9) 0.2496(6) -0.1489(6) 0.034(2) Uani 1.00 1 d . . .
C(16) C 0.3395(9) 0.3713(6) -0.2159(6) 0.037(2) Uani 1.00 1 d . . .
C(17) C 0.3783(11) 0.3472(7) -0.2763(6) 0.044(2) Uani 1.00 1 d . . .
C(18) C 0.4049(10) 0.2680(7) -0.2672(6) 0.043(3) Uani 1.00 1 d . . .
C(19) C 0.1373(9) 0.3022(5) 0.0657(5) 0.029(2) Uani 1.00 1 d . . .
C(20) C 0.1307(9) 0.4297(6) 0.0472(6) 0.035(2) Uani 1.00 1 d . . .
C(21) C 0.0427(9) 0.4331(6) 0.1017(6) 0.036(2) Uani 1.00 1 d . . .
C(22) C 0.0010(9) 0.3678(6) 0.1338(6) 0.034(2) Uani 1.00 1 d . . .
C(23) C 0.5218(8) 0.2963(5) 0.0329(5) 0.025(2) Uani 1.00 1 d . . .
C(24) C 0.6839(11) 0.3492(7) 0.0469(7) 0.052(3) Uani 1.00 1 d . . .
C(25) C 0.6402(12) 0.4123(7) -0.0044(8) 0.061(4) Uani 1.00 1 d . . .
C(26) C 0.5285(10) 0.4157(6) -0.0357(7) 0.049(3) Uani 1.00 1 d . . .
C(27) C 0.0353(8) 0.4173(5) 0.6500(5) 0.026(2) Uani 1.00 1 d . . .
C(28) C 0.0158(9) 0.3629(6) 0.7957(6) 0.038(2) Uani 1.00 1 d . . .
C(29) C 0.0528(11) 0.2336(8) 0.8290(7) 0.052(3) Uani 1.00 1 d . . .
C(30) C 0.0153(11) 0.2388(9) 0.8984(6) 0.054(3) Uani 1.00 1 d . . .
C(31) C -0.0171(11) 0.3088(9) 0.9106(7) 0.052(3) Uani 1.00 1 d . . .
C(32) C 0.2324(8) 0.3861(5) 0.5630(5) 0.024(2) Uani 1.00 1 d . . .
C(33) C 0.2741(10) 0.2597(6) 0.5610(6) 0.035(2) Uani 1.00 1 d . . .
C(34) C 0.3591(10) 0.2733(6) 0.5071(6) 0.038(2) Uani 1.00 1 d . . .
C(35) C 0.3783(9) 0.3472(5) 0.4834(6) 0.033(2) Uani 1.00 1 d . . .
C(36) C -0.1593(8) 0.3758(5) 0.5965(6) 0.033(2) Uani 1.00 1 d . . .
C(37) C -0.1409(12) 0.2479(6) 0.6211(8) 0.060(4) Uani 1.00 1 d . . .
C(38) C -0.2532(12) 0.2576(7) 0.5890(8) 0.065(4) Uani 1.00 1 d . . .
C(39) C -0.3129(11) 0.3297(6) 0.5619(8) 0.058(4) Uani 1.00 1 d . . .
C(40) C 0.0522(16) -0.0724(11) 0.4890(10) 0.083(5) Uani 1.00 1 d . . .
C(41) C 0.0047(16) 0.0597(13) 0.4423(11) 0.096(6) Uani 1.00 1 d . . .
C(42) C 1.0333(18) 0.2717(11) 0.4501(11) 0.094(6) Uani 1.00 1 d . . .
C(43) C 1.0245(19) 0.3489(11) 0.4319(15) 0.148(12) Uani 1.00 1 d . . .
C(44) C 0.876(2) 0.3679(11) 0.3474(15) 0.133(10) Uani 1.00 1 d . . .
C(45) C 0.886(4) 0.291(2) 0.3716(19) 0.24(2) Uani 1.00 1 d . . .
C(46) C 0.310(2) 0.3831(13) 0.2913(18) 0.147(12) Uani 1.00 1 d . . .
C(47) C 0.292(2) 0.409(2) 0.2179(14) 0.166(15) Uani 1.00 1 d . . .
C(48) C 0.492(2) 0.3829(12) 0.1977(15) 0.133(11) Uani 1.00 1 d . . .
C(49) C 0.5109(17) 0.3658(14) 0.2702(14) 0.111(7) Uani 1.00 1 d . . .
C(50) C 0.269(2) 0.7561(16) 0.2114(14) 0.125(9) Uani 1.00 1 d . . .
C(51) C 0.3367(19) 0.6911(15) 0.2639(14) 0.040(5) Uani 0.50 1 d P . .
C(52) C 0.355(2) 0.6161(15) 0.1784(13) 0.124(8) Uani 1.00 1 d . . .
C(53) C 0.2784(19) 0.6741(14) 0.1235(15) 0.048(6) Uani 0.50 1 d P . .
C(54) C 0.345(2) 0.970(3) 0.118(2) 0.30(4) Uani 1.00 1 d . . .
C(55) C 0.336(4) 0.970(3) 0.048(4) 0.33(3) Uani 1.00 1 d . . .
C(56) C 0.158(3) 1.014(2) 0.031(2) 0.22(2) Uani 1.00 1 d . . .
C(57) C 0.142(4) 0.968(3) 0.090(2) 0.33(3) Uani 1.00 1 d . . .
C(58) C 0.411(2) 0.685(2) 0.1447(16) 0.067(9) Uani 0.50 1 d P . .
C(59) C 0.209(3) 0.694(4) 0.244(2) 0.13(2) Uani 0.50 1 d P . .
H(1) H 0.3954 -0.0953 0.4901 0.042 Uiso 1.00 1 c R . .
H(2) H 0.3342 -0.0779 0.6025 0.048 Uiso 1.00 1 c R . .
H(3) H 0.2752 0.0452 0.6170 0.050 Uiso 1.00 1 c R . .
H(4) H 0.5671 -0.0903 0.2368 0.043 Uiso 1.00 1 c R . .
H(5) H 0.7128 -0.0727 0.1459 0.048 Uiso 1.00 1 c R . .
H(6) H 0.7755 0.0421 0.1107 0.041 Uiso 1.00 1 c R . .
H(7) H 0.1970 -0.0847 0.3370 0.054 Uiso 1.00 1 c R . .
H(8) H 0.0027 -0.0607 0.2890 0.064 Uiso 1.00 1 c R . .
H(9) H -0.0802 0.0602 0.2247 0.061 Uiso 1.00 1 c R . .
H(10) H 0.3176 0.4246 -0.2201 0.045 Uiso 1.00 1 c R . .
H(11) H 0.3867 0.3817 -0.3214 0.052 Uiso 1.00 1 c R . .
H(12) H 0.4279 0.2486 -0.3082 0.052 Uiso 1.00 1 c R . .
H(13) H 0.1573 0.4749 0.0221 0.042 Uiso 1.00 1 c R . .
H(14) H 0.0127 0.4790 0.1160 0.043 Uiso 1.00 1 c R . .
H(15) H -0.0631 0.3698 0.1687 0.040 Uiso 1.00 1 c R . .
H(16) H 0.7562 0.3479 0.0705 0.063 Uiso 1.00 1 c R . .
H(17) H 0.6832 0.4529 -0.0190 0.073 Uiso 1.00 1 c R . .
H(18) H 0.4920 0.4601 -0.0702 0.059 Uiso 1.00 1 c R . .
H(19) H 0.0790 0.1851 0.8190 0.062 Uiso 1.00 1 c R . .
H(20) H 0.0127 0.1944 0.9359 0.064 Uiso 1.00 1 c R . .
H(21) H -0.0411 0.3122 0.9580 0.063 Uiso 1.00 1 c R . .
H(22) H 0.2609 0.2092 0.5795 0.043 Uiso 1.00 1 c R . .
H(23) H 0.4031 0.2337 0.4868 0.045 Uiso 1.00 1 c R . .
H(24) H 0.4381 0.3580 0.4469 0.039 Uiso 1.00 1 c R . .
H(25) H -0.0968 0.1980 0.6415 0.072 Uiso 1.00 1 c R . .
H(26) H -0.2862 0.2152 0.5864 0.079 Uiso 1.00 1 c R . .
H(27) H -0.3898 0.3370 0.5405 0.069 Uiso 1.00 1 c R . .
H(28) H 0.1199 -0.1175 0.4983 0.099 Uiso 1.00 1 c R . .
H(29) H -0.0091 -0.0817 0.4595 0.099 Uiso 1.00 1 c R . .
H(30) H -0.0591 0.0544 0.4120 0.115 Uiso 1.00 1 c R . .
H(31) H 0.0384 0.1048 0.4166 0.115 Uiso 1.00 1 c R . .
H(32) H 1.0559 0.2509 0.5010 0.113 Uiso 1.00 1 c R . .
H(33) H 1.0981 0.2482 0.4205 0.113 Uiso 1.00 1 c R . .
H(34) H 1.1045 0.3595 0.4404 0.177 Uiso 1.00 1 c R . .
H(35) H 0.9641 0.3707 0.4648 0.177 Uiso 1.00 1 c R . .
H(36) H 0.8077 0.3944 0.3730 0.160 Uiso 1.00 1 c R . .
H(37) H 0.8582 0.3839 0.2956 0.160 Uiso 1.00 1 c R . .
H(38) H 0.8050 0.2801 0.3653 0.291 Uiso 1.00 1 c R . .
H(39) H 0.9437 0.2676 0.3388 0.291 Uiso 1.00 1 c R . .
H(40) H 0.3104 0.4272 0.3113 0.176 Uiso 1.00 1 c R . .
H(41) H 0.2412 0.3594 0.3139 0.176 Uiso 1.00 1 c R . .
H(42) H 0.2800 0.3660 0.1996 0.199 Uiso 1.00 1 c R . .
H(43) H 0.2156 0.4481 0.2098 0.199 Uiso 1.00 1 c R . .
H(44) H 0.4839 0.3362 0.1840 0.160 Uiso 1.00 1 c R . .
H(45) H 0.5628 0.4013 0.1713 0.160 Uiso 1.00 1 c R . .
H(46) H 0.5147 0.4128 0.2846 0.134 Uiso 1.00 1 c R . .
H(47) H 0.5898 0.3298 0.2819 0.134 Uiso 1.00 1 c R . .
H(48) H 0.3371 1.0210 0.1258 0.363 Uiso 1.00 1 c R . .
H(49) H 0.4195 0.9352 0.1407 0.363 Uiso 1.00 1 c R . .
H(50) H 0.4192 0.9663 0.0261 0.391 Uiso 1.00 1 c R . .
H(51) H 0.3057 0.9246 0.0460 0.391 Uiso 1.00 1 c R . .
H(52) H 0.1039 1.0637 0.0317 0.261 Uiso 1.00 1 c R . .
H(53) H 0.1277 0.9956 -0.0069 0.261 Uiso 1.00 1 c R . .
H(54) H 0.1126 0.9265 0.0779 0.390 Uiso 1.00 1 c R . .
H(55) H 0.0727 0.9955 0.1142 0.390 Uiso 1.00 1 c R . .


loop_
_atom_site_aniso_label
_atom_site_aniso_U_11
_atom_site_aniso_U_22
_atom_site_aniso_U_33
_atom_site_aniso_U_12
_atom_site_aniso_U_13
_atom_site_aniso_U_23
Cu(1) 0.0195(5) 0.0227(6) 0.0356(7) -0.0053(4) -0.0020(5) -0.0015(5)
Cu(2) 0.0205(5) 0.0238(6) 0.0386(7) -0.0051(4) -0.0037(5) -0.0039(5)
Cu(3) 0.0189(6) 0.0338(7) 0.0454(8) -0.0103(5) -0.0023(5) -0.0034(6)
Cu(4) 0.0194(6) 0.0355(7) 0.0459(8) -0.0087(5) -0.0037(5) -0.0010(6)
Cu(5) 0.0227(6) 0.0259(6) 0.0392(8) -0.0091(5) -0.0060(5) 0.0024(5)
Cu(6) 0.0199(6) 0.0297(6) 0.0477(8) -0.0084(5) -0.0047(5) -0.0021(6)
Cl(1) 0.0366(14) 0.0240(12) 0.0510(18) -0.0075(11) 0.0041(12) -0.0024(12)
Cl(2) 0.0322(13) 0.0250(12) 0.0473(17) -0.0030(10) -0.0029(12) -0.0009(11)
Cl(3) 0.0187(11) 0.068(2) 0.0538(19) -0.0120(12) 0.0009(11) -0.0288(16)
Cl(4) 0.0234(12) 0.0513(16) 0.0350(15) -0.0141(11) 0.0047(10) -0.0091(12)
Cl(5) 0.0349(14) 0.0305(14) 0.059(2) -0.0098(11) -0.0054(13) 0.0046(13)
Cl(6) 0.0236(12) 0.0479(16) 0.0367(15) -0.0148(11) 0.0010(10) -0.0078(12)
S(1) 0.0469(16) 0.0288(14) 0.0397(17) -0.0072(12) 0.0064(13) -0.0066(12)
S(2) 0.0191(11) 0.0231(12) 0.0369(15) -0.0079(9) -0.0021(10) -0.0034(10)
S(3) 0.0245(12) 0.0295(14) 0.0551(19) -0.0146(11) -0.0127(12) 0.0042(13)
S(4) 0.0401(15) 0.0249(13) 0.054(2) -0.0062(12) 0.0080(14) -0.0101(13)
S(5) 0.0193(11) 0.0254(12) 0.0418(16) -0.0075(9) -0.0015(10) -0.0057(11)
S(6) 0.0232(12) 0.0323(14) 0.0574(19) -0.0130(11) -0.0160(12) 0.0094(13)
S(7) 0.0425(16) 0.0424(16) 0.0351(16) -0.0107(13) 0.0038(13) -0.0107(13)
S(8) 0.0210(11) 0.0253(12) 0.0449(16) -0.0112(10) 0.0024(11) -0.0062(11)
S(9) 0.0253(12) 0.0248(13) 0.0563(19) -0.0083(10) -0.0178(12) 0.0002(12)
O(1) 0.039(5) 0.130(11) 0.115(10) -0.019(7) 0.013(6) -0.050(9)
O(2) 0.121(12) 0.118(12) 0.135(13) -0.062(10) -0.045(10) 0.003(10)
O(3) 0.059(7) 0.074(7) 0.119(11) -0.005(6) -0.008(7) 0.017(7)
O(4) 0.129(12) 0.083(9) 0.095(10) -0.021(9) 0.035(9) 0.004(8)
O(