
#######################################################################
#
#                 Cambridge Crystallographic Data Centre
#                                CCDC
#
#######################################################################
#
# If this CIF has been generated from an entry in the Cambridge
# Structural Database, then it will include bibliographic, chemical,
# crystal, experimental, refinement or atomic coordinate data resulting
# from the CCDC's data processing and validation procedures.
#
#######################################################################

data_CSD_CIF_IVEJUO04
_audit_creation_date 2015-08-21
_audit_creation_method CSD-ConQuest-V1
_database_code_CSD IVEJUO04
_database_code_depnum_ccdc_archive 'CCDC 1420022'
_chemical_formula_sum 'C11 H8 O2'
_chemical_formula_moiety
;
C11 H8 O2
;
_journal_coden_Cambridge 1078
_journal_year 2015
_journal_name_full 'CSD Communication(Private Communication) '
loop_
_publ_author_name
"D.Swenson"
_chemical_name_systematic
;
2-methyl-1,4-naphthoquinone
;
_chemical_name_common
;
menadione; Vitamin K!3$; DrugBank: DB00170; Teaching Subset: Essential 
Nutrients
;
_cell_volume   1657.469
_exptl_crystal_colour 'yellow'
_exptl_crystal_density_diffrn 1.38
_exptl_special_details
;
polymorph I

;
_exptl_crystal_description 'lath'
_exptl_crystal_preparation 'Sublimation'
_diffrn_ambient_temperature 190
#These two values have been output from a single CSD field.
_refine_ls_R_factor_gt 0.049
_refine_ls_wR_factor_gt 0.049
_symmetry_cell_setting monoclinic
_symmetry_space_group_name_H-M 'P 21/c'
_symmetry_Int_Tables_number 14
loop_
_symmetry_equiv_pos_site_id
_symmetry_equiv_pos_as_xyz
1 x,y,z
2 -x,1/2+y,1/2-z
3 -x,-y,-z
4 x,-1/2-y,-1/2+z
_cell_length_a 7.3466(8)
_cell_length_b 20.628(3)
_cell_length_c 11.0262(12)
_cell_angle_alpha 90
_cell_angle_beta 97.289(5)
_cell_angle_gamma 90
_cell_formula_units_Z 8
loop_
_atom_type_symbol
_atom_type_radius_bond
C 0.68
H 0.23
O 0.68
loop_
_atom_site_label
_atom_site_type_symbol
_atom_site_fract_x
_atom_site_fract_y
_atom_site_fract_z
O1 O 0.18766(19) 0.60256(7) 0.53454(12)
C1 C 0.1100(2) 0.59818(9) 0.42984(17)
O2 O -0.14368(19) 0.57791(7) 0.07787(13)
C2 C 0.0785(2) 0.53474(9) 0.37050(18)
H1 H 0.12050 0.49730 0.41570
C3 C -0.0059(2) 0.52648(9) 0.25659(18)
C4 C -0.0691(2) 0.58422(9) 0.18302(17)
C5 C -0.0945(3) 0.70465(9) 0.17080(18)
H2 H -0.15160 0.70030 0.08900
C6 C -0.0664(3) 0.76565(10) 0.22154(19)
H3 H -0.10350 0.80310 0.17450
C7 C 0.0158(3) 0.77216(9) 0.34098(19)
H4 H 0.03340 0.81410 0.37630
C8 C 0.0724(3) 0.71789(9) 0.40886(18)
H5 H 0.12990 0.72260 0.49050
C9 C 0.0457(2) 0.65655(8) 0.35829(16)
C10 C -0.0398(2) 0.64970(8) 0.23854(16)
C11 C -0.0370(3) 0.46146(10) 0.1986(2)
H6 H 0.01840 0.42800 0.25480
H7 H 0.01930 0.46010 0.12270
H8 H -0.16910 0.45350 0.18030
O3 O 0.31175(19) 0.39126(7) 0.46975(13)
C12 C 0.3931(2) 0.36876(9) 0.56441(18)
C13 C 0.4203(3) 0.29859(9) 0.57840(19)
H9 H 0.38290 0.27170 0.50980
O4 O 0.6272(2) 0.28611(8) 0.88470(14)
C14 C 0.4945(3) 0.27023(9) 0.68165(19)
C15 C 0.5608(3) 0.31121(10) 0.78888(19)
C16 C 0.6136(3) 0.42208(11) 0.87489(18)
H10 H 0.66870 0.40330 0.94930
C17 C 0.5996(3) 0.48895(11) 0.8637(2)
H11 H 0.64610 0.51590 0.93030
C18 C 0.5188(3) 0.51636(10) 0.7566(2)
H12 H 0.50970 0.56220 0.74960
C19 C 0.4508(3) 0.47768(9) 0.6591(2)
H13 H 0.39470 0.49700 0.58550
C20 C 0.4641(2) 0.41068(9) 0.66850(16)
C21 C 0.5469(2) 0.38272(9) 0.77710(17)
C22 C 0.5138(3) 0.19873(10) 0.6965(3)
H14 H 0.44980 0.17710 0.62420
H15 H 0.46010 0.18500 0.76930
H16 H 0.64410 0.18700 0.70570
H17? H 0.54120 0.17950 0.61960
H18? H 0.39890 0.18050 0.71810
H19? H 0.61390 0.18910 0.76150
#END
