
#######################################################################
#
#                 Cambridge Crystallographic Data Centre
#                                CCDC
#
#######################################################################
#
# If this CIF has been generated from an entry in the Cambridge
# Structural Database, then it will include bibliographic, chemical,
# crystal, experimental, refinement or atomic coordinate data resulting
# from the CCDC's data processing and validation procedures.
#
#######################################################################

data_CSD_CIF_IVIFAU
_audit_creation_date 2004-08-04
_audit_creation_method CSD-ConQuest-V1
_database_code_CSD IVIFAU
_database_code_depnum_ccdc_archive 'CCDC 1181133'
_chemical_formula_sum 'C33 H23 O4'
_chemical_formula_moiety
;
C20 H14 O2,C6 H4 O2,0.5(C14 H10)
;
_journal_coden_Cambridge 4
_journal_volume 125
_journal_year 2003
_journal_page_first 14658
_journal_name_full 'J.Am.Chem.Soc. '
loop_
_publ_author_name
"E.Y.Cheung"
"S.J.Kitchin"
"K.D.M.Harris"
"Y.Imai"
"N.Tajima"
"R.Kuroda"
_chemical_name_systematic
;
Benzoquinone 1,1'-bi(2-naphthol) hemikis(anthracene)
;
_chemical_name_common
;
PDB Chemical Component code: AN3; Teaching Subset: Fundamental Chemistry
;
_cell_volume   4921.548
_exptl_special_details
;
powder data

;
_diffrn_ambient_temperature ?
_diffrn_special_details
;
The study was carried out at room temperature,in the range 283-303K

;
#These two values have been output from a single CSD field.
_refine_ls_R_factor_gt 0.0208
_refine_ls_wR_factor_gt 0.0208
_symmetry_cell_setting monoclinic
_symmetry_space_group_name_H-M 'C 2/c'
_symmetry_Int_Tables_number 15
loop_
_symmetry_equiv_pos_site_id
_symmetry_equiv_pos_as_xyz
1 x,y,z
2 -x,y,1/2-z
3 1/2+x,1/2+y,z
4 1/2-x,1/2+y,1/2-z
5 -x,-y,-z
6 x,-y,-1/2+z
7 -1/2-x,-1/2-y,-z
8 -1/2+x,-1/2-y,-1/2+z
_cell_length_a 27.118(1)
_cell_length_b 10.0494(4)
_cell_length_c 20.3152(7)
_cell_angle_alpha 90
_cell_angle_beta 117.257(3)
_cell_angle_gamma 90
_cell_formula_units_Z 8
loop_
_atom_type_symbol
_atom_type_radius_bond
C 0.68
H 0.23
O 0.68
loop_
_atom_site_label
_atom_site_type_symbol
_atom_site_fract_x
_atom_site_fract_y
_atom_site_fract_z
O1 O 0.5431(5) 0.619(1) 0.0305(8)
C1 C 0.5881(4) 0.561(1) 0.0236(7)
C2 C 0.5827(4) 0.434(1) -0.009(1)
C3 C 0.6258(6) 0.3803(9) -0.020(1)
C4 C 0.6745(4) 0.4537(9) -0.001(9)
C5 C 0.7161(6) 0.403(1) -0.017(9)
C6 C 0.7664(6) 0.471(1) 0.006(1)
C7 C 0.7739(5) 0.596(1) 0.041(1)
C8 C 0.7324(5) 0.649(1) 0.0557(9)
C9 C 0.6822(4) 0.579(8) 0.0355(6)
C10 C 0.6382(3) 0.633(8) 0.0468(5)
C11 C 0.6417(4) 0.7742(7) 0.0777(5)
C12 C 0.6672(6) 0.7966(7) 0.1552(5)
C13 C 0.6908(7) 0.6931(9) 0.2061(6)
C14 C 0.7148(9) 0.718(1) 0.2817(6)
C15 C 0.7153(9) 0.847(1) 0.3077(7)
C16 C 0.6927(6) 0.950(1) 0.2585(7)
C17 C 0.6708(5) 0.927(9) 0.1822(6)
C18 C 0.6524(7) 1.034(8) 0.1328(8)
C19 C 0.6267(8) 1.012(9) 0.0569(8)
C20 C 0.6223(5) 0.884(1) 0.0286(6)
O2 O 0.6012(7) 0.871(1) -0.0471(6)
H1 H 0.55190 0.69270 0.04840
H2 H 0.69010 0.60680 0.18920
H3 H 0.73040 0.64890 0.31510
H4 H 0.73170 0.86360 0.35820
H5 H 0.69250 1.03580 0.27560
H6 H 0.65810 1.12090 0.15040
H7 H 0.61260 1.08300 0.02410
H8 H 0.56950 0.90340 -0.06770
H9 H 0.55040 0.38530 -0.02280
H10 H 0.62260 0.29520 -0.04010
H11 H 0.71080 0.32290 -0.04260
H12 H 0.79500 0.43390 0.00070
H13 H 0.80650 0.64270 0.05410
H14 H 0.73770 0.73120 0.07860
O3 O 0.5230(8) 0.868(2) 0.0859(7)
C21 C 0.5399(5) 0.877(1) 0.1536(7)
C22 C 0.5464(9) 1.007(9) 0.1879(9)
C23 C 0.5641(9) 1.017(8) 0.261(10)
C24 C 0.5810(4) 0.897(9) 0.3076(7)
O4 O 0.5934(7) 0.904(2) 0.3743(8)
C25 C 0.5784(8) 0.7675(8) 0.2739(8)
C26 C 0.5569(9) 0.7568(9) 0.2001(8)
H15 H 0.53880 1.08390 0.15930
H16 H 0.56630 1.09990 0.28280
H17 H 0.59130 0.69210 0.30350
H18 H 0.55260 0.67340 0.17830
C27 C 0.6207(6) 0.372(3) 0.207(1)
C28 C 0.5624(7) 0.370(2) 0.1698(7)
C29 C 0.5275(4) 0.375(1) 0.2032(7)
C30 C 0.4683(6) 0.376(3) 0.165(1)
C31 C 0.5532(6) 0.375(2) 0.281(8)
C32 C 0.6111(7) 0.368(3) 0.318(7)
C33 C 0.6462(4) 0.370(3) 0.284(1)
H19 H 0.64170 0.37440 0.18120
H20 H 0.54570 0.36440 0.11860
H21 H 0.44700 0.37810 0.11410
H22 H 0.62790 0.36120 0.36980
H23 H 0.68470 0.36980 0.31290
C31A C 0.4468(6) 0.375(2) 0.219(8)
C29A C 0.4725(4) 0.375(1) 0.2968(7)
C28A C 0.4376(7) 0.370(2) 0.3302(7)
C27A C 0.3793(6) 0.372(3) 0.293(1)
C33A C 0.3538(4) 0.370(3) 0.216(1)
C32A C 0.3889(7) 0.368(3) 0.182(7)
H22A H 0.37210 0.36120 0.13020
H23A H 0.31530 0.36980 0.18710
H19A H 0.35830 0.37440 0.31880
H20A H 0.45430 0.36440 0.38140
C30A C 0.5317(6) 0.376(3) 0.335(1)
H21A H 0.55300 0.37810 0.38590
#END
