####################################################################### 
# 
# This file contains crystal structure data downloaded from the 
# Cambridge Structural Database (CSD) hosted by the Cambridge 
# Crystallographic Data Centre (CCDC).
# 
# Full information about CCDC data access policies and citation 
# guidelines are available at http://www.ccdc.cam.ac.uk/access/V1 
# 
# Audit and citation data items may have been added by the CCDC. 
# Please retain this information to preserve the provenance of 
# this file and to allow appropriate attribution of the data. 
# 
#######################################################################

data_CID-23
_audit_block_doi                 10.5517/ccvfrmm
_database_code_depnum_ccdc_archive 'CCDC 787791'
loop_
_citation_id
_citation_doi
_citation_year
1 10.1002/chem.201003734 2011
_audit_update_record             
;
2010-08-07 deposited with the CCDC.	2024-07-10 downloaded from the CCDC.
;
#TrackingRef 'CID-23.cif'


_audit_creation_method           SHELXL-97
_chemical_name_systematic        
;
?
;
_chemical_name_common            ?
_chemical_melting_point          ?
_chemical_formula_moiety         ?
_chemical_formula_sum            'C23 H19 N3 O5 Zn'
_chemical_formula_weight         482.78

loop_
_atom_type_symbol
_atom_type_description
_atom_type_scat_dispersion_real
_atom_type_scat_dispersion_imag
_atom_type_scat_source
C C 0.0033 0.0016 'International Tables Vol C Tables 4.2.6.8 and 6.1.1.4'
H H 0.0000 0.0000 'International Tables Vol C Tables 4.2.6.8 and 6.1.1.4'
N N 0.0061 0.0033 'International Tables Vol C Tables 4.2.6.8 and 6.1.1.4'
O O 0.0106 0.0060 'International Tables Vol C Tables 4.2.6.8 and 6.1.1.4'
Zn Zn 0.2839 1.4301 'International Tables Vol C Tables 4.2.6.8 and 6.1.1.4'

_symmetry_cell_setting           triclinic
_symmetry_space_group_name_H-M   P-1

loop_
_symmetry_equiv_pos_as_xyz
'x, y, z'
'-x, -y, -z'

_cell_length_a                   8.9178(18)
_cell_length_b                   10.089(2)
_cell_length_c                   12.285(3)
_cell_angle_alpha                85.463(7)
_cell_angle_beta                 80.761(7)
_cell_angle_gamma                77.769(5)
_cell_volume                     1065.1(4)
_cell_formula_units_Z            2
_cell_measurement_temperature    223(2)
_cell_measurement_reflns_used    ?
_cell_measurement_theta_min      ?
_cell_measurement_theta_max      ?

_exptl_crystal_description       plate
_exptl_crystal_colour            yellow
_exptl_crystal_size_max          0.20
_exptl_crystal_size_mid          0.20
_exptl_crystal_size_min          0.20
_exptl_crystal_density_meas      ?
_exptl_crystal_density_diffrn    1.505
_exptl_crystal_density_method    'not measured'
_exptl_crystal_F_000             496
_exptl_absorpt_coefficient_mu    1.194
_exptl_absorpt_correction_type   empirical
_exptl_absorpt_correction_T_min  0.7962
_exptl_absorpt_correction_T_max  0.7962
_exptl_absorpt_process_details   ?

_exptl_special_details           
;
?
;

_diffrn_ambient_temperature      223(2)
_diffrn_radiation_wavelength     0.71075
_diffrn_radiation_type           MoK\a
_diffrn_radiation_source         'fine-focus sealed tube'
_diffrn_radiation_monochromator  graphite
_diffrn_measurement_device_type  CCD
_diffrn_measurement_method       \w
_diffrn_detector_area_resol_mean ?
_diffrn_standards_number         ?
_diffrn_standards_interval_count ?
_diffrn_standards_interval_time  ?
_diffrn_standards_decay_%        ?
_diffrn_reflns_number            8578
_diffrn_reflns_av_R_equivalents  0.0238
_diffrn_reflns_av_sigmaI/netI    0.0301
_diffrn_reflns_limit_h_min       -11
_diffrn_reflns_limit_h_max       11
_diffrn_reflns_limit_k_min       -13
_diffrn_reflns_limit_k_max       12
_diffrn_reflns_limit_l_min       -15
_diffrn_reflns_limit_l_max       15
_diffrn_reflns_theta_min         3.44
_diffrn_reflns_theta_max         27.51
_reflns_number_total             4647
_reflns_number_gt                4233
_reflns_threshold_expression     >2sigma(I)

_computing_data_collection       ?
_computing_cell_refinement       ?
_computing_data_reduction        ?
_computing_structure_solution    Sir-97
_computing_structure_refinement  'SHELXL-97 (Sheldrick, 1997)'
_computing_molecular_graphics    ?
_computing_publication_material  ?

_refine_special_details          
;
Refinement of F^2^ against ALL reflections. The weighted R-factor wR and
goodness of fit S are based on F^2^, conventional R-factors R are based
on F, with F set to zero for negative F^2^. The threshold expression of
F^2^ > 2sigma(F^2^) is used only for calculating R-factors(gt) etc. and is
not relevant to the choice of reflections for refinement. R-factors based
on F^2^ are statistically about twice as large as those based on F, and R-
factors based on ALL data will be even larger.
;

_refine_ls_structure_factor_coef Fsqd
_refine_ls_matrix_type           full
_refine_ls_weighting_scheme      calc
_refine_ls_weighting_details     
'calc w=1/[\s^2^(Fo^2^)+(0.0406P)^2^+0.3388P] where P=(Fo^2^+2Fc^2^)/3'
_atom_sites_solution_primary     direct
_atom_sites_solution_secondary   difmap
_atom_sites_solution_hydrogens   geom
_refine_ls_hydrogen_treatment    constr
_refine_ls_extinction_method     none
_refine_ls_extinction_coef       ?
_refine_ls_number_reflns         4647
_refine_ls_number_parameters     329
_refine_ls_number_restraints     0
_refine_ls_R_factor_all          0.0324
_refine_ls_R_factor_gt           0.0291
_refine_ls_wR_factor_ref         0.0770
_refine_ls_wR_factor_gt          0.0742
_refine_ls_goodness_of_fit_ref   1.078
_refine_ls_restrained_S_all      1.078
_refine_ls_shift/su_max          0.001
_refine_ls_shift/su_mean         0.000

loop_
_atom_site_label
_atom_site_type_symbol
_atom_site_fract_x
_atom_site_fract_y
_atom_site_fract_z
_atom_site_U_iso_or_equiv
_atom_site_adp_type
_atom_site_occupancy
_atom_site_symmetry_multiplicity
_atom_site_calc_flag
_atom_site_refinement_flags
_atom_site_disorder_assembly
_atom_site_disorder_group
Zn1 Zn 0.63934(2) 0.122797(17) 0.038497(15) 0.01834(7) Uani 1 1 d . . .
O2 O 0.81309(16) 0.20997(12) 0.10899(12) 0.0309(3) Uani 1 1 d . . .
N1 N -0.22270(16) 0.11360(14) 0.87626(12) 0.0216(3) Uani 1 1 d . . .
N2 N 0.48434(17) 0.12877(15) 0.19598(12) 0.0255(3) Uani 1 1 d . . .
O3 O 0.62149(15) 0.33973(12) 0.03631(11) 0.0284(3) Uani 1 1 d . . .
C2 C 0.9994(2) 0.54732(19) 0.15363(18) 0.0318(4) Uani 1 1 d . . .
H1 H 1.0949 0.5371 0.1796 0.038 Uiso 1 1 calc R . .
C3 C 0.71571(18) 0.57737(16) 0.07744(14) 0.0195(3) Uani 1 1 d . . .
H2 H 0.6198 0.5871 0.0520 0.023 Uiso 1 1 calc R . .
C5 C 0.74150(19) 0.32509(16) 0.08076(14) 0.0218(3) Uani 1 1 d . . .
C6 C 0.77328(18) 0.69220(16) 0.09265(13) 0.0194(3) Uani 1 1 d . . .
C7 C -0.0929(2) 0.01936(17) 0.85291(15) 0.0252(4) Uani 1 1 d . . .
H3 H -0.0669 -0.0495 0.9068 0.030 Uiso 1 1 calc R . .
C8 C 0.0044(2) 0.01874(19) 0.75312(15) 0.0291(4) Uani 1 1 d . . .
H4 H 0.0940 -0.0497 0.7398 0.035 Uiso 1 1 calc R . .
C9 C 0.5027(3) 0.0304(2) 0.27448(16) 0.0376(5) Uani 1 1 d . . .
H5 H 0.5905 -0.0402 0.2637 0.045 Uiso 1 1 calc R . .
C10 C -0.2582(2) 0.2108(2) 0.79809(16) 0.0311(4) Uani 1 1 d . . .
H6 H -0.3497 0.2768 0.8130 0.037 Uiso 1 1 calc R . .
C11 C -0.0315(2) 0.1203(2) 0.67301(15) 0.0286(4) Uani 1 1 d . . .
C12 C 0.0712(2) 0.1256(2) 0.57100(17) 0.0356(4) Uani 1 1 d . . .
C13 C 0.80105(19) 0.44872(16) 0.10016(14) 0.0211(3) Uani 1 1 d . . .
C14 C 0.3599(2) 0.2296(2) 0.21448(17) 0.0379(5) Uani 1 1 d . . .
H7 H 0.3456 0.3005 0.1603 0.045 Uiso 1 1 calc R . .
C15 C 0.9420(2) 0.43386(17) 0.13849(16) 0.0280(4) Uani 1 1 d . . .
H8 H 0.9988 0.3466 0.1542 0.034 Uiso 1 1 calc R . .
C16 C -0.1671(2) 0.2184(2) 0.69723(16) 0.0357(4) Uani 1 1 d . . .
H9 H -0.1957 0.2889 0.6451 0.043 Uiso 1 1 calc R . .
C17 C 0.9155(2) 0.67612(17) 0.13033(16) 0.0267(4) Uani 1 1 d . . .
H10 H 0.9550 0.7530 0.1401 0.032 Uiso 1 1 calc R . .
C19 C 0.2708(2) 0.1307(2) 0.38934(16) 0.0329(4) Uani 1 1 d . . .
C20 C 0.2519(3) 0.2351(2) 0.30849(18) 0.0423(5) Uani 1 1 d . . .
H11 H 0.1667 0.3083 0.3179 0.051 Uiso 1 1 calc R . .
C22 C 0.4003(3) 0.0266(2) 0.37053(17) 0.0432(5) Uani 1 1 d . . .
H12 H 0.4177 -0.0458 0.4230 0.052 Uiso 1 1 calc R . .
C23 C 0.1606(3) 0.1294(2) 0.48810(17) 0.0392(5) Uani 1 1 d . . .
C24 C 0.68282(18) 0.83171(15) 0.06676(13) 0.0178(3) Uani 1 1 d . . .
O4 O 0.74606(13) 0.93054(11) 0.07529(10) 0.0228(2) Uani 1 1 d . . .
O5 O 0.55178(14) 0.84254(12) 0.04143(12) 0.0299(3) Uani 1 1 d . . .
N3 N 0.3253(4) 0.5327(3) 0.6117(2) 0.0822(9) Uani 1 1 d . . .
C27 C 0.292(3) 0.6913(16) 0.6055(14) 0.146(7) Uani 0.50 1 d P A 1
H13 H 0.2760 0.7242 0.6794 0.218 Uiso 0.50 1 calc PR A 1
H14 H 0.2004 0.7258 0.5710 0.218 Uiso 0.50 1 calc PR A 1
H15 H 0.3803 0.7225 0.5621 0.218 Uiso 0.50 1 calc PR A 1
C28 C 0.2103(11) 0.4802(9) 0.5705(7) 0.081(2) Uani 0.50 1 d P A 1
H16 H 0.2245 0.3850 0.5729 0.098 Uiso 0.50 1 calc PR A 1
C31 C 0.4493(10) 0.4591(14) 0.6470(6) 0.105(4) Uani 0.50 1 d P A 1
H17 H 0.4347 0.4564 0.7271 0.158 Uiso 0.50 1 calc PR A 1
H18 H 0.5385 0.4988 0.6182 0.158 Uiso 0.50 1 calc PR A 1
H19 H 0.4665 0.3675 0.6220 0.158 Uiso 0.50 1 calc PR A 1
C32 C 0.244(2) 0.6503(16) 0.6023(8) 0.179(11) Uani 0.50 1 d P A 2
H20 H 0.1738 0.6712 0.6706 0.269 Uiso 0.50 1 calc PR A 2
H21 H 0.1838 0.6544 0.5424 0.269 Uiso 0.50 1 calc PR A 2
H22 H 0.3106 0.7159 0.5868 0.269 Uiso 0.50 1 calc PR A 2
C33 C 0.4888(16) 0.5431(15) 0.6612(9) 0.153(7) Uani 0.50 1 d P A 2
H23 H 0.4615 0.5791 0.7343 0.229 Uiso 0.50 1 calc PR A 2
H24 H 0.5442 0.6027 0.6123 0.229 Uiso 0.50 1 calc PR A 2
H25 H 0.5543 0.4534 0.6654 0.229 Uiso 0.50 1 calc PR A 2
O6 O 0.1171(14) 0.5307(11) 0.5395(9) 0.184(4) Uani 0.50 1 d P A 1
O8 O 0.4545(7) 0.3051(5) 0.6279(5) 0.108(2) Uani 0.50 1 d P A 2
C34 C 0.3513(16) 0.3921(11) 0.6151(8) 0.120(4) Uani 0.50 1 d P A 2
H26 H 0.2634 0.3601 0.6042 0.144 Uiso 0.50 1 calc PR A 2

loop_
_atom_site_aniso_label
_atom_site_aniso_U_11
_atom_site_aniso_U_22
_atom_site_aniso_U_33
_atom_site_aniso_U_23
_atom_site_aniso_U_13
_atom_site_aniso_U_12
Zn1 0.01846(10) 0.01312(10) 0.02233(12) -0.00105(7) -0.00015(7) -0.00280(7)
O2 0.0352(7) 0.0132(6) 0.0454(8) 0.0007(5) -0.0105(6) -0.0044(5)
N1 0.0195(6) 0.0214(7) 0.0222(7) -0.0003(6) -0.0007(5) -0.0026(5)
N2 0.0267(7) 0.0231(7) 0.0238(7) -0.0004(6) 0.0032(6) -0.0037(6)
O3 0.0299(7) 0.0187(6) 0.0402(7) -0.0016(5) -0.0115(6) -0.0082(5)
C2 0.0246(9) 0.0238(9) 0.0498(12) 0.0018(8) -0.0174(8) -0.0040(7)
C3 0.0195(7) 0.0149(7) 0.0245(8) -0.0013(6) -0.0038(6) -0.0039(6)
C5 0.0253(8) 0.0161(7) 0.0234(8) -0.0018(6) 0.0009(6) -0.0056(6)
C6 0.0199(7) 0.0151(7) 0.0229(8) -0.0005(6) -0.0018(6) -0.0037(6)
C7 0.0245(8) 0.0211(8) 0.0269(9) -0.0004(7) 0.0011(7) -0.0016(6)
C8 0.0262(9) 0.0264(9) 0.0306(10) -0.0040(7) 0.0037(7) -0.0012(7)
C9 0.0436(11) 0.0314(10) 0.0282(10) 0.0018(8) 0.0042(8) 0.0058(8)
C10 0.0258(9) 0.0332(10) 0.0276(9) 0.0051(8) -0.0001(7) 0.0033(7)
C11 0.0287(9) 0.0350(10) 0.0215(8) -0.0021(7) 0.0023(7) -0.0096(7)
C12 0.0345(10) 0.0431(12) 0.0274(10) -0.0021(8) 0.0018(8) -0.0084(9)
C13 0.0229(8) 0.0144(7) 0.0270(8) -0.0009(6) -0.0050(6) -0.0049(6)
C14 0.0362(11) 0.0370(11) 0.0296(10) 0.0056(8) 0.0070(8) 0.0054(8)
C15 0.0281(9) 0.0158(8) 0.0398(10) 0.0016(7) -0.0114(8) -0.0002(6)
C16 0.0334(10) 0.0416(11) 0.0267(10) 0.0091(8) -0.0020(8) -0.0014(8)
C17 0.0265(8) 0.0179(8) 0.0391(10) -0.0019(7) -0.0114(7) -0.0072(7)
C19 0.0332(10) 0.0396(11) 0.0252(9) -0.0025(8) 0.0031(8) -0.0107(8)
C20 0.0330(11) 0.0482(13) 0.0342(11) 0.0026(9) 0.0078(9) 0.0066(9)
C22 0.0554(14) 0.0374(11) 0.0273(10) 0.0048(9) 0.0072(9) -0.0005(10)
C23 0.0370(11) 0.0489(13) 0.0299(11) -0.0035(9) 0.0046(8) -0.0111(9)
C24 0.0201(7) 0.0149(7) 0.0169(7) -0.0011(6) 0.0013(6) -0.0032(6)
O4 0.0221(6) 0.0128(5) 0.0332(7) 0.0000(5) -0.0021(5) -0.0043(4)
O5 0.0255(6) 0.0209(6) 0.0453(8) 0.0000(5) -0.0153(6) -0.0021(5)
N3 0.095(2) 0.085(2) 0.0520(15) -0.0026(14) 0.0141(15) -0.0031(18)
C27 0.206(16) 0.112(11) 0.129(12) -0.056(9) -0.022(11) -0.038(10)
C28 0.096(6) 0.066(4) 0.075(5) 0.010(4) -0.009(4) -0.007(4)
C31 0.062(5) 0.188(12) 0.045(4) 0.019(6) 0.006(3) -0.002(6)
C32 0.25(2) 0.139(12) 0.047(5) 0.039(7) 0.054(8) 0.116(14)
C33 0.180(13) 0.236(17) 0.070(6) -0.053(8) 0.031(7) -0.125(12)
O6 0.225(12) 0.151(9) 0.190(10) 0.024(7) -0.081(9) -0.042(8)
O8 0.113(5) 0.068(3) 0.108(4) 0.009(3) 0.008(3) 0.040(3)
C34 0.140(10) 0.112(8) 0.090(7) -0.003(6) 0.036(7) -0.025(7)

_geom_special_details            
;
All esds (except the esd in the dihedral angle between two l.s. planes)
are estimated using the full covariance matrix. The cell esds are taken
into account individually in the estimation of esds in distances, angles
and torsion angles; correlations between esds in cell parameters are only
used when they are defined by crystal symmetry. An approximate (isotropic)
treatment of cell esds is used for estimating esds involving l.s. planes.
;

loop_
_geom_bond_atom_site_label_1
_geom_bond_atom_site_label_2
_geom_bond_distance
_geom_bond_site_symmetry_2
_geom_bond_publ_flag
Zn1 O4 2.0223(12) 1_545 ?
Zn1 O5 2.0547(12) 2_665 ?
Zn1 O3 2.1589(13) . ?
Zn1 N1 2.1654(15) 1_654 ?
Zn1 N2 2.1867(15) . ?
Zn1 O2 2.2480(13) . ?
Zn1 C5 2.5243(17) . ?
O2 C5 1.253(2) . ?
N1 C7 1.340(2) . ?
N1 C10 1.342(2) . ?
N1 Zn1 2.1653(15) 1_456 ?
N2 C9 1.331(2) . ?
N2 C14 1.340(2) . ?
O3 C5 1.254(2) . ?
C2 C15 1.385(2) . ?
C2 C17 1.388(2) . ?
C2 H1 0.9400 . ?
C3 C13 1.391(2) . ?
C3 C6 1.399(2) . ?
C3 H2 0.9400 . ?
C5 C13 1.504(2) . ?
C6 C17 1.393(2) . ?
C6 C24 1.505(2) . ?
C7 C8 1.383(2) . ?
C7 H3 0.9400 . ?
C8 C11 1.387(3) . ?
C8 H4 0.9400 . ?
C9 C22 1.375(3) . ?
C9 H5 0.9400 . ?
C10 C16 1.374(3) . ?
C10 H6 0.9400 . ?
C11 C16 1.398(3) . ?
C11 C12 1.433(3) . ?
C12 C23 1.192(3) . ?
C13 C15 1.387(2) . ?
C14 C20 1.377(3) . ?
C14 H7 0.9400 . ?
C15 H8 0.9400 . ?
C16 H9 0.9400 . ?
C17 H10 0.9400 . ?
C19 C22 1.388(3) . ?
C19 C20 1.392(3) . ?
C19 C23 1.435(3) . ?
C20 H11 0.9400 . ?
C22 H12 0.9400 . ?
C24 O5 1.238(2) . ?
C24 O4 1.2636(19) . ?
O4 Zn1 2.0223(12) 1_565 ?
O5 Zn1 2.0547(12) 2_665 ?
N3 C32 1.262(12) . ?
N3 C31 1.310(9) . ?
N3 C34 1.386(11) . ?
N3 C28 1.424(10) . ?
N3 C27 1.563(16) . ?
N3 C33 1.693(13) . ?
C27 H13 0.9700 . ?
C27 H14 0.9700 . ?
C27 H15 0.9700 . ?
C28 O6 0.994(11) . ?
C28 H16 0.9400 . ?
C31 H17 0.9700 . ?
C31 H18 0.9700 . ?
C31 H19 0.9700 . ?
C32 H20 0.9700 . ?
C32 H21 0.9700 . ?
C32 H22 0.9700 . ?
C33 H23 0.9700 . ?
C33 H24 0.9700 . ?
C33 H25 0.9700 . ?
O8 C34 1.151(13) . ?
C34 H26 0.9400 . ?

loop_
_geom_angle_atom_site_label_1
_geom_angle_atom_site_label_2
_geom_angle_atom_site_label_3
_geom_angle
_geom_angle_site_symmetry_1
_geom_angle_site_symmetry_3
_geom_angle_publ_flag
O4 Zn1 O5 120.10(5) 1_545 2_665 ?
O4 Zn1 O3 151.46(5) 1_545 . ?
O5 Zn1 O3 88.41(5) 2_665 . ?
O4 Zn1 N1 89.83(5) 1_545 1_654 ?
O5 Zn1 N1 86.70(6) 2_665 1_654 ?
O3 Zn1 N1 90.87(5) . 1_654 ?
O4 Zn1 N2 91.00(5) 1_545 . ?
O5 Zn1 N2 88.85(6) 2_665 . ?
O3 Zn1 N2 90.63(5) . . ?
N1 Zn1 N2 175.26(5) 1_654 . ?
O4 Zn1 O2 91.96(5) 1_545 . ?
O5 Zn1 O2 147.88(5) 2_665 . ?
O3 Zn1 O2 59.50(5) . . ?
N1 Zn1 O2 92.03(5) 1_654 . ?
N2 Zn1 O2 92.60(6) . . ?
O4 Zn1 C5 121.68(5) 1_545 . ?
O5 Zn1 C5 118.16(5) 2_665 . ?
O3 Zn1 C5 29.78(5) . . ?
N1 Zn1 C5 91.09(5) 1_654 . ?
N2 Zn1 C5 92.44(6) . . ?
O2 Zn1 C5 29.73(5) . . ?
C5 O2 Zn1 87.44(10) . . ?
C7 N1 C10 117.60(15) . . ?
C7 N1 Zn1 122.02(12) . 1_456 ?
C10 N1 Zn1 120.13(12) . 1_456 ?
C9 N2 C14 117.00(16) . . ?
C9 N2 Zn1 122.45(13) . . ?
C14 N2 Zn1 120.44(13) . . ?
C5 O3 Zn1 91.46(10) . . ?
C15 C2 C17 119.89(16) . . ?
C15 C2 H1 120.1 . . ?
C17 C2 H1 120.1 . . ?
C13 C3 C6 119.66(15) . . ?
C13 C3 H2 120.2 . . ?
C6 C3 H2 120.2 . . ?
O2 C5 O3 121.55(15) . . ?
O2 C5 C13 119.30(15) . . ?
O3 C5 C13 119.15(15) . . ?
O2 C5 Zn1 62.83(9) . . ?
O3 C5 Zn1 58.75(8) . . ?
C13 C5 Zn1 177.07(12) . . ?
C17 C6 C3 119.51(15) . . ?
C17 C6 C24 120.46(14) . . ?
C3 C6 C24 120.02(14) . . ?
N1 C7 C8 123.03(17) . . ?
N1 C7 H3 118.5 . . ?
C8 C7 H3 118.5 . . ?
C7 C8 C11 119.25(17) . . ?
C7 C8 H4 120.4 . . ?
C11 C8 H4 120.4 . . ?
N2 C9 C22 123.53(19) . . ?
N2 C9 H5 118.2 . . ?
C22 C9 H5 118.2 . . ?
N1 C10 C16 123.08(17) . . ?
N1 C10 H6 118.5 . . ?
C16 C10 H6 118.5 . . ?
C8 C11 C16 117.73(17) . . ?
C8 C11 C12 120.31(18) . . ?
C16 C11 C12 121.92(18) . . ?
C23 C12 C11 177.9(2) . . ?
C15 C13 C3 120.36(15) . . ?
C15 C13 C5 119.90(15) . . ?
C3 C13 C5 119.72(15) . . ?
N2 C14 C20 123.57(19) . . ?
N2 C14 H7 118.2 . . ?
C20 C14 H7 118.2 . . ?
C2 C15 C13 120.13(16) . . ?
C2 C15 H8 119.9 . . ?
C13 C15 H8 119.9 . . ?
C10 C16 C11 119.29(18) . . ?
C10 C16 H9 120.4 . . ?
C11 C16 H9 120.4 . . ?
C2 C17 C6 120.44(15) . . ?
C2 C17 H10 119.8 . . ?
C6 C17 H10 119.8 . . ?
C22 C19 C20 117.42(18) . . ?
C22 C19 C23 120.99(19) . . ?
C20 C19 C23 121.6(2) . . ?
C14 C20 C19 119.02(19) . . ?
C14 C20 H11 120.5 . . ?
C19 C20 H11 120.5 . . ?
C9 C22 C19 119.44(19) . . ?
C9 C22 H12 120.3 . . ?
C19 C22 H12 120.3 . . ?
C12 C23 C19 178.4(3) . . ?
O5 C24 O4 124.60(15) . . ?
O5 C24 C6 118.58(14) . . ?
O4 C24 C6 116.80(14) . . ?
C24 O4 Zn1 120.68(11) . 1_565 ?
C24 O5 Zn1 165.48(13) . 2_665 ?
C32 N3 C31 145.8(13) . . ?
C32 N3 C34 154.0(13) . . ?
C31 N3 C34 59.