
#######################################################################
#
#                 Cambridge Crystallographic Data Centre
#                                CCDC
#
#######################################################################
#
# If this CIF has been generated from an entry in the Cambridge
# Structural Database, then it will include bibliographic, chemical,
# crystal, experimental, refinement or atomic coordinate data resulting
# from the CCDC's data processing and validation procedures.
#
#######################################################################

data_CSD_CIF_IWESOS
_audit_creation_date 2004-08-24
_audit_creation_method CSD-ConQuest-V1
_database_code_CSD IWESOS
_database_code_depnum_ccdc_archive 'CCDC 1181230'
_database_code_depnum_ccdc_journal 1003/6192
_chemical_formula_sum 'C23 H38 N2 O2'
_chemical_formula_moiety
;
C21 H32 N2 O1,C2 H6 O1
;
_journal_coden_Cambridge 1003
_journal_volume 33
_journal_year 2003
_journal_page_first 131
_journal_name_full 'J.Chem.Cryst. '
loop_
_publ_author_name
"D.R.Lisgarten"
"J.S.Fell"
"B.S.Potter"
"R.A.Palmer"
_chemical_name_systematic
;
17\b-Hydroxy-17\a-methylandrostano(3,2-c)pyrazole ethanol solvate
;
_chemical_name_common
;
Stanazolol ethanol solvate; Teaching Subset: Fundamental Chemistry, Drug 
Molecules
;
_cell_volume   2133.499
_exptl_crystal_colour 'colorless'
_exptl_crystal_density_diffrn 1.159
_exptl_special_details
;
anabolic agent
No reply to request for a cif containing hydrogen atoms

;
_diffrn_ambient_temperature 293
#These two values have been output from a single CSD field.
_refine_ls_R_factor_gt 0.0459
_refine_ls_wR_factor_gt 0.0459
_symmetry_cell_setting orthorhombic
_symmetry_space_group_name_H-M 'P 21 21 21'
_symmetry_Int_Tables_number 19
loop_
_symmetry_equiv_pos_site_id
_symmetry_equiv_pos_as_xyz
1 x,y,z
2 1/2-x,-y,1/2+z
3 1/2+x,1/2-y,-z
4 -x,1/2+y,1/2-z
_cell_length_a 7.155(6)
_cell_length_b 11.068(2)
_cell_length_c 26.941(3)
_cell_angle_alpha 90
_cell_angle_beta 90
_cell_angle_gamma 90
_cell_formula_units_Z 4
loop_
_atom_type_symbol
_atom_type_radius_bond
C 0.68
H 0.23
N 0.68
O 0.68
loop_
_atom_site_label
_atom_site_type_symbol
_atom_site_fract_x
_atom_site_fract_y
_atom_site_fract_z
C1 C 0.7418(3) 0.0057(2) -0.0645(1)
C2 C 0.7539(3) -0.0092(2) -0.1199(1)
C3 C 0.6068(3) -0.0502(2) -0.1489(1)
C4 C 0.4192(3) -0.0779(2) -0.1290(1)
C5 C 0.4260(3) -0.0906(2) -0.0723(1)
C6 C 0.2289(3) -0.1040(3) -0.0521(1)
C7 C 0.2283(3) -0.1294(3) 0.0033(3)
C8 C 0.3377(3) -0.0342(2) 0.0321(1)
C9 C 0.5354(3) -0.0180(2) 0.0108(1)
C10 C 0.5375(3) 0.0097(2) -0.0460(1)
C11 C 0.6501(3) 0.0686(3) 0.0429(1)
C12 C 0.6555(3) 0.0318(3) 0.0977(1)
C13 C 0.4578(3) 0.0197(2) 0.1192(1)
C14 C 0.3519(3) -0.0702(2) 0.0864(1)
C15 C 0.1748(4) -0.0953(3) 0.1159(1)
C16 C 0.2432(4) -0.0995(2) 0.1698(1)
C17 C 0.4390(3) -0.0416(2) 0.1713(1)
C18 C 0.3646(3) 0.1428(2) 0.1211(1)
C19 C 0.4567(3) 0.1347(2) -0.0574(1)
C20 C 0.5870(5) -0.1343(3) 0.1821(1)
O1 O 0.4538(2) 0.0434(2) 0.2120(1)
C21 C 0.8975(3) 0.0075(2) -0.1532(1)
N1 N 0.8337(3) -0.0230(2) -0.1984(1)
N2 N 0.6542(3) -0.0599(2) -0.1968(1)
H1 H 0.80430 0.07990 -0.05490
H2 H 0.80570 -0.06100 -0.04850
H3 H 0.37350 -0.15240 -0.14360
H4 H 0.33300 -0.01360 -0.13800
H5 H 0.49020 -0.16680 -0.06530
H6 H 0.16610 -0.16950 -0.06930
H7 H 0.15920 -0.03020 -0.05860
H8 H 0.28310 -0.20810 0.00930
H9 H 0.10040 -0.13110 0.01520
H10 H 0.27080 0.04300 0.02980
H11 H 0.59530 -0.09690 0.01440
H12 H 0.59760 0.14920 0.04020
H13 H 0.77690 0.07160 0.03020
H14 H 0.72440 0.09210 0.11640
H15 H 0.72050 -0.04460 0.10100
H16 H 0.42450 -0.14520 0.08720
H17 H 0.12030 -0.17220 0.10630
H18 H 0.08390 -0.03200 0.11130
H19 H 0.25010 -0.18260 0.18120
H20 H 0.15830 -0.05560 0.19100
H21 H 0.43590 0.19580 0.14200
H22 H 0.24050 0.13450 0.13430
H23 H 0.52840 0.19520 -0.04040
H24 H 0.35800 0.17590 0.08820
H25 H 0.32910 0.13820 -0.04630
H26 H 0.46150 0.14890 -0.09250
H27 H 0.70760 -0.09610 0.18310
C22 C 0.58660 -0.19530 0.15670
H28 H 0.56280 -0.17170 0.21380
H29 H 0.35570 0.07920 0.21530
H30 H 0.89950 -0.01980 -0.22490
H31 H -0.17210 0.35970 0.19930
O2 O 0.1036(3) 0.1443(2) 0.2329(1)
C23 C 0.0492(4) 0.2648(3) 0.2252(1)
C24 C -0.1422(5) 0.2759(3) 0.2039(1)
H32 H 0.03740 0.11370 0.25360
H33 H 0.13770 0.30380 0.20300
H34 H 0.05310 0.30690 0.25670
H35 H -0.23100 0.23960 0.22590
H36 H -0.14640 0.23540 0.17220
#END
