
#######################################################################
#
#                 Cambridge Crystallographic Data Centre
#                                CCDC
#
#######################################################################
#
# If this CIF has been generated from an entry in the Cambridge
# Structural Database, then it will include bibliographic, chemical,
# crystal, experimental, refinement or atomic coordinate data resulting
# from the CCDC's data processing and validation procedures.
#
#######################################################################

data_CSD_CIF_IWIRIP
_audit_creation_date 2004-08-24
_audit_creation_method CSD-ConQuest-V1
_database_code_CSD IWIRIP
_database_code_depnum_ccdc_archive 'CCDC 187770'
_chemical_formula_sum 'C18 H26 Nd2 O22'
_chemical_formula_moiety
;
(C18 H22 Nd2 O20)n,2n(H2 O1)
;
_journal_coden_Cambridge 29
_journal_volume 630
_journal_year 2004
_journal_page_first 613
_journal_name_full 'Z.Anorg.Allg.Chem. '
loop_
_publ_author_name
"Qing-Lun Wang"
"Mao Liang"
"Dai-Zheng Liao"
"Shi-Ping Yan"
"Zong-Hui Jiang"
"Peng Cheng"
_chemical_name_systematic
;
catena-(bis(\m~3~-1,3,5-Benzenetricarboxylato)-octaaqua-di-neodymium(iii) 
dihydrate)
;
_chemical_name_common
;
Teaching Subset: MOFs
;
_cell_volume    876.147
_exptl_crystal_density_diffrn 1.673
_diffrn_ambient_temperature 293
#These two values have been output from a single CSD field.
_refine_ls_R_factor_gt 0.0372
_refine_ls_wR_factor_gt 0.0372
_symmetry_cell_setting hexagonal
_symmetry_space_group_name_H-M 'P -3 m 1'
_symmetry_Int_Tables_number 164
loop_
_symmetry_equiv_pos_site_id
_symmetry_equiv_pos_as_xyz
1 x,y,z
2 -y,x-y,z
3 -x+y,-x,z
4 y,x,-z
5 -x,-x+y,-z
6 x-y,-y,-z
7 -x,-y,-z
8 y,-x+y,-z
9 x-y,x,-z
10 -y,-x,z
11 x,x-y,z
12 -x+y,y,z
_cell_length_a 9.853(7)
_cell_length_b 9.853(7)
_cell_length_c 10.421(8)
_cell_angle_alpha 90
_cell_angle_beta 90
_cell_angle_gamma 120
_cell_formula_units_Z 1
loop_
_atom_type_symbol
_atom_type_radius_bond
C 0.68
H 0.23
Nd 1.81
O 0.68
loop_
_atom_site_label
_atom_site_type_symbol
_atom_site_fract_x
_atom_site_fract_y
_atom_site_fract_z
Nd1 Nd 0.66670 0.33330 0.10084(6)
O1 O 0.66670 0.33330 0.3256(9)
O2 O 0.4004(5) 0.0932(6) 0.1535(7)
C1 C 0.3295(8) 0.1647(4) 0.1559(7)
C2 C 0.0790(4) 0.1580(7) 0.1662(6)
H1 H 0.13350 0.26700 0.16440
C3 C 0.1589(7) 0.0795(4) 0.1676(6)
O3 O 0.8470(7) 0.4235(4) -0.0818(7)
O4 O 0.00000 0.00000 0.50000
O5 O 0.66670 0.33330 0.539(3)
O2J O 0.4004(5) 0.3072(6) 0.1535(7)
C3A C -0.0795(7) 0.0794(4) 0.1676(6)
C1A C -0.1647(8) 0.1648(4) 0.1559(7)
O2A O -0.0932(5) 0.3072(6) 0.1535(7)
O2K O -0.3072(5) 0.0932(6) 0.1535(7)
C2A C -0.1580(4) -0.0790(7) 0.1662(6)
H1A H -0.26700 -0.13350 0.16440
C3B C -0.0794(7) -0.1589(4) 0.1676(6)
C1B C -0.1648(8) -0.3295(4) 0.1559(7)
O2B O -0.3072(5) -0.4004(6) 0.1535(7)
O2I O -0.0932(5) -0.4004(6) 0.1535(7)
C2B C 0.0790(4) -0.0790(7) 0.1662(6)
H1B H 0.13350 -0.13350 0.16440
O2A* O 0.9068(5) 0.3072(6) 0.1535(7)
C1A* C 0.8353(8) 0.1648(4) 0.1559(7)
C2A* C 0.8420(4) -0.0790(7) 0.1662(6)
H1A* H 0.73300 -0.13350 0.16440
C3A* C 0.9205(7) 0.0794(4) 0.1676(6)
O2K* O 0.6928(5) 0.0932(6) 0.1535(7)
C3B* C 0.9206(7) -0.1589(4) 0.1676(6)
C1B* C 0.8352(8) -0.3295(4) 0.1559(7)
O2B* O 0.6928(5) -0.4004(6) 0.1535(7)
O2I* O 0.9068(5) -0.4004(6) 0.1535(7)
C2B* C 1.0790(4) -0.0790(7) 0.1662(6)
H1B* H 1.13350 -0.13350 0.16440
C3* C 1.1589(7) 0.0795(4) 0.1676(6)
C1* C 1.3295(8) 0.1647(4) 0.1559(7)
O2* O 1.4004(5) 0.0932(6) 0.1535(7)
O2J* O 1.4004(5) 0.3072(6) 0.1535(7)
C2* C 1.0790(4) 0.1580(7) 0.1662(6)
H1* H 1.13350 0.26700 0.16440
O3A O 0.5765(7) 0.4235(4) -0.0818(7)
O3B O 0.5765(7) 0.1530(4) -0.0818(7)
Nd1A Nd -0.33330 0.33340 0.10084(6)
O1A O -0.33330 0.33340 0.3256(9)
O3A* O -0.4235(7) 0.4235(4) -0.0818(7)
O3B* O -0.4235(7) 0.1530(4) -0.0818(7)
O3* O -0.1530(7) 0.4235(4) -0.0818(7)
O2B** O 0.6928(5) 0.5996(6) 0.1535(7)
O2I** O 0.9068(5) 0.5996(6) 0.1535(7)
Nd1* Nd -0.33330 -0.66670 0.10084(6)
Nd1** Nd 0.66670 -0.66670 0.10084(6)
Nd1*** Nd 1.66670 0.33330 0.10084(6)
O2** O -0.5996(5) 0.0932(6) 0.1535(7)
O2B*** O -0.3072(5) 0.5996(6) 0.1535(7)
O2J** O -0.5996(5) 0.3072(6) 0.1535(7)
O2I*** O -0.0932(5) 0.5996(6) 0.1535(7)
#END
