####################################################################### 
# 
# This file contains crystal structure data downloaded from the 
# Cambridge Structural Database (CSD) hosted by the Cambridge 
# Crystallographic Data Centre (CCDC).
# 
# Full information about CCDC data access policies and citation 
# guidelines are available at http://www.ccdc.cam.ac.uk/access/V1 
# 
# Audit and citation data items may have been added by the CCDC. 
# Please retain this information to preserve the provenance of 
# this file and to allow appropriate attribution of the data. 
# 
#######################################################################

data_jb34
_audit_block_doi                 10.5517/ccx85gs
_database_code_depnum_ccdc_archive 'CCDC 842005'
loop_
_citation_id
_citation_doi
_citation_year
1 10.1021/ic102291r 2011
_audit_update_record             
;
2011-08-30 deposited with the CCDC.	2024-07-10 downloaded from the CCDC.
;

_audit_creation_method           SHELXL-97
_chemical_name_systematic        
;
?
;
_chemical_name_common            ?
_chemical_melting_point          ?
_chemical_formula_moiety         ?
_chemical_formula_sum            'C110 H116 Fe3 N12 O8'
_chemical_formula_weight         1901.70

loop_
_atom_type_symbol
_atom_type_description
_atom_type_scat_dispersion_real
_atom_type_scat_dispersion_imag
_atom_type_scat_source
C C 0.0033 0.0016 'International Tables Vol C Tables 4.2.6.8 and 6.1.1.4'
H H 0.0000 0.0000 'International Tables Vol C Tables 4.2.6.8 and 6.1.1.4'
N N 0.0061 0.0033 'International Tables Vol C Tables 4.2.6.8 and 6.1.1.4'
O O 0.0106 0.0060 'International Tables Vol C Tables 4.2.6.8 and 6.1.1.4'
Fe Fe 0.3463 0.8444 'International Tables Vol C Tables 4.2.6.8 and 6.1.1.4'

_symmetry_cell_setting           monoclinic
_symmetry_space_group_name_H-M   C2

loop_
_symmetry_equiv_pos_as_xyz
'x, y, z'
'-x, y, -z'
'x+1/2, y+1/2, z'
'-x+1/2, y+1/2, -z'

_cell_length_a                   28.9533(7)
_cell_length_b                   13.0045(3)
_cell_length_c                   26.7340(8)
_cell_angle_alpha                90.00
_cell_angle_beta                 90.526(2)
_cell_angle_gamma                90.00
_cell_volume                     10065.5(5)
_cell_formula_units_Z            4
_cell_measurement_temperature    100(2)
_cell_measurement_reflns_used    9155
_cell_measurement_theta_min      2.84
_cell_measurement_theta_max      29.29

_exptl_crystal_description       block
_exptl_crystal_colour            purple
_exptl_crystal_size_max          0.30
_exptl_crystal_size_mid          0.12
_exptl_crystal_size_min          0.12
_exptl_crystal_density_meas      ?
_exptl_crystal_density_diffrn    1.255
_exptl_crystal_density_method    'not measured'
_exptl_crystal_F_000             4008
_exptl_absorpt_coefficient_mu    0.489
_exptl_absorpt_correction_type   multi-scan
_exptl_absorpt_correction_T_min  0.88
_exptl_absorpt_correction_T_max  1.00
_exptl_absorpt_process_details   'ABSPACK(CrysAlis, Oxford Diffraction)'

_exptl_special_details           
;
The temperature of the crystal was controlled using the Oxford
Cryosystem Cryostream Cobra.
The data collection nominally covered over a hemisphere of
Reciprocal space, by a combination of four sets of exposures with
different \f angles for the crystal; each 60 s exposure covered
1.0\% in \w.
The crystal-to-detector distance was 5.5 cm.
Crystal decay was found to be negligible by by repeating the initial
frames at the end of data collection and analyzing the duplicate
reflections.

Hydrogen atoms were added at calculated positions and refined using
a riding model. Anisotropic displacement parameters were used for all
non-H atoms; H-atoms were given isotropic displacement parameter equal
to 1.2 (or 1.5 for methyl H-atoms) times the equivalent isotropic
displacement parameter of the atom to which they are attached.

The asymmetric unit contains a trimer unit with an infinite zig-zag repeat
through the cell.There are three bis phenoxyimine copper complexes
connected by pyrazine.The middle complex has a trans orientation of the
phenoxyimines and of the pyrazines.
The terminal complexes have an L shaped arrangement of the phenoxy imine
ligands and of the connecting pyrazines.
Also two diethyl ethers were located.
There are 4 times all this in the unit cell.

The crystals were weakly diffracting and restraints were used
to give the two diethyl ethers chemically reasonable bond lengths and
angles and thermal parameters. Restraints were also used on the large
thermal parameters of the outer carbons of phenylimine ligands.

The cif checker has an A alert to highlight the large voids in the structure.
Squeeze (Run via Platon) calculates that there are 748.4 Angstroms cubed of
solvent accessible void.
There were no major peaks left in the difference map.

;

_diffrn_ambient_temperature      100(2)
_diffrn_radiation_wavelength     0.71073
_diffrn_radiation_type           MoK\a
_diffrn_radiation_source         'Enhance (Mo) X-ray Source'
_diffrn_radiation_monochromator  graphite
_diffrn_measurement_device_type  'Oxford Diffraction Gemini R'
_diffrn_measurement_method       '\f & \w scans'
_diffrn_detector_area_resol_mean 10.2833
_diffrn_standards_number         ?
_diffrn_standards_interval_count ?
_diffrn_standards_interval_time  ?
_diffrn_standards_decay_%        nil
_diffrn_reflns_number            24234
_diffrn_reflns_av_R_equivalents  0.0369
_diffrn_reflns_av_sigmaI/netI    0.0956
_diffrn_reflns_limit_h_min       -29
_diffrn_reflns_limit_h_max       38
_diffrn_reflns_limit_k_min       -17
_diffrn_reflns_limit_k_max       12
_diffrn_reflns_limit_l_min       -33
_diffrn_reflns_limit_l_max       31
_diffrn_reflns_theta_min         2.85
_diffrn_reflns_theta_max         29.35
_reflns_number_total             16354
_reflns_number_gt                11575
_reflns_threshold_expression     >2sigma(I)

_computing_data_collection       'CrysAlis CCD, Oxford Diffraction Ltd'
_computing_cell_refinement       'CrysAlis RED, Oxford Diffraction Ltd'
_computing_data_reduction        'CrysAlis RED, Oxford Diffraction Ltd'
_computing_structure_solution    'SHELXS-97 (Sheldrick, 1990)'
_computing_structure_refinement  'SHELXL-97 (Sheldrick, 1997)'
_computing_molecular_graphics    'SHELXTL (Sheldrick, 1997)'
_computing_publication_material  'SHELXTL (Sheldrick, 1997)'

_refine_special_details          
;
Refinement of F^2^ against ALL reflections. The weighted R-factor wR and
goodness of fit S are based on F^2^, conventional R-factors R are based
on F, with F set to zero for negative F^2^. The threshold expression of
F^2^ > 2sigma(F^2^) is used only for calculating R-factors(gt) etc. and is
not relevant to the choice of reflections for refinement. R-factors based
on F^2^ are statistically about twice as large as those based on F, and R-
factors based on ALL data will be even larger.
;

_refine_ls_structure_factor_coef Fsqd
_refine_ls_matrix_type           full
_refine_ls_weighting_scheme      calc
_refine_ls_weighting_details     
'calc w=1/[\s^2^(Fo^2^)+(0.0887P)^2^+0.0000P] where P=(Fo^2^+2Fc^2^)/3'
_atom_sites_solution_primary     direct
_atom_sites_solution_secondary   difmap
_atom_sites_solution_hydrogens   geom
_refine_ls_hydrogen_treatment    constr
_refine_ls_extinction_method     none
_refine_ls_extinction_coef       ?
_refine_ls_abs_structure_details 
'Flack H D (1983), Acta Cryst. A39, 876-881, 4291 Friedel pairs'
_refine_ls_abs_structure_Flack   0.018(16)
_chemical_absolute_configuration rmad
_refine_ls_number_reflns         16354
_refine_ls_number_parameters     1208
_refine_ls_number_restraints     1192
_refine_ls_R_factor_all          0.0790
_refine_ls_R_factor_gt           0.0582
_refine_ls_wR_factor_ref         0.1542
_refine_ls_wR_factor_gt          0.1476
_refine_ls_goodness_of_fit_ref   0.977
_refine_ls_restrained_S_all      1.010
_refine_ls_shift/su_max          0.001
_refine_ls_shift/su_mean         0.000

loop_
_atom_site_label
_atom_site_type_symbol
_atom_site_fract_x
_atom_site_fract_y
_atom_site_fract_z
_atom_site_U_iso_or_equiv
_atom_site_adp_type
_atom_site_occupancy
_atom_site_symmetry_multiplicity
_atom_site_calc_flag
_atom_site_refinement_flags
_atom_site_disorder_assembly
_atom_site_disorder_group
N1 N 0.30418(14) 0.4663(3) 0.18962(17) 0.0180(7) Uani 1 1 d U . .
C1 C 0.27354(17) 0.4060(4) 0.2130(2) 0.0181(7) Uani 1 1 d U . .
H1A H 0.2630 0.3459 0.1963 0.022 Uiso 1 1 calc R . .
C2 C 0.25660(17) 0.4266(4) 0.2598(2) 0.0173(7) Uani 1 1 d U . .
H2A H 0.2353 0.3801 0.2744 0.021 Uiso 1 1 calc R . .
N2 N 0.26943(14) 0.5112(3) 0.28553(17) 0.0170(6) Uani 1 1 d U . .
C3 C 0.30023(17) 0.5712(4) 0.2625(2) 0.0185(7) Uani 1 1 d U . .
H3A H 0.3104 0.6321 0.2788 0.022 Uiso 1 1 calc R . .
C4 C 0.31790(17) 0.5483(4) 0.2159(2) 0.0183(7) Uani 1 1 d U . .
H4A H 0.3406 0.5924 0.2021 0.022 Uiso 1 1 calc R . .
Fe1 Fe 0.24478(2) 0.55093(5) 0.36360(3) 0.01365(17) Uani 1 1 d U . .
O1 O 0.26593(11) 0.6962(3) 0.35614(14) 0.0173(6) Uani 1 1 d U . .
C5 C 0.30326(17) 0.7451(5) 0.3690(2) 0.0202(6) Uani 1 1 d U . .
C6 C 0.30479(19) 0.8532(5) 0.3631(2) 0.0242(7) Uani 1 1 d U . .
H6A H 0.2785 0.8884 0.3502 0.029 Uiso 1 1 calc R . .
C7 C 0.34449(18) 0.9091(5) 0.3759(2) 0.0274(8) Uani 1 1 d U . .
H7A H 0.3446 0.9816 0.3718 0.033 Uiso 1 1 calc R . .
C8 C 0.3839(2) 0.8601(5) 0.3947(2) 0.0272(8) Uani 1 1 d U . .
H8A H 0.4109 0.8980 0.4032 0.033 Uiso 1 1 calc R . .
C9 C 0.38237(18) 0.7572(5) 0.4002(2) 0.0252(7) Uani 1 1 d U . .
H9A H 0.4092 0.7233 0.4126 0.030 Uiso 1 1 calc R . .
C10 C 0.34346(18) 0.6971(5) 0.3887(2) 0.0219(6) Uani 1 1 d U . .
C11 C 0.34612(18) 0.5862(4) 0.3979(2) 0.0213(7) Uani 1 1 d U . .
H11A H 0.3747 0.5604 0.4103 0.026 Uiso 1 1 calc R . .
N3 N 0.31349(14) 0.5205(4) 0.39093(17) 0.0197(6) Uani 1 1 d U . .
C12 C 0.32286(18) 0.4101(4) 0.4036(2) 0.0224(7) Uani 1 1 d U . .
H12A H 0.2942 0.3821 0.4192 0.027 Uiso 1 1 calc R . .
C13 C 0.36306(18) 0.3896(5) 0.4408(2) 0.0299(11) Uani 1 1 d U . .
H13A H 0.3617 0.3180 0.4522 0.045 Uiso 1 1 calc R . .
H13B H 0.3604 0.4358 0.4695 0.045 Uiso 1 1 calc R . .
H13C H 0.3925 0.4018 0.4241 0.045 Uiso 1 1 calc R . .
C14 C 0.33038(18) 0.3503(5) 0.3553(2) 0.0220(7) Uani 1 1 d U . .
C15 C 0.30708(18) 0.2582(5) 0.3466(2) 0.0237(7) Uani 1 1 d U . .
H15A H 0.2856 0.2338 0.3705 0.028 Uiso 1 1 calc R . .
C16 C 0.31469(19) 0.2016(5) 0.3036(2) 0.0264(8) Uani 1 1 d U . .
H16A H 0.2990 0.1382 0.2986 0.032 Uiso 1 1 calc R . .
C17 C 0.34541(18) 0.2373(5) 0.2674(2) 0.0267(8) Uani 1 1 d U . .
H17A H 0.3497 0.2000 0.2373 0.032 Uiso 1 1 calc R . .
C18 C 0.36944(18) 0.3277(4) 0.2762(2) 0.0250(8) Uani 1 1 d U . .
H18A H 0.3909 0.3516 0.2521 0.030 Uiso 1 1 calc R . .
C19 C 0.36254(18) 0.3842(5) 0.3201(2) 0.0231(8) Uani 1 1 d U . .
H19A H 0.3796 0.4454 0.3260 0.028 Uiso 1 1 calc R . .
O2 O 0.21696(11) 0.4115(3) 0.36157(14) 0.0168(6) Uani 1 1 d U . .
C20 C 0.19496(17) 0.3544(4) 0.3934(2) 0.0174(6) Uani 1 1 d U . .
C21 C 0.17728(17) 0.2582(4) 0.3782(2) 0.0197(7) Uani 1 1 d U . .
H21A H 0.1812 0.2365 0.3446 0.024 Uiso 1 1 calc R . .
C22 C 0.15434(18) 0.1945(4) 0.4113(2) 0.0219(8) Uani 1 1 d U . .
H22A H 0.1424 0.1306 0.3999 0.026 Uiso 1 1 calc R . .
C23 C 0.14856(18) 0.2225(4) 0.4607(2) 0.0232(8) Uani 1 1 d U . .
H23A H 0.1336 0.1772 0.4832 0.028 Uiso 1 1 calc R . .
C24 C 0.16476(18) 0.3176(4) 0.4772(2) 0.0226(7) Uani 1 1 d U . .
H24A H 0.1607 0.3372 0.5111 0.027 Uiso 1 1 calc R . .
C25 C 0.18720(17) 0.3850(4) 0.4439(2) 0.0186(6) Uani 1 1 d U . .
C26 C 0.20080(16) 0.4842(4) 0.4644(2) 0.0170(7) Uani 1 1 d U . .
H26A H 0.1957 0.4943 0.4991 0.020 Uiso 1 1 calc R . .
N4 N 0.21883(13) 0.5586(4) 0.44083(16) 0.0166(6) Uani 1 1 d U . .
C27 C 0.22857(18) 0.6558(4) 0.4683(2) 0.0183(6) Uani 1 1 d U . .
H27A H 0.2599 0.6790 0.4578 0.022 Uiso 1 1 calc R . .
C28 C 0.22979(19) 0.6487(4) 0.5249(2) 0.0240(10) Uani 1 1 d U . .
H28A H 0.2501 0.5920 0.5352 0.036 Uiso 1 1 calc R . .
H28B H 0.1985 0.6362 0.5373 0.036 Uiso 1 1 calc R . .
H28C H 0.2416 0.7134 0.5389 0.036 Uiso 1 1 calc R . .
C29 C 0.19480(17) 0.7376(4) 0.4509(2) 0.0195(6) Uani 1 1 d U . .
C30 C 0.21013(19) 0.8370(4) 0.4401(2) 0.0219(7) Uani 1 1 d U . .
H30A H 0.2420 0.8527 0.4437 0.026 Uiso 1 1 calc R . .
C31 C 0.18013(19) 0.9124(5) 0.4244(2) 0.0244(8) Uani 1 1 d U . .
H31A H 0.1914 0.9791 0.4167 0.029 Uiso 1 1 calc R . .
C32 C 0.13307(19) 0.8911(4) 0.4197(2) 0.0253(8) Uani 1 1 d U . .
H32A H 0.1122 0.9427 0.4084 0.030 Uiso 1 1 calc R . .
C33 C 0.11713(19) 0.7944(4) 0.4319(2) 0.0236(8) Uani 1 1 d U . .
H33A H 0.0850 0.7800 0.4301 0.028 Uiso 1 1 calc R . .
C34 C 0.14750(18) 0.7184(4) 0.4466(2) 0.0209(7) Uani 1 1 d U . .
H34A H 0.1360 0.6517 0.4540 0.025 Uiso 1 1 calc R . .
N5 N 0.17897(14) 0.6098(3) 0.32619(17) 0.0168(6) Uani 1 1 d U . .
C35 C 0.15091(16) 0.5466(5) 0.3007(2) 0.0187(7) Uani 1 1 d U . .
H35A H 0.1567 0.4747 0.3013 0.022 Uiso 1 1 calc R . .
C36 C 0.11365(17) 0.5836(4) 0.2735(2) 0.0194(7) Uani 1 1 d U . .
H36A H 0.0952 0.5362 0.2551 0.023 Uiso 1 1 calc R . .
N6 N 0.10251(14) 0.6834(4) 0.27186(18) 0.0187(6) Uani 1 1 d U . .
C37 C 0.13018(16) 0.7468(5) 0.2983(2) 0.0178(7) Uani 1 1 d U . .
H37A H 0.1234 0.8182 0.2990 0.021 Uiso 1 1 calc R . .
C38 C 0.16816(17) 0.7104(4) 0.3245(2) 0.0174(7) Uani 1 1 d U . .
H38A H 0.1873 0.7580 0.3418 0.021 Uiso 1 1 calc R . .
Fe2 Fe 0.03920(3) 0.74277(7) 0.23211(3) 0.01689(17) Uani 1 1 d U . .
O3 O 0.02039(13) 0.6025(3) 0.21388(16) 0.0260(6) Uani 1 1 d U . .
C39 C 0.0279(2) 0.5410(5) 0.1760(3) 0.0350(7) Uani 1 1 d U . .
C40 C 0.0078(2) 0.4440(5) 0.1746(3) 0.0423(9) Uani 1 1 d U . .
H40A H -0.0119 0.4241 0.2011 0.051 Uiso 1 1 calc R . .
C41 C 0.0153(3) 0.3763(6) 0.1367(3) 0.0516(10) Uani 1 1 d U . .
H41A H 0.0002 0.3115 0.1364 0.062 Uiso 1 1 calc R . .
C42 C 0.0455(3) 0.4031(6) 0.0980(3) 0.0565(10) Uani 1 1 d U . .
H42A H 0.0517 0.3546 0.0723 0.068 Uiso 1 1 calc R . .
C43 C 0.0662(3) 0.4972(6) 0.0965(3) 0.0520(9) Uani 1 1 d U . .
H43A H 0.0860 0.5144 0.0697 0.062 Uiso 1 1 calc R . .
C44 C 0.0579(2) 0.5709(6) 0.1358(3) 0.0421(8) Uani 1 1 d U . .
C45 C 0.0791(2) 0.6693(5) 0.1303(3) 0.0379(8) Uani 1 1 d U . .
H45A H 0.0974 0.6780 0.1013 0.045 Uiso 1 1 calc R . .
N7 N 0.07675(16) 0.7476(4) 0.15949(19) 0.0322(6) Uani 1 1 d U . .
C46 C 0.1027(2) 0.8411(5) 0.1424(3) 0.0357(7) Uani 1 1 d U . .
H46A H 0.1190 0.8211 0.1110 0.043 Uiso 1 1 calc R . .
C47 C 0.1398(2) 0.8725(6) 0.1798(3) 0.0468(13) Uani 1 1 d U . .
H47A H 0.1607 0.8145 0.1858 0.070 Uiso 1 1 calc R . .
H47B H 0.1253 0.8926 0.2113 0.070 Uiso 1 1 calc R . .
H47C H 0.1573 0.9307 0.1665 0.070 Uiso 1 1 calc R . .
C48 C 0.06927(19) 0.9285(5) 0.1282(2) 0.0317(7) Uani 1 1 d U . .
C49 C 0.03608(18) 0.9122(5) 0.0916(2) 0.0299(8) Uani 1 1 d U . .
H49A H 0.0331 0.8461 0.0768 0.036 Uiso 1 1 calc R . .
C50 C 0.0068(2) 0.9919(5) 0.0760(2) 0.0292(8) Uani 1 1 d U . .
H50A H -0.0159 0.9800 0.0509 0.035 Uiso 1 1 calc R . .
C51 C 0.0114(2) 1.0881(5) 0.0976(2) 0.0306(9) Uani 1 1 d U . .
H51A H -0.0087 1.1427 0.0881 0.037 Uiso 1 1 calc R . .
C52 C 0.0456(2) 1.1034(5) 0.1332(3) 0.0335(9) Uani 1 1 d U . .
H52A H 0.0496 1.1700 0.1472 0.040 Uiso 1 1 calc R . .
C53 C 0.0740(2) 1.0253(5) 0.1489(3) 0.0337(8) Uani 1 1 d U . .
H53A H 0.0969 1.0376 0.1739 0.040 Uiso 1 1 calc R . .
O4 O 0.05629(13) 0.8838(3) 0.25267(16) 0.0263(6) Uani 1 1 d U . .
C54 C 0.0456(2) 0.9416(5) 0.2901(3) 0.0315(7) Uani 1 1 d U . .
C55 C 0.0683(2) 1.0385(5) 0.2957(3) 0.0385(8) Uani 1 1 d U . .
H55A H 0.0916 1.0585 0.2729 0.046 Uiso 1 1 calc R . .
C56 C 0.0560(3) 1.1048(6) 0.3355(3) 0.0457(9) Uani 1 1 d U . .
H56A H 0.0716 1.1687 0.3391 0.055 Uiso 1 1 calc R . .
C57 C 0.0253(3) 1.0821(5) 0.3661(3) 0.0491(10) Uani 1 1 d U . .
H57A H 0.0177 1.1295 0.3918 0.059 Uiso 1 1 calc R . .
C58 C 0.0013(3) 0.9866(5) 0.3633(3) 0.0451(9) Uani 1 1 d U . .
H58A H -0.0226 0.9712 0.3863 0.054 Uiso 1 1 calc R . .
C59 C 0.0131(2) 0.9164(5) 0.3265(3) 0.0357(7) Uani 1 1 d U . .
C60 C -0.0088(2) 0.8145(5) 0.3299(2) 0.0295(7) Uani 1 1 d U . .
H60A H -0.0308 0.8058 0.3556 0.035 Uiso 1 1 calc R . .
N8 N -0.00148(15) 0.7366(4) 0.30203(18) 0.0243(6) Uani 1 1 d U . .
C61 C -0.02665(19) 0.6402(5) 0.3140(2) 0.0267(7) Uani 1 1 d U . .
H61A H -0.0402 0.6143 0.2818 0.032 Uiso 1 1 calc R . .
C62 C -0.06602(19) 0.6468(5) 0.3510(3) 0.0340(12) Uani 1 1 d U . .
H62A H -0.0890 0.6965 0.3390 0.051 Uiso 1 1 calc R . .
H62B H -0.0539 0.6690 0.3837 0.051 Uiso 1 1 calc R . .
H62C H -0.0805 0.5791 0.3544 0.051 Uiso 1 1 calc R . .
C63 C 0.00679(19) 0.5583(5) 0.3325(2) 0.0269(7) Uani 1 1 d U . .
C64 C -0.0013(2) 0.4569(5) 0.3204(3) 0.0326(8) Uani 1 1 d U . .
H64A H -0.0257 0.4408 0.2977 0.039 Uiso 1 1 calc R . .
C65 C 0.0251(2) 0.3779(5) 0.3402(3) 0.0350(9) Uani 1 1 d U . .
H65A H 0.0188 0.3087 0.3309 0.042 Uiso 1 1 calc R . .
C66 C 0.0611(2) 0.4000(5) 0.3737(3) 0.0325(9) Uani 1 1 d U . .
H66A H 0.0792 0.3465 0.3879 0.039 Uiso 1 1 calc R . .
C67 C 0.0695(2) 0.5021(5) 0.3857(2) 0.0297(8) Uani 1 1 d U . .
H67A H 0.0940 0.5188 0.4083 0.036 Uiso 1 1 calc R . .
C68 C 0.04284(19) 0.5797(5) 0.3653(2) 0.0268(8) Uani 1 1 d U . .
H68A H 0.0493 0.6491 0.3739 0.032 Uiso 1 1 calc R . .
N9 N -0.02512(14) 0.8027(4) 0.19362(18) 0.0181(6) Uani 1 1 d U . .
C69 C -0.0338