####################################################################### 
# 
# This file contains crystal structure data downloaded from the 
# Cambridge Structural Database (CSD) hosted by the Cambridge 
# Crystallographic Data Centre (CCDC).
# 
# Full information about CCDC data access policies and citation 
# guidelines are available at http://www.ccdc.cam.ac.uk/access/V1 
# 
# Audit and citation data items may have been added by the CCDC. 
# Please retain this information to preserve the provenance of 
# this file and to allow appropriate attribution of the data. 
# 
#######################################################################

data_1p
_audit_block_doi                 10.5517/ccv06df
_database_code_depnum_ccdc_archive 'CCDC 774764'
loop_
_citation_id
_citation_doi
_citation_year
1 10.1021/ic102188v 2011
_audit_update_record             
;
2010-04-25 deposited with the CCDC.	2024-07-10 downloaded from the CCDC.
;
#TrackingRef '3753_web_deposit_cif_file_0_JianyongZhang_1294903857.cif'


_audit_creation_method           SHELXL-97
_chemical_name_systematic        
;
?
;
_chemical_name_common            ?
_chemical_melting_point          ?
_chemical_formula_moiety         ?
_chemical_formula_sum            'C17.50 H21.50 Cu N2.50 O7.50'
_chemical_formula_weight         450.41

loop_
_atom_type_symbol
_atom_type_description
_atom_type_scat_dispersion_real
_atom_type_scat_dispersion_imag
_atom_type_scat_source
C C 0.0181 0.0091 'International Tables Vol C Tables 4.2.6.8 and 6.1.1.4'
H H 0.0000 0.0000 'International Tables Vol C Tables 4.2.6.8 and 6.1.1.4'
N N 0.0311 0.0180 'International Tables Vol C Tables 4.2.6.8 and 6.1.1.4'
O O 0.0492 0.0322 'International Tables Vol C Tables 4.2.6.8 and 6.1.1.4'
Cu Cu -1.9646 0.5888 'International Tables Vol C Tables 4.2.6.8 and 6.1.1.4'

_symmetry_cell_setting           monoclinic
_symmetry_space_group_name_H-M   P21/c

loop_
_symmetry_equiv_pos_as_xyz
'x, y, z'
'-x, y+1/2, -z+1/2'
'-x, -y, -z'
'x, -y-1/2, z-1/2'

_cell_length_a                   11.9132(10)
_cell_length_b                   13.5460(11)
_cell_length_c                   13.6700(15)
_cell_angle_alpha                90.00
_cell_angle_beta                 113.959(11)
_cell_angle_gamma                90.00
_cell_volume                     2015.9(3)
_cell_formula_units_Z            4
_cell_measurement_temperature    150(2)
_cell_measurement_reflns_used    1256
_cell_measurement_theta_min      3.2602
_cell_measurement_theta_max      62.4743

_exptl_crystal_description       BLOCK
_exptl_crystal_colour            GREEN
_exptl_crystal_size_max          0.10
_exptl_crystal_size_mid          0.10
_exptl_crystal_size_min          0.05
_exptl_crystal_density_meas      ?
_exptl_crystal_density_diffrn    1.484
_exptl_crystal_density_method    'not measured'
_exptl_crystal_F_000             932
_exptl_absorpt_coefficient_mu    1.939
_exptl_absorpt_correction_type   MULTI-SCAN
_exptl_absorpt_correction_T_min  0.8298
_exptl_absorpt_correction_T_max  0.9093
_exptl_absorpt_process_details   sadabs

_exptl_special_details           
;
?
;

_diffrn_ambient_temperature      150(2)
_diffrn_radiation_wavelength     1.5418
_diffrn_radiation_type           'Cu K\a'
_diffrn_radiation_source         'Enhance Ultra (Cu) X-ray Source'
_diffrn_radiation_monochromator  mirror
_diffrn_measurement_device_type  'Xcalibur, Sapphire3, Gemini ultra'
_diffrn_measurement_method       '\w scans'
_diffrn_detector_area_resol_mean 16.0855
_diffrn_standards_number         ?
_diffrn_standards_interval_count ?
_diffrn_standards_interval_time  ?
_diffrn_standards_decay_%        ?
_diffrn_reflns_number            5212
_diffrn_reflns_av_R_equivalents  0.0658
_diffrn_reflns_av_sigmaI/netI    0.1144
_diffrn_reflns_limit_h_min       -13
_diffrn_reflns_limit_h_max       12
_diffrn_reflns_limit_k_min       -10
_diffrn_reflns_limit_k_max       15
_diffrn_reflns_limit_l_min       -14
_diffrn_reflns_limit_l_max       15
_diffrn_reflns_theta_min         4.06
_diffrn_reflns_theta_max         62.65
_reflns_number_total             3121
_reflns_number_gt                1804
_reflns_threshold_expression     >2sigma(I)

_computing_data_collection       ?
_computing_cell_refinement       ?
_computing_data_reduction        ?
_computing_structure_solution    'SHELXS-97 (Sheldrick, 1990)'
_computing_structure_refinement  'SHELXL-97 (Sheldrick, 1997)'
_computing_molecular_graphics    ?
_computing_publication_material  ?


# SQUEEZE RESULTS (APPEND TO CIF)
loop_
_platon_squeeze_void_nr
_platon_squeeze_void_average_x
_platon_squeeze_void_average_y
_platon_squeeze_void_average_z
_platon_squeeze_void_volume
_platon_squeeze_void_count_electrons
_platon_squeeze_void_content
1 -0.017 0.060 0.376 1089 338 ' '
_platon_squeeze_details          
;
The unit cell contains 6 DMF and 8 water molecules which have been treated
as a diffuse contribution to the overall scattering and removed by SQUEEZE/PLATON.
;



_refine_special_details          
;
Refinement of F^2^ against ALL reflections. The weighted R-factor wR and
goodness of fit S are based on F^2^, conventional R-factors R are based
on F, with F set to zero for negative F^2^. The threshold expression of
F^2^ > 2sigma(F^2^) is used only for calculating R-factors(gt) etc. and is
not relevant to the choice of reflections for refinement. R-factors based
on F^2^ are statistically about twice as large as those based on F, and R-
factors based on ALL data will be even larger.
;

_refine_ls_structure_factor_coef Fsqd
_refine_ls_matrix_type           full
_refine_ls_weighting_scheme      calc
_refine_ls_weighting_details     
'calc w=1/[\s^2^(Fo^2^)+(0.0307P)^2^+20.0580P] where P=(Fo^2^+2Fc^2^)/3'
_atom_sites_solution_primary     direct
_atom_sites_solution_secondary   difmap
_atom_sites_solution_hydrogens   geom
_refine_ls_hydrogen_treatment    constr
_refine_ls_extinction_method     none
_refine_ls_extinction_coef       ?
_refine_ls_number_reflns         3121
_refine_ls_number_parameters     172
_refine_ls_number_restraints     0
_refine_ls_R_factor_all          0.1401
_refine_ls_R_factor_gt           0.1104
_refine_ls_wR_factor_ref         0.2482
_refine_ls_wR_factor_gt          0.2398
_refine_ls_goodness_of_fit_ref   1.087
_refine_ls_restrained_S_all      1.087
_refine_ls_shift/su_max          0.000
_refine_ls_shift/su_mean         0.000

loop_
_atom_site_label
_atom_site_type_symbol
_atom_site_fract_x
_atom_site_fract_y
_atom_site_fract_z
_atom_site_U_iso_or_equiv
_atom_site_adp_type
_atom_site_occupancy
_atom_site_symmetry_multiplicity
_atom_site_calc_flag
_atom_site_refinement_flags
_atom_site_disorder_assembly
_atom_site_disorder_group
Cu1 Cu 0.10081(11) 0.55672(11) 0.54039(11) 0.0408(4) Uani 1 1 d . . .
C1 C 0.3734(11) 0.5502(11) 0.6181(12) 0.092(5) Uani 1 1 d . . .
H1A H 0.3522 0.4823 0.6140 0.110 Uiso 1 1 calc R . .
C2 C 0.4918(11) 0.5763(11) 0.6453(14) 0.105(6) Uani 1 1 d . . .
H2A H 0.5526 0.5261 0.6632 0.126 Uiso 1 1 calc R . .
C3 C 0.5274(10) 0.6758(9) 0.6477(11) 0.074(4) Uani 1 1 d . . .
C4 C 0.4394(10) 0.7437(11) 0.6333(14) 0.102(6) Uani 1 1 d . . .
H4A H 0.4564 0.8124 0.6359 0.122 Uiso 1 1 calc R . .
C5 C 0.3178(11) 0.7072(13) 0.6135(14) 0.104(6) Uani 1 1 d . . .
H5A H 0.2601 0.7552 0.6146 0.125 Uiso 1 1 calc R . .
C6 C 0.6584(9) 0.7025(9) 0.6763(10) 0.063(3) Uani 1 1 d . . .
C7 C 0.7251(9) 0.6465(9) 0.6312(9) 0.058(3) Uani 1 1 d . . .
H7A H 0.6840 0.5960 0.5812 0.070 Uiso 1 1 calc R . .
C8 C 0.8494(8) 0.6631(9) 0.6576(8) 0.051(3) Uani 1 1 d . . .
C9 C 0.9071(8) 0.7369(7) 0.7322(8) 0.047(3) Uani 1 1 d . . .
H9A H 0.9929 0.7468 0.7544 0.057 Uiso 1 1 calc R . .
C10 C 0.8433(9) 0.7970(9) 0.7756(10) 0.061(3) Uani 1 1 d . . .
C11 C 0.7165(9) 0.7784(9) 0.7427(10) 0.063(3) Uani 1 1 d . . .
H11A H 0.6701 0.8205 0.7678 0.076 Uiso 1 1 calc R . .
C12 C 0.9161(8) 0.6011(8) 0.6035(8) 0.047(3) Uani 1 1 d . . .
C13 C 0.9073(8) 0.8760(9) 0.8564(9) 0.051(3) Uani 1 1 d . . .
N1 N 0.2804(7) 0.6226(7) 0.5957(8) 0.062(3) Uani 1 1 d . . .
O1 O 0.8559(6) 0.5310(5) 0.5565(6) 0.056(2) Uani 1 1 d . . .
O2 O 1.0215(5) 0.6282(5) 0.6250(6) 0.0520(19) Uani 1 1 d . . .
O3 O 1.0124(5) 0.8557(5) 0.9155(6) 0.055(2) Uani 1 1 d . . .
O4 O 0.8445(6) 0.9497(6) 0.8507(6) 0.060(2) Uani 1 1 d . . .

loop_
_atom_site_aniso_label
_atom_site_aniso_U_11
_atom_site_aniso_U_22
_atom_site_aniso_U_33
_atom_site_aniso_U_23
_atom_site_aniso_U_13
_atom_site_aniso_U_12
Cu1 0.0279(7) 0.0377(8) 0.0504(8) 0.0004(8) 0.0092(6) 0.0001(7)
C1 0.052(7) 0.063(8) 0.131(13) 0.000(10) 0.008(7) -0.006(7)
C2 0.042(7) 0.081(11) 0.162(16) -0.003(11) 0.009(8) 0.008(7)
C3 0.037(6) 0.056(8) 0.110(11) -0.019(8) 0.010(6) -0.015(6)
C4 0.040(7) 0.070(9) 0.175(16) -0.043(11) 0.021(8) -0.003(7)
C5 0.049(8) 0.104(13) 0.149(15) -0.040(12) 0.030(9) 0.005(8)
C6 0.037(6) 0.056(7) 0.087(9) -0.011(7) 0.015(6) -0.006(5)
C7 0.042(6) 0.058(7) 0.066(7) -0.022(6) 0.014(5) -0.008(5)
C8 0.035(5) 0.064(7) 0.047(6) -0.015(6) 0.011(5) -0.006(5)
C9 0.023(4) 0.035(6) 0.070(7) -0.001(6) 0.005(5) -0.002(4)
C10 0.031(5) 0.051(7) 0.079(8) -0.015(7) -0.001(5) -0.009(5)
C11 0.035(5) 0.066(8) 0.086(9) -0.014(7) 0.023(6) -0.009(6)
C12 0.023(5) 0.047(6) 0.051(6) -0.001(6) -0.005(4) 0.005(5)
C13 0.029(5) 0.058(7) 0.063(7) -0.009(6) 0.016(5) -0.011(5)
N1 0.029(4) 0.054(6) 0.096(8) -0.021(6) 0.018(5) -0.020(5)
O1 0.039(4) 0.056(5) 0.071(5) -0.029(4) 0.021(4) -0.012(4)
O2 0.033(4) 0.054(5) 0.067(5) -0.019(4) 0.018(3) -0.002(3)
O3 0.028(4) 0.047(4) 0.076(5) -0.013(4) 0.008(3) -0.003(3)
O4 0.034(3) 0.050(4) 0.084(5) -0.029(5) 0.013(3) -0.003(4)

_geom_special_details            
;
All esds (except the esd in the dihedral angle between two l.s. planes)
are estimated using the full covariance matrix. The cell esds are taken
into account individually in the estimation of esds in distances, angles
and torsion angles; correlations between esds in cell parameters are only
used when they are defined by crystal symmetry. An approximate (isotropic)
treatment of cell esds is used for estimating esds involving l.s. planes.
;

loop_
_geom_bond_atom_site_label_1
_geom_bond_atom_site_label_2
_geom_bond_distance
_geom_bond_site_symmetry_2
_geom_bond_publ_flag
Cu1 O4 1.989(7) 2_646 ?
Cu1 O3 1.993(7) 4_475 ?
Cu1 O1 1.997(7) 3_666 ?
Cu1 O2 2.014(7) 1_455 ?
Cu1 N1 2.152(8) . ?
Cu1 Cu1 2.683(3) 3_566 ?
C1 C2 1.351(17) . ?
C1 N1 1.417(16) . ?
C1 H1A 0.9500 . ?
C2 C3 1.410(19) . ?
C2 H2A 0.9500 . ?
C3 C4 1.348(17) . ?
C3 C6 1.491(14) . ?
C4 C5 1.449(18) . ?
C4 H4A 0.9500 . ?
C5 N1 1.218(17) . ?
C5 H5A 0.9500 . ?
C6 C11 1.360(16) . ?
C6 C7 1.409(15) . ?
C7 C8 1.393(13) . ?
C7 H7A 0.9500 . ?
C8 C9 1.395(14) . ?
C8 C12 1.536(14) . ?
C9 C10 1.400(15) . ?
C9 H9A 0.9500 . ?
C10 C11 1.412(13) . ?
C10 C13 1.504(15) . ?
C11 H11A 0.9500 . ?
C12 O1 1.206(11) . ?
C12 O2 1.225(11) . ?
C13 O3 1.214(11) . ?
C13 O4 1.231(12) . ?
O1 Cu1 1.997(7) 3_666 ?
O2 Cu1 2.014(7) 1_655 ?
O3 Cu1 1.993(7) 4_676 ?
O4 Cu1 1.989(7) 2_656 ?

loop_
_geom_angle_atom_site_label_1
_geom_angle_atom_site_label_2
_geom_angle_atom_site_label_3
_geom_angle
_geom_angle_site_symmetry_1
_geom_angle_site_symmetry_3
_geom_angle_publ_flag
O4 Cu1 O3 166.9(3) 2_646 4_475 ?
O4 Cu1 O1 88.2(3) 2_646 3_666 ?
O3 Cu1 O1 88.5(3) 4_475 3_666 ?
O4 Cu1 O2 90.5(3) 2_646 1_455 ?
O3 Cu1 O2 89.9(3) 4_475 1_455 ?
O1 Cu1 O2 167.2(3) 3_666 1_455 ?
O4 Cu1 N1 93.6(3) 2_646 . ?
O3 Cu1 N1 99.1(3) 4_475 . ?
O1 Cu1 N1 89.5(3) 3_666 . ?
O2 Cu1 N1 103.3(3) 1_455 . ?
O4 Cu1 Cu1 81.8(2) 2_646 3_566 ?
O3 Cu1 Cu1 85.1(2) 4_475 3_566 ?
O1 Cu1 Cu1 79.4(2) 3_666 3_566 ?
O2 Cu1 Cu1 87.79(19) 1_455 3_566 ?
N1 Cu1 Cu1 168.1(3) . 3_566 ?
C2 C1 N1 121.1(13) . . ?
C2 C1 H1A 119.5 . . ?
N1 C1 H1A 119.5 . . ?
C1 C2 C3 121.8(13) . . ?
C1 C2 H2A 119.1 . . ?
C3 C2 H2A 119.1 . . ?
C4 C3 C2 116.1(11) . . ?
C4 C3 C6 122.8(12) . . ?
C2 C3 C6 120.8(11) . . ?
C3 C4 C5 117.1(13) . . ?
C3 C4 H4A 121.5 . . ?
C5 C4 H4A 121.5 . . ?
N1 C5 C4 127.9(14) . . ?
N1 C5 H5A 116.0 . . ?
C4 C5 H5A 116.0 . . ?
C11 C6 C7 118.4(10) . . ?
C11 C6 C3 123.6(11) . . ?
C7 C6 C3 118.1(11) . . ?
C8 C7 C6 121.9(10) . . ?
C8 C7 H7A 119.0 . . ?
C6 C7 H7A 119.0 . . ?
C7 C8 C9 117.5(10) . . ?
C7 C8 C12 119.4(9) . . ?
C9 C8 C12 123.1(9) . . ?
C8 C9 C10 122.4(9) . . ?
C8 C9 H9A 118.8 . . ?
C10 C9 H9A 118.8 . . ?
C9 C10 C11 117.1(10) . . ?
C9 C10 C13 121.6(9) . . ?
C11 C10 C13 121.3(11) . . ?
C6 C11 C10 122.4(11) . . ?
C6 C11 H11A 118.8 . . ?
C10 C11 H11A 118.8 . . ?
O1 C12 O2 134.0(10) . . ?
O1 C12 C8 112.0(8) . . ?
O2 C12 C8 113.7(9) . . ?
O3 C13 O4 131.4(10) . . ?
O3 C13 C10 114.0(10) . . ?
O4 C13 C10 114.6(9) . . ?
C5 N1 C1 114.7(10) . . ?
C5 N1 Cu1 133.7(9) . . ?
C1 N1 Cu1 111.6(8) . . ?
C12 O1 Cu1 124.3(7) . 3_666 ?
C12 O2 Cu1 113.1(7) . 1_655 ?
C13 O3 Cu1 118.6(7) . 4_676 ?
C13 O4 Cu1 122.6(7) . 2_656 ?

_diffrn_measured_fraction_theta_max 0.967
_diffrn_reflns_theta_full        62.65
_diffrn_measured_fraction_theta_full 0.966
_refine_diff_density_max         1.329
_refine_diff_density_min         -0.933
_refine_diff_density_rms         0.141

_vrf_CHEMW03_1p                  
;
PROBLEM: The ratio of given/expected molecular weight as
RESPONSE:
In the unit cell, 6 DMF and 8 water molecules were removed by SQUEEZE
;

_vrf_PLAT043_1p                  
;
PROBLEM: Check Reported Molecular Weight ................ 450.41
RESPONSE:
In the unit cell, 6 DMF and 8 water molecules were removed by SQUEEZE
;
_vrf_PLAT044_1p                  
;
PROBLEM: Calculated and Reported Dx Differ .............. ?
RESPONSE: Solvent molecules were removed by SQUEEZE
;


_vrf_PLAT051_1p                  
;
PROBLEM: Mu(calc) and Mu(CIF) Ratio Differs from 1.0 by . 17.80 Perc.
RESPONSE: Solvent molecules which have been treated
as a diffuse contribution to the overall scattering
and removed by by SQUEEZE/PLATON
;




