####################################################################### 
# 
# This file contains crystal structure data downloaded from the 
# Cambridge Structural Database (CSD) hosted by the Cambridge 
# Crystallographic Data Centre (CCDC).
# 
# Full information about CCDC data access policies and citation 
# guidelines are available at http://www.ccdc.cam.ac.uk/access/V1 
# 
# Audit and citation data items may have been added by the CCDC. 
# Please retain this information to preserve the provenance of 
# this file and to allow appropriate attribution of the data. 
# 
#######################################################################

data_3
_audit_block_doi                 10.5517/cc7877y
_database_code_depnum_ccdc_archive 'CCDC 216449'
loop_
_citation_id
_citation_doi
_citation_year
1 10.1002/anie.200352625 2004
_audit_update_record             
;
2003-07-30 deposited with the CCDC.	2024-07-10 downloaded from the CCDC.
;
#YBNOTF

_refine_special_details          
;
Although the framework structure is well-defined,
there are extensive regions containing anions and
solvents which remain poorly resolved.
;

_audit_creation_method           SHELXL-97
_chemical_name_systematic        ?
_chemical_name_common            
"Ytterbium(III)(4,4'-bipyridine-N,N'-dioxide)4 triflate"
_chemical_melting_point          ?
_chemical_formula_moiety         ?
_chemical_formula_sum            'C43 H32 F9 N8 O17 S3 Yb'
_chemical_formula_weight         1372.98

loop_
_atom_type_symbol
_atom_type_description
_atom_type_scat_dispersion_real
_atom_type_scat_dispersion_imag
_atom_type_scat_source
C C 0.0033 0.0016 'International Tables Vol C Tables 4.2.6.8 and 6.1.1.4'
H H 0.0000 0.0000 'International Tables Vol C Tables 4.2.6.8 and 6.1.1.4'
N N 0.0061 0.0033 'International Tables Vol C Tables 4.2.6.8 and 6.1.1.4'
O O 0.0106 0.0060 'International Tables Vol C Tables 4.2.6.8 and 6.1.1.4'
F F 0.0171 0.0103 'International Tables Vol C Tables 4.2.6.8 and 6.1.1.4'
S S 0.1246 0.1234 'International Tables Vol C Tables 4.2.6.8 and 6.1.1.4'
Yb Yb -0.3850 5.5486 'International Tables Vol C Tables 4.2.6.8 and 6.1.1.4'

_symmetry_cell_setting           Triclinic
_symmetry_space_group_name_H-M   P-1

loop_
_symmetry_equiv_pos_as_xyz
'x, y, z'
'-x, -y, -z'

_cell_length_a                   24.0460(9)
_cell_length_b                   24.1573(9)
_cell_length_c                   24.3834(9)
_cell_angle_alpha                83.861(1)
_cell_angle_beta                 61.837(1)
_cell_angle_gamma                61.701(1)
_cell_volume                     10869.5(7)
_cell_formula_units_Z            6
_cell_measurement_temperature    150(2)
_cell_measurement_reflns_used    16368
_cell_measurement_theta_min      2.2
_cell_measurement_theta_max      26.0

_exptl_crystal_description       'TRIANGULAR BLOCK'
_exptl_crystal_colour            COLOURLESS
_exptl_crystal_size_max          0.26
_exptl_crystal_size_mid          0.26
_exptl_crystal_size_min          0.07
_exptl_crystal_density_meas      ?
_exptl_crystal_density_diffrn    1.259
_exptl_crystal_density_method    'not measured'
_exptl_crystal_F_000             4086
_exptl_absorpt_coefficient_mu    1.456
_exptl_absorpt_correction_type   multi-scan
_exptl_absorpt_correction_T_min  0.909
_exptl_absorpt_correction_T_max  1.000
_exptl_absorpt_process_details   'Bruker SADABS v2.03'

_exptl_special_details           
;
?
;

_diffrn_ambient_temperature      150(2)
_diffrn_radiation_wavelength     0.71073
_diffrn_radiation_type           MoK\a
_diffrn_radiation_source         'normal-focus sealed tube'
_diffrn_radiation_monochromator  graphite
_diffrn_measurement_device_type  'Bruker SMART1000 CCD area detector'
_diffrn_measurement_method       omega
_diffrn_detector_area_resol_mean ?
_diffrn_standards_number         ?
_diffrn_standards_interval_count ?
_diffrn_standards_interval_time  ?
_diffrn_standards_decay_%        none
_diffrn_reflns_number            97046
_diffrn_reflns_av_R_equivalents  0.041
_diffrn_reflns_av_sigmaI/netI    0.081
_diffrn_reflns_limit_h_min       -27
_diffrn_reflns_limit_h_max       32
_diffrn_reflns_limit_k_min       -32
_diffrn_reflns_limit_k_max       32
_diffrn_reflns_limit_l_min       -33
_diffrn_reflns_limit_l_max       33
_diffrn_reflns_theta_min         1.10
_diffrn_reflns_theta_max         28.93
_reflns_number_total             49683
_reflns_number_gt                33722
_reflns_threshold_expression     >2sigma(I)

_computing_data_collection       'Bruker SMART version 5.624 (Bruker, 2001)'
_computing_cell_refinement       'Bruker SAINT version 6.02a (Bruker, 2000)'
_computing_data_reduction        'Bruker SAINT; Bruker SHELXTL (Bruker, 2001)'
_computing_structure_solution    'SHELXS-97 (Sheldrick, 1990)'
_computing_structure_refinement  'SHELXL-97 (Sheldrick, 1997)'
_computing_molecular_graphics    'Bruker SHELXTL'
_computing_publication_material  'SHELXL-97; PLATON (Spek, 2003)'

_refine_ls_structure_factor_coef Fsqd
_refine_ls_matrix_type           full
_refine_ls_weighting_scheme      calc
_refine_ls_weighting_details     
'calc w=1/[\s^2^(Fo^2^)+(0.10P)^2^] where P=(Fo^2^+2Fc^2^)/3'
_atom_sites_solution_primary     'Direct methods'
_atom_sites_solution_secondary   difmap
_atom_sites_solution_hydrogens   'geometrically placed'
_refine_ls_hydrogen_treatment    'riding model'
_refine_ls_extinction_method     none
_refine_ls_extinction_coef       ?
_refine_ls_number_reflns         49683
_refine_ls_number_parameters     1828
_refine_ls_number_restraints     1440
_refine_ls_R_factor_all          0.145
_refine_ls_R_factor_gt           0.103
_refine_ls_wR_factor_ref         0.335
_refine_ls_wR_factor_gt          0.315
_refine_ls_goodness_of_fit_ref   1.08
_refine_ls_restrained_S_all      1.18
_refine_ls_shift/su_max          0.040
_refine_ls_shift/su_mean         0.008

loop_
_atom_site_label
_atom_site_type_symbol
_atom_site_fract_x
_atom_site_fract_y
_atom_site_fract_z
_atom_site_U_iso_or_equiv
_atom_site_adp_type
_atom_site_occupancy
_atom_site_symmetry_multiplicity
_atom_site_calc_flag
_atom_site_refinement_flags
_atom_site_disorder_assembly
_atom_site_disorder_group
Yb1 Yb 0.65862(3) 0.78008(2) 0.63653(2) 0.01536(13) Uani 1 1 d . . .
Yb2 Yb 0.75340(3) 0.22031(2) 0.76956(2) 0.01554(13) Uani 1 1 d . . .
Yb3 Yb 0.85250(3) 0.35268(2) 0.20892(2) 0.01551(13) Uani 1 1 d . . .
O1 O 0.6302(5) 0.8809(4) 0.6121(4) 0.0224(19) Uani 1 1 d . . .
O2 O 0.5669(5) 0.8100(4) 0.6110(4) 0.026(2) Uani 1 1 d . . .
O3 O 0.5654(5) 0.7741(4) 0.7209(4) 0.025(2) Uani 1 1 d . . .
O4 O 0.6270(5) 0.8415(4) 0.7234(4) 0.0215(18) Uani 1 1 d . . .
O5 O 0.6793(5) 0.6832(4) 0.6033(4) 0.026(2) Uani 1 1 d . . .
O6 O 0.7140(5) 0.7048(4) 0.6878(4) 0.0218(19) Uani 1 1 d . . .
O7 O 0.7642(5) 0.7802(5) 0.6081(4) 0.030(2) Uani 1 1 d . . .
O8 O 0.7215(5) 0.7635(4) 0.5259(4) 0.026(2) Uani 1 1 d . . .
O9 O 0.7786(5) 0.2963(4) 0.7887(4) 0.026(2) Uani 1 1 d . . .
O10 O 0.8288(5) 0.2270(4) 0.6690(4) 0.0244(19) Uani 1 1 d . . .
O11 O 0.6775(4) 0.3170(4) 0.7533(4) 0.0226(19) Uani 1 1 d . . .
O12 O 0.7245(5) 0.1908(4) 0.7033(4) 0.029(2) Uani 1 1 d . . .
O13 O 0.6359(4) 0.2396(4) 0.8343(4) 0.0230(19) Uani 1 1 d . . .
O14 O 0.7690(5) 0.1197(4) 0.7857(4) 0.0250(19) Uani 1 1 d . . .
O15 O 0.7417(5) 0.2133(4) 0.8684(4) 0.0219(19) Uani 1 1 d . . .
O16 O 0.8727(4) 0.1596(5) 0.7525(4) 0.029(2) Uani 1 1 d . . .
O17 O 0.7878(5) 0.4646(4) 0.2251(4) 0.026(2) Uani 1 1 d . . .
O18 O 0.8706(5) 0.3773(4) 0.1086(4) 0.0244(19) Uani 1 1 d . . .
O19 O 0.7475(5) 0.3760(4) 0.2128(4) 0.0227(19) Uani 1 1 d . . .
O20 O 0.8906(4) 0.2606(4) 0.1476(4) 0.0207(18) Uani 1 1 d . . .
O21 O 0.8034(4) 0.2971(4) 0.2826(4) 0.0217(19) Uani 1 1 d . . .
O22 O 0.9498(5) 0.2730(4) 0.2177(4) 0.025(2) Uani 1 1 d . . .
O23 O 0.8328(5) 0.3883(4) 0.3036(4) 0.027(2) Uani 1 1 d . . .
O24 O 0.9387(5) 0.3835(4) 0.1725(4) 0.0224(19) Uani 1 1 d . . .
N1 N 0.5937(6) 0.9129(5) 0.5805(5) 0.022(2) Uani 1 1 d . . .
N2 N 0.5211(6) 0.7878(5) 0.6324(5) 0.026(2) Uani 1 1 d . . .
N3 N 0.5438(6) 0.7767(5) 0.7830(5) 0.023(2) Uani 1 1 d . . .
N4 N 0.6381(6) 0.8920(5) 0.7222(5) 0.027(2) Uani 1 1 d . . .
N5 N 0.6925(6) 0.6304(5) 0.6316(5) 0.026(2) Uani 1 1 d . . .
N6 N 0.7594(6) 0.7040(5) 0.7043(5) 0.022(2) Uani 1 1 d . . .
N7 N 0.8083(6) 0.7911(6) 0.5553(5) 0.031(3) Uani 1 1 d . . .
N8 N 0.7379(6) 0.7155(5) 0.4886(5) 0.023(2) Uani 1 1 d . . .
N9 N 0.7661(6) 0.3510(5) 0.7651(5) 0.024(2) Uani 1 1 d . . .
N10 N 0.8207(6) 0.2354(5) 0.6176(5) 0.024(2) Uani 1 1 d . . .
N11 N 0.6124(6) 0.3402(5) 0.7605(5) 0.022(2) Uani 1 1 d . . .
N12 N 0.7095(7) 0.1432(5) 0.7073(5) 0.028(3) Uani 1 1 d . . .
N13 N 0.6058(5) 0.2341(5) 0.8948(5) 0.024(2) Uani 1 1 d . . .
N14 N 0.8191(6) 0.0729(5) 0.7982(5) 0.025(2) Uani 1 1 d . . .
N15 N 0.7636(5) 0.2368(5) 0.8957(5) 0.022(2) Uani 1 1 d . . .
N16 N 0.9284(6) 0.1649(6) 0.7072(5) 0.031(3) Uani 1 1 d . . .
N17 N 0.7243(6) 0.5012(5) 0.2258(5) 0.022(2) Uani 1 1 d . . .
N18 N 0.8567(6) 0.3545(5) 0.0719(5) 0.023(2) Uani 1 1 d . . .
N19 N 0.7078(6) 0.3471(5) 0.2378(5) 0.025(2) Uani 1 1 d . . .
N20 N 0.9348(6) 0.2023(5) 0.1520(5) 0.022(2) Uani 1 1 d . . .
N21 N 0.8047(6) 0.2856(5) 0.3369(5) 0.022(2) Uani 1 1 d . . .
N22 N 0.9966(6) 0.2801(5) 0.2276(5) 0.024(2) Uani 1 1 d . . .
N23 N 0.8167(6) 0.4433(5) 0.3283(5) 0.023(2) Uani 1 1 d . . .
N24 N 0.9553(6) 0.4150(5) 0.1247(5) 0.021(2) Uani 1 1 d . . .
C1 C 0.7600(8) 0.5860(7) 0.6105(7) 0.030(3) Uani 1 1 d . . .
H1A H 0.7972 0.5917 0.5765 0.036 Uiso 1 1 calc R . .
C2 C 0.7775(8) 0.5302(7) 0.6378(7) 0.034(3) Uani 1 1 d . . .
H2A H 0.8263 0.4984 0.6232 0.041 Uiso 1 1 calc R . .
C3 C 0.7224(8) 0.5226(6) 0.6862(6) 0.028(3) Uani 1 1 d . . .
C4 C 0.8008(8) 0.4053(7) 0.6816(6) 0.030(3) Uani 1 1 d . . .
H4A H 0.8340 0.4049 0.6399 0.036 Uiso 1 1 calc R . .
C5 C 0.6382(8) 0.6241(6) 0.6782(6) 0.026(3) Uani 1 1 d . . .
H5A H 0.5900 0.6568 0.6919 0.031 Uiso 1 1 calc R . .
C6 C 0.6517(8) 0.5713(6) 0.7063(6) 0.026(3) Uani 1 1 d . . .
H6A H 0.6127 0.5672 0.7400 0.032 Uiso 1 1 calc R . .
C7 C 0.7390(8) 0.4631(7) 0.7159(7) 0.031(3) Uani 1 1 d . . .
C8 C 0.6915(8) 0.4613(6) 0.7774(6) 0.029(3) Uani 1 1 d . . .
H8A H 0.6491 0.4994 0.8026 0.035 Uiso 1 1 calc R . .
C9 C 0.8149(7) 0.3502(7) 0.7055(6) 0.026(3) Uani 1 1 d . . .
H9A H 0.8577 0.3118 0.6815 0.032 Uiso 1 1 calc R . .
C10 C 0.7053(7) 0.4061(6) 0.8013(6) 0.026(3) Uani 1 1 d . . .
H10A H 0.6730 0.4054 0.8431 0.031 Uiso 1 1 calc R . .
C11 C 0.8665(7) 0.4637(7) 0.3052(6) 0.028(3) Uani 1 1 d . . .
H11A H 0.9116 0.4394 0.2691 0.034 Uiso 1 1 calc R . .
C12 C 0.8534(7) 0.5175(7) 0.3322(6) 0.028(3) Uani 1 1 d . . .
H12A H 0.8898 0.5297 0.3163 0.034 Uiso 1 1 calc R . .
C13 C 0.7514(8) 0.4785(7) 0.3776(6) 0.033(3) Uani 1 1 d . . .
H13A H 0.7169 0.4640 0.3932 0.039 Uiso 1 1 calc R . .
C14 C 0.7337(8) 0.5345(7) 0.4058(7) 0.035(3) Uani 1 1 d . . .
H14A H 0.6867 0.5593 0.4398 0.042 Uiso 1 1 calc R . .
C15 C 0.7846(8) 0.5559(6) 0.3847(7) 0.027(3) Uani 1 1 d . . .
C16 C 0.7677(7) 0.6134(6) 0.4175(6) 0.027(3) Uani 1 1 d . . .
C17 C 0.7050(7) 0.6695(7) 0.4355(6) 0.027(3) Uani 1 1 d . . .
H17A H 0.6706 0.6739 0.4240 0.032 Uiso 1 1 calc R . .
C18 C 0.8192(7) 0.6123(6) 0.4327(6) 0.029(3) Uani 1 1 d . . .
H18A H 0.8652 0.5756 0.4178 0.035 Uiso 1 1 calc R . .
C19 C 0.8030(8) 0.6627(6) 0.4680(7) 0.029(3) Uani 1 1 d . . .
H19A H 0.8373 0.6611 0.4782 0.035 Uiso 1 1 calc R . .
C20 C 0.6917(8) 0.7205(7) 0.4712(6) 0.030(3) Uani 1 1 d . . .
H20A H 0.6483 0.7595 0.4832 0.036 Uiso 1 1 calc R . .
C21 C 0.8620(7) 0.2244(6) 0.3941(6) 0.026(3) Uani 1 1 d . . .
H21A H 0.9022 0.1886 0.3947 0.031 Uiso 1 1 calc R . .
C22 C 0.8606(7) 0.2359(6) 0.3389(6) 0.025(3) Uani 1 1 d . . .
H22A H 0.9002 0.2080 0.3012 0.030 Uiso 1 1 calc R . .
C23 C 0.7469(7) 0.3147(6) 0.4468(6) 0.027(3) Uani 1 1 d . . .
H23A H 0.7065 0.3426 0.4841 0.032 Uiso 1 1 calc R . .
C24 C 0.7475(7) 0.3240(6) 0.3905(6) 0.024(3) Uani 1 1 d . . .
H24A H 0.7067 0.3581 0.3891 0.029 Uiso 1 1 calc R . .
C25 C 0.8087(7) 0.2544(6) 0.5094(6) 0.023(3) Uani 1 1 d . . .
C26 C 0.8058(7) 0.2642(6) 0.4489(6) 0.024(3) Uani 1 1 d . . .
C27 C 0.7695(7) 0.3036(6) 0.5589(6) 0.026(3) Uani 1 1 d . . .
H27A H 0.7381 0.3449 0.5553 0.031 Uiso 1 1 calc R . .
C28 C 0.7751(7) 0.2937(6) 0.6122(6) 0.023(3) Uani 1 1 d . . .
H28A H 0.7471 0.3277 0.6459 0.028 Uiso 1 1 calc R . .
C29 C 0.8587(8) 0.1861(7) 0.5725(6) 0.033(3) Uani 1 1 d . . .
H29A H 0.8885 0.1452 0.5782 0.040 Uiso 1 1 calc R . .
C30 C 0.8548(9) 0.1943(7) 0.5192(7) 0.041(4) Uani 1 1 d . . .
H30A H 0.8837 0.1590 0.4867 0.050 Uiso 1 1 calc R . .
C31 C 0.7880(7) 0.3801(7) 0.0827(6) 0.027(3) Uani 1 1 d . . .
H31A H 0.7499 0.4128 0.1173 0.032 Uiso 1 1 calc R . .
C32 C 0.7736(8) 0.3588(7) 0.0439(7) 0.031(3) Uani 1 1 d . . .
H32A H 0.7257 0.3792 0.0502 0.038 Uiso 1 1 calc R . .
C33 C 0.8260(7) 0.3089(7) -0.0038(6) 0.029(3) Uani 1 1 d . . .
C34 C 0.8973(8) 0.2831(8) -0.0156(7) 0.034(3) Uani 1 1 d . . .
H34A H 0.9357 0.2503 -0.0501 0.041 Uiso 1 1 calc R . .
C35 C 0.9111(7) 0.3061(7) 0.0239(6) 0.029(3) Uani 1 1 d . . .
H35A H 0.9589 0.2878 0.0173 0.035 Uiso 1 1 calc R . .
C36 C 1.0101(8) 0.3847(7) 0.0681(6) 0.034(3) Uani 1 1 d . . .
H36A H 1.0371 0.3396 0.0618 0.041 Uiso 1 1 calc R . .
C37 C 1.0290(9) 0.4167(7) 0.0182(7) 0.043(4) Uani 1 1 d . . .
H37A H 1.0687 0.3937 -0.0217 0.052 Uiso 1 1 calc R . .
C38 C 0.9900(7) 0.4831(7) 0.0261(6) 0.026(3) Uani 1 1 d . . .
C39 C 0.9351(8) 0.5123(7) 0.0841(7) 0.038(4) Uani 1 1 d . . .
H39A H 0.9078 0.5574 0.0909 0.045 Uiso 1 1 calc R . .
C40 C 0.9158(9) 0.4792(7) 0.1360(7) 0.039(4) Uani 1 1 d . . .
H40A H 0.8770 0.5012 0.1765 0.046 Uiso 1 1 calc R . .
C41 C 0.6494(8) 0.3722(7) 0.2931(7) 0.030(3) Uani 1 1 d . . .
H41A H 0.6377 0.4098 0.3146 0.036 Uiso 1 1 calc R . .
C42 C 0.6051(8) 0.3460(8) 0.3204(8) 0.039(4) Uani 1 1 d . . .
H42A H 0.5626 0.3660 0.3597 0.047 Uiso 1 1 calc R . .
C43 C 0.6231(7) 0.2878(7) 0.2894(7) 0.028(3) Uani 1 1 d . . .
C44 C 0.6864(8) 0.2628(7) 0.2307(8) 0.036(3) Uani 1 1 d . . .
H44A H 0.7006 0.2249 0.2077 0.043 Uiso 1 1 calc R . .
C45 C 0.7271(7) 0.2918(7) 0.2067(7) 0.031(3) Uani 1 1 d . . .
H45A H 0.7700 0.2736 0.1674 0.037 Uiso 1 1 calc R . .
C46 C 0.7244(7) 0.5168(6) 0.1727(7) 0.028(3) Uani 1 1 d . . .
H46A H 0.7688 0.5043 0.1351 0.034 Uiso 1 1 calc R . .
C47 C 0.6588(7) 0.5521(7) 0.1709(7) 0.030(3) Uani 1 1 d . . .
H47A H 0.6585 0.5641 0.1326 0.036 Uiso 1 1 calc R . .
C48 C 0.5936(7) 0.5692(7) 0.2274(6) 0.028(3) Uani 1 1 d . . .
C49 C 0.5971(7) 0.5535(7) 0.2828(7) 0.030(3) Uani 1 1 d . . .
H49A H 0.5542 0.5668 0.3220 0.036 Uiso 1 1 calc R . .
C50 C 0.6634(7) 0.5186(6) 0.2800(6) 0.025(3) Uani 1 1 d . . .
H50A H 0.6658 0.5067 0.3176 0.031 Uiso 1 1 calc R . .
C51 C 1.0605(7) 0.2686(7) 0.1794(6) 0.028(3) Uani 1 1 d . . .
H51A H 1.0714 0.2578 0.1380 0.034 Uiso 1 1 calc R . .
C52 C 1.1112(8) 0.2722(7) 0.1885(7) 0.031(3) Uani 1 1 d . . .
H52A H 1.1573 0.2621 0.1540 0.038 Uiso 1 1 calc R . .
C53 C 1.0933(7) 0.2912(7) 0.2503(7) 0.029(3) Uani 1 1 d . . .
C54 C 1.0247(8) 0.3059(7) 0.3000(7) 0.032(3) Uani 1 1 d . . .
H54A H 1.0106 0.3209 0.3413 0.038 Uiso 1 1 calc R . .
C55 C 0.9774(7) 0.2982(6) 0.2879(6) 0.028(3) Uani 1 1 d . . .
H55A H 0.9319 0.3054 0.3216 0.033 Uiso 1 1 calc R . .
C56 C 0.9085(7) 0.1693(6) 0.1946(6) 0.025(3) Uani 1 1 d . . .
H56A H 0.8580 0.1856 0.2200 0.030 Uiso 1 1 calc R . .
C57 C 0.9565(7) 0.1108(6) 0.2008(6) 0.028(3) Uani 1 1 d . . .
H57A H 0.9386 0.0866 0.2303 0.033 Uiso 1 1 calc R . .
C58 C 1.0293(7) 0.0877(6) 0.1648(6) 0.028(3) Uani 1 1 d . . .
C59 C 1.0540(7) 0.1205(7) 0.1173(6) 0.028(3) Uani 1 1 d . . .
H59A H 1.1040 0.1027 0.0884 0.034 Uiso 1 1 calc R . .
C60 C 1.0076(7) 0.1768(6) 0.1124(6) 0.027(3) Uani 1 1 d . . .
H60A H 1.0251 0.1999 0.0809 0.032 Uiso 1 1 calc R . .
C61 C 0.9694(8) 0.1240(8) 0.6522(7) 0.040(4) Uani 1 1 d . . .
H61A H 0.9584 0.0925 0.6475 0.048 Uiso 1 1 calc R . .
C62 C 1.0267(8) 0.1285(8) 0.6037(7) 0.040(4) Uani 1 1 d . . .
H62A H 1.0576 0.0977 0.5668 0.048 Uiso 1 1 calc R . .
C63 C 1.0398(8) 0.1779(8) 0.6080(7) 0.040(4) Uani 1 1 d . . .
C64 C 0.9997(8) 0.2149(9) 0.6645(7) 0.040(4) Uani 1 1 d . . .
H64A H 1.0104 0.2461 0.6709 0.048 Uiso 1 1 calc R . .
C65 C 0.9432(8) 0.2085(8) 0.7137(7) 0.034(3) Uani 1 1 d . . .
H65A H 0.9150 0.2362 0.7525 0.041 Uiso 1 1 calc R . .
C66 C 0.8042(8) 0.0652(7) 0.8588(6) 0.030(3) Uani 1 1 d . . .
H66A H 0.7601 0.0957 0.8922 0.036 Uiso 1 1 calc R . .
C67 C 0.8512(7) 0.0149(6) 0.8717(6) 0.031(3) Uani 1 1 d . . .
H67A H 0.8391 0.0087 0.9142 0.038 Uiso 1 1 calc R . .
C68 C 0.9177(8) -0.0284(6) 0.8229(7) 0.032(3) Uani 1 1 d . . .
C69 C 0.9323(8) -0.0187(7) 0.7624(7) 0.035(3) Uani 1 1 d . . .
H69A H 0.9774 -0.0469 0.7283 0.042 Uiso 1 1 calc R . .
C70 C 0.8817(8) 0.0316(6) 0.7507(6) 0.030(3) Uani 1 1 d . . .
H70A H 0.8914 0.0371 0.7086 0.037 Uiso 1 1 calc R . .
C71 C 0.7602(8) 0.0883(7) 0.6721(7) 0.032(3) Uani 1 1 d . . .
H71A H 0.8075 0.0822 0.6454 0.038 Uiso 1 1 calc R . .
C72 C 0.7461(9) 0.0390(7) 0.6730(7) 0.038(4) Uani 1 1 d . . .
H72A H 0.7831 -0.0001 0.6461 0.046 Uiso 1 1 calc R . .
C73 C 0.6787(8) 0.0467(7) 0.7129(7) 0.031(3) Uani 1 1 d . . .
C74 C 0.6257(9) 0.1061(7) 0.7493(7) 0.036(3) Uani 1 1 d . . .
H74A H 0.5776 0.1141 0.7760 0.043 Uiso 1 1 calc R . .
C75 C 0.6434(8) 0.1531(6) 0.7462(6) 0.029(3) Uani 1 1 d . . .
H75A H 0.6080 0.1931 0.7722 0.035 Uiso 1 1 calc R . .
C76 C 0.8318(7) 0.2004(7) 0.8904(6) 0.029(3) Uani 1 1 d . . .
H76A H 0.8635 0.1597 0.8651 0.035 Uiso 1 1 calc R . .
C77 C 0.8527(8) 0.2228(7) 0.9209(7) 0.035(3) Uani 1 1 d . . .
H77A H 0.8989 0.1974 0.9179 0.042 Uiso 1 1 calc R . .
C78 C 0.8056(7) 0.2853(7) 0.9583(6) 0.028(3) Uani 1 1 d . . .
C79 C 0.7411(7) 0.3197(7) 0.9596(6) 0.030(3) Uani 1 1 d . . .
H79A H 0.7094 0.3616 0.9824 0.036 Uiso 1 1 calc R . .
C80 C 0.7214(7) 0.2953(7) 0.9289(6) 0.030(3) Uani 1 1 d . . .
H80A H 0.6757 0.3207 0.9310 0.036 Uiso 1 1 calc R . .
C81 C 0.6031(7) 0.3197(6) 0.7177(6) 0.025(3) Uani 1 1 d . . .
H81A H 0.6427 0.2858 0.6847 0.030 Uiso 1 1 calc R . .
C82 C 0.5368(7) 0.3477(6) 0.7220(7) 0.030(3) Uani 1 1 d . . .
H82A H 0.5306 0.3339 0.6912 0.035 Uiso 1 1 calc R . .
C83 C 0.4767(7) 0.3971(7) 0.7718(6) 0.028(3) Uani 1 1 d . . .
C84 C 0.4878(8) 0.4142(7) 0.8148(7) 0.032(3) Uani 1 1 d . . .
H84A H 0.4483 0.4463 0.8495 0.038 Uiso 1 1 calc R . .
C85 C 0.5546(8) 0.3863(7) 0.8094(7) 0.035(3) Uani 1 1 d . . .
H85A H 0.5610 0.3992 0.8404 0.041 Uiso 1 1 calc R . .
C86 C 0.6128(8) 0.1775(7) 0.9118(6) 0.031(3) Uani 1 1 d . . .
H86A H 0.6403 0.1413 0.8805 0.038 Uiso 1 1 calc R . .
C87 C 0.5800(8) 0.1719(7) 0.9749(7) 0.035(3) Uani 1 1 d . . .
H87A H 0.5825 0.1325 0.9870 0.042 Uiso 1 1 calc R . .
C88 C 0.5424(7) 0.2258(7) 1.0214(6) 0.026(3) Uani 1 1 d . . .
C89 C 0.5364(7) 0.2841(7) 1.0006(6) 0.028(3) Uani 1 1 d . . .
H89A H 0.5097 0.3215 1.0303 0.034 Uiso 1 1 calc R . .
C90 C 0.5693(7) 0.2867(7) 0.9375(6) 0.027(3) Uani 1 1 d . . .
H90A H 0.5666 0.3257 0.9236 0.033 Uiso 1 1 calc R . .
C91 C 0.8722(8) 0.7415(8) 0.5155(7) 0.041(4) Uani 1 1 d . . .
H91A H 0.8831 0.6997 0.5256 0.049 Uiso 1 1 calc R . .
C92 C 0.9210(8) 0.7493(9) 0.4621(7) 0.045(4) Uani 1 1 d . . .
H92A H 0.9655 0.7137 0.4350 0.054 Uiso 1 1 calc R . .
C93 C 0.9046(8) 0.8112(9) 0.4472(7) 0.041(4) Uani 1 1 d . . .
C94 C 0.8396(7) 0.8619(8) 0.4891(7) 0.038(4) Uani 1 1 d . . .
H94A H 0.8284 0.9044 0.4818 0.045 Uiso 1 1 calc R . .
C95 C 0.7930(8) 0.8500(8) 0.5401(7) 0.036(3) Uani 1 1 d . . .
H95A H 0.7471 0.8846 0.5666 0.043 Uiso 1 1 calc R . .
C96 C 0.7052(8) 0.8801(7) 0.7081(7) 0.034(3) Uani 1 1 d . . .
H96A H 0.7430 0.8379 0.7005 0.041 Uiso 1 1 calc R . .
C97 C 0.7160(9) 0.9322(7) 0.7054(7) 0.035(3) Uani 1 1 d . . .
H97A H 0.7628 0.9248 0.6941 0.042 Uiso 1 1 calc R . .
C98 C 0.6623(9) 0.9934(7) 0.7182(7) 0.035(3) Uani 1 1 d . . .
C99 C 0.5934(8) 1.0028(7) 0.7352(7) 0.032(3) Uani 1 1 d . . .
H99A H 0.5539 1.0446 0.7459 0.038 Uiso 1 1 calc R . .
C100 C 0.5839(8) 0.9508(7) 0.7361(7) 0.031(3) Uani 1 1 d . . .
H10B H 0.5376 0.9571 0.7469 0.037 Uiso 1 1 calc R . .
C101 C 0.5391(8) 0.7322(7) 0.6061(6) 0.033(3) Uani 1 1 d . . .
H10C H 0.5848 0.7089 0.5702 0.040 Uiso 1 1 calc R . .
C102 C 0.4923(8) 0.7084(7) 0.6303(7) 0.033(3) Uani 1 1 d . . .
H10D H 0.5061 0.6688 0.6106 0.039 Uiso 1 1 calc R . .
C103 C 0.4243(7) 0.7406(7) 0.6837(6) 0.029(3) Uani 1 1 d . . .
C104 C 0.4075(7) 0.7980(7) 0.7092(8) 0.035(3) Uani 1 1 d . . .
H10F H 0.3618 0.8217 0.7450 0.042 Uiso 1 1 calc R . .
C105 C 0.4536(8) 0.8222(7) 0.6853(8) 0.034(3) Uani 1 1 d . . .
H10G H 0.4403 0.8620 0.7042 0.041 Uiso 1 1 calc R . .
C106 C 0.8313(8) 0.6673(7) 0.6658(7) 0.032(3) Uani 1 1 d . . .
H10H H 0.8481 0.6422 0.6283 0.039 Uiso 1 1 calc R . .
C107 C 0.8795(7) 0.6666(7) 0.6813(7) 0.031(3) Uani 1 1 d . . .
H10I H 0.9297 0.6405 0.6547 0.038 Uiso 1 1 calc R . .
C108 C 0.7808(8) 0.7391(7) 0.7764(7) 0.033(3) Uani 1 1 d . . .
H10J H 0.7627 0.7627 0.8152 0.039 Uiso 1 1 calc R . .
C109 C 0.8553(8) 0.7043(7) 0.7368(7) 0.031(3) Uani 1 1 d . . .
C110 C 0.7327(7) 0.7393(7) 0.7592(6) 0.027(3) Uani 1 1 d . . .
H11B H 0.6821 0.7638 0.7856 0.033 Uiso 1 1 calc R . .
C111 C 0.6280(8) 0.9030(6) 0.5175(6) 0.032(3) Uani 1 1 d . . .
H11C H 0.6780 0.8735 0.4949 0.038 Uiso 1 1 calc R . .
C112 C 0.5249(8) 0.9542(8) 0.6130(7) 0.041(4) Uani 1 1 d . . .
H11D H 0.5011 0.9608 0.6577 0.049 Uiso 1 1 calc R . .
C113 C 0.4875(8) 0.9882(8) 0.5802(7) 0.045(4) Uani 1 1 d . . .
H11E H 0.4373 1.0169 0.6031 0.054 Uiso 1 1 calc R . .
C114 C 0.5208(7) 0.9810(6) 0.5174(6) 0.025(3) Uani 1 1 d . . .
C115 C 0.5910(8) 0.9356(7) 0.4856(7) 0.038(4) Uani 1 1 d . . .
H11G H 0.6144 0.9264 0.4411 0.045 Uiso 1 1 calc R . .
C116 C 0.5767(7) 0.7246(6) 0.8060(6) 0.026(3) Uani 1 1 d . . .
H11H H 0.6178 0.6875 0.7778 0.031 Uiso 1 1 calc R . .
C117 C 0.5515(7) 0.7251(6) 0.8682(6) 0.025(3) Uani 1 1 d . . .
H11I H 0.5763 0.6890 0.8834 0.030 Uiso 1 1 calc R . .
C118 C 0.4902(7) 0.7772(7) 0.9104(6) 0.027(3) Uani 1 1 d . . .
C119 C 0.4613(8) 0.8293(7) 0.8861(7) 0.037(4) Uani 1 1 d . . .
H11K H 0.4210 0.8670 0.9139 0.045 Uiso 1 1 calc R . .
C120 C 0.4885(8) 0.8295(7) 0.8217(6) 0.033(3) Uani 1 1 d . . .
H12B H 0.4676 0.8669 0.8056 0.040 Uiso 1 1 calc R . .
O3A O 1.0377(7) 0.1633(6) 0.3031(6) 0.082(4) Uiso 1 1 d D . .
F3A F 1.1060(7) 0.1968(7) 0.3671(6) 0.102(5) Uiso 1 1 d D . .
O2A O 1.0091(6) 0.1017(7) 0.3912(6) 0.078(4) Uiso 1 1 d D . .
F2A F 0.9840(7) 0.2278(7) 0.4268(8) 0.122(6) Uiso 1 1 d D . .
S1A S 1.0601(3) 0.1230(3) 0.3465(3) 0.0670(14) Uiso 1 1 d D . .
O1A O 1.1371(5) 0.0731(6) 0.3172(7) 0.084(5) Uiso 1 1 d D . .
F1A F 1.0686(10) 0.1422(8) 0.4472(9) 0.156(7) Uiso 1 1 d D . .
C1A C 1.0547(7) 0.1761(7) 0.4005(6) 0.092(8) Uiso 1 1 d D . .
O3B O 0.3591(7) 0.5392(9) 0.4821(7) 0.114(6) Uiso 1 1 d D . .
F3B F 0.3970(6) 0.4859(6) 0.4332(5) 0.075(3) Uiso 1 1 d D . .
F2B F 0.3346(9) 0.5465(9) 0.3761(8) 0.146(7) Uiso 1 1 d D . .
O2B O 0.4145(12) 0.5641(13) 0.3700(9) 0.207(13) Uiso 1 1 d D . .
C1B C 0.3985(8) 0.5051(8) 0.3764(6) 0.083(7) Uiso 1 1 d D . .
F1B F 0.4593(10) 0.4794(12) 0.3185(8) 0.212(11) Uiso 1 1 d D . .
S1B S 0.4230(4) 0.5336(4) 0.4234(4) 0.106(2) Uiso 1 1 d D . .
O1B O 0.4945(7) 0.4790(8) 0.4080(9) 0.139(8) Uiso 1 1 d D . .
F3C F 1.1270(9) 0.6219(8) 0.5607(8) 0.126(6) Uiso 1 1 d D . .
O3C O 0.9963(9) 0.6725(9) 0.5607(7) 0.129(7) Uiso 1 1 d D . .
F2C F 1.1785(11) 0.5744(12) 0.4610(8) 0.195(10) Uiso 1 1 d D . .
O2C O 1.0850(14) 0.6889(10) 0.4611(10) 0.189(11) Uiso 1 1 d D . .
S1C S 1.0620(5) 0.6436(4) 0.4987(4) 0.121(3) Uiso 1 1 d D . .
C1C C 1.1265(8) 0.5824(8) 0.5233(7) 0.129(12) Uiso 1 1 d D . .
O1C O 1.0636(13) 0.5973(10) 0.4616(9) 0.158(9) Uiso 1 1 d D . .
F1C F 1.0697(7) 0.5709(7) 0.5367(6) 0.096(4) Uiso 1 1 d D . .
F3D F 0.5183(15) 0.5189(8) 0.8676(14) 0.321(19) Uiso 1 1 d D . .
O3D O 0.3638(11) 0.6867(11) 0.8755(12) 0.157(9) Uiso 1 1 d D . .
F2D F 0.5299(10) 0.6093(10) 0.8656(10) 0.172(9) Uiso 1 1 d D . .
O2D O 0.465(2) 0.5844(14) 0.871(2) 0.38(4) Uiso 1 1 d D . .
S1D S 0.4433(11) 0.6475(8) 0.8478(10) 0.305(10) Uiso 1 1 d D . .
C1D C 0.4820(6) 0.5842(5) 0.8887(5) 0.015(2) Uiso 1 1 d D . .
F1D F 0.4366(13) 0.6029(13) 0.9540(7) 0.242(14) Uiso 1 1 d D . .
O3E O 0.7126(12) 0.7960(12) 0.9242(12) 0.156(9) Uiso 1 1 d D . .
F3E F 0.6278(16) 0.8658(16) 0.8640(17) 0.241(14) Uiso 1 1 d D . .
C1E C 0.577(2) 0.880(2) 0.9280(16) 0.28(4) Uiso 1 1 d D . .
O3F O 1.0622(9) -0.0326(7) 0.4020(8) 0.095(5) Uiso 1 1 d D . .
S1F S 0.9972(8) 0.0310(8) 0.4267(8) 0.251(8) Uiso 1 1 d D . .
O1F O 0.9937(18) 0.0734(11) 0.3776(13) 0.253(17) Uiso 1 1 d D . .
O3G O 1.3182(17) -0.0499(16) 0.835(2) 0.32(2) Uiso 1 1 d D . .
F2G F 1.328(2) 0.064(2) 0.727(2) 0.34(2) Uiso 1 1 d D . .
S1G S 1.3477(8) -0.0077(7) 0.7994(7) 0.197(6) Uiso 1 1 d D . .
O1G O 1.4264(8) -0.0399(9) 0.7586(8) 0.108(6) Uiso 1 1 d D . .
C1H C 0.3256(10) 0.4203(9) 1.0249(9) 0.062(5) Uiso 1 1 d D . .
F1H F 0.3481(16) 0.3685(12) 1.0548(13) 0.245(13) Uiso 1 1 d D . .
O1H O 0.4338(13) 0.4292(14) 0.9828(14) 0.217(14) Uiso 1 1 d D . .
S1H S 0.3578(12) 0.4785(10) 1.0118(11) 0.329(12) Uiso 1 1 d D . .
S1I S 0.4782(10) 0.3169(10) 0.5646(9) 0.238(7) Uiso 1 1 d D . .


loop_
_atom_site_aniso_label
_atom_site_aniso_U_11
_atom_site_aniso_U_22
_atom_site_aniso_U_33
_atom_site_aniso_U_23
_atom_site_aniso_U_13
_atom_site_aniso_U_12
Yb1 0.0173(3) 0.0181(3) 0.0163(3) 0.00633(19) -0.0098(2) -0.0116(2)
Yb2 0.0173(3) 0.0160(3) 0.0137(2) 0.00510(18) -0.0082(2) -0.0082(2)
Yb3 0.0161(3) 0.0184(3) 0.0175(3) 0.00608(19) -0.0112(2) -0.0098(2)
O1 0.027(5) 0.021(5) 0.029(5) 0.011(4) -0.020(4) -0.014(4)
O2 0.030(5) 0.038(5) 0.036(5) 0.024(4) -0.025(4) -0.030(5)
O3 0.024(5) 0.041(6) 0.016(4) 0.009(4) -0.008(4) -0.022(4)
O4 0.037(5) 0.024(5) 0.019(4) 0.010(4) -0.017(4) -0.024(4)
O5 0.044(6) 0.018(4) 0.032(5) 0.013(4) -0.026(5) -0.019(4)
O6 0.029(5) 0.026(5) 0.029(5) 0.015(4) -0.023(4) -0.021(4)
O7 0.027(5) 0.057(7) 0.020(5) 0.020(4) -0.013(4) -0.031(5)
O8 0.034(5) 0.022(5) 0.019(4) 0.002(4) -0.009(4) -0.016(4)
O9 0.044(6) 0.021(5) 0.029(5) 0.018(4) -0.027(5) -0.021(4)
O10 0.025(5) 0.035(5) 0.017(4) 0.011(4) -0.012(4) -0.016(4)
O11 0.020(4) 0.022(5) 0.034(5) 0.012(4) -0.017(4) -0.014(4)
O12 0.051(6) 0.030(5) 0.026(5) 0.012(4) -0.026(5) -0.029(5)
O13 0.019(4) 0.038(5) 0.014(4) 0.009(4) -0.006(4) -0.019(4)
O14 0.027(5) 0.019(5) 0.029(5) 0.007(4) -0.017(4) -0.008(4)
O15 0.032(5) 0.031(5) 0.016(4) 0.011(4) -0.014(4) -0.023(4)
O16 0.014(4) 0.042(6) 0.021(5) 0.015(4) -0.005(4) -0.012(4)
O17 0.018(4) 0.023(5) 0.035(5) 0.003(4) -0.016(4) -0.006(4)
O18 0.038(5) 0.033(5) 0.022(5) 0.013(4) -0.022(4) -0.026(4)
O19 0.024(5) 0.026(5) 0.034(5) 0.016(4) -0.020(4) -0.020(4)
O20 0.021(4) 0.016(4) 0.027(5) 0.003(3) -0.018(4) -0.004(4)
O21 0.023(5) 0.032(5) 0.024(5) 0.015(4) -0.018(4) -0.020(4)
O22 0.023(5) 0.030(5) 0.035(5) 0.010(4) -0.021(4) -0.016(4)
O23 0.046(6) 0.024(5) 0.029(5) 0.010(4) -0.026(5) -0.023(5)
O24 0.024(5) 0.030(5) 0.025(5) 0.014(4) -0.017(4) -0.018(4)
N1 0.026(6) 0.026(6) 0.024(6) 0.010(4) -0.013(5) -0.018(5)
N2 0.028(6) 0.036(7) 0.034(6) 0.020(5) -0.024(5) -0.025(5)
N3 0.023(5) 0.033(6) 0.017(5) 0.006(4) -0.011(4) -0.016(5)
N4 0.038(7) 0.027(6) 0.028(6) 0.006(5) -0.021(5) -0.020(5)
N5 0.045(7) 0.024(6) 0.028(6) 0.013(5) -0.024(6) -0.026(6)
N6 0.024(6) 0.020(5) 0.032(6) 0.009(5) -0.022(5) -0.010(5)
N7 0.026(6) 0.053(8) 0.025(6) 0.012(6) -0.013(5) -0.027(6)
N8 0.029(6) 0.026(6) 0.020(5) 0.005(4) -0.014(5) -0.017(5)
N9 0.036(6) 0.027(6) 0.027(6) 0.012(5) -0.021(5) -0.024(5)
N10 0.026(6) 0.041(7) 0.015(5) 0.013(5) -0.013(5) -0.022(5)
N11 0.021(5) 0.021(5) 0.026(6) 0.009(4) -0.017(5) -0.007(5)
N12 0.045(7) 0.028(6) 0.029(6) 0.012(5) -0.024(6) -0.027(6)
N13 0.017(5) 0.035(6) 0.020(5) 0.006(5) -0.007(4) -0.015(5)
N14 0.031(6) 0.012(5) 0.029(6) 0.008(4) -0.018(5) -0.006(5)
N15 0.020(5) 0.027(6) 0.019(5) 0.008(4) -0.013(4) -0.010(5)
N16 0.019(6) 0.043(7) 0.027(6) 0.017(5) -0.012(5) -0.013(5)
N17 0.023(5) 0.017(5) 0.031(6) 0.007(4) -0.020(5) -0.007(4)
N18 0.032(6) 0.030(6) 0.020(5) 0.010(4) -0.019(5) -0.020(5)
N19 0.024(6) 0.026(6) 0.037(7) 0.012(5) -0.022(5) -0.015(5)
N20 0.028(6) 0.023(6) 0.017(5) 0.006(4) -0.012(5) -0.013(5)
N21 0.022(5) 0.034(6) 0.022(5) 0.013(5) -0.013(5) -0.021(5)
N22 0.027(6) 0.017(5) 0.035(6) 0.009(5) -0.023(5) -0.010(5)
N23 0.032(6) 0.024(6) 0.023(6) 0.002(4) -0.020(5) -0.012(5)
N24 0.024(5) 0.026(6) 0.025(6) 0.013(4) -0.017(5) -0.018(5)
C1 0.029(7) 0.034(8) 0.030(7) 0.016(6) -0.015(6) -0.018(6)
C2 0.034(8) 0.031(8) 0.040(9) 0.013(6) -0.016(7) -0.020(7)
C3 0.041(8) 0.029(7) 0.030(7) 0.012(6) -0.023(7) -0.024(7)
C4 0.036(8) 0.036(8) 0.023(7) 0.013(6) -0.016(6) -0.022(7)
C5 0.037(8) 0.024(7) 0.022(7) 0.007(5) -0.014(6) -0.019(6)
C6 0.040(8) 0.031(7) 0.022(7) 0.011(5) -0.018(6) -0.025(7)
C7 0.037(8) 0.037(8) 0.029(7) 0.016(6) -0.019(7) -0.024(7)
C8 0.037(8) 0.020(7) 0.030(7) 0.004(5) -0.016(6) -0.014(6)
C9 0.027(7) 0.031(7) 0.025(7) 0.008(6) -0.013(6) -0.017(6)
C10 0.030(7) 0.029(7) 0.022(7) 0.006(5) -0.011(6) -0.020(6)
C11 0.028(7) 0.038(8) 0.018(6) 0.002(6) -0.007(6) -0.020(6)
C12 0.029(7) 0.033(8) 0.032(7) 0.008(6) -0.016(6) -0.021(6)
C13 0.036(8) 0.053(10) 0.022(7) 0.009(6) -0.017(6) -0.028(7)
C14 0.036(8) 0.038(8) 0.031(8) -0.006(6) -0.014(7) -0.018(7)
C15 0.036(8) 0.024(7) 0.033(8) 0.003(6) -0.021(6) -0.018(6)
C16 0.031(7) 0.029(7) 0.022(7) 0.003(5) -0.011(6) -0.016(6)
C17 0.023(7) 0.035(8) 0.018(6) -0.004(5) -0.008(5) -0.011(6)
C18 0.029(7) 0.024(7) 0.031(7) -0.004(6) -0.018(6) -0.006(6)
C19 0.037(8) 0.018(7) 0.038(8) -0.001(6) -0.024(7) -0.009(6)
C20 0.032(8) 0.029(7) 0.030(7) 0.012(6) -0.018(6) -0.015(6)
C21 0.029(7) 0.023(7) 0.020(6) 0.007(5) -0.011(6) -0.010(6)
C22 0.027(7) 0.019(6) 0.024(7) 0.005(5) -0.012(6) -0.008(5)
C23 0.023(7) 0.025(7) 0.027(7) 0.005(5) -0.014(6) -0.008(6)
C24 0.019(6) 0.028(7) 0.021(6) 0.005(5) -0.009(5) -0.010(5)
C25 0.019(6) 0.032(7) 0.015(6) 0.010(5) -0.009(5) -0.010(5)
C26 0.023(7) 0.026(7) 0.022(6) 0.005(5) -0.011(5) -0.012(6)
C27 0.028(7) 0.020(7) 0.027(7) 0.003(5) -0.017(6) -0.007(6)
C28 0.025(7) 0.023(7) 0.019(6) 0.005(5) -0.009(5) -0.011(5)
C29 0.038(8) 0.029(8) 0.022(7) 0.011(6) -0.016(6) -0.009(6)
C30 0.049(10) 0.031(8) 0.022(7) -0.003(6) -0.013(7) -0.005(7)
C31 0.026(7) 0.033(8) 0.023(7) 0.002(6) -0.013(6) -0.015(6)
C32 0.029(7) 0.044(9) 0.032(8) 0.001(6) -0.024(6) -0.015(7)
C33 0.031(7) 0.040(8) 0.023(7) 0.006(6) -0.016(6) -0.020(7)
C34 0.026(7) 0.052(10) 0.028(8) 0.001(7) -0.015(6) -0.019(7)
C35 0.021(7) 0.042(8) 0.023(7) 0.003(6) -0.009(6) -0.015(6)
C36 0.039(8) 0.026(7) 0.021(7) 0.010(6) -0.005(6) -0.014(7)
C37 0.052(10) 0.037(9) 0.029(8) 0.011(7) -0.007(7) -0.027(8)
C38 0.028(7) 0.036(8) 0.022(7) 0.011(6) -0.010(6) -0.024(6)
C39 0.042(9) 0.018(7) 0.041(9) 0.017(6) -0.013(7) -0.016(7)
C40 0.043(9) 0.032(8) 0.027(8) 0.008(6) -0.007(7) -0.020(7)
C41 0.035(8) 0.031(8) 0.032(8) 0.005(6) -0.015(6) -0.022(7)
C42 0.031(8) 0.046(9) 0.043(9) -0.005(7) -0.008(7) -0.028(7)
C43 0.024(7) 0.031(7) 0.039(8) 0.008(6) -0.019(6) -0.017(6)
C44 0.033(8) 0.032(8) 0.054(10) 0.007(7) -0.024(8) -0.019(7)
C45 0.021(7) 0.037(8) 0.036(8) 0.003(6) -0.012(6) -0.016(6)
C46 0.025(7) 0.027(7) 0.032(8) 0.009(6) -0.013(6) -0.014(6)
C47 0.021(7) 0.034(8) 0.035(8) 0.007(6) -0.018(6) -0.009(6)
C48 0.023(7) 0.031(7) 0.026(7) 0.002(6) -0.013(6) -0.009(6)
C49 0.024(7) 0.036(8) 0.026(7) 0.007(6) -0.012(6) -0.012(6)
C50 0.025(7) 0.024(7) 0.030(7) 0.010(5) -0.018(6) -0.010(6)
C51 0.030(7) 0.038(8) 0.024(7) 0.008(6) -0.018(6) -0.017(6)
C52 0.030(7) 0.046(9) 0.032(8) 0.011(6) -0.020(6) -0.024(7)
C53 0.021(7) 0.038(8) 0.037(8) 0.015(6) -0.018(6) -0.017(6)
C54 0.037(8) 0.041(9) 0.028(7) 0.008(6) -0.024(7) -0.019(7)
C55 0.027(7) 0.031(7) 0.028(7) 0.006(6) -0.019(6) -0.011(6)
C56 0.024(7) 0.021(7) 0.029(7) 0.003(5) -0.013(6) -0.009(5)
C57 0.035(8) 0.019(7) 0.026(7) 0.007(5) -0.011(6) -0.014(6)
C58 0.025(7) 0.023(7) 0.028(7) 0.004(5) -0.012(6) -0.004(6)
C59 0.026(7) 0.038(8) 0.023(7) 0.009(6) -0.015(6) -0.014(6)
C60 0.023(7) 0.023(7) 0.027(7) 0.000(5) -0.009(6) -0.009(6)
C61 0.036(8) 0.053(10) 0.030(8) 0.015(7) -0.010(7) -0.029(8)
C62 0.038(9) 0.057(10) 0.026(8) 0.007(7) -0.011(7) -0.027(8)
C63 0.033(8) 0.068(11) 0.026(8) 0.020(7) -0.017(7) -0.030(8)
C64 0.031(8) 0.072(12) 0.036(9) 0.019(8) -0.019(7) -0.038(8)
C65 0.026(7) 0.046(9) 0.027(7) 0.015(7) -0.012(6) -0.018(7)
C66 0.030(7) 0.029(7) 0.012(6) 0.002(5) -0.004(5) -0.009(6)
C67 0.034(8) 0.023(7) 0.023(7) 0.010(5) -0.015(6) -0.003(6)
C68 0.042(8) 0.017(7) 0.030(8) 0.004(5) -0.019(7) -0.006(6)
C69 0.033(8) 0.024(7) 0.029(8) 0.001(6) -0.008(6) -0.006(6)
C70 0.039(8) 0.018(7) 0.016(6) 0.009(5) -0.007(6) -0.009(6)
C71 0.032(8) 0.028(8) 0.035(8) -0.001(6) -0.015(7) -0.014(6)
C72 0.051(10) 0.029(8) 0.040(9) 0.006(7) -0.020(8) -0.024(7)
C73 0.050(9) 0.026(7) 0.039(8) 0.011(6) -0.029(7) -0.028(7)
C74 0.047(9) 0.039(9) 0.034(8) 0.007(7) -0.021(7) -0.030(8)
C75 0.034(8) 0.024(7) 0.029(7) -0.002(5) -0.011(6) -0.017(6)
C76 0.030(7) 0.034(8) 0.028(7) 0.001(6) -0.019(6) -0.013(6)
C77 0.028(8) 0.036(8) 0.045(9) 0.003(7) -0.027(7) -0.008(6)
C78 0.030(7) 0.042(8) 0.017(6) 0.006(6) -0.016(6) -0.017(6)
C79 0.029(7) 0.031(8) 0.030(7) -0.003(6) -0.015(6) -0.011(6)
C80 0.022(7) 0.034(8) 0.026(7) 0.000(6) -0.012(6) -0.007(6)
C81 0.030(7) 0.015(6) 0.031(7) 0.003(5) -0.020(6) -0.006(5)
C82 0.023(7) 0.028(7) 0.036(8) 0.000(6) -0.020(6) -0.005(6)
C83 0.027(7) 0.034(8) 0.024(7) 0.008(6) -0.017(6) -0.011(6)
C84 0.031(8) 0.025(7) 0.033(8) -0.004(6) -0.019(6) -0.003(6)
C85 0.032(8) 0.037(8) 0.031(8) -0.003(6) -0.019(7) -0.008(7)
C86 0.035(8) 0.039(8) 0.025(7) 0.007(6) -0.014(6) -0.024(7)
C87 0.048(9) 0.035(8) 0.026(7) 0.014(6) -0.018(7) -0.024(7)
C88 0.028(7) 0.031(7) 0.019(6) 0.008(5) -0.011(6) -0.015(6)
C89 0.032(7) 0.033(8) 0.017(6) 0.002(5) -0.003(6) -0.021(6)
C90 0.037(8) 0.027(7) 0.022(7) 0.004(5) -0.013(6) -0.020(6)
C91 0.038(9) 0.059(11) 0.041(9) 0.010(8) -0.014(7) -0.039(8)
C92 0.027(8) 0.077(13) 0.028(8) -0.004(8) -0.001(7) -0.033(9)
C93 0.038(9) 0.080(13) 0.033(8) 0.030(8) -0.025(7) -0.044(9)
C94 0.021(7) 0.052(10) 0.035(8) 0.023(7) -0.011(6) -0.019(7)
C95 0.027(7) 0.054(10) 0.032(8) 0.017(7) -0.017(7) -0.022(7)
C96 0.043(9) 0.031(8) 0.045(9) 0.012(7) -0.024(7) -0.028(7)
C97 0.048(9) 0.033(8) 0.050(9) 0.008(7) -0.035(8) -0.026(7)
C98 0.059(10) 0.035(8) 0.037(8) 0.012(7) -0.030(8) -0.035(8)
C99 0.040(8) 0.025(7) 0.035(8) 0.000(6) -0.019(7) -0.016(6)
C100 0.032(8) 0.030(8) 0.042(8) 0.008(6) -0.022(7) -0.019(7)
C101 0.039(8) 0.051(9) 0.023(7) 0.002(6) -0.011(6) -0.035(8)
C102 0.037(8) 0.032(8) 0.034(8) 0.002(6) -0.014(7) -0.022(7)
C103 0.026(7) 0.041(8) 0.028(7) 0.014(6) -0.015(6) -0.022(7)
C104 0.020(7) 0.032(8) 0.049(9) 0.003(7) -0.012(7) -0.013(6)
C105 0.031(8) 0.023(7) 0.052(10) 0.007(6) -0.024(7) -0.013(6)
C106 0.041(8) 0.030(8) 0.037(8) 0.008(6) -0.029(7) -0.016(7)
C107 0.015(6) 0.029(7) 0.043(9) -0.005(6) -0.013(6) -0.005(6)
C108 0.041(8) 0.044(9) 0.028(7) 0.006(6) -0.023(7) -0.025(7)
C109 0.035(8) 0.042(8) 0.032(8) 0.014(6) -0.026(7) -0.023(7)
C110 0.024(7) 0.042(8) 0.031(7) 0.012(6) -0.019(6) -0.023(6)
C111 0.032(8) 0.023(7) 0.024(7) 0.002(5) -0.016(6) 0.000(6)
C112 0.029(8) 0.050(10) 0.027(8) 0.015(7) -0.018(7) -0.005(7)
C113 0.026(8) 0.058(11) 0.027(8) 0.007(7) -0.016(7) 0.000(7)
C114 0.030(7) 0.023(7) 0.025(7) 0.007(5) -0.019(6) -0.010(6)
C115 0.045(9) 0.036(8) 0.019(7) 0.009(6) -0.020(7) -0.006(7)
C116 0.031(7) 0.025(7) 0.020(6) 0.001(5) -0.010(6) -0.015(6)
C117 0.024(7) 0.028(7) 0.022(7) 0.007(5) -0.011(5) -0.014(6)
C118 0.026(7) 0.039(8) 0.017(6) 0.006(6) -0.005(5) -0.023(6)
C119 0.030(8) 0.033(8) 0.022(7) 0.006(6) -0.001(6) -0.008(7)
C120 0.035(8) 0.033(8) 0.024(7) 0.010(6) -0.006(6) -0.019(7)

_geom_special_details            
;
All esds (except the esd in the dihedral angle between two l.s. planes)
are estimated using the full covariance matrix.  The cell esds are taken
into account individually in the estimation of esds in distances, angles
and torsion angles; correlations between esds in cell parameters are only
used when they are defined by crystal symmetry.  An approximate (isotropic)
treatment of cell esds is used for estimating esds involving l.s. planes.
;

loop_
_geom_bond_atom_site_label_1
_geom_bond_atom_site_label_2
_geom_bond_distance
_geom_bond_site_symmetry_2
_geom_bond_publ_flag
Yb1 O3 2.273(8) . ?
Yb1 O1 2.292(8) . ?
Yb1 O7 2.296(9) . ?
Yb1 O5 2.304(8) . ?
Yb1 O4 2.314(8) . ?
Yb1 O6 2.331(8) . ?
Yb1 O2 2.337(8) . ?
Yb1 O8 2.352(8) . ?
Yb2 O15 2.287(8) . ?
Yb2 O14 2.296(9) . ?
Yb2 O10 2.307(8) . ?
Yb2 O12 2.317(8) . ?
Yb2 O13 2.322(8) . ?
Yb2 O11 2.321(8) . ?
Yb2 O9 2.335(9) . ?
Yb2 O16 2.360(8) . ?
Yb3 O19 2.267(8) . ?
Yb3 O24 2.285(8) . ?
Yb3 O23 2.302(9) . ?
Yb3 O22 2.311(8) . ?
Yb3 O21 2.326(8) . ?
Yb3 O18 2.335(8) . ?
Yb3 O20 2.347(8) . ?
Yb3 O17 2.356(9) . ?
O1 N1 1.353(13) . ?
O2 N2 1.315(12) . ?
O3 N3 1.347(13) . ?
O4 N4 1.359(13) . ?
O5 N5 1.355(13) . ?
O6 N6 1.321(12) . ?
O7 N7 1.324(14) . ?
O8 N8 1.334(13) . ?
O9 N9 1.338(13) . ?
O10 N10 1.338(12) . ?
O11 N11 1.313(12) . ?
O12 N12 1.343(13) . ?
O13 N13 1.326(13) . ?
O14 N14 1.344(13) . ?
O15 N15 1.319(13) . ?
O16 N16 1.328(14) . ?
O17 N17 1.346(12) . ?
O18 N18 1.333(12) . ?
O19 N19 1.326(13) . ?
O20 N20 1.333(13) . ?
O21 N21 1.337(12) . ?
O22 N22 1.342(13) . ?
O23 N23 1.320(13) . ?
O24 N24 1.324(12) . ?
N1 C112 1.315(17) . ?
N1 C111 1.340(17) . ?
N2 C101 1.334(18) . ?
N2 C105 1.400(18) . ?
N3 C120 1.322(17) . ?
N3 C116 1.359(17) . ?
N4 C100 1.327(17) . ?
N4 C96 1.366(18) . ?
N5 C1 1.314(18) . ?
N5 C5 1.330(17) . ?
N6 C110 1.359(17) . ?
N6 C106 1.361(18) . ?
N7 C95 1.348(19) . ?
N7 C91 1.35(2) . ?
N8 C20 1.318(16) . ?
N8 C19 1.354(17) . ?
N9 C9 1.365(17) . ?
N9 C10 1.370(17) . ?
N10 C29 1.326(17) . ?
N10 C28 1.354(16) . ?
N11 C81 1.349(16) . ?
N11 C85 1.358(17) . ?
N12 C71 1.305(17) . ?
N12 C75 1.320(18) . ?
N13 C86 1.340(17) . ?
N13 C90 1.353(17) . ?
N14 C70 1.334(16) . ?
N14 C66 1.359(16) . ?
N15 C80 1.339(17) . ?
N15 C76 1.390(16) . ?
N16 C65 1.306(19) . ?
N16 C61 1.363(19) . ?
N17 C46 1.310(17) . ?
N17 C50 1.333(17) . ?
N18 C35 1.358(17) . ?
N18 C31 1.355(16) . ?
N19 C41 1.318(17) . ?
N19 C45 1.368(18) . ?
N20 C56 1.340(16) . ?
N20 C60 1.374(16) . ?
N21 C22 1.331(16) . ?
N21 C24 1.347(16) . ?
N22 C51 1.334(17) . ?
N22 C55 1.368(17) . ?
N23 C13 1.343(17) . ?
N23 C11 1.362(17) . ?
N24 C36 1.328(17) . ?
N24 C40 1.352(18) . ?
C1 C2 1.404(19) . ?
C2 C3 1.375(19) . ?
C3 C6 1.398(19) . ?
C3 C7 1.503(18) . ?
C4 C9 1.349(18) . ?
C4 C7 1.40(2) . ?
C5 C6 1.355(18) . ?
C7 C8 1.405(19) . ?
C8 C10 1.352(18) . ?
C11 C12 1.349(19) . ?
C12 C15 1.427(19) . ?
C13 C14 1.37(2) . ?
C14 C15 1.407(19) . ?
C15 C16 1.458(18) . ?
C16 C17 1.366(19) . ?
C16 C18 1.440(18) . ?
C17 C20 1.404(19) . ?
C18 C19 1.354(18) . ?
C21 C22 1.357(17) . ?
C21 C26 1.368(17) . ?
C23 C24 1.359(18) . ?
C23 C26 1.384(18) . ?
C25 C27 1.388(18) . ?
C25 C30 1.431(19) . ?
C25 C26 1.498(17) . ?
C27 C28 1.356(17) . ?
C29 C30 1.333(19) . ?
C31 C32 1.367(17) . ?
C32 C33 1.367(19) . ?
C33 C34 1.404(19) . ?
C33 C78 1.492(18) 1_554 ?
C34 C35 1.390(18) . ?
C36 C37 1.375(19) . ?
C37 C38 1.40(2) . ?
C38 C39 1.34(2) . ?
C38 C38 1.45(2) 2_765 ?
C39 C40 1.428(19) . ?
C41 C42 1.362(19) . ?
C42 C43 1.44(2) . ?
C43 C44 1.41(2) . ?
C43 C103 1.463(18) 2_666 ?
C44 C45 1.346(19) . ?
C46 C47 1.414(18) . ?
C47 C48 1.414(19) . ?
C48 C49 1.393(18) . ?
C48 C83 1.480(18) 2_666 ?
C49 C50 1.375(18) . ?
C51 C52 1.379(18) . ?
C52 C53 1.42(2) . ?
C53 C54 1.403(19) . ?
C53 C109 1.462(18) 2_766 ?
C54 C55 1.394(18) . ?
C56 C57 1.387(18) . ?
C57 C58 1.370(19) . ?
C58 C59 1.386(19) . ?
C58 C68 1.517(18) 2_756 ?
C59 C60 1.328(18) . ?
C61 C62 1.37(2) . ?
C62 C63 1.40(2) . ?
C63 C64 1.35(2) . ?
C63 C93 1.49(2) 2_766 ?
C64 C65 1.389(19) . ?
C66 C67 1.345(18) . ?
C67 C68 1.397(19) . ?
C68 C69 1.37(2) . ?
C68 C58 1.517(18) 2_756 ?
C69 C70 1.373(19) . ?
C71 C72 1.378(19) . ?
C72 C73 1.37(2) . ?
C73 C74 1.39(2) . ?
C73 C98 1.492(18) 1_545 ?
C74 C75 1.374(18) . ?
C76 C77 1.341(19) . ?
C77 C78 1.45(2) . ?
C78 C79 1.353(18) . ?
C78 C33 1.492(18) 1_556 ?
C79 C80 1.353(19) . ?
C81 C82 1.358(17) . ?
C82 C83 1.416(18) . ?
C83 C84 1.341(18) . ?
C83 C48 1.480(18) 2_666 ?
C84 C85 1.358(19) . ?
C86 C87 1.385(19) . ?
C87 C88 1.42(2) . ?
C88 C89 1.409(18) . ?
C88 C118 1.478(17) 2_667 ?
C89 C90 1.370(18) . ?
C91 C92 1.35(2) . ?
C92 C93 1.41(2) . ?
C93 C94 1.39(2) . ?
C93 C63 1.49(2) 2_766 ?
C94 C95 1.340(19) . ?
C96 C97 1.389(18) . ?
C97 C98 1.36(2) . ?
C98 C99 1.41(2) . ?
C98 C73 1.492(18) 1_565 ?
C99 C100 1.376(19) . ?
C101 C102 1.363(19) . ?
C102 C103 1.404(19) . ?
C103 C104 1.38(2) . ?
C103 C43 1.463(18) 2_666 ?
C104 C105 1.357(19) . ?
C106 C107 1.370(18) . ?
C107 C109 1.42(2) . ?
C108 C110 1.401(17) . ?
C108 C109 1.40(2) . ?
C109 C53 1.462(18) 2_766 ?
C111 C115 1.369(18) . ?
C112 C113 1.402(18) . ?
C113 C114 1.335(19) . ?
C114 C115 1.357(19) . ?
C114 C114 1.53(2) 2_676 ?
C116 C117 1.340(17) . ?
C117 C118 1.379(18) . ?
C118 C119 1.35(2) . ?
C118 C88 1.478(17) 2_667 ?
C119 C120 1.387(19) . ?

loop_
_geom_angle_atom_site_label_1
_geom_angle_atom_site_label_2
_geom_angle_atom_site_label_3
_geom_angle
_geom_angle_site_symmetry_1
_geom_angle_site_symmetry_3
_geom_angle_publ_flag
O3 Yb1 O1 113.5(3) . . ?
O3 Yb1 O7 141.5(3) . . ?
O1 Yb1 O7 79.6(3) . . ?
O3 Yb1 O5 80.7(3) . . ?
O1 Yb1 O5 142.2(3) . . ?
O7 Yb1 O5 111.8(4) . . ?
O3 Yb1 O4 71.9(3) . . ?
O1 Yb1 O4 73.5(3) . . ?
O7 Yb1 O4 78.4(3) . . ?
O5 Yb1 O4 142.8(3) . . ?
O3 Yb1 O6 76.5(3) . . ?
O1 Yb1 O6 143.5(3) . . ?
O7 Yb1 O6 73.5(3) . . ?
O5 Yb1 O6 72.4(3) . . ?
O4 Yb1 O6 77.1(3) . . ?
O3 Yb1 O2 72.2(3) . . ?
O1 Yb1 O2 74.1(3) . . ?
O7 Yb1 O2 144.6(3) . . ?
O5 Yb1 O2 77.9(3) . . ?
O4 Yb1 O2 115.2(3) . . ?
O6 Yb1 O2 139.6(3) . . ?
O3 Yb1 O8 143.2(3) . . ?
O1 Yb1 O8 76.7(3) . . ?
O7 Yb1 O8 73.5(3) . . ?
O5 Yb1 O8 72.8(3) . . ?
O4 Yb1 O8 142.0(3) . . ?
O6 Yb1 O8 117.4(3) . . ?
O2 Yb1 O8 77.6(3) . . ?
O15 Yb2 O14 75.8(3) . . ?
O15 Yb2 O10 141.7(3) . . ?
O14 Yb2 O10 114.4(3) . . ?
O15 Yb2 O12 141.6(3) . . ?
O14 Yb2 O12 73.8(3) . . ?
O10 Yb2 O12 73.7(3) . . ?
O15 Yb2 O13 75.3(3) . . ?
O14 Yb2 O13 77.7(3) . . ?
O10 Yb2 O13 141.8(3) . . ?
O12 Yb2 O13 75.8(3) . . ?
O15 Yb2 O11 117.1(3) . . ?
O14 Yb2 O11 142.1(3) . . ?
O10 Yb2 O11 78.6(3) . . ?
O12 Yb2 O11 76.7(3) . . ?
O13 Yb2 O11 72.4(3) . . ?
O15 Yb2 O9 74.4(3) . . ?
O14 Yb2 O9 142.8(3) . . ?
O10 Yb2 O9 78.2(3) . . ?
O12 Yb2 O9 141.9(3) . . ?
O13 Yb2 O9 114.9(3) . . ?
O11 Yb2 O9 72.8(3) . . ?
O15 Yb2 O16 75.5(3) . . ?
O14 Yb2 O16 74.9(3) . . ?
O10 Yb2 O16 72.4(3) . . ?
O12 Yb2 O16 117.5(3) . . ?
O13 Yb2 O16 143.8(3) . . ?
O11 Yb2 O16 141.3(3) . . ?
O9 Yb2 O16 76.5(3) . . ?
O19 Yb3 O24 142.9(3) . . ?
O19 Yb3 O23 111.2(3) . . ?
O24 Yb3 O23 80.8(3) . . ?
O19 Yb3 O22 143.3(3) . . ?
O24 Yb3 O22 72.5(3) . . ?
O23 Yb3 O22 77.4(3) . . ?
O19 Yb3 O21 72.4(3) . . ?
O24 Yb3 O21 143.3(3) . . ?
O23 Yb3 O21 73.6(3) . . ?
O22 Yb3 O21 76.5(3) . . ?
O19 Yb3 O18 76.9(3) . . ?
O24 Yb3 O18 74.5(3) . . ?
O23 Yb3 O18 144.1(3) . . ?
O22 Yb3 O18 117.9(3) . . ?
O21 Yb3 O18 139.2(3) . . ?
O19 Yb3 O20 80.1(3) . . ?
O24 Yb3 O20 112.4(3) . . ?
O23 Yb3 O20 142.4(3) . . ?
O22 Yb3 O20 73.9(3) . . ?
O21 Yb3 O20 76.4(3) . . ?
O18 Yb3 O20 72.4(3) . . ?
O19 Yb3 O17 75.4(3) . . ?
O24 Yb3 O17 75.4(3) . . ?
O23 Yb3 O17 72.3(3) . . ?
O22 Yb3 O17 138.6(3) . . ?
O21 Yb3 O17 119.3(3) . . ?
O18 Yb3 O17 76.6(3) . . ?
O20 Yb3 O17 144.0(3) . . ?
N1 O1 Yb1 128.3(7) . . ?
N2 O2 Yb1 124.8(7) . . ?
N3 O3 Yb1 133.8(7) . . ?
N4 O4 Yb1 125.7(7) . . ?
N5 O5 Yb1 127.7(7) . . ?
N6 O6 Yb1 127.0(7) . . ?
N7 O7 Yb1 131.0(7) . . ?
N8 O8 Yb1 125.6(7) . . ?
N9 O9 Yb2 125.6(7) . . ?
N10 O10 Yb2 130.1(7) . . ?
N11 O11 Yb2 132.1(7) . . ?
N12 O12 Yb2 126.6(7) . . ?
N13 O13 Yb2 127.5(7) . . ?
N14 O14 Yb2 127.6(7) . . ?
N15 O15 Yb2 128.8(7) . . ?
N16 O16 Yb2 124.2(7) . . ?
N17 O17 Yb3 127.0(7) . . ?
N18 O18 Yb3 125.4(7) . . ?
N19 O19 Yb3 129.6(7) . . ?
N20 O20 Yb3 123.2(6) . . ?
N21 O21 Yb3 127.5(7) . . ?
N22 O22 Yb3 126.7(7) . . ?
N23 O23 Yb3 133.4(7) . . ?
N24 O24 Yb3 127.6(6) . . ?
C112 N1 C111 121.5(12) . . ?
C112 N1 O1 118.4(11) . . ?
C111 N1 O1 120.1(11) . . ?
O2 N2 C101 121.0(12) . . ?
O2 N2 C105 119.2(11) . . ?
C101 N2 C105 119.7(11) . . ?
C120 N3 O3 119.5(11) . . ?
C120 N3 C116 120.3(11) . . ?
O3 N3 C116 120.2(11) . . ?
C100 N4 O4 120.1(11) . . ?
C100 N4 C96 121.8(12) . . ?
O4 N4 C96 118.1(11) . . ?
C1 N5 C5 122.0(12) . . ?
C1 N5 O5 117.7(11) . . ?
C5 N5 O5 120.3(12) . . ?
O6 N6 C110 119.0(10) . . ?
O6 N6 C106 118.6(11) . . ?
C110 N6 C106 122.4(11) . . ?
O7 N7 C95 122.6(13) . . ?
O7 N7 C91 119.0(12) . . ?
C95 N7 C91 118.3(12) . . ?
C20 N8 O8 120.1(11) . . ?
C20 N8 C19 120.9(11) . . ?
O8 N8 C19 119.0(10) . . ?
O9 N9 C9 118.8(11) . . ?
O9 N9 C10 119.4(10) . . ?
C9 N9 C10 121.8(11) . . ?
C29 N10 O10 118.7(11) . . ?
C29 N10 C28 121.6(11) . . ?
O10 N10 C28 119.7(11) . . ?
O11 N11 C81 119.7(11) . . ?
O11 N11 C85 120.7(11) . . ?
C81 N11 C85 119.6(11) . . ?
C71 N12 C75 121.5(12) . . ?
C71 N12 O12 119.3(12) . . ?
C75 N12 O12 119.2(11) . . ?
O13 N13 C86 119.7(11) . . ?
O13 N13 C90 118.0(11) . . ?
C86 N13 C90 122.3(11) . . ?
C70 N14 O14 119.3(11) . . ?
C70 N14 C66 120.4(11) . . ?
O14 N14 C66 120.2(11) . . ?
O15 N15 C80 121.4(10) . . ?
O15 N15 C76 119.9(10) . . ?
C80 N15 C76 118.7(11) . . ?
C65 N16 O16 122.0(12) . . ?
C65 N16 C61 120.1(12) . . ?
O16 N16 C61 117.8(12) . . ?
C46 N17 C50 122.0(11) . . ?
C46 N17 O17 118.7(11) . . ?
C50 N17 O17 119.2(10) . . ?
O18 N18 C35 120.3(10) . . ?
O18 N18 C31 119.5(11) . . ?
C35 N18 C31 120.2(11) . . ?
C41 N19 O19 119.5(11) . . ?
C41 N19 C45 120.0(11) . . ?
O19 N19 C45 120.5(11) . . ?
O20 N20 C56 120.5(10) . . ?
O20 N20 C60 119.0(10) . . ?
C56 N20 C60 120.5(11) . . ?
C22 N21 O21 121.0(11) . . ?
C22 N21 C24 119.7(11) . . ?
O21 N21 C24 119.2(10) . . ?
C51 N22 O22 120.1(11) . . ?
C51 N22 C55 121.5(11) . . ?
O22 N22 C55 118.4(11) . . ?
O23 N23 C13 119.6(11) . . ?
O23 N23 C11 120.4(11) . . ?
C13 N23 C11 119.9(11) . . ?
O24 N24 C36 121.1(11) . . ?
O24 N24 C40 117.8(11) . . ?
C36 N24 C40 121.1(11) . . ?
N5 C1 C2 120.7(13) . . ?
C3 C2 C1 118.4(14) . . ?
C2 C3 C6 118.3(13) . . ?
C2 C3 C7 119.9(13) . . ?
C6 C3 C7 121.8(12) . . ?
C9 C4 C7 122.7(13) . . ?
N5 C5 C6 120.1(13) . . ?
C5 C6 C3 120.5(13) . . ?
C4 C7 C8 116.7(12) . . ?
C4 C7 C3 121.2(12) . . ?
C8 C7 C3 122.0(13) . . ?
C10 C8 C7 120.7(13) . . ?
C4 C9 N9 118.2(13) . . ?
C8 C10 N9 119.8(12) . . ?
C12 C11 N23 121.8(12) . . ?
C11 C12 C15 119.7(12) . . ?
N23 C13 C14 121.3(13) . . ?
C13 C14 C15 120.4(14) . . ?
C14 C15 C12 116.9(12) . . ?
C14 C15 C16 120.6(13) . . ?
C12 C15 C16 122.5(12) . . ?
C17 C16 C18 116.6(12) . . ?
C17 C16 C15 124.3(13) . . ?
C18 C16 C15 119.2(12) . . ?
C16 C17 C20 119.6(13) . . ?
C19 C18 C16 121.1(13) . . ?
C18 C19 N8 119.7(13) . . ?
N8 C20 C17 121.7(13) . . ?
C22 C21 C26 120.4(12) . . ?
N21 C22 C21 120.9(12) . . ?
C24 C23 C26 119.2(13) . . ?
N21 C24 C23 121.2(12) . . ?
C27 C25 C30 115.0(11) . . ?
C27 C25 C26 122.6(11) . . ?
C30 C25 C26 122.4(12) . . ?
C21 C26 C23 118.4(12) . . ?
C21 C26 C25 120.9(11) . . ?
C23 C26 C25 120.7(12) . . ?
C28 C27 C25 121.1(12) . . ?
N10 C28 C27 120.2(12) . . ?
N10 C29 C30 119.8(13) . . ?
C29 C30 C25 122.2(13) . . ?
N18 C31 C32 119.9(13) . . ?
C31 C32 C33 121.9(13) . . ?
C32 C33 C34 117.8(12) . . ?
C32 C33 C78 119.1(12) . 1_554 ?
C34 C33 C78 123.0(13) . 1_554 ?
C35 C34 C33 119.2(13) . . ?
N18 C35 C34 120.6(12) . . ?
N24 C36 C37 121.9(13) . . ?
C36 C37 C38 120.2(14) . . ?
C39 C38 C37 116.4(12) . . ?
C39 C38 C38 123.2(16) . 2_765 ?
C37 C38 C38 120.3(16) . 2_765 ?
C38 C39 C40 123.4(13) . . ?
N24 C40 C39 116.9(13) . . ?
N19 C41 C42 122.4(13) . . ?
C41 C42 C43 119.7(14) . . ?
C44 C43 C42 115.6(12) . . ?
C44 C43 C103 123.1(13) . 2_666 ?
C42 C43 C103 121.2(13) . 2_666 ?
C45 C44 C43 121.1(14) . . ?
C44 C45 N19 121.3(14) . . ?
N17 C46 C47 120.4(13) . . ?
C48 C47 C46 118.4(13) . . ?
C49 C48 C47 118.2(12) . . ?
C49 C48 C83 120.6(12) . 2_666 ?
C47 C48 C83 121.2(12) . 2_666 ?
C50 C49 C48 119.3(13) . . ?
N17 C50 C49 121.4(12) . . ?
N22 C51 C52 121.5(12) . . ?
C51 C52 C53 118.8(13) . . ?
C54 C53 C52 119.0(12) . . ?
C54 C53 C109 119.4(13) . 2_766 ?
C52 C53 C109 121.6(12) . 2_766 ?
C55 C54 C53 119.1(13) . . ?
N22 C55 C54 119.9(13) . . ?
N20 C56 C57 118.8(12) . . ?
C58 C57 C56 120.6(13) . . ?
C57 C58 C59 118.5(12) . . ?
C57 C58 C68 121.2(13) . 2_756 ?
C59 C58 C68 120.3(12) . 2_756 ?
C60 C59 C58 119.8(13) . . ?
C59 C60 N20 121.2(13) . . ?
N16 C61 C62 119.9(15) . . ?
C61 C62 C63 120.6(15) . . ?
C64 C63 C62 116.4(14) . . ?
C64 C63 C93 122.1(16) . 2_766 ?
C62 C63 C93 121.5(15) . 2_766 ?
C63 C64 C65 121.6(16) . . ?
N16 C65 C64 120.8(15) . . ?
C67 C66 N14 120.6(12) . . ?
C66 C67 C68 120.2(12) . . ?
C69 C68 C67 118.1(12) . . ?
C69 C68 C58 119.8(13) . 2_756 ?
C67 C68 C58 121.9(12) . 2_756 ?
C70 C69 C68 120.2(13) . . ?
N14 C70 C69 120.5(12) . . ?
N12 C71 C72 121.0(14) . . ?
C73 C72 C71 119.9(14) . . ?
C72 C73 C74 117.5(13) . . ?
C72 C73 C98 121.6(14) . 1_545 ?
C74 C73 C98 120.8(14) . 1_545 ?
C75 C74 C73 119.5(14) . . ?
N12 C75 C74 120.5(13) . . ?
C77 C76 N15 120.0(13) . . ?
C76 C77 C78 120.6(13) . . ?
C79 C78 C77 117.0(12) . . ?
C79 C78 C33 121.9(13) . 1_556 ?
C77 C78 C33 121.1(12) . 1_556 ?
C78 C79 C80 120.8(13) . . ?
N15 C80 C79 122.8(13) . . ?
N11 C81 C82 119.7(12) . . ?
C81 C82 C83 120.9(12) . . ?
C84 C83 C82 117.4(12) . . ?
C84 C83 C48 122.4(13) . 2_666 ?
C82 C83 C48 120.0(12) . 2_666 ?
C83 C84 C85 120.9(14) . . ?
N11 C85 C84 121.4(13) . . ?
N13 C86 C87 119.9(13) . . ?
C86 C87 C88 119.5(13) . . ?
C89 C88 C87 117.8(12) . . ?
C89 C88 C118 119.4(12) . 2_667 ?
C87 C88 C118 122.9(12) . 2_667 ?
C90 C89 C88 119.8(13) . . ?
N13 C90 C89 120.6(12) . . ?
C92 C91 N7 122.2(16) . . ?
C91 C92 C93 118.8(16) . . ?
C94 C93 C92 118.4(13) . . ?
C94 C93 C63 121.1(15) . 2_766 ?
C92 C93 C63 119.9(16) . 2_766 ?
C95 C94 C93 119.2(15) . . ?
C94 C95 N7 122.9(15) . . ?
N4 C96 C97 117.3(14) . . ?
C98 C97 C96 122.8(14) . . ?
C97 C98 C99 117.3(13) . . ?
C97 C98 C73 119.5(14) . 1_565 ?
C99 C98 C73 123.2(14) . 1_565 ?
C100 C99 C98 119.2(13) . . ?
N4 C100 C99 121.4(13) . . ?
N2 C101 C102 120.5(13) . . ?
C101 C102 C103 122.0(13) . . ?
C104 C103 C102 115.9(12) . . ?
C104 C103 C43 123.4(13) . 2_666 ?
C102 C103 C43 120.7(13) . 2_666 ?
C105 C104 C103 122.6(14) . . ?
C104 C105 N2 119.3(13) . . ?
N6 C106 C107 119.6(13) . . ?
C106 C107 C109 120.9(13) . . ?
C110 C108 C109 120.6(13) . . ?
C108 C109 C107 117.3(12) . . ?
C108 C109 C53 121.9(13) . 2_766 ?
C107 C109 C53 120.7(13) . 2_766 ?
N6 C110 C108 119.0(12) . . ?
N1 C111 C115 119.9(13) . . ?
N1 C112 C113 118.4(13) . . ?
C114 C113 C112 121.4(14) . . ?
C113 C114 C115 118.2(12) . . ?
C113 C114 C114 120.5(15) . 2_676 ?
C115 C114 C114 121.0(15) . 2_676 ?
C114 C115 C111 120.3(13) . . ?
C117 C116 N3 120.4(12) . . ?
C116 C117 C118 121.1(13) . . ?
C119 C118 C117 116.7(12) . . ?
C119 C118 C88 122.6(13) . 2_667 ?
C117 C118 C88 120.6(12) . 2_667 ?
C118 C119 C120 122.0(14) . . ?
N3 C120 C119 119.0(13) . . ?

_diffrn_measured_fraction_theta_max 0.865
_diffrn_reflns_theta_full        25.00
_diffrn_measured_fraction_theta_full 0.965

_refine_diff_density_max         7.97
_refine_diff_density_min         -2.90
_refine_diff_density_rms         0.37
