####################################################################### 
# 
# This file contains crystal structure data downloaded from the 
# Cambridge Structural Database (CSD) hosted by the Cambridge 
# Crystallographic Data Centre (CCDC).
# 
# Full information about CCDC data access policies and citation 
# guidelines are available at http://www.ccdc.cam.ac.uk/access/V1 
# 
# Audit and citation data items may have been added by the CCDC. 
# Please retain this information to preserve the provenance of 
# this file and to allow appropriate attribution of the data. 
# 
#######################################################################

data_3
_audit_block_doi                 10.5517/ccx9kwm
_database_code_depnum_ccdc_archive 'CCDC 843351'
loop_
_citation_id
_citation_doi
_citation_year
1 10.1021/ic102207n 2011
_audit_update_record             
;
2011-09-07 deposited with the CCDC.	2024-07-10 downloaded from the CCDC.
;

_audit_creation_method           SHELXL-97
_chemical_name_systematic        
;
?
;
_chemical_name_common            ?
_chemical_melting_point          ?
_chemical_formula_moiety         'C78 H62 N12 O22 Zn3'
_chemical_formula_sum            'C78 H62 N12 O22 Zn3'
_chemical_formula_weight         1697.49

loop_
_atom_type_symbol
_atom_type_description
_atom_type_scat_dispersion_real
_atom_type_scat_dispersion_imag
_atom_type_scat_source
C C 0.0033 0.0016 'International Tables Vol C Tables 4.2.6.8 and 6.1.1.4'
H H 0.0000 0.0000 'International Tables Vol C Tables 4.2.6.8 and 6.1.1.4'
N N 0.0061 0.0033 'International Tables Vol C Tables 4.2.6.8 and 6.1.1.4'
O O 0.0106 0.0060 'International Tables Vol C Tables 4.2.6.8 and 6.1.1.4'
Zn Zn 0.2839 1.4301 'International Tables Vol C Tables 4.2.6.8 and 6.1.1.4'

_symmetry_cell_setting           Orthorhombic
_symmetry_space_group_name_H-M   Fdd2
_symmetry_space_group_name_Hall  F2-2d

loop_
_symmetry_equiv_pos_as_xyz
'x, y, z'
'-x, -y, z'
'x+1/4, -y+1/4, z+1/4'
'-x+1/4, y+1/4, z+1/4'
'x, y+1/2, z+1/2'
'-x, -y+1/2, z+1/2'
'x+1/4, -y+3/4, z+3/4'
'-x+1/4, y+3/4, z+3/4'
'x+1/2, y, z+1/2'
'-x+1/2, -y, z+1/2'
'x+3/4, -y+1/4, z+3/4'
'-x+3/4, y+1/4, z+3/4'
'x+1/2, y+1/2, z'
'-x+1/2, -y+1/2, z'
'x+3/4, -y+3/4, z+1/4'
'-x+3/4, y+3/4, z+1/4'

_cell_length_a                   25.498(5)
_cell_length_b                   30.011(6)
_cell_length_c                   44.331(9)
_cell_angle_alpha                90.00
_cell_angle_beta                 90.00
_cell_angle_gamma                90.00
_cell_volume                     33923(12)
_cell_formula_units_Z            16
_cell_measurement_temperature    293(2)
_cell_measurement_reflns_used    5473
_cell_measurement_theta_min      2.23
_cell_measurement_theta_max      23.55

_exptl_crystal_description       block
_exptl_crystal_colour            colorless
_exptl_crystal_size_max          0.26
_exptl_crystal_size_mid          0.25
_exptl_crystal_size_min          0.23
_exptl_crystal_density_meas      ?
_exptl_crystal_density_diffrn    1.329
_exptl_crystal_density_method    'not measured'
_exptl_crystal_F_000             13920
_exptl_absorpt_coefficient_mu    0.917
_exptl_absorpt_correction_type   multi-scan
_exptl_absorpt_correction_T_min  0.7800
_exptl_absorpt_correction_T_max  0.8209
_exptl_absorpt_process_details   'SADABS; Bruker, 2000'

_exptl_special_details           
;
?
;

_diffrn_ambient_temperature      293(2)
_diffrn_radiation_wavelength     0.71073
_diffrn_radiation_type           MoK\a
_diffrn_radiation_source         'fine-focus sealed tube'
_diffrn_radiation_monochromator  graphite
_diffrn_measurement_device_type  'CCD area detector'
_diffrn_measurement_method       'phi and omega scans'
_diffrn_detector_area_resol_mean ?
_diffrn_standards_number         ?
_diffrn_standards_interval_count ?
_diffrn_standards_interval_time  ?
_diffrn_standards_decay_%        ?
_diffrn_reflns_number            41244
_diffrn_reflns_av_R_equivalents  0.0523
_diffrn_reflns_av_sigmaI/netI    0.0515
_diffrn_reflns_limit_h_min       -29
_diffrn_reflns_limit_h_max       30
_diffrn_reflns_limit_k_min       -31
_diffrn_reflns_limit_k_max       35
_diffrn_reflns_limit_l_min       -52
_diffrn_reflns_limit_l_max       40
_diffrn_reflns_theta_min         2.10
_diffrn_reflns_theta_max         25.00
_reflns_number_total             13160
_reflns_number_gt                9877
_reflns_threshold_expression     >2sigma(I)

_computing_data_collection       'SMART (Bruker, 2000)'
_computing_cell_refinement       'SMART (Bruker, 2000)'
_computing_data_reduction        'SMART (Bruker, 2000)'
_computing_structure_solution    'SHELXS-97 (Sheldrick, 1990)'
_computing_structure_refinement  'SHELXL-97 (Sheldrick, 1997)'
_computing_molecular_graphics    SHELXTL
_computing_publication_material  SHELXTL

_refine_special_details          
;
Refinement of F^2^ against ALL reflections. The weighted R-factor wR and
goodness of fit S are based on F^2^, conventional R-factors R are based
on F, with F set to zero for negative F^2^. The threshold expression of
F^2^ > 2sigma(F^2^) is used only for calculating R-factors(gt) etc. and is
not relevant to the choice of reflections for refinement. R-factors based
on F^2^ are statistically about twice as large as those based on F, and R-
factors based on ALL data will be even larger.
;

_refine_ls_structure_factor_coef Fsqd
_refine_ls_matrix_type           full
_refine_ls_weighting_scheme      calc
_refine_ls_weighting_details     
'calc w=1/[\s^2^(Fo^2^)+(0.1417P)^2^+0.0000P] where P=(Fo^2^+2Fc^2^)/3'
_atom_sites_solution_primary     direct
_atom_sites_solution_secondary   difmap
_atom_sites_solution_hydrogens   geom
_refine_ls_hydrogen_treatment    constr
_refine_ls_extinction_method     none
_refine_ls_extinction_coef       ?
_refine_ls_abs_structure_details 'Flack H D (1983), Acta Cryst. A39, 876-881'
_refine_ls_abs_structure_Flack   0.004(14)
_refine_ls_number_reflns         13160
_refine_ls_number_parameters     992
_refine_ls_number_restraints     6
_refine_ls_R_factor_all          0.0881
_refine_ls_R_factor_gt           0.0749
_refine_ls_wR_factor_ref         0.1916
_refine_ls_wR_factor_gt          0.1824
_refine_ls_goodness_of_fit_ref   0.963
_refine_ls_restrained_S_all      0.966
_refine_ls_shift/su_max          0.013
_refine_ls_shift/su_mean         0.000

loop_
_atom_site_label
_atom_site_type_symbol
_atom_site_fract_x
_atom_site_fract_y
_atom_site_fract_z
_atom_site_U_iso_or_equiv
_atom_site_adp_type
_atom_site_occupancy
_atom_site_symmetry_multiplicity
_atom_site_calc_flag
_atom_site_refinement_flags
_atom_site_disorder_assembly
_atom_site_disorder_group
C1 C -0.0013(3) 0.2427(2) 0.18845(18) 0.058(2) Uani 1 1 d . . .
H1 H 0.0032 0.2732 0.1863 0.069 Uiso 1 1 calc R . .
C2 C -0.0262(3) 0.2158(2) 0.16864(18) 0.0580(19) Uani 1 1 d . . .
H2 H -0.0420 0.2241 0.1506 0.070 Uiso 1 1 calc R . .
C3 C 0.0014(3) 0.1769(2) 0.20645(17) 0.0491(18) Uani 1 1 d . . .
H3 H 0.0079 0.1531 0.2194 0.059 Uiso 1 1 calc R . .
C4 C -0.0265(3) 0.0927(3) 0.1742(2) 0.064(2) Uani 1 1 d . . .
H4 H -0.0001 0.0895 0.1885 0.077 Uiso 1 1 calc R . .
C5 C -0.0843(3) 0.1387(2) 0.14754(19) 0.0555(19) Uani 1 1 d . . .
H5 H -0.0982 0.1668 0.1436 0.067 Uiso 1 1 calc R . .
C6 C -0.1049(3) 0.1005(3) 0.1327(2) 0.060(2) Uani 1 1 d . . .
H6 H -0.1310 0.1031 0.1181 0.072 Uiso 1 1 calc R . .
C7 C -0.0452(3) 0.1339(2) 0.16708(17) 0.0439(16) Uani 1 1 d . . .
C8 C -0.0475(3) 0.0553(2) 0.16000(19) 0.060(2) Uani 1 1 d . . .
H8 H -0.0344 0.0272 0.1645 0.072 Uiso 1 1 calc R . .
C9 C -0.0851(3) 0.0596(2) 0.1406(2) 0.060(2) Uani 1 1 d . . .
C10 C -0.0644(3) -0.1056(2) 0.11630(18) 0.0499(18) Uani 1 1 d . . .
C11 C -0.0597(3) -0.0300(3) 0.1001(2) 0.071(2) Uani 1 1 d U . .
H11 H -0.0484 -0.0087 0.0863 0.085 Uiso 1 1 calc R . .
C12 C -0.0892(3) -0.0171(3) 0.1242(2) 0.061(2) Uani 1 1 d U . .
C13 C -0.0923(4) -0.0919(3) 0.1416(2) 0.067(2) Uani 1 1 d . . .
H13 H -0.1022 -0.1127 0.1561 0.080 Uiso 1 1 calc R . .
C14 C -0.1053(4) -0.0478(3) 0.1452(3) 0.080(3) Uani 1 1 d . . .
H14 H -0.1250 -0.0387 0.1618 0.095 Uiso 1 1 calc R . .
C15 C -0.0464(3) -0.0743(2) 0.09601(19) 0.0554(19) Uani 1 1 d . . .
H15 H -0.0255 -0.0828 0.0798 0.067 Uiso 1 1 calc R . .
C16 C -0.0164(3) -0.1719(2) 0.09782(18) 0.0522(18) Uani 1 1 d . . .
H16 H 0.0121 -0.1570 0.0894 0.063 Uiso 1 1 calc R . .
C17 C -0.0891(3) -0.1855(3) 0.1204(2) 0.066(2) Uani 1 1 d . . .
H17 H -0.1205 -0.1824 0.1309 0.080 Uiso 1 1 calc R . .
C18 C -0.0678(3) -0.2236(3) 0.1110(2) 0.068(2) Uani 1 1 d . . .
H18 H -0.0823 -0.2518 0.1135 0.081 Uiso 1 1 calc R . .
C19 C 0.0669(3) 0.1703(2) 0.28270(19) 0.0543(19) Uani 1 1 d . . .
C20 C 0.0218(3) 0.1386(3) 0.3273(2) 0.065(2) Uani 1 1 d . . .
H20 H -0.0025 0.1616 0.3264 0.078 Uiso 1 1 calc R . .
C21 C 0.0615(3) 0.1363(2) 0.30636(17) 0.0496(17) Uani 1 1 d . . .
C22 C 0.0988(3) 0.1028(2) 0.30839(18) 0.0540(19) Uani 1 1 d . . .
H22 H 0.1258 0.1016 0.2943 0.065 Uiso 1 1 calc R . .
C23 C 0.0965(3) 0.0719(2) 0.3305(2) 0.064(2) Uani 1 1 d . . .
C24 C 0.1395(4) 0.0366(3) 0.3342(3) 0.070(2) Uani 1 1 d U . .
C25 C 0.0561(4) 0.0735(3) 0.3513(2) 0.066(2) Uani 1 1 d . . .
H25 H 0.0543 0.0521 0.3665 0.079 Uiso 1 1 calc R . .
C26 C 0.0182(3) 0.1065(3) 0.34973(19) 0.063(2) Uani 1 1 d . . .
C27 C 0.1219(3) 0.2995(2) 0.23772(19) 0.0559(19) Uani 1 1 d . . .
C28 C 0.2122(3) 0.3042(2) 0.26123(19) 0.0563(19) Uani 1 1 d . . .
H28 H 0.2038 0.2801 0.2735 0.068 Uiso 1 1 calc R . .
C29 C 0.1754(3) 0.3211(2) 0.24021(17) 0.0462(17) Uani 1 1 d . . .
C30 C 0.1870(3) 0.3572(2) 0.22226(16) 0.0468(16) Uani 1 1 d . . .
H30 H 0.1624 0.3680 0.2086 0.056 Uiso 1 1 calc R . .
C31 C 0.2362(3) 0.3774(2) 0.22494(17) 0.0475(17) Uani 1 1 d . . .
C32 C 0.2514(3) 0.4155(2) 0.20514(18) 0.0533(18) Uani 1 1 d . . .
C33 C 0.2720(3) 0.3612(2) 0.24542(18) 0.0539(18) Uani 1 1 d . . .
H33 H 0.3043 0.3752 0.2476 0.065 Uiso 1 1 calc R . .
C34 C 0.2603(3) 0.3240(2) 0.26298(18) 0.0547(19) Uani 1 1 d . . .
C35 C 0.2788(3) 0.4926(2) 0.10589(18) 0.0550(19) Uani 1 1 d . . .
H35 H 0.2761 0.5235 0.1054 0.066 Uiso 1 1 calc R . .
C36 C 0.2991(3) 0.4680(2) 0.08362(18) 0.0507(17) Uani 1 1 d . . .
H36 H 0.3135 0.4779 0.0655 0.061 Uiso 1 1 calc R . .
C37 C 0.2713(3) 0.4249(2) 0.12059(16) 0.0451(16) Uani 1 1 d . . .
H37 H 0.2627 0.3996 0.1317 0.054 Uiso 1 1 calc R . .
C38 C 0.2846(3) 0.3463(2) 0.08084(18) 0.0533(18) Uani 1 1 d . . .
H38 H 0.2579 0.3440 0.0951 0.064 Uiso 1 1 calc R . .
C39 C 0.3100(3) 0.3860(2) 0.07663(16) 0.0456(16) Uani 1 1 d . . .
C40 C 0.3501(3) 0.3898(2) 0.05625(17) 0.0489(17) Uani 1 1 d . . .
H40 H 0.3673 0.4169 0.0541 0.059 Uiso 1 1 calc R . .
C41 C 0.3651(3) 0.3541(2) 0.03901(18) 0.0538(19) Uani 1 1 d . . .
H41 H 0.3928 0.3562 0.0255 0.065 Uiso 1 1 calc R . .
C42 C 0.3372(3) 0.3149(2) 0.0425(2) 0.059(2) Uani 1 1 d . . .
C43 C 0.2989(3) 0.3095(2) 0.06374(17) 0.0512(18) Uani 1 1 d . . .
H43 H 0.2828 0.2820 0.0666 0.061 Uiso 1 1 calc R . .
C44 C 0.3366(4) 0.2381(3) 0.0256(3) 0.076(3) Uani 1 1 d . . .
C45 C 0.3077(3) 0.2214(2) 0.0017(2) 0.066(2) Uani 1 1 d . . .
H45 H 0.2966 0.2399 -0.0139 0.080 Uiso 1 1 calc R . .
C46 C 0.2960(3) 0.1770(2) 0.0016(2) 0.058 Uani 1 1 d U . .
H46 H 0.2775 0.1647 -0.0145 0.070 Uiso 1 1 calc R . .
C47 C 0.3383(4) 0.1679(3) 0.0489(2) 0.068(2) Uani 1 1 d . . .
H47 H 0.3480 0.1500 0.0651 0.082 Uiso 1 1 calc R . .
C48 C 0.3513(4) 0.2130(3) 0.0486(2) 0.069(2) Uani 1 1 d . . .
H48 H 0.3703 0.2253 0.0645 0.083 Uiso 1 1 calc R . .
C49 C 0.3115(3) 0.1503(2) 0.02538(19) 0.056(2) Uani 1 1 d U . .
C50 C 0.3272(4) 0.0697(3) 0.0387(2) 0.073(2) Uani 1 1 d . . .
H50 H 0.3572 0.0728 0.0505 0.088 Uiso 1 1 calc R . .
C51 C 0.2613(3) 0.0844(2) 0.01017(17) 0.0495(17) Uani 1 1 d . . .
H51 H 0.2373 0.0999 -0.0016 0.059 Uiso 1 1 calc R . .
C52 C 0.3028(3) 0.0321(3) 0.0322(2) 0.064(2) Uani 1 1 d . . .
H52 H 0.3130 0.0041 0.0390 0.077 Uiso 1 1 calc R . .
C53 C 0.1595(3) 0.5485(2) 0.14940(17) 0.0470(17) Uani 1 1 d . . .
C54 C 0.1044(3) 0.5700(2) 0.14869(17) 0.0463(16) Uani 1 1 d . . .
C55 C 0.0661(3) 0.5529(2) 0.16803(18) 0.0524(18) Uani 1 1 d . . .
H55 H 0.0737 0.5285 0.1802 0.063 Uiso 1 1 calc R . .
C56 C 0.0172(3) 0.5723(3) 0.1691(2) 0.063(2) Uani 1 1 d . . .
C57 C 0.0079(3) 0.6097(3) 0.1520(2) 0.066(2) Uani 1 1 d . . .
H57 H -0.0244 0.6240 0.1532 0.079 Uiso 1 1 calc R . .
C58 C 0.0463(3) 0.6262(2) 0.13302(18) 0.057(2) Uani 1 1 d . . .
C59 C 0.0325(5) 0.6660(3) 0.1140(2) 0.083(3) Uani 1 1 d . . .
C60 C 0.0939(3) 0.6066(2) 0.13164(16) 0.0536(18) Uani 1 1 d . . .
H60 H 0.1196 0.6182 0.1190 0.064 Uiso 1 1 calc R . .
C61 C 0.2809(3) 0.5774(2) 0.18465(18) 0.0538(18) Uani 1 1 d . . .
H61 H 0.2577 0.5918 0.1717 0.065 Uiso 1 1 calc R . .
C62 C 0.3205(3) 0.5262(3) 0.2079(2) 0.065(2) Uani 1 1 d . . .
H62 H 0.3314 0.4982 0.2142 0.078 Uiso 1 1 calc R . .
C63 C 0.3401(4) 0.5656(3) 0.2183(2) 0.077(3) Uani 1 1 d . . .
H63 H 0.3654 0.5693 0.2332 0.092 Uiso 1 1 calc R . .
C64 C 0.3039(5) 0.6727(3) 0.1856(3) 0.091(3) Uani 1 1 d . . .
H64 H 0.2783 0.6616 0.1726 0.109 Uiso 1 1 calc R . .
C65 C 0.3251(3) 0.6446(3) 0.2036(2) 0.060(2) Uani 1 1 d . . .
C66 C 0.3570(5) 0.6620(4) 0.2254(3) 0.099(4) Uani 1 1 d . . .
H66 H 0.3689 0.6434 0.2407 0.118 Uiso 1 1 calc R . .
C67 C 0.3147(5) 0.7178(3) 0.1832(3) 0.092(3) Uani 1 1 d . . .
H67 H 0.2987 0.7361 0.1690 0.110 Uiso 1 1 calc R . .
C68 C 0.3516(5) 0.7334(3) 0.2038(3) 0.092(4) Uani 1 1 d . . .
C69 C 0.3720(5) 0.7061(4) 0.2255(3) 0.103(4) Uani 1 1 d . . .
H69 H 0.3953 0.7170 0.2399 0.124 Uiso 1 1 calc R . .
C70 C 0.3451(4) 0.8105(3) 0.2141(2) 0.076(3) Uani 1 1 d . . .
C71 C 0.3077(4) 0.8072(3) 0.2366(2) 0.069(2) Uani 1 1 d . . .
H71 H 0.2962 0.7791 0.2425 0.083 Uiso 1 1 calc R . .
C72 C 0.3634(3) 0.8530(2) 0.20649(18) 0.063(2) Uani 1 1 d . . .
H72 H 0.3885 0.8561 0.1914 0.075 Uiso 1 1 calc R . .
C73 C 0.3449(3) 0.8893(2) 0.22089(18) 0.057(2) Uani 1 1 d . . .
H73 H 0.3582 0.9172 0.2161 0.069 Uiso 1 1 calc R . .
C74 C 0.3062(3) 0.8855(2) 0.24276(16) 0.0470(17) Uani 1 1 d . . .
C75 C 0.2870(3) 0.8446(3) 0.2503(2) 0.066(2) Uani 1 1 d . . .
H75 H 0.2602 0.8419 0.2644 0.080 Uiso 1 1 calc R . .
C76 C 0.2654(3) 0.9251(2) 0.28425(19) 0.056(2) Uani 1 1 d . . .
H76 H 0.2590 0.9000 0.2960 0.067 Uiso 1 1 calc R . .
C77 C 0.2927(3) 0.9685(2) 0.24796(18) 0.0514(17) Uani 1 1 d . . .
H77 H 0.3077 0.9783 0.2300 0.062 Uiso 1 1 calc R . .
C78 C 0.2716(3) 0.9937(2) 0.26995(19) 0.059(2) Uani 1 1 d . . .
H78 H 0.2699 1.0246 0.2697 0.071 Uiso 1 1 calc R . .
N1 N 0.0158(2) 0.21830(19) 0.21171(14) 0.0522(15) Uani 1 1 d . . .
N2 N -0.0233(2) 0.17368(18) 0.18067(13) 0.0444(13) Uani 1 1 d . . .
N3 N -0.0560(2) -0.15132(19) 0.11160(14) 0.0513(15) Uani 1 1 d . . .
N4 N -0.0215(3) -0.21442(18) 0.09730(15) 0.0514(15) Uani 1 1 d . . .
N5 N 0.2627(2) 0.46676(17) 0.12950(13) 0.0453(13) Uani 1 1 d . . .
N6 N 0.2940(2) 0.42457(16) 0.09354(13) 0.0458(14) Uani 1 1 d . . .
N7 N 0.2999(2) 0.10314(18) 0.02476(14) 0.0491(14) Uani 1 1 d . . .
N8 N 0.2602(2) 0.04050(17) 0.01406(14) 0.0491(15) Uani 1 1 d . . .
N9 N 0.2840(2) 0.53379(19) 0.18776(14) 0.0477(14) Uani 1 1 d . . .
N10 N 0.3156(3) 0.5984(2) 0.20257(15) 0.0566(16) Uani 1 1 d . . .
N11 N 0.2870(2) 0.92457(17) 0.25777(13) 0.0428(13) Uani 1 1 d . . .
N12 N 0.2534(2) 0.96758(18) 0.29233(15) 0.0525(15) Uani 1 1 d . . .
O1 O 0.0308(2) 0.19943(17) 0.28106(13) 0.0613(14) Uani 1 1 d . . .
O2 O 0.1020(2) 0.16842(17) 0.26397(13) 0.0680(15) Uani 1 1 d . . .
O3 O -0.0190(3) 0.1068(2) 0.37201(14) 0.0837(19) Uani 1 1 d . . .
H3A H -0.0397 0.1286 0.3689 0.126 Uiso 1 1 d R . .
O4 O 0.1657(3) 0.0283(2) 0.31244(18) 0.093(2) Uani 1 1 d . . .
O5 O 0.1480(3) 0.0197(2) 0.35779(18) 0.088(2) Uani 1 1 d U . .
O6 O 0.0919(2) 0.3097(2) 0.21716(15) 0.0806(18) Uani 1 1 d . . .
O7 O 0.1116(2) 0.27094(16) 0.25757(13) 0.0612(15) Uani 1 1 d . . .
O8 O 0.2948(2) 0.3075(2) 0.28366(15) 0.0767(17) Uani 1 1 d . . .
H8A H 0.3247 0.3154 0.2792 0.115 Uiso 1 1 calc R . .
O9 O 0.2140(2) 0.43804(16) 0.19337(12) 0.0557(13) Uani 1 1 d . . .
O10 O 0.2968(2) 0.42448(19) 0.20077(15) 0.0729(17) Uani 1 1 d . . .
O11 O 0.16574(19) 0.51774(15) 0.16771(13) 0.0555(12) Uani 1 1 d . . .
O12 O 0.1930(2) 0.56208(18) 0.13211(15) 0.0745(17) Uani 1 1 d . . .
O13 O -0.0074(2) 0.68624(17) 0.11814(12) 0.066 Uani 1 1 d U . .
O14 O 0.0643(2) 0.67783(17) 0.09473(11) 0.060 Uani 1 1 d . . .
O15 O -0.0173(2) 0.5559(2) 0.18891(16) 0.094(2) Uani 1 1 d . . .
H15A H -0.0455 0.5708 0.1874 0.141 Uiso 1 1 d RD . .
O16 O -0.1079(2) 0.02573(16) 0.12366(13) 0.066 Uani 1 1 d . . .
O17 O 0.3547(3) 0.28214(17) 0.02341(14) 0.082 Uani 1 1 d . . .
O18 O 0.3700(2) 0.77611(16) 0.20044(13) 0.066 Uani 1 1 d . . .
O19 O 0.8831(3) 0.5779(3) 0.1647(2) 0.131(3) Uani 1 1 d . . .
H19D H 0.8509 0.5830 0.1683 0.157 Uiso 1 1 d R . .
H19A H 0.8879 0.5500 0.1630 0.196 Uiso 1 1 d R . .
O20 O 0.8919(6) 0.6763(4) 0.1557(3) 0.199(5) Uani 1 1 d . . .
H20B H 0.9063 0.6968 0.1454 0.298 Uiso 1 1 d R . .
H20C H 0.9073 0.6742 0.1727 0.298 Uiso 1 1 d R . .
O21 O 0.0991(6) 0.0973(5) 0.2202(3) 0.270(10) Uani 1 1 d . . .
H21D H 0.0893 0.1233 0.2252 0.324 Uiso 1 1 d R . .
H21C H 0.1149 0.0983 0.2033 0.404 Uiso 1 1 d R . .
Zn1 Zn 0.23614(3) 0.48913(2) 0.168315(18) 0.0463(2) Uani 1 1 d . . .
Zn2 Zn 0.02934(4) 0.73837(2) 0.081003(19) 0.0492(2) Uani 1 1 d U . .
Zn3 Zn 0.04218(3) 0.24479(2) 0.24995(2) 0.0488(2) Uani 1 1 d . . .

loop_
_atom_site_aniso_label
_atom_site_aniso_U_11
_atom_site_aniso_U_22
_atom_site_aniso_U_33
_atom_site_aniso_U_23
_atom_site_aniso_U_13
_atom_site_aniso_U_12
C1 0.082(5) 0.040(4) 0.051(5) 0.003(3) -0.005(4) -0.008(4)
C2 0.083(5) 0.041(4) 0.050(4) -0.005(3) 0.006(4) -0.015(3)
C3 0.074(5) 0.035(4) 0.039(4) -0.006(3) 0.004(4) -0.001(3)
C4 0.055(5) 0.053(5) 0.086(7) -0.017(4) -0.007(4) -0.001(3)
C5 0.067(5) 0.034(4) 0.066(5) -0.013(3) 0.001(4) -0.005(3)
C6 0.051(4) 0.053(4) 0.077(6) -0.025(4) -0.018(4) -0.001(3)
C7 0.047(4) 0.038(3) 0.047(4) -0.014(3) 0.000(3) -0.009(3)
C8 0.058(5) 0.044(4) 0.078(6) -0.019(4) -0.005(4) 0.008(3)
C9 0.048(4) 0.036(4) 0.096(7) -0.019(4) -0.004(4) 0.000(3)
C10 0.052(4) 0.037(4) 0.061(5) -0.008(3) -0.014(4) 0.000(3)
C11 0.064(5) 0.043(4) 0.105(7) -0.003(4) -0.023(5) 