####################################################################### 
# 
# This file contains crystal structure data downloaded from the 
# Cambridge Structural Database (CSD) hosted by the Cambridge 
# Crystallographic Data Centre (CCDC).
# 
# Full information about CCDC data access policies and citation 
# guidelines are available at http://www.ccdc.cam.ac.uk/access/V1 
# 
# Audit and citation data items may have been added by the CCDC. 
# Please retain this information to preserve the provenance of 
# this file and to allow appropriate attribution of the data. 
# 
#######################################################################

data_shelxl
_audit_block_doi                 10.5517/ccw81pv
_database_code_depnum_ccdc_archive 'CCDC 812097'
loop_
_citation_id
_citation_doi
_citation_year
1 10.1021/ja110007u 2011
_audit_update_record             
;
2011-02-08 deposited with the CCDC.	2024-07-10 downloaded from the CCDC.
;
#TrackingRef '240K_PF_3.cif'


_audit_creation_method           SHELXL-97
_chemical_formula_sum            'C54 H32 F16 N4 O8 Ru2'
_chemical_formula_weight         1370.98

loop_
_atom_type_symbol
_atom_type_description
_atom_type_scat_dispersion_real
_atom_type_scat_dispersion_imag
_atom_type_scat_source
C C 0.0020 0.0020 'International Tables Vol C Tables 4.2.6.8 and 6.1.1.4'
H H 0.0000 0.0000 'International Tables Vol C Tables 4.2.6.8 and 6.1.1.4'
O O 0.0070 0.0060 'International Tables Vol C Tables 4.2.6.8 and 6.1.1.4'
N N 0.0040 0.0030 'International Tables Vol C Tables 4.2.6.8 and 6.1.1.4'
F F 0.0130 0.0100 'International Tables Vol C Tables 4.2.6.8 and 6.1.1.4'
Ru Ru -1.5120 0.7930 'International Tables Vol C Tables 4.2.6.8 and 6.1.1.4'

_symmetry_cell_setting           triclinic
_symmetry_space_group_name_H-M   'P -1'

loop_
_symmetry_equiv_pos_as_xyz
'x, y, z'
'-x, -y, -z'

_cell_length_a                   14.803(2)
_cell_length_b                   21.2201(4)
_cell_length_c                   20.4174(9)
_cell_angle_alpha                121.201(2)
_cell_angle_beta                 96.222(10)
_cell_angle_gamma                90.121(4)
_cell_volume                     5440.6(9)
_cell_formula_units_Z            4
_cell_measurement_temperature    240(2)

_exptl_crystal_density_diffrn    1.674
_exptl_crystal_density_method    'not measured'
_exptl_crystal_F_000             2720
_exptl_absorpt_coefficient_mu    0.668
_exptl_absorpt_correction_T_min  0.9362
_exptl_absorpt_correction_T_max  0.9362

_diffrn_ambient_temperature      240(2)
_diffrn_radiation_wavelength     0.68850
_diffrn_radiation_monochromator  silicon111
_diffrn_reflns_number            30704
_diffrn_reflns_av_R_equivalents  0.0479
_diffrn_reflns_av_sigmaI/netI    0.0545
_diffrn_reflns_limit_h_min       -17
_diffrn_reflns_limit_h_max       17
_diffrn_reflns_limit_k_min       -16
_diffrn_reflns_limit_k_max       15
_diffrn_reflns_limit_l_min       -24
_diffrn_reflns_limit_l_max       24
_diffrn_reflns_theta_min         1.67
_diffrn_reflns_theta_max         24.50
_reflns_number_total             14713
_reflns_number_gt                8684
_reflns_threshold_expression     >2sigma(I)

_computing_structure_refinement  'SHELXL-97 (Sheldrick, 1997)'

_refine_special_details          
;
Refinement of F^2^ against ALL reflections. The weighted R-factor wR and
goodness of fit S are based on F^2^, conventional R-factors R are based
on F, with F set to zero for negative F^2^. The threshold expression of
F^2^ > 2sigma(F^2^) is used only for calculating R-factors(gt) etc. and is
not relevant to the choice of reflections for refinement. R-factors based
on F^2^ are statistically about twice as large as those based on F, and R-
factors based on ALL data will be even larger.
;

_refine_ls_structure_factor_coef Fsqd
_refine_ls_matrix_type           full
_refine_ls_weighting_scheme      calc
_refine_ls_weighting_details     
'calc w=1/[\s^2^(Fo^2^)+(0.0634P)^2^+8.2521P] where P=(Fo^2^+2Fc^2^)/3'
_atom_sites_solution_primary     direct
_atom_sites_solution_secondary   difmap
_atom_sites_solution_hydrogens   geom
_refine_ls_hydrogen_treatment    mixed
_refine_ls_extinction_method     SHELXL
_refine_ls_extinction_coef       0.00385(16)
_refine_ls_extinction_expression Fc^*^=kFc[1+0.001xFc^2^\l^3^/sin(2\q)]^-1/4^
_refine_ls_number_reflns         14713
_refine_ls_number_parameters     1498
_refine_ls_number_restraints     0
_refine_ls_R_factor_all          0.0663
_refine_ls_R_factor_gt           0.0381
_refine_ls_wR_factor_ref         0.1177
_refine_ls_wR_factor_gt          0.0943
_refine_ls_goodness_of_fit_ref   0.870
_refine_ls_restrained_S_all      0.870
_refine_ls_shift/su_max          15.000
_refine_ls_shift/su_mean         0.412

loop_
_atom_site_label
_atom_site_type_symbol
_atom_site_fract_x
_atom_site_fract_y
_atom_site_fract_z
_atom_site_U_iso_or_equiv
_atom_site_adp_type
_atom_site_occupancy
_atom_site_symmetry_multiplicity
_atom_site_calc_flag
_atom_site_refinement_flags
_atom_site_disorder_assembly
_atom_site_disorder_group
Ru1 Ru 0.93183(3) 0.49135(3) 1.01749(3) 0.02705(16) Uani 1 1 d . . .
Ru2 Ru 0.06601(3) 1.01089(3) 0.98228(3) 0.02788(16) Uani 1 1 d . . .
Ru3 Ru 0.56710(3) 0.47307(3) 0.48091(3) 0.02794(16) Uani 1 1 d . . .
Ru4 Ru 0.43314(3) 1.02718(3) 0.51618(3) 0.02771(16) Uani 1 1 d . . .
F1 F 0.9676(3) 0.3409(3) 0.7222(2) 0.0768(15) Uani 1 1 d . . .
F2 F 0.8846(4) 0.3065(3) 0.5831(3) 0.1004(18) Uani 1 1 d . . .
F3 F 0.7765(3) 0.5360(3) 0.8410(3) 0.0641(12) Uani 1 1 d . . .
F4 F 0.6939(3) 0.5014(3) 0.7028(3) 0.0943(19) Uani 1 1 d . . .
F5 F 0.7807(2) 0.6827(2) 1.0420(3) 0.0658(13) Uani 1 1 d . . .
F6 F 0.7450(3) 0.8192(3) 1.0813(3) 0.0750(14) Uani 1 1 d . . .
F7 F 1.0964(2) 0.7523(2) 1.0924(2) 0.0537(11) Uani 1 1 d . . .
F8 F 1.0591(3) 0.8869(2) 1.1302(3) 0.0642(13) Uani 1 1 d . . .
F9 F -0.0831(2) 0.7404(2) 0.9020(2) 0.0552(11) Uani 1 1 d . . .
F10 F -0.0359(3) 0.6090(2) 0.8681(3) 0.0666(13) Uani 1 1 d . . .
F11 F 0.2284(2) 0.8245(2) 0.9574(3) 0.0645(13) Uani 1 1 d . . .
F12 F 0.2732(3) 0.6902(3) 0.9206(3) 0.0802(15) Uani 1 1 d . . .
F13 F 0.0373(3) 1.1455(3) 1.2841(3) 0.0890(16) Uani 1 1 d . . .
F14 F 0.1303(5) 1.1766(4) 1.4175(3) 0.139(3) Uani 1 1 d . . .
F15 F 0.2400(3) 0.9658(3) 1.1483(3) 0.0764(14) Uani 1 1 d . . .
F16 F 0.3331(4) 0.9963(4) 1.2815(4) 0.116(2) Uani 1 1 d . . .
F17 F 0.5416(4) 0.6307(4) 0.7819(3) 0.0982(19) Uani 1 1 d . . .
F18 F 0.6331(5) 0.7343(4) 0.9154(3) 0.140(3) Uani 1 1 d . . .
F19 F 0.7336(3) 0.6852(3) 0.6465(3) 0.0794(15) Uani 1 1 d . . .
F20 F 0.8277(4) 0.7875(3) 0.7795(4) 0.120(2) Uani 1 1 d . . .
F21 F 0.4033(2) 0.6593(2) 0.4065(2) 0.0547(11) Uani 1 1 d . . .
F22 F 0.4416(3) 0.7573(3) 0.3700(3) 0.0647(13) Uani 1 1 d . . .
F23 F 0.7186(2) 0.6399(3) 0.4556(3) 0.0644(13) Uani 1 1 d . . .
F24 F 0.7547(3) 0.7383(3) 0.4175(3) 0.0751(14) Uani 1 1 d . . .
F25 F 0.2685(3) 0.8088(3) 0.3398(2) 0.0635(12) Uani 1 1 d . . .
F26 F 0.1863(4) 0.7048(3) 0.2019(3) 0.0919(18) Uani 1 1 d . . .
F27 F 0.4718(3) 0.8743(3) 0.2198(2) 0.0705(13) Uani 1 1 d . . .
F28 F 0.3900(4) 0.7711(3) 0.0820(3) 0.0971(17) Uani 1 1 d . . .
F29 F 0.2706(2) 0.8643(3) 0.5418(3) 0.0669(13) Uani 1 1 d . . .
F30 F 0.2262(3) 0.7678(3) 0.5795(3) 0.0843(16) Uani 1 1 d . . .
F31 F 0.5817(3) 0.8371(2) 0.5962(2) 0.0591(12) Uani 1 1 d . . .
F32 F 0.5351(3) 0.7406(3) 0.6320(3) 0.0704(13) Uani 1 1 d . . .
O101 O 0.9635(2) 0.3863(2) 0.9826(2) 0.0294(10) Uani 1 1 d . . .
O102 O 0.9946(2) 0.5256(2) 1.1244(2) 0.0321(11) Uani 1 1 d . . .
O103 O 0.9044(2) 0.5963(2) 1.0516(2) 0.0309(10) Uani 1 1 d . . .
O104 O 0.8716(2) 0.4605(2) 0.9100(2) 0.0352(11) Uani 1 1 d . . .
O201 O 0.0982(3) 0.9045(2) 0.9450(2) 0.0342(11) Uani 1 1 d . . .
O202 O 0.1312(2) 1.0412(2) 1.0898(2) 0.0375(11) Uani 1 1 d . . .
O203 O 0.0313(2) 1.1172(2) 1.0203(2) 0.0327(10) Uani 1 1 d . . .
O204 O -0.0007(3) 0.9782(2) 0.8748(2) 0.0359(11) Uani 1 1 d . . .
O301 O 0.5362(2) 0.4039(2) 0.5170(2) 0.0337(10) Uani 1 1 d . . .
O302 O 0.6307(2) 0.5492(2) 0.5875(2) 0.0364(11) Uani 1 1 d . . .
O303 O 0.5937(3) 0.5432(2) 0.4457(2) 0.0358(11) Uani 1 1 d . . .
O304 O 0.5004(2) 0.3998(2) 0.3748(2) 0.0356(11) Uani 1 1 d . . .
O401 O 0.4002(2) 0.9572(3) 0.5524(2) 0.0365(11) Uani 1 1 d . . .
O402 O 0.4966(2) 1.1020(2) 0.6251(2) 0.0358(11) Uani 1 1 d . . .
O403 O 0.4693(2) 1.0963(2) 0.4793(2) 0.0349(11) Uani 1 1 d . . .
O404 O 0.3711(2) 0.9502(2) 0.4069(2) 0.0342(11) Uani 1 1 d . . .
N1 N 0.6966(3) 0.4217(3) 0.4545(3) 0.0407(14) Uani 1 1 d . . .
N2 N 0.2980(3) 1.0810(3) 0.5416(3) 0.0438(15) Uani 1 1 d . . .
N3 N 0.3663(3) 1.0690(3) 0.9676(4) 0.0521(16) Uani 1 1 d . . .
N4 N 0.6408(3) 0.4295(3) 1.0281(3) 0.0480(16) Uani 1 1 d . . .
N5 N 0.8015(3) 0.4666(3) 1.0434(3) 0.0422(14) Uani 1 1 d . . .
N6 N 0.2026(3) 1.0385(3) 0.9565(3) 0.0419(15) Uani 1 1 d . . .
N7 N 0.8581(3) 0.4024(3) 0.4734(3) 0.0485(16) Uani 1 1 d . . .
N8 N 0.8651(3) 0.8981(3) 0.4683(4) 0.0532(17) Uani 1 1 d . . .
C1 C 0.5382(4) 0.5917(4) 0.4550(3) 0.0348(17) Uani 1 1 d . . .
C2 C 0.4544(4) 0.9099(4) 0.5455(3) 0.0331(16) Uani 1 1 d . . .
C3 C 0.4094(4) 0.9759(4) 0.9955(4) 0.041(2) Uani 1 1 d . . .
C4 C 0.5884(4) 0.5250(4) 1.0049(4) 0.0382(19) Uani 1 1 d . . .
C5 C 0.9611(4) 0.6363(4) 1.0442(3) 0.0291(17) Uani 1 1 d . . .
C6 C 0.0440(4) 0.8640(4) 0.9531(3) 0.0288(17) Uani 1 1 d . . .
C7 C 0.9120(4) 0.5208(5) 0.4946(4) 0.0421(19) Uani 1 1 d . . .
C8 C 0.9103(4) 1.0196(5) 0.4952(4) 0.047(2) Uani 1 1 d . . .
C9 C 0.5607(4) 0.6450(4) 0.4327(3) 0.0335(16) Uani 1 1 d . . .
C10 C 0.4281(4) 0.8561(4) 0.5676(3) 0.0353(17) Uani 1 1 d . . .
C11 C 0.0061(4) 0.7315(4) 0.9083(3) 0.0359(19) Uani 1 1 d . . .
C12 C 1.0085(4) 0.7670(5) 1.0890(3) 0.0360(18) Uani 1 1 d . . .
C13 C 0.7242(4) 0.4517(4) 1.0353(4) 0.0382(16) Uani 1 1 d . . .
C14 C 0.4913(4) 0.6778(4) 0.4106(3) 0.0349(17) Uani 1 1 d . . .
C15 C 0.5241(4) 1.0590(4) 0.9872(4) 0.0431(19) Uani 1 1 d . . .
C16 C 0.4927(4) 0.8211(4) 0.5910(4) 0.0414(19) Uani 1 1 d . . .
C17 C 0.4289(4) 1.0341(4) 0.9828(4) 0.0383(19) Uani 1 1 d . . .
C18 C 0.2790(4) 1.0500(4) 0.9626(4) 0.0390(17) Uani 1 1 d . . .
C19 C 0.5197(4) 0.5614(4) 0.9900(4) 0.0425(19) Uani 1 1 d . . .
C20 C 0.5729(4) 0.4659(4) 1.0145(4) 0.0384(19) Uani 1 1 d . . .
C21 C 0.9823(4) 0.5708(5) 0.5088(4) 0.050(2) Uani 1 1 d . . .
C22 C 1.0232(4) 0.9281(5) 0.4879(4) 0.052(2) Uani 1 1 d . . .
C23 C 0.7738(4) 0.4170(4) 0.4651(4) 0.0370(16) Uani 1 1 d . . .
C24 C 0.9402(4) 0.7112(4) 1.0654(3) 0.0313(17) Uani 1 1 d . . .
C25 C 0.0698(4) 0.7899(4) 0.9318(3) 0.0344(18) Uani 1 1 d . . .
C26 C 0.9267(4) 0.4519(5) 0.4866(4) 0.0392(19) Uani 1 1 d . . .
C27 C 0.9283(4) 0.9485(5) 0.4834(4) 0.041(2) Uani 1 1 d . . .
C28 C 0.1361(4) 1.0554(4) 1.2124(4) 0.0435(18) Uani 1 1 d . . .
C29 C 0.3726(4) 0.8442(4) 0.2838(3) 0.0346(17) Uani 1 1 d . . .
C30 C 0.8745(4) 0.4393(4) 0.7849(4) 0.0377(17) Uani 1 1 d . . .
C31 C 0.6348(4) 0.6550(4) 0.7104(4) 0.0390(17) Uani 1 1 d . . .
C32 C 0.8506(4) 0.7326(5) 1.0646(4) 0.0401(19) Uani 1 1 d . . .
C33 C 0.1608(4) 0.7716(5) 0.9344(4) 0.041(2) Uani 1 1 d . . .
C34 C 0.2990(4) 0.8004(4) 0.2768(4) 0.0442(18) Uani 1 1 d . . .
C35 C 0.3381(4) 0.8356(4) 0.5649(4) 0.0419(19) Uani 1 1 d . . .
C36 C 0.6490(4) 0.6679(4) 0.4337(4) 0.0426(19) Uani 1 1 d . . .
C37 C 0.7081(5) 0.6962(4) 0.7129(5) 0.053(2) Uani 1 1 d . . .
C38 C 0.2853(6) 0.7350(4) 0.1385(5) 0.063(2) Uani 1 1 d . . .
C39 C 0.7320(7) 0.7633(6) 0.8515(6) 0.086(3) Uani 1 1 d . . .
C40 C 0.6669(5) 0.7177(4) 0.4141(4) 0.047(2) Uani 1 1 d . . .
C41 C 0.3154(5) 0.7850(4) 0.5838(4) 0.050(2) Uani 1 1 d . . .
C42 C 0.1090(5) 1.1080(5) 1.2818(4) 0.063(2) Uani 1 1 d . . .
C43 C 0.9008(5) 0.3815(4) 0.7180(4) 0.0498(19) Uani 1 1 d . . .
C44 C 0.4015(4) 0.8329(4) 0.2164(4) 0.0470(19) Uani 1 1 d . . .
C45 C 0.6106(5) 0.6691(5) 0.7807(4) 0.062(2) Uani 1 1 d . . .
C46 C 0.5991(5) 0.7512(4) 0.3925(4) 0.0453(19) Uani 1 1 d . . .
C47 C 0.4675(6) 0.7713(5) 0.6102(4) 0.052(2) Uani 1 1 d . . .
C48 C 0.5121(5) 0.7275(4) 0.3901(4) 0.0438(19) Uani 1 1 d . . .
C49 C 0.2117(5) 1.0173(5) 1.2135(5) 0.058(2) Uani 1 1 d . . .
C50 C 0.8034(4) 0.4781(4) 0.7778(4) 0.0455(18) Uani 1 1 d . . .
C51 C 0.7884(6) 0.4013(5) 0.6380(5) 0.063(2) Uani 1 1 d . . .
C52 C 0.2329(7) 1.0873(7) 1.3534(6) 0.087(4) Uani 1 1 d . . .
C53 C 0.9017(5) 0.8585(4) 1.1076(4) 0.0478(19) Uani 1 1 d . . .
C54 C 0.1198(5) 0.6441(4) 0.8929(4) 0.050(2) Uani 1 1 d . . .
C55 C 0.3423(7) 0.4228(6) 0.7815(5) 0.075(3) Uani 1 1 d . . .
C56 C 0.3380(7) 0.9224(6) 0.7801(5) 0.079(3) Uani 1 1 d . . .
C57 C 0.5370(4) 0.6236(5) 0.9789(6) 0.068(3) Uani 1 1 d . . .
C58 C 0.5410(5) 1.1194(6) 0.9727(6) 0.076(3) Uani 1 1 d . . .
C59 C 0.7614(5) 0.4609(5) 0.7056(5) 0.063(3) Uani 1 1 d . . .
C60 C 0.2976(7) 0.8680(6) 0.7894(5) 0.079(3) Uani 1 1 d . . .
C61 C 0.2604(6) 1.0332(5) 1.2833(6) 0.071(3) Uani 1 1 d . . .
C62 C 0.7560(6) 0.7497(5) 0.7821(6) 0.077(3) Uani 1 1 d . . .
C63 C 0.0307(5) 0.6634(5) 0.8907(4) 0.047(2) Uani 1 1 d . . .
C64 C 0.1383(7) 0.5200(6) 0.6990(5) 0.083(3) Uani 1 1 d . . .
C65 C 0.8661(8) 0.9782(7) 0.3031(6) 0.093(3) Uani 1 1 d . . .
C66 C 0.6589(7) 0.7226(6) 0.8487(5) 0.084(3) Uani 1 1 d . . .
C67 C 0.1828(5) 0.7020(5) 0.9161(4) 0.049(2) Uani 1 1 d . . .
C68 C 0.3584(6) 0.7793(5) 0.1457(4) 0.060(2) Uani 1 1 d . . .
C69 C 0.8339(5) 0.8030(5) 1.0845(4) 0.048(2) Uani 1 1 d . . .
C70 C 0.9889(4) 0.8365(5) 1.1086(4) 0.0393(19) Uani 1 1 d . . .
C71 C 0.1581(7) 1.1239(6) 1.3514(5) 0.086(3) Uani 1 1 d . . .
C72 C 1.0401(5) 0.8535(5) 0.4742(7) 0.084(3) Uani 1 1 d . . .
C73 C 0.8572(6) 0.3641(5) 0.6468(4) 0.062(2) Uani 1 1 d . . .
C74 C 0.3697(7) 0.3229(6) 0.8020(5) 0.091(3) Uani 1 1 d . . .
C75 C 0.9658(5) 0.6448(5) 0.5196(6) 0.074(3) Uani 1 1 d . . .
C76 C 0.3573(9) 0.8237(7) 0.8043(5) 0.098(4) Uani 1 1 d . . .
C77 C 0.3086(6) 0.3675(6) 0.7900(5) 0.075(3) Uani 1 1 d . . .
C78 C 0.8052(7) 0.9185(7) 0.2891(5) 0.077(3) Uani 1 1 d . . .
C79 C 0.2008(6) 0.5786(7) 0.7118(5) 0.078(3) Uani 1 1 d . . .
C80 C 0.2566(5) 0.7471(4) 0.2058(5) 0.059(2) Uani 1 1 d . . .
C81 C 0.0113(6) 0.5929(6) 0.7002(4) 0.072(3) Uani 1 1 d . . .
C82 C 0.9948(6) 0.9054(7) 0.2986(5) 0.076(3) Uani 1 1 d . . .
C83 C 0.0714(6) 0.6491(6) 0.7118(5) 0.072(3) Uani 1 1 d . . .
C84 C 0.1647(7) 0.6409(6) 0.7176(5) 0.075(3) Uani 1 1 d . . .
C85 C 0.4308(6) 0.9330(5) 0.7857(5) 0.072(3) Uani 1 1 d . . .
C86 C 0.8400(7) 0.8560(7) 0.2798(5) 0.081(3) Uani 1 1 d . . .
C87 C -0.0912(6) 0.6005(6) 0.6946(5) 0.090(3) Uani 1 1 d . . .
C88 C 0.9341(7) 0.8469(6) 0.2838(5) 0.080(3) Uani 1 1 d . . .
C89 C 0.4337(6) 0.4371(5) 0.7855(5) 0.075(3) Uani 1 1 d . . .
C90 C 0.0846(4) 1.0389(4) 1.1364(3) 0.0331(16) Uani 1 1 d . . .
C91 C 1.0983(7) 0.8963(7) 0.3024(6) 0.106(4) Uani 1 1 d . . .
C92 C 0.4882(6) 0.8880(6) 0.8002(5) 0.075(3) Uani 1 1 d . . .
C93 C 0.7023(7) 0.9254(8) 0.2821(6) 0.119(3) Uani 1 1 d . . .
C94 C 0.3038(7) 0.5717(7) 0.7192(6) 0.101(3) Uani 1 1 d . . .
C95 C 0.5895(6) 0.8976(6) 0.8049(6) 0.100(3) Uani 1 1 d . . .
C96 C 0.5985(6) 0.4122(6) 0.8047(6) 0.103(4) Uani 1 1 d . . .
C97 C 0.4635(8) 0.3381(6) 0.8068(5) 0.087(3) Uani 1 1 d . . .
C98 C 0.4509(8) 0.8346(6) 0.8106(5) 0.094(3) Uani 1 1 d . . .
C99 C 0.4969(6) 0.3949(6) 0.7987(5) 0.069(3) Uani 1 1 d . . .
C100 C 0.9601(8) 0.9701(6) 0.3080(5) 0.086(3) Uani 1 1 d . . .
C101 C 0.0467(7) 0.5283(7) 0.6937(5) 0.084(3) Uani 1 1 d . . .
C102 C 0.1937(7) 0.8574(7) 0.7816(6) 0.120(4) Uani 1 1 d . . .
C103 C 0.2058(6) 0.3532(6) 0.7838(6) 0.107(4) Uani 1 1 d . . .
C104 C 0.4192(4) 0.9021(4) 0.3608(3) 0.0324(16) Uani 1 1 d . . .
C105 C 0.3784(5) 0.7504(4) 0.6067(4) 0.053(2) Uani 1 1 d . . .
C106 C 0.9203(4) 0.4592(4) 0.8624(3) 0.0325(16) Uani 1 1 d . . .
C107 C 0.5842(4) 0.5975(4) 0.6359(3) 0.0337(16) Uani 1 1 d . . .
C108 C 0.2213(4) 1.0860(4) 0.5355(4) 0.0406(17) Uani 1 1 d . . .

loop_
_atom_site_aniso_label
_atom_site_aniso_U_11
_atom_site_aniso_U_22
_atom_site_aniso_U_33
_atom_site_aniso_U_23
_atom_site_aniso_U_13
_atom_site_aniso_U_12
Ru1 0.0206(2) 0.0295(4) 0.0330(3) 0.0186(3) -0.00138(18) 0.0003(2)
Ru2 0.0224(2) 0.0308(4) 0.0341(3) 0.0202(3) 0.00000(18) 0.0009(2)
Ru3 0.0222(2) 0.0294(4) 0.0339(3) 0.0186(3) -0.00080(18) -0.0012(2)
Ru4 0.0220(2) 0.0284(4) 0.0334(3) 0.0176(3) -0.00180(18) -0.0012(2)
F1 0.080(3) 0.073(4) 0.053(3) 0.017(3) 0.004(2) 0.025(3)
F2 0.132(5) 0.098(4) 0.040(3) 0.016(3) 0.003(3) 0.000(3)
F3 0.061(3) 0.058(3) 0.066(3) 0.030(3) -0.008(2) 0.016(2)
F4 0.088(3) 0.103(5) 0.107(4) 0.074(4) -0.035(3) 0.012(3)
F5 0.034(2) 0.056(3) 0.113(4) 0.050(3) 0.001(2) 0.0034(19)
F6 0.054(3) 0.073(4) 0.108(4) 0.054(3) 0.013(2) 0.030(2)
F7 0.038(2) 0.045(3) 0.076(3) 0.033(2) -0.0066(18) -0.0013(17)
F8 0.068(3) 0.040(3) 0.081(3) 0.033(3) -0.011(2) -0.015(2)
F9 0.039(2) 0.045(3) 0.076(3) 0.031(2) -0.0073(18) -0.0068(17)
F10 0.095(3) 0.037(3) 0.069(3) 0.031(2) -0.005(2) -0.013(2)
F11 0.038(2) 0.056(3) 0.094(3) 0.037(3) -0.001(2) 0.006(2)
F12 0.059(3) 0.072(4) 0.104(4) 0.044(3) 0.002(2) 0.031(2)
F13 0.071(3) 0.107(4) 0.055(3) 0.019(3) 0.008(2) 0.011(3)
F14 0.138(5) 0.194(7) 0.036(3) 0.027(4) 0.005(3) -0.024(5)
F15 0.069(3) 0.063(4) 0.081(3) 0.031(3) -0.018(2) 0.014(2)
F16 0.097(4) 0.125(5) 0.153(5) 0.104(5) -0.056(4) -0.004(3)
F17 0.085(4) 0.150(6) 0.055(3) 0.051(3) 0.005(3) -0.016(3)
F18 0.153(6) 0.181(7) 0.036(3) 0.022(4) 0.000(3) 0.016(5)
F19 0.080(3) 0.073(4) 0.085(4) 0.045(3) -0.012(3) -0.036(3)
F20 0.106(4) 0.071(4) 0.149(6) 0.046(4) -0.053(4) -0.052(3)
F21 0.038(2) 0.066(3) 0.077(3) 0.052(3) -0.0071(18) -0.0037(18)
F22 0.073(3) 0.060(4) 0.079(3) 0.053(3) -0.010(2) 0.002(2)
F23 0.033(2) 0.078(4) 0.109(4) 0.069(3) 0.002(2) -0.001(2)
F24 0.052(2) 0.083(4) 0.107(4) 0.062(3) 0.008(2) -0.019(2)
F25 0.060(3) 0.071(4) 0.061(3) 0.039(2) -0.008(2) -0.021(2)
F26 0.092(4) 0.068(4) 0.100(4) 0.041(3) -0.037(3) -0.046(3)
F27 0.067(3) 0.094(4) 0.052(3) 0.040(3) 0.003(2) -0.012(2)
F28 0.116(4) 0.116(5) 0.043(3) 0.031(3) 0.007(3) 0.016(3)
F29 0.037(2) 0.082(4) 0.102(4) 0.064(3) -0.002(2) -0.009(2)
F30 0.071(3) 0.091(4) 0.101(4) 0.057(3) 0.009(3) -0.032(3)
F31 0.046(2) 0.067(3) 0.080(3) 0.052(3) -0.0072(19) 0.000(2)
F32 0.099(4) 0.051(3) 0.072(3) 0.044(3) -0.011(3) 0.003(3)
O101 0.028(2) 0.024(3) 0.041(2) 0.021(2) 0.0025(16) 0.0028(17)
O102 0.030(2) 0.033(3) 0.035(2) 0.020(2) -0.0015(16) -0.0013(17)
O103 0.03