####################################################################### 
# 
# This file contains crystal structure data downloaded from the 
# Cambridge Structural Database (CSD) hosted by the Cambridge 
# Crystallographic Data Centre (CCDC).
# 
# Full information about CCDC data access policies and citation 
# guidelines are available at http://www.ccdc.cam.ac.uk/access/V1 
# 
# Audit and citation data items may have been added by the CCDC. 
# Please retain this information to preserve the provenance of 
# this file and to allow appropriate attribution of the data. 
# 
#######################################################################

data_cluster2
_audit_block_doi                 10.5517/ccwnsq0
_database_code_depnum_ccdc_archive 'CCDC 824343'
loop_
_citation_id
_citation_doi
_citation_year
1 10.1039/c1cc12691a 2011
_audit_update_record             
;
2011-05-05 deposited with the CCDC.	2024-07-10 downloaded from the CCDC.
;
#TrackingRef '- cluster2.cif'


_audit_creation_method           SHELXL-97
_chemical_name_systematic        
;
?
;
_chemical_name_common            ?
_chemical_melting_point          ?
_chemical_formula_moiety         
'C27 H21.60 Br Cu3 N7 O1.30 S3 W, C3 H7 N O, 0.7(H2 O)'
_chemical_formula_sum            'C30 H30 Br Cu3 N8 O3 S3 W'
_chemical_formula_weight         1101.18

loop_
_atom_type_symbol
_atom_type_description
_atom_type_scat_dispersion_real
_atom_type_scat_dispersion_imag
_atom_type_scat_source
C C 0.0033 0.0016 'International Tables Vol C Tables 4.2.6.8 and 6.1.1.4'
H H 0.0000 0.0000 'International Tables Vol C Tables 4.2.6.8 and 6.1.1.4'
Br Br -0.2901 2.4595 'International Tables Vol C Tables 4.2.6.8 and 6.1.1.4'
Cu Cu 0.3201 1.2651 'International Tables Vol C Tables 4.2.6.8 and 6.1.1.4'
N N 0.0061 0.0033 'International Tables Vol C Tables 4.2.6.8 and 6.1.1.4'
O O 0.0106 0.0060 'International Tables Vol C Tables 4.2.6.8 and 6.1.1.4'
S S 0.1246 0.1234 'International Tables Vol C Tables 4.2.6.8 and 6.1.1.4'
W W -0.8490 6.8722 'International Tables Vol C Tables 4.2.6.8 and 6.1.1.4'

_symmetry_cell_setting           Monoclinic
_symmetry_space_group_name_H-M   C2/c
_symmetry_space_group_name_Hall  '-C 2yc'

loop_
_symmetry_equiv_pos_as_xyz
'x, y, z'
'-x, y, -z+1/2'
'x+1/2, y+1/2, z'
'-x+1/2, y+1/2, -z+1/2'
'-x, -y, -z'
'x, -y, z-1/2'
'-x+1/2, -y+1/2, -z'
'x+1/2, -y+1/2, z-1/2'

_cell_length_a                   37.3848(11)
_cell_length_b                   9.3228(13)
_cell_length_c                   30.230(2)
_cell_angle_alpha                90.00
_cell_angle_beta                 128.195(3)
_cell_angle_gamma                90.00
_cell_volume                     8280.3(13)
_cell_formula_units_Z            8
_cell_measurement_temperature    291(2)
_cell_measurement_reflns_used    5811
_cell_measurement_theta_min      2.179
_cell_measurement_theta_max      25.173

_exptl_crystal_description       'hexagonal prism'
_exptl_crystal_colour            'light yellow'
_exptl_crystal_size_max          0.26
_exptl_crystal_size_mid          0.22
_exptl_crystal_size_min          0.20
_exptl_crystal_density_meas      ?
_exptl_crystal_density_diffrn    1.767
_exptl_crystal_density_method    'not measured'
_exptl_crystal_F_000             4272
_exptl_absorpt_coefficient_mu    5.445
_exptl_absorpt_correction_type   multi-scan
_exptl_absorpt_correction_T_min  0.25
_exptl_absorpt_correction_T_max  0.34
_exptl_absorpt_process_details   'SADABS; Bruker, 2000'

_exptl_special_details           
;
?
;

_diffrn_ambient_temperature      291(2)
_diffrn_radiation_wavelength     0.71073
_diffrn_radiation_type           MoK\a
_diffrn_radiation_source         'fine-focus sealed tube'
_diffrn_radiation_monochromator  graphite
_diffrn_measurement_device_type  'CCD area detector'
_diffrn_measurement_method       'phi and omega scans'
_diffrn_detector_area_resol_mean ?
_diffrn_standards_number         ?
_diffrn_standards_interval_count ?
_diffrn_standards_interval_time  ?
_diffrn_standards_decay_%        ?
_diffrn_reflns_number            21700
_diffrn_reflns_av_R_equivalents  0.0467
_diffrn_reflns_av_sigmaI/netI    0.0792
_diffrn_reflns_limit_h_min       -46
_diffrn_reflns_limit_h_max       44
_diffrn_reflns_limit_k_min       -11
_diffrn_reflns_limit_k_max       11
_diffrn_reflns_limit_l_min       -18
_diffrn_reflns_limit_l_max       37
_diffrn_reflns_theta_min         2.18
_diffrn_reflns_theta_max         26.00
_reflns_number_total             8113
_reflns_number_gt                5543
_reflns_threshold_expression     >2sigma(I)

_computing_data_collection       'Bruker SMART'
_computing_cell_refinement       'Bruker SMART'
_computing_data_reduction        'Bruker SAINT'
_computing_structure_solution    'SHELXS-97 (Sheldrick, 1990)'
_computing_structure_refinement  'SHELXL-97 (Sheldrick, 1997)'
_computing_molecular_graphics    'Bruker SHELXTL'
_computing_publication_material  'Bruker SHELXTL'

_refine_special_details          
;
Refinement of F^2^ against ALL reflections. The weighted R-factor wR and
goodness of fit S are based on F^2^, conventional R-factors R are based
on F, with F set to zero for negative F^2^. The threshold expression of
F^2^ > 2sigma(F^2^) is used only for calculating R-factors(gt) etc. and is
not relevant to the choice of reflections for refinement. R-factors based
on F^2^ are statistically about twice as large as those based on F, and R-
factors based on ALL data will be even larger.
;

_refine_ls_structure_factor_coef Fsqd
_refine_ls_matrix_type           full
_refine_ls_weighting_scheme      calc
_refine_ls_weighting_details     
'calc w=1/[\s^2^(Fo^2^)+(0.05P)^2^+1.99P] where P=(Fo^2^+2Fc^2^)/3'
_atom_sites_solution_primary     direct
_atom_sites_solution_secondary   difmap
_atom_sites_solution_hydrogens   geom
_refine_ls_hydrogen_treatment    constr
_refine_ls_extinction_method     none
_refine_ls_extinction_coef       ?
_refine_ls_number_reflns         8113
_refine_ls_number_parameters     462
_refine_ls_number_restraints     0
_refine_ls_R_factor_all          0.0848
_refine_ls_R_factor_gt           0.0528
_refine_ls_wR_factor_ref         0.1113
_refine_ls_wR_factor_gt          0.1052
_refine_ls_goodness_of_fit_ref   1.023
_refine_ls_restrained_S_all      1.023
_refine_ls_shift/su_max          0.000
_refine_ls_shift/su_mean         0.000

loop_
_atom_site_label
_atom_site_type_symbol
_atom_site_fract_x
_atom_site_fract_y
_atom_site_fract_z
_atom_site_U_iso_or_equiv
_atom_site_adp_type
_atom_site_occupancy
_atom_site_symmetry_multiplicity
_atom_site_calc_flag
_atom_site_refinement_flags
_atom_site_disorder_assembly
_atom_site_disorder_group
C1 C -0.1832(2) 1.1904(7) 0.7163(3) 0.0291(14) Uani 1 1 d . . .
C2 C -0.1253(2) 1.0159(8) 0.7763(3) 0.0397(17) Uani 1 1 d . . .
H2 H -0.1153 0.9358 0.7995 0.048 Uiso 1 1 calc R . .
C3 C -0.1674(2) 1.0748(8) 0.7525(3) 0.0404(17) Uani 1 1 d . . .
H3 H -0.1854 1.0363 0.7610 0.049 Uiso 1 1 calc R . .
C4 C -0.15454(19) 1.2547(7) 0.7071(3) 0.0353(16) Uani 1 1 d . . .
H4 H -0.1633 1.3387 0.6861 0.042 Uiso 1 1 calc R . .
C5 C -0.0984(2) 1.0782(7) 0.7649(3) 0.0362(16) Uani 1 1 d . . .
C6 C -0.1136(2) 1.1931(7) 0.7291(3) 0.0399(17) Uani 1 1 d . . .
H6 H -0.0959 1.2293 0.7199 0.048 Uiso 1 1 calc R . .
C7 C -0.0447(2) 0.8766(7) 0.7940(3) 0.0353(15) Uani 1 1 d . . .
H7 H -0.0648 0.8036 0.7863 0.042 Uiso 1 1 calc R . .
C8 C 0.0141(2) 0.9869(8) 0.8151(3) 0.0429(18) Uani 1 1 d . . .
H8 H 0.0424 1.0049 0.8242 0.051 Uiso 1 1 calc R . .
C9 C 0.1641(2) 1.1402(7) 0.4672(3) 0.0342(15) Uani 1 1 d . . .
H9 H 0.1719 1.2108 0.4935 0.041 Uiso 1 1 calc R . .
C10 C 0.1368(2) 1.0355(7) 0.3891(3) 0.0411(17) Uani 1 1 d . . .
H10 H 0.1221 1.0202 0.3510 0.049 Uiso 1 1 calc R . .
C11 C 0.1555(3) 0.9319(7) 0.4286(3) 0.0395(16) Uani 1 1 d . . .
H11 H 0.1561 0.8343 0.4228 0.047 Uiso 1 1 calc R . .
C12 C 0.1974(2) 0.9317(6) 0.5330(3) 0.0327(14) Uani 1 1 d . . .
C13 C 0.2233(3) 0.8135(8) 0.5448(3) 0.0427(18) Uani 1 1 d . . .
H13 H 0.2264 0.7791 0.5184 0.051 Uiso 1 1 calc R . .
C14 C 0.1961(2) 0.9920(6) 0.5745(3) 0.0281(14) Uani 1 1 d . . .
H14 H 0.1781 1.0718 0.5667 0.034 Uiso 1 1 calc R . .
C15 C 0.2226(2) 0.9293(6) 0.6281(3) 0.0338(15) Uani 1 1 d . . .
H15 H 0.2232 0.9715 0.6564 0.041 Uiso 1 1 calc R . .
C16 C 0.2446(2) 0.7457(6) 0.5951(3) 0.0328(15) Uani 1 1 d . . .
H16 H 0.2576 0.6561 0.5999 0.039 Uiso 1 1 calc R . .
C17 C 0.2479(2) 0.8060(7) 0.6401(3) 0.0333(15) Uani 1 1 d . . .
C18 C 0.2589(2) 0.7520(7) 0.7270(3) 0.0339(15) Uani 1 1 d . . .
C19 C 0.2225(3) 0.7859(8) 0.9053(4) 0.051(2) Uani 1 1 d . . .
H19 H 0.2315 0.8154 0.9402 0.061 Uiso 1 1 calc R . .
C20 C 0.18556(19) 0.6829(6) 0.8240(3) 0.0281(14) Uani 1 1 d . . .
H20 H 0.1644 0.6282 0.7924 0.034 Uiso 1 1 calc R . .
C21 C 0.2437(3) 0.8201(9) 0.8826(3) 0.0453(19) Uani 1 1 d . . .
H21 H 0.2694 0.8774 0.8992 0.054 Uiso 1 1 calc R . .
C22 C 0.2320(2) 0.7551(6) 0.7947(3) 0.0281(14) Uani 1 1 d . . .
C23 C 0.2026(2) 0.7098(8) 0.7397(3) 0.0388(17) Uani 1 1 d . . .
H23 H 0.1738 0.6775 0.7255 0.047 Uiso 1 1 calc R . .
C24 C 0.2753(3) 0.7987(8) 0.8161(3) 0.0453(18) Uani 1 1 d . . .
H24 H 0.2959 0.8267 0.8535 0.054 Uiso 1 1 calc R . .
C28 C 0.2879(3) 0.8006(8) 0.7819(4) 0.0454(19) Uani 1 1 d . . .
H28 H 0.3165 0.8353 0.7960 0.054 Uiso 1 1 calc R . .
C29 C 0.2151(2) 0.7112(7) 0.7042(3) 0.0400(17) Uani 1 1 d . . .
H29 H 0.1945 0.6853 0.6665 0.048 Uiso 1 1 calc R . .
C30 C -0.0165(2) 1.0865(8) 0.8018(3) 0.0423(18) Uani 1 1 d . . .
H30 H -0.0130 1.1854 0.8021 0.051 Uiso 1 1 calc R . .
C31 C 0.0880(2) 0.5082(8) 0.6755(3) 0.0355(16) Uani 1 1 d . . .
H31 H 0.0961 0.4264 0.6974 0.043 Uiso 1 1 calc R . .
C32 C 0.0535(3) 0.3334(8) 0.5974(4) 0.058(2) Uani 1 1 d . . .
H32A H 0.0792 0.2732 0.6234 0.087 Uiso 1 1 calc R . .
H32B H 0.0476 0.3322 0.5616 0.087 Uiso 1 1 calc R . .
H32C H 0.0273 0.2983 0.5929 0.087 Uiso 1 1 calc R . .
C33 C 0.0589(2) 0.6019(7) 0.5813(3) 0.0347(15) Uani 1 1 d . . .
H33A H 0.0341 0.6639 0.5705 0.052 Uiso 1 1 calc R . .
H33B H 0.0530 0.5607 0.5483 0.052 Uiso 1 1 calc R . .
H33C H 0.0866 0.6563 0.6014 0.052 Uiso 1 1 calc R . .
N1 N 0.1423(2) 1.1668(6) 0.4132(2) 0.0373(14) Uani 1 1 d . . .
N2 N 0.17404(19) 0.9987(5) 0.4804(2) 0.0304(12) Uani 1 1 d . . .
N3 N 0.27305(17) 0.7448(6) 0.6924(2) 0.0349(13) Uani 1 1 d . . .
N4 N 0.18450(19) 0.6976(6) 0.8663(2) 0.0367(14) Uani 1 1 d . . .
N5 N 0.22012(17) 0.7542(6) 0.8305(2) 0.0328(12) Uani 1 1 d . . .
N6 N -0.00175(18) 0.8569(6) 0.8134(3) 0.0363(13) Uani 1 1 d . . .
N7 N -0.05427(19) 1.0139(6) 0.7877(2) 0.0321(12) Uani 1 1 d . . .
N8 N 0.0635(2) 0.4819(7) 0.6192(3) 0.0425(14) Uani 1 1 d . . .
O1 O 0.06705(16) 0.2740(5) 0.8300(2) 0.0451(13) Uani 1 1 d . . .
O2 O 0.10108(16) 0.6200(5) 0.7019(2) 0.0449(13) Uani 1 1 d . . .
O3 O 0.0692(4) 0.9533(14) 0.5061(5) 0.062(4) Uani 0.40 1 d P . .
H3A H 0.0630 1.0195 0.4829 0.075 Uiso 0.40 1 d PR . .
H3C H 0.0620 0.8725 0.4895 0.075 Uiso 0.40 1 d PR . .
O4 O 0.1071(7) 0.951(2) 0.6057(8) 0.067(6) Uani 0.30 1 d P . .
H4A H 0.1351 0.9326 0.6231 0.080 Uiso 0.30 1 d PR . .
H4B H 0.1044 1.0308 0.6168 0.080 Uiso 0.30 1 d PR . .
O5 O 0.0821(5) 0.2361(16) 0.9634(6) 0.032(3) Uani 0.30 1 d P . .
H5D H 0.0876 0.1974 0.9925 0.039 Uiso 0.30 1 d PR . .
H5C H 0.0909 0.1807 0.9495 0.039 Uiso 0.30 1 d PR . .
Cu1 Cu 0.10688(3) 0.51506(9) 0.95871(4) 0.0443(2) Uani 1 1 d . . .
Cu2 Cu 0.13791(3) 0.64116(9) 0.87414(4) 0.0432(2) Uani 1 1 d . . .
Cu3 Cu 0.02557(3) 0.67188(9) 0.82316(4) 0.0438(2) Uani 1 1 d . . .
S1 S 0.15182(6) 0.46222(19) 0.93488(9) 0.0450(5) Uani 1 1 d . . .
S2 S 0.06565(6) 0.60498(19) 0.79339(9) 0.0448(5) Uani 1 1 d . . .
S3 S 0.03387(6) 0.49792(19) 0.88162(9) 0.0446(5) Uani 1 1 d . . .
W1 W 0.078283(10) 0.44275(3) 0.857176(15) 0.04338(11) Uani 1 1 d . . .
Br1 Br 0.12970(2) 0.57563(7) 1.04511(3) 0.04504(19) Uani 1 1 d . . .

loop_
_atom_site_aniso_label
_atom_site_aniso_U_11
_atom_site_aniso_U_22
_atom_site_aniso_U_33
_atom_site_aniso_U_23
_atom_site_aniso_U_13
_atom_site_aniso_U_12
C1 0.026(3) 0.045(4) 0.022(3) 0.005(3) 0.018(3) 0.006(3)
C2 0.044(4) 0.042(4) 0.045(4) 0.015(3) 0.034(4) 0.001(3)
C3 0.052(4) 0.046(4) 0.053(5) 0.009(4) 0.047(4) 0.001(3)
C4 0.019(3) 0.036(3) 0.045(4) 0.023(3) 0.017(3) 0.004(3)
C5 0.023(3) 0.039(4) 0.036(4) 0.014(3) 0.013(3) 0.005(3)
C6 0.024(3) 0.045(4) 0.038(4) 0.013(3) 0.013(3) 0.008(3)
C7 0.027(3) 0.042(4) 0.040(4) -0.004(3) 0.022(3) 0.001(3)
C8 0.037(4) 0.050(4) 0.045(5) 0.004(4) 0.027(4) -0.007(3)
C9 0.056(4) 0.028(3) 0.033(4) 0.009(3) 0.035(4) 0.004(3)
C10 0.037(4) 0.046(4) 0.019(3) -0.002(3) 0.007(3) -0.007(3)
C11 0.062(5) 0.032(3) 0.029(4) -0.001(3) 0.031(4) 0.003(3)
C12 0.035(3) 0.026(3) 0.036(4) 0.001(3) 0.022(3) -0.007(3)
C13 0.057(4) 0.053(4) 0.028(4) -0.008(3) 0.031(4) 0.008(4)
C14 0.045(4) 0.008(2) 0.042(4) 0.006(3) 0.032(3) 0.003(2)
C15 0.049(4) 0.023(3) 0.043(4) 0.005(3) 0.035(4) 0.005(3)
C16 0.040(4) 0.020(3) 0.044(4) 0.018(3) 0.029(4) 0.016(3)
C17 0.034(3) 0.041(3) 0.033(4) 0.017(3) 0.025(3) 0.007(3)
C18 0.033(3) 0.040(4) 0.045(4) 0.007(3) 0.032(4) 0.013(3)
C19 0.056(5) 0.045(4) 0.049(5) -0.022(4) 0.031(4) -0.004(4)
C20 0.023(3) 0.026(3) 0.028(3) -0.017(3) 0.011(3) -0.007(2)
C21 0.040(4) 0.065(5) 0.032(4) -0.022(4) 0.022(4) -0.013(4)
C22 0.054(4) 0.013(3) 0.027(3) 0.003(2) 0.030(3) 0.003(3)
C23 0.029(3) 0.051(4) 0.033(4) -0.005(3) 0.017(3) -0.011(3)
C24 0.053(5) 0.052(4) 0.038(4) -0.006(3) 0.031(4) -0.016(4)
C28 0.045(4) 0.056(5) 0.055(5) 0.009(4) 0.041(4) 0.005(3)
C29 0.023(3) 0.047(4) 0.031(4) -0.022(3) 0.007(3) -0.010(3)
C30 0.037(4) 0.051(4) 0.052(5) -0.015(4) 0.035(4) -0.011(3)
C31 0.033(3) 0.051(4) 0.034(4) 0.017(3) 0.027(3) 0.014(3)
C32 0.047(5) 0.045(4) 0.062(6) -0.026(4) 0.024(5) -0.031(4)
C33 0.038(4) 0.035(3) 0.029(4) 0.008(3) 0.020(3) 0.005(3)
N1 0.053(4) 0.031(3) 0.032(3) -0.005(2) 0.029(3) -0.016(3)
N2 0.048(3) 0.023(2) 0.037(3) -0.005(2) 0.035(3) -0.009(2)
N3 0.024(3) 0.053(3) 0.038(3) 0.013(3) 0.025(3) 0.019(2)
N4 0.036(3) 0.047(3) 0.034(3) -0.003(3) 0.025(3) 0.013(3)
N5 0.024(3) 0.033(3) 0.040(3) -0.006(3) 0.019(3) -0.005(2)
N6 0.032(3) 0.032(3) 0.049(4) -0.002(3) 0.027(3) 0.008(2)
N7 0.038(3) 0.032(3) 0.034(3) -0.001(2) 0.026(3) 0.000(2)
N8 0.045(3) 0.050(4) 0.039(4) -0.012(3) 0.029(3) -0.006(3)
O1 0.037(3) 0.037(3) 0.046(3) -0.008(2) 0.018(3) -0.008(2)
O2 0.043(3) 0.032(2) 0.054(3) -0.016(2) 0.028(3) -0.012(2)
O3 0.044(7) 0.040(7) 0.032(7) -0.003(6) -0.012(6) -0.010(6)
O4 0.061(12) 0.056(11) 0.047(11) 0.000(9) 0.015(10) -0.040(10)
O5 0.032(7) 0.046(9) 0.027(8) 0.003(7) 0.022(7) 0.003(6)
Cu1 0.0362(5) 0.0349(4) 0.0515(6) -0.0047(4) 0.0219(5) -0.0052(4)
Cu2 0.0378(5) 0.0346(4) 0.0491(6) -0.0049(4) 0.0228(5) -0.0049(4)
Cu3 0.0376(4) 0.0341(4) 0.0499(6) -0.0042(4) 0.0221(5) -0.0044(4)
S1 0.0369(9) 0.0352(9) 0.0525(12) -0.0039(8) 0.0224(9) -0.0058(7)
S2 0.0374(9) 0.0355(9) 0.0520(12) -0.0044(8) 0.0229(9) -0.0054(7)
S3 0.0352(9) 0.0359(9) 0.0508(12) -0.0044(8) 0.0207(9) -0.0042(7)
W1 0.03627(16) 0.03432(15) 0.0488(2) -0.00443(14) 0.02091(15) -0.00482(12)
Br1 0.0381(4) 0.0348(3) 0.0526(5) -0.0049(3) 0.0232(4) -0.0063(3)

_geom_special_details            
;
All esds (except the esd in the dihedral angle between two l.s. planes)
are estimated using the full covariance matrix. The cell esds are taken
into account individually in the estimation of esds in distances, angles
and torsion angles; correlations between esds in cell parameters are only
used when they are defined by crystal symmetry. An approximate (isotropic)
treatment of cell esds is used for estimating esds involving l.s. planes.
;

loop_
_geom_bond_atom_site_label_1
_geom_bond_atom_site_label_2
_geom_bond_distance
_geom_bond_site_symmetry_2
_geom_bond_publ_flag
C1 C3 1.382(9) . ?
C1 C4 1.397(8) . ?
C1 N3 1.413(7) 3_455 ?
C2 C3 1.376(10) . ?
C2 C5 1.380(9) . ?
C2 H2 0.9300 . ?
C3 H3 0.9300 . ?
C4 C6 1.361(8) . ?
C4 H4 0.9300 . ?
C5 C6 1.369(9) . ?
C5 N7 1.465(8) . ?
C6 H6 0.9300 . ?
C7 N7 1.311(8) . ?
C7 N6 1.338(8) . ?
C7 H7 0.9300 . ?
C8 C30 1.328(10) . ?
C8 N6 1.336(9) . ?
C8 H8 0.9300 . ?
C9 N1 1.322(9) . ?
C9 N2 1.362(8) . ?
C9 H9 0.9300 . ?
C10 C11 1.347(10) . ?
C10 N1 1.373(9) . ?
C10 H10 0.9300 . ?
C11 N2 1.405(8) . ?
C11 H11 0.9300 . ?
C12 C13 1.361(9) . ?
C12 N2 1.402(8) . ?
C12 C14 1.404(9) . ?
C13 C16 1.359(10) . ?
C13 H13 0.9300 . ?
C14 C15 1.401(9) . ?
C14 H14 0.9300 . ?
C15 C17 1.387(8) . ?
C15 H15 0.9300 . ?
C16 C17 1.407(10) . ?
C16 H16 0.9300 . ?
C17 N3 1.367(8) . ?
C18 C29 1.381(9) . ?
C18 C28 1.381(11) . ?
C18 N3 1.435(8) . ?
C19 C21 1.370(11) . ?
C19 N4 1.420(9) . ?
C19 H19 0.9300 . ?
C20 N4 1.310(8) . ?
C20 N5 1.356(8) . ?
C20 H20 0.9300 . ?
C21 N5 1.384(9) . ?
C21 H21 0.9300 . ?
C22 C23 1.376(9) . ?
C22 C24 1.382(10) . ?
C22 N5 1.401(8) . ?
C23 C29 1.411(10) . ?
C23 H23 0.9300 . ?
C24 C28 1.376(10) . ?
C24 H24 0.9300 . ?
C28 H28 0.9300 . ?
C29 H29 0.9300 . ?
C30 N7 1.375(8) . ?
C30 H30 0.9300 . ?
C31 O2 1.217(9) . ?
C31 N8 1.365(10) . ?
C31 H31 0.9300 . ?
C32 N8 1.480(9) . ?
C32 H32A 0.9600 . ?
C32 H32B 0.9600 . ?
C32 H32C 0.9600 . ?
C33 N8 1.534(9) . ?
C33 H33A 0.9600 . ?
C33 H33B 0.9600 . ?
C33 H33C 0.9600 . ?
N1 Cu2 2.094(5) 6_575 ?
N3 C1 1.413(7) 3_545 ?
N4 Cu2 1.969(6) . ?
N6 Cu3 1.932(5) . ?
O1 W1 1.703(5) . ?
O3 H3A 0.8499 . ?
O3 H3C 0.8500 . ?
O4 H4A 0.8502 . ?
O4 H4B 0.8499 . ?
O5 H5D 0.8501 . ?
O5 H5C 0.8499 . ?
Cu1 S3 2.245(2) . ?
Cu1 S1 2.254(2) . ?
Cu1 Br1 2.2613(13) . ?
Cu1 W1 2.6381(11) . ?
Cu2 N1 2.094(5) 6_576 ?
Cu2 S2 2.284(2) . ?
Cu2 S