
#######################################################################
#
#                 Cambridge Crystallographic Data Centre
#                                CCDC
#
#######################################################################
#
# If this CIF has been generated from an entry in the Cambridge
# Structural Database, then it will include bibliographic, chemical,
# crystal, experimental, refinement or atomic coordinate data resulting
# from the CCDC's data processing and validation procedures.
#
#######################################################################

data_CSD_CIF_IYOQOC
_audit_creation_date 2004-10-12
_audit_creation_method CSD-ConQuest-V1
_database_code_CSD IYOQOC
_database_code_depnum_ccdc_archive 'CCDC 231701'
_chemical_formula_sum 'C222 H138 F54 N30 O48 Zn9'
_chemical_formula_moiety
;
C198 H138 F18 N30 O24 Zn6 12+,3(C8 F12 O8 Zn1 4-)
;
_journal_coden_Cambridge 38
_journal_volume 304
_journal_year 2004
_journal_page_first 1308
_journal_name_full 'Science '
loop_
_publ_author_name
"K.S.Chichak"
"S.J.Cantrill"
"A.R.Pease"
"Sheng-Hsien Chiu"
"G.W.V.Cave"
"J.L.Atwood"
"J.F.Stoddart"
_chemical_name_systematic
;
tris(\m~4~-6,9,19,22-Tetraoxa-3,12,16,25-tetra-aza-5,10,18,23(1,4)-tetrabenzen
a-1(2,6),7(4,2),8(2,4),14(2,6),20(4,2),21(2,4)-hexapyridinacyclohexacosaphane-
2,12,15,25-tetraene)-hexakis(trifluoroacetato-O)-hexa-zinc(ii) 
tris(tetrakis(trifluoroacetato-O)-zinc(ii))
;
_chemical_name_common
;
Teaching Subset: Fundamental Chemistry, Symmetry
;
_cell_volume  42808.153
_exptl_crystal_colour 'colorless'
_exptl_crystal_density_diffrn 1.305
_exptl_crystal_description 'needle'
_exptl_crystal_preparation 'di-n-butyl ether/trifluoroacetic acid'
_diffrn_ambient_temperature 173
_refine_special_details
;
The trifluoromethyl groups of the cation are disordered.

;
#These two values have been output from a single CSD field.
_refine_ls_R_factor_gt 0.1656
_refine_ls_wR_factor_gt 0.1656
_symmetry_cell_setting rhombohedral
_symmetry_space_group_name_H-M 'R -3 c'
_symmetry_Int_Tables_number 167
loop_
_symmetry_equiv_pos_site_id
_symmetry_equiv_pos_as_xyz
1 x,y,z
2 -y,x-y,z
3 -x+y,-x,z
4 y,x,1/2-z
5 2/3+x,1/3+y,1/3+z
6 2/3-y,1/3+x-y,1/3+z
7 2/3-x+y,1/3-x,1/3+z
8 2/3+y,1/3+x,5/6-z
9 1/3+x,2/3+y,2/3+z
10 1/3+y,2/3+x,1/6-z
11 x-y,-y,1/2-z
12 -x,-x+y,1/2-z
13 1/3-y,2/3+x-y,2/3+z
14 1/3-x+y,2/3-x,2/3+z
15 1/3+x-y,2/3-y,1/6-z
16 1/3-x,2/3-x+y,1/6-z
17 2/3+x-y,1/3-y,5/6-z
18 2/3-x,1/3-x+y,5/6-z
19 -x,-y,-z
20 y,-x+y,-z
21 x-y,x,-z
22 -y,-x,-1/2+z
23 -2/3-x,-1/3-y,-1/3-z
24 -2/3+y,-1/3-x+y,-1/3-z
25 -2/3+x-y,-1/3+x,-1/3-z
26 -2/3-y,-1/3-x,-5/6+z
27 -1/3-x,-2/3-y,-2/3-z
28 -1/3-y,-2/3-x,-1/6+z
29 -x+y,y,-1/2+z
30 x,x-y,-1/2+z
31 -1/3+y,-2/3-x+y,-2/3-z
32 -1/3+x-y,-2/3+x,-2/3-z
33 -1/3-x+y,-2/3+y,-1/6+z
34 -1/3+x,-2/3+x-y,-1/6+z
35 -2/3-x+y,-1/3+y,-5/6+z
36 -2/3+x,-1/3+x-y,-5/6+z
_cell_length_a 38.937(5)
_cell_length_b 38.937(5)
_cell_length_c 32.604(8)
_cell_angle_alpha 90
_cell_angle_beta 90
_cell_angle_gamma 120
_cell_formula_units_Z 6
loop_
_atom_type_symbol
_atom_type_radius_bond
C 0.68
H 0.23
F 0.64
N 0.68
O 0.68
Zn 1.45
loop_
_atom_site_label
_atom_site_type_symbol
_atom_site_fract_x
_atom_site_fract_y
_atom_site_fract_z
Zn1 Zn 0.44906(5) 0.21170(5) 0.17380(5)
F1 F 0.3920(4) 0.1414(6) 0.0537(7)
O1 O 0.5252(5) 0.3080(7) 0.3379(5)
N1 N 0.4098(4) 0.1566(4) 0.2095(4)
C1 C 0.4724(5) 0.3197(4) 0.4242(4)
H1 H 0.45920 0.30570 0.44840
C2 C 0.4885(4) 0.3037(5) 0.3974(6)
H2 H 0.48630 0.27870 0.40340
C3 C 0.5077(4) 0.3240(4) 0.3620(5)
C4 C 0.5109(6) 0.3605(4) 0.3533(4)
H3 H 0.52410 0.37440 0.32910
C5 C 0.4948(4) 0.3765(4) 0.3801(5)
H4 H 0.49700 0.40140 0.37410
C6 C 0.4756(4) 0.3561(4) 0.4155(4)
C7 C 0.4504(2) 0.2612(3) 0.2555(3)
H5 H 0.42440 0.25540 0.24830
C8 C 0.4677(3) 0.2817(4) 0.2915(3)
H6 H 0.45360 0.28980 0.30890
C9 C 0.5058(3) 0.2902(4) 0.3021(3)
C10 C 0.5265(3) 0.2783(4) 0.2767(3)
H7 H 0.55250 0.28410 0.28390
C11 C 0.5092(2) 0.2578(3) 0.2406(3)
N2 N 0.4712(2) 0.2493(3) 0.2300(2)
C12 C 0.5286(3) 0.2452(3) 0.2139(3)
C13 C 0.5675(3) 0.2540(3) 0.2198(3)
H8 H 0.58290 0.27110 0.24140
C14 C 0.5840(2) 0.2377(4) 0.1939(4)
C15 C 0.5615(3) 0.2126(4) 0.1622(3)
H9 H 0.57280 0.20140 0.14460
C16 C 0.5226(3) 0.2038(3) 0.1564(3)
H10 H 0.50730 0.18670 0.13470
N3 N 0.50615(19) 0.2202(3) 0.1822(3)
C17 C 0.68391(10) 0.20641(12) 0.13767(17)
C18 C 0.65749(13) 0.18293(13) 0.16801(19)
H11 H 0.65440 0.15770 0.17420
C19 C 0.63561(14) 0.19640(14) 0.1894(2)
H12 H 0.61750 0.18030 0.21010
C20 C 0.64015(12) 0.23334(15) 0.1804(2)
C21 C 0.66657(10) 0.25682(15) 0.1500(2)
H13 H 0.66970 0.28210 0.14390
C22 C 0.68845(10) 0.24335(14) 0.12868(18)
H14 H 0.70650 0.25940 0.10790
F2 F 0.44283(19) 0.13284(18) 0.04752(19)
O2 O 0.62273(16) 0.2495(2) 0.2021(2)
N4 N 0.39399(12) 0.21011(15) 0.18386(14)
F3 F 0.44286(18) 0.1825(2) 0.01865(14)
O3 O 0.43348(12) 0.17817(13) 0.12102(14)
N5 N 0.45295(10) 0.26347(12) 0.14024(13)
O4 O 0.48409(13) 0.21597(16) 0.07905(13)
C23 C 0.41847(18) 0.12443(16) 0.22233(19)
H15 H 0.39500 0.10260 0.23600
H16 H 0.42490 0.11350 0.19800
C24 C 0.3770(5) 0.1525(5) 0.2204(5)
H17 H 0.35890 0.13030 0.23630
C25 C 0.3677(4) 0.1827(6) 0.2082(5)
C26 C 0.33512(14) 0.1846(2) 0.21825(19)
H18 H 0.31570 0.16450 0.23530
C27 C 0.3291(5) 0.2135(7) 0.2053(6)
H19 H 0.30600 0.21420 0.21340
C28 C 0.3570(6) 0.2424(6) 0.1799(6)
H20 H 0.35340 0.26320 0.16960
C29 C 0.3911(5) 0.2399(5) 0.1696(5)
C30 C 0.4250(6) 0.2681(5) 0.1428(6)
H21 H 0.42420 0.28900 0.12850
C31 C 0.70891(10) 0.19229(13) 0.11276(15)
H22 H 0.69120 0.16610 0.10020
H23 H 0.72350 0.21140 0.09050
C32 C 0.4523(6) 0.1874(9) 0.0873(6)
C33 C 0.4321(5) 0.1600(5) 0.0543(5)
Zn2 Zn 0.37173(16) 0.3334(2) 0.0833(3)
F4 F 0.35224(15) 0.2180(2) 0.02103(18)
F5 F 0.40326(17) 0.2444(2) -0.00387(15)
F6 F 0.39856(12) 0.23190(17) 0.05359(15)
O5 O 0.3577(2) 0.3545(2) 0.0363(3)
O6 O 0.2956(8) 0.3028(8) 0.0330(9)
C34 C 0.3868(4) 0.2526(7) 0.0293(5)
F7 F 0.3449(6) 0.3867(6) -0.0284(7)
F8 F 0.2857(6) 0.3341(6) -0.0353(7)
F9 F 0.2961(6) 0.3767(6) 0.0135(7)
C35 C 0.3256(7) 0.3393(11) 0.0219(9)
C36 C 0.3124(7) 0.3594(7) -0.0093(9)
O7 O 0.4156(10) 0.3141(8) 0.0217(10)
O8 O 0.3693(11) 0.2796(10) 0.0681(10)
C37 C 0.3928(8) 0.2914(8) 0.0418(9)
F10? F 0.4003(5) 0.1590(8) 0.0385(6)
F11? F 0.4452(2) 0.1486(2) 0.02370(17)
F12? F 0.41025(18) 0.12158(16) 0.0707(2)
C6X C 0.452833(400) 0.142267(400) 0.251167(400)
C1X C 0.486033(500) 0.139067(400) 0.242467(400)
H1X H 0.48683 0.12587 0.21827
C2X C 0.518133(400) 0.155167(500) 0.269267(600)
H2X H 0.54093 0.15297 0.26327
C3X C 0.517033(400) 0.174367(400) 0.304667(500)
O1X O 0.550533(500) 0.191867(700) 0.328767(500)
C9X C 0.548933(300) 0.172467(400) 0.364567(300)
C8X C 0.519333(300) 0.134367(400) 0.375167(300)
C7X C 0.522533(200) 0.117067(300) 0.411167(300)
H5X H 0.50233 0.09107 0.41837
N2X N 0.555233(200) 0.137867(300) 0.436667(200)
Zn1X Zn 0.570693(50) 0.115727(50) 0.492867(50)
N1X N 0.586533(400) 0.076467(400) 0.457167(400)
C23X C 0.627373(180) 0.085137(160) 0.444337(190)
C6A C 0.6439(4) 0.1195(4) 0.4155(4)
C1A C 0.6803(5) 0.1527(4) 0.4242(4)
H1A H 0.69430 0.15350 0.44840
C2A C 0.6963(4) 0.1848(5) 0.3974(6)
H2A H 0.72130 0.20760 0.40340
C3A C 0.6760(4) 0.1837(4) 0.3620(5)
O1A O 0.6920(5) 0.2172(7) 0.3379(5)
C9A C 0.7098(3) 0.2156(4) 0.3021(3)
C8A C 0.7183(3) 0.1860(4) 0.2915(3)
C7A C 0.7388(2) 0.1892(3) 0.2555(3)
H5A H 0.74460 0.16900 0.24830
N2A N 0.7507(2) 0.2219(3) 0.2300(2)
Zn1A Zn 0.78830(5) 0.23736(5) 0.17380(5)
N1A N 0.8434(4) 0.2532(4) 0.2095(4)
C23A C 0.87557(18) 0.29404(16) 0.22233(19)
C6V C 0.857733(400) 0.310567(400) 0.251167(400)
C1V C 0.860933(500) 0.346967(400) 0.242467(400)
H1V H 0.87413 0.36097 0.21827
C2V C 0.844833(400) 0.362967(500) 0.269267(600)
H2V H 0.84703 0.38797 0.26327
C3V C 0.825633(400) 0.342667(400) 0.304667(500)
O1V O 0.808133(500) 0.358667(700) 0.328767(500)
C9V C 0.827533(300) 0.376467(400) 0.364567(300)
C8V C 0.865633(300) 0.384967(400) 0.375167(300)
C7V C 0.882933(200) 0.405467(300) 0.411167(300)
H5V H 0.90893 0.41127 0.41837
N2V N 0.862133(200) 0.417367(300) 0.436667(200)
Zn1V Zn 0.884273(50) 0.454967(50) 0.492867(50)
N1V N 0.923533(400) 0.510067(400) 0.457167(400)
C23V C 0.914863(180) 0.542237(160) 0.444337(190)
C6B C 0.8805(4) 0.5244(4) 0.4155(4)
C1B C 0.8473(5) 0.5276(4) 0.4242(4)
H1B H 0.84650 0.54080 0.44840
C2B C 0.8152(4) 0.5115(5) 0.3974(6)
H2B H 0.79240 0.51370 0.40340
C3B C 0.8163(4) 0.4923(4) 0.3620(5)
O1B O 0.7828(5) 0.4748(7) 0.3379(5)
C9B C 0.7844(3) 0.4942(4) 0.3021(3)
C8B C 0.8140(3) 0.5323(4) 0.2915(3)
C7B C 0.8108(2) 0.5496(3) 0.2555(3)
H5B H 0.83100 0.57560 0.24830
N2B N 0.7781(2) 0.5288(3) 0.2300(2)
Zn1B Zn 0.76264(5) 0.55094(5) 0.17380(5)
N1B N 0.7468(4) 0.5902(4) 0.2095(4)
C23B C 0.70596(18) 0.58153(16) 0.22233(19)
C6W C 0.689433(400) 0.547167(400) 0.251167(400)
C1W C 0.653033(500) 0.513967(400) 0.242467(400)
H1W H 0.63903 0.51317 0.21827
C2W C 0.637033(400) 0.481867(500) 0.269267(600)
H2W H 0.61203 0.45907 0.26327
C3W C 0.657333(400) 0.482967(400) 0.304667(500)
O1W O 0.641333(500) 0.449467(700) 0.328767(500)
C9W C 0.623533(300) 0.451067(400) 0.364567(300)
C8W C 0.615033(300) 0.480667(400) 0.375167(300)
C7W C 0.594533(200) 0.477467(300) 0.411167(300)
H5W H 0.58873 0.49767 0.41837
N2W N 0.582633(200) 0.444767(300) 0.436667(200)
Zn1W Zn 0.545033(50) 0.429307(50) 0.492867(50)
N1W N 0.489933(400) 0.413467(400) 0.457167(400)
C23W C 0.457763(180) 0.372627(160) 0.444337(190)
N5A N 0.73653(10) 0.18948(12) 0.14024(13)
N3A N 0.77980(19) 0.28595(30) 0.1822(3)
C12A C 0.7548(3) 0.2834(3) 0.2139(3)
C11A C 0.7422(2) 0.2514(3) 0.2406(3)
C10A C 0.7217(3) 0.2482(4) 0.2767(3)
H7A H 0.71590 0.26840 0.28390
C13A C 0.7460(3) 0.3135(3) 0.2198(3)
H8A H 0.72890 0.31180 0.24140
C14A C 0.7623(2) 0.3463(4) 0.1939(4)
C15A C 0.7874(3) 0.3489(4) 0.1622(3)
H9A H 0.79860 0.37140 0.14460
C16A C 0.7962(3) 0.3188(3) 0.1564(3)
H10A H 0.81330 0.32060 0.13470
O2A O 0.75050(16) 0.37323(20) 0.2021(2)
C20A C 0.76666(12) 0.40681(15) 0.1804(2)
C19A C 0.80360(14) 0.43921(14) 0.1894(2)
C18A C 0.81707(13) 0.47456(13) 0.16801(19)
C17A C 0.79359(10) 0.47750(12) 0.13767(17)
C22A C 0.75665(10) 0.44510(14) 0.12868(18)
C21A C 0.74318(10) 0.40975(15) 0.1500(2)
H13A H 0.71790 0.38760 0.14390
H14A H 0.74060 0.44710 0.10790
C31A C 0.80771(10) 0.51662(13) 0.11276(15)
N5B N 0.81052(10) 0.54705(12) 0.14024(13)
N3B N 0.71405(19) 0.49385(30) 0.1822(3)
C12B C 0.7166(3) 0.4714(3) 0.2139(3)
C11B C 0.7486(2) 0.4908(3) 0.2406(3)
C10B C 0.7518(3) 0.4735(4) 0.2767(3)
H7B H 0.73160 0.44750 0.28390
C13B C 0.6865(3) 0.4325(3) 0.2198(3)
H8B H 0.68820 0.41710 0.24140
C14B C 0.6537(2) 0.4160(4) 0.1939(4)
C15B C 0.6511(3) 0.4385(4) 0.1622(3)
H9B H 0.62860 0.42720 0.14460
C16B C 0.6812(3) 0.4774(3) 0.1564(3)
H10B H 0.67940 0.49270 0.13470
O2B O 0.62677(16) 0.37727(20) 0.2021(2)
C20B C 0.59319(12) 0.35985(15) 0.1804(2)
C19B C 0.56079(14) 0.36439(14) 0.1894(2)
C18B C 0.52544(13) 0.34251(13) 0.16801(19)
C17B C 0.5225(1) 0.31609(12) 0.13767(17)
C22B C 0.5549(1) 0.31155(14) 0.12868(18)
C21B C 0.59025(10) 0.33343(15) 0.1500(2)
H13B H 0.61240 0.33030 0.14390
H14B H 0.55290 0.29350 0.10790
C31B C 0.48338(10) 0.29109(13) 0.11276(15)
H22B H 0.47490 0.30880 0.10020
H23B H 0.48790 0.27650 0.09050
H11B H 0.50330 0.34560 0.17420
H12B H 0.56280 0.38250 0.21010
N4B N 0.81612(12) 0.60601(15) 0.18386(14)
C25B C 0.8150(4) 0.6323(6) 0.2082(5)
C24B C 0.7755(5) 0.6230(5) 0.2204(5)
H17B H 0.77140 0.64110 0.23630
C26B C 0.84948(14) 0.66488(20) 0.21825(19)
H18B H 0.84880 0.68430 0.23530
C27B C 0.8844(5) 0.6709(7) 0.2053(6)
H19B H 0.90820 0.69400 0.21340
C28B C 0.8854(6) 0.6430(6) 0.1799(6)
H20B H 0.90980 0.64660 0.16960
C29B C 0.8488(5) 0.6089(5) 0.1696(5)
C30B C 0.8431(6) 0.5750(5) 0.1428(6)
H21B H 0.86480 0.57580 0.12850
O3B O 0.74469(12) 0.56652(13) 0.12102(14)
C32B C 0.7351(6) 0.5477(9) 0.0873(6)
O4B O 0.73188(13) 0.51591(16) 0.07905(13)
C33B C 0.7279(5) 0.5679(5) 0.0543(5)
F1B F 0.7494(4) 0.6080(6) 0.0537(7)
F2B F 0.69001(19) 0.55717(18) 0.04752(19)
F3B F 0.73964(18) 0.55714(20) 0.01865(14)
H22A H 0.83390 0.52510 0.10020
H23A H 0.78860 0.51210 0.09050
H11A H 0.84230 0.49670 0.17420
H12A H 0.81970 0.43720 0.21010
N4A N 0.78989(12) 0.18388(15) 0.18386(14)
C25A C 0.8173(4) 0.1850(6) 0.2082(5)
C24A C 0.8475(5) 0.2245(5) 0.2204(5)
H17A H 0.86970 0.22860 0.23630
C26A C 0.81540(14) 0.15052(20) 0.21825(19)
H18A H 0.83550 0.15120 0.23530
C27A C 0.7865(5) 0.1156(7) 0.2053(6)
H19A H 0.78580 0.09180 0.21340
C28A C 0.7576(6) 0.1146(6) 0.1799(6)
H20A H 0.73680 0.09020 0.16960
C29A C 0.7601(5) 0.1512(5) 0.1696(5)
C30A C 0.7319(6) 0.1569(5) 0.1428(6)
H21A H 0.71100 0.13520 0.12850
O3A O 0.82183(12) 0.25531(13) 0.12102(14)
C32A C 0.8126(6) 0.2649(9) 0.0873(6)
O4A O 0.78403(13) 0.26812(16) 0.07905(13)
C33A C 0.8400(5) 0.2721(5) 0.0543(5)
F1A F 0.8586(4) 0.2506(6) 0.0537(7)
F2A F 0.86716(19) 0.30999(18) 0.04752(19)
F3A F 0.81750(18) 0.26036(20) 0.01865(14)
H15W H 0.43593 0.37427 0.43067
H16W H 0.44683 0.35527 0.46867
C24W C 0.485833(500) 0.442167(500) 0.446267(500)
H17W H 0.46363 0.43807 0.43037
C25W C 0.516033(400) 0.481667(600) 0.458467(500)
N4W N 0.543443(120) 0.482787(150) 0.482807(140)
N3W N 0.553533(190) 0.380717(300) 0.484467(300)
C12W C 0.578533(300) 0.383267(300) 0.452767(300)
C11W C 0.591133(200) 0.415267(300) 0.426067(300)
C10W C 0.611633(300) 0.418467(400) 0.389967(300)
H7W H 0.61743 0.39827 0.38277
C13W C 0.587333(300) 0.353167(300) 0.446867(300)
H8W H 0.60443 0.35487 0.42527
C14W C 0.571033(200) 0.320367(400) 0.472767(400)
C15W C 0.545933(300) 0.317767(400) 0.504467(300)
H9W H 0.53473 0.29527 0.52207
C16W C 0.537133(300) 0.347867(300) 0.510267(300)
H10W H 0.52003 0.34607 0.53197
O2W O 0.582833(160) 0.293437(200) 0.464567(200)
C20W C 0.566673(120) 0.259857(150) 0.486267(200)
C19W C 0.529733(140) 0.227457(140) 0.477267(200)
C18W C 0.516263(130) 0.192107(130) 0.498657(190)
C17W C 0.539743(100) 0.189167(120) 0.528997(170)
C22W C 0.576683(100) 0.221567(140) 0.537987(180)
C21W C 0.590153(100) 0.256917(150) 0.516667(200)
H13W H 0.61543 0.27907 0.52277
H14W H 0.59273 0.21957 0.55877
C31W C 0.525623(100) 0.150047(130) 0.553907(150)
N5X N 0.522813(100) 0.119617(120) 0.526427(130)
N3X N 0.619283(190) 0.172817(300) 0.484467(300)
C12X C 0.616733(300) 0.195267(300) 0.452767(300)
C11X C 0.584733(200) 0.175867(300) 0.426067(300)
C10X C 0.581533(300) 0.193167(400) 0.389967(300)
H7X H 0.60173 0.21917 0.38277
C13X C 0.646833(300) 0.234167(300) 0.446867(300)
H8X H 0.64513 0.24957 0.42527
C14X C 0.679633(200) 0.250667(400) 0.472767(400)
C15X C 0.682233(300) 0.228167(400) 0.504467(300)
H9X H 0.70473 0.23947 0.52207
C16X C 0.652133(300) 0.189267(300) 0.510267(300)
H10X H 0.65393 0.17397 0.53197
O2X O 0.706563(160) 0.289397(200) 0.464567(200)
C20X C 0.740143(120) 0.306817(150) 0.486267(200)
C19X C 0.772543(140) 0.302277(140) 0.477267(200)
C18X C 0.807893(130) 0.324157(130) 0.498657(190)
C17X C 0.810833(100) 0.350577(120) 0.528997(170)
C22X C 0.778433(100) 0.355117(140) 0.537987(180)
C21X C 0.743083(100) 0.333237(150) 0.516667(200)
H13X H 0.72093 0.33637 0.52277
H14X H 0.78043 0.37317 0.55877
C31X C 0.849953(100) 0.375577(130) 0.553907(150)
N5V N 0.880383(100) 0.403197(120) 0.526427(130)
N3V N 0.827183(190) 0.446467(300) 0.484467(300)
C12V C 0.804733(300) 0.421467(300) 0.452767(300)
C11V C 0.824133(200) 0.408867(300) 0.426067(300)
C10V C 0.806833(300) 0.388367(400) 0.389967(300)
H7V H 0.78083 0.38257 0.38277
C13V C 0.765833(300) 0.412667(300) 0.446867(300)
H8V H 0.75043 0.39557 0.42527
C14V C 0.749333(200) 0.428967(400) 0.472767(400)
C15V C 0.771833(300) 0.454067(400) 0.504467(300)
H9V H 0.76053 0.46527 0.52207
C16V C 0.810733(300) 0.462867(300) 0.510267(300)
H10V H 0.82603 0.47997 0.53197
O2V O 0.710603(160) 0.417167(200) 0.464567(200)
C20V C 0.693183(120) 0.433327(150) 0.486267(200)
C19V C 0.697723(140) 0.470267(140) 0.477267(200)
C18V C 0.675843(130) 0.483737(130) 0.498657(190)
C17V C 0.649423(100) 0.460257(120) 0.528997(170)
C22V C 0.644883(100) 0.423317(140) 0.537987(180)
C21V C 0.666763(100) 0.409847(150) 0.516667(200)
H13V H 0.66363 0.38457 0.52277
H14V H 0.62683 0.40727 0.55877
C31V C 0.624423(100) 0.474377(130) 0.553907(150)
N5W N 0.596803(100) 0.477187(120) 0.526427(130)
O3W O 0.511503(120) 0.411357(130) 0.545647(140)
C32W C 0.520733(600) 0.401767(900) 0.579367(600)
O4W O 0.549303(130) 0.398547(160) 0.587617(130)
C33W C 0.493333(500) 0.394567(500) 0.612367(500)
F1W F 0.474733(400) 0.416067(600) 0.612967(700)
F2W F 0.466173(190) 0.356677(180) 0.619147(190)
F3W F 0.515833(180) 0.406307(200) 0.648017(140)
C30W C 0.601433(600) 0.509767(500) 0.523867(600)
C29W C 0.573233(500) 0.515467(500) 0.497067(500)
C28W C 0.575733(600) 0.552067(600) 0.486767(600)
C27W C 0.546833(500) 0.551067(700) 0.461367(600)
C26W C 0.517933(140) 0.516147(200) 0.448417(190)
H18W H 0.49783 0.51547 0.43137
H19W H 0.54753 0.57487 0.45327
H20W H 0.59653 0.57647 0.49707
H21W H 0.62233 0.53147 0.53817
H22V H 0.64213 0.50057 0.56647
H23V H 0.60983 0.45527 0.57617
H11V H 0.67893 0.50897 0.49247
H12V H 0.71583 0.48637 0.45657
N4V N 0.939343(120) 0.456557(150) 0.482807(140)
C25V C 0.965633(400) 0.483967(600) 0.458467(500)
C24V C 0.956333(500) 0.514167(500) 0.446267(500)
H17V H 0.97443 0.53637 0.43037
C26V C 0.998213(140) 0.482067(200) 0.448417(190)
H18V H 1.01763 0.50217 0.43137
C27V C 1.004233(500) 0.453167(700) 0.461367(600)
H19V H 1.02733 0.45247 0.45327
C28V C 0.976333(600) 0.424267(600) 0.486767(600)
H20V H 0.97993 0.40347 0.49707
C29V C 0.942233(500) 0.426767(500) 0.497067(500)
C30V C 0.908333(600) 0.398567(500) 0.523867(600)
H21V H 0.90913 0.37767 0.53817
O3V O 0.899853(120) 0.488497(130) 0.545647(140)
C32V C 0.881033(600) 0.479267(900) 0.579367(600)
O4V O 0.849243(130) 0.450697(160) 0.587617(130)
C33V C 0.901233(500) 0.506667(500) 0.612367(500)
F1V F 0.941333(400) 0.525267(600) 0.612967(700)
F2V F 0.890503(190) 0.533827(180) 0.619147(190)
F3V F 0.890473(180) 0.484167(200) 0.648017(140)
H22X H 0.85843 0.35787 0.56647
H23X H 0.84543 0.39017 0.57617
H11X H 0.83003 0.32107 0.49247
H12X H 0.77053 0.28417 0.45657
N4X N 0.517213(120) 0.060657(150) 0.482807(140)
C25X C 0.518333(400) 0.034367(600) 0.458467(500)
C24X C 0.557833(500) 0.043667(500) 0.446267(500)
H17X H 0.56193 0.02557 0.43037
C26X C 0.483853(140) 0.001787(200) 0.448417(190)
H18X H 0.48453 -0.01763 0.43137
C27X C 0.448933(500) -0.004233(700) 0.461367(600)
H19X H 0.42513 -0.02733 0.45327
C28X C 0.447933(600) 0.023667(600) 0.486767(600)
H20X H 0.42353 0.02007 0.49707
C29X C 0.484533(500) 0.057767(500) 0.497067(500)
C30X C 0.490233(600) 0.091667(500) 0.523867(600)
H21X H 0.46853 0.09087 0.53817
O3X O 0.588643(120) 0.100147(130) 0.545647(140)
C32X C 0.598233(600) 0.118967(900) 0.579367(600)
O4X O 0.601453(130) 0.150757(160) 0.587617(130)
C33X C 0.605433(500) 0.098767(500) 0.612367(500)
F1X F 0.583933(400) 0.058667(600) 0.612967(700)
F2X F 0.643323(190) 0.109497(180) 0.619147(190)
F3X F 0.593693(180) 0.109527(200) 0.648017(140)
H22W H 0.49943 0.14157 0.56647
H23W H 0.54473 0.15457 0.57617
H11W H 0.49103 0.16997 0.49247
H12W H 0.51363 0.22947 0.45657
H6W H 0.62313 0.50287 0.35777
C4W C 0.693833(600) 0.516267(400) 0.313367(400)
H3W H 0.70773 0.51697 0.33757
C5W C 0.709833(400) 0.548367(400) 0.286567(500)
H4W H 0.73473 0.57107 0.29257
H15B H 0.70760 0.60500 0.23600
H16B H 0.68860 0.57510 0.19800
H6B H 0.83620 0.54640 0.30890
C4B C 0.8496(6) 0.4891(4) 0.3533(4)
H3B H 0.85030 0.47590 0.32910
C5B C 0.8817(4) 0.5052(4) 0.3801(5)
H4B H 0.90440 0.50300 0.37410
H15V H 0.93833 0.56407 0.43067
H16V H 0.90843 0.55317 0.46867
H6V H 0.87973 0.37687 0.35777
C4V C 0.822433(600) 0.306167(400) 0.313367(400)
H3V H 0.80923 0.29227 0.33757
C5V C 0.838533(400) 0.290167(400) 0.286567(500)
H4V H 0.83633 0.26527 0.29257
H15A H 0.89740 0.29240 0.23600
H16A H 0.88650 0.31140 0.19800
H6A H 0.71020 0.16380 0.30890
C4A C 0.6395(6) 0.1504(4) 0.3533(4)
H3A H 0.62560 0.14970 0.32910
C5A C 0.6235(4) 0.1183(4) 0.3801(5)
H4A H 0.59860 0.09560 0.37410
H15X H 0.62573 0.06167 0.43067
H16X H 0.64473 0.09157 0.46867
H6X H 0.49713 0.12027 0.35777
C4X C 0.483733(600) 0.177567(400) 0.313367(400)
H3X H 0.48303 0.19077 0.33757
C5X C 0.451633(400) 0.161467(400) 0.286567(500)
H4X H 0.42893 0.16367 0.29257
O5N O 0.336533(200) 0.312167(200) 0.130367(300)
C35N C 0.319633(700) 0.327367(1100) 0.144767(900)
O6N O 0.326133(800) 0.363867(800) 0.133667(900)
C36N C 0.286333(700) 0.307267(700) 0.175967(900)
F7N F 0.291533(600) 0.279967(600) 0.195067(700)
F8N F 0.284933(600) 0.332567(600) 0.201967(700)
F9N F 0.252733(600) 0.289967(600) 0.153167(700)
O8N O 0.423033(1100) 0.387067(1000) 0.098567(1000)
C37N C 0.434733(800) 0.375267(800) 0.124867(900)
C34N C 0.467533(400) 0.414067(700) 0.137367(500)
F4N F 0.467573(150) 0.448667(200) 0.145637(180)
F5N F 0.492193(170) 0.422267(200) 0.170537(150)
F6N F 0.499993(120) 0.434767(170) 0.113077(150)
O7N O 0.434833(1000) 0.352567(800) 0.144967(1000)
#END
