####################################################################### 
# 
# This file contains crystal structure data downloaded from the 
# Cambridge Structural Database (CSD) hosted by the Cambridge 
# Crystallographic Data Centre (CCDC).
# 
# Full information about CCDC data access policies and citation 
# guidelines are available at http://www.ccdc.cam.ac.uk/access/V1 
# 
# Audit and citation data items may have been added by the CCDC. 
# Please retain this information to preserve the provenance of 
# this file and to allow appropriate attribution of the data. 
# 
#######################################################################

data_5
_audit_block_doi                 10.5517/ccw9rtq
_database_code_depnum_ccdc_archive 'CCDC 813744'
loop_
_citation_id
_citation_doi
_citation_year
1 10.1002/anie.201101957 2011
_audit_update_record             
;
2011-02-17 deposited with the CCDC.	2024-07-10 downloaded from the CCDC.
;
#TrackingRef 'CCDC-813744.cif'


_audit_creation_method           SHELXL-97
_chemical_name_systematic        
;
?
;
_chemical_name_common            ?
_chemical_melting_point          ?
_chemical_formula_moiety         ?
_chemical_formula_sum            'C43 H27 In3 N0 O19'
_chemical_formula_weight         1192.11

loop_
_atom_type_symbol
_atom_type_description
_atom_type_scat_dispersion_real
_atom_type_scat_dispersion_imag
_atom_type_scat_source
C C 0.0033 0.0016 'International Tables Vol C Tables 4.2.6.8 and 6.1.1.4'
H H 0.0000 0.0000 'International Tables Vol C Tables 4.2.6.8 and 6.1.1.4'
N N 0.0061 0.0033 'International Tables Vol C Tables 4.2.6.8 and 6.1.1.4'
O O 0.0106 0.0060 'International Tables Vol C Tables 4.2.6.8 and 6.1.1.4'
In In -0.7276 1.3100 'International Tables Vol C Tables 4.2.6.8 and 6.1.1.4'

_symmetry_cell_setting           hexagonal
_symmetry_space_group_name_H-M   R32

loop_
_symmetry_equiv_pos_as_xyz
'x, y, z'
'-y, x-y, z'
'-x+y, -x, z'
'y, x, -z'
'x-y, -y, -z'
'-x, -x+y, -z'
'x+2/3, y+1/3, z+1/3'
'-y+2/3, x-y+1/3, z+1/3'
'-x+y+2/3, -x+1/3, z+1/3'
'y+2/3, x+1/3, -z+1/3'
'x-y+2/3, -y+1/3, -z+1/3'
'-x+2/3, -x+y+1/3, -z+1/3'
'x+1/3, y+2/3, z+2/3'
'-y+1/3, x-y+2/3, z+2/3'
'-x+y+1/3, -x+2/3, z+2/3'
'y+1/3, x+2/3, -z+2/3'
'x-y+1/3, -y+2/3, -z+2/3'
'-x+1/3, -x+y+2/3, -z+2/3'

_cell_length_a                   23.312(4)
_cell_length_b                   23.312(4)
_cell_length_c                   26.665(9)
_cell_angle_alpha                90.00
_cell_angle_beta                 90.00
_cell_angle_gamma                120.00
_cell_volume                     12550(5)
_cell_formula_units_Z            9
_cell_measurement_temperature    296(2)
_cell_measurement_reflns_used    2540
_cell_measurement_theta_min      2.291
_cell_measurement_theta_max      24.731

_exptl_crystal_description       block
_exptl_crystal_colour            colorless
_exptl_crystal_size_max          0.18
_exptl_crystal_size_mid          0.16
_exptl_crystal_size_min          0.16
_exptl_crystal_density_meas      ?
_exptl_crystal_density_diffrn    1.420
_exptl_crystal_density_method    'not measured'
_exptl_crystal_F_000             5256
_exptl_absorpt_coefficient_mu    1.292
_exptl_absorpt_correction_type   empirical
_exptl_absorpt_correction_T_min  0.6451
_exptl_absorpt_correction_T_max  0.7452
_exptl_absorpt_process_details   SADABS

_exptl_special_details           
;
?
;

_diffrn_ambient_temperature      296(2)
_diffrn_radiation_wavelength     0.71073
_diffrn_radiation_type           MoK\a
_diffrn_radiation_source         'fine-focus sealed tube'
_diffrn_radiation_monochromator  graphite
_diffrn_measurement_device_type  'Bruker APEX II Diffractometer'
_diffrn_measurement_method       'omega scan'
_diffrn_detector_area_resol_mean ?
_diffrn_standards_number         0
_diffrn_standards_interval_count 0
_diffrn_standards_interval_time  ?
_diffrn_standards_decay_%        0
_diffrn_reflns_number            8454
_diffrn_reflns_av_R_equivalents  0.0384
_diffrn_reflns_av_sigmaI/netI    0.0688
_diffrn_reflns_limit_h_min       -12
_diffrn_reflns_limit_h_max       27
_diffrn_reflns_limit_k_min       -22
_diffrn_reflns_limit_k_max       21
_diffrn_reflns_limit_l_min       -31
_diffrn_reflns_limit_l_max       21
_diffrn_reflns_theta_min         1.75
_diffrn_reflns_theta_max         25.08
_reflns_number_total             4738
_reflns_number_gt                4154
_reflns_threshold_expression     >2sigma(I)

_computing_data_collection       ?
_computing_cell_refinement       ?
_computing_data_reduction        ?
_computing_structure_solution    'SHELXS-97 (Sheldrick, 1990)'
_computing_structure_refinement  'SHELXL-97 (Sheldrick, 1997)'
_computing_molecular_graphics    ?
_computing_publication_material  ?

_refine_special_details          
;
Refinement of F^2^ against ALL reflections. The weighted R-factor wR and
goodness of fit S are based on F^2^, conventional R-factors R are based
on F, with F set to zero for negative F^2^. The threshold expression of
F^2^ > 2sigma(F^2^) is used only for calculating R-factors(gt) etc. and is
not relevant to the choice of reflections for refinement. R-factors based
on F^2^ are statistically about twice as large as those based on F, and R-
factors based on ALL data will be even larger.
;

_refine_ls_structure_factor_coef Fsqd
_refine_ls_matrix_type           full
_refine_ls_weighting_scheme      calc
_refine_ls_weighting_details     
'calc w=1/[\s^2^(Fo^2^)+(0.0675P)^2^+397.0590P] where P=(Fo^2^+2Fc^2^)/3'
_atom_sites_solution_primary     direct
_atom_sites_solution_secondary   difmap
_atom_sites_solution_hydrogens   geom
_refine_ls_hydrogen_treatment    constr
_refine_ls_extinction_method     none
_refine_ls_extinction_coef       ?
_refine_ls_abs_structure_details 'Flack H D (1983), Acta Cryst. A39, 876-881'
_refine_ls_abs_structure_Flack   0.08(7)
_refine_ls_number_reflns         4738
_refine_ls_number_parameters     296
_refine_ls_number_restraints     12
_refine_ls_R_factor_all          0.0782
_refine_ls_R_factor_gt           0.0664
_refine_ls_wR_factor_ref         0.1765
_refine_ls_wR_factor_gt          0.1703
_refine_ls_goodness_of_fit_ref   1.134
_refine_ls_restrained_S_all      1.136
_refine_ls_shift/su_max          0.000
_refine_ls_shift/su_mean         0.000

loop_
_atom_site_label
_atom_site_type_symbol
_atom_site_fract_x
_atom_site_fract_y
_atom_site_fract_z
_atom_site_U_iso_or_equiv
_atom_site_adp_type
_atom_site_occupancy
_atom_site_symmetry_multiplicity
_atom_site_calc_flag
_atom_site_refinement_flags
_atom_site_disorder_assembly
_atom_site_disorder_group
In1 In 0.69670(5) 0.97275(5) 0.56286(3) 0.0219(2) Uani 1 1 d . . .
In2 In 0.84064(6) 1.0000 0.5000 0.0311(3) Uani 1 2 d S . .
O1 O 0.1985(5) 0.6979(6) 0.2451(3) 0.043(3) Uani 1 1 d . . .
O2 O 0.1131(4) 0.7067(5) 0.2782(3) 0.032(2) Uani 1 1 d . . .
O3 O 0.3059(5) 0.7853(6) 0.4640(3) 0.046(3) Uani 1 1 d U . .
O4 O 0.6197(5) 0.9538(5) 0.4491(3) 0.031(2) Uani 1 1 d . . .
O5 O 0.6068(5) 0.9042(4) 0.5242(3) 0.031(2) Uani 1 1 d . . .
O6 O 0.7953(6) 0.8989(5) 0.5265(3) 0.046(3) Uani 1 1 d . . .
O7 O 0.7191(5) 0.8953(5) 0.5818(4) 0.036(2) Uani 1 1 d . . .
O8 O 0.7638(7) 0.6667 0.6667 0.051(5) Uani 1 2 d S . .
O9 O 0.7518(5) 1.0000 0.5000 0.025(3) Uani 1 2 d S . .
O10 O 0.6354(5) 0.9444(5) 0.6294(3) 0.033(2) Uani 1 1 d . . .
C1 C 0.1691(7) 0.7097(7) 0.2797(5) 0.032(3) Uani 1 1 d . . .
C2 C 0.2054(6) 0.7289(7) 0.3289(4) 0.030(3) Uani 1 1 d . . .
C3 C 0.1834(7) 0.7515(7) 0.3681(5) 0.031(3) Uani 1 1 d . . .
H3B H 0.1445 0.7530 0.3647 0.038 Uiso 1 1 calc R . .
C4 C 0.2188(6) 0.7720(8) 0.4128(4) 0.036(3) Uani 1 1 d . . .
H4A H 0.2052 0.7891 0.4387 0.043 Uiso 1 1 calc R . .
C5 C 0.2743(7) 0.7665(9) 0.4177(5) 0.040(4) Uani 1 1 d . . .
C6 C 0.2967(8) 0.7445(8) 0.3808(5) 0.042(4) Uani 1 1 d . . .
H6A H 0.3345 0.7412 0.3852 0.051 Uiso 1 1 calc R . .
C7 C 0.2627(6) 0.7266(8) 0.3358(5) 0.036(4) Uani 1 1 d . . .
H7A H 0.2790 0.7127 0.3095 0.043 Uiso 1 1 calc R . .
C8 C 0.5843(6) 0.9164(6) 0.4842(4) 0.023(2) Uani 1 1 d . . .
C9 C 0.5097(6) 0.8797(7) 0.4776(4) 0.029(3) Uani 1 1 d . . .
C10 C 0.4697(7) 0.8319(8) 0.5110(5) 0.044(4) Uani 1 1 d . . .
H10A H 0.4886 0.8224 0.5382 0.053 Uiso 1 1 calc R . .
C11 C 0.4015(8) 0.7972(9) 0.5051(5) 0.045(4) Uani 1 1 d . . .
H11A H 0.3743 0.7634 0.5271 0.054 Uiso 1 1 calc R . .
C12 C 0.3752(7) 0.8149(8) 0.4653(4) 0.035(3) Uani 1 1 d . . .
C13 C 0.4194(8) 0.8640(9) 0.4296(5) 0.045(4) Uani 1 1 d . . .
H13A H 0.4024 0.8736 0.4013 0.054 Uiso 1 1 calc R . .
C14 C 0.4816(7) 0.8939(8) 0.4373(5) 0.036(4) Uani 1 1 d . . .
H14A H 0.5093 0.9266 0.4148 0.043 Uiso 1 1 calc R . .
C15 C 0.7577(7) 0.8754(7) 0.5649(4) 0.030(3) Uani 1 1 d . . .
C16 C 0.7591(8) 0.8206(8) 0.5924(5) 0.032(3) Uani 1 1 d . . .
C17 C 0.7216(7) 0.7955(7) 0.6362(5) 0.036(3) Uani 1 1 d . . .
H17A H 0.6962 0.8132 0.6481 0.044 Uiso 1 1 calc R . .
C18 C 0.7227(9) 0.7443(8) 0.6616(7) 0.050(4) Uani 1 1 d . . .
H18A H 0.6994 0.7281 0.6914 0.060 Uiso 1 1 calc R . .
C19 C 0.7602(9) 0.7172(9) 0.6409(6) 0.046(4) Uani 1 1 d . . .
C20 C 0.7940(7) 0.7401(8) 0.5980(6) 0.044(4) Uani 1 1 d . . .
H20A H 0.8167 0.7203 0.5847 0.053 Uiso 1 1 calc R . .
C21 C 0.7953(8) 0.7924(9) 0.5736(5) 0.041(4) Uani 1 1 d . . .
H21A H 0.8203 0.8092 0.5445 0.049 Uiso 1 1 calc R . .
C22 C 0.6503(8) 0.9836(8) 0.6667 0.035(5) Uani 1 2 d S . .
O1W O 0.9364(7) 1.0000 0.5000 0.060(4) Uani 1 2 d SU . .

loop_
_atom_site_aniso_label
_atom_site_aniso_U_11
_atom_site_aniso_U_22
_atom_site_aniso_U_33
_atom_site_aniso_U_23
_atom_site_aniso_U_13
_atom_site_aniso_U_12
In1 0.0240(5) 0.0286(5) 0.0137(3) -0.0020(4) -0.0017(4) 0.0136(4)
In2 0.0326(6) 0.0474(9) 0.0181(6) -0.0018(6) -0.0009(3) 0.0237(5)
O1 0.052(7) 0.069(8) 0.020(4) -0.005(5) -0.004(4) 0.039(6)
O2 0.011(4) 0.050(7) 0.029(4) 0.000(4) -0.007(4) 0.010(4)
O3 0.021(5) 0.070(7) 0.031(5) 0.001(5) -0.013(4) 0.011(5)
O4 0.028(5) 0.033(5) 0.025(4) -0.004(4) -0.002(4) 0.010(4)
O5 0.036(6) 0.030(5) 0.018(4) -0.002(4) -0.006(4) 0.009(4)
O6 0.069(8) 0.051(7) 0.030(5) 0.002(5) 0.003(5) 0.039(7)
O7 0.041(6) 0.036(6) 0.038(5) -0.003(4) 0.002(5) 0.024(5)
O8 0.033(6) 0.029(8) 0.091(13) 0.030(8) 0.015(4) 0.014(4)
O9 0.035(5) 0.023(7) 0.014(5) 0.001(5) 0.001(3) 0.012(3)
O10 0.039(5) 0.035(5) 0.017(4) -0.001(4) 0.011(4) 0.011(5)
C1 0.037(8) 0.022(7) 0.025(6) 0.008(6) -0.001(6) 0.006(7)
C2 0.027(7) 0.019(7) 0.030(6) 0.005(6) -0.008(6) 0.001(6)
C3 0.021(7) 0.036(8) 0.029(7) 0.006(6) -0.004(5) 0.008(6)
C4 0.015(7) 0.051(10) 0.024(6) -0.004(7) 0.002(5) 0.003(7)
C5 0.025(8) 0.061(11) 0.016(6) -0.004(7) -0.004(5) 0.008(8)
C6 0.040(9) 0.051(10) 0.035(8) 0.001(7) -0.011(7) 0.022(8)
C7 0.017(7) 0.050(10) 0.030(7) 0.000(7) -0.005(6) 0.009(7)
C8 0.024(7) 0.017(6) 0.023(6) -0.007(5) -0.008(5) 0.006(6)
C9 0.028(7) 0.040(8) 0.015(5) -0.001(6) -0.007(5) 0.013(7)
C10 0.032(8) 0.060(11) 0.025(7) -0.009(7) -0.007(6) 0.012(8)
C11 0.035(9) 0.068(12) 0.023(7) 0.013(7) 0.000(6) 0.018(8)
C12 0.027(7) 0.061(10) 0.020(6) -0.009(7) 0.001(5) 0.024(8)
C13 0.042(9) 0.065(12) 0.026(7) 0.003(7) -0.001(7) 0.025(9)
C14 0.022(7) 0.047(9) 0.031(7) -0.002(6) -0.012(6) 0.012(7)
C15 0.041(8) 0.038(8) 0.013(5) -0.003(5) -0.011(6) 0.023(7)
C16 0.032(8) 0.037(9) 0.028(6) -0.001(6) -0.006(6) 0.018(7)
C17 0.034(8) 0.041(9) 0.041(8) -0.003(7) 0.001(7) 0.024(7)
C18 0.057(11) 0.049(10) 0.059(10) 0.025(8) 0.012(9) 0.038(9)
C19 0.049(10) 0.051(11) 0.058(10) 0.001(8) -0.007(8) 0.040(9)
C20 0.031(8) 0.049(10) 0.057(10) 0.000(8) -0.001(7) 0.023(8)
C21 0.046(10) 0.057(11) 0.036(8) -0.003(8) -0.007(7) 0.037(8)
C22 0.031(7) 0.031(7) 0.017(8) 0.000(5) 0.000(5) -0.003(10)
O1W 0.049(6) 0.088(8) 0.057(8) -0.001(7) -0.001(3) 0.044(4)

_geom_special_details            
;
All esds (except the esd in the dihedral angle between two l.s. planes)
are estimated using the full covariance matrix. The cell esds are taken
into account individually in the estimation of esds in distances, angles
and torsion angles; correlations between esds in cell parameters are only
used when they are defined by crystal symmetry. An approximate (isotropic)
treatment of cell esds is used for estimating esds involving l.s. planes.
;

loop_
_geom_bond_atom_site_label_1
_geom_bond_atom_site_label_2
_geom_bond_distance
_geom_bond_site_symmetry_2
_geom_bond_publ_flag
In1 O9 2.012(6) . ?
In1 O5 2.158(9) . ?
In1 O10 2.164(8) . ?
In1 O7 2.175(10) . ?
In1 O4 2.186(9) 5_676 ?
In1 O2 2.205(9) 7 ?
In2 O9 2.070(13) . ?
In2 O6 2.164(11) . ?
In2 O6 2.164(11) 5_676 ?
In2 O1 2.194(9) 7 ?
In2 O1 2.194(9) 17_665 ?
In2 O1W 2.233(16) . ?
O1 C1 1.258(17) . ?
O1 In2 2.194(9) 13_444 ?
O2 C1 1.273(17) . ?
O2 In1 2.205(8) 13_444 ?
O3 C5 1.390(15) . ?
O3 C12 1.404(16) . ?
O4 C8 1.264(15) . ?
O4 In1 2.186(9) 5_676 ?
O5 C8 1.283(14) . ?
O6 C15 1.278(16) . ?
O7 C15 1.283(17) . ?
O8 C19 1.402(17) . ?
O8 C19 1.402(17) 11_566 ?
O9 In1 2.012(6) 5_676 ?
O10 C22 1.275(12) . ?
C1 C2 1.504(17) . ?
C2 C7 1.37(2) . ?
C2 C3 1.381(19) . ?
C3 C4 1.391(17) . ?
C4 C5 1.37(2) . ?
C5 C6 1.33(2) . ?
C6 C7 1.383(18) . ?
C8 C9 1.516(18) . ?
C9 C10 1.368(19) . ?
C9 C14 1.382(18) . ?
C10 C11 1.39(2) . ?
C11 C12 1.387(19) . ?
C12 C13 1.45(2) . ?
C13 C14 1.27(2) . ?
C15 C16 1.486(19) . ?
C16 C21 1.40(2) . ?
C16 C17 1.40(2) . ?
C17 C18 1.38(2) . ?
C18 C19 1.42(2) . ?
C19 C20 1.34(2) . ?
C20 C21 1.37(2) . ?
C22 O10 1.275(12) 10_456 ?

loop_
_geom_angle_atom_site_label_1
_geom_angle_atom_site_label_2
_geom_angle_atom_site_label_3
_geom_angle
_geom_angle_site_symmetry_1
_geom_angle_site_symmetry_3
_geom_angle_publ_flag
O9 In1 O5 93.8(3) . . ?
O9 In1 O10 178.2(4) . . ?
O5 In1 O10 85.2(3) . . ?
O9 In1 O7 94.3(4) . . ?
O5 In1 O7 92.5(4) . . ?
O10 In1 O7 87.3(4) . . ?
O9 In1 O4 92.2(3) . 5_676 ?
O5 In1 O4 86.2(4) . 5_676 ?
O10 In1 O4 86.2(4) . 5_676 ?
O7 In1 O4 173.4(3) . 5_676 ?
O9 In1 O2 94.1(3) . 7 ?
O5 In1 O2 172.0(3) . 7 ?
O10 In1 O2 86.9(3) . 7 ?
O7 In1 O2 87.9(4) . 7 ?
O4 In1 O2 92.5(3) 5_676 7 ?
O9 In2 O6 93.2(3) . . ?
O9 In2 O6 93.2(3) . 5_676 ?
O6 In2 O6 173.6(6) . 5_676 ?
O9 In2 O1 95.4(3) . 7 ?
O6 In2 O1 87.4(4) . 7 ?
O6 In2 O1 92.0(4) 5_676 7 ?
O9 In2 O1 95.4(3) . 17_665 ?
O6 In2 O1 92.0(4) . 17_665 ?
O6 In2 O1 87.4(4) 5_676 17_665 ?
O1 In2 O1 169.2(5) 7 17_665 ?
O9 In2 O1W 180.000(5) . . ?
O6 In2 O1W 86.8(3) . . ?
O6 In2 O1W 86.8(3) 5_676 . ?
O1 In2 O1W 84.6(3) 7 . ?
O1 In2 O1W 84.6(3) 17_665 . ?
C1 O1 In2 133.7(9) . 13_444 ?
C1 O2 In1 124.7(9) . 13_444 ?
C5 O3 C12 118.4(10) . . ?
C8 O4 In1 137.4(8) . 5_676 ?
C8 O5 In1 125.9(8) . . ?
C15 O6 In2 125.8(9) . . ?
C15 O7 In1 136.3(9) . . ?
C19 O8 C19 122.6(18) . 11_566 ?
In1 O9 In1 122.5(6) 5_676 . ?
In1 O9 In2 118.8(3) 5_676 . ?
In1 O9 In2 118.8(3) . . ?
C22 O10 In1 121.3(9) . . ?
O1 C1 O2 128.4(12) . . ?
O1 C1 C2 114.8(13) . . ?
O2 C1 C2 116.8(12) . . ?
C7 C2 C3 117.9(12) . . ?
C7 C2 C1 121.1(13) . . ?
C3 C2 C1 120.9(13) . . ?
C2 C3 C4 120.6(13) . . ?
C5 C4 C3 118.5(13) . . ?
C6 C5 C4 122.3(13) . . ?
C6 C5 O3 122.1(14) . . ?
C4 C5 O3 115.6(13) . . ?
C5 C6 C7 118.9(15) . . ?
C2 C7 C6 121.7(14) . . ?
O4 C8 O5 124.7(12) . . ?
O4 C8 C9 118.2(11) . . ?
O5 C8 C9 116.9(10) . . ?
C10 C9 C14 119.4(13) . . ?
C10 C9 C8 120.4(12) . . ?
C14 C9 C8 120.2(12) . . ?
C9 C10 C11 121.2(14) . . ?
C10 C11 C12 117.5(14) . . ?
C11 C12 O3 116.4(13) . . ?
C11 C12 C13 119.5(13) . . ?
O3 C12 C13 124.0(13) . . ?
C14 C13 C12 119.5(14) . . ?
C13 C14 C9 122.7(15) . . ?
O6 C15 O7 125.4(13) . . ?
O6 C15 C16 117.3(12) . . ?
O7 C15 C16 117.2(12) . . ?
C21 C16 C17 120.0(14) . . ?
C21 C16 C15 120.3(13) . . ?
C17 C16 C15 119.7(12) . . ?
C18 C17 C16 119.5(14) . . ?
C17 C18 C19 118.4(15) . . ?
C20 C19 O8 118.9(15) . . ?
C20 C19 C18 121.5(15) . . ?
O8 C19 C18 119.6(15) . . ?
C19 C20 C21 120.5(16) . . ?
C20 C21 C16 119.9(15) . . ?
O10 C22 O10 120.8(16) . 10_456 ?

_diffrn_measured_fraction_theta_max 0.999
_diffrn_reflns_theta_full        25.08
_diffrn_measured_fraction_theta_full 0.999
_refine_diff_density_max         1.341
_refine_diff_density_min         -1.356
_refine_diff_density_rms         0.193


