####################################################################### 
# 
# This file contains crystal structure data downloaded from the 
# Cambridge Structural Database (CSD) hosted by the Cambridge 
# Crystallographic Data Centre (CCDC).
# 
# Full information about CCDC data access policies and citation 
# guidelines are available at http://www.ccdc.cam.ac.uk/access/V1 
# 
# Audit and citation data items may have been added by the CCDC. 
# Please retain this information to preserve the provenance of 
# this file and to allow appropriate attribution of the data. 
# 
#######################################################################

data_sqeez
_audit_block_doi                 10.5517/cc6yptm
_database_code_depnum_ccdc_archive 'CCDC 207291'
loop_
_citation_id
_citation_doi
_citation_year
1 10.1023/B:JOCC.0000026274.31401.7f 2004
_audit_update_record             
;
2003-03-31 deposited with the CCDC.	2024-07-10 downloaded from the CCDC.
;

_audit_creation_method           SHELXL-97
_chemical_name_systematic        
; 
? 
;
_chemical_name_common            ?
_chemical_melting_point          ?
_chemical_formula_moiety         ?
_chemical_formula_sum            'C26 H22 Co N6 O8 S2'
_chemical_formula_weight         669.55

loop_
_atom_type_symbol
_atom_type_description
_atom_type_scat_dispersion_real
_atom_type_scat_dispersion_imag
_atom_type_scat_source
C C 0.0033 0.0016 'International Tables Vol C Tables 4.2.6.8 and 6.1.1.4'
H H 0.0000 0.0000 'International Tables Vol C Tables 4.2.6.8 and 6.1.1.4'
N N 0.0061 0.0033 'International Tables Vol C Tables 4.2.6.8 and 6.1.1.4'
O O 0.0106 0.0060 'International Tables Vol C Tables 4.2.6.8 and 6.1.1.4'
S S 0.1246 0.1234 'International Tables Vol C Tables 4.2.6.8 and 6.1.1.4'
Co Co 0.3494 0.9721 'International Tables Vol C Tables 4.2.6.8 and 6.1.1.4'

_symmetry_cell_setting           triclinic
_symmetry_space_group_name_H-M   P-1

loop_
_symmetry_equiv_pos_as_xyz
'x, y, z'
'-x, -y, -z'

_cell_length_a                   7.6893(5)
_cell_length_b                   11.0169(7)
_cell_length_c                   11.2369(7)
_cell_angle_alpha                66.2610(10)
_cell_angle_beta                 74.4160(10)
_cell_angle_gamma                74.6740(10)
_cell_volume                     826.06(9)
_cell_formula_units_Z            1
_cell_measurement_temperature    150.0(2)
_cell_measurement_reflns_used    4266
_cell_measurement_theta_min      2.306
_cell_measurement_theta_max      25.025

_exptl_crystal_description       block
_exptl_crystal_colour            orange
_exptl_crystal_size_max          0.48
_exptl_crystal_size_mid          0.42
_exptl_crystal_size_min          0.24
_exptl_crystal_density_meas      ?
_exptl_crystal_density_diffrn    1.346
_exptl_crystal_density_method    'not measured'
_exptl_crystal_F_000             343
_exptl_absorpt_coefficient_mu    0.698
_exptl_absorpt_correction_type   multi-scan
_exptl_absorpt_correction_T_min  0.5550
_exptl_absorpt_correction_T_max  0.8620
_exptl_absorpt_process_details   '(SADABS, Bruker, 1997)'

_exptl_special_details           
; 
? 
;

_diffrn_ambient_temperature      150.0(2)
_diffrn_radiation_wavelength     0.71073
_diffrn_radiation_type           MoK\a
_diffrn_radiation_source         'fine-focus sealed tube'
_diffrn_radiation_monochromator  graphite
_diffrn_measurement_device_type  'Bruker SMART APEX CCD diffractometer'
_diffrn_measurement_method       'omega scans'
_diffrn_detector_area_resol_mean ?
_diffrn_standards_number         ?
_diffrn_standards_interval_count ?
_diffrn_standards_interval_time  ?
_diffrn_standards_decay_%        <1
_diffrn_reflns_number            5240
_diffrn_reflns_av_R_equivalents  0.0265
_diffrn_reflns_av_sigmaI/netI    0.0537
_diffrn_reflns_limit_h_min       -8
_diffrn_reflns_limit_h_max       9
_diffrn_reflns_limit_k_min       -13
_diffrn_reflns_limit_k_max       13
_diffrn_reflns_limit_l_min       -13
_diffrn_reflns_limit_l_max       13
_diffrn_reflns_theta_min         2.01
_diffrn_reflns_theta_max         25.02
_reflns_number_total             2902
_reflns_number_gt                2339
_reflns_threshold_expression     >2sigma(I)

_computing_data_collection       'SMART NT V5.625 (Bruker, 2000)'
_computing_cell_refinement       'SAINT+ NT V6.02a (Bruker, 1998)'
_computing_data_reduction        'SAINT+ NT V6.02a'
_computing_structure_solution    'SHELXS-97 (Sheldrick, 1990)'
_computing_structure_refinement  'SHELXL-97 (Sheldrick, 1997)'
_computing_molecular_graphics    'SHELXTL V5.1 (Sheldrick, 1997)'
_computing_publication_material  'SHELXTL V5.1'

_refine_special_details          
; 
Refinement of F^2^ against ALL reflections.  The weighted R-factor wR and 
goodness of fit S are based on F^2^, conventional R-factors R are based 
on F, with F set to zero for negative F^2^. The threshold expression of 
F^2^ > 2sigma(F^2^) is used only for calculating R-factors(gt) etc. and is 
not relevant to the choice of reflections for refinement.  R-factors based 
on F^2^ are statistically about twice as large as those based on F, and R- 
factors based on ALL data will be even larger. 
;

_refine_ls_structure_factor_coef Fsqd
_refine_ls_matrix_type           full
_refine_ls_weighting_scheme      calc
_refine_ls_weighting_details     
'calc w=1/[\s^2^(Fo^2^)+(0.0349P)^2^+0.0000P] where P=(Fo^2^+2Fc^2^)/3'
_atom_sites_solution_primary     direct
_atom_sites_solution_secondary   difmap
_atom_sites_solution_hydrogens   geom
_refine_ls_hydrogen_treatment    mixed
_refine_ls_extinction_method     SHELXL
_refine_ls_extinction_coef       0.0106(11)
_refine_ls_extinction_expression Fc^*^=kFc[1+0.001xFc^2^\l^3^/sin(2\q)]^-1/4^
_refine_ls_number_reflns         2902
_refine_ls_number_parameters     214
_refine_ls_number_restraints     2
_refine_ls_R_factor_all          0.0379
_refine_ls_R_factor_gt           0.0341
_refine_ls_wR_factor_ref         0.0820
_refine_ls_wR_factor_gt          0.0812
_refine_ls_goodness_of_fit_ref   1.013
_refine_ls_restrained_S_all      1.012
_refine_ls_shift/su_max          0.000
_refine_ls_shift/su_mean         0.000

loop_
_atom_site_label
_atom_site_type_symbol
_atom_site_fract_x
_atom_site_fract_y
_atom_site_fract_z
_atom_site_U_iso_or_equiv
_atom_site_adp_type
_atom_site_occupancy
_atom_site_symmetry_multiplicity
_atom_site_calc_flag
_atom_site_refinement_flags
_atom_site_disorder_assembly
_atom_site_disorder_group
Co1 Co 0.0000 0.0000 0.0000 0.01935(15) Uani 1 2 d S . .
C1 C 0.1840(3) -0.2083(2) 0.2367(2) 0.0232(5) Uani 1 1 d . . .
H1 H 0.2920 -0.1858 0.1739 0.016(6) Uiso 1 1 calc R . .
C2 C 0.2032(3) -0.3065(2) 0.3614(2) 0.0249(6) Uani 1 1 d . . .
C3 C 0.0454(4) -0.3362(2) 0.4527(2) 0.0315(6) Uani 1 1 d . . .
H3 H 0.0530 -0.4018 0.5386 0.033(7) Uiso 1 1 calc R . .
C4 C -0.1223(4) -0.2707(2) 0.4189(2) 0.0317(6) Uani 1 1 d . . .
H4 H -0.2322 -0.2896 0.4808 0.037(7) Uiso 1 1 calc R . .
C5 C -0.1283(4) -0.1761(2) 0.2925(2) 0.0268(6) Uani 1 1 d . . .
H5 H -0.2450 -0.1316 0.2694 0.025(7) Uiso 1 1 calc R . .
C6 C 0.3865(4) -0.3748(2) 0.3882(2) 0.0289(6) Uani 1 1 d . . .
H6 H 0.4913 -0.3455 0.3251 0.031(7) Uiso 1 1 calc R . .
C11 C -0.0768(3) 0.2468(2) 0.1045(2) 0.0231(5) Uani 1 1 d . . .
C12 C 0.0092(3) 0.3355(2) 0.1341(2) 0.0216(5) Uani 1 1 d . . .
C13 C -0.0769(4) 0.4377(2) 0.1836(2) 0.0272(6) Uani 1 1 d . . .
H13 H -0.2067 0.4570 0.2071 0.027(7) Uiso 1 1 calc R . .
C14 C 0.0334(4) 0.5106(2) 0.1975(2) 0.0296(6) Uani 1 1 d . . .
H14 H -0.0219 0.5820 0.2299 0.025(6) Uiso 1 1 calc R . .
C15 C 0.2237(4) 0.4811(2) 0.1650(3) 0.0325(6) Uani 1 1 d . . .
H15 H 0.2958 0.5325 0.1760 0.047(8) Uiso 1 1 calc R . .
C16 C 0.3101(4) 0.3786(2) 0.1169(2) 0.0280(6) Uani 1 1 d . . .
H16 H 0.4399 0.3571 0.0955 0.021(6) Uiso 1 1 calc R . .
C17 C 0.1969(3) 0.3093(2) 0.1018(2) 0.0235(5) Uani 1 1 d . . .
N1 N 0.0216(3) -0.14444(17) 0.20147(18) 0.0222(5) Uani 1 1 d . . .
N2 N 0.4068(3) -0.4737(2) 0.4961(2) 0.0338(5) Uani 1 1 d . . .
N11 N 0.0463(3) 0.15986(17) 0.05258(18) 0.0213(4) Uani 1 1 d . . .
O1 O -0.2721(2) 0.06054(16) 0.06276(17) 0.0246(4) Uani 1 1 d D . .
H1A H -0.289(4) 0.123(2) 0.091(3) 0.053(10) Uiso 1 1 d D . .
H1B H -0.377(3) 0.044(2) 0.072(2) 0.029(7) Uiso 1 1 d D . .
O11 O -0.2459(2) 0.25416(16) 0.12707(18) 0.0317(4) Uani 1 1 d . . .
O12 O 0.3564(2) 0.05925(15) 0.11820(17) 0.0292(4) Uani 1 1 d . . .
O13 O 0.3409(2) 0.22794(16) -0.10039(16) 0.0304(4) Uani 1 1 d . . .
S1 S 0.25425(8) 0.17993(5) 0.03613(6) 0.02294(17) Uani 1 1 d . . .

loop_
_atom_site_aniso_label
_atom_site_aniso_U_11
_atom_site_aniso_U_22
_atom_site_aniso_U_33
_atom_site_aniso_U_23
_atom_site_aniso_U_13
_atom_site_aniso_U_12
Co1 0.0125(3) 0.0211(2) 0.0223(3) -0.00445(19) -0.0071(2) -0.00105(18)
C1 0.0210(14) 0.0228(12) 0.0250(13) -0.0055(10) -0.0085(12) -0.0033(10)
C2 0.0270(15) 0.0234(12) 0.0252(13) -0.0049(11) -0.0129(12) -0.0036(11)
C3 0.0356(17) 0.0312(13) 0.0222(14) -0.0011(11) -0.0093(13) -0.0063(12)
C4 0.0263(16) 0.0381(14) 0.0248(14) -0.0048(12) -0.0038(13) -0.0077(12)
C5 0.0218(15) 0.0296(13) 0.0273(14) -0.0075(11) -0.0086(12) -0.0020(11)
C6 0.0269(16) 0.0294(13) 0.0272(14) -0.0028(12) -0.0104(13) -0.0064(11)
C11 0.0218(15) 0.0233(12) 0.0221(13) -0.0038(10) -0.0089(11) -0.0024(10)
C12 0.0200(14) 0.0219(11) 0.0202(12) -0.0037(10) -0.0074(11) -0.0016(10)
C13 0.0255(16) 0.0266(12) 0.0247(13) -0.0065(11) -0.0057(12) 0.0000(11)
C14 0.0396(17) 0.0251(12) 0.0246(13) -0.0098(11) -0.0097(13) -0.0015(12)
C15 0.0348(17) 0.0314(13) 0.0360(15) -0.0106(12) -0.0136(14) -0.0085(12)
C16 0.0206(15) 0.0275(13) 0.0372(15) -0.0102(12) -0.0108(12) -0.0029(11)
C17 0.0239(15) 0.0205(11) 0.0252(13) -0.0064(10) -0.0093(11) -0.0003(10)
N1 0.0196(12) 0.0230(10) 0.0243(11) -0.0059(9) -0.0094(10) -0.0030(8)
N2 0.0271(13) 0.0328(11) 0.0333(12) 0.0016(10) -0.0169(11) -0.0019(10)
N11 0.0137(11) 0.0235(10) 0.0255(11) -0.0074(9) -0.0067(9) -0.0003(8)
O1 0.0138(10) 0.0279(9) 0.0341(10) -0.0124(8) -0.0072(8) -0.0021(8)
O11 0.0134(10) 0.0367(9) 0.0476(11) -0.0203(9) -0.0049(9) -0.0011(7)
O12 0.0172(10) 0.0245(8) 0.0470(11) -0.0118(8) -0.0138(9) 0.0010(7)
O13 0.0217(10) 0.0367(9) 0.0334(10) -0.0153(8) 0.0014(8) -0.0085(8)
S1 0.0137(3) 0.0238(3) 0.0329(4) -0.0114(3) -0.0064(3) -0.0016(2)

_geom_special_details            
; 
All esds (except the esd in the dihedral angle between two l.s. planes) 
are estimated using the full covariance matrix.  The cell esds are taken 
into account individually in the estimation of esds in distances, angles 
and torsion angles; correlations between esds in cell parameters are only 
used when they are defined by crystal symmetry.  An approximate (isotropic) 
treatment of cell esds is used for estimating esds involving l.s. planes. 
;

loop_
_geom_bond_atom_site_label_1
_geom_bond_atom_site_label_2
_geom_bond_distance
_geom_bond_site_symmetry_2
_geom_bond_publ_flag
Co1 O1 2.0414(18) . ?
Co1 O1 2.0414(18) 2 ?
Co1 N1 2.2015(18) . ?
Co1 N1 2.2015(18) 2 ?
Co1 N11 2.2044(18) . ?
Co1 N11 2.2044(18) 2 ?
C1 N1 1.337(3) . ?
C1 C2 1.401(3) . ?
C2 C3 1.379(3) . ?
C2 C6 1.459(3) . ?
C3 C4 1.371(3) . ?
C4 C5 1.387(3) . ?
C5 N1 1.338(3) . ?
C6 N2 1.277(3) . ?
C11 O11 1.244(3) . ?
C11 N11 1.352(3) . ?
C11 C12 1.491(3) . ?
C12 C17 1.371(3) . ?
C12 C13 1.388(3) . ?
C13 C14 1.386(3) . ?
C14 C15 1.392(4) . ?
C15 C16 1.382(3) . ?
C16 C17 1.380(3) . ?
C17 S1 1.764(2) . ?
N2 N2 1.410(4) 2_646 ?
N11 S1 1.624(2) . ?
O12 S1 1.4438(16) . ?
O13 S1 1.4354(17) . ?

loop_
_geom_angle_atom_site_label_1
_geom_angle_atom_site_label_2
_geom_angle_atom_site_label_3
_geom_angle
_geom_angle_site_symmetry_1
_geom_angle_site_symmetry_3
_geom_angle_publ_flag
O1 Co1 O1 180.0 . 2 ?
O1 Co1 N1 89.85(7) . . ?
O1 Co1 N1 90.15(7) 2 . ?
O1 Co1 N1 90.15(7) . 2 ?
O1 Co1 N1 89.85(7) 2 2 ?
N1 Co1 N1 180.00(14) . 2 ?
O1 Co1 N11 85.80(7) . . ?
O1 Co1 N11 94.20(7) 2 . ?
N1 Co1 N11 90.10(7) . . ?
N1 Co1 N11 89.90(7) 2 . ?
O1 Co1 N11 94.20(7) . 2 ?
O1 Co1 N11 85.80(7) 2 2 ?
N1 Co1 N11 89.90(7) . 2 ?
N1 Co1 N11 90.10(7) 2 2 ?
N11 Co1 N11 180.00(8) . 2 ?
N1 C1 C2 123.5(2) . . ?
C3 C2 C1 117.7(2) . . ?
C3 C2 C6 123.0(2) . . ?
C1 C2 C6 119.3(2) . . ?
C4 C3 C2 119.6(2) . . ?
C3 C4 C5 118.7(2) . . ?
N1 C5 C4 123.4(2) . . ?
N2 C6 C2 120.3(2) . . ?
O11 C11 N11 124.6(2) . . ?
O11 C11 C12 121.9(2) . . ?
N11 C11 C12 113.5(2) . . ?
C17 C12 C13 120.0(2) . . ?
C17 C12 C11 111.7(2) . . ?
C13 C12 C11 128.3(2) . . ?
C14 C13 C12 117.6(2) . . ?
C13 C14 C15 121.2(2) . . ?
C16 C15 C14 121.4(2) . . ?
C17 C16 C15 116.2(2) . . ?
C12 C17 C16 123.6(2) . . ?
C12 C17 S1 106.93(17) . . ?
C16 C17 S1 129.4(2) . . ?
C1 N1 C5 117.1(2) . . ?
C1 N1 Co1 121.76(16) . . ?
C5 N1 Co1 121.10(16) . . ?
C6 N2 N2 112.0(3) . 2_646 ?
C11 N11 S1 110.84(16) . . ?
C11 N11 Co1 129.42(16) . . ?
S1 N11 Co1 119.68(10) . . ?
O13 S1 O12 114.53(10) . . ?
O13 S1 N11 111.66(10) . . ?
O12 S1 N11 110.30(9) . . ?
O13 S1 C17 110.64(10) . . ?
O12 S1 C17 111.39(11) . . ?
N11 S1 C17 96.99(11) . . ?

loop_
_geom_torsion_atom_site_label_1
_geom_torsion_atom_site_label_2
_geom_torsion_atom_site_label_3
_geom_torsion_atom_site_label_4
_geom_torsion
_geom_torsion_site_symmetry_1
_geom_torsion_site_symmetry_2
_geom_torsion_site_symmetry_3
_geom_torsion_site_symmetry_4
_geom_torsion_publ_flag
N1 C1 C2 C3 -1.3(3) . . . . ?
N1 C1 C2 C6 177.2(2) . . . . ?
C1 C2 C3 C4 0.5(3) . . . . ?
C6 C2 C3 C4 -178.0(2) . . . . ?
C2 C3 C4 C5 0.4(4) . . . . ?
C3 C4 C5 N1 -0.5(4) . . . . ?
C3 C2 C6 N2 5.5(4) . . . . ?
C1 C2 C6 N2 -172.9(2) . . . . ?
O11 C11 C12 C17 179.7(2) . . . . ?
N11 C11 C12 C17 0.0(3) . . . . ?
O11 C11 C12 C13 -2.4(4) . . . . ?
N11 C11 C12 C13 177.8(2) . . . . ?
C17 C12 C13 C14 0.4(3) . . . . ?
C11 C12 C13 C14 -177.2(2) . . . . ?
C12 C13 C14 C15 -0.9(3) . . . . ?
C13 C14 C15 C16 0.3(4) . . . . ?
C14 C15 C16 C17 0.8(4) . . . . ?
C13 C12 C17 C16 0.8(4) . . . . ?
C11 C12 C17 C16 178.8(2) . . . . ?
C13 C12 C17 S1 -177.35(17) . . . . ?
C11 C12 C17 S1 0.7(2) . . . . ?
C15 C16 C17 C12 -1.3(4) . . . . ?
C15 C16 C17 S1 176.31(19) . . . . ?
C2 C1 N1 C5 1.1(3) . . . . ?
C2 C1 N1 Co1 -176.18(16) . . . . ?
C4 C5 N1 C1 -0.2(3) . . . . ?
C4 C5 N1 Co1 177.13(18) . . . . ?
O1 Co1 N1 C1 -168.75(16) . . . . ?
O1 Co1 N1 C1 11.25(16) 2 . . . ?
N1 Co1 N1 C1 65(62) 2 . . . ?
N11 Co1 N1 C1 -82.96(16) . . . . ?
N11 Co1 N1 C1 97.04(16) 2 . . . ?
O1 Co1 N1 C5 14.02(17) . . . . ?
O1 Co1 N1 C5 -165.98(17) 2 . . . ?
N1 Co1 N1 C5 -113(62) 2 . . . ?
N11 Co1 N1 C5 99.82(17) . . . . ?
N11 Co1 N1 C5 -80.18(17) 2 . . . ?
C2 C6 N2 N2 180.0(2) . . . 2_646 ?
O11 C11 N11 S1 179.55(19) . . . . ?
C12 C11 N11 S1 -0.7(2) . . . . ?
O11 C11 N11 Co1 -3.3(3) . . . . ?
C12 C11 N11 Co1 176.47(14) . . . . ?
O1 Co1 N11 C11 0.67(19) . . . . ?
O1 Co1 N11 C11 -179.33(19) 2 . . . ?
N1 Co1 N11 C11 -89.16(19) . . . . ?
N1 Co1 N11 C11 90.84(19) 2 . . . ?
N11 Co1 N11 C11 160(100) 2 . . . ?
O1 Co1 N11 S1 177.63(12) . . . . ?
O1 Co1 N11 S1 -2.37(12) 2 . . . ?
N1 Co1 N11 S1 87.79(12) . . . . ?
N1 Co1 N11 S1 -92.21(12) 2 . . . ?
N11 Co1 N11 S1 -23(100) 2 . . . ?
C11 N11 S1 O13 -114.56(16) . . . . ?
Co1 N11 S1 O13 67.96(13) . . . . ?
C11 N11 S1 O12 116.88(16) . . . . ?
Co1 N11 S1 O12 -60.60(13) . . . . ?
C11 N11 S1 C17 0.96(17) . . . . ?
Co1 N11 S1 C17 -176.52(11) . . . . ?
C12 C17 S1 O13 115.37(17) . . . . ?
C16 C17 S1 O13 -62.6(3) . . . . ?
C12 C17 S1 O12 -116.01(17) . . . . ?
C16 C17 S1 O12 66.0(2) . . . . ?
C12 C17 S1 N11 -0.96(18) . . . . ?
C16 C17 S1 N11 -178.9(2) . . . . ?

loop_
_geom_hbond_atom_site_label_D
_geom_hbond_atom_site_label_H
_geom_hbond_atom_site_label_A
_geom_hbond_distance_DH
_geom_hbond_distance_HA
_geom_hbond_distance_DA
_geom_hbond_angle_DHA
_geom_hbond_site_symmetry_A
O1 H1A O11 0.831(17) 1.781(19) 2.580(2) 161(3) .
O1 H1B O12 0.839(16) 1.957(18) 2.758(2) 159(2) 1_455

_diffrn_measured_fraction_theta_max 0.997
_diffrn_reflns_theta_full        25.02
_diffrn_measured_fraction_theta_full 0.997
_refine_diff_density_max         0.348
_refine_diff_density_min         -0.416
_refine_diff_density_rms         0.071

