####################################################################### 
# 
# This file contains crystal structure data downloaded from the 
# Cambridge Structural Database (CSD) hosted by the Cambridge 
# Crystallographic Data Centre (CCDC).
# 
# Full information about CCDC data access policies and citation 
# guidelines are available at http://www.ccdc.cam.ac.uk/access/V1 
# 
# Audit and citation data items may have been added by the CCDC. 
# Please retain this information to preserve the provenance of 
# this file and to allow appropriate attribution of the data. 
# 
#######################################################################

data_rl586a
_audit_block_doi                 10.5517/ccwlqpv
_database_code_depnum_ccdc_archive 'CCDC 822358'
loop_
_citation_id
_citation_doi
_citation_year
1 10.1002/anie.201102783 2011
_audit_update_record             
;
2011-04-19 deposited with the CCDC.	2024-07-10 downloaded from the CCDC.
;
#TrackingRef 'web_deposit_cif_file_0_DrAlexanderSteiner_1303209779.cif'


_audit_creation_method           SHELXL-97
_chemical_name_systematic        
;
?
;
_chemical_name_common            ?
_chemical_melting_point          ?
_chemical_formula_moiety         ?
_chemical_formula_sum            'C676 H540 N240 Na48 O54'
_chemical_formula_weight         13993.00

loop_
_atom_type_symbol
_atom_type_description
_atom_type_scat_dispersion_real
_atom_type_scat_dispersion_imag
_atom_type_scat_source
C C 0.0033 0.0016 'International Tables Vol C Tables 4.2.6.8 and 6.1.1.4'
H H 0.0000 0.0000 'International Tables Vol C Tables 4.2.6.8 and 6.1.1.4'
N N 0.0061 0.0033 'International Tables Vol C Tables 4.2.6.8 and 6.1.1.4'
O O 0.0106 0.0060 'International Tables Vol C Tables 4.2.6.8 and 6.1.1.4'
Na Na 0.0362 0.0249 'International Tables Vol C Tables 4.2.6.8 and 6.1.1.4'

_symmetry_cell_setting           cubic
_symmetry_space_group_name_H-M   Pm-3n

loop_
_symmetry_equiv_pos_as_xyz
'x, y, z'
'-x, -y, z'
'-x, y, -z'
'x, -y, -z'
'z, x, y'
'z, -x, -y'
'-z, -x, y'
'-z, x, -y'
'y, z, x'
'-y, z, -x'
'y, -z, -x'
'-y, -z, x'
'y+1/2, x+1/2, -z+1/2'
'-y+1/2, -x+1/2, -z+1/2'
'y+1/2, -x+1/2, z+1/2'
'-y+1/2, x+1/2, z+1/2'
'x+1/2, z+1/2, -y+1/2'
'-x+1/2, z+1/2, y+1/2'
'-x+1/2, -z+1/2, -y+1/2'
'x+1/2, -z+1/2, y+1/2'
'z+1/2, y+1/2, -x+1/2'
'z+1/2, -y+1/2, x+1/2'
'-z+1/2, y+1/2, x+1/2'
'-z+1/2, -y+1/2, -x+1/2'
'-x, -y, -z'
'x, y, -z'
'x, -y, z'
'-x, y, z'
'-z, -x, -y'
'-z, x, y'
'z, x, -y'
'z, -x, y'
'-y, -z, -x'
'y, -z, x'
'-y, z, x'
'y, z, -x'
'-y-1/2, -x-1/2, z-1/2'
'y-1/2, x-1/2, z-1/2'
'-y-1/2, x-1/2, -z-1/2'
'y-1/2, -x-1/2, -z-1/2'
'-x-1/2, -z-1/2, y-1/2'
'x-1/2, -z-1/2, -y-1/2'
'x-1/2, z-1/2, y-1/2'
'-x-1/2, z-1/2, -y-1/2'
'-z-1/2, -y-1/2, x-1/2'
'-z-1/2, y-1/2, -x-1/2'
'z-1/2, -y-1/2, -x-1/2'
'z-1/2, y-1/2, x-1/2'

_cell_length_a                   31.251(8)
_cell_length_b                   31.251(8)
_cell_length_c                   31.251(8)
_cell_angle_alpha                90.00
_cell_angle_beta                 90.00
_cell_angle_gamma                90.00
_cell_volume                     30522(14)
_cell_formula_units_Z            48
_cell_measurement_temperature    100(2)

_exptl_crystal_description       cube
_exptl_crystal_colour            colourless
_exptl_crystal_size_max          0.3
_exptl_crystal_size_mid          0.3
_exptl_crystal_size_min          0.3
_exptl_crystal_density_diffrn    0.761
_exptl_crystal_density_method    'not measured'
_exptl_crystal_F_000             7236
_exptl_absorpt_coefficient_mu    0.066
_exptl_absorpt_correction_type   multi-scan
_exptl_absorpt_correction_T_min  0.6620
_exptl_absorpt_correction_T_max  0.7456

_exptl_special_details           
;
?
;

_diffrn_ambient_temperature      100(2)
_diffrn_radiation_wavelength     0.71073
_diffrn_radiation_type           MoK\a
_diffrn_radiation_source         'fine-focus sealed tube'
_diffrn_radiation_monochromator  graphite
_diffrn_measurement_device_type  'Bruker Smart Apex'
_diffrn_measurement_method       \w
_diffrn_reflns_number            56114
_diffrn_reflns_av_R_equivalents  0.0952
_diffrn_reflns_av_sigmaI/netI    0.0379
_diffrn_reflns_limit_h_min       -24
_diffrn_reflns_limit_h_max       24
_diffrn_reflns_limit_k_min       -33
_diffrn_reflns_limit_k_max       33
_diffrn_reflns_limit_l_min       -3
_diffrn_reflns_limit_l_max       33
_diffrn_reflns_theta_min         2.61
_diffrn_reflns_theta_max         22.48
_reflns_number_total             3542
_reflns_number_gt                2412
_reflns_threshold_expression     >2sigma(I)

_computing_structure_solution    'SHELXS-97 (Sheldrick, 1990)'
_computing_structure_refinement  'SHELXL-97 (Sheldrick, 1997)'

_refine_special_details          
;
Refinement of F^2^ against ALL reflections. The weighted R-factor wR and
goodness of fit S are based on F^2^, conventional R-factors R are based
on F, with F set to zero for negative F^2^. The threshold expression of
F^2^ > 2sigma(F^2^) is used only for calculating R-factors(gt) etc. and is
not relevant to the choice of reflections for refinement. R-factors based
on F^2^ are statistically about twice as large as those based on F, and R-
factors based on ALL data will be even larger.
;

_refine_ls_structure_factor_coef Fsqd
_refine_ls_matrix_type           full
_refine_ls_weighting_scheme      calc
_refine_ls_weighting_details     
'calc w=1/[\s^2^(Fo^2^)+(0.1800P)^2^+120.0000P] where P=(Fo^2^+2Fc^2^)/3'
_atom_sites_solution_primary     direct
_atom_sites_solution_secondary   difmap
_refine_ls_extinction_method     none
_refine_ls_number_reflns         3542
_refine_ls_number_parameters     218
_refine_ls_number_restraints     74
_refine_ls_R_factor_all          0.1480
_refine_ls_R_factor_gt           0.1081
_refine_ls_wR_factor_ref         0.3412
_refine_ls_wR_factor_gt          0.2902
_refine_ls_goodness_of_fit_ref   0.998
_refine_ls_restrained_S_all      0.998
_refine_ls_shift/su_max          0.000
_refine_ls_shift/su_mean         0.000

loop_
_atom_site_label
_atom_site_type_symbol
_atom_site_fract_x
_atom_site_fract_y
_atom_site_fract_z
_atom_site_U_iso_or_equiv
_atom_site_adp_type
_atom_site_occupancy
_atom_site_symmetry_multiplicity
_atom_site_calc_flag
_atom_site_refinement_flags
_atom_site_disorder_assembly
_atom_site_disorder_group
Na1 Na 0.18562(5) 0.18562(5) 0.18562(5) 0.0227(8) Uani 1 3 d S . .
Na2 Na 0.12034(8) 0.0000 0.30462(9) 0.0342(8) Uani 1 2 d S . .
Na3 Na 0.2308(3) 0.0000 0.5000 0.059(3) Uani 0.50 4 d SP . .
Na4 Na 0.0000 0.0000 0.0000 0.070(3) Uani 1 24 d S . .
N1 N 0.11368(15) 0.16533(18) 0.20168(18) 0.0628(15) Uani 1 1 d . . .
N2 N 0.07044(15) 0.05388(16) 0.27811(19) 0.0570(14) Uani 1 1 d . . .
N3 N 0.0000 0.2345(2) 0.1576(2) 0.0510(18) Uani 1 2 d S . .
N4 N 0.20208(17) 0.16993(17) 0.25883(16) 0.0579(14) Uani 1 1 d . . .
N5 N 0.16866(18) 0.05378(16) 0.33212(16) 0.0591(15) Uani 1 1 d . . .
N6 N 0.2500 0.05165(17) 0.44835(17) 0.107(4) Uani 1 2 d S . .
C1 C 0.07932(19) 0.15566(18) 0.2089(2) 0.0506(15) Uani 1 1 d . . .
C2 C 0.04906(17) 0.07857(18) 0.26181(19) 0.0449(14) Uani 1 1 d . . .
C3 C 0.0000 0.2040(3) 0.1773(3) 0.043(2) Uani 1 2 d S . .
C4 C 0.21629(19) 0.15960(17) 0.29089(18) 0.0439(14) Uani 1 1 d . . .
C5 C 0.1936(2) 0.07866(18) 0.34182(17) 0.0501(16) Uani 1 1 d . . .
C6 C 0.2500 0.0776(2) 0.4224(2) 0.075(3) Uani 1 2 d S . .
C7 C 0.03632(16) 0.14420(17) 0.21746(18) 0.0425(14) Uani 1 1 d . . .
C8 C 0.02235(16) 0.10901(16) 0.24126(19) 0.0431(14) Uani 1 1 d . . .
C9 C 0.0000 0.1660(2) 0.2024(3) 0.0424(19) Uani 1 2 d S . .
C10 C 0.23419(18) 0.14717(16) 0.33075(16) 0.0392(13) Uani 1 1 d . . .
C11 C 0.22448(19) 0.11016(16) 0.35335(16) 0.0445(15) Uani 1 1 d . . .
C12 C 0.2500 0.10992(15) 0.39008(15) 0.049(2) Uani 1 2 d S . .
O1 O 0.0837(6) 0.0000 0.3748(6) 0.136(7) Uani 0.50 2 d SPDU . .
C21 C 0.0392(8) 0.0000 0.3734(13) 0.216(15) Uiso 0.50 2 d SPDU . .
C22 C 0.0000 0.0000 0.3459(15) 0.29(2) Uiso 1 4 d SDU . .
C23 C 0.0999(12) 0.0000 0.4163(9) 0.228(17) Uiso 0.50 2 d SPDU . .
C24 C 0.1423(12) 0.0000 0.4389(13) 0.185(16) Uiso 0.50 2 d SPDU . .
O2 O 0.1528(13) 0.0000 0.5000 0.179(14) Uiso 0.50 4 d SP . .
O3 O 0.0826(19) 0.188(3) 0.322(2) 0.36(3) Uiso 0.25 1 d PDU A -1
C31 C 0.109(4) 0.223(3) 0.314(3) 0.30(4) Uiso 0.25 1 d PDU A -1
C32 C 0.142(2) 0.249(3) 0.338(2) 0.21(3) Uiso 0.25 1 d PDU A -1
C33 C 0.102(3) 0.153(2) 0.342(3) 0.35(4) Uiso 0.25 1 d PDU A -1
C34 C 0.105(3) 0.134(3) 0.386(3) 0.31(4) Uiso 0.25 1 d PDU A -1
O4 O -0.0414(17) 0.2833(16) 0.291(2) 0.29(2) Uiso 0.25 1 d PDU B -2
C41 C -0.001(2) 0.2786(16) 0.2733(17) 0.203(18) Uiso 0.50 2 d SPDU B -2
C42 C 0.036(2) 0.247(3) 0.271(3) 0.29(4) Uiso 0.25 1 d PDU B -2
C43 C -0.0659(17) 0.2461(18) 0.295(3) 0.23(3) Uiso 0.25 1 d PDU B -2
C44 C -0.1107(16) 0.2348(17) 0.3085(17) 0.133(17) Uiso 0.25 1 d PDU B -2
O5 O 0.0422(13) 0.0609(13) 0.0000 0.252(16) Uiso 0.50 2 d SP . .

loop_
_atom_site_aniso_label
_atom_site_aniso_U_11
_atom_site_aniso_U_22
_atom_site_aniso_U_33
_atom_site_aniso_U_23
_atom_site_aniso_U_13
_atom_site_aniso_U_12
Na1 0.0227(8) 0.0227(8) 0.0227(8) -0.0003(7) -0.0003(7) -0.0003(7)
Na2 0.0316(15) 0.0229(14) 0.0481(17) 0.000 -0.0068(12) 0.000
Na3 0.132(10) 0.019(4) 0.027(5) 0.000 0.000 0.000
Na4 0.070(3) 0.070(3) 0.070(3) 0.000 0.000 0.000
N1 0.024(3) 0.075(4) 0.089(4) 0.021(3) 0.003(3) -0.008(2)
N2 0.038(3) 0.043(3) 0.090(4) 0.015(3) -0.004(3) 0.006(2)
N3 0.041(4) 0.049(4) 0.063(5) 0.017(4) 0.000 0.000
N4 0.070(3) 0.067(3) 0.037(3) 0.013(3) -0.017(3) -0.009(3)
N5 0.082(4) 0.045(3) 0.050(3) 0.005(2) -0.021(3) -0.027(3)
N6 0.209(12) 0.057(3) 0.057(3) 0.035(5) -0.053(5) -0.053(5)
C1 0.030(3) 0.049(3) 0.072(4) 0.018(3) -0.002(3) 0.000(3)
C2 0.028(3) 0.037(3) 0.069(4) 0.010(3) 0.000(3) 0.000(3)
C3 0.023(4) 0.044(5) 0.063(5) 0.009(5) 0.000 0.000
C4 0.057(4) 0.039(3) 0.035(3) 0.007(3) -0.010(3) -0.014(3)
C5 0.081(4) 0.036(3) 0.033(3) 0.008(3) -0.018(3) -0.017(3)
C6 0.123(9) 0.051(3) 0.051(3) 0.011(5) -0.039(4) -0.039(4)
C7 0.022(3) 0.041(3) 0.065(4) 0.009(3) 0.004(2) 0.001(2)
C8 0.027(2) 0.034(3) 0.068(4) 0.013(3) -0.002(3) 0.003(2)
C9 0.023(4) 0.041(4) 0.063(5) 0.013(4) 0.000 0.000
C10 0.055(3) 0.033(3) 0.030(3) 0.008(2) -0.013(2) -0.013(2)
C11 0.067(4) 0.032(3) 0.034(3) 0.006(2) -0.018(3) -0.020(3)
C12 0.084(6) 0.032(3) 0.032(3) 0.016(3) -0.019(3) -0.019(3)
O1 0.142(14) 0.159(15) 0.107(12) 0.000 0.108(11) 0.000

_geom_special_details            
;
All esds (except the esd in the dihedral angle between two l.s. planes)
are estimated using the full covariance matrix. The cell esds are taken
into account individually in the estimation of esds in distances, angles
and torsion angles; correlations between esds in cell parameters are only
used when they are defined by crystal symmetry. An approximate (isotropic)
treatment of cell esds is used for estimating esds involving l.s. planes.
;

loop_
_geom_bond_atom_site_label_1
_geom_bond_atom_site_label_2
_geom_bond_distance
_geom_bond_site_symmetry_2
_geom_bond_publ_flag
Na1 N1 2.389(5) . ?
Na1 N1 2.389(5) 5 ?
Na1 N1 2.389(5) 9 ?
Na1 N4 2.396(5) 5 ?
Na1 N4 2.396(5) . ?
Na1 N4 2.396(5) 9 ?
Na2 N5 2.417(5) . ?
Na2 N5 2.417(5) 27 ?
Na2 N2 2.440(5) 27 ?
Na2 N2 2.440(5) . ?
Na2 O1 2.475(13) . ?
Na2 N3 2.482(8) 5 ?
Na3 Na3 1.20(2) 41_666 ?
Na3 N6 2.360(8) 26_556 ?
Na3 N6 2.360(8) 27 ?
Na3 N6 2.360(8) 4_556 ?
Na3 N6 2.360(8) . ?
Na3 O2 2.44(4) . ?
Na4 O5 2.31(4) 33 ?
Na4 O5 2.31(4) 9 ?
Na4 O5 2.31(4) 35 ?
Na4 O5 2.31(4) 11 ?
Na4 O5 2.31(4) . ?
Na4 O5 2.31(4) 5 ?
Na4 O5 2.31(4) 29 ?
Na4 O5 2.31(4) 7 ?
Na4 O5 2.31(4) 31 ?
Na4 O5 2.31(4) 27 ?
Na4 O5 2.31(4) 25 ?
Na4 O5 2.31(4) 3 ?
N1 C1 1.138(7) . ?
N2 C2 1.141(7) . ?
N3 C3 1.133(10) . ?
N3 Na2 2.482(8) 9 ?
N4 C4 1.142(7) . ?
N5 C5 1.142(7) . ?
N6 C6 1.148(11) . ?
N6 Na3 2.360(8) 41_666 ?
C1 C7 1.416(8) . ?
C2 C8 1.419(8) . ?
C3 C9 1.425(12) . ?
C4 C10 1.420(8) . ?
C5 C11 1.425(8) . ?
C6 C12 1.428(12) . ?
C7 C8 1.398(7) . ?
C7 C9 1.405(7) . ?
C8 C8 1.397(10) 28 ?
C9 C7 1.405(7) 28 ?
C10 C10 1.389(10) 19 ?
C10 C11 1.389(7) . ?
C11 C12 1.398(6) . ?
C12 C11 1.398(6) 19 ?
O1 C21 1.389(15) . ?
O1 C23 1.393(15) . ?
C21 C22 1.497(15) . ?
C22 C21 1.497(15) 2 ?
C23 C24 1.503(15) . ?
O3 C31 1.39(2) . ?
O3 C33 1.39(2) . ?
C31 C32 1.51(2) . ?
C33 C34 1.51(2) . ?
O4 C41 1.39(2) . ?
O4 C43 1.40(2) . ?
C41 C42 1.51(2) . ?
C43 C44 1.50(2) . ?

loop_
_geom_angle_atom_site_label_1
_geom_angle_atom_site_label_2
_geom_angle_atom_site_label_3
_geom_angle
_geom_angle_site_symmetry_1
_geom_angle_site_symmetry_3
_geom_angle_publ_flag
N1 Na1 N1 90.2(2) . 5 ?
N1 Na1 N1 90.2(2) . 9 ?
N1 Na1 N1 90.2(2) 5 9 ?
N1 Na1 N4 176.97(19) . 5 ?
N1 Na1 N4 86.97(18) 5 5 ?
N1 Na1 N4 90.90(19) 9 5 ?
N1 Na1 N4 86.97(18) . . ?
N1 Na1 N4 90.90(19) 5 . ?
N1 Na1 N4 176.97(19) 9 . ?
N4 Na1 N4 91.98(18) 5 . ?
N1 Na1 N4 90.90(19) . 9 ?
N1 Na1 N4 176.97(19) 5 9 ?
N1 Na1 N4 86.97(18) 9 9 ?
N4 Na1 N4 91.98(18) 5 9 ?
N4 Na1 N4 91.98(18) . 9 ?
N5 Na2 N5 88.1(3) . 27 ?
N5 Na2 N2 178.7(2) . 27 ?
N5 Na2 N2 92.30(17) 27 27 ?
N5 Na2 N2 92.30(17) . . ?
N5 Na2 N2 178.7(2) 27 . ?
N2 Na2 N2 87.3(2) 27 . ?
N5 Na2 O1 88.5(4) . . ?
N5 Na2 O1 88.5(4) 27 . ?
N2 Na2 O1 90.3(4) 27 . ?
N2 Na2 O1 90.3(4) . . ?
N5 Na2 N3 91.18(19) . 5 ?
N5 Na2 N3 91.18(19) 27 5 ?
N2 Na2 N3 90.01(19) 27 5 ?
N2 Na2 N3 90.01(19) . 5 ?
O1 Na2 N3 179.6(5) . 5 ?
Na3 Na3 N6 75.3(2) 41_666 26_556 ?
Na3 Na3 N6 75.3(2) 41_666 27 ?
N6 Na3 N6 150.5(5) 26_556 27 ?
Na3 Na3 N6 75.3(2) 41_666 4_556 ?
N6 Na3 N6 86.29(12) 26_556 4_556 ?
N6 Na3 N6 86.29(12) 27 4_556 ?
Na3 Na3 N6 75.3(2) 41_666 . ?
N6 Na3 N6 86.29(12) 26_556 . ?
N6 Na3 N6 86.29(12) 27 . ?
N6 Na3 N6 150.5(5) 4_556 . ?
Na3 Na3 O2 180.000(5) 41_666 . ?
N6 Na3 O2 104.7(2) 26_556 . ?
N6 Na3 O2 104.7(2) 27 . ?
N6 Na3 O2 104.7(2) 4_556 . ?
N6 Na3 O2 104.7(2) . . ?
O5 Na4 O5 180(2) 33 9 ?
O5 Na4 O5 69(2) 33 35 ?
O5 Na4 O5 111(2) 9 35 ?
O5 Na4 O5 111(2) 33 11 ?
O5 Na4 O5 69(2) 9 11 ?
O5 Na4 O5 180(2) 35 11 ?
O5 Na4 O5 117.9(4) 33 . ?
O5 Na4 O5 62.1(4) 9 . ?
O5 Na4 O5 117.9(4) 35 . ?
O5 Na4 O5 62.1(4) 11 . ?
O5 Na4 O5 117.9(4) 33 5 ?
O5 Na4 O5 62.1(4) 9 5 ?
O5 Na4 O5 62.1(4) 35 5 ?
O5 Na4 O5 117.9(4) 11 5 ?
O5 Na4 O5 62.1(4) . 5 ?
O5 Na4 O5 62.1(4) 33 29 ?
O5 Na4 O5 117.9(4) 9 29 ?
O5 Na4 O5 117.9(4) 35 29 ?
O5 Na4 O5 62.1(4) 11 29 ?
O5 Na4 O5 117.9(4) . 29 ?
O5 Na4 O5 180(2) 5 29 ?
O5 Na4 O5 117.9(4) 33 7 ?
O5 Na4 O5 62.1(4) 9 7 ?
O5 Na4 O5 62.1(4) 35 7 ?
O5 Na4 O5 117.9(4) 11 7 ?
O5 Na4 O5 117.9(4) . 7 ?
O5 Na4 O5 69(2) 5 7 ?
O5 Na4 O5 111(2) 29 7 ?
O5 Na4 O5 62.1(4) 33 31 ?
O5 Na4 O5 117.9(4) 9 31 ?
O5 Na4 O5 117.9(4) 35 31 ?
O5 Na4 O5 62.1(4) 11 31 ?
O5 Na4 O5 62.1(4) . 31 ?
O5 Na4 O5 111(2) 5 31 ?
O5 Na4 O5 69(2) 29 31 ?
O5 Na4 O5 180(2) 7 31 ?
O5 Na4 O5 117.9(4) 33 27 ?
O5 Na4 O5 62.1(4) 9 27 ?
O5 Na4 O5 117.9(4) 35 27 ?
O5 Na4 O5 62.1(4) 11 27 ?
O5 Na4 O5 111(2) . 27 ?
O5 Na4 O5 117.9(4) 5 27 ?
O5 Na4 O5 62.1(4) 29 27 ?
O5 Na4 O5 62.1(4) 7 27 ?
O5 Na4 O5 117.9(4) 31 27 ?
O5 Na4 O5 62.1(4) 33 25 ?
O5 Na4 O5 117.9(4) 9 25 ?
O5 Na4 O5 62.1(4) 35 25 ?
O5 Na4 O5 117.9(4) 11 25 ?
O5 Na4 O5 180(2) . 25 ?
O5 Na4 O5 117.9(4) 5 25 ?
O5 Na4 O5 62.1(4) 29 25 ?
O5 Na4 O5 62.1(4) 7 25 ?
O5 Na4 O5 117.9(4) 31 25 ?
O5 Na4 O5 69(2) 27 25 ?
O5 Na4 O5 62.1(4) 33 3 ?
O5 Na4 O5 117.9(4) 9 3 ?
O5 Na4 O5 62.1(4) 35 3 ?
O5 Na4 O5 117.9(4) 11 3 ?
O5 Na4 O5 69(2) . 3 ?
O5 Na4 O5 62.1(4) 5 3 ?
O5 Na4 O5 117.9(4) 29 3 ?
O5 Na4 O5 117.9(4) 7 3 ?
O5 Na4 O5 62.1(4) 31 3 ?
O5 Na4 O5 180(2) 27 3 ?
O5 Na4 O5 111(2) 25 3 ?
C1 N1 Na1 179.4(6) . . ?
C2 N2 Na2 173.1(5) . . ?
C3 N3 Na2 175.1(7) . 9 ?
C4 N4 Na1 168.2(5) . . ?
C5 N5 Na2 173.8(5) . . ?
C6 N6 Na3 165.3(2) . 41_666 ?
C6 N6 Na3 165.3(2) . . ?
Na3 N6 Na3 29.5(5) 41_666 . ?
N1 C1 C7 179.0(7) . . ?
N2 C2 C8 179.5(7) . . ?
N3 C3 C9 179.5(9) . . ?
N4 C4 C10 179.4(6) . . ?
N5 C5 C11 179.0(6) . . ?
N6 C6 C12 180.0(9) . . ?
C8 C7 C9 107.9(4) . . ?
C8 C7 C1 126.6(5) . . ?
C9 C7 C1 125.5(5) . . ?
C8 C8 C7 108.2(3) 28 . ?
C8 C8 C2 126.0(3) 28 . ?
C7 C8 C2 125.8(5) . . ?
C7 C9 C7 107.8(6) . 28 ?
C7 C9 C3 126.1(3) . . ?
C7 C9 C3 126.1(3) 28 . ?
C10 C10 C11 108.5(3) 19 . ?
C10 C10 C4 125.5(3) 19 . ?
C11 C10 C4 126.0(5) . . ?
C10 C11 C12 107.3(4) . . ?
C10 C11 C5 126.5(5) . . ?
C12 C11 C5 126.2(5) . . ?
C11 C12 C11 108.5(6) 19 . ?
C11 C12 C6 125.8(3) 19 . ?
C11 C12 C6 125.8(3) . . ?
C21 O1 C23 113(2) . . ?
C21 O1 Na2 116(2) . . ?
C23 O1 Na2 131.1(19) . . ?
O1 C21 C22 147(3) . . ?
C21 C22 C21 110(3) 2 . ?
O1 C23 C24 139(3) . . ?
C31 O3 C33 115(4) . . ?
O3 C31 C32 138(4) . . ?
O3 C33 C34 138(5) . . ?
C41 O4 C43 116(3) . . ?
O4 C41 C42 141(4) . . ?
O4 C43 C44 137(4) . . ?

_diffrn_measured_fraction_theta_max 0.994
_diffrn_reflns_theta_full        22.48
_diffrn_measured_fraction_theta_full 0.994
_refine_diff_density_max         0.687
_refine_diff_density_min         -0.374
_refine_diff_density_rms         0.113
