####################################################################### 
# 
# This file contains crystal structure data downloaded from the 
# Cambridge Structural Database (CSD) hosted by the Cambridge 
# Crystallographic Data Centre (CCDC).
# 
# Full information about CCDC data access policies and citation 
# guidelines are available at http://www.ccdc.cam.ac.uk/access/V1 
# 
# Audit and citation data items may have been added by the CCDC. 
# Please retain this information to preserve the provenance of 
# this file and to allow appropriate attribution of the data. 
# 
#######################################################################

data_[epsilon(trim)]infini
_audit_block_doi                 10.5517/ccxg15k
_database_code_depnum_ccdc_archive 'CCDC 847638'
loop_
_citation_id
_citation_doi
_citation_year
1 10.1021/ja201165c 2011
_audit_update_record             
;
2011-10-07 deposited with the CCDC.	2024-07-10 downloaded from the CCDC.
;

_audit_creation_method           SHELXL-97
_chemical_name_systematic        
;
?
;
_chemical_name_common            ?
_chemical_melting_point          ?
_chemical_formula_moiety         ?
_chemical_formula_sum            'C57 H130 Mo12 N3 O54 P Zn4'
_chemical_formula_weight         3165.35

loop_
_atom_type_symbol
_atom_type_description
_atom_type_scat_dispersion_real
_atom_type_scat_dispersion_imag
_atom_type_scat_source
O O 0.0106 0.0060 'International Tables Vol C Tables 4.2.6.8 and 6.1.1.4'
P P 0.1023 0.0942 'International Tables Vol C Tables 4.2.6.8 and 6.1.1.4'
Zn Zn 0.2839 1.4301 'International Tables Vol C Tables 4.2.6.8 and 6.1.1.4'
Mo Mo -1.6832 0.6857 'International Tables Vol C Tables 4.2.6.8 and 6.1.1.4'
C C 0.0033 0.0016 'International Tables Vol C Tables 4.2.6.8 and 6.1.1.4'
H H 0.0000 0.0000 'International Tables Vol C Tables 4.2.6.8 and 6.1.1.4'
N N 0.0061 0.0033 'International Tables Vol C Tables 4.2.6.8 and 6.1.1.4'

_symmetry_cell_setting           orthorhombic
_symmetry_space_group_name_H-M   Pmma

loop_
_symmetry_equiv_pos_as_xyz
'x, y, z'
'-x+1/2, -y, z'
'-x, y, -z'
'x+1/2, -y, -z'
'-x, -y, -z'
'x-1/2, y, -z'
'x, -y, z'
'-x-1/2, y, z'

_cell_length_a                   17.779(10)
_cell_length_b                   16.388(9)
_cell_length_c                   16.204(9)
_cell_angle_alpha                90.00
_cell_angle_beta                 90.00
_cell_angle_gamma                90.00
_cell_volume                     4721(5)
_cell_formula_units_Z            2
_cell_measurement_temperature    293(2)
_cell_measurement_reflns_used    16453
_cell_measurement_theta_min      1.26
_cell_measurement_theta_max      25

_exptl_crystal_description       platelet
_exptl_crystal_colour            red
_exptl_crystal_size_max          0.20
_exptl_crystal_size_mid          0.20
_exptl_crystal_size_min          0.02
_exptl_crystal_density_meas      ?
_exptl_crystal_density_diffrn    2.212
_exptl_crystal_density_method    'not measured'
_exptl_crystal_F_000             3107
_exptl_absorpt_coefficient_mu    2.642
_exptl_absorpt_correction_type   multi-scan
_exptl_absorpt_correction_T_min  0.6201
_exptl_absorpt_correction_T_max  0.9614
_exptl_absorpt_process_details   ?

_exptl_special_details           
;
?
;

_diffrn_ambient_temperature      293(2)
_diffrn_radiation_wavelength     0.71073
_diffrn_radiation_type           MoK\a
_diffrn_radiation_source         'fine-focus sealed tube'
_diffrn_radiation_monochromator  graphite
_diffrn_measurement_device_type  'CCD area detector'
_diffrn_measurement_method       'phi and omega scans'
_diffrn_detector_area_resol_mean 512x512
_diffrn_standards_number         ?
_diffrn_standards_interval_count ?
_diffrn_standards_interval_time  ?
_diffrn_standards_decay_%        ?
_diffrn_reflns_number            24910
_diffrn_reflns_av_R_equivalents  0.1601
_diffrn_reflns_av_sigmaI/netI    0.1380
_diffrn_reflns_limit_h_min       -21
_diffrn_reflns_limit_h_max       21
_diffrn_reflns_limit_k_min       -18
_diffrn_reflns_limit_k_max       19
_diffrn_reflns_limit_l_min       -16
_diffrn_reflns_limit_l_max       19
_diffrn_reflns_theta_min         1.26
_diffrn_reflns_theta_max         25.00
_reflns_number_total             4478
_reflns_number_gt                2511
_reflns_threshold_expression     >2\s(I)

_computing_data_collection       'Bruker SMART'
_computing_cell_refinement       'Bruker SMART'
_computing_data_reduction        'Bruker SAINT'
_computing_structure_solution    'SHELXS-97 (Sheldrick, 1990)'
_computing_structure_refinement  'SHELXL-97 (Sheldrick, 1997)'
_computing_molecular_graphics    'Bruker SHELXTL'
_computing_publication_material  'Bruker SHELXTL'


_refine_special_details          
;
Refinement of F^2^ against ALL reflections. The weighted R-factor wR and
goodness of fit S are based on F^2^, conventional R-factors R are based
on F, with F set to zero for negative F^2^. The threshold expression of
F^2^ > 2\s(F^2^) is used only for calculating R-factors(gt) etc. and is
not relevant to the choice of reflections for refinement. R-factors based
on F^2^ are statistically about twice as large as those based on F, and R-
factors based on ALL data will be even larger.
;

_refine_ls_structure_factor_coef Fsqd
_refine_ls_matrix_type           full
_refine_ls_weighting_scheme      calc
_refine_ls_weighting_details     
'calc w=1/[\s^2^(Fo^2^)+(0.1302P)^2^+0.0000P] where P=(Fo^2^+2Fc^2^)/3'
_atom_sites_solution_primary     direct
_atom_sites_solution_secondary   difmap
_atom_sites_solution_hydrogens   geom
_refine_ls_hydrogen_treatment    constr
_refine_ls_extinction_method     none
_refine_ls_extinction_coef       ?
_refine_ls_number_reflns         4478
_refine_ls_number_parameters     168
_refine_ls_number_restraints     1
_refine_ls_R_factor_all          0.1205
_refine_ls_R_factor_gt           0.0834
_refine_ls_wR_factor_ref         0.2404
_refine_ls_wR_factor_gt          0.2233
_refine_ls_goodness_of_fit_ref   0.985
_refine_ls_restrained_S_all      0.986
_refine_ls_shift/su_max          0.000
_refine_ls_shift/su_mean         0.000

loop_
_atom_site_label
_atom_site_type_symbol
_atom_site_fract_x
_atom_site_fract_y
_atom_site_fract_z
_atom_site_U_iso_or_equiv
_atom_site_adp_type
_atom_site_occupancy
_atom_site_symmetry_multiplicity
_atom_site_calc_flag
_atom_site_refinement_flags
_atom_site_disorder_assembly
_atom_site_disorder_group
Mo1 Mo 0.2500 0.40148(10) 0.14207(10) 0.0233(5) Uani 1 2 d S . .
Mo2 Mo 0.57244(7) 0.39150(7) 0.12996(7) 0.0224(4) Uani 1 1 d . . .
Mo3 Mo 0.64716(8) 0.30928(7) 0.01509(8) 0.0233(4) Uani 1 1 d . . .
Mo4 Mo 0.65897(11) 0.5000 0.28814(10) 0.0235(5) Uani 1 2 d S . .
Zn1 Zn 0.41788(14) 0.5000 0.07306(14) 0.0229(6) Uani 1 2 d S . .
Zn2 Zn 0.7500 0.32237(13) 0.21439(14) 0.0257(6) Uani 1 2 d S . .
P1 P 0.2500 0.5000 -0.0722(4) 0.0179(16) Uani 1 4 d S . .
O1 O 0.5117(9) 0.5000 0.1292(8) 0.033(3) Uani 1 2 d S . .
O2 O 0.3191(8) 0.5000 0.1320(8) 0.028(3) Uani 1 2 d S . .
O3 O 0.5837(6) 0.4085(6) 0.0084(6) 0.029(2) Uani 1 1 d . . .
O4 O 0.3233(9) 0.5000 -0.1280(8) 0.028(3) Uani 1 2 d S . .
O5 O 0.7500 0.4254(8) 0.2774(8) 0.026(3) Uani 1 2 d S . .
O6 O 0.6627(6) 0.3206(5) 0.1359(6) 0.026(2) Uani 1 1 d . . .
O7 O 0.7500 0.2461(8) 0.0210(8) 0.030(4) Uani 1 2 d S . .
O8 O 0.4984(6) 0.3276(6) 0.1431(6) 0.032(3) Uani 1 1 d . . .
O9 O 0.2500 0.5791(7) -0.0186(7) 0.019(3) Uani 1 2 d S . .
O10 O 0.6438(14) 0.5000 0.3915(11) 0.087(5) Uani 1 2 d S . .
O11 O 0.7500 0.2221(9) 0.2774(8) 0.043(4) Uani 1 2 d S . .
O12 O 0.5872(6) 0.2296(6) 0.0024(6) 0.036(3) Uani 1 1 d . . .
O13 O 0.2500 0.3835(9) 0.2451(8) 0.048(3) Uani 1 2 d S . .
O14 O 0.5980(6) 0.4163(6) 0.2509(6) 0.034(3) Uani 1 1 d . . .
O15 O 0.3276(6) 0.3374(5) 0.1045(5) 0.025(2) Uani 1 1 d . . .
O16 O 0.7500 0.1531(9) 0.1569(9) 0.048(3) Uani 1 2 d S . .
O17 O 0.7500 -0.0686(12) 0.5429(10) 0.087(5) Uani 1 2 d S . .
C1 C 0.7500 0.0743(12) 0.3722(12) 0.029(2) Uani 1 2 d S . .
H1 H 0.7500 0.1232 0.4013 0.035 Uiso 1 2 calc SR . .
C2 C 0.7500 0.0760(12) 0.2824(12) 0.028(3) Uani 1 2 d S . .
C3 C 0.7500 0.0000 0.2363(18) 0.026(2) Uani 1 4 d S . .
H3 H 0.7500 0.0000 0.1789 0.031 Uiso 1 4 calc SR . .
C4 C 0.7500 0.0000 0.4155(14) 0.026(3) Uani 1 4 d SD . .
C5 C 0.7500 0.1560(12) 0.2324(13) 0.033(3) Uani 1 2 d S . .
C6 C 0.7500 0.0000 0.5072(15) 0.028(3) Uani 1 4 d SD . .

loop_
_atom_site_aniso_label
_atom_site_aniso_U_11
_atom_site_aniso_U_22
_atom_site_aniso_U_33
_atom_site_aniso_U_23
_atom_site_aniso_U_13
_atom_site_aniso_U_12
Mo1 0.0437(12) 0.0137(9) 0.0126(9) 0.0033(7) 0.000 0.000
Mo2 0.0415(9) 0.0113(6) 0.0144(6) 0.0005(5) 0.0006(6) -0.0001(5)
Mo3 0.0429(9) 0.0108(6) 0.0163(7) -0.0008(5) -0.0008(6) -0.0016(6)
Mo4 0.0455(13) 0.0132(9) 0.0119(9) 0.000 0.0025(8) 0.000
Zn1 0.0384(16) 0.0120(12) 0.0181(12) 0.000 -0.0027(11) 0.000
Zn2 0.0506(17) 0.0091(12) 0.0174(13) -0.0009(10) 0.000 0.000
P1 0.035(5) 0.011(4) 0.008(3) 0.000 0.000 0.000
O1 0.072(10) 0.007(6) 0.022(7) 0.000 0.019(8) 0.000
O2 0.055(9) 0.017(6) 0.011(6) 0.000 -0.003(7) 0.000
O3 0.047(7) 0.022(5) 0.018(5) -0.005(4) 0.009(5) 0.006(5)
O4 0.056(9) 0.014(6) 0.015(7) 0.000 0.001(7) 0.000
O5 0.047(9) 0.018(7) 0.014(7) 0.007(6) 0.000 0.000
O6 0.050(7) 0.008(4) 0.020(5) -0.001(4) 0.002(5) -0.007(4)
O7 0.052(10) 0.018(8) 0.021(8) -0.007(6) 0.000 0.000
O8 0.053(7) 0.019(5) 0.025(6) -0.006(4) -0.002(5) -0.001(5)
O9 0.027(8) 0.015(7) 0.016(7) -0.009(6) 0.000 0.000
O10 0.174(17) 0.059(10) 0.028(8) 0.000 0.012(13) 0.000
O11 0.098(14) 0.016(8) 0.014(8) 0.000(6) 0.000 0.000
O12 0.068(9) 0.011(5) 0.028(6) -0.004(4) 0.005(5) -0.015(5)
O13 0.107(10) 0.030(6) 0.008(5) 0.002(5) 0.000 0.000
O14 0.063(8) 0.014(5) 0.025(6) 0.002(5) -0.009(5) 0.000(5)
O15 0.046(7) 0.011(5) 0.016(5) 0.009(4) -0.008(5) 0.003(4)
O16 0.107(10) 0.030(6) 0.008(5) 0.002(5) 0.000 0.000
O17 0.174(17) 0.059(10) 0.028(8) 0.000 0.012(13) 0.000
C1 0.047(7) 0.022(5) 0.018(5) -0.005(4) 0.009(5) 0.006(5)
C2 0.055(9) 0.017(6) 0.011(6) 0.000 -0.003(7) 0.000
C3 0.050(7) 0.008(4) 0.020(5) -0.001(4) 0.002(5) -0.007(4)
C4 0.047(9) 0.018(7) 0.014(7) 0.007(6) 0.000 0.000
C5 0.072(10) 0.007(6) 0.022(7) 0.000 0.019(8) 0.000
C6 0.056(9) 0.014(6) 0.015(7) 0.000 0.001(7) 0.000

_geom_special_details            
;
All s.u.'s (except the s.u. in the dihedral angle between two l.s. planes)
are estimated using the full covariance matrix. The cell s.u.'s are taken
into account individually in the estimation of s.u.'s in distances, angles
and torsion angles; correlations between s.u.'s in cell parameters are only
used when they are defined by crystal symmetry. An approximate (isotropic)
treatment of cell s.u.'s is used for estimating s.u.'s involving l.s. planes.
;

loop_
_geom_bond_atom_site_label_1
_geom_bond_atom_site_label_2
_geom_bond_distance
_geom_bond_site_symmetry_2
_geom_bond_publ_flag
Mo1 O13 1.694(13) . ?
Mo1 O15 1.837(10) 8_655 ?
Mo1 O15 1.837(10) . ?
Mo1 O2 2.035(9) . ?
Mo1 O2 2.035(9) 2_565 ?
Mo2 O8 1.695(10) . ?
Mo2 O6 1.983(10) . ?
Mo2 O3 1.999(10) . ?
Mo2 O14 2.052(10) . ?
Mo2 O1 2.081(8) . ?
Mo2 Mo3 2.6543(19) . ?
Mo3 O12 1.698(10) . ?
Mo3 O6 1.986(9) . ?
Mo3 O3 1.983(10) . ?
Mo3 O15 2.043(9) 3_655 ?
Mo3 O7 2.104(7) . ?
Mo4 O10 1.697(18) . ?
Mo4 O14 1.850(10) . ?
Mo4 O14 1.850(10) 7_565 ?
Mo4 O5 2.036(8) 2_665 ?
Mo4 O5 2.036(8) . ?
Zn1 O1 1.900(16) . ?
Zn1 O3 1.997(10) 3_655 ?
Zn1 O3 1.997(10) 5_665 ?
Zn1 O2 1.999(15) . ?
Zn2 O11 1.934(14) . ?
Zn2 O5 1.973(13) . ?
Zn2 O6 2.007(10) . ?
Zn2 O6 2.007(10) 8_755 ?
P1 O9 1.561(12) 2_565 ?
P1 O9 1.561(12) . ?
P1 O4 1.586(15) 2_565 ?
P1 O4 1.586(15) . ?
O1 Mo2 2.081(8) 7_565 ?
O2 Mo1 2.035(9) 2_565 ?
O3 Zn1 1.997(10) 5_665 ?
O5 Mo4 2.036(8) 2_665 ?
O7 Mo3 2.104(7) 8_755 ?
O11 C5 1.31(2) . ?
O15 Mo3 2.043(9) 3_655 ?
O16 C5 1.22(2) . ?
O17 C6 1.26(2) . ?
C1 C4 1.41(2) . ?
C1 C2 1.46(2) . ?
C1 H1 0.9300 . ?
C2 C3 1.45(2) . ?
C2 C5 1.54(3) . ?
C3 C2 1.45(2) 2_655 ?
C3 H3 0.9300 . ?
C4 C1 1.41(2) 2_655 ?
C4 C6 1.49(2) . ?
C6 O17 1.26(2) 2_655 ?

loop_
_geom_angle_atom_site_label_1
_geom_angle_atom_site_label_2
_geom_angle_atom_site_label_3
_geom_angle
_geom_angle_site_symmetry_1
_geom_angle_site_symmetry_3
_geom_angle_publ_flag
O13 Mo1 O15 103.1(4) . 8_655 ?
O13 Mo1 O15 103.1(4) . . ?
O15 Mo1 O15 97.3(6) 8_655 . ?
O13 Mo1 O2 102.5(5) . . ?
O15 Mo1 O2 151.6(4) 8_655 . ?
O15 Mo1 O2 88.5(4) . . ?
O13 Mo1 O2 102.5(5) . 2_565 ?
O15 Mo1 O2 88.5(4) 8_655 2_565 ?
O15 Mo1 O2 151.6(4) . 2_565 ?
O2 Mo1 O2 74.2(7) . 2_565 ?
O8 Mo2 O6 105.1(4) . . ?
O8 Mo2 O3 106.7(4) . . ?
O6 Mo2 O3 92.8(4) . . ?
O8 Mo2 O14 100.1(4) . . ?
O6 Mo2 O14 83.7(4) . . ?
O3 Mo2 O14 153.0(4) . . ?
O8 Mo2 O1 97.2(5) . . ?
O6 Mo2 O1 157.1(5) . . ?
O3 Mo2 O1 85.8(5) . . ?
O14 Mo2 O1 87.2(5) . . ?
O8 Mo2 Mo3 99.4(3) . . ?
O6 Mo2 Mo3 48.1(3) . . ?
O3 Mo2 Mo3 47.9(3) . . ?
O14 Mo2 Mo3 131.3(3) . . ?
O1 Mo2 Mo3 133.6(4) . . ?
O12 Mo3 O6 106.2(4) . . ?
O12 Mo3 O3 105.5(5) . . ?
O6 Mo3 O3 93.2(4) . . ?
O12 Mo3 O15 101.4(4) . 3_655 ?
O6 Mo3 O15 152.1(4) . 3_655 ?
O3 Mo3 O15 83.6(4) . 3_655 ?
O12 Mo3 O7 99.9(5) . . ?
O6 Mo3 O7 83.1(5) . . ?
O3 Mo3 O7 154.3(4) . . ?
O15 Mo3 O7 87.9(5) 3_655 . ?
O12 Mo3 Mo2 99.3(4) . . ?
O6 Mo3 Mo2 48.0(3) . . ?
O3 Mo3 Mo2 48.5(3) . . ?
O15 Mo3 Mo2 131.4(3) 3_655 . ?
O7 Mo3 Mo2 130.8(4) . . ?
O10 Mo4 O14 103.2(6) . . ?
O10 Mo4 O14 103.2(6) . 7_565 ?
O14 Mo4 O14 95.7(6) . 7_565 ?
O10 Mo4 O5 102.2(8) . 2_665 ?
O14 Mo4 O5 152.0(5) . 2_665 ?
O14 Mo4 O5 89.6(4) 7_565 2_665 ?
O10 Mo4 O5 102.2(8) . . ?
O14 Mo4 O5 89.6(4) . . ?
O14 Mo4 O5 152.0(5) 7_565 . ?
O5 Mo4 O5 73.8(6) 2_665 . ?
O1 Zn1 O3 109.2(4) . 3_655 ?
O1 Zn1 O3 109.2(4) . 5_665 ?
O3 Zn1 O3 97.2(5) 3_655 5_665 ?
O1 Zn1 O2 122.9(6) . . ?
O3 Zn1 O2 107.7(4) 3_655 . ?
O3 Zn1 O2 107.7(4) 5_665 . ?
O11 Zn2 O5 117.0(5) . . ?
O11 Zn2 O6 108.8(4) . . ?
O5 Zn2 O6 109.9(3) . . ?
O11 Zn2 O6 108.8(3) . 8_755 ?
O5 Zn2 O6 109.9(3) . 8_755 ?
O6 Zn2 O6 101.4(6) . 8_755 ?
O9 P1 O9 112.4(10) 2_565 . ?
O9 P1 O4 108.5(3) 2_565 2_565 ?
O9 P1 O4 108.5(3) . 2_565 ?
O9 P1 O4 108.5(3) 2_565 . ?
O9 P1 O4 108.5(3) . . ?
O4 P1 O4 110.5(11) 2_565 . ?
Zn1 O1 Mo2 117.3(4) . 7_565 ?
Zn1 O1 Mo2 117.3(4) . . ?
Mo2 O1 Mo2 117.4(8) 7_565 . ?
Zn1 O2 Mo1 124.7(4) . . ?
Zn1 O2 Mo1 124.7(4) . 2_565 ?
Mo1 O2 Mo1 105.0(7) . 2_565 ?
Mo3 O3 Zn1 131.3(5) . 5_665 ?
Mo3 O3 Mo2 83.6(4) . . ?
Zn1 O3 Mo2 139.0(5) 5_665 . ?
Zn2 O5 Mo4 123.9(3) . 2_665 ?
Zn2 O5 Mo4 123.9(3) . . ?
Mo4 O5 Mo4 105.3(6) 2_665 . ?
Mo3 O6 Mo2 83.9(4) . . ?
Mo3 O6 Zn2 137.2(5) . . ?
Mo2 O6 Zn2 130.4(5) . . ?
Mo3 O7 Mo3 120.7(6) 8_755 . ?
C5 O11 Zn2 114.2(12) . . ?
Mo4 O14 Mo2 126.1(5) . . ?
Mo1 O15 Mo3 127.5(5) . 3_655 ?
C4 C1 C2 121.1(18) . . ?
C4 C1 H1 119.5 . . ?
C2 C1 H1 119.5 . . ?
C3 C2 C1 119.9(19) . . ?
C3 C2 C5 117.4(17) . . ?
C1 C2 C5 122.8(17) . . ?
C2 C3 C2 118(2) . 2_655 ?
C2 C3 H3 120.9 . . ?
C2 C3 H3 120.9 2_655 . ?
C1 C4 C1 120(2) 2_655 . ?
C1 C4 C6 120.0(12) 2_655 . ?
C1 C4 C6 120.0(12) . . ?
O16 C5 O11 126.2(18) . . ?
O16 C5 C2 119.5(17) . . ?
O11 C5 C2 114.3(17) . . ?
O17 C6 O17 125(3) 2_655 . ?
O17 C6 C4 117.3(13) 2_655 . ?
O17 C6 C4 117.3(13) . . ?

_diffrn_measured_fraction_theta_max 0.999
_diffrn_reflns_theta_full        25.00
_diffrn_measured_fraction_theta_full 0.999
_refine_diff_density_max         2.434
_refine_diff_density_min         -3.093
_refine_diff_density_rms         0.372
#===END
