####################################################################### 
# 
# This file contains crystal structure data downloaded from the 
# Cambridge Structural Database (CSD) hosted by the Cambridge 
# Crystallographic Data Centre (CCDC).
# 
# Full information about CCDC data access policies and citation 
# guidelines are available at http://www.ccdc.cam.ac.uk/access/V1 
# 
# Audit and citation data items may have been added by the CCDC. 
# Please retain this information to preserve the provenance of 
# this file and to allow appropriate attribution of the data. 
# 
#######################################################################

data_epsilon(trim)4/3
_audit_block_doi                 10.5517/ccxg13h
_database_code_depnum_ccdc_archive 'CCDC 847636'
loop_
_citation_id
_citation_doi
_citation_year
1 10.1021/ja201165c 2011
_audit_update_record             
;
2011-10-07 deposited with the CCDC.	2024-07-10 downloaded from the CCDC.
;

_audit_creation_method           SHELXL-97
_chemical_name_systematic        
;
?
;
_chemical_name_common            ?
_chemical_melting_point          ?
_chemical_formula_moiety         ?
_chemical_formula_sum            'C60 H128 Mo12 N3 O54 P Zn4'
_chemical_formula_weight         3199.38

loop_
_atom_type_symbol
_atom_type_description
_atom_type_scat_dispersion_real
_atom_type_scat_dispersion_imag
_atom_type_scat_source
C C 0.0033 0.0016 'International Tables Vol C Tables 4.2.6.8 and 6.1.1.4'
H H 0.0000 0.0000 'International Tables Vol C Tables 4.2.6.8 and 6.1.1.4'
N N 0.0061 0.0033 'International Tables Vol C Tables 4.2.6.8 and 6.1.1.4'
O O 0.0106 0.0060 'International Tables Vol C Tables 4.2.6.8 and 6.1.1.4'
P P 0.1023 0.0942 'International Tables Vol C Tables 4.2.6.8 and 6.1.1.4'
Zn Zn 0.2839 1.4301 'International Tables Vol C Tables 4.2.6.8 and 6.1.1.4'
Mo Mo -1.6832 0.6857 'International Tables Vol C Tables 4.2.6.8 and 6.1.1.4'

_symmetry_cell_setting           Orthorhombic
_symmetry_space_group_name_H-M   I222

loop_
_symmetry_equiv_pos_as_xyz
'x, y, z'
'-x, -y, z'
'-x, y, -z'
'x, -y, -z'
'x+1/2, y+1/2, z+1/2'
'-x+1/2, -y+1/2, z+1/2'
'-x+1/2, y+1/2, -z+1/2'
'x+1/2, -y+1/2, -z+1/2'

_cell_length_a                   21.6212(10)
_cell_length_b                   22.5502(10)
_cell_length_c                   42.1069(17)
_cell_angle_alpha                90.00
_cell_angle_beta                 90.00
_cell_angle_gamma                90.00
_cell_volume                     20529.7(16)
_cell_formula_units_Z            6
_cell_measurement_temperature    296(2)
_cell_measurement_reflns_used    9333
_cell_measurement_theta_min      2.54
_cell_measurement_theta_max      23.90

_exptl_crystal_description       parallelepiped
_exptl_crystal_colour            black
_exptl_crystal_size_max          0.18
_exptl_crystal_size_mid          0.16
_exptl_crystal_size_min          0.12
_exptl_crystal_density_meas      ?
_exptl_crystal_density_diffrn    1.553
_exptl_crystal_density_method    'not measured'
_exptl_crystal_F_000             9480
_exptl_absorpt_coefficient_mu    1.825
_exptl_absorpt_correction_type   multi-scan
_exptl_absorpt_correction_T_min  0.7348
_exptl_absorpt_correction_T_max  0.8108
_exptl_absorpt_process_details   'SADABS (Sheldrick, V2.10)'

_exptl_special_details           
;
'Blessing, Acta Cryst. (1995) A51, 33-38'
;

_diffrn_ambient_temperature      296(2)
_diffrn_radiation_wavelength     0.71073
_diffrn_radiation_type           MoK\a
_diffrn_radiation_source         'fine-focus sealed tube'
_diffrn_radiation_monochromator  graphite
_diffrn_measurement_device_type  'CCD area detector'
_diffrn_measurement_method       'phi and omega scans'
_diffrn_detector_area_resol_mean 512x512
_diffrn_standards_number         ?
_diffrn_standards_interval_count ?
_diffrn_standards_interval_time  ?
_diffrn_standards_decay_%        ?
_diffrn_reflns_number            653626
_diffrn_reflns_av_R_equivalents  0.0695
_diffrn_reflns_av_sigmaI/netI    0.0410
_diffrn_reflns_limit_h_min       -25
_diffrn_reflns_limit_h_max       25
_diffrn_reflns_limit_k_min       -26
_diffrn_reflns_limit_k_max       26
_diffrn_reflns_limit_l_min       -50
_diffrn_reflns_limit_l_max       50
_diffrn_reflns_theta_min         0.97
_diffrn_reflns_theta_max         25.19
_reflns_number_total             18304
_reflns_number_gt                10403
_reflns_threshold_expression     >2sigma(I)

_computing_data_collection       'Bruker APEX2'
_computing_cell_refinement       'Bruker APEX2'
_computing_data_reduction        'Bruker SAINT'
_computing_structure_solution    'SHELXS-97 (Sheldrick, 1990)'
_computing_structure_refinement  'SHELXL-97 (Sheldrick, 1997)'
_computing_molecular_graphics    'Bruker SHELXTL'
_computing_publication_material  'Bruker SHELXTL'

_refine_special_details          
;
Refinement of F^2^ against ALL reflections. The weighted R-factor wR and
goodness of fit S are based on F^2^, conventional R-factors R are based
on F, with F set to zero for negative F^2^. The threshold expression of
F^2^ > 2sigma(F^2^) is used only for calculating R-factors(gt) etc. and is
not relevant to the choice of reflections for refinement. R-factors based
on F^2^ are statistically about twice as large as those based on F, and R-
factors based on ALL data will be even larger.
;

_refine_ls_structure_factor_coef Fsqd
_refine_ls_matrix_type           full
_refine_ls_weighting_scheme      calc
_refine_ls_weighting_details     
'calc w=1/[\s^2^(Fo^2^)+(0.0843P)^2^+0.0000P] where P=(Fo^2^+2Fc^2^)/3'
_atom_sites_solution_primary     direct
_atom_sites_solution_secondary   difmap
_atom_sites_solution_hydrogens   geom
_refine_ls_hydrogen_treatment    contr
_refine_ls_extinction_method     SHELXL
_refine_ls_extinction_coef       0.000034(4)
_refine_ls_extinction_expression Fc^*^=kFc[1+0.001xFc^2^\l^3^/sin(2\q)]^-1/4^
_refine_ls_abs_structure_details 'Flack H D (1983), Acta Cryst. A39, 876-881'
_refine_ls_abs_structure_Flack   0.058(17)
_refine_ls_number_reflns         18304
_refine_ls_number_parameters     523
_refine_ls_number_restraints     0
_refine_ls_R_factor_all          0.0731
_refine_ls_R_factor_gt           0.0442
_refine_ls_wR_factor_ref         0.1352
_refine_ls_wR_factor_gt          0.1242
_refine_ls_goodness_of_fit_ref   0.915
_refine_ls_restrained_S_all      0.915
_refine_ls_shift/su_max          0.001
_refine_ls_shift/su_mean         0.000

loop_
_atom_site_label
_atom_site_type_symbol
_atom_site_fract_x
_atom_site_fract_y
_atom_site_fract_z
_atom_site_U_iso_or_equiv
_atom_site_adp_type
_atom_site_occupancy
_atom_site_symmetry_multiplicity
_atom_site_calc_flag
_atom_site_refinement_flags
_atom_site_disorder_assembly
_atom_site_disorder_group
Mo1 Mo 0.46495(3) 0.56205(3) 0.832665(14) 0.0852(2) Uani 1 1 d . . .
Mo2 Mo 0.50420(4) 0.65938(3) 0.773382(16) 0.0949(2) Uani 1 1 d . . .
Mo3 Mo 0.64145(4) 0.41747(3) 0.772793(17) 0.0944(2) Uani 1 1 d . . .
Mo4 Mo 0.66599(3) 0.49578(4) 0.728910(16) 0.0946(2) Uani 1 1 d . . .
Mo5 Mo 0.43508(4) 0.46650(3) 0.669635(15) 0.0903(2) Uani 1 1 d . . .
Mo6 Mo 0.58580(4) 0.63540(3) 0.729337(17) 0.0970(2) Uani 1 1 d . . .
Mo7 Mo 0.95461(6) 0.45656(5) 0.918441(18) 0.1417(4) Uani 1 1 d . . .
Mo8 Mo 0.95574(8) 0.34773(6) 0.97686(3) 0.1707(6) Uani 1 1 d . . .
Mo9 Mo 0.84289(6) 0.45063(8) 0.97445(2) 0.1773(6) Uani 1 1 d . . .
Zn1 Zn 0.61779(5) 0.56056(4) 0.80491(2) 0.0951(3) Uani 1 1 d . . .
Zn2 Zn 0.43690(5) 0.61211(4) 0.69732(2) 0.0969(3) Uani 1 1 d . . .
Zn3 Zn 0.89803(8) 0.59039(8) 0.94980(3) 0.1639(6) Uani 1 1 d . . .
P1 P 0.5000 0.5000 0.75098(5) 0.0765(7) Uani 1 2 d S . .
P2 P 1.0000 0.5000 1.0000 0.1136(16) Uani 1 4 d S . .
O1 O 0.4582(3) 0.5735(2) 0.87339(10) 0.1013(17) Uani 1 1 d . . .
O2 O 0.3846(3) 0.5743(3) 0.81844(13) 0.1120(19) Uani 1 1 d . . .
O3 O 0.4977(3) 0.6326(2) 0.81886(10) 0.0947(15) Uani 1 1 d . . .
O4 O 0.4464(2) 0.4772(2) 0.82875(10) 0.0839(14) Uani 1 1 d . . .
O5 O 0.5239(2) 0.4499(2) 0.77148(10) 0.0918(15) Uani 1 1 d . . .
O6 O 0.5141(3) 0.7314(3) 0.77954(13) 0.125(2) Uani 1 1 d . . .
O7 O 0.5862(3) 0.6224(2) 0.77529(12) 0.0967(15) Uani 1 1 d . . .
O8 O 0.4989(2) 0.64697(18) 0.72806(10) 0.0736(11) Uani 1 1 d . . .
O9 O 0.4087(3) 0.6616(2) 0.77153(11) 0.1026(18) Uani 1 1 d . . .
O10 O 0.7177(3) 0.3920(3) 0.77859(14) 0.120(2) Uani 1 1 d . . .
O11 O 0.6540(2) 0.50398(18) 0.77449(9) 0.0706(11) Uani 1 1 d . . .
O12 O 0.6272(3) 0.4177(2) 0.72573(10) 0.0924(15) Uani 1 1 d . . .
O13 O 0.7443(2) 0.4852(4) 0.72260(12) 0.129(3) Uani 1 1 d . . .
O14 O 0.3596(3) 0.5003(3) 0.68387(10) 0.1010(16) Uani 1 1 d . . .
O15 O 0.6680(2) 0.5902(3) 0.73111(13) 0.117(2) Uani 1 1 d . . .
O16 O 0.5518(3) 0.5256(2) 0.73038(11) 0.0954(15) Uani 1 1 d . . .
O17 O 0.4239(3) 0.4585(3) 0.62877(10) 0.1098(19) Uani 1 1 d . . .
O18 O 0.4212(3) 0.3905(3) 0.68506(12) 0.1055(18) Uani 1 1 d . . .
O19 O 0.4712(3) 0.5481(2) 0.67376(11) 0.113(2) Uani 1 1 d . . .
O20 O 0.6180(3) 0.7029(3) 0.72431(13) 0.1130(19) Uani 1 1 d . . .
O21 O 0.6864(4) 0.5959(3) 0.82970(15) 0.151(3) Uani 1 1 d . . .
O22 O 0.8997(3) 0.8233(3) 0.82631(15) 0.1110(19) Uani 1 1 d . . .
O23 O 0.9427(4) 0.4447(4) 0.88117(14) 0.172(3) Uani 1 1 d . . .
O24 O 1.0390(3) 0.4613(4) 0.92673(14) 0.151(3) Uani 1 1 d . . .
O25 O 0.9565(5) 0.3722(5) 0.9321(2) 0.212(5) Uani 1 1 d . . .
O26 O 0.8664(4) 0.4617(4) 0.93193(15) 0.165(3) Uani 1 1 d . . .
O27 O 0.9587(3) 0.4590(2) 0.97959(9) 0.1025(18) Uani 1 1 d . . .
O28 O 0.9434(6) 0.2794(3) 0.97114(18) 0.216(6) Uani 1 1 d . . .
O29 O 1.0439(4) 0.3648(3) 0.97695(12) 0.146(3) Uani 1 1 d . . .
O30 O 0.7620(3) 0.4432(4) 0.9731(2) 0.169(3) Uani 1 1 d . . .
O31 O 0.8517(4) 0.5389(4) 0.97917(14) 0.166(3) Uani 1 1 d . . .
O32 O 0.8335(4) 0.6134(4) 0.9180(2) 0.176(4) Uani 1 1 d . . .
O33 O 0.9193(5) 0.6644(5) 0.9113(3) 0.223(6) Uani 1 1 d . . .
O34 O 0.8628(4) 0.3710(4) 0.97527(14) 0.161(3) Uani 1 1 d . . .
O35 O 0.7201(3) 0.6282(3) 0.78486(17) 0.120(2) Uani 1 1 d . . .
O36 O 0.8707(4) 0.7886(4) 0.78215(12) 0.167(4) Uani 1 1 d . . .
C1 C 0.7769(4) 0.6546(4) 0.8264(3) 0.126(4) Uani 1 1 d . . .
C2 C 0.8066(4) 0.7007(3) 0.8096(2) 0.095(3) Uani 1 1 d . . .
H2 H 0.7988 0.7081 0.7882 0.114 Uiso 1 1 calc R . .
C3 C 0.8466(4) 0.7329(3) 0.82639(16) 0.085(2) Uani 1 1 d . . .
C4 C 0.8646(5) 0.7139(5) 0.8548(3) 0.134(4) Uani 1 1 d . . .
H4 H 0.9001 0.7316 0.8629 0.161 Uiso 1 1 calc R . .
C5 C 0.8381(4) 0.6719(4) 0.8734(2) 0.106(3) Uani 1 1 d . . .
C6 C 0.7966(4) 0.6381(5) 0.8575(2) 0.115(3) Uani 1 1 d . . .
H6 H 0.7809 0.6039 0.8669 0.138 Uiso 1 1 calc R . .
C7 C 0.7254(5) 0.6223(4) 0.81092(17) 0.102(3) Uani 1 1 d . . .
C8 C 0.8743(5) 0.7855(4) 0.8089(2) 0.116(3) Uani 1 1 d . . .
C9 C 0.8659(8) 0.6540(6) 0.9023(2) 0.165(6) Uani 1 1 d . . .

loop_
_atom_site_aniso_label
_atom_site_aniso_U_11
_atom_site_aniso_U_22
_atom_site_aniso_U_33
_atom_site_aniso_U_23
_atom_site_aniso_U_13
_atom_site_aniso_U_12
Mo1 0.1117(5) 0.0929(4) 0.0511(3) -0.0057(3) 0.0067(3) -0.0086(4)
Mo2 0.1389(6) 0.0828(4) 0.0631(4) 0.0003(3) 0.0054(4) 0.0023(4)
Mo3 0.1082(5) 0.1091(5) 0.0658(4) 0.0002(4) -0.0077(4) 0.0159(4)
Mo4 0.0925(5) 0.1264(6) 0.0651(4) 0.0027(4) 0.0014(4) 0.0004(4)
Mo5 0.1113(5) 0.1083(5) 0.0514(3) -0.0084(3) -0.0060(3) 0.0110(4)
Mo6 0.1289(6) 0.0969(5) 0.0651(4) 0.0147(4) 0.0029(4) -0.0145(4)
Mo7 0.1799(10) 0.1928(10) 0.0523(4) -0.0067(5) 0.0028(5) -0.0704(8)
Mo8 0.2518(16) 0.1564(10) 0.1039(7) -0.0134(6) 0.0594(9) -0.0545(10)
Mo9 0.1528(10) 0.290(2) 0.0891(7) 0.0470(9) 0.0011(6) -0.0592(11)
Zn1 0.1143(7) 0.1106(7) 0.0604(5) 0.0026(5) 0.0005(5) -0.0247(6)
Zn2 0.1289(8) 0.1027(6) 0.0591(5) 0.0048(4) 0.0077(5) 0.0270(6)
Zn3 0.2014(15) 0.2105(15) 0.0797(7) 0.0354(9) -0.0561(9) -0.0025(12)
P1 0.1025(19) 0.0872(16) 0.0398(12) 0.000 0.000 0.0102(16)
P2 0.126(4) 0.172(5) 0.044(2) 0.000 0.000 0.000
O1 0.150(5) 0.112(4) 0.042(2) 0.017(2) 0.012(3) -0.037(4)
O2 0.081(3) 0.167(6) 0.088(4) 0.032(4) -0.009(3) 0.012(4)
O3 0.136(4) 0.091(3) 0.057(3) 0.025(2) -0.010(3) -0.018(3)
O4 0.101(3) 0.106(3) 0.045(2) -0.020(2) 0.000(2) -0.007(3)
O5 0.115(4) 0.123(4) 0.038(2) 0.007(2) 0.015(2) 0.026(3)
O6 0.178(7) 0.119(4) 0.078(4) 0.002(3) 0.021(4) 0.057(4)
O7 0.109(4) 0.106(4) 0.075(3) -0.001(3) 0.023(3) -0.018(3)
O8 0.073(3) 0.086(3) 0.062(2) 0.003(2) 0.023(2) 0.010(2)
O9 0.191(6) 0.069(3) 0.047(2) -0.023(2) 0.003(3) 0.028(3)
O10 0.123(5) 0.141(5) 0.096(4) 0.022(4) -0.008(3) 0.030(4)
O11 0.086(3) 0.067(2) 0.059(2) 0.027(2) -0.010(2) -0.022(2)
O12 0.142(5) 0.087(3) 0.048(2) 0.005(2) 0.007(3) 0.004(3)
O13 0.077(3) 0.241(8) 0.069(3) 0.041(4) -0.001(3) -0.024(4)
O14 0.097(3) 0.151(5) 0.055(3) 0.016(3) 0.012(2) -0.001(4)
O15 0.076(3) 0.184(6) 0.092(4) 0.005(4) 0.016(3) -0.069(4)
O16 0.124(4) 0.108(3) 0.055(3) 0.009(3) 0.004(3) 0.027(3)
O17 0.156(5) 0.134(5) 0.039(2) -0.009(3) -0.002(3) 0.025(4)
O18 0.131(5) 0.116(4) 0.069(3) -0.014(3) 0.021(3) 0.019(4)
O19 0.192(6) 0.091(3) 0.056(3) -0.036(2) 0.000(3) 0.043(4)
O20 0.124(5) 0.135(5) 0.080(4) 0.019(3) 0.020(3) -0.028(4)
O21 0.192(7) 0.177(6) 0.084(4) 0.053(4) -0.017(4) -0.118(6)
O22 0.115(4) 0.103(4) 0.114(5) -0.029(3) -0.004(4) -0.032(3)
O23 0.227(8) 0.216(8) 0.072(4) -0.002(4) -0.049(5) -0.089(7)
O24 0.159(6) 0.209(7) 0.085(4) -0.003(4) 0.009(4) -0.121(5)
O25 0.219(9) 0.272(11) 0.145(7) -0.103(7) 0.019(6) -0.131(9)
O26 0.144(6) 0.259(9) 0.091(4) 0.011(5) 0.002(4) -0.109(6)
O27 0.170(5) 0.111(4) 0.0268(19) 0.002(2) -0.011(3) 0.001(4)
O28 0.416(17) 0.123(6) 0.108(5) -0.019(4) 0.075(8) -0.083(8)
O29 0.231(8) 0.162(6) 0.045(3) -0.027(3) 0.065(4) 0.035(5)
O30 0.092(4) 0.221(8) 0.193(8) 0.066(7) -0.015(5) -0.054(5)
O31 0.163(6) 0.259(10) 0.076(4) 0.089(5) -0.016(4) 0.020(6)
O32 0.198(8) 0.186(8) 0.144(6) 0.084(6) 0.002(6) -0.030(6)
O33 0.205(10) 0.181(8) 0.282(13) 0.094(8) -0.123(9) -0.089(8)
O34 0.193(8) 0.222(9) 0.067(4) -0.016(5) 0.031(4) -0.052(7)
O35 0.128(5) 0.114(4) 0.118(5) -0.008(4) -0.022(4) -0.031(4)
O36 0.213(8) 0.250(9) 0.038(3) 0.021(4) -0.004(4) -0.108(7)
C1 0.100(6) 0.091(6) 0.188(11) 0.071(7) 0.033(7) -0.012(5)
C2 0.107(6) 0.077(5) 0.103(6) 0.052(4) -0.037(5) -0.019(4)
C3 0.117(6) 0.077(4) 0.061(4) 0.002(3) -0.009(4) -0.034(4)
C4 0.106(7) 0.175(10) 0.122(8) 0.048(8) -0.013(6) -0.033(7)
C5 0.104(7) 0.111(6) 0.103(6) 0.023(5) -0.059(5) -0.042(5)
C6 0.102(7) 0.135(8) 0.108(7) 0.035(6) -0.001(6) 0.038(6)
C7 0.140(8) 0.130(7) 0.035(4) -0.014(4) -0.038(4) -0.031(6)
C8 0.191(10) 0.082(5) 0.076(6) 0.017(4) 0.060(6) -0.049(6)
C9 0.245(16) 0.165(11) 0.085(7) 0.036(7) -0.037(9) -0.088(11)

_geom_special_details            
;
All esds (except the esd in the dihedral angle between two l.s. planes)
are estimated using the full covariance matrix. The cell esds are taken
into account individually in the estimation of esds in distances, angles
and torsion angles; correlations between esds in cell parameters are only
used when they are defined by crystal symmetry. An approximate (isotropic)
treatment of cell esds is used for estimating esds involving l.s. planes.
;

loop_
_geom_bond_atom_site_label_1
_geom_bond_atom_site_label_2
_geom_bond_distance
_geom_bond_site_symmetry_2
_geom_bond_publ_flag
Mo1 O1 1.740(4) . ?
Mo1 O3 1.836(5) . ?
Mo1 O2 1.858(5) . ?
Mo1 O4 1.963(5) . ?
Mo1 O4 2.117(5) 2_665 ?
Mo1 Mo1 3.1828(15) 2_665 ?
Mo2 O6 1.657(6) . ?
Mo2 O8 1.932(4) . ?
Mo2 O7 1.960(6) . ?
Mo2 O3 2.013(4) . ?
Mo2 O9 2.067(6) . ?
Mo2 Mo6 2.6163(11) . ?
Mo3 O10 1.763(6) . ?
Mo3 O11 1.971(4) . ?
Mo3 O12 2.005(4) . ?
Mo3 O2 2.011(5) 2_665 ?
Mo3 O9 2.088(6) 2_665 ?
Mo3 Mo4 2.6104(11) . ?
Mo4 O13 1.730(5) . ?
Mo4 O11 1.945(4) . ?
Mo4 O12 1.956(5) . ?
Mo4 O14 1.977(4) 2_665 ?
Mo4 O15 2.131(7) . ?
Mo5 O17 1.747(4) . ?
Mo5 O18 1.857(6) . ?
Mo5 O14 1.898(6) . ?
Mo5 O19 2.006(6) . ?
Mo5 O19 2.061(7) 2_665 ?
Mo5 Mo5 3.1879(16) 2_665 ?
Mo6 O20 1.687(6) . ?
Mo6 O8 1.898(5) . ?
Mo6 O7 1.957(5) . ?
Mo6 O18 1.960(5) 2_665 ?
Mo6 O15 2.050(7) . ?
Mo7 O23 1.613(6) . ?
Mo7 O24 1.861(7) . ?
Mo7 O24 1.889(8) 2_765 ?
Mo7 O25 1.987(12) . ?
Mo7 O26 1.993(8) . ?
Mo7 Mo7 2.773(2) 2_765 ?
Mo8 O28 1.582(7) . ?
Mo8 O29 1.944(9) . ?
Mo8 O25 1.964(10) . ?
Mo8 O29 1.983(5) 3_757 ?
Mo8 O34 2.077(10) . ?
Mo8 O27 2.513(5) . ?
Mo8 Mo8 2.732(3) 3_757 ?
Mo9 O30 1.759(7) . ?
Mo9 O34 1.848(10) . ?
Mo9 O26 1.878(6) . ?
Mo9 O31 1.976(7) 4_567 ?
Mo9 O31 2.011(10) . ?
Mo9 Mo9 3.096(3) 4_567 ?
Zn1 O4 1.913(5) 2_665 ?
Zn1 O11 1.970(5) . ?
Zn1 O21 1.981(6) . ?
Zn1 O7 1.992(6) . ?
Zn2 O19 1.902(4) . ?
Zn2 O22 1.939(6) 8_466 ?
Zn2 O12 1.951(5) 2_665 ?
Zn2 O8 2.022(5) . ?
Zn3 O31 1.969(8) . ?
Zn3 O29 1.976(7) 2_765 ?
Zn3 O32 2.001(9) . ?
Zn3 O24 2.039(9) 2_765 ?
Zn3 O33 2.373(9) . ?
Zn3 C9 2.556(11) . ?
P1 O5 1.513(5) 2_665 ?
P1 O5 1.513(5) . ?
P1 O16 1.530(5) 2_665 ?
P1 O16 1.530(6) . ?
P2 O27 1.545(5) 2_765 ?
P2 O27 1.545(5) . ?
P2 O27 1.545(5) 4_567 ?
P2 O27 1.545(5) 3_757 ?
O2 Mo3 2.011(5) 2_665 ?
O4 Zn1 1.913(5) 2_665 ?
O4 Mo1 2.117(5) 2_665 ?
O9 Mo3 2.088(6) 2_665 ?
O12 Zn2 1.950(5) 2_665 ?
O14 Mo4 1.978(4) 2_665 ?
O18 Mo