####################################################################### 
# 
# This file contains crystal structure data downloaded from the 
# Cambridge Structural Database (CSD) hosted by the Cambridge 
# Crystallographic Data Centre (CCDC).
# 
# Full information about CCDC data access policies and citation 
# guidelines are available at http://www.ccdc.cam.ac.uk/access/V1 
# 
# Audit and citation data items may have been added by the CCDC. 
# Please retain this information to preserve the provenance of 
# this file and to allow appropriate attribution of the data. 
# 
#######################################################################

data_epsilon2(trim)2
_audit_block_doi                 10.5517/ccxg14j
_database_code_depnum_ccdc_archive 'CCDC 847637'
loop_
_citation_id
_citation_doi
_citation_year
1 10.1021/ja201165c 2011
_audit_update_record             
;
2011-10-07 deposited with the CCDC.	2024-07-10 downloaded from the CCDC.
;

_audit_creation_method           SHELXL-97
_chemical_name_systematic        
;
?
;
_chemical_name_common            ?
_chemical_melting_point          ?
_chemical_formula_moiety         ?
_chemical_formula_sum            'C57 H114 Mo12 N3 O46 P Zn4'
_chemical_formula_weight         3021.34

loop_
_atom_type_symbol
_atom_type_description
_atom_type_scat_dispersion_real
_atom_type_scat_dispersion_imag
_atom_type_scat_source
O O 0.0106 0.0060 'International Tables Vol C Tables 4.2.6.8 and 6.1.1.4'
P P 0.1023 0.0942 'International Tables Vol C Tables 4.2.6.8 and 6.1.1.4'
Zn Zn 0.2839 1.4301 'International Tables Vol C Tables 4.2.6.8 and 6.1.1.4'
Mo Mo -1.6832 0.6857 'International Tables Vol C Tables 4.2.6.8 and 6.1.1.4'
C C 0.0033 0.0016 'International Tables Vol C Tables 4.2.6.8 and 6.1.1.4'
H H 0.0000 0.0000 'International Tables Vol C Tables 4.2.6.8 and 6.1.1.4'

_symmetry_cell_setting           orthorhombic
_symmetry_space_group_name_H-M   Pnnm

loop_
_symmetry_equiv_pos_as_xyz
'x, y, z'
'-x, -y, z'
'-x+1/2, y+1/2, -z+1/2'
'x+1/2, -y+1/2, -z+1/2'
'-x, -y, -z'
'x, y, -z'
'x-1/2, -y-1/2, z-1/2'
'-x-1/2, y-1/2, z-1/2'

_cell_length_a                   24.156(9)
_cell_length_b                   24.992(9)
_cell_length_c                   16.214(6)
_cell_angle_alpha                90.00
_cell_angle_beta                 90.00
_cell_angle_gamma                90.00
_cell_volume                     9788(6)
_cell_formula_units_Z            4
_cell_measurement_temperature    293(2)
_cell_measurement_reflns_used    16453
_cell_measurement_theta_min      1.17
_cell_measurement_theta_max      23.42

_exptl_crystal_description       platelet
_exptl_crystal_colour            red
_exptl_crystal_size_max          0.20
_exptl_crystal_size_mid          0.20
_exptl_crystal_size_min          0.06
_exptl_crystal_density_meas      ?
_exptl_crystal_density_diffrn    2.022
_exptl_crystal_density_method    'not measured'
_exptl_crystal_F_000             5852
_exptl_absorpt_coefficient_mu    2.537
_exptl_absorpt_correction_type   multi-scan
_exptl_absorpt_correction_T_min  0.6309
_exptl_absorpt_correction_T_max  0.8627
_exptl_absorpt_process_details   ?

_exptl_special_details           
;
?
;

_diffrn_ambient_temperature      293(2)
_diffrn_radiation_wavelength     0.71073
_diffrn_radiation_type           MoK\a
_diffrn_radiation_source         'fine-focus sealed tube'
_diffrn_radiation_monochromator  graphite
_diffrn_measurement_device_type  'CCD area detector'
_diffrn_measurement_method       'phi and omega scans'
_diffrn_detector_area_resol_mean 512x512
_diffrn_standards_number         ?
_diffrn_standards_interval_count ?
_diffrn_standards_interval_time  ?
_diffrn_standards_decay_%        ?
_diffrn_reflns_number            44061
_diffrn_reflns_av_R_equivalents  0.1145
_diffrn_reflns_av_sigmaI/netI    0.0917
_diffrn_reflns_limit_h_min       -26
_diffrn_reflns_limit_h_max       23
_diffrn_reflns_limit_k_min       -27
_diffrn_reflns_limit_k_max       26
_diffrn_reflns_limit_l_min       -17
_diffrn_reflns_limit_l_max       18
_diffrn_reflns_theta_min         1.17
_diffrn_reflns_theta_max         23.42
_reflns_number_total             7417
_reflns_number_gt                4450
_reflns_threshold_expression     >2\s(I)

_computing_data_collection       'Bruker SMART'
_computing_cell_refinement       'Bruker SMART'
_computing_data_reduction        'Bruker SAINT'
_computing_structure_solution    'SHELXS-97 (Sheldrick, 1990)'
_computing_structure_refinement  'SHELXL-97 (Sheldrick, 1997)'
_computing_molecular_graphics    'Bruker SHELXTL'
_computing_publication_material  'Bruker SHELXTL'

_refine_special_details          
;
Refinement of F^2^ against ALL reflections. The weighted R-factor wR and
goodness of fit S are based on F^2^, conventional R-factors R are based
on F, with F set to zero for negative F^2^. The threshold expression of
F^2^ > 2\s(F^2^) is used only for calculating R-factors(gt) etc. and is
not relevant to the choice of reflections for refinement. R-factors based
on F^2^ are statistically about twice as large as those based on F, and R-
factors based on ALL data will be even larger.
;

_refine_ls_structure_factor_coef Fsqd
_refine_ls_matrix_type           full
_refine_ls_weighting_scheme      calc
_refine_ls_weighting_details     
'calc w=1/[\s^2^(Fo^2^)+(0.1193P)^2^+0.0000P] where P=(Fo^2^+2Fc^2^)/3'
_atom_sites_solution_primary     direct
_atom_sites_solution_secondary   difmap
_atom_sites_solution_hydrogens   geom
_refine_ls_hydrogen_treatment    constr
_refine_ls_extinction_method     none
_refine_ls_extinction_coef       ?
_refine_ls_number_reflns         7417
_refine_ls_number_parameters     333
_refine_ls_number_restraints     0
_refine_ls_R_factor_all          0.1146
_refine_ls_R_factor_gt           0.0785
_refine_ls_wR_factor_ref         0.2066
_refine_ls_wR_factor_gt          0.1928
_refine_ls_goodness_of_fit_ref   0.966
_refine_ls_restrained_S_all      0.966
_refine_ls_shift/su_max          0.016
_refine_ls_shift/su_mean         0.001

loop_
_atom_site_label
_atom_site_type_symbol
_atom_site_fract_x
_atom_site_fract_y
_atom_site_fract_z
_atom_site_U_iso_or_equiv
_atom_site_adp_type
_atom_site_occupancy
_atom_site_symmetry_multiplicity
_atom_site_calc_flag
_atom_site_refinement_flags
_atom_site_disorder_assembly
_atom_site_disorder_group
Mo1 Mo 0.09158(5) 0.46201(4) 0.10803(7) 0.0470(3) Uani 1 1 d . . .
Mo2 Mo 0.20308(7) 0.41413(6) 0.0000 0.0560(5) Uani 1 2 d S . .
Mo3 Mo 0.09238(5) 0.55213(4) 0.19071(7) 0.0493(3) Uani 1 1 d . . .
Mo4 Mo -0.09399(5) 0.32402(4) 0.09852(8) 0.0578(4) Uani 1 1 d . . .
Mo5 Mo 0.21488(5) 0.63408(4) 0.18775(8) 0.0619(4) Uani 1 1 d . . .
Mo6 Mo 0.31202(7) 0.48589(7) 0.0000 0.0672(6) Uani 1 2 d S . .
Mo7 Mo 0.30337(5) 0.60309(5) 0.10919(9) 0.0694(4) Uani 1 1 d . . .
Zn1 Zn -0.02108(9) 0.42797(7) 0.0000 0.0481(6) Uani 1 2 d S . .
Zn2 Zn 0.21933(10) 0.70760(8) 0.0000 0.0660(7) Uani 1 2 d S . .
Zn3 Zn 0.22872(7) 0.48810(6) 0.17889(10) 0.0583(5) Uani 1 1 d . . .
P1 P 0.17736(19) 0.56308(16) 0.0000 0.0449(12) Uani 1 2 d S . .
O1 O 0.0599(5) 0.4384(4) 0.0000 0.057(3) Uani 1 2 d S . .
O2 O -0.0556(5) 0.3577(4) 0.0000 0.051(3) Uani 1 2 d S . .
O3 O 0.0529(3) 0.5303(2) 0.0922(5) 0.043(2) Uani 1 1 d . . .
O4 O 0.2425(5) 0.5646(4) 0.0000 0.053(3) Uani 1 2 d S . .
O5 O 0.2474(5) 0.4543(4) 0.2824(7) 0.086(2) Uani 1 1 d . . .
O6 O -0.1365(6) 0.3023(4) 0.0000 0.069(4) Uani 1 2 d S . .
O7 O 0.0535(3) 0.4252(3) 0.1716(5) 0.050(2) Uani 1 1 d . . .
O8 O 0.1474(3) 0.4959(3) 0.1815(5) 0.047(2) Uani 1 1 d . . .
O9 O 0.0540(4) 0.5359(3) 0.2706(5) 0.064(3) Uani 1 1 d . . .
O10 O 0.2533(3) 0.4558(3) 0.0752(6) 0.065(3) Uani 1 1 d . . .
O11 O 0.1546(4) 0.5050(4) 0.0000 0.037(3) Uani 1 2 d S . .
O12 O 0.2507(3) 0.5641(3) 0.1819(6) 0.059(2) Uani 1 1 d . . .
O13 O 0.1574(3) 0.5915(3) -0.0782(5) 0.047(2) Uani 1 1 d . . .
O14 O 0.2511(4) 0.6645(3) 0.0915(6) 0.079(3) Uani 1 1 d . . .
O15 O -0.0563(4) 0.2694(3) 0.1173(6) 0.079(3) Uani 1 1 d . . .
O16 O 0.2322(6) 0.3536(4) 0.0000 0.077(4) Uani 1 2 d S . .
O17 O 0.2437(4) 0.6647(4) 0.2648(6) 0.079(3) Uani 1 1 d . . .
O18 O 0.3395(5) 0.6266(5) 0.0000 0.068(4) Uani 1 2 d S . .
O19 O 0.1535(3) 0.4100(3) 0.0835(5) 0.050(2) Uani 1 1 d . . .
O20 O -0.0640(4) 0.3759(3) 0.1650(6) 0.065(3) Uani 1 1 d . . .
O21 O 0.3527(4) 0.6256(4) 0.1758(7) 0.094(4) Uani 1 1 d . . .
O22 O 0.1559(3) 0.5916(3) 0.2572(6) 0.059(2) Uani 1 1 d . . .
O23 O -0.1549(4) 0.3126(3) 0.1615(6) 0.064(3) Uani 1 1 d . . .
O24 O 0.3322(3) 0.5299(3) -0.0854(6) 0.066(3) Uani 1 1 d . . .
O25 O 0.2100(4) 0.5234(3) 0.3472(7) 0.081(3) Uani 1 1 d . . .
O26 O 0.3609(6) 0.4384(5) 0.0000 0.098(6) Uani 1 2 d S . .
O27 O 0.2317(5) 0.7807(4) -0.0635(7) 0.086(2) Uani 1 1 d . . .
C1 C 0.2521(5) 0.3953(4) 0.4247(9) 0.057(4) Uani 1 1 d . . .
H1 H 0.2587 0.3775 0.3754 0.068 Uiso 1 1 calc R . .
C2 C 0.2405(5) 0.4487(4) 0.4238(8) 0.047(3) Uani 1 1 d . . .
C3 C 0.2349(7) 0.4744(7) 0.5000 0.059(3) Uani 1 2 d S . .
H3 H 0.2270 0.5108 0.5000 0.071 Uiso 1 2 calc SR . .
C4 C 0.2542(7) 0.3669(6) 0.5000 0.044(4) Uani 1 2 d S . .
C5 C 0.2316(5) 0.4779(4) 0.3478(10) 0.059(3) Uani 1 1 d . . .
C6 C 0.2340(7) 0.8063(6) 0.0000 0.047(3) Uani 1 2 d S . .

loop_
_atom_site_aniso_label
_atom_site_aniso_U_11
_atom_site_aniso_U_22
_atom_site_aniso_U_33
_atom_site_aniso_U_23
_atom_site_aniso_U_13
_atom_site_aniso_U_12
Mo1 0.0636(7) 0.0245(5) 0.0528(8) 0.0025(5) -0.0014(6) -0.0015(5)
Mo2 0.0628(11) 0.0327(8) 0.0726(13) 0.000 0.000 0.0054(7)
Mo3 0.0661(8) 0.0276(6) 0.0543(8) 0.0006(5) -0.0009(6) -0.0018(5)
Mo4 0.0833(9) 0.0234(6) 0.0666(9) 0.0015(5) -0.0041(7) -0.0055(5)
Mo5 0.0766(9) 0.0390(7) 0.0702(10) -0.0057(6) -0.0075(7) -0.0137(5)
Mo6 0.0548(11) 0.0611(11) 0.0857(16) 0.000 0.000 0.0040(8)
Mo7 0.0646(8) 0.0581(8) 0.0854(11) -0.0038(7) -0.0086(7) -0.0133(6)
Zn1 0.0627(13) 0.0242(10) 0.0574(15) 0.000 0.000 -0.0005(8)
Zn2 0.0884(17) 0.0337(12) 0.0759(18) 0.000 0.000 -0.0186(10)
Zn3 0.0710(11) 0.0437(9) 0.0600(12) 0.0047(7) -0.0052(8) 0.0043(7)
P1 0.058(3) 0.033(2) 0.043(3) 0.000 0.000 -0.0021(19)
O1 0.085(9) 0.051(7) 0.037(8) 0.000 0.000 0.008(6)
O2 0.068(8) 0.041(6) 0.042(8) 0.000 0.000 0.007(5)
O3 0.063(5) 0.018(4) 0.048(6) -0.004(3) 0.005(4) -0.009(3)
O4 0.055(8) 0.031(6) 0.073(10) 0.000 0.000 -0.004(5)
O5 0.130(6) 0.056(4) 0.073(6) -0.001(4) 0.022(5) -0.015(4)
O6 0.111(11) 0.027(6) 0.069(10) 0.000 0.000 -0.004(6)
O7 0.076(6) 0.030(4) 0.045(6) 0.009(4) -0.009(4) 0.002(4)
O8 0.060(5) 0.033(4) 0.049(6) 0.012(4) -0.004(4) 0.003(3)
O9 0.103(7) 0.045(5) 0.043(6) -0.001(4) -0.021(5) -0.004(5)
O10 0.062(6) 0.058(6) 0.073(7) 0.005(5) -0.004(5) -0.017(4)
O11 0.044(6) 0.031(6) 0.037(7) 0.000 0.000 0.001(4)
O12 0.054(5) 0.056(5) 0.067(7) 0.021(4) -0.015(5) -0.015(4)
O13 0.066(5) 0.031(4) 0.045(6) -0.010(4) 0.007(4) -0.006(4)
O14 0.095(7) 0.041(5) 0.101(9) 0.000(5) -0.028(6) -0.035(5)
O15 0.119(8) 0.013(4) 0.106(9) 0.012(4) -0.034(6) -0.002(4)
O16 0.099(10) 0.019(6) 0.114(13) 0.000 0.000 0.030(6)
O17 0.107(8) 0.056(6) 0.076(8) 0.002(5) -0.007(6) -0.025(5)
O18 0.070(9) 0.078(9) 0.056(9) 0.000 0.000 -0.007(7)
O19 0.069(6) 0.034(4) 0.048(6) 0.011(4) -0.008(4) 0.000(4)
O20 0.078(6) 0.040(5) 0.076(8) 0.007(4) 0.020(5) 0.002(4)
O21 0.092(8) 0.092(8) 0.099(9) -0.030(6) -0.045(6) -0.039(6)
O22 0.073(6) 0.037(4) 0.066(7) -0.022(4) -0.001(5) -0.006(4)
O23 0.082(6) 0.032(5) 0.078(7) -0.008(4) 0.011(5) -0.011(4)
O24 0.050(5) 0.061(6) 0.087(8) -0.005(5) 0.022(5) -0.002(4)
O25 0.098(7) 0.035(5) 0.109(9) -0.002(5) -0.031(7) 0.019(5)
O26 0.074(10) 0.051(8) 0.168(17) 0.000 0.000 0.044(7)
O27 0.130(6) 0.056(4) 0.073(6) -0.001(4) 0.022(5) -0.015(4)
C1 0.060(8) 0.033(7) 0.078(11) -0.006(7) 0.010(7) 0.025(6)
C2 0.053(6) 0.020(5) 0.069(8) -0.005(6) -0.005(7) 0.002(4)
C3 0.061(7) 0.026(5) 0.090(10) 0.000 0.000 0.011(4)
C4 0.083(13) 0.025(8) 0.025(10) 0.000 0.000 0.016(8)
C5 0.061(7) 0.026(5) 0.090(10) 0.000 0.000 0.011(4)
C6 0.053(6) 0.020(5) 0.069(8) -0.005(6) -0.005(7) 0.002(4)

_geom_special_details            
;
All s.u.'s (except the s.u. in the dihedral angle between two l.s. planes)
are estimated using the full covariance matrix. The cell s.u.'s are taken
into account individually in the estimation of s.u.'s in distances, angles
and torsion angles; correlations between s.u.'s in cell parameters are only
used when they are defined by crystal symmetry. An approximate (isotropic)
treatment of cell s.u.'s is used for estimating s.u.'s involving l.s. planes.
;

loop_
_geom_bond_atom_site_label_1
_geom_bond_atom_site_label_2
_geom_bond_distance
_geom_bond_site_symmetry_2
_geom_bond_publ_flag
Mo1 O7 1.661(8) . ?
Mo1 O3 1.962(7) . ?
Mo1 O8 1.989(8) . ?
Mo1 O1 2.000(6) . ?
Mo1 O19 2.021(8) . ?
Mo1 Mo3 2.6211(16) . ?
Mo2 O16 1.669(10) . ?
Mo2 O19 1.811(8) 6 ?
Mo2 O19 1.811(8) . ?
Mo2 O10 2.011(9) 6 ?
Mo2 O10 2.011(9) . ?
Mo2 Mo6 3.185(3) . ?
Mo3 O9 1.643(10) . ?
Mo3 O8 1.939(7) . ?
Mo3 O3 1.938(8) . ?
Mo3 O20 1.969(8) 2_565 ?
Mo3 O22 2.120(8) . ?
Mo4 O15 1.669(8) . ?
Mo4 O23 1.814(9) . ?
Mo4 O20 1.836(9) . ?
Mo4 O6 1.975(8) . ?
Mo4 O2 2.030(7) . ?
Mo4 Mo4 3.195(3) 6 ?
Mo5 O17 1.621(10) . ?
Mo5 O14 1.944(10) . ?
Mo5 O12 1.953(8) . ?
Mo5 O23 2.013(9) 2_565 ?
Mo5 O22 2.103(9) . ?
Mo5 O13 2.493(8) 6 ?
Mo5 Mo7 2.606(2) . ?
Mo6 O26 1.674(11) . ?
Mo6 O24 1.834(9) 6 ?
Mo6 O24 1.834(9) . ?
Mo6 O10 2.015(9) 6 ?
Mo6 O10 2.015(9) . ?
Mo7 O21 1.704(8) . ?
Mo7 O12 1.989(8) . ?
Mo7 O24 1.995(9) 6 ?
Mo7 O14 2.008(10) . ?
Mo7 O18 2.060(7) . ?
Mo7 O4 2.494(8) . ?
Zn1 O2 1.944(11) . ?
Zn1 O3 1.978(8) 5_565 ?
Zn1 O3 1.978(8) 2_565 ?
Zn1 O1 1.974(13) . ?
Zn2 O14 1.987(10) 6 ?
Zn2 O14 1.987(10) . ?
Zn2 O6 2.015(14) 5_565 ?
Zn2 O27 2.119(10) 6 ?
Zn2 O27 2.119(10) . ?
Zn2 C6 2.493(15) . ?
Zn3 O5 1.933(11) . ?
Zn3 O10 1.958(10) . ?
Zn3 O12 1.973(8) . ?
Zn3 O8 1.975(8) . ?
P1 O13 1.531(8) . ?
P1 O13 1.531(8) 6 ?
P1 O11 1.553(10) . ?
P1 O4 1.574(12) . ?
O1 Mo1 2.000(6) 6 ?
O2 Mo4 2.030(7) 6 ?
O3 Zn1 1.978(8) 5_565 ?
O4 Mo7 2.494(8) 6 ?
O5 C5 1.273(16) . ?
O6 Mo4 1.975(8) 6 ?
O6 Zn2 2.015(14) 5_565 ?
O13 Mo5 2.493(8) 6 ?
O18 Mo7 2.060(7) 6 ?
O20 Mo3 1.969(8) 2_565 ?
O23 Mo5 2.013(9) 2_565 ?
O24 Mo7 1.995(9) 6 ?
O25 C5 1.251(13) . ?
O27 C6 1.213(12) . ?
C1 C2 1.362(14) . ?
C1 C4 1.414(15) . ?
C1 H1 0.9300 . ?
C2 C3 1.399(14) . ?
C2 C5 1.449(19) . ?
C3 C2 1.399(14) 6_556 ?
C3 H3 0.9300 . ?
C4 C1 1.414(15) 6_556 ?
C4 C6 1.54(2) 3_545 ?
C6 O27 1.213(12) 6 ?
C6 C4 1.54(2) 3 ?

loop_
_geom_angle_atom_site_label_1
_geom_angle_atom_site_label_2
_geom_angle_atom_site_label_3
_geom_angle
_geom_angle_site_symmetry_1
_geom_angle_site_symmetry_3
_geom_angle_publ_flag
O7 Mo1 O3 107.4(3) . . ?
O7 Mo1 O8 103.9(4) . . ?
O3 Mo1 O8 91.7(3) . . ?
O7 Mo1 O1 99.7(4) . . ?
O3 Mo1 O1 87.7(4) . . ?
O8 Mo1 O1 155.4(4) . . ?
O7 Mo1 O19 100.1(3) . . ?
O3 Mo1 O19 152.4(3) . . ?
O8 Mo1 O19 83.7(3) . . ?
O1 Mo1 O19 85.4(4) . . ?
O7 Mo1 Mo3 99.4(3) . . ?
O3 Mo1 Mo3 47.4(2) . . ?
O8 Mo1 Mo3 47.3(2) . . ?
O1 Mo1 Mo3 134.8(3) . . ?
O19 Mo1 Mo3 130.4(2) . . ?
O16 Mo2 O19 103.1(4) . 6 ?
O16 Mo2 O19 103.1(4) . . ?
O19 Mo2 O19 96.8(5) 6 . ?
O16 Mo2 O10 102.4(5) . 6 ?
O19 Mo2 O10 88.6(4) 6 6 ?
O19 Mo2 O10 151.9(3) . 6 ?
O16 Mo2 O10 102.4(5) . . ?
O19 Mo2 O10 151.9(3) 6 . ?
O19 Mo2 O10 88.6(4) . . ?
O10 Mo2 O10 74.6(5) 6 . ?
O16 Mo2 Mo6 99.3(5) . . ?
O19 Mo2 Mo6 125.4(3) 6 . ?
O19 Mo2 Mo6 125.4(3) . . ?
O10 Mo2 Mo6 37.8(3) 6 . ?
O10 Mo2 Mo6 37.8(3) . . ?
O9 Mo3 O8 105.6(4) . . ?
O9 Mo3 O3 107.6(4) . . ?
O8 Mo3 O3 94.0(3) . . ?
O9 Mo3 O20 101.3(4) . 2_565 ?
O8 Mo3 O20 152.1(4) . 2_565 ?
O3 Mo3 O20 84.9(3) . 2_565 ?
O9 Mo3 O22 97.1(4) . . ?
O8 Mo3 O22 83.1(3) . . ?
O3 Mo3 O22 155.0(3) . . ?
O20 Mo3 O22 86.3(3) 2_565 . ?
O9 Mo3 Mo1 100.7(3) . . ?
O8 Mo3 Mo1 49.0(2) . . ?
O3 Mo3 Mo1 48.2(2) . . ?
O20 Mo3 Mo1 132.3(3) 2_565 . ?
O22 Mo3 Mo1 131.7(2) . . ?
O15 Mo4 O23 102.2(4) . . ?
O15 Mo4 O20 104.8(4) . . ?
O23 Mo4 O20 95.8(4) . . ?
O15 Mo4 O6 102.0(5) . . ?
O23 Mo4 O6 89.4(4) . . ?
O20 Mo4 O6 150.9(4) . . ?
O15 Mo4 O2 103.5(5) . . ?
O23 Mo4 O2 151.5(4) . . ?
O20 Mo4 O2 89.3(4) . . ?
O6 Mo4 O2 73.5(4) . . ?
O15 Mo4 Mo4 100.5(4) . 6 ?
O23 Mo4 Mo4 124.2(3) . 6 ?
O20 Mo4 Mo4 125.9(3) . 6 ?
O6 Mo4 Mo4 36.0(3) . 6 ?
O2 Mo4 Mo4 38.1(3) . 6 ?
O17 Mo5 O14 103.9(4) . . ?
O17 Mo5 O12 105.7(4) . . ?
O14 Mo5 O12 96.4(4) . . ?
O17 Mo5 O23 99.2(4) . 2_565 ?
O14 Mo5 O23 84.0(4) . 2_565 ?
O12 Mo5 O23 154.2(3) . 2_565 ?
O17 Mo5 O22 96.6(4) . . ?
O14 Mo5 O22 158.8(3) . . ?
O12 Mo5 O22 82.8(3) . . ?
O23 Mo5 O22 87.7(3) 2_565 . ?
O17 Mo5 O13 171.5(4) . 6 ?
O14 Mo5 O13 81.2(3) . 6 ?
O12 Mo5 O13 80.2(3) . 6 ?
O23 Mo5 O13 74.4(3) 2_565 6 ?
O22 Mo5 O13 77.8(3) . 6 ?
O17 Mo5 Mo7 99.5(4) . . ?
O14 Mo5 Mo7 49.8(3) . . ?
O12 Mo5 Mo7 49.2(2) . . ?
O23 Mo5 Mo7 133.1(3) 2_565 . ?
O22 Mo5 Mo7 131.9(2) . . ?
O13 Mo5 Mo7 88.95(19) 6 . ?
O26 Mo6 O24 103.8(4) . 6 ?
O26 Mo6 O24 103.8(4) . . ?
O24 Mo6 O24 98.0(6) 6 . ?
O26 Mo6 O10 103.4(5) . 6 ?
O24 Mo6 O10 150.2(4) 6 6 ?
O24 Mo6 O10 87.4(4) . 6 ?
O26 Mo6 O10 103.4(5) . . ?
O24 Mo6 O10 87.4(4) 6 . ?
O24 Mo6 O10 150.2(4) . . ?
O10 Mo6 O10 74.4(5) 6 . ?
O26 Mo6 Mo2 100.6(5) . . ?
O24 Mo6 Mo2 123.9(3) 6 . ?
O24 Mo6 Mo2 123.9(3) . . ?
O10 Mo6 Mo2 37.7(3) 6 . ?
O10 Mo6 Mo2 37.7(3) . . ?
O21 Mo7 O12 103.5(5) . . ?
O21 Mo7 O24 100.4(5) . 6 ?
O12 Mo7 O24 83.6(4) . 6 ?
O21 Mo7 O14 106.1(5) . . ?
O12 Mo7 O14 93.3(4) . . ?
O24 Mo7 O14 153.2(4) 6 . ?
O21 Mo7 O18 98.9(5) . . ?
O12 Mo7 O18 157.0(4) . . ?
O24 Mo7 O18 87.0(5) 6 . ?
O14 Mo7 O18 85.8(5) . . ?
O21 Mo7 O4 171.7(5) . . ?
O12 Mo7 O4 81.6(3) . . ?
O24 Mo7 O4 73.4(3) 6 . ?
O14 Mo7 O4 79.8(3) . . ?
O18 Mo7 O4 75.5(3) . . ?
O21 Mo7 Mo5 99.6(4) . . ?
O12 Mo7 Mo5 48.0(3) . . ?
O24 Mo7 Mo5 130.8(3) 6 . ?
O14 Mo7 Mo5 47.7(3) . . ?
O18 Mo7 Mo5 133.1(4) . . ?
O4 Mo7 Mo5 88.7(2) . . ?
O2 Zn1 O3 108.0(3) . 5_565 ?
O2 Zn1 O3 108.0(3) . 2_565 ?
O3 Zn1 O3 98.2(4) 5_565 2_565 ?
O2 Zn1 O1 123.0(5) . . ?
O3 Zn1 O1 108.4(3) 5_565 . ?
O3 Zn1 O1 108.4(3) 2_565 . ?
O14 Zn2 O14 96.6(6) 6 . ?
O14 Zn2 O6 108.5(3) 6 5_565 ?
O14 Zn2 O6 108.5(3) . 5_565 ?
O14 Zn2 O27 140.9(4) 6 6 ?
O14 Zn2 O27 92.9(4) . 6 ?
O6 Zn2 O27 104.2(4) 5_565 6 ?
O14 Zn2 O27 92.9(4) 6 . ?
O14 Zn2 O27 140.9(4) . . ?
O6 Zn2 O27 104.2(4) 5_565 . ?
O27 Zn2 O27 58.1(6) 6 . ?
O14 Zn2 C6 118.7(3) 6 . ?
O14 Zn2 