
#######################################################################
#
#                 Cambridge Crystallographic Data Centre
#                                CCDC
#
#######################################################################
#
# If this CIF has been generated from an entry in the Cambridge
# Structural Database, then it will include bibliographic, chemical,
# crystal, experimental, refinement or atomic coordinate data resulting
# from the CCDC's data processing and validation procedures.
#
#######################################################################

data_CSD_CIF_JACPEI
_audit_creation_date 1989-07-11
_audit_creation_method CSD-ConQuest-V1
_database_code_CSD JACPEI
_database_code_depnum_ccdc_archive 'CCDC 1181577'
_chemical_formula_sum 'C36 H78 O3 P3 Y1'
_chemical_formula_moiety
;
C36 H78 O3 P3 Y1
;
_journal_coden_Cambridge 182
_journal_year 1988
_journal_page_first 1557
_journal_name_full 'Chem.Commun. '
loop_
_publ_author_name
"P.B.Hitchcock"
"M.F.Lappert"
"I.A.MacKinnon"
_chemical_name_systematic
;
tris(1,1-Di-t-butyl-2-dimethylphosphino-ethoxy-O,P)-yttrium
;
_chemical_name_common
;
Teaching Subset: Fundamental Chemistry
;
_chemical_melting_point 533.15
_cell_volume   8641.628
_exptl_crystal_colour 'colorless'
_exptl_crystal_density_diffrn 1.14
_diffrn_ambient_temperature ?
_diffrn_special_details
;
The study was carried out at room temperature,in the range 283-303K

;
#These two values have been output from a single CSD field.
_refine_ls_R_factor_gt 0.04
_refine_ls_wR_factor_gt 0.04
_symmetry_cell_setting cubic
_symmetry_space_group_name_H-M 'P a 3'
_symmetry_Int_Tables_number 205
loop_
_symmetry_equiv_pos_site_id
_symmetry_equiv_pos_as_xyz
1 x,y,z
2 z,x,y
3 y,z,x
4 -x,1/2+y,1/2-z
5 -z,1/2+x,1/2-y
6 -y,1/2+z,1/2-x
7 1/2-x,-y,1/2+z
8 1/2-z,-x,1/2+y
9 1/2-y,-z,1/2+x
10 1/2+x,1/2-y,-z
11 1/2+z,1/2-x,-y
12 1/2+y,1/2-z,-x
13 -x,-y,-z
14 -z,-x,-y
15 -y,-z,-x
16 x,-1/2-y,-1/2+z
17 z,-1/2-x,-1/2+y
18 y,-1/2-z,-1/2+x
19 -1/2+x,y,-1/2-z
20 -1/2+z,x,-1/2-y
21 -1/2+y,z,-1/2-x
22 -1/2-x,-1/2+y,z
23 -1/2-z,-1/2+x,y
24 -1/2-y,-1/2+z,x
_cell_length_a 20.521(2)
_cell_length_b 20.521(2)
_cell_length_c 20.521(2)
_cell_angle_alpha 90
_cell_angle_beta 90
_cell_angle_gamma 90
_cell_formula_units_Z 8
loop_
_atom_type_symbol
_atom_type_radius_bond
C 0.68
H 0.23
O 0.68
P 1.05
Y 1.78
loop_
_atom_site_label
_atom_site_type_symbol
_atom_site_fract_x
_atom_site_fract_y
_atom_site_fract_z
Y1 Y 0.14189(3) 0.14189 0.14189
P1 P 0.2693(1) 0.2074(1) 0.1033(1)
O1 O 0.2018(2) 0.0910(2) 0.0771(2)
C1 C 0.2498(3) 0.0908(3) 0.0279(3)
C2 C 0.2976(3) 0.1494(3) 0.0413(3)
C3 C 0.2884(4) 0.2868(4) 0.0665(4)
C4 C 0.3349(4) 0.2051(4) 0.1635(4)
C5 C 0.2136(4) 0.1022(4) -0.0395(4)
C6 C 0.2909(3) 0.0249(3) 0.0358(3)
C7 C 0.1890(5) 0.1724(4) -0.0417(4)
C8 C 0.2555(5) 0.0928(4) -0.0996(4)
C9 C 0.1545(4) 0.0606(5) -0.0463(4)
C10 C 0.3528(4) 0.0206(4) -0.0074(4)
C11 C 0.2506(4) -0.0355(3) 0.0235(4)
C12 C 0.3156(4) 0.0216(4) 0.1059(4)
H1 H 0.30700 0.17600 -0.00400
H2 H 0.34400 0.13000 0.05500
H3 H 0.27400 0.32700 0.09600
H4 H 0.33900 0.29300 0.05600
H5 H 0.26400 0.29300 0.02000
H6 H 0.32100 0.23600 0.20500
H7 H 0.33900 0.15700 0.18400
H8 H 0.37800 0.22000 0.14600
H9 H 0.16200 0.18600 -0.08300
H10 H 0.15700 0.18400 0.00000
H11 H 0.22800 0.20700 -0.03600
H12 H 0.23200 0.10200 -0.14300
H13 H 0.29700 0.12700 -0.09600
H14 H 0.27700 0.04600 -0.09900
H15 H 0.12800 0.06800 -0.09000
H16 H 0.16700 0.01000 -0.04400
H17 H 0.12000 0.06800 -0.00700
H18 H 0.37800 -0.02300 0.00000
H19 H 0.34100 0.02500 -0.05600
H20 H 0.38400 0.06000 0.00600
H21 H 0.27700 -0.08000 0.02800
H22 H 0.20900 -0.03800 0.05400
H23 H 0.23200 -0.03600 -0.02600
H24 H 0.34200 -0.02200 0.11500
H25 H 0.34600 0.06200 0.11600
H26 H 0.27600 0.02200 0.13900
P1A P 0.1033(1) 0.2693(1) 0.2074(1)
P1B P 0.2074(1) 0.1033(1) 0.2693(1)
O1A O 0.0771(2) 0.2018(2) 0.0910(2)
O1B O 0.0910(2) 0.0771(2) 0.2018(2)
C2A C 0.0413(3) 0.2976(3) 0.1494(3)
C3A C 0.0665(4) 0.2884(4) 0.2868(4)
C4A C 0.1635(4) 0.3349(4) 0.2051(4)
C2B C 0.1494(3) 0.0413(3) 0.2976(3)
C3B C 0.2868(4) 0.0665(4) 0.2884(4)
C4B C 0.2051(4) 0.1635(4) 0.3349(4)
C1A C 0.0279(3) 0.2498(3) 0.0908(3)
C1B C 0.0908(3) 0.0279(3) 0.2498(3)
H1A H -0.00400 0.30700 0.17600
H2A H 0.05500 0.34400 0.13000
H3A H 0.09600 0.27400 0.32700
H4A H 0.05600 0.33900 0.29300
H5A H 0.02000 0.26400 0.29300
H6A H 0.20500 0.32100 0.23600
H7A H 0.18400 0.33900 0.15700
H8A H 0.14600 0.37800 0.22000
H1B H 0.17600 -0.00400 0.30700
H2B H 0.13000 0.05500 0.34400
H3B H 0.32700 0.09600 0.27400
H4B H 0.29300 0.05600 0.33900
H5B H 0.29300 0.02000 0.26400
H6B H 0.23600 0.20500 0.32100
H7B H 0.15700 0.18400 0.33900
H8B H 0.22000 0.14600 0.37800
C5A C -0.0395(4) 0.2136(4) 0.1022(4)
C6A C 0.0358(3) 0.2909(3) 0.0249(3)
C5B C 0.1022(4) -0.0395(4) 0.2136(4)
C6B C 0.0249(3) 0.0358(3) 0.2909(3)
C7A C -0.0417(5) 0.1890(4) 0.1724(4)
C8A C -0.0996(5) 0.2555(4) 0.0928(4)
C9A C -0.0463(4) 0.1545(5) 0.0606(4)
C10A C -0.0074(4) 0.3528(4) 0.0206(4)
C11A C 0.0235(4) 0.2506(3) -0.0355(4)
C12A C 0.1059(4) 0.3156(4) 0.0216(4)
C7B C 0.1724(5) -0.0417(4) 0.1890(4)
C8B C 0.0928(5) -0.0996(4) 0.2555(4)
C9B C 0.0606(4) -0.0463(5) 0.1545(4)
C10B C 0.0206(4) -0.0074(4) 0.3528(4)
C11B C -0.0355(4) 0.0235(3) 0.2506(4)
C12B C 0.0216(4) 0.1059(4) 0.3156(4)
H9A H -0.08300 0.16200 0.18600
H10A H 0.00000 0.15700 0.18400
H11A H -0.03600 0.22800 0.20700
H12A H -0.14300 0.23200 0.10200
H13A H -0.09600 0.29700 0.12700
H14A H -0.09900 0.27700 0.04600
H15A H -0.09000 0.12800 0.06800
H16A H -0.04400 0.16700 0.01000
H17A H -0.00700 0.12000 0.06800
H18A H 0.00000 0.37800 -0.02300
H19A H -0.05600 0.34100 0.02500
H20A H 0.00600 0.38400 0.06000
H21A H 0.02800 0.27700 -0.08000
H22A H 0.05400 0.20900 -0.03800
H23A H -0.02600 0.23200 -0.03600
H24A H 0.11500 0.34200 -0.02200
H25A H 0.11600 0.34600 0.06200
H26A H 0.13900 0.27600 0.02200
H9B H 0.18600 -0.08300 0.16200
H10B H 0.18400 0.00000 0.15700
H11B H 0.20700 -0.03600 0.22800
H12B H 0.10200 -0.14300 0.23200
H13B H 0.12700 -0.09600 0.29700
H14B H 0.04600 -0.09900 0.27700
H15B H 0.06800 -0.09000 0.12800
H16B H 0.01000 -0.04400 0.16700
H17B H 0.06800 -0.00700 0.12000
H18B H -0.02300 0.00000 0.37800
H19B H 0.02500 -0.05600 0.34100
H20B H 0.06000 0.00600 0.38400
H21B H -0.08000 0.02800 0.27700
H22B H -0.03800 0.05400 0.20900
H23B H -0.03600 -0.02600 0.23200
H24B H -0.02200 0.11500 0.34200
H25B H 0.06200 0.11600 0.34600
H26B H 0.02200 0.13900 0.27600
#END
