
#######################################################################
#
#                 Cambridge Crystallographic Data Centre
#                                CCDC
#
#######################################################################
#
# If this CIF has been generated from an entry in the Cambridge
# Structural Database, then it will include bibliographic, chemical,
# crystal, experimental, refinement or atomic coordinate data resulting
# from the CCDC's data processing and validation procedures.
#
#######################################################################

data_CSD_CIF_JAHZEX10
_audit_creation_date 1990-03-16
_audit_creation_method CSD-ConQuest-V1
_database_code_CSD JAHZEX10
_database_code_depnum_ccdc_archive 'CCDC 1182082'
_chemical_formula_sum 'C4 H8 N2 O2'
_chemical_formula_moiety
;
C4 H8 N2 O2
;
_journal_coeditor_code "IUCr GE0011"
_journal_coden_Cambridge 591
_journal_volume 45
_journal_year 1989
_journal_page_first 1554
_journal_name_full 'Acta Crystallogr.,Sect.C:Cryst.Struct.Commun. '
loop_
_publ_author_name
"R.Puliti"
"C.A.Mattia"
"G.Barone"
"C.Giancola"
_chemical_name_systematic
;
N-Acetylglycinamide
;
_chemical_name_common
;
Teaching Subset: Fundamental Chemistry
;
_cell_volume    584.775
_exptl_crystal_density_diffrn 1.319
_diffrn_ambient_temperature ?
_diffrn_special_details
;
The study was carried out at room temperature,in the range 283-303K

;
#These two values have been output from a single CSD field.
_refine_ls_R_factor_gt 0.042
_refine_ls_wR_factor_gt 0.042
_symmetry_cell_setting monoclinic
_symmetry_space_group_name_H-M 'P 21/n'
_symmetry_Int_Tables_number 14
loop_
_symmetry_equiv_pos_site_id
_symmetry_equiv_pos_as_xyz
1 x,y,z
2 1/2-x,1/2+y,1/2-z
3 -x,-y,-z
4 -1/2+x,-1/2-y,-1/2+z
_cell_length_a 5.341(1)
_cell_length_b 8.041(2)
_cell_length_c 13.638(2)
_cell_angle_alpha 90
_cell_angle_beta 93.24(2)
_cell_angle_gamma 90
_cell_formula_units_Z 4
loop_
_atom_type_symbol
_atom_type_radius_bond
C 0.68
H 0.23
N 0.68
O 0.68
loop_
_atom_site_label
_atom_site_type_symbol
_atom_site_fract_x
_atom_site_fract_y
_atom_site_fract_z
O1 O 0.2625(3) 0.0451(2) 0.40757(8)
O2 O 0.6288(3) 0.0784(2) 0.17928(10)
N1 N 0.4267(3) -0.1638(2) 0.1881(1)
N2 N 0.5719(3) -0.1402(2) 0.3910(1)
C1 C 0.2556(3) -0.1010(2) 0.2572(1)
C2 C 0.3689(3) -0.0595(2) 0.3583(1)
C3 C 0.5959(3) -0.0652(2) 0.1499(1)
C4 C 0.7439(4) -0.1410(3) 0.0714(1)
H1 H 0.405(3) -0.274(2) 0.161(1)
H2 H 0.630(3) -0.116(2) 0.460(1)
H3 H 0.653(3) -0.224(2) 0.351(1)
H4 H 0.178(3) -0.003(2) 0.234(1)
H5 H 0.137(3) -0.182(2) 0.267(1)
H6 H 0.650(4) -0.122(2) 0.008(1)
H7 H 0.904(4) -0.087(3) 0.068(2)
H8 H 0.768(4) -0.265(2) 0.084(1)
#END
