####################################################################### 
# 
# This file contains crystal structure data downloaded from the 
# Cambridge Structural Database (CSD) hosted by the Cambridge 
# Crystallographic Data Centre (CCDC).
# 
# Full information about CCDC data access policies and citation 
# guidelines are available at http://www.ccdc.cam.ac.uk/access/V1 
# 
# Audit and citation data items may have been added by the CCDC. 
# Please retain this information to preserve the provenance of 
# this file and to allow appropriate attribution of the data. 
# 
#######################################################################

data_Polymer_1
_audit_block_doi                 10.5517/cc97dyv
_database_code_depnum_ccdc_archive 'CCDC 275247'
loop_
_citation_id
_citation_doi
_citation_year
1 10.1016/j.ica.2005.03.051 2005
_audit_update_record             
;
2005-06-16 deposited with the CCDC.	2024-07-10 downloaded from the CCDC.
;

_audit_creation_method           SHELXL-97
_chemical_name_systematic        
;
?
;
_chemical_name_common            ?
_chemical_melting_point          ?
_chemical_formula_moiety         ?
_chemical_formula_sum            'C19.50 H20 Hg I2 N4 O3.50'
_chemical_formula_weight         820.79

loop_
_atom_type_symbol
_atom_type_description
_atom_type_scat_dispersion_real
_atom_type_scat_dispersion_imag
_atom_type_scat_source
C C 0.0033 0.0016 'International Tables Vol C Tables 4.2.6.8 and 6.1.1.4'
H H 0.0000 0.0000 'International Tables Vol C Tables 4.2.6.8 and 6.1.1.4'
N N 0.0061 0.0033 'International Tables Vol C Tables 4.2.6.8 and 6.1.1.4'
O O 0.0106 0.0060 'International Tables Vol C Tables 4.2.6.8 and 6.1.1.4'
I I -0.4742 1.8119 'International Tables Vol C Tables 4.2.6.8 and 6.1.1.4'
Hg Hg -2.3894 9.2266 'International Tables Vol C Tables 4.2.6.8 and 6.1.1.4'

_symmetry_cell_setting           MONOCLINIC
_symmetry_space_group_name_H-M   C2/C

loop_
_symmetry_equiv_pos_as_xyz
'x, y, z'
'-x, y, -z+1/2'
'x+1/2, y+1/2, z'
'-x+1/2, y+1/2, -z+1/2'
'-x, -y, -z'
'x, -y, z-1/2'
'-x+1/2, -y+1/2, -z'
'x+1/2, -y+1/2, z-1/2'

_cell_length_a                   32.376(7)
_cell_length_b                   5.7356(11)
_cell_length_c                   30.667(6)
_cell_angle_alpha                90.00
_cell_angle_beta                 115.11(3)
_cell_angle_gamma                90.00
_cell_volume                     5156.7(18)
_cell_formula_units_Z            8
_cell_measurement_temperature    291(2)
_cell_measurement_reflns_used    256
_cell_measurement_theta_min      2
_cell_measurement_theta_max      25.2

_exptl_crystal_description       PRISMATIC
_exptl_crystal_colour            YELLOW
_exptl_crystal_size_max          0.24
_exptl_crystal_size_mid          0.20
_exptl_crystal_size_min          0.20
_exptl_crystal_density_meas      ?
_exptl_crystal_density_diffrn    2.114
_exptl_crystal_density_method    'not measured'
_exptl_crystal_F_000             3032
_exptl_absorpt_coefficient_mu    8.391
_exptl_absorpt_correction_type   ?
_exptl_absorpt_correction_T_min  0.2380
_exptl_absorpt_correction_T_max  0.2846
_exptl_absorpt_process_details   ?

_exptl_special_details           
;
?
;

_diffrn_ambient_temperature      291(2)
_diffrn_radiation_wavelength     0.71073
_diffrn_radiation_type           MoK\a
_diffrn_radiation_source         'fine-focus sealed tube'
_diffrn_radiation_monochromator  graphite
_diffrn_measurement_device_type  R-axis-IV
_diffrn_measurement_method       'Osillation frames'
_diffrn_detector_area_resol_mean ?
_diffrn_standards_number         ?
_diffrn_standards_interval_count ?
_diffrn_standards_interval_time  ?
_diffrn_standards_decay_%        ?
_diffrn_reflns_number            6682
_diffrn_reflns_av_R_equivalents  0.0648
_diffrn_reflns_av_sigmaI/netI    0.0716
_diffrn_reflns_limit_h_min       -38
_diffrn_reflns_limit_h_max       6
_diffrn_reflns_limit_k_min       -6
_diffrn_reflns_limit_k_max       6
_diffrn_reflns_limit_l_min       -31
_diffrn_reflns_limit_l_max       36
_diffrn_reflns_theta_min         1.47
_diffrn_reflns_theta_max         25.00
_reflns_number_total             4051
_reflns_number_gt                3148
_reflns_threshold_expression     >2sigma(I)

_computing_data_collection       raxis
_computing_cell_refinement       raxis
_computing_data_reduction        raxis
_computing_structure_solution    'SHELXS-97 (Sheldrick, 1990)'
_computing_structure_refinement  'SHELXL-97 (Sheldrick, 1997)'
_computing_molecular_graphics    texsan
_computing_publication_material  texsan

_refine_special_details          
;
Refinement of F^2^ against ALL reflections. The weighted R-factor wR and
goodness of fit S are based on F^2^, conventional R-factors R are based
on F, with F set to zero for negative F^2^. The threshold expression of
F^2^ > 2sigma(F^2^) is used only for calculating R-factors(gt) etc. and is
not relevant to the choice of reflections for refinement. R-factors based
on F^2^ are statistically about twice as large as those based on F, and R-
factors based on ALL data will be even larger.
;

_refine_ls_structure_factor_coef Fsqd
_refine_ls_matrix_type           full
_refine_ls_weighting_scheme      calc
_refine_ls_weighting_details     
'calc w=1/[\s^2^(Fo^2^)+(0.0699P)^2^+0.0000P] where P=(Fo^2^+2Fc^2^)/3'
_atom_sites_solution_primary     direct
_atom_sites_solution_secondary   difmap
_atom_sites_solution_hydrogens   geom
_refine_ls_hydrogen_treatment    mixed
_refine_ls_extinction_method     SHELXL
_refine_ls_extinction_coef       0.00008(2)
_refine_ls_extinction_expression Fc^*^=kFc[1+0.001xFc^2^\l^3^/sin(2\q)]^-1/4^
_refine_ls_number_reflns         4051
_refine_ls_number_parameters     261
_refine_ls_number_restraints     2
_refine_ls_R_factor_all          0.0729
_refine_ls_R_factor_gt           0.0506
_refine_ls_wR_factor_ref         0.1325
_refine_ls_wR_factor_gt          0.1232
_refine_ls_goodness_of_fit_ref   1.028
_refine_ls_restrained_S_all      1.028
_refine_ls_shift/su_max          0.000
_refine_ls_shift/su_mean         0.000

loop_
_atom_site_label
_atom_site_type_symbol
_atom_site_fract_x
_atom_site_fract_y
_atom_site_fract_z
_atom_site_U_iso_or_equiv
_atom_site_adp_type
_atom_site_occupancy
_atom_site_symmetry_multiplicity
_atom_site_calc_flag
_atom_site_refinement_flags
_atom_site_disorder_assembly
_atom_site_disorder_group
Hg1 Hg 0.134638(16) 0.81310(8) 0.024801(16) 0.05370(19) Uani 1 1 d . . .
I2 I 0.04516(3) 0.73555(18) -0.01614(4) 0.0781(3) Uani 1 1 d . . .
I1 I 0.21697(3) 0.61499(15) 0.06414(3) 0.0678(3) Uani 1 1 d . . .
N1 N 0.1454(3) 1.0966(15) -0.0281(3) 0.054(2) Uani 1 1 d . . .
N2 N 0.1602(3) 1.6181(16) -0.1155(3) 0.055(2) Uani 1 1 d . . .
H2A H 0.1878 1.6415 -0.1117 0.066 Uiso 1 1 calc R . .
N3 N 0.1440(3) 2.4528(18) -0.3065(3) 0.064(3) Uani 1 1 d . . .
H3A H 0.1178 2.3942 -0.3122 0.077 Uiso 1 1 calc R . .
N4 N 0.1411(3) 2.9159(18) -0.4122(3) 0.059(2) Uani 1 1 d . . .
O1 O 0.0889(3) 1.745(2) -0.1557(5) 0.120(5) Uani 1 1 d . . .
O2 O 0.2182(3) 2.4412(18) -0.2542(3) 0.088(3) Uani 1 1 d . . .
C1 C 0.1847(5) 1.121(2) -0.0336(4) 0.062(3) Uani 1 1 d . . .
H1A H 0.2088 1.0197 -0.0173 0.074 Uiso 1 1 calc R . .
C2 C 0.1895(4) 1.2897(19) -0.0624(4) 0.057(3) Uani 1 1 d . . .
H2B H 0.2166 1.2990 -0.0660 0.068 Uiso 1 1 calc R . .
C3 C 0.1543(4) 1.4499(19) -0.0869(4) 0.050(3) Uani 1 1 d . . .
C4 C 0.1151(4) 1.426(2) -0.0801(4) 0.067(3) Uani 1 1 d . . .
H4B H 0.0912 1.5300 -0.0947 0.080 Uiso 1 1 calc R . .
C5 C 0.1110(4) 1.247(2) -0.0516(4) 0.061(3) Uani 1 1 d . . .
H5A H 0.0837 1.2296 -0.0487 0.073 Uiso 1 1 calc R . .
C6 C 0.1278(4) 1.752(2) -0.1491(4) 0.061(3) Uani 1 1 d . . .
C7 C 0.1438(4) 1.9141(19) -0.1767(4) 0.052(3) Uani 1 1 d . . .
C8 C 0.1182(4) 2.116(2) -0.1964(4) 0.069(3) Uani 1 1 d . . .
H8A H 0.0931 2.1505 -0.1901 0.083 Uiso 1 1 calc R . .
C9 C 0.1297(4) 2.265(2) -0.2249(4) 0.063(3) Uani 1 1 d . . .
H9A H 0.1125 2.3986 -0.2372 0.076 Uiso 1 1 calc R . .
C10 C 0.1657(4) 2.2189(18) -0.2353(4) 0.053(3) Uani 1 1 d . . .
C11 C 0.1926(4) 2.023(2) -0.2150(4) 0.059(3) Uani 1 1 d . . .
H11A H 0.2181 1.9910 -0.2206 0.071 Uiso 1 1 calc R . .
C12 C 0.1807(4) 1.878(2) -0.1869(4) 0.056(3) Uani 1 1 d . . .
H12A H 0.1988 1.7478 -0.1738 0.067 Uiso 1 1 calc R . .
C13 C 0.1791(5) 2.381(2) -0.2654(5) 0.063(3) Uani 1 1 d . . .
C14 C 0.1768(4) 2.912(2) -0.3698(4) 0.060(3) Uani 1 1 d . . .
H14A H 0.2006 3.0145 -0.3647 0.072 Uiso 1 1 calc R . .
C15 C 0.1807(4) 2.767(2) -0.3334(4) 0.059(3) Uani 1 1 d . . .
H15A H 0.2064 2.7717 -0.3041 0.071 Uiso 1 1 calc R . .
C16 C 0.1452(4) 2.609(2) -0.3404(4) 0.061(3) Uani 1 1 d . . .
C17 C 0.1079(5) 2.610(3) -0.3868(5) 0.077(4) Uani 1 1 d . . .
H17A H 0.0846 2.5019 -0.3940 0.093 Uiso 1 1 calc R . .
C18 C 0.1059(4) 2.767(2) -0.4205(4) 0.070(4) Uani 1 1 d . . .
H18A H 0.0801 2.7737 -0.4497 0.084 Uiso 1 1 calc R . .
O3 O 0.0470(6) 2.267(3) -0.3399(7) 0.182(6) Uiso 1 1 d D . .
O4 O 0.0175(13) 1.978(8) -0.3088(14) 0.203(16) Uiso 0.50 1 d PD . .
C19 C 0.0535(12) 2.044(7) -0.3460(12) 0.238(15) Uiso 1 1 d D . .
C20 C -0.0046(14) 2.122(9) -0.3319(19) 0.158(18) Uiso 0.50 1 d PD . .

loop_
_atom_site_aniso_label
_atom_site_aniso_U_11
_atom_site_aniso_U_22
_atom_site_aniso_U_33
_atom_site_aniso_U_23
_atom_site_aniso_U_13
_atom_site_aniso_U_12
Hg1 0.0541(3) 0.0593(3) 0.0508(3) -0.0005(2) 0.0252(2) 0.0019(2)
I2 0.0530(6) 0.0866(6) 0.0923(7) -0.0013(5) 0.0286(5) -0.0030(4)
I1 0.0582(5) 0.0712(5) 0.0714(6) -0.0011(4) 0.0250(4) 0.0120(4)
N1 0.060(6) 0.052(5) 0.052(6) 0.014(4) 0.026(5) 0.003(5)
N2 0.047(6) 0.059(5) 0.063(6) 0.005(5) 0.026(5) 0.000(4)
N3 0.054(6) 0.081(7) 0.051(6) 0.019(5) 0.014(5) -0.018(5)
N4 0.053(6) 0.078(7) 0.045(6) 0.012(5) 0.021(5) -0.003(5)
O1 0.057(6) 0.156(10) 0.161(11) 0.105(9) 0.058(7) 0.027(7)
O2 0.055(6) 0.111(8) 0.095(7) 0.040(6) 0.029(5) 0.010(5)
C1 0.071(9) 0.059(7) 0.056(7) 0.005(6) 0.026(7) 0.006(6)
C2 0.060(7) 0.059(7) 0.054(7) 0.015(6) 0.027(6) 0.013(6)
C3 0.049(7) 0.057(6) 0.046(6) 0.004(5) 0.023(5) 0.004(5)
C4 0.061(8) 0.084(9) 0.059(8) 0.025(7) 0.029(7) 0.022(7)
C5 0.061(8) 0.072(8) 0.056(7) 0.011(6) 0.032(6) 0.000(6)
C6 0.043(7) 0.075(8) 0.063(8) 0.023(6) 0.021(6) 0.003(6)
C7 0.058(7) 0.059(7) 0.042(6) 0.007(5) 0.023(6) 0.011(6)
C8 0.062(8) 0.091(9) 0.067(8) 0.020(7) 0.039(7) 0.013(7)
C9 0.049(7) 0.080(8) 0.064(8) 0.024(6) 0.027(6) 0.010(6)
C10 0.064(8) 0.048(6) 0.055(7) 0.006(5) 0.033(6) 0.001(5)
C11 0.060(8) 0.071(7) 0.055(7) 0.019(6) 0.032(6) 0.007(6)
C12 0.053(7) 0.060(6) 0.054(7) 0.019(6) 0.023(6) 0.010(5)
C13 0.052(8) 0.071(8) 0.067(8) 0.009(6) 0.028(7) 0.004(6)
C14 0.057(8) 0.066(7) 0.061(8) -0.003(6) 0.029(7) -0.016(6)
C15 0.059(8) 0.071(7) 0.053(7) 0.001(6) 0.028(6) -0.002(6)
C16 0.067(8) 0.080(8) 0.039(7) 0.006(6) 0.025(6) -0.010(7)
C17 0.077(10) 0.095(10) 0.062(8) 0.009(7) 0.032(8) -0.028(8)
C18 0.067(9) 0.090(9) 0.049(7) 0.017(7) 0.019(6) -0.013(7)

_geom_special_details            
;
All esds (except the esd in the dihedral angle between two l.s. planes)
are estimated using the full covariance matrix. The cell esds are taken
into account individually in the estimation of esds in distances, angles
and torsion angles; correlations between esds in cell parameters are only
used when they are defined by crystal symmetry. An approximate (isotropic)
treatment of cell esds is used for estimating esds involving l.s. planes.
;

loop_
_geom_bond_atom_site_label_1
_geom_bond_atom_site_label_2
_geom_bond_distance
_geom_bond_site_symmetry_2
_geom_bond_publ_flag
Hg1 N4 2.417(9) 6_596 ?
Hg1 N1 2.425(8) . ?
Hg1 I2 2.6608(13) . ?
Hg1 I1 2.6690(12) . ?
N1 C5 1.349(14) . ?
N1 C1 1.356(14) . ?
N2 C6 1.354(14) . ?
N2 C3 1.371(13) . ?
N3 C13 1.351(15) . ?
N3 C16 1.385(13) . ?
N4 C14 1.323(14) . ?
N4 C18 1.360(15) . ?
N4 Hg1 2.417(9) 6_595 ?
O1 C6 1.189(13) . ?
O2 C13 1.213(14) . ?
C1 C2 1.365(15) . ?
C2 C3 1.406(14) . ?
C3 C4 1.379(15) . ?
C4 C5 1.390(16) . ?
C6 C7 1.491(15) . ?
C7 C12 1.375(14) . ?
C7 C8 1.404(16) . ?
C8 C9 1.380(15) . ?
C9 C10 1.361(14) . ?
C10 C11 1.396(15) . ?
C10 C13 1.497(15) . ?
C11 C12 1.362(14) . ?
C14 C15 1.355(15) . ?
C15 C16 1.406(16) . ?
C16 C17 1.422(17) . ?
C17 C18 1.352(17) . ?
O3 C19 1.33(4) . ?
O4 C20 1.12(6) . ?

loop_
_geom_angle_atom_site_label_1
_geom_angle_atom_site_label_2
_geom_angle_atom_site_label_3
_geom_angle
_geom_angle_site_symmetry_1
_geom_angle_site_symmetry_3
_geom_angle_publ_flag
N4 Hg1 N1 96.6(3) 6_596 . ?
N4 Hg1 I2 101.1(2) 6_596 . ?
N1 Hg1 I2 103.5(2) . . ?
N4 Hg1 I1 100.4(2) 6_596 . ?
N1 Hg1 I1 100.8(2) . . ?
I2 Hg1 I1 145.16(4) . . ?
C5 N1 C1 118.3(9) . . ?
C5 N1 Hg1 117.7(7) . . ?
C1 N1 Hg1 124.0(7) . . ?
C6 N2 C3 127.7(10) . . ?
C13 N3 C16 128.1(10) . . ?
C14 N4 C18 119.0(10) . . ?
C14 N4 Hg1 122.8(8) . 6_595 ?
C18 N4 Hg1 118.2(8) . 6_595 ?
N1 C1 C2 121.5(11) . . ?
C1 C2 C3 121.4(11) . . ?
N2 C3 C4 123.7(10) . . ?
N2 C3 C2 120.0(10) . . ?
C4 C3 C2 116.2(10) . . ?
C3 C4 C5 120.6(11) . . ?
N1 C5 C4 122.0(11) . . ?
O1 C6 N2 122.4(11) . . ?
O1 C6 C7 121.4(11) . . ?
N2 C6 C7 116.2(10) . . ?
C12 C7 C8 115.9(10) . . ?
C12 C7 C6 125.6(10) . . ?
C8 C7 C6 118.4(10) . . ?
C9 C8 C7 120.8(11) . . ?
C10 C9 C8 121.4(11) . . ?
C9 C10 C11 118.9(10) . . ?
C9 C10 C13 121.7(10) . . ?
C11 C10 C13 119.3(10) . . ?
C12 C11 C10 118.9(10) . . ?
C11 C12 C7 124.0(11) . . ?
O2 C13 N3 122.7(11) . . ?
O2 C13 C10 122.7(12) . . ?
N3 C13 C10 114.6(11) . . ?
N4 C14 C15 124.1(11) . . ?
C14 C15 C16 118.9(11) . . ?
N3 C16 C15 125.6(11) . . ?
N3 C16 C17 118.2(11) . . ?
C15 C16 C17 116.2(11) . . ?
C18 C17 C16 120.9(12) . . ?
C17 C18 N4 120.7(12) . . ?

loop_
_geom_torsion_atom_site_label_1
_geom_torsion_atom_site_label_2
_geom_torsion_atom_site_label_3
_geom_torsion_atom_site_label_4
_geom_torsion
_geom_torsion_site_symmetry_1
_geom_torsion_site_symmetry_2
_geom_torsion_site_symmetry_3
_geom_torsion_site_symmetry_4
_geom_torsion_publ_flag
N4 Hg1 N1 C5 -72.5(9) 6_596 . . . ?
I2 Hg1 N1 C5 30.6(9) . . . . ?
I1 Hg1 N1 C5 -174.5(8) . . . . ?
N4 Hg1 N1 C1 104.0(9) 6_596 . . . ?
I2 Hg1 N1 C1 -152.8(8) . . . . ?
I1 Hg1 N1 C1 2.1(9) . . . . ?
C5 N1 C1 C2 -0.8(17) . . . . ?
Hg1 N1 C1 C2 -177.3(9) . . . . ?
N1 C1 C2 C3 1.5(18) . . . . ?
C6 N2 C3 C4 -15.3(18) . . . . ?
C6 N2 C3 C2 164.7(11) . . . . ?
C1 C2 C3 N2 179.8(11) . . . . ?
C1 C2 C3 C4 -0.1(17) . . . . ?
N2 C3 C4 C5 178.1(11) . . . . ?
C2 C3 C4 C5 -1.9(18) . . . . ?
C1 N1 C5 C4 -1.4(18) . . . . ?
Hg1 N1 C5 C4 175.4(9) . . . . ?
C3 C4 C5 N1 3(2) . . . . ?
C3 N2 C6 O1 4(2) . . . . ?
C3 N2 C6 C7 -177.2(10) . . . . ?
O1 C6 C7 C12 -152.5(15) . . . . ?
N2 C6 C7 C12 29.2(18) . . . . ?
O1 C6 C7 C8 24(2) . . . . ?
N2 C6 C7 C8 -154.2(11) . . . . ?
C12 C7 C8 C9 1.2(18) . . . . ?
C6 C7 C8 C9 -175.8(12) . . . . ?
C7 C8 C9 C10 1(2) . . . . ?
C8 C9 C10 C11 -2.8(19) . . . . ?
C8 C9 C10 C13 -178.8(12) . . . . ?
C9 C10 C11 C12 2.5(18) . . . . ?
C13 C10 C11 C12 178.7(11) . . . . ?
C10 C11 C12 C7 -0.5(19) . . . . ?
C8 C7 C12 C11 -1.4(18) . . . . ?
C6 C7 C12 C11 175.3(12) . . . . ?
C16 N3 C13 O2 -4(2) . . . . ?
C16 N3 C13 C10 177.1(11) . . . . ?
C9 C10 C13 O2 133.3(14) . . . . ?
C11 C10 C13 O2 -42.7(19) . . . . ?
C9 C10 C13 N3 -47.6(17) . . . . ?
C11 C10 C13 N3 136.4(12) . . . . ?
C18 N4 C14 C15 0.1(19) . . . . ?
Hg1 N4 C14 C15 177.8(9) 6_595 . . . ?
N4 C14 C15 C16 0.4(19) . . . . ?
C13 N3 C16 C15 -17(2) . . . . ?
C13 N3 C16 C17 162.6(13) . . . . ?
C14 C15 C16 N3 -179.1(12) . . . . ?
C14 C15 C16 C17 1.7(18) . . . . ?
N3 C16 C17 C18 176.3(13) . . . . ?
C15 C16 C17 C18 -4(2) . . . . ?
C16 C17 C18 N4 5(2) . . . . ?
C14 N4 C18 C17 -3(2) . . . . ?
Hg1 N4 C18 C17 179.3(11) 6_595 . . . ?

_diffrn_measured_fraction_theta_max 0.892
_diffrn_reflns_theta_full        25.00
_diffrn_measured_fraction_theta_full 0.892
_refine_diff_density_max         1.398
_refine_diff_density_min         -1.189
_refine_diff_density_rms         0.187
