
#######################################################################
#
#                 Cambridge Crystallographic Data Centre
#                                CCDC
#
#######################################################################
#
# If this CIF has been generated from an entry in the Cambridge
# Structural Database, then it will include bibliographic, chemical,
# crystal, experimental, refinement or atomic coordinate data resulting
# from the CCDC's data processing and validation procedures.
#
#######################################################################

data_CSD_CIF_JARMEU
_audit_creation_date 1990-02-23
_audit_creation_method CSD-ConQuest-V1
_database_code_CSD JARMEU
_database_code_depnum_ccdc_archive 'CCDC 1182897'
_chemical_formula_sum 'C75.2 H54.5 B1 Cu1 F4 N11.7 O15.4'
_chemical_formula_moiety
;
(C29 H16 Cu1 N4 1+)n,n(B1 F4 1-),7.7n(C6 H5 N1 O2)
;
_journal_coden_Cambridge 4
_journal_volume 111
_journal_year 1989
_journal_page_first 5962
_journal_name_full 'J.Am.Chem.Soc. '
loop_
_publ_author_name
"B.F.Hoskins"
"R.Robson"
_chemical_name_systematic
;
catena((\m~4~-4,4',4'',4'''-Tetracyanotetraphenylmethane)-copper(i) 
tetrafluoroborate nitrobenzene solvate)
;
_chemical_name_common
;
Teaching Subset: MOFs
;
_cell_volume   4200.191
_exptl_crystal_colour 'colorless'
_exptl_crystal_density_diffrn 1.2
_diffrn_ambient_temperature ?
_diffrn_special_details
;
The study was carried out at room temperature,in the range 283-303K

;
_refine_special_details
;
Disordered nitrobenzene.

;
#These two values have been output from a single CSD field.
_refine_ls_R_factor_gt 0.157
_refine_ls_wR_factor_gt 0.157
_symmetry_cell_setting tetragonal
_symmetry_space_group_name_H-M 'I -4 m 2'
_symmetry_Int_Tables_number 119
loop_
_symmetry_equiv_pos_site_id
_symmetry_equiv_pos_as_xyz
1 x,y,z
2 1/2+x,1/2+y,1/2+z
3 -y,x,-z
4 1/2-y,1/2+x,1/2-z
5 -x,-y,z
6 1/2-x,1/2-y,1/2+z
7 y,-x,-z
8 1/2+y,1/2-x,1/2-z
9 -x,y,z
10 1/2-x,1/2+y,1/2+z
11 y,x,-z
12 1/2+y,1/2+x,1/2-z
13 x,-y,z
14 1/2+x,1/2-y,1/2+z
15 -y,-x,-z
16 1/2-y,1/2-x,1/2-z
_cell_length_a 13.620(2)
_cell_length_b 13.620(2)
_cell_length_c 22.642(2)
_cell_angle_alpha 90
_cell_angle_beta 90
_cell_angle_gamma 90
_cell_formula_units_Z 2
loop_
_atom_type_symbol
_atom_type_radius_bond
C 0.68
Cu 1.52
N 0.68
loop_
_atom_site_label
_atom_site_type_symbol
_atom_site_fract_x
_atom_site_fract_y
_atom_site_fract_z
Cu1 Cu 0.00000 0.00000 0.00000
N1 N 0.00000 0.119(3) 0.054(2)
C1 C 0.00000 0.176(4) 0.084(2)
C2 C 0.00000 0.258(4) 0.124(3)
C3 C 0.095(3) 0.297(3) 0.144(2)
C4 C 0.093(3) 0.380(3) 0.188(2)
C5 C 0.00000 0.413(3) 0.210(2)
C6 C 0.00000 0.50000 0.25000
N1C N 0.38100 0.500(3) 0.446(2)
C1C C 0.32400 0.500(4) 0.416(2)
C2C C 0.24200 0.500(4) 0.376(3)
C3C C 0.203(3) 0.595(3) 0.356(2)
C4C C 0.120(3) 0.593(3) 0.312(2)
C5C C 0.08700 0.500(3) 0.290(2)
N1D N 0.00000 0.881(3) 0.054(2)
C1D C 0.00000 0.824(4) 0.084(2)
C2D C 0.00000 0.742(4) 0.124(3)
C3D C -0.095(3) 0.703(3) 0.144(2)
C4D C -0.093(3) 0.620(3) 0.188(2)
C5D C 0.00000 0.587(3) 0.210(2)
N1G N -0.38100 0.500(3) 0.446(2)
C1G C -0.32400 0.500(4) 0.416(2)
C2G C -0.24200 0.500(4) 0.376(3)
C3G C -0.203(3) 0.405(3) 0.356(2)
C4G C -0.120(3) 0.407(3) 0.312(2)
C5G C -0.08700 0.500(3) 0.290(2)
C3H C -0.095(3) 0.297(3) 0.144(2)
C4H C -0.093(3) 0.380(3) 0.188(2)
C3K C -0.203(3) 0.595(3) 0.356(2)
C4K C -0.120(3) 0.593(3) 0.312(2)
C3L C 0.095(3) 0.703(3) 0.144(2)
C4L C 0.093(3) 0.620(3) 0.188(2)
C3O C 0.203(3) 0.405(3) 0.356(2)
C4O C 0.120(3) 0.407(3) 0.312(2)
Cu1* Cu 0.00000 1.00000 0.00000
Cu1A Cu -0.50000 0.50000 0.50000
Cu1A* Cu 0.50000 0.50000 0.50000
N1B N -0.11900 0.000(3) -0.054(2)
N1D* N 0.00000 -0.119(3) 0.054(2)
N1F N 0.11900 0.000(3) -0.054(2)
#END
