####################################################################### 
# 
# This file contains crystal structure data downloaded from the 
# Cambridge Structural Database (CSD) hosted by the Cambridge 
# Crystallographic Data Centre (CCDC).
# 
# Full information about CCDC data access policies and citation 
# guidelines are available at http://www.ccdc.cam.ac.uk/access/V1 
# 
# Audit and citation data items may have been added by the CCDC. 
# Please retain this information to preserve the provenance of 
# this file and to allow appropriate attribution of the data. 
# 
#######################################################################

data_JARMEU10
#This CIF has been generated from an entry in the Cambridge Structural Database
_database_code_depnum_ccdc_archive 'CCDC 1182898'
_database_code_CSD               JARMEU10
loop_
_citation_id
_citation_doi
_citation_year
1 10.1021/ja00160a038 1990
_audit_creation_method           'Created from the CSD'
_audit_update_record             
;
2024-07-10 downloaded from the CCDC.
;
_database_code_NBS               590893
_chemical_formula_moiety         
'(C29 H16 Cu1 N4 1+)n,n(B1 F4 1-),7.7n(C6 H5 N1 O2)'
_chemical_name_systematic        
"catena-(tetrakis(4,4',4'',4'''-Tetracyanotetraphenylmethane)-copper(i) tetrafluoroborate nitrobenzene solvate)"
_chemical_absolute_configuration unk
_diffrn_ambient_temperature      295
_exptl_crystal_density_diffrn    1.201
#These two values have been output from a single CSD field.
_refine_ls_R_factor_gt           0.157
_refine_ls_wR_factor_gt          0.157
_diffrn_radiation_probe          x-ray
_symmetry_cell_setting           tetragonal
_symmetry_space_group_name_H-M   'I -4 m 2'
_symmetry_Int_Tables_number      119
_space_group_name_Hall           'I -4 -2'
loop_
_symmetry_equiv_pos_site_id
_symmetry_equiv_pos_as_xyz
1 x,y,z
2 1/2+x,1/2+y,1/2+z
3 -y,x,-z
4 1/2-y,1/2+x,1/2-z
5 -x,-y,z
6 1/2-x,1/2-y,1/2+z
7 y,-x,-z
8 1/2+y,1/2-x,1/2-z
9 -x,y,z
10 1/2-x,1/2+y,1/2+z
11 y,x,-z
12 1/2+y,1/2+x,1/2-z
13 x,-y,z
14 1/2+x,1/2-y,1/2+z
15 -y,-x,-z
16 1/2-y,1/2-x,1/2-z
_cell_length_a                   13.620(2)
_cell_length_b                   13.620(2)
_cell_length_c                   22.642(2)
_cell_angle_alpha                90
_cell_angle_beta                 90
_cell_angle_gamma                90
_cell_volume                     4200.19
_exptl_crystal_colour            colorless
_cell_formula_units_Z            2
loop_
_atom_site_label
_atom_site_type_symbol
_atom_site_fract_x
_atom_site_fract_y
_atom_site_fract_z
Cu1 Cu 0.000 0.0000 0.0000
N1 N 0.000 0.119(3) 0.054(2)
C1 C 0.000 0.176(4) 0.084(2)
C2 C 0.000 0.258(4) 0.124(3)
C3 C 0.095(3) 0.297(3) 0.144(2)
C4 C 0.093(3) 0.380(3) 0.188(2)
C5 C 0.000 0.413(3) 0.210(2)
C6 C 0.000 0.5000 0.2500
N1 N 0.381(3) 0.500 0.446(2)
C1 C 0.324(4) 0.500 0.416(2)
C2 C 0.242(4) 0.500 0.376(3)
C3 C 0.203(3) 0.595(3) 0.356(2)
C4 C 0.120(3) 0.593(3) 0.312(2)
C5 C 0.087(3) 0.500 0.290(2)
N1 N 0.000 0.881(3) 0.054(2)
C1 C 0.000 0.824(4) 0.084(2)
C2 C 0.000 0.742(4) 0.124(3)
C3 C -0.095(3) 0.703(3) 0.144(2)
C4 C -0.093(3) 0.620(3) 0.188(2)
C5 C 0.000 0.587(3) 0.210(2)
N1 N -0.381(3) 0.500 0.446(2)
C1 C -0.324(4) 0.500 0.416(2)
C2 C -0.242(4) 0.500 0.376(3)
C3 C -0.203(3) 0.405(3) 0.356(2)
C4 C -0.120(3) 0.407(3) 0.312(2)
C5 C -0.087(3) 0.500 0.290(2)
C3 C -0.095(3) 0.297(3) 0.144(2)
C4 C -0.093(3) 0.380(3) 0.188(2)
C3 C -0.203(3) 0.595(3) 0.356(2)
C4 C -0.120(3) 0.593(3) 0.312(2)
C3 C 0.095(3) 0.703(3) 0.144(2)
C4 C 0.093(3) 0.620(3) 0.188(2)
C3 C 0.203(3) 0.405(3) 0.356(2)
C4 C 0.120(3) 0.407(3) 0.312(2)
Cu1 Cu 0.000 1.0000 0.0000
Cu1 Cu -0.500 0.5000 0.5000
Cu1 Cu 0.500 0.5000 0.5000
N1 N -0.119(3) 0.000 -0.054(2)
N1 N 0.000 -0.119(3) 0.054(2)
N1 N 0.119(3) 0.000 -0.054(2)

#END
