
#######################################################################
#
#                 Cambridge Crystallographic Data Centre
#                                CCDC
#
#######################################################################
#
# If this CIF has been generated from an entry in the Cambridge
# Structural Database, then it will include bibliographic, chemical,
# crystal, experimental, refinement or atomic coordinate data resulting
# from the CCDC's data processing and validation procedures.
#
#######################################################################

data_CSD_CIF_JASBUB
_audit_creation_date 2005-10-07
_audit_creation_method CSD-ConQuest-V1
_database_code_CSD JASBUB
_database_code_depnum_ccdc_archive 'CCDC 253220'
_chemical_formula_sum 'C14 H25 I4 N1 Te1'
_chemical_formula_moiety
;
C8 H20 N1 1+,C6 H5 I4 Te1 1-
;
_journal_coden_Cambridge 29
_journal_volume 631
_journal_year 2005
_journal_page_first 1524
_journal_name_full 'Z.Anorg.Allg.Chem. '
loop_
_publ_author_name
"E.S.Lang"
"G.M.de Oliveira"
"G.N.Ledesma"
_chemical_name_systematic
;
Tetraethylammonium tetraiodo-tellurium(iv)
;
_chemical_name_common
;
Teaching Subset: Fundamental Chemistry
;
_chemical_melting_point 419.4
_cell_volume   2271.563
_exptl_crystal_colour 'blue'
_exptl_crystal_density_diffrn 2.464
_exptl_special_details
;
Melting point range 419.4-421K
air-sensitive

;
_exptl_crystal_description 'prism'
_diffrn_ambient_temperature 293
#These two values have been output from a single CSD field.
_refine_ls_R_factor_gt 0.0313
_refine_ls_wR_factor_gt 0.0313
_symmetry_cell_setting monoclinic
_symmetry_space_group_name_H-M 'P 21/c'
_symmetry_Int_Tables_number 14
loop_
_symmetry_equiv_pos_site_id
_symmetry_equiv_pos_as_xyz
1 x,y,z
2 -x,1/2+y,1/2-z
3 -x,-y,-z
4 x,-1/2-y,-1/2+z
_cell_length_a 9.6534(7)
_cell_length_b 23.7279(17)
_cell_length_c 9.9507(7)
_cell_angle_alpha 90
_cell_angle_beta 94.709(2)
_cell_angle_gamma 90
_cell_formula_units_Z 4
loop_
_atom_type_symbol
_atom_type_radius_bond
C 0.68
H 0.23
I 1.40
N 0.68
Te 1.47
loop_
_atom_site_label
_atom_site_type_symbol
_atom_site_fract_x
_atom_site_fract_y
_atom_site_fract_z
N1 N 0.3746(4) 0.64039(17) 0.1874(4)
C1 C 0.3800(7) 0.6493(2) 0.3380(5)
H1 H 0.46200 0.63060 0.37950
H2 H 0.29940 0.63150 0.37180
C2 C 0.3834(6) 0.7111(2) 0.3820(5)
H3 H 0.38670 0.71320 0.47850
H4 H 0.30130 0.72990 0.34360
H5 H 0.46420 0.72910 0.35130
C3 C 0.3559(7) 0.5598(3) 0.0167(6)
H6 H 0.34540 0.51960 0.01110
H7 H 0.44190 0.57050 -0.01810
H8 H 0.27990 0.57760 -0.03530
C4 C 0.3566(6) 0.5781(2) 0.1630(6)
H9 H 0.26980 0.56640 0.19710
H10 H 0.43110 0.55840 0.21490
C5 C 0.5073(6) 0.6616(3) 0.1318(6)
H11 H 0.49640 0.65950 0.03410
H12 H 0.52000 0.70100 0.15620
C6 C 0.2554(7) 0.6734(3) 0.1177(6)
H13 H 0.25070 0.66510 0.02200
H14 H 0.27570 0.71330 0.12840
C7 C 0.6371(7) 0.6293(3) 0.1817(8)
H15 H 0.71640 0.64550 0.14390
H16 H 0.62750 0.59060 0.15450
H17 H 0.64950 0.63140 0.27830
C8 C 0.1136(7) 0.6620(3) 0.1680(8)
H18 H 0.04470 0.68440 0.11760
H19 H 0.11540 0.67170 0.26180
H20 H 0.09110 0.62280 0.15640
C9 C 0.1702(6) 0.4151(2) 0.4545(5)
C10 C 0.2623(6) 0.4588(2) 0.4444(6)
H21 H 0.31740 0.46060 0.37220
C11 C 0.0841(6) 0.4131(2) 0.5597(6)
H22 H 0.02100 0.38380 0.56600
C12 C 0.0948(8) 0.4566(3) 0.6569(6)
H23 H 0.03790 0.45600 0.72790
C13 C 0.1876(9) 0.4996(3) 0.6478(7)
H24 H 0.19320 0.52800 0.71230
C14 C 0.2724(8) 0.5009(3) 0.5442(7)
H25 H 0.33710 0.52970 0.53970
Te1 Te 0.15481(3) 0.349692(14) 0.30500(3)
I1 I -0.14707(4) 0.337954(16) 0.31174(4)
I2 I 0.45644(4) 0.355135(18) 0.27922(4)
I3 I 0.10352(4) 0.436143(16) 0.09735(4)
I4 I 0.19681(4) 0.264803(17) 0.52084(4)
#END
