####################################################################### 
# 
# This file contains crystal structure data downloaded from the 
# Cambridge Structural Database (CSD) hosted by the Cambridge 
# Crystallographic Data Centre (CCDC).
# 
# Full information about CCDC data access policies and citation 
# guidelines are available at http://www.ccdc.cam.ac.uk/access/V1 
# 
# Audit and citation data items may have been added by the CCDC. 
# Please retain this information to preserve the provenance of 
# this file and to allow appropriate attribution of the data. 
# 
#######################################################################

data_6
_audit_block_doi                 10.5517/cc8kzmd
_database_code_depnum_ccdc_archive 'CCDC 255614'
loop_
_citation_id
_citation_doi
_citation_year
1 10.1002/chem.200401201 2005
_audit_update_record             
;
2004-11-12 deposited with the CCDC.	2024-07-10 downloaded from the CCDC.
;

_audit_creation_method           SHELXL-97
_chemical_name_systematic        
;
?
;
_chemical_name_common            '[Zn2(1,4-bdc)2(bpy)]'
_chemical_melting_point          ?
_chemical_formula_moiety         ?
_chemical_formula_sum            'C26 H16 N2 O8 Zn2'
_chemical_formula_weight         615.15

loop_
_atom_type_symbol
_atom_type_description
_atom_type_scat_dispersion_real
_atom_type_scat_dispersion_imag
_atom_type_scat_source
C C 0.0033 0.0016 'International Tables Vol C Tables 4.2.6.8 and 6.1.1.4'
H H 0.0000 0.0000 'International Tables Vol C Tables 4.2.6.8 and 6.1.1.4'
N N 0.0061 0.0033 'International Tables Vol C Tables 4.2.6.8 and 6.1.1.4'
O O 0.0106 0.0060 'International Tables Vol C Tables 4.2.6.8 and 6.1.1.4'
Zn Zn 0.2839 1.4301 'International Tables Vol C Tables 4.2.6.8 and 6.1.1.4'

_symmetry_cell_setting           triclinic
_symmetry_space_group_name_H-M   'P -1'

loop_
_symmetry_equiv_pos_as_xyz
'x, y, z'
'-x, -y, -z'

_cell_length_a                   10.8830(13)
_cell_length_b                   10.9258(13)
_cell_length_c                   14.0658(17)
_cell_angle_alpha                92.417(2)
_cell_angle_beta                 90.099(2)
_cell_angle_gamma                101.723(2)
_cell_volume                     1636.1(3)
_cell_formula_units_Z            2
_cell_measurement_temperature    243(2)
_cell_measurement_reflns_used    ?
_cell_measurement_theta_min      ?
_cell_measurement_theta_max      ?

_exptl_crystal_description       block
_exptl_crystal_colour            colorless
_exptl_crystal_size_max          0.30
_exptl_crystal_size_mid          0.30
_exptl_crystal_size_min          0.20
_exptl_crystal_density_meas      ?
_exptl_crystal_density_diffrn    1.249
_exptl_crystal_density_method    'not measured'
_exptl_crystal_F_000             620
_exptl_absorpt_coefficient_mu    1.507
_exptl_absorpt_correction_type   semi-empirical
_exptl_absorpt_correction_T_min  0.6606
_exptl_absorpt_correction_T_max  0.7526
_exptl_absorpt_process_details   'Bruker SADABS'

_exptl_special_details           
;
?
;

_diffrn_ambient_temperature      243(2)
_diffrn_radiation_wavelength     0.71073
_diffrn_radiation_type           MoK\a
_diffrn_radiation_source         'fine-focus sealed tube'
_diffrn_radiation_monochromator  graphite
_diffrn_measurement_device_type  'SMART CCD'
_diffrn_measurement_method       'omega scan'
_diffrn_detector_area_resol_mean ?
_diffrn_standards_number         ?
_diffrn_standards_interval_count ?
_diffrn_standards_interval_time  ?
_diffrn_standards_decay_%        ?
_diffrn_reflns_number            9742
_diffrn_reflns_av_R_equivalents  0.0328
_diffrn_reflns_av_sigmaI/netI    0.0905
_diffrn_reflns_limit_h_min       -14
_diffrn_reflns_limit_h_max       14
_diffrn_reflns_limit_k_min       -12
_diffrn_reflns_limit_k_max       14
_diffrn_reflns_limit_l_min       -18
_diffrn_reflns_limit_l_max       14
_diffrn_reflns_theta_min         1.91
_diffrn_reflns_theta_max         28.29
_reflns_number_total             7306
_reflns_number_gt                5493
_reflns_threshold_expression     >2sigma(I)

_computing_data_collection       'Bruker SMART'
_computing_cell_refinement       'Bruker SAINT'
_computing_data_reduction        'Bruker SAINT'
_computing_structure_solution    'SHELXS-97 (Sheldrick, 1990)'
_computing_structure_refinement  'SHELXL-97 (Sheldrick, 1997)'
_computing_molecular_graphics    DIAMOND
_computing_publication_material  WORD

_refine_special_details          
;
Refinement of F^2^ against ALL reflections. The weighted R-factor wR and
goodness of fit S are based on F^2^, conventional R-factors R are based
on F, with F set to zero for negative F^2^. The threshold expression of
F^2^ > 2sigma(F^2^) is used only for calculating R-factors(gt) etc. and is
not relevant to the choice of reflections for refinement. R-factors based
on F^2^ are statistically about twice as large as those based on F, and R-
factors based on ALL data will be even larger.
;

_refine_ls_structure_factor_coef Fsqd
_refine_ls_matrix_type           full
_refine_ls_weighting_scheme      calc
_refine_ls_weighting_details     
'calc w=1/[\s^2^(Fo^2^)+(0.0744P)^2^+8.3060P] where P=(Fo^2^+2Fc^2^)/3'
_atom_sites_solution_primary     direct
_atom_sites_solution_secondary   difmap
_atom_sites_solution_hydrogens   geom
_refine_ls_hydrogen_treatment    mixed
_refine_ls_extinction_method     none
_refine_ls_extinction_coef       ?
_refine_ls_number_reflns         7306
_refine_ls_number_parameters     359
_refine_ls_number_restraints     0
_refine_ls_R_factor_all          0.1019
_refine_ls_R_factor_gt           0.0776
_refine_ls_wR_factor_ref         0.2121
_refine_ls_wR_factor_gt          0.1950
_refine_ls_goodness_of_fit_ref   1.093
_refine_ls_restrained_S_all      1.093
_refine_ls_shift/su_max          0.000
_refine_ls_shift/su_mean         0.000

loop_
_atom_site_label
_atom_site_type_symbol
_atom_site_fract_x
_atom_site_fract_y
_atom_site_fract_z
_atom_site_U_iso_or_equiv
_atom_site_adp_type
_atom_site_occupancy
_atom_site_symmetry_multiplicity
_atom_site_calc_flag
_atom_site_refinement_flags
_atom_site_disorder_assembly
_atom_site_disorder_group
Zn1 Zn 0.73496(6) 0.65562(6) 0.10922(4) 0.01712(18) Uani 1 1 d . . .
Zn2 Zn 0.73791(6) 0.66844(6) 0.31814(4) 0.01735(18) Uani 1 1 d . . .
N1 N 0.7362(4) 0.6647(5) 0.4630(3) 0.0256(11) Uani 1 1 d . . .
N2 N 0.7349(5) 0.6598(5) -0.0348(3) 0.0259(11) Uani 1 1 d . . .
O1 O 0.5503(4) 0.6428(5) 0.1331(3) 0.0361(11) Uani 1 1 d . . .
O2 O 0.5532(4) 0.6550(5) 0.2921(3) 0.0383(11) Uani 1 1 d . . .
O3 O 0.7161(5) 0.4683(4) 0.1323(4) 0.0418(12) Uani 1 1 d . . .
O4 O 0.7142(5) 0.4789(5) 0.2894(4) 0.0459(13) Uani 1 1 d . . .
O5 O 0.7561(5) 0.8428(4) 0.1423(4) 0.0412(12) Uani 1 1 d . . .
O6 O 0.7604(5) 0.8550(4) 0.3012(4) 0.0437(12) Uani 1 1 d . . .
O7 O 0.9195(4) 0.6688(5) 0.1341(3) 0.0360(11) Uani 1 1 d . . .
O8 O 0.9213(4) 0.6762(5) 0.2926(3) 0.0365(11) Uani 1 1 d . . .
C1 C 0.5003(5) 0.6505(6) 0.2124(4) 0.0246(12) Uani 1 1 d . . .
C2 C 0.3637(5) 0.6571(6) 0.2121(4) 0.0254(12) Uani 1 1 d . . .
C3 C 0.2974(6) 0.6508(6) 0.1275(4) 0.0301(13) Uani 1 1 d . . .
H3 H 0.3382 0.6432 0.0694 0.036 Uiso 1 1 calc R . .
C4 C 0.1709(6) 0.6554(7) 0.1280(4) 0.0312(14) Uani 1 1 d . . .
H4 H 0.1263 0.6508 0.0702 0.037 Uiso 1 1 calc R . .
C5 C 0.3015(6) 0.6687(6) 0.2982(4) 0.0309(14) Uani 1 1 d . . .
H5 H 0.3460 0.6735 0.3561 0.037 Uiso 1 1 calc R . .
C6 C 0.7207(6) 0.4226(6) 0.2124(5) 0.0291(13) Uani 1 1 d . . .
C7 C 0.7334(6) 0.2884(5) 0.2140(5) 0.0308(14) Uani 1 1 d . . .
C8 C 0.7444(8) 0.2347(7) 0.2992(5) 0.0459(19) Uani 1 1 d . . .
H8 H 0.7448 0.2826 0.3563 0.055 Uiso 1 1 calc R . .
C9 C 0.7382(10) 0.2185(7) 0.1317(5) 0.057(2) Uani 1 1 d . . .
H9 H 0.7348 0.2556 0.0729 0.068 Uiso 1 1 calc R . .
C10 C 0.7576(6) 0.9015(6) 0.2218(5) 0.0315(14) Uani 1 1 d . . .
C11 C 0.7549(6) 1.0388(6) 0.2180(4) 0.0279(13) Uani 1 1 d . . .
C12 C 0.7479(10) 1.0937(7) 0.1333(5) 0.057(2) Uani 1 1 d . . .
H12 H 0.7497 1.0470 0.0758 0.069 Uiso 1 1 calc R . .
C13 C 0.7551(8) 1.1088(7) 0.3021(5) 0.047(2) Uani 1 1 d . . .
H13 H 0.7622 1.0726 0.3607 0.057 Uiso 1 1 calc R . .
C14 C 0.9721(5) 0.6717(6) 0.2128(4) 0.0267(12) Uani 1 1 d . . .
C15 C 1.1105(5) 0.6669(6) 0.2128(4) 0.0236(12) Uani 1 1 d . . .
C16 C 1.1757(6) 0.6732(7) 0.2987(4) 0.0329(15) Uani 1 1 d . . .
H16 H 1.1343 0.6805 0.3567 0.039 Uiso 1 1 calc R . .
C17 C 0.8393(8) 0.6741(12) 0.5118(5) 0.075(4) Uani 1 1 d . . .
H17 H 0.9151 0.6805 0.4787 0.090 Uiso 1 1 calc R . .
C18 C 0.8431(8) 0.6754(13) 0.6098(5) 0.081(4) Uani 1 1 d . . .
H18 H 0.9209 0.6852 0.6414 0.097 Uiso 1 1 calc R . .
C19 C 0.7366(6) 0.6628(6) 0.6612(4) 0.0274(13) Uani 1 1 d . . .
C20 C 0.6297(8) 0.6488(13) 0.6094(5) 0.084(4) Uani 1 1 d . . .
H20 H 0.5521 0.6377 0.6405 0.100 Uiso 1 1 calc R . .
C21 C 0.6329(8) 0.6507(12) 0.5110(5) 0.072(3) Uani 1 1 d . . .
H21 H 0.5566 0.6415 0.4774 0.086 Uiso 1 1 calc R . .
C22 C 0.7371(6) 0.6624(6) 0.7656(4) 0.0267(13) Uani 1 1 d . . .
C23 C 0.8477(6) 0.6702(8) 0.8188(4) 0.0373(16) Uani 1 1 d . . .
H23 H 0.9250 0.6758 0.7878 0.045 Uiso 1 1 calc R . .
C24 C 0.6260(6) 0.6531(7) 0.8175(4) 0.0310(14) Uani 1 1 d . . .
H24 H 0.5488 0.6467 0.7856 0.037 Uiso 1 1 calc R . .
C25 C 0.8426(6) 0.6695(7) -0.0839(4) 0.0365(16) Uani 1 1 d . . .
H25 H 0.9181 0.6761 -0.0496 0.044 Uiso 1 1 calc R . .
C26 C 0.6301(6) 0.6534(7) -0.0848(4) 0.0314(14) Uani 1 1 d . . .
H26 H 0.5545 0.6488 -0.0516 0.038 Uiso 1 1 calc R . .
C1S C 1.2687 1.0001 0.1816 0.050 Uiso 0.40 1 d P A 1
C2S C 1.1546 0.9984 0.2264 0.050 Uiso 0.40 1 d P A 1
C6S C 1.1492 1.0045 0.3252 0.050 Uiso 0.40 1 d P A 1
C3S C 1.2579 1.0122 0.3791 0.050 Uiso 0.40 1 d P A 1
C4S C 1.3719 1.0139 0.3343 0.050 Uiso 0.40 1 d P A 1
C5S C 1.3773 1.0079 0.2356 0.050 Uiso 0.40 1 d P A 1
C7S C 1.1234 0.9938 0.2793 0.050 Uiso 0.40 1 d P A 2
C8S C 1.1905 0.9993 0.1951 0.050 Uiso 0.40 1 d P A 2
C9S C 1.3200 1.0101 0.1977 0.050 Uiso 0.40 1 d P A 2
C10S C 1.3823 1.0155 0.2846 0.050 Uiso 0.40 1 d P A 2
C11S C 1.3152 1.0100 0.3688 0.050 Uiso 0.40 1 d P A 2
C12S C 1.1857 0.9991 0.3662 0.050 Uiso 0.40 1 d P A 2
C13S C 1.102(3) 0.994(3) 0.119(2) 0.036(7) Uiso 0.20 1 d P . .
C14S C 1.069(5) 0.979(5) 0.439(4) 0.072(14) Uiso 0.20 1 d P . .
C16S C 1.402(4) 1.009(4) 0.127(3) 0.052(10) Uiso 0.20 1 d P . .
C15S C 1.430(5) 1.002(5) 0.440(4) 0.069(13) Uiso 0.20 1 d P . .

loop_
_atom_site_aniso_label
_atom_site_aniso_U_11
_atom_site_aniso_U_22
_atom_site_aniso_U_33
_atom_site_aniso_U_23
_atom_site_aniso_U_13
_atom_site_aniso_U_12
Zn1 0.0187(3) 0.0242(4) 0.0102(3) 0.0015(2) 0.0018(2) 0.0081(2)
Zn2 0.0192(3) 0.0241(4) 0.0103(3) 0.0014(2) 0.0017(2) 0.0078(3)
N1 0.021(2) 0.039(3) 0.016(2) -0.001(2) 0.0027(18) 0.007(2)
N2 0.029(3) 0.029(3) 0.018(2) 0.0035(19) 0.0018(19) 0.003(2)
O1 0.025(2) 0.059(3) 0.026(2) 0.002(2) 0.0045(18) 0.010(2)
O2 0.022(2) 0.066(3) 0.030(2) 0.000(2) -0.0016(18) 0.016(2)
O3 0.062(3) 0.029(3) 0.036(3) 0.008(2) 0.000(2) 0.012(2)
O4 0.071(4) 0.030(3) 0.039(3) -0.005(2) 0.006(3) 0.018(2)
O5 0.059(3) 0.025(2) 0.041(3) -0.002(2) 0.002(2) 0.013(2)
O6 0.065(4) 0.031(3) 0.037(3) 0.010(2) 0.008(2) 0.015(2)
O7 0.018(2) 0.065(3) 0.029(2) 0.001(2) -0.0027(17) 0.017(2)
O8 0.019(2) 0.064(3) 0.030(2) 0.005(2) 0.0084(18) 0.018(2)
C1 0.020(3) 0.032(3) 0.023(3) 0.003(2) 0.003(2) 0.010(2)
C2 0.019(3) 0.030(3) 0.028(3) 0.000(2) 0.004(2) 0.008(2)
C3 0.025(3) 0.047(4) 0.022(3) 0.004(3) 0.003(2) 0.015(3)
C4 0.024(3) 0.051(4) 0.022(3) 0.006(3) 0.000(2) 0.013(3)
C5 0.027(3) 0.048(4) 0.020(3) -0.001(3) 0.002(2) 0.014(3)
C6 0.026(3) 0.019(3) 0.042(4) 0.003(3) 0.000(3) 0.005(2)
C7 0.035(3) 0.018(3) 0.039(4) 0.001(2) 0.006(3) 0.005(2)
C8 0.085(6) 0.032(4) 0.024(3) -0.003(3) -0.005(3) 0.023(4)
C9 0.116(8) 0.036(4) 0.025(4) 0.007(3) 0.010(4) 0.031(5)
C10 0.029(3) 0.027(3) 0.041(4) 0.001(3) -0.002(3) 0.011(3)
C11 0.035(3) 0.026(3) 0.025(3) 0.004(2) -0.002(2) 0.009(3)
C12 0.120(8) 0.033(4) 0.025(4) 0.001(3) 0.008(4) 0.030(5)
C13 0.086(6) 0.030(4) 0.030(4) 0.002(3) 0.000(4) 0.024(4)
C14 0.019(3) 0.030(3) 0.031(3) 0.005(2) 0.004(2) 0.006(2)
C15 0.020(3) 0.030(3) 0.022(3) 0.002(2) 0.002(2) 0.008(2)
C16 0.027(3) 0.057(4) 0.018(3) -0.002(3) 0.003(2) 0.017(3)
C17 0.033(4) 0.180(12) 0.014(3) 0.003(5) 0.000(3) 0.027(5)
C18 0.035(4) 0.195(13) 0.013(3) 0.005(5) 0.001(3) 0.025(6)
C19 0.030(3) 0.036(3) 0.014(3) 0.002(2) 0.000(2) 0.004(3)
C20 0.040(5) 0.198(13) 0.013(3) 0.008(5) 0.002(3) 0.025(6)
C21 0.034(4) 0.161(11) 0.022(4) 0.015(5) -0.001(3) 0.019(5)
C22 0.029(3) 0.036(3) 0.015(3) 0.000(2) 0.001(2) 0.006(3)
C23 0.023(3) 0.073(5) 0.017(3) 0.005(3) 0.007(2) 0.011(3)
C24 0.021(3) 0.056(4) 0.016(3) 0.004(3) -0.005(2) 0.010(3)
C25 0.028(3) 0.069(5) 0.013(3) 0.004(3) 0.000(2) 0.009(3)
C26 0.027(3) 0.054(4) 0.015(3) 0.003(3) 0.006(2) 0.011(3)

_geom_special_details            
;
All esds (except the esd in the dihedral angle between two l.s. planes)
are estimated using the full covariance matrix. The cell esds are taken
into account individually in the estimation of esds in distances, angles
and torsion angles; correlations between esds in cell parameters are only
used when they are defined by crystal symmetry. An approximate (isotropic)
treatment of cell esds is used for estimating esds involving l.s. planes.
;

loop_
_geom_bond_atom_site_label_1
_geom_bond_atom_site_label_2
_geom_bond_distance
_geom_bond_site_symmetry_2
_geom_bond_publ_flag
Zn1 O7 2.013(4) . ?
Zn1 O1 2.016(4) . ?
Zn1 N2 2.028(5) . ?
Zn1 O5 2.045(5) . ?
Zn1 O3 2.054(5) . ?
Zn1 Zn2 2.9359(9) . ?
Zn2 O8 2.013(4) . ?
Zn2 O2 2.017(4) . ?
Zn2 O6 2.028(5) . ?
Zn2 N1 2.040(5) . ?
Zn2 O4 2.056(5) . ?
N1 C17 1.298(9) . ?
N1 C21 1.298(9) . ?
N2 C26 1.327(8) . ?
N2 C25 1.350(8) . ?
O1 C1 1.249(7) . ?
O2 C1 1.254(7) . ?
O3 C6 1.256(8) . ?
O4 C6 1.233(8) . ?
O5 C10 1.264(8) . ?
O6 C10 1.249(8) . ?
O7 C14 1.242(7) . ?
O8 C14 1.256(7) . ?
C1 C2 1.503(8) . ?
C2 C3 1.382(8) . ?
C2 C5 1.402(8) . ?
C3 C4 1.388(8) . ?
C4 C15 1.376(8) 1_455 ?
C5 C16 1.380(9) 1_455 ?
C6 C7 1.502(8) . ?
C7 C9 1.367(10) . ?
C7 C8 1.372(9) . ?
C8 C13 1.405(10) 1_545 ?
C9 C12 1.390(10) 1_545 ?
C10 C11 1.510(8) . ?
C11 C12 1.365(9) . ?
C11 C13 1.381(9) . ?
C12 C9 1.390(10) 1_565 ?
C13 C8 1.405(10) 1_565 ?
C14 C15 1.518(8) . ?
C15 C4 1.376(8) 1_655 ?
C15 C16 1.392(8) . ?
C16 C5 1.380(9) 1_655 ?
C17 C18 1.378(10) . ?
C18 C19 1.353(10) . ?
C19 C20 1.350(10) . ?
C19 C22 1.468(8) . ?
C20 C21 1.385(10) . ?
C22 C23 1.402(9) . ?
C22 C24 1.403(8) . ?
C23 C25 1.370(8) 1_556 ?
C24 C26 1.375(8) 1_556 ?
C25 C23 1.370(8) 1_554 ?
C26 C24 1.375(8) 1_554 ?
C1S C2S 1.3899 . ?
C1S C5S 1.3901 . ?
C1S C16S 1.63(4) . ?
C1S C13S 2.00(4) . ?
C2S C6S 1.3900 . ?
C2S C13S 1.60(4) . ?
C6S C3S 1.3900 . ?
C6S C14S 1.83(6) . ?
C3S C4S 1.3900 . ?
C4S C5S 1.3900 . ?
C4S C15S 1.64(5) . ?
C5S C16S 1.56(4) . ?
C7S C12S 1.3899 . ?
C7S C8S 1.3900 . ?
C8S C9S 1.3900 . ?
C8S C13S 1.42(4) . ?
C9S C16S 1.34(4) . ?
C9S C10S 1.3899 . ?
C10S C11S 1.3900 . ?
C11S C12S 1.3901 . ?
C11S C15S 1.62(5) . ?
C12S C14S 1.62(5) . ?

loop_
_geom_angle_atom_site_label_1
_geom_angle_atom_site_label_2
_geom_angle_atom_site_label_3
_geom_angle
_geom_angle_site_symmetry_1
_geom_angle_site_symmetry_3
_geom_angle_publ_flag
O7 Zn1 O1 160.39(18) . . ?
O7 Zn1 N2 99.92(19) . . ?
O1 Zn1 N2 99.68(19) . . ?
O7 Zn1 O5 89.4(2) . . ?
O1 Zn1 O5 86.9(2) . . ?
N2 Zn1 O5 99.4(2) . . ?
O7 Zn1 O3 86.2(2) . . ?
O1 Zn1 O3 90.0(2) . . ?
N2 Zn1 O3 102.8(2) . . ?
O5 Zn1 O3 157.8(2) . . ?
O7 Zn1 Zn2 80.02(13) . . ?
O1 Zn1 Zn2 80.39(13) . . ?
N2 Zn1 Zn2 176.06(15) . . ?
O5 Zn1 Zn2 76.67(14) . . ?
O3 Zn1 Zn2 81.11(14) . . ?
O8 Zn2 O2 159.27(19) . . ?
O8 Zn2 O6 90.7(2) . . ?
O2 Zn2 O6 87.7(2) . . ?
O8 Zn2 N1 100.82(19) . . ?
O2 Zn2 N1 99.80(19) . . ?
O6 Zn2 N1 100.3(2) . . ?
O8 Zn2 O4 86.3(2) . . ?
O2 Zn2 O4 88.9(2) . . ?
O6 Zn2 O4 161.9(2) . . ?
N1 Zn2 O4 97.7(2) . . ?
O8 Zn2 Zn1 79.70(13) . . ?
O2 Zn2 Zn1 79.58(13) . . ?
O6 Zn2 Zn1 83.45(14) . . ?
N1 Zn2 Zn1 176.18(15) . . ?
O4 Zn2 Zn1 78.49(15) . . ?
C17 N1 C21 116.6(6) . . ?
C17 N1 Zn2 121.2(4) . . ?
C21 N1 Zn2 122.2(5) . . ?
C26 N2 C25 117.1(5) . . ?
C26 N2 Zn1 121.9(4) . . ?
C25 N2 Zn1 120.9(4) . . ?
C1 O1 Zn1 126.2(4) . . ?
C1 O2 Zn2 127.1(4) . . ?
C6 O3 Zn1 125.0(4) . . ?
C6 O4 Zn2 128.7(5) . . ?
C10 O5 Zn1 130.8(4) . . ?
C10 O6 Zn2 123.1(5) . . ?
C14 O7 Zn1 126.9(4) . . ?
C14 O8 Zn2 127.0(4) . . ?
O1 C1 O2 126.4(5) . . ?
O1 C1 C2 116.7(5) . . ?
O2 C1 C2 116.9(5) . . ?
C3 C2 C5 119.1(5) . . ?
C3 C2 C1 120.8(5) . . ?
C5 C2 C1 120.1(5) . . ?
C2 C3 C4 120.4(6) . . ?
C15 C4 C3 120.2(6) 1_455 . ?
C16 C5 C2 120.6(6) 1_455 . ?
O4 C6 O3 125.1(6) . . ?
O4 C6 C7 117.6(6) . . ?
O3 C6 C7 117.2(6) . . ?
C9 C7 C8 118.6(6) . . ?
C9 C7 C6 121.3(6) . . ?
C8 C7 C6 120.1(6) . . ?
C7 C8 C13 120.8(6) . 1_545 ?
C7 C9 C12 121.2(7) . 1_545 ?
O6 C10 O5 125.4(6) . . ?
O6 C10 C11 118.8(6) . . ?
O5 C10 C11 115.8(6) . . ?
C12 C11 C13 119.6(6) . . ?
C12 C11 C10 121.3(6) . . ?
C13 C11 C10 119.1(6) . . ?
C11 C12 C9 120.2(7) . 1_565 ?
C11 C13 C8 119.5(6) . 1_565 ?
O7 C14 O8 126.2(5) . . ?
O7 C14 C15 117.1(5) . . ?
O8 C14 C15 116.7(5) . . ?
C4 C15 C16 120.3(5) 1_655 . ?
C4 C15 C14 119.9(5) 1_655 . ?
C16 C15 C14 119.8(5) . . ?
C5 C16 C15 119.5(5) 1_655 . ?
N1 C17 C18 123.3(7) . . ?
C19 C18 C17 121.0(7) . . ?
C20 C19 C18 115.1(6) . . ?
C20 C19 C22 122.4(6) . . ?
C18 C19 C22 122.5(6) . . ?
C19 C20 C21 120.9(8) . . ?
N1 C21 C20 123.1(8) . . ?
C23 C22 C24 116.3(5) . . ?
C23 C22 C19 122.2(5) . . ?
C24 C22 C19 121.5(5) . . ?
C25 C23 C22 119.7(6) 1_556 . ?
C26 C24 C22 119.8(6) 1_556 . ?
N2 C25 C23 123.4(6) . 1_554 ?
N2 C26 C24 123.6(6) . 1_554 ?
C2S C1S C5S 120.0 . . ?
C2S C1S C16S 176.9(16) . . ?
C5S C1S C16S 61.4(15) . . ?
C2S C1S C13S 52.9(10) . . ?
C5S C1S C13S 172.8(10) . . ?
C16S C1S C13S 125.5(18) . . ?
C1S C2S C6S 120.0 . . ?
C1S C2S C13S 83.3(12) . . ?
C6S C2S C13S 156.6(13) . . ?
C2S C6S C3S 120.0 . . ?
C2S C6S C14S 153.5(18) . . ?
C3S C6S C14S 84.7(17) . . ?
C6S C3S C4S 1