
#######################################################################
#
#                 Cambridge Crystallographic Data Centre
#                                CCDC
#
#######################################################################
#
# If this CIF has been generated from an entry in the Cambridge
# Structural Database, then it will include bibliographic, chemical,
# crystal, experimental, refinement or atomic coordinate data resulting
# from the CCDC's data processing and validation procedures.
#
#######################################################################

data_CSD_CIF_JAYZEO
_audit_creation_date 1990-07-27
_audit_creation_method CSD-ConQuest-V1
_database_code_CSD JAYZEO
_database_code_depnum_ccdc_archive 'CCDC 1183548'
_chemical_formula_sum 'C17 H22 Br1 N1 O4'
_chemical_formula_moiety
;
C17 H22 N1 O4 1+,Br1 1-
;
_journal_coden_Cambridge 188
_journal_year 1989
_journal_page_first 1875
_journal_name_full 'J.Chem.Soc.,Perkin Trans.2 '
loop_
_publ_author_name
"R.Glaser"
"J.-P.Charland"
"A.Michel"
_chemical_name_systematic
;
(-)-Scopolamine hydrobromide
;
_chemical_name_common
;
(-)-Hyoscine hydrobromide; Teaching Subset: Fundamental Chemistry, Drug 
Molecules
;
_chemical_melting_point 475
_cell_volume   1761.256
_exptl_crystal_colour 'colorless'
_exptl_crystal_density_diffrn 1.449
_exptl_special_details
;
Melting point range 475-477K
Absolute configuration
acetylcholine antagonist activity
No study temperature is reported
;
_diffrn_ambient_temperature ?
_diffrn_special_details
;
The study was carried out at room temperature,in the range 283-303K

;
#These two values have been output from a single CSD field.
_refine_ls_R_factor_gt 0.049
_refine_ls_wR_factor_gt 0.049
_chemical_compound_source
;
Hyoscyamus niger (henbane)
;
_symmetry_cell_setting orthorhombic
_symmetry_space_group_name_H-M 'P 21 21 21'
_symmetry_Int_Tables_number 19
loop_
_symmetry_equiv_pos_site_id
_symmetry_equiv_pos_as_xyz
1 x,y,z
2 1/2+x,1/2-y,-z
3 -x,1/2+y,1/2-z
4 1/2-x,-y,1/2+z
_cell_length_a 7.348(1)
_cell_length_b 10.482(1)
_cell_length_c 22.867(1)
_cell_angle_alpha 90
_cell_angle_beta 90
_cell_angle_gamma 90
_cell_formula_units_Z 4
loop_
_atom_type_symbol
_atom_type_radius_bond
C 0.68
H 0.23
Br 1.21
N 0.68
O 0.68
loop_
_atom_site_label
_atom_site_type_symbol
_atom_site_fract_x
_atom_site_fract_y
_atom_site_fract_z
Br1 Br 0.36830(14) 0.43427(10) 0.45910(4)
O1 O 0.5362(9) 0.5365(6) 0.60340(24)
O2 O 1.0712(8) 0.6330(5) 0.63680(23)
O3 O 1.2638(10) 0.7857(6) 0.60670(24)
O4 O 0.9068(10) 0.9309(8) 0.6670(3)
N1 N 0.7541(10) 0.4651(6) 0.5234(3)
C1 C 0.8135(13) 0.4145(8) 0.5833(3)
C2 C 1.0197(13) 0.4347(9) 0.5902(3)
C3 C 1.0844(11) 0.5721(9) 0.5806(3)
C4 C 0.9711(13) 0.6456(8) 0.5331(3)
C5 C 0.7695(13) 0.6085(8) 0.5341(4)
C6 C 0.6870(14) 0.6209(9) 0.5915(4)
C7 C 0.7151(14) 0.5009(9) 0.6249(3)
C8 C 0.8418(12) 0.4109(8) 0.4715(3)
C9 C 1.1717(12) 0.7408(7) 0.6447(4)
C10 C 1.1457(15) 0.7961(8) 0.7024(3)
C11 C 1.0744(15) 0.9338(10) 0.6958(4)
C12 C 1.3078(13) 0.7809(8) 0.7421(4)
C13 C 1.3049(14) 0.7058(8) 0.7892(4)
C14 C 1.4465(16) 0.6893(10) 0.8262(4)
C15 C 1.6084(17) 0.7527(10) 0.8138(5)
C16 C 1.6134(16) 0.8345(11) 0.7674(4)
C17 C 1.4678(16) 0.8445(10) 0.7306(4)
H1 H 0.602(11) 0.442(9) 0.527(3)
H2 H 0.800(14) 0.327(8) 0.608(3)
H3 H 1.041(8) 0.400(5) 0.6338(23)
H4 H 1.084(10) 0.391(7) 0.548(3)
H5 H 1.213(8) 0.559(5) 0.5671(20)
H6 H 0.906(12) 0.969(8) 0.617(4)
H7 H 1.03(1) 0.627(6) 0.491(3)
H8 H 0.977(10) 0.745(6) 0.545(3)
H9 H 0.704(11) 0.643(7) 0.496(3)
H10 H 0.687(10) 0.689(6) 0.619(3)
H11 H 0.739(8) 0.508(5) 0.6658(20)
H12 H 0.958(8) 0.470(5) 0.4617(21)
H13 H 0.800(12) 0.455(7) 0.431(3)
H14 H 0.812(9) 0.310(6) 0.4700(23)
H15 H 1.04(1) 0.744(6) 0.725(3)
H16 H 1.060(8) 0.973(6) 0.7355(24)
H17 H 1.168(8) 0.984(5) 0.6722(22)
H18 H 1.18(1) 0.661(6) 0.8033(24)
H19 H 1.457(8) 0.638(5) 0.8590(22)
H20 H 1.697(9) 0.738(5) 0.8509(24)
H21 H 1.731(13) 0.886(8) 0.762(4)
H22 H 1.483(8) 0.896(5) 0.6973(21)
#END
