####################################################################### 
# 
# This file contains crystal structure data downloaded from the 
# Cambridge Structural Database (CSD) hosted by the Cambridge 
# Crystallographic Data Centre (CCDC).
# 
# Full information about CCDC data access policies and citation 
# guidelines are available at http://www.ccdc.cam.ac.uk/access/V1 
# 
# Audit and citation data items may have been added by the CCDC. 
# Please retain this information to preserve the provenance of 
# this file and to allow appropriate attribution of the data. 
# 
#######################################################################

data_JEDKIM
#This CIF has been generated from an entry in the Cambridge Structural Database
_database_code_depnum_ccdc_archive 'CCDC 1183921'
_database_code_CSD               JEDKIM
loop_
_citation_id
_citation_doi
_citation_year
1 10.1039/dt9870002905 1987
_audit_creation_method           'Created from the CSD'
_audit_update_record             
;
2024-07-10 downloaded from the CCDC.
;
_database_code_NBS               579761
_chemical_formula_moiety         '(C24 H24 Cl2 Cu9 O32)n,n(H2 O1)'
_chemical_name_systematic        
"catena-(bis(\m~3~-Chloro)-hexakis(\m~3~-1,2,3,4-tetrahydroxybutane-1,1-dicarboxylic acid-O,O,O',O'',O''',O'''')-nona-copper(ii) hydrate)"
_chemical_absolute_configuration unk
_diffrn_ambient_temperature      295
_exptl_crystal_density_diffrn    1.57774
#These two values have been output from a single CSD field.
_refine_ls_R_factor_gt           0.062
_refine_ls_wR_factor_gt          0.062
_diffrn_radiation_probe          x-ray
_symmetry_cell_setting           trigonal
_symmetry_space_group_name_H-M   'P 3 2 1'
_symmetry_Int_Tables_number      150
_space_group_name_Hall           'P 3 2"'
loop_
_symmetry_equiv_pos_site_id
_symmetry_equiv_pos_as_xyz
1 x,y,z
2 -y,x-y,z
3 -x+y,-x,z
4 y,x,-z
5 x-y,-y,-z
6 -x,-x+y,-z
_cell_length_a                   21.274(5)
_cell_length_b                   21.274(5)
_cell_length_c                   7.9766(7)
_cell_angle_alpha                90
_cell_angle_beta                 90
_cell_angle_gamma                120
_cell_volume                     3126.42
_exptl_crystal_colour            blue
_cell_formula_units_Z            2
loop_
_atom_site_label
_atom_site_type_symbol
_atom_site_fract_x
_atom_site_fract_y
_atom_site_fract_z
Cu1 Cu 0.56194(7) 0.28009(13) -0.0177(2)
Cu2 Cu 0.50118 0.00000(2) 0.0000
Cl1 Cl 0.66667 0.33333 -0.2947(6)
O1 O 0.4918(5) 0.1800(5) -0.069(2)
O2 O 0.4701(5) 0.0709(5) -0.052(1)
O3 O 0.6209(6) 0.2414(5) 0.0600(9)
O4 O 0.5351(7) 0.0608(7) 0.250(1)
O5 O 0.6868(7) 0.1553(8) 0.287(2)
O6 O 0.577(1) 0.166(1) 0.616(1)
O7 O 0.6892(6) 0.1860(6) -0.084(1)
O8 O 0.5976(6) 0.0689(6) -0.069(1)
C1 C 0.5113(7) 0.1346(7) -0.036(2)
C2 C 0.5790(9) 0.164(1) 0.057(1)
C3 C 0.564(1) 0.138(1) 0.247(1)
C4 C 0.635(1) 0.175(1) 0.353(2)
C5 C 0.622(1) 0.149(1) 0.528(2)
C6 C 0.6298(9) 0.1383(9) -0.031(2)
O1D O 0.3118(7) -0.1800(5) 0.069(2)
O2D O 0.3992(7) -0.0709(5) 0.052(1)
O3D O 0.3795(8) -0.2414(5) -0.0600(9)
O4D O 0.4743(10) -0.0608(7) -0.250(1)
O5D O 0.5315(11) -0.1553(8) -0.287(2)
O6D O 0.411(1) -0.166(1) -0.616(1)
O7D O 0.5032(8) -0.1860(6) 0.084(1)
O8D O 0.5287(8) -0.0689(6) 0.069(1)
C1D C 0.3767(10) -0.1346(7) 0.036(2)
C2D C 0.4150(13) -0.164(1) -0.057(1)
C3D C 0.426(1) -0.138(1) -0.247(1)
C4D C 0.460(1) -0.175(1) -0.353(2)
C5D C 0.473(1) -0.149(1) -0.528(2)
C6D C 0.4915(13) -0.1383(9) 0.031(2)
Cu1D Cu 0.28185(15) -0.28009(13) 0.0177(2)
Cu1A Cu 0.71991(13) 0.28185(15) -0.0177(2)
Cu1E Cu 0.43806(7) -0.28185(15) 0.0177(2)
O1B O 0.6882(7) 0.5082(5) -0.069(2)
O2B O 0.6008(7) 0.5299(5) -0.052(1)
O3B O 0.6205(8) 0.3791(6) 0.0600(9)
O4B O 0.5257(10) 0.4649(7) 0.250(1)
O5B O 0.4685(11) 0.3132(7) 0.287(2)
O6B O 0.589(1) 0.423(1) 0.616(1)
O7B O 0.4968(8) 0.3108(6) -0.084(1)
O8B O 0.4713(8) 0.4024(6) -0.069(1)
C1B C 0.6233(10) 0.4887(7) -0.036(2)
C2B C 0.5850(13) 0.4210(9) 0.057(1)
C3B C 0.574(1) 0.436(1) 0.247(1)
C4B C 0.540(1) 0.365(1) 0.353(2)
C5B C 0.527(1) 0.378(1) 0.528(2)
C6B C 0.5085(13) 0.3702(9) -0.031(2)
Cl1D Cl 0.33334 -0.33333 0.2947(6)
O1C O 0.1800(5) -0.5082(5) 0.069(2)
O2C O 0.0709(5) -0.5299(5) 0.052(1)
O3C O 0.2414(5) -0.3791(6) -0.0600(9)
O4C O 0.0608(7) -0.4649(7) -0.250(1)
O5C O 0.1553(8) -0.3132(7) -0.287(2)
O6C O 0.166(1) -0.423(1) -0.616(1)
O7C O 0.1860(6) -0.3108(6) 0.084(1)
O8C O 0.0689(6) -0.4024(6) 0.069(1)
C1C C 0.1346(7) -0.4887(7) 0.036(2)
C2C C 0.164(1) -0.4210(9) -0.057(1)
C3C C 0.138(1) -0.436(1) -0.247(1)
C4C C 0.175(1) -0.365(1) -0.353(2)
C5C C 0.149(1) -0.378(1) -0.528(2)
C6C C 0.1383(9) -0.3702(9) 0.031(2)
Cu2B Cu 0.49882(2) 0.49882 0.0000
Cu2C Cu 0.00000(2) -0.49882 0.0000
Cu1B Cu 0.71815(15) 0.43806(7) -0.0177(2)
Cu1C Cu 0.28009(13) -0.43806(7) 0.0177(2)
O1A O 0.8200(5) 0.3118(7) -0.069(2)
O3A O 0.7586(5) 0.3795(8) 0.0600(9)
O1E O 0.5082(5) -0.3118(7) 0.069(2)
O3E O 0.3791(6) -0.3795(8) -0.0600(9)
O2E O 0.5299(5) 0.6008(7) 0.052(1)
O4E O 0.4649(7) 0.5257(10) -0.250(1)
O8E O 0.4024(6) 0.4713(8) 0.069(1)
O2A O -0.0709(5) -0.6008(7) -0.052(1)
O4A O -0.0608(7) -0.5257(10) 0.250(1)
O8A O -0.0689(6) -0.4713(8) -0.069(1)
O7A O 0.8140(6) 0.5032(8) -0.084(1)
O7E O 0.3108(6) -0.5032(8) 0.084(1)
O9 O 0.570(1) 0.570 0.5000
O10 O 0.200(4) 0.359(3) 0.205(7)
O11 O 0.110(5) 0.376(5) 0.35(1)
O12 O 0.002(3) 0.329(2) 0.233(5)
O13 O 0.359(2) 0.351(2) 0.280(4)
O14 O 0.00000 0.308(5) 0.0000
O15 O 0.361(6) 0.155(8) 0.01(1)
O16 O 0.420(2) 0.171(2) 0.316(6)
O17 O 0.235(4) 0.410(4) 0.40(1)

#END
