####################################################################### 
# 
# This file contains crystal structure data downloaded from the 
# Cambridge Structural Database (CSD) hosted by the Cambridge 
# Crystallographic Data Centre (CCDC).
# 
# Full information about CCDC data access policies and citation 
# guidelines are available at http://www.ccdc.cam.ac.uk/access/V1 
# 
# Audit and citation data items may have been added by the CCDC. 
# Please retain this information to preserve the provenance of 
# this file and to allow appropriate attribution of the data. 
# 
#######################################################################

data_2
_audit_block_doi                 10.5517/cc8hpr5
_database_code_depnum_ccdc_archive 'CCDC 253417'
loop_
_citation_id
_citation_doi
_citation_year
1 10.1021/cg050186j 2006
_audit_update_record             
;
2004-10-20 deposited with the CCDC.	2024-07-10 downloaded from the CCDC.
;

_audit_creation_method           SHELXL-97
_chemical_name_systematic        
;
?
;
_chemical_name_common            ?
_chemical_melting_point          ?
_chemical_formula_moiety         ?
_chemical_formula_sum            'C48 H39 Cr2 Cu3 N21 O3'
_chemical_formula_weight         1252.62

loop_
_atom_type_symbol
_atom_type_description
_atom_type_scat_dispersion_real
_atom_type_scat_dispersion_imag
_atom_type_scat_source
C C 0.0033 0.0016 'International Tables Vol C Tables 4.2.6.8 and 6.1.1.4'
H H 0.0000 0.0000 'International Tables Vol C Tables 4.2.6.8 and 6.1.1.4'
N N 0.0061 0.0033 'International Tables Vol C Tables 4.2.6.8 and 6.1.1.4'
O O 0.0106 0.0060 'International Tables Vol C Tables 4.2.6.8 and 6.1.1.4'
Cr Cr 0.3209 0.6236 'International Tables Vol C Tables 4.2.6.8 and 6.1.1.4'
Cu Cu 0.3201 1.2651 'International Tables Vol C Tables 4.2.6.8 and 6.1.1.4'

_symmetry_cell_setting           Monoclinic
_symmetry_space_group_name_H-M   P2(1)/c

loop_
_symmetry_equiv_pos_as_xyz
'x, y, z'
'-x, y+1/2, -z+1/2'
'-x, -y, -z'
'x, -y-1/2, z-1/2'

_cell_length_a                   18.005(4)
_cell_length_b                   23.732(5)
_cell_length_c                   23.235(5)
_cell_angle_alpha                90.00
_cell_angle_beta                 90.46(3)
_cell_angle_gamma                90.00
_cell_volume                     9927(3)
_cell_formula_units_Z            4
_cell_measurement_temperature    293(2)
_cell_measurement_reflns_used    ?
_cell_measurement_theta_min      ?
_cell_measurement_theta_max      ?

_exptl_crystal_description       Block
_exptl_crystal_colour            'Dark blue'
_exptl_crystal_size_max          0.39
_exptl_crystal_size_mid          0.38
_exptl_crystal_size_min          0.30
_exptl_crystal_density_meas      Empirical
_exptl_crystal_density_diffrn    0.838
_exptl_crystal_density_method    'not measured'
_exptl_crystal_F_000             2532
_exptl_absorpt_coefficient_mu    0.878
_exptl_absorpt_correction_type   'PSI scans'
_exptl_absorpt_correction_T_min  0.7313
_exptl_absorpt_correction_T_max  1.2360
_exptl_absorpt_process_details   ?

_exptl_special_details           
;
?
;

_diffrn_ambient_temperature      293(2)
_diffrn_radiation_wavelength     0.71073
_diffrn_radiation_type           MoK\a
_diffrn_radiation_source         'fine-focus sealed tube'
_diffrn_radiation_monochromator  graphite
_diffrn_measurement_device_type  'Rigaku R-AXIS RAPID IP'
_diffrn_measurement_method       Oscillation
_diffrn_detector_area_resol_mean ?
_diffrn_standards_number         ?
_diffrn_standards_interval_count ?
_diffrn_standards_interval_time  ?
_diffrn_standards_decay_%        ?
_diffrn_reflns_number            21994
_diffrn_reflns_av_R_equivalents  0.0000
_diffrn_reflns_av_sigmaI/netI    0.2538
_diffrn_reflns_limit_h_min       0
_diffrn_reflns_limit_h_max       23
_diffrn_reflns_limit_k_min       0
_diffrn_reflns_limit_k_max       30
_diffrn_reflns_limit_l_min       -30
_diffrn_reflns_limit_l_max       30
_diffrn_reflns_theta_min         1.66
_diffrn_reflns_theta_max         27.62
_reflns_number_total             21994
_reflns_number_gt                6003
_reflns_threshold_expression     >2sigma(I)

_computing_data_collection       'RAPID AUTO (Rigaku, 2001)'
_computing_cell_refinement       'RAPID AUTO (Rigaku, 2001)'
_computing_data_reduction        'RAPID AUTO (Rigaku, 2001)'
_computing_structure_solution    'SHELXS-97 (Sheldrick, 1990)'
_computing_structure_refinement  'SHELXL-97 (Sheldrick, 1997)'
_computing_molecular_graphics    'SHELXTL (Siemens, 1994)'
_computing_publication_material  'SHELXTL (Siemens, 1994)'

_refine_special_details          
;
Refinement of F^2^ against ALL reflections. The weighted R-factor wR and
goodness of fit S are based on F^2^, conventional R-factors R are based
on F, with F set to zero for negative F^2^. The threshold expression of
F^2^ > 2sigma(F^2^) is used only for calculating R-factors(gt) etc. and is
not relevant to the choice of reflections for refinement. R-factors based
on F^2^ are statistically about twice as large as those based on F, and R-
factors based on ALL data will be even larger.
;

_refine_ls_structure_factor_coef Fsqd
_refine_ls_matrix_type           full
_refine_ls_weighting_scheme      calc
_refine_ls_weighting_details     
'calc w=1/[\s^2^(Fo^2^)+(0.1308P)^2^+0.0000P] where P=(Fo^2^+2Fc^2^)/3'
_atom_sites_solution_primary     direct
_atom_sites_solution_secondary   difmap
_atom_sites_solution_hydrogens   geom
_refine_ls_hydrogen_treatment    mixed
_refine_ls_extinction_method     SHELXL
_refine_ls_extinction_coef       0.0012(2)
_refine_ls_extinction_expression Fc^*^=kFc[1+0.001xFc^2^\l^3^/sin(2\q)]^-1/4^
_refine_ls_number_reflns         21994
_refine_ls_number_parameters     716
_refine_ls_number_restraints     0
_refine_ls_R_factor_all          0.2509
_refine_ls_R_factor_gt           0.0889
_refine_ls_wR_factor_ref         0.2851
_refine_ls_wR_factor_gt          0.2307
_refine_ls_goodness_of_fit_ref   0.822
_refine_ls_restrained_S_all      0.822
_refine_ls_shift/su_max          0.001
_refine_ls_shift/su_mean         0.000

loop_
_atom_site_label
_atom_site_type_symbol
_atom_site_fract_x
_atom_site_fract_y
_atom_site_fract_z
_atom_site_U_iso_or_equiv
_atom_site_adp_type
_atom_site_occupancy
_atom_site_symmetry_multiplicity
_atom_site_calc_flag
_atom_site_refinement_flags
_atom_site_disorder_assembly
_atom_site_disorder_group
Cr1 Cr 0.5000 0.5000 0.5000 0.0774(6) Uani 1 2 d S . .
Cr2 Cr 0.0000 0.5000 0.5000 0.0427(4) Uani 1 2 d S . .
Cr3 Cr 0.00741(8) 0.65201(5) 0.85275(6) 0.0696(4) Uani 1 1 d . . .
Cu1 Cu 0.25687(6) 0.55641(5) 0.40108(5) 0.0765(4) Uani 1 1 d . . .
Cu2 Cu 0.12266(6) 0.51431(4) 0.70649(4) 0.0668(3) Uani 1 1 d . . .
Cu3 Cu -0.08781(7) 0.78731(4) 1.00928(4) 0.0730(4) Uani 1 1 d . . .
C1 C 0.2977(8) 0.4525(6) 0.3341(6) 0.118(4) Uani 1 1 d . . .
H1A H 0.3401 0.4525 0.3573 0.141 Uiso 1 1 calc R . .
C2 C 0.2913(14) 0.4098(15) 0.2937(12) 0.192(11) Uani 1 1 d . . .
H2A H 0.3287 0.3838 0.2862 0.230 Uiso 1 1 calc R . .
C3 C 0.2351(17) 0.4101(12) 0.2705(15) 0.223(19) Uani 1 1 d . . .
H3A H 0.2257 0.3779 0.2489 0.267 Uiso 1 1 calc R . .
C4 C 0.1791(11) 0.4488(9) 0.2686(6) 0.182(9) Uani 1 1 d . . .
H4A H 0.1399 0.4457 0.2424 0.218 Uiso 1 1 calc R . .
C5 C 0.1839(10) 0.4972(8) 0.3117(5) 0.149(7) Uani 1 1 d . . .
C6 C 0.1350(7) 0.5513(8) 0.3270(6) 0.141(6) Uani 1 1 d . . .
H6A H 0.1110 0.5657 0.2924 0.169 Uiso 1 1 calc R . .
H6B H 0.0966 0.5410 0.3541 0.169 Uiso 1 1 calc R . .
C7 C 0.1375(6) 0.6306(7) 0.3816(6) 0.119(5) Uani 1 1 d . . .
H7A H 0.1006 0.6110 0.4043 0.142 Uiso 1 1 calc R . .
H7B H 0.1123 0.6565 0.3558 0.142 Uiso 1 1 calc R . .
C8 C 0.1886(9) 0.6600(7) 0.4181(7) 0.122(5) Uani 1 1 d . . .
C9 C 0.1760(11) 0.7157(11) 0.4378(8) 0.169(9) Uani 1 1 d . . .
H9A H 0.1344 0.7357 0.4256 0.202 Uiso 1 1 calc R . .
C10 C 0.2221(14) 0.7376(8) 0.4720(9) 0.185(10) Uani 1 1 d . . .
H10A H 0.2121 0.7741 0.4843 0.222 Uiso 1 1 calc R . .
C11 C 0.2858(12) 0.7130(7) 0.4931(6) 0.172(7) Uani 1 1 d . . .
H11A H 0.3176 0.7300 0.5195 0.206 Uiso 1 1 calc R . .
C12 C 0.2975(9) 0.6560(5) 0.4686(6) 0.129(5) Uani 1 1 d . . .
H12A H 0.3409 0.6367 0.4780 0.155 Uiso 1 1 calc R . .
C13 C 0.2143(6) 0.6212(5) 0.6958(5) 0.105(3) Uani 1 1 d . . .
H13A H 0.1864 0.6346 0.7264 0.126 Uiso 1 1 calc R . .
C14 C 0.2669(9) 0.6563(6) 0.6741(8) 0.151(6) Uani 1 1 d . . .
H14A H 0.2726 0.6930 0.6875 0.181 Uiso 1 1 calc R . .
C15 C 0.3110(9) 0.6349(7) 0.6316(9) 0.158(6) Uani 1 1 d . . .
H15A H 0.3487 0.6571 0.6166 0.190 Uiso 1 1 calc R . .
C16 C 0.3005(7) 0.5809(8) 0.6106(6) 0.133(5) Uani 1 1 d . . .
H16A H 0.3305 0.5671 0.5813 0.160 Uiso 1 1 calc R . .
C17 C 0.2426(6) 0.5463(5) 0.6345(5) 0.099(3) Uani 1 1 d . . .
C18 C 0.2238(6) 0.4890(5) 0.6158(4) 0.093(3) Uani 1 1 d . . .
H18A H 0.1895 0.4904 0.5834 0.112 Uiso 1 1 calc R . .
H18B H 0.2682 0.4693 0.6039 0.112 Uiso 1 1 calc R . .
C19 C 0.1456(6) 0.4118(4) 0.6495(5) 0.102(4) Uani 1 1 d . . .
H19A H 0.1777 0.3796 0.6429 0.122 Uiso 1 1 calc R . .
H19B H 0.1179 0.4193 0.6144 0.122 Uiso 1 1 calc R . .
C20 C 0.0923(7) 0.3986(4) 0.6978(5) 0.092(3) Uani 1 1 d . . .
C21 C 0.0650(9) 0.3459(7) 0.7023(7) 0.137(5) Uani 1 1 d . . .
H21A H 0.0788 0.3165 0.6783 0.165 Uiso 1 1 calc R . .
C22 C 0.0152(11) 0.3402(5) 0.7456(9) 0.161(7) Uani 1 1 d . . .
H22A H -0.0062 0.3048 0.7495 0.193 Uiso 1 1 calc R . .
C23 C -0.0089(7) 0.3827(6) 0.7866(6) 0.124(4) Uani 1 1 d . . .
H23A H -0.0412 0.3761 0.8169 0.149 Uiso 1 1 calc R . .
C24 C 0.0242(6) 0.4356(4) 0.7736(5) 0.096(3) Uani 1 1 d . . .
H24A H 0.0112 0.4667 0.7957 0.116 Uiso 1 1 calc R . .
C25 C -0.2190(7) 0.7847(5) 0.9309(6) 0.115(4) Uani 1 1 d . . .
H25A H -0.1897 0.7588 0.9114 0.137 Uiso 1 1 calc R . .
C26 C -0.2865(15) 0.7957(9) 0.9078(14) 0.225(14) Uani 1 1 d . . .
H26A H -0.3066 0.7784 0.8753 0.270 Uiso 1 1 calc R . .
C27 C -0.3176(14) 0.8331(12) 0.9371(13) 0.226(16) Uani 1 1 d . . .
H27A H -0.3624 0.8453 0.9213 0.271 Uiso 1 1 calc R . .
C28 C -0.2987(10) 0.8607(6) 0.9897(11) 0.182(9) Uani 1 1 d . . .
H28A H -0.3297 0.8864 1.0080 0.219 Uiso 1 1 calc R . .
C29 C -0.2263(8) 0.8447(5) 1.0117(7) 0.120(5) Uani 1 1 d . . .
C30 C -0.1842(8) 0.8636(5) 1.0643(7) 0.131(5) Uani 1 1 d . . .
H30A H -0.1585 0.8986 1.0562 0.157 Uiso 1 1 calc R . .
H30B H -0.2186 0.8704 1.0955 0.157 Uiso 1 1 calc R . .
C31 C -0.0711(9) 0.8422(5) 1.1169(5) 0.124(5) Uani 1 1 d . . .
H31A H -0.0872 0.8459 1.1564 0.148 Uiso 1 1 calc R . .
H31B H -0.0549 0.8790 1.1036 0.148 Uiso 1 1 calc R . .
C32 C -0.0074(8) 0.8005(5) 1.1134(5) 0.106(4) Uani 1 1 d . . .
C33 C 0.0452(11) 0.7939(8) 1.1562(6) 0.154(7) Uani 1 1 d . . .
H33A H 0.0423 0.8138 1.1906 0.184 Uiso 1 1 calc R . .
C34 C 0.1037(10) 0.7558(9) 1.1459(8) 0.160(7) Uani 1 1 d . . .
H34A H 0.1424 0.7528 1.1724 0.193 Uiso 1 1 calc R . .
C35 C 0.1043(9) 0.7232(6) 1.0973(7) 0.136(5) Uani 1 1 d . . .
H35A H 0.1406 0.6959 1.0916 0.163 Uiso 1 1 calc R . .
C36 C 0.0492(7) 0.7323(5) 1.0573(5) 0.104(4) Uani 1 1 d . . .
H36A H 0.0497 0.7113 1.0235 0.125 Uiso 1 1 calc R . .
C37 C 0.3996(5) 0.5172(4) 0.4624(4) 0.072(2) Uani 1 1 d . . .
C38 C 0.4471(6) 0.4709(5) 0.5745(5) 0.099(3) Uani 1 1 d . . .
C39 C 0.5006(6) 0.5821(5) 0.5341(5) 0.107(4) Uani 1 1 d . . .
C40 C 0.1104(5) 0.5115(3) 0.4759(3) 0.0527(19) Uani 1 1 d . . .
C41 C 0.0271(4) 0.5175(3) 0.5846(4) 0.0533(19) Uani 1 1 d . . .
C42 C 0.0216(4) 0.4161(3) 0.5136(3) 0.0467(18) Uani 1 1 d . . .
C43 C 0.0487(5) 0.5950(3) 0.7947(4) 0.067(2) Uani 1 1 d . . .
C44 C -0.0646(7) 0.5923(5) 0.8774(4) 0.096(3) Uani 1 1 d . . .
C45 C -0.0685(6) 0.6831(4) 0.7945(4) 0.083(3) Uani 1 1 d . . .
C46 C 0.0828(6) 0.7093(4) 0.8197(4) 0.084(3) Uani 1 1 d . . .
C47 C 0.0819(7) 0.6285(4) 0.9150(5) 0.103(3) Uani 1 1 d . . .
C48 C -0.0331(5) 0.7075(3) 0.9103(4) 0.065(2) Uani 1 1 d . . .
N1 N 0.2497(6) 0.4924(4) 0.3426(3) 0.096(3) Uani 1 1 d . . .
N2 N 0.1802(5) 0.5925(5) 0.3508(4) 0.098(3) Uani 1 1 d . . .
H2 H 0.2276 0.5942 0.3470 0.118 Uiso 1 1 calc R . .
N3 N 0.2515(5) 0.6329(4) 0.4358(4) 0.091(2) Uani 1 1 d . . .
N4 N 0.1988(4) 0.5685(3) 0.6769(3) 0.083(2) Uani 1 1 d . . .
N5 N 0.1897(4) 0.4598(3) 0.6641(3) 0.083(2) Uani 1 1 d . . .
H5 H 0.1957 0.4707 0.6991 0.100 Uiso 1 1 calc R . .
N6 N 0.0740(4) 0.4429(3) 0.7304(3) 0.076(2) Uani 1 1 d . . .
N7 N -0.1900(5) 0.8069(3) 0.9786(4) 0.089(2) Uani 1 1 d . . .
N8 N -0.1326(6) 0.8221(3) 1.0808(4) 0.097(3) Uani 1 1 d . . .
H8 H -0.1369 0.7874 1.0705 0.116 Uiso 1 1 calc R . .
N9 N -0.0039(5) 0.7691(3) 1.0645(3) 0.083(2) Uani 1 1 d . . .
N10 N 0.3461(4) 0.5297(3) 0.4415(4) 0.089(2) Uani 1 1 d . . .
N11 N 0.4185(6) 0.4538(5) 0.6146(5) 0.133(4) Uani 1 1 d . . .
N12 N 0.4992(7) 0.6252(5) 0.5513(6) 0.171(5) Uani 1 1 d . . .
N13 N 0.1693(4) 0.5193(3) 0.4609(3) 0.0710(19) Uani 1 1 d . . .
N14 N 0.0453(4) 0.5255(3) 0.6315(3) 0.0665(19) Uani 1 1 d . . .
N15 N 0.0355(4) 0.3700(3) 0.5205(3) 0.0656(18) Uani 1 1 d . . .
N16 N 0.0753(4) 0.5638(3) 0.7614(3) 0.077(2) Uani 1 1 d . . .
N17 N -0.1023(8) 0.5553(5) 0.8881(5) 0.176(5) Uani 1 1 d . . .
N18 N -0.1092(6) 0.7021(4) 0.7647(4) 0.111(3) Uani 1 1 d . . .
N19 N 0.1251(5) 0.7386(4) 0.7995(4) 0.105(3) Uani 1 1 d . . .
N20 N 0.1233(7) 0.6177(5) 0.9511(5) 0.154(5) Uani 1 1 d . . .
N21 N -0.0543(4) 0.7374(3) 0.9465(3) 0.080(2) Uani 1 1 d . . .
O1W O -0.1812(11) 0.7418(6) 1.1652(6) 0.154(7) Uani 0.50 1 d P . .
O2W O 0.2322(9) 0.8201(7) 0.7656(6) 0.320(9) Uani 1 1 d . . .
O3W O 0.1015(15) 0.4316(13) 0.9252(10) 0.282(15) Uani 0.50 1 d P . .
O4W O 0.3297(10) 0.4326(12) 0.7146(9) 0.235(12) Uani 0.50 1 d P . .
O5W O 0.2284(16) 0.6038(12) 1.0420(11) 0.282(15) Uani 0.50 1 d P . .

loop_
_atom_site_aniso_label
_atom_site_aniso_U_11
_atom_site_aniso_U_22
_atom_site_aniso_U_33
_atom_site_aniso_U_23
_atom_site_aniso_U_13
_atom_site_aniso_U_12
Cr1 0.0361(11) 0.0898(14) 0.1062(16) -0.0068(12) -0.0097(10) 0.0050(10)
Cr2 0.0380(9) 0.0441(9) 0.0460(9) 0.0004(7) -0.0027(7) 0.0014(7)
Cr3 0.0932(11) 0.0560(8) 0.0597(9) -0.0187(6) -0.0011(8) 0.0014(7)
Cu1 0.0456(6) 0.0991(8) 0.0847(8) 0.0182(6) -0.0079(5) -0.0015(6)
Cu2 0.0741(7) 0.0647(6) 0.0613(7) -0.0165(5) -0.0060(5) 0.0121(5)
Cu3 0.0975(9) 0.0553(6) 0.0664(7) -0.0137(5) 0.0174(6) -0.0052(6)
C1 0.136(12) 0.106(9) 0.110(10) -0.025(8) 0.031(9) -0.016(9)
C2 0.18(2) 0.23(2) 0.164(19) -0.024(16) 0.049(19) -0.04(2)
C3 0.28(4) 0.140(17) 0.25(4) -0.04(2) 0.16(3) -0.05(2)
C4 0.186(19) 0.27(2) 0.086(10) 0.005(12) -0.036(11) -0.158(17)
C5 0.159(14) 0.220(17) 0.069(8) 0.052(10) -0.033(9) -0.137(13)
C6 0.087(10) 0.222(17) 0.114(11) 0.060(11) -0.022(8) -0.010(12)
C7 0.060(8) 0.162(13) 0.134(12) 0.070(10) -0.002(8) 0.022(9)
C8 0.131(13) 0.109(11) 0.128(12) 0.056(9) 0.049(10) 0.051(10)
C9 0.158(18) 0.23(3) 0.120(15) 0.054(15) 0.013(12) 0.043(16)
C10 0.26(3) 0.129(14) 0.17(2) 0.035(13) 0.040(17) 0.109(17)
C11 0.27(2) 0.121(13) 0.129(12) -0.005(10) -0.002(13) -0.038(13)
C12 0.165(14) 0.080(9) 0.144(12) -0.007(8) 0.029(11) -0.006(8)
C13 0.096(9) 0.094(8) 0.124(10) -0.014(7) 0.006(7) -0.006(7)
C14 0.126(13) 0.122(11) 0.205(17) 0.003(11) 0.035(11) -0.014(10)
C15 0.116(13) 0.125(13) 0.23(2) 0.053(13) -0.007(12) -0.018(11)
C16 0.097(10) 0.176(14) 0.127(11) 0.033(11) 0.029(8) 0.026(10)
C17 0.084(8) 0.128(10) 0.085(8) 0.011(7) 0.002(6) 0.024(7)
C18 0.081(7) 0.116(9) 0.083(7) -0.017(7) 0.010(6) 0.020(6)
C19 0.106(9) 0.088(7) 0.112(9) -0.030(7) -0.021(8) 0.055(7)
C20 0.112(9) 0.047(6) 0.115(9) -0.016(6) -0.024(7) 0.025(6)
C21 0.133(13) 0.129(14) 0.150(14) -0.005(10) -0.017(10) 0.013(10)
C22 0.21(2) 0.051(7) 0.22(2) 0.009(10) -0.105(15) -0.005(10)
C23 0.116(10) 0.117(10) 0.141(11) 0.046(9) 0.006(8) -0.015(8)
C24 0.097(8) 0.084(7) 0.108(9) 0.006(6) -0.038(7) -0.004(6)
C25 0.074(9) 0.117(10) 0.152(12) 0.019(9) -0.030(8) -0.015(7)
C26 0.18(2) 0.137(18) 0.36(4) 0.002(19) 0.04(2) -0.017(16)
C27 0.17(2) 0.22(3) 0.28(3) 0.12(2) -0.12(2) -0.11(2)
C28 0.109(13) 0.099(11) 0.34(3) 0.046(14) 0.088(15) 0.052(10)
C29 0.102(11) 0.084(8) 0.174(14) 0.006(9) 0.063(10) 0.000(8)
C30 0.135(12) 0.076(8) 0.182(14) -0.012(9) 0.084(11) 0.004(8)
C31 0.219(16) 0.084(8) 0.069(7) -0.017(6) 0.039(9) -0.021(10)
C32 0.148(12) 0.092(8) 0.079(8) 0.007(7) 0.014(8) -0.051(8)
C33 0.163(16) 0.23(2) 0.070(9) 0.020(11) -0.020(11) -0.083(14)
C34 0.145(15) 0.23(2) 0.103(13) 0.049(13) -0.027(12) -0.072(14)
C35 0.149(14) 0.153(12) 0.105(11) 0.013(10) -0.025(10) 0.000(10)
C36 0.120(10) 0.104(9) 0.088(9) -0.004(7) 0.016(8) -0.001(8)
C37 0.033(5) 0.095(6) 0.089(7) -0.001(5) -0.017(5) 0.008(5)
C38 0.055(7) 0.124(9) 0.118(10) 0.003(7) -0.010(6) 0.004(6)
C39 0.068(7) 0.109(9) 0.143(10) -0.025(8) 0.007(7) -0.011(7)
C40 0.053(5) 0.054(4) 0.051(5) 0.012(3) -0.003(4) -0.001(4)
C41 0.051(5) 0.043(4) 0.066(6) -0.001(4) 0.003(4) 0.004(4)
C42 0.052(5) 0.046(4) 0.042(4) 0.004(3) 0.000(3) 0.000(4)
C43 0.086(7) 0.058(5) 0.057(5) -0.012(4) -0.005(5) -0.005(5)
C44 0.121(10) 0.088(7) 0.080(7) -0.012(6) 0.008(7) -0.014(7)
C45 0.102(9) 0.084(7) 0.062(7) -0.014(5) -0.010(6) 0.004(6)
C46 0.116(9) 0.060(6) 0.076(7) -0.020(5) 0.003(6) -0.007(6)
C47 0.134(10) 0.084(7) 0.090(8) -0.020(6) -0.023(7) 0.010(7)
C48 0.081(6) 0.054(5) 0.059(5) -0.020(4) 0.004(5) 0.000(4)
N1 0.103(7) 0.117(7) 0.068(5) 0.009(5) 0.012(5) -0.033(6)
N2 0.043(5) 0.144(8) 0.107(7) 0.037(6) -0.017(5) -0.010(6)
N3 0.092(7) 0.088(6) 0.093(7) 0.007(5) 0.008(5) -0.002(6)
N4 0.071(5) 0.089(6) 0.090(6) -0.004(5) 0.001(5) 0.005(4)
N5 0.092(6) 0.080(5) 0.077(