####################################################################### 
# 
# This file contains crystal structure data downloaded from the 
# Cambridge Structural Database (CSD) hosted by the Cambridge 
# Crystallographic Data Centre (CCDC).
# 
# Full information about CCDC data access policies and citation 
# guidelines are available at http://www.ccdc.cam.ac.uk/access/V1 
# 
# Audit and citation data items may have been added by the CCDC. 
# Please retain this information to preserve the provenance of 
# this file and to allow appropriate attribution of the data. 
# 
#######################################################################

data_xamd374s
_audit_block_doi                 10.5517/cc92smr
_database_code_depnum_ccdc_archive 'CCDC 270804'
loop_
_citation_id
_citation_doi
_citation_year
1 10.1002/chem.200501340 2006
_audit_update_record             
;
2005-04-29 deposited with the CCDC.	2024-07-10 downloaded from the CCDC.
;

_audit_creation_method           SHELXL-97
_chemical_name_systematic        
;
?
;
_chemical_name_common            none
_chemical_melting_point          'not measured'
_chemical_formula_moiety         '2(Zn4 O) 3(C34 H20 N2 O8)'
_chemical_formula_sum            'C102 H60 N6 O26 Zn8'
_chemical_formula_weight         2308.52

loop_
_atom_type_symbol
_atom_type_description
_atom_type_scat_dispersion_real
_atom_type_scat_dispersion_imag
_atom_type_scat_source
C C 0.0033 0.0016 'International Tables Vol C Tables 4.2.6.8 and 6.1.1.4'
H H 0.0000 0.0000 'International Tables Vol C Tables 4.2.6.8 and 6.1.1.4'
N N 0.0061 0.0033 'International Tables Vol C Tables 4.2.6.8 and 6.1.1.4'
O O 0.0106 0.0060 'International Tables Vol C Tables 4.2.6.8 and 6.1.1.4'
Zn Zn 0.2839 1.4301 'International Tables Vol C Tables 4.2.6.8 and 6.1.1.4'

_symmetry_cell_setting           Cubic
_symmetry_space_group_name_H-M   I4(1)32

loop_
_symmetry_equiv_pos_as_xyz
'x, y, z'
'-x+1/2, -y, z+1/2'
'-x, y+1/2, -z+1/2'
'x+1/2, -y+1/2, -z'
'z, x, y'
'z+1/2, -x+1/2, -y'
'-z+1/2, -x, y+1/2'
'-z, x+1/2, -y+1/2'
'y, z, x'
'-y, z+1/2, -x+1/2'
'y+1/2, -z+1/2, -x'
'-y+1/2, -z, x+1/2'
'y+3/4, x+1/4, -z+1/4'
'-y+3/4, -x+3/4, -z+3/4'
'y+1/4, -x+1/4, z+3/4'
'-y+1/4, x+3/4, z+1/4'
'x+3/4, z+1/4, -y+1/4'
'-x+1/4, z+3/4, y+1/4'
'-x+3/4, -z+3/4, -y+3/4'
'x+1/4, -z+1/4, y+3/4'
'z+3/4, y+1/4, -x+1/4'
'z+1/4, -y+1/4, x+3/4'
'-z+1/4, y+3/4, x+1/4'
'-z+3/4, -y+3/4, -x+3/4'
'x+1/2, y+1/2, z+1/2'
'-x+1, -y+1/2, z+1'
'-x+1/2, y+1, -z+1'
'x+1, -y+1, -z+1/2'
'z+1/2, x+1/2, y+1/2'
'z+1, -x+1, -y+1/2'
'-z+1, -x+1/2, y+1'
'-z+1/2, x+1, -y+1'
'y+1/2, z+1/2, x+1/2'
'-y+1/2, z+1, -x+1'
'y+1, -z+1, -x+1/2'
'-y+1, -z+1/2, x+1'
'y+5/4, x+3/4, -z+3/4'
'-y+5/4, -x+5/4, -z+5/4'
'y+3/4, -x+3/4, z+5/4'
'-y+3/4, x+5/4, z+3/4'
'x+5/4, z+3/4, -y+3/4'
'-x+3/4, z+5/4, y+3/4'
'-x+5/4, -z+5/4, -y+5/4'
'x+3/4, -z+3/4, y+5/4'
'z+5/4, y+3/4, -x+3/4'
'z+3/4, -y+3/4, x+5/4'
'-z+3/4, y+5/4, x+3/4'
'-z+5/4, -y+5/4, -x+5/4'

_cell_length_a                   38.3364(9)
_cell_length_b                   38.3364(9)
_cell_length_c                   38.3364(9)
_cell_angle_alpha                90.00
_cell_angle_beta                 90.00
_cell_angle_gamma                90.00
_cell_volume                     56342(2)
_cell_formula_units_Z            8
_cell_measurement_temperature    293(2)
_cell_measurement_reflns_used    ?
_cell_measurement_theta_min      ?
_cell_measurement_theta_max      ?

_exptl_crystal_description       block
_exptl_crystal_colour            red
_exptl_crystal_size_max          0.40
_exptl_crystal_size_mid          0.41
_exptl_crystal_size_min          0.48
_exptl_crystal_density_meas      none
_exptl_crystal_density_diffrn    0.544
_exptl_crystal_density_method    'not measured'
_exptl_crystal_F_000             9296
_exptl_absorpt_coefficient_mu    0.697
_exptl_absorpt_correction_type   sphere
_exptl_absorpt_correction_T_min  0.715
_exptl_absorpt_correction_T_max  0.756
_exptl_absorpt_process_details   sadas

_exptl_special_details           
;
?
;

_diffrn_ambient_temperature      293(2)
_diffrn_radiation_wavelength     0.71073
_diffrn_radiation_type           MoK\a
_diffrn_radiation_source         'fine-focus sealed tube'
_diffrn_radiation_monochromator  graphite
_diffrn_measurement_device_type  'CCD area detector'
_diffrn_measurement_method       'phi and omega scans'
_diffrn_detector_area_resol_mean ?
_diffrn_standards_number         ?
_diffrn_standards_interval_count ?
_diffrn_standards_interval_time  ?
_diffrn_standards_decay_%        none
_diffrn_reflns_number            77336
_diffrn_reflns_av_R_equivalents  0.1024
_diffrn_reflns_av_sigmaI/netI    0.0551
_diffrn_reflns_limit_h_min       -33
_diffrn_reflns_limit_h_max       33
_diffrn_reflns_limit_k_min       -33
_diffrn_reflns_limit_k_max       25
_diffrn_reflns_limit_l_min       -33
_diffrn_reflns_limit_l_max       33
_diffrn_reflns_theta_min         0.75
_diffrn_reflns_theta_max         18.02
_reflns_number_total             3273
_reflns_number_gt                1739
_reflns_threshold_expression     >2sigma(I)

_computing_data_collection       'Bruker SMART'
_computing_cell_refinement       'Bruker SMART'
_computing_data_reduction        'Bruker SAINT'
_computing_structure_solution    'SHELXS-97 (Sheldrick, 1990)'
_computing_structure_refinement  'SHELXL-97 (Sheldrick, 1997)'
_computing_molecular_graphics    'Bruker SHELXTL'
_computing_publication_material  'Bruker SHELXTL'

_refine_special_details          
;
Refinement of F^2^ against ALL reflections. The weighted R-factor wR and
goodness of fit S are based on F^2^, conventional R-factors R are based
on F, with F set to zero for negative F^2^. The threshold expression of
F^2^ > 2sigma(F^2^) is used only for calculating R-factors(gt) etc. and is
not relevant to the choice of reflections for refinement. R-factors based
on F^2^ are statistically about twice as large as those based on F, and R-
factors based on ALL data will be even larger.
;

_refine_ls_structure_factor_coef Fsqd
_refine_ls_matrix_type           full
_refine_ls_weighting_scheme      calc
_refine_ls_weighting_details     
'calc w=1/[\s^2^(Fo^2^)+(0.0341P)^2^+0.0000P] where P=(Fo^2^+2Fc^2^)/3'
_atom_sites_solution_primary     direct
_atom_sites_solution_secondary   difmap
_atom_sites_solution_hydrogens   geom
_refine_ls_hydrogen_treatment    mixed
_refine_ls_extinction_method     none
_refine_ls_extinction_coef       ?
_refine_ls_abs_structure_details 'Flack H D (1983), Acta Cryst. A39, 876-881'
_refine_ls_abs_structure_Flack   0.087(18)
_refine_ls_number_reflns         3273
_refine_ls_number_parameters     217
_refine_ls_number_restraints     1
_refine_ls_R_factor_all          0.0899
_refine_ls_R_factor_gt           0.0374
_refine_ls_wR_factor_ref         0.0703
_refine_ls_wR_factor_gt          0.0624
_refine_ls_goodness_of_fit_ref   0.793
_refine_ls_restrained_S_all      0.795
_refine_ls_shift/su_max          0.001
_refine_ls_shift/su_mean         0.000

loop_
_atom_site_label
_atom_site_type_symbol
_atom_site_fract_x
_atom_site_fract_y
_atom_site_fract_z
_atom_site_U_iso_or_equiv
_atom_site_adp_type
_atom_site_occupancy
_atom_site_symmetry_multiplicity
_atom_site_calc_flag
_atom_site_refinement_flags
_atom_site_disorder_assembly
_atom_site_disorder_group
Zn1 Zn 0.04523(2) 0.47990(2) 0.99991(3) 0.1593(4) Uani 1 1 d . . .
Zn2 Zn -0.02999(3) 0.47001(3) 1.02999(3) 0.2364(10) Uani 1 3 d S . .
O1 O 0.00140(9) 0.50140(9) 0.99860(9) 0.1250(16) Uani 1 3 d S . .
O2 O 0.00211(18) 0.4374(3) 1.0471(2) 0.297(4) Uani 1 1 d D . .
O3 O 0.05975(11) 0.46563(10) 0.95274(15) 0.1547(18) Uani 1 1 d . . .
O4 O 0.05386(16) 0.4393(2) 1.0308(2) 0.204(3) Uani 1 1 d D . .
O5 O 0.08006(12) 0.51481(13) 1.01575(12) 0.143(2) Uani 1 1 d . . .
N1 N 0.0473(5) 0.2973(5) 1.1250 0.257(13) Uani 1 2 d S . .
N2 N 0.1999(4) 0.6250 1.0501(4) 0.178(6) Uani 1 2 d S . .
C1 C 0.0769(3) 0.5452(2) 1.02600(19) 0.140(4) Uani 1 1 d . . .
C2 C 0.1086(4) 0.5665(5) 1.0352(3) 0.156(5) Uani 1 1 d . . .
C3 C 0.1094(6) 0.6007(5) 1.0503(3) 0.201(6) Uani 1 1 d . . .
H3 H 0.0882 0.6108 1.0563 0.242 Uiso 1 1 calc R . .
C4 C 0.1383(5) 0.6189(3) 1.0564(3) 0.172(5) Uani 1 1 d . . .
H4 H 0.1362 0.6409 1.0666 0.207 Uiso 1 1 calc R . .
C5 C 0.1699(4) 0.6073(6) 1.0486(4) 0.185(5) Uani 1 1 d . . .
C6 C 0.1719(4) 0.5752(6) 1.0332(3) 0.189(4) Uani 1 1 d . . .
H6 H 0.1937 0.5666 1.0269 0.227 Uiso 1 1 calc R . .
C7 C 0.1401(7) 0.5532(2) 1.0262(2) 0.181(3) Uani 1 1 d . . .
H7 H 0.1420 0.5312 1.0160 0.217 Uiso 1 1 calc R . .
C8 C 0.2240(3) 0.6250 1.0260(3) 0.133(4) Uani 1 2 d S . .
C9 C 0.21418(19) 0.6269(2) 0.99035(17) 0.168(3) Uani 1 1 d . . .
H9 H 0.1910 0.6306 0.9841 0.201 Uiso 1 1 calc R . .
C10 C 0.03017(19) 0.4263(4) 1.0427(3) 0.202(6) Uani 1 1 d D . .
C11 C 0.0393(7) 0.3928(4) 1.0685(4) 0.214(6) Uani 1 1 d . . .
C12 C 0.0688(4) 0.3765(6) 1.0694(4) 0.210(7) Uani 1 1 d . . .
H12 H 0.0880 0.3844 1.0568 0.253 Uiso 1 1 calc R . .
C13 C 0.0705(4) 0.3454(5) 1.0910(5) 0.209(6) Uani 1 1 d . . .
H13 H 0.0926 0.3357 1.0933 0.251 Uiso 1 1 calc R . .
C14 C 0.0463(6) 0.3294(6) 1.1072(4) 0.222(10) Uani 1 1 d . . .
C15 C 0.0158(6) 0.3445(5) 1.1068(4) 0.255(7) Uani 1 1 d . . .
H15 H -0.0028 0.3356 1.1197 0.306 Uiso 1 1 calc R . .
C16 C 0.0113(6) 0.3789(6) 1.0836(5) 0.244(6) Uani 1 1 d . . .
H16 H -0.0106 0.3890 1.0806 0.293 Uiso 1 1 calc R . .
C17 C 0.0212(3) 0.2712(3) 1.1250 0.252(13) Uani 1 2 d S . .
C18 C 0.0117(4) 0.2634(3) 1.0906(2) 0.230(7) Uani 1 1 d . . .
H18 H 0.0201 0.2748 1.0709 0.276 Uiso 1 1 calc R . .

loop_
_atom_site_aniso_label
_atom_site_aniso_U_11
_atom_site_aniso_U_22
_atom_site_aniso_U_33
_atom_site_aniso_U_23
_atom_site_aniso_U_13
_atom_site_aniso_U_12
Zn1 0.1825(9) 0.1524(8) 0.1431(8) 0.0115(7) 0.0004(8) 0.0308(7)
Zn2 0.2364(10) 0.2364(10) 0.2364(10) 0.0137(10) 0.0137(10) -0.0137(10)
O1 0.1250(16) 0.1250(16) 0.1250(16) 0.004(3) 0.004(3) -0.004(3)
O2 0.206(8) 0.362(11) 0.324(7) -0.006(7) 0.011(8) 0.019(7)
O3 0.143(4) 0.140(4) 0.181(6) 0.017(4) -0.011(4) 0.018(3)
O4 0.164(7) 0.220(6) 0.227(6) -0.026(5) 0.020(6) -0.013(6)
O5 0.130(4) 0.143(5) 0.156(4) -0.008(4) -0.001(3) 0.011(4)
N1 0.28(2) 0.28(2) 0.204(17) 0.012(8) -0.012(8) 0.08(3)
N2 0.166(9) 0.202(14) 0.166(9) 0.007(7) 0.001(14) 0.007(7)
C1 0.150(10) 0.134(10) 0.137(7) -0.013(7) 0.034(6) 0.057(9)
C2 0.084(10) 0.198(17) 0.185(9) 0.028(9) -0.032(7) -0.040(8)
C3 0.27(3) 0.166(14) 0.169(8) -0.031(8) 0.024(9) 0.042(11)
C4 0.190(16) 0.173(12) 0.154(7) -0.013(7) -0.007(9) -0.050(12)
C5 0.167(16) 0.192(18) 0.195(10) 0.020(10) 0.036(14) 0.033(15)
C6 0.171(15) 0.190(12) 0.206(9) 0.004(8) -0.009(8) 0.005(14)
C7 0.157(10) 0.199(10) 0.186(7) 0.003(6) -0.022(10) -0.016(15)
C8 0.129(6) 0.142(9) 0.129(6) -0.004(7) 0.035(12) -0.004(7)
C9 0.187(7) 0.164(6) 0.152(6) 0.012(8) 0.004(7) -0.010(7)
C10 0.101(14) 0.241(16) 0.265(16) -0.013(12) -0.029(12) 0.081(12)
C11 0.23(2) 0.179(14) 0.236(14) 0.018(11) -0.055(15) -0.017(17)
C12 0.171(12) 0.25(2) 0.215(12) -0.038(14) -0.055(10) 0.054(12)
C13 0.25(2) 0.172(12) 0.205(11) 0.014(8) -0.064(12) 0.072(13)
C14 0.152(16) 0.32(3) 0.198(15) -0.061(15) 0.033(14) -0.10(2)
C15 0.202(16) 0.28(2) 0.283(14) 0.012(12) 0.010(14) 0.002(15)
C16 0.26(2) 0.213(18) 0.259(15) -0.008(12) -0.047(14) 0.038(14)
C17 0.190(12) 0.190(12) 0.38(3) -0.08(2) 0.08(2) -0.056(12)
C18 0.233(16) 0.253(18) 0.205(10) -0.043(10) -0.011(11) -0.008(9)

_geom_special_details            
;
All esds (except the esd in the dihedral angle between two l.s. planes)
are estimated using the full covariance matrix. The cell esds are taken
into account individually in the estimation of esds in distances, angles
and torsion angles; correlations between esds in cell parameters are only
used when they are defined by crystal symmetry. An approximate (isotropic)
treatment of cell esds is used for estimating esds involving l.s. planes.
;

loop_
_geom_bond_atom_site_label_1
_geom_bond_atom_site_label_2
_geom_bond_distance
_geom_bond_site_symmetry_2
_geom_bond_publ_flag
Zn1 O1 1.8720(16) . ?
Zn1 O3 1.970(5) . ?
Zn1 O4 1.985(9) . ?
Zn1 O5 1.986(5) . ?
Zn1 Zn2 3.1288(17) . ?
Zn1 Zn1 3.1407(14) 8_656 ?
Zn1 Zn1 3.1407(14) 11_466 ?
Zn2 O2 1.872(8) 8_656 ?
Zn2 O2 1.872(8) . ?
Zn2 O2 1.872(8) 11_466 ?
Zn2 O1 2.084(6) . ?
Zn2 Zn1 3.1288(17) 8_656 ?
Zn2 Zn1 3.1288(17) 11_466 ?
O1 Zn1 1.8720(16) 8_656 ?
O1 Zn1 1.8720(16) 11_466 ?
O2 C10 1.170(8) . ?
O3 C1 1.306(7) 11_466 ?
O4 C10 1.130(8) . ?
O5 C1 1.234(7) . ?
N1 C14 1.41(2) 13_457 ?
N1 C14 1.41(2) . ?
N1 C17 1.42(2) . ?
N2 C8 1.303(16) . ?
N2 C5 1.339(15) 48 ?
N2 C5 1.339(15) . ?
C1 O3 1.306(7) 8_656 ?
C1 C2 1.507(11) . ?
C2 C7 1.356(10) . ?
C2 C3 1.433(10) . ?
C3 C4 1.330(14) . ?
C3 H3 0.9300 . ?
C4 C5 1.326(13) . ?
C4 H4 0.9300 . ?
C5 C6 1.366(14) . ?
C6 C7 1.508(10) . ?
C6 H6 0.9300 . ?
C7 H7 0.9300 . ?
C8 C9 1.420(6) 48 ?
C8 C9 1.420(6) . ?
C9 C9 1.426(14) 22_465 ?
C9 H9 0.9300 . ?
C10 C11 1.66(2) . ?
C11 C12 1.290(14) . ?
C11 C16 1.331(14) . ?
C12 C13 1.453(13) . ?
C12 H12 0.9300 . ?
C13 C14 1.28(2) . ?
C13 H13 0.9300 . ?
C14 C15 1.306(19) . ?
C15 C16 1.600(17) . ?
C15 H15 0.9300 . ?
C16 H16 0.9300 . ?
C17 C18 1.398(8) . ?
C17 C18 1.398(8) 13_457 ?
C18 C18 1.37(2) 26_454 ?
C18 H18 0.9300 . ?

loop_
_geom_angle_atom_site_label_1
_geom_angle_atom_site_label_2
_geom_angle_atom_site_label_3
_geom_angle
_geom_angle_site_symmetry_1
_geom_angle_site_symmetry_3
_geom_angle_publ_flag
O1 Zn1 O3 110.58(16) . . ?
O1 Zn1 O4 120.7(2) . . ?
O3 Zn1 O4 106.4(3) . . ?
O1 Zn1 O5 108.37(15) . . ?
O3 Zn1 O5 106.14(17) . . ?
O4 Zn1 O5 103.5(2) . . ?
O1 Zn1 Zn2 40.19(17) . . ?
O3 Zn1 Zn2 124.42(13) . . ?
O4 Zn1 Zn2 80.71(17) . . ?
O5 Zn1 Zn2 126.07(13) . . ?
O1 Zn1 Zn1 32.98(7) . 8_656 ?
O3 Zn1 Zn1 127.13(13) . 8_656 ?
O4 Zn1 Zn1 124.8(2) . 8_656 ?
O5 Zn1 Zn1 75.98(13) . 8_656 ?
Zn2 Zn1 Zn1 59.87(2) . 8_656 ?
O1 Zn1 Zn1 32.98(7) . 11_466 ?
O3 Zn1 Zn1 77.77(13) . 11_466 ?
O4 Zn1 Zn1 130.94(18) . 11_466 ?
O5 Zn1 Zn1 122.59(12) . 11_466 ?
Zn2 Zn1 Zn1 59.87(2) . 11_466 ?
Zn1 Zn1 Zn1 60.0 8_656 11_466 ?
O2 Zn2 O2 115.79(17) 8_656 . ?
O2 Zn2 O2 115.79(17) 8_656 11_466 ?
O2 Zn2 O2 115.79(17) . 11_466 ?
O2 Zn2 O1 102.0(3) 8_656 . ?
O2 Zn2 O1 102.0(3) . . ?
O2 Zn2 O1 102.0(3) 11_466 . ?
O2 Zn2 Zn1 66.7(2) 8_656 8_656 ?
O2 Zn2 Zn1 114.5(3) . 8_656 ?
O2 Zn2 Zn1 119.3(2) 11_466 8_656 ?
O1 Zn2 Zn1 35.42(3) . 8_656 ?
O2 Zn2 Zn1 114.5(3) 8_656 11_466 ?
O2 Zn2 Zn1 119.3(2) . 11_466 ?
O2 Zn2 Zn1 66.7(2) 11_466 11_466 ?
O1 Zn2 Zn1 35.42(3) . 11_466 ?
Zn1 Zn2 Zn1 60.25(4) 8_656 11_466 ?
O2 Zn2 Zn1 119.3(2) 8_656 . ?
O2 Zn2 Zn1 66.7(2) . . ?
O2 Zn2 Zn1 114.5(3) 11_466 . ?
O1 Zn2 Zn1 35.42(3) . . ?
Zn1 Zn2 Zn1 60.25(4) 8_656 . ?
Zn1 Zn2 Zn1 60.25(4) 11_466 . ?
Zn1 O1 Zn1 114.04(14) 8_656 . ?
Zn1 O1 Zn1 114.04(14) 8_656 11_466 ?
Zn1 O1 Zn1 114.04(14) . 11_466 ?
Zn1 O1 Zn2 104.39(17) 8_656 . ?
Zn1 O1 Zn2 104.39(17) . . ?
Zn1 O1 Zn2 104.39(17) 11_466 . ?
C10 O2 Zn2 142.8(11) . . ?
C1 O3 Zn1 127.5(6) 11_466 . ?
C10 O4 Zn1 116.8(11) . . ?
C1 O5 Zn1 131.8(7) . . ?
C14 N1 C14 106(3) 13_457 . ?
C14 N1 C17 126.8(15) 13_457 . ?
C14 N1 C17 126.8(15) . . ?
C8 N2 C5 125.4(13) . 48 ?
C8 N2 C5 125.4(13) . . ?
C5 N2 C5 109(3) 48 . ?
O5 C1 O3 124.6(10) . 8_656 ?
O5 C1 C2 120.4(12) . . ?
O3 C1 C2 114.2(12) 8_656 . ?
C7 C2 C3 115.3(11) . . ?
C7 C2 C1 117(2) . . ?
C3 C2 C1 128(2) . . ?
C4 C3 C2 124.8(17) . . ?
C4 C3 H3 117.6 . . ?
C2 C3 H3 117.6 . . ?
C5 C4 C3 122.9(18) . . ?
C5 C4 H4 118.6 . . ?
C3 C4 H4 118.6 . . ?
C4 C5 N2 127(3) . . ?
C4 C5 C6 116.9(17) . . ?
N2 C5 C6 115(2) . . ?
C5 C6 C7 122.4(14) . . ?
C5 C6 H6 118.8 . . ?
C7 C6 H6 118.8 . . ?
C2 C7 C6 117.7(11) . . ?
C2 C7 H7 121.2 . . ?
C6 C7 H7 121.2 . . ?
N2 C8 C9 119.6(7) . 48 ?
N2 C8 C9 119.6(7) . . ?
C9 C8 C9 120.8(13) 48 . ?
C8 C9 C9 119.1(7) . 22_465 ?
C8 C9 H9 120.5 . . ?
C9 C9 H9 120.5 22_465 . ?
O4 C10 O2 129.6(18) . . ?
O4 C10 C11 114.2(15) . . ?
O2 C10 C11 112.9(14) . . ?
C12 C11 C16 120(2) . . ?
C12 C11 C10 125(3) . . ?
C16 C11 C10 113(2) . . ?
C11 C12 C13 116.8(18) . . ?
C11 C12 H12 121.6 . . ?
C13 C12 H12 121.6 . . ?
C14 C13 C12 129.9(18) . . ?
C14 C13 H13 115.0 . . ?
C12 C13 H13 115.0 . . ?
C13 C14 C15 116(3) . . ?
C13 C14 N1 130(3) . . ?
C15 C14 N1 115(2) . . ?
C14 C15 C16 118(2) . . ?
C14 C15 H15 121.0 . . ?
C16 C15 H15 121.0 . . ?
C11 C16 C15 119(2) . . ?
C11 C16 H16 120.5 . . ?
C15 C16 H16 120.5 . . ?
C18 C17 C18 141(2) . 13_457 ?
C18 C17 N1 109.4(10) . . ?
C18 C17 N1 109.4(10) 13_457 . ?
C18 C18 C17 109.2(10) 26_454 . ?
C18 C18 H18 125.4 26_454 . ?
C17 C18 H18 125.4 . . ?

_diffrn_measured_fraction_theta_max 1.000
_diffrn_reflns_theta_full        18.02
_diffrn_measured_fraction_theta_full 1.000
_refine_diff_density_max         0.075
_refine_diff_density_min         -0.145
_refine_diff_density_rms         0.019

