####################################################################### 
# 
# This file contains crystal structure data downloaded from the 
# Cambridge Structural Database (CSD) hosted by the Cambridge 
# Crystallographic Data Centre (CCDC).
# 
# Full information about CCDC data access policies and citation 
# guidelines are available at http://www.ccdc.cam.ac.uk/access/V1 
# 
# Audit and citation data items may have been added by the CCDC. 
# Please retain this information to preserve the provenance of 
# this file and to allow appropriate attribution of the data. 
# 
#######################################################################

data_xamd392s
_audit_block_doi                 10.5517/cc9nhp3
_database_code_depnum_ccdc_archive 'CCDC 287825'
loop_
_citation_id
_citation_doi
_citation_year
1 10.1002/chem.200501340 2006
_audit_update_record             
;
2005-10-26 deposited with the CCDC.	2024-07-10 downloaded from the CCDC.
;

_audit_creation_method           SHELXL-97
_chemical_name_systematic        
;
?
;
_chemical_name_common            none
_chemical_melting_point          'not measured'
_chemical_formula_moiety         'Co3 2(C34 H21 N2 O8)'
_chemical_formula_sum            'C68 H42 Co3 N4 O16'
_chemical_formula_weight         1347.85

loop_
_atom_type_symbol
_atom_type_description
_atom_type_scat_dispersion_real
_atom_type_scat_dispersion_imag
_atom_type_scat_source
C C 0.0033 0.0016 'International Tables Vol C Tables 4.2.6.8 and 6.1.1.4'
H H 0.0000 0.0000 'International Tables Vol C Tables 4.2.6.8 and 6.1.1.4'
N N 0.0061 0.0033 'International Tables Vol C Tables 4.2.6.8 and 6.1.1.4'
O O 0.0106 0.0060 'International Tables Vol C Tables 4.2.6.8 and 6.1.1.4'
Co Co 0.3494 0.9721 'International Tables Vol C Tables 4.2.6.8 and 6.1.1.4'

_symmetry_cell_setting           Triclinic
_symmetry_space_group_name_H-M   P-1

loop_
_symmetry_equiv_pos_as_xyz
'x, y, z'
'-x, -y, -z'

_cell_length_a                   13.703(3)
_cell_length_b                   14.120(3)
_cell_length_c                   15.810(4)
_cell_angle_alpha                105.069(4)
_cell_angle_beta                 103.355(4)
_cell_angle_gamma                109.052(5)
_cell_volume                     2619.6(10)
_cell_formula_units_Z            1
_cell_measurement_temperature    213(2)
_cell_measurement_reflns_used    6303
_cell_measurement_theta_min      1.6
_cell_measurement_theta_max      25.0

_exptl_crystal_description       block
_exptl_crystal_colour            red-violet
_exptl_crystal_size_max          0.21
_exptl_crystal_size_mid          0.20
_exptl_crystal_size_min          0.15
_exptl_crystal_density_meas      none
_exptl_crystal_density_diffrn    0.854
_exptl_crystal_density_method    'not measured'
_exptl_crystal_F_000             687
_exptl_absorpt_coefficient_mu    0.513
_exptl_absorpt_correction_type   none
_exptl_absorpt_correction_T_min  ?
_exptl_absorpt_correction_T_max  ?
_exptl_absorpt_process_details   ?

_exptl_special_details           
;
?
;

_diffrn_ambient_temperature      213(2)
_diffrn_radiation_wavelength     0.71073
_diffrn_radiation_type           MoK\a
_diffrn_radiation_source         'fine-focus sealed tube'
_diffrn_radiation_monochromator  graphite
_diffrn_measurement_device_type  'CCD area detector'
_diffrn_measurement_method       'phi and omega scans'
_diffrn_detector_area_resol_mean ?
_diffrn_standards_number         ?
_diffrn_standards_interval_count ?
_diffrn_standards_interval_time  ?
_diffrn_standards_decay_%        none
_diffrn_reflns_number            7120
_diffrn_reflns_av_R_equivalents  0.0526
_diffrn_reflns_av_sigmaI/netI    0.1432
_diffrn_reflns_limit_h_min       -14
_diffrn_reflns_limit_h_max       15
_diffrn_reflns_limit_k_min       -16
_diffrn_reflns_limit_k_max       3
_diffrn_reflns_limit_l_min       -18
_diffrn_reflns_limit_l_max       13
_diffrn_reflns_theta_min         1.64
_diffrn_reflns_theta_max         24.97
_reflns_number_total             6303
_reflns_number_gt                3223
_reflns_threshold_expression     >2sigma(I)

_computing_data_collection       'Bruker SMART'
_computing_cell_refinement       'Bruker SMART'
_computing_data_reduction        'Bruker SAINT'
_computing_structure_solution    'SHELXS-97 (Sheldrick, 1990)'
_computing_structure_refinement  'SHELXL-97 (Sheldrick, 1997)'
_computing_molecular_graphics    'Bruker SHELXTL'
_computing_publication_material  'Bruker SHELXTL'

_refine_special_details          
;
Refinement of F^2^ against ALL reflections. The weighted R-factor wR and
goodness of fit S are based on F^2^, conventional R-factors R are based
on F, with F set to zero for negative F^2^. The threshold expression of
F^2^ > 2sigma(F^2^) is used only for calculating R-factors(gt) etc. and is
not relevant to the choice of reflections for refinement. R-factors based
on F^2^ are statistically about twice as large as those based on F, and R-
factors based on ALL data will be even larger.
;

_refine_ls_structure_factor_coef Fsqd
_refine_ls_matrix_type           full
_refine_ls_weighting_scheme      calc
_refine_ls_weighting_details     
'calc w=1/[\s^2^(Fo^2^)+(0.0667P)^2^+0.0000P] where P=(Fo^2^+2Fc^2^)/3'
_atom_sites_solution_primary     direct
_atom_sites_solution_secondary   difmap
_atom_sites_solution_hydrogens   geom
_refine_ls_hydrogen_treatment    mixed
_refine_ls_extinction_method     none
_refine_ls_extinction_coef       ?
_refine_ls_number_reflns         6303
_refine_ls_number_parameters     412
_refine_ls_number_restraints     0
_refine_ls_R_factor_all          0.0926
_refine_ls_R_factor_gt           0.0515
_refine_ls_wR_factor_ref         0.1397
_refine_ls_wR_factor_gt          0.1325
_refine_ls_goodness_of_fit_ref   0.801
_refine_ls_restrained_S_all      0.801
_refine_ls_shift/su_max          0.000
_refine_ls_shift/su_mean         0.000

loop_
_atom_site_label
_atom_site_type_symbol
_atom_site_fract_x
_atom_site_fract_y
_atom_site_fract_z
_atom_site_U_iso_or_equiv
_atom_site_adp_type
_atom_site_occupancy
_atom_site_symmetry_multiplicity
_atom_site_calc_flag
_atom_site_refinement_flags
_atom_site_disorder_assembly
_atom_site_disorder_group
Co1 Co 0.0000 0.0000 0.0000 0.0275(3) Uani 1 2 d S . .
Co2 Co 0.02888(6) 0.10451(5) -0.16048(5) 0.0308(2) Uani 1 1 d . . .
C1 C -0.0519(7) 0.1824(5) -0.2741(5) 0.054(2) Uani 1 1 d . . .
C2 C -0.0733(5) 0.2534(4) -0.3247(4) 0.0424(17) Uani 1 1 d . . .
C3 C 0.0052(5) 0.3483(4) -0.3115(4) 0.0468(19) Uani 1 1 d . . .
H3 H 0.0773 0.3682 -0.2723 0.056 Uiso 1 1 calc R . .
C4 C -0.0151(5) 0.4164(4) -0.3522(4) 0.0431(18) Uani 1 1 d . . .
H4 H 0.0421 0.4822 -0.3409 0.052 Uiso 1 1 calc R . .
C5 C -0.1241(5) 0.3879(4) -0.4127(4) 0.0387(17) Uani 1 1 d . . .
C6 C -0.2062(5) 0.2899(4) -0.4303(5) 0.054(2) Uani 1 1 d . . .
H6 H -0.2779 0.2683 -0.4711 0.065 Uiso 1 1 calc R . .
C7 C -0.1795(6) 0.2224(5) -0.3848(5) 0.064(2) Uani 1 1 d . . .
H7 H -0.2346 0.1555 -0.3954 0.076 Uiso 1 1 calc R . .
C8 C 0.2192(5) 0.1269(4) -0.0215(5) 0.0371(16) Uani 1 1 d . . .
C9 C 0.3394(4) 0.1646(4) 0.0213(4) 0.0287(14) Uani 1 1 d . . .
C10 C 0.3815(5) 0.1704(4) 0.1099(4) 0.0420(17) Uani 1 1 d . . .
H10 H 0.3334 0.1479 0.1415 0.050 Uiso 1 1 calc R . .
C11 C 0.4946(5) 0.2090(4) 0.1551(4) 0.0462(17) Uani 1 1 d . . .
H11 H 0.5224 0.2117 0.2163 0.055 Uiso 1 1 calc R . .
C12 C 0.5650(4) 0.2429(4) 0.1091(4) 0.0337(15) Uani 1 1 d . . .
C13 C 0.5216(5) 0.2340(4) 0.0193(4) 0.0392(16) Uani 1 1 d . . .
H13 H 0.5686 0.2543 -0.0138 0.047 Uiso 1 1 calc R . .
C14 C 0.4104(5) 0.1958(4) -0.0231(4) 0.0415(16) Uani 1 1 d . . .
H14 H 0.3824 0.1910 -0.0849 0.050 Uiso 1 1 calc R . .
C15 C 0.6958(4) 0.4089(4) 0.3029(4) 0.0399(16) Uani 1 1 d . . .
H15 H 0.6466 0.4316 0.2707 0.048 Uiso 1 1 calc R . .
C16 C 0.7376(4) 0.4508(4) 0.3989(4) 0.0372(16) Uani 1 1 d . . .
H16 H 0.7157 0.5011 0.4318 0.045 Uiso 1 1 calc R . .
C17 C -0.1886(4) 0.4199(4) -0.5524(4) 0.0278(15) Uani 1 1 d . . .
C18 C -0.1566(4) 0.3477(4) -0.6012(4) 0.0346(15) Uani 1 1 d . . .
H18 H -0.1053 0.3269 -0.5693 0.041 Uiso 1 1 calc R . .
C19 C 0.7995(4) 0.3047(4) 0.3008(4) 0.0356(16) Uani 1 1 d . . .
H19 H 0.8218 0.2549 0.2677 0.043 Uiso 1 1 calc R . .
C20 C 0.7259(4) 0.3336(4) 0.2533(4) 0.0340(16) Uani 1 1 d . . .
C21 C 0.7491(4) 0.2633(4) 0.1052(4) 0.0319(15) Uani 1 1 d . . .
C22 C 0.8419(4) 0.3451(4) 0.1124(4) 0.0355(16) Uani 1 1 d . . .
H22 H 0.8588 0.4167 0.1481 0.043 Uiso 1 1 calc R . .
C23 C 0.9099(5) 0.3217(4) 0.0671(4) 0.0406(17) Uani 1 1 d . . .
H23 H 0.9727 0.3779 0.0706 0.049 Uiso 1 1 calc R . .
C24 C -0.1125(4) 0.2162(4) 0.0162(4) 0.0319(15) Uani 1 1 d . . .
C25 C -0.2045(5) 0.1357(4) 0.0117(4) 0.0398(17) Uani 1 1 d . . .
H25 H -0.2193 0.0638 -0.0209 0.048 Uiso 1 1 calc R . .
C26 C 0.7245(5) 0.1578(4) 0.0536(4) 0.0396(17) Uani 1 1 d . . .
H26 H 0.6598 0.1018 0.0475 0.047 Uiso 1 1 calc R . .
C27 C -0.1258(4) -0.4384(4) -0.3970(4) 0.0335(15) Uani 1 1 d . . .
C28 C -0.1260(5) -0.4202(4) -0.3071(4) 0.0424(17) Uani 1 1 d . . .
H28 H -0.1457 -0.4780 -0.2863 0.051 Uiso 1 1 calc R . .
C29 C -0.0968(5) -0.3161(4) -0.2471(4) 0.0460(19) Uani 1 1 d . . .
H29 H -0.0958 -0.3044 -0.1855 0.055 Uiso 1 1 calc R . .
C30 C -0.0698(4) -0.2312(4) -0.2755(4) 0.0316(15) Uani 1 1 d . . .
C31 C -0.0725(4) -0.2514(4) -0.3658(4) 0.0347(16) Uani 1 1 d . . .
H31 H -0.0558 -0.1937 -0.3870 0.042 Uiso 1 1 calc R . .
C32 C -0.0985(4) -0.3521(4) -0.4261(4) 0.0324(15) Uani 1 1 d . . .
H32 H -0.0979 -0.3627 -0.4872 0.039 Uiso 1 1 calc R . .
C33 C -0.0358(5) -0.1191(5) -0.2083(5) 0.0404(18) Uani 1 1 d . . .
C34 C -0.0371(5) 0.1934(5) -0.0320(4) 0.0344(16) Uani 1 1 d . . .
N1 N -0.1497(4) 0.4569(3) -0.4540(3) 0.0371(14) Uani 1 1 d . . .
N2 N 0.6801(4) 0.2872(3) 0.1548(3) 0.0392(14) Uani 1 1 d . . .
O1 O 0.0451(4) 0.1995(3) -0.2374(3) 0.0606(14) Uani 1 1 d . . .
O2 O -0.1286(5) 0.1138(4) -0.2665(4) 0.0857(18) Uani 1 1 d . . .
O3 O 0.1865(3) 0.1392(3) -0.0976(3) 0.0422(11) Uani 1 1 d . . .
O4 O 0.1600(3) 0.0880(3) 0.0209(3) 0.0402(11) Uani 1 1 d . . .
O5 O 0.0364(4) 0.2657(3) -0.0382(3) 0.0583(14) Uani 1 1 d . . .
O6 O -0.0232(3) -0.0461(3) -0.2433(3) 0.0454(11) Uani 1 1 d . . .
O7 O -0.0238(3) -0.1078(3) -0.1254(3) 0.0410(11) Uani 1 1 d . . .
O8 O -0.0562(3) 0.0942(3) -0.0721(3) 0.0349(11) Uani 1 1 d . . .

loop_
_atom_site_aniso_label
_atom_site_aniso_U_11
_atom_site_aniso_U_22
_atom_site_aniso_U_33
_atom_site_aniso_U_23
_atom_site_aniso_U_13
_atom_site_aniso_U_12
Co1 0.0267(7) 0.0299(5) 0.0255(7) 0.0076(5) 0.0083(5) 0.0135(5)
Co2 0.0342(5) 0.0323(4) 0.0286(5) 0.0125(3) 0.0079(4) 0.0177(3)
C1 0.087(7) 0.044(4) 0.040(5) 0.021(3) 0.023(5) 0.033(4)
C2 0.054(5) 0.045(3) 0.033(4) 0.020(3) 0.005(4) 0.028(3)
C3 0.046(4) 0.042(3) 0.047(5) 0.012(3) 0.005(3) 0.022(3)
C4 0.054(5) 0.036(3) 0.032(4) 0.014(3) 0.004(3) 0.016(3)
C5 0.057(5) 0.032(3) 0.028(4) 0.012(3) 0.010(3) 0.022(3)
C6 0.043(4) 0.040(4) 0.063(6) 0.019(3) -0.001(4) 0.011(3)
C7 0.077(6) 0.045(4) 0.061(6) 0.030(4) 0.018(5) 0.012(4)
C8 0.044(5) 0.027(3) 0.036(4) 0.007(3) 0.011(4) 0.015(3)
C9 0.023(4) 0.034(3) 0.026(4) 0.010(3) 0.006(3) 0.012(2)
C10 0.030(4) 0.056(3) 0.034(4) 0.016(3) 0.016(3) 0.008(3)
C11 0.038(4) 0.066(4) 0.026(4) 0.013(3) 0.002(3) 0.019(3)
C12 0.025(4) 0.039(3) 0.030(4) 0.005(3) 0.006(3) 0.011(3)
C13 0.036(4) 0.063(4) 0.021(4) 0.018(3) 0.013(3) 0.018(3)
C14 0.036(4) 0.063(4) 0.019(3) 0.011(3) -0.001(3) 0.024(3)
C15 0.041(4) 0.051(3) 0.033(4) 0.013(3) 0.008(3) 0.030(3)
C16 0.049(4) 0.041(3) 0.024(4) 0.006(3) 0.006(3) 0.030(3)
C17 0.032(4) 0.028(3) 0.019(4) 0.009(2) 0.004(3) 0.011(2)
C18 0.031(4) 0.038(3) 0.033(4) 0.013(3) 0.004(3) 0.017(3)
C19 0.040(4) 0.034(3) 0.037(4) 0.010(3) 0.013(3) 0.024(3)
C20 0.028(4) 0.042(3) 0.029(4) 0.008(3) 0.011(3) 0.015(3)
C21 0.023(4) 0.051(3) 0.020(3) 0.007(3) 0.003(3) 0.020(3)
C22 0.022(4) 0.037(3) 0.038(4) 0.002(3) 0.006(3) 0.012(3)
C23 0.039(4) 0.035(3) 0.048(4) 0.016(3) 0.018(3) 0.014(3)
C24 0.027(4) 0.040(3) 0.029(4) 0.010(3) 0.009(3) 0.017(3)
C25 0.034(4) 0.046(3) 0.042(4) 0.012(3) 0.013(3) 0.023(3)
C26 0.032(4) 0.040(3) 0.040(4) 0.011(3) 0.008(3) 0.014(3)
C27 0.038(4) 0.038(3) 0.019(4) 0.010(3) -0.005(3) 0.020(3)
C28 0.060(5) 0.036(3) 0.040(4) 0.019(3) 0.020(3) 0.025(3)
C29 0.057(5) 0.039(3) 0.029(4) 0.000(3) 0.011(3) 0.019(3)
C30 0.039(4) 0.029(3) 0.024(4) 0.007(3) 0.005(3) 0.017(2)
C31 0.039(4) 0.035(3) 0.030(4) 0.016(3) 0.005(3) 0.018(3)
C32 0.046(4) 0.041(3) 0.014(3) 0.014(3) 0.006(3) 0.023(3)
C33 0.041(4) 0.048(4) 0.040(5) 0.014(4) 0.016(3) 0.028(3)
C34 0.026(4) 0.048(3) 0.039(4) 0.023(3) 0.013(3) 0.022(3)
N1 0.055(3) 0.031(2) 0.019(3) 0.006(2) -0.006(2) 0.025(2)
N2 0.026(3) 0.060(3) 0.023(3) 0.004(2) 0.002(2) 0.020(2)
O1 0.081(4) 0.065(3) 0.052(3) 0.032(2) 0.017(3) 0.045(3)
O2 0.100(5) 0.064(3) 0.101(5) 0.051(3) 0.027(4) 0.032(3)
O3 0.032(3) 0.055(2) 0.040(3) 0.020(2) 0.010(2) 0.0175(19)
O4 0.029(3) 0.049(2) 0.041(3) 0.021(2) 0.009(2) 0.0139(18)
O5 0.065(3) 0.052(2) 0.088(4) 0.036(2) 0.053(3) 0.035(2)
O6 0.071(3) 0.042(2) 0.025(3) 0.020(2) 0.006(2) 0.026(2)
O7 0.050(3) 0.043(2) 0.033(3) 0.012(2) 0.012(2) 0.0268(19)
O8 0.037(3) 0.039(2) 0.039(3) 0.0157(18) 0.013(2) 0.0271(18)

_geom_special_details            
;
All esds (except the esd in the dihedral angle between two l.s. planes)
are estimated using the full covariance matrix. The cell esds are taken
into account individually in the estimation of esds in distances, angles
and torsion angles; correlations between esds in cell parameters are only
used when they are defined by crystal symmetry. An approximate (isotropic)
treatment of cell esds is used for estimating esds involving l.s. planes.
;

loop_
_geom_bond_atom_site_label_1
_geom_bond_atom_site_label_2
_geom_bond_distance
_geom_bond_site_symmetry_2
_geom_bond_publ_flag
Co1 O4 2.033(4) 2 ?
Co1 O4 2.033(4) . ?
Co1 O7 2.040(3) . ?
Co1 O7 2.040(3) 2 ?
Co1 O8 2.171(4) 2 ?
Co1 O8 2.171(4) . ?
Co2 O6 1.969(3) . ?
Co2 O3 1.989(4) . ?
Co2 O8 2.020(4) . ?
Co2 O1 2.026(5) . ?
C1 O2 1.229(8) . ?
C1 O1 1.235(8) . ?
C1 C2 1.494(9) . ?
C2 C3 1.345(7) . ?
C2 C7 1.393(9) . ?
C3 C4 1.353(9) . ?
C4 C5 1.434(8) . ?
C5 C6 1.378(7) . ?
C5 N1 1.395(8) . ?
C6 C7 1.422(9) . ?
C8 O4 1.251(7) . ?
C8 O3 1.261(7) . ?
C8 C9 1.475(7) . ?
C9 C14 1.353(7) . ?
C9 C10 1.355(8) . ?
C10 C11 1.394(7) . ?
C11 C12 1.375(7) . ?
C12 C13 1.362(8) . ?
C12 N2 1.413(6) . ?
C13 C14 1.366(7) . ?
C15 C16 1.376(7) . ?
C15 C20 1.385(6) . ?
C16 C17 1.382(8) 1_656 ?
C17 C18 1.366(6) . ?
C17 C16 1.382(8) 1_454 ?
C17 N1 1.410(7) . ?
C18 C19 1.404(8) 1_454 ?
C19 C20 1.352(8) . ?
C19 C18 1.404(7) 1_656 ?
C20 N2 1.413(7) . ?
C21 C22 1.367(7) . ?
C21 C26 1.383(6) . ?
C21 N2 1.427(6) . ?
C22 C23 1.370(6) . ?
C23 C24 1.387(6) 1_655 ?
C24 C25 1.366(7) . ?
C24 C23 1.387(6) 1_455 ?
C24 C34 1.486(7) . ?
C25 C26 1.368(7) 1_455 ?
C26 C25 1.368(7) 1_655 ?
C27 C28 1.378(7) . ?
C27 C32 1.382(8) . ?
C27 N1 1.400(6) 1_545 ?
C28 C29 1.391(6) . ?
C29 C30 1.358(8) . ?
C30 C31 1.370(7) . ?
C30 C33 1.505(6) . ?
C31 C32 1.366(6) . ?
C33 O7 1.242(7) . ?
C33 O6 1.274(7) . ?
C34 O5 1.222(6) . ?
C34 O8 1.286(6) . ?
N1 C27 1.400(6) 1_565 ?

loop_
_geom_angle_atom_site_label_1
_geom_angle_atom_site_label_2
_geom_angle_atom_site_label_3
_geom_angle
_geom_angle_site_symmetry_1
_geom_angle_site_symmetry_3
_geom_angle_publ_flag
O4 Co1 O4 180.0(3) 2 . ?
O4 Co1 O7 86.68(14) 2 . ?
O4 Co1 O7 93.32(14) . . ?
O4 Co1 O7 93.32(14) 2 2 ?
O4 Co1 O7 86.68(14) . 2 ?
O7 Co1 O7 180.0(2) . 2 ?
O4 Co1 O8 92.10(15) 2 2 ?
O4 Co1 O8 87.90(15) . 2 ?
O7 Co1 O8 90.56(15) . 2 ?
O7 Co1 O8 89.44(15) 2 2 ?
O4 Co1 O8 87.90(15) 2 . ?
O4 Co1 O8 92.10(15) . . ?
O7 Co1 O8 89.44(15) . . ?
O7 Co1 O8 90.56(15) 2 . ?
O8 Co1 O8 180.0(3) 2 . ?
O6 Co2 O3 100.86(15) . . ?
O6 Co2 O8 103.51(15) . . ?
O3 Co2 O8 111.66(16) . . ?
O6 Co2 O1 109.03(18) . . ?
O3 Co2 O1 99.8(2) . . ?
O8 Co2 O1 128.82(16) . . ?
O2 C1 O1 122.5(8) . . ?
O2 C1 C2 120.3(8) . . ?
O1 C1 C2 117.1(7) . . ?
C3 C2 C7 118.7(6) . . ?
C3 C2 C1 122.3(7) . . ?
C7 C2 C1 118.9(6) . . ?
C2 C3 C4 122.8(6) . . ?
C3 C4 C5 119.8(6) . . ?
C6 C5 N1 118.9(6) . . ?
C6 C5 C4 119.2(6) . . ?
N1 C5 C4 121.9(5) . . ?
C5 C6 C7 118.1(6) . . ?
C2 C7 C6 121.4(6) . . ?
O4 C8 O3 126.2(6) . . ?
O4 C8 C9 117.9(6) . . ?
O3 C8 C9 115.9(6) . . ?
C14 C9 C10 118.0(5) . . ?
C14 C9 C8 123.1(6) . . ?
C10 C9 C8 118.9(5) . . ?
C9 C10 C11 121.5(5) . . ?
C12 C11 C10 119.3(6) . . ?
C13 C12 C11 118.7(5) . . ?
C13 C12 N2 120.8(5) . . ?
C11 C12 N2 120.5(6) . . ?
C12 C13 C14 120.5(5) . . ?
C9 C14 C13 122.0(6) . . ?
C16 C15 C20 120.4(6) . . ?
C15 C16 C17 120.8(5) . 1_656 ?
C18 C17 C16 118.9(5) . 1_454 ?
C18 C17 N1 119.3(5) . . ?
C16 C17 N1 121.8(4) 1_454 . ?
C17 C18 C19 119.9(6) . 1_454 ?
C20 C19 C18 121.2(5) . 1_656 ?
C19 C20 C15 118.8(5) . . ?
C19 C20 N2 120.5(5) . . ?
C15 C20 N2 120.7(6) . . ?
C22 C21 C26 120.5(4) . . ?
C22 C21 N2 119.4(4) . . ?
C26 C21 N2 120.1(5) . . ?
C21 C22 C23 119.4(5) . . ?
C22 C23 C24 121.0(5) . 1_655 ?
C25 C24 C23 118.6(4) . 1_455 ?
C25 C24 C34 121.7(4) . . ?
C23 C24 C34 119.7(5) 1_455 . ?
C24 C25 C26 121.3(5) . 1_455 ?
C25 C26 C21 119.2(5) 1_655 . ?
C28 C27 C32 118.7(5) . . ?
C28 C27 N1 118.5(5) . 1_545 ?
C32 C27 N1 122.8(5) . 1_545 ?
C27 C28 C29 119.9(6) . . ?
C30 C29 C28 121.5(5) . . ?
C29 C30 C31 117.7(5) . . ?
C29 C30 C33 120.3(5) . . ?
C31 C30 C33 122.0(5) . . ?
C32 C31 C30 122.5(5) . . ?
C31 C32 C27 119.7(5) . . ?
O7 C33 O6 127.1(5) . . ?
O7 C33 C30 117.0(6) . . ?
O6 C33 C30 115.9(6) . . ?
O5 C34 O8 121.0(5) . . ?
O5 C34 C24 121.2(5) . . ?
O8 C34 C24 117.6(5) . . ?
C5 N1 C27 119.0(5) . 1_565 ?
C5 N1 C17 117.3(4) . . ?
C27 N1 C17 123.4(5) 1_565 . ?
C12 N2 C20 120.4(4) . . ?
C12 N2 C21 120.2(4) . . ?
C20 N2 C21 117.7(5) . . ?
C1 O1 Co2 100.8(5) . . ?
C8 O3 Co2 121.7(4) . . ?
C8 O4 Co1 140.7(4) . . ?
C33 O6 Co2 119.2(4) . . ?
C33 O7 Co1 142.9(4) . . ?
C34 O8 Co2 101.6(3) . . ?
C34 O8 Co1 123.8(4) . . ?
Co2 O8 Co1 103.23(14) . . ?

_diffrn_measured_fraction_theta_max 0.684
_diffrn_reflns_theta_full        24.97
_diffrn_measured_fraction_theta_full 0.684
_refine_diff_density_max         0.279
_refine_diff_density_min         -0.468
_refine_diff_density_rms         0.069
