
#######################################################################
#
#                 Cambridge Crystallographic Data Centre
#                                CCDC
#
#######################################################################
#
# If this CIF has been generated from an entry in the Cambridge
# Structural Database, then it will include bibliographic, chemical,
# crystal, experimental, refinement or atomic coordinate data resulting
# from the CCDC's data processing and validation procedures.
#
#######################################################################

data_CSD_CIF_JEKNOC10
_audit_creation_date 1993-11-16
_audit_creation_method CSD-ConQuest-V1
_database_code_CSD JEKNOC10
_database_code_depnum_ccdc_archive 'CCDC 1184450'
_chemical_formula_sum 'C13 H18 O2'
_chemical_formula_moiety
;
C13 H18 O2
;
_journal_coeditor_code "IUCr AL1030"
_journal_coden_Cambridge 591
_journal_volume 49
_journal_year 1993
_journal_page_first 1378
_journal_name_full 'Acta Crystallogr.,Sect.C:Cryst.Struct.Commun. '
loop_
_publ_author_name
"A.A.Freer"
"J.M.Bunyan"
"N.Shankland"
"D.B.Sheen"
_chemical_name_systematic
;
(S)-(+)-\a-Methyl-4-(2-methylpropyl)benzeneacetic acid
;
_chemical_name_common
;
(S)-(+)-Ibuprofen; Dexibuprofen; DrugBank: DB09213; Teaching Subset: Drug 
Molecules
;
_cell_volume   1248.933
_exptl_crystal_colour 'Colorless'
_exptl_crystal_density_diffrn 1.1
_exptl_special_details
;
racemic isomer exhibits pharmacological activity

;
_diffrn_ambient_temperature ?
_diffrn_special_details
;
The study was carried out at room temperature,in the range 283-303K

;
#These two values have been output from a single CSD field.
_refine_ls_R_factor_gt 0.056
_refine_ls_wR_factor_gt 0.056
loop_
_citation_database_id_CSD
_citation_special_details
IBPRAC "is a racemate of this entry"
_symmetry_cell_setting monoclinic
_symmetry_space_group_name_H-M 'P 21'
_symmetry_Int_Tables_number 4
loop_
_symmetry_equiv_pos_site_id
_symmetry_equiv_pos_as_xyz
1 x,y,z
2 -x,1/2+y,-z
_cell_length_a 12.462(3)
_cell_length_b 8.035(3)
_cell_length_c 13.539(4)
_cell_angle_alpha 90
_cell_angle_beta 112.89(3)
_cell_angle_gamma 90
_cell_formula_units_Z 4
loop_
_atom_type_symbol
_atom_type_radius_bond
C 0.68
H 0.23
O 0.68
loop_
_atom_site_label
_atom_site_type_symbol
_atom_site_fract_x
_atom_site_fract_y
_atom_site_fract_z
O1 O -0.9649(5) -0.902(1) -0.7762(4)
O2 O -1.0849(4) -0.73300 -0.8958(4)
C1 C -0.9875(7) -0.7597(13) -0.8305(6)
C2 C -0.8907(6) -0.6410(12) -0.8011(6)
C3 C -0.9005(7) -0.5283(13) -0.8955(6)
C4 C -0.8838(6) -0.5465(12) -0.6991(6)
C5 C -0.9503(7) -0.4072(13) -0.7049(6)
C6 C -0.9468(6) -0.3258(12) -0.6166(6)
C7 C -0.8766(7) -0.3801(12) -0.5159(7)
C8 C -0.8111(7) -0.5229(13) -0.5092(6)
C9 C -0.8140(7) -0.6038(13) -0.6016(6)
C10 C -0.8637(7) -0.2878(15) -0.4112(6)
C11 C -0.7653(7) -0.1641(12) -0.3729(5)
C12 C -0.7429(7) -0.0998(15) -0.2646(6)
C13 C -0.7843(7) -0.0218(13) -0.4485(7)
H1 H -1.06500 -0.97510 -0.81200
H2 H -0.81000 -0.70680 -0.78250
H3 H -0.83190 -0.43890 -0.87660
H4 H -0.90510 -0.60060 -0.96170
H5 H -0.98140 -0.46200 -0.91340
H6 H -1.00500 -0.35950 -0.78180
H7 H -1.00300 -0.21990 -0.62710
H8 H -0.75140 -0.56630 -0.43290
H9 H -0.76220 -0.71440 -0.59440
H10 H -0.94370 -0.21990 -0.42800
H11 H -0.85480 -0.37560 -0.34680
H12 H -0.69160 -0.22540 -0.37440
H13 H -0.66950 -0.01490 -0.23680
H14 H -0.81670 -0.03990 -0.26270
H15 H -0.72010 -0.20570 -0.21200
H16 H -0.71200 0.06500 -0.41260
H17 H -0.79020 -0.07030 -0.52560
H18 H -0.86240 0.04480 -0.46080
O3 O -0.2680(4) 0.0713(9) 0.0491(4)
O4 O -0.1496(5) -0.1000(8) 0.1688(4)
C14 C -0.2439(7) -0.0699(12) 0.1008(6)
C15 C -0.3420(6) -0.1968(12) 0.0675(5)
C16 C -0.4567(6) -0.1145(13) 0.0514(6)
C17 C -0.3400(6) -0.2878(11) -0.0325(5)
C18 C -0.2668(6) -0.4213(11) -0.0168(5)
C19 C -0.2623(6) -0.5106(11) -0.1041(5)
C20 C -0.3324(6) -0.4670(11) -0.2057(6)
C21 C -0.4058(7) -0.3294(12) -0.2216(6)
C22 C -0.4088(6) -0.2404(11) -0.1353(5)
C23 C -0.3372(6) -0.5633(11) -0.3051(5)
C24 C -0.4390(7) -0.6831(12) -0.3517(6)
C25 C -0.4338(10) -0.8180(15) -0.2766(8)
C26 C -0.4477(8) -0.7513(13) -0.4568(6)
H19 H -0.16870 0.13090 0.08660
H20 H -0.32110 -0.28590 0.12910
H21 H -0.52530 -0.20660 0.02890
H22 H -0.45310 -0.05530 0.12280
H23 H -0.47800 -0.02460 -0.01230
H24 H -0.21180 -0.45940 0.06540
H25 H -0.20410 -0.61610 -0.09150
H26 H -0.46340 -0.29420 -0.30350
H27 H -0.45880 -0.12770 -0.14970
H28 H -0.33510 -0.47650 -0.36470
H29 H -0.25920 -0.63740 -0.27940
H30 H -0.51700 -0.61410 -0.36540
H31 H -0.50860 -0.89730 -0.30920
H32 H -0.35600 -0.88730 -0.26130
H33 H -0.43020 -0.76840 -0.20020
H34 H -0.52230 -0.83230 -0.49020
H35 H -0.44970 -0.65760 -0.51230
H36 H -0.36930 -0.82410 -0.43620
#END
