####################################################################### 
# 
# This file contains crystal structure data downloaded from the 
# Cambridge Structural Database (CSD) hosted by the Cambridge 
# Crystallographic Data Centre (CCDC).
# 
# Full information about CCDC data access policies and citation 
# guidelines are available at http://www.ccdc.cam.ac.uk/access/V1 
# 
# Audit and citation data items may have been added by the CCDC. 
# Please retain this information to preserve the provenance of 
# this file and to allow appropriate attribution of the data. 
# 
#######################################################################

data_x05087s
_audit_block_doi                 10.5517/cc9mznj
_database_code_depnum_ccdc_archive 'CCDC 287328'
loop_
_citation_id
_citation_doi
_citation_year
1 10.1021/ic0609002 2006
_audit_update_record             
;
2005-10-24 deposited with the CCDC.	2024-07-10 downloaded from the CCDC.
;

_audit_creation_method           SHELXL-97
_chemical_name_systematic        
;
?
;
_chemical_name_common            none
_chemical_melting_point          'not measured'
_chemical_formula_moiety         'Zn8 4(O H) 4(C45 H27 O6)'
_chemical_formula_sum            'C180 H112 N0 O28 Zn8'
_chemical_formula_weight         3245.66

loop_
_atom_type_symbol
_atom_type_description
_atom_type_scat_dispersion_real
_atom_type_scat_dispersion_imag
_atom_type_scat_source
C C 0.0181 0.0091 'International Tables Vol C Tables 4.2.6.8 and 6.1.1.4'
H H 0.0000 0.0000 'International Tables Vol C Tables 4.2.6.8 and 6.1.1.4'
O O 0.0492 0.0322 'International Tables Vol C Tables 4.2.6.8 and 6.1.1.4'
Zn Zn -1.5491 0.6778 'International Tables Vol C Tables 4.2.6.8 and 6.1.1.4'
N N 0.0311 0.0180 'International Tables Vol C Tables 4.2.6.8 and 6.1.1.4'

_symmetry_cell_setting           Monoclinic
_symmetry_space_group_name_H-M   I2/a

loop_
_symmetry_equiv_pos_as_xyz
'x, y, z'
'-x+1/2, y, -z'
'x+1/2, y+1/2, z+1/2'
'-x+1, y+1/2, -z+1/2'
'-x, -y, -z'
'x-1/2, -y, z'
'-x+1/2, -y+1/2, -z+1/2'
'x, -y+1/2, z+1/2'

_cell_length_a                   34.6215(9)
_cell_length_b                   15.0763(3)
_cell_length_c                   42.9953(9)
_cell_angle_alpha                90.00
_cell_angle_beta                 108.373(2)
_cell_angle_gamma                90.00
_cell_volume                     21298.0(8)
_cell_formula_units_Z            4
_cell_measurement_temperature    90(2)
_cell_measurement_reflns_used    ?
_cell_measurement_theta_min      ?
_cell_measurement_theta_max      ?

_exptl_crystal_description       rod
_exptl_crystal_colour            colorless
_exptl_crystal_size_max          0.16
_exptl_crystal_size_mid          0.08
_exptl_crystal_size_min          0.02
_exptl_crystal_density_meas      ?
_exptl_crystal_density_diffrn    1.012
_exptl_crystal_density_method    'not measured'
_exptl_crystal_F_000             6624
_exptl_absorpt_coefficient_mu    1.410
_exptl_absorpt_correction_type   empirical
_exptl_absorpt_correction_T_min  0.8058
_exptl_absorpt_correction_T_max  0.9723
_exptl_absorpt_process_details   sadas

_exptl_special_details           
;
?
;

_diffrn_ambient_temperature      90(2)
_diffrn_radiation_wavelength     1.54178
_diffrn_radiation_type           CuK\a
_diffrn_radiation_source         'fine-focus sealed tube'
_diffrn_radiation_monochromator  graphite
_diffrn_measurement_device_type  ?
_diffrn_measurement_method       ?
_diffrn_detector_area_resol_mean ?
_diffrn_standards_number         ?
_diffrn_standards_interval_count ?
_diffrn_standards_interval_time  ?
_diffrn_standards_decay_%        ?
_diffrn_reflns_number            123280
_diffrn_reflns_av_R_equivalents  0.0939
_diffrn_reflns_av_sigmaI/netI    0.0568
_diffrn_reflns_limit_h_min       -41
_diffrn_reflns_limit_h_max       41
_diffrn_reflns_limit_k_min       -17
_diffrn_reflns_limit_k_max       17
_diffrn_reflns_limit_l_min       -51
_diffrn_reflns_limit_l_max       47
_diffrn_reflns_theta_min         2.17
_diffrn_reflns_theta_max         68.09
_reflns_number_total             19052
_reflns_number_gt                13723
_reflns_threshold_expression     >2sigma(I)

_computing_data_collection       ?
_computing_cell_refinement       ?
_computing_data_reduction        ?
_computing_structure_solution    ?
_computing_structure_refinement  'SHELXL-97 (Sheldrick, 1997)'
_computing_molecular_graphics    ?
_computing_publication_material  ?

_refine_special_details          
;
Refinement of F^2^ against ALL reflections. The weighted R-factor wR and
goodness of fit S are based on F^2^, conventional R-factors R are based
on F, with F set to zero for negative F^2^. The threshold expression of
F^2^ > 2sigma(F^2^) is used only for calculating R-factors(gt) etc. and is
not relevant to the choice of reflections for refinement. R-factors based
on F^2^ are statistically about twice as large as those based on F, and R-
factors based on ALL data will be even larger.
;

_refine_ls_structure_factor_coef Fsqd
_refine_ls_matrix_type           full
_refine_ls_weighting_scheme      calc
_refine_ls_weighting_details     
'calc w=1/[\s^2^(Fo^2^)+(0.0861P)^2^+0.0000P] where P=(Fo^2^+2Fc^2^)/3'
_atom_sites_solution_primary     direct
_atom_sites_solution_secondary   difmap
_atom_sites_solution_hydrogens   geom
_refine_ls_hydrogen_treatment    mixed
_refine_ls_extinction_method     SHELXL
_refine_ls_extinction_coef       0.0000009(7)
_refine_ls_extinction_expression Fc^*^=kFc[1+0.001xFc^2^\l^3^/sin(2\q)]^-1/4^
_refine_ls_number_reflns         19052
_refine_ls_number_parameters     974
_refine_ls_number_restraints     0
_refine_ls_R_factor_all          0.0755
_refine_ls_R_factor_gt           0.0534
_refine_ls_wR_factor_ref         0.1465
_refine_ls_wR_factor_gt          0.1366
_refine_ls_goodness_of_fit_ref   1.049
_refine_ls_restrained_S_all      1.049
_refine_ls_shift/su_max          0.004
_refine_ls_shift/su_mean         0.000

loop_
_atom_site_label
_atom_site_type_symbol
_atom_site_fract_x
_atom_site_fract_y
_atom_site_fract_z
_atom_site_U_iso_or_equiv
_atom_site_adp_type
_atom_site_occupancy
_atom_site_symmetry_multiplicity
_atom_site_calc_flag
_atom_site_refinement_flags
_atom_site_disorder_assembly
_atom_site_disorder_group
Zn1 Zn 1.300986(12) 0.11749(3) -0.207205(9) 0.02904(11) Uani 1 1 d . . .
Zn2 Zn 1.369651(13) 0.28598(3) -0.279800(10) 0.03026(12) Uani 1 1 d . . .
Zn3 Zn 1.391141(14) 0.19708(3) -0.214168(10) 0.03394(12) Uani 1 1 d . . .
Zn4 Zn 1.281722(12) 0.25012(3) -0.268782(9) 0.02684(11) Uani 1 1 d . . .
O1 O 1.27902(6) 0.23367(13) -0.21990(5) 0.0296(5) Uani 1 1 d . . .
C1A C 1.37318(10) -0.4599(2) -0.38530(8) 0.0349(8) Uani 1 1 d . . .
C2A C 1.39977(10) -0.5256(2) -0.36780(8) 0.0359(8) Uani 1 1 d . . .
H2A H 1.4117 -0.5198 -0.3448 0.043 Uiso 1 1 calc R . .
C3A C 1.40893(10) -0.5988(2) -0.38349(8) 0.0330(7) Uani 1 1 d . . .
C4A C 1.39073(10) -0.6062(2) -0.41744(8) 0.0368(8) Uani 1 1 d . . .
H4A H 1.3964 -0.6569 -0.4284 0.044 Uiso 1 1 calc R . .
O5A O 1.21448(9) -0.73515(19) -0.68438(6) 0.0527(7) Uani 1 1 d . . .
O6A O 1.16147(7) -0.66015(16) -0.67912(5) 0.0397(6) Uani 1 1 d . . .
C7A C 1.36192(11) -0.3839(2) -0.36812(8) 0.0367(8) Uani 1 1 d . . .
C8A C 1.35408(12) -0.3006(2) -0.38294(9) 0.0420(9) Uani 1 1 d . . .
H8A H 1.3567 -0.2920 -0.4041 0.050 Uiso 1 1 calc R . .
C9A C 1.34242(12) -0.2297(2) -0.36701(9) 0.0420(9) Uani 1 1 d . . .
H9A H 1.3371 -0.1736 -0.3775 0.050 Uiso 1 1 calc R . .
C10A C 1.33842(11) -0.2400(2) -0.33604(8) 0.0375(8) Uani 1 1 d . . .
C11A C 1.34576(11) -0.3237(2) -0.32115(9) 0.0399(8) Uani 1 1 d . . .
H11A H 1.3430 -0.3323 -0.3001 0.048 Uiso 1 1 calc R . .
C12A C 1.35704(11) -0.3939(2) -0.33714(8) 0.0370(8) Uani 1 1 d . . .
H12A H 1.3616 -0.4504 -0.3269 0.044 Uiso 1 1 calc R . .
C13A C 1.32913(11) -0.1626(2) -0.31818(8) 0.0364(8) Uani 1 1 d . . .
C14A C 1.30296(12) -0.0952(2) -0.33439(9) 0.0436(9) Uani 1 1 d . . .
H14A H 1.2895 -0.0995 -0.3573 0.052 Uiso 1 1 calc R . .
C15A C 1.29648(11) -0.0217(2) -0.31721(8) 0.0416(9) Uani 1 1 d . . .
H15A H 1.2789 0.0245 -0.3285 0.050 Uiso 1 1 calc R . .
C16A C 1.31547(10) -0.0151(2) -0.28360(8) 0.0324(7) Uani 1 1 d . . .
C17A C 1.34162(10) -0.0821(2) -0.26730(8) 0.0342(7) Uani 1 1 d . . .
H17A H 1.3550 -0.0777 -0.2444 0.041 Uiso 1 1 calc R . .
C18A C 1.34807(11) -0.1554(2) -0.28453(8) 0.0360(8) Uani 1 1 d . . .
H18A H 1.3657 -0.2013 -0.2732 0.043 Uiso 1 1 calc R . .
C19A C 1.30896(10) 0.0633(2) -0.26486(8) 0.0313(7) Uani 1 1 d . . .
O1A O 1.28066(7) 0.11585(14) -0.27890(6) 0.0368(6) Uani 1 1 d . . .
O2A O 1.33192(7) 0.07245(14) -0.23546(5) 0.0351(5) Uani 1 1 d . . .
C20A C 1.43633(10) -0.6713(2) -0.36503(8) 0.0345(8) Uani 1 1 d . . .
C21A C 1.43751(10) -0.6935(2) -0.33324(9) 0.0382(8) Uani 1 1 d . . .
H21A H 1.4230 -0.6586 -0.3223 0.046 Uiso 1 1 calc R . .
C22A C 1.46008(11) -0.7672(2) -0.31740(9) 0.0382(8) Uani 1 1 d . . .
H22A H 1.4604 -0.7816 -0.2958 0.046 Uiso 1 1 calc R . .
C23A C 1.48170(10) -0.8190(2) -0.33248(9) 0.0375(8) Uani 1 1 d . . .
C24A C 1.48168(11) -0.7939(2) -0.36395(9) 0.0397(8) Uani 1 1 d . . .
H24A H 1.4972 -0.8272 -0.3746 0.048 Uiso 1 1 calc R . .
C25A C 1.45929(11) -0.7212(2) -0.37970(9) 0.0399(8) Uani 1 1 d . . .
H25A H 1.4598 -0.7054 -0.4010 0.048 Uiso 1 1 calc R . .
C26A C 1.50425(10) -0.9002(2) -0.31684(9) 0.0384(8) Uani 1 1 d . . .
C27A C 1.51877(10) -0.9093(2) -0.28302(9) 0.0385(8) Uani 1 1 d . . .
H27A H 1.5143 -0.8632 -0.2695 0.046 Uiso 1 1 calc R . .
C28A C 1.53985(10) -0.9852(2) -0.26866(8) 0.0367(8) Uani 1 1 d . . .
H28A H 1.5501 -0.9901 -0.2455 0.044 Uiso 1 1 calc R . .
C29A C 1.54595(10) -1.0541(2) -0.28838(9) 0.0362(8) Uani 1 1 d . . .
C30A C 1.53076(11) -1.0454(2) -0.32199(9) 0.0428(9) Uani 1 1 d . . .
H30A H 1.5344 -1.0923 -0.3356 0.051 Uiso 1 1 calc R . .
C31A C 1.51038(11) -0.9700(2) -0.33613(9) 0.0436(9) Uani 1 1 d . . .
H31A H 1.5003 -0.9652 -0.3593 0.052 Uiso 1 1 calc R . .
C32A C 1.56898(10) -1.1362(2) -0.27362(9) 0.0371(8) Uani 1 1 d . . .
O3A O 1.58455(7) -1.13719(16) -0.24272(6) 0.0414(6) Uani 1 1 d . . .
O4A O 1.57223(8) -1.19529(15) -0.29320(6) 0.0424(6) Uani 1 1 d . . .
C33A C 1.34355(11) -0.5546(2) -0.47161(8) 0.0417(9) Uani 1 1 d . . .
C34A C 1.35491(18) -0.6172(4) -0.48936(11) 0.089(2) Uani 1 1 d . . .
H34A H 1.3789 -0.6505 -0.4793 0.107 Uiso 1 1 calc R . .
C35A C 1.33290(18) -0.6346(4) -0.52173(11) 0.087(2) Uani 1 1 d . . .
H35A H 1.3419 -0.6800 -0.5331 0.105 Uiso 1 1 calc R . .
C36A C 1.29831(12) -0.5877(3) -0.53779(9) 0.0460(9) Uani 1 1 d . . .
C37A C 1.29027(16) -0.5186(3) -0.52150(10) 0.0729(16) Uani 1 1 d . . .
H37A H 1.2688 -0.4796 -0.5325 0.087 Uiso 1 1 calc R . .
C38A C 1.31230(15) -0.5016(3) -0.48875(10) 0.0710(16) Uani 1 1 d . . .
H38A H 1.3053 -0.4517 -0.4782 0.085 Uiso 1 1 calc R . .
C39A C 1.27278(12) -0.6103(3) -0.57213(9) 0.0455(9) Uani 1 1 d . . .
C40A C 1.28922(13) -0.6494(3) -0.59394(10) 0.0573(11) Uani 1 1 d . . .
H40A H 1.3176 -0.6610 -0.5873 0.069 Uiso 1 1 calc R . .
C41A C 1.26572(13) -0.6720(3) -0.62508(9) 0.0545(11) Uani 1 1 d . . .
H41A H 1.2780 -0.6990 -0.6396 0.065 Uiso 1 1 calc R . .
C42A C 1.22407(10) -0.6557(2) -0.63555(8) 0.0378(8) Uani 1 1 d . . .
C43A C 1.20744(12) -0.6135(3) -0.61427(9) 0.0541(11) Uani 1 1 d . . .
H43A H 1.1793 -0.5993 -0.6213 0.065 Uiso 1 1 calc R . .
C44A C 1.23135(12) -0.5917(3) -0.58279(10) 0.0585(12) Uani 1 1 d . . .
H44A H 1.2193 -0.5636 -0.5683 0.070 Uiso 1 1 calc R . .
C45A C 1.19852(12) -0.6849(2) -0.66898(8) 0.0406(9) Uani 1 1 d . . .
C5A C 1.36461(11) -0.5416(2) -0.43553(8) 0.0381(8) Uani 1 1 d . . .
C6A C 1.35660(11) -0.4685(2) -0.41923(8) 0.0389(8) Uani 1 1 d . . .
H6A H 1.3394 -0.4231 -0.4314 0.047 Uiso 1 1 calc R . .
O2 O 1.34525(7) 0.26289(13) -0.24485(5) 0.0326(5) Uani 1 1 d . . .
C1B C 1.49603(10) -0.4314(2) -0.36407(7) 0.0305(7) Uani 1 1 d . . .
C2B C 1.52689(10) -0.4840(2) -0.34406(8) 0.0344(8) Uani 1 1 d . . .
H2B H 1.5369 -0.4722 -0.3212 0.041 Uiso 1 1 calc R . .
C3B C 1.54329(10) -0.5534(2) -0.35686(8) 0.0332(7) Uani 1 1 d . . .
C4B C 1.52933(11) -0.5689(2) -0.39044(8) 0.0357(8) Uani 1 1 d . . .
H4B H 1.5416 -0.6141 -0.3995 0.043 Uiso 1 1 calc R . .
C5B C 1.49748(10) -0.5188(2) -0.41109(8) 0.0343(8) Uani 1 1 d . . .
C6B C 1.48124(10) -0.4506(2) -0.39722(8) 0.0338(7) Uani 1 1 d . . .
H6B H 1.4594 -0.4164 -0.4109 0.041 Uiso 1 1 calc R . .
C7B C 1.48015(10) -0.3542(2) -0.35003(8) 0.0325(7) Uani 1 1 d . . .
C8B C 1.47028(11) -0.2754(2) -0.36772(8) 0.0371(8) Uani 1 1 d . . .
H8B H 1.4728 -0.2717 -0.3891 0.044 Uiso 1 1 calc R . .
C9B C 1.45693(11) -0.2029(2) -0.35462(9) 0.0397(8) Uani 1 1 d . . .
H9B H 1.4503 -0.1498 -0.3671 0.048 Uiso 1 1 calc R . .
C10B C 1.45292(10) -0.2057(2) -0.32327(8) 0.0332(7) Uani 1 1 d . . .
C11B C 1.46175(11) -0.2855(2) -0.30629(8) 0.0391(8) Uani 1 1 d . . .
H11B H 1.4584 -0.2900 -0.2853 0.047 Uiso 1 1 calc R . .
C12B C 1.47528(11) -0.3579(2) -0.31931(8) 0.0361(8) Uani 1 1 d . . .
H12B H 1.4814 -0.4114 -0.3070 0.043 Uiso 1 1 calc R . .
C13B C 1.44032(11) -0.1259(2) -0.30872(8) 0.0358(8) Uani 1 1 d . . .
C14B C 1.41526(11) -0.0616(2) -0.32845(8) 0.0390(8) Uani 1 1 d . . .
H14B H 1.4055 -0.0700 -0.3515 0.047 Uiso 1 1 calc R . .
C15B C 1.40441(11) 0.0133(2) -0.31528(8) 0.0375(8) Uani 1 1 d . . .
H15B H 1.3875 0.0564 -0.3292 0.045 Uiso 1 1 calc R . .
C16B C 1.41799(10) 0.0268(2) -0.28150(8) 0.0330(7) Uani 1 1 d . . .
C17B C 1.44271(10) -0.0363(2) -0.26160(8) 0.0347(7) Uani 1 1 d . . .
H17B H 1.4522 -0.0277 -0.2385 0.042 Uiso 1 1 calc R . .
C18B C 1.45388(10) -0.1119(2) -0.27490(8) 0.0345(7) Uani 1 1 d . . .
H18B H 1.4709 -0.1547 -0.2609 0.041 Uiso 1 1 calc R . .
C19B C 1.40524(10) 0.1078(2) -0.26741(8) 0.0326(7) Uani 1 1 d . . .
O1B O 1.38537(7) 0.16550(15) -0.28752(5) 0.0371(5) Uani 1 1 d . . .
O2B O 1.41604(7) 0.11399(14) -0.23690(5) 0.0348(5) Uani 1 1 d . . .
C20B C 1.57384(10) -0.6142(2) -0.33484(8) 0.0342(8) Uani 1 1 d . . .
C21B C 1.56179(10) -0.6634(2) -0.31204(8) 0.0334(7) Uani 1 1 d . . .
H21B H 1.5359 -0.6533 -0.3094 0.040 Uiso 1 1 calc R . .
C22B C 1.58753(10) -0.7267(2) -0.29340(8) 0.0352(8) Uani 1 1 d . . .
H22B H 1.5789 -0.7606 -0.2782 0.042 Uiso 1 1 calc R . .
C23B C 1.62588(10) -0.7421(2) -0.29629(8) 0.0355(8) Uani 1 1 d . . .
C24B C 1.63811(12) -0.6892(2) -0.31805(11) 0.0515(10) Uani 1 1 d . . .
H24B H 1.6647 -0.6960 -0.3197 0.062 Uiso 1 1 calc R . .
C25B C 1.61211(12) -0.6271(3) -0.33724(11) 0.0507(10) Uani 1 1 d . . .
H25B H 1.6208 -0.5928 -0.3523 0.061 Uiso 1 1 calc R . .
C26B C 1.65192(10) -0.8147(2) -0.27737(9) 0.0359(8) Uani 1 1 d . . .
C27B C 1.69430(11) -0.8067(2) -0.26470(11) 0.0494(10) Uani 1 1 d . . .
H27B H 1.7070 -0.7523 -0.2670 0.059 Uiso 1 1 calc R . .
C28B C 1.71780(11) -0.8775(2) -0.24877(10) 0.0474(10) Uani 1 1 d . . .
H28B H 1.7465 -0.8713 -0.2401 0.057 Uiso 1 1 calc R . .
C29B C 1.69979(10) -0.9570(2) -0.24545(8) 0.0342(8) Uani 1 1 d . . .
C30B C 1.65780(10) -0.9646(2) -0.25729(9) 0.0394(8) Uani 1 1 d . . .
H30B H 1.6451 -1.0186 -0.2546 0.047 Uiso 1 1 calc R . .
C31B C 1.63438(11) -0.8938(2) -0.27293(9) 0.0390(8) Uani 1 1 d . . .
H31B H 1.6056 -0.8998 -0.2808 0.047 Uiso 1 1 calc R . .
C32B C 1.72520(10) -1.0356(2) -0.23099(8) 0.0359(8) Uani 1 1 d . . .
O3B O 1.76171(7) -1.02156(15) -0.21380(6) 0.0402(6) Uani 1 1 d . . .
O4B O 1.70919(7) -1.10997(14) -0.23744(7) 0.0443(6) Uani 1 1 d . . .
C33B C 1.48084(11) -0.5394(2) -0.44662(8) 0.0362(8) Uani 1 1 d . . .
C34B C 1.48283(13) -0.6229(3) -0.45901(9) 0.0486(10) Uani 1 1 d . . .
H34B H 1.4953 -0.6696 -0.4444 0.058 Uiso 1 1 calc R . .
C35B C 1.46702(13) -0.6404(3) -0.49228(9) 0.0495(10) Uani 1 1 d . . .
H35B H 1.4692 -0.6986 -0.5001 0.059 Uiso 1 1 calc R . .
C36B C 1.44826(11) -0.5752(2) -0.51431(8) 0.0411(8) Uani 1 1 d . . .
C37B C 1.44677(12) -0.4903(3) -0.50207(9) 0.0475(9) Uani 1 1 d . . .
H37B H 1.4344 -0.4439 -0.5168 0.057 Uiso 1 1 calc R . .
C38B C 1.46278(12) -0.4720(3) -0.46901(9) 0.0488(10) Uani 1 1 d . . .
H38B H 1.4616 -0.4133 -0.4614 0.059 Uiso 1 1 calc R . .
C39B C 1.43053(11) -0.5930(3) -0.55005(8) 0.0412(9) Uani 1 1 d . . .
C40B C 1.44796(11) -0.6509(3) -0.56650(8) 0.0423(9) Uani 1 1 d . . .
H40B H 1.4717 -0.6828 -0.5546 0.051 Uiso 1 1 calc R . .
C41B C 1.43151(11) -0.6639(2) -0.60020(8) 0.0394(8) Uani 1 1 d . . .
H41B H 1.4445 -0.7027 -0.6112 0.047 Uiso 1 1 calc R . .
C42B C 1.39625(11) -0.6199(2) -0.61748(8) 0.0378(8) Uani 1 1 d . . .
C43B C 1.37847(12) -0.5610(3) -0.60134(9) 0.0483(10) Uani 1 1 d . . .
H43B H 1.3543 -0.5306 -0.6132 0.058 Uiso 1 1 calc R . .
C44B C 1.39557(12) -0.5460(3) -0.56799(9) 0.0500(10) Uani 1 1 d . . .
H44B H 1.3837 -0.5039 -0.5573 0.060 Uiso 1 1 calc R . .
C45B C 1.37646(11) -0.6345(2) -0.65317(8) 0.0366(8) Uani 1 1 d . . .
O5B O 1.39709(7) -0.66852(15) -0.66934(5) 0.0372(5) Uani 1 1 d . . .
O6B O 1.33979(7) -0.60976(17) -0.66411(5) 0.0425(6) Uani 1 1 d . . .

loop_
_atom_site_aniso_label
_atom_site_aniso_U_11
_atom_site_aniso_U_22
_atom_site_aniso_U_33
_atom_site_aniso_U_23
_atom_site_aniso_U_13
_atom_site_aniso_U_12
Zn1 0.0313(2) 0.0269(2) 0.0242(2) 0.00255(15) 0.00200(17) -0.00146(16)
Zn2 0.0335(2) 0.0290(2) 0.0265(2) 0.00103(16) 0.00696(17) 0.00068(17)
Zn3 0.0426(3) 0.0322(2) 0.0273(2) 0.00334(17) 0.01139(19) 0.00595(18)
Zn4 0.0307(2) 0.0242(2) 0.0237(2) 0.00050(15) 0.00586(16) -0.00047(15)
O1 0.0334(11) 0.0277(11) 0.0241(10) -0.0001(8) 0.0041(9) 0.0000(9)
C1A 0.0387(18) 0.0293(16) 0.0348(17) -0.0034(13) 0.0089(14) 0.0011(13)
C2A 0.0395(18) 0.0330(17) 0.0305(17) -0.0023(13) 0.0044(14) 0.0005(14)
C3A 0.0363(17) 0.0251(15) 0.0356(17) -0.0013(13) 0.0085(14) 0.0003(13)
C4A 0.0416(18) 0.0288(16) 0.0357(18) -0.0065(13) 0.0063(15) 0.0012(14)
O5A 0.0657(18) 0.0607(17) 0.0279(13) -0.0043(12) 0.0091(12) 0.0227(14)
O6A 0.0416(14) 0.0461(14) 0.0284(11) -0.0087(10) 0.0066(10) -0.0012(11)
C7A 0.0443(19) 0.0272(16) 0.0361(18) -0.0075(13) 0.0089(1