####################################################################### 
# 
# This file contains crystal structure data downloaded from the 
# Cambridge Structural Database (CSD) hosted by the Cambridge 
# Crystallographic Data Centre (CCDC).
# 
# Full information about CCDC data access policies and citation 
# guidelines are available at http://www.ccdc.cam.ac.uk/access/V1 
# 
# Audit and citation data items may have been added by the CCDC. 
# Please retain this information to preserve the provenance of 
# this file and to allow appropriate attribution of the data. 
# 
#######################################################################

data_xamd469s
_audit_block_doi                 10.5517/cc9mzmh
_database_code_depnum_ccdc_archive 'CCDC 287327'
loop_
_citation_id
_citation_doi
_citation_year
1 10.1021/ic0609002 2006
_audit_update_record             
;
2005-10-24 deposited with the CCDC.	2024-07-10 downloaded from the CCDC.
;

_audit_creation_method           SHELXL-97
_chemical_name_systematic        
;
?
;
_chemical_name_common            none
_chemical_melting_point          'not measured'
_chemical_formula_moiety         'Zn4 2(O H) 2(C45 H27 O6) 2(C5 H5 N) 2(H2 O)'
_chemical_formula_sum            'C100 H70 N2 O16 Zn4'
_chemical_formula_weight         1817.06

loop_
_atom_type_symbol
_atom_type_description
_atom_type_scat_dispersion_real
_atom_type_scat_dispersion_imag
_atom_type_scat_source
C C 0.0033 0.0016 'International Tables Vol C Tables 4.2.6.8 and 6.1.1.4'
H H 0.0000 0.0000 'International Tables Vol C Tables 4.2.6.8 and 6.1.1.4'
N N 0.0061 0.0033 'International Tables Vol C Tables 4.2.6.8 and 6.1.1.4'
O O 0.0106 0.0060 'International Tables Vol C Tables 4.2.6.8 and 6.1.1.4'
Zn Zn 0.2839 1.4301 'International Tables Vol C Tables 4.2.6.8 and 6.1.1.4'

_symmetry_cell_setting           Orthorhombic
_symmetry_space_group_name_H-M   Pna2(1)

loop_
_symmetry_equiv_pos_as_xyz
'x, y, z'
'-x, -y, z+1/2'
'x+1/2, -y+1/2, z'
'-x+1/2, y+1/2, z+1/2'

_cell_length_a                   41.041(2)
_cell_length_b                   10.1287(5)
_cell_length_c                   40.3822(18)
_cell_angle_alpha                90.00
_cell_angle_beta                 90.00
_cell_angle_gamma                90.00
_cell_volume                     16786.5(14)
_cell_formula_units_Z            4
_cell_measurement_temperature    213(2)
_cell_measurement_reflns_used    6623
_cell_measurement_theta_min      2.24
_cell_measurement_theta_max      21.69

_exptl_crystal_description       rod
_exptl_crystal_colour            colorless
_exptl_crystal_size_max          0.42
_exptl_crystal_size_mid          0.18
_exptl_crystal_size_min          0.12
_exptl_crystal_density_meas      none
_exptl_crystal_density_diffrn    0.719
_exptl_crystal_density_method    'not measured'
_exptl_crystal_F_000             3728
_exptl_absorpt_coefficient_mu    0.600
_exptl_absorpt_correction_type   empirical
_exptl_absorpt_correction_T_min  0.777
_exptl_absorpt_correction_T_max  0.931
_exptl_absorpt_process_details   sadas

_exptl_special_details           
;
?
;

_diffrn_ambient_temperature      213(2)
_diffrn_radiation_wavelength     0.71073
_diffrn_radiation_type           MoK\a
_diffrn_radiation_source         'fine-focus sealed tube'
_diffrn_radiation_monochromator  graphite
_diffrn_measurement_device_type  'CCD area detector'
_diffrn_measurement_method       'phi and omega scans'
_diffrn_detector_area_resol_mean ?
_diffrn_standards_number         ?
_diffrn_standards_interval_count ?
_diffrn_standards_interval_time  ?
_diffrn_standards_decay_%        none
_diffrn_reflns_number            121223
_diffrn_reflns_av_R_equivalents  0.0896
_diffrn_reflns_av_sigmaI/netI    0.1243
_diffrn_reflns_limit_h_min       -44
_diffrn_reflns_limit_h_max       54
_diffrn_reflns_limit_k_min       -13
_diffrn_reflns_limit_k_max       13
_diffrn_reflns_limit_l_min       -53
_diffrn_reflns_limit_l_max       40
_diffrn_reflns_theta_min         0.99
_diffrn_reflns_theta_max         28.32
_reflns_number_total             38604
_reflns_number_gt                22134
_reflns_threshold_expression     >2sigma(I)

_computing_data_collection       'Bruker SMART'
_computing_cell_refinement       'Bruker SMART'
_computing_data_reduction        'Bruker SAINT'
_computing_structure_solution    'SHELXS-97 (Sheldrick, 1990)'
_computing_structure_refinement  'SHELXL-97 (Sheldrick, 1997)'
_computing_molecular_graphics    'Bruker SHELXTL'
_computing_publication_material  'Bruker SHELXTL'

_refine_special_details          
;
Refinement of F^2^ against ALL reflections. The weighted R-factor wR and
goodness of fit S are based on F^2^, conventional R-factors R are based
on F, with F set to zero for negative F^2^. The threshold expression of
F^2^ > 2sigma(F^2^) is used only for calculating R-factors(gt) etc. and is
not relevant to the choice of reflections for refinement. R-factors based
on F^2^ are statistically about twice as large as those based on F, and R-
factors based on ALL data will be even larger.
;

_refine_ls_structure_factor_coef Fsqd
_refine_ls_matrix_type           full
_refine_ls_weighting_scheme      calc
_refine_ls_weighting_details     
'calc w=1/[\s^2^(Fo^2^)+(0.0816P)^2^+0.0000P] where P=(Fo^2^+2Fc^2^)/3'
_atom_sites_solution_primary     direct
_atom_sites_solution_secondary   difmap
_atom_sites_solution_hydrogens   geom
_refine_ls_hydrogen_treatment    mixed
_refine_ls_extinction_method     none
_refine_ls_extinction_coef       ?
_refine_ls_abs_structure_details 'Flack H D (1983), Acta Cryst. A39, 876-881'
_refine_ls_abs_structure_Flack   0.000(13)
_refine_ls_number_reflns         38604
_refine_ls_number_parameters     1100
_refine_ls_number_restraints     1
_refine_ls_R_factor_all          0.1200
_refine_ls_R_factor_gt           0.0711
_refine_ls_wR_factor_ref         0.1611
_refine_ls_wR_factor_gt          0.1460
_refine_ls_goodness_of_fit_ref   0.905
_refine_ls_restrained_S_all      0.905
_refine_ls_shift/su_max          0.001
_refine_ls_shift/su_mean         0.000

loop_
_atom_site_label
_atom_site_type_symbol
_atom_site_fract_x
_atom_site_fract_y
_atom_site_fract_z
_atom_site_U_iso_or_equiv
_atom_site_adp_type
_atom_site_occupancy
_atom_site_symmetry_multiplicity
_atom_site_calc_flag
_atom_site_refinement_flags
_atom_site_disorder_assembly
_atom_site_disorder_group
C1 C 0.14811(10) 0.7973(4) 0.56327(12) 0.0349(10) Uani 1 1 d . . .
C2 C 0.17431(10) 0.8632(4) 0.57836(11) 0.0340(10) Uani 1 1 d . . .
H2 H 0.1791 0.8452 0.6007 0.041 Uiso 1 1 calc R . .
C3 C 0.19356(11) 0.9553(4) 0.56117(11) 0.0339(10) Uani 1 1 d . . .
C4 C 0.18454(10) 0.9845(4) 0.52909(10) 0.0329(10) Uani 1 1 d . . .
H4 H 0.1963 1.0491 0.5174 0.039 Uiso 1 1 calc R . .
C5 C 0.15908(11) 0.9229(4) 0.51362(10) 0.0342(10) Uani 1 1 d . . .
C6 C 0.14095(10) 0.8300(4) 0.53095(10) 0.0316(10) Uani 1 1 d . . .
H6 H 0.1233 0.7883 0.5204 0.038 Uiso 1 1 calc R . .
C7 C 0.14854(12) 0.9622(4) 0.47893(10) 0.0332(10) Uani 1 1 d . . .
C8 C 0.11665(13) 0.9557(5) 0.46845(12) 0.0443(12) Uani 1 1 d . . .
H8 H 0.1006 0.9265 0.4834 0.053 Uiso 1 1 calc R . .
C9 C 0.10730(12) 0.9905(5) 0.43685(11) 0.0420(11) Uani 1 1 d . . .
H9 H 0.0853 0.9828 0.4307 0.050 Uiso 1 1 calc R . .
C10 C 0.12929(13) 1.0358(4) 0.41432(11) 0.0421(12) Uani 1 1 d . . .
C11 C 0.16245(13) 1.0397(5) 0.42429(13) 0.0539(14) Uani 1 1 d . . .
H11 H 0.1786 1.0669 0.4093 0.065 Uiso 1 1 calc R . .
C12 C 0.17088(12) 1.0034(5) 0.45617(12) 0.0464(12) Uani 1 1 d . . .
H12 H 0.1929 1.0072 0.4624 0.056 Uiso 1 1 calc R . .
C13 C 0.11910(12) 1.0731(4) 0.37923(11) 0.0386(11) Uani 1 1 d . . .
C14 C 0.08727(11) 1.1062(4) 0.37190(11) 0.0349(10) Uani 1 1 d . . .
H14 H 0.0716 1.1042 0.3889 0.042 Uiso 1 1 calc R . .
C15 C 0.07780(12) 1.1422(4) 0.34038(11) 0.0363(10) Uani 1 1 d . . .
H15 H 0.0559 1.1631 0.3360 0.044 Uiso 1 1 calc R . .
C16 C 0.10110(12) 1.1475(4) 0.31478(11) 0.0364(11) Uani 1 1 d . . .
C17 C 0.13257(12) 1.1154(5) 0.32273(13) 0.0489(13) Uani 1 1 d . . .
H17 H 0.1485 1.1194 0.3061 0.059 Uiso 1 1 calc R . .
C18 C 0.14180(13) 1.0776(5) 0.35417(13) 0.0541(14) Uani 1 1 d . . .
H18 H 0.1636 1.0548 0.3585 0.065 Uiso 1 1 calc R . .
C19 C 0.22033(10) 1.0230(4) 0.57879(11) 0.0333(10) Uani 1 1 d . . .
C20 C 0.24792(12) 1.0573(4) 0.56230(11) 0.0404(11) Uani 1 1 d . . .
H20 H 0.2495 1.0396 0.5395 0.048 Uiso 1 1 calc R . .
C21 C 0.27480(11) 1.1198(4) 0.57884(11) 0.0347(10) Uani 1 1 d . . .
H21 H 0.2944 1.1372 0.5676 0.042 Uiso 1 1 calc R . .
C22 C 0.27101(10) 1.1537(4) 0.61177(11) 0.0323(10) Uani 1 1 d . . .
C23 C 0.24209(12) 1.1203(5) 0.62868(11) 0.0417(11) Uani 1 1 d . . .
H23 H 0.2395 1.1417 0.6512 0.050 Uiso 1 1 calc R . .
C24 C 0.21750(12) 1.0556(5) 0.61171(13) 0.0459(12) Uani 1 1 d . . .
H24 H 0.1983 1.0333 0.6231 0.055 Uiso 1 1 calc R . .
C25 C 0.29781(12) 1.2258(4) 0.62960(11) 0.0363(10) Uani 1 1 d . . .
C26 C 0.29133(11) 1.3174(4) 0.65483(12) 0.0399(11) Uani 1 1 d . . .
H26 H 0.2696 1.3348 0.6608 0.048 Uiso 1 1 calc R . .
C27 C 0.31621(12) 1.3825(5) 0.67115(10) 0.0429(12) Uani 1 1 d . . .
H27 H 0.3113 1.4447 0.6877 0.052 Uiso 1 1 calc R . .
C29 C 0.35544(12) 1.2678(4) 0.63817(12) 0.0434(12) Uani 1 1 d . . .
H29 H 0.3773 1.2521 0.6326 0.052 Uiso 1 1 calc R . .
C30 C 0.33100(13) 1.2030(4) 0.62148(12) 0.0455(12) Uani 1 1 d . . .
H30 H 0.3363 1.1430 0.6046 0.055 Uiso 1 1 calc R . .
C36 C 0.11289(12) 0.5957(4) 0.56635(12) 0.0411(11) Uani 1 1 d . . .
H36 H 0.1160 0.5850 0.5434 0.049 Uiso 1 1 calc R . .
C31 C 0.12790(11) 0.6987(4) 0.58230(12) 0.0396(11) Uani 1 1 d . . .
C32 C 0.12400(13) 0.7107(4) 0.61676(12) 0.0461(13) Uani 1 1 d . . .
H32 H 0.1348 0.7781 0.6283 0.055 Uiso 1 1 calc R . .
C43 C 0.09073(15) 1.1835(4) 0.28055(12) 0.0420(12) Uani 1 1 d . . .
C51 C -0.13823(11) 0.7014(4) 0.02896(11) 0.0378(11) Uani 1 1 d . . .
C52 C -0.12899(12) 0.6578(4) -0.00231(12) 0.0402(11) Uani 1 1 d . . .
H52 H -0.1105 0.6956 -0.0123 0.048 Uiso 1 1 calc R . .
C53 C -0.14632(13) 0.5585(4) -0.01978(12) 0.0425(12) Uani 1 1 d . . .
C54 C -0.17420(12) 0.5074(5) -0.00519(12) 0.0411(11) Uani 1 1 d . . .
H54 H -0.1860 0.4416 -0.0164 0.049 Uiso 1 1 calc R . .
C55 C -0.18517(12) 0.5511(4) 0.02576(13) 0.0454(13) Uani 1 1 d . . .
C56 C -0.16758(12) 0.6483(4) 0.04177(12) 0.0429(12) Uani 1 1 d . . .
H56 H -0.1754 0.6807 0.0621 0.051 Uiso 1 1 calc R . .
C57 C -0.11872(12) 0.7978(4) 0.04813(11) 0.0373(11) Uani 1 1 d . . .
C58 C -0.09097(12) 0.8561(5) 0.03509(11) 0.0477(13) Uani 1 1 d . . .
H58 H -0.0848 0.8357 0.0133 0.057 Uiso 1 1 calc R . .
C59 C -0.07253(13) 0.9414(5) 0.05281(13) 0.0564(14) Uani 1 1 d . . .
H59 H -0.0541 0.9794 0.0428 0.068 Uiso 1 1 calc R . .
C60 C -0.07981(11) 0.9734(5) 0.08428(12) 0.0402(11) Uani 1 1 d . . .
C61 C -0.10715(14) 0.9170(6) 0.09723(14) 0.0594(15) Uani 1 1 d . . .
H61 H -0.1131 0.9386 0.1190 0.071 Uiso 1 1 calc R . .
C62 C -0.12660(13) 0.8295(5) 0.07988(13) 0.0527(13) Uani 1 1 d . . .
H62 H -0.1451 0.7923 0.0899 0.063 Uiso 1 1 calc R . .
C63 C -0.05890(12) 1.0674(5) 0.10427(12) 0.0469(12) Uani 1 1 d . . .
C64 C -0.04217(12) 1.1711(5) 0.08937(11) 0.0449(12) Uani 1 1 d . . .
H64 H -0.0449 1.1857 0.0665 0.054 Uiso 1 1 calc R . .
C65 C -0.02176(13) 1.2531(5) 0.10711(12) 0.0453(12) Uani 1 1 d . . .
H65 H -0.0108 1.3220 0.0962 0.054 Uiso 1 1 calc R . .
C66 C -0.01733(12) 1.2356(5) 0.14008(13) 0.0439(12) Uani 1 1 d . . .
C67 C -0.03450(13) 1.1344(4) 0.15674(11) 0.0475(13) Uani 1 1 d . . .
H67 H -0.0319 1.1237 0.1797 0.057 Uiso 1 1 calc R . .
C68 C -0.05556(12) 1.0494(5) 0.13907(13) 0.0477(12) Uani 1 1 d . . .
H68 H -0.0671 0.9823 0.1501 0.057 Uiso 1 1 calc R . .
C69 C -0.21488(12) 0.4969(4) 0.04024(12) 0.0448(12) Uani 1 1 d . . .
C70 C -0.23602(14) 0.5799(5) 0.05891(15) 0.0644(18) Uani 1 1 d . . .
H70 H -0.2303 0.6686 0.0626 0.077 Uiso 1 1 calc R . .
C71 C -0.26487(17) 0.5308(5) 0.07168(17) 0.079(2) Uani 1 1 d . . .
H71 H -0.2791 0.5890 0.0827 0.095 Uiso 1 1 calc R . .
C72 C -0.27386(13) 0.3956(4) 0.06877(14) 0.0501(13) Uani 1 1 d . . .
C73 C -0.25216(12) 0.3188(4) 0.05067(13) 0.0480(14) Uani 1 1 d . . .
H73 H -0.2569 0.2286 0.0480 0.058 Uiso 1 1 calc R . .
C74 C -0.22451(13) 0.3667(4) 0.03656(13) 0.0485(13) Uani 1 1 d . . .
H74 H -0.2115 0.3095 0.0239 0.058 Uiso 1 1 calc R . .
C75 C -0.13494(12) 0.5168(4) -0.05239(12) 0.0425(12) Uani 1 1 d . . .
C76 C -0.12314(18) 0.6005(5) -0.07501(16) 0.081(2) Uani 1 1 d . . .
H76 H -0.1220 0.6906 -0.0695 0.097 Uiso 1 1 calc R . .
C77 C -0.1124(2) 0.5612(5) -0.10641(14) 0.090(3) Uani 1 1 d . . .
H77 H -0.1030 0.6235 -0.1207 0.108 Uiso 1 1 calc R . .
C78 C -0.11562(14) 0.4301(5) -0.11668(13) 0.0523(14) Uani 1 1 d . . .
C79 C -0.12833(16) 0.3440(5) -0.09335(13) 0.0626(16) Uani 1 1 d . . .
H79 H -0.1306 0.2546 -0.0992 0.075 Uiso 1 1 calc R . .
C80 C -0.13772(15) 0.3814(5) -0.06265(14) 0.0585(15) Uani 1 1 d . . .
H80 H -0.1461 0.3183 -0.0479 0.070 Uiso 1 1 calc R . .
C81 C -0.10451(16) 0.3898(5) -0.15024(13) 0.0586(16) Uani 1 1 d . . .
C82 C -0.10071(19) 0.4753(5) -0.17504(15) 0.080(2) Uani 1 1 d . . .
H82 H -0.1049 0.5650 -0.1709 0.096 Uiso 1 1 calc R . .
C83 C -0.0910(2) 0.4397(5) -0.20638(14) 0.078(2) Uani 1 1 d . . .
H83 H -0.0884 0.5039 -0.2230 0.094 Uiso 1 1 calc R . .
C84 C -0.08515(14) 0.3079(5) -0.21309(12) 0.0457(13) Uani 1 1 d . . .
C85 C -0.0879(2) 0.2204(5) -0.18830(15) 0.096(3) Uani 1 1 d . . .
H85 H -0.0838 0.1305 -0.1923 0.115 Uiso 1 1 calc R . .
C86 C -0.0965(2) 0.2612(5) -0.15699(16) 0.102(3) Uani 1 1 d . . .
H86 H -0.0970 0.1990 -0.1397 0.123 Uiso 1 1 calc R . .
C87 C -0.30307(13) 0.3470(5) 0.08476(13) 0.0497(13) Uani 1 1 d . . .
C88 C -0.30524(16) 0.2146(5) 0.09500(16) 0.0697(19) Uani 1 1 d . . .
H88 H -0.2874 0.1581 0.0915 0.084 Uiso 1 1 calc R . .
C89 C -0.33261(16) 0.1663(5) 0.10987(16) 0.0721(19) Uani 1 1 d . . .
H89 H -0.3339 0.0759 0.1149 0.087 Uiso 1 1 calc R . .
C91 C -0.35531(13) 0.3822(5) 0.10883(12) 0.0468(13) Uani 1 1 d . . .
H91 H -0.3721 0.4415 0.1141 0.056 Uiso 1 1 calc R . .
C92 C -0.32905(15) 0.4277(5) 0.09315(15) 0.0648(17) Uani 1 1 d . . .
H92 H -0.3281 0.5178 0.0876 0.078 Uiso 1 1 calc R . .
C94 C 0.00687(12) 1.3112(5) 0.16066(12) 0.0384(11) Uani 1 1 d . . .
C111 C 0.00609(18) 1.3971(6) 0.29228(14) 0.075(2) Uani 1 1 d . . .
H111 H 0.0100 1.3139 0.3018 0.090 Uiso 1 1 calc R . .
C112 C -0.0064(3) 1.4974(8) 0.31149(17) 0.118(4) Uani 1 1 d . . .
H112 H -0.0084 1.4877 0.3346 0.141 Uiso 1 1 calc R . .
C113 C -0.0163(3) 1.6163(7) 0.2955(2) 0.120(4) Uani 1 1 d . . .
H113 H -0.0283 1.6802 0.3072 0.145 Uiso 1 1 calc R . .
C114 C -0.00874(18) 1.6363(6) 0.26444(17) 0.076(2) Uani 1 1 d . . .
H114 H -0.0129 1.7184 0.2544 0.091 Uiso 1 1 calc R . .
C115 C 0.00560(15) 1.5343(5) 0.24642(14) 0.0599(15) Uani 1 1 d . . .
H115 H 0.0104 1.5483 0.2239 0.072 Uiso 1 1 calc R . .
N1 N 0.01284(10) 1.4166(4) 0.25994(10) 0.0453(10) Uani 1 1 d . . .
O1 O 0.06169(9) 1.2143(3) 0.27499(8) 0.0462(8) Uani 1 1 d . . .
O2 O 0.11261(8) 1.1803(3) 0.25875(8) 0.0461(8) Uani 1 1 d . . .
O13 O 0.06008(7) 1.1194(2) 0.20455(8) 0.0337(7) Uani 1 1 d . . .
Zn1 Zn 0.059299(12) 0.92770(5) 0.206685(13) 0.03519(12) Uani 1 1 d . . .
Zn2 Zn 0.106456(12) 1.20381(5) 0.209936(14) 0.03575(12) Uani 1 1 d . . .
Zn3 Zn 0.035478(13) 1.26393(5) 0.233004(14) 0.03617(12) Uani 1 1 d . . .
Zn4 Zn 0.066896(13) 1.43552(5) 0.165330(13) 0.03752(13) Uani 1 1 d . . .
O9 O -0.07798(11) 0.3417(3) -0.27093(9) 0.0688(12) Uani 1 1 d . . .
O8 O 0.00556(8) 1.3081(3) 0.19031(9) 0.0499(9) Uani 1 1 d . . .
C90 C -0.35880(13) 0.2497(5) 0.11768(12) 0.0465(12) Uani 1 1 d . . .
C28 C 0.34781(10) 1.3565(4) 0.66327(12) 0.0335(10) Uani 1 1 d . . .
C34 C 0.08833(12) 0.5192(4) 0.61733(12) 0.0417(12) Uani 1 1 d . . .
O7 O 0.02757(8) 1.3709(4) 0.14396(8) 0.0526(9) Uani 1 1 d . . .
C35 C 0.09346(11) 0.5080(4) 0.58310(12) 0.0408(11) Uani 1 1 d . . .
H35 H 0.0834 0.4389 0.5714 0.049 Uiso 1 1 calc R . .
C37 C 0.06781(14) 0.4208(5) 0.63588(12) 0.0487(13) Uani 1 1 d . . .
C44 C 0.37497(12) 1.4281(5) 0.68133(11) 0.0404(11) Uani 1 1 d . . .
C33 C 0.10425(13) 0.6232(5) 0.63357(12) 0.0500(13) Uani 1 1 d . . .
H33 H 0.1014 0.6336 0.6565 0.060 Uiso 1 1 calc R . .
C96 C -0.38746(12) 0.1999(5) 0.13636(12) 0.0430(12) Uani 1 1 d . . .
C95 C -0.07546(13) 0.2653(5) -0.24661(13) 0.0465(13) Uani 1 1 d . . .
O14 O 0.07429(6) 1.3802(3) 0.21108(7) 0.0315(6) Uani 1 1 d . . .
O4 O 0.36773(7) 1.5258(3) 0.69879(7) 0.0400(8) Uani 1 1 d . . .
N2 N 0.14956(10) 1.3188(4) 0.20418(11) 0.0460(10) Uani 1 1 d . . .
O11 O -0.39441(9) 0.0797(4) 0.13546(9) 0.0623(11) Uani 1 1 d . . .
O3 O 0.40409(8) 1.3826(3) 0.67684(8) 0.0454(8) Uani 1 1 d . . .
O12 O -0.40399(9) 0.2841(3) 0.15285(8) 0.0500(9) Uani 1 1 d . . .
O10 O -0.06695(8) 0.1424(3) -0.24993(8) 0.0428(8) Uani 1 1 d . . .
C40 C 0.02655(10) 0.2503(5) 0.67089(12) 0.0406(11) Uani 1 1 d . . .
C42 C 0.03711(14) 0.3798(5) 0.62253(13) 0.0528(14) Uani 1 1 d . . .
H42 H 0.0303 0.4104 0.6017 0.063 Uiso 1 1 calc R . .
C41 C 0.01854(13) 0.2995(5) 0.63955(13) 0.0501(13) Uani 1 1 d . . .
H41 H -0.0014 0.2734 0.6301 0.060 Uiso 1 1 calc R . .
C38 C 0.07655(14) 0.3767(5) 0.66593(15) 0.0618(15) Uani 1 1 d . . .
H38 H 0.0966 0.4027 0.6752 0.074 Uiso 1 1 calc R . .
C39 C 0.05600(13) 0.2925(5) 0.68350(14) 0.0559(15) Uani 1 1 d . . .
H39 H 0.0624 0.2634 0.7046 0.067 Uiso 1 1 calc R . .
C125 C 0.15044(15) 1.4518(5) 0.20589(19) 0.0726(18) Uani 1 1 d . . .
H125 H 0.1306 1.4971 0.2083 0.087 Uiso 1 1 calc R . .
C121 C 0.17533(19) 1.2618(8) 0.2018(4) 0.171(6) Uani 1 1 d . . .
H121 H 0.1752 1.1690 0.2024 0.206 Uiso 1 1 calc R . .
O5 O 0.01572(9) 0.1006(3) 0.71513(9) 0.0492(9) Uani 1 1 d . . .
C45 C 0.00528(13) 0.1589(5) 0.69005(1