
#######################################################################
#
#                 Cambridge Crystallographic Data Centre
#                                CCDC
#
#######################################################################
#
# If this CIF has been generated from an entry in the Cambridge
# Structural Database, then it will include bibliographic, chemical,
# crystal, experimental, refinement or atomic coordinate data resulting
# from the CCDC's data processing and validation procedures.
#
#######################################################################

data_CSD_CIF_JETLID
_audit_creation_date 1991-06-18
_audit_creation_method CSD-ConQuest-V1
_database_code_CSD JETLID
_database_code_depnum_ccdc_archive 'CCDC 1185130'
_chemical_formula_sum 'C10 H15 N2 Na1 O8 Pt1'
_chemical_formula_moiety
;
C10 H11 N2 O6 Pt1 1-,Na1 1+,2(H2 O1)
;
_journal_coeditor_code "IUCr DU0173"
_journal_coden_Cambridge 591
_journal_volume 46
_journal_year 1990
_journal_page_first 2062
_journal_name_full 'Acta Crystallogr.,Sect.C:Cryst.Struct.Commun. '
loop_
_publ_author_name
"B.Viossat"
"P.Khodadad"
"N.Rodier"
_chemical_name_systematic
;
Sodium bis(5-oxoproline)-platinum(ii) dihydrate
;
_chemical_name_common
;
Teaching Subset: Fundamental Chemistry
;
_cell_volume    724.208
_exptl_crystal_density_diffrn 2.34
_diffrn_ambient_temperature ?
_diffrn_special_details
;
The study was carried out at room temperature,in the range 283-303K

;
_refine_special_details
;
Sodium ion, two water molecules and two oxygen atoms of the anion are all 
disordered over two sites with equal occupancies.
;
#These two values have been output from a single CSD field.
_refine_ls_R_factor_gt 0.036
_refine_ls_wR_factor_gt 0.036
_symmetry_cell_setting monoclinic
_symmetry_space_group_name_H-M 'P 21'
_symmetry_Int_Tables_number 4
loop_
_symmetry_equiv_pos_site_id
_symmetry_equiv_pos_as_xyz
1 x,y,z
2 -x,1/2+y,-z
_cell_length_a 4.1665(7)
_cell_length_b 10.770(2)
_cell_length_c 16.139(2)
_cell_angle_alpha 90
_cell_angle_beta 90.08(1)
_cell_angle_gamma 90
_cell_formula_units_Z 2
loop_
_atom_type_symbol
_atom_type_radius_bond
C 0.68
H 0.23
N 0.68
Na 0.77
O 0.68
Pt 1.50
loop_
_atom_site_label
_atom_site_type_symbol
_atom_site_fract_x
_atom_site_fract_y
_atom_site_fract_z
Pt1 Pt 0.1017(1) 0.25000 0.26727(2)
N1 N 0.194(4) 0.343(1) 0.1667(8)
C1 C 0.243(4) 0.332(2) 0.0881(9)
C2 C 0.323(5) 0.449(2) 0.044(1)
C3 C 0.311(7) 0.543(2) 0.112(1)
C4 C 0.400(6) 0.458(2) 0.188(2)
O1 O 0.093(5) 0.239(3) 0.047(1)
C5 C 0.253(5) 0.504(2) 0.271(1)
O2 O 0.204(2) 0.416(1) 0.3218(6)
O3 O 0.305(3) 0.614(1) 0.2915(8)
N2 N -0.024(3) 0.078(1) 0.2302(8)
C6 C 0.067(3) 0.010(1) 0.1744(8)
C7 C -0.057(4) -0.125(2) 0.190(1)
C8 C -0.152(5) -0.123(2) 0.284(1)
C9 C -0.212(3) 0.016(1) 0.2955(8)
O4 O 0.219(3) 0.030(1) 0.1088(7)
C10 C -0.130(4) 0.068(2) 0.379(1)
O5 O 0.008(3) 0.177(1) 0.3789(6)
O6 O -0.129(6) -0.002(2) 0.440(1)
H1 H 0.16800 0.46700 0.00200
H2 H 0.53000 0.44500 0.01900
H3 H 0.10300 0.57800 0.11900
H4 H 0.46400 0.60800 0.10500
H5 H 0.62700 0.45100 0.19400
H6 H 0.10700 -0.18400 0.18000
H7 H -0.23700 -0.14200 0.15600
H8 H 0.01700 -0.15200 0.31900
H9 H -0.34000 -0.17100 0.29500
H10 H -0.43700 0.02900 0.29100
Na1 Na -0.133(3) -0.170(1) 0.5252(7)
O7 O 0.307(5) -0.155(2) 0.506(1)
O8 O 0.154(4) 0.149(2) 0.564(1)
Na2? Na -0.270(3) 0.144(1) 0.5714(9)
O9? O 0.317(7) 0.231(3) 0.053(1)
O10? O -0.282(6) 0.035(2) 0.444(1)
O11? O 0.436(5) -0.167(2) 0.526(1)
O12? O 0.288(5) 0.119(2) 0.557(2)
#END
