
#######################################################################
#
#                 Cambridge Crystallographic Data Centre
#                                CCDC
#
#######################################################################
#
# If this CIF has been generated from an entry in the Cambridge
# Structural Database, then it will include bibliographic, chemical,
# crystal, experimental, refinement or atomic coordinate data resulting
# from the CCDC's data processing and validation procedures.
#
#######################################################################

data_CSD_CIF_JIKJUI
_audit_creation_date 1991-09-27
_audit_creation_method CSD-ConQuest-V1
_database_code_CSD JIKJUI
_database_code_depnum_ccdc_archive 'CCDC 1186401'
_chemical_formula_sum 'C8 H26 Cl2 N4 Ni1 O11'
_chemical_formula_moiety
;
C8 H24 N4 Ni1 O2 2+,2(Cl1 O4 1-),H2 O1
;
_journal_coden_Cambridge 211
_journal_volume 21
_journal_year 1990
_journal_page_first 307
_journal_name_full 'J.Coord.Chem. '
loop_
_publ_author_name
"B.Scott"
"K.J.Brewer"
"L.O.Spreer"
"C.A.Craig"
"J.W.Otvos"
"M.Calvin"
"S.Taylor"
_chemical_name_systematic
;
Diaqua-(1,4,7,10-tetra-azacyclodecane)-nickel(ii) diperchlorate monohydrate
;
_chemical_name_common
;
Teaching Subset: Fundamental Chemistry
;
_cell_volume   1869.162
_exptl_crystal_colour 'light-purple'
_exptl_special_details
;
Authors give dx=1.51. We calculate 1.72

;
_diffrn_ambient_temperature ?
_diffrn_special_details
;
The study was carried out at room temperature,in the range 283-303K

;
#These two values have been output from a single CSD field.
_refine_ls_R_factor_gt 0.053
_refine_ls_wR_factor_gt 0.053
_symmetry_cell_setting orthorhombic
_symmetry_space_group_name_H-M 'P 21 21 21'
_symmetry_Int_Tables_number 19
loop_
_symmetry_equiv_pos_site_id
_symmetry_equiv_pos_as_xyz
1 x,y,z
2 1/2+x,1/2-y,-z
3 -x,1/2+y,1/2-z
4 1/2-x,-y,1/2+z
_cell_length_a 11.173(5)
_cell_length_b 11.976(5)
_cell_length_c 13.969(4)
_cell_angle_alpha 90
_cell_angle_beta 90
_cell_angle_gamma 90
_cell_formula_units_Z 4
loop_
_atom_type_symbol
_atom_type_radius_bond
C 0.68
H 0.23
Cl 0.99
N 0.68
Ni 1.50
O 0.68
loop_
_atom_site_label
_atom_site_type_symbol
_atom_site_fract_x
_atom_site_fract_y
_atom_site_fract_z
Ni1 Ni 0.7806(1) 0.2092(1) 0.2018(1)
N1 N 0.7006(5) 0.1138(5) 0.0928(4)
N2 N 0.6122(5) 0.2120(6) 0.2600(4)
N3 N 0.8129(6) 0.3461(5) 0.2929(5)
N4 N 0.7605(6) 0.3363(5) 0.1026(4)
O1 O 0.8173(6) 0.0774(5) 0.2956(4)
O2 O 0.9604(5) 0.1880(5) 0.1547(4)
C1 C 0.6934(8) 0.1843(7) 0.0040(5)
C2 C 0.7768(8) 0.2838(7) 0.0079(6)
C3 C 0.8463(9) 0.4214(7) 0.1302(7)
C4 C 0.8249(10) 0.4480(7) 0.2340(6)
C5 C 0.7122(8) 0.3492(7) 0.3595(6)
C6 C 0.5967(7) 0.3195(7) 0.3072(6)
C7 C 0.5285(7) 0.1817(8) 0.1847(7)
C8 C 0.5811(8) 0.0858(8) 0.1309(7)
O3 O 1.0825(7) -0.3656(7) 0.0372(5)
H1 H 1.13630 -0.39260 -0.01120
H2 H 1.00880 -0.40660 0.03410
O4 O 0.6025(9) 0.1277(10) 0.7092(9)
O5 O 0.7764(10) 0.1667(13) 0.6394(11)
O6 O 0.7283(11) 0.2670(11) 0.7674(6)
O7 O 0.6282(16) 0.2808(9) 0.6350(11)
Cl1 Cl 0.6887(2) 0.2109(2) 0.6871(1)
O8 O 0.4550(11) 0.0111(9) 0.3738(5)
O9 O 0.4767(17) 0.1415(8) 0.4808(10)
O10 O 0.4383(11) -0.0270(13) 0.5283(8)
O11 O 0.6157(9) 0.0274(16) 0.4712(8)
Cl2 Cl 0.4976(2) 0.0327(2) 0.4634(1)
#END
