####################################################################### 
# 
# This file contains crystal structure data downloaded from the 
# Cambridge Structural Database (CSD) hosted by the Cambridge 
# Crystallographic Data Centre (CCDC).
# 
# Full information about CCDC data access policies and citation 
# guidelines are available at http://www.ccdc.cam.ac.uk/access/V1 
# 
# Audit and citation data items may have been added by the CCDC. 
# Please retain this information to preserve the provenance of 
# this file and to allow appropriate attribution of the data. 
# 
#######################################################################

data_JISDOE
#This CIF has been generated from an entry in the Cambridge Structural Database
_database_code_depnum_ccdc_archive 'CCDC 1187079'
_database_code_CSD               JISDOE
loop_
_citation_id
_citation_doi
_citation_year
1 10.1039/c39910000917 1991
_audit_creation_method           'Created from the CSD'
_audit_update_record             
;
2024-07-10 downloaded from the CCDC.
;
_database_code_NBS               606172
_chemical_formula_moiety         
'(C23 H24 Cu1 N4 O1 1+)n,n(B1 F4 1-),n(C1 H1 Cl3)'
_chemical_name_systematic        
"catena-(\m~2~-2,6-bis(N-(2-(2-Pyridyl)ethyl)formimidoyl)-1-methoxybenzene-N,N',N'',N''')-copper(i) tetrafluoroborate chloroform solvate"
_chemical_absolute_configuration unk
_diffrn_ambient_temperature      130
_exptl_crystal_density_diffrn    1.547
#These two values have been output from a single CSD field.
_refine_ls_R_factor_gt           0.059
_refine_ls_wR_factor_gt          0.059
_diffrn_radiation_probe          x-ray
_symmetry_cell_setting           monoclinic
_symmetry_space_group_name_H-M   'P 21/n'
_symmetry_Int_Tables_number      14
_space_group_name_Hall           '-P 2yn'
loop_
_symmetry_equiv_pos_site_id
_symmetry_equiv_pos_as_xyz
1 x,y,z
2 1/2-x,1/2+y,1/2-z
3 -x,-y,-z
4 1/2+x,1/2-y,1/2+z
_cell_length_a                   13.826(3)
_cell_length_b                   9.938(2)
_cell_length_c                   20.555(6)
_cell_angle_alpha                90
_cell_angle_beta                 102.58(2)
_cell_angle_gamma                90
_cell_volume                     2756.51
_exptl_crystal_colour            'bright orange'
_cell_formula_units_Z            4
loop_
_atom_site_label
_atom_site_type_symbol
_atom_site_fract_x
_atom_site_fract_y
_atom_site_fract_z
Cu1 Cu 0.31002(5) 0.01621(7) 0.10999(3)
N1 N 0.3379(4) -0.0947(5) 0.0292(2)
N2 N 0.1653(3) -0.0363(5) 0.0988(2)
N3 N 0.0711(3) 0.4902(5) 0.3120(2)
N4 N 0.1734(4) 0.7198(5) 0.4068(2)
O1 O 0.0014(3) 0.2448(4) 0.1512(2)
C1 C 0.4308(4) -0.1362(6) 0.0293(3)
C2 C 0.4534(5) -0.2236(7) -0.0178(3)
C3 C 0.3762(5) -0.2727(7) -0.0669(3)
C4 C 0.2810(5) -0.2312(7) -0.0669(3)
C5 C 0.2637(4) -0.1399(6) -0.0199(3)
C6 C 0.1611(4) -0.0891(6) -0.0201(3)
C7 C 0.1237(4) -0.1256(6) 0.0417(3)
C8 C 0.1035(4) 0.0101(6) 0.1309(3)
C9 C 0.1327(4) 0.0896(6) 0.1926(3)
C10 C 0.2122(4) 0.0490(6) 0.2438(3)
C11 C 0.2352(4) 0.1191(6) 0.3034(3)
C12 C 0.1810(4) 0.2314(6) 0.3122(3)
C13 C 0.1011(4) 0.2769(6) 0.2614(3)
C14 C 0.0789(4) 0.2037(6) 0.2020(3)
C15 C 0.0452(4) 0.3990(6) 0.2673(3)
C16 C 0.0036(4) 0.6065(6) 0.3060(3)
C17 C 0.0571(5) 0.7384(6) 0.2990(3)
C18 C 0.1114(4) 0.7988(6) 0.3632(3)
C19 C 0.0960(4) 0.9322(6) 0.3779(3)
C20 C 0.1468(5) 0.9876(7) 0.4374(3)
C21 C 0.2114(5) 0.9086(6) 0.4810(3)
C22 C 0.2232(4) 0.7753(6) 0.4645(3)
C23 C 0.0348(5) 0.3290(7) 0.1027(3)
H1 H 0.483 -0.104 0.063
H2 H 0.520 -0.249 -0.016
H3 H 0.389 -0.333 -0.100
H4 H 0.227 -0.266 -0.099
H5 H 0.117 -0.126 -0.058
H6 H 0.162 0.006 -0.024
H7 H 0.142 -0.216 0.054
H8 H 0.053 -0.118 0.032
H9 H 0.035 -0.007 0.114
H10 H 0.250 -0.027 0.238
H11 H 0.288 0.090 0.338
H12 H 0.198 0.279 0.353
H13 H -0.015 0.412 0.235
H14 H -0.023 0.611 0.345
H15 H -0.048 0.595 0.268
H16 H 0.009 0.802 0.277
H17 H 0.103 0.722 0.272
H18 H 0.051 0.986 0.347
H19 H 0.137 1.079 0.448
H20 H 0.247 0.945 0.522
H21 H 0.268 0.721 0.495
H22 H -0.020 0.355 0.069
H23 H 0.066 0.407 0.124
H24 H 0.081 0.280 0.083
N3A N 0.4289(3) -0.0098(5) 0.1880(2)
N4A N 0.3266(4) 0.2198(5) 0.0932(2)
Cu1A Cu 0.18998(5) 0.51621(7) 0.39001(3)
H25 H 0.7221 0.2233 0.3325
C24 C 0.7801(6) 0.2638(8) 0.3235(4)
Cl1 Cl 0.8087(2) 0.4154(3) 0.3676(1)
Cl2 Cl 0.8838(2) 0.1567(3) 0.3500(2)
Cl3 Cl 0.7546(3) 0.2909(6) 0.2398(1)
B1 B 0.0581(6) 0.3266(9) 0.8889(4)
F1 F 0.0935(4) 0.2005(5) 0.8844(4)
F2 F -0.0379(3) 0.3381(5) 0.8524(2)
F3 F 0.1195(3) 0.4184(4) 0.8665(2)
F4 F 0.0575(4) 0.3577(7) 0.9548(2)

#END
