
#######################################################################
#
#                 Cambridge Crystallographic Data Centre
#                                CCDC
#
#######################################################################
#
# If this CIF has been generated from an entry in the Cambridge
# Structural Database, then it will include bibliographic, chemical,
# crystal, experimental, refinement or atomic coordinate data resulting
# from the CCDC's data processing and validation procedures.
#
#######################################################################

data_CSD_CIF_JIYDEA
_audit_creation_date 1999-07-06
_audit_creation_method CSD-ConQuest-V1
_database_code_CSD JIYDEA
_database_code_depnum_ccdc_archive 'CCDC 1187624'
_database_code_depnum_ccdc_journal 182/1005
_chemical_formula_sum 'C60 H118 N6 O8 P2 S2 Sr1'
_chemical_formula_moiety
;
C24 H60 N6 O8 P2 Sr1 2+,2(C18 H29 S1 1-)
;
_journal_coden_Cambridge 182
_journal_year 1998
_journal_page_first 2149
_journal_name_full 'Chem.Commun. '
loop_
_publ_author_name
"S.Chadwick"
"U.Englich"
"K.Ruhlandt-Senge"
_chemical_name_systematic
;
(18-Crown-6)-bis(hexamethylphosphoramide-O)-strontium 
bis(2,4,6-tri-t-butylbenzenethiolate)
;
_chemical_name_common
;
Teaching Subset: Fundamental Chemistry, Symmetry
;
_cell_volume   3678.097
_exptl_crystal_colour 'colorless'
_exptl_crystal_density_diffrn 1.142
_exptl_crystal_description 'block'
_diffrn_ambient_temperature 150
#These two values have been output from a single CSD field.
_refine_ls_R_factor_gt 0.0441
_refine_ls_wR_factor_gt 0.0441
_symmetry_cell_setting monoclinic
_symmetry_space_group_name_H-M 'P 21/n'
_symmetry_Int_Tables_number 14
loop_
_symmetry_equiv_pos_site_id
_symmetry_equiv_pos_as_xyz
1 x,y,z
2 1/2-x,1/2+y,1/2-z
3 -x,-y,-z
4 -1/2+x,-1/2-y,-1/2+z
_cell_length_a 10.5771(3)
_cell_length_b 17.5403(5)
_cell_length_c 19.8293(7)
_cell_angle_alpha 90
_cell_angle_beta 91.152(1)
_cell_angle_gamma 90
_cell_formula_units_Z 2
loop_
_atom_type_symbol
_atom_type_radius_bond
C 0.68
H 0.23
N 0.68
O 0.68
P 1.05
S 1.02
Sr 1.67
loop_
_atom_site_label
_atom_site_type_symbol
_atom_site_fract_x
_atom_site_fract_y
_atom_site_fract_z
Sr1 Sr 0.00000 0.00000 0.00000
C1 C -0.2268(2) 0.1361(1) 0.0547(1)
O1 O -0.2297(1) 0.0596(1) 0.0279(1)
C2 C -0.3191(2) 0.0143(1) 0.0638(1)
C3 C -0.3178(2) -0.0648(1) 0.0357(1)
O2 O -0.1908(1) -0.0928(1) 0.0420(1)
C4 C -0.1842(2) -0.1729(1) 0.0284(1)
C5 C -0.0499(2) -0.1973(1) 0.0399(1)
O3 O 0.0275(1) -0.1540(1) -0.0047(1)
C6 C -0.1529(2) 0.1848(1) 0.0082(1)
O4 O 0.0611(2) 0.0049(1) 0.1182(1)
P1 P 0.1329(1) 0.0027(1) 0.1839(1)
N1 N 0.0484(2) -0.0434(1) 0.2402(1)
C7 C -0.0888(3) -0.0305(2) 0.2382(2)
C8 C 0.0969(3) -0.0592(2) 0.3085(1)
N2 N 0.2686(2) -0.0439(1) 0.1863(1)
C9 C 0.2706(3) -0.1275(2) 0.1857(1)
C10 C 0.3777(2) -0.0110(2) 0.1515(1)
N3 N 0.1703(2) 0.0900(1) 0.2054(1)
C11 C 0.2478(3) 0.1072(2) 0.2656(2)
C12 C 0.1154(3) 0.1575(1) 0.1734(1)
H1 H -0.1875(2) 0.1362(1) 0.0993(1)
H2 H -0.3122(2) 0.1557(1) 0.0582(1)
H3 H -0.4030(2) 0.0360(1) 0.0587(1)
H4 H -0.2965(2) 0.0132(1) 0.1114(1)
H5 H -0.3747(2) -0.0973(1) 0.0604(1)
H6 H -0.3449(2) -0.0644(1) -0.0114(1)
H7 H -0.2106(2) -0.1832(1) -0.0178(1)
H8 H -0.2394(2) -0.2007(1) 0.0582(1)
H9 H -0.0242(2) -0.1880(1) 0.0864(1)
H10 H -0.0412(2) -0.2513(1) 0.0307(1)
H11 H -0.1496(2) 0.2367(1) 0.0248(1)
H12 H -0.1927(2) 0.1851(1) -0.0363(1)
H13 H -0.1161(3) -0.0205(2) 0.1926(2)
H14 H -0.1087(3) 0.0124(2) 0.2661(2)
H15 H -0.1312(3) -0.0750(2) 0.2545(2)
H16 H 0.1866(3) -0.0672(2) 0.3074(1)
H17 H 0.0567(3) -0.1040(2) 0.3257(1)
H18 H 0.0792(3) -0.0166(2) 0.3373(1)
H19 H 0.1982(3) -0.1466(2) 0.2087(1)
H20 H 0.3463(3) -0.1453(2) 0.2080(1)
H21 H 0.2685(3) -0.1453(2) 0.1399(1)
H22 H 0.3729(2) 0.0437(2) 0.1530(1)
H23 H 0.3768(2) -0.0276(2) 0.1054(1)
H24 H 0.4546(2) -0.0276(2) 0.1735(1)
H25 H 0.2811(3) 0.0607(2) 0.2843(2)
H26 H 0.1967(3) 0.1321(2) 0.2984(2)
H27 H 0.3163(3) 0.1401(2) 0.2536(2)
H28 H 0.0660(3) 0.1425(1) 0.1344(1)
H29 H 0.1819(3) 0.1911(1) 0.1599(1)
H30 H 0.0622(3) 0.1832(1) 0.2048(1)
S1 S -0.5534(1) 0.2053(1) 0.1110(1)
C13 C -0.4256(2) 0.2705(1) 0.1146(1)
C14 C -0.3374(2) 0.2714(1) 0.1711(1)
C15 C -0.2321(2) 0.3196(1) 0.1690(1)
C16 C -0.2090(2) 0.3701(1) 0.1166(1)
C17 C -0.2970(2) 0.3707(1) 0.0635(1)
C18 C -0.4033(2) 0.3235(1) 0.0601(1)
C19 C -0.3559(2) 0.2244(1) 0.2370(1)
C20 C -0.2511(3) 0.2393(2) 0.2910(1)
C21 C -0.4808(2) 0.2490(1) 0.2697(1)
C22 C -0.3544(3) 0.1375(1) 0.2245(1)
C23 C -0.0933(2) 0.4234(2) 0.1160(1)
C24 C -0.1379(3) 0.5063(2) 0.0999(2)
C25 C -0.0283(3) 0.4282(2) 0.1846(2)
C26 C -0.0024(3) 0.3981(2) 0.0621(2)
C27 C -0.4913(2) 0.3306(1) -0.0038(1)
C28 C -0.4481(3) 0.3943(1) -0.0525(1)
C29 C -0.4877(2) 0.2563(1) -0.0454(1)
C30 C -0.6277(2) 0.3516(1) 0.0154(1)
H31 H -0.1740(2) 0.3177(1) 0.2048(1)
H32 H -0.2842(2) 0.4045(1) 0.0281(1)
H33 H -0.1706(3) 0.2250(2) 0.2734(1)
H34 H -0.2678(3) 0.2098(2) 0.3306(1)
H35 H -0.2500(3) 0.2925(2) 0.3024(1)
H36 H -0.4798(2) 0.3032(1) 0.2771(1)
H37 H -0.4895(2) 0.2233(1) 0.3121(1)
H38 H -0.5507(2) 0.2360(1) 0.2403(1)
H39 H -0.2761(3) 0.1234(1) 0.2042(1)
H40 H -0.4236(3) 0.1239(1) 0.1948(1)
H41 H -0.3624(3) 0.1111(1) 0.2666(1)
H42 H -0.1802(3) 0.5073(2) 0.0566(2)
H43 H -0.0659(3) 0.5396(2) 0.0993(2)
H44 H -0.1950(3) 0.5230(2) 0.1339(2)
H45 H -0.0881(3) 0.4443(2) 0.2175(2)
H46 H 0.0397(3) 0.4643(2) 0.1830(2)
H47 H 0.0047(3) 0.3790(2) 0.1969(2)
H48 H -0.0463(3) 0.3957(2) 0.0193(2)
H49 H 0.0307(3) 0.3487(2) 0.0734(2)
H50 H 0.0658(3) 0.4341(2) 0.0596(2)
H51 H -0.4483(3) 0.4424(1) -0.0294(1)
H52 H -0.5051(3) 0.3965(1) -0.0907(1)
H53 H -0.3643(3) 0.3833(1) -0.0674(1)
H54 H -0.4018(2) 0.2448(1) -0.0565(1)
H55 H -0.5371(2) 0.2627(1) -0.0862(1)
H56 H -0.5219(2) 0.2152(1) -0.0195(1)
H57 H -0.6267(2) 0.3979(1) 0.0412(1)
H58 H -0.6629(2) 0.3113(1) 0.0418(1)
H59 H -0.6782(2) 0.3587(1) -0.0248(1)
O3B O -0.0275(1) 0.1540(1) 0.0047(1)
O1B O 0.2297(1) -0.0596(1) -0.0279(1)
C1B C 0.2268(2) -0.1361(1) -0.0547(1)
C6B C 0.1529(2) -0.1848(1) -0.0082(1)
O2B O 0.1908(1) 0.0928(1) -0.0420(1)
C3B C 0.3178(2) 0.0648(1) -0.0357(1)
C2B C 0.3191(2) -0.0143(1) -0.0638(1)
H3B H 0.4030(2) -0.0360(1) -0.0587(1)
H4B H 0.2965(2) -0.0132(1) -0.1114(1)
H5B H 0.3747(2) 0.0973(1) -0.0604(1)
H6B H 0.3449(2) 0.0644(1) 0.0114(1)
C4B C 0.1842(2) 0.1729(1) -0.0284(1)
C5B C 0.0499(2) 0.1973(1) -0.0399(1)
H9B H 0.0242(2) 0.1880(1) -0.0864(1)
H10B H 0.0412(2) 0.2513(1) -0.0307(1)
H7B H 0.2106(2) 0.1832(1) 0.0178(1)
H8B H 0.2394(2) 0.2007(1) -0.0582(1)
O4B O -0.0611(2) -0.0049(1) -0.1182(1)
P1B P -0.1329(1) -0.0027(1) -0.1839(1)
N1B N -0.0484(2) 0.0434(1) -0.2402(1)
C7B C 0.0888(3) 0.0305(2) -0.2382(2)
H13B H 0.1161(3) 0.0205(2) -0.1926(2)
H14B H 0.1087(3) -0.0124(2) -0.2661(2)
H15B H 0.1312(3) 0.0750(2) -0.2545(2)
C8B C -0.0969(3) 0.0592(2) -0.3085(1)
H16B H -0.1866(3) 0.0672(2) -0.3074(1)
H17B H -0.0567(3) 0.1040(2) -0.3257(1)
H18B H -0.0792(3) 0.0166(2) -0.3373(1)
N2B N -0.2686(2) 0.0439(1) -0.1863(1)
C9B C -0.2706(3) 0.1275(2) -0.1857(1)
H19B H -0.1982(3) 0.1466(2) -0.2087(1)
H20B H -0.3463(3) 0.1453(2) -0.2080(1)
H21B H -0.2685(3) 0.1453(2) -0.1399(1)
C10B C -0.3777(2) 0.0110(2) -0.1515(1)
H22B H -0.3729(2) -0.0437(2) -0.1530(1)
H23B H -0.3768(2) 0.0276(2) -0.1054(1)
H24B H -0.4546(2) 0.0276(2) -0.1735(1)
N3B N -0.1703(2) -0.0900(1) -0.2054(1)
C11B C -0.2478(3) -0.1072(2) -0.2656(2)
H25B H -0.2811(3) -0.0607(2) -0.2843(2)
H26B H -0.1967(3) -0.1321(2) -0.2984(2)
H27B H -0.3163(3) -0.1401(2) -0.2536(2)
C12B C -0.1154(3) -0.1575(1) -0.1734(1)
H28B H -0.0660(3) -0.1425(1) -0.1344(1)
H29B H -0.1819(3) -0.1911(1) -0.1599(1)
H30B H -0.0622(3) -0.1832(1) -0.2048(1)
H11B H 0.1496(2) -0.2367(1) -0.0248(1)
H12B H 0.1927(2) -0.1851(1) 0.0363(1)
H1B H 0.1875(2) -0.1362(1) -0.0993(1)
H2B H 0.3122(2) -0.1557(1) -0.0582(1)
#END
