####################################################################### 
# 
# This file contains crystal structure data downloaded from the 
# Cambridge Structural Database (CSD) hosted by the Cambridge 
# Crystallographic Data Centre (CCDC).
# 
# Full information about CCDC data access policies and citation 
# guidelines are available at http://www.ccdc.cam.ac.uk/access/V1 
# 
# Audit and citation data items may have been added by the CCDC. 
# Please retain this information to preserve the provenance of 
# this file and to allow appropriate attribution of the data. 
# 
#######################################################################

data_CRYSTALS_cif
_audit_block_doi                 10.5517/ccrllhd
_database_code_depnum_ccdc_archive 'CCDC 703064'
loop_
_citation_id
_citation_doi
_citation_year
1 10.1021/ja801619e 2008
_audit_update_record             
;
2008-09-22 deposited with the CCDC.	2024-07-10 downloaded from the CCDC.
;
_audit_creation_date             08-01-30
_audit_creation_method           CRYSTALS_ver_12.51

_oxford_structure_analysis_title 'Orth2 in Pcca'
_chemical_name_systematic        ?
_chemical_melting_point          ?

_cell_length_a                   37.4329(14)
_cell_length_b                   19.7762(8)
_cell_length_c                   18.5622(7)
_cell_angle_alpha                90
_cell_angle_beta                 90
_cell_angle_gamma                90
_cell_volume                     13741.2(9)

_symmetry_cell_setting           Orthorhombic
_symmetry_space_group_name_H-M   'P c c a '
_symmetry_space_group_name_Hall  ?
loop_
_symmetry_equiv_pos_as_xyz
x,y,z
-x,-y,-z
-x+1/2,y,z+1/2
x+1/2,-y,-z+1/2
x,-y,z+1/2
-x,y,-z+1/2
-x+1/2,-y,z
x+1/2,y,-z

loop_
_atom_type_symbol
_atom_type_scat_dispersion_real
_atom_type_scat_dispersion_imag
_atom_type_scat_Cromer_Mann_a1
_atom_type_scat_Cromer_Mann_b1
_atom_type_scat_Cromer_Mann_a2
_atom_type_scat_Cromer_Mann_b2
_atom_type_scat_Cromer_Mann_a3
_atom_type_scat_Cromer_Mann_b3
_atom_type_scat_Cromer_Mann_a4
_atom_type_scat_Cromer_Mann_b4
_atom_type_scat_Cromer_Mann_c
_atom_type_scat_source
C 0.0033 0.0016 2.3100 20.8439 1.0200 10.2075 1.5886 0.5687 0.8650 51.6512
0.2156 'International Tables Vol C 4.2.6.8 and 6.1.1.4'
H 0.0000 0.0000 0.4930 10.5109 0.3229 26.1257 0.1402 3.1424 0.0408 57.7998
0.0030 'International Tables Vol C 4.2.6.8 and 6.1.1.4'
N 0.0061 0.0033 12.2126 0.0057 3.1322 9.8933 2.0125 28.9975 1.1663 0.5826
-11.5290 'International Tables Vol C 4.2.6.8 and 6.1.1.4'
S 0.1246 0.1234 6.9053 1.4679 5.2034 22.2151 1.4379 0.2536 1.5863 56.1720
0.8669 'International Tables Vol C 4.2.6.8 and 6.1.1.4'
Ga 0.2307 1.6083 15.2354 3.0669 6.7006 0.2412 4.3591 10.7805 2.9623 61.4135
1.7189 'International Tables Vol C 4.2.6.8 and 6.1.1.4'


_cell_formula_units_Z            8

# Given Formula = C3 H3.12 Ga1.25 N0.50 S2
# Dc = 0.19 Fooo = 6112.00 Mu = 5.45 M = 197.47
# Found Formula = C24 H26 Ga10 N4 S16
# Dc = 1.53 FOOO = 6112.00 Mu = 43.60 M = 1580.75

_chemical_formula_sum            'C24 H26 Ga10 N4 S16'
_chemical_formula_moiety         'C24 H26 Ga10 N4 S16'
_chemical_compound_source        ?
_chemical_formula_weight         1580.75


_cell_measurement_reflns_used    0
_cell_measurement_theta_min      0
_cell_measurement_theta_max      0
_cell_measurement_temperature    100

_exptl_crystal_description       plate
_exptl_crystal_colour            colourless
_exptl_crystal_size_min          0.1
_exptl_crystal_size_mid          0.24
_exptl_crystal_size_max          0.28

_exptl_crystal_density_diffrn    1.528
_exptl_crystal_density_meas      ?
# Non-dispersive F(000):
_exptl_crystal_F_000             6112
_exptl_absorpt_coefficient_mu    4.360

# Sheldrick geometric approximatio 1.00 1.00
_exptl_absorpt_correction_type   multi-scan
_exptl_absorpt_process_details   'Bruker SADABS'
_exptl_absorpt_correction_T_min  0.337
_exptl_absorpt_correction_T_max  0.647
_diffrn_measurement_device_type  
;
Bruker-Nonius APEX-2 CCD area-detector diffractometer
;
_diffrn_radiation_monochromator  graphite
_diffrn_radiation_type           'Mo K\a'
_diffrn_radiation_wavelength     0.71073
_diffrn_measurement_method       \w/2\q

_computing_data_collection       'APEX 2 (Bruker, 2005)'
_computing_data_reduction        'APEX 2 (Bruker, 2005)'
_computing_cell_refinement       'APEX 2 (Bruker, 2005)'
_computing_structure_solution    'SIR92 (Altomare et al., 1994)'
_computing_structure_refinement  'CRYSTALS (Betteridge et al., 2003)'
_computing_publication_material  'CRYSTALS (Betteridge et al., 2003)'
_computing_molecular_graphics    'ATOMS (Dowty, 2000)'

_diffrn_standards_interval_time  ?
_diffrn_standards_interval_count ?
_diffrn_standards_number         0
_diffrn_standards_decay_%        ?

_diffrn_ambient_temperature      100
_diffrn_reflns_number            156171
_reflns_number_total             20783
_diffrn_reflns_av_R_equivalents  0.051
# Number of reflections with Friedels Law is 20783
# Number of reflections without Friedels Law is 0
# Theoretical number of reflections is about 20844


_diffrn_reflns_theta_min         1.030
_diffrn_reflns_theta_max         30.459
_diffrn_measured_fraction_theta_max 0.995

_diffrn_reflns_theta_full        29.850
_diffrn_measured_fraction_theta_full 1.000


_diffrn_reflns_limit_h_min       -53
_diffrn_reflns_limit_h_max       47
_diffrn_reflns_limit_k_min       -28
_diffrn_reflns_limit_k_max       28
_diffrn_reflns_limit_l_min       -26
_diffrn_reflns_limit_l_max       23
_reflns_limit_h_min              0
_reflns_limit_h_max              53
_reflns_limit_k_min              0
_reflns_limit_k_max              28
_reflns_limit_l_min              0
_reflns_limit_l_max              26

_oxford_diffrn_Wilson_B_factor   2.05
_oxford_diffrn_Wilson_scale      3073.99

_atom_sites_solution_primary     direct #heavy,direct,difmap,geom
# _atom_sites_solution_secondary difmap
_atom_sites_solution_hydrogens   geom

_refine_diff_density_min         -1.05
_refine_diff_density_max         1.19


_refine_ls_number_reflns         6921
_refine_ls_number_restraints     17
_refine_ls_number_parameters     347

#_refine_ls_R_factor_ref 0.0424
_refine_ls_wR_factor_ref         0.0448
_refine_ls_goodness_of_fit_ref   1.0998

#_reflns_number_all 20728
_refine_ls_R_factor_all          0.1341
_refine_ls_wR_factor_all         0.1155

# The I/u(I) cutoff below was used for refinement as
# well as the _gt R-factors:
_reflns_threshold_expression     I>2.00u(I)
_reflns_number_gt                6921
_refine_ls_R_factor_gt           0.0424
_refine_ls_wR_factor_gt          0.0448

_refine_ls_shift/su_max          0.000609

# choose from: rm (reference molecule of known chirality),
# ad (anomolous dispersion - Flack), rmad (rm and ad),
# syn (from synthesis), unk (unknown) or . (not applicable).
_chemical_absolute_configuration .


_refine_ls_structure_factor_coef F
_refine_ls_matrix_type           full
_refine_ls_hydrogen_treatment    noref # none, undef, noref, refall,
# refxyz, refU, constr or mixed
_refine_ls_weighting_scheme      calc
_refine_ls_weighting_details     
;
Method, part 1, Chebychev polynomial, (Watkin, 1994, Prince, 1982)
[weight] = 1.0/[A~0~*T~0~(x)+A~1~*T~1~(x) ... +A~n-1~]*T~n-1~(x)]
where A~i~ are the Chebychev coefficients listed below and x= Fcalc/Fmax
Method = Robust Weighting (Prince, 1982)
W = [weight] * [1-(deltaF/6*sigmaF)^2^]^2^
A~i~ are:
0.410 0.365 0.327 0.119 0.796E-01
;

# Uequiv = arithmetic mean of Ui i.e. Ueqiv = (U1+U2+U3)/3

# Replace last . with number of unfound hydrogen atoms attached to an atom.

# ..._refinement_flags_...
# . no refinement constraints S special position constraint on site
# G rigid group refinement of site R riding atom
# D distance or angle restraint on site T thermal displacement constraints
# U Uiso or Uij restraint (rigid bond) P partial occupancy constraint


loop_
_atom_site_label
_atom_site_type_symbol
_atom_site_fract_x
_atom_site_fract_y
_atom_site_fract_z
_atom_site_U_iso_or_equiv
_atom_site_occupancy
_atom_site_adp_type
_atom_site_refinement_flags_posn
_atom_site_refinement_flags_adp
_atom_site_refinement_flags_occupancy
_atom_site_disorder_assembly
_atom_site_disorder_group
_atom_site_attached_hydrogens
Ga1 Ga 0.04982(2) 0.37119(5) 0.41561(5) 0.0351 1.0000 Uani . . . . . .
Ga2 Ga 0.05799(2) 0.21813(4) 0.50431(5) 0.0276 1.0000 Uani . . . . . .
Ga3 Ga 0.12870(2) 0.35352(4) 0.50933(5) 0.0324 1.0000 Uani . . . . . .
Ga4 Ga 0.10940(2) 0.26220(4) 0.33310(5) 0.0284 1.0000 Uani . . . . . .
Ga5 Ga 0.07951(2) 0.06393(5) 0.58391(5) 0.0319 1.0000 Uani . . . . . .
Ga6 Ga 0.12526(2) 0.09352(4) 0.42563(5) 0.0276 1.0000 Uani . . . . . .
Ga7 Ga 0.14535(2) 0.18529(4) 0.60132(5) 0.0296 1.0000 Uani . . . . . .
Ga8 Ga 0.17204(2) 0.14541(5) 0.27408(5) 0.0371 1.0000 Uani . . . . . .
Ga9 Ga 0.19626(2) 0.23006(4) 0.43074(5) 0.0327 1.0000 Uani . . . . . .
Ga10 Ga 0.20818(3) 0.31276(5) 0.59371(6) 0.0412 1.0000 Uani . U . . . .
S11 S 0.01660(5) 0.29573(11) 0.47711(12) 0.0336 1.0000 Uani . . . . . .
S12 S 0.06760(6) 0.33802(11) 0.30547(12) 0.0353 1.0000 Uani . . . . . .
S13 S 0.08842(6) 0.43277(11) 0.48092(13) 0.0418 1.0000 Uani . . . . . .
S14 S 0.03233(5) 0.13238(11) 0.56419(11) 0.0346 1.0000 Uani . . . . . .
S15 S 0.08291(5) 0.17522(9) 0.39870(10) 0.0252 1.0000 Uani . . . . . .
S16 S 0.13293(6) 0.22134(12) 0.23169(12) 0.0394 1.0000 Uani . . . . . .
S17 S 0.10229(5) 0.26649(10) 0.57516(11) 0.0299 1.0000 Uani . . . . . .
S18 S 0.15391(5) 0.31183(10) 0.40329(11) 0.0314 1.0000 Uani . . . . . .
S19 S 0.17093(6) 0.40048(11) 0.57822(15) 0.0458 1.0000 Uani . . . . . .
S20 S 0.10057(6) 0.00904(10) 0.48714(12) 0.0357 1.0000 Uani . . . . . .
S21 S 0.14844(6) 0.05145(11) 0.32373(12) 0.0362 1.0000 Uani . . . . . .
S22 S 0.11998(6) 0.10082(11) 0.66432(12) 0.0349 1.0000 Uani . . . . . .
S23 S 0.16992(5) 0.14258(9) 0.49578(12) 0.0289 1.0000 Uani . . . . . .
S24 S 0.22061(6) 0.18762(12) 0.33016(13) 0.0408 1.0000 Uani . . . . . .
S25 S 0.18871(6) 0.23155(11) 0.66906(13) 0.0381 1.0000 Uani . . . . . .
S26 S 0.23926(6) 0.27693(13) 0.49709(15) 0.0472 1.0000 Uani . . . . . .
N27 N 0.01212(18) 0.4407(4) 0.3867(4) 0.0370(16) 1.0000 Uiso . . . . . .
C28 C 0.0132(3) 0.5062(5) 0.4108(6) 0.051(2) 1.0000 Uiso . . . . . .
C29 C -0.0126(3) 0.5531(6) 0.3881(6) 0.056(3) 1.0000 Uiso . . . . . .
C30 C -0.0393(3) 0.5346(5) 0.3413(5) 0.046(2) 1.0000 Uiso . . . . . .
C31 C -0.0395(3) 0.4672(6) 0.3183(6) 0.056(3) 1.0000 Uiso . . . . . .
C32 C -0.0132(3) 0.4235(5) 0.3404(6) 0.049(2) 1.0000 Uiso . . . . . .
C33 C -0.0671(3) 0.5832(6) 0.3150(7) 0.069(3) 1.0000 Uiso . . . . . .
N34 N 0.2494(2) 0.3573(5) 0.6462(5) 0.0570(16) 1.0000 Uiso . U . . . .
C35 C 0.2658(3) 0.3312(6) 0.7012(6) 0.0587(18) 1.0000 Uiso . U . . . .
C36 C 0.2974(3) 0.3563(6) 0.7292(7) 0.0652(19) 1.0000 Uiso . U . . . .
C37 C 0.3120(3) 0.4123(7) 0.7014(7) 0.0724(19) 1.0000 Uiso . U . . . .
C38 C 0.2970(4) 0.4349(7) 0.6398(7) 0.077(2) 1.0000 Uiso . U . . . .
C39 C 0.2660(3) 0.4065(7) 0.6102(7) 0.0708(19) 1.0000 Uiso . U . . . .
C40 C 0.3471(4) 0.4395(7) 0.7297(7) 0.080(2) 1.0000 Uiso . U . . . .
N41 N 0.05543(17) -0.0163(3) 0.6324(4) 0.0319(15) 1.0000 Uiso . . . . . .
C42 C 0.0272(3) -0.0442(5) 0.5985(5) 0.046(2) 1.0000 Uiso . . . . . .
C43 C 0.0106(2) -0.1011(5) 0.6229(5) 0.041(2) 1.0000 Uiso . . . . . .
C44 C 0.0227(2) -0.1338(4) 0.6836(4) 0.0263(16) 1.0000 Uiso . . . . . .
C45 C 0.0520(2) -0.1057(4) 0.7186(4) 0.0317(18) 1.0000 Uiso . . . . . .
C46 C 0.0678(2) -0.0464(4) 0.6912(4) 0.0302(17) 1.0000 Uiso . . . . . .
C47 C 0.0047(2) -0.1982(4) 0.7089(4) 0.0258(16) 1.0000 Uiso . . . . . .
N48 N 0.19292(19) 0.1088(4) 0.1813(4) 0.0374(17) 1.0000 Uiso . . . . . .
C49 C 0.2231(3) 0.1349(6) 0.1534(6) 0.059(3) 1.0000 Uiso . . . . . .
C50 C 0.2389(3) 0.1104(6) 0.0908(7) 0.064(3) 1.0000 Uiso . . . . . .
C51 C 0.2235(3) 0.0572(5) 0.0543(5) 0.047(2) 1.0000 Uiso . . . . . .
C52 C 0.1922(3) 0.0321(6) 0.0825(7) 0.064(3) 1.0000 Uiso . . . . . .
C53 C 0.1782(3) 0.0570(6) 0.1451(6) 0.055(3) 1.0000 Uiso . . . . . .
C54 C 0.2415(3) 0.0332(6) -0.0125(7) 0.073(3) 1.0000 Uiso . . . . . .
H281 H 0.0325 0.5208 0.4447 0.0603 1.0000 Uiso . . . . . .
H291 H -0.0116 0.6006 0.4065 0.0669 1.0000 Uiso . . . . . .
H311 H -0.0589 0.4508 0.2856 0.0671 1.0000 Uiso . . . . . .
H321 H -0.0132 0.3764 0.3208 0.0593 1.0000 Uiso . . . . . .
H331 H -0.0838 0.5594 0.2814 0.0834 1.0000 Uiso . . . . . .
H332 H -0.0808 0.6014 0.3569 0.0834 1.0000 Uiso . . . . . .
H333 H -0.0553 0.6214 0.2889 0.0834 1.0000 Uiso . . . . . .
H351 H 0.2549 0.2907 0.7250 0.0705 1.0000 Uiso . . . . . .
H361 H 0.3094 0.3327 0.7702 0.0783 1.0000 Uiso . . . . . .
H381 H 0.3088 0.4732 0.6137 0.0931 1.0000 Uiso . . . . . .
H391 H 0.2564 0.4229 0.5630 0.0851 1.0000 Uiso . . . . . .
H401 H 0.3537 0.4813 0.7025 0.0958 1.0000 Uiso . . . . . .
H402 H 0.3445 0.4507 0.7821 0.0958 1.0000 Uiso . . . . . .
H403 H 0.3662 0.4047 0.7235 0.0958 1.0000 Uiso . . . . . .
H421 H 0.0180 -0.0224 0.5536 0.0557 1.0000 Uiso . . . . . .
H431 H -0.0106 -0.1192 0.5966 0.0487 1.0000 Uiso . . . . . .
H451 H 0.0617 -0.1274 0.7631 0.0378 1.0000 Uiso . . . . . .
H461 H 0.0889 -0.0266 0.7166 0.0363 1.0000 Uiso . . . . . .
H471 H 0.0211 -0.2371 0.6991 0.0310 1.0000 Uiso . . . . . .
H472 H -0.0179 -0.2042 0.6810 0.0310 1.0000 Uiso . . . . . .
H491 H 0.2347 0.1738 0.1786 0.0711 1.0000 Uiso . . . . . .
H501 H 0.2615 0.1312 0.0724 0.0774 1.0000 Uiso . . . . . .
H521 H 0.1795 -0.0051 0.0567 0.0772 1.0000 Uiso . . . . . .
H531 H 0.1560 0.0357 0.1648 0.0662 1.0000 Uiso . . . . . .
H541 H 0.2603 0.0672 -0.0246 0.0880 1.0000 Uiso . . . . . .
H542 H 0.2229 0.0326 -0.0513 0.0880 1.0000 Uiso . . . . . .
loop_
_atom_site_aniso_label
_atom_site_aniso_U_11
_atom_site_aniso_U_22
_atom_site_aniso_U_33
_atom_site_aniso_U_23
_atom_site_aniso_U_13
_atom_site_aniso_U_12
Ga1 0.0362(5) 0.0277(4) 0.0415(5) -0.0001(4) -0.0067(4) 0.0014(4)
Ga2 0.0265(4) 0.0269(4) 0.0296(4) -0.0006(4) -0.0023(4) -0.0024(3)
Ga3 0.0339(5) 0.0249(4) 0.0385(5) 0.0005(4) -0.0089(4) -0.0044(4)
Ga4 0.0275(4) 0.0267(4) 0.0312(5) 0.0040(4) -0.0012(4) -0.0038(3)
Ga5 0.0308(4) 0.0328(5) 0.0320(5) 0.0052(4) -0.0019(4) -0.0086(4)
Ga6 0.0263(4) 0.0252(4) 0.0313(5) 0.0019(4) 0.0005(4) -0.0039(3)
Ga7 0.0290(4) 0.0250(4) 0.0348(5) 0.0021(4) -0.0071(4) -0.0045(4)
Ga8 0.0349(5) 0.0358(5) 0.0407(5) 0.0000(4) 0.0082(4) -0.0058(4)
Ga9 0.0271(4) 0.0291(5) 0.0420(5) 0.0043(4) -0.0022(4) -0.0061(4)
Ga10 0.0387(5) 0.0296(5) 0.0552(6) 0.0057(5) -0.0163(5) -0.0101(4)
S11 0.0294(10) 0.0345(11) 0.0370(11) -0.0021(9) -0.0025(9) 0.0014(8)
S12 0.0342(11) 0.0329(11) 0.0387(12) 0.0068(9) -0.0031(9) -0.0010(9)
S13 0.0416(12) 0.0287(11) 0.0551(14) -0.0037(10) -0.0137(11) 0.0023(9)
S14 0.0316(10) 0.0396(12) 0.0326(11) 0.0060(9) -0.0003(9) -0.0056(9)
S15 0.0237(8) 0.0263(9) 0.0254(10) 0.0013(8) -0.0008(8) -0.0045(7)
S16 0.0397(11) 0.0424(13) 0.0360(12) 0.0025(10) 0.0046(10) -0.0025(10)
S17 0.0303(10) 0.0273(10) 0.0320(10) -0.0013(9) -0.0064(9) -0.0024(8)
S18 0.0291(10) 0.0265(10) 0.0384(11) 0.0050(9) -0.0032(8) -0.0055(8)
S19 0.0474(13) 0.0267(11) 0.0632(16) -0.0006(11) -0.0215(12) -0.0073(9)
S20 0.0418(11) 0.0271(11) 0.0383(12) 0.0022(9) 0.0022(10) -0.0094(9)
S21 0.0370(11) 0.0319(11) 0.0397(12) -0.0037(9) 0.0117(9) -0.0062(9)
S22 0.0376(11) 0.0346(11) 0.0326(11) 0.0059(9) -0.0076(9) -0.0080(9)
S23 0.0270(9) 0.0231(9) 0.0366(11) 0.0036(9) -0.0044(8) -0.0041(8)
S24 0.0324(11) 0.0398(12) 0.0501(14) 0.0002(11) 0.0076(10) -0.0051(9)
S25 0.0398(11) 0.0308(11) 0.0437(12) 0.0008(10) -0.0131(10) -0.0048(9)
S26 0.0330(11) 0.0467(13) 0.0618(16) 0.0064(13) -0.0074(11) -0.0122(10)

_refine_ls_extinction_method     None
_oxford_refine_ls_scale          0.02558(3)
loop_
_geom_bond_atom_site_label_1
_geom_bond_site_symmetry_1
_geom_bond_atom_site_label_2
_geom_bond_site_symmetry_2
_geom_bond_distance
_geom_bond_publ_flag
Ga1 . S11 . 2.253(2) yes
Ga1 . S12 . 2.248(2) yes
Ga1 . S13 . 2.245(2) yes
Ga1 . N27 . 2.042(7) yes
Ga2 . S11 . 2.238(2) yes
Ga2 . S14 . 2.244(2) yes
Ga2 . S15 . 2.331(2) yes
Ga2 . S17 . 2.322(2) yes
Ga3 . S13 . 2.238(2) yes
Ga3 . S17 . 2.331(2) yes
Ga3 . S18 . 2.333(2) yes
Ga3 . S19 . 2.236(2) yes
Ga4 . S12 . 2.227(2) yes
Ga4 . S15 . 2.329(2) yes
Ga4 . S16 . 2.230(2) yes
Ga4 . S18 . 2.332(2) yes
Ga5 . S14 . 2.255(2) yes
Ga5 . S20 . 2.242(2) yes
Ga5 . S22 . 2.248(2) yes
Ga5 . N41 . 2.034(7) yes
Ga6 . S15 . 2.318(2) yes
Ga6 . S20 . 2.225(2) yes
Ga6 . S21 . 2.241(2) yes
Ga6 . S23 . 2.331(2) yes
Ga7 . S17 . 2.327(2) yes
Ga7 . S22 . 2.249(2) yes
Ga7 . S23 . 2.323(2) yes
Ga7 . S25 . 2.248(2) yes
Ga8 . S16 . 2.240(3) yes
Ga8 . S21 . 2.255(2) yes
Ga8 . S24 . 2.255(2) yes
Ga8 . N48 . 2.026(7) yes
Ga9 . S18 . 2.321(2) yes
Ga9 . S23 . 2.329(2) yes
Ga9 . S24 . 2.241(3) yes
Ga9 . S26 . 2.229(2) yes
Ga10 . S19 . 2.244(3) yes
Ga10 . S25 . 2.251(2) yes
Ga10 . S26 . 2.252(3) yes
Ga10 . N34 . 2.027(9) yes
N27 . C28 . 1.372(12) yes
N27 . C32 . 1.323(12) yes
C28 . C29 . 1.402(14) yes
C28 . H281 . 1.001 no
C29 . C30 . 1.375(14) yes
C29 . H291 . 1.000 no
C30 . C31 . 1.399(13) yes
C30 . C33 . 1.497(15) yes
C31 . C32 . 1.373(14) yes
C31 . H311 . 1.001 no
C32 . H321 . 1.001 no
C33 . H331 . 1.002 no
C33 . H332 . 1.000 no
C33 . H333 . 1.001 no
N34 . C35 . 1.299(13) yes
N34 . C39 . 1.332(14) yes
C35 . C36 . 1.387(15) yes
C35 . H351 . 1.001 no
C36 . C37 . 1.338(16) yes
C36 . H361 . 0.999 no
C37 . C38 . 1.350(17) yes
C37 . C40 . 1.513(18) yes
C38 . C39 . 1.404(17) yes
C38 . H381 . 1.000 no
C39 . H391 . 1.000 no
C40 . H401 . 1.000 no
C40 . H402 . 1.002 no
C40 . H403 . 1.000 no
N41 . C42 . 1.349(11) yes
N41 . C46 . 1.326(10) yes
C42 . C43 . 1.362(13) yes
C42 . 