####################################################################### 
# 
# This file contains crystal structure data downloaded from the 
# Cambridge Structural Database (CSD) hosted by the Cambridge 
# Crystallographic Data Centre (CCDC).
# 
# Full information about CCDC data access policies and citation 
# guidelines are available at http://www.ccdc.cam.ac.uk/access/V1 
# 
# Audit and citation data items may have been added by the CCDC. 
# Please retain this information to preserve the provenance of 
# this file and to allow appropriate attribution of the data. 
# 
#######################################################################

data_1
_audit_block_doi                 10.5517/cc1206cn
_database_code_depnum_ccdc_archive 'CCDC 983300'
loop_
_citation_id
_citation_doi
_citation_year
1 10.1039/C4CE00224E 2014
_audit_update_record             
;
2014-01-24 deposited with the CCDC.	2024-07-10 downloaded from the CCDC.
;

_audit_creation_method           SHELXL-97
_chemical_name_systematic        
; 
 ? 
;
_chemical_name_common            ?
_chemical_melting_point          ?
_chemical_formula_moiety         ?
_chemical_formula_sum            'C46 H48 N6 Ni O10'
_chemical_formula_weight         903.61

loop_
_atom_type_symbol
_atom_type_description
_atom_type_scat_dispersion_real
_atom_type_scat_dispersion_imag
_atom_type_scat_source
C C 0.0033 0.0016 'International Tables Vol C Tables 4.2.6.8 and 6.1.1.4'
H H 0.0000 0.0000 'International Tables Vol C Tables 4.2.6.8 and 6.1.1.4'
N N 0.0061 0.0033 'International Tables Vol C Tables 4.2.6.8 and 6.1.1.4'
Ni Ni 0.3393 1.1124 'International Tables Vol C Tables 4.2.6.8 and 6.1.1.4'
O O 0.0106 0.0060 'International Tables Vol C Tables 4.2.6.8 and 6.1.1.4'

_symmetry_cell_setting           Triclinic
_symmetry_space_group_name_H-M   P-1

loop_
_symmetry_equiv_pos_as_xyz
'x, y, z'
'-x, -y, -z'

_cell_length_a                   10.8266(7)
_cell_length_b                   12.4225(7)
_cell_length_c                   16.9020(10)
_cell_angle_alpha                107.5810(10)
_cell_angle_beta                 91.9470(10)
_cell_angle_gamma                99.3780(10)
_cell_volume                     2129.7(2)
_cell_formula_units_Z            2
_cell_measurement_temperature    293(2)
_cell_measurement_reflns_used    7754
_cell_measurement_theta_min      2.39
_cell_measurement_theta_max      27.60

_exptl_crystal_description       block
_exptl_crystal_colour            'light green'
_exptl_crystal_size_max          0.34
_exptl_crystal_size_mid          0.28
_exptl_crystal_size_min          0.24
_exptl_crystal_density_meas      1.409
_exptl_crystal_density_diffrn    1.409
_exptl_crystal_density_method    'not measured'
_exptl_crystal_F_000             948
_exptl_absorpt_coefficient_mu    0.523
_exptl_absorpt_correction_type   multi-scan
_exptl_absorpt_correction_T_min  0.8422
_exptl_absorpt_correction_T_max  0.8847
_exptl_absorpt_process_details   'SADABS; Bruker, 2000'

_exptl_special_details           
; 
 ? 
;

_diffrn_ambient_temperature      293(2)
_diffrn_radiation_wavelength     0.71073
_diffrn_radiation_type           MoK\a
_diffrn_radiation_source         'fine-focus sealed tube'
_diffrn_radiation_monochromator  graphite
_diffrn_measurement_device_type  'CCD area detector'
_diffrn_measurement_method       'phi and omega scans'
_diffrn_detector_area_resol_mean ?
_diffrn_standards_number         ?
_diffrn_standards_interval_count ?
_diffrn_standards_interval_time  ?
_diffrn_standards_decay_%        ?
_diffrn_reflns_number            19540
_diffrn_reflns_av_R_equivalents  0.0384
_diffrn_reflns_av_sigmaI/netI    0.0545
_diffrn_reflns_limit_h_min       -9
_diffrn_reflns_limit_h_max       14
_diffrn_reflns_limit_k_min       -16
_diffrn_reflns_limit_k_max       16
_diffrn_reflns_limit_l_min       -21
_diffrn_reflns_limit_l_max       21
_diffrn_reflns_theta_min         1.75
_diffrn_reflns_theta_max         27.62
_reflns_number_total             9726
_reflns_number_gt                7989
_reflns_threshold_expression     >2sigma(I)

_computing_data_collection       'Bruker SMART'
_computing_cell_refinement       'Bruker SMART'
_computing_data_reduction        'Bruker SAINT'
_computing_structure_solution    'SHELXS-97 (Sheldrick, 1990)'
_computing_structure_refinement  'SHELXL-97 (Sheldrick, 1997)'
_computing_molecular_graphics    'Bruker SHELXTL'
_computing_publication_material  'Bruker SHELXTL'

_refine_special_details          
; 
 Refinement of F^2^ against ALL reflections.  The weighted R-factor wR and 
 goodness of fit S are based on F^2^, conventional R-factors R are based 
 on F, with F set to zero for negative F^2^. The threshold expression of 
 F^2^ > 2sigma(F^2^) is used only for calculating R-factors(gt) etc. and is 
 not relevant to the choice of reflections for refinement.  R-factors based 
 on F^2^ are statistically about twice as large as those based on F, and R- 
 factors based on ALL data will be even larger. 
;

_refine_ls_structure_factor_coef Fsqd
_refine_ls_matrix_type           full
_refine_ls_weighting_scheme      calc
_refine_ls_weighting_details     
'calc w=1/[\s^2^(Fo^2^)+(0.0652P)^2^+1.2497P] where P=(Fo^2^+2Fc^2^)/3'
_atom_sites_solution_primary     direct
_atom_sites_solution_secondary   difmap
_atom_sites_solution_hydrogens   geom
_refine_ls_hydrogen_treatment    mixed
_refine_ls_extinction_method     none
_refine_ls_extinction_coef       ?
_refine_ls_number_reflns         9726
_refine_ls_number_parameters     577
_refine_ls_number_restraints     0
_refine_ls_R_factor_all          0.0531
_refine_ls_R_factor_gt           0.0438
_refine_ls_wR_factor_ref         0.1375
_refine_ls_wR_factor_gt          0.1212
_refine_ls_goodness_of_fit_ref   1.052
_refine_ls_restrained_S_all      1.052
_refine_ls_shift/su_max          0.006
_refine_ls_shift/su_mean         0.000

loop_
_atom_site_label
_atom_site_type_symbol
_atom_site_fract_x
_atom_site_fract_y
_atom_site_fract_z
_atom_site_U_iso_or_equiv
_atom_site_adp_type
_atom_site_occupancy
_atom_site_symmetry_multiplicity
_atom_site_calc_flag
_atom_site_refinement_flags
_atom_site_disorder_assembly
_atom_site_disorder_group
Ni1 Ni 0.5000 0.5000 1.0000 0.00969(9) Uani 1 2 d S . .
Ni2 Ni 0.0000 -0.5000 0.0000 0.00932(9) Uani 1 2 d S . .
O3 O 0.38299(11) 0.54979(10) 0.92028(7) 0.0126(2) Uani 1 1 d . . .
O4 O 0.52714(12) 0.65865(12) 0.87098(8) 0.0190(3) Uani 1 1 d . . .
O5 O 0.34131(11) 0.40453(10) 1.02610(7) 0.0135(2) Uani 1 1 d . . .
H5B H 0.3620 0.3712 1.0604 0.020 Uiso 1 1 d R . .
H5C H 0.2906 0.4485 1.0473 0.020 Uiso 1 1 d R . .
O6 O -0.15827(11) -0.60432(10) 0.02038(7) 0.0132(2) Uani 1 1 d . . .
H6B H -0.1382 -0.6358 0.0560 0.020 Uiso 1 1 d R . .
H6C H -0.2136 -0.5640 0.0386 0.020 Uiso 1 1 d R . .
O1 O 0.02108(12) -0.33452(12) -0.12371(8) 0.0190(3) Uani 1 1 d . . .
O2 O -0.11648(11) -0.46017(10) -0.08466(7) 0.0125(2) Uani 1 1 d . . .
O20 O -0.39337(16) -0.28083(13) -0.40300(10) 0.0337(4) Uani 1 1 d . . .
O22 O 0.16557(14) 0.70731(12) 0.55744(9) 0.0277(3) Uani 1 1 d . . .
N1 N -0.02318(14) -0.35740(12) 0.09863(9) 0.0124(3) Uani 1 1 d . . .
C3 C -0.08653(18) -0.20238(16) 0.18160(12) 0.0194(4) Uani 1 1 d . . .
H3 H -0.1320 -0.1442 0.2027 0.023 Uiso 1 1 calc R . .
N3 N 0.51337(14) 0.35955(12) 0.89803(9) 0.0125(3) Uani 1 1 d . . .
C16 C 0.57830(17) 0.21329(16) 0.80526(11) 0.0174(4) Uani 1 1 d . . .
H16 H 0.6246 0.1575 0.7798 0.021 Uiso 1 1 calc R . .
N2 N 0.02018(14) -0.22018(13) 0.21957(9) 0.0149(3) Uani 1 1 d . . .
C21 C 0.21524(17) 0.50642(15) 0.77768(11) 0.0152(3) Uani 1 1 d . . .
H21 H 0.1882 0.4732 0.8180 0.018 Uiso 1 1 calc R . .
N4 N 0.46948(14) 0.23455(13) 0.77180(9) 0.0142(3) Uani 1 1 d . . .
C30 C -0.07983(16) -0.40393(15) -0.13458(11) 0.0132(3) Uani 1 1 d . . .
C37 C -0.41207(18) -0.48055(17) -0.43108(11) 0.0193(4) Uani 1 1 d . . .
C18 C 0.43434(17) 0.32310(15) 0.83050(11) 0.0144(3) Uani 1 1 d . . .
H18 H 0.3635 0.3541 0.8239 0.017 Uiso 1 1 calc R . .
C17 C 0.60338(17) 0.29048(15) 0.88257(11) 0.0161(4) Uani 1 1 d . . .
H17 H 0.6712 0.2961 0.9198 0.019 Uiso 1 1 calc R . .
C26 C 0.08792(18) 0.51879(17) 0.57004(11) 0.0190(4) Uani 1 1 d . . .
C27 C 0.00228(18) 0.41598(17) 0.53664(12) 0.0207(4) Uani 1 1 d . . .
H27 H 0.0030 0.3580 0.5608 0.025 Uiso 1 1 calc R . .
C13 C 0.40339(18) 0.17266(15) 0.69235(11) 0.0169(4) Uani 1 1 d . . .
C4 C 0.08244(18) -0.15271(16) 0.29902(11) 0.0170(4) Uani 1 1 d . . .
C28 C 0.08346(19) 0.60311(17) 0.53076(12) 0.0207(4) Uani 1 1 d . . .
C1 C -0.11133(17) -0.28669(16) 0.10768(11) 0.0163(4) Uani 1 1 d . . .
H1 H -0.1780 -0.2958 0.0686 0.020 Uiso 1 1 calc R . .
C36 C -0.32441(18) -0.46262(17) -0.35684(11) 0.0180(4) Uani 1 1 d . . .
C22 C 0.13570(17) 0.48908(16) 0.70709(11) 0.0164(4) Uani 1 1 d . . .
H22 H 0.0554 0.4457 0.7013 0.020 Uiso 1 1 calc R . .
C10 C 0.27148(19) 0.04620(16) 0.53766(11) 0.0194(4) Uani 1 1 d . . .
C24 C 0.29634(19) 0.5989(2) 0.65466(13) 0.0249(4) Uani 1 1 d . . .
H24 H 0.3250 0.6286 0.6129 0.030 Uiso 1 1 calc R . .
C34 C -0.35335(18) -0.52609(16) -0.30230(11) 0.0177(4) Uani 1 1 d . . .
H34 H -0.4261 -0.5816 -0.3140 0.021 Uiso 1 1 calc R . .
C35 C -0.21254(19) -0.38093(19) -0.33794(13) 0.0246(4) Uani 1 1 d . . .
H35 H -0.1908 -0.3380 -0.3736 0.030 Uiso 1 1 calc R . .
C20 C 0.33485(17) 0.57281(15) 0.78878(11) 0.0140(3) Uani 1 1 d . . .
C7 C 0.20405(19) -0.02249(16) 0.45527(11) 0.0198(4) Uani 1 1 d . . .
C23 C 0.17462(18) 0.53599(17) 0.64462(11) 0.0180(4) Uani 1 1 d . . .
C31 C -0.16547(17) -0.42627(15) -0.21208(11) 0.0141(3) Uani 1 1 d . . .
C25 C 0.37528(18) 0.61797(18) 0.72555(12) 0.0221(4) Uani 1 1 d . . .
H25 H 0.4557 0.6610 0.7313 0.027 Uiso 1 1 calc R . .
C32 C -0.27518(17) -0.50781(15) -0.23063(11) 0.0156(4) Uani 1 1 d . . .
H32 H -0.2966 -0.5506 -0.1949 0.019 Uiso 1 1 calc R . .
C12 C 0.4365(3) 0.0732(2) 0.64532(16) 0.0523(9) Uani 1 1 d . . .
H12 H 0.5033 0.0466 0.6647 0.063 Uiso 1 1 calc R . .
C6 C 0.2022(2) -0.14069(17) 0.42389(12) 0.0265(5) Uani 1 1 d . . .
H6A H 0.2418 -0.1766 0.4558 0.032 Uiso 1 1 calc R . .
C33 C -0.13457(18) -0.36359(18) -0.26720(12) 0.0212(4) Uani 1 1 d . . .
H33 H -0.0606 -0.3096 -0.2560 0.025 Uiso 1 1 calc R . .
C15 C 0.2404(2) 0.1475(2) 0.58545(14) 0.0429(7) Uani 1 1 d . . .
H15 H 0.1738 0.1742 0.5661 0.051 Uiso 1 1 calc R . .
C38 C -0.46873(19) -0.59110(18) -0.47829(12) 0.0214(4) Uani 1 1 d . . .
H38 H -0.4482 -0.6531 -0.4641 0.026 Uiso 1 1 calc R . .
C39 C -0.44453(19) -0.38830(18) -0.45363(12) 0.0224(4) Uani 1 1 d . . .
C11 C 0.3714(3) 0.0114(2) 0.56886(15) 0.0494(8) Uani 1 1 d . . .
H11 H 0.3962 -0.0558 0.5376 0.059 Uiso 1 1 calc R . .
C5 C 0.1428(2) -0.20500(16) 0.34659(12) 0.0233(4) Uani 1 1 d . . .
H5A H 0.1433 -0.2833 0.3265 0.028 Uiso 1 1 calc R . .
C19 C 0.42212(16) 0.59643(15) 0.86557(11) 0.0132(3) Uani 1 1 d . . .
C8 C 0.1434(2) 0.02826(18) 0.40588(13) 0.0300(5) Uani 1 1 d . . .
H8 H 0.1435 0.1068 0.4254 0.036 Uiso 1 1 calc R . .
C14 C 0.3058(2) 0.2110(2) 0.66179(14) 0.0414(7) Uani 1 1 d . . .
H14 H 0.2834 0.2798 0.6923 0.050 Uiso 1 1 calc R . .
C2 C 0.05466(17) -0.31492(15) 0.16673(11) 0.0138(3) Uani 1 1 d . . .
H2 H 0.1240 -0.3456 0.1773 0.017 Uiso 1 1 calc R . .
C9 C 0.0827(2) -0.03577(17) 0.32805(13) 0.0290(5) Uani 1 1 d . . .
H9 H 0.0428 -0.0005 0.2959 0.035 Uiso 1 1 calc R . .
C40 C -0.4510(2) -0.18846(19) -0.40802(15) 0.0342(5) Uani 1 1 d . . .
H40A H -0.4398 -0.1769 -0.4612 0.051 Uiso 1 1 calc R . .
H40B H -0.4132 -0.1199 -0.3645 0.051 Uiso 1 1 calc R . .
H40C H -0.5392 -0.2059 -0.4018 0.051 Uiso 1 1 calc R . .
C29 C 0.1266(3) 0.7887(2) 0.62356(19) 0.0574(8) Uani 1 1 d . . .
H29A H 0.0547 0.8132 0.6045 0.086 Uiso 1 1 calc R . .
H29B H 0.1935 0.8536 0.6450 0.086 Uiso 1 1 calc R . .
H29C H 0.1047 0.7555 0.6668 0.086 Uiso 1 1 calc R . .
O8 O 0.8746(2) 0.04922(16) 0.19534(12) 0.0451(5) Uani 1 1 d . . .
N5 N 0.7068(2) 0.06150(17) 0.11610(15) 0.0369(5) Uani 1 1 d . . .
C45 C 0.6312(3) -0.0473(3) 0.1156(3) 0.0734(12) Uani 1 1 d . . .
H45A H 0.6748 -0.0803 0.1502 0.110 Uiso 1 1 calc R . .
H45B H 0.6173 -0.0990 0.0596 0.110 Uiso 1 1 calc R . .
H45C H 0.5519 -0.0342 0.1366 0.110 Uiso 1 1 calc R . .
C44 C 0.6493(3) 0.1267(2) 0.07193(18) 0.0407(6) Uani 1 1 d . . .
H44A H 0.7057 0.1972 0.0772 0.061 Uiso 1 1 calc R . .
H44B H 0.5724 0.1436 0.0952 0.061 Uiso 1 1 calc R . .
H44C H 0.6317 0.0826 0.0141 0.061 Uiso 1 1 calc R . .
C46 C 0.8207(2) 0.09956(19) 0.15659(15) 0.0332(5) Uani 1 1 d . . .
H46 H 0.8631 0.1704 0.1554 0.040 Uiso 1 1 calc R . .
O7 O 0.3438(2) 0.02518(18) 0.21120(14) 0.0594(6) Uani 1 1 d . . .
N6 N 0.21757(19) 0.05477(16) 0.11302(14) 0.0324(4) Uani 1 1 d . . .
C41 C 0.1796(3) 0.1359(2) 0.07447(19) 0.0447(6) Uani 1 1 d . . .
H41A H 0.0994 0.1525 0.0918 0.067 Uiso 1 1 calc R . .
H41B H 0.1734 0.1030 0.0149 0.067 Uiso 1 1 calc R . .
H41C H 0.2409 0.2055 0.0912 0.067 Uiso 1 1 calc R . .
C42 C 0.1382(3) -0.0581(2) 0.0895(2) 0.0447(6) Uani 1 1 d . . .
H42A H 0.1736 -0.1057 0.1161 0.067 Uiso 1 1 calc R . .
H42B H 0.1330 -0.0923 0.0302 0.067 Uiso 1 1 calc R . .
H42C H 0.0556 -0.0508 0.1068 0.067 Uiso 1 1 calc R . .
C43 C 0.3105(2) 0.0868(2) 0.17306(18) 0.0408(6) Uani 1 1 d . . .
H43 H 0.3540 0.1620 0.1874 0.049 Uiso 1 1 calc R . .

loop_
_atom_site_aniso_label
_atom_site_aniso_U_11
_atom_site_aniso_U_22
_atom_site_aniso_U_33
_atom_site_aniso_U_23
_atom_site_aniso_U_13
_atom_site_aniso_U_12
Ni1 0.01125(16) 0.01078(16) 0.00582(15) 0.00034(11) -0.00150(11) 0.00334(11)
Ni2 0.01141(16) 0.01004(16) 0.00562(15) 0.00061(11) -0.00115(11) 0.00335(11)
O3 0.0139(6) 0.0162(6) 0.0085(6) 0.0035(5) 0.0002(4) 0.0060(5)
O4 0.0157(6) 0.0223(7) 0.0204(7) 0.0109(5) -0.0044(5) 0.0006(5)
O5 0.0137(6) 0.0151(6) 0.0118(6) 0.0037(5) -0.0006(5) 0.0044(5)
O6 0.0137(6) 0.0144(6) 0.0119(6) 0.0035(5) -0.0003(5) 0.0049(5)
O1 0.0173(6) 0.0206(7) 0.0207(7) 0.0108(5) -0.0047(5) 0.0007(5)
O2 0.0143(6) 0.0152(6) 0.0087(6) 0.0037(5) -0.0006(4) 0.0049(5)
O20 0.0429(9) 0.0260(8) 0.0295(8) 0.0056(6) -0.0180(7) 0.0090(7)
O22 0.0314(8) 0.0264(8) 0.0238(8) 0.0098(6) -0.0077(6) -0.0008(6)
N1 0.0138(7) 0.0131(7) 0.0091(7) 0.0014(5) 0.0009(5) 0.0031(6)
C3 0.0186(9) 0.0186(9) 0.0177(9) -0.0015(7) -0.0028(7) 0.0092(7)
N3 0.0146(7) 0.0122(7) 0.0087(7) 0.0002(5) -0.0008(5) 0.0028(5)
C16 0.0175(9) 0.0170(9) 0.0148(9) -0.0008(7) -0.0029(7) 0.0068(7)
N2 0.0172(7) 0.0141(7) 0.0104(7) -0.0015(6) -0.0024(6) 0.0049(6)
C21 0.0184(9) 0.0170(8) 0.0118(8) 0.0061(7) 0.0006(7) 0.0044(7)
N4 0.0180(7) 0.0123(7) 0.0095(7) -0.0015(5) -0.0018(6) 0.0045(6)
C30 0.0154(8) 0.0140(8) 0.0110(8) 0.0027(6) -0.0001(6) 0.0078(7)
C37 0.0202(9) 0.0283(10) 0.0116(9) 0.0077(7) -0.0008(7) 0.0084(8)
C18 0.0167(8) 0.0133(8) 0.0114(8) 0.0004(6) -0.0012(6) 0.0046(7)
C17 0.0179(9) 0.0147(8) 0.0143(8) 0.0017(7) -0.0019(7) 0.0051(7)
C26 0.0176(9) 0.0287(10) 0.0120(9) 0.0080(7) -0.0011(7) 0.0053(8)
C27 0.0249(10) 0.0249(10) 0.0136(9) 0.0084(7) -0.0035(7) 0.0042(8)
C13 0.0217(9) 0.0153(8) 0.0098(8) -0.0007(6) -0.0033(7) 0.0024(7)
C4 0.0201(9) 0.0173(9) 0.0088(8) -0.0026(7) -0.0019(7) 0.0034(7)
C28 0.0218(9) 0.0251(10) 0.0156(9) 0.0079(7) -0.0021(7) 0.0031(8)
C1 0.0177(8) 0.0171(9) 0.0126(8) 0.0012(7) -0.0018(7) 0.0068(7)
C36 0.0188(9) 0.0252(10) 0.0119(8) 0.0060(7) 0.0001(7) 0.0092(7)
C22 0.0167(8) 0.0191(9) 0.0134(8) 0.0056(7) -0.0016(7) 0.0030(7)
C10 0.0249(10) 0.0171(9) 0.0117(9) -0.0010(7) -0.0034(7) 0.0027(7)
C24 0.0207(10) 0.0414(12) 0.0174(10) 0.0181(9) 0.0002(8) 0.0021(9)
C34 0.0182(9) 0.0185(9) 0.0153(9) 0.0041(7) -0.0033(7) 0.0033(7)
C35 0.0231(10) 0.0367(12) 0.0212(10) 0.0196(9) -0.0001(8) 0.0059(9)
C20 0.0152(8) 0.0162(8) 0.0107(8) 0.0029(6) -0.0010(6) 0.0059(7)
C7 0.0278(10) 0.0175(9) 0.0096(8) -0.0022(7) -0.0031(7) 0.0045(8)
C23 0.0189(9) 0.0248(9) 0.0121(8) 0.0075(7) -0.0009(7) 0.0063(7)
C31 0.0152(8) 0.0175(8) 0.0118(8) 0.0056(7) 0.0001(6) 0.0071(7)
C25 0.0156(9) 0.0337(11) 0.0212(10) 0.0162(8) -0.0002(7) 0.0019(8)
C32 0.0199(9) 0.0170(9) 0.0112(8) 0.0050(7) -0.0005(7) 0.0056(7)
C12 0.0666(18) 0.0394(14) 0.0351(14) -0.0225(11) -0.0350(13) 0.0381(13)
C6 0.0441(13) 0.0175(9) 0.0151(9) 0.0032(7) -0.0089(9) 0.0037(9)
C33 0.0172(9) 0.0289(10) 0.0200(10) 0.0134(8) -0.0019(7) 0.0010(8)
C15 0.0466(14) 0.0467(15) 0.0243(11) -0.0150(10) -0.0199(10) 0.0320(12)
C38 0.0255(10) 0.0268(10) 0.0151(9) 0.0094(8) -0.0024(7) 0.0095(8)
C39 0.0258(10) 0.0257(10) 0.0153(9) 0.0053(7) -0.0038(8) 0.0071(8)
C11 0.0700(18) 0.0348(13) 0.0293(12) -0.0212(10) -0.0288(12) 0.0368(13)
C5 0.0366(11) 0.0127(8) 0.0161(9) 0.0005(7) -0.0072(8) 0.0014(8)
C19 0.0152(8) 0.0138(8) 0.0120(8) 0.0037(6) 0.0006(6) 0.0076(7)
C8 0.0438(13) 0.0175(9) 0.0218(10) -0.0061(8) -0.0128(9) 0.0131(9)
C14 0.0490(15) 0.0379(13) 0.0243(11) -0.0187(10) -0.0183(10) 0.0306(12)
C2 0.0164(8) 0.0126(8) 0.0105(8) 0.0001(6) -0.0004(6) 0.0044(6)
C9 0.0426(13) 0.0206(10) 0.0201(10) -0.0028(8) -0.0129(9) 0.0161(9)
C40 0.0389(13) 0.0263(11) 0.0396(13) 0.0149(10) -0.0044(10) 0.0046(10)
C29 0.0561(18) 0.0386(15) 0.0561(18) -0.0121(13) 0.0142(15) -0.0021(13)
O8 0.0600(12) 0.0371(10) 0.0435(11) 0.0122(8) 0.0047(9) 0.0248(9)
N5 0.0333(11) 0.0246(10) 0.0610(14) 0.0218(10) 0.0152(10) 0.0100(8)
C45 0.0388(16) 0.0501(18) 0.153(4) 0.066(2) 0.016(2) 0.0031(14)
C44 0.0395(14) 0.0333(13) 0.0568(17) 0.0195(12) 0.0097(12) 0.0160(11)
C46 0.0443(14) 0.0212(10) 0.0350(13) 0.0065(9) 0.0121(10) 0.0107(10)
O7 0.0714(15) 0.0427(11) 0.0628(14) 0.0044(10) -0.0104(11) 0.0327(11)
N6 0.0328(10) 0.0200(9) 0.0459(12) 0.0109(8) 0.0106(9) 0.0066(8)
C41 0.0521(16) 0.0318(13) 0.0565(17) 0.0183(12) 0.0103(13) 0.0154(12)
C42 0.043