####################################################################### 
# 
# This file contains crystal structure data downloaded from the 
# Cambridge Structural Database (CSD) hosted by the Cambridge 
# Crystallographic Data Centre (CCDC).
# 
# Full information about CCDC data access policies and citation 
# guidelines are available at http://www.ccdc.cam.ac.uk/access/V1 
# 
# Audit and citation data items may have been added by the CCDC. 
# Please retain this information to preserve the provenance of 
# this file and to allow appropriate attribution of the data. 
# 
#######################################################################

data_MFU4l_HCOO
_audit_block_doi                 10.5517/cc11ltm2
_database_code_depnum_ccdc_archive 'CCDC 971404'
loop_
_citation_id
_citation_doi
_citation_year
1 10.1002/anie.201310004 2014
_audit_update_record             
;
2013-11-11 deposited with the CCDC.	2024-07-10 downloaded from the CCDC.
;

_audit_creation_method           SHELXL-97

_chemical_name_systematic        
; ?
;
_chemical_name_common            ?
_chemical_formula_moiety         'C40 H16 N18 O14 Zn5'
_chemical_formula_sum            'C40 H16 N18 O14 Zn5'
_chemical_formula_weight         1299.6

_symmetry_cell_setting           cubic
_symmetry_space_group_name_H-M   'F m -3 m'
_symmetry_space_group_name_Hall  '-F 4 2 3'
_symmetry_Int_Tables_number      225

loop_
_symmetry_equiv_pos_site_id
_symmetry_equiv_pos_as_xyz
1 x,y,z
2 -x,-y,z
3 -x,y,-z
4 x,-y,-z
5 z,x,y
6 z,-x,-y
7 -z,-x,y
8 -z,x,-y
9 y,z,x
10 -y,z,-x
11 y,-z,-x
12 -y,-z,x
13 y,x,-z
14 -y,-x,-z
15 y,-x,z
16 -y,x,z
17 x,z,-y
18 -x,z,y
19 -x,-z,-y
20 x,-z,y
21 z,y,-x
22 z,-y,x
23 -z,y,x
24 -z,-y,-x
25 -x,-y,-z
26 x,y,-z
27 x,-y,z
28 -x,y,z
29 -z,-x,-y
30 -z,x,y
31 z,x,-y
32 z,-x,y
33 -y,-z,-x
34 y,-z,x
35 -y,z,x
36 y,z,-x
37 -y,-x,z
38 y,x,z
39 -y,x,-z
40 y,-x,-z
41 -x,-z,y
42 x,-z,-y
43 x,z,y
44 -x,z,-y
45 -z,-y,x
46 -z,y,-x
47 z,-y,-x
48 z,y,x
49 x,y+1/2,z+1/2
50 -x,-y+1/2,z+1/2
51 -x,y+1/2,-z+1/2
52 x,-y+1/2,-z+1/2
53 z,x+1/2,y+1/2
54 z,-x+1/2,-y+1/2
55 -z,-x+1/2,y+1/2
56 -z,x+1/2,-y+1/2
57 y,z+1/2,x+1/2
58 -y,z+1/2,-x+1/2
59 y,-z+1/2,-x+1/2
60 -y,-z+1/2,x+1/2
61 y,x+1/2,-z+1/2
62 -y,-x+1/2,-z+1/2
63 y,-x+1/2,z+1/2
64 -y,x+1/2,z+1/2
65 x,z+1/2,-y+1/2
66 -x,z+1/2,y+1/2
67 -x,-z+1/2,-y+1/2
68 x,-z+1/2,y+1/2
69 z,y+1/2,-x+1/2
70 z,-y+1/2,x+1/2
71 -z,y+1/2,x+1/2
72 -z,-y+1/2,-x+1/2
73 -x,-y+1/2,-z+1/2
74 x,y+1/2,-z+1/2
75 x,-y+1/2,z+1/2
76 -x,y+1/2,z+1/2
77 -z,-x+1/2,-y+1/2
78 -z,x+1/2,y+1/2
79 z,x+1/2,-y+1/2
80 z,-x+1/2,y+1/2
81 -y,-z+1/2,-x+1/2
82 y,-z+1/2,x+1/2
83 -y,z+1/2,x+1/2
84 y,z+1/2,-x+1/2
85 -y,-x+1/2,z+1/2
86 y,x+1/2,z+1/2
87 -y,x+1/2,-z+1/2
88 y,-x+1/2,-z+1/2
89 -x,-z+1/2,y+1/2
90 x,-z+1/2,-y+1/2
91 x,z+1/2,y+1/2
92 -x,z+1/2,-y+1/2
93 -z,-y+1/2,x+1/2
94 -z,y+1/2,-x+1/2
95 z,-y+1/2,-x+1/2
96 z,y+1/2,x+1/2
97 x+1/2,y,z+1/2
98 -x+1/2,-y,z+1/2
99 -x+1/2,y,-z+1/2
100 x+1/2,-y,-z+1/2
101 z+1/2,x,y+1/2
102 z+1/2,-x,-y+1/2
103 -z+1/2,-x,y+1/2
104 -z+1/2,x,-y+1/2
105 y+1/2,z,x+1/2
106 -y+1/2,z,-x+1/2
107 y+1/2,-z,-x+1/2
108 -y+1/2,-z,x+1/2
109 y+1/2,x,-z+1/2
110 -y+1/2,-x,-z+1/2
111 y+1/2,-x,z+1/2
112 -y+1/2,x,z+1/2
113 x+1/2,z,-y+1/2
114 -x+1/2,z,y+1/2
115 -x+1/2,-z,-y+1/2
116 x+1/2,-z,y+1/2
117 z+1/2,y,-x+1/2
118 z+1/2,-y,x+1/2
119 -z+1/2,y,x+1/2
120 -z+1/2,-y,-x+1/2
121 -x+1/2,-y,-z+1/2
122 x+1/2,y,-z+1/2
123 x+1/2,-y,z+1/2
124 -x+1/2,y,z+1/2
125 -z+1/2,-x,-y+1/2
126 -z+1/2,x,y+1/2
127 z+1/2,x,-y+1/2
128 z+1/2,-x,y+1/2
129 -y+1/2,-z,-x+1/2
130 y+1/2,-z,x+1/2
131 -y+1/2,z,x+1/2
132 y+1/2,z,-x+1/2
133 -y+1/2,-x,z+1/2
134 y+1/2,x,z+1/2
135 -y+1/2,x,-z+1/2
136 y+1/2,-x,-z+1/2
137 -x+1/2,-z,y+1/2
138 x+1/2,-z,-y+1/2
139 x+1/2,z,y+1/2
140 -x+1/2,z,-y+1/2
141 -z+1/2,-y,x+1/2
142 -z+1/2,y,-x+1/2
143 z+1/2,-y,-x+1/2
144 z+1/2,y,x+1/2
145 x+1/2,y+1/2,z
146 -x+1/2,-y+1/2,z
147 -x+1/2,y+1/2,-z
148 x+1/2,-y+1/2,-z
149 z+1/2,x+1/2,y
150 z+1/2,-x+1/2,-y
151 -z+1/2,-x+1/2,y
152 -z+1/2,x+1/2,-y
153 y+1/2,z+1/2,x
154 -y+1/2,z+1/2,-x
155 y+1/2,-z+1/2,-x
156 -y+1/2,-z+1/2,x
157 y+1/2,x+1/2,-z
158 -y+1/2,-x+1/2,-z
159 y+1/2,-x+1/2,z
160 -y+1/2,x+1/2,z
161 x+1/2,z+1/2,-y
162 -x+1/2,z+1/2,y
163 -x+1/2,-z+1/2,-y
164 x+1/2,-z+1/2,y
165 z+1/2,y+1/2,-x
166 z+1/2,-y+1/2,x
167 -z+1/2,y+1/2,x
168 -z+1/2,-y+1/2,-x
169 -x+1/2,-y+1/2,-z
170 x+1/2,y+1/2,-z
171 x+1/2,-y+1/2,z
172 -x+1/2,y+1/2,z
173 -z+1/2,-x+1/2,-y
174 -z+1/2,x+1/2,y
175 z+1/2,x+1/2,-y
176 z+1/2,-x+1/2,y
177 -y+1/2,-z+1/2,-x
178 y+1/2,-z+1/2,x
179 -y+1/2,z+1/2,x
180 y+1/2,z+1/2,-x
181 -y+1/2,-x+1/2,z
182 y+1/2,x+1/2,z
183 -y+1/2,x+1/2,-z
184 y+1/2,-x+1/2,-z
185 -x+1/2,-z+1/2,y
186 x+1/2,-z+1/2,-y
187 x+1/2,z+1/2,y
188 -x+1/2,z+1/2,-y
189 -z+1/2,-y+1/2,x
190 -z+1/2,y+1/2,-x
191 z+1/2,-y+1/2,-x
192 z+1/2,y+1/2,x

_cell_length_a                   31.025(3)
_cell_length_b                   31.025(3)
_cell_length_c                   31.025(3)
_cell_angle_alpha                90
_cell_angle_beta                 90
_cell_angle_gamma                90
_cell_volume                     29862(3)
_cell_formula_units_Z            8
_cell_measurement_temperature    293(2)
_cell_special_details            
; ?
;
_exptl_crystal_description       'microcrystalline powder'
_exptl_crystal_colour            yellow
_exptl_crystal_density_diffrn    0.5779
_exptl_crystal_density_meas      ?
_exptl_crystal_density_method    'not measured'
_exptl_crystal_F_000             5152
_exptl_absorpt_coefficient_mu    1.137
_exptl_absorpt_correction_type   ?
_exptl_absorpt_process_details   ?
_exptl_absorpt_correction_T_min  ?
_exptl_absorpt_correction_T_max  ?

_exptl_special_details           ?

_diffrn_ambient_temperature      293(2)
_diffrn_source                   X-ray
_diffrn_source_target            Cu
_diffrn_source_type              'fine-focus sealed tube'
_diffrn_radiation_type           'Cu K\a'
_diffrn_radiation_wavelength     1.5418
_diffrn_radiation_monochromator  none
_diffrn_measurement_device       Seifert
_diffrn_measurement_device_type  'XRD 3003 TT'
_diffrn_detector                 Meteor
_diffrn_detector_type            1D

_pd_meas_scan_method             ?
_pd_meas_special_details         
; ?
;
_pd_meas_number_of_points        4350
_pd_meas_2theta_range_min        3.020
_pd_meas_2theta_range_max        90.000
_pd_meas_2theta_range_inc        0.02

_pd_proc_ls_special_details      
; ?
;
_pd_proc_ls_profile_function     Pseudo-Voigt
_pd_proc_ls_background_function  '36 Chebyshev polynoms'
_pd_proc_ls_pref_orient_corr     none
_pd_proc_ls_prof_R_factor        0.1411
_pd_proc_ls_prof_wR_factor       0.1414
_pd_proc_ls_prof_wR_expected     0.0075

_refine_special_details          
; ?
;
_refine_ls_R_factor_gt           0.0995
_refine_ls_wR_factor_gt          0.1234
_refine_ls_R_factor_all          0.0995
_refine_ls_wR_factor_all         0.1234
_refine_ls_goodness_of_fit_all   4.41
_refine_ls_restrained_S_gt       ?
_refine_ls_restrained_S_all      ?
_refine_ls_number_parameters     40
_refine_ls_number_restraints     0
_refine_ls_number_constraints    0
_refine_ls_weighting_scheme      sigma
_refine_ls_weighting_details     ?
_refine_ls_hydrogen_treatment    noref
_refine_ls_shift/su_max          0.0017
_refine_ls_shift/su_mean         0.0007
_refine_diff_density_max         ?
_refine_diff_density_min         ?
_refine_ls_extinction_method     ?
_refine_ls_extinction_coef       ?

_pd_proc_2theta_range_min        3.02
_pd_proc_2theta_range_max        90
_pd_proc_2theta_range_inc        0.02

loop_
_atom_type_symbol
_atom_type_scat_dispersion_real
_atom_type_scat_dispersion_imag
_atom_type_scat_source
C 0.0181 0.0091 'International Tables Vol C tables 4.2.6.8 and 6.1.1.1'
H 0.0000 0.0000 'International Tables Vol C tables 4.2.6.8 and 6.1.1.1'
N 0.0311 0.0180 'International Tables Vol C tables 4.2.6.8 and 6.1.1.1'
O 0.0492 0.0322 'International Tables Vol C tables 4.2.6.8 and 6.1.1.1'
Zn -1.5491 0.6778 'International Tables Vol C tables 4.2.6.8 and 6.1.1.1'

_computing_data_collection       'Diffractometer software'
_computing_cell_refinement       Jana2006
_computing_data_reduction        ?
_computing_structure_solution    ?
_computing_structure_refinement  Jana2006
_computing_molecular_graphics    'DIAMOND 3.0'
_computing_publication_material  Word


loop_
_atom_site_label
_atom_site_type_symbol
_atom_site_fract_x
_atom_site_fract_y
_atom_site_fract_z
_atom_site_adp_type
_atom_site_U_iso_or_equiv
_atom_site_symmetry_multiplicity
_atom_site_occupancy
_atom_site_calc_flag
_atom_site_refinement_flags
_atom_site_disorder_assembly
_atom_site_disorder_group
N1 N 0.3376(4) 0.27432(10) 0.225679 Uiso 0.026(10) 96 1 d . . .
C1 C 0.3808(2) 0.2663(4) 0.233696 Uiso 0.027(10) 96 1 d . . .
N2 N 0.3126(6) 0.25 0.25 Uiso 0.026(10) 48 1 d . . .
C2 C 0.4205(2) 0.2791(4) 0.220947 Uiso 0.027(10) 96 1 d . . .
C3 C 0.4617(3) 0.2660(3) 0.23397 Uiso 0.027(10) 96 1 d . . .
O1 O 0.5 0.2826(4) 0.217374 Uiso 0.027(10) 48 1 d . . .
Zn1 Zn 0.25 0.25 0.25 Uiso 0.03(2) 8 1 d . . .
O2 O 0.35610(10) 0.35610(10) 0.1985(3) Uiso 0.027(10) 96 0.6667 d . . .
Zn2 Zn 0.3151(2) 0.3151(2) 0.184938 Uiso 0.03(2) 32 1 d . . .
C4 C 0.3523(3) 0.3523(3) 0.147677 Uiso 0.027(10) 32 1 d . . .
H2 H 0.420468 0.300249 0.199751 Uiso 0.038 96 1 d . . .
H4 H 0.37056 0.37056 0.12944 Uiso 0.038 32 1 d . . .

loop_
_geom_bond_atom_site_label_1
_geom_bond_atom_site_label_2
_geom_bond_site_symmetry_1
_geom_bond_site_symmetry_2
_geom_bond_distance
_geom_bond_publ_flag
N1 C1 . . 1.386(14) ?
N1 N2 . . 1.319(13) ?
N1 Zn2 . . 1.920(7) ?
C1 C1 . 52_555 1.431(12) ?
C1 C2 . . 1.353(9) ?
N2 Zn1 . . 1.942(19) ?
C2 C3 . . 1.398(11) ?
C2 H2 . . 0.930(9) ?
C3 C3 . 52_555 1.407(9) ?
C3 O1 . . 1.394(10) ?
O2 Zn2 . . 1.849(7) ?
Zn2 C4 . . 2.002(9) ?

loop_
_geom_angle_atom_site_label_1
_geom_angle_atom_site_label_2
_geom_angle_atom_site_label_3
_geom_angle_site_symmetry_1
_geom_angle_site_symmetry_2
_geom_angle_site_symmetry_3
_geom_angle
_geom_angle_publ_flag
C1 N1 N2 . . . 111.3(8) ?
C1 N1 Zn2 . . . 126.1(6) ?
N2 N1 Zn2 . . . 122.6(10) ?
N1 C1 C1 . . 52_555 104.7(6) ?
N1 C1 C2 . . . 140.9(8) ?
C1 C1 C2 52_555 . . 114.4(7) ?
N1 N2 N1 . . 52_555 108.0(14) ?
N1 N2 Zn1 . . . 126.0(8) ?
N1 N2 Zn1 52_555 . . 126.0(8) ?
C1 C2 C3 . . . 131.5(8) ?
C1 C2 H2 . . . 114.3(7) ?
C3 C2 H2 . . . 114.3(7) ?
C2 C3 C3 . . 52_555 114.1(8) ?
C2 C3 O1 . . . 124.4(7) ?
C3 C3 O1 52_555 . . 121.5(8) ?
C3 O1 C3 . . 67_655 117.0(8) ?
N2 Zn1 N2 . . 146_555 180.0(5) ?
N2 Zn1 N2 . . 5_555 90 ?
N2 Zn1 N2 . . 54_555 90 ?
N2 Zn1 N2 . . 9_555 90 ?
N2 Zn1 N2 . . 106_555 90 ?
N2 Zn1 N2 146_555 . 5_555 90 ?
N2 Zn1 N2 146_555 . 54_555 90 ?
N2 Zn1 N2 146_555 . 9_555 90 ?
N2 Zn1 N2 146_555 . 106_555 90 ?
N2 Zn1 N2 5_555 . 54_555 180.0(5) ?
N2 Zn1 N2 5_555 . 9_555 90 ?
N2 Zn1 N2 5_555 . 106_555 90 ?
N2 Zn1 N2 54_555 . 9_555 90 ?
N2 Zn1 N2 54_555 . 106_555 90 ?
N2 Zn1 N2 9_555 . 106_555 180.0(5) ?
N1 Zn2 N1 . . 104_555 92.7(4) ?
N1 Zn2 N1 . . 59_555 92.7(4) ?
N1 Zn2 O2 . . . 93.0(4) ?
N1 Zn2 O2 . . 104_555 171.8(6) ?
N1 Zn2 O2 . . 59_555 93.0(4) ?
N1 Zn2 C4 . . . 123.4(5) ?
N1 Zn2 N1 104_555 . 59_555 92.7(4) ?
N1 Zn2 O2 104_555 . . 93.0(4) ?
N1 Zn2 O2 104_555 . 104_555 93.0(4) ?
N1 Zn2 O2 104_555 . 59_555 171.8(6) ?
N1 Zn2 C4 104_555 . . 123.4(5) ?
N1 Zn2 O2 59_555 . . 171.8(5) ?
N1 Zn2 O2 59_555 . 104_555 93.0(4) ?
N1 Zn2 O2 59_555 . 59_555 93.0(4) ?
N1 Zn2 C4 59_555 . . 123.4(4) ?
O2 Zn2 O2 . . 104_555 80.8(4) ?
O2 Zn2 O2 . . 59_555 80.8(4) ?
O2 Zn2 C4 . . . 48.4(4) ?
O2 Zn2 O2 104_555 . 59_555 80.8(3) ?
O2 Zn2 C4 104_555 . . 48.4(4) ?
O2 Zn2 C4 59_555 . . 48.4(4) ?
Zn2 C4 H4 . . . 180.0(5) ?
#END



