
#######################################################################
#
#                 Cambridge Crystallographic Data Centre
#                                CCDC
#
#######################################################################
#
# If this CIF has been generated from an entry in the Cambridge
# Structural Database, then it will include bibliographic, chemical,
# crystal, experimental, refinement or atomic coordinate data resulting
# from the CCDC's data processing and validation procedures.
#
#######################################################################

data_CSD_CIF_JOJROP
_audit_creation_date 1992-08-18
_audit_creation_method CSD-ConQuest-V1
_database_code_CSD JOJROP
_database_code_depnum_ccdc_archive 'CCDC 1188475'
_database_code_depnum_ccdc_fiz 'CSD 55295'
_chemical_formula_sum 'C8 H16 Cl1 Li1 O4'
_chemical_formula_moiety
;
C8 H16 Cl1 Li1 O4
;
_journal_coden_Cambridge 29
_journal_volume 606
_journal_year 1991
_journal_page_first 91
_journal_name_full 'Z.Anorg.Allg.Chem. '
loop_
_publ_author_name
"F.Gingl"
"W.Hiller"
"J.Strahle"
"H.Borgholte"
"K.Dehnicke"
_chemical_name_systematic
;
(12-Crown-4)-chloro-lithium
;
_chemical_name_common
;
Teaching Subset: Fundamental Chemistry, Symmetry
;
_cell_volume    527.835
_exptl_crystal_colour 'colorless'
_exptl_crystal_density_diffrn 1.375
_exptl_special_details
;
CSD 55295 contains no further information

;
_diffrn_ambient_temperature 223.15
#These two values have been output from a single CSD field.
_refine_ls_R_factor_gt 0.034
_refine_ls_wR_factor_gt 0.034
_symmetry_cell_setting tetragonal
_symmetry_space_group_name_H-M 'P 4/n'
_symmetry_Int_Tables_number 85
loop_
_symmetry_equiv_pos_site_id
_symmetry_equiv_pos_as_xyz
1 x,y,z
2 1/2-y,x,z
3 1/2-x,1/2-y,z
4 y,1/2-x,z
5 -x,-y,-z
6 -1/2+y,-x,-z
7 -1/2+x,-1/2+y,-z
8 -y,-1/2+x,-z
_cell_length_a 8.378(5)
_cell_length_b 8.378(5)
_cell_length_c 7.520(2)
_cell_angle_alpha 90
_cell_angle_beta 90
_cell_angle_gamma 90
_cell_formula_units_Z 2
loop_
_atom_type_symbol
_atom_type_radius_bond
C 0.68
H 0.23
Cl 0.99
Li 1.18
O 0.68
loop_
_atom_site_label
_atom_site_type_symbol
_atom_site_fract_x
_atom_site_fract_y
_atom_site_fract_z
Li1 Li 0.25000 0.25000 -0.0357(5)
Cl1 Cl 0.25000 0.25000 0.26887(7)
O1 O 0.2104(1) 0.0249(1) -0.1592(1)
C1 C 0.0930(2) 0.0374(2) -0.2954(2)
C2 C 0.3586(2) -0.0395(2) -0.2206(2)
H1 H 0.05130 -0.06610 -0.32940
H2 H 0.13460 0.08640 -0.40070
H3 H 0.34380 -0.11830 -0.31040
H4 H 0.41820 -0.08750 -0.12470
O1A O 0.4751(1) 0.2104(1) -0.1592(1)
O1B O 0.2896(1) 0.4751(1) -0.1592(1)
O1C O 0.0249(1) 0.2896(1) -0.1592(1)
C2C C -0.0395(2) 0.1414(2) -0.2206(2)
C1A C 0.4626(2) 0.0930(2) -0.2954(2)
C2A C 0.5395(2) 0.3586(2) -0.2206(2)
C1B C 0.4070(2) 0.4626(2) -0.2954(2)
C2B C 0.1414(2) 0.5395(2) -0.2206(2)
C1C C 0.0374(2) 0.4070(2) -0.2954(2)
H3C H -0.11830 0.15620 -0.31040
H4C H -0.08750 0.08180 -0.12470
H1A H 0.56610 0.05130 -0.32940
H2A H 0.41360 0.13460 -0.40070
H3A H 0.61830 0.34380 -0.31040
H4A H 0.58750 0.41820 -0.12470
H1B H 0.44870 0.56610 -0.32940
H2B H 0.36540 0.41360 -0.40070
H3B H 0.15620 0.61830 -0.31040
H4B H 0.08180 0.58750 -0.12470
H1C H -0.06610 0.44870 -0.32940
H2C H 0.08640 0.36540 -0.40070
#END
