####################################################################### 
# 
# This file contains crystal structure data downloaded from the 
# Cambridge Structural Database (CSD) hosted by the Cambridge 
# Crystallographic Data Centre (CCDC).
# 
# Full information about CCDC data access policies and citation 
# guidelines are available at http://www.ccdc.cam.ac.uk/access/V1 
# 
# Audit and citation data items may have been added by the CCDC. 
# Please retain this information to preserve the provenance of 
# this file and to allow appropriate attribution of the data. 
# 
#######################################################################

data_CompoundII
_audit_block_doi                 10.5517/cc13hy1l
_database_code_depnum_ccdc_archive 'CCDC 1028209'
loop_
_citation_id
_citation_doi
_citation_year
1 10.1107/S2053229614022256 2014
_audit_update_record             
;
2014-10-08 deposited with the CCDC.	2024-07-10 downloaded from the CCDC.
;
_publcif_datablock.id            {c312b074-26c5-4d6e-8562-71c4c43a8bf5}

_vrf_PLAT901_CompoundII          
;
PROBLEM: Cell Parameters in CIF and FCF do not Match ....          ! Error
RESPONSE: Cell parameters do match. The rounding errors upon output of the 
CIF alter the values. 
;
# end Validation Reply Form 

# Additional Reference:  
# Brennan,S.Cowan,P.L.(1992).<i>Rev.Sci.Instrum.</i> <b>63</b>,850-853.
# Spek, A. L. (2009). <i>Acta Cryst.</i> <b>D65</b>, 148-1-55.

_audit_creation_method           SHELXL-2014
_chemical_name_systematic        
;
 ?
;
_chemical_name_common            ?
_chemical_melting_point          ?
_chemical_formula_moiety         'C34 H28 Cd N2 O4 P2, C3 H7 N O'
_chemical_formula_sum            'C37 H35 Cd N3 O5 P2'
_chemical_formula_weight         776.02

loop_
_atom_type_symbol
_atom_type_description
_atom_type_scat_dispersion_real
_atom_type_scat_dispersion_imag
_atom_type_scat_source
C C 0.0040 0.0020 'Brennan & Cowan (1992)/PLATON (Spek, 2009)'
H H 0.0000 0.0000 'Brennan & Cowan (1992)/PLATON (Spek, 2009)'
N N 0.0076 0.0040 'Brennan & Cowan (1992)/PLATON (Spek, 2009)'
O O 0.0133 0.0073 'Brennan & Cowan (1992)/PLATON (Spek, 2009)'
P P 0.1184 0.1127 'Brennan & Cowan (1992)/PLATON (Spek, 2009)'
Cd Cd -0.6202 1.4076 'Brennan & Cowan (1992)/PLATON (Spek, 2009)'

_space_group_crystal_system      orthorhombic
_space_group_IT_number           29
_space_group_name_H-M_alt        'P c a 21'
_space_group_name_Hall           'P 2c -2ac'

_shelx_space_group_comment       
;
The symmetry employed for this shelxl refinement is uniquely defined
by the following loop, which should always be used as a source of
symmetry information in preference to the above space-group names.
They are only intended as comments.
;

loop_
_space_group_symop_operation_xyz
'x, y, z'
'-x, -y, z+1/2'
'x+1/2, -y, z'
'-x+1/2, y, z+1/2'

_cell_length_a                   23.695(2)
_cell_length_b                   12.8861(12)
_cell_length_c                   11.1594(10)
_cell_angle_alpha                90
_cell_angle_beta                 90
_cell_angle_gamma                90
_cell_volume                     3407.3(5)
_cell_formula_units_Z            4
_cell_measurement_temperature    150(2)
_cell_measurement_reflns_used    9937
_cell_measurement_theta_min      2.5462
_cell_measurement_theta_max      28.9061

_exptl_crystal_description       blade
_exptl_crystal_colour            pink-cyan
_exptl_crystal_density_meas      ?
_exptl_crystal_density_method    ?
_exptl_crystal_density_diffrn    1.513
_exptl_crystal_F_000             1584
_exptl_transmission_factor_min   ?
_exptl_transmission_factor_max   ?
_exptl_crystal_size_max          0.080
_exptl_crystal_size_mid          0.030
_exptl_crystal_size_min          0.010
_exptl_absorpt_coefficient_mu    0.974
_shelx_estimated_absorpt_T_min   0.926
_shelx_estimated_absorpt_T_max   0.990
_exptl_absorpt_correction_type   multi-scan
_exptl_absorpt_correction_T_min  0.93
_exptl_absorpt_correction_T_max  0.96
_exptl_absorpt_process_details   
; Blessing, R.H. (1995) Acta Cryst. A51, 33-38.

Sheldrick, G.M. (2008) SADABS, University of G\:ottingen, Germany
;

_exptl_special_details           
;
 ?
;

_diffrn_ambient_temperature      150(2)
_diffrn_radiation_wavelength     0.77490
_diffrn_radiation_type           synchrotron
_diffrn_radiation_source         synchrotron
_diffrn_radiation_monochromator  'Si-<111> channel cut crystal'
_diffrn_measurement_device_type  'Bruker APEXII'
_diffrn_measurement_method       'phi and omega scans'
_diffrn_detector_area_resol_mean 8.33
_diffrn_reflns_number            36812
_diffrn_reflns_av_unetI/netI     0.0612
_diffrn_reflns_av_R_equivalents  0.0807
_diffrn_reflns_limit_h_min       -29
_diffrn_reflns_limit_h_max       29
_diffrn_reflns_limit_k_min       -16
_diffrn_reflns_limit_k_max       16
_diffrn_reflns_limit_l_min       -13
_diffrn_reflns_limit_l_max       13
_diffrn_reflns_theta_min         1.961
_diffrn_reflns_theta_max         28.944
_diffrn_reflns_theta_full        27.706
_diffrn_measured_fraction_theta_max 0.997
_diffrn_measured_fraction_theta_full 0.998
_diffrn_reflns_Laue_measured_fraction_max 0.997
_diffrn_reflns_Laue_measured_fraction_full 0.998
_diffrn_reflns_point_group_measured_fraction_max 0.998
_diffrn_reflns_point_group_measured_fraction_full 0.998
_reflns_number_total             6924
_reflns_number_gt                6231
_reflns_threshold_expression     'I > 2\s(I)'
_reflns_Friedel_coverage         0.897
_reflns_Friedel_fraction_max     0.999
_reflns_Friedel_fraction_full    0.999

_reflns_special_details          
;
 Reflections were merged by SHELXL according to the crystal
 class for the calculation of statistics and refinement.
 
 _reflns_Friedel_fraction is defined as the number of unique
 Friedel pairs measured divided by the number that would be
 possible theoretically, ignoring centric projections and
 systematic absences.
;

_computing_data_collection       'Bruker APEX2 v2010.3.0'
_computing_cell_refinement       'Bruker SAINT v7.60A'
_computing_data_reduction        'Bruker SAINT v7.60A'
_computing_structure_solution    'Bruker SHELXTL v6.14'
_computing_structure_refinement  SHELXL-2014
_computing_molecular_graphics    'Bruker SHELXTL v6.14'
_computing_publication_material  'Bruker SHELXTL v6.14'

_refine_special_details          
;
Refined as a 2-component inversion twin.
;
_refine_ls_structure_factor_coef Fsqd
_refine_ls_matrix_type           full
_refine_ls_weighting_scheme      calc
_refine_ls_weighting_details     
'w=1/[\s^2^(Fo^2^)+(0.0325P)^2^+5.2727P] where P=(Fo^2^+2Fc^2^)/3'
_atom_sites_solution_primary     direct
_atom_sites_solution_secondary   difmap
_atom_sites_solution_hydrogens   geom
_refine_ls_hydrogen_treatment    constr
_refine_ls_extinction_method     none
_refine_ls_extinction_coef       .
_refine_ls_abs_structure_details 
;
 Refined as an inversion twin.
;
_refine_ls_abs_structure_Flack   0.30(4)
_chemical_absolute_configuration ad
_refine_ls_number_reflns         6924
_refine_ls_number_parameters     411
_refine_ls_number_restraints     1
_refine_ls_R_factor_all          0.0442
_refine_ls_R_factor_gt           0.0392
_refine_ls_wR_factor_ref         0.1058
_refine_ls_wR_factor_gt          0.1007
_refine_ls_goodness_of_fit_ref   1.035
_refine_ls_restrained_S_all      1.035
_refine_ls_shift/su_max          0.009
_refine_ls_shift/su_mean         0.001

loop_
_atom_site_label
_atom_site_type_symbol
_atom_site_fract_x
_atom_site_fract_y
_atom_site_fract_z
_atom_site_U_iso_or_equiv
_atom_site_adp_type
_atom_site_occupancy
_atom_site_site_symmetry_order
_atom_site_calc_flag
_atom_site_refinement_flags_posn
_atom_site_refinement_flags_adp
_atom_site_refinement_flags_occupancy
_atom_site_disorder_assembly
_atom_site_disorder_group
Cd1 Cd 0.26337(2) 0.00576(3) 0.49304(17) 0.01693(12) Uani 1 1 d . . . . .
P1 P 0.2550(2) -0.17052(11) 0.2486(2) 0.0181(5) Uani 1 1 d . . . . .
P2 P 0.2541(2) 0.18215(11) 0.7376(2) 0.0177(5) Uani 1 1 d . . . . .
O1 O 0.25947(19) -0.1405(3) 0.3791(5) 0.0214(10) Uani 1 1 d . . . . .
O2 O 0.22963(18) -0.0952(3) 0.1619(5) 0.0227(10) Uani 1 1 d . . . . .
O3 O 0.2575(2) 0.1516(3) 0.6086(5) 0.0226(10) Uani 1 1 d . . . . .
O4 O 0.22853(18) 0.1077(3) 0.8258(5) 0.0207(9) Uani 1 1 d . . . . .
N1 N 0.36474(17) 0.0043(4) 0.4958(18) 0.0202(9) Uani 1 1 d . . . . .
N2 N 0.66424(18) -0.0064(3) 0.4971(17) 0.0198(10) Uani 1 1 d . . . . .
C1 C 0.2154(3) -0.2908(5) 0.2380(7) 0.0252(15) Uani 1 1 d . . . . .
C2 C 0.2171(3) -0.3654(5) 0.3261(8) 0.0352(18) Uani 1 1 d . . . . .
H2 H 0.2385 -0.3530 0.3966 0.042 Uiso 1 1 calc R U . . .
C3 C 0.1880(4) -0.4586(6) 0.3138(9) 0.048(2) Uani 1 1 d . . . . .
H3 H 0.1893 -0.5087 0.3761 0.057 Uiso 1 1 calc R U . . .
C4 C 0.1580(6) -0.4778(9) 0.2137(16) 0.058(4) Uani 1 1 d . . . . .
H4 H 0.1390 -0.5422 0.2044 0.069 Uiso 1 1 calc R U . . .
C5 C 0.1548(4) -0.4021(7) 0.1228(10) 0.053(3) Uani 1 1 d . . . . .
H5 H 0.1321 -0.4143 0.0542 0.063 Uiso 1 1 calc R U . . .
C6 C 0.1845(3) -0.3106(6) 0.1328(8) 0.0351(18) Uani 1 1 d . . . . .
H6 H 0.1840 -0.2614 0.0694 0.042 Uiso 1 1 calc R U . . .
C7 C 0.3249(3) -0.2063(4) 0.1974(6) 0.0196(13) Uani 1 1 d . . . . .
C8 C 0.3342(3) -0.2304(5) 0.0780(7) 0.0249(14) Uani 1 1 d . . . . .
H8 H 0.3032 -0.2290 0.0239 0.030 Uiso 1 1 calc R U . . .
C9 C 0.3869(3) -0.2565(5) 0.0351(7) 0.0317(16) Uani 1 1 d . . . . .
H9 H 0.3924 -0.2738 -0.0468 0.038 Uiso 1 1 calc R U . . .
C10 C 0.4316(3) -0.2566(6) 0.1146(8) 0.0356(18) Uani 1 1 d . . . . .
H10 H 0.4684 -0.2730 0.0864 0.043 Uiso 1 1 calc R U . . .
C11 C 0.4235(3) -0.2330(6) 0.2368(8) 0.039(2) Uani 1 1 d . . . . .
H11 H 0.4545 -0.2331 0.2910 0.047 Uiso 1 1 calc R U . . .
C12 C 0.3706(3) -0.2099(5) 0.2756(7) 0.0263(15) Uani 1 1 d . . . . .
H12 H 0.3646 -0.1959 0.3582 0.032 Uiso 1 1 calc R U . . .
C13 C 0.2143(3) 0.3022(5) 0.7493(7) 0.0219(14) Uani 1 1 d . . . . .
C14 C 0.1823(3) 0.3216(6) 0.8499(8) 0.0374(19) Uani 1 1 d . . . . .
H14 H 0.1803 0.2712 0.9118 0.045 Uiso 1 1 calc R U . . .
C15 C 0.1528(4) 0.4153(7) 0.8613(11) 0.060(3) Uani 1 1 d . . . . .
H15 H 0.1317 0.4286 0.9321 0.072 Uiso 1 1 calc R U . . .
C16 C 0.1540(6) 0.4878(7) 0.7721(17) 0.054(4) Uani 1 1 d . . . . .
H16 H 0.1325 0.5496 0.7787 0.065 Uiso 1 1 calc R U . . .
C17 C 0.1872(4) 0.4699(7) 0.6714(8) 0.046(2) Uani 1 1 d . . . . .
H17 H 0.1898 0.5214 0.6107 0.055 Uiso 1 1 calc R U . . .
C18 C 0.2165(3) 0.3777(5) 0.6591(7) 0.0309(16) Uani 1 1 d . . . . .
H18 H 0.2382 0.3654 0.5890 0.037 Uiso 1 1 calc R U . . .
C19 C 0.3241(3) 0.2182(5) 0.7866(7) 0.0225(13) Uani 1 1 d . . . . .
C20 C 0.3331(3) 0.2423(5) 0.9074(7) 0.0257(15) Uani 1 1 d . . . . .
H20 H 0.3027 0.2403 0.9627 0.031 Uiso 1 1 calc R U . . .
C21 C 0.3870(3) 0.2694(5) 0.9457(8) 0.0322(16) Uani 1 1 d . . . . .
H21 H 0.3931 0.2864 1.0275 0.039 Uiso 1 1 calc R U . . .
C22 C 0.4316(3) 0.2719(6) 0.8670(9) 0.043(2) Uani 1 1 d . . . . .
H22 H 0.4683 0.2903 0.8941 0.051 Uiso 1 1 calc R U . . .
C23 C 0.4227(3) 0.2479(6) 0.7496(9) 0.041(2) Uani 1 1 d . . . . .
H23 H 0.4537 0.2487 0.6957 0.050 Uiso 1 1 calc R U . . .
C24 C 0.3684(3) 0.2218(5) 0.7062(7) 0.0291(16) Uani 1 1 d . . . . .
H24 H 0.3626 0.2071 0.6237 0.035 Uiso 1 1 calc R U . . .
C25 C 0.3948(3) 0.0662(5) 0.4213(6) 0.0210(13) Uani 1 1 d . . . . .
H25 H 0.3751 0.1102 0.3673 0.025 Uiso 1 1 calc R U . . .
C26 C 0.4535(3) 0.0679(5) 0.4209(6) 0.0220(14) Uani 1 1 d . . . . .
H26 H 0.4728 0.1173 0.3729 0.026 Uiso 1 1 calc R U . . .
C27 C 0.48342(19) 0.0002(4) 0.488(3) 0.0172(15) Uani 1 1 d . . . . .
C29 C 0.3936(3) -0.0595(5) 0.5653(7) 0.0235(15) Uani 1 1 d . . . . .
H29 H 0.3729 -0.1044 0.6166 0.028 Uiso 1 1 calc R U . . .
C30 C 0.5460(2) -0.0025(4) 0.490(2) 0.0190(12) Uani 1 1 d . . . . .
C31 C 0.5763(5) -0.0213(7) 0.5960(10) 0.0221(17) Uani 1 1 d . . . . .
H31 H 0.5566 -0.0338 0.6688 0.027 Uiso 1 1 calc R U . . .
C32 C 0.6352(4) -0.0214(6) 0.5945(9) 0.0208(17) Uani 1 1 d . . . . .
H32 H 0.6548 -0.0329 0.6675 0.025 Uiso 1 1 calc R U . . .
C33 C 0.6347(5) 0.0126(6) 0.3927(11) 0.023(2) Uani 1 1 d . . . . .
H33 H 0.6556 0.0260 0.3216 0.028 Uiso 1 1 calc R U . . .
C34 C 0.5772(5) 0.0132(5) 0.3863(10) 0.0200(19) Uani 1 1 d . . . . .
H34 H 0.5588 0.0243 0.3118 0.024 Uiso 1 1 calc R U . . .
C38 C 0.4519(3) -0.0654(5) 0.5683(6) 0.0213(14) Uani 1 1 d . . . . .
H38 H 0.4705 -0.1113 0.6218 0.026 Uiso 1 1 calc R U . . .
O1S O 0.5225(3) 0.2435(6) 0.2704(7) 0.077(2) Uiso 1 1 d . . . . .
N1S N 0.5041(4) 0.4099(6) 0.2251(8) 0.060(2) Uiso 1 1 d . . . . .
C1S C 0.5092(5) 0.3119(9) 0.1916(11) 0.083(3) Uiso 1 1 d . . . . .
H1S H 0.5032 0.2924 0.1105 0.099 Uiso 1 1 calc R U . . .
C2S C 0.4943(7) 0.4802(13) 0.1267(19) 0.108(5) Uiso 1 1 d . . . . .
H2SA H 0.4809 0.4410 0.0570 0.162 Uiso 1 1 calc R U . . .
H2SB H 0.5295 0.5159 0.1063 0.162 Uiso 1 1 calc R U . . .
H2SC H 0.4657 0.5314 0.1499 0.162 Uiso 1 1 calc R U . . .
C3S C 0.5063(6) 0.4500(15) 0.3392(16) 0.105(5) Uiso 1 1 d . . . . .
H3SA H 0.4889 0.4011 0.3953 0.157 Uiso 1 1 calc R U . . .
H3SB H 0.4860 0.5161 0.3416 0.157 Uiso 1 1 calc R U . . .
H3SC H 0.5458 0.4613 0.3620 0.157 Uiso 1 1 calc R U . . .

loop_
_atom_site_aniso_label
_atom_site_aniso_U_11
_atom_site_aniso_U_22
_atom_site_aniso_U_33
_atom_site_aniso_U_23
_atom_site_aniso_U_13
_atom_site_aniso_U_12
Cd1 0.01206(19) 0.02235(19) 0.01637(19) -0.0014(3) 0.0000(5) -0.00014(14)
P1 0.0174(15) 0.0206(6) 0.0162(9) -0.0032(9) 0.0008(8) 0.0023(9)
P2 0.0170(13) 0.0199(6) 0.0161(9) -0.0005(9) 0.0012(8) -0.0007(10)
O1 0.023(3) 0.024(2) 0.017(3) -0.0011(18) -0.001(2) 0.0028(17)
O2 0.021(2) 0.026(2) 0.021(3) -0.0018(19) -0.001(2) 0.0031(18)
O3 0.027(3) 0.023(2) 0.018(3) -0.0008(18) 0.000(2) -0.0004(18)
O4 0.018(2) 0.026(2) 0.019(2) 0.0010(18) 0.000(2) -0.0019(17)
N1 0.0146(18) 0.027(2) 0.019(2) -0.006(2) 0.004(7) 0.0004(17)
N2 0.0146(19) 0.024(2) 0.021(3) 0.005(2) -0.010(6) 0.0000(17)
C1 0.024(4) 0.024(3) 0.028(4) -0.006(3) 0.003(3) 0.001(3)
C2 0.039(4) 0.028(3) 0.039(5) -0.006(3) 0.010(4) -0.001(3)
C3 0.056(5) 0.025(4) 0.063(6) 0.000(4) 0.029(5) -0.003(4)
C4 0.043(7) 0.040(5) 0.091(10) -0.023(7) 0.013(7) -0.024(6)
C5 0.043(5) 0.044(5) 0.071(7) -0.019(5) -0.016(5) -0.005(4)
C6 0.028(4) 0.033(4) 0.044(5) -0.013(3) -0.013(4) 0.003(3)
C7 0.016(3) 0.020(3) 0.023(3) 0.002(2) -0.005(3) 0.001(2)
C8 0.022(3) 0.028(3) 0.025(4) -0.006(3) -0.002(3) 0.001(2)
C9 0.028(4) 0.042(4) 0.025(4) -0.006(3) -0.001(3) 0.005(3)
C10 0.014(3) 0.051(4) 0.041(5) -0.008(3) 0.007(3) 0.007(3)
C11 0.020(4) 0.062(5) 0.036(5) -0.002(4) -0.008(3) 0.008(3)
C12 0.026(4) 0.035(4) 0.018(4) -0.005(3) -0.004(3) 0.002(3)
C13 0.015(3) 0.021(3) 0.029(4) -0.009(2) -0.007(3) -0.003(2)
C14 0.034(4) 0.033(4) 0.044(5) -0.008(3) 0.005(4) -0.003(3)
C15 0.044(5) 0.045(5) 0.090(9) -0.028(5) 0.021(6) 0.006(4)
C16 0.035(7) 0.035(5) 0.091(10) -0.015(6) -0.006(6) 0.010(4)
C17 0.055(6) 0.028(4) 0.053(6) -0.006(4) -0.025(5) 0.009(4)
C18 0.042(4) 0.026(3) 0.025(4) -0.001(3) -0.013(4) 0.003(3)
C19 0.021(3) 0.023(3) 0.024(4) 0.000(2) -0.007(3) 0.001(2)
C20 0.025(4) 0.028(3) 0.024(4) -0.003(3) -0.001(3) -0.003(3)
C21 0.028(4) 0.039(4) 0.029(4) -0.008(3) -0.009(3) -0.001(3)
C22 0.029(4) 0.049(4) 0.051(6) -0.010(4) 0.001(4) -0.009(3)
C23 0.020(4) 0.062(5) 0.043(5) -0.011(4) 0.010(4) -0.006(3)
C24 0.025(4) 0.034(4) 0.028(4) 0.000(3) 0.005(3) 0.000(3)
C25 0.019(3) 0.029(3) 0.015(3) 0.002(2) 0.002(3) 0.002(2)
C26 0.017(3) 0.027(3) 0.022(4) 0.005(2) 0.002(3) 0.000(2)
C27 0.014(2) 0.023(2) 0.014(4) -0.003(2) 0.006(6) -0.0016(17)
C29 0.017(3) 0.027(3) 0.026(4) 0.000(3) 0.003(3) -0.003(2)
C30 0.016(2) 0.022(2) 0.020(3) -0.002(2) -0.012(7) -0.0003(19)
C31 0.016(4) 0.031(3) 0.019(4) -0.001(4) 0.002(3) -0.004(4)
C32 0.018(4) 0.027(3) 0.017(4) 0.005(4) -0.001(3) 0.005(4)
C33 0.019(4) 0.032(4) 0.019(4) -0.001(3) 0.000(3) 0.001(3)
C34 0.019(4) 0.029(3) 0.012(4) 0.004(3) 0.000(3) -0.002(3)
C38 0.016(3) 0.026(3) 0.022(4) 0.000(3) 0.001(3) -0.001(2)

_geom_special_details            
;
All e.s.d.'s (except the e.s.d. in the dihedral angle between two l.s. planes)
are estimated using the full covariance matrix. The cell e.s.d.'s are taken
into account individually in the estimation of e.s.d.'s in distances, angles
and torsion angles; correlations between e.s.d.'s in cell parameters are only
used when they are defined by crystal symmetry. An approximate (