
#######################################################################
#
#                 Cambridge Crystallographic Data Centre
#                                CCDC
#
#######################################################################
#
# If this CIF has been generated from an entry in the Cambridge
# Structural Database, then it will include bibliographic, chemical,
# crystal, experimental, refinement or atomic coordinate data resulting
# from the CCDC's data processing and validation procedures.
#
#######################################################################

data_CSD_CIF_JOPJIH
_audit_creation_date 1992-11-25
_audit_creation_method CSD-ConQuest-V1
_database_code_CSD JOPJIH
_database_code_depnum_ccdc_archive 'CCDC 1188959'
_chemical_formula_sum 'C16 H34 Gd1 N4 Na1 O13'
_chemical_formula_moiety
;
C16 H26 Gd1 N4 O9 1-,Na1 1+,4(H2 O1)
;
_journal_coden_Cambridge 578
_journal_volume 312
_journal_year 1991
_journal_page_first 349
_journal_name_full 'C.R.Seances Acad.Sci.,Ser.II '
loop_
_publ_author_name
"J.-P.Dubost"
"J.-M.Leger"
"M.-H.Langlois"
"D.Meyer"
"M.Schaefer"
_chemical_name_systematic
;
Sodium aqua-(1,4,7,10-tetra-azacyclodecane tetra-acetic acid)-gadolinium 
tetrahydrate
;
_chemical_name_common
;
Teaching Subset: Fundamental Chemistry
;
_cell_volume   1221.923
_exptl_crystal_colour 'colorless'
_exptl_crystal_density_diffrn 1.82
_exptl_special_details
;
Author has supplied correct coordinates for C21

;
_diffrn_ambient_temperature ?
_diffrn_special_details
;
The study was carried out at room temperature,in the range 283-303K

;
#These two values have been output from a single CSD field.
_refine_ls_R_factor_gt 0.029
_refine_ls_wR_factor_gt 0.029
_symmetry_cell_setting triclinic
_symmetry_space_group_name_H-M 'P -1'
_symmetry_Int_Tables_number 2
loop_
_symmetry_equiv_pos_site_id
_symmetry_equiv_pos_as_xyz
1 x,y,z
2 -x,-y,-z
_cell_length_a 9.113
_cell_length_b 8.72
_cell_length_c 15.694
_cell_angle_alpha 85.54
_cell_angle_beta 97.08
_cell_angle_gamma 98.45
_cell_formula_units_Z 2
loop_
_atom_type_symbol
_atom_type_radius_bond
C 0.68
Gd 1.79
N 0.68
Na 0.97
O 0.68
loop_
_atom_site_label
_atom_site_type_symbol
_atom_site_fract_x
_atom_site_fract_y
_atom_site_fract_z
N1 N 0.1205(4) 0.3444(4) 0.3203(2)
C1 C 0.2360(5) 0.4792(5) 0.3420(3)
C2 C 0.3643(5) 0.4877(5) 0.2902(2)
N2 N 0.4437(4) 0.3490(3) 0.3034(2)
C3 C 0.5399(5) 0.3493(5) 0.2342(3)
C4 C 0.4521(5) 0.3034(4) 0.1497(2)
N3 N 0.3636(4) 0.1453(4) 0.1570(2)
C5 C 0.2453(3) 0.1299(5) 0.0825(2)
C6 C 0.1122(5) 0.2037(5) 0.0989(2)
N4 N 0.0429(4) 0.1366(4) 0.1754(2)
C7 C -0.0594(5) 0.2435(4) 0.1980(2)
C8 C 0.0240(5) 0.3813(5) 0.2423(3)
C9 C 0.0271(5) 0.3040(5) 0.3931(3)
C10 C -0.0516(4) 0.1334(5) 0.3960(2)
O1 O 0.0147(3) 0.0372(3) 0.3639(2)
O2 O -0.1685(3) 0.1040(4) 0.4268(2)
C11 C 0.5391(5) 0.3516(4) 0.3869(2)
C12 C 0.4554(5) 0.2758(4) 0.4622(2)
O3 O 0.5157(3) 0.2980(3) 0.5369(2)
O4 O 0.3365(3) 0.1849(3) 0.4439(2)
C13 C 0.4598(5) 0.0228(5) 0.1560(2)
C14 C 0.5313(4) -0.0292(4) 0.2435(2)
O5 O 0.6300(4) -0.1130(4) 0.2457(2)
O6 O 0.4827(3) 0.0081(3) 0.3097(2)
C15 C -0.0420(5) -0.0192(5) 0.1579(3)
C16 C 0.0584(5) -0.1452(5) 0.1688(2)
O7 O 0.0286(4) -0.2580(4) 0.1228(2)
O8 O 0.1699(3) -0.1304(3) 0.2275(2)
Gd1 Gd 0.2471(1) 0.0923(1) 0.3069(1)
O9 O 0.2428(3) -0.1360(3) 0.4093(2)
Na1 Na 0.3215(2) 0.1276(2) 0.6001(1)
O10 O 0.4352(5) 0.2979(4) 0.9007(3)
O11 O 0.2196(4) 0.4704(5) 0.9240(3)
O12 O 0.1272(6) 0.2771(6) 0.6237(4)
O13 O 0.7374(6) 0.3693(7) 0.9297(4)
#END
