
#######################################################################
#
#                 Cambridge Crystallographic Data Centre
#                                CCDC
#
#######################################################################
#
# If this CIF has been generated from an entry in the Cambridge
# Structural Database, then it will include bibliographic, chemical,
# crystal, experimental, refinement or atomic coordinate data resulting
# from the CCDC's data processing and validation procedures.
#
#######################################################################

data_CSD_CIF_JOQSEN
_audit_creation_date 1999-07-06
_audit_creation_method CSD-ConQuest-V1
_database_code_CSD JOQSEN
_database_code_depnum_ccdc_archive 'CCDC 112101'
_database_code_depnum_ccdc_journal 440/090
_chemical_formula_sum 'C15 H9 N1'
_chemical_formula_moiety
;
C15 H9 N1
;
_journal_coden_Cambridge 440
_journal_volume 22
_journal_year 1998
_journal_page_first 1307
_journal_name_full 'New J.Chem. '
loop_
_publ_author_name
"P.J.Langley"
"J.Hulliger"
"R.Thaimattam"
"G.R.Desiraju"
_chemical_name_systematic
;
4-Cyano-4'-ethynylbiphenyl
;
_chemical_name_common
;
Teaching Subset: Fundamental Chemistry, Symmetry
;
_chemical_melting_point 479
_cell_volume   2183.245
_exptl_crystal_colour 'colorless'
_exptl_crystal_density_diffrn 1.237
_exptl_special_details
;
Melting point range 479-480K
supramolecular synthon

;
_exptl_crystal_description 'block'
_exptl_crystal_preparation 'hot ethanol'
_diffrn_ambient_temperature 163
_refine_special_details
;
One of the molecules is disordered with respect to the cyano and ethynyl 
groups.
;
#These two values have been output from a single CSD field.
_refine_ls_R_factor_gt 0.0569
_refine_ls_wR_factor_gt 0.0569
_symmetry_cell_setting triclinic
_symmetry_space_group_name_H-M 'P -1'
_symmetry_Int_Tables_number 2
loop_
_symmetry_equiv_pos_site_id
_symmetry_equiv_pos_as_xyz
1 x,y,z
2 -x,-y,-z
_cell_length_a 9.2577(5)
_cell_length_b 15.5808(9)
_cell_length_c 16.2243(9)
_cell_angle_alpha 73.787(1)
_cell_angle_beta 76.459(1)
_cell_angle_gamma 88.203(1)
_cell_formula_units_Z 8
loop_
_atom_type_symbol
_atom_type_radius_bond
C 0.68
H 0.23
N 0.68
loop_
_atom_site_label
_atom_site_type_symbol
_atom_site_fract_x
_atom_site_fract_y
_atom_site_fract_z
N1 N 0.3465(3) 1.33780(14) 0.1165(2)
H1 H 0.3484(3) 1.39555(14) 0.1164(2)
C1 C 0.3439(2) 1.26293(13) 0.11668(14)
C2 C 0.3425(2) 1.17022(12) 0.11902(12)
C3 C 0.2287(2) 1.13208(12) 0.09610(12)
H2 H 0.1521(2) 1.16819(12) 0.07632(12)
C4 C 0.2272(2) 1.04205(12) 0.10212(12)
H3 H 0.1486(2) 1.01653(12) 0.08713(12)
C5 C 0.3397(2) 0.98770(12) 0.12995(11)
C6 C 0.4539(2) 1.02694(12) 0.15161(13)
H4 H 0.5318(2) 0.99114(12) 0.17001(13)
C7 C 0.4557(2) 1.11651(12) 0.14682(13)
H5 H 0.5339(2) 1.14188(12) 0.16237(13)
C8 C 0.3373(2) 0.89067(12) 0.13781(11)
C9 C 0.2056(2) 0.83860(12) 0.17511(12)
H6 H 0.1164(2) 0.86576(12) 0.19591(12)
C10 C 0.2033(2) 0.74824(13) 0.18220(12)
H7 H 0.1130(2) 0.71370(13) 0.20812(12)
C11 C 0.3331(2) 0.70756(12) 0.15141(12)
C12 C 0.4654(2) 0.75872(13) 0.11463(13)
H8 H 0.5545(2) 0.73145(13) 0.09378(13)
C13 C 0.4673(2) 0.84890(13) 0.10845(13)
H9 H 0.5582(2) 0.88303(13) 0.08390(13)
C14 C 0.3298(3) 0.61384(14) 0.15504(14)
C15 C 0.3272(3) 0.53960(13) 0.1550(2)
H10 H 0.3251(3) 0.48190(13) 0.1550(2)
N2 N 0.8570(2) 1.68359(12) 0.1029(2)
C16 C 0.8600(2) 1.61044(14) 0.10086(15)
C17 C 0.8600(2) 1.51755(12) 0.10172(13)
C18 C 0.7747(2) 1.48750(13) 0.05448(13)
H11 H 0.7201(2) 1.52856(13) 0.01926(13)
C19 C 0.7697(2) 1.39800(13) 0.05898(13)
H12 H 0.7113(2) 1.37769(13) 0.02671(13)
C20 C 0.8498(2) 1.33648(12) 0.11059(11)
C21 C 0.9353(2) 1.36793(12) 0.15710(13)
H13 H 0.9902(2) 1.32709(12) 0.19234(13)
C22 C 0.9413(2) 1.45749(13) 0.15263(13)
H14 H 1.0006(2) 1.47814(13) 0.18418(13)
C23 C 0.8416(2) 1.24000(12) 0.11675(11)
C24 C 0.8438(2) 1.21145(12) 0.04220(12)
H15 H 0.8467(2) 1.25454(12) -0.01277(12)
C25 C 0.8420(2) 1.12167(13) 0.04711(12)
H16 H 0.8445(2) 1.10370(13) -0.00454(12)
C26 C 0.8363(2) 1.05677(12) 0.12744(12)
C27 C 0.8298(2) 1.08480(12) 0.20283(12)
H17 H 0.8228(2) 1.04164(12) 0.25825(12)
C28 C 0.8335(2) 1.17480(12) 0.19734(12)
H18 H 0.8305(2) 1.19280(12) 0.24902(12)
C29 C 0.8380(2) 0.96369(13) 0.13104(13)
C30 C 0.8419(2) 0.88757(14) 0.1307(2)
H19 H 0.8424(30) 0.8285(19) 0.1267(19)
N3 N 0.9537(2) 0.74705(13) 0.39020(15)
C31 C 0.9659(2) 1.46510(13) 0.37633(14)
C32 C 0.9688(2) 1.37202(12) 0.37886(12)
C33 C 0.8361(2) 1.32095(12) 0.40445(12)
H20 H 0.7439(2) 1.34823(12) 0.41868(12)
C34 C 0.8382(2) 1.23125(12) 0.40917(12)
H21 H 0.7469(2) 1.19751(12) 0.42725(12)
C35 C 0.9719(2) 1.18847(11) 0.38792(11)
C36 C 1.1033(2) 1.24114(12) 0.36077(13)
H22 H 1.1955(2) 1.21442(12) 0.34489(13)
C37 C 1.1027(2) 1.33079(12) 0.35645(13)
H23 H 1.1938(2) 1.36471(12) 0.33811(13)
C38 C 0.9717(2) 1.09245(11) 0.39116(11)
C39 C 0.8487(2) 1.03528(12) 0.44013(12)
H24 H 0.7662(2) 1.05803(12) 0.47378(12)
C40 C 0.8448(2) 0.94673(12) 0.44053(12)
H25 H 0.7595(2) 0.90947(12) 0.47318(12)
C41 C 0.9663(2) 0.91205(12) 0.39292(12)
C42 C 1.0914(2) 0.96710(12) 0.34577(12)
H26 H 1.1755(2) 0.94345(12) 0.31438(12)
C43 C 1.0931(2) 1.05578(12) 0.34465(12)
H27 H 1.1784(2) 1.09287(12) 0.31164(12)
C44 C 0.9602(2) 0.82037(13) 0.39201(14)
C45 C 0.9609(3) 1.54076(15) 0.3762(2)
H28 H 0.9606(34) 1.5993(20) 0.3772(21)
N4 N 0.4693(3) 0.88809(13) 0.3562(2)
C46 C 0.4694(3) 0.81569(15) 0.3517(2)
C47 C 0.4691(3) 0.72386(13) 0.35021(13)
C48 C 0.3392(2) 0.67128(14) 0.38779(14)
H29 H 0.2494(2) 0.69710(14) 0.41003(14)
C49 C 0.3409(2) 0.58135(13) 0.39272(13)
H30 H 0.2525(2) 0.54523(13) 0.41966(13)
C50 C 0.4710(2) 0.54304(12) 0.35862(12)
C51 C 0.5999(2) 0.59738(13) 0.31852(13)
H31 H 0.6884(2) 0.57242(13) 0.29328(13)
C52 C 0.5999(2) 0.68688(13) 0.31521(14)
H32 H 0.6886(2) 0.72299(13) 0.28924(14)
C53 C 0.4730(2) 0.44633(12) 0.36441(12)
C54 C 0.4115(2) 0.38229(12) 0.44366(12)
H33 H 0.3672(2) 0.40090(12) 0.49459(12)
C55 C 0.4141(2) 0.29228(12) 0.44899(13)
H34 H 0.3731(2) 0.24961(12) 0.50369(13)
C56 C 0.4766(2) 0.26337(12) 0.37462(13)
C57 C 0.5364(2) 0.32763(13) 0.29467(12)
H35 H 0.5776(2) 0.30929(13) 0.24317(12)
C58 C 0.5356(2) 0.41737(12) 0.29030(12)
H36 H 0.5785(2) 0.46009(12) 0.23596(12)
C59 C 0.4795(2) 0.17003(13) 0.37814(13)
C60 C 0.4836(2) 0.09375(14) 0.3784(2)
H37 H 0.4834(28) 0.0338(18) 0.3768(17)
#END
