####################################################################### 
# 
# This file contains crystal structure data downloaded from the 
# Cambridge Structural Database (CSD) hosted by the Cambridge 
# Crystallographic Data Centre (CCDC).
# 
# Full information about CCDC data access policies and citation 
# guidelines are available at http://www.ccdc.cam.ac.uk/access/V1 
# 
# Audit and citation data items may have been added by the CCDC. 
# Please retain this information to preserve the provenance of 
# this file and to allow appropriate attribution of the data. 
# 
#######################################################################

data_1
_audit_block_doi                 10.5517/cc11fjjj
_database_code_depnum_ccdc_archive 'CCDC 966317'
loop_
_citation_id
_citation_doi
_citation_year
1 10.1021/cg500269h 2014
_audit_update_record             
;
2013-10-14 deposited with the CCDC.	2024-07-10 downloaded from the CCDC.
;

_audit_creation_method           SHELXL-97
_chemical_name_systematic        
; 
 ? 
;
_chemical_name_common            ?
_chemical_melting_point          ?
_chemical_formula_moiety         'C92 H74 Cd2 N8 O12'
_chemical_formula_sum            'C92 H74 Cd2 N8 O12'
_chemical_formula_weight         1708.39

loop_
_atom_type_symbol
_atom_type_description
_atom_type_scat_dispersion_real
_atom_type_scat_dispersion_imag
_atom_type_scat_source
C C 0.0033 0.0016 'International Tables Vol C Tables 4.2.6.8 and 6.1.1.4'
H H 0.0000 0.0000 'International Tables Vol C Tables 4.2.6.8 and 6.1.1.4'
Cd Cd -0.8075 1.2024 'International Tables Vol C Tables 4.2.6.8 and 6.1.1.4'
N N 0.0061 0.0033 'International Tables Vol C Tables 4.2.6.8 and 6.1.1.4'
O O 0.0106 0.0060 'International Tables Vol C Tables 4.2.6.8 and 6.1.1.4'

_symmetry_cell_setting           Monoclinic
_symmetry_space_group_name_H-M   'C2/c  '
_symmetry_space_group_name_hall  ' -C 2yc'

loop_
_symmetry_equiv_pos_as_xyz
'x, y, z'
'-x, y, -z+1/2'
'x+1/2, y+1/2, z'
'-x+1/2, y+1/2, -z+1/2'
'-x, -y, -z'
'x, -y, z-1/2'
'-x+1/2, -y+1/2, -z'
'x+1/2, -y+1/2, z-1/2'

_cell_length_a                   21.1146(11)
_cell_length_b                   37.6435(19)
_cell_length_c                   28.2514(14)
_cell_angle_alpha                90.00
_cell_angle_beta                 108.8030(10)
_cell_angle_gamma                90.00
_cell_volume                     21256.6(19)
_cell_formula_units_Z            8
_cell_measurement_temperature    293(2)
_cell_measurement_reflns_used    10036
_cell_measurement_theta_min      2.215
_cell_measurement_theta_max      27.289

_exptl_crystal_description       ?
_exptl_crystal_colour            ?
_exptl_crystal_size_max          0.30
_exptl_crystal_size_mid          0.24
_exptl_crystal_size_min          0.22
_exptl_crystal_density_meas      ?
_exptl_crystal_density_diffrn    1.068
_exptl_crystal_density_method    'not measured'
_exptl_crystal_F_000             6992
_exptl_absorpt_coefficient_mu    0.452
_exptl_absorpt_correction_type   multi-scan
_exptl_absorpt_correction_T_min  0.878
_exptl_absorpt_correction_T_max  0.905
_exptl_absorpt_process_details   ?

_exptl_special_details           
; 
 ? 
;

_diffrn_ambient_temperature      293(2)
_diffrn_radiation_wavelength     0.71073
_diffrn_radiation_type           MoK\a
_diffrn_radiation_source         'fine-focus sealed tube'
_diffrn_radiation_monochromator  graphite
_diffrn_measurement_device_type  ?
_diffrn_measurement_method       ?
_diffrn_detector_area_resol_mean ?
_diffrn_standards_number         ?
_diffrn_standards_interval_count ?
_diffrn_standards_interval_time  ?
_diffrn_standards_decay_%        ?
_diffrn_reflns_number            59725
_diffrn_reflns_av_R_equivalents  0.0715
_diffrn_reflns_av_sigmaI/netI    0.0770
_diffrn_reflns_limit_h_min       -25
_diffrn_reflns_limit_h_max       20
_diffrn_reflns_limit_k_min       -44
_diffrn_reflns_limit_k_max       44
_diffrn_reflns_limit_l_min       -33
_diffrn_reflns_limit_l_max       33
_diffrn_reflns_theta_min         1.19
_diffrn_reflns_theta_max         25.00
_reflns_number_total             18710
_reflns_number_gt                10839
_reflns_threshold_expression     >2sigma(I)

_computing_data_collection       ?
_computing_cell_refinement       ?
_computing_data_reduction        ?
_computing_structure_solution    'SHELXS-97 (Sheldrick, 1990)'
_computing_structure_refinement  'SHELXL-97 (Sheldrick, 1997)'
_computing_molecular_graphics    ?
_computing_publication_material  ?

_refine_special_details          
; 
 Refinement of F^2^ against ALL reflections.  The weighted R-factor wR and 
 goodness of fit S are based on F^2^, conventional R-factors R are based 
 on F, with F set to zero for negative F^2^. The threshold expression of 
 F^2^ > 2sigma(F^2^) is used only for calculating R-factors(gt) etc. and is 
 not relevant to the choice of reflections for refinement.  R-factors based 
 on F^2^ are statistically about twice as large as those based on F, and R- 
 factors based on ALL data will be even larger. 
;

_refine_ls_structure_factor_coef Fsqd
_refine_ls_matrix_type           full
_refine_ls_weighting_scheme      calc
_refine_ls_weighting_details     
'calc w=1/[\s^2^(Fo^2^)+(0.0130P)^2^+0.0100P] where P=(Fo^2^+2Fc^2^)/3'
_atom_sites_solution_primary     direct
_atom_sites_solution_secondary   difmap
_atom_sites_solution_hydrogens   geom
_refine_ls_hydrogen_treatment    constra
_refine_ls_extinction_method     none
_refine_ls_extinction_coef       ?
_refine_ls_number_reflns         18710
_refine_ls_number_parameters     1029
_refine_ls_number_restraints     0
_refine_ls_R_factor_all          0.0660
_refine_ls_R_factor_gt           0.0391
_refine_ls_wR_factor_ref         0.0852
_refine_ls_wR_factor_gt          0.0820
_refine_ls_goodness_of_fit_ref   1.035
_refine_ls_restrained_S_all      1.035
_refine_ls_shift/su_max          0.000
_refine_ls_shift/su_mean         0.000

loop_
_atom_site_label
_atom_site_type_symbol
_atom_site_fract_x
_atom_site_fract_y
_atom_site_fract_z
_atom_site_U_iso_or_equiv
_atom_site_adp_type
_atom_site_occupancy
_atom_site_symmetry_multiplicity
_atom_site_calc_flag
_atom_site_refinement_flags
_atom_site_disorder_assembly
_atom_site_disorder_group
C1 C 0.32646(19) 0.17284(9) 0.25111(15) 0.0623(11) Uani 1 1 d . . .
H1 H 0.2962 0.1738 0.2688 0.075 Uiso 1 1 calc R . .
C2 C 0.34027(19) 0.14013(8) 0.23509(15) 0.0622(12) Uani 1 1 d . . .
H2 H 0.3193 0.1199 0.2419 0.075 Uiso 1 1 calc R . .
C3 C 0.38473(19) 0.13717(8) 0.20917(14) 0.0550(11) Uani 1 1 d . . .
C4 C 0.4134(2) 0.16843(8) 0.20055(14) 0.0613(12) Uani 1 1 d . . .
H4 H 0.4439 0.1682 0.1831 0.074 Uiso 1 1 calc R . .
C5 C 0.3965(2) 0.19995(9) 0.21800(14) 0.0612(12) Uani 1 1 d . . .
H5 H 0.4167 0.2206 0.2118 0.073 Uiso 1 1 calc R . .
C6 C 0.4043(2) 0.10210(8) 0.19409(14) 0.0542(10) Uani 1 1 d . . .
C7 C 0.3617(2) 0.07358(8) 0.18477(14) 0.0622(11) Uani 1 1 d . . .
H7 H 0.3191 0.0764 0.1871 0.075 Uiso 1 1 calc R . .
C8 C 0.3806(2) 0.04077(8) 0.17191(15) 0.0646(12) Uani 1 1 d . . .
H8 H 0.3503 0.0220 0.1651 0.078 Uiso 1 1 calc R . .
C9 C 0.4437(2) 0.03549(8) 0.16903(14) 0.0537(10) Uani 1 1 d . . .
C10 C 0.4873(2) 0.06442(8) 0.17884(14) 0.0610(11) Uani 1 1 d . . .
H10 H 0.5305 0.0615 0.1778 0.073 Uiso 1 1 calc R . .
C11 C 0.4673(2) 0.09702(8) 0.19000(14) 0.0592(11) Uani 1 1 d . . .
H11 H 0.4966 0.1162 0.1949 0.071 Uiso 1 1 calc R . .
C12 C 0.44230(19) -0.03053(8) 0.16945(14) 0.0547(11) Uani 1 1 d . . .
C13 C 0.42389(19) -0.03419(8) 0.21146(14) 0.0563(10) Uani 1 1 d . . .
H13 H 0.4243 -0.0145 0.2314 0.068 Uiso 1 1 calc R . .
C14 C 0.40484(19) -0.06677(8) 0.22431(14) 0.0569(10) Uani 1 1 d . . .
H14 H 0.3921 -0.0686 0.2528 0.068 Uiso 1 1 calc R . .
C15 C 0.40399(18) -0.09714(8) 0.19599(14) 0.0513(10) Uani 1 1 d . . .
C16 C 0.42212(19) -0.09309(8) 0.15390(14) 0.0586(11) Uani 1 1 d . . .
H16 H 0.4225 -0.1129 0.1343 0.070 Uiso 1 1 calc R . .
C17 C 0.43970(19) -0.06057(8) 0.13982(14) 0.0598(11) Uani 1 1 d . . .
H17 H 0.4499 -0.0585 0.1103 0.072 Uiso 1 1 calc R . .
C18 C 0.38784(18) -0.13236(8) 0.21300(13) 0.0486(10) Uani 1 1 d . . .
C19 C 0.34476(18) -0.13600(8) 0.24096(13) 0.0515(10) Uani 1 1 d . . .
H19 H 0.3239 -0.1161 0.2487 0.062 Uiso 1 1 calc R . .
C20 C 0.33317(18) -0.16893(8) 0.25703(13) 0.0521(10) Uani 1 1 d . . .
H20 H 0.3047 -0.1706 0.2761 0.063 Uiso 1 1 calc R . .
C21 C 0.40163(19) -0.19558(8) 0.22072(13) 0.0520(10) Uani 1 1 d . . .
H21 H 0.4223 -0.2160 0.2143 0.062 Uiso 1 1 calc R . .
C22 C 0.41586(19) -0.16360(8) 0.20228(13) 0.0546(10) Uani 1 1 d . . .
H22 H 0.4440 -0.1629 0.1828 0.065 Uiso 1 1 calc R . .
C23 C 0.5123(2) 0.00269(8) 0.12952(14) 0.0547(10) Uani 1 1 d . . .
C24 C 0.5698(2) -0.01682(9) 0.14464(15) 0.0663(12) Uani 1 1 d . . .
H24 H 0.5789 -0.0308 0.1732 0.080 Uiso 1 1 calc R . .
C25 C 0.6148(2) -0.01626(9) 0.11846(14) 0.0643(11) Uani 1 1 d . . .
H25 H 0.6534 -0.0300 0.1297 0.077 Uiso 1 1 calc R . .
C26 C 0.6040(2) 0.00402(8) 0.07624(14) 0.0533(10) Uani 1 1 d . . .
C27 C 0.5471(2) 0.02391(9) 0.06213(15) 0.0621(11) Uani 1 1 d . . .
H27 H 0.5389 0.0385 0.0343 0.074 Uiso 1 1 calc R . .
C28 C 0.5014(2) 0.02318(8) 0.08757(15) 0.0624(11) Uani 1 1 d . . .
H28 H 0.4626 0.0367 0.0761 0.075 Uiso 1 1 calc R . .
C29 C 0.6509(2) 0.00385(8) 0.04676(14) 0.0547(10) Uani 1 1 d . . .
C30 C 0.7152(2) -0.00932(8) 0.06587(16) 0.0679(12) Uani 1 1 d . . .
H30 H 0.7305 -0.0172 0.0988 0.081 Uiso 1 1 calc R . .
C31 C 0.7579(2) -0.01111(8) 0.03719(16) 0.0700(13) Uani 1 1 d . . .
H31 H 0.8009 -0.0202 0.0510 0.084 Uiso 1 1 calc R . .
C32 C 0.7369(2) 0.00042(9) -0.01096(15) 0.0604(11) Uani 1 1 d . . .
C33 C 0.6736(2) 0.01466(9) -0.03056(16) 0.0702(12) Uani 1 1 d . . .
H33 H 0.6590 0.0233 -0.0631 0.084 Uiso 1 1 calc R . .
C34 C 0.6322(2) 0.01599(9) -0.00175(16) 0.0679(12) Uani 1 1 d . . .
H34 H 0.5896 0.0255 -0.0157 0.082 Uiso 1 1 calc R . .
C35 C 0.7920(2) -0.03547(8) -0.05966(15) 0.0640(12) Uani 1 1 d . . .
C36 C 0.7536(2) -0.06436(8) -0.05758(15) 0.0671(12) Uani 1 1 d . . .
H36 H 0.7200 -0.0622 -0.0431 0.080 Uiso 1 1 calc R . .
C37 C 0.7643(2) -0.09625(9) -0.07667(15) 0.0713(13) Uani 1 1 d . . .
H37 H 0.7378 -0.1156 -0.0747 0.086 Uiso 1 1 calc R . .
C38 C 0.8135(2) -0.10057(8) -0.09887(16) 0.0652(12) Uani 1 1 d . . .
C39 C 0.8526(2) -0.07163(9) -0.09891(16) 0.0746(13) Uani 1 1 d . . .
H39 H 0.8871 -0.0737 -0.1126 0.090 Uiso 1 1 calc R . .
C40 C 0.8424(2) -0.03955(9) -0.07924(16) 0.0735(13) Uani 1 1 d . . .
H40 H 0.8703 -0.0205 -0.0794 0.088 Uiso 1 1 calc R . .
C41 C 0.8210(2) -0.13459(9) -0.12381(16) 0.0679(12) Uani 1 1 d . . .
C42 C 0.7933(2) -0.16623(8) -0.11594(15) 0.0716(13) Uani 1 1 d . . .
H42 H 0.7704 -0.1675 -0.0929 0.086 Uiso 1 1 calc R . .
C43 C 0.7996(2) -0.19617(9) -0.14232(16) 0.0715(13) Uani 1 1 d . . .
H43 H 0.7787 -0.2169 -0.1372 0.086 Uiso 1 1 calc R . .
C44 C 0.8569(2) -0.16669(10) -0.18383(17) 0.0810(15) Uani 1 1 d . . .
H44 H 0.8778 -0.1662 -0.2082 0.097 Uiso 1 1 calc R . .
C45 C 0.8525(2) -0.13552(9) -0.15994(17) 0.0819(15) Uani 1 1 d . . .
H45 H 0.8707 -0.1148 -0.1680 0.098 Uiso 1 1 calc R . .
C46 C 0.7873(2) 0.03024(8) -0.06609(16) 0.0621(12) Uani 1 1 d . . .
C47 C 0.7772(2) 0.03186(9) -0.11611(16) 0.0718(13) Uani 1 1 d . . .
H47 H 0.7657 0.0114 -0.1354 0.086 Uiso 1 1 calc R . .
C48 C 0.7839(2) 0.06406(9) -0.13876(15) 0.0706(12) Uani 1 1 d . . .
H48 H 0.7774 0.0647 -0.1729 0.085 Uiso 1 1 calc R . .
C49 C 0.8001(2) 0.09514(8) -0.11077(16) 0.0624(12) Uani 1 1 d . . .
C50 C 0.8069(2) 0.09339(9) -0.06170(15) 0.0712(13) Uani 1 1 d . . .
H50 H 0.8153 0.1141 -0.0427 0.085 Uiso 1 1 calc R . .
C51 C 0.8018(2) 0.06143(9) -0.03886(15) 0.0714(13) Uani 1 1 d . . .
H51 H 0.8083 0.0610 -0.0047 0.086 Uiso 1 1 calc R . .
C52 C 0.8080(2) 0.12881(9) -0.13536(14) 0.0606(11) Uani 1 1 d . . .
C53 C 0.8414(2) 0.13040(9) -0.16980(15) 0.0671(12) Uani 1 1 d . . .
H53 H 0.8595 0.1098 -0.1784 0.080 Uiso 1 1 calc R . .
C54 C 0.8482(2) 0.16240(9) -0.19178(15) 0.0635(12) Uani 1 1 d . . .
H54 H 0.8709 0.1627 -0.2151 0.076 Uiso 1 1 calc R . .
C55 C 0.7907(2) 0.19118(9) -0.14869(14) 0.0607(11) Uani 1 1 d . . .
H55 H 0.7715 0.2120 -0.1419 0.073 Uiso 1 1 calc R . .
C56 C 0.7830(2) 0.16051(9) -0.12447(14) 0.0638(12) Uani 1 1 d . . .
H56 H 0.7610 0.1612 -0.1008 0.077 Uiso 1 1 calc R . .
C57 C 0.29157(18) 0.28554(8) 0.18387(13) 0.0383(8) Uani 1 1 d . . .
C58 C 0.26694(17) 0.29636(7) 0.13024(12) 0.0392(8) Uani 1 1 d . . .
C59 C 0.30820(17) 0.31271(8) 0.10732(13) 0.0475(9) Uani 1 1 d . . .
H59 H 0.3515 0.3189 0.1264 0.057 Uiso 1 1 calc R . .
C60 C 0.28626(18) 0.31993(8) 0.05670(13) 0.0505(10) Uani 1 1 d . . .
H60 H 0.3147 0.3309 0.0420 0.061 Uiso 1 1 calc R . .
C61 C 0.22267(18) 0.31090(8) 0.02807(13) 0.0477(9) Uani 1 1 d . . .
C62 C 0.18051(18) 0.29519(8) 0.04982(13) 0.0532(10) Uani 1 1 d . . .
H62 H 0.1371 0.2893 0.0305 0.064 Uiso 1 1 calc R . .
C63 C 0.20247(17) 0.28816(8) 0.10046(13) 0.0485(9) Uani 1 1 d . . .
H63 H 0.1733 0.2777 0.1149 0.058 Uiso 1 1 calc R . .
C64 C 0.14434(19) 0.30459(10) -0.05394(14) 0.0527(10) Uani 1 1 d . . .
C65 C 0.14540(18) 0.27462(9) -0.08023(13) 0.0549(10) Uani 1 1 d . . .
H65 H 0.1858 0.2633 -0.0768 0.066 Uiso 1 1 calc R . .
C66 C 0.08630(18) 0.26082(9) -0.11214(13) 0.0538(10) Uani 1 1 d . . .
H66 H 0.0874 0.2404 -0.1303 0.065 Uiso 1 1 calc R . .
C67 C 0.02610(18) 0.27680(8) -0.11735(12) 0.0444(9) Uani 1 1 d . . .
C68 C 0.02615(19) 0.30752(9) -0.08985(14) 0.0614(11) Uani 1 1 d . . .
H68 H -0.0141 0.3188 -0.0925 0.074 Uiso 1 1 calc R . .
C69 C 0.0852(2) 0.32137(10) -0.05878(15) 0.0653(11) Uani 1 1 d . . .
H69 H 0.0849 0.3422 -0.0411 0.078 Uiso 1 1 calc R . .
C70 C -0.03904(19) 0.26253(9) -0.15169(13) 0.0461(9) Uani 1 1 d . . .
C71 C 0.20263(19) 0.21773(8) 0.31162(13) 0.0413(9) Uani 1 1 d . . .
C72 C 0.22692(16) 0.20602(7) 0.36453(12) 0.0385(8) Uani 1 1 d . . .
C73 C 0.28974(17) 0.21503(8) 0.39503(13) 0.0462(9) Uani 1 1 d . . .
H73 H 0.3185 0.2266 0.3813 0.055 Uiso 1 1 calc R . .
C74 C 0.31146(18) 0.20746(8) 0.44521(13) 0.0531(10) Uani 1 1 d . . .
H74 H 0.3541 0.2142 0.4650 0.064 Uiso 1 1 calc R . .
C75 C 0.26932(18) 0.18948(8) 0.46672(13) 0.0470(9) Uani 1 1 d . . .
C76 C 0.20646(17) 0.17920(8) 0.43642(13) 0.0513(10) Uani 1 1 d . . .
H76 H 0.1782 0.1668 0.4499 0.062 Uiso 1 1 calc R . .
C77 C 0.18564(17) 0.18737(8) 0.38575(13) 0.0479(9) Uani 1 1 d . . .
H77 H 0.1434 0.1803 0.3656 0.057 Uiso 1 1 calc R . .
C78 C 0.34716(19) 0.19358(10) 0.54869(13) 0.0506(9) Uani 1 1 d . . .
C79 C 0.40565(19) 0.17668(9) 0.55185(14) 0.0588(11) Uani 1 1 d . . .
H79 H 0.4054 0.1566 0.5327 0.071 Uiso 1 1 calc R . .
C80 C 0.46471(19) 0.18977(9) 0.58362(13) 0.0556(10) Uani 1 1 d . . .
H80 H 0.5046 0.1786 0.5852 0.067 Uiso 1 1 calc R . .
C81 C 0.46629(17) 0.21932(8) 0.61347(13) 0.0434(9) Uani 1 1 d . . .
C82 C 0.40633(18) 0.23511(9) 0.61029(13) 0.0526(10) Uani 1 1 d . . .
H82 H 0.4057 0.2543 0.6309 0.063 Uiso 1 1 calc R . .
C83 C 0.34677(18) 0.22281(9) 0.57675(13) 0.0538(10) Uani 1 1 d . . .
H83 H 0.3068 0.2345 0.5735 0.065 Uiso 1 1 calc R . .
C84 C 0.53040(19) 0.23295(9) 0.64787(14) 0.0474(9) Uani 1 1 d . . .
Cd1 Cd 0.341137(12) 0.256173(6) 0.280029(9) 0.04136(8) Uani 1 1 d . . .
Cd2 Cd 0.151439(12) 0.247664(5) 0.215988(9) 0.04110(8) Uani 1 1 d . . .
N1 N 0.35324(15) 0.20294(7) 0.24315(11) 0.0492(8) Uani 1 1 d . . .
N2 N 0.46546(16) 0.00245(7) 0.15634(11) 0.0625(9) Uani 1 1 d . . .
N3 N 0.36027(14) -0.19869(6) 0.24691(10) 0.0424(7) Uani 1 1 d . . .
N4 N 0.77935(17) -0.00144(7) -0.04192(12) 0.0678(10) Uani 1 1 d . . .
N5 N 0.83314(16) -0.19741(7) -0.17404(12) 0.0585(9) Uani 1 1 d . . .
N6 N 0.82391(15) 0.19252(7) -0.18097(11) 0.0514(8) Uani 1 1 d . . .
O1 O 0.35130(12) 0.28976(6) 0.20918(9) 0.0530(6) Uani 1 1 d . . .
O2 O 0.25060(11) 0.27088(5) 0.20260(8) 0.0452(6) Uani 1 1 d . . .
O3 O 0.20473(13) 0.31880(6) -0.02242(9) 0.0637(7) Uani 1 1 d . . .
O4 O -0.03733(12) 0.24073(6) -0.18450(10) 0.0658(7) Uani 1 1 d . . .
O5 O -0.09190(12) 0.27380(7) -0.14710(9) 0.0681(8) Uani 1 1 d . . .
O6 O 0.24293(11) 0.23291(5) 0.29312(8) 0.0480(6) Uani 1 1 d . . .
O7 O 0.14261(12) 0.21353(6) 0.28562(9) 0.0542(6) Uani 1 1 d . . .
O8 O 0.28580(13) 0.18063(6) 0.51637(9) 0.0622(7) Uani 1 1 d . . .
O9 O 0.53046(12) 0.25432(6) 0.68154(10) 0.0663(7) Uani 1 1 d . . .
O10 O 0.58386(12) 0.22222(7) 0.64242(9) 0.0661(7) Uani 1 1 d . . .
N7 N 0.6153(4) 0.10189(14) 0.5515(3) 0.161(3) Uani 1 1 d . . .
N8 N 0.4900(5) 0.2988(2) 0.4955(3) 0.229(4) Uani 1 1 d . . .
O11 O 0.5121(3) 0.09889(14) 0.5447(2) 0.202(3) Uani 1 1 d . . .
C88 C 0.5912(4) 0.11740(15) 0.6250(3) 0.175(3) Uani 1 1 d . . .
H88A H 0.6126 0.0983 0.6468 0.262 Uiso 1 1 d R . .
H88B H 0.5502 0.1235 0.6309 0.262 Uiso 1 1 d R . .
H88C H 0.6203 0.1377 0.6316 0.262 Uiso 1 1 d R . .
C86 C 0.6903(4) 0.10712(15) 0.5847(3) 0.204(4) Uani 1 1 d . . .
H86A H 0.7059 0.1300 0.5782 0.307 Uiso 1 1 d R . .
H86B H 0.7170 0.0889 0.5767 0.307 Uiso 1 1 d R . .
H86C H 0.6939 0.1055 0.6193 0.307 Uiso 1 1 d R . .
C85 C 0.6021(4) 0.08845(13) 0.5007(2) 0.178(4) Uani 1 1 d . . .
H85A H 0.6098 0.0633 0.5015 0.267 Uiso 1 1 d R . .
H85B H 0.6301 0.1000 0.4846 0.267 Uiso 1 1 d R . .
H85C H 0.5560 0.0933 0.4825 0.267 Uiso 1 1 d R . .
O12 O 0.4290(4) 0.34466(18) 0.5089(3) 0.295(4) Uani 1 1 d . . .
C87 C 0.5756(6) 0.1057(2) 0.5737(4) 0.148(3) Uani 1 1 d . . .
C91 C 0.4698(6) 0.3205(3) 0.5190(4) 0.226(5) Uani 1 1 d . . .
C90 C 0.5276(5) 0.2698(3) 0.5089(3) 0.273(6) Uani 1 1 d . . .
H90A H 0.5519 0.2708 0.5440 0.409 Uiso 1 1 calc R . .
H90B H 0.5585 0.2685 0.4904 0.409 Uiso 1 1 calc R . .
H90C H 0.4994 0.2491 0.5019 0.409 Uiso 1 1 calc R . .
C92 C 0.5020(5) 0.3182(2) 0.5776(4) 0.278(5) Uani 1 1 d . . .
H92A H 0.5400 0.3338 0.5884 0.417 Uiso 1 1 calc R . .
H92B H 0.5161 0.2943 0.5871 0.417 Uiso 1 1 calc R . .
H92C H 0.4696 0.3252 0.5931 0.417 Uiso 1 1 calc R . .
C89 C 0.4555(6) 0.2996(3) 0.4424(4) 0.382(9) Uani 1 1 d . . .
H89A H 0.4141 0.3122 0.4362 0.574 Uiso 1 1 d R . .
H89B H 0.4463 0.2752 0.4326 0.574 Uiso 1 1 d R . .
H89C H 0.4810 0.3101 0.4234 0.574 Uiso 1 1 d R . .

loop_
_atom_site_aniso_label
_atom_site_aniso_U_1