####################################################################### 
# 
# This file contains crystal structure data downloaded from the 
# Cambridge Structural Database (CSD) hosted by the Cambridge 
# Crystallographic Data Centre (CCDC).
# 
# Full information about CCDC data access policies and citation 
# guidelines are available at http://www.ccdc.cam.ac.uk/access/V1 
# 
# Audit and citation data items may have been added by the CCDC. 
# Please retain this information to preserve the provenance of 
# this file and to allow appropriate attribution of the data. 
# 
#######################################################################

data_CoHPDC
_audit_block_doi                 10.5517/ccz4f9t
_database_code_depnum_ccdc_archive 'CCDC 897986'
loop_
_citation_id
_citation_doi
_citation_year
1 10.1080/00958972.2014.959002 2014
_audit_update_record             
;
2012-08-23 deposited with the CCDC.	2024-07-10 downloaded from the CCDC.
;
#TrackingRef 'CoHPDC.cif'


_audit_creation_date             2012-07-31T19:10:40-00:00
_audit_creation_method           'WinGX routine CIF_UPDATE'

#----------------------------------------------------------------------------#
# CHEMICAL INFORMATION #
#----------------------------------------------------------------------------#

_chemical_name_systematic        
;
{[\m-bis(3,4-pyridinedicarboxylate)-diaquacobalt(II)]}
;
_chemical_formula_moiety         'C28 H24 Co2 N4 O20, 4(C2 H6 O S), 4(H2 O)'
_chemical_formula_sum            'C36 H56 Co2 N4 O28 S4'
_chemical_formula_weight         1238.95

#----------------------------------------------------------------------------#
# UNIT CELL INFORMATION #
#----------------------------------------------------------------------------#

_symmetry_cell_setting           Monoclinic
_symmetry_space_group_name_Hall  '-P 2ybc'
_symmetry_space_group_name_H-M   'P 21/c'
_symmetry_Int_Tables_number      14
loop_
_symmetry_equiv_pos_as_xyz
'x, y, z'
'-x, y+1/2, -z+1/2'
'-x, -y, -z'
'x, -y-1/2, z-1/2'

_cell_length_a                   8.2952(7)
_cell_length_b                   12.5326(6)
_cell_length_c                   13.6203(7)
_cell_angle_alpha                90
_cell_angle_beta                 105.379(6)
_cell_angle_gamma                90
_cell_volume                     1365.27(15)
_cell_formula_units_Z            1
_cell_measurement_temperature    298(2)
_cell_measurement_wavelength     0.71073
_cell_measurement_reflns_used    3302
_cell_measurement_theta_min      2.2418
_cell_measurement_theta_max      29.2998

#----------------------------------------------------------------------------#
# CRYSTAL INFORMATION #
#----------------------------------------------------------------------------#


_exptl_crystal_description       paralellepiped
_exptl_crystal_colour            pink
_exptl_crystal_size_max          0.30
_exptl_crystal_size_mid          0.26
_exptl_crystal_size_min          0.072
_exptl_crystal_density_diffrn    1.507
_exptl_crystal_density_method    'not measured'
_exptl_crystal_F_000             642
_exptl_special_details           
;
?
;

#----------------------------------------------------------------------------#
# ABSORPTION CORRECTION #
#----------------------------------------------------------------------------#
loop_
_exptl_crystal_face_index_h
_exptl_crystal_face_index_k
_exptl_crystal_face_index_l
_exptl_crystal_face_perp_dist
0 -1 -1 0.1240
0 1 1 0.1414
-1 -2 2 0.1328
1 2 -2 0.1142
-1 0 0 0.0360
1 0 0 0.0360
0 -1 2 0.1686
0 1 -2 0.1518
1 -2 -2 0.1149
0 1 0 0.1467
0 -2 2 0.1336
-2 2 0 0.0735
0 2 -2 0.1200
_exptl_absorpt_coefficient_mu    0.849
_exptl_absorpt_correction_type   multi-scan
_exptl_absorpt_process_details   
;
CrysAlisPro, Oxford Diffraction Ltd.,
Version 1.171.33.55 (release 05-01-2010 CrysAlis171 .NET)
(compiled Jan 5 2010,16:28:46)
Empirical absorption correction using spherical harmonics,
implemented in SCALE3 ABSPACK scaling algorithm.
;
_exptl_absorpt_correction_T_min  0.950
_exptl_absorpt_correction_T_max  0.985

#----------------------------------------------------------------------------#
# DATA COLLECTION #
#----------------------------------------------------------------------------#

_diffrn_ambient_temperature      298(2)
_diffrn_radiation_wavelength     0.71073
_diffrn_radiation_type           MoK\a
_diffrn_radiation_monochromator  graphite
_diffrn_reflns_av_R_equivalents  0.0767
_diffrn_reflns_av_unetI/netI     0.0583
_diffrn_reflns_number            13718
_diffrn_reflns_limit_h_min       -10
_diffrn_reflns_limit_h_max       10
_diffrn_reflns_limit_k_min       -15
_diffrn_reflns_limit_k_max       15
_diffrn_reflns_limit_l_min       -16
_diffrn_reflns_limit_l_max       17
_diffrn_reflns_theta_min         2.25
_diffrn_reflns_theta_max         26.37
_diffrn_reflns_theta_full        0.5
_diffrn_measured_fraction_theta_full 0
_diffrn_measured_fraction_theta_max 1
_reflns_number_total             2788
_reflns_number_gt                2062
_reflns_threshold_expression     >2\s(I)

#----------------------------------------------------------------------------#
# COMPUTER PROGRAMS USED #
#----------------------------------------------------------------------------#

_computing_data_collection       'Collect (Hooft, 1999)'
_computing_cell_refinement       'HKL Scalepack (Otwinowski & Minor 1997)'
_computing_data_reduction        
'HKL Denzo and Scalepack (Otwinowski & Minor 1997)'
_computing_structure_solution    'SHELXS-97 (Sheldrick, 1997)'
_computing_structure_refinement  'SHELXL-97 (Sheldrick, 1997)'
_computing_molecular_graphics    
;
Ortep3 for windows (Farrugia, 1997)
Mercury (Macae, 2006)
;
_computing_publication_material  'PLATON (Spek, 2003)'

#----------------------------------------------------------------------------#
# REFINEMENT INFORMATION #
#----------------------------------------------------------------------------#

_refine_special_details          
;
Refinement of F^2^ against ALL reflections. The weighted R-factor wR and
goodness of fit S are based on F^2^, conventional R-factors R are based
on F, with F set to zero for negative F^2^. The threshold expression of
F^2^ > 2\s(F^2^) is used only for calculating R-factors(gt) etc. and is
not relevant to the choice of reflections for refinement. R-factors based
on F^2^ are statistically about twice as large as those based on F, and R-
factors based on ALL data will be even larger.
;
_refine_ls_structure_factor_coef Fsqd
_refine_ls_matrix_type           full
_refine_ls_weighting_scheme      calc
_refine_ls_weighting_details     
'calc w=1/[\s^2^(Fo^2^)+(0.0680P)^2^+1.2533P] where P=(Fo^2^+2Fc^2^)/3'
_atom_sites_solution_primary     direct
_atom_sites_solution_secondary   difmap
_atom_sites_solution_hydrogens   geom
_refine_ls_hydrogen_treatment    constr
_refine_ls_extinction_method     SHELXL
_refine_ls_extinction_expression none
_refine_ls_number_reflns         2788
_refine_ls_number_parameters     169
_refine_ls_number_restraints     0
_refine_ls_R_factor_all          0.0761
_refine_ls_R_factor_gt           0.0526
_refine_ls_wR_factor_ref         0.1463
_refine_ls_wR_factor_gt          0.1272
_refine_ls_goodness_of_fit_ref   1.028
_refine_ls_restrained_S_all      1.028
_refine_ls_shift/su_max          0
_refine_ls_shift/su_mean         0
_refine_diff_density_max         0.840
_refine_diff_density_min         -0.573
_refine_diff_density_rms         0.093

#----------------------------------------------------------------------------#
# ATOMIC TYPES, COORDINATES AND THERMAL PARAMETERS #
#----------------------------------------------------------------------------#

loop_
_atom_type_symbol
_atom_type_description
_atom_type_scat_dispersion_real
_atom_type_scat_dispersion_imag
_atom_type_scat_source
C C 0.0033 0.0016 'International Tables Vol C Tables 4.2.6.8 and 6.1.1.4'
H H 0 0 'International Tables Vol C Tables 4.2.6.8 and 6.1.1.4'
N N 0.0061 0.0033 'International Tables Vol C Tables 4.2.6.8 and 6.1.1.4'
O O 0.0106 0.006 'International Tables Vol C Tables 4.2.6.8 and 6.1.1.4'
Co Co 0.3494 0.9721 'International Tables Vol C Tables 4.2.6.8 and 6.1.1.4'
S S 0.1246 0.1234 'International Tables Vol C Tables 4.2.6.8 and 6.1.1.4'

loop_
_atom_site_label
_atom_site_type_symbol
_atom_site_fract_x
_atom_site_fract_y
_atom_site_fract_z
_atom_site_U_iso_or_equiv
_atom_site_adp_type
_atom_site_occupancy
_atom_site_symmetry_multiplicity
_atom_site_calc_flag
_atom_site_refinement_flags
_atom_site_disorder_assembly
_atom_site_disorder_group
Co1 Co 1.0000 0.0000 1.0000 0.0236(2) Uani 1 2 d S . .
S1 S 1.30273(18) -0.46653(11) 1.18150(9) 0.0681(4) Uani 1 1 d . . .
O4 O 0.9923(3) -0.12725(16) 1.09984(15) 0.0285(5) Uani 1 1 d . . .
O5 O 1.2599(3) -0.01979(18) 1.04088(17) 0.0352(6) Uani 1 1 d . . .
H5B H 1.3037 0.0231 1.0024 0.053 Uiso 1 1 d R . .
H5A H 1.3175 -0.0872 1.0387 0.053 Uiso 1 1 d R . .
O1 O 0.7837(5) -0.49924(19) 1.09056(19) 0.0656(10) Uani 1 1 d . . .
H1 H 0.7610 -0.5214 1.0318 0.098 Uiso 1 1 calc R . .
N1 N 0.9665(3) -0.3863(2) 1.37643(18) 0.0282(6) Uani 1 1 d . . .
O3 O 0.7230(3) -0.1237(2) 1.1020(2) 0.0543(8) Uani 1 1 d . . .
O2 O 0.7861(5) -0.3438(2) 1.01596(18) 0.0735(11) Uani 1 1 d . . .
C2 C 0.8731(4) -0.3520(2) 1.1959(2) 0.0285(7) Uani 1 1 d . . .
O6 O 1.3167(5) -0.4121(2) 1.0848(2) 0.0838(12) Uani 1 1 d . . .
C1 C 0.8105(5) -0.3962(3) 1.0910(2) 0.0367(8) Uani 1 1 d . . .
C4 C 0.9988(4) -0.2821(2) 1.3906(2) 0.0314(8) Uani 1 1 d . . .
H4 H 1.0429 -0.2574 1.4567 0.038 Uiso 1 1 calc R . .
C5 C 0.9701(5) -0.2097(3) 1.3121(2) 0.0346(8) Uani 1 1 d . . .
H5 H 0.9940 -0.1380 1.3261 0.042 Uiso 1 1 calc R . .
C3 C 0.9042(4) -0.4189(2) 1.2796(2) 0.0309(7) Uani 1 1 d . . .
H3 H 0.8805 -0.4911 1.2682 0.037 Uiso 1 1 calc R . .
C7 C 0.8696(5) -0.1590(2) 1.1287(2) 0.0313(8) Uani 1 1 d . . .
C6 C 0.9057(4) -0.2428(2) 1.2123(2) 0.0279(7) Uani 1 1 d . . .
O7 O 1.4056(4) -0.2110(2) 1.0250(3) 0.0799(11) Uani 1 1 d . . .
H7A H 1.3910 -0.2731 1.0468 0.120 Uiso 1 1 d R . .
H7B H 1.5102 -0.1980 1.0461 0.120 Uiso 1 1 d R . .
C8 C 1.3919(8) -0.3750(6) 1.2782(4) 0.101(2) Uani 1 1 d . . .
H8A H 1.3194 -0.3144 1.2733 0.151 Uiso 1 1 calc R . .
H8B H 1.4985 -0.3521 1.2708 0.151 Uiso 1 1 calc R . .
H8C H 1.4065 -0.4085 1.3434 0.151 Uiso 1 1 calc R . .
C9 C 1.4576(7) -0.5658(4) 1.2082(4) 0.0778(15) Uani 1 1 d . . .
H9A H 1.4255 -0.6231 1.1602 0.117 Uiso 1 1 calc R . .
H9B H 1.4702 -0.5925 1.2759 0.117 Uiso 1 1 calc R . .
H9C H 1.5618 -0.5361 1.2031 0.117 Uiso 1 1 calc R . .

loop_
_atom_site_aniso_label
_atom_site_aniso_U_11
_atom_site_aniso_U_22
_atom_site_aniso_U_33
_atom_site_aniso_U_23
_atom_site_aniso_U_13
_atom_site_aniso_U_12
Co1 0.0338(4) 0.0189(3) 0.0176(3) 0.0000(2) 0.0058(2) -0.0006(2)
S1 0.0664(9) 0.0802(9) 0.0516(7) 0.0022(6) 0.0049(6) -0.0164(7)
O4 0.0371(13) 0.0247(11) 0.0247(10) 0.0050(9) 0.0099(9) -0.0002(10)
O5 0.0345(14) 0.0328(13) 0.0374(13) 0.0071(10) 0.0079(10) 0.0011(10)
O1 0.128(3) 0.0287(14) 0.0266(13) -0.0036(10) -0.0039(16) -0.0048(15)
N1 0.0392(17) 0.0233(13) 0.0220(12) 0.0040(10) 0.0078(11) 0.0025(12)
O3 0.0394(16) 0.0579(18) 0.0659(17) 0.0344(14) 0.0146(13) 0.0081(13)
O2 0.133(3) 0.0494(17) 0.0253(13) 0.0063(13) -0.0015(15) -0.0343(19)
C2 0.0350(19) 0.0248(16) 0.0239(15) 0.0014(13) 0.0050(13) 0.0003(14)
O6 0.154(4) 0.0464(18) 0.0367(15) -0.0046(13) 0.0002(18) -0.027(2)
C1 0.049(2) 0.0321(19) 0.0257(16) 0.0020(14) 0.0050(15) -0.0064(16)
C4 0.043(2) 0.0271(17) 0.0224(15) -0.0011(13) 0.0058(14) -0.0033(14)
C5 0.049(2) 0.0217(16) 0.0320(17) 0.0005(13) 0.0090(15) -0.0025(15)
C3 0.040(2) 0.0222(16) 0.0290(16) 0.0028(13) 0.0068(14) -0.0019(14)
C7 0.042(2) 0.0242(16) 0.0245(15) 0.0011(13) 0.0035(14) -0.0032(15)
C6 0.0307(18) 0.0253(16) 0.0285(16) 0.0063(13) 0.0093(13) 0.0013(13)
O7 0.050(2) 0.0423(17) 0.140(3) 0.0151(19) 0.012(2) 0.0067(15)
C8 0.128(6) 0.121(5) 0.049(3) -0.026(3) 0.018(3) -0.005(4)
C9 0.076(4) 0.093(4) 0.059(3) 0.010(3) 0.008(3) -0.001(3)


#----------------------------------------------------------------------------#
# MOLECULAR GEOMETRY #
#----------------------------------------------------------------------------#

_geom_special_details            
;
All s.u.'s (except the s.u. in the dihedral angle between two l.s. planes)
are estimated using the full covariance matrix. The cell s.u.'s are taken
into account individually in the estimation of s.u.'s in distances, angles
and torsion angles; correlations between s.u.'s in cell parameters are only
used when they are defined by crystal symmetry. An approximate (isotropic)
treatment of cell s.u.'s is used for estimating s.u.'s involving l.s. planes.
;
loop_
_geom_bond_atom_site_label_1
_geom_bond_atom_site_label_2
_geom_bond_distance
_geom_bond_site_symmetry_2
_geom_bond_publ_flag
Co1 O5 2.093(2) 3_757 ?
Co1 O5 2.093(2) . ?
Co1 O4 2.108(2) 3_757 ?
Co1 O4 2.108(2) . ?
Co1 N1 2.166(2) 2_757 ?
Co1 N1 2.166(2) 4 ?
S1 O6 1.514(3) . ?
S1 C8 1.755(5) . ?
S1 C9 1.756(5) . ?
O4 C7 1.249(4) . ?
O1 C1 1.310(4) . ?
N1 C4 1.337(4) . ?
N1 C3 1.346(4) . ?
N1 Co1 2.166(2) 2_747 ?
O3 C7 1.254(4) . ?
O2 C1 1.187(4) . ?
C2 C3 1.384(4) . ?
C2 C6 1.401(4) . ?
C2 C1 1.491(4) . ?
C4 C5 1.373(4) . ?
C5 C6 1.386(4) . ?
C7 C6 1.520(4) . ?

loop_
_geom_angle_atom_site_label_1
_geom_angle_atom_site_label_2
_geom_angle_atom_site_label_3
_geom_angle
_geom_angle_site_symmetry_1
_geom_angle_site_symmetry_3
_geom_angle_publ_flag
O5 Co1 O5 180.0 3_757 . ?
O5 Co1 O4 86.80(9) 3_757 3_757 ?
O5 Co1 O4 93.20(9) . 3_757 ?
O5 Co1 O4 93.20(9) 3_757 . ?
O5 Co1 O4 86.80(9) . . ?
O4 Co1 O4 180.0 3_757 . ?
O5 Co1 N1 92.27(10) 3_757 2_757 ?
O5 Co1 N1 87.73(10) . 2_757 ?
O4 Co1 N1 89.09(9) 3_757 2_757 ?
O4 Co1 N1 90.91(9) . 2_757 ?
O5 Co1 N1 87.73(10) 3_757 4 ?
O5 Co1 N1 92.27(10) . 4 ?
O4 Co1 N1 90.91(9) 3_757 4 ?
O4 Co1 N1 89.09(9) . 4 ?
N1 Co1 N1 180.0 2_757 4 ?
O6 S1 C8 104.1(2) . . ?
O6 S1 C9 106.2(2) . . ?
C8 S1 C9 99.7(3) . . ?
C7 O4 Co1 127.6(2) . . ?
C4 N1 C3 116.6(3) . . ?
C4 N1 Co1 123.4(2) . 2_747 ?
C3 N1 Co1 119.9(2) . 2_747 ?
C3 C2 C6 118.3(3) . . ?
C3 C2 C1 120.4(3) . . ?
C6 C2 C1 121.3(3) . . ?
O2 C1 O1 123.5(3) . . ?
O2 C1 C2 123.8(3) . . ?
O1 C1 C2 112.8(3) . . ?
N1 C4 C5 123.1(3) . . ?
C4 C5 C6 120.5(3) . . ?
N1 C3 C2 124.2(3) . . ?
O4 C7 O3 127.2(3) . . ?
O4 C7 C6 116.2(3) . . ?
O3 C7 C6 116.4(3) . . ?
C5 C6 C2 117.2(3) . . ?
C5 C6 C7 118.5(3) . . ?
C2 C6 C7 124.3(3) . . ?

loop_
_geom_torsion_atom_site_label_1
_geom_torsion_atom_site_label_2
_geom_torsion_atom_site_label_3
_geom_torsion_atom_site_label_4
_geom_torsion
_geom_torsion_site_symmetry_1
_geom_torsion_site_symmetry_2
_geom_torsion_site_symmetry_3
_geom_torsion_site_symmetry_4
_geom_torsion_publ_flag
O5 Co1 N1 C3 -64.2(2) . . 2_757 2_757 no
O5 Co1 N1 C4 113.2(2) . . 2_757 2_757 no
O4 Co1 N1 C3 22.6(2) . . 2_757 2_757 no
O4 Co1 N1 C4 -160.0(3) . . 2_757 2_757 no
O5 Co1 N1 C3 -118.8(2) . . 4_544 4_544 no
O5 Co1 N1 C4 -141.8(2) 3_555 . . . no
O4 Co1 N1 C3 -23.6(2) 4_554 . . . no
O4 Co1 N1 C4 169.3(2) 4_554 . . . no

loop_
_geom_contact_atom_site_label_1
_geom_contact_atom_site_label_2
_geom_contact_distance
_geom_contact_site_symmetry_1
_geom_contact_site_symmetry_2
_geom_contact_publ_flag
S1 O2 3.518(3) . 3_747 no
O1 O6 2.565(4) . 3_747 no
O2 O3 3.095(4) . . no
O3 O5 2.681(3) . 3_757 no
O3 O7 2.787(4) . 1_455 no
O4 N1 2.998(3) . 4_555 no
O4 O5 3.053(3) . 3_757 no
O4 N1 3.047(3) . 2_757 no
O4 O5 2.887(3) . . no
O5 N1 3.072(3) 3_757 2_757 no
O5 O7 2.719(4) . . no
O5 N1 2.952(4) . 2_757 no
O6 O7 2.806(4) . . no

loop_
_geom_hbond_atom_site_label_D
_geom_hbond_atom_site_label_H
_geom_hbond_atom_site_label_A
_geom_hbond_distance_DH
_geom_hbond_distance_HA
_geom_hbond_distance_DA
_geom_hbond_angle_DHA
_geom_hbond_site_symmetry_A
O1 H1 O6 0.82 1.76 2.565(4) 166.6 3_747
O1 H1 S1 0.82 2.82 3.608(3) 163.00 3_747
O5 H5B O3 0.89 1.87 2.681(3) 150.3 3_757
_chemical_name_common            
((mu-bis(3,4-pyridinedicarboxylate)-diaquacobalt(ii)))
