####################################################################### 
# 
# This file contains crystal structure data downloaded from the 
# Cambridge Structural Database (CSD) hosted by the Cambridge 
# Crystallographic Data Centre (CCDC).
# 
# Full information about CCDC data access policies and citation 
# guidelines are available at http://www.ccdc.cam.ac.uk/access/V1 
# 
# Audit and citation data items may have been added by the CCDC. 
# Please retain this information to preserve the provenance of 
# this file and to allow appropriate attribution of the data. 
# 
#######################################################################

data_complex1
_audit_block_doi                 10.5517/cc137prs
_database_code_depnum_ccdc_archive 'CCDC 1020295'
loop_
_citation_id
_citation_doi
_citation_year
1 10.1039/C4DT02641A 2014
_audit_update_record             
;
2014-10-02 deposited with the CCDC.	2024-07-10 downloaded from the CCDC.
;

_audit_creation_method           SHELXL-97
_chemical_name_systematic        
; 
 ? 
;
_chemical_name_common            ?
_chemical_melting_point          ?
_chemical_formula_moiety         'C68 H60 F N12 O14 Zn2, Mo12 O40 P'
_chemical_formula_sum            'C68 H60 F Mo12 N12 O54 P Zn2'
_chemical_formula_weight         3241.27

loop_
_atom_type_symbol
_atom_type_description
_atom_type_scat_dispersion_real
_atom_type_scat_dispersion_imag
_atom_type_scat_source
C C 0.0033 0.0016 'International Tables Vol C Tables 4.2.6.8 and 6.1.1.4'
Mo Mo -1.6832 0.6857 'International Tables Vol C Tables 4.2.6.8 and 6.1.1.4'
N N 0.0061 0.0033 'International Tables Vol C Tables 4.2.6.8 and 6.1.1.4'
O O 0.0106 0.0060 'International Tables Vol C Tables 4.2.6.8 and 6.1.1.4'
P P 0.1023 0.0942 'International Tables Vol C Tables 4.2.6.8 and 6.1.1.4'
Zn Zn 0.2839 1.4301 'International Tables Vol C Tables 4.2.6.8 and 6.1.1.4'
H H 0.0000 0.0000 'International Tables Vol C Tables 4.2.6.8 and 6.1.1.4'
F F 0.0171 0.0103 'International Tables Vol C Tables 4.2.6.8 and 6.1.1.4'

_symmetry_cell_setting           monoclinic
_symmetry_space_group_name_H-M   P2/c
_symmetry_space_group_name_Hall  '-P 2yc'

loop_
_symmetry_equiv_pos_as_xyz
'x, y, z'
'-x, y, -z+1/2'
'-x, -y, -z'
'x, -y, z-1/2'

_cell_length_a                   19.693(4)
_cell_length_b                   16.245(3)
_cell_length_c                   26.761(8)
_cell_angle_alpha                90.00
_cell_angle_beta                 132.800(18)
_cell_angle_gamma                90.00
_cell_volume                     6282(3)
_cell_formula_units_Z            2
_cell_measurement_temperature    113(2)
_cell_measurement_reflns_used    20525
_cell_measurement_theta_min      3.5807
_cell_measurement_theta_max      27.5865

_exptl_crystal_description       block
_exptl_crystal_colour            yellow
_exptl_crystal_size_max          0.35
_exptl_crystal_size_mid          0.23
_exptl_crystal_size_min          0.20
_exptl_crystal_density_meas      ?
_exptl_crystal_density_diffrn    1.714
_exptl_crystal_density_method    'not measured'
_exptl_crystal_F_000             3144
_exptl_absorpt_coefficient_mu    1.624
_exptl_absorpt_correction_type   Multi-scan
_exptl_absorpt_correction_T_min  0.7187
_exptl_absorpt_correction_T_max  1.0000
_exptl_absorpt_process_details   'CrystalClear; Rigaku Inc., 2007'

_exptl_special_details           
; 
 ? 
;

_diffrn_ambient_temperature      113(2)
_diffrn_radiation_wavelength     0.71073
_diffrn_radiation_type           MoK\a
_diffrn_radiation_source         'fine-focus sealed tube'
_diffrn_radiation_monochromator  graphite
_diffrn_measurement_device_type  'Rigaku Saturn 724 CCD area-detector'
_diffrn_measurement_method       \w
_diffrn_detector_area_resol_mean ?
_diffrn_standards_number         ?
_diffrn_standards_interval_count ?
_diffrn_standards_interval_time  ?
_diffrn_standards_decay_%        ?
_diffrn_reflns_number            52158
_diffrn_reflns_av_R_equivalents  0.0795
_diffrn_reflns_av_unetI/netI     0.0703
_diffrn_reflns_limit_h_min       -25
_diffrn_reflns_limit_h_max       25
_diffrn_reflns_limit_k_min       -21
_diffrn_reflns_limit_k_max       20
_diffrn_reflns_limit_l_min       -32
_diffrn_reflns_limit_l_max       34
_diffrn_reflns_theta_min         3.58
_diffrn_reflns_theta_max         27.60
_reflns_number_total             14511
_reflns_number_gt                12011
_reflns_threshold_expression     >2sigma(I)

_computing_data_collection       'CrystalClear (Rigaku Inc., 2007)'
_computing_cell_refinement       'CrystalClear (Rigaku Inc., 2007)'
_computing_data_reduction        'CrystalClear (Rigaku Inc., 2007)'
_computing_structure_solution    'SHELXS-97 (Sheldrick, 1990)'
_computing_structure_refinement  'SHELXL-97 (Sheldrick, 1997)'
_computing_molecular_graphics    'DIAMOND (Brandenburg, 2004)'
_computing_publication_material  'SHELXL97 and publCIF (Westrip, 2010)'

_refine_special_details          
; 
 Refinement of F^2^ against ALL reflections.  The weighted R-factor wR and 
 goodness of fit S are based on F^2^, conventional R-factors R are based 
 on F, with F set to zero for negative F^2^. The threshold expression of 
 F^2^ > 2sigma(F^2^) is used only for calculating R-factors(gt) etc. and is 
 not relevant to the choice of reflections for refinement.  R-factors based 
 on F^2^ are statistically about twice as large as those based on F, and R- 
 factors based on ALL data will be even larger. 
;
loop_
_platon_squeeze_void_nr
_platon_squeeze_void_average_x
_platon_squeeze_void_average_y
_platon_squeeze_void_average_z
_platon_squeeze_void_volume
_platon_squeeze_void_count_electrons
_platon_squeeze_void_content
1 0.713 0.500 0.184 2032 705 ' '
_platon_squeeze_details          
;
The mixed solvent was used when synthesis, 
so content of the solvent is unable to provide precise.
Combined with TGA data and volume/count_electrons analysis, 
there are approximately twelve NMP molecules per unit cell was squeezed
;
_refine_ls_structure_factor_coef Fsqd
_refine_ls_matrix_type           full
_refine_ls_weighting_scheme      calc
_refine_ls_weighting_details     
'calc w=1/[\s^2^(Fo^2^)+(0.0735P)^2^+107.5059P] where P=(Fo^2^+2Fc^2^)/3'
_atom_sites_solution_primary     direct
_atom_sites_solution_secondary   difmap
_atom_sites_solution_hydrogens   geom
_refine_ls_hydrogen_treatment    constr
_refine_ls_extinction_method     none
_refine_ls_extinction_coef       ?
_refine_ls_number_reflns         14511
_refine_ls_number_parameters     681
_refine_ls_number_restraints     0
_refine_ls_R_factor_all          0.1089
_refine_ls_R_factor_gt           0.0914
_refine_ls_wR_factor_ref         0.2318
_refine_ls_wR_factor_gt          0.2212
_refine_ls_goodness_of_fit_ref   1.094
_refine_ls_restrained_S_all      1.094
_refine_ls_shift/su_max          0.010
_refine_ls_shift/su_mean         0.000

loop_
_atom_site_label
_atom_site_type_symbol
_atom_site_fract_x
_atom_site_fract_y
_atom_site_fract_z
_atom_site_U_iso_or_equiv
_atom_site_adp_type
_atom_site_occupancy
_atom_site_symmetry_multiplicity
_atom_site_calc_flag
_atom_site_refinement_flags
_atom_site_disorder_assembly
_atom_site_disorder_group
Mo1 Mo 0.15863(8) 0.17971(5) 0.30471(5) 0.0395(2) Uani 1 1 d . . .
Mo2 Mo 0.22587(7) 0.02414(6) 0.41502(5) 0.0342(2) Uani 1 1 d . . .
Mo3 Mo 0.06418(8) 0.16286(5) 0.37392(5) 0.0373(2) Uani 1 1 d . . .
Mo4 Mo 0.05038(6) -0.12838(5) 0.37084(4) 0.02724(19) Uani 1 1 d . . .
Mo5 Mo -0.12309(7) 0.01013(5) 0.30425(5) 0.0326(2) Uani 1 1 d . . .
Mo6 Mo -0.15273(6) -0.14522(5) 0.20525(4) 0.02685(19) Uani 1 1 d . . .
Zn1 Zn 0.5000 0.60209(10) 0.2500 0.0298(3) Uani 1 2 d S . .
Zn2 Zn 0.5000 0.84836(11) 0.2500 0.0354(4) Uani 1 2 d S . .
F1 F 0.5000 0.7254(5) 0.2500 0.0341(18) Uani 1 2 d S . .
P1 P 0.0000 0.01705(19) 0.2500 0.0231(6) Uani 1 2 d S . .
O1 O 0.5000 0.4657(6) 0.2500 0.042(3) Uani 1 2 d S . .
O2 O 0.5000 0.9798(8) 0.2500 0.055(3) Uani 1 2 d S . .
O3 O 0.0669(6) 0.5747(5) -0.0634(4) 0.0415(18) Uani 1 1 d . . .
O4 O 0.2831(6) 0.6051(5) -0.0779(5) 0.051(2) Uani 1 1 d . . .
O5 O 0.9171(6) 0.6330(5) 0.3588(5) 0.048(2) Uani 1 1 d . . .
O6 O 0.7144(5) 0.5996(5) 0.1288(4) 0.046(2) Uani 1 1 d . . .
O7 O 0.3571(5) 0.8426(5) 0.1933(4) 0.0375(17) Uani 1 1 d . . .
O8 O 0.5271(6) 0.8446(6) 0.3412(4) 0.050(2) Uani 1 1 d . . .
O9 O 0.2309(7) 0.2476(5) 0.3149(5) 0.050(2) Uani 1 1 d . . .
O10 O 0.1706(6) 0.0887(5) 0.2612(4) 0.0390(17) Uani 1 1 d . . .
O11 O 0.2507(5) 0.1107(4) 0.3854(4) 0.0362(17) Uani 1 1 d . . .
O12 O 0.1300(6) 0.2249(5) 0.3518(4) 0.0450(19) Uani 1 1 d . . .
O13 O 0.3267(7) 0.0054(6) 0.4929(4) 0.051(2) Uani 1 1 d . . .
O14 O 0.1739(6) 0.1066(4) 0.4368(4) 0.0407(18) Uani 1 1 d . . .
O15 O 0.0698(7) 0.2348(5) 0.4214(5) 0.050(2) Uani 1 1 d . . .
O16 O -0.0468(6) 0.2005(4) 0.2804(4) 0.0432(19) Uani 1 1 d . . .
O17 O 0.0781(5) 0.0717(4) 0.3099(3) 0.0285(14) Uani 1 1 d . . .
O18 O 0.1407(5) -0.0511(4) 0.4116(4) 0.0338(15) Uani 1 1 d . . .
O19 O -0.0114(6) 0.0850(4) 0.3638(4) 0.0361(17) Uani 1 1 d . . .
O20 O 0.0974(5) -0.1997(4) 0.4314(3) 0.0338(16) Uani 1 1 d . . .
O21 O -0.0261(5) -0.0722(4) 0.3747(4) 0.0338(16) Uani 1 1 d . . .
O22 O -0.0374(5) -0.0375(4) 0.2726(3) 0.0279(14) Uani 1 1 d . . .
O23 O -0.1759(6) 0.0302(4) 0.3321(4) 0.0423(19) Uani 1 1 d . . .
O24 O -0.0636(5) -0.1900(4) 0.2904(3) 0.0292(14) Uani 1 1 d . . .
O25 O -0.1875(5) -0.0772(5) 0.2478(4) 0.0342(16) Uani 1 1 d . . .
O26 O -0.0965(5) -0.1656(4) 0.1734(3) 0.0284(14) Uani 1 1 d . . .
O27 O -0.2180(5) -0.0543(4) 0.1385(4) 0.0322(15) Uani 1 1 d . . .
O28 O -0.2371(5) -0.2146(4) 0.1663(4) 0.0329(15) Uani 1 1 d . . .
N1 N 0.3894(6) 0.5979(5) 0.1407(5) 0.0344(19) Uani 1 1 d . . .
N2 N 0.1737(6) 0.5935(5) -0.0723(5) 0.0358(19) Uani 1 1 d . . .
N3 N 0.6007(6) 0.6029(5) 0.2421(4) 0.0313(18) Uani 1 1 d . . .
N4 N 0.8150(6) 0.6207(5) 0.2432(5) 0.0313(18) Uani 1 1 d . . .
N5 N 0.2022(6) 0.8609(6) 0.1135(5) 0.038(2) Uani 1 1 d . . .
N6 N 0.5248(10) 0.8476(9) 0.4225(7) 0.067(4) Uani 1 1 d . . .
C1 C 0.3809(9) 0.5375(8) 0.1044(6) 0.047(3) Uani 1 1 d . . .
H1 H 0.4262 0.4952 0.1277 0.057 Uiso 1 1 calc R . .
C2 C 0.3103(10) 0.5311(8) 0.0343(7) 0.054(3) Uani 1 1 d . . .
H2 H 0.3064 0.4860 0.0098 0.065 Uiso 1 1 calc R . .
C3 C 0.2461(7) 0.5939(7) 0.0022(5) 0.037(2) Uani 1 1 d . . .
C4 C 0.2539(9) 0.6544(8) 0.0395(6) 0.051(3) Uani 1 1 d . . .
H4 H 0.2073 0.6955 0.0181 0.061 Uiso 1 1 calc R . .
C5 C 0.3277(8) 0.6577(7) 0.1078(6) 0.044(3) Uani 1 1 d . . .
H5 H 0.3351 0.7043 0.1325 0.053 Uiso 1 1 calc R . .
C6 C 0.0816(7) 0.5843(6) -0.1006(6) 0.034(2) Uani 1 1 d . . .
C7 C 0.0098(8) 0.5879(6) -0.1758(6) 0.034(2) Uani 1 1 d . . .
C8 C -0.0810(7) 0.5863(6) -0.2069(6) 0.034(2) Uani 1 1 d . . .
H8 H -0.0968 0.5840 -0.1804 0.041 Uiso 1 1 calc R . .
C9 C 0.0353(7) 0.5899(5) -0.2140(5) 0.029(2) Uani 1 1 d . . .
C10 C 0.1281(7) 0.5899(6) -0.1831(5) 0.030(2) Uani 1 1 d . . .
C11 C 0.1507(9) 0.5881(7) -0.2218(6) 0.041(3) Uani 1 1 d . . .
H11 H 0.2139 0.5881 -0.2000 0.049 Uiso 1 1 calc R . .
C12 C 0.2022(8) 0.5968(6) -0.1073(6) 0.038(2) Uani 1 1 d . . .
C13 C 0.6034(7) 0.6664(6) 0.2108(6) 0.036(2) Uani 1 1 d . . .
H13 H 0.5567 0.7074 0.1892 0.043 Uiso 1 1 calc R . .
C14 C 0.6713(7) 0.6735(7) 0.2093(6) 0.039(3) Uani 1 1 d . . .
H14 H 0.6708 0.7183 0.1862 0.046 Uiso 1 1 calc R . .
C15 C 0.7419(8) 0.6137(7) 0.2424(6) 0.038(2) Uani 1 1 d . . .
C16 C 0.7355(8) 0.5481(7) 0.2718(7) 0.046(3) Uani 1 1 d . . .
H16 H 0.7801 0.5052 0.2930 0.055 Uiso 1 1 calc R . .
C17 C 0.6644(8) 0.5452(7) 0.2702(7) 0.045(3) Uani 1 1 d . . .
H17 H 0.6610 0.4993 0.2904 0.055 Uiso 1 1 calc R . .
C18 C 0.9058(8) 0.6273(6) 0.3086(7) 0.039(3) Uani 1 1 d . . .
C19 C 0.9837(7) 0.6273(6) 0.3108(6) 0.031(2) Uani 1 1 d . . .
C20 C 1.0716(7) 0.6262(6) 0.3721(5) 0.030(2) Uani 1 1 d . . .
H20 H 1.0836 0.6272 0.4129 0.036 Uiso 1 1 calc R . .
C21 C 0.9614(7) 0.6241(5) 0.2480(5) 0.0255(19) Uani 1 1 d . . .
C22 C 0.8702(7) 0.6237(6) 0.1844(6) 0.034(2) Uani 1 1 d . . .
C23 C 0.8538(8) 0.6235(6) 0.1257(6) 0.036(2) Uani 1 1 d . . .
H23 H 0.7918 0.6216 0.0828 0.043 Uiso 1 1 calc R . .
C24 C 0.7928(7) 0.6133(6) 0.1808(6) 0.036(2) Uani 1 1 d . . .
C25 C 0.2873(7) 0.8798(6) 0.1418(5) 0.032(2) Uani 1 1 d . . .
C26 C 0.2837(8) 0.9451(8) 0.1026(6) 0.046(3) Uani 1 1 d . . .
H26A H 0.2967 0.9227 0.0754 0.055 Uiso 1 1 calc R . .
H26B H 0.3297 0.9884 0.1332 0.055 Uiso 1 1 calc R . .
C27 C 0.1873(10) 0.9795(8) 0.0567(6) 0.051(3) Uani 1 1 d . . .
H27A H 0.1639 0.9929 0.0112 0.061 Uiso 1 1 calc R . .
H27B H 0.1850 1.0296 0.0766 0.061 Uiso 1 1 calc R . .
C28 C 0.1315(8) 0.9095(7) 0.0523(5) 0.043(3) Uani 1 1 d . . .
H28A H 0.0849 0.9310 0.0528 0.051 Uiso 1 1 calc R . .
H28B H 0.0997 0.8764 0.0105 0.051 Uiso 1 1 calc R . .
C29 C 0.1790(9) 0.7952(7) 0.1367(7) 0.048(3) Uani 1 1 d . . .
H29A H 0.1566 0.7472 0.1069 0.072 Uiso 1 1 calc R . .
H29B H 0.1305 0.8143 0.1354 0.072 Uiso 1 1 calc R . .
H29C H 0.2341 0.7800 0.1835 0.072 Uiso 1 1 calc R . .
C30 C 0.4934(8) 0.8720(8) 0.3631(7) 0.050(3) Uani 1 1 d . . .
C31 C 0.4150(10) 0.9298(10) 0.3301(8) 0.065(4) Uani 1 1 d . . .
H31A H 0.3553 0.9011 0.2950 0.078 Uiso 1 1 calc R . .
H31B H 0.4198 0.9757 0.3083 0.078 Uiso 1 1 calc R . .
C32 C 0.4219(12) 0.9612(12) 0.3862(9) 0.075(5) Uani 1 1 d . . .
H32A H 0.3600 0.9711 0.3700 0.090 Uiso 1 1 calc R . .
H32B H 0.4589 1.0124 0.4065 0.090 Uiso 1 1 calc R . .
C33 C 0.4716(15) 0.8889(12) 0.4368(10) 0.095(7) Uani 1 1 d . . .
H33A H 0.5137 0.9091 0.4844 0.114 Uiso 1 1 calc R . .
H33B H 0.4263 0.8505 0.4293 0.114 Uiso 1 1 calc R . .
C34 C 0.5951(14) 0.7881(12) 0.4658(9) 0.090(6) Uani 1 1 d . . .
H34A H 0.6123 0.7627 0.4425 0.135 Uiso 1 1 calc R . .
H34B H 0.5722 0.7456 0.4772 0.135 Uiso 1 1 calc R . .
H34C H 0.6495 0.8148 0.5077 0.135 Uiso 1 1 calc R . .

loop_
_atom_site_aniso_label
_atom_site_aniso_U_11
_atom_site_aniso_U_22
_atom_site_aniso_U_33
_atom_site_aniso_U_23
_atom_site_aniso_U_13
_atom_site_aniso_U_12
Mo1 0.0687(7) 0.0221(4) 0.0519(6) -0.0086(4) 0.0505(6) -0.0128(4)
Mo2 0.0441(5) 0.0293(4) 0.0364(5) -0.0084(4) 0.0302(4) -0.0113(4)
Mo3 0.0659(7) 0.0217(4) 0.0462(5) -0.0071(4) 0.0468(5) -0.0063(4)
Mo4 0.0386(5) 0.0207(4) 0.0310(4) 0.0017(3) 0.0270(4) -0.0004(3)
Mo5 0.0527(6) 0.0231(4) 0.0441(5) 0.0028(3) 0.0417(5) 0.0044(4)
Mo6 0.0328(4) 0.0209(4) 0.0332(4) 0.0024(3) 0.0250(4) 0.0016(3)
Zn1 0.0232(7) 0.0336(8) 0.0402(9) 0.000 0.0246(7) 0.000
Zn2 0.0334(9) 0.0322(9) 0.0490(10) 0.000 0.0313(9) 0.000
F1 0.040(5) 0.027(4) 0.049(5) 0.000 0.036(4) 0.000
P1 0.0342(17) 0.0154(14) 0.0309(17) 0.000 0.0266(16) 0.000
O1 0.052(7) 0.021(5) 0.062(7) 0.000 0.042(6) 0.000
O2 0.047(7) 0.042(7) 0.082(9) 0.000 0.047(7) 0.000
O3 0.054(5) 0.031(4) 0.047(5) 0.004(3) 0.037(4) -0.004(3)
O4 0.061(6) 0.046(5) 0.058(5) 0.006(4) 0.045(5) 0.002(4)
O5 0.059(5) 0.042(5) 0.070(6) -0.011(4) 0.055(5) -0.006(4)
O6 0.039(4) 0.046(5) 0.062(5) -0.020(4) 0.038(4) -0.018(4)
O7 0.033(4) 0.036(4) 0.043(4) 0.005(3) 0.026(4) 0.006(3)
O8 0.055(5) 0.052(5) 0.050(5) -0.013(4) 0.038(5) -0.006(4)
O9 0.076(6) 0.032(4) 0.064(6) -0.009(4) 0.056(5) -0.021(4)
O10 0.062(5) 0.034(4) 0.044(4) -0.002(3) 0.045(4) -0.007(3)
O11 0.055(5) 0.027(4) 0.048(4) -0.010(3) 0.043(4) -0.016(3)
O12 0.071(6) 0.026(4) 0.061(5) -0.004(3) 0.054(5) -0.006(4)
O13 0.060(6) 0.055(5) 0.045(5) -0.004(4) 0.039(5) -0.008(4)
O14 0.065(5) 0.028(4) 0.040(4) -0.006(3) 0.040(4) -0.009(3)
O15 0.083(7) 0.029(4) 0.063(6) -0.015(4) 0.060(6) -0.014(4)
O16 0.074(6) 0.021(3) 0.054(5) -0.003(3) 0.051(5) 0.000(3)
O17 0.053(4) 0.017(3) 0.034(4) -0.001(3) 0.037(4) -0.005(3)
O18 0.039(4) 0.030(4) 0.036(4) -0.006(3) 0.027(4) -0.005(3)
O19 0.065(5) 0.021(3) 0.047(4) -0.003(3) 0.047(4) 0.000(3)
O20 0.053(4) 0.024(3) 0.030(4) 0.004(3) 0.030(4) -0.001(3)
O21 0.048(4) 0.027(3) 0.042(4) 0.000(3) 0.036(4) -0.007(3)
O22 0.048(4) 0.012(3) 0.038(4) 0.004(2) 0.035(4) 0.000(3)
O23 0.068(5) 0.028(4) 0.054(5) -0.004(3) 0.051(5) 0.004(4)
O24 0.046(4) 0.014(3) 0.032(4) 0.008(3) 0.029(3) 0.006(3)
O25 0.038(4) 0.037(4) 0.040(4) 0.010(3) 0.032(4) 0.014(3)
O26 0.033(4) 0.022(3) 0.030(3) -0.001(3) 0.021(3) 0.002(3)
O27 0.036(4) 0.034(4) 0.033(4) 0.002(3) 0.026(3) 0.002(3)
O28 0.036(4) 0.029(4) 0.041(4) 0.001(3) 0.029(4) 0.001(3)
N1 0.036(5) 0.024(4) 0.053(6) -0.005(4) 0.035(5) -0.001(3)
N2 0.043(5) 0.030(4) 0.036(5) 0.001(4) 0.027(4) -0.005(4)
N3 0.025(4) 0.033(4) 0.041(5) 0.005(4) 0.025(4) 0.002(3)
N4 0.030(4) 0.025(4) 0.056(5) 0.003(4) 0.036(4) 0.008(3)
N5 0.034(5) 0.033(5) 0.050(5) 0.004(4) 0.029(4) -0.004(4)
N6 0.075(9) 0.077(9) 0.061(8) -0.021(7) 0.051(7) -0.034(7)
C1 0.043(7) 0.041(6) 0.046(7) 0.007(5) 0.025(6) 0.012(5)
C2 0.060(8) 0.044(7) 0.051(7) 0.001(6) 0.035(7) 0.023(6)
C3 0.029(5) 0.032(5) 0.035(6) -0.003(4) 0.016(5) -0.001(4)
C4 0.057(8) 0.044(7) 0.048(7) 0.003(5) 0.034(6) 0.020(6)
C5 0.037(6) 0.033(6) 0.041(6) -0.008(5) 0.018(5) -0.002(5)
C6 0.039(6) 0.029(5) 0.045(6) -0.006(4) 0.032(5) -0.006(4)
C7 0.045(6) 0.017(4) 0.046(6) 0.002(4) 0.034(5) -0.001(4)
C8 0.043(6) 0.020(4) 0.053(7) -0.003(4) 0.038(6) -0.005(4)
C9 0.042(5) 0.014(4) 0.039(5) -0.002(4) 0.030(5) -0.001(4)
C10 0.034(5) 0.017(4) 0.039(5) -0.003(4) 0.025(5) -0.004(4)
C11 0.055(7) 0.028(5) 0.056(7) -0.001(5) 0.044(6) 0.005(5)
C12 0.041(6) 0.025(5) 0.052(7) 0.000(4) 0.034(6) 0.007(4)
C13 0.030(5) 0.025(5) 0.067(7) 0.021(5) 0.039(5) 0.015(4)
C14 0.033(5) 0.030(5) 0.066(7) 0.011(5) 0.040(6) 0.006(4)
C15 0.041(6) 0.034(5) 0.066(7) 0.005(5) 0.047(6) 0.008(4)
C16 0.034(6) 0.041(6) 0.076(9) 0.029(6) 0.042(6) 0.017(5)
C17 0.033(6) 0.044(6) 0.075(9) 0.009(6) 0.043(6) -0.001(5)
C18 0.055(7) 0.019(5) 0.066(8) 0.001(5) 0.050(7) 0.000(4)
C19 0.039(5) 0.016(4) 0.051(6) 0.003(4) 0.035(5) 0.001(4)
C20 0.033(5) 0.024(5) 0.046(6) 0.003(4) 0.032(5) 0.004(4)
C21 0.040(5) 0.013(4) 0.048(6) 0.007(4) 0.040(5) 0.003(3)
C22 0.036(5) 0.023(5) 0.057(7) -0.014(4) 0.038(5) -0.019(4)
C23 0.051(6) 0.023(5) 0.061(7) -0.003(4) 0.048(6) 0.001(4)
C24 0.031(5) 0.024(5) 0.068(7) -0.006(5) 0.039(6) -0.001(4)
C25 0.034(5) 0.036(5) 0.03