####################################################################### 
# 
# This file contains crystal structure data downloaded from the 
# Cambridge Structural Database (CSD) hosted by the Cambridge 
# Crystallographic Data Centre (CCDC).
# 
# Full information about CCDC data access policies and citation 
# guidelines are available at http://www.ccdc.cam.ac.uk/access/V1 
# 
# Audit and citation data items may have been added by the CCDC. 
# Please retain this information to preserve the provenance of 
# this file and to allow appropriate attribution of the data. 
# 
#######################################################################

data_2
_audit_block_doi                 10.5517/cc11n8hg
_database_code_depnum_ccdc_archive 'CCDC 972795'
loop_
_citation_id
_citation_doi
_citation_year
1 10.1016/j.inoche.2014.07.039 2014
_audit_update_record             
;
2013-11-20 deposited with the CCDC.	2024-07-10 downloaded from the CCDC.
;

_audit_creation_method           SHELXL-97
_chemical_name_systematic        
; 
 ? 
;
_chemical_name_common            ?
_chemical_melting_point          ?
_chemical_formula_moiety         ?
_chemical_formula_sum            'C40 H50 B Fe Mn N11 O5'
_chemical_formula_weight         886.51

loop_
_atom_type_symbol
_atom_type_description
_atom_type_scat_dispersion_real
_atom_type_scat_dispersion_imag
_atom_type_scat_source
C C 0.0033 0.0016 'International Tables Vol C Tables 4.2.6.8 and 6.1.1.4'
H H 0.0000 0.0000 'International Tables Vol C Tables 4.2.6.8 and 6.1.1.4'
B B 0.0013 0.0007 'International Tables Vol C Tables 4.2.6.8 and 6.1.1.4'
N N 0.0061 0.0033 'International Tables Vol C Tables 4.2.6.8 and 6.1.1.4'
O O 0.0106 0.0060 'International Tables Vol C Tables 4.2.6.8 and 6.1.1.4'
Mn Mn 0.3368 0.7283 'International Tables Vol C Tables 4.2.6.8 and 6.1.1.4'
Fe Fe 0.3463 0.8444 'International Tables Vol C Tables 4.2.6.8 and 6.1.1.4'

_symmetry_cell_setting           Monoclinic
_symmetry_space_group_name_H-M   'P2(1)/n  '

loop_
_symmetry_equiv_pos_as_xyz
'x, y, z'
'-x+1/2, y+1/2, -z+1/2'
'-x, -y, -z'
'x-1/2, -y-1/2, z-1/2'

_cell_length_a                   12.948(4)
_cell_length_b                   14.609(5)
_cell_length_c                   24.110(7)
_cell_angle_alpha                90.00
_cell_angle_beta                 98.196(18)
_cell_angle_gamma                90.00
_cell_volume                     4514(2)
_cell_formula_units_Z            4
_cell_measurement_temperature    296(2)
_cell_measurement_reflns_used    3996
_cell_measurement_theta_min      2.35
_cell_measurement_theta_max      23.50

_exptl_crystal_description       block
_exptl_crystal_colour            black
_exptl_crystal_size_max          0.30
_exptl_crystal_size_mid          0.28
_exptl_crystal_size_min          0.24
_exptl_crystal_density_meas      ?
_exptl_crystal_density_diffrn    1.305
_exptl_crystal_density_method    'not measured'
_exptl_crystal_F_000             1852
_exptl_absorpt_coefficient_mu    0.655
_exptl_absorpt_correction_type   empirical
_exptl_absorpt_correction_T_min  0.7912
_exptl_absorpt_correction_T_max  0.9585
_exptl_absorpt_process_details   sadabs

_exptl_special_details           
; 
 ? 
;

_diffrn_ambient_temperature      296(2)
_diffrn_radiation_wavelength     0.71073
_diffrn_radiation_type           MoK\a
_diffrn_radiation_source         'fine-focus sealed tube'
_diffrn_radiation_monochromator  graphite
_diffrn_measurement_device_type  'Smart Apex II CCD'
_diffrn_measurement_method       'omega scans'
_diffrn_detector_area_resol_mean ?
_diffrn_standards_number         0
_diffrn_standards_interval_count 0
_diffrn_standards_interval_time  0
_diffrn_standards_decay_%        0
_diffrn_reflns_number            22825
_diffrn_reflns_av_R_equivalents  0.0889
_diffrn_reflns_av_sigmaI/netI    0.0974
_diffrn_reflns_limit_h_min       -14
_diffrn_reflns_limit_h_max       15
_diffrn_reflns_limit_k_min       -15
_diffrn_reflns_limit_k_max       17
_diffrn_reflns_limit_l_min       -28
_diffrn_reflns_limit_l_max       28
_diffrn_reflns_theta_min         1.71
_diffrn_reflns_theta_max         25.00
_reflns_number_total             7945
_reflns_number_gt                4513
_reflns_threshold_expression     >2sigma(I)

_computing_data_collection       'Bruker APEX2'
_computing_cell_refinement       'Bruker SAINT'
_computing_data_reduction        'Bruker SAINT'
_computing_structure_solution    'SHELXS-97 (Sheldrick, 1990)'
_computing_structure_refinement  'SHELXL-97 (Sheldrick, 1997)'
_computing_molecular_graphics    'Bruker SHELXTL'
_computing_publication_material  'Bruker SHELXTL'

_refine_special_details          
; 
 Refinement of F^2^ against ALL reflections.  The weighted R-factor wR and 
 goodness of fit S are based on F^2^, conventional R-factors R are based 
 on F, with F set to zero for negative F^2^. The threshold expression of 
 F^2^ > 2sigma(F^2^) is used only for calculating R-factors(gt) etc. and is 
 not relevant to the choice of reflections for refinement.  R-factors based 
 on F^2^ are statistically about twice as large as those based on F, and R- 
 factors based on ALL data will be even larger. 
;

_refine_ls_structure_factor_coef Fsqd
_refine_ls_matrix_type           full
_refine_ls_weighting_scheme      calc
_refine_ls_weighting_details     
'calc w=1/[\s^2^(Fo^2^)+(0.1150P)^2^+0.0000P] where P=(Fo^2^+2Fc^2^)/3'
_atom_sites_solution_primary     direct
_atom_sites_solution_secondary   difmap
_atom_sites_solution_hydrogens   geom
_refine_ls_hydrogen_treatment    mixed
_refine_ls_extinction_method     none
_refine_ls_extinction_coef       ?
_refine_ls_number_reflns         7945
_refine_ls_number_parameters     546
_refine_ls_number_restraints     1
_refine_ls_R_factor_all          0.1284
_refine_ls_R_factor_gt           0.0710
_refine_ls_wR_factor_ref         0.2125
_refine_ls_wR_factor_gt          0.1894
_refine_ls_goodness_of_fit_ref   1.017
_refine_ls_restrained_S_all      1.017
_refine_ls_shift/su_max          0.000
_refine_ls_shift/su_mean         0.000

loop_
_atom_site_label
_atom_site_type_symbol
_atom_site_fract_x
_atom_site_fract_y
_atom_site_fract_z
_atom_site_U_iso_or_equiv
_atom_site_adp_type
_atom_site_occupancy
_atom_site_symmetry_multiplicity
_atom_site_calc_flag
_atom_site_refinement_flags
_atom_site_disorder_assembly
_atom_site_disorder_group
Fe1 Fe 0.50372(5) 0.52492(5) 0.31606(2) 0.0516(2) Uani 1 1 d . . .
Mn1 Mn 0.29732(5) 0.83081(6) 0.29409(3) 0.0591(3) Uani 1 1 d . . .
B1 B 0.6423(5) 0.4120(5) 0.4023(2) 0.0626(17) Uani 1 1 d . . .
N1 N 0.6360(3) 0.3666(3) 0.34531(17) 0.0641(11) Uani 1 1 d . . .
N2 N 0.5823(3) 0.4119(3) 0.30014(15) 0.0596(11) Uani 1 1 d . . .
N3 N 0.5329(3) 0.4178(3) 0.41879(14) 0.0595(11) Uani 1 1 d . . .
N4 N 0.4589(3) 0.4660(3) 0.38382(14) 0.0535(10) Uani 1 1 d . . .
N5 N 0.6860(3) 0.5091(3) 0.39963(15) 0.0559(11) Uani 1 1 d . . .
N6 N 0.6306(3) 0.5721(3) 0.36391(14) 0.0521(10) Uani 1 1 d . . .
N7 N 0.3055(3) 0.4494(4) 0.24463(17) 0.0756(14) Uani 1 1 d . . .
N8 N 0.5605(4) 0.6228(4) 0.21100(19) 0.0950(17) Uani 1 1 d . . .
N9 N 0.3832(3) 0.7020(4) 0.33164(18) 0.0702(13) Uani 1 1 d . . .
N10 N 0.1772(3) 0.7479(4) 0.2728(2) 0.0888(17) Uani 1 1 d . . .
N11 N 0.3338(3) 0.7934(4) 0.22049(17) 0.0860(17) Uani 1 1 d . . .
C1 C 0.7445(6) 0.2262(6) 0.3662(3) 0.123(3) Uani 1 1 d . . .
H1A H 0.8013 0.2591 0.3872 0.184 Uiso 1 1 calc R . .
H1B H 0.7716 0.1783 0.3451 0.184 Uiso 1 1 calc R . .
H1C H 0.7017 0.1999 0.3915 0.184 Uiso 1 1 calc R . .
C2 C 0.6814(4) 0.2892(4) 0.3277(2) 0.0748(16) Uani 1 1 d . . .
C3 C 0.6564(5) 0.2875(5) 0.2704(3) 0.0842(18) Uani 1 1 d . . .
H3 H 0.6767 0.2428 0.2467 0.101 Uiso 1 1 calc R . .
C4 C 0.5972(4) 0.3622(5) 0.2542(2) 0.0700(15) Uani 1 1 d . . .
C5 C 0.5560(5) 0.3924(5) 0.1955(2) 0.0855(19) Uani 1 1 d . . .
H5A H 0.4838 0.4089 0.1935 0.128 Uiso 1 1 calc R . .
H5B H 0.5627 0.3431 0.1699 0.128 Uiso 1 1 calc R . .
H5C H 0.5951 0.4442 0.1857 0.128 Uiso 1 1 calc R . .
C6 C 0.5527(5) 0.3308(5) 0.5095(2) 0.090(2) Uani 1 1 d . . .
H6A H 0.5145 0.3265 0.5407 0.136 Uiso 1 1 calc R . .
H6B H 0.6184 0.3604 0.5211 0.136 Uiso 1 1 calc R . .
H6C H 0.5648 0.2704 0.4960 0.136 Uiso 1 1 calc R . .
C7 C 0.4918(4) 0.3846(4) 0.46425(18) 0.0620(14) Uani 1 1 d . . .
C8 C 0.3892(4) 0.4125(4) 0.45671(19) 0.0695(16) Uani 1 1 d . . .
H8 H 0.3408 0.4003 0.4807 0.083 Uiso 1 1 calc R . .
C9 C 0.3705(4) 0.4618(4) 0.40741(19) 0.0579(13) Uani 1 1 d . . .
C10 C 0.2697(4) 0.5061(5) 0.3821(2) 0.0742(16) Uani 1 1 d . . .
H10A H 0.2685 0.5685 0.3945 0.111 Uiso 1 1 calc R . .
H10B H 0.2120 0.4734 0.3936 0.111 Uiso 1 1 calc R . .
H10C H 0.2643 0.5046 0.3420 0.111 Uiso 1 1 calc R . .
C11 C 0.8496(4) 0.5000(5) 0.4674(3) 0.092(2) Uani 1 1 d . . .
H11A H 0.8817 0.4533 0.4476 0.138 Uiso 1 1 calc R . .
H11B H 0.8153 0.4723 0.4959 0.138 Uiso 1 1 calc R . .
H11C H 0.9021 0.5417 0.4844 0.138 Uiso 1 1 calc R . .
C12 C 0.7715(3) 0.5510(5) 0.42734(19) 0.0641(15) Uani 1 1 d . . .
C13 C 0.7698(4) 0.6406(5) 0.4099(2) 0.0697(16) Uani 1 1 d . . .
H13 H 0.8184 0.6857 0.4222 0.084 Uiso 1 1 calc R . .
C14 C 0.6824(3) 0.6507(4) 0.37083(19) 0.0578(13) Uani 1 1 d . . .
C15 C 0.6482(4) 0.7394(5) 0.3401(2) 0.0816(17) Uani 1 1 d . . .
H15A H 0.6415 0.7294 0.3004 0.122 Uiso 1 1 calc R . .
H15B H 0.6994 0.7862 0.3506 0.122 Uiso 1 1 calc R . .
H15C H 0.5822 0.7585 0.3499 0.122 Uiso 1 1 calc R . .
C16 C 0.3799(4) 0.4797(4) 0.27070(19) 0.0606(13) Uani 1 1 d . . .
C17 C 0.5412(4) 0.5860(4) 0.2507(2) 0.0653(14) Uani 1 1 d . . .
C18 C 0.4284(4) 0.6345(4) 0.32743(18) 0.0565(13) Uani 1 1 d . . .
C19 C 0.4903(4) 0.9258(4) 0.2766(2) 0.0680(15) Uani 1 1 d . . .
C20 C 0.5723(5) 0.9835(5) 0.2981(3) 0.0881(19) Uani 1 1 d . . .
H20 H 0.5762 1.0049 0.3346 0.106 Uiso 1 1 calc R . .
C21 C 0.6475(6) 1.0095(6) 0.2661(4) 0.107(2) Uani 1 1 d . . .
H21 H 0.7005 1.0489 0.2813 0.129 Uiso 1 1 calc R . .
C22 C 0.6458(6) 0.9789(7) 0.2132(4) 0.118(3) Uani 1 1 d . . .
H22 H 0.6970 0.9972 0.1921 0.142 Uiso 1 1 calc R . .
C23 C 0.5674(6) 0.9201(7) 0.1907(3) 0.115(3) Uani 1 1 d . . .
H23 H 0.5669 0.8978 0.1545 0.138 Uiso 1 1 calc R . .
C24 C 0.4864(4) 0.8927(5) 0.2224(2) 0.0734(16) Uani 1 1 d . . .
C25 C 0.4115(5) 0.8276(6) 0.1981(2) 0.091(2) Uani 1 1 d . . .
H25 H 0.4185 0.8073 0.1622 0.109 Uiso 1 1 calc R . .
C26 C 0.2715(5) 0.7145(8) 0.1961(3) 0.147(4) Uani 1 1 d . . .
H26 H 0.3031 0.6597 0.2149 0.176 Uiso 1 1 calc R . .
C27 C 0.2686(7) 0.6992(12) 0.1356(4) 0.247(9) Uani 1 1 d . . .
H27A H 0.2632 0.7584 0.1172 0.297 Uiso 1 1 calc R . .
H27B H 0.3348 0.6727 0.1297 0.297 Uiso 1 1 calc R . .
C28 C 0.1933(8) 0.6464(10) 0.1101(4) 0.210(7) Uani 1 1 d . . .
H28A H 0.2132 0.5831 0.1174 0.252 Uiso 1 1 calc R . .
H28B H 0.1886 0.6563 0.0701 0.252 Uiso 1 1 calc R . .
C29 C 0.0840(6) 0.6607(8) 0.1270(3) 0.147(4) Uani 1 1 d . . .
H29A H 0.0522 0.7142 0.1078 0.177 Uiso 1 1 calc R . .
H29B H 0.0407 0.6082 0.1148 0.177 Uiso 1 1 calc R . .
C30 C 0.0865(6) 0.6728(9) 0.1885(4) 0.177(5) Uani 1 1 d . . .
H30A H 0.0211 0.7001 0.1951 0.213 Uiso 1 1 calc R . .
H30B H 0.0911 0.6129 0.2059 0.213 Uiso 1 1 calc R . .
C31 C 0.1630(6) 0.7233(9) 0.2131(3) 0.174(5) Uani 1 1 d . . .
H31 H 0.1425 0.7829 0.1965 0.209 Uiso 1 1 calc R . .
C32 C 0.1222(4) 0.7102(5) 0.3100(3) 0.089(2) Uani 1 1 d . . .
H32 H 0.0753 0.6644 0.2967 0.106 Uiso 1 1 calc R . .
C33 C 0.1280(4) 0.7321(5) 0.3661(2) 0.0761(17) Uani 1 1 d . . .
C34 C 0.0617(5) 0.6840(6) 0.3988(4) 0.107(2) Uani 1 1 d . . .
H34 H 0.0200 0.6360 0.3835 0.129 Uiso 1 1 calc R . .
C35 C 0.0610(6) 0.7107(8) 0.4540(3) 0.125(3) Uani 1 1 d . . .
H35 H 0.0179 0.6794 0.4752 0.150 Uiso 1 1 calc R . .
C36 C 0.1190(6) 0.7789(8) 0.4778(3) 0.126(3) Uani 1 1 d . . .
H36 H 0.1154 0.7957 0.5147 0.151 Uiso 1 1 calc R . .
C37 C 0.1846(5) 0.8244(6) 0.4470(2) 0.099(2) Uani 1 1 d . . .
H37 H 0.2271 0.8704 0.4644 0.119 Uiso 1 1 calc R . .
C38 C 0.1902(4) 0.8042(5) 0.3902(2) 0.0779(18) Uani 1 1 d . . .
C39 C 0.4727(14) 0.5556(14) 0.0718(5) 0.288(11) Uani 1 1 d D . .
H39A H 0.5264 0.5121 0.0673 0.432 Uiso 1 1 calc R . .
H39B H 0.4320 0.5676 0.0361 0.432 Uiso 1 1 calc R . .
H39C H 0.4284 0.5313 0.0970 0.432 Uiso 1 1 calc R . .
C40 C 0.6331(15) 1.0032(14) 0.4611(6) 0.267(8) Uani 1 1 d . . .
H40A H 0.6258 1.0046 0.5002 0.401 Uiso 1 1 calc R . .
H40B H 0.5729 0.9744 0.4404 0.401 Uiso 1 1 calc R . .
H40C H 0.6390 1.0646 0.4478 0.401 Uiso 1 1 calc R . .
O1 O 0.4177(3) 0.9034(3) 0.30926(13) 0.0698(10) Uani 1 1 d . . .
O2 O 0.2538(3) 0.8555(3) 0.36341(13) 0.0681(10) Uani 1 1 d . . .
O3 O 0.5192(7) 0.6388(10) 0.0943(3) 0.253(6) Uani 1 1 d D . .
H3A H 0.5160 0.6774 0.0694 0.380 Uiso 1 1 calc R . .
O4 O 0.4575(9) 0.9173(7) 0.4417(3) 0.251(5) Uani 1 1 d . . .
O5 O 0.7493(19) 0.939(3) 0.4516(8) 0.58(2) Uani 1 1 d . . .
H5 H 0.7838 0.9289 0.4822 0.870 Uiso 1 1 calc R . .
H1 H 0.677(4) 0.369(4) 0.423(2) 0.076(16) Uiso 1 1 d . . .

loop_
_atom_site_aniso_label
_atom_site_aniso_U_11
_atom_site_aniso_U_22
_atom_site_aniso_U_33
_atom_site_aniso_U_23
_atom_site_aniso_U_13
_atom_site_aniso_U_12
Fe1 0.0398(4) 0.0636(6) 0.0507(4) -0.0042(3) 0.0048(3) -0.0038(3)
Mn1 0.0421(4) 0.0755(7) 0.0590(4) 0.0046(4) 0.0043(3) 0.0049(4)
B1 0.050(3) 0.072(5) 0.063(3) 0.007(3) -0.002(3) 0.017(3)
N1 0.054(2) 0.067(3) 0.071(2) -0.006(2) 0.011(2) 0.011(2)
N2 0.053(2) 0.068(3) 0.059(2) -0.011(2) 0.0148(19) 0.000(2)
N3 0.054(2) 0.069(3) 0.055(2) -0.005(2) 0.0067(18) 0.003(2)
N4 0.045(2) 0.064(3) 0.0514(19) -0.0016(18) 0.0056(17) 0.000(2)
N5 0.040(2) 0.063(3) 0.063(2) -0.0042(19) 0.0060(18) 0.003(2)
N6 0.0411(19) 0.058(3) 0.056(2) -0.0013(19) 0.0024(17) 0.004(2)
N7 0.057(3) 0.104(4) 0.065(2) -0.016(2) 0.005(2) -0.020(3)
N8 0.109(4) 0.112(5) 0.067(3) 0.000(3) 0.024(3) -0.027(4)
N9 0.051(2) 0.073(4) 0.084(3) -0.001(2) 0.001(2) 0.008(3)
N10 0.043(2) 0.128(5) 0.094(3) -0.030(3) 0.002(2) 0.000(3)
N11 0.047(2) 0.150(6) 0.060(2) -0.020(3) 0.002(2) 0.010(3)
C1 0.127(6) 0.105(7) 0.133(6) -0.016(5) 0.009(5) 0.064(5)
C2 0.063(3) 0.064(4) 0.100(4) -0.010(3) 0.019(3) 0.008(3)
C3 0.083(4) 0.083(5) 0.092(4) -0.022(3) 0.031(3) 0.005(4)
C4 0.058(3) 0.081(5) 0.075(3) -0.018(3) 0.022(3) -0.008(3)
C5 0.087(4) 0.106(6) 0.066(3) -0.024(3) 0.021(3) -0.015(4)
C6 0.110(5) 0.094(5) 0.064(3) 0.018(3) 0.003(3) 0.021(4)
C7 0.072(3) 0.061(4) 0.055(3) 0.001(2) 0.014(2) -0.001(3)
C8 0.070(3) 0.085(5) 0.059(3) -0.010(3) 0.026(3) -0.013(3)
C9 0.053(3) 0.061(4) 0.062(3) -0.008(2) 0.018(2) 0.000(3)
C10 0.049(3) 0.094(5) 0.083(3) -0.009(3) 0.023(3) -0.004(3)
C11 0.053(3) 0.118(6) 0.097(4) 0.005(4) -0.017(3) 0.009(3)
C12 0.038(2) 0.091(5) 0.062(3) -0.008(3) 0.001(2) 0.005(3)
C13 0.040(3) 0.082(5) 0.083(3) -0.005(3) -0.004(2) -0.003(3)
C14 0.040(2) 0.061(4) 0.071(3) -0.001(2) 0.006(2) -0.004(2)
C15 0.056(3) 0.087(5) 0.098(4) 0.005(3) 0.000(3) -0.017(3)
C16 0.062(3) 0.068(4) 0.054(2) -0.004(2) 0.016(2) -0.008(3)
C17 0.056(3) 0.081(4) 0.057(3) -0.004(3) 0.003(2) -0.010(3)
C18 0.037(2) 0.073(4) 0.056(2) 0.003(2) -0.006(2) -0.005(3)
C19 0.054(3) 0.073(4) 0.079(3) 0.022(3) 0.015(3) 0.012(3)
C20 0.073(4) 0.077(5) 0.118(5) -0.007(4) 0.030(4) -0.015(4)
C21 0.077(4) 0.102(7) 0.151(7) -0.007(5) 0.046(5) -0.024(4)
C22 0.086(5) 0.125(8) 0.156(7) 0.027(6) 0.059(6) -0.004(5)
C23 0.099(5) 0.153(9) 0.103(5) 0.015(5) 0.051(4) 0.007(6)
C24 0.058(3) 0.089(5) 0.076(3) 0.013(3) 0.019(3) 0.004(3)
C25 0.071(4) 0.150(7) 0.054(3) 0.006(3) 0.019(3) 0.030(4)
C26 0.067(4) 0.267(12) 0.108(5) -0.093(7) 0.017(4) -0.045(6)
C27 0.119(7) 0.48(3) 0.153(8) -0.177(12) 0.060(7) -0.108(11)
C28 0.131(8) 0.355(19) 0.148(8) -0.152(10) 0.034(7) -0.062(10)
C29 0.099(6) 0.215(12) 0.124(6) -0.063(6) 0.002(5) -0.038(7)
C30 0.087(5) 0.290(15) 0.151(7) -0.108(9) 0.004(5) -0.056(7)
C31 0.077(5) 0.327(16) 0.120(6) -0.117(8) 0.020(4) -0.049(7)
C32 0.032(3) 0.088(5) 0.144(6) -0.010(4) 0.005(3) -0.014(3)
C33 0.049(3) 0.096(5) 0.081(4) 0.020(3) 0.001(3) 0.004(3)
C34 0.052(3) 0.111(7) 0.157(7) 0.041(5) 0.008(4) 0.003(4)
C35 0.084(5) 0.190(10) 0.099(5) 0.054(6) 0.011(4) -0.014(6)
C36 0.073(4) 0.222(11) 0.081(4) 0.036(5) 0.011(4) -0.011(6)
C37 0.071(4) 0.153(7) 0.073(3) 0.025(4) 0.015(3) 0.003(4)
C38 0.048(3) 0.106(6) 0.079(3) 0.034(3) 0.009(3) 0.023(3)
C39 0.249(18) 0.44(3) 0.170(12) -0.112(15) 0.011(12) -0.10(2)
C40 0.255(19) 0.33(2) 0.200(14) -0.086(13) -0.033(13) -0.024(17)
O1 0.0558(19) 0.087(3) 0.0678(19) 0.0040(18) 0.0132(16) -0.0084(19)
O2 0.058(2) 0.084(3) 0.0642(18) 0.0086(17) 0.0159(17) -0.001(2)
O3 0.178(7) 0.490(19) 0.089(4) 0.033(6) 0.009(4) -0.143(10)
O4 0.335(12) 0.197(10) 0.194(7) 0.013(6) -0.057(7) -0.088(10)
O5 0.37(3) 1.00(7) 0.36(2) -0.12(3) 0.000(19) 0.02(4)

_geom_special_details            
; 
 All esds (except the esd in the dihedral angle between two l.s. planes) 
 are estimated using the full covariance matrix.  The cell esds are taken 
 into account individually in the estimation of esds in distances, angles 
 and torsion angles; correlations between esds in cell parameters are only 
 used when they are defined by crystal symmetry.  An approximate (isotropic) 
 treatment of cell esds is used for estimating esds involving l.s. planes. 
;

loop_
_geom_bond_atom_site_label_1
_geom_bond_atom_site_label_2
_geom_bond_distance
_geom_bond_site_symmetry_2
_geom_bond_publ_flag
Fe1 C18 1.914(6) . ?
Fe1 C16 1.924(5) . ?
Fe1 C17 1.932(5) . ?
Fe1 N6 1.991(4) . ?
Fe1 N4 2.004(4) . ?
Fe1 N2 2.005(4) . ?
Mn1 O2 1.873(3) . ?
Mn1 O1 1.877(4) . ?
Mn1 N11 1.978(4) . ?
Mn1 N10 1.9