####################################################################### 
# 
# This file contains crystal structure data downloaded from the 
# Cambridge Structural Database (CSD) hosted by the Cambridge 
# Crystallographic Data Centre (CCDC).
# 
# Full information about CCDC data access policies and citation 
# guidelines are available at http://www.ccdc.cam.ac.uk/access/V1 
# 
# Audit and citation data items may have been added by the CCDC. 
# Please retain this information to preserve the provenance of 
# this file and to allow appropriate attribution of the data. 
# 
#######################################################################

data_290407d
_audit_block_doi                 10.5517/ccw58gr
_database_code_depnum_ccdc_archive 'CCDC 809424'
loop_
_citation_id
_citation_doi
_citation_year
1 10.1016/j.inoche.2014.07.025 2014
_audit_update_record             
;
2011-01-23 deposited with the CCDC.	2024-07-10 downloaded from the CCDC.
;
#TrackingRef '3.cif'


_audit_creation_method           SHELXL-97
_chemical_name_systematic        
;
?
;
_chemical_name_common            ?
_chemical_melting_point          ?
_chemical_formula_moiety         ?
_chemical_formula_sum            'C44 H34 N4 O8 Zn2'
_chemical_formula_weight         877.49

loop_
_atom_type_symbol
_atom_type_description
_atom_type_scat_dispersion_real
_atom_type_scat_dispersion_imag
_atom_type_scat_source
C C 0.0033 0.0016 'International Tables Vol C Tables 4.2.6.8 and 6.1.1.4'
H H 0.0000 0.0000 'International Tables Vol C Tables 4.2.6.8 and 6.1.1.4'
N N 0.0061 0.0033 'International Tables Vol C Tables 4.2.6.8 and 6.1.1.4'
O O 0.0106 0.0060 'International Tables Vol C Tables 4.2.6.8 and 6.1.1.4'
Zn Zn 0.2839 1.4301 'International Tables Vol C Tables 4.2.6.8 and 6.1.1.4'

_symmetry_cell_setting           Triclinic
_symmetry_space_group_name_H-M   'P-1 '

loop_
_symmetry_equiv_pos_as_xyz
'x, y, z'
'-x, -y, -z'

_cell_length_a                   10.1586(13)
_cell_length_b                   12.5673(16)
_cell_length_c                   25.139(2)
_cell_angle_alpha                79.781(2)
_cell_angle_beta                 78.947(3)
_cell_angle_gamma                87.008(2)
_cell_volume                     3099.4(6)
_cell_formula_units_Z            2
_cell_measurement_temperature    291(2)
_cell_measurement_reflns_used    ?
_cell_measurement_theta_min      ?
_cell_measurement_theta_max      ?

_exptl_crystal_description       block
_exptl_crystal_colour            colorless
_exptl_crystal_size_max          0.28
_exptl_crystal_size_mid          0.24
_exptl_crystal_size_min          0.22
_exptl_crystal_density_meas      ?
_exptl_crystal_density_diffrn    0.940
_exptl_crystal_density_method    'not measured'
_exptl_crystal_F_000             900
_exptl_absorpt_coefficient_mu    0.812
_exptl_absorpt_correction_type   multi-scan
_exptl_absorpt_correction_T_min  0.8045
_exptl_absorpt_correction_T_max  0.8416
_exptl_absorpt_process_details   'SADABS; Bruker, 2000'

_exptl_special_details           
;
?
;

_diffrn_ambient_temperature      291(2)
_diffrn_radiation_wavelength     0.71073
_diffrn_radiation_type           MoK\a
_diffrn_radiation_source         'fine-focus sealed tube'
_diffrn_radiation_monochromator  graphite
_diffrn_measurement_device_type  'CCD area detector'
_diffrn_measurement_method       'phi and omega scans'
_diffrn_detector_area_resol_mean ?
_diffrn_standards_number         ?
_diffrn_standards_interval_count ?
_diffrn_standards_interval_time  ?
_diffrn_standards_decay_%        ?
_diffrn_reflns_number            15658
_diffrn_reflns_av_R_equivalents  0.0309
_diffrn_reflns_av_sigmaI/netI    0.1062
_diffrn_reflns_limit_h_min       -11
_diffrn_reflns_limit_h_max       12
_diffrn_reflns_limit_k_min       -14
_diffrn_reflns_limit_k_max       14
_diffrn_reflns_limit_l_min       -29
_diffrn_reflns_limit_l_max       28
_diffrn_reflns_theta_min         1.97
_diffrn_reflns_theta_max         25.00
_reflns_number_total             10741
_reflns_number_gt                5650
_reflns_threshold_expression     >2sigma(I)

_computing_data_collection       'SMART (Bruker, 2000)'
_computing_cell_refinement       SMART
_computing_data_reduction        'SAINT (Bruker, 2000)'
_computing_structure_solution    'SHELXTL (Bruker, 2000)'
_computing_structure_refinement  SHELXTL
_computing_molecular_graphics    SHELXTL
_computing_publication_material  SHELXTL

_refine_special_details          
;
Refinement of F^2^ against ALL reflections. The weighted R-factor wR and
goodness of fit S are based on F^2^, conventional R-factors R are based
on F, with F set to zero for negative F^2^. The threshold expression of
F^2^ > 2sigma(F^2^) is used only for calculating R-factors(gt) etc. and is
not relevant to the choice of reflections for refinement. R-factors based
on F^2^ are statistically about twice as large as those based on F, and R-
factors based on ALL data will be even larger.
;

# SQUEEZE RESULTS (APPEND TO CIF)
# Note: Data are Listed for all Voids in the P1 Unit Cell
# i.e. Centre of Gravity, Solvent Accessible Volume,
# Recovered number of Electrons in the Void and
# Details about the Squeezed Material
loop_
_platon_squeeze_void_nr
_platon_squeeze_void_average_x
_platon_squeeze_void_average_y
_platon_squeeze_void_average_z
_platon_squeeze_void_volume
_platon_squeeze_void_count_electrons
_platon_squeeze_void_content
1 -0.182 -0.500 0.258 1418 376 ' '

_refine_ls_structure_factor_coef Fsqd
_refine_ls_matrix_type           full
_refine_ls_weighting_scheme      calc
_refine_ls_weighting_details     
'calc w=1/[\s^2^(Fo^2^)+(0.0500P)^2^+1.9900P] where P=(Fo^2^+2Fc^2^)/3'
_atom_sites_solution_primary     direct
_atom_sites_solution_secondary   difmap
_atom_sites_solution_hydrogens   geom
_refine_ls_hydrogen_treatment    constr
_refine_ls_extinction_method     none
_refine_ls_extinction_coef       ?
_refine_ls_number_reflns         10741
_refine_ls_number_parameters     523
_refine_ls_number_restraints     0
_refine_ls_R_factor_all          0.0923
_refine_ls_R_factor_gt           0.0606
_refine_ls_wR_factor_ref         0.1486
_refine_ls_wR_factor_gt          0.1420
_refine_ls_goodness_of_fit_ref   1.044
_refine_ls_restrained_S_all      1.044
_refine_ls_shift/su_max          0.000
_refine_ls_shift/su_mean         0.000

loop_
_atom_site_label
_atom_site_type_symbol
_atom_site_fract_x
_atom_site_fract_y
_atom_site_fract_z
_atom_site_U_iso_or_equiv
_atom_site_adp_type
_atom_site_occupancy
_atom_site_symmetry_multiplicity
_atom_site_calc_flag
_atom_site_refinement_flags
_atom_site_disorder_assembly
_atom_site_disorder_group
C1 C 0.7088(5) 0.5038(4) 0.96180(18) 0.0488(12) Uani 1 1 d . . .
H1 H 0.6449 0.5556 0.9722 0.059 Uiso 1 1 calc R . .
C2 C 0.6982(5) 0.3990(4) 0.9924(2) 0.0545(14) Uani 1 1 d . . .
H2 H 0.6282 0.3811 1.0220 0.065 Uiso 1 1 calc R . .
C3 C 0.7953(5) 0.3227(4) 0.97723(18) 0.0409(11) Uani 1 1 d . . .
C4 C 0.8956(5) 0.3517(4) 0.9336(2) 0.0545(13) Uani 1 1 d . . .
H4 H 0.9606 0.3007 0.9232 0.065 Uiso 1 1 calc R . .
C5 C 0.9019(5) 0.4565(4) 0.90457(19) 0.0467(11) Uani 1 1 d . . .
H5 H 0.9722 0.4753 0.8752 0.056 Uiso 1 1 calc R . .
C6 C 0.7988(5) 0.2173(4) 1.0118(2) 0.0551(13) Uani 1 1 d . . .
H6A H 0.7875 0.2277 1.0498 0.066 Uiso 1 1 calc R . .
H6B H 0.8869 0.1847 1.0023 0.066 Uiso 1 1 calc R . .
C7 C 0.6974(5) 0.1405(4) 1.0082(2) 0.0581(14) Uani 1 1 d . . .
H7A H 0.7010 0.1398 0.9694 0.070 Uiso 1 1 calc R . .
H7B H 0.6103 0.1707 1.0220 0.070 Uiso 1 1 calc R . .
C8 C 0.7001(5) 0.0229(4) 1.03662(19) 0.0475(11) Uani 1 1 d . . .
H8A H 0.7668 0.0132 1.0601 0.057 Uiso 1 1 calc R . .
H8B H 0.6133 0.0049 1.0596 0.057 Uiso 1 1 calc R . .
C9 C 0.8426(5) -0.2112(4) 0.96985(18) 0.0476(12) Uani 1 1 d . . .
H9 H 0.9024 -0.2684 0.9767 0.057 Uiso 1 1 calc R . .
C10 C 0.8155(5) -0.1391(4) 1.0053(2) 0.0471(11) Uani 1 1 d . . .
H10 H 0.8547 -0.1510 1.0364 0.057 Uiso 1 1 calc R . .
C11 C 0.7311(5) -0.0478(4) 0.99717(19) 0.0478(12) Uani 1 1 d . . .
C12 C 0.6800(5) -0.0369(4) 0.9478(2) 0.0478(12) Uani 1 1 d . . .
H12 H 0.6302 0.0248 0.9373 0.057 Uiso 1 1 calc R . .
C13 C 0.7025(4) -0.1161(4) 0.91452(19) 0.0455(11) Uani 1 1 d . . .
H13 H 0.6595 -0.1094 0.8846 0.055 Uiso 1 1 calc R . .
C14 C 0.4633(5) 0.7078(3) 0.81492(19) 0.0426(11) Uani 1 1 d . . .
C15 C 0.3307(5) 0.6966(4) 0.8433(2) 0.0504(12) Uani 1 1 d . . .
H15 H 0.3136 0.6791 0.8815 0.061 Uiso 1 1 calc R . .
C16 C 0.2231(4) 0.7113(4) 0.81490(19) 0.0430(11) Uani 1 1 d . . .
C17 C 0.2481(5) 0.7357(4) 0.75838(18) 0.0454(11) Uani 1 1 d . . .
H17 H 0.1769 0.7435 0.7395 0.054 Uiso 1 1 calc R . .
C18 C 0.3852(5) 0.7496(4) 0.72764(18) 0.0475(12) Uani 1 1 d . . .
C19 C 0.4915(5) 0.7340(4) 0.75648(18) 0.0449(11) Uani 1 1 d . . .
H19 H 0.5797 0.7407 0.7376 0.054 Uiso 1 1 calc R . .
C20 C 0.5737(5) 0.6935(4) 0.84778(19) 0.0466(12) Uani 1 1 d . . .
C21 C 0.0868(5) 0.6943(4) 0.84784(19) 0.0439(11) Uani 1 1 d . . .
C22 C 0.4083(5) 0.7770(4) 0.67112(19) 0.0477(12) Uani 1 1 d . . .
C23 C 0.4335(5) 0.8029(4) 0.62071(19) 0.0430(11) Uani 1 1 d . . .
C24 C 0.4617(5) 0.8273(4) 0.56287(18) 0.0421(11) Uani 1 1 d . . .
C25 C 0.3558(5) 0.8393(4) 0.53285(18) 0.0415(10) Uani 1 1 d . . .
H25 H 0.2675 0.8303 0.5513 0.050 Uiso 1 1 calc R . .
C26 C 0.3842(5) 0.8650(4) 0.47513(17) 0.0423(11) Uani 1 1 d . . .
C27 C 0.5148(4) 0.8878(3) 0.44912(18) 0.0399(10) Uani 1 1 d . . .
H27 H 0.5329 0.9113 0.4113 0.048 Uiso 1 1 calc R . .
C28 C 0.6202(5) 0.8765(4) 0.47820(19) 0.0460(11) Uani 1 1 d . . .
C29 C 0.5973(5) 0.8463(4) 0.53343(18) 0.0414(11) Uani 1 1 d . . .
H29 H 0.6684 0.8378 0.5524 0.050 Uiso 1 1 calc R . .
C30 C 0.2727(5) 0.8764(4) 0.44239(18) 0.0405(10) Uani 1 1 d . . .
C31 C 0.7597(5) 0.8947(4) 0.44564(19) 0.0423(11) Uani 1 1 d . . .
C32 C 0.0330(4) 1.1200(4) 0.41538(19) 0.0415(10) Uani 1 1 d . . .
H32 H 0.0067 1.0976 0.4531 0.050 Uiso 1 1 calc R . .
C33 C 0.0514(5) 1.2327(4) 0.39342(19) 0.0436(11) Uani 1 1 d . . .
H33 H 0.0302 1.2814 0.4178 0.052 Uiso 1 1 calc R . .
C34 C 0.0985(5) 1.2745(4) 0.3384(2) 0.0476(12) Uani 1 1 d . . .
C35 C 0.1074(5) 1.1881(4) 0.30501(19) 0.0451(11) Uani 1 1 d . . .
H35 H 0.1226 1.2059 0.2668 0.054 Uiso 1 1 calc R . .
C36 C 0.0936(5) 1.0825(4) 0.32947(19) 0.0495(12) Uani 1 1 d . . .
H36 H 0.1141 1.0299 0.3072 0.059 Uiso 1 1 calc R . .
C37 C 0.1343(5) 1.3851(3) 0.31354(19) 0.0444(11) Uani 1 1 d . . .
H37A H 0.2188 1.3851 0.2879 0.053 Uiso 1 1 calc R . .
H37B H 0.1458 1.4251 0.3419 0.053 Uiso 1 1 calc R . .
C38 C 0.0281(5) 1.4388(4) 0.28405(19) 0.0434(11) Uani 1 1 d . . .
H38A H -0.0544 1.4452 0.3102 0.052 Uiso 1 1 calc R . .
H38B H 0.0108 1.3955 0.2579 0.052 Uiso 1 1 calc R . .
C39 C 0.0737(5) 1.5506(4) 0.25398(18) 0.0434(11) Uani 1 1 d . . .
H39A H 0.1648 1.5452 0.2341 0.052 Uiso 1 1 calc R . .
H39B H 0.0168 1.5770 0.2274 0.052 Uiso 1 1 calc R . .
C40 C 0.1644(5) 1.7470(4) 0.34080(19) 0.0475(12) Uani 1 1 d . . .
H40 H 0.2422 1.7718 0.3486 0.057 Uiso 1 1 calc R . .
C41 C 0.1737(5) 1.6674(4) 0.3064(2) 0.0490(12) Uani 1 1 d . . .
H41 H 0.2587 1.6409 0.2933 0.059 Uiso 1 1 calc R . .
C42 C 0.0684(5) 1.6276(4) 0.29147(19) 0.0464(11) Uani 1 1 d . . .
C43 C -0.0505(5) 1.6754(4) 0.31134(19) 0.0471(11) Uani 1 1 d . . .
H43 H -0.1285 1.6569 0.3011 0.056 Uiso 1 1 calc R . .
C44 C -0.0589(5) 1.7510(4) 0.34642(19) 0.0511(12) Uani 1 1 d . . .
H44 H -0.1433 1.7782 0.3598 0.061 Uiso 1 1 calc R . .
N1 N 0.8063(4) 0.5328(3) 0.91834(15) 0.0501(10) Uani 1 1 d . . .
N2 N 0.7838(4) -0.2015(3) 0.92426(15) 0.0467(10) Uani 1 1 d . . .
N3 N 0.0528(4) 1.0498(3) 0.38304(15) 0.0409(9) Uani 1 1 d . . .
N4 N 0.0461(4) 1.7862(3) 0.36183(16) 0.0482(10) Uani 1 1 d . . .
O1 O 0.6938(3) 0.7064(2) 0.82129(12) 0.0452(8) Uani 1 1 d . . .
O2 O 0.5447(3) 0.6705(2) 0.89875(12) 0.0416(7) Uani 1 1 d . . .
O3 O 0.0695(3) 0.6772(2) 0.89834(13) 0.0454(8) Uani 1 1 d . . .
O4 O -0.0121(3) 0.7022(2) 0.82060(12) 0.0476(8) Uani 1 1 d . . .
O5 O 0.8582(3) 0.8664(2) 0.47083(13) 0.0476(8) Uani 1 1 d . . .
O6 O 0.7758(3) 0.9307(3) 0.39569(14) 0.0540(9) Uani 1 1 d . . .
O7 O 0.3032(3) 0.9023(2) 0.39195(12) 0.0410(7) Uani 1 1 d . . .
O8 O 0.1550(3) 0.8567(2) 0.46798(12) 0.0450(8) Uani 1 1 d . . .
Zn1 Zn 0.81791(6) 0.68351(5) 0.87322(2) 0.04723(17) Uani 1 1 d . . .
Zn2 Zn 0.02753(6) 0.89083(5) 0.41708(2) 0.04770(17) Uani 1 1 d . . .

loop_
_atom_site_aniso_label
_atom_site_aniso_U_11
_atom_site_aniso_U_22
_atom_site_aniso_U_33
_atom_site_aniso_U_23
_atom_site_aniso_U_13
_atom_site_aniso_U_12
C1 0.056(3) 0.046(3) 0.038(3) 0.017(2) -0.010(2) -0.014(2)
C2 0.059(3) 0.043(3) 0.057(3) 0.020(2) -0.021(3) -0.010(2)
C3 0.041(3) 0.040(2) 0.039(2) 0.0145(19) -0.018(2) -0.008(2)
C4 0.057(3) 0.047(3) 0.057(3) 0.013(2) -0.021(3) -0.015(2)
C5 0.048(3) 0.043(3) 0.049(3) -0.002(2) -0.010(2) -0.014(2)
C6 0.050(3) 0.053(3) 0.058(3) 0.021(2) -0.025(2) -0.007(2)
C7 0.054(3) 0.059(3) 0.058(3) 0.008(3) -0.018(3) -0.007(3)
C8 0.044(3) 0.053(3) 0.050(3) -0.008(2) -0.019(2) -0.009(2)
C9 0.046(3) 0.055(3) 0.037(3) 0.005(2) -0.007(2) 0.004(2)
C10 0.038(3) 0.053(3) 0.049(3) 0.003(2) -0.014(2) 0.003(2)
C11 0.052(3) 0.046(3) 0.044(3) 0.003(2) -0.017(2) 0.003(2)
C12 0.048(3) 0.041(3) 0.058(3) 0.001(2) -0.027(2) -0.001(2)
C13 0.037(3) 0.053(3) 0.045(3) 0.002(2) -0.013(2) -0.008(2)
C14 0.038(3) 0.040(3) 0.048(3) -0.001(2) -0.010(2) -0.001(2)
C15 0.048(3) 0.059(3) 0.044(3) 0.001(2) -0.013(2) -0.009(2)
C16 0.036(3) 0.040(2) 0.048(3) 0.006(2) -0.005(2) -0.0108(19)
C17 0.046(3) 0.055(3) 0.038(3) -0.007(2) -0.013(2) -0.009(2)
C18 0.056(3) 0.051(3) 0.035(3) -0.006(2) -0.007(2) 0.001(2)
C19 0.042(3) 0.047(3) 0.042(3) 0.004(2) -0.009(2) -0.008(2)
C20 0.053(3) 0.051(3) 0.036(3) 0.006(2) -0.015(2) -0.017(2)
C21 0.046(3) 0.046(3) 0.037(3) 0.000(2) -0.006(2) -0.013(2)
C22 0.061(3) 0.052(3) 0.031(3) -0.012(2) -0.003(2) -0.010(2)
C23 0.045(3) 0.040(2) 0.044(3) -0.003(2) -0.011(2) -0.005(2)
C24 0.038(3) 0.046(3) 0.037(3) 0.005(2) -0.006(2) -0.004(2)
C25 0.035(2) 0.051(3) 0.038(2) -0.006(2) -0.006(2) -0.006(2)
C26 0.045(3) 0.050(3) 0.030(2) -0.0009(19) -0.002(2) -0.017(2)
C27 0.037(3) 0.042(2) 0.038(2) -0.0006(19) -0.006(2) -0.006(2)
C28 0.040(3) 0.054(3) 0.041(3) 0.001(2) -0.007(2) -0.004(2)
C29 0.039(3) 0.047(3) 0.040(3) -0.019(2) 0.000(2) 0.003(2)
C30 0.039(3) 0.044(3) 0.040(3) -0.008(2) -0.006(2) -0.013(2)
C31 0.038(3) 0.038(2) 0.045(3) 0.004(2) -0.001(2) -0.007(2)
C32 0.040(3) 0.050(3) 0.039(2) -0.012(2) -0.012(2) -0.004(2)
C33 0.041(3) 0.050(3) 0.047(3) -0.020(2) -0.012(2) -0.015(2)
C34 0.053(3) 0.041(3) 0.049(3) -0.009(2) -0.009(2) 0.001(2)
C35 0.046(3) 0.048(3) 0.038(3) -0.008(2) 0.001(2) -0.010(2)
C36 0.053(3) 0.049(3) 0.042(3) -0.005(2) 0.005(2) -0.018(2)
C37 0.046(3) 0.043(3) 0.050(3) -0.021(2) -0.012(2) 0.010(2)
C38 0.042(3) 0.048(3) 0.046(3) -0.019(2) -0.014(2) 0.002(2)
C39 0.042(3) 0.052(3) 0.047(3) -0.015(2) -0.027(2) -0.002(2)
C40 0.053(3) 0.042(3) 0.051(3) -0.012(2) -0.015(2) 0.005(2)
C41 0.050(3) 0.041(3) 0.063(3) -0.024(2) -0.013(2) -0.012(2)
C42 0.043(3) 0.048(3) 0.049(3) -0.004(2) -0.011(2) -0.012(2)
C43 0.039(3) 0.049(3) 0.053(3) -0.010(2) -0.001(2) -0.013(2)
C44 0.053(3) 0.062(3) 0.042(3) -0.013(2) -0.014(2) -0.004(2)
N1 0.044(2) 0.055(2) 0.042(2) 0.0083(19) 0.0018(18) -0.0021(19)
N2 0.043(2) 0.046(2) 0.045(2) 0.0095(18) -0.0075(18) -0.0068(18)
N3 0.047(2) 0.039(2) 0.035(2) -0.0100(17) -0.0006(17) 0.0005(17)
N4 0.043(2) 0.051(2) 0.048(2) 0.0027(19) -0.0097(19) -0.0047(19)
O1 0.0400(19) 0.0530(19) 0.0387(17) 0.0076(14) -0.0071(15) -0.0194(15)
O2 0.0394(18) 0.0438(17) 0.0374(18) 0.0105(13) -0.0110(14) -0.0071(14)
O3 0.0411(19) 0.0476(18) 0.0440(19) 0.0013(14) -0.0034(14) -0.0170(14)
O4 0.0457(19) 0.0516(19) 0.0439(18) 0.0018(15) -0.0086(15) -0.0178(15)
O5 0.047(2) 0.0403(17) 0.056(2) -0.0054(15) -0.0121(16) -0.0027(15)
O6 0.050(2) 0.056(2) 0.051(2) 0.0077(16) -0.0083(16) -0.0154(16)
O7 0.0376(17) 0.0458(18) 0.0375(18) 0.0010(14) -0.0067(14) -0.0113(14)
O8 0.0387(19) 0.0541(19) 0.0381(17) 0.0042(14) -0.0056(14) -0.0102(15)
Zn1 0.0435(3) 0.0517(3) 0.0420(3) 0.0065(3) -0.0079(3) -0.0089(3)
Zn2 0.0429(3) 0.0502(3) 0.0477(3) -0.0021(3) -0.0074(3) -0.0053(3)

_geom_special_details            
;
All esds (except the esd in the dihedral angle between two l.s. planes)
are estimated using the full covariance matrix. The cell esds are taken
into account individually in the estimation of esds in distances, angles
and torsion angles; correlations between esds in cell parameters are only
used when they are defined by crystal symmetry. An approximate (isotropic)
treatment of cell esds is used for estimating esds involving l.s. planes.
;

loop_
_geom_bond_atom_site_label_1
_geom_bond_atom_site_label_2
_geom_bond_distance
_geom_bond_site_symmetry_2
_geom_bond_publ_flag
C1 N1 1.338(6) . ?
C1 C2 1.400(6) . ?
C1 H1 0.9300 . ?
C2 C3 1.387(7) . ?
C2 H2 0.9300 . ?
C3 C4 1.357(7) . ?
C3 C6 1.454(6) . ?
C4 C5 1.387(6) . ?
C4 H4 0.9300 . ?
C5 N1 1.369(6) . ?
C5 H5 0.9300 . ?
C6 C7 1.474(7) . ?
C6 H6A 0.9700 . ?
C6 H6B 0.9700 . ?
C7 C8 1.524(6) . ?
C7 H7A 0.9700 . ?
C7 H7B 0.9700 . ?
C8 C11 1.427(7) . ?
C8 H8A 0.9700 . ?
C8 H8B 0.9700 . ?
C9 C10 1.363(7) . ?
C9 N2 1.375(6) . ?
C9 H9 0.9300 . ?
C10 C11 1.405(6) . ?
C10 H10 0.9300 . ?
C11 C12 1.417(6) . ?
C12 C13 1.393(6) . ?
C12 H12 0.9300 . ?
C13 N2 1.336(6) . ?
C13 H13 0.9300 . ?
C14 C15 1.400(7) . ?
C14 C19 1.423(6) . ?
C14 C20 1.501(6) . ?
C15 C16 1.403(6) . ?
C15 H15 0.9300 . ?
C16 C17 1.376(6) . ?
C16 C21 1.476(6) . ?
C17 C18 1.460(7) . ?
C17 H17 0.9300 . ?
C18 C22 1.378(6) . ?
C18 C19 1.399(6) . ?
C19 H19 0.9300 . ?
C20 O2 1.243(5) . ?
C20 O1 1.276(6) . ?
C21 O3 1.229(5) . ?
C21 O4 1.310(5) . ?
C22 C23 1.231(6) . ?
C23 C24 1.408(6) . ?
C24 C25 1.415(6) . ?
C24 C29 1.444(6) . ?
C25 C26 1.406(6) . ?
C25 H25 0.9300 . ?
C26 C27 1.382(6) . ?
C26 C30 1.510(6) . ?
C27 C28 