####################################################################### 
# 
# This file contains crystal structure data downloaded from the 
# Cambridge Structural Database (CSD) hosted by the Cambridge 
# Crystallographic Data Centre (CCDC).
# 
# Full information about CCDC data access policies and citation 
# guidelines are available at http://www.ccdc.cam.ac.uk/access/V1 
# 
# Audit and citation data items may have been added by the CCDC. 
# Please retain this information to preserve the provenance of 
# this file and to allow appropriate attribution of the data. 
# 
#######################################################################

data_290415d
_audit_block_doi                 10.5517/ccw58fq
_database_code_depnum_ccdc_archive 'CCDC 809423'
loop_
_citation_id
_citation_doi
_citation_year
1 10.1016/j.inoche.2014.07.025 2014
_audit_update_record             
;
2011-01-23 deposited with the CCDC.	2024-07-10 downloaded from the CCDC.
;
#TrackingRef '2.cif'


_audit_creation_method           SHELXL-97
_chemical_name_systematic        
;
?
;
_chemical_name_common            ?
_chemical_melting_point          ?
_chemical_formula_moiety         ?
_chemical_formula_sum            'C19 H11 N2 O4 Zn'
_chemical_formula_weight         396.67

loop_
_atom_type_symbol
_atom_type_description
_atom_type_scat_dispersion_real
_atom_type_scat_dispersion_imag
_atom_type_scat_source
C C 0.0033 0.0016 'International Tables Vol C Tables 4.2.6.8 and 6.1.1.4'
H H 0.0000 0.0000 'International Tables Vol C Tables 4.2.6.8 and 6.1.1.4'
N N 0.0061 0.0033 'International Tables Vol C Tables 4.2.6.8 and 6.1.1.4'
O O 0.0106 0.0060 'International Tables Vol C Tables 4.2.6.8 and 6.1.1.4'
Zn Zn 0.2839 1.4301 'International Tables Vol C Tables 4.2.6.8 and 6.1.1.4'

_symmetry_cell_setting           Orthorhombic
_symmetry_space_group_name_H-M   'Pbam '

loop_
_symmetry_equiv_pos_as_xyz
'x, y, z'
'-x, -y, z'
'x+1/2, -y+1/2, -z'
'-x+1/2, y+1/2, -z'
'-x, -y, -z'
'x, y, -z'
'-x-1/2, y-1/2, z'
'x-1/2, -y-1/2, z'

_cell_length_a                   15.1201(18)
_cell_length_b                   18.105(2)
_cell_length_c                   11.4444(14)
_cell_angle_alpha                90.00
_cell_angle_beta                 90.00
_cell_angle_gamma                90.00
_cell_volume                     3132.9(6)
_cell_formula_units_Z            4
_cell_measurement_temperature    291(2)
_cell_measurement_reflns_used    ?
_cell_measurement_theta_min      ?
_cell_measurement_theta_max      ?

_exptl_crystal_description       ?
_exptl_crystal_colour            ?
_exptl_crystal_size_max          0.28
_exptl_crystal_size_mid          0.22
_exptl_crystal_size_min          0.20
_exptl_crystal_density_meas      ?
_exptl_crystal_density_diffrn    0.841
_exptl_crystal_density_method    'not measured'
_exptl_crystal_F_000             804
_exptl_absorpt_coefficient_mu    0.799
_exptl_absorpt_correction_type   multi-scan
_exptl_absorpt_correction_T_min  0.8073
_exptl_absorpt_correction_T_max  0.8566
_exptl_absorpt_process_details   'SADABS; Bruker, 2000'

_exptl_special_details           
;
?
;

_diffrn_ambient_temperature      291(2)
_diffrn_radiation_wavelength     0.71073
_diffrn_radiation_type           MoK\a
_diffrn_radiation_source         'fine-focus sealed tube'
_diffrn_radiation_monochromator  graphite
_diffrn_measurement_device_type  'CCD area detector'
_diffrn_measurement_method       'phi and omega scans'
_diffrn_detector_area_resol_mean ?
_diffrn_standards_number         ?
_diffrn_standards_interval_count ?
_diffrn_standards_interval_time  ?
_diffrn_standards_decay_%        ?
_diffrn_reflns_number            16670
_diffrn_reflns_av_R_equivalents  0.0655
_diffrn_reflns_av_sigmaI/netI    0.0404
_diffrn_reflns_limit_h_min       -15
_diffrn_reflns_limit_h_max       18
_diffrn_reflns_limit_k_min       -22
_diffrn_reflns_limit_k_max       21
_diffrn_reflns_limit_l_min       -14
_diffrn_reflns_limit_l_max       13
_diffrn_reflns_theta_min         1.75
_diffrn_reflns_theta_max         26.00
_reflns_number_total             3243
_reflns_number_gt                2381
_reflns_threshold_expression     >2sigma(I)

_computing_data_collection       'SMART (Bruker, 2000)'
_computing_cell_refinement       SMART
_computing_data_reduction        'SAINT (Bruker, 2000)'
_computing_structure_solution    'SHELXTL (Bruker, 2000)'
_computing_structure_refinement  SHELXTL
_computing_molecular_graphics    SHELXTL
_computing_publication_material  SHELXTL

_refine_special_details          
;
Refinement of F^2^ against ALL reflections. The weighted R-factor wR and
goodness of fit S are based on F^2^, conventional R-factors R are based
on F, with F set to zero for negative F^2^. The threshold expression of
F^2^ > 2sigma(F^2^) is used only for calculating R-factors(gt) etc. and is
not relevant to the choice of reflections for refinement. R-factors based
on F^2^ are statistically about twice as large as those based on F, and R-
factors based on ALL data will be even larger.
;

# SQUEEZE RESULTS (APPEND TO CIF)
# Note: Data are Listed for all Voids in the P1 Unit Cell
# i.e. Centre of Gravity, Solvent Accessible Volume,
# Recovered number of Electrons in the Void and
# Details about the Squeezed Material
loop_
_platon_squeeze_void_nr
_platon_squeeze_void_average_x
_platon_squeeze_void_average_y
_platon_squeeze_void_average_z
_platon_squeeze_void_volume
_platon_squeeze_void_count_electrons
_platon_squeeze_void_content
1 0.090 0.901 0.084 1778 124 ' '

_refine_ls_structure_factor_coef Fsqd
_refine_ls_matrix_type           full
_refine_ls_weighting_scheme      calc
_refine_ls_weighting_details     
'calc w=1/[\s^2^(Fo^2^)+(0.0600P)^2^+1.9900P] where P=(Fo^2^+2Fc^2^)/3'
_atom_sites_solution_primary     direct
_atom_sites_solution_secondary   difmap
_atom_sites_solution_hydrogens   geom
_refine_ls_hydrogen_treatment    constr
_refine_ls_extinction_method     none
_refine_ls_extinction_coef       ?
_refine_ls_number_reflns         3243
_refine_ls_number_parameters     139
_refine_ls_number_restraints     2
_refine_ls_R_factor_all          0.0687
_refine_ls_R_factor_gt           0.0467
_refine_ls_wR_factor_ref         0.1260
_refine_ls_wR_factor_gt          0.1144
_refine_ls_goodness_of_fit_ref   1.013
_refine_ls_restrained_S_all      1.015
_refine_ls_shift/su_max          0.045
_refine_ls_shift/su_mean         0.003

loop_
_atom_site_label
_atom_site_type_symbol
_atom_site_fract_x
_atom_site_fract_y
_atom_site_fract_z
_atom_site_U_iso_or_equiv
_atom_site_adp_type
_atom_site_occupancy
_atom_site_symmetry_multiplicity
_atom_site_calc_flag
_atom_site_refinement_flags
_atom_site_disorder_assembly
_atom_site_disorder_group
C1 C 0.2653(3) 0.0867(2) 0.0000 0.0353(9) Uani 1 2 d S . .
C2 C 0.2514(3) 0.16261(19) 0.0000 0.0336(9) Uani 1 2 d S . .
H2 H 0.3002 0.1939 0.0000 0.040 Uiso 1 2 calc SR . .
C3 C 0.1657(3) 0.1939(2) 0.0000 0.0429(10) Uani 1 2 d SU . .
C4 C 0.0933(3) 0.1436(2) 0.0000 0.0396(10) Uani 1 2 d S . .
H4 H 0.0358 0.1618 0.0000 0.048 Uiso 1 2 calc SR . .
C5 C 0.1073(3) 0.0664(2) 0.0000 0.0383(9) Uani 1 2 d S . .
C6 C 0.1925(3) 0.03894(19) 0.0000 0.0324(8) Uani 1 2 d S . .
H6 H 0.2017 -0.0119 0.0000 0.039 Uiso 1 2 calc SR . .
C7 C 0.1507(3) 0.2718(2) 0.0000 0.0399(10) Uani 1 2 d SU . .
C8 C 0.3591(2) 0.05569(19) 0.0000 0.0286(8) Uani 1 2 d S . .
C9 C 0.0319(3) 0.0198(2) 0.0000 0.0376(9) Uani 1 2 d S . .
C10 C 0.6181(2) 0.0659(2) 0.2499(3) 0.0488(8) Uani 1 1 d . . .
H10 H 0.6645 0.0441 0.2093 0.059 Uiso 1 1 calc R . .
C11 C 0.6211(2) 0.0667(2) 0.3724(3) 0.0514(9) Uani 1 1 d . . .
H11 H 0.6695 0.0459 0.4103 0.062 Uiso 1 1 calc R . .
C12 C 0.5567(2) 0.09666(17) 0.4355(3) 0.0438(7) Uani 1 1 d . . .
C13 C 0.4884(2) 0.12608(19) 0.3695(3) 0.0471(8) Uani 1 1 d . . .
H13 H 0.4394 0.1463 0.4067 0.057 Uiso 1 1 calc R . .
C14 C 0.4922(2) 0.12565(19) 0.2527(3) 0.0490(8) Uani 1 1 d . . .
H14 H 0.4473 0.1499 0.2125 0.059 Uiso 1 1 calc R . .
N1 N 0.55347(17) 0.09419(15) 0.1912(2) 0.0454(6) Uani 1 1 d U . .
O1 O 0.2113(2) 0.31652(15) 0.0000 0.0462(8) Uani 1 2 d S . .
O2 O 0.07222(19) 0.29469(16) 0.0000 0.0387(7) Uani 1 2 d S . .
O3 O 0.36464(16) -0.01295(13) 0.0000 0.0303(6) Uani 1 2 d S . .
O4 O 0.41848(18) 0.10000(16) 0.0000 0.0382(7) Uani 1 2 d S . .
Zn1 Zn 0.55230(3) 0.09850(2) 0.0000 0.03327(16) Uani 1 2 d SU . .

loop_
_atom_site_aniso_label
_atom_site_aniso_U_11
_atom_site_aniso_U_22
_atom_site_aniso_U_33
_atom_site_aniso_U_23
_atom_site_aniso_U_13
_atom_site_aniso_U_12
C1 0.039(2) 0.028(2) 0.039(2) 0.000 0.000 -0.0022(16)
C2 0.037(2) 0.0183(19) 0.046(2) 0.000 0.000 -0.0018(15)
C3 0.044(2) 0.0302(18) 0.054(3) 0.000 0.000 0.0174(18)
C4 0.044(2) 0.030(2) 0.044(2) 0.000 0.000 0.0127(18)
C5 0.036(2) 0.035(2) 0.044(2) 0.000 0.000 -0.0072(17)
C6 0.038(2) 0.0179(17) 0.041(2) 0.000 0.000 0.0005(15)
C7 0.045(2) 0.0224(17) 0.052(3) 0.000 0.000 0.0144(18)
C8 0.033(2) 0.0204(18) 0.033(2) 0.000 0.000 0.0029(15)
C9 0.037(2) 0.032(2) 0.044(2) 0.000 0.000 0.0033(15)
C10 0.0504(19) 0.0552(19) 0.0410(18) -0.0043(15) -0.0009(14) 0.0213(16)
C11 0.0465(19) 0.061(2) 0.047(2) -0.0117(16) -0.0107(15) 0.0213(16)
C12 0.0442(17) 0.0461(17) 0.0412(18) -0.0003(14) -0.0049(14) 0.0015(13)
C13 0.0478(18) 0.0553(19) 0.0381(17) -0.0137(14) -0.0071(14) 0.0214(15)
C14 0.0526(19) 0.0504(18) 0.0439(18) -0.0187(14) -0.0089(15) 0.0273(15)
N1 0.0433(14) 0.0514(15) 0.0417(12) 0.0039(12) -0.0028(12) 0.0128(12)
O1 0.061(2) 0.0271(15) 0.0503(19) 0.000 0.000 -0.0032(14)
O2 0.0422(17) 0.0377(15) 0.0362(15) 0.000 0.000 0.0090(12)
O3 0.0210(13) 0.0280(14) 0.0419(16) 0.000 0.000 0.0086(10)
O4 0.0294(14) 0.0462(17) 0.0389(16) 0.000 0.000 -0.0069(13)
Zn1 0.0318(3) 0.0316(3) 0.0364(3) 0.000 0.000 0.00128(19)

_geom_special_details            
;
All esds (except the esd in the dihedral angle between two l.s. planes)
are estimated using the full covariance matrix. The cell esds are taken
into account individually in the estimation of esds in distances, angles
and torsion angles; correlations between esds in cell parameters are only
used when they are defined by crystal symmetry. An approximate (isotropic)
treatment of cell esds is used for estimating esds involving l.s. planes.
;

loop_
_geom_bond_atom_site_label_1
_geom_bond_atom_site_label_2
_geom_bond_distance
_geom_bond_site_symmetry_2
_geom_bond_publ_flag
C1 C6 1.400(6) . ?
C1 C2 1.390(5) . ?
C1 C8 1.527(6) . ?
C2 C3 1.415(6) . ?
C2 H2 0.9300 . ?
C3 C4 1.423(6) . ?
C3 C7 1.429(5) . ?
C4 C5 1.413(6) . ?
C4 H4 0.9300 . ?
C5 C6 1.382(6) . ?
C5 C9 1.417(6) . ?
C6 H6 0.9300 . ?
C7 O1 1.223(5) . ?
C7 O2 1.257(5) . ?
C8 O4 1.204(5) . ?
C8 O3 1.245(4) . ?
C9 C9 1.203(8) 5 ?
C10 N1 1.292(4) . ?
C10 C11 1.402(5) . ?
C10 H10 0.9300 . ?
C11 C12 1.329(4) . ?
C11 H11 0.9300 . ?
C12 C13 1.387(4) . ?
C12 C12 1.475(6) 6_556 ?
C13 C14 1.337(5) . ?
C13 H13 0.9300 . ?
C14 N1 1.296(4) . ?
C14 H14 0.9300 . ?
N1 Zn1 2.189(3) . ?
O2 Zn1 1.957(3) 3_455 ?
O3 Zn1 1.994(2) 5_655 ?
O4 Zn1 2.024(3) . ?
Zn1 O2 1.957(3) 3 ?
Zn1 O3 1.994(2) 5_655 ?
Zn1 N1 2.189(3) 6 ?

loop_
_geom_angle_atom_site_label_1
_geom_angle_atom_site_label_2
_geom_angle_atom_site_label_3
_geom_angle
_geom_angle_site_symmetry_1
_geom_angle_site_symmetry_3
_geom_angle_publ_flag
C6 C1 C2 119.5(4) . . ?
C6 C1 C8 120.2(3) . . ?
C2 C1 C8 120.3(3) . . ?
C1 C2 C3 122.2(4) . . ?
C1 C2 H2 118.9 . . ?
C3 C2 H2 118.9 . . ?
C2 C3 C4 116.6(3) . . ?
C2 C3 C7 122.7(4) . . ?
C4 C3 C7 120.7(4) . . ?
C3 C4 C5 121.2(4) . . ?
C3 C4 H4 119.4 . . ?
C5 C4 H4 119.4 . . ?
C6 C5 C9 122.4(4) . . ?
C6 C5 C4 119.7(4) . . ?
C9 C5 C4 117.9(4) . . ?
C5 C6 C1 120.7(3) . . ?
C5 C6 H6 119.6 . . ?
C1 C6 H6 119.6 . . ?
O1 C7 O2 119.3(4) . . ?
O1 C7 C3 122.4(4) . . ?
O2 C7 C3 118.3(4) . . ?
O4 C8 O3 128.0(4) . . ?
O4 C8 C1 116.6(3) . . ?
O3 C8 C1 115.4(3) . . ?
C9 C9 C5 179.9(6) 5 . ?
N1 C10 C11 122.7(3) . . ?
N1 C10 H10 118.6 . . ?
C11 C10 H10 118.6 . . ?
C12 C11 C10 121.6(3) . . ?
C12 C11 H11 119.2 . . ?
C10 C11 H11 119.2 . . ?
C11 C12 C13 114.0(3) . . ?
C11 C12 C12 123.0(2) . 6_556 ?
C13 C12 C12 123.04(19) . 6_556 ?
C14 C13 C12 120.7(3) . . ?
C14 C13 H13 119.7 . . ?
C12 C13 H13 119.7 . . ?
N1 C14 C13 125.2(3) . . ?
N1 C14 H14 117.4 . . ?
C13 C14 H14 117.4 . . ?
C10 N1 C14 115.6(3) . . ?
C10 N1 Zn1 122.7(2) . . ?
C14 N1 Zn1 121.5(2) . . ?
C7 O2 Zn1 118.1(3) . 3_455 ?
C8 O3 Zn1 144.8(3) . 5_655 ?
C8 O4 Zn1 137.4(3) . . ?
O2 Zn1 O3 132.12(11) 3 5_655 ?
O2 Zn1 O4 98.08(12) 3 . ?
O3 Zn1 O4 129.80(11) 5_655 . ?
O2 Zn1 N1 91.95(7) 3 6 ?
O3 Zn1 N1 88.12(7) 5_655 6 ?
O4 Zn1 N1 90.49(7) . 6 ?
O2 Zn1 N1 91.95(7) 3 . ?
O3 Zn1 N1 88.12(7) 5_655 . ?
O4 Zn1 N1 90.49(7) . . ?
N1 Zn1 N1 175.81(14) 6 . ?

loop_
_geom_torsion_atom_site_label_1
_geom_torsion_atom_site_label_2
_geom_torsion_atom_site_label_3
_geom_torsion_atom_site_label_4
_geom_torsion
_geom_torsion_site_symmetry_1
_geom_torsion_site_symmetry_2
_geom_torsion_site_symmetry_3
_geom_torsion_site_symmetry_4
_geom_torsion_publ_flag
C6 C1 C2 C3 0.0 . . . . ?
C8 C1 C2 C3 180.0 . . . . ?
C1 C2 C3 C4 0.0 . . . . ?
C1 C2 C3 C7 180.0 . . . . ?
C2 C3 C4 C5 0.0 . . . . ?
C7 C3 C4 C5 180.0 . . . . ?
C3 C4 C5 C6 0.0 . . . . ?
C3 C4 C5 C9 180.0 . . . . ?
C9 C5 C6 C1 180.0 . . . . ?
C4 C5 C6 C1 0.0 . . . . ?
C2 C1 C6 C5 0.0 . . . . ?
C8 C1 C6 C5 180.0 . . . . ?
C2 C3 C7 O1 0.0 . . . . ?
C4 C3 C7 O1 180.0 . . . . ?
C2 C3 C7 O2 180.0 . . . . ?
C4 C3 C7 O2 0.0 . . . . ?
C6 C1 C8 O4 180.0 . . . . ?
C2 C1 C8 O4 0.0 . . . . ?
C6 C1 C8 O3 0.0 . . . . ?
C2 C1 C8 O3 180.0 . . . . ?
C6 C5 C9 C9 0(100) . . . 5 ?
C4 C5 C9 C9 180(100) . . . 5 ?
N1 C10 C11 C12 0.4(6) . . . . ?
C10 C11 C12 C13 -0.1(5) . . . . ?
C10 C11 C12 C12 178.3(3) . . . 6_556 ?
C11 C12 C13 C14 -2.6(5) . . . . ?
C12 C12 C13 C14 179.0(3) 6_556 . . . ?
C12 C13 C14 N1 5.5(6) . . . . ?
C11 C10 N1 C14 1.9(5) . . . . ?
C11 C10 N1 Zn1 176.4(3) . . . . ?
C13 C14 N1 C10 -5.0(6) . . . . ?
C13 C14 N1 Zn1 -179.5(3) . . . . ?
O1 C7 O2 Zn1 0.0 . . . 3_455 ?
C3 C7 O2 Zn1 180.0 . . . 3_455 ?
O4 C8 O3 Zn1 0.0 . . . 5_655 ?
C1 C8 O3 Zn1 180.0 . . . 5_655 ?
O3 C8 O4 Zn1 0.0 . . . . ?
C1 C8 O4 Zn1 180.0 . . . . ?
C8 O4 Zn1 O2 180.0 . . . 3 ?
C8 O4 Zn1 O3 0.0 . . . 5_655 ?
C8 O4 Zn1 N1 87.96(7) . . . 6 ?
C8 O4 Zn1 N1 -87.96(7) . . . . ?
C10 N1 Zn1 O2 -107.8(3) . . . 3 ?
C14 N1 Zn1 O2 66.3(3) . . . 3 ?
C10 N1 Zn1 O3 24.3(3) . . . 5_655 ?
C14 N1 Zn1 O3 -161.6(3) . . . 5_655 ?
C10 N1 Zn1 O4 154.1(3) . . . . ?
C14 N1 Zn1 O4 -31.8(3) . . . . ?
C10 N1 Zn1 N1 51(2) . . . 6 ?
C14 N1 Zn1 N1 -135.2(19) . . . 6 ?

_diffrn_measured_fraction_theta_max 0.998
_diffrn_reflns_theta_full        26.00
_diffrn_measured_fraction_theta_full 0.998
_refine_diff_density_max         0.553
_refine_diff_density_min         -0.324
_refine_diff_density_rms         0.060
