####################################################################### 
# 
# This file contains crystal structure data downloaded from the 
# Cambridge Structural Database (CSD) hosted by the Cambridge 
# Crystallographic Data Centre (CCDC).
# 
# Full information about CCDC data access policies and citation 
# guidelines are available at http://www.ccdc.cam.ac.uk/access/V1 
# 
# Audit and citation data items may have been added by the CCDC. 
# Please retain this information to preserve the provenance of 
# this file and to allow appropriate attribution of the data. 
# 
#######################################################################

data_InOF-6
_audit_block_doi                 10.5517/cc12jjjn
_database_code_depnum_ccdc_archive 'CCDC 998991'
loop_
_citation_id
_citation_doi
_citation_year
1 10.1021/cg501795w 2015
_audit_update_record             
;
2014-04-23 deposited with the CCDC.	2024-07-10 downloaded from the CCDC.
;

_audit_creation_method           SHELXL-97
_chemical_name_systematic        
; 
 ? 
;
_chemical_name_common            ?
_chemical_melting_point          ?
_chemical_formula_moiety         ?
_chemical_formula_sum            'C14 H6 Cu2 I2 In N2 O8'
_chemical_formula_weight         825.91

loop_
_atom_type_symbol
_atom_type_description
_atom_type_scat_dispersion_real
_atom_type_scat_dispersion_imag
_atom_type_scat_source
C C 0.0033 0.0016 'International Tables Vol C Tables 4.2.6.8 and 6.1.1.4'
H H 0.0000 0.0000 'International Tables Vol C Tables 4.2.6.8 and 6.1.1.4'
Cu Cu 0.3201 1.2651 'International Tables Vol C Tables 4.2.6.8 and 6.1.1.4'
I I -0.4742 1.8119 'International Tables Vol C Tables 4.2.6.8 and 6.1.1.4'
In In -0.7276 1.3100 'International Tables Vol C Tables 4.2.6.8 and 6.1.1.4'
N N 0.0061 0.0033 'International Tables Vol C Tables 4.2.6.8 and 6.1.1.4'
O O 0.0106 0.0060 'International Tables Vol C Tables 4.2.6.8 and 6.1.1.4'

_symmetry_cell_setting           Tetragonal
_symmetry_space_group_name_H-M   I-42d

loop_
_symmetry_equiv_pos_as_xyz
'x, y, z'
'y, -x, -z'
'-x, -y, z'
'-y, x, -z'
'x, -y+1/2, -z+1/4'
'-x, y+1/2, -z+1/4'
'-y, -x+1/2, z+1/4'
'y, x+1/2, z+1/4'
'x+1/2, y+1/2, z+1/2'
'y+1/2, -x+1/2, -z+1/2'
'-x+1/2, -y+1/2, z+1/2'
'-y+1/2, x+1/2, -z+1/2'
'x+1/2, -y+1, -z+3/4'
'-x+1/2, y+1, -z+3/4'
'-y+1/2, -x+1, z+3/4'
'y+1/2, x+1, z+3/4'

_cell_length_a                   20.338(3)
_cell_length_b                   20.338(3)
_cell_length_c                   18.381(5)
_cell_angle_alpha                90.00
_cell_angle_beta                 90.00
_cell_angle_gamma                90.00
_cell_volume                     7603(3)
_cell_formula_units_Z            8
_cell_measurement_temperature    173(2)
_cell_measurement_reflns_used    ?
_cell_measurement_theta_min      ?
_cell_measurement_theta_max      ?

_exptl_crystal_description       ?
_exptl_crystal_colour            ?
_exptl_crystal_size_max          ?
_exptl_crystal_size_mid          ?
_exptl_crystal_size_min          ?
_exptl_crystal_density_meas      ?
_exptl_crystal_density_diffrn    1.443
_exptl_crystal_density_method    'not measured'
_exptl_crystal_F_000             3048
_exptl_absorpt_coefficient_mu    3.358
_exptl_absorpt_correction_type   ?
_exptl_absorpt_correction_T_min  ?
_exptl_absorpt_correction_T_max  ?
_exptl_absorpt_process_details   ?

_exptl_special_details           
; 
 ? 
;

_diffrn_ambient_temperature      173(2)
_diffrn_radiation_wavelength     0.71073
_diffrn_radiation_type           MoK\a
_diffrn_radiation_source         'fine-focus sealed tube'
_diffrn_radiation_monochromator  graphite
_diffrn_measurement_device_type  ?
_diffrn_measurement_method       ?
_diffrn_detector_area_resol_mean ?
_diffrn_standards_number         ?
_diffrn_standards_interval_count ?
_diffrn_standards_interval_time  ?
_diffrn_standards_decay_%        ?
_diffrn_reflns_number            17804
_diffrn_reflns_av_R_equivalents  0.0312
_diffrn_reflns_av_sigmaI/netI    0.0129
_diffrn_reflns_limit_h_min       -24
_diffrn_reflns_limit_h_max       24
_diffrn_reflns_limit_k_min       -23
_diffrn_reflns_limit_k_max       24
_diffrn_reflns_limit_l_min       -21
_diffrn_reflns_limit_l_max       21
_diffrn_reflns_theta_min         2.00
_diffrn_reflns_theta_max         25.00
_reflns_number_total             3289
_reflns_number_gt                3232
_reflns_threshold_expression     >2sigma(I)

_computing_data_collection       ?
_computing_cell_refinement       ?
_computing_data_reduction        ?
_computing_structure_solution    'SHELXS-97 (Sheldrick, 1990)'
_computing_structure_refinement  'SHELXL-97 (Sheldrick, 1997)'
_computing_molecular_graphics    ?
_computing_publication_material  ?

_refine_special_details          
; 
 Refinement of F^2^ against ALL reflections.  The weighted R-factor wR and 
 goodness of fit S are based on F^2^, conventional R-factors R are based 
 on F, with F set to zero for negative F^2^. The threshold expression of 
 F^2^ > 2sigma(F^2^) is used only for calculating R-factors(gt) etc. and is 
 not relevant to the choice of reflections for refinement.  R-factors based 
 on F^2^ are statistically about twice as large as those based on F, and R- 
 factors based on ALL data will be even larger. 
;

_refine_ls_structure_factor_coef Fsqd
_refine_ls_matrix_type           full
_refine_ls_weighting_scheme      calc
_refine_ls_weighting_details     
'calc w=1/[\s^2^(Fo^2^)+(0.1000P)^2^+0.0000P] where P=(Fo^2^+2Fc^2^)/3'
_atom_sites_solution_primary     direct
_atom_sites_solution_secondary   difmap
_atom_sites_solution_hydrogens   geom
_refine_ls_hydrogen_treatment    mixed
_refine_ls_extinction_method     none
_refine_ls_extinction_coef       ?
_refine_ls_abs_structure_details 'Flack H D (1983), Acta Cryst. A39, 876-881'
_refine_ls_abs_structure_Flack   0.13(5)
_refine_ls_number_reflns         3289
_refine_ls_number_parameters     133
_refine_ls_number_restraints     0
_refine_ls_R_factor_all          0.0451
_refine_ls_R_factor_gt           0.0445
_refine_ls_wR_factor_ref         0.1683
_refine_ls_wR_factor_gt          0.1680
_refine_ls_goodness_of_fit_ref   1.596
_refine_ls_restrained_S_all      1.596
_refine_ls_shift/su_max          0.000
_refine_ls_shift/su_mean         0.000

# SQUEEZE RESULTS (APPEND TO CIF)
# Note: Data are Listed for all Voids in the P1 Unit Cell
# i.e. Centre of Gravity, Solvent Accessible Volume,
# Recovered number of Electrons in the Void and
# Details about the Squeezed Material
loop_
_platon_squeeze_void_nr
_platon_squeeze_void_average_x
_platon_squeeze_void_average_y
_platon_squeeze_void_average_z
_platon_squeeze_void_volume
_platon_squeeze_void_count_electrons
_platon_squeeze_void_content
1 0.011 0.294 0.001 4370 1333 ' '
_platon_squeeze_details          
;
;

loop_
_atom_site_label
_atom_site_type_symbol
_atom_site_fract_x
_atom_site_fract_y
_atom_site_fract_z
_atom_site_U_iso_or_equiv
_atom_site_adp_type
_atom_site_occupancy
_atom_site_symmetry_multiplicity
_atom_site_calc_flag
_atom_site_refinement_flags
_atom_site_disorder_assembly
_atom_site_disorder_group
I1 I -0.38799(3) -0.01603(3) -0.16737(3) 0.0369(2) Uani 1 1 d . . .
In1 In -0.2500 0.14445(4) -0.6250 0.0256(2) Uani 1 2 d S . .
Cu1 Cu -0.43714(5) -0.00576(6) -0.30243(5) 0.0348(3) Uani 1 1 d . . .
O1 O -0.3078(3) 0.1036(3) -0.5364(4) 0.0357(14) Uani 1 1 d . . .
O2 O -0.2154(3) 0.0489(3) -0.5569(4) 0.0394(14) Uani 1 1 d . . .
O3 O -0.1848(3) -0.1682(3) -0.4337(3) 0.0345(14) Uani 1 1 d . . .
O4 O -0.2415(3) -0.1879(3) -0.3338(4) 0.0386(14) Uani 1 1 d . . .
N1 N -0.3581(4) -0.0233(4) -0.3675(4) 0.0386(18) Uani 1 1 d . . .
C1 C -0.3413(5) 0.0189(4) -0.4221(5) 0.0347(19) Uani 1 1 d . . .
H1 H -0.3673 0.0571 -0.4296 0.042 Uiso 1 1 calc R . .
C2 C -0.2875(4) 0.0081(4) -0.4673(4) 0.0286(16) Uani 1 1 d . . .
C3 C -0.2508(4) -0.0486(4) -0.4567(5) 0.0312(17) Uani 1 1 d . . .
H3 H -0.2131 -0.0573 -0.4855 0.037 Uiso 1 1 calc R . .
C4 C -0.2711(4) -0.0934(4) -0.4012(4) 0.0290(17) Uani 1 1 d . . .
C5 C -0.3243(5) -0.0797(4) -0.3596(5) 0.0364(19) Uani 1 1 d . . .
H5 H -0.3381 -0.1107 -0.3240 0.044 Uiso 1 1 calc R . .
C6 C -0.2679(5) 0.0547(4) -0.5222(5) 0.0333(19) Uani 1 1 d . . .
C7 C -0.2305(4) -0.1533(4) -0.3870(5) 0.0332(19) Uani 1 1 d . . .

loop_
_atom_site_aniso_label
_atom_site_aniso_U_11
_atom_site_aniso_U_22
_atom_site_aniso_U_33
_atom_site_aniso_U_23
_atom_site_aniso_U_13
_atom_site_aniso_U_12
I1 0.0295(3) 0.0450(4) 0.0361(3) 0.0065(2) -0.0063(2) -0.0064(2)
In1 0.0243(4) 0.0238(4) 0.0289(4) 0.000 0.0037(3) 0.000
Cu1 0.0336(6) 0.0375(6) 0.0333(5) 0.0068(5) 0.0106(4) 0.0091(4)
O1 0.036(3) 0.032(3) 0.039(3) 0.011(3) 0.005(3) 0.007(3)
O2 0.040(4) 0.028(3) 0.050(4) 0.001(3) 0.005(3) 0.003(3)
O3 0.029(3) 0.025(3) 0.049(3) 0.004(3) 0.007(3) 0.006(2)
O4 0.035(3) 0.037(3) 0.045(3) 0.012(3) -0.002(3) 0.012(3)
N1 0.039(4) 0.041(4) 0.035(4) 0.005(3) 0.019(3) 0.013(3)
C1 0.040(5) 0.026(4) 0.038(4) 0.007(4) 0.013(4) 0.008(3)
C2 0.033(4) 0.026(4) 0.026(3) -0.006(3) 0.001(3) 0.005(3)
C3 0.025(4) 0.038(4) 0.031(4) -0.006(3) 0.010(3) 0.001(3)
C4 0.027(4) 0.033(4) 0.027(4) 0.001(3) 0.004(3) 0.002(3)
C5 0.038(5) 0.027(4) 0.044(5) 0.013(4) 0.007(4) 0.004(4)
C6 0.040(5) 0.023(4) 0.037(4) -0.008(3) 0.001(4) -0.001(3)
C7 0.029(4) 0.029(4) 0.041(5) 0.000(4) 0.006(4) 0.001(3)

_geom_special_details            
; 
 All esds (except the esd in the dihedral angle between two l.s. planes) 
 are estimated using the full covariance matrix.  The cell esds are taken 
 into account individually in the estimation of esds in distances, angles 
 and torsion angles; correlations between esds in cell parameters are only 
 used when they are defined by crystal symmetry.  An approximate (isotropic) 
 treatment of cell esds is used for estimating esds involving l.s. planes. 
;

loop_
_geom_bond_atom_site_label_1
_geom_bond_atom_site_label_2
_geom_bond_distance
_geom_bond_site_symmetry_2
_geom_bond_publ_flag
I1 Cu1 2.6367(13) 10_444 ?
I1 Cu1 2.6844(14) . ?
I1 Cu1 2.7482(14) 12_454 ?
In1 O3 2.146(6) 2_554 ?
In1 O3 2.146(6) 15_444 ?
In1 O1 2.174(6) . ?
In1 O1 2.174(6) 14_443 ?
In1 O2 2.416(6) 14_443 ?
In1 O2 2.416(6) . ?
In1 O4 2.463(6) 2_554 ?
In1 O4 2.463(6) 15_444 ?
In1 C7 2.642(9) 15_444 ?
In1 C7 2.642(9) 2_554 ?
In1 C6 2.652(9) 14_443 ?
In1 C6 2.652(9) . ?
Cu1 N1 2.034(7) . ?
Cu1 Cu1 2.568(2) 3_455 ?
Cu1 I1 2.6367(13) 12_454 ?
Cu1 Cu1 2.6480(18) 12_454 ?
Cu1 Cu1 2.6480(18) 10_444 ?
Cu1 I1 2.7482(14) 10_444 ?
O1 C6 1.311(11) . ?
O2 C6 1.249(12) . ?
O3 C7 1.301(10) . ?
O3 In1 2.146(6) 4_554 ?
O4 C7 1.225(12) . ?
O4 In1 2.463(6) 4_554 ?
N1 C5 1.346(12) . ?
N1 C1 1.365(11) . ?
C1 C2 1.391(12) . ?
C1 H1 0.9500 . ?
C2 C3 1.388(12) . ?
C2 C6 1.440(12) . ?
C3 C4 1.429(12) . ?
C3 H3 0.9500 . ?
C4 C5 1.355(13) . ?
C4 C7 1.495(12) . ?
C5 H5 0.9500 . ?
C7 In1 2.642(9) 4_554 ?

loop_
_geom_angle_atom_site_label_1
_geom_angle_atom_site_label_2
_geom_angle_atom_site_label_3
_geom_angle
_geom_angle_site_symmetry_1
_geom_angle_site_symmetry_3
_geom_angle_publ_flag
Cu1 I1 Cu1 59.68(4) 10_444 . ?
Cu1 I1 Cu1 56.91(4) 10_444 12_454 ?
Cu1 I1 Cu1 58.33(4) . 12_454 ?
O3 In1 O3 135.1(3) 2_554 15_444 ?
O3 In1 O1 100.9(2) 2_554 . ?
O3 In1 O1 95.9(2) 15_444 . ?
O3 In1 O1 95.9(2) 2_554 14_443 ?
O3 In1 O1 100.9(2) 15_444 14_443 ?
O1 In1 O1 135.1(3) . 14_443 ?
O3 In1 O2 142.6(2) 2_554 14_443 ?
O3 In1 O2 79.7(2) 15_444 14_443 ?
O1 In1 O2 85.6(2) . 14_443 ?
O1 In1 O2 57.5(2) 14_443 14_443 ?
O3 In1 O2 79.7(2) 2_554 . ?
O3 In1 O2 142.6(2) 15_444 . ?
O1 In1 O2 57.5(2) . . ?
O1 In1 O2 85.6(2) 14_443 . ?
O2 In1 O2 73.0(3) 14_443 . ?
O3 In1 O4 56.7(2) 2_554 2_554 ?
O3 In1 O4 86.4(2) 15_444 2_554 ?
O1 In1 O4 144.5(2) . 2_554 ?
O1 In1 O4 78.4(2) 14_443 2_554 ?
O2 In1 O4 129.4(2) 14_443 2_554 ?
O2 In1 O4 130.9(2) . 2_554 ?
O3 In1 O4 86.4(2) 2_554 15_444 ?
O3 In1 O4 56.7(2) 15_444 15_444 ?
O1 In1 O4 78.4(2) . 15_444 ?
O1 In1 O4 144.5(2) 14_443 15_444 ?
O2 In1 O4 130.9(2) 14_443 15_444 ?
O2 In1 O4 129.4(2) . 15_444 ?
O4 In1 O4 73.4(3) 2_554 15_444 ?
O3 In1 C7 111.4(3) 2_554 15_444 ?
O3 In1 C7 29.3(3) 15_444 15_444 ?
O1 In1 C7 85.0(3) . 15_444 ?
O1 In1 C7 126.4(3) 14_443 15_444 ?
O2 In1 C7 105.8(2) 14_443 15_444 ?
O2 In1 C7 142.5(3) . 15_444 ?
O4 In1 C7 79.9(2) 2_554 15_444 ?
O4 In1 C7 27.5(2) 15_444 15_444 ?
O3 In1 C7 29.3(3) 2_554 2_554 ?
O3 In1 C7 111.4(3) 15_444 2_554 ?
O1 In1 C7 126.4(3) . 2_554 ?
O1 In1 C7 85.0(3) 14_443 2_554 ?
O2 In1 C7 142.5(3) 14_443 2_554 ?
O2 In1 C7 105.8(2) . 2_554 ?
O4 In1 C7 27.5(3) 2_554 2_554 ?
O4 In1 C7 79.9(2) 15_444 2_554 ?
C7 In1 C7 97.0(4) 15_444 2_554 ?
O3 In1 C6 121.0(3) 2_554 14_443 ?
O3 In1 C6 90.7(2) 15_444 14_443 ?
O1 In1 C6 110.2(3) . 14_443 ?
O1 In1 C6 29.5(3) 14_443 14_443 ?
O2 In1 C6 28.0(3) 14_443 14_443 ?
O2 In1 C6 77.0(2) . 14_443 ?
O4 In1 C6 105.2(3) 2_554 14_443 ?
O4 In1 C6 147.3(2) 15_444 14_443 ?
C7 In1 C6 119.9(3) 15_444 14_443 ?
C7 In1 C6 114.4(3) 2_554 14_443 ?
O3 In1 C6 90.7(2) 2_554 . ?
O3 In1 C6 121.0(3) 15_444 . ?
O1 In1 C6 29.5(3) . . ?
O1 In1 C6 110.2(3) 14_443 . ?
O2 In1 C6 77.0(2) 14_443 . ?
O2 In1 C6 28.0(3) . . ?
O4 In1 C6 147.3(2) 2_554 . ?
O4 In1 C6 105.2(3) 15_444 . ?
C7 In1 C6 114.4(3) 15_444 . ?
C7 In1 C6 119.9(3) 2_554 . ?
C6 In1 C6 93.0(4) 14_443 . ?
N1 Cu1 Cu1 143.4(2) . 3_455 ?
N1 Cu1 I1 108.7(2) . 12_454 ?
Cu1 Cu1 I1 63.73(5) 3_455 12_454 ?
N1 Cu1 Cu1 150.1(3) . 12_454 ?
Cu1 Cu1 Cu1 61.00(2) 3_455 12_454 ?
I1 Cu1 Cu1 61.06(4) 12_454 12_454 ?
N1 Cu1 Cu1 140.1(2) . 10_444 ?
Cu1 Cu1 Cu1 61.00(2) 3_455 10_444 ?
I1 Cu1 Cu1 111.18(4) 12_454 10_444 ?
Cu1 Cu1 Cu1 58.01(5) 12_454 10_444 ?
N1 Cu1 I1 103.6(2) . . ?
Cu1 Cu1 I1 112.20(3) 3_455 . ?
I1 Cu1 I1 113.57(4) 12_454 . ?
Cu1 Cu1 I1 62.04(5) 12_454 . ?
Cu1 Cu1 I1 59.26(5) 10_444 . ?
N1 Cu1 I1 101.8(3) . 10_444 ?
Cu1 Cu1 I1 59.35(5) 3_455 10_444 ?
I1 Cu1 I1 117.44(4) 12_454 10_444 ?
Cu1 Cu1 I1 107.78(4) 12_454 10_444 ?
Cu1 Cu1 I1 59.63(4) 10_444 10_444 ?
I1 Cu1 I1 110.06(4) . 10_444 ?
C6 O1 In1 95.9(5) . . ?
C6 O2 In1 86.5(5) . . ?
C7 O3 In1 97.0(5) . 4_554 ?
C7 O4 In1 84.4(5) . 4_554 ?
C5 N1 C1 119.1(7) . . ?
C5 N1 Cu1 119.3(6) . . ?
C1 N1 Cu1 121.4(6) . . ?
N1 C1 C2 122.6(8) . . ?
N1 C1 H1 118.7 . . ?
C2 C1 H1 118.7 . . ?
C1 C2 C3 118.0(8) . . ?
C1 C2 C6 122.2(8) . . ?
C3 C2 C6 119.7(8) . . ?
C2 C3 C4 118.4(7) . . ?
C2 C3 H3 120.8 . . ?
C4 C3 H3 120.8 . . ?
C5 C4 C3 120.2(8) . . ?
C5 C4 C7 120.6(8) . . ?
C3 C4 C7 119.1(7) . . ?
N1 C5 C4 121.5(8) . . ?
N1 C5 H5 119.2 . . ?
C4 C5 H5 119.2 . . ?
O2 C6 O1 120.0(8) . . ?
O2 C6 C2 122.2(8) . . ?
O1 C6 C2 117.8(8) . . ?
O2 C6 In1 65.4(5) . . ?
O1 C6 In1 54.6(4) . . ?
C2 C6 In1 171.7(7) . . ?
O4 C7 O3 121.6(8) . . ?
O4 C7 C4 120.5(8) . . ?
O3 C7 C4 117.9(8) . . ?
O4 C7 In1 68.1(5) . 4_554 ?
O3 C7 In1 53.7(4) . 4_554 ?
C4 C7 In1 170.8(6) . 4_554 ?

loop_
_geom_torsion_atom_site_label_1
_geom_torsion_atom_site_label_2
_geom_torsion_atom_site_label_3
_geom_torsion_atom_site_label_4
_geom_torsion
_geom_torsion_site_symmetry_1
_geom_torsion_site_symmetry_2
_geom_torsion_site_symmetry_3
_geom_torsion_site_symmetry_4
_geom_torsion_publ_flag
Cu1 I1 Cu1 N1 -140.7(3) 10_444 . . . ?
Cu1 I1 Cu1 N1 151.8(3) 12_454 . . . ?
Cu1 I1 Cu1 Cu1 31.58(4) 10_444 . . 3_455 ?
Cu1 I1 Cu1 Cu1 -35.95(4) 12_454 . . 3_455 ?
Cu1 I1 Cu1 I1 101.49(3) 10_444 . . 12_454 ?
Cu1 I1 Cu1 I1 33.96(5) 12_454 . . 12_454 ?
Cu1 I1 Cu1 Cu1 67.53(4) 10_444 . . 12_454 ?
Cu1 I1 Cu1 Cu1 -67.53(4) 12_454 . . 10_444 ?
Cu1 I1 Cu1 I1 -32.51(5) 10_444 . . 10_444 ?
Cu1 I1 Cu1 I1 -100.03(3) 12_454 . . 10_444 ?
O3 In1 O1 C6 -71.5(5) 2_554 . . . ?
O3 In1 O1 C6 150.4(5) 15_444 . . . ?
O1 In1 O1 C6 38.5(4) 14_443 . . . ?
O2 In1 O1 C6 71.2(5) 14_443 . . . ?
O2 In1 O1 C6 -1.3(4) . . . . ?
O4 In1 O1 C6 -117.6(5) 2_554 . . . ?
O4 In1 O1 C6 -155.5(5) 15_444 . . . ?
C7 In1 O1 C6 177.6(5) 15_444 . . . ?
C7 In1 O1 C6 -87.4(5) 2_554 . . . ?
C6 In1 O1 C6 57.5(7) 14_443 . . . ?
O3 In1 O2 C6 111.5(5) 2_554 . . . ?
O3 In1 O2 C6 -49.4(6) 15_444 . . . ?
O1 In1 O2 C6 1.4(5) . . . . ?
O1 In1 O2 C6 -151.6(5) 14_443 . . . ?
O2 In1 O2 C6 -94.3(5) 14_443 . . . ?
O4 In1 O2 C6 137.9(5) 2_554 . . . ?
O4 In1 O2 C6 35.0(6) 15_444 . . . ?
C7 In1 O2 C6 -0.4(7) 15_444 . . . ?
C7 In1 O2 C6 124.8(5) 2_554 . . . ?
C6 In1 O2 C6 -123.1(5) 14_443 . . . ?
Cu1 Cu1 N1 C5 -111.8(7) 3_455 . . . ?
I1 Cu1 N1 C5 177.3(7) 12_454 . . . ?
Cu1 Cu1 N1 C5 113.1(7) 12_454 . . . ?
Cu1 Cu1 N1 C5 -1.9(10) 10_444 . . . ?
I1 Cu1 N1 C5 56.2(8) . . . . ?
I1 Cu1 N1 C5 -58.1(8) 10_444 . . . ?
Cu1 Cu1 N1 C1 63.8(10) 3_455 . . . ?
I1 Cu1 N1 C1 -7.1(8) 12_454 . . . ?
Cu1 Cu1 N1 C1 -71.3(10) 12_454 . . . ?
Cu1 Cu1 N1 C1 173.7(6) 10_444 . . . ?
I1 Cu1 N1 C1 -128.2(8) . . . . ?
I1 Cu1 N1 C1 117.5(8) 10_444 . . . ?
C5 N1 C1 C2 -4.5(15) . . . . ?
Cu1 N1 C1 C2 179.9(7) . . . . ?
N1 C1 C2 C3 1.3(14) . . . . ?
N1 C1 C2 C6 -176.4(9) . . . . ?
C1 C2 C3 C4 1.5(12) . . . . ?
C6 C2 C3 C4 179.3(8) . . . . ?
C2 C3 C4 C5 -1.2(13) . . . . ?
C2 C3 C4 C7 -177.5(7) . . . . ?
C1 N1 C5 C4 4.8(14) . . . . ?
Cu1 N1 C5 C4 -179.5(7) . . . . ?
C3 C4 C5 N1 -2.1(14) . . . . ?
C7 C4 C5 N1 174.2(8) . . . . ?
In1 O2 C6 O1 -2.3(8) . . . . ?
In1 O2 C6 C2 176.4(8) . . . . ?
In1 O1 C6 O2 2.5(8) . . . . ?
In1 O1 C6 C2 -176.2(7) . . . . ?
C1 C2 C6 O2 171.3(8) . . . . ?
C3 C2 C6 O2 -6.4(13) . . . . ?
C1 C2 C6 O1 -10.0(13) . . . . ?
C3 C2 C6 O1 172.3(8) . . . . ?
C1 C2 C6 In1 -32(5) . . . . ?
C3 C2 C6 In1 150(4) . . . . ?
O3 In1 C6 O2 -66.2(5) 2_554 . . . ?
O3 In1 C6 O2 147.4(5) 15_444 . . . ?
O1 In1 C6 O2 -177.6(8) . . . . ?
O1 In1 C6 O2 30.3(5) 14_443 . . . ?
O2 In1 C6 O2 78.1(6) 14_443 . . . ?
O4 In1 C6 O2 -69.7(7) 2_554 . . . ?
O4 In1 C6 O2 -152.6(5) 15_444 . . . ?
C7 In1 C6 O2 179.8(5) 15_444 . . . ?
C7 In1 C6 O2 -65.7(6) 2_554 . . . ?
C6 In1 C6 O2 54.8(4) 14_443 . . . ?
O3 In1 C6 O1 111.3(5) 2_554 . . . ?
O3 In1 C6 O1 -35.0(6) 15_444 . . . ?
O1 In1 C6 O1 -152.1(4) 14_443 . . . ?
O2 In1 C6 O1 -104.4(5) 14_443 . . . ?
O2 In1 C6 O1 177.6(8) . . . . ?
O4 In1 C6 O1 107.9(6) 2_554 . . . ?
O4 In1 C6 O1 24.9(5) 15_444 . . . ?
C7 In1 C6 O1 -2.7(6) 15_444 . . . ?
C7 In1 C6 O1 111.9(5) 2_554 . . . ?
C6 In1 C6 O1 -127.6(6) 14_443 . . . ?
O3 In1 C6 C2 136(4) 2_554 . . . ?
O3 In1 C6 C2 -11(4) 15_444 . . . ?
O1 In1 C6 C2 24(4) . . . . ?
O1 In1 C6 C2 -128(4) 14_443 . . . ?
O2 In1 C6 C2 -80(4) 14_443 . . . ?
O2 In1 C6 C2 -158(4) . . . . ?
O4 In1 C6 C2 132(4) 2_554 . . . ?
O4 In1 C6 C2 49(4) 15_444 . . . ?
C7 In1 C6 C2 22(4) 15_444 . . . ?
C7 In1 C6 C2 136(4) 2_554 . . . ?
C6 In1 C6 C2 -103(4) 14_443 . . . ?
In1 O4 C7 O3 5.5(8) 4_554 . . . ?
In1 O4 C7 C4 -176.3(8) 4_554 . . . ?
In1 O3 C7 O4 -6.3(9) 4_554 . . . ?
In1 O3 C7 C4 175.4(6) 4_554 . . . ?
C5 C4 C7 O4 -6.2(13) . . . . ?
C3 C4 C7 O4 170.2(8) . . . . ?
C5 C4 C7 O3 172.1(9) . . . . ?
C3 C4 C7 O3 -11.6(12) . . . . ?
C5 C4 C7 In1 -164(4) . . . 4_554 ?
C3 C4 C7 In1 12(4) . . . 4_554 ?

_diffrn_measured_fraction_theta_max 0.986
_diffrn_reflns_theta_full        25.00
_diffrn_measured_fraction_theta_full 0.986
_refine_diff_density_max         1.837
_refine_diff_density_min         -0.697
_refine_diff_density_rms         0.248
