
#######################################################################
#
#                 Cambridge Crystallographic Data Centre
#                                CCDC
#
#######################################################################
#
# If this CIF has been generated from an entry in the Cambridge
# Structural Database, then it will include bibliographic, chemical,
# crystal, experimental, refinement or atomic coordinate data resulting
# from the CCDC's data processing and validation procedures.
#
#######################################################################

data_CSD_CIF_JOYKAJ
_audit_creation_date 1993-02-02
_audit_creation_method CSD-ConQuest-V1
_database_code_CSD JOYKAJ
_database_code_depnum_ccdc_archive 'CCDC 1189716'
_chemical_formula_sum 'C15 H33 Sb1'
_chemical_formula_moiety
;
C15 H33 Sb1
;
_journal_coden_Cambridge 579
_journal_volume 11
_journal_year 1992
_journal_page_first 2163
_journal_name_full 'Organometallics '
loop_
_publ_author_name
"D.G.Hendershot"
"J.C.Pazik"
"C.George"
"A.D.Berry"
_chemical_name_systematic
;
Trineopentylstibine
;
_chemical_name_common
;
Teaching Subset: Fundamental Chemistry
;
_chemical_melting_point 344.15
_cell_volume    904.007
_exptl_crystal_colour 'white'
_exptl_crystal_density_diffrn 1.231
_exptl_special_details
;
Melting point range 344.15-345.15K
Air-sensitive
Isomorphous with the trimethylsilyl analogue
;
_diffrn_ambient_temperature 223.15
#These two values have been output from a single CSD field.
_refine_ls_R_factor_gt 0.089
_refine_ls_wR_factor_gt 0.089
_symmetry_cell_setting hexagonal
_symmetry_space_group_name_H-M 'P 63'
_symmetry_Int_Tables_number 173
loop_
_symmetry_equiv_pos_site_id
_symmetry_equiv_pos_as_xyz
1 x,y,z
2 -y,x-y,z
3 -x+y,-x,z
4 -x,-y,1/2+z
5 y,-x+y,1/2+z
6 x-y,x,1/2+z
_cell_length_a 10.069(2)
_cell_length_b 10.069(2)
_cell_length_c 10.296(3)
_cell_angle_alpha 90
_cell_angle_beta 90
_cell_angle_gamma 120
_cell_formula_units_Z 2
loop_
_atom_type_symbol
_atom_type_radius_bond
C 0.68
H 0.23
Sb 1.46
loop_
_atom_site_label
_atom_site_type_symbol
_atom_site_fract_x
_atom_site_fract_y
_atom_site_fract_z
Sb1 Sb 0.00000 0.00000 0.18150
C1 C -0.2032(33) -0.0538(46) 0.0668(23)
C2 C -0.3238(3) -0.0171(31) 0.1298(31)
C3 C -0.3950(37) -0.1247(46) 0.2430(33)
C4 C -0.2464(36) 0.1532(29) 0.1604(60)
C5 C -0.4489(32) -0.0565(36) 0.0303(32)
H1 H -0.25500 -0.16170 0.04850
H2 H -0.16890 0.00270 -0.01310
H3 H -0.31870 -0.10550 0.30760
H4 H -0.43840 -0.22810 0.21200
H5 H -0.47440 -0.11060 0.28060
H6 H -0.16750 0.17950 0.22430
H7 H -0.31950 0.18000 0.19230
H8 H -0.20130 0.20830 0.08150
H9 H -0.50340 -0.16390 0.01000
H10 H -0.40120 0.00130 -0.04690
H11 H -0.51930 -0.02690 0.06390
C1A C 0.0538(33) -0.1494(46) 0.0668(23)
C1B C 0.1494(33) 0.2032(46) 0.0668(23)
C2A C 0.0171(3) -0.3067(31) 0.1298(31)
H1A H 0.16170 -0.09330 0.04850
H2A H -0.00270 -0.17160 -0.01310
C2B C 0.3067(3) 0.3238(31) 0.1298(31)
H1B H 0.09330 0.25500 0.04850
H2B H 0.17160 0.16890 -0.01310
C3A C 0.1247(37) -0.2703(46) 0.2430(33)
C4A C -0.1532(36) -0.3996(29) 0.1604(60)
C5A C 0.0565(32) -0.3924(36) 0.0303(32)
C3B C 0.2703(37) 0.3950(46) 0.2430(33)
C4B C 0.3996(36) 0.2464(29) 0.1604(60)
C5B C 0.3924(32) 0.4489(36) 0.0303(32)
H3A H 0.10550 -0.21320 0.30760
H4A H 0.22810 -0.21030 0.21200
H5A H 0.11060 -0.36380 0.28060
H6A H -0.17950 -0.34700 0.22430
H7A H -0.18000 -0.49950 0.19230
H8A H -0.20830 -0.40960 0.08150
H9A H 0.16390 -0.33950 0.01000
H10A H -0.00130 -0.40250 -0.04690
H11A H 0.02690 -0.49240 0.06390
H3B H 0.21320 0.31870 0.30760
H4B H 0.21030 0.43840 0.21200
H5B H 0.36380 0.47440 0.28060
H6B H 0.34700 0.16750 0.22430
H7B H 0.49950 0.31950 0.19230
H8B H 0.40960 0.20130 0.08150
H9B H 0.33950 0.50340 0.01000
H10B H 0.40250 0.40120 -0.04690
H11B H 0.49240 0.51930 0.06390
#END
