
#######################################################################
#
#                 Cambridge Crystallographic Data Centre
#                                CCDC
#
#######################################################################
#
# If this CIF has been generated from an entry in the Cambridge
# Structural Database, then it will include bibliographic, chemical,
# crystal, experimental, refinement or atomic coordinate data resulting
# from the CCDC's data processing and validation procedures.
#
#######################################################################

data_CSD_CIF_JOZZIH
_audit_creation_date 1993-03-04
_audit_creation_method CSD-ConQuest-V1
_database_code_CSD JOZZIH
_database_code_depnum_ccdc_archive 'CCDC 1189885'
_chemical_formula_sum 'C7 H6 O3'
_chemical_formula_moiety
;
C7 H6 O3
;
_journal_coeditor_code "IUCr CR0372"
_journal_coden_Cambridge 591
_journal_volume 48
_journal_year 1992
_journal_page_first 1960
_journal_name_full 'Acta Crystallogr.,Sect.C:Cryst.Struct.Commun. '
loop_
_publ_author_name
"E.A.Heath"
"P.Singh"
"Y.Ebisuzaki"
_chemical_name_systematic
;
p-Hydroxybenzoic acid
;
_chemical_name_common
;
Teaching Subset: Fundamental Chemistry, Symmetry; DrugBank: DB04242
;
_chemical_melting_point 488.0
_cell_volume    612.682
_exptl_crystal_colour 'colorless'
_exptl_crystal_density_diffrn 1.497
_diffrn_ambient_temperature ?
_diffrn_special_details
;
The study was carried out at room temperature,in the range 283-303K

;
_refine_special_details
;
Carboxyl hydrogen is disordered.

;
#These two values have been output from a single CSD field.
_refine_ls_R_factor_gt 0.041
_refine_ls_wR_factor_gt 0.041
_symmetry_cell_setting monoclinic
_symmetry_space_group_name_H-M 'P 21/a'
_symmetry_Int_Tables_number 14
loop_
_symmetry_equiv_pos_site_id
_symmetry_equiv_pos_as_xyz
1 x,y,z
2 1/2-x,1/2+y,-z
3 -x,-y,-z
4 -1/2+x,-1/2-y,z
_cell_length_a 18.508(7)
_cell_length_b 5.228(2)
_cell_length_c 6.342(3)
_cell_angle_alpha 90
_cell_angle_beta 93.22(3)
_cell_angle_gamma 90
_cell_formula_units_Z 4
loop_
_atom_type_symbol
_atom_type_radius_bond
C 0.68
H 0.23
O 0.68
loop_
_atom_site_label
_atom_site_type_symbol
_atom_site_fract_x
_atom_site_fract_y
_atom_site_fract_z
C1 C 0.94079(8) 0.0501(3) 0.2353(3)
C2 C 0.89677(8) 0.0816(3) 0.4213(2)
C3 C 0.90863(9) 0.2852(4) 0.5590(3)
C4 C 0.86951(9) 0.3085(4) 0.7373(3)
C5 C 0.81727(8) 0.1286(3) 0.7755(2)
C6 C 0.80350(9) -0.0727(4) 0.6383(3)
C7 C 0.84385(9) -0.0963(3) 0.4622(2)
O1 O 0.98703(7) 0.2203(3) 0.1982(2)
O2 O 0.93075(7) -0.1477(3) 0.1223(2)
O3 O 0.77883(7) 0.1598(2) 0.9534(2)
H1 H 0.958(2) -0.169(8) 0.024(8)
H2 H 0.945(1) 0.405(4) 0.532(3)
H3 H 0.8783(10) 0.447(4) 0.841(3)
H4 H 0.7561(13) 0.017(6) 0.977(3)
H5 H 0.7641(11) -0.198(4) 0.669(3)
H6 H 0.8361(9) -0.235(4) 0.365(3)
H7? H 1.014(3) 0.182(8) 0.093(7)
#END
