####################################################################### 
# 
# This file contains crystal structure data downloaded from the 
# Cambridge Structural Database (CSD) hosted by the Cambridge 
# Crystallographic Data Centre (CCDC).
# 
# Full information about CCDC data access policies and citation 
# guidelines are available at http://www.ccdc.cam.ac.uk/access/V1 
# 
# Audit and citation data items may have been added by the CCDC. 
# Please retain this information to preserve the provenance of 
# this file and to allow appropriate attribution of the data. 
# 
#######################################################################

data_Zn
_audit_block_doi                 10.5517/cc13vkm4
_database_code_depnum_ccdc_archive 'CCDC 1038426'
loop_
_citation_id
_citation_doi
_citation_year
1 10.1039/C4CC10442K 2015
_audit_update_record             
;
2014-12-09 deposited with the CCDC.	2024-07-10 downloaded from the CCDC.
;

loop_
_platon_squeeze_void_nr
_platon_squeeze_void_average_x
_platon_squeeze_void_average_y
_platon_squeeze_void_average_z
_platon_squeeze_void_volume
_platon_squeeze_void_count_electrons
_platon_squeeze_void_content
1 -0.076 0.500 1.000 277 50 ' '
2 0.215 -0.012 0.732 9 0 ' '
3 0.785 0.012 0.268 9 0 ' '
_platon_squeeze_details          
;
;
_audit_creation_method           SHELXL-2014/6
_chemical_name_systematic        ?
_chemical_name_common            ?
_chemical_melting_point          ?
_chemical_formula_moiety         'C27 H17 N O4 Zn, 0.5(C20 H16 N2)'
_chemical_formula_sum            'C37 H25 N2 O4 Zn'
_chemical_formula_weight         626.98

loop_
_atom_type_symbol
_atom_type_description
_atom_type_scat_dispersion_real
_atom_type_scat_dispersion_imag
_atom_type_scat_source
C C 0.0033 0.0016 'International Tables Vol C Tables 4.2.6.8 and 6.1.1.4'
N N 0.0061 0.0033 'International Tables Vol C Tables 4.2.6.8 and 6.1.1.4'
O O 0.0106 0.0060 'International Tables Vol C Tables 4.2.6.8 and 6.1.1.4'
Zn Zn 0.2839 1.4301 'International Tables Vol C Tables 4.2.6.8 and 6.1.1.4'
H H 0.0000 0.0000 'International Tables Vol C Tables 4.2.6.8 and 6.1.1.4'

_space_group_crystal_system      triclinic
_space_group_IT_number           2
_space_group_name_H-M_alt        'P -1'
_space_group_name_Hall           '-P 1'

_shelx_space_group_comment       
;
The symmetry employed for this shelxl refinement is uniquely defined
by the following loop, which should always be used as a source of
symmetry information in preference to the above space-group names.
They are only intended as comments.
;

loop_
_space_group_symop_operation_xyz
'x, y, z'
'-x, -y, -z'

_cell_length_a                   9.8824(7)
_cell_length_b                   11.5480(8)
_cell_length_c                   15.6480(11)
_cell_angle_alpha                89.784(3)
_cell_angle_beta                 76.441(3)
_cell_angle_gamma                75.603(3)
_cell_volume                     1678.7(2)
_cell_formula_units_Z            2
_cell_measurement_temperature    113(2)
_cell_measurement_reflns_used    1809
_cell_measurement_theta_min      2.60
_cell_measurement_theta_max      27.60

_exptl_crystal_description       block
_exptl_crystal_colour            yellow
_exptl_crystal_density_meas      ?
_exptl_crystal_density_method    ?
_exptl_crystal_density_diffrn    1.240
_exptl_crystal_F_000             646
_exptl_transmission_factor_min   ?
_exptl_transmission_factor_max   ?
_exptl_crystal_size_max          0.45
_exptl_crystal_size_mid          0.34
_exptl_crystal_size_min          0.25
_exptl_absorpt_coefficient_mu    0.771
_shelx_estimated_absorpt_T_min   ?
_shelx_estimated_absorpt_T_max   ?
_exptl_absorpt_correction_type   Multi-Scan
_exptl_absorpt_correction_T_min  0.737
_exptl_absorpt_correction_T_max  0.825
_exptl_absorpt_process_details   multi-scan
_exptl_absorpt_special_details   ?
_diffrn_ambient_temperature      113(2)
_diffrn_radiation_wavelength     0.71073
_diffrn_radiation_type           MoK\a
_diffrn_source                   ?
_diffrn_measurement_device_type  ?
_diffrn_measurement_method       ?
_diffrn_detector_area_resol_mean ?
_diffrn_reflns_number            8058
_diffrn_reflns_av_unetI/netI     0.0266
_diffrn_reflns_v_R_equivalents   ?
_diffrn_reflns_limit_h_min       -13
_diffrn_reflns_limit_h_max       13
_diffrn_reflns_limit_k_min       -15
_diffrn_reflns_limit_k_max       15
_diffrn_reflns_limit_l_min       -20
_diffrn_reflns_limit_l_max       20
_diffrn_reflns_theta_min         2.278
_diffrn_reflns_theta_max         27.942
_diffrn_reflns_theta_full        25.242
_diffrn_measured_fraction_theta_max 0.997
_diffrn_measured_fraction_theta_full 0.999
_diffrn_reflns_Laue_measured_fraction_max 0.997
_diffrn_reflns_Laue_measured_fraction_full 0.999
_diffrn_reflns_point_group_measured_fraction_max 0.997
_diffrn_reflns_point_group_measured_fraction_full 0.999
_reflns_number_total             8032
_reflns_number_gt                7138
_reflns_threshold_expression     'I > 2\s(I)'
_reflns_Friedel_coverage         0.000
_reflns_Friedel_fraction_max     .
_reflns_Friedel_fraction_full    .

_reflns_special_details          
;
 Reflections were merged by SHELXL according to the crystal
 class for the calculation of statistics and refinement.
 
 _reflns_Friedel_fraction is defined as the number of unique
 Friedel pairs measured divided by the number that would be
 possible theoretically, ignoring centric projections and
 systematic absences.
;

_computing_data_collection       ?
_computing_cell_refinement       ?
_computing_data_reduction        ?
_computing_structure_solution    ?
_computing_structure_refinement  'SHELXL-2014/6 (Sheldrick, 2014)'
_computing_molecular_graphics    ?
_computing_publication_material  ?
_refine_special_details          ?
_refine_ls_structure_factor_coef Fsqd
_refine_ls_matrix_type           full
_refine_ls_weighting_scheme      calc
_refine_ls_weighting_details     
'w=1/[\s^2^(Fo^2^)+(0.0486P)^2^+1.2939P] where P=(Fo^2^+2Fc^2^)/3'
_atom_sites_solution_primary     ?
_atom_sites_solution_secondary   ?
_atom_sites_solution_hydrogens   geom
_refine_ls_hydrogen_treatment    constr
_refine_ls_extinction_method     none
_refine_ls_extinction_coef       .
_refine_ls_number_reflns         8032
_refine_ls_number_parameters     397
_refine_ls_number_restraints     0
_refine_ls_R_factor_all          0.0438
_refine_ls_R_factor_gt           0.0366
_refine_ls_wR_factor_ref         0.0964
_refine_ls_wR_factor_gt          0.0930
_refine_ls_goodness_of_fit_ref   1.091
_refine_ls_restrained_S_all      1.091
_refine_ls_shift/su_max          0.000
_refine_ls_shift/su_mean         0.000

loop_
_atom_site_label
_atom_site_type_symbol
_atom_site_fract_x
_atom_site_fract_y
_atom_site_fract_z
_atom_site_U_iso_or_equiv
_atom_site_adp_type
_atom_site_occupancy
_atom_site_site_symmetry_order
_atom_site_calc_flag
_atom_site_refinement_flags_posn
_atom_site_refinement_flags_adp
_atom_site_refinement_flags_occupancy
_atom_site_disorder_assembly
_atom_site_disorder_group
Zn1 Zn 0.15965(2) 0.97354(2) -0.02325(2) 0.00934(7) Uani 1 1 d . . . . .
O1 O 0.16025(16) 0.85651(13) 0.07343(9) 0.0239(3) Uani 1 1 d . . . . .
O2 O -0.07859(16) 0.89373(13) 0.09997(9) 0.0290(3) Uani 1 1 d . . . . .
O5 O -0.11733(14) 0.14338(13) 0.10536(9) 0.0221(3) Uani 1 1 d . . . . .
O6 O 0.12352(14) 0.10575(12) 0.07072(9) 0.0211(3) Uani 1 1 d . . . . .
N1 N 0.36558(16) 0.96364(13) -0.08870(9) 0.0147(3) Uani 1 1 d . . . . .
C21 C 0.00022(19) 0.15542(15) 0.11732(11) 0.0136(3) Uani 1 1 d . . . . .
C22 C -0.00642(19) 0.23526(15) 0.19481(11) 0.0144(3) Uani 1 1 d . . . . .
C23 C 0.10768(19) 0.28499(16) 0.19600(11) 0.0164(3) Uani 1 1 d . . . . .
H23 H 0.1868 0.2710 0.1479 0.020 Uiso 1 1 calc R U . . .
C24 C 0.1042(2) 0.35543(16) 0.26851(12) 0.0170(3) Uani 1 1 d . . . . .
H24 H 0.1799 0.3900 0.2682 0.020 Uiso 1 1 calc R U . . .
C25 C -0.0122(2) 0.37474(15) 0.34192(11) 0.0148(3) Uani 1 1 d . . . . .
C26 C -0.1250(2) 0.32375(18) 0.34075(12) 0.0233(4) Uani 1 1 d . . . . .
H26 H -0.2024 0.3351 0.3897 0.028 Uiso 1 1 calc R U . . .
C27 C -0.1236(2) 0.25591(18) 0.26709(12) 0.0220(4) Uani 1 1 d . . . . .
H27 H -0.2013 0.2244 0.2663 0.026 Uiso 1 1 calc R U . . .
C28 C -0.00960(19) 0.44284(15) 0.42264(11) 0.0146(3) Uani 1 1 d . . . . .
C29 C 0.0266(2) 0.61163(15) 0.49691(11) 0.0157(3) Uani 1 1 d . . . . .
H29 H 0.0453 0.6868 0.4946 0.019 Uiso 1 1 calc R U . . .
C30 C 0.01652(19) 0.55710(15) 0.41991(11) 0.0143(3) Uani 1 1 d . . . . .
C35 C 0.4286(2) 1.0510(2) -0.07818(13) 0.0267(4) Uani 1 1 d . . . . .
H35 H 0.3856 1.1068 -0.0308 0.032 Uiso 1 1 calc R U . . .
C36 C 0.5549(2) 1.0620(2) -0.13465(14) 0.0304(5) Uani 1 1 d . . . . .
H36 H 0.5964 1.1228 -0.1240 0.036 Uiso 1 1 calc R U . . .
C37 C 0.6198(2) 0.98163(18) -0.20764(12) 0.0198(4) Uani 1 1 d . . . . .
C38 C 0.7449(2) 0.99977(18) -0.27294(13) 0.0231(4) Uani 1 1 d . . . . .
H38 H 0.8004 1.0454 -0.2558 0.028 Uiso 1 1 calc R U . . .
C39 C 0.5570(2) 0.88829(17) -0.21598(13) 0.0214(4) Uani 1 1 d . . . . .
H39 H 0.5993 0.8298 -0.2617 0.026 Uiso 1 1 calc R U . . .
C40 C 0.4318(2) 0.88270(16) -0.15620(12) 0.0189(4) Uani 1 1 d . . . . .
H40 H 0.3914 0.8197 -0.1631 0.023 Uiso 1 1 calc R U . . .
C51 C 0.02528(19) 0.62624(15) 0.33843(10) 0.0139(3) Uani 1 1 d . . . . .
C52 C 0.1541(2) 0.64707(19) 0.29302(13) 0.0253(4) Uani 1 1 d . . . . .
H52 H 0.2375 0.6156 0.3120 0.030 Uiso 1 1 calc R U . . .
C53 C 0.0396(2) 0.84429(15) 0.11570(11) 0.0170(3) Uani 1 1 d . . . . .
C54 C 0.0367(2) 0.76465(15) 0.19193(11) 0.0158(3) Uani 1 1 d . . . . .
C55 C -0.0925(2) 0.7434(2) 0.23728(14) 0.0313(5) Uani 1 1 d . . . . .
H55 H -0.1764 0.7766 0.2192 0.038 Uiso 1 1 calc R U . . .
C56 C -0.0974(2) 0.6728(2) 0.30963(14) 0.0309(5) Uani 1 1 d . . . . .
H56 H -0.1839 0.6570 0.3386 0.037 Uiso 1 1 calc R U . . .
C57 C 0.1601(2) 0.71446(18) 0.21936(13) 0.0232(4) Uani 1 1 d . . . . .
H57 H 0.2478 0.7259 0.1883 0.028 Uiso 1 1 calc R U . . .
C68 C 0.7829(2) 0.95394(17) -0.35583(12) 0.0196(4) Uani 1 1 d . . . . .
H68 H 0.7322 0.9015 -0.3694 0.024 Uiso 1 1 calc R U . . .
C69 C 0.89597(19) 0.97731(16) -0.42772(12) 0.0180(4) Uani 1 1 d . . . . .
C70 C 0.9021(2) 0.93953(17) -0.51398(12) 0.0203(4) Uani 1 1 d . . . . .
H70 H 0.8364 0.8986 -0.5235 0.024 Uiso 1 1 calc R U . . .
C71 C 0.9965(2) 1.03820(18) -0.41492(12) 0.0213(4) Uani 1 1 d . . . . .
H71 H 0.9950 1.0637 -0.3583 0.026 Uiso 1 1 calc R U . . .
N3 N 0.4797(3) 0.36877(19) 0.29515(17) 0.0476(6) Uani 1 1 d . . . . .
C1 C 0.5466(4) 0.4372(3) 0.2420(2) 0.0568(8) Uani 1 1 d . . . . .
H1 H 0.5889 0.4080 0.1841 0.068 Uiso 1 1 calc R U . . .
C2 C 0.5582(3) 0.5479(3) 0.2658(2) 0.0530(7) Uani 1 1 d . . . . .
H2 H 0.6073 0.5905 0.2245 0.064 Uiso 1 1 calc R U . . .
C3 C 0.4985(3) 0.5954(2) 0.3492(2) 0.0431(6) Uani 1 1 d . . . . .
C4 C 0.4282(3) 0.5259(2) 0.40724(18) 0.0421(6) Uani 1 1 d . . . . .
H4 H 0.3864 0.5535 0.4656 0.051 Uiso 1 1 calc R U . . .
C5 C 0.4205(3) 0.4138(2) 0.37751(19) 0.0421(6) Uani 1 1 d . . . . .
H5 H 0.3719 0.3689 0.4171 0.051 Uiso 1 1 calc R U . . .
C6 C 0.5118(3) 0.7173(2) 0.3699(2) 0.0434(6) Uani 1 1 d . . . . .
H6 H 0.5533 0.7580 0.3238 0.052 Uiso 1 1 calc R U . . .
C7 C 0.4697(3) 0.7704(2) 0.4477(2) 0.0451(6) Uani 1 1 d . . . . .
H7 H 0.4240 0.7306 0.4928 0.054 Uiso 1 1 calc R U . . .
C8 C 0.4875(3) 0.8889(2) 0.4718(2) 0.0420(6) Uani 1 1 d . . . . .
C9 C 0.4399(3) 0.9269(2) 0.5596(2) 0.0444(6) Uani 1 1 d . . . . .
H9 H 0.3992 0.8786 0.6002 0.053 Uiso 1 1 calc R U . . .
C10 C 0.5479(3) 0.9633(2) 0.4121(2) 0.0444(6) Uani 1 1 d . . . . .
H10 H 0.5802 0.9389 0.3526 0.053 Uiso 1 1 calc R U . . .

loop_
_atom_site_aniso_label
_atom_site_aniso_U_11
_atom_site_aniso_U_22
_atom_site_aniso_U_33
_atom_site_aniso_U_23
_atom_site_aniso_U_13
_atom_site_aniso_U_12
Zn1 0.01107(10) 0.01078(10) 0.00665(10) 0.00091(6) -0.00136(7) -0.00437(7)
O1 0.0327(8) 0.0280(7) 0.0194(7) 0.0147(6) -0.0114(6) -0.0182(6)
O2 0.0301(8) 0.0308(8) 0.0210(7) 0.0161(6) -0.0055(6) 0.0006(6)
O5 0.0212(7) 0.0305(7) 0.0170(6) -0.0090(5) -0.0022(5) -0.0134(6)
O6 0.0201(7) 0.0218(6) 0.0202(7) -0.0099(5) -0.0052(5) -0.0028(5)
N1 0.0138(7) 0.0185(7) 0.0122(7) 0.0011(5) -0.0015(5) -0.0063(6)
C21 0.0211(8) 0.0120(7) 0.0088(7) 0.0011(6) -0.0036(6) -0.0061(6)
C22 0.0200(8) 0.0140(8) 0.0103(7) -0.0010(6) -0.0050(6) -0.0052(6)
C23 0.0184(8) 0.0183(8) 0.0122(8) -0.0022(6) -0.0017(6) -0.0058(7)
C24 0.0211(9) 0.0181(8) 0.0149(8) -0.0006(6) -0.0059(7) -0.0093(7)
C25 0.0251(9) 0.0108(7) 0.0101(7) 0.0019(6) -0.0063(7) -0.0056(7)
C26 0.0280(10) 0.0308(10) 0.0112(8) -0.0057(7) 0.0027(7) -0.0148(8)
C27 0.0241(10) 0.0286(10) 0.0163(9) -0.0053(7) -0.0016(7) -0.0151(8)
C28 0.0225(9) 0.0133(8) 0.0097(7) 0.0004(6) -0.0057(6) -0.0058(6)
C29 0.0267(9) 0.0106(7) 0.0124(8) 0.0024(6) -0.0069(7) -0.0075(7)
C30 0.0217(9) 0.0134(8) 0.0090(7) 0.0028(6) -0.0048(6) -0.0055(6)
C35 0.0266(10) 0.0370(11) 0.0178(9) -0.0112(8) 0.0050(8) -0.0201(9)
C36 0.0295(11) 0.0426(12) 0.0229(10) -0.0097(9) 0.0049(8) -0.0265(10)
C37 0.0154(8) 0.0283(10) 0.0154(8) 0.0016(7) 0.0002(7) -0.0083(7)
C38 0.0184(9) 0.0304(10) 0.0211(9) 0.0000(8) 0.0017(7) -0.0135(8)
C39 0.0192(9) 0.0210(9) 0.0196(9) -0.0030(7) 0.0047(7) -0.0061(7)
C40 0.0171(8) 0.0172(8) 0.0205(9) -0.0015(7) 0.0016(7) -0.0067(7)
C51 0.0239(9) 0.0118(7) 0.0076(7) -0.0008(6) -0.0036(6) -0.0075(6)
C52 0.0244(10) 0.0329(11) 0.0261(10) 0.0177(8) -0.0147(8) -0.0129(8)
C53 0.0295(10) 0.0124(8) 0.0104(8) 0.0018(6) -0.0061(7) -0.0064(7)
C54 0.0253(9) 0.0132(8) 0.0101(7) 0.0030(6) -0.0055(7) -0.0058(7)
C55 0.0213(10) 0.0447(13) 0.0280(11) 0.0232(10) -0.0092(8) -0.0059(9)
C56 0.0227(10) 0.0430(12) 0.0247(10) 0.0211(9) -0.0019(8) -0.0080(9)
C57 0.0215(9) 0.0291(10) 0.0234(9) 0.0140(8) -0.0075(8) -0.0127(8)
C68 0.0164(8) 0.0216(9) 0.0201(9) 0.0027(7) 0.0000(7) -0.0078(7)
C69 0.0152(8) 0.0188(8) 0.0170(8) 0.0021(7) 0.0011(7) -0.0036(7)
C70 0.0169(9) 0.0231(9) 0.0208(9) 0.0007(7) -0.0001(7) -0.0090(7)
C71 0.0195(9) 0.0282(10) 0.0154(8) -0.0005(7) 0.0008(7) -0.0094(8)
N3 0.0540(14) 0.0295(11) 0.0619(15) -0.0097(10) -0.0186(12) -0.0107(10)
C1 0.066(2) 0.0456(16) 0.0556(18) -0.0137(14) -0.0051(15) -0.0165(14)
C2 0.0465(16) 0.0377(14) 0.075(2) -0.0026(14) -0.0102(15) -0.0159(12)
C3 0.0308(12) 0.0279(12) 0.0765(19) -0.0070(12) -0.0295(13) -0.0024(9)
C4 0.0373(13) 0.0426(14) 0.0461(14) -0.0110(11) -0.0286(12) 0.0078(11)
C5 0.0419(14) 0.0335(12) 0.0557(16) 0.0066(11) -0.0271(12) -0.0041(10)
C6 0.0358(13) 0.0381(13) 0.0582(17) 0.0023(12) -0.0162(12) -0.0081(11)
C7 0.0410(14) 0.0315(12) 0.0680(19) -0.0015(12) -0.0268(13) -0.0058(11)
C8 0.0357(13) 0.0224(11) 0.0764(19) 0.0001(11) -0.0333(13) -0.0043(9)
C9 0.0421(14) 0.0307(12) 0.0667(18) 0.0060(12) -0.0255(13) -0.0095(11)
C10 0.0406(14) 0.0367(13) 0.0578(17) -0.0049(12) -0.0242(13) -0.0017(11)

_geom_special_details            
;
 All esds (except the esd in the dihedral angle between two l.s. planes)
 are estimated using the full covariance matrix.  The cell esds are taken
 into account individually in the estimation of esds in distances, angles
 and torsion angles; correlations between esds in cell parameters are only
 used when they are defined by crystal symmetry.  An approximate (isotropic)
 treatment of cell esds is used for estimating esds involving l.s. planes.
;

loop_
_geom_bond_atom_site_label_1
_geom_bond_atom_site_label_2
_geom_bond_distance
_geom_bond_site_symmetry_2
_geom_bond_publ_flag
Zn1 O1 2.0248(13) . ?
Zn1 N1 2.0277(15) . ?
Zn1 O6 2.0299(13) 1_565 ?
Zn1 O5 2.0480(12) 2_565 ?
Zn1 O2 2.0638(13) 2_575 ?
Zn1 Zn1 2.9712(4) 2_575 ?
O1 C53 1.262(2) . ?
O2 C53 1.246(2) . ?
O2 Zn1 2.0638(13) 2_575 ?
O5 C21 1.260(2) . ?
O5 Zn1 2.0480(12) 2_565 ?
O6 C21 1.259(2) . ?
O6 Zn1 2.0300(13) 1_545 ?
N1 C35 1.340(2) . ?
N1 C40 1.340(2) . ?
C21 C22 1.505(2) . ?
C22 C27 1.389(3) . ?
C22 C23 1.390(2) . ?
C23 C24 1.387(2) . ?
C23 H23 0.9300 . ?
C24 C25 1.396(2) . ?
C24 H24 0.9300 . ?
C25 C26 1.388(3) . ?
C25 C28 1.499(2) . ?
C26 C27 1.392(2) . ?
C26 H26 0.9300 . ?
C27 H27 0.9300 . ?
C28 C29 1.399(2) 2_566 ?
C28 C30 1.405(2) . ?
C29 C30 1.397(2) . ?
C29 C28 1.398(2) 2_566 ?
C29 H29 0.9300 . ?
C30 C51 1.499(2) . ?
C35 C36 1.384(3) . ?
C35 H35 0.9300 . ?
C36 C37 1.395(3) . ?
C36 H36 0.9300 . ?
C37 C39 1.391(3) . ?
C37 C38 1.467(2) . ?
C38 C68 1.335(3) . ?
C38 H38 0.9300 . ?
C39 C40 1.381(2) . ?
C39 H39 0.9300 . ?
C40 H40 0.9300 . ?
C51 C56 1.376(3) . ?
C51 C52 1.382(3) . ?
C52 C57 1.386(3) . ?
C52 H52 0.9300 . ?
C53 C54 1.503(2) . ?
C54 C57 1.378(3) . ?
C54 C55 1.387(3) . ?
C55 C56 1.391(3) . ?
C55 H