
#######################################################################
#
#                 Cambridge Crystallographic Data Centre
#                                CCDC
#
#######################################################################
#
# If this CIF has been generated from an entry in the Cambridge
# Structural Database, then it will include bibliographic, chemical,
# crystal, experimental, refinement or atomic coordinate data resulting
# from the CCDC's data processing and validation procedures.
#
#######################################################################

data_CSD_CIF_JUCRAA
_audit_creation_date 1993-03-04
_audit_creation_method CSD-ConQuest-V1
_database_code_CSD JUCRAA
_database_code_depnum_ccdc_archive 'CCDC 1190055'
_database_code_depnum_ccdc_fiz 'CSD 55596'
_chemical_formula_sum 'C3 H18 Br9 N3 Sb2'
_chemical_formula_moiety
;
(C1 H6 N1 1+)3n,n(Br9 Sb2 3-)
;
_journal_coden_Cambridge 68
_journal_volume 47
_journal_year 1992
_journal_page_first 65
_journal_name_full 'Z.Naturforsch.,A:Phys.Sci. '
loop_
_publ_author_name
"H.Ishihara"
"K.Watanabe"
"A.Iwata"
"K.Yamada"
"Y.Kinoshita"
"T.Okuda"
"V.G.Krishnan"
"Shi-qi Dou"
"A.Weiss"
_chemical_name_systematic
;
catena-(tris(Methylammonium) tri(\m~2~-bromo)-hexabromo-di-antimony)
;
_chemical_name_common
;
Teaching Subset: Fundamental Chemistry
;
_cell_volume    576.374
_exptl_crystal_colour 'bright yellow'
_exptl_crystal_density_diffrn 3.049
_exptl_special_details
;
Isomorphous with bismuth analogue and isostructural with the tricesium 
analogue
;
_diffrn_ambient_temperature ?
_diffrn_special_details
;
The study was carried out at room temperature,in the range 283-303K

;
#These two values have been output from a single CSD field.
_refine_ls_R_factor_gt 0.081
_refine_ls_wR_factor_gt 0.081
_symmetry_cell_setting hexagonal
_symmetry_space_group_name_H-M 'P -3 m 1'
_symmetry_Int_Tables_number 164
loop_
_symmetry_equiv_pos_site_id
_symmetry_equiv_pos_as_xyz
1 x,y,z
2 -y,x-y,z
3 -x+y,-x,z
4 y,x,-z
5 x-y,-y,-z
6 -x,-x+y,-z
7 -x,-y,-z
8 y,-x+y,-z
9 x-y,x,-z
10 -y,-x,z
11 -x+y,y,z
12 x,x-y,z
_cell_length_a 8.188(2)
_cell_length_b 8.188(2)
_cell_length_c 9.927(3)
_cell_angle_alpha 90
_cell_angle_beta 90
_cell_angle_gamma 120
_cell_formula_units_Z 1
loop_
_atom_type_symbol
_atom_type_radius_bond
Br 1.21
Sb 1.46
loop_
_atom_site_label
_atom_site_type_symbol
_atom_site_fract_x
_atom_site_fract_y
_atom_site_fract_z
Sb1 Sb 0.66670 0.33330 -0.1861(3)
Br1 Br 0.50000 0.50000 0.00000
Br2 Br 0.3573(5) 0.1787(2) -0.3319(3)
Br1A Br 0.50000 0.00000 0.00000
Br1B Br 1.00000 0.50000 0.00000
Br2A Br 0.8213(5) 0.1786(2) -0.3319(3)
Br2B Br 0.8214(5) 0.6427(2) -0.3319(3)
Sb1F Sb 0.33330 0.66670 0.1861(3)
Br1A* Br 0.50000 1.00000 0.00000
Br1B* Br 0.00000 0.50000 0.00000
Br2F Br 0.6427(5) 0.8213(2) 0.3319(3)
Br2G Br 0.1787(5) 0.8214(2) 0.3319(3)
Br2H Br 0.1786(5) 0.3573(2) 0.3319(3)
Sb1F* Sb 1.33330 0.66670 0.1861(3)
Sb1* Sb -0.33330 0.33330 -0.1861(3)
#END
