
#######################################################################
#
#                 Cambridge Crystallographic Data Centre
#                                CCDC
#
#######################################################################
#
# If this CIF has been generated from an entry in the Cambridge
# Structural Database, then it will include bibliographic, chemical,
# crystal, experimental, refinement or atomic coordinate data resulting
# from the CCDC's data processing and validation procedures.
#
#######################################################################

data_CSD_CIF_JUFWUC
_audit_creation_date 1993-03-24
_audit_creation_method CSD-ConQuest-V1
_database_code_CSD JUFWUC
_database_code_depnum_ccdc_archive 'CCDC 1190287'
_chemical_formula_sum 'C12 H40 Cs4 N4 Si4'
_chemical_formula_moiety
;
C12 H40 Cs4 N4 Si4
;
_journal_coden_Cambridge 4
_journal_volume 114
_journal_year 1992
_journal_page_first 6590
_journal_name_full 'J.Am.Chem.Soc. '
loop_
_publ_author_name
"K.F.Tesh"
"B.D.Jones"
"T.P.Hanusa"
"J.C.Huffman"
_chemical_name_systematic
;
tetrakis(\m~3~-Trimethylsilylamido)-tetra-cesium cubane
;
_chemical_name_common
;
Teaching Subset: Fundamental Chemistry
;
_cell_volume    778.942
_exptl_crystal_colour 'colorless'
_exptl_crystal_density_diffrn 1.89
_diffrn_ambient_temperature 99.15
#These two values have been output from a single CSD field.
_refine_ls_R_factor_gt 0.032
_refine_ls_wR_factor_gt 0.032
loop_
_citation_database_id_CSD
_citation_special_details
JUFWUC01 "is a reinterpretation of this cif"
_symmetry_cell_setting cubic
_symmetry_space_group_name_H-M 'P 2 3'
_symmetry_Int_Tables_number 195
loop_
_symmetry_equiv_pos_site_id
_symmetry_equiv_pos_as_xyz
1 x,y,z
2 z,x,y
3 y,z,x
4 x,-y,-z
5 z,-x,-y
6 y,-z,-x
7 -x,y,-z
8 -z,x,-y
9 -y,z,-x
10 -x,-y,z
11 -z,-x,y
12 -y,-z,x
_cell_length_a 9.201(1)
_cell_length_b 9.201(1)
_cell_length_c 9.201(1)
_cell_angle_alpha 90
_cell_angle_beta 90
_cell_angle_gamma 90
_cell_formula_units_Z 1
loop_
_atom_type_symbol
_atom_type_radius_bond
C 0.68
H 0.23
Cs 1.85
N 0.68
Si 1.20
loop_
_atom_site_label
_atom_site_type_symbol
_atom_site_fract_x
_atom_site_fract_y
_atom_site_fract_z
Cs1 Cs 0.16269(5) 0.16270 0.16270
N1 N -0.1539(6) 0.15390 0.15390
Si1 Si -0.2535(2) 0.25350 0.25350
C1 C -0.2293(41) 0.2221(42) 0.4400(13)
H1 H -0.31500 0.23600 0.49200
H2 H -0.18500 0.13400 0.45900
H3 H -0.16000 0.30000 0.47800
N1A N 0.1539(6) -0.15390 0.15390
N1B N 0.1539(6) 0.15390 -0.15390
Cs1F Cs -0.16269(5) 0.16270 -0.16270
Cs1I Cs -0.16269(5) -0.16270 0.16270
C1H C -0.2221(41) 0.4400(42) 0.2293(13)
C1J C -0.4400(41) 0.2293(42) 0.2221(13)
Cs1C Cs 0.16269(5) -0.16270 -0.16270
Si1A Si 0.2535(2) -0.25350 0.25350
Si1B Si 0.2535(2) 0.25350 -0.25350
N1C N -0.1539(6) -0.15390 -0.15390
H1H H -0.23600 0.49200 0.31500
H2H H -0.13400 0.45900 0.18500
H3H H -0.30000 0.47800 0.16000
H1J H -0.49200 0.31500 0.23600
H2J H -0.45900 0.18500 0.13400
H3J H -0.47800 0.16000 0.30000
C1A C 0.4400(41) -0.2293(42) 0.2221(13)
C1E C 0.2221(41) -0.4400(42) 0.2293(13)
C1I C 0.2293(41) -0.2221(42) 0.4400(13)
C1B C 0.2221(41) 0.4400(42) -0.2293(13)
C1D C 0.4400(41) 0.2293(42) -0.2221(13)
C1F C 0.2293(41) 0.2221(42) -0.4400(13)
Si1C Si -0.2535(2) -0.25350 -0.25350
H1A H 0.49200 -0.31500 0.23600
H2A H 0.45900 -0.18500 0.13400
H3A H 0.47800 -0.16000 0.30000
H1E H 0.23600 -0.49200 0.31500
H2E H 0.13400 -0.45900 0.18500
H3E H 0.30000 -0.47800 0.16000
H1I H 0.31500 -0.23600 0.49200
H2I H 0.18500 -0.13400 0.45900
H3I H 0.16000 -0.30000 0.47800
H1B H 0.23600 0.49200 -0.31500
H2B H 0.13400 0.45900 -0.18500
H3B H 0.30000 0.47800 -0.16000
H1D H 0.49200 0.31500 -0.23600
H2D H 0.45900 0.18500 -0.13400
H3D H 0.47800 0.16000 -0.30000
H1F H 0.31500 0.23600 -0.49200
H2F H 0.18500 0.13400 -0.45900
H3F H 0.16000 0.30000 -0.47800
C1C C -0.2293(41) -0.2221(42) -0.4400(13)
C1G C -0.4400(41) -0.2293(42) -0.2221(13)
C1K C -0.2221(41) -0.4400(42) -0.2293(13)
H1C H -0.31500 -0.23600 -0.49200
H2C H -0.18500 -0.13400 -0.45900
H3C H -0.16000 -0.30000 -0.47800
H1G H -0.49200 -0.31500 -0.23600
H2G H -0.45900 -0.18500 -0.13400
H3G H -0.47800 -0.16000 -0.30000
H1K H -0.23600 -0.49200 -0.31500
H2K H -0.13400 -0.45900 -0.18500
H3K H -0.30000 -0.47800 -0.16000
#END
