####################################################################### 
# 
# This file contains crystal structure data downloaded from the 
# Cambridge Structural Database (CSD) hosted by the Cambridge 
# Crystallographic Data Centre (CCDC).
# 
# Full information about CCDC data access policies and citation 
# guidelines are available at http://www.ccdc.cam.ac.uk/access/V1 
# 
# Audit and citation data items may have been added by the CCDC. 
# Please retain this information to preserve the provenance of 
# this file and to allow appropriate attribution of the data. 
# 
#######################################################################

data_a
_audit_block_doi                 10.5517/cc13c7mb
_database_code_depnum_ccdc_archive 'CCDC 1023701'
loop_
_citation_id
_citation_doi
_citation_year
1 10.1021/ic502219y 2015
_audit_update_record             
;
2014-12-24 deposited with the CCDC.	2024-07-10 downloaded from the CCDC.
;

_audit_creation_method           SHELXL-97
_chemical_name_systematic        
; 
 ? 
;
_chemical_name_common            ?
_chemical_melting_point          ?
_chemical_formula_moiety         'C57 H53 B Cd2 F2 N10 O10'
_chemical_formula_sum            'C57 H53 B Cd2 F2 N10 O10'
_chemical_formula_weight         1311.70

loop_
_atom_type_symbol
_atom_type_description
_atom_type_scat_dispersion_real
_atom_type_scat_dispersion_imag
_atom_type_scat_source
C C 0.0033 0.0016 'International Tables Vol C Tables 4.2.6.8 and 6.1.1.4'
H H 0.0000 0.0000 'International Tables Vol C Tables 4.2.6.8 and 6.1.1.4'
B B 0.0013 0.0007 'International Tables Vol C Tables 4.2.6.8 and 6.1.1.4'
Cd Cd -0.8075 1.2024 'International Tables Vol C Tables 4.2.6.8 and 6.1.1.4'
F F 0.0171 0.0103 'International Tables Vol C Tables 4.2.6.8 and 6.1.1.4'
N N 0.0061 0.0033 'International Tables Vol C Tables 4.2.6.8 and 6.1.1.4'
O O 0.0106 0.0060 'International Tables Vol C Tables 4.2.6.8 and 6.1.1.4'

_symmetry_cell_setting           Triclinic
_symmetry_space_group_name_H-M   P-1
_symmetry_space_group_name_hall  '-P 1'
loop_
_symmetry_equiv_pos_as_xyz
'x, y, z'
'-x, -y, -z'

_cell_length_a                   13.984(3)
_cell_length_b                   15.990(3)
_cell_length_c                   19.551(4)
_cell_angle_alpha                81.83(3)
_cell_angle_beta                 75.48(3)
_cell_angle_gamma                70.58(3)
_cell_volume                     3983.0(14)
_cell_formula_units_Z            2
_cell_measurement_temperature    293(2)
_cell_measurement_reflns_used    ?
_cell_measurement_theta_min      ?
_cell_measurement_theta_max      ?

_exptl_crystal_description       lamellar
_exptl_crystal_colour            orange-red
_exptl_crystal_size_max          0.34
_exptl_crystal_size_mid          0.24
_exptl_crystal_size_min          0.22
_exptl_crystal_density_meas      ?
_exptl_crystal_density_diffrn    1.094
_exptl_crystal_density_method    'not measured'
_exptl_crystal_F_000             1328
_exptl_absorpt_coefficient_mu    0.586
_exptl_absorpt_correction_type   multi-scan
_exptl_absorpt_correction_T_min  0.8255
_exptl_absorpt_correction_T_max  0.8818
_exptl_absorpt_process_details   ?

_exptl_special_details           
; 
 ? 
;

_diffrn_ambient_temperature      293(2)
_diffrn_radiation_wavelength     0.71073
_diffrn_radiation_type           MoK\a
_diffrn_radiation_source         'fine-focus sealed tube'
_diffrn_radiation_monochromator  graphite
_diffrn_measurement_device_type  ?
_diffrn_measurement_method       ?
_diffrn_detector_area_resol_mean ?
_diffrn_standards_number         ?
_diffrn_standards_interval_count ?
_diffrn_standards_interval_time  ?
_diffrn_standards_decay_%        ?
_diffrn_reflns_number            41657
_diffrn_reflns_av_R_equivalents  0.0789
_diffrn_reflns_av_sigmaI/netI    0.1077
_diffrn_reflns_limit_h_min       -16
_diffrn_reflns_limit_h_max       16
_diffrn_reflns_limit_k_min       -19
_diffrn_reflns_limit_k_max       19
_diffrn_reflns_limit_l_min       -23
_diffrn_reflns_limit_l_max       22
_diffrn_reflns_theta_min         1.08
_diffrn_reflns_theta_max         25.50
_reflns_number_total             14783
_reflns_number_gt                8611
_reflns_threshold_expression     >2sigma(I)

_computing_data_collection       ?
_computing_cell_refinement       ?
_computing_data_reduction        ?
_computing_structure_solution    'SHELXS-97 (Sheldrick, 1990)'
_computing_structure_refinement  'SHELXL-97 (Sheldrick, 1997)'
_computing_molecular_graphics    ?
_computing_publication_material  ?

_refine_special_details          
; 
 Refinement of F^2^ against ALL reflections.  The weighted R-factor wR and 
 goodness of fit S are based on F^2^, conventional R-factors R are based 
 on F, with F set to zero for negative F^2^. The threshold expression of 
 F^2^ > 2sigma(F^2^) is used only for calculating R-factors(gt) etc. and is 
 not relevant to the choice of reflections for refinement.  R-factors based 
 on F^2^ are statistically about twice as large as those based on F, and R- 
 factors based on ALL data will be even larger. 
;

_refine_ls_structure_factor_coef Fsqd
_refine_ls_matrix_type           full
_refine_ls_weighting_scheme      calc
_refine_ls_weighting_details     
'calc w=1/[\s^2^(Fo^2^)+(0.1255P)^2^+0.0000P] where P=(Fo^2^+2Fc^2^)/3'
_atom_sites_solution_primary     direct
_atom_sites_solution_secondary   difmap
_atom_sites_solution_hydrogens   geom
_refine_ls_hydrogen_treatment    mixed
_refine_ls_extinction_method     none
_refine_ls_extinction_coef       ?
_refine_ls_number_reflns         14783
_refine_ls_number_parameters     743
_refine_ls_number_restraints     276
_refine_ls_R_factor_all          0.1271
_refine_ls_R_factor_gt           0.0823
_refine_ls_wR_factor_ref         0.2500
_refine_ls_wR_factor_gt          0.2233
_refine_ls_goodness_of_fit_ref   1.001
_refine_ls_restrained_S_all      1.019
_refine_ls_shift/su_max          0.004
_refine_ls_shift/su_mean         0.000
# SQUEEZE RESULTS (APPEND TO CIF)
loop_
_platon_squeeze_void_nr
_platon_squeeze_void_average_x
_platon_squeeze_void_average_y
_platon_squeeze_void_average_z
_platon_squeeze_void_volume
_platon_squeeze_void_count_electrons
1 0.102 0.071 0.326 1564.3 485.0
2 0.345 0.478 0.477 9.6 0.5
3 0.655 0.522 0.523 10.5 0.3
_platon_squeeze_details          
; ?
;

loop_
_atom_site_label
_atom_site_type_symbol
_atom_site_fract_x
_atom_site_fract_y
_atom_site_fract_z
_atom_site_U_iso_or_equiv
_atom_site_adp_type
_atom_site_occupancy
_atom_site_symmetry_multiplicity
_atom_site_calc_flag
_atom_site_refinement_flags
_atom_site_disorder_assembly
_atom_site_disorder_group
Cd1 Cd 0.48449(4) 0.65886(4) 0.14597(3) 0.0472(2) Uani 1 1 d . . .
Cd2 Cd 0.86086(4) -0.31207(4) 0.40959(3) 0.04379(19) Uani 1 1 d . . .
F1 F 0.6663(5) 0.2190(4) 0.4044(3) 0.0966(19) Uani 1 1 d . . .
F2 F 0.5191(5) 0.1974(4) 0.3897(3) 0.0929(18) Uani 1 1 d . . .
O1 O 0.5713(6) 0.5096(4) 0.1343(3) 0.088(2) Uani 1 1 d . . .
O2 O 0.4964(5) 0.5396(4) 0.2435(3) 0.0709(17) Uani 1 1 d . . .
O3 O 0.3955(7) 0.8225(5) 0.1293(5) 0.110(3) Uani 1 1 d . . .
O4 O 0.3950(6) 0.7615(6) 0.2362(4) 0.096(2) Uani 1 1 d . . .
O5 O 0.3009(10) 0.8987(9) 0.2241(8) 0.226(7) Uani 1 1 d . . .
O6 O 0.8508(4) -0.1998(4) 0.3138(3) 0.0649(15) Uani 1 1 d . . .
O7 O 0.7824(5) -0.1564(4) 0.4221(3) 0.0732(17) Uani 1 1 d . . .
O8 O 0.9421(5) -0.4151(5) 0.3180(3) 0.0740(17) Uani 1 1 d . . .
O9 O 0.9299(6) -0.4817(5) 0.4215(4) 0.091(2) Uani 1 1 d . . .
O10 O 0.9941(7) -0.5598(6) 0.3293(6) 0.143(4) Uani 1 1 d . . .
N1 N 0.5293(5) 0.6676(5) 0.0199(3) 0.0556(17) Uani 1 1 d . . .
N2 N 0.8143(5) 0.6736(5) -0.4662(4) 0.0591(17) Uani 1 1 d . . .
N3 N 0.3185(4) 0.6483(4) 0.1457(4) 0.0557(17) Uani 1 1 d . . .
N4 N -0.3583(7) 0.6808(7) 0.1455(5) 0.089(2) Uani 1 1 d U . .
N5 N 1.0243(5) -0.3091(5) 0.4144(4) 0.0584(18) Uani 1 1 d . . .
N6 N 1.7046(5) -0.3317(4) 0.4087(4) 0.0531(16) Uani 1 1 d . . .
N7 N 0.9588(6) -0.4872(6) 0.3553(5) 0.079(2) Uani 1 1 d . . .
N8 N 0.3622(8) 0.8276(7) 0.1947(8) 0.112(4) Uani 1 1 d . . .
N9 N 0.6846(6) 0.1047(4) 0.3315(3) 0.073(2) Uani 1 1 d . . .
N10 N 0.6226(6) 0.2626(4) 0.2912(3) 0.0608(18) Uani 1 1 d . . .
C1 C 0.2786(8) 0.6693(8) 0.0883(5) 0.094(4) Uani 1 1 d . . .
H1 H 0.3159 0.6913 0.0476 0.112 Uiso 1 1 calc R . .
C2 C 0.2613(6) 0.6188(6) 0.2032(4) 0.064(2) Uani 1 1 d . . .
H2 H 0.2856 0.6060 0.2449 0.076 Uiso 1 1 calc R . .
C3 C 0.1676(6) 0.6064(7) 0.2044(5) 0.073(3) Uani 1 1 d . . .
H3 H 0.1299 0.5859 0.2458 0.088 Uiso 1 1 calc R . .
C4 C 0.1309(6) 0.6251(6) 0.1420(5) 0.057(2) Uani 1 1 d . . .
C5 C 0.1873(8) 0.6604(10) 0.0860(5) 0.115(5) Uani 1 1 d . . .
H5 H 0.1622 0.6790 0.0448 0.138 Uiso 1 1 calc R . .
C6 C 0.0293(6) 0.6124(6) 0.1399(5) 0.071(3) Uani 1 1 d . . .
H6A H 0.0360 0.5882 0.0956 0.085 Uiso 1 1 calc R . .
H6B H 0.0123 0.5705 0.1783 0.085 Uiso 1 1 calc R . .
C7 C -0.0551(7) 0.6986(7) 0.1468(6) 0.081(3) Uani 1 1 d . . .
H7A H -0.0366 0.7395 0.1081 0.097 Uiso 1 1 calc R . .
H7B H -0.0588 0.7227 0.1905 0.097 Uiso 1 1 calc R . .
C8 C -0.1606(9) 0.6953(9) 0.1468(7) 0.105(3) Uani 1 1 d U . .
C9 C -0.1748(11) 0.6574(11) 0.0939(8) 0.140(3) Uani 1 1 d U . .
H9 H -0.1186 0.6308 0.0586 0.168 Uiso 1 1 calc R . .
C10 C -0.2829(11) 0.6588(11) 0.0929(8) 0.133(3) Uani 1 1 d U . .
H10 H -0.2945 0.6431 0.0524 0.160 Uiso 1 1 calc R . .
C11 C -0.3296(10) 0.7042(10) 0.1889(7) 0.123(3) Uani 1 1 d U . .
H11 H -0.3817 0.7202 0.2293 0.148 Uiso 1 1 calc R . .
C12 C -0.2389(10) 0.7132(10) 0.1943(7) 0.120(3) Uani 1 1 d U . .
H12 H -0.2360 0.7339 0.2356 0.144 Uiso 1 1 calc R . .
C13 C 0.5203(8) 0.7456(7) -0.0193(5) 0.077(3) Uani 1 1 d . . .
H13 H 0.4917 0.7976 0.0045 0.092 Uiso 1 1 calc R . .
C14 C 0.5501(9) 0.7534(8) -0.0913(5) 0.104(4) Uani 1 1 d . . .
H14 H 0.5433 0.8086 -0.1158 0.125 Uiso 1 1 calc R . .
C15 C 0.5939(10) 0.6701(9) -0.1290(6) 0.098(3) Uani 1 1 d U . .
C16 C 0.6009(11) 0.5969(9) -0.0884(5) 0.118(5) Uani 1 1 d . . .
H16 H 0.6273 0.5431 -0.1097 0.142 Uiso 1 1 calc R . .
C17 C 0.5721(8) 0.5953(6) -0.0172(5) 0.076(3) Uani 1 1 d . . .
H17 H 0.5827 0.5402 0.0078 0.091 Uiso 1 1 calc R . .
C18 C 0.6280(9) 0.6774(9) -0.2155(6) 0.109(3) Uani 1 1 d U . .
H18A H 0.6079 0.6352 -0.2353 0.131 Uiso 1 1 calc R . .
H18B H 0.5948 0.7367 -0.2340 0.131 Uiso 1 1 calc R . .
C19 C 0.7330(9) 0.6588(9) -0.2322(6) 0.112(3) Uani 1 1 d U . .
H19A H 0.7676 0.5998 -0.2137 0.134 Uiso 1 1 calc R . .
H19B H 0.7544 0.7021 -0.2148 0.134 Uiso 1 1 calc R . .
C20 C 0.7555(9) 0.6655(9) -0.3182(6) 0.093(3) Uani 1 1 d U . .
C21 C 0.7676(11) 0.7407(9) -0.3565(6) 0.118(5) Uani 1 1 d . . .
H21 H 0.7567 0.7913 -0.3335 0.141 Uiso 1 1 calc R . .
C22 C 0.7960(8) 0.7420(8) -0.4290(5) 0.083(3) Uani 1 1 d . . .
H22 H 0.8028 0.7947 -0.4535 0.100 Uiso 1 1 calc R . .
C23 C 0.8009(7) 0.5996(6) -0.4305(4) 0.070(3) Uani 1 1 d . . .
H23 H 0.8136 0.5497 -0.4547 0.084 Uiso 1 1 calc R . .
C24 C 0.7686(8) 0.5963(8) -0.3581(5) 0.093(3) Uani 1 1 d . . .
H24 H 0.7550 0.5452 -0.3349 0.111 Uiso 1 1 calc R . .
C25 C 0.5524(6) 0.4852(5) 0.1992(4) 0.0525(19) Uani 1 1 d . . .
C26 C 0.5933(6) 0.3878(5) 0.2212(4) 0.053(2) Uani 1 1 d . . .
C27 C 0.6534(7) 0.3211(6) 0.1779(4) 0.060(2) Uani 1 1 d . . .
C28 C 0.6874(8) 0.3293(6) 0.0970(5) 0.091(3) Uani 1 1 d . . .
H28A H 0.6413 0.3820 0.0787 0.137 Uiso 1 1 calc R . .
H28B H 0.6852 0.2782 0.0776 0.137 Uiso 1 1 calc R . .
H28C H 0.7569 0.3329 0.0839 0.137 Uiso 1 1 calc R . .
C29 C 0.5726(6) 0.3506(5) 0.2915(4) 0.055(2) Uani 1 1 d . . .
C30 C 0.5151(8) 0.3947(6) 0.3559(5) 0.079(3) Uani 1 1 d . . .
H30A H 0.4528 0.3784 0.3737 0.118 Uiso 1 1 calc R . .
H30B H 0.4973 0.4579 0.3460 0.118 Uiso 1 1 calc R . .
H30C H 0.5571 0.3770 0.3906 0.118 Uiso 1 1 calc R . .
C31 C 0.6742(6) 0.2403(5) 0.2202(4) 0.056(2) Uani 1 1 d . . .
C32 C 0.7318(6) 0.1509(5) 0.2073(4) 0.0522(19) Uani 1 1 d . . .
C33 C 0.7831(9) 0.1313(7) 0.1319(5) 0.088(2) Uani 1 1 d U . .
C34 C 0.7348(10) 0.1070(8) 0.0880(6) 0.102(3) Uani 1 1 d U . .
H34 H 0.6694 0.0999 0.1048 0.123 Uiso 1 1 calc R . .
C35 C 0.7888(11) 0.0928(8) 0.0150(6) 0.115(3) Uani 1 1 d U . .
H35 H 0.7578 0.0805 -0.0176 0.138 Uiso 1 1 calc R . .
C36 C 0.8864(12) 0.0983(9) -0.0034(7) 0.121(3) Uani 1 1 d U . .
H36 H 0.9226 0.0847 -0.0494 0.146 Uiso 1 1 calc R . .
C37 C 0.9389(11) 0.1220(8) 0.0384(7) 0.119(3) Uani 1 1 d U . .
H37 H 1.0054 0.1266 0.0210 0.142 Uiso 1 1 calc R . .
C38 C 0.8848(9) 0.1389(7) 0.1092(6) 0.102(3) Uani 1 1 d U . .
H38 H 0.9154 0.1547 0.1404 0.123 Uiso 1 1 calc R . .
C39 C 0.7400(7) 0.0848(6) 0.2606(4) 0.066(2) Uani 1 1 d . . .
C40 C 0.7899(6) -0.0107(6) 0.2597(4) 0.056(2) Uani 1 1 d . . .
C41 C 0.8567(9) -0.0614(6) 0.1969(5) 0.090(3) Uani 1 1 d . . .
H41A H 0.8565 -0.1220 0.2050 0.135 Uiso 1 1 calc R . .
H41B H 0.9264 -0.0597 0.1900 0.135 Uiso 1 1 calc R . .
H41C H 0.8299 -0.0352 0.1555 0.135 Uiso 1 1 calc R . .
C42 C 0.7696(7) -0.0455(5) 0.3289(4) 0.061(2) Uani 1 1 d . . .
C43 C 0.7032(7) 0.0260(5) 0.3725(5) 0.067(2) Uani 1 1 d . . .
C44 C 0.6599(10) 0.0255(7) 0.4513(4) 0.113(5) Uani 1 1 d . . .
H44A H 0.6784 0.0681 0.4709 0.169 Uiso 1 1 calc R . .
H44B H 0.6881 -0.0327 0.4726 0.169 Uiso 1 1 calc R . .
H44C H 0.5856 0.0406 0.4604 0.169 Uiso 1 1 calc R . .
C45 C 0.8033(7) -0.1410(5) 0.3568(5) 0.059(2) Uani 1 1 d . . .
C46 C 1.0758(7) -0.2679(8) 0.3639(6) 0.097(4) Uani 1 1 d . . .
H46 H 1.0477 -0.2445 0.3243 0.116 Uiso 1 1 calc R . .
C47 C 1.1673(9) -0.2568(10) 0.3651(6) 0.119(5) Uani 1 1 d . . .
H47 H 1.1999 -0.2256 0.3280 0.142 Uiso 1 1 calc R . .
C48 C 1.2111(8) -0.2935(8) 0.4234(7) 0.092(3) Uani 1 1 d . . .
C49 C 1.1613(7) -0.3417(8) 0.4739(6) 0.093(3) Uani 1 1 d . . .
H49 H 1.1908 -0.3717 0.5116 0.112 Uiso 1 1 calc R . .
C50 C 1.0668(7) -0.3455(6) 0.4683(5) 0.072(3) Uani 1 1 d . . .
H50 H 1.0313 -0.3755 0.5046 0.087 Uiso 1 1 calc R . .
C51 C 1.3139(8) -0.2782(9) 0.4289(7) 0.105(3) Uani 1 1 d U . .
H51A H 1.3219 -0.2258 0.3995 0.126 Uiso 1 1 calc R . .
H51B H 1.3093 -0.2678 0.4775 0.126 Uiso 1 1 calc R . .
C52 C 1.4008(8) -0.3514(8) 0.4075(7) 0.097(3) Uani 1 1 d U . .
H52A H 1.4028 -0.3622 0.3595 0.116 Uiso 1 1 calc R . .
H52B H 1.3917 -0.4032 0.4375 0.116 Uiso 1 1 calc R . .
C53 C 1.5071(7) -0.3424(7) 0.4095(6) 0.082(2) Uani 1 1 d U . .
C54 C 1.5957(8) -0.3934(8) 0.3663(6) 0.094(3) Uani 1 1 d U . .
H54 H 1.5929 -0.4307 0.3349 0.113 Uiso 1 1 calc R . .
C55 C 1.6871(8) -0.3858(7) 0.3724(6) 0.091(3) Uani 1 1 d U . .
H55 H 1.7463 -0.4251 0.3469 0.110 Uiso 1 1 calc R . .
C56 C 1.6169(5) -0.2845(6) 0.4494(4) 0.056(2) Uani 1 1 d U . .
H56 H 1.6227 -0.2468 0.4791 0.068 Uiso 1 1 calc R . .
C57 C 1.5174(6) -0.2862(6) 0.4518(5) 0.067(2) Uani 1 1 d . . .
H57 H 1.4596 -0.2503 0.4811 0.081 Uiso 1 1 calc R . .
B1 B 0.6180(10) 0.1940(7) 0.3586(6) 0.076(3) Uani 1 1 d . . .

loop_
_atom_site_aniso_label
_atom_site_aniso_U_11
_atom_site_aniso_U_22
_atom_site_aniso_U_33
_atom_site_aniso_U_23
_atom_site_aniso_U_13
_atom_site_aniso_U_12
Cd1 0.0354(3) 0.0575(4) 0.0472(4) -0.0017(3) -0.0068(2) -0.0147(3)
Cd2 0.0351(3) 0.0498(4) 0.0454(3) 0.0047(2) -0.0104(2) -0.0138(2)
F1 0.145(5) 0.076(4) 0.056(3) -0.012(3) -0.045(3) 0.003(4)
F2 0.087(4) 0.064(3) 0.088(4) 0.003(3) 0.016(3) -0.002(3)
O1 0.114(6) 0.065(4) 0.060(4) 0.011(3) -0.005(4) -0.014(4)
O2 0.087(4) 0.047(3) 0.060(4) 0.000(3) -0.015(3) 0.000(3)
O3 0.114(7) 0.082(6) 0.108(6) -0.021(5) -0.001(5) -0.007(5)
O4 0.084(5) 0.123(7) 0.076(5) -0.035(5) 0.004(4) -0.028(5)
O5 0.164(11) 0.180(12) 0.274(16) -0.130(12) 0.044(10) 0.004(9)
O6 0.068(4) 0.051(4) 0.065(4) 0.004(3) -0.016(3) -0.007(3)
O7 0.096(5) 0.060(4) 0.051(4) 0.011(3) -0.009(3) -0.019(3)
O8 0.056(4) 0.095(5) 0.061(4) -0.004(4) -0.008(3) -0.015(4)
O9 0.095(5) 0.076(5) 0.073(5) 0.024(4) 0.006(4) -0.018(4)
O10 0.122(7) 0.083(6) 0.220(11) -0.084(7) -0.061(7) 0.021(5)
N1 0.038(3) 0.073(5) 0.048(4) 0.003(3) -0.002(3) -0.015(3)
N2 0.041(4) 0.067(5) 0.068(5) 0.008(4) -0.010(3) -0.021(3)
N3 0.032(3) 0.064(4) 0.063(4) 0.000(3) 0.007(3) -0.019(3)
N4 0.073(4) 0.130(6) 0.085(5) -0.015(5) -0.016(4) -0.059(4)
N5 0.050(4) 0.066(5) 0.065(5) -0.001(4) -0.024(3) -0.018(3)
N6 0.039(3) 0.053(4) 0.074(5) -0.012(3) -0.021(3) -0.014(3)
N7 0.047(4) 0.088(7) 0.094(7) -0.013(6) -0.021(4) -0.005(4)
N8 0.070(6) 0.076(7) 0.169(12) -0.047(8) 0.006(7) -0.003(5)
N9 0.105(6) 0.043(4) 0.042(4) -0.004(3) -0.009(4) 0.011(4)
N10 0.079(5) 0.039(4) 0.052(4) 0.001(3) -0.009(4) -0.007(3)
C1 0.076(7) 0.165(12) 0.058(6) 0.029(6) -0.038(5) -0.059(7)
C2 0.048(5) 0.110(8) 0.034(4) -0.001(4) -0.006(3) -0.030(5)
C3 0.048(5) 0.107(8) 0.057(6) 0.007(5) -0.006(4) -0.022(5)
C4 0.050(5) 0.063(5) 0.060(5) -0.002(4) -0.014(4) -0.020(4)
C5 0.064(6) 0.243(16) 0.043(6) 0.013(7) -0.026(5) -0.051(9)
C6 0.040(5) 0.071(6) 0.092(7) 0.002(5) -0.001(4) -0.020(4)
C7 0.066(6) 0.082(7) 0.110(8) -0.001(6) -0.036(6) -0.032(6)
C8 0.079(5) 0.135(6) 0.113(6) -0.020(5) -0.008(4) -0.056(5)
C9 0.098(5) 0.186(7) 0.137(6) -0.026(5) -0.011(5) -0.050(5)
C10 0.099(5) 0.185(6) 0.123(6) -0.022(5) -0.025(5) -0.048(5)
C11 0.090(5) 0.169(6) 0.127(6) -0.033(5) -0.021(5) -0.054(5)
C12 0.095(5) 0.164(6) 0.127(6) -0.044(5) -0.034(4) -0.053(5)
C13 0.096(7) 0.079(7) 0.052(6) -0.002(5) -0.004(5) -0.030(6)
C14 0.131(10) 0.095(9) 0.060(7) 0.026(6) -0.010(6) -0.021(8)
C15 0.104(6) 0.106(6) 0.078(5) -0.003(5) -0.007(5) -0.037(5)
C16 0.186(14) 0.104(10) 0.047(6) -0.019(6) 0.017(7) -0.048(9)
C17 0.099(7) 0.053(5) 0.054(5) -0.006(4) 0.001(5) -0.009(5)
C18 0.101(5) 0.124(6) 0.094(5) 0.008(5) -0.016(4) -0.033(5)
C19 0.103(5) 0.121(6) 0.093(5) 0.005(5) -0.011(5) -0.023(5)
C20 0.103(6) 0.096(6) 0.069(5) -0.004(5) -0.007(4) -0.025(5)
C21 0.171(13) 0.088(9) 0.0