####################################################################### 
# 
# This file contains crystal structure data downloaded from the 
# Cambridge Structural Database (CSD) hosted by the Cambridge 
# Crystallographic Data Centre (CCDC).
# 
# Full information about CCDC data access policies and citation 
# guidelines are available at http://www.ccdc.cam.ac.uk/access/V1 
# 
# Audit and citation data items may have been added by the CCDC. 
# Please retain this information to preserve the provenance of 
# this file and to allow appropriate attribution of the data. 
# 
#######################################################################

data_hqhao3
_audit_block_doi                 10.5517/cc113s75
_database_code_depnum_ccdc_archive 'CCDC 956946'
loop_
_citation_id
_citation_doi
_citation_year
1 10.1080/00958972.2015.1058484 2015
_audit_update_record             
;
2013-08-21 deposited with the CCDC.	2024-07-10 downloaded from the CCDC.
;

_audit_creation_method           SHELXL-97
_chemical_name_systematic        
; 
 ? 
;
_chemical_name_common            ?
_chemical_melting_point          ?
_chemical_formula_moiety         ?
_chemical_formula_sum            'C36 H42 Ag2 N4 O13'
_chemical_formula_weight         954.48

loop_
_atom_type_symbol
_atom_type_description
_atom_type_scat_dispersion_real
_atom_type_scat_dispersion_imag
_atom_type_scat_source
C C 0.0033 0.0016 'International Tables Vol C Tables 4.2.6.8 and 6.1.1.4'
H H 0.0000 0.0000 'International Tables Vol C Tables 4.2.6.8 and 6.1.1.4'
Ag Ag -0.8971 1.1015 'International Tables Vol C Tables 4.2.6.8 and 6.1.1.4'
N N 0.0061 0.0033 'International Tables Vol C Tables 4.2.6.8 and 6.1.1.4'
O O 0.0106 0.0060 'International Tables Vol C Tables 4.2.6.8 and 6.1.1.4'

_symmetry_cell_setting           monoclinic
_symmetry_space_group_name_H-M   P2(1)

loop_
_symmetry_equiv_pos_as_xyz
'x, y, z'
'-x, y+1/2, -z'

_cell_length_a                   11.9429(2)
_cell_length_b                   8.6874(2)
_cell_length_c                   24.1577(5)
_cell_angle_alpha                90.00
_cell_angle_beta                 100.984(2)
_cell_angle_gamma                90.00
_cell_volume                     2460.51(9)
_cell_formula_units_Z            2
_cell_measurement_temperature    173(2)
_cell_measurement_reflns_used    20238
_cell_measurement_theta_min      2.50
_cell_measurement_theta_max      26.00

_exptl_crystal_description       Block
_exptl_crystal_colour            colorless
_exptl_crystal_size_max          0.18
_exptl_crystal_size_mid          0.15
_exptl_crystal_size_min          0.14
_exptl_crystal_density_meas      'not measured'
_exptl_crystal_density_diffrn    1.288
_exptl_crystal_density_method    'not measured'
_exptl_crystal_F_000             968
_exptl_absorpt_coefficient_mu    0.850
_exptl_absorpt_correction_type   empirical
_exptl_absorpt_correction_T_min  0.8620
_exptl_absorpt_correction_T_max  0.8902
_exptl_absorpt_process_details   'SADABS (Sheldrick, 1996)'

_exptl_special_details           
; 
 ? 
;

_diffrn_ambient_temperature      173(2)
_diffrn_radiation_wavelength     0.71073
_diffrn_radiation_type           MoK\a
_diffrn_radiation_source         'fine-focus sealed tube'
_diffrn_radiation_monochromator  graphite
_diffrn_measurement_device_type  'Smart Apex'
_diffrn_measurement_method       'phi and omega scan'
_diffrn_detector_area_resol_mean ?
_diffrn_standards_number         0
_diffrn_standards_interval_count ?
_diffrn_standards_interval_time  ?
_diffrn_standards_decay_%        0
_diffrn_reflns_number            20238
_diffrn_reflns_av_R_equivalents  0.0294
_diffrn_reflns_av_sigmaI/netI    0.0467
_diffrn_reflns_limit_h_min       -14
_diffrn_reflns_limit_h_max       14
_diffrn_reflns_limit_k_min       -10
_diffrn_reflns_limit_k_max       10
_diffrn_reflns_limit_l_min       -29
_diffrn_reflns_limit_l_max       28
_diffrn_reflns_theta_min         2.50
_diffrn_reflns_theta_max         26.00
_reflns_number_total             9568
_reflns_number_gt                8583
_reflns_threshold_expression     >2sigma(I)

_computing_data_collection       'SMART (Bruker,2001)'
_computing_cell_refinement       'SMART (Bruker,2001)'
_computing_data_reduction        'SMART (Bruker,2001)'
_computing_structure_solution    'SHELXS-97 (Sheldrick, 1990)'
_computing_structure_refinement  'SHELXL-97 (Sheldrick, 1997)'
_computing_molecular_graphics    'ORTEPII (Johnson, 1976)'
_computing_publication_material  'SHELXL97 (Sheldrick, 1997)'

_refine_special_details          
; 
 Refinement of F^2^ against ALL reflections.  The weighted R-factor wR and 
 goodness of fit S are based on F^2^, conventional R-factors R are based 
 on F, with F set to zero for negative F^2^. The threshold expression of 
 F^2^ > 2sigma(F^2^) is used only for calculating R-factors(gt) etc. and is 
 not relevant to the choice of reflections for refinement.  R-factors based 
 on F^2^ are statistically about twice as large as those based on F, and R- 
 factors based on ALL data will be even larger. 
;

_refine_ls_structure_factor_coef Fsqd
_refine_ls_matrix_type           full
_refine_ls_weighting_scheme      calc
_refine_ls_weighting_details     
'calc w=1/[\s^2^(Fo^2^)+(0.1070P)^2^+7.2529P] where P=(Fo^2^+2Fc^2^)/3'
_atom_sites_solution_primary     direct
_atom_sites_solution_secondary   difmap
_atom_sites_solution_hydrogens   geom
_refine_ls_hydrogen_treatment    mixed
_refine_ls_extinction_method     none
_refine_ls_extinction_coef       ?
_refine_ls_abs_structure_details 'Flack H D (1983), Acta Cryst. A39, 876-881'
_refine_ls_abs_structure_Flack   -0.04(4)
_refine_ls_number_reflns         9568
_refine_ls_number_parameters     522
_refine_ls_number_restraints     1
_refine_ls_R_factor_all          0.0687
_refine_ls_R_factor_gt           0.0597
_refine_ls_wR_factor_ref         0.1788
_refine_ls_wR_factor_gt          0.1682
_refine_ls_goodness_of_fit_ref   1.089
_refine_ls_restrained_S_all      1.089
_refine_ls_shift/su_max          0.000
_refine_ls_shift/su_mean         0.000

loop_
_atom_site_label
_atom_site_type_symbol
_atom_site_fract_x
_atom_site_fract_y
_atom_site_fract_z
_atom_site_U_iso_or_equiv
_atom_site_adp_type
_atom_site_occupancy
_atom_site_symmetry_multiplicity
_atom_site_calc_flag
_atom_site_refinement_flags
_atom_site_disorder_assembly
_atom_site_disorder_group
Ag1 Ag 0.22688(4) 0.78361(6) -0.18452(2) 0.02548(15) Uani 1 1 d . . .
Ag2 Ag 0.17799(5) 1.02437(7) -0.27773(2) 0.03372(17) Uani 1 1 d . . .
O1 O 0.0437(5) 0.7242(7) -0.1511(3) 0.0397(15) Uani 1 1 d . . .
O2 O 0.0273(5) 0.9292(7) -0.2067(3) 0.0341(13) Uani 1 1 d . . .
O3 O -0.4061(6) 0.9276(7) -0.2243(3) 0.0399(15) Uani 1 1 d . . .
O4 O -0.3608(5) 1.1512(7) -0.1815(3) 0.0416(15) Uani 1 1 d . . .
N1 N -0.1045(6) 0.3983(8) -0.6485(3) 0.0326(15) Uani 1 1 d . . .
N2 N 0.2100(6) 0.6347(8) -0.2565(3) 0.0306(14) Uani 1 1 d . . .
N3 N 0.7571(6) 0.6890(8) 0.2136(3) 0.0294(14) Uani 1 1 d . . .
N4 N 0.3099(5) 0.9152(7) -0.1108(2) 0.0197(12) Uani 1 1 d . . .
C3 C 0.2629(6) 0.9210(8) -0.0642(3) 0.0250(15) Uani 1 1 d . . .
H3A H 0.1962 0.8661 -0.0638 0.030 Uiso 1 1 calc R . .
C6 C 0.8174(7) 0.7309(9) 0.1746(4) 0.0299(17) Uani 1 1 d . . .
H6A H 0.8892 0.6876 0.1761 0.036 Uiso 1 1 calc R . .
C7 C -0.1601(7) 0.3668(11) -0.6083(4) 0.037(2) Uani 1 1 d . . .
H7A H -0.2379 0.3875 -0.6143 0.044 Uiso 1 1 calc R . .
C8 C 0.0920(9) 0.4507(13) -0.3158(5) 0.054(3) Uani 1 1 d . . .
H8A H 0.0211 0.4042 -0.3266 0.065 Uiso 1 1 calc R . .
C9 C 0.1099(8) 0.5521(13) -0.2710(4) 0.044(2) Uani 1 1 d . . .
H9A H 0.0529 0.5651 -0.2500 0.053 Uiso 1 1 calc R . .
C12 C 0.7778(6) 0.8359(9) 0.1321(3) 0.0282(16) Uani 1 1 d . . .
H12A H 0.8225 0.8616 0.1059 0.034 Uiso 1 1 calc R . .
C13 C 0.3105(6) 1.0057(9) -0.0169(3) 0.0251(15) Uani 1 1 d . . .
H13A H 0.2765 1.0073 0.0147 0.030 Uiso 1 1 calc R . .
C14 C 0.4057(6) 0.9934(8) -0.1109(3) 0.0214(14) Uani 1 1 d . . .
H14A H 0.4390 0.9889 -0.1427 0.026 Uiso 1 1 calc R . .
C15 C -0.3032(6) 0.9217(9) -0.1300(3) 0.0240(15) Uani 1 1 d . . .
H15A H -0.3337 0.8180 -0.1314 0.029 Uiso 1 1 calc R . .
H15B H -0.3232 0.9721 -0.0974 0.029 Uiso 1 1 calc R . .
C16 C -0.1412(6) 0.8427(8) -0.1750(3) 0.0239(15) Uani 1 1 d . . .
H16A H -0.1750 0.7410 -0.1803 0.029 Uiso 1 1 calc R . .
H16B H -0.1772 0.9059 -0.2065 0.029 Uiso 1 1 calc R . .
C18 C 0.6117(6) 0.8628(9) 0.1713(3) 0.0270(16) Uani 1 1 d . . .
H18A H 0.5416 0.9083 0.1722 0.032 Uiso 1 1 calc R . .
C21 C 0.6225(6) 1.0053(9) 0.0801(3) 0.0247(15) Uani 1 1 d . . .
H21A H 0.6792 1.0821 0.0759 0.030 Uiso 1 1 calc R . .
H21B H 0.6083 0.9439 0.0460 0.030 Uiso 1 1 calc R . .
C22 C 0.6579(6) 0.7555(9) 0.2119(3) 0.0261(16) Uani 1 1 d . . .
H22A H 0.6163 0.7294 0.2394 0.031 Uiso 1 1 calc R . .
C24 C -0.1272(6) 0.8024(9) -0.0708(3) 0.0269(15) Uani 1 1 d . . .
H24A H -0.0470 0.7797 -0.0689 0.032 Uiso 1 1 calc R . .
H24B H -0.1690 0.7062 -0.0770 0.032 Uiso 1 1 calc R . .
C25 C 0.4121(6) 1.0902(8) -0.0175(3) 0.0227(14) Uani 1 1 d . . .
C26 C 0.4569(6) 1.0804(8) -0.0658(3) 0.0213(14) Uani 1 1 d . . .
H26A H 0.5234 1.1340 -0.0679 0.026 Uiso 1 1 calc R . .
C27 C 0.6721(6) 0.9015(8) 0.1291(3) 0.0229(14) Uani 1 1 d . . .
C28 C -0.1075(8) 0.3032(12) -0.5568(4) 0.046(2) Uani 1 1 d . . .
H28A H -0.1511 0.2814 -0.5297 0.055 Uiso 1 1 calc R . .
C29 C 0.4647(6) 1.1846(8) 0.0327(3) 0.0255(15) Uani 1 1 d . . .
H29A H 0.4075 1.2543 0.0419 0.031 Uiso 1 1 calc R . .
H29B H 0.5256 1.2465 0.0228 0.031 Uiso 1 1 calc R . .
C30 C -0.3600(6) 1.0057(9) -0.1817(3) 0.0257(15) Uani 1 1 d . . .
C31 C 0.5134(6) 1.0871(8) 0.0853(3) 0.0222(14) Uani 1 1 d . . .
H31A H 0.5279 1.1536 0.1182 0.027 Uiso 1 1 calc R . .
H31B H 0.4571 1.0114 0.0911 0.027 Uiso 1 1 calc R . .
C32 C -0.1686(6) 0.9111(8) -0.1210(3) 0.0209(14) Uani 1 1 d . . .
C34 C 0.1624(11) 0.2963(13) -0.3902(4) 0.060(3) Uani 1 1 d . . .
H34A H 0.1246 0.2080 -0.3774 0.072 Uiso 1 1 calc R . .
H34B H 0.2366 0.2628 -0.3963 0.072 Uiso 1 1 calc R . .
C35 C 0.2790(8) 0.5008(10) -0.3295(4) 0.038(2) Uani 1 1 d . . .
H35A H 0.3384 0.4859 -0.3488 0.046 Uiso 1 1 calc R . .
C36 C 0.1787(9) 0.4174(10) -0.3449(4) 0.042(2) Uani 1 1 d . . .
C37 C 0.0034(8) 0.2733(11) -0.5457(3) 0.0393(18) Uani 1 1 d . . .
C38 C -0.0147(6) 0.8290(8) -0.1768(3) 0.0259(16) Uani 1 1 d . . .
C39 C -0.1124(6) 1.0745(8) -0.1089(3) 0.0257(15) Uani 1 1 d . . .
H39A H -0.0316 1.0676 -0.1094 0.031 Uiso 1 1 calc R . .
H39B H -0.1465 1.1453 -0.1384 0.031 Uiso 1 1 calc R . .
C45 C -0.0881(7) 1.0261(11) -0.0030(3) 0.0348(16) Uani 1 1 d . . .
H45A H -0.0060 1.0138 0.0026 0.042 Uiso 1 1 calc R . .
H45B H -0.1063 1.0696 0.0312 0.042 Uiso 1 1 calc R . .
C46 C 0.2910(7) 0.6044(10) -0.2865(4) 0.0351(19) Uani 1 1 d . . .
H46A H 0.3597 0.6573 -0.2773 0.042 Uiso 1 1 calc R . .
C48 C -0.1438(7) 0.8735(10) -0.0138(3) 0.0309(17) Uani 1 1 d . . .
H48A H -0.2248 0.8844 -0.0141 0.037 Uiso 1 1 calc R . .
H48B H -0.1125 0.8040 0.0166 0.037 Uiso 1 1 calc R . .
C49 C 0.0676(10) 0.2166(11) -0.4880(4) 0.050(2) Uani 1 1 d . . .
H49A H 0.1390 0.1691 -0.4922 0.060 Uiso 1 1 calc R . .
H49B H 0.0221 0.1398 -0.4732 0.060 Uiso 1 1 calc R . .
C52 C 0.0608(10) 0.298(2) -0.5880(4) 0.080(5) Uani 1 1 d . . .
H52A H 0.1378 0.2738 -0.5833 0.096 Uiso 1 1 calc R . .
C54 C 0.0919(8) 0.3537(10) -0.4461(3) 0.0362(19) Uani 1 1 d . . .
H54A H 0.1335 0.4334 -0.4618 0.043 Uiso 1 1 calc R . .
H54B H 0.0205 0.3971 -0.4398 0.043 Uiso 1 1 calc R . .
C55 C -0.1282(7) 1.1362(9) -0.0524(4) 0.0322(17) Uani 1 1 d . . .
H55A H -0.2084 1.1587 -0.0543 0.039 Uiso 1 1 calc R . .
H55B H -0.0866 1.2322 -0.0451 0.039 Uiso 1 1 calc R . .
C67 C 0.0038(10) 0.3608(19) -0.6386(5) 0.077(5) Uani 1 1 d . . .
H67A H 0.0450 0.3769 -0.6671 0.092 Uiso 1 1 calc R . .
O2W O -0.2732(5) 0.4269(7) -0.1274(3) 0.0433(15) Uani 1 1 d . . .
O3W O -0.4131(6) 0.6127(7) -0.2087(3) 0.0422(15) Uani 1 1 d . . .
O12W O 0.4117(6) 0.9913(9) -0.3095(3) 0.0569(19) Uani 1 1 d . . .
O4W O -0.3959(7) 0.3436(8) -0.2709(4) 0.062(2) Uani 1 1 d . . .
O1W O -0.0522(8) 0.4426(10) -0.1464(5) 0.027(2) Uani 0.50 1 d P . .
O6W O -0.0859(7) 0.1412(11) -0.2764(5) 0.091(4) Uani 1 1 d . . .
O5W O -0.1590(10) 0.4161(14) -0.2569(6) 0.040(3) Uani 0.50 1 d P . .
O10W O 0.4184(12) 0.296(2) -0.4706(6) 0.061(4) Uani 0.50 1 d P . .
O9W O 0.5094(15) 0.2138(16) -0.3716(6) 0.063(5) Uani 0.50 1 d P . .
O8W O -0.2743(17) 0.977(2) -0.3119(6) 0.082(6) Uani 0.50 1 d P . .
O7W O -0.2495(17) 0.6610(19) -0.3292(7) 0.068(5) Uani 0.50 1 d P . .
O13W O -0.4575(19) 0.285(4) -0.6117(10) 0.104(6) Uiso 0.50 1 d P . .
O11W O 0.369(2) 0.012(4) -0.4927(12) 0.136(9) Uiso 0.50 1 d P . .

loop_
_atom_site_aniso_label
_atom_site_aniso_U_11
_atom_site_aniso_U_22
_atom_site_aniso_U_33
_atom_site_aniso_U_23
_atom_site_aniso_U_13
_atom_site_aniso_U_12
Ag1 0.0232(2) 0.0330(3) 0.0203(3) -0.0029(2) 0.00401(18) 0.0009(2)
Ag2 0.0425(3) 0.0360(3) 0.0198(3) -0.0012(3) -0.0014(2) -0.0049(3)
O1 0.026(3) 0.037(3) 0.061(4) 0.018(3) 0.020(3) 0.010(2)
O2 0.032(3) 0.033(3) 0.042(3) 0.006(3) 0.018(2) -0.003(2)
O3 0.046(4) 0.031(3) 0.037(4) 0.000(3) -0.009(3) 0.006(3)
O4 0.037(3) 0.028(3) 0.053(4) -0.004(3) -0.008(3) 0.006(3)
N1 0.041(4) 0.034(4) 0.020(3) 0.000(3) -0.002(3) 0.003(3)
N2 0.040(4) 0.037(4) 0.013(3) 0.002(3) 0.001(3) 0.003(3)
N3 0.036(4) 0.033(4) 0.016(3) -0.003(3) -0.002(3) 0.003(3)
N4 0.021(3) 0.022(3) 0.017(3) -0.001(2) 0.004(2) 0.004(2)
C3 0.022(3) 0.022(3) 0.033(4) 0.006(3) 0.008(3) 0.002(3)
C6 0.026(4) 0.034(4) 0.031(4) 0.001(3) 0.011(3) -0.001(3)
C7 0.031(4) 0.047(5) 0.028(5) 0.012(4) -0.005(3) -0.007(4)
C8 0.054(6) 0.057(6) 0.048(6) -0.006(5) 0.003(5) -0.020(5)
C9 0.038(4) 0.064(6) 0.031(5) -0.010(5) 0.007(4) -0.013(5)
C12 0.030(4) 0.032(4) 0.024(4) 0.000(3) 0.010(3) -0.001(3)
C13 0.027(3) 0.024(4) 0.024(4) -0.001(3) 0.005(3) 0.001(3)
C14 0.021(3) 0.024(4) 0.021(3) 0.003(3) 0.008(3) 0.009(3)
C15 0.016(3) 0.025(3) 0.032(4) -0.008(3) 0.009(3) -0.001(3)
C16 0.021(3) 0.026(3) 0.027(4) 0.000(3) 0.009(3) -0.001(3)
C18 0.027(4) 0.035(4) 0.020(4) -0.004(3) 0.007(3) 0.006(3)
C21 0.029(4) 0.027(4) 0.019(3) 0.001(3) 0.005(3) 0.001(3)
C22 0.028(3) 0.034(5) 0.016(3) -0.004(3) 0.007(3) -0.001(3)
C24 0.024(3) 0.030(4) 0.026(4) -0.005(3) 0.003(3) 0.000(3)
C25 0.021(3) 0.026(3) 0.023(4) -0.001(3) 0.006(3) 0.002(3)
C26 0.015(3) 0.025(3) 0.024(4) -0.003(3) 0.004(3) 0.000(3)
C27 0.027(3) 0.021(3) 0.020(4) -0.003(3) 0.002(3) -0.005(3)
C28 0.059(5) 0.048(6) 0.025(4) 0.014(4) -0.005(4) -0.025(5)
C29 0.031(4) 0.017(3) 0.030(4) -0.006(3) 0.010(3) 0.000(3)
C30 0.018(3) 0.027(4) 0.031(4) -0.001(3) 0.004(3) 0.004(3)
C31 0.022(3) 0.023(3) 0.021(4) -0.003(3) 0.004(3) -0.002(3)
C32 0.016(3) 0.020(3) 0.027(4) -0.001(3) 0.005(3) -0.007(3)
C34 0.106(8) 0.037(5) 0.023(4) -0.002(4) -0.021(5) 0.020(6)
C35 0.046(5) 0.034(5) 0.035(4) 0.000(4) 0.008(4) 0.013(4)
C36 0.070(6) 0.033(4) 0.017(4) 0.004(3) -0.004(4) 0.009(4)
C37 0.060(5) 0.032(4) 0.023(4) 0.004(4) 0.000(3) 0.013(5)
C38 0.025(3) 0.027(4) 0.028(4) -0.001(3) 0.011(3) -0.002(3)
C39 0.018(3) 0.026(4) 0.033(4) 0.000(3) 0.007(3) -0.002(3)
C45 0.033(4) 0.042(4) 0.028(4) 0.000(4) 0.002(3) 0.003(4)
C46 0.036(4) 0.042(5) 0.030(5) -0.001(4) 0.011(3) 0.007(4)
C48 0.031(4) 0.041(4) 0.022(4) -0.001(3) 0.007(3) 0.002(3)
C49 0.078(7) 0.044(5) 0.021(4) 0.000(4) -0.007(4) 0.010(5)
C52 0.063(6) 0.149(13) 0.024(5) 0.010(7) -0.002(4) 0.053(9)
C54 0.055(5) 0.038(4) 0.015(4) 0.004(3) 0.005(4) 0.007(4)
C55 0.029(4) 0.028(4) 0.040(5) -0.009(3) 0.007(3) -0.001(3)
C67 0.053(6) 0.147(14) 0.033(6) 0.011(7) 0.016(5) 0.044(8)
O2W 0.037(3) 0.037(3) 0.056(4) -0.004(3) 0.008(3) 0.001(3)
O3W 0.043(3) 0.038(3) 0.046(4) -0.001(3) 0.008(3) 0.000(3)
O12W 0.042(3) 0.063(5) 0.057(4) 0.008(4) -0.013(3) 0.003(3)
O4W 0.075(5) 0.037(4) 0.079(6) 0.004(4) 0.028(4) 0.004(4)
O1W 0.014(4) 0.006(4) 0.068(8) 0.000(4) 0.022(5) 0.003(3)
O6W 0.052(5) 0.076(6) 0.146(10) 0.071(6) 0.026(5) 0.019(4)
O5W 0.037(6) 0.034(6) 0.053(8) -0.011(6) 0.021(6) -0.009(5)
O10W 0.052(7) 0.087(11) 0.047(8) -0.011(9) 0.020(6) -0.001(9)
O9W 0.106(12) 0.042(7) 0.053(9) -0.035(7) 0.049(9) -0.048(8)
O8W 0.110(13) 0.102(14) 0.039(8) 0.014(8) 0.031(8) 0.076(12)
O7W 0.107(13) 0.046(8) 0.054(9) 0.007(7) 0.025(9) -0.018(9)

_geom_special_details            
; 
 All esds (except the esd in the dihedral angle between two l.s. planes) 
 are estimated using the full covariance matrix.  The cell esds are taken 
 into account individually in the estimation of esds in distances, angles 
 and torsion angles; correlations between esds in cell parameters are only 
 used when they are defined by crystal symmetry.  An approximate (isotropic) 
 treatment of cell esds is used for estimating esds involving l.s. planes. 
;

loop_
_geom_bond_atom_site_label_1
_geom_bond_atom_site_label_2
_geom_bond_distance
_geom_bond_site_symmetry_2
_geom_bond_publ_flag
Ag1 N2 2.147(7) . ?
Ag1 N4 2.188(6) . ?
Ag1 O1 2.525(5) . ?
Ag1 Ag2 3.0471(8) . ?
Ag2 N1 2.134(7) 2_554 ?
Ag2 N3 2.143(7) 2_655 ?
O1 C38 1.238(9) . ?
O2 C38 1.293(9) . ?
O3 C30 1.268(10) . ?
O4 C30 1.264(10) . ?
N1 C7 1.305(12) . ?
N1 C67 1.311(13) . ?
N1 Ag2 2.134(7) 2_544 ?
N2 C46 1.340(11) . ?
N2 C9 1.381(11) . ?
N3 C22 1.312(10) . ?
N3 C6 1.340(10) . ?
N3 Ag2 2.143(7) 2_645 ?
N4 C14 1.330(9) . ?
N4 C3 1.351(9) . ?
C3 C13 1.387(11) . ?
C3 H3A 0.9300 . ?
C6 C12 1.387(11) . ?
C6 H6A 0.9300 . ?
C7 C28 1.397(12) . ?
C7 H7A 0.9300 . ?
C8 C9 1.379(14) . ?
C8 C36 1.389(15) . ?
C8 H8A 0.9300 . ?
C9 H9A 0.9300 . ?
C12 C27 1.375(11) . ?
C12 H12A 0.9300 . ?
C13 C25 1.420(10) . ?
C13 H13A 0.9300 . ?
C14 C26 1.371(10) . ?
C14 H14A 0.9300 . ?
C15 C30 1.494(11) . ?
C15 C3