####################################################################### 
# 
# This file contains crystal structure data downloaded from the 
# Cambridge Structural Database (CSD) hosted by the Cambridge 
# Crystallographic Data Centre (CCDC).
# 
# Full information about CCDC data access policies and citation 
# guidelines are available at http://www.ccdc.cam.ac.uk/access/V1 
# 
# Audit and citation data items may have been added by the CCDC. 
# Please retain this information to preserve the provenance of 
# this file and to allow appropriate attribution of the data. 
# 
#######################################################################

data_hqhao2
_audit_block_doi                 10.5517/cc1134bm
_database_code_depnum_ccdc_archive 'CCDC 956329'
loop_
_citation_id
_citation_doi
_citation_year
1 10.1080/00958972.2015.1058484 2015
_audit_update_record             
;
2013-08-18 deposited with the CCDC.	2024-07-10 downloaded from the CCDC.
;

_audit_creation_method           SHELXL-97
_chemical_name_systematic        
; 
 ? 
;
_chemical_name_common            ?
_chemical_melting_point          ?
_chemical_formula_moiety         ?
_chemical_formula_sum            'C36 H36 Ag2 N4 O16'
_chemical_formula_weight         996.43

loop_
_atom_type_symbol
_atom_type_description
_atom_type_scat_dispersion_real
_atom_type_scat_dispersion_imag
_atom_type_scat_source
C C 0.0033 0.0016 'International Tables Vol C Tables 4.2.6.8 and 6.1.1.4'
H H 0.0000 0.0000 'International Tables Vol C Tables 4.2.6.8 and 6.1.1.4'
N N 0.0061 0.0033 'International Tables Vol C Tables 4.2.6.8 and 6.1.1.4'
O O 0.0106 0.0060 'International Tables Vol C Tables 4.2.6.8 and 6.1.1.4'
Ag Ag -0.8971 1.1015 'International Tables Vol C Tables 4.2.6.8 and 6.1.1.4'

_symmetry_cell_setting           monoclinic
_symmetry_space_group_name_H-M   P2(1)/c

loop_
_symmetry_equiv_pos_as_xyz
'x, y, z'
'-x, y+1/2, -z+1/2'
'-x, -y, -z'
'x, -y-1/2, z-1/2'

_cell_length_a                   8.6221(16)
_cell_length_b                   25.685(5)
_cell_length_c                   20.625(4)
_cell_angle_alpha                90.00
_cell_angle_beta                 97.571(3)
_cell_angle_gamma                90.00
_cell_volume                     4527.8(14)
_cell_formula_units_Z            4
_cell_measurement_temperature    173(2)
_cell_measurement_reflns_used    22962
_cell_measurement_theta_min      1.87
_cell_measurement_theta_max      26.00

_exptl_crystal_description       Block
_exptl_crystal_colour            colorless
_exptl_crystal_size_max          0.18
_exptl_crystal_size_mid          0.15
_exptl_crystal_size_min          0.14
_exptl_crystal_density_meas      'not measured'
_exptl_crystal_density_diffrn    1.462
_exptl_crystal_density_method    'not measured'
_exptl_crystal_F_000             2008
_exptl_absorpt_coefficient_mu    0.932
_exptl_absorpt_correction_type   empirical
_exptl_absorpt_correction_T_min  0.8501
_exptl_absorpt_correction_T_max  0.8805
_exptl_absorpt_process_details   'SADABS (Sheldrick, 1996)'

_exptl_special_details           
; 
 ? 
;

_diffrn_ambient_temperature      173(2)
_diffrn_radiation_wavelength     0.71073
_diffrn_radiation_type           MoK\a
_diffrn_radiation_source         'fine-focus sealed tube'
_diffrn_radiation_monochromator  graphite
_diffrn_measurement_device_type  'Smart Apex'
_diffrn_measurement_method       'phi and omega scan'
_diffrn_detector_area_resol_mean ?
_diffrn_standards_number         0
_diffrn_standards_interval_count ?
_diffrn_standards_interval_time  ?
_diffrn_standards_decay_%        0
_diffrn_reflns_number            22962
_diffrn_reflns_av_R_equivalents  0.0242
_diffrn_reflns_av_sigmaI/netI    0.0320
_diffrn_reflns_limit_h_min       -6
_diffrn_reflns_limit_h_max       10
_diffrn_reflns_limit_k_min       -31
_diffrn_reflns_limit_k_max       31
_diffrn_reflns_limit_l_min       -24
_diffrn_reflns_limit_l_max       25
_diffrn_reflns_theta_min         1.87
_diffrn_reflns_theta_max         26.00
_reflns_number_total             8859
_reflns_number_gt                6649
_reflns_threshold_expression     >2sigma(I)

_computing_data_collection       'SMART (Bruker,2001)'
_computing_cell_refinement       'SMART (Bruker,2001)'
_computing_data_reduction        'SMART (Bruker,2001)'
_computing_structure_solution    'SHELXS-97 (Sheldrick, 1990)'
_computing_structure_refinement  'SHELXL-97 (Sheldrick, 1997)'
_computing_molecular_graphics    'ORTEPII (Johnson, 1976)'
_computing_publication_material  'SHELXL97 (Sheldrick, 1997)'

_refine_special_details          
; 
 Refinement of F^2^ against ALL reflections.  The weighted R-factor wR and 
 goodness of fit S are based on F^2^, conventional R-factors R are based 
 on F, with F set to zero for negative F^2^. The threshold expression of 
 F^2^ > 2sigma(F^2^) is used only for calculating R-factors(gt) etc. and is 
 not relevant to the choice of reflections for refinement.  R-factors based 
 on F^2^ are statistically about twice as large as those based on F, and R- 
 factors based on ALL data will be even larger. 
;

_refine_ls_structure_factor_coef Fsqd
_refine_ls_matrix_type           full
_refine_ls_weighting_scheme      calc
_refine_ls_weighting_details     
'calc w=1/[\s^2^(Fo^2^)+(0.0544P)^2^+14.4779P] where P=(Fo^2^+2Fc^2^)/3'
_atom_sites_solution_primary     direct
_atom_sites_solution_secondary   difmap
_atom_sites_solution_hydrogens   geom
_refine_ls_hydrogen_treatment    mixed
_refine_ls_extinction_method     none
_refine_ls_extinction_coef       ?
_refine_ls_number_reflns         8859
_refine_ls_number_parameters     523
_refine_ls_number_restraints     0
_refine_ls_R_factor_all          0.0700
_refine_ls_R_factor_gt           0.0492
_refine_ls_wR_factor_ref         0.1367
_refine_ls_wR_factor_gt          0.1222
_refine_ls_goodness_of_fit_ref   1.044
_refine_ls_restrained_S_all      1.044
_refine_ls_shift/su_max          0.001
_refine_ls_shift/su_mean         0.000

loop_
_atom_site_label
_atom_site_type_symbol
_atom_site_fract_x
_atom_site_fract_y
_atom_site_fract_z
_atom_site_U_iso_or_equiv
_atom_site_adp_type
_atom_site_occupancy
_atom_site_symmetry_multiplicity
_atom_site_calc_flag
_atom_site_refinement_flags
_atom_site_disorder_assembly
_atom_site_disorder_group
Ag1 Ag 0.37447(4) 0.614789(13) 0.267083(18) 0.03531(11) Uani 1 1 d . . .
Ag2 Ag 0.13279(5) 0.696886(14) 0.24135(2) 0.04927(14) Uani 1 1 d . . .
C1 C 0.0948(7) 1.1107(2) 0.3075(3) 0.0493(13) Uani 1 1 d . . .
H1A H 0.0705 1.1214 0.3491 0.059 Uiso 1 1 calc R . .
C2 C 0.3913(6) 0.2033(2) 0.2306(3) 0.0446(12) Uani 1 1 d . . .
H2A H 0.3904 0.1971 0.1851 0.054 Uiso 1 1 calc R . .
N4 N 0.0187(5) 1.13304(15) 0.2548(2) 0.0398(10) Uani 1 1 d . . .
C6 C 0.1744(6) 0.61437(19) 0.4997(2) 0.0374(11) Uani 1 1 d . . .
H6A H 0.1068 0.6415 0.4820 0.045 Uiso 1 1 calc R . .
N2 N 0.4847(5) 0.17430(14) 0.27334(19) 0.0338(9) Uani 1 1 d . . .
O2 O 0.2752(4) 0.68291(14) 0.36854(16) 0.0447(8) Uani 1 1 d . . .
O1 O 0.4878(4) 0.63333(13) 0.38231(16) 0.0408(8) Uani 1 1 d . . .
N1 N 0.2546(4) 0.54276(14) 0.28829(18) 0.0314(8) Uani 1 1 d . . .
N3 N 0.2506(4) 0.76817(15) 0.2337(2) 0.0352(9) Uani 1 1 d . . .
C12 C 0.4139(7) 0.7697(2) 0.4790(3) 0.0471(13) Uani 1 1 d . . .
O4 O 0.3416(5) 0.81055(15) 0.4923(2) 0.0627(11) Uani 1 1 d . . .
C16 C 0.2354(5) 0.34824(17) 0.3234(2) 0.0325(10) Uani 1 1 d . . .
H16A H 0.2562 0.3510 0.2775 0.039 Uiso 1 1 calc R . .
H16B H 0.3340 0.3560 0.3521 0.039 Uiso 1 1 calc R . .
C17 C 0.1548(5) 0.44288(17) 0.3201(2) 0.0333(10) Uani 1 1 d . . .
C19 C 0.4079(6) 0.66949(17) 0.4779(2) 0.0364(11) Uani 1 1 d . . .
H19A H 0.5222 0.6693 0.4945 0.044 Uiso 1 1 calc R . .
C20 C 0.3698(6) 1.01703(18) 0.2402(3) 0.0423(12) Uani 1 1 d . . .
H20A H 0.4525 1.0205 0.2781 0.051 Uiso 1 1 calc R . .
H20B H 0.4182 1.0237 0.2001 0.051 Uiso 1 1 calc R . .
C21 C 0.3877(6) 0.2214(2) 0.3588(2) 0.0432(12) Uani 1 1 d . . .
H21A H 0.3892 0.2266 0.4045 0.052 Uiso 1 1 calc R . .
C22 C 0.3351(6) 0.62088(18) 0.5043(2) 0.0328(10) Uani 1 1 d . . .
C23 C 0.3771(5) 0.86757(17) 0.2307(2) 0.0298(9) Uani 1 1 d . . .
C24 C 0.3901(6) 0.66224(17) 0.4034(2) 0.0324(10) Uani 1 1 d . . .
C26 C 0.2117(5) 0.47831(17) 0.3681(2) 0.0346(10) Uani 1 1 d . . .
H26A H 0.2179 0.4690 0.4129 0.042 Uiso 1 1 calc R . .
C28 C 0.2918(5) 0.25165(16) 0.3154(2) 0.0317(10) Uani 1 1 d . . .
O3 O 0.5370(5) 0.76851(15) 0.4528(2) 0.0594(11) Uani 1 1 d . . .
C31 C 0.4812(7) 0.1838(2) 0.3365(2) 0.0435(12) Uani 1 1 d . . .
H31A H 0.5465 0.1637 0.3678 0.052 Uiso 1 1 calc R . .
C32 C 0.2077(7) 1.0727(2) 0.3053(3) 0.0507(14) Uani 1 1 d . . .
H32A H 0.2582 1.0577 0.3446 0.061 Uiso 1 1 calc R . .
C33 C 0.4305(6) 0.58072(18) 0.5297(2) 0.0363(10) Uani 1 1 d . . .
H33A H 0.5408 0.5844 0.5328 0.044 Uiso 1 1 calc R . .
C34 C 0.1838(6) 0.29323(18) 0.3365(3) 0.0389(11) Uani 1 1 d . . .
H34A H 0.0773 0.2877 0.3131 0.047 Uiso 1 1 calc R . .
H34B H 0.1783 0.2893 0.3839 0.047 Uiso 1 1 calc R . .
C35 C 0.3842(7) 0.8393(2) 0.2882(3) 0.0483(13) Uani 1 1 d . . .
H35A H 0.4330 0.8538 0.3281 0.058 Uiso 1 1 calc R . .
C37 C 0.2093(7) 0.5289(2) 0.5462(2) 0.0433(12) Uani 1 1 d . . .
H37A H 0.1666 0.4976 0.5607 0.052 Uiso 1 1 calc R . .
C38 C 0.1450(5) 0.46001(19) 0.2560(2) 0.0383(11) Uani 1 1 d . . .
H38A H 0.1036 0.4376 0.2213 0.046 Uiso 1 1 calc R . .
C39 C 0.4363(5) 0.92241(17) 0.2309(3) 0.0367(11) Uani 1 1 d . . .
H39A H 0.4795 0.9292 0.1895 0.044 Uiso 1 1 calc R . .
H39B H 0.5218 0.9269 0.2675 0.044 Uiso 1 1 calc R . .
C40 C 0.1112(6) 0.5685(2) 0.5207(2) 0.0423(12) Uani 1 1 d . . .
H40A H 0.0010 0.5643 0.5174 0.051 Uiso 1 1 calc R . .
C41 C 0.3397(7) 0.7194(2) 0.4999(2) 0.0448(12) Uani 1 1 d . . .
H41A H 0.3486 0.7190 0.5482 0.054 Uiso 1 1 calc R . .
H41B H 0.2269 0.7201 0.4828 0.054 Uiso 1 1 calc R . .
C42 C 0.0541(6) 1.11725(19) 0.1975(3) 0.0447(12) Uani 1 1 d . . .
H42A H 0.0003 1.1324 0.1589 0.054 Uiso 1 1 calc R . .
C43 C 0.2963(7) 0.2420(2) 0.2503(3) 0.0473(13) Uani 1 1 d . . .
H43A H 0.2334 0.2621 0.2183 0.057 Uiso 1 1 calc R . .
C44 C 0.1107(6) 0.38823(18) 0.3358(3) 0.0420(12) Uani 1 1 d . . .
H44A H 0.0108 0.3791 0.3089 0.050 Uiso 1 1 calc R . .
H44B H 0.0940 0.3865 0.3823 0.050 Uiso 1 1 calc R . .
C46 C 0.1657(6) 1.07979(19) 0.1912(3) 0.0439(12) Uani 1 1 d . . .
H46A H 0.1868 1.0697 0.1490 0.053 Uiso 1 1 calc R . .
C49 C 0.1946(6) 0.50912(19) 0.2422(2) 0.0369(11) Uani 1 1 d . . .
H49A H 0.1859 0.5197 0.1977 0.044 Uiso 1 1 calc R . .
C50 C 0.3671(7) 0.53489(19) 0.5508(2) 0.0435(12) Uani 1 1 d . . .
H50A H 0.4343 0.5076 0.5684 0.052 Uiso 1 1 calc R . .
C51 C 0.3073(6) 0.84391(18) 0.1749(2) 0.0361(10) Uani 1 1 d . . .
H51A H 0.3017 0.8614 0.1341 0.043 Uiso 1 1 calc R . .
C52 C 0.2464(6) 1.05697(17) 0.2456(3) 0.0371(11) Uani 1 1 d . . .
C55 C 0.2451(6) 0.79466(18) 0.1780(2) 0.0355(10) Uani 1 1 d . . .
H55A H 0.1964 0.7790 0.1388 0.043 Uiso 1 1 calc R . .
C59 C 0.2596(5) 0.52726(18) 0.3507(2) 0.0354(10) Uani 1 1 d . . .
H59A H 0.2976 0.5509 0.3844 0.042 Uiso 1 1 calc R . .
O1W O 0.7680(5) 0.61432(17) 0.4629(2) 0.0631(11) Uani 1 1 d . . .
O2W O 0.0113(5) 0.74021(17) 0.3722(2) 0.0631(11) Uani 1 1 d . . .
O3W O 0.7033(5) 0.85232(18) 0.4088(2) 0.0741(13) Uani 1 1 d . . .
C8 C 0.3063(5) 0.96156(17) 0.2380(3) 0.0364(11) Uani 1 1 d . . .
H8A H 0.2222 0.9580 0.2007 0.044 Uiso 1 1 calc R . .
H8B H 0.2607 0.9542 0.2787 0.044 Uiso 1 1 calc R . .
O4W O 0.0649(7) 0.7941(2) 0.5575(3) 0.0893(16) Uani 1 1 d . . .
C13 C 0.3208(7) 0.7905(2) 0.2873(3) 0.0497(14) Uani 1 1 d . . .
H13A H 0.3276 0.7718 0.3272 0.060 Uiso 1 1 calc R . .
O5W O 0.9669(6) 0.84405(18) 0.3413(2) 0.0712(12) Uani 1 1 d . . .
O6W O -0.1583(6) 0.72553(18) 0.4776(2) 0.0731(13) Uani 1 1 d . . .
O7W O 0.5347(6) 0.8937(2) 0.5351(3) 0.0855(15) Uani 1 1 d . . .
O8W O 0.5083(6) 0.94278(18) 0.4100(2) 0.0804(14) Uani 1 1 d . . .
O9W O 0.2126(6) 0.8963(2) 0.4199(2) 0.0840(15) Uani 1 1 d . . .
O10W O 0.3522(7) 0.9592(2) 0.6023(3) 0.0910(16) Uani 1 1 d . . .
O11W O 0.8553(7) 0.8770(2) 0.5303(3) 0.0915(16) Uani 1 1 d . . .
O12W O 0.0723(7) 0.9527(2) 0.5147(3) 0.1011(18) Uani 1 1 d . . .

loop_
_atom_site_aniso_label
_atom_site_aniso_U_11
_atom_site_aniso_U_22
_atom_site_aniso_U_33
_atom_site_aniso_U_23
_atom_site_aniso_U_13
_atom_site_aniso_U_12
Ag1 0.0405(2) 0.02404(18) 0.0419(2) 0.00465(15) 0.00728(15) -0.00133(15)
Ag2 0.0446(2) 0.0249(2) 0.0794(3) 0.01032(18) 0.0122(2) -0.00271(16)
C1 0.054(3) 0.043(3) 0.052(3) -0.015(3) 0.011(3) 0.007(3)
C2 0.051(3) 0.044(3) 0.038(3) -0.001(2) 0.000(2) 0.014(2)
N4 0.042(2) 0.0225(19) 0.055(3) -0.0077(18) 0.005(2) 0.0005(17)
C6 0.048(3) 0.036(3) 0.028(2) 0.0000(19) 0.003(2) 0.003(2)
N2 0.042(2) 0.0226(19) 0.037(2) -0.0030(16) 0.0058(17) -0.0011(16)
O2 0.055(2) 0.044(2) 0.0343(18) 0.0079(15) 0.0028(16) -0.0018(17)
O1 0.047(2) 0.0408(19) 0.0350(18) -0.0011(15) 0.0079(15) -0.0025(16)
N1 0.030(2) 0.0240(19) 0.041(2) -0.0001(16) 0.0069(16) -0.0003(15)
N3 0.034(2) 0.028(2) 0.045(2) 0.0075(17) 0.0095(17) 0.0018(16)
C12 0.072(4) 0.031(3) 0.036(3) -0.002(2) -0.002(3) -0.008(3)
O4 0.085(3) 0.036(2) 0.065(3) -0.0024(19) 0.003(2) 0.008(2)
C16 0.030(2) 0.027(2) 0.041(3) -0.0046(19) 0.0082(19) -0.0012(18)
C17 0.028(2) 0.025(2) 0.049(3) -0.003(2) 0.014(2) 0.0011(18)
C19 0.049(3) 0.027(2) 0.033(2) 0.0012(19) 0.006(2) -0.006(2)
C20 0.029(2) 0.031(3) 0.068(3) -0.009(2) 0.010(2) -0.002(2)
C21 0.063(3) 0.038(3) 0.030(2) -0.004(2) 0.011(2) 0.004(2)
C22 0.045(3) 0.032(2) 0.022(2) -0.0009(18) 0.0060(18) -0.005(2)
C23 0.024(2) 0.025(2) 0.043(3) 0.0023(18) 0.0122(18) 0.0032(17)
C24 0.042(3) 0.025(2) 0.029(2) 0.0065(18) 0.001(2) -0.011(2)
C26 0.038(3) 0.029(2) 0.038(3) 0.0023(19) 0.011(2) 0.0020(19)
C28 0.033(2) 0.022(2) 0.042(3) -0.0069(18) 0.0084(19) -0.0086(18)
O3 0.082(3) 0.037(2) 0.060(3) 0.0060(18) 0.012(2) -0.005(2)
C31 0.061(3) 0.036(3) 0.034(3) 0.005(2) 0.006(2) 0.015(2)
C32 0.060(4) 0.043(3) 0.047(3) -0.002(2) 0.001(3) 0.012(3)
C33 0.043(3) 0.031(2) 0.035(2) -0.0001(19) 0.005(2) 0.001(2)
C34 0.037(3) 0.029(2) 0.055(3) -0.007(2) 0.018(2) -0.005(2)
C35 0.055(3) 0.047(3) 0.040(3) 0.000(2) -0.004(2) -0.004(3)
C37 0.061(3) 0.033(3) 0.037(3) 0.004(2) 0.009(2) -0.011(2)
C38 0.037(3) 0.032(3) 0.046(3) -0.008(2) 0.005(2) -0.004(2)
C39 0.031(2) 0.029(2) 0.053(3) -0.001(2) 0.012(2) 0.0010(19)
C40 0.043(3) 0.048(3) 0.037(3) -0.005(2) 0.008(2) -0.012(2)
C41 0.060(3) 0.039(3) 0.036(3) -0.002(2) 0.008(2) 0.002(2)
C42 0.055(3) 0.031(3) 0.048(3) -0.002(2) 0.003(2) 0.008(2)
C43 0.055(3) 0.044(3) 0.041(3) -0.002(2) -0.002(2) 0.016(3)
C44 0.038(3) 0.026(2) 0.067(3) -0.004(2) 0.023(2) -0.003(2)
C46 0.055(3) 0.032(3) 0.046(3) -0.004(2) 0.011(2) 0.001(2)
C49 0.039(3) 0.035(3) 0.038(3) -0.001(2) 0.005(2) 0.000(2)
C50 0.058(3) 0.032(3) 0.040(3) 0.004(2) 0.005(2) 0.007(2)
C51 0.042(3) 0.034(3) 0.034(2) 0.0042(19) 0.011(2) -0.001(2)
C52 0.037(3) 0.021(2) 0.054(3) -0.005(2) 0.008(2) -0.0069(19)
C55 0.038(3) 0.032(2) 0.038(3) -0.002(2) 0.010(2) -0.004(2)
C59 0.036(3) 0.032(2) 0.040(3) -0.005(2) 0.009(2) 0.000(2)
O1W 0.051(2) 0.061(3) 0.077(3) 0.005(2) 0.009(2) 0.011(2)
O2W 0.062(3) 0.056(3) 0.068(3) 0.005(2) -0.001(2) 0.002(2)
O3W 0.069(3) 0.067(3) 0.083(3) 0.007(2) 0.000(2) -0.004(2)
C8 0.034(2) 0.027(2) 0.049(3) -0.003(2) 0.010(2) 0.0011(19)
O4W 0.115(4) 0.071(3) 0.082(3) 0.015(3) 0.013(3) 0.020(3)
C13 0.056(3) 0.043(3) 0.046(3) 0.021(2) -0.008(3) -0.007(3)
O5W 0.080(3) 0.063(3) 0.067(3) 0.009(2) -0.003(2) 0.007(2)
O6W 0.088(3) 0.056(3) 0.078(3) 0.006(2) 0.020(3) -0.003(2)
O7W 0.095(4) 0.078(3) 0.084(4) 0.004(3) 0.012(3) -0.001(3)
O8W 0.099(4) 0.056(3) 0.084(3) -0.002(2) 0.005(3) -0.007(3)
O9W 0.094(4) 0.078(3) 0.078(3) -0.008(3) 0.005(3) 0.002(3)
O10W 0.119(4) 0.082(4) 0.073(3) -0.011(3) 0.015(3) 0.007(3)
O11W 0.103(4) 0.093(4) 0.073(3) 0.004(3) -0.007(3) -0.002(3)
O12W 0.095(4) 0.078(4) 0.130(5) -0.011(3) 0.013(4) 0.001(3)

_geom_special_details            
; 
 All esds (except the esd in the dihedral angle between two l.s. planes) 
 are estimated using the full covariance matrix.  The cell esds are taken 
 into account individually in the estimation of esds in distances, angles 
 and torsion angles; correlations between esds in cell parameters are only 
 used when they are defined by crystal symmetry.  An approximate (isotropic) 
 treatment of cell esds is used for estimating esds involving l.s. planes. 
;

loop_
_geom_bond_atom_site_label_1
_geom_bond_atom_site_label_2
_geom_bond_distance
_geom_bond_site_symmetry_2
_geom_bond_publ_flag
Ag1 N2 2.185(4) 2_655 ?
Ag1 N1 2.191(4) . ?
Ag1 O1 2.494(3) . ?
Ag1 Ag2 2.9629(7) . ?
Ag2 N4 2.105(4) 2_545 ?
Ag2 N3 2.110(4) . ?
C1 N4 1.324(7) . ?
C1 C32 1.383(7) . ?
C2 N2 1.340(6) . ?
C2 C43 1.382(7) . ?
N4 C42 1.323(7) . ?
N4 Ag2 2.105(4) 2 ?
C6 C22 1.386(7) . ?
C6 C40 1.392(7) . ?
N2 C31 1.331(6) . ?
N2 Ag1 2.185(4) 2_645 ?
O2 C24 1.262(6) . ?
O1 C24 1.244(6) . ?
N1 C49 1.337(6) . ?
N1 C59 1.342(6) . ?
N3 C13 1.319(7) . ?
N3 C55 1.330(6) . ?
C12 O3 1.253(7) . ?
C12 O4 1.269(7) . ?
C12 C41 1.527(7) . ?
C16 C34 1.516(6) . ?
C16 C44 1.532(6) . ?
C17 C38 1.385(7) . ?
C17 C26 1.386(7) . ?
C17 C44 1.501(6) . ?
C19 C41 1.505(7) . ?
C19 C22 1.530(6) . ?
C19 C24 1.534(6) . ?
C20 C52 1.493(7) . ?
C20 C8 1.525(6) . ?
C21 C31 1.375(7) . ?
C21 C28 1.376(7) . ?
C22 C33 1.378(7) . ?
C23 C51 1.369(7) . ?
C23 C35 1.384(7) . ?
C23 C39 1.498(6) . ?
C26 C59 1.385(6) . ?
C28 C43 1.371(7) . ?
C28 C34 1.518(6) . ?
C32 C52 1.378(7) . ?
C33 C50 1.391(7) . ?
C35 C13 1.365(7) . ?
C37 C50 1.360(7) . ?
C37 C40 1.381(7) . ?
C38 C49 1.374(7) . ?
C39 C8 1.528(6) . ?
C42 C46 1.378(7) . ?
C46 C52 1.371(7) . ?
C51 C55 1.379(6) . ?

loop_
_geom_angle_atom_site_label_1
_geom_angle_atom_site_label_2
_geom_angle_atom_site_label_3
_geom_angle
_geom_angle_site_symmetry_1
_geom_angle_site_symmetry_3
_geom_angle_publ_flag
N2 Ag1 N1 165.33(14) 2_655 . ?
N2 Ag1 O1 93.57(13) 2_655 . ?
N1 Ag