####################################################################### 
# 
# This file contains crystal structure data downloaded from the 
# Cambridge Structural Database (CSD) hosted by the Cambridge 
# Crystallographic Data Centre (CCDC).
# 
# Full information about CCDC data access policies and citation 
# guidelines are available at http://www.ccdc.cam.ac.uk/access/V1 
# 
# Audit and citation data items may have been added by the CCDC. 
# Please retain this information to preserve the provenance of 
# this file and to allow appropriate attribution of the data. 
# 
#######################################################################

data_Zn
_audit_block_doi                 10.5517/cc13x99m
_database_code_depnum_ccdc_archive 'CCDC 1040090'
loop_
_citation_id
_citation_doi
_citation_year
1 10.14102/j.cnki.0254-5861.2011-0618 2015
_audit_update_record             
;
2014-12-17 deposited with the CCDC.	2024-07-10 downloaded from the CCDC.
;

_audit_creation_method           SHELXL-97
_chemical_name_systematic        
; 
 ? 
;
_chemical_name_common            ?
_chemical_melting_point          ?
_chemical_formula_moiety         'C22 H22 N4 O7 Zn'
_chemical_formula_sum            'C22 H22 N4 O7 Zn'
_chemical_formula_weight         519.81

loop_
_atom_type_symbol
_atom_type_description
_atom_type_scat_dispersion_real
_atom_type_scat_dispersion_imag
_atom_type_scat_source
C C 0.0033 0.0016 'International Tables Vol C Tables 4.2.6.8 and 6.1.1.4'
H H 0.0000 0.0000 'International Tables Vol C Tables 4.2.6.8 and 6.1.1.4'
N N 0.0061 0.0033 'International Tables Vol C Tables 4.2.6.8 and 6.1.1.4'
O O 0.0106 0.0060 'International Tables Vol C Tables 4.2.6.8 and 6.1.1.4'
Zn Zn 0.2839 1.4301 'International Tables Vol C Tables 4.2.6.8 and 6.1.1.4'

_symmetry_cell_setting           monoclinic
_symmetry_space_group_name_H-M   C2/c

loop_
_symmetry_equiv_pos_as_xyz
'x, y, z'
'-x, y, -z+1/2'
'x+1/2, y+1/2, z'
'-x+1/2, y+1/2, -z+1/2'
'-x, -y, -z'
'x, -y, z-1/2'
'-x+1/2, -y+1/2, -z'
'x+1/2, -y+1/2, z-1/2'

_cell_length_a                   29.779(6)
_cell_length_b                   9.6417(19)
_cell_length_c                   17.292(3)
_cell_angle_alpha                90.00
_cell_angle_beta                 105.69(3)
_cell_angle_gamma                90.00
_cell_volume                     4779.9(16)
_cell_formula_units_Z            8
_cell_measurement_temperature    293(2)
_cell_measurement_reflns_used    18204
_cell_measurement_theta_min      3.0
_cell_measurement_theta_max      27.64

_exptl_crystal_description       block
_exptl_crystal_colour            colourless
_exptl_crystal_size_max          0.24
_exptl_crystal_size_mid          0.23
_exptl_crystal_size_min          0.22
_exptl_crystal_density_meas      ?
_exptl_crystal_density_diffrn    1.445
_exptl_crystal_density_method    'not measured'
_exptl_crystal_F_000             2144
_exptl_absorpt_coefficient_mu    1.077
_exptl_absorpt_correction_type   multi-scan
_exptl_absorpt_correction_T_min  0.7822
_exptl_absorpt_correction_T_max  0.7976
_exptl_absorpt_process_details   Higashi,1995

_exptl_special_details           
; 
 ? 
;

_diffrn_ambient_temperature      293(2)
_diffrn_radiation_wavelength     0.71073
_diffrn_radiation_type           MoK\a
_diffrn_radiation_source         'fine-focus sealed tube'
_diffrn_radiation_monochromator  graphite
_diffrn_measurement_device_type  'Rigaku SCXmini diffractometer'
_diffrn_measurement_method       \w
_diffrn_detector_area_resol_mean ?
_diffrn_standards_number         0
_diffrn_standards_interval_count ?
_diffrn_standards_interval_time  0
_diffrn_standards_decay_%        0
_diffrn_reflns_number            19996
_diffrn_reflns_av_R_equivalents  0.0875
_diffrn_reflns_av_sigmaI/netI    0.0648
_diffrn_reflns_limit_h_min       -35
_diffrn_reflns_limit_h_max       35
_diffrn_reflns_limit_k_min       -11
_diffrn_reflns_limit_k_max       11
_diffrn_reflns_limit_l_min       -20
_diffrn_reflns_limit_l_max       20
_diffrn_reflns_theta_min         3.00
_diffrn_reflns_theta_max         25.02
_reflns_number_total             4222
_reflns_number_gt                2985
_reflns_threshold_expression     >2sigma(I)

_computing_data_collection       ?
_computing_cell_refinement       ?
_computing_data_reduction        ?
_computing_structure_solution    'SHELXS-97 (Sheldrick, 1990)'
_computing_structure_refinement  'SHELXL-97 (Sheldrick, 1997)'
_computing_molecular_graphics    ?
_computing_publication_material  ?

_refine_special_details          
; 
 Refinement of F^2^ against ALL reflections.  The weighted R-factor wR and 
 goodness of fit S are based on F^2^, conventional R-factors R are based 
 on F, with F set to zero for negative F^2^. The threshold expression of 
 F^2^ > 2sigma(F^2^) is used only for calculating R-factors(gt) etc. and is 
 not relevant to the choice of reflections for refinement.  R-factors based 
 on F^2^ are statistically about twice as large as those based on F, and R- 
 factors based on ALL data will be even larger. 
;

_refine_ls_structure_factor_coef Fsqd
_refine_ls_matrix_type           full
_refine_ls_weighting_scheme      calc
_refine_ls_weighting_details     
'calc w=1/[\s^2^(Fo^2^)+(0.0283P)^2^+15.3327P] where P=(Fo^2^+2Fc^2^)/3'
_atom_sites_solution_primary     direct
_atom_sites_solution_secondary   difmap
_atom_sites_solution_hydrogens   geom
_refine_ls_hydrogen_treatment    mixed
_refine_ls_extinction_method     none
_refine_ls_extinction_coef       ?
_refine_ls_number_reflns         4222
_refine_ls_number_parameters     311
_refine_ls_number_restraints     0
_refine_ls_R_factor_all          0.1028
_refine_ls_R_factor_gt           0.0641
_refine_ls_wR_factor_ref         0.1112
_refine_ls_wR_factor_gt          0.1007
_refine_ls_goodness_of_fit_ref   1.086
_refine_ls_restrained_S_all      1.086
_refine_ls_shift/su_max          0.030
_refine_ls_shift/su_mean         0.000

loop_
_atom_site_label
_atom_site_type_symbol
_atom_site_fract_x
_atom_site_fract_y
_atom_site_fract_z
_atom_site_U_iso_or_equiv
_atom_site_adp_type
_atom_site_occupancy
_atom_site_symmetry_multiplicity
_atom_site_calc_flag
_atom_site_refinement_flags
_atom_site_disorder_assembly
_atom_site_disorder_group
C14 C 0.99225(14) 0.2256(4) 1.2053(2) 0.0281(10) Uani 1 1 d . . .
Zn1 Zn 0.925608(17) 0.24314(5) 0.91356(3) 0.02555(16) Uani 1 1 d . . .
O1 O 0.92400(12) 0.5294(3) 0.9477(2) 0.0460(9) Uani 1 1 d . . .
O2 O 0.89849(11) 0.3978(3) 0.83945(19) 0.0384(8) Uani 1 1 d . . .
O3 O 0.90542(9) 0.7639(3) 0.85824(16) 0.0278(7) Uani 1 1 d . . .
O4 O 0.92112(11) 1.0388(3) 0.89181(19) 0.0382(8) Uani 1 1 d . . .
O5 O 0.88610(15) 1.0922(3) 0.7652(2) 0.0710(13) Uani 1 1 d . . .
O6 O 0.99051(11) 0.2821(3) 0.88654(18) 0.0400(8) Uani 1 1 d . . .
N1 N 0.85862(12) 0.2353(4) 0.9523(2) 0.0379(9) Uani 1 1 d . . .
N2 N 0.95974(11) 0.2356(4) 1.03768(19) 0.0271(8) Uani 1 1 d . . .
N3 N 1.06752(12) 0.2559(4) 0.8996(2) 0.0361(9) Uani 1 1 d . . .
C1 C 0.90618(16) 0.5140(4) 0.8754(3) 0.0301(11) Uani 1 1 d . . .
C4 C 0.87042(18) 0.7970(4) 0.7289(3) 0.0425(14) Uani 1 1 d . . .
H4 H 0.8577 0.8397 0.6796 0.051 Uiso 1 1 calc R . .
C6 C 0.90030(17) 1.0095(5) 0.8197(3) 0.0344(12) Uani 1 1 d . . .
C16 C 0.97962(14) 0.3460(4) 1.0800(3) 0.0289(11) Uani 1 1 d . . .
H16 H 0.9827 0.4268 1.0526 0.035 Uiso 1 1 calc R . .
C3 C 0.87144(17) 0.6533(5) 0.7449(3) 0.0391(13) Uani 1 1 d . . .
H3 H 0.8594 0.5833 0.7081 0.047 Uiso 1 1 calc R . .
C5 C 0.89132(15) 0.8606(4) 0.7988(3) 0.0283(11) Uani 1 1 d . . .
C2 C 0.89310(15) 0.6368(4) 0.8234(3) 0.0274(11) Uani 1 1 d . . .
C9 C 0.77301(15) 0.2471(6) 0.9905(3) 0.0453(12) Uani 1 1 d . . .
C17 C 1.02999(15) 0.2447(5) 0.9267(3) 0.0337(10) Uani 1 1 d . . .
C12 C 0.95736(17) 0.1194(5) 1.0788(3) 0.0360(12) Uani 1 1 d . . .
H12 H 0.9445 0.0407 1.0502 0.043 Uiso 1 1 calc R . .
C13 C 0.97294(17) 0.1103(5) 1.1611(3) 0.0408(13) Uani 1 1 d . . .
H13 H 0.9705 0.0271 1.1869 0.049 Uiso 1 1 calc R . .
C15 C 0.99576(15) 0.3449(5) 1.1628(3) 0.0301(11) Uani 1 1 d . . .
H15 H 1.0090 0.4245 1.1900 0.036 Uiso 1 1 calc R . .
C7 C 0.84806(17) 0.3357(5) 0.9963(3) 0.0470(14) Uani 1 1 d . . .
H7 H 0.8702 0.4045 1.0150 0.056 Uiso 1 1 calc R . .
C18 C 1.11333(16) 0.2168(6) 0.9498(3) 0.0583(16) Uani 1 1 d . . .
H18A H 1.1108 0.1884 1.0017 0.087 Uiso 1 1 calc R . .
H18B H 1.1341 0.2947 0.9558 0.087 Uiso 1 1 calc R . .
H18C H 1.1254 0.1415 0.9250 0.087 Uiso 1 1 calc R . .
C19 C 1.06568(19) 0.3208(6) 0.8228(3) 0.0603(16) Uani 1 1 d . . .
H19A H 1.0347 0.3132 0.7879 0.090 Uiso 1 1 calc R . .
H19B H 1.0872 0.2750 0.7987 0.090 Uiso 1 1 calc R . .
H19C H 1.0740 0.4169 0.8311 0.090 Uiso 1 1 calc R . .
C8 C 0.80656(17) 0.3454(5) 1.0163(3) 0.0443(13) Uani 1 1 d . . .
H8 H 0.8014 0.4192 1.0474 0.053 Uiso 1 1 calc R . .
C10 C 0.7841(2) 0.1402(7) 0.9467(5) 0.101(3) Uani 1 1 d . . .
H10 H 0.7629 0.0686 0.9286 0.121 Uiso 1 1 calc R . .
C11 C 0.8268(2) 0.1389(7) 0.9297(4) 0.088(2) Uani 1 1 d . . .
H11 H 0.8334 0.0647 0.9002 0.106 Uiso 1 1 calc R . .
O7 O 0.79348(17) 0.3922(5) 0.6314(3) 0.1107(19) Uani 1 1 d . . .
N4 N 0.76063(19) 0.1997(6) 0.6629(4) 0.0843(18) Uani 1 1 d . . .
C20 C 0.7956(2) 0.2888(7) 0.6713(4) 0.079(2) Uani 1 1 d . . .
C22 C 0.7160(3) 0.2268(9) 0.6083(6) 0.145(4) Uani 1 1 d . . .
H22A H 0.7201 0.2739 0.5618 0.217 Uiso 1 1 calc R . .
H22B H 0.6980 0.2839 0.6342 0.217 Uiso 1 1 calc R . .
H22C H 0.6999 0.1407 0.5923 0.217 Uiso 1 1 calc R . .
C21 C 0.7634(3) 0.0722(10) 0.7067(7) 0.185(5) Uani 1 1 d . . .
H21A H 0.7949 0.0386 0.7204 0.277 Uiso 1 1 calc R . .
H21B H 0.7431 0.0048 0.6740 0.277 Uiso 1 1 calc R . .
H21C H 0.7540 0.0880 0.7549 0.277 Uiso 1 1 calc R . .

loop_
_atom_site_aniso_label
_atom_site_aniso_U_11
_atom_site_aniso_U_22
_atom_site_aniso_U_33
_atom_site_aniso_U_23
_atom_site_aniso_U_13
_atom_site_aniso_U_12
C14 0.027(2) 0.032(3) 0.028(2) -0.001(2) 0.0106(19) 0.003(2)
Zn1 0.0297(3) 0.0213(3) 0.0259(3) -0.0010(3) 0.0078(2) -0.0009(3)
O1 0.058(2) 0.0362(19) 0.037(2) 0.0089(17) 0.0008(18) -0.0043(18)
O2 0.049(2) 0.0182(17) 0.048(2) 0.0054(15) 0.0141(17) 0.0031(15)
O3 0.0373(17) 0.0171(15) 0.0292(15) 0.0001(15) 0.0094(13) -0.0002(15)
O4 0.050(2) 0.0235(16) 0.043(2) -0.0124(16) 0.0161(18) -0.0063(16)
O5 0.102(3) 0.0229(19) 0.074(3) 0.016(2) 0.000(2) -0.002(2)
O6 0.0335(19) 0.049(2) 0.0415(19) 0.0045(16) 0.0167(16) 0.0006(16)
N1 0.029(2) 0.040(2) 0.049(2) -0.007(2) 0.0179(18) -0.002(2)
N2 0.0297(19) 0.028(2) 0.0233(18) -0.0004(18) 0.0072(15) 0.0007(18)
N3 0.034(2) 0.038(2) 0.037(2) -0.002(2) 0.0116(17) -0.002(2)
C1 0.029(3) 0.021(2) 0.042(3) 0.006(2) 0.014(2) 0.002(2)
C4 0.066(4) 0.026(3) 0.029(3) 0.003(2) 0.002(3) 0.003(2)
C6 0.037(3) 0.023(3) 0.047(3) 0.000(2) 0.018(3) -0.002(2)
C16 0.027(3) 0.028(2) 0.030(3) 0.005(2) 0.006(2) -0.001(2)
C3 0.051(3) 0.022(2) 0.039(3) -0.004(2) 0.004(3) -0.001(2)
C5 0.034(3) 0.019(2) 0.031(3) 0.005(2) 0.009(2) 0.004(2)
C2 0.032(3) 0.020(2) 0.032(3) -0.001(2) 0.011(2) -0.001(2)
C9 0.035(3) 0.047(3) 0.059(3) -0.019(3) 0.022(2) -0.009(3)
C17 0.031(3) 0.029(2) 0.043(3) -0.009(3) 0.014(2) 0.000(3)
C12 0.056(3) 0.024(3) 0.025(3) -0.006(2) 0.007(2) -0.005(2)
C13 0.063(4) 0.028(3) 0.028(3) 0.006(2) 0.007(3) -0.005(3)
C15 0.029(3) 0.032(3) 0.028(3) -0.002(2) 0.006(2) -0.004(2)
C7 0.038(3) 0.043(3) 0.064(4) -0.017(3) 0.020(3) -0.015(3)
C18 0.034(3) 0.077(4) 0.060(4) 0.003(3) 0.007(3) 0.007(3)
C19 0.053(4) 0.077(4) 0.060(4) 0.019(3) 0.031(3) 0.007(3)
C8 0.041(3) 0.042(3) 0.058(4) -0.020(3) 0.028(3) -0.007(3)
C10 0.050(4) 0.093(5) 0.182(8) -0.092(5) 0.072(5) -0.047(4)
C11 0.051(4) 0.080(5) 0.152(7) -0.073(5) 0.060(4) -0.026(4)
O7 0.088(4) 0.084(4) 0.149(5) 0.055(4) 0.013(3) 0.000(3)
N4 0.049(3) 0.082(4) 0.113(5) 0.041(4) 0.007(3) 0.003(3)
C20 0.055(4) 0.077(5) 0.104(6) 0.024(4) 0.018(4) 0.004(4)
C22 0.081(6) 0.152(9) 0.171(9) 0.029(7) -0.018(6) -0.020(6)
C21 0.117(8) 0.162(10) 0.247(13) 0.124(10) 0.004(8) -0.021(7)

_geom_special_details            
; 
 All esds (except the esd in the dihedral angle between two l.s. planes) 
 are estimated using the full covariance matrix.  The cell esds are taken 
 into account individually in the estimation of esds in distances, angles 
 and torsion angles; correlations between esds in cell parameters are only 
 used when they are defined by crystal symmetry.  An approximate (isotropic) 
 treatment of cell esds is used for estimating esds involving l.s. planes. 
;

loop_
_geom_bond_atom_site_label_1
_geom_bond_atom_site_label_2
_geom_bond_distance
_geom_bond_site_symmetry_2
_geom_bond_publ_flag
C14 C13 1.383(6) . ?
C14 C15 1.384(6) . ?
C14 C14 1.489(8) 2_757 ?
Zn1 O2 1.990(3) . ?
Zn1 O4 2.003(3) 1_545 ?
Zn1 N2 2.113(3) . ?
Zn1 O6 2.141(3) . ?
Zn1 N1 2.271(3) . ?
O1 C1 1.229(5) . ?
O2 C1 1.271(5) . ?
O3 C5 1.367(5) . ?
O3 C2 1.371(5) . ?
O4 C6 1.265(5) . ?
O4 Zn1 2.003(3) 1_565 ?
O5 C6 1.219(5) . ?
O6 C17 1.246(5) . ?
N1 C11 1.309(6) . ?
N1 C7 1.321(6) . ?
N2 C16 1.336(5) . ?
N2 C12 1.338(5) . ?
N3 C17 1.328(5) . ?
N3 C18 1.454(6) . ?
N3 C19 1.457(6) . ?
C1 C2 1.474(6) . ?
C4 C5 1.348(6) . ?
C4 C3 1.411(6) . ?
C4 H4 0.9300 . ?
C6 C5 1.488(6) . ?
C16 C15 1.382(6) . ?
C16 H16 0.9300 . ?
C3 C2 1.345(6) . ?
C3 H3 0.9300 . ?
C9 C8 1.362(6) . ?
C9 C10 1.371(7) . ?
C9 C9 1.495(8) 7_657 ?
C12 C13 1.376(6) . ?
C12 H12 0.9300 . ?
C13 H13 0.9300 . ?
C15 H15 0.9300 . ?
C7 C8 1.373(6) . ?
C7 H7 0.9300 . ?
C18 H18A 0.9600 . ?
C18 H18B 0.9600 . ?
C18 H18C 0.9600 . ?
C19 H19A 0.9600 . ?
C19 H19B 0.9600 . ?
C19 H19C 0.9600 . ?
C8 H8 0.9300 . ?
C10 C11 1.380(7) . ?
C10 H10 0.9300 . ?
C11 H11 0.9300 . ?
O7 C20 1.204(7) . ?
N4 C20 1.327(8) . ?
N4 C22 1.432(8) . ?
N4 C21 1.434(9) . ?
C22 H22A 0.9600 . ?
C22 H22B 0.9600 . ?
C22 H22C 0.9600 . ?
C21 H21A 0.9600 . ?
C21 H21B 0.9600 . ?
C21 H21C 0.9600 . ?

loop_
_geom_angle_atom_site_label_1
_geom_angle_atom_site_label_2
_geom_angle_atom_site_label_3
_geom_angle
_geom_angle_site_symmetry_1
_geom_angle_site_symmetry_3
_geom_angle_publ_flag
C13 C14 C15 117.1(4) . . ?
C13 C14 C14 122.6(3) . 2_757 ?
C15 C14 C14 120.3(3) . 2_757 ?
O2 Zn1 O4 128.42(13) . 1_545 ?
O2 Zn1 N2 132.85(14) . . ?
O4 Zn1 N2 98.39(14) 1_545 . ?
O2 Zn1 O6 87.77(13) . . ?
O4 Zn1 O6 98.62(12) 1_545 . ?
N2 Zn1 O6 90.75(12) . . ?
O2 Zn1 N1 88.81(14) . . ?
O4 Zn1 N1 90.19(14) 1_545 . ?
N2 Zn1 N1 85.33(13) . . ?
O6 Zn1 N1 170.81(14) . . ?
C1 O2 Zn1 111.0(3) . . ?
C5 O3 C2 106.7(3) . . ?
C6 O4 Zn1 113.2(3) . 1_565 ?
C17 O6 Zn1 126.8(3) . . ?
C11 N1 C7 115.2(4) . . ?
C11 N1 Zn1 123.9(3) . . ?
C7 N1 Zn1 120.7(3) . . ?
C16 N2 C12 117.1(3) . . ?
C16 N2 Zn1 123.3(3) . . ?
C12 N2 Zn1 119.2(3) . . ?
C17 N3 C18 120.8(4) . . ?
C17 N3 C19 121.9(4) . . ?
C18 N3 C19 116.9(4) . . ?
O1 C1 O2 125.1(4) . . ?
O1 C1 C2 119.6(4) . . ?
O2 C1 C2 115.3(4) . . ?
C5 C4 C3 106.9(4) . . ?
C5 C4 H4 126.6 . . ?
C3 C4 H4 126.6 . . ?
O5 C6 O4 126.2(4) . . ?
O5 C6 C5 116.2(5) . . ?
O4 C6 C5 117.6(4) . . ?
N2 C16 C15 122.7(4) . . ?
N2 C16 H16 118.6 . . ?
C15 C16 H16 118.6 . . ?
C2 C3 C4 107.0(4) . . ?
C2 C3 H3 126.5 . . ?
C4 C3 H3 126.5 . . ?
C4 C5 O3 109.7(4) . . ?
C4 C5 C6 131.7(4) . . ?
O3 C5 C6 118.5(4) . . ?
C3 C2 O3 109.7(4) . . ?
C3 C2 C1 133.3(4) . . ?
O3 C2 C1 117.0(4) . . ?
C8 C9 C10 116.1(4) . . ?
C8 C9 C9 122.4(6) . 7_657 ?
C10 C9 C9 121.5(6) . 7_657 ?
O6 C17 N3 122.5(4) . . ?
N2 C12 C13 123.5(4) . . ?
N2 C12 H12 118.3 . . ?
C13 C12 H12 118.3 . . ?
C12 C13 C14 119.6(4) . . ?
C12 C13 H13 120.2 . . ?
C14 C13 H13 120.2 . . ?
C16 C15 C14 120.1(4) . . ?
C16 C15 H15 120.0 . . ?
C14 C15 H15 120.0 . . ?
N1 C7 C8 124.4(4) . . ?
N1 C7 H7 117.8 . . ?
C8 C7 H7 117.8 . . ?
N3 C18 H18A 109.5 . . ?
N3 C18 H18B 109.5 . . ?
H18A C18 H18B 109.5 . . ?
N3 C18 H18C 109.5 . . ?
H18A C18 H18C 109.5 . . ?
H18B C18 H18C 109.5 . . ?
N3 C19 H19A 109.5 . . ?
N3 C19 H19B 109.5 . . ?
H19A C19 H19B 109.5 . . ?
N3 C19 H19C 109.5 . . ?
H19A C19 H19C 109.5 . . ?
H19B C19 H19C 109.5 . . ?
C9 C8 C7 120.0(4) . . ?
C9 C8 H8 120.0 . . ?
C7 C8 H8 120.0 . . ?
C9 C10 C11 119.8(5) . . ?
C9 C10 H10 120.1 . . ?
C11 C10 H10 120.1 . . ?
N1 C11 C10 124.4(5) . . ?
N1 C11 H11 117.8 . . ?
C10 C11 H11 117.8 . . ?
C20 N4 C22 121.0(6) . . ?
C20 N4 C21 124.5(6) . . ?
C22 N4 C21 114.5(6) . . ?
O7 C20 N4 123.7(7) . . ?
N4 C22 H22A 109.5 . . ?
N4 C22 H22B 109.5 . . ?
H22A C22 H22B 109.5 . . ?
N4 C22 H22C 109.5 . . ?
H22A C22 H22C 109.5 . . ?
H22B C22 H22C 109.5 . . ?
N4 C21 H21A 109.5 . . ?
N4 C21 H21B 109.5 . . ?
H21A C21 H21B 109.5 . . ?
N4 C21 H21C 109.5 . . ?
H21A C21 H21C 109.5 . . ?
H21B C21 H21C 109.5 . . ?

loop_
_geom_torsion_atom_site_label_1
_geom_torsion_atom_site_label_2
_geom_torsion_atom_site_label_3
_geom_torsion_atom_site_label_4
_geom_torsion
_geom_torsion_site_symmetry_1
_geom_torsion_site_symmetry_2
_geom_torsion_site_symmetry_3
_geom_torsion_site_symmetry_4
_geom_torsion_publ_flag
O4 Zn1 O2 C1 176.2(3) 1_545 . . . ?
N2 Zn1 O2 C1 4.4(4) . . . . ?
O6 Zn1 O2 C1 -84.6(3) . . . . ?
N1 Zn1 O2 C1 86.9(3) . . . . ?
O2 Zn1 O6 C17 161.0(4) . . . . ?
O4 Zn1 O6 C17 -70.5(4) 1_545 . . . ?
N2 Zn1 O6 C17 28.1(4) . . . . ?
N1 Zn1 O6 C17 92.7(9) . . . . ?
O2 Zn1 N1 C11 105.1(5) . . . . ?
O4 Zn1 N1 C11 -23.3(5) 1_545 . . . ?
N2 Zn1 N1 C11 -121.8(5) . . . . ?
O6 Zn1 N1 C11 173.3(8) . . . . ?
O2 Zn1 N1 C7 -70.5(4) . . . . ?
O4 Zn1 N1 C7 161.0(4) 1_545 . . . ?
N2 Zn1 N1 C7 62.6(4) . . . . ?
O6 Zn1 N1 C7 -2.3(11) . . . . ?
O2 Zn1 N2 C16 -20.2(4) . . . . ?
O4 Zn1 N2 C16 166.3(3) 1_545 . . . ?
O6 Zn1 N2 C16 67.5(3) . . . . ?
N1 Zn1 N2 C16 -104.2(3) . . . . ?
O2 Zn1 N2 C12 152.3(3) . . . . ?
O4 Zn1 N2 C12 -21.2(3) 1_545 . . . ?
O6 Zn1 N2 C12 -120.0(3) . . . . ?
N1 Zn1 N2 C12 68.3(3) . . . . ?
Zn1 O2 C1 O1 -6.4(6) . . . . ?
Zn1 O2 C1 C2 172.1(3) . . . . ?
Zn1 O4 C6 O5 4.2(6) 1_565 . . . ?
Zn1 O4 C6 C5 -174.7(3) 1_565 . . . ?
C12 N2 C16 C15 -2.3(6) . . . . ?
Zn1 N2 C16 C15 170.3(3) . . . . ?
C5 C4 C3 C2 -0.3(6) . . . . ?
C3 C4 C5 O3 -0.1(6) . . . . ?
C3 C4 C5 C6 -179.5(5) . . . . ?
C2 O3 C5 C4 0.6(5) . . . . ?
C2 O3 C5 C6 180.0(4) . . . . ?
O5 C6 C5 C4 1.0(8) . . . . ?
O4 C6 C5 C4 -180.0(5) . . . . ?
O5 C6 C5 O3 -178.3(4) . . . . ?
O4 C6 C5 O3 0.8(6) . . . . ?
C4 C3 C2 O3 0.7(6) . . . . ?
C4 C3 C2 C1 -177.8