####################################################################### 
# 
# This file contains crystal structure data downloaded from the 
# Cambridge Structural Database (CSD) hosted by the Cambridge 
# Crystallographic Data Centre (CCDC).
# 
# Full information about CCDC data access policies and citation 
# guidelines are available at http://www.ccdc.cam.ac.uk/access/V1 
# 
# Audit and citation data items may have been added by the CCDC. 
# Please retain this information to preserve the provenance of 
# this file and to allow appropriate attribution of the data. 
# 
#######################################################################

data_test
_audit_block_doi                 10.5517/cc11ynn9
_database_code_depnum_ccdc_archive 'CCDC 981821'
loop_
_citation_id
_citation_doi
_citation_year
1 10.1039/C5TA03680A 2015
_audit_update_record             
;
2014-01-16 deposited with the CCDC.	2024-07-10 downloaded from the CCDC.
;

_audit_creation_method           SHELXL-97
_chemical_name_systematic        
; 
 ? 
;
_chemical_name_common            ?
_chemical_melting_point          ?
_chemical_formula_moiety         ?
_chemical_formula_sum            'C73 H57 Ba2 N O25'
_chemical_formula_weight         1622.88

loop_
_atom_type_symbol
_atom_type_description
_atom_type_scat_dispersion_real
_atom_type_scat_dispersion_imag
_atom_type_scat_source
C C 0.0033 0.0016 'International Tables Vol C Tables 4.2.6.8 and 6.1.1.4'
H H 0.0000 0.0000 'International Tables Vol C Tables 4.2.6.8 and 6.1.1.4'
N N 0.0061 0.0033 'International Tables Vol C Tables 4.2.6.8 and 6.1.1.4'
Ba Ba -0.3244 2.2819 'International Tables Vol C Tables 4.2.6.8 and 6.1.1.4'
O O 0.0106 0.0060 'International Tables Vol C Tables 4.2.6.8 and 6.1.1.4'

_symmetry_cell_setting           Triclinic
_symmetry_space_group_name_H-M   P-1

loop_
_symmetry_equiv_pos_as_xyz
'x, y, z'
'-x, -y, -z'

_cell_length_a                   9.0362(15)
_cell_length_b                   17.484(3)
_cell_length_c                   24.772(4)
_cell_angle_alpha                69.717(3)
_cell_angle_beta                 84.873(3)
_cell_angle_gamma                82.904(3)
_cell_volume                     3638.3(10)
_cell_formula_units_Z            2
_cell_measurement_temperature    298(2)
_cell_measurement_reflns_used    ?
_cell_measurement_theta_min      ?
_cell_measurement_theta_max      ?

_exptl_crystal_description       ?
_exptl_crystal_colour            ?
_exptl_crystal_size_max          0.20
_exptl_crystal_size_mid          0.10
_exptl_crystal_size_min          0.05
_exptl_crystal_density_meas      ?
_exptl_crystal_density_diffrn    1.481
_exptl_crystal_density_method    'not measured'
_exptl_crystal_F_000             1628
_exptl_absorpt_coefficient_mu    1.155
_exptl_absorpt_correction_type   multi-scan
_exptl_absorpt_correction_T_min  0.8019
_exptl_absorpt_correction_T_max  0.9445
_exptl_absorpt_process_details   'APEX2 Software Suite (Bruker,2005)'

_exptl_special_details           
; 
 ? 
;

_diffrn_ambient_temperature      298(2)
_diffrn_radiation_wavelength     0.71073
_diffrn_radiation_type           MoK\a
_diffrn_radiation_source         'fine-focus sealed tube'
_diffrn_radiation_monochromator  graphite
_diffrn_measurement_device_type  ?
_diffrn_measurement_method       ?
_diffrn_detector_area_resol_mean ?
_diffrn_standards_number         ?
_diffrn_standards_interval_count ?
_diffrn_standards_interval_time  ?
_diffrn_standards_decay_%        ?
_diffrn_reflns_number            18155
_diffrn_reflns_av_R_equivalents  0.0291
_diffrn_reflns_av_sigmaI/netI    0.0630
_diffrn_reflns_limit_h_min       -8
_diffrn_reflns_limit_h_max       10
_diffrn_reflns_limit_k_min       -20
_diffrn_reflns_limit_k_max       18
_diffrn_reflns_limit_l_min       -29
_diffrn_reflns_limit_l_max       29
_diffrn_reflns_theta_min         1.26
_diffrn_reflns_theta_max         25.00
_reflns_number_total             12676
_reflns_number_gt                9547
_reflns_threshold_expression     >2sigma(I)

_computing_data_collection       ?
_computing_cell_refinement       ?
_computing_data_reduction        ?
_computing_structure_solution    'SHELXS-97 (Sheldrick, 1990)'
_computing_structure_refinement  'SHELXL-97 (Sheldrick, 1997)'
_computing_molecular_graphics    ?
_computing_publication_material  ?

_refine_special_details          
; 
 Refinement of F^2^ against ALL reflections.  The weighted R-factor wR and 
 goodness of fit S are based on F^2^, conventional R-factors R are based 
 on F, with F set to zero for negative F^2^. The threshold expression of 
 F^2^ > 2sigma(F^2^) is used only for calculating R-factors(gt) etc. and is 
 not relevant to the choice of reflections for refinement.  R-factors based 
 on F^2^ are statistically about twice as large as those based on F, and R- 
 factors based on ALL data will be even larger. 
;

_refine_ls_structure_factor_coef Fsqd
_refine_ls_matrix_type           full
_refine_ls_weighting_scheme      calc
_refine_ls_weighting_details     
'calc w=1/[\s^2^(Fo^2^)+(0.0992P)^2^+39.1571P] where P=(Fo^2^+2Fc^2^)/3'
_atom_sites_solution_primary     direct
_atom_sites_solution_secondary   difmap
_atom_sites_solution_hydrogens   geom
_refine_ls_hydrogen_treatment    mixed
_refine_ls_extinction_method     none
_refine_ls_extinction_coef       ?
_refine_ls_number_reflns         12676
_refine_ls_number_parameters     912
_refine_ls_number_restraints     42
_refine_ls_R_factor_all          0.1012
_refine_ls_R_factor_gt           0.0834
_refine_ls_wR_factor_ref         0.2193
_refine_ls_wR_factor_gt          0.2099
_refine_ls_goodness_of_fit_ref   1.050
_refine_ls_restrained_S_all      1.051
_refine_ls_shift/su_max          0.001
_refine_ls_shift/su_mean         0.000

loop_
_atom_site_label
_atom_site_type_symbol
_atom_site_fract_x
_atom_site_fract_y
_atom_site_fract_z
_atom_site_U_iso_or_equiv
_atom_site_adp_type
_atom_site_occupancy
_atom_site_symmetry_multiplicity
_atom_site_calc_flag
_atom_site_refinement_flags
_atom_site_disorder_assembly
_atom_site_disorder_group
Ba1 Ba -0.25147(5) 0.81612(3) 0.68982(2) 0.02863(17) Uani 1 1 d . . .
Ba2 Ba -0.75168(5) 0.73573(3) 0.76987(2) 0.02978(17) Uani 1 1 d . . .
O19 O -0.4569(7) 0.7831(5) 0.7887(3) 0.0438(17) Uani 1 1 d . . .
O13 O -0.3543(7) 0.7110(5) 0.6402(3) 0.049(2) Uani 1 1 d . . .
O20 O -0.6490(7) 0.8183(6) 0.8390(4) 0.056(2) Uani 1 1 d . . .
O14 O -0.5493(7) 0.7726(4) 0.6730(3) 0.0388(16) Uani 1 1 d . . .
O8 O 0.5951(7) 0.0176(4) 0.7401(3) 0.0402(17) Uani 1 1 d . . .
H8 H 0.6801 -0.0032 0.7363 0.060 Uiso 1 1 calc R . .
O22 O 0.0985(7) 0.8744(6) 0.8795(4) 0.054(2) Uani 1 1 d . . .
H22 H 0.0883 0.8650 0.9143 0.081 Uiso 1 1 calc R . .
O5 O -0.1490(7) -0.0573(4) 0.7177(4) 0.052(2) Uani 1 1 d . . .
O24 O -0.6034(9) 0.7750(5) 1.1902(3) 0.054(2) Uani 1 1 d . . .
O3 O -0.5453(8) 0.6059(5) 0.7788(6) 0.088(4) Uani 1 1 d . . .
O23 O -0.4724(14) 0.7012(5) 1.1248(4) 0.091(4) Uani 1 1 d . . .
O7 O 0.5451(7) -0.0491(5) 0.6833(4) 0.053(2) Uani 1 1 d . . .
O11 O 0.0999(9) 0.0784(5) 0.9570(3) 0.0517(19) Uani 1 1 d . . .
C41 C -0.4930(10) 0.7265(6) 0.6465(4) 0.032(2) Uani 1 1 d . . .
O10 O -0.1064(9) 0.4370(5) 0.5452(3) 0.054(2) Uani 1 1 d . . .
O4 O -0.6001(7) 0.4985(4) 0.7600(4) 0.060(2) Uani 1 1 d . . .
H4 H -0.6840 0.5232 0.7577 0.089 Uiso 1 1 calc R . .
O18 O -0.5998(9) 0.2872(4) 0.6957(3) 0.0474(18) Uani 1 1 d . . .
C38 C -0.6370(9) 0.5967(5) 0.5699(4) 0.0270(18) Uani 1 1 d . . .
O17 O -0.4552(12) 0.2066(5) 0.6352(4) 0.074(3) Uani 1 1 d . . .
O12 O -0.0368(14) 0.2116(6) 0.9657(4) 0.092(4) Uani 1 1 d . . .
C44 C -0.5442(9) 0.4598(6) 0.5587(4) 0.0281(19) Uani 1 1 d . . .
O9 O 0.0336(12) 0.3038(5) 0.5379(4) 0.076(3) Uani 1 1 d . . .
C53 C -0.3657(10) 0.9129(6) 0.9230(4) 0.031(2) Uani 1 1 d . . .
C40 C -0.5950(9) 0.6873(6) 0.6211(4) 0.030(2) Uani 1 1 d . . .
C58 C -0.5128(10) 0.8130(6) 0.8258(4) 0.035(2) Uani 1 1 d . . .
C54 C -0.2146(9) 0.8981(6) 0.9143(4) 0.035(2) Uani 1 1 d . . .
H54 H -0.1496 0.9168 0.9329 0.042 Uiso 1 1 calc R . .
C30 C 0.2450(9) -0.0338(6) 0.7128(4) 0.033(2) Uani 1 1 d . . .
H30 H 0.2832 -0.0778 0.7012 0.039 Uiso 1 1 calc R . .
C39 C -0.5417(9) 0.6328(6) 0.5938(4) 0.031(2) Uani 1 1 d . . .
H39 H -0.4392 0.6193 0.5909 0.037 Uiso 1 1 calc R . .
C15 C 0.0228(9) 0.2501(5) 0.6970(4) 0.031(2) Uani 1 1 d . . .
C37 C -0.7896(10) 0.6142(6) 0.5763(4) 0.030(2) Uani 1 1 d . . .
H37 H -0.8548 0.5887 0.5626 0.036 Uiso 1 1 calc R . .
C57 C -0.4087(9) 0.8417(6) 0.8580(4) 0.029(2) Uani 1 1 d . . .
C27 C 0.1342(9) 0.1042(5) 0.7408(4) 0.0263(18) Uani 1 1 d . . .
C62 C -0.4745(9) 0.9130(6) 1.0204(4) 0.032(2) Uani 1 1 d . . .
C43 C -0.5703(9) 0.5464(6) 0.5344(4) 0.029(2) Uani 1 1 d . . .
C35 C -0.7479(9) 0.7076(6) 0.6251(4) 0.0276(19) Uani 1 1 d . . .
H35 H -0.7854 0.7462 0.6421 0.033 Uiso 1 1 calc R . .
C10 C -0.0475(9) 0.3253(6) 0.7013(4) 0.032(2) Uani 1 1 d . . .
C31 C 0.0908(9) -0.0183(5) 0.7216(4) 0.0276(19) Uani 1 1 d . . .
C52 C -0.4616(9) 0.8839(6) 0.8950(4) 0.032(2) Uani 1 1 d . . .
H52 H -0.5641 0.8931 0.9015 0.038 Uiso 1 1 calc R . .
C61 C -0.4562(10) 1.0440(6) 0.9417(4) 0.033(2) Uani 1 1 d . . .
C49 C -0.4724(9) 0.4151(5) 0.5238(4) 0.0270(19) Uani 1 1 d . . .
C34 C -0.0112(9) -0.0749(5) 0.7139(4) 0.029(2) Uani 1 1 d . . .
C60 C -0.4315(9) 0.9584(6) 0.9633(4) 0.032(2) Uani 1 1 d . . .
C16 C 0.0681(9) 0.1840(5) 0.7475(4) 0.0291(19) Uani 1 1 d . . .
C1 C -0.2453(10) 0.5689(5) 0.7664(4) 0.034(2) Uani 1 1 d . . .
H1 H -0.2822 0.6195 0.7693 0.041 Uiso 1 1 calc R . .
C17 C 0.0414(9) 0.1937(5) 0.8015(4) 0.030(2) Uani 1 1 d . . .
C56 C -0.2558(10) 0.8277(6) 0.8497(4) 0.037(2) Uani 1 1 d . . .
H56 H -0.2181 0.7995 0.8250 0.044 Uiso 1 1 calc R . .
C32 C 0.0377(9) 0.0521(5) 0.7340(4) 0.0282(19) Uani 1 1 d . . .
H32 H -0.0648 0.0649 0.7379 0.034 Uiso 1 1 calc R . .
C6 C -0.0938(9) 0.5497(5) 0.7620(4) 0.0287(19) Uani 1 1 d . . .
C28 C 0.2853(9) 0.0856(5) 0.7353(4) 0.030(2) Uani 1 1 d . . .
H28 H 0.3503 0.1193 0.7407 0.036 Uiso 1 1 calc R . .
C22 C -0.0279(10) 0.2687(6) 0.8061(4) 0.036(2) Uani 1 1 d . . .
C74 C -0.1385(9) 0.4154(5) 0.7606(4) 0.030(2) Uani 1 1 d . . .
C9 C -0.0719(9) 0.3343(5) 0.7561(4) 0.031(2) Uani 1 1 d . . .
C5 C -0.0404(9) 0.4719(5) 0.7597(4) 0.0291(19) Uani 1 1 d . . .
H5 H 0.0621 0.4576 0.7575 0.035 Uiso 1 1 calc R . .
C36 C -0.8455(9) 0.6707(5) 0.6038(4) 0.029(2) Uani 1 1 d . . .
C12 C -0.0676(12) 0.3801(6) 0.5974(5) 0.042(2) Uani 1 1 d . . .
C45 C -0.5895(10) 0.4167(6) 0.6175(4) 0.032(2) Uani 1 1 d . . .
H45 H -0.6388 0.4457 0.6401 0.039 Uiso 1 1 calc R . .
C13 C 0.0056(14) 0.3055(6) 0.5931(5) 0.049(3) Uani 1 1 d . . .
C65 C -0.5651(12) 0.8262(7) 1.1350(5) 0.044(3) Uani 1 1 d . . .
C46 C -0.5612(11) 0.3344(6) 0.6402(4) 0.038(2) Uani 1 1 d . . .
C14 C 0.0512(11) 0.2427(6) 0.6416(4) 0.040(2) Uani 1 1 d . . .
H14 H 0.1014 0.1947 0.6381 0.048 Uiso 1 1 calc R . .
C48 C -0.4420(11) 0.3268(6) 0.5503(4) 0.037(2) Uani 1 1 d . . .
H48 H -0.3934 0.2962 0.5287 0.044 Uiso 1 1 calc R . .
C66 C -0.5889(10) 0.9090(6) 1.1153(4) 0.032(2) Uani 1 1 d . . .
H66 H -0.6359 0.9356 1.1398 0.039 Uiso 1 1 calc R . .
C50 C -0.354(3) 0.1627(9) 0.6070(7) 0.125(9) Uani 1 1 d . . .
H50A H -0.3991 0.1597 0.5742 0.188 Uiso 1 1 calc R . .
H50B H -0.3285 0.1083 0.6331 0.188 Uiso 1 1 calc R . .
H50C H -0.2649 0.1903 0.5943 0.188 Uiso 1 1 calc R . .
C18 C 0.0859(10) 0.1291(6) 0.8537(4) 0.036(2) Uani 1 1 d . . .
H18 H 0.1332 0.0801 0.8510 0.043 Uiso 1 1 calc R . .
C3 C -0.2888(10) 0.4355(6) 0.7642(5) 0.036(2) Uani 1 1 d . . .
H3 H -0.3544 0.3980 0.7650 0.043 Uiso 1 1 calc R . .
C63 C -0.4502(12) 0.8259(6) 1.0445(5) 0.044(3) Uani 1 1 d . . .
H63 H -0.4034 0.7970 1.0214 0.053 Uiso 1 1 calc R . .
C33 C 0.5038(9) -0.0083(5) 0.7139(4) 0.031(2) Uani 1 1 d . . .
C51 C -0.6700(12) 0.3284(7) 0.7326(5) 0.046(3) Uani 1 1 d . . .
H51A H -0.7643 0.3559 0.7179 0.069 Uiso 1 1 calc R . .
H51B H -0.6074 0.3679 0.7345 0.069 Uiso 1 1 calc R . .
H51C H -0.6858 0.2895 0.7705 0.069 Uiso 1 1 calc R . .
C29 C 0.3416(9) 0.0168(5) 0.7216(4) 0.030(2) Uani 1 1 d . . .
C20 C -0.0100(15) 0.2102(8) 0.9112(5) 0.057(3) Uani 1 1 d . . .
C19 C 0.0622(12) 0.1364(7) 0.9059(5) 0.046(3) Uani 1 1 d . . .
C2 C -0.3449(10) 0.5137(6) 0.7667(5) 0.037(2) Uani 1 1 d . . .
C24 C 0.1646(12) 0.0015(6) 0.9552(5) 0.045(2) Uani 1 1 d . . .
H24A H 0.1012 -0.0191 0.9354 0.067 Uiso 1 1 calc R . .
H24B H 0.1759 -0.0362 0.9937 0.067 Uiso 1 1 calc R . .
H24C H 0.2607 0.0076 0.9351 0.067 Uiso 1 1 calc R . .
C64 C -0.4925(14) 0.7841(7) 1.0991(5) 0.053(3) Uani 1 1 d . . .
C11 C -0.0914(10) 0.3893(6) 0.6491(4) 0.037(2) Uani 1 1 d . . .
H11 H -0.1378 0.4388 0.6512 0.045 Uiso 1 1 calc R . .
C55 C -0.1572(9) 0.8547(7) 0.8774(4) 0.036(2) Uani 1 1 d . . .
C59 C 0.0037(10) 0.8365(7) 0.8641(5) 0.045(3) Uani 1 1 d . . .
C25 C -0.1744(13) 0.5132(6) 0.5457(5) 0.051(3) Uani 1 1 d . . .
H25A H -0.1970 0.5476 0.5072 0.076 Uiso 1 1 calc R . .
H25B H -0.1078 0.5386 0.5608 0.076 Uiso 1 1 calc R . .
H25C H -0.2650 0.5056 0.5696 0.076 Uiso 1 1 calc R . .
C67 C -0.6726(12) 0.8143(7) 1.2289(5) 0.048(3) Uani 1 1 d . . .
H67A H -0.7630 0.8462 1.2133 0.072 Uiso 1 1 calc R . .
H67B H -0.6059 0.8495 1.2342 0.072 Uiso 1 1 calc R . .
H67C H -0.6955 0.7736 1.2654 0.072 Uiso 1 1 calc R . .
C21 C -0.0548(12) 0.2751(7) 0.8623(5) 0.046(3) Uani 1 1 d . . .
H21 H -0.1028 0.3233 0.8662 0.055 Uiso 1 1 calc R . .
C47 C -0.4839(12) 0.2885(6) 0.6064(5) 0.044(3) Uani 1 1 d . . .
C8 C -0.5054(10) 0.5427(6) 0.7693(5) 0.041(2) Uani 1 1 d . . .
C26 C 0.133(3) 0.2374(11) 0.5320(7) 0.132(10) Uani 1 1 d . . .
H26A H 0.1599 0.2474 0.4919 0.198 Uiso 1 1 calc R . .
H26B H 0.0850 0.1878 0.5476 0.198 Uiso 1 1 calc R . .
H26C H 0.2211 0.2322 0.5524 0.198 Uiso 1 1 calc R . .
C68 C -0.371(4) 0.6582(11) 1.0961(9) 0.194(16) Uani 1 1 d . . .
H68A H -0.4162 0.6568 1.0628 0.291 Uiso 1 1 calc R . .
H68B H -0.3476 0.6033 1.1216 0.291 Uiso 1 1 calc R . .
H68C H -0.2819 0.6854 1.0844 0.291 Uiso 1 1 calc R . .
O6 O 0.0452(7) -0.1366(4) 0.7026(3) 0.0388(16) Uani 1 1 d . . .
O2 O -0.0463(7) 0.6845(4) 0.7539(4) 0.0466(18) Uani 1 1 d . . .
O15 O -1.0989(7) 0.6425(4) 0.6119(3) 0.0439(18) Uani 1 1 d . . .
H15 H -1.1854 0.6599 0.6173 0.066 Uiso 1 1 calc R . .
O16 O -1.0497(7) 0.7614(5) 0.6178(4) 0.055(2) Uani 1 1 d . . .
O1 O 0.1464(7) 0.5911(4) 0.7621(4) 0.056(2) Uani 1 1 d . . .
O21 O 0.0429(8) 0.7903(7) 0.8386(5) 0.078(3) Uani 1 1 d . . .
C7 C 0.0104(10) 0.6122(6) 0.7586(4) 0.035(2) Uani 1 1 d . . .
C42 C -1.0076(9) 0.6968(6) 0.6119(4) 0.035(2) Uani 1 1 d . . .
C23 C -0.141(3) 0.2695(15) 0.9764(8) 0.183(15) Uani 1 1 d . . .
H23A H -0.2345 0.2674 0.9616 0.275 Uiso 1 1 calc R . .
H23B H -0.1077 0.3229 0.9578 0.275 Uiso 1 1 calc R . .
H23C H -0.1536 0.2586 1.0172 0.275 Uiso 1 1 calc R . .
O25 O -0.2509(18) 0.9319(9) 0.5805(6) 0.151(5) Uani 1 1 d U . .
C73 C -0.150(3) 1.0848(19) 0.5058(15) 0.214(15) Uani 1 1 d U . .
H73A H -0.1277 1.0613 0.5457 0.320 Uiso 1 1 calc R . .
H73B H -0.2144 1.1349 0.4997 0.320 Uiso 1 1 calc R . .
H73C H -0.0595 1.0961 0.4825 0.320 Uiso 1 1 calc R . .
N1 N -0.2211(18) 1.0309(10) 0.4906(8) 0.168(6) Uani 1 1 d GU . .
C71 C -0.266(2) 0.9581(12) 0.5332(5) 0.157(6) Uani 1 1 d GU . .
C70 C -0.339(2) 0.9156(9) 0.5053(9) 0.180(7) Uani 1 1 d GU . .
H70A H -0.2866 0.8616 0.5112 0.216 Uiso 1 1 calc R . .
H70B H -0.4405 0.9090 0.5211 0.216 Uiso 1 1 calc R . .
C69 C -0.339(2) 0.9621(13) 0.4456(8) 0.190(7) Uani 1 1 d GU . .
H69A H -0.4405 0.9774 0.4333 0.229 Uiso 1 1 calc R . .
H69B H -0.2865 0.9300 0.4234 0.229 Uiso 1 1 calc R . .
C72 C -0.266(2) 1.0334(11) 0.4365(6) 0.185(7) Uani 1 1 d GU . .
H72A H -0.1797 1.0347 0.4101 0.222 Uiso 1 1 calc R . .
H72B H -0.3336 1.0821 0.4200 0.222 Uiso 1 1 calc R . .

loop_
_atom_site_aniso_label
_atom_site_aniso_U_11
_atom_site_aniso_U_22
_atom_site_aniso_U_33
_atom_site_aniso_U_23
_atom_site_aniso_U_13
_atom_site_aniso_U_12
Ba1 0.0162(3) 0.0318(3) 0.0462(3) -0.0252(3) -0.0008(2) 0.0017(2)
Ba2 0.0158(3) 0.0323(3) 0.0491(4) -0.0256(3) -0.0004(2) 0.0021(2)
O19 0.028(4) 0.068(5) 0.055(4) -0.046(4) 0.001(3) -0.008(3)
O13 0.013(3) 0.078(5) 0.085(5) -0.064(5) 0.000(3) -0.002(3)
O20 0.015(3) 0.098(6) 0.084(6) -0.067(5) 0.000(3) -0.004(4)
O14 0.021(3) 0.057(4) 0.055(4) -0.043(4) 0.001(3) -0.002(3)
O8 0.017(3) 0.037(4) 0.080(5) -0.039(4) -0.004(3) 0.004(3)
O22 0.022(4) 0.095(6) 0.074(5) -0.063(5) -0.003(3) -0.008(4)
O5 0.012(3) 0.045(4) 0.118(7) -0.054(4) 0.000(3) -0.003(3)
O24 0.057(5) 0.057(5) 0.050(5) -0.022(4) 0.012(4) -0.009(4)
O3 0.022(4) 0.057(5) 0.221(12) -0.093(7) -0.017(5) 0.008(4)
O23 0.139(10) 0.045(5) 0.081(7) -0.027(5) 0.042(6) 0.008(6)
O7 0.018(3) 0.067(5) 0.095(6) -0.057(5) -0.003(3) 0.006(3)
O11 0.060(5) 0.048(4) 0.050(5) -0.023(4) -0.012(4) 0.010(4)
C41 0.022(5) 0.048(6) 0.039(5) -0.031(5) 0.004(4) -0.005(4)
O10 0.067(5) 0.043(4) 0.054(5) -0.023(4) -0.019(4) 0.015(4)
O4 0.017(3) 0.036(4) 0.144(8) -0.053(5) -0.009(4) 0.000(3)
O18 0.062(5) 0.043(4) 0.037(4) -0.018(3) 0.020(3) -0.010(4)
C38 0.023(4) 0.025(4) 0.039(5) -0.018(4) -0.002(4) -0.001(3)
O17 0.119(8) 0.034(4) 0.063(5) -0.023(4) 0.039(5) 0.009(5)
O12 0.141(10) 0.075(7) 0.054(5) -0.034(5) -0.013(6) 0.052(7)
C44 0.016(4) 0.042(5) 0.034(5) -0.025(4) 0.002(3) 0.006(4)
O9 0.121(8) 0.050(5) 0.051(5) -0.022(4) -0.020(5) 0.044(5)
C53 0.024(4) 0.037(5) 0.041(5) -0.026(4) -0.002(4) -0.005(4)
C40 0.014(4) 0.039(5) 0.046(5) -0.026(4) 0.000(4) -0.001(4)
C58 0.020(5) 0.051(6) 0.044(6) -0.031(5) 0.002(4) -0.004(4)
C54 0.011(4) 0.058(6) 0.051(6) -0.038(5) 0.001(4) -0.004(4)
C30 0.019(4) 0.033(5) 0.053(6) -0.025(4) -0.002(4) 0.000(4)
C39 0.013(4) 0.039(5) 0.048(6) -0.025(4) -0.005(4) 0.007(4)
C15 0.020(4) 0.022(4) 0.057(6) -0.023(4) -0.008(4) 0.003(3)
C37 0.024(4) 0.036(5) 0.040(5) -0.024(4) 0.003(4) -0.009(4)
C57 0.018(4) 0.041(5) 0.040(5) -0.028(4) 0.001(4) -0.001(4)
C27 0.023(4) 0.024(4) 0.036(5) -0.016(4) 0.000(4) -0.003(3)
C62 0.019(4) 0.045(5) 0.048(6) -0.037(5) 0.005(4) -0.003(4)
C43 0.011(4) 0.043(5) 0.039(5) -0.026(4) 0.000(3) 0.006(4)
C35 0.019(4) 0.041(5) 0.035(5) -0.030(4) 0.000(3) 0.001(4)
C10 0.016(4) 0.041(5) 0.048(6) -0.025(5) -0.005(4) -0.002(4)
C31 0.01