
#######################################################################
#
#                 Cambridge Crystallographic Data Centre
#                                CCDC
#
#######################################################################
#
# If this CIF has been generated from an entry in the Cambridge
# Structural Database, then it will include bibliographic, chemical,
# crystal, experimental, refinement or atomic coordinate data resulting
# from the CCDC's data processing and validation procedures.
#
#######################################################################

data_CSD_CIF_JUTGEK
_audit_creation_date 1993-08-17
_audit_creation_method CSD-ConQuest-V1
_database_code_CSD JUTGEK
_database_code_depnum_ccdc_archive 'CCDC 1191237'
_chemical_formula_sum 'C2 H4 N2 O4'
_chemical_formula_moiety
;
C2 H4 N2 O4
;
_journal_coden_Cambridge 188
_journal_year 1993
_journal_page_first 175
_journal_name_full 'J.Chem.Soc.,Perkin Trans.2 '
loop_
_publ_author_name
"Yu-Lin Lam"
"Lip Lin Koh"
"Hsing Hua Huang"
_chemical_name_systematic
;
1,2-Dinitroethane
;
_chemical_name_common
;
Teaching Subset: Fundamental Chemistry, Symmetry
;
_chemical_melting_point 312
_cell_volume   1968.673
_exptl_crystal_density_diffrn 1.62
_exptl_special_details
;
Melting point range 312-312.5K

;
_diffrn_ambient_temperature ?
_diffrn_special_details
;
The study was carried out at room temperature,in the range 283-303K

;
#These two values have been output from a single CSD field.
_refine_ls_R_factor_gt 0.033
_refine_ls_wR_factor_gt 0.033
_symmetry_cell_setting tetragonal
_symmetry_space_group_name_H-M 'I 41/a'
_symmetry_Int_Tables_number 88
loop_
_symmetry_equiv_pos_site_id
_symmetry_equiv_pos_as_xyz
1 x,y,z
2 1/2+x,1/2+y,1/2+z
3 3/4-y,1/4+x,1/4+z
4 1/4-y,3/4+x,3/4+z
5 1/2-x,-y,1/2+z
6 -x,1/2-y,z
7 3/4+y,3/4-x,3/4+z
8 1/4+y,1/4-x,1/4+z
9 -x,-y,-z
10 -1/2-x,-1/2-y,-1/2-z
11 -3/4+y,-1/4-x,-1/4-z
12 -1/4+y,-3/4-x,-3/4-z
13 -1/2+x,y,-1/2-z
14 x,-1/2+y,-z
15 -3/4-y,-3/4+x,-3/4-z
16 -1/4-y,-1/4+x,-1/4-z
_cell_length_a 13.305(1)
_cell_length_b 13.305(1)
_cell_length_c 11.121(3)
_cell_angle_alpha 90
_cell_angle_beta 90
_cell_angle_gamma 90
_cell_formula_units_Z 16
loop_
_atom_type_symbol
_atom_type_radius_bond
C 0.68
H 0.23
N 0.68
O 0.68
loop_
_atom_site_label
_atom_site_type_symbol
_atom_site_fract_x
_atom_site_fract_y
_atom_site_fract_z
N1 N 0.3715(1) 0.3032(1) 0.0669(1)
N2 N 0.2446(1) 0.1062(1) 0.0438(1)
O1 O 0.3666(1) 0.2727(1) 0.1692(1)
O2 O 0.4401(1) 0.3542(1) 0.0300(2)
O3 O 0.1824(1) 0.0458(1) 0.0783(2)
O4 O 0.3311(1) 0.0840(1) 0.0204(2)
C1 C 0.2890(2) 0.2797(2) -0.0200(2)
C2 C 0.2106(2) 0.2124(2) 0.0311(2)
H1 H 0.2616(20) 0.3473(21) -0.0377(22)
H2 H 0.3213(20) 0.2524(19) -0.0912(27)
H3 H 0.1509(22) 0.2115(18) -0.0205(26)
H4 H 0.1894(20) 0.2337(19) 0.1090(27)
#END
