####################################################################### 
# 
# This file contains crystal structure data downloaded from the 
# Cambridge Structural Database (CSD) hosted by the Cambridge 
# Crystallographic Data Centre (CCDC).
# 
# Full information about CCDC data access policies and citation 
# guidelines are available at http://www.ccdc.cam.ac.uk/access/V1 
# 
# Audit and citation data items may have been added by the CCDC. 
# Please retain this information to preserve the provenance of 
# this file and to allow appropriate attribution of the data. 
# 
#######################################################################

data_091008f
_audit_block_doi                 10.5517/cct5xnj
_database_code_depnum_ccdc_archive 'CCDC 750468'
loop_
_citation_id
_citation_doi
_citation_year
1 10.1016/j.inoche.2010.03.027 2010
_audit_update_record             
;
2009-10-09 deposited with the CCDC.	2024-07-10 downloaded from the CCDC.
;
#TrackingRef '091008f.cif'


_audit_creation_method           SHELXL-97
_chemical_name_systematic        
;
?
;
_chemical_name_common            ?
_chemical_melting_point          ?
_chemical_formula_moiety         ?
_chemical_formula_sum            'C66 H74 Cl4 Cu2 N14 O24'
_chemical_formula_weight         1716.27

loop_
_atom_type_symbol
_atom_type_description
_atom_type_scat_dispersion_real
_atom_type_scat_dispersion_imag
_atom_type_scat_source
C C 0.0033 0.0016 'International Tables Vol C Tables 4.2.6.8 and 6.1.1.4'
H H 0.0000 0.0000 'International Tables Vol C Tables 4.2.6.8 and 6.1.1.4'
O O 0.0106 0.0060 'International Tables Vol C Tables 4.2.6.8 and 6.1.1.4'
N N 0.0061 0.0033 'International Tables Vol C Tables 4.2.6.8 and 6.1.1.4'
Cl Cl 0.1484 0.1585 'International Tables Vol C Tables 4.2.6.8 and 6.1.1.4'
Cu Cu 0.3201 1.2651 'International Tables Vol C Tables 4.2.6.8 and 6.1.1.4'

_symmetry_cell_setting           Monoclinic
_symmetry_space_group_name_H-M   P2(1)/c

loop_
_symmetry_equiv_pos_as_xyz
'x, y, z'
'-x, y+1/2, -z+1/2'
'-x, -y, -z'
'x, -y-1/2, z-1/2'

_cell_length_a                   20.680(2)
_cell_length_b                   8.1439(11)
_cell_length_c                   45.837(4)
_cell_angle_alpha                90.00
_cell_angle_beta                 94.957(2)
_cell_angle_gamma                90.00
_cell_volume                     7691.0(15)
_cell_formula_units_Z            4
_cell_measurement_temperature    298(2)
_cell_measurement_reflns_used    6033
_cell_measurement_theta_min      2.546
_cell_measurement_theta_max      25.836

_exptl_crystal_description       ?
_exptl_crystal_colour            ?
_exptl_crystal_size_max          0.43
_exptl_crystal_size_mid          0.35
_exptl_crystal_size_min          0.32
_exptl_crystal_density_meas      0
_exptl_crystal_density_diffrn    1.482
_exptl_crystal_density_method    'not measured'
_exptl_crystal_F_000             3544
_exptl_absorpt_coefficient_mu    0.777
_exptl_absorpt_correction_type   multi-scan
_exptl_absorpt_correction_T_min  0.7312
_exptl_absorpt_correction_T_max  0.7892
_exptl_absorpt_process_details   sadabs

_exptl_special_details           
;
?
;

_diffrn_ambient_temperature      298(2)
_diffrn_radiation_wavelength     0.71073
_diffrn_radiation_type           MoK\a
_diffrn_radiation_source         'fine-focus sealed tube'
_diffrn_radiation_monochromator  graphite
_diffrn_measurement_device_type  'CCD area detector'
_diffrn_measurement_method       'phi and omega scans'
_diffrn_detector_area_resol_mean ?
_diffrn_standards_number         ?
_diffrn_standards_interval_count ?
_diffrn_standards_interval_time  ?
_diffrn_standards_decay_%        ?
_diffrn_reflns_number            37355
_diffrn_reflns_av_R_equivalents  0.0682
_diffrn_reflns_av_sigmaI/netI    0.0937
_diffrn_reflns_limit_h_min       -17
_diffrn_reflns_limit_h_max       24
_diffrn_reflns_limit_k_min       -9
_diffrn_reflns_limit_k_max       9
_diffrn_reflns_limit_l_min       -54
_diffrn_reflns_limit_l_max       50
_diffrn_reflns_theta_min         1.39
_diffrn_reflns_theta_max         25.02
_reflns_number_total             13530
_reflns_number_gt                7519
_reflns_threshold_expression     >2sigma(I)

_computing_data_collection       'Bruker SMART'
_computing_cell_refinement       'Bruker SMART'
_computing_data_reduction        'Bruker SAINT'
_computing_structure_solution    'SHELXS-97 (Sheldrick, 1990)'
_computing_structure_refinement  'SHELXL-97 (Sheldrick, 1997)'
_computing_molecular_graphics    'Bruker SHELXTL'
_computing_publication_material  'Bruker SHELXTL'

_refine_special_details          
;
Refinement of F^2^ against ALL reflections. The weighted R-factor wR and
goodness of fit S are based on F^2^, conventional R-factors R are based
on F, with F set to zero for negative F^2^. The threshold expression of
F^2^ > 2sigma(F^2^) is used only for calculating R-factors(gt) etc. and is
not relevant to the choice of reflections for refinement. R-factors based
on F^2^ are statistically about twice as large as those based on F, and R-
factors based on ALL data will be even larger.
;

_refine_ls_structure_factor_coef Fsqd
_refine_ls_matrix_type           full
_refine_ls_weighting_scheme      calc
_refine_ls_weighting_details     
'calc w=1/[\s^2^(Fo^2^)+(0.1623P)^2^+35.4507P] where P=(Fo^2^+2Fc^2^)/3'
_atom_sites_solution_primary     direct
_atom_sites_solution_secondary   difmap
_atom_sites_solution_hydrogens   geom
_refine_ls_hydrogen_treatment    mixed
_refine_ls_extinction_method     none
_refine_ls_extinction_coef       ?
_refine_ls_number_reflns         13530
_refine_ls_number_parameters     1004
_refine_ls_number_restraints     0
_refine_ls_R_factor_all          0.1649
_refine_ls_R_factor_gt           0.1043
_refine_ls_wR_factor_ref         0.3210
_refine_ls_wR_factor_gt          0.2734
_refine_ls_goodness_of_fit_ref   1.030
_refine_ls_restrained_S_all      1.030
_refine_ls_shift/su_max          0.001
_refine_ls_shift/su_mean         0.000

loop_
_atom_site_label
_atom_site_type_symbol
_atom_site_fract_x
_atom_site_fract_y
_atom_site_fract_z
_atom_site_U_iso_or_equiv
_atom_site_adp_type
_atom_site_occupancy
_atom_site_symmetry_multiplicity
_atom_site_calc_flag
_atom_site_refinement_flags
_atom_site_disorder_assembly
_atom_site_disorder_group
Cu1 Cu 0.26252(4) 0.94172(14) 0.123634(19) 0.0340(3) Uani 1 1 d . . .
Cu2 Cu 0.24650(4) 1.00507(15) 0.36499(2) 0.0382(3) Uani 1 1 d . . .
Cl1 Cl 0.14199(16) 0.4051(4) 0.18685(7) 0.0742(9) Uani 1 1 d . . .
Cl2 Cl 0.36852(17) 0.4323(5) 0.29617(7) 0.0791(9) Uani 1 1 d . . .
Cl3 Cl 0.49520(15) 0.2340(6) 0.41530(8) 0.0903(11) Uani 1 1 d . . .
Cl4 Cl 0.0533(2) 0.7100(7) 0.42405(11) 0.1115(15) Uani 1 1 d . . .
N1 N 0.2643(3) 0.9463(9) 0.16771(14) 0.0316(15) Uani 1 1 d . . .
N2 N 0.2427(3) 0.9903(10) 0.32076(14) 0.0386(18) Uani 1 1 d . . .
N3 N 0.3518(3) 1.0497(9) 0.12730(14) 0.0354(17) Uani 1 1 d . . .
N4 N 0.3378(3) 0.9066(10) 0.36626(13) 0.0365(17) Uani 1 1 d . . .
N5 N 0.1682(3) 0.8633(9) 0.12247(13) 0.0301(15) Uani 1 1 d . . .
N6 N 0.1545(3) 1.1005(10) 0.36319(14) 0.0390(18) Uani 1 1 d . . .
N7 N 0.2630(3) 0.9471(8) 0.07961(13) 0.0305(15) Uani 1 1 d . . .
N8 N 0.2907(6) 1.0321(15) -0.0733(2) 0.086(3) Uani 1 1 d . . .
N9 N 0.2556(3) 1.0149(9) 0.40952(14) 0.0368(17) Uani 1 1 d . . .
N10 N 0.3026(5) 0.9945(13) 0.56477(19) 0.070(3) Uani 1 1 d . . .
N11 N 0.0111(6) 0.2328(18) 0.4770(3) 0.101(4) Uani 1 1 d . . .
N12 N 0.4480(10) 0.485(3) 0.2074(4) 0.133(6) Uani 1 1 d . . .
N13 N 0.8714(12) 1.100(3) 0.1779(4) 0.172(8) Uani 1 1 d . . .
N14 N 1.0988(10) 0.721(3) 0.2802(5) 0.171(8) Uani 1 1 d . . .
O1 O 0.1071(5) 0.5536(13) 0.1884(2) 0.103(3) Uani 1 1 d . . .
O2 O 0.1003(6) 0.2999(16) 0.1703(3) 0.149(5) Uani 1 1 d . . .
O3 O 0.1983(4) 0.4279(12) 0.1710(2) 0.096(3) Uani 1 1 d . . .
O4 O 0.1593(7) 0.354(2) 0.2156(3) 0.166(6) Uani 1 1 d . . .
O5 O 0.3186(6) 0.4643(15) 0.3140(3) 0.130(4) Uani 1 1 d . . .
O6 O 0.3415(8) 0.430(2) 0.2671(3) 0.170(6) Uani 1 1 d . . .
O7 O 0.4105(6) 0.5682(19) 0.2964(3) 0.161(6) Uani 1 1 d . . .
O8 O 0.3959(8) 0.298(2) 0.3064(4) 0.204(8) Uani 1 1 d . . .
O9 O 0.4413(4) 0.2865(13) 0.3978(2) 0.106(3) Uani 1 1 d . . .
O10 O 0.4750(5) 0.087(2) 0.4286(3) 0.153(5) Uani 1 1 d . . .
O11 O 0.5179(6) 0.382(2) 0.4300(3) 0.165(6) Uani 1 1 d . . .
O12 O 0.5461(4) 0.1787(13) 0.3985(2) 0.105(3) Uani 1 1 d . . .
O13 O 0.0324(9) 0.871(2) 0.4229(4) 0.187(7) Uani 1 1 d . . .
O14 O -0.0002(6) 0.616(2) 0.4232(3) 0.167(6) Uani 1 1 d . . .
O15 O 0.0822(7) 0.733(2) 0.4525(4) 0.186(7) Uani 1 1 d . . .
O16 O 0.0980(6) 0.6654(17) 0.4049(3) 0.153(5) Uani 1 1 d . . .
O17 O 0.3014(3) 0.6692(8) 0.12267(12) 0.0434(15) Uani 1 1 d . . .
H17D H 0.3247 0.6236 0.1366 0.052 Uiso 1 1 d R . .
H17E H 0.3047 0.6142 0.1071 0.052 Uiso 1 1 d R . .
O18 O 0.2888(3) 1.2943(9) 0.36688(14) 0.0536(17) Uani 1 1 d . . .
H18C H 0.2981 1.3546 0.3527 0.064 Uiso 1 1 d R . .
H18D H 0.2905 1.3525 0.3823 0.064 Uiso 1 1 d R . .
O19 O 0.2024(3) 0.7175(10) 0.36805(14) 0.063(2) Uani 1 1 d . . .
H19B H 0.1816 0.7093 0.3832 0.095 Uiso 1 1 d R . .
H19C H 0.1770 0.6979 0.3529 0.095 Uiso 1 1 d R . .
O20 O 0.0960(5) 0.2083(18) 0.5114(3) 0.136(5) Uani 1 1 d . . .
O21 O 0.3729(8) 0.549(2) 0.1726(3) 0.160(6) Uani 1 1 d . . .
O22 O 0.2149(3) 1.2575(9) 0.11691(15) 0.0569(18) Uani 1 1 d . . .
H22C H 0.2084 1.3095 0.1325 0.068 Uiso 1 1 d R . .
H22D H 0.1842 1.2796 0.1040 0.068 Uiso 1 1 d R . .
O23 O 0.8832(5) 0.8222(13) 0.4275(2) 0.107(3) Uani 1 1 d . . .
H23C H 0.9153 0.7651 0.4230 0.128 Uiso 1 1 d R . .
H23D H 0.8835 0.8232 0.4460 0.128 Uiso 1 1 d R . .
O24 O 0.4775(11) 0.897(4) 0.4794(5) 0.145(9) Uani 0.50 1 d P . .
H24D H 0.4744 0.9391 0.4624 0.174 Uiso 0.50 1 d PR . .
H24C H 0.4848 0.7947 0.4779 0.174 Uiso 0.25 1 d PR A 1
H24A H 0.5082 0.9422 0.4901 0.174 Uiso 0.25 1 d PR B 2
O25 O 0.5208(14) 0.592(4) 0.4791(7) 0.194(13) Uani 0.50 1 d P . .
H25D H 0.5211 0.5513 0.4621 0.233 Uiso 0.50 1 d PR . .
H25A H 0.4921 0.5451 0.4884 0.233 Uiso 0.25 1 d PR C 1
H25C H 0.5132 0.6942 0.4776 0.233 Uiso 0.25 1 d PR D 2
C1 C 0.2492(4) 0.8132(12) 0.18296(17) 0.042(2) Uani 1 1 d . . .
H1 H 0.2402 0.7149 0.1731 0.050 Uiso 1 1 calc R . .
C2 C 0.2467(4) 0.8188(13) 0.21297(18) 0.046(2) Uani 1 1 d . . .
H2 H 0.2369 0.7238 0.2230 0.056 Uiso 1 1 calc R . .
C3 C 0.2584(4) 0.9631(11) 0.22845(17) 0.038(2) Uani 1 1 d . . .
C4 C 0.2737(4) 1.0989(12) 0.21220(18) 0.044(2) Uani 1 1 d . . .
H4 H 0.2818 1.1993 0.2215 0.053 Uiso 1 1 calc R . .
C5 C 0.2768(4) 1.0861(12) 0.18264(18) 0.042(2) Uani 1 1 d . . .
H5 H 0.2882 1.1788 0.1724 0.051 Uiso 1 1 calc R . .
C6 C 0.2248(4) 1.1153(12) 0.30316(17) 0.044(2) Uani 1 1 d . . .
H6 H 0.2086 1.2094 0.3114 0.053 Uiso 1 1 calc R . .
C7 C 0.2290(5) 1.1125(12) 0.27350(17) 0.047(2) Uani 1 1 d . . .
H7 H 0.2165 1.2038 0.2622 0.057 Uiso 1 1 calc R . .
C8 C 0.2520(4) 0.9722(12) 0.26022(17) 0.040(2) Uani 1 1 d . . .
C9 C 0.2697(4) 0.8409(12) 0.27832(18) 0.045(2) Uani 1 1 d . . .
H9 H 0.2851 0.7443 0.2706 0.054 Uiso 1 1 calc R . .
C10 C 0.2642(4) 0.8548(13) 0.30783(18) 0.045(2) Uani 1 1 d . . .
H10 H 0.2762 0.7650 0.3196 0.054 Uiso 1 1 calc R . .
C11 C 0.3608(4) 1.2001(12) 0.11700(19) 0.043(2) Uani 1 1 d . . .
H11 H 0.3253 1.2568 0.1081 0.052 Uiso 1 1 calc R . .
C12 C 0.4210(4) 1.2750(12) 0.1190(2) 0.045(2) Uani 1 1 d . . .
H12 H 0.4254 1.3807 0.1118 0.054 Uiso 1 1 calc R . .
C13 C 0.4743(4) 1.1927(12) 0.13177(18) 0.041(2) Uani 1 1 d . . .
C14 C 0.4644(4) 1.0385(12) 0.14270(19) 0.044(2) Uani 1 1 d . . .
H14 H 0.4994 0.9801 0.1516 0.053 Uiso 1 1 calc R . .
C15 C 0.4034(4) 0.9693(12) 0.14061(19) 0.045(2) Uani 1 1 d . . .
H15 H 0.3976 0.8656 0.1485 0.054 Uiso 1 1 calc R . .
C16 C 0.3862(4) 0.9904(13) 0.35574(19) 0.046(2) Uani 1 1 d . . .
H16 H 0.3779 1.0936 0.3476 0.055 Uiso 1 1 calc R . .
C17 C 0.4481(4) 0.9273(13) 0.35668(19) 0.045(2) Uani 1 1 d . . .
H17A H 0.4817 0.9908 0.3504 0.054 Uiso 1 1 calc R . .
C18 C 0.4604(4) 0.7694(12) 0.36692(19) 0.041(2) Uani 1 1 d . . .
C19 C 0.4088(4) 0.6838(13) 0.3771(2) 0.047(2) Uani 1 1 d . . .
H19 H 0.4147 0.5772 0.3841 0.057 Uiso 1 1 calc R . .
C20 C 0.3490(4) 0.7573(13) 0.3769(2) 0.049(2) Uani 1 1 d . . .
H20 H 0.3152 0.7003 0.3845 0.059 Uiso 1 1 calc R . .
C21 C 0.1232(4) 0.9594(12) 0.1320(2) 0.048(2) Uani 1 1 d . . .
H21 H 0.1351 1.0660 0.1374 0.058 Uiso 1 1 calc R . .
C22 C 0.0612(4) 0.9143(13) 0.1345(2) 0.050(2) Uani 1 1 d . . .
H22 H 0.0318 0.9910 0.1405 0.060 Uiso 1 1 calc R . .
C23 C 0.0412(4) 0.7584(11) 0.12849(17) 0.0322(19) Uani 1 1 d . . .
C24 C 0.0871(4) 0.6565(12) 0.1186(2) 0.045(2) Uani 1 1 d . . .
H24 H 0.0761 0.5491 0.1134 0.054 Uiso 1 1 calc R . .
C25 C 0.1492(4) 0.7113(12) 0.1164(2) 0.044(2) Uani 1 1 d . . .
H25 H 0.1795 0.6375 0.1102 0.053 Uiso 1 1 calc R . .
C26 C 0.1033(5) 1.0074(15) 0.3533(2) 0.064(3) Uani 1 1 d . . .
H26 H 0.1107 0.9066 0.3447 0.077 Uiso 1 1 calc R . .
C27 C 0.0406(5) 1.0567(14) 0.3556(3) 0.066(3) Uani 1 1 d . . .
H27 H 0.0067 0.9885 0.3486 0.079 Uiso 1 1 calc R . .
C28 C 0.0270(4) 1.2032(11) 0.36786(18) 0.037(2) Uani 1 1 d . . .
C29 C 0.0788(4) 1.3008(13) 0.3759(2) 0.053(3) Uani 1 1 d . . .
H29 H 0.0722 1.4056 0.3831 0.063 Uiso 1 1 calc R . .
C30 C 0.1410(4) 1.2451(13) 0.3734(2) 0.053(3) Uani 1 1 d . . .
H30 H 0.1754 1.3144 0.3794 0.063 Uiso 1 1 calc R . .
C31 C 0.2138(4) 1.0054(12) 0.06177(18) 0.042(2) Uani 1 1 d . . .
H31 H 0.1756 1.0350 0.0697 0.050 Uiso 1 1 calc R . .
C32 C 0.2175(5) 1.0232(13) 0.03206(19) 0.053(3) Uani 1 1 d . . .
H32 H 0.1821 1.0655 0.0206 0.063 Uiso 1 1 calc R . .
C33 C 0.2731(5) 0.9792(13) 0.01898(18) 0.048(2) Uani 1 1 d . . .
C34 C 0.3230(4) 0.9212(13) 0.03739(18) 0.048(2) Uani 1 1 d . . .
H34 H 0.3615 0.8903 0.0299 0.057 Uiso 1 1 calc R . .
C35 C 0.3172(4) 0.9076(12) 0.06713(17) 0.041(2) Uani 1 1 d . . .
H35 H 0.3526 0.8691 0.0791 0.049 Uiso 1 1 calc R . .
C36 C 0.2349(7) 1.0241(19) -0.0628(3) 0.090(4) Uani 1 1 d . . .
H36 H 0.1980 1.0255 -0.0759 0.109 Uiso 1 1 calc R . .
C37 C 0.2260(6) 1.0133(17) -0.0324(2) 0.077(4) Uani 1 1 d . . .
H37 H 0.1845 1.0167 -0.0260 0.092 Uiso 1 1 calc R . .
C38 C 0.2781(5) 0.9983(14) -0.0129(2) 0.057(3) Uani 1 1 d . . .
C39 C 0.3370(6) 0.9967(17) -0.0254(2) 0.076(4) Uani 1 1 d . . .
H39 H 0.3752 0.9818 -0.0135 0.091 Uiso 1 1 calc R . .
C40 C 0.3396(7) 1.0165(19) -0.0547(3) 0.088(4) Uani 1 1 d . . .
H40 H 0.3805 1.0188 -0.0617 0.106 Uiso 1 1 calc R . .
C41 C 0.2080(4) 0.9661(14) 0.42618(19) 0.052(3) Uani 1 1 d . . .
H41 H 0.1685 0.9327 0.4168 0.062 Uiso 1 1 calc R . .
C42 C 0.2152(5) 0.9636(14) 0.45612(19) 0.057(3) Uani 1 1 d . . .
H42 H 0.1810 0.9302 0.4666 0.069 Uiso 1 1 calc R . .
C43 C 0.2740(4) 1.0110(13) 0.47101(18) 0.047(2) Uani 1 1 d . . .
C44 C 0.3219(4) 1.0620(14) 0.45396(19) 0.053(3) Uani 1 1 d . . .
H44 H 0.3618 1.0964 0.4628 0.064 Uiso 1 1 calc R . .
C45 C 0.3110(4) 1.0622(13) 0.42402(18) 0.048(2) Uani 1 1 d . . .
H45 H 0.3443 1.0975 0.4132 0.058 Uiso 1 1 calc R . .
C46 C 0.3513(6) 1.0118(17) 0.5488(2) 0.078(4) Uani 1 1 d . . .
H46 H 0.3928 1.0199 0.5583 0.094 Uiso 1 1 calc R . .
C47 C 0.3449(6) 1.0191(17) 0.5181(2) 0.073(4) Uani 1 1 d . . .
H47 H 0.3813 1.0303 0.5077 0.088 Uiso 1 1 calc R . .
C48 C 0.2835(5) 1.0092(14) 0.50358(19) 0.052(3) Uani 1 1 d . . .
C49 C 0.2331(6) 0.9971(16) 0.5210(2) 0.069(3) Uani 1 1 d . . .
H49 H 0.1905 0.9966 0.5126 0.083 Uiso 1 1 calc R . .
C50 C 0.2459(6) 0.9854(16) 0.5514(2) 0.071(3) Uani 1 1 d . . .
H50 H 0.2109 0.9700 0.5625 0.085 Uiso 1 1 calc R . .
C51 C 0.9372(15) 1.110(3) 0.1741(5) 0.175(10) Uani 1 1 d . . .
H51 H 0.9508 1.1620 0.1576 0.210 Uiso 1 1 calc R . .
C52 C 0.9826(13) 1.044(4) 0.1949(6) 0.175(10) Uani 1 1 d . . .
H52 H 1.0267 1.0511 0.1923 0.209 Uiso 1 1 calc R . .
C53 C 0.9623(15) 0.967(4) 0.2196(6) 0.174(10) Uani 1 1 d . . .
C54 C 0.8965(15) 0.956(4) 0.2234(6) 0.177(10) Uani 1 1 d . . .
H54 H 0.8829 0.9050 0.2399 0.213 Uiso 1 1 calc R . .
C55 C 0.8510(14) 1.023(4) 0.2026(7) 0.177(11) Uani 1 1 d . . .
H55 H 0.8070 1.0159 0.2052 0.213 Uiso 1 1 calc R . .
C56 C 1.1095(13) 0.720(3) 0.2506(6) 0.176(10) Uani 1 1 d . . .
H56 H 1.1444 0.6624 0.2443 0.212 Uiso 1 1 calc R . .
C57 C 1.0681(12) 0.806(3) 0.2306(5) 0.174(10) Uani 1 1 d . . .
H57 H 1.0753 0.8061 0.2109 0.208 Uiso 1 1 calc R . .
C58 C 1.0160(11) 0.893(3) 0.2401(5) 0.149(8) Uani 1 1 d . . .
C59 C 1.0053(12) 0.894(3) 0.2697(5) 0.172(10) Uani 1 1 d . . .
H59 H 0.9704 0.9518 0.2760 0.207 Uiso 1 1 calc R . .
C60 C 1.0467(14) 0.808(4) 0.2897(6) 0.181(11) Uani 1 1 d . . .
H60 H 1.0395 0.8081 0.3094 0.217 Uiso 1 1 calc R . .
C61 C 0.0413(9) 0.221(3) 0.5032(4) 0.130(7) Uani 1 1 d . . .
H61 H 0.0137 0.2229 0.5182 0.156 Uiso 1 1 calc R . .
C62 C 0.0544(10) 0.217(3) 0.4549(5) 0.162(8) Uani 1 1 d . . .
H62A H 0.0958 0.1792 0.4634 0.243 Uiso 1 1 calc R . .
H62B H 0.0596 0.3217 0.4457 0.243 Uiso 1 1 calc R . .
H62C H 0.0372 0.1393 0.4405 0.243 Uiso 1 1 calc R . .
C63 C -0.0572(9) 0.258(3) 0.4696(4) 0.167(9) Uani 1 1 d . . .
H63A H -0.0810 0.1652 0.4758 0.251 Uiso 1 1 calc R . .
H63B H -0.0653 0.2714 0.4488 0.251 Uiso 1 1 calc R . .
H63C H -0.0710 0.3553 0.4792 0.251 Uiso 1 1 calc R . .
C64 C 0.4215(13) 0.589(4) 0.1883(6) 0.160(9) Uani 1 1 d . . .
H64 H 0.4393 0.6930 0.1866 0.192 Uiso 1 1 calc R . .
C65 C 0.4272(14) 0.310(4) 0.2088(6) 0.211(12) Uani 1 1 d . . .
H65A H 0.3991 0.2974 0.2243 0.317 Uiso 1 1 calc R . .
H65B H 0.4647 0.2415 0.2126 0.317 Uiso 1 1 calc R . .
H65C H 0.4044 0.2793 0.1905 0.317 Uiso 1 1 calc R . .
C66 C 0.5087(14) 0.511(4) 0.2258(5) 0.195(11) Uani 1 1 d . . .
H66A H 0.5304 0.6061 0.2191 0.293 Uiso 1 1 calc R . .
H66B H 0.5362 0.4165 0.2246 0.293 Uiso 1 1 calc R . .
H66C H 0.4992 0.5270 0.2457 0.293 Uiso 1 1 calc R . .

loop_
_atom_site_aniso_label
_atom_site_aniso_U_11
_atom_site_aniso_U_22
_atom_site_aniso_U_33
_atom_site_aniso_U_23
_atom_site_aniso_U_13
_atom_site_aniso_U_12
Cu1 0.0223(5) 0.0600(7) 0.0204(5) -0.0013(5) 0.0066(3) -0.0162(5)