####################################################################### 
# 
# This file contains crystal structure data downloaded from the 
# Cambridge Structural Database (CSD) hosted by the Cambridge 
# Crystallographic Data Centre (CCDC).
# 
# Full information about CCDC data access policies and citation 
# guidelines are available at http://www.ccdc.cam.ac.uk/access/V1 
# 
# Audit and citation data items may have been added by the CCDC. 
# Please retain this information to preserve the provenance of 
# this file and to allow appropriate attribution of the data. 
# 
#######################################################################

data_[BMIM]2[Cd2(SIP)2]
_audit_block_doi                 10.5517/cctdwmp
_database_code_depnum_ccdc_archive 'CCDC 757163'
loop_
_citation_id
_citation_doi
_citation_year
1 10.1016/j.inoche.2010.03.024 2010
_audit_update_record             
;
2009-12-07 deposited with the CCDC.	2024-07-10 downloaded from the CCDC.
;

_audit_creation_method           SHELXL-97
_chemical_name_systematic        
;
?
;
_chemical_name_common            ?
_chemical_melting_point          ?
_chemical_formula_moiety         ?
_chemical_formula_sum            'C32 H36 Cd2 N4 O14 S2'
_chemical_formula_weight         989.57

loop_
_atom_type_symbol
_atom_type_description
_atom_type_scat_dispersion_real
_atom_type_scat_dispersion_imag
_atom_type_scat_source
C C 0.0033 0.0016 'International Tables Vol C Tables 4.2.6.8 and 6.1.1.4'
H H 0.0000 0.0000 'International Tables Vol C Tables 4.2.6.8 and 6.1.1.4'
B B 0.0013 0.0007 'International Tables Vol C Tables 4.2.6.8 and 6.1.1.4'
N N 0.0061 0.0033 'International Tables Vol C Tables 4.2.6.8 and 6.1.1.4'
O O 0.0106 0.0060 'International Tables Vol C Tables 4.2.6.8 and 6.1.1.4'
F F 0.0171 0.0103 'International Tables Vol C Tables 4.2.6.8 and 6.1.1.4'
Na Na 0.0362 0.0249 'International Tables Vol C Tables 4.2.6.8 and 6.1.1.4'
S S 0.1246 0.1234 'International Tables Vol C Tables 4.2.6.8 and 6.1.1.4'
Cd Cd -0.8075 1.2024 'International Tables Vol C Tables 4.2.6.8 and 6.1.1.4'

_symmetry_cell_setting           Triclinic
_symmetry_space_group_name_H-M   P-1
_symmetry_space_group_name_Hall  '-P 1'

loop_
_symmetry_equiv_pos_as_xyz
'x, y, z'
'-x, -y, -z'

_cell_length_a                   10.232(4)
_cell_length_b                   11.140(5)
_cell_length_c                   17.971(10)
_cell_angle_alpha                103.905(8)
_cell_angle_beta                 98.362(7)
_cell_angle_gamma                109.981(5)
_cell_volume                     1809.7(15)
_cell_formula_units_Z            2
_cell_measurement_temperature    296(2)
_cell_measurement_reflns_used    765
_cell_measurement_theta_min      2.22
_cell_measurement_theta_max      17.65

_exptl_crystal_description       Prism
_exptl_crystal_colour            Colorless
_exptl_crystal_size_max          0.25
_exptl_crystal_size_mid          0.18
_exptl_crystal_size_min          0.13
_exptl_crystal_density_meas      ?
_exptl_crystal_density_diffrn    1.816
_exptl_crystal_density_method    'not measured'
_exptl_crystal_F_000             992
_exptl_absorpt_coefficient_mu    1.365
_exptl_absorpt_correction_type   Multi-scan
_exptl_absorpt_correction_T_min  0.741
_exptl_absorpt_correction_T_max  0.834
_exptl_absorpt_process_details   '(SADABS; Bruker 2008)'

_exptl_special_details           
;
?
;

_diffrn_ambient_temperature      296(2)
_diffrn_radiation_wavelength     0.71073
_diffrn_radiation_type           MoK\a
_diffrn_radiation_source         'fine-focus sealed tube'
_diffrn_radiation_monochromator  graphite
_diffrn_measurement_device_type  'Bruker P4'
_diffrn_measurement_method       '\w scans'
_diffrn_detector_area_resol_mean ?
_diffrn_standards_number         ?
_diffrn_standards_interval_count ?
_diffrn_standards_interval_time  ?
_diffrn_standards_decay_%        ?
_diffrn_reflns_number            8141
_diffrn_reflns_av_R_equivalents  0.0754
_diffrn_reflns_av_sigmaI/netI    0.1430
_diffrn_reflns_limit_h_min       -10
_diffrn_reflns_limit_h_max       10
_diffrn_reflns_limit_k_min       -11
_diffrn_reflns_limit_k_max       11
_diffrn_reflns_limit_l_min       -18
_diffrn_reflns_limit_l_max       18
_diffrn_reflns_theta_min         2.22
_diffrn_reflns_theta_max         22.05
_reflns_number_total             4236
_reflns_number_gt                2339
_reflns_threshold_expression     >2sigma(I)

_computing_data_collection       'APEX2 (Bruker, 2008)'
_computing_cell_refinement       'SAINT (Bruker, 2008)'
_computing_data_reduction        'SAINT (Bruker, 2008)'
_computing_structure_solution    'SHELXS-97 (Sheldrick, 1990)'
_computing_structure_refinement  'SHELXL-97 (Sheldrick, 1997)'
_computing_molecular_graphics    'Bruker SHELXTL'
_computing_publication_material  'Bruker SHELXTL'

_refine_special_details          
;
Refinement of F^2^ against ALL reflections. The weighted R-factor wR and
goodness of fit S are based on F^2^, conventional R-factors R are based
on F, with F set to zero for negative F^2^. The threshold expression of
F^2^ > 2sigma(F^2^) is used only for calculating R-factors(gt) etc. and is
not relevant to the choice of reflections for refinement. R-factors based
on F^2^ are statistically about twice as large as those based on F, and R-
factors based on ALL data will be even larger.
;

_refine_ls_structure_factor_coef Fsqd
_refine_ls_matrix_type           full
_refine_ls_weighting_scheme      calc
_refine_ls_weighting_details     
'calc w=1/[\s^2^(Fo^2^)+(0.0701P)^2^+0.0028P] where P=(Fo^2^+2Fc^2^)/3'
_atom_sites_solution_primary     direct
_atom_sites_solution_secondary   difmap
_atom_sites_solution_hydrogens   geom
_refine_ls_hydrogen_treatment    constr
_refine_ls_extinction_method     none
_refine_ls_extinction_coef       ?
_refine_ls_number_reflns         4236
_refine_ls_number_parameters     297
_refine_ls_number_restraints     0
_refine_ls_R_factor_all          0.1063
_refine_ls_R_factor_gt           0.0648
_refine_ls_wR_factor_ref         0.1741
_refine_ls_wR_factor_gt          0.1599
_refine_ls_goodness_of_fit_ref   1.005
_refine_ls_restrained_S_all      1.005
_refine_ls_shift/su_max          0.000
_refine_ls_shift/su_mean         0.000

loop_
_atom_site_label
_atom_site_type_symbol
_atom_site_fract_x
_atom_site_fract_y
_atom_site_fract_z
_atom_site_U_iso_or_equiv
_atom_site_adp_type
_atom_site_occupancy
_atom_site_symmetry_multiplicity
_atom_site_calc_flag
_atom_site_refinement_flags
_atom_site_disorder_assembly
_atom_site_disorder_group
Cd1 Cd 0.94402(10) 0.83133(11) 0.50998(6) 0.0365(4) Uani 1 1 d . . .
Cd2 Cd 0.63907(11) 0.87131(12) 0.38881(7) 0.0414(4) Uani 1 1 d . . .
S1 S 0.3178(4) 0.4335(4) 0.6544(2) 0.0387(10) Uani 1 1 d . . .
S2 S 0.0064(6) 0.7681(8) 0.0586(3) 0.0838(19) Uani 1 1 d . . .
O1 O 0.7082(9) 0.8495(10) 0.5082(6) 0.045(3) Uani 1 1 d . . .
O2 O 0.7767(10) 0.7292(11) 0.5732(6) 0.050(3) Uani 1 1 d . . .
O3 O 0.2380(10) 0.9060(12) 0.5405(6) 0.054(3) Uani 1 1 d . . .
O4 O 0.0724(11) 0.7262(12) 0.5544(7) 0.073(4) Uani 1 1 d . . .
O5 O 0.1744(10) 0.3443(9) 0.6091(6) 0.042(3) Uani 1 1 d . . .
O6 O 0.4175(9) 0.3657(10) 0.6442(6) 0.051(3) Uani 1 1 d . . .
O7 O 0.3254(11) 0.4962(10) 0.7381(6) 0.051(3) Uani 1 1 d . . .
O8 O 0.4825(11) 0.8772(13) 0.2830(7) 0.076(4) Uani 1 1 d . . .
O9 O 0.4105(9) 0.8566(10) 0.3853(6) 0.044(3) Uani 1 1 d . . .
O10 O -0.2112(10) 0.8706(11) 0.3096(6) 0.056(3) Uani 1 1 d . . .
O11 O -0.0303(10) 0.9486(9) 0.4191(6) 0.039(3) Uani 1 1 d . . .
O12 O -0.1217(18) 0.789(2) 0.0352(8) 0.166(8) Uani 1 1 d . . .
O13 O 0.112(2) 0.867(2) 0.0405(10) 0.174(9) Uani 1 1 d . . .
O14 O 0.003(2) 0.641(2) 0.0333(9) 0.179(10) Uani 1 1 d . . .
C1 C 0.5407(13) 0.7266(13) 0.5692(7) 0.028(3) Uiso 1 1 d . . .
C2 C 0.4430(12) 0.7856(13) 0.5550(8) 0.031(4) Uani 1 1 d . . .
H2A H 0.4670 0.8557 0.5333 0.037 Uiso 1 1 calc R . .
C3 C 0.3150(14) 0.7424(15) 0.5722(8) 0.034(4) Uani 1 1 d . . .
C4 C 0.2716(14) 0.6297(18) 0.6008(9) 0.056(5) Uani 1 1 d . . .
H4A H 0.1822 0.6000 0.6119 0.067 Uiso 1 1 calc R . .
C5 C 0.3654(14) 0.5628(14) 0.6124(8) 0.033(4) Uani 1 1 d . . .
C6 C 0.5024(14) 0.6178(13) 0.5984(9) 0.041(4) Uani 1 1 d . . .
H6B H 0.5688 0.5805 0.6090 0.049 Uiso 1 1 calc R . .
C7 C 0.6853(15) 0.7666(15) 0.5474(8) 0.039(4) Uiso 1 1 d . . .
C8 C 0.1964(17) 0.7923(17) 0.5559(9) 0.044(4) Uani 1 1 d . . .
C9 C 0.2424(16) 0.8596(15) 0.2782(10) 0.044(4) Uani 1 1 d . . .
C10 C 0.1489(14) 0.8812(13) 0.3273(9) 0.035(4) Uani 1 1 d . . .
H10A H 0.1784 0.9012 0.3818 0.042 Uiso 1 1 calc R . .
C11 C 0.0136(13) 0.8719(13) 0.2927(9) 0.034(4) Uani 1 1 d . . .
C12 C -0.0301(15) 0.8366(15) 0.2107(9) 0.044(4) Uani 1 1 d . . .
H12A H -0.1226 0.8251 0.1872 0.052 Uiso 1 1 calc R . .
C13 C 0.0614(16) 0.8182(17) 0.1632(9) 0.056(5) Uani 1 1 d . . .
C14 C 0.1985(13) 0.8240(16) 0.2010(9) 0.044(4) Uani 1 1 d . . .
H14A H 0.2572 0.8019 0.1699 0.053 Uiso 1 1 calc R . .
C15 C 0.3882(16) 0.8649(17) 0.3185(10) 0.050(5) Uani 1 1 d . . .
C16 C -0.0815(15) 0.8988(15) 0.3443(10) 0.034(4) Uani 1 1 d . . .

loop_
_atom_site_aniso_label
_atom_site_aniso_U_11
_atom_site_aniso_U_22
_atom_site_aniso_U_33
_atom_site_aniso_U_23
_atom_site_aniso_U_13
_atom_site_aniso_U_12
Cd1 0.0240(6) 0.0434(8) 0.0537(8) 0.0239(6) 0.0145(5) 0.0193(6)
Cd2 0.0260(7) 0.0524(9) 0.0619(9) 0.0294(7) 0.0172(6) 0.0243(6)
S1 0.030(2) 0.042(3) 0.051(3) 0.018(2) 0.0110(19) 0.019(2)
S2 0.086(4) 0.142(6) 0.044(3) 0.022(4) 0.017(3) 0.074(4)
O1 0.019(5) 0.044(7) 0.094(8) 0.047(6) 0.023(5) 0.018(5)
O2 0.043(6) 0.083(9) 0.069(7) 0.057(7) 0.026(5) 0.049(6)
O3 0.037(6) 0.063(9) 0.072(8) 0.017(7) 0.020(6) 0.030(6)
O4 0.027(7) 0.095(10) 0.133(11) 0.055(8) 0.039(7) 0.046(7)
O5 0.040(6) 0.031(6) 0.067(7) 0.034(6) 0.020(5) 0.012(5)
O6 0.029(6) 0.053(8) 0.086(8) 0.036(6) 0.021(5) 0.022(6)
O7 0.069(7) 0.051(8) 0.048(7) 0.029(6) 0.012(6) 0.034(6)
O8 0.046(7) 0.144(13) 0.081(9) 0.057(8) 0.047(7) 0.061(8)
O9 0.017(5) 0.072(8) 0.052(7) 0.036(6) 0.009(5) 0.015(5)
O10 0.040(7) 0.087(9) 0.074(8) 0.037(7) 0.030(6) 0.049(6)
O11 0.039(6) 0.039(7) 0.043(7) 0.018(6) 0.023(5) 0.014(5)
O12 0.131(14) 0.31(3) 0.088(12) 0.042(14) -0.003(10) 0.152(17)
O13 0.19(2) 0.23(3) 0.085(13) 0.059(14) 0.055(13) 0.049(18)
O14 0.30(3) 0.20(2) 0.070(12) -0.008(12) 0.030(14) 0.17(2)
C2 0.007(7) 0.029(9) 0.055(10) 0.015(8) 0.000(7) 0.005(7)
C3 0.033(9) 0.038(10) 0.049(10) 0.032(8) 0.019(7) 0.021(8)
C4 0.013(8) 0.091(15) 0.045(11) -0.004(10) -0.005(7) 0.021(9)
C5 0.036(9) 0.049(11) 0.033(9) 0.032(8) 0.019(7) 0.022(8)
C6 0.032(9) 0.011(9) 0.093(13) 0.021(8) 0.034(8) 0.013(7)
C8 0.041(11) 0.047(12) 0.076(13) 0.038(10) 0.023(9) 0.040(10)
C9 0.057(11) 0.042(11) 0.048(12) 0.020(9) 0.019(9) 0.032(9)
C10 0.034(9) 0.018(9) 0.049(10) 0.015(7) 0.024(8) -0.004(7)
C11 0.013(8) 0.022(9) 0.060(12) 0.014(8) 0.007(7) 0.000(7)
C12 0.037(9) 0.073(13) 0.052(11) 0.033(10) 0.033(9) 0.039(9)
C13 0.045(10) 0.066(13) 0.052(11) 0.014(10) 0.012(9) 0.019(9)
C14 0.019(8) 0.077(13) 0.052(12) 0.031(10) 0.015(8) 0.028(8)
C15 0.040(10) 0.083(14) 0.031(10) 0.003(10) -0.003(8) 0.045(10)
C16 0.031(9) 0.039(10) 0.061(12) 0.038(9) 0.026(8) 0.027(8)

_geom_special_details            
;
All esds (except the esd in the dihedral angle between two l.s. planes)
are estimated using the full covariance matrix. The cell esds are taken
into account individually in the estimation of esds in distances, angles
and torsion angles; correlations between esds in cell parameters are only
used when they are defined by crystal symmetry. An approximate (isotropic)
treatment of cell esds is used for estimating esds involving l.s. planes.
;

loop_
_geom_bond_atom_site_label_1
_geom_bond_atom_site_label_2
_geom_bond_distance
_geom_bond_site_symmetry_2
_geom_bond_publ_flag
Cd1 O4 2.220(10) 1_655 ?
Cd1 O11 2.260(10) 2_676 ?
Cd1 O11 2.315(10) 1_655 ?
Cd1 O2 2.319(9) . ?
Cd1 O5 2.343(10) 2_666 ?
Cd1 O1 2.486(8) . ?
Cd1 C7 2.726(14) . ?
Cd2 O10 2.238(9) 1_655 ?
Cd2 O1 2.256(10) . ?
Cd2 O9 2.278(8) . ?
Cd2 O3 2.288(11) 2_676 ?
Cd2 O8 2.331(11) . ?
Cd2 O6 2.400(10) 2_666 ?
Cd2 C15 2.661(14) . ?
S1 O5 1.438(10) . ?
S1 O6 1.470(9) . ?
S1 O7 1.478(10) . ?
S1 C5 1.741(13) . ?
S2 O14 1.366(17) . ?
S2 O13 1.40(2) . ?
S2 O12 1.427(14) . ?
S2 C13 1.770(16) . ?
O1 C7 1.271(16) . ?
O2 C7 1.224(15) . ?
O3 C8 1.303(17) . ?
O3 Cd2 2.288(11) 2_676 ?
O4 C8 1.223(17) . ?
O4 Cd1 2.220(10) 1_455 ?
O5 Cd1 2.343(10) 2_666 ?
O6 Cd2 2.400(10) 2_666 ?
O8 C15 1.218(17) . ?
O9 C15 1.222(16) . ?
O10 C16 1.276(15) . ?
O10 Cd2 2.238(9) 1_455 ?
O11 C16 1.276(16) . ?
O11 Cd1 2.260(10) 2_676 ?
O11 Cd1 2.315(10) 1_455 ?
C1 C6 1.393(18) . ?
C1 C2 1.397(16) . ?
C1 C7 1.531(18) . ?
C2 C3 1.341(17) . ?
C2 H2A 0.9300 . ?
C3 C4 1.43(2) . ?
C3 C8 1.517(17) . ?
C4 C5 1.423(18) . ?
C4 H4A 0.9300 . ?
C5 C6 1.412(17) . ?
C6 H6B 0.9300 . ?
C9 C14 1.310(18) . ?
C9 C10 1.433(18) . ?
C9 C15 1.536(19) . ?
C10 C11 1.391(17) . ?
C10 H10A 0.9300 . ?
C11 C12 1.390(18) . ?
C11 C16 1.491(18) . ?
C12 C13 1.388(18) . ?
C12 H12A 0.9300 . ?
C13 C14 1.441(18) . ?
C14 H14A 0.9300 . ?

loop_
_geom_angle_atom_site_label_1
_geom_angle_atom_site_label_2
_geom_angle_atom_site_label_3
_geom_angle
_geom_angle_site_symmetry_1
_geom_angle_site_symmetry_3
_geom_angle_publ_flag
O4 Cd1 O11 112.2(4) 1_655 2_676 ?
O4 Cd1 O11 131.4(4) 1_655 1_655 ?
O11 Cd1 O11 73.8(4) 2_676 1_655 ?
O4 Cd1 O2 86.3(4) 1_655 . ?
O11 Cd1 O2 103.5(3) 2_676 . ?
O11 Cd1 O2 141.1(3) 1_655 . ?
O4 Cd1 O5 93.2(4) 1_655 2_666 ?
O11 Cd1 O5 151.0(3) 2_676 2_666 ?
O11 Cd1 O5 79.0(3) 1_655 2_666 ?
O2 Cd1 O5 91.4(3) . 2_666 ?
O4 Cd1 O1 140.4(4) 1_655 . ?
O11 Cd1 O1 82.9(3) 2_676 . ?
O11 Cd1 O1 87.4(3) 1_655 . ?
O2 Cd1 O1 54.2(3) . . ?
O5 Cd1 O1 86.1(3) 2_666 . ?
O4 Cd1 C7 112.6(5) 1_655 . ?
O11 Cd1 C7 95.4(4) 2_676 . ?
O11 Cd1 C7 114.7(4) 1_655 . ?
O2 Cd1 C7 26.5(4) . . ?
O5 Cd1 C7 86.8(4) 2_666 . ?
O1 Cd1 C7 27.8(3) . . ?
O10 Cd2 O1 116.5(3) 1_655 . ?
O10 Cd2 O9 140.6(4) 1_655 . ?
O1 Cd2 O9 102.2(3) . . ?
O10 Cd2 O3 94.1(4) 1_655 2_676 ?
O1 Cd2 O3 81.2(4) . 2_676 ?
O9 Cd2 O3 99.3(3) . 2_676 ?
O10 Cd2 O8 86.5(4) 1_655 . ?
O1 Cd2 O8 156.6(3) . . ?
O9 Cd2 O8 54.5(3) . . ?
O3 Cd2 O8 102.8(4) 2_676 . ?
O10 Cd2 O6 85.0(4) 1_655 2_666 ?
O1 Cd2 O6 78.1(3) . 2_666 ?
O9 Cd2 O6 96.2(3) . 2_666 ?
O3 Cd2 O6 156.3(3) 2_676 2_666 ?
O8 Cd2 O6 100.8(4) . 2_666 ?
O10 Cd2 C15 113.5(5) 1_655 . ?
O1 Cd2 C15 129.4(5) . . ?
O9 Cd2 C15 27.3(4) . . ?
O3 Cd2 C15 102.6(4) 2_676 . ?
O8 Cd2 C15 27.2(4) . . ?
O6 Cd2 C15 99.4(4) 2_666 . ?
O5 S1 O6 110.4(6) . . ?
O5 S1 O7 113.0(6) . . ?
O6 S1 O7 113.5(6) . . ?
O5 S1 C5 105.0(6) . . ?
O6 S1 C5 107.7(6) . . ?
O7 S1 C5 106.7(6) . . ?
O14 S2 O13 115.8(13) . . ?
O14 S2 O12 118.5(13) . . ?
O13 S2 O12 104.1(13) . . ?
O14 S2 C13 105.3(9) . . ?
O13 S2 C13 102.3(10) . . ?
O12 S2 C13 109.6(9) . . ?
C7 O1 Cd2 143.0(10) . . ?
C7 O1 Cd1 86.7(8) . . ?
Cd2 O1 Cd1 104.7(3) . . ?
C7 O2 Cd1 95.6(9) . . ?
C8 O3 Cd2 136.8(10) . 2_676 ?
C8 O4 Cd1 105.4(10) . 1_455 ?
S1 O5 Cd1 139.9(6) . 2_666 ?
S1 O6 Cd2 127.2(5) . 2_666 ?
C15 O8 Cd2 91.7(9) . . ?
C15 O9 Cd2 94.1(8) . . ?
C16 O10 Cd2 115.5(9) . 1_455 ?
C16 O11 Cd1 126.1(9) . 2_676 ?
C16 O11 Cd1 126.3(8) . 1_455 ?
Cd1 O11 Cd1 106.2(4) 2_676 1_455 ?
C6 C1 C2 119.6(12) . . ?
C6 C1 C7 116.7(12) . . ?
C2 C1 C7 123.4(13) . . ?
C3 C2 C1 120.8(13) . . ?
C3 C2 H2A 119.6 . . ?
C1 C2 H2A 119.6 . . ?
C2 C3 C4 120.8(12) . . ?
C2 C3 C8 126.3(14) . . ?
C4 C3 C8 112.6(13) . . ?
C5 C4 C3 119.9(13) . . ?
C5 C4 H4A 120.1 . . ?
C3 C4 H4A 120.1 . . ?
C6 C5 C4 116.9(13) . . ?
C6 C5 S1 122.8(10) . . ?
C4 C5 S1 119.7(11) . . ?
C1 C6 C5 121.7(12) . . ?
C1 C6 H6B 119.2 . . ?
C5 C6 H6B 119.2 . . ?
O2 C7 O1 123.0(13) . . ?
O2 C7 C1 120.4(14) . . ?
O1 C7 C1 116.2(12) . . ?
O2 C7 Cd1 57.8(7) . . ?
O1 C7 Cd1 65.6(7) . . ?
C1 C7 Cd1 178.2(11) . . ?
O4 C8 O3 124.3(12) . . ?
O4 C8 C3 121.5(14) . . ?
O3 C8 C3 114.2(14) . . ?
C14 C9 C10 120.5(14) . . ?
C14 C9 C15 121.4(13) . . ?
C10 C9 C15 117.7(14) . . ?
C11 C10 C9 119.5(14) . . ?
C11 C10 H10A 120.3 . . ?
C9 C10 H10A 120.3 . . ?
C12 C11 C10 119.1(13) . . ?
C12 C11 C16 121.6(12) . . ?
C10 C11 C16 119.2(14) . . ?
C13 C12 C11 121.4(13) . . ?
C13 C12 H12A 119.3 . . ?
C11 C12 H12A 119.3 . . ?
C12 C13 C14 117.6(14) . . ?
C12 C13 S2 122.2(12) . . ?
C14 C13 S2 119.7(12) . . ?
C9 C14 C13 121.4(14) . . ?
C9 C14 H14A 119.3 . . ?
C13 C14 H14A 119.3 . . ?
O8 C15 O9 119.7(13) . . ?
O8 C15 C9 119.4(15) . . ?
O9 C15 C9 120.9(14) . . ?
O8 C15 Cd2 61.1(8) . . ?
O9 C15 Cd2 58.6(7) . . ?
C9 C15 Cd2 179.2(13) . . ?
O11 C16 O10 123.8(12) . . ?
O11 C16 C11 119.4(12) . . ?
O10 C16 C11 116.8(14) . . ?

loop_
_geom_torsion_atom_site_label_1
_geom_torsion_atom_site_label_2
_geom_torsion_atom_site_label_3
_geom_torsion_atom_site_label_4
_geom_torsion
_geom_torsion_site_symmetry_1
_geom_torsion_site_symmetry_2
_geom_torsion_site_symmetry_3
_geom_torsion_site_symmetry_4
_geom_torsion_publ_flag
O10 Cd2 O1 C7 -104.3(14) 1_655 . . . ?
O9 Cd2 O1 C7 67.8(14) . . . . ?
O3 Cd2 O1 C7 165.5(14) 2_676 . . . ?
O8 Cd2 O1 C7 63.5(19) . . . . ?
O6 Cd2 O1 C7 -26.1(14) 2_666 . . . ?
C15 Cd2 O1 C7 66.4(16) . . . . ?
O10 Cd2 O1 Cd1 0.1(5) 1_655 . . . ?
O9 Cd2 O1 Cd1 172.1(4) . . . . ?
O3 Cd2 O1 Cd1 -90.1(4) 2_676 . . . ?
O8 Cd2 O1 Cd1 167.9(9) . . . . ?
O6 Cd2 O1 Cd1 78.3(4) 2_666 . . . ?
C15 Cd2 O1 Cd1 170.8(5) . . . . ?
O4 Cd1 O1 C7 0.4(11) 1_655 . . . ?
O11 Cd1 O1 C7 -116.2(9) 2_676 . . . ?
O11 Cd1 O1 C7 169.8(9) 1_655 . . . ?
O2 Cd1 O1 C7 -3.8(8) . . . . ?
O5 Cd1 O1 C7 90.7(8) 2_666 . . . ?
O4 Cd1 O1 Cd2 -143.9(5) 1_655 . . . ?
O11 Cd1 O1 Cd2 99.5(4) 2_676 . . . ?
O11 Cd1 O1 Cd2 25.5(4) 1_655 . . . ?
O2 Cd1 O1 Cd2 -148.2(6) . . . . ?
O5 Cd1 O1 Cd2 -53.6(4) 2_666 . . . ?
C7 Cd1 O1 Cd2 -144.3(10) . . . . ?
O4 Cd1 O2 C7 -173.3(10) 1_655 . . . ?
O11 Cd1 O2 C7 74.7(9) 2_676 . . . ?
O11 Cd1 O2 C7 -6.1(12) 1_655 . . . ?
O5 Cd1 O2 C7 -80.1(9) 2_666 . . . ?
O1 Cd1 O2 C7 4.0(8) . . . . ?
O6 S1 O5 Cd1 -33.5(10) . . . 2_666 ?
O7 S1 O5 Cd1 -161.8(7) . . . 2_666 ?
C5 S1 O5 Cd1 82.3(9) . . . 2_666 ?
O5 S1 O6 Cd2 -26.2(9) . . . 2_666 ?
O7 S1 O6 Cd2 101.8(8) . . . 2_666 ?
C5 S1 O6 Cd2 -140.3(7) . . . 2_666 ?
O10 Cd2 O8 C15 173.9(11) 1_655 . . . ?
O1 Cd2 O8 C15 4.8(17) . . . . ?
O9 Cd2 O8 C15 -0.2(10) . . . . ?
O3 Cd2 O8 C15 -