####################################################################### 
# 
# This file contains crystal structure data downloaded from the 
# Cambridge Structural Database (CSD) hosted by the Cambridge 
# Crystallographic Data Centre (CCDC).
# 
# Full information about CCDC data access policies and citation 
# guidelines are available at http://www.ccdc.cam.ac.uk/access/V1 
# 
# Audit and citation data items may have been added by the CCDC. 
# Please retain this information to preserve the provenance of 
# this file and to allow appropriate attribution of the data. 
# 
#######################################################################

data_w3803h
_audit_block_doi                 10.5517/ccq5t1q
_database_code_depnum_ccdc_archive 'CCDC 660983'
loop_
_citation_id
_citation_doi
_citation_year
1 10.1021/cg900816h 2010
_audit_update_record             
;
2007-09-13 deposited with the CCDC.	2024-07-10 downloaded from the CCDC.
;

_audit_creation_method           SHELXL-97
_chemical_name_systematic        
;
?
;
_chemical_name_common            ?
_chemical_melting_point          ?
_chemical_formula_moiety         'C40 H24 N8 Zn, 2(C3 H7 N O)'
_chemical_formula_sum            'C46 H38 N10 O2 Zn'
_chemical_formula_weight         828.23

loop_
_atom_type_symbol
_atom_type_description
_atom_type_scat_dispersion_real
_atom_type_scat_dispersion_imag
_atom_type_scat_source
C C 0.0033 0.0016 'International Tables Vol C Tables 4.2.6.8 and 6.1.1.4'
H H 0.0000 0.0000 'International Tables Vol C Tables 4.2.6.8 and 6.1.1.4'
N N 0.0061 0.0033 'International Tables Vol C Tables 4.2.6.8 and 6.1.1.4'
O O 0.0106 0.0060 'International Tables Vol C Tables 4.2.6.8 and 6.1.1.4'
Zn Zn 0.2839 1.4301 'International Tables Vol C Tables 4.2.6.8 and 6.1.1.4'

_symmetry_cell_setting           monoclinic
_symmetry_space_group_name_H-M   'C 2/c'
_symmetry_space_group_name_Hall  '-C 2yc'

loop_
_symmetry_equiv_pos_as_xyz
'x, y, z'
'-x, y, -z+1/2'
'x+1/2, y+1/2, z'
'-x+1/2, y+1/2, -z+1/2'
'-x, -y, -z'
'x, -y, z-1/2'
'-x+1/2, -y+1/2, -z'
'x+1/2, -y+1/2, z-1/2'

_cell_length_a                   29.931(5)
_cell_length_b                   9.5639(14)
_cell_length_c                   14.227(2)
_cell_angle_alpha                90.00
_cell_angle_beta                 109.978(2)
_cell_angle_gamma                90.00
_cell_volume                     3827.4(10)
_cell_formula_units_Z            4
_cell_measurement_temperature    100(2)
_cell_measurement_reflns_used    2831
_cell_measurement_theta_min      2.25
_cell_measurement_theta_max      27.05

_exptl_crystal_description       block
_exptl_crystal_colour            red
_exptl_crystal_size_max          0.15
_exptl_crystal_size_mid          0.07
_exptl_crystal_size_min          0.03
_exptl_crystal_density_meas      ?
_exptl_crystal_density_diffrn    1.437
_exptl_crystal_density_method    'not measured'
_exptl_crystal_F_000             1720
_exptl_absorpt_coefficient_mu    0.697
_exptl_absorpt_correction_type   multi-scan
_exptl_absorpt_correction_T_min  0.9026
_exptl_absorpt_correction_T_max  0.9794
_exptl_absorpt_process_details   SADABS

_exptl_special_details           
;
?
;

_diffrn_ambient_temperature      100(2)
_diffrn_radiation_wavelength     0.71073
_diffrn_radiation_type           MoK\a
_diffrn_radiation_source         'fine-focus sealed tube'
_diffrn_radiation_monochromator  graphite
_diffrn_measurement_device_type  ?
_diffrn_measurement_method       ?
_diffrn_detector_area_resol_mean ?
_diffrn_reflns_number            12063
_diffrn_reflns_av_R_equivalents  0.0836
_diffrn_reflns_av_sigmaI/netI    0.0736
_diffrn_reflns_limit_h_min       -36
_diffrn_reflns_limit_h_max       36
_diffrn_reflns_limit_k_min       -11
_diffrn_reflns_limit_k_max       11
_diffrn_reflns_limit_l_min       -17
_diffrn_reflns_limit_l_max       17
_diffrn_reflns_theta_min         2.25
_diffrn_reflns_theta_max         26.00
_reflns_number_total             3761
_reflns_number_gt                2538
_reflns_threshold_expression     >2sigma(I)

_computing_data_collection       'Bruker SMART'
_computing_cell_refinement       'Bruker SMART'
_computing_data_reduction        'Bruker SAINT'
_computing_structure_solution    'Bruker SHELXTL'
_computing_structure_refinement  'Bruker SHELXTL'
_computing_molecular_graphics    'Bruker SHELXTL'
_computing_publication_material  'Bruker SHELXTL'

_refine_special_details          
;
Refinement of F^2^ against ALL reflections. The weighted R-factor wR and
goodness of fit S are based on F^2^, conventional R-factors R are based
on F, with F set to zero for negative F^2^. The threshold expression of
F^2^ > 2sigma(F^2^) is used only for calculating R-factors(gt) etc. and is
not relevant to the choice of reflections for refinement. R-factors based
on F^2^ are statistically about twice as large as those based on F, and R-
factors based on ALL data will be even larger.
;

_refine_ls_structure_factor_coef Fsqd
_refine_ls_matrix_type           full
_refine_ls_weighting_scheme      calc
_refine_ls_weighting_details     
'calc w=1/[\s^2^(Fo^2^)+(0.0398P)^2^+4.0523P] where P=(Fo^2^+2Fc^2^)/3'
_atom_sites_solution_primary     direct
_atom_sites_solution_secondary   difmap
_atom_sites_solution_hydrogens   geom
_refine_ls_hydrogen_treatment    constr
_refine_ls_extinction_method     none
_refine_ls_extinction_coef       ?
_refine_ls_number_reflns         3761
_refine_ls_number_parameters     318
_refine_ls_number_restraints     44
_refine_ls_R_factor_all          0.0867
_refine_ls_R_factor_gt           0.0433
_refine_ls_wR_factor_ref         0.1046
_refine_ls_wR_factor_gt          0.0887
_refine_ls_goodness_of_fit_ref   1.055
_refine_ls_restrained_S_all      1.070
_refine_ls_shift/su_max          0.001
_refine_ls_shift/su_mean         0.000

loop_
_atom_site_label
_atom_site_type_symbol
_atom_site_fract_x
_atom_site_fract_y
_atom_site_fract_z
_atom_site_U_iso_or_equiv
_atom_site_adp_type
_atom_site_occupancy
_atom_site_symmetry_multiplicity
_atom_site_calc_flag
_atom_site_refinement_flags
_atom_site_disorder_assembly
_atom_site_disorder_group
Zn1 Zn 0.2500 0.2500 0.0000 0.01552(15) Uani 1 2 d S . .
N1 N 0.21287(9) 0.1571(2) 0.08203(18) 0.0136(5) Uani 1 1 d . . .
N2 N 0.30751(9) 0.2769(2) 0.13030(18) 0.0145(6) Uani 1 1 d . . .
N3 N 0.49756(10) 0.3845(3) 0.1286(2) 0.0298(7) Uani 1 1 d . . .
N4 N 0.21742(9) 0.4649(3) 0.01957(19) 0.0183(6) Uani 1 1 d . . .
C1 C 0.22780(11) 0.1408(3) 0.1840(2) 0.0150(7) Uani 1 1 d . . .
C2 C 0.18863(11) 0.0891(3) 0.2123(2) 0.0168(7) Uani 1 1 d . . .
H2 H 0.1893 0.0696 0.2782 0.020 Uiso 1 1 calc R . .
C3 C 0.15088(11) 0.0741(3) 0.1266(2) 0.0174(7) Uani 1 1 d . . .
H3 H 0.1202 0.0410 0.1211 0.021 Uiso 1 1 calc R . .
C4 C 0.16620(11) 0.1179(3) 0.0452(2) 0.0151(7) Uani 1 1 d . . .
C5 C 0.36378(10) 0.3774(3) 0.0561(2) 0.0140(6) Uani 1 1 d . . .
C6 C 0.35156(11) 0.3235(3) 0.1365(2) 0.0155(7) Uani 1 1 d . . .
C7 C 0.38427(11) 0.3079(3) 0.2378(2) 0.0168(7) Uani 1 1 d . . .
H7 H 0.4169 0.3337 0.2619 0.020 Uiso 1 1 calc R . .
C8 C 0.35952(10) 0.2496(3) 0.2915(2) 0.0156(6) Uani 1 1 d . . .
H8 H 0.3715 0.2255 0.3604 0.019 Uiso 1 1 calc R . .
C9 C 0.31118(10) 0.2309(3) 0.2237(2) 0.0140(6) Uani 1 1 d . . .
C10 C 0.27392(11) 0.1728(3) 0.2505(2) 0.0151(7) Uani 1 1 d . . .
C11 C 0.41331(11) 0.4322(3) 0.0795(2) 0.0163(7) Uani 1 1 d . . .
C12 C 0.45252(12) 0.3430(4) 0.1063(2) 0.0226(7) Uani 1 1 d . . .
H12 H 0.4468 0.2457 0.1089 0.027 Uiso 1 1 calc R . .
C13 C 0.42260(12) 0.5742(3) 0.0757(2) 0.0235(8) Uani 1 1 d . . .
H13 H 0.3971 0.6395 0.0575 0.028 Uiso 1 1 calc R . .
C14 C 0.46876(12) 0.6201(4) 0.0985(3) 0.0291(8) Uani 1 1 d . . .
H14 H 0.4755 0.7168 0.0960 0.035 Uiso 1 1 calc R . .
C15 C 0.50468(12) 0.5231(4) 0.1249(3) 0.0314(9) Uani 1 1 d . . .
H15 H 0.5364 0.5556 0.1415 0.038 Uiso 1 1 calc R . .
C16 C 0.28400(10) 0.1390(3) 0.3582(2) 0.0149(7) Uani 1 1 d . . .
C17 C 0.27672(11) 0.0039(3) 0.3869(2) 0.0174(7) Uani 1 1 d . . .
H17 H 0.2669 -0.0654 0.3362 0.021 Uiso 1 1 calc R . .
C18 C 0.29997(10) 0.2390(3) 0.4339(2) 0.0175(6) Uani 1 1 d . . .
H18 H 0.3054 0.3328 0.4186 0.021 Uiso 1 1 calc R . .
C19 C 0.19224(11) 0.6985(3) -0.0317(2) 0.0204(7) Uani 1 1 d . . .
H19 H 0.1805 0.7641 -0.0846 0.025 Uiso 1 1 calc R . .
C20 C 0.20158(11) 0.5625(3) -0.0522(2) 0.0181(7) Uani 1 1 d . . .
H20 H 0.1966 0.5370 -0.1195 0.022 Uiso 1 1 calc R . .
O1 O 0.0823(4) 0.5363(13) -0.0072(7) 0.059(3) Uani 0.519(7) 1 d PD A -1
C21 C 0.0936(3) 0.4591(9) 0.0652(6) 0.046(2) Uani 0.519(7) 1 d PDU A -1
H21 H 0.1191 0.3959 0.0731 0.056 Uiso 0.519(7) 1 calc PR A -1
N5 N 0.0717(4) 0.4573(14) 0.1372(8) 0.046(4) Uani 0.519(7) 1 d PDU A -1
C22 C 0.0330(3) 0.5541(8) 0.1294(7) 0.048(3) Uani 0.519(7) 1 d PD A -1
H22A H 0.0305 0.6223 0.0764 0.071 Uiso 0.519(7) 1 calc PR A -1
H22B H 0.0395 0.6031 0.1931 0.071 Uiso 0.519(7) 1 calc PR A -1
H22C H 0.0031 0.5022 0.1133 0.071 Uiso 0.519(7) 1 calc PR A -1
C23 C 0.0894(3) 0.3693(9) 0.2265(7) 0.060(3) Uani 0.519(7) 1 d PD A -1
H23A H 0.1170 0.3161 0.2245 0.090 Uiso 0.519(7) 1 calc PR A -1
H23B H 0.0644 0.3045 0.2284 0.090 Uiso 0.519(7) 1 calc PR A -1
H23C H 0.0987 0.4284 0.2863 0.090 Uiso 0.519(7) 1 calc PR A -1
O1' O 0.0639(4) 0.5603(16) -0.0228(8) 0.058(3) Uani 0.481(7) 1 d PDU A -2
C21' C 0.0502(3) 0.5704(8) 0.0486(6) 0.040(2) Uani 0.481(7) 1 d PDU A -2
H21' H 0.0279 0.6418 0.0471 0.048 Uiso 0.481(7) 1 calc PR A -2
N5' N 0.0654(5) 0.4830(13) 0.1324(8) 0.038(4) Uani 0.481(7) 1 d PDU A -2
C22' C 0.1002(4) 0.3747(10) 0.1406(9) 0.064(3) Uani 0.481(7) 1 d PD A -2
H22D H 0.0874 0.2843 0.1515 0.096 Uiso 0.481(7) 1 calc PR A -2
H22E H 0.1292 0.3953 0.1971 0.096 Uiso 0.481(7) 1 calc PR A -2
H22F H 0.1077 0.3711 0.0788 0.096 Uiso 0.481(7) 1 calc PR A -2
C23' C 0.0454(4) 0.5006(10) 0.2128(7) 0.054(3) Uani 0.481(7) 1 d PD A -2
H23D H 0.0260 0.5856 0.2008 0.082 Uiso 0.481(7) 1 calc PR A -2
H23E H 0.0713 0.5082 0.2772 0.082 Uiso 0.481(7) 1 calc PR A -2
H23F H 0.0256 0.4195 0.2140 0.082 Uiso 0.481(7) 1 calc PR A -2

loop_
_atom_site_aniso_label
_atom_site_aniso_U_11
_atom_site_aniso_U_22
_atom_site_aniso_U_33
_atom_site_aniso_U_23
_atom_site_aniso_U_13
_atom_site_aniso_U_12
Zn1 0.0174(3) 0.0187(3) 0.0097(3) -0.0005(2) 0.0037(2) -0.0025(3)
N1 0.0154(14) 0.0163(13) 0.0077(13) -0.0005(10) 0.0021(11) -0.0013(11)
N2 0.0164(13) 0.0137(14) 0.0130(13) 0.0004(10) 0.0046(11) -0.0008(11)
N3 0.0200(16) 0.0416(18) 0.0286(18) 0.0053(14) 0.0093(14) 0.0014(14)
N4 0.0195(15) 0.0225(14) 0.0118(14) -0.0023(11) 0.0039(12) -0.0014(12)
C1 0.0194(17) 0.0109(14) 0.0150(16) 0.0005(13) 0.0064(14) 0.0010(13)
C2 0.0217(18) 0.0174(16) 0.0130(17) 0.0000(13) 0.0079(14) 0.0012(14)
C3 0.0196(18) 0.0148(16) 0.0191(18) 0.0014(13) 0.0082(15) 0.0000(13)
C4 0.0172(17) 0.0113(15) 0.0181(17) 0.0009(12) 0.0077(14) 0.0014(13)
C5 0.0166(17) 0.0120(14) 0.0130(16) -0.0007(12) 0.0044(13) 0.0001(13)
C6 0.0174(17) 0.0135(15) 0.0137(16) -0.0028(13) 0.0029(14) 0.0005(13)
C7 0.0164(17) 0.0167(15) 0.0158(17) -0.0031(13) 0.0035(14) -0.0014(13)
C8 0.0156(15) 0.0174(14) 0.0122(14) 0.0025(15) 0.0026(12) 0.0018(16)
C9 0.0176(15) 0.0105(15) 0.0133(15) -0.0012(13) 0.0043(12) 0.0017(13)
C10 0.0202(17) 0.0138(16) 0.0108(16) -0.0009(13) 0.0047(14) 0.0001(13)
C11 0.0170(17) 0.0224(16) 0.0088(16) -0.0001(13) 0.0036(13) 0.0013(14)
C12 0.0239(19) 0.0263(18) 0.0184(18) 0.0034(15) 0.0084(15) -0.0002(15)
C13 0.0211(19) 0.0268(18) 0.0203(19) -0.0023(15) 0.0042(15) -0.0019(15)
C14 0.029(2) 0.0275(19) 0.030(2) -0.0016(16) 0.0084(17) -0.0079(17)
C15 0.0153(19) 0.050(2) 0.027(2) -0.0015(18) 0.0039(16) -0.0092(17)
C16 0.0148(16) 0.0187(16) 0.0112(16) 0.0017(13) 0.0044(13) 0.0002(13)
C17 0.0179(17) 0.0199(16) 0.0133(16) 0.0003(14) 0.0040(14) 0.0023(13)
C18 0.0171(15) 0.0184(15) 0.0173(15) 0.0008(15) 0.0061(12) -0.0013(15)
C19 0.0201(18) 0.0242(16) 0.0165(17) 0.0059(13) 0.0057(14) 0.0051(14)
C20 0.0212(18) 0.0234(17) 0.0081(16) -0.0015(13) 0.0030(14) 0.0027(14)
O1 0.049(7) 0.065(7) 0.051(5) -0.006(4) 0.003(5) -0.013(5)
C21 0.044(4) 0.038(4) 0.050(4) -0.012(3) 0.007(3) -0.001(3)
N5 0.044(5) 0.040(5) 0.049(5) -0.010(3) 0.008(3) -0.003(3)
C22 0.029(5) 0.038(5) 0.068(7) -0.003(5) 0.007(5) 0.004(4)
C23 0.055(6) 0.055(6) 0.052(6) -0.004(5) -0.003(5) 0.014(5)
O1' 0.050(6) 0.054(5) 0.059(6) -0.013(4) 0.006(5) -0.002(5)
C21' 0.036(4) 0.034(3) 0.045(4) -0.008(3) 0.005(3) -0.002(3)
N5' 0.037(5) 0.029(4) 0.040(5) -0.008(3) 0.002(3) -0.007(3)
C22' 0.066(7) 0.037(5) 0.086(9) -0.003(6) 0.023(6) 0.023(5)
C23' 0.058(7) 0.039(5) 0.063(7) -0.006(5) 0.016(6) -0.007(5)

_geom_special_details            
;
All esds (except the esd in the dihedral angle between two l.s. planes)
are estimated using the full covariance matrix. The cell esds are taken
into account individually in the estimation of esds in distances, angles
and torsion angles; correlations between esds in cell parameters are only
used when they are defined by crystal symmetry. An approximate (isotropic)
treatment of cell esds is used for estimating esds involving l.s. planes.
;

loop_
_geom_bond_atom_site_label_1
_geom_bond_atom_site_label_2
_geom_bond_distance
_geom_bond_site_symmetry_2
_geom_bond_publ_flag
Zn1 N1 2.067(2) 7 ?
Zn1 N1 2.067(2) . ?
Zn1 N2 2.070(2) 7 ?
Zn1 N2 2.070(2) . ?
Zn1 N4 2.332(3) 7 ?
Zn1 N4 2.332(3) . ?
N1 C4 1.366(4) . ?
N1 C1 1.373(4) . ?
N2 C6 1.366(4) . ?
N2 C9 1.369(4) . ?
N3 C12 1.335(4) . ?
N3 C15 1.346(4) . ?
N4 C17 1.334(4) 4 ?
N4 C20 1.344(4) . ?
C1 C10 1.415(4) . ?
C1 C2 1.451(4) . ?
C2 C3 1.357(4) . ?
C2 H2 0.9500 . ?
C3 C4 1.445(4) . ?
C3 H3 0.9500 . ?
C4 C5 1.414(4) 7 ?
C5 C6 1.412(4) . ?
C5 C4 1.414(4) 7 ?
C5 C11 1.499(4) . ?
C6 C7 1.447(4) . ?
C7 C8 1.354(4) . ?
C7 H7 0.9500 . ?
C8 C9 1.450(4) . ?
C8 H8 0.9500 . ?
C9 C10 1.410(4) . ?
C10 C16 1.492(4) . ?
C11 C13 1.391(4) . ?
C11 C12 1.394(4) . ?
C12 H12 0.9500 . ?
C13 C14 1.379(5) . ?
C13 H13 0.9500 . ?
C14 C15 1.372(5) . ?
C14 H14 0.9500 . ?
C15 H15 0.9500 . ?
C16 C17 1.394(4) . ?
C16 C18 1.397(4) . ?
C17 N4 1.334(4) 4_545 ?
C17 H17 0.9500 . ?
C18 C19 1.385(4) 4_545 ?
C18 H18 0.9500 . ?
C19 C20 1.382(4) . ?
C19 C18 1.385(4) 4 ?
C19 H19 0.9500 . ?
C20 H20 0.9500 . ?
O1 C21 1.217(7) . ?
C21 N5 1.394(7) . ?
C21 H21 0.9500 . ?
N5 C22 1.456(7) . ?
N5 C23 1.463(7) . ?
C22 H22A 0.9800 . ?
C22 H22B 0.9800 . ?
C22 H22C 0.9800 . ?
C23 H23A 0.9800 . ?
C23 H23B 0.9800 . ?
C23 H23C 0.9800 . ?
O1' C21' 1.223(8) . ?
C21' N5' 1.399(7) . ?
C21' H21' 0.9500 . ?
N5' C22' 1.446(7) . ?
N5' C23' 1.469(7) . ?
C22' H22D 0.9800 . ?
C22' H22E 0.9800 . ?
C22' H22F 0.9800 . ?
C23' H23D 0.9800 . ?
C23' H23E 0.9800 . ?
C23' H23F 0.9800 . ?

loop_
_geom_angle_atom_site_label_1
_geom_angle_atom_site_label_2
_geom_angle_atom_site_label_3
_geom_angle
_geom_angle_site_symmetry_1
_geom_angle_site_symmetry_3
_geom_angle_publ_flag
N1 Zn1 N1 180.0 7 . ?
N1 Zn1 N2 89.47(9) 7 7 ?
N1 Zn1 N2 90.53(9) . 7 ?
N1 Zn1 N2 90.53(9) 7 . ?
N1 Zn1 N2 89.47(9) . . ?
N2 Zn1 N2 180.0 7 . ?
N1 Zn1 N4 89.09(9) 7 7 ?
N1 Zn1 N4 90.92(9) . 7 ?
N2 Zn1 N4 92.14(9) 7 7 ?
N2 Zn1 N4 87.86(9) . 7 ?
N1 Zn1 N4 90.92(9) 7 . ?
N1 Zn1 N4 89.08(9) . . ?
N2 Zn1 N4 87.86(9) 7 . ?
N2 Zn1 N4 92.14(9) . . ?
N4 Zn1 N4 180.0 7 . ?
C4 N1 C1 107.1(2) . . ?
C4 N1 Zn1 125.34(19) . . ?
C1 N1 Zn1 127.0(2) . . ?
C6 N2 C9 106.7(2) . . ?
C6 N2 Zn1 125.9(2) . . ?
C9 N2 Zn1 126.60(19) . . ?
C12 N3 C15 116.3(3) . . ?
C17 N4 C20 117.0(3) 4 . ?
C17 N4 Zn1 116.6(2) 4 . ?
C20 N4 Zn1 125.1(2) . . ?
N1 C1 C10 125.0(3) . . ?
N1 C1 C2 109.3(3) . . ?
C10 C1 C2 125.8(3) . . ?
C3 C2 C1 106.9(3) . . ?
C3 C2 H2 126.6 . . ?
C1 C2 H2 126.6 . . ?
C2 C3 C4 107.1(3) . . ?
C2 C3 H3 126.4 . . ?
C4 C3 H3 126.4 . . ?
N1 C4 C5 126.2(3) . 7 ?
N1 C4 C3 109.6(3) . . ?
C5 C4 C3 124.1(3) 7 . ?
C6 C5 C4 126.0(3) . 7 ?
C6 C5 C11 117.3(3) . . ?
C4 C5 C11 116.8(3) 7 . ?
N2 C6 C5 125.4(3) . . ?
N2 C6 C7 109.9(3) . . ?
C5 C6 C7 124.7(3) . . ?
C8 C7 C6 106.9(3) . . ?
C8 C7 H7 126.6 . . ?
C6 C7 H7 126.6 . . ?
C7 C8 C9 106.8(3) . . ?
C7 C8 H8 126.6 . . ?
C9 C8 H8 126.6 . . ?
N2 C9 C10 125.5(3) . . ?
N2 C9 C8 109.7(2) . . ?
C10 C9 C8 124.8(3) . . ?
C9 C10 C1 125.9(3) . . ?
C9 C10 C16 117.5(3) . . ?
C1 C10 C16 116.7(3) . . ?
C13 C11 C12 116.6(3) . . ?
C13 C11 C5 121.9(3) . . ?
C12 C11 C5 121.5(3) . . ?
N3 C12 C11 124.8(3) . . ?
N3 C12 H12 117.6 . . ?
C11 C12 H12 117.6 . . ?
C14 C13 C11 120.0(3) . . ?
C14 C13 H13 120.0 . . ?
C11 C13 H13 120.0 . . ?
C15 C14 C13 118.5(3) . . ?
C15 C14 H14 120.7 . . ?
C13 C14 H14 120.7 . . ?
N3 C15 C14 123.8(3) . . ?
N3 C15 H15 118.1 . . ?
C14 C15 H15 118.1 . . ?
C17 C16 C18 117.0(3) . . ?
C17 C16 C10 120.3(3) . . ?
C18 C16 C10 122.6(3) . . ?
N4 C17 C16 124.8(3) 4_545 . ?
N4 C17 H17 117.6 4_545 . ?
C16 C17 H17 117.6 . . ?
C19 C18 C16 118.6(3) 4_545 . ?
C19 C18 H18 120.7 4_545 . ?
C16 C18 H18 120.7 . . ?
C20 C19 C18 119.8(3) . 4 ?
C20 C19 H19 120.1 . . ?
C18 C19 H19 120.1 4 . ?
N4 C20 C19 122.5(3) . . ?
N4 C20 H20 118.7 . . ?
C19 C20 H20 118.7 . . ?
O1 C21 N5 124.4(9) . . ?
O1 C21 H21 117.8 . . ?
N5 C21 H21 117.8 . . ?
C21 N5 C22 119.8(8) . . ?
C21 N5 C23 121.6(9) . . ?
C22 N5 C23 118.4(8) . . ?
O1' C21' N5' 123.9(10) . . ?
O1' C21' H21' 118.1 . . ?
N5' C21' H21' 118.1 . . ?
C21' N5' C22' 120.8(9) . . ?
C21' N5' C23' 119.7(9) . . ?
C22' N5' C23' 119.5(9) . . ?
N5' C22' H22D 109.5 . . ?
N5' C22' H22E 109.5 . . ?
H22D C22' H22E 109.5 . . ?
N5' C22' H22F 109.5 . . ?
H22D C22' H22F 109.5 . . ?
H22E C22' H22F 109.5 . . ?
N5' C23' H23D 109.5 . . ?
N5' C23' H23E 109.5 . . ?
H23D C23' H23E 109.5 . . ?
N5' C23' H23F 109.5 . . ?
H23D C23' H23F 109.5 . . ?
H23E C23' H23F 109.5 . . ?

_diffrn_measured_fraction_theta_max 1.000
_diffrn_reflns_theta_full        26.00
_diffrn_measured_fraction_theta_full 1.000
_refine_diff_density_max         0.506
_refine_diff_density_min         -0.606
_refine_diff_density_rms         0.077



