####################################################################### 
# 
# This file contains crystal structure data downloaded from the 
# Cambridge Structural Database (CSD) hosted by the Cambridge 
# Crystallographic Data Centre (CCDC).
# 
# Full information about CCDC data access policies and citation 
# guidelines are available at http://www.ccdc.cam.ac.uk/access/V1 
# 
# Audit and citation data items may have been added by the CCDC. 
# Please retain this information to preserve the provenance of 
# this file and to allow appropriate attribution of the data. 
# 
#######################################################################

data_d:\w4572\h
_audit_block_doi                 10.5517/ccvsgdg
_database_code_depnum_ccdc_archive 'CCDC 798076'
loop_
_citation_id
_citation_doi
_citation_year
1 10.1007/s10876-011-0404-4 2011
_audit_update_record             
;
2010-10-23 deposited with the CCDC.	2024-07-10 downloaded from the CCDC.
;
#TrackingRef 'h.cif'


_audit_creation_method           SHELXL-97
_chemical_name_systematic        
;
?
;
_chemical_name_common            ?
_chemical_melting_point          ?
_chemical_formula_moiety         ?
_chemical_formula_sum            'C29 H12 Cu3 I3 Mo N5 O S3'
_chemical_formula_weight         1209.88

loop_
_atom_type_symbol
_atom_type_description
_atom_type_scat_dispersion_real
_atom_type_scat_dispersion_imag
_atom_type_scat_source
C C 0.0033 0.0016 'International Tables Vol C Tables 4.2.6.8 and 6.1.1.4'
H H 0.0000 0.0000 'International Tables Vol C Tables 4.2.6.8 and 6.1.1.4'
N N 0.0061 0.0033 'International Tables Vol C Tables 4.2.6.8 and 6.1.1.4'
O O 0.0106 0.0060 'International Tables Vol C Tables 4.2.6.8 and 6.1.1.4'
S S 0.1246 0.1234 'International Tables Vol C Tables 4.2.6.8 and 6.1.1.4'
Cu Cu 0.3201 1.2651 'International Tables Vol C Tables 4.2.6.8 and 6.1.1.4'
Mo Mo -1.6832 0.6857 'International Tables Vol C Tables 4.2.6.8 and 6.1.1.4'
I I -0.4742 1.8119 'International Tables Vol C Tables 4.2.6.8 and 6.1.1.4'

_symmetry_cell_setting           Monoclinic
_symmetry_space_group_name_H-M   P2(1)/c

loop_
_symmetry_equiv_pos_as_xyz
'x, y, z'
'-x, y+1/2, -z+1/2'
'-x, -y, -z'
'x, -y-1/2, z-1/2'

_cell_length_a                   18.0654(19)
_cell_length_b                   11.0899(11)
_cell_length_c                   22.772(2)
_cell_angle_alpha                90.00
_cell_angle_beta                 108.6530(10)
_cell_angle_gamma                90.00
_cell_volume                     4322.7(8)
_cell_formula_units_Z            4
_cell_measurement_temperature    296(2)
_cell_measurement_reflns_used    ?
_cell_measurement_theta_min      ?
_cell_measurement_theta_max      ?

_exptl_crystal_description       Prism
_exptl_crystal_colour            sorrel
_exptl_crystal_size_max          0.25
_exptl_crystal_size_mid          0.21
_exptl_crystal_size_min          0.16
_exptl_crystal_density_meas      ?
_exptl_crystal_density_diffrn    1.859
_exptl_crystal_density_method    'not measured'
_exptl_crystal_F_000             2260
_exptl_absorpt_coefficient_mu    4.053
_exptl_absorpt_correction_type   ?
_exptl_absorpt_correction_T_min  ?
_exptl_absorpt_correction_T_max  ?
_exptl_absorpt_process_details   ?

_exptl_special_details           
;
?
;

_diffrn_ambient_temperature      296(2)
_diffrn_radiation_wavelength     0.71073
_diffrn_radiation_type           MoK\a
_diffrn_radiation_source         'fine-focus sealed tube'
_diffrn_radiation_monochromator  graphite
_diffrn_measurement_device_type  ?
_diffrn_measurement_method       ?
_diffrn_detector_area_resol_mean ?
_diffrn_standards_number         ?
_diffrn_standards_interval_count ?
_diffrn_standards_interval_time  ?
_diffrn_standards_decay_%        ?
_diffrn_reflns_number            25537
_diffrn_reflns_av_R_equivalents  0.0336
_diffrn_reflns_av_sigmaI/netI    0.0364
_diffrn_reflns_limit_h_min       -21
_diffrn_reflns_limit_h_max       21
_diffrn_reflns_limit_k_min       -13
_diffrn_reflns_limit_k_max       13
_diffrn_reflns_limit_l_min       -27
_diffrn_reflns_limit_l_max       27
_diffrn_reflns_theta_min         2.38
_diffrn_reflns_theta_max         25.00
_reflns_number_total             7492
_reflns_number_gt                5423
_reflns_threshold_expression     >2sigma(I)

_computing_data_collection       CrystalClear
_computing_cell_refinement       CrystalClear
_computing_data_reduction        CrystalClear
_computing_structure_solution    'SHELXS-97 (Sheldrick, 1990)'
_computing_structure_refinement  'SHELXL-97 (Sheldrick, 1997)'
_computing_molecular_graphics    ?
_computing_publication_material  ?

_refine_special_details          
;
Refinement of F^2^ against ALL reflections. The weighted R-factor wR and
goodness of fit S are based on F^2^, conventional R-factors R are based
on F, with F set to zero for negative F^2^. The threshold expression of
F^2^ > 2sigma(F^2^) is used only for calculating R-factors(gt) etc. and is
not relevant to the choice of reflections for refinement. R-factors based
on F^2^ are statistically about twice as large as those based on F, and R-
factors based on ALL data will be even larger.
;

_refine_ls_structure_factor_coef Fsqd
_refine_ls_matrix_type           full
_refine_ls_weighting_scheme      calc
_refine_ls_weighting_details     
'calc w=1/[\s^2^(Fo^2^)+(0.2000P)^2^+0.0000P] where P=(Fo^2^+2Fc^2^)/3'
_atom_sites_solution_primary     direct
_atom_sites_solution_secondary   difmap
_atom_sites_solution_hydrogens   geom
_refine_ls_hydrogen_treatment    mixed
_refine_ls_extinction_method     none
_refine_ls_extinction_coef       ?
_refine_ls_number_reflns         7492
_refine_ls_number_parameters     392
_refine_ls_number_restraints     25
_refine_ls_R_factor_all          0.1237
_refine_ls_R_factor_gt           0.0951
_refine_ls_wR_factor_ref         0.3310
_refine_ls_wR_factor_gt          0.2957
_refine_ls_goodness_of_fit_ref   1.349
_refine_ls_restrained_S_all      1.349
_refine_ls_shift/su_max          0.443
_refine_ls_shift/su_mean         0.044

loop_
_atom_site_label
_atom_site_type_symbol
_atom_site_fract_x
_atom_site_fract_y
_atom_site_fract_z
_atom_site_U_iso_or_equiv
_atom_site_adp_type
_atom_site_occupancy
_atom_site_symmetry_multiplicity
_atom_site_calc_flag
_atom_site_refinement_flags
_atom_site_disorder_assembly
_atom_site_disorder_group
I1 I 0.92572(10) 0.61506(16) 0.53110(8) 0.1154(13) Uani 1 1 d . . .
I2 I 0.65860(9) 1.07862(13) 0.63148(8) 0.1064(12) Uani 1 1 d . . .
I3 I 0.71409(8) 0.44722(13) 0.74565(7) 0.1011(12) Uani 1 1 d . . .
Mo1 Mo 0.85909(5) 0.78381(9) 0.69369(4) 0.0441(12) Uani 1 1 d . . .
Cu1 Cu 0.83605(9) 0.65116(14) 0.59086(7) 0.0523(12) Uani 1 1 d . . .
Cu2 Cu 0.71290(8) 0.86993(14) 0.64392(7) 0.0544(12) Uani 1 1 d . . .
Cu3 Cu 0.80991(8) 0.60359(13) 0.75127(6) 0.0504(12) Uani 1 1 d . . .
S1 S 0.80531(18) 0.8498(3) 0.59531(14) 0.0527(13) Uani 1 1 d . . .
S2 S 0.76928(18) 0.8004(3) 0.74312(14) 0.0536(13) Uani 1 1 d . . .
S3 S 0.88873(16) 0.5855(3) 0.69111(13) 0.0463(13) Uani 1 1 d . . .
O1 O 0.9410(5) 0.8641(8) 0.7322(5) 0.071(3) Uani 1 1 d . . .
N1 N 0.7362(6) 0.5550(11) 0.5482(5) 0.057(3) Uani 1 1 d . . .
N2 N 0.3895(6) 0.2267(12) 0.3997(5) 0.063(3) Uani 1 1 d . . .
N3 N 0.8887(6) 0.5739(9) 0.8448(4) 0.050(2) Uani 1 1 d . . .
N5 N 0.8048(12) 1.1199(18) 0.8434(9) 0.118(6) Uani 1 1 d D . .
C1 C 0.6902(11) 0.585(2) 0.4915(9) 0.117(9) Uani 1 1 d . . .
H1 H 0.7007 0.6530 0.4718 0.141 Uiso 1 1 calc R . .
C2 C 0.6241(12) 0.509(2) 0.4614(9) 0.130(11) Uani 1 1 d . . .
H2 H 0.5973 0.5233 0.4197 0.156 Uiso 1 1 calc R . .
C3 C 0.7093(15) 0.467(2) 0.5752(8) 0.125(10) Uani 1 1 d . . .
H3 H 0.7378 0.4473 0.6158 0.150 Uiso 1 1 calc R . .
C4 C 0.6412(16) 0.404(3) 0.5467(9) 0.147(13) Uani 1 1 d . . .
H4 H 0.6249 0.3459 0.5695 0.176 Uiso 1 1 calc R . .
C5 C 0.5993(7) 0.4220(12) 0.4891(6) 0.058(3) Uani 1 1 d . . .
C6 C 0.5260(7) 0.3541(12) 0.4577(6) 0.054(3) Uani 1 1 d . . .
C7 C 0.4719(11) 0.3890(16) 0.4010(8) 0.090(6) Uani 1 1 d . . .
H7 H 0.4811 0.4563 0.3800 0.108 Uiso 1 1 calc R . .
C8 C 0.4087(10) 0.3257(14) 0.3783(7) 0.085(5) Uani 1 1 d . . .
H8 H 0.3727 0.3553 0.3422 0.102 Uiso 1 1 calc R . .
C9 C 0.5069(10) 0.248(2) 0.4801(10) 0.113(8) Uani 1 1 d . . .
H9 H 0.5372 0.2211 0.5190 0.136 Uiso 1 1 calc R . .
C10 C 0.4458(12) 0.183(3) 0.4472(11) 0.126(10) Uani 1 1 d . . .
H10 H 0.4427 0.1034 0.4583 0.152 Uiso 1 1 calc R . .
C11 C 0.9478(7) 0.4998(14) 0.8573(5) 0.059(3) Uani 1 1 d . . .
H11 H 0.9606 0.4664 0.8243 0.071 Uiso 1 1 calc R . .
C12 C 0.9928(8) 0.4681(12) 0.9171(5) 0.054(3) Uani 1 1 d . . .
H12 H 1.0338 0.4137 0.9232 0.064 Uiso 1 1 calc R . .
C13 C 0.9769(7) 0.5167(10) 0.9672(5) 0.048(3) Uani 1 1 d . . .
C14 C 0.9125(10) 0.5925(15) 0.9527(6) 0.073(5) Uani 1 1 d . . .
H14 H 0.8972 0.6254 0.9846 0.088 Uiso 1 1 calc R . .
C15 C 0.8725(9) 0.6191(16) 0.8947(7) 0.078(5) Uani 1 1 d . . .
H15 H 0.8306 0.6721 0.8877 0.093 Uiso 1 1 calc R . .
C17 C 0.8276(13) 1.222(2) 0.5340(10) 0.107(6) Uani 1 1 d DU . .
C18 C 0.8937(16) 1.282(3) 0.530(2) 1.4(5) Uiso 1 1 d D . .
C19 C 0.957(2) 1.316(3) 0.5813(18) 0.154(11) Uiso 1 1 d D . .
C20 C 0.9825(19) 1.311(3) 0.6461(19) 0.62(12) Uiso 1 1 d D . .
C23 C 0.874(3) 1.158(2) 0.7827(15) 0.24(3) Uani 1 1 d D . .
H23A H 0.8335 1.0986 0.7682 0.293 Uiso 1 1 calc R . .
H23B H 0.9237 1.1152 0.7964 0.293 Uiso 1 1 calc R . .
C24 C 0.8633(13) 1.221(2) 0.8400(10) 0.131(9) Uani 1 1 d D . .
H24A H 0.8396 1.3007 0.8313 0.157 Uiso 1 1 calc R . .
H24B H 0.9103 1.2237 0.8757 0.157 Uiso 1 1 calc R . .
C25 C 0.823(2) 1.024(3) 0.878(2) 0.21(2) Uani 1 1 d . . .
H25 H 0.8760 1.0072 0.8960 0.252 Uiso 1 1 calc R . .
C26 C 0.780(2) 0.960(3) 0.8892(15) 0.138(10) Uani 1 1 d . . .
H26 H 0.7993 0.9081 0.9225 0.165 Uiso 1 1 calc R . .
C27 C 0.7002(19) 0.955(4) 0.8556(17) 0.163(13) Uani 1 1 d . . .
H27 H 0.6646 0.9048 0.8653 0.196 Uiso 1 1 calc R . .
C28 C 0.6815(17) 1.035(3) 0.8060(16) 0.146(10) Uani 1 1 d . . .
H28 H 0.6323 1.0437 0.7768 0.175 Uiso 1 1 calc R . .
C29 C 0.7480(17) 1.099(3) 0.8070(10) 0.164(16) Uani 1 1 d . . .
H29 H 0.7443 1.1325 0.7687 0.197 Uiso 1 1 calc R . .
N4 N 0.9119(17) 1.2510(18) 0.6394(7) 0.179(14) Uani 1 1 d D . .
C21 C 0.9039(15) 1.1570(17) 0.6836(9) 0.108(7) Uani 1 1 d D . .
H21A H 0.9536 1.1196 0.7057 0.129 Uiso 1 1 calc R . .
H21B H 0.8662 1.0955 0.6634 0.129 Uiso 1 1 calc R . .
C22 C 0.8741(11) 1.2384(18) 0.7261(10) 0.140(12) Uani 1 1 d D . .
H22A H 0.8217 1.2669 0.7044 0.168 Uiso 1 1 calc R . .
H22B H 0.9082 1.3076 0.7398 0.168 Uiso 1 1 calc R . .
C16 C 0.8421(18) 1.207(2) 0.5978(10) 0(3) Uiso 0.50 1 d PD . .
C16' C 0.8421(18) 1.207(2) 0.5978(10) 1(3) Uiso 0.50 1 d PD . .

loop_
_atom_site_aniso_label
_atom_site_aniso_U_11
_atom_site_aniso_U_22
_atom_site_aniso_U_33
_atom_site_aniso_U_23
_atom_site_aniso_U_13
_atom_site_aniso_U_12
I1 0.1362(17) 0.1168(16) 0.1205(16) 0.0243(9) 0.0796(11) 0.0278(9)
I2 0.0980(15) 0.0818(15) 0.1347(16) 0.0170(7) 0.0307(9) 0.0153(7)
I3 0.1003(15) 0.0888(15) 0.1139(15) 0.0090(7) 0.0338(8) -0.0117(7)
Mo1 0.0383(12) 0.0387(13) 0.0506(12) 0.0002(4) 0.0076(5) -0.0008(4)
Cu1 0.0556(14) 0.0508(14) 0.0505(14) -0.0005(6) 0.0169(7) -0.0012(6)
Cu2 0.0428(13) 0.0551(15) 0.0614(14) 0.0079(7) 0.0110(7) 0.0048(6)
Cu3 0.0535(14) 0.0493(14) 0.0474(13) 0.0060(6) 0.0149(7) 0.0027(6)
S1 0.0538(19) 0.047(2) 0.058(2) 0.0094(13) 0.0180(13) 0.0031(13)
S2 0.0549(19) 0.055(2) 0.0507(19) 0.0031(13) 0.0165(13) 0.0083(13)
S3 0.0464(18) 0.0400(18) 0.0518(18) 0.0019(11) 0.0146(12) 0.0034(11)
O1 0.049(5) 0.052(5) 0.099(7) -0.010(5) 0.005(5) -0.011(4)
N1 0.045(5) 0.067(7) 0.054(5) 0.008(5) 0.007(4) 0.002(5)
N2 0.041(5) 0.077(8) 0.062(6) 0.006(6) 0.005(4) -0.006(5)
N3 0.059(6) 0.043(5) 0.045(5) 0.000(4) 0.012(4) 0.013(4)
N5 0.122(15) 0.132(17) 0.096(12) 0.024(11) 0.029(11) 0.013(13)
C1 0.076(11) 0.15(2) 0.090(12) 0.044(13) -0.017(9) -0.062(12)
C2 0.096(13) 0.16(2) 0.088(12) 0.061(13) -0.038(10) -0.078(14)
C3 0.153(19) 0.116(16) 0.062(9) 0.028(10) -0.030(11) -0.087(15)
C4 0.15(2) 0.17(2) 0.067(11) 0.054(13) -0.029(12) -0.109(19)
C5 0.042(6) 0.061(8) 0.064(7) -0.007(6) 0.007(5) 0.000(5)
C6 0.050(6) 0.053(7) 0.056(7) 0.002(5) 0.013(5) -0.005(5)
C7 0.092(12) 0.078(11) 0.081(10) 0.034(9) 0.004(9) -0.025(9)
C8 0.082(10) 0.056(8) 0.077(9) 0.018(7) -0.030(8) -0.013(8)
C9 0.067(10) 0.117(16) 0.117(15) 0.063(13) -0.023(10) -0.031(10)
C10 0.081(12) 0.14(2) 0.122(16) 0.070(16) -0.012(11) -0.026(13)
C11 0.052(7) 0.075(9) 0.042(6) 0.000(6) 0.004(5) -0.002(6)
C12 0.064(7) 0.054(7) 0.044(6) 0.003(5) 0.019(5) 0.014(6)
C13 0.060(7) 0.038(6) 0.045(6) -0.002(5) 0.015(5) 0.005(5)
C14 0.087(10) 0.084(10) 0.043(6) -0.007(6) 0.013(6) 0.040(8)
C15 0.073(9) 0.091(11) 0.059(8) -0.003(7) 0.005(7) 0.039(8)
C17 0.100(9) 0.136(11) 0.087(8) 0.000(8) 0.033(7) 0.009(8)
C23 0.56(8) 0.071(13) 0.26(4) -0.022(18) 0.35(5) -0.01(3)
C24 0.099(15) 0.12(2) 0.15(2) 0.023(17) 0.017(14) -0.022(14)
C25 0.17(3) 0.19(3) 0.33(5) 0.19(4) 0.17(3) 0.09(2)
C26 0.19(3) 0.108(19) 0.14(2) -0.027(16) 0.08(2) -0.030(19)
C27 0.101(19) 0.21(4) 0.16(3) 0.05(3) 0.014(18) 0.01(2)
C28 0.106(19) 0.15(3) 0.16(3) -0.03(2) 0.019(17) 0.003(17)
C29 0.14(2) 0.28(4) 0.073(12) -0.040(17) 0.037(13) -0.15(3)
N4 0.27(3) 0.141(19) 0.064(10) -0.027(11) -0.041(14) 0.07(2)
C21 0.146(19) 0.094(15) 0.080(12) -0.005(10) 0.030(12) -0.018(13)
C22 0.061(10) 0.116(18) 0.24(3) -0.10(2) 0.035(14) -0.023(10)

_geom_special_details            
;
All esds (except the esd in the dihedral angle between two l.s. planes)
are estimated using the full covariance matrix. The cell esds are taken
into account individually in the estimation of esds in distances, angles
and torsion angles; correlations between esds in cell parameters are only
used when they are defined by crystal symmetry. An approximate (isotropic)
treatment of cell esds is used for estimating esds involving l.s. planes.
;

loop_
_geom_bond_atom_site_label_1
_geom_bond_atom_site_label_2
_geom_bond_distance
_geom_bond_site_symmetry_2
_geom_bond_publ_flag
I1 Cu1 2.459(2) . ?
I2 Cu2 2.494(2) . ?
I3 Cu3 2.424(2) . ?
Mo1 O1 1.709(9) . ?
Mo1 S2 2.259(3) . ?
Mo1 S1 2.260(3) . ?
Mo1 S3 2.268(3) . ?
Mo1 Cu1 2.6828(18) . ?
Mo1 Cu3 2.6923(18) . ?
Mo1 Cu2 2.6938(17) . ?
Cu1 N1 2.053(11) . ?
Cu1 S1 2.282(3) . ?
Cu1 S3 2.293(3) . ?
Cu2 N2 2.093(11) 3_666 ?
Cu2 S1 2.290(3) . ?
Cu2 S2 2.294(3) . ?
Cu3 N3 2.175(9) . ?
Cu3 S3 2.279(3) . ?
Cu3 S2 2.291(4) . ?
N1 C3 1.32(2) . ?
N1 C1 1.33(2) . ?
N2 C8 1.293(19) . ?
N2 C10 1.32(2) . ?
N2 Cu2 2.093(11) 3_666 ?
N3 C11 1.305(17) . ?
N3 C15 1.357(18) . ?
N5 C29 1.12(3) . ?
N5 C25 1.30(3) . ?
N5 C24 1.563(10) . ?
C1 C2 1.44(2) . ?
C1 H1 0.9300 . ?
C2 C5 1.31(2) . ?
C2 H2 0.9300 . ?
C3 C4 1.39(2) . ?
C3 H3 0.9300 . ?
C4 C5 1.30(2) . ?
C4 H4 0.9300 . ?
C5 C6 1.493(17) . ?
C6 C9 1.37(2) . ?
C6 C7 1.40(2) . ?
C7 C8 1.30(2) . ?
C7 H7 0.9300 . ?
C8 H8 0.9300 . ?
C9 C10 1.33(3) . ?
C9 H9 0.9300 . ?
C10 H10 0.9300 . ?
C11 C12 1.390(17) . ?
C11 H11 0.9300 . ?
C12 C13 1.374(16) . ?
C12 H12 0.9300 . ?
C13 C14 1.387(18) . ?
C13 C13 1.51(2) 3_767 ?
C14 C15 1.32(2) . ?
C14 H14 0.9300 . ?
C15 H15 0.9300 . ?
C17 C18 1.399(10) . ?
C17 C16' 1.400(10) . ?
C17 C16 1.400(10) . ?
C18 C19 1.401(10) . ?
C19 C20 1.399(10) . ?
C19 N4 1.90(5) . ?
C20 N4 1.401(10) . ?
C23 C24 1.549(10) . ?
C23 C22 1.563(10) . ?
C23 H23A 0.9700 . ?
C23 H23B 0.9700 . ?
C24 H24A 0.9700 . ?
C24 H24B 0.9700 . ?
C25 C26 1.13(4) . ?
C25 C29 1.94(5) . ?
C25 H25 0.9300 . ?
C26 C27 1.40(4) . ?
C26 H26 0.9300 . ?
C27 C28 1.39(5) . ?
C27 H27 0.9300 . ?
C28 C29 1.39(4) . ?
C28 H28 0.9300 . ?
C29 H29 0.9300 . ?
N4 C16' 1.400(10) . ?
N4 C16 1.400(10) . ?
N4 C21 1.487(10) . ?
C21 C22 1.541(10) . ?
C21 C16 2.00(3) . ?
C21 C16' 2.00(3) . ?
C21 H21A 0.9700 . ?
C21 H21B 0.9700 . ?
C22 H22A 0.9700 . ?
C22 H22B 0.9700 . ?

loop_
_geom_angle_atom_site_label_1
_geom_angle_atom_site_label_2
_geom_angle_atom_site_label_3
_geom_angle
_geom_angle_site_symmetry_1
_geom_angle_site_symmetry_3
_geom_angle_publ_flag
O1 Mo1 S2 110.1(4) . . ?
O1 Mo1 S1 111.6(4) . . ?
S2 Mo1 S1 108.55(11) . . ?
O1 Mo1 S3 110.2(3) . . ?
S2 Mo1 S3 107.75(12) . . ?
S1 Mo1 S3 108.57(11) . . ?
O1 Mo1 Cu1 126.9(4) . . ?
S2 Mo1 Cu1 122.95(10) . . ?
S1 Mo1 Cu1 54.18(9) . . ?
S3 Mo1 Cu1 54.40(8) . . ?
O1 Mo1 Cu3 120.2(4) . . ?
S2 Mo1 Cu3 54.27(9) . . ?
S1 Mo1 Cu3 128.25(9) . . ?
S3 Mo1 Cu3 53.87(8) . . ?
Cu1 Mo1 Cu3 91.99(5) . . ?
O1 Mo1 Cu2 127.1(3) . . ?
S2 Mo1 Cu2 54.34(8) . . ?
S1 Mo1 Cu2 54.22(9) . . ?
S3 Mo1 Cu2 122.72(9) . . ?
Cu1 Mo1 Cu2 88.26(5) . . ?
Cu3 Mo1 Cu2 92.08(5) . . ?
N1 Cu1 S1 109.4(3) . . ?
N1 Cu1 S3 109.2(3) . . ?
S1 Cu1 S3 106.96(12) . . ?
N1 Cu1 I1 106.8(3) . . ?
S1 Cu1 I1 113.23(11) . . ?
S3 Cu1 I1 111.24(10) . . ?
N1 Cu1 Mo1 124.4(3) . . ?
S1 Cu1 Mo1 53.41(9) . . ?
S3 Cu1 Mo1 53.55(8) . . ?
I1 Cu1 Mo1 128.80(8) . . ?
N2 Cu2 S1 113.0(3) 3_666 . ?
N2 Cu2 S2 110.0(3) 3_666 . ?
S1 Cu2 S2 106.29(12) . . ?
N2 Cu2 I2 99.5(3) 3_666 . ?
S1 Cu2 I2 110.89(10) . . ?
S2 Cu2 I2 117.29(11) . . ?
N2 Cu2 Mo1 128.1(3) 3_666 . ?
S1 Cu2 Mo1 53.18(8) . . ?
S2 Cu2 Mo1 53.1