####################################################################### 
# 
# This file contains crystal structure data downloaded from the 
# Cambridge Structural Database (CSD) hosted by the Cambridge 
# Crystallographic Data Centre (CCDC).
# 
# Full information about CCDC data access policies and citation 
# guidelines are available at http://www.ccdc.cam.ac.uk/access/V1 
# 
# Audit and citation data items may have been added by the CCDC. 
# Please retain this information to preserve the provenance of 
# this file and to allow appropriate attribution of the data. 
# 
#######################################################################

data_d:\hy\w4573\b
_audit_block_doi                 10.5517/ccvsgcf
_database_code_depnum_ccdc_archive 'CCDC 798075'
loop_
_citation_id
_citation_doi
_citation_year
1 10.1007/s10876-011-0404-4 2011
_audit_update_record             
;
2010-10-23 deposited with the CCDC.	2024-07-10 downloaded from the CCDC.
;
#TrackingRef 'b.cif'


_audit_creation_method           SHELXL-97
_chemical_name_systematic        
;
?
;
_chemical_name_common            ?
_chemical_melting_point          ?
_chemical_formula_moiety         ?
_chemical_formula_sum            'C28 H28 Cu3 I3 Mo N5 O S3'
_chemical_formula_weight         1213.99

loop_
_atom_type_symbol
_atom_type_description
_atom_type_scat_dispersion_real
_atom_type_scat_dispersion_imag
_atom_type_scat_source
C C 0.0033 0.0016 'International Tables Vol C Tables 4.2.6.8 and 6.1.1.4'
H H 0.0000 0.0000 'International Tables Vol C Tables 4.2.6.8 and 6.1.1.4'
N N 0.0061 0.0033 'International Tables Vol C Tables 4.2.6.8 and 6.1.1.4'
O O 0.0106 0.0060 'International Tables Vol C Tables 4.2.6.8 and 6.1.1.4'
S S 0.1246 0.1234 'International Tables Vol C Tables 4.2.6.8 and 6.1.1.4'
Cu Cu 0.3201 1.2651 'International Tables Vol C Tables 4.2.6.8 and 6.1.1.4'
Mo Mo -1.6832 0.6857 'International Tables Vol C Tables 4.2.6.8 and 6.1.1.4'
I I -0.4742 1.8119 'International Tables Vol C Tables 4.2.6.8 and 6.1.1.4'

_symmetry_cell_setting           Monoclinic
_symmetry_space_group_name_H-M   P2(1)/c

loop_
_symmetry_equiv_pos_as_xyz
'x, y, z'
'-x, y+1/2, -z+1/2'
'-x, -y, -z'
'x, -y-1/2, z-1/2'

_cell_length_a                   17.881(15)
_cell_length_b                   11.321(9)
_cell_length_c                   23.143(19)
_cell_angle_alpha                90.00
_cell_angle_beta                 110.060(10)
_cell_angle_gamma                90.00
_cell_volume                     4401(6)
_cell_formula_units_Z            4
_cell_measurement_temperature    296(2)
_cell_measurement_reflns_used    ?
_cell_measurement_theta_min      ?
_cell_measurement_theta_max      ?

_exptl_crystal_description       Prism
_exptl_crystal_colour            sorrel
_exptl_crystal_size_max          0.24
_exptl_crystal_size_mid          0.22
_exptl_crystal_size_min          0.18
_exptl_crystal_density_meas      ?
_exptl_crystal_density_diffrn    1.832
_exptl_crystal_density_method    'not measured'
_exptl_crystal_F_000             2300
_exptl_absorpt_coefficient_mu    3.981
_exptl_absorpt_correction_type   ?
_exptl_absorpt_correction_T_min  ?
_exptl_absorpt_correction_T_max  ?
_exptl_absorpt_process_details   ?

_exptl_special_details           
;
?
;

_diffrn_ambient_temperature      296(2)
_diffrn_radiation_wavelength     0.71073
_diffrn_radiation_type           MoK\a
_diffrn_radiation_source         'fine-focus sealed tube'
_diffrn_radiation_monochromator  graphite
_diffrn_measurement_device_type  ?
_diffrn_measurement_method       ?
_diffrn_detector_area_resol_mean ?
_diffrn_standards_number         ?
_diffrn_standards_interval_count ?
_diffrn_standards_interval_time  ?
_diffrn_standards_decay_%        ?
_diffrn_reflns_number            29007
_diffrn_reflns_av_R_equivalents  0.0386
_diffrn_reflns_av_sigmaI/netI    0.0374
_diffrn_reflns_limit_h_min       -21
_diffrn_reflns_limit_h_max       20
_diffrn_reflns_limit_k_min       -13
_diffrn_reflns_limit_k_max       13
_diffrn_reflns_limit_l_min       -27
_diffrn_reflns_limit_l_max       27
_diffrn_reflns_theta_min         2.43
_diffrn_reflns_theta_max         25.00
_reflns_number_total             7651
_reflns_number_gt                5372
_reflns_threshold_expression     >2sigma(I)

_computing_data_collection       CrystalClear
_computing_cell_refinement       CrystalClear
_computing_data_reduction        CrystalClear
_computing_structure_solution    'SHELXS-97 (Sheldrick, 1990)'
_computing_structure_refinement  'SHELXL-97 (Sheldrick, 1997)'
_computing_molecular_graphics    ?
_computing_publication_material  ?

_refine_special_details          
;
Refinement of F^2^ against ALL reflections. The weighted R-factor wR and
goodness of fit S are based on F^2^, conventional R-factors R are based
on F, with F set to zero for negative F^2^. The threshold expression of
F^2^ > 2sigma(F^2^) is used only for calculating R-factors(gt) etc. and is
not relevant to the choice of reflections for refinement. R-factors based
on F^2^ are statistically about twice as large as those based on F, and R-
factors based on ALL data will be even larger.
;

_refine_ls_structure_factor_coef Fsqd
_refine_ls_matrix_type           full
_refine_ls_weighting_scheme      calc
_refine_ls_weighting_details     
'calc w=1/[\s^2^(Fo^2^)+(0.1732P)^2^+3.9839P] where P=(Fo^2^+2Fc^2^)/3'
_atom_sites_solution_primary     direct
_atom_sites_solution_secondary   difmap
_atom_sites_solution_hydrogens   geom
_refine_ls_hydrogen_treatment    mixed
_refine_ls_extinction_method     none
_refine_ls_extinction_coef       ?
_refine_ls_number_reflns         7651
_refine_ls_number_parameters     399
_refine_ls_number_restraints     32
_refine_ls_R_factor_all          0.1092
_refine_ls_R_factor_gt           0.0809
_refine_ls_wR_factor_ref         0.2680
_refine_ls_wR_factor_gt          0.2360
_refine_ls_goodness_of_fit_ref   1.043
_refine_ls_restrained_S_all      1.042
_refine_ls_shift/su_max          0.071
_refine_ls_shift/su_mean         0.006

loop_
_atom_site_label
_atom_site_type_symbol
_atom_site_fract_x
_atom_site_fract_y
_atom_site_fract_z
_atom_site_U_iso_or_equiv
_atom_site_adp_type
_atom_site_occupancy
_atom_site_symmetry_multiplicity
_atom_site_calc_flag
_atom_site_refinement_flags
_atom_site_disorder_assembly
_atom_site_disorder_group
I1 I 0.93537(9) 0.63271(13) 0.53638(6) 0.1197(10) Uani 1 1 d . . .
I2 I 0.65787(7) 1.07250(10) 0.63328(7) 0.1133(10) Uani 1 1 d . . .
I3 I 0.71775(8) 0.45858(14) 0.74216(7) 0.1329(10) Uani 1 1 d . . .
Mo1 Mo 0.86171(5) 0.79081(7) 0.69499(4) 0.0543(9) Uani 1 1 d . . .
Cu1 Cu 0.84694(8) 0.65525(12) 0.59590(6) 0.0611(9) Uani 1 1 d . . .
Cu2 Cu 0.71001(7) 0.86450(12) 0.64011(6) 0.0632(9) Uani 1 1 d . . .
Cu3 Cu 0.81657(8) 0.61002(12) 0.75089(6) 0.0643(9) Uani 1 1 d . . .
S1 S 0.80618(16) 0.8475(2) 0.59566(13) 0.0642(11) Uani 1 1 d . . .
S2 S 0.76718(17) 0.7987(3) 0.73940(12) 0.0672(11) Uani 1 1 d . . .
S3 S 0.90233(15) 0.5998(2) 0.69683(11) 0.0575(10) Uani 1 1 d . . .
O1 O 0.9418(5) 0.8791(8) 0.7338(5) 0.085(3) Uani 1 1 d . . .
N1 N 0.6059(5) 0.7751(9) 0.5962(4) 0.069(2) Uani 1 1 d . . .
N2 N 0.2506(5) 0.4546(9) 0.4467(4) 0.066(2) Uani 1 1 d . . .
N3 N 0.8935(5) 0.5824(8) 0.8450(4) 0.062(2) Uani 1 1 d . . .
N4 N 0.8865(8) 1.2177(13) 0.6290(7) 0.114(5) Uani 1 1 d D . .
N5 N 0.8493(8) 1.1465(12) 0.8112(6) 0.108(4) Uani 1 1 d D . .
C1 C 0.5950(7) 0.6650(11) 0.6097(5) 0.074(3) Uani 1 1 d . . .
H1 H 0.6373 0.6266 0.6387 0.089 Uiso 1 1 calc R . .
C2 C 0.5240(7) 0.6015(12) 0.5835(6) 0.077(3) Uani 1 1 d . . .
H2 H 0.5179 0.5273 0.5986 0.093 Uiso 1 1 calc R . .
C3 C 0.5420(9) 0.8228(13) 0.5524(8) 0.097(5) Uani 1 1 d . . .
H3 H 0.5445 0.9025 0.5434 0.116 Uiso 1 1 calc R . .
C4 C 0.4775(8) 0.7662(12) 0.5221(8) 0.097(5) Uani 1 1 d . . .
H4 H 0.4387 0.8042 0.4900 0.117 Uiso 1 1 calc R . .
C5 C 0.4646(6) 0.6492(10) 0.5363(5) 0.066(3) Uani 1 1 d . . .
C6 C 0.3898(6) 0.5833(10) 0.5051(5) 0.067(3) Uani 1 1 d . . .
C7 C 0.3665(8) 0.4931(15) 0.5355(6) 0.096(5) Uani 1 1 d . . .
H7 H 0.3971 0.4743 0.5758 0.115 Uiso 1 1 calc R . .
C8 C 0.2965(9) 0.4298(17) 0.5051(6) 0.102(5) Uani 1 1 d . . .
H8 H 0.2814 0.3690 0.5258 0.123 Uiso 1 1 calc R . .
C9 C 0.3429(8) 0.6087(11) 0.4458(6) 0.078(3) Uani 1 1 d . . .
H9 H 0.3565 0.6691 0.4240 0.093 Uiso 1 1 calc R . .
C10 C 0.2725(7) 0.5397(10) 0.4183(5) 0.071(3) Uani 1 1 d . . .
H10 H 0.2408 0.5566 0.3780 0.085 Uiso 1 1 calc R . .
C11 C 0.8716(8) 0.6183(12) 0.8917(5) 0.081(3) Uani 1 1 d . . .
H11 H 0.8271 0.6669 0.8823 0.097 Uiso 1 1 calc R . .
C12 C 0.9090(8) 0.5896(12) 0.9524(5) 0.077(3) Uani 1 1 d . . .
H12 H 0.8903 0.6174 0.9827 0.092 Uiso 1 1 calc R . .
C13 C 0.9576(7) 0.5150(11) 0.8614(5) 0.069(3) Uani 1 1 d . . .
H13 H 0.9751 0.4896 0.8300 0.083 Uiso 1 1 calc R . .
C14 C 1.0001(7) 0.4793(11) 0.9185(5) 0.067(3) Uani 1 1 d . . .
H14 H 1.0441 0.4306 0.9252 0.081 Uiso 1 1 calc R . .
C15 C 0.9778(6) 0.5153(9) 0.9675(4) 0.058(2) Uani 1 1 d . . .
C16 C 0.8760(17) 1.264(2) 0.5121(13) 0.22(2) Uani 1 1 d D . .
H16 H 0.8758 1.2842 0.4731 0.261 Uiso 1 1 calc R . .
C17 C 0.9325(17) 1.3103(17) 0.5651(13) 0.156(10) Uani 1 1 d D . .
H17 H 0.9696 1.3617 0.5588 0.187 Uiso 1 1 calc R . .
C18 C 0.9408(13) 1.2892(18) 0.6267(13) 0.186(14) Uani 1 1 d D . .
H18 H 0.9797 1.3221 0.6606 0.223 Uiso 1 1 calc R . .
C19 C 0.8194(17) 1.186(2) 0.5204(11) 0.228(19) Uani 1 1 d D . .
H19 H 0.7799 1.1522 0.4873 0.274 Uiso 1 1 calc R . .
C20 C 0.8259(10) 1.1635(14) 0.5812(9) 0.121(6) Uani 1 1 d D . .
H20 H 0.7901 1.1127 0.5898 0.146 Uiso 1 1 calc R . .
C21 C 0.8944(15) 1.1695(17) 0.6911(8) 0.26(3) Uani 1 1 d D . .
H21A H 0.9498 1.1544 0.7151 0.308 Uiso 1 1 calc R . .
H21B H 0.8648 1.0964 0.6872 0.308 Uiso 1 1 calc R . .
C22 C 0.8599(15) 1.2655(17) 0.7219(10) 0.148(8) Uani 1 1 d D . .
H22A H 0.8778 1.3426 0.7137 0.178 Uiso 1 1 calc R . .
H22B H 0.8022 1.2641 0.7045 0.178 Uiso 1 1 calc R . .
C23 C 0.8862(11) 1.246(2) 0.7919(10) 0.144(8) Uani 1 1 d D . .
H23A H 0.9434 1.2351 0.8077 0.173 Uiso 1 1 calc R . .
H23B H 0.8745 1.3172 0.8106 0.173 Uiso 1 1 calc R . .
C24 C 0.7679(9) 1.1513(18) 0.8008(10) 0.157(10) Uani 1 1 d D . .
H24 H 0.7364 1.2103 0.7763 0.189 Uiso 1 1 calc R . .
C25 C 0.7349(17) 1.0658(17) 0.8280(9) 0.180(11) Uani 1 1 d DU . .
H25 H 0.6805 1.0701 0.8205 0.216 Uiso 1 1 calc R . .
C26 C 0.7765(16) 0.975(2) 0.8652(9) 0.155(10) Uani 1 1 d D . .
H26 H 0.7529 0.9187 0.8829 0.186 Uiso 1 1 calc R . .
C27 C 0.8578(18) 0.976(2) 0.8732(11) 0.187(11) Uani 1 1 d DU . .
H27 H 0.8893 0.9173 0.8978 0.224 Uiso 1 1 calc R . .
C28 C 0.8953(12) 1.0581(14) 0.8477(7) 0.137(7) Uani 1 1 d D . .
H28 H 0.9497 1.0537 0.8549 0.165 Uiso 1 1 calc R . .

loop_
_atom_site_aniso_label
_atom_site_aniso_U_11
_atom_site_aniso_U_22
_atom_site_aniso_U_33
_atom_site_aniso_U_23
_atom_site_aniso_U_13
_atom_site_aniso_U_12
I1 0.1276(13) 0.1285(13) 0.1220(13) 0.0075(7) 0.0671(8) 0.0077(7)
I2 0.0985(11) 0.0837(11) 0.1465(13) 0.0081(6) 0.0275(7) 0.0065(5)
I3 0.1128(13) 0.1388(14) 0.1357(14) 0.0258(8) 0.0281(8) -0.0245(8)
Mo1 0.0445(10) 0.0522(10) 0.0591(10) -0.0019(3) 0.0086(4) -0.0035(3)
Cu1 0.0591(11) 0.0642(11) 0.0567(11) -0.0007(5) 0.0157(6) -0.0032(6)
Cu2 0.0481(11) 0.0660(12) 0.0675(12) 0.0050(6) 0.0095(6) 0.0018(5)
Cu3 0.0613(11) 0.0719(12) 0.0558(11) 0.0096(6) 0.0150(6) 0.0005(6)
S1 0.0628(17) 0.0608(17) 0.0688(18) 0.0133(11) 0.0221(12) 0.0046(11)
S2 0.0626(17) 0.0789(19) 0.0568(16) -0.0009(12) 0.0164(12) 0.0119(13)
S3 0.0533(15) 0.0575(16) 0.0569(16) 0.0032(10) 0.0128(10) 0.0036(10)
O1 0.054(4) 0.071(5) 0.111(7) -0.017(4) 0.006(4) -0.018(4)
N1 0.052(5) 0.076(6) 0.069(5) 0.009(4) 0.010(4) -0.004(4)
N2 0.053(5) 0.085(6) 0.057(5) -0.009(4) 0.015(4) -0.007(4)
N3 0.060(5) 0.078(6) 0.046(4) 0.006(4) 0.014(4) 0.006(4)
N4 0.086(9) 0.137(12) 0.132(11) 0.021(10) 0.053(9) 0.005(9)
N5 0.089(8) 0.109(10) 0.106(9) -0.020(8) 0.007(7) 0.023(7)
C1 0.059(6) 0.075(7) 0.068(7) 0.014(5) -0.003(5) 0.001(5)
C2 0.061(6) 0.075(7) 0.084(8) 0.010(6) 0.009(6) -0.008(5)
C3 0.084(9) 0.072(8) 0.109(11) 0.022(7) 0.001(8) -0.009(7)
C4 0.067(7) 0.068(7) 0.121(11) 0.029(7) -0.013(7) -0.005(6)
C5 0.056(6) 0.073(7) 0.064(6) -0.005(5) 0.015(5) -0.008(5)
C6 0.048(5) 0.077(7) 0.065(6) -0.012(5) 0.005(4) -0.002(5)
C7 0.079(8) 0.125(11) 0.066(7) 0.029(7) 0.003(6) -0.042(8)
C8 0.084(9) 0.145(14) 0.070(8) 0.023(8) 0.016(7) -0.046(9)
C9 0.083(8) 0.071(7) 0.069(7) 0.012(5) 0.012(6) -0.014(6)
C10 0.068(6) 0.064(6) 0.062(6) 0.012(5) -0.003(5) -0.014(5)
C11 0.073(7) 0.092(8) 0.065(7) 0.010(6) 0.009(6) 0.031(6)
C12 0.081(7) 0.089(8) 0.057(6) 0.002(5) 0.019(5) 0.037(6)
C13 0.068(6) 0.086(7) 0.052(6) 0.003(5) 0.019(5) 0.004(6)
C14 0.061(6) 0.081(7) 0.058(6) 0.002(5) 0.019(5) 0.020(5)
C15 0.059(5) 0.061(6) 0.048(5) 0.000(4) 0.013(4) 0.005(4)
C16 0.27(4) 0.24(4) 0.22(3) 0.13(3) 0.18(3) 0.13(3)
C17 0.21(3) 0.103(14) 0.17(2) 0.040(16) 0.10(2) 0.006(17)
C18 0.16(2) 0.20(3) 0.26(4) -0.08(2) 0.16(3) -0.08(2)
C19 0.24(4) 0.32(5) 0.19(3) 0.04(3) 0.15(3) 0.06(4)
C20 0.107(13) 0.094(11) 0.155(17) 0.013(11) 0.036(12) -0.005(10)
C21 0.20(3) 0.069(11) 0.33(5) 0.018(18) -0.13(3) -0.013(14)
C22 0.147(18) 0.087(12) 0.19(2) 0.012(13) 0.026(17) -0.013(12)
C23 0.081(11) 0.143(17) 0.20(2) 0.040(17) 0.038(13) -0.006(11)
C24 0.142(19) 0.105(14) 0.25(3) 0.008(16) 0.10(2) -0.018(13)
C25 0.179(13) 0.173(14) 0.184(13) -0.011(9) 0.058(9) 0.010(9)
C26 0.23(3) 0.141(18) 0.111(14) -0.012(13) 0.081(18) 0.029(19)
C27 0.188(14) 0.189(14) 0.176(14) -0.008(9) 0.051(9) -0.002(9)
C28 0.113(14) 0.146(17) 0.122(15) 0.012(13) 0.001(11) -0.001(13)

_geom_special_details            
;
All esds (except the esd in the dihedral angle between two l.s. planes)
are estimated using the full covariance matrix. The cell esds are taken
into account individually in the estimation of esds in distances, angles
and torsion angles; correlations between esds in cell parameters are only
used when they are defined by crystal symmetry. An approximate (isotropic)
treatment of cell esds is used for estimating esds involving l.s. planes.
;

loop_
_geom_bond_atom_site_label_1
_geom_bond_atom_site_label_2
_geom_bond_distance
_geom_bond_site_symmetry_2
_geom_bond_publ_flag
I1 Cu1 2.441(2) . ?
I2 Cu2 2.518(2) . ?
I3 Cu3 2.420(2) . ?
Mo1 O1 1.724(7) . ?
Mo1 S2 2.261(3) . ?
Mo1 S1 2.262(3) . ?
Mo1 S3 2.277(3) . ?
Mo1 Cu3 2.689(2) . ?
Mo1 Cu1 2.696(2) . ?
Mo1 Cu2 2.703(2) . ?
Cu1 N2 2.094(9) 3_666 ?
Cu1 S3 2.290(3) . ?
Cu1 S1 2.295(3) . ?
Cu2 N1 2.055(9) . ?
Cu2 S1 2.295(3) . ?
Cu2 S2 2.295(3) . ?
Cu3 N3 2.163(8) . ?
Cu3 S3 2.291(3) . ?
Cu3 S2 2.291(4) . ?
N1 C1 1.316(15) . ?
N1 C3 1.353(17) . ?
N2 C10 1.300(15) . ?
N2 C8 1.347(16) . ?
N2 Cu1 2.094(9) 3_666 ?
N3 C13 1.319(15) . ?
N3 C11 1.334(15) . ?
N4 C18 1.28(3) . ?
N4 C20 1.398(10) . ?
N4 C21 1.499(10) . ?
N5 C28 1.383(9) . ?
N5 C24 1.393(10) . ?
N5 C23 1.45(3) . ?
C1 C2 1.403(17) . ?
C1 H1 0.9300 . ?
C2 C5 1.348(16) . ?
C2 H2 0.9300 . ?
C3 C4 1.295(19) . ?
C3 H3 0.9300 . ?
C4 C5 1.403(18) . ?
C4 H4 0.9300 . ?
C5 C6 1.484(15) . ?
C6 C9 1.371(16) . ?
C6 C7 1.382(17) . ?
C7 C8 1.404(18) . ?
C7 H7 0.9300 . ?
C8 H8 0.9300 . ?
C9 C10 1.432(16) . ?
C9 H9 0.9300 . ?
C10 H10 0.9300 . ?
C11 C12 1.371(16) . ?
C11 H11 0.9300 . ?
C12 C15 1.431(15) . ?
C12 H12 0.9300 . ?
C13 C14 1.342(16) . ?
C13 H13 0.9300 . ?
C14 C15 1.386(15) . ?
C14 H14 0.9300 . ?
C15 C15 1.482(19) 3_767 ?
C16 C17 1.396(10) . ?
C16 C19 1.402(10) . ?
C16 H16 0.9300 . ?
C17 C18 1.402(10) . ?
C17 H17 0.9300 . ?
C18 H18 0.9300 . ?
C19 C20 1.396(10) . ?
C19 H19 0.9300 . ?
C20 H20 0.9300 . ?
C21 C22 1.540(10) . ?
C21 H21A 0.9700 . ?
C21 H21B 0.9700 . ?
C22 C23 1.539(10) . ?
C22 H22A 0.9700 . ?
C22 H22B 0.9700 . ?
C23 H23A 0.9700 . ?
C23 H23B 0.9700 . ?
C24 C25 1.392(10) . ?
C24 H24 0.9300 . ?
C25 C26 1.384(10) . ?
C25 H25 0.9300 . ?
C26 C27 1.401(10) . ?
C26 H26 0.9300 . ?
C27 C28 1.390(10) . ?
C27 H27 0.9300 . ?
C28 H28 0.9300 . ?

loop_
_geom_angle_atom_site_label_1
_geom_angle_atom_site_label_2
_geom_angle_atom_site_label_3
_geom_angle
_geom_angle_site_symmetry_1
_geom_angle_site_symmetry_3
_geom_angle_publ_flag
O1 Mo1 S2 110.9(4) . . ?
O1 Mo1 S1 111.2(4) . . ?
S2 Mo1 S1 108.34(11) . . ?
O1 Mo1 S3 109.8(3) . . ?
S2 Mo1 S3 108.19(11) . . ?
S1 Mo1 S3 108.34(10) . . ?
O1 Mo1 Cu3 121.6(4) . . ?
S2 Mo1 Cu3 54.32(9) . . ?
S1 Mo1 Cu3 127.26(9) . . ?
S3 Mo1 Cu3 54.16(8) . . ?
O1 Mo1 Cu1 126.5(3) . . ?
S2 Mo1 Cu1 122.58(9) . . ?
S1 Mo1 Cu1 54.30(9) . . ?
S3 Mo1 Cu1 54.05(8) . . ?
Cu3 Mo1 Cu1 91.03(8) . . ?
O1 Mo1 Cu2 125.9(3) . . ?
S2 Mo1 Cu2 54.21(9) . . ?
S1 Mo1 Cu2 54.19(8) . . ?
S3 Mo1 Cu2 124.35(8) . . ?
Cu3 Mo1 Cu2 92.43(6) . . ?
Cu1 Mo1 Cu2 89.21(6) . . ?
N2 Cu1 S3 108.5(3) 3_666 . ?
N2 Cu1 S1 110.5(3) 3_666 . ?
S3 Cu1 S1 106.77(11) . . ?
N2 Cu1 I1 105.6(3) 3_666 . ?
S3 Cu1 I1 114.18(10) . . ?
S1 Cu1 I1 111.37(9) . . ?
N2 Cu1 Mo1 124.2(3) 3_666 . ?
S3 Cu1 Mo1 53.61(9) . . ?
S1 Cu1 Mo1 53.17(8) . . ?
I1 Cu1 Mo1 130.25(7) . . ?
N1 Cu2 S1 115.3(3) . . ?
N1 Cu2 S2 110.6(3) . . ?
S1 Cu2 S2 106.06(12) . . ?
N1 Cu2 I2 100.2(3) . . ?
S1 Cu2 I2 111.61(9) . . ?
S2 Cu2 I2 113.25(10) . . ?
N1 Cu2 Mo1 132.3(3) . . ?
S1 Cu2 Mo1 53.07(9) . . ?
S2 Cu2 Mo1 53.04(8) . . ?
I2 Cu2 Mo1 127.49(6) . . ?
N3 Cu3 S3 103.2(3) . . ?
N3 Cu3 S2 109.8(3) . . ?
S3 Cu3 S2 106.70(11) . . ?
N3 Cu3 I3 100.1(3) . . ?
S3 Cu3 I3 121.66(10) . . ?
S2 Cu3 I3 114.16(12) . . ?
N3 Cu3 Mo1 113.7(3) . . ?
S3 Cu3 Mo1 53.71(8) . . ?
S2 Cu3 Mo1 53.28(9) . . ?
I3 Cu3 Mo1 146.10(7) . . ?
Mo1 S1 Cu2 72.75(10) . . ?
Mo1 S1 Cu1 72.54(9) . . ?
Cu2 S1 Cu1 111.37(12) . . ?
Mo1 S2 Cu3 72.40(9) . . ?
Mo1 S2 Cu2 72.75(10) . . ?
Cu3 S2 Cu2 116.13(13) . . ?
Mo1 S3 Cu1 72.35(8) . . ?
Mo1 S3 Cu3 72.13(9) . . ?
Cu1 S3 Cu3 114.01(12) . . ?
C1 N1 C3 113.6(10) . . ?
C1 N1 Cu2 122.1(7) . . ?
C3 N1 Cu2 124.3(9) . . ?
C10 N2 C8 118.4(10) . . ?
C10 N2 Cu1 123.3(7) . 3_666 ?
C8 N2 Cu1 118.1(9) . 3_666 ?
C13 N3 C11 114.3(9) . . ?
C13 N3 Cu3 124.2(7) . . ?
C11 N3 Cu3 120.7(7) . . ?
C18 N4 C20 129.7(19) . . ?
C18 N4 C21 116.6(19) . . ?
C20 N4 C21 113.0(16) . . ?
C28 N5 C24 120.1(19) . . ?
C28 N5 C23 120.8(16) . . ?
C24 N5 C23 118.3(15) . . ?
N1 C1 C2 124.6(10) . . ?
N1 C1 H1 117.7 . . ?
C2 C1 H1 117.7 . . ?
C5 C2 C1 119.3(11) . . ?
C5 C2 H2 120.3 . . ?
C1 C2 H2 120.3 . . ?
C4 C3 N1 125.1(13) . . ?
C4 C3 H3 117.5 . . ?
N1 C3 H3 117.5 . . ?
C3 C4 C5 121.9(12) . . ?
C3 C4 H4 119.1 . . ?
C5 C4 H4 119.1 . . ?
C2 C5 C4 114.9(11) . . ?
C2 C5 C6 121.4(11) . . ?
C4 C5 C6 123.6(11) . . ?
C9 C6 C7 118.5(10) . . ?
C9 C6 C5 121.3(11) . . ?
C7 C6 C5 120.2(10) . . ?
C6 C7 C8 119.6(11) . . ?
C6 C7 H7 120.2 . . ?
C8 C7 H7 120.2 . . ?
N2 C8 C7 121.9(12) . . ?
N2 C8 H8 119.1 . . ?
C7 C8 H8 119.1 . . ?
C6 C9 C10 118.2(11) . . ?
C6 C9 H9 120.9 . . ?
C10 C9 H9 120.9 . . ?
N2 C10 C9 123.5(10) . . ?
N2 C10 H10 118.3 . . ?
C9 C10 H10 118.3 . . ?
N3 C11 C12 125.6(11) . . ?
N3 C11 H11 117.2 . . ?
C12 C11 H11 117.2 . . ?
C11 C12 C15 117.7(10) . . ?
C11 C12 H12 121.1 . . ?
C15 C12 H12 121.1 . . ?
N3 C13 C14 126.8(11) . . ?
N3 C13 H13 116.6 . . ?
C14 C13 H13 116.6 . . ?
C13 C14 C15 119.5(10) . . ?
C13 C14 H14 120.2 . . ?
C15 C14 H14 120.2 . . ?
C14 C15 C12 116.0(9) . . ?
C14 C15 C15 123.9(12) . 3_767 ?
C12 C15 C15 120.1(11) . 3_767 ?
C17 C16 C19 117(3) . . ?
C17 C16 H16 121.5 . . ?
C19 C16 H16 121.5 . . ?
C16 C17 C18 128(3) . . ?
C16 C17 H17 115.8 . . ?
C18 C17 H17 115.8 . . ?
N4 C18 C17 109(2) . . ?
N4 C18 H18 125.3 . . ?
C17 C18 H18 125.3 . . ?
C20 C19 C16 116(3) . . ?
C20 C19 H19 121.9 . . ?
C16 C19 H19 121.9 . . ?
C19 C20 N4 119(2) . . ?
C19 C20 H20 120.4 . . ?
N4 C20 H20 120.4 . . ?
N4 C21 C22 105.4(15) . . ?
N4 C21 H21A 110.7 . . ?
C22 C21 H21A 110.7 . . ?
N4 C21 H21B 110.7 . . ?
C22 C21 H21B 110.7 . . ?
H21A C21 H21B 108.8 . . ?
C23 C22 C21 111.1(18) . . ?
C23 C22 H22A 109.4 . . ?
C21 C22 H22A 109.4 . . ?
C23 C22 H22B 109.4 . . ?
C21 C22 H22B 109.4 . . ?
H22A C22 H22B 108.0 . . ?
N5 C23 C22 115.4(18) . . ?
N5 C23 H23A 108.4 . . ?
C22 C23 H23A 108.4 . . ?
N5 C23 H23B 108.4 . . ?
C22 C23 H23B 108.4 . . ?
H23A C23 H23B 107.5 . . ?
C25 C24 N5 118(2) . . ?
C25 C24 H24 120.9 . . ?
N5 C24 H24 120.9 . . ?
C26 C25 C24 125(3) . . ?
C26 C25 H25 117.3 . . ?
C24 C25 H25 117.3 . . ?
C25 C26 C27 113(3) . . ?
C25 C26 H26 123.7 . . ?
C27 C26 H26 123.7 . . ?
C28 C27 C26 126(3) . . ?
C28 C27 H27 117.2 . . ?
C26 C27 H27 117.2 . . ?
N5 C28 C27 118(2) . . ?
N5 C28 H28 121.0 . . ?
C27 C28 H28 121.0 . . ?

loop_
_geom_torsion_atom_site_label_1
_geom_torsion_atom_site_label_2
_geom_torsion_atom_site_label_3
_geom_torsion_atom_site_label_4
_geom_torsion
_geom_torsion_site_symmetry_1
_geom_torsion_site_symmetry_2
_geom_torsion_site_symmetry_3
_geom_torsion_site_symmetry_4
_geom_torsion_publ_flag
O1 Mo1 Cu1 N2 177.6(5) . . . 3_666 ?
S2 Mo1 Cu1 N2 -1.1(4) . . . 3_666 ?
S1 Mo1 Cu1 N2 -91.1(4) . . . 3_666 ?
S3 Mo1 Cu1 N2 88.6(4) . . . 3_666 ?
Cu3 Mo1 Cu1 N2 46.0(3) . . . 3_666 ?
Cu2 Mo1 Cu1 N2 -46.4(3) . . . 3_666 ?
O1 Mo1 Cu1 S3 89.0(4) . . . . ?
S2 Mo1 Cu1 S3 -89.66(13) . . . . ?
S1 Mo1 Cu1 S3 -179.69(12) . . . . ?
Cu3 Mo1 Cu1 S3 -42.57(10) . . . . ?
Cu2 Mo1 Cu1 S3 -134.99(9) . . . . ?
O1 Mo1 Cu1 S1 -91.3(4) . . . . ?
S2 Mo1 Cu1 S1 90.03(13) . . . . ?
S3 Mo1 Cu1 S1 179.69(12) . . . . ?
Cu3 Mo1 Cu1 S1 137.12(10) . . . . ?
Cu2 Mo1 Cu1 S1 44.70(9) . . . . ?
O1 Mo1 Cu1 I1 -3.4(4) . . . . ?
S2 Mo1 Cu1 I1 177.89(11) . . . . ?
S1 Mo1 Cu1 I1 87.85(12) . . . . ?
S3 Mo1 Cu1 I1 -92.46(12) . . . . ?
Cu3 Mo1 Cu1 I1 -135.03(8) . . . . ?
Cu2 Mo1 Cu1 I1 132.55(9) . . . . ?
O1 Mo1 Cu2 N1 -176.1(6) . . . . ?
S2 Mo1 Cu2 N1 -84.9(4) . . . . ?
S1 Mo1 Cu2 N1 92.3(4) . . . . ?
S3 Mo1 Cu2 N1 3.6(4) . . . . ?
Cu3 Mo1 Cu2 N1 -43.5(4) . . . . ?
Cu1 Mo1 Cu2 N1 47.5(4) . . . . ?
O1 Mo1 Cu2 S1 91.6(5) . . . . ?
S2 Mo1 Cu2 S1 -177.15(14) . . . . ?
S3 Mo1 Cu2 S1 -88.68(13) . . . . ?
Cu3 Mo1 Cu2 S1 -135.78(10) . . . . ?
Cu1 Mo1 Cu2 S1 -44.78(10) . . . . ?
O1 Mo1 Cu2 S2 -91.3(5) . . . . ?
S1 Mo1 Cu2 S2 177.15(14) . . . . ?
S3 Mo1 Cu2 S2 88.47(14) . . . . ?
Cu3 Mo1 Cu2 S2 41.37(10) . . . . ?
Cu1 Mo1 Cu2 S2 132.37(11) . . . . ?
O1 Mo1 Cu2 I2 1.3(5) . . . . ?
S2 Mo1 Cu2 I2 92.61(13) . . . . ?
S1 Mo1 Cu2 I2 -90.24(12) . . . . ?
S3 Mo1 Cu2 I2 -178.92(10) . . . . ?
Cu3 Mo1 Cu2 I2 133.98(9) . . . . ?
Cu1 Mo1 Cu2 I2 -135.02(8) . . . . ?
O1 Mo1 Cu3 N3 -3.3(5) . . . . ?
S2 Mo1 Cu3 N3 -97.7(3) . . . . ?
S1 Mo1 Cu3 N3 175.8(3) . . . . ?
S3 Mo1 Cu3 N3 89.3(3) . . . . ?
Cu1 Mo1 Cu3 N3 131.8(3) . . . . ?
Cu2 Mo1 Cu3 N3 -139.0(3) . . . . ?
O1 Mo1 Cu3 S3 -92.6(4) . . . . ?
S2 Mo1 Cu3 S3 173.05(12) . . . . ?
S1 Mo1 Cu3 S3 86.47(14) . . . . ?
Cu1 Mo1 Cu3 S3 42.49(9) . . . . ?
Cu2 Mo1 Cu3 S3 131.75(9) . . . . ?
O1 Mo1 Cu3 S2 94.3(4) . . . . ?
S1 Mo1 Cu3 S2 -86.59(14) . . . . ?
S3 Mo1 Cu3 S2 -173.05(12) . . . . ?
Cu1 Mo1 Cu3 S2 -130.56(10) . . . . ?
Cu2 Mo1 Cu3 S2 -41.30(10) . . . . ?
O1 Mo1 Cu3 I3 173.1(4) . . . . ?
S2 Mo1 Cu3 I3 78.78(17) . . . . ?
S1 Mo1 Cu3 I3 -7.81(19) . . . . ?
S3 Mo1 Cu3 I3 -94.28(16) . . . . ?
Cu1 Mo1 Cu3 I3 -51.78(14) . . . . ?
Cu2 Mo1 Cu3 I3 37.47(14) . . . . ?
O1 Mo1 S1 Cu2 -119.7(3) . . . . ?
S2 Mo1 S1 Cu2 2.44(12) . . . . ?
S3 Mo1 S1 Cu2 119.59(9) . . . . ?
Cu3 Mo1 S1 Cu2 61.11(12) . . . . ?
Cu1 Mo1 S1 Cu2 119.85(10) . . . . ?
O1 Mo1 S1 Cu1 120.4(3) . . . . ?
S2 Mo1 S1 Cu1 -117.41(10) . . . . ?
S3 Mo1 S1 Cu1 -0.26(11) . . . . ?
Cu3 Mo1 S1 Cu1 -58.74(12) . . . . ?
Cu2 Mo1 S1 Cu1 -119.85(10) . . . . ?
N1 Cu2 S1 Mo1 -125.2(3) . . . . ?
S2 Cu2 S1 Mo1 -2.37(11) . . . . ?
I2 Cu2 S1 Mo1 121.41(8) . . . . ?
N1 Cu2 S1 Cu1 -62.5(3) . . . . ?
S2 Cu2 S1 Cu1 60.31(15) . . . . ?
I2 Cu2 S1 Cu1 -175.92(10) . . . . ?
Mo1 Cu2 S1 Cu1 62.68(10) . . . . ?
N2 Cu1 S1 Mo1 118.0(3) 3_666 . . . ?
S3 Cu1 S1 Mo1 0.26(10) . . . . ?
I1 Cu1 S1 Mo1 -125.01(9) . . . . ?
N2 Cu1 S1 Cu2 55.2(3) 3_666 . . . ?
S3 Cu1 S1 Cu2 -62.55(15) . . . . ?
I1 Cu1 S1 Cu2 172.18(10) . . . . ?
Mo1 Cu1 S1 Cu2 -62.81(11) . . . . ?
O1 Mo1 S2 Cu3 -114.5(3) . . . . ?
S1 Mo1 S2 Cu3 123.18(10) . . . . ?
S3 Mo1 S2 Cu3 5.92(10) . . . . ?
Cu1 Mo1 S2 Cu3 64.36(10) . . . . ?
Cu2 Mo1 S2 Cu3 125.61(11) . . . . ?
O1 Mo1 S2 Cu2 119.9(3) . . . . ?
S1 Mo1 S2 Cu2 -2.44(12) . . . . ?
S3 Mo1 S2 Cu2 -119.69(9) . . . . ?
Cu3 Mo1 S2 Cu2 -125.61(11) . . . . ?
Cu1 Mo1 S2 Cu2 -61.25(12) . . . . ?
N3 Cu3 S2 Mo1 105.4(3) . . . . ?
S3 Cu3 S2 Mo1 -5.84(10) . . . . ?
I3 Cu3 S2 Mo1 -143.16(9) . . . . ?
N3 Cu3 S2 Cu2 165.2(3) . . . . ?
S3 Cu3 S2 Cu2 54.02(17) . . . . ?
I3 Cu3 S2 Cu2 -83.30(15) . . . . ?
Mo1 Cu3 S2 Cu2 59.86(12) . . . . ?
N1 Cu2 S2 Mo1 128.1(3) . . . . ?
S1 Cu2 S2 Mo1 2.37(12) . . . . ?
I2 Cu2 S2 Mo1 -120.37(8) . . . . ?
N1 Cu2 S2 Cu3 68.4(3) . . . . ?
S1 Cu2 S2 Cu3 -57.31(17) . . . . ?
I2 Cu2 S2 Cu3 179.95(10) . . . . ?
Mo1 Cu2 S2 Cu3 -59.68(11) . . . . ?
O1 Mo1 S3 Cu1 -121.3(4) . . . . ?
S2 Mo1 S3 Cu1 117.52(10) . . . . ?
S1 Mo1 S3 Cu1 0.27(11) . . . . ?
Cu3 Mo1 S3 Cu1 123.45(10) . . . . ?
Cu2 Mo1 S3 Cu1 58.93(10) . . . . ?
O1 Mo1 S3 Cu3 115.2(4) . . . . ?
S2 Mo1 S3 Cu3 -5.93(10) . . . . ?
S1 Mo1 S3 Cu3 -123.19(10) . . . . ?
Cu1 Mo1 S3 Cu3 -123.45(10) . . . . ?
Cu2 Mo1 S3 Cu3 -64.52(11) . . . . ?
N2 Cu1 S3 Mo1 -119.3(3) 3_666 . . . ?
S1 Cu1 S3 Mo1 -0.26(10) . . . . ?
I1 Cu1 S3 Mo1 123.29(8) . . . . ?
N2 Cu1 S3 Cu3 -58.9(3) 3_666 . . . ?
S1 Cu1 S3 Cu3 60.12(15) . . . . ?
I1 Cu1 S3 Cu3 -176.34(9) . . . . ?
Mo1 Cu1 S3 Cu3 60.38(10) . . . . ?
N3 Cu3 S3 Mo1 -109.9(3) . . . . ?
S2 Cu3 S3 Mo1 5.81(10) . . . . ?
I3 Cu3 S3 Mo1 139.20(9) . . . . ?
N3 Cu3 S3 Cu1 -170.4(3) . . . . ?
S2 Cu3 S3 Cu1 -54.69(15) . . . . ?
I3 Cu3 S3 Cu1 78.70(14) . . . . ?
Mo1 Cu3 S3 Cu1 -60.50(10) . . . . ?
S1 Cu2 N1 C1 89.7(10) . . . . ?
S2 Cu2 N1 C1 -30.7(11) . . . . ?
I2 Cu2 N1 C1 -150.4(10) . . . . ?
Mo1 Cu2 N1 C1 27.6(12) . . . . ?
S1 Cu2 N1 C3 -92.2(12) . . . . ?
S2 Cu2 N1 C3 147.5(12) . . . . ?
I2 Cu2 N1 C3 27.8(12) . . . . ?
Mo1 Cu2 N1 C3 -154.2(11) . . . . ?
S3 Cu3 N3 C13 -32.4(10) . . . . ?
S2 Cu3 N3 C13 -145.9(9) . . . . ?
I3 Cu3 N3 C13 93.7(9) . . . . ?
Mo1 Cu3 N3 C13 -88.3(9) . . . . ?
S3 Cu3 N3 C11 158.6(9) . . . . ?
S2 Cu3 N3 C11 45.2(10) . . . . ?
I3 Cu3 N3 C11 -75.2(10) . . . . ?
Mo1 Cu3 N3 C11 102.8(10) . . . . ?
C3 N1 C1 C2 -2(2) . . . . ?
Cu2 N1 C1 C2 176.7(11) . . . . ?
N1 C1 C2 C5 8(2) . . . . ?
C1 N1 C3 C4 -5(3) . . . . ?
Cu2 N1 C3 C4 176.3(15) . . . . ?
N1 C3 C4 C5 6(3) . . . . ?
C1 C2 C5 C4 -6(2) . . . . ?
C1 C2 C5 C6 177.1(12) . . . . ?
C3 C4 C5 C2 0(2) . . . . ?
C3 C4 C5 C6 176.4(16) . . . . ?
C2 C5 C6 C9 -155.9(13) . . . . ?
C4 C5 C6 C9 28(2) . . . . ?
C2 C5 C6 C7 23.1(19) . . . . ?
C4 C5 C6 C7 -153.0(15) . . . . ?
C9 C6 C7 C8 0(2) . . . . ?
C5 C6 C7 C8 -178.7(15) . . . . ?
C10 N2 C8 C7 0(2) . . . . ?
Cu1 N2 C8 C7 174.9(14) 3_666 . . . ?
C6 C7 C8 N2 0(3) . . . . ?
C7 C6 C9 C10 0(2) . . . . ?
C5 C6 C9 C10 178.7(12) . . . . ?
C8 N2 C10 C9 0(2) . . . . ?
Cu1 N2 C10 C9 -174.7(10) 3_666 . . . ?
C6 C9 C10 N2 0(2) . . . . ?
C13 N3 C11 C12 -1(2) . . . . ?
Cu3 N3 C11 C12 169.1(12) . . . . ?
N3 C11 C12 C15 0(2) . . . . ?
C11 N3 C13 C14 1.1(19) . . . . ?
Cu3 N3 C13 C14 -168.4(10) . . . . ?
N3 C13 C14 C15 -1(2) . . . . ?
C13 C14 C15 C12 0.3(18) . . . . ?
C13 C14 C15 C15 -177.7(13) . . . 3_767 ?
C11 C12 C15 C14 0.0(19) . . . . ?
C11 C12 C15 C15 178.0(14) . . . 3_767 ?
C19 C16 C17 C18 0.0(9) . . . . ?
C20 N4 C18 C17 0.1(6) . . . . ?
C21 N4 C18 C17 170.1(15) . . . . ?
C16 C17 C18 N4 -0.1(9) . . . . ?
C17 C16 C19 C20 0.1(6) . . . . ?
C16 C19 C20 N4 0.0(3) . . . . ?
C18 N4 C20 C19 -0.1(3) . . . . ?
C21 N4 C20 C19 -170.3(14) . . . . ?
C18 N4 C21 C22 82.2(18) . . . . ?
C20 N4 C21 C22 -106.2(17) . . . . ?
N4 C21 C22 C23 -162.9(18) . . . . ?
C28 N5 C23 C22 123.5(17) . . . . ?
C24 N5 C23 C22 -67(2) . . . . ?
C21 C22 C23 N5 -72(2) . . . . ?
C28 N5 C24 C25 0.1(3) . . . . ?
C23 N5 C24 C25 -169.7(15) . . . . ?
N5 C24 C25 C26 0.1(3) . . . . ?
C24 C25 C26 C27 -0.2(6) . . . . ?
C25 C26 C27 C28 0.0(8) . . . . ?
C24 N5 C28 C27 -0.3(6) . . . . ?
C23 N5 C28 C27 169.3(16) . . . . ?
C26 C27 C28 N5 0.2(9) . . . . ?

_diffrn_measured_fraction_theta_max 0.986
_diffrn_reflns_theta_full        25.00
_diffrn_measured_fraction_theta_full 0.986
_refine_diff_density_max         0.797
_refine_diff_density_min         -0.714
_refine_diff_density_rms         0.101
