####################################################################### 
# 
# This file contains crystal structure data downloaded from the 
# Cambridge Structural Database (CSD) hosted by the Cambridge 
# Crystallographic Data Centre (CCDC).
# 
# Full information about CCDC data access policies and citation 
# guidelines are available at http://www.ccdc.cam.ac.uk/access/V1 
# 
# Audit and citation data items may have been added by the CCDC. 
# Please retain this information to preserve the provenance of 
# this file and to allow appropriate attribution of the data. 
# 
#######################################################################

data_a
_audit_block_doi                 10.5517/ccw3r7y
_database_code_depnum_ccdc_archive 'CCDC 807960'
loop_
_citation_id
_citation_doi
_citation_year
1 10.1007/s10876-011-0404-4 2011
_audit_update_record             
;
2011-01-13 deposited with the CCDC.	2024-07-10 downloaded from the CCDC.
;
#TrackingRef 'P3+2SW.cif'


_audit_creation_method           SHELXL-97
_chemical_name_systematic        
;
?
;
_chemical_name_common            ?
_chemical_melting_point          ?
_chemical_formula_moiety         ?
_chemical_formula_sum            'C28 H28 Cu3 I3 N5 O S3 W'
_chemical_formula_weight         1301.90

loop_
_atom_type_symbol
_atom_type_description
_atom_type_scat_dispersion_real
_atom_type_scat_dispersion_imag
_atom_type_scat_source
C C 0.0033 0.0016 'International Tables Vol C Tables 4.2.6.8 and 6.1.1.4'
H H 0.0000 0.0000 'International Tables Vol C Tables 4.2.6.8 and 6.1.1.4'
N N 0.0061 0.0033 'International Tables Vol C Tables 4.2.6.8 and 6.1.1.4'
O O 0.0106 0.0060 'International Tables Vol C Tables 4.2.6.8 and 6.1.1.4'
S S 0.1246 0.1234 'International Tables Vol C Tables 4.2.6.8 and 6.1.1.4'
Cu Cu 0.3201 1.2651 'International Tables Vol C Tables 4.2.6.8 and 6.1.1.4'
W W -0.8490 6.8722 'International Tables Vol C Tables 4.2.6.8 and 6.1.1.4'
I I -0.4742 1.8119 'International Tables Vol C Tables 4.2.6.8 and 6.1.1.4'

_symmetry_cell_setting           Monoclinic
_symmetry_space_group_name_H-M   P2(1)/c

loop_
_symmetry_equiv_pos_as_xyz
'x, y, z'
'-x, y+1/2, -z+1/2'
'-x, -y, -z'
'x, -y-1/2, z-1/2'

_cell_length_a                   17.821(4)
_cell_length_b                   11.339(2)
_cell_length_c                   23.069(5)
_cell_angle_alpha                90.00
_cell_angle_beta                 109.61(3)
_cell_angle_gamma                90.00
_cell_volume                     4391.3(15)
_cell_formula_units_Z            4
_cell_measurement_temperature    293(2)
_cell_measurement_reflns_used    12032
_cell_measurement_theta_min      2.2926
_cell_measurement_theta_max      27.9805

_exptl_crystal_description       block
_exptl_crystal_colour            colourless
_exptl_crystal_size_max          0.23
_exptl_crystal_size_mid          0.18
_exptl_crystal_size_min          0.11
_exptl_crystal_density_meas      ?
_exptl_crystal_density_diffrn    1.969
_exptl_crystal_density_method    'not measured'
_exptl_crystal_F_000             2428
_exptl_absorpt_coefficient_mu    6.321
_exptl_absorpt_correction_type   multi-scan
_exptl_absorpt_correction_T_min  0.3242
_exptl_absorpt_correction_T_max  0.5431
_exptl_absorpt_process_details   sadabs

_exptl_special_details           
;
?
;

_diffrn_ambient_temperature      293(2)
_diffrn_radiation_wavelength     0.71073
_diffrn_radiation_type           MoK\a
_diffrn_radiation_source         'fine-focus sealed tube'
_diffrn_radiation_monochromator  graphite
_diffrn_measurement_device_type  'Bruker P4'
_diffrn_measurement_method       '\w scans'
_diffrn_detector_area_resol_mean ?
_diffrn_standards_number         0
_diffrn_standards_interval_count 0
_diffrn_standards_interval_time  0
_diffrn_standards_decay_%        0
_diffrn_reflns_number            44316
_diffrn_reflns_av_R_equivalents  0.0754
_diffrn_reflns_av_sigmaI/netI    0.0510
_diffrn_reflns_limit_h_min       -21
_diffrn_reflns_limit_h_max       21
_diffrn_reflns_limit_k_min       -13
_diffrn_reflns_limit_k_max       13
_diffrn_reflns_limit_l_min       -27
_diffrn_reflns_limit_l_max       27
_diffrn_reflns_theta_min         2.19
_diffrn_reflns_theta_max         25.50
_reflns_number_total             8089
_reflns_number_gt                7056
_reflns_threshold_expression     >2sigma(I)

_computing_data_collection       'Bruker XSCANS'
_computing_cell_refinement       'Bruker XSCANS'
_computing_data_reduction        'Bruker SHELXTL'
_computing_structure_solution    'SHELXS-97 (Sheldrick, 1990)'
_computing_structure_refinement  'SHELXL-97 (Sheldrick, 1997)'
_computing_molecular_graphics    'Bruker SHELXTL'
_computing_publication_material  'Bruker SHELXTL'

_refine_special_details          
;
Refinement of F^2^ against ALL reflections. The weighted R-factor wR and
goodness of fit S are based on F^2^, conventional R-factors R are based
on F, with F set to zero for negative F^2^. The threshold expression of
F^2^ > 2sigma(F^2^) is used only for calculating R-factors(gt) etc. and is
not relevant to the choice of reflections for refinement. R-factors based
on F^2^ are statistically about twice as large as those based on F, and R-
factors based on ALL data will be even larger.
;

_refine_ls_structure_factor_coef Fsqd
_refine_ls_matrix_type           full
_refine_ls_weighting_scheme      calc
_refine_ls_weighting_details     
'calc w=1/[\s^2^(Fo^2^)+(0.1421P)^2^+43.3071P] where P=(Fo^2^+2Fc^2^)/3'
_atom_sites_solution_primary     direct
_atom_sites_solution_secondary   difmap
_atom_sites_solution_hydrogens   geom
_refine_ls_hydrogen_treatment    constr
_refine_ls_extinction_method     none
_refine_ls_extinction_coef       ?
_refine_ls_number_reflns         8089
_refine_ls_number_parameters     373
_refine_ls_number_restraints     190
_refine_ls_R_factor_all          0.0994
_refine_ls_R_factor_gt           0.0869
_refine_ls_wR_factor_ref         0.2493
_refine_ls_wR_factor_gt          0.2363
_refine_ls_goodness_of_fit_ref   1.060
_refine_ls_restrained_S_all      1.050
_refine_ls_shift/su_max          0.000
_refine_ls_shift/su_mean         0.000

loop_
_atom_site_label
_atom_site_type_symbol
_atom_site_fract_x
_atom_site_fract_y
_atom_site_fract_z
_atom_site_U_iso_or_equiv
_atom_site_adp_type
_atom_site_occupancy
_atom_site_symmetry_multiplicity
_atom_site_calc_flag
_atom_site_refinement_flags
_atom_site_disorder_assembly
_atom_site_disorder_group
W1 W 0.14022(3) 0.20871(4) 0.30487(2) 0.0423(2) Uani 1 1 d . . .
I1 I 0.34342(9) -0.07610(13) 0.36527(9) 0.1084(6) Uani 1 1 d . . .
I2 I 0.28790(11) 0.53927(18) 0.25841(9) 0.1249(7) Uani 1 1 d . . .
I3 I 0.06209(11) 0.36367(16) 0.46317(8) 0.1063(5) Uani 1 1 d . . .
Cu1 Cu 0.29210(9) 0.13180(15) 0.35962(8) 0.0522(4) Uani 1 1 d . . .
Cu2 Cu 0.18592(10) 0.38937(16) 0.24779(7) 0.0526(4) Uani 1 1 d . . .
Cu3 Cu 0.15368(10) 0.34294(15) 0.40509(7) 0.0501(4) Uani 1 1 d . . .
S1 S 0.2345(2) 0.1991(3) 0.25963(17) 0.0565(9) Uani 1 1 d . . .
S2 S 0.09891(18) 0.3986(3) 0.30303(14) 0.0439(7) Uani 1 1 d . . .
S3 S 0.1942(2) 0.1493(3) 0.40392(17) 0.0526(8) Uani 1 1 d . . .
O1 O 0.0590(6) 0.1213(10) 0.2663(6) 0.076(3) Uani 1 1 d . . .
N1 N 0.3969(7) 0.2226(11) 0.4043(6) 0.061(3) Uani 1 1 d . . .
N2 N 0.7488(6) 0.5495(11) 0.5529(5) 0.051(3) Uani 1 1 d . . .
N3 N 0.1089(7) 0.4220(10) 0.1542(5) 0.052(3) Uani 1 1 d . . .
C1 C 0.4054(10) 0.3348(16) 0.3888(9) 0.074(5) Uani 1 1 d . . .
H1 H 0.3632 0.3700 0.3583 0.089 Uiso 1 1 calc R . .
C2 C 0.4731(9) 0.4005(15) 0.4155(8) 0.073(5) Uani 1 1 d . . .
H2 H 0.4774 0.4767 0.4020 0.087 Uiso 1 1 calc R . .
C3 C 0.5355(8) 0.3502(13) 0.4636(7) 0.057(3) Uani 1 1 d . . .
C4 C 0.5227(11) 0.2377(17) 0.4833(10) 0.098(8) Uani 1 1 d . . .
H4 H 0.5591 0.2058 0.5188 0.118 Uiso 1 1 calc R . .
C5 C 0.4578(11) 0.1752(16) 0.4510(10) 0.092(7) Uani 1 1 d . . .
H5 H 0.4546 0.0964 0.4611 0.111 Uiso 1 1 calc R . .
C6 C 0.7022(13) 0.574(2) 0.4952(9) 0.107(8) Uani 1 1 d . . .
H6 H 0.7173 0.6336 0.4740 0.128 Uiso 1 1 calc R . .
C7 C 0.6301(11) 0.511(2) 0.4648(8) 0.096(7) Uani 1 1 d . . .
H7 H 0.5971 0.5324 0.4256 0.115 Uiso 1 1 calc R . .
C8 C 0.6115(7) 0.4203(12) 0.4946(6) 0.048(3) Uani 1 1 d . . .
C9 C 0.6573(10) 0.3951(14) 0.5529(6) 0.064(4) Uani 1 1 d . . .
H9 H 0.6439 0.3345 0.5747 0.077 Uiso 1 1 calc R . .
C10 C 0.7268(10) 0.4645(14) 0.5798(7) 0.069(4) Uani 1 1 d . . .
H10 H 0.7585 0.4467 0.6199 0.082 Uiso 1 1 calc R . .
C11 C 0.1321(10) 0.3870(15) 0.1043(7) 0.066(4) Uani 1 1 d . . .
H11 H 0.1780 0.3420 0.1119 0.080 Uiso 1 1 calc R . .
C12 C 0.0915(9) 0.4152(15) 0.0480(6) 0.061(4) Uani 1 1 d . . .
H12 H 0.1095 0.3888 0.0168 0.074 Uiso 1 1 calc R . .
C13 C 0.0228(7) 0.4826(11) 0.0319(5) 0.043(3) Uani 1 1 d . . .
C14 C -0.0009(8) 0.5170(14) 0.0823(6) 0.052(3) Uani 1 1 d . . .
H14 H -0.0466 0.5622 0.0756 0.062 Uiso 1 1 calc R . .
C15 C 0.0437(8) 0.4834(13) 0.1411(5) 0.048(3) Uani 1 1 d . . .
H15 H 0.0263 0.5059 0.1732 0.058 Uiso 1 1 calc R . .
N4 N 0.8461(10) 0.3518(14) 0.3137(8) 0.118(4) Uani 1 1 d GDU . .
C16 C 0.7651(10) 0.3481(15) 0.3053(8) 0.133(5) Uani 1 1 d GU . .
H16 H 0.7336 0.2879 0.2821 0.159 Uiso 1 1 calc R . .
C17 C 0.7312(9) 0.4345(19) 0.3314(10) 0.137(5) Uani 1 1 d GU . .
H17 H 0.6771 0.4321 0.3257 0.164 Uiso 1 1 calc R . .
C18 C 0.7783(12) 0.5246(16) 0.3659(9) 0.133(5) Uani 1 1 d GU . .
H18 H 0.7556 0.5824 0.3834 0.160 Uiso 1 1 calc R . .
C19 C 0.8592(12) 0.5282(15) 0.3744(8) 0.136(5) Uani 1 1 d GU . .
H19 H 0.8907 0.5884 0.3975 0.163 Uiso 1 1 calc R . .
C20 C 0.8931(8) 0.4418(17) 0.3483(8) 0.130(5) Uani 1 1 d GU . .
H20 H 0.9473 0.4443 0.3539 0.157 Uiso 1 1 calc R . .
C21 C 0.8861(15) 0.254(2) 0.2979(7) 0.116(5) Uani 1 1 d DU . .
H21A H 0.8756 0.1839 0.3177 0.140 Uiso 1 1 calc R . .
H21B H 0.9431 0.2687 0.3137 0.140 Uiso 1 1 calc R . .
C22 C 0.8607(16) 0.233(2) 0.2288(7) 0.117(5) Uani 1 1 d DU . .
H22A H 0.8032 0.2252 0.2130 0.140 Uiso 1 1 calc R . .
H22B H 0.8830 0.1585 0.2220 0.140 Uiso 1 1 calc R . .
C23 C 0.8846(17) 0.328(2) 0.1913(10) 0.111(4) Uani 1 1 d DU . .
H23A H 0.8480 0.3935 0.1846 0.133 Uiso 1 1 calc R . .
H23B H 0.9375 0.3562 0.2143 0.133 Uiso 1 1 calc R . .
N5 N 0.8841(9) 0.2832(13) 0.1329(6) 0.103(4) Uani 1 1 d GDU . .
C24 C 0.8239(8) 0.3350(13) 0.0847(7) 0.105(4) Uani 1 1 d GU . .
H24 H 0.7874 0.3850 0.0929 0.126 Uiso 1 1 calc R . .
C25 C 0.8184(9) 0.3120(15) 0.0242(6) 0.114(5) Uani 1 1 d GU . .
H25 H 0.7782 0.3466 -0.0081 0.137 Uiso 1 1 calc R . .
C26 C 0.8731(11) 0.2372(15) 0.0120(6) 0.118(5) Uani 1 1 d GU . .
H26 H 0.8694 0.2218 -0.0285 0.141 Uiso 1 1 calc R . .
C27 C 0.9332(10) 0.1854(14) 0.0602(8) 0.114(5) Uani 1 1 d GU . .
H27 H 0.9698 0.1354 0.0520 0.137 Uiso 1 1 calc R . .
C28 C 0.9388(8) 0.2084(13) 0.1207(7) 0.107(4) Uani 1 1 d GU . .
H28 H 0.9790 0.1738 0.1529 0.129 Uiso 1 1 calc R . .

loop_
_atom_site_aniso_label
_atom_site_aniso_U_11
_atom_site_aniso_U_22
_atom_site_aniso_U_33
_atom_site_aniso_U_23
_atom_site_aniso_U_13
_atom_site_aniso_U_12
W1 0.0343(3) 0.0353(3) 0.0487(3) -0.0006(2) 0.0024(2) -0.00372(19)
I1 0.0918(10) 0.0668(8) 0.1512(15) 0.0124(8) 0.0206(9) 0.0050(7)
I2 0.1080(12) 0.1222(14) 0.1279(14) 0.0325(11) 0.0177(10) -0.0254(10)
I3 0.1170(12) 0.1111(12) 0.1068(11) 0.0080(9) 0.0588(10) 0.0057(9)
Cu1 0.0386(8) 0.0500(9) 0.0586(10) 0.0054(7) 0.0041(7) 0.0005(7)
Cu2 0.0527(9) 0.0557(10) 0.0442(8) 0.0104(7) 0.0095(7) 0.0007(7)
Cu3 0.0490(9) 0.0514(10) 0.0462(8) -0.0001(7) 0.0110(7) -0.0060(7)
S1 0.0509(19) 0.066(2) 0.0482(18) 0.0009(16) 0.0104(15) 0.0118(16)
S2 0.0444(16) 0.0359(15) 0.0460(16) 0.0044(12) 0.0079(13) 0.0051(12)
S3 0.0511(18) 0.0457(18) 0.061(2) 0.0180(15) 0.0189(16) 0.0056(14)
O1 0.053(6) 0.053(6) 0.102(9) -0.016(6) -0.001(6) -0.023(5)
N1 0.047(6) 0.050(7) 0.065(8) 0.016(6) -0.008(6) -0.007(5)
N2 0.046(6) 0.070(8) 0.032(5) -0.002(5) 0.005(5) -0.015(5)
N3 0.055(7) 0.044(6) 0.049(6) 0.018(5) 0.007(5) 0.006(5)
C1 0.052(9) 0.072(10) 0.080(11) 0.019(9) -0.003(8) -0.002(8)
C2 0.053(8) 0.064(10) 0.079(11) 0.024(8) -0.007(8) -0.005(7)
C3 0.051(8) 0.054(8) 0.054(8) 0.000(6) 0.001(6) -0.011(6)
C4 0.074(12) 0.073(11) 0.098(14) 0.035(11) -0.039(10) -0.021(10)
C5 0.067(11) 0.055(9) 0.113(15) 0.022(10) -0.024(10) -0.015(8)
C6 0.111(16) 0.14(2) 0.067(11) 0.002(12) 0.025(11) -0.081(15)
C7 0.076(12) 0.119(16) 0.063(10) 0.030(11) -0.015(9) -0.043(11)
C8 0.041(7) 0.053(8) 0.043(6) 0.002(6) 0.005(5) -0.008(6)
C9 0.072(10) 0.058(9) 0.042(7) 0.002(6) -0.007(7) -0.011(7)
C10 0.067(9) 0.063(9) 0.055(8) 0.010(7) -0.007(7) -0.008(8)
C11 0.073(10) 0.076(10) 0.053(8) 0.004(7) 0.023(7) 0.035(8)
C12 0.068(9) 0.079(10) 0.035(7) -0.001(6) 0.014(6) 0.023(8)
C13 0.050(7) 0.041(6) 0.038(6) -0.002(5) 0.013(5) 0.009(5)
C14 0.040(7) 0.074(9) 0.037(6) 0.012(6) 0.007(5) 0.021(6)
C15 0.050(7) 0.074(9) 0.027(5) 0.011(6) 0.021(5) 0.006(6)
N4 0.117(6) 0.117(6) 0.121(6) 0.003(5) 0.040(5) -0.007(5)
C16 0.132(7) 0.130(7) 0.138(7) 0.001(6) 0.047(6) -0.003(6)
C17 0.138(7) 0.136(8) 0.140(7) 0.001(6) 0.051(6) -0.002(6)
C18 0.140(7) 0.133(8) 0.132(7) 0.001(6) 0.052(6) -0.003(6)
C19 0.139(7) 0.135(8) 0.132(7) -0.003(6) 0.042(6) 0.000(6)
C20 0.132(7) 0.125(7) 0.129(7) -0.001(6) 0.037(6) -0.001(6)
C21 0.113(7) 0.115(7) 0.118(7) 0.001(6) 0.035(6) -0.002(6)
C22 0.111(7) 0.115(7) 0.119(7) -0.002(6) 0.032(6) -0.002(6)
C23 0.107(7) 0.109(7) 0.114(7) -0.004(6) 0.033(6) -0.002(6)
N5 0.099(6) 0.106(6) 0.108(6) -0.004(5) 0.040(5) -0.001(5)
C24 0.102(7) 0.102(7) 0.111(7) -0.006(6) 0.034(6) 0.004(6)
C25 0.113(7) 0.112(7) 0.116(7) 0.000(6) 0.036(6) 0.000(6)
C26 0.120(7) 0.117(7) 0.117(7) -0.006(6) 0.042(6) -0.002(6)
C27 0.114(7) 0.114(7) 0.117(7) -0.005(6) 0.043(6) 0.005(6)
C28 0.105(7) 0.110(7) 0.111(7) -0.001(6) 0.044(6) 0.006(6)

_geom_special_details            
;
All esds (except the esd in the dihedral angle between two l.s. planes)
are estimated using the full covariance matrix. The cell esds are taken
into account individually in the estimation of esds in distances, angles
and torsion angles; correlations between esds in cell parameters are only
used when they are defined by crystal symmetry. An approximate (isotropic)
treatment of cell esds is used for estimating esds involving l.s. planes.
;

loop_
_geom_bond_atom_site_label_1
_geom_bond_atom_site_label_2
_geom_bond_distance
_geom_bond_site_symmetry_2
_geom_bond_publ_flag
W1 O1 1.733(9) . ?
W1 S1 2.259(4) . ?
W1 S3 2.264(4) . ?
W1 S2 2.272(3) . ?
W1 Cu2 2.7043(18) . ?
W1 Cu3 2.7105(18) . ?
W1 Cu1 2.7180(18) . ?
I1 Cu1 2.516(2) . ?
I2 Cu2 2.440(2) . ?
I3 Cu3 2.446(2) . ?
Cu1 N1 2.078(12) . ?
Cu1 S3 2.308(4) . ?
Cu1 S1 2.317(4) . ?
Cu2 N3 2.167(11) . ?
Cu2 S1 2.306(4) . ?
Cu2 S2 2.316(4) . ?
Cu3 N2 2.077(11) 3_666 ?
Cu3 S3 2.314(4) . ?
Cu3 S2 2.313(4) . ?
N1 C1 1.34(2) . ?
N1 C5 1.36(2) . ?
N2 C10 1.278(19) . ?
N2 C6 1.34(2) . ?
N2 Cu3 2.077(11) 3_666 ?
N3 C15 1.299(17) . ?
N3 C11 1.404(18) . ?
C1 C2 1.38(2) . ?
C1 H1 0.9300 . ?
C2 C3 1.40(2) . ?
C2 H2 0.9300 . ?
C3 C4 1.40(2) . ?
C3 C8 1.525(18) . ?
C4 C5 1.35(2) . ?
C4 H4 0.9300 . ?
C5 H5 0.9300 . ?
C6 C7 1.43(2) . ?
C6 H6 0.9300 . ?
C7 C8 1.34(2) . ?
C7 H7 0.9300 . ?
C8 C9 1.348(18) . ?
C9 C10 1.42(2) . ?
C9 H9 0.9300 . ?
C10 H10 0.9300 . ?
C11 C12 1.30(2) . ?
C11 H11 0.9300 . ?
C12 C13 1.383(19) . ?
C12 H12 0.9300 . ?
C13 C14 1.417(17) . ?
C13 C13 1.48(2) 3_565 ?
C14 C15 1.376(16) . ?
C14 H14 0.9300 . ?
C15 H15 0.9300 . ?
N4 C16 1.3900 . ?
N4 C20 1.3900 . ?
N4 C21 1.43(2) . ?
C16 C17 1.3900 . ?
C16 H16 0.9300 . ?
C17 C18 1.3900 . ?
C17 H17 0.9300 . ?
C18 C19 1.3900 . ?
C18 H18 0.9300 . ?
C19 C20 1.3900 . ?
C19 H19 0.9300 . ?
C20 H20 0.9300 . ?
C21 C22 1.523(10) . ?
C21 H21A 0.9700 . ?
C21 H21B 0.9700 . ?
C22 C23 1.525(10) . ?
C22 H22A 0.9700 . ?
C22 H22B 0.9700 . ?
C23 N5 1.43(2) . ?
C23 H23A 0.9700 . ?
C23 H23B 0.9700 . ?
N5 C24 1.3900 . ?
N5 C28 1.3900 . ?
C24 C25 1.3900 . ?
C24 H24 0.9300 . ?
C25 C26 1.3900 . ?
C25 H25 0.9300 . ?
C26 C27 1.3900 . ?
C26 H26 0.9300 . ?
C27 C28 1.3900 . ?
C27 H27 0.9300 . ?
C28 H28 0.9300 . ?

loop_
_geom_angle_atom_site_label_1
_geom_angle_atom_site_label_2
_geom_angle_atom_site_label_3
_geom_angle
_geom_angle_site_symmetry_1
_geom_angle_site_symmetry_3
_geom_angle_publ_flag
O1 W1 S1 111.0(5) . . ?
O1 W1 S3 110.2(4) . . ?
S1 W1 S3 108.80(13) . . ?
O1 W1 S2 108.9(4) . . ?
S1 W1 S2 108.88(13) . . ?
S3 W1 S2 109.04(12) . . ?
O1 W1 Cu2 121.3(4) . . ?
S1 W1 Cu2 54.49(11) . . ?
S3 W1 Cu2 128.44(10) . . ?
S2 W1 Cu2 54.65(9) . . ?
O1 W1 Cu3 125.3(5) . . ?
S1 W1 Cu3 123.67(11) . . ?
S3 W1 Cu3 54.56(10) . . ?
S2 W1 Cu3 54.48(9) . . ?
Cu2 W1 Cu3 92.01(6) . . ?
O1 W1 Cu1 125.8(4) . . ?
S1 W1 Cu1 54.54(10) . . ?
S3 W1 Cu1 54.29(10) . . ?
S2 W1 Cu1 125.36(9) . . ?
Cu2 W1 Cu1 93.07(5) . . ?
Cu3 W1 Cu1 89.69(6) . . ?
N1 Cu1 S3 115.2(4) . . ?
N1 Cu1 S1 110.8(4) . . ?
S3 Cu1 S1 105.34(14) . . ?
N1 Cu1 I1 100.8(4) . . ?
S3 Cu1 I1 111.92(11) . . ?
S1 Cu1 I1 113.09(13) . . ?
N1 Cu1 W1 131.4(4) . . ?
S3 Cu1 W1 52.78(9) . . ?
S1 Cu1 W1 52.59(10) . . ?
I1 Cu1 W1 127.78(7) . . ?
N3 Cu2 S1 111.4(3) . . ?
N3 Cu2 S2 102.9(3) . . ?
S1 Cu2 S2 105.75(14) . . ?
N3 Cu2 I2 100.5(3) . . ?
S1 Cu2 I2 113.72(13) . . ?
S2 Cu2 I2 121.78(12) . . ?
N3 Cu2 W1 114.9(3) . . ?
S1 Cu2 W1 52.87(11) . . ?
S2 Cu2 W1 53.13(8) . . ?
I2 Cu2 W1 144.56(8) . . ?
N2 Cu3 S3 110.3(4) 3_666 . ?
N2 Cu3 S2 108.4(3) 3_666 . ?
S3 Cu3 S2 105.90(14) . . ?
N2 Cu3 I3 107.2(3) 3_666 . ?
S3 Cu3 I3 111.44(12) . . ?
S2 Cu3 I3 113.59(11) . . ?
N2 Cu3 W1 123.3(3) 3_666 . ?
S3 Cu3 W1 52.84(10) . . ?
S2 Cu3 W1 53.06(9) 