####################################################################### 
# 
# This file contains crystal structure data downloaded from the 
# Cambridge Structural Database (CSD) hosted by the Cambridge 
# Crystallographic Data Centre (CCDC).
# 
# Full information about CCDC data access policies and citation 
# guidelines are available at http://www.ccdc.cam.ac.uk/access/V1 
# 
# Audit and citation data items may have been added by the CCDC. 
# Please retain this information to preserve the provenance of 
# this file and to allow appropriate attribution of the data. 
# 
#######################################################################

data_Cu-TBA-3
_audit_block_doi                 10.5517/ccwr1k6
_database_code_depnum_ccdc_archive 'CCDC 826508'
_audit_update_record             
;
2011-05-19 deposited with the CCDC.	2024-07-10 downloaded from the CCDC.
;
#TrackingRef 'Cu-TBA-3.cif'


_audit_creation_method           SHELXL-97

_chemical_name_systematic        
;
?
;
_chemical_name_common            Cu-TBA-3
_chemical_melting_point          ?
_chemical_formula_moiety         ?
_chemical_formula_sum            'C22.46 H16 Cu N6.34 O2.23'
_chemical_formula_weight         473.96

loop_
_atom_type_symbol
_atom_type_description
_atom_type_scat_dispersion_real
_atom_type_scat_dispersion_imag
_atom_type_scat_source
C C 0.0033 0.0016 'International Tables Vol C Tables 4.2.6.8 and 6.1.1.4'
Cu Cu 0.3201 1.2651 'International Tables Vol C Tables 4.2.6.8 and 6.1.1.4'
N N 0.0061 0.0033 'International Tables Vol C Tables 4.2.6.8 and 6.1.1.4'
O O 0.0106 0.0060 'International Tables Vol C Tables 4.2.6.8 and 6.1.1.4'
H H 0.0000 0.0000 'International Tables Vol C Tables 4.2.6.8 and 6.1.1.4'

_symmetry_cell_setting           Monoclinic
_symmetry_space_group_name_H-M   P21/c

loop_
_symmetry_equiv_pos_as_xyz
'x, y, z'
'-x, y+1/2, -z+1/2'
'-x, -y, -z'
'x, -y-1/2, z-1/2'

_cell_length_a                   10.594(16)
_cell_length_b                   15.10(2)
_cell_length_c                   20.05(3)
_cell_angle_alpha                90.00
_cell_angle_beta                 95.01(2)
_cell_angle_gamma                90.00
_cell_volume                     3195(8)
_cell_formula_units_Z            4
_cell_measurement_temperature    293(2)
_cell_measurement_reflns_used    789
_cell_measurement_theta_min      2.35
_cell_measurement_theta_max      25.74

_exptl_crystal_description       prismic
_exptl_crystal_colour            green
_exptl_crystal_size_max          0.24
_exptl_crystal_size_mid          0.20
_exptl_crystal_size_min          0.14
_exptl_crystal_density_meas      ?
_exptl_crystal_density_diffrn    0.985
_exptl_crystal_density_method    'not measured'
_exptl_crystal_F_000             968
_exptl_absorpt_coefficient_mu    0.707
_exptl_absorpt_correction_type   multi-scan
_exptl_absorpt_correction_T_min  0.7076
_exptl_absorpt_correction_T_max  0.8787
_exptl_absorpt_process_details   'Blessing, Acta Cryst. (1995) A51 33-58'

_exptl_special_details           
;
?
;

_diffrn_ambient_temperature      293(2)
_diffrn_radiation_wavelength     0.71073
_diffrn_radiation_type           MoK\a
_diffrn_radiation_source         'fine-focus sealed tube'
_diffrn_radiation_monochromator  graphite
_diffrn_measurement_device_type  ?
_diffrn_measurement_method       ?
_diffrn_detector_area_resol_mean ?
_diffrn_standards_number         ?
_diffrn_standards_interval_count ?
_diffrn_standards_interval_time  ?
_diffrn_standards_decay_%        ?
_diffrn_reflns_number            14418
_diffrn_reflns_av_R_equivalents  0.1180
_diffrn_reflns_av_sigmaI/netI    0.4190
_diffrn_reflns_limit_h_min       -12
_diffrn_reflns_limit_h_max       9
_diffrn_reflns_limit_k_min       -16
_diffrn_reflns_limit_k_max       17
_diffrn_reflns_limit_l_min       -23
_diffrn_reflns_limit_l_max       23
_diffrn_reflns_theta_min         2.68
_diffrn_reflns_theta_max         25.00
_reflns_number_total             5487
_reflns_number_gt                1788
_reflns_threshold_expression     >2sigma(I)

_computing_data_collection       'Bruker SMART'
_computing_cell_refinement       'Bruker SMART'
_computing_data_reduction        'Bruker SAINT'
_computing_structure_solution    'Bruker SHELXTL'
_computing_structure_refinement  'Bruker SHELXTL'
_computing_molecular_graphics    'Bruker SHELXTL'
_computing_publication_material  'Bruker SHELXTL'

_refine_special_details          
;
Refinement of F^2^ against ALL reflections. The weighted R-factor wR and
goodness of fit S are based on F^2^, conventional R-factors R are based
on F, with F set to zero for negative F^2^. The threshold expression of
F^2^ > 2sigma(F^2^) is used only for calculating R-factors(gt) etc. and is
not relevant to the choice of reflections for refinement. R-factors based
on F^2^ are statistically about twice as large as those based on F, and R-
factors based on ALL data will be even larger.
;

_refine_ls_structure_factor_coef Fsqd
_refine_ls_matrix_type           full
_refine_ls_weighting_scheme      calc
_refine_ls_weighting_details     
'calc w=1/[\s^2^(Fo^2^)+(0.1035P)^2^+0.0000P] where P=(Fo^2^+2Fc^2^)/3'
_atom_sites_solution_primary     direct
_atom_sites_solution_secondary   difmap
_atom_sites_solution_hydrogens   geom
_refine_ls_hydrogen_treatment    constr
_refine_ls_extinction_method     none
_refine_ls_extinction_coef       ?
_refine_ls_number_reflns         5487
_refine_ls_number_parameters     270
_refine_ls_number_restraints     0
_refine_ls_R_factor_all          0.2658
_refine_ls_R_factor_gt           0.0964
_refine_ls_wR_factor_ref         0.3041
_refine_ls_wR_factor_gt          0.2216
_refine_ls_goodness_of_fit_ref   0.876
_refine_ls_restrained_S_all      0.876
_refine_ls_shift/su_max          0.001
_refine_ls_shift/su_mean         0.000

loop_
_atom_site_label
_atom_site_type_symbol
_atom_site_fract_x
_atom_site_fract_y
_atom_site_fract_z
_atom_site_U_iso_or_equiv
_atom_site_adp_type
_atom_site_occupancy
_atom_site_symmetry_multiplicity
_atom_site_calc_flag
_atom_site_refinement_flags
_atom_site_disorder_assembly
_atom_site_disorder_group
Cu1 Cu 0.82547(11) 0.48066(8) 0.03086(5) 0.0493(5) Uani 1 1 d . . .
O1 O 0.8804(6) 0.3962(4) 0.0996(3) 0.062(2) Uani 1 1 d . . .
O2 O 0.7313(7) 0.4573(5) 0.1574(3) 0.073(2) Uani 1 1 d . . .
N1 N 0.8794(8) 0.1441(6) 0.4148(4) 0.064(2) Uani 1 1 d . . .
N2 N 0.9387(9) 0.0820(6) 0.4519(4) 0.057(2) Uani 1 1 d . . .
N3 N 1.0508(8) 0.0676(6) 0.4297(4) 0.050(2) Uani 1 1 d . . .
N4 N 1.0666(8) 0.1161(6) 0.3761(4) 0.061(2) Uani 1 1 d . . .
N9 N 0.6740(7) 0.4127(6) -0.0036(4) 0.047(2) Uani 1 1 d . . .
N10 N 0.7434(8) 0.5668(6) -0.0344(4) 0.054(2) Uani 1 1 d . . .
C1 C 0.9604(11) 0.1623(7) 0.3680(5) 0.060(3) Uani 1 1 d . . .
C2 C 0.9279(10) 0.2261(7) 0.3142(5) 0.055(3) Uani 1 1 d . . .
C3 C 0.8240(11) 0.2775(8) 0.3167(5) 0.073(3) Uani 1 1 d . . .
H3 H 0.7756 0.2733 0.3531 0.087 Uiso 1 1 calc R . .
C4 C 0.7889(10) 0.3365(8) 0.2653(6) 0.072(3) Uani 1 1 d . . .
H4 H 0.7177 0.3722 0.2675 0.086 Uiso 1 1 calc R . .
C5 C 0.8622(10) 0.3421(7) 0.2096(5) 0.061(3) Uani 1 1 d . . .
C6 C 0.9687(10) 0.2868(8) 0.2070(5) 0.077(4) Uani 1 1 d . . .
H6 H 1.0169 0.2886 0.1704 0.092 Uiso 1 1 calc R . .
C7 C 1.0010(11) 0.2287(8) 0.2608(5) 0.081(4) Uani 1 1 d . . .
H7 H 1.0715 0.1922 0.2602 0.097 Uiso 1 1 calc R . .
C8 C 0.8199(11) 0.4057(8) 0.1530(5) 0.064(3) Uani 1 1 d . . .
C9 C 0.6161(11) 0.6767(7) -0.1308(5) 0.068(3) Uani 1 1 d . . .
C10 C 0.5417(13) 0.7362(9) -0.1812(7) 0.135(6) Uani 1 1 d . . .
H10A H 0.5607 0.7971 -0.1708 0.202 Uiso 1 1 calc R . .
H10B H 0.4526 0.7260 -0.1794 0.202 Uiso 1 1 calc R . .
H10C H 0.5648 0.7231 -0.2254 0.202 Uiso 1 1 calc R . .
C11 C 0.5701(10) 0.5927(8) -0.1157(5) 0.068(3) Uani 1 1 d . . .
H11 H 0.4947 0.5729 -0.1380 0.081 Uiso 1 1 calc R . .
C12 C 0.6341(9) 0.5383(7) -0.0682(5) 0.047(3) Uani 1 1 d . . .
C13 C 0.5967(9) 0.4499(6) -0.0518(4) 0.042(2) Uani 1 1 d . . .
C14 C 0.4961(10) 0.4058(8) -0.0847(5) 0.062(3) Uani 1 1 d . . .
H14 H 0.4440 0.4350 -0.1173 0.074 Uiso 1 1 calc R . .
C15 C 0.4718(11) 0.3192(8) -0.0697(6) 0.069(3) Uani 1 1 d . . .
C16 C 0.3626(12) 0.2709(8) -0.1025(7) 0.109(5) Uani 1 1 d . . .
H16A H 0.3731 0.2086 -0.0942 0.163 Uiso 1 1 calc R . .
H16B H 0.3574 0.2817 -0.1498 0.163 Uiso 1 1 calc R . .
H16C H 0.2863 0.2910 -0.0848 0.163 Uiso 1 1 calc R . .
C17 C 0.5494(11) 0.2810(7) -0.0207(6) 0.069(3) Uani 1 1 d . . .
H17 H 0.5356 0.2228 -0.0079 0.083 Uiso 1 1 calc R . .
C18 C 0.6501(10) 0.3292(8) 0.0106(5) 0.061(3) Uani 1 1 d . . .
H18 H 0.7035 0.3011 0.0433 0.073 Uiso 1 1 calc R . .
C19 C 0.7868(10) 0.6512(9) -0.0506(6) 0.075(3) Uani 1 1 d . . .
H19 H 0.8626 0.6709 -0.0287 0.090 Uiso 1 1 calc R . .
C20 C 0.7248(7) 0.7065(5) -0.0967(4) 0.075(4) Uani 1 1 d . . .
H20 H 0.7560 0.7628 -0.1044 0.090 Uiso 1 1 calc R . .
O1A O 0.1790(7) 0.4887(5) 0.2332(4) 0.050 Uiso 0.207(5) 1 d PR . .
C21 C 0.2904(7) 0.5464(5) 0.2532(4) 0.050 Uiso 0.259(7) 1 d PR . .
N1A N 0.3215(7) 0.5502(5) 0.3212(4) 0.050 Uiso 0.310(8) 1 d PR . .
C22 C 0.2759(7) 0.6240(5) 0.3521(4) 0.050 Uiso 0.207(5) 1 d PR . .
C23 C 0.3729(7) 0.4860(5) 0.3529(4) 0.050 Uiso 0.207(5) 1 d PR . .
C24 C 0.3151(7) 0.6195(5) 0.4030(4) 0.050 Uiso 0.207(5) 1 d PR . .
C25 C 0.5544(7) 0.6098(5) 0.3580(4) 0.050 Uiso 0.207(5) 1 d PR . .
C26 C 0.2833(7) 0.0930(5) 0.2488(4) 0.063(6) Uiso 0.50 1 d PR . .
C27 C 0.9517(7) 0.9770(5) 0.9368(4) 0.14(2) Uiso 0.25 1 d PR . .
C28 C 1.0223(7) 0.8695(5) 0.9652(4) 0.23(4) Uiso 0.25 1 d PR . .
C29 C 0.8370(7) 0.9090(5) 0.8700(4) 0.060(11) Uiso 0.25 1 d PR . .

loop_
_atom_site_aniso_label
_atom_site_aniso_U_11
_atom_site_aniso_U_22
_atom_site_aniso_U_33
_atom_site_aniso_U_23
_atom_site_aniso_U_13
_atom_site_aniso_U_12
Cu1 0.0606(9) 0.0444(8) 0.0412(7) 0.0013(6) -0.0055(5) -0.0043(7)
O1 0.076(5) 0.062(5) 0.047(4) 0.012(4) -0.002(4) 0.008(4)
O2 0.067(5) 0.078(6) 0.073(5) 0.016(4) -0.009(4) 0.016(5)
N1 0.073(6) 0.063(6) 0.059(6) 0.020(5) 0.014(5) 0.016(5)
N2 0.068(7) 0.050(6) 0.050(5) 0.015(5) -0.008(5) 0.006(5)
N3 0.054(6) 0.058(6) 0.037(5) 0.006(5) 0.003(4) 0.004(5)
N4 0.057(6) 0.061(6) 0.064(6) 0.023(5) 0.000(5) 0.012(5)
N9 0.056(5) 0.033(5) 0.050(5) 0.002(4) -0.002(4) -0.009(4)
N10 0.059(6) 0.057(6) 0.045(5) -0.004(5) -0.006(4) -0.001(5)
C1 0.072(8) 0.061(8) 0.045(7) 0.005(6) -0.002(6) -0.002(7)
C2 0.049(7) 0.066(8) 0.048(6) 0.025(6) 0.003(5) 0.010(6)
C3 0.077(9) 0.086(10) 0.054(7) 0.025(7) 0.001(6) 0.022(7)
C4 0.054(7) 0.074(9) 0.088(9) 0.008(7) 0.009(6) 0.012(6)
C5 0.055(7) 0.077(8) 0.048(7) 0.024(6) -0.010(5) 0.004(6)
C6 0.055(8) 0.109(11) 0.067(8) 0.023(7) 0.012(6) 0.009(7)
C7 0.072(8) 0.106(10) 0.063(8) 0.034(8) 0.000(6) 0.031(7)
C8 0.062(8) 0.081(10) 0.045(7) 0.019(7) -0.011(6) -0.002(7)
C9 0.080(9) 0.039(7) 0.083(8) 0.033(6) -0.006(6) 0.006(7)
C10 0.134(13) 0.106(12) 0.152(14) 0.075(11) -0.059(10) -0.027(10)
C11 0.060(7) 0.088(10) 0.052(7) 0.008(7) -0.009(5) 0.009(7)
C12 0.042(6) 0.054(8) 0.045(6) 0.005(5) -0.001(5) 0.000(5)
C13 0.053(7) 0.034(6) 0.039(6) -0.007(5) 0.002(5) -0.001(5)
C14 0.084(9) 0.041(8) 0.059(7) 0.002(6) -0.002(6) 0.001(6)
C15 0.069(8) 0.054(9) 0.079(8) -0.022(7) -0.025(6) 0.011(7)
C16 0.097(10) 0.081(10) 0.141(12) -0.032(9) -0.031(9) -0.007(8)
C17 0.082(9) 0.043(7) 0.082(8) -0.008(7) 0.007(7) -0.017(7)
C18 0.064(8) 0.068(9) 0.050(7) 0.000(6) -0.002(5) 0.010(7)
C19 0.061(8) 0.070(9) 0.093(9) -0.003(7) -0.006(6) -0.019(7)
C20 0.081(9) 0.056(8) 0.083(9) 0.028(7) -0.011(7) 0.002(7)

_geom_special_details            
;
All esds (except the esd in the dihedral angle between two l.s. planes)
are estimated using the full covariance matrix. The cell esds are taken
into account individually in the estimation of esds in distances, angles
and torsion angles; correlations between esds in cell parameters are only
used when they are defined by crystal symmetry. An approximate (isotropic)
treatment of cell esds is used for estimating esds involving l.s. planes.
;

loop_
_geom_bond_atom_site_label_1
_geom_bond_atom_site_label_2
_geom_bond_distance
_geom_bond_site_symmetry_2
_geom_bond_publ_flag
Cu1 O1 1.929(7) . ?
Cu1 N3 1.972(8) 2_755 ?
Cu1 N9 1.978(8) . ?
Cu1 N10 1.991(8) . ?
Cu1 N2 2.274(9) 4_565 ?
O1 C8 1.303(12) . ?
O2 C8 1.229(12) . ?
N1 N2 1.321(10) . ?
N1 C1 1.354(12) . ?
N2 N3 1.322(10) . ?
N2 Cu1 2.274(9) 4_566 ?
N3 N4 1.322(10) . ?
N3 Cu1 1.971(8) 2_745 ?
N4 C1 1.322(12) . ?
N9 C18 1.322(12) . ?
N9 C13 1.335(11) . ?
N10 C12 1.359(11) . ?
N10 C19 1.402(13) . ?
C1 C2 1.464(13) . ?
C2 C3 1.351(13) . ?
C2 C7 1.376(13) . ?
C3 C4 1.388(13) . ?
C3 H3 0.9300 . ?
C4 C5 1.418(14) . ?
C4 H4 0.9300 . ?
C5 C6 1.409(14) . ?
C5 C8 1.524(14) . ?
C6 C7 1.409(14) . ?
C6 H6 0.9300 . ?
C7 H7 0.9300 . ?
C9 C20 1.364(12) . ?
C9 C11 1.402(14) . ?
C9 C10 1.520(14) . ?
C10 H10A 0.9600 . ?
C10 H10B 0.9600 . ?
C10 H10C 0.9600 . ?
C11 C12 1.389(12) . ?
C11 H11 0.9300 . ?
C12 C13 1.439(12) . ?
C13 C14 1.375(13) . ?
C14 C15 1.371(14) . ?
C14 H14 0.9300 . ?
C15 C17 1.354(14) . ?
C15 C16 1.473(14) . ?
C16 H16A 0.9600 . ?
C16 H16B 0.9600 . ?
C16 H16C 0.9600 . ?
C17 C18 1.395(14) . ?
C17 H17 0.9300 . ?
C18 H18 0.9300 . ?
C19 C20 1.369(13) . ?
C19 H19 0.9300 . ?
C20 H20 0.9300 . ?
O1A C21 1.4935 . ?
C21 N1A 1.3764 . ?
N1A C23 1.2562 . ?
N1A C22 1.3827 . ?
N1A C24 1.9515 . ?
C22 C24 1.0702 . ?
C27 C29 2.0102 . ?

loop_
_geom_angle_atom_site_label_1
_geom_angle_atom_site_label_2
_geom_angle_atom_site_label_3
_geom_angle
_geom_angle_site_symmetry_1
_geom_angle_site_symmetry_3
_geom_angle_publ_flag
O1 Cu1 N3 90.3(3) . 2_755 ?
O1 Cu1 N9 95.2(3) . . ?
N3 Cu1 N9 167.5(4) 2_755 . ?
O1 Cu1 N10 171.3(3) . . ?
N3 Cu1 N10 93.8(4) 2_755 . ?
N9 Cu1 N10 79.3(4) . . ?
O1 Cu1 N2 94.4(3) . 4_565 ?
N3 Cu1 N2 100.6(3) 2_755 4_565 ?
N9 Cu1 N2 90.1(3) . 4_565 ?
N10 Cu1 N2 92.4(3) . 4_565 ?
C8 O1 Cu1 112.0(7) . . ?
N2 N1 C1 103.7(9) . . ?
N1 N2 N3 108.9(8) . . ?
N1 N2 Cu1 115.7(7) . 4_566 ?
N3 N2 Cu1 135.2(7) . 4_566 ?
N4 N3 N2 111.3(8) . . ?
N4 N3 Cu1 124.6(7) . 2_745 ?
N2 N3 Cu1 124.0(7) . 2_745 ?
C1 N4 N3 103.1(8) . . ?
C18 N9 C13 116.1(8) . . ?
C18 N9 Cu1 125.8(7) . . ?
C13 N9 Cu1 117.6(7) . . ?
C12 N10 C19 117.1(8) . . ?
C12 N10 Cu1 115.1(7) . . ?
C19 N10 Cu1 127.8(7) . . ?
N4 C1 N1 113.0(9) . . ?
N4 C1 C2 125.6(10) . . ?
N1 C1 C2 121.4(10) . . ?
C3 C2 C7 121.9(9) . . ?
C3 C2 C1 119.4(10) . . ?
C7 C2 C1 118.7(10) . . ?
C2 C3 C4 120.5(10) . . ?
C2 C3 H3 119.7 . . ?
C4 C3 H3 119.7 . . ?
C3 C4 C5 119.5(10) . . ?
C3 C4 H4 120.2 . . ?
C5 C4 H4 120.2 . . ?
C6 C5 C4 119.3(9) . . ?
C6 C5 C8 122.0(10) . . ?
C4 C5 C8 118.6(11) . . ?
C7 C6 C5 118.8(10) . . ?
C7 C6 H6 120.6 . . ?
C5 C6 H6 120.6 . . ?
C2 C7 C6 119.9(11) . . ?
C2 C7 H7 120.0 . . ?
C6 C7 H7 120.0 . . ?
O2 C8 O1 124.2(10) . . ?
O2 C8 C5 121.5(11) . . ?
O1 C8 C5 114.2(11) . . ?
C20 C9 C11 118.9(9) . . ?
C20 C9 C10 120.4(10) . . ?
C11 C9 C10 120.6(10) . . ?
C9 C10 H10A 109.5 . . ?
C9 C10 H10B 109.5 . . ?
H10A C10 H10B 109.5 . . ?
C9 C10 H10C 109.5 . . ?
H10A C10 H10C 109.5 . . ?
H10B C10 H10C 109.5 . . ?
C12 C11 C9 121.7(10) . . ?
C12 C11 H11 119.1 . . ?
C9 C11 H11 119.1 . . ?
N10 C12 C11 119.8(10) . . ?
N10 C12 C13 114.9(9) . . ?
C11 C12 C13 125.3(9) . . ?
N9 C13 C14 123.0(9) . . ?
N9 C13 C12 113.0(9) . . ?
C14 C13 C12 123.9(9) . . ?
C15 C14 C13 120.6(10) . . ?
C15 C14 H14 119.7 . . ?
C13 C14 H14 119.7 . . ?
C17 C15 C14 116.9(10) . . ?
C17 C15 C16 121.1(12) . . ?
C14 C15 C16 122.0(11) . . ?
C15 C16 H16A 109.5 . . ?
C15 C16 H16B 109.5 . . ?
H16A C16 H16B 109.5 . . ?
C15 C16 H16C 109.5 . . ?
H16A C16 H16C 109.5 . . ?
H16B C16 H16C 109.5 . . ?
C15 C17 C18 119.7(11) . . ?
C15 C17 H17 120.2 . . ?
C18 C17 H17 120.2 . . ?
N9 C18 C17 123.7(10) . . ?
N9 C18 H18 118.2 . . ?
C17 C18 H18 118.2 . . ?
C20 C19 N10 124.2(9) . . ?
C20 C19 H19 117.9 . . ?
N10 C19 H19 117.9 . . ?
C9 C20 C19 118.2(9) . . ?
C9 C20 H20 120.9 . . ?
C19 C20 H20 120.9 . . ?
N1A C21 O1A 113.9 . . ?
C23 N1A C21 121.6 . . ?
C23 N1A C22 123.3 . . ?
C21 N1A C22 114.5 . . ?
C23 N1A C24 92.0 . . ?
C21 N1A C24 146.3 . . ?
C22 N1A C24 32.0 . . ?
C24 C22 N1A 104.7 . . ?
C22 C24 N1A 43.3 . . ?

loop_
_geom_torsion_atom_site_label_1
_geom_torsion_atom_site_label_2
_geom_torsion_atom_site_label_3
_geom_torsion_atom_site_label_4
_geom_torsion
_geom_torsion_site_symmetry_1
_geom_torsion_site_symmetry_2
_geom_torsion_site_symmetry_3
_geom_torsion_site_symmetry_4
_geom_torsion_publ_flag
N3 Cu1 O1 C8 87.0(7) 2_755 . . . ?
N9 Cu1 O1 C8 -81.8(7) . . . . ?
N10 Cu1 O1 C8 -31(2) . . . . ?
N2 Cu1 O1 C8 -172.3(7) 4_565 . . . ?
C1 N1 N2 N3 2.5(10) . . . . ?
C1 N1 N2 Cu1 -173.2(6) . . . 4_566 ?
N1 N2 N3 N4 -2.7(11) . . . . ?
Cu1 N2 N3 N4 171.8(6) 4_566 . . . ?
N1 N2 N3 Cu1 179.9(6) . . . 2_745 ?
Cu1 N2 N3 Cu1 -5.6(13) 4_566 . . 2_745 ?
N2 N3 N4 C1 1.6(10) . . . . ?
Cu1 N3 N4 C1 178.9(6) 2_745 . . . ?
O1 Cu1 N9 C18 -13.4(8) . . . . ?
N3 Cu1 N9 C18 -129.4(15) 2_755 . . . ?
N10 Cu1 N9 C18 173.4(9) . . . . ?
N2 Cu1 N9 C18 81.1(8) 4_565 . . . ?
O1 Cu1 N9 C13 175.7(7) . . . . ?
N3 Cu1 N9 C13 59.6(18) 2_755 . . . ?
N10 Cu1 N9 C13 2.5(7) . . . . ?
N2 Cu1 N9 C13 -89.9(7) 4_565 . . . ?
O1 Cu1 N10 C12 -53(2) . . . . ?
N3 Cu1 N10 C12 -170.4(7) 2_755 . . . ?
N9 Cu1 N10 C12 -0.8(7) . . . . ?
N2 Cu1 N10 C12 88.9(7) 4_565 . . . ?
O1 Cu1 N10 C19 129(2) . . . . ?
N3 Cu1 N10 C19 11.6(9) 2_755 . . . ?
N9 Cu1 N10 C19 -178.8(9) . . . . ?
N2 Cu1 N10 C19 -89.1(9) 4_565 . . . ?
N3 N4 C1 N1 0.0(11) . . . . ?
N3 N4 C1 C2 -178.8(9) . . . . ?
N2 N1 C1 N4 -1.6(12) . . . . ?
N2 N1 C1 C2 177.3(8) . . . . ?
N4 C1 C2 C3 -171.2(10) . . . . ?
N1 C1 C2 C3 10.0(15) . . . . ?
N4 C1 C2 C7 12.0(16) . . . . ?
N1 C1 C2 C7 -166.8(11) . . . . ?
C7 C2 C3 C4 -1.3(17) . . . . ?
C1 C2 C3 C4 -178.0(10) . . . . ?
C2 C3 C4 C5 0.6(17) . . . . ?
C3 C4 C5 C6 0.8(16) . . . . ?
C3 C4 C5 C8 178.5(10) . . . . ?
C4 C5 C6 C7 -1.4(16) . . . . ?
C8 C5 C6 C7 -179.0(10) . . . . ?
C3 C2 C7 C6 0.6(18) . . . . ?
C1 C2 C7 C6 177.3(10) . . . . ?
C5 C6 C7 C2 0.8(17) . . . . ?
Cu1 O1 C8 O2 5.6(14) . . . . ?
Cu1 O1 C8 C5 -178.5(6) . . . . ?
C6 C5 C8 O2 -175.8(10) . . . . ?
C4 C5 C8 O2 6.6(16) . . . . ?
C6 C5 C8 O1 8.1(15) . . . . ?
C4 C5 C8 O1 -169.5(10) . . . . ?
C20 C9 C11 C12 -1.8(16) . . . . ?
C10 C9 C11 C12 -177.9(11) . . . . ?
C19 N10 C12 C11 -0.9(14) . . . . ?
Cu1 N10 C12 C11 -179.1(7) . . . . ?
C19 N10 C12 C13 177.4(8) . . . . ?
Cu1 N10 C12 C13 -0.8(10) . . . . ?
C9 C11 C12 N10 1.0(15) . . . . ?
C9 C11 C12 C13 -177.1(10) . . . . ?
C18 N9 C13 C14 1.1(14) . . . . ?
Cu1 N9 C13 C14 173.0(8) . . . . ?
C18 N9 C13 C12 -175.4(8) . . . . ?
Cu1 N9 C13 C12 -3.6(10) . . . . ?
N10 C12 C13 N9 2.8(12) . . . . ?
C11 C12 C13 N9 -179.0(9) . . . . ?
N10 C12 C13 C14 -173.7(9) . . . . ?
C11 C12 C13 C14 4.5(15) . . . . ?
N9 C13 C14 C15 -1.2(16) . . . . ?
C12 C13 C14 C15 175.0(10) . . . . ?
C13 C14 C15 C17 1.4(17) . . . . ?
C13 C14 C15 C16 178.1(11) . . . . ?
C14 C15 C17 C18 -1.6(17) . . . . ?
C16 C15 C17 C18 -178.4(11) . . . . ?
C13 N9 C18 C17 -1.4(15) . . . . ?
Cu1 N9 C18 C17 -172.5(8) . . . . ?
C15 C17 C18 N9 1.7(17) . . . . ?
C12 N10 C19 C20 1.6(15) . . . . ?
Cu1 N10 C19 C20 179.6(7) . . . . ?
C11 C9 C20 C19 2.4(15) . . . . ?
C10 C9 C20 C19 178.5(11) . . . . ?
N10 C19 C20 C9 -2.4(15) . . . . ?
O1A C21 N1A C23 72.9 . . . . ?
O1A C21 N1A C22 -98.6 . . . . ?
O1A C21 N1A C24 -103.3 . . . . ?
C23 N1A C22 C24 13.7 . . . . ?
C21 N1A C22 C24 -175.0 . . . . ?
C23 N1A C24 C22 -168.6 . . . . ?
C21 N1A C24 C22 8.2 . . . . ?

_diffrn_measured_fraction_theta_max 0.977
_diffrn_reflns_theta_full        25.00
_diffrn_measured_fraction_theta_full 0.977
_refine_diff_density_max         0.427
_refine_diff_density_min         -0.485
_refine_diff_density_rms         0.085


