####################################################################### 
# 
# This file contains crystal structure data downloaded from the 
# Cambridge Structural Database (CSD) hosted by the Cambridge 
# Crystallographic Data Centre (CCDC).
# 
# Full information about CCDC data access policies and citation 
# guidelines are available at http://www.ccdc.cam.ac.uk/access/V1 
# 
# Audit and citation data items may have been added by the CCDC. 
# Please retain this information to preserve the provenance of 
# this file and to allow appropriate attribution of the data. 
# 
#######################################################################

data_IIb
_audit_block_doi                 10.5517/ccxrjfl
_database_code_depnum_ccdc_archive 'CCDC 856760'
loop_
_citation_id
_citation_doi
_citation_year
1 10.1038/ncomms1654 2012
_audit_update_record             
;
2011-12-04 deposited with the CCDC.	2024-07-10 downloaded from the CCDC.
;
#TrackingRef '8498_web_deposit_cif_file_0_Jie-PengZhang_1322998237.all.cif'


_audit_creation_method           SHELXL-97
_chemical_name_systematic        
;
?
;
_chemical_name_common            MCF-19-IIb
_chemical_melting_point          ?
_chemical_formula_moiety         'C42 H27 N3 Ni3 O13'
_chemical_formula_sum            'C42 H27 N3 Ni3 O13'
_chemical_formula_weight         957.80

loop_
_atom_type_symbol
_atom_type_description
_atom_type_scat_dispersion_real
_atom_type_scat_dispersion_imag
_atom_type_scat_source
C C 0.0033 0.0016 'International Tables Vol C Tables 4.2.6.8 and 6.1.1.4'
H H 0.0000 0.0000 'International Tables Vol C Tables 4.2.6.8 and 6.1.1.4'
N N 0.0061 0.0033 'International Tables Vol C Tables 4.2.6.8 and 6.1.1.4'
O O 0.0106 0.0060 'International Tables Vol C Tables 4.2.6.8 and 6.1.1.4'
Ni Ni 0.3393 1.1124 'International Tables Vol C Tables 4.2.6.8 and 6.1.1.4'

_symmetry_cell_setting           Cubic
_symmetry_space_group_name_H-M   'P - 4 3 n'
_symmetry_space_group_name_Hall  'P -4n 2 3'

loop_
_symmetry_equiv_pos_as_xyz
'x, y, z'
'-x, -y, z'
'-x, y, -z'
'x, -y, -z'
'z, x, y'
'z, -x, -y'
'-z, -x, y'
'-z, x, -y'
'y, z, x'
'-y, z, -x'
'y, -z, -x'
'-y, -z, x'
'y+1/2, x+1/2, z+1/2'
'-y+1/2, -x+1/2, z+1/2'
'y+1/2, -x+1/2, -z+1/2'
'-y+1/2, x+1/2, -z+1/2'
'x+1/2, z+1/2, y+1/2'
'-x+1/2, z+1/2, -y+1/2'
'-x+1/2, -z+1/2, y+1/2'
'x+1/2, -z+1/2, -y+1/2'
'z+1/2, y+1/2, x+1/2'
'z+1/2, -y+1/2, -x+1/2'
'-z+1/2, y+1/2, -x+1/2'
'-z+1/2, -y+1/2, x+1/2'

_cell_length_a                   25.8186(6)
_cell_length_b                   25.8186(6)
_cell_length_c                   25.8186(6)
_cell_angle_alpha                90.00
_cell_angle_beta                 90.00
_cell_angle_gamma                90.00
_cell_volume                     17210.7(7)
_cell_formula_units_Z            8
_cell_measurement_temperature    103(2)
_cell_measurement_reflns_used    8954
_cell_measurement_theta_min      2.231
_cell_measurement_theta_max      21.768

_exptl_crystal_description       block
_exptl_crystal_colour            green
_exptl_crystal_size_max          0.34
_exptl_crystal_size_mid          0.32
_exptl_crystal_size_min          0.29
_exptl_crystal_density_meas      ?
_exptl_crystal_density_diffrn    0.739
_exptl_crystal_density_method    'not measured'
_exptl_crystal_F_000             3904
_exptl_absorpt_coefficient_mu    0.683
_exptl_absorpt_correction_type   multi-scan
_exptl_absorpt_correction_T_min  0.8010
_exptl_absorpt_correction_T_max  0.8266
_exptl_absorpt_process_details   'SADABS (Bruker, 2002)'

_exptl_special_details           
;
?
;

_diffrn_ambient_temperature      103(2)
_diffrn_radiation_wavelength     0.71073
_diffrn_radiation_type           MoK\a
_diffrn_radiation_source         'fine-focus sealed tube'
_diffrn_radiation_monochromator  graphite
_diffrn_measurement_device_type  'Bruker Apex CCD'
_diffrn_measurement_method       '\w scan'
_diffrn_detector_area_resol_mean ?
_diffrn_reflns_number            85472
_diffrn_reflns_av_R_equivalents  0.0897
_diffrn_reflns_av_sigmaI/netI    0.0339
_diffrn_reflns_limit_h_min       -31
_diffrn_reflns_limit_h_max       29
_diffrn_reflns_limit_k_min       -31
_diffrn_reflns_limit_k_max       29
_diffrn_reflns_limit_l_min       -31
_diffrn_reflns_limit_l_max       18
_diffrn_reflns_theta_min         1.12
_diffrn_reflns_theta_max         25.99
_reflns_number_total             5660
_reflns_number_gt                5342
_reflns_threshold_expression     >2sigma(I)

_computing_data_collection       'SMART, 1998.'
_computing_cell_refinement       'SAINT-PLUS, Ver. 6.0, 1997'
_computing_data_reduction        'SAINT-PLUS, Ver. 6.0, 1997'
_computing_structure_solution    'SHELXS-97 (Sheldrick, 1990)'
_computing_structure_refinement  'SHELXL-97 (Sheldrick, 1997)'
_computing_molecular_graphics    'XP, Ver. 6.10, Bruker AXS Inc., 2000.'
_computing_publication_material  'SHELXTL-Bruker AXS Inc., 1998.'

_refine_special_details          
;
Refinement of F^2^ against ALL reflections. The weighted R-factor wR and
goodness of fit S are based on F^2^, conventional R-factors R are based
on F, with F set to zero for negative F^2^. The threshold expression of
F^2^ > 2sigma(F^2^) is used only for calculating R-factors(gt) etc. and is
not relevant to the choice of reflections for refinement. R-factors based
on F^2^ are statistically about twice as large as those based on F, and R-
factors based on ALL data will be even larger.
;

_refine_ls_structure_factor_coef Fsqd
_refine_ls_matrix_type           full
_refine_ls_weighting_scheme      calc
_refine_ls_weighting_details     
'calc w=1/[\s^2^(Fo^2^)+(0.0540P)^2^+0.0000P] where P=(Fo^2^+2Fc^2^)/3'
_atom_sites_solution_primary     direct
_atom_sites_solution_secondary   difmap
_atom_sites_solution_hydrogens   geom
_refine_ls_hydrogen_treatment    constr
_refine_ls_extinction_method     none
_refine_ls_extinction_coef       ?
_refine_ls_abs_structure_details 'Flack H D (1983), Acta Cryst. A39, 876-881'
_refine_ls_abs_structure_Flack   0.033(13)
_refine_ls_number_reflns         5660
_refine_ls_number_parameters     148
_refine_ls_number_restraints     109
_refine_ls_R_factor_all          0.0356
_refine_ls_R_factor_gt           0.0328
_refine_ls_wR_factor_ref         0.0844
_refine_ls_wR_factor_gt          0.0833
_refine_ls_goodness_of_fit_ref   1.026
_refine_ls_restrained_S_all      1.026
_refine_ls_shift/su_max          0.002
_refine_ls_shift/su_mean         0.000

loop_
_atom_site_label
_atom_site_type_symbol
_atom_site_fract_x
_atom_site_fract_y
_atom_site_fract_z
_atom_site_U_iso_or_equiv
_atom_site_adp_type
_atom_site_occupancy
_atom_site_symmetry_multiplicity
_atom_site_calc_flag
_atom_site_refinement_flags
_atom_site_disorder_assembly
_atom_site_disorder_group
Ni1 Ni 0.869654(10) 0.770325(10) 0.781066(10) 0.01534(8) Uani 1 1 d . . .
O1 O 0.80324(7) 0.80324(7) 0.80324(7) 0.0240(6) Uani 1 3 d S . .
O3 O 0.76869(7) 0.70539(6) 0.84344(6) 0.0346(4) Uani 1 1 d . . .
O2 O 0.83830(6) 0.69705(6) 0.79117(7) 0.0320(4) Uani 1 1 d . . .
O5 O 0.83819(7) 0.76681(10) 0.90827(7) 0.0539(6) Uani 1 1 d . . .
O4 O 0.90228(6) 0.76699(9) 0.85291(6) 0.0482(5) Uani 1 1 d . . .
N1 N 0.76560(6) 0.43753(4) 0.74539(6) 0.0260(4) Uani 1 1 d G . .
C5 C 0.74418(6) 0.46312(6) 0.78765(6) 0.0490(8) Uani 1 1 d G . .
H5 H 0.7183 0.4466 0.8080 0.059 Uiso 1 1 calc R . .
C4 C 0.76061(7) 0.51283(6) 0.80017(6) 0.0477(7) Uani 1 1 d G . .
H4 H 0.7460 0.5303 0.8290 0.057 Uiso 1 1 calc R . .
C3 C 0.79846(7) 0.53696(5) 0.77043(7) 0.0322(5) Uani 1 1 d G . .
C2 C 0.81987(6) 0.51138(6) 0.72818(7) 0.0470(7) Uani 1 1 d G . .
H2 H 0.8457 0.5279 0.7079 0.056 Uiso 1 1 calc R . .
C1 C 0.80344(6) 0.46166(6) 0.71566(6) 0.0433(7) Uani 1 1 d G . .
H1 H 0.8181 0.4442 0.6868 0.052 Uiso 1 1 calc R . .
C6 C 0.81306(9) 0.59213(9) 0.78124(10) 0.0334(6) Uani 1 1 d . . .
H6 H 0.8437 0.6048 0.7653 0.040 Uiso 1 1 calc R . .
C7 C 0.78803(10) 0.62326(9) 0.80980(10) 0.0344(6) Uani 1 1 d . . .
H7 H 0.7596 0.6100 0.8291 0.041 Uiso 1 1 calc R . .
C8 C 0.80072(8) 0.68053(8) 0.81500(8) 0.0214(5) Uani 1 1 d . . .
C9 C 0.88378(9) 0.76526(10) 0.89667(9) 0.0277(5) Uani 1 1 d D . .
C10 C 0.92154(11) 0.75642(11) 0.94175(11) 0.0641(5) Uani 1 1 d DU . .
C11 C 0.97369(10) 0.75634(10) 0.93354(11) 0.0641(5) Uani 1 1 d DU . .
H11 H 0.9864 0.7564 0.8990 0.077 Uiso 1 1 calc R . .
C12 C 1.00908(11) 0.75622(10) 0.97496(10) 0.0641(5) Uani 1 1 d DU . .
C13 C 1.06274(11) 0.75558(13) 0.96637(11) 0.0641(5) Uani 1 1 d DU . .
H13 H 1.0757 0.7549 0.9319 0.077 Uiso 1 1 calc R . .
C14 C 0.90297(11) 0.75595(13) 0.99221(10) 0.0641(5) Uani 1 1 d DU . .
H14 H 0.8667 0.7559 0.9984 0.077 Uiso 1 1 calc R . .

loop_
_atom_site_aniso_label
_atom_site_aniso_U_11
_atom_site_aniso_U_22
_atom_site_aniso_U_33
_atom_site_aniso_U_23
_atom_site_aniso_U_13
_atom_site_aniso_U_12
Ni1 0.01207(13) 0.01578(14) 0.01816(14) -0.00019(10) -0.00039(10) -0.00106(10)
O1 0.0240(6) 0.0240(6) 0.0240(6) 0.0080(7) 0.0080(7) 0.0080(7)
O3 0.0494(11) 0.0186(8) 0.0357(9) -0.0024(7) 0.0184(8) -0.0059(8)
O2 0.0231(8) 0.0147(7) 0.0582(11) -0.0048(8) 0.0170(8) -0.0022(6)
O5 0.0233(9) 0.1136(18) 0.0247(9) 0.0129(11) -0.0058(7) -0.0084(11)
O4 0.0226(9) 0.0967(16) 0.0251(9) -0.0187(10) -0.0127(7) 0.0165(10)
N1 0.0266(10) 0.0183(9) 0.0332(11) -0.0049(8) 0.0083(8) -0.0033(8)
C5 0.066(2) 0.0335(14) 0.0475(17) -0.0038(13) 0.0176(15) -0.0132(14)
C4 0.063(2) 0.0407(15) 0.0392(15) -0.0103(12) 0.0174(14) -0.0193(14)
C3 0.0287(12) 0.0261(12) 0.0419(15) -0.0091(11) 0.0087(11) -0.0030(10)
C2 0.0466(16) 0.0340(15) 0.0604(19) -0.0075(14) 0.0187(15) -0.0173(12)
C1 0.0420(15) 0.0339(14) 0.0541(18) -0.0163(13) 0.0114(14) -0.0066(12)
C6 0.0319(13) 0.0255(12) 0.0427(15) -0.0004(11) 0.0092(12) -0.0108(10)
C7 0.0371(14) 0.0263(13) 0.0398(15) -0.0025(11) 0.0135(11) -0.0111(11)
C8 0.0246(11) 0.0151(10) 0.0244(11) 0.0016(9) -0.0030(9) -0.0005(9)
C9 0.0243(12) 0.0325(14) 0.0263(13) 0.0017(10) -0.0054(10) 0.0002(10)
C10 0.0311(7) 0.1324(16) 0.0288(7) -0.0053(8) -0.0076(6) 0.0010(8)
C11 0.0311(7) 0.1324(16) 0.0288(7) -0.0053(8) -0.0076(6) 0.0010(8)
C12 0.0311(7) 0.1324(16) 0.0288(7) -0.0053(8) -0.0076(6) 0.0010(8)
C13 0.0311(7) 0.1324(16) 0.0288(7) -0.0053(8) -0.0076(6) 0.0010(8)
C14 0.0311(7) 0.1324(16) 0.0288(7) -0.0053(8) -0.0076(6) 0.0010(8)

_geom_special_details            
;
All esds (except the esd in the dihedral angle between two l.s. planes)
are estimated using the full covariance matrix. The cell esds are taken
into account individually in the estimation of esds in distances, angles
and torsion angles; correlations between esds in cell parameters are only
used when they are defined by crystal symmetry. An approximate (isotropic)
treatment of cell esds is used for estimating esds involving l.s. planes.
;

loop_
_geom_bond_atom_site_label_1
_geom_bond_atom_site_label_2
_geom_bond_distance
_geom_bond_site_symmetry_2
_geom_bond_publ_flag
Ni1 O1 1.9976(18) . ?
Ni1 O4 2.0390(16) . ?
Ni1 O5 2.0494(17) 5 ?
Ni1 O3 2.0682(15) 5 ?
Ni1 O2 2.0743(15) . ?
Ni1 N1 2.0971(11) 15_566 ?
O1 Ni1 1.9976(18) 5 ?
O1 Ni1 1.9976(18) 9 ?
O3 C8 1.278(3) . ?
O3 Ni1 2.0682(15) 9 ?
O2 C8 1.225(2) . ?
O5 C9 1.215(3) . ?
O5 Ni1 2.0494(17) 9 ?
O4 C9 1.227(3) . ?
N1 C5 1.3900 . ?
N1 C1 1.3900 . ?
N1 Ni1 2.0971(11) 16_646 ?
C5 C4 1.3900 . ?
C5 H5 0.9500 . ?
C4 C3 1.3900 . ?
C4 H4 0.9500 . ?
C3 C2 1.3900 . ?
C3 C6 1.500(2) . ?
C2 C1 1.3900 . ?
C2 H2 0.9500 . ?
C1 H1 0.9500 . ?
C6 C7 1.268(4) . ?
C6 H6 0.9500 . ?
C7 C8 1.520(3) . ?
C7 H7 0.9500 . ?
C9 C10 1.535(4) . ?
C10 C11 1.363(4) . ?
C10 C14 1.388(4) . ?
C11 C12 1.407(3) . ?
C11 H11 0.9500 . ?
C12 C12 1.376(5) 3_757 ?
C12 C13 1.403(4) . ?
C13 C14 1.388(3) 3_757 ?
C13 H13 0.9500 . ?
C14 C13 1.388(3) 3_757 ?
C14 H14 0.9500 . ?

loop_
_geom_angle_atom_site_label_1
_geom_angle_atom_site_label_2
_geom_angle_atom_site_label_3
_geom_angle
_geom_angle_site_symmetry_1
_geom_angle_site_symmetry_3
_geom_angle_publ_flag
O1 Ni1 O4 96.42(8) . . ?
O1 Ni1 O5 96.05(7) . 5 ?
O4 Ni1 O5 89.91(10) . 5 ?
O1 Ni1 O3 89.92(8) . 5 ?
O4 Ni1 O3 173.59(7) . 5 ?
O5 Ni1 O3 90.40(9) 5 5 ?
O1 Ni1 O2 90.97(7) . . ?
O4 Ni1 O2 90.48(8) . . ?
O5 Ni1 O2 172.88(7) 5 . ?
O3 Ni1 O2 88.42(8) 5 . ?
O1 Ni1 N1 177.24(10) . 15_566 ?
O4 Ni1 N1 86.13(7) . 15_566 ?
O5 Ni1 N1 85.01(7) 5 15_566 ?
O3 Ni1 N1 87.52(6) 5 15_566 ?
O2 Ni1 N1 87.93(6) . 15_566 ?
Ni1 O1 Ni1 119.30(3) 5 . ?
Ni1 O1 Ni1 119.30(3) 5 9 ?
Ni1 O1 Ni1 119.30(3) . 9 ?
C8 O3 Ni1 130.47(14) . 9 ?
C8 O2 Ni1 133.60(14) . . ?
C9 O5 Ni1 135.56(16) . 9 ?
C9 O4 Ni1 132.70(15) . . ?
C5 N1 C1 120.0 . . ?
C5 N1 Ni1 118.48(8) . 16_646 ?
C1 N1 Ni1 120.36(8) . 16_646 ?
C4 C5 N1 120.0 . . ?
C4 C5 H5 120.0 . . ?
N1 C5 H5 120.0 . . ?
C5 C4 C3 120.0 . . ?
C5 C4 H4 120.0 . . ?
C3 C4 H4 120.0 . . ?
C4 C3 C2 120.0 . . ?
C4 C3 C6 119.98(14) . . ?
C2 C3 C6 119.83(14) . . ?
C1 C2 C3 120.0 . . ?
C1 C2 H2 120.0 . . ?
C3 C2 H2 120.0 . . ?
C2 C1 N1 120.0 . . ?
C2 C1 H1 120.0 . . ?
N1 C1 H1 120.0 . . ?
C7 C6 C3 125.6(2) . . ?
C7 C6 H6 117.2 . . ?
C3 C6 H6 117.2 . . ?
C6 C7 C8 123.9(2) . . ?
C6 C7 H7 118.0 . . ?
C8 C7 H7 118.0 . . ?
O2 C8 O3 128.7(2) . . ?
O2 C8 C7 117.7(2) . . ?
O3 C8 C7 113.56(19) . . ?
O5 C9 O4 127.1(2) . . ?
O5 C9 C10 115.6(2) . . ?
O4 C9 C10 117.1(2) . . ?
C11 C10 C14 119.2(3) . . ?
C11 C10 C9 120.6(2) . . ?
C14 C10 C9 119.6(2) . . ?
C10 C11 C12 121.6(3) . . ?
C10 C11 H11 119.2 . . ?
C12 C11 H11 119.2 . . ?
C12 C12 C13 119.0(3) 3_757 . ?
C12 C12 C11 119.6(3) 3_757 . ?
C13 C12 C11 121.4(3) . . ?
C14 C13 C12 120.5(3) 3_757 . ?
C14 C13 H13 119.7 3_757 . ?
C12 C13 H13 119.7 . . ?
C10 C14 C13 120.2(3) . 3_757 ?
C10 C14 H14 119.9 . . ?
C13 C14 H14 119.9 3_757 . ?

loop_
_platon_squeeze_void_nr
_platon_squeeze_void_average_x
_platon_squeeze_void_average_y
_platon_squeeze_void_average_z
_platon_squeeze_void_volume
_platon_squeeze_void_count_electrons
_platon_squeeze_void_content
1 -0.033 -0.015 0.002 10986 4414 ' '
_platon_squeeze_details          ?

_diffrn_measured_fraction_theta_max 1.000
_diffrn_reflns_theta_full        25.99
_diffrn_measured_fraction_theta_full 1.000
_refine_diff_density_max         0.504
_refine_diff_density_min         -0.269
_refine_diff_density_rms         0.047
