####################################################################### 
# 
# This file contains crystal structure data downloaded from the 
# Cambridge Structural Database (CSD) hosted by the Cambridge 
# Crystallographic Data Centre (CCDC).
# 
# Full information about CCDC data access policies and citation 
# guidelines are available at http://www.ccdc.cam.ac.uk/access/V1 
# 
# Audit and citation data items may have been added by the CCDC. 
# Please retain this information to preserve the provenance of 
# this file and to allow appropriate attribution of the data. 
# 
#######################################################################

data_Ia
_audit_block_doi                 10.5517/ccxrjcj
_database_code_depnum_ccdc_archive 'CCDC 856758'
loop_
_citation_id
_citation_doi
_citation_year
1 10.1038/ncomms1654 2012
_audit_update_record             
;
2011-12-04 deposited with the CCDC.	2024-07-10 downloaded from the CCDC.
;
#TrackingRef '8498_web_deposit_cif_file_0_Jie-PengZhang_1322998237.all.cif'


_audit_creation_method           SHELXL-97
_chemical_name_systematic        
;
?
;
_chemical_name_common            MCF-19-Ia
_chemical_melting_point          ?
_chemical_formula_moiety         'C30 H18 N3 Ni3 O13'
_chemical_formula_sum            'C30 H18 N3 Ni3 O13'
_chemical_formula_weight         804.60

loop_
_atom_type_symbol
_atom_type_description
_atom_type_scat_dispersion_real
_atom_type_scat_dispersion_imag
_atom_type_scat_source
C C 0.0033 0.0016 'International Tables Vol C Tables 4.2.6.8 and 6.1.1.4'
H H 0.0000 0.0000 'International Tables Vol C Tables 4.2.6.8 and 6.1.1.4'
N N 0.0061 0.0033 'International Tables Vol C Tables 4.2.6.8 and 6.1.1.4'
O O 0.0106 0.0060 'International Tables Vol C Tables 4.2.6.8 and 6.1.1.4'
Ni Ni 0.3393 1.1124 'International Tables Vol C Tables 4.2.6.8 and 6.1.1.4'

_symmetry_cell_setting           Cubic
_symmetry_space_group_name_H-M   'I -4 3 m'
_symmetry_space_group_name_Hall  'I -4 2 3'

loop_
_symmetry_equiv_pos_as_xyz
'x, y, z'
'-x, -y, z'
'-x, y, -z'
'x, -y, -z'
'z, x, y'
'z, -x, -y'
'-z, -x, y'
'-z, x, -y'
'y, z, x'
'-y, z, -x'
'y, -z, -x'
'-y, -z, x'
'y, x, z'
'-y, -x, z'
'y, -x, -z'
'-y, x, -z'
'x, z, y'
'-x, z, -y'
'-x, -z, y'
'x, -z, -y'
'z, y, x'
'z, -y, -x'
'-z, y, -x'
'-z, -y, x'
'x+1/2, y+1/2, z+1/2'
'-x+1/2, -y+1/2, z+1/2'
'-x+1/2, y+1/2, -z+1/2'
'x+1/2, -y+1/2, -z+1/2'
'z+1/2, x+1/2, y+1/2'
'z+1/2, -x+1/2, -y+1/2'
'-z+1/2, -x+1/2, y+1/2'
'-z+1/2, x+1/2, -y+1/2'
'y+1/2, z+1/2, x+1/2'
'-y+1/2, z+1/2, -x+1/2'
'y+1/2, -z+1/2, -x+1/2'
'-y+1/2, -z+1/2, x+1/2'
'y+1/2, x+1/2, z+1/2'
'-y+1/2, -x+1/2, z+1/2'
'y+1/2, -x+1/2, -z+1/2'
'-y+1/2, x+1/2, -z+1/2'
'x+1/2, z+1/2, y+1/2'
'-x+1/2, z+1/2, -y+1/2'
'-x+1/2, -z+1/2, y+1/2'
'x+1/2, -z+1/2, -y+1/2'
'z+1/2, y+1/2, x+1/2'
'z+1/2, -y+1/2, -x+1/2'
'-z+1/2, y+1/2, -x+1/2'
'-z+1/2, -y+1/2, x+1/2'

_cell_length_a                   21.625(3)
_cell_length_b                   21.625(3)
_cell_length_c                   21.625(3)
_cell_angle_alpha                90.00
_cell_angle_beta                 90.00
_cell_angle_gamma                90.00
_cell_volume                     10113(3)
_cell_formula_units_Z            8
_cell_measurement_temperature    103(2)
_cell_measurement_reflns_used    3653
_cell_measurement_theta_min      2.306
_cell_measurement_theta_max      26.966

_exptl_crystal_description       block
_exptl_crystal_colour            green
_exptl_crystal_size_max          0.23
_exptl_crystal_size_mid          0.21
_exptl_crystal_size_min          0.18
_exptl_crystal_density_meas      ?
_exptl_crystal_density_diffrn    1.057
_exptl_crystal_density_method    'not measured'
_exptl_crystal_F_000             3256
_exptl_absorpt_coefficient_mu    1.151
_exptl_absorpt_correction_type   multi-scan
_exptl_absorpt_correction_T_min  0.7777
_exptl_absorpt_correction_T_max  0.8196
_exptl_absorpt_process_details   'SADABS (Bruker, 2002)'

_exptl_special_details           
;
?
;

_diffrn_ambient_temperature      103(2)
_diffrn_radiation_wavelength     0.71073
_diffrn_radiation_type           MoK\a
_diffrn_radiation_source         'fine-focus sealed tube'
_diffrn_radiation_monochromator  graphite
_diffrn_measurement_device_type  'Bruker Apex CCD'
_diffrn_measurement_method       '\w scan'
_diffrn_detector_area_resol_mean ?
_diffrn_standards_number         ?
_diffrn_standards_interval_count ?
_diffrn_standards_interval_time  ?
_diffrn_standards_decay_%        ?
_diffrn_reflns_number            8627
_diffrn_reflns_av_R_equivalents  0.1189
_diffrn_reflns_av_sigmaI/netI    0.1014
_diffrn_reflns_limit_h_min       -2
_diffrn_reflns_limit_h_max       26
_diffrn_reflns_limit_k_min       -12
_diffrn_reflns_limit_k_max       21
_diffrn_reflns_limit_l_min       -22
_diffrn_reflns_limit_l_max       22
_diffrn_reflns_theta_min         1.33
_diffrn_reflns_theta_max         25.97
_reflns_number_total             1862
_reflns_number_gt                1552
_reflns_threshold_expression     >2sigma(I)

_computing_data_collection       'SMART, 1998.'
_computing_cell_refinement       'SAINT-PLUS, Ver. 6.0, 1997'
_computing_data_reduction        'SAINT-PLUS, Ver. 6.0, 1997'
_computing_structure_solution    'SHELXS-97 (Sheldrick, 1990)'
_computing_structure_refinement  'SHELXL-97 (Sheldrick, 1997)'
_computing_molecular_graphics    'XP, Ver. 6.10, Bruker AXS Inc., 2000.'
_computing_publication_material  'SHELXTL-Bruker AXS Inc., 1998.'

_refine_special_details          
;
Refinement of F^2^ against ALL reflections. The weighted R-factor wR and
goodness of fit S are based on F^2^, conventional R-factors R are based
on F, with F set to zero for negative F^2^. The threshold expression of
F^2^ > 2sigma(F^2^) is used only for calculating R-factors(gt) etc. and is
not relevant to the choice of reflections for refinement. R-factors based
on F^2^ are statistically about twice as large as those based on F, and R-
factors based on ALL data will be even larger.
;

_refine_ls_structure_factor_coef Fsqd
_refine_ls_matrix_type           full
_refine_ls_weighting_scheme      calc
_refine_ls_weighting_details     
'calc w=1/[\s^2^(Fo^2^)+(0.0104P)^2^+0.0000P] where P=(Fo^2^+2Fc^2^)/3'
_atom_sites_solution_primary     direct
_atom_sites_solution_secondary   difmap
_atom_sites_solution_hydrogens   geom
_refine_ls_hydrogen_treatment    constr
_refine_ls_extinction_method     none
_refine_ls_extinction_coef       ?
_refine_ls_abs_structure_details 'Flack H D (1983), Acta Cryst. A39, 876-881'
_refine_ls_abs_structure_Flack   -0.03(3)
_refine_ls_number_reflns         1862
_refine_ls_number_parameters     85
_refine_ls_number_restraints     6
_refine_ls_R_factor_all          0.0575
_refine_ls_R_factor_gt           0.0478
_refine_ls_wR_factor_ref         0.1054
_refine_ls_wR_factor_gt          0.1016
_refine_ls_goodness_of_fit_ref   1.009
_refine_ls_restrained_S_all      1.013
_refine_ls_shift/su_max          0.000
_refine_ls_shift/su_mean         0.000

loop_
_atom_site_label
_atom_site_type_symbol
_atom_site_fract_x
_atom_site_fract_y
_atom_site_fract_z
_atom_site_U_iso_or_equiv
_atom_site_adp_type
_atom_site_occupancy
_atom_site_symmetry_multiplicity
_atom_site_calc_flag
_atom_site_refinement_flags
_atom_site_disorder_assembly
_atom_site_disorder_group
Ni1 Ni 0.88067(3) 0.76741(2) 0.76741(2) 0.01489(19) Uani 1 2 d S . .
O1 O 0.8018(2) 0.8018(2) 0.8018(2) 0.0285(19) Uani 1 6 d S . .
O2 O 0.84724(14) 0.67849(13) 0.77359(17) 0.0354(8) Uani 1 1 d . . .
O3 O 0.92246(14) 0.7571(2) 0.85130(15) 0.0551(13) Uani 1 1 d . . .
N1 N 0.77031(15) 0.46227(19) 0.77031(15) 0.0207(10) Uani 1 2 d SD . .
C1 C 0.81546(19) 0.4920(2) 0.7408(2) 0.0352(12) Uani 1 1 d D . .
H1 H 0.8381 0.4708 0.7096 0.042 Uiso 1 1 calc R . .
C2 C 0.83039(19) 0.5526(2) 0.7542(2) 0.0386(15) Uani 1 1 d D . .
H2 H 0.8625 0.5725 0.7318 0.046 Uiso 1 1 calc R . .
C3 C 0.79957(17) 0.5845(3) 0.79957(17) 0.0250(14) Uani 1 2 d SD . .
C4 C 0.80879(19) 0.6524(3) 0.80879(19) 0.0153(13) Uani 1 2 d S . .
C5 C 0.9051(2) 0.7539(3) 0.9051(2) 0.0316(18) Uani 1 2 d S . .
C6 C 0.9538(2) 0.7444(3) 0.9538(2) 0.052(3) Uani 1 2 d SD . .
C7 C 1.0147(3) 0.7442(3) 0.9385(2) 0.090(3) Uani 1 1 d D . .
H7 H 1.0264 0.7441 0.8962 0.108 Uiso 1 1 calc R . .

loop_
_atom_site_aniso_label
_atom_site_aniso_U_11
_atom_site_aniso_U_22
_atom_site_aniso_U_33
_atom_site_aniso_U_23
_atom_site_aniso_U_13
_atom_site_aniso_U_12
Ni1 0.0122(4) 0.0162(3) 0.0162(3) 0.0011(4) -0.0009(2) -0.0009(2)
O1 0.0285(19) 0.0285(19) 0.0285(19) 0.011(2) 0.011(2) 0.011(2)
O2 0.034(2) 0.0148(17) 0.057(2) -0.0062(17) 0.0196(18) 0.0003(13)
O3 0.025(2) 0.119(4) 0.021(2) -0.009(2) -0.0046(15) 0.012(2)
N1 0.0233(16) 0.016(2) 0.0233(16) -0.0008(16) 0.005(3) -0.0008(16)
C1 0.036(3) 0.025(3) 0.045(3) -0.010(2) 0.017(2) -0.008(2)
C2 0.032(3) 0.022(3) 0.062(4) -0.013(2) 0.026(3) -0.015(2)
C3 0.025(2) 0.025(4) 0.025(2) -0.003(2) -0.001(3) -0.003(2)
C4 0.0148(19) 0.016(3) 0.0148(19) 0.0012(18) 0.005(2) 0.0012(18)
C5 0.022(2) 0.051(5) 0.022(2) -0.003(2) -0.009(3) -0.003(2)
C6 0.018(2) 0.120(8) 0.018(2) 0.004(3) -0.012(3) 0.004(3)
C7 0.032(3) 0.213(10) 0.026(3) -0.026(4) -0.010(2) 0.004(5)

_geom_special_details            
;
All esds (except the esd in the dihedral angle between two l.s. planes)
are estimated using the full covariance matrix. The cell esds are taken
into account individually in the estimation of esds in distances, angles
and torsion angles; correlations between esds in cell parameters are only
used when they are defined by crystal symmetry. An approximate (isotropic)
treatment of cell esds is used for estimating esds involving l.s. planes.
;

loop_
_geom_bond_atom_site_label_1
_geom_bond_atom_site_label_2
_geom_bond_distance
_geom_bond_site_symmetry_2
_geom_bond_publ_flag
Ni1 O1 2.004(4) . ?
Ni1 O3 2.039(3) . ?
Ni1 O3 2.039(3) 17 ?
Ni1 O2 2.059(3) 17 ?
Ni1 O2 2.059(3) . ?
Ni1 N1 2.108(5) 35_566 ?
Ni1 O1 2.004(4) 9 ?
Ni1 O1 2.004(4) 5 ?
O2 C4 1.261(4) . ?
O3 C5 1.224(4) . ?
N1 C1 1.331(5) 21 ?
N1 C1 1.331(5) . ?
N1 Ni1 2.108(5) 32_646 ?
C1 C2 1.381(6) . ?
C1 H1 0.9500 . ?
C2 C3 1.371(6) . ?
C2 H2 0.9500 . ?
C3 C2 1.371(6) 21 ?
C3 C4 1.496(8) . ?
C4 O2 1.261(4) 21 ?
C5 O3 1.224(4) 21 ?
C5 C6 1.506(9) . ?
C6 C7 1.357(6) 21 ?
C6 C7 1.357(6) . ?
C7 C7 1.431(11) 23_757 ?
C7 H7 0.9500 . ?

loop_
_geom_angle_atom_site_label_1
_geom_angle_atom_site_label_2
_geom_angle_atom_site_label_3
_geom_angle
_geom_angle_site_symmetry_1
_geom_angle_site_symmetry_3
_geom_angle_publ_flag
O1 Ni1 O3 95.00(19) . . ?
O1 Ni1 O3 95.00(19) . 17 ?
O3 Ni1 O3 89.9(2) . 17 ?
O1 Ni1 O2 91.39(19) . 17 ?
O3 Ni1 O2 173.62(13) . 17 ?
O3 Ni1 O2 89.78(16) 17 17 ?
O1 Ni1 O2 91.39(19) . . ?
O3 Ni1 O2 89.78(16) . . ?
O3 Ni1 O2 173.62(13) 17 . ?
O2 Ni1 O2 89.9(2) 17 . ?
O1 Ni1 N1 178.5(3) . 35_566 ?
O3 Ni1 N1 86.05(13) . 35_566 ?
O3 Ni1 N1 86.05(13) 17 35_566 ?
O2 Ni1 N1 87.57(12) 17 35_566 ?
O2 Ni1 N1 87.57(12) . 35_566 ?
Ni1 O1 Ni1 119.62(5) 9 5 ?
Ni1 O1 Ni1 119.62(5) 9 . ?
Ni1 O1 Ni1 119.62(5) 5 . ?
C4 O2 Ni1 133.6(3) . . ?
C5 O3 Ni1 135.6(4) . . ?
C1 N1 C1 118.0(5) 21 . ?
C1 N1 Ni1 120.1(3) 21 32_646 ?
C1 N1 Ni1 120.1(3) . 32_646 ?
N1 C1 C2 121.9(4) . . ?
N1 C1 H1 119.0 . . ?
C2 C1 H1 119.0 . . ?
C3 C2 C1 120.9(5) . . ?
C3 C2 H2 119.5 . . ?
C1 C2 H2 119.5 . . ?
C2 C3 C2 116.2(6) 21 . ?
C2 C3 C4 121.6(3) 21 . ?
C2 C3 C4 121.6(3) . . ?
O2 C4 O2 126.6(5) 21 . ?
O2 C4 C3 116.6(3) 21 . ?
O2 C4 C3 116.6(3) . . ?
O3 C5 O3 125.5(6) 21 . ?
O3 C5 C6 117.2(3) 21 . ?
O3 C5 C6 117.2(3) . . ?
C7 C6 C7 118.2(7) 21 . ?
C7 C6 C5 120.6(3) 21 . ?
C7 C6 C5 120.6(3) . . ?
C6 C7 C7 120.9(3) . 23_757 ?
C6 C7 H7 119.6 . . ?
C7 C7 H7 119.6 23_757 . ?

loop_
_platon_squeeze_void_nr
_platon_squeeze_void_average_x
_platon_squeeze_void_average_y
_platon_squeeze_void_average_z
_platon_squeeze_void_volume
_platon_squeeze_void_count_electrons
_platon_squeeze_void_content
1 -0.091 -0.036 0.015 5214 1560 ' '
_platon_squeeze_details          ?

_diffrn_measured_fraction_theta_max 1.000
_diffrn_reflns_theta_full        25.97
_diffrn_measured_fraction_theta_full 1.000
_refine_diff_density_max         0.593
_refine_diff_density_min         -0.469
_refine_diff_density_rms         0.055
