####################################################################### 
# 
# This file contains crystal structure data downloaded from the 
# Cambridge Structural Database (CSD) hosted by the Cambridge 
# Crystallographic Data Centre (CCDC).
# 
# Full information about CCDC data access policies and citation 
# guidelines are available at http://www.ccdc.cam.ac.uk/access/V1 
# 
# Audit and citation data items may have been added by the CCDC. 
# Please retain this information to preserve the provenance of 
# this file and to allow appropriate attribution of the data. 
# 
#######################################################################

data_IIIc
_audit_block_doi                 10.5517/ccxrjjp
_database_code_depnum_ccdc_archive 'CCDC 856763'
loop_
_citation_id
_citation_doi
_citation_year
1 10.1038/ncomms1654 2012
_audit_update_record             
;
2011-12-04 deposited with the CCDC.	2024-07-10 downloaded from the CCDC.
;
#TrackingRef '8498_web_deposit_cif_file_0_Jie-PengZhang_1322998237.all.cif'


_audit_creation_method           SHELXL-97
_chemical_name_systematic        
;
?
;
_chemical_name_common            MCF-19-IIIc
_chemical_melting_point          ?
_chemical_formula_moiety         'C57 H36 N3 Ni3 O13'
_chemical_formula_sum            'C57 H36 N3 Ni3 O13'
_chemical_formula_weight         1147.02

loop_
_atom_type_symbol
_atom_type_description
_atom_type_scat_dispersion_real
_atom_type_scat_dispersion_imag
_atom_type_scat_source
C C 0.0033 0.0016 'International Tables Vol C Tables 4.2.6.8 and 6.1.1.4'
H H 0.0000 0.0000 'International Tables Vol C Tables 4.2.6.8 and 6.1.1.4'
N N 0.0061 0.0033 'International Tables Vol C Tables 4.2.6.8 and 6.1.1.4'
O O 0.0106 0.0060 'International Tables Vol C Tables 4.2.6.8 and 6.1.1.4'
Ni Ni 0.3393 1.1124 'International Tables Vol C Tables 4.2.6.8 and 6.1.1.4'

_symmetry_cell_setting           Cubic
_symmetry_space_group_name_H-M   'I -4 3 m'
_symmetry_space_group_name_Hall  'I 4 2 3'

loop_
_symmetry_equiv_pos_as_xyz
'x, y, z'
'-x, -y, z'
'-x, y, -z'
'x, -y, -z'
'z, x, y'
'z, -x, -y'
'-z, -x, y'
'-z, x, -y'
'y, z, x'
'-y, z, -x'
'y, -z, -x'
'-y, -z, x'
'y, x, z'
'-y, -x, z'
'y, -x, -z'
'-y, x, -z'
'x, z, y'
'-x, z, -y'
'-x, -z, y'
'x, -z, -y'
'z, y, x'
'z, -y, -x'
'-z, y, -x'
'-z, -y, x'
'x+1/2, y+1/2, z+1/2'
'-x+1/2, -y+1/2, z+1/2'
'-x+1/2, y+1/2, -z+1/2'
'x+1/2, -y+1/2, -z+1/2'
'z+1/2, x+1/2, y+1/2'
'z+1/2, -x+1/2, -y+1/2'
'-z+1/2, -x+1/2, y+1/2'
'-z+1/2, x+1/2, -y+1/2'
'y+1/2, z+1/2, x+1/2'
'-y+1/2, z+1/2, -x+1/2'
'y+1/2, -z+1/2, -x+1/2'
'-y+1/2, -z+1/2, x+1/2'
'y+1/2, x+1/2, z+1/2'
'-y+1/2, -x+1/2, z+1/2'
'y+1/2, -x+1/2, -z+1/2'
'-y+1/2, x+1/2, -z+1/2'
'x+1/2, z+1/2, y+1/2'
'-x+1/2, z+1/2, -y+1/2'
'-x+1/2, -z+1/2, y+1/2'
'x+1/2, -z+1/2, -y+1/2'
'z+1/2, y+1/2, x+1/2'
'z+1/2, -y+1/2, -x+1/2'
'-z+1/2, y+1/2, -x+1/2'
'-z+1/2, -y+1/2, x+1/2'

_cell_length_a                   29.4817(18)
_cell_length_b                   29.4817(18)
_cell_length_c                   29.4817(18)
_cell_angle_alpha                90.00
_cell_angle_beta                 90.00
_cell_angle_gamma                90.00
_cell_volume                     25625(3)
_cell_formula_units_Z            8
_cell_measurement_temperature    103(2)
_cell_measurement_reflns_used    9999
_cell_measurement_theta_min      2.185
_cell_measurement_theta_max      25.76

_exptl_crystal_description       block
_exptl_crystal_colour            green
_exptl_crystal_size_max          0.38
_exptl_crystal_size_mid          0.36
_exptl_crystal_size_min          0.32
_exptl_crystal_density_meas      ?
_exptl_crystal_density_diffrn    0.595
_exptl_crystal_density_method    'not measured'
_exptl_crystal_F_000             4696
_exptl_absorpt_coefficient_mu    0.464
_exptl_absorpt_correction_type   multi-scan
_exptl_absorpt_correction_T_min  0.8433
_exptl_absorpt_correction_T_max  0.8657
_exptl_absorpt_process_details   'SADABS (Bruker, 2002)'

_exptl_special_details           
;
?
;

_diffrn_ambient_temperature      103(2)
_diffrn_radiation_wavelength     0.71073
_diffrn_radiation_type           MoK\a
_diffrn_radiation_source         'fine-focus sealed tube'
_diffrn_radiation_monochromator  graphite
_diffrn_measurement_device_type  'Bruker Apex CCD'
_diffrn_measurement_method       '\w scan'
_diffrn_detector_area_resol_mean ?
_diffrn_reflns_number            101066
_diffrn_reflns_av_R_equivalents  0.0439
_diffrn_reflns_av_sigmaI/netI    0.0135
_diffrn_reflns_limit_h_min       -36
_diffrn_reflns_limit_h_max       36
_diffrn_reflns_limit_k_min       -33
_diffrn_reflns_limit_k_max       36
_diffrn_reflns_limit_l_min       -36
_diffrn_reflns_limit_l_max       36
_diffrn_reflns_theta_min         0.98
_diffrn_reflns_theta_max         25.99
_reflns_number_total             4588
_reflns_number_gt                4450
_reflns_threshold_expression     >2sigma(I)

_computing_data_collection       'SMART, 1998.'
_computing_cell_refinement       'SAINT-PLUS, Ver. 6.0, 1997'
_computing_data_reduction        'SAINT-PLUS, Ver. 6.0, 1997'
_computing_structure_solution    'SHELXS-97 (Sheldrick, 1990)'
_computing_structure_refinement  'SHELXL-97 (Sheldrick, 1997)'
_computing_molecular_graphics    'XP, Ver. 6.10, Bruker AXS Inc., 2000.'
_computing_publication_material  'SHELXTL-Bruker AXS Inc., 1998.'

_refine_special_details          
;
Refinement of F^2^ against ALL reflections. The weighted R-factor wR and
goodness of fit S are based on F^2^, conventional R-factors R are based
on F, with F set to zero for negative F^2^. The threshold expression of
F^2^ > 2sigma(F^2^) is used only for calculating R-factors(gt) etc. and is
not relevant to the choice of reflections for refinement. R-factors based
on F^2^ are statistically about twice as large as those based on F, and R-
factors based on ALL data will be even larger.
;

_refine_ls_structure_factor_coef Fsqd
_refine_ls_matrix_type           full
_refine_ls_weighting_scheme      calc
_refine_ls_weighting_details     
'calc w=1/[\s^2^(Fo^2^)+(0.0372P)^2^+0.6347P] where P=(Fo^2^+2Fc^2^)/3'
_atom_sites_solution_primary     direct
_atom_sites_solution_secondary   difmap
_atom_sites_solution_hydrogens   geom
_refine_ls_hydrogen_treatment    constr
_refine_ls_extinction_method     none
_refine_ls_extinction_coef       ?
_refine_ls_abs_structure_details 'Flack H D (1983), Acta Cryst. A39, 876-881'
_refine_ls_abs_structure_Flack   0.024(9)
_refine_ls_number_reflns         4588
_refine_ls_number_parameters     130
_refine_ls_number_restraints     219
_refine_ls_R_factor_all          0.0216
_refine_ls_R_factor_gt           0.0205
_refine_ls_wR_factor_ref         0.0538
_refine_ls_wR_factor_gt          0.0534
_refine_ls_goodness_of_fit_ref   1.053
_refine_ls_restrained_S_all      1.094
_refine_ls_shift/su_max          0.001
_refine_ls_shift/su_mean         0.000

loop_
_atom_site_label
_atom_site_type_symbol
_atom_site_fract_x
_atom_site_fract_y
_atom_site_fract_z
_atom_site_U_iso_or_equiv
_atom_site_adp_type
_atom_site_occupancy
_atom_site_symmetry_multiplicity
_atom_site_calc_flag
_atom_site_refinement_flags
_atom_site_disorder_assembly
_atom_site_disorder_group
Ni1 Ni 0.138876(5) 0.221049(4) 0.221049(4) 0.02219(6) Uani 1 2 d S . .
O1 O 0.19680(4) 0.19680(4) 0.19680(4) 0.0366(5) Uani 1 6 d S . .
O2 O 0.16391(3) 0.28593(3) 0.21644(4) 0.0631(3) Uani 1 1 d . . .
O3 O 0.10741(3) 0.22906(6) 0.15990(3) 0.0804(4) Uani 1 1 d . . .
N1 N 0.25044(4) 0.58095(4) 0.25044(4) 0.0386(3) Uani 1 2 d SDU . .
C1 C 0.21488(5) 0.56011(4) 0.27087(5) 0.0569(4) Uani 1 1 d DU . .
H1 H 0.1997 0.5749 0.2952 0.068 Uiso 1 1 calc R . .
C2 C 0.20035(5) 0.51788(4) 0.25701(5) 0.0655(5) Uani 1 1 d DU . .
H2 H 0.1756 0.5037 0.2720 0.079 Uiso 1 1 calc R . .
C3 C 0.22152(5) 0.49629(5) 0.22152(5) 0.0538(5) Uani 1 2 d SDU . .
C4 C 0.20958(6) 0.44760(7) 0.20958(6) 0.0657(7) Uani 1 2 d SDU . .
C5 C 0.17766(7) 0.42428(6) 0.23350(7) 0.0963(8) Uani 1 1 d DU . .
H5 H 0.1595 0.4400 0.2550 0.116 Uiso 1 1 calc R . .
C6 C 0.17110(5) 0.37894(5) 0.22726(6) 0.0916(7) Uani 1 1 d DU . .
H6 H 0.1489 0.3636 0.2449 0.110 Uiso 1 1 calc R . .
C7 C 0.19600(5) 0.35504(6) 0.19600(5) 0.0488(5) Uani 1 2 d SDU . .
C8 C 0.19145(4) 0.30439(5) 0.19145(4) 0.0280(3) Uani 1 2 d SD . .
C9 C 0.12063(4) 0.23207(6) 0.12063(4) 0.0417(4) Uani 1 2 d SD . .
C10 C 0.08500(4) 0.23955(7) 0.08500(4) 0.0514(5) Uani 1 2 d SDU . .
C11 C 0.03987(6) 0.24211(6) 0.09598(6) 0.0892(7) Uani 1 1 d DU . .
H11 H 0.0311 0.2405 0.1269 0.107 Uiso 1 1 calc R . .
C12 C 0.00714(7) 0.24691(8) 0.06336(6) 0.0984(8) Uani 1 1 d DU . .
H12 H -0.0238 0.2488 0.0722 0.118 Uiso 1 1 calc R . .
C13 C 0.01808(4) 0.24909(9) 0.01808(4) 0.0695(7) Uani 1 2 d SDU . .

loop_
_atom_site_aniso_label
_atom_site_aniso_U_11
_atom_site_aniso_U_22
_atom_site_aniso_U_33
_atom_site_aniso_U_23
_atom_site_aniso_U_13
_atom_site_aniso_U_12
Ni1 0.01839(9) 0.02410(7) 0.02410(7) -0.00022(8) -0.00261(5) -0.00261(5)
O1 0.0366(5) 0.0366(5) 0.0366(5) 0.0143(6) 0.0143(6) 0.0143(6)
O2 0.0530(5) 0.0285(4) 0.1080(8) -0.0199(5) 0.0454(6) -0.0090(4)
O3 0.0356(5) 0.1790(14) 0.0266(5) -0.0044(6) -0.0114(4) 0.0329(7)
N1 0.0470(5) 0.0219(6) 0.0470(5) -0.0075(4) 0.0087(7) -0.0075(4)
C1 0.0629(9) 0.0363(6) 0.0716(10) -0.0226(6) 0.0264(8) -0.0092(6)
C2 0.0626(9) 0.0418(8) 0.0920(12) -0.0205(8) 0.0327(9) -0.0236(7)
C3 0.0661(7) 0.0293(8) 0.0661(7) -0.0125(7) 0.0226(12) -0.0125(7)
C4 0.0813(11) 0.0345(10) 0.0813(11) -0.0157(8) 0.0295(12) -0.0157(8)
C5 0.0942(14) 0.0513(9) 0.144(2) -0.0324(11) 0.0637(14) -0.0181(10)
C6 0.0874(12) 0.0483(9) 0.1392(18) -0.0297(11) 0.0677(13) -0.0239(9)
C7 0.0545(7) 0.0376(10) 0.0545(7) -0.0116(6) 0.0043(9) -0.0116(6)
C8 0.0298(5) 0.0243(7) 0.0298(5) -0.0017(4) -0.0013(6) -0.0017(4)
C9 0.0370(6) 0.0511(11) 0.0370(6) -0.0025(5) -0.0138(7) -0.0025(5)
C10 0.0382(6) 0.0778(14) 0.0382(6) 0.0010(5) -0.0243(8) 0.0010(5)
C11 0.0564(10) 0.161(2) 0.0500(9) -0.0061(11) -0.0136(8) 0.0208(11)
C12 0.0574(11) 0.176(2) 0.0619(11) -0.0034(13) -0.0243(9) 0.0102(13)
C13 0.0498(8) 0.109(2) 0.0498(8) -0.0005(7) -0.0273(10) -0.0005(7)

_geom_special_details            
;
All esds (except the esd in the dihedral angle between two l.s. planes)
are estimated using the full covariance matrix. The cell esds are taken
into account individually in the estimation of esds in distances, angles
and torsion angles; correlations between esds in cell parameters are only
used when they are defined by crystal symmetry. An approximate (isotropic)
treatment of cell esds is used for estimating esds involving l.s. planes.
;

loop_
_geom_bond_atom_site_label_1
_geom_bond_atom_site_label_2
_geom_bond_distance
_geom_bond_site_symmetry_2
_geom_bond_publ_flag
Ni1 O1 1.9845(12) . ?
Ni1 O3 2.0413(8) 17 ?
Ni1 O3 2.0413(8) . ?
Ni1 O2 2.0547(8) 17 ?
Ni1 O2 2.0547(8) . ?
Ni1 N1 2.0806(13) 35_455 ?
O1 Ni1 1.9845(12) 5 ?
O1 Ni1 1.9845(12) 9 ?
O2 C8 1.2240(11) . ?
O3 C9 1.2247(12) . ?
N1 C1 1.3562(15) 21 ?
N1 C1 1.3562(15) . ?
N1 Ni1 2.0806(13) 32 ?
C1 C2 1.3784(18) . ?
C1 H1 0.9500 . ?
C2 C3 1.3747(17) . ?
C2 H2 0.9500 . ?
C3 C2 1.3747(17) 21 ?
C3 C4 1.519(2) . ?
C4 C5 1.362(2) 21 ?
C4 C5 1.362(2) . ?
C5 C6 1.363(2) . ?
C5 H5 0.9500 . ?
C6 C7 1.3730(18) . ?
C6 H6 0.9500 . ?
C7 C6 1.3730(18) 21 ?
C7 C8 1.506(2) . ?
C8 O2 1.2240(11) 21 ?
C9 O3 1.2247(12) 21 ?
C9 C10 1.502(2) . ?
C10 C11 1.3714(19) 21 ?
C10 C11 1.3714(19) . ?
C11 C12 1.370(2) . ?
C11 H11 0.9500 . ?
C12 C13 1.375(2) . ?
C12 H12 0.9500 . ?
C13 C12 1.375(2) 21 ?
C13 C13 1.507(4) 3 ?

loop_
_geom_angle_atom_site_label_1
_geom_angle_atom_site_label_2
_geom_angle_atom_site_label_3
_geom_angle
_geom_angle_site_symmetry_1
_geom_angle_site_symmetry_3
_geom_angle_publ_flag
O1 Ni1 O3 96.58(5) . 17 ?
O1 Ni1 O3 96.58(5) . . ?
O3 Ni1 O3 89.88(9) 17 . ?
O1 Ni1 O2 90.14(5) . 17 ?
O3 Ni1 O2 89.84(6) 17 17 ?
O3 Ni1 O2 173.26(4) . 17 ?
O1 Ni1 O2 90.14(5) . . ?
O3 Ni1 O2 173.26(4) 17 . ?
O3 Ni1 O2 89.84(6) . . ?
O2 Ni1 O2 89.65(7) 17 . ?
O1 Ni1 N1 175.79(8) . 35_455 ?
O3 Ni1 N1 86.39(4) 17 35_455 ?
O3 Ni1 N1 86.39(4) . 35_455 ?
O2 Ni1 N1 86.87(4) 17 35_455 ?
O2 Ni1 N1 86.87(4) . 35_455 ?
Ni1 O1 Ni1 119.353(18) 5 . ?
Ni1 O1 Ni1 119.353(18) 5 9 ?
Ni1 O1 Ni1 119.353(18) . 9 ?
C8 O2 Ni1 133.78(9) . . ?
C9 O3 Ni1 134.30(9) . . ?
C1 N1 C1 118.76(14) 21 . ?
C1 N1 Ni1 120.32(7) 21 32 ?
C1 N1 Ni1 120.32(7) . 32 ?
N1 C1 C2 121.19(12) . . ?
N1 C1 H1 119.4 . . ?
C2 C1 H1 119.4 . . ?
C3 C2 C1 120.17(13) . . ?
C3 C2 H2 119.9 . . ?
C1 C2 H2 119.9 . . ?
C2 C3 C2 118.47(16) 21 . ?
C2 C3 C4 120.58(8) 21 . ?
C2 C3 C4 120.58(8) . . ?
C5 C4 C5 117.4(2) 21 . ?
C5 C4 C3 121.12(10) 21 . ?
C5 C4 C3 121.12(10) . . ?
C6 C5 C4 121.54(16) . . ?
C6 C5 H5 119.2 . . ?
C4 C5 H5 119.2 . . ?
C5 C6 C7 121.20(15) . . ?
C5 C6 H6 119.4 . . ?
C7 C6 H6 119.4 . . ?
C6 C7 C6 117.04(18) 21 . ?
C6 C7 C8 121.42(9) 21 . ?
C6 C7 C8 121.42(9) . . ?
O2 C8 O2 126.94(14) 21 . ?
O2 C8 C7 116.52(7) 21 . ?
O2 C8 C7 116.52(7) . . ?
O3 C9 O3 126.64(16) 21 . ?
O3 C9 C10 116.68(8) 21 . ?
O3 C9 C10 116.68(8) . . ?
C11 C10 C11 117.07(18) 21 . ?
C11 C10 C9 121.44(9) 21 . ?
C11 C10 C9 121.44(9) . . ?
C12 C11 C10 121.56(16) . . ?
C12 C11 H11 119.2 . . ?
C10 C11 H11 119.2 . . ?
C11 C12 C13 121.42(18) . . ?
C11 C12 H12 119.3 . . ?
C13 C12 H12 119.3 . . ?
C12 C13 C12 117.0(2) 21 . ?
C12 C13 C13 121.38(10) 21 3 ?
C12 C13 C13 121.38(10) . 3 ?

loop_
_platon_squeeze_void_nr
_platon_squeeze_void_average_x
_platon_squeeze_void_average_y
_platon_squeeze_void_average_z
_platon_squeeze_void_volume
_platon_squeeze_void_count_electrons
_platon_squeeze_void_content
1 -0.004 -0.029 -0.009 18134 8293 ' '
_platon_squeeze_details          ?

_diffrn_measured_fraction_theta_max 1.000
_diffrn_reflns_theta_full        25.99
_diffrn_measured_fraction_theta_full 1.000
_refine_diff_density_max         0.190
_refine_diff_density_min         -0.273
_refine_diff_density_rms         0.024
