
#######################################################################
#
#                 Cambridge Crystallographic Data Centre
#                                CCDC
#
#######################################################################
#
# If this CIF has been generated from an entry in the Cambridge
# Structural Database, then it will include bibliographic, chemical,
# crystal, experimental, refinement or atomic coordinate data resulting
# from the CCDC's data processing and validation procedures.
#
#######################################################################

data_CSD_CIF_KASPUQ
_audit_creation_date 2005-11-01
_audit_creation_method CSD-ConQuest-V1
_database_code_CSD KASPUQ
_database_code_depnum_ccdc_archive 'CCDC 283910'
_chemical_formula_sum 'C16 H20 N2'
_chemical_formula_moiety
;
C16 H20 N2
;
_journal_coeditor_code "IUCr ER6023"
_journal_coden_Cambridge 1370
_journal_volume 61
_journal_year 2005
_journal_page_first o2904
_journal_name_full 'Acta Crystallogr.,Sect.E:Struct.Rep.Online '
loop_
_publ_author_name
"A.Lennartson"
"T.Kokoli"
"M.Hakansson"
_chemical_name_systematic
;
N,N'-Dimethyl-N,N'-diphenylethylenediamine
;
_chemical_name_common
;
Teaching Subset: Fundamental Chemistry, Symmetry
;
_cell_volume    685.789
_exptl_crystal_colour 'light yellow'
_exptl_crystal_density_diffrn 1.164
_exptl_crystal_description 'block'
_exptl_crystal_preparation 'n-hexane/toluene'
_diffrn_ambient_temperature 291
#These two values have been output from a single CSD field.
_refine_ls_R_factor_gt 0.0548
_refine_ls_wR_factor_gt 0.0548
_symmetry_cell_setting monoclinic
_symmetry_space_group_name_H-M 'P 21/c'
_symmetry_Int_Tables_number 14
loop_
_symmetry_equiv_pos_site_id
_symmetry_equiv_pos_as_xyz
1 x,y,z
2 -x,1/2+y,1/2-z
3 -x,-y,-z
4 x,-1/2-y,-1/2+z
_cell_length_a 6.374(2)
_cell_length_b 10.302(4)
_cell_length_c 10.447(4)
_cell_angle_alpha 90
_cell_angle_beta 91.428(14)
_cell_angle_gamma 90
_cell_formula_units_Z 2
loop_
_atom_type_symbol
_atom_type_radius_bond
C 0.68
H 0.23
N 0.68
loop_
_atom_site_label
_atom_site_type_symbol
_atom_site_fract_x
_atom_site_fract_y
_atom_site_fract_z
C1 C 0.2290(2) 1.03606(13) 0.77772(13)
C2 C 0.3740(2) 1.10868(15) 0.84902(15)
C3 C 0.5211(3) 1.18350(18) 0.78957(17)
C4 C 0.5295(3) 1.18973(18) 0.65889(18)
C5 C 0.3877(3) 1.12002(18) 0.58800(17)
C6 C 0.2389(3) 1.04417(16) 0.64449(16)
C7 C -0.0789(4) 0.8964(3) 0.7567(2)
C8 C 0.0676(3) 0.94785(17) 0.97092(16)
N1 N 0.0820(2) 0.95833(15) 0.83383(12)
H1 H 0.371(3) 1.1093(16) 0.9417(19)
H2 H 0.623(3) 1.233(2) 0.8452(19)
H3 H 0.636(4) 1.245(2) 0.622(2)
H4 H 0.391(3) 1.116(2) 0.491(2)
H5 H 0.142(3) 1.000(2) 0.5924(18)
H6 H -0.173(3) 0.854(3) 0.811(2)
H7 H -0.019(4) 0.836(3) 0.695(3)
H8 H -0.174(5) 0.963(4) 0.707(3)
H9 H 0.005(3) 0.8588(19) 0.9907(18)
H10 H 0.208(3) 0.9510(15) 1.0140(17)
C1B C -0.2290(2) 0.96394(13) 1.22228(13)
C2B C -0.3740(2) 0.89132(15) 1.15098(15)
C3B C -0.5211(3) 0.81650(18) 1.21043(17)
C4B C -0.5295(3) 0.81027(18) 1.34111(18)
C5B C -0.3877(3) 0.87998(18) 1.41200(17)
C6B C -0.2389(3) 0.95583(16) 1.35551(16)
C7B C 0.0789(4) 1.1036(3) 1.2433(2)
C8B C -0.0676(3) 1.05215(17) 1.02908(16)
N1B N -0.0820(2) 1.04167(15) 1.16617(12)
H1B H -0.371(3) 0.8907(16) 1.0583(19)
H2B H -0.623(3) 0.767(2) 1.1548(19)
H3B H -0.636(4) 0.755(2) 1.378(2)
H4B H -0.391(3) 0.884(2) 1.509(2)
H5B H -0.142(3) 1.000(2) 1.4076(18)
H6B H 0.173(3) 1.146(3) 1.189(2)
H7B H 0.019(4) 1.164(3) 1.305(3)
H8B H 0.174(5) 1.037(4) 1.293(3)
H9B H -0.005(3) 1.1412(19) 1.0093(18)
H10B H -0.208(3) 1.0490(15) 0.9860(17)
#END
