
#######################################################################
#
#                 Cambridge Crystallographic Data Centre
#                                CCDC
#
#######################################################################
#
# If this CIF has been generated from an entry in the Cambridge
# Structural Database, then it will include bibliographic, chemical,
# crystal, experimental, refinement or atomic coordinate data resulting
# from the CCDC's data processing and validation procedures.
#
#######################################################################

data_CSD_CIF_KATLAT
_audit_creation_date 2005-11-01
_audit_creation_method CSD-ConQuest-V1
_database_code_CSD KATLAT
_database_code_depnum_ccdc_archive 'CCDC 287679'
_chemical_formula_sum 'C12 H30 N2 O6'
_chemical_formula_moiety
;
C12 H24 O6,2(H3 N1)
;
_journal_coeditor_code "IUCr OB6577"
_journal_coden_Cambridge 1370
_journal_volume 61
_journal_year 2005
_journal_page_first o3142
_journal_name_full 'Acta Crystallogr.,Sect.E:Struct.Rep.Online '
loop_
_publ_author_name
"H.Nuss"
"M.Jansen"
_chemical_name_systematic
;
bis(Ammonia) 1,4,7,10,13,16-hexaoxacyclooctadecane
;
_chemical_name_common
;
Diammonia 18-crown-6; Teaching Subset: Fundamental Chemistry, Symmetry
;
_cell_volume    823.421
_exptl_crystal_colour 'colorless'
_exptl_crystal_density_diffrn 1.203
_exptl_crystal_description 'needle'
_diffrn_ambient_temperature 100
#These two values have been output from a single CSD field.
_refine_ls_R_factor_gt 0.0483
_refine_ls_wR_factor_gt 0.0483
_symmetry_cell_setting monoclinic
_symmetry_space_group_name_H-M 'P 21/c'
_symmetry_Int_Tables_number 14
loop_
_symmetry_equiv_pos_site_id
_symmetry_equiv_pos_as_xyz
1 x,y,z
2 -x,1/2+y,1/2-z
3 -x,-y,-z
4 x,-1/2-y,-1/2+z
_cell_length_a 7.4789(14)
_cell_length_b 7.6632(14)
_cell_length_c 14.374(3)
_cell_angle_alpha 90
_cell_angle_beta 91.754(4)
_cell_angle_gamma 90
_cell_formula_units_Z 2
loop_
_atom_type_symbol
_atom_type_radius_bond
C 0.68
H 0.23
N 0.68
O 0.68
loop_
_atom_site_label
_atom_site_type_symbol
_atom_site_fract_x
_atom_site_fract_y
_atom_site_fract_z
N1 N 0.1463(2) 0.1279(2) 0.58096(11)
H1 H 0.192(3) 0.034(4) 0.5601(17)
H2 H 0.042(3) 0.091(3) 0.6038(16)
H3 H 0.109(3) 0.180(3) 0.5289(18)
O1 O -0.01313(14) 0.30332(14) 0.39576(7)
O2 O 0.23196(13) 0.03940(14) 0.34328(7)
O3 O 0.30709(14) -0.22309(15) 0.48313(8)
C1 C -0.1842(2) 0.3831(2) 0.39192(13)
C2 C 0.0663(2) 0.2966(2) 0.30783(11)
C3 C 0.2485(2) 0.2170(2) 0.31875(12)
C4 C 0.4015(2) -0.0399(2) 0.36075(12)
C5 C 0.3739(2) -0.2234(2) 0.39212(11)
C6 C -0.2540(2) 0.3912(2) 0.48808(13)
H4 H -0.176(2) 0.501(3) 0.3660(13)
H5 H -0.260(2) 0.315(2) 0.3502(13)
H6 H 0.076(2) 0.413(2) 0.2819(13)
H7 H -0.010(3) 0.231(3) 0.2632(13)
H8 H 0.318(2) 0.278(2) 0.3675(13)
H9 H 0.303(2) 0.227(2) 0.2615(14)
H10 H 0.463(2) 0.029(2) 0.4077(12)
H11 H 0.465(2) -0.038(2) 0.3027(13)
H12 H 0.292(2) -0.282(2) 0.3493(12)
H13 H 0.490(2) -0.288(2) 0.3926(13)
H14 H -0.160(3) 0.438(2) 0.5327(13)
H15 H -0.354(2) 0.467(2) 0.4873(12)
O1B O 0.01313(14) -0.30332(14) 0.60424(7)
O2B O -0.23196(13) -0.03940(14) 0.65672(7)
O3B O -0.30709(14) 0.22309(15) 0.51687(8)
C1B C 0.1842(2) -0.3831(2) 0.60808(13)
C2B C -0.0663(2) -0.2966(2) 0.69217(11)
C3B C -0.2485(2) -0.2170(2) 0.68125(12)
C4B C -0.4015(2) 0.0399(2) 0.63925(12)
C5B C -0.3739(2) 0.2234(2) 0.60788(11)
C6B C 0.2540(2) -0.3912(2) 0.51192(13)
H4B H 0.176(2) -0.501(3) 0.6340(13)
H5B H 0.260(2) -0.315(2) 0.6498(13)
H6B H -0.076(2) -0.413(2) 0.7181(13)
H7B H 0.010(3) -0.231(3) 0.7368(13)
H8B H -0.318(2) -0.278(2) 0.6325(13)
H9B H -0.303(2) -0.227(2) 0.7385(14)
H10B H -0.463(2) -0.029(2) 0.5923(12)
H11B H -0.465(2) 0.038(2) 0.6973(13)
H12B H -0.292(2) 0.282(2) 0.6507(12)
H13B H -0.490(2) 0.288(2) 0.6074(13)
H14B H 0.160(3) -0.438(2) 0.4673(13)
H15B H 0.354(2) -0.467(2) 0.5127(12)
#END
