####################################################################### 
# 
# This file contains crystal structure data downloaded from the 
# Cambridge Structural Database (CSD) hosted by the Cambridge 
# Crystallographic Data Centre (CCDC).
# 
# Full information about CCDC data access policies and citation 
# guidelines are available at http://www.ccdc.cam.ac.uk/access/V1 
# 
# Audit and citation data items may have been added by the CCDC. 
# Please retain this information to preserve the provenance of 
# this file and to allow appropriate attribution of the data. 
# 
#######################################################################

data_1
_audit_block_doi                 10.5517/cc8n2sr
_database_code_depnum_ccdc_archive 'CCDC 257634'
loop_
_citation_id
_citation_doi
_citation_year
1 10.1016/j.ica.2005.07.006 2005
_audit_update_record             
;
2004-12-03 deposited with the CCDC.	2024-07-10 downloaded from the CCDC.
;

_audit_creation_method           SHELXL-97
_chemical_name_systematic        
;
?
;
_chemical_name_common            ?
_chemical_melting_point          ?
_chemical_formula_moiety         ?
_chemical_formula_sum            'C20 H21 Cu N4 O6.5'
_chemical_formula_weight         484.95


loop_
_atom_type_symbol
_atom_type_description
_atom_type_scat_dispersion_real
_atom_type_scat_dispersion_imag
_atom_type_scat_source
C C 0.0033 0.0016 'International Tables Vol C Tables 4.2.6.8 and 6.1.1.4'
H H 0.0000 0.0000 'International Tables Vol C Tables 4.2.6.8 and 6.1.1.4'
N N 0.0061 0.0033 'International Tables Vol C Tables 4.2.6.8 and 6.1.1.4'
O O 0.0106 0.0060 'International Tables Vol C Tables 4.2.6.8 and 6.1.1.4'
Cu Cu 0.3201 1.2651 'International Tables Vol C Tables 4.2.6.8 and 6.1.1.4'

_symmetry_cell_setting           Monoclinic
_symmetry_space_group_name_H-M   C2/c

loop_
_symmetry_equiv_pos_as_xyz
'x, y, z'
'-x, y, -z+1/2'
'x+1/2, y+1/2, z'
'-x+1/2, y+1/2, -z+1/2'
'-x, -y, -z'
'x, -y, z-1/2'
'-x+1/2, -y+1/2, -z'
'x+1/2, -y+1/2, z-1/2'

_cell_length_a                   22.670(8)
_cell_length_b                   27.223(10)
_cell_length_c                   10.787(4)
_cell_angle_alpha                90.00
_cell_angle_beta                 108.674(5)
_cell_angle_gamma                90.00
_cell_volume                     6307(4)
_cell_formula_units_Z            8
_cell_measurement_temperature    293(2)
_cell_measurement_reflns_used    928
_cell_measurement_theta_min      2.42
_cell_measurement_theta_max      16.22

_exptl_crystal_description       Lamellar
_exptl_crystal_colour            Blue
_exptl_crystal_size_max          0.23
_exptl_crystal_size_mid          0.12
_exptl_crystal_size_min          0.06
_exptl_crystal_density_meas      NONE
_exptl_crystal_density_diffrn    1.021
_exptl_crystal_density_method    'not measured'
_exptl_crystal_F_000             2000
_exptl_absorpt_coefficient_mu    0.725
_exptl_absorpt_correction_type   MULTI-SCAN
_exptl_absorpt_correction_T_min  0.729064
_exptl_absorpt_correction_T_max  1.000000
_exptl_absorpt_process_details   SADABS

_exptl_special_details           
;
?
;

_diffrn_ambient_temperature      293(2)
_diffrn_radiation_wavelength     0.71073
_diffrn_radiation_type           MoK\a
_diffrn_radiation_source         'fine-focus sealed tube'
_diffrn_radiation_monochromator  graphite
_diffrn_measurement_device_type  'APEX II CCD area detector'
_diffrn_measurement_method       'phi and omega scans'
_diffrn_detector_area_resol_mean ?
_diffrn_standards_number         ?
_diffrn_standards_interval_count ?
_diffrn_standards_interval_time  ?
_diffrn_standards_decay_%        ?
_diffrn_reflns_number            17253
_diffrn_reflns_av_R_equivalents  0.1182
_diffrn_reflns_av_sigmaI/netI    0.1589
_diffrn_reflns_limit_h_min       -26
_diffrn_reflns_limit_h_max       20
_diffrn_reflns_limit_k_min       -32
_diffrn_reflns_limit_k_max       31
_diffrn_reflns_limit_l_min       -12
_diffrn_reflns_limit_l_max       12
_diffrn_reflns_theta_min         2.49
_diffrn_reflns_theta_max         25.00
_reflns_number_total             5394
_reflns_number_gt                2875
_reflns_threshold_expression     >2sigma(I)

_computing_data_collection       'Bruker APEX II'
_computing_cell_refinement       'Bruker SMART'
_computing_data_reduction        'Bruker SAINT'
_computing_structure_solution    'SHELXS-97 (Sheldrick, 1990)'
_computing_structure_refinement  'SHELXL-97 (Sheldrick, 1997)'
_computing_molecular_graphics    'Bruker SHELXTL'
_computing_publication_material  'Bruker SHELXTL'

_refine_special_details          
;
Refinement of F^2^ against ALL reflections. The weighted R-factor wR and
goodness of fit S are based on F^2^, conventional R-factors R are based
on F, with F set to zero for negative F^2^. The threshold expression of
F^2^ > 2sigma(F^2^) is used only for calculating R-factors(gt) etc. and is
not relevant to the choice of reflections for refinement. R-factors based
on F^2^ are statistically about twice as large as those based on F, and R-
factors based on ALL data will be even larger.
;

_refine_ls_structure_factor_coef Fsqd
_refine_ls_matrix_type           full
_refine_ls_weighting_scheme      calc
_refine_ls_weighting_details     
'calc w=1/[\s^2^(Fo^2^)+(0.0623P)^2^+4.8830P] where P=(Fo^2^+2Fc^2^)/3'
_atom_sites_solution_primary     direct
_atom_sites_solution_secondary   difmap
_atom_sites_solution_hydrogens   geom
_refine_ls_hydrogen_treatment    mixed
_refine_ls_extinction_method     none
_refine_ls_extinction_coef       ?
_refine_ls_number_reflns         5394
_refine_ls_number_parameters     304
_refine_ls_number_restraints     9
_refine_ls_R_factor_all          0.1631
_refine_ls_R_factor_gt           0.0688
_refine_ls_wR_factor_ref         0.1899
_refine_ls_wR_factor_gt          0.1464
_refine_ls_goodness_of_fit_ref   0.991
_refine_ls_restrained_S_all      0.992
_refine_ls_shift/su_max          0.001
_refine_ls_shift/su_mean         0.000

loop_
_atom_site_label
_atom_site_type_symbol
_atom_site_fract_x
_atom_site_fract_y
_atom_site_fract_z
_atom_site_U_iso_or_equiv
_atom_site_adp_type
_atom_site_occupancy
_atom_site_symmetry_multiplicity
_atom_site_calc_flag
_atom_site_refinement_flags
_atom_site_disorder_assembly
_atom_site_disorder_group
Cu1 Cu 0.24391(3) -0.00398(2) 0.71164(7) 0.0388(3) Uani 1 1 d . . .
N1 N 0.2676(2) 0.06572(17) 0.6832(5) 0.0417(12) Uani 1 1 d . . .
N2 N 0.3502(3) 0.2240(2) 0.5458(8) 0.080(2) Uani 1 1 d . . .
N3 N 0.3516(3) 0.27574(19) 0.5503(7) 0.079(2) Uani 1 1 d . . .
N4 N 0.2769(2) 0.42999(17) 0.7244(5) 0.0454(13) Uani 1 1 d . . .
O1 O 0.2978(2) 0.24826(13) 0.6724(5) 0.0578(13) Uani 1 1 d . . .
O2 O 0.15695(18) 0.01016(14) 0.6340(4) 0.0469(10) Uani 1 1 d . . .
O3 O 0.13438(19) 0.03979(16) 0.8055(4) 0.0570(12) Uani 1 1 d . . .
O4 O 0.3459(2) 0.0270(2) 0.9516(5) 0.0810(16) Uani 1 1 d . . .
O5 O 0.33177(18) -0.02034(14) 0.7791(5) 0.0571(12) Uani 1 1 d . . .
O6 O 0.24131(18) -0.03421(17) 0.5189(4) 0.0535(12) Uani 1 1 d D . .
H6A H 0.2705(16) -0.036(2) 0.485(5) 0.064 Uiso 1 1 d D . .
H6B H 0.2060(11) -0.034(3) 0.460(4) 0.080 Uiso 1 1 d D . .
C1 C 0.2526(3) 0.3900(2) 0.7613(7) 0.0586(19) Uani 1 1 d . . .
H1 H 0.2255 0.3942 0.8095 0.070 Uiso 1 1 calc R . .
C2 C 0.2656(4) 0.3429(2) 0.7316(8) 0.066(2) Uani 1 1 d . . .
H2 H 0.2474 0.3159 0.7578 0.079 Uiso 1 1 calc R . .
C3 C 0.3066(3) 0.3369(2) 0.6619(7) 0.0568(19) Uani 1 1 d . . .
C4 C 0.3307(3) 0.3782(2) 0.6238(7) 0.0533(17) Uani 1 1 d . . .
H4 H 0.3579 0.3753 0.5755 0.064 Uiso 1 1 calc R . .
C5 C 0.3151(3) 0.42288(19) 0.6561(6) 0.0465(16) Uani 1 1 d . . .
H5 H 0.3322 0.4503 0.6288 0.056 Uiso 1 1 calc R . .
C6 C 0.3209(4) 0.2876(2) 0.6231(8) 0.064(2) Uani 1 1 d . . .
C7 C 0.3202(3) 0.2097(2) 0.6156(8) 0.0581(19) Uani 1 1 d . . .
C8 C 0.2432(3) 0.1045(2) 0.7234(7) 0.0522(17) Uani 1 1 d . . .
H8 H 0.2136 0.0992 0.7652 0.063 Uiso 1 1 calc R . .
C9 C 0.2593(3) 0.1519(2) 0.7067(7) 0.061(2) Uani 1 1 d . . .
H9 H 0.2414 0.1780 0.7372 0.073 Uiso 1 1 calc R . .
C10 C 0.3027(3) 0.1601(2) 0.6434(7) 0.0524(17) Uani 1 1 d . . .
C11 C 0.3286(3) 0.1205(2) 0.6025(7) 0.0545(17) Uani 1 1 d . . .
H11 H 0.3588 0.1248 0.5618 0.065 Uiso 1 1 calc R . .
C12 C 0.3096(3) 0.0743(2) 0.6223(6) 0.0481(17) Uani 1 1 d . . .
H12 H 0.3266 0.0476 0.5922 0.058 Uiso 1 1 calc R . .
C13 C 0.1182(3) 0.0245(2) 0.6914(7) 0.0410(15) Uani 1 1 d . . .
C14 C 0.0329(3) -0.0346(2) 0.6033(7) 0.0534(18) Uani 1 1 d . . .
H14A H 0.0405 -0.0472 0.6912 0.064 Uiso 1 1 calc R . .
H14B H 0.0584 -0.0531 0.5628 0.064 Uiso 1 1 calc R . .
C15 C 0.0511(3) 0.0205(2) 0.6098(6) 0.0426(15) Uani 1 1 d . . .
H15 H 0.0263 0.0382 0.6547 0.051 Uiso 1 1 calc R . .
C16 C 0.0369(3) 0.0411(2) 0.4771(6) 0.0510(17) Uani 1 1 d . . .
H16A H 0.0623 0.0248 0.4322 0.061 Uiso 1 1 calc R . .
H16B H 0.0473 0.0758 0.4832 0.061 Uiso 1 1 calc R . .
C17 C 0.3659(3) 0.0006(3) 0.8812(7) 0.0520(16) Uani 1 1 d . . .
C18 C 0.4690(3) 0.0411(3) 0.9203(8) 0.078(3) Uani 1 1 d . . .
H18A H 0.4605 0.0626 0.9843 0.094 Uiso 1 1 calc R . .
H18B H 0.4537 0.0570 0.8354 0.094 Uiso 1 1 calc R . .
C19 C 0.4362(3) -0.0073(3) 0.9163(6) 0.0576(18) Uani 1 1 d . . .
H19 H 0.4439 -0.0279 0.8487 0.069 Uiso 1 1 calc R . .
C20 C 0.4609(3) -0.0326(3) 1.0436(9) 0.085(3) Uani 1 1 d . . .
H20A H 0.4400 -0.0640 1.0393 0.102 Uiso 1 1 calc R . .
H20B H 0.4525 -0.0130 1.1110 0.102 Uiso 1 1 calc R . .
O7 O 0.3777(10) 0.1059(10) 0.120(3) 0.151(14) Uani 0.25 1 d P . .
O8 O 0.0726(10) 0.1233(8) 0.848(2) 0.094(7) Uani 0.25 1 d PU . .

loop_
_atom_site_aniso_label
_atom_site_aniso_U_11
_atom_site_aniso_U_22
_atom_site_aniso_U_33
_atom_site_aniso_U_23
_atom_site_aniso_U_13
_atom_site_aniso_U_12
Cu1 0.0257(4) 0.0347(4) 0.0497(4) 0.0006(4) 0.0030(3) -0.0019(3)
N1 0.034(3) 0.040(3) 0.048(3) -0.007(2) 0.009(2) 0.000(2)
N2 0.100(5) 0.033(3) 0.131(6) -0.002(3) 0.070(5) -0.003(3)
N3 0.103(5) 0.030(3) 0.126(6) -0.004(3) 0.067(5) -0.001(3)
N4 0.041(3) 0.041(3) 0.055(3) 0.002(2) 0.015(3) -0.004(2)
O1 0.070(3) 0.026(2) 0.088(4) -0.001(2) 0.040(3) -0.004(2)
O2 0.029(2) 0.053(2) 0.054(3) 0.000(2) 0.0062(19) 0.0038(18)
O3 0.041(3) 0.079(3) 0.042(3) -0.010(2) 0.001(2) 0.000(2)
O4 0.034(3) 0.142(5) 0.065(3) -0.019(3) 0.013(3) 0.004(3)
O5 0.030(2) 0.047(2) 0.080(3) 0.006(2) -0.002(2) 0.0020(18)
O6 0.031(2) 0.069(3) 0.056(3) -0.008(2) 0.009(2) -0.001(2)
C1 0.065(5) 0.038(4) 0.083(5) 0.005(3) 0.038(4) -0.003(3)
C2 0.074(5) 0.043(4) 0.097(6) -0.011(4) 0.050(5) -0.015(3)
C3 0.055(4) 0.028(3) 0.084(5) 0.002(3) 0.018(4) -0.004(3)
C4 0.052(4) 0.042(4) 0.073(5) 0.005(3) 0.030(4) 0.000(3)
C5 0.049(4) 0.026(3) 0.061(4) 0.002(3) 0.012(3) -0.003(3)
C6 0.061(5) 0.040(4) 0.103(6) 0.002(4) 0.041(5) -0.003(3)
C7 0.059(5) 0.034(4) 0.090(6) -0.006(4) 0.036(4) -0.002(3)
C8 0.056(4) 0.039(3) 0.067(5) -0.001(3) 0.028(3) 0.009(3)
C9 0.065(5) 0.036(4) 0.085(6) -0.002(3) 0.029(4) 0.009(3)
C10 0.055(4) 0.031(3) 0.071(5) -0.009(3) 0.020(4) -0.001(3)
C11 0.047(4) 0.042(4) 0.082(5) -0.001(3) 0.031(4) 0.002(3)
C12 0.044(4) 0.033(3) 0.067(5) -0.006(3) 0.017(4) 0.002(3)
C13 0.032(4) 0.037(3) 0.051(4) 0.009(3) 0.008(3) -0.004(3)
C14 0.039(4) 0.052(4) 0.058(4) 0.017(3) 0.001(3) -0.002(3)
C15 0.031(3) 0.054(4) 0.039(4) 0.002(3) 0.005(3) 0.006(3)
C16 0.036(4) 0.057(4) 0.052(4) 0.010(3) 0.002(3) -0.009(3)
C17 0.023(3) 0.074(5) 0.052(4) 0.011(4) 0.002(3) 0.004(3)
C18 0.022(4) 0.111(6) 0.093(6) 0.042(5) 0.006(4) -0.010(4)
C19 0.029(3) 0.085(5) 0.047(4) -0.001(4) -0.004(3) 0.007(3)
C20 0.037(4) 0.107(6) 0.107(7) 0.040(5) 0.019(4) 0.000(4)
O7 0.074(15) 0.21(3) 0.21(3) -0.20(2) 0.110(18) -0.098(17)
O8 0.095(10) 0.088(10) 0.110(10) -0.017(8) 0.051(8) 0.035(8)

_geom_special_details            
;
All esds (except the esd in the dihedral angle between two l.s. planes)
are estimated using the full covariance matrix. The cell esds are taken
into account individually in the estimation of esds in distances, angles
and torsion angles; correlations between esds in cell parameters are only
used when they are defined by crystal symmetry. An approximate (isotropic)
treatment of cell esds is used for estimating esds involving l.s. planes.
;

loop_
_geom_bond_atom_site_label_1
_geom_bond_atom_site_label_2
_geom_bond_distance
_geom_bond_site_symmetry_2
_geom_bond_publ_flag
Cu1 O2 1.918(4) . ?
Cu1 O5 1.941(4) . ?
Cu1 N1 2.022(5) . ?
Cu1 N4 2.034(5) 4_546 ?
Cu1 O6 2.219(4) . ?
N1 C8 1.329(7) . ?
N1 C12 1.339(7) . ?
N2 C7 1.228(9) . ?
N2 N3 1.408(8) . ?
N3 C6 1.245(9) . ?
N4 C5 1.319(8) . ?
N4 C1 1.337(7) . ?
N4 Cu1 2.034(5) 4_556 ?
O1 C6 1.372(8) . ?
O1 C7 1.391(7) . ?
O2 C13 1.286(7) . ?
O3 C13 1.239(7) . ?
O4 C17 1.233(8) . ?
O5 C17 1.263(7) . ?
O6 H6A 0.852(10) . ?
O6 H6B 0.846(10) . ?
C1 C2 1.378(9) . ?
C1 H1 0.9300 . ?
C2 C3 1.379(9) . ?
C2 H2 0.9300 . ?
C3 C4 1.369(8) . ?
C3 C6 1.473(9) . ?
C4 C5 1.343(8) . ?
C4 H4 0.9300 . ?
C5 H5 0.9300 . ?
C7 C10 1.464(9) . ?
C8 C9 1.367(8) . ?
C8 H8 0.9300 . ?
C9 C10 1.384(9) . ?
C9 H9 0.9300 . ?
C10 C11 1.369(8) . ?
C11 C12 1.368(8) . ?
C11 H11 0.9300 . ?
C12 H12 0.9300 . ?
C13 C15 1.497(8) . ?
C14 C15 1.552(8) . ?
C14 C16 1.552(8) 5_556 ?
C14 H14A 0.9700 . ?
C14 H14B 0.9700 . ?
C15 C16 1.474(8) . ?
C15 H15 0.9800 . ?
C16 C14 1.553(8) 5_556 ?
C16 H16A 0.9700 . ?
C16 H16B 0.9700 . ?
C17 C19 1.529(8) . ?
C18 C19 1.507(9) . ?
C18 C20 1.527(9) 5_657 ?
C18 H18A 0.9700 . ?
C18 H18B 0.9700 . ?
C19 C20 1.478(9) . ?
C19 H19 0.9800 . ?
C20 C18 1.527(9) 5_657 ?
C20 H20A 0.9700 . ?
C20 H20B 0.9700 . ?

loop_
_geom_angle_atom_site_label_1
_geom_angle_atom_site_label_2
_geom_angle_atom_site_label_3
_geom_angle
_geom_angle_site_symmetry_1
_geom_angle_site_symmetry_3
_geom_angle_publ_flag
O2 Cu1 O5 176.1(2) . . ?
O2 Cu1 N1 91.77(17) . . ?
O5 Cu1 N1 88.97(18) . . ?
O2 Cu1 N4 90.46(19) . 4_546 ?
O5 Cu1 N4 89.51(18) . 4_546 ?
N1 Cu1 N4 169.23(19) . 4_546 ?
O2 Cu1 O6 87.12(17) . . ?
O5 Cu1 O6 88.99(18) . . ?
N1 Cu1 O6 97.73(19) . . ?
N4 Cu1 O6 92.90(19) 4_546 . ?
C8 N1 C12 117.2(5) . . ?
C8 N1 Cu1 122.6(5) . . ?
C12 N1 Cu1 120.2(4) . . ?
C7 N2 N3 107.9(6) . . ?
C6 N3 N2 105.6(6) . . ?
C5 N4 C1 117.0(5) . . ?
C5 N4 Cu1 125.8(4) . 4_556 ?
C1 N4 Cu1 117.1(5) . 4_556 ?
C6 O1 C7 100.4(6) . . ?
C13 O2 Cu1 128.0(4) . . ?
C17 O5 Cu1 119.5(4) . . ?
Cu1 O6 H6A 129(4) . . ?
Cu1 O6 H6B 116(4) . . ?
H6A O6 H6B 111.1(18) . . ?
N4 C1 C2 123.3(7) . . ?
N4 C1 H1 118.3 . . ?
C2 C1 H1 118.3 . . ?
C1 C2 C3 117.9(6) . . ?
C1 C2 H2 121.0 . . ?
C3 C2 H2 121.0 . . ?
C4 C3 C2 118.0(6) . . ?
C4 C3 C6 121.2(7) . . ?
C2 C3 C6 120.7(6) . . ?
C5 C4 C3 120.2(7) . . ?
C5 C4 H4 119.9 . . ?
C3 C4 H4 119.9 . . ?
N4 C5 C4 123.5(6) . . ?
N4 C5 H5 118.2 . . ?
C4 C5 H5 118.2 . . ?
N3 C6 O1 113.7(6) . . ?
N3 C6 C3 129.3(7) . . ?
O1 C6 C3 117.0(7) . . ?
N2 C7 O1 112.4(6) . . ?
N2 C7 C10 131.2(7) . . ?
O1 C7 C10 116.4(7) . . ?
N1 C8 C9 123.3(7) . . ?
N1 C8 H8 118.3 . . ?
C9 C8 H8 118.3 . . ?
C8 C9 C10 118.7(6) . . ?
C8 C9 H9 120.6 . . ?
C10 C9 H9 120.6 . . ?
C11 C10 C9 118.5(6) . . ?
C11 C10 C7 119.2(7) . . ?
C9 C10 C7 122.2(6) . . ?
C12 C11 C10 119.0(6) . . ?
C12 C11 H11 120.5 . . ?
C10 C11 H11 120.5 . . ?
N1 C12 C11 123.2(6) . . ?
N1 C12 H12 118.4 . . ?
C11 C12 H12 118.4 . . ?
O3 C13 O2 123.4(5) . . ?
O3 C13 C15 122.0(6) . . ?
O2 C13 C15 114.6(6) . . ?
C15 C14 C16 110.2(5) . 5_556 ?
C15 C14 H14A 109.6 . . ?
C16 C14 H14A 109.6 5_556 . ?
C15 C14 H14B 109.6 . . ?
C16 C14 H14B 109.6 5_556 . ?
H14A C14 H14B 108.1 . . ?
C16 C15 C13 114.1(5) . . ?
C16 C15 C14 110.6(5) . . ?
C13 C15 C14 107.6(4) . . ?
C16 C15 H15 108.1 . . ?
C13 C15 H15 108.1 . . ?
C14 C15 H15 108.1 . . ?
C15 C16 C14 111.5(5) . 5_556 ?
C15 C16 H16A 109.3 . . ?
C14 C16 H16A 109.3 5_556 . ?
C15 C16 H16B 109.3 . . ?
C14 C16 H16B 109.3 5_556 . ?
H16A C16 H16B 108.0 . . ?
O4 C17 O5 123.8(6) . . ?
O4 C17 C19 119.4(6) . . ?
O5 C17 C19 116.8(6) . . ?
C19 C18 C20 109.8(6) . 5_657 ?
C19 C18 H18A 109.7 . . ?
C20 C18 H18A 109.7 5_657 . ?
C19 C18 H18B 109.7 . . ?
C20 C18 H18B 109.7 5_657 . ?
H18A C18 H18B 108.2 . . ?
C20 C19 C18 110.2(6) . . ?
C20 C19 C17 110.6(6) . . ?
C18 C19 C17 110.4(6) . . ?
C20 C19 H19 108.5 . . ?
C18 C19 H19 108.5 . . ?
C17 C19 H19 108.5 . . ?
C19 C20 C18 111.3(6) . 5_657 ?
C19 C20 H20A 109.4 . . ?
C18 C20 H20A 109.4 5_657 . ?
C19 C20 H20B 109.4 . . ?
C18 C20 H20B 109.4 5_657 . ?
H20A C20 H20B 108.0 . . ?

loop_
_geom_torsion_atom_site_label_1
_geom_torsion_atom_site_label_2
_geom_torsion_atom_site_label_3
_geom_torsion_atom_site_label_4
_geom_torsion
_geom_torsion_site_symmetry_1
_geom_torsion_site_symmetry_2
_geom_torsion_site_symmetry_3
_geom_torsion_site_symmetry_4
_geom_torsion_publ_flag
O2 Cu1 N1 C8 52.7(5) . . . . ?
O5 Cu1 N1 C8 -131.1(5) . . . . ?
N4 Cu1 N1 C8 -49.2(12) 4_546 . . . ?
O6 Cu1 N1 C8 140.0(5) . . . . ?
O2 Cu1 N1 C12 -127.7(4) . . . . ?
O5 Cu1 N1 C12 48.5(4) . . . . ?
N4 Cu1 N1 C12 130.4(10) 4_546 . . . ?
O6 Cu1 N1 C12 -40.4(4) . . . . ?
C7 N2 N3 C6 -0.8(9) . . . . ?
O5 Cu1 O2 C13 167(2) . . . . ?
N1 Cu1 O2 C13 -91.8(5) . . . . ?
N4 Cu1 O2 C13 77.6(5) 4_546 . . . ?
O6 Cu1 O2 C13 170.5(4) . . . . ?
O2 Cu1 O5 C17 164(2) . . . . ?
N1 Cu1 O5 C17 62.5(5) . . . . ?
N4 Cu1 O5 C17 -106.8(5) 4_546 . . . ?
O6 Cu1 O5 C17 160.3(5) . . . . ?
C5 N4 C1 C2 0.0(10) . . . . ?
Cu1 N4 C1 C2 -176.1(5) 4_556 . . . ?
N4 C1 C2 C3 1.0(11) . . . . ?
C1 C2 C3 C4 -1.5(10) . . . . ?
C1 C2 C3 C6 -177.9(7) . . . . ?
C2 C3 C4 C5 1.0(10) . . . . ?
C6 C3 C4 C5 177.4(6) . . . . ?
C1 N4 C5 C4 -0.6(9) . . . . ?
Cu1 N4 C5 C4 175.2(5) 4_556 . . . ?
C3 C4 C5 N4 0.0(10) . . . . ?
N2 N3 C6 O1 0.5(9) . . . . ?
N2 N3 C6 C3 -179.5(7) . . . . ?
C7 O1 C6 N3 -0.1(9) . . . . ?
C7 O1 C6 C3 179.9(6) . . . . ?
C4 C3 C6 N3 -4.0(13) . . . . ?
C2 C3 C6 N3 172.4(9) . . . . ?
C4 C3 C6 O1 176.1(6) . . . . ?
C2 C3 C6 O1 -7.6(10) . . . . ?
N3 N2 C7 O1 0.8(9) . . . . ?
N3 N2 C7 C10 177.9(7) . . . . ?
C6 O1 C7 N2 -0.5(8) . . . . ?
C6 O1 C7 C10 -178.1(6) . . . . ?
C12 N1 C8 C9 -0.6(9) . . . . ?
Cu1 N1 C8 C9 179.0(5) . . . . ?
N1 C8 C9 C10 0.7(10) . . . . ?
C8 C9 C10 C11 -1.3(10) . . . . ?
C8 C9 C10 C7 176.