
#######################################################################
#
#                 Cambridge Crystallographic Data Centre
#                                CCDC
#
#######################################################################
#
# If this CIF has been generated from an entry in the Cambridge
# Structural Database, then it will include bibliographic, chemical,
# crystal, experimental, refinement or atomic coordinate data resulting
# from the CCDC's data processing and validation procedures.
#
#######################################################################

data_CSD_CIF_KAXSEI
_audit_creation_date 2006-02-03
_audit_creation_method CSD-ConQuest-V1
_database_code_CSD KAXSEI
_database_code_depnum_ccdc_archive 'CCDC 273255'
_chemical_formula_sum 'C7 H7 F2 I1'
_chemical_formula_moiety
;
C7 H7 F2 I1
;
_journal_coden_Cambridge 1336
_journal_volume 7
_journal_year 2005
_journal_page_first 3961
_journal_name_full 'Org.Lett. '
loop_
_publ_author_name
"Chengfeng Ye"
"B.Twamley"
"J.M.Shreeve"
_chemical_name_systematic
;
1-(Difluoroiodo)-4-methylbenzene
;
_chemical_name_common
;
Teaching Subset: Fundamental Chemistry
;
_chemical_melting_point 378
_cell_volume   1509.544
_exptl_crystal_colour 'colorless'
_exptl_crystal_density_diffrn 2.253
_exptl_special_details
;
Melting point range 378-379K

;
_exptl_crystal_description 'needle'
_diffrn_ambient_temperature 87
#These two values have been output from a single CSD field.
_refine_ls_R_factor_gt 0.0228
_refine_ls_wR_factor_gt 0.0228
_symmetry_cell_setting orthorhombic
_symmetry_space_group_name_H-M 'P c a 21'
_symmetry_Int_Tables_number 29
loop_
_symmetry_equiv_pos_site_id
_symmetry_equiv_pos_as_xyz
1 x,y,z
2 -x,-y,1/2+z
3 1/2+x,-y,z
4 1/2-x,y,1/2+z
_cell_length_a 17.9460(7)
_cell_length_b 11.4823(5)
_cell_length_c 7.3257(3)
_cell_angle_alpha 90
_cell_angle_beta 90
_cell_angle_gamma 90
_cell_formula_units_Z 8
loop_
_atom_type_symbol
_atom_type_radius_bond
C 0.68
H 0.23
F 0.64
I 1.40
loop_
_atom_site_label
_atom_site_type_symbol
_atom_site_fract_x
_atom_site_fract_y
_atom_site_fract_z
C1 C 0.4336(2) 0.1352(4) 0.3064(8)
C2 C 0.4702(3) 0.0369(4) 0.3670(6)
H1 H 0.44320 -0.02920 0.40800
C3 C 0.5477(3) 0.0371(4) 0.3668(6)
H2 H 0.57370 -0.02980 0.40880
C4 C 0.5881(2) 0.1343(4) 0.3056(8)
C5 C 0.5491(3) 0.2307(5) 0.2498(6)
H3 H 0.57590 0.29790 0.21190
C6 C 0.4716(3) 0.2330(4) 0.2468(6)
H4 H 0.44550 0.29980 0.20500
C7 C 0.6726(3) 0.1327(5) 0.3074(11)
H5 H 0.69100 0.10240 0.19060
H6 H 0.69010 0.08270 0.40690
H7 H 0.69140 0.21200 0.32560
F1 F 0.32478(16) 0.1125(3) 0.5745(4)
F2 F 0.32703(16) 0.1563(3) 0.0317(4)
I1 I 0.317146(14) 0.13483(3) 0.30084(4)
C8 C 0.4214(3) 0.4129(4) 0.8513(6)
C9 C 0.4285(3) 0.3079(4) 0.7624(6)
H8 H 0.38590 0.26620 0.72140
C10 C 0.5005(3) 0.2646(4) 0.7344(7)
H9 H 0.50710 0.19280 0.67200
C11 C 0.5629(2) 0.3257(4) 0.7971(8)
C12 C 0.5532(3) 0.4322(5) 0.8857(7)
H10 H 0.59530 0.47450 0.92830
C13 C 0.4813(2) 0.4765(4) 0.9115(7)
H11 H 0.47410 0.54950 0.96980
C14 C 0.6406(3) 0.2766(5) 0.7789(8)
H12 H 0.63860 0.20270 0.71200
H13 H 0.66170 0.26320 0.90050
H14 H 0.67210 0.33190 0.71220
F3 F 0.33216(17) 0.4155(3) 1.1625(4)
F4 F 0.30841(16) 0.5317(4) 0.6498(5)
I2 I 0.313975(15) 0.47264(3) 0.90955(4)
#END
