
#######################################################################
#
#                 Cambridge Crystallographic Data Centre
#                                CCDC
#
#######################################################################
#
# If this CIF has been generated from an entry in the Cambridge
# Structural Database, then it will include bibliographic, chemical,
# crystal, experimental, refinement or atomic coordinate data resulting
# from the CCDC's data processing and validation procedures.
#
#######################################################################

data_CSD_CIF_KAZXIU
_audit_creation_date 2012-09-26
_audit_creation_method CSD-ConQuest-V1
_database_code_CSD KAZXIU
_database_code_depnum_ccdc_archive 'CCDC 891712'
_chemical_formula_sum 'C20 H36 I5 K1 N2 O6'
_chemical_formula_moiety
;
C18 H36 K1 N2 O6 1+,C2 I4,I1 1-
;
_journal_coden_Cambridge 1147
_journal_volume 12
_journal_year 2012
_journal_page_first 2759
_journal_name_full 'Cryst.Growth Des. '
loop_
_publ_author_name
"R.D.Walsh"
"J.M.Smith"
"T.W.Hanks"
"W.T.Pennington"
_chemical_name_systematic
;
(4,7,13,16,21,24-Hexaoxa-1,10-diazabicyclo[8.8.8]hexacosane)-potassium iodide 
tetraiodoethene
;
_chemical_name_common
;
(2,2,2-Cryptand)-potassium iodide tetraiodoethene; Teaching Subset: 
Fundamental Chemistry, Symmetry
;
_cell_volume   6589.904
_exptl_crystal_density_diffrn 2.165
_diffrn_ambient_temperature 293
#These two values have been output from a single CSD field.
_refine_ls_R_factor_gt 0.0448
_refine_ls_wR_factor_gt 0.0448
_symmetry_cell_setting monoclinic
_symmetry_space_group_name_H-M 'C 2/c'
_symmetry_Int_Tables_number 15
loop_
_symmetry_equiv_pos_site_id
_symmetry_equiv_pos_as_xyz
1 x,y,z
2 -x,y,1/2-z
3 1/2+x,1/2+y,z
4 1/2-x,1/2+y,1/2-z
5 -x,-y,-z
6 x,-y,-1/2+z
7 -1/2-x,-1/2-y,-z
8 -1/2+x,-1/2-y,-1/2+z
_cell_length_a 20.595(1)
_cell_length_b 12.2615(8)
_cell_length_c 26.1223(18)
_cell_angle_alpha 90
_cell_angle_beta 92.572(3)
_cell_angle_gamma 90
_cell_formula_units_Z 8
loop_
_atom_type_symbol
_atom_type_radius_bond
C 0.68
H 0.23
I 1.40
K 2.03
N 0.68
O 0.68
loop_
_atom_site_label
_atom_site_type_symbol
_atom_site_fract_x
_atom_site_fract_y
_atom_site_fract_z
I1 I 0.50000 0.11726(5) 0.25000
I2 I 0.25000 0.25000 0.50000
I3 I 0.37166(2) 0.30358(4) 0.26923(2)
I4 I 0.24308(2) 0.29600(4) 0.365283(17)
I5 I 0.14843(2) 0.47396(4) 0.286145(17)
I6 I 0.28487(3) 0.51924(5) 0.207461(19)
C1 C 0.2373(3) 0.3883(5) 0.2964(2)
C2 C 0.2859(3) 0.4005(6) 0.2659(3)
K1 K 0.57911(6) 0.24958(11) 0.53307(5)
O1 O 0.6074(2) 0.0615(3) 0.47804(17)
O2 O 0.5811(2) 0.0438(4) 0.58224(18)
O3 O 0.6662(2) 0.3851(4) 0.48455(17)
O4 O 0.6882(2) 0.3389(4) 0.59027(18)
O5 O 0.4655(2) 0.3145(4) 0.47913(18)
O6 O 0.4774(2) 0.3549(4) 0.58669(18)
N1 N 0.5762(2) 0.2591(4) 0.41947(19)
N2 N 0.5804(3) 0.2436(5) 0.6462(2)
C3 C 0.6092(4) 0.1627(6) 0.3998(2)
H1 H 0.65570 0.17240 0.40510
H2 H 0.59960 0.15750 0.36320
C4 C 0.5899(4) 0.0573(5) 0.4247(3)
H3 H 0.54340 0.04640 0.41970
H4 H 0.61180 -0.00330 0.40900
C5 C 0.5980(4) -0.0417(5) 0.5023(3)
H5 H 0.62280 -0.09760 0.48550
H6 H 0.55240 -0.06180 0.49950
C6 C 0.6197(3) -0.0340(5) 0.5569(3)
H7 H 0.61590 -0.10470 0.57310
H8 H 0.66500 -0.01210 0.55960
C7 C 0.5924(4) 0.0427(7) 0.6364(3)
H9 H 0.63860 0.04920 0.64470
H10 H 0.57750 -0.02590 0.65020
C8 C 0.5568(4) 0.1358(7) 0.6603(3)
H11 H 0.51100 0.13060 0.65020
H12 H 0.56080 0.12840 0.69730
C9 C 0.6096(3) 0.3581(6) 0.4034(3)
H13 H 0.58190 0.42050 0.40920
H14 H 0.61610 0.35380 0.36700
C10 C 0.6739(3) 0.3760(6) 0.4310(3)
H15 H 0.70260 0.31550 0.42430
H16 H 0.69360 0.44210 0.41840
C11 C 0.7253(3) 0.4114(6) 0.5123(3)
H17 H 0.74490 0.47500 0.49720
H18 H 0.75560 0.35110 0.51030
C12 C 0.7124(3) 0.4338(5) 0.5664(3)
H19 H 0.75220 0.45720 0.58440
H20 H 0.68090 0.49230 0.56820
C13 C 0.6803(4) 0.3577(8) 0.6436(3)
H21 H 0.65470 0.42310 0.64800
H22 H 0.72250 0.36840 0.66090
C14 C 0.6469(4) 0.2620(8) 0.6664(3)
H23 H 0.67240 0.19700 0.66040
H24 H 0.64610 0.27240 0.70320
C15 C 0.5081(3) 0.2606(6) 0.3996(3)
H25 H 0.48980 0.18830 0.40340
H26 H 0.50720 0.27750 0.36330
C16 C 0.4659(3) 0.3416(6) 0.4260(3)
H27 H 0.48280 0.41480 0.42190
H28 H 0.42200 0.33930 0.41100
C17 C 0.4231(3) 0.3845(6) 0.5053(3)
H29 H 0.38060 0.38530 0.48770
H30 H 0.44010 0.45830 0.50570
C18 C 0.4170(3) 0.3453(6) 0.5590(3)
H31 H 0.38440 0.38800 0.57560
H32 H 0.40320 0.26970 0.55860
C19 C 0.4715(4) 0.3305(9) 0.6397(3)
H33 H 0.45030 0.26050 0.64340
H34 H 0.44520 0.38570 0.65550
C20 C 0.5368(4) 0.3277(8) 0.6653(3)
H35 H 0.55710 0.39830 0.66120
H36 H 0.53220 0.31600 0.70160
#END
