
#######################################################################
#
#                 Cambridge Crystallographic Data Centre
#                                CCDC
#
#######################################################################
#
# If this CIF has been generated from an entry in the Cambridge
# Structural Database, then it will include bibliographic, chemical,
# crystal, experimental, refinement or atomic coordinate data resulting
# from the CCDC's data processing and validation procedures.
#
#######################################################################

data_CSD_CIF_KCEYPT
_audit_creation_date 1977-10-06
_audit_creation_method CSD-ConQuest-V1
_database_code_CSD KCEYPT
_database_code_depnum_ccdc_archive 'CCDC 1193852'
_chemical_formula_sum 'C2 H4 Cl3 K1 Pt1'
_chemical_formula_moiety
;
C2 H4 Cl3 Pt1 1-,K1 1+
;
_journal_coden_Cambridge 189
_journal_volume 6
_journal_year 1977
_journal_page_first 163
_journal_name_full 'Cryst.Struct.Commun. '
loop_
_publ_author_name
"P.G.Eller"
"R.R.Ryan"
"R.O.Schaeffer"
_chemical_name_systematic
;
Potassium trichloro-(ethylene)-platinum(ii)
;
_chemical_name_common
;
Teaching Subset: Fundamental Chemistry, Symmetry
;
_cell_volume    770.113
_exptl_crystal_density_diffrn 3.179
_diffrn_ambient_temperature ?
_diffrn_special_details
;
The study was carried out at room temperature,in the range 283-303K

;
#These two values have been output from a single CSD field.
_refine_ls_R_factor_gt 0.026
_refine_ls_wR_factor_gt 0.026
_symmetry_cell_setting orthorhombic
_symmetry_space_group_name_H-M 'P m a b'
_symmetry_Int_Tables_number 57
loop_
_symmetry_equiv_pos_site_id
_symmetry_equiv_pos_as_xyz
1 x,y,z
2 -x,1/2-y,z
3 1/2+x,-y,-z
4 1/2-x,1/2+y,-z
5 -x,-y,-z
6 x,-1/2+y,-z
7 -1/2-x,y,z
8 -1/2+x,-1/2-y,z
_cell_length_a 10.781(3)
_cell_length_b 15.600(4)
_cell_length_c 4.5790(7)
_cell_angle_alpha 90
_cell_angle_beta 90
_cell_angle_gamma 90
_cell_formula_units_Z 4
loop_
_atom_type_symbol
_atom_type_radius_bond
C 0.68
H 0.23
Cl 0.99
K 1.33
Pt 1.50
loop_
_atom_site_label
_atom_site_type_symbol
_atom_site_fract_x
_atom_site_fract_y
_atom_site_fract_z
Pt1 Pt 0.25000 0.11076 0.23470
Cl1 Cl 0.46300 0.11010 0.22350
Cl2 Cl 0.25000 0.25460 0.09400
C1 C 0.25000 0.00300 0.52400
C2 C 0.25000 -0.02800 0.24300
H1 H 0.34200 0.02900 0.62000
H2 H 0.16100 -0.04000 0.15000
K1 K 0.50000 0.25000 -0.28700
Cl1F Cl 0.03700 0.11010 0.22350
H1F H 0.15800 0.02900 0.62000
H2F H 0.33900 -0.04000 0.15000
#END
