
#######################################################################
#
#                 Cambridge Crystallographic Data Centre
#                                CCDC
#
#######################################################################
#
# If this CIF has been generated from an entry in the Cambridge
# Structural Database, then it will include bibliographic, chemical,
# crystal, experimental, refinement or atomic coordinate data resulting
# from the CCDC's data processing and validation procedures.
#
#######################################################################

data_CSD_CIF_KECRAL10
_audit_creation_date 1991-12-13
_audit_creation_method CSD-ConQuest-V1
_database_code_CSD KECRAL10
_database_code_depnum_ccdc_archive 'CCDC 1194095'
_chemical_formula_sum 'C18 H34 Cd3 N6 O5'
_chemical_formula_moiety
;
(C4 H10 O1)3n,n(C6 H4 Cd3 N6 O2)
;
_journal_coden_Cambridge 4
_journal_volume 113
_journal_year 1991
_journal_page_first 3045
_journal_name_full 'J.Am.Chem.Soc. '
loop_
_publ_author_name
"B.F.Abrahams"
"B.F.Hoskins"
"Jianping Liu"
"R.Robson"
_chemical_name_systematic
;
catena-(Diaqua-hexakis(\m~2~-cyano)-tri-cadmium tri-t-butyloxy clathrate)
;
_chemical_name_common
;
Teaching Subset: Fundamental Chemistry
;
_cell_volume   1567.660
_exptl_crystal_colour 'colorless'
_exptl_crystal_density_diffrn 1.59
_exptl_special_details
;
room temperature polymorph

;
_diffrn_ambient_temperature ?
_diffrn_special_details
;
The study was carried out at room temperature,in the range 283-303K

;
_refine_special_details
;
The butyloxy guest is disordered.

;
#These two values have been output from a single CSD field.
_refine_ls_R_factor_gt 0.033
_refine_ls_wR_factor_gt 0.033
loop_
_citation_database_id_CSD
_citation_special_details
KECRAL11 "is a reinterpretation of this cif"
_symmetry_cell_setting orthorhombic
_symmetry_space_group_name_H-M 'A m m 2'
_symmetry_Int_Tables_number 38
loop_
_symmetry_equiv_pos_site_id
_symmetry_equiv_pos_as_xyz
1 x,y,z
2 x,1/2+y,1/2+z
3 -x,y,z
4 -x,1/2+y,1/2+z
5 x,-y,z
6 x,1/2-y,1/2+z
7 -x,-y,z
8 -x,1/2-y,1/2+z
_cell_length_a 8.695(1)
_cell_length_b 8.548(1)
_cell_length_c 21.092(4)
_cell_angle_alpha 90
_cell_angle_beta 90
_cell_angle_gamma 90
_cell_formula_units_Z 2
loop_
_atom_type_symbol
_atom_type_radius_bond
C 0.68
Cd 1.69
N 0.68
O 0.68
loop_
_atom_site_label
_atom_site_type_symbol
_atom_site_fract_x
_atom_site_fract_y
_atom_site_fract_z
Cd1 Cd 0.00000 0.00000 0.00000
Cd2 Cd 0.50000 0.00000 -0.1648(1)
Cd3 Cd 0.50000 0.00000 0.1675(1)
C1 C 0.2942(6) 0.00000 -0.1074(4)
N1 N 0.1895(6) 0.00000 -0.0748(4)
C2 C 0.1729(7) 0.00000 0.0742(5)
N2 N 0.2745(7) 0.00000 0.1082(5)
C3 C 0.50000 -0.2060(7) -0.2249(5)
N3 N 0.50000 0.1962(7) 0.2382(4)
O1 O 0.00000 -0.2724(6) 0.0038(7)
C4? C 0.4661(8) -0.50000 0.0026(8)
O2? O 0.2993(8) -0.50000 -0.0115(7)
C5? C 0.50000 -0.6459(8) 0.0258(8)
C6? C 0.50000 -0.50000 0.0548(8)
C7? C 0.50000 -0.6226(8) -0.0586(8)
C8? C 0.50000 -0.50000 -0.0891(8)
C9? C 0.00000 -0.50000 0.1633(7)
O3? O 0.0471(8) -0.50000 0.0938(7)
C10? C -0.0540(8) -0.6699(8) 0.1711(7)
C11? C 0.1450(8) -0.50000 0.2024(8)
C12? C 0.00000 -0.50000 -0.1486(7)
O4? O 0.0596(8) -0.50000 -0.0877(7)
C13? C -0.1160(8) -0.3814(8) -0.1763(7)
C14? C 0.1521(8) -0.50000 -0.1718(8)
N1B N -0.1895(6) 0.00000 -0.0748(4)
C2B C -0.1729(7) 0.00000 0.0742(5)
O1D O 0.00000 0.2724(6) 0.0038(7)
C1B C 0.7058(6) 0.00000 -0.1074(4)
C3D C 0.50000 0.2060(7) -0.2249(5)
N2B N 0.7255(7) 0.00000 0.1082(5)
N3D N 0.50000 -0.1962(7) 0.2382(4)
N3A N 0.50000 -0.3038(7) -0.2618(4)
C3A C 0.50000 0.2940(7) 0.2751(5)
C1B* C -0.2942(6) 0.00000 -0.1074(4)
N2B* N -0.2745(7) 0.00000 0.1082(5)
N1B* N 0.8105(6) 0.00000 -0.0748(4)
N3E N 0.50000 0.3038(7) -0.2618(4)
C2B* C 0.8271(7) 0.00000 0.0742(5)
C3E C 0.50000 -0.2940(7) 0.2751(5)
Cd3A Cd 0.50000 -0.50000 -0.3325(1)
Cd2A Cd 0.50000 0.50000 0.3352(1)
Cd3A* Cd 0.50000 0.50000 -0.3325(1)
Cd2A* Cd 0.50000 -0.50000 0.3352(1)
N2A N 0.2745(7) -0.50000 -0.3918(5)
N2C N 0.7255(7) -0.50000 -0.3918(5)
N3E* N 0.50000 -0.6962(7) -0.2618(4)
C1A C 0.2942(6) 0.50000 0.3926(4)
C1C C 0.7058(6) 0.50000 0.3926(4)
C3E* C 0.50000 0.7060(7) 0.2751(5)
C2A C 0.1729(7) -0.50000 -0.4258(5)
C2C C 0.8271(7) -0.50000 -0.4258(5)
N1A N 0.1895(6) 0.50000 0.4252(4)
N1C N 0.8105(6) 0.50000 0.4252(4)
Cd1A Cd 0.00000 -0.50000 -0.50000
Cd1A* Cd 1.00000 -0.50000 -0.50000
Cd1A** Cd 0.00000 0.50000 0.50000
Cd1A*** Cd 1.00000 0.50000 0.50000
N1A* N 0.1895(6) -0.50000 -0.5748(4)
N1C* N -0.1895(6) -0.50000 -0.5748(4)
C2C* C -0.1729(7) -0.50000 -0.4258(5)
O1A O 0.00000 -0.7724(6) -0.4962(7)
O1E O 0.00000 -0.2276(6) -0.4962(7)
#END
