
#######################################################################
#
#                 Cambridge Crystallographic Data Centre
#                                CCDC
#
#######################################################################
#
# If this CIF has been generated from an entry in the Cambridge
# Structural Database, then it will include bibliographic, chemical,
# crystal, experimental, refinement or atomic coordinate data resulting
# from the CCDC's data processing and validation procedures.
#
#######################################################################

data_CSD_CIF_KEDKOT
_audit_creation_date 1990-07-27
_audit_creation_method CSD-ConQuest-V1
_database_code_CSD KEDKOT
_database_code_depnum_ccdc_archive 'CCDC 1194190'
_database_code_depnum_ccdc_fiz 'CSD 53855'
_chemical_formula_sum 'C21 H32 O14'
_chemical_formula_moiety
;
C21 H22 O9,5(H2 O1)
;
_journal_coden_Cambridge 179
_journal_volume 28
_journal_year 1989
_journal_page_first 1528
_journal_name_full 'Angew.Chem.,Int.Ed. '
loop_
_publ_author_name
"H.W.Rauwald"
"K.Lohse"
"J.W.Bats"
_chemical_name_systematic
;
(10R,1'S)-10-(\b-D-Glucopyranosyl)-1,8-dihydroxy-3-hydroxymethyl-9(10H)-anthra
cenone pentahydrate
;
_chemical_name_common
;
Aloin B pentahydrate; Teaching Subset: Fundamental Chemistry
;
_cell_volume   3077.401
_exptl_crystal_colour 'yellow-brown'
_exptl_special_details
;
biological activity
No study temperature is reported

;
_diffrn_ambient_temperature ?
_diffrn_special_details
;
The study was carried out at room temperature,in the range 283-303K

;
_refine_special_details
;
The crystal shows at least 5 positionally disordered water molecules; 
C15,C3',O2',O3' and O4' also show some disorder.
;
#These two values have been output from a single CSD field.
_refine_ls_R_factor_gt 0.146
_refine_ls_wR_factor_gt 0.146
_chemical_compound_source
;
Aloe barbadensis and capensis
;
_symmetry_cell_setting hexagonal
_symmetry_space_group_name_H-M 'P 3 2 1'
_symmetry_Int_Tables_number 150
loop_
_symmetry_equiv_pos_site_id
_symmetry_equiv_pos_as_xyz
1 x,y,z
2 -y,x-y,z
3 -x+y,-x,z
4 y,x,-z
5 x-y,-y,-z
6 -x,-x+y,-z
_cell_length_a 17.67(1)
_cell_length_b 17.67(1)
_cell_length_c 11.381(4)
_cell_angle_alpha 90
_cell_angle_beta 90
_cell_angle_gamma 120
_cell_formula_units_Z 6
loop_
_atom_type_symbol
_atom_type_radius_bond
C 0.68
H 0.23
O 0.68
loop_
_atom_site_label
_atom_site_type_symbol
_atom_site_fract_x
_atom_site_fract_y
_atom_site_fract_z
O1 O 0.9458(9) 0.3892(8) 0.855(1)
O2 O 0.842(1) 0.4154(9) 0.973(1)
O3 O 0.7535(8) 0.4415(8) 1.135(1)
O4 O 0.734(1) 0.702(1) 1.234(2)
O5 O 0.8087(7) 0.5750(9) 0.709(1)
O6 O 0.978(1) 0.806(1) 0.667(2)
O7 O 0.896(2) 0.783(2) 0.459(2)
O8 O 0.724(1) 0.639(1) 0.447(1)
O9 O 0.652(3) 0.424(3) 0.695(4)
C1 C 0.971(1) 0.605(1) 0.800(1)
C2 C 1.034(1) 0.636(1) 0.716(2)
C3 C 1.076(1) 0.594(2) 0.685(2)
C4 C 1.037(1) 0.501(2) 0.729(1)
C5 C 0.977(1) 0.469(2) 0.811(2)
C6 C 0.938(1) 0.5248(9) 0.843(1)
C7 C 0.877(1) 0.491(1) 0.939(2)
C8 C 0.843(1) 0.541(1) 0.994(1)
C9 C 0.8842(9) 0.6345(9) 0.943(1)
C10 C 0.929(1) 0.661(1) 0.835(2)
C11 C 0.867(1) 0.695(1) 1.003(1)
C12 C 0.811(1) 0.670(1) 1.104(2)
C13 C 0.777(1) 0.587(1) 1.139(1)
C14 C 0.790(1) 0.522(1) 1.090(1)
C15 C 0.804(1) 0.743(1) 1.173(2)
C16 C 0.868(1) 0.666(1) 0.745(1)
C17 C 0.914(1) 0.723(2) 0.632(2)
C18 C 0.852(3) 0.713(2) 0.546(3)
C19 C 0.786(2) 0.630(2) 0.517(2)
C20 C 0.745(1) 0.568(1) 0.635(2)
C21 C 0.683(2) 0.483(2) 0.585(2)
H1 H 1.05760 0.70000 0.68390
H2 H 1.12600 0.61490 0.62740
H3 H 1.05930 0.46180 0.69670
H4 H 0.97890 0.71640 0.83570
H5 H 0.88860 0.75580 0.97040
H6 H 0.73400 0.56840 1.20250
H7 H 0.80280 0.78540 1.11460
H8 H 0.85890 0.78020 1.22150
H9 H 0.83660 0.69450 0.77680
H10 H 0.63490 0.48480 0.54570
H11 H 0.71210 0.46350 0.52860
H12 H 0.94770 0.70190 0.58820
H13 H 0.80650 0.72310 0.58070
H14 H 0.80870 0.59870 0.46960
H15 H 0.71410 0.58480 0.69070
O10? O 0.323(2) 0.708(2) 0.650(3)
#END
