####################################################################### 
# 
# This file contains crystal structure data downloaded from the 
# Cambridge Structural Database (CSD) hosted by the Cambridge 
# Crystallographic Data Centre (CCDC).
# 
# Full information about CCDC data access policies and citation 
# guidelines are available at http://www.ccdc.cam.ac.uk/access/V1 
# 
# Audit and citation data items may have been added by the CCDC. 
# Please retain this information to preserve the provenance of 
# this file and to allow appropriate attribution of the data. 
# 
#######################################################################

data_2a
_audit_block_doi                 10.5517/ccy8grd
_database_code_depnum_ccdc_archive 'CCDC 872084'
loop_
_citation_id
_citation_doi
_citation_year
1 10.1039/c2dt30623a 2012
_audit_update_record             
;
2012-03-19 deposited with the CCDC.	2024-07-10 downloaded from the CCDC.
;
#TrackingRef '- complete_cif.cif'


_audit_creation_method           SHELXL-97
_chemical_name_systematic        
;
?
;
_chemical_name_common            2a
_chemical_melting_point          ?
_chemical_formula_moiety         'C18 H18 N3 O6 Al Ag, P F6, 4(C6 H6)'
_chemical_formula_sum            'C42 H42 Ag Al F6 N3 O6 P'
_chemical_formula_weight         964.61

loop_
_atom_type_symbol
_atom_type_description
_atom_type_scat_dispersion_real
_atom_type_scat_dispersion_imag
_atom_type_scat_source
C C 0.0033 0.0016 'International Tables Vol C Tables 4.2.6.8 and 6.1.1.4'
H H 0.0000 0.0000 'International Tables Vol C Tables 4.2.6.8 and 6.1.1.4'
N N 0.0061 0.0033 'International Tables Vol C Tables 4.2.6.8 and 6.1.1.4'
O O 0.0106 0.0060 'International Tables Vol C Tables 4.2.6.8 and 6.1.1.4'
F F 0.0171 0.0103 'International Tables Vol C Tables 4.2.6.8 and 6.1.1.4'
Al Al 0.0645 0.0514 'International Tables Vol C Tables 4.2.6.8 and 6.1.1.4'
P P 0.1023 0.0942 'International Tables Vol C Tables 4.2.6.8 and 6.1.1.4'
Ag Ag -0.8971 1.1015 'International Tables Vol C Tables 4.2.6.8 and 6.1.1.4'

_symmetry_cell_setting           monoclinic
_symmetry_space_group_name_H-M   'P 21/c'
_symmetry_space_group_name_Hall  '-P 2ybc'

loop_
_symmetry_equiv_pos_as_xyz
'x, y, z'
'-x, y+1/2, -z+1/2'
'-x, -y, -z'
'x, -y-1/2, z-1/2'

_cell_length_a                   11.8241(9)
_cell_length_b                   19.9619(15)
_cell_length_c                   18.6120(14)
_cell_angle_alpha                90.00
_cell_angle_beta                 100.8740(10)
_cell_angle_gamma                90.00
_cell_volume                     4314.1(6)
_cell_formula_units_Z            4
_cell_measurement_temperature    100(2)
_cell_measurement_reflns_used    5000
_cell_measurement_theta_min      2.56
_cell_measurement_theta_max      21.39

_exptl_crystal_description       block
_exptl_crystal_colour            colorless
_exptl_crystal_size_max          0.24
_exptl_crystal_size_mid          0.11
_exptl_crystal_size_min          0.06
_exptl_crystal_density_meas      ?
_exptl_crystal_density_diffrn    1.485
_exptl_crystal_density_method    'not measured'
_exptl_crystal_F_000             1968
_exptl_absorpt_coefficient_mu    0.600
_exptl_absorpt_correction_type   multi-scan
_exptl_absorpt_correction_T_min  0.8694
_exptl_absorpt_correction_T_max  0.9649
_exptl_absorpt_process_details   SADABS

_exptl_special_details           
;
?
;

_diffrn_ambient_temperature      100(2)
_diffrn_radiation_wavelength     0.71073
_diffrn_radiation_type           MoK\a
_diffrn_radiation_source         microsource
_diffrn_radiation_monochromator  'multilayer optics'
_diffrn_measurement_device_type  'CCD area detector'
_diffrn_measurement_method       'omega scans'
_diffrn_detector_area_resol_mean ?
_diffrn_standards_number         ?
_diffrn_standards_interval_count ?
_diffrn_standards_interval_time  ?
_diffrn_standards_decay_%        ?
_diffrn_reflns_number            50747
_diffrn_reflns_av_R_equivalents  0.0711
_diffrn_reflns_av_sigmaI/netI    0.0495
_diffrn_reflns_limit_h_min       -14
_diffrn_reflns_limit_h_max       14
_diffrn_reflns_limit_k_min       -25
_diffrn_reflns_limit_k_max       25
_diffrn_reflns_limit_l_min       -23
_diffrn_reflns_limit_l_max       23
_diffrn_reflns_theta_min         2.03
_diffrn_reflns_theta_max         26.61
_reflns_number_total             9003
_reflns_number_gt                7161
_reflns_threshold_expression     >2sigma(I)

_computing_data_collection       'BRUKER smart'
_computing_cell_refinement       'BRUKER saint'
_computing_data_reduction        'BRUKER saint'
_computing_structure_solution    'SHELXS-97 (Sheldrick, 1990)'
_computing_structure_refinement  'SHELXL-97 (Sheldrick, 1997)'
_computing_molecular_graphics    ?
_computing_publication_material  ?

_refine_special_details          
;
Refinement of F^2^ against ALL reflections. The weighted R-factor wR and
goodness of fit S are based on F^2^, conventional R-factors R are based
on F, with F set to zero for negative F^2^. The threshold expression of
F^2^ > 2sigma(F^2^) is used only for calculating R-factors(gt) etc. and is
not relevant to the choice of reflections for refinement. R-factors based
on F^2^ are statistically about twice as large as those based on F, and R-
factors based on ALL data will be even larger.
;

_refine_ls_structure_factor_coef Fsqd
_refine_ls_matrix_type           full
_refine_ls_weighting_scheme      calc
_refine_ls_weighting_details     
'calc w=1/[\s^2^(Fo^2^)+(0.0277P)^2^+2.4722P] where P=(Fo^2^+2Fc^2^)/3'
_atom_sites_solution_primary     direct
_atom_sites_solution_secondary   difmap
_atom_sites_solution_hydrogens   geom
_refine_ls_hydrogen_treatment    constr
_refine_ls_extinction_method     none
_refine_ls_extinction_coef       ?
_refine_ls_number_reflns         9003
_refine_ls_number_parameters     547
_refine_ls_number_restraints     0
_refine_ls_R_factor_all          0.0564
_refine_ls_R_factor_gt           0.0394
_refine_ls_wR_factor_ref         0.0902
_refine_ls_wR_factor_gt          0.0815
_refine_ls_goodness_of_fit_ref   1.066
_refine_ls_restrained_S_all      1.066
_refine_ls_shift/su_max          0.001
_refine_ls_shift/su_mean         0.000
_iucr_refine_instructions_details 
;
TITL c11_36 in P2(1)/c
CELL 0.71073 11.8241 19.9619 18.6120 90.000 100.874 90.000
ZERR 8.00 0.0009 0.0015 0.0014 0.000 0.001 0.000
LATT 1
SYMM -X, 0.5+Y, 0.5-Z
SFAC C H N O F AL P AG
UNIT 168 168 12 24 24 4 4 4
TEMP 173.160
L.S. 8
BOND
BOND$H
SIZE 0.24 0.11 0.06
ACTA
FMAP 2
PLAN 20
WGHT 0.0277 2.4722
FVAR 0.23714
MOLE 1
AG1 8 0.191766 0.196667 0.055869 11.00000 0.02565 0.02257 =
0.03363 0.00171 -0.00686 0.00406
AL1 6 0.678250 0.081611 0.389220 11.00000 0.01833 0.01584 =
0.01889 0.00110 0.00151 0.00029
P1 7 0.400923 -0.140902 0.205516 11.00000 0.03836 0.02410 =
0.03247 -0.00084 0.01588 -0.00338
O1 4 0.720401 0.106313 0.487956 11.00000 0.01894 0.01842 =
0.02028 0.00005 0.00237 -0.00208
O2 4 0.768634 0.150732 0.361461 11.00000 0.02488 0.01767 =
0.02046 0.00001 0.00392 -0.00286
O3 4 0.550480 0.137634 0.382299 11.00000 0.02354 0.02056 =
0.01971 -0.00088 0.00048 0.00287
O4 4 0.637383 0.057232 0.291100 11.00000 0.02135 0.01909 =
0.02075 -0.00061 0.00016 0.00092
O5 4 0.587058 0.012069 0.414967 11.00000 0.01854 0.01781 =
0.02525 0.00044 0.00354 0.00032
O6 4 0.806705 0.024348 0.401439 11.00000 0.01868 0.01773 =
0.02302 0.00257 0.00348 0.00103
N1 3 0.002118 0.224739 0.044297 11.00000 0.02688 0.03564 =
0.03575 0.00505 0.00290 0.00960
N2 3 0.319471 0.165370 0.149803 11.00000 0.02854 0.03886 =
0.02774 0.00325 -0.00073 0.00541
N3 3 0.240482 0.303279 0.021608 11.00000 0.04964 0.02335 =
0.04479 -0.00433 0.01550 -0.00444
C1 1 0.807023 0.155571 0.599140 11.00000 0.02194 0.02983 =
0.02090 -0.00232 0.00286 -0.00106
AFIX 137
H1A 2 0.733684 0.160883 0.613469 11.00000 -1.50000
H1B 2 0.854746 0.193598 0.615376 11.00000 -1.50000
H1C 2 0.843595 0.115594 0.620886 11.00000 -1.50000
AFIX 0
C2 1 0.790071 0.150370 0.518186 11.00000 0.01275 0.01633 =
0.02379 0.00052 0.00095 0.00557
C3 1 0.850292 0.193017 0.477556 11.00000 0.01512 0.01935 =
0.02378 -0.00061 0.00136 -0.00012
C4 1 0.833241 0.192663 0.400050 11.00000 0.01765 0.01674 =
0.02557 0.00342 0.00498 0.00357
C5 1 0.892991 0.242847 0.360888 11.00000 0.03182 0.02553 =
0.03053 0.00187 0.00928 -0.00575
AFIX 137
H5A 2 0.974354 0.234327 0.371103 11.00000 -1.50000
H5B 2 0.878417 0.287092 0.377195 11.00000 -1.50000
H5C 2 0.864628 0.239396 0.309181 11.00000 -1.50000
AFIX 0
C6 1 0.933019 0.239043 0.515688 11.00000 0.02256 0.02459 =
0.02773 0.00108 0.00462 0.00228
C7 1 0.382605 0.200262 0.339523 11.00000 0.02577 0.02907 =
0.02921 0.00456 0.00271 0.00680
AFIX 137
H7A 2 0.380142 0.201754 0.390760 11.00000 -1.50000
H7B 2 0.309473 0.185461 0.312681 11.00000 -1.50000
H7C 2 0.399165 0.244158 0.323145 11.00000 -1.50000
AFIX 0
C8 1 0.474386 0.152707 0.327058 11.00000 0.02037 0.01463 =
0.02766 0.00423 0.00382 -0.00266
C9 1 0.474603 0.125635 0.256705 11.00000 0.01902 0.02469 =
0.02073 0.00437 -0.00190 0.00048
C10 1 0.555080 0.077153 0.242402 11.00000 0.02173 0.02006 =
0.02028 0.00248 0.00106 -0.00509
C11 1 0.542557 0.046223 0.167939 11.00000 0.03038 0.02294 =
0.02356 -0.00165 -0.00111 -0.00050
AFIX 137
H11A 2 0.611441 0.021996 0.164431 11.00000 -1.50000
H11B 2 0.530057 0.080793 0.131442 11.00000 -1.50000
H11C 2 0.478152 0.016069 0.160251 11.00000 -1.50000
AFIX 0
C12 1 0.388036 0.147377 0.197765 11.00000 0.02437 0.02647 =
0.02786 0.00087 0.00416 0.00125
C13 1 0.513538 -0.092877 0.441513 11.00000 0.02916 0.02266 =
0.03382 0.00024 0.01193 -0.00362
AFIX 137
H13A 2 0.446551 -0.066225 0.443323 11.00000 -1.50000
H13B 2 0.535094 -0.117102 0.486577 11.00000 -1.50000
H13C 2 0.496695 -0.123954 0.401559 11.00000 -1.50000
AFIX 0
C14 1 0.610250 -0.048384 0.430767 11.00000 0.02581 0.02059 =
0.01449 -0.00141 0.00464 -0.00174
C15 1 0.723854 -0.073963 0.437640 11.00000 0.02797 0.01618 =
0.01980 0.00062 0.00533 0.00106
C16 1 0.817232 -0.036053 0.421841 11.00000 0.02124 0.02298 =
0.01380 -0.00302 0.00094 0.00224
C17 1 0.934637 -0.066669 0.429799 11.00000 0.02268 0.02574 =
0.02762 0.00022 0.00299 0.00616
AFIX 137
H17A 2 0.982926 -0.038316 0.406809 11.00000 -1.50000
H17B 2 0.928605 -0.109948 0.406903 11.00000 -1.50000
H17C 2 0.967603 -0.071358 0.480783 11.00000 -1.50000
AFIX 0
C18 1 0.743748 -0.142028 0.459795 11.00000 0.03119 0.02697 =
0.02559 -0.00289 0.00855 0.00067
MOLE 2
C19 1 0.302813 0.022971 0.014755 11.00000 0.05981 0.02735 =
0.04550 -0.01311 -0.01180 0.00793
AFIX 43
H19 2 0.347465 -0.011700 0.038490 11.00000 -1.20000
AFIX 0
C20 1 0.189627 0.026649 0.018590 11.00000 0.07628 0.04476 =
0.04867 -0.01000 0.01642 -0.02600
AFIX 43
H20 2 0.157145 -0.004881 0.045398 11.00000 -1.20000
AFIX 0
C21 1 0.122188 0.078051 -0.017947 11.00000 0.03118 0.09128 =
0.07521 -0.05747 0.00051 -0.00538
AFIX 43
H21 2 0.044516 0.081466 -0.015634 11.00000 -1.20000
AFIX 0
C22 1 0.173504 0.124151 -0.057957 11.00000 0.08355 0.04128 =
0.03134 -0.01548 -0.02649 0.02542
AFIX 43
H22 2 0.130081 0.158270 -0.083745 11.00000 -1.20000
AFIX 0
C23 1 0.288389 0.118644 -0.058863 11.00000 0.09084 0.04302 =
0.02895 -0.00885 0.01651 -0.00877
AFIX 43
H23 2 0.323622 0.149744 -0.084657 11.00000 -1.20000
AFIX 0
C24 1 0.351135 0.068461 -0.022647 11.00000 0.04628 0.05156 =
0.05181 -0.02672 0.01129 0.00183
AFIX 43
H24 2 0.429288 0.065473 -0.023727 11.00000 -1.20000
AFIX 0
MOLE 3
C25 1 0.159571 0.056151 0.759709 11.00000 0.05081 0.04232 =
0.02885 -0.00526 0.00106 0.00211
AFIX 43
H25 2 0.179498 0.011386 0.768181 11.00000 -1.20000
AFIX 0
C26 1 0.238278 0.099468 0.742955 11.00000 0.03371 0.05385 =
0.02791 -0.00859 -0.00152 0.00428
AFIX 43
H26 2 0.311812 0.084213 0.740616 11.00000 -1.20000
AFIX 0
C27 1 0.211670 0.165065 0.729446 11.00000 0.06929 0.04809 =
0.02820 -0.00826 -0.00527 -0.02474
AFIX 43
H27 2 0.265705 0.194561 0.716961 11.00000 -1.20000
AFIX 0
C28 1 0.099961 0.187586 0.734771 11.00000 0.12694 0.03725 =
0.02677 -0.01867 -0.02437 0.03335
AFIX 43
H28 2 0.079472 0.232281 0.726366 11.00000 -1.20000
AFIX 0
C29 1 0.020876 0.141223 0.752950 11.00000 0.04004 0.10093 =
0.02783 -0.03140 -0.00946 0.02190
AFIX 43
H29 2 -0.052854 0.154796 0.757112 11.00000 -1.20000
AFIX 0
C30 1 0.053130 0.076515 0.764360 11.00000 0.04859 0.06753 =
0.02864 -0.01598 0.00520 -0.01361
AFIX 43
H30 2 0.000431 0.045515 0.775659 11.00000 -1.20000
AFIX 0
MOLE 4
C31 1 0.391643 -0.197992 -0.033956 11.00000 0.07989 0.04772 =
0.06828 0.02944 -0.02416 -0.03534
AFIX 43
H31 2 0.442323 -0.210762 0.008304 11.00000 -1.20000
AFIX 0
C32 1 0.406782 -0.220307 -0.104961 11.00000 0.05413 0.01848 =
0.12740 0.00710 0.03988 -0.00289
AFIX 43
H32 2 0.467934 -0.248193 -0.109744 11.00000 -1.20000
AFIX 0
C33 1 0.329855 -0.199904 -0.165433 11.00000 0.08025 0.02995 =
0.05156 -0.00985 0.02833 -0.02139
AFIX 43
H33 2 0.337750 -0.214972 -0.211512 11.00000 -1.20000
AFIX 0
C34 1 0.244422 -0.158972 -0.158952 11.00000 0.05854 0.04580 =
0.05972 -0.00580 0.00353 -0.02174
AFIX 43
H34 2 0.194581 -0.144536 -0.200844 11.00000 -1.20000
AFIX 0
C35 1 0.228077 -0.137806 -0.093216 11.00000 0.05081 0.05062 =
0.07164 -0.00472 0.02853 -0.01406
AFIX 43
H35 2 0.166548 -0.109412 -0.090801 11.00000 -1.20000
AFIX 0
C36 1 0.297570 -0.156286 -0.031027 11.00000 0.08853 0.04297 =
0.04131 -0.01397 0.02567 -0.02527
AFIX 43
H36 2 0.283391 -0.141493 0.013822 11.00000 -1.20000
AFIX 0
MOLE 5
C37 1 0.109236 0.083908 0.222573 11.00000 0.05514 0.05018 =
0.04601 0.00773 0.00214 0.00022
AFIX 43
H37 2 0.082127 0.099135 0.175234 11.00000 -1.20000
AFIX 0
C38 1 0.198095 0.038758 0.235759 11.00000 0.04617 0.04139 =
0.04623 -0.00398 0.01991 -0.00206
AFIX 43
H38 2 0.229846 0.022441 0.197161 11.00000 -1.20000
AFIX 0
C39 1 0.240026 0.017724 0.305482 11.00000 0.03586 0.03439 =
0.05330 0.00101 0.00850 0.00028
AFIX 43
H39 2 0.301834 -0.011860 0.314648 11.00000 -1.20000
AFIX 0
C40 1 0.190614 0.040404 0.362079 11.00000 0.07033 0.04866 =
0.03658 -0.00122 0.00953 -0.00040
AFIX 43
H40 2 0.218300 0.025545 0.409493 11.00000 -1.20000
AFIX 0
C41 1 0.101392 0.084489 0.349053 11.00000 0.07213 0.05529 =
0.05655 -0.01181 0.03543 0.00290
AFIX 43
H41 2 0.068280 0.099601 0.387596 11.00000 -1.20000
AFIX 0
C42 1 0.060092 0.106724 0.279458 11.00000 0.04865 0.05174 =
0.07855 -0.00360 0.01626 0.01459
AFIX 43
H42 2 -0.000708 0.137016 0.270647 11.00000 -1.20000
AFIX 0
MOLE 6
F1 5 0.359919 -0.207861 0.161691 11.00000 0.04425 0.03399 =
0.06178 -0.01719 0.02073 -0.01141
F2 5 0.493512 -0.183037 0.261187 11.00000 0.04104 0.05743 =
0.05754 0.01064 0.00768 0.00783
F3 5 0.307991 -0.152291 0.256171 11.00000 0.04397 0.04161 =
0.04375 0.00382 0.02443 0.00069
F4 5 0.309212 -0.098589 0.150108 11.00000 0.07473 0.05342 =
0.04017 0.01262 0.01357 0.02404
F5 5 0.494041 -0.129331 0.154726 11.00000 0.06170 0.04587 =
0.05267 -0.00976 0.03664 -0.01840
F6 5 0.444185 -0.074433 0.250478 11.00000 0.07920 0.03656 =
0.04930 -0.01502 0.02970 -0.01910
HKLF 4
;
loop_
_atom_site_label
_atom_site_type_symbol
_atom_site_fract_x
_atom_site_fract_y
_atom_site_fract_z
_atom_site_U_iso_or_equiv
_atom_site_adp_type
_atom_site_occupancy
_atom_site_symmetry_multiplicity
_atom_site_calc_flag
_atom_site_refinement_flags
_atom_site_disorder_assembly
_atom_site_disorder_group
Ag1 Ag 0.191766(19) 0.196667(11) 0.055869(13) 0.02891(7) Uani 1 1 d . . .
Al1 Al 0.67825(7) 0.08161(4) 0.38922(4) 0.01795(17) Uani 1 1 d . . .
P1 P 0.40092(7) -0.14090(4) 0.20552(4) 0.03045(19) Uani 1 1 d . . .
O1 O 0.72040(15) 0.10631(9) 0.48796(9) 0.0194(4) Uani 1 1 d . . .
O2 O 0.76863(16) 0.15073(9) 0.36146(10) 0.0210(4) Uani 1 1 d . . .
O3 O 0.55048(16) 0.13763(9) 0.38230(10) 0.0217(4) Uani 1 1 d . . .
O4 O 0.63738(15) 0.05723(9) 0.29110(10) 0.0209(4) Uani 1 1 d . . .
O5 O 0.58706(15) 0.01207(9) 0.41497(10) 0.0206(4) Uani 1 1 d . . .
O6 O 0.80670(15) 0.02435(9) 0.40144(10) 0.0199(4) Uani 1 1 d . . .
N1 N 0.0021(2) 0.22474(13) 0.04430(14) 0.0331(6) Uani 1 1 d . . .
N2 N 0.3195(2) 0.16537(13) 0.14980(14) 0.0325(6) Uani 1 1 d . . .
N