####################################################################### 
# 
# This file contains crystal structure data downloaded from the 
# Cambridge Structural Database (CSD) hosted by the Cambridge 
# Crystallographic Data Centre (CCDC).
# 
# Full information about CCDC data access policies and citation 
# guidelines are available at http://www.ccdc.cam.ac.uk/access/V1 
# 
# Audit and citation data items may have been added by the CCDC. 
# Please retain this information to preserve the provenance of 
# this file and to allow appropriate attribution of the data. 
# 
#######################################################################

data_IZE-1
_audit_block_doi                 10.5517/cctm3zh
_database_code_depnum_ccdc_archive 'CCDC 763157'
loop_
_citation_id
_citation_doi
_citation_year
1 10.1021/ic202085j 2012
_audit_update_record             
;
2010-01-25 deposited with the CCDC.	2024-07-10 downloaded from the CCDC.
;
#TrackingRef 'IZE-1.CIF'


_audit_creation_method           SHELXL-97
_chemical_name_systematic        
;
?
;
_chemical_name_common            Zn2(C18H6O8)(H2O)2
_chemical_melting_point          ?
_chemical_formula_moiety         ?
_chemical_formula_sum            'C18 H10 O10 Zn2'
_chemical_formula_weight         517.00

loop_
_atom_type_symbol
_atom_type_description
_atom_type_scat_dispersion_real
_atom_type_scat_dispersion_imag
_atom_type_scat_source
C C 0.0033 0.0016 'International Tables Vol C Tables 4.2.6.8 and 6.1.1.4'
H H 0.0000 0.0000 'International Tables Vol C Tables 4.2.6.8 and 6.1.1.4'
O O 0.0106 0.0060 'International Tables Vol C Tables 4.2.6.8 and 6.1.1.4'
Zn Zn 0.2839 1.4301 'International Tables Vol C Tables 4.2.6.8 and 6.1.1.4'

_symmetry_cell_setting           Trigonal
_symmetry_space_group_name_H-M   R-3m

loop_
_symmetry_equiv_pos_as_xyz
'x, y, z'
'-y, x-y, z'
'-x+y, -x, z'
'y, x, -z'
'x-y, -y, -z'
'-x, -x+y, -z'
'x+2/3, y+1/3, z+1/3'
'-y+2/3, x-y+1/3, z+1/3'
'-x+y+2/3, -x+1/3, z+1/3'
'y+2/3, x+1/3, -z+1/3'
'x-y+2/3, -y+1/3, -z+1/3'
'-x+2/3, -x+y+1/3, -z+1/3'
'x+1/3, y+2/3, z+2/3'
'-y+1/3, x-y+2/3, z+2/3'
'-x+y+1/3, -x+2/3, z+2/3'
'y+1/3, x+2/3, -z+2/3'
'x-y+1/3, -y+2/3, -z+2/3'
'-x+1/3, -x+y+2/3, -z+2/3'
'-x, -y, -z'
'y, -x+y, -z'
'x-y, x, -z'
'-y, -x, z'
'-x+y, y, z'
'x, x-y, z'
'-x+2/3, -y+1/3, -z+1/3'
'y+2/3, -x+y+1/3, -z+1/3'
'x-y+2/3, x+1/3, -z+1/3'
'-y+2/3, -x+1/3, z+1/3'
'-x+y+2/3, y+1/3, z+1/3'
'x+2/3, x-y+1/3, z+1/3'
'-x+1/3, -y+2/3, -z+2/3'
'y+1/3, -x+y+2/3, -z+2/3'
'x-y+1/3, x+2/3, -z+2/3'
'-y+1/3, -x+2/3, z+2/3'
'-x+y+1/3, y+2/3, z+2/3'
'x+1/3, x-y+2/3, z+2/3'

_cell_length_a                   19.0504(8)
_cell_length_b                   19.0504(8)
_cell_length_c                   32.392(3)
_cell_angle_alpha                90.00
_cell_angle_beta                 90.00
_cell_angle_gamma                120.00
_cell_volume                     10180.8(10)
_cell_formula_units_Z            9
_cell_measurement_temperature    293(2)
_cell_measurement_reflns_used    6706
_cell_measurement_theta_min      2.547
_cell_measurement_theta_max      25.605

_exptl_crystal_description       Block
_exptl_crystal_colour            Colorless
_exptl_crystal_size_max          0.28
_exptl_crystal_size_mid          0.24
_exptl_crystal_size_min          0.22
_exptl_crystal_density_meas      ?
_exptl_crystal_density_diffrn    0.759
_exptl_crystal_density_method    'not measured'
_exptl_crystal_F_000             2322
_exptl_absorpt_coefficient_mu    1.084
_exptl_absorpt_correction_type   multi-scan
_exptl_absorpt_correction_T_min  0.566
_exptl_absorpt_correction_T_max  0.716
_exptl_absorpt_process_details   'SADABS; Bruker, 2000'

_exptl_special_details           
;
?
;

_diffrn_ambient_temperature      293(2)
_diffrn_radiation_wavelength     0.71073
_diffrn_radiation_type           MoK\a
_diffrn_radiation_source         'fine-focus sealed tube'
_diffrn_radiation_monochromator  graphite
_diffrn_measurement_device_type  'CCD area detector'
_diffrn_measurement_method       'phi and omega scans'
_diffrn_detector_area_resol_mean ?
_diffrn_standards_number         ?
_diffrn_standards_interval_count ?
_diffrn_standards_interval_time  ?
_diffrn_standards_decay_%        ?
_diffrn_reflns_number            21169
_diffrn_reflns_av_R_equivalents  0.0529
_diffrn_reflns_av_sigmaI/netI    0.0308
_diffrn_reflns_limit_h_min       -24
_diffrn_reflns_limit_h_max       23
_diffrn_reflns_limit_k_min       -22
_diffrn_reflns_limit_k_max       24
_diffrn_reflns_limit_l_min       -24
_diffrn_reflns_limit_l_max       43
_diffrn_reflns_theta_min         2.14
_diffrn_reflns_theta_max         28.21
_reflns_number_total             3010
_reflns_number_gt                2183
_reflns_threshold_expression     >2sigma(I)

_computing_data_collection       'SMART (Bruker, 2000)'
_computing_cell_refinement       SMART
_computing_data_reduction        'SAINT (Bruker, 2000)'
_computing_structure_solution    'SHELXTL (Bruker, 2000)'
_computing_structure_refinement  SHELXTL
_computing_molecular_graphics    SHELXTL
_computing_publication_material  SHELXTL

loop_
_platon_squeeze_void_nr
_platon_squeeze_void_average_x
_platon_squeeze_void_average_y
_platon_squeeze_void_average_z
_platon_squeeze_void_volume
_platon_squeeze_void_count_electrons
_platon_squeeze_void_content
1 -0.033 -0.021 -0.001 6652 1833 ' '
_platon_squeeze_details          
;
# Note: Data are Listed for all Voids in the P1 Unit Cell
# i.e. Centre of Gravity, Solvent Accessible Volume,
# Recovered number of Electrons in the Void and
# Details about the Squeezed Material
;
_refine_special_details          
;
Refinement of F^2^ against ALL reflections. The weighted R-factor wR and
goodness of fit S are based on F^2^, conventional R-factors R are based
on F, with F set to zero for negative F^2^. The threshold expression of
F^2^ > 2sigma(F^2^) is used only for calculating R-factors(gt) etc. and is
not relevant to the choice of reflections for refinement. R-factors based
on F^2^ are statistically about twice as large as those based on F, and R-
factors based on ALL data will be even larger.

SQUEEZE routine of PLATON was applied to remove the contributions to the
scattering from the solvent molecules.

Checkcif output:

PLAT432_ALERT_2_A Short Inter X...Y Contact C2 .. C2 .. 2.40 Ang.
PLAT432_ALERT_2_A Short Inter X...Y Contact C2 .. C3 .. 2.78 Ang.
PLAT432_ALERT_2_A Short Inter X...Y Contact C3 .. C3 .. 2.40 Ang.
PLAT432_ALERT_2_A Short Inter X...Y Contact C4 .. C5 .. 2.62 Ang.
PLAT432_ALERT_2_A Short Inter X...Y Contact C5 .. C5 .. 1.15 Ang.

Due to the high degree of the structural symmetry, only a quarter of the
organic ligand, 5,5'-(ethyne-1,2-diyl)diisophthalate, is given during the
refinement. In fact, all of these carbon atoms referred in PLAT432 Alerts
belong to a single organic ligand. Platon mistakenly judges the contact
between the carbons from the symmetry-related quarters within a single
organic ligand as the inter-molecular contact.

PLAT430_ALERT_2_B Short Inter D...A Contact O1 .. O1 .. 2.82 Ang.
PLAT430_ALERT_2_B Short Inter D...A Contact O2 .. O2 .. 2.78 Ang.

These atoms are carbonxylate O atoms bound to two copper ions to form
paddle-wheel nodes. The corresponding distances in other paddle-wheel
compounds also range from 2.72 to 2.82 Ang.

PLAT049_ALERT_1_B Calculated Density less than 1.0 gcm-3 ......... 0.75

The unit cell includes a large region of disordered solvent molecules,
which could not be modeled as discrete atomic sites. We employed
PLATON/SQUEEZE to calculate the diffraction contribution of the
solvent molecules and, thereby, to produce a set of solvent-free d
iffraction intensities. The final density were calculated from
the SQUEEZE results, which is the density for the framework.

Final res file:

TITL 290423C_0m in R-3m
CELL 0.71073 19.0504 19.0504 32.3924 90.000 90.000 120.000
ZERR 9 0.0008 0.0008 0.0025 0.000 0.000 0.000
LATT 3
SYMM -Y, X-Y, Z
SYMM -X+Y, -X, Z
SYMM Y, X, -Z
SYMM X-Y, -Y, -Z
SYMM -X, -X+Y, -Z
SFAC C H O Zn
UNIT 162 90 90 18

REM Formula "Zn2(C18H6O8)(H2O)2"

L.S. 10
ACTA
BOND
BOND $H
FMAP 2
PLAN 5
WGHT 0.132900
FVAR 1.50805
ZN1 4 0.950025 0.475013 0.961757 10.50000 0.03857 0.04439 =
0.03749 0.00065 0.00131 0.01928
C1 1 0.904169 0.544647 1.030331 11.00000 0.03936 0.05142 =
0.05094 -0.01180 -0.00656 0.01683
C2 1 0.845914 0.565647 1.050257 11.00000 0.05480 0.05594 =
0.04920 -0.00346 -0.00618 0.03007
C3 1 0.862567 0.599408 1.089779 11.00000 0.05150 0.06663 =
0.05246 -0.00235 -0.01292 0.02332
AFIX 43
H3A 2 0.909883 0.609687 1.103255 11.00000 -1.20000
AFIX 0
C4 1 0.808756 0.617512 1.108827 10.50000 0.06098 0.08162 =
0.04832 0.00242 0.00121 0.04081
C5 1 0.826389 0.652779 1.150430 10.50000 0.05590 0.07902 =
0.06282 -0.01650 -0.00825 0.03951
C6 1 0.774538 0.549076 1.030437 10.50000 0.04858 0.06053 =
0.04923 -0.00568 -0.00284 0.03027
AFIX 43
H6A 2 0.763496 0.526992 1.004021 10.50000 -1.20000
AFIX 0
O1 3 0.963784 0.556020 1.050425 11.00000 0.04826 0.07170 =
0.05784 -0.01053 -0.00842 0.02773
O2 3 0.886261 0.515981 0.994489 11.00000 0.05762 0.06776 =
0.05158 -0.00936 -0.00894 0.03555
O3 3 0.891560 0.445780 0.908542 10.50000 0.06602 0.08443 =
0.04864 0.00109 0.00218 0.03301

HKLF 4

REM 290423C_0m in R-3m
REM R1 = 0.0595 for 2183 Fo > 4sig(Fo) and 0.0750 for all 3010 data
REM 76 parameters refined using 0 restraints

END

WGHT 0.1285 0.0000
REM Highest difference peak 1.147, deepest hole -0.495, 1-sigma level 0.092
Q1 1 0.9078 0.4539 0.8718 10.50000 0.05 0.70
Q2 1 0.7973 0.5945 1.1674 10.50000 0.05 0.53
Q3 1 0.8541 0.3906 0.9201 11.00000 0.05 0.47
Q4 1 0.8582 0.7164 1.1143 10.50000 0.05 0.44
Q5 1 0.8396 0.4198 0.9435 10.50000 0.05 0.40

;

_refine_ls_structure_factor_coef Fsqd
_refine_ls_matrix_type           full
_refine_ls_weighting_scheme      calc
_refine_ls_weighting_details     
'calc w=1/[\s^2^(Fo^2^)+(0.1329P)^2^+0.0000P] where P=(Fo^2^+2Fc^2^)/3'
_atom_sites_solution_primary     direct
_atom_sites_solution_secondary   difmap
_atom_sites_solution_hydrogens   geom
_refine_ls_hydrogen_treatment    constr
_refine_ls_extinction_method     none
_refine_ls_extinction_coef       ?
_refine_ls_number_reflns         3010
_refine_ls_number_parameters     76
_refine_ls_number_restraints     0
_refine_ls_R_factor_all          0.0750
_refine_ls_R_factor_gt           0.0595
_refine_ls_wR_factor_ref         0.2013
_refine_ls_wR_factor_gt          0.1823
_refine_ls_goodness_of_fit_ref   1.096
_refine_ls_restrained_S_all      1.096
_refine_ls_shift/su_max          0.001
_refine_ls_shift/su_mean         0.000

loop_
_atom_site_label
_atom_site_type_symbol
_atom_site_fract_x
_atom_site_fract_y
_atom_site_fract_z
_atom_site_U_iso_or_equiv
_atom_site_adp_type
_atom_site_occupancy
_atom_site_symmetry_multiplicity
_atom_site_calc_flag
_atom_site_refinement_flags
_atom_site_disorder_assembly
_atom_site_disorder_group
Zn1 Zn 0.95003(3) 0.475013(13) 0.961757(13) 0.0408(2) Uani 1 2 d S . .
C1 C 0.90417(18) 0.5446(2) 1.03033(10) 0.0498(7) Uani 1 1 d . . .
C2 C 0.84591(19) 0.5656(2) 1.05026(10) 0.0522(8) Uani 1 1 d . . .
C3 C 0.8626(2) 0.5994(2) 1.08978(10) 0.0596(9) Uani 1 1 d . . .
H3A H 0.9099 0.6097 1.1033 0.072 Uiso 1 1 calc R . .
C4 C 0.80876(16) 0.6175(3) 1.10883(16) 0.0613(13) Uani 1 2 d S . .
C5 C 0.82639(18) 0.6528(4) 1.15043(16) 0.0633(12) Uani 1 2 d S . .
C6 C 0.77454(15) 0.5491(3) 1.03044(14) 0.0515(10) Uani 1 2 d S . .
H6A H 0.7635 0.5270 1.0040 0.062 Uiso 1 2 calc SR . .
O1 O 0.96378(14) 0.55602(16) 1.05043(7) 0.0603(6) Uani 1 1 d . . .
O2 O 0.88626(14) 0.51598(14) 0.99449(7) 0.0571(6) Uani 1 1 d . . .
O3 O 0.8916(2) 0.44578(11) 0.90854(10) 0.0684(10) Uani 1 2 d S . .

loop_
_atom_site_aniso_label
_atom_site_aniso_U_11
_atom_site_aniso_U_22
_atom_site_aniso_U_33
_atom_site_aniso_U_23
_atom_site_aniso_U_13
_atom_site_aniso_U_12
Zn1 0.0386(3) 0.0444(3) 0.0375(3) 0.00065(9) 0.00131(17) 0.01928(15)
C1 0.0394(15) 0.0514(17) 0.0509(17) -0.0118(14) -0.0066(13) 0.0168(13)
C2 0.0548(18) 0.0559(18) 0.0492(17) -0.0035(14) -0.0062(14) 0.0301(16)
C3 0.0515(19) 0.067(2) 0.0525(18) -0.0024(15) -0.0129(15) 0.0233(16)
C4 0.061(2) 0.082(4) 0.048(3) 0.002(2) 0.0012(11) 0.0408(18)
C5 0.0559(18) 0.079(3) 0.063(3) -0.017(3) -0.0083(13) 0.0395(17)
C6 0.0486(17) 0.061(3) 0.049(2) -0.006(2) -0.0028(10) 0.0303(13)
O1 0.0483(13) 0.0717(16) 0.0578(13) -0.0105(12) -0.0084(10) 0.0277(12)
O2 0.0576(13) 0.0678(14) 0.0516(13) -0.0094(11) -0.0089(10) 0.0355(12)
O3 0.066(2) 0.0844(19) 0.0486(18) 0.0011(8) 0.0022(16) 0.0330(11)

_geom_special_details            
;
All esds (except the esd in the dihedral angle between two l.s. planes)
are estimated using the full covariance matrix. The cell esds are taken
into account individually in the estimation of esds in distances, angles
and torsion angles; correlations between esds in cell parameters are only
used when they are defined by crystal symmetry. An approximate (isotropic)
treatment of cell esds is used for estimating esds involving l.s. planes.
;

loop_
_geom_bond_atom_site_label_1
_geom_bond_atom_site_label_2
_geom_bond_distance
_geom_bond_site_symmetry_2
_geom_bond_publ_flag
Zn1 O3 1.975(3) . ?
Zn1 O2 2.039(2) 24 ?
Zn1 O2 2.039(2) . ?
Zn1 O1 2.043(2) 19_767 ?
Zn1 O1 2.043(2) 6_767 ?
Zn1 Zn1 2.9761(9) 19_767 ?
C1 O1 1.231(4) . ?
C1 O2 1.255(3) . ?
C1 C2 1.501(4) . ?
C2 C6 1.390(4) . ?
C2 C3 1.396(4) . ?
C3 C4 1.380(5) . ?
C3 H3A 0.9300 . ?
C4 C3 1.380(5) 23_655 ?
C4 C5 1.468(7) . ?
C5 C5 1.147(10) 25_667 ?
C6 C2 1.390(4) 23_655 ?
C6 H6A 0.9300 . ?
O1 Zn1 2.043(2) 19_767 ?

loop_
_geom_angle_atom_site_label_1
_geom_angle_atom_site_label_2
_geom_angle_atom_site_label_3
_geom_angle
_geom_angle_site_symmetry_1
_geom_angle_site_symmetry_3
_geom_angle_publ_flag
O3 Zn1 O2 101.64(10) . 24 ?
O3 Zn1 O2 101.64(9) . . ?
O2 Zn1 O2 85.80(14) 24 . ?
O3 Zn1 O1 99.87(10) . 19_767 ?
O2 Zn1 O1 89.37(10) 24 19_767 ?
O2 Zn1 O1 158.48(10) . 19_767 ?
O3 Zn1 O1 99.87(10) . 6_767 ?
O2 Zn1 O1 158.48(10) 24 6_767 ?
O2 Zn1 O1 89.37(10) . 6_767 ?
O1 Zn1 O1 87.48(15) 19_767 6_767 ?
O3 Zn1 Zn1 175.58(11) . 19_767 ?
O2 Zn1 Zn1 81.55(6) 24 19_767 ?
O2 Zn1 Zn1 81.55(6) . 19_767 ?
O1 Zn1 Zn1 77.00(7) 19_767 19_767 ?
O1 Zn1 Zn1 77.00(6) 6_767 19_767 ?
O1 C1 O2 126.3(3) . . ?
O1 C1 C2 117.8(3) . . ?
O2 C1 C2 115.9(3) . . ?
C6 C2 C3 120.0(3) . . ?
C6 C2 C1 120.7(3) . . ?
C3 C2 C1 119.3(3) . . ?
C4 C3 C2 119.9(3) . . ?
C4 C3 H3A 120.0 . . ?
C2 C3 H3A 120.0 . . ?
C3 C4 C3 120.4(5) . 23_655 ?
C3 C4 C5 119.8(2) . . ?
C3 C4 C5 119.8(2) 23_655 . ?
C5 C5 C4 179.8(8) 25_667 . ?
C2 C6 C2 119.7(4) . 23_655 ?
C2 C6 H6A 120.1 . . ?
C2 C6 H6A 120.1 23_655 . ?
C1 O1 Zn1 130.7(2) . 19_767 ?
C1 O2 Zn1 124.3(2) . . ?

_diffrn_measured_fraction_theta_max 0.986
_diffrn_reflns_theta_full        28.21
_diffrn_measured_fraction_theta_full 0.986
_refine_diff_density_max         1.147
_refine_diff_density_min         -0.495
_refine_diff_density_rms         0.092
