
#######################################################################
#
#                 Cambridge Crystallographic Data Centre
#                                CCDC
#
#######################################################################
#
# If this CIF has been generated from an entry in the Cambridge
# Structural Database, then it will include bibliographic, chemical,
# crystal, experimental, refinement or atomic coordinate data resulting
# from the CCDC's data processing and validation procedures.
#
#######################################################################

data_CSD_CIF_KEFRAP
_audit_creation_date 2006-05-04
_audit_creation_method CSD-ConQuest-V1
_database_code_CSD KEFRAP
_database_code_depnum_ccdc_archive 'CCDC 245014'
_chemical_formula_sum 'C13 H10 O2'
_chemical_formula_moiety
;
C13 H10 O2
;
_journal_coden_Cambridge 155
_journal_volume 359
_journal_year 2006
_journal_page_first 1291
_journal_name_full 'Inorg.Chim.Acta '
loop_
_publ_author_name
"K.Saraswat"
"R.N.Prasad"
"R.Ratnani"
"J.E.Drake"
"M.B.Hursthouse"
"M.E.Light"
_chemical_name_systematic
;
2-Hydroxybenzophenone
;
_chemical_name_common
;
Teaching Subset: Fundamental Chemistry
;
_cell_volume    946.040
_exptl_crystal_colour 'pale yellow'
_exptl_crystal_density_diffrn 1.391
_exptl_crystal_description 'plate'
_diffrn_ambient_temperature 120
#These two values have been output from a single CSD field.
_refine_ls_R_factor_gt 0.0688
_refine_ls_wR_factor_gt 0.0688
_symmetry_cell_setting monoclinic
_symmetry_space_group_name_H-M 'P 21/n'
_symmetry_Int_Tables_number 14
loop_
_symmetry_equiv_pos_site_id
_symmetry_equiv_pos_as_xyz
1 x,y,z
2 1/2-x,1/2+y,1/2-z
3 -x,-y,-z
4 -1/2+x,-1/2-y,-1/2+z
_cell_length_a 3.978(3)
_cell_length_b 20.149(18)
_cell_length_c 11.834(17)
_cell_angle_alpha 90
_cell_angle_beta 94.15(10)
_cell_angle_gamma 90
_cell_formula_units_Z 4
loop_
_atom_type_symbol
_atom_type_radius_bond
C 0.68
H 0.23
O 0.68
loop_
_atom_site_label
_atom_site_type_symbol
_atom_site_fract_x
_atom_site_fract_y
_atom_site_fract_z
O1 O 0.1469(5) 0.09920(12) 0.5602(2)
O2 O 0.2603(5) 0.22352(10) 0.58686(19)
C1 C 0.2875(7) 0.10572(14) 0.4603(3)
C2 C 0.3898(7) 0.16772(14) 0.4206(3)
C3 C 0.5439(7) 0.16953(15) 0.3182(3)
C4 C 0.5878(8) 0.11302(15) 0.2574(3)
C5 C 0.4771(7) 0.05302(16) 0.2970(3)
C6 C 0.3242(7) 0.04930(15) 0.3964(3)
C7 C 0.3467(7) 0.22741(14) 0.4885(3)
C8 C 0.4035(7) 0.29474(14) 0.4420(3)
C9 C 0.5788(8) 0.34020(14) 0.5129(3)
C10 C 0.6241(8) 0.40402(15) 0.4755(3)
C11 C 0.4894(8) 0.42353(16) 0.3698(3)
C12 C 0.3120(8) 0.37901(15) 0.3004(3)
C13 C 0.2703(8) 0.31467(16) 0.3359(3)
H1 H 0.139(9) 0.137(2) 0.590(3)
H2 H 0.609(6) 0.2092(13) 0.287(2)
H3 H 0.688(7) 0.1152(14) 0.188(3)
H4 H 0.508(6) 0.0120(14) 0.254(2)
H5 H 0.243(7) 0.0092(15) 0.426(2)
H6 H 0.679(7) 0.3238(13) 0.588(2)
H7 H 0.741(8) 0.4339(15) 0.522(3)
H8 H 0.507(8) 0.4674(17) 0.345(3)
H9 H 0.213(7) 0.3926(13) 0.229(3)
H10 H 0.147(7) 0.2862(14) 0.290(2)
#END
