
#######################################################################
#
#                 Cambridge Crystallographic Data Centre
#                                CCDC
#
#######################################################################
#
# If this CIF has been generated from an entry in the Cambridge
# Structural Database, then it will include bibliographic, chemical,
# crystal, experimental, refinement or atomic coordinate data resulting
# from the CCDC's data processing and validation procedures.
#
#######################################################################

data_CSD_CIF_KEFXUO
_audit_creation_date 1990-08-28
_audit_creation_method CSD-ConQuest-V1
_database_code_CSD KEFXUO
_database_code_depnum_ccdc_archive 'CCDC 1194362'
_chemical_formula_sum 'C10 H10 F6 Fe1 P1'
_chemical_formula_moiety
;
C10 H10 Fe1 1+,F6 P1 1-
;
_journal_coeditor_code "IUCr MU0098"
_journal_coden_Cambridge 591
_journal_volume 46
_journal_year 1990
_journal_page_first 202
_journal_name_full 'Acta Crystallogr.,Sect.C:Cryst.Struct.Commun. '
loop_
_publ_author_name
"R.Martinez"
"A.Tiripicchio"
_chemical_name_systematic
;
bis(\h^5^-Cyclopentadienyl)-iron hexafluorophosphate
;
_chemical_name_common
;
Ferrocenium hexafluorophosphate; Teaching Subset: Fundamental Chemistry
;
_cell_volume   1215.803
_exptl_crystal_colour 'dark blue'
_exptl_crystal_density_diffrn 1.808
_exptl_special_details
;
polymorph I

;
_diffrn_ambient_temperature ?
_diffrn_special_details
;
The study was carried out at room temperature,in the range 283-303K

;
#These two values have been output from a single CSD field.
_refine_ls_R_factor_gt 0.0397
_refine_ls_wR_factor_gt 0.0397
_symmetry_cell_setting monoclinic
_symmetry_space_group_name_H-M 'P 21/c'
_symmetry_Int_Tables_number 14
loop_
_symmetry_equiv_pos_site_id
_symmetry_equiv_pos_as_xyz
1 x,y,z
2 -x,1/2+y,1/2-z
3 -x,-y,-z
4 x,-1/2-y,-1/2+z
_cell_length_a 13.429(3)
_cell_length_b 9.547(2)
_cell_length_c 9.499(2)
_cell_angle_alpha 90
_cell_angle_beta 93.31(3)
_cell_angle_gamma 90
_cell_formula_units_Z 4
loop_
_atom_type_symbol
_atom_type_radius_bond
C 0.68
H 0.23
F 0.64
Fe 1.34
P 1.05
loop_
_atom_site_label
_atom_site_type_symbol
_atom_site_fract_x
_atom_site_fract_y
_atom_site_fract_z
Fe1 Fe 0.50000 0.00000 0.50000
C1 C 0.347(1) 0.0189(20) 0.4944(19)
C2 C 0.3705(11) -0.1171(20) 0.4644(16)
C3 C 0.4388(14) -0.1813(18) 0.5705(22)
C4 C 0.4424(14) -0.0703(26) 0.6808(14)
C5 C 0.3874(12) 0.0452(19) 0.6266(19)
H1 H 0.30790 0.08570 0.43180
H2 H 0.34320 -0.16760 0.37830
H3 H 0.47380 -0.27370 0.56930
H4 H 0.47720 -0.07690 0.77650
H5 H 0.37940 0.13520 0.67850
Fe2 Fe 0.00000 0.00000 0.50000
C6 C 0.0105(19) -0.0442(21) 0.7119(13)
C7 C -0.0541(13) -0.1394(20) 0.6384(18)
C8 C 0.0107(18) -0.2125(16) 0.5518(18)
C9 C 0.0972(16) -0.1531(25) 0.5572(26)
C10 C 0.1003(17) -0.0680(35) 0.6544(23)
H6 H -0.00560 0.02340 0.78770
H7 H -0.12750 -0.15180 0.64570
H8 H -0.00780 -0.29750 0.49460
H9 H 0.15180 -0.17400 0.49320
H10 H 0.16330 -0.01940 0.68750
P1 P 0.2637(3) 0.0356(4) 0.0360(4)
F1 F 0.1433(7) 0.0212(10) 0.0222(10)
F2 F 0.3786(7) 0.0465(14) 0.0496(12)
F3 F 0.2578(10) 0.1544(1) 0.1485(11)
F4 F 0.2599(9) -0.0778(11) 0.1572(9)
F5 F 0.2663(8) 0.1451(9) -0.0864(9)
F6 F 0.2661(8) -0.0853(8) -0.0772(8)
C1B C 0.653(1) -0.0189(20) 0.5056(19)
C2B C 0.6295(11) 0.1171(20) 0.5356(16)
C3B C 0.5612(14) 0.1813(18) 0.4295(22)
C4B C 0.5576(14) 0.0703(26) 0.3192(14)
C5B C 0.6126(12) -0.0452(19) 0.3734(19)
H1B H 0.69210 -0.08570 0.56820
H2B H 0.65680 0.16760 0.62170
H3B H 0.52620 0.27370 0.43070
H4B H 0.52280 0.07690 0.22350
H5B H 0.62060 -0.13520 0.32150
C6B C -0.0105(19) 0.0442(21) 0.2881(13)
C7B C 0.0541(13) 0.1394(20) 0.3616(18)
C8B C -0.0107(18) 0.2125(16) 0.4482(18)
C9B C -0.0972(16) 0.1531(25) 0.4428(26)
C10B C -0.1003(17) 0.0680(35) 0.3456(23)
H6B H 0.00560 -0.02340 0.21230
H7B H 0.12750 0.15180 0.35430
H8B H 0.00780 0.29750 0.50540
H9B H -0.15180 0.17400 0.50680
H10B H -0.16330 0.01940 0.31250
#END
