
#######################################################################
#
#                 Cambridge Crystallographic Data Centre
#                                CCDC
#
#######################################################################
#
# If this CIF has been generated from an entry in the Cambridge
# Structural Database, then it will include bibliographic, chemical,
# crystal, experimental, refinement or atomic coordinate data resulting
# from the CCDC's data processing and validation procedures.
#
#######################################################################

data_CSD_CIF_KELVOM
_audit_creation_date 1990-11-19
_audit_creation_method CSD-ConQuest-V1
_database_code_CSD KELVOM
_database_code_depnum_ccdc_archive 'CCDC 1194890'
_chemical_formula_sum 'C24 H54 Si6'
_chemical_formula_moiety
;
C24 H54 Si6
;
_journal_coden_Cambridge 4
_journal_volume 112
_journal_year 1990
_journal_page_first 1799
_journal_name_full 'J.Am.Chem.Soc. '
loop_
_publ_author_name
"H.Sakurai"
"K.Ebata"
"C.Kabuto"
"A.Sekiguchi"
_chemical_name_systematic
;
hexakis(Trimethylsilyl)benzene
;
_chemical_name_common
;
Teaching Subset: Fundamental Chemistry
;
_chemical_melting_point 489
_cell_volume   3330.280
_exptl_crystal_colour 'yellow'
_exptl_crystal_density_diffrn 1.02
_exptl_special_details
;
The orange and yellow forms of the crystal are isomorphous

;
_diffrn_ambient_temperature 233
#These two values have been output from a single CSD field.
_refine_ls_R_factor_gt 0.078
_refine_ls_wR_factor_gt 0.078
_symmetry_cell_setting orthorhombic
_symmetry_space_group_name_H-M 'P 21 21 21'
_symmetry_Int_Tables_number 19
loop_
_symmetry_equiv_pos_site_id
_symmetry_equiv_pos_as_xyz
1 x,y,z
2 1/2+x,1/2-y,-z
3 -x,1/2+y,1/2-z
4 1/2-x,-y,1/2+z
_cell_length_a 14.579(3)
_cell_length_b 18.927(4)
_cell_length_c 12.069(9)
_cell_angle_alpha 90
_cell_angle_beta 90
_cell_angle_gamma 90
_cell_formula_units_Z 4
loop_
_atom_type_symbol
_atom_type_radius_bond
C 0.68
H 0.23
Si 1.20
loop_
_atom_site_label
_atom_site_type_symbol
_atom_site_fract_x
_atom_site_fract_y
_atom_site_fract_z
Si1 Si 0.8887(3) 0.3514(2) 0.5287(4)
Si2 Si 0.9397(3) 0.4755(2) 0.7527(4)
Si3 Si 0.8964(3) 0.6334(2) 0.5926(4)
Si4 Si 1.1206(3) 0.6406(2) 0.4601(3)
Si5 Si 1.0693(3) 0.5155(2) 0.2422(4)
Si6 Si 1.1138(3) 0.3583(2) 0.4067(4)
C1 C 0.9761(8) 0.4294(5) 0.5331(10)
C2 C 0.9548(8) 0.4875(7) 0.5948(11)
C3 C 0.9771(9) 0.5575(7) 0.5562(11)
C4 C 1.0363(9) 0.5639(6) 0.4629(10)
C5 C 1.0569(7) 0.5036(6) 0.3978(10)
C6 C 1.0313(8) 0.4358(6) 0.4378(9)
C7 C 0.923(1) 0.259(1) 0.571(1)
C8 C 0.851(1) 0.349(1) 0.383(1)
C9 C 0.781(1) 0.374(1) 0.605(1)
C10 C 0.831(1) 0.501(1) 0.827(2)
C11 C 1.038(1) 0.528(1) 0.815(2)
C12 C 0.963(1) 0.384(1) 0.797(2)
C13 C 0.902(1) 0.679(1) 0.730(2)
C14 C 0.902(1) 0.704(1) 0.484(2)
C15 C 0.780(1) 0.595(1) 0.577(2)
C16 C 1.117(1) 0.708(1) 0.348(2)
C17 C 1.120(1) 0.690(1) 0.596(1)
C18 C 1.238(1) 0.595(1) 0.460(1)
C19 C 1.175(1) 0.551(1) 0.182(2)
C20 C 0.973(1) 0.577(1) 0.206(2)
C21 C 1.042(1) 0.437(1) 0.163(1)
C22 C 1.078(1) 0.280(1) 0.323(1)
C23 C 1.150(1) 0.327(1) 0.545(1)
C24 C 1.225(1) 0.393(1) 0.342(1)
H1 H 0.868(9) 0.228(7) 0.561(11)
H2 H 0.978(11) 0.247(9) 0.529(15)
H3 H 0.946(8) 0.261(6) 0.654(9)
H4 H 0.804(9) 0.313(7) 0.368(11)
H5 H 0.833(12) 0.393(9) 0.360(14)
H6 H 0.908(10) 0.335(7) 0.330(12)
H7 H 0.741(11) 0.333(9) 0.596(14)
H8 H 0.797(7) 0.385(5) 0.692(9)
H9 H 0.754(12) 0.415(9) 0.572(14)
H10 H 0.837(9) 0.482(7) 0.906(10)
H11 H 0.824(12) 0.555(9) 0.818(14)
H12 H 0.777(8) 0.462(6) 0.801(10)
H13 H 1.035(9) 0.525(6) 0.901(11)
H14 H 1.081(11) 0.508(8) 0.781(12)
H15 H 1.019(12) 0.584(9) 0.796(14)
H16 H 0.964(9) 0.385(7) 0.884(11)
H17 H 0.918(6) 0.346(5) 0.754(8)
H18 H 1.040(13) 0.379(10) 0.778(17)
H19 H 0.855(7) 0.717(5) 0.735(9)
H20 H 0.893(10) 0.650(7) 0.798(11)
H21 H 0.966(7) 0.704(6) 0.748(10)
H22 H 0.862(7) 0.737(5) 0.502(9)
H23 H 0.967(14) 0.731(10) 0.481(18)
H24 H 0.881(7) 0.681(5) 0.394(9)
H25 H 0.738(7) 0.629(6) 0.600(9)
H26 H 0.772(12) 0.587(9) 0.499(14)
H27 H 0.768(9) 0.551(7) 0.627(11)
H28 H 1.161(12) 0.739(9) 0.368(14)
H29 H 1.119(12) 0.686(9) 0.259(15)
H30 H 1.065(10) 0.732(7) 0.357(12)
H31 H 1.165(8) 0.723(6) 0.589(9)
H32 H 1.062(9) 0.718(7) 0.608(11)
#END
