####################################################################### 
# 
# This file contains crystal structure data downloaded from the 
# Cambridge Structural Database (CSD) hosted by the Cambridge 
# Crystallographic Data Centre (CCDC).
# 
# Full information about CCDC data access policies and citation 
# guidelines are available at http://www.ccdc.cam.ac.uk/access/V1 
# 
# Audit and citation data items may have been added by the CCDC. 
# Please retain this information to preserve the provenance of 
# this file and to allow appropriate attribution of the data. 
# 
#######################################################################

data_complex1
_audit_block_doi                 10.5517/ccy0r9z
_database_code_depnum_ccdc_archive 'CCDC 864661'
loop_
_citation_id
_citation_doi
_citation_year
1 10.1002/cplu.201200093 2012
_audit_update_record             
;
2012-02-27 deposited with the CCDC.	2024-07-10 downloaded from the CCDC.
;
#TrackingRef 'Complex1.cif'


_audit_creation_method           SHELXL-97
_chemical_name_systematic        
;
?
;
_chemical_name_common            ?
_chemical_melting_point          ?
_chemical_formula_moiety         ?
_chemical_formula_sum            'C11 H5 N3 O5 Zn1'
_chemical_formula_weight         324.57

loop_
_atom_type_symbol
_atom_type_description
_atom_type_scat_dispersion_real
_atom_type_scat_dispersion_imag
_atom_type_scat_source
C C 0.0033 0.0016 'International Tables Vol C Tables 4.2.6.8 and 6.1.1.4'
H H 0.0000 0.0000 'International Tables Vol C Tables 4.2.6.8 and 6.1.1.4'
N N 0.0061 0.0033 'International Tables Vol C Tables 4.2.6.8 and 6.1.1.4'
O O 0.0106 0.0060 'International Tables Vol C Tables 4.2.6.8 and 6.1.1.4'
Zn Zn 0.2839 1.4301 'International Tables Vol C Tables 4.2.6.8 and 6.1.1.4'

_symmetry_cell_setting           Trigonal
_symmetry_space_group_name_H-M   R-3m

loop_
_symmetry_equiv_pos_as_xyz
'x, y, z'
'-y, x-y, z'
'-x+y, -x, z'
'x-y, -y, -z'
'-x, -x+y, -z'
'y, x, -z'
'x+2/3, y+1/3, z+1/3'
'-y+2/3, x-y+1/3, z+1/3'
'-x+y+2/3, -x+1/3, z+1/3'
'x-y+2/3, -y+1/3, -z+1/3'
'-x+2/3, -x+y+1/3, -z+1/3'
'y+2/3, x+1/3, -z+1/3'
'x+1/3, y+2/3, z+2/3'
'-y+1/3, x-y+2/3, z+2/3'
'-x+y+1/3, -x+2/3, z+2/3'
'x-y+1/3, -y+2/3, -z+2/3'
'-x+1/3, -x+y+2/3, -z+2/3'
'y+1/3, x+2/3, -z+2/3'
'-x, -y, -z'
'y, -x+y, -z'
'x-y, x, -z'
'-x+y, y, z'
'x, x-y, z'
'-y, -x, z'
'-x+2/3, -y+1/3, -z+1/3'
'y+2/3, -x+y+1/3, -z+1/3'
'x-y+2/3, x+1/3, -z+1/3'
'-x+y+2/3, y+1/3, z+1/3'
'x+2/3, x-y+1/3, z+1/3'
'-y+2/3, -x+1/3, z+1/3'
'-x+1/3, -y+2/3, -z+2/3'
'y+1/3, -x+y+2/3, -z+2/3'
'x-y+1/3, x+2/3, -z+2/3'
'-x+y+1/3, y+2/3, z+2/3'
'x+1/3, x-y+2/3, z+2/3'
'-y+1/3, -x+2/3, z+2/3'

_cell_length_a                   23.401(2)
_cell_length_b                   23.401(2)
_cell_length_c                   19.195(3)
_cell_angle_alpha                90.00
_cell_angle_beta                 90.00
_cell_angle_gamma                120.00
_cell_volume                     9103.2(19)
_cell_formula_units_Z            18
_cell_measurement_temperature    293(2)
_cell_measurement_reflns_used    ?
_cell_measurement_theta_min      ?
_cell_measurement_theta_max      ?

_exptl_crystal_description       'block Shape'
_exptl_crystal_colour            colorless
_exptl_crystal_size_max          0.08
_exptl_crystal_size_mid          0.06
_exptl_crystal_size_min          0.04
_exptl_crystal_density_meas      ?
_exptl_crystal_density_diffrn    1.066
_exptl_crystal_density_method    'not measured'
_exptl_crystal_F_000             2916
_exptl_absorpt_coefficient_mu    1.228
_exptl_absorpt_correction_type   empirical
_exptl_absorpt_correction_T_min  0.7244
_exptl_absorpt_correction_T_max  0.9812
_exptl_absorpt_process_details   SADABS

_exptl_special_details           
;
?
;

_diffrn_ambient_temperature      293(2)
_diffrn_radiation_wavelength     0.71073
_diffrn_radiation_type           MoK\a
_diffrn_radiation_source         'fine-focus sealed tube'
_diffrn_radiation_monochromator  graphite
_diffrn_measurement_device_type  ?
_diffrn_measurement_method       ?
_diffrn_detector_area_resol_mean ?
_diffrn_standards_number         ?
_diffrn_standards_interval_count ?
_diffrn_standards_interval_time  ?
_diffrn_standards_decay_%        ?
_diffrn_reflns_number            11349
_diffrn_reflns_av_R_equivalents  0.0807
_diffrn_reflns_av_sigmaI/netI    0.0282
_diffrn_reflns_limit_h_min       -19
_diffrn_reflns_limit_h_max       19
_diffrn_reflns_limit_k_min       -19
_diffrn_reflns_limit_k_max       19
_diffrn_reflns_limit_l_min       -15
_diffrn_reflns_limit_l_max       15
_diffrn_reflns_theta_min         1.46
_diffrn_reflns_theta_max         17.11
_reflns_number_total             676
_reflns_number_gt                533
_reflns_threshold_expression     >2sigma(I)

_computing_data_collection       'SMART (Bruker,2000)'
_computing_cell_refinement       SMART
_computing_data_reduction        'SAINT (Bruker,2000)'
_computing_structure_solution    'SIR-92 (Altomare et al. 1994)'
_computing_structure_refinement  'SHELXL-97 (Sheldrick, 1997)'
_computing_molecular_graphics    'Mercury 1.4.1'
_computing_publication_material  'PLATON (Spek, 2003)'

_refine_special_details          
;
Refinement of F^2^ against ALL reflections. The weighted R-factor wR and
goodness of fit S are based on F^2^, conventional R-factors R are based
on F, with F set to zero for negative F^2^. The threshold expression of
F^2^ > 2sigma(F^2^) is used only for calculating R-factors(gt) etc. and is
not relevant to the choice of reflections for refinement. R-factors based
on F^2^ are statistically about twice as large as those based on F, and R-
factors based on ALL data will be even larger.
;

_refine_ls_structure_factor_coef Fsqd
_refine_ls_matrix_type           full
_refine_ls_weighting_scheme      calc
_refine_ls_weighting_details     
'calc w=1/[\s^2^(Fo^2^)+(0.2000P)^2^+0.0000P] where P=(Fo^2^+2Fc^2^)/3'
_atom_sites_solution_primary     direct
_atom_sites_solution_secondary   difmap
_atom_sites_solution_hydrogens   geom
_refine_ls_hydrogen_treatment    noref
_refine_ls_extinction_method     none
_refine_ls_extinction_coef       ?
_refine_ls_number_reflns         676
_refine_ls_number_parameters     91
_refine_ls_number_restraints     12
_refine_ls_R_factor_all          0.1261
_refine_ls_R_factor_gt           0.0855
_refine_ls_wR_factor_ref         0.2976
_refine_ls_wR_factor_gt          0.2494
_refine_ls_goodness_of_fit_ref   1.366
_refine_ls_restrained_S_all      1.356
_refine_ls_shift/su_max          0.000
_refine_ls_shift/su_mean         0.000

loop_
_atom_site_label
_atom_site_type_symbol
_atom_site_fract_x
_atom_site_fract_y
_atom_site_fract_z
_atom_site_U_iso_or_equiv
_atom_site_adp_type
_atom_site_occupancy
_atom_site_symmetry_multiplicity
_atom_site_calc_flag
_atom_site_refinement_flags
_atom_site_disorder_assembly
_atom_site_disorder_group
C1 C 0.3874(9) 0.0177(10) 0.0526(9) 0.116(7) Uani 1 1 d . . .
H1 H 0.3732 0.0298 0.0923 0.140 Uiso 1 1 calc R . .
C2 C 0.4464(11) 0.0204(10) 0.0551(9) 0.132(8) Uani 1 1 d . . .
H2 H 0.4725 0.0363 0.0948 0.159 Uiso 1 1 calc R . .
C3 C 0.4674(9) 0.0000 0.0000 0.076(7) Uani 1 2 d S . .
C4 C 0.1350(5) -0.1350(5) 0.0289(11) 0.060(6) Uani 1 2 d SU . .
H4 H 0.1376 -0.1376 0.0771 0.072 Uiso 1 2 calc SR . .
C5 C 0.1599(6) -0.1003(6) -0.0765(8) 0.055(4) Uani 1 1 d . . .
C6 C 0.2007(9) -0.0549(8) -0.1311(9) 0.058(4) Uani 1 1 d U . .
N1 N 0.3504(7) 0.0000 0.0000 0.064(5) Uani 1 2 d S . .
N2 N 0.1802(5) -0.0857(5) -0.0079(6) 0.056(4) Uani 1 1 d . . .
O1 O 0.2516(5) -0.0046(5) -0.1142(6) 0.071(4) Uani 1 1 d . . .
O2 O 0.1783(4) -0.0722(5) -0.1934(5) 0.081(3) Uani 1 1 d . . .
Zn1 Zn 0.26345(9) 0.0000 0.0000 0.0703(19) Uani 1 2 d S . .
C7 C 0.2260(15) -0.2260(15) 0.063(3) 0.36(3) Uiso 1 2 d S . .
O3 O 0.5815(18) 0.163(4) 0.144(2) 0.51(4) Uiso 1 2 d S . .

loop_
_atom_site_aniso_label
_atom_site_aniso_U_11
_atom_site_aniso_U_22
_atom_site_aniso_U_33
_atom_site_aniso_U_23
_atom_site_aniso_U_13
_atom_site_aniso_U_12
C1 0.079(15) 0.18(2) 0.122(19) -0.061(15) -0.046(12) 0.093(15)
C2 0.134(18) 0.22(2) 0.088(18) -0.098(15) -0.049(13) 0.122(17)
C3 0.080(13) 0.072(15) 0.075(18) -0.026(13) -0.013(7) 0.036(8)
C4 0.059(7) 0.059(7) 0.053(10) 0.001(4) -0.001(4) 0.023(7)
C5 0.064(10) 0.061(10) 0.050(10) -0.006(8) -0.001(8) 0.038(9)
C6 0.060(8) 0.064(8) 0.052(8) 0.010(7) 0.007(7) 0.032(7)
N1 0.051(10) 0.072(12) 0.077(13) -0.033(11) -0.016(5) 0.036(6)
N2 0.057(8) 0.048(9) 0.059(10) 0.004(6) 0.003(7) 0.022(8)
O1 0.058(7) 0.053(7) 0.083(9) -0.005(5) 0.005(6) 0.013(6)
O2 0.079(8) 0.084(8) 0.055(8) 0.014(6) 0.004(6) 0.021(6)
Zn1 0.059(2) 0.057(2) 0.094(3) -0.0108(13) -0.0054(6) 0.0286(12)

_geom_special_details            
;
All esds (except the esd in the dihedral angle between two l.s. planes)
are estimated using the full covariance matrix. The cell esds are taken
into account individually in the estimation of esds in distances, angles
and torsion angles; correlations between esds in cell parameters are only
used when they are defined by crystal symmetry. An approximate (isotropic)
treatment of cell esds is used for estimating esds involving l.s. planes.
;

loop_
_geom_bond_atom_site_label_1
_geom_bond_atom_site_label_2
_geom_bond_distance
_geom_bond_site_symmetry_2
_geom_bond_publ_flag
C1 N1 1.258(15) . ?
C1 C2 1.35(2) . ?
C1 H1 0.9300 . ?
C2 C3 1.351(18) . ?
C2 H2 0.9300 . ?
C3 C2 1.351(18) 4 ?
C3 C3 1.53(4) 19_655 ?
C4 N2 1.314(13) 24 ?
C4 N2 1.314(13) . ?
C4 H4 0.9300 . ?
C5 N2 1.384(15) . ?
C5 C5 1.40(2) 24 ?
C5 C6 1.458(18) . ?
C6 O1 1.227(16) . ?
C6 O2 1.287(17) . ?
N1 C1 1.258(15) 4 ?
N1 Zn1 2.034(17) . ?
N2 Zn1 1.983(10) . ?
O1 Zn1 2.205(11) . ?
Zn1 N2 1.983(10) 4 ?
Zn1 O1 2.205(11) 4 ?

loop_
_geom_angle_atom_site_label_1
_geom_angle_atom_site_label_2
_geom_angle_atom_site_label_3
_geom_angle
_geom_angle_site_symmetry_1
_geom_angle_site_symmetry_3
_geom_angle_publ_flag
N1 C1 C2 124.2(18) . . ?
N1 C1 H1 117.9 . . ?
C2 C1 H1 117.9 . . ?
C3 C2 C1 120.0(17) . . ?
C3 C2 H2 120.0 . . ?
C1 C2 H2 120.0 . . ?
C2 C3 C2 114(2) 4 . ?
C2 C3 C3 122.8(12) 4 19_655 ?
C2 C3 C3 122.8(12) . 19_655 ?
N2 C4 N2 114.5(18) 24 . ?
N2 C4 H4 122.7 24 . ?
N2 C4 H4 122.7 . . ?
N2 C5 C5 107.1(7) . 24 ?
N2 C5 C6 119.1(12) . . ?
C5 C5 C6 133.8(9) 24 . ?
O1 C6 O2 126.6(14) . . ?
O1 C6 C5 118.4(15) . . ?
O2 C6 C5 115.0(15) . . ?
C1 N1 C1 117(2) 4 . ?
C1 N1 Zn1 121.5(11) 4 . ?
C1 N1 Zn1 121.5(11) . . ?
C4 N2 C5 105.6(12) . . ?
C4 N2 Zn1 143.0(11) . . ?
C5 N2 Zn1 111.3(8) . . ?
C6 O1 Zn1 110.4(10) . . ?
N2 Zn1 N2 123.1(5) 4 . ?
N2 Zn1 N1 118.4(3) 4 . ?
N2 Zn1 N1 118.4(3) . . ?
N2 Zn1 O1 93.7(4) 4 . ?
N2 Zn1 O1 80.7(4) . . ?
N1 Zn1 O1 95.8(2) . . ?
N2 Zn1 O1 80.7(4) 4 4 ?
N2 Zn1 O1 93.7(4) . 4 ?
N1 Zn1 O1 95.8(2) . 4 ?
O1 Zn1 O1 168.3(5) . 4 ?

_diffrn_measured_fraction_theta_max 1.000
_diffrn_reflns_theta_full        17.11
_diffrn_measured_fraction_theta_full 1.000
_refine_diff_density_max         0.979
_refine_diff_density_min         -0.752
_refine_diff_density_rms         0.314


