####################################################################### 
# 
# This file contains crystal structure data downloaded from the 
# Cambridge Structural Database (CSD) hosted by the Cambridge 
# Crystallographic Data Centre (CCDC).
# 
# Full information about CCDC data access policies and citation 
# guidelines are available at http://www.ccdc.cam.ac.uk/access/V1 
# 
# Audit and citation data items may have been added by the CCDC. 
# Please retain this information to preserve the provenance of 
# this file and to allow appropriate attribution of the data. 
# 
#######################################################################

data_compound1
_audit_block_doi                 10.5517/ccyxvnb
_database_code_depnum_ccdc_archive 'CCDC 891673'
loop_
_citation_id
_citation_doi
_citation_year
1 10.1007/s10904-012-9759-8 2012
_audit_update_record             
;
2012-07-11 deposited with the CCDC.	2024-07-10 downloaded from the CCDC.
;
#TrackingRef 'compound1.cif'


_audit_creation_method           SHELXL-97
_chemical_name_systematic        
;
?
;
_chemical_name_common            ?
_chemical_melting_point          ?
_chemical_formula_moiety         ?
_chemical_formula_sum            'C15 H18 Cd N O9'
_chemical_formula_weight         468.70

loop_
_atom_type_symbol
_atom_type_description
_atom_type_scat_dispersion_real
_atom_type_scat_dispersion_imag
_atom_type_scat_source
C C 0.0033 0.0016 'International Tables Vol C Tables 4.2.6.8 and 6.1.1.4'
H H 0.0000 0.0000 'International Tables Vol C Tables 4.2.6.8 and 6.1.1.4'
N N 0.0061 0.0033 'International Tables Vol C Tables 4.2.6.8 and 6.1.1.4'
O O 0.0106 0.0060 'International Tables Vol C Tables 4.2.6.8 and 6.1.1.4'
Cd Cd -0.8075 1.2024 'International Tables Vol C Tables 4.2.6.8 and 6.1.1.4'

_symmetry_cell_setting           Orthorhombic
_symmetry_space_group_name_H-M   'Iba2 '

loop_
_symmetry_equiv_pos_as_xyz
'x, y, z'
'-x, -y, z'
'-x, y, z+1/2'
'x, -y, z+1/2'
'x+1/2, y+1/2, z+1/2'
'-x+1/2, -y+1/2, z+1/2'
'-x+1/2, y+1/2, z+1'
'x+1/2, -y+1/2, z+1'

_cell_length_a                   13.147(2)
_cell_length_b                   41.567(6)
_cell_length_c                   6.986(1)
_cell_angle_alpha                90.000
_cell_angle_beta                 90.000
_cell_angle_gamma                90.000
_cell_volume                     3818(3)
_cell_formula_units_Z            8
_cell_measurement_temperature    296(2)
_cell_measurement_reflns_used    7355
_cell_measurement_theta_min      2.90
_cell_measurement_theta_max      28.63

_exptl_crystal_description       rod
_exptl_crystal_colour            colourless
_exptl_crystal_size_max          0.39
_exptl_crystal_size_mid          0.15
_exptl_crystal_size_min          0.15
_exptl_crystal_density_meas      ?
_exptl_crystal_density_diffrn    1.631
_exptl_crystal_density_method    'not measured'
_exptl_crystal_F_000             1880
_exptl_absorpt_coefficient_mu    1.189
_exptl_absorpt_correction_type   multi-scan
_exptl_absorpt_correction_T_min  0.6548
_exptl_absorpt_correction_T_max  0.8408
_exptl_absorpt_process_details   '(SADABS; Bruker, 2001)'

_exptl_special_details           
;
?
;

_diffrn_ambient_temperature      296(2)
_diffrn_radiation_wavelength     0.71073
_diffrn_radiation_type           MoK\a
_diffrn_radiation_source         'fine-focus sealed tube'
_diffrn_radiation_monochromator  graphite
_diffrn_measurement_device_type  'Bruker APEX2 CCD area-detector diffractometer'
_diffrn_measurement_method       '\f and \w scans'
_diffrn_detector_area_resol_mean ?
_diffrn_standards_number         ?
_diffrn_standards_interval_count ?
_diffrn_standards_interval_time  ?
_diffrn_standards_decay_%        ?
_diffrn_reflns_number            9592
_diffrn_reflns_av_R_equivalents  0.0177
_diffrn_reflns_av_sigmaI/netI    0.0215
_diffrn_reflns_limit_h_min       -14
_diffrn_reflns_limit_h_max       15
_diffrn_reflns_limit_k_min       -49
_diffrn_reflns_limit_k_max       38
_diffrn_reflns_limit_l_min       -8
_diffrn_reflns_limit_l_max       8
_diffrn_reflns_theta_min         1.62
_diffrn_reflns_theta_max         25.00
_reflns_number_total             3238
_reflns_number_gt                3122
_reflns_threshold_expression     >2sigma(I)

_computing_data_collection       'Bruker APEX2'
_computing_cell_refinement       'Bruker SMART'
_computing_data_reduction        'Bruker SAINT'
_computing_structure_solution    'SIR97 (Altomare,1999)'
_computing_structure_refinement  'SHELXL-97 (Sheldrick, 2008)'
_computing_molecular_graphics    'SHELXTL(Sheldrick, 2008)'
_computing_publication_material  'WINGX (Farrugia,1999)'

_refine_special_details          
;
Refinement of F^2^ against ALL reflections. The weighted R-factor wR and
goodness of fit S are based on F^2^, conventional R-factors R are based
on F, with F set to zero for negative F^2^. The threshold expression of
F^2^ > 2sigma(F^2^) is used only for calculating R-factors(gt) etc. and is
not relevant to the choice of reflections for refinement. R-factors based
on F^2^ are statistically about twice as large as those based on F, and R-
factors based on ALL data will be even larger.
;

_refine_ls_structure_factor_coef Fsqd
_refine_ls_matrix_type           full
_refine_ls_weighting_scheme      calc
_refine_ls_weighting_details     
'calc w=1/[\s^2^(Fo^2^)+(0.0691P)^2^+12.5604P] where P=(Fo^2^+2Fc^2^)/3'
_atom_sites_solution_primary     direct
_atom_sites_solution_secondary   difmap
_atom_sites_solution_hydrogens   mixed
_refine_ls_hydrogen_treatment    constr
_refine_ls_extinction_method     none
_refine_ls_extinction_coef       ?
_refine_ls_abs_structure_details 'Flack H D (1983), Acta Cryst. A39, 876-881'
_refine_ls_abs_structure_Flack   0.02(5)
_refine_ls_number_reflns         3238
_refine_ls_number_parameters     235
_refine_ls_number_restraints     1
_refine_ls_R_factor_all          0.0316
_refine_ls_R_factor_gt           0.0306
_refine_ls_wR_factor_ref         0.1078
_refine_ls_wR_factor_gt          0.1070
_refine_ls_goodness_of_fit_ref   1.054
_refine_ls_restrained_S_all      1.054
_refine_ls_shift/su_max          0.049
_refine_ls_shift/su_mean         0.003

loop_
_atom_site_label
_atom_site_type_symbol
_atom_site_fract_x
_atom_site_fract_y
_atom_site_fract_z
_atom_site_U_iso_or_equiv
_atom_site_adp_type
_atom_site_occupancy
_atom_site_symmetry_multiplicity
_atom_site_calc_flag
_atom_site_refinement_flags
_atom_site_disorder_assembly
_atom_site_disorder_group
Cd1 Cd -0.15705(2) 0.631956(7) 0.58365(10) 0.03423(14) Uani 1 1 d . . .
O3 O 0.1948(3) 0.67877(9) 0.8506(6) 0.0384(9) Uani 1 1 d . . .
O1W O -0.2848(3) 0.60826(11) 0.4052(7) 0.0509(11) Uani 1 1 d . . .
H12W H -0.2939 0.6154 0.2922 0.061 Uiso 1 1 d R . .
H11W H -0.3443 0.6091 0.4560 0.061 Uiso 1 1 d R . .
O4 O 0.3118(3) 0.66926(10) 1.1384(6) 0.0468(11) Uani 1 1 d . . .
O2 O 0.0434(3) 0.63642(8) 0.8262(7) 0.0439(10) Uani 1 1 d . . .
C3 C -0.0196(4) 0.51666(10) 0.6098(9) 0.0345(12) Uani 1 1 d . . .
O5 O 0.2437(4) 0.62251(13) 1.3622(8) 0.0594(13) Uani 1 1 d . . .
O1 O -0.0573(3) 0.67214(9) 0.6851(7) 0.0441(9) Uani 1 1 d . . .
N1 N -0.0924(3) 0.58021(9) 0.6067(9) 0.0383(10) Uani 1 1 d . . .
C8 C 0.2704(4) 0.70149(12) 0.8760(8) 0.0321(11) Uani 1 1 d . . .
C4 C 0.0460(4) 0.54302(10) 0.5901(12) 0.0384(10) Uani 1 1 d . . .
H4 H 0.1157 0.5398 0.5780 0.046 Uiso 1 1 calc R . .
C2 C -0.1213(5) 0.52357(13) 0.6271(9) 0.0464(18) Uani 1 1 d . . .
H2 H -0.1680 0.5069 0.6403 0.056 Uiso 1 1 calc R . .
C13 C 0.3349(4) 0.69537(14) 1.0294(8) 0.0365(14) Uani 1 1 d . . .
C7 C 0.1108(4) 0.68783(13) 0.7329(9) 0.0383(12) Uani 1 1 d . . .
H7A H 0.1322 0.6889 0.6001 0.046 Uiso 1 1 calc R . .
H7B H 0.0865 0.7089 0.7703 0.046 Uiso 1 1 calc R . .
C1 C -0.1550(4) 0.55524(15) 0.6250(10) 0.045(2) Uani 1 1 d . . .
H1 H -0.2244 0.5592 0.6369 0.054 Uiso 1 1 calc R . .
C12 C 0.4171(4) 0.71559(13) 1.0647(12) 0.0461(13) Uani 1 1 d . . .
H12 H 0.4626 0.7113 1.1632 0.055 Uiso 1 1 calc R . .
O6 O 0.3652(4) 0.63169(15) 1.5761(18) 0.0815(19) Uani 1 1 d . . .
C5 C 0.0063(4) 0.57399(10) 0.5886(13) 0.0389(10) Uani 1 1 d . . .
H5 H 0.0509 0.5912 0.5742 0.047 Uiso 1 1 calc R . .
C6 C 0.0257(4) 0.66329(12) 0.7545(8) 0.0355(12) Uani 1 1 d . . .
C15 C 0.3199(6) 0.63711(19) 1.4242(11) 0.0573(19) Uani 1 1 d . . .
C10 C 0.3632(5) 0.74889(14) 0.8010(10) 0.0447(14) Uani 1 1 d . . .
H10 H 0.3720 0.7671 0.7258 0.054 Uiso 1 1 calc R . .
C11 C 0.4293(5) 0.74286(14) 0.9463(10) 0.0456(14) Uani 1 1 d . . .
H11 H 0.4833 0.7569 0.9680 0.055 Uiso 1 1 calc R . .
C9 C 0.2843(4) 0.72857(13) 0.7640(9) 0.0413(13) Uani 1 1 d . . .
H9 H 0.2398 0.7329 0.6637 0.050 Uiso 1 1 calc R . .
C14 C 0.3654(5) 0.66509(17) 1.3146(10) 0.0525(16) Uani 1 1 d . . .
H14A H 0.3607 0.6846 1.3906 0.063 Uiso 1 1 calc R . .
H14B H 0.4367 0.6609 1.2888 0.063 Uiso 1 1 calc R . .
O2W O 0.5394(5) 0.5946(2) 0.591(2) 0.144(4) Uani 1 1 d . . .
H21W H 0.5274 0.5905 0.7086 0.173 Uiso 1 1 d R . .
H22W H 0.4826 0.5953 0.5335 0.173 Uiso 1 1 d R . .
O3W O 0.6880(11) 0.5477(5) 0.133(4) 0.400(19) Uani 1 1 d . . .
H32W H 0.7088 0.5646 0.0745 0.480 Uiso 1 1 d R . .
H31W H 0.6538 0.5544 0.2268 0.480 Uiso 1 1 d R . .

loop_
_atom_site_aniso_label
_atom_site_aniso_U_11
_atom_site_aniso_U_22
_atom_site_aniso_U_33
_atom_site_aniso_U_23
_atom_site_aniso_U_13
_atom_site_aniso_U_12
Cd1 0.0338(2) 0.0240(2) 0.0449(2) 0.0030(2) -0.0016(2) 0.00095(10)
O3 0.0316(18) 0.0324(19) 0.051(2) 0.0119(17) -0.0103(18) -0.0076(15)
O1W 0.047(2) 0.049(2) 0.057(3) 0.011(2) -0.012(2) -0.0057(19)
O4 0.047(2) 0.048(2) 0.046(3) 0.0146(17) -0.0167(18) -0.0149(19)
O2 0.044(2) 0.0275(18) 0.060(3) -0.0009(18) -0.010(2) -0.0046(15)
C3 0.048(3) 0.027(2) 0.029(3) -0.001(2) -0.005(2) 0.0027(19)
O5 0.058(3) 0.064(3) 0.056(3) 0.024(3) -0.005(2) -0.011(3)
O1 0.0331(19) 0.036(2) 0.063(3) -0.0030(18) -0.0133(19) 0.0030(16)
N1 0.047(2) 0.0254(18) 0.043(3) 0.001(2) -0.004(2) 0.0039(16)
C8 0.025(2) 0.031(2) 0.040(3) -0.002(2) 0.003(2) -0.0046(19)
C4 0.043(2) 0.029(2) 0.044(3) 0.006(3) 0.001(4) 0.0040(17)
C2 0.044(3) 0.030(3) 0.066(6) 0.004(3) -0.002(3) -0.002(2)
C13 0.032(3) 0.034(3) 0.043(4) -0.001(2) 0.005(2) -0.0047(19)
C7 0.036(3) 0.036(3) 0.043(3) 0.003(2) -0.010(2) 0.003(2)
C1 0.042(3) 0.033(3) 0.060(6) 0.001(3) -0.003(3) 0.006(2)
C12 0.040(2) 0.047(3) 0.051(4) -0.014(3) -0.001(4) -0.012(2)
O6 0.060(3) 0.136(5) 0.048(3) 0.034(4) -0.013(5) -0.009(3)
C5 0.044(2) 0.0262(19) 0.046(3) -0.006(4) 0.001(4) 0.0012(18)
C6 0.038(3) 0.030(3) 0.039(3) -0.008(2) -0.003(2) -0.002(2)
C15 0.051(4) 0.079(5) 0.042(4) 0.020(4) 0.001(3) 0.009(4)
C10 0.046(3) 0.034(3) 0.054(4) 0.005(3) 0.017(3) -0.003(2)
C11 0.044(3) 0.038(3) 0.055(4) -0.008(3) 0.011(3) -0.015(3)
C9 0.041(3) 0.035(3) 0.048(3) 0.002(2) -0.002(3) -0.002(2)
C14 0.051(3) 0.062(4) 0.044(4) 0.010(3) -0.006(3) -0.008(3)
O2W 0.066(3) 0.172(7) 0.195(9) 0.074(9) 0.016(7) -0.004(4)
O3W 0.252(13) 0.47(3) 0.48(4) -0.34(3) -0.23(2) 0.284(17)

_geom_special_details            
;
All esds (except the esd in the dihedral angle between two l.s. planes)
are estimated using the full covariance matrix. The cell esds are taken
into account individually in the estimation of esds in distances, angles
and torsion angles; correlations between esds in cell parameters are only
used when they are defined by crystal symmetry. An approximate (isotropic)
treatment of cell esds is used for estimating esds involving l.s. planes.
;

loop_
_geom_bond_atom_site_label_1
_geom_bond_atom_site_label_2
_geom_bond_distance
_geom_bond_site_symmetry_2
_geom_bond_publ_flag
Cd1 O1 2.239(4) . ?
Cd1 O5 2.289(5) 3_554 ?
Cd1 O1W 2.312(4) . ?
Cd1 N1 2.318(4) . ?
Cd1 O2 2.346(5) 3_554 ?
Cd1 O4 2.586(4) 3_554 ?
Cd1 O3 2.585(4) 3_554 ?
O3 C8 1.382(6) . ?
O3 C7 1.427(7) . ?
O3 Cd1 2.585(4) 3 ?
O1W H12W 0.8514 . ?
O1W H11W 0.8596 . ?
O4 C13 1.360(7) . ?
O4 C14 1.429(8) . ?
O4 Cd1 2.586(4) 3 ?
O2 C6 1.246(7) . ?
O2 Cd1 2.346(5) 3 ?
C3 C2 1.374(8) . ?
C3 C4 1.401(7) . ?
C3 C3 1.477(9) 2_565 ?
O5 C15 1.249(10) . ?
O5 Cd1 2.289(5) 3 ?
O1 C6 1.250(7) . ?
N1 C5 1.329(7) . ?
N1 C1 1.331(7) . ?
C8 C9 1.383(8) . ?
C8 C13 1.390(8) . ?
C4 C5 1.390(6) . ?
C4 H4 0.9300 . ?
C2 C1 1.389(8) . ?
C2 H2 0.9300 . ?
C13 C12 1.391(7) . ?
C7 C6 1.521(8) . ?
C7 H7A 0.9700 . ?
C7 H7B 0.9700 . ?
C1 H1 0.9300 . ?
C12 C11 1.412(9) . ?
C12 H12 0.9300 . ?
O6 C15 1.237(14) . ?
C5 H5 0.9300 . ?
C15 C14 1.516(10) . ?
C10 C9 1.363(9) . ?
C10 C11 1.359(10) . ?
C10 H10 0.9300 . ?
C11 H11 0.9300 . ?
C9 H9 0.9300 . ?
C14 H14A 0.9700 . ?
C14 H14B 0.9700 . ?
O2W H21W 0.8501 . ?
O2W H22W 0.8500 . ?
O3W H32W 0.8570 . ?
O3W H31W 0.8407 . ?

loop_
_geom_angle_atom_site_label_1
_geom_angle_atom_site_label_2
_geom_angle_atom_site_label_3
_geom_angle
_geom_angle_site_symmetry_1
_geom_angle_site_symmetry_3
_geom_angle_publ_flag
O1 Cd1 O5 98.6(2) . 3_554 ?
O1 Cd1 O1W 156.08(15) . . ?
O5 Cd1 O1W 91.4(2) 3_554 . ?
O1 Cd1 N1 117.09(15) . . ?
O5 Cd1 N1 87.96(19) 3_554 . ?
O1W Cd1 N1 84.76(16) . . ?
O1 Cd1 O2 79.08(16) . 3_554 ?
O5 Cd1 O2 169.28(16) 3_554 3_554 ?
O1W Cd1 O2 94.77(18) . 3_554 ?
N1 Cd1 O2 83.86(17) . 3_554 ?
O1 Cd1 O4 88.09(14) . 3_554 ?
O5 Cd1 O4 65.52(14) 3_554 3_554 ?
O1W Cd1 O4 76.33(16) . 3_554 ?
N1 Cd1 O4 146.55(16) . 3_554 ?
O2 Cd1 O4 124.54(13) 3_554 3_554 ?
O1 Cd1 O3 75.54(14) . 3_554 ?
O5 Cd1 O3 124.68(15) 3_554 3_554 ?
O1W Cd1 O3 80.89(15) . 3_554 ?
N1 Cd1 O3 144.34(18) . 3_554 ?
O2 Cd1 O3 65.16(13) 3_554 3_554 ?
O4 Cd1 O3 59.40(12) 3_554 3_554 ?
C8 O3 C7 116.7(4) . . ?
C8 O3 Cd1 124.8(3) . 3 ?
C7 O3 Cd1 114.4(3) . 3 ?
Cd1 O1W H12W 117.0 . . ?
Cd1 O1W H11W 114.9 . . ?
H12W O1W H11W 104.0 . . ?
C13 O4 C14 118.0(5) . . ?
C13 O4 Cd1 124.8(3) . 3 ?
C14 O4 Cd1 116.3(4) . 3 ?
C6 O2 Cd1 119.8(3) . 3 ?
C2 C3 C4 116.4(4) . . ?
C2 C3 C3 122.3(6) . 2_565 ?
C4 C3 C3 121.3(6) . 2_565 ?
C15 O5 Cd1 127.7(4) . 3 ?
C6 O1 Cd1 114.5(3) . . ?
C5 N1 C1 117.5(4) . . ?
C5 N1 Cd1 122.1(3) . . ?
C1 N1 Cd1 120.2(3) . . ?
O3 C8 C9 125.3(5) . . ?
O3 C8 C13 114.4(5) . . ?
C9 C8 C13 120.3(5) . . ?
C5 C4 C3 119.6(5) . . ?
C5 C4 H4 120.2 . . ?
C3 C4 H4 120.2 . . ?
C3 C2 C1 120.5(5) . . ?
C3 C2 H2 119.7 . . ?
C1 C2 H2 119.7 . . ?
O4 C13 C8 116.2(4) . . ?
O4 C13 C12 123.8(6) . . ?
C8 C13 C12 120.0(6) . . ?
O3 C7 C6 109.5(4) . . ?
O3 C7 H7A 109.8 . . ?
C6 C7 H7A 109.8 . . ?
O3 C7 H7B 109.8 . . ?
C6 C7 H7B 109.8 . . ?
H7A C7 H7B 108.2 . . ?
N1 C1 C2 122.9(5) . . ?
N1 C1 H1 118.6 . . ?
C2 C1 H1 118.6 . . ?
C11 C12 C13 118.0(6) . . ?
C11 C12 H12 121.0 . . ?
C13 C12 H12 121.0 . . ?
N1 C5 C4 123.1(4) . . ?
N1 C5 H5 118.4 . . ?
C4 C5 H5 118.4 . . ?
O1 C6 O2 125.6(5) . . ?
O1 C6 C7 114.0(5) . . ?
O2 C6 C7 120.3(5) . . ?
O5 C15 O6 126.5(7) . . ?
O5 C15 C14 120.9(6) . . ?
O6 C15 C14 112.5(7) . . ?
C9 C10 C11 121.0(6) . . ?
C9 C10 H10 119.5 . . ?
C11 C10 H10 119.5 . . ?
C12 C11 C10 120.8(6) . . ?
C12 C11 H11 119.6 . . ?
C10 C11 H11 119.6 . . ?
C10 C9 C8 119.9(6) . . ?
C10 C9 H9 120.1 . . ?
C8 C9 H9 120.1 . . ?
O4 C14 C15 109.5(6) . . ?
O4 C14 H14A 109.8 . . ?
C15 C14 H14A 109.8 . . ?
O4 C14 H14B 109.8 . . ?
C15 C14 H14B 109.8 . . ?
H14A C14 H14B 108.2 . . ?
H21W O2W H22W 107.7 . . ?
H32W O3W H31W 105.9 . . ?

loop_
_geom_torsion_atom_site_label_1
_geom_torsion_atom_site_label_2
_geom_torsion_atom_site_label_3
_geom_torsion_atom_site_label_4
_geom_torsion
_geom_torsion_site_symmetry_1
_geom_torsion_site_symmetry_2
_geom_torsion_site_symmetry_3
_geom_torsion_site_symmetry_4
_geom_torsion_publ_flag
O5 Cd1 O1 C6 89.5(4) 3_554 . . . ?
O1W Cd1 O1 C6 -156.8(4) . . . . ?
N1 Cd1 O1 C6 -2.6(5) . . . . ?
O2 Cd1 O1 C6 -79.9(4) 3_554 . . . ?
O4 Cd1 O1 C6 154.4(4) 3_554 . . . ?
O3 Cd1 O1 C6 -146.8(4) 3_554 . . . ?
O1 Cd1 N1 C5 -32.1(7) . . . . ?
O5 Cd1 N1 C5 -130.8(6) 3_554 . . . ?
O1W Cd1 N1 C5 137.7(6) . . . . ?
O2 Cd1 N1 C5 42.3(6) 3_554 . . . ?
O4 Cd1 N1 C5 -167.0(5) 3_554 . . . ?
O3 Cd1 N1 C5 71.3(7) 3_554 . . . ?
O1 Cd1 N1 C1 152.9(5) . . . . ?
O5 Cd1 N1 C1 54.2(5) 3_554 . . . ?
O1W Cd1 N1 C1 -37.4(5) . . . . ?
O2 Cd1 N1 C1 -132.7(6) 3_554 . . . ?
O4 Cd1 N1 C1 17.9(7) 3_554 . . . ?
O3 Cd1 N1 C1 -103.8(6) 3_554 . . . ?
C7 O3 C8 C9 -16.5(8) . . . . ?
Cd1 O3 C8 C9 -172.5(4) 3 . . . ?
C7 O3 C8 C13 163.2(5) . . . . ?
Cd1 O3 C8 C13 7.1(6) 3 . . . ?
C2 C3 C4 C5 -0.1(11) . . . . ?
C3 C3 C4 C5 179.3(6) 2_565 . . . ?
C4 C3 C2 C1 -0.1(10) . . . . ?
C3 C3 C2 C1 -179.5(5) 2_565 . . . ?
C14 O4 C13 C8 -169.9(6) . . . . ?
Cd1 O4 C13 C8 -1.4(7) 3 . . . ?
C14 O4 C13 C12 9.7(9) . . . . ?
Cd1 O4 C13 C12 178.2(4) 3 . . . ?
O3 C8 C13 O4 -3.5(7) . . . . ?
C9 C8 C13 O4 176.2(5) . . . . ?
O3 C8 C13 C12 176.9(5) . . . . ?
C9 C8 C13 C12 -3.5(8) . . . . ?
C8 O3 C7 C6 -168.0(5) . . . . ?
Cd1 O3 C7 C6 -9.5(6) 3 . . . ?
C5 N1 C1 C2 0.5(11) . . . . ?
Cd1 N1 C1 C2 175.7(5) . . . . ?
C3 C2 C1 N1 -0.1(11) . . . . ?
O4 C13 C12 C11 -176.7(6) . . . . ?
C8 C13 C12 C11 2.9(9) . . . . ?
C1 N1 C5 C4 -0.7(12) . . . . ?
Cd1 N1 C5 C4 -175.9(6) . . . . ?
C3 C4 C5 N1 0.6(13) . . . . ?
Cd1 O1 C6 O2 -24.3(8) . . . . ?
Cd1 O1 C6 C7 151.5(4) . . . . ?
Cd1 O2 C6 O1 -146.4(5) 3 . . . ?
Cd1 O2 C6 C7 38.0(7) 3 . . . ?
O3 C7 C6 O1 167.6(5) . . . . ?
O3 C7 C6 O2 -16.4(8) . . . . ?
Cd1 O5 C15 O6 179.5(8) 3 . . . ?
Cd1 O5 C15 C14 1.0(11) 3 . . . ?
C13 C12 C11 C10 -0.7(9) . . . . ?
C9 C10 C11 C12 -0.9(10) . . . . ?
C11 C10 C9 C8 0.4(9) . . . . ?
O3 C8 C9 C10 -178.6(5) . . . . ?
C13 C8 C9 C10 1.8(9) . . . . ?
C13 O4 C14 C15 173.2(6) . . . . ?
Cd1 O4 C14 C15 3.7(7) 3 . . . ?
O5 C15 C14 O4 -3.3(10) . . . . ?
O6 C15 C14 O4 178.0(7) . . . . ?

loop_
_geom_hbond_atom_site_label_D
_geom_hbond_atom_site_label_H
_geom_hbond_atom_site_label_A
_geom_hbond_distance_DH
_geom_hbond_distance_HA
_geom_hbond_distance_DA
_geom_hbond_angle_DHA
_geom_hbond_site_symmetry_A
O2W H22W O6 0.85 2.18 2.764(9) 125.7 1_554
O1W H11W O2W 0.86 1.90 2.713(9) 158.0 1_455
O1W H12W O6 0.85 1.90 2.712(11) 158.3 3_553

_diffrn_measured_fraction_theta_max 0.999
_diffrn_reflns_theta_full        25.00
_diffrn_measured_fraction_theta_full 0.999
_refine_diff_density_max         1.051
_refine_diff_density_min         -0.418
_refine_diff_density_rms         0.145
