####################################################################### 
# 
# This file contains crystal structure data downloaded from the 
# Cambridge Structural Database (CSD) hosted by the Cambridge 
# Crystallographic Data Centre (CCDC).
# 
# Full information about CCDC data access policies and citation 
# guidelines are available at http://www.ccdc.cam.ac.uk/access/V1 
# 
# Audit and citation data items may have been added by the CCDC. 
# Please retain this information to preserve the provenance of 
# this file and to allow appropriate attribution of the data. 
# 
#######################################################################

data_3
_audit_block_doi                 10.5517/ccxzbkr
_database_code_depnum_ccdc_archive 'CCDC 863305'
loop_
_citation_id
_citation_doi
_citation_year
1 10.1007/s11426-012-4589-7 2012
_audit_update_record             
;
2012-01-17 deposited with the CCDC.	2024-07-10 downloaded from the CCDC.
;
#TrackingRef 'yaomx-1-4.cif'



_audit_creation_method           SHELXL-97
_chemical_name_systematic        
;
?
;
_chemical_name_common            ?
_chemical_melting_point          ?
_chemical_formula_moiety         ?
_chemical_formula_sum            'C46 H48 B Fe Mn N11 O4'
_chemical_formula_weight         940.55

loop_
_atom_type_symbol
_atom_type_description
_atom_type_scat_dispersion_real
_atom_type_scat_dispersion_imag
_atom_type_scat_source
C C 0.0033 0.0016 'International Tables Vol C Tables 4.2.6.8 and 6.1.1.4'
H H 0.0000 0.0000 'International Tables Vol C Tables 4.2.6.8 and 6.1.1.4'
B B 0.0013 0.0007 'International Tables Vol C Tables 4.2.6.8 and 6.1.1.4'
N N 0.0061 0.0033 'International Tables Vol C Tables 4.2.6.8 and 6.1.1.4'
O O 0.0106 0.0060 'International Tables Vol C Tables 4.2.6.8 and 6.1.1.4'
Mn Mn 0.3368 0.7283 'International Tables Vol C Tables 4.2.6.8 and 6.1.1.4'
Fe Fe 0.3463 0.8444 'International Tables Vol C Tables 4.2.6.8 and 6.1.1.4'

_symmetry_cell_setting           monoclinic
_symmetry_space_group_name_H-M   P2(1)

loop_
_symmetry_equiv_pos_as_xyz
'x, y, z'
'-x, y+1/2, -z'

_cell_length_a                   13.2852(17)
_cell_length_b                   14.9463(19)
_cell_length_c                   27.2850(15)
_cell_angle_alpha                90.00
_cell_angle_beta                 102.759(3)
_cell_angle_gamma                90.00
_cell_volume                     5284.1(10)
_cell_formula_units_Z            4
_cell_measurement_temperature    291(2)
_cell_measurement_reflns_used    ?
_cell_measurement_theta_min      ?
_cell_measurement_theta_max      ?

_exptl_crystal_description       rod-like
_exptl_crystal_colour            dark-brown
_exptl_crystal_size_max          0.28
_exptl_crystal_size_mid          0.22
_exptl_crystal_size_min          0.20
_exptl_crystal_density_meas      ?
_exptl_crystal_density_diffrn    1.182
_exptl_crystal_density_method    'not measured'
_exptl_crystal_F_000             1956
_exptl_absorpt_coefficient_mu    0.562
_exptl_absorpt_correction_type   multi-scan
_exptl_absorpt_correction_T_min  0.8129
_exptl_absorpt_correction_T_max  0.8610
_exptl_absorpt_process_details   'SADABS, Bruker(2000)'

_exptl_special_details           
;
?
;

_diffrn_ambient_temperature      291(2)
_diffrn_radiation_wavelength     0.71073
_diffrn_radiation_type           MoK\a
_diffrn_radiation_source         'fine-focus sealed tube'
_diffrn_radiation_monochromator  graphite
_diffrn_measurement_device_type  ?
_diffrn_measurement_method       ?
_diffrn_detector_area_resol_mean ?
_diffrn_standards_number         ?
_diffrn_standards_interval_count ?
_diffrn_standards_interval_time  ?
_diffrn_standards_decay_%        ?
_diffrn_reflns_number            39453
_diffrn_reflns_av_R_equivalents  0.0395
_diffrn_reflns_av_sigmaI/netI    0.0790
_diffrn_reflns_limit_h_min       -16
_diffrn_reflns_limit_h_max       15
_diffrn_reflns_limit_k_min       -18
_diffrn_reflns_limit_k_max       18
_diffrn_reflns_limit_l_min       -33
_diffrn_reflns_limit_l_max       33
_diffrn_reflns_theta_min         0.77
_diffrn_reflns_theta_max         26.00
_reflns_number_total             20452
_reflns_number_gt                16311
_reflns_threshold_expression     >2sigma(I)

_computing_data_collection       ?
_computing_cell_refinement       ?
_computing_data_reduction        ?
_computing_structure_solution    'SHELXS-97 (Sheldrick, 1990)'
_computing_structure_refinement  'SHELXL-97 (Sheldrick, 1997)'
_computing_molecular_graphics    ?
_computing_publication_material  ?

_refine_special_details          
;
Refinement of F^2^ against ALL reflections. The weighted R-factor wR and
goodness of fit S are based on F^2^, conventional R-factors R are based
on F, with F set to zero for negative F^2^. The threshold expression of
F^2^ > 2sigma(F^2^) is used only for calculating R-factors(gt) etc. and is
not relevant to the choice of reflections for refinement. R-factors based
on F^2^ are statistically about twice as large as those based on F, and R-
factors based on ALL data will be even larger.
;

_refine_ls_structure_factor_coef Fsqd
_refine_ls_matrix_type           fullcycle
_refine_ls_weighting_scheme      calc
_refine_ls_weighting_details     
'calc w=1/[\s^2^(Fo^2^)+(0.0500P)^2^+1.7700P] where P=(Fo^2^+2Fc^2^)/3'
_atom_sites_solution_primary     direct
_atom_sites_solution_secondary   difmap
_atom_sites_solution_hydrogens   geom
_refine_ls_hydrogen_treatment    constr
_refine_ls_extinction_method     none
_refine_ls_extinction_coef       ?
_chemical_absolute_configuration unk
_refine_ls_abs_structure_details 'Flack H D (1983), Acta Cryst. A39, 876-881'
_refine_ls_abs_structure_Flack   0.088(13)
_refine_ls_number_reflns         20452
_refine_ls_number_parameters     1238
_refine_ls_number_restraints     1
_refine_ls_R_factor_all          0.0755
_refine_ls_R_factor_gt           0.0619
_refine_ls_wR_factor_ref         0.1202
_refine_ls_wR_factor_gt          0.1172
_refine_ls_goodness_of_fit_ref   1.024
_refine_ls_restrained_S_all      1.024
_refine_ls_shift/su_max          0.000
_refine_ls_shift/su_mean         0.000

loop_
_atom_site_label
_atom_site_type_symbol
_atom_site_fract_x
_atom_site_fract_y
_atom_site_fract_z
_atom_site_U_iso_or_equiv
_atom_site_adp_type
_atom_site_occupancy
_atom_site_symmetry_multiplicity
_atom_site_calc_flag
_atom_site_refinement_flags
_atom_site_disorder_assembly
_atom_site_disorder_group
B1 B 0.1929(3) 0.3873(3) 0.1355(2) 0.0378(11) Uani 1 1 d . . .
H101 H 0.1595 0.3577 0.1606 0.045 Uiso 1 1 d R . .
B2 B 0.7830(4) 0.1110(4) 0.35334(19) 0.0418(12) Uani 1 1 d . . .
H102 H 0.8032 0.1621 0.3224 0.050 Uiso 1 1 d R . .
C1 C 0.1234(3) 0.6768(3) 0.04807(17) 0.0431(10) Uani 1 1 d . . .
H1A H 0.1332 0.6509 0.0173 0.065 Uiso 1 1 calc R . .
H1B H 0.1807 0.7152 0.0618 0.065 Uiso 1 1 calc R . .
H1C H 0.0608 0.7111 0.0416 0.065 Uiso 1 1 calc R . .
C2 C 0.1170(3) 0.6076(3) 0.08305(16) 0.0376(9) Uani 1 1 d . . .
C3 C 0.0640(3) 0.6077(3) 0.12232(15) 0.0384(9) Uani 1 1 d . . .
H3 H 0.0244 0.6545 0.1304 0.046 Uiso 1 1 calc R . .
C4 C 0.0806(3) 0.5269(3) 0.14684(16) 0.0389(9) Uani 1 1 d . . .
C5 C 0.0391(4) 0.4965(3) 0.18837(16) 0.0496(11) Uani 1 1 d . . .
H5A H 0.0935 0.4713 0.2137 0.074 Uiso 1 1 calc R . .
H5B H -0.0126 0.4518 0.1769 0.074 Uiso 1 1 calc R . .
H5C H 0.0088 0.5461 0.2022 0.074 Uiso 1 1 calc R . .
C6 C 0.1693(3) 0.3018(3) -0.04190(16) 0.0426(10) Uani 1 1 d . . .
H6A H 0.2361 0.3241 -0.0439 0.064 Uiso 1 1 calc R . .
H6B H 0.1171 0.3429 -0.0582 0.064 Uiso 1 1 calc R . .
H6C H 0.1581 0.2446 -0.0582 0.064 Uiso 1 1 calc R . .
C7 C 0.1641(3) 0.2921(3) 0.01280(15) 0.0375(9) Uani 1 1 d . . .
C8 C 0.1202(3) 0.2226(3) 0.03113(18) 0.0507(11) Uani 1 1 d . . .
H8 H 0.0957 0.1701 0.0144 0.061 Uiso 1 1 calc R . .
C9 C 0.1191(3) 0.2439(3) 0.07719(16) 0.0434(10) Uani 1 1 d . . .
C10 C 0.0771(3) 0.1980(3) 0.11930(18) 0.0530(12) Uani 1 1 d . . .
H10A H 0.0180 0.1624 0.1047 0.079 Uiso 1 1 calc R . .
H10B H 0.0577 0.2428 0.1407 0.079 Uiso 1 1 calc R . .
H10C H 0.1297 0.1604 0.1387 0.079 Uiso 1 1 calc R . .
C11 C 0.5316(3) 0.4995(3) 0.11451(15) 0.0374(9) Uani 1 1 d . . .
H11A H 0.5250 0.5635 0.1148 0.056 Uiso 1 1 calc R . .
H11B H 0.5186 0.4787 0.0804 0.056 Uiso 1 1 calc R . .
H11C H 0.6003 0.4829 0.1315 0.056 Uiso 1 1 calc R . .
C12 C 0.4560(3) 0.4587(3) 0.14049(15) 0.0365(9) Uani 1 1 d . . .
C13 C 0.4725(3) 0.4235(3) 0.18833(15) 0.0391(9) Uani 1 1 d . . .
H13 H 0.5350 0.4209 0.2117 0.047 Uiso 1 1 calc R . .
C14 C 0.3771(3) 0.3924(3) 0.19483(16) 0.0426(10) Uani 1 1 d . . .
C15 C 0.3540(3) 0.3498(3) 0.23914(15) 0.0484(11) Uani 1 1 d . . .
H15A H 0.3434 0.2869 0.2330 0.073 Uiso 1 1 calc R . .
H15B H 0.2927 0.3758 0.2462 0.073 Uiso 1 1 calc R . .
H15C H 0.4108 0.3586 0.2673 0.073 Uiso 1 1 calc R . .
C16 C 0.1875(3) 0.5069(3) -0.01683(15) 0.0400(10) Uani 1 1 d . . .
C17 C 0.3329(3) 0.5874(3) 0.04563(15) 0.0351(9) Uani 1 1 d . . .
C18 C 0.3694(3) 0.4218(3) 0.02069(16) 0.0355(9) Uani 1 1 d . . .
C19 C 0.2837(3) 0.8847(2) 0.03737(14) 0.0292(8) Uani 1 1 d . . .
C20 C 0.2419(3) 0.9300(3) 0.07230(16) 0.0428(10) Uani 1 1 d . . .
H20 H 0.2831 0.9434 0.1037 0.051 Uiso 1 1 calc R . .
C21 C 0.1395(3) 0.9557(3) 0.06115(18) 0.0511(12) Uani 1 1 d . . .
H21 H 0.1117 0.9855 0.0850 0.061 Uiso 1 1 calc R . .
C22 C 0.0781(3) 0.9368(3) 0.01392(17) 0.0440(10) Uani 1 1 d . . .
H22 H 0.0094 0.9548 0.0062 0.053 Uiso 1 1 calc R . .
C23 C 0.1183(3) 0.8917(3) -0.02138(16) 0.0399(9) Uani 1 1 d . . .
H23 H 0.0771 0.8792 -0.0529 0.048 Uiso 1 1 calc R . .
C24 C 0.2219(3) 0.8648(3) -0.00953(14) 0.0362(9) Uani 1 1 d . . .
C25 C 0.2583(3) 0.8219(3) -0.04833(17) 0.0426(10) Uani 1 1 d . . .
H25 H 0.2112 0.8146 -0.0788 0.051 Uiso 1 1 calc R . .
C26 C 0.3853(3) 0.7528(3) -0.08895(15) 0.0353(9) Uani 1 1 d . . .
H26 H 0.4347 0.7945 -0.0984 0.042 Uiso 1 1 calc R . .
C27 C 0.2972(3) 0.7402(3) -0.13427(13) 0.0323(8) Uani 1 1 d . . .
C28 C 0.2285(3) 0.6690(3) -0.13796(15) 0.0339(8) Uani 1 1 d . . .
H28 H 0.2382 0.6252 -0.1131 0.041 Uiso 1 1 calc R . .
C29 C 0.1444(3) 0.6635(3) -0.17930(16) 0.0444(10) Uani 1 1 d . . .
H29 H 0.0983 0.6159 -0.1820 0.053 Uiso 1 1 calc R . .
C30 C 0.1304(3) 0.7291(3) -0.21595(16) 0.0439(10) Uani 1 1 d . . .
H30 H 0.0748 0.7254 -0.2434 0.053 Uiso 1 1 calc R . .
C31 C 0.1986(3) 0.8004(3) -0.21210(15) 0.0440(10) Uani 1 1 d . . .
H31 H 0.1882 0.8444 -0.2368 0.053 Uiso 1 1 calc R . .
C32 C 0.2821(4) 0.8062(3) -0.17166(16) 0.0482(11) Uani 1 1 d . . .
H32 H 0.3280 0.8537 -0.1693 0.058 Uiso 1 1 calc R . .
C33 C 0.4438(3) 0.6697(3) -0.06778(15) 0.0441(10) Uani 1 1 d . . .
H33 H 0.3935 0.6248 -0.0625 0.053 Uiso 1 1 calc R . .
C34 C 0.5004(3) 0.6327(3) -0.10676(16) 0.0446(10) Uani 1 1 d . . .
C35 C 0.4725(4) 0.5460(3) -0.12163(18) 0.0505(11) Uani 1 1 d . . .
H35 H 0.4220 0.5166 -0.1090 0.061 Uiso 1 1 calc R . .
C36 C 0.5201(3) 0.5030(3) -0.15549(17) 0.0472(11) Uani 1 1 d . . .
H36 H 0.5006 0.4450 -0.1657 0.057 Uiso 1 1 calc R . .
C37 C 0.5961(4) 0.5451(3) -0.17433(18) 0.0531(12) Uani 1 1 d . . .
H37 H 0.6283 0.5156 -0.1967 0.064 Uiso 1 1 calc R . .
C38 C 0.6242(3) 0.6333(3) -0.15923(17) 0.0440(10) Uani 1 1 d . . .
H38 H 0.6744 0.6626 -0.1721 0.053 Uiso 1 1 calc R . .
C39 C 0.5765(3) 0.6774(3) -0.12469(16) 0.0450(10) Uani 1 1 d . . .
H39 H 0.5957 0.7354 -0.1141 0.054 Uiso 1 1 calc R . .
C40 C 0.5934(3) 0.6365(3) -0.00379(16) 0.0403(9) Uani 1 1 d . . .
H40 H 0.6116 0.5955 -0.0260 0.048 Uiso 1 1 calc R . .
C41 C 0.6561(3) 0.6400(3) 0.04607(16) 0.0345(9) Uani 1 1 d . . .
C42 C 0.7346(3) 0.5773(3) 0.05672(18) 0.0432(11) Uani 1 1 d . . .
H42 H 0.7468 0.5404 0.0312 0.052 Uiso 1 1 calc R . .
C43 C 0.7957(3) 0.5688(4) 0.10505(19) 0.0532(13) Uani 1 1 d . . .
H43 H 0.8473 0.5257 0.1121 0.064 Uiso 1 1 calc R . .
C44 C 0.7782(4) 0.6260(3) 0.14271(17) 0.0466(12) Uani 1 1 d . . .
H44 H 0.8195 0.6219 0.1749 0.056 Uiso 1 1 calc R . .
C45 C 0.6997(3) 0.6888(3) 0.13244(17) 0.0428(12) Uani 1 1 d . . .
H45 H 0.6881 0.7263 0.1578 0.051 Uiso 1 1 calc R . .
C46 C 0.6382(3) 0.6961(3) 0.08403(15) 0.0347(10) Uani 1 1 d . . .
C47 C 0.4368(4) -0.0025(3) 0.36835(19) 0.0535(12) Uani 1 1 d . . .
H47A H 0.4063 0.0373 0.3886 0.080 Uiso 1 1 calc R . .
H47B H 0.4691 -0.0515 0.3886 0.080 Uiso 1 1 calc R . .
H47C H 0.3841 -0.0250 0.3412 0.080 Uiso 1 1 calc R . .
C48 C 0.5163(3) 0.0473(3) 0.34735(16) 0.0390(10) Uani 1 1 d . . .
C49 C 0.5008(4) 0.0801(3) 0.29846(17) 0.0494(12) Uani 1 1 d . . .
H49 H 0.4402 0.0796 0.2737 0.059 Uiso 1 1 calc R . .
C50 C 0.5929(3) 0.1124(3) 0.29523(16) 0.0398(10) Uani 1 1 d . . .
C51 C 0.6250(3) 0.1547(3) 0.25075(17) 0.0431(10) Uani 1 1 d . . .
H51A H 0.6458 0.1088 0.2304 0.065 Uiso 1 1 calc R . .
H51B H 0.6817 0.1947 0.2625 0.065 Uiso 1 1 calc R . .
H51C H 0.5679 0.1874 0.2311 0.065 Uiso 1 1 calc R . .
C52 C 0.8456(4) -0.1876(3) 0.43810(17) 0.0488(11) Uani 1 1 d . . .
H52A H 0.7784 -0.2137 0.4271 0.073 Uiso 1 1 calc R . .
H52B H 0.8538 -0.1668 0.4720 0.073 Uiso 1 1 calc R . .
H52C H 0.8974 -0.2317 0.4366 0.073 Uiso 1 1 calc R . .
C53 C 0.8574(3) -0.1065(3) 0.40294(16) 0.0398(10) Uani 1 1 d . . .
C54 C 0.9164(3) -0.1028(3) 0.36774(16) 0.0441(10) Uani 1 1 d . . .
H54 H 0.9602 -0.1468 0.3603 0.053 Uiso 1 1 calc R . .
C55 C 0.8979(3) -0.0249(3) 0.34699(17) 0.0465(10) Uani 1 1 d . . .
C56 C 0.9385(4) 0.0207(4) 0.30279(17) 0.0506(11) Uani 1 1 d . . .
H56A H 0.9874 -0.0182 0.2923 0.076 Uiso 1 1 calc R . .
H56B H 0.9712 0.0764 0.3142 0.076 Uiso 1 1 calc R . .
H56C H 0.8815 0.0314 0.2750 0.076 Uiso 1 1 calc R . .
C57 C 0.8061(4) 0.1840(3) 0.53135(17) 0.0517(12) Uani 1 1 d . . .
H57A H 0.8610 0.1452 0.5477 0.077 Uiso 1 1 calc R . .
H57B H 0.7409 0.1575 0.5326 0.077 Uiso 1 1 calc R . .
H57C H 0.8125 0.2408 0.5482 0.077 Uiso 1 1 calc R . .
C58 C 0.8122(3) 0.1973(3) 0.47715(18) 0.0461(11) Uani 1 1 d . . .
C59 C 0.8604(4) 0.2684(3) 0.45796(18) 0.0505(11) Uani 1 1 d . . .
H59 H 0.8904 0.3189 0.4751 0.061 Uiso 1 1 calc R . .
C60 C 0.8536(3) 0.2469(3) 0.40739(18) 0.0418(10) Uani 1 1 d . . .
C61 C 0.8948(4) 0.3010(3) 0.37010(19) 0.0515(12) Uani 1 1 d . . .
H61A H 0.9400 0.2646 0.3555 0.077 Uiso 1 1 calc R . .
H61B H 0.9323 0.3514 0.3867 0.077 Uiso 1 1 calc R . .
H61C H 0.8385 0.3216 0.3442 0.077 Uiso 1 1 calc R . .
C62 C 0.7789(3) -0.0155(3) 0.50179(17) 0.0482(11) Uani 1 1 d . . .
C63 C 0.5983(3) 0.0718(3) 0.47031(16) 0.0397(10) Uani 1 1 d . . .
C64 C 0.6350(3) -0.0917(3) 0.44101(17) 0.0421(10) Uani 1 1 d . . .
C65 C 0.2581(3) 0.1111(3) 0.52696(16) 0.0404(10) Uani 1 1 d . . .
C66 C 0.2206(4) 0.0575(4) 0.56097(18) 0.0549(13) Uani 1 1 d . . .
H66 H 0.2629 0.0430 0.5919 0.066 Uiso 1 1 calc R . .
C67 C 0.1192(4) 0.0259(3) 0.54832(17) 0.0514(12) Uani 1 1 d . . .
H67 H 0.0936 -0.0095 0.5708 0.062 Uiso 1 1 calc R . .
C68 C 0.0569(3) 0.0477(3) 0.50199(16) 0.0412(10) Uani 1 1 d . . .
H68 H -0.0103 0.0261 0.4931 0.049 Uiso 1 1 calc R . .
C69 C 0.0952(3) 0.1023(3) 0.46866(18) 0.0443(11) Uani 1 1 d . . .
H69 H 0.0527 0.1182 0.4380 0.053 Uiso 1 1 calc R . .
C70 C 0.1960(3) 0.1329(3) 0.48105(17) 0.0369(9) Uani 1 1 d . . .
C71 C 0.2267(3) 0.1912(3) 0.44523(16) 0.0411(10) Uani 1 1 d . . .
H71 H 0.1775 0.2066 0.4166 0.049 Uiso 1 1 calc R . .
C72 C 0.3337(3) 0.2916(3) 0.41014(16) 0.0410(10) Uani 1 1 d . . .
H72 H 0.3156 0.3512 0.4204 0.049 Uiso 1 1 calc R . .
C73 C 0.2641(3) 0.2696(3) 0.36068(15) 0.0376(9) Uani 1 1 d . . .
C74 C 0.1839(3) 0.3270(4) 0.3402(2) 0.0541(12) Uani 1 1 d . . .
H74 H 0.1713 0.3769 0.3583 0.065 Uiso 1 1 calc R . .
C75 C 0.1225(3) 0.3106(3) 0.29316(18) 0.0493(12) Uani 1 1 d . . .
H75 H 0.0682 0.3488 0.2798 0.059 Uiso 1 1 calc R . .
C76 C 0.1426(4) 0.2363(3) 0.26590(18) 0.0514(12) Uani 1 1 d . . .
H76 H 0.1017 0.2253 0.2342 0.062 Uiso 1 1 calc R . .
C77 C 0.2233(4) 0.1789(4) 0.28585(18) 0.0517(12) Uani 1 1 d . . .
H77 H 0.2368 0.1294 0.2677 0.062 Uiso 1 1 calc R . .
C78 C 0.2836(4) 0.1965(3) 0.33349(18) 0.0509(12) Uani 1 1 d . . .
H78 H 0.3379 0.1583 0.3471 0.061 Uiso 1 1 calc R . .
C79 C 0.4510(3) 0.2888(3) 0.41362(14) 0.0342(8) Uani 1 1 d . . .
H79 H 0.4675 0.2302 0.4012 0.041 Uiso 1 1 calc R . .
C80 C 0.4853(3) 0.3597(3) 0.38102(17) 0.0461(11) Uani 1 1 d . . .
C81 C 0.4477(3) 0.4473(3) 0.38136(18) 0.0478(11) Uani 1 1 d . . .
H81 H 0.4036 0.4618 0.4023 0.057 Uiso 1 1 calc R . .
C82 C 0.4757(4) 0.5121(3) 0.35089(17) 0.0509(12) Uani 1 1 d . . .
H82 H 0.4513 0.5704 0.3515 0.061 Uiso 1 1 calc R . .
C83 C 0.5410(4) 0.4895(4) 0.31921(16) 0.0528(13) Uani 1 1 d . . .
H83 H 0.5595 0.5327 0.2984 0.063 Uiso 1 1 calc R . .
C84 C 0.5784(4) 0.4031(3) 0.31855(18) 0.0508(12) Uani 1 1 d . . .
H84 H 0.6221 0.3885 0.2974 0.061 Uiso 1 1 calc R . .
C85 C 0.5507(4) 0.3382(3) 0.34958(16) 0.0464(11) Uani 1 1 d . . .
H85 H 0.5760 0.2802 0.3493 0.056 Uiso 1 1 calc R . .
C86 C 0.5780(3) 0.3472(3) 0.48498(18) 0.0459(11) Uani 1 1 d . . .
H86 H 0.5994 0.3852 0.4623 0.055 Uiso 1 1 calc R . .
C87 C 0.6317(3) 0.3503(3) 0.53720(17) 0.0406(10) Uani 1 1 d . . .
C88 C 0.7082(4) 0.4159(3) 0.54781(18) 0.0503(12) Uani 1 1 d . . .
H88 H 0.7191 0.4538 0.5225 0.060 Uiso 1 1 calc R . .
C89 C 0.7679(4) 0.4245(4) 0.59613(18) 0.0535(13) Uani 1 1 d . . .
H89 H 0.8183 0.4687 0.6031 0.064 Uiso 1 1 calc R . .
C90 C 0.7532(3) 0.3676(3) 0.63437(17) 0.0415(11) Uani 1 1 d . . .
H90 H 0.7936 0.3739 0.6667 0.050 Uiso 1 1 calc R . .
C91 C 0.6773(4) 0.3009(3) 0.62407(18) 0.0493(12) Uani 1 1 d . . .
H91 H 0.6673 0.2625 0.6494 0.059 Uiso 1 1 calc R . .
C92 C 0.6167(3) 0.2928(3) 0.57525(16) 0.0389(10) Uani 1 1 d . . .
Fe1 Fe 0.26902(4) 0.47372(6) 0.04946(2) 0.03073(13) Uani 1 1 d . . .
Fe2 Fe 0.70346(4) 0.02086(6) 0.43816(2) 0.03417(14) Uani 1 1 d . . .
Mn1 Mn 0.45655(4) 0.77851(7) 0.01973(2) 0.03077(14) Uani 1 1 d . . .
Mn2 Mn 0.43414(5) 0.21566(7) 0.51011(2) 0.03877(16) Uani 1 1 d . . .
N1 N 0.1659(2) 0.5248(3) 0.08351(13) 0.0349(7) Uani 1 1 d . . .
N2 N 0.1399(2) 0.4790(3) 0.12186(12) 0.0354(7) Uani 1 1 d . . .
N3 N 0.1955(2) 0.3551(2) 0.04600(12) 0.0335(8) Uani 1 1 d . . .
N4 N 0.1685(2) 0.3287(2) 0.08945(13) 0.0332(8) Uani 1 1 d . . .
N5 N 0.3570(3) 0.4423(3) 0.