####################################################################### 
# 
# This file contains crystal structure data downloaded from the 
# Cambridge Structural Database (CSD) hosted by the Cambridge 
# Crystallographic Data Centre (CCDC).
# 
# Full information about CCDC data access policies and citation 
# guidelines are available at http://www.ccdc.cam.ac.uk/access/V1 
# 
# Audit and citation data items may have been added by the CCDC. 
# Please retain this information to preserve the provenance of 
# this file and to allow appropriate attribution of the data. 
# 
#######################################################################

data_4
_audit_block_doi                 10.5517/ccxzbls
_database_code_depnum_ccdc_archive 'CCDC 863306'
loop_
_citation_id
_citation_doi
_citation_year
1 10.1007/s11426-012-4589-7 2012
_audit_update_record             
;
2012-01-17 deposited with the CCDC.	2024-07-10 downloaded from the CCDC.
;
#TrackingRef 'yaomx-1-4.cif'


_audit_creation_method           SHELXL-97
_chemical_name_systematic        
;
?
;
_chemical_name_common            ?
_chemical_melting_point          ?
_chemical_formula_moiety         'C46 H44 B Fe Mn N11 O2, 2(H2 O)'
_chemical_formula_sum            'C46 H48 B Fe Mn N11 O4'
_chemical_formula_weight         940.55

loop_
_atom_type_symbol
_atom_type_description
_atom_type_scat_dispersion_real
_atom_type_scat_dispersion_imag
_atom_type_scat_source
C C 0.0033 0.0016 'International Tables Vol C Tables 4.2.6.8 and 6.1.1.4'
H H 0.0000 0.0000 'International Tables Vol C Tables 4.2.6.8 and 6.1.1.4'
B B 0.0013 0.0007 'International Tables Vol C Tables 4.2.6.8 and 6.1.1.4'
N N 0.0061 0.0033 'International Tables Vol C Tables 4.2.6.8 and 6.1.1.4'
O O 0.0106 0.0060 'International Tables Vol C Tables 4.2.6.8 and 6.1.1.4'
Mn Mn 0.3368 0.7283 'International Tables Vol C Tables 4.2.6.8 and 6.1.1.4'
Fe Fe 0.3463 0.8444 'International Tables Vol C Tables 4.2.6.8 and 6.1.1.4'

_symmetry_cell_setting           monoclinic
_symmetry_space_group_name_H-M   P2(1)

loop_
_symmetry_equiv_pos_as_xyz
'x, y, z'
'-x, y+1/2, -z'

_cell_length_a                   13.279(2)
_cell_length_b                   14.915(3)
_cell_length_c                   27.4278(15)
_cell_angle_alpha                90.00
_cell_angle_beta                 102.879(3)
_cell_angle_gamma                90.00
_cell_volume                     5295.5(14)
_cell_formula_units_Z            4
_cell_measurement_temperature    291(2)
_cell_measurement_reflns_used    ?
_cell_measurement_theta_min      ?
_cell_measurement_theta_max      ?

_exptl_crystal_description       rod-like
_exptl_crystal_colour            dark-brown
_exptl_crystal_size_max          0.28
_exptl_crystal_size_mid          0.22
_exptl_crystal_size_min          0.20
_exptl_crystal_density_meas      ?
_exptl_crystal_density_diffrn    1.180
_exptl_crystal_density_method    'not measured'
_exptl_crystal_F_000             1956
_exptl_absorpt_coefficient_mu    0.561
_exptl_absorpt_correction_type   multi-scan
_exptl_absorpt_correction_T_min  0.8129
_exptl_absorpt_correction_T_max  0.8610
_exptl_absorpt_process_details   'SADABS, Bruker(2000)'

_exptl_special_details           
;
?
;

_diffrn_ambient_temperature      291(2)
_diffrn_radiation_wavelength     0.71073
_diffrn_radiation_type           MoK\a
_diffrn_radiation_source         'fine-focus sealed tube'
_diffrn_radiation_monochromator  graphite
_diffrn_measurement_device_type  ?
_diffrn_measurement_method       ?
_diffrn_detector_area_resol_mean ?
_diffrn_standards_number         ?
_diffrn_standards_interval_count ?
_diffrn_standards_interval_time  ?
_diffrn_standards_decay_%        ?
_diffrn_reflns_number            42813
_diffrn_reflns_av_R_equivalents  0.0406
_diffrn_reflns_av_sigmaI/netI    0.0731
_diffrn_reflns_limit_h_min       -16
_diffrn_reflns_limit_h_max       16
_diffrn_reflns_limit_k_min       -17
_diffrn_reflns_limit_k_max       18
_diffrn_reflns_limit_l_min       -33
_diffrn_reflns_limit_l_max       33
_diffrn_reflns_theta_min         0.76
_diffrn_reflns_theta_max         26.00
_reflns_number_total             19311
_reflns_number_gt                15476
_reflns_threshold_expression     >2sigma(I)

_computing_data_collection       ?
_computing_cell_refinement       ?
_computing_data_reduction        ?
_computing_structure_solution    'SHELXS-97 (Sheldrick, 1990)'
_computing_structure_refinement  'SHELXL-97 (Sheldrick, 1997)'
_computing_molecular_graphics    ?
_computing_publication_material  ?

_refine_special_details          
;
Refinement of F^2^ against ALL reflections. The weighted R-factor wR and
goodness of fit S are based on F^2^, conventional R-factors R are based
on F, with F set to zero for negative F^2^. The threshold expression of
F^2^ > 2sigma(F^2^) is used only for calculating R-factors(gt) etc. and is
not relevant to the choice of reflections for refinement. R-factors based
on F^2^ are statistically about twice as large as those based on F, and R-
factors based on ALL data will be even larger.
;

_refine_ls_structure_factor_coef Fsqd
_refine_ls_matrix_type           fullcycle
_refine_ls_weighting_scheme      calc
_refine_ls_weighting_details     
'calc w=1/[\s^2^(Fo^2^)+(0.06P)^2^+1.99P] where P=(Fo^2^+2Fc^2^)/3'
_atom_sites_solution_primary     direct
_atom_sites_solution_secondary   difmap
_atom_sites_solution_hydrogens   geom
_refine_ls_hydrogen_treatment    constr
_refine_ls_extinction_method     none
_refine_ls_extinction_coef       ?
_refine_ls_abs_structure_details 'Flack H D (1983), Acta Cryst. A39, 876-881'
_refine_ls_abs_structure_Flack   0.030(15)
_chemical_absolute_configuration unk
_refine_ls_number_reflns         19311
_refine_ls_number_parameters     1142
_refine_ls_number_restraints     1
_refine_ls_R_factor_all          0.0792
_refine_ls_R_factor_gt           0.0664
_refine_ls_wR_factor_ref         0.1345
_refine_ls_wR_factor_gt          0.1313
_refine_ls_goodness_of_fit_ref   1.040
_refine_ls_restrained_S_all      1.039
_refine_ls_shift/su_max          0.000
_refine_ls_shift/su_mean         0.000

loop_
_atom_site_label
_atom_site_type_symbol
_atom_site_fract_x
_atom_site_fract_y
_atom_site_fract_z
_atom_site_U_iso_or_equiv
_atom_site_adp_type
_atom_site_occupancy
_atom_site_symmetry_multiplicity
_atom_site_calc_flag
_atom_site_refinement_flags
_atom_site_disorder_assembly
_atom_site_disorder_group
B1 B 0.8067(4) 0.6129(4) 0.8646(2) 0.0402(12) Uani 1 1 d . . .
H101 H 0.8401 0.6425 0.8395 0.048 Uiso 1 1 d R . .
B2 B 0.2174(4) 0.8890(4) 0.6466(2) 0.0442(13) Uani 1 1 d . . .
H102 H 0.1971 0.8380 0.6775 0.053 Uiso 1 1 d R . .
C1 C 0.8769(3) 0.3221(3) 0.95206(18) 0.0457(11) Uani 1 1 d . . .
H1A H 0.8740 0.3479 0.9838 0.069 Uiso 1 1 calc R . .
H1B H 0.9364 0.2839 0.9561 0.069 Uiso 1 1 calc R . .
H1C H 0.8156 0.2874 0.9397 0.069 Uiso 1 1 calc R . .
C2 C 0.8841(3) 0.3924(3) 0.91707(18) 0.0408(11) Uani 1 1 d . . .
C3 C 0.9362(3) 0.3927(3) 0.87761(17) 0.0416(11) Uani 1 1 d . . .
H3 H 0.9754 0.3458 0.8693 0.050 Uiso 1 1 calc R . .
C4 C 0.9195(3) 0.4740(3) 0.85337(17) 0.0409(10) Uani 1 1 d . . .
C5 C 0.9612(4) 0.5035(4) 0.81197(18) 0.0529(13) Uani 1 1 d . . .
H5A H 0.9059 0.5220 0.7850 0.079 Uiso 1 1 calc R . .
H5B H 0.9984 0.4551 0.8010 0.079 Uiso 1 1 calc R . .
H5C H 1.0072 0.5530 0.8223 0.079 Uiso 1 1 calc R . .
C6 C 0.8304(3) 0.6979(3) 1.03991(17) 0.0438(11) Uani 1 1 d . . .
H6A H 0.7646 0.6732 1.0417 0.066 Uiso 1 1 calc R . .
H6B H 0.8386 0.7556 1.0558 0.066 Uiso 1 1 calc R . .
H6C H 0.8844 0.6586 1.0566 0.066 Uiso 1 1 calc R . .
C7 C 0.8359(3) 0.7073(3) 0.98889(17) 0.0393(10) Uani 1 1 d . . .
C8 C 0.8807(4) 0.7770(4) 0.9688(2) 0.0526(13) Uani 1 1 d . . .
H8 H 0.9075 0.8295 0.9850 0.063 Uiso 1 1 calc R . .
C9 C 0.8783(4) 0.7556(3) 0.92358(18) 0.0450(11) Uani 1 1 d . . .
C10 C 0.9234(4) 0.8033(4) 0.88025(19) 0.0542(14) Uani 1 1 d . . .
H10A H 0.9768 0.8448 0.8950 0.081 Uiso 1 1 calc R . .
H10B H 0.8688 0.8350 0.8581 0.081 Uiso 1 1 calc R . .
H10C H 0.9514 0.7587 0.8618 0.081 Uiso 1 1 calc R . .
C11 C 0.4689(3) 0.5011(3) 0.88567(17) 0.0428(11) Uani 1 1 d . . .
H11A H 0.4764 0.4370 0.8856 0.064 Uiso 1 1 calc R . .
H11B H 0.4000 0.5170 0.8686 0.064 Uiso 1 1 calc R . .
H11C H 0.4816 0.5223 0.9195 0.064 Uiso 1 1 calc R . .
C12 C 0.5433(3) 0.5422(3) 0.86005(17) 0.0414(11) Uani 1 1 d . . .
C13 C 0.5272(3) 0.5765(3) 0.81242(17) 0.0428(11) Uani 1 1 d . . .
H13 H 0.4644 0.5784 0.7892 0.051 Uiso 1 1 calc R . .
C14 C 0.6225(3) 0.6083(3) 0.80501(17) 0.0435(11) Uani 1 1 d . . .
C15 C 0.6476(4) 0.6504(4) 0.76064(18) 0.0546(14) Uani 1 1 d . . .
H15A H 0.6582 0.7135 0.7664 0.082 Uiso 1 1 calc R . .
H15B H 0.5916 0.6411 0.7322 0.082 Uiso 1 1 calc R . .
H15C H 0.7094 0.6239 0.7544 0.082 Uiso 1 1 calc R . .
C16 C 0.8110(3) 0.4927(3) 1.01657(16) 0.0385(10) Uani 1 1 d . . .
C17 C 0.6667(3) 0.4124(3) 0.95419(16) 0.0369(10) Uani 1 1 d . . .
C18 C 0.6298(3) 0.5799(3) 0.97927(16) 0.0340(9) Uani 1 1 d . . .
C19 C 0.71608(15) 0.1154(2) 0.96302(10) 0.0340(9) Uani 1 1 d G . .
C20 C 0.7571(2) 0.0698(2) 0.92772(8) 0.0472(12) Uani 1 1 d G . .
H20 H 0.7156 0.0567 0.8965 0.057 Uiso 1 1 calc R . .
C21 C 0.8602(2) 0.0436(2) 0.93910(10) 0.0506(12) Uani 1 1 d G . .
H21 H 0.8876 0.0131 0.9155 0.061 Uiso 1 1 calc R . .
C22 C 0.92222(16) 0.0631(2) 0.98577(11) 0.0489(12) Uani 1 1 d G . .
H22 H 0.9912 0.0457 0.9934 0.059 Uiso 1 1 calc R . .
C23 C 0.88121(18) 0.1088(2) 1.02107(8) 0.0432(11) Uani 1 1 d G . .
H23 H 0.9227 0.1218 1.0523 0.052 Uiso 1 1 calc R . .
C24 C 0.77814(19) 0.1349(2) 1.00969(9) 0.0382(10) Uani 1 1 d G . .
C25 C 0.7408(3) 0.1778(3) 1.04853(18) 0.0438(11) Uani 1 1 d . . .
H25 H 0.7872 0.1839 1.0792 0.053 Uiso 1 1 calc R . .
C26 C 0.6153(3) 0.2472(3) 1.08809(17) 0.0405(10) Uani 1 1 d . . .
H26 H 0.5661 0.2048 1.0971 0.049 Uiso 1 1 calc R . .
C27 C 0.70316(17) 0.2595(2) 1.13437(9) 0.0357(10) Uani 1 1 d G . .
C28 C 0.7718(2) 0.33085(17) 1.13829(9) 0.0386(10) Uani 1 1 d G . .
H28 H 0.7619 0.3748 1.1136 0.046 Uiso 1 1 calc R . .
C29 C 0.85514(19) 0.33658(18) 1.17907(11) 0.0475(12) Uani 1 1 d G . .
H29 H 0.9010 0.3843 1.1817 0.057 Uiso 1 1 calc R . .
C30 C 0.86991(19) 0.2709(2) 1.21593(9) 0.0497(12) Uani 1 1 d G . .
H30 H 0.9257 0.2747 1.2432 0.060 Uiso 1 1 calc R . .
C31 C 0.8013(2) 0.1995(2) 1.21202(10) 0.0490(12) Uani 1 1 d G . .
H31 H 0.8112 0.1555 1.2367 0.059 Uiso 1 1 calc R . .
C32 C 0.7179(2) 0.19377(18) 1.17123(11) 0.0546(13) Uani 1 1 d G . .
H32 H 0.6720 0.1460 1.1686 0.065 Uiso 1 1 calc R . .
C33 C 0.5554(3) 0.3299(3) 1.06802(17) 0.0434(11) Uani 1 1 d . . .
H33 H 0.6055 0.3753 1.0629 0.052 Uiso 1 1 calc R . .
C34 C 0.4987(2) 0.3673(2) 1.10656(11) 0.0493(12) Uani 1 1 d G . .
C35 C 0.5274(2) 0.4544(2) 1.12173(12) 0.0501(12) Uani 1 1 d G . .
H35 H 0.5781 0.4836 1.1092 0.060 Uiso 1 1 calc R . .
C36 C 0.4803(2) 0.49766(16) 1.15562(12) 0.0507(13) Uani 1 1 d G . .
H36 H 0.4995 0.5559 1.1658 0.061 Uiso 1 1 calc R . .
C37 C 0.4045(2) 0.4539(2) 1.17434(11) 0.0528(13) Uani 1 1 d G . .
H37 H 0.3730 0.4829 1.1970 0.063 Uiso 1 1 calc R . .
C38 C 0.3758(2) 0.3669(2) 1.15917(12) 0.0504(12) Uani 1 1 d G . .
H38 H 0.3251 0.3377 1.1717 0.061 Uiso 1 1 calc R . .
C39 C 0.4229(2) 0.32361(15) 1.12528(12) 0.0473(12) Uani 1 1 d G . .
H39 H 0.4038 0.2654 1.1151 0.057 Uiso 1 1 calc R . .
C40 C 0.4071(3) 0.3638(3) 1.00347(17) 0.0403(10) Uani 1 1 d . . .
H40 H 0.3894 0.4056 1.0253 0.048 Uiso 1 1 calc R . .
C41 C 0.34412(19) 0.3597(2) 0.95356(8) 0.0363(10) Uani 1 1 d G . .
C42 C 0.2654(2) 0.4229(2) 0.94315(10) 0.0453(12) Uani 1 1 d G . .
H42 H 0.2536 0.4605 0.9684 0.054 Uiso 1 1 calc R . .
C43 C 0.2043(2) 0.4300(2) 0.89506(12) 0.0576(15) Uani 1 1 d G . .
H43 H 0.1516 0.4724 0.8881 0.069 Uiso 1 1 calc R . .
C44 C 0.2219(2) 0.3739(2) 0.85738(9) 0.0519(14) Uani 1 1 d G . .
H44 H 0.1810 0.3787 0.8252 0.062 Uiso 1 1 calc R . .
C45 C 0.3007(2) 0.3106(2) 0.86779(9) 0.0429(12) Uani 1 1 d G . .
H45 H 0.3125 0.2731 0.8426 0.051 Uiso 1 1 calc R . .
C46 C 0.36177(19) 0.30354(19) 0.91588(10) 0.0379(11) Uani 1 1 d G . .
C47 C 0.5628(4) 1.0022(4) 0.6316(2) 0.0543(14) Uani 1 1 d . . .
H47A H 0.5913 0.9625 0.6107 0.081 Uiso 1 1 calc R . .
H47B H 0.6168 1.0230 0.6586 0.081 Uiso 1 1 calc R . .
H47C H 0.5312 1.0525 0.6122 0.081 Uiso 1 1 calc R . .
C48 C 0.4836(3) 0.9535(3) 0.65231(18) 0.0405(11) Uani 1 1 d . . .
C49 C 0.4983(4) 0.9211(4) 0.70088(19) 0.0493(12) Uani 1 1 d . . .
H49 H 0.5589 0.9225 0.7256 0.059 Uiso 1 1 calc R . .
C50 C 0.4067(4) 0.8875(3) 0.70459(18) 0.0431(11) Uani 1 1 d . . .
C51 C 0.3750(4) 0.8442(4) 0.74932(19) 0.0487(12) Uani 1 1 d . . .
H51A H 0.3550 0.8899 0.7699 0.073 Uiso 1 1 calc R . .
H51B H 0.4323 0.8110 0.7685 0.073 Uiso 1 1 calc R . .
H51C H 0.3179 0.8043 0.7377 0.073 Uiso 1 1 calc R . .
C52 C 0.1543(4) 1.1868(4) 0.56221(19) 0.0507(13) Uani 1 1 d . . .
H52A H 0.2206 1.2145 0.5739 0.076 Uiso 1 1 calc R . .
H52B H 0.1008 1.2298 0.5626 0.076 Uiso 1 1 calc R . .
H52C H 0.1487 1.1654 0.5287 0.076 Uiso 1 1 calc R . .
C53 C 0.1429(4) 1.1065(3) 0.59692(18) 0.0421(11) Uani 1 1 d . . .
C54 C 0.0838(4) 1.1035(4) 0.63223(18) 0.0463(12) Uani 1 1 d . . .
H54 H 0.0401 1.1480 0.6394 0.056 Uiso 1 1 calc R . .
C55 C 0.1020(3) 1.0250(4) 0.65366(18) 0.0486(12) Uani 1 1 d . . .
C56 C 0.0617(4) 0.9808(4) 0.69674(19) 0.0531(13) Uani 1 1 d . . .
H56A H 0.0072 1.0167 0.7043 0.080 Uiso 1 1 calc R . .
H56B H 0.1171 0.9762 0.7259 0.080 Uiso 1 1 calc R . .
H56C H 0.0358 0.9220 0.6867 0.080 Uiso 1 1 calc R . .
C57 C 0.1940(4) 0.8157(4) 0.46827(19) 0.0521(13) Uani 1 1 d . . .
H57A H 0.1414 0.8568 0.4521 0.078 Uiso 1 1 calc R . .
H57B H 0.1845 0.7592 0.4512 0.078 Uiso 1 1 calc R . .
H57C H 0.2607 0.8395 0.4674 0.078 Uiso 1 1 calc R . .
C58 C 0.1866(4) 0.8024(4) 0.5229(2) 0.0491(12) Uani 1 1 d . . .
C59 C 0.1402(4) 0.7300(4) 0.54178(19) 0.0510(12) Uani 1 1 d . . .
H59 H 0.1120 0.6789 0.5246 0.061 Uiso 1 1 calc R . .
C60 C 0.1455(3) 0.7515(3) 0.5937(2) 0.0435(11) Uani 1 1 d . . .
C61 C 0.1042(4) 0.7013(4) 0.6288(2) 0.0557(14) Uani 1 1 d . . .
H61A H 0.1589 0.6854 0.6568 0.084 Uiso 1 1 calc R . .
H61B H 0.0721 0.6479 0.6132 0.084 Uiso 1 1 calc R . .
H61C H 0.0538 0.7369 0.6403 0.084 Uiso 1 1 calc R . .
C62 C 0.2213(4) 1.0141(4) 0.49817(18) 0.0469(12) Uani 1 1 d . . .
C63 C 0.4033(4) 0.9289(3) 0.53031(19) 0.0449(12) Uani 1 1 d . . .
C64 C 0.3644(4) 1.0910(3) 0.55879(19) 0.0441(11) Uani 1 1 d . . .
C65 C 0.74123(16) 0.8891(2) 0.47255(11) 0.0422(11) Uani 1 1 d G . .
C66 C 0.7793(2) 0.9422(2) 0.43907(9) 0.0557(14) Uani 1 1 d G . .
H66 H 0.7373 0.9566 0.4082 0.067 Uiso 1 1 calc R . .
C67 C 0.8803(2) 0.9737(2) 0.45176(11) 0.0525(13) Uani 1 1 d G . .
H67 H 0.9058 1.0092 0.4294 0.063 Uiso 1 1 calc R . .
C68 C 0.94316(17) 0.9522(2) 0.49793(11) 0.0460(12) Uani 1 1 d G . .
H68 H 1.0107 0.9733 0.5064 0.055 Uiso 1 1 calc R . .
C69 C 0.90507(19) 0.8992(2) 0.53141(9) 0.0490(12) Uani 1 1 d G . .
H69 H 0.9471 0.8848 0.5623 0.059 Uiso 1 1 calc R . .
C70 C 0.8041(2) 0.8676(2) 0.51872(10) 0.0367(10) Uani 1 1 d G . .
C71 C 0.7728(4) 0.8094(3) 0.55458(18) 0.0446(11) Uani 1 1 d . . .
H71 H 0.8221 0.7943 0.5832 0.054 Uiso 1 1 calc R . .
C72 C 0.6662(3) 0.7085(3) 0.58947(18) 0.0422(11) Uani 1 1 d . . .
H72 H 0.6843 0.6487 0.5793 0.051 Uiso 1 1 calc R . .
C73 C 0.7357(2) 0.7308(2) 0.63949(9) 0.0416(10) Uani 1 1 d G . .
C74 C 0.8165(2) 0.67291(19) 0.65935(11) 0.0526(13) Uani 1 1 d G . .
H74 H 0.8296 0.6236 0.6410 0.063 Uiso 1 1 calc R . .
C75 C 0.8777(2) 0.6887(2) 0.70669(12) 0.0500(12) Uani 1 1 d G . .
H75 H 0.9317 0.6500 0.7200 0.060 Uiso 1 1 calc R . .
C76 C 0.8581(2) 0.7624(2) 0.73418(9) 0.0545(14) Uani 1 1 d G . .
H76 H 0.8990 0.7730 0.7659 0.065 Uiso 1 1 calc R . .
C77 C 0.7773(2) 0.8203(2) 0.71433(11) 0.0539(13) Uani 1 1 d G . .
H77 H 0.7642 0.8696 0.7327 0.065 Uiso 1 1 calc R . .
C78 C 0.7161(2) 0.8045(2) 0.66698(12) 0.0523(13) Uani 1 1 d G . .
H78 H 0.6621 0.8432 0.6537 0.063 Uiso 1 1 calc R . .
C79 C 0.5485(3) 0.7116(4) 0.58654(16) 0.0411(10) Uani 1 1 d . . .
H79 H 0.5317 0.7702 0.5987 0.049 Uiso 1 1 calc R . .
C80 C 0.5152(2) 0.6396(2) 0.61902(11) 0.0460(12) Uani 1 1 d G . .
C81 C 0.5523(2) 0.5524(2) 0.61888(12) 0.0529(13) Uani 1 1 d G . .
H81 H 0.5961 0.5372 0.5980 0.063 Uiso 1 1 calc R . .
C82 C 0.5239(3) 0.48802(18) 0.64992(13) 0.0553(14) Uani 1 1 d G . .
H82 H 0.5487 0.4297 0.6498 0.066 Uiso 1 1 calc R . .
C83 C 0.4585(3) 0.5107(2) 0.68109(11) 0.0560(14) Uani 1 1 d G . .
H83 H 0.4395 0.4677 0.7019 0.067 Uiso 1 1 calc R . .
C84 C 0.4214(2) 0.5979(2) 0.68123(11) 0.0551(14) Uani 1 1 d G . .
H84 H 0.3776 0.6131 0.7021 0.066 Uiso 1 1 calc R . .
C85 C 0.4498(2) 0.66229(18) 0.65019(13) 0.0548(14) Uani 1 1 d G . .
H85 H 0.4250 0.7206 0.6503 0.066 Uiso 1 1 calc R . .
C86 C 0.4220(3) 0.6539(4) 0.51500(19) 0.0474(12) Uani 1 1 d . . .
H86 H 0.3992 0.6168 0.5376 0.057 Uiso 1 1 calc R . .
C87 C 0.3677(2) 0.6497(2) 0.46253(9) 0.0418(11) Uani 1 1 d G . .
C88 C 0.2916(3) 0.5841(2) 0.45209(10) 0.0499(13) Uani 1 1 d G . .
H88 H 0.2812 0.5459 0.4773 0.060 Uiso 1 1 calc R . .
C89 C 0.2310(2) 0.5756(2) 0.40397(11) 0.0502(13) Uani 1 1 d G . .
H89 H 0.1800 0.5318 0.3970 0.060 Uiso 1 1 calc R . .
C90 C 0.2465(2) 0.6328(2) 0.36628(9) 0.0447(12) Uani 1 1 d G . .
H90 H 0.2060 0.6271 0.3341 0.054 Uiso 1 1 calc R . .
C91 C 0.3226(2) 0.6984(2) 0.37672(10) 0.0524(14) Uani 1 1 d G . .
H91 H 0.3330 0.7366 0.3515 0.063 Uiso 1 1 calc R . .
C92 C 0.3832(2) 0.7068(2) 0.42485(11) 0.0421(11) Uani 1 1 d G . .
Fe1 Fe 0.73085(4) 0.52626(7) 0.95047(2) 0.03382(15) Uani 1 1 d . . .
Fe2 Fe 0.29644(5) 0.97906(7) 0.