####################################################################### 
# 
# This file contains crystal structure data downloaded from the 
# Cambridge Structural Database (CSD) hosted by the Cambridge 
# Crystallographic Data Centre (CCDC).
# 
# Full information about CCDC data access policies and citation 
# guidelines are available at http://www.ccdc.cam.ac.uk/access/V1 
# 
# Audit and citation data items may have been added by the CCDC. 
# Please retain this information to preserve the provenance of 
# this file and to allow appropriate attribution of the data. 
# 
#######################################################################

data_jrs146-sqz2
_audit_block_doi                 10.5517/ccq1vl5
_database_code_depnum_ccdc_archive 'CCDC 657187'
loop_
_citation_id
_citation_doi
_citation_year
1 10.1021/ic7016159 2007
_audit_update_record             
;
2007-08-13 deposited with the CCDC.	2024-07-10 downloaded from the CCDC.
;

_audit_creation_method           SHELXL-97
_chemical_name_systematic        
;
?
;
_chemical_name_common            MOF-Co/AgPF~6~-1b
_chemical_melting_point          ?
_chemical_formula_moiety         'C42 H30 Ag Co F6 N9 P'
_chemical_formula_sum            'C42 H30 Ag Co F6 N9 P'
_chemical_formula_weight         972.52

loop_
_atom_type_symbol
_atom_type_description
_atom_type_scat_dispersion_real
_atom_type_scat_dispersion_imag
_atom_type_scat_source
C C 0.0033 0.0016 'International Tables Vol C Tables 4.2.6.8 and 6.1.1.4'
H H 0.0000 0.0000 'International Tables Vol C Tables 4.2.6.8 and 6.1.1.4'
N N 0.0061 0.0033 'International Tables Vol C Tables 4.2.6.8 and 6.1.1.4'
F F 0.0171 0.0103 'International Tables Vol C Tables 4.2.6.8 and 6.1.1.4'
P P 0.1023 0.0942 'International Tables Vol C Tables 4.2.6.8 and 6.1.1.4'
Co Co 0.3494 0.9721 'International Tables Vol C Tables 4.2.6.8 and 6.1.1.4'
Ag Ag -0.8971 1.1015 'International Tables Vol C Tables 4.2.6.8 and 6.1.1.4'

_symmetry_cell_setting           orthorhombic
_symmetry_space_group_name_H-M   'P b c n'

loop_
_symmetry_equiv_pos_as_xyz
'x, y, z'
'-x+1/2, -y+1/2, z+1/2'
'-x, y, -z+1/2'
'x+1/2, -y+1/2, -z'
'-x, -y, -z'
'x-1/2, y-1/2, -z-1/2'
'x, -y, z-1/2'
'-x-1/2, y-1/2, z'

_cell_length_a                   27.062(7)
_cell_length_b                   13.006(3)
_cell_length_c                   33.486(8)
_cell_angle_alpha                90.00
_cell_angle_beta                 90.00
_cell_angle_gamma                90.00
_cell_volume                     11786(5)
_cell_formula_units_Z            8
_cell_measurement_temperature    208(2)
_cell_measurement_reflns_used    4179
_cell_measurement_theta_min      2.26
_cell_measurement_theta_max      26.2

_exptl_crystal_description       block
_exptl_crystal_colour            red
_exptl_crystal_size_max          0.12
_exptl_crystal_size_mid          0.10
_exptl_crystal_size_min          0.10
_exptl_crystal_density_meas      ?
_exptl_crystal_density_diffrn    1.096
_exptl_crystal_density_method    'not measured'
_exptl_crystal_F_000             3904
_exptl_absorpt_coefficient_mu    0.690
_exptl_absorpt_correction_type   multi-scan
_exptl_absorpt_correction_T_min  0.91871
_exptl_absorpt_correction_T_max  0.94794
_exptl_absorpt_process_details   'SADABS 2.10 (Sheldrick, 2004)'

_exptl_special_details           
;
?
;

_diffrn_ambient_temperature      208(2)
_diffrn_radiation_wavelength     0.71073
_diffrn_radiation_type           MoK\a
_diffrn_radiation_source         'fine-focus sealed tube'
_diffrn_radiation_monochromator  graphite
_diffrn_measurement_device_type  'Bruker APEX'
_diffrn_measurement_method       '\w and \f'
_diffrn_detector_area_resol_mean 8.3
_diffrn_standards_number         0
_diffrn_standards_interval_count ?
_diffrn_standards_interval_time  ?
_diffrn_standards_decay_%        ?
_diffrn_reflns_number            81524
_diffrn_reflns_av_R_equivalents  0.1170
_diffrn_reflns_av_sigmaI/netI    0.0763
_diffrn_reflns_limit_h_min       -33
_diffrn_reflns_limit_h_max       33
_diffrn_reflns_limit_k_min       -16
_diffrn_reflns_limit_k_max       16
_diffrn_reflns_limit_l_min       -41
_diffrn_reflns_limit_l_max       41
_diffrn_reflns_theta_min         1.43
_diffrn_reflns_theta_max         26.37
_reflns_number_total             12051
_reflns_number_gt                6311
_reflns_threshold_expression     I>2\s(I)

_computing_data_collection       'SMART 5.632 (Bruker, 2005)'
_computing_cell_refinement       SMART
_computing_data_reduction        'SAINT 6.45A (Bruker, 2003)'
_computing_structure_solution    'SHELXS97 (Sheldrick, 1990)'
_computing_structure_refinement  'SHELXL97 (Sheldrick, 1997)'
_computing_molecular_graphics    'SHELXTL 5.1 (Sheldrick, 1994)'
_computing_publication_material  SHELXL97

_refine_special_details          
;
Refinement of F^2^ against ALL reflections. The weighted R-factor wR and
goodness of fit S are based on F^2^, conventional R-factors R are based
on F, with F set to zero for negative F^2^. The threshold expression of
F^2^ > 2sigma(F^2^) is used only for calculating R-factors(gt) etc. and is
not relevant to the choice of reflections for refinement. R-factors based
on F^2^ are statistically about twice as large as those based on F, and R-
factors based on ALL data will be even larger.

All H atoms were located in a difference map, placed in calculated
positions and treated with a riding model.

The PF6 anion appears to be disordered. However, alternative positions
for for the F atoms could not be reliably determined. Indeed, reliable
positions for the F atoms that are included in the structure were difficult
to obtain, and the anion seems to have considerable freedom of motion.
The F atoms were restrained to an approximately octahedral arrangement and
to have similar thermal parameters. The opposite F atoms: F1 and F6, and
F3 and F5, were constrained to have identical thermal parameters. This
treatment resulted in a well-behaved PF6 anion, the subsequent refinement
converged cleanly.

Because of the disorder in the anion, and because of the similarity of the
unit cell parameters with a known BF4 analogue, the possibility that the
compound contained BF4 instead of PF6 was also examined. Replacing the
P atom in the structural model with a B atom (either with or without F
atoms) resulted in a very small U value for the central atom of the anion,
while the P atom has a U value consistent with a loosely ordered PF6
anion. We thus conclude that the PF6 is, indeed, the anion present.

Several partially occupied and disordered acetonitrile and benzene solvent
molecules were also found. However, acceptable atomic positions could not
be ascertained. The disordered solvent was treated as a diffuse
contribution using the program SQUEEZE (A. Spek, Platon Library). 5005.7
Ang^3^ void space per cell; 1113 electrons. Twenty-two molecules of
benzene and 8 molecules of acetonitrile require 1100 electrons per unit
cell, giving 2.75 molecules of benzene and one acetonitrile molecule per
formula unit.

One residual Fourier peak of 1.62 e^-^ per Ang^3^ is located 0.927 Ang
from Ag1, and may result from truncation error. All other residual
difference peaks are 0.70 e^-^ per Ang^3^ or less.
;

_refine_ls_structure_factor_coef Fsqd
_refine_ls_matrix_type           full
_refine_ls_weighting_scheme      calc
_refine_ls_weighting_details     
'calc w=1/[\s^2^(Fo^2^)+(0.1514P)^2^] where P=(Fo^2^+2Fc^2^)/3'
_atom_sites_solution_primary     direct
_atom_sites_solution_secondary   difmap
_atom_sites_solution_hydrogens   geom
_refine_ls_hydrogen_treatment    constr
_refine_ls_extinction_method     none
_refine_ls_extinction_coef       ?
_refine_ls_number_reflns         12051
_refine_ls_number_parameters     529
_refine_ls_number_restraints     19
_refine_ls_R_factor_all          0.1259
_refine_ls_R_factor_gt           0.0801
_refine_ls_wR_factor_ref         0.2387
_refine_ls_wR_factor_gt          0.2163
_refine_ls_goodness_of_fit_ref   0.894
_refine_ls_restrained_S_all      0.936
_refine_ls_shift/su_max          0.001
_refine_ls_shift/su_mean         0.000

loop_
_atom_site_label
_atom_site_type_symbol
_atom_site_fract_x
_atom_site_fract_y
_atom_site_fract_z
_atom_site_U_iso_or_equiv
_atom_site_adp_type
_atom_site_occupancy
_atom_site_symmetry_multiplicity
_atom_site_calc_flag
_atom_site_refinement_flags
_atom_site_disorder_assembly
_atom_site_disorder_group
Ag1 Ag 0.717894(19) 1.27712(5) 0.359256(15) 0.0632(2) Uani 1 1 d . . .
Co1 Co 1.06843(3) 1.47425(7) 0.38622(2) 0.0426(2) Uani 1 1 d . . .
C1 C 1.0131(2) 1.6548(5) 0.3564(2) 0.0547(17) Uani 1 1 d . . .
H1 H 1.0415 1.6964 0.3566 0.066 Uiso 1 1 calc R . .
C2 C 0.9659(2) 1.6879(5) 0.3424(2) 0.0550(17) Uani 1 1 d . . .
H2 H 0.9578 1.7531 0.3323 0.066 Uiso 1 1 calc R . .
C3 C 0.9351(2) 1.6060(6) 0.3466(2) 0.0597(19) Uani 1 1 d . . .
H3 H 0.9015 1.6042 0.3396 0.072 Uiso 1 1 calc R . .
C4 C 0.9634(2) 1.5213(5) 0.36396(19) 0.0463(15) Uani 1 1 d . . .
C5 C 0.9466(2) 1.4256(5) 0.37472(18) 0.0413(14) Uani 1 1 d . . .
C6 C 0.9763(2) 1.3478(5) 0.39157(17) 0.0443(14) Uani 1 1 d . . .
C7 C 0.9601(2) 1.2464(5) 0.4040(2) 0.0510(16) Uani 1 1 d . . .
H7 H 0.9278 1.2201 0.4024 0.061 Uiso 1 1 calc R . .
C8 C 1.0009(3) 1.1961(5) 0.4183(2) 0.0581(18) Uani 1 1 d . . .
H8 H 1.0022 1.1284 0.4281 0.070 Uiso 1 1 calc R . .
C9 C 1.0410(2) 1.2665(5) 0.4155(2) 0.0532(17) Uani 1 1 d . . .
H9 H 1.0736 1.2522 0.4236 0.064 Uiso 1 1 calc R . .
C10 C 0.8940(2) 1.3989(5) 0.36667(18) 0.0451(15) Uani 1 1 d . . .
C11 C 0.8801(2) 1.3238(5) 0.3389(2) 0.0515(16) Uani 1 1 d . . .
H11 H 0.9040 1.2891 0.3237 0.062 Uiso 1 1 calc R . .
C12 C 0.8303(2) 1.3016(5) 0.33425(19) 0.0471(15) Uani 1 1 d . . .
H12 H 0.8215 1.2505 0.3157 0.056 Uiso 1 1 calc R . .
C13 C 0.8076(2) 1.4222(6) 0.3806(2) 0.0562(17) Uani 1 1 d . . .
H13 H 0.7827 1.4562 0.3951 0.067 Uiso 1 1 calc R . .
C14 C 0.8560(2) 1.4518(5) 0.3876(2) 0.0538(17) Uani 1 1 d . . .
H14 H 0.8635 1.5051 0.4056 0.065 Uiso 1 1 calc R . .
C15 C 1.0524(2) 1.3386(5) 0.3155(2) 0.0539(17) Uani 1 1 d . . .
H15 H 1.0367 1.2878 0.3309 0.065 Uiso 1 1 calc R . .
C16 C 1.0588(3) 1.3325(7) 0.2743(2) 0.072(2) Uani 1 1 d . . .
H16 H 1.0492 1.2779 0.2575 0.086 Uiso 1 1 calc R . .
C17 C 1.0812(3) 1.4204(6) 0.2632(2) 0.065(2) Uani 1 1 d . . .
H17 H 1.0892 1.4399 0.2369 0.078 Uiso 1 1 calc R . .
C18 C 1.0908(2) 1.4787(5) 0.29857(19) 0.0518(16) Uani 1 1 d . . .
C19 C 1.1178(2) 1.5697(5) 0.30147(18) 0.0509(16) Uani 1 1 d . . .
C20 C 1.1289(2) 1.6210(5) 0.33732(18) 0.0510(16) Uani 1 1 d . . .
C21 C 1.1605(3) 1.7079(6) 0.3428(2) 0.065(2) Uani 1 1 d . . .
H21 H 1.1768 1.7448 0.3225 0.078 Uiso 1 1 calc R . .
C22 C 1.1627(3) 1.7275(7) 0.3832(2) 0.075(2) Uani 1 1 d . . .
H22 H 1.1808 1.7795 0.3960 0.090 Uiso 1 1 calc R . .
C23 C 1.1318(2) 1.6527(6) 0.40154(19) 0.0598(19) Uani 1 1 d . . .
H23 H 1.1259 1.6495 0.4292 0.072 Uiso 1 1 calc R . .
C24 C 1.1378(2) 1.6167(6) 0.26347(19) 0.0547(17) Uani 1 1 d . . .
C25 C 1.1213(3) 1.7107(6) 0.2497(2) 0.0578(18) Uani 1 1 d . . .
H25 H 1.0960 1.7459 0.2633 0.069 Uiso 1 1 calc R . .
C26 C 1.1427(3) 1.7535(6) 0.2151(2) 0.0606(19) Uani 1 1 d . . .
H26 H 1.1314 1.8177 0.2059 0.073 Uiso 1 1 calc R . .
C27 C 1.1939(3) 1.6165(7) 0.2081(2) 0.069(2) Uani 1 1 d . . .
H27 H 1.2189 1.5824 0.1939 0.083 Uiso 1 1 calc R . .
C28 C 1.1752(3) 1.5691(7) 0.2421(2) 0.068(2) Uani 1 1 d . . .
H28 H 1.1878 1.5054 0.2505 0.082 Uiso 1 1 calc R . .
C29 C 1.1575(3) 1.3458(6) 0.3738(2) 0.0618(19) Uani 1 1 d . . .
H29 H 1.1549 1.3494 0.3458 0.074 Uiso 1 1 calc R . .
C30 C 1.1927(3) 1.2904(7) 0.3940(2) 0.069(2) Uani 1 1 d . . .
H30 H 1.2174 1.2494 0.3823 0.082 Uiso 1 1 calc R . .
C31 C 1.1855(2) 1.3057(6) 0.4345(2) 0.0602(19) Uani 1 1 d . . .
H31 H 1.2040 1.2763 0.4554 0.072 Uiso 1 1 calc R . .
C32 C 1.1452(2) 1.3738(5) 0.43851(19) 0.0504(16) Uani 1 1 d . . .
C33 C 1.1236(2) 1.4128(5) 0.47357(19) 0.0518(17) Uani 1 1 d . . .
C34 C 1.0858(2) 1.4837(5) 0.47526(17) 0.0465(15) Uani 1 1 d . . .
C35 C 1.0688(2) 1.5419(6) 0.5095(2) 0.0580(18) Uani 1 1 d . . .
H35 H 1.0796 1.5339 0.5360 0.070 Uiso 1 1 calc R . .
C36 C 1.0342(2) 1.6106(6) 0.4963(2) 0.0588(18) Uani 1 1 d . . .
H36 H 1.0166 1.6582 0.5120 0.071 Uiso 1 1 calc R . .
C37 C 1.0298(2) 1.5962(5) 0.45418(18) 0.0464(15) Uani 1 1 d . . .
H37 H 1.0084 1.6341 0.4376 0.056 Uiso 1 1 calc R . .
C38 C 1.1458(2) 1.3761(5) 0.51281(19) 0.0519(16) Uani 1 1 d . . .
C39 C 1.1941(2) 1.3955(6) 0.5231(2) 0.0573(18) Uani 1 1 d . . .
H39 H 1.2144 1.4352 0.5064 0.069 Uiso 1 1 calc R . .
C40 C 1.2123(2) 1.3552(6) 0.5588(2) 0.0558(18) Uani 1 1 d . . .
H40 H 1.2452 1.3698 0.5660 0.067 Uiso 1 1 calc R . .
C41 C 1.1383(2) 1.2768(5) 0.5729(2) 0.0537(17) Uani 1 1 d . . .
H41 H 1.1192 1.2342 0.5894 0.064 Uiso 1 1 calc R . .
C42 C 1.1167(2) 1.3165(5) 0.53855(19) 0.0516(16) Uani 1 1 d . . .
H42 H 1.0833 1.3038 0.5327 0.062 Uiso 1 1 calc R . .
N1 N 1.01200(18) 1.5569(4) 0.36915(14) 0.0415(12) Uani 1 1 d . . .
N2 N 1.02615(17) 1.3563(4) 0.39971(15) 0.0459(12) Uani 1 1 d . . .
N3 N 0.79335(19) 1.3494(4) 0.35494(16) 0.0512(14) Uani 1 1 d . . .
N4 N 1.07166(18) 1.4266(4) 0.33080(15) 0.0483(13) Uani 1 1 d . . .
N5 N 1.11231(17) 1.5880(4) 0.37516(15) 0.0499(13) Uani 1 1 d . . .
N6 N 1.1789(2) 1.7050(5) 0.19479(17) 0.0591(15) Uani 1 1 d . . .
N7 N 1.12700(17) 1.3948(4) 0.39974(15) 0.0488(13) Uani 1 1 d . . .
N8 N 1.06023(17) 1.5214(4) 0.44124(15) 0.0448(12) Uani 1 1 d . . .
N9 N 1.1848(2) 1.2958(4) 0.58354(16) 0.0559(14) Uani 1 1 d . . .
P1 P 0.66147(8) 1.52693(18) 0.36944(8) 0.0733(6) Uani 1 1 d D . .
F1 F 0.6251(3) 1.5802(6) 0.3408(3) 0.190(3) Uani 1 1 d D . .
F2 F 0.6503(3) 1.4167(4) 0.3605(2) 0.149(3) Uani 1 1 d D . .
F3 F 0.7076(3) 1.5659(9) 0.3568(3) 0.267(5) Uani 1 1 d D . .
F4 F 0.6543(4) 1.6124(7) 0.4042(2) 0.201(4) Uani 1 1 d D . .
F5 F 0.6089(4) 1.5021(10) 0.3990(3) 0.267(5) Uani 1 1 d D . .
F6 F 0.6872(3) 1.4662(6) 0.4088(3) 0.190(3) Uani 1 1 d D . .

loop_
_atom_site_aniso_label
_atom_site_aniso_U_11
_atom_site_aniso_U_22
_atom_site_aniso_U_33
_atom_site_aniso_U_23
_atom_site_aniso_U_13
_atom_site_aniso_U_12
Ag1 0.0474(3) 0.0973(5) 0.0450(3) -0.0016(3) -0.0003(2) -0.0306(3)
Co1 0.0297(4) 0.0596(5) 0.0384(4) 0.0062(4) -0.0017(3) -0.0079(4)
C1 0.046(4) 0.056(4) 0.063(4) 0.009(3) -0.001(3) -0.017(3)
C2 0.042(3) 0.048(4) 0.075(5) 0.019(3) -0.013(3) 0.001(3)
C3 0.040(3) 0.069(5) 0.070(4) 0.023(4) -0.016(3) -0.006(3)
C4 0.034(3) 0.050(4) 0.055(4) 0.004(3) -0.007(3) -0.010(3)
C5 0.030(3) 0.050(4) 0.045(3) 0.010(3) -0.001(2) -0.003(3)
C6 0.043(3) 0.055(4) 0.035(3) 0.004(3) 0.000(3) -0.007(3)
C7 0.043(3) 0.043(4) 0.067(4) 0.007(3) -0.004(3) -0.011(3)
C8 0.061(4) 0.043(4) 0.070(5) 0.017(3) -0.007(4) -0.001(3)
C9 0.045(4) 0.057(4) 0.057(4) 0.014(3) -0.006(3) 0.005(3)
C10 0.041(3) 0.048(4) 0.046(3) 0.008(3) -0.001(3) -0.010(3)
C11 0.043(3) 0.060(4) 0.052(4) 0.001(3) 0.004(3) -0.005(3)
C12 0.041(3) 0.051(4) 0.050(4) -0.008(3) -0.005(3) -0.010(3)
C13 0.036(3) 0.074(5) 0.058(4) -0.001(4) 0.001(3) 0.007(3)
C14 0.036(3) 0.069(4) 0.056(4) -0.011(3) -0.006(3) -0.007(3)
C15 0.043(3) 0.062(4) 0.057(4) -0.003(3) 0.000(3) -0.014(3)
C16 0.072(5) 0.096(6) 0.047(4) -0.012(4) -0.006(4) -0.023(5)
C17 0.069(5) 0.092(6) 0.035(4) -0.007(4) 0.000(3) -0.010(4)
C18 0.048(4) 0.063(4) 0.045(4) 0.006(3) -0.002(3) -0.004(3)
C19 0.046(4) 0.068(4) 0.038(3) 0.006(3) 0.004(3) -0.007(3)
C20 0.038(3) 0.073(5) 0.043(4) 0.007(3) 0.004(3) -0.015(3)
C21 0.059(4) 0.082(5) 0.055(4) -0.001(4) 0.008(4) -0.035(4)
C22 0.063(5) 0.096(6) 0.066(5) 0.000(5) -0.005(4) -0.046(4)
C23 0.043(4) 0.097(6) 0.039(3) 0.003(4) -0.006(3) -0.028(4)
C24 0.044(4) 0.075(5) 0.045(4) 0.006(3) 0.003(3) -0.007(3)
C25 0.059(4) 0.067(5) 0.047(4) 0.008(3) 0.005(3) -0.005(4)
C26 0.071(5) 0.065(5) 0.045(4) 0.010(3) 0.000(4) -0.020(4)
C27 0.047(4) 0.105(7) 0.055(4) 0.014(5) 0.011(3) 0.000(4)
C28 0.068(5) 0.085(6) 0.052(4) 0.013(4) 0.006(4) 0.014(4)
C29 0.049(4) 0.089(6) 0.047(4) 0.008(4) -0.008(3) -0.001(4)
C30 0.039(4) 0.102(6) 0.064(5) -0.012(4) -0.005(3) 0.010(4)
C31 0.045(4) 0.077(5) 0.059(4) -0.001(4) -0.015(3) 0.005(3)
C32 0.041(3) 0.058(4) 0.052(4) 0.009(3) -0.008(3) 0.003(3)
C33 0.040(3) 0.070(5) 0.044(4) 0.014(3) -0.003(3) -0.015(3)
C34 0.029(3) 0.072(4) 0.039(3) 0.009(3) -0.007(2) -0.009(3)
C35 0.048(4) 0.082(5) 0.043(4) 0.001(4) -0.003(3) -0.016(4)
C36 0.048(4) 0.081(5) 0.047(4) 0.001(4) -0.003(3) -0.003(4)
C37 0.034(3) 0.061(4) 0.044(3) 0.010(3) 0.005(3) -0.007(3)
C38 0.052(4) 0.061(4) 0.043(4) 0.009(3) -0.007(3) -0.009(3)
C39 0.043(4) 0.074(5) 0.055(4) 0.004(4) -0.001(3) -0.011(3)
C40 0.039(3) 0.075(5) 0.053(4) 0.009(4) -0.015(3) -0.014(3)
C41 0.046(4) 0.063(4) 0.052(4) 0.015(3) -0.003(3) -0.013(3)
C42 0.040(3) 0.064(4) 0.050(4) 0.014(3) -0.013(3) -0.012(3)
N1 0.039(3) 0.043(3) 0.043(3) 0.004(2) -0.003(2) -0.009(2)
N2 0.030(2) 0.064(3) 0.043(3) 0.007(3) -0.001(2) -0.005(2)
N3 0.043(3) 0.059(4) 0.052(3) -0.002(3) -0.012(2) -0.017(3)
N4 0.042(3) 0.058(3) 0.045(3) 0.007(3) -0.002(2) -0.003(2)
N5 0.032(3) 0.075(4) 0.042(3) 0.006(3) -0.002(2) -0.015(3)
N6 0.059(4) 0.073(4) 0.045(3) 0.003(3) 0.010(3) -0.015(3)
N7 0.032(3) 0.073(4) 0.041(3) 0.007(3) -0.001(2) -0.004(2)
N8 0.034(3) 0.062(3) 0.039(3) 0.008(3) -0.003(2) -0.008(2)
N9 0.053(3) 0.067(4) 0.048(3) 0.006(3) -0.008(3) 0.003(3)
P1 0.0633