####################################################################### 
# 
# This file contains crystal structure data downloaded from the 
# Cambridge Structural Database (CSD) hosted by the Cambridge 
# Crystallographic Data Centre (CCDC).
# 
# Full information about CCDC data access policies and citation 
# guidelines are available at http://www.ccdc.cam.ac.uk/access/V1 
# 
# Audit and citation data items may have been added by the CCDC. 
# Please retain this information to preserve the provenance of 
# this file and to allow appropriate attribution of the data. 
# 
#######################################################################

data_c
_audit_block_doi                 10.5517/cct1sl6
_database_code_depnum_ccdc_archive 'CCDC 746498'
loop_
_citation_id
_citation_doi
_citation_year
1 10.1080/15533174.2012.654878 2012
_audit_update_record             
;
2009-09-03 deposited with the CCDC.	2024-07-10 downloaded from the CCDC.
;

_audit_creation_method           SHELXL-97
_chemical_name_systematic        
;
?
;
_chemical_name_common            ?
_chemical_melting_point          ?
_chemical_formula_moiety         ?
_chemical_formula_sum            'C19 H19 Mn N3 O8 S'
_chemical_formula_weight         504.37

loop_
_atom_type_symbol
_atom_type_description
_atom_type_scat_dispersion_real
_atom_type_scat_dispersion_imag
_atom_type_scat_source
C C 0.0033 0.0016 'International Tables Vol C Tables 4.2.6.8 and 6.1.1.4'
H H 0.0000 0.0000 'International Tables Vol C Tables 4.2.6.8 and 6.1.1.4'
N N 0.0061 0.0033 'International Tables Vol C Tables 4.2.6.8 and 6.1.1.4'
O O 0.0106 0.0060 'International Tables Vol C Tables 4.2.6.8 and 6.1.1.4'
S S 0.1246 0.1234 'International Tables Vol C Tables 4.2.6.8 and 6.1.1.4'
Mn Mn 0.3368 0.7283 'International Tables Vol C Tables 4.2.6.8 and 6.1.1.4'

_symmetry_cell_setting           Monoclinic
_symmetry_space_group_name_H-M   P2(1)/c

loop_
_symmetry_equiv_pos_as_xyz
'x, y, z'
'-x, y+1/2, -z+1/2'
'-x, -y, -z'
'x, -y-1/2, z-1/2'

_cell_length_a                   11.678(3)
_cell_length_b                   28.005(7)
_cell_length_c                   8.707(2)
_cell_angle_alpha                90.00
_cell_angle_beta                 104.200(3)
_cell_angle_gamma                90.00
_cell_volume                     2760.6(11)
_cell_formula_units_Z            4
_cell_measurement_temperature    291(2)
_cell_measurement_reflns_used    4284
_cell_measurement_theta_min      2.52
_cell_measurement_theta_max      23.58

_exptl_crystal_description       ?
_exptl_crystal_colour            ?
_exptl_crystal_size_max          0.33
_exptl_crystal_size_mid          0.27
_exptl_crystal_size_min          0.17
_exptl_crystal_density_meas      ?
_exptl_crystal_density_diffrn    1.214
_exptl_crystal_density_method    'not measured'
_exptl_crystal_F_000             1036
_exptl_absorpt_coefficient_mu    0.594
_exptl_absorpt_correction_type   MULTI-SCAN
_exptl_absorpt_correction_T_min  0.8289
_exptl_absorpt_correction_T_max  0.9052
_exptl_absorpt_process_details   SADABS

_exptl_special_details           
;
?
;

_diffrn_ambient_temperature      291(2)
_diffrn_radiation_wavelength     0.71073
_diffrn_radiation_type           MoK\a
_diffrn_radiation_source         'fine-focus sealed tube'
_diffrn_radiation_monochromator  graphite
_diffrn_measurement_device_type  'CCD area detector'
_diffrn_measurement_method       'phi and omega scans'
_diffrn_detector_area_resol_mean ?
_diffrn_standards_number         ?
_diffrn_standards_interval_count ?
_diffrn_standards_interval_time  ?
_diffrn_standards_decay_%        ?
_diffrn_reflns_number            18717
_diffrn_reflns_av_R_equivalents  0.0762
_diffrn_reflns_av_sigmaI/netI    0.0755
_diffrn_reflns_limit_h_min       -14
_diffrn_reflns_limit_h_max       13
_diffrn_reflns_limit_k_min       -33
_diffrn_reflns_limit_k_max       33
_diffrn_reflns_limit_l_min       -10
_diffrn_reflns_limit_l_max       10
_diffrn_reflns_theta_min         2.52
_diffrn_reflns_theta_max         25.50
_reflns_number_total             5128
_reflns_number_gt                3771
_reflns_threshold_expression     >2sigma(I)

_computing_data_collection       'Bruker SMART'
_computing_cell_refinement       'Bruker SMART'
_computing_data_reduction        'Bruker SAINT'
_computing_structure_solution    'SHELXS-97 (Sheldrick, 1990)'
_computing_structure_refinement  'SHELXL-97 (Sheldrick, 1997)'
_computing_molecular_graphics    'Bruker SHELXTL'
_computing_publication_material  'Bruker SHELXTL'

_refine_special_details          
;
Refinement of F^2^ against ALL reflections. The weighted R-factor wR and
goodness of fit S are based on F^2^, conventional R-factors R are based
on F, with F set to zero for negative F^2^. The threshold expression of
F^2^ > 2sigma(F^2^) is used only for calculating R-factors(gt) etc. and is
not relevant to the choice of reflections for refinement. R-factors based
on F^2^ are statistically about twice as large as those based on F, and R-
factors based on ALL data will be even larger.
;

_refine_ls_structure_factor_coef Fsqd
_refine_ls_matrix_type           full
_refine_ls_weighting_scheme      calc
_refine_ls_weighting_details     
'calc w=1/[\s^2^(Fo^2^)+(0.1395P)^2^+5.7958P] where P=(Fo^2^+2Fc^2^)/3'
_atom_sites_solution_primary     direct
_atom_sites_solution_secondary   difmap
_atom_sites_solution_hydrogens   geom
_refine_ls_hydrogen_treatment    CONSTR
_refine_ls_extinction_method     none
_refine_ls_extinction_coef       ?
_refine_ls_number_reflns         5128
_refine_ls_number_parameters     307
_refine_ls_number_restraints     18
_refine_ls_R_factor_all          0.1093
_refine_ls_R_factor_gt           0.0890
_refine_ls_wR_factor_ref         0.2763
_refine_ls_wR_factor_gt          0.2627
_refine_ls_goodness_of_fit_ref   1.118
_refine_ls_restrained_S_all      1.118
_refine_ls_shift/su_max          0.000
_refine_ls_shift/su_mean         0.000

loop_
_atom_site_label
_atom_site_type_symbol
_atom_site_fract_x
_atom_site_fract_y
_atom_site_fract_z
_atom_site_U_iso_or_equiv
_atom_site_adp_type
_atom_site_occupancy
_atom_site_symmetry_multiplicity
_atom_site_calc_flag
_atom_site_refinement_flags
_atom_site_disorder_assembly
_atom_site_disorder_group
Mn1 Mn 0.63432(7) 0.80095(3) 0.80806(9) 0.0278(3) Uani 1 1 d . . .
S1 S 0.3409(2) 0.88786(6) 0.3989(2) 0.0684(7) Uani 1 1 d . . .
O1 O 0.5934(4) 0.78673(14) 0.5567(4) 0.0397(10) Uani 1 1 d . . .
O2 O 0.6298(4) 0.77686(13) 0.3213(4) 0.0369(9) Uani 1 1 d . . .
O3 O 0.2921(7) 0.8919(2) 0.5326(8) 0.091(2) Uani 1 1 d . . .
O4 O 0.2870(8) 0.8584(2) 0.2683(8) 0.108(3) Uani 1 1 d . . .
O5 O 0.3697(4) 1.12139(14) 0.2265(5) 0.0435(10) Uani 1 1 d . . .
O6 O 0.3546(6) 1.08986(17) -0.0121(6) 0.0779(19) Uani 1 1 d . . .
O7 O 0.6814(4) 0.81759(14) 1.0593(4) 0.0384(9) Uani 1 1 d . . .
H1W H 0.6395 0.8022 1.1043 0.058 Uiso 1 1 d R . .
H2W H 0.6650 0.8463 1.0641 0.058 Uiso 1 1 d R . .
O8 O 0.170(4) 0.9444(17) 0.749(6) 0.185(18) Uani 0.25 1 d PU . .
H3W H 0.2033 0.9285 0.6889 0.277 Uiso 0.25 1 d PR . .
H4W H 0.1879 0.9734 0.7367 0.277 Uiso 0.25 1 d PR . .
O9 O 0.084(6) 0.101(2) 0.557(7) 0.24(3) Uani 0.25 1 d PU . .
H5W H 0.0722 0.0795 0.6098 0.366 Uiso 0.25 1 d PR . .
H6W H 0.0667 0.1279 0.5898 0.366 Uiso 0.25 1 d PR . .
O10 O 0.236(3) 0.0408(9) 0.700(3) 0.208(11) Uani 0.50 1 d PU . .
H7W H 0.1805 0.0582 0.6536 0.312 Uiso 0.50 1 d PR . .
H8W H 0.2717 0.0558 0.7830 0.312 Uiso 0.50 1 d PR . .
N1 N 0.4728(8) 0.8698(2) 0.4664(7) 0.084(3) Uani 1 1 d . . .
H1 H 0.5034 0.8722 0.5666 0.101 Uiso 1 1 calc R . .
N2 N 0.4367(4) 0.80175(16) 0.8002(6) 0.0355(11) Uani 1 1 d . . .
N3 N -0.1704(5) 0.79957(18) 0.8103(7) 0.0433(13) Uani 1 1 d . . .
C1 C 0.5937(5) 0.80081(18) 0.4221(6) 0.0338(13) Uani 1 1 d . . .
C2 C 0.5441(10) 0.8493(3) 0.3684(9) 0.084(3) Uani 1 1 d . . .
H2A H 0.6091 0.8708 0.3677 0.101 Uiso 1 1 calc R . .
H2B H 0.4964 0.8468 0.2606 0.101 Uiso 1 1 calc R . .
C3 C 0.3507(7) 0.9462(2) 0.3220(8) 0.0529(17) Uani 1 1 d . . .
C4 C 0.3350(9) 0.9852(2) 0.4118(10) 0.072(2) Uani 1 1 d . . .
H4 H 0.3205 0.9811 0.5114 0.086 Uiso 1 1 calc R . .
C5 C 0.3413(9) 1.0308(2) 0.3496(9) 0.068(2) Uani 1 1 d . . .
H5 H 0.3335 1.0574 0.4104 0.081 Uiso 1 1 calc R . .
C6 C 0.3587(6) 1.0373(2) 0.2014(7) 0.0425(14) Uani 1 1 d . . .
C7 C 0.3743(8) 0.9972(2) 0.1131(9) 0.066(2) Uani 1 1 d . . .
H7A H 0.3882 1.0010 0.0132 0.080 Uiso 1 1 calc R . .
C8 C 0.3689(9) 0.9517(2) 0.1747(9) 0.073(3) Uani 1 1 d . . .
H8 H 0.3778 0.9250 0.1152 0.088 Uiso 1 1 calc R . .
C9 C 0.3605(6) 1.0864(2) 0.1323(7) 0.0439(15) Uani 1 1 d . . .
C10 C 0.3926(5) 0.8328(2) 0.8840(8) 0.0481(16) Uani 1 1 d . . .
H10 H 0.4430 0.8555 0.9427 0.058 Uiso 1 1 calc R . .
C11 C 0.2760(6) 0.8332(2) 0.8890(8) 0.0506(17) Uani 1 1 d . . .
H11 H 0.2495 0.8560 0.9501 0.061 Uiso 1 1 calc R . .
C12 C 0.1974(5) 0.8000(2) 0.8040(7) 0.0377(13) Uani 1 1 d . . .
C13 C 0.2444(6) 0.7683(3) 0.7161(11) 0.069(2) Uani 1 1 d . . .
H13 H 0.1961 0.7452 0.6559 0.083 Uiso 1 1 calc R . .
C14 C 0.3632(6) 0.7702(3) 0.7162(10) 0.062(2) Uani 1 1 d . . .
H14 H 0.3922 0.7484 0.6546 0.074 Uiso 1 1 calc R . .
C15 C -0.0914(7) 0.8295(3) 0.8955(12) 0.083(3) Uani 1 1 d . . .
H15 H -0.1185 0.8516 0.9581 0.099 Uiso 1 1 calc R . .
C16 C 0.0265(6) 0.8304(3) 0.8989(13) 0.090(3) Uani 1 1 d . . .
H16 H 0.0761 0.8520 0.9648 0.108 Uiso 1 1 calc R . .
C17 C 0.0713(5) 0.8002(2) 0.8069(8) 0.0408(14) Uani 1 1 d . . .
C18 C -0.0072(7) 0.7691(4) 0.7197(15) 0.114(5) Uani 1 1 d . . .
H18 H 0.0174 0.7476 0.6528 0.136 Uiso 1 1 calc R . .
C19 C -0.1240(7) 0.7690(4) 0.7293(15) 0.114(5) Uani 1 1 d . . .
H19 H -0.1731 0.7454 0.6738 0.136 Uiso 1 1 calc R . .

loop_
_atom_site_aniso_label
_atom_site_aniso_U_11
_atom_site_aniso_U_22
_atom_site_aniso_U_33
_atom_site_aniso_U_23
_atom_site_aniso_U_13
_atom_site_aniso_U_12
Mn1 0.0271(5) 0.0301(5) 0.0279(5) -0.0005(3) 0.0099(3) -0.0009(3)
S1 0.1131(18) 0.0341(9) 0.0577(12) 0.0090(7) 0.0202(11) 0.0082(10)
O1 0.055(3) 0.039(2) 0.028(2) 0.0015(16) 0.0133(18) 0.0058(19)
O2 0.054(2) 0.030(2) 0.031(2) -0.0015(15) 0.0195(18) -0.0011(18)
O3 0.138(6) 0.058(3) 0.093(4) 0.026(3) 0.057(4) 0.008(4)
O4 0.184(8) 0.046(3) 0.077(4) -0.002(3) -0.003(4) -0.024(4)
O5 0.060(3) 0.030(2) 0.042(2) 0.0015(17) 0.015(2) 0.0017(19)
O6 0.148(6) 0.041(3) 0.048(3) -0.001(2) 0.029(3) -0.009(3)
O7 0.051(2) 0.035(2) 0.031(2) 0.0038(16) 0.0130(18) -0.0030(18)
O8 0.19(2) 0.18(2) 0.18(2) -0.004(10) 0.049(11) 0.005(10)
O9 0.24(3) 0.24(3) 0.24(3) 0.009(10) 0.058(12) -0.001(10)
O10 0.224(14) 0.208(13) 0.185(13) -0.023(9) 0.040(9) 0.004(9)
N1 0.141(7) 0.069(4) 0.040(3) 0.000(3) 0.017(4) 0.062(5)
N2 0.029(2) 0.043(3) 0.037(3) -0.004(2) 0.012(2) -0.001(2)
N3 0.029(3) 0.049(3) 0.052(3) -0.008(2) 0.011(2) -0.004(2)
C1 0.045(3) 0.031(3) 0.026(3) 0.001(2) 0.010(2) 0.000(2)
C2 0.164(10) 0.049(4) 0.053(4) 0.017(3) 0.053(5) 0.048(5)
C3 0.070(5) 0.035(3) 0.051(4) 0.004(3) 0.010(3) 0.007(3)
C4 0.125(8) 0.041(4) 0.062(5) 0.009(3) 0.046(5) 0.013(4)
C5 0.122(7) 0.034(3) 0.060(4) 0.000(3) 0.048(5) 0.014(4)
C6 0.053(4) 0.033(3) 0.043(3) 0.001(2) 0.014(3) 0.007(3)
C7 0.120(7) 0.037(4) 0.051(4) 0.001(3) 0.038(4) 0.003(4)
C8 0.132(8) 0.034(4) 0.055(5) 0.000(3) 0.027(5) 0.010(4)
C9 0.059(4) 0.035(3) 0.041(3) 0.000(3) 0.018(3) -0.002(3)
C10 0.033(3) 0.057(4) 0.056(4) -0.022(3) 0.015(3) -0.008(3)
C11 0.036(3) 0.058(4) 0.063(4) -0.025(3) 0.023(3) -0.007(3)
C12 0.034(3) 0.043(3) 0.037(3) -0.003(2) 0.011(2) -0.007(2)
C13 0.042(4) 0.070(5) 0.096(6) -0.049(4) 0.019(4) -0.009(3)
C14 0.035(4) 0.072(5) 0.078(5) -0.040(4) 0.013(3) -0.005(3)
C15 0.042(4) 0.086(6) 0.128(8) -0.063(6) 0.038(5) -0.016(4)
C16 0.030(4) 0.096(6) 0.146(9) -0.075(6) 0.029(5) -0.021(4)
C17 0.027(3) 0.047(3) 0.049(4) -0.009(3) 0.010(3) -0.004(2)
C18 0.039(4) 0.131(8) 0.182(11) -0.120(8) 0.050(6) -0.027(5)
C19 0.042(5) 0.140(9) 0.172(11) -0.115(9) 0.053(6) -0.042(5)

_geom_special_details            
;
All esds (except the esd in the dihedral angle between two l.s. planes)
are estimated using the full covariance matrix. The cell esds are taken
into account individually in the estimation of esds in distances, angles
and torsion angles; correlations between esds in cell parameters are only
used when they are defined by crystal symmetry. An approximate (isotropic)
treatment of cell esds is used for estimating esds involving l.s. planes.
;

loop_
_geom_bond_atom_site_label_1
_geom_bond_atom_site_label_2
_geom_bond_distance
_geom_bond_site_symmetry_2
_geom_bond_publ_flag
Mn1 O1 2.160(4) . ?
Mn1 O7 2.172(4) . ?
Mn1 O2 2.183(4) 4_576 ?
Mn1 O5 2.194(4) 3_676 ?
Mn1 N3 2.276(5) 1_655 ?
Mn1 N2 2.292(5) . ?
S1 O3 1.422(7) . ?
S1 O4 1.422(6) . ?
S1 N1 1.590(8) . ?
S1 C3 1.780(7) . ?
O1 C1 1.237(7) . ?
O2 C1 1.257(7) . ?
O2 Mn1 2.183(4) 4_575 ?
O5 C9 1.266(7) . ?
O5 Mn1 2.195(4) 3_676 ?
O6 C9 1.246(8) . ?
O7 H1W 0.8200 . ?
O7 H2W 0.8287 . ?
O8 H3W 0.8498 . ?
O8 H4W 0.8491 . ?
O9 H5W 0.7966 . ?
O9 H6W 0.8349 . ?
O10 H7W 0.8324 . ?
O10 H8W 0.8496 . ?
N1 C2 1.449(10) . ?
N1 H1 0.8600 . ?
N2 C10 1.318(8) . ?
N2 C14 1.321(8) . ?
N3 C19 1.308(10) . ?
N3 C15 1.329(9) . ?
N3 Mn1 2.276(5) 1_455 ?
C1 C2 1.505(8) . ?
C2 H2A 0.9700 . ?
C2 H2B 0.9700 . ?
C3 C8 1.359(10) . ?
C3 C4 1.381(10) . ?
C4 C5 1.397(10) . ?
C4 H4 0.9300 . ?
C5 C6 1.366(9) . ?
C5 H5 0.9300 . ?
C6 C7 1.397(9) . ?
C6 C9 1.504(8) . ?
C7 C8 1.390(10) . ?
C7 H7A 0.9300 . ?
C8 H8 0.9300 . ?
C10 C11 1.373(9) . ?
C10 H10 0.9300 . ?
C11 C12 1.386(8) . ?
C11 H11 0.9300 . ?
C12 C13 1.372(9) . ?
C12 C17 1.479(8) . ?
C13 C14 1.388(10) . ?
C13 H13 0.9300 . ?
C14 H14 0.9300 . ?
C15 C16 1.371(10) . ?
C15 H15 0.9300 . ?
C16 C17 1.355(10) . ?
C16 H16 0.9300 . ?
C17 C18 1.355(9) . ?
C18 C19 1.387(11) . ?
C18 H18 0.9300 . ?
C19 H19 0.9300 . ?

loop_
_geom_angle_atom_site_label_1
_geom_angle_atom_site_label_2
_geom_angle_atom_site_label_3
_geom_angle
_geom_angle_site_symmetry_1
_geom_angle_site_symmetry_3
_geom_angle_publ_flag
O1 Mn1 O7 177.41(16) . . ?
O1 Mn1 O2 82.38(14) . 4_576 ?
O7 Mn1 O2 99.46(14) . 4_576 ?
O1 Mn1 O5 92.96(15) . 3_676 ?
O7 Mn1 O5 85.25(15) . 3_676 ?
O2 Mn1 O5 175.09(15) 4_576 3_676 ?
O1 Mn1 N3 88.73(18) . 1_655 ?
O7 Mn1 N3 89.40(18) . 1_655 ?
O2 Mn1 N3 91.14(17) 4_576 1_655 ?
O5 Mn1 N3 90.31(18) 3_676 1_655 ?
O1 Mn1 N2 90.04(17) . . ?
O7 Mn1 N2 91.83(16) . . ?
O2 Mn1 N2 88.52(16) 4_576 . ?
O5 Mn1 N2 89.94(17) 3_676 . ?
N3 Mn1 N2 178.75(18) 1_655 . ?
O3 S1 O4 120.9(5) . . ?
O3 S1 N1 105.6(4) . . ?
O4 S1 N1 108.0(5) . . ?
O3 S1 C3 108.1(3) . . ?
O4 S1 C3 106.8(3) . . ?
N1 S1 C3 106.6(4) . . ?
C1 O1 Mn1 148.2(4) . . ?
C1 O2 Mn1 125.9(3) . 4_575 ?
C9 O5 Mn1 133.1(4) . 3_676 ?
Mn1 O7 H1W 109.5 . . ?
Mn1 O7 H2W 104.7 . . ?
H1W O7 H2W 108.3 . . ?
H3W O8 H4W 105.3 . . ?
H5W O9 H6W 113.7 . . ?
H7W O10 H8W 106.7 . . ?
C2 N1 S1 123.5(6) . . ?
C2 N1 H1 118.2 . . ?
S1 N1 H1 118.2 . . ?
C10 N2 C14 117.3(5) . . ?
C10 N2 Mn1 121.2(4) . . ?
C14 N2 Mn1 121.5(4) . . ?
C19 N3 C15 112.9(6) . . ?
C19 N3 Mn1 123.6(5) . 1_455 ?
C15 N3 Mn1 123.4(5) . 1_455 ?
O1 C1 O2 124.8(5) . . ?
O1 C1 C2 119.4(5) . . ?
O2 C1 C2 115.7(5) . . ?
N1 C2 C1 114.0(6) . . ?
N1 C2 H2A 108.8 . . ?
C1 C2 H2A 108.8 . . ?
N1 C2 H2B 108.8 . . ?
C1 C2 H2B 108.8 . . ?
H2A C2 H2B 107.6 . . ?
C8 C3 C4 121.2(6) . . ?
C8 C3 S1 119.9(5) . . ?
C4 C3 S1 118.8(6) . . ?
C3 C4 C5 118.5(7) . . ?
C3 C4 H4 120.8 . . ?
C5 C4 H4 120.8 . . ?
C6 C5 C4 121.4(6) . . ?
C6 C5 H5 119.3 . . ?
C4 C5 H5 119.3 . . ?
C5 C6 C7 118.9(6) . . ?
C5 C6 C9 121.2(6) . . ?
C7 C6 C9 119.8(6) . . ?
C8 C7 C6 120.0(7) . . ?
C8 C7 H7A 120.0 . . ?
C6 C7 H7A 120.0 . . ?
C3 C8 C7 120.0(7) . . ?
C3 C8 H8 120.0 . . ?
C7 C8 H8 120.0 . . ?
O6 C9 O5 124.6(6) . . ?
O6 C9 C6 118.2(5) . . ?
O5 C9 C6 117.2(5) . . ?
N2 C10 C11 123.3(6) . . ?
N2 C10 H10 118.4 . . ?
C11 C10 H10 118.4 . . ?
C10 C11 C12 120.6(6) . . ?
C10 C11 H11 119.7 . . ?
C12 C11 H11 119.7 . . ?
C13 C12 C11 115.4(6) . . ?
C13 C12 C17 123.3(6) . . ?
C11 C12 C17 121.4(5) . . ?
C12 C13 C14 120.8(6) . . ?
C12 C13 H13 119.6 . . ?
C14 C13 H13 119.6 . . ?
N2 C14 C13 122.7(6) . . ?
N2 C14 H14 118.7 . . ?
C13 C14 H14 118.7 . . ?
N3 C15 C16 125.5(7) . . ?
N3 C15 H15 117.3 . . ?
C16 C15 H15 117.3 . . ?
C17 C16 C15 120.4(7) . . ?
C17 C16 H16 119.8 . . ?
C15 C16 H16 119.8 . . ?
C18 C17 C16 115.3(6) . . ?
C18 C17 C12 121.8(6) . . ?
C16 C17 C12 122.9(6) . . ?
C17 C18 C19 120.5(7) . . ?
C17 C18 H18 119.8 . . ?
C19 C18 H18 119.8 . . ?
N3 C19 C18 125.2(7) . . ?
N3 C19 H19 117.4 . . ?
C18 C19 H19 117.4 . . ?

loop_
_geom_torsion_atom_site_label_1
_geom_torsion_atom_site_label_2
_geom_torsion_atom_site_label_3
_geom_torsion_atom_site_label_4
_geom_torsion
_geom_torsion_site_symmetry_1
_geom_torsion_site_symmetry_2
_geom_torsion_site_symmetry_3
_geom_torsion_site_symmetry_4
_geom_torsion_publ_flag
O7 Mn1 O1 C1 -23(4) . . . . ?
O2 Mn1 O1 C1 -158.6(8) 4_576 . . . ?
O5 Mn1 O1 C1 22.9(8) 3_676 . . . ?
N3 Mn1 O1 C1 -67.3(8) 1_655 . . . ?
N2 Mn1 O1 C1 112.9(8) . . . . ?
O3 S1 N1 C2 163.5(7) . . . . ?
O4 S1 N1 C2 32.8(9) . . . . ?
C3 S1 N1 C2 -81.6(8) . . . . ?
O1 Mn1 N2 C10 -140.8(5) . . . . ?
O7 Mn1 N2 C10 37.4(5) . . . . ?
O2 Mn1 N2 C10 136.8(5) 4_576 . . . ?
O5 Mn1 N2 C10 -47.8(5) 3_676 . . . ?
N3 Mn1 N2 C10 -149(8) 1_655 . . . ?
O1 Mn1 N2 C14 41.6(6) . . . . ?
O7 Mn1 N2 C14 -140.2(6) . . . . ?
O2 Mn1 N2 C14 -40.7(6) 4_576 . . . ?
O5 Mn1 N2 C14 134.6(6) 3_676 . . . ?
N3 Mn1 N2 C14 33(9) 1_655 . . . ?
Mn1 O1 C1 O2 132.5(6) . . . . ?
Mn1 O1 C1 C2 -49.7(12) . . . . ?
Mn1 O2 C1 O1 26.3(9) 4_575 . . . ?
Mn1 O2 C1 C2 -151.6(6) 4_575 . . . ?
S1 N1 C2 C1 -125.4(7) . . . . ?
O1 C1 C2 N1 -15.3(12) . . . . ?
O2 C1 C2 N1 162.7(7) . . . . ?
O3 S1 C3 C