####################################################################### 
# 
# This file contains crystal structure data downloaded from the 
# Cambridge Structural Database (CSD) hosted by the Cambridge 
# Crystallographic Data Centre (CCDC).
# 
# Full information about CCDC data access policies and citation 
# guidelines are available at http://www.ccdc.cam.ac.uk/access/V1 
# 
# Audit and citation data items may have been added by the CCDC. 
# Please retain this information to preserve the provenance of 
# this file and to allow appropriate attribution of the data. 
# 
#######################################################################

data_a
_audit_block_doi                 10.5517/ccwz904
_database_code_depnum_ccdc_archive 'CCDC 833466'
loop_
_citation_id
_citation_doi
_citation_year
1 10.1080/15533174.2012.654877 2012
_audit_update_record             
;
2011-07-08 deposited with the CCDC.	2024-07-10 downloaded from the CCDC.
;
#TrackingRef 'a.cif'


_audit_creation_method           SHELXL-97
_chemical_name_systematic        
;
?
;
_chemical_name_common            ?
_chemical_melting_point          ?
_chemical_formula_moiety         ?
_chemical_formula_sum            'C18.50 H17.50 I2 N4 O3.25 Zn'
_chemical_formula_weight         667.03

loop_
_atom_type_symbol
_atom_type_description
_atom_type_scat_dispersion_real
_atom_type_scat_dispersion_imag
_atom_type_scat_source
C C 0.0033 0.0016 'International Tables Vol C Tables 4.2.6.8 and 6.1.1.4'
H H 0.0000 0.0000 'International Tables Vol C Tables 4.2.6.8 and 6.1.1.4'
N N 0.0061 0.0033 'International Tables Vol C Tables 4.2.6.8 and 6.1.1.4'
O O 0.0106 0.0060 'International Tables Vol C Tables 4.2.6.8 and 6.1.1.4'
Zn Zn 0.2839 1.4301 'International Tables Vol C Tables 4.2.6.8 and 6.1.1.4'
I I -0.4742 1.8119 'International Tables Vol C Tables 4.2.6.8 and 6.1.1.4'

_symmetry_cell_setting           Monoclinic
_symmetry_space_group_name_H-M   C2/c

loop_
_symmetry_equiv_pos_as_xyz
'x, y, z'
'-x, y, -z+1/2'
'x+1/2, y+1/2, z'
'-x+1/2, y+1/2, -z+1/2'
'-x, -y, -z'
'x, -y, z-1/2'
'-x+1/2, -y+1/2, -z'
'x+1/2, -y+1/2, z-1/2'

_cell_length_a                   29.381(6)
_cell_length_b                   13.021(3)
_cell_length_c                   13.959(3)
_cell_angle_alpha                90.00
_cell_angle_beta                 102.48(3)
_cell_angle_gamma                90.00
_cell_volume                     5214.0(18)
_cell_formula_units_Z            8
_cell_measurement_temperature    291(2)
_cell_measurement_reflns_used    388
_cell_measurement_theta_min      2
_cell_measurement_theta_max      25.1

_exptl_crystal_description       prismatic
_exptl_crystal_colour            colorless
_exptl_crystal_size_max          0.20
_exptl_crystal_size_mid          0.17
_exptl_crystal_size_min          0.16
_exptl_crystal_density_meas      ?
_exptl_crystal_density_diffrn    1.699
_exptl_crystal_density_method    'not measured'
_exptl_crystal_F_000             2548
_exptl_absorpt_coefficient_mu    3.334
_exptl_absorpt_correction_type   multi-scan
_exptl_absorpt_correction_T_min  0.5553
_exptl_absorpt_correction_T_max  0.6176
_exptl_absorpt_process_details   ?

_exptl_special_details           
;
?
;

_diffrn_ambient_temperature      291(2)
_diffrn_radiation_wavelength     0.71073
_diffrn_radiation_type           MoK\a
_diffrn_radiation_source         'fine-focus sealed tube'
_diffrn_radiation_monochromator  graphite
_diffrn_measurement_device_type  R-AXIS-IV
_diffrn_measurement_method       'Oscillation frames'
_diffrn_detector_area_resol_mean 0
_diffrn_standards_number         0
_diffrn_standards_interval_count 0
_diffrn_standards_interval_time  0
_diffrn_standards_decay_%        0
_diffrn_reflns_number            7616
_diffrn_reflns_av_R_equivalents  0.0594
_diffrn_reflns_av_sigmaI/netI    0.0667
_diffrn_reflns_limit_h_min       -35
_diffrn_reflns_limit_h_max       33
_diffrn_reflns_limit_k_min       -14
_diffrn_reflns_limit_k_max       15
_diffrn_reflns_limit_l_min       0
_diffrn_reflns_limit_l_max       16
_diffrn_reflns_theta_min         1.42
_diffrn_reflns_theta_max         25.50
_reflns_number_total             4470
_reflns_number_gt                3339
_reflns_threshold_expression     >2sigma(I)

_computing_data_collection       raxis
_computing_cell_refinement       raxis
_computing_data_reduction        raxis
_computing_structure_solution    'SHELXS-97 (Sheldrick, 1990)'
_computing_structure_refinement  'SHELXL-97 (Sheldrick, 1997)'
_computing_molecular_graphics    texsan
_computing_publication_material  texsan

_refine_special_details          
;
Refinement of F^2^ against ALL reflections. The weighted R-factor wR and
goodness of fit S are based on F^2^, conventional R-factors R are based
on F, with F set to zero for negative F^2^. The threshold expression of
F^2^ > 2sigma(F^2^) is used only for calculating R-factors(gt) etc. and is
not relevant to the choice of reflections for refinement. R-factors based
on F^2^ are statistically about twice as large as those based on F, and R-
factors based on ALL data will be even larger.
;

_refine_ls_structure_factor_coef Fsqd
_refine_ls_matrix_type           full
_refine_ls_weighting_scheme      calc
_refine_ls_weighting_details     
'calc w=1/[\s^2^(Fo^2^)+(0.0920P)^2^+31.5800P] where P=(Fo^2^+2Fc^2^)/3'
_atom_sites_solution_primary     direct
_atom_sites_solution_secondary   difmap
_atom_sites_solution_hydrogens   geom
_refine_ls_hydrogen_treatment    mixed
_refine_ls_extinction_method     SHELXL
_refine_ls_extinction_coef       0.00060(10)
_refine_ls_extinction_expression Fc^*^=kFc[1+0.001xFc^2^\l^3^/sin(2\q)]^-1/4^
_refine_ls_number_reflns         4470
_refine_ls_number_parameters     261
_refine_ls_number_restraints     0
_refine_ls_R_factor_all          0.0993
_refine_ls_R_factor_gt           0.0711
_refine_ls_wR_factor_ref         0.1934
_refine_ls_wR_factor_gt          0.1742
_refine_ls_goodness_of_fit_ref   1.071
_refine_ls_restrained_S_all      1.071
_refine_ls_shift/su_max          0.000
_refine_ls_shift/su_mean         0.000

loop_
_atom_site_label
_atom_site_type_symbol
_atom_site_fract_x
_atom_site_fract_y
_atom_site_fract_z
_atom_site_U_iso_or_equiv
_atom_site_adp_type
_atom_site_occupancy
_atom_site_symmetry_multiplicity
_atom_site_calc_flag
_atom_site_refinement_flags
_atom_site_disorder_assembly
_atom_site_disorder_group
Zn1 Zn 0.22352(4) 0.41570(8) -0.28414(8) 0.0512(3) Uani 1 1 d . . .
I1 I 0.18178(3) 0.28349(6) -0.40733(5) 0.0768(3) Uani 1 1 d . . .
I2 I 0.26055(4) 0.36106(7) -0.11022(6) 0.0922(4) Uani 1 1 d . . .
O1 O 0.4078(2) 0.6787(6) -0.4279(6) 0.0705(19) Uani 1 1 d . . .
O2 O 0.5761(3) 0.3197(5) -0.2107(5) 0.0675(18) Uani 1 1 d . . .
N1 N 0.2760(2) 0.4807(5) -0.3406(6) 0.0518(18) Uani 1 1 d . . .
N2 N 0.4410(2) 0.5265(5) -0.3708(5) 0.0472(16) Uani 1 1 d . . .
H2B H 0.4343 0.4676 -0.3499 0.057 Uiso 1 1 calc R . .
N3 N 0.5897(3) 0.3684(6) -0.3582(6) 0.066(2) Uani 1 1 d . . .
H3A H 0.6042 0.3538 -0.4038 0.079 Uiso 1 1 calc R . .
N4 N 0.6812(3) 0.0414(6) -0.2827(5) 0.0561(19) Uani 1 1 d . . .
C1 C 0.2912(3) 0.5770(8) -0.3140(8) 0.060(2) Uani 1 1 d . . .
H1A H 0.2733 0.6189 -0.2826 0.072 Uiso 1 1 calc R . .
C2 C 0.3321(3) 0.6146(7) -0.3320(7) 0.059(2) Uani 1 1 d . . .
H2A H 0.3413 0.6815 -0.3140 0.071 Uiso 1 1 calc R . .
C3 C 0.3597(3) 0.5533(7) -0.3768(6) 0.047(2) Uani 1 1 d . . .
C4 C 0.3429(3) 0.4568(7) -0.4073(7) 0.055(2) Uani 1 1 d . . .
H4A H 0.3600 0.4139 -0.4395 0.066 Uiso 1 1 calc R . .
C5 C 0.3013(3) 0.4242(8) -0.3901(7) 0.057(2) Uani 1 1 d . . .
H5A H 0.2900 0.3602 -0.4136 0.069 Uiso 1 1 calc R . .
C6 C 0.4048(3) 0.5935(7) -0.3948(6) 0.050(2) Uani 1 1 d . . .
C7 C 0.5148(3) 0.4525(7) -0.3652(6) 0.048(2) Uani 1 1 d . . .
H7A H 0.5018 0.3890 -0.3564 0.057 Uiso 1 1 calc R . .
C8 C 0.4878(3) 0.5402(7) -0.3754(6) 0.048(2) Uani 1 1 d . . .
C9 C 0.5075(3) 0.6372(7) -0.3885(7) 0.059(2) Uani 1 1 d . . .
H9A H 0.4897 0.6968 -0.3936 0.071 Uiso 1 1 calc R . .
C10 C 0.5545(3) 0.6404(8) -0.3934(8) 0.065(3) Uani 1 1 d . . .
H10A H 0.5679 0.7029 -0.4040 0.078 Uiso 1 1 calc R . .
C11 C 0.5811(3) 0.5530(8) -0.3827(7) 0.061(2) Uani 1 1 d . . .
H11A H 0.6124 0.5569 -0.3854 0.073 Uiso 1 1 calc R . .
C12 C 0.5621(3) 0.4606(7) -0.3683(6) 0.054(2) Uani 1 1 d . . .
C13 C 0.5941(3) 0.3040(7) -0.2823(7) 0.054(2) Uani 1 1 d . . .
C14 C 0.6611(4) 0.0872(9) -0.3662(8) 0.079(3) Uani 1 1 d . . .
H14A H 0.6669 0.0607 -0.4243 0.094 Uiso 1 1 calc R . .
C15 C 0.6325(4) 0.1710(9) -0.3722(8) 0.080(3) Uani 1 1 d . . .
H15A H 0.6192 0.2002 -0.4325 0.096 Uiso 1 1 calc R . .
C16 C 0.6240(3) 0.2113(7) -0.2849(7) 0.055(2) Uani 1 1 d . . .
C17 C 0.6442(4) 0.1640(9) -0.1992(8) 0.076(3) Uani 1 1 d . . .
H17A H 0.6383 0.1875 -0.1402 0.091 Uiso 1 1 calc R . .
C18 C 0.6734(4) 0.0818(8) -0.1998(8) 0.073(3) Uani 1 1 d . . .
H18A H 0.6884 0.0532 -0.1402 0.088 Uiso 1 1 calc R . .
O3 O 0.5863(11) -0.097(3) -0.158(3) 0.176(11) Uiso 0.50 1 d P . .
O4 O 0.4878(15) 0.150(3) -0.391(3) 0.235(17) Uiso 0.50 1 d P . .
C26 C 0.5659(14) -0.092(3) -0.242(3) 0.137(12) Uiso 0.50 1 d P . .
O5 O 0.472(4) 0.038(11) -0.479(11) 0.36(7) Uiso 0.25 1 d P . .

loop_
_atom_site_aniso_label
_atom_site_aniso_U_11
_atom_site_aniso_U_22
_atom_site_aniso_U_33
_atom_site_aniso_U_23
_atom_site_aniso_U_13
_atom_site_aniso_U_12
Zn1 0.0520(6) 0.0485(6) 0.0537(6) -0.0002(4) 0.0127(5) 0.0032(5)
I1 0.0917(6) 0.0761(5) 0.0618(5) -0.0142(3) 0.0152(4) -0.0211(4)
I2 0.1290(8) 0.0764(6) 0.0583(5) 0.0084(4) -0.0085(4) 0.0073(5)
O1 0.064(4) 0.070(4) 0.082(5) 0.026(4) 0.027(4) 0.008(3)
O2 0.087(5) 0.063(4) 0.058(4) -0.003(3) 0.029(4) 0.017(4)
N1 0.048(4) 0.048(4) 0.060(5) -0.003(3) 0.015(4) 0.005(3)
N2 0.046(4) 0.044(4) 0.056(4) 0.006(3) 0.020(3) 0.004(3)
N3 0.086(6) 0.067(5) 0.055(5) 0.013(4) 0.040(4) 0.027(4)
N4 0.056(5) 0.065(5) 0.047(4) 0.000(4) 0.009(3) 0.009(4)
C1 0.050(5) 0.063(6) 0.071(6) -0.008(5) 0.018(5) 0.006(4)
C2 0.064(6) 0.040(5) 0.071(6) -0.005(4) 0.010(5) 0.004(4)
C3 0.050(5) 0.052(5) 0.040(4) 0.007(4) 0.010(4) 0.005(4)
C4 0.057(6) 0.058(5) 0.053(5) -0.010(4) 0.015(4) 0.004(4)
C5 0.048(5) 0.066(6) 0.059(6) -0.012(5) 0.015(4) -0.002(4)
C6 0.054(5) 0.058(5) 0.041(5) 0.006(4) 0.015(4) 0.000(4)
C7 0.053(5) 0.052(5) 0.041(5) 0.004(4) 0.019(4) 0.008(4)
C8 0.054(5) 0.054(5) 0.038(4) 0.003(4) 0.016(4) 0.002(4)
C9 0.061(6) 0.053(5) 0.064(6) 0.005(4) 0.017(5) -0.003(4)
C10 0.056(6) 0.055(6) 0.087(8) 0.014(5) 0.025(5) -0.001(4)
C11 0.053(6) 0.074(7) 0.061(6) 0.002(5) 0.026(5) 0.002(5)
C12 0.067(6) 0.056(5) 0.046(5) -0.001(4) 0.025(4) 0.009(4)
C13 0.049(5) 0.065(6) 0.048(5) -0.007(4) 0.010(4) 0.010(4)
C14 0.106(9) 0.076(7) 0.054(6) -0.011(5) 0.018(6) 0.033(6)
C15 0.101(9) 0.086(7) 0.050(6) 0.000(5) 0.010(6) 0.049(7)
C16 0.054(5) 0.064(6) 0.048(5) -0.004(4) 0.013(4) 0.008(4)
C17 0.108(9) 0.072(7) 0.055(6) 0.003(5) 0.036(6) 0.027(6)
C18 0.099(8) 0.076(7) 0.049(6) 0.000(5) 0.026(5) 0.021(6)

_geom_special_details            
;
All esds (except the esd in the dihedral angle between two l.s. planes)
are estimated using the full covariance matrix. The cell esds are taken
into account individually in the estimation of esds in distances, angles
and torsion angles; correlations between esds in cell parameters are only
used when they are defined by crystal symmetry. An approximate (isotropic)
treatment of cell esds is used for estimating esds involving l.s. planes.
;

loop_
_geom_bond_atom_site_label_1
_geom_bond_atom_site_label_2
_geom_bond_distance
_geom_bond_site_symmetry_2
_geom_bond_publ_flag
Zn1 N4 2.057(8) 3_455 ?
Zn1 N1 2.060(7) . ?
Zn1 I2 2.5383(14) . ?
Zn1 I1 2.5521(13) . ?
O1 C6 1.211(11) . ?
O2 C13 1.243(11) . ?
N1 C5 1.338(11) . ?
N1 C1 1.356(12) . ?
N2 C6 1.361(11) . ?
N2 C8 1.402(11) . ?
N2 H2B 0.8600 . ?
N3 C13 1.335(12) . ?
N3 C12 1.439(12) . ?
N3 H3A 0.8600 . ?
N4 C14 1.329(13) . ?
N4 C18 1.336(12) . ?
N4 Zn1 2.057(8) 3_545 ?
C1 C2 1.372(13) . ?
C1 H1A 0.9300 . ?
C2 C3 1.379(12) . ?
C2 H2A 0.9300 . ?
C3 C4 1.384(13) . ?
C3 C6 1.496(12) . ?
C4 C5 1.363(12) . ?
C4 H4A 0.9300 . ?
C5 H5A 0.9300 . ?
C7 C8 1.379(12) . ?
C7 C12 1.403(12) . ?
C7 H7A 0.9300 . ?
C8 C9 1.417(13) . ?
C9 C10 1.398(13) . ?
C9 H9A 0.9300 . ?
C10 C11 1.371(14) . ?
C10 H10A 0.9300 . ?
C11 C12 1.359(14) . ?
C11 H11A 0.9300 . ?
C13 C16 1.498(13) . ?
C14 C15 1.368(14) . ?
C14 H14A 0.9300 . ?
C15 C16 1.398(13) . ?
C15 H15A 0.9300 . ?
C16 C17 1.363(14) . ?
C17 C18 1.373(14) . ?
C17 H17A 0.9300 . ?
C18 H18A 0.9300 . ?
O3 C26 1.21(4) . ?

loop_
_geom_angle_atom_site_label_1
_geom_angle_atom_site_label_2
_geom_angle_atom_site_label_3
_geom_angle
_geom_angle_site_symmetry_1
_geom_angle_site_symmetry_3
_geom_angle_publ_flag
N4 Zn1 N1 100.4(3) 3_455 . ?
N4 Zn1 I2 110.4(2) 3_455 . ?
N1 Zn1 I2 106.2(2) . . ?
N4 Zn1 I1 109.9(2) 3_455 . ?
N1 Zn1 I1 108.1(2) . . ?
I2 Zn1 I1 119.98(5) . . ?
C5 N1 C1 117.6(8) . . ?
C5 N1 Zn1 121.1(6) . . ?
C1 N1 Zn1 120.3(6) . . ?
C6 N2 C8 129.1(7) . . ?
C6 N2 H2B 115.5 . . ?
C8 N2 H2B 115.5 . . ?
C13 N3 C12 123.9(7) . . ?
C13 N3 H3A 118.0 . . ?
C12 N3 H3A 118.0 . . ?
C14 N4 C18 117.1(8) . . ?
C14 N4 Zn1 120.3(6) . 3_545 ?
C18 N4 Zn1 122.6(7) . 3_545 ?
N1 C1 C2 122.0(9) . . ?
N1 C1 H1A 119.0 . . ?
C2 C1 H1A 119.0 . . ?
C1 C2 C3 120.0(9) . . ?
C1 C2 H2A 120.0 . . ?
C3 C2 H2A 120.0 . . ?
C2 C3 C4 117.3(8) . . ?
C2 C3 C6 120.1(8) . . ?
C4 C3 C6 122.5(8) . . ?
C5 C4 C3 120.2(9) . . ?
C5 C4 H4A 119.9 . . ?
C3 C4 H4A 119.9 . . ?
N1 C5 C4 122.6(9) . . ?
N1 C5 H5A 118.7 . . ?
C4 C5 H5A 118.7 . . ?
O1 C6 N2 124.3(8) . . ?
O1 C6 C3 121.5(8) . . ?
N2 C6 C3 114.1(8) . . ?
C8 C7 C12 119.1(8) . . ?
C8 C7 H7A 120.5 . . ?
C12 C7 H7A 120.5 . . ?
C7 C8 N2 116.0(8) . . ?
C7 C8 C9 120.7(8) . . ?
N2 C8 C9 123.4(8) . . ?
C10 C9 C8 117.9(9) . . ?
C10 C9 H9A 121.1 . . ?
C8 C9 H9A 121.1 . . ?
C11 C10 C9 121.0(9) . . ?
C11 C10 H10A 119.5 . . ?
C9 C10 H10A 119.5 . . ?
C12 C11 C10 120.6(9) . . ?
C12 C11 H11A 119.7 . . ?
C10 C11 H11A 119.7 . . ?
C11 C12 C7 120.7(8) . . ?
C11 C12 N3 120.8(9) . . ?
C7 C12 N3 118.4(8) . . ?
O2 C13 N3 123.3(8) . . ?
O2 C13 C16 120.3(8) . . ?
N3 C13 C16 116.4(8) . . ?
N4 C14 C15 124.3(9) . . ?
N4 C14 H14A 117.9 . . ?
C15 C14 H14A 117.9 . . ?
C14 C15 C16 118.0(10) . . ?
C14 C15 H15A 121.0 . . ?
C16 C15 H15A 121.0 . . ?
C17 C16 C15 118.0(9) . . ?
C17 C16 C13 119.3(8) . . ?
C15 C16 C13 122.7(8) . . ?
C16 C17 C18 120.1(9) . . ?
C16 C17 H17A 119.9 . . ?
C18 C17 H17A 119.9 . . ?
N4 C18 C17 122.5(10) . . ?
N4 C18 H18A 118.8 . . ?
C17 C18 H18A 118.8 . . ?

loop_
_geom_torsion_atom_site_label_1
_geom_torsion_atom_site_label_2
_geom_torsion_atom_site_label_3
_geom_torsion_atom_site_label_4
_geom_torsion
_geom_torsion_site_symmetry_1
_geom_torsion_site_symmetry_2
_geom_torsion_site_symmetry_3
_geom_torsion_site_symmetry_4
_geom_torsion_publ_flag
N4 Zn1 N1 C5 -153.3(7) 3_455 . . . ?
I2 Zn1 N1 C5 91.7(7) . . . . ?
I1 Zn1 N1 C5 -38.3(7) . . . . ?
N4 Zn1 N1 C1 38.3(7) 3_455 . . . ?
I2 Zn1 N1 C1 -76.7(7) . . . . ?
I1 Zn1 N1 C1 153.4(7) . . . . ?
C5 N1 C1 C2 -3.3(14) . . . . ?
Zn1 N1 C1 C2 165.4(8) . . . . ?
N1 C1 C2 C3 -1.2(15) . . . . ?
C1 C2 C3 C4 3.8(14) . . . . ?
C1 C2 C3 C6 -178.8(9) . . . . ?
C2 C3 C4 C5 -1.9(13) . . . . ?
C6 C3 C4 C5 -179.2(8) . . . . ?
C1 N1 C5 C4 5.3(14) . . . . ?
Zn1 N1 C5 C4 -163.3(7) . . . . ?
C3 C4 C5 N1 -2.7(15) . . . . ?
C8 N2 C6 O1 2.1(14) . . . . ?
C8 N2 C6 C3 -177.9(8) . . . . ?
C2 C3 C6 O1 -44.9(13) . . . . ?
C4 C3 C6 O1 132.3(10) . . . . ?
C2 C3 C6 N2 135.0(9) . . . . ?
C4 C3 C6 N2 -47.7(11) . . . . ?
C12 C7 C8 N2 -179.5(7) . . . . ?
C12 C7 C8 C9 -0.2(13) . . . . ?
C6 N2 C8 C7 -167.4(8) . . . . ?
C6 N2 C8 C9 13.3(14) . . . . ?
C7 C8 C9 C10 1.7(14) . . . . ?
N2 C8 C9 C10 -179.0(9) . . . . ?
C8 C9 C10 C11 -2.0(16) . . . . ?
C9 C10 C11 C12 0.8(16) . . . . ?
C10 C11 C12 C7 0.8(14) . . . . ?
C10 C11 C12 N3 179.3(9) . . . . ?
C8 C7 C12 C11 -1.1(13) . . . . ?
C8 C7 C12 N3 -179.6(8) . . . . ?
C13 N3 C12 C11 125.5(11) . . . . ?
C13 N3 C12 C7 -55.9(13) . . . . ?
C12 N3 C13 O2 -2.8(16) . . . . ?
C12 N3 C13 C16 179.4(9) . . . . ?
C18 N4 C14 C15 -1.4(18) . . . . ?
Zn1 N4 C14 C15 180.0(10) 3_545 . . . ?
N4 C14 C15 C16 0(2) . . . . ?
C14 C15 C16 C17 -0.7(18) . . . . ?
C14 C15 C16 C13 178.6(11) . . . . ?
O2 C13 C16 C17 -22.1(15) . . . . ?
N3 C13 C16 C17 155.7(10) . . . . ?
O2 C13 C16 C15 158.6(11) . . . . ?
N3 C13 C16 C15 -23.6(15) . . . . ?
C15 C16 C17 C18 2.4(18) . . . . ?
C13 C16 C17 C18 -177.0(10) . . . . ?
C14 N4 C18 C17 3.1(17) . . . . ?
Zn1 N4 C18 C17 -178.2(9) 3_545 . . . ?
C16 C17 C18 N4 -3.7(19) . . . . ?

loop_
_geom_hbond_atom_site_label_D
_geom_hbond_atom_site_label_H
_geom_hbond_atom_site_label_A
_geom_hbond_distance_DH
_geom_hbond_distance_HA
_geom_hbond_distance_DA
_geom_hbond_angle_DHA
_geom_hbond_site_symmetry_A
N2 H2B O2 0.86 2.15 3.009(10) 174.6 2_654
N3 H3A O1 0.86 2.34 3.064(11) 142.4 5_664

_diffrn_measured_fraction_theta_max 0.921
_diffrn_reflns_theta_full        25.50
_diffrn_measured_fraction_theta_full 0.921
_refine_diff_density_max         0.978
_refine_diff_density_min         -0.862
_refine_diff_density_rms         0.155


