####################################################################### 
# 
# This file contains crystal structure data downloaded from the 
# Cambridge Structural Database (CSD) hosted by the Cambridge 
# Crystallographic Data Centre (CCDC).
# 
# Full information about CCDC data access policies and citation 
# guidelines are available at http://www.ccdc.cam.ac.uk/access/V1 
# 
# Audit and citation data items may have been added by the CCDC. 
# Please retain this information to preserve the provenance of 
# this file and to allow appropriate attribution of the data. 
# 
#######################################################################

data_sb179
_audit_block_doi                 10.5517/ccytp3j
_database_code_depnum_ccdc_archive 'CCDC 888618'
loop_
_citation_id
_citation_doi
_citation_year
1 10.1021/ic4003884 2013
_audit_update_record             
;
2012-06-26 deposited with the CCDC.	2024-07-10 downloaded from the CCDC.
;
#TrackingRef 'sb179_dep.cif'

_vrf_CHEMW03_sb179               
;
PROBLEM: ALERT: The ratio of given/expected molecular weight as
RESPONSE: 5 MeCN solvent molecules were included to the formula
of the compound based on SQUEEZE results. See below
;
_vrf_THETM01_sb179               
;
PROBLEM: The value of sine(theta_max)/wavelength is less than 0.550
RESPONSE: The only available crystal was of extremely poor quality.
Full sphere data collection was performed till resolution 0.7A. After
that data were truncated to statistically reasonable resolution which
was below suggested for publication.

;
_vrf_PLAT023_sb179               
;
PROBLEM: Resolution (too) Low [sin(theta)/Lambda < 0.6].. 18.00 Deg.
RESPONSE: The value of sine(theta_max)/wavelength is less than 0.550
RESPONSE: The only available crystal was of extremely poor quality.
Full sphere data collection was performed till resolution 0.7A. After
that data were truncated to statistically reasonable resolution which
was below suggested for publication
;
_vrf_PLAT043_sb179               
;
PROBLEM: Check Reported Molecular Weight ................ 2308.94
RESPONSE: The ratio of given/expected molecular weight as
RESPONSE: 5 MeCN solvent molecules were included to the formula
of the compound based on SQUEEZE results. See below
;
_vrf_PLAT044_sb179               
;
PROBLEM: Calculated and Reported Dx Differ .............. ?
RESPONSE: The ratio of given/expected molecular weight as
RESPONSE: 5 MeCN solvent molecules were included to the formula
of the compound based on SQUEEZE results. See below
;
_vrf_PLAT051_sb179               
;
PROBLEM: Mu(calc) and Mu(CIF) Ratio Differs from 1.0 by . 51.87 Perc.
RESPONSE: The ratio of given/expected molecular weight as
RESPONSE: 5 MeCN solvent molecules were included to the formula
of the compound based on SQUEEZE results. See below
;
# end Validation Reply Form

_audit_creation_method           SHELXL-97
_chemical_name_systematic        
;
?
;
_chemical_name_common            ?
_chemical_melting_point          ?
_chemical_formula_moiety         '(C71 H118 Fe6 N2 O28) 5 (C2H3N)'
_chemical_formula_sum            'C81 H133 Fe6 N7 O28'
_chemical_formula_weight         2308.94

loop_
_atom_type_symbol
_atom_type_description
_atom_type_scat_dispersion_real
_atom_type_scat_dispersion_imag
_atom_type_scat_source
C C 0.0033 0.0016 'International Tables Vol C Tables 4.2.6.8 and 6.1.1.4'
H H 0.0000 0.0000 'International Tables Vol C Tables 4.2.6.8 and 6.1.1.4'
Fe Fe 0.3463 0.8444 'International Tables Vol C Tables 4.2.6.8 and 6.1.1.4'
N N 0.0061 0.0033 'International Tables Vol C Tables 4.2.6.8 and 6.1.1.4'
O O 0.0106 0.0060 'International Tables Vol C Tables 4.2.6.8 and 6.1.1.4'

_symmetry_cell_setting           Monoclinic
_symmetry_space_group_name_H-M   C2/c

loop_
_symmetry_equiv_pos_as_xyz
'x, y, z'
'-x, y, -z+1/2'
'x+1/2, y+1/2, z'
'-x+1/2, y+1/2, -z+1/2'
'-x, -y, -z'
'x, -y, z-1/2'
'-x+1/2, -y+1/2, -z'
'x+1/2, -y+1/2, z-1/2'

_cell_length_a                   30.665(7)
_cell_length_b                   24.222(5)
_cell_length_c                   29.554(9)
_cell_angle_alpha                90.00
_cell_angle_beta                 103.908(5)
_cell_angle_gamma                90.00
_cell_volume                     21308(9)
_cell_formula_units_Z            8
_cell_measurement_temperature    100(2)
_cell_measurement_reflns_used    5380
_cell_measurement_theta_min      2.17
_cell_measurement_theta_max      21.75

_exptl_crystal_description       block
_exptl_crystal_colour            red
_exptl_crystal_size_max          0.26
_exptl_crystal_size_mid          0.26
_exptl_crystal_size_min          0.26
_exptl_crystal_density_meas      ?
_exptl_crystal_density_diffrn    1.439
_exptl_crystal_density_method    'not measured'
_exptl_crystal_F_000             9560
_exptl_absorpt_coefficient_mu    1.777
_exptl_absorpt_correction_type   multi-scan
_exptl_absorpt_correction_T_min  0.41
_exptl_absorpt_correction_T_max  0.68
_exptl_absorpt_process_details   ?

_exptl_special_details           
;
The only single crystal suitable for X-Ray analysis was
of a poor quality. It was selected under ambient
conditions and covered with PARATONE oil.
The crystal was mounted and centered in the X-ray beam by
using a video camera.The crystal evaluation and data
collection were performed on APEX CCD diffractometer
with the detector to crystal distance of 5cm.
The initial cell constants were obtained from three series of
OMEGA scans at different starting angles. Each series consisted
of 30 frames collected at intervals of 0.3 in a 10 range about
OMEGA with the exposure time of 30 seconds per frame. The
obtained reflections were successfully indexed by an automated
indexing routine built to SMART program package. The final cell
constants were calculated from a set of strong reflections from
the actual data collection.

The data were collected using the full sphere routine by
collecting four sets of frames with 0.5 scans in \w with an
exposure time 90 sec per frame. This dataset was corrected for
Lorentz and polarization effects. The absorption correction was
based on a fit of a spherical harmonic function to the empirical
transmission surface as sampled by multiple equivalent
measurements using SADABS software.
;

_diffrn_ambient_temperature      100(2)
_diffrn_radiation_wavelength     0.71073
_diffrn_radiation_type           MoK\a
_diffrn_radiation_source         'fine-focus sealed tube'
_diffrn_radiation_monochromator  graphite
_diffrn_measurement_device_type  'Bruker APEX-II CCD'
_diffrn_measurement_method       '\f and \w scans'
_diffrn_detector_area_resol_mean ?
_diffrn_reflns_number            50908
_diffrn_reflns_av_R_equivalents  0.1227
_diffrn_reflns_av_sigmaI/netI    0.0814
_diffrn_reflns_limit_h_min       -26
_diffrn_reflns_limit_h_max       26
_diffrn_reflns_limit_k_min       -21
_diffrn_reflns_limit_k_max       21
_diffrn_reflns_limit_l_min       -25
_diffrn_reflns_limit_l_max       25
_diffrn_reflns_theta_min         1.37
_diffrn_reflns_theta_max         18.00
_reflns_number_total             7309
_reflns_number_gt                4956
_reflns_threshold_expression     >2sigma(I)

_computing_data_collection       'Bruker SMART'
_computing_cell_refinement       'Bruker SAINT'
_computing_data_reduction        'Bruker SAINT'
_computing_structure_solution    'SHELXS-97 (Sheldrick, 2008)'
_computing_structure_refinement  'SHELXL-97 (Sheldrick, 2008)'
_computing_molecular_graphics    Diamond
_computing_publication_material  'Bruker SHELXTL'

_refine_special_details          
;

The systematic absences in the diffraction data were consistent for the
stated space group. The position of almost all non-hydrogen atoms
were found by direct methods. The remaining atoms were located in an
alternating series of least-squares cycles on difference Fourier maps.
The similarity restrains (SADI,SIMU, DELU) were applied to all carbon
and oxygen atoms to force the relevant geometry in ligands and to
obtain realistic ADPs. All non-hydrogen atoms were refined in
full-matrix anisotropic approximation.
All hydrogen atoms were placed in the structure factor calculation at
idealized positions and were allowed to ride on the neighboring atoms with
relative isotropic displacement coefficients.

The huge voids were observed in a crystal lattice. The quality of
data were very poor because of a bad quality of the only
available crystal and (related to this) very low resolution data.
SQUEEZE was used to treat electron density in those voids
(see section below)

Final results were tested with CHECKCIF routine and all A-warnings
were addressed on the very top of this file.



;

_refine_ls_structure_factor_coef Fsqd
_refine_ls_matrix_type           full
_refine_ls_weighting_scheme      calc
_refine_ls_weighting_details     
'calc w=1/[\s^2^(Fo^2^)+(0.2000P)^2^+0.0000P] where P=(Fo^2^+2Fc^2^)/3'
_atom_sites_solution_primary     direct
_atom_sites_solution_secondary   difmap
_atom_sites_solution_hydrogens   geom
_refine_ls_hydrogen_treatment    mixed
_refine_ls_extinction_method     none
_refine_ls_extinction_coef       ?
_refine_ls_number_reflns         7309
_refine_ls_number_parameters     964
_refine_ls_number_restraints     1828
_refine_ls_R_factor_all          0.1505
_refine_ls_R_factor_gt           0.1231
_refine_ls_wR_factor_ref         0.3720
_refine_ls_wR_factor_gt          0.3486
_refine_ls_goodness_of_fit_ref   1.450
_refine_ls_restrained_S_all      1.391
_refine_ls_shift/su_max          0.002
_refine_ls_shift/su_mean         0.000

loop_
_atom_site_label
_atom_site_type_symbol
_atom_site_fract_x
_atom_site_fract_y
_atom_site_fract_z
_atom_site_U_iso_or_equiv
_atom_site_adp_type
_atom_site_occupancy
_atom_site_symmetry_multiplicity
_atom_site_calc_flag
_atom_site_refinement_flags
_atom_site_disorder_assembly
_atom_site_disorder_group
Fe1 Fe 0.11457(9) 0.13460(11) 0.10201(8) 0.0465(10) Uani 1 1 d . . .
Fe2 Fe 0.16186(8) 0.05980(11) 0.19243(8) 0.0431(9) Uani 1 1 d . . .
Fe3 Fe 0.22383(9) 0.12020(12) 0.12611(9) 0.0507(10) Uani 1 1 d . . .
Fe4 Fe 0.24120(9) 0.08310(11) 0.30059(8) 0.0462(9) Uani 1 1 d . . .
Fe5 Fe 0.31125(9) 0.10134(12) 0.22968(9) 0.0558(10) Uani 1 1 d . . .
Fe6 Fe 0.33600(9) 0.14832(12) 0.33699(9) 0.0591(10) Uani 1 1 d . . .
O1 O 0.1666(3) 0.1045(4) 0.1404(4) 0.041(3) Uani 1 1 d . . .
O2 O 0.2957(4) 0.1121(4) 0.2894(4) 0.044(3) Uani 1 1 d . . .
O3 O 0.2074(3) 0.1053(4) 0.2375(4) 0.039(3) Uani 1 1 d U . .
O4 O 0.2545(4) 0.1330(4) 0.1922(4) 0.043(3) Uani 1 1 d U . .
O5 O 0.0724(4) 0.0704(5) 0.1015(4) 0.055(3) Uani 1 1 d U . .
O6 O 0.1089(4) 0.0146(5) 0.1559(4) 0.054(3) Uani 1 1 d U . .
O7 O 0.0936(4) 0.1734(6) 0.1521(4) 0.076(3) Uani 1 1 d U . .
O8 O 0.1137(5) 0.1092(6) 0.2092(4) 0.070(3) Uani 1 1 d U . .
O9 O 0.1247(4) 0.1073(5) 0.0417(4) 0.054(3) Uani 1 1 d U . .
O10 O 0.1972(4) 0.1181(5) 0.0553(4) 0.056(3) Uani 1 1 d U . .
O11 O 0.1413(5) 0.2064(5) 0.0881(4) 0.076(3) Uani 1 1 d U . .
O12 O 0.2141(5) 0.2020(5) 0.1198(4) 0.073(3) Uani 1 1 d U . .
O13 O 0.1985(4) 0.0021(5) 0.1705(4) 0.048(3) Uani 1 1 d U . .
O14 O 0.2337(4) 0.0392(5) 0.1221(4) 0.048(3) Uani 1 1 d U . .
O15 O 0.1562(4) 0.0114(5) 0.2444(4) 0.060(3) Uani 1 1 d U . .
O16 O 0.1841(4) 0.0509(5) 0.3132(4) 0.059(3) Uani 1 1 d U . .
O17 O 0.2836(5) 0.1304(6) 0.1105(4) 0.079(3) Uani 1 1 d U . .
O18 O 0.3309(4) 0.0920(7) 0.1706(5) 0.078(3) Uani 1 1 d U . .
O19 O 0.2575(4) 0.0081(5) 0.2839(4) 0.053(3) Uani 1 1 d U . .
O20 O 0.2911(4) 0.0238(5) 0.2279(4) 0.054(3) Uani 1 1 d U . .
O21 O 0.2704(5) 0.0619(5) 0.3690(4) 0.074(3) Uani 1 1 d U . .
O22 O 0.3410(5) 0.0889(6) 0.3842(4) 0.078(3) Uani 1 1 d U . .
O23 O 0.2249(5) 0.1559(6) 0.3269(4) 0.074(3) Uani 1 1 d U . .
O24 O 0.2910(5) 0.1882(5) 0.3635(4) 0.074(3) Uani 1 1 d U . .
O25 O 0.3734(4) 0.0716(7) 0.2609(5) 0.093(4) Uani 1 1 d U . .
O26 O 0.3931(5) 0.1175(7) 0.3273(5) 0.093(4) Uani 1 1 d U . .
O27 O 0.3398(5) 0.1774(6) 0.2322(5) 0.083(3) Uani 1 1 d U . .
O28 O 0.3416(5) 0.2140(6) 0.2991(5) 0.088(3) Uani 1 1 d U . .
C1 C 0.2259(5) 0.1501(7) 0.2196(6) 0.040(3) Uani 1 1 d U . .
H1A H 0.2016 0.1731 0.2006 0.048 Uiso 1 1 calc R . .
H1B H 0.2429 0.1732 0.2455 0.048 Uiso 1 1 calc R . .
C2 C 0.0759(6) 0.0249(8) 0.1228(7) 0.057(3) Uani 1 1 d DU . .
C3 C 0.0393(5) -0.0179(6) 0.1093(5) 0.062(3) Uani 1 1 d DU . .
C4 C 0.0197(6) -0.0151(9) 0.0579(5) 0.068(4) Uani 1 1 d DU . .
H4A H 0.0069 0.0217 0.0497 0.102 Uiso 1 1 calc R . .
H4B H -0.0040 -0.0429 0.0490 0.102 Uiso 1 1 calc R . .
H4C H 0.0432 -0.0222 0.0414 0.102 Uiso 1 1 calc R . .
C5 C 0.0068(6) -0.0071(9) 0.1390(6) 0.073(4) Uani 1 1 d DU . .
H5A H -0.0070 0.0293 0.1314 0.110 Uiso 1 1 calc R . .
H5B H 0.0228 -0.0080 0.1720 0.110 Uiso 1 1 calc R . .
H5C H -0.0166 -0.0355 0.1331 0.110 Uiso 1 1 calc R . .
C6 C 0.0580(7) -0.0751(7) 0.1232(7) 0.071(4) Uani 1 1 d DU . .
H6A H 0.0340 -0.1025 0.1142 0.106 Uiso 1 1 calc R . .
H6B H 0.0703 -0.0764 0.1571 0.106 Uiso 1 1 calc R . .
H6C H 0.0819 -0.0833 0.1074 0.106 Uiso 1 1 calc R . .
C7 C 0.0973(8) 0.1520(10) 0.1955(7) 0.079(3) Uani 1 1 d DU . .
C8 C 0.0843(6) 0.1956(8) 0.2268(6) 0.090(3) Uani 1 1 d DU . .
C9 C 0.0377(6) 0.2169(10) 0.2054(7) 0.097(5) Uani 1 1 d DU . .
H9A H 0.0375 0.2357 0.1760 0.145 Uiso 1 1 calc R . .
H9B H 0.0288 0.2430 0.2269 0.145 Uiso 1 1 calc R . .
H9C H 0.0165 0.1859 0.1995 0.145 Uiso 1 1 calc R . .
C10 C 0.0826(8) 0.1702(10) 0.2731(6) 0.100(5) Uani 1 1 d DU . .
H10A H 0.1125 0.1565 0.2887 0.149 Uiso 1 1 calc R . .
H10B H 0.0612 0.1395 0.2678 0.149 Uiso 1 1 calc R . .
H10C H 0.0730 0.1981 0.2926 0.149 Uiso 1 1 calc R . .
C11 C 0.1156(8) 0.2444(9) 0.2333(8) 0.106(5) Uani 1 1 d DU . .
H11A H 0.1154 0.2606 0.2029 0.159 Uiso 1 1 calc R . .
H11B H 0.1462 0.2323 0.2484 0.159 Uiso 1 1 calc R . .
H11C H 0.1057 0.2720 0.2529 0.159 Uiso 1 1 calc R . .
C12 C 0.1599(8) 0.1107(8) 0.0292(5) 0.058(3) Uani 1 1 d DU . .
C13 C 0.1567(5) 0.1058(7) -0.0227(5) 0.064(3) Uani 1 1 d DU . .
C14 C 0.1160(6) 0.0715(9) -0.0457(6) 0.078(4) Uani 1 1 d DU . .
H14A H 0.0887 0.0892 -0.0408 0.118 Uiso 1 1 calc R . .
H14B H 0.1188 0.0344 -0.0319 0.118 Uiso 1 1 calc R . .
H14C H 0.1140 0.0686 -0.0792 0.118 Uiso 1 1 calc R . .
C15 C 0.1540(7) 0.1643(7) -0.0411(7) 0.081(4) Uani 1 1 d DU . .
H15A H 0.1271 0.1823 -0.0357 0.121 Uiso 1 1 calc R . .
H15B H 0.1525 0.1637 -0.0746 0.121 Uiso 1 1 calc R . .
H15C H 0.1807 0.1849 -0.0249 0.121 Uiso 1 1 calc R . .
C16 C 0.1978(6) 0.0772(9) -0.0315(6) 0.072(4) Uani 1 1 d DU . .
H16A H 0.2247 0.0983 -0.0168 0.108 Uiso 1 1 calc R . .
H16B H 0.1952 0.0748 -0.0651 0.108 Uiso 1 1 calc R . .
H16C H 0.2000 0.0400 -0.0182 0.108 Uiso 1 1 calc R . .
C17 C 0.1785(10) 0.2275(8) 0.0976(8) 0.081(3) Uani 1 1 d DU . .
C18 C 0.1849(7) 0.2869(7) 0.0862(7) 0.096(3) Uani 1 1 d DU . .
C19 C 0.1427(8) 0.3136(10) 0.0582(9) 0.115(5) Uani 1 1 d DU . .
H19A H 0.1342 0.2967 0.0272 0.173 Uiso 1 1 calc R . .
H19B H 0.1479 0.3532 0.0551 0.173 Uiso 1 1 calc R . .
H19C H 0.1183 0.3083 0.0741 0.173 Uiso 1 1 calc R . .
C20 C 0.2214(8) 0.2861(10) 0.0606(9) 0.113(5) Uani 1 1 d DU . .
H20A H 0.2484 0.2691 0.0802 0.169 Uiso 1 1 calc R . .
H20B H 0.2283 0.3240 0.0529 0.169 Uiso 1 1 calc R . .
H20C H 0.2115 0.2647 0.0318 0.169 Uiso 1 1 calc R . .
C21 C 0.2164(9) 0.3185(10) 0.1237(8) 0.127(5) Uani 1 1 d DU . .
H21A H 0.2422 0.2952 0.1379 0.191 Uiso 1 1 calc R . .
H21B H 0.2008 0.3298 0.1475 0.191 Uiso 1 1 calc R . .
H21C H 0.2270 0.3514 0.1102 0.191 Uiso 1 1 calc R . .
C22 C 0.2146(6) -0.0001(7) 0.1363(6) 0.049(2) Uani 1 1 d DU . .
C23 C 0.2048(5) -0.0505(6) 0.1048(5) 0.054(3) Uani 1 1 d DU . .
C24 C 0.1893(7) -0.0994(7) 0.1293(6) 0.069(4) Uani 1 1 d DU . .
H24A H 0.1620 -0.0893 0.1390 0.104 Uiso 1 1 calc R . .
H24B H 0.2130 -0.1094 0.1567 0.104 Uiso 1 1 calc R . .
H24C H 0.1831 -0.1309 0.1079 0.104 Uiso 1 1 calc R . .
C25 C 0.1674(6) -0.0341(8) 0.0634(5) 0.060(4) Uani 1 1 d DU . .
H25A H 0.1401 -0.0266 0.0739 0.089 Uiso 1 1 calc R . .
H25B H 0.1618 -0.0643 0.0407 0.089 Uiso 1 1 calc R . .
H25C H 0.1763 -0.0009 0.0489 0.089 Uiso 1 1 calc R . .
C26 C 0.2468(6) -0.0630(8) 0.0881(6) 0.061(4) Uani 1 1 d DU . .
H26A H 0.2551 -0.0305 0.0722 0.092 Uiso 1 1 calc R . .
H26B H 0.2411 -0.0943 0.0665 0.092 Uiso 1 1 calc R . .
H26C H 0.2715 -0.0722 0.1149 0.092 Uiso 1 1 calc R . .
C27 C 0.1547(6) 0.0228(9) 0.2859(7) 0.063(3) Uani 1 1 d DU . .
C28 C 0.1234(5) -0.0105(7) 0.3069(5) 0.072(3) Uani 1 1 d DU . .
C29 C 0.0802(6) -0.0223(10) 0.2705(7) 0.095(5) Uani 1 1 d DU . .
H29A H 0.0647 0.0125 0.2602 0.143 Uiso 1 1 calc R . .
H29B H 0.0608 -0.0460 0.2840 0.143 Uiso 1 1 calc R . .
H29C H 0.0873 -0.0410 0.2437 0.143 Uiso 1 1 calc R . .
C30 C 0.1131(7) 0.0226(9) 0.3455(6) 0.080(4) Uani 1 1 d DU . .
H30A H 0.1407 0.0282 0.3698 0.119 Uiso 1 1 calc R . .
H30B H 0.0910 0.0029 0.3586 0.119 Uiso 1 1 calc R . .
H30C H 0.1007 0.0585 0.3334 0.119 Uiso 1 1 calc R . .
C31 C 0.1479(7) -0.0629(8) 0.3245(7) 0.079(4) Uani 1 1 d DU . .
H31A H 0.1752 -0.0540 0.3483 0.119 Uiso 1 1 calc R . .
H31B H 0.1560 -0.0823 0.2986 0.119 Uiso 1 1 calc R . .
H31C H 0.1285 -0.0866 0.3381 0.119 Uiso 1 1 calc R . .
C32 C 0.3202(7) 0.1130(11) 0.1307(8) 0.082(3) Uani 1 1 d DU . .
C33 C 0.3550(6) 0.1222(9) 0.1033(6) 0.089(3) Uani 1 1 d DU . .
C34 C 0.3431(8) 0.0891(10) 0.0584(7) 0.098(5) Uani 1 1 d DU . .
H34A H 0.3434 0.0496 0.0658 0.147 Uiso 1 1 calc R . .
H34B H 0.3651 0.0966 0.0400 0.147 Uiso 1 1 calc R . .
H34C H 0.3130 0.0996 0.0404 0.147 Uiso 1 1 calc R . .
C35 C 0.3558(8) 0.1830(9) 0.0902(8) 0.103(5) Uani 1 1 d DU . .
H35A H 0.3632 0.2054 0.1185 0.155 Uiso 1 1 calc R . .
H35B H 0.3262 0.1937 0.0713 0.155 Uiso 1 1 calc R . .
H35C H 0.3784 0.1888 0.0722 0.155 Uiso 1 1 calc R . .
C36 C 0.4015(6) 0.1157(11) 0.1340(7) 0.095(5) Uani 1 1 d DU . .
H36A H 0.4058 0.0776 0.1452 0.142 Uiso 1 1 calc R . .
H36B H 0.4053 0.1409 0.1606 0.142 Uiso 1 1 calc R . .
H36C H 0.4237 0.1245 0.1161 0.142 Uiso 1 1 calc R . .
C37 C 0.2801(7) -0.0059(7) 0.2559(7) 0.057(3) Uani 1 1 d DU . .
C38 C 0.2974(5) -0.0646(7) 0.2616(5) 0.067(3) Uani 1 1 d DU . .
C39 C 0.3180(7) -0.0817(9) 0.2227(6) 0.0