####################################################################### 
# 
# This file contains crystal structure data downloaded from the 
# Cambridge Structural Database (CSD) hosted by the Cambridge 
# Crystallographic Data Centre (CCDC).
# 
# Full information about CCDC data access policies and citation 
# guidelines are available at http://www.ccdc.cam.ac.uk/access/V1 
# 
# Audit and citation data items may have been added by the CCDC. 
# Please retain this information to preserve the provenance of 
# this file and to allow appropriate attribution of the data. 
# 
#######################################################################

data_compound1
_audit_block_doi                 10.5517/ccyt3rl
_database_code_depnum_ccdc_archive 'CCDC 888080'
loop_
_citation_id
_citation_doi
_citation_year
1 10.1021/cg301224z 2013
_audit_update_record             
;
2012-06-20 deposited with the CCDC.	2024-07-10 downloaded from the CCDC.
;
#TrackingRef '1.cif'


_audit_creation_method           SHELXL-97
_chemical_name_systematic        
;
?
;
_chemical_name_common            ?
_chemical_melting_point          'not measured'
_chemical_formula_moiety         'C19 H11 N2 O4 Zn'
_chemical_formula_sum            'C19 H11 N2 O4 Zn'
_chemical_formula_weight         396.67

loop_
_atom_type_symbol
_atom_type_description
_atom_type_scat_dispersion_real
_atom_type_scat_dispersion_imag
_atom_type_scat_source
C C 0.0033 0.0016 'International Tables Vol C Tables 4.2.6.8 and 6.1.1.4'
H H 0.0000 0.0000 'International Tables Vol C Tables 4.2.6.8 and 6.1.1.4'
N N 0.0061 0.0033 'International Tables Vol C Tables 4.2.6.8 and 6.1.1.4'
O O 0.0106 0.0060 'International Tables Vol C Tables 4.2.6.8 and 6.1.1.4'
Zn Zn 0.2839 1.4301 'International Tables Vol C Tables 4.2.6.8 and 6.1.1.4'

_symmetry_cell_setting           Orthorhombic
_symmetry_space_group_name_H-M   'Pbam '

loop_
_symmetry_equiv_pos_as_xyz
'x, y, z'
'-x, -y, z'
'-x+1/2, y+1/2, -z'
'x+1/2, -y+1/2, -z'
'-x, -y, -z'
'x, y, -z'
'x-1/2, -y-1/2, z'
'-x-1/2, y-1/2, z'

_cell_length_a                   15.1309(8)
_cell_length_b                   18.0855(9)
_cell_length_c                   11.4414(6)
_cell_angle_alpha                90.00
_cell_angle_beta                 90.00
_cell_angle_gamma                90.00
_cell_volume                     3130.9(3)
_cell_formula_units_Z            4
_cell_measurement_temperature    296(2)
_cell_measurement_reflns_used    4126
_cell_measurement_theta_min      1.75
_cell_measurement_theta_max      28.50

_exptl_crystal_description       block
_exptl_crystal_colour            colourless
_exptl_crystal_size_max          0.28
_exptl_crystal_size_mid          0.26
_exptl_crystal_size_min          0.22
_exptl_crystal_density_meas      'not measured'
_exptl_crystal_density_diffrn    0.842
_exptl_crystal_density_method    'not measured'
_exptl_crystal_F_000             804
_exptl_absorpt_coefficient_mu    0.799
_exptl_absorpt_correction_type   empirical
_exptl_absorpt_correction_T_min  0.7357
_exptl_absorpt_correction_T_max  0.7518
_exptl_absorpt_process_details   SADABS

_exptl_special_details           
;
?
;

_diffrn_ambient_temperature      296(2)
_diffrn_radiation_wavelength     0.71073
_diffrn_radiation_type           MoK\a
_diffrn_radiation_source         'fine-focus sealed tube'
_diffrn_radiation_monochromator  graphite
_diffrn_measurement_device_type  'CCD area detector'
_diffrn_measurement_method       'phi and omega scans'
_diffrn_detector_area_resol_mean 9.00cm
_diffrn_standards_number         none
_diffrn_standards_interval_count none
_diffrn_standards_interval_time  none
_diffrn_standards_decay_%        none
_diffrn_reflns_number            19268
_diffrn_reflns_av_R_equivalents  0.0641
_diffrn_reflns_av_sigmaI/netI    0.0518
_diffrn_reflns_limit_h_min       -20
_diffrn_reflns_limit_h_max       19
_diffrn_reflns_limit_k_min       -23
_diffrn_reflns_limit_k_max       15
_diffrn_reflns_limit_l_min       -14
_diffrn_reflns_limit_l_max       15
_diffrn_reflns_theta_min         1.75
_diffrn_reflns_theta_max         28.50
_reflns_number_total             4126
_reflns_number_gt                2719
_reflns_threshold_expression     >2sigma(I)

_computing_data_collection       'Bruker SMART'
_computing_cell_refinement       'Bruker SMART'
_computing_data_reduction        'Bruker SAINT'
_computing_structure_solution    'SHELXS-97 (Sheldrick, 1990)'
_computing_structure_refinement  'SHELXL-97 (Sheldrick, 1997)'
_computing_molecular_graphics    SHELXP-97
_computing_publication_material  SHELXTL

_refine_special_details          
;
Refinement of F^2^ against ALL reflections. The weighted R-factor wR and
goodness of fit S are based on F^2^, conventional R-factors R are based
on F, with F set to zero for negative F^2^. The threshold expression of
F^2^ > 2sigma(F^2^) is used only for calculating R-factors(gt) etc. and is
not relevant to the choice of reflections for refinement. R-factors based
on F^2^ are statistically about twice as large as those based on F, and R-
factors based on ALL data will be even larger.
;

_refine_ls_structure_factor_coef Fsqd
_refine_ls_matrix_type           full
_refine_ls_weighting_scheme      calc
_refine_ls_weighting_details     
'calc w=1/[\s^2^(Fo^2^)+(0.2000P)^2^+0.0000P] where P=(Fo^2^+2Fc^2^)/3'
_atom_sites_solution_primary     direct
_atom_sites_solution_secondary   difmap
_atom_sites_solution_hydrogens   geom
_refine_ls_hydrogen_treatment    constr
_refine_ls_extinction_method     none
_refine_ls_extinction_coef       ?
_refine_ls_number_reflns         4126
_refine_ls_number_parameters     115
_refine_ls_number_restraints     2
_refine_ls_R_factor_all          0.1436
_refine_ls_R_factor_gt           0.1063
_refine_ls_wR_factor_ref         0.3442
_refine_ls_wR_factor_gt          0.3169
_refine_ls_goodness_of_fit_ref   1.277
_refine_ls_restrained_S_all      1.277
_refine_ls_shift/su_max          0.008
_refine_ls_shift/su_mean         0.001

loop_
_atom_site_label
_atom_site_type_symbol
_atom_site_fract_x
_atom_site_fract_y
_atom_site_fract_z
_atom_site_U_iso_or_equiv
_atom_site_adp_type
_atom_site_occupancy
_atom_site_symmetry_multiplicity
_atom_site_calc_flag
_atom_site_refinement_flags
_atom_site_disorder_assembly
_atom_site_disorder_group
Zn1 Zn 0.44787(5) -0.09842(4) 0.5000 0.0296(3) Uani 1 2 d S . .
O1 O 0.3641(4) -0.0135(3) 0.5000 0.0437(14) Uani 1 2 d S . .
O2 O 0.4196(4) 0.1002(3) 0.5000 0.0462(15) Uani 1 2 d S . .
O3 O 0.0718(5) 0.2936(3) 0.5000 0.0585(18) Uani 1 2 d S . .
O4 O 0.2116(6) 0.3158(4) 0.5000 0.098(3) Uani 1 2 d S . .
N1 N 0.4473(3) -0.0945(3) 0.3092(5) 0.0454(13) Uani 1 1 d . . .
C1 C 0.1661(5) 0.1916(4) 0.5000 0.0421(19) Uani 1 2 d S . .
C2 C 0.0952(5) 0.1443(5) 0.5000 0.055(3) Uani 1 2 d S . .
H2 H 0.0382 0.1635 0.5000 0.080 Uiso 1 2 calc S . .
C3 C 0.1075(5) 0.0661(5) 0.5000 0.054(2) Uani 1 2 d S . .
C4 C 0.1940(5) 0.0386(4) 0.5000 0.0430(19) Uani 1 2 d S . .
H4 H 0.2034 -0.0122 0.5000 0.080 Uiso 1 2 calc S . .
C5 C 0.2651(5) 0.0858(4) 0.5000 0.0331(16) Uani 1 2 d S . .
C6 C 0.2521(5) 0.1632(4) 0.5000 0.0393(18) Uani 1 2 d S . .
H6 H 0.3004 0.1950 0.5000 0.080 Uiso 1 2 calc S . .
C7 C 0.1510(6) 0.2738(5) 0.5000 0.052(2) Uani 1 2 d S . .
C8 C 0.3569(4) 0.0553(4) 0.5000 0.0271(14) Uani 1 2 d S . .
C9 C 0.0328(6) 0.0187(6) 0.5000 0.067(3) Uani 1 2 d S . .
C10 C 0.3811(6) -0.0697(6) 0.2492(7) 0.1016(17) Uani 1 1 d D . .
H10 H 0.3330 -0.0503 0.2894 0.080 Uiso 1 1 calc . . .
C11 C 0.3783(6) -0.0705(6) 0.1263(7) 0.1016(17) Uani 1 1 d D . .
H11 H 0.3290 -0.0516 0.0880 0.080 Uiso 1 1 calc . . .
C12 C 0.4444(6) -0.0977(6) 0.0646(8) 0.1016(17) Uani 1 1 d D . .
C13 C 0.5133(7) -0.1204(7) 0.1296(7) 0.1016(17) Uani 1 1 d D . .
H13 H 0.5642 -0.1369 0.0920 0.080 Uiso 1 1 calc . . .
C14 C 0.5113(7) -0.1202(7) 0.2464(8) 0.1016(17) Uani 1 1 d D . .
H14 H 0.5596 -0.1401 0.2855 0.080 Uiso 1 1 calc . . .

loop_
_atom_site_aniso_label
_atom_site_aniso_U_11
_atom_site_aniso_U_22
_atom_site_aniso_U_33
_atom_site_aniso_U_23
_atom_site_aniso_U_13
_atom_site_aniso_U_12
Zn1 0.0216(5) 0.0232(5) 0.0440(6) 0.000 0.000 0.0011(3)
O1 0.032(3) 0.030(3) 0.070(4) 0.000 0.000 0.010(2)
O2 0.017(2) 0.048(4) 0.074(4) 0.000 0.000 -0.004(2)
O3 0.064(4) 0.036(3) 0.076(5) 0.000 0.000 0.026(3)
O4 0.074(6) 0.028(4) 0.192(11) 0.000 0.000 0.001(4)
N1 0.046(3) 0.046(3) 0.045(3) 0.002(2) 0.001(2) 0.006(2)
C1 0.038(4) 0.023(4) 0.065(5) 0.000 0.000 0.006(3)
C2 0.024(4) 0.032(4) 0.109(8) 0.000 0.000 0.012(3)
C3 0.025(4) 0.034(5) 0.103(8) 0.000 0.000 -0.004(3)
C4 0.027(4) 0.027(4) 0.075(6) 0.000 0.000 0.002(3)
C5 0.021(3) 0.025(4) 0.053(4) 0.000 0.000 0.004(3)
C6 0.027(4) 0.026(4) 0.065(5) 0.000 0.000 -0.005(3)
C7 0.043(5) 0.030(4) 0.082(7) 0.000 0.000 0.014(4)
C8 0.024(3) 0.029(3) 0.029(3) 0.000 0.000 0.002(3)
C9 0.024(4) 0.045(6) 0.131(10) 0.000 0.000 -0.003(4)
C10 0.077(3) 0.181(5) 0.046(2) -0.010(2) -0.0056(18) 0.064(3)
C11 0.077(3) 0.181(5) 0.046(2) -0.010(2) -0.0056(18) 0.064(3)
C12 0.077(3) 0.181(5) 0.046(2) -0.010(2) -0.0056(18) 0.064(3)
C13 0.077(3) 0.181(5) 0.046(2) -0.010(2) -0.0056(18) 0.064(3)
C14 0.077(3) 0.181(5) 0.046(2) -0.010(2) -0.0056(18) 0.064(3)

_geom_special_details            
;
All esds (except the esd in the dihedral angle between two l.s. planes)
are estimated using the full covariance matrix. The cell esds are taken
into account individually in the estimation of esds in distances, angles
and torsion angles; correlations between esds in cell parameters are only
used when they are defined by crystal symmetry. An approximate (isotropic)
treatment of cell esds is used for estimating esds involving l.s. planes.
;

loop_
_geom_bond_atom_site_label_1
_geom_bond_atom_site_label_2
_geom_bond_distance
_geom_bond_site_symmetry_2
_geom_bond_publ_flag
Zn1 O3 1.976(6) 3_546 ?
Zn1 O1 1.992(5) . ?
Zn1 O2 2.006(6) 5_656 ?
Zn1 N1 2.184(6) . ?
Zn1 N1 2.184(6) 6_556 ?
O1 C8 1.249(8) . ?
O2 C8 1.249(8) . ?
O2 Zn1 2.006(6) 5_656 ?
O3 C7 1.250(10) . ?
O3 Zn1 1.976(6) 3_556 ?
O4 C7 1.191(11) . ?
N1 C14 1.292(10) . ?
N1 C10 1.295(9) . ?
C1 C2 1.372(11) . ?
C1 C6 1.399(11) . ?
C1 C7 1.504(11) . ?
C2 C3 1.427(12) . ?
C3 C4 1.400(11) . ?
C3 C9 1.419(11) . ?
C4 C5 1.373(10) . ?
C5 C6 1.413(9) . ?
C5 C8 1.495(9) . ?
C9 C9 1.200(18) 5_556 ?
C10 C11 1.406(11) . ?
C11 C12 1.320(11) . ?
C12 C13 1.345(11) . ?
C12 C12 1.479(18) 6 ?
C13 C14 1.337(12) . ?

loop_
_geom_angle_atom_site_label_1
_geom_angle_atom_site_label_2
_geom_angle_atom_site_label_3
_geom_angle
_geom_angle_site_symmetry_1
_geom_angle_site_symmetry_3
_geom_angle_publ_flag
O3 Zn1 O1 131.8(2) 3_546 . ?
O3 Zn1 O2 97.7(3) 3_546 5_656 ?
O1 Zn1 O2 130.5(2) . 5_656 ?
O3 Zn1 N1 91.79(13) 3_546 . ?
O1 Zn1 N1 88.43(12) . . ?
O2 Zn1 N1 90.26(13) 5_656 . ?
O3 Zn1 N1 91.79(13) 3_546 6_556 ?
O1 Zn1 N1 88.43(12) . 6_556 ?
O2 Zn1 N1 90.26(13) 5_656 6_556 ?
N1 Zn1 N1 176.3(3) . 6_556 ?
C8 O1 Zn1 145.4(5) . . ?
C8 O2 Zn1 138.5(5) . 5_656 ?
C7 O3 Zn1 115.2(6) . 3_556 ?
C14 N1 C10 114.1(7) . . ?
C14 N1 Zn1 122.8(5) . . ?
C10 N1 Zn1 123.0(5) . . ?
C2 C1 C6 119.9(7) . . ?
C2 C1 C7 119.9(7) . . ?
C6 C1 C7 120.3(7) . . ?
C1 C2 C3 121.1(7) . . ?
C4 C3 C9 122.0(8) . . ?
C4 C3 C2 118.3(7) . . ?
C9 C3 C2 119.7(8) . . ?
C5 C4 C3 120.8(7) . . ?
C4 C5 C6 120.5(6) . . ?
C4 C5 C8 119.9(6) . . ?
C6 C5 C8 119.7(6) . . ?
C1 C6 C5 119.5(7) . . ?
O4 C7 O3 123.8(9) . . ?
O4 C7 C1 120.8(8) . . ?
O3 C7 C1 115.3(8) . . ?
O1 C8 O2 125.6(7) . . ?
O1 C8 C5 116.7(6) . . ?
O2 C8 C5 117.7(6) . . ?
C9 C9 C3 177.1(14) 5_556 . ?
N1 C10 C11 123.4(8) . . ?
C12 C11 C10 121.0(8) . . ?
C11 C12 C13 114.0(8) . . ?
C11 C12 C12 122.3(5) . 6 ?
C13 C12 C12 123.5(5) . 6 ?
C14 C13 C12 122.2(8) . . ?
N1 C14 C13 125.1(8) . . ?

_diffrn_measured_fraction_theta_max 0.989
_diffrn_reflns_theta_full        28.50
_diffrn_measured_fraction_theta_full 0.989
_refine_diff_density_max         2.273
_refine_diff_density_min         -1.055
_refine_diff_density_rms         0.265
