####################################################################### 
# 
# This file contains crystal structure data downloaded from the 
# Cambridge Structural Database (CSD) hosted by the Cambridge 
# Crystallographic Data Centre (CCDC).
# 
# Full information about CCDC data access policies and citation 
# guidelines are available at http://www.ccdc.cam.ac.uk/access/V1 
# 
# Audit and citation data items may have been added by the CCDC. 
# Please retain this information to preserve the provenance of 
# this file and to allow appropriate attribution of the data. 
# 
#######################################################################

data_2
_audit_block_doi                 10.5517/ccyz7lq
_database_code_depnum_ccdc_archive 'CCDC 893004'
loop_
_citation_id
_citation_doi
_citation_year
1 10.1080/15533174.2012.750670 2013
_audit_update_record             
;
2012-07-20 deposited with the CCDC.	2024-07-10 downloaded from the CCDC.
;
#TrackingRef '2.cif'


_audit_creation_method           SHELXL-97
_chemical_name_systematic        
;
?
;
_chemical_name_common            ?
_chemical_melting_point          ?
_chemical_formula_moiety         ?
_chemical_formula_sum            'C9 H7 Cu N O3'
_chemical_formula_weight         240.70

loop_
_atom_type_symbol
_atom_type_description
_atom_type_scat_dispersion_real
_atom_type_scat_dispersion_imag
_atom_type_scat_source
C C 0.0181 0.0091 'International Tables Vol C Tables 4.2.6.8 and 6.1.1.4'
H H 0.0000 0.0000 'International Tables Vol C Tables 4.2.6.8 and 6.1.1.4'
Cu Cu -1.9646 0.5888 'International Tables Vol C Tables 4.2.6.8 and 6.1.1.4'
N N 0.0311 0.0180 'International Tables Vol C Tables 4.2.6.8 and 6.1.1.4'
O O 0.0492 0.0322 'International Tables Vol C Tables 4.2.6.8 and 6.1.1.4'

_symmetry_cell_setting           hexagonal
_symmetry_space_group_name_H-M   R-3

loop_
_symmetry_equiv_pos_as_xyz
'x, y, z'
'-y, x-y, z'
'-x+y, -x, z'
'x+2/3, y+1/3, z+1/3'
'-y+2/3, x-y+1/3, z+1/3'
'-x+y+2/3, -x+1/3, z+1/3'
'x+1/3, y+2/3, z+2/3'
'-y+1/3, x-y+2/3, z+2/3'
'-x+y+1/3, -x+2/3, z+2/3'
'-x, -y, -z'
'y, -x+y, -z'
'x-y, x, -z'
'-x+2/3, -y+1/3, -z+1/3'
'y+2/3, -x+y+1/3, -z+1/3'
'x-y+2/3, x+1/3, -z+1/3'
'-x+1/3, -y+2/3, -z+2/3'
'y+1/3, -x+y+2/3, -z+2/3'
'x-y+1/3, x+2/3, -z+2/3'

_cell_length_a                   26.9848(10)
_cell_length_b                   26.9848(10)
_cell_length_c                   6.9461(2)
_cell_angle_alpha                90.00
_cell_angle_beta                 90.00
_cell_angle_gamma                120.00
_cell_volume                     4380.4(3)
_cell_formula_units_Z            18
_cell_measurement_temperature    298(2)
_cell_measurement_reflns_used    1123
_cell_measurement_theta_min      ?
_cell_measurement_theta_max      ?

_exptl_crystal_description       ?
_exptl_crystal_colour            ?
_exptl_crystal_size_max          0.20
_exptl_crystal_size_mid          0.20
_exptl_crystal_size_min          0.18
_exptl_crystal_density_meas      ?
_exptl_crystal_density_diffrn    1.642
_exptl_crystal_density_method    'not measured'
_exptl_crystal_F_000             2178
_exptl_absorpt_coefficient_mu    3.028
_exptl_absorpt_correction_type   multi-scan
_exptl_absorpt_correction_T_min  0.5826
_exptl_absorpt_correction_T_max  0.6117
_exptl_absorpt_process_details   SADABS

_exptl_special_details           
;
?
;

_diffrn_ambient_temperature      298(2)
_diffrn_radiation_wavelength     1.54178
_diffrn_radiation_type           CuK\a
_diffrn_radiation_source         'fine-focus sealed tube'
_diffrn_radiation_monochromator  graphite
_diffrn_measurement_device_type  ?
_diffrn_measurement_method       ?
_diffrn_detector_area_resol_mean ?
_diffrn_standards_number         ?
_diffrn_standards_interval_count ?
_diffrn_standards_interval_time  ?
_diffrn_standards_decay_%        ?
_diffrn_reflns_number            9414
_diffrn_reflns_av_R_equivalents  0.0332
_diffrn_reflns_av_sigmaI/netI    0.0175
_diffrn_reflns_limit_h_min       -33
_diffrn_reflns_limit_h_max       31
_diffrn_reflns_limit_k_min       -33
_diffrn_reflns_limit_k_max       32
_diffrn_reflns_limit_l_min       -6
_diffrn_reflns_limit_l_max       8
_diffrn_reflns_theta_min         5.68
_diffrn_reflns_theta_max         72.33
_reflns_number_total             1924
_reflns_number_gt                1863
_reflns_threshold_expression     >2sigma(I)

_computing_data_collection       ?
_computing_cell_refinement       ?
_computing_data_reduction        ?
_computing_structure_solution    'SHELXS-97 (Sheldrick, 1990)'
_computing_structure_refinement  'SHELXL-97 (Sheldrick, 1997)'
_computing_molecular_graphics    ?
_computing_publication_material  ?

_refine_special_details          
;
Refinement of F^2^ against ALL reflections. The weighted R-factor wR and
goodness of fit S are based on F^2^, conventional R-factors R are based
on F, with F set to zero for negative F^2^. The threshold expression of
F^2^ > 2sigma(F^2^) is used only for calculating R-factors(gt) etc. and is
not relevant to the choice of reflections for refinement. R-factors based
on F^2^ are statistically about twice as large as those based on F, and R-
factors based on ALL data will be even larger.
;

_refine_ls_structure_factor_coef Fsqd
_refine_ls_matrix_type           full
_refine_ls_weighting_scheme      calc
_refine_ls_weighting_details     
'calc w=1/[\s^2^(Fo^2^)+(0.0691P)^2^+9.5074P] where P=(Fo^2^+2Fc^2^)/3'
_atom_sites_solution_primary     direct
_atom_sites_solution_secondary   difmap
_atom_sites_solution_hydrogens   geom
_refine_ls_hydrogen_treatment    mixed
_refine_ls_extinction_method     none
_refine_ls_extinction_coef       ?
_refine_ls_number_reflns         1924
_refine_ls_number_parameters     127
_refine_ls_number_restraints     0
_refine_ls_R_factor_all          0.0411
_refine_ls_R_factor_gt           0.0394
_refine_ls_wR_factor_ref         0.1207
_refine_ls_wR_factor_gt          0.1191
_refine_ls_goodness_of_fit_ref   1.176
_refine_ls_restrained_S_all      1.176
_refine_ls_shift/su_max          0.000
_refine_ls_shift/su_mean         0.000

loop_
_atom_site_label
_atom_site_type_symbol
_atom_site_fract_x
_atom_site_fract_y
_atom_site_fract_z
_atom_site_U_iso_or_equiv
_atom_site_adp_type
_atom_site_occupancy
_atom_site_symmetry_multiplicity
_atom_site_calc_flag
_atom_site_refinement_flags
_atom_site_disorder_assembly
_atom_site_disorder_group
Cu1 Cu 0.345939(17) 0.123933(16) 0.26206(5) 0.03024(19) Uani 1 1 d . . .
N1 N 0.33152(10) 0.09334(10) 0.5199(3) 0.0311(5) Uani 1 1 d . . .
O1 O 0.29470(8) 0.15488(8) 0.2917(3) 0.0321(4) Uani 1 1 d . . .
O2 O 0.40009(10) 0.09679(11) 0.2535(3) 0.0445(5) Uani 1 1 d . . .
O3 O 0.43789(11) 0.05440(11) 0.4215(3) 0.0504(6) Uani 1 1 d . . .
C1 C 0.25541(12) 0.11191(11) 0.5991(4) 0.0339(6) Uani 1 1 d . . .
C2 C 0.25457(12) 0.13949(11) 0.4269(4) 0.0323(6) Uani 1 1 d . . .
C3 C 0.20936(15) 0.15095(15) 0.4028(6) 0.0489(8) Uani 1 1 d . . .
H3 H 0.2063 0.1670 0.2881 0.059 Uiso 1 1 calc R . .
C4 C 0.16954(16) 0.13871(17) 0.5465(7) 0.0610(10) Uani 1 1 d . . .
H4 H 0.1404 0.1470 0.5273 0.073 Uiso 1 1 calc R . .
C5 C 0.17223(17) 0.11428(18) 0.7186(6) 0.0615(10) Uani 1 1 d . . .
H5 H 0.1457 0.1071 0.8156 0.074 Uiso 1 1 calc R . .
C6 C 0.21431(15) 0.10076(14) 0.7444(5) 0.0468(8) Uani 1 1 d . . .
H6 H 0.2160 0.0840 0.8593 0.056 Uiso 1 1 calc R . .
C7 C 0.29512(12) 0.09229(12) 0.6392(4) 0.0333(6) Uani 1 1 d . . .
H7 H 0.2941 0.0777 0.7614 0.040 Uiso 1 1 calc R . .
C8 C 0.36848(14) 0.07068(14) 0.5762(4) 0.0381(6) Uani 1 1 d . . .
H8A H 0.3453 0.0313 0.6183 0.046 Uiso 1 1 calc R . .
H8B H 0.3928 0.0928 0.6825 0.046 Uiso 1 1 calc R . .
C9 C 0.40514(13) 0.07360(13) 0.4064(4) 0.0352(6) Uani 1 1 d . . .

loop_
_atom_site_aniso_label
_atom_site_aniso_U_11
_atom_site_aniso_U_22
_atom_site_aniso_U_33
_atom_site_aniso_U_23
_atom_site_aniso_U_13
_atom_site_aniso_U_12
Cu1 0.0422(3) 0.0325(3) 0.0258(3) 0.00146(14) -0.00055(15) 0.02597(19)
N1 0.0400(12) 0.0323(11) 0.0263(11) 0.0007(8) -0.0029(9) 0.0220(10)
O1 0.0394(10) 0.0314(9) 0.0335(10) 0.0057(7) 0.0042(8) 0.0236(8)
O2 0.0624(14) 0.0611(14) 0.0336(10) 0.0120(10) 0.0086(10) 0.0487(12)
O3 0.0633(15) 0.0724(16) 0.0415(12) 0.0163(11) 0.0097(11) 0.0535(14)
C1 0.0345(14) 0.0276(12) 0.0382(15) 0.0005(10) 0.0032(11) 0.0144(11)
C2 0.0330(13) 0.0253(12) 0.0388(14) 0.0007(10) 0.0018(11) 0.0147(10)
C3 0.0435(17) 0.0480(18) 0.064(2) 0.0175(15) 0.0088(15) 0.0293(15)
C4 0.0464(19) 0.063(2) 0.087(3) 0.023(2) 0.0200(18) 0.0377(18)
C5 0.056(2) 0.066(2) 0.074(3) 0.024(2) 0.0309(19) 0.0386(19)
C6 0.0506(18) 0.0459(17) 0.0472(18) 0.0116(14) 0.0156(15) 0.0266(15)
C7 0.0396(14) 0.0309(13) 0.0290(13) 0.0032(10) 0.0008(11) 0.0173(11)
C8 0.0502(17) 0.0513(17) 0.0269(13) 0.0028(12) -0.0030(12) 0.0360(15)
C9 0.0436(15) 0.0385(14) 0.0323(14) 0.0017(11) -0.0013(11) 0.0272(13)

_geom_special_details            
;
All esds (except the esd in the dihedral angle between two l.s. planes)
are estimated using the full covariance matrix. The cell esds are taken
into account individually in the estimation of esds in distances, angles
and torsion angles; correlations between esds in cell parameters are only
used when they are defined by crystal symmetry. An approximate (isotropic)
treatment of cell esds is used for estimating esds involving l.s. planes.
;

loop_
_geom_bond_atom_site_label_1
_geom_bond_atom_site_label_2
_geom_bond_distance
_geom_bond_site_symmetry_2
_geom_bond_publ_flag
Cu1 N1 1.928(2) . ?
Cu1 O2 1.935(2) . ?
Cu1 O1 1.9509(18) . ?
Cu1 O1 1.9920(18) 13 ?
Cu1 O3 2.257(2) 8_544 ?
Cu1 Cu1 3.0179(7) 13 ?
N1 C7 1.274(4) . ?
N1 C8 1.460(3) . ?
O1 C2 1.333(3) . ?
O1 Cu1 1.9920(18) 13 ?
O2 C9 1.274(4) . ?
O3 C9 1.232(4) . ?
O3 Cu1 2.257(2) 6 ?
C1 C2 1.415(4) . ?
C1 C6 1.416(4) . ?
C1 C7 1.440(4) . ?
C2 C3 1.410(4) . ?
C3 C4 1.380(5) . ?
C3 H3 0.9300 . ?
C4 C5 1.385(6) . ?
C4 H4 0.9300 . ?
C5 C6 1.367(5) . ?
C5 H5 0.9300 . ?
C6 H6 0.9300 . ?
C7 H7 0.9300 . ?
C8 C9 1.516(4) . ?
C8 H8A 0.9700 . ?
C8 H8B 0.9700 . ?

loop_
_geom_angle_atom_site_label_1
_geom_angle_atom_site_label_2
_geom_angle_atom_site_label_3
_geom_angle
_geom_angle_site_symmetry_1
_geom_angle_site_symmetry_3
_geom_angle_publ_flag
N1 Cu1 O2 84.00(9) . . ?
N1 Cu1 O1 92.92(9) . . ?
O2 Cu1 O1 174.91(9) . . ?
N1 Cu1 O1 161.99(9) . 13 ?
O2 Cu1 O1 101.65(8) . 13 ?
O1 Cu1 O1 80.12(8) . 13 ?
N1 Cu1 O3 102.61(9) . 8_544 ?
O2 Cu1 O3 94.20(10) . 8_544 ?
O1 Cu1 O3 90.42(9) . 8_544 ?
O1 Cu1 O3 94.09(8) 13 8_544 ?
N1 Cu1 Cu1 131.35(7) . 13 ?
O2 Cu1 Cu1 141.00(7) . 13 ?
O1 Cu1 Cu1 40.56(5) . 13 ?
O1 Cu1 Cu1 39.56(5) 13 13 ?
O3 Cu1 Cu1 92.97(6) 8_544 13 ?
C7 N1 C8 119.8(2) . . ?
C7 N1 Cu1 126.98(19) . . ?
C8 N1 Cu1 113.21(18) . . ?
C2 O1 Cu1 125.46(16) . . ?
C2 O1 Cu1 134.65(17) . 13 ?
Cu1 O1 Cu1 99.88(8) . 13 ?
C9 O2 Cu1 116.54(19) . . ?
C9 O3 Cu1 138.1(2) . 6 ?
C2 C1 C6 119.8(3) . . ?
C2 C1 C7 124.6(3) . . ?
C6 C1 C7 115.6(3) . . ?
O1 C2 C3 120.3(3) . . ?
O1 C2 C1 122.3(2) . . ?
C3 C2 C1 117.3(3) . . ?
C4 C3 C2 121.1(3) . . ?
C4 C3 H3 119.4 . . ?
C2 C3 H3 119.4 . . ?
C3 C4 C5 121.2(3) . . ?
C3 C4 H4 119.4 . . ?
C5 C4 H4 119.4 . . ?
C6 C5 C4 119.2(3) . . ?
C6 C5 H5 120.4 . . ?
C4 C5 H5 120.4 . . ?
C5 C6 C1 121.1(3) . . ?
C5 C6 H6 119.4 . . ?
C1 C6 H6 119.4 . . ?
N1 C7 C1 125.0(3) . . ?
N1 C7 H7 117.5 . . ?
C1 C7 H7 117.5 . . ?
N1 C8 C9 109.5(2) . . ?
N1 C8 H8A 109.8 . . ?
C9 C8 H8A 109.8 . . ?
N1 C8 H8B 109.8 . . ?
C9 C8 H8B 109.8 . . ?
H8A C8 H8B 108.2 . . ?
O3 C9 O2 123.6(3) . . ?
O3 C9 C8 119.9(3) . . ?
O2 C9 C8 116.5(2) . . ?

_diffrn_measured_fraction_theta_max 0.996
_diffrn_reflns_theta_full        72.33
_diffrn_measured_fraction_theta_full 0.996
_refine_diff_density_max         0.700
_refine_diff_density_min         -0.215
_refine_diff_density_rms         0.114
