####################################################################### 
# 
# This file contains crystal structure data downloaded from the 
# Cambridge Structural Database (CSD) hosted by the Cambridge 
# Crystallographic Data Centre (CCDC).
# 
# Full information about CCDC data access policies and citation 
# guidelines are available at http://www.ccdc.cam.ac.uk/access/V1 
# 
# Audit and citation data items may have been added by the CCDC. 
# Please retain this information to preserve the provenance of 
# this file and to allow appropriate attribution of the data. 
# 
#######################################################################

data_3
_audit_block_doi                 10.5517/ccyz7mr
_database_code_depnum_ccdc_archive 'CCDC 893005'
loop_
_citation_id
_citation_doi
_citation_year
1 10.1080/15533174.2012.750670 2013
_audit_update_record             
;
2012-07-20 deposited with the CCDC.	2024-07-10 downloaded from the CCDC.
;
#TrackingRef '3.cif'


_audit_creation_method           SHELXL-97
_chemical_name_systematic        
;
?
;
_chemical_name_common            ?
_chemical_melting_point          ?
_chemical_formula_moiety         ?
_chemical_formula_sum            'C9 H7 Cu N O3'
_chemical_formula_weight         240.70

loop_
_atom_type_symbol
_atom_type_description
_atom_type_scat_dispersion_real
_atom_type_scat_dispersion_imag
_atom_type_scat_source
C C 0.0033 0.0016 'International Tables Vol C Tables 4.2.6.8 and 6.1.1.4'
H H 0.0000 0.0000 'International Tables Vol C Tables 4.2.6.8 and 6.1.1.4'
N N 0.0061 0.0033 'International Tables Vol C Tables 4.2.6.8 and 6.1.1.4'
O O 0.0106 0.0060 'International Tables Vol C Tables 4.2.6.8 and 6.1.1.4'
Cu Cu 0.3201 1.2651 'International Tables Vol C Tables 4.2.6.8 and 6.1.1.4'

_symmetry_cell_setting           hexagonal
_symmetry_space_group_name_H-M   R-3

loop_
_symmetry_equiv_pos_as_xyz
'x, y, z'
'-y, x-y, z'
'-x+y, -x, z'
'x+2/3, y+1/3, z+1/3'
'-y+2/3, x-y+1/3, z+1/3'
'-x+y+2/3, -x+1/3, z+1/3'
'x+1/3, y+2/3, z+2/3'
'-y+1/3, x-y+2/3, z+2/3'
'-x+y+1/3, -x+2/3, z+2/3'
'-x, -y, -z'
'y, -x+y, -z'
'x-y, x, -z'
'-x+2/3, -y+1/3, -z+1/3'
'y+2/3, -x+y+1/3, -z+1/3'
'x-y+2/3, x+1/3, -z+1/3'
'-x+1/3, -y+2/3, -z+2/3'
'y+1/3, -x+y+2/3, -z+2/3'
'x-y+1/3, x+2/3, -z+2/3'

_cell_length_a                   27.0212(12)
_cell_length_b                   27.0212(12)
_cell_length_c                   6.9705(6)
_cell_angle_alpha                90.00
_cell_angle_beta                 90.00
_cell_angle_gamma                120.00
_cell_volume                     4407.6(5)
_cell_formula_units_Z            18
_cell_measurement_temperature    298(2)
_cell_measurement_reflns_used    4611
_cell_measurement_theta_min      2.6
_cell_measurement_theta_max      28.2

_exptl_crystal_description       block
_exptl_crystal_colour            blue
_exptl_crystal_size_max          0.17
_exptl_crystal_size_mid          0.12
_exptl_crystal_size_min          0.12
_exptl_crystal_density_meas      ?
_exptl_crystal_density_diffrn    1.632
_exptl_crystal_density_method    'not measured'
_exptl_crystal_F_000             2178
_exptl_absorpt_coefficient_mu    2.207
_exptl_absorpt_correction_type   multi-scan
_exptl_absorpt_correction_T_min  0.7054
_exptl_absorpt_correction_T_max  0.7776
_exptl_absorpt_process_details   SADABS

_exptl_special_details           
;
?
;

_diffrn_ambient_temperature      298(2)
_diffrn_radiation_wavelength     0.71073
_diffrn_radiation_type           MoK\a
_diffrn_radiation_source         'fine-focus sealed tube'
_diffrn_radiation_monochromator  graphite
_diffrn_measurement_device_type  ?
_diffrn_measurement_method       ?
_diffrn_detector_area_resol_mean ?
_diffrn_standards_number         ?
_diffrn_standards_interval_count ?
_diffrn_standards_interval_time  ?
_diffrn_standards_decay_%        ?
_diffrn_reflns_number            7118
_diffrn_reflns_av_R_equivalents  0.0170
_diffrn_reflns_av_sigmaI/netI    0.0136
_diffrn_reflns_limit_h_min       -32
_diffrn_reflns_limit_h_max       27
_diffrn_reflns_limit_k_min       -31
_diffrn_reflns_limit_k_max       31
_diffrn_reflns_limit_l_min       -8
_diffrn_reflns_limit_l_max       8
_diffrn_reflns_theta_min         3.05
_diffrn_reflns_theta_max         25.00
_reflns_number_total             1665
_reflns_number_gt                1537
_reflns_threshold_expression     >2sigma(I)

_computing_data_collection       ?
_computing_cell_refinement       ?
_computing_data_reduction        ?
_computing_structure_solution    'SHELXS-97 (Sheldrick, 1990)'
_computing_structure_refinement  'SHELXL-97 (Sheldrick, 1997)'
_computing_molecular_graphics    ?
_computing_publication_material  ?

_refine_special_details          
;
Refinement of F^2^ against ALL reflections. The weighted R-factor wR and
goodness of fit S are based on F^2^, conventional R-factors R are based
on F, with F set to zero for negative F^2^. The threshold expression of
F^2^ > 2sigma(F^2^) is used only for calculating R-factors(gt) etc. and is
not relevant to the choice of reflections for refinement. R-factors based
on F^2^ are statistically about twice as large as those based on F, and R-
factors based on ALL data will be even larger.
;

_refine_ls_structure_factor_coef Fsqd
_refine_ls_matrix_type           full
_refine_ls_weighting_scheme      calc
_refine_ls_weighting_details     
'calc w=1/[\s^2^(Fo^2^)+(0.0435P)^2^+7.6231P] where P=(Fo^2^+2Fc^2^)/3'
_atom_sites_solution_primary     direct
_atom_sites_solution_secondary   difmap
_atom_sites_solution_hydrogens   geom
_refine_ls_hydrogen_treatment    mixed
_refine_ls_extinction_method     none
_refine_ls_extinction_coef       ?
_refine_ls_number_reflns         1665
_refine_ls_number_parameters     127
_refine_ls_number_restraints     0
_refine_ls_R_factor_all          0.0280
_refine_ls_R_factor_gt           0.0254
_refine_ls_wR_factor_ref         0.0729
_refine_ls_wR_factor_gt          0.0711
_refine_ls_goodness_of_fit_ref   1.071
_refine_ls_restrained_S_all      1.071
_refine_ls_shift/su_max          0.001
_refine_ls_shift/su_mean         0.000

loop_
_atom_site_label
_atom_site_type_symbol
_atom_site_fract_x
_atom_site_fract_y
_atom_site_fract_z
_atom_site_U_iso_or_equiv
_atom_site_adp_type
_atom_site_occupancy
_atom_site_symmetry_multiplicity
_atom_site_calc_flag
_atom_site_refinement_flags
_atom_site_disorder_assembly
_atom_site_disorder_group
Cu1 Cu 0.320807(12) 0.209472(12) 1.07174(4) 0.02831(13) Uani 1 1 d . . .
N1 N 0.33525(8) 0.24020(8) 0.8145(3) 0.0290(4) Uani 1 1 d . . .
O1 O 0.37203(7) 0.17849(7) 1.0420(2) 0.0306(4) Uani 1 1 d . . .
O2 O 0.26646(9) 0.23669(9) 1.0800(2) 0.0435(5) Uani 1 1 d . . .
O3 O 0.22904(9) 0.27919(10) 0.9131(3) 0.0487(5) Uani 1 1 d . . .
C1 C 0.41110(10) 0.22118(10) 0.7342(4) 0.0317(5) Uani 1 1 d . . .
C2 C 0.41206(10) 0.19353(10) 0.9065(3) 0.0311(5) Uani 1 1 d . . .
C3 C 0.45673(12) 0.18167(13) 0.9290(4) 0.0465(7) Uani 1 1 d . . .
H3 H 0.4597 0.1654 1.0429 0.056 Uiso 1 1 calc R . .
C4 C 0.49632(14) 0.19370(15) 0.7855(5) 0.0596(9) Uani 1 1 d . . .
H4 H 0.5254 0.1854 0.8044 0.072 Uiso 1 1 calc R . .
C5 C 0.49348(15) 0.21808(15) 0.6132(5) 0.0604(9) Uani 1 1 d . . .
H5 H 0.5196 0.2248 0.5156 0.073 Uiso 1 1 calc R . .
C6 C 0.45171(13) 0.23190(12) 0.5896(4) 0.0452(6) Uani 1 1 d . . .
H6 H 0.4500 0.2488 0.4755 0.054 Uiso 1 1 calc R . .
C7 C 0.37135(11) 0.24098(10) 0.6959(3) 0.0311(5) Uani 1 1 d . . .
H7 H 0.3722 0.2555 0.5742 0.037 Uiso 1 1 calc R . .
C8 C 0.29851(12) 0.26304(12) 0.7599(3) 0.0368(6) Uani 1 1 d . . .
H8A H 0.2745 0.2414 0.6528 0.044 Uiso 1 1 calc R . .
H8B H 0.3218 0.3025 0.7196 0.044 Uiso 1 1 calc R . .
C9 C 0.26138(11) 0.25966(11) 0.9279(3) 0.0339(5) Uani 1 1 d . . .

loop_
_atom_site_aniso_label
_atom_site_aniso_U_11
_atom_site_aniso_U_22
_atom_site_aniso_U_33
_atom_site_aniso_U_23
_atom_site_aniso_U_13
_atom_site_aniso_U_12
Cu1 0.0412(2) 0.03091(19) 0.02219(19) 0.00170(10) -0.00042(10) 0.02511(14)
N1 0.0376(11) 0.0292(10) 0.0238(9) 0.0004(7) -0.0019(8) 0.0194(9)
O1 0.0387(9) 0.0298(8) 0.0304(8) 0.0058(6) 0.0042(7) 0.0224(7)
O2 0.0645(12) 0.0614(12) 0.0290(9) 0.0112(8) 0.0080(8) 0.0496(11)
O3 0.0616(13) 0.0723(14) 0.0384(10) 0.0159(9) 0.0090(9) 0.0530(12)
C1 0.0339(12) 0.0247(11) 0.0335(12) 0.0014(9) 0.0033(10) 0.0124(10)
C2 0.0326(12) 0.0231(11) 0.0367(12) 0.0010(9) 0.0013(10) 0.0132(10)
C3 0.0418(15) 0.0479(16) 0.0567(17) 0.0175(13) 0.0093(12) 0.0275(13)
C4 0.0478(17) 0.064(2) 0.080(2) 0.0243(17) 0.0207(16) 0.0384(16)
C5 0.0530(18) 0.066(2) 0.072(2) 0.0229(17) 0.0308(16) 0.0373(17)
C6 0.0491(16) 0.0427(15) 0.0464(15) 0.0114(12) 0.0137(13) 0.0249(13)
C7 0.0391(13) 0.0291(12) 0.0243(11) 0.0018(9) -0.0019(10) 0.0163(10)
C8 0.0486(15) 0.0490(15) 0.0253(11) 0.0038(10) -0.0021(10) 0.0338(13)
C9 0.0448(14) 0.0373(13) 0.0288(12) 0.0023(10) -0.0006(10) 0.0274(12)

_geom_special_details            
;
All esds (except the esd in the dihedral angle between two l.s. planes)
are estimated using the full covariance matrix. The cell esds are taken
into account individually in the estimation of esds in distances, angles
and torsion angles; correlations between esds in cell parameters are only
used when they are defined by crystal symmetry. An approximate (isotropic)
treatment of cell esds is used for estimating esds involving l.s. planes.
;

loop_
_geom_bond_atom_site_label_1
_geom_bond_atom_site_label_2
_geom_bond_distance
_geom_bond_site_symmetry_2
_geom_bond_publ_flag
Cu1 N1 1.9321(19) . ?
Cu1 O2 1.9444(18) . ?
Cu1 O1 1.9541(16) . ?
Cu1 O1 1.9946(15) 13_557 ?
Cu1 O3 2.2599(18) 5 ?
Cu1 Cu1 3.0210(5) 13_557 ?
N1 C7 1.271(3) . ?
N1 C8 1.457(3) . ?
O1 C2 1.337(3) . ?
O1 Cu1 1.9946(15) 13_557 ?
O2 C9 1.270(3) . ?
O3 C9 1.230(3) . ?
O3 Cu1 2.2598(18) 9_554 ?
C1 C6 1.409(4) . ?
C1 C2 1.422(3) . ?
C1 C7 1.444(3) . ?
C2 C3 1.404(4) . ?
C3 C4 1.379(4) . ?
C3 H3 0.9300 . ?
C4 C5 1.391(5) . ?
C4 H4 0.9300 . ?
C5 C6 1.364(4) . ?
C5 H5 0.9300 . ?
C6 H6 0.9300 . ?
C7 H7 0.9300 . ?
C8 C9 1.515(4) . ?
C8 H8A 0.9700 . ?
C8 H8B 0.9700 . ?

loop_
_geom_angle_atom_site_label_1
_geom_angle_atom_site_label_2
_geom_angle_atom_site_label_3
_geom_angle
_geom_angle_site_symmetry_1
_geom_angle_site_symmetry_3
_geom_angle_publ_flag
N1 Cu1 O2 83.89(8) . . ?
N1 Cu1 O1 92.95(7) . . ?
O2 Cu1 O1 174.81(8) . . ?
N1 Cu1 O1 161.99(7) . 13_557 ?
O2 Cu1 O1 101.64(7) . 13_557 ?
O1 Cu1 O1 80.18(7) . 13_557 ?
N1 Cu1 O3 102.74(8) . 5 ?
O2 Cu1 O3 94.05(8) . 5 ?
O1 Cu1 O3 90.66(8) . 5 ?
O1 Cu1 O3 94.02(7) 13_557 5 ?
N1 Cu1 Cu1 131.39(6) . 13_557 ?
O2 Cu1 Cu1 141.02(6) . 13_557 ?
O1 Cu1 Cu1 40.58(5) . 13_557 ?
O1 Cu1 Cu1 39.59(4) 13_557 13_557 ?
O3 Cu1 Cu1 93.08(5) 5 13_557 ?
C7 N1 C8 120.2(2) . . ?
C7 N1 Cu1 126.84(16) . . ?
C8 N1 Cu1 112.98(15) . . ?
C2 O1 Cu1 125.70(14) . . ?
C2 O1 Cu1 134.48(14) . 13_557 ?
Cu1 O1 Cu1 99.82(7) . 13_557 ?
C9 O2 Cu1 116.53(16) . . ?
C9 O3 Cu1 138.42(18) . 9_554 ?
C6 C1 C2 119.7(2) . . ?
C6 C1 C7 116.0(2) . . ?
C2 C1 C7 124.3(2) . . ?
O1 C2 C3 120.6(2) . . ?
O1 C2 C1 122.1(2) . . ?
C3 C2 C1 117.3(2) . . ?
C4 C3 C2 121.3(3) . . ?
C4 C3 H3 119.4 . . ?
C2 C3 H3 119.4 . . ?
C3 C4 C5 121.2(3) . . ?
C3 C4 H4 119.4 . . ?
C5 C4 H4 119.4 . . ?
C6 C5 C4 118.9(3) . . ?
C6 C5 H5 120.6 . . ?
C4 C5 H5 120.6 . . ?
C5 C6 C1 121.6(3) . . ?
C5 C6 H6 119.2 . . ?
C1 C6 H6 119.2 . . ?
N1 C7 C1 125.5(2) . . ?
N1 C7 H7 117.3 . . ?
C1 C7 H7 117.3 . . ?
N1 C8 C9 110.08(19) . . ?
N1 C8 H8A 109.6 . . ?
C9 C8 H8A 109.6 . . ?
N1 C8 H8B 109.6 . . ?
C9 C8 H8B 109.6 . . ?
H8A C8 H8B 108.2 . . ?
O3 C9 O2 123.6(2) . . ?
O3 C9 C8 120.0(2) . . ?
O2 C9 C8 116.4(2) . . ?

_diffrn_measured_fraction_theta_max 0.962
_diffrn_reflns_theta_full        25.00
_diffrn_measured_fraction_theta_full 0.962
_refine_diff_density_max         1.166
_refine_diff_density_min         -0.245
_refine_diff_density_rms         0.060


