
#######################################################################
#
#                 Cambridge Crystallographic Data Centre
#                                CCDC
#
#######################################################################
#
# If this CIF has been generated from an entry in the Cambridge
# Structural Database, then it will include bibliographic, chemical,
# crystal, experimental, refinement or atomic coordinate data resulting
# from the CCDC's data processing and validation procedures.
#
#######################################################################

data_CSD_CIF_KEYQAH
_audit_creation_date 2007-06-28
_audit_creation_method CSD-ConQuest-V1
_database_code_CSD KEYQAH
_database_code_depnum_ccdc_archive 'CCDC 622496'
_chemical_formula_sum 'C36 H44 F2 N2 Th1'
_chemical_formula_moiety
;
C36 H44 F2 N2 Th1
;
_journal_coden_Cambridge 182
_journal_year 2007
_journal_page_first 1029
_journal_name_full 'Chem.Commun. '
loop_
_publ_author_name
"E.J.Schelter"
"D.E.Morris"
"B.L.Scott"
"J.L.Kiplinger"
_chemical_name_systematic
;
bis(1-(4-Fluorophenyl)ethylideneamido)-bis(\h^5^-pentamethylcyclopentadienyl)-
thorium(iv)
;
_chemical_name_common
;
bis(eta$5!-pentamethylcyclopentadienyl)-bis(1-(4-fluorophenyl)ethylideneamido)
-thorium(iv); Teaching Subset: Fundamental Chemistry
;
_cell_volume   3257.639
_exptl_crystal_colour 'yellow'
_exptl_crystal_density_diffrn 1.58
_exptl_special_details
;
luminescent

;
_exptl_crystal_description 'irregular'
_exptl_crystal_preparation 'pentane'
_diffrn_ambient_temperature 141
#These two values have been output from a single CSD field.
_refine_ls_R_factor_gt 0.018
_refine_ls_wR_factor_gt 0.018
_symmetry_cell_setting monoclinic
_symmetry_space_group_name_H-M 'C 2/c'
_symmetry_Int_Tables_number 15
loop_
_symmetry_equiv_pos_site_id
_symmetry_equiv_pos_as_xyz
1 x,y,z
2 1/2+x,1/2+y,z
3 -x,y,1/2-z
4 1/2-x,1/2+y,1/2-z
5 -x,-y,-z
6 -1/2-x,-1/2-y,-z
7 x,-y,-1/2+z
8 -1/2+x,-1/2-y,-1/2+z
_cell_length_a 12.9201(6)
_cell_length_b 14.0054(7)
_cell_length_c 18.2113(9)
_cell_angle_alpha 90
_cell_angle_beta 98.677(1)
_cell_angle_gamma 90
_cell_formula_units_Z 4
loop_
_atom_type_symbol
_atom_type_radius_bond
C 0.68
H 0.23
F 0.64
N 0.68
Th 1.79
loop_
_atom_site_label
_atom_site_type_symbol
_atom_site_fract_x
_atom_site_fract_y
_atom_site_fract_z
Th1 Th 1.00000 0.149635(6) 0.75000
F1 F 1.03588(16) 0.68662(14) 0.58593(11)
N1 N 1.05928(14) 0.24331(15) 0.66498(10)
C1 C 0.78073(19) 0.14010(14) 0.70940(14)
C2 C 0.81301(17) 0.04470(16) 0.72402(13)
C3 C 0.87031(17) 0.01501(16) 0.66719(13)
C4 C 0.87321(17) 0.09282(17) 0.61754(13)
C5 C 0.81827(18) 0.17044(16) 0.64393(13)
C6 C 0.70996(18) 0.19742(17) 0.75136(13)
H1 H 0.63920 0.19310 0.72640
H2 H 0.73180 0.26300 0.75360
H3 H 0.71380 0.17260 0.80080
C7 C 0.7841(2) -0.01640(18) 0.78571(16)
H4 H 0.78290 0.02210 0.82920
H5 H 0.83480 -0.06650 0.79670
H6 H 0.71610 -0.04380 0.77060
C8 C 0.9112(2) -0.08411(18) 0.65540(17)
H7 H 0.86210 -0.11740 0.61950
H8 H 0.92010 -0.11840 0.70160
H9 H 0.97730 -0.07950 0.63770
C9 C 0.9177(2) 0.0899(2) 0.54581(14)
H10 H 0.98170 0.05400 0.55280
H11 H 0.93150 0.15380 0.53080
H12 H 0.86830 0.06010 0.50810
C10 C 0.79675(18) 0.26572(16) 0.60627(13)
H13 H 0.73160 0.26290 0.57310
H14 H 0.85220 0.28090 0.57860
H15 H 0.79270 0.31410 0.64310
C11 C 1.09502(17) 0.28961(19) 0.61505(13)
C12 C 1.1537(2) 0.2400(2) 0.55952(14)
H16 H 1.15600 0.17260 0.56910
H17 H 1.22380 0.26460 0.56430
H18 H 1.11840 0.25150 0.51010
C13 C 1.08206(18) 0.3959(2) 0.60676(13)
C14 C 1.01626(19) 0.44392(19) 0.64862(13)
H19 H 0.98240 0.40950 0.68160
C15 C 1.0004(2) 0.54123(19) 0.64207(15)
H20 H 0.95620 0.57250 0.67000
C16 C 1.0519(2) 0.5910(2) 0.59301(17)
C17 C 1.1182(2) 0.5476(2) 0.55092(15)
H21 H 1.15230 0.58290 0.51850
C18 C 1.1329(2) 0.4504(2) 0.55789(14)
H22 H 1.17750 0.42010 0.52970
F1B F 0.96412(16) 0.68662(14) 0.91407(11)
N1B N 0.94072(14) 0.24331(15) 0.83502(10)
C1B C 1.21927(19) 0.14010(14) 0.79060(14)
C2B C 1.18699(17) 0.04470(16) 0.77598(13)
C3B C 1.12969(17) 0.01501(16) 0.83281(13)
C4B C 1.12679(17) 0.09282(17) 0.88246(13)
C5B C 1.18173(18) 0.17044(16) 0.85607(13)
C6B C 1.29004(18) 0.19742(17) 0.74864(13)
H1B H 1.36080 0.19310 0.77360
H2B H 1.26820 0.26300 0.74640
H3B H 1.28620 0.17260 0.69920
C7B C 1.2159(2) -0.01640(18) 0.71429(16)
H4B H 1.21710 0.02210 0.67080
H5B H 1.16520 -0.06650 0.70330
H6B H 1.28390 -0.04380 0.72940
C8B C 1.0888(2) -0.08411(18) 0.84460(17)
H7B H 1.13790 -0.11740 0.88050
H8B H 1.07990 -0.11840 0.79840
H9B H 1.02270 -0.07950 0.86230
C9B C 1.0823(2) 0.0899(2) 0.95419(14)
H10B H 1.01830 0.05400 0.94720
H11B H 1.06850 0.15380 0.96920
H12B H 1.13170 0.06010 0.99190
C10B C 1.20325(18) 0.26572(16) 0.89373(13)
H13B H 1.26840 0.26290 0.92690
H14B H 1.14780 0.28090 0.92140
H15B H 1.20730 0.31410 0.85690
C11B C 0.90498(17) 0.28961(19) 0.88495(13)
C12B C 0.8463(2) 0.2400(2) 0.94048(14)
H16B H 0.84400 0.17260 0.93090
H17B H 0.77620 0.26460 0.93570
H18B H 0.88160 0.25150 0.98990
C13B C 0.91794(18) 0.3959(2) 0.89324(13)
C14B C 0.98374(19) 0.44392(19) 0.85138(13)
H19B H 1.01760 0.40950 0.81840
C15B C 0.9996(2) 0.54123(19) 0.85793(15)
H20B H 1.04380 0.57250 0.83000
C16B C 0.9481(2) 0.5910(2) 0.90699(17)
C17B C 0.8818(2) 0.5476(2) 0.94908(15)
H21B H 0.84770 0.58290 0.98150
C18B C 0.8671(2) 0.4504(2) 0.94211(14)
H22B H 0.82250 0.42010 0.97030
#END
