
#######################################################################
#
#                 Cambridge Crystallographic Data Centre
#                                CCDC
#
#######################################################################
#
# If this CIF has been generated from an entry in the Cambridge
# Structural Database, then it will include bibliographic, chemical,
# crystal, experimental, refinement or atomic coordinate data resulting
# from the CCDC's data processing and validation procedures.
#
#######################################################################

data_CSD_CIF_KEYZUK
_audit_creation_date 2007-06-28
_audit_creation_method CSD-ConQuest-V1
_database_code_CSD KEYZUK
_database_code_depnum_ccdc_archive 'CCDC 601770'
_chemical_formula_sum 'C32 H40 Cl4 Hg1 N6 O2 S2'
_chemical_formula_moiety
;
2(C16 H18 N3 S1 1+),Cl4 Hg1 2-,2(H2 O1)
;
_journal_coden_Cambridge 155
_journal_volume 360
_journal_year 2007
_journal_page_first 1799
_journal_name_full 'Inorg.Chim.Acta '
loop_
_publ_author_name
"M.M.Raj"
"A.Dharmaraja"
"S.J.Kavitha"
"K.Panchanatheswaran"
"D.E.Lynch"
_chemical_name_systematic
;
bis(3,7-bis(Dimethylamino)phenothiazin-5-ium) tetrachloro-mercurate(ii) 
dihydrate
;
_chemical_name_common
;
Teaching Subset: Fundamental Chemistry
;
_chemical_melting_point 593.15
_cell_volume   1770.823
_exptl_crystal_colour 'red'
_exptl_crystal_density_diffrn 1.776
_exptl_special_details
;
Melts above 593.15K

;
_exptl_crystal_description 'Plate'
_diffrn_ambient_temperature 120
#These two values have been output from a single CSD field.
_refine_ls_R_factor_gt 0.0294
_refine_ls_wR_factor_gt 0.0294
_symmetry_cell_setting monoclinic
_symmetry_space_group_name_H-M 'P 2/n'
_symmetry_Int_Tables_number 13
loop_
_symmetry_equiv_pos_site_id
_symmetry_equiv_pos_as_xyz
1 x,y,z
2 1/2-x,y,1/2-z
3 -x,-y,-z
4 -1/2+x,-y,-1/2+z
_cell_length_a 11.6935(4)
_cell_length_b 11.5109(6)
_cell_length_c 13.4190(6)
_cell_angle_alpha 90
_cell_angle_beta 101.364(3)
_cell_angle_gamma 90
_cell_formula_units_Z 2
loop_
_atom_type_symbol
_atom_type_radius_bond
C 0.68
H 0.23
Cl 0.99
Hg 1.70
N 0.68
O 0.68
S 1.02
loop_
_atom_site_label
_atom_site_type_symbol
_atom_site_fract_x
_atom_site_fract_y
_atom_site_fract_z
S1 S 0.43234(8) 0.19262(8) 0.61685(8)
N1 N 0.7718(3) 0.4617(3) 0.6155(2)
N2 N 0.1822(3) -0.1632(3) 0.6236(2)
N3 N 0.6288(3) 0.0044(3) 0.6305(2)
C1 C 0.7773(3) 0.1444(3) 0.6276(3)
H1 H 0.83220 0.08290 0.63120
C2 C 0.8152(3) 0.2545(4) 0.6249(3)
H2 H 0.89580 0.26880 0.62750
C3 C 0.7357(3) 0.3512(3) 0.6181(3)
C4 C 0.6176(3) 0.3254(3) 0.6160(3)
H3 H 0.56310 0.38720 0.61210
C5 C 0.3100(3) 0.0001(3) 0.6229(3)
H4 H 0.24620 0.05200 0.61940
C6 C 0.2909(3) -0.1212(3) 0.6268(3)
C7 C 0.3897(3) -0.1964(3) 0.6351(3)
H5 H 0.37970 -0.27810 0.63910
C8 C 0.4978(4) -0.1520(3) 0.6372(3)
H6 H 0.56180 -0.20400 0.64320
C9 C 0.6573(3) 0.1159(3) 0.6253(3)
C10 C 0.5793(3) 0.2128(3) 0.6195(3)
C11 C 0.4200(3) 0.0438(3) 0.6240(3)
C12 C 0.5191(3) -0.0310(3) 0.6308(3)
C13 C 0.8885(4) 0.4949(4) 0.6037(4)
H7 H 0.92640 0.53970 0.66320
H8 H 0.88330 0.54230 0.54240
H9 H 0.93440 0.42490 0.59770
C14 C 0.6895(4) 0.5580(4) 0.6124(3)
H10 H 0.63780 0.56060 0.54550
H11 H 0.73270 0.63130 0.62470
H12 H 0.64310 0.54670 0.66490
C15 C 0.0825(3) -0.0843(4) 0.6112(3)
H13 H 0.09730 -0.02410 0.66380
H14 H 0.01230 -0.12800 0.61760
H15 H 0.07080 -0.04790 0.54400
C16 C 0.1532(4) -0.2866(4) 0.6200(3)
H16 H 0.21700 -0.33110 0.60100
H17 H 0.08140 -0.29950 0.56970
H18 H 0.14160 -0.31190 0.68710
Hg1 Hg 0.25000 0.370138(19) 0.75000
Cl1 Cl 0.37818(9) 0.49299(9) 0.66561(8)
Cl2 Cl 0.12668(8) 0.25396(9) 0.61169(8)
O1 O 0.8119(3) -0.1738(3) 0.6153(3)
H19 H 0.758(3) -0.123(4) 0.622(3)
H20 H 0.803(4) -0.186(5) 0.5492(8)
Cl1A Cl 0.12182(9) 0.49299(9) 0.83439(8)
Cl2A Cl 0.37332(8) 0.25396(9) 0.88831(8)
#END
