####################################################################### 
# 
# This file contains crystal structure data downloaded from the 
# Cambridge Structural Database (CSD) hosted by the Cambridge 
# Crystallographic Data Centre (CCDC).
# 
# Full information about CCDC data access policies and citation 
# guidelines are available at http://www.ccdc.cam.ac.uk/access/V1 
# 
# Audit and citation data items may have been added by the CCDC. 
# Please retain this information to preserve the provenance of 
# this file and to allow appropriate attribution of the data. 
# 
#######################################################################

data_3
_audit_block_doi                 10.5517/ccyrrbr
_database_code_depnum_ccdc_archive 'CCDC 886765'
loop_
_citation_id
_citation_doi
_citation_year
1 10.1021/ic202594s 2012
_audit_update_record             
;
2012-06-19 deposited with the CCDC.	2024-07-10 downloaded from the CCDC.
;

_audit_creation_method           SHELXL-97
_chemical_name_systematic        
;
?
;
_chemical_name_common            ?
_chemical_melting_point          ?
_chemical_formula_moiety         'C84 H44 Cd4 Co2 N12 O37, 28(O)'
_chemical_formula_sum            'C84 H44 Cd4 Co2 N12 O65'
_chemical_formula_weight         2828.77

loop_
_atom_type_symbol
_atom_type_description
_atom_type_scat_dispersion_real
_atom_type_scat_dispersion_imag
_atom_type_scat_source
C C 0.0033 0.0016 'International Tables Vol C Tables 4.2.6.8 and 6.1.1.4'
H H 0.0000 0.0000 'International Tables Vol C Tables 4.2.6.8 and 6.1.1.4'
N N 0.0061 0.0033 'International Tables Vol C Tables 4.2.6.8 and 6.1.1.4'
O O 0.0106 0.0060 'International Tables Vol C Tables 4.2.6.8 and 6.1.1.4'
Co Co 0.3494 0.9721 'International Tables Vol C Tables 4.2.6.8 and 6.1.1.4'
Cd Cd -0.8075 1.2024 'International Tables Vol C Tables 4.2.6.8 and 6.1.1.4'

_symmetry_cell_setting           orthorhombic
_symmetry_space_group_name_H-M   'P n m a'
_symmetry_space_group_name_Hall  '-P 2ac 2n'

loop_
_symmetry_equiv_pos_as_xyz
'x, y, z'
'-x+1/2, -y, z+1/2'
'x+1/2, -y+1/2, -z+1/2'
'-x, y+1/2, -z'
'-x, -y, -z'
'x-1/2, y, -z-1/2'
'-x-1/2, y-1/2, z-1/2'
'x, -y-1/2, z'

_cell_length_a                   19.018(5)
_cell_length_b                   29.527(5)
_cell_length_c                   23.963(5)
_cell_angle_alpha                90.000(5)
_cell_angle_beta                 90.000(5)
_cell_angle_gamma                90.000(5)
_cell_volume                     13456(5)
_cell_formula_units_Z            4
_cell_measurement_temperature    150(2)
_cell_measurement_reflns_used    ?
_cell_measurement_theta_min      ?
_cell_measurement_theta_max      ?

_exptl_crystal_description       block
_exptl_crystal_colour            brown
_exptl_crystal_size_max          0.30
_exptl_crystal_size_mid          0.20
_exptl_crystal_size_min          0.10
_exptl_crystal_density_meas      ?
_exptl_crystal_density_diffrn    1.396
_exptl_crystal_density_method    'not measured'
_exptl_crystal_F_000             5592
_exptl_absorpt_coefficient_mu    0.954
_exptl_absorpt_correction_type   none
_exptl_absorpt_correction_T_min  ?
_exptl_absorpt_correction_T_max  ?
_exptl_absorpt_process_details   ?

_exptl_special_details           
;
?
;

_diffrn_ambient_temperature      150(2)
_diffrn_radiation_wavelength     0.71073
_diffrn_radiation_type           MoK\a
_diffrn_radiation_source         'fine-focus sealed tube'
_diffrn_radiation_monochromator  graphite
_diffrn_measurement_device_type  'Xcalibur, Sapphire3'
_diffrn_measurement_method       '\w scans'
_diffrn_detector_area_resol_mean ?
_diffrn_standards_number         ?
_diffrn_standards_interval_count ?
_diffrn_standards_interval_time  ?
_diffrn_standards_decay_%        ?
_diffrn_reflns_number            51010
_diffrn_reflns_av_R_equivalents  0.0208
_diffrn_reflns_av_sigmaI/netI    0.0191
_diffrn_reflns_limit_h_min       -22
_diffrn_reflns_limit_h_max       16
_diffrn_reflns_limit_k_min       -34
_diffrn_reflns_limit_k_max       35
_diffrn_reflns_limit_l_min       -28
_diffrn_reflns_limit_l_max       28
_diffrn_reflns_theta_min         3.06
_diffrn_reflns_theta_max         25.00
_reflns_number_total             11959
_reflns_number_gt                10195
_reflns_threshold_expression     >2sigma(I)

_computing_data_collection       'Xcalibur, Sapphire3'
_computing_cell_refinement       'X-calibur S SAINT'
_computing_data_reduction        'X-calibur S SAINT'
_computing_structure_solution    'SHELXS-97 (Sheldrick, 1990)'
_computing_structure_refinement  'SHELXL-97 (Sheldrick, 1997)'
_computing_molecular_graphics    'Oxford SHELXTL'
_computing_publication_material  'Oxford SHELXTL'

_refine_special_details          
;
Refinement of F^2^ against ALL reflections. The weighted R-factor wR and
goodness of fit S are based on F^2^, conventional R-factors R are based
on F, with F set to zero for negative F^2^. The threshold expression of
F^2^ > 2sigma(F^2^) is used only for calculating R-factors(gt) etc. and is
not relevant to the choice of reflections for refinement. R-factors based
on F^2^ are statistically about twice as large as those based on F, and R-
factors based on ALL data will be even larger.
;

_refine_ls_structure_factor_coef Fsqd
_refine_ls_matrix_type           full
_refine_ls_weighting_scheme      calc
_refine_ls_weighting_details     
'calc w=1/[\s^2^(Fo^2^)+(0.1201P)^2^+105.1525P] where P=(Fo^2^+2Fc^2^)/3'
_atom_sites_solution_primary     direct
_atom_sites_solution_secondary   difmap
_atom_sites_solution_hydrogens   geom
_refine_ls_hydrogen_treatment    constr
_refine_ls_extinction_method     none
_refine_ls_extinction_coef       ?
_refine_ls_number_reflns         11959
_refine_ls_number_parameters     758
_refine_ls_number_restraints     6
_refine_ls_R_factor_all          0.0918
_refine_ls_R_factor_gt           0.0791
_refine_ls_wR_factor_ref         0.2270
_refine_ls_wR_factor_gt          0.2109
_refine_ls_goodness_of_fit_ref   1.064
_refine_ls_restrained_S_all      1.063
_refine_ls_shift/su_max          0.001
_refine_ls_shift/su_mean         0.000

loop_
_atom_site_label
_atom_site_type_symbol
_atom_site_fract_x
_atom_site_fract_y
_atom_site_fract_z
_atom_site_U_iso_or_equiv
_atom_site_adp_type
_atom_site_occupancy
_atom_site_symmetry_multiplicity
_atom_site_calc_flag
_atom_site_refinement_flags
_atom_site_disorder_assembly
_atom_site_disorder_group
C1 C 1.1392(6) 1.1816(3) 0.5132(5) 0.065(3) Uani 1 1 d . . .
C2 C 1.1056(5) 1.1471(3) 0.5503(4) 0.054(2) Uani 1 1 d . . .
C3 C 1.0513(6) 1.1207(3) 0.5321(4) 0.062(3) Uani 1 1 d . . .
H3 H 1.0343 1.1240 0.4951 0.074 Uiso 1 1 calc R . .
C4 C 1.0201(5) 1.0884(3) 0.5682(3) 0.051(2) Uani 1 1 d . . .
H4 H 0.9828 1.0697 0.5555 0.062 Uiso 1 1 calc R . .
C5 C 1.0450(4) 1.0845(2) 0.6225(3) 0.0344(15) Uani 1 1 d . . .
C6 C 1.0983(4) 1.1113(3) 0.6400(4) 0.0454(18) Uani 1 1 d . . .
H6 H 1.1150 1.1086 0.6772 0.054 Uiso 1 1 calc R . .
C7 C 1.1290(4) 1.1429(3) 0.6042(4) 0.055(2) Uani 1 1 d . . .
H7 H 1.1662 1.1615 0.6172 0.066 Uiso 1 1 calc R . .
C8 C 0.9472(4) 1.0561(3) 0.6735(3) 0.0442(19) Uani 1 1 d . . .
C9 C 0.9228(3) 1.0171(3) 0.7086(3) 0.0342(15) Uani 1 1 d . . .
C10 C 0.8561(4) 1.0094(3) 0.7293(3) 0.0430(18) Uani 1 1 d . . .
H10 H 0.8194 1.0304 0.7222 0.052 Uiso 1 1 calc R . .
C11 C 0.8428(4) 0.9710(2) 0.7602(3) 0.0384(16) Uani 1 1 d . . .
H11 H 0.7967 0.9651 0.7737 0.046 Uiso 1 1 calc R . .
C12 C 0.8976(4) 0.9406(2) 0.7717(3) 0.0370(15) Uani 1 1 d . . .
H12 H 0.8900 0.9145 0.7941 0.044 Uiso 1 1 calc R . .
C13 C 0.9624(3) 0.9497(2) 0.7496(3) 0.0289(13) Uani 1 1 d . . .
C14 C 1.0264(4) 0.9212(2) 0.7533(3) 0.0357(15) Uani 1 1 d . . .
C15 C 1.1428(3) 0.9114(2) 0.7244(3) 0.0278(13) Uani 1 1 d . . .
C16 C 1.1817(4) 0.9078(2) 0.7732(3) 0.0363(15) Uani 1 1 d . . .
H16 H 1.1691 0.9253 0.8049 0.044 Uiso 1 1 calc R . .
C17 C 1.2388(3) 0.8787(2) 0.7759(3) 0.0370(15) Uani 1 1 d . . .
H17 H 1.2647 0.8757 0.8097 0.044 Uiso 1 1 calc R . .
C18 C 1.2582(3) 0.8538(2) 0.7290(3) 0.0371(16) Uani 1 1 d . . .
C19 C 1.2223(4) 0.8598(3) 0.6800(3) 0.051(2) Uani 1 1 d . . .
H19 H 1.2374 0.8445 0.6472 0.062 Uiso 1 1 calc R . .
C20 C 1.1640(4) 0.8880(3) 0.6778(3) 0.0425(18) Uani 1 1 d . . .
H20 H 1.1385 0.8912 0.6438 0.051 Uiso 1 1 calc R . .
C21 C 1.3172(4) 0.8196(3) 0.7344(4) 0.0468(19) Uani 1 1 d . . .
C22 C 0.7538(4) 0.9192(2) 0.5690(3) 0.0368(15) Uani 1 1 d . . .
C23 C 0.8294(4) 0.9289(2) 0.5798(3) 0.0336(14) Uani 1 1 d . . .
C24 C 0.8727(4) 0.8995(2) 0.6103(3) 0.0332(14) Uani 1 1 d . . .
H24 H 0.8539 0.8719 0.6243 0.040 Uiso 1 1 calc R . .
C25 C 0.9423(3) 0.9100(2) 0.6204(3) 0.0326(14) Uani 1 1 d . . .
H25 H 0.9709 0.8898 0.6413 0.039 Uiso 1 1 calc R . .
C26 C 0.9708(4) 0.9500(2) 0.6000(3) 0.0323(14) Uani 1 1 d . . .
C27 C 0.9313(4) 0.9768(3) 0.5661(4) 0.054(2) Uani 1 1 d . . .
H27 H 0.9520 1.0024 0.5485 0.065 Uiso 1 1 calc R . .
C28 C 0.8607(4) 0.9670(3) 0.5568(4) 0.053(2) Uani 1 1 d . . .
H28 H 0.8334 0.9867 0.5343 0.063 Uiso 1 1 calc R . .
C29 C 1.0927(3) 0.9624(2) 0.5785(3) 0.0310(14) Uani 1 1 d . . .
C30 C 1.1565(3) 0.9869(2) 0.6000(3) 0.0309(14) Uani 1 1 d . . .
C31 C 1.2199(4) 0.9938(3) 0.5722(3) 0.0434(18) Uani 1 1 d . . .
H31 H 1.2288 0.9801 0.5371 0.052 Uiso 1 1 calc R . .
C32 C 1.2697(4) 1.0213(3) 0.5975(3) 0.049(2) Uani 1 1 d . . .
H32 H 1.3121 1.0281 0.5783 0.059 Uiso 1 1 calc R . .
C33 C 1.2585(3) 1.0392(3) 0.6506(3) 0.0404(17) Uani 1 1 d . . .
H33 H 1.2928 1.0577 0.6681 0.049 Uiso 1 1 calc R . .
C34 C 1.1954(3) 1.0290(2) 0.6769(3) 0.0292(13) Uani 1 1 d . . .
C35 C 0.3284(3) 0.9553(2) 0.2329(3) 0.0323(14) Uani 1 1 d . . .
C36 C 0.4262(3) 0.9571(2) 0.2949(3) 0.0311(14) Uani 1 1 d . . .
C37 C 0.4618(7) 0.9167(4) 0.2983(4) 0.074(3) Uani 1 1 d . . .
H37 H 0.4619 0.8968 0.2671 0.089 Uiso 1 1 calc R . .
C38 C 0.4978(8) 0.9045(4) 0.3465(4) 0.090(4) Uani 1 1 d . . .
H38 H 0.5208 0.8760 0.3484 0.109 Uiso 1 1 calc R . .
C39 C 0.5002(4) 0.9330(3) 0.3910(3) 0.0447(18) Uani 1 1 d . . .
C40 C 0.4655(5) 0.9743(3) 0.3880(3) 0.051(2) Uani 1 1 d . . .
H40 H 0.4668 0.9945 0.4189 0.061 Uiso 1 1 calc R . .
C41 C 0.4290(4) 0.9863(3) 0.3399(3) 0.0469(19) Uani 1 1 d . . .
H41 H 0.4057 1.0147 0.3380 0.056 Uiso 1 1 calc R . .
C42 C 0.5399(4) 0.9200(3) 0.4426(4) 0.050(2) Uani 1 1 d . . .
N1 N 1.0145(3) 1.05090(19) 0.6589(2) 0.0326(12) Uani 1 1 d . . .
N2 N 0.9734(3) 0.98704(17) 0.7189(2) 0.0246(10) Uani 1 1 d . . .
N3 N 1.0795(3) 0.93733(18) 0.7239(2) 0.0278(11) Uani 1 1 d . . .
N4 N 1.0404(3) 0.96435(19) 0.6155(2) 0.0294(11) Uani 1 1 d . . .
N5 N 1.1470(3) 1.00408(18) 0.6507(2) 0.0270(11) Uani 1 1 d . . .
N6 N 0.3925(3) 0.97082(18) 0.2448(2) 0.0270(11) Uani 1 1 d . . .
O1 O 0.9078(3) 1.0880(2) 0.6630(3) 0.074(2) Uani 1 1 d . . .
O2 O 1.0250(3) 0.8847(2) 0.7815(3) 0.071(2) Uani 1 1 d . . .
O1W O 1.2369(3) 1.20098(16) 0.3824(2) 0.0412(12) Uani 1 1 d . . .
O3 O 1.0924(3) 0.94426(19) 0.53165(19) 0.0421(12) Uani 1 1 d . . .
O2W O 1.3218(4) 1.2500 0.4804(3) 0.0438(17) Uani 1 2 d S . .
O4 O 0.2909(2) 0.93052(18) 0.2632(2) 0.0425(12) Uani 1 1 d . . .
O3W O 1.4822(5) 0.7500 0.6784(4) 0.061(2) Uani 1 2 d S . .
O5 O 1.1028(5) 1.1966(3) 0.4726(3) 0.089(3) Uani 1 1 d . . .
O4W O 1.4952(4) 0.8050(3) 0.7901(3) 0.073(2) Uani 1 1 d . . .
O6 O 1.1996(5) 1.1949(2) 0.5223(4) 0.092(3) Uani 1 1 d . . .
O5W O 1.4087(5) 0.7500 0.8681(4) 0.070(3) Uani 1 2 d S . .
O7 O 1.3321(3) 0.8039(2) 0.7808(3) 0.0646(18) Uani 1 1 d . . .
O6W O 0.5366(3) 0.9138(2) 0.5898(3) 0.0641(17) Uani 1 1 d . . .
O8 O 1.3497(5) 0.8078(4) 0.6922(3) 0.115(4) Uani 1 1 d U . .
O7W O 0.5986(3) 0.82074(16) 0.5605(2) 0.0399(11) Uani 1 1 d . . .
O9 O 0.7155(3) 0.94875(19) 0.5456(3) 0.0508(14) Uani 1 1 d . . .
O8W O 0.6951(4) 0.8649(3) 0.4573(3) 0.0697(18) Uani 1 1 d . . .
O10 O 0.7283(3) 0.88105(17) 0.5820(2) 0.0413(12) Uani 1 1 d . . .
O9W O 1.3914(11) 0.7500 0.6263(9) 0.150(7) Uani 1 2 d S . .
O11 O 0.5736(3) 0.9491(2) 0.4689(2) 0.0552(15) Uani 1 1 d . . .
O10W O 1.1813(5) 0.7500 0.7719(5) 0.079(3) Uani 1 2 d S . .
O12 O 0.5396(4) 0.8783(2) 0.4573(3) 0.0655(17) Uani 1 1 d . . .
O11W O 1.0945(3) 0.81270(19) 0.8258(2) 0.0517(14) Uani 1 1 d . . .
O12W O 1.2002(4) 0.82808(19) 0.4835(2) 0.0570(16) Uani 1 1 d . . .
O13W O 1.1169(11) 0.8528(5) 0.5301(7) 0.196(8) Uani 1 1 d . . .
O14W O 0.6896(4) 1.0421(2) 0.5399(3) 0.0682(18) Uani 1 1 d . . .
O15W O 0.6573(8) 0.8277(4) 0.3541(4) 0.128(4) Uani 1 1 d . . .
O16W O 0.4644(5) 0.7931(5) 0.5379(7) 0.158(6) Uani 1 1 d . . .
O17W O 0.4186(4) 0.9569(3) 0.5415(5) 0.101(3) Uani 1 1 d . . .
O18W O 0.3421(10) 0.8139(5) 0.3724(9) 0.282(15) Uani 1 1 d . . .
O19W O 0.1836(7) 0.8676(4) 0.2504(6) 0.147(5) Uani 1 1 d . . .
O20W O 0.4251(9) 0.8268(7) 0.4319(8) 0.194(7) Uiso 1 1 d . . .
O21W O 0.7855(15) 0.5978(6) 0.1295(5) 0.304(16) Uani 1 1 d . . .
O22W O 0.2812(16) 0.7500 0.3731(12) 0.222(11) Uiso 1 2 d S . .
O23W O 1.1200(15) 0.7500 0.6735(12) 0.210(11) Uiso 1 2 d S . .
O24W O 0.431(3) 0.7500 0.483(3) 0.47(4) Uani 1 2 d S . .
O25W O 0.723(4) 0.7500 0.389(2) 0.53(5) Uani 1 2 d S . .
Co1 Co 1.06068(4) 0.99539(3) 0.68547(3) 0.0226(2) Uani 1 1 d . . .
Cd1 Cd 1.20238(4) 1.2500 0.44957(4) 0.0444(2) Uani 1 2 d S . .
Cd2 Cd 1.41510(4) 0.7500 0.76043(5) 0.0500(3) Uani 1 2 d S . .
Cd3 Cd 0.62558(3) 0.893252(16) 0.52823(2) 0.03358(17) Uani 1 1 d . . .

loop_
_atom_site_aniso_label
_atom_site_aniso_U_11
_atom_site_aniso_U_22
_atom_site_aniso_U_33
_atom_site_aniso_U_23
_atom_site_aniso_U_13
_atom_site_aniso_U_12
C1 0.085(7) 0.035(4) 0.077(7) 0.010(4) 0.035(6) 0.028(5)
C2 0.057(5) 0.032(4) 0.072(6) 0.014(4) 0.023(5) 0.012(4)
C3 0.110(8) 0.038(4) 0.037(4) 0.007(3) 0.019(5) 0.008(5)
C4 0.087(6) 0.036(4) 0.032(4) 0.009(3) 0.007(4) -0.005(4)
C5 0.039(4) 0.028(3) 0.037(4) 0.009(3) 0.014(3) 0.010(3)
C6 0.043(4) 0.044(4) 0.048(4) 0.017(3) 0.004(4) 0.006(3)
C7 0.045(4) 0.044(5) 0.076(6) 0.015(4) 0.022(4) 0.001(4)
C8 0.034(4) 0.049(4) 0.050(4) 0.022(4) 0.012(3) 0.021(3)
C9 0.026(3) 0.045(4) 0.032(3) 0.011(3) 0.003(3) 0.007(3)
C10 0.022(3) 0.049(4) 0.058(5) 0.007(4) 0.006(3) 0.013(3)
C11 0.024(3) 0.034(4) 0.057(5) 0.000(3) 0.013(3) 0.001(3)
C12 0.028(3) 0.035(4) 0.048(4) 0.008(3) 0.009(3) -0.002(3)
C13 0.024(3) 0.029(3) 0.033(3) 0.004(3) 0.004(3) 0.001(3)
C14 0.028(3) 0.032(3) 0.048(4) 0.016(3) 0.009(3) 0.003(3)
C15 0.021(3) 0.026(3) 0.036(3) 0.012(3) -0.001(3) 0.005(2)
C16 0.037(4) 0.032(3) 0.040(4) -0.002(3) -0.002(3) 0.005(3)
C17 0.028(3) 0.040(4) 0.043(4) 0.005(3) -0.010(3) 0.007(3)
C18 0.025(3) 0.030(3) 0.056(4) 0.007(3) 0.009(3) 0.005(3)
C19 0.051(5) 0.056(5) 0.048(5) -0.007(4) 0.006(4) 0.023(4)
C20 0.040(4) 0.053(5) 0.035(4) 0.004(3) 0.002(3) 0.022(3)
C21 0.026(3) 0.037(4) 0.077(6) 0.003(4) -0.003(4) 0.007(3)
C22 0.040(4) 0.035(4) 0.035(3) 0.003(3) -0.012(3) 0.003(3)
C23 0.034(3) 0.032(3) 0.035(3) 0.005(3) -0.007(3) 0.001(3)
C24 0.035(4) 0.027(3) 0.038(4) 0.004(3) 0.000(3) 0.002(3)
C25 0.029(3) 0.032(3) 0.037(4) 0.004(3) -0.001(3) 0.005(3)
C26 0.033(3) 0.040(4) 0.024(3) 0.004(3) -0.001(3) -0.004(3)
C27 0.050(5) 0.051(5) 0.061(5) 0.032(4) -0.028(4) -0.017(4)
C28 0.049(5) 0.049(5) 0.060(5) 0.028(4) -0.026(4) -0.006(4)
C29 0.034(3) 0.036(4) 0.024(3) 0.007(3) 0.002(3) 0.003(3)
C30 0.029(3) 0.038(4) 0.026(3) 0.009(3) 0.004(3) 0.009(3)
C31 0.035(4) 0.067(5) 0.028(3) 0.009(3) 0.009(3) 0.008(4)
C32 0.024(3) 0.074(6) 0.049(4) 0.013(4) 0.012(3) -0.003(4)
C33 0.021(3) 0.056(5) 0.044(4) 0.013(3) 0.001(3) -0.005(3)
C34 0.021(3) 0.035(3) 0.032(3) 0.009(3) -0.002(3) 0.007(3)
C35 0.027(3) 0.034(3) 0.036(3) -0.008(3) 0.005(3) 0.004(3)
C36 0.030(3) 0.038(4) 0.026(3) 0.001(3) -0.003(3) 0.002(3)
C37 0.124(9) 0.064(6) 0.033(4) -0.004(4) -0.018(5) 0.046(6)
C38 0.142(11) 0.085(8) 0.044(5) -0.005(5) -0.015(6) 0.074(8)
C39 0.036(4) 0.060(5) 0.038(4) 0.009(4) -0.004(3) 0.002(3)
C40 0.065(5) 0.045(4) 0.044(4) -0.001(3) -0.024(4) -0.001(4)
C41 0.057(5) 0.049(4) 0.035(4) -0.003(3) -0.015(4) 0.008(4)
C42 0.030(4) 0.068(6) 0.051(5) 0.016(4) -0.005(3) 0.003(4)
N1 0.033(3) 0.036(3) 0.029(3) 0.011(2) 0.007(2) 0.005(2)
N2 0.022(2) 0.028(3) 0.024(2) 0.008(2) 0.002(2) 0.004(2)
N3 0.020(2) 0.032(3) 0.032(3) 0.008(2) 0.006(2) 0.006(2)
N4 0.028(3) 0.039(3) 0.021(2) 0.005(2) -0.001(2) -0.003(2)
N5 0.022(2) 0.031(3) 0.028(3) 0.008(2) 0.003(2) 0.006(2)
N6 0.023(2) 0.030(3) 0.027(3) -0.004(2) -0.003(2) 0.001(2)
O1 0.053(4) 0.076(4) 0.094(5) 0.059(4) 0.036(3) 0.040(3)
O2 0.037(3) 0.057(4) 0.118(6) 0.057(4) 0.033(3) 0.019(3)
O1W 0.051(3) 0.024(2) 0.049(3) 0.000(2) 0.004(2) 0.000(2)
O3 0.050(3) 0.049(3) 0.027(2) -0.001(2) 0.005(2) 0.002(2)
O2W 0.050(4) 0.035(4) 0.047(4) 0.000 0.006(3) 0.000
O4 0.030(2) 0.049(3) 0.048(3) 0.004(2) 0.009(2) -0.003(2)
O3W 0.062(5) 0.058(5) 0.064(5) 0.000 0.003(4) 0.000
O5 0.126(7) 0.056(4) 0.086(5) 0.032(4) 0.052(5) 0.019(5)
O4W 0.065(4) 0.069(4) 0.086(5) -0.019(4) 0.015(4) -0.024(3)
O6 0.083(5) 0.045(4) 0.147(8) 0.027(4) 0.065(5) -0.001(4)
O5W 0.067(6) 0.074(6) 0.068(6) 0.000 -0.008(5) 0.000
O7 0.056(4) 0.054(4) 0.084(5) 0.019(3) 0.010(3) 0.031(3)
O6W 0.059(4) 0.059(4) 0.074(4) -0.006(3) 0.016(3) 0.017(3)
O8 0.086(5) 0.185(10) 0.074(5) -0.020(6) 0.005(4) 0.098(7)
O7W 0.036(3) 0.030(2) 0.053(3) 0.002(2) 0.004(2) 0.002(2)
O9 0.040(3) 0.043(3) 0.069(4) 0.013(3) -0.024(3) 0.001(2)
O8W 0.068(4) 0.074(5) 0.067(4) -0.002(4) 0.018(3) 0.000(4)
O10 0.036(3) 0.035(3) 0.053(3) 0.008(2) -0.008(2) -0.002(2)
O9W 0.158(16) 0.108(12) 0.185(18) 0.000 0.018(14) 0.000
O11 0.035(3) 0.074(4) 0.056(3) 0.024(3) -0.011(3) -0.001(3)
O10W 0.059(6) 0.071(7) 0.108(9) 0.000 -0.005(6) 0.000
O12 0.074(4) 0.069(4) 0.054(4) 0.021(3) -0.017(3) 0.009(3)
O11W 0.062(4) 0.038(3) 0.056(3) 0.003(2) -0.023(3) -0.004(3)
O12W 0.084(4) 0.033(3) 0.055(3) 0.007(2) -0.006(3) -0.012(3)
O13W 0.28(2) 0.120(11) 0.189(15) -0.041(10) -0.104(14) 0.052(12)
O14W 0.064(4) 0.071(4) 0.069(4) -0.005(3) 0.017(3) 0.000(3)
O15W 0.221(13) 0.086(6) 0.079(6) -0.015(5) 0.000(7) -0.004(7)
O16W 0.064(6) 0.148(11) 0.261(16) 0.031(10) -0.049(8) -0.021(6)
O17W 0.048(4) 0.092(6) 0.164(9) -0.050(6) -0.001(5) 0.011(4)
O18W 0.30(2) 0.160(