####################################################################### 
# 
# This file contains crystal structure data downloaded from the 
# Cambridge Structural Database (CSD) hosted by the Cambridge 
# Crystallographic Data Centre (CCDC).
# 
# Full information about CCDC data access policies and citation 
# guidelines are available at http://www.ccdc.cam.ac.uk/access/V1 
# 
# Audit and citation data items may have been added by the CCDC. 
# Please retain this information to preserve the provenance of 
# this file and to allow appropriate attribution of the data. 
# 
#######################################################################

data_dpm10
_audit_block_doi                 10.5517/ccnkpmh
_database_code_depnum_ccdc_archive 'CCDC 612827'
loop_
_citation_id
_citation_doi
_citation_year
1 10.1016/j.molstruc.2006.09.030 2007
_audit_update_record             
;
2006-06-28 deposited with the CCDC.	2024-07-10 downloaded from the CCDC.
;

_audit_creation_method           SHELXL-97
_chemical_name_systematic        
;
?
;
_chemical_name_common            ?
_chemical_melting_point          ?
_chemical_formula_moiety         ?
_chemical_formula_sum            'C27 H28 Cu F3 N15 O5 S'
_chemical_formula_weight         795.24

loop_
_atom_type_symbol
_atom_type_description
_atom_type_scat_dispersion_real
_atom_type_scat_dispersion_imag
_atom_type_scat_source
Cu Cu 0.3201 1.2651 'International Tables Vol C Tables 4.2.6.8 and 6.1.1.4'
C C 0.0033 0.0016 'International Tables Vol C Tables 4.2.6.8 and 6.1.1.4'
N N 0.0061 0.0033 'International Tables Vol C Tables 4.2.6.8 and 6.1.1.4'
O O 0.0106 0.0060 'International Tables Vol C Tables 4.2.6.8 and 6.1.1.4'
H H 0.0000 0.0000 'International Tables Vol C Tables 4.2.6.8 and 6.1.1.4'
S S 0.1246 0.1234 'International Tables Vol C Tables 4.2.6.8 and 6.1.1.4'
F F 0.0171 0.0103 'International Tables Vol C Tables 4.2.6.8 and 6.1.1.4'

_symmetry_cell_setting           monoclinic
_symmetry_space_group_name_H-M   'P 21/c'

loop_
_symmetry_equiv_pos_as_xyz
'x, y, z'
'-x, y+1/2, -z+1/2'
'-x, -y, -z'
'x, -y-1/2, z-1/2'

_cell_length_a                   12.790(2)
_cell_length_b                   30.255(3)
_cell_length_c                   8.6440(10)
_cell_angle_alpha                90.00
_cell_angle_beta                 92.168(10)
_cell_angle_gamma                90.00
_cell_volume                     3342.5(7)
_cell_formula_units_Z            4
_cell_measurement_temperature    173(2)
_cell_measurement_reflns_used    256
_cell_measurement_theta_min      3.02
_cell_measurement_theta_max      23.2

_exptl_crystal_description       needle
_exptl_crystal_colour            green
_exptl_crystal_size_max          0.21
_exptl_crystal_size_mid          0.04
_exptl_crystal_size_min          0.04
_exptl_crystal_density_meas      ?
_exptl_crystal_density_diffrn    1.580
_exptl_crystal_density_method    'not measured'
_exptl_crystal_F_000             1628
_exptl_absorpt_coefficient_mu    0.796
_exptl_absorpt_correction_type   multi-scan
_exptl_absorpt_correction_T_min  0.8507
_exptl_absorpt_correction_T_max  0.9689
_exptl_absorpt_process_details   'SADABS (Sheldrick, 1996)'

_exptl_special_details           
;
A crystal was selected for
the X--ray measurements and mounted to the glass fiber using the oil drop
method (Kottke & Stalke, 1993) and data were collected at 193 K.
The intensity data were corrected for Lorentz and polarization effects and for
absorption.
The H atoms were introduced in calculated positions
and refined with fixed geometry with respect to their carrier atoms.
;

_diffrn_ambient_temperature      173(2)
_diffrn_radiation_wavelength     0.71073
_diffrn_radiation_type           MoK\a
_diffrn_radiation_source         'fine-focus sealed tube'
_diffrn_radiation_monochromator  graphite
_diffrn_measurement_device_type  kappaCCD
_diffrn_measurement_method       CCD
_diffrn_detector_area_resol_mean ?
_diffrn_standards_number         ?
_diffrn_standards_interval_count ?
_diffrn_standards_interval_time  ?
_diffrn_standards_decay_%        ?
_diffrn_reflns_number            21085
_diffrn_reflns_av_R_equivalents  0.0935
_diffrn_reflns_av_sigmaI/netI    0.1196
_diffrn_reflns_limit_h_min       -15
_diffrn_reflns_limit_h_max       15
_diffrn_reflns_limit_k_min       -33
_diffrn_reflns_limit_k_max       35
_diffrn_reflns_limit_l_min       -7
_diffrn_reflns_limit_l_max       10
_diffrn_reflns_theta_min         2.72
_diffrn_reflns_theta_max         25.03
_reflns_number_total             5810
_reflns_number_gt                3436
_reflns_threshold_expression     >2sigma(I)

_computing_data_collection       'COLLECT (Nonius, 2002)'
_computing_cell_refinement       'COLLECT (Nonius, 2002)'
_computing_data_reduction        'COLLECT (Nonius, 2002)'
_computing_structure_solution    'SHELXS97 (Sheldrick, 1990)'
_computing_structure_refinement  'SHELXL97 (Sheldrick, 1997)'
_computing_molecular_graphics    'SHELXTL (Sheldrick, 1990)'
_computing_publication_material  'SHELXTL (Sheldrick, 1990)'

_refine_special_details          
;
Refinement of F^2^ against ALL reflections. The weighted R-factor wR and
goodness of fit S are based on F^2^, conventional R-factors R are based
on F, with F set to zero for negative F^2^. The threshold expression of
F^2^ > 2sigma(F^2^) is used only for calculating R-factors(gt) etc. and is
not relevant to the choice of reflections for refinement. R-factors based
on F^2^ are statistically about twice as large as those based on F, and R-
factors based on ALL data will be even larger.
;

_refine_ls_structure_factor_coef Fsqd
_refine_ls_matrix_type           full
_refine_ls_weighting_scheme      calc
_refine_ls_weighting_details     
'calc w=1/[\s^2^(Fo^2^)+(0.0519P)^2^+1.0841P] where P=(Fo^2^+2Fc^2^)/3'
_atom_sites_solution_primary     direct
_atom_sites_solution_secondary   difmap
_atom_sites_solution_hydrogens   geom
_refine_ls_hydrogen_treatment    constr
_refine_ls_extinction_method     none
_refine_ls_extinction_coef       ?
_refine_ls_number_reflns         5810
_refine_ls_number_parameters     478
_refine_ls_number_restraints     1
_refine_ls_R_factor_all          0.1221
_refine_ls_R_factor_gt           0.0561
_refine_ls_wR_factor_ref         0.1282
_refine_ls_wR_factor_gt          0.1067
_refine_ls_goodness_of_fit_ref   1.007
_refine_ls_restrained_S_all      1.008
_refine_ls_shift/su_max          0.000
_refine_ls_shift/su_mean         0.000

loop_
_atom_site_label
_atom_site_type_symbol
_atom_site_fract_x
_atom_site_fract_y
_atom_site_fract_z
_atom_site_U_iso_or_equiv
_atom_site_adp_type
_atom_site_occupancy
_atom_site_symmetry_multiplicity
_atom_site_calc_flag
_atom_site_refinement_flags
_atom_site_disorder_assembly
_atom_site_disorder_group
Cu1 Cu 0.09538(4) 0.196250(17) 0.88028(6) 0.01976(18) Uani 1 1 d . . .
N11 N 0.1837(2) 0.24574(11) 0.8081(4) 0.0181(9) Uani 1 1 d . . .
C21 C 0.2729(3) 0.25572(15) 0.8941(5) 0.0218(11) Uani 1 1 d . . .
H21A H 0.2980 0.2349 0.9688 0.026 Uiso 1 1 calc R . .
C31 C 0.3273(3) 0.29383(14) 0.8778(5) 0.0231(11) Uani 1 1 d . . .
H31A H 0.3903 0.2996 0.9362 0.028 Uiso 1 1 calc R . .
C41 C 0.2857(3) 0.32408(15) 0.7706(6) 0.0274(12) Uani 1 1 d . . .
H41A H 0.3194 0.3519 0.7617 0.033 Uiso 1 1 calc R . .
N51 N 0.2019(3) 0.31609(11) 0.6805(4) 0.0242(9) Uani 1 1 d . . .
C61 C 0.1545(3) 0.27551(14) 0.6954(5) 0.0187(10) Uani 1 1 d . . .
N12 N 0.0250(2) 0.19491(11) 0.6578(4) 0.0180(8) Uani 1 1 d . . .
C22 C -0.0298(3) 0.15850(15) 0.6105(5) 0.0238(11) Uani 1 1 d . . .
H22A H -0.0254 0.1327 0.6729 0.029 Uiso 1 1 calc R . .
C32 C -0.0916(3) 0.15736(15) 0.4756(5) 0.0266(12) Uani 1 1 d . . .
H32A H -0.1283 0.1315 0.4428 0.032 Uiso 1 1 calc R . .
C42 C -0.0967(3) 0.19616(17) 0.3919(6) 0.0321(12) Uani 1 1 d . . .
H42A H -0.1415 0.1972 0.3018 0.039 Uiso 1 1 calc R . .
N52 N -0.0419(3) 0.23229(12) 0.4306(4) 0.0231(9) Uani 1 1 d . . .
C62 C 0.0210(3) 0.23034(14) 0.5616(5) 0.0169(10) Uani 1 1 d . . .
N17 N 0.0786(3) 0.26819(11) 0.5839(4) 0.0170(8) Uani 1 1 d . . .
N13 N 0.2103(3) 0.14476(11) 0.8374(4) 0.0206(9) Uani 1 1 d . . .
C23 C 0.2915(3) 0.15310(15) 0.7449(5) 0.0268(12) Uani 1 1 d . . .
H23A H 0.2936 0.1808 0.6933 0.032 Uiso 1 1 calc R . .
C33 C 0.3702(4) 0.12358(17) 0.7225(6) 0.0337(13) Uani 1 1 d G . .
H33A H 0.4228 0.1322 0.6523 0.040 Uiso 1 1 d G . .
C43 C 0.3643(4) 0.08402(16) 0.7994(6) 0.0365(14) Uani 1 1 d . . .
H43A H 0.4183 0.0629 0.7869 0.044 Uiso 1 1 calc R . .
N53 N 0.2858(3) 0.07383(12) 0.8914(5) 0.0309(10) Uani 1 1 d . . .
C63 C 0.2115(3) 0.10496(15) 0.9034(5) 0.0221(11) Uani 1 1 d . . .
N14 N 0.0048(2) 0.14857(11) 0.9642(4) 0.0201(9) Uani 1 1 d . . .
C24 C -0.0954(3) 0.16074(15) 0.9854(5) 0.0242(11) Uani 1 1 d . . .
H24A H -0.1188 0.1884 0.9452 0.029 Uiso 1 1 calc R . .
C34 C -0.1645(3) 0.13500(15) 1.0622(5) 0.0271(12) Uani 1 1 d . . .
H34A H -0.2352 0.1436 1.0742 0.033 Uiso 1 1 calc R . .
C44 C -0.1244(3) 0.09542(15) 1.1216(5) 0.0248(12) Uani 1 1 d . . .
H44A H -0.1688 0.0773 1.1804 0.030 Uiso 1 1 calc R . .
N54 N -0.0278(3) 0.08169(11) 1.1006(4) 0.0242(9) Uani 1 1 d . . .
C64 C 0.0339(3) 0.10842(14) 1.0170(5) 0.0186(11) Uani 1 1 d . . .
N27 N 0.1304(3) 0.09089(11) 0.9953(4) 0.0224(9) Uani 1 1 d . . .
H27A H 0.1439 0.0666 1.0481 0.027 Uiso 1 1 calc R . .
N15 N 0.0654(3) 0.06313(13) 0.6059(5) 0.0365(11) Uani 1 1 d . . .
C25 C 0.1430(4) 0.07143(18) 0.5085(6) 0.0424(15) Uani 1 1 d . . .
H25A H 0.1431 0.0991 0.4564 0.051 Uiso 1 1 calc R . .
C35 C 0.2207(4) 0.04237(17) 0.4812(6) 0.0389(14) Uani 1 1 d . . .
H35A H 0.2742 0.0491 0.4116 0.047 Uiso 1 1 calc R . .
C45 C 0.2185(4) 0.00254(17) 0.5592(6) 0.0371(14) Uani 1 1 d . . .
H45A H 0.2729 -0.0182 0.5442 0.045 Uiso 1 1 calc R . .
N55 N 0.1428(3) -0.00795(12) 0.6550(5) 0.0312(10) Uani 1 1 d . . .
C65 C 0.0686(3) 0.02355(16) 0.6692(6) 0.0263(12) Uani 1 1 d . . .
N16 N -0.1365(3) 0.06612(12) 0.7234(5) 0.0317(10) Uani 1 1 d . . .
C26 C -0.2360(4) 0.07822(16) 0.7465(6) 0.0360(13) Uani 1 1 d . . .
H26A H -0.2612 0.1045 0.6982 0.043 Uiso 1 1 calc R . .
C36 C -0.3031(4) 0.05486(16) 0.8354(6) 0.0360(14) Uani 1 1 d . . .
H36A H -0.3725 0.0646 0.8509 0.043 Uiso 1 1 calc R . .
C46 C -0.2646(4) 0.01652(15) 0.9009(6) 0.0308(12) Uani 1 1 d . . .
H46A H -0.3089 -0.0002 0.9643 0.037 Uiso 1 1 calc R . .
N56 N -0.1671(3) 0.00157(12) 0.8796(5) 0.0257(9) Uani 1 1 d . . .
C66 C -0.1087(3) 0.02721(15) 0.7895(6) 0.0247(11) Uani 1 1 d . . .
N37 N -0.0099(3) 0.01001(12) 0.7670(5) 0.0298(10) Uani 1 1 d . . .
H37A H 0.0061 -0.0133 0.8238 0.036 Uiso 1 1 calc R . .
C2 C 0.6127(5) 0.2011(2) 1.6894(8) 0.073(2) Uani 1 1 d . . .
H2A H 0.6162 0.1920 1.5798 0.088 Uiso 1 1 calc R . .
H2B H 0.6206 0.1743 1.7541 0.088 Uiso 1 1 calc R . .
C3 C 0.7000(4) 0.2313(2) 1.7271(8) 0.081(2) Uani 1 1 d . . .
H3A H 0.7663 0.2164 1.7073 0.121 Uiso 1 1 calc R . .
H3B H 0.6987 0.2396 1.8365 0.121 Uiso 1 1 calc R . .
H3C H 0.6933 0.2578 1.6626 0.121 Uiso 1 1 calc R . .
O2 O 0.5116(3) 0.22035(13) 1.7134(5) 0.0528(11) Uani 1 1 d GD . .
H2C H 0.5287 0.2216 1.8121 0.079 Uiso 1 1 d GD . .
O3 O 0.4773(3) 0.20727(13) 2.0234(4) 0.0545(12) Uani 1 1 d . . .
C1 C 0.5167(4) 0.0594(2) 1.2665(8) 0.0506(16) Uani 1 1 d . . .
F1 F 0.4188(3) 0.06454(12) 1.2075(5) 0.0793(12) Uani 1 1 d . . .
F2 F 0.5679(3) 0.03321(12) 1.1744(5) 0.0963(14) Uani 1 1 d . . .
F3 F 0.5085(3) 0.03748(12) 1.3987(5) 0.0872(13) Uani 1 1 d . . .
S1 S 0.57879(9) 0.11265(4) 1.29652(17) 0.0354(4) Uani 1 1 d . . .
O4 O 0.5098(3) 0.13485(13) 1.3980(5) 0.0579(11) Uani 1 1 d . . .
O5 O 0.5783(3) 0.13017(13) 1.1406(4) 0.0549(11) Uani 1 1 d . . .
O6 O 0.6809(2) 0.10217(13) 1.3610(4) 0.0535(11) Uani 1 1 d G . .
H3D H 0.5063 0.1889 2.0709 0.080 Uiso 1 1 d G . .
H3E H 0.4856 0.2242 2.0951 0.080 Uiso 1 1 d G . .

loop_
_atom_site_aniso_label
_atom_site_aniso_U_11
_atom_site_aniso_U_22
_atom_site_aniso_U_33
_atom_site_aniso_U_23
_atom_site_aniso_U_13
_atom_site_aniso_U_12
Cu1 0.0211(3) 0.0173(3) 0.0211(3) 0.0003(3) 0.0036(2) -0.0036(3)
N11 0.0197(19) 0.015(2) 0.019(2) 0.0008(17) 0.0028(17) -0.0015(17)
C21 0.019(2) 0.027(3) 0.019(3) -0.003(2) 0.002(2) 0.000(2)
C31 0.018(2) 0.026(3) 0.025(3) -0.005(2) -0.003(2) -0.003(2)
C41 0.025(3) 0.021(3) 0.036(3) -0.004(2) 0.006(2) -0.009(2)
N51 0.024(2) 0.017(2) 0.032(3) 0.0038(18) 0.0018(19) -0.0048(17)
C61 0.020(2) 0.020(3) 0.016(3) 0.000(2) 0.005(2) -0.002(2)
N12 0.0223(19) 0.0092(19) 0.023(2) -0.0024(18) 0.0072(17) -0.0024(17)
C22 0.025(2) 0.017(3) 0.030(3) 0.001(2) 0.005(2) -0.004(2)
C32 0.034(3) 0.024(3) 0.022(3) 0.000(2) -0.001(2) -0.015(2)
C42 0.027(3) 0.040(3) 0.029(3) -0.002(3) -0.003(2) -0.001(3)
N52 0.021(2) 0.027(2) 0.021(2) 0.0007(18) 0.0035(18) -0.0031(18)
C62 0.013(2) 0.016(3) 0.022(3) 0.000(2) 0.001(2) 0.006(2)
N17 0.0202(19) 0.014(2) 0.017(2) 0.0006(16) 0.0071(17) -0.0016(16)
N13 0.024(2) 0.018(2) 0.020(2) 0.0042(17) 0.0043(18) -0.0006(17)
C23 0.035(3) 0.023(3) 0.023(3) 0.000(2) 0.016(2) -0.004(2)
C33 0.030(3) 0.032(3) 0.041(4) 0.000(3) 0.016(3) -0.001(2)
C43 0.029(3) 0.030(3) 0.052(4) 0.001(3) 0.015(3) 0.004(2)
N53 0.024(2) 0.026(2) 0.044(3) 0.006(2) 0.012(2) 0.0045(19)
C63 0.022(2) 0.023(3) 0.022(3) -0.001(2) 0.003(2) -0.003(2)
N14 0.0179(19) 0.021(2) 0.022(2) -0.0021(18) 0.0064(17) 0.0011(17)
C24 0.027(3) 0.019(3) 0.026(3) 0.002(2) -0.003(2) -0.002(2)
C34 0.023(2) 0.026(3) 0.033(3) -0.005(2) 0.008(2) 0.003(2)
C44 0.023(3) 0.020(3) 0.032(3) -0.003(2) 0.010(2) -0.007(2)
N54 0.026(2) 0.019(2) 0.028(3) -0.0010(18) 0.0095(19) -0.0044(18)
C64 0.025(2) 0.012(3) 0.019(3) -0.005(2) 0.002(2) 0.001(2)
N27 0.024(2) 0.011(2) 0.032(3) 0.0051(18) 0.0084(19) 0.0040(17)
N15 0.038(2) 0.029(3) 0.044(3) 0.006(2) 0.017(2) -0.005(2)
C25 0.044(3) 0.039(3) 0.044(4) 0.007(3) 0.013(3) -0.010(3)
C35 0.037(3) 0.041(3) 0.040(4) -0.005(3) 0.017(3) -0.012(3)
C45 0.034(3) 0.039(3) 0.039(4) 0.001(3) 0.015(3) 0.000(3)
N55 0.027(2) 0.029(2) 0.039(3) 0.001(2) 0.010(2) -0.0005(19)
C65 0.026(3) 0.025(3) 0.028(3) -0.003(2) 0.005(2) -0.009(2)
N16 0.031(2) 0.023(2) 0.042(3) 0.005(2) 0.010(2) 0.0029(19)
C26 0.036(3) 0.025(3) 0.047(4) 0.008(3) -0.001(3) 0.006(2)
C36 0.026(3) 0.027(3) 0.055(4) 0.002(3) 0.006(3) 0.006(2)
C46 0.032(3) 0.018(3) 0.042(4) 0.001(2) 0.007(3) -0.006(2)
N56 0.022(2) 0.022(2) 0.033(3) 0.0007(19) 0.0060(19) -0.0026(18)
C66 0.026(3) 0.019(3) 0.029(3) -0.004(2) 0.002(2) -0.003(2)
N37 0.027(2) 0.024(2) 0.039(3) 0.009(2) 0.008(2) 0.0019(19)
C2 0.060(4) 0.066(5) 0.094(6) -0.025(4) 0.016(4) 0.003(4)
C3 0.045(4) 0.108(6) 0.088(6) -0.014(5) -0.005(4) 0.005(4)
O2 0.047(2) 0.053(2) 0.059(3) -0.003(2) 0.003(2) -0.002(2)
O3 0.056(3) 0.055(3) 0.051(3) 0.006(2) -0.008(2) 0.015(2)
C1 0.033(3) 0.060(4) 0.059(5) 0.002(4) 0.005(3) 0.002(3)
F1 0.060(2) 0.082(3) 0.094(3) -0.001(2) -0.017(2) -0.026(2)
F2 0.124(3) 0.054(2) 0.114(4) -0.028(2) 0.045(3) 0.005(2)
F3 0.077(3) 0.075(3) 0.110(4) 0.048(3) 0.016(2) -0.011(2)
S1 0.0240(7) 0.0352(8) 0.0474(10) 0.0015(7) 0.0074(7) 0.0054(6)
O4 0.051(2) 0.066(3) 0.058(3) -0.017(2) 0.015(2) 0.024(2)
O5 0.047(2) 0.065(3) 0.053(3) 0.026(2) 0.017(2) 0.016(2)
O6 0.0235(18) 0.069(3) 0.068(3) 0.007(2) -0.0028(19) 0.0051(18)

_geom_special_details            
;
All esds (except the esd in the dihedral angle between two l.s. planes)
are estimated using the full covariance matrix. The cell esds are taken
into account individually in the estimation of esds in distances, angles
and torsion angles; correlations between esds in cell parameters are only
used when they are defined by crystal symmetry. An approximate (isotropic)
treatment of cell esds is used for estimating esds involving l.s. planes.
;

loop_
_geom_bond_atom_site_label_1
_geom_bond_atom_site_label_2
_geom_bond_distance
_geom_bond_site_symmetry_2
_geom_bond_publ_flag
Cu1 N11 1.990(3) . ?
Cu1 N14 2.003(3) . ?
Cu1 N17 2.081(3) 4_566 ?
Cu1 N12 2.093(4) . ?
Cu1 N13 2.183(3) . ?
N11 C61 1.368(5) . ?
N11 C21 1.372(5) . ?
C21 C31 1.357(6) . ?
C21 H21A 0.9500 . ?
C31 C41 1.393(6) . ?
C31 H31A 0.9500 . ?
C41 N51 1.323(5) . ?
C41 H41A 0.9500 . ?
N51 C61 1.377(5) . ?
C61 N17 1.359(5) . ?
N12 C62 1.356(5) . ?
N12 C22 1.360(5) . ?
C22 C32 1.384(6) . ?
C22 H22A 0.9500 . ?
C32 C42 1.379(6) . ?
C32 H32A 0.9500 . ?
C42 N52 1.334(5) . ?
C42 H42A 0.9500 . ?
N52 C62 1.366(5) . ?
C62 N17 1.372(5) . ?
N17 Cu1 2.081(3) 4_565 ?
N13 C63 1.332(5) . ?
N13 C23 1.357(5) . ?
C23 C33 1.365(6) . ?
C23 H23A 0.9500 . ?
C33 C43 1.372(7) . ?
C33 H33A 0.9600 . ?
C43 N53 1.340(6) . ?
C43 H43A 0.9500 . ?
N53 C63 1.345(5) . ?
C63 N27 1.396(5) . ?
N14 C64 1.345(5) . ?
N14 C24 1.352(5) . ?
C24 C34 1.369(6) . ?
C24 H24A 0.9500 . ?
C34 C44 1.393(6) . ?
C34 H34A 0.9500 . ?
C44 N54 1.323(5) . ?
C44 H44A 0.9500 . ?
N54 C64 1.357(5) . ?
C64 N27 1.363(5) . ?
N27 H27A 0.8800 . ?
N15 C65 1.316(6) . ?
N15 C25 1.349(6) . ?
C25 C35 1.354(7) . ?
C25 H25A 0.9500 . ?
C35 C45 1.382(7) . ?
C35 H35A 0.9500 . ?
C45 N55 1.335(6) . ?
C45 H45A 0.9500 . ?
N55 C65 1.354(6) . ?
C65 N37 1.398(5) . ?
N16 C26 1.346(6) . ?
N16 C66 1.350(6) . ?
C26 C36 1.370(6) . ?
C26 H26A 0.9500 . ?
C36 C46 1.374(6) . ?
C36 H36A 0.9500 . ?
C46 N56 1.345(5) . ?
C46 H46A 0.9500 . ?
N56 C66 1.346(5) . ?
C66 N37 1.387(5) . ?
N37 H37A 0.8800 . ?
C2 O2 1.440(7) . ?
C2 C3 1.468(8) . ?
C2 H2A 0.9900 . ?
C2 H2B 0.9900 . ?
C3 H3A 0.9800 . ?
C3 H3B 0.9800 . ?
C3 H3C 0.9800 . ?
O2 H2C 0.8735 . ?
O3 H3D 0.7772 . ?
O3 H3E 0.8071 . ?
C1 F2 1.316(6) . ?
C1 F3 1.329(7) . ?
C1 F1 1.343(6) . ?
C1 S1 1.8