
#######################################################################
#
#                 Cambridge Crystallographic Data Centre
#                                CCDC
#
#######################################################################
#
# If this CIF has been generated from an entry in the Cambridge
# Structural Database, then it will include bibliographic, chemical,
# crystal, experimental, refinement or atomic coordinate data resulting
# from the CCDC's data processing and validation procedures.
#
#######################################################################

data_CSD_CIF_KIDWAW
_audit_creation_date 2007-06-28
_audit_creation_method CSD-ConQuest-V1
_database_code_CSD KIDWAW
_database_code_depnum_ccdc_archive 'CCDC 619587'
_chemical_formula_sum 'C32 H31 Br1 N2 O2'
_chemical_formula_moiety
;
C32 H31 Br1 N2 O2
;
_journal_coden_Cambridge 119
_journal_volume 837
_journal_year 2007
_journal_page_first 252
_journal_name_full 'J.Mol.Struct. '
loop_
_publ_author_name
"S.Petit"
"G.Coquerel"
"C.Meyer"
"J.Guillemont"
_chemical_name_systematic
;
(1R,2S)-1-(6-Bromo-2-methoxyquinolin-3-yl)-4-(dimethylamino)-2-(naphthalen-1-y
l)-1-phenylbutan-2-ol
;
_chemical_name_common
;
R207910; Bedaquiline; Sirturo; DrugBank: DB08903; PDB Chemical Component 
code: BQ1; Teaching Subset: Drug Molecules, 'Bound' Drugs
;
_cell_volume   5629.545
_exptl_crystal_colour 'colorless'
_exptl_crystal_density_diffrn 1.311
_exptl_special_details
;
Absolute configuration
activity against Mycobacterium tuberculosis

;
_exptl_crystal_description 'tablet'
_exptl_crystal_preparation 'ethanol/diisopropyl ether'
_diffrn_ambient_temperature 296
#These two values have been output from a single CSD field.
_refine_ls_R_factor_gt 0.0364
_refine_ls_wR_factor_gt 0.0364
_symmetry_cell_setting orthorhombic
_symmetry_space_group_name_H-M 'P 21 21 21'
_symmetry_Int_Tables_number 19
loop_
_symmetry_equiv_pos_site_id
_symmetry_equiv_pos_as_xyz
1 x,y,z
2 1/2-x,-y,1/2+z
3 -x,1/2+y,1/2-z
4 1/2+x,1/2-y,-z
_cell_length_a 11.2357(7)
_cell_length_b 13.7607(9)
_cell_length_c 36.411(2)
_cell_angle_alpha 90
_cell_angle_beta 90
_cell_angle_gamma 90
_cell_formula_units_Z 8
loop_
_atom_type_symbol
_atom_type_radius_bond
C 0.68
H 0.23
Br 1.21
N 0.68
O 0.68
loop_
_atom_site_label
_atom_site_type_symbol
_atom_site_fract_x
_atom_site_fract_y
_atom_site_fract_z
Br1 Br -0.21544(3) 0.60290(3) 0.934115(11)
C1 C 0.4346(2) 0.59989(18) 0.85306(6)
H1 H 0.51050 0.62170 0.86340
C2 C 0.4233(2) 0.65396(18) 0.81555(7)
C3 C 0.3926(2) 0.76269(18) 0.82053(7)
H2 H 0.31630 0.76810 0.83280
H3 H 0.45210 0.79260 0.83620
C4 C 0.3872(3) 0.8180(2) 0.78416(7)
H4 H 0.36900 0.88560 0.78910
H5 H 0.46480 0.81540 0.77250
N1 N 0.2989(2) 0.77920(18) 0.75897(6)
C5 C 0.1802(3) 0.8150(3) 0.76722(10)
H6 H 0.15630 0.79220 0.79100
H7 H 0.12540 0.79160 0.74900
H8 H 0.18060 0.88470 0.76700
C6 C 0.3300(4) 0.7994(3) 0.72036(8)
H9 H 0.33180 0.86830 0.71640
H10 H 0.27160 0.77050 0.70450
H11 H 0.40690 0.77240 0.71500
O1 O 0.32435(17) 0.61133(16) 0.79705(5)
H12 H 0.300(2) 0.6508(19) 0.7830(7)
C7 C 0.5370(2) 0.64400(18) 0.79202(7)
C8 C 0.5289(3) 0.5983(2) 0.75885(8)
H13 H 0.45870 0.56600 0.75310
C9 C 0.6210(4) 0.5979(3) 0.73312(9)
H14 H 0.61190 0.56480 0.71100
C10 C 0.7229(4) 0.6454(3) 0.74039(11)
H15 H 0.78270 0.64710 0.72270
C11 C 0.7405(3) 0.6919(2) 0.77387(11)
C12 C 0.8472(4) 0.7390(3) 0.78170(15)
H16 H 0.90690 0.74070 0.76400
C13 C 0.8655(4) 0.7821(3) 0.81436(17)
H17 H 0.93720 0.81390 0.81850
C14 C 0.7815(3) 0.7803(3) 0.84167(12)
H18 H 0.79710 0.80860 0.86440
C15 C 0.6745(3) 0.7365(2) 0.83512(10)
H19 H 0.61700 0.73650 0.85350
C16 C 0.6483(3) 0.6910(2) 0.80120(9)
C17 C 0.4434(2) 0.48967(18) 0.85153(7)
C18 C 0.5265(3) 0.4450(2) 0.87401(8)
H20 H 0.57890 0.48300 0.88760
C19 C 0.5329(3) 0.3453(3) 0.87670(11)
H21 H 0.58920 0.31700 0.89210
C20 C 0.4582(4) 0.2880(3) 0.85723(12)
H22 H 0.46280 0.22070 0.85910
C21 C 0.3764(3) 0.3300(2) 0.83488(11)
H23 H 0.32480 0.29110 0.82140
C22 C 0.3691(3) 0.4290(2) 0.83195(9)
H24 H 0.31250 0.45600 0.81640
C23 C 0.3404(2) 0.63175(17) 0.88067(6)
C24 C 0.2253(2) 0.60158(18) 0.88009(7)
H25 H 0.20010 0.55960 0.86160
C25 C 0.1432(2) 0.63280(18) 0.90694(7)
C26 C 0.0218(2) 0.6053(2) 0.90682(7)
H26 H -0.00740 0.56430 0.88870
C27 C -0.0514(2) 0.6395(2) 0.93343(8)
C28 C -0.0110(3) 0.7017(2) 0.96105(8)
H27 H -0.06330 0.72440 0.97890
C29 C 0.1045(3) 0.7287(2) 0.96165(8)
H28 H 0.13150 0.76980 0.98010
C30 C 0.1850(2) 0.69523(19) 0.93463(7)
N2 N 0.3002(2) 0.72719(16) 0.93561(6)
C31 C 0.3716(2) 0.69691(18) 0.90973(7)
O2 O 0.48472(16) 0.73073(13) 0.90860(5)
C32 C 0.5208(3) 0.7985(2) 0.93601(8)
H29 H 0.47050 0.85480 0.93500
H30 H 0.60190 0.81740 0.93170
H31 H 0.51440 0.76890 0.95980
Br2 Br 1.50465(4) 0.52866(3) 0.98034(1)
C33 C 0.9505(2) 0.27487(18) 0.89053(7)
H32 H 0.86770 0.26670 0.89850
C34 C 0.9959(2) 0.17115(18) 0.88163(7)
C35 C 1.0000(3) 0.10592(19) 0.91619(7)
H33 H 1.05380 0.13470 0.93390
H34 H 0.92130 0.10410 0.92720
C36 C 1.0397(3) 0.00338(19) 0.90834(9)
H35 H 1.03390 -0.03510 0.93060
H36 H 0.98770 -0.02530 0.89000
N3 N 1.1631(2) 0.00176(18) 0.89491(7)
C37 C 1.2467(3) 0.0031(3) 0.92535(11)
H37 H 1.23380 0.06040 0.93990
H38 H 1.32650 0.00340 0.91600
H39 H 1.23490 -0.05350 0.94030
C38 C 1.1862(4) -0.0825(3) 0.87144(10)
H40 H 1.16480 -0.14080 0.88430
H41 H 1.26920 -0.08460 0.86530
H42 H 1.13980 -0.07740 0.84940
O3 O 1.11715(18) 0.18182(16) 0.86956(6)
H43 H 1.151(3) 0.135(3) 0.8733(11)
C39 C 0.9217(3) 0.12503(19) 0.85069(7)
C40 C 0.9756(3) 0.1091(2) 0.81766(9)
H44 H 1.05400 0.12940 0.81470
C41 C 0.9190(4) 0.0638(3) 0.78791(9)
H45 H 0.95880 0.05680 0.76570
C42 C 0.8085(4) 0.0308(3) 0.79153(9)
H46 H 0.77220 -0.00080 0.77190
C43 C 0.7456(3) 0.0432(2) 0.82461(9)
C44 C 0.6290(4) 0.0070(3) 0.82875(12)
H47 H 0.59430 -0.02710 0.80950
C45 C 0.5667(3) 0.0205(3) 0.85997(12)
H48 H 0.49040 -0.00500 0.86220
C46 C 0.6165(3) 0.0725(2) 0.88893(9)
H49 H 0.57210 0.08330 0.91010
C47 C 0.7286(3) 0.1075(2) 0.88658(8)
H50 H 0.76000 0.14160 0.90640
C48 C 0.8001(2) 0.09347(19) 0.85463(7)
C49 C 0.9461(2) 0.34655(19) 0.85867(7)
C50 C 0.8497(3) 0.4071(2) 0.85626(8)
H51 H 0.78640 0.39850 0.87240
C51 C 0.8439(3) 0.4809(2) 0.8305(1)
H52 H 0.77830 0.52200 0.82990
C52 C 0.9340(4) 0.4932(3) 0.80623(9)
H53 H 0.93030 0.54230 0.78870
C53 C 1.0300(3) 0.4330(3) 0.80771(8)
H54 H 1.09160 0.44060 0.79090
C54 C 1.0372(3) 0.3608(2) 0.83387(8)
H55 H 1.10430 0.32130 0.83480
C55 C 1.0143(2) 0.32233(17) 0.92285(7)
C56 C 1.1290(2) 0.35257(18) 0.92182(7)
H56 H 1.17410 0.33980 0.90090
C57 C 1.1827(2) 0.4030(2) 0.95138(7)
C58 C 1.3007(3) 0.4354(2) 0.95135(8)
H57 H 1.34980 0.42190 0.93140
C59 C 1.3437(3) 0.4864(2) 0.98035(9)
C60 C 1.2717(4) 0.5103(2) 1.00983(9)
H58 H 1.30200 0.54720 1.02910
C61 C 1.1567(4) 0.4799(3) 1.01065(8)
H59 H 1.10880 0.49610 1.03060
C62 C 1.1086(3) 0.4236(2) 0.98158(8)
N4 N 0.9941(3) 0.39124(18) 0.98409(6)
C63 C 0.9521(3) 0.3426(2) 0.95600(8)
O4 O 0.83964(19) 0.30585(15) 0.95759(6)
C64 C 0.7715(3) 0.3237(3) 0.99017(9)
H60 H 0.80790 0.29100 1.01060
H61 H 0.69200 0.29970 0.98680
H62 H 0.76900 0.39220 0.99490
#END
