####################################################################### 
# 
# This file contains crystal structure data downloaded from the 
# Cambridge Structural Database (CSD) hosted by the Cambridge 
# Crystallographic Data Centre (CCDC).
# 
# Full information about CCDC data access policies and citation 
# guidelines are available at http://www.ccdc.cam.ac.uk/access/V1 
# 
# Audit and citation data items may have been added by the CCDC. 
# Please retain this information to preserve the provenance of 
# this file and to allow appropriate attribution of the data. 
# 
#######################################################################

data_jf
_audit_block_doi                 10.5517/ccyrdnq
_database_code_depnum_ccdc_archive 'CCDC 886434'
loop_
_citation_id
_citation_doi
_citation_year
1 10.1021/cg400025j 2013
_audit_update_record             
;
2012-06-14 deposited with the CCDC.	2024-07-10 downloaded from the CCDC.
;
#TrackingRef 'jf.cif'


_audit_creation_method           SHELXL-97
_chemical_name_systematic        
;
?
;
_chemical_name_common            ?
_chemical_melting_point          ?
_chemical_formula_moiety         ?
_chemical_formula_sum            'C21 H17 Ag N4 O3'
_chemical_formula_weight         481.26

loop_
_atom_type_symbol
_atom_type_description
_atom_type_scat_dispersion_real
_atom_type_scat_dispersion_imag
_atom_type_scat_source
C C 0.0033 0.0016 'International Tables Vol C Tables 4.2.6.8 and 6.1.1.4'
H H 0.0000 0.0000 'International Tables Vol C Tables 4.2.6.8 and 6.1.1.4'
N N 0.0061 0.0033 'International Tables Vol C Tables 4.2.6.8 and 6.1.1.4'
O O 0.0106 0.0060 'International Tables Vol C Tables 4.2.6.8 and 6.1.1.4'
Ag Ag -0.8971 1.1015 'International Tables Vol C Tables 4.2.6.8 and 6.1.1.4'

_symmetry_cell_setting           Monoclinic
_symmetry_space_group_name_H-M   'C2/c '

loop_
_symmetry_equiv_pos_as_xyz
'x, y, z'
'-x, y, -z+1/2'
'x+1/2, y+1/2, z'
'-x+1/2, y+1/2, -z+1/2'
'-x, -y, -z'
'x, -y, z-1/2'
'-x+1/2, -y+1/2, -z'
'x+1/2, -y+1/2, z-1/2'

_cell_length_a                   25.339(5)
_cell_length_b                   6.221(5)
_cell_length_c                   26.305(5)
_cell_angle_alpha                90.000(5)
_cell_angle_beta                 95.545(5)
_cell_angle_gamma                90.000(5)
_cell_volume                     4127(4)
_cell_formula_units_Z            8
_cell_measurement_temperature    298(2)
_cell_measurement_reflns_used    4138
_cell_measurement_theta_min      2.35
_cell_measurement_theta_max      23.10

_exptl_crystal_description       needle
_exptl_crystal_colour            yellow
_exptl_crystal_size_max          0.60
_exptl_crystal_size_mid          0.30
_exptl_crystal_size_min          0.30
_exptl_crystal_density_meas      ?
_exptl_crystal_density_diffrn    1.549
_exptl_crystal_density_method    'not measured'
_exptl_crystal_F_000             1936
_exptl_absorpt_coefficient_mu    1.006
_exptl_absorpt_correction_type   multi-scan
_exptl_absorpt_correction_T_min  0.5837
_exptl_absorpt_correction_T_max  0.7524
_exptl_absorpt_process_details   sadabs

_exptl_special_details           
;
?
;

_diffrn_ambient_temperature      298(2)
_diffrn_radiation_wavelength     0.71069
_diffrn_radiation_type           MoK\a
_diffrn_radiation_source         'fine-focus sealed tube'
_diffrn_radiation_monochromator  graphite
_diffrn_measurement_device_type  'CCD area detector'
_diffrn_measurement_method       'phi and omega scans'
_diffrn_detector_area_resol_mean ?
_diffrn_standards_number         ?
_diffrn_standards_interval_count ?
_diffrn_standards_interval_time  ?
_diffrn_standards_decay_%        ?
_diffrn_reflns_number            14005
_diffrn_reflns_av_R_equivalents  0.0310
_diffrn_reflns_av_sigmaI/netI    0.0300
_diffrn_reflns_limit_h_min       -30
_diffrn_reflns_limit_h_max       29
_diffrn_reflns_limit_k_min       -7
_diffrn_reflns_limit_k_max       7
_diffrn_reflns_limit_l_min       -30
_diffrn_reflns_limit_l_max       30
_diffrn_reflns_theta_min         1.56
_diffrn_reflns_theta_max         25.00
_reflns_number_total             3642
_reflns_number_gt                2907
_reflns_threshold_expression     >2sigma(I)

_computing_data_collection       'Bruker SMART'
_computing_cell_refinement       'Bruker SMART'
_computing_data_reduction        'Bruker SAINT'
_computing_structure_solution    'Bruker SHELXTL'
_computing_structure_refinement  'Bruker SHELXTL'
_computing_molecular_graphics    'Bruker SHELXTL'
_computing_publication_material  'Bruker SHELXTL'


_refine_special_details          
;
Refinement of F^2^ against ALL reflections. The weighted R-factor wR and
goodness of fit S are based on F^2^, conventional R-factors R are based
on F, with F set to zero for negative F^2^. The threshold expression of
F^2^ > 2sigma(F^2^) is used only for calculating R-factors(gt) etc. and is
not relevant to the choice of reflections for refinement. R-factors based
on F^2^ are statistically about twice as large as those based on F, and R-
factors based on ALL data will be even larger.
;

_refine_ls_structure_factor_coef Fsqd
_refine_ls_matrix_type           full
_refine_ls_weighting_scheme      calc
_refine_ls_weighting_details     
'calc w=1/[\s^2^(Fo^2^)+(0.0346P)^2^+4.8673P] where P=(Fo^2^+2Fc^2^)/3'
_atom_sites_solution_primary     direct
_atom_sites_solution_secondary   difmap
_atom_sites_solution_hydrogens   geom
_refine_ls_hydrogen_treatment    constr
_refine_ls_extinction_method     none
_refine_ls_extinction_coef       ?
_refine_ls_number_reflns         3642
_refine_ls_number_parameters     266
_refine_ls_number_restraints     1
_refine_ls_R_factor_all          0.0429
_refine_ls_R_factor_gt           0.0305
_refine_ls_wR_factor_ref         0.0802
_refine_ls_wR_factor_gt          0.0732
_refine_ls_goodness_of_fit_ref   1.029
_refine_ls_restrained_S_all      1.034
_refine_ls_shift/su_max          0.001
_refine_ls_shift/su_mean         0.000

loop_
_atom_site_label
_atom_site_type_symbol
_atom_site_fract_x
_atom_site_fract_y
_atom_site_fract_z
_atom_site_U_iso_or_equiv
_atom_site_adp_type
_atom_site_occupancy
_atom_site_symmetry_multiplicity
_atom_site_calc_flag
_atom_site_refinement_flags
_atom_site_disorder_assembly
_atom_site_disorder_group
Ag1 Ag 0.5000 0.0000 0.5000 0.05250(13) Uani 1 2 d S . .
Ag2 Ag 0.5000 0.31660(7) 0.2500 0.06251(14) Uani 1 2 d SU . .
O3 O 0.45785(10) 0.3374(4) 0.33753(9) 0.0659(7) Uani 1 1 d . . .
O4 O 0.50996(11) 0.0773(4) 0.32457(9) 0.0698(7) Uani 1 1 d U . .
N1 N 0.45538(10) 0.2754(4) 0.52141(9) 0.0448(6) Uani 1 1 d . . .
O6 O 0.48085(11) 0.1162(4) 0.39822(8) 0.0691(7) Uani 1 1 d . . .
C4 C 0.41062(11) 0.6054(5) 0.49633(10) 0.0384(7) Uani 1 1 d . . .
C10 C 0.30528(12) 1.1466(5) 0.32950(11) 0.0398(7) Uani 1 1 d . . .
C7 C 0.39610(11) 0.7373(5) 0.40674(10) 0.0392(7) Uani 1 1 d . . .
H7 H 0.4167 0.6228 0.3974 0.047 Uiso 1 1 calc R . .
C12 C 0.36992(11) 0.9684(5) 0.27497(11) 0.0398(7) Uani 1 1 d . . .
C8 C 0.37489(11) 0.8793(4) 0.36581(10) 0.0359(6) Uani 1 1 d . . .
C9 C 0.34059(12) 1.0679(5) 0.37648(11) 0.0421(7) Uani 1 1 d . . .
H9A H 0.3631 1.1853 0.3895 0.051 Uiso 1 1 calc R . .
H9B H 0.3182 1.0280 0.4029 0.051 Uiso 1 1 calc R . .
C3 C 0.40679(12) 0.6537(5) 0.54731(11) 0.0459(8) Uani 1 1 d . . .
H3 H 0.3908 0.7809 0.5564 0.055 Uiso 1 1 calc R . .
C6 C 0.38916(12) 0.7537(5) 0.45583(11) 0.0411(7) Uani 1 1 d . . .
H6 H 0.3690 0.8689 0.4656 0.049 Uiso 1 1 calc R . .
C13 C 0.38768(12) 0.8387(5) 0.31823(10) 0.0405(7) Uani 1 1 d . . .
H13 H 0.4091 0.7207 0.3132 0.049 Uiso 1 1 calc R . .
C11 C 0.33940(12) 1.1696(5) 0.28454(11) 0.0423(7) Uani 1 1 d . . .
H11A H 0.3166 1.2053 0.2539 0.051 Uiso 1 1 calc R . .
H11B H 0.3642 1.2873 0.2915 0.051 Uiso 1 1 calc R . .
C5 C 0.43522(12) 0.4136(5) 0.48560(11) 0.0405(7) Uani 1 1 d . . .
H5 H 0.4379 0.3790 0.4515 0.049 Uiso 1 1 calc R . .
N4 N 0.48309(10) 0.1767(4) 0.35398(9) 0.0450(6) Uani 1 1 d . . .
C2 C 0.42690(14) 0.5111(6) 0.58447(11) 0.0536(9) Uani 1 1 d . . .
H2 H 0.4242 0.5413 0.6187 0.064 Uiso 1 1 calc R . .
C16 C 0.38153(12) 0.9138(5) 0.22699(11) 0.0448(7) Uani 1 1 d . . .
C18 C 0.36345(13) 1.0369(6) 0.18194(12) 0.0531(9) Uani 1 1 d . . .
C15 C 0.28244(14) 1.3671(5) 0.34100(13) 0.0561(9) Uani 1 1 d . . .
H15A H 0.3109 1.4682 0.3479 0.084 Uiso 1 1 calc R . .
H15B H 0.2627 1.3565 0.3703 0.084 Uiso 1 1 calc R . .
H15C H 0.2595 1.4150 0.3121 0.084 Uiso 1 1 calc R . .
N2 N 0.43353(16) 0.5667(6) 0.21620(12) 0.0820(11) Uani 1 1 d . . .
C14 C 0.25979(14) 0.9898(5) 0.31607(14) 0.0578(9) Uani 1 1 d . . .
H14A H 0.2376 1.0434 0.2872 0.087 Uiso 1 1 calc R . .
H14B H 0.2393 0.9750 0.3447 0.087 Uiso 1 1 calc R . .
H14C H 0.2739 0.8523 0.3078 0.087 Uiso 1 1 calc R . .
N3 N 0.34877(13) 1.1290(6) 0.14632(12) 0.0749(10) Uani 1 1 d . . .
C17 C 0.41106(15) 0.7234(7) 0.21955(11) 0.0565(9) Uani 1 1 d . . .
C1 C 0.45082(13) 0.3247(5) 0.57081(11) 0.0501(8) Uani 1 1 d . . .
H1 H 0.4642 0.2300 0.5962 0.060 Uiso 1 1 calc R . .
C19 C 0.2721(3) 0.0742(14) 0.5275(3) 0.122(2) Uani 1 1 d . . .
C21 C 0.2721(4) 0.4471(14) 0.5078(4) 0.159(3) Uani 1 1 d . . .
C20 C 0.2937(3) 0.2698(18) 0.5342(3) 0.138(2) Uani 1 1 d . . .

loop_
_atom_site_aniso_label
_atom_site_aniso_U_11
_atom_site_aniso_U_22
_atom_site_aniso_U_33
_atom_site_aniso_U_23
_atom_site_aniso_U_13
_atom_site_aniso_U_12
Ag1 0.0609(2) 0.0479(2) 0.0484(2) 0.00969(16) 0.00400(17) 0.01171(17)
Ag2 0.0766(3) 0.0734(3) 0.0398(2) 0.000 0.01739(18) 0.000
O3 0.0677(16) 0.0628(16) 0.0666(16) 0.0193(13) 0.0037(13) 0.0144(13)
O4 0.0847(18) 0.0648(16) 0.0645(15) 0.0065(10) 0.0311(14) 0.0116(14)
N1 0.0508(15) 0.0457(15) 0.0370(14) 0.0068(12) 0.0001(11) 0.0033(12)
O6 0.0954(19) 0.0767(18) 0.0346(13) 0.0143(12) 0.0021(12) -0.0086(15)
C4 0.0436(16) 0.0424(17) 0.0292(15) 0.0040(13) 0.0034(12) -0.0012(14)
C10 0.0440(16) 0.0364(17) 0.0385(16) 0.0023(13) 0.0005(13) 0.0036(13)
C7 0.0458(17) 0.0391(17) 0.0328(15) 0.0026(13) 0.0042(13) 0.0060(13)
C12 0.0397(16) 0.0435(18) 0.0359(16) 0.0045(13) 0.0021(13) -0.0004(13)
C8 0.0390(16) 0.0348(16) 0.0333(15) 0.0031(12) 0.0002(12) 0.0002(13)
C9 0.0498(18) 0.0428(17) 0.0335(16) 0.0000(13) 0.0027(13) 0.0052(14)
C3 0.0575(19) 0.0479(19) 0.0332(16) 0.0013(14) 0.0087(14) 0.0051(15)
C6 0.0495(18) 0.0387(17) 0.0355(16) 0.0019(13) 0.0054(13) 0.0063(14)
C13 0.0496(17) 0.0404(17) 0.0313(15) 0.0040(13) 0.0031(13) 0.0099(14)
C11 0.0488(18) 0.0395(17) 0.0374(16) 0.0086(13) -0.0017(13) 0.0042(14)
C5 0.0497(18) 0.0434(17) 0.0280(15) 0.0030(13) 0.0012(13) 0.0015(15)
N4 0.0472(15) 0.0504(17) 0.0372(14) 0.0023(13) 0.0031(12) -0.0074(13)
C2 0.070(2) 0.067(2) 0.0242(15) 0.0026(15) 0.0056(15) -0.0016(19)
C16 0.0507(18) 0.0544(19) 0.0294(16) 0.0046(14) 0.0050(13) 0.0044(16)
C18 0.053(2) 0.070(2) 0.0370(18) 0.0074(17) 0.0074(15) -0.0002(17)
C15 0.066(2) 0.047(2) 0.054(2) 0.0034(16) 0.0022(17) 0.0163(17)
N2 0.115(3) 0.088(3) 0.0442(18) -0.0041(17) 0.0119(18) 0.040(2)
C14 0.0488(19) 0.056(2) 0.067(2) 0.0035(18) -0.0022(17) -0.0039(17)
N3 0.075(2) 0.103(3) 0.0462(18) 0.0310(19) 0.0048(16) 0.002(2)
C17 0.069(2) 0.075(3) 0.0256(16) 0.0020(16) 0.0063(15) 0.010(2)
C1 0.061(2) 0.057(2) 0.0313(16) 0.0124(15) -0.0014(14) 0.0027(17)
C19 0.076(4) 0.171(7) 0.122(5) 0.019(5) 0.026(4) 0.002(4)
C21 0.120(6) 0.131(6) 0.229(10) 0.020(6) 0.026(6) -0.022(5)
C20 0.094(4) 0.174(7) 0.146(6) -0.011(6) 0.006(4) -0.036(6)

_geom_special_details            
;
All esds (except the esd in the dihedral angle between two l.s. planes)
are estimated using the full covariance matrix. The cell esds are taken
into account individually in the estimation of esds in distances, angles
and torsion angles; correlations between esds in cell parameters are only
used when they are defined by crystal symmetry. An approximate (isotropic)
treatment of cell esds is used for estimating esds involving l.s. planes.
;

loop_
_geom_bond_atom_site_label_1
_geom_bond_atom_site_label_2
_geom_bond_distance
_geom_bond_site_symmetry_2
_geom_bond_publ_flag
Ag1 N1 2.157(3) . ?
Ag1 N1 2.157(3) 5_656 ?
Ag2 N2 2.400(4) 2_655 ?
Ag2 N2 2.400(4) . ?
Ag2 O4 2.456(3) 2_655 ?
Ag2 O4 2.456(3) . ?
O3 N4 1.242(3) . ?
O4 N4 1.244(3) . ?
N1 C5 1.340(4) . ?
N1 C1 1.351(4) . ?
O6 N4 1.230(3) . ?
C4 C3 1.387(4) . ?
C4 C5 1.388(4) . ?
C4 C6 1.473(4) . ?
C10 C14 1.525(4) . ?
C10 C15 1.531(4) . ?
C10 C9 1.534(4) . ?
C10 C11 1.537(4) . ?
C7 C6 1.324(4) . ?
C7 C8 1.455(4) . ?
C7 H7 0.9300 . ?
C12 C16 1.366(4) . ?
C12 C13 1.431(4) . ?
C12 C11 1.505(4) . ?
C8 C13 1.347(4) . ?
C8 C9 1.503(4) . ?
C9 H9A 0.9700 . ?
C9 H9B 0.9700 . ?
C3 C2 1.381(4) . ?
C3 H3 0.9300 . ?
C6 H6 0.9300 . ?
C13 H13 0.9300 . ?
C11 H11A 0.9700 . ?
C11 H11B 0.9700 . ?
C5 H5 0.9300 . ?
C2 C1 1.372(5) . ?
C2 H2 0.9300 . ?
C16 C17 1.425(5) . ?
C16 C18 1.448(4) . ?
C18 N3 1.130(4) . ?
C15 H15A 0.9600 . ?
C15 H15B 0.9600 . ?
C15 H15C 0.9600 . ?
N2 C17 1.136(5) . ?
C14 H14A 0.9600 . ?
C14 H14B 0.9600 . ?
C14 H14C 0.9600 . ?
C1 H1 0.9300 . ?
C19 C20 1.338(10) . ?
C19 C21 1.392(10) 7_556 ?
C21 C19 1.392(10) 7_556 ?
C21 C20 1.387(10) . ?

loop_
_geom_angle_atom_site_label_1
_geom_angle_atom_site_label_2
_geom_angle_atom_site_label_3
_geom_angle
_geom_angle_site_symmetry_1
_geom_angle_site_symmetry_3
_geom_angle_publ_flag
N1 Ag1 N1 180.00(12) . 5_656 ?
N2 Ag2 N2 99.2(2) 2_655 . ?
N2 Ag2 O4 134.68(10) 2_655 2_655 ?
N2 Ag2 O4 94.75(11) . 2_655 ?
N2 Ag2 O4 94.75(11) 2_655 . ?
N2 Ag2 O4 134.68(10) . . ?
O4 Ag2 O4 105.37(13) 2_655 . ?
N4 O4 Ag2 100.09(19) . . ?
C5 N1 C1 117.9(3) . . ?
C5 N1 Ag1 120.0(2) . . ?
C1 N1 Ag1 121.8(2) . . ?
C3 C4 C5 117.2(3) . . ?
C3 C4 C6 120.5(3) . . ?
C5 C4 C6 122.2(3) . . ?
C14 C10 C15 109.1(3) . . ?
C14 C10 C9 110.6(3) . . ?
C15 C10 C9 109.2(2) . . ?
C14 C10 C11 110.5(3) . . ?
C15 C10 C11 108.7(2) . . ?
C9 C10 C11 108.8(2) . . ?
C6 C7 C8 126.9(3) . . ?
C6 C7 H7 116.6 . . ?
C8 C7 H7 116.6 . . ?
C16 C12 C13 121.0(3) . . ?
C16 C12 C11 121.4(3) . . ?
C13 C12 C11 117.6(3) . . ?
C13 C8 C7 118.0(3) . . ?
C13 C8 C9 121.0(3) . . ?
C7 C8 C9 121.0(2) . . ?
C8 C9 C10 113.7(2) . . ?
C8 C9 H9A 108.8 . . ?
C10 C9 H9A 108.8 . . ?
C8 C9 H9B 108.8 . . ?
C10 C9 H9B 108.8 . . ?
H9A C9 H9B 107.7 . . ?
C2 C3 C4 119.3(3) . . ?
C2 C3 H3 120.3 . . ?
C4 C3 H3 120.3 . . ?
C7 C6 C4 125.6(3) . . ?
C7 C6 H6 117.2 . . ?
C4 C6 H6 117.2 . . ?
C8 C13 C12 123.2(3) . . ?
C8 C13 H13 118.4 . . ?
C12 C13 H13 118.4 . . ?
C12 C11 C10 112.8(2) . . ?
C12 C11 H11A 109.0 . . ?
C10 C11 H11A 109.0 . . ?
C12 C11 H11B 109.0 . . ?
C10 C11 H11B 109.0 . . ?
H11A C11 H11B 107.8 . . ?
N1 C5 C4 123.9(3) . . ?
N1 C5 H5 118.1 . . ?
C4 C5 H5 118.1 . . ?
O6 N4 O3 120.5(3) . . ?
O6 N4 O4 121.0(3) . . ?
O3 N4 O4 118.5(3) . . ?
C1 C2 C3 120.0(3) . . ?
C1 C2 H2 120.0 . . ?
C3 C2 H2 120.0 . . ?
C12 C16 C17 119.7(3) . . ?
C12 C16 C18 123.1(3) . . ?
C17 C16 C18 117.2(3) . . ?
N3 C18 C16 178.4(4) . . ?
C10 C15 H15A 109.5 . . ?
C10 C15 H15B 109.5 . . ?
H15A C15 H15B 109.5 . . ?
C10 C15 H15C 109.5 . . ?
H15A C15 H15C 109.5 . . ?
H15B C15 H15C 109.5 . . ?
C17 N2 Ag2 150.0(3) . . ?
C10 C14 H14A 109.5 . . ?
C10 C14 H14B 109.5 . . ?
H14A C14 H14B 109.5 . . ?
C10 C14 H14C 109.5 . . ?
H14A C14 H14C 109.5 . . ?
H14B C14 H14C 109.5 . . ?
N2 C17 C16 175.9(4) . . ?
N1 C1 C2 121.6(3) . . ?
N1 C1 H1 119.2 . . ?
C2 C1 H1 119.2 . . ?
C20 C19 C21 117.8(7) . 7_556 ?
C19 C21 C20 120.7(7) 7_556 . ?
C19 C20 C21 121.5(7) . . ?

loop_
_geom_torsion_atom_site_label_1
_geom_torsion_atom_site_label_2
_geom_torsion_atom_site_label_3
_geom_torsion_atom_site_label_4
_geom_torsion
_geom_torsion_site_symmetry_1
_geom_torsion_site_symmetry_2
_geom_torsion_site_symmetry_3
_geom_torsion_site_symmetry_4
_geom_torsion_publ_flag
N2 Ag2 O4 N4 80.6(2) 2_655 . . . ?
N2 Ag2 O4 N4 -27.3(3) . . . . ?
O4 Ag2 O4 N4 -140.4(2) 2_655 . . . ?
N1 Ag1 N1 C5 14(100) 5_656 . . . ?
N1 Ag1 N1 C1 -160(100) 5_656 . . . ?
C6 C7 C8 C13 178.2(3) . . . . ?
C6 C7 C8 C9 -0.7(5) . . . . ?
C13 C8 C9 C10 23.1(4) . . . . ?
C7 C8 C9 C10 -158.0(3) . . . . ?
C14 C10 C9 C8 73.3(3) . . . . ?
C15 C10 C9 C8 -166.6(3) . . . . ?
C11 C10 C9 C8 -48.1(3) . . . . ?
C5 C4 C3 C2 -0.4(5) . . . . ?
C6 C4 C3 C2 179.5(3) . . . . ?
C8 C7 C6 C4 179.1(3) . . . . ?
C3 C4 C6 C7 171.4(3) . . . . ?
C5 C4 C6 C7 -8.6(5) . . . . ?
C7 C8 C13 C12 -179.1(3) . . . . ?
C9 C8 C13 C12 -0.2(5) . . . . ?
C16 C12 C13 C8 -176.3(3) . . . . ?
C11 C12 C13 C8 5.3(4) . . . . ?
C16 C12 C11 C10 148.8(3) . . . . ?
C13 C12 C11 C10 -32.9(4) . . . . ?
C14 C10 C11 C12 -68.5(3) . . . . ?
C15 C10 C11 C12 171.9(3) . . . . ?
C9 C10 C11 C12 53.1(3) . . . . ?
C1 N1 C5 C4 0.9(4) . . . . ?
Ag1 N1 C5 C4 -173.4(2) . . . . ?
C3 C4 C5 N1 -0.3(4) . . . . ?
C6 C4 C5 N1 179.7(3) . . . . ?
Ag2 O4 N4 O6 -174.8(2) . . . . ?
Ag2 O4 N4 O3 6.2(3) . . . . ?
C4 C3 C2 C1 0.6(5) . . . . ?
C13 C12 C16 C17 1.0(5) . . . . ?
C11 C12 C16 C17 179.2(3) . . . . ?
C13 C12 C16 C18 178.5(3) . . . . ?
C11 C12 C16 C18 -3.2(5) . . . . ?
C12 C16 C18 N3 -121(15) . . . . ?
C17 C16 C18 N3 56(15) . . . . ?
N2 Ag2 N2 C17 -38.9(6) 2_655 . . . ?
O4 Ag2 N2 C17 -175.6(7) 2_655 . . . ?
O4 Ag2 N2 C17 67.2(7) . . . . ?
Ag2 N2 C17 C16 -62(7) . . . . ?
C12 C16 C17 N2 25(6) . . . . ?
C18 C16 C17 N2 -152(6) . . . . ?
C5 N1 C1 C2 -0.7(5) . . . . ?
Ag1 N1 C1 C2 173.5(2) . . . . ?
C3 C2 C1 N1 0.0(5) . . . . ?
C21 C19 C20 C21 1.3(13) 7_556 . . . ?
C19 C21 C20 C19 -1.4(14) 7_556 . . . ?

_diffrn_measured_fraction_theta_max 0.998
_diffrn_reflns_theta_full        25.00
_diffrn_measured_fraction_theta_full 0.998
_refine_diff_density_max         0.347
_refine_diff_density_min         -0.418
_refine_diff_density_rms         0.057


