
#######################################################################
#
#                 Cambridge Crystallographic Data Centre
#                                CCDC
#
#######################################################################
#
# If this CIF has been generated from an entry in the Cambridge
# Structural Database, then it will include bibliographic, chemical,
# crystal, experimental, refinement or atomic coordinate data resulting
# from the CCDC's data processing and validation procedures.
#
#######################################################################

data_CSD_CIF_KINFUI
_audit_creation_date 1991-09-27
_audit_creation_method CSD-ConQuest-V1
_database_code_CSD KINFUI
_database_code_depnum_ccdc_archive 'CCDC 1197170'
_chemical_formula_sum 'C32 H70 Li2 O2 Si6'
_chemical_formula_moiety
;
2(C4 H8 Li1 O1 1+),C24 H54 Si6 2-
;
_journal_coden_Cambridge 4
_journal_volume 113
_journal_year 1991
_journal_page_first 1464
_journal_name_full 'J.Am.Chem.Soc. '
loop_
_publ_author_name
"A.Sekiguchi"
"K.Ebata"
"C.Kabuto"
"H.Sakurai"
_chemical_name_systematic
;
bis((Tetrahydrofuran-O)-lithium) hexakis(trimethylsilyl)benzenide
;
_chemical_name_common
;
Teaching Subset: Fundamental Chemistry
;
_cell_volume   9145.270
_exptl_crystal_colour 'red'
_exptl_crystal_density_diffrn 0.97
_exptl_special_details
;
Extremely air- and moisture-sensitive

;
_diffrn_ambient_temperature ?
_diffrn_special_details
;
The study was carried out at room temperature,in the range 283-303K

;
#These two values have been output from a single CSD field.
_refine_ls_R_factor_gt 0.109
_refine_ls_wR_factor_gt 0.109
_symmetry_cell_setting monoclinic
_symmetry_space_group_name_H-M 'C 2/c'
_symmetry_Int_Tables_number 15
loop_
_symmetry_equiv_pos_site_id
_symmetry_equiv_pos_as_xyz
1 x,y,z
2 1/2+x,1/2+y,z
3 -x,y,1/2-z
4 1/2-x,1/2+y,1/2-z
5 -x,-y,-z
6 -1/2-x,-1/2-y,-z
7 x,-y,-1/2+z
8 -1/2+x,-1/2-y,-1/2+z
_cell_length_a 43.784(20)
_cell_length_b 11.469
_cell_length_c 20.230(1)
_cell_angle_alpha 90
_cell_angle_beta 115.81(2)
_cell_angle_gamma 90
_cell_formula_units_Z 8
loop_
_atom_type_symbol
_atom_type_radius_bond
C 0.68
H 0.23
Li 0.93
O 0.68
Si 1.20
loop_
_atom_site_label
_atom_site_type_symbol
_atom_site_fract_x
_atom_site_fract_y
_atom_site_fract_z
Si1 Si 0.6490(1) 0.0884(2) 0.0785(2)
Si2 Si 0.5814(1) -0.0886(3) 0.0969(2)
Si3 Si 0.5577(1) -0.1268(3) -0.1053(2)
Si4 Si 0.6315(1) -0.2483(3) -0.1151(2)
Si5 Si 0.6720(1) -0.4167(2) 0.0565(2)
Si6 Si 0.7165(1) -0.1294(2) 0.1235(2)
C1 C 0.6454(2) -0.0758(7) 0.0815(4)
C2 C 0.6093(2) -0.1235(7) 0.0528(4)
C3 C 0.5994(2) -0.1666(7) -0.0240(5)
C4 C 0.6238(2) -0.2387(7) -0.0300(4)
C5 C 0.6548(2) -0.2672(7) 0.0416(4)
C6 C 0.6691(2) -0.1559(7) 0.0813(4)
C7 C 0.6807(3) 0.1458(11) 0.0484(8)
C8 C 0.6559(3) 0.1645(11) 0.1662(8)
C9 C 0.6094(3) 0.1479(10) 0.0030(8)
C10 C 0.6055(3) -0.1130(11) 0.1967(7)
C11 C 0.5628(3) 0.0612(11) 0.0986(8)
C12 C 0.5445(3) -0.1926(11) 0.0674(6)
C13 C 0.5320(3) -0.2643(13) -0.1385(7)
C14 C 0.5599(3) -0.0485(13) -0.1862(6)
C15 C 0.5302(3) -0.0201(14) -0.0851(7)
C16 C 0.5956(4) -0.3087(13) -0.1994(6)
C17 C 0.6444(3) -0.1000(11) -0.1308(6)
C18 C 0.6678(4) -0.3389(13) -0.1097(7)
C19 C 0.6774(3) -0.4724(10) 0.1479(6)
C20 C 0.7129(3) -0.4636(11) 0.0535(7)
C21 C 0.6388(3) -0.5156(9) -0.0115(6)
C22 C 0.7324(3) -0.1149(13) 0.0528(7)
C23 C 0.7319(3) -0.0059(11) 0.1908(7)
C24 C 0.7413(3) -0.2509(11) 0.1855(7)
H1 H 0.680(3) 0.223(11) 0.049(7)
H2 H 0.705(3) 0.135(9) 0.081(5)
H3 H 0.678(2) 0.125(9) 0.007(5)
H4 H 0.656(3) 0.254(10) 0.164(6)
H5 H 0.637(2) 0.150(8) 0.178(4)
H6 H 0.678(2) 0.136(9) 0.211(5)
H7 H 0.611(3) 0.241(11) 0.001(6)
H8 H 0.607(3) 0.112(10) -0.046(6)
H9 H 0.588(3) 0.131(9) 0.009(5)
H10 H 0.591(2) -0.091(9) 0.220(5)
H11 H 0.611(2) -0.197(7) 0.204(4)
H12 H 0.624(2) -0.076(9) 0.215(5)
H13 H 0.552(2) 0.056(9) 0.129(5)
H14 H 0.580(3) 0.123(11) 0.118(7)
H15 H 0.547(2) 0.088(9) 0.044(5)
H16 H 0.532(3) -0.164(10) 0.095(6)
H17 H 0.530(3) -0.194(10) 0.022(6)
H18 H 0.554(2) -0.252(9) 0.090(5)
H19 H 0.510(3) -0.260(11) -0.193(6)
H20 H 0.525(3) -0.305(10) -0.101(6)
H21 H 0.536(3) -0.03(1) -0.223(5)
H22 H 0.570(2) 0.041(8) -0.175(5)
H23 H 0.571(2) -0.098(8) -0.207(4)
H24 H 0.508(2) 0.000(9) -0.131(5)
H25 H 0.522(3) -0.04(1) -0.054(6)
H26 H 0.542(3) 0.059(11) -0.070(6)
H27 H 0.601(3) -0.318(11) -0.238(6)
H28 H 0.588(3) -0.392(10) -0.190(6)
H29 H 0.568(3) -0.274(9) -0.212(6)
H30 H 0.651(2) -0.088(9) -0.166(5)
H31 H 0.629(2) -0.042(8) -0.139(5)
H32 H 0.668(3) -0.084(10) -0.094(6)
H33 H 0.670(3) -0.332(11) -0.159(6)
H34 H 0.692(2) -0.305(9) -0.068(5)
H35 H 0.662(3) -0.418(10) -0.101(6)
H36 H 0.686(3) -0.547(10) 0.158(6)
H37 H 0.694(3) -0.438(10) 0.188(6)
H38 H 0.654(2) -0.475(7) 0.148(4)
H39 H 0.718(3) -0.538(11) 0.062(7)
H40 H 0.712(3) -0.455(10) 0.011(6)
H41 H 0.732(3) -0.429(10) 0.085(6)
H42 H 0.647(3) -0.591(10) -0.007(6)
H43 H 0.621(3) -0.518(11) -0.012(6)
H44 H 0.631(3) -0.493(9) -0.063(5)
H45 H 0.755(3) -0.109(10) 0.071(6)
H46 H 0.727(3) -0.186(11) 0.022(6)
H47 H 0.723(2) -0.055(9) 0.024(5)
H48 H 0.758(3) 0.000(11) 0.208(6)
H49 H 0.726(3) 0.062(11) 0.173(6)
H50 H 0.727(3) -0.027(12) 0.231(7)
H51 H 0.764(3) -0.226(10) 0.201(6)
H52 H 0.734(2) -0.252(9) 0.223(5)
H53 H 0.740(2) -0.327(7) 0.163(4)
O1 O 0.6779(2) -0.2468(7) 0.2624(4)
C25 C 0.6986(4) -0.1581(14) 0.3101(7)
C26 C 0.7089(6) -0.2031(21) 0.3813(9)
C27 C 0.6934(7) -0.3067(17) 0.3796(8)
C28 C 0.6741(4) -0.3378(12) 0.3068(7)
Li1 Li 0.6497(4) -0.2124(15) 0.1558(8)
H54 H 0.684(4) -0.082(14) 0.298(8)
H55 H 0.714(3) -0.129(12) 0.298(7)
H56 H 0.709(3) -0.145(11) 0.411(7)
H57 H 0.732(4) -0.219(14) 0.391(9)
H58 H 0.680(3) -0.311(13) 0.399(8)
H59 H 0.707(3) -0.361(11) 0.409(7)
H60 H 0.683(2) -0.408(9) 0.301(5)
H61 H 0.651(3) -0.346(10) 0.293(6)
O2 O 0.5785(2) -0.4548(6) 0.0494(4)
C29 C 0.5521(4) -0.5170(14) -0.0101(8)
C30 C 0.5409(3) -0.6127(13) 0.022(1)
C31 C 0.5532(4) -0.5808(18) 0.0999(9)
C32 C 0.5821(4) -0.5050(14) 0.1174(7)
Li2 Li 0.6029(4) -0.3212(13) 0.0344(9)
H62 H 0.563(3) -0.540(12) -0.053(7)
H63 H 0.531(3) -0.457(11) -0.040(7)
H64 H 0.555(3) -0.678(13) 0.016(7)
H65 H 0.515(3) -0.622(12) -0.007(7)
H66 H 0.558(3) -0.637(11) 0.135(6)
H67 H 0.536(3) -0.542(12) 0.110(7)
H68 H 0.585(2) -0.451(9) 0.152(5)
H69 H 0.603(3) -0.554(10) 0.142(6)
H70? H 0.546(3) -0.343(10) -0.164(6)
#END
