####################################################################### 
# 
# This file contains crystal structure data downloaded from the 
# Cambridge Structural Database (CSD) hosted by the Cambridge 
# Crystallographic Data Centre (CCDC).
# 
# Full information about CCDC data access policies and citation 
# guidelines are available at http://www.ccdc.cam.ac.uk/access/V1 
# 
# Audit and citation data items may have been added by the CCDC. 
# Please retain this information to preserve the provenance of 
# this file and to allow appropriate attribution of the data. 
# 
#######################################################################

data_shelxl3
_audit_block_doi                 10.5517/cc117csf
_database_code_depnum_ccdc_archive 'CCDC 960404'
loop_
_citation_id
_citation_doi
_citation_year
1 10.1021/cg400420h 2013
_audit_update_record             
;
2013-08-30 deposited with the CCDC.	2024-07-10 downloaded from the CCDC.
;

_audit_creation_method           SHELXL-97
_chemical_name_systematic        
;
 ?
;
_chemical_name_common            ?
_chemical_melting_point          ?
_chemical_formula_moiety         ?
_chemical_formula_sum            'C26 H36 Cu F4 N5 O2'
_chemical_formula_weight         590.14

loop_
_atom_type_symbol
_atom_type_description
_atom_type_scat_dispersion_real
_atom_type_scat_dispersion_imag
_atom_type_scat_source
C C 0.0181 0.0091 'International Tables Vol C Tables 4.2.6.8 and 6.1.1.4'
N N 0.0311 0.0180 'International Tables Vol C Tables 4.2.6.8 and 6.1.1.4'
Cu Cu -1.9646 0.5888 'International Tables Vol C Tables 4.2.6.8 and 6.1.1.4'
F F 0.0727 0.0534 'International Tables Vol C Tables 4.2.6.8 and 6.1.1.4'
H H 0.0000 0.0000 'International Tables Vol C Tables 4.2.6.8 and 6.1.1.4'
O O 0.0492 0.0322 'International Tables Vol C Tables 4.2.6.8 and 6.1.1.4'

_symmetry_cell_setting           Tetragonal
_symmetry_space_group_name_H-M   P42/mmc

loop_
_symmetry_equiv_pos_as_xyz
'x, y, z'
'x, -y, -z'
'-x, -y, z'
'-x, y, -z'
'y, x, -z+1/2'
'y, -x, z+1/2'
'-y, x, z+1/2'
'-y, -x, -z+1/2'
'-x, -y, -z'
'-x, y, z'
'x, y, -z'
'x, -y, z'
'-y, -x, z-1/2'
'-y, x, -z-1/2'
'y, -x, -z-1/2'
'y, x, z-1/2'

_cell_length_a                   7.47360(10)
_cell_length_b                   7.47360(10)
_cell_length_c                   22.0963(4)
_cell_angle_alpha                90.00
_cell_angle_beta                 90.00
_cell_angle_gamma                90.00
_cell_volume                     1234.18(3)
_cell_formula_units_Z            2
_cell_measurement_temperature    130(2)
_cell_measurement_reflns_used    1691
_cell_measurement_theta_min      5.9158
_cell_measurement_theta_max      74.0924

_exptl_crystal_description       Block
_exptl_crystal_colour            'Pale yellow'
_exptl_crystal_size_max          0.2581
_exptl_crystal_size_mid          0.1721
_exptl_crystal_size_min          0.0951
_exptl_crystal_density_meas      ?
_exptl_crystal_density_diffrn    1.588
_exptl_crystal_density_method    'not measured'
_exptl_crystal_F_000             616
_exptl_absorpt_coefficient_mu    2.005
_exptl_absorpt_correction_type   gaussian
_exptl_absorpt_correction_T_min  0.722
_exptl_absorpt_correction_T_max  0.833
_exptl_absorpt_process_details   
;
CrysAlisPro, Agilent Technologies,
Version 1.171.36.20 (release 27-06-2012 CrysAlis171 .NET)
(compiled Jul 11 2012,15:38:31)
Numerical absorption correction based on gaussian integration over
			a multifaceted crystal model
;

_exptl_special_details           
;
 ?
;

_diffrn_ambient_temperature      130(2)
_diffrn_radiation_wavelength     1.54184
_diffrn_radiation_type           CuK\a
_diffrn_radiation_source         'SuperNova (Cu) X-ray Source'
_diffrn_radiation_monochromator  mirror
_diffrn_measurement_device_type  'SuperNova, Dual, Cu at zero, Atlas'
_diffrn_measurement_method       '\w scans'
_diffrn_detector_area_resol_mean 10.2273
_diffrn_standards_number         ?
_diffrn_standards_interval_count ?
_diffrn_standards_interval_time  ?
_diffrn_standards_decay_%        ?
_diffrn_reflns_number            2331
_diffrn_reflns_av_R_equivalents  0.0108
_diffrn_reflns_av_sigmaI/netI    0.0093
_diffrn_reflns_limit_h_min       -8
_diffrn_reflns_limit_h_max       8
_diffrn_reflns_limit_k_min       -9
_diffrn_reflns_limit_k_max       5
_diffrn_reflns_limit_l_min       -27
_diffrn_reflns_limit_l_max       18
_diffrn_reflns_theta_min         5.92
_diffrn_reflns_theta_max         74.26
_reflns_number_total             735
_reflns_number_gt                704
_reflns_threshold_expression     >2sigma(I)

_computing_data_collection       
;
CrysAlisPro, Agilent Technologies,
Version 1.171.36.20 (release 27-06-2012 CrysAlis171 .NET)
(compiled Jul 11 2012,15:38:31)
;
_computing_cell_refinement       
;
CrysAlisPro, Agilent Technologies,
Version 1.171.36.20 (release 27-06-2012 CrysAlis171 .NET)
(compiled Jul 11 2012,15:38:31)
;
_computing_data_reduction        
;
CrysAlisPro, Agilent Technologies,
Version 1.171.36.20 (release 27-06-2012 CrysAlis171 .NET)
(compiled Jul 11 2012,15:38:31)
;
_computing_structure_solution    'SHELXS-97 (Sheldrick, 1997)'
_computing_structure_refinement  'SHELXL-97 (Sheldrick, 1997)'
_computing_molecular_graphics    ?
_computing_publication_material  ?

_refine_special_details          
;
 Refinement of F^2^ against ALL reflections.  The weighted R-factor wR and
 goodness of fit S are based on F^2^, conventional R-factors R are based
 on F, with F set to zero for negative F^2^. The threshold expression of
 F^2^ > 2sigma(F^2^) is used only for calculating R-factors(gt) etc. and is
 not relevant to the choice of reflections for refinement.  R-factors based
 on F^2^ are statistically about twice as large as those based on F, and R-
 factors based on ALL data will be even larger.
;

_refine_ls_structure_factor_coef Fsqd
_refine_ls_matrix_type           full
_refine_ls_weighting_scheme      calc
_refine_ls_weighting_details     
'calc w=1/[\s^2^(Fo^2^)+(0.0812P)^2^+1.9436P] where P=(Fo^2^+2Fc^2^)/3'
_atom_sites_solution_primary     direct
_atom_sites_solution_secondary   difmap
_atom_sites_solution_hydrogens   .
_refine_ls_hydrogen_treatment    .
_refine_ls_extinction_method     none
_refine_ls_extinction_coef       ?
_refine_ls_number_reflns         735
_refine_ls_number_parameters     35
_refine_ls_number_restraints     0
_refine_ls_R_factor_all          0.0497
_refine_ls_R_factor_gt           0.0487
_refine_ls_wR_factor_ref         0.1549
_refine_ls_wR_factor_gt          0.1541
_refine_ls_goodness_of_fit_ref   1.138
_refine_ls_restrained_S_all      1.138
_refine_ls_shift/su_max          0.000
_refine_ls_shift/su_mean         0.000

loop_
_atom_site_label
_atom_site_type_symbol
_atom_site_fract_x
_atom_site_fract_y
_atom_site_fract_z
_atom_site_U_iso_or_equiv
_atom_site_adp_type
_atom_site_occupancy
_atom_site_symmetry_multiplicity
_atom_site_calc_flag
_atom_site_refinement_flags
_atom_site_disorder_assembly
_atom_site_disorder_group
Cu1 Cu 0.5000 0.5000 0.2500 0.0234(4) Uani 1 8 d S . .
C3 C 0.5000 0.0000 0.0662(2) 0.0241(10) Uani 1 4 d S . .
C1 C 0.5000 0.1585(5) 0.16700(14) 0.0265(7) Uani 1 2 d S . .
N1 N 0.5000 0.2816(4) 0.19771(12) 0.0325(7) Uani 1 2 d S . .
C4 C 0.5000 0.1539(5) 0.03137(15) 0.0380(10) Uani 1 2 d S . .
C2 C 0.5000 0.0000 0.1326(2) 0.0244(9) Uani 1 4 d S . .
F1 F 0.5000 0.3121(4) 0.05868(10) 0.1083(19) Uani 1 2 d S . .

loop_
_atom_site_aniso_label
_atom_site_aniso_U_11
_atom_site_aniso_U_22
_atom_site_aniso_U_33
_atom_site_aniso_U_23
_atom_site_aniso_U_13
_atom_site_aniso_U_12
Cu1 0.0278(5) 0.0278(5) 0.0146(5) 0.000 0.000 0.000
C3 0.027(2) 0.024(2) 0.021(2) 0.000 0.000 0.000
C1 0.0322(17) 0.0279(18) 0.0193(14) 0.0040(13) 0.000 0.000
N1 0.0525(19) 0.0256(15) 0.0193(13) -0.0004(12) 0.000 0.000
C4 0.071(3) 0.0207(17) 0.0227(17) -0.0025(13) 0.000 0.000
C2 0.029(2) 0.024(2) 0.020(2) 0.000 0.000 0.000
F1 0.284(6) 0.0188(12) 0.0216(11) -0.0038(9) 0.000 0.000

_geom_special_details            
;
 All esds (except the esd in the dihedral angle between two l.s. planes)
 are estimated using the full covariance matrix.  The cell esds are taken
 into account individually in the estimation of esds in distances, angles
 and torsion angles; correlations between esds in cell parameters are only
 used when they are defined by crystal symmetry.  An approximate (isotropic)
 treatment of cell esds is used for estimating esds involving l.s. planes.
;

loop_
_geom_bond_atom_site_label_1
_geom_bond_atom_site_label_2
_geom_bond_distance
_geom_bond_site_symmetry_2
_geom_bond_publ_flag
Cu1 N1 2.000(3) . ?
Cu1 N1 2.000(3) 14_656 ?
Cu1 N1 2.000(3) 3_665 ?
Cu1 N1 2.000(3) 5 ?
C3 C4 1.384(4) 3_655 ?
C3 C4 1.384(4) . ?
C3 C2 1.467(6) . ?
C1 N1 1.143(4) . ?
C1 C2 1.407(4) . ?
C4 F1 1.328(4) . ?
C4 C4 1.386(7) 11 ?
C2 C1 1.407(4) 3_655 ?

loop_
_geom_angle_atom_site_label_1
_geom_angle_atom_site_label_2
_geom_angle_atom_site_label_3
_geom_angle
_geom_angle_site_symmetry_1
_geom_angle_site_symmetry_3
_geom_angle_publ_flag
N1 Cu1 N1 109.50(8) . 14_656 ?
N1 Cu1 N1 109.41(16) . 3_665 ?
N1 Cu1 N1 109.50(8) 14_656 3_665 ?
N1 Cu1 N1 109.50(8) . 5 ?
N1 Cu1 N1 109.41(16) 14_656 5 ?
N1 Cu1 N1 109.50(8) 3_665 5 ?
C4 C3 C4 112.4(4) 3_655 . ?
C4 C3 C2 123.8(2) 3_655 . ?
C4 C3 C2 123.8(2) . . ?
N1 C1 C2 176.3(3) . . ?
C1 N1 Cu1 178.9(3) . . ?
F1 C4 C3 119.1(3) . . ?
F1 C4 C4 117.04(17) . 11 ?
C3 C4 C4 123.8(2) . 11 ?
C1 C2 C1 114.7(4) . 3_655 ?
C1 C2 C3 122.67(19) . . ?
C1 C2 C3 122.67(19) 3_655 . ?

_diffrn_measured_fraction_theta_max 0.974
_diffrn_reflns_theta_full        74.26
_diffrn_measured_fraction_theta_full 0.972
_refine_diff_density_max         0.565
_refine_diff_density_min         -0.487
_refine_diff_density_rms         0.072

loop_
_platon_squeeze_void_nr
_platon_squeeze_void_average_x
_platon_squeeze_void_average_y
_platon_squeeze_void_average_z
_platon_squeeze_void_volume
_platon_squeeze_void_count_electrons
_platon_squeeze_void_content
1 -0.020 -0.015 -0.006 781 245 ' '
_platon_squeeze_details          
;
;
