####################################################################### 
# 
# This file contains crystal structure data downloaded from the 
# Cambridge Structural Database (CSD) hosted by the Cambridge 
# Crystallographic Data Centre (CCDC).
# 
# Full information about CCDC data access policies and citation 
# guidelines are available at http://www.ccdc.cam.ac.uk/access/V1 
# 
# Audit and citation data items may have been added by the CCDC. 
# Please retain this information to preserve the provenance of 
# this file and to allow appropriate attribution of the data. 
# 
#######################################################################

data_4
_audit_block_doi                 10.5517/cczfqtx
_database_code_depnum_ccdc_archive 'CCDC 906930'
loop_
_citation_id
_citation_doi
_citation_year
1 10.1021/cg400333d 2013
_audit_update_record             
;
2013-08-30 deposited with the CCDC.	2024-07-10 downloaded from the CCDC.
;

_audit_creation_method           SHELXL-97
_chemical_name_systematic        
; 
 ? 
;
_chemical_name_common            ?
_chemical_melting_point          ?
_chemical_formula_moiety         ?
_chemical_formula_sum            'C15 H84 Cl6 Cu6 Gd2 N6 O72'
_chemical_formula_weight         2409.32

loop_
_platon_squeeze_void_nr
_platon_squeeze_void_average_x
_platon_squeeze_void_average_y
_platon_squeeze_void_average_z
_platon_squeeze_void_volume
_platon_squeeze_void_count_electrons
_platon_squeeze_void_content
1 -0.023 -0.021 -0.014 14181 8062 ' '
_platon_squeeze_details          
;
;


loop_
_atom_type_symbol
_atom_type_description
_atom_type_scat_dispersion_real
_atom_type_scat_dispersion_imag
_atom_type_scat_source
C C 0.0033 0.0016 'International Tables Vol C Tables 4.2.6.8 and 6.1.1.4'
H H 0.0000 0.0000 'International Tables Vol C Tables 4.2.6.8 and 6.1.1.4'
N N 0.0061 0.0033 'International Tables Vol C Tables 4.2.6.8 and 6.1.1.4'
O O 0.0106 0.0060 'International Tables Vol C Tables 4.2.6.8 and 6.1.1.4'
Cl Cl 0.1484 0.1585 'International Tables Vol C Tables 4.2.6.8 and 6.1.1.4'
Cu Cu 0.3201 1.2651 'International Tables Vol C Tables 4.2.6.8 and 6.1.1.4'
Gd Gd -0.1653 3.9035 'International Tables Vol C Tables 4.2.6.8 and 6.1.1.4'

_symmetry_cell_setting           Trigonal
_symmetry_space_group_name_H-M   R-3

loop_
_symmetry_equiv_pos_as_xyz
'x, y, z'
'-y, x-y, z'
'-x+y, -x, z'
'x+2/3, y+1/3, z+1/3'
'-y+2/3, x-y+1/3, z+1/3'
'-x+y+2/3, -x+1/3, z+1/3'
'x+1/3, y+2/3, z+2/3'
'-y+1/3, x-y+2/3, z+2/3'
'-x+y+1/3, -x+2/3, z+2/3'
'-x, -y, -z'
'y, -x+y, -z'
'x-y, x, -z'
'-x+2/3, -y+1/3, -z+1/3'
'y+2/3, -x+y+1/3, -z+1/3'
'x-y+2/3, x+1/3, -z+1/3'
'-x+1/3, -y+2/3, -z+2/3'
'y+1/3, -x+y+2/3, -z+2/3'
'x-y+1/3, x+2/3, -z+2/3'

_cell_length_a                   38.074(10)
_cell_length_b                   38.074(10)
_cell_length_c                   24.316(13)
_cell_angle_alpha                90.00
_cell_angle_beta                 90.00
_cell_angle_gamma                120.00
_cell_volume                     30526(20)
_cell_formula_units_Z            18
_cell_measurement_temperature    293(2)
_cell_measurement_reflns_used    4763
_cell_measurement_theta_min      2.341
_cell_measurement_theta_max      20.625

_exptl_crystal_description       block
_exptl_crystal_colour            blue
_exptl_crystal_size_max          0.14
_exptl_crystal_size_mid          0.06
_exptl_crystal_size_min          0.04
_exptl_crystal_density_meas      ?
_exptl_crystal_density_diffrn    2.359
_exptl_crystal_density_method    'not measured'
_exptl_crystal_F_000             21528
_exptl_absorpt_coefficient_mu    4.153
_exptl_absorpt_correction_type   multi-scan
_exptl_absorpt_correction_T_min  0.515040
_exptl_absorpt_correction_T_max  1.000000
_exptl_absorpt_process_details   ?

_exptl_special_details           
; 
 ? 
;

_diffrn_ambient_temperature      293(2)
_diffrn_radiation_wavelength     0.71073
_diffrn_radiation_type           MoK\a
_diffrn_radiation_source         'fine-focus sealed tube'
_diffrn_radiation_monochromator  graphite
_diffrn_measurement_device_type  'CCD area detector'
_diffrn_measurement_method       'phi and omega scans'
_diffrn_detector_area_resol_mean ?
_diffrn_standards_number         ?
_diffrn_standards_interval_count ?
_diffrn_standards_interval_time  ?
_diffrn_standards_decay_%        ?
_diffrn_reflns_number            50414
_diffrn_reflns_av_R_equivalents  0.1664
_diffrn_reflns_av_sigmaI/netI    0.1523
_diffrn_reflns_limit_h_min       -45
_diffrn_reflns_limit_h_max       44
_diffrn_reflns_limit_k_min       -27
_diffrn_reflns_limit_k_max       45
_diffrn_reflns_limit_l_min       -28
_diffrn_reflns_limit_l_max       26
_diffrn_reflns_theta_min         1.79
_diffrn_reflns_theta_max         25.00
_reflns_number_total             11945
_reflns_number_gt                5712
_reflns_threshold_expression     >2sigma(I)

_computing_data_collection       'Bruker SMART'
_computing_cell_refinement       'Bruker SMART'
_computing_data_reduction        'Bruker SAINT'
_computing_structure_solution    'SHELXS-97 (Sheldrick, 1990)'
_computing_structure_refinement  'SHELXL-97 (Sheldrick, 1997)'
_computing_molecular_graphics    'Bruker SHELXTL'
_computing_publication_material  'Bruker SHELXTL'

_refine_special_details          
; 
 Refinement of F^2^ against ALL reflections.  The weighted R-factor wR and 
 goodness of fit S are based on F^2^, conventional R-factors R are based 
 on F, with F set to zero for negative F^2^. The threshold expression of 
 F^2^ > 2sigma(F^2^) is used only for calculating R-factors(gt) etc. and is 
 not relevant to the choice of reflections for refinement.  R-factors based 
 on F^2^ are statistically about twice as large as those based on F, and R- 
 factors based on ALL data will be even larger. The C-C and C-N bond 
lengths of one Gly ligand were fixed at 1.54 and 1.48 A respectively.
'DELU' was used for n3-c5, n4-c7 and c15-o18 atoms. 'SIMU' limit was used for
six C atoms and three N atoms from three Gly ligands.
;

_refine_ls_structure_factor_coef Fsqd
_refine_ls_matrix_type           full
_refine_ls_weighting_scheme      calc
_refine_ls_weighting_details     
'calc w=1/[\s^2^(Fo^2^)+(0.0273P)^2^+0.0000P] where P=(Fo^2^+2Fc^2^)/3'
_atom_sites_solution_primary     direct
_atom_sites_solution_secondary   difmap
_atom_sites_solution_hydrogens   geom
_refine_ls_hydrogen_treatment    constr
_refine_ls_extinction_method     none
_refine_ls_extinction_coef       ?
_refine_ls_number_reflns         11945
_refine_ls_number_parameters     559
_refine_ls_number_restraints     48
_refine_ls_R_factor_all          0.0993
_refine_ls_R_factor_gt           0.0593
_refine_ls_wR_factor_ref         0.1482
_refine_ls_wR_factor_gt          0.1405
_refine_ls_goodness_of_fit_ref   0.984
_refine_ls_restrained_S_all      0.986
_refine_ls_shift/su_max          0.003
_refine_ls_shift/su_mean         0.000

loop_
_atom_site_label
_atom_site_type_symbol
_atom_site_fract_x
_atom_site_fract_y
_atom_site_fract_z
_atom_site_U_iso_or_equiv
_atom_site_adp_type
_atom_site_occupancy
_atom_site_symmetry_multiplicity
_atom_site_calc_flag
_atom_site_refinement_flags
_atom_site_disorder_assembly
_atom_site_disorder_group
Gd1 Gd 0.562809(19) 1.12459(2) 0.66625(2) 0.0528(2) Uani 1 1 d . . .
Gd2 Gd 0.448856(17) 0.901832(17) 0.825129(19) 0.03941(17) Uani 1 1 d . . .
Cu1 Cu 0.52574(4) 0.99857(4) 0.78976(5) 0.0509(4) Uani 1 1 d . . .
Cu2 Cu 0.36845(4) 0.89711(4) 0.75036(5) 0.0473(4) Uani 1 1 d . . .
Cu3 Cu 0.47464(5) 0.84620(5) 0.73877(5) 0.0559(4) Uani 1 1 d . . .
Cu4 Cu 0.51230(4) 0.97353(4) 0.91923(5) 0.0464(4) Uani 1 1 d . . .
Cu5 Cu 0.46192(5) 0.82253(4) 0.86765(5) 0.0525(4) Uani 1 1 d . . .
Cu6 Cu 0.35375(4) 0.87325(4) 0.88086(5) 0.0531(4) Uani 1 1 d . . .
O1 O 0.5074(2) 0.9421(2) 0.7649(3) 0.0445(19) Uani 1 1 d . . .
O2 O 0.5176(3) 0.9075(3) 0.6972(3) 0.075(3) Uani 1 1 d . . .
O3 O 0.4267(2) 0.9375(2) 0.7621(3) 0.0425(19) Uani 1 1 d . . .
O4 O 0.4748(3) 0.9998(2) 0.7389(3) 0.062(2) Uani 1 1 d . . .
O5 O 0.4329(2) 0.8615(2) 0.7412(3) 0.049(2) Uani 1 1 d . . .
O6 O 0.3848(2) 0.8618(2) 0.6892(3) 0.059(2) Uani 1 1 d . . .
O7 O 0.4941(2) 0.9167(2) 0.9053(3) 0.0428(19) Uani 1 1 d . . .
O8 O 0.5022(3) 0.8658(3) 0.9360(3) 0.063(2) Uani 1 1 d . . .
O9 O 0.4199(2) 0.8394(2) 0.8772(3) 0.0464(19) Uani 1 1 d . . .
O10 O 0.3605(3) 0.8211(2) 0.9172(3) 0.062(2) Uani 1 1 d . . .
O11 O 0.4119(2) 0.91213(19) 0.8991(3) 0.0439(19) Uani 1 1 d . . .
O12 O 0.4506(2) 0.9505(2) 0.9669(3) 0.048(2) Uani 1 1 d . . .
O13 O 0.5563(2) 1.0853(2) 0.7423(3) 0.063(2) Uani 1 1 d . . .
O14 O 0.5435(2) 1.0511(2) 0.8230(3) 0.056(2) Uani 1 1 d . . .
O15 O 0.2668(2) 0.8140(2) 0.9258(4) 0.063(2) Uani 1 1 d . . .
O16 O 0.2984(2) 0.8462(2) 0.8512(3) 0.060(2) Uani 1 1 d . . .
O17 O 0.5105(3) 0.7865(3) 0.9271(3) 0.080(3) Uani 1 1 d . . .
O18 O 0.5023(3) 0.8078(3) 0.8446(3) 0.069(3) Uani 1 1 d U . .
O19 O 0.48628(19) 0.97176(19) 0.8494(2) 0.0416(18) Uani 1 1 d . . .
O20 O 0.3746(2) 0.86696(19) 0.8110(2) 0.0382(18) Uani 1 1 d . . .
O21 O 0.4861(2) 0.8672(2) 0.8138(2) 0.0434(19) Uani 1 1 d . . .
O22 O 0.5725(2) 0.9919(3) 0.8571(3) 0.084(3) Uani 1 1 d . . .
O23 O 0.3531(3) 0.9337(3) 0.8236(4) 0.104(3) Uani 1 1 d . . .
O24 O 0.4216(3) 0.7803(3) 0.7852(3) 0.086(3) Uani 1 1 d . . .
O25 O 0.3094(2) 0.8574(2) 0.7425(3) 0.060(2) Uani 1 1 d . . .
O26 O 0.5177(3) 0.8320(3) 0.7432(3) 0.074(3) Uani 1 1 d . . .
O27 O 0.5289(2) 1.0306(2) 0.9301(3) 0.062(2) Uani 1 1 d . . .
O28 O 0.5691(3) 1.1925(2) 0.6460(3) 0.086(3) Uani 1 1 d . . .
O29 O 0.4938(2) 1.0634(2) 0.6746(4) 0.080(3) Uani 1 1 d . . .
O30 O 0.5577(3) 1.0655(3) 0.6154(4) 0.094(3) Uani 1 1 d . . .
O31 O 0.6273(3) 1.1229(3) 0.6779(4) 0.085(3) Uani 1 1 d . . .
O32 O 0.6102(3) 1.1769(3) 0.7289(4) 0.116(4) Uani 1 1 d . . .
O33 O 0.5196(4) 1.1378(3) 0.7246(4) 0.128(4) Uani 1 1 d . . .
N1 N 0.5638(3) 1.0133(3) 0.7257(4) 0.079(3) Uani 1 1 d U . .
H1C H 0.5589 1.0283 0.7016 0.094 Uiso 1 1 calc R . .
H1D H 0.5895 1.0284 0.7376 0.094 Uiso 1 1 calc R . .
N2 N 0.3725(3) 0.9368(3) 0.6961(4) 0.081(3) Uani 1 1 d . . .
H2A H 0.3699 0.9264 0.6620 0.097 Uiso 1 1 calc R . .
H2B H 0.3523 0.9422 0.7013 0.097 Uiso 1 1 calc R . .
N3 N 0.4504(3) 0.8195(3) 0.6689(4) 0.069(3) Uani 1 1 d DU . .
H3C H 0.4699 0.8254 0.6437 0.082 Uiso 1 1 calc R . .
H3D H 0.4362 0.7925 0.6734 0.082 Uiso 1 1 calc R . .
N4 N 0.5390(3) 0.9672(3) 0.9840(4) 0.058(3) Uani 1 1 d U . .
H4A H 0.5660 0.9836 0.9813 0.070 Uiso 1 1 calc R . .
H4B H 0.5305 0.9741 1.0145 0.070 Uiso 1 1 calc R . .
N5 N 0.4315(4) 0.7808(3) 0.9191(4) 0.080(4) Uani 1 1 d . . .
H5C H 0.4268 0.7568 0.9057 0.096 Uiso 1 1 calc R . .
H5D H 0.4454 0.7857 0.9507 0.096 Uiso 1 1 calc R . .
N6 N 0.3422(3) 0.8891(3) 0.9545(4) 0.090(4) Uani 1 1 d U . .
H6A H 0.3316 0.9055 0.9502 0.108 Uiso 1 1 calc R . .
H6B H 0.3242 0.8669 0.9732 0.108 Uiso 1 1 calc R . .
C1 C 0.5588(4) 0.9764(4) 0.6979(6) 0.098(4) Uani 1 1 d U . .
H1A H 0.5837 0.9756 0.7020 0.117 Uiso 1 1 calc R . .
H1B H 0.5547 0.9785 0.6590 0.117 Uiso 1 1 calc R . .
C2 C 0.5237(4) 0.9367(5) 0.7195(6) 0.075(4) Uani 1 1 d U . .
C3 C 0.4108(4) 0.9734(4) 0.7008(6) 0.089(5) Uani 1 1 d U . .
H3A H 0.4061 0.9948 0.7138 0.107 Uiso 1 1 calc R . .
H3B H 0.4228 0.9811 0.6644 0.107 Uiso 1 1 calc R . .
C4 C 0.4399(4) 0.9711(4) 0.7374(4) 0.053(3) Uani 1 1 d U . .
C5 C 0.4253(4) 0.8336(4) 0.6520(5) 0.084(3) Uani 1 1 d DU . .
H5A H 0.4009 0.8109 0.6370 0.101 Uiso 1 1 calc R . .
H5B H 0.4387 0.8526 0.6222 0.101 Uiso 1 1 calc R . .
C6 C 0.4125(4) 0.8546(4) 0.6961(5) 0.066(3) Uani 1 1 d DU . .
C7 C 0.5296(4) 0.9260(4) 0.9879(5) 0.081(5) Uani 1 1 d U . .
H7A H 0.5127 0.9137 1.0200 0.098 Uiso 1 1 calc R . .
H7B H 0.5546 0.9254 0.9931 0.098 Uiso 1 1 calc R . .
C8 C 0.5085(4) 0.9018(4) 0.9390(4) 0.058(4) Uani 1 1 d . . .
C9 C 0.3893(5) 0.7794(4) 0.9303(5) 0.092(5) Uani 1 1 d . . .
H9A H 0.3674 0.7551 0.9137 0.110 Uiso 1 1 calc R . .
H9B H 0.3844 0.7778 0.9696 0.110 Uiso 1 1 calc R . .
C10 C 0.3888(4) 0.8158(4) 0.9076(4) 0.056(4) Uani 1 1 d . . .
C11 C 0.3809(4) 0.9104(4) 0.9848(5) 0.090(4) Uani 1 1 d U . .
H11A H 0.3818 0.8920 1.0116 0.108 Uiso 1 1 calc R . .
H11B H 0.3819 0.9330 1.0047 0.108 Uiso 1 1 calc R . .
C12 C 0.4179(4) 0.9263(4) 0.9479(5) 0.061(3) Uani 1 1 d U . .
C13 C 0.5534(4) 1.0832(4) 0.7955(5) 0.078(4) Uani 1 1 d . . .
H13A H 0.5587 1.1065 0.8147 0.093 Uiso 1 1 calc R . .
C14 C 0.2688(4) 0.8255(4) 0.8777(5) 0.064(4) Uani 1 1 d . . .
H14A H 0.2441 0.8168 0.8600 0.077 Uiso 1 1 calc R . .
C15 C 0.5192(5) 0.7970(4) 0.8766(5) 0.077(4) Uani 1 1 d U . .
H15A H 0.5415 0.7961 0.8628 0.092 Uiso 1 1 calc R . .

loop_
_atom_site_aniso_label
_atom_site_aniso_U_11
_atom_site_aniso_U_22
_atom_site_aniso_U_33
_atom_site_aniso_U_23
_atom_site_aniso_U_13
_atom_site_aniso_U_12
Gd1 0.0578(4) 0.0630(4) 0.0333(3) 0.0095(3) 0.0066(3) 0.0270(4)
Gd2 0.0533(4) 0.0495(4) 0.0172(3) -0.0046(3) -0.0049(3) 0.0271(3)
Cu1 0.0650(10) 0.0561(10) 0.0241(7) 0.0042(7) 0.0050(7) 0.0247(8)
Cu2 0.0528(10) 0.0593(10) 0.0286(7) -0.0010(7) -0.0078(7) 0.0271(8)
Cu3 0.0737(11) 0.0873(12) 0.0262(8) -0.0192(8) -0.0126(7) 0.0549(10)
Cu4 0.0644(10) 0.0494(9) 0.0207(7) -0.0073(6) -0.0105(7) 0.0249(8)
Cu5 0.0753(11) 0.0619(10) 0.0339(8) -0.0050(7) -0.0111(7) 0.0444(9)
Cu6 0.0538(10) 0.0646(10) 0.0270(8) -0.0117(7) 0.0014(7) 0.0192(8)
O1 0.041(5) 0.064(5) 0.018(4) -0.009(4) 0.006(3) 0.019(4)
O2 0.108(8) 0.064(6) 0.056(6) -0.016(5) 0.031(5) 0.045(6)
O3 0.049(5) 0.048(5) 0.029(4) -0.004(4) -0.002(4) 0.024(4)
O4 0.066(6) 0.055(6) 0.039(5) 0.019(4) -0.002(4) 0.011(5)
O5 0.065(5) 0.066(5) 0.022(4) -0.011(4) -0.005(4) 0.037(5)
O6 0.063(6) 0.114(7) 0.023(4) -0.020(4) -0.020(4) 0.062(6)
O7 0.061(5) 0.045(5) 0.026(4) -0.004(3) -0.011(4) 0.029(4)
O8 0.114(7) 0.085(7) 0.025(4) -0.004(4) -0.021(4) 0.075(6)
O9 0.052(5) 0.057(5) 0.035(4) 0.003(4) -0.002(4) 0.031(4)
O10 0.056(6) 0.072(6) 0.049(5) -0.002(4) 0.003(5) 0.026(5)
O11 0.059(5) 0.037(4) 0.028(4) -0.021(3) -0.003(4) 0.018(4)
O12 0.053(5) 0.054(5) 0.029(4) -0.012(4) -0.010(4) 0.021(4)
O13 0.093(7) 0.038(5) 0.048(5) 0.015(4) 0.006(5) 0.027(5)
O14 0.085(6) 0.065(6) 0.017(4) -0.001(4) -0.005(4) 0.037(5)
O15 0.063(6) 0.039(5) 0.067(6) -0.004(4) 0.002(5) 0.011(4)
O16 0.062(6) 0.058(6) 0.035(5) -0.002(4) 0.001(4) 0.010(5)
O17 0.141(9) 0.118(8) 0.026(5) -0.012(5) -0.024(5) 0.100(7)
O18 0.103(7) 0.099(7) 0.050(5) 0.000(5) -0.002(5) 0.084(6)
O19 0.047(5) 0.045(5) 0.016(4) 0.002(3) -0.007(3) 0.011(4)
O20 0.051(5) 0.048(5) 0.017(4) -0.011(3) -0.002(3) 0.026(4)
O21 0.076(5) 0.058(5) 0.010(3) -0.005(3) -0.008(3) 0.044(4)
O22 0.070(6) 0.114(8) 0.047(5) 0.023(5) -0.006(5) 0.030(6)
O23 0.112(8) 0.106(8) 0.105(8) 0.017(7) 0.036(7) 0.062(7)
O24 0.101(7) 0.103(8) 0.058(6) -0.016(5) -0.010(5) 0.053(6)
O25 0.059(5) 0.049(5) 0.052(5) 0.002(4) -0.019(4) 0.012(4)
O26 0.113(7) 0.116(8) 0.039(5) -0.015(5) -0.016(5) 0.091(7)
O27 0.095(7) 0.040(5) 0.041(5) -0.003(4) -0.002(4) 0.026(5)
O28 0.127(8) 0.055(6) 0.068(6) 0.005(5) -0.012(6) 0.041(6)
O29 0.054(6) 0.076(6) 0.085(7) 0.016(5) -0.002(5) 0.013(5)
O30 0.100(8) 0.108(8) 0.097(7) -0.013(6) -0.026(6) 0.069(7)
O31 0.069(6) 0.107(8) 0.083(7) 0.033(6) 0.009(5) 0.046(6)
O32 0.140(10) 0.109(8) 0.071(7) 0.006(6) -0.027(7) 0.041(8)
O33 0.192(12) 0.123(9) 0.109(9) 0.034(7) 0.084(8) 0.109(9)
N1 0.087(7) 0.072(7) 0.073(7) 0.028(6) 0.031(6) 0.037(6)
N2 0.106(10) 0.087(9) 0.054(7) 0.014(6) -0.002(7) 0.052(8)
N3 0.072(6) 0.105(7) 0.039(5) -0.042(5) -0.015(4) 0.051(5)
N4 0.079(7) 0.069(6) 0.043(6) -0.009(5) -0.010(5) 0.049(6)
N5 0.146(11) 0.076(8) 0.050(7) 0.009(6) -0.006(7) 0.079(8)
N6 0.080(7) 0.084(7) 0.044(6) -0.023(5) 0.021(5) -0.004(6)
C1 0.093(7) 0.088(8) 0.068(7) 0.019(6) 0.032(6) 0.013(7)
C2 0.068(8) 0.080(9) 0.073(8) 0.031(7) 0.015(7) 0.033(7)
C3 0.074(10) 0.055(9) 0.117(13) 0.043(9) -0.017(8) 0.018(9)
C4 0.100(11) 0.047(8) 0.027(6) 0.012(6) 0.004(6) 0.048(9)
C5 0.076(7) 0.123(8) 0.063(6) -0.040(6) -0.025(6) 0.058(6)
C6 0.076(7) 0.101(7) 0.042(6) -0.044(5) -0.025(5) 0.060(6)
C7 0.117(12) 0.062(7) 0.064(9) -0.023(7) -0.063(9) 0.043(9)
C8 0.112(11) 0.083(10) 0.016(6) -0.002(6) -0.003(6) 0.075(10)
C9 0.161(16) 0.078(11) 0.048(9) 0.016(8) -0.013(9) 0.068(11)
C10 0.073(11) 0.044(8) 0.022(6) 0.010(6) -0.002(7) 0.007(8)
C11 0.079(7) 0.099(8) 0.049(6) -0.027(6) 0.013(5) 0.012(7)
C12 0.063(8) 0.080(8) 0.031(6) -0.018(6) -0.009(6) 0.029(7)
C13 0.126(13) 0.066(10) 0.043(9) 0.002(8) 0.005(9) 0.050(10)
C14 0.062(10) 0.073(10) 0.030(7) 0.012(7) 0.007(7) 0.012(8)
C15 0.122(13) 0.099(11) 0.055(9) -0.018(8) -0.025(8) 0.090(10)

_geom_special_details            
; 
 All esds (except the esd in the dihedral angle between two l.s. planes) 
 are estimated using the full covariance matrix.  The cell esds are taken 
 into account individually in the estimation of esds in distances, angles 
 and torsion angles; correlations between esds in cell parameters are only 
 used when they are defined by crystal symmetry.  An approximate (isotropic) 
 treatment of cell esds is used for estimating esds involving l.s. planes. 
;

loop_
_geom_bond_atom_site_label_1
_geom_bond_atom_site_label_2
_geom_bond_distance
_geom_bond_site_symmetry_2
_geom_bond_publ_flag
Gd1 O13 2.313(7) . ?
Gd1 O17 2.358(8) 9_564 ?
Gd1 O15 2.383(8) 8_664 ?
Gd1 O33 2.409(9) . ?
Gd1 O32 2.439(10) . ?
Gd1 O30 2.488(9) . ?
Gd1 O29 2.499(8) . ?
Gd1 O31 2.505(8) . ?
Gd1 O28 2.524(8) . ?
Gd2 O19 2.382(7) . ?
Gd2 O21 2.388(7) . ?
Gd2 O9 2.418(7) . ?
Gd2 O11 2.434(6) . ?
Gd2 O5 2.441(6) . ?
Gd2 O1 2.458(7) . ?
Gd2 O3 2.459(7) . ?
Gd2 O7 2.471(7) . ?
Gd2 O20 2.473(6) . ?
Gd2 Cu4 3.4537(17) . ?
Gd2 Cu5 3.4544(17) . ?
Gd2 Cu