####################################################################### 
# 
# This file contains crystal structure data downloaded from the 
# Cambridge Structural Database (CSD) hosted by the Cambridge 
# Crystallographic Data Centre (CCDC).
# 
# Full information about CCDC data access policies and citation 
# guidelines are available at http://www.ccdc.cam.ac.uk/access/V1 
# 
# Audit and citation data items may have been added by the CCDC. 
# Please retain this information to preserve the provenance of 
# this file and to allow appropriate attribution of the data. 
# 
#######################################################################

data_3
_audit_block_doi                 10.5517/cczfqsw
_database_code_depnum_ccdc_archive 'CCDC 906929'
loop_
_citation_id
_citation_doi
_citation_year
1 10.1021/cg400333d 2013
_audit_update_record             
;
2013-08-30 deposited with the CCDC.	2024-07-10 downloaded from the CCDC.
;

_audit_creation_method           SHELXL-97
_chemical_name_systematic        
; 
 ? 
;
_chemical_name_common            ?
_chemical_melting_point          ?
_chemical_formula_moiety         ?
_chemical_formula_sum            'C15 H82 Cl6 Cu6 Dy2 N6 O71'
_chemical_formula_weight         2401.81

loop_
_platon_squeeze_void_nr
_platon_squeeze_void_average_x
_platon_squeeze_void_average_y
_platon_squeeze_void_average_z
_platon_squeeze_void_volume
_platon_squeeze_void_count_electrons
_platon_squeeze_void_content
1 0.007 0.426 0.589 1793 886 ' '
_platon_squeeze_details          
;
;

loop_
_atom_type_symbol
_atom_type_description
_atom_type_scat_dispersion_real
_atom_type_scat_dispersion_imag
_atom_type_scat_source
C C 0.0033 0.0016 'International Tables Vol C Tables 4.2.6.8 and 6.1.1.4'
H H 0.0000 0.0000 'International Tables Vol C Tables 4.2.6.8 and 6.1.1.4'
N N 0.0061 0.0033 'International Tables Vol C Tables 4.2.6.8 and 6.1.1.4'
O O 0.0106 0.0060 'International Tables Vol C Tables 4.2.6.8 and 6.1.1.4'
Cl Cl 0.1484 0.1585 'International Tables Vol C Tables 4.2.6.8 and 6.1.1.4'
Cu Cu 0.3201 1.2651 'International Tables Vol C Tables 4.2.6.8 and 6.1.1.4'
Dy Dy -0.1892 4.4098 'International Tables Vol C Tables 4.2.6.8 and 6.1.1.4'

_symmetry_cell_setting           Triclinic
_symmetry_space_group_name_H-M   'P-1   '

loop_
_symmetry_equiv_pos_as_xyz
'x, y, z'
'-x, -y, -z'

_cell_length_a                   13.4553(5)
_cell_length_b                   15.1834(5)
_cell_length_c                   20.1340(7)
_cell_angle_alpha                84.834(2)
_cell_angle_beta                 76.451(2)
_cell_angle_gamma                64.080(2)
_cell_volume                     3596.2(2)
_cell_formula_units_Z            2
_cell_measurement_temperature    293(2)
_cell_measurement_reflns_used    9096
_cell_measurement_theta_min      2.193
_cell_measurement_theta_max      29.821

_exptl_crystal_description       block
_exptl_crystal_colour            blue
_exptl_crystal_size_max          0.16
_exptl_crystal_size_mid          0.11
_exptl_crystal_size_min          0.08
_exptl_crystal_density_meas      ?
_exptl_crystal_density_diffrn    2.218
_exptl_crystal_density_method    'not measured'
_exptl_crystal_F_000             2380
_exptl_absorpt_coefficient_mu    4.149
_exptl_absorpt_correction_type   multi-scan
_exptl_absorpt_correction_T_min  0.547596
_exptl_absorpt_correction_T_max  1.000000
_exptl_absorpt_process_details   ?

_exptl_special_details           
; 
 ? 
;

_diffrn_ambient_temperature      293(2)
_diffrn_radiation_wavelength     0.71073
_diffrn_radiation_type           MoK\a
_diffrn_radiation_source         'fine-focus sealed tube'
_diffrn_radiation_monochromator  graphite
_diffrn_measurement_device_type  'CCD area detector'
_diffrn_measurement_method       'phi and omega scans'
_diffrn_detector_area_resol_mean ?
_diffrn_standards_number         ?
_diffrn_standards_interval_count ?
_diffrn_standards_interval_time  ?
_diffrn_standards_decay_%        ?
_diffrn_reflns_number            41197
_diffrn_reflns_av_R_equivalents  0.0478
_diffrn_reflns_av_sigmaI/netI    0.0533
_diffrn_reflns_limit_h_min       -15
_diffrn_reflns_limit_h_max       14
_diffrn_reflns_limit_k_min       -18
_diffrn_reflns_limit_k_max       18
_diffrn_reflns_limit_l_min       -23
_diffrn_reflns_limit_l_max       23
_diffrn_reflns_theta_min         1.72
_diffrn_reflns_theta_max         25.00
_reflns_number_total             12586
_reflns_number_gt                10375
_reflns_threshold_expression     >2sigma(I)

_computing_data_collection       'Bruker SMART'
_computing_cell_refinement       'Bruker SMART'
_computing_data_reduction        'Bruker SAINT'
_computing_structure_solution    'SHELXS-97 (Sheldrick, 1990)'
_computing_structure_refinement  'SHELXL-97 (Sheldrick, 1997)'
_computing_molecular_graphics    'Bruker SHELXTL'
_computing_publication_material  'Bruker SHELXTL'

_refine_special_details          
; 
 Refinement of F^2^ against ALL reflections.  The weighted R-factor wR and 
 goodness of fit S are based on F^2^, conventional R-factors R are based 
 on F, with F set to zero for negative F^2^. The threshold expression of 
 F^2^ > 2sigma(F^2^) is used only for calculating R-factors(gt) etc. and is 
 not relevant to the choice of reflections for refinement.  R-factors based 
 on F^2^ are statistically about twice as large as those based on F, and R- 
 factors based on ALL data will be even larger.'SIMU' limit was used for
six C atoms and three N atoms from three Gly ligands. 
;

_refine_ls_structure_factor_coef Fsqd
_refine_ls_matrix_type           full
_refine_ls_weighting_scheme      calc
_refine_ls_weighting_details     
'calc w=1/[\s^2^(Fo^2^)+(0.0493P)^2^+0.0000P] where P=(Fo^2^+2Fc^2^)/3'
_atom_sites_solution_primary     direct
_atom_sites_solution_secondary   difmap
_atom_sites_solution_hydrogens   geom
_refine_ls_hydrogen_treatment    constr
_refine_ls_extinction_method     none
_refine_ls_extinction_coef       ?
_refine_ls_number_reflns         12586
_refine_ls_number_parameters     550
_refine_ls_number_restraints     36
_refine_ls_R_factor_all          0.0415
_refine_ls_R_factor_gt           0.0355
_refine_ls_wR_factor_ref         0.0966
_refine_ls_wR_factor_gt          0.0944
_refine_ls_goodness_of_fit_ref   1.041
_refine_ls_restrained_S_all      1.047
_refine_ls_shift/su_max          0.001
_refine_ls_shift/su_mean         0.000

loop_
_atom_site_label
_atom_site_type_symbol
_atom_site_fract_x
_atom_site_fract_y
_atom_site_fract_z
_atom_site_U_iso_or_equiv
_atom_site_adp_type
_atom_site_occupancy
_atom_site_symmetry_multiplicity
_atom_site_calc_flag
_atom_site_refinement_flags
_atom_site_disorder_assembly
_atom_site_disorder_group
Dy1 Dy 0.127262(17) 0.052021(14) 0.226265(9) 0.02329(7) Uani 1 1 d . . .
Dy2 Dy 0.46345(2) -0.547018(16) 0.278515(13) 0.03830(8) Uani 1 1 d . . .
Cu1 Cu 0.00171(5) -0.00956(4) 0.38297(3) 0.03147(14) Uani 1 1 d . . .
Cu2 Cu -0.10549(5) 0.25359(4) 0.18663(3) 0.03256(14) Uani 1 1 d . . .
Cu3 Cu 0.26536(5) 0.17244(4) 0.27684(3) 0.03573(15) Uani 1 1 d . . .
Cu4 Cu 0.15722(5) -0.18455(4) 0.26921(3) 0.03038(14) Uani 1 1 d . . .
Cu5 Cu 0.40849(5) 0.00952(4) 0.16853(3) 0.03354(14) Uani 1 1 d . . .
Cu6 Cu 0.05133(5) 0.07946(4) 0.06955(3) 0.03190(14) Uani 1 1 d . . .
O1 O -0.0478(3) 0.0880(2) 0.31170(15) 0.0304(7) Uani 1 1 d . . .
O2 O -0.2022(3) 0.2102(2) 0.28540(16) 0.0421(9) Uani 1 1 d . . .
O3 O 0.0255(3) 0.2304(2) 0.22650(16) 0.0317(7) Uani 1 1 d . . .
O4 O 0.1118(3) 0.3104(2) 0.25993(19) 0.0462(9) Uani 1 1 d . . .
O5 O 0.1665(3) 0.1080(2) 0.32351(15) 0.0333(7) Uani 1 1 d . . .
O6 O 0.0781(3) 0.0801(3) 0.42536(16) 0.0437(9) Uani 1 1 d . . .
O7 O 0.1142(3) -0.0920(2) 0.19211(15) 0.0292(7) Uani 1 1 d . . .
O8 O 0.0669(3) -0.0817(2) 0.09190(16) 0.0385(8) Uani 1 1 d . . .
O9 O 0.3255(3) -0.0720(2) 0.20585(16) 0.0315(7) Uani 1 1 d . . .
O10 O 0.3511(3) -0.2241(2) 0.23051(18) 0.0424(9) Uani 1 1 d . . .
O11 O 0.1923(3) 0.0431(2) 0.10100(14) 0.0320(7) Uani 1 1 d . . .
O12 O 0.3752(3) 0.0046(3) 0.06213(17) 0.0473(9) Uani 1 1 d . . .
O13 O 0.3813(3) 0.2153(3) 0.22567(19) 0.0446(9) Uani 1 1 d . . .
O14 O 0.4820(3) 0.0983(2) 0.14373(19) 0.0443(9) Uani 1 1 d . . .
O15 O 0.1742(3) -0.2605(2) 0.35277(16) 0.0402(9) Uani 1 1 d . . .
O16 O 0.3017(3) -0.4028(2) 0.30353(17) 0.0425(9) Uani 1 1 d . . .
O17 O -0.2146(3) 0.2728(2) 0.13056(17) 0.0408(8) Uani 1 1 d . . .
O18 O -0.3656(3) 0.3782(3) 0.20152(18) 0.0461(9) Uani 1 1 d . . .
O19 O 0.2618(3) 0.1174(2) 0.19530(15) 0.0285(7) Uani 1 1 d . . .
O20 O 0.1433(2) -0.0696(2) 0.31461(14) 0.0258(7) Uani 1 1 d . . .
O21 O -0.0245(2) 0.1118(2) 0.16535(14) 0.0274(7) Uani 1 1 d . . .
O22 O 0.0538(3) -0.1149(2) 0.44958(16) 0.0429(9) Uani 1 1 d . . .
O23 O -0.0927(3) 0.1256(3) 0.03908(16) 0.0414(8) Uani 1 1 d . . .
N1 N -0.1527(4) 0.0634(3) 0.4360(2) 0.0449(11) Uani 1 1 d U . .
H1A H -0.1836 0.0218 0.4524 0.054 Uiso 1 1 calc R . .
H1B H -0.1510 0.0942 0.4716 0.054 Uiso 1 1 calc R . .
N2 N -0.1591(4) 0.3920(3) 0.2163(2) 0.0486(12) Uani 1 1 d . . .
H2A H -0.1899 0.4332 0.1841 0.058 Uiso 1 1 calc R . .
H2B H -0.2125 0.4051 0.2553 0.058 Uiso 1 1 calc R . .
N3 N 0.2555(4) 0.2137(4) 0.3688(2) 0.0570(13) Uani 1 1 d U . .
H3A H 0.3251 0.1975 0.3757 0.068 Uiso 1 1 calc R . .
H3B H 0.2149 0.2790 0.3742 0.068 Uiso 1 1 calc R . .
N4 N 0.1574(4) -0.2796(3) 0.2086(2) 0.0456(11) Uani 1 1 d . . .
H4A H 0.2292 -0.3212 0.1902 0.055 Uiso 1 1 calc R . .
H4B H 0.1223 -0.3146 0.2329 0.055 Uiso 1 1 calc R . .
N5 N 0.5448(4) -0.1146(3) 0.1540(2) 0.0473(11) Uani 1 1 d . . .
H5A H 0.5739 -0.1269 0.1090 0.057 Uiso 1 1 calc R . .
H5B H 0.5974 -0.1117 0.1732 0.057 Uiso 1 1 calc R . .
N6 N 0.1495(4) 0.0511(3) -0.02215(19) 0.0410(10) Uani 1 1 d U . .
H6A H 0.1458 0.0018 -0.0416 0.049 Uiso 1 1 calc R . .
H6B H 0.1262 0.1043 -0.0484 0.049 Uiso 1 1 calc R . .
C1 C -0.2214(5) 0.1359(5) 0.3916(3) 0.0693(19) Uani 1 1 d U . .
H1C H -0.2776 0.1164 0.3842 0.083 Uiso 1 1 calc R . .
H1D H -0.2613 0.1990 0.4151 0.083 Uiso 1 1 calc R . .
C2 C -0.1543(4) 0.1466(4) 0.3251(2) 0.0375(11) Uani 1 1 d U . .
C3 C -0.0658(5) 0.4057(4) 0.2269(3) 0.0548(16) Uani 1 1 d . . .
H3C H -0.0912 0.4499 0.2655 0.066 Uiso 1 1 calc R . .
H3D H -0.0381 0.4359 0.1869 0.066 Uiso 1 1 calc R . .
C4 C 0.0319(4) 0.3085(3) 0.2405(2) 0.0361(11) Uani 1 1 d . . .
C5 C 0.1991(7) 0.1619(6) 0.4172(3) 0.0732(18) Uani 1 1 d U . .
H5C H 0.1433 0.2083 0.4525 0.088 Uiso 1 1 calc R . .
H5D H 0.2553 0.1117 0.4392 0.088 Uiso 1 1 calc R . .
C6 C 0.1415(4) 0.1146(4) 0.3880(2) 0.0392(12) Uani 1 1 d U . .
C7 C 0.0990(6) -0.2272(4) 0.1544(3) 0.0509(15) Uani 1 1 d . . .
H7A H 0.0223 -0.2218 0.1661 0.061 Uiso 1 1 calc R . .
H7B H 0.1373 -0.2650 0.1122 0.061 Uiso 1 1 calc R . .
C8 C 0.0946(4) -0.1256(3) 0.1431(2) 0.0336(11) Uani 1 1 d . . .
C9 C 0.5123(5) -0.1941(4) 0.1863(3) 0.0508(15) Uani 1 1 d . . .
H9A H 0.5439 -0.2480 0.1537 0.061 Uiso 1 1 calc R . .
H9B H 0.5464 -0.2182 0.2255 0.061 Uiso 1 1 calc R . .
C10 C 0.3873(4) -0.1638(4) 0.2090(2) 0.0341(11) Uani 1 1 d . . .
C11 C 0.2627(5) 0.0244(6) -0.0172(3) 0.0676(18) Uani 1 1 d U . .
H11A H 0.2881 0.0704 -0.0435 0.081 Uiso 1 1 calc R . .
H11B H 0.3101 -0.0398 -0.0383 0.081 Uiso 1 1 calc R . .
C12 C 0.2811(4) 0.0216(4) 0.0530(2) 0.0363(11) Uani 1 1 d U . .
C13 C 0.4549(5) 0.1778(4) 0.1736(3) 0.0478(14) Uani 1 1 d . . .
H13A H 0.4958 0.2130 0.1537 0.057 Uiso 1 1 calc R . .
C14 C 0.2421(5) -0.3492(4) 0.3551(3) 0.0482(15) Uani 1 1 d . . .
H14A H 0.2487 -0.3768 0.3979 0.058 Uiso 1 1 calc R . .
C15 C -0.3206(5) 0.3270(4) 0.1509(3) 0.0443(13) Uani 1 1 d . . .
H15A H -0.3678 0.3270 0.1237 0.053 Uiso 1 1 calc R . .
O28 O 0.5063(3) -0.4197(3) 0.2260(2) 0.0623(12) Uani 1 1 d . . .
O27 O 0.5579(4) -0.7141(3) 0.3049(3) 0.0775(15) Uani 1 1 d . . .
O31 O 0.3297(4) -0.6116(3) 0.2820(3) 0.0899(18) Uani 1 1 d . . .
O32 O 0.4077(4) -0.5247(4) 0.1706(2) 0.0864(16) Uani 1 1 d . . .
O30 O 0.3849(5) -0.5624(3) 0.3958(2) 0.0928(18) Uani 1 1 d . . .
O29 O 0.5840(7) -0.5310(5) 0.3389(3) 0.123(2) Uani 1 1 d . . .
O26 O 0.4410(4) 0.0146(3) 0.2905(2) 0.0661(12) Uani 1 1 d . . .
O25 O 0.0261(4) 0.2606(3) 0.0742(2) 0.0694(12) Uani 1 1 d . . .
O24 O -0.0503(3) -0.1188(3) 0.3254(2) 0.0585(11) Uani 1 1 d . . .

loop_
_atom_site_aniso_label
_atom_site_aniso_U_11
_atom_site_aniso_U_22
_atom_site_aniso_U_33
_atom_site_aniso_U_23
_atom_site_aniso_U_13
_atom_site_aniso_U_12
Dy1 0.02140(12) 0.02438(11) 0.02178(11) -0.00163(8) -0.00269(8) -0.00839(9)
Dy2 0.03305(15) 0.02687(12) 0.04540(15) 0.00097(10) -0.00500(11) -0.00605(10)
Cu1 0.0284(3) 0.0336(3) 0.0221(3) 0.0011(2) -0.0011(2) -0.0063(2)
Cu2 0.0295(3) 0.0267(3) 0.0354(3) -0.0032(2) -0.0096(3) -0.0045(2)
Cu3 0.0358(4) 0.0415(3) 0.0354(3) -0.0059(3) -0.0036(3) -0.0224(3)
Cu4 0.0361(3) 0.0260(3) 0.0263(3) 0.0006(2) -0.0073(2) -0.0107(2)
Cu5 0.0242(3) 0.0331(3) 0.0404(3) -0.0013(2) -0.0006(3) -0.0125(3)
Cu6 0.0285(3) 0.0409(3) 0.0221(3) -0.0035(2) -0.0047(2) -0.0107(3)
O1 0.0242(18) 0.0305(16) 0.0271(16) -0.0001(13) -0.0041(13) -0.0040(14)
O2 0.0274(19) 0.0437(19) 0.0335(18) 0.0093(15) -0.0031(15) 0.0009(16)
O3 0.0293(18) 0.0229(15) 0.0426(18) -0.0019(13) -0.0095(15) -0.0098(14)
O4 0.037(2) 0.0346(18) 0.065(2) -0.0091(17) -0.0149(19) -0.0098(17)
O5 0.0360(19) 0.0446(18) 0.0257(17) -0.0014(13) -0.0052(14) -0.0233(16)
O6 0.055(2) 0.049(2) 0.0295(18) -0.0038(15) 0.0001(17) -0.0281(19)
O7 0.0334(19) 0.0283(15) 0.0282(16) 0.0014(12) -0.0134(14) -0.0122(14)
O8 0.052(2) 0.0383(18) 0.0295(17) -0.0030(14) -0.0178(16) -0.0180(17)
O9 0.0209(17) 0.0288(16) 0.0388(18) -0.0002(13) 0.0005(14) -0.0087(14)
O10 0.034(2) 0.0281(17) 0.050(2) 0.0000(15) 0.0021(17) -0.0051(16)
O11 0.0261(18) 0.0478(19) 0.0196(15) -0.0018(13) -0.0033(13) -0.0140(15)
O12 0.032(2) 0.067(2) 0.0367(19) -0.0066(17) 0.0000(16) -0.0186(19)
O13 0.038(2) 0.044(2) 0.056(2) -0.0020(17) -0.0069(18) -0.0237(18)
O14 0.038(2) 0.044(2) 0.057(2) -0.0053(17) -0.0031(17) -0.0250(17)
O15 0.044(2) 0.0278(17) 0.0300(17) 0.0033(13) -0.0048(15) -0.0004(15)
O16 0.037(2) 0.0308(17) 0.042(2) -0.0032(15) -0.0028(17) -0.0018(16)
O17 0.029(2) 0.0400(18) 0.0402(19) -0.0073(15) -0.0053(15) -0.0025(16)
O18 0.036(2) 0.0424(19) 0.049(2) -0.0099(17) -0.0055(17) -0.0062(17)
O19 0.0249(17) 0.0288(15) 0.0286(16) -0.0055(12) -0.0013(13) -0.0096(14)
O20 0.0230(16) 0.0268(15) 0.0212(14) -0.0011(12) -0.0027(12) -0.0056(13)
O21 0.0241(17) 0.0290(15) 0.0228(15) -0.0053(12) -0.0040(13) -0.0052(13)
O22 0.048(2) 0.0384(18) 0.0268(17) 0.0034(14) -0.0030(16) -0.0081(17)
O23 0.036(2) 0.050(2) 0.0323(17) -0.0080(15) -0.0126(15) -0.0091(17)
N1 0.033(2) 0.051(2) 0.034(2) 0.0021(19) 0.0047(19) -0.009(2)
N2 0.045(3) 0.033(2) 0.060(3) -0.007(2) -0.017(2) -0.005(2)
N3 0.056(3) 0.071(3) 0.052(3) -0.016(2) -0.009(2) -0.032(3)
N4 0.064(3) 0.034(2) 0.045(2) 0.0056(19) -0.024(2) -0.022(2)
N5 0.028(2) 0.050(3) 0.059(3) -0.001(2) -0.004(2) -0.015(2)
N6 0.039(2) 0.056(3) 0.027(2) -0.0027(18) -0.0054(18) -0.020(2)
C1 0.037(3) 0.082(4) 0.053(3) 0.028(3) -0.002(3) -0.001(3)
C2 0.028(3) 0.046(3) 0.031(2) -0.004(2) -0.001(2) -0.010(2)
C3 0.055(4) 0.030(3) 0.073(4) -0.003(3) -0.016(3) -0.011(3)
C4 0.036(3) 0.031(2) 0.035(3) -0.002(2) -0.009(2) -0.008(2)
C5 0.084(4) 0.089(4) 0.060(4) -0.008(3) -0.013(3) -0.048(3)
C6 0.040(3) 0.051(3) 0.027(3) -0.010(2) -0.005(2) -0.020(2)
C7 0.074(4) 0.046(3) 0.049(3) 0.000(2) -0.028(3) -0.033(3)
C8 0.041(3) 0.028(2) 0.029(2) -0.0054(19) -0.004(2) -0.012(2)
C9 0.037(3) 0.037(3) 0.063(4) 0.010(3) -0.002(3) -0.007(2)
C10 0.028(3) 0.040(3) 0.029(2) -0.003(2) 0.000(2) -0.013(2)
C11 0.045(3) 0.108(4) 0.036(3) -0.005(3) -0.007(3) -0.019(3)
C12 0.032(3) 0.042(3) 0.027(2) 0.000(2) -0.005(2) -0.009(2)
C13 0.037(3) 0.046(3) 0.061(4) 0.007(3) -0.001(3) -0.024(3)
C14 0.055(4) 0.034(3) 0.036(3) 0.004(2) -0.001(3) -0.006(3)
C15 0.037(3) 0.044(3) 0.050(3) -0.003(3) -0.016(3) -0.012(3)
O28 0.038(2) 0.042(2) 0.091(3) 0.015(2) -0.004(2) -0.0101(18)
O27 0.046(3) 0.053(2) 0.103(4) 0.026(2) -0.011(3) -0.001(2)
O31 0.069(3) 0.056(3) 0.140(5) -0.023(3) 0.006(3) -0.033(3)
O32 0.070(3) 0.131(4) 0.053(3) -0.014(3) -0.017(2) -0.034(3)
O30 0.118(5) 0.066(3) 0.054(3) 0.015(2) 0.005(3) -0.016(3)
O29 0.178(7) 0.135(5) 0.097(4) 0.016(4) -0.087(5) -0.078(5)
O26 0.064(3) 0.076(3) 0.063(3) 0.003(2) -0.016(2) -0.033(2)
O25 0.072(3) 0.069(3) 0.071(3) 0.009(2) -0.018(2) -0.034(2)
O24 0.046(2) 0.065(3) 0.065(3) 0.002(2) -0.013(2) -0.023(2)

_geom_special_details            
; 
 All esds (except the esd in the dihedral angle between two l.s. planes) 
 are estimated using the full covariance matrix.  The cell esds are taken 
 into account individually in the estimation of esds in distances, angles 
 and torsion angles; correlations between esds in cell parameters are only 
 used when they are defined by crystal symmetry.  An approximate (isotropic) 
 treatment of cell esds is used for estimating esds involving l.s. planes. 
;

loop_
_geom_bond_atom_site_label_1
_geom_bond_atom_site_label_2
_geom_bond_distance
_geom_bond_site_symmetry_2
_geom_bond_publ_flag
Dy1 O19 2.363(3) . ?
Dy1 O21 2.419(3) . ?
Dy1 O20 2.420(3) . ?
Dy1 O1 2.439(3) . ?
Dy1 O7 2.440(3) . ?
Dy1 O3 2.443(3) . ?
Dy1 O5 2.452(3) . ?
Dy1 O11 2.463(3) . ?
Dy1 O9 2.463(3) . ?
Dy1 Cu5 3.4678(6) . ?
Dy1 Cu3 3.4676(6) . ?
Dy1 Cu1 3.4691(6) . ?
Dy2 O16 2.302(3) . ?
Dy2 O18 2.312(3) 1_645 ?
Dy2 O29 2.343(6) . ?
Dy2 O28 2.347(4) . ?
Dy2 O27 2.364(4) . ?
Dy2 O31 2.383(5) . ?
Dy2 O3