####################################################################### 
# 
# This file contains crystal structure data downloaded from the 
# Cambridge Structural Database (CSD) hosted by the Cambridge 
# Crystallographic Data Centre (CCDC).
# 
# Full information about CCDC data access policies and citation 
# guidelines are available at http://www.ccdc.cam.ac.uk/access/V1 
# 
# Audit and citation data items may have been added by the CCDC. 
# Please retain this information to preserve the provenance of 
# this file and to allow appropriate attribution of the data. 
# 
#######################################################################

data_4
_audit_block_doi                 10.5517/cc117bxj
_database_code_depnum_ccdc_archive 'CCDC 960377'
loop_
_citation_id
_citation_doi
_citation_year
1 10.1021/cg400606z 2013
_audit_update_record             
;
2013-08-30 deposited with the CCDC.	2024-07-10 downloaded from the CCDC.
;

_audit_creation_method           SHELXL-97
_chemical_name_systematic        ?
_chemical_name_common            ?
_chemical_melting_point          ?
_chemical_formula_moiety         ?
_chemical_formula_sum            'C57 H50 Er4 F18 O40'
_chemical_formula_weight         2386.01

loop_
_atom_type_symbol
_atom_type_description
_atom_type_scat_dispersion_real
_atom_type_scat_dispersion_imag
_atom_type_scat_source
C C 0.0033 0.0016 'International Tables Vol C Tables 4.2.6.8 and 6.1.1.4'
H H 0.0000 0.0000 'International Tables Vol C Tables 4.2.6.8 and 6.1.1.4'
O O 0.0106 0.0060 'International Tables Vol C Tables 4.2.6.8 and 6.1.1.4'
F F 0.0171 0.0103 'International Tables Vol C Tables 4.2.6.8 and 6.1.1.4'
Er Er -0.2586 4.9576 'International Tables Vol C Tables 4.2.6.8 and 6.1.1.4'

_symmetry_cell_setting           triclinic
_symmetry_space_group_name_H-M   'P -1'

loop_
_symmetry_equiv_pos_as_xyz
'x, y, z'
'-x, -y, -z'

_cell_length_a                   8.0722(2)
_cell_length_b                   21.2247(7)
_cell_length_c                   22.7899(8)
_cell_angle_alpha                82.622(2)
_cell_angle_beta                 82.404(2)
_cell_angle_gamma                80.079(2)
_cell_volume                     3790.1(2)
_cell_formula_units_Z            2
_cell_measurement_temperature    150(2)
_cell_measurement_reflns_used    200674
_cell_measurement_theta_min      2.94
_cell_measurement_theta_max      30.51

_exptl_crystal_description       platelet
_exptl_crystal_colour            'translucent light pink'
_exptl_crystal_size_max          0.18
_exptl_crystal_size_mid          0.18
_exptl_crystal_size_min          0.08
_exptl_crystal_density_meas      ?
_exptl_crystal_density_diffrn    2.091
_exptl_crystal_density_method    'not measured'
_exptl_crystal_F_000             2292
_exptl_absorpt_coefficient_mu    4.523
_exptl_absorpt_correction_type   multi-scan
_exptl_absorpt_correction_T_min  0.467
_exptl_absorpt_correction_T_max  0.696
_exptl_absorpt_process_details   'SCALEPACK (Otwinowski & Minor, 1997)'
_exptl_special_details           'crystal-to-detector distance 35 mm'
_diffrn_ambient_temperature      150(2)
_diffrn_radiation_wavelength     0.71073
_diffrn_radiation_type           MoK\a
_diffrn_radiation_source         'fine-focus sealed tube'
_diffrn_radiation_monochromator  graphite
_diffrn_measurement_device_type  'Nonius Kappa-CCD area-detector diffractometer'
_diffrn_measurement_method       
'2 \f and 12 \w scans with 2\% steps (802 frames)'
_diffrn_standards_interval_time  0
_diffrn_standards_number         0
_diffrn_standards_decay_%        0
_diffrn_reflns_number            200674
_diffrn_reflns_av_R_equivalents  0.0566
_diffrn_reflns_av_sigmaI/netI    0.0662
_diffrn_reflns_limit_h_min       -11
_diffrn_reflns_limit_h_max       11
_diffrn_reflns_limit_k_min       -30
_diffrn_reflns_limit_k_max       30
_diffrn_reflns_limit_l_min       -32
_diffrn_reflns_limit_l_max       32
_diffrn_reflns_theta_min         2.94
_diffrn_reflns_theta_max         30.51
_reflns_number_total             23142
_reflns_number_gt                18480
_reflns_threshold_expression     >2sigma(I)

_computing_data_collection       'COLLECT (Nonius, 1998)'
_computing_cell_refinement       'HKL2000 (Otwinowski & Minor, 1997)'
_computing_data_reduction        'HKL2000 (Otwinowski & Minor, 1997)'
_computing_structure_solution    'SHELXS-97 (Sheldrick, 2008)'
_computing_structure_refinement  'SHELXL-97 (Sheldrick, 2008)'
_computing_molecular_graphics    'SHELXTL (Sheldrick, 2008)'
_computing_publication_material  
'SHELXTL (Sheldrick, 2008); PLATON (Spek, 2003)'

_refine_special_details          
;
 Structure solved by direct methods and subsequent Fourier-difference
 synthesis. Some solvent water molecules were given a 0.5 occupancy
 factor in order to retain an acceptable displacement parameter. All 
 non-hydrogen atoms were refined with anisotropic displacement parameters,
 with restraints for some solvent molecules (ISOR 0.01 O39 O41 O42 and
 ISOR 0.05 O40). The H atoms bound to O atoms were found on a 
 Fourier-difference map, except for those of the solvent water molecules; 
 the C-bound H atoms were introduced at calculated positions; all were treated 
 as riding atoms with an isotropic displacement parameter equal to 1.2 times 
 that of the parent atom. 
 Refinement of F^2^ against ALL reflections.  The weighted R-factor wR and 
 goodness of fit S are based on F^2^, conventional R-factors R are based 
 on F, with F set to zero for negative F^2^. The threshold expression of 
 F^2^ > 2sigma(F^2^) is used only for calculating R-factors(gt) etc. and is 
 not relevant to the choice of reflections for refinement.  R-factors based 
 on F^2^ are statistically about twice as large as those based on F, and R- 
 factors based on ALL data will be even larger. 
;
_refine_ls_structure_factor_coef Fsqd
_refine_ls_matrix_type           full
_refine_ls_weighting_scheme      calc
_refine_ls_weighting_details     
'calc w=1/[\s^2^(Fo^2^)+(0.0357P)^2^] where P=(Fo^2^+2Fc^2^)/3'
_atom_sites_solution_primary     direct
_atom_sites_solution_secondary   difmap
_atom_sites_solution_hydrogens   geom
_refine_ls_hydrogen_treatment    constr
_refine_ls_extinction_method     none
_refine_ls_extinction_coef       ?
_refine_ls_number_reflns         23142
_refine_ls_number_parameters     1090
_refine_ls_number_restraints     24
_refine_ls_R_factor_all          0.0454
_refine_ls_R_factor_gt           0.0310
_refine_ls_wR_factor_ref         0.0822
_refine_ls_wR_factor_gt          0.0782
_refine_ls_goodness_of_fit_ref   1.011
_refine_ls_restrained_S_all      1.018
_refine_ls_shift/su_max          0.003
_refine_ls_shift/su_mean         0.000
_diffrn_measured_fraction_theta_max 0.999
_diffrn_reflns_theta_full        30.51
_diffrn_measured_fraction_theta_full 0.999
_refine_diff_density_max         2.107
_refine_diff_density_min         -1.767
_refine_diff_density_rms         0.168

loop_
_atom_site_label
_atom_site_type_symbol
_atom_site_fract_x
_atom_site_fract_y
_atom_site_fract_z
_atom_site_U_iso_or_equiv
_atom_site_adp_type
_atom_site_occupancy
_atom_site_symmetry_multiplicity
_atom_site_calc_flag
_atom_site_refinement_flags
_atom_site_disorder_assembly
_atom_site_disorder_group
Er1 Er 0.197641(17) 0.575463(7) 0.715769(6) 0.01535(4) Uani 1 1 d . . .
Er2 Er 0.613484(17) 0.528900(7) 0.566902(6) 0.01422(4) Uani 1 1 d . . .
Er3 Er 0.535606(18) 0.750947(8) 0.904282(7) 0.01750(4) Uani 1 1 d . . .
Er4 Er 0.760403(18) 0.906389(8) 0.963611(7) 0.01786(4) Uani 1 1 d . . .
O1 O 0.2041(3) 0.46564(13) 0.70424(12) 0.0288(6) Uani 1 1 d . . .
O2 O 0.4308(3) 0.49892(12) 0.65658(10) 0.0205(5) Uani 1 1 d . . .
O3 O 0.4358(3) 0.46230(12) 0.54172(10) 0.0173(5) Uani 1 1 d . . .
O4 O 0.3072(3) 0.39153(12) 0.51070(10) 0.0203(5) Uani 1 1 d . . .
O5 O 0.3502(3) 0.19276(13) 1.02302(10) 0.0214(5) Uani 1 1 d . . .
O6 O 0.5228(3) 0.26200(15) 0.98832(11) 0.0291(6) Uani 1 1 d . . .
O7 O 0.0557(3) 0.16899(14) 0.98635(12) 0.0268(6) Uani 1 1 d . . .
O8 O -0.0470(3) 0.27321(14) 0.97838(12) 0.0328(7) Uani 1 1 d . . .
O9 O 0.3880(3) 0.64430(12) 0.68610(10) 0.0189(5) Uani 1 1 d . . .
O10 O 0.6214(3) 0.60291(12) 0.63073(11) 0.0201(5) Uani 1 1 d . . .
O11 O 0.5010(3) 0.73011(13) 0.81297(11) 0.0220(5) Uani 1 1 d . . .
O12 O 0.6273(3) 0.63928(13) 0.77604(11) 0.0218(5) Uani 1 1 d . . .
O13 O 1.1424(3) 0.60690(12) 0.62102(10) 0.0196(5) Uani 1 1 d . . .
O14 O 1.3712(3) 0.60337(12) 0.55293(10) 0.0186(5) Uani 1 1 d . . .
O15 O 1.2512(3) 0.57880(12) 0.39781(10) 0.0189(5) Uani 1 1 d . . .
O16 O 1.1745(3) 0.53923(12) 0.48985(10) 0.0177(5) Uani 1 1 d . . .
O17 O 0.4410(3) 0.85763(13) 0.87908(11) 0.0233(5) Uani 1 1 d . . .
O18 O 0.4904(3) 0.93187(13) 0.93352(11) 0.0218(5) Uani 1 1 d . . .
O19 O 0.3890(3) 1.07858(13) 0.93963(11) 0.0224(5) Uani 1 1 d . . .
O20 O 0.1651(3) 1.03021(13) 0.96514(11) 0.0244(6) Uani 1 1 d . . .
O21 O -0.2365(3) 0.78449(12) 0.84353(11) 0.0208(5) Uani 1 1 d . . .
O22 O -0.1602(3) 0.86907(13) 0.87606(11) 0.0250(6) Uani 1 1 d . . .
O23 O 0.0677(3) 0.66702(13) 0.75321(11) 0.0229(5) Uani 1 1 d . . .
O24 O 0.0802(3) 0.69832(13) 0.84209(11) 0.0242(6) Uani 1 1 d . . .
O25 O 0.4150(3) 0.54948(14) 0.77876(12) 0.0292(6) Uani 1 1 d . . .
H25A H 0.4843 0.5833 0.7813 0.035 Uiso 1 1 d R . .
H25B H 0.4955 0.5217 0.7718 0.035 Uiso 1 1 d R . .
O26 O 0.0971(3) 0.52725(15) 0.81214(12) 0.0348(7) Uani 1 1 d . . .
H26A H -0.0155 0.5416 0.8140 0.042 Uiso 1 1 d R . .
H26B H 0.1171 0.5572 0.8344 0.042 Uiso 1 1 d R . .
O27 O -0.0905(3) 0.56902(13) 0.71586(11) 0.0241(6) Uani 1 1 d . . .
H27A H -0.1713 0.5913 0.7310 0.029 Uiso 1 1 d R . .
H27B H -0.1199 0.5319 0.7101 0.029 Uiso 1 1 d R . .
O28 O 0.8983(3) 0.53734(13) 0.58407(10) 0.0204(5) Uani 1 1 d . . .
H28A H 0.8940 0.5713 0.6074 0.024 Uiso 1 1 d R . .
H28B H 0.9507 0.5324 0.5528 0.024 Uiso 1 1 d R . .
O29 O 0.2426(3) 0.75649(15) 0.91489(12) 0.0309(7) Uani 1 1 d . . .
H29A H 0.1755 0.7448 0.9474 0.037 Uiso 1 1 d R . .
H29B H 0.2129 0.7372 0.8888 0.037 Uiso 1 1 d R . .
O30 O 0.7885(3) 0.68232(15) 0.92157(13) 0.0351(7) Uani 1 1 d . . .
H30A H 0.8890 0.6976 0.9113 0.042 Uiso 1 1 d R . .
H30B H 0.8085 0.6523 0.9487 0.042 Uiso 1 1 d R . .
O31 O 0.4886(4) 0.64287(15) 0.93013(14) 0.0421(8) Uani 1 1 d . . .
H31A H 0.5660 0.6084 0.9420 0.051 Uiso 1 1 d R . .
H31B H 0.4108 0.6216 0.9305 0.051 Uiso 1 1 d R . .
O32 O 1.0309(3) 0.93404(14) 0.93173(11) 0.0264(6) Uani 1 1 d . . .
H32A H 1.0643 0.9714 0.9351 0.032 Uiso 1 1 d R . .
H32B H 1.0907 0.9093 0.9006 0.032 Uiso 1 1 d R . .
O33 O 0.7189(3) 1.01308(14) 0.91872(12) 0.0292(6) Uani 1 1 d . . .
H33A H 0.6151 1.0150 0.9144 0.035 Uiso 1 1 d R . .
H33B H 0.7248 1.0533 0.9197 0.035 Uiso 1 1 d R . .
O34 O -0.2403(4) 0.12403(16) 0.96070(14) 0.0415(8) Uani 1 1 d . . .
O35 O 0.7638(4) 0.5507(2) 0.86189(16) 0.0738(14) Uani 1 1 d . . .
O36 O 0.2116(4) 0.59180(17) 0.90946(18) 0.0599(11) Uani 1 1 d . . .
O37 O 1.1327(4) 0.56209(18) 0.29091(14) 0.0482(9) Uani 1 1 d . . .
O38 O 0.6406(5) 0.4438(2) 0.80843(18) 0.0767(13) Uani 1 1 d . . .
O39 O -0.0687(14) 0.3942(5) 0.9416(6) 0.124(4) Uani 0.50 1 d PU . .
O40 O 0.5792(10) 0.3765(3) 0.9193(3) 0.0496(17) Uani 0.50 1 d PU . .
O41 O 0.2527(12) 0.4548(5) 0.9067(4) 0.083(3) Uani 0.50 1 d PU . .
O42 O 0.0474(13) 0.3965(5) 0.9873(5) 0.101(3) Uani 0.50 1 d PU . .
F1 F 0.8433(3) 0.24906(15) 0.71340(10) 0.0432(7) Uani 1 1 d . . .
F2 F 0.8266(3) 0.19868(13) 0.80164(10) 0.0371(6) Uani 1 1 d . . .
F3 F 0.7323(3) 0.30013(12) 0.78794(10) 0.0337(5) Uani 1 1 d . . .
F4 F 0.7143(3) 0.14247(12) 0.70456(10) 0.0394(6) Uani 1 1 d . . .
F5 F 0.4447(3) 0.14690(11) 0.72759(10) 0.0352(6) Uani 1 1 d . . .
F6 F 0.6112(3) 0.12007(12) 0.79566(10) 0.0409(6) Uani 1 1 d . . .
F7 F 0.5666(3) 0.80407(11) 0.48986(10) 0.0290(5) Uani 1 1 d . . .
F8 F 0.5374(3) 0.89067(12) 0.53174(10) 0.0320(5) Uani 1 1 d . . .
F9 F 0.6953(3) 0.88135(12) 0.44852(10) 0.0337(6) Uani 1 1 d . . .
F10 F 0.9906(3) 0.88823(12) 0.48298(10) 0.0337(5) Uani 1 1 d . . .
F11 F 0.8190(3) 0.92843(11) 0.55392(10) 0.0315(5) Uani 1 1 d . . .
F12 F 1.0285(3) 0.85472(11) 0.57399(10) 0.0278(5) Uani 1 1 d . . .
F13 F 0.3763(3) 1.03543(11) 0.64858(10) 0.0302(5) Uani 1 1 d . . .
F14 F 0.4634(2) 0.93498(11) 0.66857(10) 0.0281(5) Uani 1 1 d . . .
F15 F 0.3028(3) 0.96761(12) 0.59861(9) 0.0326(5) Uani 1 1 d . . .
F16 F 0.0431(3) 1.07288(11) 0.65079(10) 0.0311(5) Uani 1 1 d . . .
F17 F -0.1136(3) 1.02047(11) 0.71647(10) 0.0305(5) Uani 1 1 d . . .
F18 F -0.0302(3) 0.98618(12) 0.63096(11) 0.0371(6) Uani 1 1 d . . .
C1 C 0.5660(4) 0.23151(18) 0.75622(15) 0.0208(7) Uani 1 1 d . . .
C2 C 0.5088(4) 0.27654(17) 0.70212(15) 0.0187(7) Uani 1 1 d . . .
C3 C 0.4496(4) 0.34139(17) 0.70915(14) 0.0182(7) Uani 1 1 d . . .
H3 H 0.4385 0.3551 0.7468 0.022 Uiso 1 1 calc R . .
C4 C 0.4073(4) 0.38567(17) 0.66114(14) 0.0160(6) Uani 1 1 d . . .
C5 C 0.4151(4) 0.36441(17) 0.60470(14) 0.0165(6) Uani 1 1 d . . .
C6 C 0.4678(4) 0.29986(18) 0.59860(15) 0.0220(7) Uani 1 1 d . . .
H6 H 0.4701 0.2855 0.5616 0.026 Uiso 1 1 calc R . .
C7 C 0.5172(5) 0.25617(18) 0.64552(16) 0.0230(8) Uani 1 1 d . . .
H7 H 0.5559 0.2133 0.6397 0.028 Uiso 1 1 calc R . .
C8 C 0.3455(4) 0.45443(17) 0.67317(14) 0.0176(7) Uani 1 1 d . . .
C9 C 0.3798(4) 0.40847(18) 0.54995(15) 0.0179(7) Uani 1 1 d . . .
C10 C 0.4378(4) 0.23933(17) 0.81179(15) 0.0180(7) Uani 1 1 d . . .
C11 C 0.4848(4) 0.23308(17) 0.86961(15) 0.0204(7) Uani 1 1 d . . .
H11 H 0.5983 0.2298 0.8750 0.024 Uiso 1 1 calc R . .
C12 C 0.3635(4) 0.23167(18) 0.91890(15) 0.0197(7) Uani 1 1 d . . .
C13 C 0.1937(4) 0.23568(17) 0.91196(15) 0.0200(7) Uani 1 1 d . . .
C14 C 0.1447(4) 0.24634(19) 0.85454(16) 0.0227(8) Uani 1 1 d . . .
H14 H 0.0304 0.2525 0.8493 0.027 Uiso 1 1 calc R . .
C15 C 0.2655(4) 0.24775(18) 0.80513(15) 0.0222(7) Uani 1 1 d . . .
H15 H 0.2313 0.2544 0.7671 0.027 Uiso 1 1 calc R . .
C16 C 0.4173(4) 0.22762(18) 0.97917(15) 0.0205(7) Uani 1 1 d . . .
C17 C 0.0586(4) 0.2266(2) 0.96336(16) 0.0229(8) Uani 1 1 d . . .
C18 C 0.7421(5) 0.2455(2) 0.76497(17) 0.0289(9) Uani 1 1 d . . .
C19 C 0.5850(5) 0.15923(19) 0.74581(17) 0.0296(9) Uani 1 1 d . . .
C20 C 0.8022(4) 0.82088(17) 0.53631(15) 0.0178(7) Uani 1 1 d . . .
C21 C 0.7273(4) 0.79477(17) 0.59886(15) 0.0172(7) Uani 1 1 d . . .
C22 C 0.6639(4) 0.73733(18) 0.60349(15) 0.0189(7) Uani 1 1 d . . .
H22 H 0.6616 0.7185 0.5690 0.023 Uiso 1 1 calc R . .
C23 C 0.6037(4) 0.70698(17) 0.65819(14) 0.0169(7) Uani 1 1 d . . .
C24 C 0.6089(4) 0.73563(17) 0.71042(14) 0.0161(6) Uani 1 1 d . . .
C25 C 0.6648(4) 0.79352(18) 0.70529(15) 0.0201(7) Uani 1 1 d . . .
H25 H 0.6622 0.8133 0.7396 0.024 Uiso 1 1 calc R . .
C26 C 0.7258(4) 0.82432(18) 0.65073(15) 0.0197(7) Uani 1 1 d . . .
H26 H 0.7645 0.8634 0.6488 0.024 Uiso 1 1 calc R . .
C27 C 0.5322(4) 0.64601(17) 0.65878(14) 0.0167(7) Uani 1 1 d . . .
C28 C 0.5753(4) 0.69898(18) 0.77100(15) 0.0178(7) Uani 1 1 d . . .
C29 C 0.9169(4) 0.76442(17) 0.50818(15) 0.0177(7) Uani 1 1 d . . .
C30 C 1.0178(4) 0.72129(17) 0.54571(15) 0.0177(7) Uani 1 1 d . . .
H30 H 1.0214 0.7302 0.5844 0.021 Uiso 1 1 calc R . .
C31 C 1.1128(4) 0.66539(17) 0.52601(15) 0.0171(7) Uani 1 1 d . . .
C32 C 1.1068(4) 0.65149(17) 0.46817(15) 0.0178(7) Uani 1 1 d . . .
C33 C 1.0167(4) 0.69635(18) 0.42941(15) 0.0206(7) Uani 1 1 d . . .
H33 H 1.0192 0.6885 0.3901 0.025 Uiso 1 1 calc R . .
C34 C 0.9230(4) 0.75280(18) 0.44844(15) 0.0216(7) Uani 1 1 d . . .
H34 H 0.8647 0.7827 0.4219 0.026 Uiso 1 1 calc R . .
C35 C 1.2182(4) 0.62124(16) 0.56961(15) 0.0163(6) Uani 1 1 d . . .
C36 C 1.1812(4) 0.58682(17) 0.45026(15) 0.0161(7) Uani 1 1 d . . .
C37 C 0.6490(4) 0.85012(19) 0.50080(16) 0.0233(8) Uani 1 1 d . . .
C38 C 0.9097(5) 0.87396(19) 0.53711(16) 0.0242(8) Uani 1 1 d . . .
C39 C 0.1740(4) 0.97220(17) 0.69920(15) 0.0192(7) Uani 1 1 d . . .
C40 C 0.2153(4) 0.99573(18) 0.75665(15) 0.0191(7) Uani 1 1 d . . .
C41 C 0.3104(4) 0.95129(17) 0.79444(15) 0.0185(7) Uani 1 1 d . . .
H41 H 0.3515 0.9104 0.7831 0.022 Uiso 1 1 calc R . .
C42 C 0.3456(4) 0.96615(18) 0.84859(15) 0.0191(7) Uani 1 1 d . . .
C43 C 0.2839(4) 1.02854(18) 0.86485(15) 0.0199(7) Uani 1 1 d . . .
C44 C 0.1934(5) 1.07386(19) 0.82636(16) 0.0246(8) Uani 1 1 d . . .
H44 H 0.1549 1.1152 0.8368 0.030 Uiso 1 1 calc R . .
C45 C 0.1602(5) 1.05761(19) 0.77232(17) 0.0257(8) Uani 1 1 d . . .
H45 H 0.1009 1.0883 0.7466 0.031 Uiso 1 1 calc R . .
C46 C 0.4336(4) 0.91464(18) 0.88964(15) 0.0192(7) Uani 1 1 d . . .
C47 C 0.2841(4) 1.04590(18) 0.92683(15) 0.0201(7) Uani 1 1 d . . .
C48 C 0.1355(4) 0.90297(18) 0.71528(15) 0.0191(7) Uani 1 1 d . . .
C49 C 0.0210(4) 0.89257(18) 0.76539(15) 0.0186(7) Uani 1 1 d . . .
H49 H -0.0347 0.9277 0.7846 0.022 Uiso 1 1 calc R . .
C50 C -0.0131(4) 0.83159(18) 0.78768(15) 0.0180(7) Uani 1 1 d . . .
C51 C 0.0712(4) 0.77801(17) 0.75888(15) 0.0178(7) Uani 1 1 d . . .
C52 C 0.1768(4) 0.78863(18) 0.70647(15) 0.0192(7) Uani 1 1 d . . .
H52 H 0.2264 0.7540 0.6856 0.023 Uiso 1 1 calc R . .
C53 C 0.2102(4) 0.85021(17) 0.68440(15) 0.0201(7) Uani 1 1 d . . .
H53 H 0.2816 0.8562 0.6493 0.024 Uiso 1 1 calc R . .
C54 C -0.1443(4) 0.82641(17) 0.83989(15) 0.0191(7) Uani 1 1 d . . .
C55 C 0.0703(4) 0.70918(18) 0.78657(16) 0.0199(7) Uani 1 1 d . . .
C56 C 0.3299(5) 0.97761(18) 0.65293(16) 0.0227(7) Uani 1 1 d . . .
C57 C 0.0184(5) 1.01360(19) 0.67392(17) 0.0242(8) Uani 1 1 d . . .

loop_
_atom_site_aniso_label
_atom_site_aniso_U_11
_atom_site_aniso_U_22
_atom_site_aniso_U_33
_atom_site_aniso_U_23
_atom_site_aniso_U_13
_atom_site_aniso_U_12
Er1 0.01687(7) 0.01470(8) 0.01431(7) -0.00239(6) -0.00069(5) -0.00222(6)
Er2 0.01541(6) 0.01417(8) 0.01