
#######################################################################
#
#                 Cambridge Crystallographic Data Centre
#                                CCDC
#
#######################################################################
#
# If this CIF has been generated from an entry in the Cambridge
# Structural Database, then it will include bibliographic, chemical,
# crystal, experimental, refinement or atomic coordinate data resulting
# from the CCDC's data processing and validation procedures.
#
#######################################################################

data_CSD_CIF_KIPPEE
_audit_creation_date 1991-10-24
_audit_creation_method CSD-ConQuest-V1
_database_code_CSD KIPPEE
_database_code_depnum_ccdc_archive 'CCDC 1197318'
_chemical_formula_sum 'C2 H10 Be1 F4 N2'
_chemical_formula_moiety
;
C2 H10 N2 2+,Be1 F4 2-
;
_journal_coeditor_code "IUCr DU0219"
_journal_coden_Cambridge 591
_journal_volume 47
_journal_year 1991
_journal_page_first 949
_journal_name_full 'Acta Crystallogr.,Sect.C:Cryst.Struct.Commun. '
loop_
_publ_author_name
"Y.Le Fur"
"S.Aleonard"
"M.F.Gorius"
_chemical_name_systematic
;
Ethylenediammonium tetrafluoro-beryllium(ii)
;
_chemical_name_common
;
Ethylenediammonium orthofluoroberyllate; Teaching Subset: Fundamental 
Chemistry, Symmetry
;
_cell_volume    621.888
_exptl_crystal_density_diffrn 1.571
_exptl_special_details
;
Isotypic with the sulfate

;
_diffrn_ambient_temperature ?
_diffrn_special_details
;
The study was carried out at room temperature,in the range 283-303K

;
#These two values have been output from a single CSD field.
_refine_ls_R_factor_gt 0.038
_refine_ls_wR_factor_gt 0.038
_symmetry_cell_setting tetragonal
_symmetry_space_group_name_H-M 'P 41 21 2'
_symmetry_Int_Tables_number 92
loop_
_symmetry_equiv_pos_site_id
_symmetry_equiv_pos_as_xyz
1 x,y,z
2 1/2-y,1/2+x,1/4+z
3 -x,-y,1/2+z
4 1/2+y,1/2-x,3/4+z
5 y,x,-z
6 1/2+x,1/2-y,3/4-z
7 -y,-x,1/2-z
8 1/2-x,1/2+y,1/4-z
_cell_length_a 5.904(1)
_cell_length_b 5.904(1)
_cell_length_c 17.841(4)
_cell_angle_alpha 90
_cell_angle_beta 90
_cell_angle_gamma 90
_cell_formula_units_Z 4
loop_
_atom_type_symbol
_atom_type_radius_bond
C 0.68
H 0.23
Be 0.51
F 0.64
N 0.68
loop_
_atom_site_label
_atom_site_type_symbol
_atom_site_fract_x
_atom_site_fract_y
_atom_site_fract_z
Be1 Be 0.7231(6) 0.7231(6) 0.00000
F1 F 0.7538(3) 0.4818(3) -0.03147(8)
F2 F 0.8935(3) 0.7638(3) 0.06355(8)
N1 N 0.2865(4) 0.4862(4) 0.3149(1)
C1 C 0.2423(5) 0.7223(5) 0.2914(1)
H1 H 0.080(5) 0.759(5) 0.302(1)
H2 H 0.339(5) 0.831(5) 0.320(1)
H3 H 0.243(6) 0.466(6) 0.363(2)
H4 H 0.459(6) 0.447(6) 0.310(2)
H5 H 0.191(6) 0.378(6) 0.286(2)
F1D F 0.4818(3) 0.7538(3) 0.03147(8)
F2D F 0.7638(3) 0.8935(3) -0.06355(8)
C1F C 0.2777(5) 0.7577(5) 0.2086(1)
N1F N 0.5138(4) 0.7135(4) 0.1851(1)
H1F H 0.241(5) 0.920(5) 0.198(1)
H2F H 0.169(5) 0.661(5) 0.180(1)
H3F H 0.534(6) 0.757(6) 0.137(2)
H4F H 0.553(6) 0.541(6) 0.190(2)
H5F H 0.622(6) 0.809(6) 0.214(2)
#END
