
#######################################################################
#
#                 Cambridge Crystallographic Data Centre
#                                CCDC
#
#######################################################################
#
# If this CIF has been generated from an entry in the Cambridge
# Structural Database, then it will include bibliographic, chemical,
# crystal, experimental, refinement or atomic coordinate data resulting
# from the CCDC's data processing and validation procedures.
#
#######################################################################

data_CSD_CIF_KIRCOD
_audit_creation_date 1991-10-31
_audit_creation_method CSD-ConQuest-V1
_database_code_CSD KIRCOD
_database_code_depnum_ccdc_archive 'CCDC 1197417'
_chemical_formula_sum 'C6 H9 Cl1 N2 O3'
_chemical_formula_moiety
;
C6 H9 Cl1 N2 O3
;
_journal_coden_Cambridge 182
_journal_year 1991
_journal_page_first 538
_journal_name_full 'Chem.Commun. '
loop_
_publ_author_name
"L.Antolini"
"M.Bucciarelli"
"A.Forni"
"I.Moretti"
"F.Prati"
_chemical_name_systematic
;
(-)-(1R,2R)-(E)-1-Chloro-2-methoxycarbonyl-2-methylcarbamoylaziridine
;
_chemical_name_common
;
Teaching Subset: Fundamental Chemistry
;
_cell_volume    876.059
_exptl_crystal_colour 'colorless'
_exptl_crystal_density_diffrn 1.46
_exptl_special_details
;
Absolute configuration

;
_diffrn_ambient_temperature ?
_diffrn_special_details
;
The study was carried out at room temperature,in the range 283-303K

;
#These two values have been output from a single CSD field.
_refine_ls_R_factor_gt 0.0272
_refine_ls_wR_factor_gt 0.0272
loop_
_citation_database_id_CSD
_citation_special_details
KUBZOW "is a stereoisomer of this entry"
_symmetry_cell_setting orthorhombic
_symmetry_space_group_name_H-M 'P 21 21 21'
_symmetry_Int_Tables_number 19
loop_
_symmetry_equiv_pos_site_id
_symmetry_equiv_pos_as_xyz
1 x,y,z
2 1/2+x,1/2-y,-z
3 -x,1/2+y,1/2-z
4 1/2-x,-y,1/2+z
_cell_length_a 4.722(1)
_cell_length_b 10.847(1)
_cell_length_c 17.104(2)
_cell_angle_alpha 90
_cell_angle_beta 90
_cell_angle_gamma 90
_cell_formula_units_Z 4
loop_
_atom_type_symbol
_atom_type_radius_bond
C 0.68
H 0.23
Cl 0.99
N 0.68
O 0.68
loop_
_atom_site_label
_atom_site_type_symbol
_atom_site_fract_x
_atom_site_fract_y
_atom_site_fract_z
Cl1 Cl 0.8745(2) 0.41281(6) 0.79084(3)
N1 N 0.9329(4) 0.5443(2) 0.73298(9)
C1 C 0.6676(5) 0.6045(2) 0.7087(1)
C2 C 0.8232(4) 0.5282(2) 0.6508(1)
C3 C 1.0071(4) 0.5973(2) 0.5931(1)
O1 O 1.1510(4) 0.6834(1) 0.60979(9)
O2 O 0.9750(3) 0.5520(1) 0.52115(8)
C4 C 1.1432(7) 0.6116(3) 0.4613(1)
C5 C 0.6933(4) 0.4065(2) 0.6268(1)
O3 O 0.4379(3) 0.3940(2) 0.6236(1)
N2 N 0.8751(4) 0.3178(2) 0.6102(1)
C6 C 0.7874(7) 0.1934(3) 0.5911(2)
H1 H 0.486(5) 0.572(2) 0.726(1)
H2 H 0.670(5) 0.697(2) 0.707(1)
H3 H 1.075(6) 0.572(2) 0.408(1)
H4 H 1.341(6) 0.604(2) 0.470(1)
H5 H 1.108(6) 0.696(2) 0.459(1)
H6 H 1.044(5) 0.327(2) 0.618(1)
H7 H 0.943(8) 0.151(3) 0.574(2)
H8 H 0.650(9) 0.192(3) 0.553(2)
H9 H 0.734(8) 0.154(3) 0.633(2)
#END
