####################################################################### 
# 
# This file contains crystal structure data downloaded from the 
# Cambridge Structural Database (CSD) hosted by the Cambridge 
# Crystallographic Data Centre (CCDC).
# 
# Full information about CCDC data access policies and citation 
# guidelines are available at http://www.ccdc.cam.ac.uk/access/V1 
# 
# Audit and citation data items may have been added by the CCDC. 
# Please retain this information to preserve the provenance of 
# this file and to allow appropriate attribution of the data. 
# 
#######################################################################

data_pa123
_audit_block_doi                 10.5517/ccn8w6z
_database_code_depnum_ccdc_archive 'CCDC 604351'
loop_
_citation_id
_citation_doi
_citation_year
1 10.1016/j.poly.2007.08.011 2007
_audit_update_record             
;
2006-04-12 deposited with the CCDC.	2024-07-11 downloaded from the CCDC.
;

_audit_creation_method           SHELXL-97
_chemical_name_systematic        
;
?
;
_chemical_name_common            ?
_chemical_melting_point          ?
_chemical_formula_moiety         'C24 H24 Eu N6 O12'
_chemical_formula_sum            'C24 H24 Eu N6 O12'
_chemical_formula_weight         740.45

loop_
_atom_type_symbol
_atom_type_description
_atom_type_scat_dispersion_real
_atom_type_scat_dispersion_imag
_atom_type_scat_source
C C 0.0033 0.0016 'International Tables Vol C Tables 4.2.6.8 and 6.1.1.4'
H H 0.0000 0.0000 'International Tables Vol C Tables 4.2.6.8 and 6.1.1.4'
N N 0.0061 0.0033 'International Tables Vol C Tables 4.2.6.8 and 6.1.1.4'
O O 0.0106 0.0060 'International Tables Vol C Tables 4.2.6.8 and 6.1.1.4'
Eu Eu -0.1578 3.6682 'International Tables Vol C Tables 4.2.6.8 and 6.1.1.4'

_symmetry_cell_setting           Trigonal
_symmetry_space_group_name_H-M   P-3c1
_symmetry_space_group_name_Hall  '-P 3 2"c'

loop_
_symmetry_equiv_pos_as_xyz
'x, y, z'
'-y, x-y, z'
'-x+y, -x, z'
'y, x, -z+1/2'
'x-y, -y, -z+1/2'
'-x, -x+y, -z+1/2'
'-x, -y, -z'
'y, -x+y, -z'
'x-y, x, -z'
'-y, -x, z-1/2'
'-x+y, y, z-1/2'
'x, x-y, z-1/2'

_cell_length_a                   15.9869(6)
_cell_length_b                   15.9869(6)
_cell_length_c                   16.5270(13)
_cell_angle_alpha                90.00
_cell_angle_beta                 90.00
_cell_angle_gamma                120.00
_cell_volume                     3658.1(3)
_cell_formula_units_Z            4
_cell_measurement_temperature    293(2)
_cell_measurement_reflns_used    7252
_cell_measurement_theta_min      2.46
_cell_measurement_theta_max      26.01

_exptl_crystal_description       prism
_exptl_crystal_colour            yellow
_exptl_crystal_size_max          0.35
_exptl_crystal_size_mid          0.24
_exptl_crystal_size_min          0.11
_exptl_crystal_density_meas      ?
_exptl_crystal_density_diffrn    1.344
_exptl_crystal_density_method    'not measured'
_exptl_crystal_F_000             1476
_exptl_absorpt_coefficient_mu    1.771
_exptl_absorpt_correction_type   multi-scan
_exptl_absorpt_correction_T_min  0.451
_exptl_absorpt_correction_T_max  0.689
_exptl_absorpt_process_details   ?

_exptl_special_details           
;
?
;

_diffrn_ambient_temperature      293(2)
_diffrn_radiation_wavelength     0.71073
_diffrn_radiation_type           MoK\a
_diffrn_radiation_source         'fine-focus sealed tube'
_diffrn_radiation_monochromator  graphite
_diffrn_measurement_device_type  'Bruker CCD area detector'
_diffrn_measurement_method       'phi and omega scans'
_diffrn_detector_area_resol_mean ?
_diffrn_standards_number         ?
_diffrn_standards_interval_count ?
_diffrn_standards_interval_time  ?
_diffrn_standards_decay_%        ?
_diffrn_reflns_number            19587
_diffrn_reflns_av_R_equivalents  0.0263
_diffrn_reflns_av_sigmaI/netI    0.0142
_diffrn_reflns_limit_h_min       -19
_diffrn_reflns_limit_h_max       17
_diffrn_reflns_limit_k_min       -15
_diffrn_reflns_limit_k_max       19
_diffrn_reflns_limit_l_min       -17
_diffrn_reflns_limit_l_max       20
_diffrn_reflns_theta_min         1.47
_diffrn_reflns_theta_max         26.05
_reflns_number_total             2419
_reflns_number_gt                1861
_reflns_threshold_expression     >2sigma(I)

_computing_data_collection       'Bruker SMART'
_computing_cell_refinement       'Bruker SMART'
_computing_data_reduction        'Bruker SAINT'
_computing_structure_solution    'SHELXS-97 (Sheldrick, 1990)'
_computing_structure_refinement  'SHELXL-97 (Sheldrick, 1997)'
_computing_molecular_graphics    'Bruker SHELXTL'
_computing_publication_material  'Bruker SHELXTL'

_refine_special_details          
;
Refinement of F^2^ against ALL reflections. The weighted R-factor wR and
goodness of fit S are based on F^2^, conventional R-factors R are based
on F, with F set to zero for negative F^2^. The threshold expression of
F^2^ > 2sigma(F^2^) is used only for calculating R-factors(gt) etc. and is
not relevant to the choice of reflections for refinement. R-factors based
on F^2^ are statistically about twice as large as those based on F, and R-
factors based on ALL data will be even larger.
;

_refine_ls_structure_factor_coef Fsqd
_refine_ls_matrix_type           full
_refine_ls_weighting_scheme      calc
_refine_ls_weighting_details     
'calc w=1/[\s^2^(Fo^2^)+(0.0699P)^2^+1.4941P] where P=(Fo^2^+2Fc^2^)/3'
_atom_sites_solution_primary     direct
_atom_sites_solution_secondary   difmap
_atom_sites_solution_hydrogens   geom
_refine_ls_hydrogen_treatment    mixed
_refine_ls_extinction_method     none
_refine_ls_extinction_coef       ?
_refine_ls_number_reflns         2419
_refine_ls_number_parameters     134
_refine_ls_number_restraints     0
_refine_ls_R_factor_all          0.0425
_refine_ls_R_factor_gt           0.0331
_refine_ls_wR_factor_ref         0.1173
_refine_ls_wR_factor_gt          0.1082
_refine_ls_goodness_of_fit_ref   1.131
_refine_ls_restrained_S_all      1.131
_refine_ls_shift/su_max          0.001
_refine_ls_shift/su_mean         0.000

loop_
_atom_site_label
_atom_site_type_symbol
_atom_site_fract_x
_atom_site_fract_y
_atom_site_fract_z
_atom_site_U_iso_or_equiv
_atom_site_adp_type
_atom_site_occupancy
_atom_site_symmetry_multiplicity
_atom_site_calc_flag
_atom_site_refinement_flags
_atom_site_disorder_assembly
_atom_site_disorder_group
C8 C -0.0131(3) 0.3754(3) 0.2948(2) 0.0590(9) Uani 1 1 d . . .
H8A H -0.0823 0.3480 0.3002 0.071 Uiso 1 1 calc R . .
H8B H 0.0036 0.3298 0.3178 0.071 Uiso 1 1 calc R . .
O1 O 0.1944(2) 0.60265(16) 0.41291(18) 0.0516(6) Uani 1 1 d . . .
Eu1 Eu 0.3333 0.6667 0.335868(19) 0.04519(16) Uani 1 3 d S . .
N1 N 0.0351(2) 0.4642(2) 0.34015(19) 0.0521(7) Uani 1 1 d . . .
C6 C 0.0401(2) 0.5896(2) 0.4230(2) 0.0502(8) Uani 1 1 d . . .
C1 C 0.1399(2) 0.6344(2) 0.4430(2) 0.0471(7) Uani 1 1 d . . .
C2 C 0.1759(3) 0.7126(3) 0.4959(3) 0.0636(10) Uani 1 1 d . . .
H2 H 0.2405 0.7423 0.5112 0.076 Uiso 1 1 calc R . .
C5 C -0.0162(3) 0.6265(3) 0.4556(3) 0.0659(10) Uani 1 1 d . . .
H5 H -0.0815 0.5966 0.4428 0.079 Uiso 1 1 calc R . .
C3 C 0.1193(3) 0.7474(3) 0.5264(3) 0.0677(10) Uani 1 1 d . . .
H3 H 0.1462 0.8001 0.5614 0.081 Uiso 1 1 calc R . .
C4 C 0.0222(3) 0.7049(4) 0.5056(3) 0.0706(12) Uani 1 1 d . . .
H4 H -0.0157 0.7293 0.5253 0.085 Uiso 1 1 calc R . .
C7 C -0.0063(3) 0.5064(3) 0.3738(2) 0.0543(9) Uani 1 1 d . . .
H7 H -0.0722 0.4800 0.3651 0.065 Uiso 1 1 calc R . .
O2 O 0.2286(2) 0.4881(2) 0.3002(2) 0.0627(7) Uani 1 1 d . . .
O3 O 0.3563(2) 0.5687(2) 0.22705(18) 0.0723(8) Uani 1 1 d . . .
N2 N 0.2792(3) 0.4893(3) 0.2409(2) 0.0677(9) Uani 1 1 d . . .
O4 O 0.2542(3) 0.4186(3) 0.1991(2) 0.1085(13) Uani 1 1 d . . .
H1 H 0.090(3) 0.490(2) 0.349(2) 0.044(10) Uiso 1 1 d . . .

loop_
_atom_site_aniso_label
_atom_site_aniso_U_11
_atom_site_aniso_U_22
_atom_site_aniso_U_33
_atom_site_aniso_U_23
_atom_site_aniso_U_13
_atom_site_aniso_U_12
C8 0.058(2) 0.0485(19) 0.060(2) -0.0040(16) -0.0098(17) 0.0187(17)
O1 0.0395(14) 0.0484(13) 0.0667(17) -0.0052(11) 0.0003(12) 0.0219(10)
Eu1 0.03845(18) 0.03845(18) 0.0587(3) 0.000 0.000 0.01922(9)
N1 0.0418(17) 0.0491(17) 0.0578(19) -0.0027(13) -0.0057(14) 0.0169(14)
C6 0.0446(18) 0.057(2) 0.0511(19) 0.0011(15) -0.0006(15) 0.0273(16)
C1 0.0424(17) 0.0448(17) 0.0503(19) 0.0038(14) 0.0038(14) 0.0188(15)
C2 0.048(2) 0.062(2) 0.073(3) -0.0110(19) 0.0002(17) 0.0214(18)
C5 0.052(2) 0.085(3) 0.071(3) -0.005(2) -0.0036(18) 0.042(2)
C3 0.067(2) 0.066(2) 0.069(3) -0.0135(19) 0.0049(19) 0.032(2)
C4 0.073(3) 0.088(3) 0.067(3) -0.012(2) 0.003(2) 0.053(2)
C7 0.043(2) 0.063(2) 0.056(2) 0.0004(17) -0.0047(17) 0.0260(17)
O2 0.0548(15) 0.0515(16) 0.079(2) -0.0106(14) 0.0019(13) 0.0246(13)
O3 0.0584(17) 0.0709(19) 0.082(2) -0.0131(16) 0.0095(15) 0.0284(16)
N2 0.064(2) 0.073(2) 0.077(2) -0.0228(19) -0.0107(19) 0.042(2)
O4 0.108(3) 0.087(2) 0.120(3) -0.055(2) 0.000(2) 0.040(2)

_geom_special_details            
;
All esds (except the esd in the dihedral angle between two l.s. planes)
are estimated using the full covariance matrix. The cell esds are taken
into account individually in the estimation of esds in distances, angles
and torsion angles; correlations between esds in cell parameters are only
used when they are defined by crystal symmetry. An approximate (isotropic)
treatment of cell esds is used for estimating esds involving l.s. planes.
;

loop_
_geom_bond_atom_site_label_1
_geom_bond_atom_site_label_2
_geom_bond_distance
_geom_bond_site_symmetry_2
_geom_bond_publ_flag
C8 N1 1.440(4) . ?
C8 C8 1.525(8) 6 ?
C8 H8A 0.9700 . ?
C8 H8B 0.9700 . ?
O1 C1 1.307(4) . ?
O1 Eu1 2.309(3) . ?
Eu1 O1 2.309(3) 3_565 ?
Eu1 O1 2.309(3) 2_665 ?
Eu1 O3 2.529(3) 3_565 ?
Eu1 O3 2.529(3) 2_665 ?
Eu1 O3 2.529(3) . ?
Eu1 O2 2.553(3) 3_565 ?
Eu1 O2 2.553(3) . ?
Eu1 O2 2.553(3) 2_665 ?
Eu1 N2 2.967(3) 3_565 ?
Eu1 N2 2.967(3) 2_665 ?
N1 C7 1.284(5) . ?
N1 H1 0.77(3) . ?
C6 C5 1.407(5) . ?
C6 C7 1.413(5) . ?
C6 C1 1.423(5) . ?
C1 C2 1.392(5) . ?
C2 C3 1.373(5) . ?
C2 H2 0.9300 . ?
C5 C4 1.363(6) . ?
C5 H5 0.9300 . ?
C3 C4 1.391(6) . ?
C3 H3 0.9300 . ?
C4 H4 0.9300 . ?
C7 H7 0.9300 . ?
O2 N2 1.265(5) . ?
O3 N2 1.273(5) . ?
N2 O4 1.208(4) . ?

loop_
_geom_angle_atom_site_label_1
_geom_angle_atom_site_label_2
_geom_angle_atom_site_label_3
_geom_angle
_geom_angle_site_symmetry_1
_geom_angle_site_symmetry_3
_geom_angle_publ_flag
N1 C8 C8 113.3(3) . 6 ?
N1 C8 H8A 108.9 . . ?
C8 C8 H8A 108.9 6 . ?
N1 C8 H8B 108.9 . . ?
C8 C8 H8B 108.9 6 . ?
H8A C8 H8B 107.7 . . ?
C1 O1 Eu1 135.9(2) . . ?
O1 Eu1 O1 92.51(10) 3_565 . ?
O1 Eu1 O1 92.51(10) 3_565 2_665 ?
O1 Eu1 O1 92.51(10) . 2_665 ?
O1 Eu1 O3 121.55(9) 3_565 3_565 ?
O1 Eu1 O3 80.31(10) . 3_565 ?
O1 Eu1 O3 145.26(9) 2_665 3_565 ?
O1 Eu1 O3 80.31(10) 3_565 2_665 ?
O1 Eu1 O3 145.26(9) . 2_665 ?
O1 Eu1 O3 121.55(9) 2_665 2_665 ?
O3 Eu1 O3 75.01(11) 3_565 2_665 ?
O1 Eu1 O3 145.26(9) 3_565 . ?
O1 Eu1 O3 121.55(9) . . ?
O1 Eu1 O3 80.31(10) 2_665 . ?
O3 Eu1 O3 75.01(11) 3_565 . ?
O3 Eu1 O3 75.01(11) 2_665 . ?
O1 Eu1 O2 71.59(8) 3_565 3_565 ?
O1 Eu1 O2 76.14(9) . 3_565 ?
O1 Eu1 O2 159.69(11) 2_665 3_565 ?
O3 Eu1 O2 50.26(10) 3_565 3_565 ?
O3 Eu1 O2 69.32(10) 2_665 3_565 ?
O3 Eu1 O2 119.96(10) . 3_565 ?
O1 Eu1 O2 159.69(11) 3_565 . ?
O1 Eu1 O2 71.59(8) . . ?
O1 Eu1 O2 76.14(9) 2_665 . ?
O3 Eu1 O2 69.32(10) 3_565 . ?
O3 Eu1 O2 119.96(10) 2_665 . ?
O3 Eu1 O2 50.26(10) . . ?
O2 Eu1 O2 114.83(6) 3_565 . ?
O1 Eu1 O2 76.14(9) 3_565 2_665 ?
O1 Eu1 O2 159.69(11) . 2_665 ?
O1 Eu1 O2 71.59(8) 2_665 2_665 ?
O3 Eu1 O2 119.96(10) 3_565 2_665 ?
O3 Eu1 O2 50.26(10) 2_665 2_665 ?
O3 Eu1 O2 69.32(10) . 2_665 ?
O2 Eu1 O2 114.83(6) 3_565 2_665 ?
O2 Eu1 O2 114.83(6) . 2_665 ?
O1 Eu1 N2 96.44(10) 3_565 3_565 ?
O1 Eu1 N2 77.81(10) . 3_565 ?
O1 Eu1 N2 167.06(9) 2_665 3_565 ?
O3 Eu1 N2 25.19(10) 3_565 3_565 ?
O3 Eu1 N2 69.42(10) 2_665 3_565 ?
O3 Eu1 N2 97.32(11) . 3_565 ?
O2 Eu1 N2 25.09(10) 3_565 3_565 ?
O2 Eu1 N2 92.50(10) . 3_565 ?
O2 Eu1 N2 119.67(10) 2_665 3_565 ?
O1 Eu1 N2 77.81(10) 3_565 2_665 ?
O1 Eu1 N2 167.06(9) . 2_665 ?
O1 Eu1 N2 96.44(10) 2_665 2_665 ?
O3 Eu1 N2 97.32(11) 3_565 2_665 ?
O3 Eu1 N2 25.19(10) 2_665 2_665 ?
O3 Eu1 N2 69.42(10) . 2_665 ?
O2 Eu1 N2 92.51(10) 3_565 2_665 ?
O2 Eu1 N2 119.67(10) . 2_665 ?
O2 Eu1 N2 25.09(10) 2_665 2_665 ?
N2 Eu1 N2 94.59(11) 3_565 2_665 ?
C7 N1 C8 125.5(4) . . ?
C7 N1 H1 112(3) . . ?
C8 N1 H1 122(3) . . ?
C5 C6 C7 118.1(3) . . ?
C5 C6 C1 119.4(3) . . ?
C7 C6 C1 122.5(3) . . ?
O1 C1 C2 122.1(3) . . ?
O1 C1 C6 120.9(3) . . ?
C2 C1 C6 117.1(3) . . ?
C3 C2 C1 122.2(4) . . ?
C3 C2 H2 118.9 . . ?
C1 C2 H2 118.9 . . ?
C4 C5 C6 121.9(4) . . ?
C4 C5 H5 119.1 . . ?
C6 C5 H5 119.1 . . ?
C2 C3 C4 120.7(4) . . ?
C2 C3 H3 119.6 . . ?
C4 C3 H3 119.6 . . ?
C5 C4 C3 118.7(4) . . ?
C5 C4 H4 120.7 . . ?
C3 C4 H4 120.7 . . ?
N1 C7 C6 125.4(4) . . ?
N1 C7 H7 117.3 . . ?
C6 C7 H7 117.3 . . ?
N2 O2 Eu1 96.1(2) . . ?
N2 O3 Eu1 97.1(2) . . ?
O4 N2 O2 121.2(4) . . ?
O4 N2 O3 122.3(4) . . ?
O2 N2 O3 116.5(3) . . ?

loop_
_geom_hbond_atom_site_label_D
_geom_hbond_atom_site_label_H
_geom_hbond_atom_site_label_A
_geom_hbond_distance_DH
_geom_hbond_distance_HA
_geom_hbond_distance_DA
_geom_hbond_angle_DHA
_geom_hbond_site_symmetry_A
N1 H1 O1 0.77(3) 2.03(4) 2.682(4) 141(3) .
N1 H1 O2 0.77(3) 2.38(3) 2.995(4) 138(3) .
C3 H3 O4 0.93 2.74 3.427(6) 131.4 12_566

_diffrn_measured_fraction_theta_max 1.000
_diffrn_reflns_theta_full        26.05
_diffrn_measured_fraction_theta_full 1.000
_refine_diff_density_max         1.216
_refine_diff_density_min         -0.294
_refine_diff_density_rms         0.144


