####################################################################### 
# 
# This file contains crystal structure data downloaded from the 
# Cambridge Structural Database (CSD) hosted by the Cambridge 
# Crystallographic Data Centre (CCDC).
# 
# Full information about CCDC data access policies and citation 
# guidelines are available at http://www.ccdc.cam.ac.uk/access/V1 
# 
# Audit and citation data items may have been added by the CCDC. 
# Please retain this information to preserve the provenance of 
# this file and to allow appropriate attribution of the data. 
# 
#######################################################################

data_shelxl
_audit_block_doi                 10.5517/ccp4h8k
_database_code_depnum_ccdc_archive 'CCDC 629928'
loop_
_citation_id
_citation_doi
_citation_year
1 10.1016/j.poly.2007.08.011 2007
_audit_update_record             
;
2006-12-06 deposited with the CCDC.	2024-07-11 downloaded from the CCDC.
;

_audit_creation_method           SHELXL-97
_chemical_name_systematic        
;
?
;
_chemical_name_common            ?
_chemical_melting_point          ?
_chemical_formula_moiety         'C24 H24 N6 O12 Pr'
_chemical_formula_sum            'C24 H24 N6 O12 Pr'
_chemical_formula_weight         729.40

loop_
_atom_type_symbol
_atom_type_description
_atom_type_scat_dispersion_real
_atom_type_scat_dispersion_imag
_atom_type_scat_source
C C 0.0033 0.0016 'International Tables Vol C Tables 4.2.6.8 and 6.1.1.4'
H H 0.0000 0.0000 'International Tables Vol C Tables 4.2.6.8 and 6.1.1.4'
Pr Pr -0.2180 2.8214 'International Tables Vol C Tables 4.2.6.8 and 6.1.1.4'
N N 0.0061 0.0033 'International Tables Vol C Tables 4.2.6.8 and 6.1.1.4'
O O 0.0106 0.0060 'International Tables Vol C Tables 4.2.6.8 and 6.1.1.4'

_symmetry_cell_setting           trigonal
_symmetry_space_group_name_H-M   'P -3 c 1'
_symmetry_space_group_name_Hall  '-P 3 2"c'

loop_
_symmetry_equiv_pos_as_xyz
'x, y, z'
'-y, x-y, z'
'-x+y, -x, z'
'y, x, -z+1/2'
'-x, -x+y, -z+1/2'
'x-y, -y, -z+1/2'
'-x, -y, -z'
'y, -x+y, -z'
'x-y, x, -z'
'-y, -x, z-1/2'
'x, x-y, z-1/2'
'-x+y, y, z-1/2'

_cell_length_a                   16.084(2)
_cell_length_b                   16.084(2)
_cell_length_c                   16.348(3)
_cell_angle_alpha                90.00
_cell_angle_beta                 90.00
_cell_angle_gamma                120.00
_cell_volume                     3662.5(9)
_cell_formula_units_Z            4
_cell_measurement_temperature    291(2)
_cell_measurement_reflns_used    20990
_cell_measurement_theta_min      6.36
_cell_measurement_theta_max      54.96

_exptl_crystal_description       block
_exptl_crystal_colour            yellow
_exptl_crystal_size_max          0.2978
_exptl_crystal_size_mid          0.2541
_exptl_crystal_size_min          0.1989
_exptl_crystal_density_meas      ?
_exptl_crystal_density_diffrn    1.323
_exptl_crystal_density_method    'not measured'
_exptl_crystal_F_000             1460
_exptl_absorpt_coefficient_mu    1.387
_exptl_absorpt_correction_type   multi-scan
_exptl_absorpt_correction_T_min  0.658
_exptl_absorpt_correction_T_max  0.785
_exptl_absorpt_process_details   'ABSCOR (Higashi, 1995)'

_exptl_special_details           
;
?
;

_diffrn_ambient_temperature      291(2)
_diffrn_radiation_wavelength     0.71073
_diffrn_radiation_type           MoK\a
_diffrn_radiation_source         'fine-focus sealed tube'
_diffrn_radiation_monochromator  graphite
_diffrn_measurement_device_type  'Rigaku RAXIS-RAPID'
_diffrn_measurement_method       '\w scan'
_diffrn_detector_area_resol_mean ?
_diffrn_standards_number         0
_diffrn_standards_interval_count 0
_diffrn_standards_interval_time  0
_diffrn_standards_decay_%        0
_diffrn_reflns_number            32043
_diffrn_reflns_av_R_equivalents  0.0633
_diffrn_reflns_av_sigmaI/netI    0.0320
_diffrn_reflns_limit_h_min       -20
_diffrn_reflns_limit_h_max       20
_diffrn_reflns_limit_k_min       -20
_diffrn_reflns_limit_k_max       20
_diffrn_reflns_limit_l_min       -21
_diffrn_reflns_limit_l_max       19
_diffrn_reflns_theta_min         3.55
_diffrn_reflns_theta_max         27.48
_reflns_number_total             2798
_reflns_number_gt                1952
_reflns_threshold_expression     >2sigma(I)

_computing_data_collection       'RAPID-AUTO (Rigaku Corporation, 1998)'
_computing_cell_refinement       RAPID-AUTO
_computing_data_reduction        
'CrystalStructure (Rigaku/MSC and Rigaku Corporation, 2002)'
_computing_structure_solution    'SHELXS-97 (Sheldrick, 1990)'
_computing_structure_refinement  'SHELXL-97 (Sheldrick, 1997)'
_computing_molecular_graphics    ?
_computing_publication_material  SHELXL-97

_refine_special_details          
;
Refinement of F^2^ against ALL reflections. The weighted R-factor wR and
goodness of fit S are based on F^2^, conventional R-factors R are based
on F, with F set to zero for negative F^2^. The threshold expression of
F^2^ > 2sigma(F^2^) is used only for calculating R-factors(gt) etc. and is
not relevant to the choice of reflections for refinement. R-factors based
on F^2^ are statistically about twice as large as those based on F, and R-
factors based on ALL data will be even larger.
;

_refine_ls_structure_factor_coef Fsqd
_refine_ls_matrix_type           full
_refine_ls_weighting_scheme      calc
_refine_ls_weighting_details     
'calc w=1/[\s^2^(Fo^2^)+(0.0613P)^2^+8.0127P] where P=(Fo^2^+2Fc^2^)/3'
_atom_sites_solution_primary     direct
_atom_sites_solution_secondary   difmap
_atom_sites_solution_hydrogens   geom
_refine_ls_hydrogen_treatment    mixed
_refine_ls_extinction_method     none
_refine_ls_extinction_coef       ?
_refine_ls_number_reflns         2798
_refine_ls_number_parameters     134
_refine_ls_number_restraints     7
_refine_ls_R_factor_all          0.0665
_refine_ls_R_factor_gt           0.0461
_refine_ls_wR_factor_ref         0.1428
_refine_ls_wR_factor_gt          0.1310
_refine_ls_goodness_of_fit_ref   1.040
_refine_ls_restrained_S_all      1.049
_refine_ls_shift/su_max          0.001
_refine_ls_shift/su_mean         0.000

loop_
_atom_site_label
_atom_site_type_symbol
_atom_site_fract_x
_atom_site_fract_y
_atom_site_fract_z
_atom_site_U_iso_or_equiv
_atom_site_adp_type
_atom_site_occupancy
_atom_site_symmetry_multiplicity
_atom_site_calc_flag
_atom_site_refinement_flags
_atom_site_disorder_assembly
_atom_site_disorder_group
C1 C 0.5029(3) 0.1369(3) 0.0536(3) 0.0504(11) Uani 1 1 d . . .
C2 C 0.4604(4) 0.1731(4) -0.0002(3) 0.0633(13) Uani 1 1 d . . .
H2 H 0.4956 0.2365 -0.0177 0.076 Uiso 1 1 calc R . .
C3 C 0.3677(4) 0.1163(4) -0.0277(4) 0.0691(14) Uani 1 1 d . . .
H3 H 0.3407 0.1427 -0.0617 0.083 Uiso 1 1 calc R . .
C4 C 0.3137(4) 0.0202(5) -0.0055(3) 0.0731(16) Uani 1 1 d . . .
H4 H 0.2513 -0.0175 -0.0246 0.088 Uiso 1 1 calc R . .
C5 C 0.3536(4) -0.0176(4) 0.0447(3) 0.0672(14) Uani 1 1 d . . .
H5 H 0.3179 -0.0821 0.0589 0.081 Uiso 1 1 calc R . .
C6 C 0.4468(3) 0.0376(3) 0.0755(3) 0.0514(11) Uani 1 1 d . . .
C7 C 0.4846(4) -0.0071(4) 0.1257(3) 0.0573(13) Uani 1 1 d . . .
H6 H 0.4455 -0.0724 0.1358 0.069 Uiso 1 1 calc R . .
C8 C 0.6093(4) -0.0135(4) 0.2047(3) 0.0608(13) Uani 1 1 d . . .
H7 H 0.6710 0.0026 0.1812 0.073 Uiso 1 1 calc R . .
H8 H 0.5674 -0.0824 0.1996 0.073 Uiso 1 1 calc R . .
N1 N 0.5687(3) 0.0349(3) 0.1586(2) 0.0530(9) Uani 1 1 d D . .
N2 N 0.7886(4) 0.2764(4) 0.2571(3) 0.0705(13) Uani 1 1 d . . .
O1 O 0.5885(2) 0.1906(2) 0.0826(2) 0.0554(8) Uani 1 1 d . . .
O3 O 0.7891(3) 0.3535(3) 0.2716(3) 0.0764(11) Uani 1 1 d . . .
O2 O 0.7391(3) 0.2254(3) 0.1980(2) 0.0647(9) Uani 1 1 d . . .
O4 O 0.8332(4) 0.2499(4) 0.2985(3) 0.1052(15) Uani 1 1 d U . .
Pr1 Pr 0.6667 0.3333 0.16014(3) 0.04852(18) Uani 1 3 d S . .
H1 H 0.602(3) 0.0943(11) 0.149(3) 0.052(14) Uiso 1 1 d D . .

loop_
_atom_site_aniso_label
_atom_site_aniso_U_11
_atom_site_aniso_U_22
_atom_site_aniso_U_33
_atom_site_aniso_U_23
_atom_site_aniso_U_13
_atom_site_aniso_U_12
C1 0.049(3) 0.043(2) 0.057(3) -0.007(2) -0.001(2) 0.021(2)
C2 0.068(3) 0.049(3) 0.073(3) 0.002(2) -0.012(3) 0.030(3)
C3 0.067(3) 0.069(4) 0.073(3) -0.001(3) -0.013(3) 0.036(3)
C4 0.055(3) 0.077(4) 0.072(3) -0.005(3) -0.017(3) 0.021(3)
C5 0.054(3) 0.056(3) 0.072(3) 0.004(3) -0.002(3) 0.013(2)
C6 0.050(3) 0.046(2) 0.051(2) 0.002(2) 0.001(2) 0.019(2)
C7 0.062(3) 0.043(2) 0.056(3) 0.006(2) 0.011(2) 0.019(2)
C8 0.067(3) 0.061(3) 0.062(3) 0.010(2) 0.009(2) 0.038(3)
N1 0.057(3) 0.044(2) 0.056(2) 0.0045(19) 0.0009(19) 0.025(2)
N2 0.060(3) 0.071(3) 0.077(3) 0.014(3) -0.016(2) 0.030(2)
O1 0.0517(19) 0.0423(17) 0.069(2) -0.0021(15) -0.0093(16) 0.0214(15)
O3 0.072(3) 0.065(2) 0.086(3) -0.010(2) -0.028(2) 0.029(2)
O2 0.057(2) 0.057(2) 0.078(2) 0.0006(18) -0.0144(18) 0.0271(18)
O4 0.1053(17) 0.1052(17) 0.1061(18) 0.0035(10) -0.0065(10) 0.0533(11)
Pr1 0.04142(19) 0.04142(19) 0.0627(3) 0.000 0.000 0.02071(10)

_geom_special_details            
;
All esds (except the esd in the dihedral angle between two l.s. planes)
are estimated using the full covariance matrix. The cell esds are taken
into account individually in the estimation of esds in distances, angles
and torsion angles; correlations between esds in cell parameters are only
used when they are defined by crystal symmetry. An approximate (isotropic)
treatment of cell esds is used for estimating esds involving l.s. planes.
;

loop_
_geom_bond_atom_site_label_1
_geom_bond_atom_site_label_2
_geom_bond_distance
_geom_bond_site_symmetry_2
_geom_bond_publ_flag
C1 O1 1.295(5) . ?
C1 C2 1.406(7) . ?
C1 C6 1.432(6) . ?
C2 C3 1.378(7) . ?
C2 H2 0.9300 . ?
C3 C4 1.389(8) . ?
C3 H3 0.9300 . ?
C4 C5 1.358(8) . ?
C4 H4 0.9300 . ?
C5 C6 1.400(7) . ?
C5 H5 0.9300 . ?
C6 C7 1.412(7) . ?
C7 N1 1.289(6) . ?
C7 H6 0.9300 . ?
C8 N1 1.453(6) . ?
C8 C8 1.529(10) 6 ?
C8 H7 0.9700 . ?
C8 H8 0.9700 . ?
N1 H1 0.844(10) . ?
N2 O4 1.210(6) . ?
N2 O2 1.258(6) . ?
N2 O3 1.259(6) . ?
O1 Pr1 2.360(3) . ?
O3 Pr1 2.582(4) . ?
O2 Pr1 2.604(4) . ?
Pr1 O1 2.360(3) 2_655 ?
Pr1 O1 2.360(3) 3_665 ?
Pr1 O3 2.582(4) 3_665 ?
Pr1 O3 2.582(4) 2_655 ?
Pr1 O2 2.604(4) 2_655 ?
Pr1 O2 2.604(4) 3_665 ?
Pr1 N2 2.998(5) 3_665 ?
Pr1 N2 2.998(5) 2_655 ?

loop_
_geom_angle_atom_site_label_1
_geom_angle_atom_site_label_2
_geom_angle_atom_site_label_3
_geom_angle
_geom_angle_site_symmetry_1
_geom_angle_site_symmetry_3
_geom_angle_publ_flag
O1 C1 C2 121.8(4) . . ?
O1 C1 C6 121.3(4) . . ?
C2 C1 C6 116.9(4) . . ?
C3 C2 C1 121.2(5) . . ?
C3 C2 H2 119.4 . . ?
C1 C2 H2 119.4 . . ?
C2 C3 C4 121.3(5) . . ?
C2 C3 H3 119.3 . . ?
C4 C3 H3 119.3 . . ?
C5 C4 C3 118.9(5) . . ?
C5 C4 H4 120.6 . . ?
C3 C4 H4 120.6 . . ?
C4 C5 C6 122.0(5) . . ?
C4 C5 H5 119.0 . . ?
C6 C5 H5 119.0 . . ?
C5 C6 C7 118.9(5) . . ?
C5 C6 C1 119.6(4) . . ?
C7 C6 C1 121.5(4) . . ?
N1 C7 C6 125.5(5) . . ?
N1 C7 H6 117.3 . . ?
C6 C7 H6 117.3 . . ?
N1 C8 C8 112.8(4) . 6 ?
N1 C8 H7 109.0 . . ?
C8 C8 H7 109.0 6 . ?
N1 C8 H8 109.0 . . ?
C8 C8 H8 109.0 6 . ?
H7 C8 H8 107.8 . . ?
C7 N1 C8 124.8(4) . . ?
C7 N1 H1 115(3) . . ?
C8 N1 H1 120(4) . . ?
O4 N2 O2 119.5(6) . . ?
O4 N2 O3 121.9(5) . . ?
O2 N2 O3 118.6(4) . . ?
C1 O1 Pr1 135.9(3) . . ?
N2 O3 Pr1 96.5(3) . . ?
N2 O2 Pr1 95.5(3) . . ?
O1 Pr1 O1 93.88(12) . 2_655 ?
O1 Pr1 O1 93.88(12) . 3_665 ?
O1 Pr1 O1 93.88(12) 2_655 3_665 ?
O1 Pr1 O3 120.23(12) . . ?
O1 Pr1 O3 79.09(13) 2_655 . ?
O1 Pr1 O3 145.37(13) 3_665 . ?
O1 Pr1 O3 79.09(13) . 3_665 ?
O1 Pr1 O3 145.37(13) 2_655 3_665 ?
O1 Pr1 O3 120.23(12) 3_665 3_665 ?
O3 Pr1 O3 75.65(16) . 3_665 ?
O1 Pr1 O3 145.37(13) . 2_655 ?
O1 Pr1 O3 120.23(12) 2_655 2_655 ?
O1 Pr1 O3 79.09(13) 3_665 2_655 ?
O3 Pr1 O3 75.65(16) . 2_655 ?
O3 Pr1 O3 75.65(16) 3_665 2_655 ?
O1 Pr1 O2 71.20(11) . . ?
O1 Pr1 O2 76.09(12) 2_655 . ?
O1 Pr1 O2 161.05(13) 3_665 . ?
O3 Pr1 O2 49.34(13) . . ?
O3 Pr1 O2 69.52(13) 3_665 . ?
O3 Pr1 O2 119.83(14) 2_655 . ?
O1 Pr1 O2 161.05(13) . 2_655 ?
O1 Pr1 O2 71.20(11) 2_655 2_655 ?
O1 Pr1 O2 76.09(12) 3_665 2_655 ?
O3 Pr1 O2 69.52(13) . 2_655 ?
O3 Pr1 O2 119.83(14) 3_665 2_655 ?
O3 Pr1 O2 49.34(13) 2_655 2_655 ?
O2 Pr1 O2 114.53(7) . 2_655 ?
O1 Pr1 O2 76.09(12) . 3_665 ?
O1 Pr1 O2 161.05(13) 2_655 3_665 ?
O1 Pr1 O2 71.20(11) 3_665 3_665 ?
O3 Pr1 O2 119.83(14) . 3_665 ?
O3 Pr1 O2 49.34(13) 3_665 3_665 ?
O3 Pr1 O2 69.52(13) 2_655 3_665 ?
O2 Pr1 O2 114.53(7) . 3_665 ?
O2 Pr1 O2 114.53(7) 2_655 3_665 ?
O1 Pr1 N2 77.12(13) . 3_665 ?
O1 Pr1 N2 167.29(13) 2_655 3_665 ?
O1 Pr1 N2 95.65(14) 3_665 3_665 ?
O3 Pr1 N2 97.53(15) . 3_665 ?
O3 Pr1 N2 24.67(13) 3_665 3_665 ?
O3 Pr1 N2 70.01(14) 2_655 3_665 ?
O2 Pr1 N2 92.36(13) . 3_665 ?
O2 Pr1 N2 119.35(13) 2_655 3_665 ?
O2 Pr1 N2 24.70(13) 3_665 3_665 ?
O1 Pr1 N2 167.29(13) . 2_655 ?
O1 Pr1 N2 95.65(14) 2_655 2_655 ?
O1 Pr1 N2 77.12(13) 3_665 2_655 ?
O3 Pr1 N2 70.01(14) . 2_655 ?
O3 Pr1 N2 97.53(15) 3_665 2_655 ?
O3 Pr1 N2 24.67(13) 2_655 2_655 ?
O2 Pr1 N2 119.35(13) . 2_655 ?
O2 Pr1 N2 24.70(13) 2_655 2_655 ?
O2 Pr1 N2 92.36(13) 3_665 2_655 ?
N2 Pr1 N2 94.65(15) 3_665 2_655 ?

loop_
_geom_hbond_atom_site_label_D
_geom_hbond_atom_site_label_H
_geom_hbond_atom_site_label_A
_geom_hbond_distance_DH
_geom_hbond_distance_HA
_geom_hbond_distance_DA
_geom_hbond_angle_DHA
_geom_hbond_site_symmetry_A
N1 H1 O1 0.844(10) 1.99(4) 2.668(5) 136(4) .
N1 H1 O2 0.844(10) 2.30(3) 2.986(5) 139(4) .
C3 H3 O4 0.93 2.75 3.409(8) 128.4 12_655

_diffrn_measured_fraction_theta_max 0.995
_diffrn_reflns_theta_full        27.48
_diffrn_measured_fraction_theta_full 0.995
_refine_diff_density_max         0.921
_refine_diff_density_min         -0.997
_refine_diff_density_rms         0.086


