####################################################################### 
# 
# This file contains crystal structure data downloaded from the 
# Cambridge Structural Database (CSD) hosted by the Cambridge 
# Crystallographic Data Centre (CCDC).
# 
# Full information about CCDC data access policies and citation 
# guidelines are available at http://www.ccdc.cam.ac.uk/access/V1 
# 
# Audit and citation data items may have been added by the CCDC. 
# Please retain this information to preserve the provenance of 
# this file and to allow appropriate attribution of the data. 
# 
#######################################################################

data_pa120m
_audit_block_doi                 10.5517/ccn8w4x
_database_code_depnum_ccdc_archive 'CCDC 604349'
loop_
_citation_id
_citation_doi
_citation_year
1 10.1016/j.poly.2007.08.011 2007
_audit_update_record             
;
2006-04-12 deposited with the CCDC.	2024-07-10 downloaded from the CCDC.
;

_audit_creation_method           SHELXL-97
_chemical_name_systematic        
;
?
;
_chemical_name_common            ?
_chemical_melting_point          ?
_chemical_formula_moiety         'C24 H24 N6 O12 Sm'
_chemical_formula_sum            'C24 H24 N6 O12 Sm'
_chemical_formula_weight         738.84

loop_
_atom_type_symbol
_atom_type_description
_atom_type_scat_dispersion_real
_atom_type_scat_dispersion_imag
_atom_type_scat_source
C C 0.0033 0.0016 'International Tables Vol C Tables 4.2.6.8 and 6.1.1.4'
H H 0.0000 0.0000 'International Tables Vol C Tables 4.2.6.8 and 6.1.1.4'
N N 0.0061 0.0033 'International Tables Vol C Tables 4.2.6.8 and 6.1.1.4'
O O 0.0106 0.0060 'International Tables Vol C Tables 4.2.6.8 and 6.1.1.4'
Sm Sm -0.1638 3.4418 'International Tables Vol C Tables 4.2.6.8 and 6.1.1.4'

_symmetry_cell_setting           Trigonal
_symmetry_space_group_name_H-M   P-3c1
_symmetry_space_group_name_Hall  '-P 3 2"c'


loop_
_symmetry_equiv_pos_as_xyz
'x, y, z'
'-y, x-y, z'
'-x+y, -x, z'
'y, x, -z+1/2'
'x-y, -y, -z+1/2'
'-x, -x+y, -z+1/2'
'-x, -y, -z'
'y, -x+y, -z'
'x-y, x, -z'
'-y, -x, z-1/2'
'-x+y, y, z-1/2'
'x, x-y, z-1/2'

_cell_length_a                   16.029(2)
_cell_length_b                   16.029(2)
_cell_length_c                   16.522(5)
_cell_angle_alpha                90.00
_cell_angle_beta                 90.00
_cell_angle_gamma                120.00
_cell_volume                     3676.1(14)
_cell_formula_units_Z            4
_cell_measurement_temperature    293(2)
_cell_measurement_reflns_used    3154
_cell_measurement_theta_min      2.47
_cell_measurement_theta_max      21.01

_exptl_crystal_description       prism
_exptl_crystal_colour            yellow
_exptl_crystal_size_max          0.37
_exptl_crystal_size_mid          0.21
_exptl_crystal_size_min          0.04
_exptl_crystal_density_meas      ?
_exptl_crystal_density_diffrn    1.335
_exptl_crystal_density_method    'not measured'
_exptl_crystal_F_000             1472
_exptl_absorpt_coefficient_mu    1.654
_exptl_absorpt_correction_type   multi-scan
_exptl_absorpt_correction_T_min  0.523
_exptl_absorpt_correction_T_max  0.784
_exptl_absorpt_process_details   ?

_exptl_special_details           
;
?
;

_diffrn_ambient_temperature      293(2)
_diffrn_radiation_wavelength     0.71073
_diffrn_radiation_type           MoK\a
_diffrn_radiation_source         'fine-focus sealed tube'
_diffrn_radiation_monochromator  graphite
_diffrn_measurement_device_type  'Bruker CCD area detector'
_diffrn_measurement_method       'phi and omega scans'
_diffrn_detector_area_resol_mean ?
_diffrn_standards_number         ?
_diffrn_standards_interval_count ?
_diffrn_standards_interval_time  ?
_diffrn_standards_decay_%        ?
_diffrn_reflns_number            19528
_diffrn_reflns_av_R_equivalents  0.0629
_diffrn_reflns_av_sigmaI/netI    0.0370
_diffrn_reflns_limit_h_min       -15
_diffrn_reflns_limit_h_max       19
_diffrn_reflns_limit_k_min       -18
_diffrn_reflns_limit_k_max       19
_diffrn_reflns_limit_l_min       -18
_diffrn_reflns_limit_l_max       20
_diffrn_reflns_theta_min         1.47
_diffrn_reflns_theta_max         26.05
_reflns_number_total             2435
_reflns_number_gt                1657
_reflns_threshold_expression     >2sigma(I)

_computing_data_collection       'Bruker SMART'
_computing_cell_refinement       'Bruker SMART'
_computing_data_reduction        'Bruker SAINT'
_computing_structure_solution    'SHELXS-97 (Sheldrick, 1990)'
_computing_structure_refinement  'SHELXL-97 (Sheldrick, 1997)'
_computing_molecular_graphics    'Bruker SHELXTL'
_computing_publication_material  'Bruker SHELXTL'

_refine_special_details          
;
Refinement of F^2^ against ALL reflections. The weighted R-factor wR and
goodness of fit S are based on F^2^, conventional R-factors R are based
on F, with F set to zero for negative F^2^. The threshold expression of
F^2^ > 2sigma(F^2^) is used only for calculating R-factors(gt) etc. and is
not relevant to the choice of reflections for refinement. R-factors based
on F^2^ are statistically about twice as large as those based on F, and R-
factors based on ALL data will be even larger.
;

_refine_ls_structure_factor_coef Fsqd
_refine_ls_matrix_type           full
_refine_ls_weighting_scheme      calc
_refine_ls_weighting_details     
'calc w=1/[\s^2^(Fo^2^)+(0.0702P)^2^+1.2208P] where P=(Fo^2^+2Fc^2^)/3'
_atom_sites_solution_primary     direct
_atom_sites_solution_secondary   difmap
_atom_sites_solution_hydrogens   geom
_refine_ls_hydrogen_treatment    mixed
_refine_ls_extinction_method     none
_refine_ls_extinction_coef       ?
_refine_ls_number_reflns         2435
_refine_ls_number_parameters     134
_refine_ls_number_restraints     0
_refine_ls_R_factor_all          0.0769
_refine_ls_R_factor_gt           0.0468
_refine_ls_wR_factor_ref         0.1391
_refine_ls_wR_factor_gt          0.1241
_refine_ls_goodness_of_fit_ref   1.120
_refine_ls_restrained_S_all      1.120
_refine_ls_shift/su_max          0.012
_refine_ls_shift/su_mean         0.001

loop_
_atom_site_label
_atom_site_type_symbol
_atom_site_fract_x
_atom_site_fract_y
_atom_site_fract_z
_atom_site_U_iso_or_equiv
_atom_site_adp_type
_atom_site_occupancy
_atom_site_symmetry_multiplicity
_atom_site_calc_flag
_atom_site_refinement_flags
_atom_site_disorder_assembly
_atom_site_disorder_group
O2 O 0.7398(3) 0.5122(3) 0.3006(3) 0.0603(11) Uani 1 1 d . . .
N2 N 0.7899(4) 0.5114(4) 0.2407(4) 0.0676(14) Uani 1 1 d . . .
O3 O 0.7884(3) 0.4322(3) 0.2275(3) 0.0692(12) Uani 1 1 d . . .
O4 O 0.8352(4) 0.5814(4) 0.1991(3) 0.1061(19) Uani 1 1 d . . .
N1 N 0.5695(4) 0.5347(3) 0.3399(3) 0.0492(13) Uani 1 1 d . . .
Sm1 Sm 0.6667 0.3333 0.33654(3) 0.0442(2) Uani 1 3 d S . .
O1 O 0.5905(2) 0.3972(2) 0.4141(2) 0.0511(9) Uani 1 1 d . . .
C6 C 0.4501(4) 0.4100(4) 0.4230(3) 0.0472(13) Uani 1 1 d . . .
C7 C 0.4866(4) 0.4922(4) 0.3735(4) 0.0533(14) Uani 1 1 d . . .
H7 H 0.4468 0.5180 0.3644 0.064 Uiso 1 1 calc R . .
C1 C 0.5052(4) 0.3656(4) 0.4428(3) 0.0439(12) Uani 1 1 d . . .
C2 C 0.4623(4) 0.2875(4) 0.4960(4) 0.0598(15) Uani 1 1 d . . .
H2 H 0.4971 0.2582 0.5120 0.072 Uiso 1 1 calc R . .
C8 C 0.6104(4) 0.6234(4) 0.2947(3) 0.0555(14) Uani 1 1 d . . .
H8A H 0.6725 0.6687 0.3178 0.067 Uiso 1 1 calc R . .
H8B H 0.5688 0.6510 0.3001 0.067 Uiso 1 1 calc R . .
C5 C 0.3568(4) 0.3733(5) 0.4551(4) 0.0603(15) Uani 1 1 d . . .
H5 H 0.3214 0.4031 0.4422 0.072 Uiso 1 1 calc R . .
C4 C 0.3174(5) 0.2945(5) 0.5049(4) 0.0679(18) Uani 1 1 d . . .
H4 H 0.2550 0.2697 0.5245 0.082 Uiso 1 1 calc R . .
C3 C 0.3710(4) 0.2526(4) 0.5255(4) 0.0644(17) Uani 1 1 d . . .
H3 H 0.3449 0.1996 0.5600 0.077 Uiso 1 1 calc R . .
H1 H 0.594(3) 0.512(4) 0.351(3) 0.029(15) Uiso 1 1 d . . .

loop_
_atom_site_aniso_label
_atom_site_aniso_U_11
_atom_site_aniso_U_22
_atom_site_aniso_U_33
_atom_site_aniso_U_23
_atom_site_aniso_U_13
_atom_site_aniso_U_12
O2 0.050(2) 0.051(2) 0.082(3) 0.013(2) 0.015(2) 0.0262(19)
N2 0.049(3) 0.075(4) 0.077(4) 0.024(3) 0.014(3) 0.030(3)
O3 0.069(3) 0.067(3) 0.081(3) 0.014(2) 0.021(2) 0.041(3)
O4 0.110(4) 0.089(4) 0.115(5) 0.055(3) 0.051(4) 0.047(3)
N1 0.056(3) 0.048(3) 0.055(3) 0.006(2) -0.001(2) 0.035(3)
Sm1 0.0367(2) 0.0367(2) 0.0593(4) 0.000 0.000 0.01833(11)
O1 0.045(2) 0.046(2) 0.068(3) 0.0057(18) 0.0056(18) 0.0276(18)
C6 0.044(3) 0.050(3) 0.050(3) 0.001(3) -0.003(2) 0.026(3)
C7 0.053(4) 0.059(4) 0.058(4) -0.001(3) -0.006(3) 0.036(3)
C1 0.046(3) 0.043(3) 0.046(3) -0.002(2) 0.001(2) 0.024(2)
C2 0.060(4) 0.058(4) 0.071(4) 0.010(3) 0.009(3) 0.037(3)
C8 0.060(4) 0.051(3) 0.055(3) 0.004(3) -0.010(3) 0.028(3)
C5 0.053(4) 0.075(4) 0.064(4) 0.005(3) 0.000(3) 0.041(3)
C4 0.050(4) 0.087(5) 0.067(4) 0.009(4) 0.014(3) 0.035(4)
C3 0.062(4) 0.064(4) 0.066(4) 0.013(3) 0.016(3) 0.030(3)

_geom_special_details            
;
All esds (except the esd in the dihedral angle between two l.s. planes)
are estimated using the full covariance matrix. The cell esds are taken
into account individually in the estimation of esds in distances, angles
and torsion angles; correlations between esds in cell parameters are only
used when they are defined by crystal symmetry. An approximate (isotropic)
treatment of cell esds is used for estimating esds involving l.s. planes.
;

loop_
_geom_bond_atom_site_label_1
_geom_bond_atom_site_label_2
_geom_bond_distance
_geom_bond_site_symmetry_2
_geom_bond_publ_flag
O2 N2 1.279(7) . ?
O2 Sm1 2.567(4) . ?
N2 O4 1.201(6) . ?
N2 O3 1.276(7) . ?
O3 Sm1 2.543(4) . ?
N1 C7 1.277(7) . ?
N1 C8 1.441(7) . ?
N1 H1 0.69(4) . ?
Sm1 O1 2.331(4) 3_665 ?
Sm1 O1 2.331(4) 2_655 ?
Sm1 O1 2.331(4) . ?
Sm1 O3 2.543(4) 3_665 ?
Sm1 O3 2.543(4) 2_655 ?
Sm1 O2 2.567(4) 3_665 ?
Sm1 O2 2.567(4) 2_655 ?
Sm1 N2 2.986(5) 3_665 ?
Sm1 N2 2.986(5) 2_655 ?
O1 C1 1.287(6) . ?
C6 C5 1.409(7) . ?
C6 C7 1.406(7) . ?
C6 C1 1.421(7) . ?
C7 H7 0.9300 . ?
C1 C2 1.397(8) . ?
C2 C3 1.369(7) . ?
C2 H2 0.9300 . ?
C8 C8 1.522(11) 4 ?
C8 H8A 0.9700 . ?
C8 H8B 0.9700 . ?
C5 C4 1.368(9) . ?
C5 H5 0.9300 . ?
C4 C3 1.373(8) . ?
C4 H4 0.9300 . ?
C3 H3 0.9300 . ?

loop_
_geom_angle_atom_site_label_1
_geom_angle_atom_site_label_2
_geom_angle_atom_site_label_3
_geom_angle
_geom_angle_site_symmetry_1
_geom_angle_site_symmetry_3
_geom_angle_publ_flag
N2 O2 Sm1 96.0(3) . . ?
O4 N2 O2 121.5(6) . . ?
O4 N2 O3 122.2(6) . . ?
O2 N2 O3 116.3(5) . . ?
N2 O3 Sm1 97.2(3) . . ?
C7 N1 C8 126.2(5) . . ?
C7 N1 H1 109(4) . . ?
C8 N1 H1 125(4) . . ?
O1 Sm1 O1 92.66(14) 3_665 2_655 ?
O1 Sm1 O1 92.66(14) 3_665 . ?
O1 Sm1 O1 92.66(14) 2_655 . ?
O1 Sm1 O3 121.51(13) 3_665 3_665 ?
O1 Sm1 O3 79.93(14) 2_655 3_665 ?
O1 Sm1 O3 145.11(13) . 3_665 ?
O1 Sm1 O3 79.93(14) 3_665 . ?
O1 Sm1 O3 145.11(13) 2_655 . ?
O1 Sm1 O3 121.51(13) . . ?
O3 Sm1 O3 75.40(16) 3_665 . ?
O1 Sm1 O3 145.11(13) 3_665 2_655 ?
O1 Sm1 O3 121.51(13) 2_655 2_655 ?
O1 Sm1 O3 79.93(14) . 2_655 ?
O3 Sm1 O3 75.40(16) 3_665 2_655 ?
O3 Sm1 O3 75.40(16) . 2_655 ?
O1 Sm1 O2 71.52(12) 3_665 3_665 ?
O1 Sm1 O2 76.11(13) 2_655 3_665 ?
O1 Sm1 O2 159.80(15) . 3_665 ?
O3 Sm1 O2 50.26(13) 3_665 3_665 ?
O3 Sm1 O2 69.19(14) . 3_665 ?
O3 Sm1 O2 120.23(15) 2_655 3_665 ?
O1 Sm1 O2 159.80(15) 3_665 2_655 ?
O1 Sm1 O2 71.52(12) 2_655 2_655 ?
O1 Sm1 O2 76.11(13) . 2_655 ?
O3 Sm1 O2 69.19(14) 3_665 2_655 ?
O3 Sm1 O2 120.23(15) . 2_655 ?
O3 Sm1 O2 50.26(13) 2_655 2_655 ?
O2 Sm1 O2 114.82(8) 3_665 2_655 ?
O1 Sm1 O2 76.11(13) 3_665 . ?
O1 Sm1 O2 159.80(15) 2_655 . ?
O1 Sm1 O2 71.52(12) . . ?
O3 Sm1 O2 120.23(15) 3_665 . ?
O3 Sm1 O2 50.26(13) . . ?
O3 Sm1 O2 69.19(14) 2_655 . ?
O2 Sm1 O2 114.82(8) 3_665 . ?
O2 Sm1 O2 114.82(8) 2_655 . ?
O1 Sm1 N2 96.49(15) 3_665 3_665 ?
O1 Sm1 N2 77.73(15) 2_655 3_665 ?
O1 Sm1 N2 166.99(14) . 3_665 ?
O3 Sm1 N2 25.09(14) 3_665 3_665 ?
O3 Sm1 N2 69.44(15) . 3_665 ?
O3 Sm1 N2 97.50(15) 2_655 3_665 ?
O2 Sm1 N2 25.21(14) 3_665 3_665 ?
O2 Sm1 N2 92.38(14) 2_655 3_665 ?
O2 Sm1 N2 119.69(14) . 3_665 ?
O1 Sm1 N2 166.99(13) 3_665 2_655 ?
O1 Sm1 N2 96.49(15) 2_655 2_655 ?
O1 Sm1 N2 77.73(15) . 2_655 ?
O3 Sm1 N2 69.44(15) 3_665 2_655 ?
O3 Sm1 N2 97.50(15) . 2_655 ?
O3 Sm1 N2 25.09(14) 2_655 2_655 ?
O2 Sm1 N2 119.69(14) 3_665 2_655 ?
O2 Sm1 N2 25.21(14) 2_655 2_655 ?
O2 Sm1 N2 92.38(14) . 2_655 ?
N2 Sm1 N2 94.49(16) 3_665 2_655 ?
C1 O1 Sm1 135.7(3) . . ?
C5 C6 C7 117.9(5) . . ?
C5 C6 C1 120.0(5) . . ?
C7 C6 C1 122.1(5) . . ?
N1 C7 C6 126.0(5) . . ?
N1 C7 H7 117.0 . . ?
C6 C7 H7 117.0 . . ?
O1 C1 C2 122.3(5) . . ?
O1 C1 C6 121.4(5) . . ?
C2 C1 C6 116.3(5) . . ?
C3 C2 C1 122.5(5) . . ?
C3 C2 H2 118.8 . . ?
C1 C2 H2 118.8 . . ?
N1 C8 C8 113.2(4) . 4 ?
N1 C8 H8A 108.9 . . ?
C8 C8 H8A 108.9 4 . ?
N1 C8 H8B 108.9 . . ?
C8 C8 H8B 108.9 4 . ?
H8A C8 H8B 107.8 . . ?
C4 C5 C6 121.0(5) . . ?
C4 C5 H5 119.5 . . ?
C6 C5 H5 119.5 . . ?
C5 C4 C3 119.2(6) . . ?
C5 C4 H4 120.4 . . ?
C3 C4 H4 120.4 . . ?
C2 C3 C4 121.0(6) . . ?
C2 C3 H3 119.5 . . ?
C4 C3 H3 119.5 . . ?

loop_
_geom_hbond_atom_site_label_D
_geom_hbond_atom_site_label_H
_geom_hbond_atom_site_label_A
_geom_hbond_distance_DH
_geom_hbond_distance_HA
_geom_hbond_distance_DA
_geom_hbond_angle_DHA
_geom_hbond_site_symmetry_A
C3 H3 O4 0.93 2.77 3.445(9) 130.6 10_666
N1 H1 O1 0.69(4) 2.08(5) 2.687(6) 147(6) .
N1 H1 O2 0.69(4) 2.47(5) 2.997(6) 135(5) .

_diffrn_measured_fraction_theta_max 0.999
_diffrn_reflns_theta_full        26.05
_diffrn_measured_fraction_theta_full 0.999
_refine_diff_density_max         1.172
_refine_diff_density_min         -0.307
_refine_diff_density_rms         0.134
