####################################################################### 
# 
# This file contains crystal structure data downloaded from the 
# Cambridge Structural Database (CSD) hosted by the Cambridge 
# Crystallographic Data Centre (CCDC).
# 
# Full information about CCDC data access policies and citation 
# guidelines are available at http://www.ccdc.cam.ac.uk/access/V1 
# 
# Audit and citation data items may have been added by the CCDC. 
# Please retain this information to preserve the provenance of 
# this file and to allow appropriate attribution of the data. 
# 
#######################################################################

data_MOF-3
_audit_block_doi                 10.5517/cc10sl1f
_database_code_depnum_ccdc_archive 'CCDC 947144'
loop_
_citation_id
_citation_doi
_citation_year
1 10.1002/chem.201302455 2014
_audit_update_record             
;
2013-11-11 deposited with the CCDC.	2024-07-11 downloaded from the CCDC.
;

_audit_creation_method           SHELXL-97
_chemical_name_systematic        
;
 ?
;
_chemical_name_common            ?
_chemical_melting_point          ?
_chemical_formula_moiety         'C41 H28 N2 O5 Zn, C3 H7 N O'
_chemical_formula_sum            'C44 H35 N3 O6 Zn'
_chemical_formula_weight         767

loop_
_atom_type_symbol
_atom_type_description
_atom_type_scat_dispersion_real
_atom_type_scat_dispersion_imag
_atom_type_scat_source
C C 0.0033 0.0016 'International Tables Vol C Tables 4.2.6.8 and 6.1.1.4'
H H 0.0000 0.0000 'International Tables Vol C Tables 4.2.6.8 and 6.1.1.4'
N N 0.0061 0.0033 'International Tables Vol C Tables 4.2.6.8 and 6.1.1.4'
O O 0.0106 0.0060 'International Tables Vol C Tables 4.2.6.8 and 6.1.1.4'
Zn Zn 0.2839 1.4301 'International Tables Vol C Tables 4.2.6.8 and 6.1.1.4'

_symmetry_cell_setting           orthorhombic
_symmetry_space_group_name_H-M   'P b a 2'

loop_
_symmetry_equiv_pos_as_xyz
'x, y, z'
'-x, -y, z'
'-x+1/2, y+1/2, z'
'x+1/2, -y+1/2, z'

_cell_length_a                   15.749(10)
_cell_length_b                   16.425(11)
_cell_length_c                   15.725(11)
_cell_angle_alpha                90.00
_cell_angle_beta                 90.00
_cell_angle_gamma                90.00
_cell_volume                     4068(5)
_cell_formula_units_Z            4
_cell_measurement_temperature    90(2)
_cell_measurement_reflns_used    ?
_cell_measurement_theta_min      ?
_cell_measurement_theta_max      ?

_exptl_crystal_description       Needles
_exptl_crystal_colour            'light red'
_exptl_crystal_size_max          0.38
_exptl_crystal_size_mid          0.22
_exptl_crystal_size_min          0.17
_exptl_crystal_density_meas      ?
_exptl_crystal_density_diffrn    1.227
_exptl_crystal_density_method    'not measured'
_exptl_crystal_F_000             1554.9
_exptl_absorpt_coefficient_mu    0.652
_exptl_absorpt_correction_type   EMPIRICAL
_exptl_absorpt_correction_T_min  0.842
_exptl_absorpt_correction_T_max  0.895
_exptl_absorpt_process_details   SADABS

_exptl_special_details           
;
 ?
;

_diffrn_ambient_temperature      90(2)
_diffrn_radiation_wavelength     0.71073
_diffrn_radiation_type           MoK\a
_diffrn_radiation_source         'fine-focus sealed tube'
_diffrn_radiation_monochromator  graphite
_diffrn_measurement_device_type  'CCD area detector'
_diffrn_measurement_method       'phi and omega scan'
_diffrn_detector_area_resol_mean 0.3
_diffrn_standards_number         ?
_diffrn_standards_interval_count ?
_diffrn_standards_interval_time  ?
_diffrn_standards_decay_%        ?
_diffrn_reflns_number            14304
_diffrn_reflns_av_R_equivalents  0.1077
_diffrn_reflns_av_sigmaI/netI    0.2129
_diffrn_reflns_limit_h_min       -13
_diffrn_reflns_limit_h_max       19
_diffrn_reflns_limit_k_min       -18
_diffrn_reflns_limit_k_max       20
_diffrn_reflns_limit_l_min       -19
_diffrn_reflns_limit_l_max       11
_diffrn_reflns_theta_min         1.29
_diffrn_reflns_theta_max         26.37
_reflns_number_total             8334
_reflns_number_gt                2844
_reflns_threshold_expression     >2\s(I)

_computing_data_collection       'Bruker kappa apex ccd'
_computing_cell_refinement       'Bruker kappa apex ccd'
_computing_data_reduction        'Bruker saint'
_computing_structure_solution    shelxs-97
_computing_structure_refinement  'SHELXL-97 (Sheldrick, 2008)'
_computing_molecular_graphics    ortep-III
_computing_publication_material  WinGX1.80.05

_refine_special_details          
;
 Refinement of F^2^ against ALL reflections.  The weighted R-factor wR and
 goodness of fit S are based on F^2^, conventional R-factors R are based
 on F, with F set to zero for negative F^2^. The threshold expression of
 F^2^ > 2\s(F^2^) is used only for calculating R-factors(gt) etc. and is
 not relevant to the choice of reflections for refinement.  R-factors based
 on F^2^ are statistically about twice as large as those based on F, and R-
 factors based on ALL data will be even larger.
;

_refine_ls_structure_factor_coef Fsqd
_refine_ls_matrix_type           fullcycle
_refine_ls_weighting_scheme      calc
_refine_ls_weighting_details     
'calc w=1/[\s^2^(Fo^2^)+(0.1350P)^2^+0.0000P] where P=(Fo^2^+2Fc^2^)/3'
_atom_sites_solution_primary     direct
_atom_sites_solution_secondary   difmap
_atom_sites_solution_hydrogens   geom
_refine_ls_hydrogen_treatment    mixed
_refine_ls_extinction_method     none
_refine_ls_extinction_coef       ?
_refine_ls_abs_structure_details 'Flack H D (1983), Acta Cryst. A39, 876-881'
_refine_ls_abs_structure_Flack   0.00
_refine_ls_number_reflns         7113
_refine_ls_number_parameters     488
_refine_ls_number_restraints     324
_refine_ls_R_factor_all          0.2050
_refine_ls_R_factor_gt           0.1065
_refine_ls_wR_factor_ref         0.2930
_refine_ls_wR_factor_gt          0.2500
_refine_ls_goodness_of_fit_ref   0.971
_refine_ls_restrained_S_all      5.642
_refine_ls_shift/su_max          0.103
_refine_ls_shift/su_mean         0.016

loop_
_atom_site_label
_atom_site_type_symbol
_atom_site_fract_x
_atom_site_fract_y
_atom_site_fract_z
_atom_site_U_iso_or_equiv
_atom_site_adp_type
_atom_site_occupancy
_atom_site_symmetry_multiplicity
_atom_site_calc_flag
_atom_site_refinement_flags
_atom_site_disorder_assembly
_atom_site_disorder_group
Zn1 Zn 0.3741(3) 0.0366(3) 0.135(3) 0.034(2) Uani 1 1 d . . .
O1 O 0.374(2) -0.0869(19) 0.142(7) 0.033(12) Uani 1 1 d U . .
O2 O 0.240(2) 0.042(2) 0.136(7) 0.045(12) Uani 1 1 d . . .
O3 O 0.302(2) 0.163(2) 0.144(7) 0.041(12) Uani 1 1 d U . .
O4 O 0.512(2) -0.097(2) 0.137(7) 0.062(16) Uani 1 1 d . . .
O5 O 0.570(3) -0.401(2) 0.166(5) 0.049(17) Uani 1 1 d U . .
N1 N 0.377(5) 0.040(5) 0.271(7) 0.04(3) Uani 1 1 d U . .
N2 N 0.384(6) 0.044(5) -0.004(8) 0.05(3) Uani 1 1 d U . .
C5 C 0.435(3) -0.219(3) 0.131(8) 0.024(11) Uani 1 1 d U . .
C4 C 0.441(3) -0.127(3) 0.137(8) 0.027(13) Uani 1 1 d U . .
C18 C 0.390(8) 0.050(8) -0.182(9) 0.06(4) Uani 1 1 d DU . .
C14 C 0.369(5) -0.025(4) 0.323(6) 0.040(19) Uani 1 1 d U . .
H14 H 0.3666 -0.0754 0.2958 0.048 Uiso 1 1 calc R . .
C8 C 0.508(4) -0.264(3) 0.150(8) 0.04(2) Uani 1 1 d U . .
H8 H 0.5553 -0.2444 0.1786 0.048 Uiso 1 1 calc R . .
C13 C 0.365(6) -0.027(5) 0.407(8) 0.06(3) Uani 1 1 d U . .
H13 H 0.3522 -0.0756 0.4346 0.071 Uiso 1 1 calc R . .
C1 C 0.235(3) 0.119(3) 0.123(7) 0.022(13) Uani 1 1 d U . .
C2 C 0.150(3) 0.160(3) 0.121(6) 0.019(13) Uani 1 1 d U . .
C27 C 0.500(3) -0.350(3) 0.116(7) 0.04(2) Uani 1 1 d U . .
C20 C 0.413(8) 0.109(7) -0.125(9) 0.08(4) Uani 1 1 d U . .
H20 H 0.4321 0.1572 -0.1484 0.098 Uiso 1 1 calc R . .
C19 C 0.389(4) 0.048(4) -0.274(5) 0.037(17) Uani 1 1 d U . .
C3 C 0.078(3) 0.113(4) 0.132(9) 0.049(18) Uani 1 1 d U . .
H3 H 0.0822 0.0589 0.1482 0.059 Uiso 1 1 calc R . .
C6 C 0.355(3) -0.257(3) 0.125(7) 0.025(14) Uani 1 1 d U . .
H6 H 0.3058 -0.2259 0.1230 0.030 Uiso 1 1 calc R . .
C10 C 0.392(10) 0.111(9) 0.317(11) 0.11(5) Uani 1 1 d U . .
H10 H 0.4008 0.1595 0.2868 0.130 Uiso 1 1 calc R . .
C15 C 0.410(8) 0.105(7) -0.044(9) 0.08(4) Uani 1 1 d U . .
H15 H 0.4293 0.1499 -0.0133 0.091 Uiso 1 1 calc R . .
C17 C 0.364(12) -0.005(10) -0.123(12) 0.17(8) Uani 1 1 d DU . .
H17 H 0.3542 -0.0547 -0.1498 0.198 Uiso 1 1 calc R . .
C11 C 0.394(11) 0.114(11) 0.408(14) 0.14(7) Uani 1 1 d U . .
H11 H 0.4031 0.1625 0.4361 0.168 Uiso 1 1 calc R . .
C26 C 0.381(8) 0.044(7) 0.454(9) 0.06(4) Uani 1 1 d U . .
C32 C 0.696(11) -0.310(12) 0.432(13) 0.21(8) Uani 1 1 d DU . .
C33 C 0.690(19) -0.304(16) 0.343(13) 0.26(12) Uani 1 1 d DU . .
C31 C 0.778(14) -0.281(11) 0.325(15) 0.20(8) Uani 1 1 d DU . .
H31 H 0.7891 -0.2819 0.2670 0.239 Uiso 1 1 calc R . .
C37 C 0.632(9) -0.356(9) 0.491(5) 0.14(6) Uani 1 1 d DU . .
C1S C 0.141(12) -0.068(8) -0.09(3) 0.6(4) Uani 1 1 d D . .
H1S H 0.0927 -0.0781 -0.1189 0.683 Uiso 1 1 calc R . .
C53 C 0.856(15) -0.257(14) 0.376(19) 0.28(12) Uani 1 1 d DU . .
H53 H 0.9037 -0.2333 0.3506 0.334 Uiso 1 1 calc R . .
C52 C 0.852(10) -0.273(14) 0.468(19) 0.39(15) Uani 1 1 d DU . .
C29 C 0.644(9) -0.359(8) 0.304(10) 0.11(4) Uani 1 1 d U . .
C28 C 0.648(6) -0.368(5) 0.198(8) 0.07(3) Uani 1 1 d U . .
H28A H 0.6584 -0.3149 0.1733 0.080 Uiso 1 1 calc R . .
H28B H 0.6954 -0.4033 0.1828 0.080 Uiso 1 1 calc R . .
C40 C 0.581(12) -0.388(11) 0.431(13) 0.21(8) Uani 1 1 d DU . .
H40 H 0.5395 -0.4176 0.4594 0.257 Uiso 1 1 calc R . .
C50 C 0.565(11) -0.396(10) 0.352(13) 0.05(5) Uani 0.48 1 d PU . .
H50 H 0.5171 -0.4186 0.3276 0.063 Uiso 0.48 1 calc PR . .
C51 C 0.761(16) -0.286(16) 0.494(19) 0.29(13) Uani 1 1 d DU . .
C58 C 0.679(11) -0.326(9) 0.615(15) 0.18(7) Uani 1 1 d DU . .
H58 H 0.6807 -0.3358 0.6732 0.211 Uiso 1 1 calc R . .
C57 C 0.842(18) -0.266(13) 0.620(18) 0.25(11) Uani 1 1 d DU . .
H57 H 0.8531 -0.2805 0.6759 0.303 Uiso 1 1 calc R . .
C55 C 0.92(2) -0.216(18) 0.48(2) 0.34(9) Uani 1 1 d DU . .
H55 H 0.9495 -0.1818 0.4474 0.412 Uiso 1 1 calc R . .
C59 C 0.605(10) -0.364(13) 0.576(5) 0.20(10) Uani 1 1 d D . .
H59 H 0.5560 -0.3855 0.5990 0.238 Uiso 1 1 calc R . .
C60 C 0.754(16) -0.277(18) 0.59(2) 0.31(16) Uani 1 1 d DU . .
C56 C 0.911(19) -0.234(19) 0.568(19) 0.34(9) Uani 1 1 d DU . .
H56 H 0.9611 -0.2245 0.5984 0.412 Uiso 1 1 calc R . .
C62 C 0.350(15) -0.008(15) 0.586(17) 0.20(9) Uani 1 1 d U . .
H62 H 0.3288 -0.0521 0.5563 0.238 Uiso 1 1 calc R . .
C23 C 0.420(9) 0.109(9) -0.312(11) 0.11(5) Uani 1 1 d U . .
H23 H 0.4467 0.1503 -0.2818 0.138 Uiso 1 1 calc R . .
C21 C 0.351(11) -0.013(8) -0.323(9) 0.13(4) Uani 1 1 d U . .
H21 H 0.3259 -0.0578 -0.2969 0.152 Uiso 1 1 calc R . .
C25 C 0.413(18) 0.113(9) -0.402(11) 0.27(16) Uani 1 1 d . . .
H25 H 0.4339 0.1591 -0.4294 0.322 Uiso 1 1 calc R . .
C61 C 0.374(9) 0.047(9) 0.545(10) 0.11(4) Uani 1 1 d U . .
C16 C 0.345(9) -0.014(8) -0.036(11) 0.03(4) Uani 0.48 1 d PU . .
H16 H 0.3121 -0.0540 -0.0100 0.041 Uiso 0.48 1 calc PR . .
N1S N 0.184(11) -0.148(14) -0.085(12) 0.32(5) Uani 1 1 d DU . .
C3S C 0.152(10) -0.139(10) 0.001(11) 0.12(6) Uani 1 1 d U . .
H3S1 H 0.1809 -0.0946 0.0288 0.185 Uiso 1 1 calc R . .
H3S2 H 0.1631 -0.1885 0.0326 0.185 Uiso 1 1 calc R . .
H3S3 H 0.0925 -0.1289 0.0002 0.185 Uiso 1 1 calc R . .
C2S C 0.187(10) -0.164(9) -0.173(10) 0.18(8) Uani 1 1 d . . .
H2S1 H 0.2235 -0.1253 -0.2004 0.263 Uiso 1 1 calc R . .
H2S2 H 0.1307 -0.1594 -0.1965 0.263 Uiso 1 1 calc R . .
H2S3 H 0.2080 -0.2180 -0.1826 0.263 Uiso 1 1 calc R . .
O1S O 0.133(9) 0.03(2) -0.062(16) 0.5(2) Uani 1 1 d . . .

loop_
_atom_site_aniso_label
_atom_site_aniso_U_11
_atom_site_aniso_U_22
_atom_site_aniso_U_33
_atom_site_aniso_U_23
_atom_site_aniso_U_13
_atom_site_aniso_U_12
Zn1 0.017(3) 0.020(3) 0.065(6) 0.002(8) -0.002(8) 0.000(3)
O1 0.029(17) 0.024(15) 0.05(3) 0.00(3) 0.00(3) 0.012(16)
O2 0.023(17) 0.029(18) 0.08(4) -0.01(5) 0.02(5) 0.000(16)
O3 0.026(19) 0.030(18) 0.07(4) 0.00(3) 0.02(3) 0.004(16)
O4 0.03(2) 0.025(18) 0.14(5) -0.02(5) 0.00(6) 0.000(16)
O5 0.03(2) 0.03(2) 0.09(5) 0.00(2) -0.01(2) 0.001(18)
N1 0.04(3) 0.04(3) 0.04(3) 0.000(6) -0.001(6) 0.000(6)
N2 0.05(3) 0.05(3) 0.05(3) 0.000(6) 0.001(6) 0.000(6)
C5 0.024(12) 0.023(12) 0.024(13) 0.001(6) 0.000(6) 0.000(6)
C4 0.02(2) 0.03(2) 0.04(4) -0.01(4) 0.00(5) -0.001(19)
C18 0.06(5) 0.06(5) 0.06(5) 0.00(4) 0.00(3) -0.01(3)
C14 0.06(4) 0.03(3) 0.03(4) 0.00(3) 0.00(4) 0.00(3)
C8 0.03(3) 0.03(2) 0.06(5) 0.00(4) 0.00(4) 0.00(2)
C13 0.08(5) 0.03(3) 0.07(5) 0.01(4) 0.01(4) -0.01(4)
C1 0.022(14) 0.022(14) 0.022(15) -0.001(6) 0.000(6) 0.000(6)
C2 0.019(13) 0.019(13) 0.019(14) 0.000(6) 0.000(6) 0.000(6)
C27 0.02(3) 0.03(2) 0.06(5) 0.01(3) -0.01(3) 0.00(2)
C20 0.10(6) 0.07(5) 0.07(6) 0.01(4) 0.00(5) -0.03(4)
C19 0.037(18) 0.037(18) 0.037(18) 0.000(6) 0.000(6) -0.001(6)
C3 0.03(3) 0.05(3) 0.08(5) 0.01(5) -0.01(5) -0.01(2)
C6 0.024(15) 0.025(14) 0.025(15) 0.000(6) 0.000(6) 0.001(6)
C10 0.13(7) 0.10(7) 0.10(7) -0.01(5) -0.01(5) -0.02(5)
C15 0.11(6) 0.06(5) 0.07(6) 0.01(4) 0.01(5) -0.02(4)
C17 0.17(8) 0.17(8) 0.17(8) 0.000(6) 0.000(6) 0.000(6)
C11 0.16(8) 0.13(8) 0.14(8) 0.00(5) 0.00(5) -0.02(5)
C26 0.07(6) 0.06(5) 0.07(6) -0.01(4) -0.01(4) 0.00(4)
C32 0.21(8) 0.21(8) 0.21(8) 0.000(6) 0.000(6) 0.000(6)
C33 0.26(13) 0.26(13) 0.26(13) 0.00(6) -0.01(6) -0.01(6)
C31 0.19(9) 0.20(9) 0.20(10) 0.02(6) 0.00(6) 0.00(6)
C37 0.13(7) 0.15(7) 0.15(8) 0.01(5) 0.00(5) 0.01(5)
C1S 0.12(17) 0.2(2) 1.4(11) -0.4(4) -0.2(3) 0.02(16)
C53 0.28(13) 0.27(13) 0.28(13) -0.01(6) 0.00(6) 0.00(6)
C52 0.39(15) 0.39(15) 0.39(15) 0.000(6) 0.000(6) 0.000(6)
C29 0.11(4) 0.11(4) 0.11(4) 0.000(4) 0.000(4) 0.000(4)
C28 0.07(3) 0.07(3) 0.07(3) 0.000(6) 0.000(6) 0.000(6)
C40 0.21(8) 0.21(8) 0.21(8) 0.000(6) 0.000(6) 0.000(6)
C50 0.05(5) 0.05(5) 0.05(5) 0.000(4) 0.000(4) 0.000(4)
C51 0.29(13) 0.29(13) 0.29(13) 0.000(6) 0.000(6) 0.000(6)
C58 0.19(8) 0.17(8) 0.17(9) 0.00(6) 0.01(6) 0.02(6)
C57 0.26(12) 0.25(12) 0.25(12) -0.01(6) 0.00(6) 0.01(6)
C55 0.34(9) 0.34(9) 0.34(9) 0.000(6) 0.000(6) 0.000(6)
C59 0.16(15) 0.4(3) 0.04(11) -0.03(13) 0.05(10) -0.11(17)
C60 0.31(16) 0.31(16) 0.31(17) -0.01(6) 0.00(6) 0.00(6)
C56 0.34(9) 0.34(9) 0.34(9) 0.000(6) 0.000(6) 0.000(6)
C62 0.20(9) 0.20(9) 0.20(9) 0.000(6) 0.000(6) 0.000(6)
C23 0.12(5) 0.12(5) 0.11(5) 0.000(6) -0.006(6) -0.011(6)
C21 0.20(4) 0.13(4) 0.06(4) 0.000(6) 0.000(6) -0.132(6)
C25 0.6(5) 0.10(9) 0.06(12) -0.02(7) 0.05(16) -0.18(18)
C61 0.12(6) 0.11(6) 0.10(7) 0.00(5) 0.00(5) -0.02(5)
C16 0.03(4) 0.03(4) 0.03(4) 0.000(4) 0.000(4) 0.000(4)
N1S 0.28(5) 0.54(5) 0.14(5) -0.175(6) 0.067(6) -0.320(6)
C3S 0.12(6) 0.12(6) 0.12(6) 0.000(6) 0.000(6) 0.000(6)
C2S 0.22(18) 0.20(15) 0.10(15) 0.00(11) -0.03(12) -0.15(14)
O1S 0.13(14) 0.9(7) 0.3(3) -0.1(3) -0.08(14) 0.2(3)

_geom_special_details            
;
 All s.u.'s (except the s.u. in the dihedral angle between two l.s. planes)
 are estimated using the full covariance matrix.  The cell s.u.'s are taken
 into account individually in the estimation of s.u.'s in distances, angles
 and torsion angles; correlations between s.u.'s in cell parameters are only
 used when they are defined by crystal symmetry.  An approximate (isotropic)
 treatment of cell s.u.'s is used for estimating s.u.'s involving l.s. planes.
;

loop_
_geom_bond_atom_site_label_1
_geom_bond_atom_site_label_2
_geom_bond_distance
_geom_bond_site_symmetry_2
_geom_bond_publ_flag
Zn1 O1 2.03(4) . ?
Zn1 O4 2.05(5) 2_655 ?
Zn1 O2 2.11(4) . ?
Zn1 N2 2.19(13) . ?
Zn1 N1 2.13(14) . ?
Zn1 O3 2.37(4) . ?
Zn1 C1 2.57(6) . ?
O1 C4 1.25(7) . ?
O2 C1 1.27(8) . ?
O3 C1 1.32(8) . ?
O4 C4 1.23(8) . ?
O4 Zn1 2.05(5) 2_655 ?
O5 C28 1.45(12) . ?
O5 C27 1.60(10) . ?
N1 C14 1.36(15) . ?
N1 C10 1.39(19) . ?
N2 C15 1.25(18) . ?
N2 C16 1.26(19) . ?
C5 C6 1.41(8) . ?
C5 C8 1.41(10) . ?
C5 C4 1.50(8) . ?
C18 C17 1.36(13) . ?
C18 C20 1.4(2) . ?
C18 C19 1.4(2) . ?
C14 C13 1.32(18) . ?
C8 C27 1.50(11) . ?
C13 C26 1.4(2) . ?
C1 C2 1.51(8) . ?
C2 C6 1.36(8) 3 ?
C2 C3 1.38(9) . ?
C27 C3 1.40(10) 3_545 ?
C20 C15 1.3(2) . ?
C19 C23 1.3(2) . ?
C19 C21 1.41(13) . ?
C3 C27 1.40(10) 3 ?
C6 C2 1.36(8) 3_545 ?
C10 C11 1.4(3) . ?
C17 C16 1.4(3) . ?
C11 C26 1.4(3) . ?
C26 C61 1.4(2) . ?
C32 C33 1.41(9) . ?
C32 C51 1.46(12) . ?
C32 C37 1.6(3) . ?
C33 C29 1.3(3) . ?
C33 C31 1.5(4) . ?
C31 C53 1.52(14) . ?
C37 C40 1.36(14) . ?
C37 C59 1.40(7) . ?
C1S O1S 1.6(4) . ?
C1S N1S 1.47(17) . ?
C53 C52 1.47(19) . ?
C52 C55 1.40(19) . ?
C52 C51 1.5(3) . ?
C29 C50 1.6(3) . ?
C29 C28 1.7(2) . ?
C40 C50 1.3(3) . ?
C51 C60 1.47(15) . ?
C58 C59 1.46(7) . ?
C58 C60 1.49(9) . ?
C57 C56 1.46(8) . ?
C57 C60 1.49(10) . ?
C55 C56 1.40(8) . ?
C62 C61 1.2(3) . ?
C62 C21 1.4(2) 1_556 ?
C23 C25 1.4(2) . ?
C21 C62 1.4(2) 1_554 ?
C25 C61 1.5(2) 1_554 ?
C61 C25 1.5(2) 1_556 ?
N1S C2S 1.4(2) . ?
N1S C3S 1.5(3) . ?

loop_
_geom_angle_atom_site_label_1
_geom_angle_atom_site_label_2
_geom_angle_atom_site_label_3
_geom_angle
_geom_angle_site_symmetry_1
_geom_angle_site_symmetry_3
_geom_angle_publ_flag
O1 Zn1 O4 119.0(19) . 2_655 ?
O1 Zn1 O2 92.4(18) . . ?
O4 Zn1 O2 148.5(18) 2_655 . ?
O1 Zn1 N2 97(4) . . ?
O4 Zn1 N2 85(5) 2_655 . ?
O2 Zn1 N2 95(5) . . ?
O1 Zn1 N1 88(4) . . ?
O4 Zn1 N1 87(5) 2_655 . ?
O2 Zn1 N1 91(5) . . ?
N2 Zn1 N1 173(3) . . ?
O1 Zn1 O3 150.5(18) . . ?
O4 Zn1 O3 89.6(16) 2_655 . ?
O2 Zn1 O3 58.8(16) . . ?
N2 Zn1 O3 92(4) . . ?
N1 Zn1 O3 86(4) . . ?
O1 Zn1 C1 121.7(19) . . ?
O4 Zn1 C1 119.3(19) 2_655 . ?
O2 Zn1 C1 29.5(19) . . ?
N2 Zn1 C1 88(4) . . ?
N1 Zn1 C1 94(4) . . ?
O3 Zn1 C1 30.6(18) . . ?
C4 O1 Zn1 122(4) . . ?
C1 O2 Zn1 96(4) . . ?
C1 O3 Zn1 83(4) . . ?
C4 O4 Zn1 175(10) . 2_655 ?
C28 O5 C27 124(6) . . ?
C14 N1 C10 111(10) . . ?
C14 N1 Zn1 126(9) . . ?
C10 N1 Zn1 123(10) . . ?
C15 N2 C16 124(10) . . ?
C15 N2 Zn1 125(10) . . ?
C16 N2 Zn1 109(9) . . ?
C6 C5 C8 121(6) . . ?
C6 C5 C4 120(5) . . ?
C8 C5 C4 118(6) . . ?
O4 C4 O1 124(6) . . ?
O4 C4 C5 117(5) . . ?
O1 C4 C5 119(5) . . ?
C17 C18 C20 96(10) . . ?
C17 C18 C19 132(10) . . ?
C20 C18 C19 132(10) . . ?
C13 C