
#######################################################################
#
#                 Cambridge Crystallographic Data Centre
#                                CCDC
#
#######################################################################
#
# If this CIF has been generated from an entry in the Cambridge
# Structural Database, then it will include bibliographic, chemical,
# crystal, experimental, refinement or atomic coordinate data resulting
# from the CCDC's data processing and validation procedures.
#
#######################################################################

data_CSD_CIF_KIVCAT
_audit_creation_date 1992-01-06
_audit_creation_method CSD-ConQuest-V1
_database_code_CSD KIVCAT
_database_code_depnum_ccdc_archive 'CCDC 1197708'
_chemical_formula_sum 'C33 H37 O8.5'
_chemical_formula_moiety
;
C30 H30 O8,0.5(C6 H14 O1)
;
_journal_coeditor_code "IUCr SE0032"
_journal_coden_Cambridge 591
_journal_volume 47
_journal_year 1991
_journal_page_first 1296
_journal_name_full 'Acta Crystallogr.,Sect.C:Cryst.Struct.Commun. '
loop_
_publ_author_name
"M.Gdaniec"
_chemical_name_systematic
;
1,1',6,6',7,7'-Hexahydroxy-5,5'-di-isopropyl-3,3'-dimethyl-(2,2'-binaphthalene
)-8,8'-dicarboxaldehyde di-n-propyl ether clathrate
;
_chemical_name_common
;
Gossypol di-n-propyl ether clathrate; Teaching Subset: Fundamental Chemistry
;
_cell_volume   5818.430
_exptl_crystal_density_diffrn 1.3
_exptl_special_details
;
Isostructural with the ethyl acrylate,acetylacetone, propyl butyrate, butyl 
ethyl ether and methyl (S)-2-chloropropionate inclusion analogues
No study temperature is reported
;
_diffrn_ambient_temperature ?
_diffrn_special_details
;
The study was carried out at room temperature,in the range 283-303K

;
_refine_special_details
;
The di-n-propyl ether molecule is statistically disordered.

;
#These two values have been output from a single CSD field.
_refine_ls_R_factor_gt 0.068
_refine_ls_wR_factor_gt 0.068
_symmetry_cell_setting monoclinic
_symmetry_space_group_name_H-M 'C 2/c'
_symmetry_Int_Tables_number 15
loop_
_symmetry_equiv_pos_site_id
_symmetry_equiv_pos_as_xyz
1 x,y,z
2 1/2+x,1/2+y,z
3 -x,y,1/2-z
4 1/2-x,1/2+y,1/2-z
5 -x,-y,-z
6 -1/2-x,-1/2-y,-z
7 x,-y,-1/2+z
8 -1/2+x,-1/2-y,-1/2+z
_cell_length_a 11.544(3)
_cell_length_b 30.602(7)
_cell_length_c 16.472(4)
_cell_angle_alpha 90
_cell_angle_beta 90.84(2)
_cell_angle_gamma 90
_cell_formula_units_Z 8
loop_
_atom_type_symbol
_atom_type_radius_bond
C 0.71
H 0.23
O 0.68
loop_
_atom_site_label
_atom_site_type_symbol
_atom_site_fract_x
_atom_site_fract_y
_atom_site_fract_z
C1 C 0.8044(5) 0.0255(2) 0.7119(4)
C2 C 0.7725(6) 0.0042(2) 0.6411(4)
C3 C 0.7608(6) 0.0285(2) 0.5683(4)
C4 C 0.7726(6) 0.0730(2) 0.5707(4)
C5 C 0.8031(6) 0.1429(2) 0.6456(5)
C6 C 0.8395(7) 0.1631(2) 0.7159(5)
C7 C 0.8634(6) 0.1389(2) 0.7876(5)
C8 C 0.8590(6) 0.0939(2) 0.7892(4)
C9 C 0.8241(6) 0.0710(2) 0.7161(4)
C10 C 0.7997(6) 0.0952(2) 0.6441(4)
C11 C 0.6357(7) -0.0584(2) 0.6459(5)
C12 C 0.7509(6) -0.0437(2) 0.6416(4)
C13 C 0.8420(6) -0.0748(2) 0.6362(4)
C14 C 0.8151(7) -0.1183(2) 0.6365(5)
C15 C 0.6775(9) -0.1803(2) 0.6395(5)
C16 C 0.5659(9) -0.1943(3) 0.6453(6)
C17 C 0.4726(9) -0.1647(3) 0.6474(6)
C18 C 0.4883(7) -0.1195(3) 0.6471(5)
C19 C 0.6071(7) -0.1035(2) 0.6447(5)
C20 C 0.6993(8) -0.1338(2) 0.6396(5)
C21 C 0.735(1) 0.0061(3) 0.4886(6)
C22 C 0.8982(6) 0.0732(2) 0.8640(5)
C23 C 0.7664(8) 0.1685(2) 0.5689(5)
C24 C 0.8687(9) 0.1782(3) 0.5163(6)
C25 C 0.6935(9) 0.2091(3) 0.5844(7)
C26 C 0.9661(7) -0.0597(2) 0.6277(6)
C27 C 0.3857(9) -0.0919(3) 0.6501(6)
C28 C 0.7729(9) -0.2152(3) 0.6309(6)
C29 C 0.8518(8) -0.2181(3) 0.7077(6)
C30 C 0.841(1) -0.2116(3) 0.5509(7)
O1 O 0.8144(5) 0.0020(1) 0.7824(3)
O2 O 0.9186(5) 0.0942(2) 0.9274(3)
O3 O 0.8919(5) 0.1639(2) 0.8517(3)
O4 O 0.8527(5) 0.2079(2) 0.7191(4)
O5 O 0.5486(4) -0.0278(2) 0.6514(4)
O6 O 0.2849(6) -0.1077(2) 0.6503(5)
O7 O 0.3636(5) -0.1821(2) 0.6498(4)
O8 O 0.5390(6) -0.2384(2) 0.6490(4)
H1 H 0.76100 0.09200 0.51600
H2 H 0.792(6) -0.023(2) 0.484(4)
H3 H 0.739(6) 0.029(2) 0.447(4)
H4 H 0.686(8) -0.007(3) 0.492(6)
H5 H 0.91100 0.03800 0.86500
H6 H 0.70800 0.14700 0.53600
H7 H 0.83800 0.19600 0.46300
H8 H 0.90400 0.14700 0.49800
H9 H 0.93500 0.19700 0.54700
H10 H 0.66100 0.21400 0.52400
H11 H 0.73200 0.23900 0.60700
H12 H 0.62300 0.20000 0.62300
H13 H 0.88500 -0.14200 0.63400
H14 H 1.029(6) -0.083(2) 0.633(4)
H15 H 0.988(6) -0.037(2) 0.679(4)
H16 H 0.978(6) -0.037(2) 0.580(4)
H17 H 0.72900 -0.24600 0.62600
H18 H 0.39600 -0.05700 0.65200
H19 H 0.91600 -0.24300 0.69500
H20 H 0.80000 -0.22800 0.75800
H21 H 0.89500 -0.18800 0.72200
H22 H 0.88400 -0.24200 0.54000
H23 H 0.90400 -0.18600 0.55100
H24 H 0.77800 -0.20600 0.50300
H25 H 0.808(7) -0.022(2) 0.778(5)
H26 H 0.903(7) 0.147(2) 0.896(5)
H27 H 0.879(6) 0.214(2) 0.774(4)
H28 H 0.56900 0.00400 0.65200
H29 H 0.29700 -0.16100 0.65100
H30 H 0.45700 -0.24900 0.65300
C31? C 0.109(3) 0.384(1) 0.436(2)
C32? C 0.039(2) 0.401(1) 0.410(2)
C33? C 0.067(3) 0.427(1) 0.344(2)
O9? O -0.027(1) 0.43900 0.284(1)
C34? C -0.047(3) 0.422(1) 0.198(2)
C35? C -0.042(2) 0.385(1) 0.177(2)
C36? C -0.080(3) 0.361(1) 0.080(2)
#END
