####################################################################### 
# 
# This file contains crystal structure data downloaded from the 
# Cambridge Structural Database (CSD) hosted by the Cambridge 
# Crystallographic Data Centre (CCDC).
# 
# Full information about CCDC data access policies and citation 
# guidelines are available at http://www.ccdc.cam.ac.uk/access/V1 
# 
# Audit and citation data items may have been added by the CCDC. 
# Please retain this information to preserve the provenance of 
# this file and to allow appropriate attribution of the data. 
# 
#######################################################################

data_ZJU-21
_audit_block_doi                 10.5517/cc106ctd
_database_code_depnum_ccdc_archive 'CCDC 929653'
loop_
_citation_id
_citation_doi
_citation_year
1 10.1002/chem.201303615 2014
_audit_update_record             
;
2013-03-18 deposited with the CCDC.	2024-07-11 downloaded from the CCDC.
;

_audit_creation_method           SHELXL-97
_chemical_name_systematic        
;
?
;
_chemical_name_common            ?
_chemical_melting_point          ?
_chemical_formula_moiety         ?
_chemical_formula_sum            'C52 H28 Cu4 N4 Ni O20'
_chemical_formula_weight         1341.65

loop_
_atom_type_symbol
_atom_type_description
_atom_type_scat_dispersion_real
_atom_type_scat_dispersion_imag
_atom_type_scat_source
C C 0.0181 0.0091 'International Tables Vol C Tables 4.2.6.8 and 6.1.1.4'
H H 0.0000 0.0000 'International Tables Vol C Tables 4.2.6.8 and 6.1.1.4'
N N 0.0311 0.0180 'International Tables Vol C Tables 4.2.6.8 and 6.1.1.4'
O O 0.0492 0.0322 'International Tables Vol C Tables 4.2.6.8 and 6.1.1.4'
Ni Ni -3.0029 0.5091 'International Tables Vol C Tables 4.2.6.8 and 6.1.1.4'
Cu Cu -1.9646 0.5888 'International Tables Vol C Tables 4.2.6.8 and 6.1.1.4'

_symmetry_cell_setting           tetragonal
_symmetry_space_group_name_H-M   P4/mbm

loop_
_symmetry_equiv_pos_as_xyz
'x, y, z'
'-x, -y, z'
'-y, x, z'
'y, -x, z'
'-x+1/2, y+1/2, -z'
'x+1/2, -y+1/2, -z'
'y+1/2, x+1/2, -z'
'-y+1/2, -x+1/2, -z'
'-x, -y, -z'
'x, y, -z'
'y, -x, -z'
'-y, x, -z'
'x-1/2, -y-1/2, z'
'-x-1/2, y-1/2, z'
'-y-1/2, -x-1/2, z'
'y-1/2, x-1/2, z'

_cell_length_a                   28.5500(4)
_cell_length_b                   28.5500(4)
_cell_length_c                   27.0594(10)
_cell_angle_alpha                90.00
_cell_angle_beta                 90.00
_cell_angle_gamma                90.00
_cell_volume                     22056.2(9)
_cell_formula_units_Z            8
_cell_measurement_temperature    293(2)
_cell_measurement_reflns_used    38746
_cell_measurement_theta_min      3.46
_cell_measurement_theta_max      58.93

_exptl_crystal_description       block
_exptl_crystal_colour            brown
_exptl_crystal_size_max          0.26
_exptl_crystal_size_mid          0.07
_exptl_crystal_size_min          0.05
_exptl_crystal_density_meas      ?
_exptl_crystal_density_diffrn    0.808
_exptl_crystal_density_method    'not measured'
_exptl_crystal_F_000             5376
_exptl_absorpt_coefficient_mu    1.382
_exptl_absorpt_correction_type   empirical
_exptl_absorpt_correction_T_min  0.890
_exptl_absorpt_correction_T_max  0.933
_exptl_absorpt_process_details   CrysAlisPro

_exptl_special_details           
;
?
;

_diffrn_ambient_temperature      293(2)
_diffrn_radiation_wavelength     1.54178
_diffrn_radiation_type           CuK\a
_diffrn_radiation_source         'fine-focus sealed tube'
_diffrn_radiation_monochromator  graphite
_diffrn_measurement_device_type  'Xcalibur, Atlas, Gemini ultra'
_diffrn_measurement_method       '\w scans'
_diffrn_detector_area_resol_mean 10.3592
_diffrn_standards_number         none
_diffrn_standards_interval_count none
_diffrn_standards_interval_time  none
_diffrn_standards_decay_%        ?
_diffrn_reflns_number            38746
_diffrn_reflns_av_R_equivalents  0.0714
_diffrn_reflns_av_sigmaI/netI    0.0698
_diffrn_reflns_limit_h_min       -31
_diffrn_reflns_limit_h_max       31
_diffrn_reflns_limit_k_min       -22
_diffrn_reflns_limit_k_max       25
_diffrn_reflns_limit_l_min       -30
_diffrn_reflns_limit_l_max       23
_diffrn_reflns_theta_min         3.46
_diffrn_reflns_theta_max         58.93
_reflns_number_total             8164
_reflns_number_gt                3589
_reflns_threshold_expression     >2sigma(I)

_computing_data_collection       'CrysAlisPro (Oxford Diffraction Ltd., 2010)'
_computing_cell_refinement       'CrysAlisPro (Oxford Diffraction Ltd., 2010)'
_computing_data_reduction        'CrysAlisPro (Oxford Diffraction Ltd., 2010)'
_computing_structure_solution    'SHELXS-97 (Sheldrick, 1990)'
_computing_structure_refinement  'SHELXL-97 (Sheldrick, 1997)'
_computing_molecular_graphics    ?
_computing_publication_material  ?

_refine_special_details          
;
Refinement of F^2^ against ALL reflections. The weighted R-factor wR and
goodness of fit S are based on F^2^, conventional R-factors R are based
on F, with F set to zero for negative F^2^. The threshold expression of
F^2^ > 2sigma(F^2^) is used only for calculating R-factors(gt) etc. and is
not relevant to the choice of reflections for refinement. R-factors based
on F^2^ are statistically about twice as large as those based on F, and R-
factors based on ALL data will be even larger.
;

# SQUEEZE RESULTS (APPEND TO CIF)
# Note: Data are Listed for all Voids in the P1 Unit Cell
# i.e. Centre of Gravity, Solvent Accessible Volume,
# Recovered number of Electrons in the Void and
# Details about the Squeezed Material
loop_
_platon_squeeze_void_nr
_platon_squeeze_void_average_x
_platon_squeeze_void_average_y
_platon_squeeze_void_average_z
_platon_squeeze_void_volume
_platon_squeeze_void_count_electrons
_platon_squeeze_void_content
1 -0.022 0.002 -0.007 14157 3552 ' '
2 0.236 0.264 0.246 4 2 ' '
3 0.236 0.264 0.754 4 2 ' '
4 0.264 0.764 0.246 4 2 ' '
5 0.264 0.764 0.754 4 1 ' '
6 0.736 0.236 0.246 4 2 ' '
7 0.736 0.236 0.754 4 2 ' '
8 0.764 0.736 0.246 4 2 ' '
9 0.764 0.736 0.754 4 1 ' '
_platon_squeeze_details          
;
;

_refine_ls_structure_factor_coef Fsqd
_refine_ls_matrix_type           full
_refine_ls_weighting_scheme      calc
_refine_ls_weighting_details     
'calc w=1/[\s^2^(Fo^2^)+(0.0713P)^2^+32.1310P] where P=(Fo^2^+2Fc^2^)/3'
_atom_sites_solution_primary     direct
_atom_sites_solution_secondary   difmap
_atom_sites_solution_hydrogens   geom
_refine_ls_hydrogen_treatment    constr
_refine_ls_extinction_method     none
_refine_ls_extinction_coef       ?
_refine_ls_number_reflns         8164
_refine_ls_number_parameters     416
_refine_ls_number_restraints     0
_refine_ls_R_factor_all          0.1551
_refine_ls_R_factor_gt           0.0956
_refine_ls_wR_factor_ref         0.2494
_refine_ls_wR_factor_gt          0.2276
_refine_ls_goodness_of_fit_ref   1.068
_refine_ls_restrained_S_all      1.068
_refine_ls_shift/su_max          0.001
_refine_ls_shift/su_mean         0.000

loop_
_atom_site_label
_atom_site_type_symbol
_atom_site_fract_x
_atom_site_fract_y
_atom_site_fract_z
_atom_site_U_iso_or_equiv
_atom_site_adp_type
_atom_site_occupancy
_atom_site_symmetry_multiplicity
_atom_site_calc_flag
_atom_site_refinement_flags
_atom_site_disorder_assembly
_atom_site_disorder_group
Cu1 Cu 0.03505(5) 0.26338(5) 0.21372(6) 0.1190(6) Uani 1 1 d . . .
Cu2 Cu 0.02790(4) 0.20507(4) 0.29091(5) 0.0983(5) Uani 1 1 d . . .
Ni1 Ni -0.22587(6) 0.27413(6) 0.0000 0.0833(8) Uani 1 4 d S . .
Ni2 Ni -0.20647(6) 0.29353(6) 0.5000 0.0858(8) Uani 1 4 d S . .
O1 O -0.02157(19) 0.2311(2) 0.1933(2) 0.1025(18) Uani 1 1 d . . .
O2 O -0.02604(17) 0.17992(18) 0.2542(2) 0.0897(15) Uani 1 1 d . . .
O3 O -0.16417(19) 0.06963(19) 0.2560(2) 0.0943(17) Uani 1 1 d . . .
O4 O -0.2130(2) 0.0735(2) 0.1898(2) 0.117(2) Uani 1 1 d . . .
O5 O -0.2876(3) 0.0899(3) 0.2449(3) 0.143(3) Uani 1 1 d . . .
O6 O -0.2401(2) 0.0836(2) 0.3122(2) 0.112(2) Uani 1 1 d . . .
O7 O -0.0014(3) 0.3037(3) 0.2493(3) 0.162(3) Uani 1 1 d . . .
O8 O -0.0117(2) 0.2559(3) 0.3155(3) 0.141(2) Uani 1 1 d . . .
O9 O 0.0388(3) 0.3037(4) 0.1465(4) 0.227(4) Uani 1 1 d . . .
O10 O 0.0236(2) 0.1613(3) 0.3561(2) 0.143(2) Uani 1 1 d . . .
N1 N -0.2253(2) 0.2747(2) 0.0720(3) 0.073(2) Uani 1 2 d S . .
N2 N -0.1774(3) 0.2254(3) 0.0000 0.080(2) Uani 1 2 d S . .
N4 N -0.2555(3) 0.2445(3) 0.5000 0.079(3) Uani 1 4 d S . .
N5 N -0.2067(3) 0.2933(3) 0.4292(4) 0.101(3) Uani 1 2 d S . .
N6 N -0.1596(3) 0.3404(3) 0.5000 0.085(4) Uani 1 4 d S . .
C1 C -0.2096(3) 0.2571(3) 0.1543(3) 0.115(3) Uani 1 1 d . . .
H1A H -0.1953 0.2439 0.1819 0.138 Uiso 1 1 calc R . .
C2 C -0.2002(3) 0.2458(3) 0.1031(3) 0.084(2) Uani 1 1 d . . .
C3 C -0.1682(3) 0.2136(3) 0.0885(3) 0.084(2) Uani 1 1 d . . .
C4 C -0.1568(3) 0.2049(3) 0.0399(3) 0.079(2) Uani 1 1 d . . .
C5 C -0.1240(3) 0.1688(3) 0.0242(3) 0.118(3) Uani 1 1 d . . .
H5A H -0.1064 0.1494 0.0447 0.142 Uiso 1 1 calc R . .
C6 C -0.1441(3) 0.1858(3) 0.1310(3) 0.085(2) Uani 1 1 d . . .
C7 C -0.1031(3) 0.2018(3) 0.1516(3) 0.083(2) Uani 1 1 d . . .
H7A H -0.0883 0.2280 0.1383 0.100 Uiso 1 1 calc R . .
C8 C -0.0835(3) 0.1790(3) 0.1921(3) 0.083(2) Uani 1 1 d . . .
C9 C -0.1072(3) 0.1406(3) 0.2121(3) 0.080(2) Uani 1 1 d . . .
H9A H -0.0955 0.1255 0.2400 0.096 Uiso 1 1 calc R . .
C10 C -0.1487(3) 0.1252(3) 0.1897(3) 0.077(2) Uani 1 1 d . . .
C11 C -0.1664(3) 0.1476(3) 0.1489(3) 0.086(2) Uani 1 1 d . . .
H11A H -0.1935 0.1367 0.1337 0.103 Uiso 1 1 calc R . .
C12 C -0.0400(3) 0.1971(3) 0.2142(3) 0.076(2) Uani 1 1 d . . .
C13 C -0.1758(3) 0.0858(3) 0.2151(4) 0.100(3) Uani 1 1 d . . .
C14 C -0.3102(3) 0.1898(3) 0.4759(4) 0.141(6) Uani 1 2 d S . .
H14A H -0.3287 0.1713 0.4555 0.169 Uiso 1 2 calc SR . .
C15 C -0.2758(3) 0.2242(3) 0.4600(5) 0.086(3) Uani 1 2 d S . .
C16 C -0.2650(3) 0.2350(3) 0.4117(5) 0.089(3) Uani 1 2 d S . .
C17 C -0.2328(3) 0.2672(3) 0.3974(6) 0.090(3) Uani 1 2 d S . .
C18 C -0.2234(4) 0.2766(4) 0.3473(8) 0.158(7) Uani 1 2 d S . .
H18A H -0.2374 0.2626 0.3201 0.189 Uiso 1 2 calc SR . .
C19 C -0.1924(7) 0.3076(7) 0.3467(8) 0.234(12) Uani 1 2 d S . .
H19A H -0.1784 0.3216 0.3193 0.281 Uiso 1 2 calc SR . .
C20 C -0.1835(5) 0.3165(5) 0.3970(10) 0.181(8) Uani 1 2 d S . .
C21 C -0.1482(6) 0.3518(6) 0.4121(9) 0.221(10) Uani 1 2 d S . .
C22 C -0.1389(4) 0.3611(4) 0.4646(6) 0.132(5) Uani 1 2 d S . .
C23 C -0.1039(4) 0.3961(4) 0.4756(4) 0.128(5) Uani 1 2 d S . .
H23A H -0.0860 0.4140 0.4540 0.153 Uiso 1 2 calc SR . .
C24 C -0.2918(3) 0.2082(3) 0.3726(5) 0.106(4) Uani 1 2 d S . .
C25 C -0.2718(3) 0.1667(3) 0.3513(4) 0.111(3) Uani 1 1 d . . .
H25A H -0.2441 0.1541 0.3637 0.133 Uiso 1 1 calc R . .
C26 C -0.2954(4) 0.1453(4) 0.3109(4) 0.125(3) Uani 1 1 d . . .
C27 C -0.3336(4) 0.1664(4) 0.2875(5) 0.130(5) Uani 1 2 d S . .
H27A H -0.3445 0.1555 0.2573 0.156 Uiso 1 2 calc SR . .
C28 C -0.2740(4) 0.1024(4) 0.2876(5) 0.120(3) Uani 1 1 d . . .
C29 C -0.0964(5) 0.3556(6) 0.3744(5) 0.079(4) Uani 0.50 1 d P . .
C30 C -0.0982(3) 0.4018(3) 0.3587(5) 0.093(4) Uani 1 2 d S . .
C31 C -0.0677(7) 0.4323(7) 0.3134(6) 0.226(11) Uani 1 2 d S . .
C32 C -0.0339(8) 0.3871(9) 0.3037(8) 0.190(14) Uani 0.50 1 d P . .
H32A H -0.0045 0.3939 0.2908 0.228 Uiso 0.50 1 calc PR . .
C33 C -0.0448(6) 0.3308(7) 0.3137(5) 0.092(5) Uani 0.50 1 d P . .
C34 C -0.0715(6) 0.3217(6) 0.3521(6) 0.090(5) Uani 0.50 1 d P . .
H34A H -0.0732 0.2912 0.3640 0.108 Uiso 0.50 1 calc PR . .
C35 C -0.0177(3) 0.2957(4) 0.2900(4) 0.094(3) Uani 1 1 d . . .

loop_
_atom_site_aniso_label
_atom_site_aniso_U_11
_atom_site_aniso_U_22
_atom_site_aniso_U_33
_atom_site_aniso_U_23
_atom_site_aniso_U_13
_atom_site_aniso_U_12
Cu1 0.0934(11) 0.0994(11) 0.1641(14) 0.0412(9) -0.0303(9) -0.0025(7)
Cu2 0.0760(9) 0.0920(10) 0.1271(11) 0.0154(7) -0.0053(7) 0.0015(6)
Ni1 0.0796(12) 0.0796(12) 0.0905(19) 0.000 0.000 0.0117(13)
Ni2 0.0766(11) 0.0766(11) 0.104(2) 0.000 0.000 -0.0033(13)
O1 0.089(4) 0.097(5) 0.122(5) 0.020(4) -0.004(3) -0.001(3)
O2 0.079(4) 0.094(4) 0.096(4) 0.004(3) -0.009(3) -0.005(3)
O3 0.097(4) 0.084(4) 0.101(4) 0.007(3) -0.021(3) -0.011(3)
O4 0.117(5) 0.101(5) 0.132(5) 0.003(4) -0.036(4) -0.014(4)
O5 0.141(6) 0.129(6) 0.161(7) -0.042(5) -0.035(5) 0.015(4)
O6 0.109(5) 0.092(5) 0.135(5) -0.011(4) -0.017(4) 0.018(4)
O7 0.162(8) 0.159(8) 0.164(8) 0.000(6) -0.021(6) 0.022(6)
O8 0.106(5) 0.116(6) 0.201(7) -0.022(5) 0.006(5) 0.005(4)
O9 0.233(11) 0.200(10) 0.249(10) 0.090(8) 0.022(8) -0.005(7)
O10 0.138(6) 0.151(6) 0.141(6) 0.033(5) -0.004(4) 0.010(4)
N1 0.079(4) 0.079(4) 0.060(5) -0.003(3) -0.003(3) 0.025(5)
N2 0.086(7) 0.086(7) 0.068(6) 0.000 0.000 0.011(5)
N4 0.072(5) 0.072(5) 0.095(10) 0.000 0.000 -0.010(7)
N5 0.101(5) 0.101(5) 0.102(9) 0.011(5) 0.011(5) -0.025(7)
N6 0.093(7) 0.093(7) 0.067(9) 0.000 0.000 -0.022(8)
C1 0.123(7) 0.127(7) 0.095(7) -0.010(5) -0.023(5) 0.041(6)
C2 0.092(6) 0.091(6) 0.068(5) 0.003(4) -0.008(4) 0.020(5)
C3 0.080(6) 0.089(6) 0.082(6) 0.005(4) -0.003(4) 0.010(5)
C4 0.089(6) 0.084(6) 0.064(5) -0.007(4) -0.004(4) 0.008(4)
C5 0.132(8) 0.134(8) 0.090(6) 0.011(5) 0.014(5) 0.049(6)
C6 0.084(6) 0.082(6) 0.089(6) 0.008(5) -0.006(5) 0.010(5)
C7 0.078(6) 0.082(6) 0.090(6) 0.004(4) -0.014(4) 0.007(4)
C8 0.084(6) 0.078(6) 0.086(6) -0.003(4) -0.001(5) 0.014(5)
C9 0.091(6) 0.071(6) 0.078(5) -0.002(4) -0.007(4) 0.004(4)
C10 0.081(6) 0.073(6) 0.076(5) -0.003(4) -0.007(4) 0.001(4)
C11 0.089(6) 0.081(6) 0.089(6) -0.007(5) -0.025(5) 0.007(5)
C12 0.068(6) 0.086(6) 0.073(6) -0.002(5) -0.014(4) -0.004(4)
C13 0.092(7) 0.078(7) 0.131(9) -0.023(6) 0.007(7) -0.004(5)
C14 0.145(8) 0.145(8) 0.134(14) -0.002(5) -0.002(5) -0.059(11)
C15 0.079(5) 0.079(5) 0.102(10) -0.008(5) -0.008(5) -0.011(6)
C16 0.091(6) 0.091(6) 0.084(9) -0.012(6) -0.012(6) 0.009(7)
C17 0.087(6) 0.087(6) 0.095(10) 0.003(6) 0.003(6) -0.012(7)
C18 0.162(11) 0.162(11) 0.149(18) -0.032(9) -0.032(9) -0.071(13)
C19 0.282(19) 0.282(19) 0.139(19) -0.065(15) -0.065(15) -0.05(2)
C20 0.164(12) 0.164(12) 0.21(3) -0.018(10) -0.018(10) -0.082(15)
C21 0.253(17) 0.253(17) 0.158(19) 0.027(11) 0.027(11) -0.11(2)
C22 0.135(9) 0.135(9) 0.126(14) -0.013(7) -0.013(7) -0.042(11)
C23 0.141(7) 0.141(7) 0.101(11) -0.001(5) -0.001(5) -0.039(10)
C24 0.100(6) 0.100(6) 0.118(11) -0.003(6) -0.003(6) -0.008(8)
C25 0.106(8) 0.083(7) 0.142(8) -0.016(6) -0.016(6) 0.014(5)
C26 0.128(9) 0.091(8) 0.156(10) -0.020(7) -0.015(8) -0.003(6)
C27 0.125(8) 0.125(8) 0.139(12) -0.052(7) -0.052(7) 0.035(10)
C28 0.105(9) 0.097(8) 0.158(11) -0.023(8) -0.006(8) 0.002(6)
C29 0.073(11) 0.096(13) 0.068(10) -0.007(9) 0.011(8) -0.003(9)
C30 0.100(6) 0.100(6) 0.079(9) -0.001(5) -0.001(5) 0.005(7)
C31 0.284(16) 0.284(16) 0.111(14) -0.116(13) -0.116(13) 0.08(2)
C32 0.19(2) 0.22(3) 0.16(2) 0.141(19) 0.130(18) 0.13(2)
C33 0.091(13) 0.139(17) 0.046(9) -0.019(10) -0.008(8) 0.004(11)
C34 0.084(12) 0.109(14) 0.076(12) -0.010(10) 0.005(9) 0.015(10)
C35 0.089(7) 0.084(7) 0.111(8) -0.020(7) -0.009(6) 0.020(5)

_geom_special_details            
;
All esds (except the esd in the dihedral angle between two l.s. planes)
are estimated using the full covariance matrix. The cell esds are taken
into account individually in the estimation of esds in distances, angles
and torsion angles; correlations between esds in cell parameters are only
used when they are defined by crystal symmetry. An approximate (isotropic)
treatment of cell esds is used for estimating esds involving l.s. planes.
;

loop_
_geom_bond_atom_site_label_1
_geom_bond_atom_site_label_2
_geom_bond_distance
_geom_bond_site_symmetry_2
_geom_bond_publ_flag
Cu1 O7 1.827(9) . ?
Cu1 O5 1.908(7) 4 ?
Cu1 O4 1.923(7) 4 ?
Cu1 O1 1.941(6) . ?
Cu1 O9 2.156(9) . ?
Cu1 Cu2 2.6788(18) . ?
Cu2 O3 1.917(6) 4 ?
Cu2 O8 1.957(7) . ?
Cu2 O6 1.964(6) 4 ?
Cu2 O2 1.969(5) . ?
Cu2 O10 2.165(6) . ?
Ni1 N1 1.947(7) 10 ?
Ni1 N1 1.947(7) . ?
Ni1 N2 1.963(8) 7_455 ?
Ni1 N2 1.963(8) . ?
Ni2 N6 1.891(14) . ?
Ni2 N5 1.914(11) 10_556 ?
Ni2 N5 1.914(11) . ?
Ni2 N4 1.978(12) . ?
O1 C12 1.241(8) . ?
O2 C12 1.252(8) . ?
O3 C13 1.244(11) . ?
O3 Cu2 1.917(6) 3 ?
O4 C13 1.310(10) . ?
O4 Cu1 1.922(7) 3 ?
O5 C28 1.271(12) . ?
O5 Cu1 1.908(7) 3 ?
O6 C28 1.292(11) . ?
O6 Cu2 1.964(6) 3 ?
O7 C35 1.217(10) . ?
O8 C35 1.340(11) . ?
N1 C2 1.381(8) 16_565 ?
N1 C2 1.381(8) . ?
N2 C4 1.363(8) . ?
N2 C4 1.363(8) 10 ?
N4 C15 1.359(12) . ?
N4 C15 1.359(12) 10_556 ?
N5 C20 1.28(2) . ?
N5 C17 1.364(15) . ?
N6 C22 1.274(17) 10_556 ?
N6 C22 1.274(17) . ?
C1 C1 1.346(15) 16_565 ?
C1 C2 1.448(10) . ?
C2 C3 1.356(10) . ?
C3 C4 1.378(9) . ?
C3 C6 1.556(10) . ?
C4 C5 1.454(10) . ?
C5 C5 1.311(14) 10 ?
C6 C11 1.352(10) . ?
C6 C7 1.375(10) . ?
C7 C8 1.393(9) . ?
C8 C9 1.398(10) . ?
C8 C12 1.472(10) . ?
C9 C10 1.403(9) . ?
C10 C11 1.375(9) . ?
C10 C13 1.529(11) . ?
C14 C14 1.30(2) 10_556 ?
C14 C15 1.454(16) . ?
C15 C16 1.376(15) . ?
C16 C17 1.356(15) . ?
C16 C24 1.512(16) . ?
C17 C18 1.41(2) . ?
C17 C20 1.99(2) . ?
C18 C19 1.25(3) . ?
C19 C20 1.41(2) . ?
C20 C21 1.48(3) . ?
C21 C22 1.47(2) . ?
C21 C29 1.80(2) . ?
C21 C29 1.80(2) 16_565 ?
C22 C23 1.441(18) . ?
C22 C22 1.92(4) 10_556 ?
C23 C23 1.32(2) 10_556 ?
C24 C25 1.438(10) 16_565 ?
C24 C25 1.438(10) . ?
C25 C26 1.424(12) . ?
C26 C27 1.397(12) . ?
C26 C28 1.506(13) . ?
C27 C26 1.397(12) 16_565 ?
C29 C34 1.344(19) . ?
C29 C30 1.386(17) . ?
C29 C29 1.94(3) 16_565 ?
C30 C29 1.386(17) 16_565 ?
C30 C31 1.74(3) . ?
C31 C32 1.63(2) 16_565 ?
C31 C32 1.63(2) . ?
C32 C33 1.66(3) . ?
C33 C34 1.31(2) . ?
C33 C3