####################################################################### 
# 
# This file contains crystal structure data downloaded from the 
# Cambridge Structural Database (CSD) hosted by the Cambridge 
# Crystallographic Data Centre (CCDC).
# 
# Full information about CCDC data access policies and citation 
# guidelines are available at http://www.ccdc.cam.ac.uk/access/V1 
# 
# Audit and citation data items may have been added by the CCDC. 
# Please retain this information to preserve the provenance of 
# this file and to allow appropriate attribution of the data. 
# 
#######################################################################

data_ZJU-22
_audit_block_doi                 10.5517/cc106mhb
_database_code_depnum_ccdc_archive 'CCDC 929891'
loop_
_citation_id
_citation_doi
_citation_year
1 10.1002/chem.201303615 2014
_audit_update_record             
;
2013-03-19 deposited with the CCDC.	2024-07-11 downloaded from the CCDC.
;

_audit_creation_method           SHELXL-97
_chemical_name_systematic        
;
?
;
_chemical_name_common            ?
_chemical_melting_point          ?
_chemical_formula_moiety         ?
_chemical_formula_sum            'C156 H105 Cu16 Mn3 N12 O76'
_chemical_formula_weight         4544.98

loop_
_atom_type_symbol
_atom_type_description
_atom_type_scat_dispersion_real
_atom_type_scat_dispersion_imag
_atom_type_scat_source
C C 0.0181 0.0091 'International Tables Vol C Tables 4.2.6.8 and 6.1.1.4'
H H 0.0000 0.0000 'International Tables Vol C Tables 4.2.6.8 and 6.1.1.4'
N N 0.0311 0.0180 'International Tables Vol C Tables 4.2.6.8 and 6.1.1.4'
O O 0.0492 0.0322 'International Tables Vol C Tables 4.2.6.8 and 6.1.1.4'
Mn Mn -0.5299 2.8052 'International Tables Vol C Tables 4.2.6.8 and 6.1.1.4'
Cu Cu -1.9646 0.5888 'International Tables Vol C Tables 4.2.6.8 and 6.1.1.4'

_symmetry_cell_setting           Hexagonal
_symmetry_space_group_name_H-M   P6(3)/mcm

loop_
_symmetry_equiv_pos_as_xyz
'x, y, z'
'-y, x-y, z'
'-x+y, -x, z'
'-x, -y, z+1/2'
'y, -x+y, z+1/2'
'x-y, x, z+1/2'
'y, x, -z+1/2'
'x-y, -y, -z+1/2'
'-x, -x+y, -z+1/2'
'-y, -x, -z'
'-x+y, y, -z'
'x, x-y, -z'
'-x, -y, -z'
'y, -x+y, -z'
'x-y, x, -z'
'x, y, -z-1/2'
'-y, x-y, -z-1/2'
'-x+y, -x, -z-1/2'
'-y, -x, z-1/2'
'-x+y, y, z-1/2'
'x, x-y, z-1/2'
'y, x, z'
'x-y, -y, z'
'-x, -x+y, z'

_cell_length_a                   22.5053(2)
_cell_length_b                   22.5053(2)
_cell_length_c                   36.4440(5)
_cell_angle_alpha                90.00
_cell_angle_beta                 90.00
_cell_angle_gamma                120.00
_cell_volume                     15985.5(3)
_cell_formula_units_Z            2
_cell_measurement_temperature    293(2)
_cell_measurement_reflns_used    32219
_cell_measurement_theta_min      3.32
_cell_measurement_theta_max      64.32

_exptl_crystal_description       block
_exptl_crystal_colour            brown
_exptl_crystal_size_max          0.26
_exptl_crystal_size_mid          0.25
_exptl_crystal_size_min          0.09
_exptl_crystal_density_meas      ?
_exptl_crystal_density_diffrn    0.944
_exptl_crystal_density_method    'not measured'
_exptl_crystal_F_000             4544
_exptl_absorpt_coefficient_mu    2.510
_exptl_absorpt_correction_type   empirical
_exptl_absorpt_correction_T_min  0.547
_exptl_absorpt_correction_T_max  0.798
_exptl_absorpt_process_details   CrysAlisPro

_exptl_special_details           
;
?
;

_diffrn_ambient_temperature      293(2)
_diffrn_radiation_wavelength     1.54178
_diffrn_radiation_type           CuK\a
_diffrn_radiation_source         'fine-focus sealed tube'
_diffrn_radiation_monochromator  graphite
_diffrn_measurement_device_type  'Xcalibur, Atlas, Gemini ultra'
_diffrn_measurement_method       '\w scans'
_diffrn_detector_area_resol_mean 10.3592
_diffrn_standards_number         none
_diffrn_standards_interval_count none
_diffrn_standards_interval_time  none
_diffrn_standards_decay_%        ?
_diffrn_reflns_number            32219
_diffrn_reflns_av_R_equivalents  0.0398
_diffrn_reflns_av_sigmaI/netI    0.0214
_diffrn_reflns_limit_h_min       -21
_diffrn_reflns_limit_h_max       25
_diffrn_reflns_limit_k_min       -22
_diffrn_reflns_limit_k_max       7
_diffrn_reflns_limit_l_min       -40
_diffrn_reflns_limit_l_max       41
_diffrn_reflns_theta_min         3.32
_diffrn_reflns_theta_max         64.32
_reflns_number_total             4725
_reflns_number_gt                3934
_reflns_threshold_expression     >2sigma(I)

_computing_data_collection       'CrysAlisPro (Oxford Diffraction Ltd., 2010)'
_computing_cell_refinement       'CrysAlisPro (Oxford Diffraction Ltd., 2010)'
_computing_data_reduction        'CrysAlisPro (Oxford Diffraction Ltd., 2010)'
_computing_structure_solution    'SHELXS-97 (Sheldrick, 1990)'
_computing_structure_refinement  'SHELXL-97 (Sheldrick, 1997)'
_computing_molecular_graphics    ?
_computing_publication_material  ?

_refine_special_details          
;
Refinement of F^2^ against ALL reflections. The weighted R-factor wR and
goodness of fit S are based on F^2^, conventional R-factors R are based
on F, with F set to zero for negative F^2^. The threshold expression of
F^2^ > 2sigma(F^2^) is used only for calculating R-factors(gt) etc. and is
not relevant to the choice of reflections for refinement. R-factors based
on F^2^ are statistically about twice as large as those based on F, and R-
factors based on ALL data will be even larger.
;

# SQUEEZE RESULTS (APPEND TO CIF)
# Note: Data are Listed for all Voids in the P1 Unit Cell
# i.e. Centre of Gravity, Solvent Accessible Volume,
# Recovered number of Electrons in the Void and
# Details about the Squeezed Material
loop_
_platon_squeeze_void_nr
_platon_squeeze_void_average_x
_platon_squeeze_void_average_y
_platon_squeeze_void_average_z
_platon_squeeze_void_volume
_platon_squeeze_void_count_electrons
_platon_squeeze_void_content
1 -0.003 -0.002 -0.001 8370 1133 ' '
2 0.333 0.667 0.094 25 1 ' '
3 0.333 0.667 0.406 25 2 ' '
4 0.333 0.667 0.594 25 1 ' '
5 0.333 0.667 0.906 25 2 ' '
6 0.667 0.333 0.094 25 1 ' '
7 0.667 0.333 0.406 25 1 ' '
8 0.667 0.333 0.594 25 1 ' '
9 0.667 0.333 0.906 25 1 ' '
_platon_squeeze_details          
;
;

_refine_ls_structure_factor_coef Fsqd
_refine_ls_matrix_type           full
_refine_ls_weighting_scheme      calc
_refine_ls_weighting_details     
'calc w=1/[\s^2^(Fo^2^)+(0.0825P)^2^+35.6048P] where P=(Fo^2^+2Fc^2^)/3'
_atom_sites_solution_primary     direct
_atom_sites_solution_secondary   difmap
_atom_sites_solution_hydrogens   geom
_refine_ls_hydrogen_treatment    constr
_refine_ls_extinction_method     none
_refine_ls_extinction_coef       ?
_refine_ls_number_reflns         4725
_refine_ls_number_parameters     218
_refine_ls_number_restraints     0
_refine_ls_R_factor_all          0.0776
_refine_ls_R_factor_gt           0.0706
_refine_ls_wR_factor_ref         0.1953
_refine_ls_wR_factor_gt          0.1904
_refine_ls_goodness_of_fit_ref   1.031
_refine_ls_restrained_S_all      1.031
_refine_ls_shift/su_max          0.000
_refine_ls_shift/su_mean         0.000

loop_
_atom_site_label
_atom_site_type_symbol
_atom_site_fract_x
_atom_site_fract_y
_atom_site_fract_z
_atom_site_U_iso_or_equiv
_atom_site_adp_type
_atom_site_occupancy
_atom_site_symmetry_multiplicity
_atom_site_calc_flag
_atom_site_refinement_flags
_atom_site_disorder_assembly
_atom_site_disorder_group
Cu1 Cu 0.0000 0.57961(5) 0.08451(3) 0.0661(3) Uani 1 2 d S . .
Cu2 Cu 0.24419(6) 0.72968(6) 0.2500 0.0762(4) Uani 1 2 d S . .
Cu3 Cu 0.04755(14) 0.68325(14) 0.01345(7) 0.0903(8) Uani 0.33 1 d P . .
Mn1 Mn 0.5000 1.0000 0.0000 0.0489(3) Uani 1 4 d S . .
O1 O 0.3548(2) 0.7862(2) 0.18991(10) 0.1036(15) Uani 1 1 d . . .
O2 O 0.24246(18) 0.72754(19) 0.19696(8) 0.0783(10) Uani 1 1 d . . .
O3 O 0.09777(15) 0.63035(17) 0.08877(9) 0.0696(9) Uani 1 1 d . . .
O4 O 0.12709(18) 0.69406(18) 0.03794(9) 0.0754(10) Uani 1 1 d . . .
O5 O 0.58919(19) 1.0000 0.03094(11) 0.0560(10) Uani 1 2 d S . .
O6 O 0.0000 0.5486(3) 0.13470(15) 0.105(2) Uani 1 2 d S . .
O7 O 0.2344(4) 0.6404(3) 0.2500 0.108(2) Uani 1 2 d S . .
O8 O 0.2651(6) 0.8261(4) 0.2500 0.173(4) Uani 1 2 d S . .
O9 O 0.1048(11) 0.7804(11) -0.0118(6) 0.166(7) Uiso 0.33 1 d P . .
N1 N 0.4552(2) 1.0000 0.04807(13) 0.0536(11) Uani 1 2 d S . .
N2 N 0.44829(11) 0.8966(2) 0.0000 0.0483(10) Uani 1 2 d S . .
C1 C 0.3801(3) 0.9652(2) 0.09623(12) 0.0683(13) Uani 1 1 d . . .
H1A H 0.3462 0.9371 0.1128 0.082 Uiso 1 1 calc R . .
C2 C 0.4048(2) 0.9432(2) 0.06644(11) 0.0536(10) Uani 1 1 d . . .
C3 C 0.3800(2) 0.8753(2) 0.05640(10) 0.0521(10) Uani 1 1 d . . .
C4 C 0.4018(2) 0.8548(2) 0.02558(10) 0.0507(9) Uani 1 1 d . . .
C5 C 0.3771(2) 0.7847(2) 0.01569(12) 0.0606(11) Uani 1 1 d . . .
H5A H 0.3457 0.7462 0.0288 0.073 Uiso 1 1 calc R . .
C6 C 0.3251(2) 0.8206(2) 0.07969(10) 0.0533(10) Uani 1 1 d . . .
C7 C 0.3368(2) 0.8118(2) 0.11598(11) 0.0567(10) Uani 1 1 d . . .
H7A H 0.3801 0.8392 0.1261 0.068 Uiso 1 1 calc R . .
C8 C 0.2848(2) 0.7625(2) 0.13745(12) 0.0600(11) Uani 1 1 d . . .
C9 C 0.2213(2) 0.7191(2) 0.12191(12) 0.0600(11) Uani 1 1 d . . .
H9A H 0.1866 0.6854 0.1362 0.072 Uiso 1 1 calc R . .
C10 C 0.2091(2) 0.7256(2) 0.08536(11) 0.0555(10) Uani 1 1 d . . .
C11 C 0.2608(2) 0.7769(2) 0.06458(11) 0.0570(10) Uani 1 1 d . . .
H11A H 0.2525 0.7823 0.0402 0.068 Uiso 1 1 calc R . .
C12 C 0.2956(3) 0.7580(3) 0.17777(12) 0.0681(13) Uani 1 1 d . . .
C13 C 0.1394(2) 0.6801(2) 0.06877(12) 0.0602(11) Uani 1 1 d . . .

loop_
_atom_site_aniso_label
_atom_site_aniso_U_11
_atom_site_aniso_U_22
_atom_site_aniso_U_33
_atom_site_aniso_U_23
_atom_site_aniso_U_13
_atom_site_aniso_U_12
Cu1 0.0483(5) 0.0803(6) 0.0591(6) -0.0001(4) 0.000 0.0242(3)
Cu2 0.0857(7) 0.0798(7) 0.0446(5) 0.000 0.000 0.0274(6)
Cu3 0.0874(16) 0.0825(16) 0.0916(16) 0.0043(13) -0.0149(13) 0.0355(13)
Mn1 0.0603(6) 0.0408(7) 0.0390(6) 0.000 0.0044(5) 0.0204(3)
O1 0.077(3) 0.125(3) 0.062(2) 0.022(2) -0.0133(19) 0.016(2)
O2 0.077(2) 0.086(2) 0.0444(16) 0.0064(16) 0.0005(16) 0.0203(19)
O3 0.0498(17) 0.077(2) 0.0630(18) 0.0063(16) -0.0009(14) 0.0178(16)
O4 0.073(2) 0.081(2) 0.0538(18) 0.0050(16) -0.0099(16) 0.0249(18)
O5 0.0617(18) 0.053(2) 0.051(2) 0.000 -0.0031(16) 0.0263(11)
O6 0.062(3) 0.151(5) 0.071(3) 0.023(3) 0.000 0.0312(16)
O7 0.176(6) 0.112(5) 0.054(3) 0.000 0.000 0.086(5)
O8 0.290(13) 0.120(6) 0.091(5) 0.000 0.000 0.089(7)
N1 0.063(2) 0.050(3) 0.044(2) 0.000 0.004(2) 0.0249(14)
N2 0.055(2) 0.044(2) 0.042(2) 0.000 0.0005(18) 0.0218(12)
C1 0.076(3) 0.063(3) 0.053(2) 0.000(2) 0.014(2) 0.025(2)
C2 0.057(2) 0.050(2) 0.045(2) 0.0023(18) 0.0062(18) 0.020(2)
C3 0.052(2) 0.050(2) 0.045(2) 0.0026(18) 0.0009(18) 0.0195(19)
C4 0.056(2) 0.046(2) 0.044(2) 0.0014(17) 0.0003(17) 0.0209(19)
C5 0.065(3) 0.043(2) 0.063(2) 0.0022(19) 0.006(2) 0.019(2)
C6 0.056(2) 0.049(2) 0.046(2) 0.0020(18) 0.0048(19) 0.019(2)
C7 0.054(2) 0.056(2) 0.048(2) 0.0002(19) 0.0002(19) 0.019(2)
C8 0.062(3) 0.058(3) 0.048(2) 0.004(2) -0.004(2) 0.021(2)
C9 0.061(3) 0.058(3) 0.049(2) 0.0070(19) 0.006(2) 0.021(2)
C10 0.056(2) 0.055(2) 0.048(2) 0.0011(18) 0.0021(19) 0.022(2)
C11 0.061(3) 0.058(2) 0.044(2) 0.0018(19) 0.0011(19) 0.024(2)
C12 0.069(3) 0.066(3) 0.048(2) 0.009(2) -0.003(2) 0.017(2)
C13 0.055(2) 0.061(3) 0.056(3) 0.000(2) 0.001(2) 0.023(2)

_geom_special_details            
;
All esds (except the esd in the dihedral angle between two l.s. planes)
are estimated using the full covariance matrix. The cell esds are taken
into account individually in the estimation of esds in distances, angles
and torsion angles; correlations between esds in cell parameters are only
used when they are defined by crystal symmetry. An approximate (isotropic)
treatment of cell esds is used for estimating esds involving l.s. planes.
;

loop_
_geom_bond_atom_site_label_1
_geom_bond_atom_site_label_2
_geom_bond_distance
_geom_bond_site_symmetry_2
_geom_bond_publ_flag
Cu1 O3 1.912(3) 24 ?
Cu1 O3 1.912(3) . ?
Cu1 O6 1.958(5) . ?
Cu1 O5 1.964(4) 2_665 ?
Cu2 O7 1.908(6) . ?
Cu2 O2 1.933(3) . ?
Cu2 O2 1.933(3) 16_556 ?
Cu2 O8 1.977(9) . ?
Cu3 Cu3 1.854(5) 24 ?
Cu3 O4 1.904(4) . ?
Cu3 O5 1.941(5) 2_665 ?
Cu3 O9 2.11(2) . ?
Mn1 N2 2.016(4) . ?
Mn1 N2 2.016(4) 13_675 ?
Mn1 N1 2.021(5) . ?
Mn1 N1 2.021(5) 13_675 ?
Mn1 O5 2.302(4) . ?
Mn1 O5 2.302(4) 13_675 ?
O1 C12 1.236(6) . ?
O2 C12 1.253(6) . ?
O3 C13 1.271(5) . ?
O4 C13 1.235(5) . ?
O5 Cu3 1.941(5) 3_565 ?
O5 Cu3 1.941(5) 22_565 ?
O5 Cu1 1.964(4) 3_565 ?
N1 C2 1.385(5) . ?
N1 C2 1.385(5) 23_675 ?
N2 C4 1.366(5) 11 ?
N2 C4 1.366(5) . ?
C1 C1 1.355(9) 23_675 ?
C1 C2 1.418(6) . ?
C2 C3 1.390(6) . ?
C3 C4 1.393(6) . ?
C3 C6 1.497(6) . ?
C4 C5 1.432(6) . ?
C5 C5 1.332(9) 11 ?
C6 C7 1.382(6) . ?
C6 C11 1.394(6) . ?
C7 C8 1.383(6) . ?
C8 C9 1.387(6) . ?
C8 C12 1.501(6) . ?
C9 C10 1.382(6) . ?
C10 C11 1.384(6) . ?
C10 C13 1.506(6) . ?

loop_
_geom_angle_atom_site_label_1
_geom_angle_atom_site_label_2
_geom_angle_atom_site_label_3
_geom_angle
_geom_angle_site_symmetry_1
_geom_angle_site_symmetry_3
_geom_angle_publ_flag
O3 Cu1 O3 170.4(2) 24 . ?
O3 Cu1 O6 86.10(10) 24 . ?
O3 Cu1 O6 86.10(10) . . ?
O3 Cu1 O5 94.49(10) 24 2_665 ?
O3 Cu1 O5 94.49(10) . 2_665 ?
O6 Cu1 O5 165.4(3) . 2_665 ?
O7 Cu2 O2 89.05(12) . . ?
O7 Cu2 O2 89.05(12) . 16_556 ?
O2 Cu2 O2 177.4(2) . 16_556 ?
O7 Cu2 O8 173.9(4) . . ?
O2 Cu2 O8 91.04(12) . . ?
O2 Cu2 O8 91.04(12) 16_556 . ?
Cu3 Cu3 O4 144.52(13) 24 . ?
Cu3 Cu3 O5 61.48(10) 24 2_665 ?
O4 Cu3 O5 87.47(16) . 2_665 ?
Cu3 Cu3 O9 121.9(6) 24 . ?
O4 Cu3 O9 91.3(6) . . ?
O5 Cu3 O9 171.7(6) 2_665 . ?
N2 Mn1 N2 179.996(1) . 13_675 ?
N2 Mn1 N1 90.000(1) . . ?
N2 Mn1 N1 90.0 13_675 . ?
N2 Mn1 N1 90.0 . 13_675 ?
N2 Mn1 N1 89.995(1) 13_675 13_675 ?
N1 Mn1 N1 179.996(1) . 13_675 ?
N2 Mn1 O5 90.0 . . ?
N2 Mn1 O5 90.000(1) 13_675 . ?
N1 Mn1 O5 90.59(18) . . ?
N1 Mn1 O5 89.41(18) 13_675 . ?
N2 Mn1 O5 90.001(1) . 13_675 ?
N2 Mn1 O5 90.0 13_675 13_675 ?
N1 Mn1 O5 89.41(18) . 13_675 ?
N1 Mn1 O5 90.59(18) 13_675 13_675 ?
O5 Mn1 O5 180.0 . 13_675 ?
C12 O2 Cu2 122.9(3) . . ?
C13 O3 Cu1 127.0(3) . . ?
C13 O4 Cu3 135.3(3) . . ?
Cu3 O5 Cu3 57.0(2) 3_565 22_565 ?
Cu3 O5 Cu1 114.59(19) 3_565 3_565 ?
Cu3 O5 Cu1 114.59(19) 22_565 3_565 ?
Cu3 O5 Mn1 123.33(18) 3_565 . ?
Cu3 O5 Mn1 123.33(18) 22_565 . ?
Cu1 O5 Mn1 113.02(19) 3_565 . ?
C2 N1 C2 106.1(5) . 23_675 ?
C2 N1 Mn1 126.7(2) . . ?
C2 N1 Mn1 126.7(2) 23_675 . ?
C4 N2 C4 106.7(5) 11 . ?
C4 N2 Mn1 126.6(2) 11 . ?
C4 N2 Mn1 126.6(2) . . ?
C1 C1 C2 107.6(3) 23_675 . ?
N1 C2 C3 125.5(4) . . ?
N1 C2 C1 109.3(4) . . ?
C3 C2 C1 125.1(4) . . ?
C2 C3 C4 124.3(4) . . ?
C2 C3 C6 117.8(4) . . ?
C4 C3 C6 117.9(4) . . ?
N2 C4 C3 126.7(4) . . ?
N2 C4 C5 109.2(4) . . ?
C3 C4 C5 124.1(4) . . ?
C5 C5 C4 107.4(2) 11 . ?
C7 C6 C11 118.8(4) . . ?
C7 C6 C3 121.5(4) . . ?
C11 C6 C3 119.7(4) . . ?
C6 C7 C8 120.8(4) . . ?
C7 C8 C9 119.6(4) . . ?
C7 C8 C12 120.5(4) . . ?
C9 C8 C12 119.8(4) . . ?
C10 C9 C8 120.5(4) . . ?
C9 C10 C11 119.2(4) . . ?
C9 C10 C13 120.6(4) . . ?
C11 C10 C13 120.2(4) . . ?
C10 C11 C6 121.1(4) . . ?
O1 C12 O2 124.8(4) . . ?
O1 C12 C8 119.0(4) . . ?
O2 C12 C8 116.1(4) . . ?
O4 C13 O3 125.8(4) . . ?
O4 C13 C10 118.8(4) . . ?
O3 C13 C10 115.3(4) . . ?

_diffrn_measured_fraction_theta_max 0.989
_diffrn_reflns_theta_full        64.32
_diffrn_measured_fraction_theta_full 0.989
_refine_diff_density_max         1.093
_refine_diff_density_min         -0.492
_refine_diff_density_rms         0.095


