
#######################################################################
#
#                 Cambridge Crystallographic Data Centre
#                                CCDC
#
#######################################################################
#
# If this CIF has been generated from an entry in the Cambridge
# Structural Database, then it will include bibliographic, chemical,
# crystal, experimental, refinement or atomic coordinate data resulting
# from the CCDC's data processing and validation procedures.
#
#######################################################################

data_CSD_CIF_KMEIND
_audit_creation_date 1973-11-15
_audit_creation_method CSD-ConQuest-V1
_database_code_CSD KMEIND
_database_code_depnum_ccdc_archive 'CCDC 1198188'
_chemical_formula_sum 'C4 H12 In1 K1'
_chemical_formula_moiety
;
K1 1+,C4 H12 In1 1-
;
_journal_coden_Cambridge 36
_journal_volume 50
_journal_year 1973
_journal_page_first 17
_journal_name_full 'J.Organomet.Chem. '
loop_
_publ_author_name
"K.Hoffmann"
"E.Weiss"
_chemical_name_systematic
;
Potassium tetramethylindate
;
_chemical_name_common
;
Potassium tetramethyl-indium(iii); Teaching Subset: Fundamental Chemistry
;
_cell_volume    797.662
_exptl_crystal_density_diffrn 1.782
_diffrn_ambient_temperature ?
_diffrn_special_details
;
The study was carried out at room temperature,in the range 283-303K

;
#These two values have been output from a single CSD field.
_refine_ls_R_factor_gt 0.066
_refine_ls_wR_factor_gt 0.066
_symmetry_cell_setting tetragonal
_symmetry_space_group_name_H-M 'I 41/a m d'
_symmetry_Int_Tables_number 141
loop_
_symmetry_equiv_pos_site_id
_symmetry_equiv_pos_as_xyz
1 x,y,z
2 y,-x,-z
3 x,1/2-y,1/4-z
4 -x,1/2-y,1/4-z
5 -x,-y,z
6 1/2-y,-x,3/4+z
7 1/2-y,x,3/4+z
8 -y,x,-z
9 -x,1/2+y,1/4-z
10 x,1/2+y,1/4-z
11 1/2+y,x,3/4+z
12 1/2+y,-x,3/4+z
13 -x,y,z
14 1/2-y,1/2-x,1/2-z
15 x,-y,z
16 1/2+y,1/2+x,1/2-z
17 1/2+x,1/2+y,1/2+z
18 1/2+y,1/2-x,1/2-z
19 1/2+x,-y,3/4-z
20 1/2-x,-y,3/4-z
21 1/2-x,1/2-y,1/2+z
22 -y,1/2-x,1/4+z
23 -y,1/2+x,1/4+z
24 1/2-y,1/2+x,1/2-z
25 1/2-x,y,3/4-z
26 1/2+x,y,3/4-z
27 y,1/2+x,1/4+z
28 y,1/2-x,1/4+z
29 1/2-x,1/2+y,1/2+z
30 -y,-x,-z
31 1/2+x,1/2-y,1/2+z
32 y,x,-z
_cell_length_a 9.904(2)
_cell_length_b 9.904(2)
_cell_length_c 8.132(2)
_cell_angle_alpha 90
_cell_angle_beta 90
_cell_angle_gamma 90
_cell_formula_units_Z 4
loop_
_atom_type_symbol
_atom_type_radius_bond
C 0.68
In 1.63
K 1.33
loop_
_atom_site_label
_atom_site_type_symbol
_atom_site_fract_x
_atom_site_fract_y
_atom_site_fract_z
C1 C 0.00000 0.19300 0.85660
In1 In 0.00000 0.00000 1.00000
K1 K 0.00000 0.00000 0.50000
C1A C 0.19300 0.00000 1.14340
C1D C 0.00000 -0.19300 0.85660
C1G C -0.19300 0.00000 1.14340
#END
