####################################################################### 
# 
# This file contains crystal structure data downloaded from the 
# Cambridge Structural Database (CSD) hosted by the Cambridge 
# Crystallographic Data Centre (CCDC).
# 
# Full information about CCDC data access policies and citation 
# guidelines are available at http://www.ccdc.cam.ac.uk/access/V1 
# 
# Audit and citation data items may have been added by the CCDC. 
# Please retain this information to preserve the provenance of 
# this file and to allow appropriate attribution of the data. 
# 
#######################################################################

data_a
_audit_block_doi                 10.5517/ccpr4wf
_database_code_depnum_ccdc_archive 'CCDC 647865'
loop_
_citation_id
_citation_doi
_citation_year
1 10.1016/j.inoche.2007.12.036 2008
_audit_update_record             
;
2007-05-17 deposited with the CCDC.	2024-07-11 downloaded from the CCDC.
;

_audit_creation_method           SHELXL-97
_chemical_name_systematic        
;
?
;
_chemical_name_common            (Mn4(4-TZBA2-)4(u2-H2O)2(H2O)(py))
_chemical_melting_point          ?
_chemical_formula_moiety         ?
_chemical_formula_sum            'C37 H22 Mn4 N17 O14'
_chemical_formula_weight         1148.48

loop_
_atom_type_symbol
_atom_type_description
_atom_type_scat_dispersion_real
_atom_type_scat_dispersion_imag
_atom_type_scat_source
C C 0.0033 0.0016 'International Tables Vol C Tables 4.2.6.8 and 6.1.1.4'
H H 0.0000 0.0000 'International Tables Vol C Tables 4.2.6.8 and 6.1.1.4'
N N 0.0061 0.0033 'International Tables Vol C Tables 4.2.6.8 and 6.1.1.4'
O O 0.0106 0.0060 'International Tables Vol C Tables 4.2.6.8 and 6.1.1.4'
Mn Mn 0.3368 0.7283 'International Tables Vol C Tables 4.2.6.8 and 6.1.1.4'

_symmetry_cell_setting           Orthorhombic
_symmetry_space_group_name_H-M   C222(1)

loop_
_symmetry_equiv_pos_as_xyz
'x, y, z'
'-x, -y, z+1/2'
'-x, y, -z+1/2'
'x, -y, -z'
'x+1/2, y+1/2, z'
'-x+1/2, -y+1/2, z+1/2'
'-x+1/2, y+1/2, -z+1/2'
'x+1/2, -y+1/2, -z'

_cell_length_a                   17.856(4)
_cell_length_b                   17.856(4)
_cell_length_c                   42.559(9)
_cell_angle_alpha                90.00
_cell_angle_beta                 90.00
_cell_angle_gamma                90.00
_cell_volume                     13570(5)
_cell_formula_units_Z            8
_cell_measurement_temperature    293(2)
_cell_measurement_reflns_used    ?
_cell_measurement_theta_min      ?
_cell_measurement_theta_max      ?

_exptl_crystal_description       ?
_exptl_crystal_colour            ?
_exptl_crystal_size_max          ?
_exptl_crystal_size_mid          ?
_exptl_crystal_size_min          ?
_exptl_crystal_density_meas      ?
_exptl_crystal_density_diffrn    1.124
_exptl_crystal_density_method    'not measured'
_exptl_crystal_F_000             4600
_exptl_absorpt_coefficient_mu    0.785
_exptl_absorpt_correction_type   ?
_exptl_absorpt_correction_T_min  ?
_exptl_absorpt_correction_T_max  ?
_exptl_absorpt_process_details   ?

_exptl_special_details           
;
?
;

_diffrn_ambient_temperature      293(2)
_diffrn_radiation_wavelength     0.71073
_diffrn_radiation_type           MoK\a
_diffrn_radiation_source         'fine-focus sealed tube'
_diffrn_radiation_monochromator  graphite
_diffrn_measurement_device_type  ?
_diffrn_measurement_method       ?
_diffrn_detector_area_resol_mean ?
_diffrn_standards_number         ?
_diffrn_standards_interval_count ?
_diffrn_standards_interval_time  ?
_diffrn_standards_decay_%        ?
_diffrn_reflns_number            25534
_diffrn_reflns_av_R_equivalents  0.0958
_diffrn_reflns_av_sigmaI/netI    0.0582
_diffrn_reflns_limit_h_min       -19
_diffrn_reflns_limit_h_max       19
_diffrn_reflns_limit_k_min       -19
_diffrn_reflns_limit_k_max       19
_diffrn_reflns_limit_l_min       -42
_diffrn_reflns_limit_l_max       47
_diffrn_reflns_theta_min         3.23
_diffrn_reflns_theta_max         23.25
_reflns_number_total             9262
_reflns_number_gt                8986
_reflns_threshold_expression     >2sigma(I)

_computing_data_collection       ?
_computing_cell_refinement       ?
_computing_data_reduction        ?
_computing_structure_solution    'SHELXS-97 (Sheldrick, 1990)'
_computing_structure_refinement  'SHELXL-97 (Sheldrick, 1997)'
_computing_molecular_graphics    ?
_computing_publication_material  ?

_refine_special_details          
;
Refinement of F^2^ against ALL reflections. The weighted R-factor wR and
goodness of fit S are based on F^2^, conventional R-factors R are based
on F, with F set to zero for negative F^2^. The threshold expression of
F^2^ > 2sigma(F^2^) is used only for calculating R-factors(gt) etc. and is
not relevant to the choice of reflections for refinement. R-factors based
on F^2^ are statistically about twice as large as those based on F, and R-
factors based on ALL data will be even larger.
;

_refine_ls_structure_factor_coef Fsqd
_refine_ls_matrix_type           full
_refine_ls_weighting_scheme      calc
_refine_ls_weighting_details     
'calc w=1/[\s^2^(Fo^2^)+(0.1176P)^2^+109.3196P] where P=(Fo^2^+2Fc^2^)/3'
_atom_sites_solution_primary     direct
_atom_sites_solution_secondary   difmap
_atom_sites_solution_hydrogens   geom
_refine_ls_hydrogen_treatment    mixed
_refine_ls_extinction_method     SHELXL
_refine_ls_extinction_coef       0.00137(16)
_refine_ls_extinction_expression Fc^*^=kFc[1+0.001xFc^2^\l^3^/sin(2\q)]^-1/4^
_refine_ls_abs_structure_details 'Flack H D (1983), Acta Cryst. A39, 876-881'
_refine_ls_abs_structure_Flack   0.01(3)
_refine_ls_number_reflns         9262
_refine_ls_number_parameters     635
_refine_ls_number_restraints     82
_refine_ls_R_factor_all          0.0777
_refine_ls_R_factor_gt           0.0715
_refine_ls_wR_factor_ref         0.1896
_refine_ls_wR_factor_gt          0.1840
_refine_ls_goodness_of_fit_ref   0.994
_refine_ls_restrained_S_all      1.003
_refine_ls_shift/su_max          0.000
_refine_ls_shift/su_mean         0.000

loop_
_atom_site_label
_atom_site_type_symbol
_atom_site_fract_x
_atom_site_fract_y
_atom_site_fract_z
_atom_site_U_iso_or_equiv
_atom_site_adp_type
_atom_site_occupancy
_atom_site_symmetry_multiplicity
_atom_site_calc_flag
_atom_site_refinement_flags
_atom_site_disorder_assembly
_atom_site_disorder_group
Mn1 Mn 0.22834(5) 0.51913(5) 0.11110(2) 0.0188(3) Uani 1 1 d . . .
Mn2 Mn 0.38392(6) 0.46386(6) 0.16891(2) 0.0209(3) Uani 1 1 d . . .
Mn3 Mn 0.53616(6) 0.11603(6) 0.08104(2) 0.0209(3) Uani 1 1 d . . .
Mn4 Mn 0.48088(5) 0.27156(5) 0.13899(2) 0.0189(3) Uani 1 1 d . . .
N16 N 0.3112(3) 0.4238(3) 0.10014(13) 0.0240(13) Uani 1 1 d . . .
O7 O 0.1393(3) 0.4453(3) 0.10859(17) 0.0448(15) Uani 1 1 d . . .
O2 O 0.5536(3) 0.3607(3) 0.14162(16) 0.0421(15) Uani 1 1 d . . .
N3 N 0.9073(4) 0.6760(4) 0.12623(17) 0.0344(16) Uani 1 1 d . . .
C1 C 0.5535(4) 0.4284(5) 0.1505(2) 0.0323(18) Uani 1 1 d . . .
N11 N -0.1754(4) 0.0931(3) 0.12398(18) 0.0344(16) Uani 1 1 d . . .
N15 N 0.3585(3) 0.4011(3) 0.12292(14) 0.0216(13) Uani 1 1 d . . .
O1 O 0.5005(3) 0.4593(3) 0.16325(15) 0.0413(14) Uani 1 1 d . . .
C25 C 0.0725(4) 0.4472(5) 0.09971(19) 0.0313(18) Uani 1 1 d . . .
O10 O 0.2528(3) 0.4743(5) 0.16416(15) 0.0542(18) Uani 1 1 d . . .
O9 O 0.5264(5) 0.2478(3) 0.08571(15) 0.0556(18) Uani 1 1 d . . .
N2 N 0.9300(3) 0.6185(4) 0.10883(18) 0.0361(16) Uani 1 1 d . . .
N14 N 0.3994(4) 0.3458(3) 0.11242(15) 0.0296(14) Uani 1 1 d . . .
C27 C 0.0646(5) 0.3129(5) 0.1162(3) 0.063(4) Uani 1 1 d . . .
H27A H 0.1163 0.3133 0.1189 0.076 Uiso 1 1 calc R . .
C2 C 0.6220(4) 0.4723(5) 0.1446(2) 0.0368(19) Uani 1 1 d . . .
C26 C 0.0273(5) 0.3772(4) 0.1054(2) 0.0356(19) Uani 1 1 d . . .
C3 C 0.6881(5) 0.4355(5) 0.1351(3) 0.065(4) Uani 1 1 d . . .
H3A H 0.6887 0.3836 0.1336 0.078 Uiso 1 1 calc R . .
C31 C -0.0882(5) 0.3117(5) 0.1089(3) 0.052(3) Uani 1 1 d . . .
H31A H -0.1401 0.3121 0.1071 0.063 Uiso 1 1 calc R . .
C28 C 0.0239(6) 0.2497(6) 0.1226(4) 0.075(4) Uani 1 1 d . . .
H28A H 0.0486 0.2074 0.1300 0.090 Uiso 1 1 calc R . .
C32 C -0.0486(5) 0.3760(5) 0.1018(3) 0.050(3) Uani 1 1 d . . .
H32A H -0.0736 0.4184 0.0946 0.061 Uiso 1 1 calc R . .
O8 O 0.0404(3) 0.5001(3) 0.08665(16) 0.0443(15) Uani 1 1 d . . .
O4 O 0.4319(3) 0.2735(4) 0.18288(13) 0.0428(15) Uani 1 1 d . . .
O3 O 0.3737(4) 0.3750(3) 0.20028(14) 0.0460(15) Uani 1 1 d . . .
N10 N -0.1197(4) 0.0702(3) 0.14100(16) 0.0323(15) Uani 1 1 d . . .
N8 N 0.4230(3) 0.1886(3) 0.35007(14) 0.0240(13) Uani 1 1 d . . .
N7 N 0.4011(3) 0.1418(3) 0.37309(14) 0.0218(13) Uani 1 1 d . . .
C9 C 0.4010(4) 0.3112(4) 0.20345(17) 0.0285(17) Uani 1 1 d . . .
N13 N 0.3822(4) 0.3322(4) 0.08231(15) 0.0383(17) Uani 1 1 d . . .
N5 N 0.3323(4) 0.1174(4) 0.33237(15) 0.0351(16) Uani 1 1 d . . .
N12 N -0.1612(4) 0.1612(4) 0.1129(2) 0.0425(19) Uani 1 1 d . . .
N9 N -0.0668(4) 0.1233(4) 0.1419(2) 0.0463(19) Uani 1 1 d . . .
C14 C 0.3805(4) 0.1729(4) 0.32564(17) 0.0275(16) Uani 1 1 d . . .
C10 C 0.3955(4) 0.2747(5) 0.23580(17) 0.0319(17) Uani 1 1 d . . .
N6 N 0.3462(3) 0.1008(4) 0.36157(15) 0.0325(15) Uani 1 1 d . . .
C22 C 0.3269(4) 0.3808(4) 0.07552(18) 0.0287(16) Uani 1 1 d . . .
C16 C 0.3871(7) 0.3172(5) 0.2625(2) 0.055(3) Uani 1 1 d . . .
H16A H 0.3845 0.3691 0.2609 0.066 Uiso 1 1 calc R . .
C30 C -0.0940(5) 0.1788(5) 0.1248(3) 0.045(2) Uani 1 1 d . . .
N4 N 0.8383(4) 0.6614(4) 0.1371(2) 0.0434(19) Uani 1 1 d . . .
N1 N 0.8771(4) 0.5669(4) 0.1080(2) 0.050(2) Uani 1 1 d . . .
C18 C 0.2255(5) 0.3942(4) -0.01417(19) 0.0340(18) Uani 1 1 d . . .
C21 C 0.2912(4) 0.3860(5) 0.04464(17) 0.0322(18) Uani 1 1 d . . .
C6 C 0.8219(5) 0.5931(4) 0.1266(2) 0.042(2) Uani 1 1 d . . .
C13 C 0.3866(5) 0.2090(5) 0.29398(18) 0.0329(18) Uani 1 1 d . . .
C5 C 0.7529(5) 0.5540(5) 0.1320(2) 0.045(2) Uani 1 1 d . . .
C23 C 0.2162(5) 0.3832(7) 0.0415(2) 0.057(3) Uani 1 1 d . . .
H23A H 0.1862 0.3779 0.0592 0.068 Uiso 1 1 calc R . .
C29 C -0.0531(5) 0.2471(5) 0.1184(3) 0.048(3) Uani 1 1 d . . .
C19 C 0.3005(5) 0.3969(8) -0.0119(2) 0.067(3) Uani 1 1 d . . .
H19A H 0.3299 0.4035 -0.0297 0.080 Uiso 1 1 calc R . .
C8 C 0.6231(5) 0.5487(5) 0.1479(3) 0.051(3) Uani 1 1 d . . .
H8A H 0.5800 0.5738 0.1542 0.061 Uiso 1 1 calc R . .
C20 C 0.3341(5) 0.3894(9) 0.0177(2) 0.070(4) Uani 1 1 d . . .
H20A H 0.3860 0.3868 0.0193 0.084 Uiso 1 1 calc R . .
C7 C 0.6885(5) 0.5889(5) 0.1418(3) 0.052(3) Uani 1 1 d . . .
H7A H 0.6885 0.6405 0.1445 0.063 Uiso 1 1 calc R . .
C15 C 0.3827(7) 0.2840(5) 0.2909(2) 0.057(3) Uani 1 1 d . . .
H15A H 0.3768 0.3135 0.3087 0.069 Uiso 1 1 calc R . .
C24 C 0.1833(5) 0.3883(6) 0.01185(19) 0.049(2) Uani 1 1 d . . .
H24A H 0.1314 0.3875 0.0101 0.059 Uiso 1 1 calc R . .
C17 C 0.1891(5) 0.4004(4) -0.04617(17) 0.0299(18) Uani 1 1 d . . .
C12 C 0.3922(9) 0.1652(6) 0.2673(2) 0.070(4) Uani 1 1 d . . .
H12A H 0.3912 0.1132 0.2688 0.083 Uiso 1 1 calc R . .
C11 C 0.3990(8) 0.1990(6) 0.2393(2) 0.071(4) Uani 1 1 d . . .
H11A H 0.4065 0.1696 0.2215 0.085 Uiso 1 1 calc R . .
C4 C 0.7511(5) 0.4751(6) 0.1281(4) 0.076(4) Uani 1 1 d . . .
H4A H 0.7933 0.4503 0.1207 0.091 Uiso 1 1 calc R . .
O6 O 0.2269(4) 0.4321(4) -0.06721(14) 0.0449(15) Uani 1 1 d . . .
O5 O 0.1247(3) 0.3741(4) -0.04924(14) 0.0471(16) Uani 1 1 d . . .
N17 N 0.4629(5) 0.1204(6) 0.0384(2) 0.073(2) Uani 1 1 d DU . .
O11 O 0.3775(6) 0.5365(5) 0.21182(18) 0.082(3) Uani 1 1 d . . .
H11B H 0.4197 0.5426 0.2190 0.123 Uiso 1 1 calc R . .
C33 C 0.4879(8) 0.0789(8) 0.0135(4) 0.119(4) Uani 1 1 d DU . .
H33A H 0.5266 0.0446 0.0160 0.143 Uiso 1 1 calc R . .
C37 C 0.4059(8) 0.1715(8) 0.0357(4) 0.118(4) Uani 1 1 d DU . .
H37A H 0.3899 0.1986 0.0531 0.142 Uiso 1 1 calc R . .
C36 C 0.3721(9) 0.1820(9) 0.0063(5) 0.148(5) Uani 1 1 d DU . .
H36A H 0.3337 0.2170 0.0049 0.177 Uiso 1 1 calc R . .
C34 C 0.4543(10) 0.0890(10) -0.0161(4) 0.147(5) Uani 1 1 d DU . .
H34A H 0.4721 0.0602 -0.0327 0.177 Uiso 1 1 calc R . .
C35 C 0.3929(11) 0.1418(10) -0.0227(6) 0.160(5) Uani 1 1 d DU . .
H35B H 0.3706 0.1487 -0.0423 0.192 Uiso 1 1 calc R . .
O12 O 0.2376(11) 0.2896(11) 0.1588(5) 0.187(7) Uiso 1 1 d . . .
O14 O 0.7141(14) 0.2587(14) 0.0893(6) 0.230(10) Uiso 1 1 d . . .
O13 O 0.185(2) 0.3703(19) 0.1888(8) 0.315(16) Uiso 1 1 d . . .

loop_
_atom_site_aniso_label
_atom_site_aniso_U_11
_atom_site_aniso_U_22
_atom_site_aniso_U_33
_atom_site_aniso_U_23
_atom_site_aniso_U_13
_atom_site_aniso_U_12
Mn1 0.0152(5) 0.0166(5) 0.0245(5) -0.0013(4) 0.0009(4) -0.0011(4)
Mn2 0.0215(5) 0.0203(6) 0.0209(5) 0.0024(4) -0.0026(4) -0.0019(4)
Mn3 0.0205(6) 0.0214(6) 0.0209(5) -0.0026(4) 0.0024(4) -0.0022(4)
Mn4 0.0176(5) 0.0150(5) 0.0241(6) 0.0009(4) -0.0019(4) -0.0014(4)
N16 0.025(3) 0.029(3) 0.019(3) -0.003(2) -0.007(2) 0.005(3)
O7 0.031(3) 0.034(3) 0.070(4) 0.003(3) 0.007(3) -0.015(3)
O2 0.031(3) 0.030(3) 0.066(4) 0.001(3) 0.003(3) -0.014(2)
N3 0.024(3) 0.030(4) 0.049(4) -0.009(3) 0.010(3) -0.007(3)
C1 0.022(4) 0.034(5) 0.041(5) 0.006(4) -0.003(3) -0.001(3)
N11 0.025(3) 0.017(3) 0.061(5) 0.010(3) -0.006(3) -0.004(3)
N15 0.026(3) 0.019(3) 0.019(3) 0.000(2) -0.003(2) 0.005(2)
O1 0.026(3) 0.038(3) 0.060(4) -0.006(3) 0.001(3) -0.007(3)
C25 0.030(4) 0.028(4) 0.036(4) -0.004(3) 0.006(3) -0.007(4)
O10 0.028(3) 0.094(5) 0.041(3) 0.021(4) 0.007(3) 0.004(3)
O9 0.093(5) 0.030(3) 0.043(4) 0.007(3) 0.023(4) 0.007(3)
N2 0.022(3) 0.029(3) 0.057(4) -0.013(3) 0.009(3) -0.014(3)
N14 0.032(3) 0.025(3) 0.032(3) -0.004(3) -0.010(3) 0.011(3)
C27 0.027(5) 0.024(5) 0.139(11) 0.011(6) -0.023(6) -0.012(4)
C2 0.016(4) 0.031(4) 0.063(6) -0.004(4) 0.001(4) -0.012(3)
C26 0.038(4) 0.013(4) 0.056(5) 0.005(4) -0.007(4) -0.009(3)
C3 0.031(5) 0.023(4) 0.141(11) -0.016(6) 0.033(6) -0.004(4)
C31 0.030(4) 0.026(4) 0.100(8) 0.012(5) -0.012(5) -0.013(4)
C28 0.046(6) 0.044(6) 0.136(12) 0.052(7) -0.022(7) -0.009(5)
C32 0.031(5) 0.030(5) 0.091(8) 0.015(5) -0.011(5) -0.011(4)
O8 0.039(3) 0.022(3) 0.072(4) 0.004(3) 0.004(3) -0.006(3)
O4 0.050(4) 0.053(4) 0.026(3) 0.008(3) 0.009(3) 0.001(3)
O3 0.066(4) 0.036(3) 0.036(3) 0.025(3) 0.005(3) 0.005(3)
N10 0.027(3) 0.022(3) 0.047(4) 0.010(3) -0.012(3) -0.011(3)
N8 0.023(3) 0.027(3) 0.023(3) 0.014(3) 0.001(2) -0.004(3)
N7 0.015(3) 0.029(3) 0.022(3) 0.004(2) 0.000(2) -0.007(2)
C9 0.027(4) 0.037(5) 0.021(4) 0.008(3) 0.000(3) -0.005(3)
N13 0.048(4) 0.040(4) 0.027(3) -0.012(3) -0.014(3) 0.023(3)
N5 0.036(4) 0.046(4) 0.023(3) 0.011(3) -0.010(3) -0.020(3)
N12 0.035(4) 0.022(3) 0.071(5) 0.012(4) -0.018(4) -0.012(3)
N9 0.038(4) 0.027(4) 0.074(5) 0.016(4) -0.016(4) -0.017(3)
C14 0.032(4) 0.029(4) 0.022(4) 0.009(3) 0.008(3) -0.014(3)
C10 0.034(4) 0.040(4) 0.022(4) 0.011(3) 0.003(3) -0.004(4)
N6 0.027(3) 0.043(4) 0.028(3) 0.009(3) -0.007(3) -0.014(3)
C22 0.030(4) 0.027(4) 0.029(4) -0.001(3) -0.010(3) 0.008(3)
C16 0.091(8) 0.038(5) 0.036(5) 0.007(4) -0.007(5) 0.001(5)
C30 0.023(4) 0.028(4) 0.084(7) 0.011(4) -0.014(4) -0.007(4)
N4 0.022(3) 0.043(4) 0.065(5) -0.019(4) 0.012(3) -0.009(3)
N1 0.024(3) 0.036(4) 0.090(6) -0.020(4) 0.017(4) -0.013(3)
C18 0.043(5) 0.026(4) 0.033(4) -0.004(3) -0.009(4) -0.003(4)
C21 0.040(4) 0.036(4) 0.021(4) -0.010(3) -0.014(3) 0.016(4)
C6 0.031(4) 0.019(4) 0.076(6) -0.004(4) 0.013(4) -0.009(4)
C13 0.033(4) 0.041(5) 0.024(4) 0.009(3) -0.005(3) -0.009(4)
C5 0.022(4) 0.035(5) 0.077(7) -0.008(4) 0.016(4) -0.016(4)
C23 0.041(5) 0.102(8) 0.028(5) 0.011(5) -0.005(4) 0.002(6)
C29 0.030(4) 0.021(4) 0.094(8) 0.014(4) -0.013(5) -0.010(4)
C19 0.035(5) 0.131(11) 0.035(5) 0.004(6) -0.007(4) -0.020(6)
C8 0.021(4) 0.028(4) 0.103(8) -0.007(5) 0.013(5) -0.007(4)
C20 0.030(5) 0.141(11) 0.039(5) 0.022(7) -0.008(4) -0.001(6)
C7 0.036(5) 0.024(4) 0.097(8) -0.011(5) 0.022(5) -0.009(4)
C15 0.103(8) 0.036(5) 0.033(5) 0.004(4) 0.016(5) -0.006(5)
C24 0.040(5) 0.083(7) 0.025(4) -0.006(5) -0.014(4) -0.004(5)
C17 0.043(5) 0.028(4) 0.020(4) -0.003(3) -0.014(3) 0.011(4)
C12 0.139(11) 0.037(5) 0.033(5) 0.013(4) 0.005(6) 0.006(7)
C11 0.139(12) 0.043(6) 0.031(5) 0.014(4) 0.019(6) 0.028(7)
C4 0.032(5) 0.036(5) 0.160(13) -0.025(7) 0.048(7) -0.006(4)
O6 0.052(4) 0.054(4) 0.029(3) 0.011(3) -0.007(3) 0.002(3)
O5 0.040(3) 0.062(4) 0.039(3) 0.010(3) -0.025(3) -0.008(3)
N17 0.070(5) 0.090(5) 0.060(4) -0.014(4) -0.024(4) 0.019(4)
O11 0.121(7) 0.077(6) 0.048(4) -0.014(4) -0.014(5) 0.012(6)
C33 0.118(6) 0.134(7) 0.106(6) -0.013(6) -0.017(6) 0.012(6)
C37 0.121(6) 0.127(6) 0.106(6) -0.006(6) -0.022(6) 0.018(6)
C36 0.149(7) 0.158(7) 0.136(7) -0.007(6) -0.019(6) 0.017(6)
C34 0.147(7) 0.162(7) 0.134(7) -0.010(6) -0.012(6) 0.019(6)
C35 0.161(7) 0.170(7) 0.148(7) -0.007(6) -0.013(6) 0.023(6)

_geom_special_details            
;
All esds (except the esd in the dihedral angle between two l.s. planes)
are estimated using the full covariance matrix. The cell esds are taken
into account individually in the estimation of esds in distances, angles
and torsion angles; correlations between esds in cell parameters are only
used when they are defined by crystal symmetry. An approximate (isotropic)
treatment of cell esds is used for estimating esds involving l.s. planes.
;

loop_
_geom_bond_atom_site_label_1
_geom_bond_atom_site_label_2
_geom_bond_distance
_geom_bond_site_symmetry_2
_geom_bond_publ_flag
Mn1 O6 2.061(6) 4_565 ?
Mn1 O7 2.069(5) . ?
Mn1 N11 2.236(6) 5 ?
Mn1 N6 2.292(6) 7 ?
Mn1 N16 2.303(6) . ?
Mn1 O10 2.436(6) . ?
Mn2 O3 2.082(5) . ?
Mn2 O1 2.097(6) . ?
Mn2 N10 2.241(6) 5 ?
Mn2 O11 2.243(8) . ?
Mn2 N15 2.301(6) . ?
Mn2 O10 2.357(6) . ?
Mn3 O8 2.085(6) 5_545 ?
Mn3 O5 2.089(5) 8 ?
Mn3 N2 2.235(6) 5_445 ?
Mn3 N17 2.239(9) . ?
Mn3 N7 2.297(6) 3_655 ?
Mn3 O9 2.368(6) . ?
Mn4 O2 2.057(5) . ?
Mn4 O4 2.062(6) . ?
Mn4 N3 2.221(6) 5_445 ?
Mn