
#######################################################################
#
#                 Cambridge Crystallographic Data Centre
#                                CCDC
#
#######################################################################
#
# If this CIF has been generated from an entry in the Cambridge
# Structural Database, then it will include bibliographic, chemical,
# crystal, experimental, refinement or atomic coordinate data resulting
# from the CCDC's data processing and validation procedures.
#
#######################################################################

data_CSD_CIF_KODJES
_audit_creation_date 1992-03-02
_audit_creation_method CSD-ConQuest-V1
_database_code_CSD KODJES
_database_code_depnum_ccdc_archive 'CCDC 1198468'
_chemical_formula_sum 'C20 H18 N2 O10'
_chemical_formula_moiety
;
C9 H6 N2 O6,C11 H12 O4
;
_journal_coden_Cambridge 182
_journal_year 1991
_journal_page_first 1239
_journal_name_full 'Chem.Commun. '
loop_
_publ_author_name
"G.R.Desiraju"
"C.V.K.M.Sharma"
_chemical_name_systematic
;
3,5-Dinitrocinnamic acid 2,5-dimethoxycinnamic acid
;
_chemical_name_common
;
Teaching Subset: Fundamental Chemistry
;
_chemical_melting_point 432
_cell_volume   4075.782
_exptl_crystal_colour 'deep yellow'
_diffrn_ambient_temperature ?
_diffrn_special_details
;
The study was carried out at room temperature,in the range 283-303K

;
#These two values have been output from a single CSD field.
_refine_ls_R_factor_gt 0.114
_refine_ls_wR_factor_gt 0.114
_symmetry_cell_setting orthorhombic
_symmetry_space_group_name_H-M 'P b c a'
_symmetry_Int_Tables_number 61
loop_
_symmetry_equiv_pos_site_id
_symmetry_equiv_pos_as_xyz
1 x,y,z
2 1/2-x,-y,1/2+z
3 1/2+x,1/2-y,-z
4 -x,1/2+y,1/2-z
5 -x,-y,-z
6 -1/2+x,y,-1/2-z
7 -1/2-x,-1/2+y,z
8 x,-1/2-y,-1/2+z
_cell_length_a 16.859(1)
_cell_length_b 17.277(10)
_cell_length_c 13.993(6)
_cell_angle_alpha 90
_cell_angle_beta 90
_cell_angle_gamma 90
_cell_formula_units_Z 8
loop_
_atom_type_symbol
_atom_type_radius_bond
C 0.68
H 0.23
N 0.68
O 0.68
loop_
_atom_site_label
_atom_site_type_symbol
_atom_site_fract_x
_atom_site_fract_y
_atom_site_fract_z
C1 C 0.6894(5) -0.2847(7) 0.2048(8)
C2 C 0.6536(5) -0.3570(7) 0.1940(8)
C3 C 0.6966(5) -0.4242(7) 0.2133(8)
C4 C 0.7752(5) -0.4192(7) 0.2434(8)
C5 C 0.8111(5) -0.3469(7) 0.2542(8)
C6 C 0.7681(5) -0.2797(7) 0.2349(8)
C7 C 0.6527(14) -0.2008(13) 0.1888(16)
C8 C 0.5886(14) -0.1979(13) 0.1718(16)
C9 C 0.5518(13) -0.1090(12) 0.1535(17)
N1 N 0.6616(12) -0.4993(10) 0.2020(13)
N2 N 0.8939(8) -0.3385(9) 0.2827(11)
O1 O 0.4816(8) -0.1152(7) 0.1334(10)
O2 O 0.5920(8) -0.0496(8) 0.1549(11)
O3 O 0.5919(9) -0.4994(8) 0.1726(11)
O4 O 0.6993(8) -0.5568(9) 0.223(1)
O5 O 0.9262(7) -0.3978(7) 0.3141(10)
O6 O 0.9258(9) -0.2770(7) 0.2744(15)
H1 H 0.5994(5) -0.3604(7) 0.1733(8)
H2 H 0.8048(5) -0.4654(7) 0.2567(8)
H3 H 0.7928(5) -0.2299(7) 0.2424(8)
H4 H 0.6847(14) -0.1550(13) 0.1935(16)
H5 H 0.5561(14) -0.2435(13) 0.1679(16)
C10 C 0.3016(5) 0.2426(7) 0.0434(8)
C11 C 0.3421(5) 0.3121(7) 0.0573(8)
C12 C 0.3025(5) 0.3824(7) 0.0463(8)
C13 C 0.2223(5) 0.3832(7) 0.0215(8)
C14 C 0.1819(5) 0.3137(7) 0.0076(8)
C15 C 0.2215(5) 0.2434(7) 0.0186(8)
C16 C 0.3438(11) 0.167(1) 0.0581(13)
C17 C 0.4188(11) 0.1578(10) 0.0799(13)
C18 C 0.455(1) 0.0822(11) 0.0947(13)
C19 C 0.1037(11) 0.1784(15) -0.0361(19)
C20 C 0.4239(15) 0.4517(17) 0.0702(22)
O7 O 0.4164(7) 0.0196(7) 0.0962(9)
O8 O 0.5325(7) 0.0832(7) 0.1088(10)
O9 O 0.1879(7) 0.1751(7) 0.0081(11)
O10 O 0.3381(9) 0.4556(7) 0.051(1)
H6 H 0.3973(5) 0.3116(7) 0.0744(8)
H7 H 0.1951(5) 0.4316(7) 0.0139(8)
H8 H 0.1267(5) 0.3142(7) -0.0095(8)
H9 H 0.3127(11) 0.1208(10) 0.0508(13)
H10 H 0.4514(11) 0.203(1) 0.0866(13)
H11 H 0.0900(11) 0.1565(14) -0.0970(19)
H12 H 0.1041(11) 0.2338(14) -0.0409(19)
H13 H 0.0653(11) 0.1628(14) 0.0107(19)
H14 H 0.4410(15) 0.5046(17) 0.0729(22)
H15 H 0.4522(15) 0.4252(17) 0.0203(22)
H16 H 0.4345(15) 0.4269(17) 0.1303(22)
#END
