####################################################################### 
# 
# This file contains crystal structure data downloaded from the 
# Cambridge Structural Database (CSD) hosted by the Cambridge 
# Crystallographic Data Centre (CCDC).
# 
# Full information about CCDC data access policies and citation 
# guidelines are available at http://www.ccdc.cam.ac.uk/access/V1 
# 
# Audit and citation data items may have been added by the CCDC. 
# Please retain this information to preserve the provenance of 
# this file and to allow appropriate attribution of the data. 
# 
#######################################################################

data_1
_audit_block_doi                 10.5517/cc10y2qr
_database_code_depnum_ccdc_archive 'CCDC 951474'
loop_
_citation_id
_citation_doi
_citation_year
1 10.1002/zaac.201300500 2014
_audit_update_record             
;
2013-07-21 deposited with the CCDC.	2024-07-11 downloaded from the CCDC.
;
_audit_creation_date             'Sat Jun 30 20:53:23 2007'
_audit_creation_method           SHELXL-97
_chemical_name_systematic        
; 
[Ni(H2O)6][{Ni(B1)}2{Ni(H2O)2}]-10(H2O) 
;
_chemical_name_common            ?
_chemical_melting_point          ?
_chemical_formula_moiety         'C28 H44 N4 O34 Ni4 '
_chemical_formula_sum            'C28 H44 N4 Ni4 O34'
_chemical_formula_weight         1215.51

loop_
_atom_type_symbol
_atom_type_description
_atom_type_scat_dispersion_real
_atom_type_scat_dispersion_imag
_atom_type_scat_source
Ni Ni 0.3393 1.1124 'International Tables Vol C Tables 4.2.6.8 and 6.1.1.4'
O O 0.0106 0.0060 'International Tables Vol C Tables 4.2.6.8 and 6.1.1.4'
N N 0.0061 0.0033 'International Tables Vol C Tables 4.2.6.8 and 6.1.1.4'
C C 0.0033 0.0016 'International Tables Vol C Tables 4.2.6.8 and 6.1.1.4'
H H 0.0000 0.0000 'International Tables Vol C Tables 4.2.6.8 and 6.1.1.4'

_symmetry_cell_setting           monoclinic
_symmetry_space_group_name_H-M   'P 21/c'
_symmetry_space_group_name_Hall  '-P 2ybc'
_symmetry_Int_Tables_number      14
loop_
_symmetry_equiv_pos_as_xyz
'x, y, z'
'-x, y+1/2, -z+1/2'
'-x, -y, -z'
'x, -y-1/2, z-1/2'

_cell_length_a                   13.854(4)
_cell_length_b                   11.411(5)
_cell_length_c                   17.710(4)
_cell_angle_alpha                90.00
_cell_angle_beta                 128.109(13)
_cell_angle_gamma                90.00
_cell_volume                     2202.8(13)
_cell_formula_units_Z            2
_cell_measurement_temperature    200
_cell_measurement_reflns_used    8982
_cell_measurement_theta_min      3.0
_cell_measurement_theta_max      27.4

_exptl_crystal_description       block
_exptl_crystal_colour            green
_exptl_crystal_size_max          0.200
_exptl_crystal_size_mid          0.100
_exptl_crystal_size_min          0.100
_exptl_crystal_density_meas      ?
_exptl_crystal_density_diffrn    1.833
_exptl_crystal_density_method    'not measured'
_exptl_crystal_F_000             1248
_exptl_absorpt_coefficient_mu    1.799
_exptl_absorpt_correction_type   multi-scan
_exptl_absorpt_correction_T_min  0.741
_exptl_absorpt_correction_T_max  0.835
_exptl_absorpt_process_details   '(Higashi, 1995)'

_exptl_special_details           
; 
 ? 
;

_diffrn_ambient_temperature      200
_diffrn_radiation_wavelength     0.71075
_diffrn_radiation_type           MoK\a
_diffrn_radiation_source         'fine-focus sealed tube'
_diffrn_radiation_monochromator  graphite
_diffrn_measurement_device_type  'Rigaku RAXIS-RAPID Imaging Plate'
_diffrn_measurement_method       \w
_diffrn_detector_area_resol_mean 10.00
_diffrn_reflns_number            16036
_diffrn_reflns_av_R_equivalents  0.1224
_diffrn_reflns_av_sigmaI/netI    0.0867
_diffrn_reflns_limit_h_min       -16
_diffrn_reflns_limit_h_max       16
_diffrn_reflns_limit_k_min       -13
_diffrn_reflns_limit_k_max       13
_diffrn_reflns_limit_l_min       -21
_diffrn_reflns_limit_l_max       20
_diffrn_reflns_theta_min         3.00
_diffrn_reflns_theta_max         25.00
_reflns_number_total             3859
_reflns_number_gt                2843
_reflns_threshold_expression     I>2\s(I)

_computing_data_collection       ?
_computing_cell_refinement       ?
_computing_data_reduction        ?
_computing_structure_solution    'SHELXS-97 (Sheldrick, 1997)'
_computing_structure_refinement  'SHELXL-97 (Sheldrick, 1997)'
_computing_molecular_graphics    ?
_computing_publication_material  ?

_refine_special_details          
; 
 Refinement of F^2^ against ALL reflections.  The weighted R-factor wR and 
 goodness of fit S are based on F^2^, conventional R-factors R are based 
 on F, with F set to zero for negative F^2^. The threshold expression of 
 F^2^ > 2sigma(F^2^) is used only for calculating R-factors(gt) etc. and is 
 not relevant to the choice of reflections for refinement.  R-factors based 
 on F^2^ are statistically about twice as large as those based on F, and R- 
 factors based on ALL data will be even larger. 
;

_refine_ls_structure_factor_coef Fsqd
_refine_ls_matrix_type           full
_refine_ls_weighting_scheme      calc
_refine_ls_weighting_details     
'calc w=1/[\s^2^(Fo^2^)+(0.2000P)^2^+0.0000P] where P=(Fo^2^+2Fc^2^)/3'
_atom_sites_solution_primary     direct
_atom_sites_solution_secondary   difmap
_atom_sites_solution_hydrogens   geom
_refine_ls_hydrogen_treatment    constr
_refine_ls_extinction_method     none
_refine_ls_extinction_coef       ?
_refine_ls_number_reflns         3859
_refine_ls_number_parameters     319
_refine_ls_number_restraints     0
_refine_ls_R_factor_all          0.1407
_refine_ls_R_factor_gt           0.1159
_refine_ls_wR_factor_ref         0.3535
_refine_ls_wR_factor_gt          0.3371
_refine_ls_goodness_of_fit_ref   1.355
_refine_ls_restrained_S_all      1.355
_refine_ls_shift/su_max          0.000
_refine_ls_shift/su_mean         0.000

loop_
_atom_site_label
_atom_site_type_symbol
_atom_site_fract_x
_atom_site_fract_y
_atom_site_fract_z
_atom_site_U_iso_or_equiv
_atom_site_adp_type
_atom_site_occupancy
_atom_site_symmetry_multiplicity
_atom_site_calc_flag
_atom_site_refinement_flags
_atom_site_disorder_assembly
_atom_site_disorder_group
Ni1 Ni 0.87858(12) 0.27598(13) 0.69859(10) 0.0326(5) Uani 1 1 d . . .
Ni2 Ni 0.0000 0.0000 0.0000 0.0302(6) Uani 1 2 d S . .
Ni3 Ni 0.0000 0.0000 0.5000 0.0352(6) Uani 1 2 d S . .
O1 O 0.1601(7) -0.0959(7) 0.0639(6) 0.0387(18) Uani 1 1 d . . .
O2 O 0.1242(8) 0.1017(7) 0.5055(6) 0.045(2) Uani 1 1 d . . .
O3 O 0.1318(7) -0.1313(7) 0.5817(6) 0.0422(19) Uani 1 1 d . . .
O4 O 0.0431(7) 0.0800(7) 0.6211(6) 0.0410(19) Uani 1 1 d . . .
O5 O 0.3481(9) 0.0805(10) 0.1788(8) 0.072(3) Uani 1 1 d . . .
O6 O 0.4898(11) 0.0867(12) 0.6661(9) 0.085(3) Uani 1 1 d . . .
O7 O 0.3226(9) 0.1827(8) 0.6868(7) 0.056(2) Uani 1 1 d . . .
O8 O 0.5907(9) 0.1003(10) 0.8991(8) 0.073(3) Uani 1 1 d . . .
O9 O 0.6299(10) 0.3118(13) 0.8302(12) 0.107(5) Uani 1 1 d . . .
O11 O -0.0747(7) 0.1385(7) 0.1180(6) 0.0398(18) Uani 1 1 d . . .
O12 O 0.0881(6) 0.0848(7) 0.1286(5) 0.0354(17) Uani 1 1 d . . .
O21 O -0.0831(7) 0.3060(7) 0.3251(5) 0.0418(19) Uani 1 1 d . . .
O22 O 0.0756(6) 0.3848(7) 0.4637(5) 0.0333(17) Uani 1 1 d . . .
O31 O 0.8529(7) 0.1187(8) 0.6275(6) 0.0405(19) Uani 1 1 d . . .
O32 O 0.7081(7) 0.0019(8) 0.5110(6) 0.048(2) Uani 1 1 d . . .
O41 O 0.8210(6) 0.4316(7) 0.7256(5) 0.0374(18) Uani 1 1 d . . .
O42 O 0.6527(7) 0.5307(8) 0.6783(6) 0.050(2) Uani 1 1 d . . .
N11 N 0.0608(7) 0.2250(8) 0.2890(6) 0.0262(18) Uani 1 1 d . . .
N21 N 0.6985(9) 0.2660(8) 0.6060(7) 0.033(2) Uani 1 1 d . . .
C1 C 0.0397(9) 0.1288(9) 0.1617(7) 0.030(2) Uani 1 1 d . . .
C2 C 0.0287(9) 0.3273(9) 0.3886(8) 0.030(2) Uani 1 1 d . . .
C3 C 0.7425(10) 0.0889(10) 0.5627(8) 0.035(2) Uani 1 1 d . . .
C4 C 0.7054(10) 0.4449(10) 0.6735(8) 0.037(3) Uani 1 1 d . . .
C12 C 0.1217(10) 0.1797(10) 0.2605(8) 0.036(3) Uani 1 1 d . . .
C13 C 0.2502(10) 0.1850(9) 0.3209(8) 0.033(2) Uani 1 1 d . . .
H1 H 0.2948 0.1537 0.3011 0.039 Uiso 1 1 calc R . .
C14 C 0.3117(10) 0.2379(9) 0.4117(8) 0.030(2) Uani 1 1 d . . .
C15 C 0.2421(9) 0.2922(9) 0.4351(8) 0.030(2) Uani 1 1 d . . .
H2 H 0.2812 0.3348 0.4933 0.036 Uiso 1 1 calc R . .
C16 C 0.1151(10) 0.2825(9) 0.3715(8) 0.030(2) Uani 1 1 d . . .
C22 C 0.6473(9) 0.1723(10) 0.5472(8) 0.033(2) Uani 1 1 d . . .
C23 C 0.5221(9) 0.1624(10) 0.4826(8) 0.034(2) Uani 1 1 d . . .
H3 H 0.4864 0.0963 0.4412 0.041 Uiso 1 1 calc R . .
C24 C 0.4470(11) 0.2487(9) 0.4773(8) 0.033(3) Uani 1 1 d . . .
C25 C 0.5033(10) 0.3466(11) 0.5385(8) 0.040(3) Uani 1 1 d . . .
H4 H 0.4549 0.4083 0.5355 0.048 Uiso 1 1 calc R . .
C26 C 0.6307(9) 0.3515(10) 0.6034(8) 0.036(2) Uani 1 1 d . . .

loop_
_atom_site_aniso_label
_atom_site_aniso_U_11
_atom_site_aniso_U_22
_atom_site_aniso_U_33
_atom_site_aniso_U_23
_atom_site_aniso_U_13
_atom_site_aniso_U_12
Ni1 0.0250(8) 0.0359(9) 0.0321(9) 0.0029(6) 0.0153(7) 0.0004(5)
Ni2 0.0305(11) 0.0297(11) 0.0303(11) -0.0007(8) 0.0187(10) -0.0028(8)
Ni3 0.0364(12) 0.0302(11) 0.0399(12) 0.0013(8) 0.0240(11) 0.0028(8)
O1 0.037(4) 0.027(4) 0.046(5) 0.004(3) 0.022(4) 0.004(3)
O2 0.047(5) 0.036(4) 0.058(5) 0.005(4) 0.035(4) 0.000(4)
O3 0.044(4) 0.043(5) 0.045(5) 0.004(4) 0.030(4) 0.005(4)
O4 0.032(4) 0.051(5) 0.039(4) 0.003(4) 0.021(4) 0.007(4)
O5 0.053(6) 0.060(7) 0.090(7) -0.018(6) 0.038(6) -0.011(5)
O6 0.084(8) 0.098(9) 0.083(8) -0.007(7) 0.056(7) -0.004(7)
O7 0.075(6) 0.043(5) 0.054(5) -0.008(4) 0.042(5) -0.011(5)
O8 0.057(6) 0.081(8) 0.072(7) -0.012(6) 0.035(6) -0.006(5)
O9 0.048(7) 0.100(11) 0.150(13) 0.005(9) 0.050(8) -0.012(6)
O11 0.029(4) 0.047(5) 0.040(4) -0.010(4) 0.019(4) -0.002(3)
O12 0.031(4) 0.037(4) 0.032(4) -0.010(3) 0.016(4) -0.003(3)
O21 0.035(5) 0.052(5) 0.034(4) -0.004(4) 0.019(4) 0.002(4)
O22 0.031(4) 0.037(4) 0.032(4) -0.004(3) 0.020(4) 0.001(3)
O31 0.028(4) 0.051(5) 0.040(4) -0.001(4) 0.020(4) 0.002(3)
O32 0.034(5) 0.050(5) 0.047(5) -0.010(4) 0.019(4) 0.002(4)
O41 0.028(4) 0.036(5) 0.035(4) 0.000(3) 0.013(4) -0.003(3)
O42 0.036(4) 0.057(6) 0.043(5) -0.006(4) 0.017(4) 0.006(4)
N11 0.027(5) 0.026(4) 0.021(4) 0.000(3) 0.013(4) 0.006(3)
N21 0.031(5) 0.027(5) 0.031(5) 0.007(4) 0.015(4) 0.001(4)
C1 0.035(6) 0.027(6) 0.032(6) -0.005(4) 0.022(5) -0.002(4)
C2 0.022(5) 0.032(6) 0.034(6) 0.007(5) 0.017(5) 0.001(4)
C3 0.037(6) 0.029(6) 0.040(6) 0.008(5) 0.025(6) 0.008(5)
C4 0.035(6) 0.028(6) 0.047(7) 0.007(5) 0.024(6) 0.005(5)
C12 0.033(6) 0.034(6) 0.042(6) -0.004(5) 0.023(5) 0.001(5)
C13 0.034(6) 0.031(6) 0.047(6) -0.008(5) 0.031(5) -0.003(4)
C14 0.030(6) 0.026(5) 0.028(6) -0.004(4) 0.014(5) -0.006(4)
C15 0.030(5) 0.029(6) 0.034(6) -0.006(4) 0.021(5) -0.004(4)
C16 0.036(6) 0.023(5) 0.034(6) 0.001(4) 0.023(5) 0.005(4)
C22 0.029(5) 0.035(6) 0.036(6) 0.005(5) 0.021(5) 0.000(5)
C23 0.030(5) 0.029(6) 0.033(6) 0.003(5) 0.015(5) -0.004(4)
C24 0.037(7) 0.034(7) 0.027(6) -0.003(4) 0.019(5) 0.001(4)
C25 0.035(6) 0.038(7) 0.041(6) -0.002(5) 0.021(6) 0.001(5)
C26 0.022(5) 0.039(6) 0.038(6) -0.006(5) 0.014(5) -0.004(5)

_geom_special_details            
; 
 All esds (except the esd in the dihedral angle between two l.s. planes) 
 are estimated using the full covariance matrix.  The cell esds are taken 
 into account individually in the estimation of esds in distances, angles 
 and torsion angles; correlations between esds in cell parameters are only 
 used when they are defined by crystal symmetry.  An approximate (isotropic) 
 treatment of cell esds is used for estimating esds involving l.s. planes. 
;

loop_
_geom_bond_atom_site_label_1
_geom_bond_atom_site_label_2
_geom_bond_distance
_geom_bond_site_symmetry_2
_geom_bond_publ_flag
Ni1 N21 1.969(9) . ?
Ni1 N11 1.987(8) 4_666 ?
Ni1 O31 2.093(9) . ?
Ni1 O41 2.120(8) . ?
Ni1 O11 2.133(7) 4_666 ?
Ni1 O21 2.169(8) 4_666 ?
Ni2 O22 2.018(7) 4_565 ?
Ni2 O22 2.018(7) 2_545 ?
Ni2 O12 2.044(7) 3 ?
Ni2 O12 2.044(7) . ?
Ni2 O1 2.074(7) 3 ?
Ni2 O1 2.074(7) . ?
Ni3 O2 2.027(8) . ?
Ni3 O2 2.027(8) 3_556 ?
Ni3 O4 2.052(8) . ?
Ni3 O4 2.052(8) 3_556 ?
Ni3 O3 2.100(8) 3_556 ?
Ni3 O3 2.100(8) . ?
O11 C1 1.268(12) . ?
O11 Ni1 2.133(7) 4_465 ?
O12 C1 1.238(12) . ?
O21 C2 1.254(12) . ?
O21 Ni1 2.169(8) 4_465 ?
O22 C2 1.246(13) . ?
O22 Ni2 2.018(7) 2 ?
O31 C3 1.267(14) . ?
O32 C3 1.231(14) . ?
O41 C4 1.271(12) . ?
O42 C4 1.255(14) . ?
N11 C12 1.326(14) . ?
N11 C16 1.332(14) . ?
N11 Ni1 1.987(8) 4_465 ?
N21 C26 1.336(15) . ?
N21 C22 1.348(15) . ?
C1 C12 1.496(15) . ?
C2 C16 1.495(14) . ?
C3 C22 1.507(15) . ?
C4 C26 1.471(16) . ?
C12 C13 1.402(15) . ?
C13 C14 1.408(15) . ?
C13 H1 0.9500 . ?
C14 C15 1.407(15) . ?
C14 C24 1.481(16) . ?
C15 C16 1.389(15) . ?
C15 H2 0.9500 . ?
C22 C23 1.372(15) . ?
C23 C24 1.393(15) . ?
C23 H3 0.9500 . ?
C24 C25 1.411(16) . ?
C25 C26 1.391(15) . ?
C25 H4 0.9500 . ?

loop_
_geom_angle_atom_site_label_1
_geom_angle_atom_site_label_2
_geom_angle_atom_site_label_3
_geom_angle
_geom_angle_site_symmetry_1
_geom_angle_site_symmetry_3
_geom_angle_publ_flag
N21 Ni1 N11 176.0(4) . 4_666 ?
N21 Ni1 O31 78.0(3) . . ?
N11 Ni1 O31 98.0(3) 4_666 . ?
N21 Ni1 O41 77.1(3) . . ?
N11 Ni1 O41 106.9(3) 4_666 . ?
O31 Ni1 O41 155.0(3) . . ?
N21 Ni1 O11 102.8(3) . 4_666 ?
N11 Ni1 O11 77.4(3) 4_666 4_666 ?
O31 Ni1 O11 89.9(3) . 4_666 ?
O41 Ni1 O11 94.6(3) . 4_666 ?
N21 Ni1 O21 102.2(3) . 4_666 ?
N11 Ni1 O21 77.6(3) 4_666 4_666 ?
O31 Ni1 O21 95.4(3) . 4_666 ?
O41 Ni1 O21 90.8(3) . 4_666 ?
O11 Ni1 O21 155.0(3) 4_666 4_666 ?
O22 Ni2 O22 180.0 4_565 2_545 ?
O22 Ni2 O12 91.4(3) 4_565 3 ?
O22 Ni2 O12 88.6(3) 2_545 3 ?
O22 Ni2 O12 88.6(3) 4_565 . ?
O22 Ni2 O12 91.4(3) 2_545 . ?
O12 Ni2 O12 179.996(1) 3 . ?
O22 Ni2 O1 94.2(3) 4_565 3 ?
O22 Ni2 O1 85.8(3) 2_545 3 ?
O12 Ni2 O1 86.5(3) 3 3 ?
O12 Ni2 O1 93.5(3) . 3 ?
O22 Ni2 O1 85.8(3) 4_565 . ?
O22 Ni2 O1 94.2(3) 2_545 . ?
O12 Ni2 O1 93.5(3) 3 . ?
O12 Ni2 O1 86.5(3) . . ?
O1 Ni2 O1 180.0 3 . ?
O2 Ni3 O2 179.999(1) . 3_556 ?
O2 Ni3 O4 90.2(3) . . ?
O2 Ni3 O4 89.8(3) 3_556 . ?
O2 Ni3 O4 89.8(3) . 3_556 ?
O2 Ni3 O4 90.2(3) 3_556 3_556 ?
O4 Ni3 O4 179.999(1) . 3_556 ?
O2 Ni3 O3 88.6(3) . 3_556 ?
O2 Ni3 O3 91.4(3) 3_556 3_556 ?
O4 Ni3 O3 88.4(3) . 3_556 ?
O4 Ni3 O3 91.6(3) 3_556 3_556 ?
O2 Ni3 O3 91.4(3) . . ?
O2 Ni3 O3 88.6(3) 3_556 . ?
O4 Ni3 O3 91.6(3) . . ?
O4 Ni3 O3 88.4(3) 3_556 . ?
O3 Ni3 O3 179.997(2) 3_556 . ?
C1 O11 Ni1 114.4(6) . 4_465 ?
C1 O12 Ni2 126.4(7) . . ?
C2 O21 Ni1 112.9(7) . 4_465 ?
C2 O22 Ni2 130.6(6) . 2 ?
C3 O31 Ni1 115.9(7) . . ?
C4 O41 Ni1 114.7(7) . . ?
C12 N11 C16 123.2(9) . . ?
C12 N11 Ni1 118.7(7) . 4_465 ?
C16 N11 Ni1 117.6(7) . 4_465 ?
C26 N21 C22 122.0(9) . . ?
C26 N21 Ni1 119.3(7) . . ?
C22 N21 Ni1 118.8(7) . . ?
O12 C1 O11 125.8(9) . . ?
O12 C1 C12 118.1(9) . . ?
O11 C1 C12 116.1(9) . . ?
O22 C2 O21 127.0(9) . . ?
O22 C2 C16 116.1(9) . . ?
O21 C2 C16 116.9(10) . . ?
O32 C3 O31 125.9(10) . . ?
O32 C3 C22 118.7(10) . . ?
O31 C3 C22 115.3(10) . . ?
O42 C4 O41 124.7(11) . . ?
O42 C4 C26 119.1(10) . . ?
O41 C4 C26 116.2(10) . . ?
N11 C12 C13 119.9(10) . . ?
N11 C12 C1 113.3(9) . . ?
C13 C12 C1 126.8(9) . . ?
C12 C13 C14 118.6(9) . . ?
C12 C13 H1 120.7 . . ?
C14 C13 H1 120.7 . . ?
C15 C14 C13 118.9(10) . . ?
C15 C14 C24 119.9(9) . . ?
C13 C14 C24 120.8(9) . . ?
C16 C15 C14 118.7(10) . . ?
C16 C15 H2 120.6 . . ?
C14 C15 H2 120.6 . . ?
N11 C16 C15 120.3(9) . . ?
N11 C16 C2 114.2(9) . . ?
C15 C16 C2 125.5(9) . . ?
N21 C22 C23 120.0(10) . . ?
N21 C22 C3 112.1(9) . . ?
C23 C22 C3 127.9(10) . . ?
C22 C23 C24 120.4(11) . . ?
C22 C23 H3 119.8 . . ?
C24 C23 H3 119.8 . . ?
C23 C24 C25 118.2(11) . . ?
C23 C24 C14 121.7(10) . . ?
C25 C24 C14 120.0(10) . . ?
C26 C25 C24 119.0(11) . . ?
C26 C25 H4 120.5 . . ?
C24 C25 H4 120.5 . . ?
N21 C26 C25 120.4(10) . . ?
N21 C26 C4 112.8(9) . . ?
C25 C26 C4 126.8(10) . . ?

loop_
_geom_torsion_atom_site_label_1
_geom_torsion_atom_site_label_2
_geom_torsion_atom_site_label_3
_geom_torsion_atom_site_label_4
_geom_torsion
_geom_torsion_site_symmetry_1
_geom_torsion_site_symmetry_2
_geom_torsion_site_symmetry_3
_geom_torsion_site_symmetry_4
_geom_torsion_publ_flag
O22 Ni2 O12 C1 123.2(9) 4_565 . . . ?
O22 Ni2 O12 C1 -56.8(9) 2_545 . . . ?
O1 Ni2 O12 C1 29.1(9) 3 . . . ?
O1 Ni2 O12 C1 -150.9(9) . . . . ?
N21 Ni1 O31 C3 -0.7(7) . . . . ?
N11 Ni1 O31 C3 179.0(7) 4_666 . . . ?
O41 Ni1 O31 C3 -3.0(12) . . . . ?
O11 Ni1 O31 C3 -103.7(7) 4_666 . . . ?
O21 Ni1 O31 C3 100.7(7) 4_666 . . . ?
N21 Ni1 O41 C4 0.2(7) . . . . ?
N11 Ni1 O41 C4 -179.4(7) 4_666 . . . ?
O31 Ni1 O41 C4 2.6(12) . . . . ?
O11 Ni1 O41 C4 102.3(7) 4_666 . . . ?
O21 Ni1 O41 C4 -102.1(7) 4_666 . . . ?
O31 Ni1 N21 C26 -179.3(9) . . . . ?
O41 Ni1 N21 C26 -0.3(8) . . . . ?
O11 Ni1 N21 C26 -92.2(9) 4_666 . . . ?
O21 Ni1 N21 C26 87.7(9) 4_666 . . . ?
O31 Ni1 N21 C22 1.0(8) . . . . ?
O41 Ni1 N21 C22 179.9(9) . . . . ?
O11 Ni1 N21 C22 88.1(8) 4_666 . . . ?
O21 Ni1 N21 C22 -92.0(8) 4_666 . . . ?
Ni2 O12 C1 O11 -6.7(16) . . . . ?
Ni2 O12 C1 C12 175.7(7) . . . . ?
Ni1 O11 C1 O12 -178.4(9) 4_465 . . . ?
Ni1 O11 C1 C12 -0.8(12) 4_465 . . . ?
Ni2 O22 C2 O21 -18.2(16) 2 . . . ?
Ni2 O22 C2 C16 159.8(7) 2 . . . ?
Ni1 O21 C2 O22 171.7(9) 4_465 . . . ?
Ni1 O21 C2 C16 -6.3(11) 4_465 . . . ?
Ni1 O31 C3 O32 177.7(9) . . . . ?
Ni1 O31 C3 C22 0.3(11) . . . . ?
Ni1 O41 C4 O42 179.8(9) . . . . ?
Ni1 O41 C4 C26 -0.1(12) . . . . ?
C16 N11 C12 C13 3.9(16) . . . . ?
Ni1 N11 C12 C13 176.5(8) 4_465 . . . ?
C16 N11 C12 C1 -174.8(9) . . . . ?
Ni1 N11 C12 C1 -2.3(13) 4_465 . . . ?
O12 C1 C12 N11 179.7(10) . . . . ?
O11 C1 C12 N11 2.0(14) . . . . ?
O12 C1 C12 C13 1.1(17) . . . . ?
O11 C1 C12 C13 -176.7(11) . . . . ?
N11 C12 C13 C14 0.7(16) . . . . ?
C1 C12 C13 C14 179.3(11) . . . . ?
C12 C13 C14 C15 -5.5(15) . . . . ?
C12 C13 C14 C24 -178.3(10) . . . . ?
C13 C14 C15 C16 5.9(15) . . . . ?
C24 C14 C15 C16 178.9(9) . . . . ?
C12 N11 C16 C15 -3.5(16) . . . . ?
Ni1 N11 C16 C15 -176.1(8) 4_465 . . . ?
C12 N11 C16 C2 179.2(10) . . . . ?
Ni1 N11 C16 C2 6.6(12) 4_465 . . . ?
C14 C15 C16 N11 -1.6(15) . . . . ?
C14 C15 C16 C2 175.4(10) . . . . ?
O22 C2 C16 N11 -177.9(9) . . . . ?
O21 C2 C16 N11 0.3(14) . . . . ?
O22 C2 C16 C15 5.0(15) . . . . ?
O21 C2 C16 C15 -176.8(10) . . . . ?
C26 N21 C22 C23 -0.4(16) . . . . ?
Ni1 N21 C22 C23 179.4(8) . . . . ?
C26 N21 C22 C3 179.2(10) . . . . ?
Ni1 N21 C22 C3 -1.1(12) . . . . ?
O32 C3 C22 N21 -177.1(10) . . . . ?
O31 C3 C22 N21 0.5(13) . . . . ?
O32 C3 C22 C23 2.4(17) . . . . ?
O31 C3 C22 C23 180.0(10) . . . . ?
N21 C22 C23 C24 -0.1(16) . . . . ?
C3 C22 C23 C24 -179.6(10) . . . . ?
C22 C23 C24 C25 1.2(16) . . . . ?
C22 C23 C24 C14 -177.0(10) . . . . ?
C15 C14 C24 C23 151.7(11) . . . . ?
C13 C14 C24 C23 -35.5(15) . . . . ?
C15 C14 C24 C25 -26.6(15) . . . . ?
C13 C14 C24 C25 146.2(11) . . . . ?
C23 C24 C25 C26 -2.0(16) . . . . ?
C14 C24 C25 C26 176.3(10) . . . . ?
C22 N21 C26 C25 -0.4(17) . . . . ?
Ni1 N21 C26 C25 179.9(8) . . . . ?
C22 N21 C26 C4 -179.9(10) . . . . ?
Ni1 N21 C26 C4 0.4(13) . . . . ?
C24 C25 C26 N21 1.6(17) . . . . ?
C24 C25 C26 C4 -179.0(11) . . . . ?
O42 C4 C26 N21 179.9(10) . . . . ?
O41 C4 C26 N21 -0.1(15) . . . . ?
O42 C4 C26 C25 0.5(19) . . . . ?
O41 C4 C26 C25 -179.6(10) . . . . ?

_diffrn_measured_fraction_theta_max 0.994
_diffrn_reflns_theta_full        25.00
_diffrn_measured_fraction_theta_full 0.994
_refine_diff_density_max         2.316
_refine_diff_density_min         -1.061
_refine_diff_density_rms         0.265

#====END
