####################################################################### 
# 
# This file contains crystal structure data downloaded from the 
# Cambridge Structural Database (CSD) hosted by the Cambridge 
# Crystallographic Data Centre (CCDC).
# 
# Full information about CCDC data access policies and citation 
# guidelines are available at http://www.ccdc.cam.ac.uk/access/V1 
# 
# Audit and citation data items may have been added by the CCDC. 
# Please retain this information to preserve the provenance of 
# this file and to allow appropriate attribution of the data. 
# 
#######################################################################

data_a
_audit_block_doi                 10.5517/cc12yy76
_database_code_depnum_ccdc_archive 'CCDC 1011878'
loop_
_citation_id
_citation_doi
_citation_year
1 10.11862/CJIC.2015.125 2015
_audit_update_record             
;
2014-07-02 deposited with the CCDC.	2024-07-11 downloaded from the CCDC.
;

_audit_creation_method           SHELXL-97
_chemical_name_systematic        
; 
 ? 
;
_chemical_name_common            ?
_chemical_melting_point          ?
_chemical_formula_moiety         ?
_chemical_formula_sum            'C32 H35.50 Co N2 O9.25 Si'
_chemical_formula_weight         683.14

loop_
_atom_type_symbol
_atom_type_description
_atom_type_scat_dispersion_real
_atom_type_scat_dispersion_imag
_atom_type_scat_source
C C 0.0033 0.0016 'International Tables Vol C Tables 4.2.6.8 and 6.1.1.4'
H H 0.0000 0.0000 'International Tables Vol C Tables 4.2.6.8 and 6.1.1.4'
N N 0.0061 0.0033 'International Tables Vol C Tables 4.2.6.8 and 6.1.1.4'
O O 0.0106 0.0060 'International Tables Vol C Tables 4.2.6.8 and 6.1.1.4'
Co Co 0.3494 0.9721 'International Tables Vol C Tables 4.2.6.8 and 6.1.1.4'
Si Si 0.0817 0.0704 'International Tables Vol C Tables 4.2.6.8 and 6.1.1.4'

_symmetry_cell_setting           Orthorhombic
_symmetry_space_group_name_H-M   'Pbca '

loop_
_symmetry_equiv_pos_as_xyz
'x, y, z'
'-x+1/2, -y, z+1/2'
'-x, y+1/2, -z+1/2'
'x+1/2, -y+1/2, -z'
'-x, -y, -z'
'x-1/2, y, -z-1/2'
'x, -y-1/2, z-1/2'
'-x-1/2, y-1/2, z'

_cell_length_a                   22.7022(15)
_cell_length_b                   14.5656(9)
_cell_length_c                   28.2647(18)
_cell_angle_alpha                90.00
_cell_angle_beta                 90.00
_cell_angle_gamma                90.00
_cell_volume                     9346.3(10)
_cell_formula_units_Z            8
_cell_measurement_temperature    296(2)
_cell_measurement_reflns_used    4005
_cell_measurement_theta_min      2.199
_cell_measurement_theta_max      18.719

_exptl_crystal_description       rod
_exptl_crystal_colour            purple
_exptl_crystal_size_max          0.15
_exptl_crystal_size_mid          0.13
_exptl_crystal_size_min          0.12
_exptl_crystal_density_meas      ?
_exptl_crystal_density_diffrn    0.971
_exptl_crystal_density_method    'not measured'
_exptl_crystal_F_000             2852
_exptl_absorpt_coefficient_mu    0.432
_exptl_absorpt_correction_type   multi-scan
_exptl_absorpt_correction_T_min  0.9380
_exptl_absorpt_correction_T_max  0.9500
_exptl_absorpt_process_details   'SADABS; Bruker, 2000'

_exptl_special_details           
; 
 ? 
;

_diffrn_ambient_temperature      296(2)
_diffrn_radiation_wavelength     0.71073
_diffrn_radiation_type           MoK\a
_diffrn_radiation_source         'fine-focus sealed tube'
_diffrn_radiation_monochromator  graphite
_diffrn_measurement_device_type  'CCD area detector'
_diffrn_measurement_method       'phi and omega scans'
_diffrn_detector_area_resol_mean ?
_diffrn_standards_number         ?
_diffrn_standards_interval_count ?
_diffrn_standards_interval_time  ?
_diffrn_standards_decay_%        ?
_diffrn_reflns_number            45021
_diffrn_reflns_av_R_equivalents  0.0790
_diffrn_reflns_av_sigmaI/netI    0.0861
_diffrn_reflns_limit_h_min       -26
_diffrn_reflns_limit_h_max       26
_diffrn_reflns_limit_k_min       -17
_diffrn_reflns_limit_k_max       8
_diffrn_reflns_limit_l_min       -33
_diffrn_reflns_limit_l_max       33
_diffrn_reflns_theta_min         1.70
_diffrn_reflns_theta_max         25.00
_reflns_number_total             8228
_reflns_number_gt                3608
_reflns_threshold_expression     >2sigma(I)

_computing_data_collection       'Bruker SMART'
_computing_cell_refinement       'Bruker SMART'
_computing_data_reduction        'Bruker SAINT'
_computing_structure_solution    'SHELXS-97 (Sheldrick, 1990)'
_computing_structure_refinement  'SHELXL-97 (Sheldrick, 1997)'
_computing_molecular_graphics    'Bruker SHELXTL'
_computing_publication_material  'Bruker SHELXTL'

_refine_special_details          
; 
 Refinement of F^2^ against ALL reflections.  The weighted R-factor wR and 
 goodness of fit S are based on F^2^, conventional R-factors R are based 
 on F, with F set to zero for negative F^2^. The threshold expression of 
 F^2^ > 2sigma(F^2^) is used only for calculating R-factors(gt) etc. and is 
 not relevant to the choice of reflections for refinement.  R-factors based 
 on F^2^ are statistically about twice as large as those based on F, and R- 
 factors based on ALL data will be even larger. 
;

_refine_ls_structure_factor_coef Fsqd
_refine_ls_matrix_type           full
_refine_ls_weighting_scheme      calc
_refine_ls_weighting_details     
'calc w=1/[\s^2^(Fo^2^)+(0.1560P)^2^+0.0000P] where P=(Fo^2^+2Fc^2^)/3'
_atom_sites_solution_primary     direct
_atom_sites_solution_secondary   difmap
_atom_sites_solution_hydrogens   geom
_refine_ls_hydrogen_treatment    mixed
_refine_ls_extinction_method     none
_refine_ls_extinction_coef       ?
_refine_ls_number_reflns         8228
_refine_ls_number_parameters     383
_refine_ls_number_restraints     44
_refine_ls_R_factor_all          0.1535
_refine_ls_R_factor_gt           0.0979
_refine_ls_wR_factor_ref         0.3003
_refine_ls_wR_factor_gt          0.2778
_refine_ls_goodness_of_fit_ref   1.023
_refine_ls_restrained_S_all      1.044
_refine_ls_shift/su_max          0.007
_refine_ls_shift/su_mean         0.001

loop_
_atom_site_label
_atom_site_type_symbol
_atom_site_fract_x
_atom_site_fract_y
_atom_site_fract_z
_atom_site_U_iso_or_equiv
_atom_site_adp_type
_atom_site_occupancy
_atom_site_symmetry_multiplicity
_atom_site_calc_flag
_atom_site_refinement_flags
_atom_site_disorder_assembly
_atom_site_disorder_group
C1 C 0.7579(2) 0.9899(4) 0.05967(19) 0.0829(17) Uani 1 1 d . . .
C2 C 0.7103(2) 0.9822(3) 0.02201(17) 0.0801(14) Uani 1 1 d U . .
C3 C 0.6739(2) 0.9124(4) 0.02025(19) 0.1123(17) Uani 1 1 d U . .
H3 H 0.6774 0.8642 0.0417 0.135 Uiso 1 1 calc R . .
C4 C 0.6294(2) 0.9111(4) -0.0145(2) 0.1098(17) Uani 1 1 d U . .
H4 H 0.6020 0.8638 -0.0126 0.132 Uiso 1 1 calc R . .
C5 C 0.62290(19) 0.9691(3) -0.04867(15) 0.0618(12) Uani 1 1 d U . .
C6 C 0.6658(3) 1.0308(4) -0.0508(2) 0.1167(18) Uani 1 1 d U . .
H6 H 0.6672 1.0699 -0.0768 0.140 Uiso 1 1 calc R . .
C7 C 0.7086(2) 1.0395(4) -0.0161(2) 0.1216(18) Uani 1 1 d U . .
H7 H 0.7367 1.0855 -0.0189 0.146 Uiso 1 1 calc R . .
C8 C 0.4099(2) 0.6197(3) -0.06588(19) 0.0821(16) Uani 1 1 d . . .
C9 C 0.44749(18) 0.7021(3) -0.07324(15) 0.0581(12) Uani 1 1 d . . .
C10 C 0.4766(2) 0.7138(3) -0.11443(18) 0.0881(17) Uani 1 1 d . . .
H10 H 0.4731 0.6703 -0.1384 0.106 Uiso 1 1 calc R . .
C11 C 0.5120(2) 0.7916(3) -0.12104(17) 0.0848(17) Uani 1 1 d . . .
H11 H 0.5312 0.7987 -0.1499 0.102 Uiso 1 1 calc R . .
C12 C 0.51995(17) 0.8583(3) -0.08692(14) 0.0547(12) Uani 1 1 d . . .
C13 C 0.4876(2) 0.8423(3) -0.04596(17) 0.0863(16) Uani 1 1 d . . .
H13 H 0.4898 0.8856 -0.0218 0.104 Uiso 1 1 calc R . .
C14 C 0.4526(2) 0.7662(3) -0.03904(17) 0.0837(16) Uani 1 1 d . . .
H14 H 0.4325 0.7589 -0.0106 0.100 Uiso 1 1 calc R . .
C15 C 0.6832(2) 0.9248(4) -0.29237(18) 0.0840(17) Uani 1 1 d . . .
C16 C 0.6562(2) 0.9365(3) -0.24375(16) 0.0700(14) Uani 1 1 d . . .
C17 C 0.6762(2) 0.8910(5) -0.20513(18) 0.114(2) Uani 1 1 d . . .
H17 H 0.7083 0.8521 -0.2085 0.137 Uiso 1 1 calc R . .
C18 C 0.6513(2) 0.8997(4) -0.16171(18) 0.0993(19) Uani 1 1 d . . .
H18 H 0.6670 0.8666 -0.1366 0.119 Uiso 1 1 calc R . .
C19 C 0.60397(18) 0.9553(3) -0.15367(14) 0.0561(12) Uani 1 1 d . . .
C20 C 0.5858(2) 1.0058(4) -0.19284(16) 0.0849(16) Uani 1 1 d . . .
H20 H 0.5545 1.0465 -0.1895 0.102 Uiso 1 1 calc R . .
C21 C 0.6124(2) 0.9973(4) -0.23606(16) 0.0877(17) Uani 1 1 d . . .
H21 H 0.5999 1.0345 -0.2608 0.105 Uiso 1 1 calc R . .
C22 C 0.3983(2) 1.2962(4) -0.10455(17) 0.0764(16) Uani 1 1 d . . .
C23 C 0.43943(18) 1.2172(3) -0.10120(15) 0.0611(13) Uani 1 1 d . . .
C24 C 0.4211(2) 1.1308(4) -0.1118(2) 0.114(2) Uani 1 1 d . . .
H24 H 0.3823 1.1221 -0.1215 0.136 Uiso 1 1 calc R . .
C25 C 0.4580(2) 1.0551(4) -0.1086(2) 0.103(2) Uani 1 1 d . . .
H25 H 0.4429 0.9972 -0.1153 0.124 Uiso 1 1 calc R . .
C26 C 0.51578(18) 1.0633(3) -0.09590(13) 0.0501(11) Uani 1 1 d . . .
C27 C 0.5331(2) 1.1498(3) -0.0862(2) 0.0903(18) Uani 1 1 d . . .
H27 H 0.5720 1.1590 -0.0769 0.108 Uiso 1 1 calc R . .
C28 C 0.4955(2) 1.2276(4) -0.0893(2) 0.0960(19) Uani 1 1 d . . .
H28 H 0.5103 1.2859 -0.0829 0.115 Uiso 1 1 calc R . .
Co1 Co 0.85120(2) 1.03902(4) 0.10788(2) 0.05852(18) Uani 1 1 d . . .
O1 O 0.75740(18) 0.9346(4) 0.09335(13) 0.1192(16) Uani 1 1 d . . .
O2 O 0.79484(15) 1.0513(2) 0.05454(14) 0.1071(13) Uani 1 1 d . . .
O3 O 0.3953(2) 0.5983(3) -0.02550(14) 0.1393(17) Uani 1 1 d . . .
O4 O 0.39452(16) 0.5781(2) -0.10242(13) 0.0949(12) Uani 1 1 d . . .
O5 O 0.72387(18) 0.8703(4) -0.29729(14) 0.1348(17) Uani 1 1 d . . .
O6 O 0.65913(17) 0.9693(2) -0.32464(11) 0.0925(12) Uani 1 1 d . . .
O7 O 0.34642(16) 1.2852(3) -0.11359(16) 0.1112(15) Uani 1 1 d . . .
O8 O 0.41892(16) 1.3731(2) -0.09545(13) 0.0934(12) Uani 1 1 d . . .
Si1 Si 0.56583(5) 0.96228(9) -0.09562(4) 0.0510(3) Uani 1 1 d . . .
N1A N 0.2286(2) 1.2422(4) -0.13849(19) 0.1319(19) Uiso 1 1 d . . .
H1AA H 0.2494 1.1944 -0.1273 0.158 Uiso 1 1 calc R . .
H1AB H 0.2544 1.2807 -0.1524 0.158 Uiso 1 1 calc R . .
N2A N 0.3868(4) 0.4533(5) 0.0341(3) 0.203(2) Uiso 1 1 d U . .
H2AA H 0.3542 0.4515 0.0522 0.244 Uiso 1 1 calc R . .
H2AB H 0.3798 0.4888 0.0086 0.244 Uiso 1 1 calc R . .
C2A C 0.1875(4) 1.2063(6) -0.1765(3) 0.168(3) Uiso 1 1 d . . .
H2AC H 0.2097 1.1725 -0.1996 0.252 Uiso 1 1 calc R . .
H2AD H 0.1680 1.2569 -0.1917 0.252 Uiso 1 1 calc R . .
H2AE H 0.1586 1.1667 -0.1624 0.252 Uiso 1 1 calc R . .
C1A C 0.2049(4) 1.2856(6) -0.1019(3) 0.174(3) Uiso 1 1 d . . .
H1AC H 0.2355 1.3041 -0.0804 0.262 Uiso 1 1 calc R . .
H1AD H 0.1781 1.2453 -0.0859 0.262 Uiso 1 1 calc R . .
H1AE H 0.1841 1.3389 -0.1128 0.262 Uiso 1 1 calc R . .
C4A C 0.4035(4) 0.3675(6) 0.0209(3) 0.210(3) Uiso 1 1 d U . .
H4AA H 0.3721 0.3389 0.0035 0.315 Uiso 1 1 calc R . .
H4AB H 0.4121 0.3317 0.0486 0.315 Uiso 1 1 calc R . .
H4AC H 0.4379 0.3712 0.0013 0.315 Uiso 1 1 calc R . .
C3A C 0.4405(5) 0.4892(7) 0.0626(4) 0.234(3) Uiso 1 1 d U . .
H3AA H 0.4324 0.5500 0.0741 0.352 Uiso 1 1 calc R . .
H3AB H 0.4746 0.4907 0.0426 0.352 Uiso 1 1 calc R . .
H3AC H 0.4478 0.4491 0.0890 0.352 Uiso 1 1 calc R . .
O1W O 0.7221(6) 1.2146(10) -0.1283(5) 0.214(3) Uiso 0.50 1 d PU A 1
O2W O 0.5237(10) 0.7614(19) -0.2653(9) 0.206(4) Uiso 0.25 1 d PU B 2
O4W O 0.7791(11) 1.173(2) -0.1040(9) 0.194(4) Uiso 0.25 1 d PU C 3
O3W O 0.7192(11) 1.2922(18) -0.0752(9) 0.197(4) Uiso 0.25 1 d PU D 4

loop_
_atom_site_aniso_label
_atom_site_aniso_U_11
_atom_site_aniso_U_22
_atom_site_aniso_U_33
_atom_site_aniso_U_23
_atom_site_aniso_U_13
_atom_site_aniso_U_12
C1 0.067(3) 0.086(4) 0.095(4) -0.021(3) -0.024(3) 0.008(3)
C2 0.075(3) 0.090(3) 0.075(3) 0.015(2) -0.037(2) -0.028(2)
C3 0.113(3) 0.118(3) 0.106(3) 0.048(3) -0.059(3) -0.042(3)
C4 0.112(3) 0.103(3) 0.114(3) 0.030(3) -0.053(3) -0.047(3)
C5 0.061(2) 0.060(2) 0.065(2) 0.019(2) -0.018(2) -0.022(2)
C6 0.109(3) 0.114(4) 0.126(3) 0.044(3) -0.057(3) -0.035(3)
C7 0.104(3) 0.116(4) 0.145(4) 0.037(3) -0.066(3) -0.039(3)
C8 0.083(3) 0.065(3) 0.098(4) 0.009(3) -0.012(3) -0.011(3)
C9 0.059(2) 0.051(3) 0.064(3) 0.002(2) -0.008(2) -0.004(2)
C10 0.111(4) 0.079(3) 0.075(3) -0.019(3) 0.002(3) -0.042(3)
C11 0.097(4) 0.095(4) 0.062(3) -0.014(3) 0.007(3) -0.019(3)
C12 0.055(2) 0.061(3) 0.048(2) -0.006(2) -0.0067(19) 0.004(2)
C13 0.107(4) 0.077(3) 0.075(3) -0.022(3) 0.027(3) -0.034(3)
C14 0.105(4) 0.081(3) 0.064(3) -0.008(3) 0.019(3) -0.030(3)
C15 0.086(3) 0.092(4) 0.074(3) -0.015(3) 0.009(3) 0.014(3)
C16 0.071(3) 0.084(3) 0.055(3) 0.002(2) 0.007(2) 0.020(3)
C17 0.109(4) 0.167(5) 0.067(3) 0.024(3) 0.027(3) 0.084(4)
C18 0.102(3) 0.133(4) 0.063(3) 0.021(3) 0.011(3) 0.071(3)
C19 0.063(3) 0.053(2) 0.053(2) -0.002(2) -0.001(2) 0.003(2)
C20 0.087(3) 0.107(4) 0.060(3) 0.014(3) 0.014(3) 0.044(3)
C21 0.112(4) 0.102(4) 0.050(3) 0.016(3) 0.013(3) 0.026(4)
C22 0.061(3) 0.081(3) 0.087(3) 0.001(3) 0.013(3) 0.002(3)
C23 0.046(2) 0.062(3) 0.075(3) 0.004(2) 0.006(2) 0.011(2)
C24 0.049(3) 0.102(5) 0.189(6) 0.002(4) -0.017(4) 0.005(3)
C25 0.059(3) 0.060(3) 0.191(6) 0.010(4) -0.028(4) -0.007(3)
C26 0.054(2) 0.053(3) 0.043(2) 0.0015(19) -0.0020(18) -0.005(2)
C27 0.052(3) 0.079(4) 0.140(4) -0.026(3) -0.018(3) 0.015(3)
C28 0.084(4) 0.064(3) 0.140(5) -0.025(3) -0.001(3) 0.010(3)
Co1 0.0576(3) 0.0530(3) 0.0650(4) -0.0028(3) -0.0148(3) 0.0020(3)
O1 0.107(3) 0.176(4) 0.074(2) 0.023(3) -0.033(2) -0.022(3)
O2 0.101(2) 0.076(2) 0.145(3) -0.016(2) -0.071(2) 0.006(2)
O3 0.212(4) 0.105(3) 0.100(3) 0.021(2) -0.017(3) -0.069(3)
O4 0.095(3) 0.071(2) 0.118(3) -0.006(2) 0.002(2) -0.024(2)
O5 0.130(3) 0.191(4) 0.084(2) -0.004(3) 0.031(2) 0.064(3)
O6 0.136(3) 0.088(3) 0.0543(19) 0.0051(18) 0.0219(19) 0.013(2)
O7 0.075(2) 0.097(3) 0.162(4) 0.014(3) 0.008(2) 0.018(2)
O8 0.085(2) 0.077(2) 0.118(3) -0.001(2) 0.019(2) 0.017(2)
Si1 0.0501(6) 0.0587(7) 0.0441(6) 0.0003(6) -0.0031(5) 0.0004(6)

_geom_special_details            
; 
 All esds (except the esd in the dihedral angle between two l.s. planes) 
 are estimated using the full covariance matrix.  The cell esds are taken 
 into account individually in the estimation of esds in distances, angles 
 and torsion angles; correlations between esds in cell parameters are only 
 used when they are defined by crystal symmetry.  An approximate (isotropic) 
 treatment of cell esds is used for estimating esds involving l.s. planes. 
;

loop_
_geom_bond_atom_site_label_1
_geom_bond_atom_site_label_2
_geom_bond_distance
_geom_bond_site_symmetry_2
_geom_bond_publ_flag
C1 O2 1.234(6) . ?
C1 O1 1.247(6) . ?
C1 C2 1.522(7) . ?
C2 C3 1.311(7) . ?
C2 C7 1.364(7) . ?
C3 C4 1.409(7) . ?
C3 H3 0.9300 . ?
C4 C5 1.292(7) . ?
C4 H4 0.9300 . ?
C5 C6 1.326(7) . ?
C5 Si1 1.857(4) . ?
C6 C7 1.386(8) . ?
C6 H6 0.9300 . ?
C7 H7 0.9300 . ?
C8 O3 1.229(6) . ?
C8 O4 1.248(6) . ?
C8 C9 1.487(6) . ?
C9 C14 1.348(6) . ?
C9 C10 1.349(6) . ?
C10 C11 1.404(7) . ?
C10 H10 0.9300 . ?
C11 C12 1.380(6) . ?
C11 H11 0.9300 . ?
C12 C13 1.390(6) . ?
C12 Si1 1.855(4) . ?
C13 C14 1.379(6) . ?
C13 H13 0.9300 . ?
C14 H14 0.9300 . ?
C15 O5 1.226(6) . ?
C15 O6 1.245(6) . ?
C15 C16 1.514(6) . ?
C16 C21 1.350(7) . ?
C16 C17 1.355(7) . ?
C17 C18 1.357(7) . ?
C17 H17 0.9300 . ?
C18 C19 1.365(6) . ?
C18 H18 0.9300 . ?
C19 C20 1.392(6) . ?
C19 Si1 1.858(4) . ?
C20 C21 1.369(6) . ?
C20 H20 0.9300 . ?
C21 H21 0.9300 . ?
C22 O7 1.216(6) . ?
C22 O8 1.240(6) . ?
C22 C23 1.485(6) . ?
C23 C28 1.326(7) . ?
C23 C24 1.359(7) . ?
C24 C25 1.388(7) . ?
C24 H24 0.9300 . ?
C25 C26 1.366(6) . ?
C25 H25 0.9300 . ?
C26 C27 1.347(6) . ?
C26 Si1 1.860(4) . ?
C27 C28 1.421(7) . ?
C27 H27 0.9300 . ?
C28 H28 0.9300 . ?
Co1 O6 1.926(3) 2_675 ?
Co1 O4 1.975(4) 4_565 ?
Co1 O2 1.985(4) . ?
Co1 O8 2.031(4) 4_575 ?
O4 Co1 1.975(4) 4_465 ?
O6 Co1 1.926(3) 2_674 ?
O8 Co1 2.031(4) 4_475 ?
N1A C1A 1.326(9) . ?
N1A C2A 1.518(9) . ?
N1A H1AA 0.9000 . ?
N1A H1AB 0.9000 . ?
N2A C4A 1.358(11) . ?
N2A C3A 1.555(12) . ?
N2A H2AA 0.9000 . ?
N2A H2AB 0.9000 . ?
C2A H2AC 0.9600 . ?
C2A H2AD 0.9600 . ?
C2A H2AE 0.9600 . ?
C1A H1AC 0.9600 . ?
C1A H1AD 0.9600 . ?
C1A H1AE 0.9600 . ?
C4A H4AA 0.9600 . ?
C4A H4AB 0.9600 . ?
C4A H4AC 0.9600 . ?
C3A H3AA 0.9600 . ?
C3A H3AB 0.9600 . ?
C3A H3AC 0.9600 . ?

loop_
_geom_angle_atom_site_label_1
_geom_angle_atom_site_label_2
_geom_angle_atom_site_label_3
_geom_angle
_geom_angle_site_symmetry_1
_geom_angle_site_symmetry_3
_geom_angle_publ_flag
O2 C1 O1 124.3(5) . . ?
O2 C1 C2 117.0(5) . . ?
O1 C1 C2 118.7(5) . . ?
C3 C2 C7 115.3(5) . . ?
C3 C2 C1 122.1(5) . . ?
C7 C2 C1 121.9(5) . . ?
C2 C3 C4 119.2(5) . . ?
C2 C3 H3 120.4 . . ?
C4 C3 H3 120.4 . . ?
C5 C4 C3 126.5(5) . . ?
C5 C4 H4 116.8 . . ?
C3 C4 H4 116.8 . . ?
C4 C5 C6 113.1(5) . . ?
C4 C5 Si1 125.4(4) . . ?
C6 C5 Si1 121.1(4) . . ?
C5 C6 C7 123.0(6) . . ?
C5 C6 H6 118.5 . . ?
C7 C6 H6 118.5 . . ?
C2 C7 C6 121.5(5) . . ?
C2 C7 H7 119.2 . . ?
C6 C7 H7 119.2 . . ?
O3 C8 O4 124.7(5) . . ?
O3 C8 C9 119.4(5) . . ?
O4 C8 C9 115.9(4) . . ?
C14 C9 C10 119.3(4) . . ?
C14 C9 C8 120.5(4) . . ?
C10 C9 C8 120.2(4) . . ?
C9 C10 C11 119.8(4) . . ?
C9 C10 H10 120.1 . . ?
C11 C10 H10 120.1 . . ?
C12 C11 C10 123.4(4) . . ?
C12 C11 H11 118.3 . . ?
C10 C11 H11 118.3 . . ?
C11 C12 C13 113.3(4) . . ?
C11 C12 Si1 123.7(3) . . ?
C13 C12 Si1 122.9(3) . . ?
C14 C13 C12 123.8(4) . . ?
C14 C13 H13 118.1 . . ?
C12 C13 H13 118.1 . . ?
C9 C14 C13 120.3(4) . . ?
C9 C14 H14 119.8 . . ?
C