####################################################################### 
# 
# This file contains crystal structure data downloaded from the 
# Cambridge Structural Database (CSD) hosted by the Cambridge 
# Crystallographic Data Centre (CCDC).
# 
# Full information about CCDC data access policies and citation 
# guidelines are available at http://www.ccdc.cam.ac.uk/access/V1 
# 
# Audit and citation data items may have been added by the CCDC. 
# Please retain this information to preserve the provenance of 
# this file and to allow appropriate attribution of the data. 
# 
#######################################################################

data_complex_2
_audit_block_doi                 10.5517/ccr4qzk
_database_code_depnum_ccdc_archive 'CCDC 689749'
loop_
_citation_id
_citation_doi
_citation_year
1 10.1039/b809069f 2008
_audit_update_record             
;
2008-05-29 deposited with the CCDC.	2024-07-11 downloaded from the CCDC.
;

# SQUEEZE RESULTS (APPEND TO CIF)
loop_
_platon_squeeze_void_nr
_platon_squeeze_void_average_x
_platon_squeeze_void_average_y
_platon_squeeze_void_average_z
_platon_squeeze_void_volume
_platon_squeeze_void_count_electrons
1 0.104 -0.007 -0.006 45883.0 2015.3
_platon_squeeze_details          
;
;

_audit_creation_method           SHELXL-97
_chemical_name_systematic        
;
?
;
_chemical_name_common            ?
_chemical_melting_point          ?
_chemical_formula_moiety         ?
_chemical_formula_sum            'C81 H49 K0.50 O20.50 Zn4.75'
_chemical_formula_weight         1680.26

loop_
_atom_type_symbol
_atom_type_description
_atom_type_scat_dispersion_real
_atom_type_scat_dispersion_imag
_atom_type_scat_source
C C 0.0033 0.0016 'International Tables Vol C Tables 4.2.6.8 and 6.1.1.4'
H H 0.0000 0.0000 'International Tables Vol C Tables 4.2.6.8 and 6.1.1.4'
O O 0.0106 0.0060 'International Tables Vol C Tables 4.2.6.8 and 6.1.1.4'
K K 0.2009 0.2494 'International Tables Vol C Tables 4.2.6.8 and 6.1.1.4'
Zn Zn 0.2839 1.4301 'International Tables Vol C Tables 4.2.6.8 and 6.1.1.4'

_symmetry_cell_setting           tetragonal
_symmetry_space_group_name_H-M   I4(1)22

loop_
_symmetry_equiv_pos_as_xyz
'x, y, z'
'x, -y+1/2, -z+1/4'
'-x+1/2, -y+1/2, z+1/2'
'-x+1/2, y, -z+3/4'
'y+1/2, x+1/2, -z+1/2'
'y+1/2, -x, z+3/4'
'-y, x+1/2, z+1/4'
'-y, -x, -z'
'x+1/2, y+1/2, z+1/2'
'x+1/2, -y+1, -z+3/4'
'-x+1, -y+1, z+1'
'-x+1, y+1/2, -z+5/4'
'y+1, x+1, -z+1'
'y+1, -x+1/2, z+5/4'
'-y+1/2, x+1, z+3/4'
'-y+1/2, -x+1/2, -z+1/2'

_cell_length_a                   32.441(2)
_cell_length_b                   32.441(2)
_cell_length_c                   47.814(3)
_cell_angle_alpha                90.00
_cell_angle_beta                 90.00
_cell_angle_gamma                90.00
_cell_volume                     50320(4)
_cell_formula_units_Z            16
_cell_measurement_temperature    293(2)
_cell_measurement_reflns_used    5059
_cell_measurement_theta_min      2.16
_cell_measurement_theta_max      20.53

_exptl_crystal_description       block
_exptl_crystal_colour            yellow
_exptl_crystal_size_max          0.31
_exptl_crystal_size_mid          0.19
_exptl_crystal_size_min          0.18
_exptl_crystal_density_meas      ?
_exptl_crystal_density_diffrn    0.887
_exptl_crystal_density_method    'not measured'
_exptl_crystal_F_000             13600
_exptl_absorpt_coefficient_mu    0.954
_exptl_absorpt_correction_type   multi-scan
_exptl_absorpt_correction_T_min  0.7565
_exptl_absorpt_correction_T_max  0.8471
_exptl_absorpt_process_details   sadabs

_exptl_special_details           
;
?
;

_diffrn_ambient_temperature      293(2)
_diffrn_radiation_wavelength     0.71073
_diffrn_radiation_type           MoK\a
_diffrn_radiation_source         'fine-focus sealed tube'
_diffrn_radiation_monochromator  graphite
_diffrn_measurement_device_type  ?
_diffrn_measurement_method       ?
_diffrn_detector_area_resol_mean ?
_diffrn_standards_number         ?
_diffrn_standards_interval_count ?
_diffrn_standards_interval_time  ?
_diffrn_standards_decay_%        ?
_diffrn_reflns_number            79454
_diffrn_reflns_av_R_equivalents  0.1177
_diffrn_reflns_av_sigmaI/netI    0.1386
_diffrn_reflns_limit_h_min       -20
_diffrn_reflns_limit_h_max       38
_diffrn_reflns_limit_k_min       -32
_diffrn_reflns_limit_k_max       38
_diffrn_reflns_limit_l_min       -56
_diffrn_reflns_limit_l_max       40
_diffrn_reflns_theta_min         0.76
_diffrn_reflns_theta_max         25.00
_reflns_number_total             22182
_reflns_number_gt                11153
_reflns_threshold_expression     >2sigma(I)

_computing_data_collection       ?
_computing_cell_refinement       ?
_computing_data_reduction        ?
_computing_structure_solution    'SHELXS-97 (Sheldrick, 1990)'
_computing_structure_refinement  'SHELXL-97 (Sheldrick, 1997)'
_computing_molecular_graphics    ?
_computing_publication_material  ?

_refine_special_details          
;
Refinement of F^2^ against ALL reflections. The weighted R-factor wR and
goodness of fit S are based on F^2^, conventional R-factors R are based
on F, with F set to zero for negative F^2^. The threshold expression of
F^2^ > 2sigma(F^2^) is used only for calculating R-factors(gt) etc. and is
not relevant to the choice of reflections for refinement. R-factors based
on F^2^ are statistically about twice as large as those based on F, and R-
factors based on ALL data will be even larger.
;

_refine_ls_structure_factor_coef Fsqd
_refine_ls_matrix_type           full
_refine_ls_weighting_scheme      calc
_refine_ls_weighting_details     
'calc w=1/[\s^2^(Fo^2^)+(0.0617P)^2^+0.0000P] where P=(Fo^2^+2Fc^2^)/3'
_atom_sites_solution_primary     direct
_atom_sites_solution_secondary   difmap
_atom_sites_solution_hydrogens   geom
_refine_ls_hydrogen_treatment    constr
_refine_ls_extinction_method     none
_refine_ls_extinction_coef       ?
_refine_ls_abs_structure_details 'Flack H D (1983), Acta Cryst. A39, 876-881'
_refine_ls_abs_structure_Flack   0.03(1)
_refine_ls_number_reflns         22182
_refine_ls_number_parameters     952
_refine_ls_number_restraints     97
_refine_ls_R_factor_all          0.1128
_refine_ls_R_factor_gt           0.0594
_refine_ls_wR_factor_ref         0.1429
_refine_ls_wR_factor_gt          0.1273
_refine_ls_goodness_of_fit_ref   0.951
_refine_ls_restrained_S_all      0.947
_refine_ls_shift/su_max          0.000
_refine_ls_shift/su_mean         0.000

loop_
_atom_site_label
_atom_site_type_symbol
_atom_site_fract_x
_atom_site_fract_y
_atom_site_fract_z
_atom_site_U_iso_or_equiv
_atom_site_adp_type
_atom_site_occupancy
_atom_site_symmetry_multiplicity
_atom_site_calc_flag
_atom_site_refinement_flags
_atom_site_disorder_assembly
_atom_site_disorder_group
Zn1 Zn 0.51558(3) 0.11723(3) 0.147540(17) 0.0797(3) Uani 1 1 d . . .
Zn2 Zn 0.43349(3) 0.14925(3) 0.18485(2) 0.0938(3) Uani 1 1 d . . .
Zn3 Zn 0.52905(2) 0.17001(3) 0.20557(2) 0.0809(3) Uani 1 1 d . . .
Zn4 Zn 0.5000 0.0000 -0.184543(19) 0.0443(2) Uani 1 2 d S . .
Zn5 Zn 0.58942(2) 0.01709(2) -0.205071(16) 0.0546(2) Uani 1 1 d . . .
Zn6 Zn 0.5000 0.0000 -0.2500 0.0482(3) Uani 1 4 d S . .
K1 K 0.49138(7) 0.2500 0.1250 0.0684(6) Uani 1 2 d S . .
O1 O 0.49242(17) 0.16883(16) 0.11267(10) 0.0810(15) Uani 1 1 d . . .
O2 O 0.52973(16) 0.11349(17) 0.10713(11) 0.0922(16) Uani 1 1 d . . .
O3 O 0.53685(15) 0.02669(14) -0.15407(9) 0.0704(13) Uani 1 1 d . . .
O4 O 0.59172(15) 0.05690(14) -0.17272(10) 0.0746(14) Uani 1 1 d . . .
O6 O 0.60550(18) 0.42891(15) -0.08893(11) 0.0974(18) Uani 1 1 d . . .
O5 O 0.62251(17) 0.43452(16) -0.04389(12) 0.0934(16) Uani 1 1 d . . .
O7 O 0.43772(17) 0.22562(14) 0.16612(10) 0.0778(14) Uani 1 1 d . . .
O8 O 0.38681(15) 0.18628(15) 0.17922(11) 0.0830(15) Uani 1 1 d . . .
O9 O 0.03880(14) 0.39832(14) 0.19141(10) 0.0698(13) Uani 1 1 d . . .
O10 O 0.05352(12) 0.46376(15) 0.18231(10) 0.0710(13) Uani 1 1 d . . .
O11 O 0.31587(18) 0.49618(18) -0.01274(11) 0.110(2) Uani 1 1 d . . .
O12 O 0.34453(18) 0.43618(17) -0.02432(12) 0.1001(17) Uani 1 1 d . . .
O13 O 0.45222(15) -0.27773(14) 0.08777(12) 0.0852(15) Uani 1 1 d . . .
O14 O 0.43030(13) -0.28507(15) 0.04443(12) 0.0811(14) Uani 1 1 d . . .
O15 O 0.13697(13) -0.03423(16) -0.02296(12) 0.0832(15) Uani 1 1 d . . .
O16 O 0.11016(17) -0.0051(2) 0.01451(12) 0.117(2) Uani 1 1 d . . .
H16A H 0.0910 0.0001 0.0029 0.175 Uiso 1 1 d R . .
O17 O 0.41667(16) 0.10622(19) 0.15965(16) 0.134(3) Uani 1 1 d . . .
O18 O 0.47452(17) 0.07255(16) 0.14857(12) 0.0957(17) Uani 1 1 d . . .
O19 O 0.49232(13) 0.15695(12) 0.17440(8) 0.0685(12) Uani 1 1 d . . .
H19A H 0.4919 0.1793 0.1651 0.082 Uiso 1 1 calc R . .
O20 O 0.53303(10) 0.02708(10) -0.21769(7) 0.0422(9) Uani 1 1 d . . .
H20A H 0.5285 0.0529 -0.2177 0.051 Uiso 1 1 calc R . .
O1W O 0.45284(11) 0.04716(11) -0.2500 0.0601(16) Uani 1 2 d S . .
C1 C 0.5118(3) 0.1454(3) 0.09809(16) 0.076(2) Uani 1 1 d . . .
C2 C 0.5164(2) 0.1551(2) 0.06801(15) 0.0671(18) Uani 1 1 d . . .
C3 C 0.5411(3) 0.1289(2) 0.05123(16) 0.086(2) Uani 1 1 d . . .
H3 H 0.5517 0.1045 0.0585 0.103 Uiso 1 1 calc R . .
C4 C 0.5492(3) 0.1405(2) 0.02348(16) 0.086(2) Uani 1 1 d . . .
H4 H 0.5665 0.1239 0.0128 0.103 Uiso 1 1 calc R . .
C5 C 0.5327(2) 0.1753(2) 0.01145(14) 0.0654(19) Uani 1 1 d . . .
C6 C 0.5077(2) 0.19970(19) 0.02897(14) 0.0652(18) Uani 1 1 d . . .
H6 H 0.4959 0.2236 0.0218 0.078 Uiso 1 1 calc R . .
C7 C 0.5003(2) 0.1892(2) 0.05580(13) 0.0620(17) Uani 1 1 d . . .
H7 H 0.4835 0.2063 0.0665 0.074 Uiso 1 1 calc R . .
C8 C 0.5448(2) 0.1899(2) -0.01707(14) 0.0680(19) Uani 1 1 d . . .
C9 C 0.5440(2) 0.1621(2) -0.03954(16) 0.074(2) Uani 1 1 d . . .
H9 H 0.5356 0.1350 -0.0368 0.089 Uiso 1 1 calc R . .
C10 C 0.5559(2) 0.1758(3) -0.06625(15) 0.080(2) Uani 1 1 d . . .
C11 C 0.5675(2) 0.2165(2) -0.07034(15) 0.074(2) Uani 1 1 d . . .
H11 H 0.5758 0.2256 -0.0879 0.089 Uiso 1 1 calc R . .
C12 C 0.5664(2) 0.2432(2) -0.04824(15) 0.0657(18) Uani 1 1 d . . .
C13 C 0.5548(2) 0.22989(19) -0.02228(14) 0.067(2) Uani 1 1 d . . .
H13 H 0.5537 0.2488 -0.0077 0.081 Uiso 1 1 calc R . .
C14 C 0.5595(3) 0.1439(2) -0.08963(15) 0.078(2) Uani 1 1 d . . .
C15 C 0.5286(3) 0.1130(3) -0.09224(16) 0.092(2) Uani 1 1 d . . .
H15 H 0.5072 0.1122 -0.0793 0.110 Uiso 1 1 calc R . .
C16 C 0.5294(3) 0.0848(2) -0.11281(17) 0.089(2) Uani 1 1 d . . .
H16 H 0.5090 0.0647 -0.1139 0.107 Uiso 1 1 calc R . .
C17 C 0.5610(2) 0.0860(2) -0.13238(15) 0.0667(19) Uani 1 1 d . . .
C18 C 0.5907(3) 0.1171(3) -0.12978(18) 0.113(3) Uani 1 1 d . . .
H18 H 0.6112 0.1188 -0.1433 0.136 Uiso 1 1 calc R . .
C19 C 0.5912(3) 0.1443(2) -0.10900(17) 0.100(3) Uani 1 1 d . . .
H19 H 0.6126 0.1633 -0.1075 0.120 Uiso 1 1 calc R . .
C20 C 0.5633(2) 0.0536(2) -0.15485(13) 0.0611(18) Uani 1 1 d . . .
C21 C 0.5775(2) 0.2870(2) -0.05278(15) 0.0749(18) Uani 1 1 d U . .
C22 C 0.5697(3) 0.3062(2) -0.07771(16) 0.089(2) Uani 1 1 d U . .
H22 H 0.5574 0.2915 -0.0922 0.107 Uiso 1 1 calc R . .
C23 C 0.5804(3) 0.3486(2) -0.08163(16) 0.091(2) Uani 1 1 d U . .
H23 H 0.5754 0.3613 -0.0987 0.109 Uiso 1 1 calc R . .
C24 C 0.5982(2) 0.3705(2) -0.06009(15) 0.0718(18) Uani 1 1 d U . .
C25 C 0.6060(3) 0.3507(2) -0.03545(16) 0.096(2) Uani 1 1 d U . .
H25 H 0.6186 0.3648 -0.0208 0.116 Uiso 1 1 calc R . .
C26 C 0.5954(3) 0.3097(2) -0.03210(16) 0.093(2) Uani 1 1 d U . .
H26 H 0.6006 0.2971 -0.0150 0.112 Uiso 1 1 calc R . .
C27 C 0.6095(2) 0.4146(3) -0.0648(2) 0.081(2) Uani 1 1 d . . .
C28 C 0.4000(2) 0.2192(2) 0.16974(15) 0.064(2) Uani 1 1 d . . .
C29 C 0.3705(2) 0.2542(2) 0.16369(13) 0.0616(18) Uani 1 1 d . . .
C30 C 0.3293(2) 0.2476(2) 0.16680(15) 0.075(2) Uani 1 1 d . . .
H30 H 0.3195 0.2227 0.1738 0.091 Uiso 1 1 calc R . .
C31 C 0.3030(2) 0.2781(3) 0.15952(17) 0.085(2) Uani 1 1 d . . .
H31 H 0.2749 0.2738 0.1622 0.102 Uiso 1 1 calc R . .
C32 C 0.3156(2) 0.3151(2) 0.14844(14) 0.0666(18) Uani 1 1 d D . .
C33 C 0.3570(2) 0.3205(2) 0.14551(15) 0.072(2) Uani 1 1 d . . .
H33 H 0.3666 0.3448 0.1375 0.086 Uiso 1 1 calc R . .
C34 C 0.3847(2) 0.2918(2) 0.15374(14) 0.070(2) Uani 1 1 d . . .
H34 H 0.4128 0.2972 0.1527 0.083 Uiso 1 1 calc R . .
C35 C 0.28528(19) 0.3461(2) 0.13616(15) 0.0665(19) Uani 1 1 d D . .
C36 C 0.2488(2) 0.3556(2) 0.14771(15) 0.072(2) Uani 1 1 d . . .
H36 H 0.2415 0.3433 0.1645 0.087 Uiso 1 1 calc R . .
C37 C 0.2217(2) 0.3832(2) 0.13553(15) 0.0665(19) Uani 1 1 d . . .
C38 C 0.2334(2) 0.4016(2) 0.11017(17) 0.074(2) Uani 1 1 d . . .
H38 H 0.2162 0.4210 0.1018 0.088 Uiso 1 1 calc R . .
C39 C 0.27113(19) 0.39085(19) 0.09729(16) 0.0621(19) Uani 1 1 d . . .
C40 C 0.2959(2) 0.3637(2) 0.11109(16) 0.067(2) Uani 1 1 d . . .
H40 H 0.3212 0.3569 0.1032 0.081 Uiso 1 1 calc R . .
C41 C 0.1807(2) 0.3939(2) 0.14842(16) 0.075(2) Uani 1 1 d . . .
C42 C 0.1559(3) 0.3657(2) 0.16026(18) 0.101(3) Uani 1 1 d . . .
H42 H 0.1642 0.3383 0.1607 0.121 Uiso 1 1 calc R . .
C43 C 0.1185(2) 0.3766(2) 0.17177(16) 0.086(2) Uani 1 1 d . . .
H43 H 0.1030 0.3564 0.1807 0.104 Uiso 1 1 calc R . .
C44 C 0.10357(19) 0.4152(2) 0.17070(14) 0.0595(18) Uani 1 1 d . . .
C45 C 0.1273(2) 0.4449(2) 0.15781(15) 0.068(2) Uani 1 1 d . . .
H45 H 0.1174 0.4718 0.1568 0.081 Uiso 1 1 calc R . .
C46 C 0.1644(2) 0.4361(2) 0.14661(17) 0.083(2) Uani 1 1 d . . .
H46 H 0.1796 0.4566 0.1378 0.099 Uiso 1 1 calc R . .
C47 C 0.0619(2) 0.4265(2) 0.18275(14) 0.0569(18) Uani 1 1 d . . .
C48 C 0.28273(19) 0.4092(2) 0.07008(14) 0.0612(18) Uani 1 1 d . . .
C49 C 0.2732(2) 0.4486(2) 0.06170(17) 0.079(2) Uani 1 1 d . . .
H49 H 0.2566 0.4646 0.0732 0.095 Uiso 1 1 calc R . .
C50 C 0.2871(2) 0.4650(2) 0.03757(17) 0.082(2) Uani 1 1 d . . .
H50 H 0.2811 0.4923 0.0332 0.099 Uiso 1 1 calc R . .
C51 C 0.3098(2) 0.4420(2) 0.01959(15) 0.0636(18) Uani 1 1 d . . .
C52 C 0.3209(2) 0.4023(2) 0.02627(17) 0.086(2) Uani 1 1 d . . .
H52 H 0.3374 0.3867 0.0144 0.103 Uiso 1 1 calc R . .
C53 C 0.3062(2) 0.3859(2) 0.05196(17) 0.087(2) Uani 1 1 d . . .
H53 H 0.3125 0.3588 0.0567 0.105 Uiso 1 1 calc R . .
C54 C 0.3241(2) 0.4600(3) -0.00819(16) 0.075(2) Uani 1 1 d . . .
C55 C 0.4302(2) -0.2670(2) 0.06743(18) 0.0647(19) Uani 1 1 d . . .
C56 C 0.40187(18) -0.23146(19) 0.07116(16) 0.0593(18) Uani 1 1 d . . .
C57 C 0.3782(2) -0.2181(2) 0.04837(16) 0.075(2) Uani 1 1 d . . .
H57 H 0.3783 -0.2328 0.0317 0.090 Uiso 1 1 calc R . .
C58 C 0.3547(2) -0.1829(2) 0.05106(17) 0.083(2) Uani 1 1 d . . .
H58 H 0.3383 -0.1745 0.0362 0.099 Uiso 1 1 calc R . .
C59 C 0.3551(2) -0.1591(2) 0.07586(16) 0.069(2) Uani 1 1 d . . .
C60 C 0.37754(19) -0.1746(2) 0.09799(14) 0.0637(19) Uani 1 1 d . . .
H60 H 0.3773 -0.1604 0.1149 0.076 Uiso 1 1 calc R . .
C61 C 0.40077(19) -0.2113(2) 0.09603(15) 0.0627(18) Uani 1 1 d . . .
H61 H 0.4150 -0.2214 0.1115 0.075 Uiso 1 1 calc R . .
C62 C 0.3357(2) -0.1175(2) 0.07762(14) 0.0659(19) Uani 1 1 d . . .
C63 C 0.2989(2) -0.1091(2) 0.06474(16) 0.079(2) Uani 1 1 d . . .
H63 H 0.2849 -0.1299 0.0552 0.095 Uiso 1 1 calc R . .
C64 C 0.2826(2) -0.0697(2) 0.06590(17) 0.081(2) Uani 1 1 d . . .
C65 C 0.3020(2) -0.0395(2) 0.08037(16) 0.087(3) Uani 1 1 d . . .
H65 H 0.2904 -0.0134 0.0818 0.104 Uiso 1 1 calc R . .
C66 C 0.3399(2) -0.0485(2) 0.09317(14) 0.071(2) Uani 1 1 d . . .
C67 C 0.3551(2) -0.0873(2) 0.09164(14) 0.0657(19) Uani 1 1 d . . .
H67 H 0.3798 -0.0932 0.1006 0.079 Uiso 1 1 calc R . .
C68 C 0.24394(14) -0.05918(18) 0.04935(11) 0.094(2) Uani 1 1 d GU . .
C69 C 0.24089(13) -0.06947(18) 0.02120(11) 0.110(2) Uani 1 1 d GU . .
H69 H 0.2623 -0.0834 0.0124 0.132 Uiso 1 1 calc R . .
C70 C 0.20576(16) -0.05894(17) 0.00617(8) 0.101(2) Uani 1 1 d GU . .
H70 H 0.2037 -0.0658 -0.0127 0.121 Uiso 1 1 calc R . .
C71 C 0.17368(13) -0.03812(17) 0.01929(10) 0.083(2) Uani 1 1 d GU . .
C72 C 0.17674(14) -0.02783(18) 0.04743(11) 0.117(2) Uani 1 1 d GU . .
H72 H 0.1553 -0.0139 0.0562 0.141 Uiso 1 1 calc R . .
C73 C 0.21187(17) -0.03836(19) 0.06246(9) 0.114(2) Uani 1 1 d GU . .
H73 H 0.2139 -0.0315 0.0813 0.137 Uiso 1 1 calc R . .
C74 C 0.1368(2) -0.0251(2) 0.0030(2) 0.083(2) Uani 1 1 d . . .
C75 C 0.3645(2) -0.0152(2) 0.10786(15) 0.0655(19) Uani 1 1 d . . .
C76 C 0.3445(2) 0.0172(2) 0.12179(17) 0.089(2) Uani 1 1 d . . .
H76 H 0.3159 0.0186 0.1223 0.107 Uiso 1 1 calc R . .
C77 C 0.3693(2) 0.0481(2) 0.13521(17) 0.083(2) Uani 1 1 d . . .
H77 H 0.3565 0.0703 0.1440 0.100 Uiso 1 1 calc R . .
C78 C 0.4111(2) 0.0455(2) 0.13521(17) 0.073(2) Uani 1 1 d . . .
C79 C 0.4309(2) 0.0142(3) 0.12232(17) 0.087(2) Uani 1 1 d . . .
H79 H 0.4595 0.0132 0.1221 0.105 Uiso 1 1 calc R . .
C80 C 0.4073(2) -0.0171(2) 0.10913(15) 0.082(2) Uani 1 1 d . . .
H80 H 0.4207 -0.0395 0.1011 0.098 Uiso 1 1 calc R . .
C81 C 0.4367(3) 0.0775(2) 0.14824(18) 0.082(2) Uani 1 1 d . . .

loop_
_atom_site_aniso_label
_atom_site_aniso_U_11
_atom_site_aniso_U_22
_atom_site_aniso_U_33
_atom_site_aniso_U_23
_atom_site_aniso_U_13
_atom_site_aniso_U_12
Zn1 0.0704(6) 0.1163(7) 0.0526(5) -0.0180(5) 0.0097(4) -0.0183(5)
Zn2 0.0691(6) 0.1288(8) 0.0836(7) -0.0501(6) -0.0269(5) 0.0485(6)
Zn3 0.0586(5) 0.0916(6) 0.0923(7) -0.0369(5) 0.0105(5) -0.0144(4)
Zn4 0.0451(6) 0.0459(6) 0.0420(6) 0.000 0.000 -0.0011(5)
Zn5 0.0472(4) 0.0642(5) 0.0522(4) 0.0001(4) 0.0055(4) -0.0029(3)
Zn6 0.0528(5) 0.0528(5) 0.0390(8) 0.000 0.000 -0.0047(7)
K1 0.0778(16) 0.0627(13) 0.0648(14) 0.0062(11) 0.000 0.000
O1 0.114(4) 0.082(4) 0.046(3) -0.004(3) 0.008(3) -0.004(3)
O2 0.113(4) 0.096(4) 0.068(4) 0.012(3) 0.002(3) 0.013(3)
O3 0.077(3) 0.071(3) 0.063(3) -0.009(2) -0.008(3) -0.016(3)
O4 0.074(3) 0.085(3) 0.064(3) -0.025(3) 0.005(3) -0.011(3)
O6 0.165(6) 0.070(3) 0.057(4) 0.014(3) -0.004(3) -0.022(3)
O5 0.118(4) 0.092(4) 0.069(4) -0.012(3) 0.009(3) -0.015(3)
O7 0.083(4) 0.073(3) 0.078(4) 0.009(3) -0.001(3) 0.032(3)
O8 0.082(4) 0.063(3) 0.103(4) 0.014(3) 0.000(3) 0.010(3)
O9 0.069(3) 0.064(3) 0.076(3) 0.005(2) 0.011(3) 0.010(3)
O10 0.049(3) 0.076(3) 0.088(4) -0.017(3) 0.008(2) 0.011(2)
O11 0.153(5) 0.070(4) 0.108(5) 0.030(3) 0.043(4) 0.034(