####################################################################### 
# 
# This file contains crystal structure data downloaded from the 
# Cambridge Structural Database (CSD) hosted by the Cambridge 
# Crystallographic Data Centre (CCDC).
# 
# Full information about CCDC data access policies and citation 
# guidelines are available at http://www.ccdc.cam.ac.uk/access/V1 
# 
# Audit and citation data items may have been added by the CCDC. 
# Please retain this information to preserve the provenance of 
# this file and to allow appropriate attribution of the data. 
# 
#######################################################################

data_complex_1
_audit_block_doi                 10.5517/ccr4qyj
_database_code_depnum_ccdc_archive 'CCDC 689748'
loop_
_citation_id
_citation_doi
_citation_year
1 10.1039/b809069f 2008
_audit_update_record             
;
2008-05-29 deposited with the CCDC.	2024-07-11 downloaded from the CCDC.
;

# SQUEEZE RESULTS (APPEND TO CIF)
loop_
_platon_squeeze_void_nr
_platon_squeeze_void_average_x
_platon_squeeze_void_average_y
_platon_squeeze_void_average_z
_platon_squeeze_void_volume
_platon_squeeze_void_count_electrons
1 0.089 -0.005 -0.003 45180.0 1634.2
_platon_squeeze_details          
;
;

_audit_creation_method           SHELXL-97
_chemical_name_systematic        
;
?
;
_chemical_name_common            ?
_chemical_melting_point          ?
_chemical_formula_moiety         ?
_chemical_formula_sum            'C81 H49 Na0.50 O20.50 Zn4.75'
_chemical_formula_weight         1672.20

loop_
_atom_type_symbol
_atom_type_description
_atom_type_scat_dispersion_real
_atom_type_scat_dispersion_imag
_atom_type_scat_source
C C 0.0033 0.0016 'International Tables Vol C Tables 4.2.6.8 and 6.1.1.4'
H H 0.0000 0.0000 'International Tables Vol C Tables 4.2.6.8 and 6.1.1.4'
Na Na 0.0362 0.0249 'International Tables Vol C Tables 4.2.6.8 and 6.1.1.4'
O O 0.0106 0.0060 'International Tables Vol C Tables 4.2.6.8 and 6.1.1.4'
Zn Zn 0.2839 1.4301 'International Tables Vol C Tables 4.2.6.8 and 6.1.1.4'

_symmetry_cell_setting           tetragonal
_symmetry_space_group_name_H-M   I4(1)22

loop_
_symmetry_equiv_pos_as_xyz
'x, y, z'
'-y, x+1/2, z+1/4'
'-x+1/2, -y+1/2, z+1/2'
'y+1/2, -x, z+3/4'
'x, -y+1/2, -z+1/4'
'y+1/2, x+1/2, -z+1/2'
'-x+1/2, y, -z+3/4'
'-y, -x, -z'
'x+1/2, y+1/2, z+1/2'
'-y+1/2, x+1, z+3/4'
'-x+1, -y+1, z+1'
'y+1, -x+1/2, z+5/4'
'x+1/2, -y+1, -z+3/4'
'y+1, x+1, -z+1'
'-x+1, y+1/2, -z+5/4'
'-y+1/2, -x+1/2, -z+1/2'

_cell_length_a                   32.4729(7)
_cell_length_b                   32.4729(7)
_cell_length_c                   47.6641(18)
_cell_angle_alpha                90.00
_cell_angle_beta                 90.00
_cell_angle_gamma                90.00
_cell_volume                     50261(2)
_cell_formula_units_Z            16
_cell_measurement_temperature    293(2)
_cell_measurement_reflns_used    4971
_cell_measurement_theta_min      2.28
_cell_measurement_theta_max      20.23

_exptl_crystal_description       block
_exptl_crystal_colour            yellow
_exptl_crystal_size_max          0.28
_exptl_crystal_size_mid          0.26
_exptl_crystal_size_min          0.18
_exptl_crystal_density_meas      ?
_exptl_crystal_density_diffrn    0.884
_exptl_crystal_density_method    'not measured'
_exptl_crystal_F_000             13536
_exptl_absorpt_coefficient_mu    0.940
_exptl_absorpt_correction_type   multi-scan
_exptl_absorpt_correction_T_min  0.7788
_exptl_absorpt_correction_T_max  0.8491
_exptl_absorpt_process_details   sadabs

_exptl_special_details           
;
?
;

_diffrn_ambient_temperature      293(2)
_diffrn_radiation_wavelength     0.71073
_diffrn_radiation_type           MoK\a
_diffrn_radiation_source         'fine-focus sealed tube'
_diffrn_radiation_monochromator  graphite
_diffrn_measurement_device_type  ?
_diffrn_measurement_method       ?
_diffrn_detector_area_resol_mean ?
_diffrn_standards_number         ?
_diffrn_standards_interval_count ?
_diffrn_standards_interval_time  ?
_diffrn_standards_decay_%        ?
_diffrn_reflns_number            80929
_diffrn_reflns_av_R_equivalents  0.1136
_diffrn_reflns_av_sigmaI/netI    0.1558
_diffrn_reflns_limit_h_min       -39
_diffrn_reflns_limit_h_max       16
_diffrn_reflns_limit_k_min       -39
_diffrn_reflns_limit_k_max       36
_diffrn_reflns_limit_l_min       -58
_diffrn_reflns_limit_l_max       27
_diffrn_reflns_theta_min         0.89
_diffrn_reflns_theta_max         26.00
_reflns_number_total             24575
_reflns_number_gt                11342
_reflns_threshold_expression     >2sigma(I)

_computing_data_collection       ?
_computing_cell_refinement       ?
_computing_data_reduction        ?
_computing_structure_solution    'SHELXS-97 (Sheldrick, 1990)'
_computing_structure_refinement  'SHELXL-97 (Sheldrick, 1997)'
_computing_molecular_graphics    ?
_computing_publication_material  ?

_refine_special_details          
;
Refinement of F^2^ against ALL reflections. The weighted R-factor wR and
goodness of fit S are based on F^2^, conventional R-factors R are based
on F, with F set to zero for negative F^2^. The threshold expression of
F^2^ > 2sigma(F^2^) is used only for calculating R-factors(gt) etc. and is
not relevant to the choice of reflections for refinement. R-factors based
on F^2^ are statistically about twice as large as those based on F, and R-
factors based on ALL data will be even larger.
;

_refine_ls_structure_factor_coef Fsqd
_refine_ls_matrix_type           full
_refine_ls_weighting_scheme      calc
_refine_ls_weighting_details     
'calc w=1/[\s^2^(Fo^2^)+(0.0271P)^2^+0.0000P] where P=(Fo^2^+2Fc^2^)/3'
_atom_sites_solution_primary     direct
_atom_sites_solution_secondary   difmap
_atom_sites_solution_hydrogens   geom
_refine_ls_hydrogen_treatment    constr
_refine_ls_extinction_method     none
_refine_ls_extinction_coef       ?
_refine_ls_abs_structure_details 'Flack H D (1983), Acta Cryst. A39, 876-881'
_refine_ls_abs_structure_Flack   0.06(1)
_refine_ls_number_reflns         24575
_refine_ls_number_parameters     952
_refine_ls_number_restraints     199
_refine_ls_R_factor_all          0.1232
_refine_ls_R_factor_gt           0.0592
_refine_ls_wR_factor_ref         0.1241
_refine_ls_wR_factor_gt          0.1128
_refine_ls_goodness_of_fit_ref   0.942
_refine_ls_restrained_S_all      0.945
_refine_ls_shift/su_max          0.000
_refine_ls_shift/su_mean         0.000

loop_
_atom_site_label
_atom_site_type_symbol
_atom_site_fract_x
_atom_site_fract_y
_atom_site_fract_z
_atom_site_U_iso_or_equiv
_atom_site_adp_type
_atom_site_occupancy
_atom_site_symmetry_multiplicity
_atom_site_calc_flag
_atom_site_refinement_flags
_atom_site_disorder_assembly
_atom_site_disorder_group
Zn1 Zn 1.98526(2) 1.11631(3) 0.102357(15) 0.0748(2) Uani 1 1 d . . .
Zn2 Zn 2.06697(2) 1.14893(3) 0.065382(17) 0.0798(3) Uani 1 1 d . . .
Zn3 Zn 1.82949(2) 1.47204(2) 0.295347(16) 0.0739(2) Uani 1 1 d . . .
Zn4 Zn 2.0000 1.0000 0.434679(17) 0.0427(2) Uani 1 2 d S . .
Zn5 Zn 1.910343(19) 1.01707(2) 0.455127(14) 0.05154(18) Uani 1 1 d . . .
Zn6 Zn 2.0000 1.0000 0.5000 0.0490(3) Uani 1 4 d S . .
Na1 Na 2.00944(9) 1.2500 0.1250 0.0629(9) Uani 1 2 d S . .
O1 O 1.97381(16) 1.11804(14) 0.14222(9) 0.0944(15) Uani 1 1 d . . .
O2 O 2.00804(14) 1.17703(14) 0.13734(8) 0.0717(13) Uani 1 1 d . . .
O3 O 1.96391(13) 1.02703(12) 0.40448(8) 0.0678(12) Uani 1 1 d . . .
O4 O 1.90765(13) 1.05610(12) 0.42288(8) 0.0653(12) Uani 1 1 d . . .
O5 O 1.87728(15) 1.43500(14) 0.29352(9) 0.0917(15) Uani 1 1 d . . .
O6 O 1.89542(18) 1.43042(14) 0.33909(11) 0.1044(18) Uani 1 1 d . . .
O7 O 2.11009(14) 1.18843(14) 0.07286(10) 0.0901(15) Uani 1 1 d . . .
O8 O 2.05935(14) 1.22739(13) 0.08814(9) 0.0761(13) Uani 1 1 d . . .
O11 O 2.46096(13) 1.39730(13) 0.05883(9) 0.0720(13) Uani 1 1 d . . .
O12 O 2.44679(11) 1.46342(14) 0.06699(9) 0.0724(12) Uani 1 1 d . . .
O13 O 2.06742(13) 0.71555(13) 0.20271(11) 0.0824(13) Uani 1 1 d . . .
O14 O 2.04198(13) 0.72563(12) 0.15954(10) 0.0735(13) Uani 1 1 d . . .
O15 O 2.36265(12) 0.96663(14) 0.27336(10) 0.0823(14) Uani 1 1 d . . .
O16 O 2.39081(15) 0.99114(18) 0.23428(10) 0.1159(19) Uani 1 1 d . . .
H16A H 2.4102 0.9971 0.2456 0.174 Uiso 1 1 d R . .
O17 O 2.08510(16) 1.10501(17) 0.08969(14) 0.141(2) Uani 1 1 d U . .
O18 O 2.02695(16) 1.07307(15) 0.10128(12) 0.1117(16) Uani 1 1 d U . .
O19 O 2.00935(11) 1.15703(10) 0.07632(7) 0.0613(11) Uani 1 1 d . . .
H19A H 2.0100 1.1791 0.0859 0.074 Uiso 1 1 calc R . .
O20 O 2.03255(9) 0.97334(9) 0.46768(6) 0.0415(8) Uani 1 1 d . . .
H20A H 2.0279 0.9476 0.4677 0.050 Uiso 1 1 calc R . .
O1W O 1.95257(10) 0.95257(10) 0.5000 0.0553(14) Uani 1 2 d S . .
C1 C 1.9921(2) 1.1518(3) 0.15159(12) 0.0704(19) Uani 1 1 d D . .
C2 C 1.98607(18) 1.15987(19) 0.18287(11) 0.0582(16) Uani 1 1 d D . .
C3 C 2.0018(2) 1.19373(19) 0.19501(12) 0.0637(17) Uani 1 1 d . . .
H3 H 2.0179 1.2116 0.1844 0.076 Uiso 1 1 calc R . .
C4 C 1.9946(2) 1.20217(19) 0.22207(12) 0.0677(18) Uani 1 1 d . . .
H4 H 2.0077 1.2248 0.2301 0.081 Uiso 1 1 calc R . .
C5 C 1.9686(2) 1.17853(19) 0.23874(13) 0.0660(18) Uani 1 1 d . . .
C6 C 1.9523(2) 1.1420(2) 0.22585(14) 0.085(2) Uani 1 1 d . . .
H6 H 1.9360 1.1240 0.2361 0.101 Uiso 1 1 calc R . .
C7 C 1.9609(2) 1.1343(2) 0.19892(14) 0.091(2) Uani 1 1 d D . .
H7 H 1.9496 1.1110 0.1906 0.110 Uiso 1 1 calc R . .
C8 C 1.95508(19) 1.1909(2) 0.26767(12) 0.0621(17) Uani 1 1 d . . .
C9 C 1.9442(2) 1.2319(2) 0.27152(13) 0.074(2) Uani 1 1 d . . .
H9 H 1.9440 1.2501 0.2564 0.089 Uiso 1 1 calc R . .
C10 C 1.9338(2) 1.24533(19) 0.29812(14) 0.0680(18) Uani 1 1 d . . .
C11 C 1.9329(2) 1.2160(2) 0.32033(13) 0.080(2) Uani 1 1 d . . .
H11 H 1.9241 1.2247 0.3379 0.096 Uiso 1 1 d R . .
C12 C 1.9443(2) 1.1753(2) 0.31685(13) 0.0699(19) Uani 1 1 d . . .
C13 C 1.9561(2) 1.16352(19) 0.28972(13) 0.0743(19) Uani 1 1 d . . .
H13 H 1.9639 1.1364 0.2864 0.089 Uiso 1 1 d R . .
C14 C 1.9415(2) 1.14520(19) 0.34066(13) 0.0750(19) Uani 1 1 d DU . .
C15 C 1.9088(3) 1.1445(2) 0.35838(15) 0.102(3) Uani 1 1 d U . .
H15 H 1.8868 1.1625 0.3562 0.122 Uiso 1 1 d R . .
C16 C 1.9075(2) 1.1156(2) 0.37899(14) 0.101(2) Uani 1 1 d U . .
H16 H 1.8855 1.1160 0.3914 0.122 Uiso 1 1 d R . .
C17 C 1.9395(2) 1.0863(2) 0.38270(13) 0.0653(18) Uani 1 1 d U . .
C18 C 1.9720(2) 1.0894(2) 0.36532(14) 0.080(2) Uani 1 1 d U . .
H18 H 1.9929 1.0700 0.3669 0.096 Uiso 1 1 d R . .
C19 C 1.9751(2) 1.1189(2) 0.34519(14) 0.089(2) Uani 1 1 d DU . .
H19 H 1.9989 1.1215 0.3345 0.107 Uiso 1 1 d R . .
C20 C 1.9366(2) 1.0540(2) 0.40516(13) 0.0557(16) Uani 1 1 d . . .
C21 C 1.9234(2) 1.2874(2) 0.30306(12) 0.076(2) Uani 1 1 d DU . .
C22 C 1.9046(3) 1.3108(2) 0.28256(14) 0.112(3) Uani 1 1 d DU . .
H22 H 1.8987 1.2979 0.2656 0.134 Uiso 1 1 d R . .
C23 C 1.8950(3) 1.3525(2) 0.28557(15) 0.111(3) Uani 1 1 d DU . .
H23 H 1.8819 1.3663 0.2711 0.133 Uiso 1 1 d R . .
C24 C 1.9021(2) 1.3737(2) 0.31037(13) 0.078(2) Uani 1 1 d DU . .
C25 C 1.9208(2) 1.3499(2) 0.33120(14) 0.104(2) Uani 1 1 d DU . .
H25 H 1.9252 1.3627 0.3484 0.125 Uiso 1 1 d R . .
C26 C 1.9322(2) 1.3089(2) 0.32748(14) 0.098(2) Uani 1 1 d DU . .
H26 H 1.9458 1.2951 0.3419 0.118 Uiso 1 1 d R . .
C27 C 1.8914(2) 1.4162(2) 0.31476(19) 0.078(2) Uani 1 1 d . . .
C28 C 2.0966(2) 1.2216(2) 0.08243(14) 0.0653(18) Uani 1 1 d D . .
C29 C 2.12725(12) 1.25537(12) 0.08713(9) 0.0676(18) Uani 1 1 d GD . .
C30 C 2.16917(14) 1.24792(10) 0.08411(9) 0.076(2) Uani 1 1 d G . .
H30 H 2.1783 1.2226 0.0775 0.091 Uiso 1 1 calc R . .
C31 C 2.19751(10) 1.27836(14) 0.09102(10) 0.086(2) Uani 1 1 d G . .
H31 H 2.2256 1.2734 0.0890 0.103 Uiso 1 1 calc R . .
C32 C 2.18393(12) 1.31625(12) 0.10094(9) 0.0696(18) Uani 1 1 d GD . .
C33 C 2.14201(13) 1.32370(10) 0.10396(8) 0.0694(18) Uani 1 1 d G . .
H33 H 2.1329 1.3491 0.1106 0.083 Uiso 1 1 calc R . .
C34 C 2.11367(10) 1.29326(13) 0.09705(9) 0.0717(19) Uani 1 1 d G . .
H34 H 2.0856 1.2982 0.0991 0.086 Uiso 1 1 calc R . .
C35 C 2.21401(17) 1.34693(19) 0.11344(13) 0.0634(17) Uani 1 1 d D . .
C36 C 2.2506(2) 1.35582(19) 0.10138(13) 0.0714(19) Uani 1 1 d . . .
H36 H 2.2572 1.3441 0.0841 0.086 Uiso 1 1 d R . .
C37 C 2.2784(2) 1.3832(2) 0.11422(14) 0.0707(19) Uani 1 1 d . . .
C38 C 2.2662(2) 1.3994(2) 0.14007(16) 0.082(2) Uani 1 1 d . . .
H38 H 2.2842 1.4176 0.1488 0.099 Uiso 1 1 d R . .
C39 C 2.2296(2) 1.39098(19) 0.15321(14) 0.0662(18) Uani 1 1 d . . .
C40 C 2.2043(2) 1.36469(19) 0.13929(14) 0.0729(19) Uani 1 1 d . . .
H40 H 2.1784 1.3592 0.1468 0.087 Uiso 1 1 d R . .
C41 C 2.21759(18) 1.4092(2) 0.17914(13) 0.0591(16) Uani 1 1 d . . .
C42 C 2.2261(2) 1.4477(2) 0.18724(14) 0.092(2) Uani 1 1 d . . .
H42 H 2.2424 1.4639 0.1756 0.110 Uiso 1 1 d R . .
C43 C 2.2127(2) 1.4643(2) 0.21186(16) 0.099(2) Uani 1 1 d U . .
H43 H 2.2184 1.4918 0.2157 0.118 Uiso 1 1 d R . .
C44 C 2.1904(2) 1.4411(2) 0.23141(15) 0.082(2) Uani 1 1 d U . .
C45 C 2.1811(2) 1.4008(2) 0.22394(17) 0.105(3) Uani 1 1 d . . .
H45 H 2.1662 1.3840 0.2360 0.126 Uiso 1 1 d R . .
C46 C 2.1940(3) 1.3853(2) 0.19732(16) 0.103(3) Uani 1 1 d . . .
H46 H 2.1878 1.3582 0.1924 0.123 Uiso 1 1 d R . .
C48 C 2.3191(2) 1.3939(2) 0.10157(15) 0.0786(19) Uani 1 1 d U . .
C49 C 2.3444(2) 1.3650(2) 0.09088(15) 0.091(2) Uani 1 1 d U . .
H49 H 2.3372 1.3373 0.0920 0.109 Uiso 1 1 d R . .
C50 C 2.3828(2) 1.3759(2) 0.07966(14) 0.084(2) Uani 1 1 d U . .
H50 H 2.3994 1.3554 0.0722 0.101 Uiso 1 1 d R . .
C51 C 2.39662(18) 1.41457(19) 0.07842(12) 0.0572(16) Uani 1 1 d U . .
C52 C 2.37017(19) 1.44402(19) 0.08924(14) 0.0711(18) Uani 1 1 d U . .
H52 H 2.3785 1.4714 0.0879 0.085 Uiso 1 1 d R . .
C53 C 2.3334(2) 1.4350(2) 0.10102(15) 0.084(2) Uani 1 1 d U . .
H53 H 2.3178 1.4562 0.1087 0.100 Uiso 1 1 d R . .
C54 C 2.4376(2) 1.4245(2) 0.06671(12) 0.0542(16) Uani 1 1 d . . .
C55 C 2.0667(2) 0.73293(19) 0.17949(18) 0.0699(19) Uani 1 1 d D . .
C56 C 2.09523(19) 0.76992(18) 0.17637(16) 0.0690(18) Uani 1 1 d D . .
C57 C 2.09591(19) 0.79072(19) 0.15170(14) 0.0699(19) Uani 1 1 d . . .
H57 H 2.0808 0.7817 0.1363 0.084 Uiso 1 1 d R . .
C58 C 2.12102(19) 0.8255(2) 0.15073(14) 0.077(2) Uani 1 1 d . . .
H58 H 2.1223 0.8398 0.1338 0.092 Uiso 1 1 d R . .
C59 C 2.14415(17) 0.8407(2) 0.17346(14) 0.0626(18) Uani 1 1 d . . .
C60 C 2.1435(2) 0.8176(2) 0.19693(15) 0.080(2) Uani 1 1 d . . .
H60 H 2.1609 0.8246 0.2117 0.096 Uiso 1 1 d R . .
C61 C 2.1201(2) 0.7832(2) 0.19946(15) 0.084(2) Uani 1 1 d . . .
H61 H 2.1195 0.7689 0.2163 0.101 Uiso 1 1 d R . .
C62 C 2.1636(2) 0.8818(2) 0.17101(13) 0.0713(19) Uani 1 1 d . . .
C63 C 2.1446(2) 0.9139(2) 0.15730(13) 0.073(2) Uani 1 1 d . . .
H63 H 2.1202 0.9086 0.1476 0.088 Uiso 1 1 d R . .
C64 C 2.1606(2) 0.9522(2) 0.15697(14) 0.076(2) Uani 1 1 d . . .
C65 C 2.1983(2) 0.9613(2) 0.16923(13) 0.083(2) Uani 1 1 d . . .
H65 H 2.2101 0.9873 0.1675 0.100 Uiso 1 1 d R . .
C66 C 2.2178(2) 0.9302(2) 0.18345(15) 0.088(2) Uani 1 1 d D . .
C67 C 2.20101(19) 0.8898(2) 0.18350(14) 0.081(2) Uani 1 1 d . . .
H67 H 2.2154 0.8684 0.1920 0.097 Uiso 1 1 d R . .
C68 C 2.25814(19) 0.9381(2) 0.19911(13) 0.101(2) Uani 1 1 d DU . .
C69 C 2.29337(19) 0.9500(3) 0.18502(15) 0.119(2) Uani 1 1 d DU . .
H69 H 2.2943 0.9533 0.1657 0.142 Uiso 1 1 d R . .
C70 C 2.3260(2) 0.9616(3) 0.20222(13) 0.113(2) Uani 1 1 d DU . .
H70 H 2.3502 0.9690 0.1931 0.135 Uiso 1 1 d R . .
C71 C 2.32889(19) 0.9594(2) 0.23100(12) 0.0831(19) Uani 1 1 d DU . .
C72 C 2.29365(18) 0.9443(2) 0.24334(14) 0.103(2) Uani 1 1 d DU . .
H72 H 2.2937 0.9407 0.2627 0.124 Uiso 1 1 d R . .
C73 C 2.2578(2) 0.9354(3) 0.22817(13) 0.113(2) Uani 1 1 d DU . .
H73 H 2.2342 0.9268 0.2376 0.136 Uiso 1 1 d R . .
C74 C 2.3644(2) 0.9721(2) 0.24666(18) 0.077(2) Uani 1 1 d . . .
C75 C 2.1357(2) 0.9847(2) 0.14305(15) 0.0669(19) Uani 1 1 d . . .
C76 C 2.0940(3) 0.9833(2) 0.14211(14) 0.100(2) Uani 1 1 d . . .
H76 H 2.0808 0.9613 0.1508 0.120 Uiso 1 1 d R . .
C77 C 2.0698(2) 1.0148(3) 0.12885(17) 0.107(3) Uani 1 1 d . . .
H77 H 2.0412 1.0133 0.1294 0.128 Uiso 1 1 d R . .
C78 C 2.0900(3) 1.0466(2) 0.11502(19) 0.099(2) Uani 1 1 d U . .
C79 C 2.1314(2) 1.0482(2) 0.11311(18) 0.106(3) Uani 1 1 d . . .
H79 H 2.1450 1.0695 0.1039 0.127 Uiso 1 1 d R . .
C80 C 2.1548(2) 1.0160(3) 0.12765(17) 0.104(3) Uani 1 1 d . . .
H80 H 2.1833 1.0162 0.1262 0.125 Uiso 1 1 d R . .
C81 C 2.0651(3) 1.0782(3) 0.1030(2) 0.114(2) Uani 1 1 d U . .
O9 O 2.18296(16) 1.49486(16) 0.26219(9) 0.0999(16) Uani 1 1 d . . .
O10 O 2.15632(17) 1.43467(15) 0.27450(10) 0.1015(16) Uani 1 1 d . . .
C47 C 2.1762(2) 1.4585(3) 0.25804(15) 0.0732(19) Uani 1 1 d U . .

loop_
_atom_site_aniso_label
_atom_site_aniso_U_11
_atom_site_aniso_U_22
_atom_site_aniso_U_33
_atom_site_aniso_U_23
_atom_site_aniso_U_13
_atom_site_aniso_U_12
Zn1 0.0672(5) 0.1015(6) 0.0557(4) 0.0100(5) 0.0067(4) 0.0070(5)
Zn2 0.0587(5) 0.0994(6) 0.0814(5) 0.0299(5) -0.0171(5) -0.0280(5)
Zn3 0.0814(5) 0.0572(5) 0.0830(5) 0.0054(4) -0.0224(5) -0.0047(4)
Zn4 0.0417(5) 0.0425(5) 0.0440(5) 0.000 0.000 0.0006(4)
Zn5 0.0439(4) 0.0597(4) 0.0510(4) -0.0013(4) 0.0056(3) 0.0023(3)
Zn6 0.0535(5) 0.0535(5) 0.0402(7) 0.000 0.000 0.0081(7)
Na1 0.062(2) 0.064(2) 0.063(2) 0.0059(18) 0.000 0.000
O1 0.140(4) 0.077(3) 0.066(3) -0.011(3) 0.004(3) -0.015(3)
O2 0.080(