####################################################################### 
# 
# This file contains crystal structure data downloaded from the 
# Cambridge Structural Database (CSD) hosted by the Cambridge 
# Crystallographic Data Centre (CCDC).
# 
# Full information about CCDC data access policies and citation 
# guidelines are available at http://www.ccdc.cam.ac.uk/access/V1 
# 
# Audit and citation data items may have been added by the CCDC. 
# Please retain this information to preserve the provenance of 
# this file and to allow appropriate attribution of the data. 
# 
#######################################################################

data_a
_audit_block_doi                 10.5517/cc12yy87
_database_code_depnum_ccdc_archive 'CCDC 1011879'
loop_
_citation_id
_citation_doi
_citation_year
1 10.11862/CJIC.2015.125 2015
_audit_update_record             
;
2014-07-02 deposited with the CCDC.	2024-07-11 downloaded from the CCDC.
;

_audit_creation_method           SHELXL-97
_chemical_name_systematic        
; 
 ? 
;
_chemical_name_common            ?
_chemical_melting_point          ?
_chemical_formula_moiety         ?
_chemical_formula_sum            'C56 H38 Co3 O18 Si2'
_chemical_formula_weight         1231.83

loop_
_atom_type_symbol
_atom_type_description
_atom_type_scat_dispersion_real
_atom_type_scat_dispersion_imag
_atom_type_scat_source
C C 0.0033 0.0016 'International Tables Vol C Tables 4.2.6.8 and 6.1.1.4'
H H 0.0000 0.0000 'International Tables Vol C Tables 4.2.6.8 and 6.1.1.4'
Co Co 0.3494 0.9721 'International Tables Vol C Tables 4.2.6.8 and 6.1.1.4'
O O 0.0106 0.0060 'International Tables Vol C Tables 4.2.6.8 and 6.1.1.4'
Si Si 0.0817 0.0704 'International Tables Vol C Tables 4.2.6.8 and 6.1.1.4'

_symmetry_cell_setting           Orthorhombic
_symmetry_space_group_name_H-M   'Pnna '

loop_
_symmetry_equiv_pos_as_xyz
'x, y, z'
'-x+1/2, -y, z'
'-x+1/2, y+1/2, -z+1/2'
'x, -y+1/2, -z+1/2'
'-x, -y, -z'
'x-1/2, y, -z'
'x-1/2, -y-1/2, z-1/2'
'-x, y-1/2, z-1/2'

_cell_length_a                   26.982(3)
_cell_length_b                   21.882(2)
_cell_length_c                   13.8219(14)
_cell_angle_alpha                90.00
_cell_angle_beta                 90.00
_cell_angle_gamma                90.00
_cell_volume                     8161.0(14)
_cell_formula_units_Z            4
_cell_measurement_temperature    296(2)
_cell_measurement_reflns_used    5600
_cell_measurement_theta_min      2.306
_cell_measurement_theta_max      22.425

_exptl_crystal_description       block
_exptl_crystal_colour            purple
_exptl_crystal_size_max          ?
_exptl_crystal_size_mid          ?
_exptl_crystal_size_min          ?
_exptl_crystal_density_meas      ?
_exptl_crystal_density_diffrn    1.003
_exptl_crystal_density_method    'not measured'
_exptl_crystal_F_000             2508
_exptl_absorpt_coefficient_mu    0.681
_exptl_absorpt_correction_type   multi-scan
_exptl_absorpt_correction_T_min  0.9340
_exptl_absorpt_correction_T_max  0.9480
_exptl_absorpt_process_details   'SADABS; Bruker, 2000'

_exptl_special_details           
; 
 ? 
;

_diffrn_ambient_temperature      296(2)
_diffrn_radiation_wavelength     0.71073
_diffrn_radiation_type           MoK\a
_diffrn_radiation_source         'fine-focus sealed tube'
_diffrn_radiation_monochromator  graphite
_diffrn_measurement_device_type  'CCD area detector'
_diffrn_measurement_method       'phi and omega scans'
_diffrn_detector_area_resol_mean ?
_diffrn_standards_number         ?
_diffrn_standards_interval_count ?
_diffrn_standards_interval_time  ?
_diffrn_standards_decay_%        ?
_diffrn_reflns_number            49222
_diffrn_reflns_av_R_equivalents  0.1048
_diffrn_reflns_av_sigmaI/netI    0.1070
_diffrn_reflns_limit_h_min       -35
_diffrn_reflns_limit_h_max       25
_diffrn_reflns_limit_k_min       -24
_diffrn_reflns_limit_k_max       28
_diffrn_reflns_limit_l_min       -18
_diffrn_reflns_limit_l_max       18
_diffrn_reflns_theta_min         1.51
_diffrn_reflns_theta_max         28.44
_reflns_number_total             10081
_reflns_number_gt                4210
_reflns_threshold_expression     >2sigma(I)

_computing_data_collection       'Bruker SMART'
_computing_cell_refinement       'Bruker SMART'
_computing_data_reduction        'Bruker SAINT'
_computing_structure_solution    'SHELXS-97 (Sheldrick, 1990)'
_computing_structure_refinement  'SHELXL-97 (Sheldrick, 1997)'
_computing_molecular_graphics    'Bruker SHELXTL'
_computing_publication_material  'Bruker SHELXTL'

_refine_special_details          
; 
 Refinement of F^2^ against ALL reflections.  The weighted R-factor wR and 
 goodness of fit S are based on F^2^, conventional R-factors R are based 
 on F, with F set to zero for negative F^2^. The threshold expression of 
 F^2^ > 2sigma(F^2^) is used only for calculating R-factors(gt) etc. and is 
 not relevant to the choice of reflections for refinement.  R-factors based 
 on F^2^ are statistically about twice as large as those based on F, and R- 
 factors based on ALL data will be even larger. 
;

_refine_ls_structure_factor_coef Fsqd
_refine_ls_matrix_type           full
_refine_ls_weighting_scheme      calc
_refine_ls_weighting_details     
'calc w=1/[\s^2^(Fo^2^)+(0.1151P)^2^+0.0000P] where P=(Fo^2^+2Fc^2^)/3'
_atom_sites_solution_primary     direct
_atom_sites_solution_secondary   difmap
_atom_sites_solution_hydrogens   geom
_refine_ls_hydrogen_treatment    mixed
_refine_ls_extinction_method     none
_refine_ls_extinction_coef       ?
_refine_ls_number_reflns         10081
_refine_ls_number_parameters     360
_refine_ls_number_restraints     7
_refine_ls_R_factor_all          0.1384
_refine_ls_R_factor_gt           0.0865
_refine_ls_wR_factor_ref         0.2508
_refine_ls_wR_factor_gt          0.2354
_refine_ls_goodness_of_fit_ref   1.004
_refine_ls_restrained_S_all      1.006
_refine_ls_shift/su_max          0.009
_refine_ls_shift/su_mean         0.001

loop_
_atom_site_label
_atom_site_type_symbol
_atom_site_fract_x
_atom_site_fract_y
_atom_site_fract_z
_atom_site_U_iso_or_equiv
_atom_site_adp_type
_atom_site_occupancy
_atom_site_symmetry_multiplicity
_atom_site_calc_flag
_atom_site_refinement_flags
_atom_site_disorder_assembly
_atom_site_disorder_group
Co1 Co 0.12840(3) 0.7500 0.7500 0.0422(2) Uani 1 2 d S . .
Co2 Co 0.11772(3) 0.68528(4) 0.96662(5) 0.0651(3) Uani 1 1 d . . .
Si1 Si 0.13160(6) 0.44566(7) 0.46551(11) 0.0627(4) Uani 1 1 d . . .
O12 O 0.1071(3) 0.6493(4) 0.0982(5) 0.182(4) Uani 1 1 d . . .
C28 C 0.1419(4) 0.6068(5) 0.0982(7) 0.126(3) Uani 1 1 d . . .
O7 O 0.31703(13) 0.27698(17) 0.6593(3) 0.0719(10) Uani 1 1 d . . .
C14 C 0.3074(2) 0.2776(3) 0.5710(4) 0.0685(15) Uani 1 1 d . . .
C11 C 0.2660(2) 0.3181(2) 0.5404(4) 0.0620(14) Uani 1 1 d . . .
C12 C 0.2366(2) 0.3453(3) 0.6093(5) 0.095(2) Uani 1 1 d . . .
H12 H 0.2430 0.3377 0.6743 0.114 Uiso 1 1 calc R . .
C10 C 0.2548(4) 0.3316(4) 0.4498(5) 0.145(4) Uani 1 1 d . . .
H10 H 0.2726 0.3133 0.4001 0.174 Uiso 1 1 calc R . .
O9 O -0.05654(16) 0.2358(2) 0.4673(3) 0.0885(13) Uani 1 1 d . . .
C21 C -0.0475(2) 0.2752(3) 0.4054(4) 0.0632(13) Uani 1 1 d . . .
C19 C -0.0035(2) 0.3162(3) 0.4205(4) 0.0674(15) Uani 1 1 d . . .
C20 C 0.0268(4) 0.3103(4) 0.4956(7) 0.168(5) Uani 1 1 d . . .
H20 H 0.0216 0.2791 0.5402 0.202 Uiso 1 1 calc R . .
C18 C 0.0120(3) 0.3543(3) 0.3496(5) 0.113(3) Uani 1 1 d . . .
H18 H -0.0039 0.3534 0.2899 0.136 Uiso 1 1 calc R . .
C22 C 0.1386(2) 0.4940(3) 0.3561(4) 0.0733(16) Uani 1 1 d D . .
O6 O 0.13043(11) 0.66064(15) 0.8263(2) 0.0567(8) Uani 1 1 d . . .
C16 C 0.07813(19) 0.3927(2) 0.4480(3) 0.0577(13) Uani 1 1 d . . .
C5 C 0.1194(2) 0.4966(2) 0.5713(4) 0.0630(14) Uani 1 1 d . . .
C8 C 0.18728(19) 0.3975(2) 0.4938(4) 0.0572(13) Uani 1 1 d . . .
C2 C 0.1072(2) 0.5754(2) 0.7335(4) 0.0624(13) Uani 1 1 d . . .
O5 O 0.07163(19) 0.6015(2) 0.8831(3) 0.1105(17) Uani 1 1 d . . .
C3 C 0.1465(2) 0.5817(3) 0.6750(4) 0.0757(16) Uani 1 1 d . . .
H3 H 0.1702 0.6115 0.6875 0.091 Uiso 1 1 calc R . .
C4 C 0.1515(3) 0.5425(3) 0.5941(4) 0.0868(18) Uani 1 1 d . . .
H4 H 0.1786 0.5485 0.5536 0.104 Uiso 1 1 calc R . .
C1 C 0.1020(2) 0.6145(3) 0.8198(4) 0.0729(15) Uani 1 1 d . . .
C13 C 0.1985(2) 0.3832(3) 0.5850(4) 0.093(2) Uani 1 1 d . . .
H13 H 0.1794 0.3999 0.6343 0.111 Uiso 1 1 calc R . .
C17 C 0.0515(3) 0.3950(4) 0.3640(6) 0.125(3) Uani 1 1 d . . .
H17 H 0.0595 0.4235 0.3165 0.150 Uiso 1 1 calc R . .
C15 C 0.0663(3) 0.3506(4) 0.5079(6) 0.130(4) Uani 1 1 d . . .
H15 H 0.0854 0.3466 0.5636 0.156 Uiso 1 1 calc R . .
C6 C 0.0794(2) 0.4915(3) 0.6332(5) 0.093(2) Uani 1 1 d . . .
H6 H 0.0557 0.4617 0.6209 0.112 Uiso 1 1 calc R . .
C7 C 0.0734(2) 0.5290(3) 0.7125(5) 0.101(2) Uani 1 1 d . . .
H7 H 0.0463 0.5232 0.7529 0.121 Uiso 1 1 calc R . .
C9 C 0.2172(3) 0.3723(4) 0.4266(4) 0.130(4) Uani 1 1 d . . .
H9 H 0.2123 0.3826 0.3619 0.156 Uiso 1 1 calc R . .
O8 O 0.32968(16) 0.2462(2) 0.5053(3) 0.0859(13) Uani 1 1 d . . .
O10 O -0.07341(14) 0.28518(19) 0.3326(3) 0.0854(12) Uani 1 1 d . . .
C25 C 0.1425(3) 0.5672(4) 0.1905(5) 0.101(2) Uani 1 1 d . . .
O11 O 0.1718(4) 0.5983(4) 0.0349(5) 0.208(4) Uani 1 1 d . . .
C24 C 0.1045(5) 0.5717(7) 0.2497(9) 0.271(10) Uani 1 1 d . . .
H24 H 0.0784 0.5978 0.2353 0.325 Uiso 1 1 calc R . .
C23 C 0.1039(5) 0.5364(6) 0.3353(10) 0.255(8) Uani 1 1 d . . .
H23 H 0.0784 0.5427 0.3794 0.307 Uiso 1 1 calc R . .
C26 C 0.1766(4) 0.5280(6) 0.2089(8) 0.222(7) Uani 1 1 d . . .
H26 H 0.2038 0.5239 0.1681 0.267 Uiso 1 1 calc R . .
C27 C 0.1720(3) 0.4926(5) 0.2896(7) 0.164(5) Uani 1 1 d D . .
H27 H 0.1966 0.4632 0.2979 0.197 Uiso 1 1 calc R . .
O1W O 0.2117(8) 0.2500 0.2500 0.189(6) Uiso 0.50 2 d SPU . .
O2W O 0.1301(8) 0.2500 0.2500 0.207(6) Uiso 0.50 2 d SPU . .
O3W O 0.2453(10) 0.3627(13) -0.1199(18) 0.172(6) Uiso 0.25 1 d PU . .
O4W O 0.0347(11) 0.1969(15) 0.714(2) 0.199(7) Uiso 0.25 1 d PU . .

loop_
_atom_site_aniso_label
_atom_site_aniso_U_11
_atom_site_aniso_U_22
_atom_site_aniso_U_33
_atom_site_aniso_U_23
_atom_site_aniso_U_13
_atom_site_aniso_U_12
Co1 0.0418(4) 0.0462(5) 0.0386(4) -0.0031(4) 0.000 0.000
Co2 0.0777(5) 0.0661(5) 0.0515(4) 0.0088(4) -0.0076(3) -0.0046(4)
Si1 0.0785(10) 0.0425(8) 0.0671(9) 0.0038(7) -0.0349(8) 0.0024(7)
O12 0.173(6) 0.191(8) 0.181(7) 0.137(6) -0.059(5) -0.047(5)
C28 0.146(8) 0.125(8) 0.106(7) 0.034(6) -0.034(6) -0.053(7)
O7 0.073(2) 0.077(3) 0.066(2) -0.001(2) -0.0288(19) 0.0230(19)
C14 0.076(4) 0.053(3) 0.077(4) 0.004(3) -0.030(3) 0.001(3)
C11 0.074(3) 0.051(3) 0.061(3) 0.000(3) -0.022(3) 0.011(3)
C12 0.076(4) 0.133(6) 0.075(4) 0.042(4) -0.014(3) 0.018(4)
C10 0.199(9) 0.177(9) 0.058(4) -0.034(5) -0.042(5) 0.103(8)
O9 0.099(3) 0.078(3) 0.088(3) 0.019(2) -0.017(2) -0.018(2)
C21 0.078(4) 0.049(3) 0.062(3) -0.003(3) -0.013(3) 0.002(3)
C19 0.079(4) 0.067(4) 0.056(3) 0.016(3) -0.030(3) -0.013(3)
C20 0.192(9) 0.166(9) 0.146(7) 0.098(7) -0.111(7) -0.091(8)
C18 0.104(5) 0.115(6) 0.120(6) 0.018(5) -0.057(5) -0.048(5)
C22 0.090(4) 0.051(4) 0.078(4) 0.009(3) -0.029(3) 0.005(3)
O6 0.062(2) 0.047(2) 0.060(2) 0.0014(16) -0.0096(16) -0.0054(16)
C16 0.077(3) 0.045(3) 0.050(3) 0.002(2) -0.034(3) 0.005(2)
C5 0.071(4) 0.046(3) 0.072(3) 0.007(3) -0.021(3) -0.004(2)
C8 0.071(3) 0.049(3) 0.051(3) -0.002(2) -0.027(3) 0.006(2)
C2 0.070(3) 0.050(3) 0.067(3) -0.002(3) -0.001(3) -0.010(3)
O5 0.147(4) 0.089(4) 0.095(3) -0.001(3) 0.043(3) -0.034(3)
C3 0.085(4) 0.049(3) 0.093(4) -0.012(3) -0.011(3) -0.012(3)
C4 0.115(5) 0.050(4) 0.095(4) -0.009(3) 0.017(4) -0.028(3)
C1 0.078(4) 0.058(4) 0.082(4) -0.002(3) 0.007(3) 0.002(3)
C13 0.081(4) 0.132(6) 0.064(4) 0.012(4) -0.012(3) 0.043(4)
C17 0.116(6) 0.126(7) 0.132(6) 0.051(5) -0.053(5) -0.045(5)
C15 0.127(6) 0.123(7) 0.140(7) 0.066(6) -0.078(5) -0.070(5)
C6 0.078(4) 0.079(5) 0.123(5) -0.044(4) -0.002(4) -0.021(3)
C7 0.084(5) 0.084(5) 0.135(6) -0.024(5) 0.027(4) -0.019(4)
C9 0.203(9) 0.135(7) 0.051(4) -0.004(4) -0.037(5) 0.100(7)
O8 0.120(3) 0.081(3) 0.057(2) -0.008(2) -0.023(2) 0.036(3)
O10 0.085(3) 0.085(3) 0.087(3) 0.015(2) -0.041(2) -0.020(2)
C25 0.120(6) 0.099(6) 0.086(5) 0.048(4) -0.008(4) -0.020(5)
O11 0.276(11) 0.217(9) 0.131(6) 0.067(6) 0.024(6) -0.040(8)
C24 0.254(15) 0.34(2) 0.219(13) 0.214(15) 0.069(11) 0.110(14)
C23 0.274(14) 0.221(14) 0.272(15) 0.183(12) 0.118(11) 0.152(12)
C26 0.175(10) 0.250(14) 0.241(12) 0.190(12) 0.068(9) 0.097(9)
C27 0.133(7) 0.183(10) 0.177(8) 0.119(8) 0.060(7) 0.084(7)

_geom_special_details            
; 
 All esds (except the esd in the dihedral angle between two l.s. planes) 
 are estimated using the full covariance matrix.  The cell esds are taken 
 into account individually in the estimation of esds in distances, angles 
 and torsion angles; correlations between esds in cell parameters are only 
 used when they are defined by crystal symmetry.  An approximate (isotropic) 
 treatment of cell esds is used for estimating esds involving l.s. planes. 
;

loop_
_geom_bond_atom_site_label_1
_geom_bond_atom_site_label_2
_geom_bond_distance
_geom_bond_site_symmetry_2
_geom_bond_publ_flag
Co1 O7 2.022(3) 3_556 ?
Co1 O7 2.022(3) 2_565 ?
Co1 O10 2.024(4) 5_566 ?
Co1 O10 2.024(4) 8_566 ?
Co1 O6 2.222(3) 4_566 ?
Co1 O6 2.222(3) . ?
Co2 O8 1.985(4) 3_556 ?
Co2 O9 1.987(4) 8_566 ?
Co2 O12 2.002(6) 1_556 ?
Co2 O6 2.043(3) . ?
Si1 C22 1.855(6) . ?
Si1 C16 1.866(5) . ?
Si1 C5 1.867(6) . ?
Si1 C8 1.876(5) . ?
O12 C28 1.322(13) . ?
O12 Co2 2.002(6) 1_554 ?
C28 O11 1.204(12) . ?
C28 C25 1.543(10) . ?
O7 C14 1.249(6) . ?
O7 Co1 2.022(3) 2_565 ?
C14 O8 1.288(7) . ?
C14 C11 1.488(7) . ?
C11 C10 1.322(7) . ?
C11 C12 1.374(8) . ?
C12 C13 1.365(8) . ?
C12 H12 0.9300 . ?
C10 C9 1.388(9) . ?
C10 H10 0.9300 . ?
O9 C21 1.238(6) . ?
O9 Co2 1.987(4) 8 ?
C21 O10 1.244(6) . ?
C21 C19 1.503(7) . ?
C19 C20 1.326(8) . ?
C19 C18 1.353(8) . ?
C20 C15 1.395(9) . ?
C20 H20 0.9300 . ?
C18 C17 1.404(9) . ?
C18 H18 0.9300 . ?
C22 C27 1.288(7) . ?
C22 C23 1.348(10) . ?
O6 C1 1.270(6) . ?
C16 C15 1.279(8) . ?
C16 C17 1.367(7) . ?
C5 C4 1.363(7) . ?
C5 C6 1.382(8) . ?
C8 C13 1.333(7) . ?
C8 C9 1.348(8) . ?
C2 C3 1.340(7) . ?
C2 C7 1.394(8) . ?
C2 C1 1.474(8) . ?
O5 C1 1.233(6) . ?
C3 C4 1.417(8) . ?
C3 H3 0.9300 . ?
C4 H4 0.9300 . ?
C13 H13 0.9300 . ?
C17 H17 0.9300 . ?
C15 H15 0.9300 . ?
C6 C7 1.380(8) . ?
C6 H6 0.9300 . ?
C7 H7 0.9300 . ?
C9 H9 0.9300 . ?
O8 Co2 1.985(4) 3_546 ?
O10 Co1 2.024(4) 5_566 ?
C25 C26 1.284(11) . ?
C25 C24 1.313(13) . ?
C24 C23 1.414(12) . ?
C24 H24 0.9300 . ?
C23 H23 0.9300 . ?
C26 C27 1.365(10) . ?
C26 H26 0.9300 . ?
C27 H27 0.9300 . ?

loop_
_geom_angle_atom_site_label_1
_geom_angle_atom_site_label_2
_geom_angle_atom_site_label_3
_geom_angle
_geom_angle_site_symmetry_1
_geom_angle_site_symmetry_3
_geom_angle_publ_flag
O7 Co1 O7 86.5(2) 3_556 2_565 ?
O7 Co1 O10 174.01(15) 3_556 5_566 ?
O7 Co1 O10 94.19(18) 2_565 5_566 ?
O7 Co1 O10 94.19(18) 3_556 8_566 ?
O7 Co1 O10 174.01(15) 2_565 8_566 ?
O10 Co1 O10 85.7(3) 5_566 8_566 ?
O7 Co1 O6 91.09(13) 3_556 4_566 ?
O7 Co1 O6 86.85(13) 2_565 4_566 ?
O10 Co1 O6 94.89(14) 5_566 4_566 ?
O10 Co1 O6 87.20(14) 8_566 4_566 ?
O7 Co1 O6 86.85(13) 3_556 . ?
O7 Co1 O6 91.09(13) 2_565 . ?
O10 Co1 O6 87.20(14) 5_566 . ?
O10 Co1 O6 94.89(14) 8_566 . ?
O6 Co1 O6 177.17(16) 4_566 . ?
O8 Co2 O9 102.7(2) 3_556 8_566 ?
O8 Co2 O12 100.8(2) 3_556 1_556 ?
O9 Co2 O12 95.5(3) 8_566 1_556 ?
O8 Co2 O6 104.07(15) 3_556 . ?
O9 Co2 O6 106.91(15) 8_566 . ?
O12 Co2 O6 141.5(3) 1_556 . ?
C22 Si1 C16 109.1(2) . . ?
C22 Si1 C5 108.4(3) . . ?
C16 Si1 C5 109.6(2) . . ?
C22 Si1 C8 114.1(3) . . ?
C16 Si1 C8 107.3(2) . . ?
C5 Si1 C8 108.2(2) . . ?
C28 O12 Co2 100.1(7) . 1_554 ?
O11 C28 O12 125.7(10) . . ?
O11 C28 C25 120.5(12) . . ?
O12 C28 C25 113.7(10) . . ?
C14 O7 Co1 139.5(4) . 2_565 ?
O7 C14 O8 126.0(5) . . ?
O7 C14 C11 116.1(5) . . ?
O8 C14 C11 117.9(5) . . ?
C10 C11 C12 115.3(5) . . ?
C10 C11 C14 125.0(6) . . ?
C12 C11 C14 119.7(5) . . ?
C13 C12 C11 121.9(5) . . ?
C13 C12 H12 119.1 . . ?
C11 C12 H12 119.1 . . ?
C11 C10 C9 122.0(7) . . ?
C11 C10 H10 119.0 . . ?
C9 C10 H10 119.0 . . ?
C21 O9 Co2 123.2(4) . 8 ?
O9 C21 O10 124.8(5) . . ?
O9 C21 C19 118.3(5) . . ?
O10 C21 C19 116.8(5) . . ?
C20 C19 C18 115.9(6) . . ?
C20 C19 C21 122.5(6) . . ?
C18 C19 C21 120.7(5) . . ?
C19 C20 C15 120.3(7) . . ?
C19 C20 H20 119.8 . . ?
C15 C20 H20 119.8 . . ?
C19 C18 C17 121.6(6) . . ?
C19 C18 H18 119.2 . . ?
C17 C18 H18 119.2 . . ?
C27 C22 C23 110.5(7) . . ?
C27 C22 Si1 129.7(5) . . ?
C23 C22 Si1 119.7(6) . . ?
C1 O6 Co2 100.1(3) . . ?
C1 O6 Co1 130.6(3) . . ?
Co2 O6 Co1 102.36(14) . . ?
C15 C16 C17 116.5(6) . . ?
C15 C16 Si1 123.8(4) . . ?
C17 C16 Si1 119.6(5) . . ?
C4 C5 C6 114.3(6) . . ?
C4 C5 Si1 120.6(5) . . ?
C6 C5 Si1 125.1(4) . . ?
C13 C8 C9 114.8(5) . . ?
C13 C8 Si1 120.7(4) . . ?
C9 C8 Si1 124.4(4) . . ?
C3 C2 C7 117.8(5) . . ?
C3 C2 C1 120.2(5) . . ?
C7 C2 C1 121.9(5) . . ?
C2 C3 C4 119.3(5) . . ?
C2 C3 H3 120.3 . . ?
C4 C3 H3 120.3 . . ?
C5 C4 C3 124.6(6) . . ?
C5 C4 H4 117.7 . . ?
C3 C4 H4 117.7 . . ?
O5 C1 O6 122.3(6) . . ?
O5 C1 C2 120.2(6) . . ?
O6 C1 C2 117.5(5) . . ?
C8 C13 C12 123.1(6) . . ?
C8 C13 H13 118.4 . . ?
C12 C13 H13 118.4 . . ?
C16 C17 C18 119.7(7) . . ?
C16 C17 H17 120.1 . . ?
C18 C17 H17 120.1 . . ?
C16 C15 C20 124.6(6) . . ?
C16 C15 H15 117.7 . . ?
C20 C15 H15 117.7 . . ?
C7 C6 C5 122.5(6) . . ?
C7 C6 H6 118.8 . . ?
C5 C6 H6 118.8 . . ?
C6 C7 C2 