####################################################################### 
# 
# This file contains crystal structure data downloaded from the 
# Cambridge Structural Database (CSD) hosted by the Cambridge 
# Crystallographic Data Centre (CCDC).
# 
# Full information about CCDC data access policies and citation 
# guidelines are available at http://www.ccdc.cam.ac.uk/access/V1 
# 
# Audit and citation data items may have been added by the CCDC. 
# Please retain this information to preserve the provenance of 
# this file and to allow appropriate attribution of the data. 
# 
#######################################################################

data_p1-Zn
_audit_block_doi                 10.5517/cc11nybz
_database_code_depnum_ccdc_archive 'CCDC 973441'
loop_
_citation_id
_citation_doi
_citation_year
1 10.1002/chem.201402211 2014

_audit_update_record             
;
2013-11-24 deposited with the CCDC.	2024-07-11 downloaded from the CCDC.
;

_audit_creation_method           SHELXL-97
_chemical_name_systematic        ?
_chemical_name_common            ?
_chemical_melting_point          ?
_chemical_formula_moiety         '2(C27 H21 Cl N7 Zn), N O3'
_chemical_formula_sum            'C54 H42 Cl2 N15 O3 Zn2'
_chemical_formula_weight         1150.67

loop_
_atom_type_symbol
_atom_type_description
_atom_type_scat_dispersion_real
_atom_type_scat_dispersion_imag
_atom_type_scat_source
C C 0.0033 0.0016 'International Tables Vol C Tables 4.2.6.8 and 6.1.1.4'
H H 0.0000 0.0000 'International Tables Vol C Tables 4.2.6.8 and 6.1.1.4'
Cl Cl 0.1484 0.1585 'International Tables Vol C Tables 4.2.6.8 and 6.1.1.4'
N N 0.0061 0.0033 'International Tables Vol C Tables 4.2.6.8 and 6.1.1.4'
O O 0.0106 0.0060 'International Tables Vol C Tables 4.2.6.8 and 6.1.1.4'
Zn Zn 0.2839 1.4301 'International Tables Vol C Tables 4.2.6.8 and 6.1.1.4'

_symmetry_cell_setting           orthorhombic
_symmetry_space_group_name_H-M   'Pnna '

loop_
_symmetry_equiv_pos_as_xyz
'x, y, z'
'-x+1/2, -y, z'
'-x+1/2, y+1/2, -z+1/2'
'x, -y+1/2, -z+1/2'
'-x, -y, -z'
'x-1/2, y, -z'
'x-1/2, -y-1/2, z-1/2'
'-x, y-1/2, z-1/2'

_cell_length_a                   28.470(7)
_cell_length_b                   27.784(7)
_cell_length_c                   9.255(2)
_cell_angle_alpha                90.00
_cell_angle_beta                 90.00
_cell_angle_gamma                90.00
_cell_volume                     7321(3)
_cell_formula_units_Z            4
_cell_measurement_temperature    173(2)
_cell_measurement_reflns_used    8451
_cell_measurement_theta_min      2.31
_cell_measurement_theta_max      23.46

_exptl_crystal_description       block
_exptl_crystal_colour            colorless
_exptl_crystal_size_max          0.15
_exptl_crystal_size_mid          0.10
_exptl_crystal_size_min          0.10
_exptl_crystal_density_meas      ?
_exptl_crystal_density_diffrn    1.044
_exptl_crystal_density_method    'not measured'
_exptl_crystal_F_000             2356
_exptl_absorpt_coefficient_mu    0.771
_exptl_absorpt_correction_type   multi-scan
_exptl_absorpt_correction_T_min  0.8931
_exptl_absorpt_correction_T_max  0.9269
_exptl_absorpt_process_details   sadabs

_exptl_special_details           ?

_diffrn_ambient_temperature      173(2)
_diffrn_radiation_wavelength     0.71073
_diffrn_radiation_type           MoK\a
_diffrn_radiation_source         'fine-focus sealed tube'
_diffrn_radiation_monochromator  graphite
_diffrn_measurement_device_type  'CCD area detector'
_diffrn_measurement_method       'phi and omega scans'
_diffrn_detector_area_resol_mean ?
_diffrn_standards_number         ?
_diffrn_standards_interval_count ?
_diffrn_standards_interval_time  ?
_diffrn_standards_decay_%        ?
_diffrn_reflns_number            34223
_diffrn_reflns_av_R_equivalents  0.0524
_diffrn_reflns_av_sigmaI/netI    0.0413
_diffrn_reflns_limit_h_min       -29
_diffrn_reflns_limit_h_max       33
_diffrn_reflns_limit_k_min       -32
_diffrn_reflns_limit_k_max       32
_diffrn_reflns_limit_l_min       -9
_diffrn_reflns_limit_l_max       11
_diffrn_reflns_theta_min         1.43
_diffrn_reflns_theta_max         25.00
_reflns_number_total             6435
_reflns_number_gt                4904
_reflns_threshold_expression     >2sigma(I)

_computing_data_collection       ?
_computing_cell_refinement       ?
_computing_data_reduction        ?
_computing_structure_solution    'SHELXS-97 (Sheldrick, 1990)'
_computing_structure_refinement  'SHELXL-97 (Sheldrick, 1997)'
_computing_molecular_graphics    ?
_computing_publication_material  ?

_refine_special_details          
; 
 Refinement of F^2^ against ALL reflections.  The weighted R-factor wR and 
 goodness of fit S are based on F^2^, conventional R-factors R are based 
 on F, with F set to zero for negative F^2^. The threshold expression of 
 F^2^ > 2sigma(F^2^) is used only for calculating R-factors(gt) etc. and is 
 not relevant to the choice of reflections for refinement.  R-factors based 
 on F^2^ are statistically about twice as large as those based on F, and R- 
 factors based on ALL data will be even larger. 
;

_refine_ls_structure_factor_coef Fsqd
_refine_ls_matrix_type           full
_refine_ls_weighting_scheme      calc
_refine_ls_weighting_details     
'calc w=1/[\s^2^(Fo^2^)+(0.1362P)^2^+4.0012P] where P=(Fo^2^+2Fc^2^)/3'
_atom_sites_solution_primary     direct
_atom_sites_solution_secondary   difmap
_atom_sites_solution_hydrogens   geom
_refine_ls_hydrogen_treatment    constr
_refine_ls_extinction_method     none
_refine_ls_extinction_coef       ?
_refine_ls_number_reflns         6435
_refine_ls_number_parameters     338
_refine_ls_number_restraints     9
_refine_ls_R_factor_all          0.0809
_refine_ls_R_factor_gt           0.0663
_refine_ls_wR_factor_ref         0.2218
_refine_ls_wR_factor_gt          0.2110
_refine_ls_goodness_of_fit_ref   1.111
_refine_ls_restrained_S_all      1.130
_refine_ls_shift/su_max          0.001
_refine_ls_shift/su_mean         0.000

loop_
_atom_site_label
_atom_site_type_symbol
_atom_site_fract_x
_atom_site_fract_y
_atom_site_fract_z
_atom_site_U_iso_or_equiv
_atom_site_adp_type
_atom_site_occupancy
_atom_site_symmetry_multiplicity
_atom_site_calc_flag
_atom_site_refinement_flags
_atom_site_disorder_assembly
_atom_site_disorder_group
Cl1 Cl 0.31677(7) 0.49924(7) -0.1071(2) 0.0961(6) Uani 1 1 d . . .
Zn1 Zn 0.364971(17) 0.492063(18) 0.08132(6) 0.0464(2) Uani 1 1 d . . .
C1 C 0.45563(15) 0.54215(16) 0.1372(5) 0.0531(11) Uani 1 1 d . . .
H1 H 0.4587 0.5281 0.2279 0.064 Uiso 1 1 calc R . .
C2 C 0.43067(18) 0.5597(2) -0.0717(5) 0.0680(14) Uani 1 1 d . . .
H2 H 0.4129 0.5600 -0.1560 0.082 Uiso 1 1 calc R . .
C3 C 0.46848(17) 0.5865(2) -0.0478(5) 0.0699(15) Uani 1 1 d . . .
H3 H 0.4816 0.6090 -0.1101 0.084 Uiso 1 1 calc R . .
C4 C 0.52336(13) 0.59572(15) 0.1638(4) 0.0452(9) Uani 1 1 d . . .
C5 C 0.55238(14) 0.56772(15) 0.2460(5) 0.0537(11) Uani 1 1 d . . .
H5 H 0.5481 0.5345 0.2482 0.064 Uiso 1 1 calc R . .
C6 C 0.58757(16) 0.58826(16) 0.3249(5) 0.0564(11) Uani 1 1 d . . .
H6 H 0.6068 0.5688 0.3815 0.068 Uiso 1 1 calc R . .
C7 C 0.59518(13) 0.63728(14) 0.3222(4) 0.0421(9) Uani 1 1 d . . .
C8 C 0.56616(14) 0.66502(14) 0.2353(4) 0.0458(9) Uani 1 1 d . . .
H8 H 0.5712 0.6980 0.2292 0.055 Uiso 1 1 calc R . .
C9 C 0.53022(14) 0.64452(15) 0.1581(5) 0.0497(10) Uani 1 1 d . . .
H9 H 0.5106 0.6637 0.1021 0.060 Uiso 1 1 calc R . .
C10 C 0.79662(14) 0.54090(14) 0.7265(4) 0.0472(9) Uani 1 1 d . . .
H10 H 0.7771 0.5476 0.8046 0.057 Uiso 1 1 calc R . .
C11 C 0.8539(2) 0.5158(3) 0.5991(6) 0.0802(18) Uani 1 1 d . . .
H11 H 0.8822 0.5016 0.5722 0.096 Uiso 1 1 calc R . .
C12 C 0.82428(18) 0.5379(2) 0.5103(6) 0.0756(16) Uani 1 1 d . . .
H12 H 0.8278 0.5417 0.4110 0.091 Uiso 1 1 calc R . .
C13 C 0.74830(13) 0.58109(16) 0.5414(5) 0.0456(10) Uani 1 1 d . . .
C14 C 0.72486(15) 0.61114(16) 0.6368(5) 0.0553(11) Uani 1 1 d . . .
H14 H 0.7351 0.6142 0.7318 0.066 Uiso 1 1 calc R . .
C15 C 0.68642(15) 0.63623(18) 0.5893(4) 0.0522(11) Uani 1 1 d . . .
H15 H 0.6705 0.6562 0.6533 0.063 Uiso 1 1 calc R . .
C16 C 0.67093(14) 0.63244(15) 0.4485(4) 0.0442(9) Uani 1 1 d . . .
C17 C 0.69476(17) 0.60345(17) 0.3573(5) 0.0620(13) Uani 1 1 d . . .
H17 H 0.6851 0.6011 0.2616 0.074 Uiso 1 1 calc R . .
C18 C 0.73307(18) 0.5772(2) 0.4032(5) 0.0654(14) Uani 1 1 d . . .
H18 H 0.7485 0.5568 0.3392 0.078 Uiso 1 1 calc R . .
C19 C 0.63104(15) 0.88573(15) 0.5653(4) 0.0462(10) Uani 1 1 d . . .
H19 H 0.6552 0.8850 0.4975 0.055 Uiso 1 1 calc R . .
C20 C 0.58030(15) 0.91025(16) 0.7180(5) 0.0549(11) Uani 1 1 d . . .
H20 H 0.5627 0.9305 0.7770 0.066 Uiso 1 1 calc R . .
C21 C 0.57569(15) 0.86260(16) 0.7099(5) 0.0539(11) Uani 1 1 d . . .
H21 H 0.5543 0.8437 0.7605 0.065 Uiso 1 1 calc R . .
C22 C 0.61483(14) 0.79852(14) 0.5645(4) 0.0437(9) Uani 1 1 d . . .
C23 C 0.57733(15) 0.76714(15) 0.5665(4) 0.0473(10) Uani 1 1 d . . .
H23 H 0.5485 0.7769 0.6036 0.057 Uiso 1 1 calc R . .
C24 C 0.58276(14) 0.72131(14) 0.5134(4) 0.0460(9) Uani 1 1 d . . .
H24 H 0.5576 0.7000 0.5154 0.055 Uiso 1 1 calc R . .
C25 C 0.62521(14) 0.70679(15) 0.4575(5) 0.0436(9) Uani 1 1 d . . .
C26 C 0.66261(16) 0.73837(16) 0.4557(5) 0.0564(11) Uani 1 1 d . . .
H26 H 0.6913 0.7287 0.4176 0.068 Uiso 1 1 calc R . .
C27 C 0.65756(15) 0.78392(16) 0.5098(5) 0.0555(11) Uani 1 1 d . . .
H27 H 0.6829 0.8050 0.5096 0.067 Uiso 1 1 calc R . .
N1 N 0.42190(12) 0.53183(13) 0.0458(4) 0.0496(8) Uani 1 1 d . . .
N2 N 0.48420(12) 0.57435(14) 0.0857(4) 0.0487(9) Uani 1 1 d . . .
N3 N 0.61517(12) 0.92463(12) 0.6253(4) 0.0506(9) Uani 1 1 d . . .
N4 N 0.60846(12) 0.84696(12) 0.6128(3) 0.0447(8) Uani 1 1 d . . .
N5 N 0.78783(12) 0.55414(13) 0.5918(3) 0.0479(8) Uani 1 1 d . . .
N6 N 0.83619(13) 0.51715(13) 0.7361(4) 0.0515(9) Uani 1 1 d . . .
N7 N 0.63094(12) 0.65928(13) 0.4029(4) 0.0485(9) Uani 1 1 d . . .
N8 N 0.5000 0.5000 0.5000 0.116(2) Uiso 1 2 d SDU . .
O1 O 0.5336(2) 0.5095(3) 0.5668(8) 0.0721(19) Uiso 0.50 1 d PDU . .
O2 O 0.4979(4) 0.4690(4) 0.4021(10) 0.125(3) Uiso 0.50 1 d PDU . .
O3 O 0.4646(3) 0.5281(4) 0.5036(15) 0.150(3) Uiso 0.50 1 d PDU . .

loop_
_atom_site_aniso_label
_atom_site_aniso_U_11
_atom_site_aniso_U_22
_atom_site_aniso_U_33
_atom_site_aniso_U_23
_atom_site_aniso_U_13
_atom_site_aniso_U_12
Cl1 0.0843(11) 0.1186(14) 0.0854(11) -0.0189(9) -0.0293(9) 0.0036(9)
Zn1 0.0428(3) 0.0438(3) 0.0525(4) -0.0059(2) 0.0043(2) -0.00250(19)
C1 0.054(2) 0.059(3) 0.046(2) 0.011(2) -0.011(2) -0.013(2)
C2 0.062(3) 0.095(4) 0.046(3) 0.011(2) -0.012(2) -0.022(3)
C3 0.065(3) 0.097(4) 0.048(3) 0.026(3) -0.009(2) -0.031(3)
C4 0.042(2) 0.051(2) 0.042(2) 0.0027(18) -0.0019(17) -0.0069(17)
C5 0.054(2) 0.040(2) 0.068(3) 0.005(2) -0.012(2) -0.0062(18)
C6 0.062(3) 0.047(2) 0.060(3) 0.005(2) -0.018(2) 0.002(2)
C7 0.041(2) 0.042(2) 0.043(2) 0.0048(17) -0.0043(17) -0.0018(16)
C8 0.053(2) 0.040(2) 0.045(2) 0.0052(17) -0.0077(18) -0.0047(17)
C9 0.052(2) 0.053(2) 0.044(2) 0.0129(19) -0.0113(19) -0.0043(19)
C10 0.045(2) 0.051(2) 0.046(2) 0.0018(18) -0.0017(18) 0.0081(18)
C11 0.064(3) 0.112(5) 0.065(4) -0.003(3) -0.003(3) 0.040(3)
C12 0.066(3) 0.113(5) 0.048(3) 0.001(3) 0.000(2) 0.034(3)
C13 0.039(2) 0.052(2) 0.046(2) -0.0014(19) -0.0059(17) 0.0059(17)
C14 0.058(3) 0.071(3) 0.037(2) -0.003(2) -0.006(2) 0.013(2)
C15 0.049(2) 0.069(3) 0.039(2) -0.003(2) -0.0002(18) 0.014(2)
C16 0.042(2) 0.047(2) 0.043(2) -0.0001(18) -0.0069(17) 0.0022(17)
C17 0.067(3) 0.074(3) 0.045(3) -0.015(2) -0.020(2) 0.022(2)
C18 0.067(3) 0.080(3) 0.050(3) -0.019(2) -0.013(2) 0.027(3)
C19 0.051(2) 0.043(2) 0.044(2) -0.0042(18) -0.0047(18) -0.0025(18)
C20 0.057(3) 0.050(3) 0.058(3) -0.007(2) 0.001(2) 0.009(2)
C21 0.053(2) 0.055(3) 0.053(3) 0.002(2) 0.006(2) 0.003(2)
C22 0.048(2) 0.041(2) 0.043(2) 0.0020(17) -0.0062(17) 0.0014(18)
C23 0.051(2) 0.046(2) 0.044(2) 0.0092(18) 0.0008(18) 0.0041(18)
C24 0.053(2) 0.040(2) 0.045(2) 0.0105(18) -0.0077(18) -0.0043(17)
C25 0.043(2) 0.041(2) 0.046(2) 0.0019(18) -0.0082(17) 0.0020(17)
C26 0.051(2) 0.052(3) 0.066(3) -0.006(2) -0.001(2) 0.004(2)
C27 0.046(2) 0.047(2) 0.074(3) -0.004(2) -0.006(2) -0.0043(19)
N1 0.049(2) 0.052(2) 0.048(2) 0.0047(16) 0.0007(16) -0.0098(16)
N2 0.0389(18) 0.062(2) 0.046(2) 0.0079(16) -0.0026(14) -0.0069(16)
N3 0.050(2) 0.044(2) 0.058(2) -0.0017(17) -0.0050(18) 0.0013(16)
N4 0.0481(19) 0.0428(19) 0.0431(19) 0.0001(14) -0.0048(15) 0.0029(15)
N5 0.0442(19) 0.056(2) 0.043(2) -0.0009(15) -0.0027(15) 0.0097(16)
N6 0.053(2) 0.052(2) 0.049(2) 0.0001(16) -0.0088(17) 0.0063(16)
N7 0.0471(19) 0.043(2) 0.055(2) -0.0051(16) -0.0171(15) 0.0036(14)

_geom_special_details            
; 
 All esds (except the esd in the dihedral angle between two l.s. planes) 
 are estimated using the full covariance matrix.  The cell esds are taken 
 into account individually in the estimation of esds in distances, angles 
 and torsion angles; correlations between esds in cell parameters are only 
 used when they are defined by crystal symmetry.  An approximate (isotropic) 
 treatment of cell esds is used for estimating esds involving l.s. planes. 
;

loop_
_geom_bond_atom_site_label_1
_geom_bond_atom_site_label_2
_geom_bond_distance
_geom_bond_site_symmetry_2
_geom_bond_publ_flag
Cl1 Zn1 2.2282(18) . y
Zn1 N1 1.989(3) . y
Zn1 N3 1.999(4) 8_655 y
Zn1 N6 2.003(4) 6_556 y
C1 N2 1.299(5) . ?
C1 N1 1.311(5) . ?
C1 H1 0.9300 . ?
C2 C3 1.327(7) . ?
C2 N1 1.358(6) . ?
C2 H2 0.9300 . ?
C3 N2 1.356(6) . ?
C3 H3 0.9300 . ?
C4 C5 1.366(6) . ?
C4 C9 1.371(6) . ?
C4 N2 1.455(5) . ?
C5 C6 1.365(6) . ?
C5 H5 0.9300 . ?
C6 C7 1.379(6) . ?
C6 H6 0.9300 . ?
C7 C8 1.387(5) . ?
C7 N7 1.403(5) . ?
C8 C9 1.372(5) . ?
C8 H8 0.9300 . ?
C9 H9 0.9300 . ?
C10 N6 1.308(5) . ?
C10 N5 1.325(5) . ?
C10 H10 0.9300 . ?
C11 C12 1.329(7) . ?
C11 N6 1.365(7) . ?
C11 H11 0.9300 . ?
C12 N5 1.360(6) . ?
C12 H12 0.9300 . ?
C13 C18 1.354(6) . ?
C13 C14 1.387(6) . ?
C13 N5 1.430(5) . ?
C14 C15 1.370(6) . ?
C14 H14 0.9300 . ?
C15 C16 1.380(6) . ?
C15 H15 0.9300 . ?
C16 C17 1.349(6) . ?
C16 N7 1.425(5) . ?
C17 C18 1.379(6) . ?
C17 H17 0.9300 . ?
C18 H18 0.9300 . ?
C19 N3 1.297(5) . ?
C19 N4 1.329(5) . ?
C19 H19 0.9300 . ?
C20 C21 1.332(6) . ?
C20 N3 1.372(6) . ?
C20 H20 0.9300 . ?
C21 N4 1.367(5) . ?
C21 H21 0.9300 . ?
C22 C23 1.379(6) . ?
C22 C27 1.379(6) . ?
C22 N4 1.430(5) . ?
C23 C24 1.373(6) . ?
C23 H23 0.9300 . ?
C24 C25 1.375(6) . ?
C24 H24 0.9300 . ?
C25 C26 1.380(6) . ?
C25 N7 1.423(5) . ?
C26 C27 1.369(6) . ?
C26 H26 0.9300 . ?
C27 H27 0.9300 . ?
N3 Zn1 1.999(4) 8_666 ?
N6 Zn1 2.003(4) 6_656 ?
N8 O1 1.169(5) 5_666 ?
N8 O1 1.169(5) . ?
N8 O2 1.252(6) . ?
N8 O2 1.252(6) 5_666 ?
N8 O3 1.274(6) . ?
N8 O3 1.274(6) 5_666 ?
O1 O2 1.115(10) 5_666 ?
O1 O3 1.233(11) 5_666 ?
O2 O1 1.115(10) 5_666 ?
O2 O3 1.381(12) 5_666 ?
O3 O1 1.233(11) 5_666 ?
O3 O2 1.381(12) 5_666 ?

loop_
_geom_angle_atom_site_label_1
_geom_angle_atom_site_label_2
_geom_angle_atom_site_label_3
_geom_angle
_geom_angle_site_symmetry_1
_geom_angle_site_symmetry_3
_geom_angle_publ_flag
N1 Zn1 N3 108.90(15) . 8_655 y
N1 Zn1 N6 106.22(15) . 6_556 y
N3 Zn1 N6 105.66(15) 8_655 6_556 y
N1 Zn1 Cl1 108.83(12) . . y
N3 Zn1 Cl1 114.68(12) 8_655 . y
N6 Zn1 Cl1 112.17(12) 6_556 . y
N2 C1 N1 111.9(4) . . ?
N2 C1 H1 124.1 . . ?
N1 C1 H1 124.1 . . ?
C3 C2 N1 109.5(4) . . ?
C3 C2 H2 125.2 . . ?
N1 C2 H2 125.2 . . ?
C2 C3 N2 106.3(4) . . ?
C2 C3 H3 126.8 . . ?
N2 C3 H3 126.8 . . ?
C5 C4 C9 119.9(4) . . ?
C5 C4 N2 120.5(4) . . ?
C9 C4 N2 119.6(4) . . ?
C6 C5 C4 120.2(4) . . ?
C6 C5 H5 119.9 . . ?
C4 C5 H5 119.9 . . ?
C5 C6 C7 121.2(4) . . ?
C5 C6 H6 119.4 . . ?
C7 C6 H6 119.4 . . ?
C6 C7 C8 117.8(4) . . ?
C6 C7 N7 122.3(4) . . ?
C8 C7 N7 119.9(3) . . ?
C9 C8 C7 121.0(4) . . ?
C9 C8 H8 119.5 . . ?
C7 C8 H8 119.5 . . ?
C4 C9 C8 119.8(4) . . ?
C4 C9 H9 120.1 . . ?
C8 C9 H9 120.1 . . ?
N6 C10 N5 111.5(4) . . ?
N6 C10 H10 124.3 . . ?
N5 C10 H10 124.3 . . ?
C12 C11 N6 109.1(5) . . ?
C12 C11 H11 125.5 . . ?
N6 C11 H11 125.5 . . ?
C11 C12 N5 107.1(5) . . ?
C11 C12 H12 126.4 . . ?
N5 C12 H12 126.4 . . ?
C18 C13 C14 119.7(4) . . ?
C18 C13 N5 121.2(4) . . ?
C14 C13 N5 119.1(4) . . ?
C15 C14 C13 119.1(4) . . ?
C15 C14 H14 120.4 . . ?
C13 C14 H14 120.4 . . ?
C14 C15 C16 121.3(4) . . ?
C14 C15 H15 119.4 . . ?
C16 C15 H15 119.4 . . ?
C17 C16 C15 118.4(4) . . ?
C17 C16 N7 121.9(4) . . ?
C15 C16 N7 119.7(4) . . ?
C16 C17 C18 121.4(4) . . ?
C16 C17 H17 119.3 . . ?
C18 C17 H17 119.3 . . ?
C13 C18 C17 120.1(4) . . ?
C13 C18 H18 119.9 . . ?
C17 C18 H18 119.9 . . ?
N3 C19 N4 111.4(4) . . ?
N3 C19 H19 124.3 . . ?
N4 C19 H19 124.3 . . ?
C21 C20 N3 109.0(4) . . ?
C21 C20 H20 125.5 . . ?
N3 C20 H20 125.5 . . ?
C20 C21 N4 106.6(4) . . ?
C20 C21 H21 126.7 . . ?
N4 C21 H21 126.7 . . ?
C23 C22 C27 120.2(4) . . ?
C23 C22 N4 119.5(4) . . ?
C27 C22 N4 120.2(4) . . ?
C24 C23 C22 119.6(4) . . ?
C24 C23 H23 120.2 . . ?
C22 C23 H23 120.2 . . ?
C23 C24 C25 120.4(4) . . ?
C23 C24 H24 119.8 . . ?
C25 C24 H24 119.8 . . ?
C24 C25 C26 119.7(4) . . ?
C24 C25 N7 120.4(4) . . ?
C26 C25 N7 119.8(4) . . ?
C27 C26 C25 120.2(4) . . ?
C27 C26 H26 119.9 . . ?
C25 C26 H26 119.9 . . ?
C26 C27 C22 119.9(4) . . ?
C26 C27 H27 120.0 . . ?
C22 C27 H27 120.0 . . ?
C1 N1 C2 104.9(4) . . ?
C1 N1 Zn1 127.7(3) . . ?
C2 N1 Zn1 126.8(3) . . ?
C1 N2 C3 107.3(4) . . ?
C1 N2 C4 125.3(4) . . ?
C3 N2 C4 127.2(4) . . ?
C19 N3 C20 106.1(4) . . ?
C19 N3 Zn1 126.5(3) . 8_666 ?
C20 N3 Zn1 127.2(3) . 8_666 ?
C19 N4 C21 106.9(4) . . ?
C19 N4 C22 126.7(4) . . ?
C21 N4 C22 126.3(4) . . ?
C10 N5 C12 106.6(4) . . ?
C10 N5 C13 127.0(4) . . ?
C12 N5 C13 126.4(4) . . ?
C10 N6 C11 105.6(4) . . ?
C10 N6 Zn1 125.8(3) . 6_656 ?
C11 N6 Zn1 128.5(3) . 6_656 ?
C7 N7 C25 120.7(3) . . ?
C7 N7 C16 120.6(3) . . ?
C25 N7 C16 118.2(3) . . ?
O1 N8 O1 180.0(8) 5_666 . ?
O1 N8 O2 54.7(5) 5_666 . ?
O1 N8 O2 125.3(5) . . ?
O1 N8 O2 125.3(5) 5_666 5_666 ?
O1 N8 O2 54.7(5) . 5_666 ?
O2 N8 O2 180.0(7) . 5_666 ?
O1 N8 O3 60.4(5) 5_666 . ?
O1 N8 O3 119.6(5) . . ?
O2 N8 O3 113.7(6) . . ?
O2 N8 O3 66.3(6) 5_666 . ?
O1 N8 O3 119.6(5) 5_666 5_666 ?
O1 N8 O3 60.4(5) . 5_666 ?
O2 N8 O3 66.3(6) . 5_666 ?
O2 N8 O3 113.7(6) 5_666 5_666 ?
O3 N8 O3 180.0(16) . 5_666 ?
O2 O1 N8 66.5(5) 5_666 . ?
O2 O1 O3 128.6(8) 5_666 5_666 ?
N8 O1 O3 64.0(5) . 5_666 ?
O1 O2 N8 58.9(5) 5_666 . ?
O1 O2 O3 115.2(8) 5_666 5_666 ?
N8 O2 O3 57.6(5) . 5_666 ?
O1 O3 N8 55.6(4) 5_666 . ?
O1 O3 O2 110.7(7) 5_666 5_666 ?
N8 O3 O2 56.1(4) . 5_666 ?

_diffrn_measured_fraction_theta_max 0.998
_diffrn_reflns_theta_full        25.00
_diffrn_measured_fraction_theta_full 0.998
_refine_diff_density_max         0.873
_refine_diff_density_min         -0.726
_refine_diff_density_rms         0.118

# SQUEEZE RESULTS (APPEND TO CIF)
# Note: Data are Listed for all Voids in the P1 Unit Cell
# i.e. Centre of Gravity, Solvent Accessible Volume,
# Recovered number of Electrons in the Void and
# Details about the Squeezed Material
loop_
_platon_squeeze_void_nr
_platon_squeeze_void_average_x
_platon_squeeze_void_average_y
_platon_squeeze_void_average_z
_platon_squeeze_void_volume
_platon_squeeze_void_count_electrons
_platon_squeeze_void_content
1 0.138 0.250 0.557 683 168 ' '
2 0.638 0.250 0.422 683 168 ' '
3 0.362 0.750 0.933 683 169 ' '
4 0.862 0.750 0.060 683 169 ' '
_platon_squeeze_details          
;
;
