####################################################################### 
# 
# This file contains crystal structure data downloaded from the 
# Cambridge Structural Database (CSD) hosted by the Cambridge 
# Crystallographic Data Centre (CCDC).
# 
# Full information about CCDC data access policies and citation 
# guidelines are available at http://www.ccdc.cam.ac.uk/access/V1 
# 
# Audit and citation data items may have been added by the CCDC. 
# Please retain this information to preserve the provenance of 
# this file and to allow appropriate attribution of the data. 
# 
#######################################################################

data_p4-Cd-I3-uptake
_audit_block_doi                 10.5517/cc11nyf2
_database_code_depnum_ccdc_archive 'CCDC 973444'
loop_
_citation_id
_citation_doi
_citation_year
1 10.1002/chem.201402211 2014
_audit_update_record             
;
2013-11-24 deposited with the CCDC.	2024-07-11 downloaded from the CCDC.
;

_audit_creation_method           SHELXL-97
_chemical_name_systematic        
; 
 ? 
;
_chemical_name_common            ?
_chemical_melting_point          ?
_chemical_formula_moiety         ?
_chemical_formula_sum            'C72 H84 Cd2 Cl2 I6 N20 O6'
_chemical_formula_weight         2382.69

loop_
_atom_type_symbol
_atom_type_description
_atom_type_scat_dispersion_real
_atom_type_scat_dispersion_imag
_atom_type_scat_source
C C 0.0033 0.0016 'International Tables Vol C Tables 4.2.6.8 and 6.1.1.4'
H H 0.0000 0.0000 'International Tables Vol C Tables 4.2.6.8 and 6.1.1.4'
Cd Cd -0.8075 1.2024 'International Tables Vol C Tables 4.2.6.8 and 6.1.1.4'
Cl Cl 0.1484 0.1585 'International Tables Vol C Tables 4.2.6.8 and 6.1.1.4'
I I -0.4742 1.8119 'International Tables Vol C Tables 4.2.6.8 and 6.1.1.4'
N N 0.0061 0.0033 'International Tables Vol C Tables 4.2.6.8 and 6.1.1.4'
O O 0.0106 0.0060 'International Tables Vol C Tables 4.2.6.8 and 6.1.1.4'

_symmetry_cell_setting           monoclinic
_symmetry_space_group_name_H-M   Cc

loop_
_symmetry_equiv_pos_as_xyz
'x, y, z'
'x, -y, z+1/2'
'x+1/2, y+1/2, z'
'x+1/2, -y+1/2, z+1/2'

_cell_length_a                   17.8787(10)
_cell_length_b                   26.9969(16)
_cell_length_c                   19.9335(12)
_cell_angle_alpha                90.00
_cell_angle_beta                 115.5340(10)
_cell_angle_gamma                90.00
_cell_volume                     8681.6(9)
_cell_formula_units_Z            4
_cell_measurement_temperature    120(2)
_cell_measurement_reflns_used    ?
_cell_measurement_theta_min      ?
_cell_measurement_theta_max      ?

_exptl_crystal_description       ?
_exptl_crystal_colour            ?
_exptl_crystal_size_max          0.10
_exptl_crystal_size_mid          0.08
_exptl_crystal_size_min          0.05
_exptl_crystal_density_meas      ?
_exptl_crystal_density_diffrn    1.823
_exptl_crystal_density_method    'not measured'
_exptl_crystal_F_000             4608
_exptl_absorpt_coefficient_mu    2.744
_exptl_absorpt_correction_type   ?
_exptl_absorpt_correction_T_min  0.7709
_exptl_absorpt_correction_T_max  0.8750
_exptl_absorpt_process_details   ?

_exptl_special_details           
; 
 ? 
;

_diffrn_ambient_temperature      120(2)
_diffrn_radiation_wavelength     0.71073
_diffrn_radiation_type           MoK\a
_diffrn_radiation_source         'fine-focus sealed tube'
_diffrn_radiation_monochromator  graphite
_diffrn_measurement_device_type  ?
_diffrn_measurement_method       ?
_diffrn_detector_area_resol_mean ?
_diffrn_standards_number         ?
_diffrn_standards_interval_count ?
_diffrn_standards_interval_time  ?
_diffrn_standards_decay_%        ?
_diffrn_reflns_number            19323
_diffrn_reflns_av_R_equivalents  0.0281
_diffrn_reflns_av_sigmaI/netI    0.0385
_diffrn_reflns_limit_h_min       -21
_diffrn_reflns_limit_h_max       15
_diffrn_reflns_limit_k_min       -30
_diffrn_reflns_limit_k_max       31
_diffrn_reflns_limit_l_min       -11
_diffrn_reflns_limit_l_max       23
_diffrn_reflns_theta_min         1.51
_diffrn_reflns_theta_max         25.00
_reflns_number_total             8986
_reflns_number_gt                7964
_reflns_threshold_expression     >2sigma(I)

_computing_data_collection       ?
_computing_cell_refinement       ?
_computing_data_reduction        ?
_computing_structure_solution    'SHELXS-97 (Sheldrick, 1990)'
_computing_structure_refinement  'SHELXL-97 (Sheldrick, 1997)'
_computing_molecular_graphics    ?
_computing_publication_material  ?

_refine_special_details          
; 
 Refinement of F^2^ against ALL reflections.  The weighted R-factor wR and 
 goodness of fit S are based on F^2^, conventional R-factors R are based 
 on F, with F set to zero for negative F^2^. The threshold expression of 
 F^2^ > 2sigma(F^2^) is used only for calculating R-factors(gt) etc. and is 
 not relevant to the choice of reflections for refinement.  R-factors based 
 on F^2^ are statistically about twice as large as those based on F, and R- 
 factors based on ALL data will be even larger. 
;

_refine_ls_structure_factor_coef Fsqd
_refine_ls_matrix_type           full
_refine_ls_weighting_scheme      calc
_refine_ls_weighting_details     
'calc w=1/[\s^2^(Fo^2^)+(0.0762P)^2^+96.8358P] where P=(Fo^2^+2Fc^2^)/3'
_atom_sites_solution_primary     direct
_atom_sites_solution_secondary   difmap
_atom_sites_solution_hydrogens   geom
_refine_ls_hydrogen_treatment    mixed
_refine_ls_extinction_method     none
_refine_ls_extinction_coef       ?
_refine_ls_abs_structure_details 'Flack H D (1983), Acta Cryst. A39, 876-881'
_refine_ls_abs_structure_Flack   0.00
_refine_ls_number_reflns         8986
_refine_ls_number_parameters     985
_refine_ls_number_restraints     39
_refine_ls_R_factor_all          0.0629
_refine_ls_R_factor_gt           0.0544
_refine_ls_wR_factor_ref         0.1470
_refine_ls_wR_factor_gt          0.1400
_refine_ls_goodness_of_fit_ref   1.057
_refine_ls_restrained_S_all      1.056
_refine_ls_shift/su_max          0.001
_refine_ls_shift/su_mean         0.000

loop_
_atom_site_label
_atom_site_type_symbol
_atom_site_fract_x
_atom_site_fract_y
_atom_site_fract_z
_atom_site_U_iso_or_equiv
_atom_site_adp_type
_atom_site_occupancy
_atom_site_symmetry_multiplicity
_atom_site_calc_flag
_atom_site_refinement_flags
_atom_site_disorder_assembly
_atom_site_disorder_group
Cd1 Cd 0.32122(6) 0.59992(3) 0.43647(6) 0.0338(2) Uani 1 1 d . . .
Cd2 Cd 0.22931(5) 0.64395(3) 0.24126(5) 0.0322(2) Uani 1 1 d . . .
I1 I -0.04087(9) 0.29887(5) 0.40979(9) 0.0816(5) Uani 1 1 d . . .
I2 I 0.04023(8) 0.36705(5) 0.34531(9) 0.0767(4) Uani 1 1 d . . .
I3 I 0.11826(9) 0.43713(6) 0.28468(11) 0.0928(6) Uani 1 1 d . . .
I4 I -0.33045(9) 0.31024(5) 0.38236(10) 0.0806(4) Uani 1 1 d . . .
I5 I -0.47105(9) 0.37739(5) 0.32409(8) 0.0685(4) Uani 1 1 d . . .
I6 I -0.61584(9) 0.44498(5) 0.26319(8) 0.0696(4) Uani 1 1 d . . .
Cl1 Cl 0.2615(2) 0.55690(11) 0.3067(2) 0.0367(7) Uani 1 1 d . . .
Cl2 Cl 0.2900(2) 0.68734(11) 0.3712(2) 0.0360(7) Uani 1 1 d . . .
C1 C 0.4947(9) 0.6379(5) 0.4347(9) 0.040(3) Uani 1 1 d . . .
H1 H 0.4795 0.6717 0.4346 0.048 Uiso 1 1 calc R . .
C2 C 0.4936(9) 0.5584(6) 0.4409(11) 0.054(5) Uani 1 1 d . . .
H2 H 0.4780 0.5256 0.4464 0.065 Uiso 1 1 calc R . .
C3 C 0.5636(9) 0.5707(5) 0.4323(10) 0.043(4) Uani 1 1 d . . .
H3 H 0.6036 0.5489 0.4291 0.051 Uiso 1 1 calc R . .
C4 C 0.6110(9) 0.7000(6) 0.4005(10) 0.047(4) Uani 1 1 d . . .
H4 H 0.5570 0.7131 0.3869 0.056 Uiso 1 1 calc R . .
C5 C 0.6268(9) 0.6517(5) 0.4242(8) 0.038(3) Uani 1 1 d . . .
C6 C 0.7046(9) 0.6312(5) 0.4412(9) 0.042(4) Uani 1 1 d . . .
H6 H 0.7160 0.5976 0.4563 0.051 Uiso 1 1 calc R . .
C7 C 0.7656(9) 0.6614(5) 0.4355(9) 0.043(3) Uani 1 1 d . . .
H7 H 0.8185 0.6478 0.4461 0.051 Uiso 1 1 calc R . .
C8 C 0.7500(9) 0.7108(5) 0.4146(9) 0.043(4) Uani 1 1 d . . .
C9 C 0.6698(9) 0.7295(6) 0.3961(9) 0.047(4) Uani 1 1 d . . .
H9 H 0.6571 0.7629 0.3805 0.056 Uiso 1 1 calc R . .
C10 C 0.8302(9) 0.9795(4) 0.4556(8) 0.036(2) Uani 1 1 d U . .
H10 H 0.8120 0.9769 0.4034 0.043 Uiso 1 1 calc R . .
C11 C 0.8699(14) 1.0086(7) 0.5626(11) 0.072(6) Uani 1 1 d . . .
H11 H 0.8840 1.0317 0.6021 0.086 Uiso 1 1 calc R . .
C12 C 0.8729(14) 0.9592(7) 0.5711(10) 0.071(6) Uani 1 1 d . . .
H12 H 0.8912 0.9412 0.6164 0.085 Uiso 1 1 calc R . .
C13 C 0.8158(13) 0.8528(6) 0.5179(10) 0.060(5) Uani 1 1 d . . .
H13 H 0.8035 0.8616 0.5582 0.072 Uiso 1 1 calc R . .
C14 C 0.8372(11) 0.8889(5) 0.4781(9) 0.046(4) Uani 1 1 d . . .
C15 C 0.8497(10) 0.8773(5) 0.4191(10) 0.049(4) Uani 1 1 d . . .
H15 H 0.8659 0.9022 0.3943 0.058 Uiso 1 1 calc R . .
C16 C 0.8388(10) 0.8274(5) 0.3930(9) 0.047(4) Uani 1 1 d . . .
H16 H 0.8425 0.8187 0.3483 0.057 Uiso 1 1 calc R . .
C17 C 0.8232(10) 0.7931(5) 0.4340(10) 0.042(3) Uani 1 1 d . . .
C18 C 0.8134(12) 0.8044(7) 0.4963(11) 0.061(5) Uani 1 1 d . . .
H18 H 0.8049 0.7787 0.5248 0.073 Uiso 1 1 calc R . .
C19 C 1.0739(10) 0.6687(5) 0.2787(9) 0.041(3) Uani 1 1 d . . .
H19 H 1.1114 0.6844 0.3231 0.049 Uiso 1 1 calc R . .
C20 C 0.9599(11) 0.6441(8) 0.1883(11) 0.069(6) Uani 1 1 d . . .
H20 H 0.9029 0.6384 0.1572 0.082 Uiso 1 1 calc R . .
C21 C 1.0250(10) 0.6316(7) 0.1737(11) 0.061(5) Uani 1 1 d . . .
H21 H 1.0218 0.6150 0.1305 0.074 Uiso 1 1 calc R . .
C22 C 0.9459(8) 0.6856(5) 0.2951(9) 0.037(3) Uani 1 1 d . . .
C23 C 0.8627(10) 0.6728(6) 0.2726(10) 0.048(4) Uani 1 1 d . . .
H23 H 0.8354 0.6515 0.2312 0.058 Uiso 1 1 calc R . .
C24 C 0.8212(9) 0.6913(6) 0.3110(10) 0.051(4) Uani 1 1 d . . .
H24 H 0.7648 0.6822 0.2951 0.061 Uiso 1 1 calc R . .
C25 C 0.8573(8) 0.7226(4) 0.3721(10) 0.041(4) Uani 1 1 d . . .
C26 C 0.9391(9) 0.7353(5) 0.3912(10) 0.046(4) Uani 1 1 d . . .
H26 H 0.9664 0.7569 0.4323 0.055 Uiso 1 1 calc R . .
C27 C 0.9825(9) 0.7179(6) 0.3531(10) 0.050(4) Uani 1 1 d . . .
H27 H 1.0380 0.7283 0.3672 0.059 Uiso 1 1 calc R . .
C28 C 0.4063(8) 0.6061(5) 0.2461(8) 0.034(3) Uani 1 1 d . . .
H28 H 0.3959 0.5726 0.2542 0.041 Uiso 1 1 calc R . .
C29 C 0.3957(10) 0.6843(5) 0.2305(11) 0.056(5) Uani 1 1 d . . .
H29 H 0.3752 0.7172 0.2255 0.067 Uiso 1 1 calc R . .
C30 C 0.4684(10) 0.6708(6) 0.2303(13) 0.064(6) Uani 1 1 d . . .
H30 H 0.5072 0.6922 0.2241 0.076 Uiso 1 1 calc R . .
C31 C 0.5432(8) 0.5905(5) 0.2442(8) 0.038(3) Uani 1 1 d . . .
C32 C 0.6088(9) 0.6125(5) 0.2327(8) 0.038(3) Uani 1 1 d . . .
H32 H 0.6094 0.6471 0.2244 0.045 Uiso 1 1 calc R . .
C33 C 0.6717(9) 0.5825(5) 0.2339(8) 0.039(3) Uani 1 1 d . . .
H33 H 0.7153 0.5967 0.2252 0.047 Uiso 1 1 calc R . .
C34 C 0.6730(8) 0.5316(5) 0.2476(8) 0.040(3) Uani 1 1 d . . .
C35 C 0.6074(9) 0.5124(6) 0.2588(10) 0.047(4) Uani 1 1 d . . .
H35 H 0.6067 0.4778 0.2676 0.057 Uiso 1 1 calc R . .
C36 C 0.5451(10) 0.5401(5) 0.2577(11) 0.052(4) Uani 1 1 d . . .
H36 H 0.5019 0.5252 0.2662 0.062 Uiso 1 1 calc R . .
C37 C 0.7214(8) 0.2625(5) 0.2153(8) 0.037(3) Uani 1 1 d . . .
H37 H 0.7487 0.2658 0.2679 0.044 Uiso 1 1 calc R . .
C38 C 0.6645(14) 0.2818(7) 0.0967(10) 0.072(6) Uani 1 1 d . . .
H38 H 0.6448 0.2992 0.0508 0.086 Uiso 1 1 calc R . .
C39 C 0.6673(10) 0.2302(6) 0.1071(10) 0.052(4) Uani 1 1 d . . .
H39 H 0.6469 0.2064 0.0683 0.062 Uiso 1 1 calc R . .
C40 C 0.7083(10) 0.3528(5) 0.1867(9) 0.042(3) Uani 1 1 d . . .
C41 C 0.6526(11) 0.3872(5) 0.1440(10) 0.050(4) Uani 1 1 d . . .
H41 H 0.6069 0.3771 0.0995 0.059 Uiso 1 1 calc R . .
C42 C 0.6615(12) 0.4374(6) 0.1643(10) 0.061(5) Uani 1 1 d . . .
H42 H 0.6212 0.4609 0.1347 0.074 Uiso 1 1 calc R . .
C43 C 0.7304(9) 0.4527(5) 0.2287(9) 0.042(3) Uani 1 1 d . . .
C44 C 0.7884(9) 0.4169(5) 0.2695(9) 0.043(3) Uani 1 1 d . . .
H44 H 0.8359 0.4267 0.3127 0.051 Uiso 1 1 calc R . .
C45 C 0.7784(10) 0.3667(5) 0.2484(9) 0.047(4) Uani 1 1 d . . .
H45 H 0.8192 0.3428 0.2761 0.057 Uiso 1 1 calc R . .
C46 C 1.1288(8) 0.5723(5) 0.3922(8) 0.033(3) Uani 1 1 d . . .
H46 H 1.1301 0.5473 0.3592 0.040 Uiso 1 1 calc R . .
C47 C 1.0840(10) 0.6212(6) 0.4510(10) 0.049(4) Uani 1 1 d . . .
H47 H 1.0492 0.6379 0.4688 0.058 Uiso 1 1 calc R . .
C48 C 1.1626(10) 0.6304(5) 0.4696(9) 0.047(4) Uani 1 1 d . . .
H48 H 1.1942 0.6553 0.5038 0.056 Uiso 1 1 calc R . .
C49 C 0.9583(10) 0.5383(5) 0.2956(10) 0.048(4) Uani 1 1 d . . .
H49 H 0.9961 0.5368 0.2737 0.058 Uiso 1 1 calc R . .
C50 C 0.9812(8) 0.5610(5) 0.3644(8) 0.034(3) Uani 1 1 d . . .
C51 C 0.9239(9) 0.5668(6) 0.3944(9) 0.044(4) Uani 1 1 d . . .
H51 H 0.9377 0.5849 0.4391 0.053 Uiso 1 1 calc R . .
C52 C 0.8460(8) 0.5454(5) 0.3566(9) 0.043(4) Uani 1 1 d . . .
H52 H 0.8075 0.5475 0.3778 0.052 Uiso 1 1 calc R . .
C53 C 0.8226(10) 0.5212(5) 0.2896(10) 0.045(4) Uani 1 1 d . . .
C54 C 0.8796(9) 0.5177(5) 0.2592(10) 0.046(4) Uani 1 1 d . . .
H54 H 0.8645 0.5011 0.2132 0.055 Uiso 1 1 calc R . .
C58 C 0.4202(10) 0.6547(5) 0.5968(11) 0.050(4) Uani 1 1 d . . .
H58 H 0.4615 0.6327 0.6289 0.060 Uiso 1 1 calc R . .
C59 C 0.3761(14) 0.7415(9) 0.5595(14) 0.102(8) Uani 1 1 d D . .
H59A H 0.3629 0.7333 0.5078 0.154 Uiso 1 1 calc R . .
H59B H 0.4003 0.7747 0.5710 0.154 Uiso 1 1 calc R . .
H59C H 0.3253 0.7406 0.5668 0.154 Uiso 1 1 calc R . .
C60 C 0.5078(16) 0.7233(9) 0.6695(14) 0.098(9) Uani 1 1 d . . .
H60A H 0.5392 0.6955 0.7006 0.147 Uiso 1 1 calc R . .
H60B H 0.4916 0.7460 0.6992 0.147 Uiso 1 1 calc R . .
H60C H 0.5424 0.7409 0.6502 0.147 Uiso 1 1 calc R . .
C61 C 0.2564(11) 0.9681(6) 0.4500(11) 0.055(4) Uani 1 1 d . . .
H61 H 0.2209 0.9474 0.4106 0.066 Uiso 1 1 calc R . .
C62 C 0.3617(15) 0.9042(7) 0.4757(12) 0.081(7) Uani 1 1 d . . .
H62A H 0.3179 0.8889 0.4318 0.122 Uiso 1 1 calc R . .
H62B H 0.3747 0.8829 0.5191 0.122 Uiso 1 1 calc R . .
H62C H 0.4115 0.9086 0.4674 0.122 Uiso 1 1 calc R . .
C63 C 0.3947(19) 0.9835(8) 0.5558(17) 0.118(12) Uani 1 1 d . . .
H63A H 0.4368 0.9984 0.5429 0.177 Uiso 1 1 calc R . .
H63B H 0.4217 0.9621 0.5993 0.177 Uiso 1 1 calc R . .
H63C H 0.3640 1.0098 0.5671 0.177 Uiso 1 1 calc R . .
C64 C 0.2126(15) 0.9132(10) 0.5815(13) 0.087(5) Uani 1 1 d U . .
H64 H 0.2329 0.9457 0.5816 0.104 Uiso 1 1 calc R . .
C65 C 0.098(2) 0.8569(9) 0.5428(18) 0.117(10) Uani 1 1 d U . .
H65A H 0.1063 0.8454 0.5921 0.175 Uiso 1 1 calc R . .
H65B H 0.1293 0.8356 0.5240 0.175 Uiso 1 1 calc R . .
H65C H 0.0391 0.8557 0.5088 0.175 Uiso 1 1 calc R . .
C66 C 0.0762(15) 0.9477(8) 0.5201(15) 0.091(7) Uani 1 1 d U . .
H66A H 0.0438 0.9441 0.4663 0.136 Uiso 1 1 calc R . .
H66B H 0.1106 0.9776 0.5305 0.136 Uiso 1 1 calc R . .
H66C H 0.0385 0.9506 0.5439 0.136 Uiso 1 1 calc R . .
C67 C 0.1715(15) 0.5542(7) 0.1270(11) 0.077(7) Uani 1 1 d . . .
H67 H 0.1875 0.5391 0.1743 0.092 Uiso 1 1 calc R . .
C68 C 0.132(2) 0.5412(8) -0.0014(15) 0.117(11) Uani 1 1 d . . .
H68A H 0.1813 0.5374 -0.0102 0.175 Uiso 1 1 calc R . .
H68B H 0.1153 0.5762 -0.0068 0.175 Uiso 1 1 calc R . .
H68C H 0.0865 0.5213 -0.0377 0.175 Uiso 1 1 calc R . .
C69 C 0.143(2) 0.4716(7) 0.0785(14) 0.117(12) Uani 1 1 d . . .
H69A H 0.1914 0.4553 0.0767 0.176 Uiso 1 1 calc R . .
H69B H 0.0924 0.4591 0.0378 0.176 Uiso 1 1 calc R . .
H69C H 0.1420 0.4644 0.1262 0.176 Uiso 1 1 calc R . .
C70 C 0.2154(17) 0.3412(9) 0.1842(15) 0.095(8) Uani 1 1 d . . .
H70A H 0.1694 0.3644 0.1597 0.143 Uiso 1 1 calc R . .
H70B H 0.2546 0.3442 0.1620 0.143 Uiso 1 1 calc R . .
H70C H 0.2437 0.3490 0.2373 0.143 Uiso 1 1 calc R . .
C71 C 0.172(3) 0.2666(11) 0.111(2) 0.156(17) Uani 1 1 d . . .
H71A H 0.1793 0.2310 0.1214 0.234 Uiso 1 1 calc R . .
H71B H 0.2126 0.2778 0.0929 0.234 Uiso 1 1 calc R . .
H71C H 0.1160 0.2729 0.0723 0.234 Uiso 1 1 calc R . .
C72 C 0.1418(12) 0.2764(8) 0.2120(13) 0.081(7) Uani 1 1 d . . .
H72 H 0.1381 0.2976 0.2484 0.097 Uiso 1 1 calc R . .
C73 C -0.0377(12) 0.3314(10) 0.0789(11) 0.076(6) Uani 1 1 d . . .
H73 H -0.0203 0.2984 0.0768 0.092 Uiso 1 1 calc R . .
C74 C -0.0989(15) 0.2976(7) 0.1542(12) 0.073(6) Uani 1 1 d . . .
H74A H -0.1027 0.3095 0.1990 0.109 Uiso 1 1 calc R . .
H74B H -0.0557 0.2721 0.1678 0.109 Uiso 1 1 calc R . .
H74C H -0.1522 0.2834 0.1199 0.109 Uiso 1 1 calc R . .
C75 C -0.1080(14) 0.3872(8) 0.1263(13) 0.082(6) Uani 1 1 d . . .
H75A H -0.1683 0.3885 0.0973 0.122 Uiso 1 1 calc R . .
H75B H -0.0821 0.4127 0.1084 0.122 Uiso 1 1 calc R . .
H75C H -0.0940 0.3931 0.1789 0.122 Uiso 1 1 calc R . .
N1 N 0.4497(7) 0.5996(4) 0.4403(8) 0.043(3) Uani 1 1 d . . .
N2 N 0.5630(7) 0.6230(4) 0.4294(7) 0.037(3) Uani 1 1 d . . .
N3 N 0.8443(8) 0.9403(4) 0.5014(7) 0.041(2) Uani 1 1 d U . .
N4 N 0.8442(7) 1.0208(4) 0.4909(7) 0.036(2) Uani 1 1 d U . .
N5 N 0.9928(6) 0.6665(4) 0.2570(7) 0.035(3) Uani 1 1 d . . .
N6 N 1.0961(7) 0.6471(4) 0.2323(7) 0.037(3) Uani 1 1 d . . .
N7 N 0.8142(8) 0.7399(5) 0.4111(8) 0.048(3) Uani 1 1 d . . .
N8 N 0.3563(7) 0.6427(4) 0.2391(7) 0.036(3) Uani 1 1 d . . .
N9 N 0.4755(7) 0.6221(4) 0.2402(7) 0.038(3) Uani 1 1 d . . .
N10 N 0.6963(8) 0.3016(4) 0.1666(8) 0.041(3) Uani 1 1 d . . .
N11 N 0.7029(7) 0.2197(4) 0.1800(7) 0.040(3) Uani 1 1 d . . .
N12 N 1.0623(7) 0.5837(4) 0.4022(7) 0.039(3) Uani 1 1 d . . .
N13 N 1.1924(7) 0.5997(4) 0.4337(7) 0.035(3) Uani 1 1 d . . .
N14 N 0.7407(6) 0.5025(4) 0.2498(8) 0.044(3) Uani 1 1 d . . .
N15 N 0.3337(10) 0.9523(5) 0.4890(9) 0.059(4) Uani 1 1 d . . .
N16 N 0.1270(12) 0.9063(7) 0.5481(11) 0.082(4) Uani 1 1 d U . .
N17 N -0.0779(10) 0.3389(7) 0.1180(9) 0.067(4) Uani 1 1 d . . .
N18 N 0.1843(12) 0.2922(5) 0.1749(11) 0.070(5) Uani 1 1 d . . .
N19 N 0.4360(10) 0.7050(6) 0.6095(9) 0.066(4) Uani 1 1 d D . .
N20 N 0.1490(9) 0.5252(6) 0.0705(7) 0.059(4) Uani 1 1 d . . .
O1 O 0.3609(9) 0.6370(5) 0.5503(7) 0.071(4) Uani 1 1 d . . .
O2 O 0.1743(8) 0.6015(4) 0.1257(7) 0.060(3) Uani 1 1 d . . .
O3 O 0.2276(10) 1.0051(5) 0.4593(11) 0.093(5) Uani 1 1 d . . .
O4 O 0.2614(11) 0.8816(11) 0.6096(11) 0.155(10) Uani 1 1 d U . .
O5 O 0.1076(9) 0.2362(5) 0.2014(11) 0.094(5) Uani 1 1 d . . .
O6 O -0.0202(10) 0.3626(8) 0.0444(9) 0.102(6) Uani 1 1 d . . .

loop_
_atom_site_aniso_label
_atom_site_aniso_U_11
_atom_site_aniso_U_22
_atom_site_aniso_U_33
_atom_site_aniso_U_23
_atom_site_aniso_U_13
_atom_site_aniso_U_12
Cd1 0.0297(5) 0.0289(4) 0.0454(6) -0.0024(4) 0.0187(4) -0.0010(4)
Cd2 0.0312(5) 0.0253(4) 0.0453(6) -0.0006(4) 0.0214(4) -0.0011(4)
I1 0.0805(9) 0.0720(8) 0.0837(10) 0.0034(7) 0.0273(8) 0.0362(7)
I2 0.0546(7) 0.0608(7) 0.0955(11) -0.0287(7) 0.0140(7) 0.0097(6)
I3 0.0684(9) 0.0692(8) 0.1418(16) -0.0344(9) 0.0