####################################################################### 
# 
# This file contains crystal structure data downloaded from the 
# Cambridge Structural Database (CSD) hosted by the Cambridge 
# Crystallographic Data Centre (CCDC).
# 
# Full information about CCDC data access policies and citation 
# guidelines are available at http://www.ccdc.cam.ac.uk/access/V1 
# 
# Audit and citation data items may have been added by the CCDC. 
# Please retain this information to preserve the provenance of 
# this file and to allow appropriate attribution of the data. 
# 
#######################################################################

data_p3-zn-I3-uptake
_audit_block_doi                 10.5517/cc11nyd1
_database_code_depnum_ccdc_archive 'CCDC 973443'
loop_
_citation_id
_citation_doi
_citation_year
1 10.1002/chem.201402211 2014
_audit_update_record             
;
2013-11-24 deposited with the CCDC.	2024-07-11 downloaded from the CCDC.
;

_audit_creation_method           SHELXL-97
_chemical_name_systematic        
; 
 ? 
;
_chemical_name_common            ?
_chemical_melting_point          ?
_chemical_formula_moiety         ?
_chemical_formula_sum            'C108 H82 Cl4 I3 N28 Zn4'
_chemical_formula_weight         2556.00

loop_
_atom_type_symbol
_atom_type_description
_atom_type_scat_dispersion_real
_atom_type_scat_dispersion_imag
_atom_type_scat_source
C C 0.0033 0.0016 'International Tables Vol C Tables 4.2.6.8 and 6.1.1.4'
H H 0.0000 0.0000 'International Tables Vol C Tables 4.2.6.8 and 6.1.1.4'
Cl Cl 0.1484 0.1585 'International Tables Vol C Tables 4.2.6.8 and 6.1.1.4'
I I -0.4742 1.8119 'International Tables Vol C Tables 4.2.6.8 and 6.1.1.4'
N N 0.0061 0.0033 'International Tables Vol C Tables 4.2.6.8 and 6.1.1.4'
Zn Zn 0.2839 1.4301 'International Tables Vol C Tables 4.2.6.8 and 6.1.1.4'

_symmetry_cell_setting           orthorhombic
_symmetry_space_group_name_H-M   Pbcn

loop_
_symmetry_equiv_pos_as_xyz
'x, y, z'
'-x+1/2, -y+1/2, z+1/2'
'-x, y, -z+1/2'
'x+1/2, -y+1/2, -z'
'-x, -y, -z'
'x-1/2, y-1/2, -z-1/2'
'x, -y, z-1/2'
'-x-1/2, y-1/2, z'

_cell_length_a                   8.960(5)
_cell_length_b                   28.437(14)
_cell_length_c                   56.80(3)
_cell_angle_alpha                90.00
_cell_angle_beta                 90.00
_cell_angle_gamma                90.00
_cell_volume                     14473(14)
_cell_formula_units_Z            4
_cell_measurement_temperature    120(2)
_cell_measurement_reflns_used    ?
_cell_measurement_theta_min      ?
_cell_measurement_theta_max      ?

_exptl_crystal_description       ?
_exptl_crystal_colour            ?
_exptl_crystal_size_max          0.08
_exptl_crystal_size_mid          0.06
_exptl_crystal_size_min          0.05
_exptl_crystal_density_meas      ?
_exptl_crystal_density_diffrn    1.173
_exptl_crystal_density_method    'not measured'
_exptl_crystal_F_000             5092
_exptl_absorpt_coefficient_mu    1.415
_exptl_absorpt_correction_type   ?
_exptl_absorpt_correction_T_min  0.8952
_exptl_absorpt_correction_T_max  0.9326
_exptl_absorpt_process_details   ?

_exptl_special_details           
; 
 ? 
;

_diffrn_ambient_temperature      120(2)
_diffrn_radiation_wavelength     0.71073
_diffrn_radiation_type           MoK\a
_diffrn_radiation_source         'fine-focus sealed tube'
_diffrn_radiation_monochromator  graphite
_diffrn_measurement_device_type  ?
_diffrn_measurement_method       ?
_diffrn_detector_area_resol_mean ?
_diffrn_standards_number         ?
_diffrn_standards_interval_count ?
_diffrn_standards_interval_time  ?
_diffrn_standards_decay_%        ?
_diffrn_reflns_number            53291
_diffrn_reflns_av_R_equivalents  0.2273
_diffrn_reflns_av_sigmaI/netI    0.4694
_diffrn_reflns_limit_h_min       -10
_diffrn_reflns_limit_h_max       3
_diffrn_reflns_limit_k_min       -32
_diffrn_reflns_limit_k_max       26
_diffrn_reflns_limit_l_min       -66
_diffrn_reflns_limit_l_max       67
_diffrn_reflns_theta_min         0.72
_diffrn_reflns_theta_max         25.00
_reflns_number_total             12620
_reflns_number_gt                2628
_reflns_threshold_expression     >2sigma(I)

_computing_data_collection       ?
_computing_cell_refinement       ?
_computing_data_reduction        ?
_computing_structure_solution    'SHELXS-97 (Sheldrick, 1990)'
_computing_structure_refinement  'SHELXL-97 (Sheldrick, 1997)'
_computing_molecular_graphics    ?
_computing_publication_material  ?

_refine_special_details          
; 
 Refinement of F^2^ against ALL reflections.  The weighted R-factor wR and 
 goodness of fit S are based on F^2^, conventional R-factors R are based 
 on F, with F set to zero for negative F^2^. The threshold expression of 
 F^2^ > 2sigma(F^2^) is used only for calculating R-factors(gt) etc. and is 
 not relevant to the choice of reflections for refinement.  R-factors based 
 on F^2^ are statistically about twice as large as those based on F, and R- 
 factors based on ALL data will be even larger. 
;

_refine_ls_structure_factor_coef Fsqd
_refine_ls_matrix_type           full
_refine_ls_weighting_scheme      calc
_refine_ls_weighting_details     
'calc w=1/[\s^2^(Fo^2^)+(0.1707P)^2^+0.0000P] where P=(Fo^2^+2Fc^2^)/3'
_atom_sites_solution_primary     direct
_atom_sites_solution_secondary   difmap
_atom_sites_solution_hydrogens   geom
_refine_ls_hydrogen_treatment    mixed
_refine_ls_extinction_method     none
_refine_ls_extinction_coef       ?
_refine_ls_number_reflns         12620
_refine_ls_number_parameters     559
_refine_ls_number_restraints     468
_refine_ls_R_factor_all          0.2848
_refine_ls_R_factor_gt           0.1510
_refine_ls_wR_factor_ref         0.3994
_refine_ls_wR_factor_gt          0.3702
_refine_ls_goodness_of_fit_ref   0.829
_refine_ls_restrained_S_all      0.817
_refine_ls_shift/su_max          0.000
_refine_ls_shift/su_mean         0.000

loop_
_atom_site_label
_atom_site_type_symbol
_atom_site_fract_x
_atom_site_fract_y
_atom_site_fract_z
_atom_site_U_iso_or_equiv
_atom_site_adp_type
_atom_site_occupancy
_atom_site_symmetry_multiplicity
_atom_site_calc_flag
_atom_site_refinement_flags
_atom_site_disorder_assembly
_atom_site_disorder_group
C1 C 0.1760(12) 0.0316(4) 0.1810(2) 0.057(3) Uani 1 1 d GU . .
H1 H 0.2478 0.0561 0.1809 0.068 Uiso 1 1 calc R . .
N2 N 0.1173(14) 0.0092(4) 0.20137(15) 0.060(2) Uani 1 1 d GU . .
C3 C 0.0136(14) -0.0255(4) 0.1939(2) 0.062(3) Uani 1 1 d GU . .
H3 H -0.0424 -0.0458 0.2038 0.074 Uiso 1 1 calc R . .
C2 C 0.0083(13) -0.0245(4) 0.1689(2) 0.060(3) Uani 1 1 d GU . .
H2 H -0.0518 -0.0440 0.1592 0.072 Uiso 1 1 calc R . .
N1 N 0.1087(14) 0.0107(4) 0.16095(14) 0.057(3) Uani 1 1 d GU . .
C9 C 0.2774(14) 0.0657(3) 0.2534(2) 0.062(3) Uani 1 1 d GU . .
H9 H 0.3098 0.0960 0.2582 0.074 Uiso 1 1 calc R . .
C4 C 0.2244(14) 0.0587(4) 0.23065(19) 0.060(3) Uani 1 1 d GU . .
H4 H 0.2206 0.0842 0.2199 0.072 Uiso 1 1 calc R . .
C5 C 0.1771(14) 0.0143(4) 0.22364(16) 0.059(2) Uani 1 1 d GU . .
C6 C 0.1827(14) -0.0231(3) 0.2394(2) 0.060(3) Uani 1 1 d GU . .
H6 H 0.1504 -0.0535 0.2346 0.072 Uiso 1 1 calc R . .
C7 C 0.2357(14) -0.0161(4) 0.26210(19) 0.059(3) Uani 1 1 d GU . .
H7 H 0.2396 -0.0417 0.2729 0.071 Uiso 1 1 calc R . .
C8 C 0.2831(14) 0.0283(4) 0.26911(16) 0.058(2) Uani 1 1 d GU . .
C10 C 0.3023(10) 0.2324(4) 0.3509(2) 0.055(3) Uani 1 1 d GU . .
H10 H 0.4048 0.2367 0.3472 0.066 Uiso 1 1 calc R . .
C11 C 0.2118(13) 0.2640(3) 0.3639(2) 0.055(3) Uani 1 1 d GU . .
H11 H 0.2430 0.2932 0.3704 0.066 Uiso 1 1 calc R . .
N4 N 0.0663(11) 0.2445(4) 0.36548(19) 0.052(3) Uani 1 1 d GU . .
C12 C 0.0669(11) 0.2008(3) 0.3534(2) 0.051(3) Uani 1 1 d GU . .
H12 H -0.0157 0.1801 0.3517 0.061 Uiso 1 1 calc R . .
N3 N 0.2128(13) 0.1933(3) 0.34439(18) 0.053(2) Uani 1 1 d GU . .
C14 C 0.3838(12) 0.1371(4) 0.33333(19) 0.053(3) Uani 1 1 d GU . .
H14 H 0.4556 0.1511 0.3435 0.064 Uiso 1 1 calc R . .
C13 C 0.2408(14) 0.1559(3) 0.33190(19) 0.054(2) Uani 1 1 d GU . .
C18 C 0.1358(11) 0.1355(4) 0.3171(2) 0.056(3) Uani 1 1 d GU . .
H18 H 0.0381 0.1483 0.3161 0.067 Uiso 1 1 calc R . .
C17 C 0.1738(12) 0.0964(4) 0.30365(18) 0.057(3) Uani 1 1 d GU . .
H17 H 0.1020 0.0825 0.2935 0.068 Uiso 1 1 calc R . .
C16 C 0.3168(14) 0.0777(3) 0.30508(19) 0.056(2) Uani 1 1 d GU . .
C15 C 0.4218(11) 0.0980(4) 0.3199(2) 0.056(3) Uani 1 1 d GU . .
H15 H 0.5196 0.0853 0.3209 0.067 Uiso 1 1 calc R . .
C19 C 0.596(2) -0.1347(6) 0.3539(3) 0.050(3) Uani 1 1 d U . .
H19 H 0.5030 -0.1249 0.3601 0.060 Uiso 1 1 calc R . .
C20 C 0.807(2) -0.1689(6) 0.3505(3) 0.054(3) Uani 1 1 d U . .
H20 H 0.8930 -0.1873 0.3534 0.065 Uiso 1 1 calc R . .
C21 C 0.793(2) -0.1303(6) 0.3331(3) 0.051(3) Uani 1 1 d U . .
H21 H 0.8611 -0.1201 0.3214 0.061 Uiso 1 1 calc R . .
C27 C 0.5902(12) -0.0701(4) 0.30177(19) 0.049(3) Uani 1 1 d GU . .
H27 H 0.6481 -0.0916 0.2928 0.059 Uiso 1 1 calc R . .
C26 C 0.5200(13) -0.0325(4) 0.29071(14) 0.050(3) Uani 1 1 d GU . .
H26 H 0.5300 -0.0283 0.2742 0.060 Uiso 1 1 calc R . .
C25 C 0.4352(13) -0.0010(3) 0.30381(19) 0.050(2) Uani 1 1 d GU . .
C24 C 0.4205(12) -0.0071(4) 0.32798(18) 0.047(3) Uani 1 1 d GU . .
H24 H 0.3626 0.0144 0.3369 0.057 Uiso 1 1 calc R . .
C23 C 0.4907(13) -0.0447(4) 0.33904(14) 0.047(3) Uani 1 1 d GU . .
H23 H 0.4806 -0.0489 0.3556 0.056 Uiso 1 1 calc R . .
C22 C 0.5755(13) -0.0762(3) 0.32594(19) 0.049(2) Uani 1 1 d GU . .
N8 N 0.2126(12) -0.0211(3) 0.11077(17) 0.048(3) Uani 1 1 d GU . .
C28 C 0.1158(10) -0.0585(4) 0.1044(2) 0.045(3) Uani 1 1 d GU . .
H28 H 0.0150 -0.0621 0.1093 0.054 Uiso 1 1 calc R . .
C30 C 0.1961(13) -0.0897(3) 0.08955(19) 0.040(2) Uani 1 1 d GU . .
N9 N 0.3425(11) -0.0715(4) 0.08667(17) 0.048(2) Uani 1 1 d GU . .
C29 C 0.3527(10) -0.0291(3) 0.09978(19) 0.049(3) Uani 1 1 d GU . .
H29 H 0.4383 -0.0095 0.1010 0.059 Uiso 1 1 calc R . .
C32 C 0.0235(12) -0.1552(3) 0.09017(13) 0.035(2) Uani 1 1 d GU . .
H32 H -0.0088 -0.1457 0.1054 0.042 Uiso 1 1 calc R . .
C33 C -0.0408(10) -0.1941(3) 0.07941(17) 0.035(2) Uani 1 1 d GU . .
H33 H -0.1169 -0.2113 0.0873 0.042 Uiso 1 1 calc R . .
C34 C 0.0064(11) -0.2080(3) 0.05716(17) 0.034(2) Uani 1 1 d GU . .
C35 C 0.1178(11) -0.1829(3) 0.04566(13) 0.034(2) Uani 1 1 d GU . .
H35 H 0.1500 -0.1924 0.0304 0.040 Uiso 1 1 calc R . .
C36 C 0.1820(10) -0.1439(3) 0.05641(17) 0.034(2) Uani 1 1 d GU . .
H36 H 0.2582 -0.1268 0.0486 0.041 Uiso 1 1 calc R . .
C31 C 0.1349(11) -0.1301(3) 0.07867(17) 0.036(2) Uani 1 1 d GU . .
C37 C -0.2427(18) -0.3571(6) 0.0880(3) 0.035(2) Uani 1 1 d U . .
C38 C -0.3055(17) -0.3425(5) 0.0660(3) 0.034(2) Uani 1 1 d U . .
H38 H -0.3886 -0.3593 0.0599 0.040 Uiso 1 1 calc R . .
C39 C -0.2496(18) -0.3044(5) 0.0530(3) 0.032(2) Uani 1 1 d U . .
H39 H -0.3020 -0.2929 0.0397 0.038 Uiso 1 1 calc R . .
C40 C -0.1233(18) -0.2848(5) 0.0597(3) 0.032(2) Uani 1 1 d U . .
C41 C -0.0467(18) -0.2993(5) 0.0797(3) 0.032(2) Uani 1 1 d U . .
H41 H 0.0435 -0.2840 0.0839 0.038 Uiso 1 1 calc R . .
C42 C -0.1007(17) -0.3367(5) 0.0939(3) 0.032(2) Uani 1 1 d U . .
H42 H -0.0446 -0.3479 0.1069 0.038 Uiso 1 1 calc R . .
C47 C 0.0094(12) -0.3113(3) -0.00935(18) 0.040(2) Uani 1 1 d GU . .
H47 H 0.0425 -0.3414 -0.0143 0.048 Uiso 1 1 calc R . .
C46 C -0.0028(12) -0.3013(3) 0.01454(16) 0.039(2) Uani 1 1 d GU . .
H46 H 0.0221 -0.3247 0.0259 0.047 Uiso 1 1 calc R . .
C51 C -0.0513(12) -0.2573(4) 0.02185(13) 0.037(2) Uani 1 1 d GU . .
C50 C -0.0877(12) -0.2232(3) 0.00529(18) 0.041(2) Uani 1 1 d GU . .
H50 H -0.1209 -0.1931 0.0103 0.049 Uiso 1 1 calc R . .
C49 C -0.0756(12) -0.2331(3) -0.01859(16) 0.040(2) Uani 1 1 d GU . .
H49 H -0.1005 -0.2098 -0.0299 0.048 Uiso 1 1 calc R . .
C48 C -0.0271(12) -0.2772(4) -0.02591(13) 0.043(2) Uani 1 1 d GU . .
C52 C -0.0844(12) -0.2629(3) -0.06770(19) 0.046(3) Uani 1 1 d GU . .
H52 H -0.1508 -0.2371 -0.0659 0.056 Uiso 1 1 calc R . .
N13 N 0.0002(13) -0.2843(4) -0.04946(14) 0.047(2) Uani 1 1 d GU . .
C53 C 0.0847(12) -0.3215(4) -0.05953(19) 0.048(3) Uani 1 1 d GU . .
H53 H 0.1511 -0.3417 -0.0513 0.058 Uiso 1 1 calc R . .
C54 C 0.0523(13) -0.3231(4) -0.08399(17) 0.048(3) Uani 1 1 d GU . .
H54 H 0.0934 -0.3445 -0.0950 0.057 Uiso 1 1 calc R . .
N12 N -0.0521(12) -0.2869(4) -0.08904(14) 0.049(3) Uani 1 1 d GU . .
Cl1 Cl 0.3412(5) 0.08133(15) 0.12813(7) 0.0513(13) Uani 1 1 d . . .
Cl2 Cl -0.2951(6) -0.21359(17) -0.12540(8) 0.0599(15) Uani 1 1 d . . .
I1 I -0.2278(4) -0.42104(11) 0.00620(5) 0.2162(16) Uani 1 1 d . . .
I2 I 0.0000 -0.5000 0.0000 0.231(2) Uani 1 2 d S . .
N7 N 0.3525(17) 0.0348(5) 0.2920(2) 0.054(2) Uani 1 1 d U . .
N5 N 0.6597(18) -0.1141(5) 0.3384(3) 0.049(2) Uani 1 1 d U . .
N6 N 0.6687(17) -0.1731(5) 0.3617(2) 0.052(3) Uani 1 1 d U . .
N10 N -0.0646(14) -0.2492(4) 0.0462(2) 0.0341(19) Uani 1 1 d U . .
N11 N -0.4712(9) -0.4418(3) 0.11741(17) 0.042(2) Uani 1 1 d GU . .
C44 C -0.3278(11) -0.4626(3) 0.11963(18) 0.043(3) Uani 1 1 d GU . .
H44 H -0.3062 -0.4918 0.1270 0.051 Uiso 1 1 calc R . .
C43 C -0.2225(8) -0.4322(4) 0.10880(19) 0.040(2) Uani 1 1 d GU . .
H43 H -0.1180 -0.4375 0.1077 0.047 Uiso 1 1 calc R . .
N14 N -0.3008(11) -0.3926(3) 0.09989(16) 0.036(2) Uani 1 1 d GU . .
C45 C -0.4545(10) -0.3986(3) 0.10521(17) 0.037(2) Uani 1 1 d GU . .
H45 H -0.5325 -0.3773 0.1013 0.044 Uiso 1 1 calc R . .
Zn1 Zn 0.1563(2) 0.03105(7) 0.12988(4) 0.0454(6) Uani 1 1 d . . .
Zn2 Zn -0.1198(2) -0.26979(7) -0.12036(4) 0.0457(6) Uani 1 1 d . . .

loop_
_atom_site_aniso_label
_atom_site_aniso_U_11
_atom_site_aniso_U_22
_atom_site_aniso_U_33
_atom_site_aniso_U_23
_atom_site_aniso_U_13
_atom_site_aniso_U_12
C1 0.064(6) 0.056(6) 0.051(5) 0.005(5) 0.007(5) 0.008(5)
N2 0.067(5) 0.060(5) 0.053(5) 0.001(4) 0.008(5) 0.010(4)
C3 0.069(6) 0.063(6) 0.053(5) 0.004(5) 0.007(5) 0.006(5)
C2 0.066(6) 0.064(6) 0.051(5) 0.003(5) 0.005(5) 0.008(5)
N1 0.064(6) 0.058(6) 0.047(5) 0.005(5) 0.005(5) 0.008(5)
C9 0.068(5) 0.059(5) 0.059(5) 0.001(5) 0.002(5) 0.012(5)
C4 0.064(5) 0.058(5) 0.057(5) -0.001(5) 0.005(5) 0.014(5)
C5 0.064(5) 0.059(5) 0.056(5) 0.000(4) 0.008(4) 0.012(5)
C6 0.065(5) 0.057(5) 0.059(5) 0.001(5) 0.009(5) 0.012(5)
C7 0.066(5) 0.055(5) 0.057(5) 0.003(5) 0.004(5) 0.011(5)
C8 0.067(5) 0.052(5) 0.055(4) 0.001(4) 0.001(4) 0.011(4)
C10 0.068(6) 0.040(6) 0.057(5) -0.001(5) -0.008(5) 0.009(5)
C11 0.069(6) 0.038(6) 0.057(6) -0.003(5) -0.006(5) 0.007(5)
N4 0.068(6) 0.038(5) 0.051(5) -0.002(4) -0.002(5) 0.009(5)
C12 0.069(6) 0.035(5) 0.049(5) -0.003(5) -0.001(5) 0.008(5)
N3 0.069(5) 0.038(5) 0.052(5) -0.004(4) -0.007(4) 0.010(4)
C14 0.067(5) 0.042(5) 0.051(5) -0.006(4) -0.005(5) 0.004(5)
C13 0.069(5) 0.042(5) 0.050(5) -0.007(4) -0.006(4) 0.008(4)
C18 0.068(5) 0.047(5) 0.052(5) -0.009(4) -0.006(5) 0.011(5)
C17 0.069(5) 0.049(5) 0.051(5) -0.010(4) -0.006(5) 0.011(5)
C16 0.069(5) 0.049(5) 0.051(4) -0.006(4) -0.005(4) 0.010(4)
C15 0.067(5) 0.047(5) 0.054(5) -0.005(4) -0.005(5) 0.006(5)
C19 0.055(6) 0.042(5) 0.052(5) 0.008(5) -0.006(5) 0.004(5)
C20 0.059(6) 0.048(6) 0.055(6) 0.007(5) -0.008(5) 0.002(5)
C21 0.058(6) 0.044(5) 0.052(5) 0.010(5) -0.008(5) -0.002(5)
C27 0.056(5) 0.042(5) 0.050(5) 0.004(4) -0.003(5) 0.006(5)
C26 0.057(5) 0.044(5) 0.049(5) 0.004(4) -0.003(5) 0.006(5)
C25 0.060(5) 0.043(4) 0.047(4) 0.001(4) -0.001(4) 0.005(4)
C24 0.057(5) 0.041(5) 0.044(5) -0.001(4) -0.004(5) 0.002(5)
C23 0.055(5) 0.041(5) 0.045(5) 0.001(4) -0.004(5) 0.001(5)
C22 0.055(5) 0.042(5) 0.049(4) 0.004(4) -0.004(4) 0.001(4)
N8 0.050(5) 0.036(5) 0.057(5) 0.012(5) -0.008(5) -0.001(5)
C28 0.047(5) 0.036(5) 0.053(5) 0.006(5) -0.010(5) -0.002(5)
C30 0.045(5) 0.029(5) 0.045(5) 0.006(4) -0.011(4) 0.000(4)
N9 0.053(5) 0.036(5) 0.054(5) 0.006(4) -0.011(5) 0.001(5)
C29 0.054(5) 0.035(5) 0.058(6) 0.011(5) -0.008(5) 0.001(5)
C32 0.044(5) 0.027(5) 0.035(5) 0.004(4) -0.009(4) 0.000(4)
C33 0.042(5) 0.028(5) 0.035(5) 0.003(4) -0.007(4) -0.002(4)
C34 0.039(4) 0.025(4) 0.037(4) -0.004(4) -0.006(4) -0.001(4)
C35 0.040(5) 0.024(5) 0.036(5) 0.001(4) -0.005(4) 0.001(4)
C36 0.039(5) 0.025(5) 0.038(5) 0.005(4) -0.003(4) 0.003(4)
C31 0.043(4) 0.027(4) 0.038(4) 0.004(4) -0.011(4) 0.003(4)
C37 0.038(4) 0.035(4) 0.031(4) 0.003(4) 0.002(4) -0.007(4)
C38 0.035(5) 0.035(5) 0.031(5) 0.003(4) -0.001(4) -0.007(4)
C39 0.035(5) 0.030(5) 0.030(5) 0.002(4) 0.001(4) -0.004(4)
C40 0.036(4) 0.029(4) 0.030(4) 0.000(4) 0.002(4) -0.005(4)
C41 0.038(5) 0.029(5) 0.029(5) 0.000(4) 0.001(4) -0.008(4)
C42 0.038(5) 0.030(5) 0.028(5) -0.002(4) 0.000(4) -0.007(4)
C47 0.044(5) 0.035(5) 0.042(5) 0.000(4) 0.000(5) -0.001(5)
C46 0.041(5) 0.035(5) 0.042(5) -0.001(4) 0.002(5) -0.001(5)
C51 0.040(4) 0.030(4) 0.041(4) -0.001(4) 0.000(4) -0.005(4)
C50 0.040(5) 0.036(5) 0.047(5) -0.004(4) -0.001(5) -0.004(4)
C49 0.041(5) 0.035(5) 0.043(5) -0.004(4) 0.000(5) -0.002(5)
C48 0.049(4) 0.035(4) 0.044(4) -0.004(4) 0.000(4) -0.002(4)
C52 0.062(6) 0.032(5) 0.045(5) -0.006(4) 0.003(5) -0.007(5)
N13 0.060(5) 0.035(4) 0.046(4) -0.003(4) 0.003(4) -0.005(4)
C53 0.060(6) 0.035(5) 0.049(5) -0.002(5) 0.006(5) -0.008(5)
C54 0.061(6) 0.034(5) 0.048(5) -0.001(5) 0.004(5) -0.008(5)
N12 0.065(6) 0.033(5) 0.049(5) -0.007(4) 0.005(5) -0.007(5)
Cl1 0.065(3) 0.048(3) 0.042(3) 0.013(2) -0.007(3) -0.026(3)
Cl2 0.064(4) 0.064(4) 0.052(3) 0.003(3) 0.008(3) 0.011(3)
I1 0.267(4) 0.211(3) 0.170(3) 0.051(2) -0.047(3) -0.094(3)
I2 0.315(6) 0.207(4) 0.172(4) 0.007(3) -0.029(4) -0.128(4)
N7 0.065(4) 0.047(4) 0.050(4) -0.005(4) -0.002(4) 0.010(4)
N5 0.056(5) 0.042(5) 0.049(5) 0.009(4) -0.006(4) 0.000(4)
N6 0.056(6) 0.044(5) 0.056(6) 0.006(5) -0.008(5) 0.003(5)
N10 0.038(4) 0.027(4) 0.037(4) -0.003(3) -0.001(4) -0.004(3)
N11 0.042(5) 0.044(5) 0.039(5) 0.006(4) 0.003(5) -0.012(5)
C44 0.041(5) 0.045(6) 0.041(5) 0.005(5) 0.001(5) -0.013(5)
C43 0.041(5) 0.041(5) 0.037(5) 0.007(4) 0.002(5) -0.010(5)
N14 0.038(4) 0.036(4) 0.033(4) 0.007(4) 0.003(4) -0.008(4)
C45 0.039(5) 0.037(5) 0.035(5) 0.007(4) 0.003(5) -0.010(5)
Zn1 0.0478(13) 0.0417(14) 0.0466(13) -0.0027(11) -0.0078(11) 0.0050(12)
Zn2 0.0577(14) 0.0377(13) 0.0416(13) -0.0011(10) 0.0007(12) -0.0038(12)

_geom_special_details            
; 
 All esds (except the esd in the dihedral angle between two l.s. planes) 
 are estimated using the full covariance matrix.  The cell esds are taken 
 into account individually in the estimation of esds in distances, angles 
 and torsion angles; correlations between esds in cell parameters are only 
 used when they are defined by crystal symmetry.  An approximate (isotropic) 
 treatment of cell esds is used for estimating esds involving l.s. planes. 
;

loop_
_