####################################################################### 
# 
# This file contains crystal structure data downloaded from the 
# Cambridge Structural Database (CSD) hosted by the Cambridge 
# Crystallographic Data Centre (CCDC).
# 
# Full information about CCDC data access policies and citation 
# guidelines are available at http://www.ccdc.cam.ac.uk/access/V1 
# 
# Audit and citation data items may have been added by the CCDC. 
# Please retain this information to preserve the provenance of 
# this file and to allow appropriate attribution of the data. 
# 
#######################################################################

data_NI_PRIME_R3M_R_publ
_audit_block_doi                 10.5517/cc13s9jq
_database_code_depnum_ccdc_archive 'CCDC 1036253'
loop_
_citation_id
_citation_doi
_citation_year
1 10.1021/ja506230r 2014
_audit_update_record             
;
2014-10-08 deposited with the CCDC.	2024-07-11 downloaded from the CCDC.
;

_pd_block_id                     2013-03-28T14:21|NI_PRIME_R3M_R||BT1

_audit_creation_method           'from EXP file using GSAS2CIF'
_audit_creation_date             2013-03-28T14:21

#=============================================================================
# 5. OVERALL REFINEMENT & COMPUTING DETAILS

_refine_special_details          
; ?
;
_pd_proc_ls_special_details      
; ?
;

# The following items are used to identify the programs used.
_computing_molecular_graphics    ?
_computing_publication_material  ?

_refine_ls_weighting_scheme      ?
_refine_ls_weighting_details     ?
_refine_ls_hydrogen_treatment    ?
_refine_ls_extinction_method     ?
_refine_ls_extinction_coef       ?
_refine_ls_number_constraints    ?

_refine_ls_restrained_S_all      ?
_refine_ls_restrained_S_obs      ?

#==============================================================================
# 6. SAMPLE PREPARATION DATA

# (In the unusual case where multiple samples are used in a single
#  Rietveld study, this information should be moved into the phase
#  blocks)

# The following three fields describe the preparation of the material.
# The cooling rate is in K/min.  The pressure at which the sample was
# prepared is in kPa.  The temperature of preparation is in K.

_pd_prep_cool_rate               ?
_pd_prep_pressure                ?
_pd_prep_temperature             ?

_pd_char_colour                  ? # use ICDD colour descriptions
_refine_ls_shift/su_max          8.48
_refine_ls_shift/su_mean         2.98
_computing_structure_refinement  GSAS
_refine_ls_number_parameters     55
_refine_ls_goodness_of_fit_all   1.09
_refine_ls_number_restraints     16
_refine_ls_matrix_type           full
#==============================================================================
# 7. CHEMICAL, STRUCTURAL AND CRYSTAL DATA

_pd_char_particle_morphology     ?

_chemical_name_systematic        
; ?
;
_chemical_name_common            ?
_chemical_formula_moiety         ?
_chemical_formula_structural     ?
_chemical_formula_analytical     ?
_chemical_melting_point          ?
_chemical_compound_source        ? # for minerals and
# natural products
_symmetry_space_group_name_Hall  ?

_exptl_crystal_F_000             ?
_exptl_crystal_density_diffrn    ?
_exptl_crystal_density_meas      ?
_exptl_crystal_density_method    ?

_cell_measurement_temperature    ?

_cell_special_details            
; ?
;

_geom_special_details            ?

# The following item identifies the program(s) used (if appropriate).
_computing_structure_solution    ?

#==============================================================================

# 8. Phase information from GSAS

_pd_phase_name                   Ni-prime_10K
_cell_length_a                   25.797(5)
_cell_length_b                   25.797
_cell_length_c                   6.7292(17)
_cell_angle_alpha                90.0
_cell_angle_beta                 90.0
_cell_angle_gamma                120.0
_cell_volume                     3878.2(13)
_symmetry_cell_setting           trigonal
_symmetry_space_group_name_H-M   'R 3 m'
loop_
_symmetry_equiv_pos_site_id
_symmetry_equiv_pos_as_xyz
1 +x,+y,+z
2 -y,x-y,+z
3 y-x,-x,+z
4 y-x,+y,+z
5 -y,-x,+z
6 +x,x-y,+z
101 +x+1/3,+y+2/3,+z+2/3
102 -y+1/3,x-y+2/3,+z+2/3
103 y-x+1/3,-x+2/3,+z+2/3
104 y-x+1/3,+y+2/3,+z+2/3
105 -y+1/3,-x+2/3,+z+2/3
106 +x+1/3,x-y+2/3,+z+2/3
201 +x+2/3,+y+1/3,+z+1/3
202 -y+2/3,x-y+1/3,+z+1/3
203 y-x+2/3,-x+1/3,+z+1/3
204 y-x+2/3,+y+1/3,+z+1/3
205 -y+2/3,-x+1/3,+z+1/3
206 +x+2/3,x-y+1/3,+z+1/3

# ATOMIC COORDINATES AND DISPLACEMENT PARAMETERS


loop_
_atom_site_type_symbol
_atom_site_label
_atom_site_fract_x
_atom_site_fract_y
_atom_site_fract_z
_atom_site_occupancy
_atom_site_thermal_displace_type
_atom_site_U_iso_or_equiv
_atom_site_symmetry_multiplicity
C C1 0.6580(16) 0.8781(14) 0.837(6) 1.0 Uiso 0.034(14) 18
C C2 0.6657(25) 0.8329(13) 0.746(10) 1.0 Uiso 0.027(19) 9
C C6 0.6394(16) 0.8657(14) 0.043(6) 1.0 Uiso 0.006(10) 18
C C11 0.6320(14) 0.9091(11) 0.166(5) 1.0 Uiso 0.011(9) 18
Ni Ni1 0.3285(13) 0.3757(11) 0.5552(29) 1.0 Uiso 0.020(6) 18
H H7 0.679(4) 0.8394(21) 0.580(14) 1.0 Uiso 0.051(35) 9
O O9 0.6690(16) 0.9254(16) 0.749(7) 1.0 Uiso 0.017(12) 18
O O12 0.6523(14) 0.9624(15) 0.096(5) 1.0 Uiso 0.022(16) 18
O O15 0.6098(18) 0.8912(17) 0.338(7) 1.0 Uiso 0.037(14) 18
C C2m 0.6278(22) 0.8140(11) 0.128(7) 1.0 Uiso 0.011(14) 9
H H7m 0.6188(34) 0.8094(17) 0.275(13) 1.0 Uiso 0.006(19) 9

# If you change Z, be sure to change all 3 of the following
_chemical_formula_sum            'C4 H Ni O3'
_chemical_formula_weight         155.75
_cell_formula_units_Z            18

# MOLECULAR GEOMETRY

loop_
_geom_bond_atom_site_label_1
_geom_bond_atom_site_label_2
_geom_bond_distance
_geom_bond_site_symmetry_1
_geom_bond_site_symmetry_2
_geom_bond_publ_flag
C1 C2 1.42(4) . 1_555 N
C1 C6 1.44(4) . 1_556 N
C1 O9 1.26(4) . 1_555 N
C2 C1 1.42(4) . 1_555 N
C2 C1 1.42(4) . 6_565 N
C2 H7 1.15(13) . 1_555 N
C6 C1 1.44(4) . 1_554 N
C6 C11 1.48(5) . 1_555 N
C6 C2m 1.342(31) . 1_555 N
C6 H7m 2.02(9) . 1_555 N
C11 C6 1.48(5) . 1_555 N
C11 O12 1.29(4) . 1_555 N
C11 O15 1.27(4) . 1_555 N
Ni1 O9 2.08(4) . 3_565 N
Ni1 O9 2.01(4) . 102_654 N
Ni1 O12 1.984(30) . 102_655 N
Ni1 O12 2.13(4) . 201_445 N
Ni1 O15 2.05(5) . 3_565 N
H7 C2 1.15(13) . 1_555 N
O9 C1 1.26(4) . 1_555 N
O9 Ni1 2.08(4) . 2_665 N
O9 Ni1 2.01(4) . 203_565 N
O12 C11 1.29(4) . 1_555 N
O12 Ni1 2.13(4) . 101_554 N
O12 Ni1 1.984(30) . 203_564 N
O15 C11 1.27(4) . 1_555 N
O15 Ni1 2.05(5) . 2_665 N
C2m C6 1.342(31) . 1_555 N
C2m C6 1.345(31) . 6_565 N
C2m H7m 1.01(12) . 1_555 N
H7m C6 2.02(9) . 1_555 N
H7m C6 2.02(9) . 6_565 N
H7m C2m 1.01(12) . 1_555 N

loop_
_geom_angle_atom_site_label_1
_geom_angle_atom_site_label_2
_geom_angle_atom_site_label_3
_geom_angle
_geom_angle_site_symmetry_1
_geom_angle_site_symmetry_2
_geom_angle_site_symmetry_3
_geom_angle_publ_flag
C2 C1 C6 114(4) 1_555 . 1_556 N
C2 C1 O9 123(5) 1_555 . 1_555 N
C6 C1 O9 124(4) 1_556 . 1_555 N
C1 C2 C1 127(6) 1_555 . 6_565 N
C1 C2 H7 116.8(32) 1_555 . 1_555 N
C1 C2 H7 116.6(32) 6_565 . 1_555 N
C1 C6 C11 121.5(27) 1_554 . 1_555 N
C1 C6 C2m 121(4) 1_554 . 1_555 N
C11 C6 C2m 118(4) 1_555 . 1_555 N
C6 C11 O12 117.8(35) 1_555 . 1_555 N
C6 C11 O15 116.1(27) 1_555 . 1_555 N
O12 C11 O15 126(4) 1_555 . 1_555 N
O9 Ni1 O9 165.2(25) 3_565 . 102_654 N
O9 Ni1 O12 82.6(13) 3_565 . 102_655 N
O9 Ni1 O12 94.2(14) 3_565 . 201_445 N
O9 Ni1 O15 95.8(22) 3_565 . 3_565 N
O9 Ni1 O12 82.8(21) 102_654 . 102_655 N
O9 Ni1 O12 80.9(13) 102_654 . 201_445 N
O9 Ni1 O15 98.6(20) 102_654 . 3_565 N
O12 Ni1 O12 81.3(7) 102_655 . 201_445 N
O12 Ni1 O15 176.7(21) 102_655 . 3_565 N
O12 Ni1 O15 95.8(16) 201_445 . 3_565 N
C1 O9 Ni1 137.0(34) 1_555 . 2_665 N
C1 O9 Ni1 120(4) 1_555 . 203_565 N
Ni1 O9 Ni1 94.6(17) 2_665 . 203_565 N
C11 O12 Ni1 132.7(31) 1_555 . 101_554 N
C11 O12 Ni1 129.1(30) 1_555 . 203_564 N
Ni1 O12 Ni1 94.2(13) 101_554 . 203_564 N
C11 O15 Ni1 119.6(28) 1_555 . 2_665 N
C6 C2m C6 124(5) 1_555 . 6_565 N
C6 C2m H7m 117.4(28) 1_555 . 1_555 N
C6 C2m H7m 117.0(28) 6_565 . 1_555 N

# Powder diffraction data for histogram  5
#==============================================================================
# 9. INSTRUMENT CHARACTERIZATION

_exptl_special_details           
; ?
;

# if regions of the data are excluded, the reason(s) are supplied here:
_pd_proc_info_excluded_regions   
; ?
;

# The following item is used to identify the equipment used to record
# the powder pattern when the diffractogram was measured at a laboratory
# other than the authors' home institution, e.g. when neutron or synchrotron
# radiation is used.

_pd_instr_location               
; ?
;
_pd_calibration_special_details  
# description of the method used
# to calibrate the instrument
; ?
;

_diffrn_ambient_temperature      ?
_diffrn_source                   ?
_diffrn_source_target            ?
_diffrn_source_type              ?
_diffrn_measurement_device_type  ?
_diffrn_detector                 ?
_diffrn_detector_type            ? # make or model of detector

_pd_meas_scan_method             ? # options are 'step', 'cont',
# 'tof', 'fixed' or
# 'disp' (= dispersive)
_pd_meas_special_details         
;  ?
;

# The following two items identify the program(s) used (if appropriate).
_computing_data_collection       ?
_computing_data_reduction        ?

# Describe any processing performed on the data, prior to refinement.
# For example: a manual Lp correction or a precomputed absorption correction
_pd_proc_info_data_reduction     ?

# The following item is used for angular dispersive measurements only.

_diffrn_radiation_monochromator  ?

# The following items are used to define the size of the instrument.
# Not all distances are appropriate for all instrument types.

_pd_instr_dist_src/mono          ?
_pd_instr_dist_mono/spec         ?
_pd_instr_dist_src/spec          ?
_pd_instr_dist_spec/anal         ?
_pd_instr_dist_anal/detc         ?
_pd_instr_dist_spec/detc         ?

# 10. Specimen size and mounting information

# The next three fields give the specimen dimensions in mm.  The equatorial
# plane contains the incident and diffracted beam.

_pd_spec_size_axial              ? # perpendicular to
# equatorial plane

_pd_spec_size_equat              ? # parallel to
# scattering vector
# in transmission

_pd_spec_size_thick              ? # parallel to
# scattering vector
# in reflection

_pd_spec_mounting                
# This field should be
# used to give details of the
# container.
; ?
;

_pd_spec_mount_mode              ? # options are 'reflection'
# or 'transmission'

_pd_spec_shape                   ? # options are 'cylinder'
# 'flat_sheet' or 'irregular'


loop_
_atom_type_symbol
_atom_type_number_in_cell
_atom_type_scat_length_neutron
_atom_type_scat_source
C 72.0 0.6646 International_Tables_Vol_C
Ni 18.0 1.0300 International_Tables_Vol_C
H 18.0 -0.3739 International_Tables_Vol_C
O 54.0 0.5803 International_Tables_Vol_C
_diffrn_radiation_probe          neutron
_diffrn_radiation_wavelength     2.078
_pd_proc_ls_prof_R_factor        0.0348
_pd_proc_ls_prof_wR_factor       0.0427
_pd_proc_ls_prof_wR_expected     0.0395
_refine_ls_R_Fsqd_factor         0.08281

_pd_proc_ls_background_function  
;   GSAS Background function number 1 with 12 terms.
 Shifted Chebyshev function of 1st kind
      1:    564.093     2:   -113.485     3:    121.765     4:   -25.7108    
      5:    73.0397     6:   -14.9361     7:    45.4455     8:   -10.7457    
      9:    14.6561    10:   0.893725    11:    8.59114    12:   -2.84764    
;

_exptl_absorpt_process_details   
;   GSAS Absorption/surface roughness correction: function number 0
 No correction is applied.
;
_exptl_absorpt_correction_T_min  1.00000
_exptl_absorpt_correction_T_max  1.00000
# Extinction correction
_gsas_exptl_extinct_corr_T_min   1.00000
_gsas_exptl_extinct_corr_T_max   1.00000

_pd_proc_ls_profile_function     
;
 CW Profile function number 3 with  19 terms
 Pseudovoigt profile coefficients as parameterized in
 P. Thompson, D.E. Cox & J.B. Hastings (1987). J. Appl. Cryst.,20,79-83.
 Asymmetry correction of L.W. Finger, D.E. Cox & A. P. Jephcoat (1994).
 J. Appl. Cryst.,27,892-900.
 #1(GU)   =    0.100 #2(GV)   =   -0.100 #3(GW)   =   94.427
 #4(GP)   =    0.000 #5(LX)   =    6.870 #6(LY)   =  127.788
 #7(S/L)  =   0.0559 #8(H/L)  =   0.0226
 #9(trns) =     0.00 #10(shft)=   0.0000
 #11(stec)=     0.00 #12(ptec)=     0.00 #13(sfec)=     0.00
 #14(L11) =    0.000 #15(L22) =    0.000 #16(L33) =    0.000
 #17(L12) =    0.000 #18(L13) =    0.000 #19(L23) =    0.000
 Peak tails are ignored  where the intensity is below 0.0010 times the peak
   Aniso. broadening axis   0.0   0.0   1.0
;
_pd_proc_ls_peak_cutoff          0.00100
_pd_proc_info_datetime           2013-03-28T14:21:50
_pd_calc_method                  'Rietveld Refinement'

#---- raw/calc data loop -----
_pd_meas_2theta_range_min        1.5
_pd_meas_2theta_range_max        166.25
_pd_meas_2theta_range_inc        0.05
_pd_proc_2theta_range_min        1.5247
_pd_proc_2theta_range_max        166.2747
_pd_proc_2theta_range_inc        0.05

loop_
_pd_meas_intensity_total
_pd_proc_ls_weight
_pd_proc_intensity_bkg_calc
_pd_calc_intensity_total
4930(150) 0.0 1753. .
4380(140) 0.0 1742. .
3990(140) 0.0 1731. .
3740(130) 0.0 1719. .
3710(130) 0.0 1708. .
3520(130) 0.0 1698. .
3250(120) 0.0 1687. .
3250(120) 0.0 1676. .
3180(120) 0.0 1665. .
3080(120) 0.0 1655. .
2830(110) 0.0 1644. .
2780(110) 0.0 1634. .
2700(110) 0.0 1624. .
2580(110) 0.0 1614. .
2530(110) 0.0 1604. .
2560(110) 0.0 1594. .
2520(110) 0.0 1584. .
2530(110) 0.0 1574. .
2440(110) 0.0 1564. .
2580(110) 0.0 1555. .
2310(100) 0.0 1545. .
2240(100) 0.0 1536. .
2290(100) 0.0 1526. .
2270(100) 0.0 1517. .
2041(97) 0.0 1508. .
2170(100) 0.0 1499. .
2220(100) 0.0 1490. .
2141(99) 0.0 1481. .
2078(97) 0.0 1472. .
2005(96) 0.0 1463. .
1692(88) 0.0 1454. .
1846(92) 0.0 1446. .
1769(90) 0.0 1437. .
1824(91) 0.0 1429. .
1696(88) 0.0 1420. .
1588(85) 0.0 1412. .
1578(85) 0.0 1404. .
1542(84) 0.0 1396. .
1651(87) 0.0 1387. .
1565(85) 0.0 1379. .
1456(82) 0.0 1371. .
1647(87) 0.0 1364. .
1524(84) 0.0 1356. .
1492(83) 0.0 1348. .
1460(82) 0.0 1340. .
1406(80) 0.0 1333. .
1324(78) 0.0 1325. .
1333(78) 0.0 1318. .
1401(80) 0.0 1310. .
1342(78) 0.0 1303. .
1406(80) 0.0 1296. .
1379(80) 0.0 1289. .
1220(75) 0.0 1282. .
1265(76) 0.0 1274. .
1306(77) 0.0 1267. .
1388(80) 0.0 1261. .
1188(74) 0.0 1254. .
1211(75) 0.0 1247. .
1265(76) 0.0 1240. .
1297(77) 0.0 1233. .
1342(78) 0.0 1227. .
1247(76) 0.0 1220. .
1311(78) 0.0 1214. .
1243(76) 0.0 1207. .
1270(76) 0.0 1201. .
1179(74) 0.0 1195. .
1265(76) 0.0 1188. .
1143(72) 0.0 1182. .
1006(68) 0.0 1176. .
1233(75) 0.0 1170. .
1011(68) 0.0 1164. .
1006(68) 0.0 1158. .
1093(71) 0.0 1152. .
1174(73) 0.0 1146. .
1093(71) 0.0 1141. .
1038(69) 0.0 1135. .
1143(72) 0.0 1129. .
1138(72) 0.0 1123. .
1079(70) 0.0 1118. .
1206(74) 0.0 1112. .
1047(69) 0.0 1107. .
1006(68) 0.0 1101. .
966(67) 0.0 1096. .
1011(68) 0.0 1091. .
925(65) 0.0 1085. .
975(67) 0.0 1080. .
938(66) 0.0 1075. .
1120(72) 0.0 1070. .
1047(69) 0.0 1065. .
1029(69) 0.0 1060. .
1097(71) 0.0 1055. .
997(68) 0.0 1050. .
979(67) 0.0 1045. .
1011(68) 0.0 1040. .
988(67) 0.0 1035. .
1061(70) 0.0 1031. .
979(67) 0.0 1026. .
1174(73) 0.0 1021. .
911(65) 0.0 1017. .
943(66) 0.0 1012. .
1031(47) 0.0 1008. .
1030(47) 0.0 1003. .
1011(46) 0.0 999. .
1089(48) 0.000434 994. 1035.
972(45) 0.000494 990. 1032.
959(45) 0.000494 986. 1030.
993(46) 0.000473 982. 1027.
942(45) 0.000494 977. 1025.
926(44) 0.000517 973. 1024.
972(46) 0.000473 969. 1022.
1009(46) 0.000473 965. 1020.
897(44) 0.000517 961. 1019.
914(44) 0.000517 957. 1019.
942(45) 0.000494 953. 1018.
941(45) 0.000494 949. 1018.
997(46) 0.000473 945. 1018.
1013(47) 0.000453 941. 1019.
1005(46) 0.000473 937. 1021.
1020(47) 0.000453 934. 1023.
1077(48) 0.000434 930. 1025.
1062(48) 0.000434 926. 1029.
1146(49) 0.000416 922. 1033.
10