####################################################################### 
# 
# This file contains crystal structure data downloaded from the 
# Cambridge Structural Database (CSD) hosted by the Cambridge 
# Crystallographic Data Centre (CCDC).
# 
# Full information about CCDC data access policies and citation 
# guidelines are available at http://www.ccdc.cam.ac.uk/access/V1 
# 
# Audit and citation data items may have been added by the CCDC. 
# Please retain this information to preserve the provenance of 
# this file and to allow appropriate attribution of the data. 
# 
#######################################################################

data_CP-2
_audit_block_doi                 10.5517/cc130xjk
_database_code_depnum_ccdc_archive 'CCDC 1013778'
loop_
_citation_id
_citation_doi
_citation_year
1 10.1002/chem.201404552 2015
_audit_update_record             
;
2014-07-13 deposited with the CCDC.	2024-07-11 downloaded from the CCDC.
;

_audit_creation_method           'Manual edit of SHELXL-97 CIF'
_chemical_name_systematic        
; 
 ? 
;
_chemical_name_common            'CP-Guest complex'
_chemical_melting_point          ?
_chemical_formula_moiety         ?
_chemical_formula_sum            'C41 H47 Cd Cl2 N5 O8'
_chemical_formula_weight         921.14

loop_
_atom_type_symbol
_atom_type_description
_atom_type_scat_dispersion_real
_atom_type_scat_dispersion_imag
_atom_type_scat_source
C C 0.0033 0.0016 'International Tables Vol C Tables 4.2.6.8 and 6.1.1.4'
H H 0.0000 0.0000 'International Tables Vol C Tables 4.2.6.8 and 6.1.1.4'
N N 0.0061 0.0033 'International Tables Vol C Tables 4.2.6.8 and 6.1.1.4'
O O 0.0106 0.0060 'International Tables Vol C Tables 4.2.6.8 and 6.1.1.4'
Cl Cl 0.1484 0.1585 'International Tables Vol C Tables 4.2.6.8 and 6.1.1.4'
Cd Cd -0.8075 1.2024 'International Tables Vol C Tables 4.2.6.8 and 6.1.1.4'

_symmetry_cell_setting           Monoclinic
_symmetry_space_group_name_H-M   C2/c

loop_
_symmetry_equiv_pos_as_xyz
'x, y, z'
'-x, y, -z+1/2'
'x+1/2, y+1/2, z'
'-x+1/2, y+1/2, -z+1/2'
'-x, -y, -z'
'x, -y, z-1/2'
'-x+1/2, -y+1/2, -z'
'x+1/2, -y+1/2, z-1/2'

_cell_length_a                   18.369(4)
_cell_length_b                   17.305(4)
_cell_length_c                   28.133(6)
_cell_angle_alpha                90.00
_cell_angle_beta                 91.083(6)
_cell_angle_gamma                90.00
_cell_volume                     8941(3)
_cell_formula_units_Z            8
_cell_measurement_temperature    293(2)
_cell_measurement_reflns_used    ?
_cell_measurement_theta_min      ?
_cell_measurement_theta_max      ?

_exptl_crystal_description       block
_exptl_crystal_colour            colorless
_exptl_crystal_size_max          0.12
_exptl_crystal_size_mid          0.12
_exptl_crystal_size_min          0.10
_exptl_crystal_density_meas      ?
_exptl_crystal_density_diffrn    1.369
_exptl_crystal_density_method    'not measured'
_exptl_crystal_F_000             3792
_exptl_absorpt_coefficient_mu    0.662
_exptl_absorpt_correction_type   multi-scan
_exptl_absorpt_correction_T_min  0.92
_exptl_absorpt_correction_T_max  0.95
_exptl_absorpt_process_details   sadabs

_exptl_special_details           
; 
 ? 
;

_diffrn_ambient_temperature      293(2)
_diffrn_radiation_wavelength     0.71073
_diffrn_radiation_type           MoK\a
_diffrn_radiation_source         'fine-focus sealed tube'
_diffrn_radiation_monochromator  graphite
_diffrn_measurement_device_type  'Bruker CCD Detector'
_diffrn_measurement_method       'omega and phi scans'
_diffrn_detector_area_resol_mean ?
_diffrn_standards_number         ?
_diffrn_standards_interval_count ?
_diffrn_standards_interval_time  ?
_diffrn_standards_decay_%        ?
_diffrn_reflns_number            22564
_diffrn_reflns_av_R_equivalents  0.0671
_diffrn_reflns_av_sigmaI/netI    0.0756
_diffrn_reflns_limit_h_min       -21
_diffrn_reflns_limit_h_max       21
_diffrn_reflns_limit_k_min       -17
_diffrn_reflns_limit_k_max       20
_diffrn_reflns_limit_l_min       -31
_diffrn_reflns_limit_l_max       33
_diffrn_reflns_theta_min         1.76
_diffrn_reflns_theta_max         25.00
_reflns_number_total             7823
_reflns_number_gt                5716
_reflns_threshold_expression     >2sigma(I)

_computing_data_collection       'Bruker SMART'
_computing_cell_refinement       'Bruker SMART'
_computing_data_reduction        'Bruker SAINT'
_computing_structure_solution    'SHELXS-97 (Sheldrick, 1999)'
_computing_structure_refinement  'SHELXL-97 (Sheldrick, 1997)'
_computing_molecular_graphics    'Bruker XP'
_computing_publication_material  'Bruker SHELXTL'
_refine_special_details          
; 
 Refinement of F^2^ against ALL reflections.  The weighted R-factor wR and 
 goodness of fit S are based on F^2^, conventional R-factors R are based 
 on F, with F set to zero for negative F^2^. The threshold expression of 
 F^2^ > 2sigma(F^2^) is used only for calculating R-factors(gt) etc. and is 
 not relevant to the choice of reflections for refinement.  R-factors based 
 on F^2^ are statistically about twice as large as those based on F, and R- 
 factors based on ALL data will be even larger. 
;

_refine_ls_structure_factor_coef Fsqd
_refine_ls_matrix_type           full
_refine_ls_weighting_scheme      calc
_refine_ls_weighting_details     
'calc w=1/[\s^2^(Fo^2^)+(0.0738P)^2^+0.0000P] where P=(Fo^2^+2Fc^2^)/3'
_atom_sites_solution_primary     direct
_atom_sites_solution_secondary   difmap
_atom_sites_solution_hydrogens   geom
_refine_ls_hydrogen_treatment    constr
_refine_ls_extinction_method     none
_refine_ls_extinction_coef       ?
_refine_ls_number_reflns         7823
_refine_ls_number_parameters     522
_refine_ls_number_restraints     29
_refine_ls_R_factor_all          0.0816
_refine_ls_R_factor_gt           0.0537
_refine_ls_wR_factor_ref         0.1392
_refine_ls_wR_factor_gt          0.1254
_refine_ls_goodness_of_fit_ref   1.026
_refine_ls_restrained_S_all      1.032
_refine_ls_shift/su_max          0.001
_refine_ls_shift/su_mean         0.000

loop_
_atom_site_label
_atom_site_type_symbol
_atom_site_fract_x
_atom_site_fract_y
_atom_site_fract_z
_atom_site_U_iso_or_equiv
_atom_site_adp_type
_atom_site_occupancy
_atom_site_symmetry_multiplicity
_atom_site_calc_flag
_atom_site_refinement_flags
_atom_site_disorder_assembly
_atom_site_disorder_group
Cd1 Cd 0.440296(17) -0.26239(2) 0.524422(11) 0.01949(13) Uani 1 1 d . . .
Cl1 Cl 0.54095(6) -0.37301(7) 0.53146(4) 0.0281(3) Uani 1 1 d . . .
Cl2 Cl 0.34791(6) -0.14990(7) 0.51819(4) 0.0278(3) Uani 1 1 d . . .
O1 O 0.58714(15) -0.10575(18) 0.30385(10) 0.0204(7) Uani 1 1 d . . .
O2 O 0.77485(16) 0.08448(18) 0.29757(10) 0.0222(7) Uani 1 1 d . . .
O3 O 0.76135(17) -0.11453(19) 0.24634(11) 0.0258(8) Uani 1 1 d . . .
O4 O 0.58901(15) 0.09099(18) 0.25017(10) 0.0199(7) Uani 1 1 d . . .
N1 N 0.5113(2) -0.1944(2) 0.46946(13) 0.0222(9) Uani 1 1 d . . .
N2 N 0.8870(2) 0.1651(2) 0.46217(12) 0.0207(9) Uani 1 1 d . . .
N3 N 0.8667(2) -0.1788(2) 0.08055(13) 0.0239(9) Uani 1 1 d . . .
N4 N 0.50631(19) 0.1981(2) 0.08476(13) 0.0217(9) Uani 1 1 d . . .
C1 C 0.4759(2) 0.1600(3) 0.11997(15) 0.0220(10) Uani 1 1 d . . .
H1A H 0.4259 0.1643 0.1235 0.026 Uiso 1 1 calc R . .
C2 C 0.5144(2) 0.1141(3) 0.15176(15) 0.0201(10) Uani 1 1 d . . .
H2B H 0.4906 0.0899 0.1766 0.024 Uiso 1 1 calc R . .
C3 C 0.5898(2) 0.1045(3) 0.14626(15) 0.0168(9) Uani 1 1 d . . .
C5 C 0.5788(2) 0.1919(3) 0.08047(16) 0.0244(11) Uani 1 1 d . . .
H5A H 0.6013 0.2202 0.0568 0.029 Uiso 1 1 calc R . .
C4 C 0.6211(2) 0.1460(3) 0.10923(16) 0.0242(11) Uani 1 1 d . . .
H4B H 0.6709 0.1424 0.1042 0.029 Uiso 1 1 calc R . .
C6 C 0.5179(3) -0.1180(3) 0.47479(17) 0.0316(12) Uani 1 1 d . . .
H6A H 0.4930 -0.0941 0.4992 0.038 Uiso 1 1 calc R . .
C7 C 0.5602(3) -0.0729(3) 0.44546(17) 0.0295(12) Uani 1 1 d . . .
H7A H 0.5655 -0.0203 0.4513 0.035 Uiso 1 1 calc R . .
C8 C 0.5944(2) -0.1068(3) 0.40770(15) 0.0185(10) Uani 1 1 d . . .
C9 C 0.5864(3) -0.1860(3) 0.40172(16) 0.0264(11) Uani 1 1 d . . .
H9A H 0.6084 -0.2110 0.3765 0.032 Uiso 1 1 calc R . .
C10 C 0.5458(3) -0.2272(3) 0.43346(16) 0.0249(11) Uani 1 1 d . . .
H10A H 0.5422 -0.2804 0.4296 0.030 Uiso 1 1 calc R . .
C11 C 0.6409(2) -0.0582(3) 0.37710(15) 0.0180(10) Uani 1 1 d . . .
C12 C 0.6929(2) -0.0115(3) 0.39933(15) 0.0211(10) Uani 1 1 d . . .
H12A H 0.6968 -0.0117 0.4323 0.025 Uiso 1 1 calc R . .
C13 C 0.7395(2) 0.0357(3) 0.37364(15) 0.0180(10) Uani 1 1 d . . .
C14 C 0.7328(2) 0.0362(3) 0.32426(15) 0.0175(10) Uani 1 1 d . . .
C16 C 0.6359(2) -0.0580(3) 0.32777(15) 0.0178(10) Uani 1 1 d . . .
C15 C 0.6807(2) -0.0114(3) 0.30097(14) 0.0174(10) Uani 1 1 d . . .
C17 C 0.5115(3) -0.0837(3) 0.30876(18) 0.0331(13) Uani 1 1 d . . .
H17A H 0.5006 -0.0789 0.3419 0.050 Uiso 1 1 calc R . .
H17B H 0.4808 -0.1224 0.2945 0.050 Uiso 1 1 calc R . .
H17C H 0.5032 -0.0350 0.2932 0.050 Uiso 1 1 calc R . .
C18 C 0.8477(2) 0.0551(3) 0.29053(18) 0.0331(13) Uani 1 1 d . . .
H18A H 0.8718 0.0482 0.3208 0.050 Uiso 1 1 calc R . .
H18B H 0.8747 0.0912 0.2719 0.050 Uiso 1 1 calc R . .
H18C H 0.8450 0.0064 0.2743 0.050 Uiso 1 1 calc R . .
C19 C 0.7943(2) 0.0818(3) 0.40128(15) 0.0187(10) Uani 1 1 d . . .
C20 C 0.8364(2) 0.0453(3) 0.43649(16) 0.0240(11) Uani 1 1 d . . .
H20A H 0.8340 -0.0080 0.4403 0.029 Uiso 1 1 calc R . .
C21 C 0.8814(3) 0.0885(3) 0.46537(17) 0.0268(11) Uani 1 1 d . . .
H21A H 0.9095 0.0631 0.4884 0.032 Uiso 1 1 calc R . .
C22 C 0.8482(2) 0.2002(3) 0.42749(15) 0.0223(10) Uani 1 1 d . . .
H22A H 0.8524 0.2535 0.4243 0.027 Uiso 1 1 calc R . .
C23 C 0.8024(2) 0.1608(3) 0.39616(15) 0.0225(11) Uani 1 1 d . . .
H23A H 0.7775 0.1871 0.3721 0.027 Uiso 1 1 calc R . .
C24 C 0.6771(2) -0.0102(2) 0.24813(14) 0.0140(9) Uani 1 1 d . . .
C25 C 0.7199(2) -0.0601(3) 0.22193(15) 0.0198(10) Uani 1 1 d . . .
C26 C 0.7233(2) -0.0548(3) 0.17242(15) 0.0191(10) Uani 1 1 d . . .
C27 C 0.6799(2) 0.0006(3) 0.14973(15) 0.0186(10) Uani 1 1 d . . .
H27A H 0.6816 0.0048 0.1168 0.022 Uiso 1 1 calc R . .
C28 C 0.6342(2) 0.0498(3) 0.17450(15) 0.0184(10) Uani 1 1 d . . .
C29 C 0.6340(2) 0.0445(3) 0.22383(14) 0.0154(9) Uani 1 1 d . . .
C30 C 0.6126(3) 0.1691(3) 0.25511(17) 0.0273(11) Uani 1 1 d . . .
H30A H 0.6575 0.1706 0.2731 0.041 Uiso 1 1 calc R . .
H30B H 0.5763 0.1984 0.2713 0.041 Uiso 1 1 calc R . .
H30C H 0.6200 0.1910 0.2242 0.041 Uiso 1 1 calc R . .
C31 C 0.7281(3) -0.1904(3) 0.2464(2) 0.0416(14) Uani 1 1 d . . .
H31A H 0.6805 -0.1871 0.2597 0.062 Uiso 1 1 calc R . .
H31B H 0.7577 -0.2251 0.2651 0.062 Uiso 1 1 calc R . .
H31C H 0.7242 -0.2093 0.2144 0.062 Uiso 1 1 calc R . .
C32 C 0.7725(2) -0.1022(3) 0.14277(15) 0.0217(10) Uani 1 1 d . . .
C33 C 0.8442(3) -0.1204(3) 0.15663(16) 0.0259(11) Uani 1 1 d . . .
H33A H 0.8617 -0.1078 0.1869 0.031 Uiso 1 1 calc R . .
C34 C 0.8883(2) -0.1573(3) 0.12465(16) 0.0267(11) Uani 1 1 d . . .
H34A H 0.9361 -0.1680 0.1341 0.032 Uiso 1 1 calc R . .
C35 C 0.7972(2) -0.1641(3) 0.06825(16) 0.0247(11) Uani 1 1 d . . .
H35A H 0.7802 -0.1806 0.0386 0.030 Uiso 1 1 calc R . .
C36 C 0.7497(2) -0.1257(3) 0.09741(15) 0.0221(11) Uani 1 1 d . . .
H36A H 0.7024 -0.1154 0.0868 0.026 Uiso 1 1 calc R . .
O8 O 0.6863(8) 0.0161(7) 0.0303(4) 0.275(7) Uani 1 1 d . . .
O5 O 1.2024(7) 0.1319(8) 0.4139(4) 0.157(6) Uiso 0.566(6) 1 d PD A 1
N5 N 1.0998(5) 0.0812(5) 0.3843(3) 0.062(3) Uiso 0.566(6) 1 d PD A 1
C37 C 1.1137(7) 0.1018(9) 0.3350(3) 0.088(5) Uiso 0.566(6) 1 d PD A 1
H37A H 1.1604 0.1265 0.3332 0.132 Uiso 0.566(6) 1 calc PR A 1
H37B H 1.0766 0.1366 0.3237 0.132 Uiso 0.566(6) 1 calc PR A 1
H37C H 1.1133 0.0560 0.3158 0.132 Uiso 0.566(6) 1 calc PR A 1
C38 C 1.0318(6) 0.0426(8) 0.3960(5) 0.086(5) Uiso 0.566(6) 1 d PD A 1
H38A H 1.0311 0.0323 0.4295 0.130 Uiso 0.566(6) 1 calc PR A 1
H38B H 1.0281 -0.0052 0.3788 0.130 Uiso 0.566(6) 1 calc PR A 1
H38C H 0.9914 0.0753 0.3873 0.130 Uiso 0.566(6) 1 calc PR A 1
C39 C 1.1463(7) 0.0959(8) 0.4196(4) 0.079(4) Uiso 0.566(6) 1 d PD A 1
H39A H 1.1357 0.0781 0.4499 0.094 Uiso 0.566(6) 1 calc PR A 1
O5A O 1.0359(5) 0.0446(6) 0.2916(3) 0.060(3) Uiso 0.434(6) 1 d PD A 2
N5A N 1.0820(5) 0.0548(5) 0.3671(3) 0.043(3) Uiso 0.434(6) 1 d PD A 2
C38A C 1.0804(7) 0.0273(7) 0.4162(3) 0.046(4) Uiso 0.434(6) 1 d PD A 2
H38D H 1.0401 -0.0073 0.4198 0.070 Uiso 0.434(6) 1 calc PR A 2
H38E H 1.0753 0.0706 0.4372 0.070 Uiso 0.434(6) 1 calc PR A 2
H38F H 1.1250 0.0006 0.4237 0.070 Uiso 0.434(6) 1 calc PR A 2
C37A C 1.1392(5) 0.1092(7) 0.3533(3) 0.034(3) Uiso 0.434(6) 1 d PD A 2
H37D H 1.1333 0.1217 0.3202 0.052 Uiso 0.434(6) 1 calc PR A 2
H37E H 1.1861 0.0859 0.3587 0.052 Uiso 0.434(6) 1 calc PR A 2
H37F H 1.1356 0.1554 0.3720 0.052 Uiso 0.434(6) 1 calc PR A 2
C39A C 1.0357(6) 0.0262(7) 0.3332(3) 0.047(4) Uiso 0.434(6) 1 d PD A 2
H39B H 1.0015 -0.0101 0.3426 0.057 Uiso 0.434(6) 1 calc PR A 2
O6 O 1.3330(6) 0.3505(9) 0.3610(5) 0.108(5) Uiso 0.49 1 d PD B 1
H6B H 1.3086 0.3798 0.3442 0.162 Uiso 0.49 1 calc PR B 1
C40 C 1.4066(5) 0.3763(7) 0.3626(4) 0.023(2) Uiso 0.49 1 d PD B 1
H40A H 1.4083 0.4303 0.3550 0.034 Uiso 0.49 1 calc PR B 1
H40B H 1.4343 0.3477 0.3400 0.034 Uiso 0.49 1 calc PR B 1
H40C H 1.4267 0.3681 0.3940 0.034 Uiso 0.49 1 calc PR B 1
O6A O 1.232(2) 0.1499(16) 0.4990(13) 0.178(13) Uiso 0.29 1 d PD C -2
H6C H 1.2180 0.1228 0.4768 0.267 Uiso 0.29 1 calc PR C -2
C40A C 1.2469(12) 0.2263(13) 0.4821(8) 0.053(6) Uiso 0.29 1 d PD C -2
H40D H 1.2050 0.2584 0.4866 0.079 Uiso 0.29 1 calc PR C -2
H40E H 1.2578 0.2242 0.4489 0.079 Uiso 0.29 1 calc PR C -2
H40F H 1.2878 0.2474 0.4994 0.079 Uiso 0.29 1 calc PR C -2
O6B O 1.2397(14) 0.1796(14) 0.5226(8) 0.087(8) Uiso 0.22 1 d PD D 3
H6D H 1.2822 0.1667 0.5274 0.130 Uiso 0.22 1 calc PR D 3
C40B C 1.2041(12) 0.1232(13) 0.4942(8) 0.026(5) Uiso 0.22 1 d PD D 3
H40G H 1.2160 0.0726 0.5059 0.038 Uiso 0.22 1 calc PR D 3
H40H H 1.2197 0.1279 0.4619 0.038 Uiso 0.22 1 calc PR D 3
H40I H 1.1524 0.1309 0.4953 0.038 Uiso 0.22 1 calc PR D 3
O7 O 1.4232(5) 0.4039(6) 0.3601(3) 0.035(2) Uiso 0.41 1 d PD E 4
H7B H 1.4578 0.3756 0.3665 0.053 Uiso 0.41 1 calc PR E 4
C41 C 1.3626(7) 0.3589(9) 0.3476(5) 0.041(4) Uiso 0.41 1 d PD E 4
H41A H 1.3264 0.3635 0.3716 0.061 Uiso 0.41 1 calc PR E 4
H41B H 1.3770 0.3059 0.3447 0.061 Uiso 0.41 1 calc PR E 4
H41C H 1.3426 0.3766 0.3177 0.061 Uiso 0.41 1 calc PR E 4
O7A O 1.5097(6) 0.4443(6) 0.2797(4) 0.045(3) Uiso 0.36 1 d PDU F -5
H7C H 1.4893 0.4558 0.3044 0.067 Uiso 0.36 1 calc PR F -5
C41A C 1.4968(19) 0.3641(9) 0.2692(9) 0.118(8) Uiso 0.36 1 d PDU F -5
H41D H 1.4541 0.3594 0.2492 0.176 Uiso 0.36 1 calc PR F -5
H41E H 1.4897 0.3363 0.2982 0.176 Uiso 0.36 1 calc PR F -5
H41F H 1.5379 0.3431 0.2531 0.176 Uiso 0.36 1 calc PR F -5
O7B O 1.4860(7) 0.3168(8) 0.2884(5) 0.022(3) Uiso 0.23 1 d PDU G 6
H7D H 1.5222 0.3038 0.2738 0.033 Uiso 0.23 1 calc PR G 6
C41B C 1.487(3) 0.3992(10) 0.2953(15) 0.105(9) Uiso 0.23 1 d PDU G 6
H41G H 1.5199 0.4118 0.3211 0.158 Uiso 0.23 1 calc PR G 6
H41H H 1.4389 0.4168 0.3027 0.158 Uiso 0.23 1 calc PR G 6
H41I H 1.5028 0.4241 0.2668 0.158 Uiso 0.23 1 calc PR G 6

loop_
_atom_site_aniso_label
_atom_site_aniso_U_11
_atom_site_aniso_U_22
_atom_site_aniso_U_33
_atom_site_aniso_U_23
_atom_site_aniso_U_13
_atom_site_aniso_U_12
Cd1 0.02020(19) 0.0266(2) 0.01161(19) -0.00023(14) 0.00005(13) -0.00763(15)
Cl1 0.0267(6) 0.0322(7) 0.0252(6) -0.0033(5) -0.0043(5) -0.0003(5)
Cl2 0.0264(6) 0.0349(8) 0.0221(6) -0.0025(5) -0.0009(5) 0.0012(5)
O1 0.0183(16) 0.0256(18) 0.0175(16) -0.0030(13) -0.0001(13) -0.0028(14)
O2 0.0242(17) 0.030(2) 0.0122(16) 0.0045(13) 0.0007(13) -0.0073(15)
O3 0.0292(18) 0.029(2) 0.0189(17) 0.0022(14) -0.0028(14) 0.0107(16)
O4 0.0220(16) 0.0230(18) 0.0149(16) -0.0031(13) 0.0057(13) 0.0022(14)
N1 0.024(2) 0.026(2) 0.016(2) -0.0012(17) 0.0049(16) -0.0085(18)
N2 0.022(2) 0.029(2) 0.0110(19) 0.0010(16) 0.0015(16) -0.0031(18)
N3 0.021(2) 0.035(3) 0.015(2) -0.0080(17) 0.0010(16) 0.0099(18)
N4 0.021(2) 0.029(2) 0.016(2) -0.0003(17) -0.0007(16) 0.0033(18)
C1 0.017(2) 0.028(3) 0.021(2) 0.002(2) 0.0042(19) 0.008(2)
C2 0.021(2) 0.027(3) 0.013(2) 0.0017(19) 0.0053(18) 0.002(2)
C3 0.018(2) 0.019(2) 0.013(2) -0.0017(18) -0.0021(18) 0.0018(19)
C5 0.023(2) 0.030(3) 0.020(2) 0.006(2) 0.003(2) 0.007(2)
C4 0.017(2) 0.036(3) 0.019(2) 0.003(2) 0.0020(19) 0.001(2)
C6 0.040(3) 0.034(3) 0.021(3) -0.006(2) 0.018(2) -0.006(3)
C7 0.040(3) 0.026(3) 0.023(3) -0.005(2) 0.011(2) -0.010(2)
C8 0.019(2) 0.022(3) 0.014(2) 0.0003(19) -0.0006(18) -0.002(2)
C9 0.029(3) 0.030(3) 0.020(3) -0.004(2) 0.008(2) 0.002(2)
C10 0.031(3) 0.020(3) 0.023(3) 0.000(2) 0.005(2) -0.006(2)
C11 0.021(2) 0.019(3) 0.014(2) -0.0016(18) 0.0020(18) -0.001(2)
C12 0.026(2) 0.028(3) 0.010(2) 0.0008(19) -0.0006(19) 0.000(2)
C13 0.019(2) 0.025(3) 0.010(2) 0.0008(18) -0.0023(18) 0.001(2)
C14 0.020(2) 0.017(2) 0.015(2) 0.0008(18) -0.0011(18) -0.001(2)
C16 0.016(2) 0.018(3) 0.019(2) -0.0027(19) -0.0020(18) 0.0000(19)
C15 0.016(2) 0.025(3) 0.011(2) 0.0003(19) -0.0003(18) 0.004(2)
C17 0.023(3) 0.045(4) 0.031(3) -0.007(2) -0.002(2) 0.000(2)
C18 0.022(3) 0.046(4) 0.032(3) -0.007(2) 0.011(2) -0.011(2)
C19 0.016(2) 0.026(3) 0.014(2) -0.0010(19) 0.0015(18) -0.003(2)
C20 0.030(3) 0.019(3) 0.022(3) 0.003(2) -0.005(2) -0.003(2)
C21 0.029(3) 0.029(3) 0.023(3) 0.002(2) -0.005(2) -0.003(2)
C22 0.028(3) 0.025(3) 0.015(2) 0.000(2) 0.003(2) -0.006(2)
C23 0.023(2) 0.033(3) 0.012(2) 0.003(2) -0.0014(19) -0.001(2)
C24 0.016(2) 0.015(2) 0.011(2) 0.0020(17) 0.0010(17) -0.0031(18)
C25 0.019(2) 0.026(3) 0.014(2) -0.0003(19) -0.0033(18) 0.003(2)
C26 0.016(2) 0.026(3) 0.015(2) -0.0028(19) -0.0018(18) 0.006(2)
C27 0.020(2) 0.026(3) 0.010(2) -0.0019(19) 0.0025(18) 0.003(2)
C28 0.014(2) 0.023(3) 0.018(2) 0.0009(19) -0.0017(18) -0.0004(19)
C29 0.014(2) 0.020(2) 0.012(2) -0.0022(18) 0.0032(17) -0.0020(19)
C30 0.034(3) 0.026(3) 0.022(3) -0.002(2) 0.005(2) 0.004(2)
C31 0.053(4) 0.032(3) 0.039(