####################################################################### 
# 
# This file contains crystal structure data downloaded from the 
# Cambridge Structural Database (CSD) hosted by the Cambridge 
# Crystallographic Data Centre (CCDC).
# 
# Full information about CCDC data access policies and citation 
# guidelines are available at http://www.ccdc.cam.ac.uk/access/V1 
# 
# Audit and citation data items may have been added by the CCDC. 
# Please retain this information to preserve the provenance of 
# this file and to allow appropriate attribution of the data. 
# 
#######################################################################

data_CP-7
_audit_block_doi                 10.5517/cc130xpq
_database_code_depnum_ccdc_archive 'CCDC 1013783'
loop_
_citation_id
_citation_doi
_citation_year
1 10.1002/chem.201404552 2015
_audit_update_record             
;
2014-07-13 deposited with the CCDC.	2024-07-11 downloaded from the CCDC.
;

_audit_creation_method           'Manual edit of SHELXL-97 CIF'
_chemical_name_systematic        
;
 ?
;
_chemical_name_common            'CP-Guest complex'
_chemical_melting_point          ?
_chemical_formula_moiety         ?
_chemical_formula_sum            'C46 H50 Cd N10 O12'
_chemical_formula_weight         1047.36

loop_
_atom_type_symbol
_atom_type_description
_atom_type_scat_dispersion_real
_atom_type_scat_dispersion_imag
_atom_type_scat_source
C C 0.0033 0.0016 'International Tables Vol C Tables 4.2.6.8 and 6.1.1.4'
H H 0.0000 0.0000 'International Tables Vol C Tables 4.2.6.8 and 6.1.1.4'
N N 0.0061 0.0033 'International Tables Vol C Tables 4.2.6.8 and 6.1.1.4'
O O 0.0106 0.0060 'International Tables Vol C Tables 4.2.6.8 and 6.1.1.4'
Cd Cd -0.8075 1.2024 'International Tables Vol C Tables 4.2.6.8 and 6.1.1.4'

_symmetry_cell_setting           Monoclinic
_symmetry_space_group_name_H-M   P21/c

loop_
_symmetry_equiv_pos_as_xyz
'x, y, z'
'-x, y+1/2, -z+1/2'
'-x, -y, -z'
'x, -y-1/2, z-1/2'

_cell_length_a                   14.1077(9)
_cell_length_b                   22.4332(14)
_cell_length_c                   15.3646(10)
_cell_angle_alpha                90.00
_cell_angle_beta                 92.7100(10)
_cell_angle_gamma                90.00
_cell_volume                     4857.2(5)
_cell_formula_units_Z            4
_cell_measurement_temperature    293(2)
_cell_measurement_reflns_used    ?
_cell_measurement_theta_min      ?
_cell_measurement_theta_max      ?

_exptl_crystal_description       'irregular block'
_exptl_crystal_colour            colorless
_exptl_crystal_size_max          0.12
_exptl_crystal_size_mid          0.10
_exptl_crystal_size_min          0.10
_exptl_crystal_density_meas      ?
_exptl_crystal_density_diffrn    1.432
_exptl_crystal_density_method    'not measured'
_exptl_crystal_F_000             2160
_exptl_absorpt_coefficient_mu    0.521
_exptl_absorpt_correction_type   multi-scan
_exptl_absorpt_correction_T_min  0.91
_exptl_absorpt_correction_T_max  0.94
_exptl_absorpt_process_details   sadabs

_exptl_special_details           
;
 ?
;

_diffrn_ambient_temperature      293(2)
_diffrn_radiation_wavelength     0.71073
_diffrn_radiation_type           MoK\a
_diffrn_radiation_source         'fine-focus sealed tube'
_diffrn_radiation_monochromator  graphite
_diffrn_measurement_device_type  'CCD area dtector'
_diffrn_measurement_method       'omega and phi scans'
_diffrn_detector_area_resol_mean ?
_diffrn_standards_number         ?
_diffrn_standards_interval_count ?
_diffrn_standards_interval_time  ?
_diffrn_standards_decay_%        ?
_diffrn_reflns_number            25086
_diffrn_reflns_av_R_equivalents  0.0691
_diffrn_reflns_av_sigmaI/netI    0.0862
_diffrn_reflns_limit_h_min       -16
_diffrn_reflns_limit_h_max       14
_diffrn_reflns_limit_k_min       -26
_diffrn_reflns_limit_k_max       26
_diffrn_reflns_limit_l_min       -15
_diffrn_reflns_limit_l_max       18
_diffrn_reflns_theta_min         1.71
_diffrn_reflns_theta_max         25.00
_reflns_number_total             8506
_reflns_number_gt                5291
_reflns_threshold_expression     >2sigma(I)

_computing_data_collection       'Bruker SMART'
_computing_cell_refinement       'Bruker SMART'
_computing_data_reduction        'Bruker SAINT'
_computing_structure_solution    'SHELXS-97 (Sheldrick, 1999)'
_computing_structure_refinement  'SHELXL-97 (Sheldrick, 1997)'
_computing_molecular_graphics    'Bruker XP'
_computing_publication_material  'Bruker SHELXTL'


_refine_special_details          
;
 Refinement of F^2^ against ALL reflections.  The weighted R-factor wR and
 goodness of fit S are based on F^2^, conventional R-factors R are based
 on F, with F set to zero for negative F^2^. The threshold expression of
 F^2^ > 2sigma(F^2^) is used only for calculating R-factors(gt) etc. and is
 not relevant to the choice of reflections for refinement.  R-factors based
 on F^2^ are statistically about twice as large as those based on F, and R-
 factors based on ALL data will be even larger.
;

_refine_ls_structure_factor_coef Fsqd
_refine_ls_matrix_type           full
_refine_ls_weighting_scheme      calc
_refine_ls_weighting_details     
'calc w=1/[\s^2^(Fo^2^)+(0.0576P)^2^+0.0000P] where P=(Fo^2^+2Fc^2^)/3'
_atom_sites_solution_primary     direct
_atom_sites_solution_secondary   difmap
_atom_sites_solution_hydrogens   geom
_refine_ls_hydrogen_treatment    constr
_refine_ls_extinction_method     none
_refine_ls_extinction_coef       ?
_refine_ls_number_reflns         8506
_refine_ls_number_parameters     618
_refine_ls_number_restraints     16
_refine_ls_R_factor_all          0.1001
_refine_ls_R_factor_gt           0.0593
_refine_ls_wR_factor_ref         0.1417
_refine_ls_wR_factor_gt          0.1276
_refine_ls_goodness_of_fit_ref   1.035
_refine_ls_restrained_S_all      1.037
_refine_ls_shift/su_max          0.001
_refine_ls_shift/su_mean         0.000

loop_
_atom_site_label
_atom_site_type_symbol
_atom_site_fract_x
_atom_site_fract_y
_atom_site_fract_z
_atom_site_U_iso_or_equiv
_atom_site_adp_type
_atom_site_occupancy
_atom_site_symmetry_multiplicity
_atom_site_calc_flag
_atom_site_refinement_flags
_atom_site_disorder_assembly
_atom_site_disorder_group
Cd1 Cd 0.31484(2) 0.248798(16) 0.43403(2) 0.02536(13) Uani 1 1 d . . .
O1 O -0.2944(2) -0.01916(14) 0.5623(2) 0.0265(8) Uani 1 1 d . . .
O2 O -0.0625(2) 0.11755(14) 0.6761(2) 0.0287(8) Uani 1 1 d . . .
O3 O -0.1615(2) -0.04874(14) 0.7250(2) 0.0301(8) Uani 1 1 d . . .
O4 O -0.2914(2) 0.14256(14) 0.6731(2) 0.0317(8) Uani 1 1 d . . .
O5 O 0.2665(3) 0.22718(17) 0.2899(2) 0.0415(10) Uani 1 1 d . . .
O6 O 0.1816(3) 0.29944(17) 0.3381(3) 0.0542(11) Uani 1 1 d . . .
O7 O 0.1403(4) 0.2555(3) 0.2181(3) 0.112(2) Uani 1 1 d . . .
O8 O 0.4039(2) 0.15576(15) 0.4397(3) 0.0413(10) Uani 1 1 d . . .
O9 O 0.4856(3) 0.12443(18) 0.5553(3) 0.0525(11) Uani 1 1 d . . .
O10 O 0.4054(3) 0.20733(15) 0.5605(2) 0.0391(9) Uani 1 1 d . . .
N1 N 0.1843(3) 0.19481(17) 0.4683(3) 0.0267(10) Uani 1 1 d . . .
N2 N -0.5500(3) 0.20940(18) 0.8829(3) 0.0307(10) Uani 1 1 d . . .
N3 N -0.2917(4) -0.0696(2) 0.2337(3) 0.0515(14) Uani 1 1 d . . .
N4 N -0.2937(3) -0.16773(17) 0.9823(3) 0.0280(10) Uani 1 1 d . . .
N5 N 0.1962(4) 0.2614(2) 0.2805(3) 0.0452(13) Uani 1 1 d . . .
N6 N 0.4339(3) 0.1627(2) 0.5207(3) 0.0335(11) Uani 1 1 d . . .
C1 C 0.1657(3) 0.1426(2) 0.4294(3) 0.0266(12) Uani 1 1 d . . .
H1A H 0.2073 0.1289 0.3887 0.032 Uiso 1 1 calc R . .
C2 C 0.0881(3) 0.1078(2) 0.4464(3) 0.0255(11) Uani 1 1 d . . .
H2B H 0.0787 0.0715 0.4181 0.031 Uiso 1 1 calc R . .
C3 C 0.0235(3) 0.1277(2) 0.5067(3) 0.0262(12) Uani 1 1 d . . .
C4 C 0.0429(4) 0.1821(2) 0.5471(3) 0.0382(14) Uani 1 1 d . . .
H4B H 0.0023 0.1973 0.5876 0.046 Uiso 1 1 calc R . .
C5 C 0.1229(4) 0.2132(2) 0.5265(3) 0.0376(14) Uani 1 1 d . . .
H5A H 0.1351 0.2492 0.5547 0.045 Uiso 1 1 calc R . .
C6 C -0.0611(3) 0.0906(2) 0.5235(3) 0.0228(11) Uani 1 1 d . . .
C7 C -0.1043(3) 0.0590(2) 0.4549(3) 0.0264(12) Uani 1 1 d . . .
H7A H -0.0790 0.0623 0.4003 0.032 Uiso 1 1 calc R . .
C8 C -0.1833(3) 0.0227(2) 0.4632(3) 0.0228(11) Uani 1 1 d . . .
C9 C -0.2195(3) 0.01841(19) 0.5462(3) 0.0234(11) Uani 1 1 d . . .
C10 C -0.1794(3) 0.05048(19) 0.6164(3) 0.0202(11) Uani 1 1 d . . .
C11 C -0.0996(3) 0.0859(2) 0.6053(3) 0.0252(11) Uani 1 1 d . . .
C12 C -0.2248(3) -0.0099(2) 0.3857(3) 0.0293(12) Uani 1 1 d . . .
C13 C -0.2215(4) 0.0163(2) 0.3030(4) 0.0363(13) Uani 1 1 d . . .
H13A H -0.1976 0.0547 0.2973 0.044 Uiso 1 1 calc R . .
C14 C -0.2534(4) -0.0146(3) 0.2309(4) 0.0443(15) Uani 1 1 d . . .
H14A H -0.2484 0.0034 0.1768 0.053 Uiso 1 1 calc R . .
C15 C -0.2956(4) -0.0940(3) 0.3115(4) 0.0414(15) Uani 1 1 d . . .
H15A H -0.3207 -0.1322 0.3153 0.050 Uiso 1 1 calc R . .
C16 C -0.2646(3) -0.0662(2) 0.3880(3) 0.0297(12) Uani 1 1 d . . .
H16A H -0.2705 -0.0854 0.4411 0.036 Uiso 1 1 calc R . .
C17 C -0.3853(4) 0.0061(2) 0.5393(4) 0.0386(14) Uani 1 1 d . . .
H17A H -0.3985 0.0377 0.5791 0.058 Uiso 1 1 calc R . .
H17B H -0.4332 -0.0242 0.5423 0.058 Uiso 1 1 calc R . .
H17C H -0.3853 0.0216 0.4811 0.058 Uiso 1 1 calc R . .
C18 C 0.0199(4) 0.0909(3) 0.7185(4) 0.0434(15) Uani 1 1 d . . .
H18A H 0.0012 0.0571 0.7519 0.065 Uiso 1 1 calc R . .
H18B H 0.0509 0.1196 0.7565 0.065 Uiso 1 1 calc R . .
H18C H 0.0628 0.0783 0.6754 0.065 Uiso 1 1 calc R . .
C19 C -0.2563(4) 0.1989(2) 0.7057(4) 0.0442(15) Uani 1 1 d . . .
H19A H -0.2682 0.2021 0.7666 0.066 Uiso 1 1 calc R . .
H19B H -0.2881 0.2307 0.6744 0.066 Uiso 1 1 calc R . .
H19C H -0.1893 0.2014 0.6981 0.066 Uiso 1 1 calc R . .
C20 C -0.0849(4) -0.0693(2) 0.7820(4) 0.0425(15) Uani 1 1 d . . .
H20A H -0.0255 -0.0594 0.7576 0.064 Uiso 1 1 calc R . .
H20B H -0.0893 -0.1118 0.7886 0.064 Uiso 1 1 calc R . .
H20C H -0.0886 -0.0506 0.8379 0.064 Uiso 1 1 calc R . .
C21 C -0.2252(3) 0.04767(19) 0.7035(3) 0.0218(11) Uani 1 1 d . . .
C22 C -0.2170(3) -0.0030(2) 0.7548(3) 0.0234(11) Uani 1 1 d . . .
C23 C -0.2655(3) -0.0078(2) 0.8321(3) 0.0250(11) Uani 1 1 d . . .
C24 C -0.3198(3) 0.0407(2) 0.8556(3) 0.0262(12) Uani 1 1 d . . .
H24A H -0.3508 0.0388 0.9076 0.031 Uiso 1 1 calc R . .
C25 C -0.3302(3) 0.0915(2) 0.8055(3) 0.0260(12) Uani 1 1 d . . .
C26 C -0.2815(3) 0.0947(2) 0.7292(3) 0.0241(11) Uani 1 1 d . . .
C27 C -0.4017(3) 0.1371(2) 0.8312(3) 0.0287(12) Uani 1 1 d . . .
C28 C -0.4124(4) 0.1502(2) 0.9181(3) 0.0331(13) Uani 1 1 d . . .
H28A H -0.3700 0.1349 0.9607 0.040 Uiso 1 1 calc R . .
C29 C -0.4867(4) 0.1860(2) 0.9411(3) 0.0331(13) Uani 1 1 d . . .
H29A H -0.4931 0.1944 0.9999 0.040 Uiso 1 1 calc R . .
C30 C -0.5379(4) 0.1982(2) 0.7985(3) 0.0305(12) Uani 1 1 d . . .
H30A H -0.5800 0.2153 0.7573 0.037 Uiso 1 1 calc R . .
C31 C -0.4665(3) 0.1627(2) 0.7696(3) 0.0294(12) Uani 1 1 d . . .
H31A H -0.4611 0.1557 0.7104 0.035 Uiso 1 1 calc R . .
C32 C -0.2708(3) -0.0636(2) 0.8843(3) 0.0268(12) Uani 1 1 d . . .
C33 C -0.2726(4) -0.0624(2) 0.9741(3) 0.0347(13) Uani 1 1 d . . .
H33A H -0.2667 -0.0263 1.0035 0.042 Uiso 1 1 calc R . .
C34 C -0.2828(4) -0.1144(2) 1.0204(4) 0.0357(13) Uani 1 1 d . . .
H34A H -0.2822 -0.1123 1.0809 0.043 Uiso 1 1 calc R . .
C35 C -0.2937(4) -0.1691(2) 0.8957(3) 0.0303(12) Uani 1 1 d . . .
H35A H -0.3018 -0.2058 0.8683 0.036 Uiso 1 1 calc R . .
C36 C -0.2826(3) -0.1195(2) 0.8439(3) 0.0286(12) Uani 1 1 d . . .
H36A H -0.2830 -0.1230 0.7836 0.034 Uiso 1 1 calc R . .
N7 N -0.2081(9) 0.2573(4) 0.4801(7) 0.159(4) Uani 1 1 d . . .
N8 N -0.1424(8) 0.1625(3) 0.2829(6) 0.130(4) Uani 1 1 d . . .
C37 C -0.2587(8) 0.2187(5) 0.4666(6) 0.092(3) Uani 1 1 d . . .
C38 C -0.3183(6) 0.1700(4) 0.4506(6) 0.098(3) Uani 1 1 d . . .
H38A H -0.2824 0.1375 0.4284 0.148 Uiso 1 1 calc R . .
H38B H -0.3677 0.1809 0.4085 0.148 Uiso 1 1 calc R . .
H38C H -0.3459 0.1581 0.5038 0.148 Uiso 1 1 calc R . .
C39 C -0.0984(7) 0.2010(5) 0.3036(6) 0.089(3) Uani 1 1 d . . .
C40 C -0.0402(7) 0.2511(5) 0.3251(8) 0.178(7) Uani 1 1 d . . .
H40A H -0.0570 0.2669 0.3803 0.266 Uiso 1 1 calc R . .
H40B H -0.0494 0.2811 0.2810 0.266 Uiso 1 1 calc R . .
H40C H 0.0252 0.2390 0.3284 0.266 Uiso 1 1 calc R . .
N9 N -0.4629(5) 0.0698(6) 0.1976(5) 0.123(4) Uani 1 1 d . . .
O11 O -0.4067(6) 0.0486(3) 0.0619(5) 0.150(3) Uani 1 1 d . . .
C41 C -0.4472(6) 0.0361(6) 0.1277(6) 0.130(5) Uani 1 1 d . . .
H41A H -0.4707 -0.0026 0.1298 0.156 Uiso 1 1 calc R . .
C42 C -0.4376(9) 0.1341(8) 0.2031(9) 0.197(7) Uani 1 1 d . . .
H42A H -0.3786 0.1387 0.2362 0.295 Uiso 1 1 calc R . .
H42B H -0.4866 0.1554 0.2312 0.295 Uiso 1 1 calc R . .
H42C H -0.4313 0.1496 0.1454 0.295 Uiso 1 1 calc R . .
C43 C -0.4958(5) 0.0425(5) 0.2757(5) 0.119(4) Uani 1 1 d . . .
H43A H -0.5044 0.0005 0.2662 0.178 Uiso 1 1 calc R . .
H43B H -0.5551 0.0601 0.2900 0.178 Uiso 1 1 calc R . .
H43C H -0.4498 0.0487 0.3229 0.178 Uiso 1 1 calc R . .
O12 O -0.2087(14) 0.4234(8) 0.5598(12) 0.261(9) Uiso 0.660(9) 1 d PD A 1
N12 N -0.0582(10) 0.3945(9) 0.5179(10) 0.268(11) Uiso 0.660(9) 1 d PDU A 1
C44 C -0.1410(12) 0.3911(9) 0.5613(11) 0.186(9) Uiso 0.660(9) 1 d PDU A 1
H44A H -0.1452 0.3582 0.5978 0.223 Uiso 0.660(9) 1 calc PR A 1
C45 C -0.0252(19) 0.4414(9) 0.4616(15) 0.267(13) Uiso 0.660(9) 1 d PDU A 1
H45A H -0.0595 0.4395 0.4062 0.401 Uiso 0.660(9) 1 calc PR A 1
H45B H 0.0414 0.4362 0.4534 0.401 Uiso 0.660(9) 1 calc PR A 1
H45C H -0.0356 0.4795 0.4880 0.401 Uiso 0.660(9) 1 calc PR A 1
C46 C -0.0016(14) 0.3415(8) 0.5387(13) 0.172(8) Uiso 0.660(9) 1 d PD A 1
H46A H -0.0325 0.3182 0.5814 0.258 Uiso 0.660(9) 1 calc PR A 1
H46B H 0.0601 0.3533 0.5615 0.258 Uiso 0.660(9) 1 calc PR A 1
H46C H 0.0047 0.3182 0.4869 0.258 Uiso 0.660(9) 1 calc PR A 1
O12A O -0.0155(10) 0.3146(6) 0.6161(10) 0.078(5) Uiso 0.340(9) 1 d PD A 2
N12A N -0.0585(7) 0.3840(5) 0.5138(7) 0.027(4) Uiso 0.340(9) 1 d PD A 2
C44A C -0.0748(13) 0.3456(6) 0.5810(9) 0.082(8) Uiso 0.340(9) 1 d PD A 2
H44B H -0.1360 0.3437 0.6007 0.098 Uiso 0.340(9) 1 calc PR A 2
C46A C 0.0386(9) 0.3848(10) 0.4838(14) 0.076(7) Uiso 0.340(9) 1 d PD A 2
H46D H 0.0820 0.3728 0.5306 0.114 Uiso 0.340(9) 1 calc PR A 2
H46E H 0.0541 0.4244 0.4655 0.114 Uiso 0.340(9) 1 calc PR A 2
H46F H 0.0434 0.3578 0.4358 0.114 Uiso 0.340(9) 1 calc PR A 2
C45A C -0.1313(13) 0.4218(9) 0.4723(15) 0.130(12) Uiso 0.340(9) 1 d PD A 2
H45D H -0.1865 0.4218 0.5066 0.196 Uiso 0.340(9) 1 calc PR A 2
H45E H -0.1479 0.4069 0.4151 0.196 Uiso 0.340(9) 1 calc PR A 2
H45F H -0.1076 0.4618 0.4680 0.196 Uiso 0.340(9) 1 calc PR A 2

loop_
_atom_site_aniso_label
_atom_site_aniso_U_11
_atom_site_aniso_U_22
_atom_site_aniso_U_33
_atom_site_aniso_U_23
_atom_site_aniso_U_13
_atom_site_aniso_U_12
Cd1 0.0310(2) 0.0204(2) 0.0257(2) -0.00215(17) 0.01239(15) -0.00524(17)
O1 0.0224(19) 0.0276(19) 0.030(2) -0.0013(15) 0.0072(15) -0.0027(14)
O2 0.030(2) 0.034(2) 0.024(2) -0.0069(16) 0.0081(15) -0.0048(16)
O3 0.039(2) 0.0254(19) 0.027(2) -0.0002(15) 0.0117(16) 0.0101(16)
O4 0.040(2) 0.0227(19) 0.034(2) 0.0023(16) 0.0170(17) 0.0023(16)
O5 0.049(3) 0.048(2) 0.028(2) -0.0009(18) 0.0090(18) -0.001(2)
O6 0.081(3) 0.037(2) 0.044(3) -0.001(2) 0.002(2) 0.009(2)
O7 0.112(5) 0.170(6) 0.050(3) -0.033(4) -0.029(3) 0.073(4)
O8 0.046(2) 0.033(2) 0.046(3) -0.0026(19) 0.0104(19) 0.0041(18)
O9 0.053(3) 0.048(3) 0.056(3) 0.005(2) -0.005(2) 0.015(2)
O10 0.047(2) 0.030(2) 0.041(2) -0.0024(18) 0.0107(18) 0.0040(18)
N1 0.028(2) 0.028(2) 0.025(2) 0.0014(19) 0.0112(19) -0.0036(19)
N2 0.036(3) 0.027(2) 0.030(3) -0.001(2) 0.012(2) 0.006(2)
N3 0.060(3) 0.063(4) 0.032(3) -0.015(3) 0.009(3) -0.015(3)
N4 0.039(3) 0.019(2) 0.027(3) -0.0002(19) 0.012(2) 0.0057(19)
N5 0.060(4) 0.053(4) 0.023(3) 0.002(2) -0.002(2) 0.013(3)
N6 0.029(3) 0.034(3) 0.037(3) 0.003(2) 0.006(2) 0.000(2)
C1 0.036(3) 0.020(3) 0.024(3) -0.001(2) 0.010(2) 0.005(2)
C2 0.028(3) 0.019(3) 0.030(3) 0.001(2) 0.005(2) -0.002(2)
C3 0.033(3) 0.025(3) 0.021(3) 0.002(2) 0.009(2) 0.002(2)
C4 0.045(4) 0.041(3) 0.031(3) -0.009(3) 0.022(3) -0.010(3)
C5 0.047(4) 0.028(3) 0.039(4) -0.015(3) 0.019(3) -0.016(3)
C6 0.025(3) 0.024(3) 0.020(3) -0.001(2) 0.005(2) -0.004(2)
C7 0.029(3) 0.025(3) 0.026(3) -0.004(2) 0.011(2) 0.001(2)
C8 0.025(3) 0.020(3) 0.024(3) -0.001(2) 0.004(2) 0.001(2)
C9 0.023(3) 0.015(3) 0.032(3) 0.001(2) 0.003(2) 0.001(2)
C10 0.021(3) 0.012(2) 0.029(3) -0.001(2) 0.010(2) 0.0023(19)
C11 0.029(3) 0.022(3) 0.025(3) 0.000(2) 0.009(2) 0.002(2)
C12 0.032(3) 0.029(3) 0.028(3) -0.004(2) 0.011(2) -0.003(2)
C13 0.039(3) 0.039(3) 0.031(3) -0.004(3) 0.004(3) 0.000(3)
C14 0.054(4) 0.058(4) 0.022(3) -0.003(3) 0.006(3) -0.011(3)
C15 0.045(4) 0.042(4) 0.038(4) -0.015(3) 0.011(3) -0.013(3)
C16 0.034(3) 0.027(3) 0.029(3) -0.005(2) 0.007(2) -0.005(2)
C17 0.033(3) 0.040(3) 0.043(4) 0.002(3) 0.007(3) -0.009(3)
C18 0.049(4) 0.045(4) 0.036(4) -0.010(3) 0.000(3) 0.002(3)
C19 0.059(4) 0.021(3) 0.054(4) 0.001(3) 0.020(3) -0.001(3)
C20 0.044(4) 0.042(4) 0.043(4) 0.004(3) 0.015(3) 0.014(3)
C21 0.025(3) 0.017(3) 0.024(3) -0.003(2) 0.007(2) -0.006(2)
C22 0.027(3) 0.016(3) 0.027(3) -0.001(2) 0.007(2) 0.000(2)
C23 0.032(3) 0.021(3) 0.024(3) 0.000(2) 0.012(2) 0.001(2)
C24 0.037(3) 0.022(3) 0.021(3) 0.005(2) 0.013(2) 0.005(2)
C25 0.032(3) 0.020(3) 0.027(3) -0.003(2) 0.011(2) 0.006(2)
C26 0.031(3) 0.014(2) 0.027(3) 0.000(2) 0.010(2) -0.001(2)
C27 0.032(3) 0.021(3) 0.034(3) 0.004(2) 0.017(2) 0.001(2)
C28 0.044(3) 0.029(3) 0.028(3) 0.003(2) 0.007(2) 0.012(3)
C29 0.041(3) 0.036(3) 0.023(3) -0.004(2) 0.008(2) 0.007(3)
C30 0.037(3) 0.024(3) 0.030(3) 0.006(2) 0.004(2) 0.004(2)
C31 0.036(3) 0.027(3) 0.027(3) 0.003(2) 0.014(2) 0.005(2)
C32 0.032(3) 0.024(3) 0.026(3) -0.001(2) 0.014(2) 0.006(2)
C33 0.057(4) 0.024(3) 0.025(3) -0.005(2) 0.010(3) 0.002(3)
C34 0.051(4) 0.025(3) 0.032(3) -0.001(2) 0.014(3) 0.002(3)
C35 0.044(3) 0.020(3) 0.028(3) -0.008(2) 0.011(2) 0.000(2)
C36 0.038(3) 0.022(3) 0.027(3) -0.005(2) 0.014(2) 0.000(2)
N7 0.214(12) 0.121(9) 0.145(10) -0.023(7) 0.030(8) -0.059(7)
N8 0.241(11) 0.059(5) 0.093(7) 0.007(5) 0.036(7) -0.019(6)
C37 0.118(8) 0.076(7) 0.081(7) 0.012(6) 0.004(6) -0.005(6)
C38 0.102(7) 0.092(7) 0.101(8) 0.024(6) -0.002(6) 0.006(6)
C39 0.076(6) 0.090(7) 0.099(8) 0.036(6) 0.001(5) 0.020(5)
C40 0.116(9) 0.233(15) 0.176(12) 0.124(11) -0.082(8) -0.092(9)
N9 0.061(5) 0.245(12) 0.061(6) 0.051(7) -0.011(4) -0.008(6)
O11 0.187(8) 0.161(7) 0.104(6) 0.023(5) 0.028(5) 0.055(6)
C41 0.083(7) 0.280(15) 0.028(5) 0.019(7) 0.018(5) -0.024(8)
C42 0.149(12) 0.270(19) 0.168(15) -0.067(13) -0.028(10) -0.055(12)
C43 0.060(5) 0.240(12) 0.057(6) 0.051(7) 0.010(4) -0.018(6)

_geom_special_details            
;
 All esds (except the esd in the dihedral angle between two l.s. planes)
 are estimated using the full covariance matrix.  The cell esds are taken
 into account individually in the estimation of esds in distances, angles
 and torsion angles; correlations between esds in cell parameters are only
 used when they are defined by crystal symmetry.  An approximate (isotropic)
 treatment of cell esds is used for estimating esds involving l.s. planes.
;

loop_
_geom_bond_atom_site_label_1
_geom_bond_atom_site_label_2
_geom_bond_distance
_geom_bond_site_symmetry_2
_geom_bond_publ_flag
Cd1 N1 2.287(4) . ?
Cd1 N2 2.297(4) 4_665 ?
Cd1 N4 2.299(4) 2_556 ?
Cd1 O5 2.337(4) . ?
Cd1 O8 2.436(3) . ?
Cd1 O10 2.457(4) . ?
Cd1 O6 2.595(4) . ?
O1 C9 1.383(5) . ?
O1 C17 1.431(6) . ?
O2 C11 1.381(6) . ?
O2 C18 1.436(6) . ?
O3 C22 1.382(5) . ?
O3 C20 1.434(6) . ?
O4 C26 1.380(5) . ?
O4 C19 1.438(6) . ?
O5 N5 1.256(5) . ?
O6 N5 1.255(6) . ?
O7 N5 1.219(6) . ?
O8 N6 1.304(5) . ?
O9 N6 1.231(5) . ?
O10 N6 1.249(5) . ?
N1 C1 1.336(6) . ?
N1 C5 1.338(6) . ?
N2 C30 1.341(6) . ?
N2 C29 1.341(6) . ?
N2 Cd1 2.297(4) 4_466 ?
N3 C15 1.319(7) . ?
N3 C14 1.350(7) . ?
N4 C35 1.332(6) . ?
N4 C34 1.337(6) . ?
N4 Cd1 2.299(4) 2_546 ?
C1 C2 1.379(6) . ?
C1 H1A 0.9300 . ?
C2 C3 1.403(7) . ?
C2 H2B 0.9300 . ?
C3 C4 1.390(7) . ?
C3 C6 1.487(6) . ?
C4 C5 1.376(7) . ?
C4 H4B 0.9300 . ?
C5 H5A 0.9300 . ?
C6 C7 1.388(6) . ?
C6 C11 1.397(6) . ?
C7 C8 1.391(6) . ?
C7 H7A 0.9300 . ?
C8 C9 1.399(6) . ?
C8 C12 1.491(7) . ?
C9 C10 1.395(6) . ?
C10 C11 1.394(6) . ?
C10 C21 1.514(6) . ?
C12 C16 1.384(7) . ?
C12 C13 1.403(7) . ?
C13 C14 1.365(7) . ?
C13 H13A 0.9300 . ?
C14 H14A 0.9300 . ?
C15 C16 1.382(7) . ?
C15 H15A 0.9300 . ?
C16 H16A 0.9300 . ?
C17 H17A 0.9600 . ?
C17 H17B 0.9600 . ?
C17 H17C 0.9600 . ?
C18 H18A 0.9600 . ?
C18 H18B 0.9600 . ?
C18 H18C 0.9600 . ?
C19 H19A 0.9600 . ?
C19 H19B 0.9600 . ?
C19 H19C 0.9600 . ?
C20 H20A 0.9600 . ?
C20 H20B 0.9600 . ?
C20 H20C 0.9600 . ?
C21 C22 1.386(6) . ?
C21 C26 1.389(6) . ?
C22 C23 1.402(6) . ?
C23 C24 1.388(6) . ?
C23 C32 1.491(6) . ?
C24 C25 1.379(6) . ?
C24 H24A 0.9300 . ?
C25 C26 1.389(6) . ?
C25 C27 1.502(6) . ?
C27 C28 1.383(7) . ?
C27 C31 1.406(7) . ?
C28 C29 1.380(7) . ?
C28 H28A 0.9300 . ?
C29 H29A 0.9300 . ?
C30 C31 1.374(6) . ?
C30 H30A 0.9300 . ?
C31 H31A 0.9300 . ?
C32 C33 1.382(7) . ?
C32 C36 1.405(6) . ?
C33 C34 1.378(7) . ?
C33 H33A 0.9300 . ?
C34 H34A 0.9300 . ?
C35 C36 1.381(7) . ?
C35 H35A 0.9300 . ?
C36 H36A 0.9300 . ?
N7 C37 1.134(11) . ?
N8 C39 1.102(11) . ?
C37 C38 1.394(12) . ?
C38 H38A 0.9600 . ?
C38 H38B 0.9600 . ?
C38 H38C 0.9600 . ?
C39 C40 1.421(13) . ?
C40 H40A 0.9600 . ?
C40 H40B 0.9600 . ?
C40 H40C 0.9600 . ?
N9 C41 1.340(13) . ?
N9 C43 1.443(10) . ?
N9 C42 1.487(15) . ?
O11 C41 1.218(10) . ?
C41 H41A 0.9300 . ?
C42 H42A 0.9600 . ?
C42 H42B 0.9600 . ?
C42 H42C 0.9600 . ?
C43 H43A 0.9600 . ?
C43 H43B 0.9600 . ?
C43 H43C 0.9600 . ?
O12 C44 1.200(7) . ?
N12 C44 1.373(7) . ?
N12 C45 1.453(7) . ?
N12 C46 1.459(7) . ?
C44 H44A 0.9300 . ?
C45 H45A 0.9600 . ?
C45 H45B 0.9600 . ?
C45 H45C 0.9600 . ?
C46 H46A 0.9600 . ?
C46 H46B 0.9600 . ?
C46 H46C 0.9600 . ?
O12A C44A 1.197(7) . ?
N12A C44A 1.372(7) . ?
N12A C45A 1.456(7) . ?
N12A C46A 1.466(7) . ?
C44A H44B 0.9300 . ?
C46A H46D 0.9600 . ?
C46A H46E 0.9600 . ?
C46A H46F 0.9600 . ?
C45A H45D 0.9600 . ?
C45A H45E 0.9600 . ?
C45A H45F 0.9600 . ?

loop_
_geom_angle_atom_site_label_1
_geom_angle_atom_site_label_2
_geom_angle_atom_site_label_3
_geom_angle
_geom_angle_site_symmetry_1
_geom_angle_site_symmetry_3
_geom_angle_publ_flag
N1 Cd1 N2 170.39(14) . 4_665 ?
N1 Cd1 N4 100.10(14) . 2_556 ?
N2 Cd1 N4 89.45(14) 4_665 2_556 ?
N1 Cd1 O5 84.63(14) . . ?
N2 Cd1 O5 88.30(14) 4_665 . ?
N4 Cd1 O5 131.23(14) 2_556 . ?
N1 Cd1 O8 87.58(13) . . ?
N2 Cd1 O8 85.80(13) 4_665 . ?
N4 Cd1 O8 139.33(14) 2_556 . ?
O5 Cd1 O8 89.03(14) . . ?
N1 Cd1 O10 90.67(13) . . ?
N2 Cd1 O10 90.90(14) 4_665 . ?
N4 Cd1 O10 86.74(13) 2_556 . ?
O5 Cd1 O10 142.00(13) . . ?
O8 Cd1 O10 53.05(12) . . ?
N1 Cd1 O6 78.04(14) . . ?
N2 Cd1 O6 102.60(14) 4_665 . ?
N4 Cd1 O6 81.42(14) 2_556 . ?
O5 Cd1 O6 51.82(13) . . ?
O8 Cd1 O6 138.97(13) . . ?
O10 Cd1 O6 161.87(13) . . ?
C9 O1 C17 113.5(4) . . ?
C11 O2 C18 114.3(4) . . ?
C22 O3 C20 117.4(4) . . ?
C26 O4 C19 116.3(4) . . ?
N5 O5 Cd1 100.1(3) . . ?
N5 O6 Cd1 87.9(3) . . ?
N6 O8 Cd1 94.3(3) . . ?
N6 O10 Cd1 94.8(3) . . ?
C1 N1 C5 116.7(4) . . ?
C1 N1 Cd1 120.3(3) . . ?
C5 N1 Cd1 123.0(3) . . ?
C30 N2 C29 117.5(4) . . ?
C30 N2 Cd1 123.6(3) . 4_466 ?
C29 N2 Cd1 118.0(3) . 4_466 ?
C15 N3 C14 116.2(5) . . ?
C35 N4 C34 117.0(4) . . ?
C35 N4 Cd1 123.1(3) . 2_546 ?
C34 N4 Cd1 119.9(3) . 2_546 ?
O7 N5 O6 120.4(5) . . ?
O7 N5 O5 120.2(5) . . ?
O6 N5 O5 119.3(5) . . ?
O9 N6 O10 123.1(5) . . ?
O9 N6 O8 119.2(4) . . ?
O10 N6 O8 117.7(4) . . ?
N1 C1 C2 123.5(4) . . ?
N1 C1 H1A 118.2 . . ?
C2 C1 H1A 118.2 . . ?
C1 C2 C3 119.5(4) . . ?
C1 C2 H2B 120.3 . . ?
C3 C2 H2B 120.3 . . ?
C4 C3 C2 116.9(4) . . ?
C4 C3 C6 123.8(4) . . ?
C2 C3 C6 119.2(4) . . ?
C5 C4 C3 119.3(5) . . ?
C5 C4 H4B 120.4 . . ?
C3 C4 H4B 120.4 . . ?
N1 C5 C4 124.1(5) . . ?
N1 C5 H5A 117.9 . . ?
C4 C5 H5A 117.9 . . ?
C7 C6 C11 118.0(4) . . ?
C7 C6 C3 118.8(4) . . ?
C11 C6 C3 123.2(4) . . ?
C6 C7 C8 123.7(5) . . ?
C6 C7 H7A 118.1 . . ?
C8 C7 H7A 118.1 . . ?
C7 C8 C9 116.9(4) . . ?
C7 C8 C12 120.0(4) . . ?
C9 C8 C12 123.2(4) . . ?
O1 C9 C10 117.5(4) . . ?
O1 C9 C8 121.3(4) . . ?
C10 C9 C8 121.2(4) . . ?
C11 C10 C9 120.0(4) . . ?
C11 C10 C21 120.8(4) . . ?
C9 C10 C21 119.2(4) . . ?
O2 C11 C10 118.4(4) . . ?
O2 C11 C6 121.4(4) . . ?
C10 C11 C6 120.2(4) . . ?
C16 C12 C13 115.8(5) . . ?
C16 C12 C8 124.9(5) . . ?
C13 C12 C8 119.3(5) . . ?
C14 C13 C12 119.9(5) . . ?
C14 C13 H13A 120.1 . . ?
C12 C13 H13A 120.1 . . ?
N3 C14 C13 123.8(5) . . ?
N3 C14 H14A 118.1 . . ?
C13 C14 H14A 118.1 . . ?
N3 C15 C16 124.0(5) . . ?
N3 C15 H15A 118.0 . . ?
C16 C15 H15A 118.0 . . ?
C15 C16 C12 120.2(5) . . ?
C15 C16 H16A 119.9 . . ?
C12 C16 H16A 119.9 . . ?
O1 C17 H17A 109.5 . . ?
O1 C17 H17B 109.5 . . ?
H17A C17 H17B 109.5 . . ?
O1 C17 H17C 109.5 . . ?
H17A C17 H17C 109.5 . . ?
H17B C17 H17C 109.5 . . ?
O2 C18 H18A 109.5 . . ?
O2 C18 H18B 109.5 . . ?
H18A C18 H18B 109.5 . . ?
O2 C18 H18C 109.5 . . ?
H18A C18 H18C 109.5 . . ?
H18B C18 H18C 109.5 . . ?
O4 C19 H19A 109.5 . . ?
O4 C19 H19B 109.5 . . ?
H19A C19 H19B 109.5 . . ?
O4 C19 H19C 109.5 . . ?
H19A C19 H19C 109.5 . . ?
H19B C19 H19C 109.5 . . ?
O3 C20 H20A 109.5 . . ?
O3 C20 H20B 109.5 . . ?
H20A C20 H20B 109.5 . . ?
O3 C20 H20C 109.5 . . ?
H20A C20 H20C 109.5 . . ?
H20B C20 H20C 109.5 . . ?
C22 C21 C26 119.6(4) . . ?
C22 C21 C10 120.7(4) . . ?
C26 C21 C10 119.6(4) . . ?
O3 C22 C21 117.0(4) . . ?
O3 C22 C23 122.0(4) . . ?
C21 C22 C23 121.0(4) . . ?
C24 C23 C22 117.2(4) . . ?
C24 C23 C32 118.4(4) . . ?
C22 C23 C32 124.0(4) . . ?
C25 C24 C23 123.3(4) . . ?
C25 C24 H24A 118.4 . . ?
C23 C24 H24A 118.4 . . ?
C24 C25 C26 118.0(4) . . ?
C24 C25 C27 118.1(4) . . ?
C26 C25 C27 123.5(4) . . ?
O4 C26 C25 121.9(4) . . ?
O4 C26 C21 117.1(4) . . ?
C25 C26 C21 120.9(4) . . ?
C28 C27 C31 117.7(5) . . ?
C28 C27 C25 120.2(4) . . ?
C31 C27 C25 121.7(5) . . ?
C29 C28 C27 119.3(5) . . ?
C29 C28 H28A 120.3 . . ?
C27 C28 H28A 120.3 . . ?
N2 C29 C28 123.2(5) . . ?
N2 C29 H29A 118.4 . . ?
C28 C29 H29A 118.4 . . ?
N2 C30 C31 123.3(5) . . ?
N2 C30 H30A 118.3 . . ?
C31 C30 H30A 118.3 . . ?
C30 C31 C27 118.9(5) . . ?
C30 C31 H31A 120.6 . . ?
C27 C31 H31A 120.6 . . ?
C33 C32 C36 116.8(5) . . ?
C33 C32 C23 121.6(4) . . ?
C36 C32 C23 121.4(4) . . ?
C34 C33 C32 120.4(5) . . ?
C34 C33 H33A 119.8 . . ?
C32 C33 H33A 119.8 . . ?
N4 C34 C33 122.9(5) . . ?
N4 C34 H34A 118.5 . . ?
C33 C34 H34A 118.5 . . ?
N4 C35 C36 124.2(4) . . ?
N4 C35 H35A 117.9 . . ?
C36 C35 H35A 117.9 . . ?
C35 C36 C32 118.7(5) . . ?
C35 C36 H36A 120.7 . . ?
C32 C36 H36A 120.7 . . ?
N7 C37 C38 178.1(12) . . ?
C37 C38 H38A 109.5 . . ?
C37 C38 H38B 109.5 . . ?
H38A C38 H38B 109.5 . . ?
C37 C38 H38C 109.5 . . ?
H38A C38 H38C 109.5 . . ?
H38B C38 H38C 109.5 . . ?
N8 C39 C40 176.7(12) . . ?
C39 C40 H40A 109.5 . . ?
C39 C40 H40B 109.5 . . ?
H40A C40 H40B 109.5 . . ?
C39 C40 H40C 109.5 . . ?
H40A C40 H40C 109.5 . . ?
H40B C40 H40C 109.5 . . ?
C41 N9 C43 119.9(12) . . ?
C41 N9 C42 123.0(10) . . ?
C43 N9 C42 116.7(12) . . ?
O11 C41 N9 129.6(13) . . ?
O11 C41 H41A 115.2 . . ?
N9 C41 H41A 115.2 . . ?
N9 C42 H42A 109.5 . . ?
N9 C42 H42B 109.5 . . ?
H42A C42 H42B 109.5 . . ?
N9 C42 H42C 109.5 . . ?
H42A C42 H42C 109.5 . . ?
H42B C42 H42C 109.5 . . ?
N9 C43 H43A 109.5 . . ?
N9 C43 H43B 109.5 . . ?
H43A C43 H43B 109.5 . . ?
N9 C43 H43C 109.5 . . ?
H43A C43 H43C 109.5 . . ?
H43B C43 H43C 109.5 . . ?
C44 N12 C45 129.3(19) . . ?
C44 N12 C46 108.5(18) . . ?
C45 N12 C46 122.2(9) . . ?
O12 C44 N12 131(2) . . ?
O12 C44 H44A 114.7 . . ?
N12 C44 H44A 114.7 . . ?
N12 C45 H45A 109.5 . . ?
N12 C45 H45B 109.5 . . ?
H45A C45 H45B 109.5 . . ?
N12 C45 H45C 109.5 . . ?
H45A C45 H45C 109.5 . . ?
H45B C45 H45C 109.5 . . ?
N12 C46 H46A 109.5 . . ?
N12 C46 H46B 109.5 . . ?
H46A C46 H46B 109.5 . . ?
N12 C46 H46C 109.5 . . ?
H46A C46 H46C 109.5 . . ?
H46B C46 H46C 109.5 . . ?
C44A N12A C45A 123.7(14) . . ?
C44A N12A C46A 115.9(14) . . ?
C45A N12A C46A 120.4(8) . . ?
O12A C44A N12A 124.4(18) . . ?
O12A C44A H44B 117.8 . . ?
N12A C44A H44B 117.8 . . ?
N12A C46A H46D 109.5 . . ?
N12A C46A H46E 109.5 . . ?
H46D C46A H46E 109.5 . . ?
N12A C46A H46F 109.5 . . ?
H46D C46A H46F 109.5 . . ?
H46E C46A H46F 109.5 . . ?
N12A C45A H45D 109.5 . . ?
N12A C45A H45E 109.5 . . ?
H45D C45A H45E 109.5 . . ?
N12A C45A H45F 109.5 . . ?
H45D C45A H45F 109.5 . . ?
H45E C45A H45F 109.5 . . ?

loop_
_geom_torsion_atom_site_label_1
_geom_torsion_atom_site_label_2
_geom_torsion_atom_site_label_3
_geom_torsion_atom_site_label_4
_geom_torsion
_geom_torsion_site_symmetry_1
_geom_torsion_site_symmetry_2
_geom_torsion_site_symmetry_3
_geom_torsion_site_symmetry_4
_geom_torsion_publ_flag
N1 Cd1 O5 N5 73.8(3) . . . . ?
N2 Cd1 O5 N5 -112.7(3) 4_665 . . . ?
N4 Cd1 O5 N5 -24.9(4) 2_556 . . . ?
O8 Cd1 O5 N5 161.4(3) . . . . ?
O10 Cd1 O5 N5 158.0(3) . . . . ?
O6 Cd1 O5 N5 -5.2(3) . . . . ?
N1 Cd1 O6 N5 -87.4(3) . . . . ?
N2 Cd1 O6 N5 82.8(3) 4_665 . . . ?
N4 Cd1 O6 N5 170.3(3) 2_556 . . . ?
O5 Cd1 O6 N5 5.1(3) . . . . ?
O8 Cd1 O6 N5 -15.4(4) . . . . ?
O10 Cd1 O6 N5 -140.0(4) . . . . ?
N1 Cd1 O8 N6 -94.3(3) . . . . ?
N2 Cd1 O8 N6 92.7(3) 4_665 . . . ?
N4 Cd1 O8 N6 8.4(4) 2_556 . . . ?
O5 Cd1 O8 N6 -178.9(3) . . . . ?
O10 Cd1 O8 N6 -1.6(2) . . . . ?
O6 Cd1 O8 N6 -162.9(2) . . . . ?
N1 Cd1 O10 N6 88.2(3) . . . . ?
N2 Cd1 O10 N6 -82.4(3) 4_665 . . . ?
N4 Cd1 O10 N6 -171.8(3) 2_556 . . . ?
O5 Cd1 O10 N6 6.0(4) . . . . ?
O8 Cd1 O10 N6 1.7(2) . . . . ?
O6 Cd1 O10 N6 139.1(4) . . . . ?
N2 Cd1 N1 C1 2.8(11) 4_665 . . . ?
N4 Cd1 N1 C1 176.6(4) 2_556 . . . ?
O5 Cd1 N1 C1 45.6(4) . . . . ?
O8 Cd1 N1 C1 -43.6(4) . . . . ?
O10 Cd1 N1 C1 -96.6(4) . . . . ?
O6 Cd1 N1 C1 97.7(4) . . . . ?
N2 Cd1 N1 C5 -176.7(8) 4_665 . . . ?
N4 Cd1 N1 C5 -2.9(4) 2_556 . . . ?
O5 Cd1 N1 C5 -133.9(4) . . . . ?
O8 Cd1 N1 C5 136.9(4) . . . . ?
O10 Cd1 N1 C5 83.9(4) . . . . ?
O6 Cd1 N1 C5 -81.8(4) . . . . ?
Cd1 O6 N5 O7 167.7(6) . . . . ?
Cd1 O6 N5 O5 -8.6(5) . . . . ?
Cd1 O5 N5 O7 -166.6(5) . . . . ?
Cd1 O5 N5 O6 9.7(6) . . . . ?
Cd1 O10 N6 O9 179.7(4) . . . . ?
Cd1 O10 N6 O8 -2.9(4) . . . . ?
Cd1 O8 N6 O9 -179.6(4) . . . . ?
Cd1 O8 N6 O10 2.9(4) . . . . ?
C5 N1 C1 C2 -0.1(7) . . . . ?
Cd1 N1 C1 C2 -179.6(3) . . . . ?
N1 C1 C2 C3 0.8(7) . . . . ?
C1 C2 C3 C4 -0.7(7) . . . . ?
C1 C2 C3 C6 178.8(4) . . . . ?
C2 C3 C4 C5 0.0(8) . . . . ?
C6 C3 C4 C5 -179.5(5) . . . . ?
C1 N1 C5 C4 -0.8(8) . . . . ?
Cd1 N1 C5 C4 178.8(4) . . . . ?
C3 C4 C5 N1 0.8(9) . . . . ?
C4 C3 C6 C7 144.1(5) . . . . ?
C2 C3 C6 C7 -35.4(7) . . . . ?
C4 C3 C6 C11 -35.8(7) . . . . ?
C2 C3 C6 C11 144.6(5) . . . . ?
C11 C6 C7 C8 -0.4(7) . . . . ?
C3 C6 C7 C8 179.6(4) . . . . ?
C6 C7 C8 C9 -0.3(7) . . . . ?
C6 C7 C8 C12 -179.7(4) . . . . ?
C17 O1 C9 C10 99.2(5) . . . . ?
C17 O1 C9 C8 -82.8(5) . . . . ?
C7 C8 C9 O1 -176.2(4) . . . . ?
C12 C8 C9 O1 3.2(7) . . . . ?
C7 C8 C9 C10 1.7(7) . . . . ?
C12 C8 C9 C10 -178.9(4) . . . . ?
O1 C9 C10 C11 175.6(4) . . . . ?
C8 C9 C10 C11 -2.3(7) . . . . ?
O1 C9 C10 C21 -6.2(6) . . . . ?
C8 C9 C10 C21 175.8(4) . . . . ?
C18 O2 C11 C10 101.0(5) . . . . ?
C18 O2 C11 C6 -81.4(6) . . . . ?
C9 C10 C11 O2 179.3(4) . . . . ?
C21 C10 C11 O2 1.1(6) . . . . ?
C9 C10 C11 C6 1.6(7) . . . . ?
C21 C10 C11 C6 -176.6(4) . . . . ?
C7 C6 C11 O2 -177.8(4) . . . . ?
C3 C6 C11 O2 2.1(7) . . . . ?
C7 C6 C11 C10 -0.2(7) . . . . ?
C3 C6 C11 C10 179.8(4) . . . . ?
C7 C8 C12 C16 144.6(5) . . . . ?
C9 C8 C12 C16 -34.8(7) . . . . ?
C7 C8 C12 C13 -33.1(7) . . . . ?
C9 C8 C12 C13 147.5(5) . . . . ?
C16 C12 C13 C14 -2.3(7) . . . . ?
C8 C12 C13 C14 175.6(5) . . . . ?
C15 N3 C14 C13 -1.4(9) . . . . ?
C12 C13 C14 N3 2.1(9) . . . . ?
C14 N3 C15 C16 1.0(9) . . . . ?
N3 C15 C16 C12 -1.4(8) . . . . ?
C13 C12 C16 C15 1.9(7) . . . . ?
C8 C12 C16 C15 -175.8(5) . . . . ?
C11 C10 C21 C22 -108.2(5) . . . . ?
C9 C10 C21 C22 73.7(6) . . . . ?
C11 C10 C21 C26 76.4(6) . . . . ?
C9 C10 C21 C26 -101.7(5) . . . . ?
C20 O3 C22 C21 124.1(5) . . . . ?
C20 O3 C22 C23 -57.8(6) . . . . ?
C26 C21 C22 O3 178.8(4) . . . . ?
C10 C21 C22 O3 3.4(7) . . . . ?
C26 C21 C22 C23 0.6(7) . . . . ?
C10 C21 C22 C23 -174.8(4) . . . . ?
O3 C22 C23 C24 -179.5(4) . . . . ?
C21 C22 C23 C24 -1.5(7) . . . . ?
O3 C22 C23 C32 -6.7(8) . . . . ?
C21 C22 C23 C32 171.4(4) . . . . ?
C22 C23 C24 C25 2.1(8) . . . . ?
C32 C23 C24 C25 -171.1(5) . . . . ?
C23 C24 C25 C26 -1.9(8) . . . . ?
C23 C24 C25 C27 171.3(5) . . . . ?
C19 O4 C26 C25 66.2(6) . . . . ?
C19 O4 C26 C21 -117.8(5) . . . . ?
C24 C25 C26 O4 176.7(4) . . . . ?
C27 C25 C26 O4 4.0(7) . . . . ?
C24 C25 C26 C21 0.9(7) . . . . ?
C27 C25 C26 C21 -171.9(5) . . . . ?
C22 C21 C26 O4 -176.4(4) . . . . ?
C10 C21 C26 O4 -0.9(6) . . . . ?
C22 C21 C26 C25 -0.3(7) . . . . ?
C10 C21 C26 C25 175.1(4) . . . . ?
C24 C25 C27 C28 39.7(7) . . . . ?
C26 C25 C27 C28 -147.5(5) . . . . ?
C24 C25 C27 C31 -133.2(5) . . . . ?
C26 C25 C27 C31 39.6(7) . . . . ?
C31 C27 C28 C29 1.7(7) . . . . ?
C25 C27 C28 C29 -171.4(5) . . . . ?
C30 N2 C29 C28 -1.8(7) . . . . ?
Cd1 N2 C29 C28 167.4(4) 4_466 . . . ?
C27 C28 C29 N2 -0.2(8) . . . . ?
C29 N2 C30 C31 2.3(7) . . . . ?
Cd1 N2 C30 C31 -166.3(4) 4_466 . . . ?
N2 C30 C31 C27 -0.7(7) . . . . ?
C28 C27 C31 C30 -1.3(7) . . . . ?
C25 C27 C31 C30 171.7(4) . . . . ?
C24 C23 C32 C33 -41.5(7) . . . . ?
C22 C23 C32 C33 145.7(5) . . . . ?
C24 C23 C32 C36 132.8(5) . . . . ?
C22 C23 C32 C36 -39.9(7) . . . . ?
C36 C32 C33 C34 1.7(7) . . . . ?
C23 C32 C33 C34 176.4(5) . . . . ?
C35 N4 C34 C33 0.4(8) . . . . ?
Cd1 N4 C34 C33 -178.1(4) 2_546 . . . ?
C32 C33 C34 N4 -1.5(8) . . . . ?
C34 N4 C35 C36 0.6(7) . . . . ?
Cd1 N4 C35 C36 179.0(4) 2_546 . . . ?
N4 C35 C36 C32 -0.3(8) . . . . ?
C33 C32 C36 C35 -0.9(7) . . . . ?
C23 C32 C36 C35 -175.5(4) . . . . ?
C43 N9 C41 O11 -167.6(10) . . . . ?
C42 N9 C41 O11 5.2(18) . . . . ?
C45 N12 C44 O12 5.1(15) . . . . ?
C46 N12 C44 O12 -176.4(11) . . . . ?
C45A N12A C44A O12A -179.5(8) . . . . ?
C46A N12A C44A O12A 1.0(12) . . . . ?

_diffrn_measured_fraction_theta_max 0.995
_diffrn_reflns_theta_full        25.00
_diffrn_measured_fraction_theta_full 0.995
_refine_diff_density_max         1.245
_refine_diff_density_min         -0.498
_refine_diff_density_rms         0.102
