####################################################################### 
# 
# This file contains crystal structure data downloaded from the 
# Cambridge Structural Database (CSD) hosted by the Cambridge 
# Crystallographic Data Centre (CCDC).
# 
# Full information about CCDC data access policies and citation 
# guidelines are available at http://www.ccdc.cam.ac.uk/access/V1 
# 
# Audit and citation data items may have been added by the CCDC. 
# Please retain this information to preserve the provenance of 
# this file and to allow appropriate attribution of the data. 
# 
#######################################################################

data_e:\130708b\work\t
_audit_block_doi                 10.5517/cc10zktc
_database_code_depnum_ccdc_archive 'CCDC 952903'
loop_
_citation_id
_citation_doi
_citation_year
1 10.1016/j.molstruc.2015.02.028 2015
_audit_update_record             
;
2013-07-29 deposited with the CCDC.	2024-07-11 downloaded from the CCDC.
;

_audit_creation_method           SHELXL-97
_chemical_name_systematic        
; 
 ? 
;
_chemical_name_common            ?
_chemical_melting_point          ?
_chemical_formula_moiety         ?
_chemical_formula_sum            'C60 H54 Cl8 Cu4 N18'
_chemical_formula_weight         1564.97

loop_
_atom_type_symbol
_atom_type_description
_atom_type_scat_dispersion_real
_atom_type_scat_dispersion_imag
_atom_type_scat_source
C C 0.0033 0.0016 'International Tables Vol C Tables 4.2.6.8 and 6.1.1.4'
H H 0.0000 0.0000 'International Tables Vol C Tables 4.2.6.8 and 6.1.1.4'
N N 0.0061 0.0033 'International Tables Vol C Tables 4.2.6.8 and 6.1.1.4'
Cl Cl 0.1484 0.1585 'International Tables Vol C Tables 4.2.6.8 and 6.1.1.4'
Cu Cu 0.3201 1.2651 'International Tables Vol C Tables 4.2.6.8 and 6.1.1.4'

_symmetry_cell_setting           Monoclinic
_symmetry_space_group_name_H-M   P2(1)/c

loop_
_symmetry_equiv_pos_as_xyz
'x, y, z'
'-x, y+1/2, -z+1/2'
'-x, -y, -z'
'x, -y-1/2, z-1/2'

_cell_length_a                   14.7592(13)
_cell_length_b                   16.2786(15)
_cell_length_c                   6.9207(6)
_cell_angle_alpha                90.00
_cell_angle_beta                 102.7530(10)
_cell_angle_gamma                90.00
_cell_volume                     1621.7(3)
_cell_formula_units_Z            1
_cell_measurement_temperature    100(2)
_cell_measurement_reflns_used    7628
_cell_measurement_theta_min      2.83
_cell_measurement_theta_max      32.13

_exptl_crystal_description       ?
_exptl_crystal_colour            ?
_exptl_crystal_size_max          0.10
_exptl_crystal_size_mid          0.10
_exptl_crystal_size_min          0.10
_exptl_crystal_density_meas      0
_exptl_crystal_density_diffrn    1.602
_exptl_crystal_density_method    'not measured'
_exptl_crystal_F_000             792
_exptl_absorpt_coefficient_mu    1.678
_exptl_absorpt_correction_type   none
_exptl_absorpt_correction_T_min  0.8501
_exptl_absorpt_correction_T_max  0.8501
_exptl_absorpt_process_details   ?

_exptl_special_details           
; 
 ? 
;

_diffrn_ambient_temperature      100(2)
_diffrn_radiation_wavelength     0.71073
_diffrn_radiation_type           MoK\a
_diffrn_radiation_source         'fine-focus sealed tube'
_diffrn_radiation_monochromator  graphite
_diffrn_measurement_device_type  'Bruker APEX-II CCD'
_diffrn_measurement_method       '\f and \w scans'
_diffrn_detector_area_resol_mean ?
_diffrn_standards_number         0
_diffrn_standards_interval_count ?
_diffrn_standards_interval_time  ?
_diffrn_standards_decay_%        ?
_diffrn_reflns_number            15428
_diffrn_reflns_av_R_equivalents  0.1346
_diffrn_reflns_av_sigmaI/netI    0.0847
_diffrn_reflns_limit_h_min       -21
_diffrn_reflns_limit_h_max       17
_diffrn_reflns_limit_k_min       -22
_diffrn_reflns_limit_k_max       23
_diffrn_reflns_limit_l_min       -9
_diffrn_reflns_limit_l_max       9
_diffrn_reflns_theta_min         1.41
_diffrn_reflns_theta_max         30.50
_reflns_number_total             4904
_reflns_number_gt                4105
_reflns_threshold_expression     >2sigma(I)

_computing_data_collection       'Bruker APEX2'
_computing_cell_refinement       'Bruker SAINT'
_computing_data_reduction        'Bruker SAINT'
_computing_structure_solution    'SHELXS-97 (Sheldrick, 1990)'
_computing_structure_refinement  'SHELXL-97 (Sheldrick, 1997)'
_computing_molecular_graphics    'Bruker SHELXTL'
_computing_publication_material  'Bruker SHELXTL'

_refine_special_details          
; 
 Refinement of F^2^ against ALL reflections.  The weighted R-factor wR and 
 goodness of fit S are based on F^2^, conventional R-factors R are based 
 on F, with F set to zero for negative F^2^. The threshold expression of 
 F^2^ > 2sigma(F^2^) is used only for calculating R-factors(gt) etc. and is 
 not relevant to the choice of reflections for refinement.  R-factors based 
 on F^2^ are statistically about twice as large as those based on F, and R- 
 factors based on ALL data will be even larger. 
;

_refine_ls_structure_factor_coef Fsqd
_refine_ls_matrix_type           full
_refine_ls_weighting_scheme      calc
_refine_ls_weighting_details     
'calc w=1/[\s^2^(Fo^2^)+(0.0786P)^2^+0.0000P] where P=(Fo^2^+2Fc^2^)/3'
_atom_sites_solution_primary     direct
_atom_sites_solution_secondary   difmap
_atom_sites_solution_hydrogens   geom
_refine_ls_hydrogen_treatment    mixed
_refine_ls_extinction_method     none
_refine_ls_extinction_coef       ?
_refine_ls_number_reflns         4904
_refine_ls_number_parameters     218
_refine_ls_number_restraints     20
_refine_ls_R_factor_all          0.0531
_refine_ls_R_factor_gt           0.0453
_refine_ls_wR_factor_ref         0.1287
_refine_ls_wR_factor_gt          0.1242
_refine_ls_goodness_of_fit_ref   1.017
_refine_ls_restrained_S_all      1.039
_refine_ls_shift/su_max          0.002
_refine_ls_shift/su_mean         0.000

loop_
_atom_site_label
_atom_site_type_symbol
_atom_site_fract_x
_atom_site_fract_y
_atom_site_fract_z
_atom_site_U_iso_or_equiv
_atom_site_adp_type
_atom_site_occupancy
_atom_site_symmetry_multiplicity
_atom_site_calc_flag
_atom_site_refinement_flags
_atom_site_disorder_assembly
_atom_site_disorder_group
Cu1 Cu 0.319221(18) 0.708906(14) 0.87495(4) 0.01363(10) Uani 1 1 d . . .
C1 C 0.11358(15) 0.45044(14) 1.0970(4) 0.0222(5) Uani 1 1 d . . .
C2 C 0.1019(2) 0.4696(2) 1.2859(4) 0.0380(7) Uani 1 1 d . . .
H2 H 0.1327 0.5159 1.3542 0.046 Uiso 1 1 calc R . .
C3 C 0.0446(2) 0.4206(3) 1.3749(5) 0.0545(11) Uani 1 1 d . . .
H3 H 0.0383 0.4329 1.5055 0.065 Uiso 1 1 calc R . .
C4 C -0.0026(2) 0.3548(2) 1.2750(7) 0.0544(11) Uani 1 1 d . . .
H4 H -0.0428 0.3226 1.3343 0.065 Uiso 1 1 calc R . .
C5 C 0.0094(2) 0.33610(19) 1.0870(8) 0.0592(12) Uani 1 1 d . . .
H5 H -0.0225 0.2904 1.0181 0.071 Uiso 1 1 calc R . .
C6 C 0.0670(2) 0.38287(17) 0.9980(6) 0.0405(7) Uani 1 1 d . . .
H6 H 0.0748 0.3690 0.8694 0.049 Uiso 1 1 calc R . .
C7 C 0.17182(14) 0.50189(12) 1.0008(3) 0.0170(4) Uani 1 1 d . . .
C8 C 0.19883(14) 0.58434(13) 1.0383(3) 0.0158(4) Uani 1 1 d . . .
H8 H 0.1834 0.6187 1.1373 0.019 Uiso 1 1 calc R . .
C9 C 0.31116(15) 0.53474(13) 0.6547(3) 0.0167(4) Uani 1 1 d . . .
H9A H 0.2855 0.5724 0.5438 0.020 Uiso 1 1 calc R . .
H9B H 0.3097 0.4783 0.6007 0.020 Uiso 1 1 calc R . .
C10 C 0.41028(15) 0.55854(12) 0.7446(3) 0.0151(4) Uani 1 1 d . . .
C11 C 0.48240(16) 0.50652(13) 0.7285(3) 0.0176(4) Uani 1 1 d . . .
H11 H 0.4699 0.4547 0.6651 0.021 Uiso 1 1 calc R . .
C12 C 0.57336(16) 0.53101(14) 0.8064(3) 0.0202(4) Uani 1 1 d . . .
H12 H 0.6240 0.4968 0.7951 0.024 Uiso 1 1 calc R . .
C13 C 0.58857(16) 0.60635(14) 0.9007(4) 0.0228(4) Uani 1 1 d . . .
H13 H 0.6500 0.6245 0.9562 0.027 Uiso 1 1 calc R . .
C14 C 0.51265(15) 0.65504(13) 0.9132(3) 0.0202(4) Uani 1 1 d . . .
H14 H 0.5234 0.7064 0.9797 0.024 Uiso 1 1 calc R . .
Cl1 Cl 0.20862(3) 0.78536(3) 0.98037(7) 0.01415(12) Uani 1 1 d . . .
Cl2 Cl 0.39842(3) 0.82060(3) 0.81363(7) 0.01531(12) Uani 1 1 d . . .
N1 N 0.24987(12) 0.60551(11) 0.9098(3) 0.0144(3) Uani 1 1 d . . .
N2 N 0.25368(12) 0.53829(10) 0.8009(3) 0.0150(3) Uani 1 1 d . . .
N3 N 0.20823(12) 0.47459(11) 0.8506(3) 0.0171(4) Uani 1 1 d . . .
N4 N 0.42437(13) 0.63230(11) 0.8346(3) 0.0154(3) Uani 1 1 d . . .
C2S C 0.7191(9) 0.7887(7) 0.083(2) 0.092(4) Uani 0.50 1 d PDU A -1
C1S C 0.7466(11) 0.7468(7) 0.257(3) 0.118(5) Uani 0.50 1 d PDU A -1
H1S1 H 0.6920 0.7327 0.3089 0.178 Uiso 0.50 1 calc PR A -1
H1S2 H 0.7886 0.7813 0.3531 0.178 Uiso 0.50 1 calc PR A -1
H1S3 H 0.7789 0.6964 0.2335 0.178 Uiso 0.50 1 calc PR A -1
N1S N 0.6867(14) 0.8119(10) -0.077(3) 0.161(6) Uani 0.50 1 d PDU A -1

loop_
_atom_site_aniso_label
_atom_site_aniso_U_11
_atom_site_aniso_U_22
_atom_site_aniso_U_33
_atom_site_aniso_U_23
_atom_site_aniso_U_13
_atom_site_aniso_U_12
Cu1 0.01434(15) 0.00724(14) 0.02037(16) -0.00027(8) 0.00611(10) -0.00078(8)
C1 0.0122(9) 0.0175(10) 0.0348(12) 0.0106(8) 0.0005(8) -0.0007(7)
C2 0.0261(13) 0.0571(19) 0.0272(13) 0.0153(12) -0.0019(10) -0.0172(12)
C3 0.0289(15) 0.089(3) 0.0431(17) 0.0370(18) 0.0027(13) -0.0136(16)
C4 0.0233(14) 0.0423(17) 0.100(3) 0.0443(19) 0.0185(16) 0.0025(12)
C5 0.0333(16) 0.0169(12) 0.137(4) 0.0025(17) 0.040(2) -0.0080(11)
C6 0.0256(13) 0.0188(12) 0.082(2) -0.0086(13) 0.0235(14) -0.0070(10)
C7 0.0127(9) 0.0127(9) 0.0232(10) 0.0025(7) -0.0007(7) -0.0017(7)
C8 0.0150(9) 0.0144(9) 0.0176(9) 0.0004(7) 0.0030(7) -0.0029(7)
C9 0.0193(10) 0.0129(9) 0.0169(9) -0.0026(7) 0.0018(7) 0.0034(7)
C10 0.0196(10) 0.0125(9) 0.0129(8) 0.0012(7) 0.0028(7) 0.0014(7)
C11 0.0227(10) 0.0151(9) 0.0158(9) 0.0020(7) 0.0058(8) 0.0047(8)
C12 0.0208(10) 0.0179(10) 0.0237(10) 0.0045(8) 0.0088(8) 0.0060(8)
C13 0.0168(10) 0.0190(10) 0.0331(12) 0.0020(8) 0.0067(8) 0.0022(8)
C14 0.0159(10) 0.0133(9) 0.0318(11) -0.0004(8) 0.0063(8) -0.0010(7)
Cl1 0.0149(2) 0.0103(2) 0.0177(2) -0.00113(14) 0.00450(17) 0.00004(15)
Cl2 0.0157(2) 0.0103(2) 0.0198(2) 0.00121(15) 0.00369(16) -0.00254(15)
N1 0.0150(8) 0.0109(7) 0.0169(8) -0.0007(6) 0.0024(6) -0.0006(6)
N2 0.0163(8) 0.0082(7) 0.0192(8) -0.0017(6) 0.0007(6) 0.0001(6)
N3 0.0133(8) 0.0111(8) 0.0242(9) -0.0004(6) -0.0014(6) -0.0012(6)
N4 0.0161(8) 0.0104(7) 0.0202(8) 0.0015(6) 0.0050(6) 0.0013(6)
C2S 0.069(6) 0.069(6) 0.132(8) -0.019(6) 0.007(6) -0.034(5)
C1S 0.109(8) 0.066(6) 0.168(9) -0.054(7) 0.003(7) -0.023(6)
N1S 0.158(9) 0.138(8) 0.188(10) 0.019(8) 0.036(8) -0.076(7)

_geom_special_details            
; 
 All esds (except the esd in the dihedral angle between two l.s. planes) 
 are estimated using the full covariance matrix.  The cell esds are taken 
 into account individually in the estimation of esds in distances, angles 
 and torsion angles; correlations between esds in cell parameters are only 
 used when they are defined by crystal symmetry.  An approximate (isotropic) 
 treatment of cell esds is used for estimating esds involving l.s. planes. 
;

loop_
_geom_bond_atom_site_label_1
_geom_bond_atom_site_label_2
_geom_bond_distance
_geom_bond_site_symmetry_2
_geom_bond_publ_flag
Cu1 N1 2.0119(18) . ?
Cu1 N4 2.0573(18) . ?
Cu1 Cl2 2.2520(5) . ?
Cu1 Cl1 2.2960(6) . ?
C1 C2 1.391(4) . ?
C1 C6 1.394(4) . ?
C1 C7 1.462(3) . ?
C2 C3 1.400(4) . ?
C2 H2 0.9500 . ?
C3 C4 1.379(6) . ?
C3 H3 0.9500 . ?
C4 C5 1.385(6) . ?
C4 H4 0.9500 . ?
C5 C6 1.383(5) . ?
C5 H5 0.9500 . ?
C6 H6 0.9500 . ?
C7 N3 1.347(3) . ?
C7 C8 1.408(3) . ?
C8 N1 1.331(3) . ?
C8 H8 0.9500 . ?
C9 N2 1.458(3) . ?
C9 C10 1.508(3) . ?
C9 H9A 0.9900 . ?
C9 H9B 0.9900 . ?
C10 N4 1.348(3) . ?
C10 C11 1.384(3) . ?
C11 C12 1.390(3) . ?
C11 H11 0.9500 . ?
C12 C13 1.384(3) . ?
C12 H12 0.9500 . ?
C13 C14 1.391(3) . ?
C13 H13 0.9500 . ?
C14 N4 1.348(3) . ?
C14 H14 0.9500 . ?
N1 N2 1.337(2) . ?
N2 N3 1.321(3) . ?
C2S N1S 1.167(14) . ?
C2S C1S 1.365(15) . ?
C1S H1S1 0.9800 . ?
C1S H1S2 0.9800 . ?
C1S H1S3 0.9800 . ?

loop_
_geom_angle_atom_site_label_1
_geom_angle_atom_site_label_2
_geom_angle_atom_site_label_3
_geom_angle
_geom_angle_site_symmetry_1
_geom_angle_site_symmetry_3
_geom_angle_publ_flag
N1 Cu1 N4 85.88(7) . . ?
N1 Cu1 Cl2 175.57(5) . . ?
N4 Cu1 Cl2 91.46(5) . . ?
N1 Cu1 Cl1 89.95(6) . . ?
N4 Cu1 Cl1 169.17(5) . . ?
Cl2 Cu1 Cl1 93.28(2) . . ?
C2 C1 C6 119.3(3) . . ?
C2 C1 C7 120.4(2) . . ?
C6 C1 C7 120.3(3) . . ?
C1 C2 C3 119.8(3) . . ?
C1 C2 H2 120.1 . . ?
C3 C2 H2 120.1 . . ?
C4 C3 C2 120.6(4) . . ?
C4 C3 H3 119.7 . . ?
C2 C3 H3 119.7 . . ?
C3 C4 C5 119.1(3) . . ?
C3 C4 H4 120.4 . . ?
C5 C4 H4 120.4 . . ?
C6 C5 C4 121.1(3) . . ?
C6 C5 H5 119.5 . . ?
C4 C5 H5 119.5 . . ?
C5 C6 C1 120.0(3) . . ?
C5 C6 H6 120.0 . . ?
C1 C6 H6 120.0 . . ?
N3 C7 C8 108.15(19) . . ?
N3 C7 C1 122.5(2) . . ?
C8 C7 C1 129.3(2) . . ?
N1 C8 C7 107.63(19) . . ?
N1 C8 H8 126.2 . . ?
C7 C8 H8 126.2 . . ?
N2 C9 C10 111.31(16) . . ?
N2 C9 H9A 109.4 . . ?
C10 C9 H9A 109.4 . . ?
N2 C9 H9B 109.4 . . ?
C10 C9 H9B 109.4 . . ?
H9A C9 H9B 108.0 . . ?
N4 C10 C11 122.7(2) . . ?
N4 C10 C9 117.14(18) . . ?
C11 C10 C9 120.19(18) . . ?
C10 C11 C12 119.2(2) . . ?
C10 C11 H11 120.4 . . ?
C12 C11 H11 120.4 . . ?
C13 C12 C11 118.6(2) . . ?
C13 C12 H12 120.7 . . ?
C11 C12 H12 120.7 . . ?
C12 C13 C14 119.0(2) . . ?
C12 C13 H13 120.5 . . ?
C14 C13 H13 120.5 . . ?
N4 C14 C13 122.6(2) . . ?
N4 C14 H14 118.7 . . ?
C13 C14 H14 118.7 . . ?
C8 N1 N2 105.36(17) . . ?
C8 N1 Cu1 132.42(14) . . ?
N2 N1 Cu1 122.10(15) . . ?
N3 N2 N1 114.14(18) . . ?
N3 N2 C9 123.79(17) . . ?
N1 N2 C9 121.80(17) . . ?
N2 N3 C7 104.71(17) . . ?
C10 N4 C14 117.90(19) . . ?
C10 N4 Cu1 123.97(15) . . ?
C14 N4 Cu1 118.01(14) . . ?
N1S C2S C1S 167.8(12) . . ?

loop_
_geom_torsion_atom_site_label_1
_geom_torsion_atom_site_label_2
_geom_torsion_atom_site_label_3
_geom_torsion_atom_site_label_4
_geom_torsion
_geom_torsion_site_symmetry_1
_geom_torsion_site_symmetry_2
_geom_torsion_site_symmetry_3
_geom_torsion_site_symmetry_4
_geom_torsion_publ_flag
C6 C1 C2 C3 0.7(4) . . . . ?
C7 C1 C2 C3 178.9(3) . . . . ?
C1 C2 C3 C4 -1.9(5) . . . . ?
C2 C3 C4 C5 1.9(5) . . . . ?
C3 C4 C5 C6 -0.7(5) . . . . ?
C4 C5 C6 C1 -0.5(5) . . . . ?
C2 C1 C6 C5 0.4(4) . . . . ?
C7 C1 C6 C5 -177.7(3) . . . . ?
C2 C1 C7 N3 159.4(2) . . . . ?
C6 C1 C7 N3 -22.4(3) . . . . ?
C2 C1 C7 C8 -21.8(3) . . . . ?
C6 C1 C7 C8 156.3(2) . . . . ?
N3 C7 C8 N1 0.6(2) . . . . ?
C1 C7 C8 N1 -178.31(19) . . . . ?
N2 C9 C10 N4 -55.6(2) . . . . ?
N2 C9 C10 C11 126.0(2) . . . . ?
N4 C10 C11 C12 -0.6(3) . . . . ?
C9 C10 C11 C12 177.7(2) . . . . ?
C10 C11 C12 C13 1.1(3) . . . . ?
C11 C12 C13 C14 -0.4(3) . . . . ?
C12 C13 C14 N4 -0.9(4) . . . . ?
C7 C8 N1 N2 -0.4(2) . . . . ?
C7 C8 N1 Cu1 -176.27(14) . . . . ?
N4 Cu1 N1 C8 136.84(19) . . . . ?
Cl2 Cu1 N1 C8 -170.1(5) . . . . ?
Cl1 Cu1 N1 C8 -33.15(18) . . . . ?
N4 Cu1 N1 N2 -38.49(15) . . . . ?
Cl2 Cu1 N1 N2 14.6(8) . . . . ?
Cl1 Cu1 N1 N2 151.52(14) . . . . ?
C8 N1 N2 N3 0.0(2) . . . . ?
Cu1 N1 N2 N3 176.43(12) . . . . ?
C8 N1 N2 C9 -174.16(17) . . . . ?
Cu1 N1 N2 C9 2.3(2) . . . . ?
C10 C9 N2 N3 -120.6(2) . . . . ?
C10 C9 N2 N1 53.0(2) . . . . ?
N1 N2 N3 C7 0.4(2) . . . . ?
C9 N2 N3 C7 174.40(17) . . . . ?
C8 C7 N3 N2 -0.6(2) . . . . ?
C1 C7 N3 N2 178.43(18) . . . . ?
C11 C10 N4 C14 -0.7(3) . . . . ?
C9 C10 N4 C14 -179.04(19) . . . . ?
C11 C10 N4 Cu1 -176.63(15) . . . . ?
C9 C10 N4 Cu1 5.0(3) . . . . ?
C13 C14 N4 C10 1.4(3) . . . . ?
C13 C14 N4 Cu1 177.60(18) . . . . ?
N1 Cu1 N4 C10 34.64(16) . . . . ?
Cl2 Cu1 N4 C10 -141.82(16) . . . . ?
Cl1 Cu1 N4 C10 102.3(3) . . . . ?
N1 Cu1 N4 C14 -141.28(17) . . . . ?
Cl2 Cu1 N4 C14 42.26(16) . . . . ?
Cl1 Cu1 N4 C14 -73.7(3) . . . . ?

loop_
_geom_hbond_atom_site_label_D
_geom_hbond_atom_site_label_H
_geom_hbond_atom_site_label_A
_geom_hbond_distance_DH
_geom_hbond_distance_HA
_geom_hbond_distance_DA
_geom_hbond_angle_DHA
_geom_hbond_site_symmetry_A
C9 H9A Cl1 0.99 2.57 3.393(2) 140.2 4_575
C8 H8 Cl1 0.95 2.80 3.699(2) 158.8 4_576

_diffrn_measured_fraction_theta_max 0.992
_diffrn_reflns_theta_full        30.50
_diffrn_measured_fraction_theta_full 0.992
_refine_diff_density_max         1.085
_refine_diff_density_min         -1.248
_refine_diff_density_rms         0.142
