####################################################################### 
# 
# This file contains crystal structure data downloaded from the 
# Cambridge Structural Database (CSD) hosted by the Cambridge 
# Crystallographic Data Centre (CCDC).
# 
# Full information about CCDC data access policies and citation 
# guidelines are available at http://www.ccdc.cam.ac.uk/access/V1 
# 
# Audit and citation data items may have been added by the CCDC. 
# Please retain this information to preserve the provenance of 
# this file and to allow appropriate attribution of the data. 
# 
#######################################################################

data_ic11108
_audit_block_doi                 10.5517/ccrdnd5
_database_code_depnum_ccdc_archive 'CCDC 697357'
loop_
_citation_id
_citation_doi
_citation_year
1 10.1016/j.ica.2009.04.003 2009
_audit_update_record             
;
2008-08-04 deposited with the CCDC.	2024-07-11 downloaded from the CCDC.
;

_audit_creation_method           SHELXL-97
_chemical_name_systematic        
;
?
;
_chemical_name_common            ?
_chemical_melting_point          ?
_chemical_formula_moiety         ?
_chemical_formula_sum            'C120 H107 B4 Cl4 Cu4 F16 N15 O3 P4'
_chemical_formula_weight         2674.29

loop_
_atom_type_symbol
_atom_type_description
_atom_type_scat_dispersion_real
_atom_type_scat_dispersion_imag
_atom_type_scat_source
C C 0.0033 0.0016 'International Tables Vol C Tables 4.2.6.8 and 6.1.1.4'
H H 0.0000 0.0000 'International Tables Vol C Tables 4.2.6.8 and 6.1.1.4'
B B 0.0013 0.0007 'International Tables Vol C Tables 4.2.6.8 and 6.1.1.4'
N N 0.0061 0.0033 'International Tables Vol C Tables 4.2.6.8 and 6.1.1.4'
F F 0.0171 0.0103 'International Tables Vol C Tables 4.2.6.8 and 6.1.1.4'
P P 0.1023 0.0942 'International Tables Vol C Tables 4.2.6.8 and 6.1.1.4'
Cl Cl 0.1484 0.1585 'International Tables Vol C Tables 4.2.6.8 and 6.1.1.4'
Cu Cu 0.3201 1.2651 'International Tables Vol C Tables 4.2.6.8 and 6.1.1.4'
O O 0.0106 0.0060 'International Tables Vol C Tables 4.2.6.8 and 6.1.1.4'

_symmetry_cell_setting           Monoclinic
_symmetry_space_group_name_H-M   Cc

loop_
_symmetry_equiv_pos_as_xyz
'x, y, z'
'x, -y, z+1/2'
'x+1/2, y+1/2, z'
'x+1/2, -y+1/2, z+1/2'

_cell_length_a                   20.6349(2)
_cell_length_b                   47.1890(8)
_cell_length_c                   17.9398(2)
_cell_angle_alpha                90.00
_cell_angle_beta                 118.8911(8)
_cell_angle_gamma                90.00
_cell_volume                     15294.5(3)
_cell_formula_units_Z            4
_cell_measurement_temperature    150(2)
_cell_measurement_reflns_used    all
_cell_measurement_theta_min      1.00
_cell_measurement_theta_max      25.00

_exptl_crystal_description       block
_exptl_crystal_colour            yellow
_exptl_crystal_size_max          0.40
_exptl_crystal_size_mid          0.30
_exptl_crystal_size_min          0.30
_exptl_crystal_density_meas      ?
_exptl_crystal_density_diffrn    1.161
_exptl_crystal_density_method    'not measured'
_exptl_crystal_F_000             5456
_exptl_absorpt_coefficient_mu    0.726
_exptl_absorpt_correction_type   multi-scan
_exptl_absorpt_correction_T_min  0.694
_exptl_absorpt_correction_T_max  0.859
_exptl_absorpt_process_details   ?

_exptl_special_details           
;
?
;

_diffrn_ambient_temperature      150(2)
_diffrn_radiation_wavelength     0.71073
_diffrn_radiation_type           MoK\a
_diffrn_radiation_source         'fine-focus sealed tube'
_diffrn_radiation_monochromator  graphite
_diffrn_measurement_device_type  'NONIUS KappaCCD'
_diffrn_measurement_method       '\w scans'
_diffrn_detector_area_resol_mean ?
_diffrn_standards_number         ?
_diffrn_standards_interval_count ?
_diffrn_standards_interval_time  ?
_diffrn_standards_decay_%        ?
_diffrn_reflns_number            80361
_diffrn_reflns_av_R_equivalents  0.0436
_diffrn_reflns_av_sigmaI/netI    0.0355
_diffrn_reflns_limit_h_min       -21
_diffrn_reflns_limit_h_max       24
_diffrn_reflns_limit_k_min       -55
_diffrn_reflns_limit_k_max       56
_diffrn_reflns_limit_l_min       -21
_diffrn_reflns_limit_l_max       20
_diffrn_reflns_theta_min         1.21
_diffrn_reflns_theta_max         25.00
_reflns_number_total             22106
_reflns_number_gt                18925
_reflns_threshold_expression     >2sigma(I)

_computing_data_collection       'NONIUS COLLECT'
_computing_cell_refinement       DENZO-SMN
_computing_data_reduction        DENZO-SMN
_computing_structure_solution    'SHELXS-97 (Sheldrick, 1990)'
_computing_structure_refinement  'SHELXL-97 (Sheldrick, 1997)'
_computing_molecular_graphics    'Bruker SHELXTL'
_computing_publication_material  'Bruker SHELXTL'

_refine_special_details          
;
Refinement of F^2^ against ALL reflections. The weighted R-factor wR and
goodness of fit S are based on F^2^, conventional R-factors R are based
on F, with F set to zero for negative F^2^. The threshold expression of
F^2^ > 2sigma(F^2^) is used only for calculating R-factors(gt) etc. and is
not relevant to the choice of reflections for refinement. R-factors based
on F^2^ are statistically about twice as large as those based on F, and R-
factors based on ALL data will be even larger.
;

_refine_ls_structure_factor_coef Fsqd
_refine_ls_matrix_type           full
_refine_ls_weighting_scheme      calc
_refine_ls_weighting_details     
'calc w=1/[\s^2^(Fo^2^)+(0.1843P)^2^+25.1435P] where P=(Fo^2^+2Fc^2^)/3'
_atom_sites_solution_primary     direct
_atom_sites_solution_secondary   difmap
_atom_sites_solution_hydrogens   geom
_refine_ls_hydrogen_treatment    CONSTR
_refine_ls_extinction_method     SHELXL
_refine_ls_extinction_coef       0.0048(3)
_refine_ls_extinction_expression Fc^*^=kFc[1+0.001xFc^2^\l^3^/sin(2\q)]^-1/4^
_refine_ls_abs_structure_details 'Flack H D (1983), Acta Cryst. A39, 876-881'
_refine_ls_abs_structure_Flack   0.020(17)
_refine_ls_number_reflns         22106
_refine_ls_number_parameters     1320
_refine_ls_number_restraints     91
_refine_ls_R_factor_all          0.1154
_refine_ls_R_factor_gt           0.1035
_refine_ls_wR_factor_ref         0.2933
_refine_ls_wR_factor_gt          0.2794
_refine_ls_goodness_of_fit_ref   1.238
_refine_ls_restrained_S_all      1.289
_refine_ls_shift/su_max          0.049
_refine_ls_shift/su_mean         0.004

loop_
_atom_site_label
_atom_site_type_symbol
_atom_site_fract_x
_atom_site_fract_y
_atom_site_fract_z
_atom_site_U_iso_or_equiv
_atom_site_adp_type
_atom_site_occupancy
_atom_site_symmetry_multiplicity
_atom_site_calc_flag
_atom_site_refinement_flags
_atom_site_disorder_assembly
_atom_site_disorder_group
Cu1 Cu -0.59571(6) 0.56996(2) 0.01596(6) 0.0492(3) Uani 1 1 d . . .
Cu2 Cu -1.15225(6) 0.67556(2) -0.23694(6) 0.0508(3) Uani 1 1 d . . .
Cu3 Cu -1.09394(6) 0.81482(2) 0.29663(7) 0.0501(3) Uani 1 1 d . . .
Cu4 Cu -1.63781(6) 0.92827(2) 0.04193(7) 0.0553(3) Uani 1 1 d . . .
P1 P -0.50478(13) 0.60056(5) 0.07008(14) 0.0490(5) Uani 1 1 d . . .
P2 P -1.00453(13) 0.84625(5) 0.34678(15) 0.0502(5) Uani 1 1 d . . .
P3 P -1.24513(13) 0.64605(5) -0.28547(15) 0.0503(5) Uani 1 1 d . . .
P4 P -1.73738(13) 0.90159(5) -0.01269(14) 0.0515(6) Uani 1 1 d . . .
N1 N -0.6085(4) 0.54034(17) 0.0911(5) 0.0522(18) Uani 1 1 d . . .
N2 N -0.6067(5) 0.45308(17) 0.4119(5) 0.0569(19) Uani 1 1 d . . .
N3 N -0.6977(5) 0.58997(18) -0.0362(5) 0.059(2) Uani 1 1 d . . .
N4 N -1.0520(5) 0.65415(19) -0.1917(6) 0.064(2) Uani 1 1 d . . .
N5 N -1.1325(4) 0.70311(16) -0.1401(5) 0.0535(18) Uani 1 1 d . . .
N6 N -1.1074(4) 0.78980(15) 0.1966(5) 0.0497(17) Uani 1 1 d . . .
N7 N -1.1976(5) 0.83445(19) 0.2557(6) 0.064(2) Uani 1 1 d . . .
N8 N -1.5399(4) 0.90581(17) 0.0993(5) 0.0564(19) Uani 1 1 d . . .
N9 N -1.1449(5) 0.70173(17) -0.3251(5) 0.060(2) Uani 1 1 d . . .
N10 N -1.0942(6) 0.7847(2) 0.3804(5) 0.069(2) Uani 1 1 d . . .
N11 N -1.6246(5) 0.95505(18) -0.0414(5) 0.063(2) Uani 1 1 d . . .
N12 N -1.6345(5) 0.95475(19) 0.1344(5) 0.063(2) Uani 1 1 d . . .
C1 C -0.5663(6) 0.5172(2) 0.1196(6) 0.057(2) Uani 1 1 d . . .
H1A H -0.5321 0.5135 0.0997 0.068 Uiso 1 1 calc R . .
C2 C -0.5697(6) 0.4983(2) 0.1767(6) 0.057(2) Uani 1 1 d . . .
H2A H -0.5388 0.4820 0.1938 0.068 Uiso 1 1 calc R . .
C3 C -0.6165(5) 0.50282(19) 0.2082(6) 0.051(2) Uani 1 1 d . . .
C4 C -0.6649(6) 0.5261(2) 0.1755(7) 0.065(3) Uani 1 1 d . . .
H4A H -0.7020 0.5289 0.1916 0.078 Uiso 1 1 calc R . .
C5 C -0.6589(6) 0.5446(2) 0.1205(7) 0.067(3) Uani 1 1 d . . .
H5A H -0.6900 0.5609 0.1020 0.081 Uiso 1 1 calc R . .
C6 C -0.5912(8) 0.4426(2) 0.3562(7) 0.077(3) Uani 1 1 d . . .
H6A H -0.5746 0.4235 0.3641 0.092 Uiso 1 1 calc R . .
C7 C -0.5964(9) 0.4562(2) 0.2879(8) 0.087(4) Uani 1 1 d . . .
H7A H -0.5868 0.4463 0.2481 0.104 Uiso 1 1 calc R . .
C8 C -0.6160(5) 0.48499(19) 0.2749(6) 0.050(2) Uani 1 1 d . . .
C9 C -0.6338(8) 0.4958(2) 0.3357(8) 0.078(3) Uani 1 1 d . . .
H9A H -0.6501 0.5149 0.3313 0.093 Uiso 1 1 calc R . .
C10 C -0.6279(9) 0.4795(2) 0.4002(8) 0.084(4) Uani 1 1 d . . .
H10A H -0.6399 0.4879 0.4401 0.100 Uiso 1 1 calc R . .
C11 C -0.7085(6) 0.6161(3) -0.0131(8) 0.090(4) Uani 1 1 d . . .
H11A H -0.6660 0.6263 0.0260 0.108 Uiso 1 1 calc R . .
C12 C -0.7749(7) 0.6286(3) -0.0411(9) 0.093(4) Uani 1 1 d . . .
H12A H -0.7777 0.6470 -0.0211 0.111 Uiso 1 1 calc R . .
C13 C -0.8387(6) 0.6151(2) -0.0986(6) 0.064(3) Uani 1 1 d . . .
C14 C -0.8303(6) 0.5874(2) -0.1193(8) 0.067(3) Uani 1 1 d . . .
H14A H -0.8724 0.5764 -0.1554 0.080 Uiso 1 1 calc R . .
C15 C -0.7596(6) 0.5761(2) -0.0867(7) 0.064(3) Uani 1 1 d . . .
H15A H -0.7553 0.5571 -0.1016 0.077 Uiso 1 1 calc R . .
C16 C -0.9905(7) 0.6690(2) -0.1764(8) 0.075(3) Uani 1 1 d . . .
H16A H -0.9952 0.6889 -0.1864 0.090 Uiso 1 1 calc R . .
C17 C -0.9210(6) 0.6568(2) -0.1469(8) 0.074(3) Uani 1 1 d . . .
H17A H -0.8794 0.6682 -0.1368 0.089 Uiso 1 1 calc R . .
C18 C -0.9136(6) 0.6282(2) -0.1328(7) 0.066(3) Uani 1 1 d . . .
C19 C -0.9769(6) 0.6128(3) -0.1480(8) 0.076(3) Uani 1 1 d . . .
H19A H -0.9738 0.5930 -0.1378 0.092 Uiso 1 1 calc R . .
C20 C -1.0422(7) 0.6265(3) -0.1772(8) 0.077(3) Uani 1 1 d . . .
H20A H -1.0844 0.6154 -0.1881 0.093 Uiso 1 1 calc R . .
C21 C -1.0826(6) 0.6984(2) -0.0593(7) 0.068(3) Uani 1 1 d . . .
H21A H -1.0507 0.6825 -0.0467 0.081 Uiso 1 1 calc R . .
C22 C -1.0749(6) 0.7153(2) 0.0067(6) 0.065(3) Uani 1 1 d . . .
H22A H -1.0385 0.7108 0.0633 0.078 Uiso 1 1 calc R . .
C23 C -1.1193(5) 0.73874(19) -0.0082(6) 0.048(2) Uani 1 1 d . . .
C24 C -1.1708(5) 0.7441(2) -0.0911(6) 0.055(2) Uani 1 1 d . . .
H24A H -1.2032 0.7599 -0.1050 0.066 Uiso 1 1 calc R . .
C25 C -1.1747(6) 0.7262(2) -0.1541(6) 0.060(2) Uani 1 1 d . . .
H25A H -1.2098 0.7306 -0.2114 0.072 Uiso 1 1 calc R . .
C26 C -1.0622(7) 0.7690(2) 0.2105(6) 0.067(3) Uani 1 1 d . . .
H26A H -1.0251 0.7652 0.2673 0.080 Uiso 1 1 calc R . .
C27 C -1.0659(6) 0.7517(2) 0.1443(7) 0.065(3) Uani 1 1 d . . .
H27A H -1.0332 0.7360 0.1577 0.078 Uiso 1 1 calc R . .
C28 C -1.1146(5) 0.75713(18) 0.0633(5) 0.046(2) Uani 1 1 d . . .
C29 C -1.1608(6) 0.7794(2) 0.0483(7) 0.065(3) Uani 1 1 d . . .
H29A H -1.1959 0.7841 -0.0086 0.078 Uiso 1 1 calc R . .
C30 C -1.1576(6) 0.7953(2) 0.1142(6) 0.065(3) Uani 1 1 d . . .
H30A H -1.1914 0.8105 0.1018 0.078 Uiso 1 1 calc R . .
C31 C -1.2014(6) 0.8614(2) 0.2759(7) 0.074(3) Uani 1 1 d . . .
H31A H -1.1565 0.8709 0.3125 0.089 Uiso 1 1 calc R . .
C32 C -1.2659(6) 0.8759(3) 0.2469(7) 0.073(3) Uani 1 1 d . . .
H32A H -1.2652 0.8955 0.2596 0.087 Uiso 1 1 calc R . .
C33 C -1.3330(5) 0.8621(2) 0.1986(6) 0.057(2) Uani 1 1 d . . .
C34 C -1.3272(7) 0.8332(3) 0.1868(10) 0.084(4) Uani 1 1 d . . .
H34A H -1.3709 0.8221 0.1602 0.101 Uiso 1 1 calc R . .
C35 C -1.2607(7) 0.8207(3) 0.2125(10) 0.087(4) Uani 1 1 d . . .
H35A H -1.2594 0.8013 0.1989 0.104 Uiso 1 1 calc R . .
C36 C -1.4739(6) 0.9192(2) 0.1206(7) 0.067(3) Uani 1 1 d . . .
H36A H -1.4742 0.9391 0.1121 0.081 Uiso 1 1 calc R . .
C37 C -1.4086(6) 0.9052(2) 0.1532(7) 0.064(3) Uani 1 1 d . . .
H37A H -1.3645 0.9155 0.1677 0.077 Uiso 1 1 calc R . .
C38 C -1.4049(5) 0.8771(2) 0.1653(6) 0.058(2) Uani 1 1 d . . .
C39 C -1.4693(5) 0.8626(2) 0.1453(7) 0.062(2) Uani 1 1 d . . .
H39A H -1.4695 0.8427 0.1524 0.075 Uiso 1 1 calc R . .
C40 C -1.5340(6) 0.8785(2) 0.1141(6) 0.065(3) Uani 1 1 d . . .
H40A H -1.5780 0.8686 0.1024 0.078 Uiso 1 1 calc R . .
C41 C -1.1085(7) 0.7255(3) -0.3042(8) 0.075(3) Uani 1 1 d . . .
H41A H -1.0900 0.7319 -0.2473 0.090 Uiso 1 1 calc R . .
C42 C -1.0946(7) 0.7419(3) -0.3580(7) 0.079(3) Uani 1 1 d . . .
H42A H -1.0674 0.7591 -0.3383 0.094 Uiso 1 1 calc R . .
C43 C -1.1210(7) 0.7332(2) -0.4419(7) 0.072(3) Uani 1 1 d . . .
C44 C -1.1587(8) 0.7077(3) -0.4637(7) 0.089(4) Uani 1 1 d . . .
H44A H -1.1770 0.7004 -0.5197 0.106 Uiso 1 1 calc R . .
C45 C -1.1697(9) 0.6930(3) -0.4057(7) 0.091(4) Uani 1 1 d . . .
H45A H -1.1963 0.6757 -0.4229 0.109 Uiso 1 1 calc R . .
C46 C -1.0408(7) 0.7831(3) 0.4604(9) 0.083(3) Uani 1 1 d . . .
H46A H -0.9966 0.7936 0.4770 0.100 Uiso 1 1 calc R . .
C47 C -1.0469(9) 0.7665(3) 0.5225(9) 0.092(4) Uani 1 1 d . . .
H47A H -1.0086 0.7661 0.5801 0.111 Uiso 1 1 calc R . .
C48 C -1.1111(6) 0.7507(2) 0.4958(6) 0.066(3) Uani 1 1 d . . .
C49 C -1.1559(11) 0.7493(4) 0.4140(9) 0.121(7) Uani 1 1 d . . .
H49A H -1.1958 0.7362 0.3923 0.146 Uiso 1 1 calc R . .
C50 C -1.1456(9) 0.7668(3) 0.3591(7) 0.102(5) Uani 1 1 d . . .
H50A H -1.1801 0.7652 0.3001 0.123 Uiso 1 1 calc R . .
C51 C -1.5853(8) 0.9495(3) -0.0768(8) 0.081(3) Uani 1 1 d . . .
H51A H -1.5545 0.9332 -0.0577 0.097 Uiso 1 1 calc R . .
C52 C -1.5841(7) 0.9657(3) -0.1421(8) 0.082(3) Uani 1 1 d . . .
H52A H -1.5561 0.9597 -0.1685 0.098 Uiso 1 1 calc R . .
C53 C -1.6262(7) 0.9916(2) -0.1680(8) 0.068(3) Uani 1 1 d . . .
C54 C -1.6675(12) 0.9969(3) -0.1278(13) 0.126(7) Uani 1 1 d . . .
H54A H -1.6966 1.0136 -0.1406 0.151 Uiso 1 1 calc R . .
C55 C -1.6661(10) 0.9779(3) -0.0694(11) 0.105(5) Uani 1 1 d . . .
H55A H -1.6985 0.9816 -0.0468 0.126 Uiso 1 1 calc R . .
C56 C -1.6929(7) 0.9592(3) 0.1469(8) 0.082(3) Uani 1 1 d . . .
H56A H -1.7386 0.9504 0.1089 0.098 Uiso 1 1 calc R . .
C57 C -1.6906(7) 0.9756(3) 0.2115(9) 0.084(4) Uani 1 1 d . . .
H57A H -1.7332 0.9772 0.2185 0.101 Uiso 1 1 calc R . .
C58 C -1.6278(7) 0.9896(2) 0.2650(7) 0.068(3) Uani 1 1 d . . .
C59 C -1.5688(7) 0.9873(4) 0.2514(8) 0.097(5) Uani 1 1 d . . .
H59A H -1.5250 0.9980 0.2846 0.116 Uiso 1 1 calc R . .
C60 C -1.5733(7) 0.9695(3) 0.1895(9) 0.090(4) Uani 1 1 d . . .
H60A H -1.5300 0.9672 0.1843 0.108 Uiso 1 1 calc R . .
C61 C -0.5063(5) 0.6225(2) -0.0106(6) 0.052(2) Uani 1 1 d . . .
C62 C -1.0051(5) 0.86619(19) 0.4295(6) 0.050(2) Uani 1 1 d . . .
C63 C -1.2469(5) 0.6256(2) -0.3705(6) 0.054(2) Uani 1 1 d . . .
C64 C -1.7460(5) 0.88440(19) 0.0712(6) 0.054(2) Uani 1 1 d . . .
C65 C -0.4086(5) 0.5896(2) 0.1203(6) 0.056(2) Uani 1 1 d . . .
C66 C -0.3935(7) 0.5607(3) 0.1193(8) 0.087(4) Uani 1 1 d . . .
H66A H -0.4328 0.5474 0.0929 0.104 Uiso 1 1 calc R . .
C67 C -0.3191(11) 0.5515(5) 0.1578(12) 0.128(7) Uani 1 1 d . . .
H67A H -0.3066 0.5320 0.1600 0.154 Uiso 1 1 calc R . .
C68 C -0.2626(9) 0.5733(7) 0.1938(12) 0.137(8) Uani 1 1 d . . .
H68A H -0.2120 0.5680 0.2185 0.165 Uiso 1 1 calc R . .
C69 C -0.2792(7) 0.5998(4) 0.1932(10) 0.098(4) Uani 1 1 d . . .
H69A H -0.2406 0.6135 0.2182 0.118 Uiso 1 1 calc R . .
C70 C -0.3515(7) 0.6085(3) 0.1572(7) 0.085(3) Uani 1 1 d . . .
H70A H -0.3621 0.6281 0.1578 0.102 Uiso 1 1 calc R . .
C71 C -0.5080(6) 0.6263(2) 0.1441(6) 0.059(2) Uani 1 1 d . . .
C72 C -0.5151(8) 0.6162(3) 0.2117(8) 0.091(4) Uani 1 1 d . . .
H72A H -0.5188 0.5962 0.2155 0.110 Uiso 1 1 calc R . .
C73 C -0.5174(12) 0.6320(4) 0.2730(11) 0.122(6) Uani 1 1 d . . .
H73A H -0.5238 0.6241 0.3177 0.147 Uiso 1 1 calc R . .
C74 C -0.5096(13) 0.6614(5) 0.2648(16) 0.136(6) Uiso 1 1 d . . .
H74A H -0.5048 0.6735 0.3096 0.163 Uiso 1 1 calc R . .
C75 C -0.5085(14) 0.6729(3) 0.1994(13) 0.136(7) Uani 1 1 d . . .
H75A H -0.5146 0.6928 0.1899 0.163 Uiso 1 1 calc R . .
C76 C -0.4977(10) 0.6542(2) 0.1409(9) 0.097(5) Uani 1 1 d . . .
H76A H -0.4837 0.6617 0.1017 0.117 Uiso 1 1 calc R . .
C77 C -0.9078(6) 0.8347(2) 0.3969(7) 0.061(2) Uani 1 1 d . . .
C78 C -0.8538(6) 0.8482(4) 0.4694(10) 0.105(5) Uani 1 1 d . . .
H78A H -0.8651 0.8639 0.4941 0.126 Uiso 1 1 calc R . .
C79 C -0.7829(12) 0.8374(5) 0.5036(13) 0.130(6) Uiso 1 1 d . . .
H79A H -0.7446 0.8451 0.5550 0.156 Uiso 1 1 calc R . .
C80 C -0.7672(9) 0.8153(5) 0.4634(14) 0.131(7) Uani 1 1 d . . .
H80A H -0.7172 0.8097 0.4842 0.157 Uiso 1 1 calc R . .
C81 C -0.8192(11) 0.8022(4) 0.3979(13) 0.113(6) Uani 1 1 d . . .
H81A H -0.8094 0.7854 0.3758 0.136 Uiso 1 1 calc R . .
C82 C -0.8892(8) 0.8138(4) 0.3624(11) 0.100(5) Uani 1 1 d . . .
H82A H -0.9262 0.8063 0.3099 0.120 Uiso 1 1 calc R . .
C83 C -1.0104(6) 0.8732(2) 0.2723(7) 0.061(2) Uani 1 1 d . . .
C84 C -0.9565(8) 0.8944(3) 0.2896(9) 0.082(3) Uani 1 1 d . . .
H84A H -0.9133 0.8955 0.3437 0.099 Uiso 1 1 calc R . .
C85 C -0.9681(9) 0.9134(3) 0.2261(11) 0.091(4) Uani 1 1 d . . .
H85A H -0.9295 0.9263 0.2355 0.109 Uiso 1 1 calc R . .
C86 C -1.0313(11) 0.9146(3) 0.1514(10) 0.095(4) Uani 1 1 d . . .
H86A H -1.0365 0.9285 0.1104 0.115 Uiso 1 1 calc R . .
C87 C -1.0886(8) 0.8959(3) 0.1333(8) 0.082(3) Uani 1 1 d . . .
H87A H -1.1335 0.8972 0.0810 0.099 Uiso 1 1 calc R . .
C88 C -1.0795(9) 0.8752(3) 0.1932(7) 0.088(4) Uani 1 1 d . . .
H88A H -1.1187 0.8624 0.1820 0.106 Uiso 1 1 calc R . .
C89 C -1.3417(6) 0.6588(2) -0.3351(7) 0.062(3) Uani 1 1 d . . .
C90 C -1.3533(8) 0.6875(3) -0.3277(12) 0.105(5) Uani 1 1 d . . .
H90A H -1.3131 0.6999 -0.2951 0.125 Uiso 1 1 calc R . .
C91 C -1.4271(12) 0.6977(4) -0.3702(13) 0.137(8) Uani 1 1 d . . .
H91A H -1.4357 0.7174 -0.3688 0.165 Uiso 1 1 calc R . .
C92 C -1.4860(9) 0.6803(4) -0.4129(13) 0.114(6) Uani 1 1 d . . .
H92A H -1.5352 0.6874 -0.4424 0.137 Uiso 1 1 calc R . .
C93 C -1.4709(8) 0.6522(4) -0.4113(11) 0.106(5) Uani 1 1 d . . .
H93A H -1.5112 0.6394 -0.4374 0.127 Uiso 1 1 calc R . .
C94 C -1.4025(7) 0.6419(3) -0.3749(10) 0.092(4) Uani 1 1 d . . .
H94A H -1.3957 0.6221 -0.3768 0.110 Uiso 1 1 calc R . .
C95 C -1.2393(6) 0.6185(2) -0.2109(6) 0.062(2) Uani 1 1 d . . .
C96 