####################################################################### 
# 
# This file contains crystal structure data downloaded from the 
# Cambridge Structural Database (CSD) hosted by the Cambridge 
# Crystallographic Data Centre (CCDC).
# 
# Full information about CCDC data access policies and citation 
# guidelines are available at http://www.ccdc.cam.ac.uk/access/V1 
# 
# Audit and citation data items may have been added by the CCDC. 
# Please retain this information to preserve the provenance of 
# this file and to allow appropriate attribution of the data. 
# 
#######################################################################

data_1
_audit_block_doi                 10.5517/cc14jqky
_database_code_depnum_ccdc_archive 'CCDC 1058760'
loop_
_citation_id
_citation_doi
_citation_year
1 10.1016/j.inoche.2014.08.034 2014
_audit_update_record             
;
2015-04-09 deposited with the CCDC.	2024-07-11 downloaded from the CCDC.
;

_audit_creation_method           SHELXL-97
_chemical_name_systematic        
; 
 ? 
;
_chemical_name_common            ?
_chemical_melting_point          ?
_chemical_formula_moiety         ?
_chemical_formula_sum            'C24 H16 Mg N2 O4'
_chemical_formula_weight         420.70

loop_
_atom_type_symbol
_atom_type_description
_atom_type_scat_dispersion_real
_atom_type_scat_dispersion_imag
_atom_type_scat_source
C C 0.0033 0.0016 'International Tables Vol C Tables 4.2.6.8 and 6.1.1.4'
H H 0.0000 0.0000 'International Tables Vol C Tables 4.2.6.8 and 6.1.1.4'
N N 0.0061 0.0033 'International Tables Vol C Tables 4.2.6.8 and 6.1.1.4'
O O 0.0106 0.0060 'International Tables Vol C Tables 4.2.6.8 and 6.1.1.4'
Mg Mg 0.0486 0.0363 'International Tables Vol C Tables 4.2.6.8 and 6.1.1.4'

_symmetry_cell_setting           monoclinic
_symmetry_space_group_name_H-M   C2/c

loop_
_symmetry_equiv_pos_as_xyz
'x, y, z'
'-x, y, -z+1/2'
'x+1/2, y+1/2, z'
'-x+1/2, y+1/2, -z+1/2'
'-x, -y, -z'
'x, -y, z-1/2'
'-x+1/2, -y+1/2, -z'
'x+1/2, -y+1/2, z-1/2'

_cell_length_a                   19.0449(7)
_cell_length_b                   15.5344(5)
_cell_length_c                   8.4791(4)
_cell_angle_alpha                90.00
_cell_angle_beta                 110.522(5)
_cell_angle_gamma                90.00
_cell_volume                     2349.35(16)
_cell_formula_units_Z            4
_cell_measurement_temperature    293(2)
_cell_measurement_reflns_used    1686
_cell_measurement_theta_min      3.4080
_cell_measurement_theta_max      28.8987

_exptl_crystal_description       prism
_exptl_crystal_colour            colorless
_exptl_crystal_size_max          0.32
_exptl_crystal_size_mid          0.22
_exptl_crystal_size_min          0.18
_exptl_crystal_density_meas      ?
_exptl_crystal_density_diffrn    1.189
_exptl_crystal_density_method    'not measured'
_exptl_crystal_F_000             872
_exptl_absorpt_coefficient_mu    0.106
_exptl_absorpt_correction_type   multi-scan
_exptl_absorpt_correction_T_min  0.96221
_exptl_absorpt_correction_T_max  1.00000
_exptl_absorpt_process_details   
;
CrysAlisPro, Agilent Technologies,
Version 1.171.35.21 (release 20-01-2012 CrysAlis171 .NET)
(compiled Jan 23 2012,18:06:46)
Empirical absorption correction using spherical harmonics,
 implemented in SCALE3 ABSPACK scaling algorithm.
;

_exptl_special_details           
; 
 ? 
;

_diffrn_ambient_temperature      293(2)
_diffrn_radiation_wavelength     0.71073
_diffrn_radiation_type           MoK\a
_diffrn_radiation_source         'fine-focus sealed tube'
_diffrn_radiation_monochromator  graphite
_diffrn_measurement_device_type  'Xcalibur, Eos'
_diffrn_measurement_method       '\w scans'
_diffrn_detector_area_resol_mean ?
_diffrn_standards_number         ?
_diffrn_standards_interval_count ?
_diffrn_standards_interval_time  ?
_diffrn_standards_decay_%        ?
_diffrn_reflns_number            5007
_diffrn_reflns_av_R_equivalents  0.0203
_diffrn_reflns_av_sigmaI/netI    0.0385
_diffrn_reflns_limit_h_min       -15
_diffrn_reflns_limit_h_max       23
_diffrn_reflns_limit_k_min       -12
_diffrn_reflns_limit_k_max       19
_diffrn_reflns_limit_l_min       -10
_diffrn_reflns_limit_l_max       10
_diffrn_reflns_theta_min         3.41
_diffrn_reflns_theta_max         26.37
_reflns_number_total             2406
_reflns_number_gt                1883
_reflns_threshold_expression     >2sigma(I)

_computing_data_collection       ?
_computing_cell_refinement       ?
_computing_data_reduction        ?
_computing_structure_solution    'SHELXS-97 (Sheldrick, 1990)'
_computing_structure_refinement  'SHELXL-97 (Sheldrick, 1997)'
_computing_molecular_graphics    ?
_computing_publication_material  ?

_refine_special_details          
; 
 Refinement of F^2^ against ALL reflections.  The weighted R-factor wR and 
 goodness of fit S are based on F^2^, conventional R-factors R are based 
 on F, with F set to zero for negative F^2^. The threshold expression of 
 F^2^ > 2sigma(F^2^) is used only for calculating R-factors(gt) etc. and is 
 not relevant to the choice of reflections for refinement.  R-factors based 
 on F^2^ are statistically about twice as large as those based on F, and R- 
 factors based on ALL data will be even larger. 
;

_refine_ls_structure_factor_coef Fsqd
_refine_ls_matrix_type           full
_refine_ls_weighting_scheme      calc
_refine_ls_weighting_details     
'calc w=1/[\s^2^(Fo^2^)+(0.0905P)^2^+2.3002P] where P=(Fo^2^+2Fc^2^)/3'
_atom_sites_solution_primary     direct
_atom_sites_solution_secondary   difmap
_atom_sites_solution_hydrogens   geom
_refine_ls_hydrogen_treatment    mixed
_refine_ls_extinction_method     none
_refine_ls_extinction_coef       ?
_refine_ls_number_reflns         2406
_refine_ls_number_parameters     141
_refine_ls_number_restraints     0
_refine_ls_R_factor_all          0.0714
_refine_ls_R_factor_gt           0.0564
_refine_ls_wR_factor_ref         0.1880
_refine_ls_wR_factor_gt          0.1763
_refine_ls_goodness_of_fit_ref   1.168
_refine_ls_restrained_S_all      1.168
_refine_ls_shift/su_max          0.000
_refine_ls_shift/su_mean         0.000

loop_
_atom_site_label
_atom_site_type_symbol
_atom_site_fract_x
_atom_site_fract_y
_atom_site_fract_z
_atom_site_U_iso_or_equiv
_atom_site_adp_type
_atom_site_occupancy
_atom_site_symmetry_multiplicity
_atom_site_calc_flag
_atom_site_refinement_flags
_atom_site_disorder_assembly
_atom_site_disorder_group
Mg1 Mg 0.5000 0.07416(6) 0.7500 0.0206(3) Uani 1 2 d S . .
O1 O 0.43721(9) 0.01637(11) 1.0913(2) 0.0319(5) Uani 1 1 d . . .
O2 O 0.41785(9) 0.08928(11) 0.8539(2) 0.0274(4) Uani 1 1 d . . .
N1 N 0.06367(12) 0.32331(13) 0.4355(3) 0.0299(5) Uani 1 1 d . . .
C1 C 0.39719(13) 0.05876(14) 0.9675(3) 0.0221(5) Uani 1 1 d . . .
C2 C 0.31762(14) 0.07797(16) 0.9553(3) 0.0293(6) Uani 1 1 d . . .
C3 C 0.29016(18) 0.0435(2) 1.0711(4) 0.0593(11) Uani 1 1 d . . .
H1 H 0.3200 0.0068 1.1544 0.071 Uiso 1 1 calc R . .
C4 C 0.2182(2) 0.0632(3) 1.0641(6) 0.0947(19) Uani 1 1 d . . .
H2 H 0.1995 0.0391 1.1418 0.114 Uiso 1 1 calc R . .
C5 C 0.1741(2) 0.1187(3) 0.9415(5) 0.0841(16) Uani 1 1 d . . .
H3 H 0.1266 0.1334 0.9402 0.101 Uiso 1 1 calc R . .
C6 C 0.19991(16) 0.1526(2) 0.8206(4) 0.0417(7) Uani 1 1 d . . .
C7 C 0.27207(14) 0.13119(16) 0.8292(3) 0.0297(6) Uani 1 1 d . . .
H4 H 0.2902 0.1530 0.7487 0.036 Uiso 1 1 calc R . .
C8 C 0.06439(16) 0.32625(19) 0.5937(4) 0.0399(7) Uani 1 1 d . . .
H5 H 0.0351 0.3676 0.6204 0.048 Uiso 1 1 calc R . .
C9 C 0.10609(17) 0.2715(2) 0.7191(4) 0.0446(8) Uani 1 1 d . . .
H6 H 0.1032 0.2755 0.8261 0.054 Uiso 1 1 calc R . .
C10 C 0.15218(15) 0.21060(18) 0.6868(4) 0.0372(7) Uani 1 1 d . . .
C11 C 0.15169(17) 0.20727(19) 0.5225(4) 0.0418(7) Uani 1 1 d . . .
H7 H 0.1815 0.1675 0.4933 0.050 Uiso 1 1 calc R . .
C12 C 0.10673(16) 0.26331(18) 0.4024(4) 0.0381(7) Uani 1 1 d . . .
H8 H 0.1065 0.2589 0.2929 0.046 Uiso 1 1 calc R . .

loop_
_atom_site_aniso_label
_atom_site_aniso_U_11
_atom_site_aniso_U_22
_atom_site_aniso_U_33
_atom_site_aniso_U_23
_atom_site_aniso_U_13
_atom_site_aniso_U_12
Mg1 0.0169(5) 0.0228(6) 0.0188(6) 0.000 0.0022(4) 0.000
O1 0.0241(9) 0.0366(10) 0.0309(10) 0.0111(8) 0.0047(7) 0.0089(7)
O2 0.0225(9) 0.0338(9) 0.0249(9) 0.0039(7) 0.0071(7) 0.0041(7)
N1 0.0266(11) 0.0327(11) 0.0277(11) 0.0054(9) 0.0063(9) 0.0079(9)
C1 0.0220(11) 0.0201(10) 0.0218(12) -0.0024(9) 0.0046(9) 0.0014(9)
C2 0.0226(12) 0.0354(13) 0.0285(13) 0.0087(10) 0.0072(10) 0.0061(10)
C3 0.0384(17) 0.085(2) 0.061(2) 0.050(2) 0.0255(16) 0.0303(17)
C4 0.052(2) 0.156(4) 0.096(3) 0.094(3) 0.051(2) 0.053(3)
C5 0.045(2) 0.134(4) 0.091(3) 0.079(3) 0.046(2) 0.053(2)
C6 0.0319(14) 0.0556(17) 0.0392(16) 0.0227(14) 0.0144(12) 0.0182(13)
C7 0.0272(13) 0.0344(13) 0.0280(13) 0.0097(11) 0.0103(11) 0.0077(10)
C8 0.0391(15) 0.0481(17) 0.0306(14) 0.0054(12) 0.0099(12) 0.0197(13)
C9 0.0435(17) 0.0613(19) 0.0291(14) 0.0120(14) 0.0126(12) 0.0233(14)
C10 0.0282(13) 0.0462(15) 0.0367(15) 0.0156(13) 0.0109(11) 0.0131(12)
C11 0.0414(16) 0.0457(16) 0.0410(16) 0.0111(13) 0.0179(13) 0.0219(13)
C12 0.0409(16) 0.0434(15) 0.0320(15) 0.0084(12) 0.0152(12) 0.0133(12)

_geom_special_details            
; 
 All esds (except the esd in the dihedral angle between two l.s. planes) 
 are estimated using the full covariance matrix.  The cell esds are taken 
 into account individually in the estimation of esds in distances, angles 
 and torsion angles; correlations between esds in cell parameters are only 
 used when they are defined by crystal symmetry.  An approximate (isotropic) 
 treatment of cell esds is used for estimating esds involving l.s. planes. 
;

loop_
_geom_bond_atom_site_label_1
_geom_bond_atom_site_label_2
_geom_bond_distance
_geom_bond_site_symmetry_2
_geom_bond_publ_flag
Mg1 O1 2.0224(18) 6 ?
Mg1 O1 2.0224(18) 5_657 ?
Mg1 O2 2.0604(16) 2_656 ?
Mg1 O2 2.0604(16) . ?
Mg1 N1 2.268(2) 8_556 ?
Mg1 N1 2.268(2) 7_556 ?
O1 C1 1.247(3) . ?
O1 Mg1 2.0224(18) 5_657 ?
O2 C1 1.254(3) . ?
N1 C12 1.335(3) . ?
N1 C8 1.337(3) . ?
N1 Mg1 2.268(2) 7_556 ?
C1 C2 1.512(3) . ?
C2 C3 1.372(4) . ?
C2 C7 1.389(3) . ?
C3 C4 1.385(4) . ?
C3 H1 0.9300 . ?
C4 C5 1.385(5) . ?
C4 H2 0.9300 . ?
C5 C6 1.386(4) . ?
C5 H3 0.9300 . ?
C6 C7 1.391(4) . ?
C6 C10 1.484(4) . ?
C7 H4 0.9300 . ?
C8 C9 1.376(4) . ?
C8 H5 0.9300 . ?
C9 C10 1.382(4) . ?
C9 H6 0.9300 . ?
C10 C11 1.391(4) . ?
C11 C12 1.384(4) . ?
C11 H7 0.9300 . ?
C12 H8 0.9300 . ?

loop_
_geom_angle_atom_site_label_1
_geom_angle_atom_site_label_2
_geom_angle_atom_site_label_3
_geom_angle
_geom_angle_site_symmetry_1
_geom_angle_site_symmetry_3
_geom_angle_publ_flag
O1 Mg1 O1 91.88(11) 6 5_657 ?
O1 Mg1 O2 98.94(7) 6 2_656 ?
O1 Mg1 O2 90.18(7) 5_657 2_656 ?
O1 Mg1 O2 90.18(7) 6 . ?
O1 Mg1 O2 98.94(7) 5_657 . ?
O2 Mg1 O2 166.91(11) 2_656 . ?
O1 Mg1 N1 175.88(7) 6 8_556 ?
O1 Mg1 N1 88.81(8) 5_657 8_556 ?
O2 Mg1 N1 85.12(7) 2_656 8_556 ?
O2 Mg1 N1 85.70(7) . 8_556 ?
O1 Mg1 N1 88.81(8) 6 7_556 ?
O1 Mg1 N1 175.88(7) 5_657 7_556 ?
O2 Mg1 N1 85.70(7) 2_656 7_556 ?
O2 Mg1 N1 85.12(7) . 7_556 ?
N1 Mg1 N1 90.79(11) 8_556 7_556 ?
C1 O1 Mg1 166.27(17) . 5_657 ?
C1 O2 Mg1 140.80(15) . . ?
C12 N1 C8 116.3(2) . . ?
C12 N1 Mg1 124.27(17) . 7_556 ?
C8 N1 Mg1 119.12(17) . 7_556 ?
O1 C1 O2 125.6(2) . . ?
O1 C1 C2 117.6(2) . . ?
O2 C1 C2 116.7(2) . . ?
C3 C2 C7 119.4(2) . . ?
C3 C2 C1 119.9(2) . . ?
C7 C2 C1 120.7(2) . . ?
C2 C3 C4 120.2(3) . . ?
C2 C3 H1 119.9 . . ?
C4 C3 H1 119.9 . . ?
C5 C4 C3 120.0(3) . . ?
C5 C4 H2 120.0 . . ?
C3 C4 H2 120.0 . . ?
C4 C5 C6 120.8(3) . . ?
C4 C5 H3 119.6 . . ?
C6 C5 H3 119.6 . . ?
C5 C6 C7 118.1(2) . . ?
C5 C6 C10 121.0(3) . . ?
C7 C6 C10 120.9(2) . . ?
C2 C7 C6 121.4(2) . . ?
C2 C7 H4 119.3 . . ?
C6 C7 H4 119.3 . . ?
N1 C8 C9 123.7(3) . . ?
N1 C8 H5 118.2 . . ?
C9 C8 H5 118.2 . . ?
C8 C9 C10 120.3(3) . . ?
C8 C9 H6 119.8 . . ?
C10 C9 H6 119.8 . . ?
C9 C10 C11 116.3(2) . . ?
C9 C10 C6 121.7(3) . . ?
C11 C10 C6 122.0(2) . . ?
C12 C11 C10 119.9(3) . . ?
C12 C11 H7 120.1 . . ?
C10 C11 H7 120.1 . . ?
N1 C12 C11 123.5(3) . . ?
N1 C12 H8 118.3 . . ?
C11 C12 H8 118.3 . . ?

_diffrn_measured_fraction_theta_max 0.998
_diffrn_reflns_theta_full        26.37
_diffrn_measured_fraction_theta_full 0.998
_refine_diff_density_max         0.638
_refine_diff_density_min         -0.304
_refine_diff_density_rms         0.091
