
#######################################################################
#
#                 Cambridge Crystallographic Data Centre
#                                CCDC
#
#######################################################################
#
# If this CIF has been generated from an entry in the Cambridge
# Structural Database, then it will include bibliographic, chemical,
# crystal, experimental, refinement or atomic coordinate data resulting
# from the CCDC's data processing and validation procedures.
#
#######################################################################

data_CSD_CIF_KUBZOW
_audit_creation_date 1992-12-10
_audit_creation_method CSD-ConQuest-V1
_database_code_CSD KUBZOW
_database_code_depnum_ccdc_archive 'CCDC 1200355'
_chemical_formula_sum 'C6 H9 Cl1 N2 O3'
_chemical_formula_moiety
;
C6 H9 Cl1 N2 O3
;
_journal_coden_Cambridge 188
_journal_year 1992
_journal_page_first 959
_journal_name_full 'J.Chem.Soc.,Perkin Trans.2 '
loop_
_publ_author_name
"L.Antolini"
"M.Bucciarelli"
"A.Forni"
"I.Moretti"
"F.Prati"
"G.Torre"
_chemical_name_systematic
;
(1R,2R)-(+-)-cis-1-Chloro-2-methoxycarbonyl-2-methylcarbamoylaziridine
;
_chemical_name_common
;
Teaching Subset: Fundamental Chemistry
;
_chemical_melting_point 317
_cell_volume   1812.671
_exptl_crystal_colour 'colorless'
_exptl_crystal_density_diffrn 1.411
_exptl_special_details
;
Melting point range 317-318K

;
_diffrn_ambient_temperature ?
_diffrn_special_details
;
The study was carried out at room temperature,in the range 283-303K

;
#These two values have been output from a single CSD field.
_refine_ls_R_factor_gt 0.05
_refine_ls_wR_factor_gt 0.05
loop_
_citation_database_id_CSD
_citation_special_details
KIRCOD "is a stereoisomer of this entry"
_symmetry_cell_setting orthorhombic
_symmetry_space_group_name_H-M 'P b c a'
_symmetry_Int_Tables_number 61
loop_
_symmetry_equiv_pos_site_id
_symmetry_equiv_pos_as_xyz
1 x,y,z
2 1/2-x,-y,1/2+z
3 1/2+x,1/2-y,-z
4 -x,1/2+y,1/2-z
5 -x,-y,-z
6 -1/2+x,y,-1/2-z
7 -1/2-x,-1/2+y,z
8 x,-1/2-y,-1/2+z
_cell_length_a 8.457(2)
_cell_length_b 11.985(3)
_cell_length_c 17.884(3)
_cell_angle_alpha 90
_cell_angle_beta 90
_cell_angle_gamma 90
_cell_formula_units_Z 8
loop_
_atom_type_symbol
_atom_type_radius_bond
C 0.68
H 0.23
Cl 0.99
N 0.68
O 0.68
loop_
_atom_site_label
_atom_site_type_symbol
_atom_site_fract_x
_atom_site_fract_y
_atom_site_fract_z
Cl1 Cl 0.5314(2) 0.0176(1) 0.12254(9)
N1 N 0.3772(4) 0.0496(3) 0.1844(2)
C1 C 0.2309(6) -0.0131(4) 0.1658(3)
C2 C 0.2409(5) 0.1067(4) 0.1468(2)
C3 C 0.2577(5) 0.1391(4) 0.0654(3)
O1 O 0.2278(5) 0.0804(3) 0.0139(2)
O2 O 0.3117(4) 0.2429(2) 0.0613(2)
C4 C 0.3412(8) 0.2864(5) -0.0140(3)
C5 C 0.1509(5) 0.1907(3) 0.1932(3)
O3 O 0.0199(3) 0.2184(3) 0.1719(2)
N2 N 0.2187(4) 0.2269(3) 0.2552(2)
C6 C 0.1402(5) 0.3031(4) 0.3058(3)
H1 H 0.23160 -0.06180 0.12590
H2 H 0.16080 -0.02360 0.21080
H3 H 0.41810 0.22850 -0.04450
H4 H 0.39950 0.36180 -0.00470
H5 H 0.22580 0.29850 -0.03500
H6 H 0.32140 0.20690 0.26940
H7 H 0.05820 0.27090 0.33890
H8 H 0.21270 0.34010 0.33520
H9 H 0.07240 0.35830 0.27680
#END
