####################################################################### 
# 
# This file contains crystal structure data downloaded from the 
# Cambridge Structural Database (CSD) hosted by the Cambridge 
# Crystallographic Data Centre (CCDC).
# 
# Full information about CCDC data access policies and citation 
# guidelines are available at http://www.ccdc.cam.ac.uk/access/V1 
# 
# Audit and citation data items may have been added by the CCDC. 
# Please retain this information to preserve the provenance of 
# this file and to allow appropriate attribution of the data. 
# 
#######################################################################

data___MnsaltmenFetren2fim
_audit_block_doi                 10.5517/ccs20sm
_database_code_depnum_ccdc_archive 'CCDC 716930'
loop_
_citation_id
_citation_doi
_citation_year
1 10.1246/bcsj.82.816 2009
_audit_update_record             
;
2009-01-19 deposited with the CCDC.	2024-07-11 downloaded from the CCDC.
;

#==============================================================================

# CHEMICAL DATA

_chemical_formula_sum            'C46 H55 Cl Fe Mn N16 O6 '
_chemical_formula_moiety         'C46 H55 Cl Fe Mn N16 O6 '
_chemical_formula_weight         1074.28
_chemical_melting_point          ?

#==============================================================================

# CRYSTAL DATA
_symmetry_cell_setting           monoclinic
_symmetry_space_group_name_H-M   'C 1 2/c 1'
_symmetry_space_group_name_Hall  '-C 2yc'
_symmetry_Int_Tables_number      15
loop_
_symmetry_equiv_pos_site_id
_symmetry_equiv_pos_as_xyz
1 +X,+Y,+Z
2 -X,+Y,1/2-Z
3 -X,-Y,-Z
4 +X,-Y,1/2+Z
5 1/2+X,1/2+Y,+Z
6 1/2-X,1/2+Y,1/2-Z
7 1/2-X,1/2-Y,-Z
8 1/2+X,1/2-Y,1/2+Z

#------------------------------------------------------------------------------

_cell_length_a                   25.868(12)
_cell_length_b                   27.268(11)
_cell_length_c                   18.400(9)
_cell_angle_alpha                90.0000
_cell_angle_beta                 128.401(6)
_cell_angle_gamma                90.0000
_cell_volume                     10171(8)
_cell_formula_units_Z            8
_cell_measurement_reflns_used    13715
_cell_measurement_theta_min      2.0
_cell_measurement_theta_max      32.6
_cell_measurement_temperature    103.1

#------------------------------------------------------------------------------

_exptl_crystal_description       plate
_exptl_crystal_colour            green
_exptl_crystal_size_max          0.18
_exptl_crystal_size_mid          0.10
_exptl_crystal_size_min          0.01
_exptl_crystal_density_diffrn    1.403
_exptl_crystal_density_meas      ?
_exptl_crystal_density_method    'not measured'
_exptl_crystal_F_000             4472.00
_exptl_absorpt_coefficient_mu    0.649
_exptl_absorpt_correction_type   multi-scan
_exptl_absorpt_process_details   'Jacobson, R. (1998) Private communication'
_exptl_absorpt_correction_T_min  0.790
_exptl_absorpt_correction_T_max  0.997

#==============================================================================

# EXPERIMENTAL DATA

_diffrn_radiation_type           'Mo Ka'
_diffrn_radiation_wavelength     0.71075
_diffrn_measurement_device_type  'Rigaku Saturn'
_diffrn_measurement_method       w
_diffrn_detector_area_resol_mean 7.31
_diffrn_reflns_number            56291
_diffrn_reflns_av_R_equivalents  0.079
_diffrn_reflns_theta_max         32.62
_diffrn_measured_fraction_theta_max 0.910
_diffrn_reflns_theta_full        25.00
_diffrn_measured_fraction_theta_full 0.999
_diffrn_reflns_limit_h_min       -38
_diffrn_reflns_limit_h_max       38
_diffrn_reflns_limit_k_min       -40
_diffrn_reflns_limit_k_max       40
_diffrn_reflns_limit_l_min       -27
_diffrn_reflns_limit_l_max       27

#==============================================================================

# REFINEMENT DATA

_refine_special_details          
;
Refinement was performed using all reflections. The weighted
R-factor (wR) and goodness of fit (S) are based on F^2^.
R-factor (gt) are based on F. The threshold expression of
F^2^ > 2.0 sigma(F^2^) is used only for calculating R-factor (gt).
;
_reflns_number_total             8969
_reflns_number_gt                5413
_reflns_threshold_expression     F^2^>2.0s(F^2^)
_refine_ls_structure_factor_coef Fsqd
_refine_ls_R_factor_gt           0.0681
_refine_ls_wR_factor_ref         0.1711
_refine_ls_hydrogen_treatment    refall
_refine_ls_number_reflns         8934
_refine_ls_number_parameters     704
_refine_ls_goodness_of_fit_ref   1.210
_refine_ls_weighting_scheme      calc
_refine_ls_weighting_details     'w = 1/[0.0005Fo^2^ + 1.0000s(Fo^2^)]/(4Fo^2^)'
_refine_ls_shift/su_max          0.0000
_refine_diff_density_max         1.17
_refine_diff_density_min         -0.64
_refine_ls_extinction_method     none
_refine_ls_extinction_coef       ?

loop_
_atom_type_symbol
_atom_type_description
_atom_type_scat_dispersion_real
_atom_type_scat_dispersion_imag
_atom_type_scat_source
C C 0.003 0.002
;
International Tables for Crystallography
(1992, Vol. C, Tables 4.2.6.8 and 6.1.1.4)
;
H H 0.000 0.000
;
International Tables for Crystallography
(1992, Vol. C, Table 6.1.1.4)
;
N N 0.006 0.003
;
International Tables for Crystallography
(1992, Vol. C, Tables 4.2.6.8 and 6.1.1.4)
;
O O 0.011 0.006
;
International Tables for Crystallography
(1992, Vol. C, Tables 4.2.6.8 and 6.1.1.4)
;
Fe Fe 0.346 0.844
;
International Tables for Crystallography
(1992, Vol. C, Tables 4.2.6.8 and 6.1.1.4)
;
Mn Mn 0.337 0.728
;
International Tables for Crystallography
(1992, Vol. C, Tables 4.2.6.8 and 6.1.1.4)
;
Cl Cl 0.148 0.159
;
International Tables for Crystallography
(1992, Vol. C, Tables 4.2.6.8 and 6.1.1.4)
;

#==============================================================================

# ATOMIC COORDINATES AND THERMAL PARAMETERS

loop_
_atom_site_label
_atom_site_type_symbol
_atom_site_fract_x
_atom_site_fract_y
_atom_site_fract_z
_atom_site_U_iso_or_equiv
_atom_site_adp_type
_atom_site_occupancy
_atom_site_symmetry_multiplicity
_atom_site_calc_flag
_atom_site_refinement_flags
_atom_site_disorder_assembly
_atom_site_disorder_group
Fe(1) Fe 0.42740(3) 0.13496(3) 0.40660(5) 0.01958(18) Uani 1.00 1 d . . .
Mn(1) Mn 0.64251(3) 0.29079(3) 0.56653(5) 0.01906(19) Uani 1.00 1 d . . .
Cl(1) Cl 0.5000 0.27268(7) 0.7500 0.0283(4) Uani 1.00 2 d S . .
Cl(2) Cl 0.48130(10) 0.50674(9) 0.72506(17) 0.0254(8) Uani 0.50 1 d P . .
O(1) O 0.68175(15) 0.23452(12) 0.6438(2) 0.0215(8) Uani 1.00 1 d . . .
O(2) O 0.67259(15) 0.27484(12) 0.4992(2) 0.0231(9) Uani 1.00 1 d . . .
O(3) O 0.47931(17) 0.24261(15) 0.7919(2) 0.0354(11) Uani 1.00 1 d . . .
O(4) O 0.4458(2) 0.30332(18) 0.6805(3) 0.0579(15) Uani 1.00 1 d . . .
O(5) O 0.4775(2) 0.47925(17) 0.7891(2) 0.0517(13) Uani 1.00 1 d . . .
O(6) O 0.4177(3) 0.5185(2) 0.6381(5) 0.036(2) Uani 0.50 1 d P . .
O(7) O 0.5177(3) 0.5519(2) 0.7661(9) 0.040(3) Uani 0.50 1 d P . .
N(1) N 0.60726(17) 0.31418(14) 0.6305(2) 0.0197(10) Uani 1.00 1 d . . .
N(2) N 0.59967(18) 0.35277(14) 0.4958(2) 0.0205(10) Uani 1.00 1 d . . .
N(3) N 0.42097(19) 0.12103(15) 0.5757(3) 0.0255(11) Uani 1.00 1 d . . .
N(4) N 0.50913(19) 0.14134(14) 0.5355(2) 0.0196(10) Uani 1.00 1 d . . .
N(5) N 0.46628(18) 0.19079(14) 0.3919(2) 0.0200(10) Uani 1.00 1 d . . .
N(6) N 0.55188(18) 0.24367(15) 0.4591(2) 0.0208(10) Uani 1.00 1 d . . .
N(7) N 0.39587(17) 0.07225(15) 0.4203(2) 0.0218(10) Uani 1.00 1 d . . .
N(8) N 0.47293(18) 0.09059(15) 0.3830(2) 0.0213(10) Uani 1.00 1 d . . .
N(9) N 0.4972(2) 0.01246(16) 0.3746(3) 0.0279(12) Uani 1.00 1 d . . .
N(10) N 0.37242(18) 0.18060(14) 0.4169(2) 0.0206(10) Uani 1.00 1 d . . .
N(11) N 0.34941(17) 0.13554(14) 0.2783(2) 0.0188(10) Uani 1.00 1 d . . .
N(12) N 0.24699(18) 0.16619(15) 0.1697(2) 0.0234(11) Uani 1.00 1 d . . .
N(13) N 0.3353(3) 0.4311(2) 0.3701(4) 0.059(2) Uani 1.00 1 d . . .
N(14) N 0.7112(2) 0.6213(2) 0.4011(4) 0.0565(18) Uani 1.00 1 d . . .
N(15) N 0.1659(2) 0.5770(2) 0.6138(3) 0.0476(16) Uani 1.00 1 d . . .
N(16) N 0.3172(3) 0.5134(2) 0.6809(5) 0.088(2) Uani 1.00 1 d . . .
C(1) C 0.6955(2) 0.22652(18) 0.7252(3) 0.0205(12) Uani 1.00 1 d . . .
C(2) C 0.7364(2) 0.18712(19) 0.7801(3) 0.0263(14) Uani 1.00 1 d . . .
C(3) C 0.7531(2) 0.1783(2) 0.8658(3) 0.0269(14) Uani 1.00 1 d . . .
C(4) C 0.7293(2) 0.2081(2) 0.9010(3) 0.0278(14) Uani 1.00 1 d . . .
C(5) C 0.6872(2) 0.24631(19) 0.8470(3) 0.0238(13) Uani 1.00 1 d . . .
C(6) C 0.6692(2) 0.25638(18) 0.7590(3) 0.0205(12) Uani 1.00 1 d . . .
C(7) C 0.6250(2) 0.29674(18) 0.7082(3) 0.0214(12) Uani 1.00 1 d . . .
C(8) C 0.5557(2) 0.35402(18) 0.5815(3) 0.0225(13) Uani 1.00 1 d . . .
C(9) C 0.5513(2) 0.38333(19) 0.6478(3) 0.0271(14) Uani 1.00 1 d . . .
C(10) C 0.4892(2) 0.32779(19) 0.5115(3) 0.0264(14) Uani 1.00 1 d . . .
C(11) C 0.5756(2) 0.38693(18) 0.5334(3) 0.0230(13) Uani 1.00 1 d . . .
C(12) C 0.6327(2) 0.42138(19) 0.6025(3) 0.0304(14) Uani 1.00 1 d . . .
C(13) C 0.5168(2) 0.4182(2) 0.4557(3) 0.0322(15) Uani 1.00 1 d . . .
C(14) C 0.5961(2) 0.36612(18) 0.4255(3) 0.0221(13) Uani 1.00 1 d . . .
C(15) C 0.6220(2) 0.33968(18) 0.3860(3) 0.0220(12) Uani 1.00 1 d . . .
C(16) C 0.6117(2) 0.36066(19) 0.3075(3) 0.0233(13) Uani 1.00 1 d . . .
C(17) C 0.6361(2) 0.3391(2) 0.2671(3) 0.0260(13) Uani 1.00 1 d . . .
C(18) C 0.6715(2) 0.29504(19) 0.3046(3) 0.0224(13) Uani 1.00 1 d . . .
C(19) C 0.6819(2) 0.27348(19) 0.3805(3) 0.0250(13) Uani 1.00 1 d . . .
C(20) C 0.6584(2) 0.29547(17) 0.4244(3) 0.0181(11) Uani 1.00 1 d . . .
C(21) C 0.4923(2) 0.1199(2) 0.6495(3) 0.0277(14) Uani 1.00 1 d . . .
C(22) C 0.5292(2) 0.10776(18) 0.6111(3) 0.0222(12) Uani 1.00 1 d . . .
C(23) C 0.5461(2) 0.17700(19) 0.5490(3) 0.0226(13) Uani 1.00 1 d . . .
C(24) C 0.5244(2) 0.20593(18) 0.4717(3) 0.0212(12) Uani 1.00 1 d . . .
C(25) C 0.4563(2) 0.21986(19) 0.3244(3) 0.0225(12) Uani 1.00 1 d . . .
C(26) C 0.5089(2) 0.25169(19) 0.3650(3) 0.0237(13) Uani 1.00 1 d . . .
C(27) C 0.3853(2) 0.07554(19) 0.5438(3) 0.0281(15) Uani 1.00 1 d . . .
C(28) C 0.3505(2) 0.0664(2) 0.4416(3) 0.0270(14) Uani 1.00 1 d . . .
C(29) C 0.4194(2) 0.03364(18) 0.4079(3) 0.0227(13) Uani 1.00 1 d . . .
C(30) C 0.4631(2) 0.04228(19) 0.3884(3) 0.0239(13) Uani 1.00 1 d . . .
C(31) C 0.5164(2) 0.0918(2) 0.3650(3) 0.0250(13) Uani 1.00 1 d . . .
C(32) C 0.5304(2) 0.0437(2) 0.3592(3) 0.0293(15) Uani 1.00 1 d . . .
C(33) C 0.3857(2) 0.16633(19) 0.5589(3) 0.0268(14) Uani 1.00 1 d . . .
C(34) C 0.3922(2) 0.20332(19) 0.5034(3) 0.0241(13) Uani 1.00 1 d . . .
C(35) C 0.3157(2) 0.19044(18) 0.3407(3) 0.0233(13) Uani 1.00 1 d . . .
C(36) C 0.3002(2) 0.16598(18) 0.2594(3) 0.0203(12) Uani 1.00 1 d . . .
C(37) C 0.3260(2) 0.11558(19) 0.1950(3) 0.0241(13) Uani 1.00 1 d . . .
C(38) C 0.2641(2) 0.13453(19) 0.1295(3) 0.0233(13) Uani 1.00 1 d . . .
C(39) C 0.2299(4) 0.4791(3) 0.3173(5) 0.093(3) Uani 1.00 1 d . . .
C(40) C 0.2893(4) 0.4517(2) 0.3471(4) 0.052(2) Uani 1.00 1 d . . .
C(41) C 0.6180(3) 0.5950(2) 0.4080(4) 0.0466(19) Uani 1.00 1 d . . .
C(42) C 0.6709(3) 0.6106(2) 0.4052(4) 0.0385(17) Uani 1.00 1 d . . .
C(43) C 0.1817(2) 0.6399(2) 0.5228(4) 0.0359(16) Uani 1.00 1 d . . .
C(44) C 0.1729(2) 0.6046(2) 0.5738(3) 0.0345(15) Uani 1.00 1 d . . .
C(45) C 0.2410(5) 0.5289(3) 0.4955(7) 0.041(2) Uiso 0.60 1 d P . .
C(46) C 0.2859(7) 0.5341(5) 0.5238(11) 0.043(3) Uiso 0.40 1 d P . .
C(47) C 0.2722(5) 0.5228(4) 0.5738(8) 0.045(2) Uiso 0.60 1 d P . .
C(48) C 0.3071(9) 0.5254(6) 0.5976(12) 0.048(4) Uiso 0.40 1 d P . .
H(1) H 0.7530 0.1661 0.7575 0.034 Uiso 1.00 1 c R . .
H(2) H 0.7812 0.1515 0.9017 0.034 Uiso 1.00 1 c R . .
H(3) H 0.7419 0.2023 0.9609 0.034 Uiso 1.00 1 c R . .
H(4) H 0.6700 0.2662 0.8699 0.030 Uiso 1.00 1 c R . .
H(5) H 0.6070 0.3121 0.7344 0.027 Uiso 1.00 1 c R . .
H(6) H 0.5204 0.3683 0.6526 0.035 Uiso 1.00 1 c R . .
H(7) H 0.5374 0.4158 0.6250 0.035 Uiso 1.00 1 c R . .
H(8) H 0.5934 0.3842 0.7072 0.035 Uiso 1.00 1 c R . .
H(9) H 0.4812 0.3245 0.4539 0.035 Uiso 1.00 1 c R . .
H(10) H 0.4548 0.3465 0.5030 0.035 Uiso 1.00 1 c R . .
H(11) H 0.4907 0.2962 0.5345 0.035 Uiso 1.00 1 c R . .
H(12) H 0.6583 0.4073 0.6627 0.039 Uiso 1.00 1 c R . .
H(13) H 0.6156 0.4521 0.6030 0.039 Uiso 1.00 1 c R . .
H(14) H 0.6597 0.4261 0.5844 0.039 Uiso 1.00 1 c R . .
H(15) H 0.5327 0.4478 0.4489 0.042 Uiso 1.00 1 c R . .
H(16) H 0.4889 0.4255 0.4713 0.042 Uiso 1.00 1 c R . .
H(17) H 0.4926 0.4004 0.3990 0.042 Uiso 1.00 1 c R . .
H(18) H 0.5744 0.3963 0.3969 0.028 Uiso 1.00 1 c R . .
H(19) H 0.5874 0.3903 0.2822 0.029 Uiso 1.00 1 c R . .
H(20) H 0.6293 0.3537 0.2148 0.032 Uiso 1.00 1 c R . .
H(21) H 0.6886 0.2798 0.2772 0.030 Uiso 1.00 1 c R . .
H(22) H 0.7052 0.2433 0.4037 0.030 Uiso 1.00 1 c R . .
H(23) H 0.5023 0.0957 0.6936 0.035 Uiso 1.00 1 c R . .
H(24) H 0.5063 0.1511 0.6787 0.035 Uiso 1.00 1 c R . .
H(25) H 0.5753 0.1109 0.6594 0.028 Uiso 1.00 1 c R . .
H(26) H 0.5192 0.0751 0.5885 0.027 Uiso 1.00 1 c R . .
H(27) H 0.5864 0.1837 0.6086 0.029 Uiso 1.00 1 c R . .
H(28) H 0.4195 0.2185 0.2603 0.027 Uiso 1.00 1 c R . .
H(29) H 0.5146 0.2755 0.3328 0.030 Uiso 1.00 1 c R . .
H(30) H 0.3533 0.0762 0.5535 0.042 Uiso 1.00 1 c R . .
H(31) H 0.4154 0.0495 0.5787 0.042 Uiso 1.00 1 c R . .
H(32) H 0.3334 0.0340 0.4264 0.035 Uiso 1.00 1 c R . .
H(33) H 0.3153 0.0892 0.4058 0.035 Uiso 1.00 1 c R . .
H(34) H 0.4075 0.0014 0.4120 0.029 Uiso 1.00 1 c R . .
H(35) H 0.5340 0.1203 0.3578 0.032 Uiso 1.00 1 c R . .
H(36) H 0.5592 0.0338 0.3463 0.041 Uiso 1.00 1 c R . .
H(37) H 0.4027 0.1806 0.6170 0.033 Uiso 1.00 1 c R . .
H(38) H 0.3403 0.1589 0.5257 0.033 Uiso 1.00 1 c R . .
H(39) H 0.3645 0.2306 0.4890 0.029 Uiso 1.00 1 c R . .
H(40) H 0.4367 0.2140 0.5390 0.029 Uiso 1.00 1 c R . .
H(41) H 0.2858 0.2123 0.3376 0.030 Uiso 1.00 1 c R . .
H(42) H 0.3484 0.0928 0.1843 0.030 Uiso 1.00 1 c R . .
H(43) H 0.2369 0.1268 0.0653 0.029 Uiso 1.00 1 c R . .
H(44) H 0.2400 0.5131 0.3287 0.108 Uiso 1.00 1 c R . .
H(45) H 0.2157 0.4679 0.3512 0.108 Uiso 1.00 1 c R . .
H(46) H 0.1959 0.4740 0.2529 0.108 Uiso 1.00 1 c R . .
H(47) H 0.6338 0.5696 0.4525 0.057 Uiso 1.00 1 c R . .
H(48) H 0.5818 0.5832 0.3486 0.057 Uiso 1.00 1 c R . .
H(49) H 0.6042 0.6220 0.4246 0.057 Uiso 1.00 1 c R . .
H(50) H 0.1630 0.6705 0.5201 0.046 Uiso 1.00 1 c R . .
H(51) H 0.1606 0.6282 0.4617 0.046 Uiso 1.00 1 c R . .
H(52) H 0.2275 0.6441 0.5534 0.046 Uiso 1.00 1 c R . .


loop_
_atom_site_aniso_label
_atom_site_aniso_U_11
_atom_site_aniso_U_22
_atom_site_aniso_U_33
_atom_site_aniso_U_12
_atom_site_aniso_U_13
_atom_site_aniso_U_23
Fe(1) 0.0176(3) 0.0208(4) 0.0229(4) 0.0007(2) 0.0139(3) -0.0000(3)
Mn(1) 0.0201(3) 0.0208(4) 0.0214(4) 0.0010(3) 0.0154(3) 0.0005(3)
Cl(1) 0.0254(8) 0.0307(10) 0.0351(10) 0.0000 0.0219(8) 0.0000
Cl(2) 0.0283(17) 0.0210(12) 0.033(2) -0.0006(8) 0.0218(14) -0.0006(9)
O(1) 0.0205(15) 0.0264(19) 0.0229(18) 0.0015(13) 0.0160(14) -0.0011(14)
O(2) 0.0260(16) 0.0271(19) 0.0247(18) 0.0024(14) 0.0200(15) 0.0013(15)
O(3) 0.0336(19) 0.042(2) 0.041(2) 0.0050(17) 0.0284(18) 0.0146(18)
O(4) 0.050(2) 0.072(3) 0.075(3) 0.032(2) 0.050(2) 0.041(2)
O(5) 0.053(2) 0.055(3) 0.048(2) -0.019(2) 0.032(2) 0.009(2)
O(6) 0.031(3) 0.034(4) 0.039(4) -0.003(3) 0.020(3) 0.012(3)
O(7) 0.048(7) 0.030(4) 0.059(9) -0.008(3) 0.041(8) -0.014(4)
N(1) 0.0161(18) 0.021(2) 0.021(2) -0.0003(16) 0.0112(17) -0.0025(17)
N(2) 0.0229(19) 0.019(2) 0.023(2) 0.0020(16) 0.0158(18) -0.0019(17)
N(3) 0.026(2) 0.020(2) 0.036(2) 0.0037(17) 0.022(2) 0.0007(19)
N(4) 0.0250(19) 0.017(2) 0.026(2) 0.0028(17) 0.0206(18) 0.0020(17)
N(5) 0.0202(19) 0.020(2) 0.023(2) -0.0012(16) 0.0146(18) -0.0020(17)
N(6) 0.0181(19) 0.024(2) 0.019(2) 0.0000(16) 0.0110(17) 0.0016(17)
N(7) 0.0149(18) 0.029(2) 0.018(2) 0.0002(16) 0.0088(17) 0.0009(17)
N(8) 0.0199(19) 0.026(2) 0.018(2) 0.0005(17) 0.0118(17) -0.0014(17)
N(9) 0.037(2) 0.024(2) 0.033(2) 0.0060(19) 0.027(2) 0.0029(19)
N(10) 0.0167(19) 0.020(2) 0.025(2) 0.0021(16) 0.0132(19) 0.0012(17)
N(11) 0.0181(18) 0.020(2) 0.021(2) 0.0002(16) 0.0136(17) 0.0007(17)
N(12) 0.021(2) 0.027(2) 0.026(2) -0.0013(17) 0.0167(19) 0.0013(18)
N(13) 0.063(3) 0.068(4) 0.051(3) -0.004(3) 0.037(3) 0.005(3)
N(14) 0.043(3) 0.068(4) 0.055(3) 0.005(2) 0.029(2) -0.009(3)
N(15) 0.048(3) 0.049(3) 0.043(3) -0.007(2) 0.027(2) 0.007(2)
N(16) 0.112(5) 0.098(6) 0.076(4) 0.022(4) 0.068(4) 0.024(4)
C(1) 0.019(2) 0.027(2) 0.019(2) -0.006(2) 0.013(2) -0.006(2)
C(2) 0.025(2) 0.025(2) 0.035(3) -0.004(2) 0.022(2) -0.003(2)
C(3) 0.026(2) 0.033(3) 0.027(2) -0.001(2) 0.019(2) 0.003(2)
C(4) 0.024(2) 0.039(3) 0.022(2) -0.000(2) 0.015(2) 0.004(2)
C(5) 0.022(2) 0.031(3) 0.022(2) -0.002(2) 0.015(2) -0.002(2)
C(6) 0.017(2) 0.024(2) 0.023(2) -0.0038(19) 0.014(2) -0.002(2)
C(7) 0.019(2) 0.025(2) 0.025(2) -0.002(2) 0.016(2) -0.002(2)
C(8) 0.030(2) 0.020(2) 0.025(2) 0.005(2) 0.021(2) -0.001(2)
C(9) 0.033(2) 0.024(2) 0.031(2) 0.000(2) 0.023(2) -0.005(2)
C(10) 0.027(2) 0.027(2) 0.032(3) 0.005(2) 0.022(2) 0.003(2)
C(11) 0.032(2) 0.022(2) 0.028(2) 0.002(2) 0.025(2) 0.001(2)
C(12) 0.039(2) 0.024(2) 0.034(3) 0.002(2) 0.026(2) -0.004(2)
C(13) 0.040(2) 0.031(3) 0.034(3) 0.008(2) 0.027(2) 0.004(2)
C(14) 0.025(2) 0.020(2) 0.026(2) 0.001(2) 0.018(2) -0.000(2)
C(15) 0.021(2) 0.024(2) 0.026(2) -0.004(2) 0.017(2) -0.003(2)
C(16) 0.025(2) 0.025(2) 0.023(2) 0.001(2) 0.017(2) 0.000(2)
C(17) 0.023(2) 0.037(3) 0.021(2) -0.005(2) 0.015(2) 0.000(2)
C(18) 0.021(2) 0.031(2) 0.023(2) -0.008(2) 0.017(2) -0.010(2)
C(19) 0.022(2) 0.024(2) 0.029(2) -0.007(2) 0.016(2) -0.005(2)
C(20) 0.014(2) 0.020(2) 0.017(2) -0.0061(18) 0.0083(19) -0.0065(19)
C(21) 0.027(2) 0.034(3) 0.026(2) 0.000(2) 0.019(2) 0.002(2)
C(22) 0.021(2) 0.021(2) 0.027(2) 0.006(2) 0.016(2) 0.008(2)
C(23) 0.021(2) 0.028(2) 0.023(2) 0.002(2) 0.016(2) -0.000(2)
C(24) 0.017(2) 0.023(2) 0.025(2) 0.0050(19) 0.014(2) -0.000(2)
C(25) 0.024(2) 0.030(2) 0.013(2) 0.003(2) 0.011(2) 0.002(2)
C(26) 0.024(2) 0.026(2) 0.025(2) 0.004(2) 0.017(2) 0.007(2)
C(27) 0.036(2) 0.027(2) 0.042(3) 0.001(2) 0.034(2) 0.002(2)
C(28) 0.026(2) 0.024(2) 0.037(3) -0.000(2) 0.022(2) 0.001(2)
C(29) 0.028(2) 0.018(2) 0.028(2) 0.000(2) 0.020(2) -0.000(2)
C(30) 0.026(2) 0.025(2) 0.027(2) -0.001(2) 0.019(2) -0.004(2)
C(31) 0.022(2) 0.030(3) 0.029(2) 0.007(2) 0.019(2) 0.006(2)
C(32) 0.033(2) 0.033(3) 0.037(3) 0.008(2) 0.029(2) 0.005(2)
C(33) 0.028(2) 0.024(2) 0.032(3) 0.001(2) 0.020(2) -0.003(2)
C(34) 0.024(2) 0.028(2) 0.021(2) 0.004(2) 0.015(2) -0.003(2)
C(35) 0.020(2) 0.023(2) 0.032(2) 0.000(2) 0.019(2) 0.003(2)
C(36) 0.019(2) 0.021(2) 0.028(2) 0.0002(19) 0.019(2) 0.002(2)
C(37) 0.026(2) 0.024(2) 0.026(2) 0.001(2) 0.018(2) -0.003(2)
C(38) 0.025(2) 0.027(2) 0.020(2) 0.002(2) 0.015(2) 0.003(2)
C(39) 0.087(6) 0.118(8) 0.065(5) 0.008(5) 0.042(4) -0.033(5)
C(40) 0.073(5) 0.050(4) 0.037(3) -0.015(3) 0.037(3) -0.012(3)
C(41) 0.048(3) 0.055(4) 0.038(3) 0.001(3) 0.028(3) 0.002(3)
C(42) 0.040(3) 0.037(3) 0.035(3) 0.008(2) 0.021(2) -0.001(2)
C(43) 0.034(2) 0.034(3) 0.045(3) -0.003(2) 0.028(2) -0.007(2)
C(44) 0.031(2) 0.042(3) 0.028(3) -0.003(2) 0.017(2) -0.008(2)

#==============================================================================

_computing_data_collection       CrystalClear
_computing_cell_refinement       CrystalClear
_computing_data_reduction        CrystalStructure
_computing_structure_solution    SIR97
_computing_structure_refinement  CRYSTALS
_computing_publication_material  'CrystalStructure 3.8'
_computing_molecular_graphics    ?

#==============================================================================

# MOLECULAR GEO