####################################################################### 
# 
# This file contains crystal structure data downloaded from the 
# Cambridge Structural Database (CSD) hosted by the Cambridge 
# Crystallographic Data Centre (CCDC).
# 
# Full information about CCDC data access policies and citation 
# guidelines are available at http://www.ccdc.cam.ac.uk/access/V1 
# 
# Audit and citation data items may have been added by the CCDC. 
# Please retain this information to preserve the provenance of 
# this file and to allow appropriate attribution of the data. 
# 
#######################################################################

data_1
_audit_block_doi                 10.5517/cc10lq4g
_database_code_depnum_ccdc_archive 'CCDC 941505'
loop_
_citation_id
_citation_doi
_citation_year
1 10.1007/s10562-014-1433-z 2015
_audit_update_record             
;
2013-05-28 deposited with the CCDC.	2024-07-11 downloaded from the CCDC.
;

_audit_creation_method           SHELXL-97
_chemical_name_systematic        
; 
 ? 
;
_chemical_name_common            ?
_chemical_melting_point          ?
_chemical_formula_moiety         'C96 H48 Fe3 Mn2 N8 O18'
_chemical_formula_sum            'C96 H48 Fe3 Mn2 N8 O18'
_chemical_formula_weight         1878.85

loop_
_atom_type_symbol
_atom_type_description
_atom_type_scat_dispersion_real
_atom_type_scat_dispersion_imag
_atom_type_scat_source
C C 0.0033 0.0016 'International Tables Vol C Tables 4.2.6.8 and 6.1.1.4'
H H 0.0000 0.0000 'International Tables Vol C Tables 4.2.6.8 and 6.1.1.4'
N N 0.0061 0.0033 'International Tables Vol C Tables 4.2.6.8 and 6.1.1.4'
O O 0.0106 0.0060 'International Tables Vol C Tables 4.2.6.8 and 6.1.1.4'
Fe Fe 0.3463 0.8444 'International Tables Vol C Tables 4.2.6.8 and 6.1.1.4'
Mn Mn 0.3368 0.7283 'International Tables Vol C Tables 4.2.6.8 and 6.1.1.4'

_symmetry_cell_setting           Monoclinic
_symmetry_space_group_name_H-M   'P 2/c'
_symmetry_space_group_name_Hall  '-P 2yc'

loop_
_symmetry_equiv_pos_as_xyz
'x, y, z'
'-x, y, -z+1/2'
'-x, -y, -z'
'x, -y, z-1/2'

_cell_length_a                   14.908(6)
_cell_length_b                   15.345(6)
_cell_length_c                   27.753(11)
_cell_angle_alpha                90.00
_cell_angle_beta                 90.424(6)
_cell_angle_gamma                90.00
_cell_volume                     6349(4)
_cell_formula_units_Z            2
_cell_measurement_temperature    173(2)
_cell_measurement_reflns_used    2866
_cell_measurement_theta_min      2.40
_cell_measurement_theta_max      18.33

_exptl_crystal_description       ?
_exptl_crystal_colour            ?
_exptl_crystal_size_max          0.30
_exptl_crystal_size_mid          0.18
_exptl_crystal_size_min          0.16
_exptl_crystal_density_meas      ?
_exptl_crystal_density_diffrn    0.983
_exptl_crystal_density_method    'not measured'
_exptl_crystal_F_000             1904
_exptl_absorpt_coefficient_mu    0.579
_exptl_absorpt_correction_type   multi-scan
_exptl_absorpt_correction_T_min  0.8454
_exptl_absorpt_correction_T_max  0.9130
_exptl_absorpt_process_details   'SADABS (Bruker, 2000)'

_exptl_special_details           
; 
 ? 
;

_diffrn_ambient_temperature      173(2)
_diffrn_radiation_wavelength     0.71073
_diffrn_radiation_type           MoK\a
_diffrn_radiation_source         'fine-focus sealed tube'
_diffrn_radiation_monochromator  graphite
_diffrn_measurement_device_type  ?
_diffrn_measurement_method       ?
_diffrn_detector_area_resol_mean ?
_diffrn_reflns_number            35928
_diffrn_reflns_av_R_equivalents  0.0910
_diffrn_reflns_av_sigmaI/netI    0.1291
_diffrn_reflns_limit_h_min       -17
_diffrn_reflns_limit_h_max       17
_diffrn_reflns_limit_k_min       -18
_diffrn_reflns_limit_k_max       15
_diffrn_reflns_limit_l_min       -32
_diffrn_reflns_limit_l_max       33
_diffrn_reflns_theta_min         1.33
_diffrn_reflns_theta_max         25.24
_reflns_number_total             11276
_reflns_number_gt                5501
_reflns_threshold_expression     >2sigma(I)

_computing_data_collection       ?
_computing_cell_refinement       ?
_computing_data_reduction        ?
_computing_structure_solution    'SHELXS-97 (Sheldrick, 2008)'
_computing_structure_refinement  'SHELXL-97 (Sheldrick, 2008)'
_computing_molecular_graphics    ?
_computing_publication_material  ?

_refine_special_details          
; 
 Refinement of F^2^ against ALL reflections.  The weighted R-factor wR and 
 goodness of fit S are based on F^2^, conventional R-factors R are based 
 on F, with F set to zero for negative F^2^. The threshold expression of 
 F^2^ > 2sigma(F^2^) is used only for calculating R-factors(gt) etc. and is 
 not relevant to the choice of reflections for refinement.  R-factors based 
 on F^2^ are statistically about twice as large as those based on F, and R- 
 factors based on ALL data will be even larger. 
;

_refine_ls_structure_factor_coef Fsqd
_refine_ls_matrix_type           full
_refine_ls_weighting_scheme      calc
_refine_ls_weighting_details     
'calc w=1/[\s^2^(Fo^2^)+(0.0305P)^2^+0.0000P] where P=(Fo^2^+2Fc^2^)/3'
_atom_sites_solution_primary     direct
_atom_sites_solution_secondary   difmap
_atom_sites_solution_hydrogens   geom
_refine_ls_hydrogen_treatment    constr
_refine_ls_extinction_method     none
_refine_ls_extinction_coef       ?
_refine_ls_number_reflns         11276
_refine_ls_number_parameters     573
_refine_ls_number_restraints     0
_refine_ls_R_factor_all          0.1039
_refine_ls_R_factor_gt           0.0555
_refine_ls_wR_factor_ref         0.1313
_refine_ls_wR_factor_gt          0.1223
_refine_ls_goodness_of_fit_ref   1.039
_refine_ls_restrained_S_all      1.039
_refine_ls_shift/su_max          0.001
_refine_ls_shift/su_mean         0.000

loop_
_atom_site_label
_atom_site_type_symbol
_atom_site_fract_x
_atom_site_fract_y
_atom_site_fract_z
_atom_site_U_iso_or_equiv
_atom_site_adp_type
_atom_site_occupancy
_atom_site_symmetry_multiplicity
_atom_site_calc_flag
_atom_site_refinement_flags
_atom_site_disorder_assembly
_atom_site_disorder_group
C1 C 0.1636(3) 1.0477(3) 0.39804(16) 0.0457(12) Uani 1 1 d . . .
C2 C 0.1378(3) 1.0021(3) 0.35530(18) 0.0624(15) Uani 1 1 d . . .
H2 H 0.0955 1.0226 0.3322 0.075 Uiso 1 1 calc R . .
C3 C 0.1810(4) 0.9275(3) 0.35255(18) 0.0689(17) Uani 1 1 d . . .
H3 H 0.1763 0.8855 0.3275 0.083 Uiso 1 1 calc R . .
C4 C 0.2362(3) 0.9224(3) 0.39435(17) 0.0526(14) Uani 1 1 d . . .
C5 C 0.2885(3) 0.8520(3) 0.40716(17) 0.0481(13) Uani 1 1 d . . .
C6 C 0.3375(3) 0.8463(3) 0.44906(17) 0.0479(13) Uani 1 1 d . . .
C7 C 0.3854(4) 0.7707(3) 0.4649(2) 0.0783(18) Uani 1 1 d . . .
H7 H 0.3921 0.7179 0.4474 0.094 Uiso 1 1 calc R . .
C8 C 0.4195(4) 0.7878(3) 0.50911(19) 0.0693(16) Uani 1 1 d . . .
H8 H 0.4533 0.7484 0.5284 0.083 Uiso 1 1 calc R . .
C9 C 0.3965(3) 0.8742(3) 0.52193(17) 0.0487(13) Uani 1 1 d . . .
C10 C 0.4224(3) 0.9143(3) 0.56214(17) 0.0476(13) Uani 1 1 d . . .
C11 C 0.4059(3) 1.0053(3) 0.57172(16) 0.0483(13) Uani 1 1 d . . .
C12 C 0.4393(4) 1.0517(4) 0.61251(17) 0.0655(15) Uani 1 1 d . . .
H12 H 0.4739 1.0281 0.6382 0.079 Uiso 1 1 calc R . .
C13 C 0.4129(4) 1.1349(4) 0.60798(19) 0.0738(17) Uani 1 1 d . . .
H13 H 0.4267 1.1814 0.6294 0.089 Uiso 1 1 calc R . .
C14 C 0.3590(3) 1.1405(3) 0.56404(17) 0.0492(13) Uani 1 1 d . . .
C15 C 0.3153(3) 1.2137(3) 0.54897(17) 0.0484(13) Uani 1 1 d . . .
C16 C 0.2568(3) 1.2157(3) 0.51030(17) 0.0480(13) Uani 1 1 d . . .
C17 C 0.2051(4) 1.2900(3) 0.49592(19) 0.0675(16) Uani 1 1 d . . .
H17 H 0.2071 1.3464 0.5101 0.081 Uiso 1 1 calc R . .
C18 C 0.1537(4) 1.2653(3) 0.45900(19) 0.0670(16) Uani 1 1 d . . .
H18 H 0.1115 1.3012 0.4425 0.080 Uiso 1 1 calc R . .
C19 C 0.1722(3) 1.1755(3) 0.44803(18) 0.0475(12) Uani 1 1 d . . .
C20 C 0.1365(3) 1.1305(3) 0.40997(16) 0.0398(11) Uani 1 1 d . . .
C21 C 0.3119(3) 0.6256(3) 0.31697(16) 0.0481(13) Uani 1 1 d . . .
C22 C 0.2375(3) 0.6385(3) 0.3456(2) 0.0775(18) Uani 1 1 d . . .
H22 H 0.1909 0.5963 0.3459 0.093 Uiso 1 1 calc R . .
C23 C 0.2310(4) 0.7121(4) 0.3733(2) 0.0793(18) Uani 1 1 d . . .
H23 H 0.1800 0.7194 0.3933 0.095 Uiso 1 1 calc R . .
C24 C 0.2954(3) 0.7749(3) 0.37316(17) 0.0516(13) Uani 1 1 d . . .
C25 C 0.3661(3) 0.7632(3) 0.34386(18) 0.0658(16) Uani 1 1 d . . .
H25 H 0.4106 0.8074 0.3422 0.079 Uiso 1 1 calc R . .
C26 C 0.3758(4) 0.6900(4) 0.31645(18) 0.0687(16) Uani 1 1 d . . .
H26 H 0.4273 0.6836 0.2968 0.082 Uiso 1 1 calc R . .
C27 C 0.3247(4) 0.5425(3) 0.28895(17) 0.0544(14) Uani 1 1 d . . .
C28 C 0.5747(3) 0.7666(3) 0.66403(15) 0.0401(11) Uani 1 1 d . . .
C29 C 0.4829(3) 0.7641(3) 0.66471(16) 0.0475(13) Uani 1 1 d . . .
H29 H 0.4531 0.7287 0.6876 0.057 Uiso 1 1 calc R . .
C30 C 0.4335(3) 0.8127(3) 0.63239(17) 0.0529(13) Uani 1 1 d . . .
H30 H 0.3698 0.8103 0.6334 0.063 Uiso 1 1 calc R . .
C31 C 0.4741(3) 0.8644(3) 0.59893(16) 0.0445(12) Uani 1 1 d . . .
C32 C 0.5670(4) 0.8683(4) 0.6003(2) 0.086(2) Uani 1 1 d . . .
H32 H 0.5968 0.9063 0.5787 0.104 Uiso 1 1 calc R . .
C33 C 0.6173(3) 0.8195(4) 0.63169(18) 0.0754(18) Uani 1 1 d . . .
H33 H 0.6809 0.8223 0.6311 0.090 Uiso 1 1 calc R . .
C34 C 0.6301(3) 0.7116(3) 0.69744(15) 0.0409(12) Uani 1 1 d . . .
C35 C 0.3558(3) 1.4446(3) 0.63617(15) 0.0438(12) Uani 1 1 d . . .
C36 C 0.4239(4) 1.4120(3) 0.60880(17) 0.0638(15) Uani 1 1 d . . .
H36 H 0.4811 1.4394 0.6092 0.077 Uiso 1 1 calc R . .
C37 C 0.4091(4) 1.3370(4) 0.57972(18) 0.0711(16) Uani 1 1 d . . .
H37 H 0.4569 1.3155 0.5606 0.085 Uiso 1 1 calc R . .
C38 C 0.3291(3) 1.2952(3) 0.57846(16) 0.0505(13) Uani 1 1 d . . .
C39 C 0.2609(4) 1.3304(4) 0.6061(2) 0.090(2) Uani 1 1 d . . .
H39 H 0.2037 1.3031 0.6061 0.108 Uiso 1 1 calc R . .
C40 C 0.2746(4) 1.4041(4) 0.63355(19) 0.0779(19) Uani 1 1 d . . .
H40 H 0.2258 1.4274 0.6512 0.093 Uiso 1 1 calc R . .
C41 C 0.3693(4) 1.5207(3) 0.66825(16) 0.0518(13) Uani 1 1 d . . .
C42 C -0.0750(3) 1.2466(3) 0.32631(15) 0.0443(12) Uani 1 1 d . . .
C43 C 0.0141(3) 1.2691(3) 0.31938(16) 0.0537(14) Uani 1 1 d . . .
H43 H 0.0285 1.3112 0.2955 0.064 Uiso 1 1 calc R . .
C44 C 0.0825(3) 1.2321(3) 0.34613(16) 0.0527(13) Uani 1 1 d . . .
H44 H 0.1429 1.2488 0.3403 0.063 Uiso 1 1 calc R . .
C45 C 0.0644(3) 1.1713(3) 0.38104(14) 0.0401(11) Uani 1 1 d . . .
C46 C -0.0239(3) 1.1475(3) 0.38793(17) 0.0636(15) Uani 1 1 d . . .
H46 H -0.0374 1.1046 0.4115 0.076 Uiso 1 1 calc R . .
C47 C -0.0939(3) 1.1846(3) 0.36128(18) 0.0646(15) Uani 1 1 d . . .
H47 H -0.1541 1.1676 0.3670 0.078 Uiso 1 1 calc R . .
C48 C -0.1492(4) 1.2892(3) 0.29936(16) 0.0485(13) Uani 1 1 d . . .
Fe1 Fe 0.5000 0.55912(6) 0.7500 0.0412(3) Uani 1 2 d S . .
Fe2 Fe 0.73142(4) 0.62197(4) 0.75524(2) 0.0419(2) Uani 1 1 d . . .
Mn1 Mn 0.27614(4) 1.02189(4) 0.48830(2) 0.03312(18) Uani 1 1 d . . .
N1 N 0.2266(2) 0.9969(2) 0.42180(12) 0.0431(10) Uani 1 1 d . . .
N2 N 0.3451(2) 0.9100(2) 0.48522(13) 0.0443(10) Uani 1 1 d . . .
N3 N 0.3556(2) 1.0601(2) 0.54241(12) 0.0418(9) Uani 1 1 d . . .
N4 N 0.2365(2) 1.1452(2) 0.48083(12) 0.0386(9) Uani 1 1 d . . .
O1 O 0.3995(2) 0.53305(19) 0.26897(11) 0.0569(9) Uani 1 1 d . . .
O2 O 0.2585(2) 0.4896(2) 0.28633(12) 0.0670(10) Uani 1 1 d . . .
O3 O 0.59384(18) 0.66434(18) 0.73004(9) 0.0399(7) Uani 1 1 d . . .
O4 O 0.7136(2) 0.7124(2) 0.69435(11) 0.0585(9) Uani 1 1 d . . .
O5 O 0.4475(2) 1.54480(19) 0.67727(10) 0.0538(9) Uani 1 1 d . . .
O6 O 0.2988(2) 1.5560(2) 0.68396(11) 0.0682(10) Uani 1 1 d . . .
O7 O -0.13045(19) 1.3555(2) 0.27235(10) 0.0540(9) Uani 1 1 d . . .
O8 O -0.2271(2) 1.2619(2) 0.30287(11) 0.0605(10) Uani 1 1 d . . .
O9 O 0.1893(4) 0.9759(3) 0.52579(18) 0.162(2) Uani 1 1 d . . .

loop_
_atom_site_aniso_label
_atom_site_aniso_U_11
_atom_site_aniso_U_22
_atom_site_aniso_U_33
_atom_site_aniso_U_23
_atom_site_aniso_U_13
_atom_site_aniso_U_12
C1 0.045(3) 0.050(3) 0.042(3) 0.001(3) -0.014(2) 0.004(3)
C2 0.056(3) 0.069(4) 0.062(3) -0.009(3) -0.033(3) 0.019(3)
C3 0.076(4) 0.059(4) 0.071(4) -0.026(3) -0.047(3) 0.026(3)
C4 0.057(3) 0.046(3) 0.055(3) -0.022(3) -0.004(3) 0.012(3)
C5 0.056(3) 0.039(3) 0.049(3) -0.009(2) -0.017(3) 0.010(3)
C6 0.065(3) 0.031(3) 0.048(3) -0.005(2) -0.005(3) 0.015(3)
C7 0.096(5) 0.060(4) 0.079(4) -0.020(3) -0.018(4) 0.044(4)
C8 0.090(4) 0.054(4) 0.064(4) -0.005(3) -0.019(3) 0.033(3)
C9 0.064(4) 0.042(3) 0.039(3) -0.010(3) -0.015(3) 0.009(3)
C10 0.048(3) 0.036(3) 0.058(3) 0.003(3) -0.011(3) 0.005(3)
C11 0.046(3) 0.058(4) 0.040(3) 0.008(3) -0.014(2) 0.002(3)
C12 0.084(4) 0.053(4) 0.059(3) -0.001(3) -0.041(3) -0.003(3)
C13 0.094(5) 0.050(4) 0.076(4) 0.000(3) -0.046(4) -0.007(3)
C14 0.057(3) 0.036(3) 0.054(3) -0.012(3) -0.020(3) -0.001(3)
C15 0.048(3) 0.032(3) 0.065(3) -0.007(3) -0.022(3) 0.003(3)
C16 0.053(3) 0.038(3) 0.052(3) -0.004(3) -0.016(3) 0.001(3)
C17 0.090(4) 0.038(3) 0.074(4) -0.013(3) -0.040(3) 0.024(3)
C18 0.075(4) 0.048(4) 0.078(4) -0.009(3) -0.026(3) 0.026(3)
C19 0.048(3) 0.031(3) 0.063(3) -0.004(3) -0.007(3) 0.006(3)
C20 0.040(3) 0.032(3) 0.047(3) -0.002(2) -0.003(2) 0.004(2)
C21 0.043(3) 0.046(3) 0.055(3) -0.020(3) -0.012(3) 0.010(3)
C22 0.058(4) 0.058(4) 0.117(5) -0.050(3) 0.020(3) -0.009(3)
C23 0.055(4) 0.080(5) 0.103(5) -0.044(4) 0.011(3) -0.007(3)
C24 0.057(3) 0.041(3) 0.056(3) -0.019(3) -0.012(3) 0.005(3)
C25 0.061(4) 0.055(4) 0.081(4) -0.037(3) -0.001(3) -0.004(3)
C26 0.059(4) 0.065(4) 0.082(4) -0.030(3) 0.010(3) 0.005(3)
C27 0.067(4) 0.035(3) 0.061(3) -0.014(3) -0.017(3) 0.023(3)
C28 0.044(3) 0.038(3) 0.038(3) 0.010(2) -0.014(2) 0.000(2)
C29 0.039(3) 0.046(3) 0.058(3) 0.020(2) -0.003(3) 0.002(3)
C30 0.034(3) 0.053(4) 0.071(3) 0.017(3) -0.007(3) 0.002(3)
C31 0.046(3) 0.041(3) 0.046(3) 0.004(2) -0.014(3) 0.004(3)
C32 0.060(4) 0.104(5) 0.095(4) 0.068(4) 0.005(3) 0.000(4)
C33 0.035(3) 0.104(5) 0.087(4) 0.069(4) -0.006(3) 0.005(3)
C34 0.041(3) 0.046(3) 0.036(3) 0.000(2) -0.010(2) -0.005(3)
C35 0.047(3) 0.042(3) 0.043(3) -0.008(2) -0.010(2) 0.004(3)
C36 0.060(4) 0.055(4) 0.077(4) -0.023(3) -0.005(3) -0.021(3)
C37 0.061(4) 0.071(4) 0.082(4) -0.028(3) 0.010(3) -0.005(3)
C38 0.050(3) 0.042(3) 0.059(3) -0.015(3) -0.014(3) -0.001(3)
C39 0.046(4) 0.118(6) 0.106(5) -0.048(4) 0.003(3) -0.026(4)
C40 0.058(4) 0.079(5) 0.096(4) -0.053(4) 0.015(3) -0.014(3)
C41 0.068(4) 0.045(4) 0.043(3) -0.005(3) -0.020(3) 0.002(3)
C42 0.041(3) 0.046(3) 0.046(3) 0.011(2) -0.010(3) -0.001(3)
C43 0.050(3) 0.060(4) 0.051(3) 0.017(3) -0.003(3) 0.008(3)
C44 0.031(3) 0.071(4) 0.055(3) 0.008(3) -0.003(3) 0.004(3)
C45 0.047(3) 0.039(3) 0.034(3) -0.001(2) -0.006(2) 0.006(3)
C46 0.050(3) 0.073(4) 0.068(4) 0.035(3) -0.005(3) 0.002(3)
C47 0.039(3) 0.074(4) 0.081(4) 0.022(3) -0.009(3) 0.000(3)
C48 0.053(4) 0.050(4) 0.043(3) -0.003(3) -0.014(3) 0.008(3)
Fe1 0.0434(6) 0.0359(6) 0.0441(6) 0.000 -0.0080(5) 0.000
Fe2 0.0377(4) 0.0375(4) 0.0504(4) 0.0014(3) -0.0125(3) -0.0020(3)
Mn1 0.0361(4) 0.0294(4) 0.0337(4) -0.0023(3) -0.0066(3) 0.0029(3)
N1 0.051(2) 0.039(3) 0.039(2) -0.0039(18) -0.0097(19) 0.006(2)
N2 0.051(3) 0.030(2) 0.052(2) -0.0001(19) -0.007(2) 0.0122(19)
N3 0.050(2) 0.036(2) 0.040(2) -0.0049(19) -0.0195(19) 0.005(2)
N4 0.040(2) 0.034(2) 0.042(2) -0.0042(19) -0.0105(19) 0.0041(19)
O1 0.057(2) 0.039(2) 0.074(2) -0.0186(17) -0.0041(19) 0.0190(18)
O2 0.062(2) 0.051(2) 0.088(3) -0.0268(19) -0.004(2) -0.006(2)
O3 0.0422(18) 0.0378(19) 0.0397(17) 0.0088(14) -0.0021(15) -0.0042(15)
O4 0.034(2) 0.074(3) 0.068(2) 0.0324(18) -0.0059(17) 0.0014(18)
O5 0.069(2) 0.045(2) 0.048(2) -0.0071(16) -0.0161(19) -0.0094(19)
O6 0.071(3) 0.066(3) 0.067(2) -0.0325(19) -0.031(2) 0.022(2)
O7 0.0370(19) 0.069(3) 0.056(2) 0.0119(18) -0.0109(16) 0.0064(18)
O8 0.036(2) 0.062(2) 0.083(3) 0.0151(18) -0.0178(19) -0.0068(18)
O9 0.179(5) 0.145(5) 0.162(5) -0.065(4) 0.002(4) 0.002(4)

_geom_special_details            
; 
 All esds (except the esd in the dihedral angle between two l.s. planes) 
 are estimated using the full covariance matrix.  The cell esds are taken 
 into account individually in the estimation of esds in distances, angles 
 and torsion angles; correlations between esds in cell parameters are only 
 used when they are defined by crystal symmetry.  An approximate (isotropic) 
 treatment of cell esds is used for estimating esds involving l.s. planes. 
;

loop_
_geom_bond_atom_site_label_1
_geom_bond_atom_site_label_2
_geom_bond_distance
_geom_bond_site_symmetry_2
_geom_bond_publ_flag
C1 C20 1.375(6) . ?
C1 N1 1.384(5) . ?
C1 C2 1.427(6) . ?
C2 C3 1.316(6) . ?
C2 H2 0.9500 . ?
C3 C4 1.420(6) . ?
C3 H3 0.9500 . ?
C4 C5 1.377(6) . ?
C4 N1 1.382(5) . ?
C5 C6 1.372(6) . ?
C5 C24 1.516(6) . ?
C6 N2 1.406(5) . ?
C6 C7 1.429(6) . ?
C7 C8 1.351(6) . ?
C7 H7 0.9500 . ?
C8 C9 1.416(6) . ?
C8 H8 0.9500 . ?
C9 C10 1.329(6) . ?
C9 N2 1.384(5) . ?
C10 C11 1.443(6) . ?
C10 C31 1.488(6) . ?
C11 N3 1.386(5) . ?
C11 C12 1.424(6) . ?
C12 C13 1.341(6) . ?
C12 H12 0.9500 . ?
C13 C14 1.458(6) . ?
C13 H13 0.9500 . ?
C14 C15 1.364(6) . ?
C14 N3 1.373(5) . ?
C15 C16 1.379(6) . ?
C15 C38 1.507(6) . ?
C16 N4 1.388(5) . ?
C16 C17 1.431(6) . ?
C17 C18 1.331(6) . ?
C17 H17 0.9500 . ?
C18 C19 1.438(6) . ?
C18 H18 0.9500 . ?
C19 C20 1.367(6) . ?
C19 N4 1.397(5) . ?
C20 C45 1.476(6) . ?
C21 C26 1.373(6) . ?
C21 C22 1.383(6) . ?
C21 C27 1.506(6) . ?
C22 C23 1.371(6) . ?
C22 H22 0.9500 . ?
C23 C24 1.361(6) . ?
C23 H23 0.9500 . ?
C24 C25 1.348(6) . ?
C25 C26 1.365(6) . ?
C25 H25 0.9500 . ?
C26 H26 0.9500 . ?
C27 O1 1.258(5) . ?
C27 O2 1.280(6) . ?
C28 C29 1.370(6) . ?
C28 C33 1.370(5) . ?
C28 C34 1.498(6) . ?
C29 C30 1.376(6) . ?
C29 H29 0.9500 . ?
C30 C31 1.366(6) . ?
C30 H30 0.