####################################################################### 
# 
# This file contains crystal structure data downloaded from the 
# Cambridge Structural Database (CSD) hosted by the Cambridge 
# Crystallographic Data Centre (CCDC).
# 
# Full information about CCDC data access policies and citation 
# guidelines are available at http://www.ccdc.cam.ac.uk/access/V1 
# 
# Audit and citation data items may have been added by the CCDC. 
# Please retain this information to preserve the provenance of 
# this file and to allow appropriate attribution of the data. 
# 
#######################################################################

data_www2
_audit_block_doi                 10.5517/ccs04jf
_database_code_depnum_ccdc_archive 'CCDC 715124'
loop_
_citation_id
_citation_doi
_citation_year
1 10.1002/anie.200902274 2009
_audit_update_record             
;
2009-01-03 deposited with the CCDC.	2024-07-11 downloaded from the CCDC.
;

_audit_creation_method           SHELXL-97
_chemical_name_systematic        
;
?
;
_chemical_name_common            ?
_chemical_melting_point          ?
_chemical_formula_moiety         ?
_chemical_formula_sum            'C80 H99 N25 O17 Zn5'
_chemical_formula_weight         2009.69

loop_
_atom_type_symbol
_atom_type_description
_atom_type_scat_dispersion_real
_atom_type_scat_dispersion_imag
_atom_type_scat_source
C C 0.0033 0.0016 'International Tables Vol C Tables 4.2.6.8 and 6.1.1.4'
H H 0.0000 0.0000 'International Tables Vol C Tables 4.2.6.8 and 6.1.1.4'
N N 0.0061 0.0033 'International Tables Vol C Tables 4.2.6.8 and 6.1.1.4'
O O 0.0106 0.0060 'International Tables Vol C Tables 4.2.6.8 and 6.1.1.4'
Zn Zn 0.2839 1.4301 'International Tables Vol C Tables 4.2.6.8 and 6.1.1.4'

_symmetry_cell_setting           tetrahedral
_symmetry_space_group_name_H-M   I4(1)/a

loop_
_symmetry_equiv_pos_as_xyz
'x, y, z'
'-x, -y+1/2, z'
'-y+3/4, x+1/4, z+1/4'
'y+1/4, -x+1/4, z+1/4'
'x+1/2, y+1/2, z+1/2'
'-x+1/2, -y+1, z+1/2'
'-y+5/4, x+3/4, z+3/4'
'y+3/4, -x+3/4, z+3/4'
'-x, -y, -z'
'x, y-1/2, -z'
'y-3/4, -x-1/4, -z-1/4'
'-y-1/4, x-1/4, -z-1/4'
'-x+1/2, -y+1/2, -z+1/2'
'x+1/2, y, -z+1/2'
'y-1/4, -x+1/4, -z+1/4'
'-y+1/4, x+1/4, -z+1/4'

_cell_length_a                   30.048(5)
_cell_length_b                   30.048(5)
_cell_length_c                   37.908(5)
_cell_angle_alpha                90.000(5)
_cell_angle_beta                 90.000(5)
_cell_angle_gamma                90.000(5)
_cell_volume                     34226(9)
_cell_formula_units_Z            16
_cell_measurement_temperature    293(2)
_cell_measurement_reflns_used    88070
_cell_measurement_theta_min      0.86
_cell_measurement_theta_max      25.21

_exptl_crystal_description       block
_exptl_crystal_colour            colorless
_exptl_crystal_size_max          0.22
_exptl_crystal_size_mid          0.20
_exptl_crystal_size_min          0.20
_exptl_crystal_density_meas      ?
_exptl_crystal_density_diffrn    1.560
_exptl_crystal_density_method    'not measured'
_exptl_crystal_F_000             16640
_exptl_absorpt_coefficient_mu    1.464
_exptl_absorpt_correction_type   multi-scan
_exptl_absorpt_correction_T_min  0.732
_exptl_absorpt_correction_T_max  0.746
_exptl_absorpt_process_details   'SADABS (Sheldrick, 1996)'

_exptl_special_details           
;
?
;

_diffrn_ambient_temperature      298(2)
_diffrn_radiation_wavelength     0.71069
_diffrn_radiation_type           MoK\a
_diffrn_radiation_source         'fine-focus sealed tube'
_diffrn_radiation_monochromator  graphite
_diffrn_measurement_device_type  'Bruker APEX CCD area-detector'
_diffrn_measurement_method       '\w scans'
_diffrn_detector_area_resol_mean ?
_diffrn_standards_number         ?
_diffrn_standards_interval_count ?
_diffrn_standards_interval_time  ?
_diffrn_standards_decay_%        ?
_diffrn_reflns_number            88070
_diffrn_reflns_av_R_equivalents  0.0772
_diffrn_reflns_av_sigmaI/netI    0.0784
_diffrn_reflns_limit_h_min       -36
_diffrn_reflns_limit_h_max       32
_diffrn_reflns_limit_k_min       -35
_diffrn_reflns_limit_k_max       31
_diffrn_reflns_limit_l_min       -45
_diffrn_reflns_limit_l_max       45
_diffrn_reflns_theta_min         0.86
_diffrn_reflns_theta_max         25.21
_reflns_number_total             15320
_reflns_number_gt                6849
_reflns_threshold_expression     >2sigma(I)

_computing_data_collection       'SMART (Bruker, 1997)'
_computing_cell_refinement       'SAINT (Bruker, 1999)'
_computing_data_reduction        SAINT
_computing_structure_solution    'SHELXS-97 (Sheldrick, 1997)'
_computing_structure_refinement  'SHELXL-97 (Sheldrick, 1997)'
_computing_molecular_graphics    'SHELXTL-PLUS (Sheldrick, 1990)'
_computing_publication_material  SHELXL-97

_refine_special_details          
;
Refinement of F^2^ against ALL reflections. The weighted R-factor wR and
goodness of fit S are based on F^2^, conventional R-factors R are based
on F, with F set to zero for negative F^2^. The threshold expression of
F^2^ > 2sigma(F^2^) is used only for calculating R-factors(gt) etc. and is
not relevant to the choice of reflections for refinement. R-factors based
on F^2^ are statistically about twice as large as those based on F, and R-
factors based on ALL data will be even larger.
;

_refine_ls_structure_factor_coef Fsqd
_refine_ls_matrix_type           full
_refine_ls_weighting_scheme      calc
_refine_ls_weighting_details     
'calc w=1/[\s^2^(Fo^2^)+(0.0310P)^2^+0.0000P] where P=(Fo^2^+2Fc^2^)/3'
_atom_sites_solution_primary     direct
_atom_sites_solution_secondary   difmap
_atom_sites_solution_hydrogens   geom
_refine_ls_hydrogen_treatment    constr
_refine_ls_extinction_method     SHELXL
_refine_ls_extinction_coef       0.0000023(14)
_refine_ls_extinction_expression Fc^*^=kFc[1+0.001xFc^2^\l^3^/sin(2\q)]^-1/4^
_refine_ls_number_reflns         15320
_refine_ls_number_parameters     679
_refine_ls_number_restraints     2
_refine_ls_R_factor_all          0.1109
_refine_ls_R_factor_gt           0.0467
_refine_ls_wR_factor_ref         0.1029
_refine_ls_wR_factor_gt          0.0959
_refine_ls_goodness_of_fit_ref   1.008
_refine_ls_restrained_S_all      1.207
_refine_ls_shift/su_max          0.001
_refine_ls_shift/su_mean         0.000

loop_
_atom_site_label
_atom_site_type_symbol
_atom_site_fract_x
_atom_site_fract_y
_atom_site_fract_z
_atom_site_U_iso_or_equiv
_atom_site_adp_type
_atom_site_occupancy
_atom_site_symmetry_multiplicity
_atom_site_calc_flag
_atom_site_refinement_flags
_atom_site_disorder_assembly
_atom_site_disorder_group
Zn1 Zn 0.663636(17) 0.055031(17) 0.125198(16) 0.04264(14) Uani 1 1 d . . .
Zn2 Zn 0.67406(2) -0.040238(18) 0.069018(16) 0.05761(19) Uani 1 1 d . . .
Zn3 Zn 0.569706(19) 0.03982(2) 0.182095(17) 0.0599(2) Uani 1 1 d . . .
Zn4 Zn 0.64483(2) 0.152142(19) 0.071470(17) 0.0678(2) Uani 1 1 d D . .
Zn5 Zn 0.762555(19) 0.06888(2) 0.178921(17) 0.0690(2) Uani 1 1 d D . .
C1 C 0.65183(15) 0.27391(14) 0.02758(13) 0.0789(19) Uani 1 1 d G . .
C2 C 0.66450(16) 0.27127(13) -0.00682(13) 0.124(3) Uani 1 1 d G . .
H2A H 0.6694 0.2436 -0.0171 0.148 Uiso 1 1 calc R . .
C3 C 0.66997(16) 0.30893(17) -0.02609(11) 0.124(3) Uani 1 1 d G . .
H3A H 0.6787 0.3071 -0.0496 0.149 Uiso 1 1 calc R . .
C4 C 0.66273(15) 0.34920(14) -0.01101(14) 0.083(2) Uani 1 1 d G . .
C5 C 0.65005(16) 0.35183(13) 0.02339(14) 0.137(3) Uani 1 1 d G . .
H5A H 0.6451 0.3795 0.0337 0.164 Uiso 1 1 calc R . .
C6 C 0.64460(16) 0.31418(18) 0.04267(10) 0.122(3) Uani 1 1 d G . .
H6A H 0.6359 0.3160 0.0662 0.146 Uiso 1 1 calc R . .
C7 C 0.6459(3) 0.2316(2) 0.0486(2) 0.093(2) Uani 1 1 d . . .
C8 C 0.6697(3) 0.3920(3) -0.0328(2) 0.101(3) Uani 1 1 d . . .
C9 C 0.46115(13) 0.04909(15) 0.24244(13) 0.0789(19) Uani 1 1 d G . .
C10 C 0.45998(13) 0.06846(16) 0.27488(13) 0.135(3) Uani 1 1 d G . .
H10A H 0.4860 0.0793 0.2850 0.162 Uiso 1 1 calc R . .
C11 C 0.42084(17) 0.07198(16) 0.29257(10) 0.132(3) Uani 1 1 d G . .
H11A H 0.4201 0.0852 0.3147 0.159 Uiso 1 1 calc R . .
C12 C 0.38285(13) 0.05611(15) 0.27780(12) 0.0726(18) Uani 1 1 d G . .
C13 C 0.38400(14) 0.03674(14) 0.24536(12) 0.109(2) Uani 1 1 d G . .
H13A H 0.3579 0.0259 0.2353 0.131 Uiso 1 1 calc R . .
C14 C 0.42315(17) 0.03321(14) 0.22768(10) 0.112(3) Uani 1 1 d G . .
H14A H 0.4239 0.0200 0.2055 0.134 Uiso 1 1 calc R . .
C15 C 0.5040(3) 0.0458(3) 0.2216(2) 0.098(3) Uani 1 1 d . . .
C16 C 0.3388(2) 0.0611(2) 0.29724(19) 0.080(2) Uani 1 1 d . . .
C17 C 0.73257(13) 0.17870(15) 0.11360(11) 0.0704(18) Uani 1 1 d G . .
C18 C 0.75984(16) 0.15761(12) 0.13752(12) 0.0726(18) Uani 1 1 d G . .
C19 C 0.79790(15) 0.17824(17) 0.14922(12) 0.107(2) Uani 1 1 d G . .
H19A H 0.8163 0.1640 0.1654 0.128 Uiso 1 1 calc R . .
C20 C 0.80872(15) 0.21993(18) 0.13701(15) 0.146(4) Uani 1 1 d G . .
H20A H 0.8345 0.2339 0.1449 0.175 Uiso 1 1 calc R . .
C21 C 0.78146(19) 0.24100(13) 0.11309(15) 0.151(4) Uani 1 1 d G . .
H21A H 0.7888 0.2692 0.1048 0.181 Uiso 1 1 calc R . .
C22 C 0.74338(17) 0.22039(15) 0.10139(12) 0.104(2) Uani 1 1 d G . .
H22A H 0.7250 0.2346 0.0852 0.125 Uiso 1 1 calc R . .
C23 C 0.56651(16) -0.04844(13) 0.13931(12) 0.0770(19) Uani 1 1 d G . .
C24 C 0.59234(14) -0.06800(16) 0.11306(12) 0.0770(19) Uani 1 1 d G . .
C25 C 0.58269(17) -0.11077(17) 0.10144(12) 0.137(3) Uani 1 1 d G . .
H25A H 0.6000 -0.1238 0.0839 0.164 Uiso 1 1 calc R . .
C26 C 0.5472(2) -0.13399(15) 0.11604(16) 0.203(5) Uani 1 1 d G . .
H26A H 0.5407 -0.1626 0.1083 0.243 Uiso 1 1 calc R . .
C27 C 0.52137(16) -0.11445(18) 0.14229(15) 0.179(5) Uani 1 1 d G . .
H27A H 0.4976 -0.1300 0.1521 0.215 Uiso 1 1 calc R . .
C28 C 0.53104(15) -0.07168(18) 0.15391(12) 0.117(3) Uani 1 1 d G . .
H28A H 0.5138 -0.0586 0.1714 0.141 Uiso 1 1 calc R . .
C29 C 0.55602(14) 0.14815(18) 0.11374(15) 0.093(2) Uani 1 1 d G . .
C30 C 0.53791(18) 0.12138(15) 0.13961(14) 0.100(2) Uani 1 1 d G . .
C31 C 0.49477(19) 0.12821(19) 0.15064(15) 0.147(4) Uani 1 1 d G . .
H31A H 0.4825 0.1102 0.1681 0.176 Uiso 1 1 calc R . .
C32 C 0.46973(15) 0.1618(2) 0.1358(2) 0.234(6) Uani 1 1 d G . .
H32A H 0.4406 0.1664 0.1432 0.280 Uiso 1 1 calc R . .
C33 C 0.4879(2) 0.18852(17) 0.10993(19) 0.191(5) Uani 1 1 d G . .
H33A H 0.4709 0.2112 0.0999 0.229 Uiso 1 1 calc R . .
C34 C 0.5310(2) 0.18171(17) 0.09890(15) 0.160(4) Uani 1 1 d G . .
H34A H 0.5432 0.1997 0.0815 0.192 Uiso 1 1 calc R . .
C35 C 0.78625(16) -0.01833(13) 0.13331(11) 0.0676(17) Uani 1 1 d G . .
C36 C 0.76429(13) -0.04476(15) 0.10934(11) 0.0616(16) Uani 1 1 d G . .
C37 C 0.78436(17) -0.08248(14) 0.09645(11) 0.097(2) Uani 1 1 d G . .
H37A H 0.7695 -0.1004 0.0802 0.117 Uiso 1 1 calc R . .
C38 C 0.82638(18) -0.09378(14) 0.10753(14) 0.133(3) Uani 1 1 d G . .
H38A H 0.8400 -0.1193 0.0988 0.159 Uiso 1 1 calc R . .
C39 C 0.84833(13) -0.06735(19) 0.13150(14) 0.140(4) Uani 1 1 d G . .
H39A H 0.8768 -0.0750 0.1390 0.168 Uiso 1 1 calc R . .
C40 C 0.82828(16) -0.02963(17) 0.14439(11) 0.105(2) Uani 1 1 d G . .
H40A H 0.8431 -0.0118 0.1606 0.125 Uiso 1 1 calc R . .
C41 C 0.64669(12) 0.03931(11) 0.23691(9) 0.0529(14) Uani 1 1 d G . .
C42 C 0.69211(12) 0.04518(11) 0.23521(9) 0.0489(14) Uani 1 1 d G . .
C43 C 0.71722(11) 0.04353(11) 0.26567(11) 0.0645(16) Uani 1 1 d G . .
H43A H 0.7479 0.0475 0.2645 0.077 Uiso 1 1 calc R . .
C44 C 0.69697(15) 0.03603(12) 0.29785(9) 0.0790(19) Uani 1 1 d G . .
H44A H 0.7140 0.0350 0.3183 0.095 Uiso 1 1 calc R . .
C45 C 0.65157(15) 0.03015(12) 0.29953(9) 0.0817(19) Uani 1 1 d G . .
H45A H 0.6379 0.0251 0.3212 0.098 Uiso 1 1 calc R . .
C46 C 0.62643(11) 0.03180(11) 0.26905(11) 0.0744(18) Uani 1 1 d G . .
H46A H 0.5958 0.0278 0.2702 0.089 Uiso 1 1 calc R . .
C47 C 0.67336(11) 0.03597(12) 0.01333(9) 0.0476(13) Uani 1 1 d G . .
C48 C 0.66736(11) 0.08149(12) 0.01444(9) 0.0522(14) Uani 1 1 d G . .
C49 C 0.66877(11) 0.10606(11) -0.01630(11) 0.0743(17) Uani 1 1 d G . .
H49A H 0.6647 0.1367 -0.0155 0.089 Uiso 1 1 calc R . .
C50 C 0.67618(12) 0.08510(15) -0.04818(9) 0.0792(19) Uani 1 1 d G . .
H50A H 0.6771 0.1017 -0.0689 0.095 Uiso 1 1 calc R . .
C51 C 0.68219(12) 0.03959(15) -0.04929(9) 0.0786(18) Uani 1 1 d G . .
H51A H 0.6872 0.0255 -0.0708 0.094 Uiso 1 1 calc R . .
C52 C 0.68078(11) 0.01502(11) -0.01855(11) 0.0655(16) Uani 1 1 d G . .
H52A H 0.6848 -0.0157 -0.0193 0.079 Uiso 1 1 calc R . .
N1 N 0.74304(14) 0.11649(13) 0.14445(10) 0.0541(12) Uani 1 1 d . . .
N2 N 0.70617(14) 0.11310(13) 0.12575(10) 0.0481(11) Uani 1 1 d . . .
N3 N 0.58439(14) -0.00890(14) 0.14624(11) 0.0562(12) Uani 1 1 d . . .
N4 N 0.69881(14) 0.14995(14) 0.10667(10) 0.0579(12) Uani 1 1 d . . .
N5 N 0.61903(13) -0.00376(13) 0.12475(11) 0.0469(11) Uani 1 1 d . . .
N6 N 0.62357(14) -0.03888(14) 0.10390(11) 0.0623(13) Uani 1 1 d . . .
N7 N 0.56911(15) 0.09068(14) 0.14828(12) 0.0669(14) Uani 1 1 d . . .
N8 N 0.60353(14) 0.09836(13) 0.12777(11) 0.0527(12) Uani 1 1 d . . .
N9 N 0.59743(15) 0.13327(14) 0.10692(12) 0.0664(13) Uani 1 1 d . . .
N10 N 0.72447(14) -0.02628(14) 0.10328(10) 0.0525(12) Uani 1 1 d . . .
N11 N 0.72263(13) 0.01058(13) 0.12306(10) 0.0463(11) Uani 1 1 d . . .
N12 N 0.75947(14) 0.01630(14) 0.14162(10) 0.0561(12) Uani 1 1 d . . .
N13 N 0.63049(13) 0.04284(13) 0.20381(10) 0.0527(11) Uani 1 1 d . . .
N14 N 0.66562(13) 0.05042(12) 0.18270(10) 0.0446(11) Uani 1 1 d . . .
N15 N 0.70280(13) 0.05193(13) 0.20125(10) 0.0488(11) Uani 1 1 d . . .
N16 N 0.67037(13) 0.02107(12) 0.04692(10) 0.0478(11) Uani 1 1 d . . .
N17 N 0.66326(12) 0.05602(13) 0.06752(10) 0.0444(11) Uani 1 1 d . . .
N18 N 0.66065(13) 0.09292(13) 0.04841(10) 0.0495(11) Uani 1 1 d . . .
O1 O 0.6295(2) 0.23240(16) 0.07832(14) 0.139(2) Uani 1 1 d . . .
O2 O 0.65922(18) 0.19615(14) 0.03479(12) 0.1154(18) Uani 1 1 d . . .
O3 O 0.6559(3) 0.42652(15) -0.02215(14) 0.191(4) Uani 1 1 d . . .
O4 O 0.6852(2) 0.38984(19) -0.06192(18) 0.157(3) Uani 1 1 d . . .
O5 O 0.50649(17) 0.02320(17) 0.19530(16) 0.138(2) Uani 1 1 d . . .
O6 O 0.53674(16) 0.0681(2) 0.23087(14) 0.162(3) Uani 1 1 d . . .
O7 O 0.30501(14) 0.04391(17) 0.28413(11) 0.1083(17) Uani 1 1 d . . .
O8 O 0.33645(15) 0.08106(18) 0.32446(14) 0.1234(19) Uani 1 1 d . . .
O9 O 0.75933(17) 0.12894(16) 0.21995(14) 0.159(2) Uani 1 1 d D . .
O10 O 0.5818(2) 0.1469(2) 0.03412(18) 0.238(3) Uani 1 1 d D . .

loop_
_atom_site_aniso_label
_atom_site_aniso_U_11
_atom_site_aniso_U_22
_atom_site_aniso_U_33
_atom_site_aniso_U_23
_atom_site_aniso_U_13
_atom_site_aniso_U_12
Zn1 0.0476(4) 0.0430(4) 0.0373(3) 0.0003(3) 0.0001(3) -0.0006(4)
Zn2 0.0845(5) 0.0406(4) 0.0477(4) -0.0035(3) 0.0030(4) 0.0037(3)
Zn3 0.0449(4) 0.0760(5) 0.0589(4) -0.0032(4) 0.0099(3) -0.0078(4)
Zn4 0.1025(6) 0.0407(4) 0.0601(5) 0.0087(3) 0.0079(4) 0.0070(4)
Zn5 0.0449(4) 0.1052(6) 0.0570(5) 0.0190(4) -0.0059(3) -0.0107(4)
C1 0.112(5) 0.046(4) 0.079(5) 0.019(4) -0.005(4) -0.005(4)
C2 0.235(9) 0.044(4) 0.092(6) 0.014(4) 0.055(6) 0.018(5)
C3 0.205(8) 0.066(5) 0.102(6) 0.026(5) 0.058(6) 0.029(5)
C4 0.105(5) 0.055(4) 0.090(5) 0.032(4) -0.018(4) -0.004(4)
C5 0.289(11) 0.050(5) 0.072(5) -0.002(4) -0.021(6) 0.000(6)
C6 0.229(9) 0.062(5) 0.074(5) 0.004(4) 0.003(5) -0.009(6)
C7 0.134(7) 0.061(5) 0.084(6) 0.023(5) -0.027(5) -0.014(5)
C8 0.126(7) 0.076(6) 0.101(7) 0.039(6) -0.043(6) -0.002(5)
C9 0.037(4) 0.111(5) 0.089(5) 0.009(4) 0.021(4) 0.007(4)
C10 0.059(5) 0.259(10) 0.087(6) -0.021(6) 0.015(4) -0.039(6)
C11 0.062(5) 0.270(10) 0.065(5) -0.039(5) 0.021(4) -0.033(6)
C12 0.045(4) 0.111(5) 0.062(4) 0.012(4) 0.012(3) -0.003(4)
C13 0.065(5) 0.169(7) 0.093(6) -0.025(5) 0.032(4) -0.040(5)
C14 0.090(5) 0.158(7) 0.087(5) -0.040(5) 0.045(5) -0.041(5)
C15 0.076(6) 0.120(7) 0.099(7) 0.032(5) 0.039(5) 0.011(5)
C16 0.059(5) 0.111(6) 0.071(5) 0.021(4) 0.020(4) 0.008(4)
C17 0.083(5) 0.054(4) 0.075(5) -0.009(3) 0.011(4) -0.026(4)
C18 0.065(4) 0.076(5) 0.077(5) -0.016(4) -0.003(4) -0.026(4)
C19 0.088(5) 0.109(6) 0.124(6) 0.017(5) -0.016(5) -0.037(5)
C20 0.141(8) 0.105(7) 0.193(10) 0.031(6) -0.044(7) -0.076(6)
C21 0.154(9) 0.099(6) 0.199(10) 0.010(6) -0.010(7) -0.089(6)
C22 0.130(7) 0.050(4) 0.133(7) 0.011(4) -0.002(5) -0.019(4)
C23 0.066(5) 0.082(5) 0.083(5) -0.009(4) 0.013(4) -0.028(4)
C24 0.082(5) 0.071(5) 0.078(5) -0.021(4) 0.009(4) -0.032(4)
C25 0.171(8) 0.118(7) 0.120(7) -0.039(5) 0.063(6) -0.076(6)
C26 0.268(13) 0.130(8) 0.210(11) -0.085(7) 0.121(9) -0.129(8)
C27 0.181(9) 0.142(8) 0.214(10) -0.082(7) 0.082(8) -0.121(7)
C28 0.121(6) 0.127(6) 0.104(6) -0.021(5) 0.040(5) -0.064(5)
C29 0.064(5) 0.063(5) 0.151(7) 0.011(4) 0.004(5) 0.033(4)
C30 0.067(5) 0.076(5) 0.156(8) 0.008(5) 0.035(5) 0.009(4)
C31 0.085(6) 0.127(7) 0.229(10) 0.041(7) 0.065(6) 0.028(5)
C32 0.146(9) 0.130(9) 0.42(2) 0.077(10) 0.086(11) 0.066(8)
C33 0.117(8) 0.116(8) 0.340(16) 0.074(8) 0.008(9) 0.050(7)
C34 0.109(7) 0.104(7) 0.267(12) 0.061(7) 0.026(7) 0.037(6)
C35 0.056(4) 0.090(5) 0.056(4) 0.010(4) -0.001(3) 0.025(4)
C36 0.068(4) 0.064(4) 0.054(4) 0.004(3) 0.007(3) 0.027(4)
C37 0.124(6) 0.090(5) 0.078(5) -0.004(4) 0.003(5) 0.052(5)
C38 0.121(7) 0.132(7) 0.146(8) -0.010(6) -0.017(6) 0.076(6)
C39 0.102(6) 0.186(10) 0.133(8) -0.027(7) -0.038(6) 0.074(6)
C40 0.090(6) 0.137(7) 0.087(6) -0.022(5) -0.007(4) 0.035(5)
C41 0.073(4) 0.056(3) 0.029(3) -0.002(3) 0.007(3) -0.005(3)
C42 0.053(4) 0.055(3) 0.039(4) 0.001(3) 0.003(3) 0.000(3)
C43 0.067(4) 0.075(4) 0.051(4) 0.003(3) -0.005(3) 0.003(3)
C44 0.091(5) 0.102(5) 0.044(4) 0.011(3) -0.009(4) 0.011(4)
C45 0.112(6) 0.097(5) 0.036(4) 0.008(3) 0.013(4) 0.006(4)
C46 0.073(4) 0.085(4) 0.065(4) 0.004(4) 0.024(4) -0.005(3)
C47 0.060(4) 0.045(3) 0.038(3) -0.002(3) -0.005(3) -0.009(3)
C48 0.054(3) 0.062(4) 0.041(4) 0.008(3) -0.006(3) -0.009(3)
C49 0.085(4) 0.076(