####################################################################### 
# 
# This file contains crystal structure data downloaded from the 
# Cambridge Structural Database (CSD) hosted by the Cambridge 
# Crystallographic Data Centre (CCDC).
# 
# Full information about CCDC data access policies and citation 
# guidelines are available at http://www.ccdc.cam.ac.uk/access/V1 
# 
# Audit and citation data items may have been added by the CCDC. 
# Please retain this information to preserve the provenance of 
# this file and to allow appropriate attribution of the data. 
# 
#######################################################################

data_www3
_audit_block_doi                 10.5517/ccs04kg
_database_code_depnum_ccdc_archive 'CCDC 715125'
loop_
_citation_id
_citation_doi
_citation_year
1 10.1002/anie.200902274 2009
_audit_update_record             
;
2009-01-03 deposited with the CCDC.	2024-07-11 downloaded from the CCDC.
;

_audit_creation_method           SHELXL-97
_chemical_name_systematic        
;
?
;
_chemical_name_common            ?
_chemical_melting_point          ?
_chemical_formula_moiety         ?
_chemical_formula_sum            'C80 H101 N27 O17 Zn5'
_chemical_formula_weight         2039.73

loop_
_atom_type_symbol
_atom_type_description
_atom_type_scat_dispersion_real
_atom_type_scat_dispersion_imag
_atom_type_scat_source
C C 0.0033 0.0016 'International Tables Vol C Tables 4.2.6.8 and 6.1.1.4'
H H 0.0000 0.0000 'International Tables Vol C Tables 4.2.6.8 and 6.1.1.4'
N N 0.0061 0.0033 'International Tables Vol C Tables 4.2.6.8 and 6.1.1.4'
O O 0.0106 0.0060 'International Tables Vol C Tables 4.2.6.8 and 6.1.1.4'
Zn Zn 0.2839 1.4301 'International Tables Vol C Tables 4.2.6.8 and 6.1.1.4'

_symmetry_cell_setting           tetrahedral
_symmetry_space_group_name_H-M   I4(1)/a

loop_
_symmetry_equiv_pos_as_xyz
'x, y, z'
'-x, -y+1/2, z'
'-y+3/4, x+1/4, z+1/4'
'y+1/4, -x+1/4, z+1/4'
'x+1/2, y+1/2, z+1/2'
'-x+1/2, -y+1, z+1/2'
'-y+5/4, x+3/4, z+3/4'
'y+3/4, -x+3/4, z+3/4'
'-x, -y, -z'
'x, y-1/2, -z'
'y-3/4, -x-1/4, -z-1/4'
'-y-1/4, x-1/4, -z-1/4'
'-x+1/2, -y+1/2, -z+1/2'
'x+1/2, y, -z+1/2'
'y-1/4, -x+1/4, -z+1/4'
'-y+1/4, x+1/4, -z+1/4'

_cell_length_a                   30.048(5)
_cell_length_b                   30.048(5)
_cell_length_c                   37.908(5)
_cell_angle_alpha                90.000(5)
_cell_angle_beta                 90.000(5)
_cell_angle_gamma                90.000(5)
_cell_volume                     34226(9)
_cell_formula_units_Z            16
_cell_measurement_temperature    298(2)
_cell_measurement_reflns_used    86045
_cell_measurement_theta_min      0.86
_cell_measurement_theta_max      24.97

_exptl_crystal_description       block
_exptl_crystal_colour            colorless
_exptl_crystal_size_max          0.22
_exptl_crystal_size_mid          0.20
_exptl_crystal_size_min          0.20
_exptl_crystal_density_meas      ?
_exptl_crystal_density_diffrn    1.583
_exptl_crystal_density_method    'not measured'
_exptl_crystal_F_000             16896
_exptl_absorpt_coefficient_mu    1.466
_exptl_absorpt_correction_type   multi-scan
_exptl_absorpt_correction_T_min  0.732
_exptl_absorpt_correction_T_max  0.745
_exptl_absorpt_process_details   'SADABS (Sheldrick, 1996)'

_exptl_special_details           
;
?
;

_diffrn_ambient_temperature      298(2)
_diffrn_radiation_wavelength     0.71069
_diffrn_radiation_type           MoK\a
_diffrn_radiation_source         'fine-focus sealed tube'
_diffrn_radiation_monochromator  graphite
_diffrn_measurement_device_type  'Bruker APEX CCD area-detector'
_diffrn_measurement_method       '\w scans'
_diffrn_detector_area_resol_mean ?
_diffrn_standards_number         ?
_diffrn_standards_interval_count ?
_diffrn_standards_interval_time  ?
_diffrn_standards_decay_%        ?
_diffrn_reflns_number            86045
_diffrn_reflns_av_R_equivalents  0.1662
_diffrn_reflns_av_sigmaI/netI    0.2005
_diffrn_reflns_limit_h_min       -35
_diffrn_reflns_limit_h_max       29
_diffrn_reflns_limit_k_min       -35
_diffrn_reflns_limit_k_max       35
_diffrn_reflns_limit_l_min       -44
_diffrn_reflns_limit_l_max       35
_diffrn_reflns_theta_min         0.86
_diffrn_reflns_theta_max         24.97
_reflns_number_total             14918
_reflns_number_gt                4479
_reflns_threshold_expression     >2sigma(I)

_computing_data_collection       'SMART (Bruker, 1997)'
_computing_cell_refinement       'SAINT (Bruker, 1999)'
_computing_data_reduction        SAINT
_computing_structure_solution    'SHELXS-97 (Sheldrick, 1997)'
_computing_structure_refinement  'SHELXL-97 (Sheldrick, 1997)'
_computing_molecular_graphics    'SHELXTL-PLUS (Sheldrick, 1990)'
_computing_publication_material  SHELXL-97

_refine_special_details          
;
Refinement of F^2^ against ALL reflections. The weighted R-factor wR and
goodness of fit S are based on F^2^, conventional R-factors R are based
on F, with F set to zero for negative F^2^. The threshold expression of
F^2^ > 2sigma(F^2^) is used only for calculating R-factors(gt) etc. and is
not relevant to the choice of reflections for refinement. R-factors based
on F^2^ are statistically about twice as large as those based on F, and R-
factors based on ALL data will be even larger.
;

_refine_ls_structure_factor_coef Fsqd
_refine_ls_matrix_type           full
_refine_ls_weighting_scheme      calc
_refine_ls_weighting_details     
'calc w=1/[\s^2^(Fo^2^)+(0.0109P)^2^+0.0000P] where P=(Fo^2^+2Fc^2^)/3'
_atom_sites_solution_primary     direct
_atom_sites_solution_secondary   difmap
_atom_sites_solution_hydrogens   geom
_refine_ls_hydrogen_treatment    constr
_refine_ls_extinction_method     SHELXL
_refine_ls_extinction_coef       0.0000071(6)
_refine_ls_extinction_expression Fc^*^=kFc[1+0.001xFc^2^\l^3^/sin(2\q)]^-1/4^
_refine_ls_number_reflns         14918
_refine_ls_number_parameters     697
_refine_ls_number_restraints     21
_refine_ls_R_factor_all          0.1938
_refine_ls_R_factor_gt           0.0595
_refine_ls_wR_factor_ref         0.1177
_refine_ls_wR_factor_gt          0.1086
_refine_ls_goodness_of_fit_ref   1.086
_refine_ls_restrained_S_all      1.158
_refine_ls_shift/su_max          0.001
_refine_ls_shift/su_mean         0.000

loop_
_atom_site_label
_atom_site_type_symbol
_atom_site_fract_x
_atom_site_fract_y
_atom_site_fract_z
_atom_site_U_iso_or_equiv
_atom_site_adp_type
_atom_site_occupancy
_atom_site_symmetry_multiplicity
_atom_site_calc_flag
_atom_site_refinement_flags
_atom_site_disorder_assembly
_atom_site_disorder_group
Zn1 Zn 0.30861(3) 0.08589(3) 0.62523(4) 0.0419(3) Uani 1 1 d . . .
Zn2 Zn 0.29210(4) 0.18012(4) 0.56836(4) 0.0565(4) Uani 1 1 d . . .
Zn3 Zn 0.40330(4) 0.10827(4) 0.68159(4) 0.0627(4) Uani 1 1 d D . .
Zn4 Zn 0.21167(3) 0.07288(4) 0.67940(4) 0.0531(4) Uani 1 1 d . . .
Zn5 Zn 0.32794(4) -0.01246(4) 0.57090(4) 0.0604(4) Uani 1 1 d D . .
C1 C 0.3154(3) 0.3652(2) 0.4730(2) 0.067(4) Uani 1 1 d G . .
C2 C 0.3382(3) 0.3289(3) 0.4606(2) 0.102(5) Uani 1 1 d GD . .
C3 C 0.3347(3) 0.2887(3) 0.4776(3) 0.111(6) Uani 1 1 d G . .
H3A H 0.3501 0.2641 0.4691 0.134 Uiso 1 1 calc R . .
C4 C 0.3085(3) 0.2849(2) 0.5070(2) 0.074(4) Uani 1 1 d G . .
C5 C 0.2857(2) 0.3212(3) 0.5195(2) 0.122(6) Uani 1 1 d G . .
H5A H 0.2680 0.3186 0.5394 0.147 Uiso 1 1 calc R . .
C6 C 0.2892(2) 0.3614(3) 0.5025(2) 0.097(5) Uani 1 1 d G . .
H6A H 0.2738 0.3860 0.5109 0.116 Uiso 1 1 calc R . .
C7 C 0.3033(5) 0.2432(5) 0.5259(4) 0.095(5) Uani 1 1 d . . .
C8 C 0.3195(4) 0.4114(4) 0.4534(4) 0.074(4) Uani 1 1 d . . .
C9 C 0.5276(3) 0.1029(3) 0.7239(2) 0.078(4) Uani 1 1 d G . .
C10 C 0.5682(4) 0.1168(3) 0.7114(2) 0.107(6) Uani 1 1 d G . .
C11 C 0.6058(3) 0.1108(3) 0.7314(3) 0.101(5) Uani 1 1 d G . .
H11A H 0.6333 0.1202 0.7229 0.121 Uiso 1 1 calc R . .
C12 C 0.6029(3) 0.0908(3) 0.7639(3) 0.072(4) Uani 1 1 d G . .
C13 C 0.5624(3) 0.0769(2) 0.7764(2) 0.093(4) Uani 1 1 d G . .
H13A H 0.5604 0.0634 0.7984 0.112 Uiso 1 1 calc R . .
C14 C 0.5247(2) 0.0829(2) 0.7564(3) 0.093(4) Uani 1 1 d G . .
H14A H 0.4973 0.0735 0.7649 0.111 Uiso 1 1 calc R . .
C15 C 0.4836(5) 0.1100(5) 0.7036(4) 0.093(6) Uani 1 1 d . . .
C16 C 0.6458(5) 0.0850(6) 0.7801(4) 0.107(6) Uani 1 1 d . . .
C17 C 0.2390(2) -0.0383(3) 0.6159(2) 0.065(4) Uani 1 1 d G . .
C18 C 0.2112(3) -0.0168(2) 0.6390(2) 0.050(3) Uani 1 1 d G . .
C19 C 0.1737(3) -0.0378(3) 0.6513(2) 0.099(5) Uani 1 1 d G . .
H19A H 0.1549 -0.0232 0.6669 0.119 Uiso 1 1 calc R . .
C20 C 0.1641(3) -0.0803(3) 0.6405(3) 0.146(7) Uani 1 1 d G . .
H20A H 0.1387 -0.0945 0.6488 0.176 Uiso 1 1 calc R . .
C21 C 0.1919(4) -0.1018(2) 0.6174(3) 0.144(7) Uani 1 1 d G . .
H21A H 0.1853 -0.1306 0.6100 0.172 Uiso 1 1 calc R . .
C22 C 0.2293(3) -0.0808(3) 0.6051(2) 0.125(6) Uani 1 1 d G . .
H22A H 0.2482 -0.0954 0.5894 0.150 Uiso 1 1 calc R . .
C23 C 0.3724(2) 0.2124(3) 0.6133(2) 0.078(4) Uani 1 1 d G . .
C24 C 0.3989(3) 0.1954(2) 0.6397(3) 0.089(5) Uani 1 1 d G . .
C25 C 0.4337(3) 0.2202(3) 0.6529(2) 0.137(7) Uani 1 1 d G . .
H25A H 0.4515 0.2087 0.6707 0.165 Uiso 1 1 calc R . .
C26 C 0.4420(2) 0.2621(3) 0.6397(3) 0.156(8) Uani 1 1 d G . .
H26A H 0.4654 0.2789 0.6486 0.187 Uiso 1 1 calc R . .
C27 C 0.4155(3) 0.2792(2) 0.6133(3) 0.152(7) Uani 1 1 d G . .
H27A H 0.4211 0.3075 0.6043 0.183 Uiso 1 1 calc R . .
C28 C 0.3807(3) 0.2544(3) 0.6001(2) 0.120(5) Uani 1 1 d G . .
H28A H 0.3628 0.2659 0.5822 0.144 Uiso 1 1 calc R . .
C29 C 0.2876(3) 0.0740(2) 0.7371(2) 0.054(3) Uani 1 1 d G . .
C30 C 0.3331(3) 0.0829(2) 0.73719(19) 0.053(3) Uani 1 1 d G . .
C31 C 0.3568(2) 0.0816(2) 0.7687(3) 0.075(4) Uani 1 1 d G . .
H31A H 0.3872 0.0875 0.7687 0.090 Uiso 1 1 calc R . .
C32 C 0.3352(3) 0.0713(2) 0.8001(2) 0.100(5) Uani 1 1 d G . .
H32A H 0.3511 0.0704 0.8212 0.120 Uiso 1 1 calc R . .
C33 C 0.2897(3) 0.0625(2) 0.8000(2) 0.100(5) Uani 1 1 d G . .
H33A H 0.2752 0.0556 0.8210 0.120 Uiso 1 1 calc R . .
C34 C 0.2659(2) 0.0638(2) 0.7686(3) 0.074(4) Uani 1 1 d G . .
H34A H 0.2355 0.0579 0.7685 0.089 Uiso 1 1 calc R . .
C35 C 0.3002(2) 0.0584(3) 0.51513(17) 0.047(3) Uani 1 1 d G . .
C36 C 0.2923(2) 0.1040(3) 0.51440(19) 0.050(3) Uani 1 1 d G . .
C37 C 0.2832(2) 0.1251(2) 0.4825(2) 0.077(4) Uani 1 1 d G . .
H37A H 0.2779 0.1556 0.4820 0.092 Uiso 1 1 calc R . .
C38 C 0.28219(19) 0.1006(3) 0.45139(19) 0.076(4) Uani 1 1 d G . .
H38A H 0.2762 0.1148 0.4301 0.092 Uiso 1 1 calc R . .
C39 C 0.2901(2) 0.0550(3) 0.45212(18) 0.077(4) Uani 1 1 d GU . .
H39A H 0.2894 0.0387 0.4313 0.093 Uiso 1 1 calc R . .
C40 C 0.29915(19) 0.0339(2) 0.4840(2) 0.066(3) Uani 1 1 d G . .
H40A H 0.3045 0.0034 0.4845 0.079 Uiso 1 1 calc R . .
C41 C 0.4149(2) -0.0101(3) 0.6186(2) 0.058(3) Uani 1 1 d G . .
C42 C 0.4336(3) 0.0175(2) 0.6425(2) 0.064(3) Uani 1 1 d G . .
C43 C 0.4733(3) 0.0071(3) 0.6571(2) 0.085(4) Uani 1 1 d G . .
H43A H 0.4862 0.0261 0.6735 0.102 Uiso 1 1 calc R . .
C44 C 0.4943(2) -0.0309(3) 0.6478(2) 0.128(6) Uani 1 1 d G . .
H44A H 0.5216 -0.0380 0.6578 0.153 Uiso 1 1 calc R . .
C45 C 0.4755(3) -0.0585(2) 0.6239(3) 0.128(6) Uani 1 1 d G . .
H45A H 0.4900 -0.0846 0.6175 0.153 Uiso 1 1 calc R . .
C46 C 0.4359(3) -0.0481(3) 0.6093(2) 0.091(5) Uani 1 1 d G . .
H46A H 0.4230 -0.0671 0.5929 0.109 Uiso 1 1 calc R . .
C47 C 0.1807(3) 0.1563(2) 0.6360(2) 0.067(4) Uani 1 1 d G . .
C48 C 0.2004(2) 0.1819(3) 0.6113(2) 0.068(4) Uani 1 1 d G . .
C49 C 0.1786(3) 0.2172(3) 0.5977(2) 0.106(5) Uani 1 1 d G . .
H49A H 0.1922 0.2348 0.5807 0.127 Uiso 1 1 calc R . .
C50 C 0.1371(3) 0.2269(3) 0.6089(3) 0.152(7) Uani 1 1 d G . .
H50A H 0.1221 0.2513 0.5995 0.182 Uiso 1 1 calc R . .
C51 C 0.1174(2) 0.2014(3) 0.6336(3) 0.152(7) Uani 1 1 d G . .
H51A H 0.0888 0.2081 0.6413 0.182 Uiso 1 1 calc R . .
C52 C 0.1392(3) 0.1660(3) 0.6472(2) 0.107(5) Uani 1 1 d G . .
H52A H 0.1256 0.1484 0.6642 0.128 Uiso 1 1 calc R . .
N1 N 0.2731(2) -0.0099(3) 0.6077(2) 0.047(2) Uani 1 1 d . . .
N2 N 0.2662(2) 0.0261(3) 0.6260(2) 0.044(2) Uani 1 1 d . . .
N3 N 0.2288(3) 0.0228(2) 0.6457(2) 0.048(2) Uani 1 1 d . . .
N4 N 0.3423(3) 0.1818(3) 0.6027(2) 0.060(3) Uani 1 1 d . . .
N5 N 0.3488(2) 0.1473(3) 0.6238(2) 0.049(3) Uani 1 1 d . . .
N6 N 0.3824(3) 0.1543(2) 0.6454(2) 0.055(3) Uani 1 1 d . . .
N7 N 0.2713(3) 0.0776(3) 0.7030(3) 0.058(3) Uani 1 1 d . . .
N8 N 0.3072(3) 0.0868(2) 0.6834(2) 0.053(3) Uani 1 1 d . . .
N9 N 0.3437(2) 0.0896(2) 0.7035(2) 0.041(2) Uani 1 1 d . . .
N10 N 0.3092(2) 0.0481(3) 0.5497(2) 0.052(2) Uani 1 1 d . . .
N11 N 0.3052(2) 0.0862(3) 0.5675(2) 0.040(2) Uani 1 1 d . . .
N12 N 0.2954(3) 0.1203(3) 0.5467(2) 0.053(3) Uani 1 1 d . . .
N13 N 0.3747(3) 0.0066(2) 0.6082(2) 0.050(2) Uani 1 1 d . . .
N14 N 0.3682(2) 0.0449(3) 0.6256(2) 0.043(2) Uani 1 1 d . . .
N15 N 0.4035(2) 0.0534(2) 0.6459(2) 0.048(2) Uani 1 1 d . . .
N16 N 0.2106(3) 0.1249(2) 0.6448(2) 0.056(3) Uani 1 1 d . . .
N17 N 0.2473(2) 0.1314(2) 0.6250(2) 0.047(2) Uani 1 1 d . . .
N18 N 0.2426(3) 0.1663(3) 0.6039(2) 0.056(3) Uani 1 1 d . . .
N19 N 0.3583(5) 0.3256(5) 0.4308(3) 0.307(10) Uani 1 1 d DU . .
H19B H 0.3583 0.3477 0.4164 0.368 Uiso 1 1 calc R . .
H19C H 0.3718 0.3013 0.4253 0.368 Uiso 1 1 calc R . .
N20 N 0.5704(4) 0.1367(5) 0.6833(4) 0.236(8) Uani 1 1 d . . .
H20B H 0.5466 0.1420 0.6715 0.283 Uiso 1 1 calc R . .
H20C H 0.5958 0.1455 0.6755 0.283 Uiso 1 1 calc R . .
O1 O 0.2754(3) 0.2415(3) 0.5518(3) 0.105(4) Uani 1 1 d . . .
O2 O 0.3278(3) 0.2126(3) 0.5216(3) 0.123(4) Uani 1 1 d . . .
O3 O 0.3001(3) 0.4441(2) 0.4666(2) 0.098(3) Uani 1 1 d . . .
O4 O 0.3417(3) 0.4155(3) 0.4257(3) 0.098(3) Uani 1 1 d . . .
O5 O 0.4486(2) 0.0920(3) 0.7181(2) 0.111(3) Uani 1 1 d . . .
O6 O 0.4816(3) 0.1285(3) 0.6747(3) 0.129(4) Uani 1 1 d . . .
O7 O 0.6460(3) 0.0603(3) 0.8077(3) 0.127(5) Uani 1 1 d . . .
O8 O 0.6803(3) 0.1049(4) 0.7740(3) 0.152(5) Uani 1 1 d . . .
O9 O 0.3869(2) -0.0106(2) 0.53363(19) 0.106(3) Uani 1 1 d D . .
O10 O 0.3952(3) 0.1704(3) 0.7190(3) 0.204(5) Uani 1 1 d DU . .

loop_
_atom_site_aniso_label
_atom_site_aniso_U_11
_atom_site_aniso_U_22
_atom_site_aniso_U_33
_atom_site_aniso_U_23
_atom_site_aniso_U_13
_atom_site_aniso_U_12
Zn1 0.0411(8) 0.0458(8) 0.0389(7) 0.0003(6) -0.0026(6) 0.0016(8)
Zn2 0.0670(9) 0.0457(8) 0.0567(11) 0.0117(7) -0.0034(8) 0.0028(7)
Zn3 0.0446(8) 0.0838(10) 0.0597(11) 0.0099(9) -0.0138(8) -0.0076(7)
Zn4 0.0404(8) 0.0726(9) 0.0464(10) -0.0009(8) 0.0040(7) -0.0031(6)
Zn5 0.0839(10) 0.0434(8) 0.0540(11) -0.0060(8) -0.0079(8) 0.0069(7)
C1 0.095(10) 0.047(8) 0.058(10) 0.025(7) -0.027(7) 0.004(7)
C2 0.107(12) 0.087(11) 0.111(16) -0.004(10) 0.035(10) 0.030(9)
C3 0.151(13) 0.099(11) 0.085(13) 0.080(9) 0.007(9) -0.049(9)
C4 0.097(10) 0.031(8) 0.095(13) 0.027(8) -0.024(9) 0.004(7)
C5 0.122(11) 0.117(12) 0.129(15) 0.105(12) 0.023(10) -0.021(10)
C6 0.099(10) 0.136(13) 0.054(11) 0.003(9) 0.045(8) -0.002(9)
C7 0.094(13) 0.091(13) 0.100(16) 0.042(12) -0.018(10) 0.007(10)
C8 0.086(11) 0.062(10) 0.074(13) 0.007(9) -0.027(9) -0.006(8)
C9 0.067(10) 0.117(11) 0.051(11) 0.023(8) -0.032(8) 0.017(8)
C10 0.094(13) 0.139(13) 0.088(16) 0.051(11) 0.008(11) -0.014(11)
C11 0.038(8) 0.182(14) 0.083(13) -0.034(11) -0.031(8) -0.010(8)
C12 0.048(9) 0.103(10) 0.065(11) 0.004(8) -0.016(8) 0.006(7)
C13 0.106(11) 0.105(10) 0.068(11) 0.030(8) -0.040(9) -0.001(9)
C14 0.045(8) 0.147(11) 0.086(13) 0.025(10) -0.024(8) 0.012(7)
C15 0.053(10) 0.116(13) 0.111(16) -0.052(11) -0.043(11) -0.005(9)
C16 0.078(12) 0.148(17) 0.094(16) -0.021(11) -0.043(12) 0.033(12)
C17 0.075(9) 0.051(8) 0.068(11) -0.013(7) -0.006(7) -0.028(7)
C18 0.047(8) 0.067(9) 0.037(8) 0.007(7) 0.008(6) -0.012(7)
C19 0.088(11) 0.107(11) 0.103(13) -0.012(9) 0.024(9) -0.052(8)
C20 0.135(13) 0.119(14) 0.19(2) -0.011(13) 0.066(13) -0.078(12)
C21 0.131(15) 0.118(12) 0.18(2) -0.056(12) 0.044(12) -0.070(11)
C22 0.121(13) 0.089(12) 0.164(18) -0.027(11) 0.028(11) -0.044(9)
C23 0.086(10) 0.043(8) 0.105(13) 0.024(8) -0.014(8) -0.027(8)
C24 0.054(9) 0.057(9) 0.157(16) 0.034(9) -0.043(9) -0.031(7)
C25 0.112(12) 0.072(10) 0.23(2) 0.036(11) -0.035(12) -0.039(9)
C26 0.118(12) 0.112(14) 0.24(2) -0.003(13) -0.101(13) -0.033(11)
C27 0.113(13) 0.111(12) 0.23(2) 0.043(13) -0.066(12) -0.065(10)
C28 0.118(12) 0.086(11) 0.156(16) 0.035(10) -0.053(10) -0.043(9)
C29 0.090(10) 0.042(7) 0.031(9) -0.005(6) -0.014(8) 0.001(6)
C30 0.054(8) 0.075(8) 0.032(9) -0.014(7) -0.006(7) -0.012(6)
C31 0.092(9) 0.106(10) 0.027(9) -0.009(8) -0.012(8) 0.019(7)
C32 0.092(11) 0.106(11) 0.103(15) 0.016(9) -0.021(10) 0.017(9)
C33 0.151(14) 0.102(10) 0.046(11) 0.030(8) 0.006(10) -0.005(10)
C34 0.086(9) 0.085(9) 0.053(10) 0.020(8) 0.022(8) -0.011(7)
C35 0.062(7) 0.054(8) 0.024(8) 0.001(6) 0.009(6) -0.012(6)
C36 0.077(8) 0.044(7) 0.030(8) 0.006(6) -0.009(7) 0.009(6)
C37 0.102(9) 0.074(9) 0.055(10) 0.004(8) -0.011(8) -0.014(7)
C38 0.084(9) 0.076(9) 0.069(11) 0.020(8) -0.016(7) 0.011(7)
C39 0.095(9) 0.121(10) 0.015(8) 0.010(7) -0.003(6) -0.012(8)
C40 0.064(8) 0.066(8) 0.068(11) -0.007(8) -0.002(7) -0.008(6)
C41 0.038(8) 0.079(9) 0.057(9) 0.005(7) -0.012(6) 0.022(7)
C42 0.056(9) 0.072(9) 0.063(10) 0.012(7) -0.011(7) -0.003(7)
C43 0.041(7) 0.084(10) 0.129(13) 0.008(8) -0.050(8) 0.011(7)
C44 0.070(10) 0.123(13) 0.191(19) -0.018(12) -0.057(10) 0.065(9)
C45 0.057(10) 0.135(13) 0.190(19) -0.031(12) -0.052(10) 0.051(9)
C46 0.086(10) 0.058(9) 0.129(14) -0.024(8) -0.006(9) 0.016(7)
C47 0.062(9) 0.074(9) 0.065(11) 0.026(7) 0.016(7) 0.051(8)
C48 0.058(9) 0.076(10) 0.071(12) -0.018(8) -0.012(8) 0.046(8)
C49 0.073(10) 0.111(11) 0.132(15) 0.045(10) -0.002(9) 0.038(8)
C50 0.108(13) 0.200(16) 0.148(18) 0.081(13) 0.056(11) 0.102(12)
C51 0.108(12) 0.219(18) 0.127(17) 0.078(13) 0.051(11) 0.115(12)
C52 0.074(10) 0.131(13) 0.115(14) 0.027(10) 0.035(9) 0.047(9)
N1 0.063(6) 0.045(6) 0.033(6) -0.007(5) -0.006(5) -0.011(5)
N2 0.046(6) 0.055(6) 0.032(6) 0.004(5) 0.010(5) -0.003(5)
N