####################################################################### 
# 
# This file contains crystal structure data downloaded from the 
# Cambridge Structural Database (CSD) hosted by the Cambridge 
# Crystallographic Data Centre (CCDC).
# 
# Full information about CCDC data access policies and citation 
# guidelines are available at http://www.ccdc.cam.ac.uk/access/V1 
# 
# Audit and citation data items may have been added by the CCDC. 
# Please retain this information to preserve the provenance of 
# this file and to allow appropriate attribution of the data. 
# 
#######################################################################

data_z
_audit_block_doi                 10.5517/cc139p36
_database_code_depnum_ccdc_archive 'CCDC 1022197'
loop_
_citation_id
_citation_doi
_citation_year
1 10.1016/j.jssc.2015.03.035 2015
_audit_update_record             
;
2014-09-01 deposited with the CCDC.	2024-07-11 downloaded from the CCDC.
;

_audit_creation_method           SHELXL-97
_chemical_name_systematic        
; 
 ? 
;
_chemical_name_common            ?
_chemical_melting_point          ?
_chemical_formula_moiety         ?
_chemical_formula_sum            'C52 H32 N6 O14 Zn3'
_chemical_formula_weight         1160.95

loop_
_atom_type_symbol
_atom_type_description
_atom_type_scat_dispersion_real
_atom_type_scat_dispersion_imag
_atom_type_scat_source
C C 0.0033 0.0016 'International Tables Vol C Tables 4.2.6.8 and 6.1.1.4'
H H 0.0000 0.0000 'International Tables Vol C Tables 4.2.6.8 and 6.1.1.4'
Zn Zn 0.2839 1.4301 'International Tables Vol C Tables 4.2.6.8 and 6.1.1.4'
N N 0.0061 0.0033 'International Tables Vol C Tables 4.2.6.8 and 6.1.1.4'
O O 0.0106 0.0060 'International Tables Vol C Tables 4.2.6.8 and 6.1.1.4'

_symmetry_cell_setting           trigonal
_symmetry_space_group_name_H-M   P3121

loop_
_symmetry_equiv_pos_as_xyz
'x, y, z'
'-y, x-y, z+1/3'
'-x+y, -x, z+2/3'
'y, x, -z'
'-x, -x+y, -z+1/3'
'x-y, -y, -z+2/3'

_cell_length_a                   13.9538(2)
_cell_length_b                   13.9538(2)
_cell_length_c                   24.9246(7)
_cell_angle_alpha                90.00
_cell_angle_beta                 90.00
_cell_angle_gamma                120.00
_cell_volume                     4202.85(15)
_cell_formula_units_Z            3
_cell_measurement_temperature    296(2)
_cell_measurement_reflns_used    ?
_cell_measurement_theta_min      ?
_cell_measurement_theta_max      ?

_exptl_crystal_description       block
_exptl_crystal_colour            colorless
_exptl_crystal_size_max          0.32
_exptl_crystal_size_mid          0.26
_exptl_crystal_size_min          0.18
_exptl_crystal_density_meas      ?
_exptl_crystal_density_diffrn    1.376
_exptl_crystal_density_method    'not measured'
_exptl_crystal_F_000             1764
_exptl_absorpt_coefficient_mu    1.340
_exptl_absorpt_correction_type   multi-scan
_exptl_absorpt_correction_T_min  0.6738
_exptl_absorpt_correction_T_max  0.7945
_exptl_absorpt_process_details   sadabs

_exptl_special_details           
; 
 ? 
;

_diffrn_ambient_temperature      296(2)
_diffrn_radiation_wavelength     0.71073
_diffrn_radiation_type           MoK\a
_diffrn_radiation_source         'fine-focus sealed tube'
_diffrn_radiation_monochromator  graphite
_diffrn_measurement_device_type  ?
_diffrn_measurement_method       ?
_diffrn_detector_area_resol_mean ?
_diffrn_reflns_number            49042
_diffrn_reflns_av_R_equivalents  0.0475
_diffrn_reflns_av_sigmaI/netI    0.0247
_diffrn_reflns_limit_h_min       -14
_diffrn_reflns_limit_h_max       16
_diffrn_reflns_limit_k_min       -16
_diffrn_reflns_limit_k_max       16
_diffrn_reflns_limit_l_min       -29
_diffrn_reflns_limit_l_max       29
_diffrn_reflns_theta_min         1.69
_diffrn_reflns_theta_max         25.01
_reflns_number_total             4923
_reflns_number_gt                4673
_reflns_threshold_expression     >2sigma(I)

_computing_data_collection       ?
_computing_cell_refinement       ?
_computing_data_reduction        ?
_computing_structure_solution    'SHELXS-97 (Sheldrick, 2008)'
_computing_structure_refinement  'SHELXL-97 (Sheldrick, 2008)'
_computing_molecular_graphics    ?
_computing_publication_material  ?

_refine_special_details          
; 
 Refinement of F^2^ against ALL reflections.  The weighted R-factor wR and 
 goodness of fit S are based on F^2^, conventional R-factors R are based 
 on F, with F set to zero for negative F^2^. The threshold expression of 
 F^2^ > 2sigma(F^2^) is used only for calculating R-factors(gt) etc. and is 
 not relevant to the choice of reflections for refinement.  R-factors based 
 on F^2^ are statistically about twice as large as those based on F, and R- 
 factors based on ALL data will be even larger. 
;

_refine_ls_structure_factor_coef Fsqd
_refine_ls_matrix_type           full
_refine_ls_weighting_scheme      calc
_refine_ls_weighting_details     
'calc w=1/[\s^2^(Fo^2^)+(0.0480P)^2^+2.8061P] where P=(Fo^2^+2Fc^2^)/3'
_atom_sites_solution_primary     direct
_atom_sites_solution_secondary   difmap
_atom_sites_solution_hydrogens   geom
_refine_ls_hydrogen_treatment    constr
_refine_ls_extinction_method     none
_refine_ls_extinction_coef       ?
_refine_ls_abs_structure_details 'Flack H D (1983), Acta Cryst. A39, 876-881'
_refine_ls_abs_structure_Flack   0.017(13)
_refine_ls_number_reflns         4923
_refine_ls_number_parameters     339
_refine_ls_number_restraints     2
_refine_ls_R_factor_all          0.0364
_refine_ls_R_factor_gt           0.0341
_refine_ls_wR_factor_ref         0.0903
_refine_ls_wR_factor_gt          0.0891
_refine_ls_goodness_of_fit_ref   1.053
_refine_ls_restrained_S_all      1.059
_refine_ls_shift/su_max          0.001
_refine_ls_shift/su_mean         0.000

loop_
_atom_site_label
_atom_site_type_symbol
_atom_site_fract_x
_atom_site_fract_y
_atom_site_fract_z
_atom_site_U_iso_or_equiv
_atom_site_adp_type
_atom_site_occupancy
_atom_site_symmetry_multiplicity
_atom_site_calc_flag
_atom_site_refinement_flags
_atom_site_disorder_assembly
_atom_site_disorder_group
Zn1 Zn 1.14997(3) 0.69248(3) 0.046762(15) 0.03645(11) Uani 1 1 d U . .
Zn2 Zn 1.0000 0.70335(5) 0.1667 0.0702(3) Uani 1 2 d S . .
O1 O 1.0029(2) 0.6128(3) 0.10615(16) 0.0743(9) Uani 1 1 d U . .
O2 O 0.9773(2) 0.6060(3) 0.02073(16) 0.0869(12) Uani 1 1 d U . .
O3 O 0.2967(3) 0.6918(3) 0.07393(13) 0.0737(10) Uani 1 1 d . . .
O4 O 0.1610(2) 0.5467(3) 0.03872(14) 0.0636(8) Uani 1 1 d . . .
O5 O 0.1289(2) -0.1504(2) 0.16232(11) 0.0536(7) Uani 1 1 d . . .
O6 O 0.2058(3) -0.1668(2) 0.08817(12) 0.0625(8) Uani 1 1 d . . .
N1 N 0.4748(2) 0.3525(2) 0.10448(12) 0.0433(6) Uani 1 1 d . . .
N2 N 1.2038(2) 0.7683(2) -0.02652(11) 0.0405(7) Uani 1 1 d . . .
N3 N 1.3047(3) 0.9491(3) -0.16937(12) 0.0524(8) Uani 1 1 d . . .
C1 C 0.5896(3) 0.4061(3) 0.09372(14) 0.0372(7) Uani 1 1 d . . .
C2 C 0.6620(3) 0.4039(3) 0.13218(14) 0.0431(8) Uani 1 1 d . . .
H2A H 0.6345 0.3649 0.1640 0.052 Uiso 1 1 calc R . .
C3 C 0.7737(3) 0.4600(3) 0.12235(14) 0.0428(8) Uani 1 1 d . . .
H3A H 0.8218 0.4589 0.1479 0.051 Uiso 1 1 calc R . .
C4 C 0.8157(3) 0.5178(3) 0.07540(15) 0.0445(8) Uani 1 1 d . . .
C5 C 0.7446(3) 0.5179(4) 0.03729(17) 0.0561(10) Uani 1 1 d . . .
H5A H 0.7729 0.5553 0.0051 0.067 Uiso 1 1 calc R . .
C6 C 0.6318(3) 0.4633(3) 0.04600(15) 0.0460(9) Uani 1 1 d . . .
H6A H 0.5845 0.4648 0.0201 0.055 Uiso 1 1 calc R . .
C7 C 0.4179(3) 0.4113(3) 0.09403(13) 0.0378(7) Uani 1 1 d . . .
C8 C 0.4666(3) 0.5217(3) 0.10840(14) 0.0420(8) Uani 1 1 d . . .
H8A H 0.5349 0.5560 0.1256 0.050 Uiso 1 1 calc R . .
C9 C 0.4145(3) 0.5803(3) 0.09734(13) 0.0426(8) Uani 1 1 d . . .
H9A H 0.4483 0.6547 0.1067 0.051 Uiso 1 1 calc R . .
C10 C 0.3120(3) 0.5304(3) 0.07238(13) 0.0397(7) Uani 1 1 d . . .
C11 C 0.2637(3) 0.4194(3) 0.05866(14) 0.0437(8) Uani 1 1 d . . .
H11A H 0.1946 0.3846 0.0422 0.052 Uiso 1 1 calc R . .
C12 C 0.3153(3) 0.3605(3) 0.06875(15) 0.0459(8) Uani 1 1 d . . .
H12A H 0.2821 0.2864 0.0588 0.055 Uiso 1 1 calc R . .
C13 C 0.4153(3) 0.2373(3) 0.11480(13) 0.0377(7) Uani 1 1 d . . .
C14 C 0.3245(3) 0.1942(3) 0.14968(17) 0.0541(10) Uani 1 1 d . . .
H14A H 0.3087 0.2415 0.1691 0.065 Uiso 1 1 calc R . .
C15 C 0.2586(3) 0.0811(3) 0.15507(16) 0.0503(10) Uani 1 1 d . . .
H15A H 0.1982 0.0526 0.1782 0.060 Uiso 1 1 calc R . .
C16 C 0.2809(3) 0.0096(3) 0.12676(14) 0.0403(8) Uani 1 1 d . . .
C17 C 0.3748(3) 0.0530(3) 0.09571(16) 0.0461(9) Uani 1 1 d . . .
H17A H 0.3936 0.0055 0.0785 0.055 Uiso 1 1 calc R . .
C18 C 0.4419(3) 0.1664(3) 0.08970(16) 0.0441(9) Uani 1 1 d . . .
H18A H 0.5051 0.1944 0.0685 0.053 Uiso 1 1 calc R . .
C19 C 0.9378(3) 0.5814(4) 0.0660(2) 0.0608(10) Uani 1 1 d U . .
C20 C 0.2524(4) 0.5928(4) 0.06079(13) 0.0459(9) Uani 1 1 d . . .
C21 C 0.2001(3) -0.1121(3) 0.12560(14) 0.0409(8) Uani 1 1 d . . .
C22 C 1.2923(3) 0.8694(3) -0.02767(15) 0.0554(11) Uani 1 1 d . . .
H22A H 1.3313 0.8977 0.0041 0.066 Uiso 1 1 calc R . .
C23 C 1.3298(3) 0.9348(3) -0.07292(14) 0.0487(10) Uani 1 1 d . . .
H23A H 1.3899 1.0064 -0.0716 0.058 Uiso 1 1 calc R . .
C24 C 1.2751(3) 0.8903(3) -0.11960(14) 0.0433(8) Uani 1 1 d . . .
C25 C 1.1890(3) 0.7825(3) -0.12052(14) 0.0547(10) Uani 1 1 d . . .
H25A H 1.1545 0.7494 -0.1527 0.066 Uiso 1 1 calc R . .
C26 C 1.1552(3) 0.7251(3) -0.07345(15) 0.0522(9) Uani 1 1 d . . .
H26A H 1.0958 0.6530 -0.0741 0.063 Uiso 1 1 calc R . .
O1W O 0.5057(5) 0.8932(5) 0.0813(2) 0.1428(19) Uani 1 1 d . . .

loop_
_atom_site_aniso_label
_atom_site_aniso_U_11
_atom_site_aniso_U_22
_atom_site_aniso_U_33
_atom_site_aniso_U_23
_atom_site_aniso_U_13
_atom_site_aniso_U_12
Zn1 0.0315(2) 0.0304(2) 0.04485(19) 0.00747(16) 0.01014(16) 0.01351(16)
Zn2 0.0316(3) 0.0388(3) 0.1377(7) 0.01300(19) 0.0260(4) 0.01581(17)
O1 0.0286(13) 0.0487(17) 0.141(3) -0.0137(18) -0.0081(15) 0.0157(13)
O2 0.0252(10) 0.102(3) 0.121(3) 0.056(2) 0.0219(13) 0.0229(15)
O3 0.107(3) 0.072(2) 0.0707(19) -0.0278(16) -0.0360(18) 0.065(2)
O4 0.0402(16) 0.0499(17) 0.102(2) 0.0246(16) 0.0108(16) 0.0237(13)
O5 0.0442(15) 0.0336(14) 0.0701(17) 0.0014(12) 0.0151(13) 0.0098(12)
O6 0.070(2) 0.0322(14) 0.0703(17) -0.0076(12) 0.0273(16) 0.0143(14)
N1 0.0280(14) 0.0312(14) 0.0703(17) 0.0052(13) 0.0081(13) 0.0145(12)
N2 0.0323(15) 0.0366(15) 0.0437(15) 0.0110(12) 0.0029(12) 0.0104(13)
N3 0.057(2) 0.0438(16) 0.0422(14) 0.0081(14) 0.0025(14) 0.0150(15)
C1 0.0289(16) 0.0263(16) 0.0532(18) 0.0002(14) 0.0055(14) 0.0115(14)
C2 0.0364(18) 0.045(2) 0.0494(18) 0.0132(17) 0.0086(15) 0.0212(17)
C3 0.0355(18) 0.042(2) 0.0509(18) 0.0052(17) -0.0040(15) 0.0198(17)
C4 0.0278(17) 0.0375(19) 0.063(2) 0.0045(16) 0.0046(15) 0.0126(15)
C5 0.042(2) 0.063(3) 0.057(2) 0.016(2) 0.0148(18) 0.022(2)
C6 0.0338(18) 0.058(2) 0.0467(18) 0.0042(17) 0.0008(15) 0.0231(18)
C7 0.0320(17) 0.0324(17) 0.0473(18) 0.0015(14) 0.0091(14) 0.0148(14)
C8 0.0384(19) 0.0366(19) 0.0518(19) -0.0052(15) -0.0022(15) 0.0195(16)
C9 0.048(2) 0.0380(18) 0.0443(18) -0.0034(14) 0.0024(16) 0.0233(17)
C10 0.0415(19) 0.047(2) 0.0375(16) 0.0061(15) 0.0091(15) 0.0273(16)
C11 0.0318(18) 0.041(2) 0.0560(19) 0.0054(16) 0.0019(15) 0.0166(16)
C12 0.0344(19) 0.0322(18) 0.066(2) 0.0018(16) 0.0033(16) 0.0130(15)
C13 0.0297(18) 0.0287(17) 0.0535(19) 0.0031(14) 0.0018(15) 0.0137(15)
C14 0.048(2) 0.037(2) 0.073(3) 0.0022(19) 0.027(2) 0.0184(18)
C15 0.047(2) 0.0334(19) 0.060(2) 0.0047(16) 0.0245(18) 0.0124(17)
C16 0.0378(19) 0.0317(18) 0.0514(19) 0.0072(14) 0.0042(15) 0.0172(15)
C17 0.037(2) 0.0321(19) 0.069(2) -0.0038(16) 0.0093(17) 0.0175(17)
C18 0.0249(17) 0.0352(19) 0.066(2) 0.0016(16) 0.0117(16) 0.0103(15)
C19 0.0312(19) 0.045(2) 0.106(3) 0.026(2) 0.0148(16) 0.0185(18)
C20 0.059(3) 0.054(2) 0.0350(16) 0.0079(17) 0.0115(17) 0.035(2)
C21 0.0321(17) 0.0352(19) 0.0538(19) 0.0101(16) 0.0078(15) 0.0157(16)
C22 0.046(2) 0.050(2) 0.0425(19) 0.0101(17) -0.0059(17) 0.0039(19)
C23 0.043(2) 0.039(2) 0.0452(19) 0.0086(15) -0.0030(16) 0.0071(17)
C24 0.042(2) 0.040(2) 0.0409(17) 0.0081(15) 0.0080(15) 0.0155(17)
C25 0.052(2) 0.048(2) 0.0402(18) -0.0052(16) 0.0029(17) 0.008(2)
C26 0.043(2) 0.037(2) 0.056(2) 0.0049(16) 0.0140(17) 0.0050(18)
O1W 0.132(5) 0.108(4) 0.175(5) -0.038(4) -0.013(4) 0.050(4)

_geom_special_details            
; 
 All esds (except the esd in the dihedral angle between two l.s. planes) 
 are estimated using the full covariance matrix.  The cell esds are taken 
 into account individually in the estimation of esds in distances, angles 
 and torsion angles; correlations between esds in cell parameters are only 
 used when they are defined by crystal symmetry.  An approximate (isotropic) 
 treatment of cell esds is used for estimating esds involving l.s. planes. 
;

loop_
_geom_bond_atom_site_label_1
_geom_bond_atom_site_label_2
_geom_bond_distance
_geom_bond_site_symmetry_2
_geom_bond_publ_flag
Zn1 O6 1.999(3) 1_665 ?
Zn1 N2 2.056(3) . ?
Zn1 O4 2.124(3) 1_655 ?
Zn1 O3 2.161(3) 1_655 ?
Zn1 O2 2.185(3) . ?
Zn1 O1 2.315(3) . ?
Zn1 C20 2.467(4) 1_655 ?
Zn2 O5 1.934(2) 5_665 ?
Zn2 O5 1.934(3) 1_665 ?
Zn2 O1 1.981(4) 5_765 ?
Zn2 O1 1.981(4) . ?
O1 C19 1.272(6) . ?
O2 C19 1.228(6) . ?
O3 C20 1.242(5) . ?
O3 Zn1 2.161(3) 1_455 ?
O4 C20 1.234(5) . ?
O4 Zn1 2.125(3) 1_455 ?
O5 C21 1.257(4) . ?
O5 Zn2 1.934(2) 1_445 ?
O6 C21 1.233(4) . ?
O6 Zn1 1.999(3) 1_445 ?
N1 C1 1.414(4) . ?
N1 C13 1.416(4) . ?
N1 C7 1.421(4) . ?
N2 C22 1.331(5) . ?
N2 C26 1.335(5) . ?
N3 N3 1.237(6) 6_674 ?
N3 C24 1.430(4) . ?
C1 C6 1.389(5) . ?
C1 C2 1.404(5) . ?
C2 C3 1.372(5) . ?
C2 H2A 0.9300 . ?
C3 C4 1.375(5) . ?
C3 H3A 0.9300 . ?
C4 C5 1.375(6) . ?
C4 C19 1.494(5) . ?
C5 C6 1.381(5) . ?
C5 H5A 0.9300 . ?
C6 H6A 0.9300 . ?
C7 C8 1.384(5) . ?
C7 C12 1.391(5) . ?
C8 C9 1.368(5) . ?
C8 H8A 0.9300 . ?
C9 C10 1.386(5) . ?
C9 H9A 0.9300 . ?
C10 C11 1.388(5) . ?
C10 C20 1.503(5) . ?
C11 C12 1.360(5) . ?
C11 H11A 0.9300 . ?
C12 H12A 0.9300 . ?
C13 C18 1.369(5) . ?
C13 C14 1.400(5) . ?
C14 C15 1.379(5) . ?
C14 H14A 0.9300 . ?
C15 C16 1.378(5) . ?
C15 H15A 0.9300 . ?
C16 C17 1.375(5) . ?
C16 C21 1.497(5) . ?
C17 C18 1.387(5) . ?
C17 H17A 0.9300 . ?
C18 H18A 0.9300 . ?
C20 Zn1 2.467(4) 1_455 ?
C22 C23 1.379(5) . ?
C22 H22A 0.9300 . ?
C23 C24 1.359(5) . ?
C23 H23A 0.9300 . ?
C24 C25 1.378(5) . ?
C25 C26 1.365(5) . ?
C25 H25A 0.9300 . ?
C26 H26A 0.9300 . ?

loop_
_geom_angle_atom_site_label_1
_geom_angle_atom_site_label_2
_geom_angle_atom_site_label_3
_geom_angle
_geom_angle_site_symmetry_1
_geom_angle_site_symmetry_3
_geom_angle_publ_flag
O6 Zn1 N2 95.18(12) 1_665 . ?
O6 Zn1 O4 144.06(14) 1_665 1_655 ?
N2 Zn1 O4 103.09(12) . 1_655 ?
O6 Zn1 O3 86.43(13) 1_665 1_655 ?
N2 Zn1 O3 100.22(13) . 1_655 ?
O4 Zn1 O3 60.20(12) 1_655 1_655 ?
O6 Zn1 O2 118.46(15) 1_665 . ?
N2 Zn1 O2 92.22(12) . . ?
O4 Zn1 O2 91.76(14) 1_655 . ?
O3 Zn1 O2 151.16(14) 1_655 . ?
O6 Zn1 O1 87.61(11) 1_665 . ?
N2 Zn1 O1 145.45(12) . . ?
O4 Zn1 O1 94.10(11) 1_655 . ?
O3 Zn1 O1 114.33(13) 1_655 . ?
O2 Zn1 O1 57.09(13) . . ?
O6 Zn1 C20 115.42(15) 1_665 1_655 ?
N2 Zn1 C20 104.51(12) . 1_655 ?
O4 Zn1 C20 30.01(13) 1_655 1_655 ?
O3 Zn1 C20 30.22(13) 1_655 1_655 ?
O2 Zn1 C20 121.35(15) . 1_655 ?
O1 Zn1 C20 105.25(12) . 1_655 ?
O5 Zn2 O5 107.61(18) 5_665 1_665 ?
O5 Zn2 O1 109.02(12) 5_665 5_765 ?
O5 Zn2 O1 116.07(12) 1_665 5_765 ?
O5 Zn2 O1 116.07(12) 5_665 . ?
O5 Zn2 O1 109.02(12) 1_665 . ?
O1 Zn2 O1 99.2(2) 5_765 . ?
C19 O1 Zn2 125.4(3) . . ?
C19 O1 Zn1 88.4(3) . . ?
Zn2 O1 Zn1 118.45(13) . . ?
C19 O2 Zn1 95.6(3) . . ?
C20 O3 Zn1 88.6(3) . 1_455 ?
C20 O4 Zn1 90.5(2) . 1_455 ?
C21 O5 Zn2 127.6(2) . 1_445 ?
C21 O6 Zn1 152.2(3) . 1_445 ?
C1 N1 C13 120.0(3) . . ?
C1 N1 C7 118.2(3) . . ?
C13 N1 C7 120.6(3) . . ?
C22 N2 C26 116.9(3) . . ?
C22 N2 Zn1 118.1(2) . . ?
C26 N2 Zn1 125.0(2) . . ?
N3 N3 C24 113.6(4) 6_674 . ?
C6 C1 C2 119.7(3) . . ?
C6 C1 N1 120.6(3) . . ?
C2 C1 N1 119.8(3) . . ?
C3 C2 C1 119.4(3) . . ?
C3 C2 H2A 120.3 . . ?
C1 C2 H2A 120.3 . . ?
C2 C3 C4 121.1(3) . . ?
C2 C3 H3A 119.5 . . ?
C4 C3 H3A 119.5 . . ?
C5 C4 C3 119.5(3) . . ?
C5 C4 C19 120.1(3) . . ?
C3 C4 C19 120.4(3) . . ?
C4 C5 C6 121.0(4) . . ?
C4 C5 H5A 119.5 . . ?
C6 C5 H5A 119.5 . . ?
C5 C6 C1 119.4(3) . . ?
C5 C6 H6A 120.3 . . ?
C1 C6 H6A 120.3 . . ?
C8 C7 C12 119.5(3) . . ?
C8 C7 N1 119.3(3) . . ?
C12 C7 N1 121.2(3) . . ?
C9 C8 C7 120.1(3) . . ?
C9 C8 H8A 120.0 . . ?
C7 C8 H8A 120.0 . . ?
C8 C9 C10 120.9(3) . . ?
C8 C9 H9A 119.5 . . ?
C10 C9 H9A 119.5 . . ?
C9 C10 C11 118.3(3) . . ?
C9 C10 C20 121.7(3) . . ?
C11 C10 C20 119.9(3) . . ?
C12 C11 C10 121.4(3) . . ?
C12 C11 H11A 119.3 . . ?
C10 C11 H11A 119.3 . . ?
C11 C12 C7 119.8(3) . . ?
C11 C12 H12A 120.1 . . ?
C7 C12 H12A 120.1 . . ?
C18 C13 C14 119.1(3) . . ?
C18 C13 N1 121.4(3) . . ?
C14 C13 N1 119.5(3) . . ?
C15 C14 C13 119.7(3) . . ?
C15 C14 H14A 120.2 . . ?
C13 C14 H14A 120.2 . . ?
C16 C15 C14 121.0(3) . . ?
C16 C15 H15A 119.5 . . ?
C14 C15 H15A 119.5 . . ?
C17 C16 C15 118.7(3) . . ?
C17 C16 C21 120.0(3) . . ?
C15 C16 C21 121.1(3) . . ?
C16 C17 C18 120.9(3) . . ?
C16 C17 H17A 119.5 . . ?
C18 C17 H17A 119.5 . . ?
C13 C18 C17 120.2(3) . . ?
C13 C18 H18A 119.9 . . ?
C17 C18 H18A 119.9 . . ?
O2 C19 O1 118.9(4) . . ?
O2 C19 C4 121.9(4) . . ?
O1 C19 C4 119.2(4) . . ?
O4 C20 O3 120.5(4) . . ?
O4 C20 C10 120.7(4) . . ?
O3 C20 C10 118.8(4) . . ?
O4 C20 Zn1 59.4(2) . 1_455 ?
O3 C20 Zn1 61.1(2) . 1_455 ?
C10 C20 Zn1 176.8(2) . 1_455 ?
O6 C21 O5 124.8(3) . . ?
O6 C21 C16 118.1(3) . . ?
O5 C21 C16 117.0(3) . . ?
N2 C22 C23 124.2(4) . . ?
N2 C22 H22A 117.9 . . ?
C23 C22 H22A 117.9 . . ?
C24 C23 C22 117.2(4) . . ?
C24 C23 H23A 121.4 . . ?
C22 C23 H23A 121.4 . . ?
C23 C24 C25 119.8(3) . . ?
C23 C24 N3 123.0(3) . . ?
C25 C24 N3 117.2(3) . . ?
C26 C25 C24 118.9(3) . . ?
C26 C25 H25A 120.6