
#######################################################################
#
#                 Cambridge Crystallographic Data Centre
#                                CCDC
#
#######################################################################
#
# If this CIF has been generated from an entry in the Cambridge
# Structural Database, then it will include bibliographic, chemical,
# crystal, experimental, refinement or atomic coordinate data resulting
# from the CCDC's data processing and validation procedures.
#
#######################################################################

data_CSD_CIF_KUJWIV
_audit_creation_date 1993-03-04
_audit_creation_method CSD-ConQuest-V1
_database_code_CSD KUJWIV
_database_code_depnum_ccdc_archive 'CCDC 1200902'
_chemical_formula_sum 'C22 H22 O3'
_chemical_formula_moiety
;
C22 H22 O3
;
_journal_coden_Cambridge 1061
_journal_volume 7
_journal_year 1991
_journal_page_first 669
_journal_name_full 'Anal.Sci. '
loop_
_publ_author_name
"T.Hata"
"Y.Furukawa"
"Y.Ozoe"
"F.Matsumura"
_chemical_name_systematic
;
5-(3-Phenoxyphenyl)-2,3:8,7-endo-4,6-dioxatricyclo(7.2.1.0^2,8^)dodec-10-ene
;
_chemical_name_common
;
Teaching Subset: Fundamental Chemistry
;
_cell_volume   1725.333
_exptl_crystal_colour 'colorless'
_exptl_special_details
;
insecticidal activity
Dx given as 1.24, we find 1.29

;
_exptl_crystal_description 'prism'
_exptl_crystal_preparation 'chloroform'
_diffrn_ambient_temperature ?
_diffrn_special_details
;
The study was carried out at room temperature,in the range 283-303K

;
#These two values have been output from a single CSD field.
_refine_ls_R_factor_gt 0.061
_refine_ls_wR_factor_gt 0.061
_symmetry_cell_setting monoclinic
_symmetry_space_group_name_H-M 'P 21/a'
_symmetry_Int_Tables_number 14
loop_
_symmetry_equiv_pos_site_id
_symmetry_equiv_pos_as_xyz
1 x,y,z
2 1/2-x,1/2+y,-z
3 -x,-y,-z
4 -1/2+x,-1/2-y,z
_cell_length_a 20.998(7)
_cell_length_b 13.525(3)
_cell_length_c 6.288(1)
_cell_angle_alpha 90
_cell_angle_beta 104.95(2)
_cell_angle_gamma 90
_cell_formula_units_Z 4
loop_
_atom_type_symbol
_atom_type_radius_bond
C 0.68
O 0.68
loop_
_atom_site_label
_atom_site_type_symbol
_atom_site_fract_x
_atom_site_fract_y
_atom_site_fract_z
C1 C 0.3858(2) 0.2090(2) 0.4306(5)
C2 C 0.3768(1) 0.2795(2) 0.6184(4)
C3 C 0.3234(1) 0.3549(2) 0.5365(5)
O1 O 0.3138(1) 0.4169(1) 0.7132(3)
C4 C 0.3551(1) 0.5007(2) 0.7515(5)
O2 O 0.4199(1) 0.4789(2) 0.8594(3)
C5 C 0.4567(1) 0.4301(2) 0.7227(5)
C6 C 0.4468(1) 0.3185(2) 0.7168(5)
C7 C 0.4881(1) 0.2641(2) 0.5766(5)
C8 C 0.4652(2) 0.3058(3) 0.3462(5)
C9 C 0.4052(2) 0.2738(2) 0.2604(5)
C10 C 0.4523(2) 0.1644(2) 0.5428(5)
C11 C 0.3287(1) 0.5720(2) 0.8933(5)
C12 C 0.2917(1) 0.5400(2) 1.0340(5)
C13 C 0.2691(1) 0.6086(2) 1.1595(5)
C14 C 0.2812(2) 0.7079(2) 1.1453(6)
C15 C 0.3175(2) 0.7394(2) 1.0047(7)
C16 C 0.3411(2) 0.6722(2) 0.8775(6)
O3 O 0.2361(1) 0.5788(2) 1.3151(3)
C17 C 0.1809(1) 0.5211(2) 1.2497(5)
C18 C 0.1399(1) 0.5216(2) 1.0392(5)
C19 C 0.0839(2) 0.4647(2) 0.9900(5)
C20 C 0.0682(2) 0.4058(2) 1.1508(6)
C21 C 0.1089(2) 0.4062(2) 1.3585(6)
C22 C 0.1655(1) 0.4626(2) 1.4117(5)
#END
