####################################################################### 
# 
# This file contains crystal structure data downloaded from the 
# Cambridge Structural Database (CSD) hosted by the Cambridge 
# Crystallographic Data Centre (CCDC).
# 
# Full information about CCDC data access policies and citation 
# guidelines are available at http://www.ccdc.cam.ac.uk/access/V1 
# 
# Audit and citation data items may have been added by the CCDC. 
# Please retain this information to preserve the provenance of 
# this file and to allow appropriate attribution of the data. 
# 
#######################################################################

data_z
_audit_block_doi                 10.5517/cc139p25
_database_code_depnum_ccdc_archive 'CCDC 1022196'
loop_
_citation_id
_citation_doi
_citation_year
1 10.1016/j.jssc.2015.03.035 2015
_audit_update_record             
;
2014-09-01 deposited with the CCDC.	2024-07-11 downloaded from the CCDC.
;

_audit_creation_method           SHELXL-97
_chemical_name_systematic        
; 
 ? 
;
_chemical_name_common            ?
_chemical_melting_point          ?
_chemical_formula_moiety         ?
_chemical_formula_sum            'C31 H30 N4 O7 Zn'
_chemical_formula_weight         635.96

loop_
_atom_type_symbol
_atom_type_description
_atom_type_scat_dispersion_real
_atom_type_scat_dispersion_imag
_atom_type_scat_source
C C 0.0033 0.0016 'International Tables Vol C Tables 4.2.6.8 and 6.1.1.4'
H H 0.0000 0.0000 'International Tables Vol C Tables 4.2.6.8 and 6.1.1.4'
N N 0.0061 0.0033 'International Tables Vol C Tables 4.2.6.8 and 6.1.1.4'
O O 0.0106 0.0060 'International Tables Vol C Tables 4.2.6.8 and 6.1.1.4'
Zn Zn 0.2839 1.4301 'International Tables Vol C Tables 4.2.6.8 and 6.1.1.4'

_symmetry_cell_setting           triclinic
_symmetry_space_group_name_H-M   P-1

loop_
_symmetry_equiv_pos_as_xyz
'x, y, z'
'-x, -y, -z'

_cell_length_a                   9.3189(3)
_cell_length_b                   13.4985(4)
_cell_length_c                   14.3207(4)
_cell_angle_alpha                116.1170(10)
_cell_angle_beta                 92.3930(10)
_cell_angle_gamma                109.7540(10)
_cell_volume                     1483.10(8)
_cell_formula_units_Z            2
_cell_measurement_temperature    296(2)
_cell_measurement_reflns_used    ?
_cell_measurement_theta_min      ?
_cell_measurement_theta_max      ?

_exptl_crystal_description       block
_exptl_crystal_colour            colorless
_exptl_crystal_size_max          0.26
_exptl_crystal_size_mid          0.24
_exptl_crystal_size_min          0.18
_exptl_crystal_density_meas      ?
_exptl_crystal_density_diffrn    1.424
_exptl_crystal_density_method    'not measured'
_exptl_crystal_F_000             660
_exptl_absorpt_coefficient_mu    0.882
_exptl_absorpt_correction_type   multi-scan
_exptl_absorpt_correction_T_min  0.8031
_exptl_absorpt_correction_T_max  0.8574
_exptl_absorpt_process_details   sadabs

_exptl_special_details           
; 
 ? 
;

_diffrn_ambient_temperature      296(2)
_diffrn_radiation_wavelength     0.71073
_diffrn_radiation_type           MoK\a
_diffrn_radiation_source         'fine-focus sealed tube'
_diffrn_radiation_monochromator  graphite
_diffrn_measurement_device_type  ?
_diffrn_measurement_method       ?
_diffrn_detector_area_resol_mean ?
_diffrn_reflns_number            17378
_diffrn_reflns_av_R_equivalents  0.0312
_diffrn_reflns_av_sigmaI/netI    0.0330
_diffrn_reflns_limit_h_min       -11
_diffrn_reflns_limit_h_max       11
_diffrn_reflns_limit_k_min       -16
_diffrn_reflns_limit_k_max       16
_diffrn_reflns_limit_l_min       -13
_diffrn_reflns_limit_l_max       17
_diffrn_reflns_theta_min         1.63
_diffrn_reflns_theta_max         25.01
_reflns_number_total             5166
_reflns_number_gt                4410
_reflns_threshold_expression     >2sigma(I)

_computing_data_collection       ?
_computing_cell_refinement       ?
_computing_data_reduction        ?
_computing_structure_solution    'SHELXS-97 (Sheldrick, 2008)'
_computing_structure_refinement  'SHELXL-97 (Sheldrick, 2008)'
_computing_molecular_graphics    ?
_computing_publication_material  ?

_refine_special_details          
; 
 Refinement of F^2^ against ALL reflections.  The weighted R-factor wR and 
 goodness of fit S are based on F^2^, conventional R-factors R are based 
 on F, with F set to zero for negative F^2^. The threshold expression of 
 F^2^ > 2sigma(F^2^) is used only for calculating R-factors(gt) etc. and is 
 not relevant to the choice of reflections for refinement.  R-factors based 
 on F^2^ are statistically about twice as large as those based on F, and R- 
 factors based on ALL data will be even larger. 
;

_refine_ls_structure_factor_coef Fsqd
_refine_ls_matrix_type           full
_refine_ls_weighting_scheme      calc
_refine_ls_weighting_details     
'calc w=1/[\s^2^(Fo^2^)+(0.0771P)^2^+1.5018P] where P=(Fo^2^+2Fc^2^)/3'
_atom_sites_solution_primary     direct
_atom_sites_solution_secondary   difmap
_atom_sites_solution_hydrogens   geom
_refine_ls_hydrogen_treatment    constr
_refine_ls_extinction_method     none
_refine_ls_extinction_coef       ?
_refine_ls_number_reflns         5166
_refine_ls_number_parameters     388
_refine_ls_number_restraints     35
_refine_ls_R_factor_all          0.0567
_refine_ls_R_factor_gt           0.0472
_refine_ls_wR_factor_ref         0.1385
_refine_ls_wR_factor_gt          0.1303
_refine_ls_goodness_of_fit_ref   1.048
_refine_ls_restrained_S_all      1.058
_refine_ls_shift/su_max          0.001
_refine_ls_shift/su_mean         0.000

loop_
_atom_site_label
_atom_site_type_symbol
_atom_site_fract_x
_atom_site_fract_y
_atom_site_fract_z
_atom_site_U_iso_or_equiv
_atom_site_adp_type
_atom_site_occupancy
_atom_site_symmetry_multiplicity
_atom_site_calc_flag
_atom_site_refinement_flags
_atom_site_disorder_assembly
_atom_site_disorder_group
Zn1 Zn 0.60253(4) 0.72509(3) 0.96545(3) 0.03324(15) Uani 1 1 d . . .
O1 O 0.4234(3) 0.5737(2) 0.8676(2) 0.0447(6) Uani 1 1 d . . .
O2 O 0.2526(3) 0.6558(2) 0.8725(3) 0.0696(9) Uani 1 1 d . . .
O3 O -0.2492(4) -0.1114(3) 0.1207(2) 0.0643(8) Uani 1 1 d . . .
O4 O -0.4635(3) -0.2454(3) 0.1145(2) 0.0570(7) Uani 1 1 d . . .
O5 O -0.4323(3) -0.0958(3) 0.9484(2) 0.0530(7) Uani 1 1 d . . .
O6 O -0.3076(3) -0.2110(2) 0.8681(2) 0.0495(7) Uani 1 1 d . . .
N1 N -0.2071(3) 0.0987(2) 0.6221(2) 0.0356(6) Uani 1 1 d . . .
N2 N 0.7501(3) 0.6388(2) 0.9723(2) 0.0353(6) Uani 1 1 d . . .
C1 C -0.2410(4) 0.0354(3) 0.5101(3) 0.0328(7) Uani 1 1 d . . .
C2 C -0.1459(4) 0.0808(3) 0.4537(3) 0.0394(8) Uani 1 1 d . . .
H2A H -0.0583 0.1528 0.4904 0.047 Uiso 1 1 calc R . .
C3 C -0.1813(4) 0.0192(3) 0.3432(3) 0.0398(8) Uani 1 1 d . . .
H3A H -0.1162 0.0500 0.3065 0.048 Uiso 1 1 calc R . .
C4 C -0.3119(4) -0.0876(3) 0.2862(3) 0.0364(8) Uani 1 1 d . . .
C5 C -0.4063(4) -0.1322(3) 0.3426(3) 0.0388(8) Uani 1 1 d . . .
H5A H -0.4941 -0.2039 0.3056 0.047 Uiso 1 1 calc R . .
C6 C -0.3723(4) -0.0720(3) 0.4528(3) 0.0373(8) Uani 1 1 d . . .
H6A H -0.4376 -0.1034 0.4891 0.045 Uiso 1 1 calc R . .
C7 C -0.2456(4) 0.0377(3) 0.6835(3) 0.0327(7) Uani 1 1 d . . .
C8 C -0.3069(4) 0.0854(3) 0.7718(3) 0.0346(7) Uani 1 1 d . . .
H8A H -0.3251 0.1543 0.7882 0.041 Uiso 1 1 calc R . .
C9 C -0.3410(4) 0.0316(3) 0.8352(3) 0.0364(7) Uani 1 1 d . . .
H9A H -0.3831 0.0639 0.8936 0.044 Uiso 1 1 calc R . .
C10 C -0.3128(4) -0.0707(3) 0.8125(3) 0.0353(7) Uani 1 1 d . . .
C11 C -0.2521(4) -0.1187(3) 0.7241(3) 0.0408(8) Uani 1 1 d . . .
H11A H -0.2325 -0.1869 0.7082 0.049 Uiso 1 1 calc R . .
C12 C -0.2202(4) -0.0654(3) 0.6593(3) 0.0404(8) Uani 1 1 d . . .
H12A H -0.1817 -0.0992 0.5993 0.049 Uiso 1 1 calc R . .
C13 C -0.0832(4) 0.2171(3) 0.6763(2) 0.0323(7) Uani 1 1 d . . .
C14 C -0.1083(4) 0.3152(3) 0.6860(3) 0.0423(9) Uani 1 1 d . . .
H14A H -0.2065 0.3058 0.6576 0.051 Uiso 1 1 calc R . .
C15 C 0.0127(4) 0.4285(3) 0.7381(3) 0.0427(8) Uani 1 1 d . . .
H15A H -0.0057 0.4947 0.7448 0.051 Uiso 1 1 calc R . .
C16 C 0.1604(4) 0.4444(3) 0.7802(3) 0.0339(7) Uani 1 1 d . . .
C17 C 0.1849(4) 0.3446(3) 0.7682(3) 0.0408(8) Uani 1 1 d . . .
H17A H 0.2839 0.3533 0.7944 0.049 Uiso 1 1 calc R . .
C18 C 0.0639(4) 0.2314(3) 0.7176(3) 0.0421(8) Uani 1 1 d . . .
H18A H 0.0816 0.1651 0.7113 0.050 Uiso 1 1 calc R . .
C19 C -0.3534(4) -0.1292(3) 0.8819(3) 0.0380(8) Uani 1 1 d . . .
C20 C -0.3458(5) -0.1534(3) 0.1654(3) 0.0424(9) Uani 1 1 d . . .
C21 C 0.2884(4) 0.5682(3) 0.8431(3) 0.0390(8) Uani 1 1 d . . .
C22 C 0.6951(4) 0.5207(3) 0.9401(3) 0.0400(8) Uani 1 1 d . . .
H22A H 0.5886 0.4752 0.9105 0.048 Uiso 1 1 calc R . .
C23 C 0.7882(4) 0.4636(3) 0.9486(3) 0.0381(8) Uani 1 1 d . . .
H23A H 0.7443 0.3813 0.9247 0.046 Uiso 1 1 calc R . .
C24 C 0.9481(4) 0.5285(3) 0.9930(3) 0.0327(7) Uani 1 1 d . . .
C25 C 1.0045(4) 0.6499(3) 1.0244(3) 0.0411(8) Uani 1 1 d . . .
H25A H 1.1110 0.6971 1.0521 0.049 Uiso 1 1 calc R . .
C26 C 0.9034(4) 0.7011(3) 1.0146(3) 0.0432(8) Uani 1 1 d . . .
H26A H 0.9441 0.7835 1.0387 0.052 Uiso 1 1 calc R . .
O01 O -0.1318(13) 0.6087(9) 0.6286(8) 0.247(4) Uani 1 1 d U . .
N01 N -0.3674(11) 0.4587(8) 0.5865(7) 0.156(3) Uani 1 1 d DU . .
C01 C -0.5209(15) 0.4132(13) 0.6101(13) 0.257(7) Uani 1 1 d DU . .
H01B H -0.5223 0.4699 0.6800 0.386 Uiso 1 1 calc R . .
H01C H -0.5392 0.3375 0.6075 0.386 Uiso 1 1 calc R . .
H01D H -0.6013 0.4024 0.5581 0.386 Uiso 1 1 calc R . .
C02 C -0.3538(15) 0.3790(11) 0.4811(9) 0.207(5) Uani 1 1 d DU . .
H02A H -0.2523 0.4148 0.4702 0.311 Uiso 1 1 calc R . .
H02B H -0.4330 0.3668 0.4274 0.311 Uiso 1 1 calc R . .
H02C H -0.3671 0.3031 0.4763 0.311 Uiso 1 1 calc R . .
C03 C -0.2518(13) 0.5648(9) 0.6660(9) 0.170(4) Uani 1 1 d DU . .
H03A H -0.2575 0.6010 0.7372 0.204 Uiso 1 1 calc R . .
N02 N 0.2507(5) 0.8604(4) 0.8662(3) 0.0799(13) Uani 1 1 d D . .
H02D H 0.3300 0.8907 0.9175 0.096 Uiso 1 1 calc R . .
C04 C 0.1008(5) 0.8595(5) 0.8866(4) 0.0758(14) Uani 1 1 d D . .
H04A H 0.1077 0.8964 0.9622 0.114 Uiso 1 1 calc R . .
H04B H 0.0249 0.7780 0.8531 0.114 Uiso 1 1 calc R . .
H04C H 0.0697 0.9035 0.8582 0.114 Uiso 1 1 calc R . .
C05 C 0.2629(6) 0.8076(5) 0.7542(4) 0.0717(13) Uani 1 1 d D . .
H05A H 0.3679 0.8133 0.7509 0.108 Uiso 1 1 calc R . .
H05B H 0.2372 0.8504 0.7220 0.108 Uiso 1 1 calc R . .
H05C H 0.1916 0.7247 0.7165 0.108 Uiso 1 1 calc R . .

loop_
_atom_site_aniso_label
_atom_site_aniso_U_11
_atom_site_aniso_U_22
_atom_site_aniso_U_33
_atom_site_aniso_U_23
_atom_site_aniso_U_13
_atom_site_aniso_U_12
Zn1 0.0364(2) 0.0339(2) 0.0279(2) 0.01495(18) 0.00488(15) 0.01242(17)
O1 0.0376(13) 0.0420(14) 0.0416(15) 0.0152(12) -0.0014(11) 0.0094(11)
O2 0.0572(18) 0.0322(15) 0.104(3) 0.0281(16) -0.0047(17) 0.0096(13)
O3 0.103(2) 0.0525(17) 0.0311(15) 0.0189(13) 0.0168(15) 0.0259(17)
O4 0.0526(16) 0.0556(17) 0.0346(15) 0.0014(13) -0.0036(12) 0.0192(14)
O5 0.0534(16) 0.0660(18) 0.0509(17) 0.0388(15) 0.0193(13) 0.0209(14)
O6 0.0709(18) 0.0433(15) 0.0422(15) 0.0280(13) 0.0117(13) 0.0217(13)
N1 0.0422(15) 0.0300(14) 0.0250(14) 0.0133(12) 0.0009(12) 0.0042(12)
N2 0.0380(15) 0.0367(16) 0.0345(15) 0.0190(13) 0.0066(12) 0.0164(12)
C1 0.0370(17) 0.0319(17) 0.0269(17) 0.0137(14) 0.0016(13) 0.0123(14)
C2 0.0399(18) 0.0343(18) 0.0312(19) 0.0131(15) 0.0032(14) 0.0047(15)
C3 0.0463(19) 0.041(2) 0.0310(19) 0.0184(16) 0.0077(15) 0.0145(16)
C4 0.0437(19) 0.0372(18) 0.0274(18) 0.0126(15) 0.0022(14) 0.0200(15)
C5 0.0374(18) 0.0329(18) 0.0324(19) 0.0100(15) -0.0049(14) 0.0079(14)
C6 0.0369(17) 0.0372(18) 0.0332(19) 0.0185(16) 0.0048(14) 0.0080(15)
C7 0.0323(16) 0.0317(17) 0.0284(17) 0.0153(14) -0.0006(13) 0.0062(13)
C8 0.0405(18) 0.0287(17) 0.0315(18) 0.0135(14) 0.0035(14) 0.0123(14)
C9 0.0401(18) 0.0358(18) 0.0335(18) 0.0180(15) 0.0096(14) 0.0134(15)
C10 0.0359(17) 0.0352(18) 0.0331(18) 0.0192(15) 0.0042(14) 0.0089(14)
C11 0.050(2) 0.0369(19) 0.041(2) 0.0213(16) 0.0084(16) 0.0203(16)
C12 0.048(2) 0.0400(19) 0.0359(19) 0.0178(16) 0.0149(16) 0.0206(16)
C13 0.0384(17) 0.0278(16) 0.0235(16) 0.0112(13) 0.0017(13) 0.0073(13)
C14 0.0353(18) 0.041(2) 0.049(2) 0.0239(18) -0.0033(16) 0.0115(15)
C15 0.0439(19) 0.0327(18) 0.052(2) 0.0222(17) 0.0006(16) 0.0142(15)
C16 0.0374(17) 0.0303(17) 0.0316(18) 0.0165(14) 0.0036(14) 0.0090(14)
C17 0.0342(17) 0.0353(19) 0.048(2) 0.0186(17) -0.0011(15) 0.0117(15)
C18 0.046(2) 0.0269(17) 0.050(2) 0.0172(16) 0.0006(16) 0.0140(15)
C19 0.0393(18) 0.0336(18) 0.0342(19) 0.0193(15) -0.0011(15) 0.0038(15)
C20 0.058(2) 0.042(2) 0.0319(19) 0.0129(17) 0.0033(17) 0.0323(19)
C21 0.044(2) 0.0333(19) 0.0372(19) 0.0199(16) 0.0031(15) 0.0093(15)
C22 0.0367(18) 0.0368(19) 0.037(2) 0.0134(16) -0.0016(15) 0.0117(15)
C23 0.0373(17) 0.0302(17) 0.0393(19) 0.0127(15) 0.0011(14) 0.0114(14)
C24 0.0346(16) 0.0324(17) 0.0282(17) 0.0133(14) 0.0063(13) 0.0122(14)
C25 0.0324(17) 0.0372(19) 0.050(2) 0.0203(17) 0.0040(15) 0.0111(15)
C26 0.0421(19) 0.0330(19) 0.054(2) 0.0228(17) 0.0087(17) 0.0119(15)
O01 0.241(5) 0.247(5) 0.247(5) 0.113(3) 0.058(2) 0.099(3)
N01 0.158(3) 0.154(3) 0.156(3) 0.072(2) 0.031(2) 0.067(2)
C01 0.258(7) 0.257(7) 0.257(7) 0.125(4) 0.061(3) 0.101(3)
C02 0.208(5) 0.207(5) 0.205(5) 0.096(3) 0.050(2) 0.085(3)
C03 0.174(4) 0.167(4) 0.169(4) 0.081(3) 0.035(2) 0.069(2)
N02 0.059(2) 0.080(3) 0.062(3) 0.000(2) -0.0059(19) 0.033(2)
C04 0.070(3) 0.070(3) 0.081(4) 0.041(3) 0.021(3) 0.014(3)
C05 0.073(3) 0.076(3) 0.066(3) 0.033(3) 0.008(2) 0.031(3)

_geom_special_details            
; 
 All esds (except the esd in the dihedral angle between two l.s. planes) 
 are estimated using the full covariance matrix.  The cell esds are taken 
 into account individually in the estimation of esds in distances, angles 
 and torsion angles; correlations between esds in cell parameters are only 
 used when they are defined by crystal symmetry.  An approximate (isotropic) 
 treatment of cell esds is used for estimating esds involving l.s. planes. 
;

loop_
_geom_bond_atom_site_label_1
_geom_bond_atom_site_label_2
_geom_bond_distance
_geom_bond_site_symmetry_2
_geom_bond_publ_flag
Zn1 O1 1.976(2) . ?
Zn1 O6 2.015(3) 1_665 ?
Zn1 N2 2.105(3) . ?
Zn1 O4 2.149(3) 1_666 ?
Zn1 O3 2.255(3) 1_666 ?
Zn1 C20 2.518(4) 1_666 ?
O1 C21 1.261(4) . ?
O2 C21 1.235(5) . ?
O3 C20 1.252(5) . ?
O3 Zn1 2.255(3) 1_444 ?
O4 C20 1.221(5) . ?
O4 Zn1 2.149(3) 1_444 ?
O5 C19 1.247(5) . ?
O6 C19 1.254(4) . ?
O6 Zn1 2.015(3) 1_445 ?
N1 C1 1.404(4) . ?
N1 C7 1.431(4) . ?
N1 C13 1.440(4) . ?
N2 C26 1.335(4) . ?
N2 C22 1.340(4) . ?
C1 C2 1.394(5) . ?
C1 C6 1.394(5) . ?
C2 C3 1.385(5) . ?
C2 H2A 0.9300 . ?
C3 C4 1.386(5) . ?
C3 H3A 0.9300 . ?
C4 C5 1.385(5) . ?
C4 C20 1.514(5) . ?
C5 C6 1.380(5) . ?
C5 H5A 0.9300 . ?
C6 H6A 0.9300 . ?
C7 C12 1.385(5) . ?
C7 C8 1.390(5) . ?
C8 C9 1.379(5) . ?
C8 H8A 0.9300 . ?
C9 C10 1.392(5) . ?
C9 H9A 0.9300 . ?
C10 C11 1.389(5) . ?
C10 C19 1.508(5) . ?
C11 C12 1.391(5) . ?
C11 H11A 0.9300 . ?
C12 H12A 0.9300 . ?
C13 C14 1.369(5) . ?
C13 C18 1.386(5) . ?
C14 C15 1.388(5) . ?
C14 H14A 0.9300 . ?
C15 C16 1.387(5) . ?
C15 H15A 0.9300 . ?
C16 C17 1.380(5) . ?
C16 C21 1.504(5) . ?
C17 C18 1.387(5) . ?
C17 H17A 0.9300 . ?
C18 H18A 0.9300 . ?
C20 Zn1 2.518(4) 1_444 ?
C22 C23 1.374(5) . ?
C22 H22A 0.9300 . ?
C23 C24 1.393(5) . ?
C23 H23A 0.9300 . ?
C24 C25 1.384(5) . ?
C24 C24 1.479(6) 2_767 ?
C25 C26 1.379(5) . ?
C25 H25A 0.9300 . ?
C26 H26A 0.9300 . ?
O01 C03 1.330(13) . ?
N01 C03 1.388(8) . ?
N01 C02 1.459(8) . ?
N01 C01 1.472(9) . ?
C01 H01B 0.9600 . ?
C01 H01C 0.9600 . ?
C01 H01D 0.9600 . ?
C02 H02A 0.9600 . ?
C02 H02B 0.9600 . ?
C02 H02C 0.9600 . ?
C03 H03A 0.9300 . ?
N02 C04 1.435(5) . ?
N02 C05 1.469(5) . ?
N02 H02D 0.8600 . ?
C04 H04A 0.9600 . ?
C04 H04B 0.9600 . ?
C04 H04C 0.9600 . ?
C05 H05A 0.9600 . ?
C05 H05B 0.9600 . ?
C05 H05C 0.9600 . ?

loop_
_geom_angle_atom_site_label_1
_geom_angle_atom_site_label_2
_geom_angle_atom_site_label_3
_geom_angle
_geom_angle_site_symmetry_1
_geom_angle_site_symmetry_3
_geom_angle_publ_flag
O1 Zn1 O6 103.25(11) . 1_665 ?
O1 Zn1 N2 94.18(11) . . ?
O6 Zn1 N2 100.03(11) 1_665 . ?
O1 Zn1 O4 99.50(11) . 1_666 ?
O6 Zn1 O4 150.19(12) 1_665 1_666 ?
N2 Zn1 O4 97.26(11) . 1_666 ?
O1 Zn1 O3 158.17(12) . 1_666 ?
O6 Zn1 O3 96.97(11) 1_665 1_666 ?
N2 Zn1 O3 90.30(12) . 1_666 ?
O4 Zn1 O3 58.72(11) 1_666 1_666 ?
O1 Zn1 C20 128.48(13) . 1_666 ?
O6 Zn1 C20 125.32(13) 1_665 1_666 ?
N2 Zn1 C20 93.33(11) . 1_666 ?
O4 Zn1 C20 28.99(12) 1_666 1_666 ?
O3 Zn1 C20 29.76(12) 1_666 1_666 ?
C21 O1 Zn1 123.5(2) . . ?
C20 O3 Zn1 86.8(2) . 1_444 ?
C20 O4 Zn1 92.5(3) . 1_444 ?
C19 O6 Zn1 106.1(2) . 1_445 ?
C1 N1 C7 121.5(3) . . ?
C1 N1 C13 118.5(3) . . ?
C7 N1 C13 115.9(2) . . ?
C26 N2 C22 116.6(3) . . ?
C26 N2 Zn1 121.0(2) . . ?
C22 N2 Zn1 122.3(2) . . ?
C2 C1 C6 118.5(3) . . ?
C2 C1 N1 120.4(3) . . ?
C6 C1 N1 121.0(3) . . ?
C3 C2 C1 120.3(3) . . ?
C3 C2 H2A 119.9 . . ?
C1 C2 H2A 119.9 . . ?
C2 C3 C4 121.2(3) . . ?
C2 C3 H3A 119.4 . . ?
C4 C3 H3A 119.4 . . ?
C5 C4 C3 118.3(3) . . ?
C5 C4 C20 121.9(3) . . ?
C3 C4 C20 119.7(3) . . ?
C6 C5 C4 121.2(3) . . ?
C6 C5 H5A 119.4 . . ?
C4 C5 H5A 119.4 . . ?
C5 C6 C1 120.5(3) . . ?
C5 C6 H6A 119.8 . . ?
C1 C6 H6A 119.8 . . ?
C12 C7 C8 119.2(3) . . ?
C12 C7 N1 122.1(3) . . ?
C8 C7 N1 118.7(3) . . ?
C9 C8 C7 120.6(3) . . ?
C9 C8 H8A 119.7 . . ?
C7 C8 H8A 119.7 . . ?
C8 C9 C10 120.5(3) . . ?
C8 C9 H9A 119.7 . . ?
C10 C9 H9A 119.7 . . ?
C11 C10 C9 119.0(3) . . ?
C11 C10 C19 121.4(3) . . ?
C9 C10 C19 119.6(3) . . ?
C10 C11 C12 120.4(3) . . ?
C10 C11 H11A 119.8 . . ?
C12 C11 H11A 119.8 . . ?
C7 C12 C11 120.3(3) . . ?
C7 C12 H12A 119.9 . . ?
C11 C12 H12A 119.9 . . ?
C14 C13 C18 119.6(3) . . ?
C14 C13 N1 120.9(3) . . ?
C18 C13 N1 119.4(3) . . ?
C13 C14 C15 120.2(3) . . ?
C13 C14 H14A 119.9 . . ?
C15 C14 H14A 119.9 . . ?
C16 C15 C14 120.9(3) . . ?
C16 C15 H15A 119.6 . . ?
C14 C15 H15A 119.6 . . ?
C17 C16 C15 