####################################################################### 
# 
# This file contains crystal structure data downloaded from the 
# Cambridge Structural Database (CSD) hosted by the Cambridge 
# Crystallographic Data Centre (CCDC).
# 
# Full information about CCDC data access policies and citation 
# guidelines are available at http://www.ccdc.cam.ac.uk/access/V1 
# 
# Audit and citation data items may have been added by the CCDC. 
# Please retain this information to preserve the provenance of 
# this file and to allow appropriate attribution of the data. 
# 
#######################################################################

data_final
_audit_block_doi                 10.5517/cc10s5nm
_database_code_depnum_ccdc_archive 'CCDC 946760'
loop_
_citation_id
_citation_doi
_citation_year
1 10.1016/j.ica.2015.03.019 2015
2 10.1016/j.jssc.2015.04.013 2015
_audit_update_record             
;
2013-06-24 deposited with the CCDC.	2024-07-11 downloaded from the CCDC.
;



_chemical_formula_moiety         'C48 H30 N12 O15 Zn4, C3 H7 N O, 6(O)'
_chemical_formula_sum            'C51 H37 N13 O22 Zn4'
_chemical_formula_weight         1445.50
_chemical_melting_point          ?
_chemical_oxdiff_formula         'C24 H15 N6 O6 Zn1'
loop_
_atom_type_symbol
_atom_type_description
_atom_type_scat_dispersion_real
_atom_type_scat_dispersion_imag
_atom_type_scat_source
C C 0.0181 0.0091 'International Tables Vol C Tables 4.2.6.8 and 6.1.1.4'
H H 0.0000 0.0000 'International Tables Vol C Tables 4.2.6.8 and 6.1.1.4'
N N 0.0311 0.0180 'International Tables Vol C Tables 4.2.6.8 and 6.1.1.4'
O O 0.0492 0.0322 'International Tables Vol C Tables 4.2.6.8 and 6.1.1.4'
Zn Zn -1.5491 0.6778 'International Tables Vol C Tables 4.2.6.8 and 6.1.1.4'

_space_group_crystal_system      monoclinic
_space_group_IT_number           15
_space_group_name_H-M_alt        'C 2/c'
_space_group_name_Hall           '-C 2yc'
loop_
_space_group_symop_id
_space_group_symop_operation_xyz
1 'x, y, z'
2 '-x, y, -z+1/2'
3 'x+1/2, y+1/2, z'
4 '-x+1/2, y+1/2, -z+1/2'
5 '-x, -y, -z'
6 'x, -y, z-1/2'
7 '-x+1/2, -y+1/2, -z'
8 'x+1/2, -y+1/2, z-1/2'

_cell_length_a                   26.0338(8)
_cell_length_b                   26.3415(7)
_cell_length_c                   27.5327(7)
_cell_angle_alpha                90.00
_cell_angle_beta                 97.836(3)
_cell_angle_gamma                90.00
_cell_volume                     18704.8(9)
_cell_formula_units_Z            8
_cell_measurement_reflns_used    8803
_cell_measurement_temperature    100(2)
_cell_measurement_theta_max      74.3660
_cell_measurement_theta_min      3.7090
_exptl_absorpt_coefficient_mu    1.655
_exptl_absorpt_correction_T_max  1.00000
_exptl_absorpt_correction_T_min  0.84301
_exptl_absorpt_correction_type   multi-scan
_exptl_absorpt_process_details   
;
CrysAlisPro, Agilent Technologies,
Version 1.171.36.28 (release 01-02-2013 CrysAlis171 .NET)
(compiled Feb  1 2013,16:14:44)
Empirical absorption correction using spherical harmonics,
 implemented in SCALE3 ABSPACK scaling algorithm.
;
_exptl_crystal_colour            colourless
_exptl_crystal_colour_primary    colourless
_exptl_crystal_density_diffrn    1.027
_exptl_crystal_density_meas      ?
_exptl_crystal_density_method    'not measured'
_exptl_crystal_description       plate
_exptl_crystal_F_000             5840
_exptl_crystal_size_max          0.3
_exptl_crystal_size_mid          0.3
_exptl_crystal_size_min          0.05
_exptl_special_details           
;
 ? 
;
_diffrn_reflns_av_R_equivalents  0.0450
_diffrn_reflns_av_unetI/netI     0.0585
_diffrn_reflns_limit_h_max       31
_diffrn_reflns_limit_h_min       -31
_diffrn_reflns_limit_k_max       31
_diffrn_reflns_limit_k_min       0
_diffrn_reflns_limit_l_max       33
_diffrn_reflns_limit_l_min       0
_diffrn_reflns_number            17701
_diffrn_reflns_theta_full        70.07
_diffrn_reflns_theta_max         70.07
_diffrn_reflns_theta_min         3.36
_diffrn_ambient_temperature      100.0
_diffrn_detector_area_resol_mean 10.4839
_diffrn_measured_fraction_theta_full 0.9982
_diffrn_measured_fraction_theta_max 0.9982
_diffrn_measurement_details      
;
#__ type_ start__ end____ width___ exp.time_
  1 omega  -70.00   16.00   1.0000    1.0000
omega____ theta____ kappa____ phi______ frames
    -      -41.8048   95.0000 -154.0000 86

#__ type_ start__ end____ width___ exp.time_
  2 omega  -83.00   -8.00   1.0000    1.0000
omega____ theta____ kappa____ phi______ frames
    -      -43.5000   95.0000   84.0000 75

#__ type_ start__ end____ width___ exp.time_
  3 omega  102.00  157.00   1.0000    1.0000
omega____ theta____ kappa____ phi______ frames
    -      109.1316   95.0000   25.0000 55

#__ type_ start__ end____ width___ exp.time_
  4 omega  107.00  135.00   1.0000    1.0000
omega____ theta____ kappa____ phi______ frames
    -      109.1316   95.0000   84.0000 28

#__ type_ start__ end____ width___ exp.time_
  5 omega   50.00   95.00   1.0000    1.0000
omega____ theta____ kappa____ phi______ frames
    -      109.1316  -95.0000   95.0000 45

#__ type_ start__ end____ width___ exp.time_
  6 omega   28.00  109.00   1.0000    1.0000
omega____ theta____ kappa____ phi______ frames
    -      109.1316  -95.0000  154.0000 81

#__ type_ start__ end____ width___ exp.time_
  7 omega   69.00   94.00   1.0000    1.0000
omega____ theta____ kappa____ phi______ frames
    -       41.8048 -125.0000  -90.0000 25

#__ type_ start__ end____ width___ exp.time_
  8 omega -122.00  -80.00   1.0000    1.0000
omega____ theta____ kappa____ phi______ frames
    -      -43.5000  -94.0000  -30.0000 42

#__ type_ start__ end____ width___ exp.time_
  9 omega -112.00  -87.00   1.0000    1.0000
omega____ theta____ kappa____ phi______ frames
    -      -43.5000  -94.0000  120.0000 25

#__ type_ start__ end____ width___ exp.time_
 10 omega   34.00   76.00   1.0000    1.0000
omega____ theta____ kappa____ phi______ frames
    -      109.1316  -30.0000  150.0000 42

#__ type_ start__ end____ width___ exp.time_
 11 omega   58.00  138.00   1.0000    1.0000
omega____ theta____ kappa____ phi______ frames
    -      109.1316  -61.0000  -60.0000 80

#__ type_ start__ end____ width___ exp.time_
 12 omega   46.00   72.00   1.0000    1.0000
omega____ theta____ kappa____ phi______ frames
    -      109.1316  -30.0000   60.0000 26

#__ type_ start__ end____ width___ exp.time_
 13 omega   29.00  100.00   1.0000    1.0000
omega____ theta____ kappa____ phi______ frames
    -      109.1316  -94.0000  -60.0000 71

#__ type_ start__ end____ width___ exp.time_
 14 omega   36.00   80.00   1.0000    1.0000
omega____ theta____ kappa____ phi______ frames
    -      109.1316  -30.0000   30.0000 44
;
_diffrn_measurement_device_type  'SuperNova, Dual, Cu at zero, Atlas'
_diffrn_measurement_method       '\w scans'
_diffrn_orient_matrix_UB_11      -0.0332782000
_diffrn_orient_matrix_UB_12      0.0476111000
_diffrn_orient_matrix_UB_13      0.0050179000
_diffrn_orient_matrix_UB_21      -0.0470000000
_diffrn_orient_matrix_UB_22      -0.0265241000
_diffrn_orient_matrix_UB_23      -0.0294631000
_diffrn_orient_matrix_UB_31      -0.0157706000
_diffrn_orient_matrix_UB_32      -0.0212135000
_diffrn_orient_matrix_UB_33      0.0479584000
_diffrn_radiation_monochromator  mirror
_diffrn_radiation_type           'Cu K\a'
_diffrn_radiation_wavelength     1.5418
_diffrn_source                   'SuperNova (Cu) X-ray Source'
_diffrn_standards_decay_%        ?
_diffrn_standards_interval_count ?
_diffrn_standards_interval_time  ?
_diffrn_standards_number         ?
_reflns_number_gt                11914
_reflns_number_total             17701
_reflns_odcompleteness_completeness 99.82
_reflns_odcompleteness_iscentric 1
_reflns_odcompleteness_theta     66.97
_reflns_threshold_expression     >2sigma(I)
_computing_cell_refinement       
;
CrysAlisPro, Agilent Technologies,
Version 1.171.36.28 (release 01-02-2013 CrysAlis171 .NET)
(compiled Feb  1 2013,16:14:44)
;
_computing_data_collection       
;
CrysAlisPro, Agilent Technologies,
Version 1.171.36.28 (release 01-02-2013 CrysAlis171 .NET)
(compiled Feb  1 2013,16:14:44)
;
_computing_data_reduction        
;
CrysAlisPro, Agilent Technologies,
Version 1.171.36.28 (release 01-02-2013 CrysAlis171 .NET)
(compiled Feb  1 2013,16:14:44)
;
_computing_molecular_graphics    
;
O. V. Dolomanov, L. J. Bourhis, R. J. Gildea, J. A. K. Howard and H. Puschmann,
OLEX2: a complete structure solution, refinement and analysis program.
J. Appl. Cryst. (2009). 42, 339-341.
;
_computing_publication_material  
;
O. V. Dolomanov, L. J. Bourhis, R. J. Gildea, J. A. K. Howard and H. Puschmann,
OLEX2: a complete structure solution, refinement and analysis program.
J. Appl. Cryst. (2009). 42, 339-341.
;
_computing_structure_refinement  
;
SHELXL, G.M. Sheldrick, Acta Cryst.
(2008). A64, 112-122
;
_computing_structure_solution    
;
olex2.solve (L.J. Bourhis, O.V. Dolomanov, R.J. Gildea, J.A.K. Howard,
H. Puschmann, in preparation, 2011)
;
_refine_diff_density_max         0.910
_refine_diff_density_min         -0.797
_refine_diff_density_rms         0.083
_refine_ls_extinction_coef       ?
_refine_ls_extinction_method     none
_refine_ls_goodness_of_fit_ref   0.995
_refine_ls_hydrogen_treatment    constr
_refine_ls_matrix_type           full
_refine_ls_number_parameters     813
_refine_ls_number_reflns         17701
_refine_ls_number_restraints     90
_refine_ls_R_factor_all          0.0826
_refine_ls_R_factor_gt           0.0625
_refine_ls_restrained_S_all      1.015
_refine_ls_shift/su_max          0.001
_refine_ls_shift/su_mean         0.000
_refine_ls_structure_factor_coef Fsqd
_refine_ls_weighting_details     
'calc w=1/[\s^2^(Fo^2^)+(0.1195P)^2^+0.0000P] where P=(Fo^2^+2Fc^2^)/3'
_refine_ls_weighting_scheme      calc
_refine_ls_wR_factor_gt          0.1798
_refine_ls_wR_factor_ref         0.1946
_refine_special_details          
;
 Refinement of F^2^ against ALL reflections.  The weighted R-factor wR and 
 goodness of fit S are based on F^2^, conventional R-factors R are based 
 on F, with F set to zero for negative F^2^. The threshold expression of 
 F^2^ > 2sigma(F^2^) is used only for calculating R-factors(gt) etc. and is 
 not relevant to the choice of reflections for refinement.  R-factors based 
 on F^2^ are statistically about twice as large as those based on F, and R- 
 factors based on ALL data will be even larger. 
;
_olex2_refinement_description    
;
1. Fixed Uiso
 At 1.2 times of:
  All C(H) groups, All N(H) groups
 At 1.5 times of:
  All C(H,H,H) groups
2. Uiso/Uaniso restraints and constraints
 N13 \\sim C49 \\sim C50 \\sim C51 \\sim O14: within 1.7A with sigma of 0.01 
 and sigma for terminal atoms of 0.02
 Uanis(N13) \\sim Ueq, Uanis(C49) \\sim Ueq, Uanis(C50) \\sim Ueq, Uanis(C51)
 \\sim Ueq, Uanis(O14) \\sim Ueq: with sigma of 0.01 and sigma for terminal 
 atoms of 0.02
 Uanis(O13) \\sim Ueq: with sigma of 0.005 and sigma for terminal atoms of 0.01
 Uanis(O25) \\sim Ueq: with sigma of 0.03 and sigma for terminal atoms of 0.06
 Uanis(O26) \\sim Ueq: with sigma of 0.03 and sigma for terminal atoms of 0.06
 Uanis(O29) \\sim Ueq: with sigma of 0.03 and sigma for terminal atoms of 0.06
 Uanis(O32) \\sim Ueq: with sigma of 0.03 and sigma for terminal atoms of 0.06
 Uanis(O33) \\sim Ueq: with sigma of 0.03 and sigma for terminal atoms of 0.06
3.a Aromatic/amide H refined with riding coordinates:
 C3(H3), C4(H4), C6(H6), C7(H7), C11(H11), C12(H12), C14(H14), C15(H15),
 C18(H18), C19(H19), C21(H21), C22(H22), C26(H26), C27(H27), C29(H29), C30(H30),
 C33(H33), C34(H34), C36(H36), C37(H37), C43(H43), C44(H44), C46(H46),
 C47(H47), C51(H51), N1(H1), N4(H4A), N5(H5), N6(H6A), N7(H7A), N11(H11A)
3.b Idealised Me refined as rotating group:
 C49(H49A,H49B,H49C), C50(H50A,H50B,H50C)
;
_atom_sites_solution_hydrogens   geom
_atom_sites_solution_primary     iterative
_atom_sites_solution_secondary   difmap
loop_
_atom_site_label
_atom_site_type_symbol
_atom_site_fract_x
_atom_site_fract_y
_atom_site_fract_z
_atom_site_U_iso_or_equiv
_atom_site_adp_type
_atom_site_occupancy
_atom_site_symmetry_multiplicity
_atom_site_calc_flag
_atom_site_refinement_flags
_atom_site_disorder_assembly
_atom_site_disorder_group
C1 C 0.79067(18) 0.31630(17) 0.14808(16) 0.0524(11) Uani 1 1 d . . .
C2 C 0.83598(19) 0.34219(17) 0.13135(16) 0.0547(12) Uani 1 1 d . . .
C3 C 0.8638(2) 0.3203(2) 0.0978(2) 0.082(2) Uani 1 1 d . . .
H3 H 0.8547 0.2873 0.0858 0.098 Uiso 1 1 calc R . .
C4 C 0.9048(2) 0.3455(2) 0.0813(2) 0.092(2) Uani 1 1 d . . .
H4 H 0.9235 0.3300 0.0579 0.110 Uiso 1 1 calc R . .
C5 C 0.9184(2) 0.39411(19) 0.09934(17) 0.0625(14) Uani 1 1 d . . .
C6 C 0.8909(2) 0.41562(18) 0.13403(18) 0.0629(14) Uani 1 1 d . . .
H6 H 0.9003 0.4481 0.1472 0.075 Uiso 1 1 calc R . .
C7 C 0.84967(18) 0.38955(17) 0.14933(15) 0.0528(11) Uani 1 1 d . . .
H7 H 0.8306 0.4047 0.1726 0.063 Uiso 1 1 calc R . .
C8 C 0.9891(2) 0.4169(2) 0.04985(18) 0.0725(17) Uani 1 1 d . . .
C9 C 0.60244(19) 0.32650(18) 0.14298(15) 0.0559(12) Uani 1 1 d . . .
C10 C 0.5671(2) 0.3539(2) 0.10518(16) 0.0682(15) Uani 1 1 d . . .
C11 C 0.5816(2) 0.4005(2) 0.08818(18) 0.083(2) Uani 1 1 d . . .
H11 H 0.6118 0.4169 0.1042 0.100 Uiso 1 1 calc R . .
C12 C 0.5527(3) 0.4237(2) 0.0482(2) 0.098(3) Uani 1 1 d . . .
H12 H 0.5631 0.4557 0.0369 0.117 Uiso 1 1 calc R . .
C13 C 0.5089(2) 0.4000(2) 0.02481(18) 0.085(2) Uani 1 1 d . . .
C14 C 0.4921(2) 0.3543(2) 0.04385(16) 0.0784(19) Uani 1 1 d . . .
H14 H 0.4607 0.3390 0.0294 0.094 Uiso 1 1 calc R . .
C15 C 0.5213(2) 0.3319(2) 0.08336(16) 0.0700(16) Uani 1 1 d . . .
H15 H 0.5100 0.3008 0.0959 0.084 Uiso 1 1 calc R . .
C16 C 0.65520(19) 0.15954(16) 0.12388(15) 0.0526(11) Uani 1 1 d . . .
C17 C 0.63790(19) 0.11452(18) 0.09253(16) 0.0566(13) Uani 1 1 d . . .
C18 C 0.5907(2) 0.09205(19) 0.0973(2) 0.0716(17) Uani 1 1 d . . .
H18 H 0.5697 0.1060 0.1196 0.086 Uiso 1 1 calc R . .
C19 C 0.5736(2) 0.0498(2) 0.0702(2) 0.082(2) Uani 1 1 d . . .
H19 H 0.5408 0.0353 0.0735 0.099 Uiso 1 1 calc R . .
C20 C 0.6045(2) 0.02835(18) 0.03793(18) 0.0643(15) Uani 1 1 d . . .
C21 C 0.65031(18) 0.05338(18) 0.03080(17) 0.0583(13) Uani 1 1 d . . .
H21 H 0.6701 0.0414 0.0066 0.070 Uiso 1 1 calc R . .
C22 C 0.66672(18) 0.09469(18) 0.05825(17) 0.0594(13) Uani 1 1 d . . .
H22 H 0.6987 0.1103 0.0538 0.071 Uiso 1 1 calc R . .
C23 C 0.5531(2) -0.0495(2) 0.0135(2) 0.0739(18) Uani 1 1 d . . .
C24 C 0.6888(3) 0.3425(2) 0.30050(16) 0.0709(16) Uani 1 1 d . . .
C25 C 0.6636(3) 0.3761(2) 0.33398(16) 0.0766(18) Uani 1 1 d . . .
C26 C 0.6394(3) 0.4190(3) 0.31777(19) 0.087(2) Uani 1 1 d . . .
H26 H 0.6389 0.4287 0.2845 0.104 Uiso 1 1 calc R . .
C27 C 0.6151(3) 0.4495(3) 0.3488(2) 0.099(2) Uani 1 1 d . . .
H27 H 0.5982 0.4798 0.3366 0.119 Uiso 1 1 calc R . .
C28 C 0.6154(2) 0.4363(2) 0.39743(18) 0.0784(18) Uani 1 1 d . . .
C29 C 0.6394(4) 0.3937(3) 0.41409(19) 0.136(4) Uani 1 1 d . . .
H29 H 0.6409 0.3850 0.4477 0.163 Uiso 1 1 calc R . .
C30 C 0.6622(4) 0.3616(3) 0.3826(2) 0.137(4) Uani 1 1 d . . .
H30 H 0.6768 0.3301 0.3942 0.165 Uiso 1 1 calc R . .
C31 C 0.79410(19) 0.15335(18) 0.2378(2) 0.0647(14) Uani 1 1 d . . .
C32 C 0.83405(18) 0.1169(2) 0.2588(2) 0.0651(14) Uani 1 1 d . . .
C33 C 0.8386(2) 0.1064(3) 0.3089(2) 0.0831(19) Uani 1 1 d . . .
H33 H 0.8151 0.1217 0.3280 0.100 Uiso 1 1 calc R . .
C34 C 0.8767(2) 0.0743(3) 0.3312(2) 0.087(2) Uani 1 1 d . . .
H34 H 0.8785 0.0671 0.3652 0.104 Uiso 1 1 calc R . .
C35 C 0.9126(2) 0.0524(2) 0.30386(19) 0.0761(18) Uani 1 1 d . . .
C36 C 0.9061(2) 0.0606(2) 0.25363(18) 0.0701(15) Uani 1 1 d . . .
H36 H 0.9282 0.0439 0.2341 0.084 Uiso 1 1 calc R . .
C37 C 0.86732(19) 0.0931(2) 0.2312(2) 0.0689(15) Uani 1 1 d . . .
H37 H 0.8640 0.0989 0.1969 0.083 Uiso 1 1 calc R . .
C38 C 0.9796(2) 0.0215(2) 0.37037(18) 0.0802(19) Uani 1 1 d . . .
C39 C 0.9943(3) 0.0500(3) 0.4473(2) 0.098(2) Uani 1 1 d . . .
C40 C 1.0491(3) -0.0047(3) 0.4200(2) 0.098(2) Uani 1 1 d . . .
C41 C 0.61366(17) 0.20300(15) 0.28977(15) 0.0442(9) Uani 1 1 d . . .
C42 C 0.58581(16) 0.19226(15) 0.33232(14) 0.0418(9) Uani 1 1 d . . .
C43 C 0.53424(18) 0.20721(15) 0.33358(15) 0.0475(10) Uani 1 1 d . . .
H43 H 0.5159 0.2247 0.3064 0.057 Uiso 1 1 calc R . .
C44 C 0.50985(18) 0.19673(16) 0.37403(16) 0.0525(11) Uani 1 1 d . . .
H44 H 0.4749 0.2069 0.3744 0.063 Uiso 1 1 calc R . .
C45 C 0.53641(19) 0.17130(17) 0.41418(17) 0.0582(13) Uani 1 1 d . . .
C46 C 0.58818(19) 0.1567(2) 0.41343(17) 0.0654(15) Uani 1 1 d . . .
H46 H 0.6068 0.1395 0.4406 0.078 Uiso 1 1 calc R . .
C47 C 0.61173(18) 0.16761(17) 0.37261(16) 0.0547(12) Uani 1 1 d . . .
H47 H 0.6468 0.1579 0.3723 0.066 Uiso 1 1 calc R . .
C48 C 0.5171(2) 0.1234(2) 0.48723(19) 0.0714(17) Uani 1 1 d . . .
C49 C 0.5532(4) 0.0004(3) 0.2045(4) 0.167(4) Uani 1 1 d U . .
H49A H 0.5351 -0.0244 0.1817 0.250 Uiso 1 1 calc R . .
H49B H 0.5517 -0.0106 0.2383 0.250 Uiso 1 1 calc R . .
H49C H 0.5895 0.0028 0.1989 0.250 Uiso 1 1 calc R . .
C50 C 0.5573(3) 0.0949(2) 0.2191(3) 0.092(2) Uani 1 1 d U . .
H50A H 0.5560 0.0951 0.2545 0.138 Uiso 1 1 calc R . .
H50B H 0.5407 0.1257 0.2044 0.138 Uiso 1 1 calc R . .
H50C H 0.5935 0.0938 0.2131 0.138 Uiso 1 1 calc R . .
C51 C 0.4840(3) 0.0542(3) 0.1636(3) 0.107(2) Uani 1 1 d U . .
H51 H 0.4706 0.0874 0.1574 0.128 Uiso 1 1 calc R . .
N1 N 0.95866(19) 0.42313(17) 0.08632(16) 0.0838(17) Uani 1 1 d . . .
H1 H 0.9660 0.4503 0.1046 0.101 Uiso 1 1 calc R . .
N2 N 0.98465(19) 0.37625(16) 0.02170(15) 0.0749(15) Uani 1 1 d . . .
N3 N 1.02281(17) 0.45594(16) 0.04836(15) 0.0729(14) Uani 1 1 d . . .
N4 N 0.4801(2) 0.4173(2) -0.01877(17) 0.105(2) Uani 1 1 d . . .
H4A H 0.4484 0.4052 -0.0251 0.126 Uiso 1 1 calc R . .
N5 N 0.59078(17) -0.01444(16) 0.00907(16) 0.0759(15) Uani 1 1 d . . .
H5 H 0.6089 -0.0195 -0.0152 0.091 Uiso 1 1 calc R . .
N6 N 0.5928(2) 0.4669(2) 0.43019(16) 0.095(2) Uani 1 1 d . . .
H6A H 0.6084 0.4678 0.4606 0.114 Uiso 1 1 calc R . .
N7 N 0.95316(17) 0.0215(2) 0.32369(15) 0.0852(17) Uani 1 1 d . . .
H7A H 0.9634 -0.0012 0.3036 0.102 Uiso 1 1 calc R . .
N8 N 0.96283(19) 0.0506(2) 0.40452(15) 0.0892(18) Uani 1 1 d . . .
N9 N 1.0374(2) 0.0230(2) 0.45787(17) 0.106(2) Uani 1 1 d . . .
N10 N 1.02229(19) -0.0063(2) 0.37452(16) 0.0907(18) Uani 1 1 d . . .
N11 N 0.51075(17) 0.16310(17) 0.45536(15) 0.0748(15) Uani 1 1 d . . .
H11A H 0.4881 0.1863 0.4611 0.090 Uiso 1 1 calc R . .
N12 N 0.55206(17) 0.08764(17) 0.48129(15) 0.0718(14) Uani 1 1 d . . .
N13 N 0.5290(3) 0.0488(2) 0.1966(3) 0.1073(18) Uani 1 1 d U . .
O1 O 0.78214(13) 0.26989(12) 0.13624(11) 0.0605(9) Uani 1 1 d . . .
O2 O 0.76512(13) 0.34184(12) 0.17451(12) 0.0604(9) Uani 1 1 d . . .
O3 O 0.64664(14) 0.34689(13) 0.15657(11) 0.0682(10) Uani 1 1 d . . .
O4 O 0.58780(12) 0.28539(11) 0.15957(10) 0.0502(7) Uani 1 1 d . . .
O5 O 0.62604(13) 0.17298(12) 0.15422(11) 0.0594(9) Uani 1 1 d . . .
O6 O 0.69813(12) 0.17925(12) 0.11908(11) 0.0557(8) Uani 1 1 d . . .
O7 O 0.69764(16) 0.36259(12) 0.26061(11) 0.0667(10) Uani 1 1 d . . .
O8 O 0.6966(2) 0.29704(16) 0.31232(12) 0.1074(18) Uani 1 1 d . . .
O9 O 0.