####################################################################### 
# 
# This file contains crystal structure data downloaded from the 
# Cambridge Structural Database (CSD) hosted by the Cambridge 
# Crystallographic Data Centre (CCDC).
# 
# Full information about CCDC data access policies and citation 
# guidelines are available at http://www.ccdc.cam.ac.uk/access/V1 
# 
# Audit and citation data items may have been added by the CCDC. 
# Please retain this information to preserve the provenance of 
# this file and to allow appropriate attribution of the data. 
# 
#######################################################################

data_Co5-phase2
_audit_block_doi                 10.5517/cc13hpcn
_database_code_depnum_ccdc_archive 'CCDC 1027971'
loop_
_citation_id
_citation_doi
_citation_year
1 10.1016/j.molstruc.2015.02.073 2015
_audit_update_record             
;
2014-10-07 deposited with the CCDC.	2024-07-11 downloaded from the CCDC.
;

_audit_creation_method           SHELXL-97
_chemical_name_systematic        
; 
 ? 
;
_chemical_name_common            '[Co5 (OH)(H2O)2 (CH4O)4 (C33H15O6)3]'
_chemical_melting_point          ?
_chemical_formula_moiety         ?
_chemical_formula_sum            'C103 H66 Co5 O25'
_chemical_formula_weight         1998.21

loop_
_atom_type_symbol
_atom_type_description
_atom_type_scat_dispersion_real
_atom_type_scat_dispersion_imag
_atom_type_scat_source
C C 0.0033 0.0016 'International Tables Vol C Tables 4.2.6.8 and 6.1.1.4'
H H 0.0000 0.0000 'International Tables Vol C Tables 4.2.6.8 and 6.1.1.4'
O O 0.0106 0.0060 'International Tables Vol C Tables 4.2.6.8 and 6.1.1.4'
Co Co 0.3494 0.9721 'International Tables Vol C Tables 4.2.6.8 and 6.1.1.4'

_symmetry_cell_setting           Monoclinic
_symmetry_space_group_name_H-M   P21/c

loop_
_symmetry_equiv_pos_as_xyz
'x, y, z'
'-x, y+1/2, -z+1/2'
'-x, -y, -z'
'x, -y-1/2, z-1/2'

_cell_length_a                   21.498(4)
_cell_length_b                   36.910(7)
_cell_length_c                   20.059(4)
_cell_angle_alpha                90.00
_cell_angle_beta                 106.852(2)
_cell_angle_gamma                90.00
_cell_volume                     15234(5)
_cell_formula_units_Z            4
_cell_measurement_temperature    120(2)
_cell_measurement_reflns_used    ?
_cell_measurement_theta_min      ?
_cell_measurement_theta_max      ?

_exptl_crystal_description       block
_exptl_crystal_colour            violet
_exptl_crystal_size_max          0.34
_exptl_crystal_size_mid          0.28
_exptl_crystal_size_min          0.23
_exptl_crystal_density_meas      ?
_exptl_crystal_density_diffrn    0.871
_exptl_crystal_density_method    'not measured'
_exptl_crystal_F_000             4076
_exptl_absorpt_coefficient_mu    0.580
_exptl_absorpt_correction_type   ?
_exptl_absorpt_correction_T_min  ?
_exptl_absorpt_correction_T_max  ?
_exptl_absorpt_process_details   ?

_exptl_special_details           
; 
 ? 
;

_diffrn_ambient_temperature      120(2)
_diffrn_radiation_wavelength     0.71073
_diffrn_radiation_type           MoK\a
_diffrn_radiation_source         'fine-focus sealed tube'
_diffrn_radiation_monochromator  graphite
_diffrn_measurement_device_type  ?
_diffrn_measurement_method       ?
_diffrn_detector_area_resol_mean ?
_diffrn_reflns_number            101561
_diffrn_reflns_av_R_equivalents  0.0762
_diffrn_reflns_av_sigmaI/netI    0.0903
_diffrn_reflns_limit_h_min       -24
_diffrn_reflns_limit_h_max       24
_diffrn_reflns_limit_k_min       -42
_diffrn_reflns_limit_k_max       42
_diffrn_reflns_limit_l_min       -20
_diffrn_reflns_limit_l_max       23
_diffrn_reflns_theta_min         0.99
_diffrn_reflns_theta_max         24.34
_reflns_number_total             24779
_reflns_number_gt                12855
_reflns_threshold_expression     >2sigma(I)

_computing_data_collection       'Bruker SMART'
_computing_cell_refinement       'Bruker SMART'
_computing_data_reduction        'Bruker SAINT'
_computing_structure_solution    'Bruker SHELXTL'
_computing_structure_refinement  'Bruker SHELXTL'
_computing_molecular_graphics    'Bruker SHELXTL'
_computing_publication_material  'Bruker SHELXTL'

_refine_special_details          
; 
 Refinement of F^2^ against ALL reflections.  The weighted R-factor wR and 
 goodness of fit S are based on F^2^, conventional R-factors R are based 
 on F, with F set to zero for negative F^2^. The threshold expression of 
 F^2^ > 2sigma(F^2^) is used only for calculating R-factors(gt) etc. and is 
 not relevant to the choice of reflections for refinement.  R-factors based 
 on F^2^ are statistically about twice as large as those based on F, and R- 
 factors based on ALL data will be even larger. 
;

_refine_ls_structure_factor_coef Fsqd
_refine_ls_matrix_type           full
_refine_ls_weighting_scheme      calc
_refine_ls_weighting_details     
'calc w=1/[\s^2^(Fo^2^)+(0.1824P)^2^+0.0000P] where P=(Fo^2^+2Fc^2^)/3'
_atom_sites_solution_primary     direct
_atom_sites_solution_secondary   difmap
_atom_sites_solution_hydrogens   geom
_refine_ls_hydrogen_treatment    mixed
_refine_ls_extinction_method     none
_refine_ls_extinction_coef       ?
_refine_ls_number_reflns         24779
_refine_ls_number_parameters     1079
_refine_ls_number_restraints     1
_refine_ls_R_factor_all          0.1423
_refine_ls_R_factor_gt           0.0907
_refine_ls_wR_factor_ref         0.2890
_refine_ls_wR_factor_gt          0.2625
_refine_ls_goodness_of_fit_ref   1.000
_refine_ls_restrained_S_all      1.000
_refine_ls_shift/su_max          0.001
_refine_ls_shift/su_mean         0.000

loop_
_atom_site_label
_atom_site_type_symbol
_atom_site_fract_x
_atom_site_fract_y
_atom_site_fract_z
_atom_site_U_iso_or_equiv
_atom_site_adp_type
_atom_site_occupancy
_atom_site_symmetry_multiplicity
_atom_site_calc_flag
_atom_site_refinement_flags
_atom_site_disorder_assembly
_atom_site_disorder_group
Co1 Co 0.35708(4) 0.038400(19) 1.04073(5) 0.0475(3) Uani 1 1 d . . .
Co2 Co 0.19038(4) 0.038935(19) 0.92905(5) 0.0415(2) Uani 1 1 d . . .
Co3 Co 0.30017(4) 0.06009(2) 0.86095(5) 0.0476(3) Uani 1 1 d . . .
Co4 Co 0.30594(4) 0.12278(2) 1.09394(6) 0.0587(3) Uani 1 1 d . . .
Co5 Co 0.22177(6) 0.04333(3) 1.09676(7) 0.0757(4) Uani 1 1 d . . .
C1 C 0.2560(3) -0.01161(16) 0.8434(4) 0.0497(17) Uani 1 1 d . . .
C2 C 0.2574(3) -0.05023(15) 0.8215(3) 0.0456(16) Uani 1 1 d . . .
C3 C 0.3065(3) -0.06271(17) 0.7957(4) 0.065(2) Uani 1 1 d . . .
H3A H 0.3403 -0.0468 0.7924 0.078 Uiso 1 1 calc R . .
C4 C 0.3064(4) -0.09887(18) 0.7743(4) 0.068(2) Uani 1 1 d . . .
H4A H 0.3405 -0.1076 0.7574 0.082 Uiso 1 1 calc R . .
C5 C 0.2571(3) -0.12176(15) 0.7776(4) 0.0490(17) Uani 1 1 d . . .
C6 C 0.2086(4) -0.10883(17) 0.8038(4) 0.0589(19) Uani 1 1 d . . .
H6A H 0.1738 -0.1244 0.8052 0.071 Uiso 1 1 calc R . .
C7 C 0.2096(3) -0.07438(16) 0.8276(4) 0.0557(19) Uani 1 1 d . . .
H7A H 0.1774 -0.0667 0.8485 0.067 Uiso 1 1 calc R . .
C8 C 0.2541(3) -0.15852(17) 0.7530(4) 0.0501(17) Uani 1 1 d . . .
C9 C 0.2500(3) -0.18937(16) 0.7332(3) 0.0425(15) Uani 1 1 d . . .
C10 C 0.2429(3) -0.22678(14) 0.7151(3) 0.0365(14) Uani 1 1 d . . .
C11 C 0.2981(3) -0.24791(16) 0.7216(3) 0.0443(15) Uani 1 1 d . . .
H11A H 0.3400 -0.2373 0.7377 0.053 Uiso 1 1 calc R . .
C12 C 0.2917(3) -0.28525(14) 0.7041(3) 0.0388(14) Uani 1 1 d . . .
C13 C 0.2304(3) -0.30036(14) 0.6829(3) 0.0375(14) Uani 1 1 d . . .
H13A H 0.2259 -0.3256 0.6734 0.045 Uiso 1 1 calc R . .
C14 C 0.1819(3) -0.24260(15) 0.6910(3) 0.0402(15) Uani 1 1 d . . .
H14A H 0.1443 -0.2280 0.6853 0.048 Uiso 1 1 calc R . .
C15 C 0.3467(3) -0.30681(17) 0.7045(4) 0.0540(18) Uani 1 1 d . . .
C16 C 0.3893(3) -0.32630(17) 0.6986(4) 0.0582(19) Uani 1 1 d . . .
C17 C 0.4376(4) -0.3512(2) 0.6907(6) 0.0917(12) Uani 1 1 d . . .
C18 C 0.4203(4) -0.3878(2) 0.6767(5) 0.0917(12) Uani 1 1 d . . .
H18A H 0.3796 -0.3967 0.6791 0.110 Uiso 1 1 calc R . .
C19 C 0.4128(3) 0.11255(15) 1.0327(3) 0.0475(17) Uani 1 1 d . . .
C20 C 0.4721(3) 0.13568(15) 1.0380(3) 0.0426(15) Uani 1 1 d . . .
C21 C 0.4682(3) 0.17243(15) 1.0415(4) 0.0549(19) Uani 1 1 d . . .
H21A H 0.4274 0.1838 1.0361 0.066 Uiso 1 1 calc R . .
C22 C 0.5246(3) 0.19333(17) 1.0532(4) 0.066(2) Uani 1 1 d . . .
H22A H 0.5215 0.2190 1.0548 0.079 Uiso 1 1 calc R . .
C23 C 0.5847(3) 0.17742(16) 1.0623(3) 0.0477(16) Uani 1 1 d . . .
C24 C 0.5874(4) 0.14093(19) 1.0574(5) 0.077(3) Uani 1 1 d . . .
H24A H 0.6278 0.1293 1.0623 0.093 Uiso 1 1 calc R . .
C25 C 0.5306(3) 0.12043(16) 1.0450(5) 0.072(2) Uani 1 1 d . . .
H25A H 0.5334 0.0948 1.0415 0.086 Uiso 1 1 calc R . .
C26 C 0.6422(3) 0.19887(16) 1.0770(4) 0.0501(17) Uani 1 1 d . . .
C27 C 0.6923(3) 0.21575(16) 1.0949(3) 0.0476(16) Uani 1 1 d . . .
C28 C 0.7534(3) 0.23404(15) 1.1203(3) 0.0435(16) Uani 1 1 d . . .
C29 C 0.7569(3) 0.27115(15) 1.1314(3) 0.0468(16) Uani 1 1 d . . .
H29A H 0.7183 0.2853 1.1187 0.056 Uiso 1 1 calc R . .
C30 C 0.8170(3) 0.28789(15) 1.1613(3) 0.0444(16) Uani 1 1 d . . .
C31 C 0.8744(3) 0.26834(16) 1.1777(3) 0.0450(16) Uani 1 1 d . . .
H31A H 0.9151 0.2800 1.1969 0.054 Uiso 1 1 calc R . .
C32 C 0.8708(3) 0.23014(16) 1.1647(3) 0.0447(16) Uani 1 1 d . . .
C33 C 0.8106(3) 0.21376(16) 1.1380(3) 0.0459(16) Uani 1 1 d . . .
H33A H 0.8083 0.1882 1.1317 0.055 Uiso 1 1 calc R . .
C34 C 0.8184(3) 0.32599(18) 1.1770(4) 0.0559(18) Uani 1 1 d . . .
C35 C 0.8199(4) 0.35608(19) 1.1998(5) 0.076(2) Uani 1 1 d . . .
C36 C 0.8191(5) 0.3899(3) 1.2329(6) 0.1151(15) Uani 1 1 d . . .
C37 C 0.9293(4) 0.21007(18) 1.1768(4) 0.0536(18) Uani 1 1 d . . .
C38 C 0.9782(4) 0.19269(19) 1.1816(4) 0.063(2) Uani 1 1 d . . .
C39 C 0.2563(4) -0.01985(15) 1.0272(3) 0.0469(17) Uani 1 1 d . . .
C40 C 0.2368(3) -0.05864(16) 1.0223(3) 0.0464(16) Uani 1 1 d . . .
C41 C 0.2838(3) -0.08484(16) 1.0338(4) 0.065(2) Uani 1 1 d . . .
H41A H 0.3280 -0.0779 1.0424 0.078 Uiso 1 1 calc R . .
C42 C 0.2683(3) -0.12040(16) 1.0331(4) 0.071(2) Uani 1 1 d . . .
H42A H 0.3021 -0.1379 1.0443 0.085 Uiso 1 1 calc R . .
C43 C 0.2043(3) -0.13194(14) 1.0165(3) 0.0440(16) Uani 1 1 d . . .
C44 C 0.1556(3) -0.10532(17) 1.0033(4) 0.0568(19) Uani 1 1 d . . .
H44A H 0.1112 -0.1121 0.9921 0.068 Uiso 1 1 calc R . .
C45 C 0.1728(3) -0.06904(15) 1.0065(4) 0.0516(18) Uani 1 1 d . . .
H45A H 0.1397 -0.0511 0.9978 0.062 Uiso 1 1 calc R . .
C46 C 0.1887(3) -0.16988(15) 1.0150(3) 0.0427(16) Uani 1 1 d . . .
C47 C 0.1829(3) -0.20165(16) 1.0146(3) 0.0431(15) Uani 1 1 d . . .
C48 C 0.1798(3) -0.24035(15) 1.0166(3) 0.0436(16) Uani 1 1 d . . .
C49 C 0.2363(3) -0.26058(15) 1.0454(3) 0.0448(16) Uani 1 1 d . . .
H49A H 0.2764 -0.2484 1.0649 0.054 Uiso 1 1 calc R . .
C50 C 0.2346(3) -0.29794(16) 1.0459(3) 0.0451(16) Uani 1 1 d . . .
C51 C 0.1759(3) -0.31614(15) 1.0132(3) 0.0474(17) Uani 1 1 d . . .
H51A H 0.1749 -0.3419 1.0114 0.057 Uiso 1 1 calc R . .
C52 C 0.1192(3) -0.29623(15) 0.9832(3) 0.0456(16) Uani 1 1 d . . .
C53 C 0.1199(3) -0.25927(15) 0.9848(3) 0.0447(16) Uani 1 1 d . . .
H53A H 0.0810 -0.2460 0.9649 0.054 Uiso 1 1 calc R . .
C54 C 0.1713(3) 0.08787(15) 0.8022(4) 0.0468(10) Uani 1 1 d . . .
C55 C 0.1227(3) 0.10962(16) 0.7472(4) 0.0513(18) Uani 1 1 d . . .
C56 C 0.0644(3) 0.11946(17) 0.7578(4) 0.0536(18) Uani 1 1 d . . .
H56A H 0.0560 0.1128 0.8001 0.064 Uiso 1 1 calc R . .
C57 C 0.0191(3) 0.13833(18) 0.7095(4) 0.061(2) Uani 1 1 d . . .
H57A H -0.0210 0.1444 0.7178 0.073 Uiso 1 1 calc R . .
C58 C 0.0306(3) 0.14880(17) 0.6485(4) 0.0560(19) Uani 1 1 d . . .
C59 C 0.0895(4) 0.1401(2) 0.6368(5) 0.086(3) Uani 1 1 d . . .
H59A H 0.0983 0.1479 0.5953 0.103 Uiso 1 1 calc R . .
C60 C 0.1358(4) 0.1197(2) 0.6860(5) 0.079(2) Uani 1 1 d . . .
H60A H 0.1756 0.1130 0.6776 0.094 Uiso 1 1 calc R . .
C61 C 0.0194(4) -0.33122(17) 0.9041(4) 0.0559(18) Uani 1 1 d . . .
C62 C 0.0606(3) -0.31515(15) 0.9418(3) 0.0489(17) Uani 1 1 d . . .
C63 C 0.1709(3) 0.10791(18) 0.9947(4) 0.0561(19) Uani 1 1 d . . .
C64 C 0.1100(3) 0.12852(15) 0.9598(4) 0.0497(17) Uani 1 1 d . . .
C65 C 0.0498(3) 0.11173(19) 0.9481(4) 0.061(2) Uani 1 1 d . . .
H65A H 0.0472 0.0870 0.9600 0.073 Uiso 1 1 calc R . .
C66 C -0.0051(3) 0.13111(19) 0.9197(4) 0.0600(19) Uani 1 1 d . . .
H66A H -0.0460 0.1193 0.9110 0.072 Uiso 1 1 calc R . .
C67 C -0.0040(3) 0.16783(18) 0.9026(3) 0.0500(17) Uani 1 1 d . . .
C68 C 0.0556(3) 0.18392(18) 0.9133(4) 0.067(2) Uani 1 1 d . . .
H68A H 0.0584 0.2086 0.9008 0.081 Uiso 1 1 calc R . .
C69 C 0.1115(3) 0.1641(2) 0.9424(5) 0.078(3) Uani 1 1 d . . .
H69A H 0.1525 0.1757 0.9505 0.094 Uiso 1 1 calc R . .
C70 C -0.0621(3) 0.18834(17) 0.8737(4) 0.0529(18) Uani 1 1 d . . .
C71 C -0.1124(3) 0.20429(16) 0.8503(3) 0.0457(16) Uani 1 1 d . . .
C72 C 0.1747(3) -0.27903(15) 0.6752(3) 0.0362(14) Uani 1 1 d . . .
C73 C 0.4173(4) 0.10825(19) 1.2202(5) 0.065(2) Uani 1 1 d . . .
C74 C 0.4832(4) 0.12193(17) 1.2665(4) 0.0575(19) Uani 1 1 d . . .
C75 C 0.5150(3) 0.1474(2) 1.2415(4) 0.068(2) Uani 1 1 d . . .
H75A H 0.4972 0.1562 1.1954 0.081 Uiso 1 1 calc R . .
C76 C 0.5747(4) 0.1611(2) 1.2832(4) 0.071(2) Uani 1 1 d . . .
H76A H 0.5971 0.1786 1.2642 0.085 Uiso 1 1 calc R . .
C77 C 0.6004(4) 0.15015(17) 1.3479(4) 0.0601(19) Uani 1 1 d . . .
C78 C 0.3396(4) -0.33349(17) 1.1092(4) 0.0581(19) Uani 1 1 d . . .
C79 C 0.2912(3) -0.31802(16) 1.0785(3) 0.0461(16) Uani 1 1 d . . .
C80 C 0.1975(5) -0.0109(2) 1.1638(5) 0.083(3) Uani 1 1 d . . .
C81 C 0.8083(5) 0.4543(3) 1.2996(6) 0.1151(15) Uani 1 1 d . . .
C82 C 0.8652(5) 0.4397(3) 1.3024(6) 0.1151(15) Uani 1 1 d . . .
H82A H 0.9034 0.4512 1.3306 0.138 Uiso 1 1 calc R . .
C83 C 0.8720(5) 0.4094(3) 1.2672(6) 0.1151(15) Uani 1 1 d . . .
H83A H 0.9140 0.4017 1.2665 0.138 Uiso 1 1 calc R . .
C84 C 0.7659(5) 0.4015(3) 1.2375(6) 0.1151(15) Uani 1 1 d . . .
H84A H 0.7289 0.3863 1.2215 0.138 Uiso 1 1 calc R . .
C85 C 0.7570(5) 0.4365(3) 1.2654(6) 0.1151(15) Uani 1 1 d . . .
H85A H 0.7147 0.4462 1.2590 0.138 Uiso 1 1 calc R . .
C86 C 1.0343(5) 0.1721(3) 1.1830(8) 0.145(2) Uani 1 1 d . . .
C87 C 1.0904(5) 0.1855(3) 1.1985(8) 0.145(2) Uani 1 1 d . . .
H87A H 1.0961 0.2099 1.2146 0.174 Uiso 1 1 calc R . .
C88 C 1.1480(5) 0.1652(3) 1.1931(8) 0.145(2) Uani 1 1 d . . .
H88A H 1.1883 0.1775 1.2004 0.174 Uiso 1 1 calc R . .
C89 C 1.0860(5) 0.1201(3) 1.1593(8) 0.145(2) Uani 1 1 d . . .
H89A H 1.0801 0.0964 1.1399 0.174 Uiso 1 1 calc R . .
C90 C 1.0310(5) 0.1392(3) 1.1649(8) 0.145(2) Uani 1 1 d . . .
H90A H 0.9903 0.1271 1.1548 0.174 Uiso 1 1 calc R . .
C91 C 0.4964(4) -0.3379(2) 0.6836(5) 0.0917(12) Uani 1 1 d . . .
H91A H 0.5070 -0.3129 0.6893 0.110 Uiso 1 1 calc R . .
C92 C 0.4651(4) -0.4107(2) 0.6590(5) 0.0917(12) Uani 1 1 d . . .
H92A H 0.4542 -0.4353 0.6481 0.110 Uiso 1 1 calc R . .
C93 C 0.5119(5) 0.1083(3) 1.3311(6) 0.131(5) Uani 1 1 d . . .
H93A H 0.4913 0.0891 1.3482 0.158 Uiso 1 1 calc R . .
C94 C 0.5704(5) 0.1219(3) 1.3727(6) 0.122(4) Uani 1 1 d . . .
H94A H 0.5899 0.1121 1.4177 0.147 Uiso 1 1 calc R . .
C95 C 0.5722(4) -0.4239(2) 0.6361(6) 0.0917(12) Uani 1 1 d D . .
C96 C 0.5244(4) -0.3978(2) 0.6572(6) 0.0917(12) Uani 1 1 d D . .
C97 C 0.5389(4) -0.3628(2) 0.6676(5) 0.0917(12) Uani 1 1 d . . .
H97A H 0.5796 -0.3544 0.6640 0.110 Uiso 1 1 calc R . .
C98 C 1.2006(4) 0.1128(2) 1.1702(5) 0.075(2) Uani 1 1 d . . .
C99 C 1.1446(5) 0.1334(3) 1.1796(8) 0.145(2) Uani 1 1 d . . .
C100 C 0.4195(3) -0.02443(16) 0.9744(4) 0.062(2) Uani 1 1 d . . .
H10J H 0.4428 -0.0283 0.9396 0.093 Uiso 1 1 calc R . .
H10K H 0.3786 -0.0381 0.9609 0.093 Uiso 1 1 calc R . .
H10L H 0.4463 -0.0328 1.0200 0.093 Uiso 1 1 calc R . .
C101 C 0.4884(4) 0.0297(2) 1.1672(6) 0.098(3) Uani 1 1 d . . .
H10A H 0.5065 0.0139 1.2075 0.147 Uiso 1 1 calc R . .
H10B H 0.4866 0.0546 1.1831 0.147 Uiso 1 1 calc R . .
H10C H 0.5161 0.0287 1.1361 0.147 Uiso 1 1 calc R . .
C102 C 0.0554(4) 0.0158(2) 0.8413(5) 0.0875(15) Uani 1 1 d . . .
H10D H 0.0148 0.0049 0.8448 0.131 Uiso 1 1 calc R . .
H10E H 0.0734 0.0008 0.8111 0.131 Uiso 1 1 calc R . .
H10F H 0.0466 0.0402 0.8217 0.131 Uiso 1 1 calc R . .
C103 C 0.2548(4) 0.2031(2) 1.0885(6) 0.1078(19) Uani 1 1 d . . .
H10G H 0.2676 0.2286 1.0877 0.162 Uiso 1 1 calc R . .
H10H H 0.2390 0.1989 1.1290 0.162 Uiso 1 1 calc R . .
H10I H 0.2202 0.1975 1.0458 0.162 Uiso 1 1 calc R . .
O1 O 0.28454(18) 0.05965(9) 0.9528(2) 0.0428(10) Uani 1 1 d . . .
O2 O 0.3053(2) 0.06599(11) 1.1003(3) 0.0594(13) Uani 1 1 d . . .
O3 O 0.3142(2) -0.01172(10) 1.0412(3) 0.0575(13) Uani 1 1 d . . .
O4 O 0.42239(19) 0.07898(10) 1.0404(2) 0.0540(12) Uani 1 1 d . . .
O5 O 0.4260(3) 0.01803(13) 1.1316(3) 0.0839(18) Uani 1 1 d . . .
O6 O 0.4060(2) 0.01275(10) 0.9780(3) 0.0584(13) Uani 1 1 d . . .
O7 O 0.0971(3) 0.01763(15) 0.9033(3) 0.0875(15) Uani 1 1 d . . .
O8 O 0.2103(2) 0.00421(10) 1.0140(2) 0.0513(12) Uani 1 1 d . . .
O9 O 0.1669(2) 0.07430(11) 1.0030(2) 0.0521(12) Uani 1 1 d . . .
O10 O 0.2128(2) -0.00221(10) 0.8702(2) 0.0473(11) Uani 1 1 d . . .
O11 O 0.15553(19) 0.07686(10) 0.8521(2) 0.0468(10) Uani 1 1 d . . .
O12 O 0.2990(2) 0.00921(10) 0.8320(3) 0.0546(12) Uani 1 1 d . . .
O13 O 0.6269(3) -0.41218(14) 0.6489(4) 0.093(2) Uani 1 1 d . . .
O14 O 0.2273(2) 0.08319(12) 0.7918(3) 0.0643(14) Uani 1 1 d . . .
O15 O 0.3085(3) 0.18081(14) 1.0928(4) 0.1078(19) Uani 1 1 d . . .
O16 O 0.3917(2) 0.12659(12) 1.1693(3) 0.0588(13) Uani 1 1 d . . .
O17 O 0.2478(3) 0.12994(15) 1.1619(4) 0.097(2) Uani 1 1 d . . .
O18 O 0.2230(2) 0.12568(12) 1.0116(3) 0.0814(18) Uani 1 1 d . . .
O19 O 0.35759(19) 0.12752(10) 1.0200(2) 0.0517(12) Uani 1 1 d . . .
O20 O 0.1479(3) 0.00472(16) 1.1226(3) 0.0948(19) Uani 1 1 d . . .
O21 O 0.1946(4) 0.07946(16) 1.1649(5) 0.151(4) Uani 1 1 d . . .
O22 O 0.2563(3) 0.00339(14) 1.1765(4) 0.093(2) Uani 1 1 d . . .
O23 O 0.3940(3) 0.08041(14) 1.2417(3) 0.0852(18) Uani 1 1 d . . .
O24 O 0.5513(3) -0.45360(14) 0.6124(3) 0.0856(17) Uani 1 1 d . . .
O25 O 0.30102(16) 0.06122(8) 1.19152(17) 0.0254(8) Uiso 1 1 d . . .

loop_
_atom_site_aniso_label
_atom_site_aniso_U_11
_atom_site_aniso_U_22
_atom_site_aniso_U_33
_atom_site_aniso_U_23
_atom_site_aniso_U_13
_atom_site_aniso_U_12
Co1 0.0409(5) 0.0208(4) 0.0739(7) 0.0054(4) 0.0059(4) 0.0020(3)
Co2 0.0313(5) 0.0236(4) 0.0666(6) 0.0050(4) 0.0095(4) 0.0031(3)
Co3 0.0301(5) 0.0308(4) 0.0792(7) 0.0018(4) 0.0115(4) -0.0020(3)
Co4 0.0420(6) 0.0326(5) 0.0988(8) -0.0142(5) 0.0162(5) -0.0009(