####################################################################### 
# 
# This file contains crystal structure data downloaded from the 
# Cambridge Structural Database (CSD) hosted by the Cambridge 
# Crystallographic Data Centre (CCDC).
# 
# Full information about CCDC data access policies and citation 
# guidelines are available at http://www.ccdc.cam.ac.uk/access/V1 
# 
# Audit and citation data items may have been added by the CCDC. 
# Please retain this information to preserve the provenance of 
# this file and to allow appropriate attribution of the data. 
# 
#######################################################################

data_Co5-phase1
_audit_block_doi                 10.5517/cc13hpbm
_database_code_depnum_ccdc_archive 'CCDC 1027970'
loop_
_citation_id
_citation_doi
_citation_year
1 10.1016/j.molstruc.2015.02.073 2015
_audit_update_record             
;
2014-10-07 deposited with the CCDC.	2024-07-11 downloaded from the CCDC.
;

_audit_creation_method           SHELXL-97
_chemical_name_systematic        
; 
 ? 
;
_chemical_name_common            '[Co5 (OH)(H2O) (C3H7NO)4 (C33H15O6)3]'
_chemical_melting_point          ?
_chemical_formula_moiety         'C111 H76 Co5 N4 O24'
_chemical_formula_sum            'C111 H76 Co5 N4 O24'
_chemical_formula_weight         2144.41

loop_
_atom_type_symbol
_atom_type_description
_atom_type_scat_dispersion_real
_atom_type_scat_dispersion_imag
_atom_type_scat_source
C C 0.0033 0.0016 'International Tables Vol C Tables 4.2.6.8 and 6.1.1.4'
H H 0.0000 0.0000 'International Tables Vol C Tables 4.2.6.8 and 6.1.1.4'
N N 0.0061 0.0033 'International Tables Vol C Tables 4.2.6.8 and 6.1.1.4'
O O 0.0106 0.0060 'International Tables Vol C Tables 4.2.6.8 and 6.1.1.4'
Co Co 0.3494 0.9721 'International Tables Vol C Tables 4.2.6.8 and 6.1.1.4'

_symmetry_cell_setting           Monoclinic
_symmetry_space_group_name_H-M   C2/c

loop_
_symmetry_equiv_pos_as_xyz
'x, y, z'
'-x, y, -z+1/2'
'x+1/2, y+1/2, z'
'-x+1/2, y+1/2, -z+1/2'
'-x, -y, -z'
'x, -y, z-1/2'
'-x+1/2, -y+1/2, -z'
'x+1/2, -y+1/2, z-1/2'

_cell_length_a                   25.056(3)
_cell_length_b                   36.884(4)
_cell_length_c                   19.669(2)
_cell_angle_alpha                90.00
_cell_angle_beta                 123.272(2)
_cell_angle_gamma                90.00
_cell_volume                     15198(3)
_cell_formula_units_Z            4
_cell_measurement_temperature    120(2)
_cell_measurement_reflns_used    ?
_cell_measurement_theta_min      ?
_cell_measurement_theta_max      ?

_exptl_crystal_description       block
_exptl_crystal_colour            violet
_exptl_crystal_size_max          0.40
_exptl_crystal_size_mid          0.30
_exptl_crystal_size_min          0.29
_exptl_crystal_density_meas      ?
_exptl_crystal_density_diffrn    0.937
_exptl_crystal_density_method    'not measured'
_exptl_crystal_F_000             4388
_exptl_absorpt_coefficient_mu    0.585
_exptl_absorpt_correction_type   ?
_exptl_absorpt_correction_T_min  0.7996
_exptl_absorpt_correction_T_max  0.8486
_exptl_absorpt_process_details   ?

_exptl_special_details           
; 
 ? 
;

_diffrn_ambient_temperature      120(2)
_diffrn_radiation_wavelength     0.71073
_diffrn_radiation_type           MoK\a
_diffrn_radiation_source         'fine-focus sealed tube'
_diffrn_radiation_monochromator  graphite
_diffrn_measurement_device_type  ?
_diffrn_measurement_method       ?
_diffrn_detector_area_resol_mean ?
_diffrn_reflns_number            89306
_diffrn_reflns_av_R_equivalents  0.0691
_diffrn_reflns_av_sigmaI/netI    0.0490
_diffrn_reflns_limit_h_min       -29
_diffrn_reflns_limit_h_max       29
_diffrn_reflns_limit_k_min       -43
_diffrn_reflns_limit_k_max       43
_diffrn_reflns_limit_l_min       -23
_diffrn_reflns_limit_l_max       23
_diffrn_reflns_theta_min         1.66
_diffrn_reflns_theta_max         25.00
_reflns_number_total             13391
_reflns_number_gt                9428
_reflns_threshold_expression     >2sigma(I)

_computing_data_collection       'Bruker SMART'
_computing_cell_refinement       'Bruker SMART'
_computing_data_reduction        'Bruker SAINT'
_computing_structure_solution    'Bruker SHELXTL'
_computing_structure_refinement  'Bruker SHELXTL'
_computing_molecular_graphics    'Bruker SHELXTL'
_computing_publication_material  'Bruker SHELXTL'

_refine_special_details          
; 
 Refinement of F^2^ against ALL reflections.  The weighted R-factor wR and 
 goodness of fit S are based on F^2^, conventional R-factors R are based 
 on F, with F set to zero for negative F^2^. The threshold expression of 
 F^2^ > 2sigma(F^2^) is used only for calculating R-factors(gt) etc. and is 
 not relevant to the choice of reflections for refinement.  R-factors based 
 on F^2^ are statistically about twice as large as those based on F, and R- 
 factors based on ALL data will be even larger. 
;

_refine_ls_structure_factor_coef Fsqd
_refine_ls_matrix_type           full
_refine_ls_weighting_scheme      calc
_refine_ls_weighting_details     
'calc w=1/[\s^2^(Fo^2^)+(0.1418P)^2^+0.0000P] where P=(Fo^2^+2Fc^2^)/3'
_atom_sites_solution_primary     direct
_atom_sites_solution_secondary   difmap
_atom_sites_solution_hydrogens   geom
_refine_ls_hydrogen_treatment    mixed
_refine_ls_extinction_method     none
_refine_ls_extinction_coef       ?
_refine_ls_number_reflns         13391
_refine_ls_number_parameters     635
_refine_ls_number_restraints     3
_refine_ls_R_factor_all          0.0877
_refine_ls_R_factor_gt           0.0665
_refine_ls_wR_factor_ref         0.2025
_refine_ls_wR_factor_gt          0.1910
_refine_ls_goodness_of_fit_ref   1.006
_refine_ls_restrained_S_all      1.020
_refine_ls_shift/su_max          0.001
_refine_ls_shift/su_mean         0.000

loop_
_atom_site_label
_atom_site_type_symbol
_atom_site_fract_x
_atom_site_fract_y
_atom_site_fract_z
_atom_site_U_iso_or_equiv
_atom_site_adp_type
_atom_site_occupancy
_atom_site_symmetry_multiplicity
_atom_site_calc_flag
_atom_site_refinement_flags
_atom_site_disorder_assembly
_atom_site_disorder_group
Co1 Co 0.59880(2) 0.213954(11) 0.75703(3) 0.03310(16) Uani 1 1 d . . .
Co2 Co 0.50174(2) 0.176349(13) 0.58080(3) 0.04075(18) Uani 1 1 d . . .
Co3 Co 0.5000 0.14626(2) 0.7500 0.0663(3) Uani 1 2 d SDU . .
O1 O 0.49531(12) 0.22727(7) 0.54152(16) 0.0485(7) Uani 1 1 d . . .
O2 O 0.56700(11) 0.25160(6) 0.66395(16) 0.0422(6) Uani 1 1 d . . .
O3 O 0.04758(19) 0.65103(12) 0.0638(3) 0.1149(18) Uani 1 1 d . . .
O4 O 0.0836(2) 0.65498(13) -0.0101(3) 0.1108(16) Uani 1 1 d U . .
O5 O 0.85946(15) 0.67818(8) 0.64253(17) 0.0564(8) Uani 1 1 d . . .
O6 O 0.41402(15) 0.12625(8) 0.6842(2) 0.0690(9) Uani 1 1 d . . .
O7 O 0.58310(13) 0.15746(9) 0.60298(18) 0.0642(9) Uani 1 1 d . . .
O8 O 0.65088(11) 0.18313(7) 0.72381(17) 0.0460(7) Uani 1 1 d . . .
O9 O 0.55182(10) 0.24561(6) 0.80058(15) 0.0342(6) Uani 1 1 d . . .
O10 O 0.51278(11) 0.18554(7) 0.68706(17) 0.0455(6) Uani 1 1 d U . .
O11 O 0.5079(3) 0.1130(2) 0.6530(5) 0.207(4) Uani 1 1 d D . .
O12 O 0.67753(11) 0.24775(7) 0.82805(17) 0.0467(7) Uani 1 1 d . . .
N1 N 0.78096(17) 0.25562(13) 0.9272(3) 0.0737(12) Uani 1 1 d . . .
C1 C 0.52646(17) 0.25368(9) 0.5883(2) 0.0388(9) Uani 1 1 d . . .
C2 C 0.51399(18) 0.29049(10) 0.5497(2) 0.0423(9) Uani 1 1 d . . .
C3 C 0.4721(2) 0.29545(11) 0.4681(3) 0.0649(14) Uani 1 1 d . . .
H3 H 0.4504 0.2751 0.4344 0.078 Uiso 1 1 calc R . .
C4 C 0.4608(2) 0.32957(11) 0.4335(3) 0.0682(14) Uani 1 1 d . . .
H4 H 0.4317 0.3323 0.3765 0.082 Uiso 1 1 calc R . .
C5 C 0.49087(18) 0.35932(10) 0.4802(2) 0.0432(9) Uani 1 1 d . . .
C6 C 0.5351(2) 0.35444(11) 0.5646(3) 0.0607(12) Uani 1 1 d . . .
H6 H 0.5576 0.3747 0.5982 0.073 Uiso 1 1 calc R . .
C7 C 0.5457(2) 0.32017(11) 0.5981(3) 0.0575(12) Uani 1 1 d . . .
H7 H 0.5751 0.3170 0.6549 0.069 Uiso 1 1 calc R . .
C8 C 0.48076(18) 0.39566(10) 0.4474(2) 0.0438(9) Uani 1 1 d . . .
C9 C 0.47521(16) 0.42659(9) 0.4264(2) 0.0357(8) Uani 1 1 d . . .
C10 C 0.47267(16) 0.46479(9) 0.40923(19) 0.0307(7) Uani 1 1 d . . .
C11 C 0.41438(16) 0.48309(9) 0.3670(2) 0.0330(8) Uani 1 1 d . . .
H11 H 0.3756 0.4702 0.3460 0.040 Uiso 1 1 calc R . .
C12 C 0.41353(16) 0.52040(9) 0.35583(19) 0.0321(8) Uani 1 1 d . . .
C13 C 0.47055(16) 0.53912(9) 0.3871(2) 0.0337(8) Uani 1 1 d . . .
H13 H 0.4697 0.5646 0.3797 0.040 Uiso 1 1 calc R . .
C14 C 0.52867(16) 0.52120(9) 0.4289(2) 0.0322(8) Uani 1 1 d . . .
C15 C 0.52938(16) 0.48367(9) 0.4396(2) 0.0316(8) Uani 1 1 d . . .
H15 H 0.5689 0.4710 0.4678 0.038 Uiso 1 1 calc R . .
C16 C 0.35468(18) 0.54018(10) 0.3092(2) 0.0418(9) Uani 1 1 d . . .
C17 C 0.30858(19) 0.55857(12) 0.2691(3) 0.0510(10) Uani 1 1 d . . .
C18 C 0.2529(2) 0.58058(12) 0.2162(3) 0.0563(12) Uani 1 1 d . . .
C19 C 0.2077(2) 0.58753(15) 0.2339(3) 0.0745(15) Uani 1 1 d . . .
H19 H 0.2124 0.5779 0.2817 0.089 Uiso 1 1 calc R . .
C20 C 0.1549(2) 0.60893(16) 0.1806(4) 0.0820(17) Uani 1 1 d . . .
H20 H 0.1245 0.6144 0.1936 0.098 Uiso 1 1 calc R . .
C21 C 0.1462(2) 0.62210(13) 0.1107(3) 0.0651(13) Uani 1 1 d . . .
C22 C 0.1900(3) 0.61390(15) 0.0927(3) 0.0800(17) Uani 1 1 d . . .
H22 H 0.1839 0.6225 0.0433 0.096 Uiso 1 1 calc R . .
C23 C 0.2430(2) 0.59342(16) 0.1448(3) 0.0771(16) Uani 1 1 d . . .
H23 H 0.2731 0.5881 0.1310 0.093 Uiso 1 1 calc R . .
C24 C 0.0886(3) 0.64475(13) 0.0515(4) 0.0732(14) Uani 1 1 d U . .
C25 C 0.58712(18) 0.54118(10) 0.4612(2) 0.0410(9) Uani 1 1 d . . .
C26 C 0.63396(19) 0.55938(11) 0.4878(2) 0.0475(10) Uani 1 1 d . . .
C27 C 0.69072(19) 0.58118(11) 0.5225(3) 0.0515(11) Uani 1 1 d . . .
C28 C 0.6884(2) 0.61798(12) 0.5208(3) 0.0588(12) Uani 1 1 d . . .
H28 H 0.6482 0.6299 0.4937 0.071 Uiso 1 1 calc R . .
C29 C 0.7442(2) 0.63855(12) 0.5583(3) 0.0609(12) Uani 1 1 d . . .
H29 H 0.7411 0.6642 0.5557 0.073 Uiso 1 1 calc R . .
C30 C 0.8028(2) 0.62292(11) 0.5986(3) 0.0531(11) Uani 1 1 d . . .
C31 C 0.8044(3) 0.58561(14) 0.5976(5) 0.116(3) Uani 1 1 d . . .
H31 H 0.8444 0.5735 0.6247 0.140 Uiso 1 1 calc R . .
C32 C 0.7493(3) 0.56579(15) 0.5583(5) 0.124(3) Uani 1 1 d . . .
H32 H 0.7522 0.5402 0.5558 0.148 Uiso 1 1 calc R . .
C33 C 0.8629(2) 0.64425(11) 0.6444(3) 0.0509(10) Uani 1 1 d . . .
C34 C 0.5000 0.26144(12) 0.7500 0.0312(11) Uani 1 2 d S . .
C35 C 0.5000 0.30221(12) 0.7500 0.0312(11) Uani 1 2 d S . .
C36 C 0.44278(17) 0.32132(9) 0.7051(2) 0.0377(9) Uani 1 1 d . . .
H36 H 0.4036 0.3085 0.6742 0.045 Uiso 1 1 calc R . .
C37 C 0.44257(17) 0.35895(9) 0.7052(2) 0.0400(9) Uani 1 1 d . . .
H37 H 0.4035 0.3719 0.6748 0.048 Uiso 1 1 calc R . .
C38 C 0.5000 0.37737(12) 0.7500 0.0353(11) Uani 1 2 d S . .
C39 C 0.5000 0.41699(12) 0.7500 0.0335(11) Uani 1 2 d S . .
C40 C 0.5000 0.44933(13) 0.7500 0.0318(11) Uani 1 2 d S . .
C41 C 0.5000 0.48842(12) 0.7500 0.0276(10) Uani 1 2 d S . .
C42 C 0.44327(16) 0.50728(9) 0.7201(2) 0.0297(7) Uani 1 1 d . . .
H42 H 0.4043 0.4944 0.6981 0.036 Uiso 1 1 calc R . .
C44 C 0.5000 0.56395(12) 0.7500 0.0331(11) Uani 1 2 d S . .
H44 H 0.5000 0.5897 0.7500 0.040 Uiso 1 2 calc SR . .
C43 C 0.44358(16) 0.54510(9) 0.7223(2) 0.0301(7) Uani 1 1 d . . .
C45 C 0.38677(17) 0.56487(10) 0.7006(2) 0.0377(8) Uani 1 1 d . . .
C46 C 0.34150(19) 0.58150(11) 0.6889(2) 0.0459(9) Uani 1 1 d . . .
C47 C 0.29016(18) 0.60209(11) 0.6820(3) 0.0479(10) Uani 1 1 d . . .
C48 C 0.2314(2) 0.60404(15) 0.6096(3) 0.0746(16) Uani 1 1 d . . .
H48 H 0.2246 0.5920 0.5628 0.089 Uiso 1 1 calc R . .
C49 C 0.63762(18) 0.16263(11) 0.6663(3) 0.0472(10) Uani 1 1 d . . .
C50 C 0.69126(18) 0.14183(11) 0.6707(3) 0.0492(10) Uani 1 1 d . . .
C51 C 0.75032(18) 0.13980(13) 0.7443(3) 0.0573(12) Uani 1 1 d . . .
H51 H 0.7570 0.1521 0.7908 0.069 Uiso 1 1 calc R . .
C52 C 0.79889(19) 0.11995(12) 0.7496(3) 0.0578(12) Uani 1 1 d . . .
H52 H 0.8389 0.1184 0.8001 0.069 Uiso 1 1 calc R . .
C53 C 0.6821(2) 0.12348(14) 0.6050(3) 0.0714(15) Uani 1 1 d . . .
H53 H 0.6413 0.1240 0.5553 0.086 Uiso 1 1 calc R . .
C54 C 0.7326(2) 0.23700(13) 0.8675(3) 0.0627(13) Uani 1 1 d . . .
C55 C 0.7733(3) 0.28957(19) 0.9511(5) 0.118(3) Uani 1 1 d . . .
H55A H 0.7957 0.3077 0.9393 0.177 Uiso 1 1 calc R . .
H55B H 0.7910 0.2894 1.0096 0.177 Uiso 1 1 calc R . .
H55C H 0.7278 0.2956 0.9212 0.177 Uiso 1 1 calc R . .
C56 C 0.8466(3) 0.2401(2) 0.9742(5) 0.137(3) Uani 1 1 d . . .
H56A H 0.8545 0.2287 1.0240 0.205 Uiso 1 1 calc R . .
H56B H 0.8779 0.2594 0.9886 0.205 Uiso 1 1 calc R . .
H56C H 0.8507 0.2218 0.9411 0.205 Uiso 1 1 calc R . .
N2 N 0.4791(11) 0.0658(6) 0.5574(13) 0.323(8) Uiso 1 1 d . . .
C57 C 0.4719(9) 0.0854(6) 0.6149(13) 0.263(7) Uiso 1 1 d . . .
C58 C 0.4270(12) 0.0361(7) 0.5182(16) 0.341(11) Uiso 1 1 d . . .
C59 C 0.5392(15) 0.0755(8) 0.5571(18) 0.397(14) Uiso 1 1 d . . .

loop_
_atom_site_aniso_label
_atom_site_aniso_U_11
_atom_site_aniso_U_22
_atom_site_aniso_U_33
_atom_site_aniso_U_23
_atom_site_aniso_U_13
_atom_site_aniso_U_12
Co1 0.0190(2) 0.0185(2) 0.0459(3) -0.00466(19) 0.0077(2) -0.00064(17)
Co2 0.0204(3) 0.0283(3) 0.0515(3) -0.0057(2) 0.0056(2) 0.00047(19)
Co3 0.0257(4) 0.0462(5) 0.1079(8) 0.000 0.0245(5) 0.000
O1 0.0374(14) 0.0229(13) 0.0522(16) -0.0013(12) 0.0036(12) 0.0012(11)
O2 0.0337(13) 0.0239(12) 0.0507(16) -0.0005(11) 0.0114(12) -0.0027(10)
O3 0.048(2) 0.082(3) 0.177(5) 0.046(3) 0.038(3) 0.029(2)
O4 0.093(3) 0.115(3) 0.071(2) 0.036(2) 0.011(2) 0.069(3)
O5 0.0620(19) 0.0395(17) 0.0517(17) -0.0047(13) 0.0209(15) -0.0229(14)
O6 0.0531(19) 0.0405(17) 0.105(3) -0.0272(17) 0.0384(19) -0.0211(15)
O7 0.0313(15) 0.064(2) 0.0616(19) -0.0209(15) 0.0031(14) 0.0194(14)
O8 0.0273(13) 0.0411(15) 0.0578(17) -0.0150(13) 0.0158(12) 0.0049(11)
O9 0.0210(11) 0.0190(11) 0.0498(14) -0.0014(10) 0.0113(11) 0.0015(9)
O10 0.0215(12) 0.0296(13) 0.0660(17) -0.0185(10) 0.0116(12) -0.0027(10)
O11 0.088(4) 0.174(6) 0.286(9) -0.151(7) 0.056(5) -0.032(4)
O12 0.0215(13) 0.0416(15) 0.0618(17) -0.0133(13) 0.0131(12) -0.0059(11)
N1 0.034(2) 0.087(3) 0.069(3) -0.006(2) 0.0081(18) -0.021(2)
C1 0.0287(18) 0.0277(19) 0.048(2) 0.0011(16) 0.0134(17) 0.0041(15)
C2 0.035(2) 0.0290(19) 0.049(2) -0.0006(16) 0.0143(18) 0.0042(15)
C3 0.061(3) 0.028(2) 0.058(3) -0.0002(19) 0.002(2) -0.003(2)
C4 0.068(3) 0.030(2) 0.054(3) 0.0064(19) 0.000(2) 0.006(2)
C5 0.044(2) 0.0233(18) 0.052(2) 0.0032(16) 0.0195(19) 0.0054(16)
C6 0.083(3) 0.022(2) 0.055(3) -0.0051(18) 0.024(2) -0.002(2)
C7 0.075(3) 0.032(2) 0.048(2) -0.0005(18) 0.022(2) 0.002(2)
C8 0.043(2) 0.033(2) 0.044(2) 0.0011(17) 0.0168(18) 0.0059(17)
C9 0.0335(19) 0.028(2) 0.0358(19) 0.0005(15) 0.0129(16) 0.0041(15)
C10 0.0308(18) 0.0272(17) 0.0258(17) 0.0010(13) 0.0104(14) 0.0041(14)
C11 0.0284(18) 0.0297(18) 0.0309(18) -0.0002(14) 0.0100(15) 0.0031(14)
C12 0.0301(18) 0.0333(19) 0.0264(17) 0.0033(14) 0.0113(14) 0.0060(14)
C13 0.040(2) 0.0245(17) 0.0312(18) 0.0035(14) 0.0165(16) 0.0064(15)
C14 0.0310(18) 0.0331(19) 0.0294(18) -0.0019(14) 0.0145(15) -0.0023(14)
C15 0.0289(18) 0.0271(17) 0.0304(18) 0.0006(14) 0.0109(15) 0.0058(14)
C16 0.039(2) 0.040(2) 0.039(2) 0.0088(17) 0.0164(17) 0.0141(18)
C17 0.043(2) 0.050(2) 0.053(2) 0.018(2) 0.022(2) 0.019(2)
C18 0.046(2) 0.057(3) 0.056(3) 0.026(2) 0.022(2) 0.029(2)
C19 0.060(3) 0.090(4) 0.075(3) 0.041(3) 0.037(3) 0.039(3)
C20 0.050(3) 0.085(4) 0.101(4) 0.030(3) 0.035(3) 0.030(3)
C21 0.054(3) 0.055(3) 0.061(3) 0.016(2) 0.015(2) 0.023(2)
C22 0.088(4) 0.078(4) 0.064(3) 0.037(3) 0.036(3) 0.045(3)
C23 0.067(3) 0.090(4) 0.071(3) 0.032(3) 0.036(3) 0.038(3)
C24 0.051(3) 0.045(3) 0.078(3) 0.002(2) 0.006(3) 0.015(2)
C25 0.040(2) 0.035(2) 0.038(2) -0.0006(16) 0.0154(17) -0.0048(17)
C26 0.047(2) 0.037(2) 0.048(2) -0.0027(18) 0.0199(19) -0.0101(19)
C27 0.043(2) 0.038(2) 0.062(3) -0.0097(19) 0.021(2) -0.0109(18)
C28 0.047(2) 0.041(2) 0.061(3) -0.001(2) 0.013(2) -0.0071(19)
C29 0.061(3) 0.030(2) 0.069(3) -0.004(2) 0.021(2) -0.014(2)
C30 0.052(3) 0.039(2) 0.068(3) -0.018(2) 0.033(2) -0.0157(19)
C31 0.050(3) 0.041(3) 0.214(8) -0.033(4) 0.044(4) -0.016(2)
C32 0.050(3) 0.041(3) 0.230(9) -0.028(4) 0.045(4) -0.023(3)
C33 0.051(3) 0.039(2) 0.062(3) -0.012(2) 0.031(2) -0.019(2)
C34 0.025(2) 0.020(2) 0.045(3) 0.000 0.016(2) 0.000
C35 0.026(2) 0.021(2) 0.039(3) 0.000 0.012(2) 0.000
C36 0.0281(18) 0.0178(17) 0.053(2) 0.0015(15) 0.0135(17) 0.0020(13)
C37 0.0319(19) 0.0207(17) 0.053(2) 0.0035(15) 0.0142(17) 0.0044(14)
C38 0.043(3) 0.018(2) 0.038(3) 0.000 0.018(2) 0.000
C39 0.041(3) 0.019(3) 0.043(3) 0.000 0.024(2) 0.000
C40 0.031(3) 0.029(3) 0.035(3) 0.000 0.018(2) 0.000
C41 0.032(2) 0.020(2) 0.037(3) 0.000 0.023(2) 0.000
C42 0.0307(18) 0.0229(17) 0.0341(18) -0.0002(14) 0.0168(15) -0.0031(14)
C44 0.045(3) 0.018(2) 0.043(3) 0.000 0.028(2) 0.000
C43 0.0349(18) 0.0227(17) 0.0367(18) 0.0039(14) 0.0223(15) 0.0045(14)
C45 0.040(2) 0.0297(18) 0.044(2) 0.0039(16) 0.0234(17) 0.0069(16)
C46 0.044(2) 0.038(2) 0.051(2) 0.0009(18) 0.0233(19) 0.0097(18)
C47 0.035(2) 0.047(2) 0.054(2) -0.0029(19) 0.0194(19) 0.0115(18)
C48 0.055(3) 0.094(4) 0.059(3) -0.009(3) 0.021(2) 0.038(3)
C49 0.032(2) 0.040(2) 0.054(2) -0.0066(19) 0.0135(19) 0.0099(17)
C50 0.031(2) 0.048(2) 0.053(2) -0.0072(19) 0.0130(18) 0.0138(17)
C51 0.033(2) 0.064(3) 0.057(3) -0.022(2) 0.0132(19) 0.011(2)
C52 0.030(2) 0.063(3) 0.058(3) -0.013(2) 0.0095(19) 0.0140(19)
C53 0.044(3) 0.082(4) 0.055(3) -0.012(2) 0.006(2) 0.034(2)
C54 0.029(2) 0.065(3) 0.070(3) -0.008(2) 0.012(2) -0.013(2)
C55 0.104(5) 0.096(5) 0.127(6) -0.066(4) 0.046(5) -0.052(4)
C56 0.033(3) 0.151(7) 0.144(6) 0.035(5) -0.004(3) -0.020(4)

_geom_special_details            
; 
 All esds (except the esd in the dihedral angle