####################################################################### 
# 
# This file contains crystal structure data downloaded from the 
# Cambridge Structural Database (CSD) hosted by the Cambridge 
# Crystallographic Data Centre (CCDC).
# 
# Full information about CCDC data access policies and citation 
# guidelines are available at http://www.ccdc.cam.ac.uk/access/V1 
# 
# Audit and citation data items may have been added by the CCDC. 
# Please retain this information to preserve the provenance of 
# this file and to allow appropriate attribution of the data. 
# 
#######################################################################

data_CP_1
_audit_block_doi                 10.5517/ccy50y1
_database_code_depnum_ccdc_archive 'CCDC 868773'
loop_
_citation_id
_citation_doi
_citation_year
1 10.1002/chem.201404803 2015
_audit_update_record             
;
2012-02-23 deposited with the CCDC.	2024-07-11 downloaded from the CCDC.
;
#TrackingRef 'Jianghua Li CP_1.cif'


_audit_creation_method           SHELXL-97
_chemical_name_systematic        
;
?
;
_chemical_name_common            ?
_chemical_melting_point          ?
_chemical_formula_moiety         ?
_chemical_formula_sum            'C38 H24 Cu3 N21 S4 W'
_chemical_formula_weight         1277.55

loop_
_atom_type_symbol
_atom_type_description
_atom_type_scat_dispersion_real
_atom_type_scat_dispersion_imag
_atom_type_scat_source
C C 0.0033 0.0016 'International Tables Vol C Tables 4.2.6.8 and 6.1.1.4'
Cu Cu 0.3201 1.2651 'International Tables Vol C Tables 4.2.6.8 and 6.1.1.4'
N N 0.0061 0.0033 'International Tables Vol C Tables 4.2.6.8 and 6.1.1.4'
S S 0.1246 0.1234 'International Tables Vol C Tables 4.2.6.8 and 6.1.1.4'
W W -0.8490 6.8722 'International Tables Vol C Tables 4.2.6.8 and 6.1.1.4'
H H 0.0000 0.0000 'International Tables Vol C Tables 4.2.6.8 and 6.1.1.4'

_symmetry_cell_setting           hexagonal
_symmetry_space_group_name_H-M   P-3c1

loop_
_symmetry_equiv_pos_as_xyz
'x, y, z'
'-y, x-y, z'
'-x+y, -x, z'
'y, x, -z+1/2'
'-x, -x+y, -z+1/2'
'x-y, -y, -z+1/2'
'-x, -y, -z'
'y, -x+y, -z'
'x-y, x, -z'
'-y, -x, z-1/2'
'x, x-y, z-1/2'
'-x+y, y, z-1/2'

_cell_length_a                   27.545(4)
_cell_length_b                   27.545(4)
_cell_length_c                   13.555(3)
_cell_angle_alpha                90.00
_cell_angle_beta                 90.00
_cell_angle_gamma                120.00
_cell_volume                     8907(3)
_cell_formula_units_Z            4
_cell_measurement_temperature    293(2)
_cell_measurement_reflns_used    17072
_cell_measurement_theta_min      2.7132
_cell_measurement_theta_max      29.0267

_exptl_crystal_description       'rectangular block'
_exptl_crystal_colour            black-red
_exptl_crystal_size_max          0.35
_exptl_crystal_size_mid          0.23
_exptl_crystal_size_min          0.22
_exptl_crystal_density_meas      ?
_exptl_crystal_density_diffrn    0.953
_exptl_crystal_density_method    'not measured'
_exptl_crystal_F_000             2495
_exptl_absorpt_coefficient_mu    2.117
_exptl_absorpt_correction_type   Multi-scan
_exptl_absorpt_correction_T_min  0.5606
_exptl_absorpt_correction_T_max  1.0000
_exptl_absorpt_process_details   sadabs

_exptl_special_details           
;
?
;

_diffrn_ambient_temperature      293(2)
_diffrn_radiation_wavelength     0.71073
_diffrn_radiation_type           MoK\a
_diffrn_radiation_source         'fine-focus sealed tube'
_diffrn_radiation_monochromator  graphite
_diffrn_measurement_device_type  'Rigaku Mercury'
_diffrn_measurement_method       dtprofit.ref
_diffrn_detector_area_resol_mean ?
_diffrn_standards_number         0
_diffrn_standards_interval_count 0
_diffrn_standards_interval_time  0
_diffrn_standards_decay_%        none
_diffrn_reflns_number            20235
_diffrn_reflns_av_R_equivalents  0.0977
_diffrn_reflns_av_sigmaI/netI    0.1089
_diffrn_reflns_limit_h_min       -32
_diffrn_reflns_limit_h_max       17
_diffrn_reflns_limit_k_min       -32
_diffrn_reflns_limit_k_max       23
_diffrn_reflns_limit_l_min       -11
_diffrn_reflns_limit_l_max       16
_diffrn_reflns_theta_min         3.12
_diffrn_reflns_theta_max         25.28
_reflns_number_total             5382
_reflns_number_gt                3298
_reflns_threshold_expression     >2sigma(I)

_computing_data_collection       'CrystalClear(Rigaku Inc., 2008)'
_computing_cell_refinement       'CrystalClear(Rigaku Inc., 2008)'
_computing_data_reduction        'CrystalClear(Rigaku Inc., 2008)'
_computing_structure_solution    'SHELXS-97 (Sheldrick, 1990)'
_computing_structure_refinement  'SHELXL-97 (Sheldrick, 1997)'
_computing_molecular_graphics    'Bruker SHELXTL'
_computing_publication_material  'Bruker SHELXTL'

_refine_special_details          
;
Refinement of F^2^ against ALL reflections. The weighted R-factor wR and
goodness of fit S are based on F^2^, conventional R-factors R are based
on F, with F set to zero for negative F^2^. The threshold expression of
F^2^ > 2sigma(F^2^) is used only for calculating R-factors(gt) etc. and is
not relevant to the choice of reflections for refinement. R-factors based
on F^2^ are statistically about twice as large as those based on F, and R-
factors based on ALL data will be even larger.
;

_refine_ls_structure_factor_coef Fsqd
_refine_ls_matrix_type           full
_refine_ls_weighting_scheme      calc
_refine_ls_weighting_details     
'calc w=1/[\s^2^(Fo^2^)+(0.0715P)^2^+0.0000P] where P=(Fo^2^+2Fc^2^)/3'
_atom_sites_solution_primary     direct
_atom_sites_solution_secondary   difmap
_atom_sites_solution_hydrogens   geom
_refine_ls_hydrogen_treatment    constr
_refine_ls_extinction_method     none
_refine_ls_extinction_coef       ?
_refine_ls_number_reflns         5382
_refine_ls_number_parameters     187
_refine_ls_number_restraints     0
_refine_ls_R_factor_all          0.1086
_refine_ls_R_factor_gt           0.0651
_refine_ls_wR_factor_ref         0.1682
_refine_ls_wR_factor_gt          0.1468
_refine_ls_goodness_of_fit_ref   0.958
_refine_ls_restrained_S_all      0.958
_refine_ls_shift/su_max          0.001
_refine_ls_shift/su_mean         0.000

loop_
_atom_site_label
_atom_site_type_symbol
_atom_site_fract_x
_atom_site_fract_y
_atom_site_fract_z
_atom_site_U_iso_or_equiv
_atom_site_adp_type
_atom_site_occupancy
_atom_site_symmetry_multiplicity
_atom_site_calc_flag
_atom_site_refinement_flags
_atom_site_disorder_assembly
_atom_site_disorder_group
W1 W 0.6667 0.3333 0.41305(3) 0.0489(2) Uani 1 3 d S . .
Cu1 Cu 0.58018(4) 0.26201(4) 0.29806(6) 0.0490(3) Uani 1 1 d . . .
S1 S 0.58902(8) 0.25960(9) 0.46527(14) 0.0590(5) Uani 1 1 d . . .
S2 S 0.6667 0.3333 0.2437(2) 0.0468(8) Uani 1 3 d S . .
N1 N 0.5540(2) 0.1896(2) 0.2224(4) 0.0498(15) Uani 1 1 d . . .
N2 N 0.5211(2) 0.2879(2) 0.2793(5) 0.0537(16) Uani 1 1 d . . .
N3 N 0.5205(3) 0.0507(3) -0.0454(5) 0.094(3) Uani 1 1 d . . .
N4 N 0.4905(3) -0.0043(3) 0.0979(5) 0.097(3) Uani 1 1 d . . .
N5 N 0.4111(6) 0.3775(6) 0.1649(12) 0.198(7) Uani 1 1 d . . .
N6 N 0.4087(6) 0.3796(5) 0.3338(13) 0.195(7) Uani 1 1 d . . .
C1 C 0.5599(3) 0.1925(3) 0.1245(6) 0.063(2) Uani 1 1 d . . .
H1 H 0.5737 0.2271 0.0940 0.076 Uiso 1 1 calc R . .
C2 C 0.5463(4) 0.1462(3) 0.0666(5) 0.068(2) Uani 1 1 d . . .
H2 H 0.5510 0.1498 -0.0014 0.082 Uiso 1 1 calc R . .
C3 C 0.5256(3) 0.0945(3) 0.1110(5) 0.061(2) Uani 1 1 d . . .
C4 C 0.5186(4) 0.0906(3) 0.2121(5) 0.081(3) Uani 1 1 d . . .
H4 H 0.5046 0.0562 0.2437 0.098 Uiso 1 1 calc R . .
C5 C 0.5332(4) 0.1398(3) 0.2669(6) 0.073(3) Uani 1 1 d . . .
H5 H 0.5281 0.1374 0.3349 0.087 Uiso 1 1 calc R . .
C6 C 0.5119(3) 0.0443(3) 0.0505(6) 0.059(2) Uani 1 1 d . . .
C7 C 0.5088(4) 0.3026(5) 0.1969(7) 0.104(4) Uani 1 1 d . . .
H7 H 0.5229 0.2960 0.1392 0.125 Uiso 1 1 calc R . .
C8 C 0.4761(5) 0.3274(5) 0.1881(9) 0.128(5) Uani 1 1 d . . .
H8 H 0.4714 0.3386 0.1257 0.153 Uiso 1 1 calc R . .
C9 C 0.4525(4) 0.3356(4) 0.2596(11) 0.090(4) Uani 1 1 d . . .
C10 C 0.4665(6) 0.3257(7) 0.3457(11) 0.180(8) Uani 1 1 d . . .
H10 H 0.4552 0.3365 0.4023 0.216 Uiso 1 1 calc R . .
C11 C 0.4993(6) 0.2986(6) 0.3553(9) 0.166(7) Uani 1 1 d . . .
H11 H 0.5050 0.2885 0.4178 0.199 Uiso 1 1 calc R . .
C12 C 0.4216(6) 0.3641(5) 0.2542(14) 0.124(5) Uani 1 1 d . . .

loop_
_atom_site_aniso_label
_atom_site_aniso_U_11
_atom_site_aniso_U_22
_atom_site_aniso_U_33
_atom_site_aniso_U_23
_atom_site_aniso_U_13
_atom_site_aniso_U_12
W1 0.0603(3) 0.0603(3) 0.0260(3) 0.000 0.000 0.03017(14)
Cu1 0.0575(6) 0.0533(6) 0.0363(5) -0.0018(4) 0.0023(4) 0.0278(5)
S1 0.0658(13) 0.0725(14) 0.0357(11) 0.0071(10) 0.0055(9) 0.0324(11)
S2 0.0605(12) 0.0605(12) 0.0193(15) 0.000 0.000 0.0303(6)
N1 0.066(4) 0.055(4) 0.032(3) -0.001(3) -0.001(3) 0.033(3)
N2 0.059(4) 0.052(4) 0.061(4) -0.003(3) -0.001(3) 0.035(3)
N3 0.182(8) 0.057(5) 0.034(4) 0.010(4) 0.020(4) 0.053(5)
N4 0.176(8) 0.046(4) 0.045(4) 0.001(4) 0.026(5) 0.037(5)
N5 0.188(13) 0.236(15) 0.247(18) 0.061(13) 0.024(11) 0.165(12)
N6 0.211(13) 0.166(11) 0.30(2) -0.048(12) -0.079(13) 0.166(11)
C1 0.100(7) 0.041(4) 0.052(5) 0.004(4) 0.003(5) 0.037(4)
C2 0.120(7) 0.050(5) 0.033(4) 0.018(4) 0.031(5) 0.042(5)
C3 0.082(6) 0.059(5) 0.037(4) 0.001(4) 0.017(4) 0.032(5)
C4 0.142(8) 0.054(5) 0.028(4) 0.002(4) 0.006(5) 0.033(6)
C5 0.116(7) 0.054(5) 0.034(4) 0.022(4) 0.009(5) 0.032(5)
C6 0.069(5) 0.045(5) 0.047(5) 0.005(4) 0.005(4) 0.015(4)
C7 0.136(9) 0.172(11) 0.057(6) 0.059(7) 0.048(6) 0.115(9)
C8 0.127(10) 0.199(13) 0.127(11) 0.078(10) 0.052(8) 0.134(10)
C9 0.047(5) 0.065(6) 0.170(13) -0.006(7) -0.014(7) 0.036(5)
C10 0.239(17) 0.32(2) 0.126(12) -0.118(13) -0.054(11) 0.246(18)
C11 0.250(16) 0.305(18) 0.074(8) -0.082(10) -0.035(9) 0.237(16)
C12 0.131(11) 0.096(9) 0.176(17) -0.019(9) -0.006(11) 0.080(8)

_geom_special_details            
;
All esds (except the esd in the dihedral angle between two l.s. planes)
are estimated using the full covariance matrix. The cell esds are taken
into account individually in the estimation of esds in distances, angles
and torsion angles; correlations between esds in cell parameters are only
used when they are defined by crystal symmetry. An approximate (isotropic)
treatment of cell esds is used for estimating esds involving l.s. planes.
;

loop_
_geom_bond_atom_site_label_1
_geom_bond_atom_site_label_2
_geom_bond_distance
_geom_bond_site_symmetry_2
_geom_bond_publ_flag
W1 S1 2.204(2) 2_655 ?
W1 S1 2.204(2) . ?
W1 S1 2.204(2) 3_665 ?
W1 S2 2.295(3) . ?
W1 Cu1 2.6990(10) 2_655 ?
W1 Cu1 2.6990(10) . ?
W1 Cu1 2.6990(10) 3_665 ?
Cu1 N1 2.028(6) . ?
Cu1 N2 2.093(6) . ?
Cu1 S1 2.284(2) . ?
Cu1 S2 2.3233(13) . ?
S2 Cu1 2.3233(13) 2_655 ?
S2 Cu1 2.3233(13) 3_665 ?
N1 C1 1.333(9) . ?
N1 C5 1.337(8) . ?
N2 C7 1.291(9) . ?
N2 C11 1.300(11) . ?
N3 C6 1.318(9) . ?
N3 N4 1.358(9) 7_655 ?
N4 C6 1.328(9) . ?
N4 N3 1.358(9) 7_655 ?
N5 C12 1.340(18) . ?
N5 N6 1.494(14) 4 ?
N6 C12 1.275(18) . ?
N6 N5 1.494(14) 4 ?
C1 C2 1.380(9) . ?
C1 H1 0.9300 . ?
C2 C3 1.380(10) . ?
C2 H2 0.9300 . ?
C3 C4 1.380(9) . ?
C3 C6 1.486(10) . ?
C4 C5 1.416(10) . ?
C4 H4 0.9300 . ?
C5 H5 0.9300 . ?
C7 C8 1.380(12) . ?
C7 H7 0.9300 . ?
C8 C9 1.250(14) . ?
C8 H8 0.9300 . ?
C9 C10 1.301(16) . ?
C9 C12 1.417(14) . ?
C10 C11 1.435(15) . ?
C10 H10 0.9300 . ?
C11 H11 0.9300 . ?

loop_
_geom_angle_atom_site_label_1
_geom_angle_atom_site_label_2
_geom_angle_atom_site_label_3
_geom_angle
_geom_angle_site_symmetry_1
_geom_angle_site_symmetry_3
_geom_angle_publ_flag
S1 W1 S1 110.20(5) 2_655 . ?
S1 W1 S1 110.20(5) 2_655 3_665 ?
S1 W1 S1 110.20(5) . 3_665 ?
S1 W1 S2 108.73(5) 2_655 . ?
S1 W1 S2 108.73(5) . . ?
S1 W1 S2 108.73(5) 3_665 . ?
S1 W1 Cu1 54.40(5) 2_655 2_655 ?
S1 W1 Cu1 119.28(5) . 2_655 ?
S1 W1 Cu1 130.50(5) 3_665 2_655 ?
S2 W1 Cu1 54.72(2) . 2_655 ?
S1 W1 Cu1 130.50(5) 2_655 . ?
S1 W1 Cu1 54.40(5) . . ?
S1 W1 Cu1 119.28(6) 3_665 . ?
S2 W1 Cu1 54.72(2) . . ?
Cu1 W1 Cu1 89.98(3) 2_655 . ?
S1 W1 Cu1 119.28(6) 2_655 3_665 ?
S1 W1 Cu1 130.50(5) . 3_665 ?
S1 W1 Cu1 54.40(5) 3_665 3_665 ?
S2 W1 Cu1 54.72(2) . 3_665 ?
Cu1 W1 Cu1 89.98(3) 2_655 3_665 ?
Cu1 W1 Cu1 89.98(3) . 3_665 ?
N1 Cu1 N2 108.6(2) . . ?
N1 Cu1 S1 117.66(17) . . ?
N2 Cu1 S1 104.06(19) . . ?
N1 Cu1 S2 112.40(17) . . ?
N2 Cu1 S2 108.44(17) . . ?
S1 Cu1 S2 105.07(9) . . ?
N1 Cu1 W1 139.32(16) . . ?
N2 Cu1 W1 112.07(17) . . ?
S1 Cu1 W1 51.68(5) . . ?
S2 Cu1 W1 53.76(7) . . ?
W1 S1 Cu1 73.92(6) . . ?
W1 S2 Cu1 71.51(7) . 2_655 ?
W1 S2 Cu1 71.51(7) . . ?
Cu1 S2 Cu1 110.44(7) 2_655 . ?
W1 S2 Cu1 71.51(7) . 3_665 ?
Cu1 S2 Cu1 110.44(7) 2_655 3_665 ?
Cu1 S2 Cu1 110.44(7) . 3_665 ?
C1 N1 C5 119.1(6) . . ?
C1 N1 Cu1 118.2(5) . . ?
C5 N1 Cu1 122.6(5) . . ?
C7 N2 C11 112.9(8) . . ?
C7 N2 Cu1 125.8(6) . . ?
C11 N2 Cu1 120.6(7) . . ?
C6 N3 N4 116.7(6) . 7_655 ?
C6 N4 N3 118.2(7) . 7_655 ?
C12 N5 N6 114.6(14) . 4 ?
C12 N6 N5 122.9(15) . 4 ?
N1 C1 C2 122.8(7) . . ?
N1 C1 H1 118.6 . . ?
C2 C1 H1 118.6 . . ?
C1 C2 C3 119.1(7) . . ?
C1 C2 H2 120.4 . . ?
C3 C2 H2 120.4 . . ?
C2 C3 C4 118.8(7) . . ?
C2 C3 C6 120.1(7) . . ?
C4 C3 C6 121.0(7) . . ?
C3 C4 C5 119.0(7) . . ?
C3 C4 H4 120.5 . . ?
C5 C4 H4 120.5 . . ?
N1 C5 C4 121.0(7) . . ?
N1 C5 H5 119.5 . . ?
C4 C5 H5 119.5 . . ?
N3 C6 N4 125.0(7) . . ?
N3 C6 C3 118.3(7) . . ?
N4 C6 C3 116.7(7) . . ?
N2 C7 C8 124.7(9) . . ?
N2 C7 H7 117.6 . . ?
C8 C7 H7 117.6 . . ?
C9 C8 C7 123.4(11) . . ?
C9 C8 H8 118.3 . . ?
C7 C8 H8 118.3 . . ?
C8 C9 C10 115.0(10) . . ?
C8 C9 C12 124.8(14) . . ?
C10 C9 C12 119.1(14) . . ?
C9 C10 C11 121.3(11) . . ?
C9 C10 H10 119.3 . . ?
C11 C10 H10 119.3 . . ?
N2 C11 C10 122.0(11) . . ?
N2 C11 H11 119.0 . . ?
C10 C11 H11 119.0 . . ?
N6 C12 N5 122.4(14) . . ?
N6 C12 C9 119.2(16) . . ?
N5 C12 C9 118.2(16) . . ?

_diffrn_measured_fraction_theta_max 0.996
_diffrn_reflns_theta_full        25.28
_diffrn_measured_fraction_theta_full 0.996
_refine_diff_density_max         0.717
_refine_diff_density_min         -1.348
_refine_diff_density_rms         0.104
