####################################################################### 
# 
# This file contains crystal structure data downloaded from the 
# Cambridge Structural Database (CSD) hosted by the Cambridge 
# Crystallographic Data Centre (CCDC).
# 
# Full information about CCDC data access policies and citation 
# guidelines are available at http://www.ccdc.cam.ac.uk/access/V1 
# 
# Audit and citation data items may have been added by the CCDC. 
# Please retain this information to preserve the provenance of 
# this file and to allow appropriate attribution of the data. 
# 
#######################################################################

data_chk4
_audit_block_doi                 10.5517/cct3tzp
_database_code_depnum_ccdc_archive 'CCDC 748463'
loop_
_citation_id
_citation_doi
_citation_year
1 10.1002/ejic.200900964 2010
_audit_update_record             
;
2009-09-21 deposited with the CCDC.	2024-07-11 downloaded from the CCDC.
;

_audit_creation_method           SHELXL-97
_chemical_name_systematic        
;
?
;
_chemical_name_common            '3 in manuscript'
_chemical_melting_point          ?
_chemical_formula_moiety         ?
_chemical_formula_sum            'C54.50 H55 Au Cl6 Fe N2 P2'
_chemical_formula_weight         1265.46

loop_
_atom_type_symbol
_atom_type_description
_atom_type_scat_dispersion_real
_atom_type_scat_dispersion_imag
_atom_type_scat_source
C C 0.0033 0.0016 'International Tables Vol C Tables 4.2.6.8 and 6.1.1.4'
H H 0.0000 0.0000 'International Tables Vol C Tables 4.2.6.8 and 6.1.1.4'
N N 0.0061 0.0033 'International Tables Vol C Tables 4.2.6.8 and 6.1.1.4'
P P 0.1023 0.0942 'International Tables Vol C Tables 4.2.6.8 and 6.1.1.4'
Cl Cl 0.1484 0.1585 'International Tables Vol C Tables 4.2.6.8 and 6.1.1.4'
Fe Fe 0.3463 0.8444 'International Tables Vol C Tables 4.2.6.8 and 6.1.1.4'
Au Au -2.0133 8.8022 'International Tables Vol C Tables 4.2.6.8 and 6.1.1.4'

_symmetry_cell_setting           Orthorhombic
_symmetry_space_group_name_H-M   P2(1)2(1)2(1)

loop_
_symmetry_equiv_pos_as_xyz
'x, y, z'
'-x+1/2, -y, z+1/2'
'-x, y+1/2, -z+1/2'
'x+1/2, -y+1/2, -z'

_cell_length_a                   14.5722(3)
_cell_length_b                   22.9088(5)
_cell_length_c                   35.3453(8)
_cell_angle_alpha                90.00
_cell_angle_beta                 90.00
_cell_angle_gamma                90.00
_cell_volume                     11799.4(4)
_cell_formula_units_Z            8
_cell_measurement_temperature    200(2)
_cell_measurement_reflns_used    8192
_cell_measurement_theta_min      ?
_cell_measurement_theta_max      ?

_exptl_crystal_description       polyhedron
_exptl_crystal_colour            orange
_exptl_crystal_size_max          0.36
_exptl_crystal_size_mid          0.33
_exptl_crystal_size_min          0.24
_exptl_crystal_density_meas      ?
_exptl_crystal_density_diffrn    1.425
_exptl_crystal_density_method    'not measured'
_exptl_crystal_F_000             5064
_exptl_absorpt_coefficient_mu    3.090
_exptl_absorpt_correction_type   multi-scan
_exptl_absorpt_correction_T_min  0.4025
_exptl_absorpt_correction_T_max  0.5242
_exptl_absorpt_process_details   
;
Sheldrick, G. M. (2008). <i>SADABS</i>. University of G\"ottingen, Germany.
;

_exptl_special_details           
;
?
;

_diffrn_ambient_temperature      200(2)
_diffrn_radiation_wavelength     0.71073
_diffrn_radiation_type           MoK\a
_diffrn_radiation_source         'fine-focus sealed tube'
_diffrn_radiation_monochromator  graphite
_diffrn_measurement_device_type  'Bruker SMART CCD'
_diffrn_measurement_method       '\w scans'
_diffrn_detector_area_resol_mean ?
_diffrn_reflns_number            72920
_diffrn_reflns_av_R_equivalents  0.1126
_diffrn_reflns_av_sigmaI/netI    0.0878
_diffrn_reflns_limit_h_min       -16
_diffrn_reflns_limit_h_max       16
_diffrn_reflns_limit_k_min       -25
_diffrn_reflns_limit_k_max       25
_diffrn_reflns_limit_l_min       -38
_diffrn_reflns_limit_l_max       38
_diffrn_reflns_theta_min         1.15
_diffrn_reflns_theta_max         23.06
_reflns_number_total             16399
_reflns_number_gt                12352
_reflns_threshold_expression     >2sigma(I)

_computing_data_collection       'Bruker SMART'
_computing_cell_refinement       'Bruker SAINT'
_computing_data_reduction        'Bruker SAINT'
_computing_structure_solution    'SHELXS-97 (Sheldrick, 2008)'
_computing_structure_refinement  'SHELXL-97 (Sheldrick, 2008)'
_computing_molecular_graphics    'Bruker SHELXTL'
_computing_publication_material  'Bruker SHELXTL'

_refine_special_details          
;
Refinement of F^2^ against ALL reflections. The weighted R-factor wR and
goodness of fit S are based on F^2^, conventional R-factors R are based
on F, with F set to zero for negative F^2^. The threshold expression of
F^2^ > 2sigma(F^2^) is used only for calculating R-factors(gt) etc. and is
not relevant to the choice of reflections for refinement. R-factors based
on F^2^ are statistically about twice as large as those based on F, and R-
factors based on ALL data will be even larger.
;

_refine_ls_structure_factor_coef Fsqd
_refine_ls_matrix_type           full
_refine_ls_weighting_scheme      calc
_refine_ls_weighting_details     
'calc w=1/[\s^2^(Fo^2^)+(0.1420P)^2^+218.8301P] where P=(Fo^2^+2Fc^2^)/3'
_atom_sites_solution_primary     direct
_atom_sites_solution_secondary   difmap
_atom_sites_solution_hydrogens   geom
_refine_ls_hydrogen_treatment    constr
_refine_ls_extinction_method     none
_refine_ls_extinction_coef       ?
_refine_ls_abs_structure_details 'Flack H D (1983), Acta Cryst. A39, 876-881'
_refine_ls_abs_structure_Flack   0.856(14)
_refine_ls_number_reflns         16399
_refine_ls_number_parameters     1199
_refine_ls_number_restraints     1290
_refine_ls_R_factor_all          0.1241
_refine_ls_R_factor_gt           0.0873
_refine_ls_wR_factor_ref         0.2638
_refine_ls_wR_factor_gt          0.2259
_refine_ls_goodness_of_fit_ref   1.082
_refine_ls_restrained_S_all      1.062
_refine_ls_shift/su_max          0.001
_refine_ls_shift/su_mean         0.000

loop_
_atom_site_label
_atom_site_type_symbol
_atom_site_fract_x
_atom_site_fract_y
_atom_site_fract_z
_atom_site_U_iso_or_equiv
_atom_site_adp_type
_atom_site_occupancy
_atom_site_symmetry_multiplicity
_atom_site_calc_flag
_atom_site_refinement_flags
_atom_site_disorder_assembly
_atom_site_disorder_group
Au1 Au 0.09324(5) 0.47093(4) 0.570181(19) 0.0337(2) Uani 1 1 d U . .
Au2 Au 0.15066(6) 0.59439(4) 0.31389(2) 0.0351(2) Uani 1 1 d U . .
Cl1 Cl 0.2445(4) 0.5285(3) 0.56633(15) 0.0526(15) Uani 1 1 d U . .
Cl2 Cl 0.2368(4) 0.4957(3) 0.31842(14) 0.0423(13) Uani 1 1 d U . .
Fe1 Fe 0.22420(19) 0.47024(14) 0.69272(7) 0.0308(6) Uani 1 1 d U . .
Fe2 Fe 0.1572(2) 0.53085(14) 0.44039(6) 0.0321(6) Uani 1 1 d U . .
N1 N 0.0294(16) 0.5807(9) 0.6388(6) 0.055(4) Uani 1 1 d U . .
N2 N 0.2063(15) 0.3743(9) 0.5029(6) 0.052(4) Uani 1 1 d U . .
N3 N 0.0165(12) 0.4967(8) 0.2470(6) 0.040(4) Uani 1 1 d U . .
N4 N 0.3312(15) 0.6429(9) 0.3738(5) 0.052(4) Uani 1 1 d U . .
P1 P 0.0406(4) 0.4490(3) 0.63124(14) 0.0344(12) Uani 1 1 d U . .
P2 P 0.0357(4) 0.4503(3) 0.50937(14) 0.0360(12) Uani 1 1 d U . .
P4 P 0.1217(4) 0.6376(3) 0.37226(14) 0.0369(13) Uani 1 1 d U . .
C1 C 0.0971(15) 0.4404(10) 0.7093(5) 0.036(3) Uani 1 1 d U . .
H1 H 0.0795 0.4007 0.7124 0.043 Uiso 1 1 calc R . .
C2 C -0.0819(15) 0.4665(12) 0.6369(5) 0.042(4) Uani 1 1 d U . .
C3 C -0.1359(16) 0.4820(12) 0.6057(7) 0.053(5) Uani 1 1 d U . .
H3 H -0.1077 0.4850 0.5815 0.063 Uiso 1 1 calc R . .
C4 C -0.2235(18) 0.4926(12) 0.6087(8) 0.059(6) Uani 1 1 d U . .
H4 H -0.2581 0.5021 0.5868 0.071 Uiso 1 1 calc R . .
C5 C -0.269(2) 0.4898(13) 0.6457(8) 0.068(7) Uani 1 1 d U . .
H5 H -0.3316 0.5005 0.6491 0.082 Uiso 1 1 calc R . .
C6 C -0.2143(17) 0.4704(14) 0.6753(8) 0.067(6) Uani 1 1 d U . .
H6 H -0.2423 0.4639 0.6992 0.080 Uiso 1 1 calc R . .
C7 C -0.1238(16) 0.4603(13) 0.6720(7) 0.058(6) Uani 1 1 d U . .
H7 H -0.0888 0.4490 0.6934 0.070 Uiso 1 1 calc R . .
C8 C 0.0485(16) 0.3693(10) 0.6376(5) 0.038(3) Uani 1 1 d U . .
C9 C -0.022(2) 0.3377(13) 0.6502(7) 0.062(5) Uani 1 1 d U . .
H9 H -0.0793 0.3560 0.6555 0.075 Uiso 1 1 calc R . .
C10 C -0.012(3) 0.2789(14) 0.6554(9) 0.080(7) Uani 1 1 d U . .
H10 H -0.0597 0.2570 0.6671 0.096 Uiso 1 1 calc R . .
C11 C 0.061(3) 0.2540(15) 0.6446(9) 0.081(7) Uani 1 1 d U . .
H11 H 0.0625 0.2125 0.6441 0.098 Uiso 1 1 calc R . .
C12 C 0.139(2) 0.2844(12) 0.6335(7) 0.062(5) Uani 1 1 d U . .
H12 H 0.1954 0.2649 0.6298 0.074 Uiso 1 1 calc R . .
C13 C 0.1312(17) 0.3428(11) 0.6279(6) 0.047(4) Uani 1 1 d U . .
H13 H 0.1807 0.3648 0.6178 0.056 Uiso 1 1 calc R . .
C14 C 0.0898(13) 0.4739(10) 0.6748(5) 0.031(3) Uani 1 1 d U . .
C15 C 0.1340(13) 0.4757(11) 0.7371(5) 0.039(4) Uani 1 1 d U . .
H15 H 0.1447 0.4638 0.7625 0.047 Uiso 1 1 calc R . .
C16 C 0.1538(16) 0.5329(11) 0.7225(6) 0.044(4) Uani 1 1 d U . .
H16 H 0.1802 0.5649 0.7356 0.053 Uiso 1 1 calc R . .
C17 C 0.1235(14) 0.5310(10) 0.6817(6) 0.040(3) Uani 1 1 d U . .
C18 C 0.1200(19) 0.5801(12) 0.6551(8) 0.058(4) Uani 1 1 d U . .
H18 H 0.1612 0.5682 0.6339 0.070 Uiso 1 1 calc R . .
C19 C -0.043(2) 0.5971(13) 0.6641(8) 0.068(7) Uani 1 1 d U . .
H19A H -0.0404 0.5726 0.6868 0.103 Uiso 1 1 calc R . .
H19B H -0.1023 0.5916 0.6515 0.103 Uiso 1 1 calc R . .
H19C H -0.0358 0.6381 0.6713 0.103 Uiso 1 1 calc R . .
C20 C 0.025(2) 0.6121(13) 0.6024(8) 0.073(7) Uani 1 1 d U . .
H20A H 0.0399 0.6533 0.6064 0.110 Uiso 1 1 calc R . .
H20B H -0.0372 0.6089 0.5920 0.110 Uiso 1 1 calc R . .
H20C H 0.0689 0.5949 0.5847 0.110 Uiso 1 1 calc R . .
C21 C 0.156(2) 0.6367(13) 0.6675(10) 0.080(6) Uani 1 1 d U . .
C22 C 0.226(3) 0.665(2) 0.6423(15) 0.130(10) Uani 1 1 d U . .
H22 H 0.2559 0.6438 0.6227 0.155 Uiso 1 1 calc R . .
C23 C 0.249(3) 0.7314(19) 0.6497(15) 0.118(10) Uani 1 1 d U . .
H23 H 0.2870 0.7565 0.6353 0.142 Uiso 1 1 calc R . .
C24 C 0.209(4) 0.742(3) 0.6761(18) 0.147(13) Uani 1 1 d U . .
H24 H 0.2393 0.7754 0.6862 0.177 Uiso 1 1 calc R . .
C25 C 0.154(4) 0.7341(19) 0.6956(14) 0.124(10) Uani 1 1 d U . .
H25 H 0.1265 0.7639 0.7106 0.148 Uiso 1 1 calc R . .
C26 C 0.120(2) 0.6653(14) 0.6972(11) 0.092(7) Uani 1 1 d U . .
H26 H 0.0819 0.6487 0.7161 0.111 Uiso 1 1 calc R . .
C27 C -0.0682(15) 0.4947(11) 0.5051(6) 0.043(3) Uani 1 1 d U . .
C28 C -0.0589(17) 0.5570(11) 0.5113(6) 0.045(4) Uani 1 1 d U . .
H28 H 0.0003 0.5735 0.5149 0.054 Uiso 1 1 calc R . .
C29 C -0.1363(17) 0.5930(13) 0.5121(7) 0.055(5) Uani 1 1 d U . .
H29 H -0.1296 0.6334 0.5177 0.066 Uiso 1 1 calc R . .
C30 C -0.219(2) 0.5713(14) 0.5050(8) 0.067(6) Uani 1 1 d U . .
H30 H -0.2714 0.5962 0.5041 0.081 Uiso 1 1 calc R . .
C31 C -0.2284(19) 0.5111(14) 0.4990(9) 0.069(6) Uani 1 1 d U . .
H31 H -0.2885 0.4961 0.4952 0.082 Uiso 1 1 calc R . .
C32 C -0.1523(17) 0.4700(13) 0.4982(6) 0.055(5) Uani 1 1 d U . .
H32 H -0.1602 0.4295 0.4934 0.066 Uiso 1 1 calc R . .
C33 C -0.0045(17) 0.3785(11) 0.5075(6) 0.042(4) Uani 1 1 d U . .
C34 C -0.0350(19) 0.3492(12) 0.4740(6) 0.055(6) Uani 1 1 d U . .
H34 H -0.0369 0.3706 0.4510 0.065 Uiso 1 1 calc R . .
C35 C -0.060(2) 0.2957(12) 0.4735(7) 0.062(6) Uani 1 1 d U . .
H35 H -0.0810 0.2802 0.4501 0.074 Uiso 1 1 calc R . .
C36 C -0.059(2) 0.2590(13) 0.5041(8) 0.063(6) Uani 1 1 d U . .
H36 H -0.0743 0.2189 0.5025 0.076 Uiso 1 1 calc R . .
C37 C -0.032(2) 0.2858(12) 0.5383(8) 0.067(6) Uani 1 1 d U . .
H37 H -0.0312 0.2629 0.5607 0.080 Uiso 1 1 calc R . .
C38 C -0.0070(18) 0.3433(11) 0.5406(6) 0.049(5) Uani 1 1 d U . .
H38 H 0.0087 0.3597 0.5644 0.059 Uiso 1 1 calc R . .
C39 C 0.0916(15) 0.4600(9) 0.4648(5) 0.034(2) Uani 1 1 d U . .
C40 C 0.0447(15) 0.4783(9) 0.4299(5) 0.035(3) Uani 1 1 d U . .
H40 H -0.0173 0.4908 0.4281 0.042 Uiso 1 1 calc R . .
C41 C 0.1071(16) 0.4742(10) 0.3996(5) 0.038(3) Uani 1 1 d U . .
H41 H 0.0944 0.4831 0.3738 0.046 Uiso 1 1 calc R . .
C42 C 0.1933(16) 0.4540(9) 0.4145(6) 0.038(3) Uani 1 1 d U . .
H42 H 0.2483 0.4477 0.4007 0.045 Uiso 1 1 calc R . .
C43 C 0.1796(15) 0.4453(10) 0.4549(6) 0.036(2) Uani 1 1 d U . .
C44 C 0.2495(17) 0.4219(11) 0.4828(6) 0.047(4) Uani 1 1 d U . .
H44 H 0.2572 0.4536 0.5021 0.056 Uiso 1 1 calc R . .
C45 C 0.252(2) 0.3587(14) 0.5376(7) 0.070(7) Uani 1 1 d U . .
H45A H 0.2061 0.3485 0.5567 0.105 Uiso 1 1 calc R . .
H45B H 0.2886 0.3918 0.5465 0.105 Uiso 1 1 calc R . .
H45C H 0.2922 0.3251 0.5331 0.105 Uiso 1 1 calc R . .
C46 C 0.198(2) 0.3228(12) 0.4806(8) 0.067(7) Uani 1 1 d U . .
H46A H 0.2592 0.3084 0.4739 0.100 Uiso 1 1 calc R . .
H46B H 0.1637 0.3317 0.4574 0.100 Uiso 1 1 calc R . .
H46C H 0.1652 0.2928 0.4950 0.100 Uiso 1 1 calc R . .
C47 C 0.3455(18) 0.4093(11) 0.4684(7) 0.055(4) Uani 1 1 d U . .
C48 C 0.358(2) 0.3734(12) 0.4347(8) 0.071(6) Uani 1 1 d U . .
H48 H 0.3070 0.3621 0.4197 0.085 Uiso 1 1 calc R . .
C49 C 0.444(2) 0.3567(14) 0.4255(10) 0.079(7) Uani 1 1 d U . .
H49 H 0.4484 0.3301 0.4049 0.094 Uiso 1 1 calc R . .
C50 C 0.515(3) 0.3698(18) 0.4390(13) 0.105(9) Uani 1 1 d U . .
H50 H 0.5718 0.3557 0.4290 0.126 Uiso 1 1 calc R . .
C51 C 0.513(2) 0.4079(18) 0.4710(12) 0.095(8) Uani 1 1 d U . .
H51 H 0.5693 0.4193 0.4826 0.114 Uiso 1 1 calc R . .
C52 C 0.416(2) 0.4327(15) 0.4884(10) 0.082(7) Uani 1 1 d U . .
H52 H 0.4100 0.4591 0.5089 0.098 Uiso 1 1 calc R . .
C53 C -0.0164(16) 0.4697(12) 0.2833(6) 0.052(5) Uani 1 1 d U . .
H53A H -0.0686 0.4921 0.2931 0.078 Uiso 1 1 calc R . .
H53B H 0.0334 0.4702 0.3020 0.078 Uiso 1 1 calc R . .
H53C H -0.0354 0.4293 0.2786 0.078 Uiso 1 1 calc R . .
C54 C -0.0588(15) 0.4993(12) 0.2210(7) 0.047(5) Uani 1 1 d U . .
H54A H -0.0828 0.4599 0.2167 0.071 Uiso 1 1 calc R . .
H54B H -0.0377 0.5158 0.1969 0.071 Uiso 1 1 calc R . .
H54C H -0.1074 0.5241 0.2315 0.071 Uiso 1 1 calc R . .
C55 C 0.0879(17) 0.4083(11) 0.2191(6) 0.046(4) Uani 1 1 d U . .
C56 C 0.118(2) 0.3622(12) 0.2439(8) 0.070(7) Uani 1 1 d U . .
H56 H 0.1473 0.3710 0.2673 0.085 Uiso 1 1 calc R . .
C57 C 0.104(3) 0.3083(14) 0.2337(9) 0.083(7) Uani 1 1 d U . .
H57 H 0.1285 0.2787 0.2496 0.100 Uiso 1 1 calc R . .
C58 C 0.058(3) 0.2902(16) 0.2017(10) 0.090(8) Uani 1 1 d U . .
H58 H 0.0496 0.2503 0.1953 0.109 Uiso 1 1 calc R . .
C59 C 0.0244(18) 0.3345(12) 0.1803(8) 0.060(5) Uani 1 1 d U . .
H59 H -0.0140 0.3238 0.1597 0.072 Uiso 1 1 calc R . .
C60 C 0.040(2) 0.3921(12) 0.1850(8) 0.068(6) Uani 1 1 d U . .
H60 H 0.0205 0.4203 0.1669 0.082 Uiso 1 1 calc R . .
C61 C 0.1842(16) 0.6826(11) 0.2410(5) 0.041(3) Uani 1 1 d U . .
C62 C 0.2825(18) 0.6848(12) 0.2460(6) 0.051(5) Uani 1 1 d U . .
H62 H 0.3145 0.6494 0.2507 0.061 Uiso 1 1 calc R . .
C63 C 0.330(2) 0.7339(13) 0.2444(7) 0.064(5) Uani 1 1 d U . .
H63 H 0.3942 0.7333 0.2487 0.077 Uiso 1 1 calc R . .
C64 C 0.287(3) 0.7858(15) 0.2365(9) 0.080(7) Uani 1 1 d U . .
H64 H 0.3220 0.8204 0.2332 0.096 Uiso 1 1 calc R . .
C65 C 0.195(3) 0.7874(14) 0.2335(9) 0.079(7) Uani 1 1 d U . .
H65 H 0.1647 0.8235 0.2298 0.095 Uiso 1 1 calc R . .
C66 C 0.147(2) 0.7375(12) 0.2359(8) 0.065(5) Uani 1 1 d U . .
H66 H 0.0820 0.7403 0.2338 0.078 Uiso 1 1 calc R . .
C67 C 0.0067(16) 0.6329(11) 0.2395(6) 0.041(4) Uani 1 1 d U . .
C68 C -0.0551(17) 0.6327(12) 0.2703(7) 0.053(5) Uani 1 1 d U . .
H68 H -0.0356 0.6248 0.2954 0.064 Uiso 1 1 calc R . .
C69 C -0.1486(19) 0.6449(12) 0.2613(8) 0.058(5) Uani 1 1 d U . .
H69 H -0.1913 0.6469 0.2816 0.070 Uiso 1 1 calc R . .
C70 C -0.181(2) 0.6541(13) 0.2253(9) 0.074(7) Uani 1 1 d U . .
H70 H -0.2444 0.6586 0.2200 0.088 Uiso 1 1 calc R . .
C71 C -0.115(2) 0.6563(15) 0.1973(8) 0.079(7) Uani 1 1 d U . .
H71 H -0.1347 0.6663 0.1724 0.094 Uiso 1 1 calc R . .
C72 C -0.023(2) 0.6447(12) 0.2030(7) 0.057(6) Uani 1 1 d U . .
H72 H 0.0191 0.6449 0.1824 0.068 Uiso 1 1 calc R . .
C73 C 0.1659(15) 0.6107(9) 0.4164(5) 0.031(2) Uani 1 1 d U . .
C74 C 0.1141(16) 0.6106(9) 0.4527(5) 0.036(3) Uani 1 1 d U . .
H74 H 0.0521 0.6218 0.4567 0.043 Uiso 1 1 calc R . .
C75 C 0.1786(16) 0.5900(10) 0.4806(5) 0.040(3) Uani 1 1 d U . .
H75 H 0.1654 0.5861 0.5068 0.048 Uiso 1 1 calc R . .
C76 C 0.2606(17) 0.5768(10) 0.4645(6) 0.040(3) Uani 1 1 d U . .
H76 H 0.3121 0.5607 0.4772 0.048 Uiso 1 1 calc R . .
C77 C 0.2563(14) 0.5919(10) 0.4238(5) 0.035(2) Uani 1 1 d U . .
C78 C 0.3281(16) 0.5850(11) 0.3940(6) 0.045(3) Uani 1 1 d U . .
H78 H 0.3024 0.5566 0.3753 0.054 Uiso 1 1 calc R . .
C79 C 0.3795(18) 0.6438(12) 0.3391(8) 0.062(7) Uani 1 1 d U . .
H79A H 0.3391 0.6584 0.3191 0.093 Uiso 1 1 calc R . .
H79B H 0.3998 0.6042 0.3329 0.093 Uiso 1 1 calc R . .
H79C H 0.4330 0.6694 0.3414 0.093 Uiso 1 1 calc R . .
C80 C 0.3670(19) 0.6911(11) 0.3952(7) 0.057(6) Uani 1 1 d U . .
H80A H 0.3343 0.6939 0.4194 0.085 Uiso 1 1 calc R . .
H80B H 0.3585 0.7274 0.3809 0.085 Uiso 1 1 calc R . .
H80C H 0.4325 0.6850 0.4000 0.085 Uiso 1 1 calc R . .
C81 C 0.4191(17) 0.5604(12) 0.4058(7) 0.049(4) Uani 1 1 d U . .
C82 C 0.4739(19) 0.5872(13) 0.4363(8) 0.066(6) Uani 1 1 d U . .
H82 H 0.4451 0.6163 0.4513 0.080 Uiso 1 1 calc R . .
C83 C 0.5596(19) 0.5739(13) 0.4443(9) 0.069(6) Uani 1 1 d U . .
H83 H 0.5928 0.5919 0.4643 0.083 Uiso 1 1 calc R . .
C84 C 0.603(2) 0.5250(15) 0.4178(9) 0.079(6) Uani 1 1 d U . .
H84 H 0.6648 0.5134 0.4214 0.094 Uiso 1 1 calc R . .
C85 C 0.551(2) 0.4991(15) 0.3895(9) 0.075(7) Uani 1 1 d U . .
H85 H 0.5755 0.4683 0.3745 0.090 Uiso 1 1 calc R . .
C86 C 0.4649(19) 0.5193(12) 0.3840(7) 0.060(5) Uani 1 1 d U . .
H86 H 0.4323 0.5037 0.3631 0.072 Uiso 1 1 calc R . .
C87 C 0.1515(17) 0.7125(10) 0.3719(6) 0.040(3) Uani 1 1 d U . .
C88 C 0.1774(18) 0.7441(11) 0.3411(7) 0.052(5) Uani 1 1 d U . .
H88 H 0.1751 0.7249 0.3173 0.062 Uiso 1 1 calc R . .
C89 C 0.206(2) 0.8005(12) 0.3411(8) 0.063(6) Uani 1 1 d U . .
H89 H 0.2278 0.8180 0.3184 0.076 Uiso 1 1 calc R . .
C90 C 0.