####################################################################### 
# 
# This file contains crystal structure data downloaded from the 
# Cambridge Structural Database (CSD) hosted by the Cambridge 
# Crystallographic Data Centre (CCDC).
# 
# Full information about CCDC data access policies and citation 
# guidelines are available at http://www.ccdc.cam.ac.uk/access/V1 
# 
# Audit and citation data items may have been added by the CCDC. 
# Please retain this information to preserve the provenance of 
# this file and to allow appropriate attribution of the data. 
# 
#######################################################################

data_compound3_SMOF-5
_audit_block_doi                 10.5517/cc1jtq79
_database_code_depnum_ccdc_archive 'CCDC 1424891'
loop_
_citation_id
_citation_doi
_citation_year
1 10.1021/cm500700z 2014
_audit_update_record             
;
2015-09-11 deposited with the CCDC.	2024-07-11 downloaded from the CCDC.
;




_audit_creation_method           SHELXL-97
_chemical_name_systematic        
; 
 ? 
;
_chemical_name_common            ?
_chemical_melting_point          ?
_chemical_formula_moiety         'C108 H64 In6 N12 O48, 15(C3 H7 N O)'
_chemical_formula_sum            'C153 H169 In6 N27 O63'
_chemical_formula_weight         4083.07

loop_
_atom_type_symbol
_atom_type_description
_atom_type_scat_dispersion_real
_atom_type_scat_dispersion_imag
_atom_type_scat_source
C C 0.0033 0.0016 'International Tables Vol C Tables 4.2.6.8 and 6.1.1.4'
H H 0.0000 0.0000 'International Tables Vol C Tables 4.2.6.8 and 6.1.1.4'
N N 0.0061 0.0033 'International Tables Vol C Tables 4.2.6.8 and 6.1.1.4'
O O 0.0106 0.0060 'International Tables Vol C Tables 4.2.6.8 and 6.1.1.4'
In In -0.7276 1.3100 'International Tables Vol C Tables 4.2.6.8 and 6.1.1.4'

_symmetry_cell_setting           Orthorhombic
_symmetry_space_group_name_H-M   'I b c a'
_symmetry_space_group_name_Hall  '-I 2b 2c'

loop_
_symmetry_equiv_pos_as_xyz
'x, y, z'
'-x+1/2, -y, z+1/2'
'-x, y+1/2, -z+1/2'
'x+1/2, -y+1/2, -z'
'x+1/2, y+1/2, z+1/2'
'-x+1, -y+1/2, z+1'
'-x+1/2, y+1, -z+1'
'x+1, -y+1, -z+1/2'
'-x, -y, -z'
'x-1/2, y, -z-1/2'
'x, -y-1/2, z-1/2'
'-x-1/2, y-1/2, z'
'-x+1/2, -y+1/2, -z+1/2'
'x, y+1/2, -z'
'x+1/2, -y, z'
'-x, y, z+1/2'

_cell_length_a                   32.092(18)
_cell_length_b                   34.184
_cell_length_c                   34.184(19)
_cell_angle_alpha                90.00
_cell_angle_beta                 90.00
_cell_angle_gamma                90.00
_cell_volume                     37501(29)
_cell_formula_units_Z            8
_cell_measurement_temperature    193(2)
_cell_measurement_reflns_used    200
_cell_measurement_theta_min      1.8
_cell_measurement_theta_max      14.76

_exptl_crystal_description       irregular
_exptl_crystal_colour            yellow
_exptl_crystal_size_max          0.18
_exptl_crystal_size_mid          0.15
_exptl_crystal_size_min          0.12
_exptl_crystal_density_meas      ?
_exptl_crystal_density_diffrn    1.446
_exptl_crystal_density_method    'not measured'
_exptl_crystal_F_000             16592
_exptl_absorpt_coefficient_mu    0.815
_exptl_absorpt_correction_type   numerical
_exptl_absorpt_correction_T_min  0.8671
_exptl_absorpt_correction_T_max  0.9085
_exptl_absorpt_process_details   'SADABS (Sheldrick, 1999)'

_exptl_special_details           
; 
 ? 
;

_diffrn_ambient_temperature      193(2)
_diffrn_radiation_wavelength     0.71073
_diffrn_radiation_type           MoK\a
_diffrn_radiation_source         'fine-focus sealed tube'
_diffrn_radiation_monochromator  graphite
_diffrn_measurement_device_type  'Bruker APEX CCD'
_diffrn_measurement_method       'omega and phi scans'
_diffrn_detector_area_resol_mean ?
_diffrn_reflns_number            30707
_diffrn_reflns_av_R_equivalents  0.1742
_diffrn_reflns_av_sigmaI/netI    0.0891
_diffrn_reflns_limit_h_min       -22
_diffrn_reflns_limit_h_max       22
_diffrn_reflns_limit_k_min       -24
_diffrn_reflns_limit_k_max       24
_diffrn_reflns_limit_l_min       -24
_diffrn_reflns_limit_l_max       24
_diffrn_reflns_theta_min         1.19
_diffrn_reflns_theta_max         14.76
_reflns_number_total             3611
_reflns_number_gt                2204
_reflns_threshold_expression     >2sigma(I)

_computing_data_collection       'APEX II (Bruker, 2007)'
_computing_cell_refinement       'APEX II (Bruker, 2007)'
_computing_data_reduction        'APEX II (Bruker, 2007)'
_computing_structure_solution    'SHELXTL (Sheldrick, 2008; Bruker, 2000)'
_computing_structure_refinement  'SHELXTL (Sheldrick, 2008; Bruker, 2000)'
_computing_molecular_graphics    
'SHELXTL (Bruker, 2000) and Mercury (Macrae, et al., 2008)'
_computing_publication_material  'SHELXTL (Sheldrick, 2008)'


_refine_special_details          
; 
 Refinement of F^2^ against ALL reflections.  The weighted R-factor wR and 
 goodness of fit S are based on F^2^, conventional R-factors R are based 
 on F, with F set to zero for negative F^2^. The threshold expression of 
 F^2^ > 2sigma(F^2^) is used only for calculating R-factors(gt) etc. and is 
 not relevant to the choice of reflections for refinement.  R-factors based 
 on F^2^ are statistically about twice as large as those based on F, and R- 
 factors based on ALL data will be even larger. 

The ligand illustrated some difficulty in refinement of carbon 
atoms.  Since this molecule is 
fairly well defined as containing 3 benzene rings, connected via the central
C3N3 ring, all the rings in both ligands were restrained to have the planar
aromatic-type bonding.  In addition, oxalate bridging ligands were also
constrained to have the expected C-C, O-C bond lengths.  This added 
considerable stability to the refinement without causing a significant
increase in the overall residual error.  There were two OH groups present
in the lattice due to monodentate coordination of the linker molecule.  These
OH groups were associated with O14 and O18 oxygen atoms.  The hydrogen atoms 
were left off of the O14 and O18 oxygens in the refinement, but
was accounted for in the formula of the final refinement.

There was significant scatter observed within the large
channels/voids in the structure; this suggested 
the presence of solvent in the void space.  Solvent density was 
detected in at least 8 separate crystallographic locations.  We
list these eight center-of-density locations but acknowledge 
that there are likely
more sites necessary to completely eulicidate the modeled solvent 
density.  The in fractional 
coodinates for the sites are as follows:  
Site 1 at (0, 0.75, 0.3703), 
Site 2 at (0.542, 0.678, 0.259),  
Site 3 at (0.871, 0.786, 0.460),
Site 4 at (0.737, 0.934, 0.187),
Site 5 at (0.25, 0.873, 0.5),
site 6 at (0, 0 , 0),
Site 7 at (0.145, 0.957, 0.429),
Site 8 at (0.102, 0.977, 0.75).
 
Attempts to refine the highly disordered
solvent were unproductive.  Therefore, the program Platon/Squeeze 
(Spek, 1990) was employed to model the solvent presence.  Thermal 
gravimetric analysis (TGA) coupled with Mass-Spectrometry (MS) 
suggested that the solvent loss was from dimethylformamide (DMF) which
was employed in the crystallization process.  The application of 
the Squeeze routine reported solvent accessable void space of 
19465.3 cubic Angstroms containing 4827 electrons/cell.  Assuming all 
the density in the solvent voids was from DMF molecules, this roughly 
translated to approximately 120 DMF molecules per cell.  
Association of sites listed above with DMF molecules would account for
88 of the 120 DMF molecules (or about 70 percent of the solvent 
density predicted
by the electron count determined by Squeeze).  The remaining solvent
sites proved more difficult to located due a lack of clearly located
electron density nodes.  This suggests that the solvent is 
highly disordered, resulting in smearing of the electron density.
Even so, the Squeeze process was still able to model this density 
and account for the total DMF presence.  The estimated weight of DMF present
within the structure (based on the electron density of DMF detected
via Squeeze) was 27 wt%.  This is in good agreement with TGA analysis.  
Refinement of the structure after solvent modeling resulted
in a signifant drop in residual error.  While the final structure factors
do not reflect the now absent DMF solvent, the final refinement included
the additional DMF chemical species within the chemical formula and the reported
crystal data reflect the presence of 15 DMF molecules per formula unit
for the SMOF-5 structure.  The addition of the solvent to the formula unit
generates significant A-level errors (e.g. density, chemical formula, density)
in the final CIF output.


;

_refine_ls_structure_factor_coef Fsqd
_refine_ls_matrix_type           full
_refine_ls_weighting_scheme      calc
_refine_ls_weighting_details     
'calc w=1/[\s^2^(Fo^2^)+(0.1735P)^2^+0.0000P] where P=(Fo^2^+2Fc^2^)/3'
_atom_sites_solution_primary     direct
_atom_sites_solution_secondary   difmap
_atom_sites_solution_hydrogens   geom
_refine_ls_hydrogen_treatment    constr
_refine_ls_extinction_method     none
_refine_ls_extinction_coef       ?
_refine_ls_number_reflns         3611
_refine_ls_number_parameters     334
_refine_ls_number_restraints     293
_refine_ls_R_factor_all          0.1290
_refine_ls_R_factor_gt           0.0939
_refine_ls_wR_factor_ref         0.2762
_refine_ls_wR_factor_gt          0.2569
_refine_ls_goodness_of_fit_ref   1.050
_refine_ls_restrained_S_all      1.016
_refine_ls_shift/su_max          0.000
_refine_ls_shift/su_mean         0.000

loop_
_atom_site_label
_atom_site_type_symbol
_atom_site_fract_x
_atom_site_fract_y
_atom_site_fract_z
_atom_site_U_iso_or_equiv
_atom_site_adp_type
_atom_site_occupancy
_atom_site_symmetry_multiplicity
_atom_site_calc_flag
_atom_site_refinement_flags
_atom_site_disorder_assembly
_atom_site_disorder_group
In1 In 0.96633(8) 0.89604(7) 0.37722(7) 0.1239(12) Uani 1 1 d . . .
In2 In 1.10258(8) 0.85720(8) 0.47708(7) 0.1321(13) Uani 1 1 d D . .
In3 In 1.12340(9) 0.96138(7) 0.60536(8) 0.1430(13) Uani 1 1 d . . .
N1 N 0.7308(6) 0.7668(6) 0.3063(4) 0.118(8) Uiso 1 1 d D . .
H1 H 0.7407 0.7587 0.3289 0.142 Uiso 1 1 calc R . .
N2 N 0.6843(4) 0.7609(5) 0.2567(6) 0.107(8) Uiso 1 1 d D . .
H2 H 0.6630 0.7489 0.2458 0.128 Uiso 1 1 calc R . .
N3 N 0.7334(6) 0.8086(4) 0.2552(6) 0.119(8) Uiso 1 1 d D . .
H3 H 0.7450 0.8288 0.2434 0.143 Uiso 1 1 calc R . .
N4 N 1.1666(7) 0.8752(5) 0.1909(6) 0.127(9) Uiso 1 1 d D . .
H4 H 1.1700 0.8945 0.2077 0.153 Uiso 1 1 calc R . .
N5 N 1.1853(6) 0.8443(7) 0.1352(5) 0.150(10) Uiso 1 1 d D . .
H5A H 1.2012 0.8428 0.1143 0.180 Uiso 1 1 calc R . .
N6 N 1.1329(5) 0.8204(6) 0.1724(7) 0.136(9) Uiso 1 1 d D . .
H6A H 1.1136 0.8026 0.1767 0.163 Uiso 1 1 calc R . .
O1 O 0.9839(5) 0.8550(5) 0.4261(5) 0.110(6) Uiso 1 1 d D . .
O2 O 1.0249(5) 0.9230(6) 0.4039(5) 0.130(7) Uiso 1 1 d D . .
O3 O 1.0365(5) 0.8407(5) 0.4625(5) 0.111(6) Uiso 1 1 d D . .
O4 O 1.0760(5) 0.9028(5) 0.4399(5) 0.106(6) Uiso 1 1 d D . .
O5 O 0.9131(7) 0.8521(5) 0.3747(6) 0.149(8) Uiso 1 1 d D . .
O6 O 0.9126(7) 0.8976(6) 0.3315(5) 0.156(8) Uiso 1 1 d D . .
O7 O 1.0684(6) 1.0712(6) 0.5797(5) 0.134(7) Uiso 1 1 d . . .
O8 O 0.9641(6) 0.9599(6) 0.3527(6) 0.132(7) Uiso 1 1 d . . .
O9 O 1.1044(6) 1.0119(7) 0.5675(6) 0.167(9) Uiso 1 1 d D . .
O10 O 1.0750(7) 0.9866(7) 0.6426(5) 0.170(9) Uiso 1 1 d D . .
O11 O 1.1169(6) 0.9125(7) 0.6564(5) 0.153(8) Uiso 1 1 d D . .
O12 O 1.1639(6) 0.9069(6) 0.6116(6) 0.156(8) Uiso 1 1 d D . .
O13 O 1.0062(6) 0.8876(6) 0.3360(5) 0.128(7) Uiso 1 1 d D . .
O14 O 1.0098(9) 0.8226(10) 0.3371(9) 0.271(15) Uiso 1 1 d D . .
O15 O 1.1665(10) 0.8128(10) 0.5040(9) 0.264(15) Uiso 1 1 d D . .
O16 O 1.0980(8) 0.8060(8) 0.5184(7) 0.193(10) Uiso 1 1 d D . .
O17 O 1.1692(7) 1.0003(7) 0.6098(7) 0.168(9) Uiso 1 1 d D . .
O18 O 1.1691(8) 0.9927(8) 0.6787(8) 0.200(10) Uiso 1 1 d D . .
O19 O 1.1550(5) 0.8648(5) 0.4314(5) 0.131(7) Uiso 1 1 d D . .
O20 O 1.1102(7) 0.8182(5) 0.4258(7) 0.178(9) Uiso 1 1 d D . .
O21 O 1.0673(6) 0.8853(6) 0.5291(5) 0.133(7) Uiso 1 1 d D . .
O22 O 1.1439(6) 0.9045(5) 0.4979(6) 0.144(8) Uiso 1 1 d D . .
O23 O 1.1524(6) 0.9481(5) 0.5433(5) 0.127(7) Uiso 1 1 d D . .
O24 O 1.0777(5) 0.9256(5) 0.5767(5) 0.111(6) Uiso 1 1 d D . .
C1 C 1.0203(8) 0.8610(7) 0.4365(7) 0.086(9) Uiso 1 1 d D . .
C2 C 1.0427(9) 0.8991(7) 0.4235(8) 0.117(11) Uiso 1 1 d D . .
C3 C 0.8968(8) 0.8677(10) 0.3453(10) 0.158(14) Uiso 1 1 d D . .
C4 C 0.8543(7) 0.8510(7) 0.3362(8) 0.115(5) Uiso 1 1 d D . .
C5 C 0.8376(7) 0.8187(7) 0.3543(6) 0.115(5) Uiso 1 1 d D . .
H5 H 0.8513 0.8074 0.3762 0.138 Uiso 1 1 calc R . .
C6 C 0.8010(7) 0.8026(6) 0.3408(7) 0.115(5) Uiso 1 1 d D . .
H6 H 0.7883 0.7815 0.3545 0.138 Uiso 1 1 calc R . .
C7 C 0.7830(6) 0.8170(7) 0.3077(8) 0.115(5) Uiso 1 1 d D . .
C8 C 0.8015(7) 0.8472(7) 0.2879(6) 0.115(5) Uiso 1 1 d D . .
H8 H 0.7904 0.8555 0.2635 0.138 Uiso 1 1 calc R . .
C9 C 0.8359(8) 0.8654(6) 0.3031(7) 0.115(5) Uiso 1 1 d D . .
H9 H 0.8470 0.8879 0.2907 0.138 Uiso 1 1 calc R . .
C10 C 0.7478(4) 0.7965(6) 0.2887(6) 0.080(8) Uiso 1 1 d D . .
C11 C 0.6987(6) 0.7487(5) 0.2903(6) 0.159(13) Uiso 1 1 d D . .
C12 C 0.6813(7) 0.7135(5) 0.3108(7) 0.126(5) Uiso 1 1 d D . .
C13 C 0.6982(5) 0.7004(7) 0.3461(7) 0.126(5) Uiso 1 1 d D . .
H13 H 0.7176 0.7162 0.3598 0.151 Uiso 1 1 calc R . .
C14 C 0.6866(6) 0.6643(7) 0.3610(6) 0.126(5) Uiso 1 1 d D . .
H14 H 0.6981 0.6555 0.3850 0.151 Uiso 1 1 calc R . .
C15 C 0.6583(7) 0.6409(6) 0.3411(7) 0.126(5) Uiso 1 1 d D . .
C16 C 0.6412(6) 0.6540(7) 0.3059(7) 0.126(5) Uiso 1 1 d D . .
H16 H 0.6216 0.6383 0.2922 0.151 Uiso 1 1 calc R . .
C17 C 0.6530(6) 0.6902(7) 0.2909(6) 0.126(5) Uiso 1 1 d D . .
H17 H 0.6415 0.6990 0.2669 0.151 Uiso 1 1 calc R . .
C18 C 0.7015(6) 0.7909(6) 0.2390(4) 0.168(14) Uiso 1 1 d D . .
C19 C 0.6863(8) 0.8045(8) 0.2001(6) 0.125(5) Uiso 1 1 d D . .
C20 C 0.6509(8) 0.7864(7) 0.1843(7) 0.125(5) Uiso 1 1 d D . .
H20 H 0.6357 0.7680 0.1995 0.150 Uiso 1 1 calc R . .
C21 C 0.6379(7) 0.7954(7) 0.1459(7) 0.125(5) Uiso 1 1 d D . .
H21 H 0.6166 0.7804 0.1337 0.150 Uiso 1 1 calc R . .
C22 C 0.6567(8) 0.8267(8) 0.1260(6) 0.125(5) Uiso 1 1 d D . .
C23 C 0.6921(8) 0.8451(7) 0.1419(7) 0.125(5) Uiso 1 1 d D . .
H23 H 0.7059 0.8651 0.1275 0.150 Uiso 1 1 calc R . .
C24 C 0.7072(7) 0.8340(7) 0.1789(7) 0.125(5) Uiso 1 1 d D . .
H24 H 0.7312 0.8463 0.1896 0.150 Uiso 1 1 calc R . .
C25 C 1.1440(10) 0.8933(9) 0.6397(10) 0.154(13) Uiso 1 1 d D . .
C26 C 1.0811(8) 1.0317(8) 0.5869(7) 0.129(12) Uiso 1 1 d D . .
C27 C 1.0637(7) 1.0200(9) 0.6280(6) 0.108(10) Uiso 1 1 d D . .
C28 C 1.0190(5) 0.8546(11) 0.3259(6) 0.162(14) Uiso 1 1 d D . .
C29 C 1.0521(6) 0.8490(9) 0.2942(6) 0.155(6) Uiso 1 1 d D . .
C30 C 1.0745(8) 0.8823(7) 0.2845(7) 0.155(6) Uiso 1 1 d D . .
H30 H 1.0715 0.9054 0.2997 0.185 Uiso 1 1 calc R . .
C31 C 1.1010(7) 0.8818(7) 0.2530(8) 0.155(6) Uiso 1 1 d D . .
H31 H 1.1163 0.9047 0.2465 0.185 Uiso 1 1 calc R . .
C32 C 1.1058(6) 0.8486(9) 0.2307(6) 0.155(6) Uiso 1 1 d D . .
C33 C 1.0835(8) 0.8154(7) 0.2403(7) 0.155(6) Uiso 1 1 d D . .
H33 H 1.0865 0.7923 0.2251 0.185 Uiso 1 1 calc R . .
C34 C 1.0569(7) 0.8158(7) 0.2718(8) 0.155(6) Uiso 1 1 d D . .
H34 H 1.0416 0.7929 0.2783 0.185 Uiso 1 1 calc R . .
C35 C 1.1378(6) 0.8486(7) 0.1969(5) 0.160(14) Uiso 1 1 d D . .
C36 C 1.1903(5) 0.8728(6) 0.1600(7) 0.168(14) Uiso 1 1 d D . .
C37 C 1.1565(7) 0.8178(5) 0.1413(6) 0.119(11) Uiso 1 1 d D . .
C38 C 1.2732(10) 1.0954(9) 0.6586(11) 0.188(7) Uiso 1 1 d D . .
C39 C 1.2708(10) 1.0662(11) 0.6856(9) 0.188(7) Uiso 1 1 d D . .
H39 H 1.2913 1.0643 0.7055 0.226 Uiso 1 1 calc R . .
C40 C 1.2392(11) 1.0396(9) 0.6841(9) 0.188(7) Uiso 1 1 d D . .
H40 H 1.2352 1.0218 0.7051 0.226 Uiso 1 1 calc R . .
C41 C 1.2133(10) 1.0387(9) 0.6524(12) 0.188(7) Uiso 1 1 d D . .
C42 C 1.2166(10) 1.0675(11) 0.6249(9) 0.188(7) Uiso 1 1 d D . .
H42 H 1.1975 1.0679 0.6036 0.226 Uiso 1 1 calc R . .
C43 C 1.2463(12) 1.0954(9) 0.6274(9) 0.188(7) Uiso 1 1 d D . .
H43 H 1.2486 1.1149 0.6077 0.226 Uiso 1 1 calc R . .
C44 C 1.1551(11) 0.7865(7) 0.1119(7) 0.177(7) Uiso 1 1 d D . .
C45 C 1.1859(7) 0.7791(8) 0.0838(9) 0.177(7) Uiso 1 1 d D . .
H45 H 1.2114 0.7932 0.0843 0.213 Uiso 1 1 calc R . .
C46 C 1.1791(8) 0.7508(9) 0.0550(7) 0.177(7) Uiso 1 1 d D . .
H46 H 1.1998 0.7456 0.0359 0.213 Uiso 1 1 calc R . .
C47 C 1.1415(11) 0.7299(6) 0.0543(7) 0.177(7) Uiso 1 1 d D . .
C48 C 1.1110(7) 0.7373(8) 0.0820(9) 0.177(7) Uiso 1 1 d D . .
H48 H 1.0855 0.7232 0.0814 0.213 Uiso 1 1 calc R . .
C49 C 1.1176(9) 0.7657(9) 0.1111(7) 0.177(7) Uiso 1 1 d D . .
H49 H 1.0967 0.7706 0.1302 0.213 Uiso 1 1 calc R . .
C50 C 1.1359(10) 0.8025(7) 0.5222(8) 0.138(12) Uiso 1 1 d D . .
C51 C 1.1798(8) 1.0074(7) 0.6448(9) 0.108(10) Uiso 1 1 d D . .
C52 C 1.1399(9) 0.8368(9) 0.4159(9) 0.183(16) Uiso 1 1 d D . .
C53 C 1.0868(8) 0.9098(9) 0.5440(9) 0.133(12) Uiso 1 1 d D . .
C54 C 1.1300(7) 0.9211(8) 0.5295(8) 0.089(9) Uiso 1 1 d D . .

loop_
_atom_site_ani