####################################################################### 
# 
# This file contains crystal structure data downloaded from the 
# Cambridge Structural Database (CSD) hosted by the Cambridge 
# Crystallographic Data Centre (CCDC).
# 
# Full information about CCDC data access policies and citation 
# guidelines are available at http://www.ccdc.cam.ac.uk/access/V1 
# 
# Audit and citation data items may have been added by the CCDC. 
# Please retain this information to preserve the provenance of 
# this file and to allow appropriate attribution of the data. 
# 
#######################################################################

data_compound1_SMOF-2
_audit_block_doi                 10.5517/cc1jsr35
_database_code_depnum_ccdc_archive 'CCDC 1423957'
loop_
_citation_id
_citation_doi
_citation_year
1 10.1021/cm500700z 2014
_audit_update_record             
;
2015-09-11 deposited with the CCDC.	2024-07-11 downloaded from the CCDC.
;




_audit_creation_method           SHELXL-97
_chemical_name_systematic        
; 
 ? 
;
_chemical_name_common            ?
_chemical_melting_point          ?
_chemical_formula_moiety         'C63 H40 Eu In O16, 6(C5 H11 O N)'
_chemical_formula_sum            'C93 H106 Eu In N6 O22'
_chemical_formula_weight         1926.62

loop_
_atom_type_symbol
_atom_type_description
_atom_type_scat_dispersion_real
_atom_type_scat_dispersion_imag
_atom_type_scat_source
C C 0.0033 0.0016 'International Tables Vol C Tables 4.2.6.8 and 6.1.1.4'
H H 0.0000 0.0000 'International Tables Vol C Tables 4.2.6.8 and 6.1.1.4'
O O 0.0106 0.0060 'International Tables Vol C Tables 4.2.6.8 and 6.1.1.4'
In In -0.7276 1.3100 'International Tables Vol C Tables 4.2.6.8 and 6.1.1.4'
Eu Eu -0.1578 3.6682 'International Tables Vol C Tables 4.2.6.8 and 6.1.1.4'
N N 0.0061 0.0033 'International Tables Vol C Tables 4.2.6.8 and 6.1.1.4'

_symmetry_cell_setting           Trigonal
_symmetry_space_group_name_H-M   'R -3'
_symmetry_space_group_name_Hall  '-R 3'

loop_
_symmetry_equiv_pos_as_xyz
'x, y, z'
'-y, x-y, z'
'-x+y, -x, z'
'x+2/3, y+1/3, z+1/3'
'-y+2/3, x-y+1/3, z+1/3'
'-x+y+2/3, -x+1/3, z+1/3'
'x+1/3, y+2/3, z+2/3'
'-y+1/3, x-y+2/3, z+2/3'
'-x+y+1/3, -x+2/3, z+2/3'
'-x, -y, -z'
'y, -x+y, -z'
'x-y, x, -z'
'-x+2/3, -y+1/3, -z+1/3'
'y+2/3, -x+y+1/3, -z+1/3'
'x-y+2/3, x+1/3, -z+1/3'
'-x+1/3, -y+2/3, -z+2/3'
'y+1/3, -x+y+2/3, -z+2/3'
'x-y+1/3, x+2/3, -z+2/3'

_cell_length_a                   41.604(6)
_cell_length_b                   41.604(6)
_cell_length_c                   40.246(5)
_cell_angle_alpha                90.00
_cell_angle_beta                 90.00
_cell_angle_gamma                120.00
_cell_volume                     60330(14)
_cell_formula_units_Z            18
_cell_measurement_temperature    193(2)
_cell_measurement_reflns_used    200
_cell_measurement_theta_min      1.8
_cell_measurement_theta_max      20.8

_exptl_crystal_description       irregular
_exptl_crystal_colour            yellow
_exptl_crystal_size_max          0.468
_exptl_crystal_size_mid          0.368
_exptl_crystal_size_min          0.254
_exptl_crystal_density_meas      ?
_exptl_crystal_density_diffrn    0.955
_exptl_crystal_density_method    'not measured'
_exptl_crystal_F_000             17892
_exptl_absorpt_coefficient_mu    0.686
_exptl_absorpt_correction_type   numerical
_exptl_absorpt_correction_T_min  0.7395
_exptl_absorpt_correction_T_max  0.8450
_exptl_absorpt_process_details   'SADABS (Sheldrick, 1999)'

_exptl_special_details           
; 
 ? 
;

_diffrn_ambient_temperature      193(2)
_diffrn_radiation_wavelength     0.71073
_diffrn_radiation_type           MoK\a
_diffrn_radiation_source         'fine-focus sealed tube'
_diffrn_radiation_monochromator  graphite
_diffrn_measurement_device_type  'Bruker APEX CCD'
_diffrn_measurement_method       'omega and phi scans'
_diffrn_detector_area_resol_mean ?
_diffrn_reflns_number            13474
_diffrn_reflns_av_R_equivalents  0.0000
_diffrn_reflns_av_sigmaI/netI    0.0801
_diffrn_reflns_limit_h_min       -41
_diffrn_reflns_limit_h_max       20
_diffrn_reflns_limit_k_min       0
_diffrn_reflns_limit_k_max       41
_diffrn_reflns_limit_l_min       0
_diffrn_reflns_limit_l_max       38
_diffrn_reflns_theta_min         1.24
_diffrn_reflns_theta_max         20.82
_reflns_number_total             13474
_reflns_number_gt                6776
_reflns_threshold_expression     >2sigma(I)

_computing_data_collection       'APEX II (Bruker, 2007)'
_computing_cell_refinement       'APEX II (Bruker, 2007)'
_computing_data_reduction        'APEX II (Bruker, 2007)'
_computing_structure_solution    'SHELXTL (Sheldrick, 2008; Bruker, 2000)'
_computing_structure_refinement  'SHELXTL (Sheldrick, 2008; Bruker, 2000)'
_computing_molecular_graphics    
'SHELXTL (Bruker, 2000) and Mercury (Macrae, et al., 2008)'
_computing_publication_material  'SHELXTL (Sheldrick, 2008)'

_refine_special_details          
; 
 Refinement of F^2^ against ALL reflections.  The weighted R-factor wR and 
 goodness of fit S are based on F^2^, conventional R-factors R are based 
 on F, with F set to zero for negative F^2^. The threshold expression of 
 F^2^ > 2sigma(F^2^) is used only for calculating R-factors(gt) etc. and is 
 not relevant to the choice of reflections for refinement.  R-factors based 
 on F^2^ are statistically about twice as large as those based on F, and R- 
 factors based on ALL data will be even larger. 

The BTB ligand illustrated some difficulty in refinement of a few carbon 
atoms.  Since the BTB molecule is 
fairly well defined as containing 4 benzene rings, the carbon atoms
within the problematic ring (C57 > C62) were constrained to exhibit 
the expected bond lengths
(and angles).  
In addition, this troublesome ring
was assumed to be planar, and was constrained
to be flat (using the FLAT command).  Also, the bond distances between 
the O and C atoms at the termination of the BTB ligand were
constrained (i.e. O13 and O14 to C63).  The FLAT command was extended 
from the C57 > C62 ring to include the C63, O13 and O14 atoms.  Note that 
the most difficult ring 
to refine with stability was terminated by the monodentate bonding (where
the terminal or non-bound oxygen was the O14).  THe O14 is an OH group
but due to the low resolution of the data it was difficult to locate the
hydrogen atom.  Hence, 
the hydrogen atom was left off of the O14 oxygen in the refinement, but
was accounted for in the formula of the final refinement.  The problematic
nature of the C57 > C62 ring and its subsequent terminal oxygen branches
suggests that this particular ring was subject to some disorder due to 
the absence of a more rigid bidentate bonding configuration.  
Elsewhere in the structure 
some additional bond length and FLAT constraints were
added to improve the bidentate bonding of the O9-C36-O10 bonding.  
The above listed constraints added considerable stability to the 
refinement.  In addition to the OH group, there were two terminal 
water molecules in the structure that coordinate to the In metal center.
These water molecules are associated with O15 and O16 oxygen atoms.
The hydrogen atoms present on these water molecules were not included
in the structure model, but were added to the total formula in the 
final refinement cycle, just as in the case of the O14 OH hydrogen.

There was significant scatter observed within the large
channels/voids in the structure; this suggested 
the presence of solvent in the void space.  Solvent density was 
detected in at least three separate crystallographic locations.  We
list these three center-of-density locations but acknowledge 
that there are likely
more sites necessary to completely eulicidate the modeled solvent 
density.  The in fractional 
coodinates for the sites are as follows:  Site 1 at
(0.435 0.657 0.513), Site 2 at (0.300 0.443 0.614), and Site 3
at (0.020 0.560 0.708).  
Attempts to refine the highly disordered
solvent were unproductive.  Therefore, the program Platon/Squeeze 
(Spek, 1990) was employed to model the solvent presence.  Thermal 
gravimetric analysis (TGA) coupled with Mass-Spectrometry (MS) 
suggested that the solvent loss was from diethylformamide (DEF) which
was employed in the crystallization process.  The application of 
the Squeeze routine reported solvent accessable void space of 
43251 cubic Angstroms containing 6073 electrons/cell.  Assuming all 
the density in the solvent voids was from DEF molecules, this roughly 
translated to approximately 108 DEF molecules per cell.  
Association of sites 1, 2 and 3 with DEF molecules would account for
54 of the 108 DEF molecules (or half of the solvent density predicted
by the electron count determined by Squeeze).  The remaining solvent
sites proved more difficult to located due a lack of clearly located
electron density nodes.  This suggests that the solvent is highly disordered
at these alternative sites, resulting in smearing of the electron density.
Even so, the Squeeze process was still able to model this density 
and account for the total DEF presence.  The estimated weight of DEF present
within the structure (based on the electron density of DEF detected
via Squeeze) was 31 wt%.  This is in good agreement with TGA analysis.  
Refinement of the structure after solvent modeling resulted
in a signifant drop in residual error.  While the final structure factors
do not reflect the now absent DEF solvent, the final refinement included
the additional DEF chemical species within the chemical formula and the reported
crystal data reflect the presence of 6 DEF molecules per formula unit
for the SMOF-2 structure.  The addition of the solvent to the formula unit
generates significant A-level errors (e.g. density, chemical formula, density)
in the final CIF output.

;

_refine_ls_structure_factor_coef Fsqd
_refine_ls_matrix_type           full
_refine_ls_weighting_scheme      calc
_refine_ls_weighting_details     
'calc w=1/[\s^2^(Fo^2^)+(0.2000P)^2^+0.0000P] where P=(Fo^2^+2Fc^2^)/3'
_atom_sites_solution_primary     direct
_atom_sites_solution_secondary   difmap
_atom_sites_solution_hydrogens   geom
_refine_ls_hydrogen_treatment    constr
_refine_ls_extinction_method     none
_refine_ls_extinction_coef       ?
_refine_ls_number_reflns         13474
_refine_ls_number_parameters     386
_refine_ls_number_restraints     72
_refine_ls_R_factor_all          0.1639
_refine_ls_R_factor_gt           0.1173
_refine_ls_wR_factor_ref         0.3508
_refine_ls_wR_factor_gt          0.3182
_refine_ls_goodness_of_fit_ref   1.145
_refine_ls_restrained_S_all      1.167
_refine_ls_shift/su_max          0.001
_refine_ls_shift/su_mean         0.000

loop_
_atom_site_label
_atom_site_type_symbol
_atom_site_fract_x
_atom_site_fract_y
_atom_site_fract_z
_atom_site_U_iso_or_equiv
_atom_site_adp_type
_atom_site_occupancy
_atom_site_symmetry_multiplicity
_atom_site_calc_flag
_atom_site_refinement_flags
_atom_site_disorder_assembly
_atom_site_disorder_group
Eu1 Eu 0.62701(2) 0.091195(18) 0.788372(19) 0.1054(4) Uani 1 1 d . . .
In1 In 0.86088(4) 0.30441(4) 1.13661(3) 0.1647(7) Uani 1 1 d D . .
O1 O 0.65686(17) 0.14908(15) 0.77182(16) 0.0646(17) Uani 1 1 d . . .
O2 O 0.61173(19) 0.13110(17) 0.80662(17) 0.0733(19) Uani 1 1 d . . .
O3 O 0.61558(19) 0.07164(19) 0.83896(16) 0.0735(19) Uani 1 1 d . . .
O4 O 0.6704(2) 0.11149(18) 0.82791(19) 0.088(2) Uani 1 1 d . . .
O5 O 0.6326(2) 0.04171(19) 0.77785(18) 0.082(2) Uani 1 1 d . . .
O6 O 0.67021(19) 0.09440(18) 0.75567(17) 0.080(2) Uani 1 1 d . . .
O7 O 0.5938(2) 0.08110(18) 0.74241(17) 0.077(2) Uani 1 1 d . . .
O8 O 0.5683(2) 0.05378(18) 0.7878(2) 0.088(2) Uani 1 1 d . . .
O9 O 0.8411(3) 0.2552(3) 1.1180(2) 0.133(3) Uani 1 1 d D . .
O10 O 0.8248(3) 0.2836(3) 1.0887(3) 0.165(5) Uani 1 1 d D . .
O11 O 0.8880(3) 0.3319(4) 1.1846(3) 0.163(4) Uani 1 1 d . . .
O12 O 0.8731(5) 0.2770(4) 1.1745(5) 0.236(8) Uani 1 1 d . . .
O13 O 0.2487(4) -0.0113(3) 0.7844(4) 0.206(3) Uiso 1 1 d D . .
O14 O 0.2436(4) 0.0144(3) 0.7403(3) 0.206(3) Uiso 1 1 d D . .
O15 O 0.8130(4) 0.3040(4) 1.1570(4) 0.206(3) Uiso 1 1 d D . .
O16 O 0.8664(4) 0.3546(3) 1.1232(4) 0.206(3) Uiso 1 1 d D . .
C1 C 0.6371(3) 0.1556(3) 0.7903(3) 0.075(3) Uiso 1 1 d . . .
C2 C 0.6437(2) 0.19229(19) 0.7915(2) 0.050(2) Uiso 1 1 d D . .
C3 C 0.6209(2) 0.2004(2) 0.8096(2) 0.068(3) Uiso 1 1 d D . .
H3A H 0.6013 0.1822 0.8219 0.081 Uiso 1 1 calc R . .
C4 C 0.6277(2) 0.2363(2) 0.8092(2) 0.065(3) Uiso 1 1 d D . .
H4A H 0.6129 0.2423 0.8221 0.078 Uiso 1 1 calc R . .
C5 C 0.6552(2) 0.2634(2) 0.7907(2) 0.061(2) Uiso 1 1 d D . .
C6 C 0.6777(2) 0.2540(2) 0.7728(2) 0.063(3) Uiso 1 1 d D . .
H6A H 0.6973 0.2721 0.7604 0.076 Uiso 1 1 calc R . .
C7 C 0.6718(2) 0.2189(2) 0.7731(2) 0.065(3) Uiso 1 1 d D . .
H7A H 0.6869 0.2129 0.7607 0.077 Uiso 1 1 calc R . .
C8 C 0.6604(2) 0.2983(2) 0.7905(2) 0.055(2) Uiso 1 1 d . . .
C9 C 0.6335(2) 0.3048(2) 0.7909(2) 0.060(3) Uiso 1 1 d . . .
H9A H 0.6095 0.2846 0.7916 0.072 Uiso 1 1 calc R . .
C10 C 0.6455(3) 0.0908(3) 0.8483(3) 0.067(3) Uiso 1 1 d . . .
C11 C 0.6571(3) 0.0946(3) 0.8805(2) 0.080(3) Uiso 1 1 d D . .
C12 C 0.6923(2) 0.1178(3) 0.8909(2) 0.092(3) Uiso 1 1 d D . .
H12A H 0.7109 0.1319 0.8757 0.110 Uiso 1 1 calc R . .
C13 C 0.7005(2) 0.1203(3) 0.9256(2) 0.097(4) Uiso 1 1 d D . .
H13A H 0.7245 0.1359 0.9330 0.117 Uiso 1 1 calc R . .
C14 C 0.6735(3) 0.1001(3) 0.9474(2) 0.091(3) Uiso 1 1 d D . .
C15 C 0.6367(3) 0.0772(3) 0.9371(2) 0.100(4) Uiso 1 1 d D . .
H15A H 0.6181 0.0638 0.9525 0.120 Uiso 1 1 calc R . .
C16 C 0.6285(2) 0.0749(3) 0.9034(2) 0.096(3) Uiso 1 1 d D . .
H16A H 0.6041 0.0604 0.8961 0.115 Uiso 1 1 calc R . .
C17 C 0.6817(3) 0.1003(3) 0.9813(3) 0.093(3) Uiso 1 1 d . . .
C18 C 0.7046(3) 0.1303(3) 0.9968(3) 0.099(4) Uiso 1 1 d . . .
H18A H 0.7130 0.1529 0.9861 0.119 Uiso 1 1 calc R . .
C19 C 0.7165(3) 0.1300(3) 1.0276(3) 0.081(3) Uiso 1 1 d . . .
C20 C 0.7339(3) -0.0322(3) 0.7106(3) 0.105(4) Uiso 1 1 d . . .
H20A H 0.7283 -0.0380 0.7330 0.126 Uiso 1 1 calc R . .
C21 C 0.7281(3) -0.0055(3) 0.6970(3) 0.102(4) Uiso 1 1 d . . .
C22 C 0.6639(3) 0.0682(3) 0.9979(3) 0.093(3) Uiso 1 1 d . . .
H22A H 0.6459 0.0469 0.9873 0.111 Uiso 1 1 calc R . .
C23 C 0.7097(3) 0.0105(3) 0.7142(3) 0.086(3) Uiso 1 1 d . . .
C24 C 0.6830(3) -0.0075(3) 0.7351(3) 0.092(3) Uiso 1 1 d . . .
H24A H 0.6760 -0.0321 0.7395 0.110 Uiso 1 1 calc R . .
C25 C 0.6649(3) 0.0070(3) 0.7510(3) 0.094(4) Uiso 1 1 d . . .
H25A H 0.6453 -0.0068 0.7655 0.113 Uiso 1 1 calc R . .
C26 C 0.6774(3) 0.0440(3) 0.7441(3) 0.068(3) Uiso 1 1 d . . .
C27 C 0.7042(3) 0.0628(3) 0.7244(3) 0.084(3) Uiso 1 1 d . . .
H27A H 0.7127 0.0880 0.7215 0.101 Uiso 1 1 calc R . .
C28 C 0.7201(3) 0.0471(3) 0.7080(3) 0.091(3) Uiso 1 1 d . . .
H28A H 0.7383 0.0605 0.6922 0.109 Uiso 1 1 calc R . .
C29 C 0.6590(3) 0.0612(3) 0.7613(3) 0.065(3) Uiso 1 1 d . . .
C30 C 0.7419(3) 0.1616(3) 1.0425(3) 0.118(4) Uiso 1 1 d D . .
C31 C 0.7491(3) 0.1966(3) 1.0321(3) 0.137(5) Uiso 1 1 d D . .
H31A H 0.7384 0.1993 1.0127 0.164 Uiso 1 1 calc R . .
C32 C 0.7728(3) 0.2279(3) 1.0514(3) 0.135(5) Uiso 1 1 d D . .
H32A H 0.7744 0.2506 1.0471 0.162 Uiso 1 1 calc R . .
C33 C 0.7937(3) 0.2252(3) 1.0766(3) 0.139(5) Uiso 1 1 d D . .
C34 C 0.7887(4) 0.1903(3) 1.0855(3) 0.162(6) Uiso 1 1 d D . .
H34A H 0.8018 0.1880 1.1033 0.195 Uiso 1 1 calc R . .
C35 C 0.7640(4) 0.1590(3) 1.0673(3) 0.131(5) Uiso 1 1 d D . .
H35A H 0.7622 0.1362 1.0717 0.157 Uiso 1 1 calc R . .
C36 C 0.8223(4) 0.2573(5) 1.0962(4) 0.145(7) Uiso 1 1 d D . .
C37 C 0.5659(3) 0.0604(3) 0.7591(4) 0.077(3) Uiso 1 1 d . . .
C38 C 0.5307(3) 0.0427(3) 0.7439(3) 0.076(3) Uiso 1 1 d . . .
C39 C 0.4993(4) 0.0227(4) 0.7608(4) 0.117(4) Uiso 1 1 d . . .
H39A H 0.5009 0.0197 0.7835 0.141 Uiso 1 1 calc R . .
C40 C 0.4677(4) 0.0078(4) 0.7478(3) 0.110(4) Uiso 1 1 d . . .
H40A H 0.4470 -0.0050 0.7614 0.132 Uiso 1 1 calc R . .
C41 C 0.4628(4) 0.0098(4) 0.7146(4) 0.108(4) Uiso 1 1 d . . .
C42 C 0.4939(4) 0.0314(4) 0.6963(4) 0.117(4) Uiso 1 1 d . . .
H42A H 0.4918 0.0355 0.6738 0.140 Uiso 1 1 calc R . .
C43 C 0.5274(4) 0.0469(3) 0.7108(3) 0.106(4) Uiso 1 1 d . . .
H43A H 0.5486 0.0606 0.6980 0.128 Uiso 1 1 calc R . .
C44 C 0.4278(3) -0.0059(3) 0.6987(3) 0.102(4) Uiso 1 1 d . . .
C45 C 0.3995(4) -0.0022(4) 0.7157(4) 0.128(5) Uiso 1 1 d . . .
H45A H 0.4034 0.0089 0.7366 0.154 Uiso 1 1 calc R . .
C46 C 0.3677(5) -0.0156(4) 0.6997(4) 0.136(5) Uiso 1 1 d . . .
C47 C 0.3622(4) -0.0292(4) 0.6712(4) 0.128(5) Uiso 1 1 d . . .
H47A H 0.3394 -0.0366 0.6613 0.153 Uiso 1 1 calc R . .
C48 C 0.3873(5) -0.0340(4) 0.6537(4) 0.135(5) Uiso 1 1 d 