
#######################################################################
#
#                 Cambridge Crystallographic Data Centre
#                                CCDC
#
#######################################################################
#
# If this CIF has been generated from an entry in the Cambridge
# Structural Database, then it will include bibliographic, chemical,
# crystal, experimental, refinement or atomic coordinate data resulting
# from the CCDC's data processing and validation procedures.
#
#######################################################################

data_CSD_CIF_KUSMAM
_audit_creation_date 1993-05-14
_audit_creation_method CSD-ConQuest-V1
_database_code_CSD KUSMAM
_database_code_depnum_ccdc_archive 'CCDC 1201515'
_chemical_formula_sum 'C22 H30 Cl8 Hg4 N2 S6'
_chemical_formula_moiety
;
2(C11 H15 Cl1 Hg1 N1 S3 1+),Cl6 Hg2 2-
;
_journal_coden_Cambridge 155
_journal_volume 194
_journal_year 1992
_journal_page_first 93
_journal_name_full 'Inorg.Chim.Acta '
loop_
_publ_author_name
"M.E.Sobhia"
"K.Panneerselvam"
"K.K.Chacko"
"Il-Hwan Suh"
"E.Weber"
"C.Reutel"
_chemical_name_systematic
;
bis(Chloro-(trithiapyridino-12-crown-4)-mercury(ii)) 
bis(\m-chloro)-tetrachloro-di-mercury(ii)
;
_chemical_name_common
;
Teaching Subset: Fundamental Chemistry
;
_cell_volume   1874.919
_exptl_crystal_colour 'colorless'
_exptl_crystal_density_diffrn 2.844
_diffrn_ambient_temperature 288
#These two values have been output from a single CSD field.
_refine_ls_R_factor_gt 0.044
_refine_ls_wR_factor_gt 0.044
_symmetry_cell_setting monoclinic
_symmetry_space_group_name_H-M 'P 21/n'
_symmetry_Int_Tables_number 14
loop_
_symmetry_equiv_pos_site_id
_symmetry_equiv_pos_as_xyz
1 x,y,z
2 1/2-x,1/2+y,1/2-z
3 -x,-y,-z
4 -1/2+x,-1/2-y,-1/2+z
_cell_length_a 13.455(5)
_cell_length_b 15.627(2)
_cell_length_c 8.933(2)
_cell_angle_alpha 90
_cell_angle_beta 93.42(2)
_cell_angle_gamma 90
_cell_formula_units_Z 2
loop_
_atom_type_symbol
_atom_type_radius_bond
C 0.68
Cl 0.99
Hg 1.49
N 0.68
S 1.02
loop_
_atom_site_label
_atom_site_type_symbol
_atom_site_fract_x
_atom_site_fract_y
_atom_site_fract_z
N1 N 0.4334(7) 0.8938(6) 0.594(1)
C1 C 0.4939(9) 0.8258(7) 0.605(1)
C2 C 0.530(1) 0.7944(8) 0.761(2)
S1 S 0.4491(3) 0.8030(2) 0.9111(4)
C3 C 0.363(1) 0.7170(9) 0.878(2)
C4 C 0.296(1) 0.7200(9) 0.741(2)
S2 S 0.2088(3) 0.8113(2) 0.7380(4)
C5 C 0.191(1) 0.8315(9) 0.538(2)
C6 C 0.152(1) 0.921(1) 0.507(2)
S3 S 0.2363(3) 1.0068(2) 0.5691(4)
C7 C 0.336(1) 1.0045(8) 0.443(2)
C8 C 0.406(1) 0.9255(8) 0.455(1)
C9 C 0.440(1) 0.8901(9) 0.328(1)
C10 C 0.501(1) 0.8202(9) 0.340(2)
C11 C 0.527(1) 0.7861(9) 0.479(2)
Hg1 Hg 0.33500(4) 0.93292(3) 0.81137(6)
Cl1 Cl 0.3645(3) 1.0570(2) 0.9638(5)
Hg2 Hg 0.13750(6) 1.02323(4) 1.07836(8)
Cl2 Cl 0.0534(3) 1.0292(3) 0.8211(5)
Cl3 Cl 0.1705(4) 1.1512(3) 1.2149(6)
Cl4 Cl 0.2084(3) 0.8813(2) 1.1166(4)
Hg2B Hg -0.13750(6) 0.97677(4) 0.92164(8)
Cl2B Cl -0.0534(3) 0.9708(3) 1.1789(5)
Cl3B Cl -0.1705(4) 0.8488(3) 0.7851(6)
Cl4B Cl -0.2084(3) 1.1187(2) 0.8834(4)
#END
