####################################################################### 
# 
# This file contains crystal structure data downloaded from the 
# Cambridge Structural Database (CSD) hosted by the Cambridge 
# Crystallographic Data Centre (CCDC).
# 
# Full information about CCDC data access policies and citation 
# guidelines are available at http://www.ccdc.cam.ac.uk/access/V1 
# 
# Audit and citation data items may have been added by the CCDC. 
# Please retain this information to preserve the provenance of 
# this file and to allow appropriate attribution of the data. 
# 
#######################################################################

data_[Cd4(NiL)4(DMF)4]4H2O_1
_audit_block_doi                 10.5517/cct6cjw
_database_code_depnum_ccdc_archive 'CCDC 750898'
loop_
_citation_id
_citation_doi
_citation_year
1 10.1021/ja302340b 2012
_audit_update_record             
;
2015-09-22 deposited with the CCDC.	2024-07-11 downloaded from the CCDC.
;

_audit_creation_method           SHELXL-97

_chemical_name_systematic        
; 
 ? 
;
_chemical_name_common            ?
_chemical_melting_point          ?
_chemical_formula_moiety         ?
_chemical_formula_sum            'C132 H172 Cd4 N12 Ni4 O32'
_chemical_formula_weight         3123.26

loop_
_atom_type_symbol
_atom_type_description
_atom_type_scat_dispersion_real
_atom_type_scat_dispersion_imag
_atom_type_scat_source
C C 0.0033 0.0016 'International Tables Vol C Tables 4.2.6.8 and 6.1.1.4'
H H 0.0000 0.0000 'International Tables Vol C Tables 4.2.6.8 and 6.1.1.4'
N N 0.0061 0.0033 'International Tables Vol C Tables 4.2.6.8 and 6.1.1.4'
O O 0.0106 0.0060 'International Tables Vol C Tables 4.2.6.8 and 6.1.1.4'
Ni Ni 0.3393 1.1124 'International Tables Vol C Tables 4.2.6.8 and 6.1.1.4'
Cd Cd -0.8075 1.2024 'International Tables Vol C Tables 4.2.6.8 and 6.1.1.4'

_symmetry_cell_setting           Monoclinic
_symmetry_space_group_name_H-M   C2

loop_
_symmetry_equiv_pos_as_xyz
'x, y, z'
'-x, y, -z'
'x+1/2, y+1/2, z'
'-x+1/2, y+1/2, -z'

_cell_length_a                   14.430(3)
_cell_length_b                   40.910(9)
_cell_length_c                   30.645(6)
_cell_angle_alpha                90.00
_cell_angle_beta                 101.996(3)
_cell_angle_gamma                90.00
_cell_volume                     17696(6)
_cell_formula_units_Z            4
_cell_measurement_temperature    123(2)
_cell_measurement_reflns_used    26898
_cell_measurement_theta_min      2.04
_cell_measurement_theta_max      25.0

_exptl_crystal_description       Block
_exptl_crystal_colour            Red
_exptl_crystal_size_max          0.12
_exptl_crystal_size_mid          0.12
_exptl_crystal_size_min          0.10
_exptl_crystal_density_meas      ?
_exptl_crystal_density_diffrn    1.172
_exptl_crystal_density_method    'not measured'
_exptl_crystal_F_000             6432
_exptl_absorpt_coefficient_mu    0.947
_exptl_absorpt_correction_type   Multi-scan
_exptl_absorpt_correction_T_min  0.890
_exptl_absorpt_correction_T_max  0.910
_exptl_absorpt_process_details   'SADABS (Sheldrick, 1996)'

_exptl_special_details           
; 
 ? 
;

_diffrn_ambient_temperature      123(2)
_diffrn_radiation_wavelength     0.71073
_diffrn_radiation_type           MoK\a
_diffrn_radiation_source         'fine-focus sealed tube'
_diffrn_radiation_monochromator  graphite
_diffrn_measurement_device_type  ?
_diffrn_measurement_method       ?
_diffrn_detector_area_resol_mean ?
_diffrn_standards_number         ?
_diffrn_standards_interval_count ?
_diffrn_standards_interval_time  ?
_diffrn_standards_decay_%        ?
_diffrn_reflns_number            45624
_diffrn_reflns_av_R_equivalents  0.0880
_diffrn_reflns_av_sigmaI/netI    0.1592
_diffrn_reflns_limit_h_min       -15
_diffrn_reflns_limit_h_max       17
_diffrn_reflns_limit_k_min       -48
_diffrn_reflns_limit_k_max       42
_diffrn_reflns_limit_l_min       -36
_diffrn_reflns_limit_l_max       36
_diffrn_reflns_theta_min         2.04
_diffrn_reflns_theta_max         25.00
_reflns_number_total             26898
_reflns_number_gt                13953
_reflns_threshold_expression     >2sigma(I)

_computing_data_collection       'SMART (Bruker, 1997)'
_computing_cell_refinement       'SAINT (Bruker, 1999)'
_computing_data_reduction        SAINT
_computing_structure_solution    'SHELXS-97 (Sheldrick, 1990)'
_computing_structure_refinement  'SHELXL-97 (Sheldrick, 1997)'
_computing_molecular_graphics    'SHELXTL-PLUS (Sheldrick, 1990)'
_computing_publication_material  SHELXL-97

_refine_special_details          
; 
 Refinement of F^2^ against ALL reflections.  The weighted R-factor wR and 
 goodness of fit S are based on F^2^, conventional R-factors R are based 
 on F, with F set to zero for negative F^2^. The threshold expression of 
 F^2^ > 2sigma(F^2^) is used only for calculating R-factors(gt) etc. and is 
 not relevant to the choice of reflections for refinement.  R-factors based 
 on F^2^ are statistically about twice as large as those based on F, and R- 
 factors based on ALL data will be even larger. The Highest electron density 
 peak 1.6 A from Cd. 
;

_refine_ls_structure_factor_coef Fsqd
_refine_ls_matrix_type           full
_refine_ls_weighting_scheme      calc
_refine_ls_weighting_details     
'calc w=1/[\s^2^(Fo^2^)+(0.1214P)^2^+305.2712P] where P=(Fo^2^+2Fc^2^)/3'
_atom_sites_solution_primary     direct
_atom_sites_solution_secondary   difmap
_atom_sites_solution_hydrogens   geom
_refine_ls_hydrogen_treatment    constr
_refine_ls_extinction_method     none
_refine_ls_extinction_coef       ?
_refine_ls_abs_structure_details 'Flack H D (1983), Acta Cryst. A39, 876-881'
_refine_ls_abs_structure_Flack   0.29(4)
_refine_ls_number_reflns         26898
_refine_ls_number_parameters     1212
_refine_ls_number_restraints     371
_refine_ls_R_factor_all          0.1838
_refine_ls_R_factor_gt           0.1072
_refine_ls_wR_factor_ref         0.3104
_refine_ls_wR_factor_gt          0.2559
_refine_ls_goodness_of_fit_ref   0.996
_refine_ls_restrained_S_all      1.006
_refine_ls_shift/su_max          0.000
_refine_ls_shift/su_mean         0.000

loop_
_atom_site_label
_atom_site_type_symbol
_atom_site_fract_x
_atom_site_fract_y
_atom_site_fract_z
_atom_site_U_iso_or_equiv
_atom_site_adp_type
_atom_site_occupancy
_atom_site_symmetry_multiplicity
_atom_site_calc_flag
_atom_site_refinement_flags
_atom_site_disorder_assembly
_atom_site_disorder_group
Cd1 Cd -0.5000 -0.45278(7) 0.0000 0.0411(7) Uani 1 2 d S . .
Cd2 Cd -0.25520(13) -0.47711(5) 0.00506(6) 0.0458(5) Uani 1 1 d . . .
Cd4 Cd 0.0000 -0.66101(9) 0.5000 0.0871(13) Uani 1 2 d S . .
Cd6 Cd 0.0000 -0.74652(7) 0.5000 0.0485(8) Uani 1 2 d S . .
Cd5 Cd 0.24439(15) -0.72104(6) 0.50652(6) 0.0551(6) Uani 1 1 d . . .
Cd3 Cd -0.5000 -0.53802(9) 0.0000 0.0756(11) Uani 1 2 d S . .
Ni1 Ni -0.3969(2) -0.39376(9) 0.27885(10) 0.0476(9) Uani 1 1 d . . .
Ni2 Ni -0.1734(3) -0.64616(10) 0.22677(11) 0.0545(10) Uani 1 1 d . . .
Ni3 Ni -0.3957(2) -0.30387(9) -0.22137(12) 0.0516(10) Uani 1 1 d . . .
Ni4 Ni -0.6721(2) -0.55254(9) -0.27112(9) 0.0426(9) Uani 1 1 d . . .
N1 N -0.5022(14) -0.3770(5) 0.2990(6) 0.052(5) Uani 1 1 d DU . .
N2 N -0.4814(11) -0.4157(5) 0.2340(6) 0.042(5) Uani 1 1 d DU . .
N3 N -0.2957(12) -0.6340(5) 0.2018(5) 0.038(5) Uani 1 1 d DU . .
N4 N -0.2294(16) -0.6559(6) 0.2740(6) 0.071(7) Uani 1 1 d . . .
N5 N -0.4886(11) -0.2923(4) -0.2710(7) 0.046(5) Uani 1 1 d . . .
N6 N -0.4955(13) -0.3135(5) -0.1968(6) 0.051(5) Uani 1 1 d D . .
N7 N -0.7220(10) -0.5349(5) -0.2256(5) 0.033(4) Uani 1 1 d DU . .
N8 N -0.7913(16) -0.5653(7) -0.2974(8) 0.092(10) Uani 1 1 d D . .
O1 O -0.2801(12) -0.2760(4) 0.4824(5) 0.050(4) Uani 1 1 d D . .
O2 O -0.4397(18) -0.2799(6) 0.4576(8) 0.108(9) Uani 1 1 d D . .
O3 O -0.3106(12) -0.3771(5) 0.3257(5) 0.065(6) Uani 1 1 d D . .
O4 O -0.3017(9) -0.4075(5) 0.2536(4) 0.056(4) Uani 1 1 d D . .
O5 O -0.3573(12) -0.4560(5) 0.0549(5) 0.049(4) Uani 1 1 d U . .
O6 O -0.2096(11) -0.4572(5) 0.0750(5) 0.069(6) Uani 1 1 d D . .
O7 O -0.3449(15) -0.5311(6) 0.0445(6) 0.072(5) Uiso 1 1 d . . .
O8 O -0.2021(14) -0.5291(6) 0.0321(5) 0.073(6) Uani 1 1 d . . .
O9 O -0.1251(9) -0.6359(3) 0.1776(4) 0.038(3) Uiso 1 1 d . . .
O10 O -0.0547(11) -0.6552(5) 0.2571(4) 0.062(6) Uani 1 1 d D . .
O11 O 0.1745(14) -0.7118(5) 0.4378(6) 0.081(6) Uiso 1 1 d . . .
O12 O 0.0383(10) -0.7032(4) 0.4593(5) 0.037(4) Uani 1 1 d U . .
O13 O -0.2014(12) -0.2358(4) -0.4212(5) 0.050(4) Uani 1 1 d U . .
O14 O -0.3641(10) -0.2371(6) -0.4446(5) 0.070(7) Uani 1 1 d . . .
O15 O -0.2861(12) -0.2937(5) -0.2431(5) 0.054 Uani 1 1 d D . .
O16 O -0.3040(11) -0.3168(4) -0.1708(5) 0.049(4) Uani 1 1 d . . .
O17 O -0.4421(9) -0.4202(5) -0.0416(5) 0.055(5) Uani 1 1 d D . .
O18 O -0.2886(15) -0.4275(6) -0.0250(7) 0.090(7) Uiso 1 1 d D . .
O19 O -0.4516(13) -0.4963(5) -0.0422(5) 0.060(5) Uani 1 1 d D . .
O20 O -0.3176(10) -0.4939(4) -0.0619(4) 0.040(4) Uiso 1 1 d D . .
O21 O -0.5467(12) -0.5412(4) -0.2461(4) 0.054(5) Uani 1 1 d DU . .
O22 O -0.6172(12) -0.5689(5) -0.3166(6) 0.067 Uani 1 1 d . . .
O23 O -0.7238(15) -0.6661(6) -0.4790(6) 0.089(8) Uani 1 1 d D . .
O24 O -0.8645(13) -0.6605(7) -0.4631(6) 0.101(9) Uani 1 1 d D . .
O25 O -0.552(3) -0.5759(9) 0.0376(10) 0.183(15) Uani 1 1 d D . .
O26 O -0.1266(10) -0.4759(4) -0.0154(5) 0.059(4) Uani 1 1 d DU . .
C1 C -0.3556(16) -0.2861(7) 0.4569(8) 0.069(10) Uani 1 1 d D . .
C2 C -0.3453(9) -0.3153(4) 0.4266(4) 0.060(8) Uani 1 1 d G . .
C3 C -0.2554(8) -0.3260(4) 0.4235(5) 0.042(6) Uani 1 1 d G . .
H3A H -0.2025 -0.3186 0.4439 0.051 Uiso 1 1 calc R . .
C4 C -0.2447(7) -0.3476(4) 0.3899(5) 0.060(7) Uani 1 1 d GD . .
C5 C -0.3238(9) -0.3585(4) 0.3594(4) 0.042(5) Uani 1 1 d GD . .
C6 C -0.4136(8) -0.3478(4) 0.3626(4) 0.059(8) Uani 1 1 d G . .
C7 C -0.4244(7) -0.3262(4) 0.3962(5) 0.043(6) Uani 1 1 d G . .
H7A H -0.4845 -0.3191 0.3983 0.052 Uiso 1 1 calc R . .
O28 O -0.0408(17) -0.6219(6) 0.5510(8) 0.107(8) Uani 1 1 d D . .
C9 C -0.140(2) -0.4019(6) 0.3944(12) 0.101 Uani 1 1 d D . .
H9A H -0.1770 -0.4095 0.3665 0.152 Uiso 1 1 calc R . .
H9B H -0.1639 -0.4115 0.4185 0.152 Uiso 1 1 calc R . .
H9C H -0.0751 -0.4082 0.3968 0.152 Uiso 1 1 calc R . .
C8 C -0.1471(13) -0.3645(6) 0.3967(8) 0.067 Uani 1 1 d D . .
C10 C -0.101(2) -0.3561(13) 0.3570(9) 0.16(2) Uani 1 1 d D . .
H10A H -0.1448 -0.3607 0.3295 0.241 Uiso 1 1 calc R . .
H10B H -0.0449 -0.3691 0.3586 0.241 Uiso 1 1 calc R . .
H10C H -0.0843 -0.3334 0.3580 0.241 Uiso 1 1 calc R . .
C11 C -0.0805(17) -0.3603(7) 0.4438(7) 0.065 Uani 1 1 d D . .
H11A H -0.1146 -0.3659 0.4665 0.097 Uiso 1 1 calc R . .
H11B H -0.0597 -0.3380 0.4476 0.097 Uiso 1 1 calc R . .
H11C H -0.0265 -0.3744 0.4461 0.097 Uiso 1 1 calc R . .
C12 C -0.5009(15) -0.3586(5) 0.3319(6) 0.044(5) Uiso 1 1 d D . .
H12A H -0.5586 -0.3513 0.3372 0.052 Uiso 1 1 calc R . .
C13 C -0.5875(13) -0.3869(6) 0.2685(7) 0.056(6) Uiso 1 1 d D . .
C14 C -0.6792(13) -0.3794(6) 0.2844(7) 0.058(6) Uani 1 1 d DU . .
H14A H -0.6857 -0.3559 0.2869 0.070 Uiso 1 1 calc R . .
H14B H -0.6754 -0.3888 0.3137 0.070 Uiso 1 1 calc R . .
C15 C -0.7684(18) -0.3932(7) 0.2519(10) 0.109 Uani 1 1 d D . .
H15A H -0.8179 -0.3970 0.2685 0.131 Uiso 1 1 calc R . .
H15B H -0.7914 -0.3770 0.2291 0.131 Uiso 1 1 calc R . .
C16 C -0.7490(16) -0.4249(5) 0.2296(8) 0.061(6) Uani 1 1 d DU . .
H16A H -0.8038 -0.4299 0.2063 0.073 Uiso 1 1 calc R . .
H16B H -0.7426 -0.4423 0.2515 0.073 Uiso 1 1 calc R . .
C17 C -0.6615(17) -0.4252(7) 0.2090(8) 0.060(7) Uani 1 1 d U . .
H17A H -0.6528 -0.4466 0.1969 0.072 Uiso 1 1 calc R . .
H17B H -0.6680 -0.4093 0.1851 0.072 Uiso 1 1 calc R . .
C18 C -0.5801(11) -0.4168(5) 0.2451(6) 0.044(5) Uani 1 1 d DU . .
H18A H -0.5771 -0.4342 0.2674 0.053 Uiso 1 1 calc R . .
C19 C -0.465(2) -0.4260(7) 0.1947(8) 0.072(9) Uani 1 1 d D . .
H19A H -0.5155 -0.4345 0.1738 0.087 Uiso 1 1 calc R . .
C20 C -0.3809(9) -0.4247(5) 0.1843(5) 0.050(3) Uani 1 1 d G . .
C21 C -0.2961(11) -0.4195(5) 0.2146(4) 0.050(3) Uani 1 1 d GD . .
C22 C -0.2104(9) -0.4249(5) 0.2018(4) 0.050(3) Uani 1 1 d GD . .
C23 C -0.2096(9) -0.4355(5) 0.1588(5) 0.050(3) Uani 1 1 d G . .
H23A H -0.1523 -0.4391 0.1502 0.060 Uiso 1 1 calc R . .
C24 C -0.2944(11) -0.4406(5) 0.1285(4) 0.050(3) Uani 1 1 d G . .
C25 C -0.3801(9) -0.4352(5) 0.1413(4) 0.050(3) Uani 1 1 d G . .
H25A H -0.4369 -0.4386 0.1210 0.060 Uiso 1 1 calc R . .
C26 C -0.1190(12) -0.4121(5) 0.2337(7) 0.066(8) Uani 1 1 d D . .
C27 C -0.109(2) -0.4301(8) 0.2783(9) 0.091(11) Uiso 1 1 d D . .
H27A H -0.1625 -0.4253 0.2911 0.136 Uiso 1 1 calc R . .
H27B H -0.0520 -0.4230 0.2982 0.136 Uiso 1 1 calc R . .
H27C H -0.1055 -0.4532 0.2734 0.136 Uiso 1 1 calc R . .
C28 C -0.0340(15) -0.4195(6) 0.2113(8) 0.065(7) Uani 1 1 d DU . .
H28A H 0.0237 -0.4122 0.2304 0.098 Uiso 1 1 calc R . .
H28B H -0.0427 -0.4082 0.1833 0.098 Uiso 1 1 calc R . .
H28C H -0.0304 -0.4426 0.2064 0.098 Uiso 1 1 calc R . .
C29 C -0.1107(19) -0.3754(5) 0.2426(9) 0.069(7) Uani 1 1 d DU . .
H29A H -0.1618 -0.3683 0.2560 0.103 Uiso 1 1 calc R . .
H29B H -0.1137 -0.3640 0.2149 0.103 Uiso 1 1 calc R . .
H29C H -0.0514 -0.3707 0.2624 0.103 Uiso 1 1 calc R . .
C30 C -0.2871(16) -0.4505(7) 0.0842(8) 0.054 Uani 1 1 d D . .
C31 C -0.272(2) -0.5415(7) 0.0482(10) 0.089 Uani 1 1 d D . .
C32 C -0.2337(12) -0.5714(4) 0.0785(5) 0.047(6) Uani 1 1 d GDU . .
C33 C -0.2914(8) -0.5826(4) 0.1064(5) 0.065(8) Uani 1 1 d G . .
H33A H -0.3527 -0.5745 0.1033 0.078 Uiso 1 1 calc R . .
C34 C -0.2576(10) -0.6059(4) 0.1388(5) 0.038(5) Uani 1 1 d GU . .
C35 C -0.1660(11) -0.6179(4) 0.1434(5) 0.068(5) Uiso 1 1 d G . .
C36 C -0.1083(9) -0.6067(5) 0.1155(6) 0.068(5) Uiso 1 1 d GD . .
C37 C -0.1421(11) -0.5834(5) 0.0830(5) 0.068(5) Uiso 1 1 d G . .
H37A H -0.1035 -0.5759 0.0644 0.081 Uiso 1 1 calc R . .
C38 C -0.0085(11) -0.6209(5) 0.1129(6) 0.045(5) Uiso 1 1 d D . .
C39 C 0.0587(17) -0.6090(9) 0.1558(9) 0.107(13) Uani 1 1 d D . .
H39A H 0.0332 -0.6149 0.1813 0.160 Uiso 1 1 calc R . .
H39B H 0.0652 -0.5857 0.1548 0.160 Uiso 1 1 calc R . .
H39C H 0.1197 -0.6190 0.1581 0.160 Uiso 1 1 calc R . .
C40 C -0.023(2) -0.6575(6) 0.1051(9) 0.096(10) Uani 1 1 d DU . .
H40A H -0.0458 -0.6670 0.1294 0.144 Uiso 1 1 calc R . .
H40B H 0.0366 -0.6674 0.1032 0.144 Uiso 1 1 calc R . .
H40C H -0.0679 -0.6611 0.0777 0.144 Uiso 1 1 calc R . .
C41 C 0.0366(18) -0.6084(7) 0.0741(8) 0.082(8) Uani 1 1 d DU . .
H41A H 0.0964 -0.6190 0.0755 0.122 Uiso 1 1 calc R . .
H41B H 0.0460 -0.5852 0.0768 0.122 Uiso 1 1 calc R . .
H41C H -0.0049 -0.6133 0.0461 0.122 Uiso 1 1 calc R . .
C42 C -0.3149(18) -0.6150(6) 0.1661(8) 0.061(8) Uani 1 1 d . . .
H42A H -0.3764 -0.6068 0.1590 0.073 Uiso 1 1 calc R . .
C43 C -0.3715(12) -0.6511(6) 0.2218(6) 0.049(5) Uani 1 1 d DU . .
H43A H -0.3721 -0.6742 0.2132 0.059 Uiso 1 1 calc R . .
C44 C -0.473(2) -0.6378(15) 0.2059(15) 0.25(4) Uani 1 1 d . . .
H44A H -0.4775 -0.6147 0.2125 0.297 Uiso 1 1 calc R . .
H44B H -0.4972 -0.6415 0.1743 0.297 Uiso 1 1 calc R . .
C45 C -0.5237(19) -0.6587(7) 0.2343(7) 0.076(8) Uiso 1 1 d D . .
H45A H -0.5200 -0.6812 0.2250 0.091 Uiso 1 1 calc R . .
H45B H -0.5901 -0.6525 0.2277 0.091 Uiso 1 1 calc R . .
C46 C -0.4886(17) -0.6573(9) 0.2851(8) 0.103(11) Uani 1 1 d DU . .
H46A H -0.4932 -0.6351 0.2957 0.123 Uiso 1 1 calc R . .
H46B H -0.5273 -0.6713 0.2996 0.123 Uiso 1 1 calc R . .
C47 C -0.3853(15) -0.6687(9) 0.2962(8) 0.078(11) Uani 1 1 d D . .
H47A H -0.3824 -0.6917 0.2891 0.094 Uiso 1 1 calc R . .
H47B H -0.3602 -0.6661 0.3279 0.094 Uiso 1 1 calc R . .
C48 C -0.3244(17) -0.6490(7) 0.2697(8) 0.061 Uani 1 1 d . . .
H48A H -0.3283 -0.6260 0.2784 0.073 Uiso 1 1 calc R . .
C49 C -0.1817(18) -0.6684(6) 0.3131(8) 0.053(5) Uiso 1 1 d . . .
H49A H -0.2175 -0.6745 0.3338 0.063 Uiso 1 1 calc R . .
C50 C -0.0803(8) -0.6732(5) 0.3258(5) 0.055(4) Uani 1 1 d G . .
C51 C -0.0210(11) -0.6682(5) 0.2960(4) 0.055(4) Uani 1 1 d GD . .
C52 C 0.0750(10) -0.6753(5) 0.3086(4) 0.055(4) Uani 1 1 d GD . .
C53 C 0.1118(8) -0.6875(4) 0.3510(5) 0.048(6) Uani 1 1 d G . .
H53A H 0.1760 -0.6923 0.3594 0.058 Uiso 1 1 calc R . .
C54 C 0.0526(10) -0.6926(4) 0.3808(3) 0.050(6) Uani 1 1 d G . .
C55 C -0.0435(9) -0.6854(4) 0.3682(4) 0.037(6) Uani 1 1 d G . .
H55A H -0.0831 -0.6888 0.3882 0.044 Uiso 1 1 calc R . .
C56 C 0.1459(11) -0.6701(5) 0.2768(5) 0.046(5) Uani 1 1 d D . .
C57 C 0.1499(16) -0.6335(5) 0.2653(6) 0.068 Uani 1 1 d D . .
H57A H 0.0876 -0.6261 0.2513 0.102 Uiso 1 1 calc R . .
H57B H 0.1921 -0.6304 0.2452 0.102 Uiso 1 1 calc R . .
H57C H 0.1724 -0.6212 0.2921 0.102 Uiso 1 1 calc R . .
C58 C 0.1106(17) -0.6898(6) 0.2330(7) 0.068(7) Uani 1 1 d DU . .
H58A H 0.0491 -0.6820 0.2185 0.103 Uiso 1 1 calc R . .
H58B H 0.1066 -0.7125 0.2400 0.103 Uiso 1 1 calc R . .
H58C H 0.1542 -0.6869 0.2135 0.103 Uiso 1 1 calc R . .
C59 C 0.2468(17) -0.6832(8) 0.2977(10) 0.097 Uani 1 1 d D . .
H59A H 0.2882 -0.6796 0.2774 0.145 Uiso 1 1 calc R . .
H59B H 0.2433 -0.7062 0.3036 0.145 Uiso 1 1 calc R . .
H59C H 0.2711 -0.6719 0.3252 0.145 Uiso 1 1 calc R . .
C60 C 0.0935(16) -0.6989(7) 0.4294(8) 0.046 Uani 1 1 d . . .
C61 C -0.2845(17) -0.2412(5) -0.4158(5) 0.047(6) Uani 1 1 d D . .
C62 C -0.2860(10) -0.2549(4) -0.3690(4) 0.042(5) Uani 1 1 d GDU . .
C63 C -0.2024(8) -0.2625(5) -0.3391(5) 0.058(6) Uani 1 1 d G . .
H63A H -0.1443 -0.2589 -0.3470 0.070 Uiso 1 1 calc R . .
C64 C -0.2054(9) -0.2754(5) -0.2975(4) 0.058(6) Uani 1 1 d GD . .
C65 C -0.2921(11) -0.2808(5) -0.2857(4) 0.050(6) Uani 1 1 d GD . .
C66 C -0.3758(8) -0.2732(4) -0.3156(4) 0.0