####################################################################### 
# 
# This file contains crystal structure data downloaded from the 
# Cambridge Structural Database (CSD) hosted by the Cambridge 
# Crystallographic Data Centre (CCDC).
# 
# Full information about CCDC data access policies and citation 
# guidelines are available at http://www.ccdc.cam.ac.uk/access/V1 
# 
# Audit and citation data items may have been added by the CCDC. 
# Please retain this information to preserve the provenance of 
# this file and to allow appropriate attribution of the data. 
# 
#######################################################################

data_[Cd4(CoL)4(DMF)4(OAc)4]_2
_audit_block_doi                 10.5517/cc1jwc1t
_database_code_depnum_ccdc_archive 'CCDC 1426466'
loop_
_citation_id
_citation_doi
_citation_year
1 10.1021/ja302340b 2012
_audit_update_record             
;
2015-09-22 deposited with the CCDC.	2024-07-11 downloaded from the CCDC.
;

_audit_creation_method           SHELXL-97


_chemical_name_systematic        
; 
 ? 
;
_chemical_name_common            ?
_chemical_melting_point          ?
_chemical_formula_moiety         ?
_chemical_formula_sum            'C140 H176 Cd4 Co4 N12 O36'
_chemical_formula_weight         3288.25

loop_
_atom_type_symbol
_atom_type_description
_atom_type_scat_dispersion_real
_atom_type_scat_dispersion_imag
_atom_type_scat_source
C C 0.0181 0.0091 'International Tables Vol C Tables 4.2.6.8 and 6.1.1.4'
H H 0.0000 0.0000 'International Tables Vol C Tables 4.2.6.8 and 6.1.1.4'
N N 0.0311 0.0180 'International Tables Vol C Tables 4.2.6.8 and 6.1.1.4'
O O 0.0492 0.0322 'International Tables Vol C Tables 4.2.6.8 and 6.1.1.4'
Co Co -2.3653 3.6143 'International Tables Vol C Tables 4.2.6.8 and 6.1.1.4'
Cd Cd 0.1185 4.6533 'International Tables Vol C Tables 4.2.6.8 and 6.1.1.4'

_symmetry_cell_setting           Monoclinic
_symmetry_space_group_name_H-M   C2

loop_
_symmetry_equiv_pos_as_xyz
'x, y, z'
'-x, y, -z'
'x+1/2, y+1/2, z'
'-x+1/2, y+1/2, -z'

_cell_length_a                   14.2697(9)
_cell_length_b                   40.363(3)
_cell_length_c                   30.931(2)
_cell_angle_alpha                90.00
_cell_angle_beta                 102.623(5)
_cell_angle_gamma                90.00
_cell_volume                     17384(2)
_cell_formula_units_Z            4
_cell_measurement_temperature    123(2)
_cell_measurement_reflns_used    15110
_cell_measurement_theta_min      2.19
_cell_measurement_theta_max      55

_exptl_crystal_description       Block
_exptl_crystal_colour            Purple
_exptl_crystal_size_max          0.10
_exptl_crystal_size_mid          0.10
_exptl_crystal_size_min          0.08?
_exptl_crystal_density_meas      ?
_exptl_crystal_density_diffrn    1.256
_exptl_crystal_density_method    'not measured'
_exptl_crystal_F_000             6752
_exptl_absorpt_coefficient_mu    7.301
_exptl_absorpt_correction_type   Multi-scan
_exptl_absorpt_correction_T_min  0.500
_exptl_absorpt_correction_T_max  0.560
_exptl_absorpt_process_details   'SADABS (Sheldrick, 1996)'

_exptl_special_details           
; 
 ? 
;

_diffrn_ambient_temperature      123(2)
_diffrn_radiation_wavelength     1.54178
_diffrn_radiation_type           CuK\a
_diffrn_radiation_source         'fine-focus sealed tube'
_diffrn_radiation_monochromator  graphite
_diffrn_measurement_device_type  ?
_diffrn_measurement_method       ?
_diffrn_detector_area_resol_mean ?
_diffrn_standards_number         ?
_diffrn_standards_interval_count ?
_diffrn_standards_interval_time  ?
_diffrn_standards_decay_%        ?
_diffrn_reflns_number            27739
_diffrn_reflns_av_R_equivalents  0.0671
_diffrn_reflns_av_sigmaI/netI    0.0955
_diffrn_reflns_limit_h_min       -14
_diffrn_reflns_limit_h_max       13
_diffrn_reflns_limit_k_min       -42
_diffrn_reflns_limit_k_max       34
_diffrn_reflns_limit_l_min       -32
_diffrn_reflns_limit_l_max       32
_diffrn_reflns_theta_min         2.19
_diffrn_reflns_theta_max         55.00
_reflns_number_total             15110
_reflns_number_gt                12870
_reflns_threshold_expression     >2sigma(I)

_computing_data_collection       'SMART (Bruker, 1997)'
_computing_cell_refinement       'SAINT (Bruker, 1999)'
_computing_data_reduction        SAINT
_computing_structure_solution    'SHELXS-97 (Sheldrick, 1990)'
_computing_structure_refinement  'SHELXL-97 (Sheldrick, 1997)'
_computing_molecular_graphics    'SHELXTL-PLUS (Sheldrick, 1990)'
_computing_publication_material  SHELXL-97

_refine_special_details          
; 
 Refinement of F^2^ against ALL reflections.  The weighted R-factor wR and 
 goodness of fit S are based on F^2^, conventional R-factors R are based 
 on F, with F set to zero for negative F^2^. The threshold expression of 
 F^2^ > 2sigma(F^2^) is used only for calculating R-factors(gt) etc. and is 
 not relevant to the choice of reflections for refinement.  R-factors based 
 on F^2^ are statistically about twice as large as those based on F, and R- 
 factors based on ALL data will be even larger. 
;

_refine_ls_structure_factor_coef Fsqd
_refine_ls_matrix_type           full
_refine_ls_weighting_scheme      calc
_refine_ls_weighting_details     
'calc w=1/[\s^2^(Fo^2^)+(0.1426P)^2^+1208.3879P] where P=(Fo^2^+2Fc^2^)/3'
_atom_sites_solution_primary     direct
_atom_sites_solution_secondary   difmap
_atom_sites_solution_hydrogens   geom
_refine_ls_hydrogen_treatment    constr
_refine_ls_extinction_method     none
_refine_ls_extinction_coef       ?
_refine_ls_abs_structure_details 'Flack H D (1983), Acta Cryst. A39, 876-881'
_refine_ls_abs_structure_Flack   0.308(19)
_refine_ls_number_reflns         15110
_refine_ls_number_parameters     1347
_refine_ls_number_restraints     819
_refine_ls_R_factor_all          0.1459
_refine_ls_R_factor_gt           0.1294
_refine_ls_wR_factor_ref         0.3375
_refine_ls_wR_factor_gt          0.3254
_refine_ls_goodness_of_fit_ref   1.065
_refine_ls_restrained_S_all      1.069
_refine_ls_shift/su_max          0.001
_refine_ls_shift/su_mean         0.000

loop_
_atom_site_label
_atom_site_type_symbol
_atom_site_fract_x
_atom_site_fract_y
_atom_site_fract_z
_atom_site_U_iso_or_equiv
_atom_site_adp_type
_atom_site_occupancy
_atom_site_symmetry_multiplicity
_atom_site_calc_flag
_atom_site_refinement_flags
_atom_site_disorder_assembly
_atom_site_disorder_group
Co1 Co -0.39944(15) 0.60493(5) 0.27734(6) 0.0501(6) Uani 1 1 d . . .
Co2 Co -0.17144(13) 0.35353(4) 0.22755(5) 0.0378(5) Uani 1 1 d . . .
Co3 Co -0.39776(10) 0.69814(4) -0.22249(5) 0.0303(5) Uani 1 1 d . . .
Co4 Co -0.66976(10) 0.44819(5) -0.27076(6) 0.0387(5) Uani 1 1 d . . .
Cd1 Cd -0.5000 0.54700(2) 0.0000 0.0246(2) Uani 1 2 d SU . .
Cd2 Cd -0.24711(3) 0.525493(16) 0.006588(16) 0.01496(14) Uani 1 1 d . . .
Cd3 Cd -0.5000 0.45968(3) 0.0000 0.0687(4) Uani 1 2 d S . .
Cd4 Cd 0.0000 0.33960(3) 0.5000 0.0792(5) Uani 1 2 d S . .
Cd5 Cd 0.24810(8) 0.27534(2) 0.50239(3) 0.0580(3) Uani 1 1 d . . .
Cd6 Cd 0.0000 0.25270(2) 0.5000 0.0288(3) Uani 1 2 d SU . .
N1 N -0.5014(5) 0.6207(2) 0.2961(2) 0.0437(15) Uani 1 1 d DU . .
N2 N -0.4857(4) 0.5882(2) 0.2302(2) 0.0388(15) Uani 1 1 d DU . .
N3 N -0.2923(4) 0.36517(18) 0.2028(2) 0.0187(13) Uani 1 1 d DU . .
N4 N -0.2284(5) 0.3401(2) 0.2722(2) 0.0260(14) Uani 1 1 d U . .
N5 N -0.4935(6) 0.7115(2) -0.2728(3) 0.0320(14) Uani 1 1 d U . .
N6 N -0.5065(4) 0.68452(16) -0.1984(2) 0.0451(15) Uani 1 1 d DU . .
N7 N -0.7212(5) 0.4672(3) -0.2269(2) 0.0623(16) Uani 1 1 d DU . .
N8 N -0.7941(6) 0.4290(3) -0.2962(2) 0.0747(16) Uani 1 1 d DU . .
O1 O -0.2825(4) 0.72272(16) 0.48023(19) 0.0269(9) Uani 1 1 d DU . .
O2 O -0.4400(4) 0.71915(18) 0.4566(2) 0.0352(13) Uani 1 1 d DU . .
O3 O -0.3063(5) 0.61872(19) 0.3277(2) 0.049(2) Uani 1 1 d D . .
O4 O -0.2939(4) 0.59286(17) 0.25296(18) 0.0332(13) Uani 1 1 d DU . .
O5 O -0.3589(4) 0.54382(18) 0.0525(2) 0.0305(13) Uani 1 1 d U . .
O6 O -0.2038(4) 0.5433(2) 0.0735(2) 0.051(2) Uani 1 1 d D . .
O7 O -0.3492(6) 0.4705(3) 0.0436(3) 0.0677(15) Uani 1 1 d U . .
O8 O -0.1856(6) 0.4750(2) 0.0354(3) 0.0510(14) Uani 1 1 d U . .
O9 O -0.1196(4) 0.36715(16) 0.18207(18) 0.0246(17) Uani 1 1 d . . .
O10 O -0.0419(5) 0.34092(19) 0.25894(17) 0.050(3) Uani 1 1 d D . .
O11 O 0.1873(6) 0.2865(2) 0.4392(2) 0.050(3) Uani 1 1 d . . .
O12 O 0.0426(7) 0.2959(3) 0.4571(3) 0.0686(15) Uani 1 1 d U . .
O13 O -0.1980(5) 0.7569(2) -0.4222(3) 0.0443(14) Uani 1 1 d U . .
O14 O -0.3534(6) 0.7603(3) -0.4439(3) 0.0826(16) Uani 1 1 d DU . .
O15 O -0.3001(6) 0.7099(2) -0.2467(2) 0.054 Uani 1 1 d D . .
O16 O -0.3142(4) 0.68516(17) -0.1730(2) 0.0289(13) Uani 1 1 d U . .
O17 O -0.4441(5) 0.5807(2) -0.0443(4) 0.081(3) Uani 1 1 d D . .
O18 O -0.2778(5) 0.5791(2) -0.0211(3) 0.0575(15) Uani 1 1 d DU . .
O19 O -0.4578(4) 0.50275(18) -0.04066(18) 0.0303(13) Uani 1 1 d DU . .
O20 O -0.3228(4) 0.5063(2) -0.0616(3) 0.0521(14) Uani 1 1 d DU . .
O21 O -0.5521(5) 0.45789(17) -0.24399(16) 0.0341(13) Uani 1 1 d DU . .
O22 O -0.6157(7) 0.4344(3) -0.3212(3) 0.067 Uani 1 1 d . . .
O23 O -0.7166(4) 0.33090(19) -0.4713(2) 0.0434(14) Uani 1 1 d DU . .
O24 O -0.8634(5) 0.3393(3) -0.4615(4) 0.0848(16) Uani 1 1 d DU . .
O25 O -0.5475(4) 0.4187(2) 0.0428(3) 0.0679(15) Uani 1 1 d DU . .
O26 O -0.1070(4) 0.53095(19) -0.01642(17) 0.0450(14) Uani 1 1 d DU . .
C1 C -0.3584(4) 0.71137(17) 0.4545(2) 0.0220(14) Uani 1 1 d DU . .
C2 C -0.3468(3) 0.68073(11) 0.42568(14) 0.0452(16) Uani 1 1 d GDU . .
C3 C -0.2566(3) 0.66789(15) 0.42542(19) 0.032(3) Uani 1 1 d G . .
H3A H -0.2032 0.6751 0.4462 0.039 Uiso 1 1 calc R . .
C4 C -0.2462(5) 0.64427(18) 0.3941(2) 0.0552(16) Uani 1 1 d GDU . .
C5 C -0.3260(6) 0.63351(17) 0.3630(2) 0.072(5) Uani 1 1 d GD . .
C6 C -0.4163(5) 0.64635(17) 0.36328(19) 0.0220(14) Uani 1 1 d GU . .
C7 C -0.4267(3) 0.66996(14) 0.39461(17) 0.0565(16) Uani 1 1 d GU . .
H7A H -0.4871 0.6786 0.3948 0.068 Uiso 1 1 calc R . .
C9 C -0.1581(13) 0.58746(15) 0.4018(6) 0.101 Uani 1 1 d D . .
H9A H -0.1907 0.5809 0.4244 0.152 Uiso 1 1 calc R . .
H9B H -0.0950 0.5778 0.4077 0.152 Uiso 1 1 calc R . .
H9C H -0.1937 0.5799 0.3735 0.152 Uiso 1 1 calc R . .
C8 C -0.1497(5) 0.62572(14) 0.4012(2) 0.066 Uani 1 1 d D . .
C10 C -0.1016(6) 0.6342(4) 0.3624(3) 0.079(5) Uani 1 1 d D . .
H10A H -0.0960 0.6578 0.3601 0.119 Uiso 1 1 calc R . .
H10B H -0.1400 0.6257 0.3352 0.119 Uiso 1 1 calc R . .
H10C H -0.0388 0.6244 0.3676 0.119 Uiso 1 1 calc R . .
C11 C -0.0739(8) 0.6355(4) 0.4430(3) 0.064 Uani 1 1 d D . .
H11A H -0.0679 0.6592 0.4445 0.097 Uiso 1 1 calc R . .
H11B H -0.0131 0.6258 0.4417 0.097 Uiso 1 1 calc R . .
H11C H -0.0937 0.6275 0.4689 0.097 Uiso 1 1 calc R . .
C12 C -0.4935(7) 0.6368(2) 0.3304(3) 0.040(3) Uani 1 1 d D . .
H12A H -0.5521 0.6441 0.3353 0.048 Uiso 1 1 calc R . .
C13 C -0.5926(4) 0.6123(3) 0.2674(3) 0.0411(15) Uani 1 1 d DU . .
H13A H -0.5956 0.6292 0.2444 0.049 Uiso 1 1 calc R . .
C14 C -0.6863(5) 0.6192(3) 0.2811(3) 0.0507(16) Uani 1 1 d DU . .
H14A H -0.6883 0.6421 0.2903 0.061 Uiso 1 1 calc R . .
H14B H -0.6919 0.6051 0.3058 0.061 Uiso 1 1 calc R . .
C15 C -0.7718(8) 0.6121(2) 0.2403(3) 0.109 Uani 1 1 d D . .
H15A H -0.8323 0.6124 0.2498 0.131 Uiso 1 1 calc R . .
H15B H -0.7740 0.6291 0.2180 0.131 Uiso 1 1 calc R . .
C16 C -0.7568(5) 0.5788(2) 0.2214(3) 0.0554(16) Uani 1 1 d DU . .
H16A H -0.8139 0.5727 0.1995 0.066 Uiso 1 1 calc R . .
H16B H -0.7475 0.5624 0.2449 0.066 Uiso 1 1 calc R . .
C17 C -0.6697(5) 0.5784(3) 0.1997(3) 0.0224(14) Uani 1 1 d DU . .
H17A H -0.6716 0.5969 0.1794 0.027 Uiso 1 1 calc R . .
H17B H -0.6660 0.5578 0.1840 0.027 Uiso 1 1 calc R . .
C18 C -0.5834(5) 0.5819(3) 0.2412(3) 0.0431(16) Uani 1 1 d DU . .
H18A H -0.5801 0.5623 0.2600 0.052 Uiso 1 1 calc R . .
C19 C -0.4729(7) 0.5765(3) 0.1927(2) 0.037(3) Uani 1 1 d D . .
H19A H -0.5260 0.5693 0.1717 0.044 Uiso 1 1 calc R . .
C20 C -0.3783(3) 0.57445(12) 0.18249(13) 0.0372(13) Uani 1 1 d G . .
C21 C -0.2939(3) 0.58132(18) 0.21324(14) 0.0372(13) Uani 1 1 d GD . .
C22 C -0.2058(3) 0.5778(2) 0.20155(19) 0.0372(13) Uani 1 1 d GD . .
C23 C -0.2020(3) 0.5674(2) 0.1591(2) 0.0372(13) Uani 1 1 d G . .
H23A H -0.1430 0.5650 0.1513 0.045 Uiso 1 1 calc R . .
C24 C -0.2865(4) 0.5605(2) 0.12837(18) 0.0372(13) Uani 1 1 d G . .
C25 C -0.3746(3) 0.56405(19) 0.14005(14) 0.0372(13) Uani 1 1 d G . .
H25A H -0.4311 0.5595 0.1195 0.045 Uiso 1 1 calc R . .
C26 C -0.1108(4) 0.58437(16) 0.23604(19) 0.0342(15) Uani 1 1 d DU . .
C27 C -0.1052(9) 0.5654(3) 0.2798(3) 0.0498(16) Uani 1 1 d DU . .
H27A H -0.0449 0.5700 0.2997 0.075 Uiso 1 1 calc R . .
H27B H -0.1103 0.5420 0.2738 0.075 Uiso 1 1 calc R . .
H27C H -0.1568 0.5723 0.2931 0.075 Uiso 1 1 calc R . .
C28 C -0.0249(5) 0.5761(3) 0.2152(3) 0.0396(15) Uani 1 1 d DU . .
H28A H 0.0338 0.5791 0.2369 0.059 Uiso 1 1 calc R . .
H28B H -0.0254 0.5905 0.1905 0.059 Uiso 1 1 calc R . .
H28C H -0.0296 0.5535 0.2053 0.059 Uiso 1 1 calc R . .
C29 C -0.0979(8) 0.62118(19) 0.2499(4) 0.0456(16) Uani 1 1 d DU . .
H29A H -0.0394 0.6238 0.2719 0.068 Uiso 1 1 calc R . .
H29B H -0.1512 0.6282 0.2620 0.068 Uiso 1 1 calc R . .
H29C H -0.0951 0.6345 0.2245 0.068 Uiso 1 1 calc R . .
C30 C -0.2813(5) 0.5506(3) 0.0830(4) 0.054 Uani 1 1 d D . .
C31 C -0.2653(12) 0.4574(3) 0.0459(4) 0.088 Uani 1 1 d D . .
C32 C -0.2260(4) 0.43121(13) 0.08241(17) 0.0442(16) Uani 1 1 d GDU . .
C33 C -0.2836(4) 0.41974(17) 0.1101(2) 0.065(4) Uani 1 1 d G . .
H33A H -0.3460 0.4276 0.1069 0.078 Uiso 1 1 calc R . .
C34 C -0.2479(6) 0.3965(2) 0.1427(2) 0.0528(16) Uani 1 1 d GU . .
C35 C -0.1546(7) 0.3847(2) 0.1476(3) 0.058(2) Uani 1 1 d G . .
C36 C -0.0971(5) 0.3962(2) 0.1199(3) 0.058(2) Uani 1 1 d GD . .
C37 C -0.1328(4) 0.41943(17) 0.0873(2) 0.058(2) Uani 1 1 d G . .
H37A H -0.0942 0.4271 0.0687 0.070 Uiso 1 1 calc R . .
C38 C -0.0073(4) 0.37674(15) 0.1149(2) 0.035(3) Uani 1 1 d D . .
C39 C 0.0668(7) 0.3890(3) 0.1558(3) 0.0438(16) Uani 1 1 d DU . .
H39A H 0.0454 0.3834 0.1822 0.066 Uiso 1 1 calc R . .
H39B H 0.0735 0.4126 0.1541 0.066 Uiso 1 1 calc R . .
H39C H 0.1277 0.3787 0.1565 0.066 Uiso 1 1 calc R . .
C40 C -0.0208(11) 0.3389(2) 0.1109(5) 0.0728(17) Uani 1 1 d DU . .
H40A H -0.0480 0.3310 0.1348 0.109 Uiso 1 1 calc R . .
H40B H 0.0404 0.3285 0.1124 0.109 Uiso 1 1 calc R . .
H40C H -0.0630 0.3337 0.0831 0.109 Uiso 1 1 calc R . .
C41 C 0.0362(6) 0.3869(3) 0.0761(2) 0.0366(15) Uani 1 1 d DU . .
H41A H 0.0494 0.4102 0.0777 0.055 Uiso 1 1 calc R . .
H41B H -0.0082 0.3819 0.0488 0.055 Uiso 1 1 calc R . .
H41C H 0.0949 0.3749 0.0774 0.055 Uiso 1 1 calc R . .
C42 C -0.3127(6) 0.3862(3) 0.1674(3) 0.026(3) Uani 1 1 d . . .
H42A H -0.3752 0.3941 0.1591 0.031 Uiso 1 1 calc R . .
C43 C -0.3702(6) 0.3512(3) 0.2223(3) 0.0565(16) Uani 1 1 d DU . .
H43A H -0.3753 0.3283 0.2119 0.068 Uiso 1 1 calc R . .
C44 C -0.4627(5) 0.3620(2) 0.2126(3) 0.0272(15) Uani 1 1 d DU . .
H44A H -0.4880 0.3597 0.1810 0.033 Uiso 1 1 calc R . .
H44B H -0.4636 0.3854 0.2199 0.033 Uiso 1 1 calc R . .
C45 C -0.5290(5) 0.3434(2) 0.2372(2) 0.0330(15) Uani 1 1 d DU . .
H45A H -0.5327 0.3202 0.2287 0.040 Uiso 1 1 calc R . .
H45B H -0.5932 0.3527 0.2294 0.040 Uiso 1 1 calc R . .
C46 C -0.4894(5) 0.3464(4) 0.2875(3) 0.0644(16) Uani 1 1 d DU . .
H46A H -0.4931 0.3692 0.2971 0.077 Uiso 1 1 calc R . .
H46B H -0.5253 0.3324 0.3036 0.077 Uiso 1 1 calc R . .
C47 C -0.3853(5) 0.3351(3) 0.2950(4) 0.0488(16) Uani 1 1 d DU . .
H47A H -0.3555 0.3391 0.3259 0.059 Uiso 1 1 calc R . .
H47B H -0.3855 0.3113 0.2905 0.059 Uiso 1 1 calc R . .
C48 C -0.3316(9) 0.3478(4) 0.2717(4) 0.061 Uani 1 1 d . . .
H48A H -0.3279 0.3710 0.2815 0.073 Uiso 1 1 calc R . .
C49 C -0.1746(8) 0.3268(3) 0.3127(4) 0.047(4) Uani 1 1 d . . .
H49A H -0.2102 0.3196 0.3327 0.057 Uiso 1 1 calc R . .
C50 C -0.0761(3) 0.32328(12) 0.32601(12) 0.0405(9) Uani 1 1 d GU . .
C51 C -0.0135(3) 0.32897(16) 0.29814(13) 0.0405(9) Uani 1 1 d GDU . .
C52 C 0.0845(3) 0.3240(2) 0.31348(18) 0.0405(9) Uani 1 1 d GDU . .
C53 C 0.1199(3) 0.3133(2) 0.3567(2) 0.047(4) Uani 1 1 d G . .
H53A H 0.1855 0.3100 0.3670 0.056 Uiso 1 1 calc R . .
C54 C 0.0573(4) 0.3076(2) 0.38457(16) 0.035(3) Uani 1 1 d G . .
C55 C -0.0408(3) 0.31261(17) 0.36923(13) 0.0149(14) Uani 1 1 d GU . .
H55A H -0.0827 0.3088 0.3879 0.018 Uiso 1 1 calc R . .
C56 C 0.1533(4) 0.32824(16) 0.2811(2) 0.0388(10) Uani 1 1 d DU . .
C57 C 0.1613(11) 0.3639(2) 0.2647(5) 0.079 Uani 1 1 d D . .
H57A H 0.2060 0.3645 0.2456 0.119 Uiso 1 1 calc R . .
H57B H 0.1833 0.3782 0.2897 0.119 Uiso 1 1 calc R . .
H57C H 0.0994 0.3712 0.2487 0.119 Uiso 1 1 calc R . .
C58 C 0.1156(9) 0.3117(3) 0.2352(3) 0.0598(16) Uani 1 1 d DU . .
H58A H 0.1607 0.3154 0.2168 0.090 Uiso 1 1 calc R . .
H58B H 0.0548 0.3213 0.2214 0.090 Uiso 1 1 calc R . .
H58C H 0.1079 0.2884 0.2391 0.090 Uiso 1 1 calc R . .
C59 C 0.2517(7) 0.3120(4) 0.3007(6) 0.097 Uani 1 1 d D . .
H59A H 0.2941 0.3155 0.2809 0.145 Uiso 1 1 calc R . .
H59B H 0.2432 0.2887 0.3044 0.145 Uiso 1 1 calc R . .
H59C H 0.2790 0.3219 0.3289 0.145 Uiso 1 1 calc R . .
C60 C 0.0924(8) 0.2994(3) 0.4274(4) 0.046 Uani 1 1 d . . .
C61 C -0.2800(5) 0.7551(2) -0.41684(19) 0.0129(14) Uani 1 1 d DU . .
C62 C -0.2905(3) 0.74415(12) -0.37177(11) 0.0376(15) Uani 1 1 d GDU . .
C63 C -0.2053(3) 0.73879(17) -0.34082(14) 0.034(3) Uani 1 1 d G . .
H63A H -0.1467 0.7427 -0.3484 0.041 Uiso 1 1 calc R . .
C64 C -0.2078(4) 0.7276(2) -0.29859(14) 0.0397(15) Uani 1 1 d GDU . .
C65 C -0.2955(5) 0.7217(2) -0.28731(14) 0.0344(15) Uani 1 1 d GDU . .
C66 C -0.3806(4) 0.7271(2) -0.31826(17) 0.023(3) Uani 1 1 d G . .
C67 C -0.3782(3) 0.73831(17) -0.36049(15) 0.0515(16) Uani 1 1 d GU . .
H67A H -0.4351 0.7419 -0.3812 0.062 Uiso 1 1 calc R . .
C68 C -0.1121(4) 0.72483(