####################################################################### 
# 
# This file contains crystal structure data downloaded from the 
# Cambridge Structural Database (CSD) hosted by the Cambridge 
# Crystallographic Data Centre (CCDC).
# 
# Full information about CCDC data access policies and citation 
# guidelines are available at http://www.ccdc.cam.ac.uk/access/V1 
# 
# Audit and citation data items may have been added by the CCDC. 
# Please retain this information to preserve the provenance of 
# this file and to allow appropriate attribution of the data. 
# 
#######################################################################

data_3
_audit_block_doi                 10.5517/cc14kjjr
_database_code_depnum_ccdc_archive 'CCDC 1059534'
loop_
_citation_id
_citation_doi
_citation_year
1 10.1002/chem.201502648 2015
_audit_update_record             
;
2015-08-03 deposited with the CCDC.	2024-07-11 downloaded from the CCDC.
;

_audit_creation_method           SHELXL-2014/7
_shelx_SHELXL_version_number     2014/7
_chemical_name_systematic        ?
_chemical_name_common            ?
_chemical_melting_point          ?
_chemical_formula_moiety         'C17 H9 N3 O4 Zn'
_chemical_formula_sum            'C17 H9 N3 O4 Zn'
_chemical_formula_weight         384.64

loop_
_atom_type_symbol
_atom_type_description
_atom_type_scat_dispersion_real
_atom_type_scat_dispersion_imag
_atom_type_scat_source
C C 0.0033 0.0016 'International Tables Vol C Tables 4.2.6.8 and 6.1.1.4'
H H 0.0000 0.0000 'International Tables Vol C Tables 4.2.6.8 and 6.1.1.4'
N N 0.0061 0.0033 'International Tables Vol C Tables 4.2.6.8 and 6.1.1.4'
O O 0.0106 0.0060 'International Tables Vol C Tables 4.2.6.8 and 6.1.1.4'
Zn Zn 0.2839 1.4301 'International Tables Vol C Tables 4.2.6.8 and 6.1.1.4'

_space_group_crystal_system      orthorhombic
_space_group_IT_number           74
_space_group_name_H-M_alt        'I m m a'
_space_group_name_Hall           '-I 2b 2'

_shelx_space_group_comment       
;
The symmetry employed for this shelxl refinement is uniquely defined
by the following loop, which should always be used as a source of
symmetry information in preference to the above space-group names.
They are only intended as comments.
;

loop_
_space_group_symop_operation_xyz
'x, y, z'
'-x, -y+1/2, z'
'x, -y, -z'
'-x, y+1/2, -z'
'x+1/2, y+1/2, z+1/2'
'-x+1/2, -y+1, z+1/2'
'x+1/2, -y+1/2, -z+1/2'
'-x+1/2, y+1, -z+1/2'
'-x, -y, -z'
'x, y-1/2, -z'
'-x, y, z'
'x, -y-1/2, z'
'-x+1/2, -y+1/2, -z+1/2'
'x+1/2, y, -z+1/2'
'-x+1/2, y+1/2, z+1/2'
'x+1/2, -y, z+1/2'

_cell_length_a                   24.135(5)
_cell_length_b                   35.096(5)
_cell_length_c                   18.028(5)
_cell_angle_alpha                90.000
_cell_angle_beta                 90.000
_cell_angle_gamma                90.000
_cell_volume                     15270(6)
_cell_formula_units_Z            16
_cell_measurement_temperature    100(2)
_cell_measurement_reflns_used    999
_cell_measurement_theta_min      2.112
_cell_measurement_theta_max      25.50

_exptl_crystal_description       block
_exptl_crystal_colour            red
_exptl_crystal_density_meas      ?
_exptl_crystal_density_method    ?
_exptl_crystal_density_diffrn    0.669
_exptl_crystal_F_000             3104
_exptl_transmission_factor_min   0.6303
_exptl_transmission_factor_max   0.7457
_exptl_crystal_size_max          0.180
_exptl_crystal_size_mid          0.160
_exptl_crystal_size_min          0.140
_exptl_absorpt_coefficient_mu    0.655
_shelx_estimated_absorpt_T_min   0.891
_shelx_estimated_absorpt_T_max   0.914
_exptl_absorpt_correction_type   empirical
_exptl_absorpt_correction_T_min  ?
_exptl_absorpt_correction_T_max  ?
_exptl_absorpt_process_details   sadabs
_exptl_absorpt_special_details   ?
_diffrn_ambient_temperature      100(2)
_diffrn_radiation_wavelength     0.71073
_diffrn_radiation_type           MoK\a
_diffrn_source                   ?
_diffrn_measurement_device_type  'BRUKER SMART APEX'
_diffrn_measurement_method       /w-scans
_diffrn_detector_area_resol_mean ?
_diffrn_reflns_number            62079
_diffrn_reflns_av_unetI/netI     0.0658
_diffrn_reflns_av_R_equivalents  0.0936
_diffrn_reflns_limit_h_min       -28
_diffrn_reflns_limit_h_max       29
_diffrn_reflns_limit_k_min       -42
_diffrn_reflns_limit_k_max       27
_diffrn_reflns_limit_l_min       -21
_diffrn_reflns_limit_l_max       17
_diffrn_reflns_theta_min         2.112
_diffrn_reflns_theta_max         25.500
_diffrn_reflns_theta_full        25.240
_diffrn_measured_fraction_theta_max 0.997
_diffrn_measured_fraction_theta_full 0.997
_diffrn_reflns_Laue_measured_fraction_max 0.997
_diffrn_reflns_Laue_measured_fraction_full 0.997
_diffrn_reflns_point_group_measured_fraction_max 0.997
_diffrn_reflns_point_group_measured_fraction_full 0.997
_reflns_number_total             7407
_reflns_number_gt                4382
_reflns_threshold_expression     'I > 2\s(I)'
_reflns_Friedel_coverage         0.000
_reflns_Friedel_fraction_max     .
_reflns_Friedel_fraction_full    .

_reflns_special_details          
;
 Reflections were merged by SHELXL according to the crystal
 class for the calculation of statistics and refinement.
 
 _reflns_Friedel_fraction is defined as the number of unique
 Friedel pairs measured divided by the number that would be
 possible theoretically, ignoring centric projections and
 systematic absences.
;

_computing_data_collection       ?
_computing_cell_refinement       ?
_computing_data_reduction        ?
_computing_structure_solution    ?
_computing_structure_refinement  'SHELXL-2014/7 (Sheldrick, 2014)'
_computing_molecular_graphics    ?
_computing_publication_material  ?
_refine_special_details          ?
_refine_ls_structure_factor_coef Fsqd
_refine_ls_matrix_type           full
_refine_ls_weighting_scheme      calc
_refine_ls_weighting_details     
'w=1/[\s^2^(Fo^2^)+(0.1368P)^2^] where P=(Fo^2^+2Fc^2^)/3'
_atom_sites_solution_primary     ?
_atom_sites_solution_secondary   ?
_atom_sites_solution_hydrogens   geom
_refine_ls_hydrogen_treatment    constr
_refine_ls_extinction_method     none
_refine_ls_extinction_coef       .
_refine_ls_number_reflns         7407
_refine_ls_number_parameters     228
_refine_ls_number_restraints     9
_refine_ls_R_factor_all          0.1197
_refine_ls_R_factor_gt           0.0739
_refine_ls_wR_factor_ref         0.2102
_refine_ls_wR_factor_gt          0.1927
_refine_ls_goodness_of_fit_ref   0.964
_refine_ls_restrained_S_all      0.965
_refine_ls_shift/su_max          0.001
_refine_ls_shift/su_mean         0.000

loop_
_atom_site_label
_atom_site_type_symbol
_atom_site_fract_x
_atom_site_fract_y
_atom_site_fract_z
_atom_site_U_iso_or_equiv
_atom_site_adp_type
_atom_site_occupancy
_atom_site_site_symmetry_order
_atom_site_calc_flag
_atom_site_refinement_flags_posn
_atom_site_refinement_flags_adp
_atom_site_refinement_flags_occupancy
_atom_site_disorder_assembly
_atom_site_disorder_group
Zn1 Zn 0.32137(2) 0.04092(2) 0.48784(2) 0.03508(17) Uani 1 1 d . . . . .
O5 O 0.12866(10) -0.03565(8) 0.08221(13) 0.0365(7) Uani 1 1 d . . . . .
C2 C 0.19688(15) -0.01390(13) 0.35315(19) 0.0357(10) Uani 1 1 d . . . . .
O1 O 0.25464(9) -0.03816(9) 0.44637(13) 0.0408(7) Uani 1 1 d . . . . .
C8 C 0.05083(13) -0.01917(12) 0.21973(18) 0.0304(9) Uani 1 1 d . . . . .
C9 C 0.04978(14) -0.01011(12) 0.14398(19) 0.0362(10) Uani 1 1 d . . . . .
O6 O 0.10998(9) 0.02644(9) 0.07019(13) 0.0345(7) Uani 1 1 d . . . . .
C5 C 0.10352(14) -0.01917(12) 0.26312(19) 0.0329(9) Uani 1 1 d . . . . .
O2 O 0.27209(10) 0.02076(10) 0.40310(13) 0.0460(8) Uani 1 1 d . . . . .
C4 C 0.11382(15) -0.04649(13) 0.3159(2) 0.0432(11) Uani 1 1 d . . . . .
H4 H 0.0889 -0.0664 0.3223 0.052 Uiso 1 1 calc R U . . .
C16 C 0.0000 -0.02349(17) 0.2551(3) 0.0338(13) Uani 1 2 d S T P . .
H16 H 0.0000 -0.0296 0.3053 0.041 Uiso 1 2 calc R U P . .
C6 C 0.14045(15) 0.01043(13) 0.2550(2) 0.0426(11) Uani 1 1 d . . . . .
H6 H 0.1343 0.0287 0.2186 0.051 Uiso 1 1 calc R U . . .
N1 N 0.32295(13) 0.09738(12) 0.4675(2) 0.0512(10) Uani 1 1 d . . . . .
C17 C 0.0000 -0.00516(17) 0.1093(3) 0.0387(15) Uani 1 2 d S T P . .
H17 H 0.0000 0.0019 0.0596 0.046 Uiso 1 2 calc R U P . .
C7 C 0.18649(14) 0.01339(14) 0.2999(2) 0.0402(11) Uani 1 1 d . . . . .
H7 H 0.2106 0.0339 0.2943 0.048 Uiso 1 1 calc R U . . .
C3 C 0.16083(16) -0.04460(14) 0.3594(2) 0.0456(12) Uani 1 1 d . . . . .
H3 H 0.1684 -0.0640 0.3931 0.055 Uiso 1 1 calc R U . . .
C1 C 0.24551(15) -0.01054(14) 0.4040(2) 0.0385(11) Uani 1 1 d . . . . .
C10 C 0.10159(14) -0.00609(13) 0.09639(18) 0.0309(10) Uani 1 1 d . . . . .
C11 C 0.2840(3) 0.1201(2) 0.4958(3) 0.104(2) Uani 1 1 d . . . . .
H11 H 0.2557 0.1097 0.5244 0.125 Uiso 1 1 calc R U . . .
C15 C 0.3600(2) 0.11362(18) 0.4243(3) 0.102(2) Uani 1 1 d . . . . .
H15 H 0.3885 0.0987 0.4054 0.123 Uiso 1 1 calc R U . . .
C12 C 0.2855(5) 0.1606(3) 0.4824(6) 0.184(5) Uani 1 1 d . . . . .
H12 H 0.2600 0.1764 0.5058 0.221 Uiso 1 1 calc R U . . .
C14 C 0.3586(3) 0.1521(2) 0.4056(5) 0.141(4) Uani 1 1 d . . . . .
H14 H 0.3834 0.1612 0.3704 0.169 Uiso 1 1 calc R U . . .
C13A C 0.3235(4) 0.1756(2) 0.4359(5) 0.133(3) Uani 1 1 d . . . . .
N3 N 0.3572(4) 0.23002(19) 0.3790(7) 0.212(5) Uani 1 1 d D . . . .
N2 N 0.2728(10) 0.2354(4) 0.4561(14) 0.551(17) Uani 1 1 d D . . . .
C18 C 0.3175(9) 0.2140(3) 0.4180(7) 0.285(12) Uani 1 1 d D . . . .

loop_
_atom_site_aniso_label
_atom_site_aniso_U_11
_atom_site_aniso_U_22
_atom_site_aniso_U_33
_atom_site_aniso_U_23
_atom_site_aniso_U_13
_atom_site_aniso_U_12
Zn1 0.016 0.0700(4) 0.0188(3) 0.0019(2) 0.00109(16) 0.0003(2)
O5 0.0123(12) 0.072(2) 0.0253(14) 0.0030(13) 0.0022(10) 0.0054(14)
C2 0.0166(19) 0.072(3) 0.0182(19) 0.003(2) 0.0034(15) -0.003(2)
O1 0.0106(12) 0.089(2) 0.0223(14) 0.0082(15) -0.0051(10) 0.0008(14)
C8 0.0117(18) 0.056(3) 0.0234(19) 0.0046(18) -0.0017(14) 0.0009(18)
C9 0.016(2) 0.073(3) 0.0195(19) -0.0053(19) 0.0023(14) -0.0003(18)
O6 0.0074(12) 0.070(2) 0.0264(14) 0.0011(14) 0.0069(10) 0.0008(13)
C5 0.0134(18) 0.062(3) 0.0233(19) 0.0029(19) 0.0048(14) 0.001(2)
O2 0.0140(13) 0.098(2) 0.0262(14) 0.0027(15) -0.0033(11) -0.0059(16)
C4 0.0182(19) 0.084(3) 0.027(2) 0.007(2) -0.0057(16) -0.005(2)
C16 0.021(3) 0.061(4) 0.020(3) 0.004(3) 0.000 0.000
C6 0.0123(19) 0.087(3) 0.029(2) 0.005(2) 0.0028(15) 0.000(2)
N1 0.034(2) 0.070(3) 0.050(2) -0.002(2) 0.0055(17) 0.013(2)
C17 0.018(3) 0.084(5) 0.014(3) 0.006(3) 0.000 0.000
C7 0.0128(19) 0.079(3) 0.028(2) 0.000(2) 0.0014(15) -0.010(2)
C3 0.025(2) 0.090(4) 0.022(2) 0.011(2) -0.0021(17) 0.004(2)
C1 0.0113(19) 0.080(4) 0.025(2) -0.005(2) 0.0033(16) -0.003(2)
C10 0.0128(19) 0.070(3) 0.0103(17) -0.0032(19) -0.0004(14) -0.004(2)
C11 0.097(6) 0.113(6) 0.104(5) 0.017(4) 0.048(4) 0.043(5)
C15 0.093(5) 0.079(5) 0.135(6) -0.002(4) 0.073(5) 0.006(4)
C12 0.281(14) 0.099(7) 0.173(9) 0.021(6) 0.082(9) 0.118(8)
C14 0.174(8) 0.065(5) 0.184(8) 0.012(5) 0.112(7) 0.016(5)
C13A 0.215(10) 0.078(6) 0.107(6) -0.011(5) 0.050(6) 0.021(6)
N3 0.165(7) 0.053(4) 0.419(15) -0.003(6) -0.072(9) 0.002(5)
N2 0.77(4) 0.132(17) 0.75(4) 0.089(16) 0.22(3) 0.132(19)
C18 0.63(4) 0.069(8) 0.157(11) -0.010(7) -0.057(15) -0.060(14)

_geom_special_details            
;
 All esds (except the esd in the dihedral angle between two l.s. planes)
 are estimated using the full covariance matrix.  The cell esds are taken
 into account individually in the estimation of esds in distances, angles
 and torsion angles; correlations between esds in cell parameters are only
 used when they are defined by crystal symmetry.  An approximate (isotropic)
 treatment of cell esds is used for estimating esds involving l.s. planes.
;

loop_
_geom_bond_atom_site_label_1
_geom_bond_atom_site_label_2
_geom_bond_distance
_geom_bond_site_symmetry_2
_geom_bond_publ_flag
Zn1 O1 2.002(2) 3_556 ?
Zn1 N1 2.016(4) . ?
Zn1 O6 2.024(2) 8_545 ?
Zn1 O2 2.061(3) . ?
Zn1 O5 2.094(2) 6_545 ?
Zn1 Zn1 2.9054(11) 3_556 ?
O5 C10 1.252(4) . ?
O5 Zn1 2.094(2) 6_544 ?
C2 C7 1.379(6) . ?
C2 C3 1.389(6) . ?
C2 C1 1.493(5) . ?
O1 C1 1.254(5) . ?
O1 Zn1 2.002(2) 3_556 ?
C8 C16 1.391(4) . ?
C8 C9 1.402(5) . ?
C8 C5 1.493(5) . ?
C9 C17 1.365(4) . ?
C9 C10 1.523(5) . ?
O6 C10 1.252(5) . ?
O6 Zn1 2.024(2) 8_545 ?
C5 C4 1.373(5) . ?
C5 C6 1.377(5) . ?
O2 C1 1.272(5) . ?
C4 C3 1.381(5) . ?
C4 H4 0.9300 . ?
C16 C8 1.391(4) 11 ?
C16 H16 0.9300 . ?
C6 C7 1.379(5) . ?
C6 H6 0.9300 . ?
N1 C15 1.315(6) . ?
N1 C11 1.333(7) . ?
C17 C9 1.365(4) 11 ?
C17 H17 0.9300 . ?
C7 H7 0.9300 . ?
C3 H3 0.9300 . ?
C11 C12 1.442(11) . ?
C11 H11 0.9300 . ?
C15 C14 1.391(8) . ?
C15 H15 0.9300 . ?
C12 C13A 1.350(12) . ?
C12 H12 0.9300 . ?
C14 C13A 1.302(9) . ?
C14 H14 0.9300 . ?
C13A C18 1.396(13) . ?
N3 C18 1.315(12) . ?
N3 N3 1.402(14) 12_565 ?
N2 N2 1.02(3) 12_565 ?
N2 C18 1.48(2) . ?

loop_
_geom_angle_atom_site_label_1
_geom_angle_atom_site_label_2
_geom_angle_atom_site_label_3
_geom_angle
_geom_angle_site_symmetry_1
_geom_angle_site_symmetry_3
_geom_angle_publ_flag
O1 Zn1 N1 99.82(13) 3_556 . ?
O1 Zn1 O6 162.23(12) 3_556 8_545 ?
N1 Zn1 O6 97.88(13) . 8_545 ?
O1 Zn1 O2 87.62(10) 3_556 . ?
N1 Zn1 O2 102.32(13) . . ?
O6 Zn1 O2 90.18(10) 8_545 . ?
O1 Zn1 O5 88.71(10) 3_556 6_545 ?
N1 Zn1 O5 102.94(13) . 6_545 ?
O6 Zn1 O5 85.77(10) 8_545 6_545 ?
O2 Zn1 O5 154.73(13) . 6_545 ?
O1 Zn1 Zn1 82.12(9) 3_556 3_556 ?
N1 Zn1 Zn1 177.89(11) . 3_556 ?
O6 Zn1 Zn1 80.21(8) 8_545 3_556 ?
O2 Zn1 Zn1 76.86(10) . 3_556 ?
O5 Zn1 Zn1 77.87(8) 6_545 3_556 ?
C10 O5 Zn1 122.7(2) . 6_544 ?
C7 C2 C3 118.8(3) . . ?
C7 C2 C1 121.0(4) . . ?
C3 C2 C1 120.3(4) . . ?
C1 O1 Zn1 122.7(2) . 3_556 ?
C16 C8 C9 117.1(3) . . ?
C16 C8 C5 120.8(3) . . ?
C9 C8 C5 121.7(3) . . ?
C17 C9 C8 119.4(3) . . ?
C17 C9 C10 116.9(3) . . ?
C8 C9 C10 123.7(3) . . ?
C10 O6 Zn1 123.8(2) . 8_545 ?
C4 C5 C6 118.9(4) . . ?
C4 C5 C8 121.1(3) . . ?
C6 C5 C8 119.7(3) . . ?
C1 O2 Zn1 125.3(3) . . ?
C5 C4 C3 120.6(4) . . ?
C5 C4 H4 119.7 . . ?
C3 C4 H4 119.7 . . ?
C8 C16 C8 123.8(5) 11 . ?
C8 C16 H16 118.1 11 . ?
C8 C16 H16 118.1 . . ?
C5 C6 C7 121.0(4) . . ?
C5 C6 H6 119.5 . . ?
C7 C6 H6 119.5 . . ?
C15 N1 C11 116.6(5) . . ?
C15 N1 Zn1 123.1(4) . . ?
C11 N1 Zn1 120.3(4) . . ?
C9 C17 C9 123.3(5) 11 . ?
C9 C17 H17 118.4 11 . ?
C9 C17 H17 118.4 . . ?
C2 C7 C6 120.2(4) . . ?
C2 C7 H7 119.9 . . ?
C6 C7 H7 119.9 . . ?
C4 C3 C2 120.4(4) . . ?
C4 C3 H3 119.8 . . ?
C2 C3 H3 119.8 . . ?
O1 C1 O2 125.9(4) . . ?
O1 C1 C2 116.8(4) . . ?
O2 C1 C2 117.2(4) . . ?
O6 C10 O5 126.4(3) . . ?
O6 C10 C9 115.5(4) . . ?
O5 C10 C9 117.8(4) . . ?
N1 C11 C12 120.5(7) . . ?
N1 C11 H11 119.8 . . ?
C12 C11 H11 119.8 . . ?
N1 C15 C14 123.2(6) . . ?
N1 C15 H15 118.4 . . ?
C14 C15 H15 118.4 . . ?
C13A C12 C11 120.3(8) . . ?
C13A C12 H12 119.8 . . ?
C11 C12 H12 119.8 . . ?
C13A C14 C15 121.9(7) . . ?
C13A C14 H14 119.0 . . ?
C15 C14 H14 119.0 . . ?
C14 C13A C12 117.1(8) . . ?
C14 C13A C18 125.7(11) . . ?
C12 C13A C18 116.7(10) . . ?
C18 N3 N3 115.3(7) . 12_565 ?
N2 N2 C18 120.4(9) 12_565 . ?
N3 C18 C13A 117.4(15) . . ?
N3 C18 N2 124.2(12) . . ?
C13A C18 N2 117.3(13) . . ?

loop_
_geom_torsion_atom_site_label_1
_geom_torsion_atom_site_label_2
_geom_torsion_atom_site_label_3
_geom_torsion_atom_site_label_4
_geom_torsion
_geom_torsion_site_symmetry_1
_geom_torsion_site_symmetry_2
_geom_torsion_site_symmetry_3
_geom_torsion_site_symmetry_4
_geom_torsion_publ_flag
C16 C8 C9 C17 1.5(7) . . . . ?
C5 C8 C9 C17 -170.7(4) . . . . ?
C16 C8 C9 C10 -177.3(4) . . . . ?
C5 C8 C9 C10 10.6(6) . . . . ?
C16 C8 C5 C4 47.4(6) . . . . ?
C9 C8 C5 C4 -140.8(4) . . . . ?
C16 C8 C5 C6 -127.0(5) . . . . ?
C9 C8 C5 C6 44.9(6) . . . . ?
C6 C5 C4 C3 -0.8(6) . . . . ?
C8 C5 C4 C3 -175.2(4) . . . . ?
C9 C8 C16 C8 -0.3(9) . . . 11 ?
C5 C8 C16 C8 171.9(4) . . . 11 ?
C4 C5 C6 C7 -1.6(6) . . . . ?
C8 C5 C6 C7 172.9(4) . . . . ?
C8 C9 C17 C9 -2.8(9) . . . 11 ?
C10 C9 C17 C9 176.0(4) . . . 11 ?
C3 C2 C7 C6 1.3(6) . . . . ?
C1 C2 C7 C6 -178.0(4) . . . . ?
C5 C6 C7 C2 1.3(6) . . . . ?
C5 C4 C3 C2 3.4(6) . . . . ?
C7 C2 C3 C4 -3.6(6) . . . . ?
C1 C2 C3 C4 175.7(4) . . . . ?
Zn1 O1 C1 O2 -9.3(5) 3_556 . . . ?
Zn1 O1 C1 C2 174.7(2) 3_556 . . . ?
Zn1 O2 C1 O1 -18.5(5) . . . . ?
Zn1 O2 C1 C2 157.6(2) . . . . ?
C7 C2 C1 O1 -174.0(3) . . . . ?
C3 C2 C1 O1 6.7(5) . . . . ?
C7 C2 C1 O2 9.5(6) . . . . ?
C3 C2 C1 O2 -169.7(4) . . . . ?
Zn1 O6 C10 O5 -11.6(5) 8_545 . . . ?
Zn1 O6 C10 C9 174.8(2) 8_545 . . . ?
Zn1 O5 C10 O6 -19.2(5) 6_544 . . . ?
Zn1 O5 C10 C9 154.3(2) 6_544 . . . ?
C17 C9 C10 O6 64.9(