####################################################################### 
# 
# This file contains crystal structure data downloaded from the 
# Cambridge Structural Database (CSD) hosted by the Cambridge 
# Crystallographic Data Centre (CCDC).
# 
# Full information about CCDC data access policies and citation 
# guidelines are available at http://www.ccdc.cam.ac.uk/access/V1 
# 
# Audit and citation data items may have been added by the CCDC. 
# Please retain this information to preserve the provenance of 
# this file and to allow appropriate attribution of the data. 
# 
#######################################################################

data_2Cu
_audit_block_doi                 10.5517/cc14kjhq
_database_code_depnum_ccdc_archive 'CCDC 1059533'
loop_
_citation_id
_citation_doi
_citation_year
1 10.1002/chem.201502648 2015
_audit_update_record             
;
2015-08-03 deposited with the CCDC.	2024-07-11 downloaded from the CCDC.
;

_audit_creation_method           SHELXL-2014/7
_shelx_SHELXL_version_number     2014/7
_chemical_name_systematic        ?
_chemical_name_common            ?
_chemical_melting_point          ?
_chemical_formula_moiety         'C17 H9 Cu N3 O4'
_chemical_formula_sum            'C17 H9 Cu N3 O4'
_chemical_formula_weight         382.81

loop_
_atom_type_symbol
_atom_type_description
_atom_type_scat_dispersion_real
_atom_type_scat_dispersion_imag
_atom_type_scat_source
C C 0.0033 0.0016 'International Tables Vol C Tables 4.2.6.8 and 6.1.1.4'
H H 0.0000 0.0000 'International Tables Vol C Tables 4.2.6.8 and 6.1.1.4'
N N 0.0061 0.0033 'International Tables Vol C Tables 4.2.6.8 and 6.1.1.4'
O O 0.0106 0.0060 'International Tables Vol C Tables 4.2.6.8 and 6.1.1.4'
Cu Cu 0.3201 1.2651 'International Tables Vol C Tables 4.2.6.8 and 6.1.1.4'

_space_group_crystal_system      orthorhombic
_space_group_IT_number           74
_space_group_name_H-M_alt        'I m m a'
_space_group_name_Hall           '-I 2b 2'

_shelx_space_group_comment       
;
The symmetry employed for this shelxl refinement is uniquely defined
by the following loop, which should always be used as a source of
symmetry information in preference to the above space-group names.
They are only intended as comments.
;

loop_
_space_group_symop_operation_xyz
'x, y, z'
'-x, -y+1/2, z'
'x, -y, -z'
'-x, y+1/2, -z'
'x+1/2, y+1/2, z+1/2'
'-x+1/2, -y+1, z+1/2'
'x+1/2, -y+1/2, -z+1/2'
'-x+1/2, y+1, -z+1/2'
'-x, -y, -z'
'x, y-1/2, -z'
'-x, y, z'
'x, -y-1/2, z'
'-x+1/2, -y+1/2, -z+1/2'
'x+1/2, y, -z+1/2'
'-x+1/2, y+1/2, z+1/2'
'x+1/2, -y, z+1/2'

_cell_length_a                   24.196(3)
_cell_length_b                   34.187(4)
_cell_length_c                   17.8563(18)
_cell_angle_alpha                90
_cell_angle_beta                 90
_cell_angle_gamma                90
_cell_volume                     14770(3)
_cell_formula_units_Z            16
_cell_measurement_temperature    100(2)
_cell_measurement_reflns_used    999
_cell_measurement_theta_min      2.06
_cell_measurement_theta_max      25.50

_exptl_crystal_description       block
_exptl_crystal_colour            green
_exptl_crystal_density_meas      ?
_exptl_crystal_density_method    ?
_exptl_crystal_density_diffrn    0.689
_exptl_crystal_F_000             3088
_exptl_transmission_factor_min   0.5250
_exptl_transmission_factor_max   0.7457
_exptl_crystal_size_max          0.180
_exptl_crystal_size_mid          0.160
_exptl_crystal_size_min          0.140
_exptl_absorpt_coefficient_mu    0.603
_shelx_estimated_absorpt_T_min   0.899
_shelx_estimated_absorpt_T_max   0.920
_exptl_absorpt_correction_type   empirical
_exptl_absorpt_correction_T_min  ?
_exptl_absorpt_correction_T_max  ?
_exptl_absorpt_process_details   sadabs
_exptl_absorpt_special_details   ?
_diffrn_ambient_temperature      100(2)
_diffrn_radiation_wavelength     0.71073
_diffrn_radiation_type           MoK\a
_diffrn_source                   ?
_diffrn_measurement_device_type  'BRUKER SMART APEX'
_diffrn_measurement_method       /w-scans
_diffrn_detector_area_resol_mean ?
_diffrn_reflns_number            42094
_diffrn_reflns_av_unetI/netI     0.0875
_diffrn_reflns_av_R_equivalents  0.1174
_diffrn_reflns_limit_h_min       -29
_diffrn_reflns_limit_h_max       28
_diffrn_reflns_limit_k_min       -38
_diffrn_reflns_limit_k_max       41
_diffrn_reflns_limit_l_min       -21
_diffrn_reflns_limit_l_max       18
_diffrn_reflns_theta_min         2.062
_diffrn_reflns_theta_max         25.499
_diffrn_reflns_theta_full        25.242
_diffrn_measured_fraction_theta_max 0.998
_diffrn_measured_fraction_theta_full 0.998
_diffrn_reflns_Laue_measured_fraction_max 0.998
_diffrn_reflns_Laue_measured_fraction_full 0.998
_diffrn_reflns_point_group_measured_fraction_max 0.998
_diffrn_reflns_point_group_measured_fraction_full 0.998
_reflns_number_total             7180
_reflns_number_gt                4295
_reflns_threshold_expression     'I > 2\s(I)'
_reflns_Friedel_coverage         0.000
_reflns_Friedel_fraction_max     .
_reflns_Friedel_fraction_full    .

_reflns_special_details          
;
 Reflections were merged by SHELXL according to the crystal
 class for the calculation of statistics and refinement.
 
 _reflns_Friedel_fraction is defined as the number of unique
 Friedel pairs measured divided by the number that would be
 possible theoretically, ignoring centric projections and
 systematic absences.
;

_computing_data_collection       ?
_computing_cell_refinement       ?
_computing_data_reduction        ?
_computing_structure_solution    ?
_computing_structure_refinement  'SHELXL-2014/7 (Sheldrick, 2014)'
_computing_molecular_graphics    ?
_computing_publication_material  ?
_refine_special_details          ?
_refine_ls_structure_factor_coef Fsqd
_refine_ls_matrix_type           full
_refine_ls_weighting_scheme      calc
_refine_ls_weighting_details     
'w=1/[\s^2^(Fo^2^)+(0.1437P)^2^] where P=(Fo^2^+2Fc^2^)/3'
_atom_sites_solution_primary     ?
_atom_sites_solution_secondary   ?
_atom_sites_solution_hydrogens   geom
_refine_ls_hydrogen_treatment    constr
_refine_ls_extinction_method     none
_refine_ls_extinction_coef       .
_refine_ls_number_reflns         7180
_refine_ls_number_parameters     226
_refine_ls_number_restraints     9
_refine_ls_R_factor_all          0.1253
_refine_ls_R_factor_gt           0.0811
_refine_ls_wR_factor_ref         0.2239
_refine_ls_wR_factor_gt          0.2063
_refine_ls_goodness_of_fit_ref   0.943
_refine_ls_restrained_S_all      0.951
_refine_ls_shift/su_max          0.000
_refine_ls_shift/su_mean         0.000

loop_
_atom_site_label
_atom_site_type_symbol
_atom_site_fract_x
_atom_site_fract_y
_atom_site_fract_z
_atom_site_U_iso_or_equiv
_atom_site_adp_type
_atom_site_occupancy
_atom_site_site_symmetry_order
_atom_site_calc_flag
_atom_site_refinement_flags_posn
_atom_site_refinement_flags_adp
_atom_site_refinement_flags_occupancy
_atom_site_disorder_assembly
_atom_site_disorder_group
Cu1 Cu 0.32313(2) 0.04004(2) 0.48723(3) 0.0204(2) Uani 1 1 d . . . . .
O1 O 0.25796(12) 0.03949(11) 0.55334(17) 0.0363(8) Uani 1 1 d . . . . .
O2 O 0.37340(12) 0.04028(10) 0.57963(17) 0.0329(8) Uani 1 1 d . . . . .
O4 O 0.38893(11) 0.02471(10) 0.42761(16) 0.0311(8) Uani 1 1 d . . . . .
C9 C 0.44995(17) 0.01324(14) 0.6444(2) 0.0262(11) Uani 1 1 d . . . . .
O3 O 0.27234(13) 0.02144(12) 0.40380(17) 0.0416(9) Uani 1 1 d . . . . .
C2 C 0.19840(19) 0.01412(15) 0.6453(2) 0.0287(11) Uani 1 1 d . . . . .
N1 N 0.32897(15) 0.09822(12) 0.4606(2) 0.0337(10) Uani 1 1 d D . . . .
C8 C 0.39879(17) 0.01014(14) 0.5964(2) 0.0244(11) Uani 1 1 d . . . . .
C1 C 0.24736(18) 0.01115(16) 0.5942(2) 0.0307(12) Uani 1 1 d . . . . .
C12 C 0.5000 0.0230(3) 0.7589(4) 0.054(2) Uani 1 2 d S T P . .
H12 H 0.5000 0.0270 0.8104 0.065 Uiso 1 2 calc R U P . .
C10 C 0.5000 0.0107(2) 0.6081(3) 0.039(2) Uani 1 2 d S T P . .
H10 H 0.5000 0.0071 0.5565 0.047 Uiso 1 2 calc R U P . .
C3 C 0.1607(2) 0.04635(17) 0.6368(3) 0.0460(15) Uani 1 1 d . . . . .
H3 H 0.1683 0.0658 0.6020 0.055 Uiso 1 1 calc R U . . .
C4 C 0.1137(2) 0.04873(19) 0.6795(3) 0.0526(17) Uani 1 1 d . . . . .
H4 H 0.0888 0.0692 0.6726 0.063 Uiso 1 1 calc R U . . .
C7 C 0.18732(19) -0.01282(18) 0.7005(3) 0.0411(14) Uani 1 1 d . . . . .
H7 H 0.2115 -0.0336 0.7083 0.049 Uiso 1 1 calc R U . . .
C6 C 0.1413(2) -0.00949(18) 0.7439(3) 0.0449(15) Uani 1 1 d . . . . .
H6 H 0.1354 -0.0277 0.7818 0.054 Uiso 1 1 calc R U . . .
C11 C 0.44864(16) 0.02011(17) 0.7217(2) 0.0359(12) Uani 1 1 d . . . . .
C5 C 0.10351(18) 0.01981(16) 0.7337(2) 0.0325(12) Uani 1 1 d . . . . .
C17 C 0.3444(4) 0.1786(2) 0.4234(4) 0.093(3) Uani 1 1 d D . . . .
N3 N 0.3080(5) 0.2500 0.5075(6) 0.099(3) Uani 1 2 d S T P . .
N4 N 0.3356(5) 0.2500 0.4456(5) 0.087(3) Uani 1 2 d S T P . .
N2 N 0.3702(7) 0.2293(2) 0.3397(6) 0.274(9) Uani 1 1 d . . . . .
C18 C 0.3481(4) 0.2182(2) 0.4083(5) 0.093(3) Uani 1 1 d . . . . .
C16 C 0.3423(4) 0.1288(3) 0.5106(6) 0.151(3) Uani 1 1 d D . . . .
H16 H 0.3432 0.1224 0.5612 0.182 Uiso 1 1 calc R U . . .
C15 C 0.3539(5) 0.1669(3) 0.4920(6) 0.151(3) Uani 1 1 d D . . . .
H15 H 0.3683 0.1841 0.5275 0.182 Uiso 1 1 calc R U . . .
C14 C 0.3306(6) 0.1113(3) 0.3903(5) 0.224(9) Uani 1 1 d D . . . .
H14 H 0.3255 0.0934 0.3517 0.269 Uiso 1 1 calc R U . . .
C13 C 0.3394(7) 0.1502(2) 0.3715(6) 0.248(10) Uani 1 1 d D . . . .
H13 H 0.3419 0.1569 0.3212 0.298 Uiso 1 1 calc R U . . .

loop_
_atom_site_aniso_label
_atom_site_aniso_U_11
_atom_site_aniso_U_22
_atom_site_aniso_U_33
_atom_site_aniso_U_23
_atom_site_aniso_U_13
_atom_site_aniso_U_12
Cu1 0.0038(3) 0.0347(4) 0.0228(3) -0.0042(2) 0.00078(18) -0.0001(2)
O1 0.0090(15) 0.065(2) 0.035(2) 0.0036(18) 0.0090(13) -0.0020(16)
O2 0.0117(15) 0.059(2) 0.0276(17) -0.0034(16) 0.0000(12) 0.0038(16)
O4 0.0099(15) 0.056(2) 0.0271(17) 0.0083(15) -0.0023(12) -0.0098(15)
C9 0.010(2) 0.053(3) 0.016(2) -0.009(2) -0.0015(16) -0.005(2)
O3 0.0164(17) 0.078(3) 0.0301(19) 0.0124(18) -0.0077(13) -0.0017(19)
C2 0.019(2) 0.044(3) 0.023(2) -0.005(2) -0.0074(18) 0.003(2)
N1 0.027(2) 0.048(3) 0.026(2) 0.0064(18) 0.0042(16) 0.0025(19)
C8 0.012(2) 0.042(3) 0.020(2) 0.001(2) 0.0084(17) -0.003(2)
C1 0.012(2) 0.058(4) 0.022(2) -0.005(2) -0.0050(18) 0.005(2)
C12 0.015(4) 0.129(8) 0.018(4) -0.007(4) 0.000 0.000
C10 0.009(3) 0.096(7) 0.011(3) -0.008(3) 0.000 0.000
C3 0.025(3) 0.076(5) 0.036(3) 0.021(3) 0.000(2) -0.001(3)
C4 0.017(2) 0.111(5) 0.030(3) 0.007(3) 0.005(2) 0.015(3)
C7 0.017(3) 0.084(4) 0.022(3) 0.001(3) 0.0003(18) 0.003(3)
C6 0.018(3) 0.093(5) 0.023(3) 0.014(3) 0.0065(19) -0.001(3)
C11 0.005(2) 0.072(4) 0.030(3) -0.002(2) 0.0053(18) -0.001(2)
C5 0.014(2) 0.070(4) 0.014(2) 0.004(2) -0.0033(16) 0.005(2)
C17 0.172(9) 0.064(5) 0.045(4) 0.007(4) -0.006(5) 0.005(5)
N3 0.139(9) 0.041(5) 0.118(9) 0.000 0.007(7) 0.000
N4 0.171(10) 0.038(5) 0.052(5) 0.000 -0.023(6) 0.000
N2 0.56(2) 0.046(5) 0.219(11) -0.027(5) 0.231(14) -0.018(8)
C18 0.163(9) 0.034(4) 0.083(6) 0.000(4) 0.015(6) -0.004(5)
C16 0.196(8) 0.119(7) 0.138(7) -0.027(5) 0.031(6) -0.097(6)
C15 0.196(8) 0.119(7) 0.138(7) -0.027(5) 0.031(6) -0.097(6)
C14 0.49(3) 0.065(7) 0.121(9) 0.010(6) 0.149(12) 0.041(11)
C13 0.61(3) 0.028(5) 0.106(8) 0.004(5) 0.151(12) -0.002(10)

_geom_special_details            
;
 All esds (except the esd in the dihedral angle between two l.s. planes)
 are estimated using the full covariance matrix.  The cell esds are taken
 into account individually in the estimation of esds in distances, angles
 and torsion angles; correlations between esds in cell parameters are only
 used when they are defined by crystal symmetry.  An approximate (isotropic)
 treatment of cell esds is used for estimating esds involving l.s. planes.
;

loop_
_geom_bond_atom_site_label_1
_geom_bond_atom_site_label_2
_geom_bond_distance
_geom_bond_site_symmetry_2
_geom_bond_publ_flag
Cu1 O1 1.970(3) . ?
Cu1 O4 1.986(3) . ?
Cu1 O3 2.033(3) . ?
Cu1 O2 2.050(3) . ?
Cu1 N1 2.050(4) . ?
Cu1 Cu1 2.7753(11) 3_556 ?
O1 C1 1.239(6) . ?
O2 C8 1.236(5) . ?
O4 C8 1.289(5) 3_556 ?
C9 C10 1.376(5) . ?
C9 C11 1.401(6) . ?
C9 C8 1.509(6) . ?
O3 C1 1.268(6) 3_556 ?
C2 C7 1.375(7) . ?
C2 C3 1.438(7) . ?
C2 C1 1.499(6) . ?
N1 C14 1.333(9) . ?
N1 C16 1.411(10) . ?
C8 O4 1.289(5) 3_556 ?
C1 O3 1.268(6) 3_556 ?
C12 C11 1.412(5) . ?
C12 C11 1.413(5) 11_655 ?
C12 H12 0.9300 . ?
C10 C9 1.376(5) 11_655 ?
C10 H10 0.9300 . ?
C3 C4 1.372(7) . ?
C3 H3 0.9300 . ?
C4 C5 1.405(7) . ?
C4 H4 0.9300 . ?
C7 C6 1.361(6) . ?
C7 H7 0.9300 . ?
C6 C5 1.369(7) . ?
C6 H6 0.9300 . ?
C11 C5 1.493(6) 8_546 ?
C5 C11 1.493(6) 8_546 ?
C17 C15 1.309(10) . ?
C17 C13 1.347(10) . ?
C17 C18 1.384(10) . ?
N3 N4 1.291(12) . ?
N4 C18 1.310(9) 12_565 ?
N4 C18 1.310(9) . ?
N2 C18 1.389(11) . ?
N2 N2 1.418(14) 12_565 ?
C16 C15 1.375(11) . ?
C16 H16 0.9300 . ?
C15 H15 0.9300 . ?
C14 C13 1.387(10) . ?
C14 H14 0.9300 . ?
C13 H13 0.9300 . ?

loop_
_geom_angle_atom_site_label_1
_geom_angle_atom_site_label_2
_geom_angle_atom_site_label_3
_geom_angle
_geom_angle_site_symmetry_1
_geom_angle_site_symmetry_3
_geom_angle_publ_flag
O1 Cu1 O4 163.87(15) . . ?
O1 Cu1 O3 87.27(13) . . ?
O4 Cu1 O3 90.53(13) . . ?
O1 Cu1 O2 89.58(12) . . ?
O4 Cu1 O2 87.52(12) . . ?
O3 Cu1 O2 161.75(15) . . ?
O1 Cu1 N1 101.75(15) . . ?
O4 Cu1 N1 94.37(14) . . ?
O3 Cu1 N1 100.08(16) . . ?
O2 Cu1 N1 98.16(15) . . ?
O1 Cu1 Cu1 83.81(11) . 3_556 ?
O4 Cu1 Cu1 80.08(10) . 3_556 ?
O3 Cu1 Cu1 79.16(11) . 3_556 ?
O2 Cu1 Cu1 82.63(10) . 3_556 ?
N1 Cu1 Cu1 174.37(11) . 3_556 ?
C1 O1 Cu1 121.7(3) . . ?
C8 O2 Cu1 119.1(3) . . ?
C8 O4 Cu1 124.8(3) 3_556 . ?
C10 C9 C11 119.6(4) . . ?
C10 C9 C8 116.8(4) . . ?
C11 C9 C8 123.5(4) . . ?
C1 O3 Cu1 122.8(3) 3_556 . ?
C7 C2 C3 117.7(4) . . ?
C7 C2 C1 123.0(4) . . ?
C3 C2 C1 119.3(4) . . ?
C14 N1 C16 109.9(7) . . ?
C14 N1 Cu1 123.1(5) . . ?
C16 N1 Cu1 125.9(5) . . ?
O2 C8 O4 126.7(4) . 3_556 ?
O2 C8 C9 119.1(4) . . ?
O4 C8 C9 113.9(4) 3_556 . ?
O1 C1 O3 127.2(4) . 3_556 ?
O1 C1 C2 118.0(4) . . ?
O3 C1 C2 114.8(4) 3_556 . ?
C11 C12 C11 123.2(6) . 11_655 ?
C11 C12 H12 118.4 . . ?
C11 C12 H12 118.4 11_655 . ?
C9 C10 C9 123.3(5) 11_655 . ?
C9 C10 H10 118.4 11_655 . ?
C9 C10 H10 118.4 . . ?
C4 C3 C2 120.9(5) . . ?
C4 C3 H3 119.6 . . ?
C2 C3 H3 119.6 . . ?
C3 C4 C5 119.1(5) . . ?
C3 C4 H4 120.5 . . ?
C5 C4 H4 120.5 . . ?
C6 C7 C2 120.8(5) . . ?
C6 C7 H7 119.6 . . ?
C2 C7 H7 119.6 . . ?
C7 C6 C5 122.1(5) . . ?
C7 C6 H6 119.0 . . ?
C5 C6 H6 119.0 . . ?
C9 C11 C12 117.1(4) . . ?
C9 C11 C5 123.0(4) . 8_546 ?
C12 C11 C5 119.5(4) . 8_546 ?
C6 C5 C4 119.4(4) . . ?
C6 C5 C11 119.9(4) . 8_546 ?
C4 C5 C11 120.7(4) . 8_546 ?
C15 C17 C13 116.1(9) . . ?
C15 C17 C18 117.9(8) . . ?
C13 C17 C18 125.3(7) . . ?
N3 N4 C18 123.7(6) . 12_565 ?
N3 N4 C18 123.7(6) . . ?
C18 N4 C18 112.1(10) 12_565 . ?
C18 N2 N2 105.8(4) . 12_565 ?
N4 C18 C17 134.3(8) . . ?
N4 C18 N2 108.2(7) . . ?
C17 C18 N2 117.5(7) . . ?
C15 C16 N1 126.6(9) . . ?
C15 C16 H16 116.7 . . ?
N1 C16 H16 116.7 . . ?
C17 C15 C16 118.5(10) . . ?
C17 C15 H15 120.7 . . ?
C16 C15 H15 120.7 . . ?
N1 C14 C13 123.6(9) . . ?
N1 C14 H14 118.2 . . ?
C13 C14 H14 118.2 . . ?
C17 C13 C14 122.6(9) . . ?
C17 C13 H13 118.7 . . ?
C14 C13 H13 118.7 . . ?

loop_
_geom_torsion_atom_site_label_1
_geom_torsion_atom_site_label_2
_geom_torsion_atom_site_label_3
_geom_torsion_atom_site_label_4
_geom_torsion
_geom_torsion_site_symmetry_1
_geom_torsion_site_symmetry_2
_geom_torsion_site_symmetry_3
_geom_torsion_site_symmetry_4
_geom_torsion_publ_flag
Cu1 O2 C8 O4 -16.2(5) . . . 3_556 ?
Cu1 O2 C8 C9 157.9(3) . . . . ?
C10 C9 C8 O2 -101.6(6) . . . . ?
C11 C9 C8 O2 75.6(6) . . . . ?
C10 C9 C8 O4 73.3(6) . . . 3_556 ?
C11 C9 C8 O4 -109.5(5) . . . 3_556 ?
Cu1 O1 C1 O3 -5.6(7) . . . 3_556 ?
Cu1 O1 C1 C2 177.1(3) . . . . ?
C7 C2 C1 O1 -170.2(4) . . . . ?
C3 C2 C1 O1 10.1(6) . . . . ?
C7 C2 C1 O3 12.1(6) . . . 3_556 ?
C3 C2 C1 O3 -167.6(4) . . . 3_556 ?
C11 C9 C10 C9 2.3(11) . . . 11_655 ?
C8 C9 C10 C9 179.6(5) . . . 11_655 ?
C7 C2 C3 C4 -3.8(8) . . . . ?
C1 C2 C3 C4 175.9(5) . . . . ?
C2 C3 C4 C5 2.1(8) . . . . ?
C3 C2 C7 C6 1.8(7) . . . . ?
C1 C2 C7 C6 -177.9(4) . . . . ?
C2 C7 C6 C5 1.8(8) . . . . ?
C10 C9 C11 C12 -1.7(9) . . . . ?
C8 C9 C11 C12 -178.8(6) . . . . ?
C10 C9 C11 C5 -174.5(6) . . . 8_546 ?
C8 C9 C11 C5 8.4(8) . . . 8_546 ?
C11 C12 C11 C9 1.3(13) 11_655 . . . ?
C11 C12 C11 C5 174.3(6) 11_655 . . 8_546 ?
C7 C6 C5 C4 -3.6(8) . . . . ?
C7 C6 C5 C11 174.6(5) . . . 8_546 ?
C3 C4 C5 C6 1.6(8) . . . . ?
C3 C4 C5 C11 -176.6(5) . . . 8_546 ?
N3 N4 C18 C17 -10(2) . . . . ?
C18 N4 C18 C17 178.2(7) 12_565 . . . ?
N3 N4 C18 N2 171.1(13) . . . . ?
C1