####################################################################### 
# 
# This file contains crystal structure data downloaded from the 
# Cambridge Structural Database (CSD) hosted by the Cambridge 
# Crystallographic Data Centre (CCDC).
# 
# Full information about CCDC data access policies and citation 
# guidelines are available at http://www.ccdc.cam.ac.uk/access/V1 
# 
# Audit and citation data items may have been added by the CCDC. 
# Please retain this information to preserve the provenance of 
# this file and to allow appropriate attribution of the data. 
# 
#######################################################################

data_4
_audit_block_doi                 10.5517/cc14kjks
_database_code_depnum_ccdc_archive 'CCDC 1059535'
loop_
_citation_id
_citation_doi
_citation_year
1 10.1002/chem.201502648 2015
_audit_update_record             
;
2015-08-03 deposited with the CCDC.	2024-07-11 downloaded from the CCDC.
;

_audit_creation_method           SHELXL-2014/7
_shelx_SHELXL_version_number     2014/7
_chemical_name_systematic        ?
_chemical_name_common            ?
_chemical_melting_point          ?
_chemical_formula_moiety         'C19 H11 N O4 Zn'
_chemical_formula_sum            'C19 H11 N O4 Zn'
_chemical_formula_weight         382.66

loop_
_atom_type_symbol
_atom_type_description
_atom_type_scat_dispersion_real
_atom_type_scat_dispersion_imag
_atom_type_scat_source
C C 0.0033 0.0016 'International Tables Vol C Tables 4.2.6.8 and 6.1.1.4'
H H 0.0000 0.0000 'International Tables Vol C Tables 4.2.6.8 and 6.1.1.4'
N N 0.0061 0.0033 'International Tables Vol C Tables 4.2.6.8 and 6.1.1.4'
O O 0.0106 0.0060 'International Tables Vol C Tables 4.2.6.8 and 6.1.1.4'
Zn Zn 0.2839 1.4301 'International Tables Vol C Tables 4.2.6.8 and 6.1.1.4'

_space_group_crystal_system      orthorhombic
_space_group_IT_number           74
_space_group_name_H-M_alt        'I m m a'
_space_group_name_Hall           '-I 2b 2'

_shelx_space_group_comment       
;
The symmetry employed for this shelxl refinement is uniquely defined
by the following loop, which should always be used as a source of
symmetry information in preference to the above space-group names.
They are only intended as comments.
;

loop_
_space_group_symop_operation_xyz
'x, y, z'
'-x, -y+1/2, z'
'-x, y+1/2, -z'
'x, -y, -z'
'x+1/2, y+1/2, z+1/2'
'-x+1/2, -y+1, z+1/2'
'-x+1/2, y+1, -z+1/2'
'x+1/2, -y+1/2, -z+1/2'
'-x, -y, -z'
'x, y-1/2, -z'
'x, -y-1/2, z'
'-x, y, z'
'-x+1/2, -y+1/2, -z+1/2'
'x+1/2, y, -z+1/2'
'x+1/2, -y, z+1/2'
'-x+1/2, y+1/2, z+1/2'

_cell_length_a                   24.137(5)
_cell_length_b                   36.488(5)
_cell_length_c                   18.163(3)
_cell_angle_alpha                90
_cell_angle_beta                 90
_cell_angle_gamma                90
_cell_volume                     15996(5)
_cell_formula_units_Z            16
_cell_measurement_temperature    100(2)
_cell_measurement_reflns_used    999
_cell_measurement_theta_min      2.015
_cell_measurement_theta_max      25.00

_exptl_crystal_description       block
_exptl_crystal_colour            colorless
_exptl_crystal_density_meas      ?
_exptl_crystal_density_method    ?
_exptl_crystal_density_diffrn    0.636
_exptl_crystal_F_000             3104
_exptl_transmission_factor_min   0.5874
_exptl_transmission_factor_max   0.7457
_exptl_crystal_size_max          0.180
_exptl_crystal_size_mid          0.160
_exptl_crystal_size_min          0.140
_exptl_absorpt_coefficient_mu    0.624
_shelx_estimated_absorpt_T_min   0.896
_shelx_estimated_absorpt_T_max   0.918
_exptl_absorpt_correction_type   empirical
_exptl_absorpt_correction_T_min  ?
_exptl_absorpt_correction_T_max  ?
_exptl_absorpt_process_details   sadabs
_exptl_absorpt_special_details   ?
_diffrn_ambient_temperature      100(2)
_diffrn_radiation_wavelength     0.71073
_diffrn_radiation_type           MoK\a
_diffrn_source                   ?
_diffrn_measurement_device_type  'BRUKER SMART APEX'
_diffrn_measurement_method       /w-scans
_diffrn_detector_area_resol_mean ?
_diffrn_reflns_number            59138
_diffrn_reflns_av_unetI/netI     0.0693
_diffrn_reflns_av_R_equivalents  0.1085
_diffrn_reflns_limit_h_min       -28
_diffrn_reflns_limit_h_max       28
_diffrn_reflns_limit_k_min       -43
_diffrn_reflns_limit_k_max       43
_diffrn_reflns_limit_l_min       -21
_diffrn_reflns_limit_l_max       21
_diffrn_reflns_theta_min         2.015
_diffrn_reflns_theta_max         24.999
_diffrn_reflns_theta_full        24.999
_diffrn_measured_fraction_theta_max 0.998
_diffrn_measured_fraction_theta_full 0.998
_diffrn_reflns_Laue_measured_fraction_max 0.998
_diffrn_reflns_Laue_measured_fraction_full 0.998
_diffrn_reflns_point_group_measured_fraction_max 0.998
_diffrn_reflns_point_group_measured_fraction_full 0.998
_reflns_number_total             7345
_reflns_number_gt                4631
_reflns_threshold_expression     'I > 2\s(I)'
_reflns_Friedel_coverage         0.000
_reflns_Friedel_fraction_max     .
_reflns_Friedel_fraction_full    .

_reflns_special_details          
;
 Reflections were merged by SHELXL according to the crystal
 class for the calculation of statistics and refinement.
 
 _reflns_Friedel_fraction is defined as the number of unique
 Friedel pairs measured divided by the number that would be
 possible theoretically, ignoring centric projections and
 systematic absences.
;

_computing_data_collection       ?
_computing_cell_refinement       ?
_computing_data_reduction        ?
_computing_structure_solution    ?
_computing_structure_refinement  'SHELXL-2014/7 (Sheldrick, 2014)'
_computing_molecular_graphics    ?
_computing_publication_material  ?
_refine_special_details          ?
_refine_ls_structure_factor_coef Fsqd
_refine_ls_matrix_type           full
_refine_ls_weighting_scheme      calc
_refine_ls_weighting_details     
'w=1/[\s^2^(Fo^2^)+(0.1710P)^2^] where P=(Fo^2^+2Fc^2^)/3'
_atom_sites_solution_primary     ?
_atom_sites_solution_secondary   ?
_atom_sites_solution_hydrogens   geom
_refine_ls_hydrogen_treatment    constr
_refine_ls_extinction_method     none
_refine_ls_extinction_coef       .
_refine_ls_number_reflns         7345
_refine_ls_number_parameters     217
_refine_ls_number_restraints     0
_refine_ls_R_factor_all          0.1264
_refine_ls_R_factor_gt           0.0897
_refine_ls_wR_factor_ref         0.2489
_refine_ls_wR_factor_gt          0.2284
_refine_ls_goodness_of_fit_ref   0.972
_refine_ls_restrained_S_all      0.972
_refine_ls_shift/su_max          0.001
_refine_ls_shift/su_mean         0.000

loop_
_atom_site_label
_atom_site_type_symbol
_atom_site_fract_x
_atom_site_fract_y
_atom_site_fract_z
_atom_site_U_iso_or_equiv
_atom_site_adp_type
_atom_site_occupancy
_atom_site_site_symmetry_order
_atom_site_calc_flag
_atom_site_refinement_flags_posn
_atom_site_refinement_flags_adp
_atom_site_refinement_flags_occupancy
_atom_site_disorder_assembly
_atom_site_disorder_group
Zn01 Zn 0.17940(2) 0.46036(2) 0.50909(3) 0.0202(2) Uani 1 1 d . . . . .
O4 O 0.38952(11) 0.52836(10) 0.06812(18) 0.0301(8) Uani 1 1 d . . . . .
O1 O 0.24561(12) 0.46605(9) 0.44365(17) 0.0295(8) Uani 1 1 d . . . . .
O3 O 0.37209(12) 0.46789(10) 0.08342(17) 0.0341(9) Uani 1 1 d . . . . .
O2 O 0.22902(12) 0.52314(10) 0.40405(17) 0.0334(9) Uani 1 1 d . . . . .
N1 N 0.17806(15) 0.40617(12) 0.5200(2) 0.0325(10) Uani 1 1 d . . . . .
C1 C 0.44981(16) 0.49399(13) 0.1423(2) 0.0232(8) Uani 1 1 d . . . . .
C2 C 0.5000 0.49841(18) 0.1078(4) 0.0274(16) Uani 1 2 d S T P . .
H2 H 0.5000 0.5048 0.0582 0.033 Uiso 1 2 calc R U P . .
C3 C 0.39842(16) 0.49774(13) 0.0957(2) 0.0232(8) Uani 1 1 d . . . . .
C4 C 0.44956(16) 0.48537(16) 0.2176(2) 0.0299(8) Uani 1 1 d . . . . .
C5 C 0.39737(17) 0.48571(15) 0.2615(2) 0.0299(8) Uani 1 1 d . . . . .
C6 C 0.31384(19) 0.51661(16) 0.2987(3) 0.0333(12) Uani 1 1 d . . . . .
H6 H 0.2896 0.5362 0.2930 0.040 Uiso 1 1 calc R U . . .
C7 C 0.25463(18) 0.49355(15) 0.4039(2) 0.0278(12) Uani 1 1 d . . . . .
C8 C 0.38699(18) 0.45904(14) 0.3140(2) 0.0320(12) Uani 1 1 d . . . . .
H8 H 0.4118 0.4397 0.3190 0.038 Uiso 1 1 calc R U . . .
C9 C 0.5000 0.4815(2) 0.2529(4) 0.0350(18) Uani 1 2 d S T P . .
H9 H 0.5000 0.4759 0.3028 0.042 Uiso 1 2 calc R U P . .
C10 C 0.30368(18) 0.49078(16) 0.3522(3) 0.0339(13) Uani 1 1 d . . . . .
C11 C 0.34049(18) 0.46040(15) 0.3594(3) 0.0346(13) Uani 1 1 d . . . . .
H11 H 0.3336 0.4420 0.3935 0.041 Uiso 1 1 calc R U . . .
C12 C 0.35907(19) 0.51371(16) 0.2541(3) 0.0380(13) Uani 1 1 d . . . . .
H12 H 0.3644 0.5312 0.2175 0.046 Uiso 1 1 calc R U . . .
C13 C 0.1790(2) 0.32975(18) 0.5281(5) 0.0600(19) Uani 1 1 d . . . . .
C14 C 0.1784(3) 0.28815(17) 0.5311(5) 0.067(2) Uani 1 1 d . . . . .
C15 C 0.2283(3) 0.26948(18) 0.5437(6) 0.102(3) Uani 1 1 d . . . . .
H15 H 0.2609 0.2824 0.5519 0.122 Uiso 1 1 calc R U . . .
C16 C 0.1388(3) 0.3869(2) 0.5476(5) 0.095(3) Uani 1 1 d . . . . .
H16 H 0.1091 0.3997 0.5678 0.114 Uiso 1 1 calc R U . . .
C17 C 0.2212(3) 0.3848(2) 0.4945(4) 0.078(2) Uani 1 1 d . . . . .
H17 H 0.2513 0.3966 0.4731 0.094 Uiso 1 1 calc R U . . .
C18 C 0.2225(3) 0.3470(2) 0.4987(5) 0.100(3) Uani 1 1 d . . . . .
H18 H 0.2529 0.3339 0.4815 0.120 Uiso 1 1 calc R U . . .
C19 C 0.1364(3) 0.3504(2) 0.5503(7) 0.122(4) Uani 1 1 d . . . . .
H19 H 0.1045 0.3392 0.5680 0.147 Uiso 1 1 calc R U . . .
C20 C 0.1300(3) 0.26849(19) 0.5303(7) 0.133(4) Uani 1 1 d . . . . .
H20 H 0.0964 0.2809 0.5297 0.159 Uiso 1 1 calc R U . . .

loop_
_atom_site_aniso_label
_atom_site_aniso_U_11
_atom_site_aniso_U_22
_atom_site_aniso_U_33
_atom_site_aniso_U_23
_atom_site_aniso_U_13
_atom_site_aniso_U_12
Zn01 0.0058(3) 0.0355(4) 0.0194(3) -0.0012(2) 0.00112(19) -0.0002(2)
O4 0.0092(14) 0.051(2) 0.0302(18) -0.0058(16) -0.0073(13) -0.0013(15)
O1 0.0143(15) 0.056(2) 0.0180(17) 0.0000(16) 0.0100(13) -0.0069(15)
O3 0.0154(15) 0.065(3) 0.0219(18) 0.0038(16) -0.0082(14) -0.0056(17)
O2 0.0130(15) 0.065(3) 0.0221(18) 0.0096(17) 0.0052(13) 0.0070(17)
N1 0.017(2) 0.040(3) 0.041(3) 0.008(2) 0.0010(18) 0.0027(19)
C1 0.0056(14) 0.050(2) 0.0139(17) -0.0011(15) 0.0026(13) -0.0042(15)
C2 0.011(3) 0.055(5) 0.016(3) 0.002(3) 0.000 0.000
C3 0.0056(14) 0.050(2) 0.0139(17) -0.0011(15) 0.0026(13) -0.0042(15)
C4 0.0066(15) 0.068(2) 0.0150(17) -0.0002(16) 0.0019(13) 0.0056(16)
C5 0.0066(15) 0.068(2) 0.0150(17) -0.0002(16) 0.0019(13) 0.0056(16)
C6 0.022(2) 0.053(3) 0.025(3) 0.009(2) -0.003(2) 0.009(2)
C7 0.012(2) 0.063(4) 0.009(2) -0.008(2) -0.0068(18) 0.006(2)
C8 0.015(2) 0.059(3) 0.022(3) 0.011(2) 0.0076(19) 0.015(2)
C9 0.007(3) 0.074(5) 0.025(4) 0.000(4) 0.000 0.000
C10 0.008(2) 0.079(4) 0.014(2) -0.001(2) -0.0067(18) -0.005(2)
C11 0.015(2) 0.061(4) 0.028(3) 0.006(3) 0.002(2) -0.001(2)
C12 0.022(2) 0.072(4) 0.020(3) 0.016(3) -0.001(2) 0.004(3)
C13 0.027(3) 0.044(4) 0.109(6) 0.002(4) 0.005(3) -0.004(3)
C14 0.038(4) 0.032(4) 0.132(6) -0.001(4) 0.005(4) 0.003(3)
C15 0.055(4) 0.051(4) 0.200(9) -0.007(6) -0.013(6) -0.001(4)
C16 0.039(4) 0.055(5) 0.191(10) 0.005(6) 0.043(5) 0.015(4)
C17 0.041(4) 0.069(5) 0.125(7) 0.016(4) 0.032(4) 0.003(4)
C18 0.050(5) 0.049(5) 0.201(11) -0.010(5) 0.026(5) 0.007(4)
C19 0.045(4) 0.068(6) 0.254(13) 0.020(7) 0.022(6) -0.004(4)
C20 0.050(4) 0.037(4) 0.310(14) -0.010(6) 0.054(7) -0.002(4)

_geom_special_details            
;
 All esds (except the esd in the dihedral angle between two l.s. planes)
 are estimated using the full covariance matrix.  The cell esds are taken
 into account individually in the estimation of esds in distances, angles
 and torsion angles; correlations between esds in cell parameters are only
 used when they are defined by crystal symmetry.  An approximate (isotropic)
 treatment of cell esds is used for estimating esds involving l.s. planes.
;

loop_
_geom_bond_atom_site_label_1
_geom_bond_atom_site_label_2
_geom_bond_distance
_geom_bond_site_symmetry_2
_geom_bond_publ_flag
Zn01 N1 1.987(5) . ?
Zn01 O1 2.002(3) . ?
Zn01 O4 2.021(3) 6 ?
Zn01 O2 2.070(3) 4_566 ?
Zn01 O3 2.108(3) 7_545 ?
Zn01 Zn01 2.9117(12) 4_566 ?
O4 C3 1.243(5) . ?
O4 Zn01 2.022(3) 6_554 ?
O1 C7 1.256(6) . ?
O3 C3 1.281(5) . ?
O3 Zn01 2.108(3) 7_545 ?
O2 C7 1.244(6) . ?
O2 Zn01 2.070(3) 4_566 ?
N1 C16 1.282(8) . ?
N1 C17 1.380(8) . ?
C1 C2 1.373(5) . ?
C1 C4 1.404(6) . ?
C1 C3 1.508(6) . ?
C2 C1 1.373(5) 12_655 ?
C2 H2 0.9300 . ?
C4 C9 1.383(5) . ?
C4 C5 1.490(6) . ?
C5 C12 1.384(7) . ?
C5 C8 1.385(6) . ?
C6 C12 1.364(6) . ?
C6 C10 1.375(7) . ?
C6 H6 0.9300 . ?
C7 C10 1.514(6) . ?
C8 C11 1.394(6) . ?
C8 H8 0.9300 . ?
C9 C4 1.383(5) 12_655 ?
C9 H9 0.9300 . ?
C10 C11 1.427(7) . ?
C11 H11 0.9300 . ?
C12 H12 0.9300 . ?
C13 C18 1.335(9) . ?
C13 C19 1.339(10) . ?
C13 C14 1.519(9) . ?
C14 C20 1.371(9) . ?
C14 C15 1.402(9) . ?
C15 C15 1.421(13) 11_565 ?
C15 H15 0.9300 . ?
C16 C19 1.333(10) . ?
C16 H16 0.9300 . ?
C17 C18 1.383(11) . ?
C17 H17 0.9300 . ?
C18 H18 0.9300 . ?
C19 H19 0.9300 . ?
C20 C20 1.349(14) 11_565 ?
C20 H20 0.9300 . ?

loop_
_geom_angle_atom_site_label_1
_geom_angle_atom_site_label_2
_geom_angle_atom_site_label_3
_geom_angle
_geom_angle_site_symmetry_1
_geom_angle_site_symmetry_3
_geom_angle_publ_flag
N1 Zn01 O1 100.09(15) . . ?
N1 Zn01 O4 97.84(15) . 6 ?
O1 Zn01 O4 161.89(15) . 6 ?
N1 Zn01 O2 102.89(15) . 4_566 ?
O1 Zn01 O2 87.74(12) . 4_566 ?
O4 Zn01 O2 90.72(13) 6 4_566 ?
N1 Zn01 O3 101.50(15) . 7_545 ?
O1 Zn01 O3 89.08(12) . 7_545 ?
O4 Zn01 O3 84.90(13) 6 7_545 ?
O2 Zn01 O3 155.59(15) 4_566 7_545 ?
N1 Zn01 Zn01 178.78(12) . 4_566 ?
O1 Zn01 Zn01 80.19(10) . 4_566 ?
O4 Zn01 Zn01 81.83(10) 6 4_566 ?
O2 Zn01 Zn01 78.30(10) 4_566 4_566 ?
O3 Zn01 Zn01 77.30(10) 7_545 4_566 ?
C3 O4 Zn01 122.6(3) . 6_554 ?
C7 O1 Zn01 124.3(3) . . ?
C3 O3 Zn01 122.9(3) . 7_545 ?
C7 O2 Zn01 122.8(3) . 4_566 ?
C16 N1 C17 112.3(6) . . ?
C16 N1 Zn01 126.6(4) . . ?
C17 N1 Zn01 121.1(4) . . ?
C2 C1 C4 118.3(4) . . ?
C2 C1 C3 117.3(4) . . ?
C4 C1 C3 124.3(4) . . ?
C1 C2 C1 123.8(6) . 12_655 ?
C1 C2 H2 118.1 . . ?
C1 C2 H2 118.1 12_655 . ?
O4 C3 O3 127.5(4) . . ?
O4 C3 C1 116.7(4) . . ?
O3 C3 C1 115.4(4) . . ?
C9 C4 C1 118.1(4) . . ?
C9 C4 C5 119.8(4) . . ?
C1 C4 C5 121.5(4) . . ?
C12 C5 C8 117.7(4) . . ?
C12 C5 C4 121.3(4) . . ?
C8 C5 C4 121.0(4) . . ?
C12 C6 C10 120.6(5) . . ?
C12 C6 H6 119.7 . . ?
C10 C6 H6 119.7 . . ?
O2 C7 O1 127.3(4) . . ?
O2 C7 C10 116.6(5) . . ?
O1 C7 C10 116.0(4) . . ?
C5 C8 C11 121.9(4) . . ?
C5 C8 H8 119.1 . . ?
C11 C8 H8 119.1 . . ?
C4 C9 C4 123.4(6) 12_655 . ?
C4 C9 H9 118.3 12_655 . ?
C4 C9 H9 118.3 . . ?
C6 C10 C11 119.1(4) . . ?
C6 C10 C7 122.1(5) . . ?
C11 C10 C7 118.8(4) . . ?
C8 C11 C10 118.3(5) . . ?
C8 C11 H11 120.8 . . ?
C10 C11 H11 120.8 . . ?
C6 C12 C5 122.3(5) . . ?
C6 C12 H12 118.9 . . ?
C5 C12 H12 118.9 . . ?
C18 C13 C19 117.3(7) . . ?
C18 C13 C14 119.6(6) . . ?
C19 C13 C14 123.0(6) . . ?
C20 C14 C15 118.6(7) . . ?
C20 C14 C13 122.1(6) . . ?
C15 C14 C13 118.9(6) . . ?
C14 C15 C15 119.1(4) . 11_565 ?
C14 C15 H15 120.5 . . ?
C15 C15 H15 120.5 11_565 . ?
N1 C16 C19 126.4(7) . . ?
N1 C16 H16 116.8 . . ?
C19 C16 H16 116.8 . . ?
N1 C17 C18 124.2(6) . . ?
N1 C17 H17 117.9 . . ?
C18 C17 H17 117.9 . . ?
C13 C18 C17 118.3(7) . . ?
C13 C18 H18 120.8 . . ?
C17 C18 H18 120.8 . . ?
C16 C19 C13 121.2(7) . . ?
C16 C19 H19 119.4 . . ?
C13 C19 H19 119.4 . . ?
C20 C20 C14 121.6(4) 11_565 . ?
C20 C20 H20 119.2 11_565 . ?
C14 C20 H20 119.2 . . ?

loop_
_geom_torsion_atom_site_label_1
_geom_torsion_atom_site_label_2
_geom_torsion_atom_site_label_3
_geom_torsion_atom_site_label_4
_geom_torsion
_geom_torsion_site_symmetry_1
_geom_torsion_site_symmetry_2
_geom_torsion_site_symmetry_3
_geom_torsion_site_symmetry_4
_geom_torsion_publ_flag
C4 C1 C2 C1 1.7(10) . . . 12_655 ?
C3 C1 C2 C1 -176.6(4) . . . 12_655 ?
Zn01 O4 C3 O3 11.3(6) 6_554 . . . ?
Zn01 O4 C3 C1 -176.3(3) 6_554 . . . ?
Zn01 O3 C3 O4 17.5(6) 7_545 . . . ?
Zn01 O3 C3 C1 -155.0(3) 7_545 . . . ?
C2 C1 C3 O4 -64.3(6) . . . . ?
C4 C1 C3 O4 117.4(5) . . . . ?
C2 C1 C3 O3 109.0(5) . . . . ?
C4 C1 C3 O3 -69.2(6) . . . . ?
C2 C1 C4 C9 -0.6(9) . . . . ?
C3 C1 C4 C9 177.6(5) . . . . ?
C2 C1 C4 C5 170.6(5) . . . . ?
C3 C1 C4 C5 -11.2(8) . . . . ?
C9 C4 C5 C12 127.4(6) . . . . ?
C1 C4 C5 C12 -43.6(7) . . . . ?
C9 C4 C5 C8 -49.0(8) . . . . ?
C1 C4 C5 C8 140.0(5) . . . . ?
Zn01 O2 C7 O1 18.3(6) 4_566 . . . ?
Zn01 O2 C7 C10 -159.0(3) 4_566 . . . ?
Zn01 O1 C7 O2 9.2(6) . . . . ?
Zn01 O1 C7 C10 -173.5(3) . . . . ?
C12 C5 C8 C11 -1.4(7) . . . . ?
C4 C5 C8 C11 175.1(5) . . . . ?
C1 C4 C9 C4 -0.5(12) . . . 12_655 ?
C5 C4 C9 C4 -171.8(5) . . . 12_655 ?
C12 C6 C10 C11 -1.3(8) . . . . ?
C12 C6 C10 C7 178.6(4) . . . . ?
O2 C7 C10 C6 -11.4(7) . . . . ?
O1 C7 C10 C6 171.0(4) . . . . ?
O2 C7 C10 C11 168.5(4) . . . . ?
O1 C7 C10 C11 -9.1(6) . . . . ?
C5 C8 C11 C10 -1.6(7) . . . . ?
C6 C10 C11 C8 3.0(7) . . . . ?
C7 C10 C11 C8 -176.9(4) . . . . ?
C10 C6 C12 C5 