####################################################################### 
# 
# This file contains crystal structure data downloaded from the 
# Cambridge Structural Database (CSD) hosted by the Cambridge 
# Crystallographic Data Centre (CCDC).
# 
# Full information about CCDC data access policies and citation 
# guidelines are available at http://www.ccdc.cam.ac.uk/access/V1 
# 
# Audit and citation data items may have been added by the CCDC. 
# Please retain this information to preserve the provenance of 
# this file and to allow appropriate attribution of the data. 
# 
#######################################################################

data_4Cu
_audit_block_doi                 10.5517/cc14kjlt
_database_code_depnum_ccdc_archive 'CCDC 1059536'
loop_
_citation_id
_citation_doi
_citation_year
1 10.1002/chem.201502648 2015
_audit_update_record             
;
2015-08-03 deposited with the CCDC.	2024-07-11 downloaded from the CCDC.
;

_audit_creation_method           SHELXL-2014/7
_shelx_SHELXL_version_number     2014/7
_chemical_name_systematic        ?
_chemical_name_common            ?
_chemical_melting_point          ?
_chemical_formula_moiety         'C19 H11 Cu N O4'
_chemical_formula_sum            'C19 H11 Cu N O4'
_chemical_formula_weight         380.83

loop_
_atom_type_symbol
_atom_type_description
_atom_type_scat_dispersion_real
_atom_type_scat_dispersion_imag
_atom_type_scat_source
C C 0.0033 0.0016 'International Tables Vol C Tables 4.2.6.8 and 6.1.1.4'
H H 0.0000 0.0000 'International Tables Vol C Tables 4.2.6.8 and 6.1.1.4'
N N 0.0061 0.0033 'International Tables Vol C Tables 4.2.6.8 and 6.1.1.4'
O O 0.0106 0.0060 'International Tables Vol C Tables 4.2.6.8 and 6.1.1.4'
Cu Cu 0.3201 1.2651 'International Tables Vol C Tables 4.2.6.8 and 6.1.1.4'

_space_group_crystal_system      orthorhombic
_space_group_IT_number           74
_space_group_name_H-M_alt        'I m m a'
_space_group_name_Hall           '-I 2b 2'

_shelx_space_group_comment       
;
The symmetry employed for this shelxl refinement is uniquely defined
by the following loop, which should always be used as a source of
symmetry information in preference to the above space-group names.
They are only intended as comments.
;

loop_
_space_group_symop_operation_xyz
'x, y, z'
'-x, -y+1/2, z'
'-x, y+1/2, -z'
'x, -y, -z'
'x+1/2, y+1/2, z+1/2'
'-x+1/2, -y+1, z+1/2'
'-x+1/2, y+1, -z+1/2'
'x+1/2, -y+1/2, -z+1/2'
'-x, -y, -z'
'x, y-1/2, -z'
'x, -y-1/2, z'
'-x, y, z'
'-x+1/2, -y+1/2, -z+1/2'
'x+1/2, y, -z+1/2'
'x+1/2, -y, z+1/2'
'-x+1/2, y+1/2, z+1/2'

_cell_length_a                   23.997(7)
_cell_length_b                   36.410(6)
_cell_length_c                   18.142(3)
_cell_angle_alpha                90
_cell_angle_beta                 90
_cell_angle_gamma                90
_cell_volume                     15851(6)
_cell_formula_units_Z            16
_cell_measurement_temperature    100(2)
_cell_measurement_reflns_used    999
_cell_measurement_theta_min      2.02
_cell_measurement_theta_max      25.50

_exptl_crystal_description       block
_exptl_crystal_colour            green
_exptl_crystal_density_meas      ?
_exptl_crystal_density_method    ?
_exptl_crystal_density_diffrn    0.638
_exptl_crystal_F_000             3088
_exptl_transmission_factor_min   0.6369
_exptl_transmission_factor_max   0.7457
_exptl_crystal_size_max          0.180
_exptl_crystal_size_mid          0.160
_exptl_crystal_size_min          0.140
_exptl_absorpt_coefficient_mu    0.561
_shelx_estimated_absorpt_T_min   0.906
_shelx_estimated_absorpt_T_max   0.926
_exptl_absorpt_correction_type   empirical
_exptl_absorpt_correction_T_min  ?
_exptl_absorpt_correction_T_max  ?
_exptl_absorpt_process_details   sadabs
_exptl_absorpt_special_details   ?
_diffrn_ambient_temperature      100(2)
_diffrn_radiation_wavelength     0.71073
_diffrn_radiation_type           MoK\a
_diffrn_source                   ?
_diffrn_measurement_device_type  'BRUKER SMART APEX'
_diffrn_measurement_method       /w-scans
_diffrn_detector_area_resol_mean ?
_diffrn_reflns_number            84631
_diffrn_reflns_av_unetI/netI     0.0589
_diffrn_reflns_av_R_equivalents  0.1000
_diffrn_reflns_limit_h_min       -29
_diffrn_reflns_limit_h_max       29
_diffrn_reflns_limit_k_min       -44
_diffrn_reflns_limit_k_max       44
_diffrn_reflns_limit_l_min       -21
_diffrn_reflns_limit_l_max       21
_diffrn_reflns_theta_min         2.019
_diffrn_reflns_theta_max         25.499
_diffrn_reflns_theta_full        25.242
_diffrn_measured_fraction_theta_max 0.999
_diffrn_measured_fraction_theta_full 0.999
_diffrn_reflns_Laue_measured_fraction_max 0.999
_diffrn_reflns_Laue_measured_fraction_full 0.999
_diffrn_reflns_point_group_measured_fraction_max 0.999
_diffrn_reflns_point_group_measured_fraction_full 0.999
_reflns_number_total             7700
_reflns_number_gt                5502
_reflns_threshold_expression     'I > 2\s(I)'
_reflns_Friedel_coverage         0.000
_reflns_Friedel_fraction_max     .
_reflns_Friedel_fraction_full    .

_reflns_special_details          
;
 Reflections were merged by SHELXL according to the crystal
 class for the calculation of statistics and refinement.
 
 _reflns_Friedel_fraction is defined as the number of unique
 Friedel pairs measured divided by the number that would be
 possible theoretically, ignoring centric projections and
 systematic absences.
;

_computing_data_collection       ?
_computing_cell_refinement       ?
_computing_data_reduction        ?
_computing_structure_solution    ?
_computing_structure_refinement  'SHELXL-2014/7 (Sheldrick, 2014)'
_computing_molecular_graphics    ?
_computing_publication_material  ?
_refine_special_details          ?
_refine_ls_structure_factor_coef Fsqd
_refine_ls_matrix_type           full
_refine_ls_weighting_scheme      calc
_refine_ls_weighting_details     
'w=1/[\s^2^(Fo^2^)+(0.0958P)^2^+9.0775P] where P=(Fo^2^+2Fc^2^)/3'
_atom_sites_solution_primary     ?
_atom_sites_solution_secondary   ?
_atom_sites_solution_hydrogens   geom
_refine_ls_hydrogen_treatment    constr
_refine_ls_extinction_method     none
_refine_ls_extinction_coef       .
_refine_ls_number_reflns         7700
_refine_ls_number_parameters     229
_refine_ls_number_restraints     0
_refine_ls_R_factor_all          0.0958
_refine_ls_R_factor_gt           0.0617
_refine_ls_wR_factor_ref         0.1670
_refine_ls_wR_factor_gt          0.1537
_refine_ls_goodness_of_fit_ref   1.023
_refine_ls_restrained_S_all      1.023
_refine_ls_shift/su_max          0.001
_refine_ls_shift/su_mean         0.000

loop_
_atom_site_label
_atom_site_type_symbol
_atom_site_fract_x
_atom_site_fract_y
_atom_site_fract_z
_atom_site_U_iso_or_equiv
_atom_site_adp_type
_atom_site_occupancy
_atom_site_site_symmetry_order
_atom_site_calc_flag
_atom_site_refinement_flags_posn
_atom_site_refinement_flags_adp
_atom_site_refinement_flags_occupancy
_atom_site_disorder_assembly
_atom_site_disorder_group
Cu01 Cu 0.82060(2) 0.53795(2) 0.50739(2) 0.01348(14) Uani 1 1 d . . . . .
O4 O 0.61157(8) 0.47057(6) 0.06722(12) 0.0194(5) Uani 1 1 d . . . . .
O3 O 0.62861(8) 0.53043(6) 0.08416(11) 0.0214(5) Uani 1 1 d . . . . .
O1 O 0.75493(8) 0.53433(5) 0.44318(11) 0.0209(5) Uani 1 1 d . . . . .
O2 O 0.77098(8) 0.47711(6) 0.40628(11) 0.0203(5) Uani 1 1 d . . . . .
N1 N 0.82111(10) 0.59425(7) 0.51647(15) 0.0215(6) Uani 1 1 d . . . . .
C20 C 0.60201(12) 0.50118(8) 0.09512(16) 0.0155(7) Uani 1 1 d . . . . .
C19 C 0.55031(12) 0.50393(8) 0.14221(17) 0.0174(7) Uani 1 1 d . . . . .
C18 C 0.5000 0.49892(11) 0.1074(3) 0.0195(10) Uani 1 2 d S T P . .
H18 H 0.5000 0.4918 0.0581 0.023 Uiso 1 2 calc R U P . .
C16 C 0.55082(12) 0.51370(9) 0.21696(17) 0.0188(7) Uani 1 1 d . . . . .
C17 C 0.5000 0.51814(12) 0.2521(2) 0.0196(10) Uani 1 2 d S T P . .
H17 H 0.5000 0.5244 0.3018 0.024 Uiso 1 2 calc R U P . .
C9 C 0.74521(12) 0.50683(8) 0.40410(17) 0.0165(7) Uani 1 1 d . . . . .
C11 C 0.68709(12) 0.48319(10) 0.29990(18) 0.0249(8) Uani 1 1 d . . . . .
H11 H 0.7112 0.4633 0.2959 0.030 Uiso 1 1 calc R U . . .
C13 C 0.60334(12) 0.51426(9) 0.26004(16) 0.0190(7) Uani 1 1 d . . . . .
C10 C 0.69741(13) 0.50986(9) 0.35129(18) 0.0207(7) Uani 1 1 d . . . . .
C12 C 0.64127(12) 0.48539(9) 0.25389(18) 0.0249(8) Uani 1 1 d . . . . .
H12 H 0.6357 0.4674 0.2183 0.030 Uiso 1 1 calc R U . . .
C14 C 0.61400(13) 0.54090(9) 0.31155(18) 0.0281(8) Uani 1 1 d . . . . .
H14 H 0.5892 0.5604 0.3165 0.034 Uiso 1 1 calc R U . . .
C15 C 0.66051(13) 0.53956(9) 0.35632(19) 0.0287(8) Uani 1 1 d . . . . .
H15 H 0.6673 0.5584 0.3898 0.034 Uiso 1 1 calc R U . . .
C3 C 0.82072(16) 0.67125(13) 0.5251(3) 0.0502(11) Uani 1 1 d . . . . .
C7 C 0.82048(17) 0.71164(11) 0.5289(3) 0.0538(12) Uani 1 1 d . . . . .
C1 C 0.77764(16) 0.61468(12) 0.4935(2) 0.0513(12) Uani 1 1 d . . . . .
H1 H 0.7469 0.6026 0.4740 0.062 Uiso 1 1 calc R U . . .
C2 C 0.77610(19) 0.65226(11) 0.4971(3) 0.0624(15) Uani 1 1 d . . . . .
H2 H 0.7448 0.6649 0.4806 0.075 Uiso 1 1 calc R U . . .
C4 C 0.86422(19) 0.64997(12) 0.5499(3) 0.0780(17) Uani 1 1 d . . . . .
H4 H 0.8952 0.6613 0.5707 0.094 Uiso 1 1 calc R U . . .
C6 C 0.7730(2) 0.73037(11) 0.5404(3) 0.0770(17) Uani 1 1 d . . . . .
H6 H 0.7399 0.7177 0.5485 0.092 Uiso 1 1 calc R U . . .
C8 C 0.8703(2) 0.73116(11) 0.5204(4) 0.095(2) Uani 1 1 d . . . . .
H8 H 0.9037 0.7185 0.5148 0.114 Uiso 1 1 calc R U . . .
C5 C 0.86280(18) 0.61346(11) 0.5449(3) 0.0626(14) Uani 1 1 d . . . . .
H5 H 0.8933 0.6005 0.5627 0.075 Uiso 1 1 calc R U . . .

loop_
_atom_site_aniso_label
_atom_site_aniso_U_11
_atom_site_aniso_U_22
_atom_site_aniso_U_33
_atom_site_aniso_U_23
_atom_site_aniso_U_13
_atom_site_aniso_U_12
Cu01 0.0078(2) 0.0160(2) 0.0166(2) 0.00261(16) -0.00156(15) -0.00059(15)
O4 0.0129(10) 0.0206(12) 0.0247(12) -0.0004(10) 0.0043(9) -0.0041(9)
O3 0.0168(11) 0.0295(13) 0.0179(11) 0.0013(10) 0.0054(9) -0.0010(10)
O1 0.0165(11) 0.0216(12) 0.0247(11) -0.0036(10) -0.0064(9) -0.0028(9)
O2 0.0162(11) 0.0220(12) 0.0228(12) -0.0011(10) -0.0028(9) -0.0005(9)
N1 0.0213(14) 0.0008(12) 0.0425(17) -0.0015(12) -0.0069(13) 0.0020(11)
C20 0.0122(15) 0.0240(18) 0.0102(15) 0.0025(14) -0.0019(12) -0.0035(14)
C19 0.0116(15) 0.0229(18) 0.0178(17) 0.0017(13) -0.0029(13) 0.0025(12)
C18 0.016(2) 0.024(3) 0.018(2) -0.001(2) 0.000 0.000
C16 0.0095(15) 0.0295(18) 0.0174(17) -0.0018(15) 0.0018(13) 0.0006(13)
C17 0.014(2) 0.030(3) 0.015(2) -0.004(2) 0.000 0.000
C9 0.0116(14) 0.0188(18) 0.0191(17) 0.0069(14) 0.0057(13) 0.0009(12)
C11 0.0169(16) 0.0299(19) 0.0279(19) -0.0110(17) -0.0016(14) 0.0042(14)
C13 0.0117(15) 0.0297(18) 0.0157(16) -0.0023(15) -0.0010(13) 0.0013(14)
C10 0.0106(15) 0.0281(19) 0.0234(18) -0.0016(15) 0.0013(13) 0.0008(13)
C12 0.0175(16) 0.0353(19) 0.0218(18) -0.0151(17) -0.0025(14) -0.0002(15)
C14 0.0184(16) 0.030(2) 0.036(2) -0.0067(16) -0.0074(15) 0.0105(15)
C15 0.0218(17) 0.031(2) 0.033(2) -0.0110(17) -0.0085(15) 0.0022(15)
C3 0.032(2) 0.047(3) 0.071(3) -0.004(2) -0.006(2) -0.0021(19)
C7 0.035(2) 0.026(2) 0.100(4) 0.001(2) -0.011(2) 0.0029(19)
C1 0.032(2) 0.035(2) 0.087(3) -0.012(2) -0.019(2) 0.0035(18)
C2 0.051(3) 0.026(2) 0.110(4) -0.001(2) -0.025(3) 0.007(2)
C4 0.052(3) 0.039(3) 0.142(5) -0.009(3) -0.042(3) -0.004(2)
C6 0.049(3) 0.027(2) 0.155(5) -0.006(3) 0.009(3) -0.008(2)
C8 0.054(3) 0.017(2) 0.214(7) 0.001(3) -0.020(4) -0.004(2)
C5 0.055(3) 0.021(2) 0.113(4) -0.006(3) -0.036(3) 0.009(2)

_geom_special_details            
;
 All esds (except the esd in the dihedral angle between two l.s. planes)
 are estimated using the full covariance matrix.  The cell esds are taken
 into account individually in the estimation of esds in distances, angles
 and torsion angles; correlations between esds in cell parameters are only
 used when they are defined by crystal symmetry.  An approximate (isotropic)
 treatment of cell esds is used for estimating esds involving l.s. planes.
;

loop_
_geom_bond_atom_site_label_1
_geom_bond_atom_site_label_2
_geom_bond_distance
_geom_bond_site_symmetry_2
_geom_bond_publ_flag
Cu01 O1 1.964(2) . ?
Cu01 O4 1.981(2) 6_655 ?
Cu01 O2 2.042(2) 4_566 ?
Cu01 N1 2.057(3) . ?
Cu01 O3 2.078(2) 7_645 ?
Cu01 Cu01 2.7765(8) 4_566 ?
O4 C20 1.245(3) . ?
O4 Cu01 1.981(2) 6_654 ?
O3 C20 1.257(3) . ?
O3 Cu01 2.078(2) 7_645 ?
O1 C9 1.249(3) . ?
O2 C9 1.247(3) . ?
O2 Cu01 2.043(2) 4_566 ?
N1 C5 1.325(5) . ?
N1 C1 1.347(4) . ?
C20 C19 1.510(4) . ?
C19 C18 1.375(4) . ?
C19 C16 1.402(4) . ?
C18 C19 1.375(4) 12_655 ?
C18 H18 0.9300 . ?
C16 C17 1.386(3) . ?
C16 C13 1.483(4) . ?
C17 C16 1.385(3) 12_655 ?
C17 H17 0.9300 . ?
C9 C10 1.499(4) . ?
C11 C10 1.369(4) . ?
C11 C12 1.383(4) . ?
C11 H11 0.9300 . ?
C13 C14 1.371(4) . ?
C13 C12 1.395(4) . ?
C10 C15 1.401(4) . ?
C12 H12 0.9300 . ?
C14 C15 1.381(4) . ?
C14 H14 0.9300 . ?
C15 H15 0.9300 . ?
C3 C2 1.372(6) . ?
C3 C4 1.376(6) . ?
C3 C7 1.472(6) . ?
C7 C6 1.344(6) . ?
C7 C8 1.400(6) . ?
C1 C2 1.370(6) . ?
C1 H1 0.9300 . ?
C2 H2 0.9300 . ?
C4 C5 1.333(5) . ?
C4 H4 0.9300 . ?
C6 C6 1.429(8) 11_575 ?
C6 H6 0.9300 . ?
C8 C8 1.372(8) 11_575 ?
C8 H8 0.9300 . ?
C5 H5 0.9300 . ?

loop_
_geom_angle_atom_site_label_1
_geom_angle_atom_site_label_2
_geom_angle_atom_site_label_3
_geom_angle
_geom_angle_site_symmetry_1
_geom_angle_site_symmetry_3
_geom_angle_publ_flag
O1 Cu01 O4 166.84(9) . 6_655 ?
O1 Cu01 O2 88.22(8) . 4_566 ?
O4 Cu01 O2 90.96(9) 6_655 4_566 ?
O1 Cu01 N1 96.85(9) . . ?
O4 Cu01 N1 96.16(9) 6_655 . ?
O2 Cu01 N1 102.10(10) 4_566 . ?
O1 Cu01 O3 89.29(9) . 7_645 ?
O4 Cu01 O3 86.30(9) 6_655 7_645 ?
O2 Cu01 O3 156.84(9) 4_566 7_645 ?
N1 Cu01 O3 101.07(10) . 7_645 ?
O1 Cu01 Cu01 82.87(6) . 4_566 ?
O4 Cu01 Cu01 84.08(6) 6_655 4_566 ?
O2 Cu01 Cu01 78.87(6) 4_566 4_566 ?
N1 Cu01 Cu01 178.99(8) . 4_566 ?
O3 Cu01 Cu01 77.97(6) 7_645 4_566 ?
C20 O4 Cu01 120.95(18) . 6_654 ?
C20 O3 Cu01 122.39(19) . 7_645 ?
C9 O1 Cu01 122.71(19) . . ?
C9 O2 Cu01 123.11(19) . 4_566 ?
C5 N1 C1 114.4(3) . . ?
C5 N1 Cu01 124.2(2) . . ?
C1 N1 Cu01 121.4(2) . . ?
O4 C20 O3 126.9(3) . . ?
O4 C20 C19 116.2(3) . . ?
O3 C20 C19 116.8(3) . . ?
C18 C19 C16 119.1(3) . . ?
C18 C19 C20 116.9(3) . . ?
C16 C19 C20 123.9(3) . . ?
C19 C18 C19 122.8(4) . 12_655 ?
C19 C18 H18 118.6 . . ?
C19 C18 H18 118.6 12_655 . ?
C17 C16 C19 117.8(3) . . ?
C17 C16 C13 120.3(3) . . ?
C19 C16 C13 121.4(3) . . ?
C16 C17 C16 123.3(4) 12_655 . ?
C16 C17 H17 118.3 12_655 . ?
C16 C17 H17 118.3 . . ?
O2 C9 O1 125.8(3) . . ?
O2 C9 C10 117.6(3) . . ?
O1 C9 C10 116.5(3) . . ?
C10 C11 C12 120.9(3) . . ?
C10 C11 H11 119.5 . . ?
C12 C11 H11 119.5 . . ?
C14 C13 C12 117.8(3) . . ?
C14 C13 C16 121.8(3) . . ?
C12 C13 C16 120.1(3) . . ?
C11 C10 C15 118.5(3) . . ?
C11 C10 C9 121.4(3) . . ?
C15 C10 C9 119.9(3) . . ?
C11 C12 C13 121.0(3) . . ?
C11 C12 H12 119.5 . . ?
C13 C12 H12 119.5 . . ?
C13 C14 C15 121.8(3) . . ?
C13 C14 H14 119.1 . . ?
C15 C14 H14 119.1 . . ?
C14 C15 C10 120.0(3) . . ?
C14 C15 H15 120.0 . . ?
C10 C15 H15 120.0 . . ?
C2 C3 C4 115.4(4) . . ?
C2 C3 C7 121.2(4) . . ?
C4 C3 C7 123.4(4) . . ?
C6 C7 C8 118.9(4) . . ?
C6 C7 C3 121.2(4) . . ?
C8 C7 C3 119.9(4) . . ?
N1 C1 C2 123.9(4) . . ?
N1 C1 H1 118.1 . . ?
C2 C1 H1 118.1 . . ?
C1 C2 C3 120.0(4) . . ?
C1 C2 H2 120.0 . . ?
C3 C2 H2 120.0 . . ?
C5 C4 C3 121.3(4) . . ?
C5 C4 H4 119.3 . . ?
C3 C4 H4 119.3 . . ?
C7 C6 C6 120.5(3) . 11_575 ?
C7 C6 H6 119.8 . . ?
C6 C6 H6 119.8 11_575 . ?
C8 C8 C7 120.5(3) 11_575 . ?
C8 C8 H8 119.7 11_575 . ?
C7 C8 H8 119.7 . . ?
N1 C5 C4 124.9(4) . . ?
N1 C5 H5 117.5 . . ?
C4 C5 H5 117.5 . . ?

loop_
_geom_torsion_atom_site_label_1
_geom_torsion_atom_site_label_2
_geom_torsion_atom_site_label_3
_geom_torsion_atom_site_label_4
_geom_torsion
_geom_torsion_site_symmetry_1
_geom_torsion_site_symmetry_2
_geom_torsion_site_symmetry_3
_geom_torsion_site_symmetry_4
_geom_torsion_publ_flag
Cu01 O4 C20 O3 7.7(4) 6_654 . . . ?
Cu01 O4 C20 C19 -177.49(18) 6_654 . . . ?
Cu01 O3 C20 O4 19.6(4) 7_645 . . . ?
Cu01 O3 C20 C19 -155.16(19) 7_645 . . . ?
O4 C20 C19 C18 -64.6(4) . . . . ?
O3 C20 C19 C18 110.7(3) . . . . ?
O4 C20 C19 C16 120.0(3) . . . . ?
O3 C20 C19 C16 -64.7(4) . . . . ?
C16 C19 C18 C19 1.6(6) . . . 12_655 ?
C20 C19 C18 C19 -174.0(3) . . . 12_655 ?
C18 C19 C16 C17 -0.5(5) . . . . ?
C20 C19 C16 C17 174.8(3) . . . . ?
C18 C19 C16 C13 171.1(3) . . . . ?
C20 C19 C16 C13 -13.6(5) . . . . ?
C19 C16 C17 C16 -0.5(7) . . . 12_655 ?
C13 C16 C17 C16 -172.3(3) . . . 12_655 ?
Cu01 O2 C9 O1 17.2(4) 4_566 . . . ?
Cu01 O2 C9 C10 -161.3(2) 4_566 . . . ?
Cu01 O1 C9 O2 8.6(4) . . . . ?
Cu01 O1 C9 C10 -172.84(19) . . . . ?
C17 C16 C13 C14 -47.3(5) . . . . ?
C19 C16 C13 C14 141.3(3) . . . . ?
C17 C16 C13 C12 126.7(4) . . . . ?
C19 C16 C13 C12 -44.8(5) . . . . ?
C12 C11 C10 C15 -0.1(5) . . . . ?
C12 C11 C10 C9 176.8(3) . . . . ?
O2 C9 C10 C11 -9.1(4) . . . . ?
O1 C9 C10 C11 172.2(3) . . . . ?
O2 C9 C10 C15 167.7(3) . . . . ?
O1 C9 C10 C15 -11.0(4) . . . . ?
C10 C11 C12 C13 -2.0(5) . . . . ?
C14 C13 C12 C11 2.0(5) . . . . ?
C16 C1