####################################################################### 
# 
# This file contains crystal structure data downloaded from the 
# Cambridge Structural Database (CSD) hosted by the Cambridge 
# Crystallographic Data Centre (CCDC).
# 
# Full information about CCDC data access policies and citation 
# guidelines are available at http://www.ccdc.cam.ac.uk/access/V1 
# 
# Audit and citation data items may have been added by the CCDC. 
# Please retain this information to preserve the provenance of 
# this file and to allow appropriate attribution of the data. 
# 
#######################################################################

data_5
_audit_block_doi                 10.5517/cc14kjmv
_database_code_depnum_ccdc_archive 'CCDC 1059537'
loop_
_citation_id
_citation_doi
_citation_year
1 10.1002/chem.201502648 2015
_audit_update_record             
;
2015-08-03 deposited with the CCDC.	2024-07-11 downloaded from the CCDC.
;

_audit_creation_method           SHELXL-2014/7
_shelx_SHELXL_version_number     2014/7
_chemical_name_systematic        ?
_chemical_name_common            ?
_chemical_melting_point          ?
_chemical_formula_moiety         'C16 H9 N O4 Zn'
_chemical_formula_sum            'C16 H9 N O4 Zn'
_chemical_formula_weight         344.61

loop_
_atom_type_symbol
_atom_type_description
_atom_type_scat_dispersion_real
_atom_type_scat_dispersion_imag
_atom_type_scat_source
C C 0.0033 0.0016 'International Tables Vol C Tables 4.2.6.8 and 6.1.1.4'
H H 0.0000 0.0000 'International Tables Vol C Tables 4.2.6.8 and 6.1.1.4'
N N 0.0061 0.0033 'International Tables Vol C Tables 4.2.6.8 and 6.1.1.4'
O O 0.0106 0.0060 'International Tables Vol C Tables 4.2.6.8 and 6.1.1.4'
Zn Zn 0.2839 1.4301 'International Tables Vol C Tables 4.2.6.8 and 6.1.1.4'

_space_group_crystal_system      orthorhombic
_space_group_IT_number           74
_space_group_name_H-M_alt        'I m m a'
_space_group_name_Hall           '-I 2b 2'

_shelx_space_group_comment       
;
The symmetry employed for this shelxl refinement is uniquely defined
by the following loop, which should always be used as a source of
symmetry information in preference to the above space-group names.
They are only intended as comments.
;

loop_
_space_group_symop_operation_xyz
'x, y, z'
'-x, -y+1/2, z'
'-x, y+1/2, -z'
'x, -y, -z'
'x+1/2, y+1/2, z+1/2'
'-x+1/2, -y+1, z+1/2'
'-x+1/2, y+1, -z+1/2'
'x+1/2, -y+1/2, -z+1/2'
'-x, -y, -z'
'x, y-1/2, -z'
'x, -y-1/2, z'
'-x, y, z'
'-x+1/2, -y+1/2, -z+1/2'
'x+1/2, y, -z+1/2'
'x+1/2, -y, z+1/2'
'-x+1/2, y+1/2, z+1/2'

_cell_length_a                   23.989(10)
_cell_length_b                   28.069(9)
_cell_length_c                   18.483(6)
_cell_angle_alpha                90
_cell_angle_beta                 90
_cell_angle_gamma                90
_cell_volume                     12445(8)
_cell_formula_units_Z            16
_cell_measurement_temperature    100(2)
_cell_measurement_reflns_used    999
_cell_measurement_theta_min      ?
_cell_measurement_theta_max      ?

_exptl_crystal_description       block
_exptl_crystal_colour            colorless
_exptl_crystal_density_meas      ?
_exptl_crystal_density_method    ?
_exptl_crystal_density_diffrn    0.736
_exptl_crystal_F_000             2784
_exptl_transmission_factor_min   0.4142
_exptl_transmission_factor_max   0.7457
_exptl_crystal_size_max          0.180
_exptl_crystal_size_mid          0.160
_exptl_crystal_size_min          0.140
_exptl_absorpt_coefficient_mu    0.797
_shelx_estimated_absorpt_T_min   0.870
_shelx_estimated_absorpt_T_max   0.897
_exptl_absorpt_correction_type   empirical
_exptl_absorpt_correction_T_min  ?
_exptl_absorpt_correction_T_max  ?
_exptl_absorpt_process_details   sadabs
_exptl_absorpt_special_details   ?
_diffrn_ambient_temperature      100(2)
_diffrn_radiation_wavelength     0.71073
_diffrn_radiation_type           MoK\a
_diffrn_source                   ?
_diffrn_measurement_device_type  'BRUKER SMART APEX'
_diffrn_measurement_method       /w-scans
_diffrn_detector_area_resol_mean ?
_diffrn_reflns_number            25685
_diffrn_reflns_av_unetI/netI     0.0746
_diffrn_reflns_av_R_equivalents  0.1191
_diffrn_reflns_limit_h_min       -27
_diffrn_reflns_limit_h_max       29
_diffrn_reflns_limit_k_min       -33
_diffrn_reflns_limit_k_max       32
_diffrn_reflns_limit_l_min       -22
_diffrn_reflns_limit_l_max       19
_diffrn_reflns_theta_min         1.319
_diffrn_reflns_theta_max         25.498
_diffrn_reflns_theta_full        25.242
_diffrn_measured_fraction_theta_max 0.994
_diffrn_measured_fraction_theta_full 0.994
_diffrn_reflns_Laue_measured_fraction_max 0.994
_diffrn_reflns_Laue_measured_fraction_full 0.994
_diffrn_reflns_point_group_measured_fraction_max 0.994
_diffrn_reflns_point_group_measured_fraction_full 0.994
_reflns_number_total             6038
_reflns_number_gt                3808
_reflns_threshold_expression     'I > 2\s(I)'
_reflns_Friedel_coverage         0.000
_reflns_Friedel_fraction_max     .
_reflns_Friedel_fraction_full    .

_reflns_special_details          
;
 Reflections were merged by SHELXL according to the crystal
 class for the calculation of statistics and refinement.
 
 _reflns_Friedel_fraction is defined as the number of unique
 Friedel pairs measured divided by the number that would be
 possible theoretically, ignoring centric projections and
 systematic absences.
;

_computing_data_collection       ?
_computing_cell_refinement       ?
_computing_data_reduction        ?
_computing_structure_solution    ?
_computing_structure_refinement  'SHELXL-2014/7 (Sheldrick, 2014)'
_computing_molecular_graphics    ?
_computing_publication_material  ?
_refine_special_details          ?
_refine_ls_structure_factor_coef Fsqd
_refine_ls_matrix_type           full
_refine_ls_weighting_scheme      calc
_refine_ls_weighting_details     
'w=1/[\s^2^(Fo^2^)+(0.1324P)^2^] where P=(Fo^2^+2Fc^2^)/3'
_atom_sites_solution_primary     ?
_atom_sites_solution_secondary   ?
_atom_sites_solution_hydrogens   geom
_refine_ls_hydrogen_treatment    constr
_refine_ls_extinction_method     none
_refine_ls_extinction_coef       .
_refine_ls_number_reflns         6038
_refine_ls_number_parameters     202
_refine_ls_number_restraints     0
_refine_ls_R_factor_all          0.0947
_refine_ls_R_factor_gt           0.0740
_refine_ls_wR_factor_ref         0.1998
_refine_ls_wR_factor_gt          0.1879
_refine_ls_goodness_of_fit_ref   0.923
_refine_ls_restrained_S_all      0.923
_refine_ls_shift/su_max          0.002
_refine_ls_shift/su_mean         0.000

loop_
_atom_site_label
_atom_site_type_symbol
_atom_site_fract_x
_atom_site_fract_y
_atom_site_fract_z
_atom_site_U_iso_or_equiv
_atom_site_adp_type
_atom_site_occupancy
_atom_site_site_symmetry_order
_atom_site_calc_flag
_atom_site_refinement_flags_posn
_atom_site_refinement_flags_adp
_atom_site_refinement_flags_occupancy
_atom_site_disorder_assembly
_atom_site_disorder_group
Zn01 Zn 0.81924(2) 0.55172(2) 0.49450(2) 0.01921(19) Uani 1 1 d . . . . .
O4 O 0.61238(11) 0.46049(10) 0.93392(14) 0.0292(6) Uani 1 1 d . . . . .
O3 O 0.62968(11) 0.53761(10) 0.91571(14) 0.0308(7) Uani 1 1 d . . . . .
O1 O 0.75236(11) 0.54227(10) 0.55814(14) 0.0305(6) Uani 1 1 d . . . . .
O2 O 0.76930(11) 0.46674(10) 0.59262(14) 0.0314(7) Uani 1 1 d . . . . .
N1 N 0.81938(11) 0.62332(13) 0.49047(16) 0.0239(7) Uani 1 1 d . . . . .
C17 C 0.60231(15) 0.50008(13) 0.90518(17) 0.0179(8) Uani 1 1 d . . . . .
C15 C 0.55125(15) 0.50245(12) 0.85876(19) 0.0188(8) Uani 1 1 d . . . . .
C16 C 0.5000 0.49773(19) 0.8922(3) 0.0256(13) Uani 1 2 d S T P . .
H16 H 0.5000 0.4908 0.9414 0.031 Uiso 1 2 calc R U P . .
C11 C 0.61214(16) 0.54941(16) 0.6885(2) 0.0328(10) Uani 1 1 d . . . . .
H11 H 0.5871 0.5746 0.6841 0.039 Uiso 1 1 calc R U . . .
C6 C 0.74309(15) 0.50480(13) 0.59617(19) 0.0222(9) Uani 1 1 d . . . . .
C3 C 0.82009(16) 0.72340(15) 0.4877(2) 0.0311(10) Uani 1 1 d . . . . .
C7 C 0.69542(16) 0.50787(15) 0.6481(2) 0.0284(10) Uani 1 1 d . . . . .
C8 C 0.68716(16) 0.47506(19) 0.7011(2) 0.0368(11) Uani 1 1 d . . . . .
H8 H 0.7124 0.4502 0.7064 0.044 Uiso 1 1 calc R U . . .
C12 C 0.65784(16) 0.54728(16) 0.6433(2) 0.0343(10) Uani 1 1 d . . . . .
H12 H 0.6642 0.5714 0.6098 0.041 Uiso 1 1 calc R U . . .
C10 C 0.60281(17) 0.51393(16) 0.7413(2) 0.0319(10) Uani 1 1 d . . . . .
C13 C 0.55120(16) 0.51282(17) 0.7850(2) 0.0348(11) Uani 1 1 d . . . . .
C9 C 0.64187(16) 0.47798(17) 0.7473(2) 0.0342(10) Uani 1 1 d . . . . .
H9 H 0.6376 0.4551 0.7834 0.041 Uiso 1 1 calc R U . . .
C14 C 0.5000 0.5185(2) 0.7499(3) 0.0330(13) Uani 1 2 d S T P . .
H14 H 0.5000 0.5264 0.7010 0.040 Uiso 1 2 calc R U P . .
C1 C 0.77615(18) 0.64955(18) 0.5118(3) 0.0479(13) Uani 1 1 d . . . . .
H1 H 0.7444 0.6335 0.5271 0.058 Uiso 1 1 calc R U . . .
C4 C 0.8641(2) 0.69648(18) 0.4624(4) 0.0689(18) Uani 1 1 d . . . . .
H4 H 0.8953 0.7116 0.4435 0.083 Uiso 1 1 calc R U . . .
C2 C 0.7749(2) 0.69734(18) 0.5128(3) 0.0582(16) Uani 1 1 d . . . . .
H2 H 0.7436 0.7131 0.5305 0.070 Uiso 1 1 calc R U . . .
C5 C 0.8624(2) 0.65008(19) 0.4645(4) 0.0687(18) Uani 1 1 d . . . . .
H5 H 0.8933 0.6338 0.4469 0.082 Uiso 1 1 calc R U . . .

loop_
_atom_site_aniso_label
_atom_site_aniso_U_11
_atom_site_aniso_U_22
_atom_site_aniso_U_33
_atom_site_aniso_U_23
_atom_site_aniso_U_13
_atom_site_aniso_U_12
Zn01 0.0084(3) 0.0286(3) 0.0207(3) -0.00117(17) 0.00124(15) -0.00032(17)
O4 0.0178(14) 0.0424(17) 0.0274(14) -0.0033(12) -0.0101(11) 0.0034(12)
O3 0.0222(15) 0.0440(17) 0.0263(14) 0.0024(12) -0.0100(11) -0.0056(13)
O1 0.0191(14) 0.0478(17) 0.0246(14) -0.0053(12) 0.0077(11) -0.0019(13)
O2 0.0201(14) 0.0454(18) 0.0288(15) 0.0072(12) 0.0093(11) 0.0095(14)
N1 0.0107(16) 0.032(2) 0.0290(17) 0.0038(13) 0.0028(12) 0.0021(13)
C17 0.0126(18) 0.028(2) 0.0132(17) 0.0022(14) 0.0033(14) -0.0009(17)
C15 0.0109(18) 0.025(2) 0.0203(18) 0.0023(14) -0.0021(14) 0.0013(15)
C16 0.009(3) 0.052(4) 0.015(3) 0.005(2) 0.000 0.000
C11 0.022(2) 0.056(3) 0.0206(19) 0.0080(17) 0.0040(16) 0.010(2)
C6 0.0137(19) 0.038(2) 0.0148(18) 0.0017(15) -0.0047(14) -0.0009(17)
C3 0.019(2) 0.025(2) 0.050(2) 0.0000(18) 0.0048(18) -0.0008(17)
C7 0.0126(19) 0.056(3) 0.0166(19) 0.0027(17) -0.0021(15) -0.0042(18)
C8 0.017(2) 0.071(3) 0.022(2) 0.005(2) 0.0001(16) 0.010(2)
C12 0.021(2) 0.056(3) 0.026(2) 0.0074(18) 0.0054(17) 0.004(2)
C10 0.019(2) 0.062(3) 0.0147(18) -0.0013(18) 0.0012(15) 0.002(2)
C13 0.013(2) 0.074(3) 0.018(2) 0.0027(19) 0.0016(15) 0.007(2)
C9 0.0137(19) 0.068(3) 0.020(2) 0.009(2) 0.0026(15) 0.002(2)
C14 0.016(3) 0.063(4) 0.020(3) 0.008(3) 0.000 0.000
C1 0.017(2) 0.042(3) 0.085(4) 0.008(2) 0.023(2) 0.001(2)
C4 0.034(3) 0.043(3) 0.130(6) 0.000(3) 0.038(4) -0.005(2)
C2 0.025(3) 0.044(3) 0.105(5) 0.000(3) 0.029(3) 0.001(2)
C5 0.033(3) 0.052(4) 0.121(5) 0.000(3) 0.039(3) 0.007(3)

_geom_special_details            
;
 All esds (except the esd in the dihedral angle between two l.s. planes)
 are estimated using the full covariance matrix.  The cell esds are taken
 into account individually in the estimation of esds in distances, angles
 and torsion angles; correlations between esds in cell parameters are only
 used when they are defined by crystal symmetry.  An approximate (isotropic)
 treatment of cell esds is used for estimating esds involving l.s. planes.
;

loop_
_geom_bond_atom_site_label_1
_geom_bond_atom_site_label_2
_geom_bond_distance
_geom_bond_site_symmetry_2
_geom_bond_publ_flag
Zn01 O1 2.007(3) . ?
Zn01 N1 2.011(4) . ?
Zn01 O4 2.015(3) 6_654 ?
Zn01 O2 2.072(3) 4_566 ?
Zn01 O3 2.101(3) 7_646 ?
Zn01 Zn01 2.9102(13) 4_566 ?
O4 C17 1.255(4) . ?
O4 Zn01 2.015(3) 6_655 ?
O3 C17 1.256(4) . ?
O3 Zn01 2.101(3) 7_646 ?
O1 C6 1.284(4) . ?
O2 C6 1.241(4) . ?
O2 Zn01 2.073(3) 4_566 ?
N1 C1 1.331(5) . ?
N1 C5 1.363(6) . ?
C17 C15 1.497(5) . ?
C15 C16 1.382(4) . ?
C15 C13 1.395(5) . ?
C16 C15 1.382(4) 12_655 ?
C16 H16 0.9300 . ?
C11 C12 1.380(5) . ?
C11 C10 1.412(6) . ?
C11 H11 0.9300 . ?
C6 C7 1.496(5) . ?
C3 C4 1.380(6) . ?
C3 C2 1.388(6) . ?
C3 C3 1.493(9) 11_575 ?
C7 C8 1.359(6) . ?
C7 C12 1.430(6) . ?
C8 C9 1.385(5) . ?
C8 H8 0.9300 . ?
C12 H12 0.9300 . ?
C10 C9 1.381(6) . ?
C10 C13 1.478(5) . ?
C13 C14 1.398(5) . ?
C9 H9 0.9300 . ?
C14 C13 1.398(5) 12_655 ?
C14 H14 0.9300 . ?
C1 C2 1.342(7) . ?
C1 H1 0.9300 . ?
C4 C5 1.304(7) . ?
C4 H4 0.9300 . ?
C2 H2 0.9300 . ?
C5 H5 0.9300 . ?

loop_
_geom_angle_atom_site_label_1
_geom_angle_atom_site_label_2
_geom_angle_atom_site_label_3
_geom_angle
_geom_angle_site_symmetry_1
_geom_angle_site_symmetry_3
_geom_angle_publ_flag
O1 Zn01 N1 98.92(11) . . ?
O1 Zn01 O4 162.52(12) . 6_654 ?
N1 Zn01 O4 98.50(11) . 6_654 ?
O1 Zn01 O2 87.73(11) . 4_566 ?
N1 Zn01 O2 102.83(12) . 4_566 ?
O4 Zn01 O2 89.79(11) 6_654 4_566 ?
O1 Zn01 O3 88.76(11) . 7_646 ?
N1 Zn01 O3 102.50(12) . 7_646 ?
O4 Zn01 O3 86.10(11) 6_654 7_646 ?
O2 Zn01 O3 154.67(12) 4_566 7_646 ?
O1 Zn01 Zn01 80.05(8) . 4_566 ?
N1 Zn01 Zn01 178.11(9) . 4_566 ?
O4 Zn01 Zn01 82.49(8) 6_654 4_566 ?
O2 Zn01 Zn01 78.76(8) 4_566 4_566 ?
O3 Zn01 Zn01 75.92(8) 7_646 4_566 ?
C17 O4 Zn01 122.8(2) . 6_655 ?
C17 O3 Zn01 125.8(2) . 7_646 ?
C6 O1 Zn01 124.6(2) . . ?
C6 O2 Zn01 123.3(2) . 4_566 ?
C1 N1 C5 112.9(4) . . ?
C1 N1 Zn01 122.7(3) . . ?
C5 N1 Zn01 124.4(3) . . ?
O4 C17 O3 125.2(3) . . ?
O4 C17 C15 116.1(3) . . ?
O3 C17 C15 118.6(3) . . ?
C16 C15 C13 117.2(4) . . ?
C16 C15 C17 117.8(3) . . ?
C13 C15 C17 124.8(3) . . ?
C15 C16 C15 125.6(5) . 12_655 ?
C15 C16 H16 117.2 . . ?
C15 C16 H16 117.2 12_655 . ?
C12 C11 C10 120.9(4) . . ?
C12 C11 H11 119.5 . . ?
C10 C11 H11 119.5 . . ?
O2 C6 O1 126.0(3) . . ?
O2 C6 C7 118.1(3) . . ?
O1 C6 C7 115.9(3) . . ?
C4 C3 C2 115.0(4) . . ?
C4 C3 C3 123.2(3) . 11_575 ?
C2 C3 C3 121.8(3) . 11_575 ?
C8 C7 C12 118.5(4) . . ?
C8 C7 C6 122.4(4) . . ?
C12 C7 C6 119.1(3) . . ?
C7 C8 C9 121.3(4) . . ?
C7 C8 H8 119.4 . . ?
C9 C8 H8 119.4 . . ?
C11 C12 C7 119.8(4) . . ?
C11 C12 H12 120.1 . . ?
C7 C12 H12 120.1 . . ?
C9 C10 C11 117.6(4) . . ?
C9 C10 C13 120.6(4) . . ?
C11 C10 C13 121.7(4) . . ?
C15 C13 C14 118.6(4) . . ?
C15 C13 C10 122.5(3) . . ?
C14 C13 C10 118.7(4) . . ?
C10 C9 C8 121.7(4) . . ?
C10 C9 H9 119.1 . . ?
C8 C9 H9 119.1 . . ?
C13 C14 C13 122.9(5) . 12_655 ?
C13 C14 H14 118.5 . . ?
C13 C14 H14 118.5 12_655 . ?
N1 C1 C2 125.1(4) . . ?
N1 C1 H1 117.5 . . ?
C2 C1 H1 117.5 . . ?
C5 C4 C3 120.9(5) . . ?
C5 C4 H4 119.6 . . ?
C3 C4 H4 119.6 . . ?
C1 C2 C3 120.3(4) . . ?
C1 C2 H2 119.9 . . ?
C3 C2 H2 119.9 . . ?
C4 C5 N1 125.8(5) . . ?
C4 C5 H5 117.1 . . ?
N1 C5 H5 117.1 . . ?

_refine_diff_density_max         2.815
_refine_diff_density_min         -0.849
_refine_diff_density_rms         0.142

_shelx_res_file                  
;

    shelx.res created by SHELXL-2014/7

TITL ortho_a.res in Imma
CELL  0.71073  23.9886  28.0690  18.4831   90.000   90.000   90.000
ZERR    16.00   0.0103   0.0087   0.0056    0.000    0.000    0.000
LATT   2
SYMM  - X, 1/2 - Y,   Z
SYMM  - X, 1/2 + Y, - Z
SYMM    X, - Y, - Z
SFAC  C    H    N    O    ZN
UNIT  256 144 16 64 16
MERG   2
OMIT    -3.00  51.00
OMIT     7   0   1
OMIT     6   2   0
FMAP   2
PLAN   10
SIZE     0.140   0.160   0.180
ACTA
BOND   $H
L.S.  10
TEMP     0.00
WGHT    0.132400
FVAR       0.70018
ZN01  5    0.819235    0.551716    0.494496    11.00000    0.00838    0.02856 =
         0.02070   -0.00117    0.00124   -0.00032
O4    4    0.612384    0.460488    0.933916    11.00000    0.01781    0.04242 =
         0.02737   -0.00333   -0.01014    0.00335
O3    4    0.629679    0.537614    0.915712    11.00000    0.02222    0.04395 =
         0.02630    0.00237   -0.00997   -0.00556
O1    4    0.752356    0.542271    0.558140    11.00000    0.01912    0.04784 =
         0.02456   -0.00532    0.00769   -0.00186
O2    4    0.769299    0.466738    0.592616    11.00000    0.02013    0.04540 =
         0.02881    0.00723    0.00933    0.00948
N1    3    0.819383    0.623325    0.490467    11.00000    0.01066    0.03191 =
         0.02903    0.00376    0.0028