####################################################################### 
# 
# This file contains crystal structure data downloaded from the 
# Cambridge Structural Database (CSD) hosted by the Cambridge 
# Crystallographic Data Centre (CCDC).
# 
# Full information about CCDC data access policies and citation 
# guidelines are available at http://www.ccdc.cam.ac.uk/access/V1 
# 
# Audit and citation data items may have been added by the CCDC. 
# Please retain this information to preserve the provenance of 
# this file and to allow appropriate attribution of the data. 
# 
#######################################################################

data_1
_audit_block_doi                 10.5517/cc14kjdm
_database_code_depnum_ccdc_archive 'CCDC 1059530'
loop_
_citation_id
_citation_doi
_citation_year
1 10.1002/chem.201502648 2015
_audit_update_record             
;
2015-08-03 deposited with the CCDC.	2024-07-11 downloaded from the CCDC.
;

_audit_creation_method           SHELXL-2014/7
_shelx_SHELXL_version_number     2014/7
_chemical_name_systematic        ?
_chemical_name_common            ?
_chemical_melting_point          ?
_chemical_formula_moiety         ?
_chemical_formula_sum            'C28 H24 N2 O10 Zn2'
_chemical_formula_weight         679.23

loop_
_atom_type_symbol
_atom_type_description
_atom_type_scat_dispersion_real
_atom_type_scat_dispersion_imag
_atom_type_scat_source
C C 0.0033 0.0016 'International Tables Vol C Tables 4.2.6.8 and 6.1.1.4'
H H 0.0000 0.0000 'International Tables Vol C Tables 4.2.6.8 and 6.1.1.4'
N N 0.0061 0.0033 'International Tables Vol C Tables 4.2.6.8 and 6.1.1.4'
O O 0.0106 0.0060 'International Tables Vol C Tables 4.2.6.8 and 6.1.1.4'
Zn Zn 0.2839 1.4301 'International Tables Vol C Tables 4.2.6.8 and 6.1.1.4'

_space_group_crystal_system      triclinic
_space_group_IT_number           2
_space_group_name_H-M_alt        'P -1'
_space_group_name_Hall           '-P 1'

_shelx_space_group_comment       
;
The symmetry employed for this shelxl refinement is uniquely defined
by the following loop, which should always be used as a source of
symmetry information in preference to the above space-group names.
They are only intended as comments.
;

loop_
_space_group_symop_operation_xyz
'x, y, z'
'-x, -y, -z'

_cell_length_a                   10.148(5)
_cell_length_b                   14.893(5)
_cell_length_c                   15.090(5)
_cell_angle_alpha                95.243(5)
_cell_angle_beta                 108.812(5)
_cell_angle_gamma                108.461(5)
_cell_volume                     1999.6(14)
_cell_formula_units_Z            2
_cell_measurement_temperature    100(2)
_cell_measurement_reflns_used    999
_cell_measurement_theta_min      2.20
_cell_measurement_theta_max      2.50

_exptl_crystal_description       block
_exptl_crystal_colour            colorless
_exptl_crystal_density_meas      ?
_exptl_crystal_density_method    ?
_exptl_crystal_density_diffrn    1.128
_exptl_crystal_F_000             692
_exptl_transmission_factor_min   ?
_exptl_transmission_factor_max   ?
_exptl_crystal_size_max          0.160
_exptl_crystal_size_mid          0.140
_exptl_crystal_size_min          0.120
_exptl_absorpt_coefficient_mu    1.242
_shelx_estimated_absorpt_T_min   0.826
_shelx_estimated_absorpt_T_max   0.865
_exptl_absorpt_correction_type   empirical
_exptl_absorpt_correction_T_min  0.6264
_exptl_absorpt_correction_T_max  0.7457
_exptl_absorpt_process_details   sadabs
_exptl_absorpt_special_details   ?
_diffrn_ambient_temperature      100(2)
_diffrn_radiation_wavelength     0.71073
_diffrn_radiation_type           MoK\a
_diffrn_source                   ?
_diffrn_measurement_device_type  'BRUKER SMART APEX'
_diffrn_measurement_method       /w-scans
_diffrn_detector_area_resol_mean ?
_diffrn_reflns_number            12020
_diffrn_reflns_av_unetI/netI     0.1581
_diffrn_reflns_av_R_equivalents  0.0657
_diffrn_reflns_limit_h_min       -12
_diffrn_reflns_limit_h_max       6
_diffrn_reflns_limit_k_min       -17
_diffrn_reflns_limit_k_max       18
_diffrn_reflns_limit_l_min       -18
_diffrn_reflns_limit_l_max       18
_diffrn_reflns_theta_min         2.202
_diffrn_reflns_theta_max         25.500
_diffrn_reflns_theta_full        25.240
_diffrn_measured_fraction_theta_max 0.989
_diffrn_measured_fraction_theta_full 0.989
_diffrn_reflns_Laue_measured_fraction_max 0.989
_diffrn_reflns_Laue_measured_fraction_full 0.989
_diffrn_reflns_point_group_measured_fraction_max 0.989
_diffrn_reflns_point_group_measured_fraction_full 0.989
_reflns_number_total             7369
_reflns_number_gt                3992
_reflns_threshold_expression     'I > 2\s(I)'
_reflns_Friedel_coverage         0.000
_reflns_Friedel_fraction_max     .
_reflns_Friedel_fraction_full    .

_reflns_special_details          
;
 Reflections were merged by SHELXL according to the crystal
 class for the calculation of statistics and refinement.
 
 _reflns_Friedel_fraction is defined as the number of unique
 Friedel pairs measured divided by the number that would be
 possible theoretically, ignoring centric projections and
 systematic absences.
;

_computing_data_collection       ?
_computing_cell_refinement       ?
_computing_data_reduction        ?
_computing_structure_solution    ?
_computing_structure_refinement  'SHELXL-2014/7 (Sheldrick, 2014)'
_computing_molecular_graphics    ?
_computing_publication_material  ?
_refine_special_details          ?
_refine_ls_structure_factor_coef Fsqd
_refine_ls_matrix_type           full
_refine_ls_weighting_scheme      calc
_refine_ls_weighting_details     
'w=1/[\s^2^(Fo^2^)+(0.1291P)^2^] where P=(Fo^2^+2Fc^2^)/3'
_atom_sites_solution_primary     ?
_atom_sites_solution_secondary   ?
_atom_sites_solution_hydrogens   geom
_refine_ls_hydrogen_treatment    constr
_refine_ls_extinction_method     none
_refine_ls_extinction_coef       .
_refine_ls_number_reflns         7369
_refine_ls_number_parameters     307
_refine_ls_number_restraints     1
_refine_ls_R_factor_all          0.1352
_refine_ls_R_factor_gt           0.0824
_refine_ls_wR_factor_ref         0.2293
_refine_ls_wR_factor_gt          0.2081
_refine_ls_goodness_of_fit_ref   0.943
_refine_ls_restrained_S_all      0.943
_refine_ls_shift/su_max          0.000
_refine_ls_shift/su_mean         0.000

loop_
_atom_site_label
_atom_site_type_symbol
_atom_site_fract_x
_atom_site_fract_y
_atom_site_fract_z
_atom_site_U_iso_or_equiv
_atom_site_adp_type
_atom_site_occupancy
_atom_site_site_symmetry_order
_atom_site_calc_flag
_atom_site_refinement_flags_posn
_atom_site_refinement_flags_adp
_atom_site_refinement_flags_occupancy
_atom_site_disorder_assembly
_atom_site_disorder_group
Zn1 Zn 0.30878(10) 0.15391(6) 0.35326(5) 0.0129(3) Uani 1 1 d . . . . .
Zn2 Zn 0.03274(10) 0.19574(6) 0.28666(5) 0.0137(3) Uani 1 1 d . . . . .
O3 O 0.0626(6) -0.0513(4) 0.7252(4) 0.0269(14) Uani 1 1 d . . . . .
O9 O 0.4780(6) 0.1095(4) 0.3850(4) 0.0253(13) Uani 1 1 d . . . . .
C2 C 0.1865(8) 0.2022(5) 0.5936(5) 0.0119(15) Uiso 1 1 d . . . . .
C12 C 0.5727(10) 0.5500(5) 0.6626(5) 0.0231(11) Uani 1 1 d . . . . .
C6 C 0.1810(8) 0.1725(5) 0.7742(5) 0.0138(16) Uani 1 1 d . . . . .
O2 O 0.3021(7) 0.1898(4) 0.4846(4) 0.0322(15) Uani 1 1 d . . . . .
O8 O 0.0446(7) 0.1634(4) 0.1578(4) 0.0338(15) Uani 1 1 d . . . . .
C5 C 0.0839(9) 0.1016(5) 0.6915(5) 0.0153(12) Uani 1 1 d . . . . .
O1 O 0.0820(7) 0.2093(4) 0.4320(3) 0.0252(14) Uani 1 1 d . . . . .
O6 O 0.1985(8) 0.3282(4) 0.3100(4) 0.0361(16) Uani 1 1 d . . . . .
O7 O 0.2558(7) 0.1339(4) 0.2091(4) 0.0334(15) Uani 1 1 d . . . . .
O10 O -0.1362(7) 0.2399(4) 0.2603(4) 0.0312(15) Uani 1 1 d . . . . .
C8 C 0.2853(9) 0.2753(5) 0.6753(4) 0.0144(12) Uani 1 1 d . . . . .
O4 O -0.1473(7) -0.0230(4) 0.6615(4) 0.0290(14) Uani 1 1 d . . . . .
C15 C 0.1741(9) 0.1602(5) 0.8684(5) 0.0160(17) Uani 1 1 d . . . . .
C18 C 0.1573(9) 0.1450(6) 1.0480(5) 0.0232(14) Uani 1 1 d . . . . .
O5 O 0.4052(7) 0.2966(4) 0.3638(4) 0.0371(16) Uani 1 1 d . . . . .
C9 C 0.3851(9) 0.3661(5) 0.6674(5) 0.0174(17) Uani 1 1 d . . . . .
C10 C 0.5321(10) 0.4120(5) 0.7366(5) 0.027(2) Uani 1 1 d . . . . .
H10 H 0.5671 0.3821 0.7857 0.032 Uiso 1 1 calc R U . . .
C13 C 0.4290(11) 0.5044(6) 0.5945(6) 0.031(2) Uani 1 1 d . . . . .
H13 H 0.3937 0.5358 0.5468 0.037 Uiso 1 1 calc R U . . .
C17 C 0.0326(9) 0.1301(6) 0.9694(5) 0.0232(14) Uani 1 1 d . . . . .
H17 H -0.0587 0.1174 0.9767 0.028 Uiso 1 1 calc R U . . .
C20 C 0.3023(10) 0.1760(6) 0.9471(5) 0.030(2) Uani 1 1 d . . . . .
H20 H 0.3943 0.1924 0.9401 0.036 Uiso 1 1 calc R U . . .
C3 C 0.0854(9) 0.1178(5) 0.6020(5) 0.0145(16) Uani 1 1 d . . . . .
H3 H 0.0178 0.0713 0.5470 0.017 Uiso 1 1 calc R U . . .
C1 C 0.1920(9) 0.2021(5) 0.4943(5) 0.0177(18) Uani 1 1 d . . . . .
C7 C 0.2767(9) 0.2567(5) 0.7631(5) 0.0144(12) Uani 1 1 d . . . . .
H7 H 0.3400 0.3045 0.8179 0.017 Uiso 1 1 calc R U . . .
C16 C 0.0377(10) 0.1332(6) 0.8801(5) 0.027(2) Uani 1 1 d . . . . .
H16 H -0.0505 0.1172 0.8272 0.032 Uiso 1 1 calc R U . . .
C11 C 0.6233(10) 0.5004(6) 0.7318(6) 0.028(2) Uani 1 1 d . . . . .
H11 H 0.7213 0.5278 0.7758 0.033 Uiso 1 1 calc R U . . .
C21 C 0.3347(11) 0.3505(5) 0.3378(5) 0.0231(11) Uani 1 1 d . . . . .
C14 C 0.3355(11) 0.4125(6) 0.5954(6) 0.032(2) Uani 1 1 d . . . . .
H14 H 0.2405 0.3828 0.5479 0.039 Uiso 1 1 calc R U . . .
C19 C 0.2947(10) 0.1676(6) 1.0362(5) 0.027(2) Uani 1 1 d . . . . .
H19 H 0.3811 0.1769 1.0883 0.033 Uiso 1 1 calc R U . . .
C4 C -0.0073(9) 0.0020(5) 0.6945(5) 0.0153(12) Uani 1 1 d . . . . .
C22 C 0.1548(10) 0.1473(5) 0.1452(5) 0.0222(19) Uani 1 1 d . . . . .
N2 N -0.213(3) 0.3702(18) 0.2601(15) 0.211(9) Uiso 1 1 d D . . . .
C25 C 0.7097(11) 0.0400(7) 0.4278(6) 0.047(3) Uani 1 1 d . . . . .
H25A H 0.7647 -0.0023 0.4314 0.070 Uiso 1 1 calc R U . . .
H25B H 0.7596 0.0979 0.4104 0.070 Uiso 1 1 calc R U . . .
H25C H 0.7038 0.0566 0.4891 0.070 Uiso 1 1 calc R U . . .
C23 C 0.4618(16) 0.0336(9) 0.3373(9) 0.076(4) Uiso 1 1 d . . . . .
H23 H 0.3739 0.0033 0.2839 0.092 Uiso 1 1 calc R U . . .
N1 N 0.5610(13) -0.0083(8) 0.3568(8) 0.082(3) Uiso 1 1 d . . . . .
C24 C 0.547(3) -0.094(2) 0.290(2) 0.274(15) Uiso 1 1 d . . . . .
H24A H 0.6308 -0.1135 0.3172 0.411 Uiso 1 1 calc R U . . .
H24B H 0.4559 -0.1467 0.2792 0.411 Uiso 1 1 calc R U . . .
H24C H 0.5467 -0.0773 0.2297 0.411 Uiso 1 1 calc R U . . .
C28 C -0.146(5) 0.479(2) 0.289(3) 0.42(3) Uiso 1 1 d D . . . .
H28A H -0.2252 0.5039 0.2755 0.623 Uiso 1 1 calc R U . . .
H28B H -0.0868 0.4982 0.3563 0.623 Uiso 1 1 calc R U . . .
H28C H -0.0845 0.5036 0.2535 0.623 Uiso 1 1 calc R U . . .
C26 C -0.0947(17) 0.3335(10) 0.2804(9) 0.076(4) Uiso 1 1 d . . . . .
H26 H 0.0056 0.3741 0.3063 0.092 Uiso 1 1 calc R U . . .
C27 C -0.3410 0.3022 0.2824 0.258(15) Uiso 1 1 d . . . . .
H27A H -0.4212 0.3262 0.2690 0.387 Uiso 1 1 calc R U . . .
H27B H -0.3764 0.2385 0.2433 0.387 Uiso 1 1 calc R U . . .
H27C H -0.3058 0.2993 0.3488 0.387 Uiso 1 1 calc R U . . .

loop_
_atom_site_aniso_label
_atom_site_aniso_U_11
_atom_site_aniso_U_22
_atom_site_aniso_U_33
_atom_site_aniso_U_23
_atom_site_aniso_U_13
_atom_site_aniso_U_12
Zn1 0.0189(6) 0.0112(4) 0.0081(4) 0.0057(3) 0.0072(4) 0.0016(4)
Zn2 0.0188(6) 0.0103(4) 0.0098(4) 0.0062(3) 0.0059(4) 0.0008(4)
O3 0.025(4) 0.010(3) 0.036(3) 0.004(2) 0.009(3) -0.004(3)
O9 0.015(3) 0.022(3) 0.028(3) -0.005(2) 0.000(3) 0.003(3)
C12 0.036(3) 0.015 0.023 0.016 0.014 0.010
C6 0.020(5) 0.008(3) 0.012(3) 0.003(3) 0.009(3) 0.000(3)
O2 0.044(4) 0.043(4) 0.014(3) 0.005(2) 0.018(3) 0.014(3)
O8 0.039(4) 0.044(4) 0.017(3) 0.008(3) 0.010(3) 0.013(3)
C5 0.019(3) 0.013(3) 0.009(2) 0.002(2) 0.005(2) 0.000(2)
O1 0.036(4) 0.025(3) 0.012(3) 0.000(2) 0.009(3) 0.010(3)
O6 0.047(5) 0.016(3) 0.053(4) 0.016(3) 0.032(4) 0.006(3)
O7 0.051(5) 0.046(4) 0.016(3) 0.020(3) 0.018(3) 0.025(4)
O10 0.040(4) 0.037(3) 0.025(3) 0.011(3) 0.015(3) 0.021(3)
C8 0.025(3) 0.007(2) 0.007(2) 0.0000(19) 0.006(2) 0.000(2)
O4 0.025(4) 0.023(3) 0.028(3) 0.011(2) 0.002(3) 0.002(3)
C15 0.020(5) 0.009(4) 0.011(4) -0.001(3) 0.004(3) -0.003(3)
C18 0.025(4) 0.035(3) 0.011(3) 0.010(2) 0.012(2) 0.005(3)
O5 0.039(4) 0.015(3) 0.037(3) 0.011(3) 0.003(3) -0.005(3)
C9 0.022(5) 0.016(4) 0.015(4) -0.006(3) 0.008(3) 0.010(4)
C10 0.031(6) 0.015(4) 0.025(4) 0.014(3) 0.008(4) -0.003(4)
C13 0.048(7) 0.017(4) 0.024(4) 0.016(3) 0.013(4) 0.005(4)
C17 0.025(4) 0.035(3) 0.011(3) 0.010(2) 0.012(2) 0.005(3)
C20 0.027(5) 0.052(6) 0.016(4) 0.015(4) 0.014(4) 0.012(5)
C3 0.021(5) 0.007(3) 0.005(3) 0.000(3) 0.003(3) -0.006(3)
C1 0.026(5) 0.006(3) 0.013(4) -0.003(3) 0.005(4) -0.002(4)
C7 0.025(3) 0.007(2) 0.007(2) 0.0000(19) 0.006(2) 0.000(2)
C16 0.023(5) 0.031(5) 0.017(4) 0.011(3) 0.003(4) 0.000(4)
C11 0.019(5) 0.028(5) 0.025(4) 0.004(4) 0.003(4) -0.002(4)
C21 0.036(3) 0.015 0.023 0.016 0.014 0.010
C14 0.036(6) 0.026(5) 0.021(4) 0.014(4) 0.003(4) -0.002(4)
C19 0.027(5) 0.037(5) 0.007(3) 0.003(3) -0.005(4) 0.011(4)
C4 0.019(3) 0.013(3) 0.009(2) 0.002(2) 0.005(2) 0.000(2)
C22 0.031(6) 0.020(4) 0.014(4) 0.010(3) 0.011(4) 0.001(4)
C25 0.032(6) 0.058(7) 0.041(6) 0.000(5) -0.008(5) 0.030(6)

_geom_special_details            
;
 All esds (except the esd in the dihedral angle between two l.s. planes)
 are estimated using the full covariance matrix.  The cell esds are taken
 into account individually in the estimation of esds in distances, angles
 and torsion angles; correlations between esds in cell parameters are only
 used when they are defined by crystal symmetry.  An approximate (isotropic)
 treatment of cell esds is used for estimating esds involving l.s. planes.
;

loop_
_geom_bond_atom_site_label_1
_geom_bond_atom_site_label_2
_geom_bond_distance
_geom_bond_site_symmetry_2
_geom_bond_publ_flag
Zn1 O9 1.966(5) . ?
Zn1 O5 2.005(5) . ?
Zn1 O2 2.033(5) . ?
Zn1 O7 2.034(5) . ?
Zn1 O4 2.049(6) 2_556 ?
Zn1 Zn2 2.9410(18) . ?
Zn2 O10 1.962(6) . ?
Zn2 O8 2.011(5) . ?
Zn2 O3 2.024(5) 2_556 ?
Zn2 O6 2.058(6) . ?
Zn2 O1 2.061(5) . ?
O3 C4 1.248(9) . ?
O3 Zn2 2.024(5) 2_556 ?
O9 C23 1.216(12) . ?
C2 C3 1.395(10) . ?
C2 C8 1.406(9) . ?
C2 C1 1.516(9) . ?
C12 C13 1.386(12) . ?
C12 C11 1.391(11) . ?
C12 C21 1.484(11) 2_666 ?
C6 C7 1.383(10) . ?
C6 C5 1.396(9) . ?
C6 C15 1.471(9) . ?
O2 C1 1.238(10) . ?
O8 C22 1.282(10) . ?
C5 C3 1.398(9) . ?
C5 C4 1.493(10) . ?
O1 C1 1.249(9) . ?
O6 C21 1.228(10) . ?
O7 C22 1.245(9) . ?
O10 C26 1.297(13) . ?
C8 C7 1.402(9) . ?
C8 C9 1.452(10) . ?
O4 C4 1.257(9) . ?
O4 Zn1 2.049(6) 2_556 ?
C15 C20 1.385(10) . ?
C15 C16 1.389(11) . ?
C18 C17 1.365(11) . ?
C18 C19 1.402(12) . ?
C18 C22 1.472(9) 1_556 ?
O5 C21 1.245(9) . ?
C9 C14 1.383(10) . ?
C9 C10 1.415(11) . ?
C10 C11 1.372(11) . ?
C10 H10 0.9300 . ?
C13 C14 1.402(11) . ?
C13 H13 0.9300 . ?
C17 C16 1.368(10) . ?
C17 H17 0.9300 . ?
C20 C19 1.386(10) . ?
C20 H20 0.9300 . ?
C3 H3 0.9300 . ?
C7 H7 0.9300 . ?
C16 H16 0.9300 . ?
C11 H11 0.9300 . ?
C21 C12 1.484(11) 2_666 ?
C14 H14 0.9300 . ?
C19 H19 0.9300 . ?
C22 C18 1.472(9) 1_554 ?
N2 C26 1.43(2) . ?
N2 C28 1.500(18) . ?
N2 C27 1.53(2) . ?
C25 N1 1.439(13) . ?
C25 H25A 0.9600 . ?
C25 H25B 0.9600 . ?
C25 H25C 0.9600 . ?
C23 N1 1.315(15) . ?
C23 H23 0.9300 . ?
N1 C24 1.50(3) . ?
C24 H24A 0.9600 . ?
C24 H24B 0.9600 . ?
C24 H24C 0.9600 . ?
C28 H28A 0.9600 . ?
C28 H28B 0.9600 . ?
C28 H28C 0.9600 . ?
C26 H26 0.9300 . ?
C27 H27A 0.9600 . ?
C27 H27B 0.9600 . ?
C27 H27C 0.9600 . ?

loop_
_geom_angle_atom_site_label_1
_geom_angle_atom_site_label_2
_geom_angle_atom_site_label_3
_geom_angle
_geom_angle_site_symmetry_1
_geom_angle_site_symmetry_3
_geom_angle_publ_flag
O9 Zn1 O5 103.5(3) . . ?
O9 Zn1 O2 101.8(2) . . ?
O5 Zn1 O2 86.5(2) . . ?
O9 Zn1 O7 97.9(2) . . ?
O5 Zn1 O7 88.7(2) . . ?
O2 Zn1 O7 160.3(3) . . ?
O9 Zn1 O4 96.6(2) . 2_556 ?
O5 Zn1 O4 159.6(3) . 2_556 ?
O2 Zn1 O4 86.3(2) . 2_556 ?
O7 Zn1 O4 91.7(2) . 2_556 ?
O9 Zn1 Zn2 172.31(15) . . ?
O5 Zn1 Zn2 82.59(19) . . ?
O2 Zn1 Zn2 83.03(18) . . ?
O7 Zn1 Zn2 77.40(18) . . ?
O4 Zn1 Zn2 77.59(17) 2_556 . ?
O10 Zn2 O8 104.6(2) . . ?
O10 Zn2 O3 103.7(2) . 2_556 ?
O8 Zn2 O3 87.0(2) . 2_556 ?
O10 Zn2 O6 97.8(3) . . ?
O8 Zn2 O6 87.8(2) . . ?
O3 Zn2 O6 158.5(2) 2_556 . ?
O10 Zn2 O1 96.2(2) . . ?
O8 Zn2 O1 159.1(2) . . ?
O3 Zn2 O1 86.7(2) 2_556 . ?
O6 Zn2 O1 90.7(2) . . ?
O10 Zn2 Zn1 171.05(16) . . ?
O8 Zn2 Zn1 82.38(18) . . ?
O3 Zn2 Zn1 81.97(17) 2_556 . ?
O6 Zn2 Zn1 76.68(18) . . ?
O1 Zn2 Zn1 77.02(16) . . ?
C4 O3 Zn2 124.8(5) . 2_556 ?
C23 O9 Zn1 118.2(7) . . ?
C3 C2 C8 120.4(6) . . ?
C3 C2 C1 115.0(6) . . ?
C8 C2 C1 124.3(6) . . ?
C13 C12 C11 117.7(8) . . ?
C13 C12 C21 120.2(7) . 2_666 ?
C11 C12 C21 122.1(8) . 2_666 ?
C7 C6 C5 117.5(6) . . ?
C7 C6 C15 121.6(6) . . ?
C5 C6 C15 120.8(6) . . ?
C1 O2 Zn1 122.0(5) . . ?
C22 O8 Zn2 124.4(5) . . ?
C6 C5 C3 119.8(7) . . ?
C6 C5 C4 122.7(6) . . ?
C3 C5 C4 116.8(6) . . ?
C1 O1 Zn2 128.7(5) . . ?
C21 O6 Zn2 129.8(5) . . ?
C22 O7 Zn1 130.8(5) . . ?
C26 O10 Zn2 113.1(8) . . ?
C7 C8 C2 116.1(6) . . ?
C7 C8 C9 122.6(6) . . ?
C2 C8 C9 121.2(6) . . ?
C4 O4 Zn1 