####################################################################### 
# 
# This file contains crystal structure data downloaded from the 
# Cambridge Structural Database (CSD) hosted by the Cambridge 
# Crystallographic Data Centre (CCDC).
# 
# Full information about CCDC data access policies and citation 
# guidelines are available at http://www.ccdc.cam.ac.uk/access/V1 
# 
# Audit and citation data items may have been added by the CCDC. 
# Please retain this information to preserve the provenance of 
# this file and to allow appropriate attribution of the data. 
# 
#######################################################################

data_5Cu(MeCN)
_audit_block_doi                 10.5517/cc14kjpx
_database_code_depnum_ccdc_archive 'CCDC 1059539'
loop_
_citation_id
_citation_doi
_citation_year
1 10.1002/chem.201502648 2015
_audit_update_record             
;
2015-08-03 deposited with the CCDC.	2024-07-11 downloaded from the CCDC.
;

_audit_creation_method           SHELXL-2014/7
_shelx_SHELXL_version_number     2014/7
_chemical_name_systematic        ?
_chemical_name_common            ?
_chemical_melting_point          ?
_chemical_formula_moiety         'C16 H9 Cu N O4'
_chemical_formula_sum            'C16 H9 Cu N O4'
_chemical_formula_weight         342.78

loop_
_atom_type_symbol
_atom_type_description
_atom_type_scat_dispersion_real
_atom_type_scat_dispersion_imag
_atom_type_scat_source
C C 0.0033 0.0016 'International Tables Vol C Tables 4.2.6.8 and 6.1.1.4'
H H 0.0000 0.0000 'International Tables Vol C Tables 4.2.6.8 and 6.1.1.4'
N N 0.0061 0.0033 'International Tables Vol C Tables 4.2.6.8 and 6.1.1.4'
O O 0.0106 0.0060 'International Tables Vol C Tables 4.2.6.8 and 6.1.1.4'
Cu Cu 0.3201 1.2651 'International Tables Vol C Tables 4.2.6.8 and 6.1.1.4'

_space_group_crystal_system      orthorhombic
_space_group_IT_number           74
_space_group_name_H-M_alt        'I m m a'
_space_group_name_Hall           '-I 2b 2'

_shelx_space_group_comment       
;
The symmetry employed for this shelxl refinement is uniquely defined
by the following loop, which should always be used as a source of
symmetry information in preference to the above space-group names.
They are only intended as comments.
;

loop_
_space_group_symop_operation_xyz
'x, y, z'
'-x, -y+1/2, z'
'-x, y+1/2, -z'
'x, -y, -z'
'x+1/2, y+1/2, z+1/2'
'-x+1/2, -y+1, z+1/2'
'-x+1/2, y+1, -z+1/2'
'x+1/2, -y+1/2, -z+1/2'
'-x, -y, -z'
'x, y-1/2, -z'
'x, -y-1/2, z'
'-x, y, z'
'-x+1/2, -y+1/2, -z+1/2'
'x+1/2, y, -z+1/2'
'x+1/2, -y, z+1/2'
'-x+1/2, y+1/2, z+1/2'

_cell_length_a                   24.133(2)
_cell_length_b                   27.911(3)
_cell_length_c                   17.9404(18)
_cell_angle_alpha                90
_cell_angle_beta                 90
_cell_angle_gamma                90
_cell_volume                     12084(2)
_cell_formula_units_Z            16
_cell_measurement_temperature    100(2)
_cell_measurement_reflns_used    999
_cell_measurement_theta_min      2.03
_cell_measurement_theta_max      25.00

_exptl_crystal_description       block
_exptl_crystal_colour            green
_exptl_crystal_density_meas      ?
_exptl_crystal_density_method    ?
_exptl_crystal_density_diffrn    0.754
_exptl_crystal_F_000             2768
_exptl_transmission_factor_min   0.6383
_exptl_transmission_factor_max   0.7452
_exptl_crystal_size_max          0.18
_exptl_crystal_size_mid          0.16
_exptl_crystal_size_min          0.14
_exptl_absorpt_coefficient_mu    0.731
_shelx_estimated_absorpt_T_min   ?
_shelx_estimated_absorpt_T_max   ?
_exptl_absorpt_correction_type   empirical
_exptl_absorpt_correction_T_min  ?
_exptl_absorpt_correction_T_max  ?
_exptl_absorpt_process_details   sadabs
_exptl_absorpt_special_details   ?
_diffrn_ambient_temperature      100(2)
_diffrn_radiation_wavelength     0.71073
_diffrn_radiation_type           MoK\a
_diffrn_source                   ?
_diffrn_measurement_device_type  'BRUKER SMART APEX'
_diffrn_measurement_method       /w-scans
_diffrn_detector_area_resol_mean ?
_diffrn_reflns_number            47920
_diffrn_reflns_av_unetI/netI     0.0617
_diffrn_reflns_av_R_equivalents  0.0836
_diffrn_reflns_limit_h_min       -28
_diffrn_reflns_limit_h_max       28
_diffrn_reflns_limit_k_min       -33
_diffrn_reflns_limit_k_max       33
_diffrn_reflns_limit_l_min       -21
_diffrn_reflns_limit_l_max       21
_diffrn_reflns_theta_min         2.032
_diffrn_reflns_theta_max         24.997
_diffrn_reflns_theta_full        24.997
_diffrn_measured_fraction_theta_max 0.999
_diffrn_measured_fraction_theta_full 0.999
_diffrn_reflns_Laue_measured_fraction_max 0.999
_diffrn_reflns_Laue_measured_fraction_full 0.999
_diffrn_reflns_point_group_measured_fraction_max 0.999
_diffrn_reflns_point_group_measured_fraction_full 0.999
_reflns_number_total             5590
_reflns_number_gt                2918
_reflns_threshold_expression     'I > 2\s(I)'
_reflns_Friedel_coverage         0.000
_reflns_Friedel_fraction_max     .
_reflns_Friedel_fraction_full    .

_reflns_special_details          
;
 Reflections were merged by SHELXL according to the crystal
 class for the calculation of statistics and refinement.
 
 _reflns_Friedel_fraction is defined as the number of unique
 Friedel pairs measured divided by the number that would be
 possible theoretically, ignoring centric projections and
 systematic absences.
;

_computing_data_collection       ?
_computing_cell_refinement       ?
_computing_data_reduction        ?
_computing_structure_solution    ?
_computing_structure_refinement  'SHELXL-2014/7 (Sheldrick, 2014)'
_computing_molecular_graphics    ?
_computing_publication_material  ?
_refine_special_details          ?
_refine_ls_structure_factor_coef Fsqd
_refine_ls_matrix_type           full
_refine_ls_weighting_scheme      calc
_refine_ls_weighting_details     
'w=1/[\s^2^(Fo^2^)+(0.1631P)^2^] where P=(Fo^2^+2Fc^2^)/3'
_atom_sites_solution_primary     ?
_atom_sites_solution_secondary   ?
_atom_sites_solution_hydrogens   geom
_refine_ls_hydrogen_treatment    constr
_refine_ls_extinction_method     none
_refine_ls_extinction_coef       .
_refine_ls_number_reflns         5590
_refine_ls_number_parameters     201
_refine_ls_number_restraints     0
_refine_ls_R_factor_all          0.1450
_refine_ls_R_factor_gt           0.0855
_refine_ls_wR_factor_ref         0.2669
_refine_ls_wR_factor_gt          0.2348
_refine_ls_goodness_of_fit_ref   0.998
_refine_ls_restrained_S_all      0.998
_refine_ls_shift/su_max          0.001
_refine_ls_shift/su_mean         0.000

loop_
_atom_site_label
_atom_site_type_symbol
_atom_site_fract_x
_atom_site_fract_y
_atom_site_fract_z
_atom_site_U_iso_or_equiv
_atom_site_adp_type
_atom_site_occupancy
_atom_site_site_symmetry_order
_atom_site_calc_flag
_atom_site_refinement_flags_posn
_atom_site_refinement_flags_adp
_atom_site_refinement_flags_occupancy
_atom_site_disorder_assembly
_atom_site_disorder_group
Cu Cu 0.82234(2) 0.45255(2) 0.50263(3) 0.0198(3) Uani 1 1 d . . . . .
O1 O 0.76057(16) 0.45708(14) 0.4335(2) 0.0491(10) Uani 1 1 d . . . . .
O4 O 0.61514(15) 0.54010(15) 0.0716(2) 0.0482(12) Uani 1 1 d . . . . .
O3 O 0.62402(15) 0.46078(15) 0.0794(2) 0.0523(13) Uani 1 1 d . . . . .
C16 C 0.55031(18) 0.49892(18) 0.1433(3) 0.0250(12) Uani 1 1 d . . . . .
O2 O 0.76911(17) 0.53517(15) 0.4148(2) 0.0563(14) Uani 1 1 d . . . . .
C17 C 0.60216(18) 0.5003(2) 0.0957(3) 0.0264(12) Uani 1 1 d . . . . .
N1 N 0.82302(15) 0.37604(19) 0.5054(2) 0.0367(13) Uani 1 1 d . . . . .
C15 C 0.5000 0.5025(3) 0.1064(4) 0.048(3) Uani 1 2 d S T P . .
H4 H 0.5000 0.5074 0.0552 0.058 Uiso 1 2 calc R U P . .
C6 C 0.74717(19) 0.4957(2) 0.4039(2) 0.0241(12) Uani 1 1 d . . . . .
C3 C 0.8242(2) 0.2768(2) 0.5101(3) 0.0376(15) Uani 1 1 d . . . . .
C7 C 0.6978(2) 0.4950(2) 0.3524(3) 0.0346(15) Uani 1 1 d . . . . .
C13 C 0.5505(2) 0.4937(2) 0.2204(3) 0.0422(17) Uani 1 1 d . . . . .
C10 C 0.6027(2) 0.4932(3) 0.2636(3) 0.054(2) Uani 1 1 d . . . . .
C14 C 0.5000 0.4893(4) 0.2555(5) 0.079(4) Uani 1 2 d S T P . .
H00F H 0.5000 0.4828 0.3064 0.095 Uiso 1 2 calc R U P . .
C12 C 0.6856(2) 0.5279(3) 0.3032(4) 0.063(2) Uani 1 1 d . . . . .
H00G H 0.7090 0.5542 0.2991 0.075 Uiso 1 1 calc R U . . .
C9 C 0.6140(3) 0.4514(3) 0.3146(4) 0.076(3) Uani 1 1 d . . . . .
H00H H 0.5904 0.4252 0.3185 0.091 Uiso 1 1 calc R U . . .
C8 C 0.6630(3) 0.4555(3) 0.3554(5) 0.104(4) Uani 1 1 d . . . . .
H00I H 0.6729 0.4302 0.3865 0.125 Uiso 1 1 calc R U . . .
C1 C 0.8639(4) 0.3512(3) 0.5231(7) 0.141(5) Uani 1 1 d . . . . .
H00J H 0.8965 0.3676 0.5335 0.169 Uiso 1 1 calc R U . . .
C2 C 0.8660(4) 0.3029(3) 0.5287(6) 0.128(4) Uani 1 1 d . . . . .
H00K H 0.8981 0.2883 0.5463 0.153 Uiso 1 1 calc R U . . .
C11 C 0.6400(3) 0.5257(4) 0.2571(4) 0.094(3) Uani 1 1 d . . . . .
H00L H 0.6362 0.5487 0.2199 0.113 Uiso 1 1 calc R U . . .
C5 C 0.7817(4) 0.3516(3) 0.4850(7) 0.183(7) Uani 1 1 d . . . . .
H00M H 0.7509 0.3684 0.4679 0.220 Uiso 1 1 calc R U . . .
C4 C 0.7781(4) 0.3015(3) 0.4857(7) 0.205(9) Uani 1 1 d . . . . .
H00N H 0.7461 0.2856 0.4705 0.246 Uiso 1 1 calc R U . . .

loop_
_atom_site_aniso_label
_atom_site_aniso_U_11
_atom_site_aniso_U_22
_atom_site_aniso_U_33
_atom_site_aniso_U_23
_atom_site_aniso_U_13
_atom_site_aniso_U_12
Cu 0.0077(4) 0.0315(4) 0.0203(4) -0.0030(3) -0.0019(2) 0.0005(2)
O1 0.050 0.051(3) 0.047(3) -0.013(2) -0.0430(19) 0.019(2)
O4 0.032(2) 0.049(3) 0.064(3) -0.032(2) 0.040(2) -0.032(2)
O3 0.031(2) 0.062(3) 0.064(3) 0.026(2) 0.036(2) 0.019(2)
C16 0.008(2) 0.047(3) 0.019(3) -0.005(3) -0.0012(19) -0.005(2)
O2 0.049(3) 0.058(3) 0.062(3) 0.041(2) -0.043(2) -0.021(2)
C17 0.014(3) 0.051(4) 0.014(3) -0.016(3) -0.006(2) -0.006(3)
N1 0.007(2) 0.034(2) 0.069(4) 0.021(2) -0.013(2) 0.0015(18)
C15 0.015(4) 0.114(9) 0.016(4) 0.022(5) 0.000 0.000
C6 0.015(2) 0.049(4) 0.009(2) 0.002(3) -0.0003(19) -0.006(3)
C3 0.028(3) 0.026(3) 0.059(4) 0.010(3) -0.013(3) -0.002(2)
C7 0.009(2) 0.076(5) 0.018(3) 0.018(3) -0.001(2) -0.008(3)
C13 0.017(3) 0.088(5) 0.022(3) 0.009(3) 0.001(2) 0.006(3)
C10 0.010(3) 0.143(7) 0.008(3) 0.000(3) -0.004(2) -0.015(4)
C14 0.009(4) 0.213(13) 0.016(4) 0.045(6) 0.000 0.000
C12 0.029(4) 0.102(6) 0.057(5) 0.015(5) -0.011(3) -0.020(4)
C9 0.047(4) 0.139(8) 0.042(4) 0.015(5) -0.026(3) -0.012(4)
C8 0.077(6) 0.088(7) 0.147(9) -0.033(6) -0.094(6) 0.029(5)
C1 0.070(6) 0.038(5) 0.315(15) -0.026(7) -0.068(8) -0.013(5)
C2 0.055(5) 0.032(4) 0.297(13) 0.036(6) -0.075(7) 0.001(4)
C11 0.044(5) 0.213(9) 0.024(4) 0.023(5) -0.007(3) -0.022(6)
C5 0.062(6) 0.033(5) 0.46(2) 0.017(8) -0.103(9) -0.002(4)
C4 0.057(6) 0.032(5) 0.53(3) -0.010(9) -0.041(10) 0.008(4)

_geom_special_details            
;
 All esds (except the esd in the dihedral angle between two l.s. planes)
 are estimated using the full covariance matrix.  The cell esds are taken
 into account individually in the estimation of esds in distances, angles
 and torsion angles; correlations between esds in cell parameters are only
 used when they are defined by crystal symmetry.  An approximate (isotropic)
 treatment of cell esds is used for estimating esds involving l.s. planes.
;

loop_
_geom_bond_atom_site_label_1
_geom_bond_atom_site_label_2
_geom_bond_distance
_geom_bond_site_symmetry_2
_geom_bond_publ_flag
Cu O1 1.943(3) . ?
Cu O4 1.962(3) 6_655 ?
Cu O3 1.973(4) 7_645 ?
Cu O2 1.991(4) 4_566 ?
Cu N1 2.136(5) . ?
Cu Cu 2.6507(12) 4_566 ?
O1 C6 1.244(6) . ?
O4 C17 1.232(6) . ?
O4 Cu 1.962(3) 6_654 ?
O3 C17 1.258(6) . ?
O3 Cu 1.973(4) 7_645 ?
C16 C15 1.386(6) . ?
C16 C13 1.391(7) . ?
C16 C17 1.516(6) . ?
O2 C6 1.237(6) . ?
O2 Cu 1.991(4) 4_566 ?
N1 C1 1.248(9) . ?
N1 C5 1.262(9) . ?
C15 C16 1.386(6) 12_655 ?
C15 H4 0.9300 . ?
C6 C7 1.509(6) . ?
C3 C2 1.287(9) . ?
C3 C4 1.381(11) . ?
C3 C3 1.498(12) 11_565 ?
C7 C12 1.307(8) . ?
C7 C8 1.387(9) . ?
C13 C14 1.378(6) . ?
C13 C10 1.480(7) . ?
C10 C11 1.284(9) . ?
C10 C9 1.508(9) . ?
C14 C13 1.378(6) 12_655 ?
C14 H00F 0.9300 . ?
C12 C11 1.376(8) . ?
C12 H00G 0.9300 . ?
C9 C8 1.395(8) . ?
C9 H00H 0.9300 . ?
C8 H00I 0.9300 . ?
C1 C2 1.351(10) . ?
C1 H00J 0.9300 . ?
C2 H00K 0.9300 . ?
C11 H00L 0.9300 . ?
C5 C4 1.402(11) . ?
C5 H00M 0.9300 . ?
C4 H00N 0.9300 . ?

loop_
_geom_angle_atom_site_label_1
_geom_angle_atom_site_label_2
_geom_angle_atom_site_label_3
_geom_angle
_geom_angle_site_symmetry_1
_geom_angle_site_symmetry_3
_geom_angle_publ_flag
O1 Cu O4 170.25(18) . 6_655 ?
O1 Cu O3 91.2(2) . 7_645 ?
O4 Cu O3 87.3(2) 6_655 7_645 ?
O1 Cu O2 88.21(19) . 4_566 ?
O4 Cu O2 90.5(2) 6_655 4_566 ?
O3 Cu O2 163.39(18) 7_645 4_566 ?
O1 Cu N1 94.92(16) . . ?
O4 Cu N1 94.83(16) 6_655 . ?
O3 Cu N1 97.38(17) 7_645 . ?
O2 Cu N1 99.21(16) 4_566 . ?
O1 Cu Cu 84.96(12) . 4_566 ?
O4 Cu Cu 85.29(12) 6_655 4_566 ?
O3 Cu Cu 81.78(12) 7_645 4_566 ?
O2 Cu Cu 81.63(12) 4_566 4_566 ?
N1 Cu Cu 179.15(12) . 4_566 ?
C6 O1 Cu 121.9(3) . . ?
C17 O4 Cu 120.7(3) . 6_654 ?
C17 O3 Cu 123.4(3) . 7_645 ?
C15 C16 C13 119.0(5) . . ?
C15 C16 C17 116.9(4) . . ?
C13 C16 C17 124.1(4) . . ?
C6 O2 Cu 123.1(3) . 4_566 ?
O4 C17 O3 127.1(5) . . ?
O4 C17 C16 115.5(5) . . ?
O3 C17 C16 117.0(5) . . ?
C1 N1 C5 113.5(7) . . ?
C1 N1 Cu 124.6(4) . . ?
C5 N1 Cu 121.8(5) . . ?
C16 C15 C16 122.3(7) 12_655 . ?
C16 C15 H4 118.8 12_655 . ?
C16 C15 H4 118.8 . . ?
O2 C6 O1 126.4(5) . . ?
O2 C6 C7 116.5(5) . . ?
O1 C6 C7 117.1(5) . . ?
C2 C3 C4 115.6(7) . . ?
C2 C3 C3 124.4(4) . 11_565 ?
C4 C3 C3 119.9(5) . 11_565 ?
C12 C7 C8 116.6(6) . . ?
C12 C7 C6 125.6(6) . . ?
C8 C7 C6 117.7(5) . . ?
C14 C13 C16 117.5(5) . . ?
C14 C13 C10 120.9(5) . . ?
C16 C13 C10 121.6(5) . . ?
C11 C10 C13 122.9(7) . . ?
C11 C10 C9 118.5(6) . . ?
C13 C10 C9 118.6(6) . . ?
C13 C14 C13 124.4(7) 12_655 . ?
C13 C14 H00F 117.8 12_655 . ?
C13 C14 H00F 117.8 . . ?
C7 C12 C11 123.7(7) . . ?
C7 C12 H00G 118.1 . . ?
C11 C12 H00G 118.1 . . ?
C8 C9 C10 114.0(7) . . ?
C8 C9 H00H 123.0 . . ?
C10 C9 H00H 123.0 . . ?
C7 C8 C9 123.9(7) . . ?
C7 C8 H00I 118.0 . . ?
C9 C8 H00I 118.0 . . ?
N1 C1 C2 127.1(7) . . ?
N1 C1 H00J 116.4 . . ?
C2 C1 H00J 116.4 . . ?
C3 C2 C1 121.0(7) . . ?
C3 C2 H00K 119.5 . . ?
C1 C2 H00K 119.5 . . ?
C10 C11 C12 122.4(8) . . ?
C10 C11 H00L 118.8 . . ?
C12 C11 H00L 118.8 . . ?
N1 C5 C4 125.9(8) . . ?
N1 C5 H00M 117.1 . . ?
C4 C5 H00M 117.1 . . ?
C3 C4 C5 116.7(8) . . ?
C3 C4 H00N 121.6 . . ?
C5 C4 H00N 121.6 . . ?

_refine_diff_density_max         1.963
_refine_diff_density_min         -0.947
_refine_diff_density_rms         0.124

_shelx_res_file                  
;

    shelx.res created by SHELXL-2014/7

TITL 21mara_a.res in Imma
CELL  0.71073  24.1330  27.9108  17.9404   90.000   90.000   90.000
ZERR    16.00   0.0024   0.0028   0.0018    0.000    0.000    0.000
LATT   2
SYMM  - X, 1/2 - Y,   Z
SYMM  - X, 1/2 + Y, - Z
SYMM    X, - Y, - Z
SFAC  C    H    N    O    CU
UNIT  256 144 16 64 16
MERG   2
OMIT    -2.00  50.00
OMIT     0   7   1
OMIT     0   4   2
FMAP   2
PLAN   20
ACTA
BOND   $H
L.S.  10
TEMP     0.00
WGHT    0.163100
FVAR       0.86937
CU    5    0.822338    0.452546    0.502634    11.00000    0.00765    0.03148 =
         0.02025   -0.00299   -0.00187    0.00049
O1    4    0.760570    0.457080    0.433537    11.00000   10.04954    0.05114 =
         0.04662   -0.01259   -0.04304    0.01923
O4    4    0.615144    0.540096    0.071570    11.00000    0.03236    0.04884 =
         0.06354   -0.03206    0.03993   -0.03175
O3    4    0.624021    0.460777    0.079360    11.00000    0.03108    0.06172 =
         0.06405    0.02555    0.03601    0.01875
C16   1    0.550310    0.498916    0.143267    11.00000    0.00841    0.04746 =
         0.01923   -0.00476   -0.00119   -0.00466
O2    4    0.769112    0.535168    0.414750    11.00000    0.04860    0.05812 =
         0.06232    0.04086   -0.04324   -0.02081
C17   1    0.602163    0.500316    0.095656    11.00000    0.01438    0.05079 =
         0.01417   -0.0