
#######################################################################
#
#                 Cambridge Crystallographic Data Centre
#                                CCDC
#
#######################################################################
#
# If this CIF has been generated from an entry in the Cambridge
# Structural Database, then it will include bibliographic, chemical,
# crystal, experimental, refinement or atomic coordinate data resulting
# from the CCDC's data processing and validation procedures.
#
#######################################################################

data_CSD_CIF_KUYMUM
_audit_creation_date 1993-07-09
_audit_creation_method CSD-ConQuest-V1
_database_code_CSD KUYMUM
_database_code_depnum_ccdc_archive 'CCDC 1202016'
_chemical_formula_sum 'C8 H19 Al1 O2'
_chemical_formula_moiety
;
C8 H19 Al1 O2
;
_journal_coden_Cambridge 182
_journal_year 1993
_journal_page_first 189
_journal_name_full 'Chem.Commun. '
loop_
_publ_author_name
"I.B.Gorrell"
"P.B.Hitchcock"
"J.D.Smith"
_chemical_name_systematic
;
Trihydrido-bis(tetrahydrofuran)-aluminium(iii)
;
_chemical_name_common
;
Teaching Subset: Fundamental Chemistry, Symmetry
;
_cell_volume    516.985
_exptl_crystal_colour 'colorless'
_exptl_crystal_density_diffrn 1.12
_exptl_special_details
;
Air-sensitive

;
_diffrn_ambient_temperature 173
#These two values have been output from a single CSD field.
_refine_ls_R_factor_gt 0.045
_refine_ls_wR_factor_gt 0.045
_symmetry_cell_setting monoclinic
_symmetry_space_group_name_H-M 'P 21/m'
_symmetry_Int_Tables_number 11
loop_
_symmetry_equiv_pos_site_id
_symmetry_equiv_pos_as_xyz
1 x,y,z
2 -x,1/2+y,-z
3 -x,-y,-z
4 x,-1/2-y,z
_cell_length_a 7.265(5)
_cell_length_b 10.317(9)
_cell_length_c 7.422(10)
_cell_angle_alpha 90
_cell_angle_beta 111.67(8)
_cell_angle_gamma 90
_cell_formula_units_Z 2
loop_
_atom_type_symbol
_atom_type_radius_bond
C 0.68
H 0.23
Al 1.35
O 0.68
loop_
_atom_site_label
_atom_site_type_symbol
_atom_site_fract_x
_atom_site_fract_y
_atom_site_fract_z
Al1 Al 0.48565(14) 0.25000 0.74189(15)
O1 O 0.6662(3) 0.25000 0.5817(3)
O2 O 0.3230(3) 0.25000 0.9184(3)
C1 C 0.6635(4) 0.1383(3) 0.4636(4)
C2 C 0.7852(4) 0.1761(3) 0.3448(3)
C3 C 0.2020(3) 0.1384(3) 0.9172(3)
C4 C 0.0867(4) 0.1765(3) 1.0415(3)
H1 H 0.308(5) 0.25000 0.556(5)
H2 H 0.575(3) 0.121(3) 0.824(3)
H3 H 0.711(4) 0.068(3) 0.546(4)
H4 H 0.519(3) 0.129(3) 0.373(3)
H5 H 0.733(4) 0.138(3) 0.214(4)
H6 H 0.904(4) 0.144(3) 0.410(4)
H7 H 0.111(3) 0.123(3) 0.776(3)
H8 H 0.291(3) 0.062(2) 0.971(3)
H9 H -0.050(4) 0.151(3) 0.979(4)
H10 H 0.145(4) 0.152(3) 1.143(4)
H2C H 0.575(3) 0.379(3) 0.824(3)
C1C C 0.6635(4) 0.3617(3) 0.4636(4)
C3C C 0.2020(3) 0.3616(3) 0.9172(3)
C2C C 0.7852(4) 0.3239(3) 0.3448(3)
C4C C 0.0867(4) 0.3235(3) 1.0415(3)
H3C H 0.711(4) 0.432(3) 0.546(4)
H4C H 0.519(3) 0.371(3) 0.373(3)
H7C H 0.111(3) 0.377(3) 0.776(3)
H8C H 0.291(3) 0.438(2) 0.971(3)
H5C H 0.733(4) 0.362(3) 0.214(4)
H6C H 0.904(4) 0.356(3) 0.410(4)
H9C H -0.050(4) 0.349(3) 0.979(4)
H10C H 0.145(4) 0.348(3) 1.143(4)
#END
