
#######################################################################
#
#                 Cambridge Crystallographic Data Centre
#                                CCDC
#
#######################################################################
#
# If this CIF has been generated from an entry in the Cambridge
# Structural Database, then it will include bibliographic, chemical,
# crystal, experimental, refinement or atomic coordinate data resulting
# from the CCDC's data processing and validation procedures.
#
#######################################################################

data_CSD_CIF_LACTOS03
_audit_creation_date 1986-04-23
_audit_creation_method CSD-ConQuest-V1
_database_code_CSD LACTOS03
_database_code_depnum_ccdc_archive 'CCDC 1202388'
_chemical_formula_sum 'C12 H24 O12'
_chemical_formula_moiety
;
C12 H22 O11,H2 O1
;
_journal_coden_Cambridge 643
_journal_volume 168
_journal_year 1984
_journal_page_first 59
_journal_name_full 'Z.Krist.Cryst.Mater. '
loop_
_publ_author_name
"J.H.Noordik"
"P.T.Beurskens"
"P.Bennema"
"R.A.Visser"
"R.O.Gould"
_chemical_name_systematic
;
4-O-\b-D-Galactopyranosyl-\a-D-glucopyranose monohydrate
;
_chemical_name_common
;
alpha-Lactose monohydrate; Teaching Subset: Fundamental Chemistry
;
_cell_volume    775.673
_exptl_crystal_density_diffrn 1.543
_exptl_special_details
;
Absolute configuration

;
_diffrn_ambient_temperature ?
_diffrn_special_details
;
The study was carried out at room temperature,in the range 283-303K

;
#These two values have been output from a single CSD field.
_refine_ls_R_factor_gt 0.034
_refine_ls_wR_factor_gt 0.034
_symmetry_cell_setting monoclinic
_symmetry_space_group_name_H-M 'P 21'
_symmetry_Int_Tables_number 4
loop_
_symmetry_equiv_pos_site_id
_symmetry_equiv_pos_as_xyz
1 x,y,z
2 -x,1/2+y,-z
_cell_length_a 7.937(2)
_cell_length_b 21.568(7)
_cell_length_c 4.815(1)
_cell_angle_alpha 90
_cell_angle_beta 109.77(2)
_cell_angle_gamma 90
_cell_formula_units_Z 2
loop_
_atom_type_symbol
_atom_type_radius_bond
C 0.68
H 0.23
O 0.68
loop_
_atom_site_label
_atom_site_type_symbol
_atom_site_fract_x
_atom_site_fract_y
_atom_site_fract_z
C1 C 0.22647(16) 0.33997(7) 0.38773(30)
C2 C 0.36235(17) 0.39232(7) 0.42431(27)
C3 C 0.30823(19) 0.44893(7) 0.56403(33)
C4 C 0.11431(20) 0.46629(6) 0.39879(33)
C5 C -0.00437(17) 0.41032(7) 0.38356(31)
C6 C -0.19866(19) 0.42347(8) 0.21120(41)
O1 O 0.26714(12) 0.29368(5) 0.21976(22)
O2 O 0.53185(13) 0.37021(6) 0.59892(25)
O3 O 0.42828(17) 0.49785(6) 0.56237(29)
O4 O 0.09420(17) 0.48553(7) 0.10730(27)
O5 O 0.04996(12) 0.36040(5) 0.23386(21)
O6 O -0.30364(13) 0.36939(7) 0.19522(27)
H1 H 0.2424(32) 0.3298(12) 0.5594(56)
H2 H 0.3659(24) 0.4002(9) 0.2227(44)
H3 H 0.316(3) 0.4368(12) 0.7521(57)
H4 H 0.0795(25) 0.4979(10) 0.4899(43)
H5 H -0.0041(28) 0.3958(10) 0.5614(51)
H6 H -0.2020(52) 0.4280(23) 0.0083(10)
H7 H -0.2454(28) 0.4579(10) 0.3236(47)
H8 H 0.598(3) 0.3666(14) 0.4800(54)
H9 H 0.4403(33) 0.5149(13) 0.7176(60)
H10 H 0.1175(36) 0.5133(15) 0.1375(66)
H11 H -0.3772(33) 0.3676(14) 0.0113(57)
C7 C 0.19172(21) 0.10328(8) 0.09752(35)
C8 C 0.03020(19) 0.13948(7) 0.12044(33)
C9 C 0.05265(18) 0.20870(7) 0.08069(33)
C10 C 0.23476(17) 0.23095(7) 0.28497(30)
C11 C 0.38495(19) 0.19188(7) 0.24477(31)
C12 C 0.56713(20) 0.20875(8) 0.45516(40)
O7 O 0.18994(16) 0.10659(7) -0.19148(26)
O8 O -0.13269(14) 0.11552(5) -0.07720(25)
O9 O -0.09024(13) 0.23936(6) 0.14307(30)
O10 O 0.35259(14) 0.12829(5) 0.29896(22)
O11 O 0.70297(15) 0.17258(7) 0.39806(31)
H12 H 0.2186(14) 0.0538(8) 0.2230(35)
H13 H 0.0306(26) 0.1345(10) 0.3220(45)
H14 H 0.0422(33) 0.2214(12) -0.1168(57)
H15 H 0.2414(27) 0.2235(9) 0.4902(50)
H16 H 0.3901(24) 0.1957(10) 0.0672(45)
H17 H 0.5650(41) 0.1980(16) 0.6551(75)
H18 H 0.5958(29) 0.2526(11) 0.4529(48)
H19 H 0.2963(37) 0.0900(15) -0.2019(61)
H20 H -0.1621(34) 0.1321(13) -0.2214(64)
H21 H -0.0736(41) 0.2814(20) 0.1422(73)
H22 H 0.7683(36) 0.1903(13) 0.3272(51)
O12 O 0.52950(17) 0.05763(7) 0.91718(36)
H23 H 0.6352(49) 0.0831(20) 0.9793(81)
H24 H 0.5282(28) 0.0429(11) 0.7963(56)
#END
