####################################################################### 
# 
# This file contains crystal structure data downloaded from the 
# Cambridge Structural Database (CSD) hosted by the Cambridge 
# Crystallographic Data Centre (CCDC).
# 
# Full information about CCDC data access policies and citation 
# guidelines are available at http://www.ccdc.cam.ac.uk/access/V1 
# 
# Audit and citation data items may have been added by the CCDC. 
# Please retain this information to preserve the provenance of 
# this file and to allow appropriate attribution of the data. 
# 
#######################################################################

data_compound_4b_[ZnL3Ag3](BF4)2
_audit_block_doi                 10.5517/ccv1q1m
_database_code_depnum_ccdc_archive 'CCDC 776210'
loop_
_citation_id
_citation_doi
_citation_year
1 10.1002/chem.201001256 2010
_audit_update_record             
;
2010-05-06 deposited with the CCDC.	2024-07-11 downloaded from the CCDC.
;
#TrackingRef 'Structures.cif'


_diffrn_measurement_domega       0.30
_diffrn_measurement_rtime        20

_chemical_formula_sum            'C51 H27 Ag3 B2 F8 N6 O6 Zn'
_chemical_formula_weight         1382.39

loop_
_atom_type_symbol
_atom_type_description
_atom_type_scat_dispersion_real
_atom_type_scat_dispersion_imag
_atom_type_scat_source
C C 0.0033 0.0016 'International Tables Vol C Tables 4.2.6.8 and 6.1.1.4'
H H 0.0000 0.0000 'International Tables Vol C Tables 4.2.6.8 and 6.1.1.4'
N N 0.0061 0.0033 'International Tables Vol C Tables 4.2.6.8 and 6.1.1.4'
O O 0.0106 0.0060 'International Tables Vol C Tables 4.2.6.8 and 6.1.1.4'
Zn Zn 0.2839 1.4301 'International Tables Vol C Tables 4.2.6.8 and 6.1.1.4'
Ag Ag -0.8971 1.1015 'International Tables Vol C Tables 4.2.6.8 and 6.1.1.4'
B B 0.0013 0.0007 'International Tables Vol C Tables 4.2.6.8 and 6.1.1.4'
F F 0.0171 0.0103 'International Tables Vol C Tables 4.2.6.8 and 6.1.1.4'

_symmetry_cell_setting           Trigonal
_symmetry_space_group_name_H-M   'P-3 '

loop_
_symmetry_equiv_pos_as_xyz
'x, y, z'
'-y, x-y, z'
'-x+y, -x, z'
'-x, -y, -z'
'y, -x+y, -z'
'x-y, x, -z'

_cell_length_a                   15.733(3)
_cell_length_b                   15.733(3)
_cell_length_c                   16.486(6)
_cell_angle_alpha                90.00
_cell_angle_beta                 90.00
_cell_angle_gamma                120.00
_cell_volume                     3534.3(15)
_cell_formula_units_Z            2
_cell_measurement_temperature    150(2)
_cell_measurement_reflns_used    11765
_cell_measurement_theta_min      2
_cell_measurement_theta_max      25

_exptl_crystal_description       needle
_exptl_crystal_colour            yellow
_exptl_crystal_size_max          0.30
_exptl_crystal_size_mid          0.20
_exptl_crystal_size_min          0.10
_exptl_crystal_density_diffrn    1.299
_exptl_crystal_density_method    'not measured'
_exptl_crystal_F_000             1352
_exptl_absorpt_coefficient_mu    1.216
_exptl_absorpt_correction_type   multi-scan
_exptl_absorpt_process_details   
'(Sheldrick G.M.(1996), SADABS University of Gottingen,Germany.)'
_exptl_absorpt_correction_T_min  0.651138
_exptl_absorpt_correction_T_max  1

_diffrn_ambient_temperature      150(2)
_diffrn_radiation_wavelength     0.71073
_diffrn_radiation_type           MoK\a
_diffrn_radiation_source         'fine-focus sealed tube'
_diffrn_radiation_monochromator  graphite
_diffrn_measurement_method       omega-scan
_diffrn_standards_decay_%        30
_diffrn_reflns_number            57864
_diffrn_reflns_av_R_equivalents  0.1295
_diffrn_reflns_av_sigmaI/netI    0.0885
_diffrn_reflns_limit_h_min       -20
_diffrn_reflns_limit_h_max       20
_diffrn_reflns_limit_k_min       -20
_diffrn_reflns_limit_k_max       20
_diffrn_reflns_limit_l_min       -21
_diffrn_reflns_limit_l_max       21
_diffrn_reflns_theta_min         1.24
_diffrn_reflns_theta_max         28.39
_reflns_number_total             5652
_reflns_number_gt                3631
_reflns_threshold_expression     >2sigma(I)

_computing_structure_solution    SIR97
_computing_structure_refinement  'SHELXL-97 (Sheldrick, 1997)'
_computing_molecular_graphics    TOPOS

_refine_special_details          
;
Refinement of F^2^ against ALL reflections. The weighted R-factor wR and
goodness of fit S are based on F^2^, conventional R-factors R are based
on F, with F set to zero for negative F^2^.

All the crystals tested showed weak diffraction, hence the High R2 Value
and Rint

The crystal is unstable in air, was collected under mineral oil.
The structure contains disordered solvents and anions.
Because it was difficult to refine a consistent disordered
model, their contribution was subtracted from the observed structure factors
according to the BYPASS procedure, as implemented in PLATON.
van der Sluis, P., Spek, A. L. (1990). Acta Cryst. A46, 194-201.
Spek, A. L. (2003). J. Appl. Cryst. 36, 7-13.

The R before squeeze was: 0.1346 for 3676 Fo > 4sig(Fo)
and 0.1885 for all 5652 data
202 parameters refined using 0 restraints

The BF4 counteranions are strongly disordered
and cannot be located. Nonetheless we report the BF4 anions in the
formula since they are indeed present in the solid.

;

_refine_ls_structure_factor_coef Fsqd
_refine_ls_matrix_type           full
_refine_ls_weighting_scheme      calc
_refine_ls_weighting_details     
'calc w=1/[\s^2^(Fo^2^)+(0.0665P)^2^+0.0000P] where P=(Fo^2^+2Fc^2^)/3'
_atom_sites_solution_primary     direct
_atom_sites_solution_secondary   difmap
_atom_sites_solution_hydrogens   geom
_refine_ls_hydrogen_treatment    constr
_refine_ls_extinction_method     none
_refine_ls_number_reflns         5652
_refine_ls_number_parameters     202
_refine_ls_number_restraints     0
_refine_ls_R_factor_all          0.0855
_refine_ls_R_factor_gt           0.0550
_refine_ls_wR_factor_all         0.1438
_refine_ls_wR_factor_ref         0.1359
_refine_ls_goodness_of_fit_all   1.000
_refine_ls_restrained_S_all      1.000
_refine_ls_shift/su_max          0.000
_refine_ls_shift/su_mean         0.000

loop_
_atom_site_label
_atom_site_type_symbol
_atom_site_fract_x
_atom_site_fract_y
_atom_site_fract_z
_atom_site_U_iso_or_equiv
_atom_site_adp_type
_atom_site_occupancy
_atom_site_symmetry_multiplicity
_atom_site_calc_flag
_atom_site_refinement_flags
_atom_site_disorder_assembly
_atom_site_disorder_group
C1 C 0.8590(3) 0.4017(3) 0.2585(2) 0.0303(9) Uani 1 1 d . . .
C2 C 0.9060(3) 0.4788(3) 0.2030(2) 0.0313(9) Uani 1 1 d . . .
H2 H 0.9658 0.5324 0.2181 0.038 Uiso 1 1 calc R . .
C3 C 0.8683(3) 0.4806(3) 0.1251(2) 0.0332(9) Uani 1 1 d . . .
C4 C 0.9337(3) 0.5528(3) 0.0627(2) 0.0345(9) Uani 1 1 d . . .
C5 C 0.8965(4) 0.5469(4) -0.0137(3) 0.0610(16) Uani 1 1 d . . .
H5 H 0.8316 0.4997 -0.0240 0.073 Uiso 1 1 calc R . .
C6 C 1.0316(5) 0.6248(5) 0.0749(3) 0.095(3) Uani 1 1 d . . .
H6 H 1.0603 0.6297 0.1253 0.114 Uiso 1 1 calc R . .
C7 C 0.9517(4) 0.6080(5) -0.0751(3) 0.0686(17) Uani 1 1 d . . .
H7 H 0.9256 0.6000 -0.1270 0.082 Uiso 1 1 calc R . .
C8 C 1.0863(5) 0.6883(6) 0.0143(4) 0.118(3) Uani 1 1 d . . .
H8 H 1.1511 0.7360 0.0242 0.142 Uiso 1 1 calc R . .
C9 C 1.0470(3) 0.6820(3) -0.0592(3) 0.0445(11) Uani 1 1 d . . .
C10 C 1.1048(3) 0.7452(4) -0.1228(3) 0.0459(11) Uani 1 1 d . . .
C11 C 0.9136(3) 0.3982(3) 0.3335(2) 0.0282(8) Uani 1 1 d . . .
C12 C 0.8602(3) 0.3523(3) 0.4030(2) 0.0332(9) Uani 1 1 d . . .
H12 H 0.7921 0.3226 0.4022 0.040 Uiso 1 1 calc R . .
C13 C 1.0155(3) 0.4413(4) 0.3344(3) 0.0489(12) Uani 1 1 d . . .
H13 H 1.0521 0.4725 0.2884 0.059 Uiso 1 1 calc R . .
C14 C 0.9071(3) 0.3505(3) 0.4728(2) 0.0426(10) Uani 1 1 d . . .
H14 H 0.8714 0.3211 0.5196 0.051 Uiso 1 1 calc R . .
C15 C 1.0620(4) 0.4371(4) 0.4051(3) 0.0552(13) Uani 1 1 d . . .
H15 H 1.1299 0.4644 0.4060 0.066 Uiso 1 1 calc R . .
C16 C 1.0090(3) 0.3935(3) 0.4724(2) 0.0414(10) Uani 1 1 d . . .
C17 C 1.0592(3) 0.3926(3) 0.5461(2) 0.0429(10) Uani 1 1 d . . .
N1 N 1.0986(3) 0.3933(3) 0.6037(2) 0.0483(10) Uani 1 1 d . . .
N2 N 1.1525(3) 0.7989(3) -0.1755(2) 0.0481(10) Uani 1 1 d . . .
O1 O 0.7709(2) 0.3309(2) 0.25319(15) 0.0328(6) Uani 1 1 d . . .
O2 O 0.7826(2) 0.4238(2) 0.10330(14) 0.0352(6) Uani 1 1 d . . .
Zn1 Zn 0.6667 0.3333 0.17670(4) 0.02834(19) Uani 1 3 d S . .
Ag Ag 0.85980(3) 0.59163(3) 0.26808(2) 0.05101(15) Uani 1 1 d . . .

loop_
_atom_site_aniso_label
_atom_site_aniso_U_11
_atom_site_aniso_U_22
_atom_site_aniso_U_33
_atom_site_aniso_U_23
_atom_site_aniso_U_13
_atom_site_aniso_U_12
C1 0.037(2) 0.050(2) 0.0116(15) 0.0060(15) -0.0007(14) 0.027(2)
C2 0.034(2) 0.036(2) 0.0182(16) -0.0024(15) -0.0024(15) 0.0137(18)
C3 0.044(2) 0.040(2) 0.0198(17) -0.0008(16) 0.0029(16) 0.024(2)
C4 0.046(2) 0.037(2) 0.0204(17) 0.0103(16) 0.0103(16) 0.020(2)
C5 0.042(3) 0.093(4) 0.028(2) 0.024(2) 0.0000(19) 0.019(3)
C6 0.072(4) 0.091(5) 0.037(3) 0.026(3) -0.017(3) -0.022(4)
C7 0.057(3) 0.114(5) 0.027(2) 0.030(3) 0.006(2) 0.036(3)
C8 0.077(5) 0.114(6) 0.052(4) 0.039(4) -0.012(3) -0.035(4)
C9 0.044(3) 0.052(3) 0.034(2) 0.009(2) 0.0120(19) 0.022(2)
C10 0.049(3) 0.056(3) 0.039(2) 0.011(2) 0.016(2) 0.031(2)
C11 0.0261(19) 0.034(2) 0.0227(17) 0.0021(15) 0.0007(14) 0.0137(17)
C12 0.035(2) 0.037(2) 0.0217(18) 0.0068(15) -0.0007(15) 0.0128(19)
C13 0.041(3) 0.075(3) 0.024(2) 0.009(2) -0.0044(18) 0.025(2)
C14 0.049(3) 0.040(2) 0.0250(19) 0.0081(17) -0.0053(18) 0.012(2)
C15 0.040(3) 0.088(4) 0.031(2) 0.003(2) -0.0071(19) 0.026(3)
C16 0.050(3) 0.050(3) 0.0239(19) -0.0036(18) -0.0090(18) 0.025(2)
C17 0.051(3) 0.056(3) 0.027(2) -0.0099(19) -0.0115(19) 0.031(2)
N1 0.055(2) 0.066(3) 0.0300(18) -0.0049(17) -0.0167(17) 0.035(2)
N2 0.051(2) 0.061(3) 0.038(2) 0.0163(18) 0.0198(17) 0.032(2)
O1 0.0358(16) 0.0369(15) 0.0202(12) 0.0039(11) -0.0024(11) 0.0141(13)
O2 0.0373(16) 0.0436(17) 0.0159(12) 0.0041(11) 0.0022(11) 0.0135(14)
Zn1 0.0365(3) 0.0365(3) 0.0120(3) 0.000 0.000 0.01827(14)
Ag 0.0706(3) 0.0642(3) 0.03082(19) -0.00878(15) -0.02309(16) 0.0432(2)

_geom_special_details            
;
All esds (except the esd in the dihedral angle between two l.s. planes)
are estimated using the full covariance matrix. The cell esds are taken
into account individually in the estimation of esds in distances, angles
and torsion angles; correlations between esds in cell parameters are only
used when they are defined by crystal symmetry. An approximate (isotropic)
treatment of cell esds is used for estimating esds involving l.s. planes.
;

loop_
_geom_bond_atom_site_label_1
_geom_bond_atom_site_label_2
_geom_bond_distance
_geom_bond_site_symmetry_2
_geom_bond_publ_flag
C1 O1 1.275(5) . ?
C1 C2 1.400(5) . ?
C1 C11 1.522(5) . ?
C2 C3 1.420(5) . ?
C2 Ag 2.474(4) . ?
C3 O2 1.242(5) . ?
C3 C4 1.496(5) . ?
C4 C5 1.372(6) . ?
C4 C6 1.397(7) . ?
C5 C7 1.367(6) . ?
C6 C8 1.370(7) . ?
C7 C9 1.389(7) . ?
C8 C9 1.342(7) . ?
C9 C10 1.418(6) . ?
C10 N2 1.182(5) . ?
C11 C12 1.390(5) . ?
C11 C13 1.394(6) . ?
C12 C14 1.376(5) . ?
C13 C15 1.396(6) . ?
C14 C16 1.394(6) . ?
C15 C16 1.350(6) . ?
C16 C17 1.454(6) . ?
C17 N1 1.131(5) . ?
N1 Ag 2.190(3) 4_766 ?
N2 Ag 2.195(3) 6_655 ?
O1 Zn1 2.084(3) . ?
O2 Zn1 2.054(3) . ?
Zn1 O2 2.054(3) 3_665 ?
Zn1 O2 2.054(3) 2_655 ?
Zn1 O1 2.084(3) 2_655 ?
Zn1 O1 2.084(3) 3_665 ?
Ag N1 2.190(3) 4_766 ?
Ag N2 2.195(3) 5_565 ?

loop_
_geom_angle_atom_site_label_1
_geom_angle_atom_site_label_2
_geom_angle_atom_site_label_3
_geom_angle
_geom_angle_site_symmetry_1
_geom_angle_site_symmetry_3
_geom_angle_publ_flag
O1 C1 C2 125.8(3) . . ?
O1 C1 C11 114.3(3) . . ?
C2 C1 C11 120.0(3) . . ?
C1 C2 C3 124.3(4) . . ?
C1 C2 Ag 96.9(2) . . ?
C3 C2 Ag 95.9(2) . . ?
O2 C3 C2 124.2(4) . . ?
O2 C3 C4 115.7(3) . . ?
C2 C3 C4 120.0(4) . . ?
C5 C4 C6 116.6(4) . . ?
C5 C4 C3 118.1(4) . . ?
C6 C4 C3 125.3(4) . . ?
C7 C5 C4 122.2(5) . . ?
C8 C6 C4 121.5(5) . . ?
C5 C7 C9 119.3(4) . . ?
C9 C8 C6 120.5(6) . . ?
C8 C9 C7 119.8(4) . . ?
C8 C9 C10 120.4(5) . . ?
C7 C9 C10 119.6(4) . . ?
N2 C10 C9 179.0(5) . . ?
C12 C11 C13 119.6(4) . . ?
C12 C11 C1 118.8(3) . . ?
C13 C11 C1 121.6(3) . . ?
C14 C12 C11 120.6(4) . . ?
C11 C13 C15 119.3(4) . . ?
C12 C14 C16 119.0(4) . . ?
C16 C15 C13 120.3(4) . . ?
C15 C16 C14 121.3(4) . . ?
C15 C16 C17 119.4(4) . . ?
C14 C16 C17 119.3(4) . . ?
N1 C17 C16 179.0(5) . . ?
C17 N1 Ag 160.7(4) . 4_766 ?
C10 N2 Ag 156.2(4) . 6_655 ?
C1 O1 Zn1 123.2(2) . . ?
C3 O2 Zn1 126.6(2) . . ?
O2 Zn1 O2 88.83(11) 3_665 . ?
O2 Zn1 O2 88.83(11) 3_665 2_655 ?
O2 Zn1 O2 88.83(10) . 2_655 ?
O2 Zn1 O1 171.19(11) 3_665 2_655 ?
O2 Zn1 O1 98.38(11) . 2_655 ?
O2 Zn1 O1 86.28(11) 2_655 2_655 ?
O2 Zn1 O1 86.28(11) 3_665 3_665 ?
O2 Zn1 O1 171.19(11) . 3_665 ?
O2 Zn1 O1 98.38(11) 2_655 3_665 ?
O1 Zn1 O1 87.19(11) 2_655 3_665 ?
O2 Zn1 O1 98.38(11) 3_665 . ?
O2 Zn1 O1 86.28(11) . . ?
O2 Zn1 O1 171.19(11) 2_655 . ?
O1 Zn1 O1 87.19(11) 2_655 . ?
O1 Zn1 O1 87.19(11) 3_665 . ?
N1 Ag N2 142.61(15) 4_766 5_565 ?
N1 Ag C2 108.48(13) 4_766 . ?
N2 Ag C2 108.81(14) 5_565 . ?

_diffrn_measured_fraction_theta_max 0.955
_diffrn_reflns_theta_full        27.00
_diffrn_measured_fraction_theta_full 1.000
_refine_diff_density_max         0.618
_refine_diff_density_min         -1.186
_refine_diff_density_rms         0.102
