####################################################################### 
# 
# This file contains crystal structure data downloaded from the 
# Cambridge Structural Database (CSD) hosted by the Cambridge 
# Crystallographic Data Centre (CCDC).
# 
# Full information about CCDC data access policies and citation 
# guidelines are available at http://www.ccdc.cam.ac.uk/access/V1 
# 
# Audit and citation data items may have been added by the CCDC. 
# Please retain this information to preserve the provenance of 
# this file and to allow appropriate attribution of the data. 
# 
#######################################################################

data_Compound_3b_[FeL3Ag3](PF6)3
_audit_block_doi                 10.5517/ccv1q0l
_database_code_depnum_ccdc_archive 'CCDC 776209'
loop_
_citation_id
_citation_doi
_citation_year
1 10.1002/chem.201001256 2010
_audit_update_record             
;
2010-05-06 deposited with the CCDC.	2024-07-11 downloaded from the CCDC.
;
#TrackingRef 'Structures.cif'


_diffrn_measurement_domega       0.30
_diffrn_measurement_rtime        40

_chemical_formula_sum            'C51 H27 Ag3 F18 Fe N6 O6 P3'
_chemical_formula_weight         1634.16

loop_
_atom_type_symbol
_atom_type_description
_atom_type_scat_dispersion_real
_atom_type_scat_dispersion_imag
_atom_type_scat_source
C C 0.0033 0.0016 'International Tables Vol C Tables 4.2.6.8 and 6.1.1.4'
H H 0.0000 0.0000 'International Tables Vol C Tables 4.2.6.8 and 6.1.1.4'
N N 0.0061 0.0033 'International Tables Vol C Tables 4.2.6.8 and 6.1.1.4'
O O 0.0106 0.0060 'International Tables Vol C Tables 4.2.6.8 and 6.1.1.4'
F F 0.0171 0.0103 'International Tables Vol C Tables 4.2.6.8 and 6.1.1.4'
P P 0.1023 0.0942 'International Tables Vol C Tables 4.2.6.8 and 6.1.1.4'
Fe Fe 0.3463 0.8444 'International Tables Vol C Tables 4.2.6.8 and 6.1.1.4'
Ag Ag -0.8971 1.1015 'International Tables Vol C Tables 4.2.6.8 and 6.1.1.4'

_symmetry_cell_setting           Trigonal
_symmetry_space_group_name_H-M   'P-3 '

loop_
_symmetry_equiv_pos_as_xyz
'x, y, z'
'-y, x-y, z'
'-x+y, -x, z'
'-x, -y, -z'
'y, -x+y, -z'
'x-y, x, -z'

_cell_length_a                   14.6201(7)
_cell_length_b                   14.6201(7)
_cell_length_c                   17.0459(16)
_cell_angle_alpha                90.00
_cell_angle_beta                 90.00
_cell_angle_gamma                120.00
_cell_volume                     3155.4(4)
_cell_formula_units_Z            2
_cell_measurement_temperature    150(2)
_cell_measurement_reflns_used    6204
_cell_measurement_theta_min      2
_cell_measurement_theta_max      24

_exptl_crystal_description       needle
_exptl_crystal_colour            red
_exptl_crystal_size_max          0.24
_exptl_crystal_size_mid          0.16
_exptl_crystal_size_min          0.04
_exptl_crystal_density_diffrn    1.720
_exptl_crystal_density_method    'not measured'
_exptl_crystal_F_000             1594
_exptl_absorpt_coefficient_mu    1.321
_exptl_absorpt_correction_type   multi-scan
_exptl_absorpt_process_details   
'(Sheldrick G.M.(1996), SADABS University of Gottingen,Germany.)'
_exptl_absorpt_correction_T_min  0.90
_exptl_absorpt_correction_T_max  1.00

_diffrn_ambient_temperature      150(2)
_diffrn_radiation_wavelength     0.71073
_diffrn_radiation_type           MoK\a
_diffrn_radiation_source         'fine-focus sealed tube'
_diffrn_radiation_monochromator  graphite
_diffrn_measurement_method       omega-scan
_diffrn_standards_decay_%        12
_diffrn_reflns_number            38098
_diffrn_reflns_av_R_equivalents  0.0597
_diffrn_reflns_av_sigmaI/netI    0.0527
_diffrn_reflns_limit_h_min       -19
_diffrn_reflns_limit_h_max       19
_diffrn_reflns_limit_k_min       -19
_diffrn_reflns_limit_k_max       19
_diffrn_reflns_limit_l_min       -23
_diffrn_reflns_limit_l_max       23
_diffrn_reflns_theta_min         2.00
_diffrn_reflns_theta_max         29.30
_reflns_number_total             5500
_reflns_number_gt                3457
_reflns_threshold_expression     >2sigma(I)

_computing_structure_solution    SIR97
_computing_structure_refinement  'SHELXL-97 (Sheldrick, 1997)'
_computing_molecular_graphics    TOPOS

_refine_special_details          
;
Refinement of F^2^ against ALL reflections. The weighted R-factor wR and
goodness of fit S are based on F^2^, conventional R-factors R are based
on F, with F set to zero for negative F^2^.

All the crystals tested showed weak diffraction, hence the High R2 Value.

The crystal is unstable in air, was collected under mineral oil.
The structure contains disordered solvents and anions.
Because it was difficult to refine a consistent disordered
model, their contribution was subtracted from the observed structure factors
according to the BYPASS procedure, as implemented in PLATON.
van der Sluis, P., Spek, A. L. (1990). Acta Cryst. A46, 194-201.
Spek, A. L. (2003). J. Appl. Cryst. 36, 7-13.

The R before squeeze was: R1 = 0.2635 for 3524 Fo > 4sig(Fo)
and 0.3110 for all 5500 data
202 parameters refined using 0 restraints

The PF6 counteranions are strongly disordered
and cannot be located. Nonetheless we report the PF6 anions in the
formula since they are indeed present in the solid.

;

_refine_ls_structure_factor_coef Fsqd
_refine_ls_matrix_type           full
_refine_ls_weighting_scheme      calc
_refine_ls_weighting_details     
'calc w=1/[\s^2^(Fo^2^)+(0.2000P)^2^+0.0000P] where P=(Fo^2^+2Fc^2^)/3'
_atom_sites_solution_primary     direct
_atom_sites_solution_secondary   difmap
_atom_sites_solution_hydrogens   geom
_refine_ls_hydrogen_treatment    constr
_refine_ls_extinction_method     none
_refine_ls_number_reflns         5500
_refine_ls_number_parameters     202
_refine_ls_number_restraints     0
_refine_ls_R_factor_all          0.1338
_refine_ls_R_factor_gt           0.0979
_refine_ls_wR_factor_all         0.3118
_refine_ls_wR_factor_ref         0.2894
_refine_ls_goodness_of_fit_all   1.105
_refine_ls_restrained_S_all      1.105
_refine_ls_shift/su_max          0.000
_refine_ls_shift/su_mean         0.000

loop_
_atom_site_label
_atom_site_type_symbol
_atom_site_fract_x
_atom_site_fract_y
_atom_site_fract_z
_atom_site_U_iso_or_equiv
_atom_site_adp_type
_atom_site_occupancy
_atom_site_symmetry_multiplicity
_atom_site_calc_flag
_atom_site_refinement_flags
_atom_site_disorder_assembly
_atom_site_disorder_group
C1 C 0.3765(4) 0.5008(4) 0.1386(3) 0.0237(10) Uani 1 1 d . . .
C2 C 0.4271(5) 0.4974(5) 0.2067(3) 0.0298(12) Uani 1 1 d . . .
H2 H 0.4447 0.4447 0.2123 0.036 Uiso 1 1 calc R . .
C3 C 0.4525(4) 0.5719(5) 0.2676(3) 0.0255(11) Uani 1 1 d . . .
C4 C 0.5121(5) 0.5741(5) 0.3370(3) 0.0313(12) Uani 1 1 d . . .
C9 C 0.5667(5) 0.5172(6) 0.3435(3) 0.0400(15) Uani 1 1 d . . .
H5 H 0.5629 0.4726 0.3031 0.048 Uiso 1 1 calc R . .
C5 C 0.5139(5) 0.6342(6) 0.4005(3) 0.0389(15) Uani 1 1 d . . .
H6 H 0.4742 0.6678 0.3986 0.047 Uiso 1 1 calc R . .
C8 C 0.6259(6) 0.5278(6) 0.4101(4) 0.0459(17) Uani 1 1 d . . .
H7 H 0.6627 0.4913 0.4141 0.055 Uiso 1 1 calc R . .
C6 C 0.5736(6) 0.6453(6) 0.4668(4) 0.0438(16) Uani 1 1 d . . .
H8 H 0.5756 0.6875 0.5084 0.053 Uiso 1 1 calc R . .
C7 C 0.6299(5) 0.5926(6) 0.4699(3) 0.0399(15) Uani 1 1 d . . .
C10 C 0.6942(6) 0.6098(7) 0.5384(4) 0.0506(18) Uani 1 1 d . . .
C11 C 0.3691(4) 0.4338(5) 0.0699(3) 0.0284(11) Uani 1 1 d . . .
C12 C 0.3667(7) 0.3377(6) 0.0793(4) 0.0472(18) Uani 1 1 d . . .
H12 H 0.3713 0.3133 0.1288 0.057 Uiso 1 1 calc R . .
C16 C 0.3627(4) 0.4700(5) -0.0043(3) 0.0273(11) Uani 1 1 d . . .
H13 H 0.3634 0.5337 -0.0097 0.033 Uiso 1 1 calc R . .
C13 C 0.3571(7) 0.2794(6) 0.0115(4) 0.0517(19) Uani 1 1 d . . .
H14 H 0.3548 0.2149 0.0156 0.062 Uiso 1 1 calc R . .
C15 C 0.3553(5) 0.4116(5) -0.0692(3) 0.0343(13) Uani 1 1 d . . .
H15 H 0.3532 0.4364 -0.1190 0.041 Uiso 1 1 calc R . .
C14 C 0.3511(5) 0.3169(5) -0.0602(3) 0.0370(14) Uani 1 1 d . . .
C17 C 0.3419(6) 0.2544(6) -0.1309(4) 0.0450(16) Uani 1 1 d . . .
N2 N 0.7421(5) 0.6258(6) 0.5956(3) 0.0554(17) Uani 1 1 d . . .
N1 N 0.3343(5) 0.2082(5) -0.1837(4) 0.0468(14) Uani 1 1 d . . .
O2 O 0.4271(3) 0.6430(3) 0.2667(2) 0.0282(8) Uani 1 1 d . . .
O1 O 0.3404(3) 0.5617(3) 0.1267(2) 0.0243(8) Uani 1 1 d . . .
Fe1 Fe 0.3333 0.6667 0.19615(7) 0.0206(3) Uani 1 3 d S . .
Ag1 Ag 0.83881(7) 0.69259(7) 0.69784(4) 0.0734(4) Uani 1 1 d . . .

loop_
_atom_site_aniso_label
_atom_site_aniso_U_11
_atom_site_aniso_U_22
_atom_site_aniso_U_33
_atom_site_aniso_U_23
_atom_site_aniso_U_13
_atom_site_aniso_U_12
C1 0.025(2) 0.033(3) 0.011(2) -0.0015(18) 0.0000(17) 0.012(2)
C2 0.040(3) 0.038(3) 0.022(3) 0.000(2) -0.003(2) 0.028(3)
C3 0.028(3) 0.039(3) 0.012(2) 0.0002(19) 0.0049(18) 0.019(2)
C4 0.032(3) 0.041(3) 0.021(3) 0.000(2) -0.003(2) 0.019(3)
C9 0.045(4) 0.063(4) 0.024(3) -0.010(3) -0.012(3) 0.036(3)
C5 0.044(4) 0.058(4) 0.021(3) -0.007(3) -0.012(2) 0.031(3)
C8 0.049(4) 0.070(5) 0.034(3) -0.001(3) -0.010(3) 0.041(4)
C6 0.059(4) 0.057(4) 0.026(3) -0.012(3) -0.019(3) 0.037(4)
C7 0.037(3) 0.056(4) 0.024(3) 0.000(3) -0.010(2) 0.022(3)
C10 0.048(4) 0.072(5) 0.039(4) -0.004(3) -0.017(3) 0.035(4)
C11 0.035(3) 0.034(3) 0.020(2) -0.008(2) -0.004(2) 0.020(2)
C12 0.089(6) 0.044(4) 0.024(3) -0.004(3) -0.007(3) 0.045(4)
C16 0.033(3) 0.036(3) 0.018(2) -0.002(2) -0.001(2) 0.021(2)
C13 0.097(6) 0.048(4) 0.031(3) -0.007(3) -0.001(4) 0.051(4)
C15 0.039(3) 0.050(4) 0.022(3) -0.005(2) 0.000(2) 0.028(3)
C14 0.040(3) 0.051(4) 0.027(3) -0.011(3) -0.002(2) 0.028(3)
C17 0.053(4) 0.052(4) 0.041(4) -0.011(3) 0.003(3) 0.034(4)
N2 0.060(4) 0.087(5) 0.032(3) -0.008(3) -0.020(3) 0.048(4)
N1 0.058(4) 0.056(4) 0.041(3) -0.017(3) -0.005(3) 0.039(3)
O2 0.034(2) 0.039(2) 0.0146(16) -0.0054(15) -0.0065(14) 0.0212(18)
O1 0.033(2) 0.0291(19) 0.0157(16) -0.0035(14) 0.0007(14) 0.0191(17)
Fe1 0.0240(4) 0.0240(4) 0.0138(6) 0.000 0.000 0.0120(2)
Ag1 0.1035(7) 0.0829(6) 0.0500(5) -0.0144(3) -0.0430(4) 0.0588(5)

_geom_special_details            
;
All esds (except the esd in the dihedral angle between two l.s. planes)
are estimated using the full covariance matrix. The cell esds are taken
into account individually in the estimation of esds in distances, angles
and torsion angles; correlations between esds in cell parameters are only
used when they are defined by crystal symmetry. An approximate (isotropic)
treatment of cell esds is used for estimating esds involving l.s. planes.
;

loop_
_geom_bond_atom_site_label_1
_geom_bond_atom_site_label_2
_geom_bond_distance
_geom_bond_site_symmetry_2
_geom_bond_publ_flag
C1 O1 1.258(6) . ?
C1 C2 1.391(7) . ?
C1 C11 1.496(7) . ?
C2 C3 1.414(8) . ?
C2 H2 0.9300 . ?
C3 O2 1.265(7) . ?
C3 C4 1.461(7) . ?
C4 C5 1.386(8) . ?
C4 C9 1.416(9) . ?
C9 C8 1.388(8) . ?
C9 H5 0.9300 . ?
C5 C6 1.387(8) . ?
C5 H6 0.9300 . ?
C8 C7 1.372(10) . ?
C8 H7 0.9300 . ?
C6 C7 1.382(10) . ?
C6 H8 0.9300 . ?
C7 C10 1.439(9) . ?
C10 N2 1.155(8) . ?
C11 C16 1.392(7) . ?
C11 C12 1.397(8) . ?
C12 C13 1.401(9) . ?
C12 H12 0.9300 . ?
C16 C15 1.369(8) . ?
C16 H13 0.9300 . ?
C13 C14 1.361(9) . ?
C13 H14 0.9300 . ?
C15 C14 1.364(9) . ?
C15 H15 0.9300 . ?
C14 C17 1.477(8) . ?
C17 N1 1.097(8) . ?
N2 Ag1 2.147(6) . ?
N1 Ag1 2.168(6) 2_654 ?
O2 Fe1 1.981(4) . ?
O1 Fe1 1.982(3) . ?
Fe1 O1 1.982(3) 3_565 ?
Fe1 O1 1.982(4) 2_665 ?
Fe1 O2 1.981(4) 2_665 ?
Fe1 O2 1.981(4) 3_565 ?
Ag1 N1 2.168(6) 3_666 ?

loop_
_geom_angle_atom_site_label_1
_geom_angle_atom_site_label_2
_geom_angle_atom_site_label_3
_geom_angle
_geom_angle_site_symmetry_1
_geom_angle_site_symmetry_3
_geom_angle_publ_flag
O1 C1 C2 125.4(5) . . ?
O1 C1 C11 114.7(4) . . ?
C2 C1 C11 119.7(5) . . ?
C1 C2 C3 121.6(5) . . ?
C1 C2 H2 119.2 . . ?
C3 C2 H2 119.2 . . ?
O2 C3 C2 123.6(5) . . ?
O2 C3 C4 114.1(5) . . ?
C2 C3 C4 122.4(5) . . ?
C5 C4 C9 118.3(5) . . ?
C5 C4 C3 117.9(5) . . ?
C9 C4 C3 123.7(5) . . ?
C8 C9 C4 120.0(6) . . ?
C8 C9 H5 120.0 . . ?
C4 C9 H5 120.0 . . ?
C6 C5 C4 121.5(6) . . ?
C6 C5 H6 119.3 . . ?
C4 C5 H6 119.3 . . ?
C7 C8 C9 119.6(6) . . ?
C7 C8 H7 120.2 . . ?
C9 C8 H7 120.2 . . ?
C5 C6 C7 118.7(6) . . ?
C5 C6 H8 120.7 . . ?
C7 C6 H8 120.7 . . ?
C8 C7 C6 121.7(6) . . ?
C8 C7 C10 121.5(6) . . ?
C6 C7 C10 116.8(6) . . ?
N2 C10 C7 175.8(8) . . ?
C16 C11 C12 121.0(5) . . ?
C16 C11 C1 117.3(5) . . ?
C12 C11 C1 121.7(5) . . ?
C13 C12 C11 117.5(6) . . ?
C13 C12 H12 121.3 . . ?
C11 C12 H12 121.3 . . ?
C15 C16 C11 119.7(5) . . ?
C15 C16 H13 120.1 . . ?
C11 C16 H13 120.1 . . ?
C14 C13 C12 120.2(6) . . ?
C14 C13 H14 119.9 . . ?
C12 C13 H14 119.9 . . ?
C16 C15 C14 119.5(6) . . ?
C16 C15 H15 120.2 . . ?
C14 C15 H15 120.2 . . ?
C13 C14 C15 122.0(6) . . ?
C13 C14 C17 119.2(6) . . ?
C15 C14 C17 118.8(6) . . ?
N1 C17 C14 179.2(8) . . ?
C10 N2 Ag1 166.6(7) . . ?
C17 N1 Ag1 164.4(6) . 2_654 ?
C3 O2 Fe1 131.5(3) . . ?
C1 O1 Fe1 130.9(3) . . ?
O1 Fe1 O1 87.96(15) 3_565 2_665 ?
O1 Fe1 O1 87.96(15) 3_565 . ?
O1 Fe1 O1 87.96(15) 2_665 . ?
O1 Fe1 O2 100.95(16) 3_565 2_665 ?
O1 Fe1 O2 85.33(15) 2_665 2_665 ?
O1 Fe1 O2 168.62(16) . 2_665 ?
O1 Fe1 O2 85.33(15) 3_565 3_565 ?
O1 Fe1 O2 168.62(16) 2_665 3_565 ?
O1 Fe1 O2 100.95(16) . 3_565 ?
O2 Fe1 O2 86.93(16) 2_665 3_565 ?
O1 Fe1 O2 168.62(16) 3_565 . ?
O1 Fe1 O2 100.95(16) 2_665 . ?
O1 Fe1 O2 85.33(15) . . ?
O2 Fe1 O2 86.93(16) 2_665 . ?
O2 Fe1 O2 86.93(16) 3_565 . ?
N1 Ag1 N2 146.7(3) 3_666 . ?

_diffrn_measured_fraction_theta_max 0.955
_diffrn_reflns_theta_full        27.00
_diffrn_measured_fraction_theta_full 1.000
_refine_diff_density_max         6.518
_refine_diff_density_min         -0.919
_refine_diff_density_rms         0.206

loop_
_platon_squeeze_void_nr
_platon_squeeze_void_average_x
_platon_squeeze_void_average_y
_platon_squeeze_void_average_z
_platon_squeeze_void_volume
_platon_squeeze_void_count_electrons
_platon_squeeze_void_content
1 -0.024 -0.021 -0.003 1183 575 ' '
