####################################################################### 
# 
# This file contains crystal structure data downloaded from the 
# Cambridge Structural Database (CSD) hosted by the Cambridge 
# Crystallographic Data Centre (CCDC).
# 
# Full information about CCDC data access policies and citation 
# guidelines are available at http://www.ccdc.cam.ac.uk/access/V1 
# 
# Audit and citation data items may have been added by the CCDC. 
# Please retain this information to preserve the provenance of 
# this file and to allow appropriate attribution of the data. 
# 
#######################################################################

data_compound_4c_[ZnL3Ag3](ClO4)2
_audit_block_doi                 10.5517/ccv1q2n
_database_code_depnum_ccdc_archive 'CCDC 776211'
loop_
_citation_id
_citation_doi
_citation_year
1 10.1002/chem.201001256 2010
_audit_update_record             
;
2010-05-06 deposited with the CCDC.	2024-07-11 downloaded from the CCDC.
;
#TrackingRef 'Structures.cif'


_diffrn_measurement_domega       0.30
_diffrn_measurement_rtime        30

_chemical_formula_sum            'C51 H27 Ag3 Cl2 N6 O14 Zn'
_chemical_formula_weight         1407.67

loop_
_atom_type_symbol
_atom_type_description
_atom_type_scat_dispersion_real
_atom_type_scat_dispersion_imag
_atom_type_scat_source
C C 0.0033 0.0016 'International Tables Vol C Tables 4.2.6.8 and 6.1.1.4'
H H 0.0000 0.0000 'International Tables Vol C Tables 4.2.6.8 and 6.1.1.4'
N N 0.0061 0.0033 'International Tables Vol C Tables 4.2.6.8 and 6.1.1.4'
O O 0.0106 0.0060 'International Tables Vol C Tables 4.2.6.8 and 6.1.1.4'
Zn Zn 0.2839 1.4301 'International Tables Vol C Tables 4.2.6.8 and 6.1.1.4'
Ag Ag -0.8971 1.1015 'International Tables Vol C Tables 4.2.6.8 and 6.1.1.4'
Cl Cl 0.1484 0.1585 'International Tables Vol C Tables 4.2.6.8 and 6.1.1.4'

_symmetry_cell_setting           Trigonal
_symmetry_space_group_name_H-M   'P-3 '

loop_
_symmetry_equiv_pos_as_xyz
'x, y, z'
'-y, x-y, z'
'-x+y, -x, z'
'-x, -y, -z'
'y, -x+y, -z'
'x-y, x, -z'

_cell_length_a                   15.4572(14)
_cell_length_b                   15.4572(14)
_cell_length_c                   16.483(3)
_cell_angle_alpha                90.00
_cell_angle_beta                 90.00
_cell_angle_gamma                120.00
_cell_volume                     3410.5(7)
_cell_formula_units_Z            2
_cell_measurement_temperature    150(2)
_cell_measurement_reflns_used    10566
_cell_measurement_theta_min      2
_cell_measurement_theta_max      25

_exptl_crystal_description       needle
_exptl_crystal_colour            yellow
_exptl_crystal_size_max          0.40
_exptl_crystal_size_mid          0.20
_exptl_crystal_size_min          0.10
_exptl_crystal_density_diffrn    1.371
_exptl_crystal_density_method    'not measured'
_exptl_crystal_F_000             1384
_exptl_absorpt_coefficient_mu    1.330
_exptl_absorpt_correction_type   multi-scan
_exptl_absorpt_process_details   
'(Sheldrick G.M.(1996), SADABS University of Gottingen,Germany.)'
_exptl_absorpt_correction_T_min  0.84
_exptl_absorpt_correction_T_max  1

_diffrn_ambient_temperature      150(2)
_diffrn_radiation_wavelength     0.71073
_diffrn_radiation_type           MoK\a
_diffrn_radiation_source         'fine-focus sealed tube'
_diffrn_radiation_monochromator  graphite
_diffrn_measurement_method       omega-scan
_diffrn_standards_decay_%        7
_diffrn_reflns_number            52987
_diffrn_reflns_av_R_equivalents  0.0483
_diffrn_reflns_av_sigmaI/netI    0.0318
_diffrn_reflns_limit_h_min       -19
_diffrn_reflns_limit_h_max       19
_diffrn_reflns_limit_k_min       -20
_diffrn_reflns_limit_k_max       20
_diffrn_reflns_limit_l_min       -20
_diffrn_reflns_limit_l_max       21
_diffrn_reflns_theta_min         1.52
_diffrn_reflns_theta_max         28.52
_reflns_number_total             5519
_reflns_number_gt                4167
_reflns_threshold_expression     >2sigma(I)

_computing_structure_solution    SIR97
_computing_structure_refinement  'SHELXL-97 (Sheldrick, 1997)'
_computing_molecular_graphics    TOPOS

_refine_special_details          
;
Refinement of F^2^ against ALL reflections. The weighted R-factor wR and
goodness of fit S are based on F^2^, conventional R-factors R are based
on F, with F set to zero for negative F^2^.
All the crystals tested showed weak diffraction.

The crystal is unstable in air, was collected under mineral oil.
The structure contains disordered solvents and anions.
Because it was difficult to refine a consistent disordered
model, their contribution was subtracted from the observed structure factors
according to the BYPASS procedure, as implemented in PLATON.
van der Sluis, P., Spek, A. L. (1990). Acta Cryst. A46, 194-201.
Spek, A. L. (2003). J. Appl. Cryst. 36, 7-13.

The R before squeeze was: 0.0745 for 4022 Fo > 4sig(Fo)
and 0.1021 for all 5519 data
248 parameters refined using 0 restraints

The ClO4 anion has been refined with total occupancy of
2/3 for the electron neutrality of the whole compound.


;

_refine_ls_structure_factor_coef Fsqd
_refine_ls_matrix_type           full
_refine_ls_weighting_scheme      calc
_refine_ls_weighting_details     
'calc w=1/[\s^2^(Fo^2^)+(0.0653P)^2^+4.6720P] where P=(Fo^2^+2Fc^2^)/3'
_atom_sites_solution_primary     direct
_atom_sites_solution_secondary   difmap
_atom_sites_solution_hydrogens   geom
_refine_ls_hydrogen_treatment    constr
_refine_ls_extinction_method     none
_refine_ls_number_reflns         5519
_refine_ls_number_parameters     247
_refine_ls_number_restraints     21
_refine_ls_R_factor_all          0.0709
_refine_ls_R_factor_gt           0.0509
_refine_ls_wR_factor_all         0.1354
_refine_ls_wR_factor_ref         0.1283
_refine_ls_goodness_of_fit_all   1.068
_refine_ls_restrained_S_all      1.072
_refine_ls_shift/su_max          0.001
_refine_ls_shift/su_mean         0.000

loop_
_atom_site_label
_atom_site_type_symbol
_atom_site_fract_x
_atom_site_fract_y
_atom_site_fract_z
_atom_site_U_iso_or_equiv
_atom_site_adp_type
_atom_site_occupancy
_atom_site_symmetry_multiplicity
_atom_site_calc_flag
_atom_site_refinement_flags
_atom_site_disorder_assembly
_atom_site_disorder_group
C1 C 0.8613(3) 0.4024(3) 0.25836(19) 0.0298(7) Uani 1 1 d . . .
C2 C 0.9111(3) 0.4812(3) 0.2020(2) 0.0367(9) Uani 1 1 d . . .
H2 H 0.9730 0.5348 0.2163 0.044 Uiso 1 1 calc R . .
C3 C 0.8713(3) 0.4828(3) 0.1245(2) 0.0319(8) Uani 1 1 d . . .
C4 C 0.9369(3) 0.5576(3) 0.0619(2) 0.0376(9) Uani 1 1 d . . .
C5 C 0.9008(3) 0.5443(4) -0.0160(2) 0.0473(11) Uani 1 1 d . . .
H5 H 0.8383 0.4900 -0.0278 0.057 Uiso 1 1 calc R . .
C6 C 1.0287(4) 0.6372(4) 0.0789(3) 0.079(2) Uani 1 1 d . . .
H6 H 1.0534 0.6474 0.1316 0.095 Uiso 1 1 calc R . .
C7 C 0.9557(3) 0.6100(4) -0.0771(3) 0.0544(12) Uani 1 1 d . . .
H7 H 0.9301 0.6007 -0.1295 0.065 Uiso 1 1 calc R . .
C8 C 1.0855(4) 0.7032(5) 0.0175(3) 0.092(2) Uani 1 1 d . . .
H8 H 1.1487 0.7568 0.0288 0.111 Uiso 1 1 calc R . .
C9 C 1.0476(3) 0.6885(4) -0.0598(3) 0.0479(11) Uani 1 1 d . . .
C10 C 1.1071(3) 0.7569(4) -0.1235(3) 0.0505(11) Uani 1 1 d . . .
C11 C 0.9169(3) 0.4011(3) 0.3325(2) 0.0320(8) Uani 1 1 d . . .
C12 C 0.8612(3) 0.3529(3) 0.4007(2) 0.0368(8) Uani 1 1 d . . .
H12 H 0.7919 0.3228 0.3994 0.044 Uiso 1 1 calc R . .
C13 C 1.0199(3) 0.4443(4) 0.3343(2) 0.0486(11) Uani 1 1 d . . .
H13 H 1.0574 0.4769 0.2885 0.058 Uiso 1 1 calc R . .
C14 C 0.9086(3) 0.3495(3) 0.4708(2) 0.0416(9) Uani 1 1 d . . .
H14 H 0.8716 0.3182 0.5170 0.050 Uiso 1 1 calc R . .
C15 C 1.0669(4) 0.4390(4) 0.4034(3) 0.0512(11) Uani 1 1 d . . .
H15 H 1.1359 0.4664 0.4040 0.061 Uiso 1 1 calc R . .
C16 C 1.0116(3) 0.3932(3) 0.4716(2) 0.0407(9) Uani 1 1 d . . .
C17 C 1.0608(3) 0.3903(3) 0.5446(2) 0.0463(10) Uani 1 1 d . . .
N1 N 1.1017(3) 0.3917(3) 0.6021(2) 0.0530(10) Uani 1 1 d . . .
N2 N 1.1519(3) 0.8085(3) -0.1741(2) 0.0553(10) Uani 1 1 d . . .
O1 O 0.77250(18) 0.33075(18) 0.25188(13) 0.0296(5) Uani 1 1 d . . .
O2 O 0.78343(18) 0.42346(19) 0.10268(13) 0.0319(5) Uani 1 1 d . . .
O11 O 1.0402(4) 0.7659(5) 0.2567(3) 0.122(3) Uani 0.666 1 d PD . .
O12 O 1.1374(4) 0.8148(5) 0.3710(3) 0.109(3) Uani 0.666 1 d PD . .
O13 O 1.2099(4) 0.8435(5) 0.2453(3) 0.170(5) Uani 0.666 1 d PD . .
O14 O 1.1225(6) 0.6846(5) 0.2945(5) 0.174(5) Uani 0.666 1 d PD . .
Zn1 Zn 0.6667 0.3333 0.17608(4) 0.02385(16) Uani 1 3 d S . .
Ag1 Ag 0.86569(3) 0.59631(3) 0.268041(19) 0.04986(14) Uani 1 1 d . . .
Cl1 Cl 1.12788(17) 0.7781(2) 0.29219(13) 0.1016(10) Uani 0.666 1 d PD . .

loop_
_atom_site_aniso_label
_atom_site_aniso_U_11
_atom_site_aniso_U_22
_atom_site_aniso_U_33
_atom_site_aniso_U_23
_atom_site_aniso_U_13
_atom_site_aniso_U_12
C1 0.0324(19) 0.043(2) 0.0188(15) 0.0013(14) -0.0011(13) 0.0226(17)
C2 0.0303(19) 0.047(2) 0.0241(17) 0.0028(15) -0.0042(14) 0.0131(17)
C3 0.0328(19) 0.039(2) 0.0209(15) 0.0039(14) 0.0032(14) 0.0162(17)
C4 0.0327(19) 0.048(2) 0.0249(17) 0.0099(16) 0.0056(14) 0.0149(18)
C5 0.036(2) 0.069(3) 0.0284(19) 0.0113(19) 0.0021(16) 0.020(2)
C6 0.059(3) 0.082(4) 0.034(2) 0.017(2) -0.005(2) -0.011(3)
C7 0.045(3) 0.082(3) 0.030(2) 0.021(2) 0.0092(18) 0.027(2)
C8 0.061(3) 0.099(5) 0.050(3) 0.033(3) 0.002(3) -0.011(3)
C9 0.047(2) 0.061(3) 0.036(2) 0.0198(19) 0.0194(18) 0.027(2)
C10 0.049(3) 0.060(3) 0.045(2) 0.016(2) 0.019(2) 0.028(2)
C11 0.0347(19) 0.041(2) 0.0253(16) -0.0017(14) -0.0051(14) 0.0226(17)
C12 0.039(2) 0.040(2) 0.0270(17) 0.0037(15) -0.0067(15) 0.0165(18)
C13 0.041(2) 0.080(3) 0.0275(18) 0.0000(19) -0.0055(16) 0.032(2)
C14 0.054(3) 0.041(2) 0.0264(18) 0.0051(16) -0.0087(17) 0.022(2)
C15 0.048(2) 0.083(3) 0.036(2) -0.006(2) -0.0117(18) 0.043(3)
C16 0.054(2) 0.046(2) 0.0308(19) -0.0101(16) -0.0196(17) 0.031(2)
C17 0.058(3) 0.051(3) 0.037(2) -0.0109(18) -0.0195(19) 0.033(2)
N1 0.066(2) 0.062(2) 0.0383(19) -0.0090(17) -0.0235(18) 0.038(2)
N2 0.062(2) 0.066(3) 0.044(2) 0.0226(19) 0.0293(19) 0.037(2)
O1 0.0324(13) 0.0358(13) 0.0209(11) 0.0034(9) -0.0023(9) 0.0173(11)
O2 0.0292(13) 0.0412(14) 0.0171(11) 0.0046(10) -0.0006(9) 0.0115(11)
O11 0.075(4) 0.122(6) 0.075(4) 0.030(4) -0.032(4) -0.021(4)
O12 0.081(5) 0.130(6) 0.065(4) -0.002(4) -0.018(3) 0.015(4)
O13 0.107(6) 0.201(10) 0.067(5) 0.055(6) 0.000(4) -0.023(6)
O14 0.206(11) 0.063(5) 0.200(11) -0.035(6) -0.003(9) 0.027(6)
Zn1 0.0284(2) 0.0284(2) 0.0148(3) 0.000 0.000 0.01420(11)
Ag1 0.0637(2) 0.0555(2) 0.03359(18) -0.00096(14) -0.02108(14) 0.03221(18)
Cl1 0.0639(14) 0.113(2) 0.0620(13) 0.0161(13) -0.0147(11) -0.0056(14)

_geom_special_details            
;
All esds (except the esd in the dihedral angle between two l.s. planes)
are estimated using the full covariance matrix. The cell esds are taken
into account individually in the estimation of esds in distances, angles
and torsion angles; correlations between esds in cell parameters are only
used when they are defined by crystal symmetry. An approximate (isotropic)
treatment of cell esds is used for estimating esds involving l.s. planes.
;

loop_
_geom_bond_atom_site_label_1
_geom_bond_atom_site_label_2
_geom_bond_distance
_geom_bond_site_symmetry_2
_geom_bond_publ_flag
C1 O1 1.266(4) . ?
C1 C2 1.415(5) . ?
C1 C11 1.501(5) . ?
C2 C3 1.423(5) . ?
C2 Ag1 2.467(4) . ?
C2 H2 0.9300 . ?
C3 O2 1.253(4) . ?
C3 C4 1.502(5) . ?
C4 C6 1.363(6) . ?
C4 C5 1.375(5) . ?
C5 C7 1.380(6) . ?
C5 H5 0.9300 . ?
C6 C8 1.393(7) . ?
C6 H6 0.9300 . ?
C7 C9 1.360(7) . ?
C7 H7 0.9300 . ?
C8 C9 1.374(7) . ?
C8 H8 0.9300 . ?
C9 C10 1.447(6) . ?
C10 N2 1.123(5) . ?
C11 C13 1.384(5) . ?
C11 C12 1.386(5) . ?
C12 C14 1.383(5) . ?
C12 H12 0.9300 . ?
C13 C15 1.375(5) . ?
C13 H13 0.9300 . ?
C14 C16 1.384(6) . ?
C14 H14 0.9300 . ?
C15 C16 1.376(6) . ?
C15 H15 0.9300 . ?
C16 C17 1.435(5) . ?
C17 N1 1.135(5) . ?
N1 Ag1 2.185(4) 4_766 ?
N2 Ag1 2.206(3) 6_655 ?
O1 Zn1 2.075(2) . ?
O2 Zn1 2.037(2) . ?
O11 Cl1 1.399(4) . ?
O12 Cl1 1.396(5) . ?
O13 Cl1 1.394(5) . ?
O14 Cl1 1.406(5) . ?
Zn1 O2 2.037(2) 3_665 ?
Zn1 O2 2.037(2) 2_655 ?
Zn1 O1 2.075(2) 3_665 ?
Zn1 O1 2.075(2) 2_655 ?
Ag1 N1 2.185(4) 4_766 ?
Ag1 N2 2.206(3) 5_565 ?

loop_
_geom_angle_atom_site_label_1
_geom_angle_atom_site_label_2
_geom_angle_atom_site_label_3
_geom_angle
_geom_angle_site_symmetry_1
_geom_angle_site_symmetry_3
_geom_angle_publ_flag
O1 C1 C2 125.7(3) . . ?
O1 C1 C11 115.8(3) . . ?
C2 C1 C11 118.6(3) . . ?
C1 C2 C3 123.4(3) . . ?
C1 C2 Ag1 95.9(2) . . ?
C3 C2 Ag1 95.9(3) . . ?
C1 C2 H2 118.3 . . ?
C3 C2 H2 118.3 . . ?
Ag1 C2 H2 77.5 . . ?
O2 C3 C2 124.3(3) . . ?
O2 C3 C4 115.7(3) . . ?
C2 C3 C4 119.9(3) . . ?
C6 C4 C5 119.3(4) . . ?
C6 C4 C3 123.4(3) . . ?
C5 C4 C3 117.3(4) . . ?
C4 C5 C7 121.2(4) . . ?
C4 C5 H5 119.4 . . ?
C7 C5 H5 119.4 . . ?
C4 C6 C8 120.1(4) . . ?
C4 C6 H6 119.9 . . ?
C8 C6 H6 119.9 . . ?
C9 C7 C5 119.2(4) . . ?
C9 C7 H7 120.4 . . ?
C5 C7 H7 120.4 . . ?
C9 C8 C6 119.5(5) . . ?
C9 C8 H8 120.3 . . ?
C6 C8 H8 120.3 . . ?
C7 C9 C8 120.8(4) . . ?
C7 C9 C10 119.9(4) . . ?
C8 C9 C10 119.3(4) . . ?
N2 C10 C9 178.5(6) . . ?
C13 C11 C12 119.9(3) . . ?
C13 C11 C1 122.6(3) . . ?
C12 C11 C1 117.5(3) . . ?
C14 C12 C11 119.9(4) . . ?
C14 C12 H12 120.1 . . ?
C11 C12 H12 120.1 . . ?
C15 C13 C11 120.2(4) . . ?
C15 C13 H13 119.9 . . ?
C11 C13 H13 119.9 . . ?
C12 C14 C16 119.5(4) . . ?
C12 C14 H14 120.2 . . ?
C16 C14 H14 120.2 . . ?
C13 C15 C16 119.8(4) . . ?
C13 C15 H15 120.1 . . ?
C16 C15 H15 120.1 . . ?
C15 C16 C14 120.6(3) . . ?
C15 C16 C17 119.9(4) . . ?
C14 C16 C17 119.4(4) . . ?
N1 C17 C16 177.5(5) . . ?
C17 N1 Ag1 157.4(4) . 4_766 ?
C10 N2 Ag1 154.0(4) . 6_655 ?
C1 O1 Zn1 123.7(2) . . ?
C3 O2 Zn1 126.6(2) . . ?
O2 Zn1 O2 88.32(9) 3_665 . ?
O2 Zn1 O2 88.32(9) 3_665 2_655 ?
O2 Zn1 O2 88.32(9) . 2_655 ?
O2 Zn1 O1 98.78(10) 3_665 . ?
O2 Zn1 O1 86.17(9) . . ?
O2 Zn1 O1 170.87(10) 2_655 . ?
O2 Zn1 O1 86.17(9) 3_665 3_665 ?
O2 Zn1 O1 170.87(10) . 3_665 ?
O2 Zn1 O1 98.78(10) 2_655 3_665 ?
O1 Zn1 O1 87.48(10) . 3_665 ?
O2 Zn1 O1 170.87(10) 3_665 2_655 ?
O2 Zn1 O1 98.78(10) . 2_655 ?
O2 Zn1 O1 86.17(9) 2_655 2_655 ?
O1 Zn1 O1 87.48(10) . 2_655 ?
O1 Zn1 O1 87.48(10) 3_665 2_655 ?
N1 Ag1 N2 140.82(15) 4_766 5_565 ?
N1 Ag1 C2 110.90(13) 4_766 . ?
N2 Ag1 C2 108.25(14) 5_565 . ?
O13 Cl1 O12 110.4(3) . . ?
O13 Cl1 O11 109.5(3) . . ?
O12 Cl1 O11 110.0(3) . . ?
O13 Cl1 O14 109.0(3) . . ?
O12 Cl1 O14 109.4(3) . . ?
O11 Cl1 O14 108.4(3) . . ?

_diffrn_measured_fraction_theta_max 0.955
_diffrn_reflns_theta_full        27.00
_diffrn_measured_fraction_theta_full 1.000
_refine_diff_density_max         1.910
_refine_diff_density_min         -1.219
_refine_diff_density_rms         0.096

loop_
_platon_squeeze_void_nr
_platon_squeeze_void_average_x
_platon_squeeze_void_average_y
_platon_squeeze_void_average_z
_platon_squeeze_void_volume
_platon_squeeze_void_count_electrons
_platon_squeeze_void_content
1 0.000 0.000 -0.004 757 152 ' '
2 0.333 0.667 0.261 162 53 ' '
3 0.667 0.333 0.739 162 50 ' '
