####################################################################### 
# 
# This file contains crystal structure data downloaded from the 
# Cambridge Structural Database (CSD) hosted by the Cambridge 
# Crystallographic Data Centre (CCDC).
# 
# Full information about CCDC data access policies and citation 
# guidelines are available at http://www.ccdc.cam.ac.uk/access/V1 
# 
# Audit and citation data items may have been added by the CCDC. 
# Please retain this information to preserve the provenance of 
# this file and to allow appropriate attribution of the data. 
# 
#######################################################################

data_Compound_4e_[ZnL3Ag3](PF6)2
_audit_block_doi                 10.5517/ccv1q3p
_database_code_depnum_ccdc_archive 'CCDC 776212'
loop_
_citation_id
_citation_doi
_citation_year
1 10.1002/chem.201001256 2010
_audit_update_record             
;
2010-05-06 deposited with the CCDC.	2024-07-11 downloaded from the CCDC.
;
#TrackingRef 'Structures.cif'


_diffrn_measurement_domega       0.30
_diffrn_measurement_rtime        30

_chemical_formula_sum            'C51 H27 Ag3 F12 N6 O6 P2 Zn'
_chemical_formula_weight         1498.71

loop_
_atom_type_symbol
_atom_type_description
_atom_type_scat_dispersion_real
_atom_type_scat_dispersion_imag
_atom_type_scat_source
C C 0.0033 0.0016 'International Tables Vol C Tables 4.2.6.8 and 6.1.1.4'
H H 0.0000 0.0000 'International Tables Vol C Tables 4.2.6.8 and 6.1.1.4'
N N 0.0061 0.0033 'International Tables Vol C Tables 4.2.6.8 and 6.1.1.4'
O O 0.0106 0.0060 'International Tables Vol C Tables 4.2.6.8 and 6.1.1.4'
F F 0.0171 0.0103 'International Tables Vol C Tables 4.2.6.8 and 6.1.1.4'
P P 0.1023 0.0942 'International Tables Vol C Tables 4.2.6.8 and 6.1.1.4'
Zn Zn 0.2839 1.4301 'International Tables Vol C Tables 4.2.6.8 and 6.1.1.4'
Ag Ag -0.8971 1.1015 'International Tables Vol C Tables 4.2.6.8 and 6.1.1.4'

_symmetry_cell_setting           Trigonal
_symmetry_space_group_name_H-M   'P-3 '

loop_
_symmetry_equiv_pos_as_xyz
'x, y, z'
'-y, x-y, z'
'-x+y, -x, z'
'-x, -y, -z'
'y, -x+y, -z'
'x-y, x, -z'

_cell_length_a                   15.4582(12)
_cell_length_b                   15.4582(12)
_cell_length_c                   16.5235(18)
_cell_angle_alpha                90.00
_cell_angle_beta                 90.00
_cell_angle_gamma                120.00
_cell_volume                     3419.4(5)
_cell_formula_units_Z            2
_cell_measurement_temperature    120(2)
_cell_measurement_reflns_used    10522
_cell_measurement_theta_min      2
_cell_measurement_theta_max      24

_exptl_crystal_description       needle
_exptl_crystal_colour            yellow
_exptl_crystal_size_max          0.5
_exptl_crystal_size_mid          0.45
_exptl_crystal_size_min          0.4
_exptl_crystal_density_diffrn    1.456
_exptl_crystal_density_method    'not measured'
_exptl_crystal_F_000             1464
_exptl_absorpt_coefficient_mu    1.316
_exptl_absorpt_correction_type   multi-scan
_exptl_absorpt_process_details   
'(Sheldrick G.M.(1996), SADABS University of Gottingen,Germany.)'
_exptl_absorpt_correction_T_min  0.90
_exptl_absorpt_correction_T_max  1

_diffrn_ambient_temperature      120(2)
_diffrn_radiation_wavelength     0.71073
_diffrn_radiation_type           MoK\a
_diffrn_radiation_source         'fine-focus sealed tube'
_diffrn_radiation_monochromator  graphite
_diffrn_measurement_method       omega-scan
_diffrn_standards_decay_%        0
_diffrn_reflns_number            49818
_diffrn_reflns_av_R_equivalents  0.0462
_diffrn_reflns_av_sigmaI/netI    0.0327
_diffrn_reflns_limit_h_min       -19
_diffrn_reflns_limit_h_max       20
_diffrn_reflns_limit_k_min       -20
_diffrn_reflns_limit_k_max       20
_diffrn_reflns_limit_l_min       -21
_diffrn_reflns_limit_l_max       21
_diffrn_reflns_theta_min         1.23
_diffrn_reflns_theta_max         28.52
_reflns_number_total             5530
_reflns_number_gt                3931
_reflns_threshold_expression     >2sigma(I)

_computing_structure_solution    SIR97
_computing_structure_refinement  'SHELXL-97 (Sheldrick, 1997)'
_computing_molecular_graphics    TOPOS

_refine_special_details          
;
Refinement of F^2^ against ALL reflections. The weighted R-factor wR and
goodness of fit S are based on F^2^, conventional R-factors R are based
on F, with F set to zero for negative F^2^.
Structure presents high porosity in which counteranions and solvent molecules
result strongly disordered, hence the very large solvent acessible voids.

One PF6 counteranion is disordered on three position, while the second PF6
is strongly disordered and cannot be located. Nonetheless we report both PF6
anions in the formula for the electron neutrality of the whole compound. We
have also reported the correct molecular weight for this compounds, this
produced the CHEMW03_ALERT_2_A ALERT.

The crystal is unstable in air, was collected under mineral oil.
The structure contains disordered solvents and anions.
Because it was difficult to refine a consistent disordered
model, their contribution was subtracted from the observed structure factors
according to the BYPASS procedure, as implemented in PLATON.
van der Sluis, P., Spek, A. L. (1990). Acta Cryst. A46, 194-201.
Spek, A. L. (2003). J. Appl. Cryst. 36, 7-13.

The R before squeeze was: 0.0863 for 3809 Fo > 4sig(Fo)
and 0.1196 for all 5530 data
256 parameters refined using 31 restraints



Only one PF6 is visible
;

_refine_ls_structure_factor_coef Fsqd
_refine_ls_matrix_type           full
_refine_ls_weighting_scheme      calc
_refine_ls_weighting_details     
'calc w=1/[\s^2^(Fo^2^)+(0.1232P)^2^+0.0000P] where P=(Fo^2^+2Fc^2^)/3'
_atom_sites_solution_primary     direct
_atom_sites_solution_secondary   difmap
_atom_sites_solution_hydrogens   geom
_refine_ls_hydrogen_treatment    constr
_refine_ls_extinction_method     none
_refine_ls_number_reflns         5530
_refine_ls_number_parameters     256
_refine_ls_number_restraints     31
_refine_ls_R_factor_all          0.0768
_refine_ls_R_factor_gt           0.0548
_refine_ls_wR_factor_all         0.1799
_refine_ls_wR_factor_ref         0.1687
_refine_ls_goodness_of_fit_all   1.022
_refine_ls_restrained_S_all      1.041
_refine_ls_shift/su_max          0.000
_refine_ls_shift/su_mean         0.000

loop_
_atom_site_label
_atom_site_type_symbol
_atom_site_fract_x
_atom_site_fract_y
_atom_site_fract_z
_atom_site_U_iso_or_equiv
_atom_site_adp_type
_atom_site_occupancy
_atom_site_symmetry_multiplicity
_atom_site_calc_flag
_atom_site_refinement_flags
_atom_site_disorder_assembly
_atom_site_disorder_group
C1 C 0.6025(3) 0.4617(3) -0.2391(2) 0.0346(8) Uani 1 1 d . . .
C2 C 0.5247(3) 0.4371(3) -0.2951(2) 0.0396(9) Uani 1 1 d . . .
H2 H 0.4732 0.4489 -0.2810 0.048 Uiso 1 1 calc R . .
C3 C 0.5219(3) 0.3944(3) -0.3732(2) 0.0382(8) Uani 1 1 d . . .
C4 C 0.4481(3) 0.3871(3) -0.4355(2) 0.0407(9) Uani 1 1 d . . .
C5 C 0.4550(4) 0.3554(4) -0.5113(3) 0.0558(12) Uani 1 1 d . . .
H5 H 0.5051 0.3404 -0.5224 0.067 Uiso 1 1 calc R . .
C6 C 0.3738(5) 0.4097(7) -0.4214(3) 0.0838(19) Uani 1 1 d . . .
H6 H 0.3683 0.4319 -0.3704 0.101 Uiso 1 1 calc R . .
C7 C 0.3880(4) 0.3453(4) -0.5725(3) 0.0619(14) Uani 1 1 d . . .
H7 H 0.3928 0.3230 -0.6236 0.074 Uiso 1 1 calc R . .
C8 C 0.3075(5) 0.4003(6) -0.4810(3) 0.088(2) Uani 1 1 d . . .
H8 H 0.2575 0.4155 -0.4704 0.105 Uiso 1 1 calc R . .
C9 C 0.3163(4) 0.3683(3) -0.5564(3) 0.0547(12) Uani 1 1 d . . .
C10 C 0.2475(4) 0.3587(3) -0.6187(3) 0.0575(12) Uani 1 1 d . . .
C11 C 0.6041(3) 0.5168(3) -0.1647(2) 0.0391(9) Uani 1 1 d . . .
C12 C 0.6492(3) 0.5060(3) -0.0959(2) 0.0442(10) Uani 1 1 d . . .
H12 H 0.6785 0.4660 -0.0978 0.053 Uiso 1 1 calc R . .
C13 C 0.5640(5) 0.5791(4) -0.1621(3) 0.0625(14) Uani 1 1 d . . .
H13 H 0.5343 0.5874 -0.2081 0.075 Uiso 1 1 calc R . .
C14 C 0.6515(4) 0.5539(4) -0.0242(3) 0.0502(11) Uani 1 1 d . . .
H14 H 0.6795 0.5445 0.0224 0.060 Uiso 1 1 calc R . .
C15 C 0.5677(5) 0.6295(4) -0.0914(3) 0.0693(16) Uani 1 1 d . . .
H15 H 0.5412 0.6719 -0.0899 0.083 Uiso 1 1 calc R . .
C16 C 0.6109(4) 0.6158(4) -0.0240(3) 0.0533(12) Uani 1 1 d . . .
C17 C 0.6132(4) 0.6669(4) 0.0503(3) 0.0583(13) Uani 1 1 d . . .
N1 N 0.6126(4) 0.7057(3) 0.1079(2) 0.0646(12) Uani 1 1 d . . .
N2 N 0.1941(3) 0.3502(3) -0.6706(2) 0.0582(11) Uani 1 1 d . . .
O1 O 0.6725(2) 0.44236(19) -0.24588(14) 0.0343(6) Uani 1 1 d . . .
O2 O 0.5803(2) 0.3649(2) -0.39588(14) 0.0373(6) Uani 1 1 d . . .
F11 F 0.3375(6) 0.4470(6) -0.2526(5) 0.093(3) Uani 0.3333 1 d PD . .
F12 F 0.3994(6) 0.6252(4) -0.2583(4) 0.141(3) Uani 0.6667 1 d PD . .
F13 F 0.2857(6) 0.5212(6) -0.1513(4) 0.099(4) Uani 0.3333 1 d PD . .
F14 F 0.2788(6) 0.5134(6) -0.3571(4) 0.078(3) Uani 0.3333 1 d PD . .
F15 F 0.1677(6) 0.4112(6) -0.2515(5) 0.083(3) Uani 0.3333 1 d PD . .
P1 P 0.2759(3) 0.5115(3) -0.2521(3) 0.0697(12) Uani 0.3333 1 d PD . .
Zn1 Zn 0.6667 0.3333 -0.32174(4) 0.0293(2) Uani 1 3 d S . .
Ag1 Ag 0.40088(3) 0.27331(3) -0.23721(2) 0.05747(18) Uani 1 1 d . . .

loop_
_atom_site_aniso_label
_atom_site_aniso_U_11
_atom_site_aniso_U_22
_atom_site_aniso_U_33
_atom_site_aniso_U_23
_atom_site_aniso_U_13
_atom_site_aniso_U_12
C1 0.043(2) 0.038(2) 0.0246(17) -0.0012(14) 0.0016(14) 0.0222(17)
C2 0.051(2) 0.051(2) 0.0266(17) 0.0011(16) 0.0012(16) 0.032(2)
C3 0.047(2) 0.040(2) 0.0276(18) 0.0032(15) -0.0037(16) 0.0219(18)
C4 0.048(2) 0.042(2) 0.036(2) 0.0017(16) -0.0089(17) 0.0252(19)
C5 0.077(3) 0.063(3) 0.045(2) -0.018(2) -0.025(2) 0.047(3)
C6 0.080(4) 0.160(6) 0.040(3) -0.009(3) -0.013(3) 0.081(4)
C7 0.089(4) 0.064(3) 0.049(3) -0.015(2) -0.031(3) 0.050(3)
C8 0.084(4) 0.159(7) 0.056(3) 0.004(4) -0.014(3) 0.088(5)
C9 0.062(3) 0.047(2) 0.049(3) 0.009(2) -0.022(2) 0.023(2)
C10 0.060(3) 0.048(3) 0.058(3) 0.007(2) -0.020(2) 0.022(2)
C11 0.049(2) 0.044(2) 0.0262(19) -0.0010(15) 0.0060(15) 0.0238(19)
C12 0.049(2) 0.055(3) 0.034(2) -0.0121(17) -0.0001(17) 0.030(2)
C13 0.109(4) 0.080(4) 0.031(2) -0.005(2) 0.000(2) 0.072(3)
C14 0.058(3) 0.064(3) 0.030(2) -0.0168(19) -0.0064(18) 0.032(2)
C15 0.118(5) 0.077(4) 0.042(3) -0.007(2) 0.004(3) 0.071(4)
C16 0.069(3) 0.053(3) 0.033(2) -0.0098(18) 0.015(2) 0.027(2)
C17 0.074(3) 0.053(3) 0.044(3) -0.008(2) 0.018(2) 0.029(3)
N1 0.091(3) 0.062(3) 0.037(2) -0.0091(18) 0.019(2) 0.036(2)
N2 0.063(2) 0.053(2) 0.054(2) 0.0070(18) -0.022(2) 0.026(2)
O1 0.0435(14) 0.0437(15) 0.0182(11) -0.0036(10) 0.0001(10) 0.0236(12)
O2 0.0477(15) 0.0476(16) 0.0208(12) 0.0007(10) -0.0015(10) 0.0272(13)
F11 0.095(8) 0.107(9) 0.088(7) -0.024(6) -0.037(6) 0.059(7)
F12 0.208(8) 0.083(4) 0.120(6) -0.008(4) -0.067(6) 0.064(5)
F13 0.072(6) 0.120(9) 0.080(7) 0.044(7) -0.011(5) 0.030(6)
F14 0.079(6) 0.083(7) 0.054(5) -0.001(5) -0.012(5) 0.028(5)
F15 0.071(6) 0.115(8) 0.060(6) 0.002(5) -0.009(5) 0.042(6)
P1 0.067(3) 0.083(3) 0.051(2) -0.001(2) 0.0080(19) 0.031(2)
Zn1 0.0367(3) 0.0367(3) 0.0145(3) 0.000 0.000 0.01835(13)
Ag1 0.0705(3) 0.0565(3) 0.0341(2) -0.01315(14) 0.01344(15) 0.02333(19)

_geom_special_details            
;
All esds (except the esd in the dihedral angle between two l.s. planes)
are estimated using the full covariance matrix. The cell esds are taken
into account individually in the estimation of esds in distances, angles
and torsion angles; correlations between esds in cell parameters are only
used when they are defined by crystal symmetry. An approximate (isotropic)
treatment of cell esds is used for estimating esds involving l.s. planes.
;

loop_
_geom_bond_atom_site_label_1
_geom_bond_atom_site_label_2
_geom_bond_distance
_geom_bond_site_symmetry_2
_geom_bond_publ_flag
C1 O1 1.263(5) . ?
C1 C2 1.411(5) . ?
C1 C11 1.489(5) . ?
C2 C3 1.439(5) . ?
C2 Ag1 2.478(4) . ?
C2 H2 0.9300 . ?
C3 O2 1.257(5) . ?
C3 C4 1.498(5) . ?
C4 C5 1.370(6) . ?
C4 C6 1.378(7) . ?
C5 C7 1.399(6) . ?
C5 H5 0.9300 . ?
C6 C8 1.376(7) . ?
C6 H6 0.9300 . ?
C7 C9 1.348(7) . ?
C7 H7 0.9300 . ?
C8 C9 1.371(8) . ?
C8 H8 0.9300 . ?
C9 C10 1.433(6) . ?
C10 N2 1.151(6) . ?
C11 C13 1.383(6) . ?
C11 C12 1.387(6) . ?
C12 C14 1.388(5) . ?
C12 H12 0.9300 . ?
C13 C15 1.389(6) . ?
C13 H13 0.9300 . ?
C14 C16 1.381(7) . ?
C14 H14 0.9300 . ?
C15 C16 1.369(7) . ?
C15 H15 0.9300 . ?
C16 C17 1.451(6) . ?
C17 N1 1.128(5) . ?
N1 Ag1 2.186(4) 4_665 ?
N2 Ag1 2.191(4) 6_554 ?
O1 Zn1 2.066(2) . ?
O2 Zn1 2.042(3) . ?
F11 P1 1.688(7) . ?
F12 P1 1.841(8) . ?
F12 P1 1.890(7) 2_665 ?
F13 P1 1.672(9) . ?
F14 P1 1.735(8) . ?
F15 P1 1.614(9) . ?
P1 F12 1.890(7) 3_565 ?
Zn1 O2 2.042(3) 2_655 ?
Zn1 O2 2.042(3) 3_665 ?
Zn1 O1 2.066(2) 3_665 ?
Zn1 O1 2.066(2) 2_655 ?
Ag1 N1 2.186(4) 4_665 ?
Ag1 N2 2.191(4) 5_554 ?

loop_
_geom_angle_atom_site_label_1
_geom_angle_atom_site_label_2
_geom_angle_atom_site_label_3
_geom_angle
_geom_angle_site_symmetry_1
_geom_angle_site_symmetry_3
_geom_angle_publ_flag
O1 C1 C2 126.4(3) . . ?
O1 C1 C11 115.9(3) . . ?
C2 C1 C11 117.7(3) . . ?
C1 C2 C3 122.5(4) . . ?
C1 C2 Ag1 98.1(2) . . ?
C3 C2 Ag1 92.7(3) . . ?
C1 C2 H2 118.7 . . ?
C3 C2 H2 118.7 . . ?
Ag1 C2 H2 78.7 . . ?
O2 C3 C2 124.9(3) . . ?
O2 C3 C4 115.2(3) . . ?
C2 C3 C4 119.9(4) . . ?
C5 C4 C6 118.0(4) . . ?
C5 C4 C3 117.6(4) . . ?
C6 C4 C3 124.4(4) . . ?
C4 C5 C7 121.0(5) . . ?
C4 C5 H5 119.5 . . ?
C7 C5 H5 119.5 . . ?
C8 C6 C4 121.6(5) . . ?
C8 C6 H6 119.2 . . ?
C4 C6 H6 119.2 . . ?
C9 C7 C5 119.3(5) . . ?
C9 C7 H7 120.4 . . ?
C5 C7 H7 120.4 . . ?
C9 C8 C6 119.0(5) . . ?
C9 C8 H8 120.5 . . ?
C6 C8 H8 120.5 . . ?
C7 C9 C8 121.1(4) . . ?
C7 C9 C10 119.7(5) . . ?
C8 C9 C10 119.1(5) . . ?
N2 C10 C9 177.6(6) . . ?
C13 C11 C12 119.1(4) . . ?
C13 C11 C1 122.6(4) . . ?
C12 C11 C1 118.3(4) . . ?
C11 C12 C14 120.9(4) . . ?
C11 C12 H12 119.5 . . ?
C14 C12 H12 119.5 . . ?
C11 C13 C15 120.7(5) . . ?
C11 C13 H13 119.7 . . ?
C15 C13 H13 119.7 . . ?
C16 C14 C12 118.2(4) . . ?
C16 C14 H14 120.9 . . ?
C12 C14 H14 120.9 . . ?
C16 C15 C13 118.9(5) . . ?
C16 C15 H15 120.6 . . ?
C13 C15 H15 120.6 . . ?
C15 C16 C14 122.1(4) . . ?
C15 C16 C17 119.0(5) . . ?
C14 C16 C17 118.9(5) . . ?
N1 C17 C16 178.4(6) . . ?
C17 N1 Ag1 158.5(4) . 4_665 ?
C10 N2 Ag1 156.2(4) . 6_554 ?
C1 O1 Zn1 123.7(2) . . ?
C3 O2 Zn1 125.6(2) . . ?
P1 F12 P1 154.4(5) . 2_665 ?
F15 P1 F13 94.8(4) . . ?
F15 P1 F11 93.1(3) . . ?
F13 P1 F11 90.3(3) . . ?
F15 P1 F14 91.6(4) . . ?
F13 P1 F14 173.6(5) . . ?
F11 P1 F14 89.3(3) . . ?
F15 P1 F12 177.2(5) . . ?
F13 P1 F12 88.0(4) . . ?
F11 P1 F12 86.7(3) . . ?
F14 P1 F12 85.6(3) . . ?
F15 P1 F12 95.4(5) . 3_565 ?
F13 P1 F12 92.2(4) . 3_565 ?
F11 P1 F12 170.9(5) . 3_565 ?
F14 P1 F12 87.2(3) . 3_565 ?
F12 P1 F12 84.7(5) . 3_565 ?
O2 Zn1 O2 87.71(10) 2_655 . ?
O2 Zn1 O2 87.71(10) 2_655 3_665 ?
O2 Zn1 O2 87.71(10) . 3_665 ?
O2 Zn1 O1 99.81(10) 2_655 3_665 ?
O2 Zn1 O1 170.21(11) . 3_665 ?
O2 Zn1 O1 86.35(10) 3_665 3_665 ?
O2 Zn1 O1 170.21(11) 2_655 . ?
O2 Zn1 O1 86.34(10) . . ?
O2 Zn1 O1 99.81(11) 3_665 . ?
O1 Zn1 O1 87.01(10) 3_665 . ?
O2 Zn1 O1 86.34(10) 2_655 2_655 ?
O2 Zn1 O1 99.81(10) . 2_655 ?
O2 Zn1 O1 170.21(11) 3_665 2_655 ?
O1 Zn1 O1 87.01(10) 3_665 2_655 ?
O1 Zn1 O1 87.02(10) . 2_655 ?
N1 Ag1 N2 141.35(17) 4_665 5_554 ?
N1 Ag1 C2 107.94(15) 4_665 . ?
N2 Ag1 C2 110.53(15) 5_554 . ?

_diffrn_measured_fraction_theta_max 0.954
_diffrn_reflns_theta_full        27.00
_diffrn_measured_fraction_theta_full 0.999
_refine_diff_density_max         1.602
_refine_diff_density_min         -0.648
_refine_diff_density_rms         0.122
