####################################################################### 
# 
# This file contains crystal structure data downloaded from the 
# Cambridge Structural Database (CSD) hosted by the Cambridge 
# Crystallographic Data Centre (CCDC).
# 
# Full information about CCDC data access policies and citation 
# guidelines are available at http://www.ccdc.cam.ac.uk/access/V1 
# 
# Audit and citation data items may have been added by the CCDC. 
# Please retain this information to preserve the provenance of 
# this file and to allow appropriate attribution of the data. 
# 
#######################################################################

data_Compound_4k_[CdL3Ag3](BF4)2
_audit_block_doi                 10.5517/ccv1q6s
_database_code_depnum_ccdc_archive 'CCDC 776215'
loop_
_citation_id
_citation_doi
_citation_year
1 10.1002/chem.201001256 2010
_audit_update_record             
;
2010-05-06 deposited with the CCDC.	2024-07-11 downloaded from the CCDC.
;
#TrackingRef 'Structures.cif'


_diffrn_measurement_domega       0.30
_diffrn_measurement_rtime        30

_chemical_formula_sum            'C51 H27 Ag3 B2 Cd F8 N6 O6'
_chemical_formula_weight         1429.42

loop_
_atom_type_symbol
_atom_type_description
_atom_type_scat_dispersion_real
_atom_type_scat_dispersion_imag
_atom_type_scat_source
C C 0.0033 0.0016 'International Tables Vol C Tables 4.2.6.8 and 6.1.1.4'
H H 0.0000 0.0000 'International Tables Vol C Tables 4.2.6.8 and 6.1.1.4'
N N 0.0061 0.0033 'International Tables Vol C Tables 4.2.6.8 and 6.1.1.4'
O O 0.0106 0.0060 'International Tables Vol C Tables 4.2.6.8 and 6.1.1.4'
Ag Ag -0.8971 1.1015 'International Tables Vol C Tables 4.2.6.8 and 6.1.1.4'
Cd Cd -0.8075 1.2024 'International Tables Vol C Tables 4.2.6.8 and 6.1.1.4'
B B 0.0013 0.0007 'International Tables Vol C Tables 4.2.6.8 and 6.1.1.4'
F F 0.0171 0.0103 'International Tables Vol C Tables 4.2.6.8 and 6.1.1.4'

_symmetry_cell_setting           Trigonal
_symmetry_space_group_name_H-M   'P-3 '

loop_
_symmetry_equiv_pos_as_xyz
'x, y, z'
'-y, x-y, z'
'-x+y, -x, z'
'-x, -y, -z'
'y, -x+y, -z'
'x-y, x, -z'

_cell_length_a                   15.939(2)
_cell_length_b                   15.939(2)
_cell_length_c                   16.463(5)
_cell_angle_alpha                90.00
_cell_angle_beta                 90.00
_cell_angle_gamma                120.00
_cell_volume                     3622.4(13)
_cell_formula_units_Z            2
_cell_measurement_temperature    150(2)
_cell_measurement_reflns_used    12034
_cell_measurement_theta_min      2
_cell_measurement_theta_max      23

_exptl_crystal_description       needle
_exptl_crystal_colour            yellow
_exptl_crystal_size_max          0.40
_exptl_crystal_size_mid          0.25
_exptl_crystal_size_min          0.15
_exptl_crystal_density_diffrn    1.311
_exptl_crystal_density_method    'not measured'
_exptl_crystal_F_000             1388
_exptl_absorpt_coefficient_mu    1.148
_exptl_absorpt_correction_type   multi-scan
_exptl_absorpt_process_details   
'(Sheldrick G.M.(1996), SADABS University of Gottingen,Germany.)'
_exptl_absorpt_correction_T_min  0.72
_exptl_absorpt_correction_T_max  1

_diffrn_ambient_temperature      150(2)
_diffrn_radiation_wavelength     0.71073
_diffrn_radiation_type           MoK\a
_diffrn_radiation_source         'fine-focus sealed tube'
_diffrn_radiation_monochromator  graphite
_diffrn_measurement_method       omega-scan
_diffrn_standards_decay_%        0
_diffrn_reflns_number            38076
_diffrn_reflns_av_R_equivalents  0.0646
_diffrn_reflns_av_sigmaI/netI    0.0522
_diffrn_reflns_limit_h_min       -20
_diffrn_reflns_limit_h_max       20
_diffrn_reflns_limit_k_min       -20
_diffrn_reflns_limit_k_max       17
_diffrn_reflns_limit_l_min       -21
_diffrn_reflns_limit_l_max       22
_diffrn_reflns_theta_min         1.93
_diffrn_reflns_theta_max         29.21
_reflns_number_total             6131
_reflns_number_gt                4330
_reflns_threshold_expression     >2sigma(I)

_computing_structure_solution    SIR97
_computing_structure_refinement  'SHELXL-97 (Sheldrick, 1997)'
_computing_molecular_graphics    TOPOS

_refine_special_details          
;
Refinement of F^2^ against ALL reflections. The weighted R-factor wR and
goodness of fit S are based on F^2^, conventional R-factors R are based
on F, with F set to zero for negative F^2^.

The crystal is unstable in air, was collected under mineral oil.
The structure contains disordered solvents and anions.
Because it was difficult to refine a consistent disordered
model, their contribution was subtracted from the observed structure factors
according to the BYPASS procedure, as implemented in PLATON.
van der Sluis, P., Spek, A. L. (1990). Acta Cryst. A46, 194-201.
Spek, A. L. (2003). J. Appl. Cryst. 36, 7-13.

The R before squeeze was: 0.1123 for 4380 Fo > 4sig(Fo)
and 0.1470 for all 6131 data
247 parameters refined using 21 restraints

The BF4 anion has been refined with total occupancy of
2/3 for the electron neutrality of the whole compound.


;

_refine_ls_structure_factor_coef Fsqd
_refine_ls_matrix_type           full
_refine_ls_weighting_scheme      calc
_refine_ls_weighting_details     
'calc w=1/[\s^2^(Fo^2^)+(0.1036P)^2^+9.8862P] where P=(Fo^2^+2Fc^2^)/3'
_atom_sites_solution_primary     direct
_atom_sites_solution_secondary   difmap
_atom_sites_solution_hydrogens   geom
_refine_ls_hydrogen_treatment    constr
_refine_ls_extinction_method     none
_refine_ls_number_reflns         6131
_refine_ls_number_parameters     247
_refine_ls_number_restraints     21
_refine_ls_R_factor_all          0.0931
_refine_ls_R_factor_gt           0.0714
_refine_ls_wR_factor_all         0.2077
_refine_ls_wR_factor_ref         0.1983
_refine_ls_goodness_of_fit_all   1.082
_refine_ls_restrained_S_all      1.083
_refine_ls_shift/su_max          0.001
_refine_ls_shift/su_mean         0.000

loop_
_atom_site_label
_atom_site_type_symbol
_atom_site_fract_x
_atom_site_fract_y
_atom_site_fract_z
_atom_site_U_iso_or_equiv
_atom_site_adp_type
_atom_site_occupancy
_atom_site_symmetry_multiplicity
_atom_site_calc_flag
_atom_site_refinement_flags
_atom_site_disorder_assembly
_atom_site_disorder_group
C1 C 0.8803(4) 0.3999(4) 0.8752(3) 0.0333(11) Uani 1 1 d . . .
C2 C 0.9152(4) 0.4363(4) 0.7962(3) 0.0371(12) Uani 1 1 d . . .
H2 H 0.9741 0.4425 0.7805 0.044 Uiso 1 1 calc R . .
C3 C 0.8667(4) 0.4637(4) 0.7398(3) 0.0328(11) Uani 1 1 d . . .
C4 C 0.9220(4) 0.5210(4) 0.6642(3) 0.0307(10) Uani 1 1 d . . .
C5 C 0.8677(5) 0.5111(5) 0.5955(4) 0.0470(15) Uani 1 1 d . . .
H5 H 0.8007 0.4717 0.5965 0.056 Uiso 1 1 calc R . .
C6 C 1.0218(5) 0.5758(5) 0.6626(4) 0.0542(17) Uani 1 1 d . . .
H6 H 1.0577 0.5794 0.7083 0.065 Uiso 1 1 calc R . .
C7 C 0.9139(5) 0.5605(5) 0.5255(4) 0.0526(16) Uani 1 1 d . . .
H7 H 0.8782 0.5550 0.4791 0.063 Uiso 1 1 calc R . .
C8 C 1.0684(6) 0.6256(6) 0.5924(4) 0.069(2) Uani 1 1 d . . .
H8 H 1.1355 0.6635 0.5911 0.083 Uiso 1 1 calc R . .
C9 C 1.0144(5) 0.6185(5) 0.5250(4) 0.0476(15) Uani 1 1 d . . .
C10 C 1.0637(5) 0.6668(5) 0.4518(4) 0.0514(16) Uani 1 1 d . . .
C11 C 0.9477(4) 0.3891(4) 0.9356(3) 0.0393(12) Uani 1 1 d . . .
C12 C 0.9100(5) 0.3582(5) 1.0128(4) 0.0500(16) Uani 1 1 d . . .
H12 H 0.8474 0.3442 1.0250 0.060 Uiso 1 1 calc R . .
C13 C 1.0415(6) 0.4140(9) 0.9197(5) 0.080(3) Uani 1 1 d . . .
H13 H 1.0683 0.4391 0.8691 0.096 Uiso 1 1 calc R . .
C14 C 0.9660(5) 0.3485(6) 1.0710(4) 0.0569(19) Uani 1 1 d . . .
H14 H 0.9403 0.3265 1.1225 0.068 Uiso 1 1 calc R . .
C15 C 1.0968(6) 0.4019(9) 0.9787(5) 0.083(3) Uani 1 1 d . . .
H15 H 1.1592 0.4151 0.9667 0.099 Uiso 1 1 calc R . .
C16 C 1.0585(5) 0.3704(5) 1.0551(4) 0.0480(15) Uani 1 1 d . . .
C17 C 1.1168(5) 0.3639(5) 1.1165(4) 0.0545(17) Uani 1 1 d . . .
N1 N 1.1641(5) 0.3588(4) 1.1662(4) 0.0586(16) Uani 1 1 d . . .
N2 N 1.1028(5) 0.7054(5) 0.3943(3) 0.0602(16) Uani 1 1 d . . .
O1 O 0.7979(3) 0.3761(3) 0.9013(2) 0.0381(9) Uani 1 1 d . . .
O2 O 0.7821(3) 0.4479(3) 0.7448(2) 0.0370(8) Uani 1 1 d . . .
Ag1 Ag 0.86175(5) 0.27235(4) 0.73560(3) 0.0572(2) Uani 1 1 d . . .
Cd1 Cd 0.6667 0.3333 0.82592(4) 0.03063(19) Uani 1 3 d S . .
B1 B 1.1410(8) 0.3931(10) 0.7230(5) 0.164(16) Uani 0.666 1 d PD . .
F11 F 1.0575(8) 0.3127(11) 0.7487(7) 0.175(7) Uani 0.666 1 d PD . .
F12 F 1.1321(12) 0.4740(11) 0.7319(9) 0.245(11) Uani 0.666 1 d PD . .
F13 F 1.1557(10) 0.3822(14) 0.6428(6) 0.234(10) Uani 0.666 1 d PD . .
F14 F 1.2186(8) 0.4052(10) 0.7675(6) 0.170(6) Uani 0.666 1 d PD . .

loop_
_atom_site_aniso_label
_atom_site_aniso_U_11
_atom_site_aniso_U_22
_atom_site_aniso_U_33
_atom_site_aniso_U_23
_atom_site_aniso_U_13
_atom_site_aniso_U_12
C1 0.042(3) 0.038(3) 0.018(2) -0.0015(19) -0.006(2) 0.018(2)
C2 0.043(3) 0.045(3) 0.022(2) 0.007(2) 0.005(2) 0.021(3)
C3 0.041(3) 0.036(3) 0.015(2) 0.0069(18) 0.0037(19) 0.013(2)
C4 0.034(3) 0.029(2) 0.027(2) 0.0033(19) -0.0007(19) 0.014(2)
C5 0.047(3) 0.065(4) 0.029(3) 0.015(3) 0.003(2) 0.027(3)
C6 0.058(4) 0.063(4) 0.025(3) 0.013(3) 0.003(3) 0.018(3)
C7 0.070(5) 0.066(4) 0.031(3) 0.018(3) 0.005(3) 0.041(4)
C8 0.053(4) 0.082(5) 0.040(4) 0.011(4) 0.012(3) 0.009(4)
C9 0.065(4) 0.046(3) 0.027(3) 0.008(2) 0.019(3) 0.025(3)
C10 0.062(4) 0.057(4) 0.034(3) 0.002(3) 0.006(3) 0.029(3)
C11 0.043(3) 0.045(3) 0.025(3) 0.005(2) -0.001(2) 0.018(3)
C12 0.044(3) 0.067(4) 0.032(3) 0.009(3) -0.002(2) 0.023(3)
C13 0.060(5) 0.149(9) 0.041(4) 0.035(5) 0.014(3) 0.059(6)
C14 0.049(4) 0.088(5) 0.022(3) 0.014(3) 0.000(2) 0.026(4)
C15 0.057(5) 0.152(9) 0.043(4) 0.027(5) 0.002(3) 0.055(6)
C16 0.055(4) 0.053(4) 0.034(3) -0.004(3) -0.017(3) 0.026(3)
C17 0.055(4) 0.049(4) 0.045(4) 0.000(3) -0.019(3) 0.016(3)
N1 0.061(4) 0.060(4) 0.050(3) 0.000(3) -0.025(3) 0.027(3)
N2 0.074(4) 0.066(4) 0.032(3) 0.018(3) 0.024(3) 0.028(3)
O1 0.038(2) 0.052(2) 0.0207(17) -0.0009(16) -0.0050(15) 0.0194(18)
O2 0.042(2) 0.046(2) 0.0214(17) 0.0079(15) 0.0018(15) 0.0207(18)
Ag1 0.0810(4) 0.0554(3) 0.0325(3) 0.0161(2) 0.0258(2) 0.0320(3)
Cd1 0.0388(3) 0.0388(3) 0.0143(3) 0.000 0.000 0.01940(13)
B1 0.14(2) 0.36(5) 0.069(13) 0.11(2) 0.057(13) 0.18(3)
F11 0.139(11) 0.34(2) 0.104(9) -0.014(11) 0.012(8) 0.164(14)
F12 0.31(2) 0.31(3) 0.24(2) 0.139(19) 0.089(19) 0.25(2)
F13 0.227(18) 0.45(3) 0.097(10) 0.031(15) 0.031(11) 0.23(2)
F14 0.190(13) 0.32(2) 0.090(8) 0.032(10) -0.001(8) 0.197(14)

_geom_special_details            
;
All esds (except the esd in the dihedral angle between two l.s. planes)
are estimated using the full covariance matrix. The cell esds are taken
into account individually in the estimation of esds in distances, angles
and torsion angles; correlations between esds in cell parameters are only
used when they are defined by crystal symmetry. An approximate (isotropic)
treatment of cell esds is used for estimating esds involving l.s. planes.
;

loop_
_geom_bond_atom_site_label_1
_geom_bond_atom_site_label_2
_geom_bond_distance
_geom_bond_site_symmetry_2
_geom_bond_publ_flag
C1 O1 1.247(7) . ?
C1 C2 1.420(7) . ?
C1 C11 1.535(8) . ?
C2 C3 1.409(8) . ?
C2 Ag1 2.514(6) . ?
C2 H2 0.9300 . ?
C3 O2 1.245(7) . ?
C3 C4 1.534(7) . ?
C4 C6 1.381(9) . ?
C4 C5 1.383(8) . ?
C5 C7 1.383(8) . ?
C5 H5 0.9300 . ?
C6 C8 1.387(9) . ?
C6 H6 0.9300 . ?
C7 C9 1.393(10) . ?
C7 H7 0.9300 . ?
C8 C9 1.374(11) . ?
C8 H8 0.9300 . ?
C9 C10 1.434(8) . ?
C10 N2 1.132(8) . ?
C11 C13 1.367(10) . ?
C11 C12 1.386(8) . ?
C12 C14 1.370(9) . ?
C12 H12 0.9300 . ?
C13 C15 1.388(10) . ?
C13 H13 0.9300 . ?
C14 C16 1.360(10) . ?
C14 H14 0.9300 . ?
C15 C16 1.379(10) . ?
C15 H15 0.9300 . ?
C16 C17 1.412(9) . ?
C17 N1 1.143(8) . ?
N1 Ag1 2.202(5) 5_667 ?
N2 Ag1 2.195(5) 4_766 ?
O1 Cd1 2.226(4) . ?
O2 Cd1 2.267(4) . ?
Ag1 N2 2.195(5) 4_766 ?
Ag1 N1 2.202(5) 6_547 ?
Cd1 O1 2.226(4) 3_665 ?
Cd1 O1 2.226(4) 2_655 ?
Cd1 O2 2.267(4) 3_665 ?
Cd1 O2 2.267(4) 2_655 ?
B1 F14 1.366(9) . ?
B1 F13 1.367(9) . ?
B1 F11 1.373(9) . ?
B1 F12 1.374(9) . ?

loop_
_geom_angle_atom_site_label_1
_geom_angle_atom_site_label_2
_geom_angle_atom_site_label_3
_geom_angle
_geom_angle_site_symmetry_1
_geom_angle_site_symmetry_3
_geom_angle_publ_flag
O1 C1 C2 125.2(5) . . ?
O1 C1 C11 115.6(5) . . ?
C2 C1 C11 119.1(5) . . ?
C3 C2 C1 124.6(5) . . ?
C3 C2 Ag1 96.2(4) . . ?
C1 C2 Ag1 94.6(3) . . ?
C3 C2 H2 117.7 . . ?
C1 C2 H2 117.7 . . ?
Ag1 C2 H2 78.4 . . ?
O2 C3 C2 126.8(5) . . ?
O2 C3 C4 114.6(4) . . ?
C2 C3 C4 118.6(5) . . ?
C6 C4 C5 120.9(5) . . ?
C6 C4 C3 122.0(5) . . ?
C5 C4 C3 117.1(5) . . ?
C7 C5 C4 119.5(6) . . ?
C7 C5 H5 120.3 . . ?
C4 C5 H5 120.3 . . ?
C4 C6 C8 119.8(6) . . ?
C4 C6 H6 120.1 . . ?
C8 C6 H6 120.1 . . ?
C5 C7 C9 119.4(6) . . ?
C5 C7 H7 120.3 . . ?
C9 C7 H7 120.3 . . ?
C9 C8 C6 119.4(7) . . ?
C9 C8 H8 120.3 . . ?
C6 C8 H8 120.3 . . ?
C8 C9 C7 121.0(6) . . ?
C8 C9 C10 118.8(7) . . ?
C7 C9 C10 120.0(6) . . ?
N2 C10 C9 179.7(11) . . ?
C13 C11 C12 119.7(6) . . ?
C13 C11 C1 124.6(5) . . ?
C12 C11 C1 115.5(5) . . ?
C14 C12 C11 119.4(6) . . ?
C14 C12 H12 120.3 . . ?
C11 C12 H12 120.3 . . ?
C11 C13 C15 120.2(7) . . ?
C11 C13 H13 119.9 . . ?
C15 C13 H13 119.9 . . ?
C16 C14 C12 121.3(6) . . ?
C16 C14 H14 119.3 . . ?
C12 C14 H14 119.3 . . ?
C16 C15 C13 119.6(7) . . ?
C16 C15 H15 120.2 . . ?
C13 C15 H15 120.2 . . ?
C14 C16 C15 119.6(6) . . ?
C14 C16 C17 120.8(6) . . ?
C15 C16 C17 119.6(7) . . ?
N1 C17 C16 179.8(11) . . ?
C17 N1 Ag1 157.0(6) . 5_667 ?
C10 N2 Ag1 158.5(6) . 4_766 ?
C1 O1 Cd1 126.0(3) . . ?
C3 O2 Cd1 124.3(3) . . ?
N2 Ag1 N1 144.4(2) 4_766 6_547 ?
N2 Ag1 C2 107.0(2) 4_766 . ?
N1 Ag1 C2 108.4(2) 6_547 . ?
O1 Cd1 O1 91.95(14) . 3_665 ?
O1 Cd1 O1 91.95(14) . 2_655 ?
O1 Cd1 O1 91.95(14) 3_665 2_655 ?
O1 Cd1 O2 101.56(15) . 3_665 ?
O1 Cd1 O2 79.71(14) 3_665 3_665 ?
O1 Cd1 O2 164.27(15) 2_655 3_665 ?
O1 Cd1 O2 79.71(14) . . ?
O1 Cd1 O2 164.27(15) 3_665 . ?
O1 Cd1 O2 101.56(15) 2_655 . ?
O2 Cd1 O2 88.86(14) 3_665 . ?
O1 Cd1 O2 164.27(15) . 2_655 ?
O1 Cd1 O2 101.56(15) 3_665 2_655 ?
O1 Cd1 O2 79.71(14) 2_655 2_655 ?
O2 Cd1 O2 88.86(14) 3_665 2_655 ?
O2 Cd1 O2 88.86(14) . 2_655 ?
F14 B1 F13 109.6(6) . . ?
F14 B1 F11 110.7(6) . . ?
F13 B1 F11 109.1(6) . . ?
F14 B1 F12 108.7(6) . . ?
F13 B1 F12 109.0(6) . . ?
F11 B1 F12 109.7(6) . . ?

_diffrn_measured_fraction_theta_max 0.935
_diffrn_reflns_theta_full        27.00
_diffrn_measured_fraction_theta_full 0.996
_refine_diff_density_max         1.949
_refine_diff_density_min         -1.275
_refine_diff_density_rms         0.139

loop_
_platon_squeeze_void_nr
_platon_squeeze_void_average_x
_platon_squeeze_void_average_y
_platon_squeeze_void_average_z
_platon_squeeze_void_volume
_platon_squeeze_void_count_electrons
_platon_squeeze_void_content
1 0.000 0.000 -0.005 974 212 ' '
2 0.333 0.667 0.732 157 69 ' '
3 0.667 0.333 0.268 157 73 ' '
