####################################################################### 
# 
# This file contains crystal structure data downloaded from the 
# Cambridge Structural Database (CSD) hosted by the Cambridge 
# Crystallographic Data Centre (CCDC).
# 
# Full information about CCDC data access policies and citation 
# guidelines are available at http://www.ccdc.cam.ac.uk/access/V1 
# 
# Audit and citation data items may have been added by the CCDC. 
# Please retain this information to preserve the provenance of 
# this file and to allow appropriate attribution of the data. 
# 
#######################################################################

data_2
_audit_block_doi                 10.5517/cc7nxpg
_database_code_depnum_ccdc_archive 'CCDC 228646'
loop_
_citation_id
_citation_doi
_citation_year
1 10.1016/j.poly.2004.04.026 2004
_audit_update_record             
;
2004-01-13 deposited with the CCDC.	2024-07-11 downloaded from the CCDC.
;

_audit_creation_method           SHELXL-97
_chemical_name_systematic        
;
?
;
_chemical_name_common            ?
_chemical_melting_point          ?
_chemical_formula_moiety         ?
_chemical_formula_sum            'C12 H10 Co N2 O5'
_chemical_formula_weight         321.15

loop_
_atom_type_symbol
_atom_type_description
_atom_type_scat_dispersion_real
_atom_type_scat_dispersion_imag
_atom_type_scat_source
C C 0.0033 0.0016 'International Tables Vol C Tables 4.2.6.8 and 6.1.1.4'
H H 0.0000 0.0000 'International Tables Vol C Tables 4.2.6.8 and 6.1.1.4'
N N 0.0061 0.0033 'International Tables Vol C Tables 4.2.6.8 and 6.1.1.4'
O O 0.0106 0.0060 'International Tables Vol C Tables 4.2.6.8 and 6.1.1.4'
Co Co 0.3494 0.9721 'International Tables Vol C Tables 4.2.6.8 and 6.1.1.4'

_symmetry_cell_setting           Monoclinic
_symmetry_space_group_name_H-M   C2

loop_
_symmetry_equiv_pos_as_xyz
'x, y, z'
'-x, y, -z'
'x+1/2, y+1/2, z'
'-x+1/2, y+1/2, -z'

_cell_length_a                   11.225(3)
_cell_length_b                   10.786(3)
_cell_length_c                   6.8130(16)
_cell_angle_alpha                90.00
_cell_angle_beta                 107.690(5)
_cell_angle_gamma                90.00
_cell_volume                     785.9(3)
_cell_formula_units_Z            2
_cell_measurement_temperature    298(2)
_cell_measurement_reflns_used    ?
_cell_measurement_theta_min      ?
_cell_measurement_theta_max      ?

_exptl_crystal_description       plate
_exptl_crystal_colour            'dark red'
_exptl_crystal_size_max          0.20
_exptl_crystal_size_mid          0.10
_exptl_crystal_size_min          0.02
_exptl_crystal_density_meas      ?
_exptl_crystal_density_diffrn    1.357
_exptl_crystal_density_method    'not measured'
_exptl_crystal_F_000             326
_exptl_absorpt_coefficient_mu    1.109
_exptl_absorpt_correction_type   multi-scan
_exptl_absorpt_correction_T_min  0.6877
_exptl_absorpt_correction_T_max  0.8658
_exptl_absorpt_process_details   ?

_exptl_special_details           
;
?
;

_diffrn_ambient_temperature      298(2)
_diffrn_radiation_wavelength     0.71073
_diffrn_radiation_type           MoK\a
_diffrn_radiation_source         'sealed tube'
_diffrn_radiation_monochromator  graphite
_diffrn_measurement_device_type  'CCD area detector'
_diffrn_measurement_method       'phi and omega scans'
_diffrn_detector_area_resol_mean ?
_diffrn_standards_number         ?
_diffrn_standards_interval_count ?
_diffrn_standards_interval_time  ?
_diffrn_standards_decay_%        ?
_diffrn_reflns_number            785
_diffrn_reflns_av_R_equivalents  0.0259
_diffrn_reflns_av_sigmaI/netI    0.0279
_diffrn_reflns_limit_h_min       -13
_diffrn_reflns_limit_h_max       9
_diffrn_reflns_limit_k_min       -12
_diffrn_reflns_limit_k_max       3
_diffrn_reflns_limit_l_min       -7
_diffrn_reflns_limit_l_max       6
_diffrn_reflns_theta_min         2.68
_diffrn_reflns_theta_max         25.03
_reflns_number_total             671
_reflns_number_gt                657
_reflns_threshold_expression     >2sigma(I)

_computing_data_collection       'Bruker SMART'
_computing_cell_refinement       'Bruker SMART'
_computing_data_reduction        'Bruker SAINT'
_computing_structure_solution    'Bruker SHELXTL'
_computing_structure_refinement  'Bruker SHELXTL'
_computing_molecular_graphics    'Bruker SHELXTL'
_computing_publication_material  'Bruker SHELXTL'

_refine_special_details          
;
Refinement of F^2^ against ALL reflections.  The weighted R-factor wR and
goodness of fit S are based on F^2^, conventional R-factors R are based
on F, with F set to zero for negative F^2^. The threshold expression of
F^2^ > 2sigma(F^2^) is used only for calculating R-factors(gt) etc. and is
not relevant to the choice of reflections for refinement.  R-factors based
on F^2^ are statistically about twice as large as those based on F, and R-
factors based on ALL data will be even larger.
;

_refine_ls_structure_factor_coef Fsqd
_refine_ls_matrix_type           full
_refine_ls_weighting_scheme      calc
_refine_ls_weighting_details     
'calc w=1/[\s^2^(Fo^2^)+(0.0765P)^2^+1.7429P] where P=(Fo^2^+2Fc^2^)/3'
_atom_sites_solution_primary     direct
_atom_sites_solution_secondary   difmap
_atom_sites_solution_hydrogens   geom
_refine_ls_hydrogen_treatment    mixed
_refine_ls_extinction_method     none
_refine_ls_extinction_coef       ?
_refine_ls_abs_structure_details 'Flack H D (1983), Acta Cryst. A39, 876-881'
_refine_ls_abs_structure_Flack   0.04(6)
_refine_ls_number_reflns         671
_refine_ls_number_parameters     96
_refine_ls_number_restraints     1
_refine_ls_R_factor_all          0.0440
_refine_ls_R_factor_gt           0.0423
_refine_ls_wR_factor_ref         0.1354
_refine_ls_wR_factor_gt          0.1342
_refine_ls_goodness_of_fit_ref   1.310
_refine_ls_restrained_S_all      1.308
_refine_ls_shift/su_max          0.001
_refine_ls_shift/su_mean         0.000

loop_
_atom_site_label
_atom_site_type_symbol
_atom_site_fract_x
_atom_site_fract_y
_atom_site_fract_z
_atom_site_U_iso_or_equiv
_atom_site_adp_type
_atom_site_occupancy
_atom_site_symmetry_multiplicity
_atom_site_calc_flag
_atom_site_refinement_flags
_atom_site_disorder_assembly
_atom_site_disorder_group
Co Co 0.0000 0.92208(7) 0.0000 0.0248(4) Uani 1 2 d S . .
O1 O -0.4241(5) 0.4738(5) -0.2273(10) 0.0358(15) Uani 1 1 d . . .
O2 O -0.3499(6) 0.5734(7) 0.0633(11) 0.0414(17) Uani 1 1 d . . .
N N -0.1281(5) 0.7985(6) -0.1825(12) 0.0292(17) Uani 1 1 d . . .
C1 C -0.3560(7) 0.5589(7) -0.1186(14) 0.0278(19) Uani 1 1 d . . .
C2 C -0.2853(7) 0.6419(7) -0.2216(14) 0.0291(19) Uani 1 1 d . . .
C3 C -0.1947(7) 0.7196(8) -0.1038(16) 0.032(2) Uani 1 1 d . . .
H3A H -0.1785 0.7178 0.0384 0.039 Uiso 1 1 calc R . .
C4 C -0.3103(8) 0.6458(8) -0.4320(17) 0.042(2) Uani 1 1 d . . .
H4A H -0.3699 0.5929 -0.5155 0.050 Uiso 1 1 calc R . .
C5 C -0.2469(9) 0.7279(10) -0.5194(17) 0.048(3) Uani 1 1 d . . .
H5A H -0.2648 0.7337 -0.6616 0.058 Uiso 1 1 calc R . .
C6 C -0.1557(7) 0.8013(8) -0.3884(15) 0.037(2) Uani 1 1 d . . .
H6A H -0.1112 0.8554 -0.4461 0.045 Uiso 1 1 calc R . .
O3 O -0.5218(12) 0.957(2) -0.811(14) 0.78(11) Uani 0.50 1 d P . .

loop_
_atom_site_aniso_label
_atom_site_aniso_U_11
_atom_site_aniso_U_22
_atom_site_aniso_U_33
_atom_site_aniso_U_23
_atom_site_aniso_U_13
_atom_site_aniso_U_12
Co 0.0209(5) 0.0202(6) 0.0354(9) 0.000 0.0117(5) 0.000
O1 0.038(3) 0.037(3) 0.033(4) -0.004(2) 0.013(3) -0.018(2)
O2 0.046(3) 0.052(4) 0.029(4) -0.005(3) 0.014(3) -0.014(3)
N 0.030(3) 0.031(4) 0.031(5) -0.004(3) 0.014(3) -0.005(3)
C1 0.027(3) 0.028(4) 0.029(6) -0.001(3) 0.010(4) -0.003(3)
C2 0.029(3) 0.029(4) 0.029(6) -0.002(3) 0.009(4) -0.006(3)
C3 0.030(4) 0.037(5) 0.030(6) 0.001(4) 0.009(4) -0.005(4)
C4 0.036(4) 0.036(5) 0.047(7) -0.004(4) 0.005(4) -0.017(4)
C5 0.051(5) 0.061(6) 0.031(7) 0.000(4) 0.011(5) -0.017(5)
C6 0.042(4) 0.037(5) 0.036(6) -0.001(4) 0.017(4) -0.014(4)
O3 0.000(10) 0.085(18) 2.0(3) 0.27(5) -0.06(3) 0.007(8)

_geom_special_details            
;
All esds (except the esd in the dihedral angle between two l.s. planes)
are estimated using the full covariance matrix.  The cell esds are taken
into account individually in the estimation of esds in distances, angles
and torsion angles; correlations between esds in cell parameters are only
used when they are defined by crystal symmetry.  An approximate (isotropic)
treatment of cell esds is used for estimating esds involving l.s. planes.
;

loop_
_geom_bond_atom_site_label_1
_geom_bond_atom_site_label_2
_geom_bond_distance
_geom_bond_site_symmetry_2
_geom_bond_publ_flag
Co O1 2.059(6) 3 ?
Co O1 2.059(6) 4_455 ?
Co N 2.075(6) . ?
Co N 2.075(6) 2 ?
Co O2 2.291(7) 3 ?
Co O2 2.291(7) 4_455 ?
Co C1 2.498(8) 3 ?
Co C1 2.498(8) 4_455 ?
O1 C1 1.278(10) . ?
O1 Co 2.059(6) 3_445 ?
O2 C1 1.230(11) . ?
O2 Co 2.291(7) 3_445 ?
N C6 1.342(12) . ?
N C3 1.347(11) . ?
C1 C2 1.504(11) . ?
C1 Co 2.498(8) 3_445 ?
C2 C3 1.372(12) . ?
C2 C4 1.375(14) . ?
C4 C5 1.379(14) . ?
C5 C6 1.385(13) . ?

loop_
_geom_angle_atom_site_label_1
_geom_angle_atom_site_label_2
_geom_angle_atom_site_label_3
_geom_angle
_geom_angle_site_symmetry_1
_geom_angle_site_symmetry_3
_geom_angle_publ_flag
O1 Co O1 148.6(3) 3 4_455 ?
O1 Co N 95.3(3) 3 . ?
O1 Co N 104.8(3) 4_455 . ?
O1 Co N 104.8(3) 3 2 ?
O1 Co N 95.3(3) 4_455 2 ?
N Co N 100.0(4) . 2 ?
O1 Co O2 60.0(2) 3 3 ?
O1 Co O2 96.6(2) 4_455 3 ?
N Co O2 155.1(3) . 3 ?
N Co O2 90.5(2) 2 3 ?
O1 Co O2 96.6(2) 3 4_455 ?
O1 Co O2 60.0(2) 4_455 4_455 ?
N Co O2 90.5(2) . 4_455 ?
N Co O2 155.1(3) 2 4_455 ?
O2 Co O2 89.2(3) 3 4_455 ?
O1 Co C1 30.7(3) 3 3 ?
O1 Co C1 122.7(3) 4_455 3 ?
N Co C1 125.8(3) . 3 ?
N Co C1 100.1(2) 2 3 ?
O2 Co C1 29.4(3) 3 3 ?
O2 Co C1 91.7(2) 4_455 3 ?
O1 Co C1 122.7(3) 3 4_455 ?
O1 Co C1 30.7(3) 4_455 4_455 ?
N Co C1 100.1(2) . 4_455 ?
N Co C1 125.8(3) 2 4_455 ?
O2 Co C1 91.7(2) 3 4_455 ?
O2 Co C1 29.4(3) 4_455 4_455 ?
C1 Co C1 107.5(4) 3 4_455 ?
C1 O1 Co 94.0(5) . 3_445 ?
C1 O2 Co 84.7(5) . 3_445 ?
C6 N C3 116.8(7) . . ?
C6 N Co 120.7(5) . . ?
C3 N Co 122.3(6) . . ?
O2 C1 O1 121.0(7) . . ?
O2 C1 C2 121.2(7) . . ?
O1 C1 C2 117.7(8) . . ?
O2 C1 Co 66.0(4) . 3_445 ?
O1 C1 Co 55.3(4) . 3_445 ?
C2 C1 Co 171.1(6) . 3_445 ?
C3 C2 C4 118.1(8) . . ?
C3 C2 C1 119.5(8) . . ?
C4 C2 C1 122.3(7) . . ?
N C3 C2 123.7(9) . . ?
C2 C4 C5 120.0(8) . . ?
C4 C5 C6 117.8(10) . . ?
N C6 C5 123.5(8) . . ?

_diffrn_measured_fraction_theta_max 0.830
_diffrn_reflns_theta_full        25.03
_diffrn_measured_fraction_theta_full 0.830
_refine_diff_density_max         0.786
_refine_diff_density_min         -0.418
_refine_diff_density_rms         0.130


