
#######################################################################
#
#                 Cambridge Crystallographic Data Centre
#                                CCDC
#
#######################################################################
#
# If this CIF has been generated from an entry in the Cambridge
# Structural Database, then it will include bibliographic, chemical,
# crystal, experimental, refinement or atomic coordinate data resulting
# from the CCDC's data processing and validation procedures.
#
#######################################################################

data_CSD_CIF_LAGNAI
_audit_creation_date 1993-09-30
_audit_creation_method CSD-ConQuest-V1
_database_code_CSD LAGNAI
_database_code_depnum_ccdc_archive 'CCDC 1202756'
_chemical_formula_sum 'C21 H21 N3'
_chemical_formula_moiety
;
C9 H3 N3,C12 H18
;
_journal_coden_Cambridge 182
_journal_year 1993
_journal_page_first 663
_journal_name_full 'Chem.Commun. '
loop_
_publ_author_name
"D.S.Reddy"
"B.S.Goud"
"K.Panneerselvam"
"G.R.Desiraju"
_chemical_name_systematic
;
1,3,5-Tricyanobenzene hexamethylbenzene
;
_chemical_name_common
;
Teaching Subset: Fundamental Chemistry, Symmetry
;
_chemical_melting_point 528
_cell_volume   1820.787
_exptl_crystal_density_diffrn 1.15
_diffrn_ambient_temperature ?
_diffrn_special_details
;
The study was carried out at room temperature,in the range 283-303K

;
#These two values have been output from a single CSD field.
_refine_ls_R_factor_gt 0.049
_refine_ls_wR_factor_gt 0.049
_symmetry_cell_setting monoclinic
_symmetry_space_group_name_H-M 'C 2/c'
_symmetry_Int_Tables_number 15
loop_
_symmetry_equiv_pos_site_id
_symmetry_equiv_pos_as_xyz
1 x,y,z
2 1/2+x,1/2+y,z
3 -x,y,1/2-z
4 1/2-x,1/2+y,1/2-z
5 -x,-y,-z
6 -1/2-x,-1/2-y,-z
7 x,-y,-1/2+z
8 -1/2+x,-1/2-y,-1/2+z
_cell_length_a 15.207(3)
_cell_length_b 8.839(2)
_cell_length_c 14.460(2)
_cell_angle_alpha 90
_cell_angle_beta 110.48(7)
_cell_angle_gamma 90
_cell_formula_units_Z 4
loop_
_atom_type_symbol
_atom_type_radius_bond
C 0.68
H 0.23
N 0.68
loop_
_atom_site_label
_atom_site_type_symbol
_atom_site_fract_x
_atom_site_fract_y
_atom_site_fract_z
C1 C 0.50000 0.2449(4) 0.75000
C2 C 0.4201(2) 0.1674(3) 0.7474(2)
C3 C 0.4207(2) 0.0120(3) 0.7463(2)
C4 C 0.50000 -0.0667(4) 0.75000
C5 C 0.50000 0.4080(5) 0.75000
C6 C 0.3370(2) -0.0699(4) 0.7407(2)
N1 N 0.50000 0.5355(5) 0.75000
N2 N 0.2703(2) -0.1339(4) 0.7350(2)
H1 H 0.366(2) 0.220(3) 0.745(2)
H2 H 0.50000 -0.177(5) 0.75000
C7 C 0.5369(2) 0.1443(3) 0.5006(2)
C8 C 0.4425(2) 0.1265(3) 0.4882(3)
C9 C 0.5947(2) 0.0179(3) 0.5127(2)
C10 C 0.5753(3) 0.3026(4) 0.5014(3)
C11 C 0.3799(3) 0.2630(4) 0.4762(4)
C12 C 0.6975(2) 0.0387(5) 0.5274(3)
H3 H 0.639(3) 0.316(5) 0.550(4)
H4 H 0.528(6) 0.370(8) 0.481(6)
H5 H 0.614(3) 0.303(5) 0.461(4)
H6 H 0.371(4) 0.304(6) 0.421(4)
H7 H 0.410(4) 0.335(6) 0.527(4)
H8 H 0.325(5) 0.276(10) 0.486(6)
H9 H 0.724(4) -0.057(7) 0.512(4)
H10 H 0.732(3) 0.109(5) 0.583(3)
H11 H 0.718(3) 0.097(5) 0.472(4)
C2B C 0.5799(2) 0.1674(3) 0.7526(2)
C3B C 0.5793(2) 0.0120(3) 0.7537(2)
H1B H 0.634(2) 0.220(3) 0.755(2)
C6B C 0.6630(2) -0.0699(4) 0.7593(2)
N2B N 0.7297(2) -0.1339(4) 0.7650(2)
C9D C 0.4053(2) -0.0179(3) 0.4873(2)
C8D C 0.5575(2) -0.1265(3) 0.5118(3)
C7D C 0.4631(2) -0.1443(3) 0.4994(2)
C12D C 0.3025(2) -0.0387(5) 0.4726(3)
C11D C 0.6201(3) -0.2630(4) 0.5238(4)
C10D C 0.4247(3) -0.3026(4) 0.4986(3)
H9D H 0.276(4) 0.057(7) 0.488(4)
H10D H 0.268(3) -0.109(5) 0.417(3)
H11D H 0.282(3) -0.097(5) 0.528(4)
H6D H 0.629(4) -0.304(6) 0.579(4)
H7D H 0.590(4) -0.335(6) 0.473(4)
H8D H 0.675(5) -0.276(10) 0.514(6)
H3D H 0.361(3) -0.316(5) 0.450(4)
H4D H 0.472(6) -0.370(8) 0.519(6)
H5D H 0.386(3) -0.303(5) 0.539(4)
#END
