####################################################################### 
# 
# This file contains crystal structure data downloaded from the 
# Cambridge Structural Database (CSD) hosted by the Cambridge 
# Crystallographic Data Centre (CCDC).
# 
# Full information about CCDC data access policies and citation 
# guidelines are available at http://www.ccdc.cam.ac.uk/access/V1 
# 
# Audit and citation data items may have been added by the CCDC. 
# Please retain this information to preserve the provenance of 
# this file and to allow appropriate attribution of the data. 
# 
#######################################################################

data_c1598
_audit_block_doi                 10.5517/cc7j42y
_database_code_depnum_ccdc_archive 'CCDC 224039'
loop_
_citation_id
_citation_doi
_citation_year
1 10.1039/b407244h 2004
_audit_update_record             
;
2003-11-10 deposited with the CCDC.	2024-07-11 downloaded from the CCDC.
;

_audit_creation_method           SHELXL-97
_chemical_name_systematic        
;
Cadmium Nitrate Complex with tris-[3-(4-pyridyl)pentane-2,4-dione]-iron(III),
Dihydrate
;
_chemical_name_common            
;
Cadmium Nitrate Complex with tris-(3-(4-pyridyl)pentane-2,4-
dione)-iron(iii), Dihydrate
;
_chemical_formula_moiety         ?
_chemical_formula_sum            'C60 H64 Cd Fe2 N8 O20'
_chemical_formula_weight         1441.29

loop_
_atom_type_symbol
_atom_type_description
_atom_type_scat_dispersion_real
_atom_type_scat_dispersion_imag
_atom_type_scat_source
C C 0.0033 0.0016 'International Tables Vol C Tables 4.2.6.8 and 6.1.1.4'
H H 0.0000 0.0000 'International Tables Vol C Tables 4.2.6.8 and 6.1.1.4'
N N 0.0061 0.0033 'International Tables Vol C Tables 4.2.6.8 and 6.1.1.4'
O O 0.0106 0.0060 'International Tables Vol C Tables 4.2.6.8 and 6.1.1.4'
Fe Fe 0.3463 0.8444 'International Tables Vol C Tables 4.2.6.8 and 6.1.1.4'
Cd Cd -0.8075 1.2024 'International Tables Vol C Tables 4.2.6.8 and 6.1.1.4'

_symmetry_cell_setting           Triclinic
_symmetry_space_group_name_H-M   P-1

loop_
_symmetry_equiv_pos_as_xyz
'x, y, z'
'-x, -y, -z'

_cell_length_a                   12.4789(12)
_cell_length_b                   13.4919(13)
_cell_length_c                   14.0858(13)
_cell_angle_alpha                92.760(5)
_cell_angle_beta                 107.627(5)
_cell_angle_gamma                105.936(4)
_cell_volume                     2150.9(4)
_cell_formula_units_Z            1
_cell_measurement_temperature    293(2)
_cell_measurement_reflns_used    ?
_cell_measurement_theta_min      ?
_cell_measurement_theta_max      ?

_exptl_crystal_description       prism
_exptl_crystal_colour            red-brown
_exptl_crystal_size_max          0.35
_exptl_crystal_size_mid          0.15
_exptl_crystal_size_min          0.15
_exptl_crystal_density_meas      ?
_exptl_crystal_density_diffrn    1.113
_exptl_crystal_density_method    'not measured'
_exptl_crystal_F_000             740
_exptl_absorpt_coefficient_mu    0.637
_exptl_absorpt_correction_type   integration
_exptl_absorpt_correction_T_min  0.8079
_exptl_absorpt_correction_T_max  0.9105

_exptl_special_details           
;
?
;

_diffrn_ambient_temperature      293(2)
_diffrn_radiation_wavelength     0.71073
_diffrn_radiation_type           MoK\a
_diffrn_radiation_source         'fine-focus sealed tube'
_diffrn_radiation_monochromator  graphite
_diffrn_measurement_device_type  'SMART CCD Siemens'
_diffrn_measurement_method       'omega scans'
_diffrn_detector_area_resol_mean ?
_diffrn_standards_number         ?
_diffrn_standards_interval_count ?
_diffrn_standards_interval_time  ?
_diffrn_standards_decay_%        ?
_diffrn_reflns_number            14287
_diffrn_reflns_av_R_equivalents  0.0233
_diffrn_reflns_av_sigmaI/netI    0.0679
_diffrn_reflns_limit_h_min       -15
_diffrn_reflns_limit_h_max       15
_diffrn_reflns_limit_k_min       -15
_diffrn_reflns_limit_k_max       16
_diffrn_reflns_limit_l_min       -17
_diffrn_reflns_limit_l_max       16
_diffrn_reflns_theta_min         7.24
_diffrn_reflns_theta_max         25.51
_reflns_number_total             7314
_reflns_number_gt                5143
_reflns_threshold_expression     >2sigma(I)

_computing_data_collection       ?
_computing_cell_refinement       ?
_computing_data_reduction        ?
_computing_structure_solution    'SHELXS-97 (Sheldrick, 1990)'
_computing_structure_refinement  'SHELXL-97 (Sheldrick, 1997)'
_computing_molecular_graphics    ?
_computing_publication_material  ?

_refine_special_details          
;
Refinement of F^2^ against ALL reflections.  The weighted R-factor wR and
goodness of fit S are based on F^2^, conventional R-factors R are based
on F, with F set to zero for negative F^2^. The threshold expression of
F^2^ > 2sigma(F^2^) is used only for calculating R-factors(gt) etc. and is
not relevant to the choice of reflections for refinement.  R-factors based
on F^2^ are statistically about twice as large as those based on F, and R-
factors based on ALL data will be even larger.
;

_refine_ls_structure_factor_coef Fsqd
_refine_ls_matrix_type           full
_refine_ls_weighting_scheme      
'calc w=1/[\s^2^(Fo^2^)+(0.0715P)^2^+0.0000P] where P=(Fo^2^+2Fc^2^)/3'
_atom_sites_solution_primary     direct
_atom_sites_solution_secondary   difmap
_atom_sites_solution_hydrogens   geom
_refine_ls_hydrogen_treatment    mixed
_refine_ls_extinction_method     none
_refine_ls_extinction_coef       ?
_refine_ls_number_reflns         7314
_refine_ls_number_parameters     439
_refine_ls_number_restraints     11
_refine_ls_R_factor_all          0.0837
_refine_ls_R_factor_gt           0.0512
_refine_ls_wR_factor_ref         0.1268
_refine_ls_wR_factor_gt          0.1148
_refine_ls_goodness_of_fit_ref   0.990
_refine_ls_restrained_S_all      0.997
_refine_ls_shift/su_max          0.000
_refine_ls_shift/su_mean         0.000

loop_
_atom_site_label
_atom_site_type_symbol
_atom_site_fract_x
_atom_site_fract_y
_atom_site_fract_z
_atom_site_U_iso_or_equiv
_atom_site_adp_type
_atom_site_occupancy
_atom_site_calc_flag
_atom_site_refinement_flags
_atom_site_disorder_assembly
_atom_site_disorder_group
Cd1 Cd 0.0000 0.0000 0.0000 0.0579(2) Uani 1 d S . .
Fe1 Fe 0.45196(5) 0.60273(4) -0.24843(4) 0.04647(19) Uani 1 d . . .
O1 O 0.2809(2) 0.5966(2) -0.2981(2) 0.0594(7) Uani 1 d . . .
O2 O 0.4833(3) 0.7536(2) -0.2031(2) 0.0610(8) Uani 1 d . . .
O3 O 0.4610(2) 0.6192(2) -0.3849(2) 0.0560(7) Uani 1 d . . .
O4 O 0.6234(2) 0.6216(2) -0.2066(2) 0.0582(7) Uani 1 d . . .
O5 O 0.4384(2) 0.5797(2) -0.1114(2) 0.0514(7) Uani 1 d . . .
O6 O 0.4088(3) 0.4474(2) -0.2731(2) 0.0569(7) Uani 1 d . . .
O7 O 0.1315(6) 0.0495(7) 0.1700(5) 0.144(2) Uani 1 d D . .
N1 N 0.1002(4) 0.9080(3) -0.0719(3) 0.0678(11) Uani 1 d . . .
N2 N 0.9306(5) 0.7055(7) -0.5036(4) 0.117(2) Uani 1 d . . .
N3 N 0.1064(3) 0.1492(3) -0.0470(3) 0.0567(9) Uani 1 d . . .
N4 N 0.2146(9) 0.0313(6) 0.2071(7) 0.121(2) Uani 1 d D . .
C1 C 0.2328(4) 0.6519(4) -0.2579(3) 0.0577(11) Uani 1 d . . .
C2 C 0.2939(4) 0.7471(4) -0.1961(4) 0.0602(11) Uani 1 d . . .
C3 C 0.4160(4) 0.7961(3) -0.1748(4) 0.0608(11) Uani 1 d . . .
C4 C 0.4770(6) 0.9003(5) -0.1132(6) 0.100(2) Uani 1 d . . .
H4A H 0.5616 0.9229 -0.1055 0.080 Uiso 1 d R . .
H4B H 0.4420 0.9465 -0.1457 0.080 Uiso 1 d R . .
H4C H 0.4667 0.8995 -0.0482 0.080 Uiso 1 d R . .
C5 C 0.1012(5) 0.6043(5) -0.2837(5) 0.0900(18) Uani 1 d . . .
H5A H 0.0741 0.5386 -0.3270 0.080 Uiso 1 d R . .
H5B H 0.0808 0.5953 -0.2233 0.080 Uiso 1 d R . .
H5C H 0.0627 0.6478 -0.3176 0.080 Uiso 1 d R . .
C6 C 0.1403(8) 0.8335(6) -0.0294(5) 0.105(2) Uani 1 d . . .
H6A H 0.1220 0.8167 0.0303 0.080 Uiso 1 d R . .
C7 C 0.2018(8) 0.7824(6) -0.0676(6) 0.106(2) Uani 1 d . . .
H7A H 0.2298 0.7334 -0.0339 0.080 Uiso 1 d R . .
C8 C 0.2249(4) 0.8041(4) -0.1539(4) 0.0609(12) Uani 1 d . . .
C9 C 0.1819(6) 0.8789(5) -0.1993(4) 0.0814(16) Uani 1 d . . .
H9A H 0.1958 0.8945 -0.2608 0.080 Uiso 1 d R . .
C10 C 0.1187(5) 0.9279(4) -0.1582(4) 0.0766(14) Uani 1 d . . .
H10A H 0.0902 0.9775 -0.1904 0.080 Uiso 1 d R . .
C11 C 0.5486(4) 0.6397(4) -0.4180(3) 0.0565(11) Uani 1 d . . .
C12 C 0.6646(4) 0.6474(3) -0.3590(3) 0.0544(11) Uani 1 d . . .
C13 C 0.6973(4) 0.6387(3) -0.2552(3) 0.0551(10) Uani 1 d . . .
C14 C 0.8210(4) 0.6482(6) -0.1942(4) 0.0806(15) Uani 1 d . . .
H14A H 0.8193 0.6243 -0.1327 0.080 Uiso 1 d R . .
H14B H 0.8738 0.7187 -0.1795 0.080 Uiso 1 d R . .
H14C H 0.8513 0.6080 -0.2318 0.080 Uiso 1 d R . .
C15 C 0.5184(5) 0.6565(5) -0.5258(4) 0.0784(15) Uani 1 d . . .
H15A H 0.4467 0.6740 -0.5450 0.080 Uiso 1 d R . .
H15B H 0.5087 0.5945 -0.5680 0.080 Uiso 1 d R . .
H15C H 0.5866 0.7098 -0.5315 0.080 Uiso 1 d R . .
C16 C 0.9220(6) 0.7809(7) -0.4449(6) 0.109(2) Uani 1 d . . .
H16A H 0.9783 0.8491 -0.4361 0.080 Uiso 1 d R . .
C17 C 0.8378(5) 0.7653(5) -0.3971(5) 0.0932(18) Uani 1 d . . .
H17A H 0.8337 0.8220 -0.3561 0.080 Uiso 1 d R . .
C18 C 0.7586(4) 0.6678(4) -0.4083(4) 0.0670(13) Uani 1 d . . .
C19 C 0.7698(4) 0.5909(5) -0.4692(4) 0.0857(17) Uani 1 d . . .
H19A H 0.7149 0.5216 -0.4810 0.080 Uiso 1 d R . .
C20 C 0.8557(5) 0.6130(8) -0.5146(5) 0.106(2) Uani 1 d . . .
H20A H 0.8629 0.5581 -0.5558 0.080 Uiso 1 d R . .
C21 C 0.3681(3) 0.5024(3) -0.0898(3) 0.0459(9) Uani 1 d . . .
C22 C 0.3221(4) 0.4019(3) -0.1467(3) 0.0483(9) Uani 1 d . . .
C23 C 0.3516(4) 0.3794(3) -0.2323(3) 0.0540(10) Uani 1 d . . .
C24 C 0.3179(6) 0.2687(4) -0.2806(5) 0.0845(16) Uani 1 d . . .
H24A H 0.3712 0.2638 -0.3176 0.080 Uiso 1 d R . .
H24B H 0.2361 0.2434 -0.3256 0.080 Uiso 1 d R . .
H24C H 0.3241 0.2269 -0.2301 0.080 Uiso 1 d R . .
C25 C 0.3382(4) 0.5252(4) 0.0033(3) 0.0583(11) Uani 1 d . . .
H25A H 0.3424 0.4723 0.0420 0.080 Uiso 1 d R . .
H25B H 0.2585 0.5287 -0.0142 0.080 Uiso 1 d R . .
H25C H 0.3945 0.5906 0.0427 0.080 Uiso 1 d R . .
C26 C 0.0595(4) 0.1958(4) -0.1234(5) 0.0742(14) Uani 1 d . . .
H26A H -0.0266 0.1691 -0.1553 0.080 Uiso 1 d R . .
C27 C 0.1251(4) 0.2782(4) -0.1572(4) 0.0735(14) Uani 1 d . . .
H27A H 0.0867 0.3068 -0.2107 0.080 Uiso 1 d R . .
C28 C 0.2476(4) 0.3151(3) -0.1105(3) 0.0517(10) Uani 1 d . . .
C29 C 0.2957(4) 0.2674(4) -0.0312(4) 0.0591(11) Uani 1 d . . .
H29A H 0.3814 0.2926 0.0029 0.080 Uiso 1 d R . .
C30 C 0.2230(4) 0.1859(4) -0.0021(4) 0.0629(12) Uani 1 d . . .
H30A H 0.2585 0.1562 0.0518 0.080 Uiso 1 d R . .
O8 O 0.275(2) 0.049(3) 0.2991(9) 0.317(19) Uani 0.75 d PD . .
O9 O 0.258(2) -0.0065(17) 0.1507(11) 0.218(8) Uani 0.75 d PD . .
O9A O 0.232(2) -0.0496(19) 0.175(3) 0.32(6) Uani 0.25 d PD . .
O8A O 0.302(3) 0.088(3) 0.277(4) 0.35(6) Uani 0.25 d PD . .
O10A O 1.0908(10) 0.7202(19) -0.6075(9) 0.192(8) Uani 0.50 d P . .
O10B O 1.1975(17) 0.8848(16) -0.6394(17) 0.192(6) Uani 0.50 d P . .

loop_
_atom_site_aniso_label
_atom_site_aniso_U_11
_atom_site_aniso_U_22
_atom_site_aniso_U_33
_atom_site_aniso_U_23
_atom_site_aniso_U_13
_atom_site_aniso_U_12
Cd1 0.0671(3) 0.0416(3) 0.0841(4) 0.0113(2) 0.0529(3) 0.0151(2)
Fe1 0.0502(3) 0.0496(3) 0.0492(4) 0.0085(3) 0.0311(3) 0.0134(3)
O1 0.0509(15) 0.0681(18) 0.0610(18) -0.0065(15) 0.0254(14) 0.0158(14)
O2 0.0604(17) 0.0503(15) 0.083(2) 0.0068(15) 0.0432(16) 0.0118(14)
O3 0.0534(16) 0.0721(18) 0.0498(16) 0.0135(14) 0.0283(14) 0.0173(14)
O4 0.0535(15) 0.0783(19) 0.0538(17) 0.0159(15) 0.0332(14) 0.0190(14)
O5 0.0560(15) 0.0516(15) 0.0477(16) 0.0041(13) 0.0292(13) 0.0051(13)
O6 0.0733(18) 0.0498(15) 0.0591(17) 0.0073(13) 0.0441(15) 0.0119(14)
O7 0.099(4) 0.196(7) 0.127(5) 0.051(4) 0.035(4) 0.028(4)
N1 0.084(3) 0.063(2) 0.084(3) 0.018(2) 0.053(2) 0.034(2)
N2 0.067(3) 0.190(7) 0.083(4) -0.002(4) 0.048(3) 0.002(4)
N3 0.058(2) 0.0462(19) 0.072(3) 0.0075(18) 0.036(2) 0.0097(17)
N4 0.132(7) 0.116(5) 0.132(7) 0.034(5) 0.074(7) 0.029(5)
C1 0.053(2) 0.071(3) 0.061(3) 0.013(2) 0.029(2) 0.027(2)
C2 0.069(3) 0.056(3) 0.068(3) 0.005(2) 0.036(2) 0.024(2)
C3 0.068(3) 0.052(2) 0.075(3) 0.009(2) 0.038(2) 0.022(2)
C4 0.091(4) 0.068(3) 0.141(6) -0.023(4) 0.048(4) 0.018(3)
C5 0.058(3) 0.102(4) 0.109(4) -0.018(4) 0.031(3) 0.025(3)
C6 0.175(7) 0.118(5) 0.111(5) 0.069(4) 0.108(5) 0.106(5)
C7 0.173(6) 0.110(5) 0.120(5) 0.064(4) 0.106(5) 0.103(5)
C8 0.068(3) 0.060(3) 0.070(3) 0.009(2) 0.038(2) 0.026(2)
C9 0.108(4) 0.099(4) 0.072(3) 0.025(3) 0.055(3) 0.056(4)
C10 0.103(4) 0.082(3) 0.080(3) 0.025(3) 0.053(3) 0.056(3)
C11 0.062(3) 0.063(3) 0.053(3) 0.011(2) 0.036(2) 0.013(2)
C12 0.047(2) 0.065(3) 0.053(3) 0.001(2) 0.030(2) 0.0078(19)
C13 0.050(2) 0.059(2) 0.062(3) 0.004(2) 0.030(2) 0.0116(19)
C14 0.058(3) 0.123(4) 0.068(3) 0.018(3) 0.031(3) 0.025(3)
C15 0.074(3) 0.116(4) 0.059(3) 0.024(3) 0.038(3) 0.030(3)
C16 0.078(4) 0.131(6) 0.106(5) 0.016(5) 0.053(4) -0.013(4)
C17 0.089(4) 0.096(4) 0.098(4) 0.010(3) 0.064(3) -0.002(3)
C18 0.051(2) 0.092(3) 0.053(3) -0.005(2) 0.029(2) 0.003(2)
C19 0.054(3) 0.110(4) 0.084(4) -0.026(3) 0.035(3) 0.003(3)
C20 0.065(3) 0.172(7) 0.074(4) -0.030(4) 0.035(3) 0.020(4)
C21 0.045(2) 0.053(2) 0.046(2) 0.0080(19) 0.0247(18) 0.0130(18)
C22 0.052(2) 0.046(2) 0.051(2) 0.0073(19) 0.029(2) 0.0087(18)
C23 0.063(2) 0.050(2) 0.052(2) 0.004(2) 0.028(2) 0.012(2)
C24 0.129(5) 0.058(3) 0.078(3) 0.002(3) 0.062(3) 0.014(3)
C25 0.072(3) 0.060(2) 0.057(3) 0.009(2) 0.041(2) 0.020(2)
C26 0.047(2) 0.078(3) 0.102(4) 0.035(3) 0.031(3) 0.014(2)
C27 0.058(3) 0.079(3) 0.090(4) 0.039(3) 0.033(3) 0.018(2)
C28 0.052(3) 0.052(2) 0.056(3) 0.008(2) 0.031(2) 0.010(2)
C29 0.054(2) 0.061(3) 0.056(3) 0.013(2) 0.020(2) 0.004(2)
C30 0.069(3) 0.057(3) 0.062(3) 0.017(2) 0.028(2) 0.009(2)
O8 0.35(3) 0.50(5) 0.109(9) -0.027(15) -0.018(13) 0.26(3)
O9 0.32(2) 0.235(16) 0.178(11) 0.051(12) 0.138(14) 0.143(18)
O9A 0.28(5) 0.25(5) 0.36(8) -0.23(6) 0.27(6) -0.17(5)
O8A 0.14(3) 0.092(17) 0.57(13) -0.10(4) -0.20(5) 0.022(17)
O10A 0.103(7) 0.39(3) 0.114(8) 0.059(11) 0.082(7) 0.062(10)
O10B 0.182(13) 0.192(14) 0.240(17) 0.029(13) 0.135(13) 0.044(11)

_geom_special_details            
;
All esds (except the esd in the dihedral angle between two l.s. planes)
are estimated using the full covariance matrix.  The cell esds are taken
into account individually in the estimation of esds in distances, angles
and torsion angles; correlations between esds in cell parameters are only
used when they are defined by crystal symmetry.  An approximate (isotropic)
treatment of cell esds is used for estimating esds involving l.s. planes.
;

loop_
_geom_bond_atom_site_label_1
_geom_bond_atom_site_label_2
_geom_bond_distance
_geom_bond_site_symmetry_2
_geom_bond_publ_flag
Cd1 N3 2.333(3) 2 ?
Cd1 N3 2.333(3) . ?
Cd1 N1 2.373(3) 1_545 ?
Cd1 N1 2.373(3) 2_565 ?
Cd1 O7 2.396(7) 2 ?
Cd1 O7 2.396(7) . ?
Fe1 O4 1.978(3) . ?
Fe1 O3 1.978(3) . ?
Fe1 O2 1.998(3) . ?
Fe1 O6 1.999(3) . ?
Fe1 O1 2.012(3) . ?
Fe1 O5 2.019(3) . ?
O1 C1 1.284(5) . ?
O2 C3 1.280(5) . ?
O3 C11 1.282(5) . ?
O4 C13 1.285(5) . ?
O5 C21 1.281(5) . ?
O6 C23 1.273(5) . ?
O7 N4 1.111(8) . ?
N1 C6 1.330(7) . ?
N1 C10 1.332(7) . ?
N1 Cd1 2.373(3) 1_565 ?
N2 C20 1.307(11) . ?
N2 C16 1.327(11) . ?
N3 C30 1.334(6) . ?
N3 C26 1.335(7) . ?
N4 O9 1.248(11) . ?
N4 O8A 1.251(14) . ?
N4 O8 1.257(12) . ?
N4 O9A 1.264(15) . ?
C1 C2 1.394(7) . ?
C1 C5 1.509(7) . ?
C2 C3 1.414(7) . ?
C2 C8 1.521(6) . ?
C3 C4 1.484(8) . ?
C6 C7 1.364(8) . ?
C7 C8 1.360(8) . ?
C8 C9 1.366(8) . ?
C9 C10 1.386(7) . ?
C11 C12 1.406(7) . ?
C11 C15 1.495(7) . ?
C12 C13 1.415(7) . ?
C12 C18 1.506(6) . ?
C13 C14 1.488(7) . ?
C16 C17 1.386(9) . ?
C17 C18 1.379(8) . ?
C18 C19 1.378(8) . ?
C19 C20 1.380(8) . ?
C21 C22 1.414(6) . ?
C21 C25 1.509(5) . ?
C22 C23 1.406(6) . ?
C22 C28 1.497(6) . ?
C23 C24 1.501(7) . ?
C26 C27 1.386(7) . ?
C27 C28 1.399(7) . ?
C28 C29 1.378(6) . ?
C29 C30 1.386(6) . ?
O8 O8A 0.69(7) . ?
O9 O9A 0.73(4) . ?

loop_
_geom_angle_atom_site_label_1
_geom_angle_atom_site_label_2
_geom_angle_atom_site_label_3
_geom_angle
_geom_angle_site_symmetry_1
_geom_angle_site_symmetry_3
_geom_angle_publ_flag
N3 Cd1 N3 180.0 2 . ?
N3 Cd1 N1 93.20(13) 2 1_545 ?
N3 Cd1 N1 86.80(13) . 1_545 ?
N3 Cd1 N1 86.80(13) 2 2_565 ?
N3 Cd1 N1 93.20(13) . 2_565 ?
N1 Cd1 N1 180.0 1_545 2_565 ?
N3 Cd1 O7 90.60(19) 2 2 ?
N3 Cd1 O7 89.40(19) . 2 ?
N1 Cd1 O7 78.8(2) 1_545 2 ?
N1 Cd1 O7 101.2(2) 2_565 2 ?
N3 Cd1 O7 89.40(19) 2 . ?
N3 Cd1 O7 90.60(19) . . ?
N1 Cd1 O7 101.2(2) 1_545 . ?
N1 Cd1 O7 78.8(2) 2_565 . ?
O7 Cd1 O7 180.0 2 . ?
O4 Fe1 O3 86.05(11) . . ?
O4 Fe1 O2 90.60(12) . . ?
O3 Fe1 O2 96.26(12) . . ?
O4 Fe1 O6 93.45(13) . . ?
O3 Fe1 O6 93.67(12) . . ?
O2 Fe1 O6 169.51(11) . . ?
O4 Fe1 O1 174.06(13) . . ?
O3 Fe1 O1 89.98(12) . . ?
O2 Fe1 O1 85.44(12) . . ?
O6 Fe1 O1 91.21(12) . . ?
O4 Fe1 O5 94.96(12) . . ?
O3 Fe1 O5 177.61(11) . . ?
O2 Fe1 O5 85.90(12) . . ?
O6 Fe1 O5 84.11(11) . . ?
O1 Fe1 O5 89.17(12) . . ?
C1 O1 Fe1 125.9(3) . . ?
C3 O2 Fe1 127.6(3) . . ?
C11 O3 Fe1 131.7(3) . . ?
C13 O4 Fe1 132.2(3) . . ?
C21 O5 Fe1 127.3(2) . . ?
C23 O6 Fe1 129.6(2) . . ?
N4 O7 Cd1 129.9(7) . . ?
C6 N1 C10 116.2(4) . . ?
C6 N1 Cd1 122.5(3) . 1_565 ?
C10 N1 Cd1 121.4(3) . 1_565 ?
C20 N2 C16 117.0(5) . . ?
C30 N3 C26 116.6(4) . . ?
C30 N3 Cd1 119.2(3) . . ?
C26 N3 Cd1 123.9(3) . . ?
O7 N4 O9 116.7(12) . . ?
O7 N4 O8A 126.2(14) . . ?
O9 N4 O8A 105(3) . . ?
O7 N4 O8 128.1(12) . . ?
O9 N4 O8 115.2(13) . . ?
O8A N4 O8 32(3) . . ?
O7 N4 O9A 120.7(15) . . ?
O9 N4 O9A 33.8(19) 