####################################################################### 
# 
# This file contains crystal structure data downloaded from the 
# Cambridge Structural Database (CSD) hosted by the Cambridge 
# Crystallographic Data Centre (CCDC).
# 
# Full information about CCDC data access policies and citation 
# guidelines are available at http://www.ccdc.cam.ac.uk/access/V1 
# 
# Audit and citation data items may have been added by the CCDC. 
# Please retain this information to preserve the provenance of 
# this file and to allow appropriate attribution of the data. 
# 
#######################################################################

data_c1645
_audit_block_doi                 10.5517/cc7j43z
_database_code_depnum_ccdc_archive 'CCDC 224040'
loop_
_citation_id
_citation_doi
_citation_year
1 10.1039/b407244h 2004
_audit_update_record             
;
2003-11-10 deposited with the CCDC.	2024-07-11 downloaded from the CCDC.
;

_audit_creation_method           SHELXL-97
_chemical_name_systematic        
;
Cobalt(II) Chloride 1:2 Complex with
Tris-[3-(4-pyridyl)pentane-2,4-dione]-aluminium, Solvate with 4 Chloroform
and 2 Methanol
;
_chemical_name_common            
;
Cobalt(ii) Chloride 1:2 Complex with Tris-(3-(4-
pyridyl)pentane-2,4-dione)-aluminium, Solvate with 4 Chloroform and 2
Methanol
;
_chemical_formula_moiety         ?
_chemical_formula_sum            'C66 H72 Al2 Cl14 Co N6 O14'
_chemical_formula_weight         1782.49

loop_
_atom_type_symbol
_atom_type_description
_atom_type_scat_dispersion_real
_atom_type_scat_dispersion_imag
_atom_type_scat_source
C C 0.0033 0.0016 'International Tables Vol C Tables 4.2.6.8 and 6.1.1.4'
H H 0.0000 0.0000 'International Tables Vol C Tables 4.2.6.8 and 6.1.1.4'
N N 0.0061 0.0033 'International Tables Vol C Tables 4.2.6.8 and 6.1.1.4'
O O 0.0106 0.0060 'International Tables Vol C Tables 4.2.6.8 and 6.1.1.4'
Al Al 0.0645 0.0514 'International Tables Vol C Tables 4.2.6.8 and 6.1.1.4'
Cl Cl 0.1484 0.1585 'International Tables Vol C Tables 4.2.6.8 and 6.1.1.4'
Co Co 0.3494 0.9721 'International Tables Vol C Tables 4.2.6.8 and 6.1.1.4'

_symmetry_cell_setting           Triclinic
_symmetry_space_group_name_H-M   P-1

loop_
_symmetry_equiv_pos_as_xyz
'x, y, z'
'-x, -y, -z'

_cell_length_a                   12.026(2)
_cell_length_b                   13.712(2)
_cell_length_c                   14.192(3)
_cell_angle_alpha                96.589(8)
_cell_angle_beta                 103.894(5)
_cell_angle_gamma                108.249(5)
_cell_volume                     2111.3(6)
_cell_formula_units_Z            1
_cell_measurement_temperature    293(2)
_cell_measurement_reflns_used    ?
_cell_measurement_theta_min      ?
_cell_measurement_theta_max      ?

_exptl_crystal_description       prism
_exptl_crystal_colour            light-blue
_exptl_crystal_size_max          0.24
_exptl_crystal_size_mid          0.18
_exptl_crystal_size_min          0.08
_exptl_crystal_density_meas      ?
_exptl_crystal_density_diffrn    1.402
_exptl_crystal_density_method    'not measured'
_exptl_crystal_F_000             913
_exptl_absorpt_coefficient_mu    0.726
_exptl_absorpt_correction_type   integration
_exptl_absorpt_correction_T_min  0.8450
_exptl_absorpt_correction_T_max  0.9442

_exptl_special_details           
;
?
;

_diffrn_ambient_temperature      293(2)
_diffrn_radiation_wavelength     0.71073
_diffrn_radiation_type           MoK\a
_diffrn_radiation_source         'fine-focus sealed tube'
_diffrn_radiation_monochromator  graphite
_diffrn_measurement_device_type  'Siemens SMART CCD'
_diffrn_measurement_method       'omega scans'
_diffrn_detector_area_resol_mean ?
_diffrn_standards_number         ?
_diffrn_standards_interval_count ?
_diffrn_standards_interval_time  ?
_diffrn_standards_decay_%        ?
_diffrn_reflns_number            15207
_diffrn_reflns_av_R_equivalents  0.0689
_diffrn_reflns_av_sigmaI/netI    0.0905
_diffrn_reflns_limit_h_min       -15
_diffrn_reflns_limit_h_max       13
_diffrn_reflns_limit_k_min       -15
_diffrn_reflns_limit_k_max       17
_diffrn_reflns_limit_l_min       -15
_diffrn_reflns_limit_l_max       17
_diffrn_reflns_theta_min         6.84
_diffrn_reflns_theta_max         26.03
_reflns_number_total             7655
_reflns_number_gt                5125
_reflns_threshold_expression     >2sigma(I)

_computing_data_collection       ?
_computing_cell_refinement       ?
_computing_data_reduction        ?
_computing_structure_solution    'SHELXS-97 (Sheldrick, 1990)'
_computing_structure_refinement  'SHELXL-97 (Sheldrick, 1997)'
_computing_molecular_graphics    ?
_computing_publication_material  ?

_refine_special_details          
;
Refinement of F^2^ against ALL reflections.  The weighted R-factor wR and
goodness of fit S are based on F^2^, conventional R-factors R are based
on F, with F set to zero for negative F^2^. The threshold expression of
F^2^ > 2sigma(F^2^) is used only for calculating R-factors(gt) etc. and is
not relevant to the choice of reflections for refinement.  R-factors based
on F^2^ are statistically about twice as large as those based on F, and R-
factors based on ALL data will be even larger.
;

_refine_ls_structure_factor_coef Fsqd
_refine_ls_matrix_type           full
_refine_ls_weighting_scheme      
'calc w=1/[\s^2^(Fo^2^)+(0.0938P)^2^+4.1369P] where P=(Fo^2^+2Fc^2^)/3'
_atom_sites_solution_primary     direct
_atom_sites_solution_secondary   difmap
_atom_sites_solution_hydrogens   geom
_refine_ls_hydrogen_treatment    mixed
_refine_ls_extinction_method     none
_refine_ls_extinction_coef       ?
_refine_ls_number_reflns         7655
_refine_ls_number_parameters     461
_refine_ls_number_restraints     6
_refine_ls_R_factor_all          0.1065
_refine_ls_R_factor_gt           0.0757
_refine_ls_wR_factor_ref         0.1962
_refine_ls_wR_factor_gt          0.1828
_refine_ls_goodness_of_fit_ref   1.037
_refine_ls_restrained_S_all      1.036
_refine_ls_shift/su_max          0.002
_refine_ls_shift/su_mean         0.000

loop_
_atom_site_label
_atom_site_type_symbol
_atom_site_fract_x
_atom_site_fract_y
_atom_site_fract_z
_atom_site_U_iso_or_equiv
_atom_site_adp_type
_atom_site_occupancy
_atom_site_calc_flag
_atom_site_refinement_flags
_atom_site_disorder_assembly
_atom_site_disorder_group
Co1 Co 0.5000 0.0000 0.5000 0.0230(5) Uani 1 d S . .
Cl1 Cl 0.34399(13) -0.05582(12) 0.33879(9) 0.0347(6) Uani 1 d . . .
Al1 Al 0.04964(15) -0.59984(13) 0.74146(10) 0.0249(6) Uani 1 d . . .
O1 O 0.0969(4) -0.4539(4) 0.7807(3) 0.0360(16) Uani 1 d . . .
O2 O 0.0658(4) -0.5813(3) 0.6154(2) 0.0284(13) Uani 1 d . . .
O3 O 0.2159(4) -0.5890(4) 0.7830(3) 0.0334(16) Uani 1 d . . .
O4 O 0.0055(4) -0.7449(4) 0.6960(3) 0.0313(16) Uani 1 d . . .
O5 O 0.0381(4) -0.6163(3) 0.8674(2) 0.0298(13) Uani 1 d . . .
O6 O -0.1164(4) -0.6173(4) 0.6982(3) 0.0339(15) Uani 1 d . . .
N1 N 0.3976(4) -0.1392(4) 0.5517(3) 0.0251(15) Uani 1 d . . .
N2 N 0.3928(5) -0.9184(5) 0.5601(3) 0.0248(17) Uani 1 d . . .
N3 N -0.4504(6) -0.6986(8) 0.9948(4) 0.071(3) Uani 1 d . . .
C1 C 0.1961(8) -0.2721(6) 0.8031(5) 0.050(3) Uani 1 d . . .
H1A H 0.1697 -0.2750 0.8618 0.080 Uiso 1 d R . .
H1B H 0.2837 -0.2404 0.8216 0.080 Uiso 1 d R . .
H1C H 0.1599 -0.2311 0.7640 0.080 Uiso 1 d R . .
C2 C 0.1566(5) -0.3811(5) 0.7441(4) 0.032(2) Uani 1 d . . .
C3 C 0.1831(5) -0.3998(5) 0.6531(4) 0.034(2) Uani 1 d . . .
C4 C 0.1353(5) -0.4989(5) 0.5930(4) 0.0296(19) Uani 1 d . . .
C5 C 0.1624(6) -0.5200(6) 0.4964(4) 0.038(2) Uani 1 d . . .
H5A H 0.1213 -0.5930 0.4658 0.080 Uiso 1 d R . .
H5B H 0.1343 -0.4782 0.4531 0.080 Uiso 1 d R . .
H5C H 0.2491 -0.5023 0.5085 0.080 Uiso 1 d R . .
C6 C 0.4474(6) -0.1762(6) 0.6269(4) 0.038(2) Uani 1 d . . .
H6A H 0.5338 -0.1439 0.6591 0.080 Uiso 1 d R . .
C7 C 0.3822(6) -0.2604(6) 0.6616(4) 0.038(2) Uani 1 d . . .
H7A H 0.4233 -0.2846 0.7155 0.080 Uiso 1 d R . .
C8 C 0.2577(6) -0.3083(5) 0.6185(4) 0.030(2) Uani 1 d . . .
C9 C 0.2052(6) -0.2697(5) 0.5413(4) 0.037(2) Uani 1 d . . .
H9A H 0.1188 -0.3008 0.5090 0.080 Uiso 1 d R . .
C10 C 0.2770(5) -0.1866(5) 0.5095(4) 0.032(2) Uani 1 d . . .
H10A H 0.2379 -0.1617 0.4550 0.080 Uiso 1 d R . .
C11 C 0.4025(6) -0.6026(7) 0.7692(5) 0.047(2) Uani 1 d . . .
H11A H 0.4321 -0.5335 0.8097 0.080 Uiso 1 d R . .
H11B H 0.4376 -0.6467 0.8045 0.080 Uiso 1 d R . .
H11C H 0.4253 -0.5988 0.7090 0.080 Uiso 1 d R . .
C12 C 0.2631(6) -0.6467(6) 0.7448(4) 0.036(2) Uani 1 d . . .
C13 C 0.1984(6) -0.7482(6) 0.6851(4) 0.027(2) Uani 1 d . . .
C14 C 0.0703(7) -0.7933(5) 0.6674(4) 0.034(2) Uani 1 d . . .
C15 C 0.0003(8) -0.9059(7) 0.6114(7) 0.059(3) Uani 1 d . . .
H15A H -0.0848 -0.9222 0.6068 0.080 Uiso 1 d R . .
H15B H 0.0099 -0.9116 0.5461 0.080 Uiso 1 d R . .
H15C H 0.0299 -0.9541 0.6444 0.080 Uiso 1 d R . .
C16 C 0.3823(7) -0.9213(7) 0.6518(5) 0.036(2) Uani 1 d . . .
H16A H 0.4202 -0.9620 0.6897 0.080 Uiso 1 d R . .
C17 C 0.3191(7) -0.8701(7) 0.6928(4) 0.037(3) Uani 1 d . . .
H17A H 0.3134 -0.8762 0.7584 0.080 Uiso 1 d R . .
C18 C 0.2631(6) -0.8092(6) 0.6422(5) 0.035(3) Uani 1 d . . .
C19 C 0.2734(9) -0.8067(8) 0.5468(5) 0.052(3) Uani 1 d . . .
H19A H 0.2375 -0.7658 0.5074 0.080 Uiso 1 d R . .
C20 C 0.3383(8) -0.8643(7) 0.5102(5) 0.044(3) Uani 1 d . . .
H20A H 0.3408 -0.8638 0.4431 0.080 Uiso 1 d R . .
C21 C -0.0311(7) -0.6516(6) 1.0055(4) 0.050(2) Uani 1 d . . .
H21A H 0.0536 -0.6427 1.0320 0.080 Uiso 1 d R . .
H21B H -0.0504 -0.6010 1.0448 0.080 Uiso 1 d R . .
H21C H -0.0813 -0.7211 1.0068 0.080 Uiso 1 d R . .
C22 C -0.0559(6) -0.6348(5) 0.8997(4) 0.0294(19) Uani 1 d . . .
C23 C -0.1721(5) -0.6454(5) 0.8444(4) 0.0301(19) Uani 1 d . . .
C24 C -0.1986(6) -0.6367(5) 0.7438(4) 0.031(2) Uani 1 d . . .
C25 C -0.3244(6) -0.6567(6) 0.6822(4) 0.037(2) Uani 1 d . . .
H25A H -0.3234 -0.6486 0.6161 0.080 Uiso 1 d R . .
H25B H -0.3771 -0.7264 0.6802 0.080 Uiso 1 d R . .
H25C H -0.3541 -0.6066 0.7105 0.080 Uiso 1 d R . .
C26 C -0.4466(7) -0.7768(8) 0.9301(5) 0.060(3) Uani 1 d . . .
H26A H -0.5067 -0.8456 0.9192 0.080 Uiso 1 d R . .
C27 C -0.3601(7) -0.7620(7) 0.8796(5) 0.051(3) Uani 1 d . . .
H27A H -0.3619 -0.8198 0.8333 0.080 Uiso 1 d R . .
C28 C -0.2720(6) -0.6628(6) 0.8936(4) 0.041(2) Uani 1 d . . .
C29 C -0.2765(7) -0.5854(8) 0.9602(6) 0.059(3) Uani 1 d . . .
H29A H -0.2172 -0.5158 0.9737 0.080 Uiso 1 d R . .
C30 C -0.3659(8) -0.6052(10) 1.0075(6) 0.081(4) Uani 1 d . . .
H30A H -0.3675 -0.5490 1.0536 0.080 Uiso 1 d R . .
C31 C -0.2829(13) -0.3256(15) 0.7344(8) 0.099(5) Uani 1 d . . .
H31A H -0.3211 -0.3370 0.7863 0.080 Uiso 1 d R . .
Cl2 Cl -0.3971(4) -0.3893(4) 0.6185(3) 0.1113(14) Uani 1 d . . .
Cl3 Cl -0.2275(5) -0.1918(4) 0.7366(3) 0.1210(15) Uani 1 d . . .
Cl4 Cl -0.1659(4) -0.3782(3) 0.7508(2) 0.1014(13) Uani 1 d . . .
O7 O -0.6337(10) -0.6987(15) 1.0803(8) 0.144(6) Uani 1 d . . .
C32 C -0.734(2) -0.719(4) 1.0007(17) 0.192(18) Uani 1 d . . .
C33 C 0.735(4) -0.027(6) 0.949(3) 0.5(3) Uiso 1 d D . .
H33A H 0.7461 -0.0934 0.9368 0.080 Uiso 1 d R . .
Cl5 Cl 0.578(2) -0.0583(13) 0.8930(13) 0.281(10) Uani 1 d D . .
Cl6 Cl 0.770(3) 0.020(4) 1.077(2) 0.46(4) Uani 1 d D . .
Cl7 Cl 0.826(3) 0.063(4) 0.897(3) 0.38(3) Uani 1 d D . .

loop_
_atom_site_aniso_label
_atom_site_aniso_U_11
_atom_site_aniso_U_22
_atom_site_aniso_U_33
_atom_site_aniso_U_23
_atom_site_aniso_U_13
_atom_site_aniso_U_12
Co1 0.0241(6) 0.0213(7) 0.0248(5) -0.0016(4) 0.0123(4) 0.0081(6)
Cl1 0.0329(8) 0.0358(10) 0.0283(6) -0.0006(5) 0.0086(5) 0.0053(8)
Al1 0.0257(9) 0.0247(11) 0.0252(7) -0.0007(6) 0.0139(6) 0.0074(9)
O1 0.040(2) 0.037(3) 0.0301(17) 0.0006(16) 0.0210(16) 0.007(3)
O2 0.031(2) 0.027(2) 0.0270(16) -0.0016(14) 0.0150(14) 0.008(2)
O3 0.031(2) 0.036(3) 0.0288(17) -0.0088(17) 0.0150(16) 0.006(3)
O4 0.029(2) 0.025(3) 0.0388(19) -0.0028(17) 0.0175(17) 0.006(3)
O5 0.0277(19) 0.035(3) 0.0292(16) 0.0015(15) 0.0159(14) 0.010(2)
O6 0.031(2) 0.040(3) 0.0300(17) 0.0038(16) 0.0168(15) 0.007(2)
N1 0.028(2) 0.017(3) 0.032(2) -0.0003(17) 0.0123(17) 0.010(2)
N2 0.028(3) 0.024(3) 0.031(2) 0.002(2) 0.0125(18) 0.019(3)
N3 0.039(3) 0.121(7) 0.041(3) -0.006(3) 0.022(2) 0.013(4)
C1 0.074(5) 0.031(4) 0.047(3) 0.002(3) 0.033(3) 0.010(4)
C2 0.033(3) 0.029(4) 0.033(2) -0.003(2) 0.018(2) 0.004(3)
C3 0.032(3) 0.036(4) 0.028(2) 0.003(2) 0.014(2) 0.002(3)
C4 0.026(3) 0.031(4) 0.028(2) 0.002(2) 0.0116(19) 0.004(3)
C5 0.042(3) 0.040(4) 0.032(3) 0.000(2) 0.020(2) 0.009(3)
C6 0.025(3) 0.042(4) 0.041(3) 0.010(3) 0.012(2) 0.004(3)
C7 0.033(3) 0.039(4) 0.041(3) 0.016(2) 0.012(2) 0.009(3)
C8 0.036(3) 0.024(3) 0.031(2) -0.001(2) 0.018(2) 0.007(3)
C9 0.031(3) 0.037(4) 0.032(3) 0.001(2) 0.009(2) 0.001(3)
C10 0.028(3) 0.031(4) 0.035(3) 0.000(2) 0.012(2) 0.007(3)
C11 0.025(3) 0.050(5) 0.062(4) -0.010(3) 0.015(3) 0.012(4)
C12 0.029(3) 0.048(4) 0.026(2) 0.002(3) 0.010(2) 0.006(4)
C13 0.029(3) 0.031(4) 0.033(3) 0.000(2) 0.014(2) 0.026(4)
C14 0.040(4) 0.022(4) 0.036(3) -0.005(2) 0.015(3) 0.008(4)
C15 0.047(4) 0.030(4) 0.079(5) -0.017(3) 0.015(3) -0.001(4)
C16 0.041(4) 0.046(5) 0.040(3) 0.007(3) 0.020(3) 0.034(4)
C17 0.052(4) 0.045(5) 0.033(3) 0.005(3) 0.022(3) 0.036(5)
C18 0.031(3) 0.036(5) 0.040(3) 0.000(3) 0.015(3) 0.013(4)
C19 0.069(5) 0.073(6) 0.042(3) 0.017(3) 0.031(3) 0.048(6)
C20 0.070(5) 0.052(5) 0.037(3) 0.013(3) 0.030(3) 0.045(5)
C21 0.045(4) 0.063(5) 0.029(3) 0.005(3) 0.018(2) -0.001(4)
C22 0.032(3) 0.026(3) 0.029(2) -0.005(2) 0.019(2) 0.005(3)
C23 0.030(3) 0.027(3) 0.032(2) -0.003(2) 0.017(2) 0.005(3)
C24 0.035(3) 0.025(4) 0.034(3) 0.000(2) 0.017(2) 0.008(3)
C25 0.033(3) 0.049(5) 0.042(3) 0.007(3) 0.019(2) 0.025(4)
C26 0.040(4) 0.076(6) 0.049(3) 0.008(3) 0.022(3) -0.003(4)
C27 0.044(4) 0.058(5) 0.039(3) 0.004(3) 0.020(3) 0.000(4)
C28 0.029(3) 0.055(5) 0.027(2) -0.006(2) 0.012(2) 0.001(4)
C29 0.038(4) 0.063(6) 0.064(4) -0.027(4) 0.027(3) 0.008(4)
C30 0.049(4) 0.115(9) 0.051(4) -0.036(5) 0.025(3) 0.002(6)
C31 0.099(8) 0.144(13) 0.066(5) 0.029(6) 0.041(5) 0.045(10)
Cl2 0.100(2) 0.134(3) 0.0934(19) 0.0098(18) 0.0179(16) 0.045(2)
Cl3 0.145(3) 0.104(3) 0.108(2) 0.0202(18) 0.015(2) 0.052(3)
Cl4 0.119(2) 0.123(3) 0.0677(14) 0.0078(14) 0.0148(13) 0.064(2)
O7 0.097(7) 0.245(16) 0.112(7) 0.027(8) 0.081(6) 0.055(8)
C32 0.104(12) 0.35(5) 0.117(13) 0.017(18) 0.038(11) 0.09(2)
Cl5 0.38(3) 0.198(9) 0.235(11) 0.036(8) 0.101(13) 0.049(13)
Cl6 0.35(3) 0.56(8) 0.33(3) -0.21(5) 0.03(3) 0.11(4)
Cl7 0.30(2) 0.41(4) 0.35(3) -0.07(3) 0.16(2) 0.02(3)

_geom_special_details            
;
All esds (except the esd in the dihedral angle between two l.s. planes)
are estimated using the full covariance matrix.  The cell esds are taken
into account individually in the estimation of esds in distances, angles
and torsion angles; correlations between esds in cell parameters are only
used when they are defined by crystal symmetry.  An approximate (isotropic)
treatment of cell esds is used for estimating esds involving l.s. planes.
;

loop_
_geom_bond_atom_site_label_1
_geom_bond_atom_site_label_2
_geom_bond_distance
_geom_bond_site_symmetry_2
_geom_bond_publ_flag
Co1 N2 2.203(7) 1_565 ?
Co1 N2 2.203(7) 2_646 ?
Co1 N1 2.232(4) . ?
Co1 N1 2.232(4) 2_656 ?
Co1 Cl1 2.4449(13) . ?
Co1 Cl1 2.4449(13) 2_656 ?
Al1 O5 1.859(4) . ?
Al1 O6 1.871(5) . ?
Al1 O1 1.876(5) . ?
Al1 O4 1.880(5) . ?
Al1 O2 1.882(4) . ?
Al1 O3 1.896(5) . ?
O1 C2 1.277(7) . ?
O2 C4 1.302(7) . ?
O3 C12 1.254(10) . ?
O4 C14 1.275(10) . ?
O5 C22 1.284(7) . ?
O6 C24 1.283(7) . ?
N1 C6 1.327(10) . ?
N1 C10 1.337(8) . ?
N2 C20 1.298(12) . ?
N2 C16 1.341(8) . ?
N2 Co1 2.203(7) 1_545 ?
N3 C30 1.323(14) . ?
N3 C26 1.348(15) . ?
C1 C2 1.496(10) . ?
C2 C3 1.418(8) . ?
C3 C4 1.383(9) . ?
C3 C8 1.506(8) . ?
C4 C5 1.501(7) . ?
C6 C7 1.392(9) . ?
C7 C8 1.378(9) . ?
C8 C9 1.374(11) . ?
C9 C10 1.392(8) . ?
C11 C12 1.527(9) . ?
C12 C13 1.412(10) . ?
C13 C14 1.415(10) . ?
C13 C18 1.482(13) . ?
C14 C15 1.518(9) . ?
C16 C17 1.364(14) . ?
C17 C18 1.388(14) . ?
C18 C19 1.392(10) . ?
C19 C20 1.410(17) . ?
C21 C22 1.518(8) . ?
C22 C23 1.382(11) . ?
C23 C24 1.414(8) . ?
C23 C28 1.500(8) . ?
C24 C25 1.476(11) . ?
C26 C27 1.378(11) . ?
C27 C28 1.396(10) . ?
C28 C29 1.361(12) . ?
C29 C30 1.374(11) . ?
C31 Cl3 1.74(2) . ?
C31 Cl4 1.75(2) . ?
C31 Cl2 1.786(14) . ?
O7 C32 1.37(3) . ?
C33 Cl7 1.73(4) . ?
C33 Cl5 1.75(4) . ?
C33 Cl6 1.76(4) . ?

loop_
_geom_angle_atom_site_label_1
_geom_angle_atom_site_label_2
_geom_angle_atom_site_label_3
_geom_angle
_geom_angle_site_symmetry_1
_geom_angle_site_symmetry_3
_geom_angle_publ_flag
N2 Co1 N2 180.0 1_565 2_646 ?
N2 Co1 N1 86.4(2) 1_565 . ?
N2 Co1 N1 93.6(2) 2_646 . ?
N2 Co1 N1 93.6(2) 1_565 2_656 ?
N2 Co1 N1 86.4(2) 2_646 2_656 ?
N1 Co1 N1 180.0 . 2_656 ?
N2 Co1 Cl1 89.97(14) 1_565 . ?
N2 Co1 Cl1 90.03(14) 2_646 . ?
N1 Co1 Cl1 91.12(12) . . ?
N1 Co1 Cl1 88.88(12) 2_656 . ?
N2 Co1 Cl1 90.03(14) 1_565 2_656 ?
N2 Co1 Cl1 89.97(14) 2_646 2_656 ?
N1 Co1 Cl1 88.88(12) . 2_656 ?
N1 Co1 Cl1 91.12(12) 2_656 2_656 ?
Cl1 Co1 Cl1 180.0 . 2_656 ?
O5 Al1 O6 90.80(18) . . ?
O5 Al1 O1 90.50(18) . . ?
O6 Al1 O1 92.5(2) . . ?
O5 Al1 O4 92.6(2) . . ?
O6 Al1 O4 88.3(2) . . ?
O1 Al1 O4 176.80(17) . . ?
O5 Al1 O2 178.49(19) . . ?
O6 Al1 O2 90.61(19) . . ?
O1 Al1 O2 88.89(19) . . ?
O4 Al1 O2 88.02(19) . . ?
O5 Al1 O3 89.42(19) . . ?
O6 Al1 O3 177.3(2) . . ?
O1 Al1 O3 90.1(2) . . ?
O4 Al1 O3 89.0(2) . . ?
O2 Al1 O3 89.20(19) . . ?
C2 O1 Al1 129.4(4) . . ?
C4 O2 Al1 127.7(3) . . ?
C12 O3 Al1 126.4(3) . . ?
C14 O4 Al1 127.8(3) . . ?
C22 O5 Al1 129.1(4) 