####################################################################### 
# 
# This file contains crystal structure data downloaded from the 
# Cambridge Structural Database (CSD) hosted by the Cambridge 
# Crystallographic Data Centre (CCDC).
# 
# Full information about CCDC data access policies and citation 
# guidelines are available at http://www.ccdc.cam.ac.uk/access/V1 
# 
# Audit and citation data items may have been added by the CCDC. 
# Please retain this information to preserve the provenance of 
# this file and to allow appropriate attribution of the data. 
# 
#######################################################################

data_dom48s
_audit_block_doi                 10.5517/cc80dd1
_database_code_depnum_ccdc_archive 'CCDC 238712'
loop_
_citation_id
_citation_doi
_citation_year
1 10.1039/b407244h 2004
_audit_update_record             
;
2004-05-13 deposited with the CCDC.	2024-07-11 downloaded from the CCDC.
;

_audit_creation_method           SHELXL-97
_chemical_name_systematic        
;
Cadmium Bromide 1:1 Complex with
Tris-[3-(4-pyridyl)pentane-2,4-dione]-aluminium, Solvate with
3 Methanol and 2 Chloroform
;
_chemical_name_common            
;
Cadmium Bromide 1:1 Complex with Tris-(3-(4-pyridyl)pentane-
2,4-dione)-aluminium, Solvate with 3 Methanol and 2 Chloroform
;
_chemical_formula_moiety         ?
_chemical_formula_sum            'C35 H44 Al Br2 Cd Cl6 N3 O9'
_chemical_formula_weight         1162.63

loop_
_atom_type_symbol
_atom_type_description
_atom_type_scat_dispersion_real
_atom_type_scat_dispersion_imag
_atom_type_scat_source
C C 0.0033 0.0016 'International Tables Vol C Tables 4.2.6.8 and 6.1.1.4'
H H 0.0000 0.0000 'International Tables Vol C Tables 4.2.6.8 and 6.1.1.4'
N N 0.0061 0.0033 'International Tables Vol C Tables 4.2.6.8 and 6.1.1.4'
O O 0.0106 0.0060 'International Tables Vol C Tables 4.2.6.8 and 6.1.1.4'
Al Al 0.0645 0.0514 'International Tables Vol C Tables 4.2.6.8 and 6.1.1.4'
Cl Cl 0.1484 0.1585 'International Tables Vol C Tables 4.2.6.8 and 6.1.1.4'
Cd Cd -0.8075 1.2024 'International Tables Vol C Tables 4.2.6.8 and 6.1.1.4'
Br Br -0.2901 2.4595 'International Tables Vol C Tables 4.2.6.8 and 6.1.1.4'

_symmetry_cell_setting           Monoclinic
_symmetry_space_group_name_H-M   P2(1)/n

loop_
_symmetry_equiv_pos_as_xyz
'x, y, z'
'-x+1/2, y+1/2, -z+1/2'
'-x, -y, -z'
'x-1/2, -y-1/2, z-1/2'

_cell_length_a                   11.7982(6)
_cell_length_b                   25.5040(10)
_cell_length_c                   16.0778(9)
_cell_angle_alpha                90.00
_cell_angle_beta                 97.889(3)
_cell_angle_gamma                90.00
_cell_volume                     4792.0(4)
_cell_formula_units_Z            4
_cell_measurement_temperature    173(2)
_cell_measurement_reflns_used    ?
_cell_measurement_theta_min      ?
_cell_measurement_theta_max      ?

_exptl_crystal_description       prism
_exptl_crystal_colour            colorless
_exptl_crystal_size_max          0.12
_exptl_crystal_size_mid          0.10
_exptl_crystal_size_min          0.10
_exptl_crystal_density_meas      ?
_exptl_crystal_density_diffrn    1.612
_exptl_crystal_density_method    'not measured'
_exptl_crystal_F_000             2320
_exptl_absorpt_coefficient_mu    2.526
_exptl_absorpt_correction_type   integration
_exptl_absorpt_correction_T_min  0.7514
_exptl_absorpt_correction_T_max  0.7863

_exptl_special_details           
;
?
;

_diffrn_ambient_temperature      173(2)
_diffrn_radiation_wavelength     0.71073
_diffrn_radiation_type           MoK\a
_diffrn_radiation_source         'fine-focus sealed tube'
_diffrn_radiation_monochromator  graphite
_diffrn_measurement_device_type  'Siemens SMART CCD'
_diffrn_measurement_method       'omega scans'
_diffrn_detector_area_resol_mean ?
_diffrn_standards_number         ?
_diffrn_standards_interval_count ?
_diffrn_standards_interval_time  ?
_diffrn_standards_decay_%        ?
_diffrn_reflns_number            32385
_diffrn_reflns_av_R_equivalents  0.1084
_diffrn_reflns_av_sigmaI/netI    0.1084
_diffrn_reflns_limit_h_min       -13
_diffrn_reflns_limit_h_max       14
_diffrn_reflns_limit_k_min       -31
_diffrn_reflns_limit_k_max       23
_diffrn_reflns_limit_l_min       -19
_diffrn_reflns_limit_l_max       19
_diffrn_reflns_theta_min         6.31
_diffrn_reflns_theta_max         25.68
_reflns_number_total             8635
_reflns_number_gt                5630
_reflns_threshold_expression     >2sigma(I)

_computing_data_collection       ?
_computing_cell_refinement       ?
_computing_data_reduction        ?
_computing_structure_solution    'SHELXS-97 (Sheldrick, 1990)'
_computing_structure_refinement  'SHELXL-97 (Sheldrick, 1997)'
_computing_molecular_graphics    ?
_computing_publication_material  ?

_refine_special_details          
;
Refinement of F^2^ against ALL reflections.  The weighted R-factor wR and
goodness of fit S are based on F^2^, conventional R-factors R are based
on F, with F set to zero for negative F^2^. The threshold expression of
F^2^ > 2sigma(F^2^) is used only for calculating R-factors(gt) etc. and is
not relevant to the choice of reflections for refinement.  R-factors based
on F^2^ are statistically about twice as large as those based on F, and R-
factors based on ALL data will be even larger.
;

_refine_ls_structure_factor_coef Fsqd
_refine_ls_matrix_type           full
_refine_ls_weighting_scheme      
'calc w=1/[\s^2^(Fo^2^)+(0.0423P)^2^+60.0936P] where P=(Fo^2^+2Fc^2^)/3'
_atom_sites_solution_primary     direct
_atom_sites_solution_secondary   difmap
_atom_sites_solution_hydrogens   geom
_refine_ls_hydrogen_treatment    mixed
_refine_ls_extinction_method     SHELXL
_refine_ls_extinction_coef       0.0087(6)
_refine_ls_extinction_expression Fc^*^=kFc[1+0.001xFc^2^\l^3^/sin(2\q)]^-1/4^
_refine_ls_number_reflns         8635
_refine_ls_number_parameters     515
_refine_ls_number_restraints     1
_refine_ls_R_factor_all          0.1324
_refine_ls_R_factor_gt           0.0804
_refine_ls_wR_factor_ref         0.1815
_refine_ls_wR_factor_gt          0.1681
_refine_ls_goodness_of_fit_ref   1.066
_refine_ls_restrained_S_all      1.066
_refine_ls_shift/su_max          0.004
_refine_ls_shift/su_mean         0.000

loop_
_atom_site_label
_atom_site_type_symbol
_atom_site_fract_x
_atom_site_fract_y
_atom_site_fract_z
_atom_site_U_iso_or_equiv
_atom_site_adp_type
_atom_site_occupancy
_atom_site_calc_flag
_atom_site_refinement_flags
_atom_site_disorder_assembly
_atom_site_disorder_group
Cd1 Cd 0.80509(5) 0.25039(3) 0.37632(4) 0.0173(2) Uani 1 d . . .
Br1 Br 0.87750(9) 0.23519(4) 0.22558(6) 0.0279(3) Uani 1 d . . .
Br2 Br 0.75546(8) 0.27581(4) 0.52955(6) 0.0281(3) Uani 1 d . . .
Al1 Al 0.0336(2) 0.39342(10) 0.16112(15) 0.0143(5) Uani 1 d . . .
O1 O 0.0914(5) 0.3532(2) 0.2533(4) 0.0200(13) Uani 1 d . . .
O2 O 0.1758(4) 0.3961(2) 0.1239(3) 0.0158(12) Uani 1 d . . .
O3 O 0.4366(5) -0.0455(2) 0.2739(4) 0.0201(13) Uani 1 d . . .
O4 O 0.5322(5) -0.0641(2) 0.4284(3) 0.0153(12) Uani 1 d . . .
O5 O 1.3877(5) 0.1127(2) 0.6945(4) 0.0164(13) Uani 1 d . . .
O6 O 1.5021(5) 0.1655(2) 0.5913(4) 0.0177(13) Uani 1 d . . .
O7 O 0.8966(6) 0.3331(3) 0.3645(4) 0.0302(16) Uani 1 d . . .
N1 N 0.6194(6) 0.2821(3) 0.3219(4) 0.0180(16) Uani 1 d . . .
N2 N 0.7267(6) 0.1645(3) 0.3669(4) 0.0185(16) Uani 1 d . . .
N3 N 0.9837(6) 0.2188(3) 0.4441(5) 0.0214(16) Uani 1 d . . .
C1 C 0.5542(8) 0.2594(4) 0.2563(6) 0.024(2) Uani 1 d . . .
H1A H 0.5857 0.2298 0.2306 0.029 Uiso 1 d R . .
C2 C 0.4451(7) 0.2762(4) 0.2244(6) 0.0201(19) Uani 1 d . . .
H2A H 0.4009 0.2578 0.1791 0.024 Uiso 1 d R . .
C3 C 0.3994(7) 0.3202(3) 0.2590(5) 0.0153(17) Uani 1 d . . .
C4 C 0.4670(8) 0.3443(4) 0.3277(6) 0.025(2) Uani 1 d . . .
H4A H 0.4392 0.3747 0.3538 0.030 Uiso 1 d R . .
C5 C 0.5723(8) 0.3239(4) 0.3563(6) 0.025(2) Uani 1 d . . .
H5A H 0.6163 0.3404 0.4038 0.031 Uiso 1 d R . .
C6 C 0.1925(7) 0.3324(3) 0.2723(6) 0.0194(19) Uani 1 d . . .
C7 C 0.2836(7) 0.3419(4) 0.2275(5) 0.0189(19) Uani 1 d . . .
C8 C 0.2698(7) 0.3719(3) 0.1530(5) 0.0169(18) Uani 1 d . . .
C9 C 0.2030(8) 0.2972(4) 0.3460(7) 0.031(2) Uani 1 d . . .
H9A H 0.1321 0.2965 0.3689 0.037 Uiso 1 d R . .
H9B H 0.2207 0.2625 0.3285 0.037 Uiso 1 d R . .
H9C H 0.2629 0.3093 0.3879 0.037 Uiso 1 d R . .
C10 C 0.3669(8) 0.3781(4) 0.1034(6) 0.027(2) Uani 1 d . . .
H10A H 0.3443 0.3998 0.0553 0.032 Uiso 1 d R . .
H10B H 0.4299 0.3941 0.1383 0.032 Uiso 1 d R . .
H10C H 0.3896 0.3443 0.0853 0.032 Uiso 1 d R . .
C11 C 0.6521(8) 0.1517(3) 0.4195(6) 0.0200(19) Uani 1 d . . .
H11A H 0.6362 0.1773 0.4600 0.024 Uiso 1 d R . .
C12 C 0.5970(7) 0.1037(4) 0.4165(6) 0.0212(19) Uani 1 d . . .
H12A H 0.5434 0.0962 0.4547 0.025 Uiso 1 d R . .
C13 C 0.6195(7) 0.0662(4) 0.3580(6) 0.0199(19) Uani 1 d . . .
C14 C 0.6961(8) 0.0793(4) 0.3041(6) 0.023(2) Uani 1 d . . .
H14A H 0.7153 0.0545 0.2636 0.028 Uiso 1 d R . .
C15 C 0.7470(8) 0.1286(4) 0.3100(6) 0.023(2) Uani 1 d . . .
H15A H 0.7995 0.1375 0.2717 0.028 Uiso 1 d R . .
C16 C 0.5843(7) -0.0206(3) 0.4241(5) 0.0164(18) Uani 1 d . . .
C17 C 0.5625(7) 0.0134(3) 0.3555(5) 0.0161(18) Uani 1 d . . .
C18 C 0.4832(7) -0.0005(4) 0.2836(5) 0.0193(19) Uani 1 d . . .
C19 C 0.6734(8) -0.0079(3) 0.4975(6) 0.0186(18) Uani 1 d . . .
H19A H 0.6762 -0.0356 0.5380 0.022 Uiso 1 d R . .
H19B H 0.7468 -0.0043 0.4788 0.022 Uiso 1 d R . .
H19C H 0.6537 0.0244 0.5228 0.022 Uiso 1 d R . .
C20 C 0.4490(10) 0.0385(5) 0.2135(7) 0.036(3) Uani 1 d . . .
H20A H 0.3953 0.0229 0.1705 0.043 Uiso 1 d R . .
H20B H 0.4147 0.0684 0.2363 0.043 Uiso 1 d R . .
H20C H 0.5157 0.0494 0.1900 0.043 Uiso 1 d R . .
C21 C 1.0296(8) 0.1740(4) 0.4236(6) 0.032(2) Uani 1 d . . .
H21A H 0.9907 0.1542 0.3775 0.038 Uiso 1 d R . .
C22 C 1.1315(9) 0.1546(4) 0.4664(7) 0.032(2) Uani 1 d . . .
H22A H 1.1602 0.1213 0.4511 0.039 Uiso 1 d R . .
C23 C 1.1908(7) 0.1825(4) 0.5310(5) 0.0189(19) Uani 1 d . . .
C24 C 1.1440(7) 0.2298(4) 0.5519(6) 0.023(2) Uani 1 d . . .
H24A H 1.1801 0.2503 0.5981 0.027 Uiso 1 d R . .
C25 C 1.0443(8) 0.2460(4) 0.5057(6) 0.024(2) Uani 1 d . . .
H25A H 1.0157 0.2799 0.5180 0.028 Uiso 1 d R . .
C26 C 1.2989(7) 0.1302(4) 0.6479(6) 0.0202(19) Uani 1 d . . .
C27 C 1.3012(7) 0.1626(4) 0.5785(5) 0.0199(19) Uani 1 d . . .
C28 C 1.4069(8) 0.1822(4) 0.5593(6) 0.024(2) Uani 1 d . . .
C29 C 1.4077(8) 0.2253(4) 0.4962(7) 0.029(2) Uani 1 d . . .
H29A H 1.3630 0.2541 0.5119 0.035 Uiso 1 d R . .
H29B H 1.3767 0.2134 0.4411 0.035 Uiso 1 d R . .
H29C H 1.4849 0.2366 0.4947 0.035 Uiso 1 d R . .
C30 C 1.1872(7) 0.1150(4) 0.6771(7) 0.027(2) Uani 1 d . . .
H30A H 1.1560 0.0868 0.6417 0.033 Uiso 1 d R . .
H30B H 1.1329 0.1432 0.6710 0.033 Uiso 1 d R . .
H30C H 1.1969 0.1026 0.7340 0.033 Uiso 1 d R . .
C31 C 0.8940(11) 0.3806(5) 0.4041(8) 0.045(3) Uani 1 d . . .
H31A H 0.8727 0.3804 0.4595 0.054 Uiso 1 d R . .
H31B H 0.8454 0.4000 0.3622 0.054 Uiso 1 d R . .
H31C H 0.9696 0.3928 0.3988 0.054 Uiso 1 d R . .
C33 C 0.2470(14) 0.9343(7) -0.0228(11) 0.069(4) Uani 1 d . . .
H33A H 0.1671 0.9424 -0.0345 0.083 Uiso 1 d R . .
Cl1 Cl 0.2814(4) 0.93145(16) 0.0867(2) 0.0731(11) Uani 1 d . . .
Cl2 Cl 0.3211(5) 0.98505(19) -0.0643(3) 0.0860(13) Uani 1 d . . .
Cl3 Cl 0.2677(6) 0.87483(19) -0.0713(3) 0.1022(17) Uani 1 d . . .
C34 C 0.4607(13) 0.5267(6) 0.2206(12) 0.068(4) Uani 1 d . . .
H34A H 0.4542 0.5627 0.2362 0.082 Uiso 1 d R . .
Cl4 Cl 0.3285(3) 0.49674(18) 0.2201(3) 0.0723(11) Uani 1 d . . .
Cl5 Cl 0.5035(4) 0.52411(17) 0.1174(3) 0.0715(11) Uani 1 d . . .
Cl6 Cl 0.5656(4) 0.4971(2) 0.2935(3) 0.0841(13) Uani 1 d . . .
H1 H 0.9253 0.3387 0.3155 0.101 Uiso 1 d . . .
C35 C 0.6148(13) 0.4336(6) 0.5257(9) 0.058(4) Uani 1 d . . .
O8 O 0.5071(12) 0.4064(7) 0.5382(12) 0.118(5) Uani 1 d . . .
C36 C 0.189(2) 0.1532(12) 0.2328(18) 0.22(3) Uani 1 d D . .
O9 O 0.0608(16) 0.1403(7) 0.2118(12) 0.124(5) Uani 1 d D . .

loop_
_atom_site_aniso_label
_atom_site_aniso_U_11
_atom_site_aniso_U_22
_atom_site_aniso_U_33
_atom_site_aniso_U_23
_atom_site_aniso_U_13
_atom_site_aniso_U_12
Cd1 0.0093(3) 0.0191(4) 0.0227(3) 0.0049(3) -0.0005(2) 0.0018(3)
Br1 0.0335(5) 0.0257(6) 0.0254(5) 0.0044(4) 0.0071(4) -0.0005(4)
Br2 0.0230(5) 0.0375(6) 0.0229(5) 0.0023(4) 0.0000(4) 0.0052(4)
Al1 0.0081(12) 0.0171(13) 0.0171(12) 0.0023(10) 0.0000(9) 0.0027(10)
O1 0.008(3) 0.029(4) 0.023(3) 0.013(3) 0.001(2) 0.005(2)
O2 0.008(3) 0.021(3) 0.019(3) 0.009(2) 0.001(2) 0.006(2)
O3 0.014(3) 0.023(3) 0.022(3) 0.000(3) -0.004(2) -0.004(3)
O4 0.013(3) 0.018(3) 0.014(3) -0.002(2) -0.002(2) -0.006(2)
O5 0.006(3) 0.023(3) 0.018(3) -0.001(2) -0.003(2) 0.002(2)
O6 0.007(3) 0.018(3) 0.028(3) 0.003(3) 0.002(2) -0.002(2)
O7 0.041(4) 0.026(4) 0.025(3) -0.003(3) 0.010(3) -0.011(3)
N1 0.011(3) 0.021(4) 0.021(4) 0.004(3) -0.001(3) 0.001(3)
N2 0.010(3) 0.027(4) 0.018(4) 0.000(3) 0.001(3) -0.001(3)
N3 0.016(4) 0.027(4) 0.020(4) 0.003(3) 0.000(3) 0.005(3)
C1 0.025(5) 0.019(5) 0.026(5) -0.001(4) -0.009(4) 0.008(4)
C2 0.006(4) 0.027(5) 0.024(5) 0.000(4) -0.009(3) 0.002(4)
C3 0.012(4) 0.016(4) 0.018(4) 0.005(3) 0.001(3) 0.001(3)
C4 0.021(5) 0.029(5) 0.025(5) -0.003(4) -0.001(4) 0.001(4)
C5 0.022(5) 0.024(5) 0.026(5) -0.007(4) -0.009(4) 0.005(4)
C6 0.012(4) 0.018(5) 0.028(5) 0.003(4) 0.000(4) 0.002(3)
C7 0.011(4) 0.022(5) 0.021(5) 0.000(4) -0.006(3) 0.009(4)
C8 0.011(4) 0.020(5) 0.019(4) 0.001(3) -0.002(3) 0.004(3)
C9 0.015(5) 0.043(6) 0.036(6) 0.024(5) 0.009(4) 0.014(4)
C10 0.017(5) 0.032(6) 0.030(5) 0.012(4) 0.003(4) 0.006(4)
C11 0.025(5) 0.014(4) 0.023(5) 0.002(4) 0.008(4) 0.003(4)
C12 0.015(4) 0.028(5) 0.021(5) -0.001(4) 0.003(4) -0.006(4)
C13 0.016(4) 0.023(5) 0.022(4) 0.003(4) 0.006(4) 0.000(4)
C14 0.021(5) 0.016(5) 0.033(5) -0.003(4) 0.009(4) -0.002(4)
C15 0.021(5) 0.018(5) 0.031(5) 0.003(4) 0.003(4) -0.005(4)
C16 0.008(4) 0.019(5) 0.022(4) -0.004(4) 0.002(3) -0.001(3)
C17 0.008(4) 0.018(5) 0.023(5) -0.004(3) 0.004(3) -0.003(3)
C18 0.016(4) 0.021(5) 0.020(4) -0.003(4) 0.002(4) 0.004(4)
C19 0.018(4) 0.010(4) 0.026(5) -0.004(3) -0.002(4) -0.006(3)
C20 0.029(6) 0.038(6) 0.037(6) 0.011(5) -0.007(5) -0.004(5)
C21 0.023(5) 0.038(6) 0.030(5) -0.016(5) -0.013(4) 0.011(4)
C22 0.031(6) 0.017(5) 0.044(6) -0.015(4) -0.010(5) 0.010(4)
C23 0.014(4) 0.023(5) 0.021(5) 0.001(4) 0.007(3) 0.002(4)
C24 0.012(4) 0.030(5) 0.026(5) 0.000(4) 0.005(4) 0.002(4)
C25 0.019(4) 0.021(5) 0.035(5) 0.002(4) 0.018(4) 0.000(4)
C26 0.018(4) 0.019(5) 0.024(5) -0.004(4) 0.003(4) 0.006(4)
C27 0.016(4) 0.024(5) 0.019(4) -0.001(4) 0.001(4) 0.001(4)
C28 0.027(5) 0.015(5) 0.029(5) -0.001(4) 0.004(4) 0.001(4)
C29 0.021(5) 0.030(6) 0.038(6) 0.012(4) 0.010(4) 0.000(4)
C30 0.007(4) 0.035(6) 0.039(6) 0.010(4) 0.000(4) 0.003(4)
C31 0.043(7) 0.056(8) 0.035(6) 0.010(6) 0.004(5) 0.000(6)
C33 0.051(9) 0.082(11) 0.072(10) 0.005(8) -0.003(7) 0.008(8)
Cl1 0.108(3) 0.063(2) 0.0462(19) 0.0019(16) 0.0032(19) -0.006(2)
Cl2 0.101(3) 0.083(3) 0.077(3) 0.009(2) 0.022(2) -0.021(3)
Cl3 0.174(6) 0.064(3) 0.070(3) -0.011(2) 0.021(3) 0.002(3)
C34 0.054(9) 0.041(8) 0.103(12) -0.021(8) -0.016(8) 0.003(7)
Cl4 0.046(2) 0.089(3) 0.082(3) -0.014(2) 0.0104(18) -0.0128(19)
Cl5 0.070(2) 0.072(3) 0.072(2) 0.014(2) 0.0090(19) -0.011(2)
Cl6 0.064(3) 0.119(4) 0.065(2) -0.013(2) -0.005(2) 0.011(2)
C35 0.068(9) 0.046(8) 0.060(9) 0.002(6) 0.009(7) 0.001(7)
O8 0.072(9) 0.115(12) 0.165(15) 0.013(10) 0.012(9) 0.003(8)
C36 0.41(7) 0.12(2) 0.17(3) -0.10(2) 0.21(4) -0.13(3)
O9 0.110(12) 0.116(12) 0.156(15) 0.003(11) 0.053(11) -0.005(10)

_geom_special_details            
;
All esds (except the esd in the dihedral angle between two l.s. planes)
are estimated using the full covariance matrix.  The cell esds are taken
into account individually in the estimation of esds in distances, angles
and torsion angles; correlations between esds in cell parameters are only
used when they are defined by crystal symmetry.  An approximate (isotropic)
treatment of cell esds is used for estimating esds involving l.s. planes.
;

loop_
_geom_bond_atom_site_label_1
_geom_bond_atom_site_label_2
_geom_bond_distance
_geom_bond_site_symmetry_2
_geom_bond_publ_flag
Cd1 N2 2.374(8) . ?
Cd1 N3 2.376(7) . ?
Cd1 N1 2.386(7) . ?
Cd1 O7 2.389(7) . ?
Cd1 Br2 2.6886(12) . ?
Cd1 Br1 2.7059(12) . ?
Al1 O1 1.854(6) . ?
Al1 O2 1.859(6) . ?
Al1 O5 1.878(6) 4_465 ?
Al1 O3 1.881(7) 2 ?
Al1 O6 1.883(6) 4_465 ?
Al1 O4 1.882(6) 2 ?
O1 C6 1.302(10) . ?
O2 C8 1.300(10) . ?
O3 C18 1.274(11) . ?
O3 Al1 1.881(7) 2_545 ?
O4 C16 1.275(10) . ?
O4 Al1 1.882(6) 2_545 ?
O5 C26 1.283(10) . ?
O5 Al1 1.878(6) 4_766 ?
O6 C28 1.244(11) . ?
O6 Al1 1.883(6) 4_766 ?
O7 C31 1.371(15) . ?
N1 C1 1.348(12) . ?
N1 C5 1.357(12) . ?
N2 C11 1.341(11) . ?
N2 C15 1.339(12) . ?
N3 C21 1.326(13) . ?
N3 C25 1.334(12) . ?
C1 C2 1.386(12) . ?
C2 C3 1.394(13) . ?
C3 C4 1.411(13) . ?
C3 C7 1.496(11) . ?
C4 C5 1.366(13) . ?
C6 C7 1.394(13) . ?
C6 C9 1.480(13) . ?
C7 C8 1.411(12) . ?
C8 C10 1.492(13) . ?
C11 C12 1.386(13) . ?
C12 C13 1.392(13) . ?
C13 C14 1.376(13) . ?
C13 C17 1.503(13) . ?
C14 C15 1.391(13) . ?
C16 C17 1.398(13) . ?
C16 C19 1.505(12) . ?
C17 C18 1.427(12) . ?
C18 C20 1.517(14) . ?
C21 C22 1.392(14) . ?
C22 C23 1.370(13) . ?
C23 C24 1.387(13) . ?
C23 C27 1.505(12) . ?
C24 C25 1.365(13) . ?
C26 C27 1.392(13) . ?
C26 C30 1.509(13) . ?
C27 C28 1.417(13) . ?
C28 C29 1.496(14) . ?
C33 Cl3 1.739(19) . ?
C33 Cl2 1.744(19) . ?
C33 Cl1 1.753(17) . ?
C34 