####################################################################### 
# 
# This file contains crystal structure data downloaded from the 
# Cambridge Structural Database (CSD) hosted by the Cambridge 
# Crystallographic Data Centre (CCDC).
# 
# Full information about CCDC data access policies and citation 
# guidelines are available at http://www.ccdc.cam.ac.uk/access/V1 
# 
# Audit and citation data items may have been added by the CCDC. 
# Please retain this information to preserve the provenance of 
# this file and to allow appropriate attribution of the data. 
# 
#######################################################################

data_st13dk
_audit_block_doi                 10.5517/cc7j440
_database_code_depnum_ccdc_archive 'CCDC 224041'
loop_
_citation_id
_citation_doi
_citation_year
1 10.1039/b407244h 2004
_audit_update_record             
;
2003-11-10 deposited with the CCDC.	2024-07-11 downloaded from the CCDC.
;

_audit_creation_method           SHELXL-97
_chemical_name_systematic        
;
Cadmium Nitrate 1:1 Complex with
Tris-[3-(4-pyridyl)pentane-2,4-dione]-aluminium, Solvate with
Methanol and 2 Chloroform
;
_chemical_name_common            
;
Cadmium Nitrate 1:1 Complex with Tris-(3-(4-pyridyl)pentane-
2,4-dione)-aluminium, Solvate with Methanol and 2 Chloroform
;
_chemical_formula_moiety         ?
_chemical_formula_sum            'C33 H36 Al Cd Cl6 N5 O13'
_chemical_formula_weight         1062.75

loop_
_atom_type_symbol
_atom_type_description
_atom_type_scat_dispersion_real
_atom_type_scat_dispersion_imag
_atom_type_scat_source
C C 0.0033 0.0016 'International Tables Vol C Tables 4.2.6.8 and 6.1.1.4'
H H 0.0000 0.0000 'International Tables Vol C Tables 4.2.6.8 and 6.1.1.4'
N N 0.0061 0.0033 'International Tables Vol C Tables 4.2.6.8 and 6.1.1.4'
O O 0.0106 0.0060 'International Tables Vol C Tables 4.2.6.8 and 6.1.1.4'
Al Al 0.0645 0.0514 'International Tables Vol C Tables 4.2.6.8 and 6.1.1.4'
Cd Cd -0.8075 1.2024 'International Tables Vol C Tables 4.2.6.8 and 6.1.1.4'
Cl Cl 0.1484 0.1585 'International Tables Vol C Tables 4.2.6.8 and 6.1.1.4'

_symmetry_cell_setting           Monoclinic
_symmetry_space_group_name_H-M   P2(1)/n

loop_
_symmetry_equiv_pos_as_xyz
'x, y, z'
'-x+1/2, y+1/2, -z+1/2'
'-x, -y, -z'
'x-1/2, -y-1/2, z-1/2'

_cell_length_a                   11.8236(9)
_cell_length_b                   25.833(2)
_cell_length_c                   17.2279(19)
_cell_angle_alpha                90.00
_cell_angle_beta                 97.843(11)
_cell_angle_gamma                90.00
_cell_volume                     5212.8(8)
_cell_formula_units_Z            4
_cell_measurement_temperature    293(2)
_cell_measurement_reflns_used    ?
_cell_measurement_theta_min      ?
_cell_measurement_theta_max      ?

_exptl_crystal_description       prism
_exptl_crystal_colour            colorless
_exptl_crystal_size_max          0.15
_exptl_crystal_size_mid          0.10
_exptl_crystal_size_min          0.08
_exptl_crystal_density_meas      ?
_exptl_crystal_density_diffrn    1.354
_exptl_crystal_density_method    'not measured'
_exptl_crystal_F_000             2144
_exptl_absorpt_coefficient_mu    0.798
_exptl_absorpt_correction_type   integration
_exptl_absorpt_correction_T_min  0.8897
_exptl_absorpt_correction_T_max  0.9389

_exptl_special_details           
;
?
;

_diffrn_ambient_temperature      293(2)
_diffrn_radiation_wavelength     0.71073
_diffrn_radiation_type           MoK\a
_diffrn_radiation_source         'fine-focus sealed tube'
_diffrn_radiation_monochromator  graphite
_diffrn_measurement_device_type  ?
_diffrn_measurement_method       ?
_diffrn_detector_area_resol_mean ?
_diffrn_standards_number         ?
_diffrn_standards_interval_count ?
_diffrn_standards_interval_time  ?
_diffrn_standards_decay_%        ?
_diffrn_reflns_number            30188
_diffrn_reflns_av_R_equivalents  0.1228
_diffrn_reflns_av_sigmaI/netI    0.1517
_diffrn_reflns_limit_h_min       -14
_diffrn_reflns_limit_h_max       14
_diffrn_reflns_limit_k_min       -31
_diffrn_reflns_limit_k_max       27
_diffrn_reflns_limit_l_min       -21
_diffrn_reflns_limit_l_max       21
_diffrn_reflns_theta_min         7.08
_diffrn_reflns_theta_max         25.68
_reflns_number_total             9211
_reflns_number_gt                5154
_reflns_threshold_expression     >2sigma(I)

_computing_data_collection       ?
_computing_cell_refinement       ?
_computing_data_reduction        ?
_computing_structure_solution    'SHELXS-97 (Sheldrick, 1990)'
_computing_structure_refinement  'SHELXL-97 (Sheldrick, 1997)'
_computing_molecular_graphics    ?
_computing_publication_material  ?

_refine_special_details          
;
Refinement of F^2^ against ALL reflections.  The weighted R-factor wR and
goodness of fit S are based on F^2^, conventional R-factors R are based
on F, with F set to zero for negative F^2^. The threshold expression of
F^2^ > 2sigma(F^2^) is used only for calculating R-factors(gt) etc. and is
not relevant to the choice of reflections for refinement.  R-factors based
on F^2^ are statistically about twice as large as those based on F, and R-
factors based on ALL data will be even larger.
;

_refine_ls_structure_factor_coef Fsqd
_refine_ls_matrix_type           full
_refine_ls_weighting_scheme      
'calc w=1/[\s^2^(Fo^2^)+(0.0510P)^2^+0.0000P] where P=(Fo^2^+2Fc^2^)/3'
_atom_sites_solution_primary     direct
_atom_sites_solution_secondary   difmap
_atom_sites_solution_hydrogens   geom
_refine_ls_hydrogen_treatment    mixed
_refine_ls_extinction_method     none
_refine_ls_extinction_coef       ?
_refine_ls_number_reflns         9211
_refine_ls_number_parameters     509
_refine_ls_number_restraints     18
_refine_ls_R_factor_all          0.1106
_refine_ls_R_factor_gt           0.0529
_refine_ls_wR_factor_ref         0.1259
_refine_ls_wR_factor_gt          0.1120
_refine_ls_goodness_of_fit_ref   0.844
_refine_ls_restrained_S_all      0.847
_refine_ls_shift/su_max          0.005
_refine_ls_shift/su_mean         0.000

loop_
_atom_site_label
_atom_site_type_symbol
_atom_site_fract_x
_atom_site_fract_y
_atom_site_fract_z
_atom_site_U_iso_or_equiv
_atom_site_adp_type
_atom_site_occupancy
_atom_site_calc_flag
_atom_site_refinement_flags
_atom_site_disorder_assembly
_atom_site_disorder_group
Cd1 Cd 0.26714(3) 0.243440(12) 0.84134(2) 0.04990(15) Uani 1 d . . .
Al1 Al -0.50178(10) 0.37924(4) 0.62971(7) 0.0356(3) Uani 1 d . . .
O1 O -0.4512(3) 0.33102(12) 0.7080(2) 0.0488(8) Uani 1 d . . .
O2 O -0.3565(2) 0.38193(11) 0.59990(18) 0.0423(7) Uani 1 d . . .
O3 O -0.5396(3) 0.32823(11) 0.55301(19) 0.0439(7) Uani 1 d . . .
O4 O -0.6478(3) 0.37314(12) 0.65904(18) 0.0435(7) Uani 1 d . . .
O5 O -0.4664(3) 0.43305(12) 0.70294(18) 0.0480(7) Uani 1 d . . .
O6 O -0.5572(3) 0.42990(10) 0.55555(17) 0.0399(7) Uani 1 d . . .
O7 O 0.4057(7) 0.2072(3) 0.7406(4) 0.126(2) Uani 1 d . . .
O8 O 0.2510(6) 0.2378(3) 0.6981(4) 0.1127(17) Uani 1 d . . .
O9 O 0.3548(7) 0.2096(3) 0.6168(4) 0.130(2) Uani 1 d . . .
O10 O 0.2461(7) 0.3008(4) 0.9491(5) 0.143(3) Uani 1 d D . .
O11 O 0.2137(11) 0.2366(5) 1.0024(9) 0.192(5) Uani 1 d D . .
O12 O 0.2334(19) 0.3062(6) 1.0695(6) 0.249(8) Uani 1 d D . .
O13 O 0.3563(4) 0.32143(17) 0.8147(3) 0.0767(12) Uani 1 d . . .
H13A H 0.3863 0.3208 0.7726 0.080 Uiso 1 d R . .
N1 N 0.0767(3) 0.27199(15) 0.7982(3) 0.0524(10) Uani 1 d . . .
N2 N -1.0614(4) 0.28263(16) 0.4179(3) 0.0535(10) Uani 1 d . . .
N3 N -0.6961(3) 0.65758(15) 0.6561(3) 0.0493(10) Uani 1 d . . .
N4 N 0.3377(6) 0.2172(2) 0.6834(4) 0.0773(15) Uani 1 d . . .
N5 N 0.2261(7) 0.2801(5) 1.0045(7) 0.114(3) Uani 1 d D . .
C1 C -0.3416(6) 0.2785(3) 0.7993(5) 0.085(2) Uani 1 d . . .
H1A H -0.4157 0.2736 0.8150 0.080 Uiso 1 d R . .
H1B H -0.3130 0.2458 0.7836 0.080 Uiso 1 d R . .
H1C H -0.2904 0.2922 0.8424 0.080 Uiso 1 d R . .
C2 C -0.3513(4) 0.31518(18) 0.7310(3) 0.0484(11) Uani 1 d . . .
C3 C -0.2540(4) 0.32937(18) 0.6975(3) 0.0468(11) Uani 1 d . . .
C4 C -0.2632(4) 0.36066(17) 0.6309(3) 0.0427(10) Uani 1 d . . .
C5 C -0.1619(5) 0.3716(3) 0.5890(4) 0.0706(16) Uani 1 d . . .
H5A H -0.1854 0.3934 0.5446 0.080 Uiso 1 d R . .
H5B H -0.1038 0.3889 0.6241 0.080 Uiso 1 d R . .
H5C H -0.1320 0.3397 0.5716 0.080 Uiso 1 d R . .
C6 C 0.0346(5) 0.3161(2) 0.8213(4) 0.0603(13) Uani 1 d . . .
H6A H 0.0803 0.3361 0.8609 0.080 Uiso 1 d R . .
C7 C -0.0715(5) 0.3354(2) 0.7898(4) 0.0603(14) Uani 1 d . . .
H7A H -0.0982 0.3675 0.8088 0.080 Uiso 1 d R . .
C8 C -0.1384(4) 0.30878(19) 0.7325(3) 0.0492(12) Uani 1 d . . .
C9 C -0.0954(5) 0.2629(2) 0.7081(4) 0.0628(14) Uani 1 d . . .
H9A H -0.1394 0.2425 0.6683 0.080 Uiso 1 d R . .
C10 C 0.0105(5) 0.2465(2) 0.7417(3) 0.0624(13) Uani 1 d . . .
H10A H 0.0387 0.2142 0.7242 0.080 Uiso 1 d R . .
C11 C -0.6367(6) 0.2769(3) 0.4543(4) 0.0749(18) Uani 1 d . . .
H11A H -0.5599 0.2703 0.4445 0.080 Uiso 1 d R . .
H11B H -0.6717 0.2448 0.4664 0.080 Uiso 1 d R . .
H11C H -0.6796 0.2920 0.4086 0.080 Uiso 1 d R . .
C12 C -0.6374(4) 0.31339(18) 0.5222(3) 0.0480(11) Uani 1 d . . .
C13 C -0.7403(4) 0.32911(17) 0.5480(3) 0.0441(11) Uani 1 d . . .
C14 C -0.7397(4) 0.35710(18) 0.6177(3) 0.0455(11) Uani 1 d . . .
C15 C -0.8481(4) 0.3684(3) 0.6492(4) 0.0654(14) Uani 1 d . . .
H15A H -0.8305 0.3875 0.6972 0.080 Uiso 1 d R . .
H15B H -0.8970 0.3888 0.6120 0.080 Uiso 1 d R . .
H15C H -0.8861 0.3367 0.6592 0.080 Uiso 1 d R . .
C16 C -1.0126(6) 0.3273(2) 0.4060(4) 0.0728(16) Uani 1 d . . .
H16A H -1.0523 0.3507 0.3684 0.080 Uiso 1 d R . .
C17 C -0.9105(5) 0.3434(2) 0.4465(4) 0.0690(16) Uani 1 d . . .
H17A H -0.8779 0.3758 0.4334 0.080 Uiso 1 d R . .
C18 C -0.8516(4) 0.31246(19) 0.5029(3) 0.0497(12) Uani 1 d . . .
C19 C -0.9031(5) 0.2655(2) 0.5154(4) 0.0630(14) Uani 1 d . . .
H19A H -0.8667 0.2419 0.5540 0.080 Uiso 1 d R . .
C20 C -1.0046(5) 0.2519(2) 0.4718(3) 0.0635(13) Uani 1 d . . .
H20A H -1.0371 0.2187 0.4812 0.080 Uiso 1 d R . .
C21 C -0.4679(7) 0.5083(3) 0.7776(4) 0.086(2) Uani 1 d . . .
H21A H -0.4220 0.4861 0.8139 0.080 Uiso 1 d R . .
H21B H -0.4242 0.5382 0.7670 0.080 Uiso 1 d R . .
H21C H -0.5343 0.5190 0.7997 0.080 Uiso 1 d R . .
C22 C -0.5028(5) 0.4794(2) 0.7029(3) 0.0519(12) Uani 1 d . . .
C23 C -0.5723(4) 0.50156(16) 0.6386(3) 0.0428(10) Uani 1 d . . .
C24 C -0.5978(4) 0.47515(16) 0.5678(3) 0.0387(10) Uani 1 d . . .
C25 C -0.6751(5) 0.49632(19) 0.4992(3) 0.0536(12) Uani 1 d . . .
H25A H -0.6812 0.4717 0.4572 0.080 Uiso 1 d R . .
H25B H -0.7494 0.5027 0.5137 0.080 Uiso 1 d R . .
H25C H -0.6438 0.5281 0.4826 0.080 Uiso 1 d R . .
C26 C -0.6255(5) 0.64529(19) 0.6061(3) 0.0549(12) Uani 1 d . . .
H26A H -0.6020 0.6722 0.5733 0.080 Uiso 1 d R . .
C27 C -0.5832(5) 0.59632(18) 0.5998(3) 0.0532(12) Uani 1 d . . .
H27A H -0.5305 0.5895 0.5633 0.080 Uiso 1 d R . .
C28 C -0.6159(4) 0.55631(18) 0.6452(3) 0.0466(11) Uani 1 d . . .
C29 C -0.6906(5) 0.56966(19) 0.6978(3) 0.0591(14) Uani 1 d . . .
H29A H -0.7171 0.5431 0.7299 0.080 Uiso 1 d R . .
C30 C -0.7263(5) 0.6198(2) 0.7020(3) 0.0563(13) Uani 1 d . . .
H30A H -0.7768 0.6283 0.7393 0.080 Uiso 1 d R . .
C31 C 0.3779(17) 0.3695(7) 0.8471(10) 0.171(6) Uani 1 d . . .
H31A H 0.4190 0.3884 0.8119 0.080 Uiso 1 d R . .
H31B H 0.3081 0.3874 0.8525 0.080 Uiso 1 d R . .
H31C H 0.4238 0.3669 0.8974 0.080 Uiso 1 d R . .
C32 C -0.0463(18) 0.5120(6) 0.7195(12) 0.248(13) Uani 1 d D . .
H32A H -0.0504 0.5468 0.7387 0.080 Uiso 1 d R . .
Cl1 Cl -0.1752(5) 0.4807(2) 0.7186(5) 0.222(2) Uani 1 d D . .
Cl2 Cl -0.0001(8) 0.5152(3) 0.6272(7) 0.273(4) Uani 1 d D . .
Cl3 Cl 0.0606(9) 0.4793(5) 0.7855(7) 0.290(4) Uani 1 d D . .
C33 C 0.143(3) 0.0784(16) 0.5265(16) 0.390(5) Uiso 1 d D . .
H33A H 0.1035 0.0463 0.5149 0.080 Uiso 1 d R . .
Cl4 Cl 0.170(2) 0.1093(9) 0.4387(11) 0.390(5) Uiso 1 d D . .
Cl5 Cl 0.2695(19) 0.0663(9) 0.5905(13) 0.390(5) Uiso 1 d D . .
Cl6 Cl 0.059(2) 0.1205(9) 0.5765(13) 0.390(5) Uiso 1 d D . .

loop_
_atom_site_aniso_label
_atom_site_aniso_U_11
_atom_site_aniso_U_22
_atom_site_aniso_U_33
_atom_site_aniso_U_23
_atom_site_aniso_U_13
_atom_site_aniso_U_12
Cd1 0.0277(2) 0.0510(2) 0.0679(2) 0.01732(18) -0.00439(14) 0.00202(15)
Al1 0.0204(7) 0.0433(6) 0.0416(7) 0.0033(5) -0.0011(5) 0.0017(5)
O1 0.0258(19) 0.0627(18) 0.0566(19) 0.0190(15) 0.0013(15) 0.0033(13)
O2 0.0242(18) 0.0500(16) 0.0523(18) 0.0132(13) 0.0034(14) 0.0023(12)
O3 0.0256(19) 0.0502(16) 0.0562(19) -0.0038(13) 0.0062(16) -0.0016(12)
O4 0.0232(18) 0.0627(18) 0.0435(17) -0.0059(14) 0.0006(14) 0.0002(13)
O5 0.042(2) 0.0486(18) 0.0489(18) -0.0001(13) -0.0101(15) 0.0066(13)
O6 0.0326(18) 0.0436(16) 0.0415(16) 0.0004(12) -0.0020(13) 0.0060(12)
O7 0.113(5) 0.161(5) 0.099(4) 0.043(4) -0.007(4) -0.032(4)
O8 0.105(5) 0.136(4) 0.101(4) 0.017(3) 0.032(3) 0.024(4)
O9 0.150(6) 0.157(5) 0.089(4) 0.003(4) 0.039(4) 0.034(4)
O10 0.107(6) 0.233(8) 0.087(4) 0.020(5) 0.011(4) 0.072(5)
O11 0.181(10) 0.134(7) 0.279(14) -0.029(8) 0.090(9) -0.027(6)
O12 0.37(2) 0.270(14) 0.096(6) -0.037(8) 0.014(8) 0.084(14)
O13 0.083(3) 0.069(3) 0.080(3) 0.013(2) 0.017(2) -0.019(2)
N1 0.027(2) 0.057(2) 0.069(3) 0.0139(19) -0.005(2) 0.0041(17)
N2 0.034(2) 0.062(2) 0.062(3) -0.011(2) -0.002(2) -0.0065(19)
N3 0.037(2) 0.050(2) 0.062(3) -0.0104(19) 0.010(2) 0.0025(16)
N4 0.083(5) 0.084(3) 0.064(4) 0.014(3) 0.008(4) -0.002(3)
N5 0.085(6) 0.131(7) 0.127(9) 0.021(6) 0.013(5) 0.019(4)
C1 0.047(4) 0.118(5) 0.091(5) 0.064(4) 0.007(3) 0.011(3)
C2 0.030(3) 0.058(3) 0.055(3) 0.016(2) -0.002(2) 0.003(2)
C3 0.024(3) 0.056(3) 0.058(3) 0.011(2) -0.002(2) 0.0069(18)
C4 0.023(3) 0.048(2) 0.056(3) 0.008(2) 0.004(2) 0.0009(18)
C5 0.027(3) 0.093(4) 0.094(4) 0.032(3) 0.015(3) 0.006(2)
C6 0.033(3) 0.067(3) 0.074(4) -0.001(3) -0.015(3) 0.009(2)
C7 0.042(3) 0.060(3) 0.076(4) 0.001(3) -0.002(3) 0.013(2)
C8 0.029(3) 0.058(3) 0.059(3) 0.018(2) 0.001(2) 0.001(2)
C9 0.036(3) 0.061(3) 0.085(4) -0.006(3) -0.012(3) 0.007(2)
C10 0.042(3) 0.056(3) 0.084(4) 0.000(3) -0.009(3) 0.014(2)
C11 0.058(4) 0.094(4) 0.075(4) -0.038(3) 0.016(3) -0.024(3)
C12 0.038(3) 0.053(3) 0.052(3) -0.004(2) 0.002(2) -0.007(2)
C13 0.029(3) 0.056(3) 0.045(3) 0.002(2) -0.004(2) -0.0071(18)
C14 0.024(3) 0.060(3) 0.051(3) 0.011(2) 0.001(2) 0.0015(19)
C15 0.027(3) 0.098(4) 0.072(4) -0.014(3) 0.009(3) 0.002(2)
C16 0.054(4) 0.072(4) 0.085(4) 0.014(3) -0.021(3) -0.013(3)
C17 0.048(4) 0.066(3) 0.086(4) 0.011(3) -0.018(3) -0.019(2)
C18 0.033(3) 0.060(3) 0.055(3) -0.009(2) 0.002(2) -0.005(2)
C19 0.038(3) 0.070(3) 0.075(3) 0.014(3) -0.016(3) -0.013(2)
C20 0.039(3) 0.063(3) 0.084(4) 0.013(3) -0.006(3) -0.015(2)
C21 0.101(6) 0.079(4) 0.068(4) -0.023(3) -0.024(4) 0.016(3)
C22 0.044(3) 0.062(3) 0.048(3) -0.009(2) 0.002(2) -0.001(2)
C23 0.037(3) 0.042(2) 0.049(3) -0.0002(19) 0.005(2) 0.0033(17)
C24 0.028(3) 0.040(2) 0.048(3) 0.0038(18) 0.004(2) 0.0004(16)
C25 0.048(3) 0.054(3) 0.055(3) 0.006(2) -0.006(2) 0.014(2)
C26 0.053(3) 0.049(3) 0.065(3) 0.001(2) 0.014(3) -0.002(2)
C27 0.053(3) 0.050(3) 0.061(3) -0.002(2) 0.021(3) 0.002(2)
C28 0.037(3) 0.050(2) 0.053(3) -0.001(2) 0.008(2) 0.0043(19)
C29 0.060(4) 0.052(3) 0.069(3) 0.011(2) 0.024(3) 0.010(2)
C30 0.056(3) 0.058(3) 0.059(3) -0.002(2) 0.025(3) 0.006(2)
C31 0.173(14) 0.204(16) 0.148(10) 0.023(11) 0.061(10) 0.018(11)
C32 0.36(4) 0.096(8) 0.28(3) -0.009(11) -0.01(3) -0.044(13)
Cl1 0.186(5) 0.193(4) 0.290(6) -0.025(4) 0.040(4) -0.027(3)
Cl2 0.232(7) 0.230(6) 0.351(11) 0.090(6) 0.016(6) -0.029(4)
Cl3 0.236(8) 0.331(10) 0.294(8) -0.004(8) 0.006(7) -0.003(7)

_geom_special_details            
;
All esds (except the esd in the dihedral angle between two l.s. planes)
are estimated using the full covariance matrix.  The cell esds are taken
into account individually in the estimation of esds in distances, angles
and torsion angles; correlations between esds in cell parameters are only
used when they are defined by crystal symmetry.  An approximate (isotropic)
treatment of cell esds is used for estimating esds involving l.s. planes.
;

loop_
_geom_bond_atom_site_label_1
_geom_bond_atom_site_label_2
_geom_bond_distance
_geom_bond_site_symmetry_2
_geom_bond_publ_flag
Cd1 O13 2.348(4) . ?
Cd1 N2 2.361(4) 4_766 ?
Cd1 N3 2.374(4) 2_446 ?
Cd1 N1 2.390(4) . ?
Cd1 O10 2.415(8) . ?
Cd1 O8 2.453(6) . ?
Al1 O2 1.861(3) . ?
Al1 O4 1.870(3) . ?
Al1 O1 1.873(3) . ?
Al1 O3 1.877(3) . ?
Al1 O6 1.883(3) . ?
Al1 O5 1.886(3) . ?
O1 C2 1.261(6) . ?
O2 C4 1.282(5) . ?
O3 C12 1.263(6) . ?
O4 C14 1.285(6) . ?
O5 C22 1.271(6) . ?
O6 C24 1.292(5) . ?
O7 N4 1.211(9) . ?
O8 N4 1.212(9) . ?
O9 N4 1.208(9) . ?
O10 N5 1.146(10) . ?
O11 N5 1.133(11) . ?
O12 N5 1.299(14) . ?
O13 C31 1.372(19) . ?
N1 C6 1.327(7) . ?
N1 C10 1.336(8) . ?
N2 C16 1.319(7) . ?
N2 C20 1.333(7) . ?
N2 Cd1 2.361(4) 4_465 ?
N3 C26 1.318(7) . ?
N3 C30 1.335(7) . ?
N3 Cd1 2.374(4) 2_456 ?
C1 C2 1.503(8) . ?
C2 C3 1.405(7) . ?
C3 C4 1.395(7) . ?
C3 C8 1.513(7) . ?
C4 C5 1.507(7) . ?
C6 C7 1.389(8) . ?
C7 C8 1.363(8) . ?
C8 C9 1.378(8) . ?
C9 C10 1.373(8) . ?
C11 C12 1.504(8) . ?
C12 C13 1.411(7) . ?
C13 C14 1.400(7) . ?
C13 C18 1.497(7) . ?
C14 C15 1.487(7) . ?
C16 C17 1.372(9) . ?
C17 C18 1.373(8) . ?
C18 C19 1.387(7) . ?
C19 C20 1.371(8) . ?
C21 C22 1.496(8) . ?
C22 C23 1.40