####################################################################### 
# 
# This file contains crystal structure data downloaded from the 
# Cambridge Structural Database (CSD) hosted by the Cambridge 
# Crystallographic Data Centre (CCDC).
# 
# Full information about CCDC data access policies and citation 
# guidelines are available at http://www.ccdc.cam.ac.uk/access/V1 
# 
# Audit and citation data items may have been added by the CCDC. 
# Please retain this information to preserve the provenance of 
# this file and to allow appropriate attribution of the data. 
# 
#######################################################################

data_CD.2KOH
_audit_block_doi                 10.5517/cctz3c7
_database_code_depnum_ccdc_archive 'CCDC 773709'
loop_
_citation_id
_citation_doi
_citation_year
1 10.1002/anie.201002343 2010
2 10.1021/ja208224f 2012
3 10.1002/anie.202206718 2022
_audit_update_record             
;
2010-04-19 deposited with the CCDC.	2024-07-11 downloaded from the CCDC.
;
#TrackingRef 'web_deposit_cif_file_1_JeremiahJGassensmith_1271703456.cif'


# start Validation Reply Form

_vrf_RFACG01_CD.2KOH             
;
PROBLEM: The value of the R factor is > 0.20
RESPONSE: Nature of these compounds.
;
_vrf_RFACR01_CD.2KOH             
;
PROBLEM: The value of the weighted R factor is > 0.45
RESPONSE: Nature of these compounds.
;
_vrf_PLAT082_CD.2KOH             
;
PROBLEM: High R1 Value .................................. 0.24
RESPONSE:Nature of these compounds.
;
_vrf_PLAT084_CD.2KOH             
;
PROBLEM: High R2 Value .................................. 0.57
RESPONSE: Nature of these compounds.
;
_vrf_PLAT213_CD.2KOH             
;
PROBLEM: Atom C1 has ADP max/min Ratio ............. 5.50 prola
RESPONSE: unresolved disorder.
;
_vrf_PLAT241_CD.2KOH             
;
PROBLEM: Check High Ueq as Compared to Neighbors for C1
RESPONSE: unresolved disorder.
;
_vrf_PLAT242_CD.2KOH             
;
PROBLEM: Check Low Ueq as Compared to Neighbors for C2
RESPONSE: unresolved disorder.
;
_vrf_PLAT601_CD.2KOH             
;
PROBLEM: Structure Contains Solvent Accessible VOIDS of . 5907.00 A**3
RESPONSE: This is true and interesting.
;
_vrf_PLAT773_CD.2KOH             
;
PROBLEM: Suspect C-C Bond in CIF: C1 -- C2 .. 1.76 Ang.
RESPONSE: unresolved disorder.
;
# end Validation Reply Form

_audit_creation_method           SHELXL-97
_chemical_name_systematic        
;
?
;
_chemical_name_common            ?
_chemical_melting_point          ?
_chemical_absolute_configuration syn
_chemical_formula_moiety         'C48 H80 O40,(K O H)2'
_chemical_formula_sum            'C48 H82 K2 O42'
_chemical_formula_weight         1409.34

loop_
_atom_type_symbol
_atom_type_description
_atom_type_scat_dispersion_real
_atom_type_scat_dispersion_imag
_atom_type_scat_source
C C 0.0033 0.0016 'International Tables Vol C Tables 4.2.6.8 and 6.1.1.4'
H H 0.0000 0.0000 'International Tables Vol C Tables 4.2.6.8 and 6.1.1.4'
O O 0.0106 0.0060 'International Tables Vol C Tables 4.2.6.8 and 6.1.1.4'
K K 0.2009 0.2494 'International Tables Vol C Tables 4.2.6.8 and 6.1.1.4'

_symmetry_cell_setting           Cubic
_symmetry_space_group_name_H-M   I432

loop_
_symmetry_equiv_pos_as_xyz
'x, y, z'
'-x, -y, z'
'-x, y, -z'
'x, -y, -z'
'z, x, y'
'z, -x, -y'
'-z, -x, y'
'-z, x, -y'
'y, z, x'
'-y, z, -x'
'y, -z, -x'
'-y, -z, x'
'y, x, -z'
'-y, -x, -z'
'y, -x, z'
'-y, x, z'
'x, z, -y'
'-x, z, y'
'-x, -z, -y'
'x, -z, y'
'z, y, -x'
'z, -y, x'
'-z, y, x'
'-z, -y, -x'
'x+1/2, y+1/2, z+1/2'
'-x+1/2, -y+1/2, z+1/2'
'-x+1/2, y+1/2, -z+1/2'
'x+1/2, -y+1/2, -z+1/2'
'z+1/2, x+1/2, y+1/2'
'z+1/2, -x+1/2, -y+1/2'
'-z+1/2, -x+1/2, y+1/2'
'-z+1/2, x+1/2, -y+1/2'
'y+1/2, z+1/2, x+1/2'
'-y+1/2, z+1/2, -x+1/2'
'y+1/2, -z+1/2, -x+1/2'
'-y+1/2, -z+1/2, x+1/2'
'y+1/2, x+1/2, -z+1/2'
'-y+1/2, -x+1/2, -z+1/2'
'y+1/2, -x+1/2, z+1/2'
'-y+1/2, x+1/2, z+1/2'
'x+1/2, z+1/2, -y+1/2'
'-x+1/2, z+1/2, y+1/2'
'-x+1/2, -z+1/2, -y+1/2'
'x+1/2, -z+1/2, y+1/2'
'z+1/2, y+1/2, -x+1/2'
'z+1/2, -y+1/2, x+1/2'
'-z+1/2, y+1/2, x+1/2'
'-z+1/2, -y+1/2, -x+1/2'

_cell_length_a                   31.006(8)
_cell_length_b                   31.006(8)
_cell_length_c                   31.006(8)
_cell_angle_alpha                90.00
_cell_angle_beta                 90.00
_cell_angle_gamma                90.00
_cell_volume                     29807(14)
_cell_formula_units_Z            12
_cell_measurement_temperature    93(2)
_cell_measurement_reflns_used    39839
_cell_measurement_theta_min      1.8578
_cell_measurement_theta_max      28.1483

_exptl_crystal_description       Prism
_exptl_crystal_colour            Colorless
_exptl_crystal_size_max          0.2000
_exptl_crystal_size_mid          0.2000
_exptl_crystal_size_min          0.2000
_exptl_crystal_density_meas      ?
_exptl_crystal_density_diffrn    0.942
_exptl_crystal_density_method    'not measured'
_exptl_crystal_F_000             8928
_exptl_absorpt_coefficient_mu    0.164
_exptl_absorpt_correction_type   multi-scan
_exptl_absorpt_correction_T_min  0.8901
_exptl_absorpt_correction_T_max  1.0000
_exptl_absorpt_process_details   'Jacobson, R. (1998) Private communication'

_exptl_special_details           
;

;

_diffrn_ambient_temperature      93(2)
_diffrn_radiation_wavelength     0.71073
_diffrn_radiation_type           MoK\a
_diffrn_radiation_source         'rotating anode'
_diffrn_radiation_monochromator  confocal
_diffrn_measurement_device_type  CCD
_diffrn_measurement_method       '\w scans'
_diffrn_detector_area_resol_mean ?
_diffrn_standards_number         ?
_diffrn_standards_interval_count ?
_diffrn_standards_interval_time  ?
_diffrn_standards_decay_%        ?
_diffrn_reflns_number            152671
_diffrn_reflns_av_R_equivalents  0.0459
_diffrn_reflns_av_sigmaI/netI    0.0106
_diffrn_reflns_limit_h_min       -37
_diffrn_reflns_limit_h_max       37
_diffrn_reflns_limit_k_min       -37
_diffrn_reflns_limit_k_max       32
_diffrn_reflns_limit_l_min       -37
_diffrn_reflns_limit_l_max       37
_diffrn_reflns_theta_min         1.61
_diffrn_reflns_theta_max         25.34
_reflns_number_total             4574
_reflns_number_gt                4568
_reflns_threshold_expression     >2sigma(I)

_computing_data_collection       'CrystalClear (Rigaku Corp., 2004)'
_computing_cell_refinement       'CrystalClear (Rigaku Corp., 2004)'
_computing_data_reduction        'CrystalClear (Rigaku Corp., 2004)'
_computing_structure_solution    'SHELXS-97 (Sheldrick, 1990)'
_computing_structure_refinement  'SHELXL-97 (Sheldrick, 1997)'
_computing_molecular_graphics    'Bruker SHELXTL'
_computing_publication_material  'Bruker SHELXTL'

_refine_special_details          
;
Refinement of F^2^ against ALL reflections. The weighted R-factor wR and
goodness of fit S are based on F^2^, conventional R-factors R are based
on F, with F set to zero for negative F^2^. The threshold expression of
F^2^ > 2sigma(F^2^) is used only for calculating R-factors(gt) etc. and is
not relevant to the choice of reflections for refinement. R-factors based
on F^2^ are statistically about twice as large as those based on F, and R-
factors based on ALL data will be even larger. The OH hydrogen atoms
were placed in idealised positions and refined with riding thermal parameters.

;

_refine_ls_structure_factor_coef Fsqd
_refine_ls_matrix_type           full
_refine_ls_weighting_scheme      calc
_refine_ls_weighting_details     
'calc w=1/[\s^2^(Fo^2^)+(0.2000P)^2^+0.0000P] where P=(Fo^2^+2Fc^2^)/3'
_atom_sites_solution_primary     direct
_atom_sites_solution_secondary   difmap
_atom_sites_solution_hydrogens   geom
_refine_ls_hydrogen_treatment    constr
_refine_ls_extinction_method     none
_refine_ls_extinction_coef       ?
_refine_ls_abs_structure_details 'Flack H D (1983), Acta Cryst. A39, 876-881'
_refine_ls_abs_structure_Flack   0.3(3)
_refine_ls_number_reflns         4574
_refine_ls_number_parameters     214
_refine_ls_number_restraints     18
_refine_ls_R_factor_all          0.2499
_refine_ls_R_factor_gt           0.2391
_refine_ls_wR_factor_ref         0.5723
_refine_ls_wR_factor_gt          0.5710
_refine_ls_goodness_of_fit_ref   3.047
_refine_ls_restrained_S_all      3.046
_refine_ls_shift/su_max          0.089
_refine_ls_shift/su_mean         0.019

loop_
_atom_site_label
_atom_site_type_symbol
_atom_site_fract_x
_atom_site_fract_y
_atom_site_fract_z
_atom_site_U_iso_or_equiv
_atom_site_adp_type
_atom_site_occupancy
_atom_site_symmetry_multiplicity
_atom_site_calc_flag
_atom_site_refinement_flags
_atom_site_disorder_assembly
_atom_site_disorder_group
K1 K 0.81116(10) 0.5000 0.81116(10) 0.0973(14) Uani 1 2 d S . .
O1 O 0.8136(5) 0.6612(3) 0.6413(3) 0.136(5) Uani 1 1 d U . .
C1 C 0.8468(9) 0.6807(4) 0.6251(3) 0.175(11) Uani 1 1 d U . .
H1A H 0.8409 0.7123 0.6234 0.210 Uiso 1 1 calc R . .
O2 O 0.9262(6) 0.6963(3) 0.6380(3) 0.156(6) Uani 1 1 d . . .
H2A H 0.9271 0.6939 0.6065 0.234 Uiso 1 1 calc R . .
C2 C 0.8953(4) 0.6720(3) 0.6532(3) 0.080(3) Uani 1 1 d . . .
H2B H 0.8896 0.6837 0.6827 0.096 Uiso 1 1 calc R . .
O3 O 0.9342(4) 0.6200(3) 0.6855(3) 0.126(4) Uani 1 1 d . . .
H3A H 0.9608 0.6275 0.6702 0.151 Uiso 1 1 calc R . .
C3 C 0.8992(6) 0.6280(3) 0.6593(2) 0.107(5) Uani 1 1 d . . .
H3B H 0.9063 0.6154 0.6304 0.129 Uiso 1 1 calc R . .
O4 O 0.8603(3) 0.55835(18) 0.67388(18) 0.087(3) Uani 1 1 d . . .
C4 C 0.8526(6) 0.6044(2) 0.6756(3) 0.116(6) Uani 1 1 d . . .
H4A H 0.8448 0.6137 0.7055 0.140 Uiso 1 1 calc R . .
C5 C 0.8130(7) 0.6120(3) 0.6428(3) 0.126(7) Uani 1 1 d . . .
H5A H 0.8185 0.5989 0.6138 0.151 Uiso 1 1 calc R . .
O6 O 0.7685(9) 0.6083(6) 0.7085(9) 0.220(11) Uani 1 1 d . . .
H6A H 0.7707 0.6397 0.7111 0.331 Uiso 1 1 calc R . .
C6 C 0.7722(8) 0.5958(8) 0.6625(5) 0.155(8) Uani 1 1 d . . .
H6B H 0.7713 0.5640 0.6602 0.186 Uiso 1 1 calc R . .
H6C H 0.7473 0.6076 0.6464 0.186 Uiso 1 1 calc R . .
O11 O 0.8228(2) 0.51449(19) 0.72199(19) 0.0707(18) Uani 1 1 d . . .
C11 C 0.8641(4) 0.5382(2) 0.7148(2) 0.068(3) Uani 1 1 d . . .
H11A H 0.8657 0.5616 0.7369 0.082 Uiso 1 1 calc R . .
O12 O 0.9406(5) 0.5367(5) 0.7091(4) 0.156(6) Uani 1 1 d . . .
H12A H 0.9347 0.5665 0.7002 0.234 Uiso 1 1 calc R . .
C12 C 0.8991(3) 0.5143(5) 0.7190(4) 0.093(4) Uani 1 1 d . . .
H12B H 0.9005 0.5041 0.7495 0.111 Uiso 1 1 calc R . .
O13 O 0.9350(4) 0.4461(4) 0.6960(6) 0.143(5) Uani 1 1 d . . .
H13A H 0.9258 0.4160 0.6929 0.215 Uiso 1 1 calc R . .
C13 C 0.8995(3) 0.4735(4) 0.6890(3) 0.076(2) Uani 1 1 d . . .
H13B H 0.9001 0.4834 0.6583 0.091 Uiso 1 1 calc R . .
O14 O 0.8577(4) 0.41555(17) 0.66541(18) 0.099(3) Uani 1 1 d . . .
C14 C 0.8556(3) 0.4529(3) 0.6979(3) 0.063(2) Uani 1 1 d . . .
H14A H 0.8563 0.4404 0.7277 0.075 Uiso 1 1 calc R . .
C15 C 0.8174(3) 0.4787(3) 0.6940(3) 0.065(2) Uani 1 1 d . . .
H15A H 0.8141 0.4889 0.6635 0.078 Uiso 1 1 calc R . .
O16 O 0.7791(3) 0.4429(3) 0.7470(4) 0.114(3) Uani 1 1 d . . .
H16A H 0.7527 0.4260 0.7515 0.171 Uiso 1 1 calc R . .
C16 C 0.7792(7) 0.4587(11) 0.7079(5) 0.168(10) Uani 1 1 d . . .
H16B H 0.7555 0.4801 0.7058 0.202 Uiso 1 1 calc R . .
H16C H 0.7724 0.4350 0.6876 0.202 Uiso 1 1 calc R . .
O21 O 0.7741(14) 0.6973(11) 0.7204(8) 0.186(17) Uani 0.50 1 d PU . .

loop_
_atom_site_aniso_label
_atom_site_aniso_U_11
_atom_site_aniso_U_22
_atom_site_aniso_U_33
_atom_site_aniso_U_23
_atom_site_aniso_U_13
_atom_site_aniso_U_12
K1 0.0981(17) 0.096(2) 0.0981(17) 0.0199(11) 0.0433(18) -0.0199(11)
O1 0.241(13) 0.080(5) 0.087(5) 0.030(4) 0.086(7) 0.031(6)
C1 0.43(3) 0.071(6) 0.025(4) 0.021(4) -0.003(8) -0.080(12)
O2 0.293(17) 0.099(6) 0.075(5) 0.026(4) -0.048(7) -0.090(9)
C2 0.112(7) 0.058(5) 0.069(5) 0.000(4) 0.028(5) -0.028(5)
O3 0.177(10) 0.109(7) 0.091(6) 0.033(5) -0.030(6) -0.050(7)
C3 0.249(17) 0.047(4) 0.025(3) 0.013(3) -0.015(6) -0.018(6)
O4 0.177(8) 0.041(3) 0.042(3) 0.001(2) -0.003(3) -0.022(4)
C4 0.289(19) 0.027(3) 0.034(4) 0.004(3) 0.032(7) 0.018(6)
C5 0.30(2) 0.042(4) 0.038(4) 0.010(3) 0.042(7) 0.031(7)
O6 0.25(2) 0.120(11) 0.30(3) 0.033(14) 0.08(2) 0.004(12)
C6 0.193(19) 0.190(18) 0.081(9) 0.029(10) 0.086(11) 0.024(14)
O11 0.093(4) 0.062(3) 0.057(3) 0.004(2) 0.019(3) 0.003(3)
C11 0.129(8) 0.046(4) 0.029(3) 0.008(3) 0.016(4) -0.030(4)
O12 0.179(12) 0.178(12) 0.112(7) -0.007(8) 0.001(8) -0.113(11)
C12 0.053(5) 0.148(12) 0.078(6) -0.001(6) 0.011(4) -0.023(6)
O13 0.113(7) 0.099(7) 0.217(14) 0.023(8) 0.023(8) 0.038(6)
C13 0.060(5) 0.093(6) 0.073(5) -0.001(5) 0.013(4) -0.008(4)
O14 0.230(10) 0.029(2) 0.038(3) -0.0078(19) 0.001(4) 0.009(4)
C14 0.072(5) 0.064(4) 0.053(4) 0.006(3) -0.015(3) -0.012(4)
C15 0.066(5) 0.053(4) 0.077(5) 0.010(3) 0.010(4) -0.017(3)
O16 0.098(6) 0.077(5) 0.167(10) 0.025(5) 0.018(6) 0.007(4)
C16 0.129(14) 0.32(3) 0.059(7) -0.032(12) 0.002(7) -0.028(17)
O21 0.26(4) 0.19(3) 0.105(15) 0.007(16) 0.046(18) 0.13(3)

_geom_special_details            
;
All esds (except the esd in the dihedral angle between two l.s. planes)
are estimated using the full covariance matrix. The cell esds are taken
into account individually in the estimation of esds in distances, angles
and torsion angles; correlations between esds in cell parameters are only
used when they are defined by crystal symmetry. An approximate (isotropic)
treatment of cell esds is used for estimating esds involving l.s. planes.
;

loop_
_geom_bond_atom_site_label_1
_geom_bond_atom_site_label_2
_geom_bond_distance
_geom_bond_site_symmetry_2
_geom_bond_publ_flag
K1 O2 2.787(15) 38_666 ?
K1 O2 2.787(15) 32_646 ?
K1 O11 2.824(6) 22_565 ?
K1 O11 2.824(6) . ?
K1 O16 2.843(14) 22_565 ?
K1 O16 2.843(14) . ?
K1 O3 2.954(10) 32_646 ?
K1 O3 2.954(10) 38_666 ?
K1 C2 3.470(12) 32_646 ?
K1 C2 3.470(12) 38_666 ?
O1 C1 1.29(2) . ?
O1 C5 1.526(13) . ?
C1 O14 1.387(15) 17_556 ?
C1 C2 1.76(3) . ?
C1 H1A 1.0000 . ?
O2 C2 1.309(17) . ?
O2 K1 2.787(15) 35_566 ?
O2 H2A 0.9800 . ?
C2 C3 1.382(13) . ?
C2 K1 3.470(12) 35_566 ?
C2 H2B 1.0000 . ?
O3 C3 1.380(19) . ?
O3 K1 2.954(10) 35_566 ?
O3 H3A 0.9800 . ?
C3 C4 1.70(2) . ?
C3 H3B 1.0000 . ?
O4 C11 1.418(9) . ?
O4 C4 1.448(10) . ?
C4 C5 1.61(2) . ?
C4 H4A 1.0000 . ?
C5 C6 1.49(3) . ?
C5 H5A 1.0000 . ?
O6 C6 1.48(3) . ?
O6 H6A 0.9800 . ?
C6 H6B 0.9900 . ?
C6 H6C 0.9900 . ?
O11 C15 1.420(11) . ?
O11 C11 1.493(12) . ?
C11 C12 1.320(17) . ?
C11 H11A 1.0000 . ?
O12 C12 1.494(16) . ?
O12 H12A 0.9800 . ?
C12 C13 1.571(17) . ?
C12 H12B 1.0000 . ?
O13 C13 1.408(16) . ?
O13 H13A 0.9800 . ?
C13 C14 1.528(12) . ?
C13 H13B 1.0000 . ?
O14 C1 1.387(15) 20_565 ?
O14 C14 1.538(10) . ?
C14 C15 1.434(14) . ?
C14 H14A 1.0000 . ?
C15 C16 1.41(2) . ?
C15 H15A 1.0000 . ?
O16 C16 1.31(2) . ?
O16 H16A 0.9800 . ?
C16 H16B 0.9900 . ?
C16 H16C 0.9900 . ?

loop_
_geom_angle_atom_site_label_1
_geom_angle_atom_site_label_2
_geom_angle_atom_site_label_3
_geom_angle
_geom_angle_site_symmetry_1
_geom_angle_site_symmetry_3
_geom_angle_publ_flag
O2 K1 O2 140.2(7) 38_666 32_646 ?
O2 K1 O11 88.7(2) 38_666 22_565 ?
O2 K1 O11 115.7(3) 32_646 22_565 ?
O2 K1 O11 115.7(3) 38_666 . ?
O2 K1 O11 88.7(2) 32_646 . ?
O11 K1 O11 106.0(3) 22_565 . ?
O2 K1 O16 68.2(4) 38_666 22_565 ?
O2 K1 O16 151.4(4) 32_646 22_565 ?
O11 K1 O16 57.2(3) 22_565 22_565 ?
O11 K1 O16 69.4(3) . 22_565 ?
O2 K1 O16 151.4(4) 38_666 . ?
O2 K1 O16 68.2(4) 32_646 . ?
O11 K1 O16 69.4(3) 22_565 . ?
O11 K1 O16 57.2(3) . . ?
O16 K1 O16 84.2(4) 22_565 . ?
O2 K1 O3 99.2(4) 38_666 32_646 ?
O2 K1 O3 58.3(3) 32_646 32_646 ?
O11 K1 O3 80.3(2) 22_565 32_646 ?
O11 K1 O3 144.4(3) . 32_646 ?
O16 K1 O3 135.0(3) 22_565 32_646 ?
O16 K1 O3 95.1(4) . 32_646 ?
O2 K1 O3 58.3(3) 38_666 38_666 ?
O2 K1 O3 99.2(4) 32_646 38_666 ?
O11 K1 O3 144.4(3) 22_565 38_666 ?
O11 K1 O3 80.3(2) . 38_666 ?
O16 K1 O3 95.1(4) 22_565 38_666 ?
O16 K1 O3 135.0(3) . 38_666 ?
O3 K1 O3 115.2(5) 32_646 38_666 ?
O2 K1 C2 135.2(4) 38_666 32_646 ?
O2 K1 C2 20.7(3) 32_646 32_646 ?
O11 K1 C2 98.3(2) 22_565 32_646 ?
O11 K1 C2 104.8(2) . 32_646 ?
O16 K1 C2 149.2(3) 22_565 32_646 ?
O16 K1 C2 68.5(3) . 32_646 ?
O3 K1 C2 40.0(3) 32_646 32_646 ?
O3 K1 C2 114.2(3) 38_666 32_646 ?
O2 K1 C2 20.7(3) 38_666 38_666 ?
O2 K1 C2 135.2(4) 32_646 38_666 ?
O11 K1 C2 104.8(2) 22_565 38_666 ?
O11 K1 C2 98.3(2) . 38_666 ?
O16 K1 C2 68.5(3) 22_565 38_666 ?
O16 K1 C2 149.2(3) . 38_666 ?
O3 K1 C2 114.2(3) 32_646 38_666 ?
O3 K1 C2 40.0(3) 38_666 38_666 ?
C2 K1 C2 141.3(4) 32_646 38_666 ?
C1 O1 C5 119.3(13) . . ?
O1 C1 O14 112.8(12) . 17_556 ?
O1 C1 C2 114.4(9) . . ?
O14 C1 C2 100.9(18) 17_556 . ?
O1 C1 H1A 109.5 . . ?
O14 C1 H1A 109.5 17_556 . ?
C2 C1 H1A 109.5 . . ?
C2 O2 K1 110.6(8) . 35_566 ?
C2 O2 H2A 109.5 . . ?
K1 O2 H2A 122.4 35_566 . ?
O2 C2 C3 123.6(14) . . ?
O2 C2 C1 111.1(10) . . ?
C3 C2 C1 107.1(10) . . ?
O2 C2 K1 48.8(7) . 35_566 ?
C3 C2 K1 91.3(9) . 35_566 ?
C1 C2 K1 159.2(5) . 35_566 ?
O2 C2 H2B 104.4 . . ?
C3 C2 H2B 104.4 . . ?
C1 C2 H2B 104.4 . . ?
K1 C2 H2B 79.5 35_566 . ?
C3 O3 K1 115.7(6) . 35_566 ?
C3 O3 H3A 109.5 . . ?
K1 O3 H3A 42.5 35_566 . ?
O3 C3 C2 109.1(10) . . ?
O3 C3 C4 114.6(7) . . ?
C2 C3 C4 113.0(12) . . ?
O3 C3 H3B 106.5 . . ?
C2 C3 H3B 106.5 . . ?
C4 C3 H3B 106.5 . . ?
C11 O4 C4 114.5(6) . . ?
O4 C4 C5 104.2(9) . . ?
O4 C4 C3 106.0(11) . . ?
C5 C4 C3 113.4(7) . . ?
O4 C4 H4A 111.0 . . ?
C5 C4 H4A 111.0 . . ?
C3 C4 H4A 111.0 . . ?
C6 C5 O1 111.1(13) . . ?
C6 C5 C4 109.7(11) . . ?
O1 C5 C4 98.9(11) . . ?
C6 C5 H5A 112.1 . . ?
O1 C5 H5A 112.1 . . ?
C4 C5 H5A 112.1 . . ?
C6 O6 H6A 109.5 . . ?
C5 C6 O6 112(2) . . ?
C5 C6 H6B 109.2 . . ?
O6 C6 H6B 109.2 . . ?
C5 C6 H6C 109.2 . . ?
O6 C6 H6C 109.3 . . ?
H6B C6 H6C 107.9 . . ?
C15 O11 C11 113.2(6) . . ?
C15 O11 K1 117.4(4) . . ?
C11 O11 K1 109.6(4) . . ?
C12 C11 O4 113.9(9) . . ?
C12 C11 O11 114.4(8) . . ?
O4 C11 O11 106.2(8) . . ?
C12 C11 H11A 107.3 . . ?
O4 C11 H11A 107.3 . . ?
O11 C11 H11A 107.3 . . ?
C12 O12 H12A 109.5 . . ?
C11 C12 O12 115.3(13) . . ?
C11 C12 C13 113.6(9) . . ?
O12 C12 C13 104.2(10) . . ?
C11 C12 H12B 107.8 . . ?
O12 C12 H12B 107.8 . . ?
C13 C12 H12B 107.8 . . ?
C13 O13 H13A 109.5 . . ?
O13 C13 C14 114.5(10) . . ?
O13 C13 C12 113.6(10) . . ?
C14 C13 C12 102.8(8) . . ?
O13 C13 H13B 108.6 . . ?
C14 C13 H13B 108.6 . . ?
C12 C13 H13B 108.5 . . ?
C1 O14 C14 116.7(7) 20_565 . ?
C1