
#######################################################################
#
#                 Cambridge Crystallographic Data Centre
#                                CCDC
#
#######################################################################
#
# If this CIF has been generated from an entry in the Cambridge
# Structural Database, then it will include bibliographic, chemical,
# crystal, experimental, refinement or atomic coordinate data resulting
# from the CCDC's data processing and validation procedures.
#
#######################################################################

data_CSD_CIF_LAJTAR
_audit_creation_date 1993-11-16
_audit_creation_method CSD-ConQuest-V1
_database_code_CSD LAJTAR
_database_code_depnum_ccdc_archive 'CCDC 1203010'
_chemical_formula_sum 'C24 H32 Cu2 F12 N8 P2'
_chemical_formula_moiety
;
(C24 H32 Cu2 N8 2+)n,2n(F6 P1 1-)
;
_journal_coden_Cambridge 9
_journal_volume 32
_journal_year 1993
_journal_page_first 1607
_journal_name_full 'Inorg.Chem. '
loop_
_publ_author_name
"T.Otieno"
"S.J.Rettig"
"R.C.Thompson"
"J.Trotter"
_chemical_name_systematic
;
catena-[tetrakis(\m~2~-2,5-Dimethylpyrazine)-di-copper(i) 
bis(hexafluorophosphate)]
;
_chemical_name_common
;
Teaching Subset: MOFs
;
_cell_volume   1595.075
_exptl_crystal_colour 'red-orange'
_exptl_crystal_density_diffrn 1.769
_diffrn_ambient_temperature ?
_diffrn_special_details
;
The study was carried out at room temperature,in the range 283-303K

;
_refine_special_details
;
The anions are disordered.

;
#These two values have been output from a single CSD field.
_refine_ls_R_factor_gt 0.034
_refine_ls_wR_factor_gt 0.034
_symmetry_cell_setting tetragonal
_symmetry_space_group_name_H-M 'P -4 n 2'
_symmetry_Int_Tables_number 118
loop_
_symmetry_equiv_pos_site_id
_symmetry_equiv_pos_as_xyz
1 x,y,z
2 -y,x,-z
3 -x,-y,z
4 y,-x,-z
5 1/2-x,1/2+y,1/2+z
6 1/2+y,1/2+x,1/2-z
7 1/2+x,1/2-y,1/2+z
8 1/2-y,1/2-x,1/2-z
_cell_length_a 13.209(2)
_cell_length_b 13.209(2)
_cell_length_c 9.142(2)
_cell_angle_alpha 90
_cell_angle_beta 90
_cell_angle_gamma 90
_cell_formula_units_Z 2
loop_
_atom_type_symbol
_atom_type_radius_bond
C 0.68
H 0.23
Cu 1.52
F 0.64
N 0.68
P 1.05
loop_
_atom_site_label
_atom_site_type_symbol
_atom_site_fract_x
_atom_site_fract_y
_atom_site_fract_z
Cu1 Cu 0.00000 0.00000 0.00000
Cu2 Cu 0.50000 0.00000 0.25000
N1 N 0.1432(3) -0.0040(3) 0.1060(5)
N2 N 0.3489(3) 0.0015(3) 0.1753(5)
C1 C 0.1759(4) 0.0451(4) 0.2262(6)
C2 C 0.2786(3) 0.0464(3) 0.2576(9)
C3 C 0.3156(4) -0.0496(4) 0.0588(5)
C4 C 0.2134(4) -0.0500(4) 0.0271(6)
C5 C 0.1029(4) 0.0946(5) 0.3269(5)
C6 C 0.3882(5) -0.1055(6) -0.0334(5)
H1 H 0.30090 0.08240 0.34570
H2 H 0.19120 -0.08720 -0.06000
H3 H 0.07430 0.04390 0.39340
H4 H 0.04830 0.12580 0.26990
H5 H 0.13790 0.14690 0.38380
H6 H 0.35120 -0.15110 -0.09900
H7 H 0.43370 -0.14520 0.02900
H8 H 0.42790 -0.05740 -0.09150
P1? P 0.3113(1) 0.18870 0.75000
F1? F 0.2294(8) 0.27060 0.75000
F2? F 0.197(1) 0.199(2) 0.712(3)
F3? F 0.3956(7) 0.10440 0.75000
F4? F 0.422(1) 0.186(2) 0.790(3)
F5? F 0.2329(9) 0.104(1) 0.737(2)
F6? F 0.2930(4) 0.1734(4) 0.9197(5)
N1A N 0.0040(3) 0.1432(3) -0.1060(5)
N2A N -0.0015(3) 0.3489(3) -0.1753(5)
C1A C -0.0451(4) 0.1759(4) -0.2262(6)
C2A C -0.0464(3) 0.2786(3) -0.2576(9)
C3A C 0.0496(4) 0.3156(4) -0.0588(5)
C4A C 0.0500(4) 0.2134(4) -0.0271(6)
C5A C -0.0946(4) 0.1029(5) -0.3269(5)
C6A C 0.1055(5) 0.3882(6) 0.0334(5)
H1A H -0.08240 0.30090 -0.34570
H2A H 0.08720 0.19120 0.06000
H3A H -0.04390 0.07430 -0.39340
H4A H -0.12580 0.04830 -0.26990
H5A H -0.14690 0.13790 -0.38380
H6A H 0.15110 0.35120 0.09900
H7A H 0.14520 0.43370 -0.02900
H8A H 0.05740 0.42790 0.09150
N1B N -0.1432(3) 0.0040(3) 0.1060(5)
N2B N -0.3489(3) -0.0015(3) 0.1753(5)
C1B C -0.1759(4) -0.0451(4) 0.2262(6)
C2B C -0.2786(3) -0.0464(3) 0.2576(9)
C3B C -0.3156(4) 0.0496(4) 0.0588(5)
C4B C -0.2134(4) 0.0500(4) 0.0271(6)
C5B C -0.1029(4) -0.0946(5) 0.3269(5)
C6B C -0.3882(5) 0.1055(6) -0.0334(5)
H1B H -0.30090 -0.08240 0.34570
H2B H -0.19120 0.08720 -0.06000
H3B H -0.07430 -0.04390 0.39340
H4B H -0.04830 -0.12580 0.26990
H5B H -0.13790 -0.14690 0.38380
H6B H -0.35120 0.15110 -0.09900
H7B H -0.43370 0.14520 0.02900
H8B H -0.42790 0.05740 -0.09150
N1C N -0.0040(3) -0.1432(3) -0.1060(5)
N2C N 0.0015(3) -0.3489(3) -0.1753(5)
C1C C 0.0451(4) -0.1759(4) -0.2262(6)
C2C C 0.0464(3) -0.2786(3) -0.2576(9)
C3C C -0.0496(4) -0.3156(4) -0.0588(5)
C4C C -0.0500(4) -0.2134(4) -0.0271(6)
C5C C 0.0946(4) -0.1029(5) -0.3269(5)
C6C C -0.1055(5) -0.3882(6) 0.0334(5)
H1C H 0.08240 -0.30090 -0.34570
H2C H -0.08720 -0.19120 0.06000
H3C H 0.04390 -0.07430 -0.39340
H4C H 0.12580 -0.04830 -0.26990
H5C H 0.14690 -0.13790 -0.38380
H6C H -0.15110 -0.35120 0.09900
H7C H -0.14520 -0.43370 -0.02900
H8C H -0.05740 -0.42790 0.09150
N2B* N 0.6511(3) -0.0015(3) 0.1753(5)
N2E N 0.5015(3) -0.1511(3) 0.3247(5)
N2G N 0.4985(3) 0.1511(3) 0.3247(5)
Cu2A Cu 0.00000 0.50000 -0.25000
Cu2* Cu -0.50000 0.00000 0.25000
Cu2A* Cu 0.00000 -0.50000 -0.25000
#END
