####################################################################### 
# 
# This file contains crystal structure data downloaded from the 
# Cambridge Structural Database (CSD) hosted by the Cambridge 
# Crystallographic Data Centre (CCDC).
# 
# Full information about CCDC data access policies and citation 
# guidelines are available at http://www.ccdc.cam.ac.uk/access/V1 
# 
# Audit and citation data items may have been added by the CCDC. 
# Please retain this information to preserve the provenance of 
# this file and to allow appropriate attribution of the data. 
# 
#######################################################################

data_sad1_d
_audit_block_doi                 10.5517/cc8fwk3
_database_code_depnum_ccdc_archive 'CCDC 251675'
loop_
_citation_id
_citation_doi
_citation_year
1 10.1016/j.tet.2013.09.013 2013
2 10.1002/anie.200462201 2005
_audit_update_record             
;
2004-09-30 deposited with the CCDC.	2024-07-11 downloaded from the CCDC.
;

_audit_creation_method           SHELXL-97
_chemical_name_systematic        
;
?
;
_chemical_name_common            ?
_chemical_melting_point          ?
_chemical_formula_moiety         ?
_chemical_formula_sum            'C86 H76 I6 N12 Zn3'
_chemical_formula_weight         2235.10

loop_
_atom_type_symbol
_atom_type_description
_atom_type_scat_dispersion_real
_atom_type_scat_dispersion_imag
_atom_type_scat_source
C C 0.0033 0.0016 'International Tables Vol C Tables 4.2.6.8 and 6.1.1.4'
H H 0.0000 0.0000 'International Tables Vol C Tables 4.2.6.8 and 6.1.1.4'
N N 0.0061 0.0033 'International Tables Vol C Tables 4.2.6.8 and 6.1.1.4'
Zn Zn 0.2839 1.4301 'International Tables Vol C Tables 4.2.6.8 and 6.1.1.4'
I I -0.4742 1.8119 'International Tables Vol C Tables 4.2.6.8 and 6.1.1.4'

_symmetry_cell_setting           orthorhombic
_symmetry_space_group_name_H-M   Pbca

loop_
_symmetry_equiv_pos_as_xyz
'x, y, z'
'-x+1/2, -y, z+1/2'
'-x, y+1/2, -z+1/2'
'x+1/2, -y+1/2, -z'
'-x, -y, -z'
'x-1/2, y, -z-1/2'
'x, -y-1/2, z-1/2'
'-x-1/2, y-1/2, z'

_cell_length_a                   27.787(3)
_cell_length_b                   13.7247(12)
_cell_length_c                   45.881(4)
_cell_angle_alpha                90.00
_cell_angle_beta                 90.00
_cell_angle_gamma                90.00
_cell_volume                     17498(3)
_cell_formula_units_Z            8
_cell_measurement_temperature    80(2)
_cell_measurement_reflns_used    9384
_cell_measurement_theta_min      2.27
_cell_measurement_theta_max      28.63

_exptl_crystal_description       block
_exptl_crystal_colour            yellow
_exptl_crystal_size_max          0.13
_exptl_crystal_size_mid          0.11
_exptl_crystal_size_min          0.10
_exptl_crystal_density_meas      ?
_exptl_crystal_density_diffrn    1.697
_exptl_crystal_density_method    'not measured'
_exptl_crystal_F_000             8672
_exptl_absorpt_coefficient_mu    2.982
_exptl_absorpt_correction_type   semi_empirical
_exptl_absorpt_correction_T_min  0.6978
_exptl_absorpt_correction_T_max  0.7547
_exptl_absorpt_process_details   SADABS

_exptl_special_details           
;
?
;

_diffrn_ambient_temperature      80(2)
_diffrn_radiation_wavelength     0.71073
_diffrn_radiation_type           MoK\a
_diffrn_radiation_source         'fine-focus sealed tube'
_diffrn_radiation_monochromator  graphite
_diffrn_measurement_device_type  'Bruker SMART CCD area detector system'
_diffrn_measurement_method       omega_scan
_diffrn_detector_area_resol_mean ?
_diffrn_standards_number         ?
_diffrn_standards_interval_count ?
_diffrn_standards_interval_time  ?
_diffrn_standards_decay_%        ?
_diffrn_reflns_number            198611
_diffrn_reflns_av_R_equivalents  0.0707
_diffrn_reflns_av_sigmaI/netI    0.0499
_diffrn_reflns_limit_h_min       -35
_diffrn_reflns_limit_h_max       35
_diffrn_reflns_limit_k_min       -18
_diffrn_reflns_limit_k_max       17
_diffrn_reflns_limit_l_min       -61
_diffrn_reflns_limit_l_max       62
_diffrn_reflns_theta_min         1.71
_diffrn_reflns_theta_max         28.71
_reflns_number_total             21598
_reflns_number_gt                14824
_reflns_threshold_expression     >2sigma(I)

_computing_data_collection       'Bruker SMART'
_computing_cell_refinement       'Bruker SMART'
_computing_data_reduction        'Bruker SHELXTL'
_computing_structure_solution    'SHELXS-97 (Sheldrick, 1990)'
_computing_structure_refinement  'SHELXL-97 (Sheldrick, 1997)'
_computing_molecular_graphics    'Bruker XSHELL'
_computing_publication_material  'Bruker SHELXTL'

_refine_special_details          
;
Refinement of F^2^ against ALL reflections. The weighted R-factor wR and
goodness of fit S are based on F^2^, conventional R-factors R are based
on F, with F set to zero for negative F^2^. The threshold expression of
F^2^ > 2sigma(F^2^) is used only for calculating R-factors(gt) etc. and is
not relevant to the choice of reflections for refinement. R-factors based
on F^2^ are statistically about twice as large as those based on F, and R-
factors based on ALL data will be even larger.
Several restraints and constraints were applied to severely
disordered cyclohexane molecules (C1C to C6C and C7C to C12C).
Large residual electron density peaks sit around iodide atoms.
;

_refine_ls_structure_factor_coef Fsqd
_refine_ls_matrix_type           full
_refine_ls_weighting_scheme      calc
_refine_ls_weighting_details     
'calc w=1/[\s^2^(Fo^2^)+(0.0398P)^2^+315.7478P] where P=(Fo^2^+2Fc^2^)/3'
_atom_sites_solution_primary     direct
_atom_sites_solution_secondary   difmap
_atom_sites_solution_hydrogens   geom
_refine_ls_hydrogen_treatment    constr
_refine_ls_extinction_method     none
_refine_ls_extinction_coef       ?
_refine_ls_number_reflns         21598
_refine_ls_number_parameters     904
_refine_ls_number_restraints     12
_refine_ls_R_factor_all          0.1188
_refine_ls_R_factor_gt           0.0783
_refine_ls_wR_factor_ref         0.1828
_refine_ls_wR_factor_gt          0.1636
_refine_ls_goodness_of_fit_ref   1.084
_refine_ls_restrained_S_all      1.085
_refine_ls_shift/su_max          0.003
_refine_ls_shift/su_mean         0.000

loop_
_atom_site_label
_atom_site_type_symbol
_atom_site_fract_x
_atom_site_fract_y
_atom_site_fract_z
_atom_site_U_iso_or_equiv
_atom_site_adp_type
_atom_site_occupancy
_atom_site_symmetry_multiplicity
_atom_site_calc_flag
_atom_site_refinement_flags
_atom_site_disorder_assembly
_atom_site_disorder_group
C1 C 0.2251(3) 1.0446(6) 0.23995(17) 0.0254(17) Uani 1 1 d . . .
H1 H 0.1940 1.0497 0.2315 0.031 Uiso 1 1 calc R . .
C2 C 0.2289(3) 1.0098(5) 0.26832(16) 0.0214(15) Uani 1 1 d . . .
H2 H 0.2010 0.9923 0.2792 0.026 Uiso 1 1 calc R . .
C3 C 0.2741(3) 1.0014(5) 0.28025(16) 0.0203(15) Uani 1 1 d . . .
C4 C 0.3144(3) 1.0240(6) 0.26339(18) 0.0267(17) Uani 1 1 d . . .
H4 H 0.3460 1.0155 0.2709 0.032 Uiso 1 1 calc R . .
C5 C 0.3074(3) 1.0590(6) 0.23553(18) 0.0300(18) Uani 1 1 d . . .
H5 H 0.3348 1.0751 0.2241 0.036 Uiso 1 1 calc R . .
C6 C 0.2801(3) 0.9730(5) 0.31145(16) 0.0210(15) Uani 1 1 d . . .
C7 C 0.2439(3) 0.9388(5) 0.35448(16) 0.0190(14) Uani 1 1 d . . .
C8 C 0.3258(3) 0.9401(5) 0.35120(16) 0.0194(15) Uani 1 1 d . . .
C9 C 0.2000(3) 0.9242(5) 0.37193(17) 0.0201(15) Uani 1 1 d . . .
C10 C 0.1549(3) 0.9356(5) 0.35903(16) 0.0224(15) Uani 1 1 d . . .
H10 H 0.1521 0.9540 0.3391 0.027 Uiso 1 1 calc R . .
C11 C 0.1147(3) 0.9197(6) 0.37568(17) 0.0227(16) Uani 1 1 d . . .
H11 H 0.0841 0.9281 0.3668 0.027 Uiso 1 1 calc R . .
C12 C 0.1596(3) 0.8828(6) 0.41603(18) 0.0267(17) Uani 1 1 d . . .
H12 H 0.1613 0.8638 0.4359 0.032 Uiso 1 1 calc R . .
C13 C 0.2020(3) 0.8986(5) 0.40122(17) 0.0244(16) Uani 1 1 d . . .
H13 H 0.2320 0.8921 0.4109 0.029 Uiso 1 1 calc R . .
C14 C 0.3727(3) 0.9293(5) 0.36494(17) 0.0222(16) Uani 1 1 d . . .
C15 C 0.3767(3) 0.9133(6) 0.39468(18) 0.0249(16) Uani 1 1 d . . .
H15 H 0.3488 0.9121 0.4066 0.030 Uiso 1 1 calc R . .
C16 C 0.4219(3) 0.8990(6) 0.4067(2) 0.0308(18) Uani 1 1 d . . .
H16 H 0.4242 0.8893 0.4272 0.037 Uiso 1 1 calc R . .
C17 C 0.4586(3) 0.9154(7) 0.3622(2) 0.035(2) Uani 1 1 d . . .
H17 H 0.4870 0.9164 0.3508 0.042 Uiso 1 1 calc R . .
C18 C 0.4150(3) 0.9317(6) 0.3486(2) 0.0315(19) Uani 1 1 d . . .
H18 H 0.4138 0.9444 0.3282 0.038 Uiso 1 1 calc R . .
C19 C 0.3118(3) 1.1214(6) 0.13334(19) 0.033(2) Uani 1 1 d . . .
H19 H 0.3114 1.1906 0.1334 0.040 Uiso 1 1 calc R . .
C20 C 0.3340(4) 1.0732(6) 0.11024(19) 0.034(2) Uani 1 1 d . . .
H20 H 0.3478 1.1089 0.0946 0.041 Uiso 1 1 calc R . .
C21 C 0.3358(3) 0.9725(6) 0.11050(18) 0.0245(16) Uani 1 1 d . . .
C22 C 0.3153(4) 0.9227(6) 0.1335(2) 0.035(2) Uani 1 1 d . . .
H22 H 0.3164 0.8536 0.1344 0.042 Uiso 1 1 calc R . .
C23 C 0.2929(4) 0.9762(6) 0.1551(2) 0.036(2) Uani 1 1 d . . .
H23 H 0.2781 0.9418 0.1707 0.043 Uiso 1 1 calc R . .
C24 C 0.3594(3) 0.9205(6) 0.08614(17) 0.0247(16) Uani 1 1 d . . .
C25 C 0.3941(3) 0.9219(6) 0.04181(17) 0.0250(16) Uani 1 1 d . . .
C26 C 0.3932(3) 0.7834(6) 0.06822(18) 0.0273(17) Uani 1 1 d . . .
C27 C 0.4092(3) 0.9756(6) 0.01508(17) 0.0262(17) Uani 1 1 d . . .
C28 C 0.3987(4) 1.0743(6) 0.01234(19) 0.036(2) Uani 1 1 d . . .
H28 H 0.3824 1.1085 0.0274 0.043 Uiso 1 1 calc R . .
C29 C 0.4352(4) 0.9310(7) -0.0068(2) 0.040(2) Uani 1 1 d . . .
H29 H 0.4443 0.8646 -0.0050 0.048 Uiso 1 1 calc R . .
C30 C 0.4089(3) 0.6801(6) 0.0729(2) 0.0299(18) Uani 1 1 d . . .
C31 C 0.4277(3) 0.6269(7) 0.0499(2) 0.036(2) Uani 1 1 d . . .
H31 H 0.4291 0.6541 0.0309 0.043 Uiso 1 1 calc R . .
C32 C 0.4064(4) 0.6386(7) 0.1000(2) 0.049(3) Uani 1 1 d . . .
H32 H 0.3932 0.6737 0.1160 0.059 Uiso 1 1 calc R . .
C33 C 0.0523(3) 1.0175(6) 0.46902(19) 0.034(2) Uani 1 1 d . . .
H33 H 0.0348 1.0499 0.4541 0.041 Uiso 1 1 calc R . .
C34 C 0.0872(4) 0.8790(6) 0.48696(18) 0.034(2) Uani 1 1 d . . .
H34 H 0.0947 0.8119 0.4848 0.041 Uiso 1 1 calc R . .
C35 C 0.5556(3) 1.0332(7) 0.4449(2) 0.039(2) Uani 1 1 d . . .
H35 H 0.5426 0.9965 0.4606 0.047 Uiso 1 1 calc R . .
C36 C 0.5764(4) 1.0447(7) 0.3962(2) 0.042(2) Uani 1 1 d . . .
H36 H 0.5782 1.0160 0.3774 0.051 Uiso 1 1 calc R . .
C1A C 0.0444(4) 0.9421(11) 0.3091(3) 0.063(3) Uani 1 1 d . . .
H1A H 0.0236 0.9691 0.3234 0.076 Uiso 1 1 calc R . .
C2A C 0.0623(5) 1.0070(13) 0.2887(3) 0.073(4) Uani 1 1 d . . .
H2A H 0.0531 1.0729 0.2917 0.088 Uiso 1 1 calc R . .
C3A C 0.0913(5) 0.9917(14) 0.2647(4) 0.092(5) Uani 1 1 d . . .
H3A H 0.0981 1.0469 0.2529 0.111 Uiso 1 1 calc R . .
C4A C 0.1112(6) 0.9049(18) 0.2563(4) 0.103(6) Uani 1 1 d . . .
H4A H 0.1294 0.9088 0.2388 0.124 Uiso 1 1 calc R . .
C5A C 0.1098(6) 0.8071(17) 0.2690(5) 0.107(7) Uani 1 1 d . . .
H5A H 0.1276 0.7575 0.2594 0.128 Uiso 1 1 calc R . .
C6A C 0.0848(6) 0.7805(15) 0.2938(4) 0.095(6) Uani 1 1 d . . .
C7A C 0.0844(7) 0.6900(14) 0.3051(5) 0.104(7) Uani 1 1 d . . .
H7A H 0.1020 0.6360 0.2978 0.125 Uiso 1 1 calc R . .
C8A C 0.0525(7) 0.6879(12) 0.3304(4) 0.103(6) Uani 1 1 d . . .
H8A H 0.0462 0.6337 0.3427 0.123 Uiso 1 1 calc R . .
C9A C 0.0335(6) 0.7797(12) 0.3327(3) 0.083(5) Uani 1 1 d . . .
H9A H 0.0104 0.7984 0.3469 0.099 Uiso 1 1 calc R . .
C10A C 0.0528(5) 0.8432(11) 0.3113(3) 0.068(4) Uani 1 1 d . . .
C11A C 0.0526(6) 0.5695(16) 0.2350(4) 0.098(6) Uani 1 1 d . . .
H11A H 0.0451 0.6233 0.2472 0.117 Uiso 1 1 calc R . .
C12A C 0.0692(5) 0.5943(15) 0.2078(5) 0.097(6) Uani 1 1 d . . .
H12A H 0.0709 0.6617 0.2032 0.116 Uiso 1 1 calc R . .
C13A C 0.0838(5) 0.5286(16) 0.1865(5) 0.095(5) Uani 1 1 d . . .
H13A H 0.0937 0.5575 0.1687 0.114 Uiso 1 1 calc R . .
C14A C 0.0862(6) 0.4291(17) 0.1870(5) 0.115(7) Uani 1 1 d . . .
H14A H 0.0989 0.3999 0.1699 0.138 Uiso 1 1 calc R . .
C15A C 0.0725(6) 0.3629(15) 0.2093(4) 0.091(5) Uani 1 1 d . . .
H15A H 0.0767 0.2959 0.2049 0.109 Uiso 1 1 calc R . .
C16A C 0.0555(6) 0.3811(16) 0.2344(4) 0.098(6) Uani 1 1 d . . .
C17A C 0.0396(7) 0.3045(16) 0.2560(4) 0.104(6) Uani 1 1 d . . .
H17A H 0.0424 0.2357 0.2543 0.124 Uiso 1 1 calc R . .
C18A C 0.0202(7) 0.358(2) 0.2788(5) 0.114(7) Uani 1 1 d . . .
H18A H 0.0059 0.3284 0.2954 0.137 Uiso 1 1 calc R . .
C19A C 0.0234(7) 0.4619(18) 0.2752(4) 0.107(7) Uani 1 1 d . . .
H19A H 0.0130 0.5101 0.2887 0.129 Uiso 1 1 calc R . .
C20A C 0.0450(6) 0.4783(14) 0.2476(4) 0.090(5) Uani 1 1 d . . .
C1C C 0.3495(9) 0.937(2) 0.4777(4) 0.164(5) Uani 1 1 d D . .
H1C1 H 0.3578 0.9577 0.4977 0.197 Uiso 1 1 calc R . .
H1C2 H 0.3725 0.9672 0.4639 0.197 Uiso 1 1 calc R . .
C2C C 0.2983(9) 0.966(2) 0.4702(4) 0.164(5) Uani 1 1 d D . .
H2C1 H 0.2964 0.9673 0.4487 0.197 Uiso 1 1 calc R . .
H2C2 H 0.2946 1.0344 0.4768 0.197 Uiso 1 1 calc R . .
C3C C 0.2529(9) 0.911(2) 0.4810(4) 0.164(5) Uani 1 1 d D . .
H3C1 H 0.2465 0.9250 0.5018 0.197 Uiso 1 1 calc R . .
H3C2 H 0.2242 0.9293 0.4694 0.197 Uiso 1 1 calc R . .
C4C C 0.2653(9) 0.802(2) 0.4765(4) 0.164(5) Uani 1 1 d D . .
H4C1 H 0.2381 0.7654 0.4852 0.197 Uiso 1 1 calc R . .
H4C2 H 0.2634 0.7909 0.4552 0.197 Uiso 1 1 calc R . .
C5C C 0.3080(9) 0.752(2) 0.4859(4) 0.164(5) Uani 1 1 d D . .
H5C1 H 0.3090 0.6853 0.4774 0.197 Uiso 1 1 calc R . .
H5C2 H 0.3086 0.7459 0.5074 0.197 Uiso 1 1 calc R . .
C6C C 0.3518(9) 0.813(2) 0.4749(4) 0.164(5) Uani 1 1 d D . .
H6C1 H 0.3571 0.7971 0.4542 0.197 Uiso 1 1 calc R . .
H6C2 H 0.3807 0.7911 0.4857 0.197 Uiso 1 1 calc R . .
C7C C 0.7326(13) 0.763(3) 0.4347(9) 0.349(15) Uani 1 1 d D . .
H7C1 H 0.7358 0.6984 0.4252 0.418 Uiso 1 1 calc R . .
H7C2 H 0.7621 0.7770 0.4461 0.418 Uiso 1 1 calc R . .
C8C C 0.6879(14) 0.769(3) 0.4534(9) 0.349(15) Uani 1 1 d D . .
H8C1 H 0.6930 0.7240 0.4701 0.418 Uiso 1 1 calc R . .
H8C2 H 0.6613 0.7406 0.4418 0.418 Uiso 1 1 calc R . .
C9C C 0.6691(15) 0.866(3) 0.4662(9) 0.349(15) Uani 1 1 d D . .
H9C1 H 0.6334 0.8670 0.4660 0.418 Uiso 1 1 calc R . .
H9C2 H 0.6802 0.8737 0.4866 0.418 Uiso 1 1 calc R . .
C10C C 0.6894(15) 0.948(3) 0.4469(9) 0.349(15) Uani 1 1 d D . .
H10A H 0.6599 0.9787 0.4392 0.418 Uiso 1 1 calc R . .
H10B H 0.7022 0.9942 0.4614 0.418 Uiso 1 1 calc R . .
C11C C 0.7216(14) 0.959(3) 0.4237(9) 0.349(15) Uani 1 1 d D . .
H11B H 0.7544 0.9752 0.4305 0.418 Uiso 1 1 calc R . .
H11C H 0.7105 1.0086 0.4096 0.418 Uiso 1 1 calc R . .
C12C C 0.7196(14) 0.853(3) 0.4102(8) 0.349(15) Uani 1 1 d D . .
H12B H 0.7428 0.8497 0.3938 0.418 Uiso 1 1 calc R . .
H12C H 0.6870 0.8421 0.4021 0.418 Uiso 1 1 calc R . .
C1G C 0.2317(4) 0.2149(6) 0.3229(2) 0.041(2) Uani 1 1 d . . .
C2G C 0.2582(6) 0.2422(7) 0.2974(3) 0.065(4) Uani 1 1 d . . .
H2G H 0.2923 0.2469 0.2978 0.079 Uiso 1 1 calc R . .
C3G C 0.2325(6) 0.2619(7) 0.2717(2) 0.063(4) Uani 1 1 d . . .
H3G H 0.2497 0.2783 0.2545 0.075 Uiso 1 1 calc R . .
C4G C 0.1833(7) 0.2579(8) 0.2708(3) 0.073(5) Uani 1 1 d . . .
H4G H 0.1669 0.2718 0.2531 0.087 Uiso 1 1 calc R . .
C5G C 0.1577(6) 0.2340(7) 0.2952(3) 0.062(4) Uani 1 1 d . . .
H5G H 0.1235 0.2326 0.2945 0.074 Uiso 1 1 calc R . .
C6G C 0.1817(4) 0.2115(6) 0.3215(2) 0.041(2) Uani 1 1 d . . .
C7G C 0.1546(4) 0.1889(6) 0.3484(2) 0.041(2) Uani 1 1 d . . .
C8G C 0.1036(4) 0.1836(7) 0.3485(3) 0.055(3) Uani 1 1 d . . .
H8G H 0.0864 0.1920 0.3308 0.066 Uiso 1 1 calc R . .
C9G C 0.0783(4) 0.1661(7) 0.3743(3) 0.059(3) Uani 1 1 d . . .
H9G H 0.0441 0.1638 0.3742 0.070 Uiso 1 1 calc R . .
C10G C 0.1031(5) 0.1526(8) 0.3994(3) 0.062(4) Uani 1 1 d . . .
H10G H 0.0856 0.1401 0.4168 0.074 Uiso 1 1 calc R . .
C11G C 0.1525(4) 0.1561(7) 0.4009(2) 0.048(3) Uani 1 1 d . . .
H11G H 0.1687 0.1478 0.4189 0.057 Uiso 1 1 calc R . .
C12G C 0.1788(4) 0.1724(6) 0.3750(2) 0.038(2) Uani 1 1 d . . .
C13G C 0.2311(4) 0.1722(6) 0.3753(2) 0.038(2) Uani 1 1 d . . .
C14G C 0.2569(4) 0.1486(7) 0.4016(2) 0.049(3) Uani 1 1 d . . .
H14G H 0.2397 0.1334 0.4190 0.059 Uiso 1 1 calc R . .
C15G C 0.3061(4) 0.1481(7) 0.4016(3) 0.050(3) Uani 1 1 d . . .
H15G H 0.3227 0.1340 0.4192 0.060 Uiso 1 1 calc R . .
C16G C 0.3330(4) 0.1682(7) 0.3761(3) 0.056(3) Uani 1 1 d . . .
H16G H 0.3671 0.1663 0.3764 0.067 Uiso 1 1 calc R . .
C17G C 0.3087(4) 0.1905(7) 0.3511(3) 0.048(3) Uani 1 1 d . . .
H17G H 0.3264 0.2052 0.3339 0.057 Uiso 1 1 calc R . .
C18G C 0.2570(4) 0.1921(6) 0.3503(2) 0.039(2) Uani 1 1 d . . .
I1 I 0.16456(2) 1.16050(5) 0.175201(15) 0.04468(17) Uani 1 1 d . . .
I2 I 0.30265(3) 1.30904(4) 0.193339(14) 0.03856(15) Uani 1 1 d . . .
I3 I -0.01406(2) 0.94920(5) 0.398935(14) 0.03965(15) Uani 1 1 d . . .
I4 I 0.05787(3) 0.67225(5) 0.433247(18) 0.0514(2) Uani 1 1 d . . .
I5 I 0.57398(3) 0.77541(6) 0.36858(3) 0.0718(3) Uani 1 1 d . . .
I6 I 0.51079(3) 0.77734(5) 0.45868(2) 0.0596(2) Uani 1 1 d . . .
N1 N 0.2634(3) 1.0712(5) 0.22402(14) 0.0261(15) Uani 1 1 d . . .
N2 N 0.2387(2) 0.9606(4) 0.32647(13) 0.0192(12) Uani 1 1 d . . .
N3 N 0.2866(2) 0.9275(4) 0.36810(14) 0.0201(13) Uani 1 1 d . . .
N4 N 0.3240(2) 0.9643(4) 0.32247(13) 0.0209(13) Uani 1 1 d . . .
N5 N 0.1160(2) 0.8930(4) 0.40373(14) 0.0221(13) Uani 1 1 d . . .
N6 N 0.4625(2) 0.8983(5) 0.39087(17) 0.0293(16) Uani 1 1 d . . .
N7 N 0.2910(3) 1.0734(5) 0.15545(15) 0.0264(15) Uani 1 1 d . . .
N8 N 0.3708(2) 0.9719(5) 0.06221(14) 0.0256(14) Uani 1 1 d . . .
N9 N 0.4062(3) 0.8277(5) 0.04316(15) 0.0294(15) Uani 1 1 d . . .
N10 N 0.3691(2) 0.8250(5) 0.09026(14) 0.0241(14) Uani 1 1 d . . .
N11 N 0.0636(3) 0.9234(5) 0.46522(15) 0.0279(15) Uani 1 1 d . . .
N12 N 0.5575(3) 0.9931(5) 0.41817(17) 0.0313(16) Uani 1 1 d . . .
Zn1 Zn 0.25446(4) 1.15171(7) 0.18651(2) 0.0275(2) Uani 1 1 d . . .
Zn2 Zn 0.05250(4) 0.85568(7) 0.42526(2) 0.0288(2) Uani 1 1 d . . .
Zn3 Zn 0.52748(4) 0.85846(7) 0.40961(3) 0.0370(3) Uani 1 1 d . . .

loop_
_atom_site_aniso_label
_atom_site_aniso_U_11
_atom_site_aniso_U_22
_atom_site_aniso_U_33
_atom_site_aniso_U_23
_atom_site_aniso_U_13
_atom_site_aniso_U_12
C1 0.037(5) 0.019(4) 0.020(4) -0.001(3) -0.002(3) 0.000(3)
C2 0.028(4) 0.016(3) 0.020(4) 0.001(3) 0.003(3) 0.000(3)
C3 0.027(4) 0.014(3) 0.020(4) -0.001(3) 0.004(3) 0.002(3)
C4 0.024(4) 0.027(4) 0.030(4) 0.004(3) 0.004(3) 0.005(3)
C5 0.033(5) 0.028(4) 0.029(4) 0.003(3) 0.005(4) 0.004(4)
C6 0.030(4) 0.012(3) 0.020(4) -0.004(3) -0.002(3) 0.001(3)
C7 0.021(4) 0.014(3) 0.022(4) -0.006(3) -0.001(3) 0.001(3)
C8 0.023(4) 0.011(3) 0.024(4) -0.002(3) -0.001(3) 0.000(3)
C9 0.025(4) 0.007(3) 0.028(4) -0.005(3) -0.001(3) -0.004(3)
C10 0.031(4) 0.017(3) 0.019(4) 0.001(3) 0.00