####################################################################### 
# 
# This file contains crystal structure data downloaded from the 
# Cambridge Structural Database (CSD) hosted by the Cambridge 
# Crystallographic Data Centre (CCDC).
# 
# Full information about CCDC data access policies and citation 
# guidelines are available at http://www.ccdc.cam.ac.uk/access/V1 
# 
# Audit and citation data items may have been added by the CCDC. 
# Please retain this information to preserve the provenance of 
# this file and to allow appropriate attribution of the data. 
# 
#######################################################################

data_1'
_audit_block_doi                 10.5517/cc8m3yx
_database_code_depnum_ccdc_archive 'CCDC 256709'
loop_
_citation_id
_citation_doi
_citation_year
1 10.1002/anie.200462711 2005
_audit_update_record             
;
2004-11-23 deposited with the CCDC.	2024-07-11 downloaded from the CCDC.
;

_audit_creation_method           SHELXL-97
_chemical_name_systematic        
;
?
;
_chemical_name_common            ?
_chemical_melting_point          ?
_chemical_formula_moiety         ?
_chemical_formula_sum            'C98 H134 Cd Cl2 N4 O25'
_chemical_formula_weight         1951.39

loop_
_atom_type_symbol
_atom_type_description
_atom_type_scat_dispersion_real
_atom_type_scat_dispersion_imag
_atom_type_scat_source
C C 0.0033 0.0016 'International Tables Vol C Tables 4.2.6.8 and 6.1.1.4'
H H 0.0000 0.0000 'International Tables Vol C Tables 4.2.6.8 and 6.1.1.4'
N N 0.0061 0.0033 'International Tables Vol C Tables 4.2.6.8 and 6.1.1.4'
O O 0.0106 0.0060 'International Tables Vol C Tables 4.2.6.8 and 6.1.1.4'
Cl Cl 0.1484 0.1585 'International Tables Vol C Tables 4.2.6.8 and 6.1.1.4'
Cd Cd -0.8075 1.2024 'International Tables Vol C Tables 4.2.6.8 and 6.1.1.4'

_symmetry_cell_setting           Hexagonal
_symmetry_space_group_name_H-M   P6(2)22

loop_
_symmetry_equiv_pos_as_xyz
'x, y, z'
'-y, x-y, z+2/3'
'-x+y, -x, z+1/3'
'-x, -y, z'
'y, -x+y, z+2/3'
'x-y, x, z+1/3'
'y, x, -z+2/3'
'x-y, -y, -z'
'-x, -x+y, -z+1/3'
'-y, -x, -z+2/3'
'-x+y, y, -z'
'x, x-y, -z+1/3'

_cell_length_a                   19.2540(12)
_cell_length_b                   19.2540(12)
_cell_length_c                   28.326(3)
_cell_angle_alpha                90.00
_cell_angle_beta                 90.00
_cell_angle_gamma                120.00
_cell_volume                     9094.2(13)
_cell_formula_units_Z            3
_cell_measurement_temperature    293(2)
_cell_measurement_reflns_used    ?
_cell_measurement_theta_min      3.67
_cell_measurement_theta_max      24.28

_exptl_crystal_description       Bloc
_exptl_crystal_colour            Colorless
_exptl_crystal_size_max          0.60
_exptl_crystal_size_mid          0.60
_exptl_crystal_size_min          0.30
_exptl_crystal_density_meas      ?
_exptl_crystal_density_diffrn    1.069
_exptl_crystal_density_method    'not measured'
_exptl_crystal_F_000             3096
_exptl_absorpt_coefficient_mu    0.285
_exptl_absorpt_correction_type   empirical
_exptl_absorpt_process_details   'SADABS (Sheldrick, 1996)'
_exptl_absorpt_correction_T_min  0.6743
_exptl_absorpt_correction_T_max  1.0000

_exptl_special_details           
;
?
;

_diffrn_ambient_temperature      293(2)
_diffrn_radiation_wavelength     0.71073
_diffrn_radiation_type           MoK\a
_diffrn_radiation_source         'fine-focus sealed tube'
_diffrn_radiation_monochromator  graphite
_diffrn_measurement_device_type  ?
_diffrn_measurement_method       ?
_diffrn_detector_area_resol_mean ?
_diffrn_standards_number         none
_diffrn_standards_interval_count none
_diffrn_standards_interval_time  none
_diffrn_standards_decay_%        none
_diffrn_reflns_number            20569
_diffrn_reflns_av_R_equivalents  0.0763
_diffrn_reflns_av_sigmaI/netI    0.0635
_diffrn_reflns_limit_h_min       -13
_diffrn_reflns_limit_h_max       22
_diffrn_reflns_limit_k_min       -22
_diffrn_reflns_limit_k_max       22
_diffrn_reflns_limit_l_min       -29
_diffrn_reflns_limit_l_max       27
_diffrn_reflns_theta_min         3.67
_diffrn_reflns_theta_max         24.28
_reflns_number_total             4724
_reflns_number_gt                3953
_reflns_threshold_expression     >2sigma(I)

_computing_data_collection       'Siemens SMART'
_computing_cell_refinement       'Siemens SMART & SAINT'
_computing_data_reduction        'Siemens XPREP'
_computing_structure_solution    'Siemens SHELXTL'
_computing_structure_refinement  'Siemens SHELXTL'
_computing_molecular_graphics    ?
_computing_publication_material  ?

_refine_special_details          
;
Refinement of F^2^ against ALL reflections. The weighted R-factor wR and
goodness of fit S are based on F^2^, conventional R-factors R are based
on F, with F set to zero for negative F^2^. The threshold expression of
F^2^ > 2sigma(F^2^) is used only for calculating R-factors(gt) etc. and is
not relevant to the choice of reflections for refinement. R-factors based
on F^2^ are statistically about twice as large as those based on F, and R-
factors based on ALL data will be even larger.
;

_refine_ls_structure_factor_coef Fsqd
_refine_ls_matrix_type           full
_refine_ls_weighting_scheme      calc
_refine_ls_weighting_details     
'calc w=1/[\s^2^(Fo^2^)+(0.0939P)^2^+26.7362P] where P=(Fo^2^+2Fc^2^)/3'
_atom_sites_solution_primary     direct
_atom_sites_solution_secondary   difmap
_atom_sites_solution_hydrogens   geom
_refine_ls_hydrogen_treatment    mixed
_refine_ls_extinction_method     SHELXL
_refine_ls_extinction_coef       0.0038(9)
_refine_ls_extinction_expression Fc^*^=kFc[1+0.001xFc^2^\l^3^/sin(2\q)]^-1/4^
_refine_ls_abs_structure_details 'Flack H D (1983), Acta Cryst. A39, 876-881'
_refine_ls_abs_structure_Flack   0.05(8)
_refine_ls_number_reflns         4724
_refine_ls_number_parameters     285
_refine_ls_number_restraints     1
_refine_ls_R_factor_all          0.1086
_refine_ls_R_factor_gt           0.0914
_refine_ls_wR_factor_ref         0.2383
_refine_ls_wR_factor_gt          0.2293
_refine_ls_goodness_of_fit_ref   1.170
_refine_ls_restrained_S_all      1.170
_refine_ls_shift/su_max          0.008
_refine_ls_shift/su_mean         0.000

loop_
_atom_site_label
_atom_site_type_symbol
_atom_site_fract_x
_atom_site_fract_y
_atom_site_fract_z
_atom_site_U_iso_or_equiv
_atom_site_adp_type
_atom_site_occupancy
_atom_site_symmetry_multiplicity
_atom_site_calc_flag
_atom_site_refinement_flags
_atom_site_disorder_assembly
_atom_site_disorder_group
Cd1 Cd 0.5000 1.0000 0.0000 0.0403(4) Uani 1 4 d S . .
Cl1 Cl 0.5000 1.0000 -0.12461(17) 0.1161(16) Uani 1 2 d S . .
O1 O -0.3668(3) 0.3206(3) -0.0531(2) 0.0529(15) Uani 1 1 d . . .
O2 O 0.5000 1.0000 -0.0833(4) 0.160(7) Uani 1 2 d S . .
O3 O 0.5294(10) 1.0995(7) -0.1173(5) 0.087(6) Uani 0.50 1 d P . .
O4 O 0.5721(11) 1.0183(9) -0.1489(8) 0.124(9) Uani 0.50 1 d P . .
O5 O 0.5000 1.0000 -0.1638(10) 0.211(9) Uiso 1 2 d S . .
N1 N 0.3660(4) 0.9039(4) 0.0035(3) 0.0422(17) Uani 1 1 d . . .
C1 C 0.3156(5) 0.9119(6) 0.0334(4) 0.057(2) Uani 1 1 d . . .
H1A H 0.3361 0.9560 0.0534 0.069 Uiso 1 1 calc R . .
C2 C 0.2342(5) 0.8563(6) 0.0349(3) 0.055(2) Uani 1 1 d . . .
H2A H 0.2014 0.8642 0.0556 0.066 Uiso 1 1 calc R . .
C3 C 0.2010(5) 0.7892(5) 0.0060(4) 0.048(2) Uani 1 1 d . . .
C4 C 0.2556(5) 0.7819(5) -0.0237(4) 0.052(2) Uani 1 1 d . . .
H4A H 0.2374 0.7378 -0.0436 0.062 Uiso 1 1 calc R . .
C5 C 0.3350(5) 0.8388(4) -0.0234(3) 0.0429(18) Uani 1 1 d . . .
H5A H 0.3694 0.8316 -0.0432 0.051 Uiso 1 1 calc R . .
C6 C 0.1151(6) 0.7310(5) 0.0082(3) 0.059(2) Uani 1 1 d . . .
H6A H 0.0856 0.7367 0.0324 0.071 Uiso 1 1 calc R . .
C7 C 0.0761(6) 0.6704(5) -0.0220(4) 0.060(3) Uani 1 1 d . . .
H7A H 0.1063 0.6660 -0.0462 0.072 Uiso 1 1 calc R . .
C8 C -0.0114(5) 0.6087(5) -0.0210(4) 0.052(2) Uani 1 1 d . . .
C9 C -0.0586(5) 0.6027(5) 0.0185(4) 0.058(3) Uani 1 1 d . . .
H9A H -0.0353 0.6352 0.0447 0.069 Uiso 1 1 calc R . .
C10 C -0.1390(5) 0.5485(5) 0.0179(3) 0.048(2) Uani 1 1 d . . .
H10A H -0.1712 0.5488 0.0423 0.058 Uiso 1 1 calc R . .
C11 C -0.1740(5) 0.4923(6) -0.0191(3) 0.045(2) Uani 1 1 d . . .
C12 C -0.2567(4) 0.4333(5) -0.0201(3) 0.037(2) Uani 1 1 d . . .
C13 C -0.2874(4) 0.3800(5) -0.0570(3) 0.043(2) Uani 1 1 d . . .
C14 C -0.2392(5) 0.3850(5) -0.0954(3) 0.047(2) Uani 1 1 d . . .
H14A H -0.2611 0.3494 -0.1205 0.056 Uiso 1 1 calc R . .
C15 C -0.1605(5) 0.4419(5) -0.0958(3) 0.046(2) Uani 1 1 d . . .
H15A H -0.1291 0.4449 -0.1215 0.055 Uiso 1 1 calc R . .
C16 C -0.1250(5) 0.4969(6) -0.0582(3) 0.049(2) Uani 1 1 d . . .
C17 C -0.0433(5) 0.5584(5) -0.0580(3) 0.049(2) Uani 1 1 d . . .
H17A H -0.0111 0.5641 -0.0839 0.059 Uiso 1 1 calc R . .
C18 C -0.4142(6) 0.2945(8) -0.0944(4) 0.083(3) Uani 1 1 d . . .
H18A H -0.4611 0.2424 -0.0891 0.099 Uiso 1 1 calc R . .
H18B H -0.3835 0.2897 -0.1201 0.099 Uiso 1 1 calc R . .
C19 C -0.4381(17) 0.3520(17) -0.1064(9) 0.197(11) Uiso 1 1 d . . .
H19A H -0.4666 0.3373 -0.1359 0.295 Uiso 1 1 calc R . .
H19B H -0.3915 0.4042 -0.1093 0.295 Uiso 1 1 calc R . .
H19C H -0.4724 0.3529 -0.0821 0.295 Uiso 1 1 calc R . .
O11 O 0.204(3) 0.864(3) 0.2083(17) 0.21(2) Uiso 0.50 1 d P . .
C21 C 0.220(3) 0.847(3) 0.175(2) 0.163(18) Uiso 0.50 1 d P . .
C22 C 0.250(3) 0.924(3) 0.1739(17) 0.153(15) Uiso 0.50 1 d P . .
O12 O -0.008(4) 0.595(4) 0.1471(16) 0.19(2) Uiso 0.25 1 d P . .
C23 C 0.0000 0.665(4) 0.1667 0.16(2) Uiso 0.50 2 d SP . .
C24 C -0.006(5) 0.692(4) 0.130(3) 0.123(19) Uiso 0.25 1 d P . .
O13 O -0.1961(16) 0.3026(16) -0.1864(8) 0.144(8) Uiso 0.50 1 d P . .
C25 C -0.1845(14) 0.2446(14) -0.1688(11) 0.084(7) Uiso 0.50 1 d P . .
C26 C -0.126(6) 0.270(6) -0.195(3) 0.17(3) Uiso 0.25 1 d P . .
C26' C -0.132(5) 0.264(5) -0.148(3) 0.13(2) Uiso 0.25 1 d P . .
O14 O -0.1164(8) 0.7671(17) 0.0000 0.116(10) Uiso 1 2 d S . .
C27 C -0.083(4) 0.778(4) 0.056(2) 0.15(2) Uiso 0.50 1 d PD . .
C28 C -0.002(5) 0.836(5) 0.077(3) 0.23(4) Uiso 0.50 1 d PD . .
O15 O 0.181(3) 0.940(3) -0.0710(15) 0.107(12) Uiso 0.25 1 d P . .
C29 C 0.100(6) 0.884(6) -0.064(3) 0.14(3) Uiso 0.25 1 d P . .
C30 C 0.130(6) 0.926(6) -0.096(3) 0.15(3) Uiso 0.25 1 d P . .
O101 O 0.038(3) 0.964(4) 0.1337(19) 0.155(16) Uiso 0.25 1 d P . .
O102 O -0.200(2) 0.600(4) 0.0000 0.18(3) Uiso 0.50 2 d SP . .

loop_
_atom_site_aniso_label
_atom_site_aniso_U_11
_atom_site_aniso_U_22
_atom_site_aniso_U_33
_atom_site_aniso_U_23
_atom_site_aniso_U_13
_atom_site_aniso_U_12
Cd1 0.0333(5) 0.0284(6) 0.0577(8) 0.000 0.000 0.0142(3)
Cl1 0.137(4) 0.181(6) 0.041(3) 0.000 0.000 0.088(4)
O1 0.039(3) 0.037(3) 0.068(4) -0.002(3) 0.005(3) 0.008(3)
O2 0.231(19) 0.30(2) 0.026(7) 0.000 0.000 0.189(19)
O3 0.137(16) 0.022(6) 0.095(12) -0.006(7) 0.010(10) 0.033(8)
O4 0.108(13) 0.062(10) 0.22(2) 0.061(11) 0.135(15) 0.052(9)
N1 0.031(3) 0.030(3) 0.072(5) -0.005(3) 0.004(3) 0.020(3)
C1 0.041(5) 0.042(5) 0.080(7) -0.015(5) -0.005(4) 0.014(4)
C2 0.043(5) 0.052(6) 0.063(6) -0.006(5) 0.012(4) 0.018(4)
C3 0.034(4) 0.031(4) 0.077(7) -0.006(5) -0.002(5) 0.015(3)
C4 0.039(5) 0.042(5) 0.069(7) -0.009(4) 0.002(4) 0.016(4)
C5 0.041(5) 0.028(4) 0.065(5) -0.003(4) -0.001(4) 0.021(3)
C6 0.044(5) 0.055(5) 0.072(7) -0.009(4) 0.005(6) 0.019(5)
C7 0.043(5) 0.039(4) 0.083(7) -0.006(4) 0.014(5) 0.009(4)
C8 0.040(5) 0.030(4) 0.083(7) -0.003(4) 0.004(5) 0.015(4)
C9 0.044(5) 0.039(5) 0.069(7) -0.012(4) 0.007(4) 0.004(4)
C10 0.041(5) 0.034(5) 0.065(7) -0.013(4) 0.008(4) 0.015(4)
C11 0.056(5) 0.039(4) 0.056(6) 0.002(4) 0.011(4) 0.035(5)
C12 0.025(4) 0.031(4) 0.060(6) 0.004(4) 0.011(4) 0.019(3)
C13 0.033(4) 0.038(4) 0.060(6) 0.000(4) -0.004(4) 0.019(3)
C14 0.048(5) 0.042(5) 0.045(5) -0.007(4) 0.002(4) 0.020(4)
C15 0.050(5) 0.049(5) 0.045(6) -0.007(4) 0.007(4) 0.030(4)
C16 0.035(5) 0.047(5) 0.061(6) 0.007(5) 0.006(4) 0.018(4)
C17 0.039(5) 0.043(5) 0.065(6) 0.002(5) 0.019(5) 0.021(4)
C18 0.056(6) 0.085(8) 0.073(8) 0.001(7) 0.003(5) 0.009(6)

_geom_special_details            
;
All esds (except the esd in the dihedral angle between two l.s. planes)
are estimated using the full covariance matrix. The cell esds are taken
into account individually in the estimation of esds in distances, angles
and torsion angles; correlations between esds in cell parameters are only
used when they are defined by crystal symmetry. An approximate (isotropic)
treatment of cell esds is used for estimating esds involving l.s. planes.
;

loop_
_geom_bond_atom_site_label_1
_geom_bond_atom_site_label_2
_geom_bond_distance
_geom_bond_site_symmetry_2
_geom_bond_publ_flag
Cd1 N1 2.306(6) . ?
Cd1 N1 2.306(6) 4_675 ?
Cd1 N1 2.306(6) 8_675 ?
Cd1 N1 2.306(6) 11 ?
Cd1 O2 2.361(12) 8_675 ?
Cd1 O2 2.361(12) . ?
Cl1 O5 1.11(3) . ?
Cl1 O2 1.169(12) . ?
Cl1 O4 1.427(12) . ?
Cl1 O4 1.427(12) 4_675 ?
Cl1 O3 1.717(11) . ?
Cl1 O3 1.717(11) 4_675 ?
O1 C13 1.381(9) . ?
O1 C18 1.413(12) . ?
O4 O5 1.32(2) . ?
O5 O4 1.32(2) 4_675 ?
N1 C5 1.327(10) . ?
N1 C1 1.351(12) . ?
C1 C2 1.388(12) . ?
C2 C3 1.386(12) . ?
C3 C4 1.407(12) . ?
C3 C6 1.462(12) . ?
C4 C5 1.365(11) . ?
C6 C7 1.334(12) . ?
C7 C8 1.499(13) . ?
C8 C17 1.350(12) . ?
C8 C9 1.409(13) . ?
C9 C10 1.367(12) . ?
C10 C11 1.412(12) . ?
C11 C12 1.420(12) . ?
C11 C16 1.430(11) . ?
C12 C13 1.375(12) . ?
C12 C12 1.532(15) 11_455 ?
C13 C14 1.401(12) . ?
C14 C15 1.355(12) . ?
C15 C16 1.413(12) . ?
C16 C17 1.419(13) . ?
C18 C19 1.44(3) . ?
O11 C21 1.09(6) . ?
O11 C22 1.43(5) . ?
C21 C22 1.30(6) . ?
O12 O12 1.14(9) 9 ?
O12 C23 1.41(7) . ?
C23 C24 1.20(7) 9 ?
C23 C24 1.20(7) . ?
C23 O12 1.41(7) 9 ?
O13 C25 1.34(4) . ?
O13 C26 1.76(11) . ?
C25 C26' 1.07(8) . ?
C25 C26 1.24(10) . ?
C25 C25 1.16(5) 10_554 ?
C25 C26' 1.99(9) 10_554 ?
C26 C26' 1.35(10) . ?
C26' C25 1.99(9) 10_554 ?
O14 C27 1.68(7) . ?
O14 C27 1.70(7) 11_455 ?
C27 C28 1.51(2) . ?
O15 C29 1.40(11) . ?
O15 C30 1.14(9) . ?
C29 C30 1.15(11) . ?

loop_
_geom_angle_atom_site_label_1
_geom_angle_atom_site_label_2
_geom_angle_atom_site_label_3
_geom_angle
_geom_angle_site_symmetry_1
_geom_angle_site_symmetry_3
_geom_angle_publ_flag
N1 Cd1 N1 175.0(4) . 4_675 ?
N1 Cd1 N1 88.3(3) . 8_675 ?
N1 Cd1 N1 92.0(3) 4_675 8_675 ?
N1 Cd1 N1 92.0(3) . 11 ?
N1 Cd1 N1 88.3(3) 4_675 11 ?
N1 Cd1 N1 175.0(4) 8_675 11 ?
N1 Cd1 O2 87.5(2) . 8_675 ?
N1 Cd1 O2 87.5(2) 4_675 8_675 ?
N1 Cd1 O2 92.5(2) 8_675 8_675 ?
N1 Cd1 O2 92.5(2) 11 8_675 ?
N1 Cd1 O2 92.5(2) . . ?
N1 Cd1 O2 92.5(2) 4_675 . ?
N1 Cd1 O2 87.5(2) 8_675 . ?
N1 Cd1 O2 87.5(2) 11 . ?
O2 Cd1 O2 180.000(1) 8_675 . ?
O5 Cl1 O2 180.000(3) . . ?
O5 Cl1 O4 61.2(11) . . ?
O2 Cl1 O4 118.8(11) . . ?
O5 Cl1 O4 61.2(11) . 4_675 ?
O2 Cl1 O4 118.8(11) . 4_675 ?
O4 Cl1 O4 122(2) . 4_675 ?
O5 Cl1 O3 97.0(5) . . ?
O2 Cl1 O3 83.0(5) . . ?
O4 Cl1 O3 92.6(8) . . ?
O4 Cl1 O3 94.1(8) 4_675 . ?
O5 Cl1 O3 97.0(5) . 4_675 ?
O2 Cl1 O3 83.0(5) . 4_675 ?
O4 Cl1 O3 94.1(8) . 4_675 ?
O4 Cl1 O3 92.6(8) 4_675 4_675 ?
O3 Cl1 O3 166.1(11) . 4_675 ?
C13 O1 C18 118.5(7) . . ?
Cl1 O2 Cd1 180.0 . . ?
O5 O4 Cl1 47.5(12) . . ?
Cl1 O5 O4 71.3(15) . . ?
Cl1 O5 O4 71.3(15) . 4_675 ?
O4 O5 O4 143(3) . 4_675 ?
C5 N1 C1 117.3(7) . . ?
C5 N1 Cd1 121.8(5) . . ?
C1 N1 Cd1 120.9(5) . . ?
N1 C1 C2 121.9(9) . . ?
C1 C2 C3 121.2(8) . . ?
C4 C3 C2 115.2(8) . . ?
C4 C3 C6 124.3(8) . . ?
C2 C3 C6 120.4(8) . . ?
C5 C4 C3 120.6(8) . . ?
N1 C5 C4 123.7(8) . . ?
C7 C6 C3 124.7(9) . . ?
C6 C7 C8 126.9(9) . . ?
C17 C8 C9 121.0(8) . . ?
C17 C8 C7 118.9(9) . . ?
C9 C8 C7 120.2(9) . . ?
C10 C9 C8 119.4(9) . . ?
C9 C10 C11 121.3(8) . . ?
C12 C11 C10 122.9(7) . . ?
C12 C11 C16 118.4(8) . . ?
C10 C11 C16 118.7(8) . . ?
C13 C12 C11 120.3(7) . . ?
C13 C12 C12 121.8(6) . 11_455 ?
C11 C12 C12 117.9(7) . 11_455 ?
C12 C13 O1 116.3(7) . . ?
C12 C13 C14 121.0(7) . . ?
O1 C13 C14 122.7(8) . . ?
C15 C14 C13 119.9(8) . . ?
C14 C15 C16 121.7(8) . . ?
C15 C16 C17 123.2(8) . . ?
C15 C16 C11 118.7(8) . . ?
C17 C16 C11 118.1(8) . . ?
C8 C17 C16 121.2(8) . . ?
O1 C18 C19 108.7(15) . . ?
C21 O11 C22 60(4) . . ?
O11 C21 C22 73(5) . . ?
C21 C22 O11 47(3) . . ?
O12 O12 C23 66(2) 9 . ?
C24 C23 C24 124(10) 9 . ?
C24 C23 O12 94(4) 9 9 ?
C24 C23 O12 142(6) . 9 ?
C24 C23 O12 142(6) 9 . ?
C24 C23 O12 94(4) . . ?
O12 C23 O12 48(5) 9 . ?
C25 O13 C26 44(3) . . ?
C26' C25 C26 71(5) . . ?
C26' C25 C25 126(6) . 10_554 ?
C26 C25 C25 136(6) . 10_554 ?
C26' C25 O13 116(5) . . ?
C26 C25 O13 86(5) . . ?
C25 C25 O13 112(2) 10_554 . ?
C26' C25 C26' 127(7) . 10_554 ?
C26 C25 C26' 110(5) . 10_554 ?
C25 C25 C26' 26(3) 10_554 10_554 ?
O13 C25 C26' 117(3) . 10_554 ?
C25 C26 C26' 48(5) . . ?
C25 C26 O13 49(4) . . ?
C26' C26 O13 81(7) . . ?
C25 C26' C26 60(6) . . ?
C25 C26' C25 28(3) . 10_554 ?
C26 C26' C25 81(6) . 10_554 ?
C27 O14 C27 165(5) . 11_455 ?
O14 C27 C28 132(6) . . ?
C29 O15 C30 53(5) . . ?
C30 C29 O15 52(6) . . ?
C29 C30 O15 76(8) . . ?

_diffrn_measured_fraction_theta_max 0.943
_diffrn_reflns_theta_full        24.28
_diffrn_measured_fraction_theta_full 0.943
_refine_diff_density_max         1.737
_refine_diff_density_min         -0.675
_refine_diff_density_rms         0.086
