####################################################################### 
# 
# This file contains crystal structure data downloaded from the 
# Cambridge Structural Database (CSD) hosted by the Cambridge 
# Crystallographic Data Centre (CCDC).
# 
# Full information about CCDC data access policies and citation 
# guidelines are available at http://www.ccdc.cam.ac.uk/access/V1 
# 
# Audit and citation data items may have been added by the CCDC. 
# Please retain this information to preserve the provenance of 
# this file and to allow appropriate attribution of the data. 
# 
#######################################################################

data_2a
_audit_block_doi                 10.5517/cc8m400
_database_code_depnum_ccdc_archive 'CCDC 256711'
loop_
_citation_id
_citation_doi
_citation_year
1 10.1002/anie.200462711 2005
_audit_update_record             
;
2004-11-23 deposited with the CCDC.	2024-07-11 downloaded from the CCDC.
;

_audit_creation_method           SHELXL-97
_chemical_name_systematic        
;
?
;
_chemical_name_common            ?
_chemical_melting_point          ?
_chemical_formula_moiety         ?
_chemical_formula_sum            'C102 H126 Cd Cl2 N4 O23'
_chemical_formula_weight         1959.37

loop_
_atom_type_symbol
_atom_type_description
_atom_type_scat_dispersion_real
_atom_type_scat_dispersion_imag
_atom_type_scat_source
C C 0.0033 0.0016 'International Tables Vol C Tables 4.2.6.8 and 6.1.1.4'
H H 0.0000 0.0000 'International Tables Vol C Tables 4.2.6.8 and 6.1.1.4'
N N 0.0061 0.0033 'International Tables Vol C Tables 4.2.6.8 and 6.1.1.4'
O O 0.0106 0.0060 'International Tables Vol C Tables 4.2.6.8 and 6.1.1.4'
Cl Cl 0.1484 0.1585 'International Tables Vol C Tables 4.2.6.8 and 6.1.1.4'
Cd Cd -0.8075 1.2024 'International Tables Vol C Tables 4.2.6.8 and 6.1.1.4'

_symmetry_cell_setting           Hexagonal
_symmetry_space_group_name_H-M   P6(1)22

loop_
_symmetry_equiv_pos_as_xyz
'x, y, z'
'-y, x-y, z+1/3'
'-x+y, -x, z+2/3'
'-x, -y, z+1/2'
'y, -x+y, z+5/6'
'x-y, x, z+1/6'
'y, x, -z+1/3'
'x-y, -y, -z'
'-x, -x+y, -z+2/3'
'-y, -x, -z+5/6'
'-x+y, y, -z+1/2'
'x, x-y, -z+1/6'

_cell_length_a                   19.4422(4)
_cell_length_b                   19.4422(4)
_cell_length_c                   55.939(3)
_cell_angle_alpha                90.00
_cell_angle_beta                 90.00
_cell_angle_gamma                120.00
_cell_volume                     18312.0(12)
_cell_formula_units_Z            6
_cell_measurement_temperature    173(2)
_cell_measurement_reflns_used    ?
_cell_measurement_theta_min      6.06
_cell_measurement_theta_max      23.99

_exptl_crystal_description       Bloc
_exptl_crystal_colour            Colorless
_exptl_crystal_size_max          0.60
_exptl_crystal_size_mid          0.60
_exptl_crystal_size_min          0.30
_exptl_crystal_density_meas      ?
_exptl_crystal_density_diffrn    1.066
_exptl_crystal_density_method    'not measured'
_exptl_crystal_F_000             6192
_exptl_absorpt_coefficient_mu    0.282
_exptl_absorpt_correction_type   empirical
_exptl_absorpt_process_details   'SADABS (Sheldrick, 1996)'
_exptl_absorpt_correction_T_min  0.5128
_exptl_absorpt_correction_T_max  1.0000

_exptl_special_details           
;
?
;

_diffrn_ambient_temperature      173(2)
_diffrn_radiation_wavelength     0.71073
_diffrn_radiation_type           MoK\a
_diffrn_radiation_source         'fine-focus sealed tube'
_diffrn_radiation_monochromator  graphite
_diffrn_measurement_device_type  ?
_diffrn_measurement_method       ?
_diffrn_detector_area_resol_mean ?
_diffrn_standards_number         none
_diffrn_standards_interval_count none
_diffrn_standards_interval_time  none
_diffrn_standards_decay_%        none
_diffrn_reflns_number            40244
_diffrn_reflns_av_R_equivalents  0.1441
_diffrn_reflns_av_sigmaI/netI    0.0955
_diffrn_reflns_limit_h_min       -22
_diffrn_reflns_limit_h_max       22
_diffrn_reflns_limit_k_min       -13
_diffrn_reflns_limit_k_max       14
_diffrn_reflns_limit_l_min       -63
_diffrn_reflns_limit_l_max       28
_diffrn_reflns_theta_min         6.06
_diffrn_reflns_theta_max         23.99
_reflns_number_total             9377
_reflns_number_gt                7855
_reflns_threshold_expression     >2sigma(I)

_computing_data_collection       'Siemens SMART'
_computing_cell_refinement       'Siemens SMART & SAINT'
_computing_data_reduction        'Siemens XPREP'
_computing_structure_solution    'Siemens SHELXTL'
_computing_structure_refinement  'Siemens SHELXTL'
_computing_molecular_graphics    ?
_computing_publication_material  ?

_refine_special_details          
;
Refinement of F^2^ against ALL reflections. The weighted R-factor wR and
goodness of fit S are based on F^2^, conventional R-factors R are based
on F, with F set to zero for negative F^2^. The threshold expression of
F^2^ > 2sigma(F^2^) is used only for calculating R-factors(gt) etc. and is
not relevant to the choice of reflections for refinement. R-factors based
on F^2^ are statistically about twice as large as those based on F, and R-
factors based on ALL data will be even larger.
;

_refine_ls_structure_factor_coef Fsqd
_refine_ls_matrix_type           full
_refine_ls_weighting_scheme      calc
_refine_ls_weighting_details     
'calc w=1/[\s^2^(Fo^2^)+(0.1945P)^2^+142.9332P] where P=(Fo^2^+2Fc^2^)/3'
_atom_sites_solution_primary     direct
_atom_sites_solution_secondary   difmap
_atom_sites_solution_hydrogens   geom
_refine_ls_hydrogen_treatment    mixed
_refine_ls_extinction_method     SHELXL
_refine_ls_extinction_coef       1.15(9)
_refine_ls_extinction_expression Fc^*^=kFc[1+0.001xFc^2^\l^3^/sin(2\q)]^-1/4^
_refine_ls_abs_structure_details 'Flack H D (1983), Acta Cryst. A39, 876-881'
_refine_ls_abs_structure_Flack   0.10(10)
_refine_ls_number_reflns         9377
_refine_ls_number_parameters     478
_refine_ls_number_restraints     5
_refine_ls_R_factor_ref          0.2008
_refine_ls_R_factor_gt           0.1821
_refine_ls_wR_factor_ref         0.4414
_refine_ls_wR_factor_gt          0.4253
_refine_ls_goodness_of_fit_ref   1.075
_refine_ls_restrained_S_all      1.079
_refine_ls_shift/su_max          0.009
_refine_ls_shift/su_mean         0.000

loop_
_atom_site_label
_atom_site_type_symbol
_atom_site_fract_x
_atom_site_fract_y
_atom_site_fract_z
_atom_site_U_iso_or_equiv
_atom_site_adp_type
_atom_site_occupancy
_atom_site_symmetry_multiplicity
_atom_site_calc_flag
_atom_site_refinement_flags
_atom_site_disorder_assembly
_atom_site_disorder_group
Cd1 Cd 1.0000 0.50654(7) 0.8333 0.0626(10) Uani 1 2 d S . .
Cl1 Cl 1.0104(5) 0.5125(4) 0.77019(9) 0.128(3) Uani 1 1 d . . .
O1 O 0.3270(8) -0.3560(9) 0.8616(3) 0.086(4) Uani 1 1 d . . .
O2 O 0.3245(8) -0.3128(8) 0.8074(2) 0.078(4) Uani 1 1 d D . .
O3 O 0.988(2) 0.496(2) 0.7905(4) 0.117(18) Uani 1 1 d . . .
O4 O 1.115(2) 0.566(2) 0.7735(6) 0.193(11) Uiso 1 1 d . . .
O5 O 0.995(2) 0.454(3) 0.7531(8) 0.136(14) Uiso 1 1 d . . .
O6 O 1.014(3) 0.597(3) 0.7679(7) 0.142(15) Uiso 1 1 d . . .
N1 N 0.9069(8) 0.3719(7) 0.8315(4) 0.086(5) Uani 1 1 d . . .
N2 N 0.9049(13) -0.4598(11) 0.8357(3) 0.088(5) Uani 1 1 d . . .
C1 C 0.8402(8) 0.3411(9) 0.8451(3) 0.049(4) Uani 1 1 d . . .
H1A H 0.8333 0.3739 0.8563 0.059 Uiso 1 1 calc R . .
C2 C 0.7783(17) 0.2568(15) 0.8425(4) 0.098(7) Uani 1 1 d . . .
H2A H 0.7317 0.2363 0.8521 0.118 Uiso 1 1 calc R . .
C3 C 0.7860(18) 0.2101(17) 0.8276(5) 0.110(8) Uani 1 1 d . . .
C4 C 0.8497(15) 0.2396(10) 0.8150(4) 0.088(7) Uani 1 1 d . . .
H4A H 0.8585 0.2074 0.8041 0.106 Uiso 1 1 calc R . .
C5 C 0.9074(13) 0.3220(11) 0.8178(5) 0.098(8) Uani 1 1 d . . .
H5A H 0.9526 0.3412 0.8077 0.117 Uiso 1 1 calc R . .
C6 C 0.7339(15) 0.1272(9) 0.8296(5) 0.102(9) Uani 1 1 d . . .
H6A H 0.7483 0.0975 0.8193 0.123 Uiso 1 1 calc R . .
C7 C 0.6755(14) 0.0854(11) 0.8413(4) 0.079(6) Uani 1 1 d . . .
H7A H 0.6667 0.1145 0.8534 0.094 Uiso 1 1 calc R . .
C8 C 0.6153(13) 0.0017(13) 0.8416(3) 0.075(5) Uani 1 1 d . . .
C9 C 0.5554(12) -0.0377(11) 0.8594(3) 0.067(4) Uani 1 1 d . . .
H9A H 0.5550 -0.0042 0.8717 0.080 Uiso 1 1 calc R . .
C10 C 0.4998(14) -0.1139(11) 0.8613(4) 0.074(6) Uani 1 1 d . . .
C11 C 0.4962(8) -0.1680(10) 0.8415(3) 0.056(4) Uani 1 1 d . . .
C12 C 0.5512(9) -0.1315(11) 0.8224(3) 0.067(5) Uani 1 1 d . . .
H12A H 0.5460 -0.1620 0.8085 0.081 Uiso 1 1 calc R . .
C13 C 0.6100(12) -0.0558(14) 0.8232(4) 0.099(8) Uani 1 1 d . . .
H13A H 0.6504 -0.0379 0.8114 0.119 Uiso 1 1 calc R . .
C14 C 0.4381(10) -0.2496(10) 0.8441(3) 0.063(4) Uani 1 1 d . . .
C15 C 0.3808(10) -0.2767(11) 0.8596(4) 0.075(5) Uani 1 1 d . . .
C16 C 0.3857(15) -0.2255(12) 0.8798(3) 0.084(6) Uani 1 1 d . . .
H16A H 0.3495 -0.2456 0.8927 0.101 Uiso 1 1 calc R . .
C17 C 0.4418(13) -0.1519(10) 0.8789(3) 0.070(5) Uani 1 1 d . . .
H17A H 0.4437 -0.1196 0.8919 0.084 Uiso 1 1 calc R . .
C18 C 0.229(3) -0.440(4) 0.8859(11) 0.24(2) Uiso 1 1 d D . .
H18A H 0.2075 -0.4710 0.9006 0.358 Uiso 1 1 calc R . .
H18B H 0.2032 -0.4749 0.8721 0.358 Uiso 1 1 calc R . .
H18C H 0.2179 -0.3963 0.8857 0.358 Uiso 1 1 calc R . .
C19 C 0.309(3) -0.411(2) 0.8849(5) 0.19(2) Uani 1 1 d D . .
H19A H 0.3221 -0.4535 0.8824 0.227 Uiso 1 1 calc R . .
H19B H 0.3364 -0.3798 0.8993 0.227 Uiso 1 1 calc R . .
C20 C 0.3037(17) -0.2884(18) 0.7896(4) 0.116(9) Uani 1 1 d D . .
H20A H 0.3010 -0.2408 0.7944 0.139 Uiso 1 1 calc R . .
H20B H 0.2494 -0.3298 0.7850 0.139 Uiso 1 1 calc R . .
C21 C 0.351(4) -0.269(6) 0.7701(8) 0.24(4) Uiso 1 1 d D . .
H21A H 0.3280 -0.2532 0.7571 0.358 Uiso 1 1 calc R . .
H21B H 0.3544 -0.3158 0.7650 0.358 Uiso 1 1 calc R . .
H21C H 0.4039 -0.2257 0.7740 0.358 Uiso 1 1 calc R . .
C22 C 0.3807(17) -0.3301(13) 0.8047(4) 0.094(7) Uani 1 1 d . . .
C23 C 0.4399(11) -0.3029(9) 0.8240(3) 0.064(4) Uani 1 1 d . . .
C24 C 0.4967(12) -0.3256(11) 0.8241(3) 0.072(5) Uani 1 1 d . . .
C25 C 0.5021(11) -0.3721(11) 0.8069(4) 0.082(6) Uani 1 1 d . . .
C26 C 0.4483(13) -0.3973(14) 0.7852(5) 0.099(7) Uani 1 1 d . . .
H26A H 0.4548 -0.4222 0.7715 0.118 Uiso 1 1 calc R . .
C27 C 0.3836(18) -0.3779(17) 0.7883(4) 0.102(7) Uani 1 1 d . . .
H27A H 0.3401 -0.4023 0.7775 0.122 Uiso 1 1 calc R . .
C28 C 0.5542(18) -0.3921(12) 0.8046(4) 0.100(8) Uani 1 1 d . . .
H28A H 0.5565 -0.4190 0.7907 0.120 Uiso 1 1 calc R . .
C29 C 0.6106(13) -0.3727(13) 0.8240(6) 0.104(9) Uani 1 1 d . . .
C30 C 0.6054(13) -0.3297(12) 0.8423(4) 0.075(5) Uani 1 1 d . . .
H30A H 0.6422 -0.3136 0.8551 0.090 Uiso 1 1 calc R . .
C31 C 0.5478(13) -0.3096(13) 0.8423(4) 0.081(5) Uiso 1 1 d . . .
H31A H 0.5434 -0.2828 0.8558 0.098 Uiso 1 1 calc R . .
C32 C 0.6752(12) -0.4000(12) 0.8232(4) 0.082(6) Uani 1 1 d . . .
H32A H 0.6771 -0.4286 0.8097 0.099 Uiso 1 1 calc R . .
C33 C 0.7278(14) -0.3837(10) 0.8414(4) 0.085(6) Uani 1 1 d . . .
H33A H 0.7264 -0.3571 0.8555 0.102 Uiso 1 1 calc R . .
C34 C 0.9103(16) -0.4056(12) 0.8518(5) 0.099(8) Uani 1 1 d . . .
H34A H 0.9554 -0.3836 0.8620 0.119 Uiso 1 1 calc R . .
C35 C 0.8543(16) -0.3770(15) 0.8553(4) 0.098(7) Uani 1 1 d . . .
H35A H 0.8589 -0.3408 0.8674 0.117 Uiso 1 1 calc R . .
C36 C 0.7908(13) -0.4110(12) 0.8379(3) 0.074(5) Uani 1 1 d . . .
C37 C 0.7918(16) -0.4555(18) 0.8202(6) 0.120(11) Uani 1 1 d . . .
H37A H 0.7586 -0.4663 0.8066 0.144 Uiso 1 1 calc R . .
C38 C 0.8391(12) -0.4839(13) 0.8218(4) 0.084(6) Uani 1 1 d . . .
H38A H 0.8261 -0.5283 0.8118 0.100 Uiso 1 1 calc R . .
C41 C -0.1961(19) 1.0927(13) 0.7623(5) 0.195(18) Uiso 1 1 d G . .
H41A H -0.2224 1.0397 0.7681 0.234 Uiso 1 1 calc R . .
C42 C -0.1145(19) 1.140(2) 0.7651(6) 0.24(3) Uiso 1 1 d G . .
H42A H -0.0850 1.1199 0.7729 0.289 Uiso 1 1 calc R . .
C43 C -0.0760(12) 1.2179(19) 0.7566(6) 0.25(3) Uiso 1 1 d G . .
H43A H -0.0202 1.2505 0.7586 0.295 Uiso 1 1 calc R . .
C44 C -0.1191(14) 1.2478(12) 0.7453(5) 0.125(9) Uiso 1 1 d G . .
H44A H -0.0928 1.3009 0.7395 0.150 Uiso 1 1 calc R . .
C45 C -0.2007(14) 1.2002(14) 0.7425(4) 0.141(11) Uiso 1 1 d G . .
H45A H -0.2302 1.2207 0.7347 0.169 Uiso 1 1 calc R . .
C46 C -0.2392(12) 1.1227(13) 0.7510(4) 0.122(8) Uiso 1 1 d G . .
H46A H -0.2950 1.0901 0.7490 0.147 Uiso 1 1 calc R . .
O101 O 0.493(2) 0.995(2) 0.7293(9) 0.131(14) Uiso 0.50 1 d P . .
O102 O -0.145(2) 1.255(2) 0.9171(6) 0.205(11) Uiso 1 1 d . . .
O103 O 0.4874(15) -0.0103(15) 0.8345(5) 0.084(7) Uiso 0.50 1 d P . .
O21 O 0.368(7) 1.147(6) 0.8954(18) 0.26(3) Uiso 0.50 1 d PD . .
C61 C 0.319(12) 1.094(17) 0.912(7) 0.16(2) Uiso 0.50 1 d PD . .
C62 C 0.256(3) 1.150(3) 0.9204(8) 0.093(12) Uiso 0.50 1 d P . .
O22 O 0.0000 1.0223(8) 0.8333 0.057(3) Uiso 1 2 d S . .
C63 C -0.089(2) 0.909(2) 0.8389(6) 0.072(9) Uiso 0.50 1 d P . .
C64 C -0.0412(16) 0.9622(16) 0.8385(4) 0.043(5) Uiso 0.50 1 d P . .
O23 O 0.2029(16) 0.7971(16) 0.9167 0.218(18) Uiso 1 2 d S . .
C65 C 0.125(3) 0.759(3) 0.9269(10) 0.113(15) Uiso 0.50 1 d P . .
C66 C 0.053(5) 0.708(5) 0.9088(14) 0.15(3) Uiso 0.50 1 d P . .
O24 O -0.0396(11) 1.0396(11) 0.9167 0.155(11) Uiso 1 2 d S . .
C67 C -0.0125(14) 1.0246(14) 0.8954(4) 0.036(5) Uiso 0.50 1 d P . .
C68 C 0.0323(17) 1.0127(18) 0.8952(5) 0.056(7) Uiso 0.50 1 d P . .
O25 O -0.117(2) 1.132(2) 0.8577(7) 0.125(12) Uiso 0.50 1 d P . .
C69 C -0.069(4) 1.130(4) 0.8335(11) 0.108(15) Uiso 0.50 1 d P . .
C70 C -0.012(6) 1.181(4) 0.8364(19) 0.117(19) Uiso 0.50 1 d P . .

loop_
_atom_site_aniso_label
_atom_site_aniso_U_11
_atom_site_aniso_U_22
_atom_site_aniso_U_33
_atom_site_aniso_U_23
_atom_site_aniso_U_13
_atom_site_aniso_U_12
Cd1 0.0751(15) 0.0406(11) 0.0837(14) 0.0037(4) 0.0075(8) 0.0375(7)
Cl1 0.189(8) 0.103(4) 0.052(3) 0.002(2) 0.015(3) 0.043(5)
O1 0.050(7) 0.093(10) 0.093(8) 0.013(8) 0.006(6) 0.019(7)
O2 0.071(7) 0.087(9) 0.112(10) -0.035(8) -0.020(7) 0.065(7)
O3 0.37(5) 0.32(4) 0.085(12) 0.095(18) 0.111(19) 0.26(4)
N1 0.033(7) 0.034(6) 0.180(17) -0.022(9) -0.041(9) 0.008(5)
N2 0.122(14) 0.094(12) 0.084(10) -0.032(9) -0.018(10) 0.082(11)
C1 0.037(7) 0.054(8) 0.079(9) 0.001(7) 0.011(7) 0.040(7)
C2 0.117(18) 0.095(15) 0.103(14) -0.013(12) -0.036(13) 0.068(14)
C3 0.12(2) 0.103(17) 0.128(19) -0.020(15) 0.026(17) 0.075(17)
C4 0.121(17) 0.042(9) 0.107(14) -0.013(9) 0.039(13) 0.045(10)
C5 0.073(13) 0.052(10) 0.18(2) 0.004(12) 0.034(14) 0.039(10)
C6 0.119(16) 0.015(7) 0.14(2) -0.013(10) 0.054(16) 0.012(9)
C7 0.115(15) 0.035(10) 0.110(14) -0.016(9) -0.018(12) 0.055(11)
C8 0.095(14) 0.077(12) 0.059(9) -0.009(9) 0.011(9) 0.047(11)
C9 0.092(13) 0.056(10) 0.068(9) 0.007(8) 0.006(9) 0.048(10)
C10 0.110(15) 0.070(12) 0.087(12) -0.026(10) -0.016(12) 0.078(12)
C11 0.014(6) 0.068(10) 0.094(11) -0.019(8) 0.001(7) 0.027(7)
C12 0.029(8) 0.068(10) 0.082(11) -0.005(8) 0.008(7) 0.006(7)
C13 0.054(11) 0.076(13) 0.115(15) -0.022(12) 0.037(11) -0.006(10)
C14 0.054(9) 0.060(9) 0.096(11) 0.000(8) -0.009(8) 0.045(8)
C15 0.045(9) 0.055(10) 0.096(12) -0.021(9) 0.001(9) 0.004(8)
C16 0.118(17) 0.063(12) 0.055(9) 0.004(8) 0.000(10) 0.033(12)
C17 0.101(13) 0.056(10) 0.065(10) 0.001(8) 0.000(10) 0.049(10)
C19 0.21(4) 0.13(3) 0.085(15) -0.042(16) 0.04(2) -0.02(3)
C20 0.124(19) 0.14(2) 0.15(2) 0.040(17) 0.027(16) 0.112(19)
C22 0.14(2) 0.066(12) 0.093(14) -0.001(11) -0.021(13) 0.066(14)
C23 0.066(11) 0.036(8) 0.085(11) -0.005(7) 0.010(9) 0.023(8)
C24 0.068(12) 0.061(10) 0.087(11) 0.016(9) 0.013(10) 0.033(10)
C25 0.057(11) 0.055(10) 0.158(19) 0.023(11) 0.025(12) 0.046(9)
C26 0.079(14) 0.083(14) 0.132(18) -0.044(13) -0.053(13) 0.039(12)
C27 0.109(19) 0.109(19) 0.096(14) -0.008(14) -0.020(14) 0.062(16)
C28 0.13(2) 0.070(11) 0.084(12) -0.020(10) -0.007(14) 0.041(14)
C29 0.066(12) 0.083(13) 0.20(3) 0.044(15) 0.026(14) 0.067(11)
C30 0.083(12) 0.078(12) 0.074(10) -0.005(9) -0.003(9) 0.047(11)
C32 0.080(12) 0.063(12) 0.072(10) -0.003(9) -0.010(9) 0.011(10)
C33 0.133(16) 0.046(10) 0.102(14) -0.016(9) 0.004(12) 0.064(11)
C34 0.122(19) 0.052(11) 0.15(2) -0.034(13) -0.043(16) 0.063(13)
C35 0.108(18) 0.102(16) 0.108(15) -0.024(13) -0.008(13) 0.071(15)
C36 0.094(14) 0.077(11) 0.062(10) -0.012(8) -0.010(9) 0.051(11)
C37 0.109(18) 0.14(2) 0.16(2) -0.09(2) -0.097(18) 0.096(18)
C38 0.066(12) 0.074(13) 0.111(15) -0.028(11) 0.011(11) 0.035(10)

_geom_special_details            
;
All esds (except the esd in the dihedral angle between two l.s. planes)
are estimated using the full covariance matrix. The cell esds are taken
into account individually in the estimation of esds in distances, angles
and torsion angles; correlations between esds in cell parameters are only
used when they are defined by crystal symmetry. An approximate (isotropic)
treatment of cell esds is used for estimating esds involving l.s. planes.
;

loop_
_geom_bond_atom_site_label_1
_geom_bond_atom_site_label_2
_geom_bond_distance
_geom_bond_site_symmetry_2
_geom_bond_publ_flag
Cd1 N2 2.253(17) 1_565 ?
Cd1 N2 2.253(17) 9_776 ?
Cd1 N1 2.323(12) 9_766 ?
Cd1 N1 2.323(13) . ?
Cd1 O3 2.41(2) 9_766 ?
Cd1 O3 2.41(2) . ?
Cl1 O3 1.204(19) . ?
Cl1 O5 1.40(5) . ?
Cl1 O6 1.62(4) . ?
Cl1 O4 1.77(3) . ?
O1 C15 1.37(2) . ?
O1 C19 1.61(4) . ?
O