####################################################################### 
# 
# This file contains crystal structure data downloaded from the 
# Cambridge Structural Database (CSD) hosted by the Cambridge 
# Crystallographic Data Centre (CCDC).
# 
# Full information about CCDC data access policies and citation 
# guidelines are available at http://www.ccdc.cam.ac.uk/access/V1 
# 
# Audit and citation data items may have been added by the CCDC. 
# Please retain this information to preserve the provenance of 
# this file and to allow appropriate attribution of the data. 
# 
#######################################################################

data_2b
_audit_block_doi                 10.5517/cc8m411
_database_code_depnum_ccdc_archive 'CCDC 256712'
loop_
_citation_id
_citation_doi
_citation_year
1 10.1002/anie.200462711 2005
_audit_update_record             
;
2004-11-23 deposited with the CCDC.	2024-07-11 downloaded from the CCDC.
;

_audit_creation_method           SHELXL-97
_chemical_name_systematic        
;
?
;
_chemical_name_common            ?
_chemical_melting_point          ?
_chemical_formula_moiety         ?
_chemical_formula_sum            'C106 H112 Cd Cl2 N4 O19'
_chemical_formula_weight         1929.30

loop_
_atom_type_symbol
_atom_type_description
_atom_type_scat_dispersion_real
_atom_type_scat_dispersion_imag
_atom_type_scat_source
C C 0.0033 0.0016 'International Tables Vol C Tables 4.2.6.8 and 6.1.1.4'
H H 0.0000 0.0000 'International Tables Vol C Tables 4.2.6.8 and 6.1.1.4'
N N 0.0061 0.0033 'International Tables Vol C Tables 4.2.6.8 and 6.1.1.4'
O O 0.0106 0.0060 'International Tables Vol C Tables 4.2.6.8 and 6.1.1.4'
Cl Cl 0.1484 0.1585 'International Tables Vol C Tables 4.2.6.8 and 6.1.1.4'
Cd Cd -0.8075 1.2024 'International Tables Vol C Tables 4.2.6.8 and 6.1.1.4'

_symmetry_cell_setting           Hexagonal
_symmetry_space_group_name_H-M   P6(1)22

loop_
_symmetry_equiv_pos_as_xyz
'x, y, z'
'-y, x-y, z+1/3'
'-x+y, -x, z+2/3'
'-x, -y, z+1/2'
'y, -x+y, z+5/6'
'x-y, x, z+1/6'
'y, x, -z+1/3'
'x-y, -y, -z'
'-x, -x+y, -z+2/3'
'-y, -x, -z+5/6'
'-x+y, y, -z+1/2'
'x, x-y, -z+1/6'

_cell_length_a                   19.4384(3)
_cell_length_b                   19.4384(3)
_cell_length_c                   55.937(2)
_cell_angle_alpha                90.00
_cell_angle_beta                 90.00
_cell_angle_gamma                120.00
_cell_volume                     18304.3(9)
_cell_formula_units_Z            6
_cell_measurement_temperature    173(2)
_cell_measurement_reflns_used    ?
_cell_measurement_theta_min      1.21
_cell_measurement_theta_max      24.27

_exptl_crystal_description       Bloc
_exptl_crystal_colour            Colorless
_exptl_crystal_size_max          0.60
_exptl_crystal_size_mid          0.60
_exptl_crystal_size_min          0.30
_exptl_crystal_density_meas      ?
_exptl_crystal_density_diffrn    1.050
_exptl_crystal_density_method    'not measured'
_exptl_crystal_F_000             6060
_exptl_absorpt_coefficient_mu    0.279
_exptl_absorpt_correction_type   empirical
_exptl_absorpt_process_details   'SADABS (Sheldrick, 1996)'
_exptl_absorpt_correction_T_min  0.3811
_exptl_absorpt_correction_T_max  1.0000

_exptl_special_details           
;
?
;

_diffrn_ambient_temperature      173(2)
_diffrn_radiation_wavelength     0.71073
_diffrn_radiation_type           MoK\a
_diffrn_radiation_source         'fine-focus sealed tube'
_diffrn_radiation_monochromator  graphite
_diffrn_measurement_device_type  ?
_diffrn_measurement_method       ?
_diffrn_detector_area_resol_mean ?
_diffrn_standards_number         none
_diffrn_standards_interval_count none
_diffrn_standards_interval_time  none
_diffrn_standards_decay_%        none
_diffrn_reflns_number            101491
_diffrn_reflns_av_R_equivalents  0.1260
_diffrn_reflns_av_sigmaI/netI    0.0441
_diffrn_reflns_limit_h_min       -22
_diffrn_reflns_limit_h_max       22
_diffrn_reflns_limit_k_min       -20
_diffrn_reflns_limit_k_max       21
_diffrn_reflns_limit_l_min       -51
_diffrn_reflns_limit_l_max       64
_diffrn_reflns_theta_min         1.21
_diffrn_reflns_theta_max         24.27
_reflns_number_total             9857
_reflns_number_gt                9056
_reflns_threshold_expression     >2sigma(I)

_computing_data_collection       'Siemens SMART'
_computing_cell_refinement       'Siemens SMART & SAINT'
_computing_data_reduction        'Siemens XPREP'
_computing_structure_solution    'Siemens SHELXTL'
_computing_structure_refinement  'Siemens SHELXTL'
_computing_molecular_graphics    ?
_computing_publication_material  ?

_refine_special_details          
;
Refinement of F^2^ against ALL reflections. The weighted R-factor wR and
goodness of fit S are based on F^2^, conventional R-factors R are based
on F, with F set to zero for negative F^2^. The threshold expression of
F^2^ > 2sigma(F^2^) is used only for calculating R-factors(gt) etc. and is
not relevant to the choice of reflections for refinement. R-factors based
on F^2^ are statistically about twice as large as those based on F, and R-
factors based on ALL data will be even larger.
;

_refine_ls_structure_factor_coef Fsqd
_refine_ls_matrix_type           full
_refine_ls_weighting_scheme      calc
_refine_ls_weighting_details     
'calc w=1/[\s^2^(Fo^2^)+(0.1863P)^2^+306.3868P] where P=(Fo^2^+2Fc^2^)/3'
_atom_sites_solution_primary     direct
_atom_sites_solution_secondary   difmap
_atom_sites_solution_hydrogens   geom
_refine_ls_hydrogen_treatment    mixed
_refine_ls_extinction_method     SHELXL
_refine_ls_extinction_coef       0.036(5)
_refine_ls_extinction_expression Fc^*^=kFc[1+0.001xFc^2^\l^3^/sin(2\q)]^-1/4^
_refine_ls_abs_structure_details 'Flack H D (1983), Acta Cryst. A39, 876-881'
_refine_ls_abs_structure_Flack   0.06(12)
_refine_ls_number_reflns         9857
_refine_ls_number_parameters     476
_refine_ls_number_restraints     0
_refine_ls_R_factor_ref          0.1995
_refine_ls_R_factor_gt           0.1913
_refine_ls_wR_factor_ref         0.4589
_refine_ls_wR_factor_gt          0.4532
_refine_ls_goodness_of_fit_ref   1.062
_refine_ls_restrained_S_all      1.062
_refine_ls_shift/su_max          0.005
_refine_ls_shift/su_mean         0.000

loop_
_atom_site_label
_atom_site_type_symbol
_atom_site_fract_x
_atom_site_fract_y
_atom_site_fract_z
_atom_site_U_iso_or_equiv
_atom_site_adp_type
_atom_site_occupancy
_atom_site_symmetry_multiplicity
_atom_site_calc_flag
_atom_site_refinement_flags
_atom_site_disorder_assembly
_atom_site_disorder_group
Cd1 Cd -0.49248(6) 0.0000 0.0000 0.0470(7) Uani 1 2 d S . .
Cl1 Cl -0.4853(4) 0.0165(4) 0.06279(8) 0.107(2) Uani 1 1 d . . .
O1 O 0.3648(7) 0.6760(10) -0.0260(3) 0.082(5) Uani 1 1 d . . .
O2 O 0.3216(8) 0.6754(7) 0.0274(2) 0.074(4) Uani 1 1 d . . .
O3 O -0.4924(14) -0.0060(12) 0.0424(3) 0.140(8) Uani 1 1 d . . .
O4 O -0.477(4) -0.005(4) 0.0813(12) 0.19(2) Uiso 0.50 1 d P . .
O5 O -0.4372(13) 0.1152(13) 0.0607(4) 0.124(7) Uiso 1 1 d . . .
O6 O -0.5479(14) -0.0002(14) 0.0804(4) 0.133(7) Uiso 1 1 d . . .
O7 O -0.557(3) 0.032(2) 0.0582(7) 0.118(12) Uiso 0.50 1 d P . .
N1 N -0.3613(8) 0.0970(9) 0.0021(3) 0.057(3) Uiso 1 1 d . . .
N2 N 0.4645(8) 0.0958(8) -0.0011(3) 0.066(4) Uani 1 1 d . . .
C1 C -0.3159(11) 0.0890(15) 0.0178(3) 0.082(7) Uani 1 1 d . . .
H1A H -0.3388 0.0417 0.0271 0.098 Uiso 1 1 calc R . .
C2 C -0.2321(14) 0.1478(14) 0.0222(4) 0.082(6) Uiso 1 1 d . . .
H2A H -0.2025 0.1432 0.0350 0.098 Uiso 1 1 calc R . .
C3 C -0.1970(9) 0.2153(10) 0.0049(3) 0.055(4) Uani 1 1 d . . .
C4 C -0.2498(14) 0.2147(16) -0.0115(4) 0.102(9) Uani 1 1 d . . .
H4A H -0.2296 0.2569 -0.0227 0.122 Uiso 1 1 calc R . .
C5 C -0.3278(12) 0.1597(14) -0.0131(4) 0.072(6) Uani 1 1 d . . .
H5A H -0.3595 0.1650 -0.0250 0.086 Uiso 1 1 calc R . .
C6 C -0.1110(10) 0.2684(14) 0.0071(3) 0.075(6) Uani 1 1 d . . .
H6A H -0.0840 0.2623 0.0204 0.090 Uiso 1 1 calc R . .
C7 C -0.0676(10) 0.3275(11) -0.0096(3) 0.060(5) Uani 1 1 d . . .
H7A H -0.0956 0.3288 -0.0234 0.072 Uiso 1 1 calc R . .
C8 C 0.0146(11) 0.3863(10) -0.0083(4) 0.063(5) Uani 1 1 d . . .
C9 C 0.0483(15) 0.4402(17) -0.0303(4) 0.104(10) Uani 1 1 d . . .
H9A H 0.0168 0.4320 -0.0442 0.125 Uiso 1 1 calc R . .
C10 C 0.1277(10) 0.5021(13) -0.0292(3) 0.068(6) Uani 1 1 d . . .
C11 C 0.158(3) 0.562(4) -0.0441(6) 0.22(3) Uani 1 1 d . . .
H11A H 0.1214 0.5697 -0.0534 0.259 Uiso 1 1 calc R . .
C12 C 0.2345(11) 0.6133(17) -0.0476(3) 0.087(8) Uani 1 1 d . . .
H12A H 0.2537 0.6462 -0.0614 0.105 Uiso 1 1 calc R . .
C13 C 0.2874(9) 0.6153(12) -0.0284(3) 0.060(5) Uani 1 1 d . . .
C14 C 0.2575(9) 0.5621(10) -0.0099(2) 0.045(4) Uani 1 1 d . . .
C15 C 0.1774(10) 0.5055(11) -0.0097(2) 0.052(4) Uani 1 1 d . . .
C16 C 0.1438(12) 0.4544(14) 0.0114(4) 0.080(7) Uani 1 1 d . . .
H16A H 0.1714 0.4609 0.0260 0.096 Uiso 1 1 calc R . .
C17 C 0.0663(10) 0.3951(11) 0.0070(3) 0.062(5) Uani 1 1 d . . .
H17A H 0.0481 0.3518 0.0178 0.075 Uiso 1 1 calc R . .
C18 C 0.4116(17) 0.697(2) -0.0468(3) 0.157(18) Uani 1 1 d . . .
H18A H 0.4686 0.7313 -0.0430 0.189 Uiso 1 1 calc R . .
H18B H 0.3956 0.7259 -0.0582 0.189 Uiso 1 1 calc R . .
C19 C 0.394(4) 0.617(4) -0.0569(11) 0.22(2) Uiso 1 1 d . . .
H19A H 0.4257 0.6257 -0.0714 0.333 Uiso 1 1 calc R . .
H19B H 0.3375 0.5853 -0.0607 0.333 Uiso 1 1 calc R . .
H19C H 0.4081 0.5893 -0.0449 0.333 Uiso 1 1 calc R . .
C20 C 0.211(3) 0.662(3) 0.0580(8) 0.165(15) Uiso 1 1 d . . .
H20A H 0.2054 0.6857 0.0727 0.248 Uiso 1 1 calc R . .
H20B H 0.1923 0.6051 0.0608 0.248 Uiso 1 1 calc R . .
H20C H 0.1795 0.6669 0.0452 0.248 Uiso 1 1 calc R . .
C21 C 0.3014(19) 0.7049(19) 0.0503(5) 0.112(9) Uiso 1 1 d . . .
H21A H 0.3198 0.7622 0.0483 0.134 Uiso 1 1 calc R . .
H21B H 0.3323 0.7000 0.0636 0.134 Uiso 1 1 calc R . .
C22 C 0.3155(11) 0.5641(10) 0.0104(5) 0.074(7) Uani 1 1 d . . .
C23 C 0.3365(8) 0.5033(12) 0.0066(5) 0.084(7) Uani 1 1 d . . .
C24 C 0.3143(10) 0.4480(8) -0.0101(3) 0.050(4) Uani 1 1 d . . .
H24A H 0.2794 0.4468 -0.0221 0.060 Uiso 1 1 calc R . .
C25 C 0.3371(11) 0.3930(10) -0.0114(3) 0.052(4) Uani 1 1 d . . .
H25A H 0.3234 0.3586 -0.0248 0.063 Uiso 1 1 calc R . .
C26 C 0.3849(12) 0.3875(12) 0.0090(3) 0.065(4) Uiso 1 1 d . . .
C27 C 0.4050(10) 0.4400(11) 0.0259(2) 0.053(4) Uani 1 1 d . . .
H27A H 0.4344 0.4370 0.0390 0.064 Uiso 1 1 calc R . .
C28 C 0.3857(8) 0.5022(12) 0.0260(3) 0.054(4) Uani 1 1 d . . .
C29 C 0.4071(13) 0.5596(14) 0.0472(4) 0.075(6) Uani 1 1 d . . .
H29A H 0.4348 0.5579 0.0610 0.089 Uiso 1 1 calc R . .
C30 C 0.3834(13) 0.6107(13) 0.0442(4) 0.081(6) Uani 1 1 d . . .
H30A H 0.3998 0.6500 0.0564 0.098 Uiso 1 1 calc R . .
C31 C 0.3389(9) 0.6171(11) 0.0267(4) 0.068(5) Uani 1 1 d . . .
C32 C 0.4143(13) 0.3279(13) 0.0086(4) 0.078(6) Uani 1 1 d . . .
H32A H 0.4525 0.3368 0.0206 0.093 Uiso 1 1 calc R . .
C33 C 0.3975(15) 0.2692(13) -0.0046(5) 0.097(8) Uani 1 1 d . . .
H33A H 0.3630 0.2633 -0.0174 0.116 Uiso 1 1 calc R . .
C34 C 0.5037(12) 0.1594(9) 0.0098(3) 0.061(5) Uani 1 1 d . . .
H34A H 0.5516 0.1712 0.0177 0.073 Uiso 1 1 calc R . .
C35 C 0.4725(14) 0.220(2) 0.0101(6) 0.136(14) Uani 1 1 d . . .
H35A H 0.4944 0.2626 0.0212 0.163 Uiso 1 1 calc R . .
C36 C 0.4186(11) 0.2131(14) -0.0042(5) 0.087(7) Uani 1 1 d . . .
C37 C 0.3896(14) 0.1484(14) -0.0171(4) 0.080(6) Uiso 1 1 d . . .
H37A H 0.3436 0.1354 -0.0264 0.096 Uiso 1 1 calc R . .
C38 C 0.4194(15) 0.0971(16) -0.0187(6) 0.108(10) Uani 1 1 d . . .
H38A H 0.4077 0.0633 -0.0321 0.129 Uiso 1 1 calc R . .
C41 C 0.7878(15) 0.5915(11) -0.0777(4) 0.166(16) Uiso 1 1 d G . .
H41A H 0.7532 0.5378 -0.0733 0.200 Uiso 1 1 calc R . .
C42 C 0.7565(11) 0.6388(15) -0.0849(4) 0.120(10) Uiso 1 1 d G . .
H42A H 0.7006 0.6174 -0.0853 0.143 Uiso 1 1 calc R . .
C43 C 0.8070(16) 0.7173(14) -0.0915(4) 0.134(11) Uiso 1 1 d G . .
H43A H 0.7857 0.7496 -0.0963 0.160 Uiso 1 1 calc R . .
C44 C 0.8888(15) 0.7486(12) -0.0909(5) 0.154(14) Uiso 1 1 d G . .
H44A H 0.9234 0.8023 -0.0954 0.185 Uiso 1 1 calc R . .
C45 C 0.9201(11) 0.7013(17) -0.0837(5) 0.188(18) Uiso 1 1 d G . .
H45A H 0.9760 0.7227 -0.0833 0.225 Uiso 1 1 calc R . .
C46 C 0.8696(16) 0.6228(16) -0.0772(4) 0.120(9) Uiso 1 1 d G . .
H46A H 0.8909 0.5905 -0.0723 0.144 Uiso 1 1 calc R . .
C47 C 0.0427(17) -0.0427(17) -0.0833 0.130(17) Uiso 1 2 d S . .
H47A H 0.0709 -0.0709 -0.0833 0.156 Uiso 1 2 calc SR . .
C48 C 0.0323(14) -0.0104(15) -0.0624(4) 0.086(6) Uiso 1 1 d . . .
H48A H 0.0441 -0.0274 -0.0479 0.103 Uiso 1 1 calc R . .
C49 C 0.0127(10) 0.0310(10) -0.0611(3) 0.061(4) Uiso 1 1 d . . .
H49A H 0.0078 0.0491 -0.0448 0.073 Uiso 1 1 calc R . .
C50 C -0.082(5) -0.011(5) -0.0829(15) 0.15(3) Uiso 0.50 1 d P . .
H50A H -0.1383 -0.0253 -0.0806 0.185 Uiso 0.50 1 calc PR . .
O11 O 0.198(4) 0.054(4) 0.0055(12) 0.19(2) Uiso 0.50 1 d P . .
C51 C 0.156(3) 0.097(3) -0.0032(9) 0.082(12) Uiso 0.50 1 d P . .
C52 C 0.159(2) 0.195(3) 0.0058(7) 0.069(11) Uiso 0.50 1 d P . .
O12 O 0.0270(15) -0.001(2) -0.0052(4) 0.069(7) Uiso 0.50 1 d P . .
C53 C -0.0417(9) -0.0422(9) -0.0029(3) 0.007(3) Uiso 0.50 1 d P . .
C54 C -0.094(2) -0.097(2) -0.0021(7) 0.065(8) Uiso 0.50 1 d P . .
O13 O -0.362(3) -0.117(3) 0.0949(10) 0.161(18) Uiso 0.50 1 d P . .
C55 C -0.362(5) -0.086(5) 0.0716(14) 0.14(2) Uiso 0.50 1 d P . .
C56 C -0.330(5) -0.110(4) 0.0558(13) 0.13(2) Uiso 0.50 1 d P . .
C61 C 0.692(3) 0.869(3) -0.1217(6) 0.15(3) Uiso 0.50 1 d PG . .
H61A H 0.6792 0.8651 -0.1383 0.183 Uiso 0.50 1 calc PR . .
C62 C 0.764(3) 0.877(3) -0.1143(6) 0.18(4) Uiso 0.50 1 d PG . .
H62A H 0.8003 0.8789 -0.1258 0.219 Uiso 0.50 1 calc PR . .
C63 C 0.7817(18) 0.883(2) -0.0901(6) 0.071(10) Uiso 0.50 1 d PG . .
H63A H 0.8309 0.8886 -0.0850 0.085 Uiso 0.50 1 calc PR . .
C64 C 0.728(2) 0.881(2) -0.0733(5) 0.20(2) Uiso 0.50 1 d PG . .
H64A H 0.7403 0.8846 -0.0567 0.242 Uiso 0.50 1 calc PR . .
C65 C 0.656(2) 0.873(3) -0.0807(7) 0.105(15) Uiso 0.50 1 d PG . .
H65A H 0.6191 0.8709 -0.0692 0.126 Uiso 0.50 1 calc PR . .
C66 C 0.638(2) 0.867(3) -0.1049(8) 0.16(3) Uiso 0.50 1 d PG . .
H66A H 0.5886 0.8611 -0.1100 0.193 Uiso 0.50 1 calc PR . .
O101 O 0.240(4) 0.379(5) 0.0237(13) 0.11(2) Uiso 0.25 1 d P . .
O102 O -0.577(3) 0.2114(13) 0.0833 0.085(12) Uiso 0.50 2 d SP . .
O103 O 0.588(3) 0.638(3) -0.0670(10) 0.080(14) Uiso 0.25 1 d P . .
O104 O 0.4926(18) 0.5162(18) -0.0626(6) 0.094(9) Uiso 0.50 1 d P . .
O105 O 0.563(4) 0.519(4) -0.0719(11) 0.092(17) Uiso 0.25 1 d P . .

loop_
_atom_site_aniso_label
_atom_site_aniso_U_11
_atom_site_aniso_U_22
_atom_site_aniso_U_33
_atom_site_aniso_U_23
_atom_site_aniso_U_13
_atom_site_aniso_U_12
Cd1 0.0356(7) 0.0585(12) 0.0544(10) -0.0042(7) -0.0021(3) 0.0292(6)
Cl1 0.109(4) 0.113(5) 0.037(2) -0.013(2) -0.004(2) 0.008(4)
O1 0.043(7) 0.108(11) 0.094(9) 0.065(9) 0.035(6) 0.037(7)
O2 0.082(9) 0.040(6) 0.094(9) 0.029(6) -0.016(7) 0.027(6)
O3 0.23(2) 0.174(19) 0.051(8) -0.066(10) -0.071(11) 0.125(19)
N2 0.059(8) 0.036(7) 0.128(13) 0.033(8) 0.005(9) 0.041(7)
C1 0.058(10) 0.103(17) 0.046(9) 0.019(11) 0.000(8) 0.012(12)
C3 0.040(8) 0.050(9) 0.039(8) 0.010(7) 0.008(7) -0.005(7)
C4 0.075(15) 0.104(18) 0.088(15) 0.077(14) 0.023(12) 0.016(13)
C5 0.064(12) 0.119(17) 0.067(11) 0.034(11) 0.023(9) 0.072(12)
C6 0.040(9) 0.135(18) 0.055(10) 0.005(10) 0.001(8) 0.047(11)
C7 0.049(10) 0.071(11) 0.047(8) 0.017(8) -0.006(7) 0.020(9)
C8 0.048(10) 0.043(9) 0.092(13) 0.024(9) 0.039(10) 0.018(8)
C9 0.086(16) 0.14(2) 0.105(18) 0.091(18) 0.030(14) 0.074(17)
C10 0.037(9) 0.096(15) 0.034(8) 0.019(9) 0.001(7) 0.005(9)
C11 0.24(5) 0.51(9) 0.079(19) -0.11(4) -0.09(3) 0.32(6)
C12 0.044(10) 0.16(2) 0.039(9) 0.036(12) 0.009(8) 0.034(13)
C13 0.027(8) 0.094(13) 0.049(9) 0.006(9) 0.021(7) 0.023(8)
C14 0.058(9) 0.062(9) 0.033(7) 0.013(7) -0.009(6) 0.043(8)
C15 0.066(11) 0.063(11) 0.019(6) 0.000(7) 0.012(6) 0.027(9)
C16 0.076(13) 0.113(16) 0.101(15) 0.068(13) 0.054(11) 0.085(14)
C17 0.039(9) 0.051(10) 0.059(10) 0.010(8) 0.010(8) -0.006(8)
C18 0.096(18) 0.24(4) 0.021(8) 0.004(14) 0.006(10) 0.00(2)
C22 0.041(9) 0.038(9) 0.144(19) 0.037(11) 0.044(11) 0.020(8)
C23 0.012(7) 0.052(11) 0.17(2) 0.024(13) -0.003(9) 0.000(7)
C24 0.068(10) 0.013(6) 0.060(9) 0.005(6) -0.038(8) 0.014(7)
C25 0.073(11) 0.044(8) 0.042(8) -0.009(7) -0.009(7) 0.031(8)
C27 0.071(10) 0.084(12) 0.020(6) 0.006(7) 0.003(6) 0.050(9)
C28 0.026(7) 0.082(13) 0.051(9) -0.005(9) -0.003(6) 0.024(8)
C29 0.094(15) 0.100(16) 0.075(12) -0.029(11) -0.021(11) 0.082(14)
C30 0.071(14) 0.057(12) 0.096(15) -0.014(11) 0.004(12) 0.018(11)
C31 0.029(8) 0.044(10) 0.095(14) 0.007(10) -0.025(9) -0.008(7)
C32 0.073(13) 0.086(13) 0.103(15) 0.017(12) -0.008(11) 0.061(12)
C33 0.112(18) 0.075(13) 0.13(2) -0.017(14) -0.051(17) 0.069(14)
C34 0.079(12) 0.034(9) 0.086(11) 0.026(8) 0.050(10) 0.041(9)
C35 0.055(13) 0.19(3) 0.14(2) 0.10(2) 0.023(14) 0.047(17)
C36 0.046(10) 0.085(15) 0.124(18) -0.050(14) -0.035(11) 0.027(10)
C38 0.079(16) 0.094(18) 0.18(3) -0.058(18) -0.025(17) 0.068(14)

_geom_special_details            
;
All esds (except the esd in the dihedral angle between two l.s. planes)
are estimated using the full covariance matrix. The cell esds are taken
into account individually in the estimation of esds in distances, angles
and torsion angles; correlations 