
#######################################################################
#
#                 Cambridge Crystallographic Data Centre
#                                CCDC
#
#######################################################################
#
# If this CIF has been generated from an entry in the Cambridge
# Structural Database, then it will include bibliographic, chemical,
# crystal, experimental, refinement or atomic coordinate data resulting
# from the CCDC's data processing and validation procedures.
#
#######################################################################

data_CSD_CIF_LANKUH
_audit_creation_date 2005-08-24
_audit_creation_method CSD-ConQuest-V1
_database_code_CSD LANKUH
_database_code_depnum_ccdc_archive 'CCDC 271834'
_chemical_formula_sum 'C14 H16 N2'
_chemical_formula_moiety
;
C14 H16 N2
;
_journal_coeditor_code "IUCr CI6553"
_journal_coden_Cambridge 1370
_journal_volume 61
_journal_year 2005
_journal_page_first o1245
_journal_name_full 'Acta Crystallogr.,Sect.E:Struct.Rep.Online '
loop_
_publ_author_name
"A.Lennartson"
"T.Kokoli"
"M.Hakansson"
_chemical_name_systematic
;
N,N'-Diphenylethylenediamine
;
_chemical_name_common
;
Teaching Subset: Fundamental Chemistry, Symmetry
;
_chemical_melting_point 338.15
_cell_volume    584.582
_exptl_crystal_colour 'white'
_exptl_crystal_density_diffrn 1.206
_exptl_crystal_description 'plate'
_exptl_crystal_preparation 'hexane/toluene'
_diffrn_ambient_temperature 292
#These two values have been output from a single CSD field.
_refine_ls_R_factor_gt 0.0514
_refine_ls_wR_factor_gt 0.0514
_symmetry_cell_setting monoclinic
_symmetry_space_group_name_H-M 'P 21/c'
_symmetry_Int_Tables_number 14
loop_
_symmetry_equiv_pos_site_id
_symmetry_equiv_pos_as_xyz
1 x,y,z
2 -x,1/2+y,1/2-z
3 -x,-y,-z
4 x,-1/2-y,-1/2+z
_cell_length_a 5.883(2)
_cell_length_b 8.022(3)
_cell_length_c 12.387(5)
_cell_angle_alpha 90
_cell_angle_beta 90.185(15)
_cell_angle_gamma 90
_cell_formula_units_Z 2
loop_
_atom_type_symbol
_atom_type_radius_bond
C 0.68
H 0.23
N 0.68
loop_
_atom_site_label
_atom_site_type_symbol
_atom_site_fract_x
_atom_site_fract_y
_atom_site_fract_z
H1 H 0.340(4) -0.056(2) 0.1784(15)
C1 C 0.6166(2) 0.06386(17) 0.21756(11)
C2 C 0.6028(3) 0.02493(19) 0.32682(12)
H2 H 0.48010 -0.03710 0.35170
C3 C 0.8018(3) 0.15703(18) 0.18299(12)
H3 H 0.81580 0.18500 0.11050
C4 C 0.7651(3) 0.0758(2) 0.39784(13)
H4 H 0.75250 0.04820 0.47050
C5 C 0.9482(3) 0.1681(2) 0.36291(16)
H5 H 1.05940 0.20280 0.41150
N1 N 0.4488(3) 0.0097(2) 0.14873(11)
C6 C 0.9643(3) 0.2079(2) 0.25591(15)
H6 H 1.08730 0.27050 0.23200
C7 C 0.4289(3) 0.0544(2) 0.03641(13)
H7 H 0.47540 0.16960 0.02750
H8 H 0.27080 0.04600 0.01460
H1B H 0.660(4) 0.056(2) -0.1784(15)
C1B C 0.3834(2) -0.06386(17) -0.21756(11)
C2B C 0.3972(3) -0.02493(19) -0.32682(12)
H2B H 0.51990 0.03710 -0.35170
C3B C 0.1982(3) -0.15703(18) -0.18299(12)
H3B H 0.18420 -0.18500 -0.11050
C4B C 0.2349(3) -0.0758(2) -0.39784(13)
H4B H 0.24750 -0.04820 -0.47050
C5B C 0.0518(3) -0.1681(2) -0.36291(16)
H5B H -0.05940 -0.20280 -0.41150
N1B N 0.5512(3) -0.0097(2) -0.14873(11)
C6B C 0.0357(3) -0.2079(2) -0.25591(15)
H6B H -0.08730 -0.27050 -0.23200
C7B C 0.5711(3) -0.0544(2) -0.03641(13)
H7B H 0.52460 -0.16960 -0.02750
H8B H 0.72920 -0.04600 -0.01460
#END
