####################################################################### 
# 
# This file contains crystal structure data downloaded from the 
# Cambridge Structural Database (CSD) hosted by the Cambridge 
# Crystallographic Data Centre (CCDC).
# 
# Full information about CCDC data access policies and citation 
# guidelines are available at http://www.ccdc.cam.ac.uk/access/V1 
# 
# Audit and citation data items may have been added by the CCDC. 
# Please retain this information to preserve the provenance of 
# this file and to allow appropriate attribution of the data. 
# 
#######################################################################

data_1
_audit_block_doi                 10.5517/ccvlbzq
_database_code_depnum_ccdc_archive 'CCDC 792204'
loop_
_citation_id
_citation_doi
_citation_year
1 10.1016/j.ica.2011.12.018 2012
_audit_update_record             
;
2010-09-07 deposited with the CCDC.	2024-07-11 downloaded from the CCDC.
;
#TrackingRef '1.CIF'


_audit_creation_method           SHELXL-97
_chemical_name_systematic        
;
?
;
_chemical_name_common            ?
_chemical_melting_point          ?
_chemical_formula_moiety         ?
_chemical_formula_sum            'C10 H24 Cu4 I4 N4 O0'
_chemical_formula_weight         962.13

loop_
_atom_type_symbol
_atom_type_description
_atom_type_scat_dispersion_real
_atom_type_scat_dispersion_imag
_atom_type_scat_source
C C 0.0033 0.0016 'International Tables Vol C Tables 4.2.6.8 and 6.1.1.4'
H H 0.0000 0.0000 'International Tables Vol C Tables 4.2.6.8 and 6.1.1.4'
Cu Cu 0.3201 1.2651 'International Tables Vol C Tables 4.2.6.8 and 6.1.1.4'
I I -0.4742 1.8119 'International Tables Vol C Tables 4.2.6.8 and 6.1.1.4'
N N 0.0061 0.0033 'International Tables Vol C Tables 4.2.6.8 and 6.1.1.4'
O O 0.0106 0.0060 'International Tables Vol C Tables 4.2.6.8 and 6.1.1.4'

_symmetry_cell_setting           Hexagonal
_symmetry_space_group_name_H-M   P6(2)22

loop_
_symmetry_equiv_pos_as_xyz
'x, y, z'
'x-y, x, z+1/3'
'-y, x-y, z+2/3'
'-x, -y, z'
'-x+y, -x, z+1/3'
'y, -x+y, z+2/3'
'-y, -x, -z+2/3'
'x-y, -y, -z'
'x, x-y, -z+1/3'
'y, x, -z+2/3'
'-x+y, y, -z'
'-x, -x+y, -z+1/3'

_cell_length_a                   18.120(3)
_cell_length_b                   18.120(3)
_cell_length_c                   7.5177(15)
_cell_angle_alpha                90.00
_cell_angle_beta                 90.00
_cell_angle_gamma                120.00
_cell_volume                     2137.6(7)
_cell_formula_units_Z            3
_cell_measurement_temperature    293(2)
_cell_measurement_reflns_used    ?
_cell_measurement_theta_min      ?
_cell_measurement_theta_max      ?

_exptl_crystal_description       pillar
_exptl_crystal_colour            yellow
_exptl_crystal_size_max          0.1
_exptl_crystal_size_mid          0.1
_exptl_crystal_size_min          0.1
_exptl_crystal_density_meas      ?
_exptl_crystal_density_diffrn    2.242
_exptl_crystal_density_method    'not measured'
_exptl_crystal_F_000             1320
_exptl_absorpt_coefficient_mu    7.277
_exptl_absorpt_correction_type   empirical
_exptl_absorpt_correction_T_min  0.478
_exptl_absorpt_correction_T_max  0.483
_exptl_absorpt_process_details   ?

_exptl_special_details           
;
?
;

_diffrn_ambient_temperature      293(2)
_diffrn_radiation_wavelength     0.71073
_diffrn_radiation_type           MoK\a
_diffrn_radiation_source         'fine-focus sealed tube'
_diffrn_radiation_monochromator  graphite
_diffrn_measurement_device_type  'siements SMART CCD'
_diffrn_measurement_method       'Omega scan'
_diffrn_detector_area_resol_mean ?
_diffrn_standards_number         none
_diffrn_standards_interval_count ?
_diffrn_standards_interval_time  none
_diffrn_standards_decay_%        none
_diffrn_reflns_number            20942
_diffrn_reflns_av_R_equivalents  0.0762
_diffrn_reflns_av_sigmaI/netI    0.0347
_diffrn_reflns_limit_h_min       -23
_diffrn_reflns_limit_h_max       23
_diffrn_reflns_limit_k_min       -21
_diffrn_reflns_limit_k_max       23
_diffrn_reflns_limit_l_min       -9
_diffrn_reflns_limit_l_max       9
_diffrn_reflns_theta_min         3.00
_diffrn_reflns_theta_max         27.43
_reflns_number_total             1644
_reflns_number_gt                1452
_reflns_threshold_expression     >2sigma(I)

_computing_data_collection       'Bruker SMART'
_computing_cell_refinement       'Bruker SMART'
_computing_data_reduction        'Bruker SMART'
_computing_structure_solution    'SHELXS-97 (Sheldrick, 1990)'
_computing_structure_refinement  'SHELXL-97 (Sheldrick, 1997)'
_computing_molecular_graphics    ?
_computing_publication_material  ?

_refine_special_details          
;
Refinement of F^2^ against ALL reflections. The weighted R-factor wR and
goodness of fit S are based on F^2^, conventional R-factors R are based
on F, with F set to zero for negative F^2^. The threshold expression of
F^2^ > 2sigma(F^2^) is used only for calculating R-factors(gt) etc. and is
not relevant to the choice of reflections for refinement. R-factors based
on F^2^ are statistically about twice as large as those based on F, and R-
factors based on ALL data will be even larger.
;

_refine_ls_structure_factor_coef Fsqd
_refine_ls_matrix_type           full
_refine_ls_weighting_scheme      calc
_refine_ls_weighting_details     
'calc w=1/[\s^2^(Fo^2^)+(0.0410P)^2^+2.7042P] where P=(Fo^2^+2Fc^2^)/3'
_atom_sites_solution_primary     direct
_atom_sites_solution_secondary   difmap
_atom_sites_solution_hydrogens   geom
_refine_ls_hydrogen_treatment    constr
_refine_ls_extinction_method     none
_refine_ls_extinction_coef       ?
_refine_ls_abs_structure_details 'Flack H D (1983), Acta Cryst. A39, 876-881'
_refine_ls_abs_structure_Flack   0.07(8)
_refine_ls_number_reflns         1644
_refine_ls_number_parameters     51
_refine_ls_number_restraints     0
_refine_ls_R_factor_all          0.0432
_refine_ls_R_factor_gt           0.0360
_refine_ls_wR_factor_ref         0.0861
_refine_ls_wR_factor_gt          0.0837
_refine_ls_goodness_of_fit_ref   1.086
_refine_ls_restrained_S_all      1.086
_refine_ls_shift/su_max          0.000
_refine_ls_shift/su_mean         0.000

loop_
_atom_site_label
_atom_site_type_symbol
_atom_site_fract_x
_atom_site_fract_y
_atom_site_fract_z
_atom_site_U_iso_or_equiv
_atom_site_adp_type
_atom_site_occupancy
_atom_site_symmetry_multiplicity
_atom_site_calc_flag
_atom_site_refinement_flags
_atom_site_disorder_assembly
_atom_site_disorder_group
I1 I 0.46006(3) 0.35963(3) -0.37739(6) 0.04936(17) Uani 1 1 d . . .
Cu1 Cu 0.47942(7) 0.41915(6) -0.03862(13) 0.0523(3) Uani 1 1 d . . .
N1 N 0.4534(4) 0.3152(4) 0.1179(8) 0.0486(14) Uani 1 1 d . . .
C1 C 0.3660(6) 0.2457(6) 0.0882(16) 0.087(3) Uani 1 1 d . . .
H1A H 0.3290 0.2679 0.1201 0.104 Uiso 1 1 calc R . .
H1B H 0.3601 0.2361 -0.0392 0.104 Uiso 1 1 calc R . .
C2 C 0.3308(13) 0.1654(6) 0.1667 0.170(11) Uani 1 2 d S . .
C3 C 0.5177(6) 0.2901(5) 0.1024(13) 0.069(3) Uani 1 1 d . . .
H4A H 0.5730 0.3415 0.1099 0.083 Uiso 1 1 calc R . .
H4B H 0.5131 0.2671 -0.0161 0.083 Uiso 1 1 calc R . .

loop_
_atom_site_aniso_label
_atom_site_aniso_U_11
_atom_site_aniso_U_22
_atom_site_aniso_U_33
_atom_site_aniso_U_23
_atom_site_aniso_U_13
_atom_site_aniso_U_12
I1 0.0578(3) 0.0561(3) 0.0414(2) -0.0151(2) -0.0055(2) 0.0338(3)
Cu1 0.0714(7) 0.0445(5) 0.0493(5) 0.0077(4) -0.0034(5) 0.0351(5)
N1 0.060(4) 0.039(3) 0.051(3) 0.008(3) -0.004(3) 0.028(3)
C1 0.057(5) 0.060(6) 0.126(9) 0.023(6) -0.016(6) 0.016(5)
C2 0.100(13) 0.074(7) 0.35(3) 0.099(14) 0.000 0.050(6)
C3 0.067(6) 0.043(4) 0.106(7) 0.033(4) 0.030(5) 0.034(4)

_geom_special_details            
;
All esds (except the esd in the dihedral angle between two l.s. planes)
are estimated using the full covariance matrix. The cell esds are taken
into account individually in the estimation of esds in distances, angles
and torsion angles; correlations between esds in cell parameters are only
used when they are defined by crystal symmetry. An approximate (isotropic)
treatment of cell esds is used for estimating esds involving l.s. planes.
;

loop_
_geom_bond_atom_site_label_1
_geom_bond_atom_site_label_2
_geom_bond_distance
_geom_bond_site_symmetry_2
_geom_bond_publ_flag
I1 Cu1 2.6939(12) 10_554 ?
I1 Cu1 2.7017(12) 7_664 ?
I1 Cu1 2.7192(12) . ?
Cu1 N1 2.066(6) . ?
Cu1 Cu1 2.6374(18) 4_665 ?
Cu1 Cu1 2.662(2) 7_664 ?
Cu1 I1 2.6939(12) 10_554 ?
Cu1 Cu1 2.6991(18) 10_554 ?
Cu1 I1 2.7017(12) 7_664 ?
N1 C3 1.451(9) . ?
N1 C1 1.467(11) . ?
C1 C2 1.393(12) . ?
C1 H1A 0.9700 . ?
C1 H1B 0.9700 . ?
C2 C1 1.393(12) 9 ?
C3 C3 1.490(14) 9 ?
C3 H4A 0.9700 . ?
C3 H4B 0.9700 . ?

loop_
_geom_angle_atom_site_label_1
_geom_angle_atom_site_label_2
_geom_angle_atom_site_label_3
_geom_angle
_geom_angle_site_symmetry_1
_geom_angle_site_symmetry_3
_geom_angle_publ_flag
Cu1 I1 Cu1 58.53(3) 10_554 7_664 ?
Cu1 I1 Cu1 59.82(3) 10_554 . ?
Cu1 I1 Cu1 58.81(4) 7_664 . ?
N1 Cu1 Cu1 145.27(17) . 4_665 ?
N1 Cu1 Cu1 143.66(18) . 7_664 ?
Cu1 Cu1 Cu1 61.24(4) 4_665 7_664 ?
N1 Cu1 I1 105.77(18) . 10_554 ?
Cu1 Cu1 I1 60.88(4) 4_665 10_554 ?
Cu1 Cu1 I1 110.49(2) 7_664 10_554 ?
N1 Cu1 Cu1 145.23(17) . 10_554 ?
Cu1 Cu1 Cu1 59.82(4) 4_665 10_554 ?
Cu1 Cu1 Cu1 58.94(4) 7_664 10_554 ?
I1 Cu1 Cu1 60.56(4) 10_554 10_554 ?
N1 Cu1 I1 105.61(17) . 7_664 ?
Cu1 Cu1 I1 60.59(4) 4_665 7_664 ?
Cu1 Cu1 I1 60.92(4) 7_664 7_664 ?
I1 Cu1 I1 114.58(4) 10_554 7_664 ?
Cu1 Cu1 I1 109.12(2) 10_554 7_664 ?
N1 Cu1 I1 104.28(17) . . ?
Cu1 Cu1 I1 110.45(2) 4_665 . ?
Cu1 Cu1 I1 60.26(4) 7_664 . ?
I1 Cu1 I1 111.30(3) 10_554 . ?
Cu1 Cu1 I1 59.63(4) 10_554 . ?
I1 Cu1 I1 114.19(4) 7_664 . ?
C3 N1 C1 114.2(7) . . ?
C3 N1 Cu1 112.8(5) . . ?
C1 N1 Cu1 110.6(5) . . ?
C2 C1 N1 124.4(10) . . ?
C2 C1 H1A 106.2 . . ?
N1 C1 H1A 106.2 . . ?
C2 C1 H1B 106.2 . . ?
N1 C1 H1B 106.2 . . ?
H1A C1 H1B 106.4 . . ?
C1 C2 C1 133.4(17) 9 . ?
N1 C3 C3 119.5(7) . 9 ?
N1 C3 H4A 107.5 . . ?
C3 C3 H4A 107.5 9 . ?
N1 C3 H4B 107.5 . . ?
C3 C3 H4B 107.5 9 . ?
H4A C3 H4B 107.0 . . ?

_diffrn_measured_fraction_theta_max 0.996
_diffrn_reflns_theta_full        27.43
_diffrn_measured_fraction_theta_full 0.996
_refine_diff_density_max         0.565
_refine_diff_density_min         -0.424
_refine_diff_density_rms         0.111
