
#######################################################################
#
#                 Cambridge Crystallographic Data Centre
#                                CCDC
#
#######################################################################
#
# If this CIF has been generated from an entry in the Cambridge
# Structural Database, then it will include bibliographic, chemical,
# crystal, experimental, refinement or atomic coordinate data resulting
# from the CCDC's data processing and validation procedures.
#
#######################################################################

data_CSD_CIF_LASCAC02
_audit_creation_date 1971-12-31
_audit_creation_method CSD-ConQuest-V1
_database_code_CSD LASCAC02
_database_code_depnum_ccdc_archive 'CCDC 1203696'
_chemical_formula_sum 'C6 H8 O6'
_chemical_formula_moiety
;
C6 H8 O6
;
_journal_coeditor_code "IUCr A06285"
_journal_coden_Cambridge 107
_journal_volume 24
_journal_year 1968
_journal_page_first 1431
_journal_name_full 'Acta Crystallogr.,Sect.B:Struct.Crystallogr.Cryst.Chem. '
loop_
_publ_author_name
"J.Hvoslef"
_chemical_name_systematic
;
0.42-Deutero-L-ascorbic acid
;
_chemical_name_common
;
Vitamin C; Ascoltin; Ascorbicap; DrugBank: DB00126; Teaching Subset: Drug 
Molecules, Essential Nutrients
;
_cell_volume    688.712
_exptl_crystal_density_diffrn 1.699
_exptl_special_details
;
Vitamin C is a cofactor in enzymatic reactions
The coordinates reported do not appear to be for the L-enantiomer as stated. 
This may be due to the use of a left-handed set of axes.C AND O COORD S. FROM 
X-RAY DATA A.C.(B) 24,23,1968. OH- H COORDS. FROM F(H) AND F(D) DATA 
COMBINATION. OTHER H COORDS. FROM F(D) DATA
;
_diffrn_ambient_temperature ?
_diffrn_radiation_probe 'neutron radiation'
_diffrn_special_details
;
The study was carried out at room temperature,in the range 283-303K

;
#These two values have been output from a single CSD field.
_refine_ls_R_factor_gt 0.117
_refine_ls_wR_factor_gt 0.117
loop_
_citation_database_id_CSD
_citation_special_details
COFKOA "is a stereoisomer of this entry"
_symmetry_cell_setting monoclinic
_symmetry_space_group_name_H-M 'P 21'
_symmetry_Int_Tables_number 4
loop_
_symmetry_equiv_pos_site_id
_symmetry_equiv_pos_as_xyz
1 x,y,z
2 -x,1/2+y,-z
_cell_length_a 17.299(8)
_cell_length_b 6.353(3)
_cell_length_c 6.411(3)
_cell_angle_alpha 90
_cell_angle_beta 102.18(13)
_cell_angle_gamma 90
_cell_formula_units_Z 4
loop_
_atom_type_symbol
_atom_type_radius_bond
C 0.68
H 0.20
O 0.68
loop_
_atom_site_label
_atom_site_type_symbol
_atom_site_fract_x
_atom_site_fract_y
_atom_site_fract_z
C1 C 0.02840 -0.05050 -0.10770
C2 C 0.00620 -0.05710 -0.33980
C3 C 0.07310 -0.05640 -0.41400
C4 C 0.14250 -0.04420 -0.23110
C5 C 0.20090 -0.22530 -0.21780
C6 C 0.27430 -0.19390 -0.04260
H1 H 0.25490 -0.14360 0.10720
H2 H -0.10810 -0.06150 -0.37390
H3 H 0.30890 -0.33390 -0.02140
H4 H 0.04670 -0.06000 -0.72530
H5 H 0.17150 0.09920 -0.21420
H6 H 0.11790 -0.49330 -0.28300
H7 H 0.22110 -0.23510 -0.37500
H8 H 0.36350 -0.01100 -0.00160
O1 O -0.01450 -0.05660 0.02040
O2 O -0.06940 -0.06740 -0.45470
O3 O 0.08840 -0.06340 -0.60810
O4 O 0.10800 -0.04100 -0.04520
O5 O 0.16690 -0.41890 -0.17190
O6 O 0.31730 -0.01760 -0.09960
C7 C -0.53140 0.44050 0.35150
C8 C -0.51040 0.44490 0.58250
C9 C -0.57720 0.45140 0.65560
C10 C -0.64650 0.46070 0.47170
C11 C -0.70810 0.28960 0.47050
C12 C -0.77150 0.28750 0.26620
H9 H -0.74160 0.28570 0.12820
H10 H -0.39880 0.51650 0.61000
H11 H -0.81120 0.15710 0.27760
H12 H -0.54500 0.45300 0.97340
H13 H -0.67380 0.61550 0.46130
H14 H -0.66680 0.04700 0.64070
H15 H -0.73770 0.32010 0.60280
H16 H -0.83230 0.50330 0.09420
O7 O -0.48910 0.43440 0.22280
O8 O -0.43510 0.43380 0.69970
O9 O -0.59230 0.45130 0.85000
O10 O -0.61140 0.44030 0.28670
O11 O -0.67310 0.08410 0.49660
O12 O -0.81450 0.48070 0.25610
#END
