####################################################################### 
# 
# This file contains crystal structure data downloaded from the 
# Cambridge Structural Database (CSD) hosted by the Cambridge 
# Crystallographic Data Centre (CCDC).
# 
# Full information about CCDC data access policies and citation 
# guidelines are available at http://www.ccdc.cam.ac.uk/access/V1 
# 
# Audit and citation data items may have been added by the CCDC. 
# Please retain this information to preserve the provenance of 
# this file and to allow appropriate attribution of the data. 
# 
#######################################################################

data_wue2175
_audit_block_doi                 10.5517/cc8jrzh
_database_code_depnum_ccdc_archive 'CCDC 254447'
loop_
_citation_id
_citation_doi
_citation_year
1 10.1002/ejic.200401010 2005
_audit_update_record             
;
2004-11-02 deposited with the CCDC.	2024-07-11 downloaded from the CCDC.
;

_audit_creation_method           SHELXL-97
_chemical_name_systematic        
;
?
;
_chemical_name_common            ?
_chemical_melting_point          ?
_chemical_formula_moiety         ?
_chemical_formula_sum            'C22 H23 N5 Ni O7'
_chemical_formula_weight         528.16

loop_
_atom_type_symbol
_atom_type_description
_atom_type_scat_dispersion_real
_atom_type_scat_dispersion_imag
_atom_type_scat_source
C C 0.0033 0.0016 'International Tables Vol C Tables 4.2.6.8 and 6.1.1.4'
H H 0.0000 0.0000 'International Tables Vol C Tables 4.2.6.8 and 6.1.1.4'
N N 0.0061 0.0033 'International Tables Vol C Tables 4.2.6.8 and 6.1.1.4'
O O 0.0106 0.0060 'International Tables Vol C Tables 4.2.6.8 and 6.1.1.4'
Ni Ni 0.3393 1.1124 'International Tables Vol C Tables 4.2.6.8 and 6.1.1.4'

_symmetry_cell_setting           monoclinic
_symmetry_space_group_name_H-M   P21/c

loop_
_symmetry_equiv_pos_as_xyz
'x, y, z'
'-x, y+1/2, -z+1/2'
'-x, -y, -z'
'x, -y-1/2, z-1/2'

_cell_length_a                   11.961(1)
_cell_length_b                   9.829(1)
_cell_length_c                   22.025(1)
_cell_angle_alpha                90.00
_cell_angle_beta                 100.63(1)
_cell_angle_gamma                90.00
_cell_volume                     2544.9(4)
_cell_formula_units_Z            4
_cell_measurement_temperature    198(2)
_cell_measurement_reflns_used    ?
_cell_measurement_theta_min      ?
_cell_measurement_theta_max      ?

_exptl_crystal_description       needle
_exptl_crystal_colour            'light green'
_exptl_crystal_size_max          0.50
_exptl_crystal_size_mid          0.10
_exptl_crystal_size_min          0.05
_exptl_crystal_density_meas      ?
_exptl_crystal_density_diffrn    1.378
_exptl_crystal_density_method    'not measured'
_exptl_crystal_F_000             1096
_exptl_absorpt_coefficient_mu    0.811
_exptl_absorpt_correction_type   empirical
_exptl_absorpt_correction_T_min  0.6871
_exptl_absorpt_correction_T_max  0.9606
_exptl_absorpt_process_details   'SORTAV (Blessing, 1995 & 1997)'

_exptl_special_details           
;
?
;

_diffrn_ambient_temperature      198(2)
_diffrn_radiation_wavelength     0.71073
_diffrn_radiation_type           MoK\a
_diffrn_radiation_source         'rotating anode Nonius FR591'
_diffrn_radiation_monochromator  graphite
_diffrn_measurement_device_type  'Nonius KappaCCD'
_diffrn_measurement_method       '\w and \f scans'
_diffrn_detector_area_resol_mean ?
_diffrn_standards_number         ?
_diffrn_standards_interval_count ?
_diffrn_standards_interval_time  ?
_diffrn_standards_decay_%        ?
_diffrn_reflns_number            22808
_diffrn_reflns_av_R_equivalents  0.037
_diffrn_reflns_av_sigmaI/netI    0.0347
_diffrn_reflns_limit_h_min       -15
_diffrn_reflns_limit_h_max       15
_diffrn_reflns_limit_k_min       -13
_diffrn_reflns_limit_k_max       13
_diffrn_reflns_limit_l_min       -29
_diffrn_reflns_limit_l_max       28
_diffrn_reflns_theta_min         2.28
_diffrn_reflns_theta_max         28.70
_reflns_number_total             6386
_reflns_number_gt                5315
_reflns_threshold_expression     >2sigma(I)

_computing_data_collection       'Collect (Nonius B.V., 1998)'
_computing_cell_refinement       'Collect (Nonius B.V., 1998)'
_computing_data_reduction        'Denzo-SMN (Otwinowski & Minor, 1997)'
_computing_structure_solution    'SHELXS-97 (Sheldrick, 1990)'
_computing_structure_refinement  'SHELXL-97 (Sheldrick, 1997)'
_computing_molecular_graphics    'SCHAKAL (Keller, 1997)'
_computing_publication_material  'SHELXL-97 (Sheldrick, 1997)'

_refine_special_details          
;
Refinement of F^2^ against ALL reflections.  The weighted R-factor wR and
goodness of fit S are based on F^2^, conventional R-factors R are based
on F, with F set to zero for negative F^2^. The threshold expression of
F^2^ > 2sigma(F^2^) is used only for calculating R-factors(gt) etc. and is
not relevant to the choice of reflections for refinement.  R-factors based
on F^2^ are statistically about twice as large as those based on F, and R-
factors based on ALL data will be even larger.

Cocktail of sovents refined as disordered EtOH, only with isotropic
thermal displacement parameters.
;

_refine_ls_structure_factor_coef Fsqd
_refine_ls_matrix_type           full
_refine_ls_weighting_scheme      calc
_refine_ls_weighting_details     
'calc w=1/[\s^2^(Fo^2^)+(0.1094P)^2^+3.5186P] where P=(Fo^2^+2Fc^2^)/3'
_atom_sites_solution_primary     direct
_atom_sites_solution_secondary   difmap
_atom_sites_solution_hydrogens   'at N1 and N3 from difmap, other geom'
_refine_ls_hydrogen_treatment    riding
_refine_ls_extinction_method     none
_refine_ls_extinction_coef       ?
_refine_ls_number_reflns         6386
_refine_ls_number_parameters     311
_refine_ls_number_restraints     2
_refine_ls_R_factor_all          0.0715
_refine_ls_R_factor_gt           0.0582
_refine_ls_wR_factor_ref         0.1912
_refine_ls_wR_factor_gt          0.1786
_refine_ls_goodness_of_fit_ref   1.080
_refine_ls_restrained_S_all      1.080
_refine_ls_shift/su_max          0.000
_refine_ls_shift/su_mean         0.000

loop_
_atom_site_label
_atom_site_type_symbol
_atom_site_fract_x
_atom_site_fract_y
_atom_site_fract_z
_atom_site_U_iso_or_equiv
_atom_site_adp_type
_atom_site_occupancy
_atom_site_symmetry_multiplicity
_atom_site_calc_flag
_atom_site_refinement_flags
_atom_site_disorder_assembly
_atom_site_disorder_group
Ni Ni 0.02879(3) 0.39419(4) 0.224981(17) 0.02447(14) Uani 1 1 d . . .
N11 N -0.1162(2) 0.3420(3) 0.13025(13) 0.0367(6) Uani 1 1 d . . .
O12 O -0.1866(3) 0.3155(4) 0.08425(13) 0.0592(8) Uani 1 1 d . . .
O13 O -0.0288(2) 0.4147(2) 0.12862(11) 0.0344(5) Uani 1 1 d . . .
O14 O -0.1259(2) 0.2984(2) 0.18386(11) 0.0371(5) Uani 1 1 d . . .
N21 N -0.1116(2) 0.6045(2) 0.27121(13) 0.0297(5) Uani 1 1 d . . .
O22 O -0.1687(2) 0.5111(2) 0.28667(15) 0.0482(7) Uani 1 1 d . . .
O23 O -0.1192(2) 0.7220(2) 0.29376(11) 0.0340(5) Uani 1 1 d . . .
O24 O -0.0447(2) 0.5869(2) 0.23373(11) 0.0332(5) Uani 1 1 d . . .
N1 N 0.0399(2) 0.3609(3) 0.31407(12) 0.0292(5) Uani 1 1 d . . .
H1 H -0.027(3) 0.330(4) 0.3332(18) 0.035 Uiso 1 1 d . . .
C2 C 0.1212(3) 0.3912(3) 0.35845(15) 0.0293(6) Uani 1 1 d . . .
C21 C 0.1156(3) 0.3661(3) 0.42411(14) 0.0316(6) Uani 1 1 d . . .
C22 C 0.1568(4) 0.4622(4) 0.46932(17) 0.0448(8) Uani 1 1 d . . .
H22 H 0.1937 0.5421 0.4588 0.054 Uiso 1 1 calc R . .
C23 C 0.1437(4) 0.4405(5) 0.52952(18) 0.0563(11) Uani 1 1 d . . .
H23 H 0.1698 0.5070 0.5602 0.068 Uiso 1 1 calc R . .
C24 C 0.0931(4) 0.3232(4) 0.54559(17) 0.0504(10) Uani 1 1 d . . .
H24 H 0.0861 0.3084 0.5873 0.060 Uiso 1 1 calc R . .
C25 C 0.0528(4) 0.2278(4) 0.50147(17) 0.0463(9) Uani 1 1 d . . .
H25 H 0.0171 0.1477 0.5127 0.056 Uiso 1 1 calc R . .
C26 C 0.0638(3) 0.2479(3) 0.44054(16) 0.0381(7) Uani 1 1 d . . .
H26 H 0.0363 0.1814 0.4101 0.046 Uiso 1 1 calc R . .
N3 N 0.2210(2) 0.4494(3) 0.34769(13) 0.0353(6) Uani 1 1 d . . .
H3 H 0.283(4) 0.435(4) 0.377(2) 0.042 Uiso 1 1 d . . .
C4 C 0.2492(2) 0.4980(3) 0.29359(15) 0.0295(6) Uani 1 1 d . . .
C41 C 0.3684(3) 0.5518(4) 0.30309(16) 0.0342(7) Uani 1 1 d . . .
C42 C 0.4019(3) 0.6615(4) 0.3414(2) 0.0464(9) Uani 1 1 d . . .
H42 H 0.3494 0.7060 0.3622 0.056 Uiso 1 1 calc R . .
C43 C 0.5149(4) 0.7059(5) 0.3489(2) 0.0607(12) Uani 1 1 d . . .
H43 H 0.5382 0.7831 0.3740 0.073 Uiso 1 1 calc R . .
C44 C 0.5917(3) 0.6407(5) 0.3210(3) 0.0601(12) Uani 1 1 d . . .
H44 H 0.6684 0.6709 0.3276 0.072 Uiso 1 1 calc R . .
C45 C 0.5584(3) 0.5305(5) 0.2831(2) 0.0593(12) Uani 1 1 d . . .
H45 H 0.6122 0.4850 0.2636 0.071 Uiso 1 1 calc R . .
C46 C 0.4464(3) 0.4863(4) 0.2734(2) 0.0477(9) Uani 1 1 d . . .
H46 H 0.4231 0.4116 0.2467 0.057 Uiso 1 1 calc R . .
N5 N 0.1817(2) 0.4917(2) 0.24100(12) 0.0271(5) Uani 1 1 d . . .
C51 C 0.2131(2) 0.5579(3) 0.18850(14) 0.0284(6) Uani 1 1 d . . .
C52 C 0.2318(3) 0.6979(3) 0.18899(16) 0.0346(7) Uani 1 1 d . . .
H52 H 0.2275 0.7499 0.2249 0.041 Uiso 1 1 calc R . .
C53 C 0.2568(4) 0.7610(4) 0.13651(19) 0.0469(9) Uani 1 1 d . . .
H53 H 0.2713 0.8561 0.1368 0.056 Uiso 1 1 calc R . .
C54 C 0.2605(4) 0.6858(5) 0.08402(19) 0.0541(10) Uani 1 1 d . . .
H54 H 0.2757 0.7296 0.0479 0.065 Uiso 1 1 calc R . .
C55 C 0.2422(4) 0.5467(4) 0.08378(18) 0.0501(9) Uani 1 1 d . . .
H55 H 0.2459 0.4950 0.0478 0.060 Uiso 1 1 calc R . .
C56 C 0.2185(3) 0.4829(4) 0.13605(16) 0.0377(7) Uani 1 1 d . . .
H56 H 0.2059 0.3874 0.1358 0.045 Uiso 1 1 calc R . .
O61A O 0.4019(6) 0.2893(8) 0.4268(3) 0.147(2) Uiso 0.55 1 d PD A 1
H61A H 0.4528 0.3491 0.4295 0.221 Uiso 0.55 1 d PR A 1
C62A C 0.4232(15) 0.1817(17) 0.3805(9) 0.141(6) Uiso 0.55 1 d PD A 1
H62A H 0.4381 0.2269 0.3427 0.169 Uiso 0.55 1 calc PR A 1
H62B H 0.4915 0.1282 0.3984 0.169 Uiso 0.55 1 calc PR A 1
C63A C 0.3325(15) 0.0964(14) 0.3655(8) 0.207(6) Uiso 0.55 1 d PD A 1
H63A H 0.2895 0.0946 0.3993 0.310 Uiso 0.55 1 calc PR A 1
H63B H 0.3596 0.0046 0.3588 0.310 Uiso 0.55 1 calc PR A 1
H63C H 0.2832 0.1288 0.3277 0.310 Uiso 0.55 1 calc PR A 1
O61B O 0.4019(6) 0.2893(8) 0.4268(3) 0.147(2) Uiso 0.45 1 d PD B 2
H61B H 0.4651 0.3070 0.4490 0.221 Uiso 0.45 1 d PR B 2
C62B C 0.383(2) 0.1365(15) 0.4246(8) 0.126(7) Uiso 0.45 1 d PD B 2
H62C H 0.4572 0.0895 0.4367 0.151 Uiso 0.45 1 calc PR B 2
H62D H 0.3342 0.1106 0.4543 0.151 Uiso 0.45 1 calc PR B 2
C63B C 0.3325(15) 0.0964(14) 0.3655(8) 0.207(6) Uiso 0.45 1 d PD B 2
H63D H 0.3020 0.1764 0.3415 0.310 Uiso 0.45 1 calc PR B 2
H63E H 0.2705 0.0327 0.3681 0.310 Uiso 0.45 1 calc PR B 2
H63F H 0.3891 0.0518 0.3453 0.310 Uiso 0.45 1 calc PR B 2

loop_
_atom_site_aniso_label
_atom_site_aniso_U_11
_atom_site_aniso_U_22
_atom_site_aniso_U_33
_atom_site_aniso_U_23
_atom_site_aniso_U_13
_atom_site_aniso_U_12
Ni 0.0255(2) 0.0242(2) 0.0245(2) -0.00037(13) 0.00669(14) -0.00128(13)
N11 0.0381(15) 0.0410(15) 0.0303(14) -0.0045(11) 0.0049(11) -0.0020(12)
O12 0.0527(17) 0.085(2) 0.0345(14) -0.0084(14) -0.0073(12) -0.0108(15)
O13 0.0373(12) 0.0374(12) 0.0299(11) 0.0017(9) 0.0095(9) -0.0007(9)
O14 0.0366(12) 0.0431(13) 0.0318(12) -0.0005(10) 0.0068(9) -0.0084(10)
N21 0.0275(12) 0.0249(12) 0.0384(15) -0.0006(10) 0.0105(11) -0.0004(9)
O22 0.0396(13) 0.0296(12) 0.083(2) -0.0009(12) 0.0321(13) -0.0055(10)
O23 0.0412(12) 0.0239(10) 0.0417(13) -0.0048(9) 0.0199(10) -0.0035(9)
O24 0.0383(12) 0.0277(10) 0.0381(12) -0.0005(9) 0.0188(10) 0.0036(9)
N1 0.0299(13) 0.0303(12) 0.0289(13) -0.0006(10) 0.0094(10) -0.0046(10)
C2 0.0300(14) 0.0287(14) 0.0296(15) 0.0026(11) 0.0065(12) -0.0018(11)
C21 0.0339(15) 0.0354(15) 0.0263(15) 0.0006(12) 0.0074(12) -0.0030(12)
C22 0.057(2) 0.0430(19) 0.0333(18) -0.0014(15) 0.0051(16) -0.0136(16)
C23 0.077(3) 0.060(2) 0.0304(19) -0.0073(17) 0.0056(19) -0.013(2)
C24 0.065(3) 0.062(2) 0.0261(17) 0.0071(16) 0.0139(16) 0.003(2)
C25 0.059(2) 0.046(2) 0.0370(19) 0.0099(16) 0.0165(17) -0.0043(17)
C26 0.0463(19) 0.0356(17) 0.0341(17) 0.0011(13) 0.0121(14) -0.0066(14)
N3 0.0274(13) 0.0479(16) 0.0298(14) 0.0074(12) 0.0031(10) -0.0058(11)
C4 0.0253(13) 0.0313(15) 0.0332(15) 0.0036(12) 0.0086(11) -0.0022(11)
C41 0.0231(14) 0.0402(17) 0.0391(17) 0.0085(14) 0.0051(12) -0.0033(12)
C42 0.0307(17) 0.053(2) 0.055(2) -0.0030(18) 0.0055(15) -0.0066(15)
C43 0.038(2) 0.060(3) 0.082(3) -0.006(2) 0.003(2) -0.0163(18)
C44 0.0257(17) 0.066(3) 0.088(3) 0.015(2) 0.0065(19) -0.0070(17)
C45 0.0292(18) 0.067(3) 0.085(3) 0.010(2) 0.0193(19) 0.0039(18)
C46 0.0333(17) 0.053(2) 0.059(2) 0.0028(18) 0.0139(16) 0.0023(15)
N5 0.0265(12) 0.0259(12) 0.0303(13) 0.0010(9) 0.0091(10) -0.0004(9)
C51 0.0244(13) 0.0316(14) 0.0308(15) 0.0029(12) 0.0092(11) -0.0003(11)
C52 0.0388(17) 0.0317(15) 0.0340(16) 0.0042(12) 0.0085(13) 0.0023(13)
C53 0.058(2) 0.0360(18) 0.047(2) 0.0118(15) 0.0117(17) -0.0031(16)
C54 0.071(3) 0.057(2) 0.039(2) 0.0141(18) 0.0223(19) -0.007(2)
C55 0.064(3) 0.057(2) 0.0345(19) -0.0052(17) 0.0234(18) -0.0073(19)
C56 0.0436(18) 0.0358(16) 0.0376(18) -0.0005(13) 0.0174(14) -0.0038(14)

_geom_special_details            
;
All esds (except the esd in the dihedral angle between two l.s. planes)
are estimated using the full covariance matrix.  The cell esds are taken
into account individually in the estimation of esds in distances, angles
and torsion angles; correlations between esds in cell parameters are only
used when they are defined by crystal symmetry.  An approximate (isotropic)
treatment of cell esds is used for estimating esds involving l.s. planes.
;

loop_
_geom_bond_atom_site_label_1
_geom_bond_atom_site_label_2
_geom_bond_distance
_geom_bond_site_symmetry_2
_geom_bond_publ_flag
Ni N1 1.969(3) . ?
Ni N5 2.037(2) . ?
Ni O23 2.090(2) 2_545 ?
Ni O24 2.112(2) . ?
Ni O13 2.117(2) . ?
Ni O14 2.124(2) . ?
N11 O12 1.220(4) . ?
N11 O13 1.273(4) . ?
N11 O14 1.282(4) . ?
N21 O22 1.230(3) . ?
N21 O24 1.263(3) . ?
N21 O23 1.267(3) . ?
O23 Ni 2.090(2) 2 ?
N1 C2 1.280(4) . ?
C2 N3 1.382(4) . ?
C2 C21 1.481(4) . ?
C21 C22 1.395(5) . ?
C21 C26 1.396(4) . ?
C22 C23 1.380(5) . ?
C23 C24 1.378(6) . ?
C24 C25 1.373(6) . ?
C25 C26 1.387(5) . ?
N3 C4 1.382(4) . ?
C4 N5 1.286(4) . ?
C4 C41 1.499(4) . ?
C41 C42 1.382(5) . ?
C41 C46 1.392(5) . ?
C42 C43 1.401(5) . ?
C43 C44 1.355(7) . ?
C44 C45 1.381(7) . ?
C45 C46 1.387(5) . ?
N5 C51 1.436(4) . ?
C51 C56 1.382(5) . ?
C51 C52 1.395(4) . ?
C52 C53 1.392(5) . ?
C53 C54 1.380(6) . ?
C54 C55 1.384(6) . ?
C55 C56 1.386(5) . ?
O61A C62A 1.522(13) . ?
C62A C63A 1.362(17) . ?

loop_
_geom_angle_atom_site_label_1
_geom_angle_atom_site_label_2
_geom_angle_atom_site_label_3
_geom_angle
_geom_angle_site_symmetry_1
_geom_angle_site_symmetry_3
_geom_angle_publ_flag
N1 Ni N5 90.69(11) . . ?
N1 Ni O23 96.89(10) . 2_545 ?
N5 Ni O23 86.26(10) . 2_545 ?
N1 Ni O24 90.62(10) . . ?
N5 Ni O24 86.42(9) . . ?
O23 Ni O24 169.57(8) 2_545 . ?
N1 Ni O13 164.70(10) . . ?
N5 Ni O13 104.15(10) . . ?
O23 Ni O13 87.92(9) 2_545 . ?
O24 Ni O13 86.67(9) . . ?
N1 Ni O14 104.16(10) . . ?
N5 Ni O14 165.02(10) . . ?
O23 Ni O14 89.92(10) 2_545 . ?
O24 Ni O14 95.28(10) . . ?
O13 Ni O14 61.19(9) . . ?
O12 N11 O13 122.8(3) . . ?
O12 N11 O14 121.9(3) . . ?
O13 N11 O14 115.4(3) . . ?
N11 O13 Ni 92.02(18) . . ?
N11 O14 Ni 91.41(18) . . ?
O22 N21 O24 122.0(3) . . ?
O22 N21 O23 119.3(3) . . ?
O24 N21 O23 118.7(2) . . ?
N21 O23 Ni 125.71(18) . 2 ?
N21 O24 Ni 120.46(18) . . ?
C2 N1 Ni 128.6(2) . . ?
N1 C2 N3 121.5(3) . . ?
N1 C2 C21 122.9(3) . . ?
N3 C2 C21 115.6(3) . . ?
C22 C21 C26 119.6(3) . . ?
C22 C21 C2 120.7(3) . . ?
C26 C21 C2 119.6(3) . . ?
C23 C22 C21 119.6(4) . . ?
C24 C23 C22 120.6(4) . . ?
C25 C24 C23 120.2(3) . . ?
C24 C25 C26 120.3(3) . . ?
C25 C26 C21 119.7(3) . . ?
C4 N3 C2 130.3(3) . . ?
N5 C4 N3 123.2(3) . . ?
N5 C4 C41 124.5(3) . . ?
N3 C4 C41 112.3(3) . . ?
C42 C41 C46 120.2(3) . . ?
C42 C41 C4 121.5(3) . . ?
C46 C41 C4 118.3(3) . . ?
C41 C42 C43 118.7(4) . . ?
C44 C43 C42 121.3(4) . . ?
C43 C44 C45 120.0(4) . . ?
C44 C45 C46 120.1(4) . . ?
C45 C46 C41 119.6(4) . . ?
C4 N5 C51 119.3(2) . . ?
C4 N5 Ni 125.0(2) . . ?
C51 N5 Ni 115.70(19) . . ?
C56 C51 C52 120.1(3) . . ?
C56 C51 N5 119.4(3) . . ?
C52 C51 N5 120.4(3) . . ?
C53 C52 C51 119.5(3) . . ?
C54 C53 C52 120.1(3) . . ?
C53 C54 C55 120.2(3) . . ?
C54 C55 C56 120.0(4) . . ?
C51 C56 C55 120.1(3) . . ?
C63A C62A O61A 111.5(12) . . ?

loop_
_geom_torsion_atom_site_label_1
_geom_torsion_atom_site_label_2
_geom_torsion_atom_site_label_3
_geom_torsion_atom_site_label_4
_geom_torsion
_geom_torsion_site_symmetry_1
_geom_torsion_site_symmetry_2
_geom_torsion_site_symmetry_3
_geom_torsion_site_symmetry_4
_geom_torsion_publ_flag
O12 N11 O13 Ni -179.5(3) . . . . ?
O14 N11 O13 Ni 0.8(3) . . . . ?
N1 Ni O13 N11 -18.2(5) . . . . ?
N5 Ni O13 N11 176.16(18) . . . . ?
O23 Ni O13 N11 90.55(19) 2_545 . . . ?
O24 Ni O13 N11 -98.38(19) . . . . ?
O14 Ni O13 N11 -0.50(17) . . . . ?
O12 N11 O14 Ni 179.5(3) . . . . ?
O13 N11 O14 Ni -0.8(3) . . . . ?
N1 Ni O14 N11 175.73(18) . . . . ?
N5 Ni O14 N11 -12.1(5) . . . . ?
O23 Ni O14 N11 -87.18(19) 2_545 . . . ?
O24 Ni O14 N11 83.75(19) . . . . ?
O13 Ni O14 N11 0.49(17) . . . . ?
O22 N21 O23 Ni 179.1(2) . . . 2 ?
O24 N21 O23 Ni -0.4(4) . . . 2 ?
O22 N21 O24 Ni -26.9(4) . . . . ?
O23 N21 O24 Ni 152.5(2) . . . . ?
N1 Ni O24 N21 -35.8(2) . . . . ?
N5 Ni O24 N21 -126.4(2) . . . . ?
O23 Ni O24 N21 -171.9(5) 2_545 . . . ?
O13 Ni O24 N21 129.2(2) . . . . ?
O14 Ni O24 N21 68.5(2) . . . . ?
N5 Ni N1 C2 -2.5(3) . . . . ?
O23 Ni N1 C2 83.8(3) 2_545 . . . ?
O24 Ni N1 C2 -88.9(3) . . . . ?
O13 Ni N1 C2 -168.5(3) . . . . ?
O14 Ni N1 C2 175.5(3) . . . . ?
Ni N1 C2 N3 -3.5(5) . . . . ?
Ni N1 C2 C21 176.8(2) . . . . ?
N1 C2 C21 C22 -138.9(4) . . . . ?
N3 C2 C21 C22 41.4(5) . . . . ?
N1 C2 C21 C26 38.2(5) . . . . ?
N3 C2 C21 C26 -141.5(3) . . . . ?
