####################################################################### 
# 
# This file contains crystal structure data downloaded from the 
# Cambridge Structural Database (CSD) hosted by the Cambridge 
# Crystallographic Data Centre (CCDC).
# 
# Full information about CCDC data access policies and citation 
# guidelines are available at http://www.ccdc.cam.ac.uk/access/V1 
# 
# Audit and citation data items may have been added by the CCDC. 
# Please retain this information to preserve the provenance of 
# this file and to allow appropriate attribution of the data. 
# 
#######################################################################

data_rh1127am
_audit_block_doi                 10.5517/cc8xwfg
_database_code_depnum_ccdc_archive 'CCDC 266086'
loop_
_citation_id
_citation_doi
_citation_year
1 10.1016/j.jssc.2005.05.038 2005
_audit_update_record             
;
2005-03-12 deposited with the CCDC.	2024-07-11 downloaded from the CCDC.
;

_audit_creation_method           SHELXL-97
_chemical_name_systematic        
;
?
;
_chemical_name_common            ?
_chemical_melting_point          ?
_chemical_formula_moiety         'C2 H2 F N3 Zn, O2.09'
_chemical_formula_sum            'C2 H2 F N3 O2.09 Zn'
_chemical_formula_weight         185.81

loop_
_atom_type_symbol
_atom_type_description
_atom_type_scat_dispersion_real
_atom_type_scat_dispersion_imag
_atom_type_scat_source
C C 0.0033 0.0016 'International Tables Vol C Tables 4.2.6.8 and 6.1.1.4'
H H 0.0000 0.0000 'International Tables Vol C Tables 4.2.6.8 and 6.1.1.4'
N N 0.0061 0.0033 'International Tables Vol C Tables 4.2.6.8 and 6.1.1.4'
O O 0.0106 0.0060 'International Tables Vol C Tables 4.2.6.8 and 6.1.1.4'
F F 0.0171 0.0103 'International Tables Vol C Tables 4.2.6.8 and 6.1.1.4'
Zn Zn 0.2839 1.4301 'International Tables Vol C Tables 4.2.6.8 and 6.1.1.4'

_symmetry_cell_setting           Trigonal
_symmetry_space_group_name_H-M   'R -3 c'
_symmetry_space_group_name_Hall  '-R 3 2"c'

loop_
_symmetry_equiv_pos_as_xyz
'x, y, z'
'-y, x-y, z'
'-x+y, -x, z'
'y, x, -z+1/2'
'x-y, -y, -z+1/2'
'-x, -x+y, -z+1/2'
'x+2/3, y+1/3, z+1/3'
'-y+2/3, x-y+1/3, z+1/3'
'-x+y+2/3, -x+1/3, z+1/3'
'y+2/3, x+1/3, -z+5/6'
'x-y+2/3, -y+1/3, -z+5/6'
'-x+2/3, -x+y+1/3, -z+5/6'
'x+1/3, y+2/3, z+2/3'
'-y+1/3, x-y+2/3, z+2/3'
'-x+y+1/3, -x+2/3, z+2/3'
'y+1/3, x+2/3, -z+7/6'
'x-y+1/3, -y+2/3, -z+7/6'
'-x+1/3, -x+y+2/3, -z+7/6'
'-x, -y, -z'
'y, -x+y, -z'
'x-y, x, -z'
'-y, -x, z-1/2'
'-x+y, y, z-1/2'
'x, x-y, z-1/2'
'-x+2/3, -y+1/3, -z+1/3'
'y+2/3, -x+y+1/3, -z+1/3'
'x-y+2/3, x+1/3, -z+1/3'
'-y+2/3, -x+1/3, z-1/6'
'-x+y+2/3, y+1/3, z-1/6'
'x+2/3, x-y+1/3, z-1/6'
'-x+1/3, -y+2/3, -z+2/3'
'y+1/3, -x+y+2/3, -z+2/3'
'x-y+1/3, x+2/3, -z+2/3'
'-y+1/3, -x+2/3, z+1/6'
'-x+y+1/3, y+2/3, z+1/6'
'x+1/3, x-y+2/3, z+1/6'

_cell_length_a                   18.6011(7)
_cell_length_b                   18.6011(7)
_cell_length_c                   9.9000(8)
_cell_angle_alpha                90.00
_cell_angle_beta                 90.00
_cell_angle_gamma                120.00
_cell_volume                     2966.5(3)
_cell_formula_units_Z            18
_cell_measurement_temperature    294(2)
_cell_measurement_reflns_used    4128
_cell_measurement_theta_min      2.190
_cell_measurement_theta_max      28.191

_exptl_crystal_description       rod
_exptl_crystal_colour            colorless
_exptl_crystal_size_max          0.14
_exptl_crystal_size_mid          0.08
_exptl_crystal_size_min          0.05
_exptl_crystal_density_meas      0
_exptl_crystal_density_diffrn    1.872
_exptl_crystal_density_method    'not measured'
_exptl_crystal_F_000             1632
_exptl_absorpt_coefficient_mu    3.678
_exptl_absorpt_correction_type   none
_exptl_absorpt_correction_T_min  ?
_exptl_absorpt_correction_T_max  ?
_exptl_absorpt_process_details   ?

_exptl_special_details           
;
?
;

_diffrn_ambient_temperature      294(1)
_diffrn_radiation_wavelength     0.71073
_diffrn_radiation_type           MoK\a
_diffrn_radiation_source         'fine-focus sealed tube'
_diffrn_radiation_monochromator  graphite
_diffrn_measurement_device_type  'Bruker SMART APEX CCD diffractometer'
_diffrn_measurement_method       'omega scans'
_diffrn_detector_area_resol_mean ?
_diffrn_standards_number         ?
_diffrn_standards_interval_count ?
_diffrn_standards_interval_time  ?
_diffrn_standards_decay_%        none
_diffrn_reflns_number            12303
_diffrn_reflns_av_R_equivalents  0.0679
_diffrn_reflns_av_sigmaI/netI    0.0265
_diffrn_reflns_limit_h_min       -24
_diffrn_reflns_limit_h_max       24
_diffrn_reflns_limit_k_min       -24
_diffrn_reflns_limit_k_max       24
_diffrn_reflns_limit_l_min       -13
_diffrn_reflns_limit_l_max       13
_diffrn_reflns_theta_min         2.19
_diffrn_reflns_theta_max         28.26
_reflns_number_total             822
_reflns_number_gt                713
_reflns_threshold_expression     >2sigma(I)

_computing_data_collection       'SMART NT V5.625 (Bruker, 1998)'
_computing_cell_refinement       'SAINT+ NT V6.22 (Bruker, 2001)'
_computing_data_reduction        'SAINT+ NT V6.22'
_computing_structure_solution    'SHELXS-97 (Sheldrick, 1990)'
_computing_structure_refinement  'SHELXL-97 (Sheldrick, 1997)'
_computing_molecular_graphics    'SHELXTL V6.1 (Sheldrick, 2000)'
_computing_publication_material  'SHELXTL V6.1'

_refine_special_details          
;
Channels in the structure parallel to the [001] direction filled with
featureless electron density, assumed to be solvent water molecules.

These intrachannel electron density peaks were therefore assigned as
oxygen atoms and given a fixed isotropic thermal parameter of 0.10
Ang^2^. Occupancies were then refined until a flat difference map was
achieved. Hydrogens were not located or calculated for these species.

Note: The channel water occupancies and the chosen thermal parameter are
strongly correlated. The reported water content is therefore
approximate.



Refinement of F^2^ against ALL reflections. The weighted R-factor wR and
goodness of fit S are based on F^2^, conventional R-factors R are based
on F, with F set to zero for negative F^2^. The threshold expression of
F^2^ > 2sigma(F^2^) is used only for calculating R-factors(gt) etc. and
is not relevant to the choice of reflections for refinement. R-factors
based on F^2^ are statistically about twice as large as those based on
F, and R- factors based on ALL data will be even larger.
;

_refine_ls_structure_factor_coef Fsqd
_refine_ls_matrix_type           full
_refine_ls_weighting_scheme      calc
_refine_ls_weighting_details     
'calc w=1/[\s^2^(Fo^2^)+(0.0432P)^2^+0.0000P] where P=(Fo^2^+2Fc^2^)/3'
_atom_sites_solution_primary     direct
_atom_sites_solution_secondary   difmap
_atom_sites_solution_hydrogens   geom
_refine_ls_hydrogen_treatment    refU
_refine_ls_extinction_method     none
_refine_ls_extinction_coef       ?
_refine_ls_number_reflns         822
_refine_ls_number_parameters     59
_refine_ls_number_restraints     0
_refine_ls_R_factor_all          0.0332
_refine_ls_R_factor_gt           0.0270
_refine_ls_wR_factor_ref         0.0738
_refine_ls_wR_factor_gt          0.0716
_refine_ls_goodness_of_fit_ref   1.097
_refine_ls_restrained_S_all      1.097
_refine_ls_shift/su_max          0.000
_refine_ls_shift/su_mean         0.000

loop_
_atom_site_label
_atom_site_type_symbol
_atom_site_fract_x
_atom_site_fract_y
_atom_site_fract_z
_atom_site_U_iso_or_equiv
_atom_site_adp_type
_atom_site_occupancy
_atom_site_symmetry_multiplicity
_atom_site_calc_flag
_atom_site_refinement_flags
_atom_site_disorder_assembly
_atom_site_disorder_group
Zn1 Zn 0.37485(2) 0.37485(2) 0.2500 0.02090(16) Uani 1 2 d S . .
F1 F 0.40943(11) 0.3333 0.0833 0.0288(5) Uani 1 2 d S . .
C1 C 0.36806(16) 0.21208(15) 0.3272(2) 0.0270(5) Uani 1 1 d . . .
H1 H 0.3974 0.2116 0.2514 0.050(10) Uiso 1 1 calc R . .
N1 N 0.35624(13) 0.27398(12) 0.3581(2) 0.0246(4) Uani 1 1 d . . .
N2 N 0.3333 0.14933(14) 0.4167 0.0258(6) Uani 1 2 d S . .
O1 O 0.550(2) 0.348(2) 0.452(4) 0.100 Uiso 0.104(7) 1 d P . .
O2 O 0.5932(9) 0.3349(10) 0.3716(14) 0.100 Uiso 0.268(7) 1 d P . .
O3 O 0.580(3) 0.400(4) 0.096(6) 0.100 Uiso 0.13(3) 1 d P . .
O4 O 0.6667 0.490(2) 0.0833 0.100 Uiso 0.142(9) 2 d SP . .
O5 O 0.5468(19) 0.3333 0.0833 0.100 Uiso 0.28(6) 2 d SP . .
O6 O 0.540(2) 0.316(3) -0.004(4) 0.100 Uiso 0.123(9) 1 d P . .
O7 O 0.563(3) 0.367(5) 0.062(4) 0.100 Uiso 0.20(3) 1 d P . .

loop_
_atom_site_aniso_label
_atom_site_aniso_U_11
_atom_site_aniso_U_22
_atom_site_aniso_U_33
_atom_site_aniso_U_23
_atom_site_aniso_U_13
_atom_site_aniso_U_12
Zn1 0.02183(19) 0.02183(19) 0.0165(2) 0.00141(7) -0.00141(7) 0.00901(17)
F1 0.0306(8) 0.0408(12) 0.0184(10) -0.0029(8) -0.0014(4) 0.0204(6)
C1 0.0364(14) 0.0295(12) 0.0198(12) 0.0022(10) 0.0068(10) 0.0199(11)
N1 0.0320(11) 0.0272(11) 0.0171(10) 0.0032(8) 0.0050(8) 0.0167(9)
N2 0.0339(16) 0.0250(10) 0.0215(14) 0.0007(6) 0.0015(12) 0.0169(8)

_geom_special_details            
;
All esds (except the esd in the dihedral angle between two l.s. planes)
are estimated using the full covariance matrix. The cell esds are taken
into account individually in the estimation of esds in distances, angles
and torsion angles; correlations between esds in cell parameters are only
used when they are defined by crystal symmetry. An approximate (isotropic)
treatment of cell esds is used for estimating esds involving l.s. planes.
;

loop_
_geom_bond_atom_site_label_1
_geom_bond_atom_site_label_2
_geom_bond_distance
_geom_bond_site_symmetry_2
_geom_bond_publ_flag
Zn1 N2 2.006(3) 32 ?
Zn1 N1 2.034(2) . ?
Zn1 N1 2.034(2) 4 ?
Zn1 F1 2.0566(10) . ?
Zn1 F1 2.0567(10) 8 ?
F1 Zn1 2.0566(10) 15_554 ?
C1 N1 1.312(3) . ?
C1 N2 1.346(3) . ?
C1 H1 0.9300 . ?
N1 N1 1.374(4) 12 ?
N2 C1 1.346(3) 12 ?
N2 Zn1 2.006(3) 33_545 ?

loop_
_geom_angle_atom_site_label_1
_geom_angle_atom_site_label_2
_geom_angle_atom_site_label_3
_geom_angle
_geom_angle_site_symmetry_1
_geom_angle_site_symmetry_3
_geom_angle_publ_flag
N2 Zn1 N1 123.12(6) 32 . ?
N2 Zn1 N1 123.11(6) 32 4 ?
N1 Zn1 N1 113.76(12) . 4 ?
N2 Zn1 F1 91.80(3) 32 . ?
N1 Zn1 F1 90.96(6) . . ?
N1 Zn1 F1 87.08(7) 4 . ?
N2 Zn1 F1 91.79(3) 32 8 ?
N1 Zn1 F1 87.08(7) . 8 ?
N1 Zn1 F1 90.95(6) 4 8 ?
F1 Zn1 F1 176.41(6) . 8 ?
Zn1 F1 Zn1 119.93(10) . 15_554 ?
N1 C1 N2 112.9(2) . . ?
N1 C1 H1 123.6 . . ?
N2 C1 H1 123.6 . . ?
C1 N1 N1 105.96(13) . 12 ?
C1 N1 Zn1 131.37(16) . . ?
N1 N1 Zn1 121.54(7) 12 . ?
C1 N2 C1 102.3(3) . 12 ?
C1 N2 Zn1 128.85(14) . 33_545 ?
C1 N2 Zn1 128.86(14) 12 33_545 ?

loop_
_geom_torsion_atom_site_label_1
_geom_torsion_atom_site_label_2
_geom_torsion_atom_site_label_3
_geom_torsion_atom_site_label_4
_geom_torsion
_geom_torsion_site_symmetry_1
_geom_torsion_site_symmetry_2
_geom_torsion_site_symmetry_3
_geom_torsion_site_symmetry_4
_geom_torsion_publ_flag
N2 Zn1 F1 Zn1 -126.58(6) 32 . . 15_554 ?
N1 Zn1 F1 Zn1 110.24(6) . . . 15_554 ?
N1 Zn1 F1 Zn1 -3.51(6) 4 . . 15_554 ?
N2 C1 N1 N1 -0.3(3) . . . 12 ?
N2 C1 N1 Zn1 -167.93(14) . . . . ?
N2 Zn1 N1 C1 -89.4(2) 32 . . . ?
N1 Zn1 N1 C1 90.6(2) 4 . . . ?
F1 Zn1 N1 C1 3.3(2) . . . . ?
F1 Zn1 N1 C1 -179.7(2) 8 . . . ?
N2 Zn1 N1 N1 104.5(2) 32 . . 12 ?
N1 Zn1 N1 N1 -75.5(2) 4 . . 12 ?
F1 Zn1 N1 N1 -162.7(2) . . . 12 ?
F1 Zn1 N1 N1 14.3(2) 8 . . 12 ?
N1 C1 N2 Zn1 -179.88(13) . . . 33_545 ?

_diffrn_measured_fraction_theta_max 1.000
_diffrn_reflns_theta_full        28.26
_diffrn_measured_fraction_theta_full 1.000
_refine_diff_density_max         0.370
_refine_diff_density_min         -0.426
_refine_diff_density_rms         0.088


### END OF CIF
