####################################################################### 
# 
# This file contains crystal structure data downloaded from the 
# Cambridge Structural Database (CSD) hosted by the Cambridge 
# Crystallographic Data Centre (CCDC).
# 
# Full information about CCDC data access policies and citation 
# guidelines are available at http://www.ccdc.cam.ac.uk/access/V1 
# 
# Audit and citation data items may have been added by the CCDC. 
# Please retain this information to preserve the provenance of 
# this file and to allow appropriate attribution of the data. 
# 
#######################################################################

data_4b-Er-P4322
_audit_block_doi                 10.5517/cctygdl
_database_code_depnum_ccdc_archive 'CCDC 773090'
loop_
_citation_id
_citation_doi
_citation_year
1 10.1021/ic101294s 2010
_audit_update_record             
;
2010-04-14 deposited with the CCDC.	2024-07-11 downloaded from the CCDC.
;
#TrackingRef '4b-Er-P4322.CIF'


_audit_creation_method           SHELXL-97
_chemical_name_systematic        
;
?
;
_chemical_name_common            ?
_chemical_melting_point          ?
_chemical_formula_moiety         ?
_chemical_formula_sum            'C9 H3 Er O7'
_chemical_formula_weight         390.37

loop_
_atom_type_symbol
_atom_type_description
_atom_type_scat_dispersion_real
_atom_type_scat_dispersion_imag
_atom_type_scat_source
C C 0.0033 0.0016 'International Tables Vol C Tables 4.2.6.8 and 6.1.1.4'
H H 0.0000 0.0000 'International Tables Vol C Tables 4.2.6.8 and 6.1.1.4'
O O 0.0106 0.0060 'International Tables Vol C Tables 4.2.6.8 and 6.1.1.4'
Er Er -0.2586 4.9576 'International Tables Vol C Tables 4.2.6.8 and 6.1.1.4'

_symmetry_cell_setting           tetragonal
_symmetry_space_group_name_H-M   P4(3)22

loop_
_symmetry_equiv_pos_as_xyz
'x, y, z'
'-x, -y, z+1/2'
'-y, x, z+3/4'
'y, -x, z+1/4'
'-x, y, -z'
'x, -y, -z+1/2'
'y, x, -z+1/4'
'-y, -x, -z+3/4'

_cell_length_a                   10.2670(15)
_cell_length_b                   10.2670(15)
_cell_length_c                   14.462(3)
_cell_angle_alpha                90.00
_cell_angle_beta                 90.00
_cell_angle_gamma                90.00
_cell_volume                     1524.5(4)
_cell_formula_units_Z            4
_cell_measurement_temperature    293(2)
_cell_measurement_reflns_used    ?
_cell_measurement_theta_min      ?
_cell_measurement_theta_max      ?

_exptl_crystal_description       needle
_exptl_crystal_colour            pink
_exptl_crystal_size_max          0.11
_exptl_crystal_size_mid          0.05
_exptl_crystal_size_min          0.05
_exptl_crystal_density_meas      ?
_exptl_crystal_density_diffrn    1.701
_exptl_crystal_density_method    'not measured'
_exptl_crystal_F_000             724
_exptl_absorpt_coefficient_mu    5.519
_exptl_absorpt_correction_type   empirical
_exptl_absorpt_correction_T_min  0.8293
_exptl_absorpt_correction_T_max  1.0000
_exptl_absorpt_process_details   ?

_exptl_special_details           
;
?
;

_diffrn_ambient_temperature      293(2)
_diffrn_radiation_wavelength     0.71073
_diffrn_radiation_type           MoK\a
_diffrn_radiation_source         'fine-focus sealed tube'
_diffrn_radiation_monochromator  graphite
_diffrn_measurement_device_type  ?
_diffrn_measurement_method       ?
_diffrn_detector_area_resol_mean ?
_diffrn_standards_number         ?
_diffrn_standards_interval_count ?
_diffrn_standards_interval_time  ?
_diffrn_standards_decay_%        ?
_diffrn_reflns_number            14777
_diffrn_reflns_av_R_equivalents  0.0458
_diffrn_reflns_av_sigmaI/netI    0.0201
_diffrn_reflns_limit_h_min       -13
_diffrn_reflns_limit_h_max       13
_diffrn_reflns_limit_k_min       -13
_diffrn_reflns_limit_k_max       13
_diffrn_reflns_limit_l_min       -18
_diffrn_reflns_limit_l_max       18
_diffrn_reflns_theta_min         3.97
_diffrn_reflns_theta_max         27.46
_reflns_number_total             1734
_reflns_number_gt                1699
_reflns_threshold_expression     >2sigma(I)

_computing_data_collection       ?
_computing_cell_refinement       ?
_computing_data_reduction        ?
_computing_structure_solution    'SHELXS-97 (Sheldrick, 1990)'
_computing_structure_refinement  'SHELXL-97 (Sheldrick, 1997)'
_computing_molecular_graphics    ?
_computing_publication_material  ?

_refine_special_details          
;
Refinement of F^2^ against ALL reflections. The weighted R-factor wR and
goodness of fit S are based on F^2^, conventional R-factors R are based
on F, with F set to zero for negative F^2^. The threshold expression of
F^2^ > 2sigma(F^2^) is used only for calculating R-factors(gt) etc. and is
not relevant to the choice of reflections for refinement. R-factors based
on F^2^ are statistically about twice as large as those based on F, and R-
factors based on ALL data will be even larger.
;

_refine_ls_structure_factor_coef Fsqd
_refine_ls_matrix_type           full
_refine_ls_weighting_scheme      calc
_refine_ls_weighting_details     
'calc w=1/[\s^2^(Fo^2^)+(0.0167P)^2^+1.9997P] where P=(Fo^2^+2Fc^2^)/3'
_atom_sites_solution_primary     direct
_atom_sites_solution_secondary   difmap
_atom_sites_solution_hydrogens   geom
_refine_ls_extinction_method     none
_refine_ls_extinction_coef       ?
_refine_ls_abs_structure_details 'Flack H D (1983), Acta Cryst. A39, 876-881'
_refine_ls_abs_structure_Flack   0.036(18)
_refine_ls_number_reflns         1734
_refine_ls_number_parameters     80
_refine_ls_number_restraints     0
_refine_ls_R_factor_all          0.0173
_refine_ls_R_factor_gt           0.0167
_refine_ls_wR_factor_ref         0.0404
_refine_ls_wR_factor_gt          0.0403
_refine_ls_goodness_of_fit_ref   1.099
_refine_ls_restrained_S_all      1.099
_refine_ls_shift/su_max          0.001
_refine_ls_shift/su_mean         0.000

loop_
_atom_site_label
_atom_site_type_symbol
_atom_site_fract_x
_atom_site_fract_y
_atom_site_fract_z
_atom_site_U_iso_or_equiv
_atom_site_adp_type
_atom_site_occupancy
_atom_site_symmetry_multiplicity
_atom_site_calc_flag
_atom_site_refinement_flags
_atom_site_disorder_assembly
_atom_site_disorder_group
Er1 Er 0.147415(12) 0.147415(12) 0.1250 0.01029(6) Uani 1 2 d S . .
C3 C 0.0444(4) 0.6033(3) 0.0771(2) 0.0184(7) Uani 1 1 d . . .
H3A H 0.0746 0.5582 0.1286 0.022 Uiso 1 1 calc R . .
C4 C 0.0000 0.5349(4) 0.0000 0.0189(10) Uani 1 2 d S . .
C6 C 0.0000 0.3894(5) 0.0000 0.0238(11) Uani 1 2 d S . .
O2 O 0.0943(3) 0.7586(3) 0.23714(17) 0.0300(7) Uani 1 1 d . . .
C2 C 0.0438(4) 0.7392(3) 0.0773(2) 0.0157(6) Uani 1 1 d . . .
C5 C 0.0868(3) 0.8160(3) 0.1605(2) 0.0174(7) Uani 1 1 d . . .
O3 O 0.0719(3) 0.3347(3) 0.05825(19) 0.0335(7) Uani 1 1 d . . .
O1 O 0.1116(3) 0.9320(3) 0.1504(2) 0.0373(8) Uani 1 1 d . . .
C1 C 0.0000 0.8070(5) 0.0000 0.0174(10) Uani 1 2 d S . .
H1A H 0.0000 0.8975 0.0000 0.021 Uiso 1 2 calc SR . .
O4 O 0.3117(3) 0.3117(3) 0.1250 0.0519(13) Uani 1 2 d S . .

loop_
_atom_site_aniso_label
_atom_site_aniso_U_11
_atom_site_aniso_U_22
_atom_site_aniso_U_33
_atom_site_aniso_U_23
_atom_site_aniso_U_13
_atom_site_aniso_U_12
Er1 0.01151(7) 0.01151(7) 0.00785(8) -0.00018(5) 0.00018(5) 0.00178(7)
C3 0.0288(18) 0.0137(14) 0.0127(14) -0.0004(12) -0.0080(14) -0.0002(13)
C4 0.035(3) 0.004(2) 0.018(2) 0.000 -0.011(2) 0.000
C6 0.040(3) 0.009(2) 0.022(2) 0.000 -0.011(2) 0.000
O2 0.0459(17) 0.0338(15) 0.0104(11) -0.0029(11) -0.0067(11) -0.0101(14)
C2 0.0235(17) 0.0122(15) 0.0115(14) -0.0015(12) -0.0020(13) -0.0019(13)
C5 0.0186(16) 0.0163(16) 0.0174(14) -0.0063(12) -0.0031(12) 0.0010(13)
O3 0.058(2) 0.0113(12) 0.0314(13) 0.0035(11) -0.0264(14) 0.0045(12)
O1 0.061(2) 0.0135(11) 0.0372(16) -0.0024(11) -0.0192(13) -0.0057(13)
C1 0.029(3) 0.011(2) 0.012(2) 0.000 -0.0013(19) 0.000
O4 0.0272(13) 0.0272(13) 0.101(4) 0.001(2) -0.001(2) -0.0107(16)

_geom_special_details            
;
All esds (except the esd in the dihedral angle between two l.s. planes)
are estimated using the full covariance matrix. The cell esds are taken
into account individually in the estimation of esds in distances, angles
and torsion angles; correlations between esds in cell parameters are only
used when they are defined by crystal symmetry. An approximate (isotropic)
treatment of cell esds is used for estimating esds involving l.s. planes.
;

loop_
_geom_bond_atom_site_label_1
_geom_bond_atom_site_label_2
_geom_bond_distance
_geom_bond_site_symmetry_2
_geom_bond_publ_flag
Er1 O1 2.272(3) 7_455 ?
Er1 O1 2.272(3) 1_545 ?
Er1 O2 2.281(2) 3_654 ?
Er1 O2 2.281(2) 6_565 ?
Er1 O3 2.286(3) 7 ?
Er1 O3 2.286(3) . ?
Er1 O4 2.386(4) . ?
C3 C4 1.394(4) . ?
C3 C2 1.395(5) . ?
C4 C3 1.394(4) 5 ?
C4 C6 1.494(6) . ?
C6 O3 1.254(3) 5 ?
C6 O3 1.254(3) . ?
O2 C5 1.257(4) . ?
O2 Er1 2.281(2) 4_565 ?
C2 C1 1.391(4) . ?
C2 C5 1.505(4) . ?
C5 O1 1.227(4) . ?
O1 Er1 2.272(3) 1_565 ?
C1 C2 1.391(4) 5 ?

loop_
_geom_angle_atom_site_label_1
_geom_angle_atom_site_label_2
_geom_angle_atom_site_label_3
_geom_angle
_geom_angle_site_symmetry_1
_geom_angle_site_symmetry_3
_geom_angle_publ_flag
O1 Er1 O1 73.19(16) 7_455 1_545 ?
O1 Er1 O2 103.42(11) 7_455 3_654 ?
O1 Er1 O2 88.66(11) 1_545 3_654 ?
O1 Er1 O2 88.66(11) 7_455 6_565 ?
O1 Er1 O2 103.42(11) 1_545 6_565 ?
O2 Er1 O2 165.06(16) 3_654 6_565 ?
O1 Er1 O3 146.28(11) 7_455 7 ?
O1 Er1 O3 74.82(11) 1_545 7 ?
O2 Er1 O3 86.11(10) 3_654 7 ?
O2 Er1 O3 88.60(11) 6_565 7 ?
O1 Er1 O3 74.82(11) 7_455 . ?
O1 Er1 O3 146.28(11) 1_545 . ?
O2 Er1 O3 88.60(11) 3_654 . ?
O2 Er1 O3 86.11(10) 6_565 . ?
O3 Er1 O3 138.43(16) 7 . ?
O1 Er1 O4 143.41(8) 7_455 . ?
O1 Er1 O4 143.40(8) 1_545 . ?
O2 Er1 O4 82.53(8) 3_654 . ?
O2 Er1 O4 82.53(8) 6_565 . ?
O3 Er1 O4 69.21(8) 7 . ?
O3 Er1 O4 69.21(8) . . ?
C4 C3 C2 120.2(3) . . ?
C3 C4 C3 119.5(4) . 5 ?
C3 C4 C6 120.2(2) . . ?
C3 C4 C6 120.2(2) 5 . ?
O3 C6 O3 126.7(5) 5 . ?
O3 C6 C4 116.7(2) 5 . ?
O3 C6 C4 116.7(2) . . ?
C5 O2 Er1 125.9(2) . 4_565 ?
C1 C2 C3 120.0(3) . . ?
C1 C2 C5 118.4(3) . . ?
C3 C2 C5 121.6(3) . . ?
O1 C5 O2 123.2(3) . . ?
O1 C5 C2 118.2(3) . . ?
O2 C5 C2 118.5(3) . . ?
C6 O3 Er1 149.4(3) . . ?
C5 O1 Er1 176.5(3) . 1_565 ?
C2 C1 C2 120.0(4) 5 . ?

_diffrn_measured_fraction_theta_max 0.987
_diffrn_reflns_theta_full        27.46
_diffrn_measured_fraction_theta_full 0.987
_refine_diff_density_max         1.054
_refine_diff_density_min         -0.533
_refine_diff_density_rms         0.095
