####################################################################### 
# 
# This file contains crystal structure data downloaded from the 
# Cambridge Structural Database (CSD) hosted by the Cambridge 
# Crystallographic Data Centre (CCDC).
# 
# Full information about CCDC data access policies and citation 
# guidelines are available at http://www.ccdc.cam.ac.uk/access/V1 
# 
# Audit and citation data items may have been added by the CCDC. 
# Please retain this information to preserve the provenance of 
# this file and to allow appropriate attribution of the data. 
# 
#######################################################################

data_5a-Yb-P4122
_audit_block_doi                 10.5517/cctygfm
_database_code_depnum_ccdc_archive 'CCDC 773091'
loop_
_citation_id
_citation_doi
_citation_year
1 10.1021/ic101294s 2010
_audit_update_record             
;
2010-04-14 deposited with the CCDC.	2024-07-11 downloaded from the CCDC.
;
#TrackingRef '5a-Yb-P4122.CIF'


_audit_creation_method           SHELXL-97
_chemical_name_systematic        
;
?
;
_chemical_name_common            ?
_chemical_melting_point          ?
_chemical_formula_moiety         ?
_chemical_formula_sum            'C9 H3 O7 Yb'
_chemical_formula_weight         396.15

loop_
_atom_type_symbol
_atom_type_description
_atom_type_scat_dispersion_real
_atom_type_scat_dispersion_imag
_atom_type_scat_source
C C 0.0033 0.0016 'International Tables Vol C Tables 4.2.6.8 and 6.1.1.4'
H H 0.0000 0.0000 'International Tables Vol C Tables 4.2.6.8 and 6.1.1.4'
O O 0.0106 0.0060 'International Tables Vol C Tables 4.2.6.8 and 6.1.1.4'
Yb Yb -0.3850 5.5486 'International Tables Vol C Tables 4.2.6.8 and 6.1.1.4'

_symmetry_cell_setting           tetragonal
_symmetry_space_group_name_H-M   P4(1)22

loop_
_symmetry_equiv_pos_as_xyz
'x, y, z'
'-x, -y, z+1/2'
'-y, x, z+1/4'
'y, -x, z+3/4'
'-x, y, -z'
'x, -y, -z+1/2'
'y, x, -z+3/4'
'-y, -x, -z+1/4'

_cell_length_a                   10.2400(14)
_cell_length_b                   10.2400(14)
_cell_length_c                   14.420(3)
_cell_angle_alpha                90.00
_cell_angle_beta                 90.00
_cell_angle_gamma                90.00
_cell_volume                     1512.0(4)
_cell_formula_units_Z            4
_cell_measurement_temperature    293(2)
_cell_measurement_reflns_used    ?
_cell_measurement_theta_min      ?
_cell_measurement_theta_max      ?

_exptl_crystal_description       needle
_exptl_crystal_colour            colorless
_exptl_crystal_size_max          0.12
_exptl_crystal_size_mid          0.07
_exptl_crystal_size_min          0.05
_exptl_crystal_density_meas      ?
_exptl_crystal_density_diffrn    1.740
_exptl_crystal_density_method    'not measured'
_exptl_crystal_F_000             732
_exptl_absorpt_coefficient_mu    6.199
_exptl_absorpt_correction_type   empirical
_exptl_absorpt_correction_T_min  0.7408
_exptl_absorpt_correction_T_max  1.0000
_exptl_absorpt_process_details   ?

_exptl_special_details           
;
?
;

_diffrn_ambient_temperature      293(2)
_diffrn_radiation_wavelength     0.71073
_diffrn_radiation_type           MoK\a
_diffrn_radiation_source         'fine-focus sealed tube'
_diffrn_radiation_monochromator  graphite
_diffrn_measurement_device_type  ?
_diffrn_measurement_method       ?
_diffrn_detector_area_resol_mean ?
_diffrn_standards_number         ?
_diffrn_standards_interval_count ?
_diffrn_standards_interval_time  ?
_diffrn_standards_decay_%        ?
_diffrn_reflns_number            13370
_diffrn_reflns_av_R_equivalents  0.0841
_diffrn_reflns_av_sigmaI/netI    0.0385
_diffrn_reflns_limit_h_min       -13
_diffrn_reflns_limit_h_max       13
_diffrn_reflns_limit_k_min       -13
_diffrn_reflns_limit_k_max       13
_diffrn_reflns_limit_l_min       -15
_diffrn_reflns_limit_l_max       18
_diffrn_reflns_theta_min         3.99
_diffrn_reflns_theta_max         27.44
_reflns_number_total             1713
_reflns_number_gt                1652
_reflns_threshold_expression     >2sigma(I)

_computing_data_collection       ?
_computing_cell_refinement       ?
_computing_data_reduction        ?
_computing_structure_solution    'SHELXS-97 (Sheldrick, 1990)'
_computing_structure_refinement  'SHELXL-97 (Sheldrick, 1997)'
_computing_molecular_graphics    ?
_computing_publication_material  ?

_refine_special_details          
;
Refinement of F^2^ against ALL reflections. The weighted R-factor wR and
goodness of fit S are based on F^2^, conventional R-factors R are based
on F, with F set to zero for negative F^2^. The threshold expression of
F^2^ > 2sigma(F^2^) is used only for calculating R-factors(gt) etc. and is
not relevant to the choice of reflections for refinement. R-factors based
on F^2^ are statistically about twice as large as those based on F, and R-
factors based on ALL data will be even larger.
;

_refine_ls_structure_factor_coef Fsqd
_refine_ls_matrix_type           full
_refine_ls_weighting_scheme      calc
_refine_ls_weighting_details     
'calc w=1/[\s^2^(Fo^2^)+(0.0233P)^2^+4.8100P] where P=(Fo^2^+2Fc^2^)/3'
_atom_sites_solution_primary     direct
_atom_sites_solution_secondary   difmap
_atom_sites_solution_hydrogens   geom
_refine_ls_extinction_method     none
_refine_ls_extinction_coef       ?
_refine_ls_abs_structure_details 'Flack H D (1983), Acta Cryst. A39, 876-881'
_refine_ls_abs_structure_Flack   0.04(3)
_refine_ls_number_reflns         1713
_refine_ls_number_parameters     80
_refine_ls_number_restraints     0
_refine_ls_R_factor_all          0.0268
_refine_ls_R_factor_gt           0.0260
_refine_ls_wR_factor_ref         0.0607
_refine_ls_wR_factor_gt          0.0604
_refine_ls_goodness_of_fit_ref   1.029
_refine_ls_restrained_S_all      1.029
_refine_ls_shift/su_max          0.001
_refine_ls_shift/su_mean         0.000

loop_
_atom_site_label
_atom_site_type_symbol
_atom_site_fract_x
_atom_site_fract_y
_atom_site_fract_z
_atom_site_U_iso_or_equiv
_atom_site_adp_type
_atom_site_occupancy
_atom_site_symmetry_multiplicity
_atom_site_calc_flag
_atom_site_refinement_flags
_atom_site_disorder_assembly
_atom_site_disorder_group
Yb1 Yb 0.647848(17) 0.352152(17) 0.1250 0.00952(9) Uani 1 2 d S . .
O1 O 0.5739(5) 0.1660(4) 0.0586(3) 0.0302(10) Uani 1 1 d . . .
O4 O 0.8114(4) 0.1886(4) 0.1250 0.0438(16) Uani 1 2 d S . .
O2 O 0.6124(5) -0.4338(4) 0.1498(3) 0.0375(13) Uani 1 1 d . . .
O3 O 0.5951(4) -0.2598(4) 0.2376(3) 0.0270(10) Uani 1 1 d . . .
C6 C 0.5890(5) -0.3178(5) 0.1610(4) 0.0170(11) Uani 1 1 d . . .
C2 C 0.5446(6) -0.1042(5) 0.0775(4) 0.0188(11) Uani 1 1 d . . .
H2A H 0.5749 -0.0590 0.1291 0.023 Uiso 1 1 calc R . .
C3 C 0.5435(5) -0.2398(5) 0.0774(3) 0.0152(10) Uani 1 1 d . . .
C5 C 0.5000 0.1116(7) 0.0000 0.0215(16) Uani 1 2 d S . .
C1 C 0.5000 -0.0357(7) 0.0000 0.0193(16) Uani 1 2 d S . .
C4 C 0.5000 -0.3081(7) 0.0000 0.0140(14) Uani 1 2 d S . .
H4B H 0.5000 -0.3989 0.0000 0.017 Uiso 1 2 calc SR . .

loop_
_atom_site_aniso_label
_atom_site_aniso_U_11
_atom_site_aniso_U_22
_atom_site_aniso_U_33
_atom_site_aniso_U_23
_atom_site_aniso_U_13
_atom_site_aniso_U_12
Yb1 0.01039(10) 0.01039(10) 0.00778(13) 0.00031(8) 0.00031(8) -0.00158(9)
O1 0.053(3) 0.010(2) 0.027(2) -0.0009(16) -0.020(2) -0.0043(18)
O4 0.0250(18) 0.0250(18) 0.081(5) -0.002(3) -0.002(3) 0.009(2)
O2 0.062(3) 0.0142(19) 0.036(3) 0.0021(17) -0.022(2) 0.001(2)
O3 0.037(2) 0.031(2) 0.0128(18) 0.0034(17) -0.0044(16) 0.0083(19)
C6 0.015(2) 0.016(3) 0.020(2) 0.008(2) -0.0044(19) 0.0013(19)
C2 0.029(3) 0.017(2) 0.011(2) 0.0007(18) -0.006(2) 0.003(2)
C3 0.017(2) 0.019(3) 0.009(2) 0.001(2) -0.0030(19) 0.000(2)
C5 0.036(5) 0.009(4) 0.019(4) 0.000 -0.009(3) 0.000
C1 0.029(4) 0.007(4) 0.022(4) 0.000 -0.005(3) 0.000
C4 0.025(4) 0.006(3) 0.011(3) 0.000 -0.003(3) 0.000

_geom_special_details            
;
All esds (except the esd in the dihedral angle between two l.s. planes)
are estimated using the full covariance matrix. The cell esds are taken
into account individually in the estimation of esds in distances, angles
and torsion angles; correlations between esds in cell parameters are only
used when they are defined by crystal symmetry. An approximate (isotropic)
treatment of cell esds is used for estimating esds involving l.s. planes.
;

loop_
_geom_bond_atom_site_label_1
_geom_bond_atom_site_label_2
_geom_bond_distance
_geom_bond_site_symmetry_2
_geom_bond_publ_flag
Yb1 O2 2.250(4) 1_565 ?
Yb1 O2 2.250(4) 8_565 ?
Yb1 O3 2.261(4) 6 ?
Yb1 O3 2.261(4) 4_664 ?
Yb1 O1 2.264(4) 8_665 ?
Yb1 O1 2.264(4) . ?
Yb1 O4 2.369(6) . ?
Yb1 C6 3.163(5) 4_664 ?
Yb1 C6 3.163(5) 6 ?
O1 C5 1.263(5) . ?
O2 C6 1.223(7) . ?
O2 Yb1 2.250(4) 1_545 ?
O3 C6 1.256(7) . ?
O3 Yb1 2.261(4) 3_645 ?
C6 C3 1.519(7) . ?
C6 Yb1 3.163(5) 3_645 ?
C2 C3 1.389(8) . ?
C2 C1 1.396(6) . ?
C3 C4 1.390(6) . ?
C5 O1 1.263(5) 5_655 ?
C5 C1 1.508(10) . ?
C1 C2 1.396(6) 5_655 ?
C4 C3 1.390(6) 5_655 ?

loop_
_geom_angle_atom_site_label_1
_geom_angle_atom_site_label_2
_geom_angle_atom_site_label_3
_geom_angle
_geom_angle_site_symmetry_1
_geom_angle_site_symmetry_3
_geom_angle_publ_flag
O2 Yb1 O2 73.2(3) 1_565 8_565 ?
O2 Yb1 O3 103.28(17) 1_565 6 ?
O2 Yb1 O3 88.50(18) 8_565 6 ?
O2 Yb1 O3 88.50(18) 1_565 4_664 ?
O2 Yb1 O3 103.28(17) 8_565 4_664 ?
O3 Yb1 O3 165.4(2) 6 4_664 ?
O2 Yb1 O1 75.09(18) 1_565 8_665 ?
O2 Yb1 O1 146.44(16) 8_565 8_665 ?
O3 Yb1 O1 88.31(16) 6 8_665 ?
O3 Yb1 O1 86.48(16) 4_664 8_665 ?
O2 Yb1 O1 146.44(16) 1_565 . ?
O2 Yb1 O1 75.09(18) 8_565 . ?
O3 Yb1 O1 86.48(16) 6 . ?
O3 Yb1 O1 88.31(16) 4_664 . ?
O1 Yb1 O1 138.0(2) 8_665 . ?
O2 Yb1 O4 143.41(13) 1_565 . ?
O2 Yb1 O4 143.41(13) 8_565 . ?
O3 Yb1 O4 82.71(12) 6 . ?
O3 Yb1 O4 82.71(12) 4_664 . ?
O1 Yb1 O4 68.98(12) 8_665 . ?
O1 Yb1 O4 68.98(12) . . ?
O2 Yb1 C6 89.28(15) 1_565 4_664 ?
O2 Yb1 C6 85.57(16) 8_565 4_664 ?
O3 Yb1 C6 163.94(15) 6 4_664 ?
O3 Yb1 C6 18.78(15) 4_664 4_664 ?
O1 Yb1 C6 104.79(15) 8_665 4_664 ?
O1 Yb1 C6 77.58(15) . 4_664 ?
O4 Yb1 C6 93.21(10) . 4_664 ?
O2 Yb1 C6 85.57(16) 1_565 6 ?
O2 Yb1 C6 89.28(15) 8_565 6 ?
O3 Yb1 C6 18.78(15) 6 6 ?
O3 Yb1 C6 163.94(15) 4_664 6 ?
O1 Yb1 C6 77.58(15) 8_665 6 ?
O1 Yb1 C6 104.79(15) . 6 ?
O4 Yb1 C6 93.21(10) . 6 ?
C6 Yb1 C6 173.58(19) 4_664 6 ?
C5 O1 Yb1 148.7(4) . . ?
C6 O2 Yb1 177.5(4) . 1_545 ?
C6 O3 Yb1 125.8(4) . 3_645 ?
O2 C6 O3 124.5(5) . . ?
O2 C6 C3 117.7(5) . . ?
O3 C6 C3 117.7(4) . . ?
O2 C6 Yb1 89.1(3) . 3_645 ?
O3 C6 Yb1 35.4(3) . 3_645 ?
C3 C6 Yb1 153.0(3) . 3_645 ?
C3 C2 C1 119.9(5) . . ?
C2 C3 C4 120.4(5) . . ?
C2 C3 C6 121.5(5) . . ?
C4 C3 C6 118.1(5) . . ?
O1 C5 O1 127.7(7) . 5_655 ?
O1 C5 C1 116.2(4) . . ?
O1 C5 C1 116.2(4) 5_655 . ?
C2 C1 C2 119.7(7) 5_655 . ?
C2 C1 C5 120.2(3) 5_655 . ?
C2 C1 C5 120.2(3) . . ?
C3 C4 C3 119.6(7) . 5_655 ?

_diffrn_measured_fraction_theta_max 0.984
_diffrn_reflns_theta_full        27.44
_diffrn_measured_fraction_theta_full 0.984
_refine_diff_density_max         1.455
_refine_diff_density_min         -1.264
_refine_diff_density_rms         0.134
