####################################################################### 
# 
# This file contains crystal structure data downloaded from the 
# Cambridge Structural Database (CSD) hosted by the Cambridge 
# Crystallographic Data Centre (CCDC).
# 
# Full information about CCDC data access policies and citation 
# guidelines are available at http://www.ccdc.cam.ac.uk/access/V1 
# 
# Audit and citation data items may have been added by the CCDC. 
# Please retain this information to preserve the provenance of 
# this file and to allow appropriate attribution of the data. 
# 
#######################################################################

data_rh-4bpbd-bf4.cif
_audit_block_doi                 10.5517/cc4nzsj
_database_code_depnum_ccdc_archive 'CCDC 139338'
loop_
_citation_id
_citation_doi
_citation_year
1 10.1039/a907577a 1999
_audit_update_record             
;
2000-03-25 deposited with the CCDC.	2024-07-11 downloaded from the CCDC.
;
#--------------------------------------------------------------------------=
#---
# CHEMICAL DATA
_chemical_formula_sum            'C28 H32 B F4 N2 O2 Rh '
_chemical_formula_moiety         ?
_chemical_formula_weight         618.28
_chemical_melting_point          ?
#--------------------------------------------------------------------------=
#---
# CRYSTAL DATA
_symmetry_cell_setting           monoclinic
_symmetry_space_group_name_H-M   'P 1 21/m 1'
_symmetry_Int_Tables_number      11
loop_
_symmetry_equiv_pos_as_xyz
x,y,z
-x,1/2+y,-z
-x,-y,-z
x,1/2-y,z
_cell_length_a                   9.162(4)
_cell_length_b                   18.442(3)
_cell_length_c                   9.573(7)
_cell_angle_alpha                90
_cell_angle_beta                 108.79(5)
_cell_angle_gamma                90
_cell_volume                     1531(1)
_cell_formula_units_Z            2
_cell_measurement_reflns_used    25
_cell_measurement_theta_min      12.1
_cell_measurement_theta_max      13.6
_cell_measurement_temperature    296.2
#--------------------------------------------------------------------------=
#---
_exptl_crystal_description       prismatic
_exptl_crystal_colour            yellow
_exptl_crystal_size_max          0.200
_exptl_crystal_size_mid          0.200
_exptl_crystal_size_min          0.150
_exptl_crystal_size_rad          ?
_exptl_crystal_density_diffrn    1.341
_exptl_crystal_density_meas      ?
_exptl_crystal_density_method    'not measured'
_exptl_absorpt_coefficient_mu    0.606
_exptl_absorpt_correction_type   psi-scan
_exptl_absorpt_process_details   '(North, Phillips & Mathews, 1968)'
_exptl_absorpt_correction_T_min  0.819
_exptl_absorpt_correction_T_max  0.879
#--------------------------------------------------------------------------=
#---
# EXPERIMENTAL DATA
_diffrn_radiation_type           'Mo K=B4a'
_diffrn_radiation_wavelength     0.7107
_diffrn_measurement_device_type  'Rigaku AFC7R'
_diffrn_measurement_method       =B4w-2=B4q
_diffrn_reflns_number            3838
_diffrn_reflns_av_R_equivalents  0.052
_diffrn_reflns_theta_max         27.50
_diffrn_measured_fraction_theta_max 1.0003
_diffrn_reflns_theta_full        27.50
_diffrn_measured_fraction_theta_full 1.0003
_diffrn_reflns_limit_h_min       0
_diffrn_reflns_limit_h_max       11
_diffrn_reflns_limit_k_min       0
_diffrn_reflns_limit_k_max       23
_diffrn_reflns_limit_l_min       -12
_diffrn_reflns_limit_l_max       11
_diffrn_standards_number         3
_diffrn_standards_interval_count 150
_diffrn_standards_decay_%        5.25
#--------------------------------------------------------------------------=
#---
# REFINEMENT DATA
_refine_special_details          
;
Refinement using reflections with F^2^ > -10.0 sigma(F^2^). The weighted
R-factor (wR) and goodness of fit (S) are based on F^2^. R-factor (gt) are=

based on F. The threshold expression of F^2^ > 2.0 sigma(F^2^) is used only=

for calculating R-factor (gt).
;
_reflns_number_total             3624
_reflns_number_gt                2457
_reflns_threshold_expression     F^2^>2.0=B4s(F^2^)
_refine_ls_structure_factor_coef Fsqd
_refine_ls_R_factor_gt           0.0549
_refine_ls_wR_factor_ref         0.1440
_refine_ls_hydrogen_treatment    noref
_refine_ls_number_reflns         3624
_refine_ls_number_parameters     185
_refine_ls_goodness_of_fit_ref   1.141
_refine_ls_weighting_scheme      calc
_refine_ls_weighting_details     
'w == 1/[=B4s^2^(Fo^2^) + (0.06000(Max(Fo^2^,0) + 2Fc^2^)/3)^2^]'
_refine_ls_shift/su_max          0.0021
_refine_diff_density_max         0.87
_refine_diff_density_min         -1.37
_refine_ls_extinction_method     'Zachariasen(1967) type 2 Gaussian isotropic'
_refine_ls_extinction_coef       0.002(2)
_refine_ls_abs_structure_details ?
_refine_ls_abs_structure_Flack   ?
loop_
_atom_type_symbol
_atom_type_description
_atom_type_scat_dispersion_real
_atom_type_scat_dispersion_imag
_atom_type_scat_source
Rh Rh -1.118 0.919
;International Tables for Crystallography
(1992, Vol. C, Tables 4.2.6.8 and 6.1.1.1)
;
F F 0.017 0.010
;International Tables for Crystallography
(1992, Vol. C, Tables 4.2.6.8 and 6.1.1.1)
;
O O 0.011 0.006
;International Tables for Crystallography
(1992, Vol. C, Tables 4.2.6.8 and 6.1.1.1)
;
N N 0.006 0.003
;International Tables for Crystallography
(1992, Vol. C, Tables 4.2.6.8 and 6.1.1.1)
;
C C 0.003 0.002
;International Tables for Crystallography
(1992, Vol. C, Tables 4.2.6.8 and 6.1.1.1)
;
B B 0.001 0.001
;International Tables for Crystallography
(1992, Vol. C, Tables 4.2.6.8 and 6.1.1.1)
;
H H 0.000 0.000
;International Tables for Crystallography
(1992, Vol. C, Table 6.1.1.2)
;
#--------------------------------------------------------------------------=
#---
# ATOMIC COORDINATES AND DISPLACEMENT PARAMETERS
loop_
_atom_site_label
_atom_site_type_symbol
_atom_site_fract_x
_atom_site_fract_y
_atom_site_fract_z
_atom_site_U_iso_or_equiv
_atom_site_adp_type
_atom_site_occupancy
_atom_site_calc_flag
_atom_site_refinement_flags
_atom_site_disorder_assembly
_atom_site_disorder_group
Rh(1) Rh 0.25268(5) 0.2500 0.95039(6) 0.0455(1) Uani 1.00 d S . .
F(1) F 0.4086(10) 0.2500 0.3347(9) 0.213(5) Uani 1.00 d S . .
F(2) F 0.347(2) 0.2500 0.522(1) 0.224(5) Uani 1.00 d S . .
F(3) F 0.547(2) 0.3119(8) 0.486(2) 0.331(8) Uani 0.75 d P . .
F(4) F 0.556(2) 0.2500 0.589(1) 0.184(9) Uani 0.50 d SP . .
O(1) O 0.1956(10) 0.0292(4) 0.6389(8) 0.175(3) Uani 1.00 d . . .
N(1) N 0.4236(4) 0.3286(2) 0.9647(4) 0.050(1) Uani 1.00 d . . .
C(1) C 0.5075(6) 0.3584(3) 1.0911(6) 0.068(2) Uani 1.00 d . . .
C(2) C 0.6320(6) 0.4032(3) 1.1033(6) 0.073(2) Uani 1.00 d . . .
C(3) C 0.6732(5) 0.4173(2) 0.9799(6) 0.054(1) Uani 1.00 d . . .
C(4) C 0.5850(6) 0.3872(3) 0.8481(6) 0.067(2) Uani 1.00 d . . .
C(5) C 0.4621(6) 0.3436(3) 0.8437(6) 0.063(2) Uani 1.00 d . . .
C(6) C 0.8107(6) 0.4574(3) 0.9890(6) 0.063(2) Uani 1.00 d . . .
C(7) C 0.9310(5) 0.4844(3) 0.9965(6) 0.063(2) Uani 1.00 d . . .
C(8) C 0.1067(6) 0.3254(3) 1.0082(8) 0.076(2) Uani 1.00 d . . .
C(9) C 0.0115(9) 0.2878(4) 1.0899(10) 0.119(3) Uani 1.00 d . . .
C(10) C 0.0738(6) 0.1741(3) 0.8586(8) 0.075(2) Uani 1.00 d . . .
C(11) C -0.0623(8) 0.2108(4) 0.749(1) 0.141(3) Uani 1.00 d . . .
C(12) C 0.102(2) 0.1018(8) 0.437(2) 0.248(8) Uani 1.00 d . . .
C(13) C 0.192(1) 0.0404(7) 0.516(1) 0.150(5) Uani 1.00 d . . .
C(14) C 0.269(2) 0.002(1) 0.437(2) 0.38(1) Uani 1.00 d . . .
B(1) B 0.472(2) 0.2500 0.466(2) 0.18(1) Uani 1.00 d S . .
H(1) H 0.4822 0.3473 1.1796 0.0829 Uiso 1.00 calc . . .
H(2) H 0.6893 0.4251 1.1975 0.0883 Uiso 1.00 calc . . .
H(3) H 0.6093 0.3966 0.7582 0.0802 Uiso 1.00 calc . . .
H(4) H 0.4006 0.3230 0.7494 0.0759 Uiso 1.00 calc . . .
H(5) H 0.1618 0.3687 1.0585 0.0889 Uiso 1.00 calc . . .
H(6) H 0.0498 0.3042 1.1939 0.1483 Uiso 1.00 calc . . .
H(7) H -0.0915 0.3042 1.0510 0.1483 Uiso 1.00 calc . . .
H(8) H 0.1081 0.1307 0.8226 0.0916 Uiso 1.00 calc . . .
H(9) H -0.0703 0.1945 0.6508 0.1621 Uiso 1.00 calc . . .
H(10) H -0.1562 0.1945 0.7665 0.1621 Uiso 1.00 calc . . .
H(11) H 0.1406 0.1476 0.4846 0.2737 Uiso 1.00 calc . . .
H(12) H 0.1083 0.1067 0.3361 0.2737 Uiso 1.00 calc . . .
H(13) H -0.0039 0.0985 0.4267 0.2737 Uiso 1.00 calc . . .
H(14) H 0.2174 -0.0471 0.4214 0.3699 Uiso 1.00 calc . . .
H(15) H 0.2382 0.0213 0.3356 0.3699 Uiso 1.00 calc . . .
H(16) H 0.3666 -0.0011 0.4793 0.3699 Uiso 1.00 calc . . .

loop_
_atom_site_aniso_label
_atom_site_aniso_U_11
_atom_site_aniso_U_22
_atom_site_aniso_U_33
_atom_site_aniso_U_12
_atom_site_aniso_U_13
_atom_site_aniso_U_23
Rh(1) 0.0315(2) 0.0351(3) 0.0721(4) 0.0000 0.0197(2) 0.0000
F(1) 0.147(7) 0.40(2) 0.089(6) 0.0000 0.032(5) 0.0000
F(2) 0.26(1) 0.27(1) 0.152(8) 0.0000 0.079(9) 0.0000
F(3) 0.30(2) 0.32(2) 0.29(2) -0.19(1) -0.02(1) 0.07(1)
F(4) 0.085(9) 0.40(4) 0.057(9) 0.0000 0.009(7) 0.0000
O(1) 0.243(9) 0.146(6) 0.120(5) 0.031(6) 0.035(6) 0.016(5)
N(1) 0.041(2) 0.047(2) 0.067(3) -0.006(2) 0.024(2) 0.001(2)
C(1) 0.064(3) 0.085(4) 0.065(3) -0.028(3) 0.033(3) -0.018(3)
C(2) 0.059(3) 0.090(4) 0.075(4) -0.029(3) 0.028(3) -0.025(3)
C(3) 0.040(2) 0.042(2) 0.084(4) -0.004(2) 0.024(2) 0.000(2)
C(4) 0.059(3) 0.070(3) 0.076(4) -0.013(3) 0.029(3) 0.010(3)
C(5) 0.050(3) 0.075(3) 0.065(3) -0.019(3) 0.019(2) -0.004(3)
C(6) 0.049(2) 0.046(3) 0.097(4) -0.005(2) 0.029(3) -0.001(3)
C(7) 0.050(3) 0.042(2) 0.102(4) -0.005(2) 0.031(3) 0.000(3)
C(8) 0.068(3) 0.041(3) 0.139(6) 0.008(2) 0.061(4) -0.003(3)
C(9) 0.130(6) 0.078(4) 0.201(8) -0.003(4) 0.125(6) -0.011(5)
C(10) 0.046(3) 0.055(3) 0.123(5) -0.018(2) 0.026(3) -0.027(3)
C(11) 0.070(4) 0.125(7) 0.178(8) 0.009(4) -0.031(5) -0.058(6)
C(12) 0.29(2) 0.20(1) 0.19(1) -0.06(1) -0.02(1) 0.06(1)
C(13) 0.18(1) 0.17(1) 0.087(7) -0.037(9) 0.016(7) 0.004(7)
C(14) 0.41(3) 0.53(4) 0.22(2) 0.13(3) 0.14(2) -0.14(2)
B(1) 0.09(1) 0.38(4) 0.06(1) 0.0000 0.032(10) 0.0000
#--------------------------------------------------------------------------=
#---
_computing_data_collection       'MSC/AFC Diffractometer Control'
_computing_cell_refinement       'MSC/AFC Diffractometer Control'
_computing_data_reduction        'teXsan Ver. 1.10'
_computing_structure_solution    SIR92
_computing_structure_refinement  'teXsan Ver. 1.10'
_computing_publication_material  'teXsan Ver. 1.10'
_computing_molecular_graphics    ?
#--------------------------------------------------------------------------=
#---
_geom_special_details            
;
?
;
loop_
_geom_bond_atom_site_label_1
_geom_bond_atom_site_label_2
_geom_bond_distance
_geom_bond_site_symmetry_1
_geom_bond_site_symmetry_2
_geom_bond_publ_flag
Rh(1) N(1) 2.106(4) . . yes
Rh(1) N(1) 2.106(4) . 4_555 yes
Rh(1) C(8) 2.122(5) . . yes
Rh(1) C(8) 2.122(5) . 4_555 yes
Rh(1) C(10) 2.119(5) . . yes
Rh(1) C(10) 2.119(5) . 4_555 yes
F(1) B(1) 1.20(2) . . yes
F(2) B(1) 1.41(2) . . yes
F(3) F(4) 1.49(1) . . yes
F(3) B(1) 1.32(1) . . yes
F(4) B(1) 1.18(2) . . yes
O(1) C(13) 1.19(1) . . yes
N(1) C(1) 1.326(6) . . yes
N(1) C(5) 1.344(6) . . yes
C(1) C(2) 1.382(7) . . yes
C(1) H(1) 0.969 . . no
C(2) C(3) 1.376(7) . . yes
C(2) H(2) 0.974 . . no
C(3) C(4) 1.377(7) . . yes
C(3) C(6) 1.439(6) . . yes
C(4) C(5) 1.373(6) . . yes
C(4) H(3) 0.972 . . no
C(5) H(4) 0.975 . . no
C(6) C(7) 1.191(6) . . yes
C(7) C(7) 1.370(9) . 3_767 yes
C(8) C(9) 1.515(8) . . yes
C(8) C(10) 1.364(8) . 4_555 yes
C(8) H(5) 0.983 . . no
C(9) C(9) 1.39(1) . 4_555 yes
C(9) H(6) 0.990 . . no
C(9) H(7) 0.945 . . no
C(10) C(11) 1.509(9) . . yes
C(10) H(8) 0.963 . . no
C(11) C(11) 1.45(2) . 4_555 yes
C(11) H(9) 0.962 . . no
C(11) H(10) 0.976 . . no
C(12) C(13) 1.46(2) . . yes
C(12) H(11) 0.971 . . no
C(12) H(12) 0.990 . . no
C(12) H(13) 0.945 . . no
C(13) C(14) 1.38(2) . . yes
C(14) H(14) 1.015 . . no
C(14) H(15) 0.989 . . no
C(14) H(16) 0.855 . . no
#--------------------------------------------------------------------------=
#---
loop_
_geom_angle_atom_site_label_1
_geom_angle_atom_site_label_2
_geom_angle_atom_site_label_3
_geom_angle
_geom_angle_site_symmetry_1
_geom_angle_site_symmetry_2
_geom_angle_site_symmetry_3
_geom_angle_publ_flag
N(1) Rh(1) N(1) 87.0(2) . 1_555 4_555 yes
N(1) Rh(1) C(8) 92.9(2) . 1_555 1_555 yes
N(1) Rh(1) C(8) 162.2(2) . 1_555 4_555 yes
N(1) Rh(1) C(10) 160.3(2) . 1_555 1_555 yes
N(1) Rh(1) C(10) 91.8(2) . 1_555 4_555 yes
N(1) Rh(1) C(8) 162.2(2) . 4_555 1_555 yes
N(1) Rh(1) C(8) 92.9(2) . 4_555 4_555 yes
N(1) Rh(1) C(10) 91.8(2) . 4_555 1_555 yes
N(1) Rh(1) C(10) 160.3(2) . 4_555 4_555 yes
C(8) Rh(1) C(8) 81.9(3) . 1_555 4_555 yes
C(8) Rh(1) C(10) 94.2(2) . 1_555 1_555 yes
C(8) Rh(1) C(10) 37.5(2) . 1_555 4_555 yes
C(8) Rh(1) C(10) 37.5(2) . 4_555 1_555 yes
C(8) Rh(1) C(10) 94.2(2) . 4_555 4_555 yes
C(10) Rh(1) C(10) 82.7(3) . 1_555 4_555 yes
F(4) F(3) B(1) 49(1) . 1_555 1_555 yes
F(3) F(4) F(3) 100(1) . 1_555 4_555 yes
F(3) F(4) B(1) 57.6(8) . 1_555 1_555 yes
F(3) F(4) B(1) 57.6(8) . 4_555 1_555 yes
Rh(1) N(1) C(1) 123.0(3) . 1_555 1_555 yes
Rh(1) N(1) C(5) 118.8(3) . 1_555 1_555 yes
C(1) N(1) C(5) 117.8(4) . 1_555 1_555 yes
N(1) C(1) C(2) 123.0(5) . 1_555 1_555 yes
N(1) C(1) H(1) 118.6 . 1_555 1_555 no
C(2) C(1) H(1) 118.4 . 1_555 1_555 no
C(1) C(2) C(3) 119.2(5) . 1_555 1_555 yes
C(1) C(2) H(2) 120.7 . 1_555 1_555 no
C(3) C(2) H(2) 120.1 . 1_555 1_555 no
C(2) C(3) C(4) 117.9(4) . 1_555 1_555 yes
C(2) C(3) C(6) 121.5(5) . 1_555 1_555 yes
C(4) C(3) C(6) 120.4(5) . 1_555 1_555 yes
C(3) C(4) C(5) 119.8(5) . 1_555 1_555 yes
C(3) C(4) H(3) 120.4 . 1_555 1_555 no
C(5) C(4) H(3) 119.8 . 1_555 1_555 no
N(1) C(5) C(4) 122.3(5) . 1_555 1_555 yes
N(1) C(5) H(4) 119.0 . 1_555 1_555 no
C(4) C(5) H(4) 118.7 . 1_555 1_555 no
C(3) C(6) C(7) 173.9(5) . 1_555 1_555 yes
C(6) C(7) C(7) 179.4(8) . 1_555 3_767 yes
Rh(1) C(8) C(9) 110.6(4) . 1_555 1_555 yes
Rh(1) C(8) C(10) 71.1(3) . 1_555 4_555 yes
Rh(1) C(8) H(5) 113.1 . 1_555 1_555 no
C(9) C(8) C(10) 125.2(6) . 1_555 4_555 yes
C(9) C(8) H(5) 114.1 . 1_555 1_555 no
C(10) C(8) H(5) 114.4 . 4_555 1_555 no
C(8) C(9) C(9) 117.2(3) . 1_555 4_555 yes
C(8) C(9) H(6) 107.7 . 1_555 1_555 no
C(8) C(9) H(7) 108.5 . 1_555 1_555 no
C(9) C(9) H(6) 107.8 . 4_555 1_555 no
C(9) C(9) H(7) 108.6 . 4_555 1_555 no
H(6) C(9) H(7) 106.5 . 1_555 1_555 no
Rh(1) C(10) C(8) 71.3(3) . 1_555 4_555 yes
Rh(1) C(10) C(11) 110.3(4) . 1_555 1_555 yes
Rh(1) C(10) H(8) 113.5 . 1_555 1_555 no
C(8) C(10) C(11) 125.6(6) . 4_555 1_555 yes
C(8) C(10) H(8) 113.2 . 4_555 1_555 no
C(11) C(10) H(8) 114.5 . 1_555 1_555 no
C(10) C(11) C(11) 116.7(3) . 1_555 4_555 yes
C(10) C(11) H(9) 109.0 . 1_555 1_555 no
C(10) C(11) H(10) 108.4 . 1_555 1_555 no
C(11) C(11) H(9) 108.1 . 4_555 1_555 no
C(11) C(11) H(10) 107.9 . 4_555 1_555 no
H(9) C(11) H(10) 106.3 . 1_555 1_555 no
C(13) C(12) H(11) 111.9 . 1_555 1_555 no
C(13) C(12) H(12) 111.9 . 1_555 1_555 no
C(13) C(12) H(13) 113.3 . 1_555 1_555 no
H(11) C(12) H(12) 104.6 . 1_555 1_555 no
H(11) C(12) H(13) 108.1 . 1_555 1_555 no
H(12) C(12) H(13) 106.6 . 1_555 1_555 no
O(1) C(13) C(12) 118(1) . 1_555 1_555 yes
O(1) C(13) C(14) 126(1) . 1_555 1_555 yes
C(12) C(13) C(14) 114(1) . 1_555 1_555 yes
C(13) C(14) H(14) 104.1 . 1_555 1_555 no
C(13) C(14) H(15) 108.7 . 1_555 1_555 no
C(13) C(14) H(16) 115.1 . 1_555 1_555 no
H(14) C(14) H(15) 101.4 . 1_555 1_555 no
H(14) C(14) H(16) 111.8 . 1_555 1_555 no
H(15) C(14) H(16) 114.4 . 1_555 1_555 no
F(1) B(1) F(2) 102(1) . 1_555 1_555 yes
F(1) B(1) F(3) 102(1) . 1_555 1_555 yes
F(1) B(1) F(3) 102(1) . 1_555 4_555 yes
F(1) B(1) F(4) 168(1) . 1_555 1_555 yes
F(2) B(1) F(3) 113(1) . 1_555 1_555 yes
F(2) B(1) F(3) 113(1) . 1_555 4_555 yes
F(2) B(1) F(4) 88(1) . 1_555 1_555 yes
F(3) B(1) F(3) 120(2) . 1_555 4_555 yes
F(3) B(1) F(4) 73(1) . 1_555 1_555 yes
F(3) B(1) F(4) 73(1) . 4_555 1_555 yes
#--------------------------------------------------------------------------=
#---
loop_
_geom_contact_atom_site_label_1
_geom_contact_atom_site_label_2
_geom_contact_distance
_geom_contact_site_symmetry_1
_geom_contact_site_symmetry_2
_geom_contact_publ_flag
Rh(1) F(1) 3.492(8) . 1_556 ?
F(1) C(1) 3.408(9) . 1_554 ?
F(1) C(1) 3.408(9) . 4_554 ?
F(2) C(5) 3.39(1) . . ?
F(2) C(5) 3.39(1) . 4_555 ?
F(2) C(12) 3.46(2) . . ?
F(2) C(12) 3.46(2) . 4_555 ?
F(4) C(5) 3.32(1) . . ?
F(4) C(5) 3.32(1) . 4_555 ?
F(4) C(11) 3.41(2) . 1_655 ?
F(4) C(11) 3.41(2) . 4_655 ?
F(4) C(4) 3.50(1) . . ?
F(4) C(4) 3.50(1) . 4_555 ?
O(1) C(2) 3.388(9) . 2_647 ?
O(1) C(5) 3.496(10) . 4_555 ?
O(1) C(12) 3.54(2) . 3_556 ?
C(6) C(9) 3.598(9) . 1_655 ?
C(7) C(8) 3.331(7) . 1_655 ?
C(7) C(8) 3.523(7) . 3_667 ?
