####################################################################### 
# 
# This file contains crystal structure data downloaded from the 
# Cambridge Structural Database (CSD) hosted by the Cambridge 
# Crystallographic Data Centre (CCDC).
# 
# Full information about CCDC data access policies and citation 
# guidelines are available at http://www.ccdc.cam.ac.uk/access/V1 
# 
# Audit and citation data items may have been added by the CCDC. 
# Please retain this information to preserve the provenance of 
# this file and to allow appropriate attribution of the data. 
# 
#######################################################################

data_N2_120K
_audit_block_doi                 10.5517/cc99phr
_database_code_depnum_ccdc_archive 'CCDC 277434'
loop_
_citation_id
_citation_doi
_citation_year
1 10.1126/science.1113247 2005
_audit_update_record             
;
2005-06-22 deposited with the CCDC.	2024-07-11 downloaded from the CCDC.
;

_audit_creation_method           SHELXL-97
_chemical_name_common            'MOF-5, under N2 gas'
_chemical_formula_moiety         'C24 H12 N4.95 O13 Zn4'
_chemical_formula_structural     'Zn4 O (C8 H4 O4)3 (N2)2.48'
_chemical_formula_sum            'C24 H12 N4.95 O13 Zn4'
_chemical_formula_weight         839.17

loop_
_atom_type_symbol
_atom_type_description
_atom_type_scat_dispersion_real
_atom_type_scat_dispersion_imag
_atom_type_scat_source
C C 0.0033 0.0016 'International Tables Vol C Tables 4.2.6.8 and 6.1.1.4'
H H 0.0000 0.0000 'International Tables Vol C Tables 4.2.6.8 and 6.1.1.4'
N N 0.0061 0.0033 'International Tables Vol C Tables 4.2.6.8 and 6.1.1.4'
O O 0.0106 0.0060 'International Tables Vol C Tables 4.2.6.8 and 6.1.1.4'
Zn Zn 0.2839 1.4301 'International Tables Vol C Tables 4.2.6.8 and 6.1.1.4'

_symmetry_cell_setting           cubic
_symmetry_space_group_name_H-M   Fm-3m
_symmetry_Int_Tables_number      225
_symmetry_space_group_name_Hall  -F423

loop_
_symmetry_equiv_pos_as_xyz
'x, y, z'
'-x, -y, z'
'-x, y, -z'
'x, -y, -z'
'z, x, y'
'z, -x, -y'
'-z, -x, y'
'-z, x, -y'
'y, z, x'
'-y, z, -x'
'y, -z, -x'
'-y, -z, x'
'y, x, -z'
'-y, -x, -z'
'y, -x, z'
'-y, x, z'
'x, z, -y'
'-x, z, y'
'-x, -z, -y'
'x, -z, y'
'z, y, -x'
'z, -y, x'
'-z, y, x'
'-z, -y, -x'
'x, y+1/2, z+1/2'
'-x, -y+1/2, z+1/2'
'-x, y+1/2, -z+1/2'
'x, -y+1/2, -z+1/2'
'z, x+1/2, y+1/2'
'z, -x+1/2, -y+1/2'
'-z, -x+1/2, y+1/2'
'-z, x+1/2, -y+1/2'
'y, z+1/2, x+1/2'
'-y, z+1/2, -x+1/2'
'y, -z+1/2, -x+1/2'
'-y, -z+1/2, x+1/2'
'y, x+1/2, -z+1/2'
'-y, -x+1/2, -z+1/2'
'y, -x+1/2, z+1/2'
'-y, x+1/2, z+1/2'
'x, z+1/2, -y+1/2'
'-x, z+1/2, y+1/2'
'-x, -z+1/2, -y+1/2'
'x, -z+1/2, y+1/2'
'z, y+1/2, -x+1/2'
'z, -y+1/2, x+1/2'
'-z, y+1/2, x+1/2'
'-z, -y+1/2, -x+1/2'
'x+1/2, y, z+1/2'
'-x+1/2, -y, z+1/2'
'-x+1/2, y, -z+1/2'
'x+1/2, -y, -z+1/2'
'z+1/2, x, y+1/2'
'z+1/2, -x, -y+1/2'
'-z+1/2, -x, y+1/2'
'-z+1/2, x, -y+1/2'
'y+1/2, z, x+1/2'
'-y+1/2, z, -x+1/2'
'y+1/2, -z, -x+1/2'
'-y+1/2, -z, x+1/2'
'y+1/2, x, -z+1/2'
'-y+1/2, -x, -z+1/2'
'y+1/2, -x, z+1/2'
'-y+1/2, x, z+1/2'
'x+1/2, z, -y+1/2'
'-x+1/2, z, y+1/2'
'-x+1/2, -z, -y+1/2'
'x+1/2, -z, y+1/2'
'z+1/2, y, -x+1/2'
'z+1/2, -y, x+1/2'
'-z+1/2, y, x+1/2'
'-z+1/2, -y, -x+1/2'
'x+1/2, y+1/2, z'
'-x+1/2, -y+1/2, z'
'-x+1/2, y+1/2, -z'
'x+1/2, -y+1/2, -z'
'z+1/2, x+1/2, y'
'z+1/2, -x+1/2, -y'
'-z+1/2, -x+1/2, y'
'-z+1/2, x+1/2, -y'
'y+1/2, z+1/2, x'
'-y+1/2, z+1/2, -x'
'y+1/2, -z+1/2, -x'
'-y+1/2, -z+1/2, x'
'y+1/2, x+1/2, -z'
'-y+1/2, -x+1/2, -z'
'y+1/2, -x+1/2, z'
'-y+1/2, x+1/2, z'
'x+1/2, z+1/2, -y'
'-x+1/2, z+1/2, y'
'-x+1/2, -z+1/2, -y'
'x+1/2, -z+1/2, y'
'z+1/2, y+1/2, -x'
'z+1/2, -y+1/2, x'
'-z+1/2, y+1/2, x'
'-z+1/2, -y+1/2, -x'
'-x, -y, -z'
'x, y, -z'
'x, -y, z'
'-x, y, z'
'-z, -x, -y'
'-z, x, y'
'z, x, -y'
'z, -x, y'
'-y, -z, -x'
'y, -z, x'
'-y, z, x'
'y, z, -x'
'-y, -x, z'
'y, x, z'
'-y, x, -z'
'y, -x, -z'
'-x, -z, y'
'x, -z, -y'
'x, z, y'
'-x, z, -y'
'-z, -y, x'
'-z, y, -x'
'z, -y, -x'
'z, y, x'
'-x, -y+1/2, -z+1/2'
'x, y+1/2, -z+1/2'
'x, -y+1/2, z+1/2'
'-x, y+1/2, z+1/2'
'-z, -x+1/2, -y+1/2'
'-z, x+1/2, y+1/2'
'z, x+1/2, -y+1/2'
'z, -x+1/2, y+1/2'
'-y, -z+1/2, -x+1/2'
'y, -z+1/2, x+1/2'
'-y, z+1/2, x+1/2'
'y, z+1/2, -x+1/2'
'-y, -x+1/2, z+1/2'
'y, x+1/2, z+1/2'
'-y, x+1/2, -z+1/2'
'y, -x+1/2, -z+1/2'
'-x, -z+1/2, y+1/2'
'x, -z+1/2, -y+1/2'
'x, z+1/2, y+1/2'
'-x, z+1/2, -y+1/2'
'-z, -y+1/2, x+1/2'
'-z, y+1/2, -x+1/2'
'z, -y+1/2, -x+1/2'
'z, y+1/2, x+1/2'
'-x+1/2, -y, -z+1/2'
'x+1/2, y, -z+1/2'
'x+1/2, -y, z+1/2'
'-x+1/2, y, z+1/2'
'-z+1/2, -x, -y+1/2'
'-z+1/2, x, y+1/2'
'z+1/2, x, -y+1/2'
'z+1/2, -x, y+1/2'
'-y+1/2, -z, -x+1/2'
'y+1/2, -z, x+1/2'
'-y+1/2, z, x+1/2'
'y+1/2, z, -x+1/2'
'-y+1/2, -x, z+1/2'
'y+1/2, x, z+1/2'
'-y+1/2, x, -z+1/2'
'y+1/2, -x, -z+1/2'
'-x+1/2, -z, y+1/2'
'x+1/2, -z, -y+1/2'
'x+1/2, z, y+1/2'
'-x+1/2, z, -y+1/2'
'-z+1/2, -y, x+1/2'
'-z+1/2, y, -x+1/2'
'z+1/2, -y, -x+1/2'
'z+1/2, y, x+1/2'
'-x+1/2, -y+1/2, -z'
'x+1/2, y+1/2, -z'
'x+1/2, -y+1/2, z'
'-x+1/2, y+1/2, z'
'-z+1/2, -x+1/2, -y'
'-z+1/2, x+1/2, y'
'z+1/2, x+1/2, -y'
'z+1/2, -x+1/2, y'
'-y+1/2, -z+1/2, -x'
'y+1/2, -z+1/2, x'
'-y+1/2, z+1/2, x'
'y+1/2, z+1/2, -x'
'-y+1/2, -x+1/2, z'
'y+1/2, x+1/2, z'
'-y+1/2, x+1/2, -z'
'y+1/2, -x+1/2, -z'
'-x+1/2, -z+1/2, y'
'x+1/2, -z+1/2, -y'
'x+1/2, z+1/2, y'
'-x+1/2, z+1/2, -y'
'-z+1/2, -y+1/2, x'
'-z+1/2, y+1/2, -x'
'z+1/2, -y+1/2, -x'
'z+1/2, y+1/2, x'

_cell_length_a                   25.856(3)
_cell_length_b                   25.856(3)
_cell_length_c                   25.856(3)
_cell_angle_alpha                90.00
_cell_angle_beta                 90.00
_cell_angle_gamma                90.00
_cell_volume                     17285(3)
_cell_formula_units_Z            8
_cell_measurement_temperature    120(2)
_cell_measurement_reflns_used    7623
_cell_measurement_theta_min      2.227
_cell_measurement_theta_max      30.486

_exptl_crystal_description       block
_exptl_crystal_colour            colourless
_exptl_crystal_size_max          0.34
_exptl_crystal_size_mid          0.32
_exptl_crystal_size_min          0.32
_exptl_crystal_density_meas      ?
_exptl_crystal_density_diffrn    0.645
_exptl_crystal_density_method    'not measured'
_exptl_crystal_F_000             3317
_exptl_absorpt_coefficient_mu    1.122
_exptl_absorpt_correction_type   multi-scan
_exptl_absorpt_correction_T_min  0.895621
_exptl_absorpt_correction_T_max  1
_exptl_absorpt_process_details   
;
SADABS (Sheldrick, G. M. (1998)).
Program for Absorption Correction.
University of G\"ottingen, Germany.
;

_exptl_special_details           
; crystal sealed within a glass capillary under 1 atm
of nitrogen gas after evacuation
;

_diffrn_ambient_temperature      120(2)
_diffrn_radiation_wavelength     0.71073
_diffrn_radiation_type           MoK\a
_diffrn_radiation_source         'Bede Microsource'
_diffrn_radiation_monochromator  graphite
_diffrn_measurement_device_type  'Bruker Proteum M'
_diffrn_measurement_method       'omega scans'
_diffrn_detector_area_resol_mean 8
_diffrn_standards_number         0
_diffrn_standards_interval_count 0
_diffrn_standards_interval_time  0
_diffrn_standards_decay_%        0
_diffrn_reflns_number            14818
_diffrn_reflns_av_R_equivalents  0.0218
_diffrn_reflns_av_sigmaI/netI    0.0119
_diffrn_reflns_limit_h_min       -34
_diffrn_reflns_limit_h_max       35
_diffrn_reflns_limit_k_min       -18
_diffrn_reflns_limit_k_max       19
_diffrn_reflns_limit_l_min       -3
_diffrn_reflns_limit_l_max       35
_diffrn_reflns_theta_min         2.23
_diffrn_reflns_theta_max         29.56
_reflns_number_total             1255
_reflns_number_gt                1086
_reflns_threshold_expression     >2sigma(I)

_computing_data_collection       'Bruker SMART'
_computing_cell_refinement       'Bruker SAINT'
_computing_data_reduction        'Bruker SAINT'
_computing_structure_solution    'Bruker SHELXTL'
_computing_structure_refinement  'Bruker SHELXTL'
_computing_molecular_graphics    'Bruker SHELXTL'
_computing_publication_material  'Bruker SHELXTL'

_refine_special_details          
;
Refinement of F^2^ against ALL reflections. The weighted R-factor wR and
goodness of fit S are based on F^2^, conventional R-factors R are based
on F, with F set to zero for negative F^2^. The threshold expression of
F^2^ > 2sigma(F^2^) is used only for calculating R-factors(gt) etc. and is
not relevant to the choice of reflections for refinement. R-factors based
on F^2^ are statistically about twice as large as those based on F, and R-
factors based on ALL data will be even larger. Atom labels for N are
numbered according to the order of the site labels described in the
manuscript text, i.e.
N1-N2 molecule lies on alpha(CO2)3
;

_refine_ls_structure_factor_coef Fsqd
_refine_ls_matrix_type           full
_refine_ls_weighting_scheme      calc
_refine_ls_weighting_details     
'calc w=1/[\s^2^(Fo^2^)+(0.0471P)^2^+16.1691P] where P=(Fo^2^+2Fc^2^)/3'
_atom_sites_solution_primary     direct
_atom_sites_solution_secondary   difmap
_atom_sites_solution_hydrogens   geom
_refine_ls_hydrogen_treatment    mixed
_refine_ls_extinction_method     none
_refine_ls_extinction_coef       ?
_refine_ls_number_reflns         1255
_refine_ls_number_parameters     30
_refine_ls_number_restraints     1
_refine_ls_R_factor_all          0.0345
_refine_ls_R_factor_gt           0.0276
_refine_ls_wR_factor_ref         0.0859
_refine_ls_wR_factor_gt          0.0793
_refine_ls_goodness_of_fit_ref   1.207
_refine_ls_restrained_S_all      1.206
_refine_ls_shift/su_max          0.002
_refine_ls_shift/su_mean         0.000

loop_
_atom_site_label
_atom_site_type_symbol
_atom_site_fract_x
_atom_site_fract_y
_atom_site_fract_z
_atom_site_U_iso_or_equiv
_atom_site_adp_type
_atom_site_occupancy
_atom_site_symmetry_multiplicity
_atom_site_calc_flag
_atom_site_refinement_flags
_atom_site_disorder_assembly
_atom_site_disorder_group
Zn1 Zn 0.293436(6) 0.293436(6) 0.206564(6) 0.01329(12) Uani 1 6 d S . .
O1 O 0.2500 0.2500 0.2500 0.0143(6) Uani 1 24 d S . .
O2 O 0.28062(3) 0.36627(4) 0.21938(3) 0.0261(3) Uani 1 2 d S . .
C1 C 0.2500 0.38852(8) 0.2500 0.0215(4) Uani 1 4 d S . .
C2 C 0.2500 0.44628(8) 0.2500 0.0237(4) Uani 1 4 d S . .
C3 C 0.28267(5) 0.47330(7) 0.21733(5) 0.0358(5) Uani 1 2 d S . .
H3 H 0.3052 0.4550 0.1948 0.043 Uiso 1 2 calc SR . .
N1 N 0.3427(5) 0.3427(5) 0.3427(5) 0.168(6) Uiso 0.62 6 d SPD . .
N2 N 0.3481(9) 0.3481(9) 0.3845(9) 0.25(2) Uiso 0.21 2 d SPD . .

loop_
_atom_site_aniso_label
_atom_site_aniso_U_11
_atom_site_aniso_U_22
_atom_site_aniso_U_33
_atom_site_aniso_U_23
_atom_site_aniso_U_13
_atom_site_aniso_U_12
Zn1 0.01329(12) 0.01329(12) 0.01329(12) 0.00005(5) 0.00005(5) -0.00005(5)
O1 0.0143(6) 0.0143(6) 0.0143(6) 0.000 0.000 0.000
O2 0.0320(4) 0.0144(5) 0.0320(4) -0.0005(3) 0.0101(5) 0.0005(3)
C1 0.0250(6) 0.0145(9) 0.0250(6) 0.000 -0.0010(8) 0.000
C2 0.0293(7) 0.0126(9) 0.0293(7) 0.000 0.0035(9) 0.000
C3 0.0459(7) 0.0155(8) 0.0459(7) -0.0017(4) 0.0239(9) 0.0017(4)

_geom_special_details            
;
All esds (except the esd in the dihedral angle between two l.s. planes)
are estimated using the full covariance matrix. The cell esds are taken
into account individually in the estimation of esds in distances, angles
and torsion angles; correlations between esds in cell parameters are only
used when they are defined by crystal symmetry. An approximate (isotropic)
treatment of cell esds is used for estimating esds involving l.s. planes.
;

loop_
_geom_bond_atom_site_label_1
_geom_bond_atom_site_label_2
_geom_bond_distance
_geom_bond_site_symmetry_2
_geom_bond_publ_flag
Zn1 O2 1.9407(11) . ?
Zn1 O2 1.9407(11) 35 ?
Zn1 O2 1.9407(11) 56 ?
Zn1 O1 1.9452(3) . ?
O1 Zn1 1.9452(3) 51 ?
O1 Zn1 1.9452(3) 28 ?
O1 Zn1 1.9452(3) 74 ?
O2 C1 1.2587(15) . ?
C1 O2 1.2587(15) 51 ?
C1 C2 1.494(3) . ?
C2 C3 1.384(2) 51 ?
C2 C3 1.384(2) . ?
C3 C3 1.381(3) 99_565 ?
N1 N2 1.098(18) . ?

loop_
_geom_angle_atom_site_label_1
_geom_angle_atom_site_label_2
_geom_angle_atom_site_label_3
_geom_angle
_geom_angle_site_symmetry_1
_geom_angle_site_symmetry_3
_geom_angle_publ_flag
O2 Zn1 O2 107.59(4) . 35 ?
O2 Zn1 O2 107.59(4) . 56 ?
O2 Zn1 O2 107.59(4) 35 56 ?
O2 Zn1 O1 111.29(4) . . ?
O2 Zn1 O1 111.29(4) 35 . ?
O2 Zn1 O1 111.29(4) 56 . ?
Zn1 O1 Zn1 109.5 51 28 ?
Zn1 O1 Zn1 109.5 51 74 ?
Zn1 O1 Zn1 109.5 28 74 ?
Zn1 O1 Zn1 109.5 51 . ?
Zn1 O1 Zn1 109.5 28 . ?
Zn1 O1 Zn1 109.5 74 . ?
C1 O2 Zn1 131.16(12) . . ?
O2 C1 O2 125.62(19) 51 . ?
O2 C1 C2 117.19(10) 51 . ?
O2 C1 C2 117.19(10) . . ?
C3 C2 C3 119.4(2) 51 . ?
C3 C2 C1 120.31(10) 51 . ?
C3 C2 C1 120.31(10) . . ?
C3 C3 C2 120.31(10) 99_565 . ?

loop_
_geom_torsion_atom_site_label_1
_geom_torsion_atom_site_label_2
_geom_torsion_atom_site_label_3
_geom_torsion_atom_site_label_4
_geom_torsion
_geom_torsion_site_symmetry_1
_geom_torsion_site_symmetry_2
_geom_torsion_site_symmetry_3
_geom_torsion_site_symmetry_4
_geom_torsion_publ_flag
O2 Zn1 O1 Zn1 0.0 . . . 51 ?
O2 Zn1 O1 Zn1 120.0 35 . . 51 ?
O2 Zn1 O1 Zn1 -120.0 56 . . 51 ?
O2 Zn1 O1 Zn1 -120.0 . . . 28 ?
O2 Zn1 O1 Zn1 0.0 35 . . 28 ?
O2 Zn1 O1 Zn1 120.0 56 . . 28 ?
O2 Zn1 O1 Zn1 120.0 . . . 74 ?
O2 Zn1 O1 Zn1 -120.0 35 . . 74 ?
O2 Zn1 O1 Zn1 0.0 56 . . 74 ?
O2 Zn1 O2 C1 -122.17(4) 35 . . . ?
O2 Zn1 O2 C1 122.17(4) 56 . . . ?
O1 Zn1 O2 C1 0.0 . . . . ?
Zn1 O2 C1 O2 0.000(1) . . . 51 ?
Zn1 O2 C1 C2 180.0 . . . . ?
O2 C1 C2 C3 0.0 51 . . 51 ?
O2 C1 C2 C3 180.0 . . . 51 ?
O2 C1 C2 C3 180.0 51 . . . ?
O2 C1 C2 C3 0.0 . . . . ?
C3 C2 C3 C3 0.0 51 . . 99_565 ?
C1 C2 C3 C3 180.0 . . . 99_565 ?

_diffrn_measured_fraction_theta_max 0.991
_diffrn_reflns_theta_full        29.56
_diffrn_measured_fraction_theta_full 0.991
_refine_diff_density_max         0.430
_refine_diff_density_min         -0.261
_refine_diff_density_rms         0.062
