
#######################################################################
#
#                 Cambridge Crystallographic Data Centre
#                                CCDC
#
#######################################################################
#
# If this CIF has been generated from an entry in the Cambridge
# Structural Database, then it will include bibliographic, chemical,
# crystal, experimental, refinement or atomic coordinate data resulting
# from the CCDC's data processing and validation procedures.
#
#######################################################################

data_CSD_CIF_LAXLAY
_audit_creation_date 2006-03-20
_audit_creation_method CSD-ConQuest-V1
_database_code_CSD LAXLAY
_database_code_depnum_ccdc_archive 'CCDC 292252'
_chemical_formula_sum 'C9 H5 F3 Hg1'
_chemical_formula_moiety
;
C9 H5 F3 Hg1
;
_journal_coden_Cambridge 579
_journal_volume 24
_journal_year 2005
_journal_page_first 5487
_journal_name_full 'Organometallics '
loop_
_publ_author_name
"A.K.Brisdon"
"I.R.Crossley"
"R.G.Pritchard"
_chemical_name_systematic
;
(3,3,3-Trifluoropropynyl)-phenyl-mercury(ii)
;
_chemical_name_common
;
Teaching Subset: Fundamental Chemistry
;
_cell_volume    897.524
_exptl_crystal_colour 'colorless'
_exptl_crystal_density_diffrn 2.744
_exptl_crystal_description 'blade'
_diffrn_ambient_temperature 120
#These two values have been output from a single CSD field.
_refine_ls_R_factor_gt 0.0443
_refine_ls_wR_factor_gt 0.0443
_symmetry_cell_setting orthorhombic
_symmetry_space_group_name_H-M 'P 21 21 21'
_symmetry_Int_Tables_number 19
loop_
_symmetry_equiv_pos_site_id
_symmetry_equiv_pos_as_xyz
1 x,y,z
2 1/2-x,-y,1/2+z
3 1/2+x,1/2-y,-z
4 -x,1/2+y,1/2-z
_cell_length_a 5.8459(1)
_cell_length_b 8.4130(2)
_cell_length_c 18.2492(5)
_cell_angle_alpha 90
_cell_angle_beta 90
_cell_angle_gamma 90
_cell_formula_units_Z 4
loop_
_atom_type_symbol
_atom_type_radius_bond
C 0.68
H 0.23
F 0.64
Hg 1.70
loop_
_atom_site_label
_atom_site_type_symbol
_atom_site_fract_x
_atom_site_fract_y
_atom_site_fract_z
C1 C 0.5239(17) 0.6274(9) 0.4314(4)
C2 C 0.3825(18) 0.5398(9) 0.4556(5)
C3 C 0.2082(17) 0.4245(10) 0.4780(5)
C4 C 1.0430(17) 0.8472(9) 0.3218(4)
C5 C 1.0781(16) 0.8120(9) 0.2483(5)
H1 H 0.97490 0.74340 0.22340
C6 C 1.263(2) 0.8762(10) 0.2110(5)
H2 H 1.28360 0.85170 0.16060
C7 C 1.4184(19) 0.9759(10) 0.2458(5)
H3 H 1.54490 1.01960 0.22000
C8 C 1.3828(18) 1.0096(10) 0.3195(4)
H4 H 1.48720 1.07740 0.34430
C9 C 1.1997(16) 0.9470(8) 0.3575(5)
H5 H 1.17970 0.97140 0.40800
F1 F -0.0017(10) 0.4834(8) 0.4836(4)
F2 F 0.2541(13) 0.3632(8) 0.5444(4)
F3 F 0.2021(14) 0.2980(7) 0.4338(4)
Hg1 Hg 0.77703(6) 0.74558(3) 0.378296(14)
#END
