####################################################################### 
# 
# This file contains crystal structure data downloaded from the 
# Cambridge Structural Database (CSD) hosted by the Cambridge 
# Crystallographic Data Centre (CCDC).
# 
# Full information about CCDC data access policies and citation 
# guidelines are available at http://www.ccdc.cam.ac.uk/access/V1 
# 
# Audit and citation data items may have been added by the CCDC. 
# Please retain this information to preserve the provenance of 
# this file and to allow appropriate attribution of the data. 
# 
#######################################################################

data_4
_audit_block_doi                 10.5517/ccybw8d
_database_code_depnum_ccdc_archive 'CCDC 874394'
loop_
_citation_id
_citation_doi
_citation_year
1 10.1016/j.poly.2013.02.002 2013
2 10.1016/j.poly.2012.06.065 2012
_audit_update_record             
;
2012-04-02 deposited with the CCDC.	2024-07-11 downloaded from the CCDC.
;
#TrackingRef '10484_web_deposit_cif_file_3_VolodymyrBon_1333362452.LS149(4).cif'


_audit_creation_method           SHELXL-97
_chemical_name_systematic        
;
?
;
_chemical_name_common            ?
_chemical_melting_point          ?
_chemical_formula_moiety         ?
_chemical_formula_sum            'C24 H16 Co N4 O4'
_chemical_formula_weight         483.34

loop_
_atom_type_symbol
_atom_type_description
_atom_type_scat_dispersion_real
_atom_type_scat_dispersion_imag
_atom_type_scat_source
C C 0.0033 0.0016 'International Tables Vol C Tables 4.2.6.8 and 6.1.1.4'
H H 0.0000 0.0000 'International Tables Vol C Tables 4.2.6.8 and 6.1.1.4'
Co Co 0.3494 0.9721 'International Tables Vol C Tables 4.2.6.8 and 6.1.1.4'
N N 0.0061 0.0033 'International Tables Vol C Tables 4.2.6.8 and 6.1.1.4'
O O 0.0106 0.0060 'International Tables Vol C Tables 4.2.6.8 and 6.1.1.4'

_symmetry_cell_setting           Triclinic
_symmetry_space_group_name_H-M   P-1

loop_
_symmetry_equiv_pos_as_xyz
'x, y, z'
'-x, -y, -z'

_cell_length_a                   11.825(2)
_cell_length_b                   12.158(2)
_cell_length_c                   12.764(3)
_cell_angle_alpha                68.57(3)
_cell_angle_beta                 81.97(3)
_cell_angle_gamma                67.12(3)
_cell_volume                     1573.8(5)
_cell_formula_units_Z            2
_cell_measurement_temperature    296(2)
_cell_measurement_reflns_used    323
_cell_measurement_theta_min      3.12
_cell_measurement_theta_max      21.65

_exptl_crystal_description       block
_exptl_crystal_colour            pink
_exptl_crystal_size_max          0.14
_exptl_crystal_size_mid          0.13
_exptl_crystal_size_min          0.12
_exptl_crystal_density_meas      ?
_exptl_crystal_density_diffrn    1.020
_exptl_crystal_density_method    'not measured'
_exptl_crystal_F_000             494
_exptl_absorpt_coefficient_mu    0.572
_exptl_absorpt_correction_type   numerical
_exptl_absorpt_correction_T_min  0.9242
_exptl_absorpt_correction_T_max  0.9345
_exptl_absorpt_process_details   'X-red 32'

_exptl_special_details           
;
?
;

_diffrn_ambient_temperature      296(2)
_diffrn_radiation_wavelength     0.71073
_diffrn_radiation_type           MoK\a
_diffrn_radiation_source         'fine-focus sealed tube'
_diffrn_radiation_monochromator  graphite
_diffrn_measurement_device_type  'STOE IPDS 2'
_diffrn_measurement_method       'omega scans'
_diffrn_detector_area_resol_mean ?
_diffrn_reflns_number            10328
_diffrn_reflns_av_R_equivalents  0.0505
_diffrn_reflns_av_sigmaI/netI    0.0721
_diffrn_reflns_limit_h_min       -13
_diffrn_reflns_limit_h_max       13
_diffrn_reflns_limit_k_min       -13
_diffrn_reflns_limit_k_max       14
_diffrn_reflns_limit_l_min       -14
_diffrn_reflns_limit_l_max       14
_diffrn_reflns_theta_min         1.71
_diffrn_reflns_theta_max         24.58
_reflns_number_total             5085
_reflns_number_gt                2918
_reflns_threshold_expression     >2sigma(I)

_computing_data_collection       X-Area
_computing_cell_refinement       X-Area
_computing_data_reduction        X-Area
_computing_structure_solution    'SHELXS-97 (Sheldrick, 2008)'
_computing_structure_refinement  'SHELXL-97 (Sheldrick, 2008)'
_computing_molecular_graphics    'Diamond 3.2'
_computing_publication_material  enCIFer

_refine_special_details          
;
Refinement of F^2^ against ALL reflections. The weighted R-factor wR and
goodness of fit S are based on F^2^, conventional R-factors R are based
on F, with F set to zero for negative F^2^. The threshold expression of
F^2^ > 2sigma(F^2^) is used only for calculating R-factors(gt) etc. and is
not relevant to the choice of reflections for refinement. R-factors based
on F^2^ are statistically about twice as large as those based on F, and R-
factors based on ALL data will be even larger.
;

_refine_ls_structure_factor_coef Fsqd
_refine_ls_matrix_type           full
_refine_ls_weighting_scheme      calc
_refine_ls_weighting_details     
'calc w=1/[\s^2^(Fo^2^)+(0.0874P)^2^+0.0000P] where P=(Fo^2^+2Fc^2^)/3'
_atom_sites_solution_primary     direct
_atom_sites_solution_secondary   difmap
_atom_sites_solution_hydrogens   geom
_refine_ls_hydrogen_treatment    constr
_refine_ls_extinction_method     none
_refine_ls_extinction_coef       ?
_refine_ls_number_reflns         5085
_refine_ls_number_parameters     298
_refine_ls_number_restraints     1
_refine_ls_R_factor_all          0.0881
_refine_ls_R_factor_gt           0.0593
_refine_ls_wR_factor_ref         0.1661
_refine_ls_wR_factor_gt          0.1582
_refine_ls_goodness_of_fit_ref   0.952
_refine_ls_restrained_S_all      0.962
_refine_ls_shift/su_max          0.000
_refine_ls_shift/su_mean         0.000

loop_
_atom_site_label
_atom_site_type_symbol
_atom_site_fract_x
_atom_site_fract_y
_atom_site_fract_z
_atom_site_U_iso_or_equiv
_atom_site_adp_type
_atom_site_occupancy
_atom_site_symmetry_multiplicity
_atom_site_calc_flag
_atom_site_refinement_flags
_atom_site_disorder_assembly
_atom_site_disorder_group
Co1 Co 0.26249(6) 0.12335(6) 0.39460(5) 0.0685(3) Uani 1 1 d . . .
N1 N 0.2998(3) 0.1553(3) 0.5298(3) 0.0700(10) Uani 1 1 d . . .
N2 N 0.3185(3) 0.2415(3) 0.6481(3) 0.0688(10) Uani 1 1 d . . .
N3 N 0.0805(3) 0.1968(3) 0.3665(3) 0.0717(10) Uani 1 1 d . . .
N4 N -0.1089(3) 0.3357(4) 0.3299(3) 0.0710(10) Uani 1 1 d . . .
O1 O 0.3161(3) -0.0618(3) 0.4702(3) 0.0832(9) Uani 1 1 d . . .
O2 O 0.2657(4) -0.0720(4) 0.3166(4) 0.1101(13) Uani 1 1 d . . .
O3 O 0.3786(3) 0.1636(3) 0.2717(3) 0.0814(9) Uani 1 1 d . . .
O4 O 0.2528(3) 0.3481(3) 0.2832(3) 0.0875(10) Uani 1 1 d . . .
C1 C 0.3170(5) -0.1235(5) 0.4091(5) 0.0809(14) Uani 1 1 d . . .
C2 C 0.3871(5) -0.2650(5) 0.4530(5) 0.0896(16) Uani 1 1 d . . .
C3 C 0.4690(5) -0.3158(5) 0.5463(6) 0.120(2) Uani 1 1 d . . .
H3 H 0.4727 -0.2591 0.5774 0.143 Uiso 1 1 calc R . .
C4 C 0.5418(6) -0.4400(7) 0.5930(6) 0.125(2) Uani 1 1 d . . .
H4 H 0.5919 -0.4675 0.6546 0.150 Uiso 1 1 calc R . .
C5 C 0.5380(5) -0.5212(5) 0.5460(4) 0.0907(16) Uani 1 1 d D . .
C6 C 0.6154(6) -0.6533(5) 0.5917(6) 0.124(2) Uani 1 1 d D . .
H6 H 0.6669 -0.6810 0.6523 0.149 Uiso 1 1 calc R . .
C7 C 0.3444(5) 0.2829(5) 0.2415(4) 0.0732(12) Uani 1 1 d . . .
C8 C 0.4189(4) 0.3469(4) 0.1534(4) 0.0683(12) Uani 1 1 d . . .
C9 C 0.5363(4) 0.2742(5) 0.1241(4) 0.0759(13) Uani 1 1 d . . .
H9 H 0.5672 0.1866 0.1598 0.091 Uiso 1 1 calc R . .
C10 C 0.6049(4) 0.3301(4) 0.0446(4) 0.0751(12) Uani 1 1 d . . .
H10 H 0.6828 0.2811 0.0274 0.090 Uiso 1 1 calc R . .
C11 C 0.5578(4) 0.4629(4) -0.0119(3) 0.0629(11) Uani 1 1 d . . .
C12 C 0.6260(4) 0.5255(5) -0.0984(4) 0.0732(12) Uani 1 1 d . . .
H12 H 0.7033 0.4771 -0.1175 0.088 Uiso 1 1 calc R . .
C13 C 0.2705(4) 0.2625(4) 0.5490(4) 0.0705(12) Uani 1 1 d . . .
H13 H 0.2232 0.3420 0.5010 0.085 Uiso 1 1 calc R . .
C14 C 0.3693(5) 0.0633(5) 0.6180(4) 0.0917(16) Uani 1 1 d . . .
H14 H 0.4024 -0.0227 0.6272 0.110 Uiso 1 1 calc R . .
C15 C 0.3839(5) 0.1140(5) 0.6915(5) 0.0955(17) Uani 1 1 d . . .
H15 H 0.4292 0.0707 0.7579 0.115 Uiso 1 1 calc R . .
C16 C 0.3065(4) 0.3367(4) 0.6936(4) 0.0667(11) Uani 1 1 d . . .
C17 C 0.3910(4) 0.3086(5) 0.7736(4) 0.0887(15) Uani 1 1 d . . .
H17 H 0.4519 0.2282 0.7987 0.106 Uiso 1 1 calc R . .
C18 C 0.2147(4) 0.4533(4) 0.6577(4) 0.0662(11) Uani 1 1 d . . .
H18 H 0.1588 0.4719 0.6035 0.079 Uiso 1 1 calc R . .
C19 C 0.0039(5) 0.1332(5) 0.3743(5) 0.0860(14) Uani 1 1 d . . .
H19 H 0.0284 0.0459 0.3919 0.103 Uiso 1 1 calc R . .
C20 C -0.1115(5) 0.2167(5) 0.3525(5) 0.0876(15) Uani 1 1 d . . .
H20 H -0.1807 0.1979 0.3525 0.105 Uiso 1 1 calc R . .
C21 C 0.0096(4) 0.3176(4) 0.3405(4) 0.0731(12) Uani 1 1 d . . .
H21 H 0.0377 0.3823 0.3307 0.088 Uiso 1 1 calc R . .
C22 C -0.2062(4) 0.4563(4) 0.2962(4) 0.0689(12) Uani 1 1 d . . .
C23 C -0.2926(5) 0.4823(5) 0.2183(5) 0.0934(16) Uani 1 1 d . . .
H23 H -0.2881 0.4206 0.1895 0.112 Uiso 1 1 calc R . .
C24 C -0.3844(5) 0.5999(6) 0.1843(5) 0.1006(18) Uani 1 1 d . . .
H24 H -0.4425 0.6179 0.1324 0.121 Uiso 1 1 calc R . .

loop_
_atom_site_aniso_label
_atom_site_aniso_U_11
_atom_site_aniso_U_22
_atom_site_aniso_U_33
_atom_site_aniso_U_23
_atom_site_aniso_U_13
_atom_site_aniso_U_12
Co1 0.0725(4) 0.0496(4) 0.0769(4) -0.0220(3) 0.0011(3) -0.0154(3)
N1 0.070(2) 0.057(2) 0.073(2) -0.0195(19) -0.0075(18) -0.0129(19)
N2 0.064(2) 0.061(2) 0.072(2) -0.0200(19) -0.0083(18) -0.0122(18)
N3 0.069(2) 0.055(2) 0.091(3) -0.031(2) 0.0054(19) -0.0187(19)
N4 0.066(2) 0.064(2) 0.091(3) -0.037(2) 0.0000(19) -0.0224(19)
O1 0.092(2) 0.0539(19) 0.096(2) -0.0264(18) 0.0020(18) -0.0194(17)
O2 0.125(3) 0.068(2) 0.126(3) -0.045(2) -0.016(3) -0.007(2)
O3 0.090(2) 0.061(2) 0.089(2) -0.0173(17) 0.0062(17) -0.0323(18)
O4 0.086(2) 0.076(2) 0.089(2) -0.0215(18) 0.0124(19) -0.0288(19)
C1 0.074(3) 0.050(3) 0.108(4) -0.026(3) 0.012(3) -0.017(2)
C2 0.081(3) 0.046(3) 0.124(4) -0.024(3) 0.027(3) -0.019(3)
C3 0.090(4) 0.058(3) 0.151(6) -0.009(4) 0.016(4) 0.003(3)
C4 0.125(5) 0.105(5) 0.147(6) -0.048(5) 0.017(4) -0.043(4)
C5 0.091(4) 0.107(4) 0.106(4) -0.065(4) 0.020(3) -0.049(3)
C6 0.143(6) 0.060(3) 0.152(6) -0.051(4) 0.050(4) -0.022(4)
C7 0.078(3) 0.074(3) 0.067(3) -0.016(3) -0.002(2) -0.033(3)
C8 0.072(3) 0.064(3) 0.067(3) -0.020(2) -0.012(2) -0.022(2)
C9 0.075(3) 0.061(3) 0.078(3) -0.020(2) -0.005(2) -0.014(2)
C10 0.075(3) 0.061(3) 0.081(3) -0.020(2) 0.004(2) -0.021(2)
C11 0.069(3) 0.059(3) 0.063(2) -0.024(2) -0.006(2) -0.021(2)
C12 0.068(3) 0.073(3) 0.077(3) -0.033(3) -0.006(2) -0.015(2)
C13 0.072(3) 0.050(3) 0.080(3) -0.021(2) -0.004(2) -0.012(2)
C14 0.103(4) 0.059(3) 0.092(4) -0.021(3) -0.023(3) -0.005(3)
C15 0.106(4) 0.063(3) 0.093(4) -0.020(3) -0.027(3) -0.002(3)
C16 0.060(3) 0.063(3) 0.072(3) -0.024(2) -0.005(2) -0.016(2)
C17 0.073(3) 0.086(4) 0.092(4) -0.028(3) -0.017(3) -0.009(3)
C18 0.060(3) 0.063(3) 0.078(3) -0.028(2) -0.009(2) -0.019(2)
C19 0.082(3) 0.062(3) 0.118(4) -0.036(3) 0.004(3) -0.025(3)
C20 0.082(4) 0.075(4) 0.121(4) -0.043(3) 0.010(3) -0.039(3)
C21 0.068(3) 0.059(3) 0.097(3) -0.033(3) -0.003(2) -0.021(2)
C22 0.057(2) 0.067(3) 0.081(3) -0.026(2) -0.004(2) -0.018(2)
C23 0.097(4) 0.090(4) 0.107(4) -0.048(3) -0.019(3) -0.029(3)
C24 0.083(4) 0.105(5) 0.112(4) -0.050(4) -0.032(3) -0.010(3)

_geom_special_details            
;
All esds (except the esd in the dihedral angle between two l.s. planes)
are estimated using the full covariance matrix. The cell esds are taken
into account individually in the estimation of esds in distances, angles
and torsion angles; correlations between esds in cell parameters are only
used when they are defined by crystal symmetry. An approximate (isotropic)
treatment of cell esds is used for estimating esds involving l.s. planes.
;

loop_
_geom_bond_atom_site_label_1
_geom_bond_atom_site_label_2
_geom_bond_distance
_geom_bond_site_symmetry_2
_geom_bond_publ_flag
Co1 O1 1.969(3) . ?
Co1 O3 1.986(3) . ?
Co1 N3 2.011(4) . ?
Co1 N1 2.039(4) . ?
N1 C13 1.318(5) . ?
N1 C14 1.348(6) . ?
N2 C13 1.356(5) . ?
N2 C15 1.367(6) . ?
N2 C16 1.428(5) . ?
N3 C21 1.317(5) . ?
N3 C19 1.376(6) . ?
N4 C21 1.350(5) . ?
N4 C20 1.381(6) . ?
N4 C22 1.423(5) . ?
O1 C1 1.261(6) . ?
O2 C1 1.232(6) . ?
O3 C7 1.262(6) . ?
O4 C7 1.251(6) . ?
C1 C2 1.509(7) . ?
C2 C6 1.324(8) 2_646 ?
C2 C3 1.435(9) . ?
C3 C4 1.361(8) . ?
C3 H3 0.9300 . ?
C4 C5 1.346(8) . ?
C4 H4 0.9300 . ?
C5 C5 1.394(10) 2_646 ?
C5 C6 1.442(4) . ?
C6 C2 1.324(8) 2_646 ?
C6 H6 0.9300 . ?
C7 C8 1.504(7) . ?
C8 C12 1.361(6) 2_665 ?
C8 C9 1.411(6) . ?
C9 C10 1.358(6) . ?
C9 H9 0.9300 . ?
C10 C11 1.414(6) . ?
C10 H10 0.9300 . ?
C11 C11 1.378(8) 2_665 ?
C11 C12 1.437(6) . ?
C12 C8 1.361(6) 2_665 ?
C12 H12 0.9300 . ?
C13 H13 0.9300 . ?
C14 C15 1.356(7) . ?
C14 H14 0.9300 . ?
C15 H15 0.9300 . ?
C16 C18 1.366(6) . ?
C16 C17 1.386(6) . ?
C17 C24 1.374(7) 2_566 ?
C17 H17 0.9300 . ?
C18 C22 1.390(6) 2_566 ?
C18 H18 0.9300 . ?
C19 C20 1.339(7) . ?
C19 H19 0.9300 . ?
C20 H20 0.9300 . ?
C21 H21 0.9300 . ?
C22 C18 1.390(6) 2_566 ?
C22 C23 1.392(6) . ?
C23 C24 1.373(7) . ?
C23 H23 0.9300 . ?
C24 C17 1.374(7) 2_566 ?
C24 H24 0.9300 . ?

loop_
_geom_angle_atom_site_label_1
_geom_angle_atom_site_label_2
_geom_angle_atom_site_label_3
_geom_angle
_geom_angle_site_symmetry_1
_geom_angle_site_symmetry_3
_geom_angle_publ_flag
O1 Co1 O3 109.68(14) . . ?
O1 Co1 N3 109.63(15) . . ?
O3 Co1 N3 121.06(15) . . ?
O1 Co1 N1 94.16(15) . . ?
O3 Co1 N1 108.70(14) . . ?
N3 Co1 N1 110.28(15) . . ?
C13 N1 C14 106.0(4) . . ?
C13 N1 Co1 130.2(3) . . ?
C14 N1 Co1 123.7(3) . . ?
C13 N2 C15 106.6(4) . . ?
C13 N2 C16 125.7(4) . . ?
C15 N2 C16 127.6(4) . . ?
C21 N3 C19 105.9(4) . . ?
C21 N3 Co1 126.0(3) . . ?
C19 N3 Co1 128.0(3) . . ?
C21 N4 C20 105.9(4) . . ?
C21 N4 C22 124.8(4) . . ?
C20 N4 C22 129.2(4) . . ?
C1 O1 Co1 115.2(3) . . ?
C7 O3 Co1 103.2(3) . . ?
O2 C1 O1 122.4(5) . . ?
O2 C1 C2 120.7(5) . . ?
O1 C1 C2 116.9(5) . . ?
C6 C2 C3 116.4(5) 2_646 . ?
C6 C2 C1 125.2(6) 2_646 . ?
C3 C2 C1 118.3(5) . . ?
C4 C3 C2 125.5(7) . . ?
C4 C3 H3 117.2 . . ?
C2 C3 H3 117.2 . . ?
C5 C4 C3 116.9(7) . . ?
C5 C4 H4 121.5 . . ?
C3 C4 H4 121.5 . . ?
C4 C5 C5 121.0(7) . 2_646 ?
C4 C5 C6 118.7(6) . . ?
C5 C5 C6 120.3(6) 2_646 . ?
C2 C6 C5 119.8(7) 2_646 . ?
C2 C6 H6 120.1 2_646 . ?
C5 C6 H6 120.1 . . ?
O4 C7 O3 122.4(5) . . ?
O4 C7 C8 119.6(5) . . ?
O3 C7 C8 118.0(5) . . ?
C12 C8 C9 118.6(5) 2_665 . ?
C12 C8 C7 121.2(4) 2_665 . ?
C9 C8 C7 120.2(4) . . ?
C10 C9 C8 121.1(5) . . ?
C10 C9 H9 119.4 . . ?
C8 C9 H9 119.4 . . ?
C9 C10 C11 119.9(4) . . ?
C9 C10 H10 120.0 . . ?
C11 C10 H10 120.0 . . ?
C11 C11 C10 120.9(5) 2_665 . ?
C11 C11 C12 117.3(5) 2_665 . ?
C10 C11 C12 121.8(4) . . ?
C8 C12 C11 122.1(4) 2_665 . ?
C8 C12 H12 118.9 2_665 . ?
C11 C12 H12 118.9 . . ?
N1 C13 N2 111.0(4) . . ?
N1 C13 H13 124.5 . . ?
N2 C13 H13 124.5 . . ?
N1 C14 C15 110.3(5) . . ?
N1 C14 H14 124.8 . . ?
C15 C14 H14 124.8 . . ?
C14 C15 N2 106.1(4) . . ?
C14 C15 H15 127.0 . . ?
N2 C15 H15 127.0 . . ?
C18 C16 C17 121.0(4) . . ?
C18 C16 N2 120.5(4) . . ?
C17 C16 N2 118.6(4) . . ?
C24 C17 C16 119.7(5) 2_566 . ?
C24 C17 H17 120.1 2_566 . ?
C16 C17 H17 120.1 . . ?
C16 C18 C22 118.8(4) . 2_566 ?
C16 C18 H18 120.6 . . ?
C22 C18 H18 120.6 2_566 . ?
C20 C19 N3 109.3(4) . . ?
C20 C19 H19 125.4 . . ?
N3 C19 H19 125.4 . . ?
C19 C20 N4 107.3(4) . . ?
C19 C20 H20 126.3 . . ?
N4 C20 H20 126.3 . . ?
N3 C21 N4 111.5(4) . . ?
N3 C21 H21 124.2 . . ?
N4 C21 H21 124.2 . . ?
C18 C22 C23 120.7(4) 2_566 . ?
C18 C22 N4 119.7(4) 2_566 . ?
C23 C22 N4 119.7(4) . . ?
C24 C23 C22 119.2(5) . . ?
C24 C23 H23 120.4 . . ?
C22 C23 H23 120.4 . . ?
C23 C24 C17 120.5(5) . 2_566 ?
C23 C24 H24 119.7 . . ?
C17 C24 H24 119.7 2_566 . ?

loop_
_geom_torsion_atom_site_label_1
_geom_torsion_atom_site_label_2
_geom_torsion_atom_site_label_3
_geom_torsion_atom_site_label_4
_geom_torsion
_geom_torsion_site_symmetry_1
_geom_torsion_site_symmetry_2
_geom_torsion_site_symmetry_3
_geom_torsion_site_symmetry_4
_geom_torsion_publ_flag
O1 Co1 N1 C13 -168.9(4) . . . . ?
O3 Co1 N1 C13 78.7(4) . . . . ?
N3 Co1 N1 C13 -56.2(4) . . . . ?
O1 Co1 N1 C14 15.0(4) . . . . ?
O3 Co1 N1 C14 -97.4(4) . . . . ?
N3 Co1 N1 C14 127.7(4) . . . . ?
O1 Co1 N3 C21 164.4(4) . . . . ?
O3 Co1 N3 C21 -66.4(4) . . . . ?
N1 Co1 N3 C21 62.0(4) . . . . ?
O1 Co1 N3 C19 -12.9(5) . . . . ?
O3 Co1 N3 C19 116.3(4) . . . . ?
N1 Co1 N3 C19 -115.3(4) . . . . ?
O3 Co1 O1 C1 -63.0(4) . . . . ?
N3 Co1 O1 C1 72.2(4) . . . . ?
N1 Co1 O1 C1 -174.6(3) . . . . ?
O1 Co1 O3 C7 -171.2(3) . . . . ?
N3 Co1 O3 C7 59.6(3) . . . . ?
N1 Co1 O3 C7 -69.5(3) . . . . ?
Co1 O1 C1 O2 -13.8(7) . . . . ?
Co1 O1 C1 C2 164.6(3) . . . . ?
O2 C1 C2 C6 -11.0(9) . . . 2_646 ?
O1 C1 C2 C6 170.5(5) . . . 2_646 ?
O2 C1 C2 C3 165.0(5) . . . . ?
O1 C1 C2 C3 -13.5(7) . . . . ?
C6 C2 C3 C4 -1.2(9) 2_646 . . . ?
C1 C2 C3 C4 -177.5(6) . . . . ?
C2 C3 C4 C5 1.4(10) . . . . ?
C3 C4 C5 C5 -0.4(10) . . . 2_646 ?
C3 C4 C5 C6 178.9(6) . . . . ?
C4 C5 C6 C2 179.8(6) . . . 2_646 ?
C5 C5 C6 C2 -0.9(10) 2_646 . . 2_646 ?
Co1 O3 C7 O4 -3.2(5) . . . . ?
Co1 O3 C7 C8 175.7(3) . . . . ?
O4 C7 C8 C12 -16.0(6) . . . 2_665 ?
O3 C7 C8 C12 165.0(4) . . . 2_665 ?
O4 C7 C8 C9 165.7(4) . . . . ?
O3 C7 C8 C9 -13.3(6) . . . . ?
C12 C8 C9 C10 1.4(7) 2_665 . . . ?
C7 C8 C9 C10 179.8(4) . . . . ?
C8 C9 C10 C11 -1.3(7) . . . . ?
C9 C10 C11 C11 -0.5(7) . . . 2_665 ?
C9 C10 C11 C12 -178.4(4) . . . . ?
C11 C11 C12 C8 1.8(7) 2_665 . . 2_665 ?
C10 C11 C12 C8 179.8(4) . . . 2_665 ?
C14 N1 C13 N2 -0.6(5) . . . . ?
Co1 N1 C13 N2 -177.3(3) . . . . ?
C15 N2 C13 N1 1.5(5) . . . . ?
C16 N2 C13 N1 178.8(4) . . . . ?
C13 N1 C14 C15 -0.6(6) . . . . ?
Co1 N1 C14 C15 176.4(4) . . . . ?
N1 C14 C15 N2 1.5(7) . . . . ?
C13 N2 C15 C14 -1.8(6) . . . . ?
C16 N2 C15 C14 -179.0(4) . . . . ?
C13 N2 C16 C18 20.2(7) . . . . ?
C15 N2 C16 C18 -163.1(5) . . . . ?
C13 N2 C16 C17 -158.9(4) . . . . ?
C15 N2 C16 C17 17.8(7) . . . . ?
C18 C16 C17 C24 -1.6(8) . . . 