####################################################################### 
# 
# This file contains crystal structure data downloaded from the 
# Cambridge Structural Database (CSD) hosted by the Cambridge 
# Crystallographic Data Centre (CCDC).
# 
# Full information about CCDC data access policies and citation 
# guidelines are available at http://www.ccdc.cam.ac.uk/access/V1 
# 
# Audit and citation data items may have been added by the CCDC. 
# Please retain this information to preserve the provenance of 
# this file and to allow appropriate attribution of the data. 
# 
#######################################################################

data_3
_audit_block_doi                 10.5517/ccybw7c
_database_code_depnum_ccdc_archive 'CCDC 874393'
loop_
_citation_id
_citation_doi
_citation_year
1 10.1016/j.poly.2013.02.002 2013
2 10.1016/j.poly.2012.06.065 2012
_audit_update_record             
;
2012-04-02 deposited with the CCDC.	2024-07-11 downloaded from the CCDC.
;
#TrackingRef '10483_web_deposit_cif_file_2_VolodymyrBon_1333362452.LS150(3).cif'


_audit_creation_method           SHELXL-97
_chemical_name_systematic        
;
?
;
_chemical_name_common            ?
_chemical_melting_point          ?
_chemical_formula_moiety         ?
_chemical_formula_sum            'C20 H14 Co N4 O4'
_chemical_formula_weight         433.28

loop_
_atom_type_symbol
_atom_type_description
_atom_type_scat_dispersion_real
_atom_type_scat_dispersion_imag
_atom_type_scat_source
C C 0.0033 0.0016 'International Tables Vol C Tables 4.2.6.8 and 6.1.1.4'
H H 0.0000 0.0000 'International Tables Vol C Tables 4.2.6.8 and 6.1.1.4'
Co Co 0.3494 0.9721 'International Tables Vol C Tables 4.2.6.8 and 6.1.1.4'
N N 0.0061 0.0033 'International Tables Vol C Tables 4.2.6.8 and 6.1.1.4'
O O 0.0106 0.0060 'International Tables Vol C Tables 4.2.6.8 and 6.1.1.4'

_symmetry_cell_setting           Monoclinic
_symmetry_space_group_name_H-M   C2/c

loop_
_symmetry_equiv_pos_as_xyz
'x, y, z'
'-x, y, -z+1/2'
'x+1/2, y+1/2, z'
'-x+1/2, y+1/2, -z+1/2'
'-x, -y, -z'
'x, -y, z-1/2'
'-x+1/2, -y+1/2, -z'
'x+1/2, -y+1/2, z-1/2'

_cell_length_a                   21.745(5)
_cell_length_b                   14.720(6)
_cell_length_c                   15.091(3)
_cell_angle_alpha                90.00
_cell_angle_beta                 119.52(3)
_cell_angle_gamma                90.00
_cell_volume                     4203(2)
_cell_formula_units_Z            8
_cell_measurement_temperature    296(2)
_cell_measurement_reflns_used    ?
_cell_measurement_theta_min      ?
_cell_measurement_theta_max      ?

_exptl_crystal_description       stick
_exptl_crystal_colour            pink
_exptl_crystal_size_max          0.45
_exptl_crystal_size_mid          0.06
_exptl_crystal_size_min          0.06
_exptl_crystal_density_meas      ?
_exptl_crystal_density_diffrn    1.369
_exptl_crystal_density_method    'not measured'
_exptl_crystal_F_000             1768
_exptl_absorpt_coefficient_mu    0.848
_exptl_absorpt_correction_type   none
_exptl_absorpt_correction_T_min  ?
_exptl_absorpt_correction_T_max  ?
_exptl_absorpt_process_details   ?

_exptl_special_details           
;
?
;

_diffrn_ambient_temperature      296(2)
_diffrn_radiation_wavelength     0.71073
_diffrn_radiation_type           MoK\a
_diffrn_radiation_source         'fine-focus sealed tube'
_diffrn_radiation_monochromator  graphite
_diffrn_measurement_device_type  ?
_diffrn_measurement_method       ?
_diffrn_detector_area_resol_mean ?
_diffrn_reflns_number            9971
_diffrn_reflns_av_R_equivalents  0.0791
_diffrn_reflns_av_sigmaI/netI    0.1186
_diffrn_reflns_limit_h_min       -25
_diffrn_reflns_limit_h_max       25
_diffrn_reflns_limit_k_min       -17
_diffrn_reflns_limit_k_max       16
_diffrn_reflns_limit_l_min       -17
_diffrn_reflns_limit_l_max       13
_diffrn_reflns_theta_min         1.75
_diffrn_reflns_theta_max         24.61
_reflns_number_total             3524
_reflns_number_gt                1653
_reflns_threshold_expression     >2sigma(I)

_computing_data_collection       ?
_computing_cell_refinement       ?
_computing_data_reduction        ?
_computing_structure_solution    'SHELXS-97 (Sheldrick, 2008)'
_computing_structure_refinement  'SHELXL-97 (Sheldrick, 2008)'
_computing_molecular_graphics    ?
_computing_publication_material  ?

_refine_special_details          
;
Refinement of F^2^ against ALL reflections. The weighted R-factor wR and
goodness of fit S are based on F^2^, conventional R-factors R are based
on F, with F set to zero for negative F^2^. The threshold expression of
F^2^ > 2sigma(F^2^) is used only for calculating R-factors(gt) etc. and is
not relevant to the choice of reflections for refinement. R-factors based
on F^2^ are statistically about twice as large as those based on F, and R-
factors based on ALL data will be even larger.
;

_refine_ls_structure_factor_coef Fsqd
_refine_ls_matrix_type           full
_refine_ls_weighting_scheme      calc
_refine_ls_weighting_details     
'calc w=1/[\s^2^(Fo^2^)+(0.0369P)^2^+0.0000P] where P=(Fo^2^+2Fc^2^)/3'
_atom_sites_solution_primary     direct
_atom_sites_solution_secondary   difmap
_atom_sites_solution_hydrogens   geom
_refine_ls_hydrogen_treatment    constr
_refine_ls_extinction_method     none
_refine_ls_extinction_coef       ?
_refine_ls_number_reflns         3524
_refine_ls_number_parameters     262
_refine_ls_number_restraints     0
_refine_ls_R_factor_all          0.1063
_refine_ls_R_factor_gt           0.0447
_refine_ls_wR_factor_ref         0.0995
_refine_ls_wR_factor_gt          0.0877
_refine_ls_goodness_of_fit_ref   0.730
_refine_ls_restrained_S_all      0.730
_refine_ls_shift/su_max          0.000
_refine_ls_shift/su_mean         0.000

loop_
_atom_site_label
_atom_site_type_symbol
_atom_site_fract_x
_atom_site_fract_y
_atom_site_fract_z
_atom_site_U_iso_or_equiv
_atom_site_adp_type
_atom_site_occupancy
_atom_site_symmetry_multiplicity
_atom_site_calc_flag
_atom_site_refinement_flags
_atom_site_disorder_assembly
_atom_site_disorder_group
Co1 Co 0.23872(3) 0.25874(5) 0.63243(4) 0.0568(2) Uani 1 1 d . . .
N1 N 0.18871(17) 0.1294(3) 0.6004(3) 0.0648(11) Uani 1 1 d . . .
N2 N 0.11623(16) 0.0148(3) 0.5172(3) 0.0578(10) Uani 1 1 d . . .
N3 N -0.12342(16) 0.0117(3) 0.2284(3) 0.0563(10) Uani 1 1 d . . .
N4 N 0.29432(17) 0.3823(3) 0.6568(3) 0.0645(11) Uani 1 1 d . . .
O1 O 0.30165(17) 0.2286(3) 0.8026(2) 0.0826(10) Uani 1 1 d . . .
O2 O 0.19677(17) 0.2906(3) 0.7315(2) 0.0833(11) Uani 1 1 d . . .
O3 O 0.15075(13) 0.3038(2) 0.5075(2) 0.0645(9) Uani 1 1 d . . .
O4 O 0.30703(14) 0.1959(2) 0.5995(2) 0.0713(9) Uani 1 1 d . . .
C1 C 0.2497(3) 0.2581(4) 0.8080(4) 0.0687(13) Uani 1 1 d . . .
C2 C 0.2498(2) 0.2544(4) 0.9077(3) 0.0587(11) Uani 1 1 d . . .
C3 C 0.1965(2) 0.2941(3) 0.9175(3) 0.0653(13) Uani 1 1 d . . .
H3 H 0.1602 0.3244 0.8625 0.078 Uiso 1 1 calc R . .
C4 C 0.3036(2) 0.2106(3) 0.9905(4) 0.0661(13) Uani 1 1 d . . .
H4 H 0.3402 0.1840 0.9848 0.079 Uiso 1 1 calc R . .
C5 C 0.1435(2) 0.3055(3) 0.4219(3) 0.0555(12) Uani 1 1 d . . .
C6 C 0.06861(18) 0.3092(3) 0.3306(3) 0.0530(11) Uani 1 1 d . . .
C7 C 0.01166(19) 0.3101(3) 0.3492(3) 0.0601(12) Uani 1 1 d . . .
H7 H 0.0196 0.3104 0.4157 0.072 Uiso 1 1 calc R . .
C8 C 0.05652(19) 0.3105(3) 0.2321(3) 0.0623(13) Uani 1 1 d . . .
H8 H 0.0946 0.3116 0.2201 0.075 Uiso 1 1 calc R . .
C9 C 0.1260(2) 0.1051(4) 0.5231(4) 0.0633(13) Uani 1 1 d . . .
H9 H 0.0927 0.1462 0.4783 0.076 Uiso 1 1 calc R . .
C10 C 0.0553(2) -0.0334(4) 0.4455(3) 0.0563(12) Uani 1 1 d . . .
C11 C -0.00216(19) 0.0132(3) 0.3696(3) 0.0538(12) Uani 1 1 d . . .
H11 H -0.0005 0.0758 0.3631 0.065 Uiso 1 1 calc R . .
C12 C -0.0623(2) -0.0358(3) 0.3034(3) 0.0556(12) Uani 1 1 d . . .
C13 C -0.1788(2) -0.0254(4) 0.1405(4) 0.0689(14) Uani 1 1 d . . .
H13 H -0.1814 -0.0839 0.1155 0.083 Uiso 1 1 calc R . .
C14 C -0.0646(2) -0.1292(4) 0.3104(4) 0.0716(14) Uani 1 1 d . . .
H14 H -0.1048 -0.1615 0.2655 0.086 Uiso 1 1 calc R . .
C15 C -0.0060(3) -0.1738(4) 0.3855(4) 0.0873(16) Uani 1 1 d . . .
H15 H -0.0066 -0.2367 0.3906 0.105 Uiso 1 1 calc R . .
C16 C 0.0534(2) -0.1258(4) 0.4530(4) 0.0801(16) Uani 1 1 d . . .
H16 H 0.0923 -0.1564 0.5036 0.096 Uiso 1 1 calc R . .
C17 C 0.1785(2) -0.0207(4) 0.5949(4) 0.0734(15) Uani 1 1 d . . .
H17 H 0.1888 -0.0819 0.6101 0.088 Uiso 1 1 calc R . .
C18 C 0.2209(2) 0.0483(4) 0.6438(4) 0.0760(16) Uani 1 1 d . . .
H18 H 0.2660 0.0427 0.6995 0.091 Uiso 1 1 calc R . .
C19 C 0.3572(2) 0.4033(4) 0.7351(3) 0.0600(13) Uani 1 1 d . . .
H19 H 0.3845 0.3637 0.7881 0.072 Uiso 1 1 calc R . .
C20 C 0.2725(2) 0.4602(4) 0.5995(4) 0.0726(15) Uani 1 1 d . . .
H20 H 0.2294 0.4667 0.5399 0.087 Uiso 1 1 calc R . .

loop_
_atom_site_aniso_label
_atom_site_aniso_U_11
_atom_site_aniso_U_22
_atom_site_aniso_U_33
_atom_site_aniso_U_23
_atom_site_aniso_U_13
_atom_site_aniso_U_12
Co1 0.0399(3) 0.0857(5) 0.0414(3) -0.0023(4) 0.0175(2) -0.0030(3)
N1 0.049(2) 0.086(3) 0.055(2) 0.006(2) 0.0222(18) 0.000(2)
N2 0.052(2) 0.061(3) 0.057(2) 0.009(2) 0.0246(18) 0.0068(19)
N3 0.0463(19) 0.059(3) 0.061(2) -0.005(2) 0.0243(18) -0.0024(18)
N4 0.046(2) 0.089(3) 0.050(2) -0.003(2) 0.0176(18) -0.0040(19)
O1 0.088(2) 0.107(3) 0.071(2) -0.007(2) 0.0534(18) -0.005(2)
O2 0.076(2) 0.121(3) 0.0526(19) 0.001(2) 0.0317(17) -0.0131(19)
O3 0.0479(15) 0.100(3) 0.0415(17) -0.0048(17) 0.0191(13) -0.0024(15)
O4 0.0444(15) 0.105(3) 0.062(2) -0.0072(19) 0.0246(14) 0.0021(15)
C1 0.080(3) 0.075(4) 0.063(3) -0.012(3) 0.044(3) -0.025(3)
C2 0.063(2) 0.071(3) 0.045(2) -0.007(3) 0.029(2) -0.012(3)
C3 0.065(3) 0.078(4) 0.055(3) 0.000(3) 0.031(2) -0.007(2)
C4 0.069(3) 0.077(4) 0.066(3) -0.007(3) 0.044(3) -0.013(2)
C5 0.040(2) 0.068(3) 0.053(3) -0.001(3) 0.018(2) 0.0023(19)
C6 0.0343(19) 0.077(3) 0.044(2) 0.001(2) 0.0164(17) -0.0004(19)
C7 0.045(2) 0.092(4) 0.041(2) 0.003(2) 0.0192(19) -0.001(2)
C8 0.042(2) 0.098(4) 0.049(3) -0.005(3) 0.023(2) -0.002(2)
C9 0.046(2) 0.074(4) 0.061(3) 0.004(3) 0.019(2) 0.004(2)
C10 0.053(3) 0.061(4) 0.061(3) -0.007(3) 0.033(2) -0.004(2)
C11 0.046(2) 0.059(3) 0.057(3) -0.005(2) 0.026(2) -0.001(2)
C12 0.053(3) 0.058(3) 0.059(3) 0.001(3) 0.030(2) 0.001(2)
C13 0.063(3) 0.078(4) 0.056(3) -0.015(3) 0.022(2) -0.010(3)
C14 0.060(3) 0.066(4) 0.079(4) -0.006(3) 0.027(3) -0.011(2)
C15 0.081(3) 0.062(4) 0.102(4) 0.002(4) 0.031(3) 0.001(3)
C16 0.059(3) 0.075(4) 0.090(4) 0.003(3) 0.024(3) 0.007(3)
C17 0.054(3) 0.080(4) 0.070(4) 0.021(3) 0.018(2) 0.013(3)
C18 0.053(3) 0.097(4) 0.067(3) 0.011(3) 0.020(2) 0.000(3)
C19 0.049(2) 0.079(4) 0.050(3) 0.005(3) 0.021(2) 0.001(2)
C20 0.053(3) 0.093(4) 0.056(3) 0.014(3) 0.015(2) 0.010(3)

_geom_special_details            
;
All esds (except the esd in the dihedral angle between two l.s. planes)
are estimated using the full covariance matrix. The cell esds are taken
into account individually in the estimation of esds in distances, angles
and torsion angles; correlations between esds in cell parameters are only
used when they are defined by crystal symmetry. An approximate (isotropic)
treatment of cell esds is used for estimating esds involving l.s. planes.
;

loop_
_geom_bond_atom_site_label_1
_geom_bond_atom_site_label_2
_geom_bond_distance
_geom_bond_site_symmetry_2
_geom_bond_publ_flag
Co1 O4 2.009(3) . ?
Co1 O3 2.025(3) . ?
Co1 N4 2.113(4) . ?
Co1 N1 2.127(4) . ?
Co1 O2 2.152(3) . ?
Co1 O1 2.280(3) . ?
N1 C9 1.335(5) . ?
N1 C18 1.375(6) . ?
N2 C9 1.341(6) . ?
N2 C17 1.385(5) . ?
N2 C10 1.420(5) . ?
N3 C19 1.340(5) 8_455 ?
N3 C13 1.391(5) . ?
N3 C12 1.433(5) . ?
N4 C19 1.329(5) . ?
N4 C20 1.373(6) . ?
O1 C1 1.250(5) . ?
O2 C1 1.256(5) . ?
O3 C5 1.222(5) . ?
O4 C5 1.267(5) 7_556 ?
C1 C2 1.504(6) . ?
C2 C3 1.371(6) . ?
C2 C4 1.379(6) . ?
C3 C4 1.390(6) 7_557 ?
C3 H3 0.9300 . ?
C4 C3 1.390(6) 7_557 ?
C4 H4 0.9300 . ?
C5 O4 1.267(5) 7_556 ?
C5 C6 1.530(5) . ?
C6 C8 1.377(5) . ?
C6 C7 1.398(5) . ?
C7 C8 1.382(5) 2 ?
C7 H7 0.9300 . ?
C8 C7 1.382(5) 2 ?
C8 H8 0.9300 . ?
C9 H9 0.9300 . ?
C10 C16 1.367(7) . ?
C10 C11 1.390(6) . ?
C11 C12 1.393(6) . ?
C11 H11 0.9300 . ?
C12 C14 1.382(6) . ?
C13 C20 1.334(6) 8_455 ?
C13 H13 0.9300 . ?
C14 C15 1.384(6) . ?
C14 H14 0.9300 . ?
C15 C16 1.381(6) . ?
C15 H15 0.9300 . ?
C16 H16 0.9300 . ?
C17 C18 1.324(7) . ?
C17 H17 0.9300 . ?
C18 H18 0.9300 . ?
C19 N3 1.340(5) 8_556 ?
C19 H19 0.9300 . ?
C20 C13 1.334(6) 8_556 ?
C20 H20 0.9300 . ?

loop_
_geom_angle_atom_site_label_1
_geom_angle_atom_site_label_2
_geom_angle_atom_site_label_3
_geom_angle
_geom_angle_site_symmetry_1
_geom_angle_site_symmetry_3
_geom_angle_publ_flag
O4 Co1 O3 113.26(13) . . ?
O4 Co1 N4 90.56(14) . . ?
O3 Co1 N4 94.44(14) . . ?
O4 Co1 N1 83.65(14) . . ?
O3 Co1 N1 86.49(14) . . ?
N4 Co1 N1 174.01(15) . . ?
O4 Co1 O2 152.93(13) . . ?
O3 Co1 O2 92.64(13) . . ?
N4 Co1 O2 95.34(14) . . ?
N1 Co1 O2 90.52(14) . . ?
O4 Co1 O1 94.73(12) . . ?
O3 Co1 O1 151.60(12) . . ?
N4 Co1 O1 89.81(14) . . ?
N1 Co1 O1 92.18(14) . . ?
O2 Co1 O1 58.99(12) . . ?
C9 N1 C18 104.1(4) . . ?
C9 N1 Co1 128.8(4) . . ?
C18 N1 Co1 125.8(3) . . ?
C9 N2 C17 105.1(4) . . ?
C9 N2 C10 127.1(4) . . ?
C17 N2 C10 127.8(4) . . ?
C19 N3 C13 106.4(4) 8_455 . ?
C19 N3 C12 126.8(4) 8_455 . ?
C13 N3 C12 126.3(4) . . ?
C19 N4 C20 104.5(4) . . ?
C19 N4 Co1 127.2(3) . . ?
C20 N4 Co1 128.2(3) . . ?
C1 O1 Co1 86.9(3) . . ?
C1 O2 Co1 92.6(3) . . ?
C5 O3 Co1 124.2(3) . . ?
C5 O4 Co1 153.6(3) 7_556 . ?
O1 C1 O2 121.4(4) . . ?
O1 C1 C2 119.7(5) . . ?
O2 C1 C2 118.9(4) . . ?
C3 C2 C4 119.0(4) . . ?
C3 C2 C1 120.5(4) . . ?
C4 C2 C1 120.5(4) . . ?
C2 C3 C4 120.2(4) . 7_557 ?
C2 C3 H3 119.9 . . ?
C4 C3 H3 119.9 7_557 . ?
C2 C4 C3 120.7(4) . 7_557 ?
C2 C4 H4 119.6 . . ?
C3 C4 H4 119.6 7_557 . ?
O3 C5 O4 125.9(4) . 7_556 ?
O3 C5 C6 118.6(4) . . ?
O4 C5 C6 115.5(4) 7_556 . ?
C8 C6 C7 120.0(3) . . ?
C8 C6 C5 121.7(3) . . ?
C7 C6 C5 118.3(4) . . ?
C8 C7 C6 119.4(4) 2 . ?
C8 C7 H7 120.3 2 . ?
C6 C7 H7 120.3 . . ?
C6 C8 C7 120.6(4) . 2 ?
C6 C8 H8 119.7 . . ?
C7 C8 H8 119.7 2 . ?
N1 C9 N2 112.6(4) . . ?
N1 C9 H9 123.7 . . ?
N2 C9 H9 123.7 . . ?
C16 C10 C11 120.5(4) . . ?
C16 C10 N2 119.3(4) . . ?
C11 C10 N2 120.2(5) . . ?
C10 C11 C12 118.8(4) . . ?
C10 C11 H11 120.6 . . ?
C12 C11 H11 120.6 . . ?
C14 C12 C11 121.1(4) . . ?
C14 C12 N3 119.4(4) . . ?
C11 C12 N3 119.5(4) . . ?
C20 C13 N3 106.0(5) 8_455 . ?
C20 C13 H13 127.0 8_455 . ?
N3 C13 H13 127.0 . . ?
C12 C14 C15 118.7(4) . . ?
C12 C14 H14 120.6 . . ?
C15 C14 H14 120.6 . . ?
C16 C15 C14 120.7(5) . . ?
C16 C15 H15 119.6 . . ?
C14 C15 H15 119.6 . . ?
C10 C16 C15 120.2(5) . . ?
C10 C16 H16 119.9 . . ?
C15 C16 H16 119.9 . . ?
C18 C17 N2 107.7(5) . . ?
C18 C17 H17 126.2 . . ?
N2 C17 H17 126.2 . . ?
C17 C18 N1 110.4(4) . . ?
C17 C18 H18 124.8 . . ?
N1 C18 H18 124.8 . . ?
N4 C19 N3 112.0(4) . 8_556 ?
N4 C19 H19 124.0 . . ?
N3 C19 H19 124.0 8_556 . ?
C13 C20 N4 111.1(4) 8_556 . ?
C13 C20 H20 124.5 8_556 . ?
N4 C20 H20 124.5 . . ?

loop_
_geom_torsion_atom_site_label_1
_geom_torsion_atom_site_label_2
_geom_torsion_atom_site_label_3
_geom_torsion_atom_site_label_4
_geom_torsion
_geom_torsion_site_symmetry_1
_geom_torsion_site_symmetry_2
_geom_torsion_site_symmetry_3
_geom_torsion_site_symmetry_4
_geom_torsion_publ_flag
O4 Co1 N1 C9 -112.1(4) . . . . ?
O3 Co1 N1 C9 1.8(4) . . . . ?
N4 Co1 N1 C9 -97.4(15) . . . . ?
O2 Co1 N1 C9 94.4(4) . . . . ?
O1 Co1 N1 C9 153.4(4) . . . . ?
O4 Co1 N1 C18 53.3(4) . . . . ?
O3 Co1 N1 C18 167.2(4) . . . . ?
N4 Co1 N1 C18 68.0(16) . . . . ?
O2 Co1 N1 C18 -100.2(4) . . . . ?
O1 Co1 N1 C18 -41.2(4) . . . . ?
O4 Co1 N4 C19 -72.3(4) . . . . ?
O3 Co1 N4 C19 174.3(4) . . . . ?
N1 Co1 N4 C19 -87.0(16) . . . . ?
O2 Co1 N4 C19 81.2(4) . . . . ?
O1 Co1 N4 C19 22.4(4) . . . . ?
O4 Co1 N4 C20 111.7(4) . . . . ?
O3 Co1 N4 C20 -1.7(4) . . . . ?
N1 Co1 N4 C20 97.0(15) . . . . ?
O2 Co1 N4 C20 -94.7(4) . . . . ?
O1 Co1 N4 C20 -153.6(4) . . . . ?
O4 Co1 O1 C1 -170.9(3) . . . . ?
O3 Co1 O1 C1 -0.5(5) . . . . ?
N4 Co1 O1 C1 98.5(3) . . . . ?
N1 Co1 O1 C1 -87.1(3) . . . . ?
O2 Co1 O1 C1 2.2(3) . . . . ?
O4 Co1 O2 C1 13.1(5) . . . . ?
O3 Co1 O2 C1 176.6(3) . . . . ?
N4 Co1 O2 C1 -88.7(3) . . . . ?
N1 Co1 O2 C1 90.1(3) . . . . ?
O1 Co1 O2 C1 -2.2(3) . . . . ?
O4 Co1 O3 C5 -10.4(4) . . . . ?
N4 Co1 O3 C5 82.2(4) . . . . ?
N1 Co1 O3 C5 -91.9(4) . . . . ?
O2 Co1 O3 C5 177.7(4) . . . . ?
O1 Co1 O3 C5 180.0(3) . . . . ?
O3 Co1 O4 C5 82.4(7) . . . 7_556 ?
N4 Co1 O4 C5 -12.7(7) . . . 7_556 ?
N1 Co1 O4 C5 165.8(7) . . . 7_556 ?
O2 Co1 O4 C5 -115.6(7) . . . 7_556 ?
O1 Co1 O4 C5 -102.6(7) . . . 7_556 ?
Co1 O1 C1 O2 -3.7(5) . . . . ?
Co1 O1 C1 C2 176.0(4) . . . . ?
Co1 O2 C1 O1 3.9(5) . . . . ?
Co1 O2 C1 C2 -175.7(4) . . . . ?
O1 C1 C2 C3 173.7(5) . . . . ?
O2 C1 C2 C3 -6.6(7) . . . . ?
O1 C1 C2 C4 -6.5(7) . . . . ?
O2 C1 C2 C4 173.2(5) . . . . ?
C4 C2 C3 C4 -0.6(8) . . . 7_557 ?
C1 C2 C3 C4 179.1(4) . . . 7_557 ?
C3 C2 C4 C3 0.7(8) . . . 7_557 ?
C1 C2 C4 C3 -179.1(4) . . . 7_557 ?
Co1 O3 C5 O4 -20.3(7) . . . 7_556 ?
Co1 O3 C5 C6 159.2(3) . . . . ?
O3 C5 C6 C8 -179.4(5) . . . . ?
O4 C5 C6 C8 0.1(7) 7_556 . . . ?
O3 C5 C6 C7 -0.2(7) . . . . ?
O4 C5 C6 C7 179.4(4) 7_556 . . . ?
C8 C6 C7 C8 1.3(6) . . . 2 ?
C5 C6 C7 C8 -178.0(4) . . . 2 ?
C7 C6 C8 C7 -1.9(7) . . . 2 ?
C5 C6 C8 C7 177.4(4) . . . 2 ?
C18 N1 C9 N2 1.7(5) . . . . ?
Co1 N1 C9 N2 169.6(3) . . . . ?
C17 N2 C9 N1 -1.9(5) . . . . ?
C10 N2 C9 N1 178.9(4) . . . . ?
C9 N2 C10 C16 -177.6(5) . . . . ?
C17 N2 C10 C16 3.3(7) . . . . ?
C9 N2 C10 C11 1.3(7) . . . . ?
C17 N2 C10 C11 -177.7(5) . . . . ?
C16 C10 C11 C12 1.9(7) . . . . ?
N2 C10 C11 C12 -177.0(4) . . . . ?
C10 C11 C12 C14 -2.0(7) . . . . ?
C10 C11 C12 N3 176.6(4) . . . . ?
C19 N3 C12 C14 150.1(5) 8_455 . . . ?
C13 N3 C12 C14 -20.7(7) . . . . ?
C19 N3 C12 C11 -28.5(6) 8_455 . . . ?
C13 N3 C12 C11 160.6(4) . . . . ?
C19 N3 C13 C20 0.7(5) 8_455 . . 8_455 ?
C12 N3 C13 C20 173.1(4) . . . 8_455 ?
C11 C12 C14 C15 0.7(7) . . . . ?
N3 C12 C14 C15 -177.9(5) . . . . ?
C12 C14 C15 C16 0.7(8) . . . . ?
C11 C10 C16 C15 -0.5(8) . . . . ?
N2 C10 C16 C15 178.4(5) . . . . ?
C14 C15 C16 C10 -0.8(9) . . . . ?
C9 N2 C17 C18 1.3(6) . . . . ?
C10 N2 C17 C18 -179.5(4) . . . . ?
N2 C17 C18 N1 -0.3(6) . . . . ?
C9 N1 C18 C17 -0.8(6) . . . . ?
Co1 N1 C18 C17 -169.1(3) . . . . ?
C20 N4 C19 N3 -1.7(5) . . . 8_556 ?
Co1 N4 C19 N3 -178.5(3) . . . 8_556 ?
C19 N4 C20 C13 1.3(6) . . . 8_556 ?
Co1 N4 C20 C13 177.