####################################################################### 
# 
# This file contains crystal structure data downloaded from the 
# Cambridge Structural Database (CSD) hosted by the Cambridge 
# Crystallographic Data Centre (CCDC).
# 
# Full information about CCDC data access policies and citation 
# guidelines are available at http://www.ccdc.cam.ac.uk/access/V1 
# 
# Audit and citation data items may have been added by the CCDC. 
# Please retain this information to preserve the provenance of 
# this file and to allow appropriate attribution of the data. 
# 
#######################################################################

data_5(DUT58)
_audit_block_doi                 10.5517/ccybw9f
_database_code_depnum_ccdc_archive 'CCDC 874395'
loop_
_citation_id
_citation_doi
_citation_year
1 10.1016/j.poly.2013.02.002 2013
2 10.1016/j.poly.2012.06.065 2012
_audit_update_record             
;
2012-04-02 deposited with the CCDC.	2024-07-11 downloaded from the CCDC.
;
#TrackingRef '10485_web_deposit_cif_file_4_VolodymyrBon_1333362452.LS140(5)_DUT58.cif'


_audit_creation_method           SHELXL-97
_chemical_name_systematic        
;
?
;
_chemical_name_common            ?
_chemical_melting_point          ?
_chemical_formula_moiety         ?
_chemical_formula_sum            'C57 H41 Co3 N5 O13'
_chemical_formula_weight         1180.74

loop_
_atom_type_symbol
_atom_type_description
_atom_type_scat_dispersion_real
_atom_type_scat_dispersion_imag
_atom_type_scat_source
C C 0.0033 0.0016 'International Tables Vol C Tables 4.2.6.8 and 6.1.1.4'
H H 0.0000 0.0000 'International Tables Vol C Tables 4.2.6.8 and 6.1.1.4'
Co Co 0.3494 0.9721 'International Tables Vol C Tables 4.2.6.8 and 6.1.1.4'
N N 0.0061 0.0033 'International Tables Vol C Tables 4.2.6.8 and 6.1.1.4'
O O 0.0106 0.0060 'International Tables Vol C Tables 4.2.6.8 and 6.1.1.4'

_symmetry_cell_setting           Monoclinic
_symmetry_space_group_name_H-M   C2/c

loop_
_symmetry_equiv_pos_as_xyz
'x, y, z'
'-x, y, -z+1/2'
'x+1/2, y+1/2, z'
'-x+1/2, y+1/2, -z+1/2'
'-x, -y, -z'
'x, -y, z-1/2'
'-x+1/2, -y+1/2, -z'
'x+1/2, -y+1/2, z-1/2'

_cell_length_a                   44.781(9)
_cell_length_b                   13.959(3)
_cell_length_c                   26.181(5)
_cell_angle_alpha                90.00
_cell_angle_beta                 119.71(3)
_cell_angle_gamma                90.00
_cell_volume                     14214(5)
_cell_formula_units_Z            8
_cell_measurement_temperature    296(2)
_cell_measurement_reflns_used    ?
_cell_measurement_theta_min      ?
_cell_measurement_theta_max      ?

_exptl_crystal_description       block
_exptl_crystal_colour            violet
_exptl_crystal_size_max          0.12
_exptl_crystal_size_mid          0.10
_exptl_crystal_size_min          0.08
_exptl_crystal_density_meas      ?
_exptl_crystal_density_diffrn    1.103
_exptl_crystal_density_method    'not measured'
_exptl_crystal_F_000             4824
_exptl_absorpt_coefficient_mu    0.745
_exptl_absorpt_correction_type   none
_exptl_absorpt_correction_T_min  ?
_exptl_absorpt_correction_T_max  ?
_exptl_absorpt_process_details   ?

_exptl_special_details           
;
?
;

_diffrn_ambient_temperature      296(2)
_diffrn_radiation_wavelength     0.71073
_diffrn_radiation_type           MoK\a
_diffrn_radiation_source         'fine-focus sealed tube'
_diffrn_radiation_monochromator  graphite
_diffrn_measurement_device_type  'STOE IPDS2'
_diffrn_measurement_method       '/w scans'
_diffrn_detector_area_resol_mean ?
_diffrn_reflns_number            46253
_diffrn_reflns_av_R_equivalents  0.1960
_diffrn_reflns_av_sigmaI/netI    0.2371
_diffrn_reflns_limit_h_min       -50
_diffrn_reflns_limit_h_max       52
_diffrn_reflns_limit_k_min       -16
_diffrn_reflns_limit_k_max       16
_diffrn_reflns_limit_l_min       -30
_diffrn_reflns_limit_l_max       30
_diffrn_reflns_theta_min         1.55
_diffrn_reflns_theta_max         24.62
_reflns_number_total             11911
_reflns_number_gt                4296
_reflns_threshold_expression     >2sigma(I)

_computing_data_collection       'X-Area 1.55'
_computing_cell_refinement       'X-Area 1.55'
_computing_data_reduction        X-Red32
_computing_structure_solution    'SHELXS-97 (Sheldrick, 2008)'
_computing_structure_refinement  'SHELXL-97 (Sheldrick, 2008)'
_computing_molecular_graphics    'Diamond 3.12'
_computing_publication_material  enCIFer

_refine_special_details          
;
Refinement of F^2^ against ALL reflections. The weighted R-factor wR and
goodness of fit S are based on F^2^, conventional R-factors R are based
on F, with F set to zero for negative F^2^. The threshold expression of
F^2^ > 2sigma(F^2^) is used only for calculating R-factors(gt) etc. and is
not relevant to the choice of reflections for refinement. R-factors based
on F^2^ are statistically about twice as large as those based on F, and R-
factors based on ALL data will be even larger.
;

_refine_ls_structure_factor_coef Fsqd
_refine_ls_matrix_type           full
_refine_ls_weighting_scheme      calc
_refine_ls_weighting_details     
'calc w=1/[\s^2^(Fo^2^)+(0.0351P)^2^+0.0000P] where P=(Fo^2^+2Fc^2^)/3'
_atom_sites_solution_primary     direct
_atom_sites_solution_secondary   difmap
_atom_sites_solution_hydrogens   geom
_refine_ls_hydrogen_treatment    constr
_refine_ls_extinction_method     none
_refine_ls_extinction_coef       ?
_refine_ls_number_reflns         11911
_refine_ls_number_parameters     705
_refine_ls_number_restraints     0
_refine_ls_R_factor_all          0.1279
_refine_ls_R_factor_gt           0.0587
_refine_ls_wR_factor_ref         0.1436
_refine_ls_wR_factor_gt          0.1301
_refine_ls_goodness_of_fit_ref   0.634
_refine_ls_restrained_S_all      0.634
_refine_ls_shift/su_max          0.001
_refine_ls_shift/su_mean         0.000

loop_
_atom_site_label
_atom_site_type_symbol
_atom_site_fract_x
_atom_site_fract_y
_atom_site_fract_z
_atom_site_U_iso_or_equiv
_atom_site_adp_type
_atom_site_occupancy
_atom_site_symmetry_multiplicity
_atom_site_calc_flag
_atom_site_refinement_flags
_atom_site_disorder_assembly
_atom_site_disorder_group
Co1 Co 0.37314(2) 0.24982(6) 0.24146(3) 0.0347(2) Uani 1 1 d . . .
Co2 Co 0.28308(2) 0.26669(6) 0.16527(3) 0.0385(2) Uani 1 1 d . . .
Co3 Co -0.04454(2) 0.27107(6) -0.19048(3) 0.0384(2) Uani 1 1 d . . .
N1 N 0.23217(13) 0.2396(4) 0.1150(2) 0.0520(13) Uani 1 1 d . . .
N2 N 0.17513(14) 0.2457(4) 0.0737(2) 0.0640(16) Uani 1 1 d . . .
N3 N 0.05633(15) 0.3208(5) -0.0612(3) 0.0714(19) Uani 1 1 d . . .
N4 N 0.00350(15) 0.3144(4) -0.1386(3) 0.0578(15) Uani 1 1 d . . .
N5 N 0.2564(3) 0.4514(6) 0.3050(4) 0.123(3) Uani 1 1 d . . .
O1 O 0.33274(12) 0.3493(3) 0.2004(2) 0.0516(12) Uani 1 1 d . . .
O2 O 0.28281(14) 0.4141(3) 0.1727(2) 0.0619(14) Uani 1 1 d . . .
O3 O 0.41461(11) 1.1437(3) 0.28327(17) 0.0426(11) Uani 1 1 d . . .
O4 O 0.44621(15) 1.0871(3) 0.2485(2) 0.0711(15) Uani 1 1 d . . .
O5 O 0.29356(12) 0.2106(3) 0.24088(19) 0.0587(13) Uani 1 1 d . . .
O6 O 0.34970(12) 0.1809(3) 0.28130(19) 0.0529(12) Uani 1 1 d . . .
O7 O 0.35078(12) -0.1635(3) 0.66930(19) 0.0510(12) Uani 1 1 d . . .
O8 O 0.29532(12) -0.1920(3) 0.61458(18) 0.0578(13) Uani 1 1 d . . .
O9 O 0.39789(12) 0.3175(3) 0.20259(19) 0.0533(12) Uani 1 1 d . . .
O10 O 0.45482(14) 0.3090(3) 0.24717(19) 0.0585(13) Uani 1 1 d . . .
O11 O 0.39656(14) 0.3369(3) 0.3143(2) 0.0609(14) Uani 1 1 d . . .
O12 O 0.45222(15) 0.3111(3) 0.3681(2) 0.0704(15) Uani 1 1 d . . .
O13 O 0.2147(2) 0.3513(6) 0.2430(3) 0.129(3) Uani 1 1 d . . .
C1 C 0.31477(17) 0.4228(5) 0.1930(3) 0.0393(15) Uani 1 1 d . . .
C2 C 0.33032(18) 0.5203(4) 0.2038(3) 0.0469(16) Uani 1 1 d . . .
C3 C 0.3615(2) 0.5345(5) 0.2125(4) 0.072(2) Uani 1 1 d . . .
H3 H 0.3747 0.4816 0.2144 0.087 Uiso 1 1 calc R . .
C4 C 0.3756(2) 0.6250(5) 0.2189(4) 0.085(3) Uani 1 1 d . . .
H4 H 0.3974 0.6326 0.2237 0.102 Uiso 1 1 calc R . .
C5 C 0.3565(2) 0.7050(4) 0.2183(3) 0.0577(19) Uani 1 1 d . . .
C6 C 0.3251(2) 0.6912(4) 0.2104(4) 0.067(2) Uani 1 1 d . . .
H6 H 0.3121 0.7440 0.2092 0.081 Uiso 1 1 calc R . .
C7 C 0.31118(19) 0.6006(4) 0.2039(3) 0.065(2) Uani 1 1 d . . .
H7 H 0.2895 0.5926 0.1997 0.078 Uiso 1 1 calc R . .
C8 C 0.37252(18) 0.8019(5) 0.2254(3) 0.0551(19) Uani 1 1 d . . .
C9 C 0.3614(2) 0.8783(5) 0.2463(3) 0.060(2) Uani 1 1 d . . .
H9 H 0.3433 0.8699 0.2538 0.073 Uiso 1 1 calc R . .
C10 C 0.3778(2) 0.9686(4) 0.2557(3) 0.058(2) Uani 1 1 d . . .
H10 H 0.3707 1.0186 0.2706 0.069 Uiso 1 1 calc R . .
C11 C 0.40359(18) 0.9839(4) 0.2436(3) 0.0451(16) Uani 1 1 d . . .
C12 C 0.42202(17) 1.0757(4) 0.2581(3) 0.0426(16) Uani 1 1 d . . .
C13 C 0.4135(2) 0.9101(5) 0.2198(4) 0.074(2) Uani 1 1 d . . .
H13 H 0.4301 0.9197 0.2089 0.088 Uiso 1 1 calc R . .
C14 C 0.3975(2) 0.8198(5) 0.2125(4) 0.085(3) Uani 1 1 d . . .
H14 H 0.4048 0.7698 0.1978 0.102 Uiso 1 1 calc R . .
C15 C 0.3220(2) 0.1779(4) 0.2805(3) 0.0459(17) Uani 1 1 d . . .
C16 C 0.32126(19) 0.1299(5) 0.3316(3) 0.0538(19) Uani 1 1 d . . .
C17 C 0.2922(2) 0.1265(6) 0.3354(3) 0.075(2) Uani 1 1 d . . .
H17 H 0.2720 0.1542 0.3062 0.090 Uiso 1 1 calc R . .
C18 C 0.2927(2) 0.0812(6) 0.3835(4) 0.088(3) Uani 1 1 d . . .
H18 H 0.2727 0.0796 0.3859 0.106 Uiso 1 1 calc R . .
C19 C 0.3218(2) 0.0393(5) 0.4270(3) 0.060(2) Uani 1 1 d . . .
C20 C 0.3499(2) 0.0416(7) 0.4209(4) 0.093(3) Uani 1 1 d . . .
H20 H 0.3697 0.0111 0.4491 0.112 Uiso 1 1 calc R . .
C21 C 0.3507(2) 0.0876(6) 0.3744(3) 0.085(3) Uani 1 1 d . . .
H21 H 0.3709 0.0896 0.3725 0.102 Uiso 1 1 calc R . .
C22 C 0.3210(2) -0.0101(5) 0.4776(3) 0.0551(19) Uani 1 1 d . . .
C23 C 0.2917(2) -0.0540(5) 0.4711(3) 0.061(2) Uani 1 1 d . . .
H23 H 0.2715 -0.0515 0.4350 0.073 Uiso 1 1 calc R . .
C24 C 0.2921(2) -0.1022(5) 0.5183(3) 0.062(2) Uani 1 1 d . . .
H24 H 0.2724 -0.1328 0.5136 0.074 Uiso 1 1 calc R . .
C25 C 0.32219(18) -0.1039(4) 0.5724(3) 0.0460(17) Uani 1 1 d . . .
C26 C 0.32309(19) -0.1573(4) 0.6232(3) 0.0442(16) Uani 1 1 d . . .
C27 C 0.3512(2) -0.0589(5) 0.5799(3) 0.063(2) Uani 1 1 d . . .
H27 H 0.3711 -0.0596 0.6165 0.075 Uiso 1 1 calc R . .
C28 C 0.3512(2) -0.0113(5) 0.5324(3) 0.068(2) Uani 1 1 d . . .
H28 H 0.3710 0.0188 0.5374 0.081 Uiso 1 1 calc R . .
C29 C 0.20606(16) 0.2728(5) 0.1196(3) 0.0552(18) Uani 1 1 d . . .
H29 H 0.2085 0.3105 0.1508 0.066 Uiso 1 1 calc R . .
C30 C 0.14223(18) 0.2707(7) 0.0637(3) 0.078(2) Uani 1 1 d . . .
C31 C 0.11563(17) 0.2826(5) 0.0079(3) 0.0604(19) Uani 1 1 d . . .
H31 H 0.1192 0.2728 -0.0238 0.073 Uiso 1 1 calc R . .
C32 C 0.0847(2) 0.3082(7) -0.0016(3) 0.086(3) Uani 1 1 d . . .
C33 C 0.02388(19) 0.2967(5) -0.0805(3) 0.0595(19) Uani 1 1 d . . .
H33 H 0.0160 0.2706 -0.0567 0.071 Uiso 1 1 calc R . .
C34 C 0.0262(2) 0.3520(5) -0.1548(4) 0.071(2) Uani 1 1 d . . .
H34 H 0.0200 0.3711 -0.1928 0.085 Uiso 1 1 calc R . .
C35 C 0.0586(2) 0.3575(6) -0.1082(3) 0.074(2) Uani 1 1 d . . .
H35 H 0.0782 0.3809 -0.1079 0.089 Uiso 1 1 calc R . .
C36 C 0.0768(3) 0.3175(12) 0.0437(4) 0.186(8) Uani 1 1 d . . .
H36 H 0.0548 0.3308 0.0367 0.223 Uiso 1 1 calc R . .
C37 C 0.1053(3) 0.3049(14) 0.1014(4) 0.224(10) Uani 1 1 d . . .
H37 H 0.1023 0.3159 0.1336 0.269 Uiso 1 1 calc R . .
C38 C 0.1363(2) 0.2777(12) 0.1109(4) 0.161(6) Uani 1 1 d . . .
H38 H 0.1538 0.2636 0.1488 0.194 Uiso 1 1 calc R . .
C39 C 0.1833(2) 0.1907(5) 0.0386(3) 0.068(2) Uani 1 1 d . . .
H39 H 0.1677 0.1610 0.0037 0.082 Uiso 1 1 calc R . .
C40 C 0.2173(2) 0.1876(5) 0.0633(3) 0.068(2) Uani 1 1 d . . .
H40 H 0.2293 0.1551 0.0481 0.081 Uiso 1 1 calc R . .
C41 C 0.42506(18) 0.3314(4) 0.2047(3) 0.0371(15) Uani 1 1 d . . .
C42 C 0.42649(18) 0.3789(4) 0.1535(3) 0.0455(17) Uani 1 1 d . . .
C43 C 0.4558(2) 0.3865(5) 0.1507(3) 0.061(2) Uani 1 1 d . . .
H43 H 0.4763 0.3647 0.1821 0.073 Uiso 1 1 calc R . .
C44 C 0.4561(2) 0.4255(5) 0.1029(3) 0.070(2) Uani 1 1 d . . .
H44 H 0.4763 0.4271 0.1011 0.083 Uiso 1 1 calc R . .
C45 C 0.4256(2) 0.4629(5) 0.0569(3) 0.059(2) Uani 1 1 d . . .
C46 C 0.3962(2) 0.4580(5) 0.0590(3) 0.069(2) Uani 1 1 d . . .
H46 H 0.3761 0.4828 0.0281 0.083 Uiso 1 1 calc R . .
C47 C 0.39532(19) 0.4159(4) 0.1075(3) 0.0544(19) Uani 1 1 d . . .
H47 H 0.3750 0.4127 0.1089 0.065 Uiso 1 1 calc R . .
C48 C 0.4264(2) 0.5063(6) 0.0046(3) 0.076(3) Uani 1 1 d . . .
C49 C 0.4542(3) 0.5508(7) 0.0099(3) 0.105(4) Uani 1 1 d . . .
H49 H 0.4741 0.5529 0.0465 0.126 Uiso 1 1 calc R . .
C50 C 0.3967(3) 0.5052(7) -0.0510(4) 0.103(3) Uani 1 1 d . . .
H50 H 0.3772 0.4714 -0.0573 0.123 Uiso 1 1 calc R . .
C51 C 0.4242(2) 0.3470(5) 0.3585(4) 0.0568(19) Uani 1 1 d . . .
C52 C 0.4254(2) 0.3989(5) 0.4095(3) 0.065(2) Uani 1 1 d . . .
C53 C 0.4542(2) 0.4059(7) 0.4617(4) 0.099(3) Uani 1 1 d . . .
H53 H 0.4747 0.3814 0.4659 0.119 Uiso 1 1 calc R . .
C54 C 0.3970(2) 0.4436(7) 0.4034(4) 0.102(4) Uani 1 1 d . . .
H54 H 0.3768 0.4403 0.3673 0.122 Uiso 1 1 calc R . .
C55 C 0.2416(4) 0.3933(10) 0.2629(6) 0.156(6) Uani 1 1 d . . .
H55 H 0.2539 0.3805 0.2435 0.187 Uiso 1 1 calc R . .
C56 C 0.2333(5) 0.4764(11) 0.3316(7) 0.215(8) Uani 1 1 d . . .
H56A H 0.2109 0.4492 0.3076 0.323 Uiso 1 1 calc R . .
H56B H 0.2313 0.5448 0.3329 0.323 Uiso 1 1 calc R . .
H56C H 0.2433 0.4509 0.3707 0.323 Uiso 1 1 calc R . .
C57 C 0.2863(4) 0.5084(12) 0.3225(7) 0.228(9) Uani 1 1 d . . .
H57A H 0.3002 0.5073 0.3645 0.343 Uiso 1 1 calc R . .
H57B H 0.2796 0.5731 0.3094 0.343 Uiso 1 1 calc R . .
H57C H 0.2992 0.4831 0.3053 0.343 Uiso 1 1 calc R . .

loop_
_atom_site_aniso_label
_atom_site_aniso_U_11
_atom_site_aniso_U_22
_atom_site_aniso_U_33
_atom_site_aniso_U_23
_atom_site_aniso_U_13
_atom_site_aniso_U_12
Co1 0.0420(5) 0.0330(4) 0.0296(4) -0.0013(3) 0.0183(4) -0.0020(3)
Co2 0.0463(5) 0.0365(4) 0.0305(4) -0.0009(4) 0.0174(4) -0.0009(4)
Co3 0.0440(5) 0.0420(5) 0.0280(4) 0.0011(4) 0.0171(4) 0.0036(4)
N1 0.048(3) 0.056(3) 0.046(3) -0.010(3) 0.018(3) -0.008(3)
N2 0.037(3) 0.088(4) 0.050(3) -0.016(3) 0.009(3) 0.003(3)
N3 0.030(4) 0.112(5) 0.051(4) -0.026(4) 0.004(3) -0.004(4)
N4 0.060(4) 0.059(3) 0.058(4) -0.007(3) 0.032(3) -0.002(3)
N5 0.149(9) 0.123(7) 0.104(7) -0.057(6) 0.067(7) -0.063(7)
O1 0.064(3) 0.035(2) 0.075(3) -0.001(2) 0.049(3) 0.002(2)
O2 0.079(4) 0.034(2) 0.070(3) 0.003(2) 0.034(3) 0.003(2)
O3 0.058(3) 0.037(2) 0.048(3) -0.0006(19) 0.037(2) 0.006(2)
O4 0.097(4) 0.050(3) 0.089(4) -0.015(3) 0.063(4) -0.018(3)
O5 0.052(3) 0.081(3) 0.040(3) 0.019(2) 0.020(2) 0.006(3)
O6 0.052(3) 0.061(3) 0.045(3) 0.014(2) 0.024(3) 0.009(2)
O7 0.054(3) 0.059(3) 0.033(3) 0.006(2) 0.016(3) -0.006(2)
O8 0.054(3) 0.077(3) 0.040(3) 0.019(2) 0.023(3) 0.005(3)
O9 0.052(3) 0.062(3) 0.053(3) 0.013(2) 0.030(3) -0.003(2)
O10 0.089(4) 0.060(3) 0.035(3) 0.003(2) 0.038(3) -0.005(3)
O11 0.064(4) 0.066(3) 0.034(3) -0.012(2) 0.010(3) 0.004(3)
O12 0.081(4) 0.084(3) 0.048(3) -0.027(3) 0.033(3) -0.002(3)
O13 0.149(8) 0.148(6) 0.112(6) -0.047(5) 0.081(6) -0.059(6)
C1 0.024(4) 0.058(4) 0.029(3) 0.002(3) 0.008(3) -0.011(3)
C2 0.040(4) 0.045(3) 0.054(4) -0.004(3) 0.021(4) -0.003(3)
C3 0.082(6) 0.035(4) 0.104(7) -0.005(4) 0.050(6) -0.008(4)
C4 0.073(6) 0.045(4) 0.133(8) 0.003(5) 0.047(6) -0.009(4)
C5 0.060(5) 0.039(4) 0.085(5) -0.008(4) 0.045(5) -0.004(4)
C6 0.064(5) 0.029(3) 0.103(6) -0.005(4) 0.038(5) -0.009(3)
C7 0.051(5) 0.048(4) 0.100(6) -0.003(4) 0.041(5) 0.003(4)
C8 0.047(5) 0.046(4) 0.073(5) -0.005(3) 0.031(4) -0.007(3)
C9 0.073(6) 0.052(4) 0.081(5) 0.003(4) 0.058(5) -0.004(4)
C10 0.079(6) 0.036(4) 0.060(5) 0.002(3) 0.036(5) 0.003(4)
C11 0.049(4) 0.044(3) 0.046(4) -0.004(3) 0.027(4) -0.006(3)
C12 0.042(4) 0.044(3) 0.051(4) 0.002(3) 0.030(4) -0.004(3)
C13 0.080(6) 0.053(4) 0.123(7) -0.024(4) 0.077(6) -0.025(4)
C14 0.093(7) 0.051(4) 0.131(8) -0.035(5) 0.070(6) -0.018(5)
C15 0.061(5) 0.054(4) 0.037(4) 0.003(3) 0.035(4) -0.003(4)
C16 0.052(5) 0.079(5) 0.038(4) 0.018(3) 0.028(4) -0.003(4)
C17 0.061(6) 0.120(6) 0.039(4) 0.036(4) 0.020(4) 0.010(5)
C18 0.063(6) 0.143(8) 0.069(6) 0.058(6) 0.040(5) 0.026(6)
C19 0.057(5) 0.089(5) 0.041(4) 0.022(4) 0.030(4) -0.001(4)
C20 0.068(6) 0.145(8) 0.072(6) 0.059(6) 0.039(5) 0.028(6)
C21 0.067(6) 0.140(7) 0.061(5) 0.059(5) 0.041(5) 0.028(6)
C22 0.062(5) 0.076(5) 0.029(4) 0.019(3) 0.023(4) 0.002(4)
C23 0.063(5) 0.083(5) 0.039(4) 0.012(4) 0.026(4) -0.013(4)
C24 0.067(5) 0.074(5) 0.041(4) 0.012(4) 0.025(4) -0.009(4)
C25 0.055(5) 0.055(4) 0.024(3) 0.009(3) 0.017(4) 0.004(4)
C26 0.044(4) 0.049(4) 0.050(4) 0.005(3) 0.031(4) -0.004(3)
C27 0.059(5) 0.090(5) 0.039(4) 0.015(4) 0.023(4) -0.003(4)
C28 0.062(5) 0.090(5) 0.055(5) 0.029(4) 0.032(5) 0.000(4)
C29 0.043(4) 0.089(5) 0.024(3) -0.003(3) 0.010(3) 0.015(4)
C30 0.043(4) 0.134(7) 0.051(4) -0.017(5) 0.019(4) 0.004(5)
C31 0.032(4) 0.084(5) 0.049(4) -0.015(4) 0.007(3) -0.005(4)
C32 0.041(5) 0.168(9) 0.030(4) -0.030(5) 0.002(4) 0.012(5)
C33 0.050(5) 0.095(5) 0.028(4) -0.007(4) 0.015(4) -0.002(4)
C34 0.065(6) 0.078(5) 0.071(6) 0.007(4) 0.036(5) -0.007(5)
C35 0.067(6) 0.105(6) 0.052(5) -0.004(4) 0.031(5) -0.018(5)
C36 0.059(6) 0.43(2) 0.054(6) -0.038(10) 0.015(6) 0.017(11)
C37 0.066(7) 0.54(3) 0.040(6) -0.071(11) 0.011(5) 0.039(13)
C38 0.055(6) 0.36(2) 0.055(6) -0.028(9) 0.020(5) 0.014(10)
C39 0.064(6) 0.076(5) 0.047(4) -0.023(4) 0.013(4) -0.005(4)
C40 0.051(5) 0.082(5) 0.053(5) -0.024(4) 0.013(4) -0.005(4)
C41 0.041(4) 0.041(3) 0.026(3) 0.011(3) 0.014(3) 0.002(3)
C42 0.057(5) 0.040(3) 0.044(4) 0.007(3) 0.029(4) -0.007(3)
C43 0.069(6) 0.068(4) 0.067(5) 0.009(4) 0.050(5) 0.005(4)
C44 0.075(6) 0.088(5) 0.064(5) 0.027(4) 0.048(5) 0.006(5)
C45 0.061(5) 0.081(5) 0.035(4) 0.022(4) 0.024(4) -0.007(4)
C46 0.066(6) 0.090(5) 0.048(5) 0.033(4) 0.026(4) -0.004(5)
C47 0.052(5) 0.066(4) 0.046(4) 0.013(3) 0.024(4) -0.004(4)
C48 0.082(6) 0.089(6) 0.048(5) 0.027(4) 0.026(5) -0.011(5)
C49 0.083(7) 0.166(9) 0.045(5) 0.051(5) 0.017(5) -0.033(7)
C50 0.084(7) 0.154(8) 0.055(6) 