####################################################################### 
# 
# This file contains crystal structure data downloaded from the 
# Cambridge Structural Database (CSD) hosted by the Cambridge 
# Crystallographic Data Centre (CCDC).
# 
# Full information about CCDC data access policies and citation 
# guidelines are available at http://www.ccdc.cam.ac.uk/access/V1 
# 
# Audit and citation data items may have been added by the CCDC. 
# Please retain this information to preserve the provenance of 
# this file and to allow appropriate attribution of the data. 
# 
#######################################################################

data_101001b
_audit_block_doi                 10.5517/ccxsg48
_database_code_depnum_ccdc_archive 'CCDC 857650'
loop_
_citation_id
_citation_doi
_citation_year
1 10.1021/cg201655n 2012
_audit_update_record             
;
2011-12-09 deposited with the CCDC.	2024-07-11 downloaded from the CCDC.
;
#TrackingRef 'Xie D.cif'


_audit_creation_method           SHELXL-97
_chemical_name_systematic        
;
?
;
_chemical_name_common            ?
_chemical_melting_point          ?
_chemical_formula_moiety         ?
_chemical_formula_sum            'C81 H75 Cd2 Cl4 N15 O6'
_chemical_formula_weight         1721.16

loop_
_atom_type_symbol
_atom_type_description
_atom_type_scat_dispersion_real
_atom_type_scat_dispersion_imag
_atom_type_scat_source
C C 0.0033 0.0016 'International Tables Vol C Tables 4.2.6.8 and 6.1.1.4'
H H 0.0000 0.0000 'International Tables Vol C Tables 4.2.6.8 and 6.1.1.4'
N N 0.0061 0.0033 'International Tables Vol C Tables 4.2.6.8 and 6.1.1.4'
O O 0.0106 0.0060 'International Tables Vol C Tables 4.2.6.8 and 6.1.1.4'
Cl Cl 0.1484 0.1585 'International Tables Vol C Tables 4.2.6.8 and 6.1.1.4'
Cd Cd -0.8075 1.2024 'International Tables Vol C Tables 4.2.6.8 and 6.1.1.4'

_symmetry_cell_setting           Monoclinic
_symmetry_space_group_name_H-M   P2(1)/c

loop_
_symmetry_equiv_pos_as_xyz
'x, y, z'
'-x, y+1/2, -z+1/2'
'-x, -y, -z'
'x, -y-1/2, z-1/2'

_cell_length_a                   20.613(2)
_cell_length_b                   12.7980(11)
_cell_length_c                   18.8901(17)
_cell_angle_alpha                90.00
_cell_angle_beta                 104.4500(10)
_cell_angle_gamma                90.00
_cell_volume                     4825.6(8)
_cell_formula_units_Z            2
_cell_measurement_temperature    298(2)
_cell_measurement_reflns_used    1984
_cell_measurement_theta_min      2.588
_cell_measurement_theta_max      18.795

_exptl_crystal_description       ?
_exptl_crystal_colour            ?
_exptl_crystal_size_max          0.42
_exptl_crystal_size_mid          0.28
_exptl_crystal_size_min          0.23
_exptl_crystal_density_meas      ?
_exptl_crystal_density_diffrn    1.185
_exptl_crystal_density_method    'not measured'
_exptl_crystal_F_000             1756
_exptl_absorpt_coefficient_mu    0.603
_exptl_absorpt_correction_type   multi-scan
_exptl_absorpt_correction_T_min  0.7859
_exptl_absorpt_correction_T_max  0.8738
_exptl_absorpt_process_details   sadabs

_exptl_special_details           
;
?
;

_diffrn_ambient_temperature      298(2)
_diffrn_radiation_wavelength     0.71073
_diffrn_radiation_type           MoK\a
_diffrn_radiation_source         'fine-focus sealed tube'
_diffrn_radiation_monochromator  graphite
_diffrn_measurement_device_type  'CCD area detector'
_diffrn_measurement_method       'phi and omega scans'
_diffrn_detector_area_resol_mean ?
_diffrn_standards_number         ?
_diffrn_standards_interval_count ?
_diffrn_standards_interval_time  ?
_diffrn_standards_decay_%        ?
_diffrn_reflns_number            24147
_diffrn_reflns_av_R_equivalents  0.0889
_diffrn_reflns_av_sigmaI/netI    0.1468
_diffrn_reflns_limit_h_min       -17
_diffrn_reflns_limit_h_max       24
_diffrn_reflns_limit_k_min       -13
_diffrn_reflns_limit_k_max       15
_diffrn_reflns_limit_l_min       -22
_diffrn_reflns_limit_l_max       22
_diffrn_reflns_theta_min         2.21
_diffrn_reflns_theta_max         25.02
_reflns_number_total             8493
_reflns_number_gt                3360
_reflns_threshold_expression     >2sigma(I)

_computing_data_collection       'Bruker SMART'
_computing_cell_refinement       'Bruker SMART'
_computing_data_reduction        'Bruker SHELXTL'
_computing_structure_solution    'SHELXS-97 (Sheldrick, 1990)'
_computing_structure_refinement  'SHELXL-97 (Sheldrick, 1997)'
_computing_molecular_graphics    'Bruker SHELXTL'
_computing_publication_material  'Bruker SHELXTL'

_refine_special_details          
;
Refinement of F^2^ against ALL reflections. The weighted R-factor wR and
goodness of fit S are based on F^2^, conventional R-factors R are based
on F, with F set to zero for negative F^2^. The threshold expression of
F^2^ > 2sigma(F^2^) is used only for calculating R-factors(gt) etc. and is
not relevant to the choice of reflections for refinement. R-factors based
on F^2^ are statistically about twice as large as those based on F, and R-
factors based on ALL data will be even larger.
;

_refine_ls_structure_factor_coef Fsqd
_refine_ls_matrix_type           full
_refine_ls_weighting_scheme      calc
_refine_ls_weighting_details     
'calc w=1/[\s^2^(Fo^2^)+(0.0932P)^2^+0.0000P] where P=(Fo^2^+2Fc^2^)/3'
_atom_sites_solution_primary     direct
_atom_sites_solution_secondary   difmap
_atom_sites_solution_hydrogens   geom
_refine_ls_hydrogen_treatment    constr
_refine_ls_extinction_method     none
_refine_ls_extinction_coef       ?
_refine_ls_number_reflns         8493
_refine_ls_number_parameters     568
_refine_ls_number_restraints     0
_refine_ls_R_factor_all          0.1661
_refine_ls_R_factor_gt           0.0761
_refine_ls_wR_factor_ref         0.2387
_refine_ls_wR_factor_gt          0.2096
_refine_ls_goodness_of_fit_ref   1.035
_refine_ls_restrained_S_all      1.035
_refine_ls_shift/su_max          0.001
_refine_ls_shift/su_mean         0.000

loop_
_atom_site_label
_atom_site_type_symbol
_atom_site_fract_x
_atom_site_fract_y
_atom_site_fract_z
_atom_site_U_iso_or_equiv
_atom_site_adp_type
_atom_site_occupancy
_atom_site_symmetry_multiplicity
_atom_site_calc_flag
_atom_site_refinement_flags
_atom_site_disorder_assembly
_atom_site_disorder_group
Cd1 Cd 0.29904(3) 0.49657(6) 0.92213(3) 0.0504(3) Uani 1 1 d . . .
Cl1 Cl 0.20733(13) 0.6421(2) 0.91340(15) 0.0722(8) Uani 1 1 d . . .
Cl2 Cl 0.39386(13) 0.3587(2) 0.93464(14) 0.0692(8) Uani 1 1 d . . .
N1 N 0.4516(4) 0.8141(6) 0.7446(4) 0.057(2) Uani 1 1 d . . .
N2 N 0.3553(4) 0.6080(6) 0.8572(4) 0.057(2) Uani 1 1 d . . .
N3 N 0.3600(4) 0.5721(7) 1.0356(4) 0.056(2) Uani 1 1 d . . .
N4 N 0.1359(4) 0.2946(6) 0.6067(4) 0.065(2) Uani 1 1 d . . .
N5 N 0.2330(4) 0.4204(6) 0.8118(4) 0.054(2) Uani 1 1 d . . .
N6 N 0.2417(4) 0.3840(6) 0.9867(4) 0.058(2) Uani 1 1 d . . .
N7 N 0.944(8) 0.817(9) 0.185(6) 0.32(5) Uani 0.50 1 d P . .
N8 N 0.827(6) 0.067(10) 0.352(8) 0.35(6) Uani 0.50 1 d P A 1
N9 N 0.687(6) -0.001(8) 0.137(6) 0.31(4) Uani 0.50 1 d P B 2
O1 O 0.991(3) 0.663(7) 0.184(4) 0.33(4) Uani 0.50 1 d P . .
O2 O 0.928(4) 0.111(4) 0.410(3) 0.35(4) Uani 0.50 1 d P A 1
O3 O 0.611(3) -0.076(6) 0.178(4) 0.33(3) Uani 0.50 1 d P B 2
O4 O 0.972(2) 0.472(4) 0.085(3) 0.35(3) Uani 0.50 1 d P . .
H4C H 0.9763 0.5330 0.1023 0.424 Uiso 0.50 1 d PR . .
H4D H 0.9307 0.4542 0.0768 0.424 Uiso 0.50 1 d PR . .
O5 O 0.878(2) 0.253(3) 0.270(2) 0.36(2) Uani 0.50 1 d P . .
H5C H 0.8692 0.2208 0.3056 0.427 Uiso 0.50 1 d PR . .
H5D H 0.9185 0.2410 0.2703 0.427 Uiso 0.50 1 d PR . .
O6 O 0.5110(13) 0.859(2) 0.0385(16) 0.230(13) Uani 0.50 1 d P . .
H6C H 0.5330 0.8905 0.0765 0.276 Uiso 0.50 1 d PR . .
H6D H 0.5293 0.7995 0.0370 0.276 Uiso 0.50 1 d PR . .
C1 C 0.6933(5) 1.0142(8) 0.8852(6) 0.071(3) Uani 1 1 d . . .
C2 C 0.7460(6) 1.0480(9) 0.9121(7) 0.078(3) Uani 1 1 d . . .
C3 C 0.8109(6) 1.0828(9) 0.9444(7) 0.086(4) Uani 1 1 d . . .
C4 C 0.8665(6) 1.1088(9) 0.9742(7) 0.086(4) Uani 1 1 d . . .
C5 C 0.6313(5) 0.9659(8) 0.8499(7) 0.068(3) Uani 1 1 d . . .
C6 C 0.6215(5) 0.9275(9) 0.7797(6) 0.071(3) Uani 1 1 d . . .
H6 H 0.6548 0.9367 0.7548 0.085 Uiso 1 1 calc R . .
C7 C 0.5640(5) 0.8762(8) 0.7462(6) 0.067(3) Uani 1 1 d . . .
H7 H 0.5588 0.8489 0.6995 0.081 Uiso 1 1 calc R . .
C8 C 0.5129(5) 0.8650(8) 0.7824(6) 0.060(3) Uani 1 1 d . . .
C9 C 0.5219(5) 0.9038(9) 0.8514(6) 0.074(3) Uani 1 1 d . . .
H9 H 0.4879 0.8968 0.8754 0.089 Uiso 1 1 calc R . .
C10 C 0.5798(5) 0.9526(9) 0.8855(6) 0.079(3) Uani 1 1 d . . .
H10 H 0.5853 0.9774 0.9329 0.094 Uiso 1 1 calc R . .
C11 C -0.0657(5) 0.3630(9) 0.5076(7) 0.071(3) Uani 1 1 d . . .
C12 C -0.0177(6) 0.3757(10) 0.4732(7) 0.085(4) Uani 1 1 d . . .
H12 H -0.0296 0.4002 0.4254 0.102 Uiso 1 1 calc R . .
C13 C 0.0499(5) 0.3545(9) 0.5047(6) 0.077(3) Uani 1 1 d . . .
H13 H 0.0818 0.3641 0.4782 0.092 Uiso 1 1 calc R . .
C14 C 0.0675(5) 0.3207(9) 0.5729(6) 0.068(3) Uani 1 1 d . . .
C15 C 0.0196(6) 0.3056(9) 0.6115(6) 0.086(4) Uani 1 1 d . . .
H15 H 0.0317 0.2784 0.6586 0.103 Uiso 1 1 calc R . .
C16 C -0.0463(6) 0.3310(10) 0.5798(7) 0.089(4) Uani 1 1 d . . .
H16 H -0.0779 0.3267 0.6073 0.107 Uiso 1 1 calc R . .
C17 C 0.3225(5) 0.6681(8) 0.8041(6) 0.066(3) Uani 1 1 d . . .
H17 H 0.2760 0.6645 0.7923 0.079 Uiso 1 1 calc R . .
C18 C 0.3511(5) 0.7362(8) 0.7642(5) 0.063(3) Uani 1 1 d . . .
H18 H 0.3249 0.7758 0.7265 0.075 Uiso 1 1 calc R . .
C19 C 0.4190(5) 0.7437(7) 0.7819(5) 0.052(2) Uani 1 1 d . . .
C20 C 0.4538(5) 0.6816(8) 0.8367(5) 0.059(3) Uani 1 1 d . . .
H20 H 0.5004 0.6840 0.8495 0.070 Uiso 1 1 calc R . .
C21 C 0.4218(5) 0.6169(8) 0.8726(5) 0.061(3) Uani 1 1 d . . .
H21 H 0.4473 0.5762 0.9102 0.073 Uiso 1 1 calc R . .
C22 C 0.3558(5) 0.6705(8) 1.0536(6) 0.069(3) Uani 1 1 d . . .
H22 H 0.3310 0.7151 1.0181 0.083 Uiso 1 1 calc R . .
C23 C 0.3852(5) 0.7122(8) 1.1202(6) 0.070(3) Uani 1 1 d . . .
H23 H 0.3816 0.7832 1.1290 0.084 Uiso 1 1 calc R . .
C24 C 0.4198(5) 0.6475(8) 1.1736(5) 0.054(2) Uani 1 1 d . . .
C25 C 0.4248(5) 0.5437(8) 1.1556(6) 0.066(3) Uani 1 1 d . . .
H25 H 0.4478 0.4967 1.1904 0.079 Uiso 1 1 calc R . .
C26 C 0.3958(5) 0.5111(8) 1.0870(5) 0.062(3) Uani 1 1 d . . .
H26 H 0.4014 0.4416 1.0753 0.074 Uiso 1 1 calc R . .
C27 C 0.1843(5) 0.4709(8) 0.7651(6) 0.062(3) Uani 1 1 d . . .
H27 H 0.1724 0.5371 0.7778 0.075 Uiso 1 1 calc R . .
C28 C 0.1509(5) 0.4299(8) 0.6990(6) 0.066(3) Uani 1 1 d . . .
H28 H 0.1160 0.4676 0.6693 0.079 Uiso 1 1 calc R . .
C29 C 0.1677(5) 0.3348(8) 0.6755(5) 0.060(3) Uani 1 1 d . . .
C30 C 0.2176(5) 0.2811(8) 0.7256(5) 0.065(3) Uani 1 1 d . . .
H30 H 0.2304 0.2146 0.7146 0.078 Uiso 1 1 calc R . .
C31 C 0.2474(5) 0.3266(8) 0.7907(5) 0.065(3) Uani 1 1 d . . .
H31 H 0.2805 0.2887 0.8229 0.077 Uiso 1 1 calc R . .
C32 C 0.1778(5) 0.3988(8) 0.9817(6) 0.074(3) Uani 1 1 d . . .
H32 H 0.1557 0.4495 0.9494 0.089 Uiso 1 1 calc R . .
C33 C 0.1414(5) 0.3443(9) 1.0212(6) 0.073(3) Uani 1 1 d . . .
H33 H 0.0967 0.3612 1.0170 0.088 Uiso 1 1 calc R . .
C34 C 0.1716(5) 0.2632(8) 1.0678(6) 0.063(3) Uani 1 1 d . . .
C35 C 0.2393(5) 0.2474(8) 1.0721(6) 0.066(3) Uani 1 1 d . . .
H35 H 0.2633 0.1964 1.1029 0.079 Uiso 1 1 calc R . .
C36 C 0.2703(5) 0.3084(8) 1.0301(6) 0.063(3) Uani 1 1 d . . .
H36 H 0.3152 0.2948 1.0329 0.075 Uiso 1 1 calc R . .
C37 C 0.940(10) 0.716(12) 0.172(9) 0.33(7) Uani 0.50 1 d P . .
H37 H 0.8981 0.6843 0.1527 0.392 Uiso 0.50 1 calc PR . .
C38 C 0.883(3) 0.882(7) 0.169(4) 0.30(4) Uani 0.50 1 d P . .
H38A H 0.8636 0.8828 0.1174 0.446 Uiso 0.50 1 calc PR . .
H38B H 0.8950 0.9517 0.1860 0.446 Uiso 0.50 1 calc PR . .
H38C H 0.8518 0.8536 0.1939 0.446 Uiso 0.50 1 calc PR . .
C39 C 1.009(3) 0.871(6) 0.214(3) 0.29(4) Uani 0.50 1 d P . .
H39A H 1.0430 0.8207 0.2325 0.440 Uiso 0.50 1 calc PR . .
H39B H 1.0045 0.9174 0.2525 0.440 Uiso 0.50 1 calc PR . .
H39C H 1.0199 0.9107 0.1755 0.440 Uiso 0.50 1 calc PR . .
C40 C 0.892(8) 0.050(13) 0.364(10) 0.36(8) Uani 0.50 1 d P A 1
H40 H 0.9099 -0.0027 0.3408 0.429 Uiso 0.50 1 calc PR A 1
C41 C 0.800(4) 0.150(5) 0.390(4) 0.31(5) Uani 0.50 1 d P A 1
H41A H 0.8150 0.1386 0.4418 0.472 Uiso 0.50 1 calc PR A 1
H41B H 0.7523 0.1486 0.3752 0.472 Uiso 0.50 1 calc PR A 1
H41C H 0.8164 0.2160 0.3779 0.472 Uiso 0.50 1 calc PR A 1
C42 C 0.776(4) 0.005(5) 0.301(5) 0.34(5) Uani 0.50 1 d P A 1
H42A H 0.7388 -0.0072 0.3213 0.517 Uiso 0.50 1 calc PR A 1
H42B H 0.7954 -0.0608 0.2921 0.517 Uiso 0.50 1 calc PR A 1
H42C H 0.7618 0.0423 0.2556 0.517 Uiso 0.50 1 calc PR A 1
C43 C 0.673(7) -0.066(11) 0.185(8) 0.32(6) Uani 0.50 1 d P B 2
H43 H 0.7051 -0.1012 0.2200 0.382 Uiso 0.50 1 calc PR B 2
C44 C 0.634(4) 0.053(6) 0.083(4) 0.29(4) Uani 0.50 1 d P B 2
H44A H 0.6382 0.1273 0.0919 0.433 Uiso 0.50 1 calc PR B 2
H44B H 0.5911 0.0300 0.0874 0.433 Uiso 0.50 1 calc PR B 2
H44C H 0.6390 0.0385 0.0349 0.433 Uiso 0.50 1 calc PR B 2
C45 C 0.755(4) 0.024(6) 0.132(4) 0.32(4) Uani 0.50 1 d P B 2
H45A H 0.7782 -0.0392 0.1278 0.479 Uiso 0.50 1 calc PR B 2
H45B H 0.7777 0.0606 0.1757 0.479 Uiso 0.50 1 calc PR B 2
H45C H 0.7527 0.0676 0.0904 0.479 Uiso 0.50 1 calc PR B 2

loop_
_atom_site_aniso_label
_atom_site_aniso_U_11
_atom_site_aniso_U_22
_atom_site_aniso_U_33
_atom_site_aniso_U_23
_atom_site_aniso_U_13
_atom_site_aniso_U_12
Cd1 0.0563(4) 0.0553(4) 0.0396(4) 0.0006(4) 0.0117(3) -0.0054(4)
Cl1 0.0730(18) 0.0668(18) 0.078(2) -0.0008(15) 0.0215(15) 0.0080(14)
Cl2 0.0741(18) 0.0711(18) 0.0649(18) 0.0020(14) 0.0222(14) 0.0107(14)
N1 0.049(5) 0.075(6) 0.045(5) 0.004(4) 0.005(4) -0.012(4)
N2 0.055(6) 0.065(6) 0.049(5) 0.010(4) 0.009(4) -0.002(4)
N3 0.064(6) 0.054(6) 0.048(5) -0.007(4) 0.008(4) 0.001(4)
N4 0.047(5) 0.089(6) 0.054(6) -0.023(5) 0.005(4) 0.020(5)
N5 0.051(5) 0.062(6) 0.046(5) -0.005(4) 0.004(4) 0.012(4)
N6 0.046(5) 0.068(6) 0.055(6) 0.018(5) 0.005(4) -0.006(4)
N7 0.29(11) 0.40(16) 0.30(9) 0.11(11) 0.11(9) 0.00(15)
N8 0.45(16) 0.21(10) 0.34(11) -0.05(7) 0.01(14) -0.05(13)
N9 0.28(10) 0.36(13) 0.31(12) 0.01(8) 0.09(9) 0.03(10)
O1 0.27(7) 0.40(10) 0.32(6) 0.09(6) 0.08(6) 0.02(6)
O2 0.48(10) 0.19(4) 0.36(7) -0.10(4) 0.04(6) -0.08(5)
O3 0.30(6) 0.37(6) 0.32(6) 0.00(5) 0.08(6) 0.06(7)
O4 0.27(4) 0.39(6) 0.37(6) 0.11(5) 0.03(4) 0.07(4)
O5 0.46(6) 0.20(3) 0.36(5) -0.06(4) 0.01(5) -0.01(4)
O6 0.24(3) 0.23(3) 0.23(3) -0.01(3) 0.09(2) 0.03(2)
C1 0.041(6) 0.082(8) 0.084(8) 0.006(7) 0.003(6) -0.009(6)
C2 0.052(7) 0.086(8) 0.091(9) 0.006(7) 0.006(7) -0.003(6)
C3 0.053(8) 0.083(9) 0.111(10) 0.002(7) 0.001(7) -0.003(7)
C4 0.047(7) 0.095(9) 0.105(10) 0.010(8) -0.004(7) -0.003(7)
C5 0.042(6) 0.082(8) 0.074(8) 0.008(6) 0.004(6) 0.001(5)
C6 0.045(7) 0.097(9) 0.072(8) 0.003(7) 0.017(6) -0.003(6)
C7 0.050(7) 0.091(8) 0.060(7) -0.001(6) 0.012(6) -0.004(6)
C8 0.046(6) 0.081(8) 0.050(7) 0.010(6) 0.005(5) -0.009(5)
C9 0.053(7) 0.102(9) 0.066(8) -0.005(7) 0.012(6) -0.022(6)
C10 0.063(7) 0.105(9) 0.063(8) -0.003(7) 0.005(6) -0.020(7)
C11 0.046(7) 0.088(8) 0.071(9) -0.007(7) 0.001(6) 0.008(6)
C12 0.071(9) 0.108(10) 0.068(8) -0.001(7) 0.003(7) 0.020(7)
C13 0.051(7) 0.107(10) 0.066(9) -0.006(7) 0.004(6) 0.020(6)
C14 0.045(7) 0.093(9) 0.062(8) -0.016(6) 0.003(6) 0.015(6)
C15 0.062(8) 0.117(10) 0.070(8) 0.000(7) -0.001(7) 0.017(7)
C16 0.056(8) 0.121(11) 0.086(10) -0.004(8) 0.008(7) 0.007(7)
C17 0.048(6) 0.083(8) 0.063(8) 0.015(6) 0.007(6) 0.003(6)
C18 0.049(7) 0.077(7) 0.056(7) 0.024(6) 0.003(5) -0.007(5)
C19 0.044(6) 0.067(7) 0.045(6) 0.010(5) 0.010(5) -0.008(5)
C20 0.044(6) 0.075(7) 0.055(7) 0.017(6) 0.008(5) -0.003(5)
C21 0.048(7) 0.072(7) 0.058(7) 0.014(6) 0.004(5) 0.004(5)
C22 0.085(8) 0.059(8) 0.053(7) 0.002(6) -0.004(6) 0.012(6)
C23 0.084(8) 0.058(7) 0.054(8) -0.013(6) -0.009(6) 0.011(6)
C24 0.055(6) 0.062(7) 0.040(6) -0.005(5) 0.001(5) 0.007(5)
C25 0.070(7) 0.059(7) 0.054(7) -0.003(5) -0.010(6) 0.015(5)
C26 0.064(7) 0.056(7) 0.052(6) -0.005(6) -0.009(5) 0.007(6)
C27 0.055(6) 0.072(8) 0.054(7) -0.011(6) 0.004(5) 0.013(5)
C28 0.056(7) 0.079(8) 0.056(7) -0.008(6) 0.002(5) 0.024(6)
C29 0.050(6) 0.077(8) 0.050(7) -0.015(6) 0.006(5) 0.012(5)
C30 0.065(7) 0.075(7) 0.047(7) -0.019(6) -0.004(5) 0.016(6)
C31 0.060(7) 0.075(8) 0.050(7) 0.006(6) -0.001(5) 0.016(6)
C32 0.059(7) 0.078(8) 0.077(8) 0.031(6) 0.001(6) -0.003(6)
C33 0.046(6) 0.092(9) 0.078(8) 0.030(7) 0.009(6) -0.007(6)
C34 0.049(7) 0.069(7) 0.062(7) 0.012(6) 0.001(5) -0.006(6)
C35 0.061(7) 0.068(7) 0.067(7) 0.019(6) 0.013(6) 0.001(6)
C36 0.051(6) 0.067(7) 0.070(8) 0.013(6) 0.015(6) -0.008(5)
C37 0.27(13) 0.4(2) 0.32(12) 0.11(15) 0.08(12) -0.01(19)
C38 0.25(8) 0.39(12) 0.29(8) 0.09(7) 0.14(7) -0.02(7)
C39 0.27(8) 0.39(12) 0.25(7) 0.10(7) 0.13(6) -0.03(7)
C40 0.5(2) 0.22(10) 0.35(14) -0.05(8) 0.02(19) -0.03(17)
C41 0.43(12) 0.15(5) 0.32(9) -0.08(5) 0.01(7) -0.02(6)
C42 0.47(14) 0.20(7) 0.33(11) -0.03(6) 0.04(9) -0.02(7)
C43 0.29(12) 0.36(15) 0.32(15) 0.00(10) 0.11(14) 0.04(14)
C44 0.29(9) 0.34(9) 0.27(9) -0.02(7) 0.15(7) 0.04(7)
C45 0.29(9) 0.39(10) 0.30(9) 0.01(6) 0.12(8) 0.03(8)

_geom_special_details            
;
All esds (except the esd in the dihedral angle between two l.s. planes)
are estimated using the full covariance matrix. The cell esds are taken
into account individually in the estimation of esds in distances, angles
and torsion angles; correlations between esds in cell parameters are only
used when they are defined by crystal symmetry. An approximate (isotropic)
treatment of cell esds is used for estimating esds involving l.s. planes.
;

loop_
_geom_bond_atom_site_label_1
_geom_bond_atom_site_label_2
_geom_bond_distance
_geom_bond_site_symmetry_2
_geom_bond_publ_flag
Cd1 N2 2.364(7) . ?
Cd1 N6 2.382(7) 