
#######################################################################
#
#                 Cambridge Crystallographic Data Centre
#                                CCDC
#
#######################################################################
#
# If this CIF has been generated from an entry in the Cambridge
# Structural Database, then it will include bibliographic, chemical,
# crystal, experimental, refinement or atomic coordinate data resulting
# from the CCDC's data processing and validation procedures.
#
#######################################################################

data_CSD_CIF_LAZRAF
_audit_creation_date 1994-07-25
_audit_creation_method CSD-ConQuest-V1
_database_code_CSD LAZRAF
_database_code_depnum_ccdc_archive 'CCDC 1204388'
_chemical_formula_sum 'C18 H16 O4'
_chemical_formula_moiety
;
C18 H16 O4
;
_journal_coden_Cambridge 4
_journal_volume 115
_journal_year 1993
_journal_page_first 10390
_journal_name_full 'J.Am.Chem.Soc. '
loop_
_publ_author_name
"V.Enkelmann"
"G.Wegner"
"K.Novak"
"K.B.Wagener"
_chemical_name_systematic
;
Truxillic acid
;
_chemical_name_common
;
Teaching Subset: Fundamental Chemistry, Symmetry
;
_cell_volume    750.946
_exptl_crystal_density_diffrn 1.311
_exptl_special_details
;
polymorph II

;
_diffrn_ambient_temperature 165
#These two values have been output from a single CSD field.
_refine_ls_R_factor_gt 0.04
_refine_ls_wR_factor_gt 0.04
loop_
_citation_database_id_CSD
_citation_special_details
JEKTIF "is a stereoisomer of this entry"
_symmetry_cell_setting monoclinic
_symmetry_space_group_name_H-M 'P 21/n'
_symmetry_Int_Tables_number 14
loop_
_symmetry_equiv_pos_site_id
_symmetry_equiv_pos_as_xyz
1 x,y,z
2 1/2-x,1/2+y,1/2-z
3 -x,-y,-z
4 -1/2+x,-1/2-y,-1/2+z
_cell_length_a 7.668(5)
_cell_length_b 18.231(8)
_cell_length_c 5.595(2)
_cell_angle_alpha 90
_cell_angle_beta 106.24(4)
_cell_angle_gamma 90
_cell_formula_units_Z 2
loop_
_atom_type_symbol
_atom_type_radius_bond
C 0.68
H 0.23
O 0.68
loop_
_atom_site_label
_atom_site_type_symbol
_atom_site_fract_x
_atom_site_fract_y
_atom_site_fract_z
O1 O 0.7866(3) 0.0061(1) 0.0587(4)
O2 O 0.8785(3) 0.0384(1) -0.2720(4)
C1 C 0.7568(4) 0.0254(2) -0.1731(5)
C2 C 0.5596(4) 0.0241(2) -0.3146(5)
C3 C 0.4943(4) -0.0558(2) -0.4193(5)
C4 C 0.6344(4) -0.1157(2) -0.3560(5)
C5 C 0.7727(4) -0.1204(2) -0.4732(6)
C6 C 0.9101(4) -0.1717(2) -0.3981(6)
C7 C 0.9128(5) -0.2191(2) -0.2048(6)
C8 C 0.7761(5) -0.2153(2) -0.0880(6)
C9 C 0.6386(4) -0.1641(2) -0.1633(6)
H1 H 0.94500 0.00000 0.15900
H2 H 0.49200 0.04300 -0.21500
H3 H 0.38500 -0.06700 -0.37600
H4 H 0.76400 -0.08100 -0.63000
H5 H 1.01200 -0.18000 -0.49800
H6 H 1.01200 -0.26400 -0.16500
H7 H 0.78500 -0.25200 0.07700
H8 H 0.53400 -0.16400 -0.07400
O1B O 0.2134(3) -0.0061(1) -1.0587(4)
O2B O 0.1215(3) -0.0384(1) -0.7280(4)
C1B C 0.2432(4) -0.0254(2) -0.8269(5)
C2B C 0.4404(4) -0.0241(2) -0.6854(5)
C3B C 0.5057(4) 0.0558(2) -0.5807(5)
C4B C 0.3656(4) 0.1157(2) -0.6440(5)
C5B C 0.2273(4) 0.1204(2) -0.5268(6)
C6B C 0.0899(4) 0.1717(2) -0.6019(6)
C7B C 0.0872(5) 0.2191(2) -0.7952(6)
C8B C 0.2239(5) 0.2153(2) -0.9120(6)
C9B C 0.3614(4) 0.1641(2) -0.8367(6)
H1B H 0.05500 0.00000 -1.15900
H2B H 0.50800 -0.04300 -0.78500
H3B H 0.61500 0.06700 -0.62400
H4B H 0.23600 0.08100 -0.37000
H5B H -0.01200 0.18000 -0.50200
H6B H -0.01200 0.26400 -0.83500
H7B H 0.21500 0.25200 -1.07700
H8B H 0.46600 0.16400 -0.92600
#END
