####################################################################### 
# 
# This file contains crystal structure data downloaded from the 
# Cambridge Structural Database (CSD) hosted by the Cambridge 
# Crystallographic Data Centre (CCDC).
# 
# Full information about CCDC data access policies and citation 
# guidelines are available at http://www.ccdc.cam.ac.uk/access/V1 
# 
# Audit and citation data items may have been added by the CCDC. 
# Please retain this information to preserve the provenance of 
# this file and to allow appropriate attribution of the data. 
# 
#######################################################################

data_LECHOQ
#This CIF has been generated from an entry in the Cambridge Structural Database
_database_code_depnum_ccdc_archive 'CCDC 1204585'
_database_code_CSD               LECHOQ
_audit_creation_method           'Created from the CSD'
_audit_update_record             
;
2024-07-11 downloaded from the CCDC.
;
_ccdc_depnum_russian             R99234
_database_code_NBS               722596
_chemical_formula_moiety         '(C6 Co1 Mn1 O12 1-)n,n(C16 H36 N1 1+)'
_chemical_name_systematic        
'catena-(Tetrabutylammonium tris(\m~2~-oxalato)-manganese(ii)-cobalt(iii))'
_chemical_absolute_configuration unk
_diffrn_ambient_temperature      295
_exptl_crystal_density_diffrn    1.533
#These two values have been output from a single CSD field.
_refine_ls_R_factor_gt           0.1635
_refine_ls_wR_factor_gt          0.1635
_diffrn_radiation_probe          x-ray
_symmetry_cell_setting           rhombohedral
_symmetry_space_group_name_H-M   'R 3 c'
_symmetry_Int_Tables_number      161
_space_group_name_Hall           'R 3 -2"c'
loop_
_symmetry_equiv_pos_site_id
_symmetry_equiv_pos_as_xyz
1 x,y,z
2 -y,x-y,z
3 -y,-x,1/2+z
4 -x+y,-x,z
5 x,x-y,1/2+z
6 -x+y,y,1/2+z
7 1/3+x,2/3+y,2/3+z
8 1/3-y,2/3+x-y,2/3+z
9 1/3-y,2/3-x,1/6+z
10 1/3-x+y,2/3-x,2/3+z
11 1/3+x,2/3+x-y,1/6+z
12 1/3-x+y,2/3+y,1/6+z
13 2/3+x,1/3+y,1/3+z
14 2/3-y,1/3+x-y,1/3+z
15 2/3-y,1/3-x,5/6+z
16 2/3-x+y,1/3-x,1/3+z
17 2/3+x,1/3+x-y,5/6+z
18 2/3-x+y,1/3+y,5/6+z
_cell_length_a                   9.242(3)
_cell_length_b                   9.242(3)
_cell_length_c                   54.524(13)
_cell_angle_alpha                90
_cell_angle_beta                 90
_cell_angle_gamma                120
_cell_volume                     4033.2
_cell_formula_units_Z            6
loop_
_atom_site_label
_atom_site_type_symbol
_atom_site_fract_x
_atom_site_fract_y
_atom_site_fract_z
N1 N 0.0000 0.0000 0.1044(18)
C3 C 0.0000 0.0000 0.1358(10)
Co1 Co 0.0000 0.0000 0.0002(2)
Mn1 Mn 0.3333 0.6667 -0.0004(1)
O1 O -0.0027(20) 0.1739(19) 0.0179(3)
O2 O 0.1525(25) 0.1734(23) -0.0190(4)
O3 O 0.1303(31) 0.4447(41) 0.0186(5)
O4 O 0.2915(25) 0.4526(23) -0.0237(3)
C1 C 0.1239(34) 0.3226(34) 0.0104(5)
C2 C 0.2058(66) 0.3113(74) -0.0106(8)
O1A O -0.1739(19) -0.1766(28) 0.0179(3)
O1C O 0.1766(28) 0.0027(20) 0.0179(3)
O2A O -0.1734(23) -0.0209(34) -0.0190(4)
O2C O 0.0209(34) -0.1525(25) -0.0190(4)
O3A O 0.5553(41) 0.6856(51) 0.0186(5)
O3C O 0.3144(51) 0.8697(31) 0.0186(5)
O4A O 0.5474(23) 0.8389(34) -0.0237(3)
O4C O 0.1611(34) 0.7085(25) -0.0237(3)
C1A C -0.3226(34) -0.1987(48) 0.0104(5)
C1C C 0.1987(48) -0.1239(34) 0.0104(5)
C2A C -0.3113(74) -0.1055(99) -0.0106(8)
C2C C 0.1055(99) -0.2058(66) -0.0106(8)
O3A O -0.4447(41) -0.3144(51) 0.0186(5)
O3C O 0.3144(51) -0.1303(31) 0.0186(5)
O4A O -0.4526(23) -0.1611(34) -0.0237(3)
O4C O 0.1611(34) -0.2915(25) -0.0237(3)
Mn1 Mn -0.6667 -0.3333 -0.0004(1)
Mn1 Mn 0.3333 -0.3333 -0.0004(1)

#END
