####################################################################### 
# 
# This file contains crystal structure data downloaded from the 
# Cambridge Structural Database (CSD) hosted by the Cambridge 
# Crystallographic Data Centre (CCDC).
# 
# Full information about CCDC data access policies and citation 
# guidelines are available at http://www.ccdc.cam.ac.uk/access/V1 
# 
# Audit and citation data items may have been added by the CCDC. 
# Please retain this information to preserve the provenance of 
# this file and to allow appropriate attribution of the data. 
# 
#######################################################################

data_c2c
_audit_block_doi                 10.5517/cct2bv1
_database_code_depnum_ccdc_archive 'CCDC 747033'
loop_
_citation_id
_citation_doi
_citation_year
1 10.1016/j.inoche.2012.04.032 2012
_audit_update_record             
;
2009-09-09 deposited with the CCDC.	2024-07-11 downloaded from the CCDC.
;
#TrackingRef '- complex-2.cif'


_audit_creation_method           SHELXL-97
_chemical_name_systematic        
;
?
;
_chemical_name_common            ?
_chemical_melting_point          ?
_chemical_formula_moiety         ?
_chemical_formula_sum            'C26 H20 Co N2 O5'
_chemical_formula_weight         499.37

loop_
_atom_type_symbol
_atom_type_description
_atom_type_scat_dispersion_real
_atom_type_scat_dispersion_imag
_atom_type_scat_source
C C 0.0033 0.0016 'International Tables Vol C Tables 4.2.6.8 and 6.1.1.4'
H H 0.0000 0.0000 'International Tables Vol C Tables 4.2.6.8 and 6.1.1.4'
N N 0.0061 0.0033 'International Tables Vol C Tables 4.2.6.8 and 6.1.1.4'
O O 0.0106 0.0060 'International Tables Vol C Tables 4.2.6.8 and 6.1.1.4'
Co Co 0.3494 0.9721 'International Tables Vol C Tables 4.2.6.8 and 6.1.1.4'

_symmetry_cell_setting           Monoclinic
_symmetry_space_group_name_H-M   C2/c

loop_
_symmetry_equiv_pos_as_xyz
'x, y, z'
'-x, y, -z+1/2'
'x+1/2, y+1/2, z'
'-x+1/2, y+1/2, -z+1/2'
'-x, -y, -z'
'x, -y, z-1/2'
'-x+1/2, -y+1/2, -z'
'x+1/2, -y+1/2, z-1/2'

_cell_length_a                   18.015(5)
_cell_length_b                   32.068(8)
_cell_length_c                   7.534(2)
_cell_angle_alpha                90.00
_cell_angle_beta                 91.334(7)
_cell_angle_gamma                90.00
_cell_volume                     4351(2)
_cell_formula_units_Z            4
_cell_measurement_temperature    173(2)
_cell_measurement_reflns_used    ?
_cell_measurement_theta_min      ?
_cell_measurement_theta_max      ?

_exptl_crystal_description       needle
_exptl_crystal_colour            purple
_exptl_crystal_size_max          0.58
_exptl_crystal_size_mid          0.30
_exptl_crystal_size_min          0.13
_exptl_crystal_density_meas      ?
_exptl_crystal_density_diffrn    0.762
_exptl_crystal_density_method    'not measured'
_exptl_crystal_F_000             1028
_exptl_absorpt_coefficient_mu    0.416
_exptl_absorpt_correction_type   Multi-scan
_exptl_absorpt_correction_T_min  0.7945
_exptl_absorpt_correction_T_max  0.9479
_exptl_absorpt_process_details   SADABS

_exptl_special_details           
;
?
;

_diffrn_ambient_temperature      173(2)
_diffrn_radiation_wavelength     0.71073
_diffrn_radiation_type           MoK\a
_diffrn_radiation_source         'fine-focus sealed tube'
_diffrn_radiation_monochromator  graphite
_diffrn_measurement_device_type  'Bruker SMART APEX CCD'
_diffrn_measurement_method       omega-scan
_diffrn_detector_area_resol_mean ?
_diffrn_standards_number         ?
_diffrn_standards_interval_count ?
_diffrn_standards_interval_time  ?
_diffrn_standards_decay_%        ?
_diffrn_reflns_number            16033
_diffrn_reflns_av_R_equivalents  0.0963
_diffrn_reflns_av_sigmaI/netI    0.1929
_diffrn_reflns_limit_h_min       -23
_diffrn_reflns_limit_h_max       12
_diffrn_reflns_limit_k_min       -42
_diffrn_reflns_limit_k_max       40
_diffrn_reflns_limit_l_min       -9
_diffrn_reflns_limit_l_max       9
_diffrn_reflns_theta_min         1.27
_diffrn_reflns_theta_max         28.27
_reflns_number_total             5358
_reflns_number_gt                1814
_reflns_threshold_expression     >2sigma(I)

_computing_data_collection       'Bruker SMART APEX'
_computing_cell_refinement       'Bruker SMART APEX'
_computing_data_reduction        'Bruker SAINT'
_computing_structure_solution    'SHELXS-97 (Sheldrick, 1990)'
_computing_structure_refinement  'SHELXL-97 (Sheldrick, 1997)'
_computing_molecular_graphics    'DIAMOND 3.1'
_computing_publication_material  'DIAMOND 3.1'

_refine_special_details          
;
Refinement of F^2^ against ALL reflections. The weighted R-factor wR and
goodness of fit S are based on F^2^, conventional R-factors R are based
on F, with F set to zero for negative F^2^. The threshold expression of
F^2^ > 2sigma(F^2^) is used only for calculating R-factors(gt) etc. and is
not relevant to the choice of reflections for refinement. R-factors based
on F^2^ are statistically about twice as large as those based on F, and R-
factors based on ALL data will be even larger.
;

_refine_ls_structure_factor_coef Fsqd
_refine_ls_matrix_type           full
_refine_ls_weighting_scheme      calc
_refine_ls_weighting_details     
'calc w=1/[\s^2^(Fo^2^)+(0.1015P)^2^+0.0000P] where P=(Fo^2^+2Fc^2^)/3'
_atom_sites_solution_primary     direct
_atom_sites_solution_secondary   difmap
_atom_sites_solution_hydrogens   geom
_refine_ls_hydrogen_treatment    mixed
_refine_ls_extinction_method     none
_refine_ls_extinction_coef       ?
_refine_ls_number_reflns         5358
_refine_ls_number_parameters     244
_refine_ls_number_restraints     450
_refine_ls_R_factor_all          0.1200
_refine_ls_R_factor_gt           0.0694
_refine_ls_wR_factor_ref         0.2181
_refine_ls_wR_factor_gt          0.2104
_refine_ls_goodness_of_fit_ref   0.794
_refine_ls_restrained_S_all      0.861
_refine_ls_shift/su_max          0.000
_refine_ls_shift/su_mean         0.000

loop_
_atom_site_label
_atom_site_type_symbol
_atom_site_fract_x
_atom_site_fract_y
_atom_site_fract_z
_atom_site_U_iso_or_equiv
_atom_site_adp_type
_atom_site_occupancy
_atom_site_symmetry_multiplicity
_atom_site_calc_flag
_atom_site_refinement_flags
_atom_site_disorder_assembly
_atom_site_disorder_group
Co1 Co 0.0000 0.09759(2) 0.7500 0.0544(4) Uani 1 2 d S . .
O1 O 0.0427(4) 0.1074(2) 1.0104(12) 0.0299(17) Uani 0.50 1 d PDU A -1
O2 O 0.0979(5) 0.1375(2) 0.8006(11) 0.046(2) Uani 0.50 1 d PDU A -1
O3 O 0.4235(5) 0.3487(2) 2.2054(13) 0.0470(18) Uani 0.50 1 d PDU . -1
O4 O 0.4831(5) 0.3833(3) 1.9890(14) 0.0470(18) Uani 0.50 1 d PDU . -1
C1 C 0.0868(6) 0.1335(3) 0.9656(15) 0.037(3) Uani 0.50 1 d PDU A -1
C2 C 0.1285(6) 0.1595(3) 1.0997(16) 0.050(3) Uani 0.50 1 d PDU A -1
C3 C 0.1150(5) 0.1533(3) 1.2791(16) 0.032(2) Uani 0.50 1 d PDU A -1
H3 H 0.0798 0.1330 1.3135 0.038 Uiso 0.50 1 calc PR A -1
C4 C 0.1804(6) 0.1892(4) 1.0512(17) 0.092(4) Uani 0.50 1 d PDU A -1
H4 H 0.1905 0.1933 0.9293 0.110 Uiso 0.50 1 calc PR A -1
C5 C 0.1521(5) 0.1762(3) 1.4060(14) 0.044(2) Uani 0.50 1 d PDU A -1
H5 H 0.1425 0.1713 1.5278 0.053 Uiso 0.50 1 calc PR A -1
C6 C 0.2175(6) 0.2128(3) 1.1797(19) 0.103(4) Uani 0.50 1 d PDU A -1
H6 H 0.2526 0.2333 1.1454 0.123 Uiso 0.50 1 calc PR A -1
C7 C 0.2033(5) 0.2065(3) 1.3609(17) 0.073(3) Uani 0.50 1 d PDU A -1
C8 C 0.2389(10) 0.2295(6) 1.507(4) 0.087(4) Uani 0.50 1 d PDU A -1
H8 H 0.2250 0.2222 1.6241 0.104 Uiso 0.50 1 calc PR A -1
C9 C 0.2874(11) 0.2588(6) 1.492(4) 0.103(4) Uani 0.50 1 d PDU A -1
H9 H 0.3003 0.2653 1.3738 0.124 Uiso 0.50 1 calc PR A -1
C10 C 0.3270(6) 0.2844(4) 1.633(2) 0.098(4) Uani 0.50 1 d PDU A -1
C11 C 0.3794(7) 0.3156(4) 1.5904(18) 0.089(4) Uani 0.50 1 d PDU A -1
H11 H 0.3900 0.3210 1.4696 0.106 Uiso 0.50 1 calc PR A -1
C12 C 0.3134(6) 0.2772(4) 1.810(2) 0.117(4) Uani 0.50 1 d PDU A -1
H12 H 0.2791 0.2561 1.8415 0.140 Uiso 0.50 1 calc PR A -1
C13 C 0.4142(6) 0.3378(3) 1.720(2) 0.075(4) Uani 0.50 1 d PDU A -1
H13 H 0.4511 0.3575 1.6889 0.090 Uiso 0.50 1 calc PR A -1
C14 C 0.3491(7) 0.3003(4) 1.9429(19) 0.102(4) Uani 0.50 1 d PDU A -1
H14 H 0.3408 0.2941 2.0642 0.122 Uiso 0.50 1 calc PR A -1
C15 C 0.3967(8) 0.3322(5) 1.898(2) 0.069(3) Uani 0.50 1 d PDU A -1
C16 C 0.4356(8) 0.3565(4) 2.0409(17) 0.049(3) Uani 0.50 1 d PDU . -1
N1 N 0.0678(3) 0.04769(12) 0.7002(4) 0.0743(12) Uani 1 1 d DU A .
C17 C 0.1386(4) 0.0498(2) 0.6475(7) 0.1088(18) Uani 1 1 d DU . .
H17 H 0.1601 0.0766 0.6344 0.131 Uiso 1 1 calc R A .
C18 C 0.0363(3) 0.01011(14) 0.7237(7) 0.0939(19) Uani 1 1 d DU . .
C19 C 0.1832(4) 0.0144(3) 0.6102(9) 0.148(3) Uani 1 1 d DU A .
H19 H 0.2333 0.0165 0.5746 0.177 Uiso 1 1 calc R . .
C20 C 0.0743(5) -0.02715(18) 0.6888(8) 0.136(2) Uani 1 1 d DU A .
H20 H 0.0518 -0.0537 0.7040 0.163 Uiso 1 1 calc R . .
C21 C 0.1477(5) -0.0230(3) 0.6299(10) 0.159(3) Uani 1 1 d DU . .
H21 H 0.1742 -0.0477 0.6022 0.190 Uiso 1 1 calc R A .
O1W O 0.5414(15) 0.2480(7) 2.230(5) 0.456(16) Uani 0.50 1 d PU . .

loop_
_atom_site_aniso_label
_atom_site_aniso_U_11
_atom_site_aniso_U_22
_atom_site_aniso_U_33
_atom_site_aniso_U_23
_atom_site_aniso_U_13
_atom_site_aniso_U_12
Co1 0.0938(8) 0.0424(5) 0.0267(4) 0.000 -0.0065(4) 0.000
O1 0.036(5) 0.027(4) 0.026(3) -0.002(2) -0.002(3) 0.015(3)
O2 0.085(6) 0.029(4) 0.025(2) 0.005(3) -0.002(3) 0.001(3)
O3 0.072(5) 0.035(4) 0.034(2) 0.002(3) 0.001(3) 0.010(3)
O4 0.072(5) 0.035(4) 0.034(2) 0.002(3) 0.001(3) 0.010(3)
C1 0.054(7) 0.032(5) 0.024(3) -0.004(3) -0.005(4) 0.009(4)
C2 0.077(8) 0.051(5) 0.023(3) -0.006(4) 0.001(5) -0.021(5)
C3 0.037(6) 0.038(4) 0.020(3) -0.003(3) 0.005(4) 0.002(4)
C4 0.120(10) 0.123(8) 0.032(4) -0.011(5) 0.013(6) -0.078(6)
C5 0.052(6) 0.061(5) 0.020(3) -0.008(3) 0.003(4) -0.010(4)
C6 0.141(10) 0.128(8) 0.039(4) -0.012(6) 0.013(7) -0.090(7)
C7 0.087(8) 0.101(7) 0.031(4) -0.015(4) 0.014(5) -0.047(5)
C8 0.119(10) 0.106(9) 0.036(4) -0.010(7) 0.007(8) -0.058(6)
C9 0.128(11) 0.128(10) 0.054(5) -0.007(8) -0.001(9) -0.071(7)
C10 0.126(10) 0.122(8) 0.047(4) -0.018(6) 0.012(7) -0.062(6)
C11 0.122(11) 0.097(8) 0.047(5) -0.010(6) 0.004(7) -0.045(6)
C12 0.143(10) 0.153(9) 0.055(5) -0.028(6) 0.030(7) -0.088(7)
C13 0.100(10) 0.086(8) 0.038(4) -0.001(6) 0.003(7) -0.033(6)
C14 0.131(10) 0.131(9) 0.044(5) -0.015(6) 0.024(7) -0.070(6)
C15 0.082(8) 0.082(7) 0.042(4) -0.008(5) 0.008(6) -0.023(5)
C16 0.071(8) 0.045(6) 0.031(3) 0.005(4) -0.003(5) 0.011(4)
N1 0.117(4) 0.072(2) 0.0322(19) -0.0094(18) -0.026(2) 0.027(3)
C17 0.126(5) 0.146(4) 0.054(3) -0.022(3) -0.015(3) 0.048(4)
C18 0.163(5) 0.057(2) 0.058(3) -0.017(2) -0.070(4) 0.029(3)
C19 0.159(6) 0.211(6) 0.072(4) -0.029(5) -0.028(4) 0.103(5)
C20 0.228(7) 0.080(3) 0.094(5) -0.036(3) -0.100(5) 0.060(4)
C21 0.224(7) 0.163(5) 0.084(5) -0.056(5) -0.081(5) 0.109(6)
O1W 0.458(19) 0.443(17) 0.467(18) -0.007(11) 0.017(11) -0.006(10)

_geom_special_details            
;
All esds (except the esd in the dihedral angle between two l.s. planes)
are estimated using the full covariance matrix. The cell esds are taken
into account individually in the estimation of esds in distances, angles
and torsion angles; correlations between esds in cell parameters are only
used when they are defined by crystal symmetry. An approximate (isotropic)
treatment of cell esds is used for estimating esds involving l.s. planes.
;

loop_
_geom_bond_atom_site_label_1
_geom_bond_atom_site_label_2
_geom_bond_distance
_geom_bond_site_symmetry_2
_geom_bond_publ_flag
Co1 N1 2.053(4) 2_556 ?
Co1 N1 2.053(4) . ?
Co1 O4 2.075(11) 7_558 ?
Co1 O4 2.075(11) 8_454 ?
Co1 O1 2.114(9) . ?
Co1 O1 2.114(9) 2_556 ?
Co1 O2 2.206(9) . ?
Co1 O2 2.206(9) 2_556 ?
Co1 O3 2.228(10) 7_558 ?
Co1 O3 2.228(10) 8_454 ?
Co1 C16 2.432(16) 7_558 ?
Co1 C16 2.432(16) 8_454 ?
O1 C1 1.208(13) . ?
O2 C1 1.271(10) . ?
O3 C16 1.289(11) . ?
O3 Co1 2.228(10) 7_558 ?
O4 C16 1.281(13) . ?
O4 Co1 2.075(11) 7_558 ?
C1 C2 1.499(14) . ?
C2 C4 1.387(12) . ?
C2 C3 1.393(11) . ?
C3 C5 1.369(11) . ?
C4 C6 1.389(12) . ?
C5 C7 1.386(12) . ?
C6 C7 1.410(12) . ?
C7 C8 1.46(3) . ?
C8 C9 1.292(11) . ?
C9 C10 1.51(3) . ?
C10 C12 1.378(13) . ?
C10 C11 1.418(13) . ?
C11 C13 1.347(13) . ?
C12 C14 1.391(13) . ?
C13 C15 1.402(13) . ?
C14 C15 1.381(13) . ?
C15 C16 1.488(18) . ?
C16 Co1 2.432(16) 7_558 ?
N1 C17 1.345(7) . ?
N1 C18 1.346(6) . ?
C17 C19 1.424(8) . ?
C18 C18 1.374(11) 2_556 ?
C18 C20 1.405(7) . ?
C19 C21 1.368(10) . ?
C20 C21 1.412(10) . ?
O1W O1W 1.53(5) 2_659 ?

loop_
_geom_angle_atom_site_label_1
_geom_angle_atom_site_label_2
_geom_angle_atom_site_label_3
_geom_angle
_geom_angle_site_symmetry_1
_geom_angle_site_symmetry_3
_geom_angle_publ_flag
N1 Co1 N1 77.6(3) 2_556 . ?
N1 Co1 O4 97.6(3) 2_556 7_558 ?
N1 Co1 O4 109.2(2) . 7_558 ?
N1 Co1 O4 109.2(2) 2_556 8_454 ?
N1 Co1 O4 97.6(3) . 8_454 ?
O4 Co1 O4 145.7(5) 7_558 8_454 ?
N1 Co1 O1 98.7(3) 2_556 . ?
N1 Co1 O1 94.61(17) . . ?
O4 Co1 O1 15.1(3) 7_558 . ?
O4 Co1 O1 151.4(2) 8_454 . ?
N1 Co1 O1 94.61(17) 2_556 2_556 ?
N1 Co1 O1 98.7(3) . 2_556 ?
O4 Co1 O1 151.4(2) 7_558 2_556 ?
O4 Co1 O1 15.1(3) 8_454 2_556 ?
O1 Co1 O1 162.9(4) . 2_556 ?
N1 Co1 O2 153.9(2) 2_556 . ?
N1 Co1 O2 90.4(2) . . ?
O4 Co1 O2 64.3(4) 7_558 . ?
O4 Co1 O2 95.3(3) 8_454 . ?
O1 Co1 O2 58.8(3) . . ?
O1 Co1 O2 110.2(2) 2_556 . ?
N1 Co1 O2 90.4(2) 2_556 2_556 ?
N1 Co1 O2 153.9(2) . 2_556 ?
O4 Co1 O2 95.3(3) 7_558 2_556 ?
O4 Co1 O2 64.3(4) 8_454 2_556 ?
O1 Co1 O2 110.2(2) . 2_556 ?
O1 Co1 O2 58.8(3) 2_556 2_556 ?
O2 Co1 O2 109.0(3) . 2_556 ?
N1 Co1 O3 160.8(3) 2_556 7_558 ?
N1 Co1 O3 105.2(2) . 7_558 ?
O4 Co1 O3 63.4(4) 7_558 7_558 ?
O4 Co1 O3 89.5(3) 8_454 7_558 ?
O1 Co1 O3 62.3(4) . 7_558 ?
O1 Co1 O3 103.6(3) 2_556 7_558 ?
O2 Co1 O3 15.2(2) . 7_558 ?
O2 Co1 O3 93.8(2) 2_556 7_558 ?
N1 Co1 O3 105.2(2) 2_556 8_454 ?
N1 Co1 O3 160.8(3) . 8_454 ?
O4 Co1 O3 89.5(3) 7_558 8_454 ?
O4 Co1 O3 63.4(4) 8_454 8_454 ?
O1 Co1 O3 103.6(3) . 8_454 ?
O1 Co1 O3 62.3(4) 2_556 8_454 ?
O2 Co1 O3 93.8(2) . 8_454 ?
O2 Co1 O3 15.2(2) 2_556 8_454 ?
O3 Co1 O3 78.6(3) 7_558 8_454 ?
N1 Co1 C16 129.1(3) 2_556 7_558 ?
N1 Co1 C16 108.3(3) . 7_558 ?
O4 Co1 C16 31.8(3) 7_558 7_558 ?
O4 Co1 C16 119.5(4) 8_454 7_558 ?
O1 Co1 C16 31.9(4) . 7_558 ?
O1 Co1 C16 132.0(3) 2_556 7_558 ?
O2 Co1 C16 33.8(4) . 7_558 ?
O2 Co1 C16 97.3(3) 2_556 7_558 ?
O3 Co1 C16 31.7(3) 7_558 7_558 ?
O3 Co1 C16 85.0(4) 8_454 7_558 ?
N1 Co1 C16 108.3(3) 2_556 8_454 ?
N1 Co1 C16 129.1(3) . 8_454 ?
O4 Co1 C16 119.5(4) 7_558 8_454 ?
O4 Co1 C16 31.8(3) 8_454 8_454 ?
O1 Co1 C16 132.0(3) . 8_454 ?
O1 Co1 C16 31.9(4) 2_556 8_454 ?
O2 Co1 C16 97.3(3) . 8_454 ?
O2 Co1 C16 33.8(4) 2_556 8_454 ?
O3 Co1 C16 85.0(4) 7_558 8_454 ?
O3 Co1 C16 31.7(3) 8_454 8_454 ?
C16 Co1 C16 105.4(6) 7_558 8_454 ?
C1 O1 Co1 94.1(7) . . ?
C1 O2 Co1 88.1(7) . . ?
C16 O3 Co1 82.9(8) . 7_558 ?
C16 O4 Co1 89.7(8) . 7_558 ?
O1 C1 O2 117.6(11) . . ?
O1 C1 C2 121.4(10) . . ?
O2 C1 C2 121.0(11) . . ?
O1 C1 Co1 57.2(6) . . ?
O2 C1 Co1 61.5(6) . . ?
C2 C1 Co1 170.9(5) . . ?
C4 C2 C3 119.2(8) . . ?
C4 C2 C1 122.3(11) . . ?
C3 C2 C1 118.5(10) . . ?
C5 C3 C2 120.5(8) . . ?
C6 C4 C2 120.4(8) . . ?
C3 C5 C7 121.4(8) . . ?
C4 C6 C7 120.0(8) . . ?
C5 C7 C6 118.4(8) . . ?
C5 C7 C8 116.8(13) . . ?
C6 C7 C8 124.8(13) . . ?
C9 C8 C7 126.0(12) . . ?
C8 C9 C10 130.1(15) . . ?
C12 C10 C11 118.3(9) . . ?
C12 C10 C9 119.8(15) . . ?
C11 C10 C9 121.9(15) . . ?
C13 C11 C10 120.5(9) . . ?
C10 C12 C14 121.0(9) . . ?
C11 C13 C15 121.0(9) . . ?
C15 C14 C12 119.9(9) . . ?
C14 C15 C13 118.8(9) . . ?
C14 C15 C16 119.8(13) . . ?
C13 C15 C16 120.9(12) . . ?
O4 C16 O3 123.6(13) . . ?
O4 C16 C15 116.0(11) . . ?
O3 C16 C15 120.3(13) . . ?
O4 C16 Co1 58.6(7) . 7_558 ?
O3 C16 Co1 65.4(7) . 7_558 ?
C15 C16 Co1 173.6(10) . 7_558 ?
C17 N1 C18 119.3(5) . . ?
C17 N1 Co1 125.9(4) . . ?
C18 N1 Co1 114.7(4) . . ?
N1 C17 C19 124.2(7) . . ?
N1 C18 C18 116.5(3) . 2_556 ?
N1 C18 C20 121.8(6) . . ?
C18 C18 C20 121.6(4) 2_556 . ?
C21 C19 C17 114.2(7) . . ?
C18 C20 C21 116.3(7) . . ?
C19 C21 C20 124.1(7) . . ?

_diffrn_measured_fraction_theta_max 0.994
_diffrn_reflns_theta_full        28.27
_diffrn_measured_fraction_theta_full 0.994
_refine_diff_density_max         0.415
_refine_diff_density_min         -0.324
_refine_diff_density_rms         0.076


