####################################################################### 
# 
# This file contains crystal structure data downloaded from the 
# Cambridge Structural Database (CSD) hosted by the Cambridge 
# Crystallographic Data Centre (CCDC).
# 
# Full information about CCDC data access policies and citation 
# guidelines are available at http://www.ccdc.cam.ac.uk/access/V1 
# 
# Audit and citation data items may have been added by the CCDC. 
# Please retain this information to preserve the provenance of 
# this file and to allow appropriate attribution of the data. 
# 
#######################################################################

data_3
_audit_block_doi                 10.5517/ccx0ddp
_database_code_depnum_ccdc_archive 'CCDC 834532'
loop_
_citation_id
_citation_doi
_citation_year
1 10.1002/adma.201102880 2011
_audit_update_record             
;
2011-07-14 deposited with the CCDC.	2024-07-11 downloaded from the CCDC.
;
#TrackingRef '1-3.cif'


_audit_creation_method           SHELXL-97
_chemical_name_systematic        
;
?
;
_chemical_name_common            ?
_chemical_melting_point          ?
_chemical_formula_moiety         ?
_chemical_formula_sum            'C147 H96 O38 Zn8'
_chemical_formula_weight         2993.20

loop_
_atom_type_symbol
_atom_type_description
_atom_type_scat_dispersion_real
_atom_type_scat_dispersion_imag
_atom_type_scat_source
C C 0.0033 0.0016 'International Tables Vol C Tables 4.2.6.8 and 6.1.1.4'
H H 0.0000 0.0000 'International Tables Vol C Tables 4.2.6.8 and 6.1.1.4'
O O 0.0106 0.0060 'International Tables Vol C Tables 4.2.6.8 and 6.1.1.4'
Zn Zn 0.2839 1.4301 'International Tables Vol C Tables 4.2.6.8 and 6.1.1.4'

_symmetry_cell_setting           Trigonal
_symmetry_space_group_name_H-M   ' R -3 c '
_symmetry_space_group_name_Hall  '-R 3 2"c '

loop_
_symmetry_equiv_pos_as_xyz
'x, y, z'
'-y, x-y, z'
'-x+y, -x, z'
'x-y, -y, -z+1/2'
'-x, -x+y, -z+1/2'
'y, x, -z+1/2'
'x+2/3, y+1/3, z+1/3'
'-y+2/3, x-y+1/3, z+1/3'
'-x+y+2/3, -x+1/3, z+1/3'
'x-y+2/3, -y+1/3, -z+5/6'
'-x+2/3, -x+y+1/3, -z+5/6'
'y+2/3, x+1/3, -z+5/6'
'x+1/3, y+2/3, z+2/3'
'-y+1/3, x-y+2/3, z+2/3'
'-x+y+1/3, -x+2/3, z+2/3'
'x-y+1/3, -y+2/3, -z+7/6'
'-x+1/3, -x+y+2/3, -z+7/6'
'y+1/3, x+2/3, -z+7/6'
'-x, -y, -z'
'y, -x+y, -z'
'x-y, x, -z'
'-x+y, y, z-1/2'
'x, x-y, z-1/2'
'-y, -x, z-1/2'
'-x+2/3, -y+1/3, -z+1/3'
'y+2/3, -x+y+1/3, -z+1/3'
'x-y+2/3, x+1/3, -z+1/3'
'-x+y+2/3, y+1/3, z-1/6'
'x+2/3, x-y+1/3, z-1/6'
'-y+2/3, -x+1/3, z-1/6'
'-x+1/3, -y+2/3, -z+2/3'
'y+1/3, -x+y+2/3, -z+2/3'
'x-y+1/3, x+2/3, -z+2/3'
'-x+y+1/3, y+2/3, z+1/6'
'x+1/3, x-y+2/3, z+1/6'
'-y+1/3, -x+2/3, z+1/6'

_cell_length_a                   33.139(6)
_cell_length_b                   33.139
_cell_length_c                   96.086(18)
_cell_angle_alpha                90.00
_cell_angle_beta                 90.00
_cell_angle_gamma                120.00
_cell_volume                     91385(24)
_cell_formula_units_Z            6
_cell_measurement_temperature    293(2)
_cell_measurement_reflns_used    ?
_cell_measurement_theta_min      1.23
_cell_measurement_theta_max      18.78

_exptl_crystal_description       block
_exptl_crystal_colour            colorless
_exptl_crystal_size_max          0.46
_exptl_crystal_size_mid          0.43
_exptl_crystal_size_min          0.41
_exptl_crystal_density_meas      ?
_exptl_crystal_density_diffrn    0.326
_exptl_crystal_density_method    'not measured'
_exptl_crystal_F_000             9132
_exptl_absorpt_coefficient_mu    0.327
_exptl_absorpt_correction_type   multi-scan
_exptl_absorpt_correction_T_min  0.860
_exptl_absorpt_correction_T_max  0.875
_exptl_absorpt_process_details   'SADABS (Sheldrick, 1996)'

_exptl_special_details           
;
?
;

_diffrn_ambient_temperature      293(2)
_diffrn_radiation_wavelength     0.71069
_diffrn_radiation_type           MoK\a
_diffrn_radiation_source         'fine-focus sealed tube'
_diffrn_radiation_monochromator  graphite
_diffrn_measurement_device_type  'Bruker APEX CCD area-detector'
_diffrn_measurement_method       '\w scans'
_diffrn_detector_area_resol_mean ?
_diffrn_standards_number         0
_diffrn_standards_interval_count ?
_diffrn_standards_interval_time  ?
_diffrn_standards_decay_%        ?
_diffrn_reflns_number            79050
_diffrn_reflns_av_R_equivalents  0.1488
_diffrn_reflns_av_sigmaI/netI    0.1155
_diffrn_reflns_limit_h_min       -30
_diffrn_reflns_limit_h_max       25
_diffrn_reflns_limit_k_min       -23
_diffrn_reflns_limit_k_max       30
_diffrn_reflns_limit_l_min       -86
_diffrn_reflns_limit_l_max       86
_diffrn_reflns_theta_min         1.23
_diffrn_reflns_theta_max         18.78
_reflns_number_total             7890
_reflns_number_gt                3070
_reflns_threshold_expression     >2sigma(I)

_computing_data_collection       'SMART (Bruker, 1997)'
_computing_cell_refinement       'SMART (Bruker, 1997)'
_computing_data_reduction        SAINT
_computing_structure_solution    'SHELXS-97(Sheldrick, 1997)'
_computing_structure_refinement  'SHELXL-97 (Sheldrick, 1997)'
_computing_molecular_graphics    "'Diamond V3.2d (Crystal Impact, 2008)"
_computing_publication_material  SHELXL-97

_refine_special_details          
;
Refinement of F^2^ against ALL reflections. The weighted R-factor wR and
goodness of fit S are based on F^2^, conventional R-factors R are based
on F, with F set to zero for negative F^2^. The threshold expression of
F^2^ > 2sigma(F^2^) is used only for calculating R-factors(gt) etc. and is
not relevant to the choice of reflections for refinement. R-factors based
on F^2^ are statistically about twice as large as those based on F, and R-
factors based on ALL data will be even larger.
;

_refine_ls_structure_factor_coef Fsqd
_refine_ls_matrix_type           full
_refine_ls_weighting_scheme      calc
_refine_ls_weighting_details     
'calc w=1/[\s^2^(Fo^2^)+(0.0400P)^2^+0.0000P] where P=(Fo^2^+2Fc^2^)/3'
_atom_sites_solution_primary     direct
_atom_sites_solution_secondary   difmap
_atom_sites_solution_hydrogens   geom
_refine_ls_hydrogen_treatment    constr
_refine_ls_extinction_method     none
_refine_ls_extinction_coef       ?
_refine_ls_number_reflns         7890
_refine_ls_number_parameters     229
_refine_ls_number_restraints     4
_refine_ls_R_factor_all          0.1652
_refine_ls_R_factor_gt           0.0594
_refine_ls_wR_factor_ref         0.1236
_refine_ls_wR_factor_gt          0.1102
_refine_ls_goodness_of_fit_ref   0.962
_refine_ls_restrained_S_all      1.006
_refine_ls_shift/su_max          0.001
_refine_ls_shift/su_mean         0.000

loop_
_atom_site_label
_atom_site_type_symbol
_atom_site_fract_x
_atom_site_fract_y
_atom_site_fract_z
_atom_site_U_iso_or_equiv
_atom_site_adp_type
_atom_site_occupancy
_atom_site_symmetry_multiplicity
_atom_site_calc_flag
_atom_site_refinement_flags
_atom_site_disorder_assembly
_atom_site_disorder_group
C1 C 0.4183(3) 0.7534(3) 0.53537(9) 0.147(4) Uani 1 1 d . . .
C2 C 0.4544(4) 0.7931(4) 0.54343(12) 0.138(3) Uani 1 1 d . . .
C3 C 0.4425(3) 0.7991(4) 0.55692(16) 0.171(4) Uani 1 1 d . . .
H6 H 0.4134 0.7781 0.5605 0.205 Uiso 1 1 calc R . .
C4 C 0.4748(6) 0.8369(6) 0.56495(12) 0.189(5) Uani 1 1 d . . .
H5 H 0.4645 0.8408 0.5736 0.227 Uiso 1 1 calc R . .
C5 C 0.5227(7) 0.8706(7) 0.56128(11) 0.180(9) Uani 1 1 d . . .
C6 C 0.5297(4) 0.8594(4) 0.5472(2) 0.166(5) Uani 1 1 d . . .
C7 C 0.4963(6) 0.8228(5) 0.53837(9) 0.173(4) Uani 1 1 d . . .
H2 H 0.5040 0.8200 0.5293 0.207 Uiso 1 1 calc R . .
C8 C 0.5732(6) 0.8875(5) 0.54103(9) 0.199(4) Uani 1 1 d . . .
H11 H 0.5783 0.8814 0.5319 0.239 Uiso 1 1 calc R . .
C9 C 0.6080(3) 0.9236(4) 0.54814(13) 0.190(4) Uani 1 1 d . . .
H10 H 0.6372 0.9411 0.5440 0.228 Uiso 1 1 calc R . .
C10 C 0.6002(4) 0.9349(4) 0.56182(16) 0.156(4) Uani 1 1 d . . .
C11 C 0.5586(5) 0.9096(4) 0.56807(13) 0.166(5) Uani 1 1 d . . .
H7 H 0.5536 0.9178 0.5769 0.200 Uiso 1 1 calc R . .
C12 C 0.6265(2) 0.9923(2) 0.58054(5) 0.142(3) Uani 1 1 d . . .
H12A H 0.6235 0.9728 0.5885 0.170 Uiso 1 1 calc R . .
H12B H 0.5977 0.9930 0.5798 0.170 Uiso 1 1 calc R . .
C13 C 0.6667 1.0421(3) 0.5833 0.153(6) Uani 1 2 d S . .
C14 C 0.6038(3) 0.6742(3) 0.43002(5) 0.176(4) Uani 1 1 d . . .
H01A H 0.6256 0.6810 0.4376 0.211 Uiso 1 1 calc R . .
H01B H 0.5998 0.7010 0.4288 0.211 Uiso 1 1 calc R . .
C15 C 0.5371(2) 0.6386(3) 0.44261(5) 0.200(5) Uiso 1 1 d G . .
C16 C 0.4951(3) 0.59803(18) 0.44513(6) 0.240(4) Uani 1 1 d G . .
H16 H 0.4869 0.5714 0.4399 0.288 Uiso 1 1 calc R . .
C17 C 0.46527(16) 0.59732(16) 0.45543(7) 0.238(5) Uani 1 1 d G . .
H17 H 0.4372 0.5702 0.4571 0.286 Uiso 1 1 calc R . .
C19 C 0.47747(18) 0.6372(2) 0.46320(5) 0.182(3) Uani 1 1 d GD . .
C20 C 0.5195(2) 0.67774(16) 0.46068(5) 0.156(3) Uiso 1 1 d G . .
C18 C 0.54927(14) 0.67845(18) 0.45038(6) 0.154(3) Uani 1 1 d G . .
H18 H 0.5774 0.7056 0.4487 0.185 Uiso 1 1 calc R . .
C21 C 0.52181(3) 0.70804(3) 0.469619(7) 0.207(4) Uani 1 1 d D . .
H21 H 0.5496 0.7363 0.4692 0.248 Uiso 1 1 calc R . .
C22 C 0.49135(3) 0.70711(3) 0.479723(7) 0.233(5) Uani 1 1 d RD . .
H22 H 0.4993 0.7336 0.4850 0.280 Uiso 1 1 d R . .
C23 C 0.44894(3) 0.66667(3) 0.481911(7) 0.269(7) Uani 1 1 d RD . .
C24 C 0.43699(3) 0.62715(3) 0.473994(7) 0.216(4) Uani 1 1 d RD . .
H24 H 0.4090 0.5995 0.4752 0.259 Uiso 1 1 d R . .
C25 C 0.41209(3) 0.66793(3) 0.489704(7) 0.315(8) Uiso 1 1 d RD . .
O1 O 0.38322(3) 0.72477(3) 0.541672(7) 0.1488(19) Uani 1 1 d R . .
O2 O 0.27687(3) 0.57246(3) 0.495902(7) 0.1667(17) Uani 1 1 d R . .
O3 O 0.32802(3) 0.57297(3) 0.522506(7) 0.213(3) Uani 1 1 d R . .
O4 O 0.38512(3) 0.63121(3) 0.493451(7) 0.203(2) Uani 1 1 d R . .
O5 O 0.33333(3) 0.66667(3) 0.513469(7) 0.124(2) Uani 1 3 d SR . .
O6 O 0.56240(3) 0.63699(3) 0.433481(7) 0.229(3) Uani 1 1 d R . .
O7 O 0.63245(3) 0.97182(3) 0.568348(7) 0.153(2) Uani 1 1 d R . .
Zn1 Zn 0.33333(3) 0.66667(3) 0.533774(7) 0.1248(5) Uani 1 3 d SR . .
Zn2 Zn 0.33399(3) 0.61199(3) 0.506800(7) 0.1391(4) Uani 1 1 d R . .

loop_
_atom_site_aniso_label
_atom_site_aniso_U_11
_atom_site_aniso_U_22
_atom_site_aniso_U_33
_atom_site_aniso_U_23
_atom_site_aniso_U_13
_atom_site_aniso_U_12
C1 0.084(8) 0.133(8) 0.206(10) -0.014(7) 0.014(7) 0.041(7)
C2 0.106(11) 0.148(11) 0.130(10) -0.059(8) -0.004(8) 0.040(10)
C3 0.129(9) 0.136(9) 0.179(11) -0.049(8) -0.026(10) 0.014(7)
C4 0.206(15) 0.208(14) 0.152(11) 0.013(10) 0.067(11) 0.102(12)
C5 0.30(3) 0.29(2) 0.058(8) 0.016(10) 0.050(11) 0.23(2)
C6 0.054(8) 0.109(9) 0.259(19) 0.012(11) -0.024(11) -0.017(7)
C7 0.104(9) 0.186(11) 0.163(9) -0.029(9) -0.002(10) 0.023(8)
C8 0.194(13) 0.175(11) 0.164(9) -0.103(9) -0.035(11) 0.044(10)
C9 0.143(10) 0.209(12) 0.143(9) -0.083(7) 0.003(8) 0.032(9)
C10 0.134(11) 0.157(12) 0.151(12) -0.052(9) -0.049(10) 0.053(10)
C11 0.186(14) 0.130(10) 0.155(12) -0.100(9) -0.092(11) 0.058(10)
C12 0.241(9) 0.195(8) 0.059(5) -0.044(5) -0.033(5) 0.161(8)
C13 0.141(11) 0.081(6) 0.257(17) -0.085(6) -0.170(11) 0.071(5)
C14 0.227(10) 0.364(13) 0.067(5) 0.034(6) 0.083(5) 0.245(10)
C16 0.170(9) 0.162(9) 0.315(11) -0.025(7) 0.096(7) 0.028(8)
C17 0.170(9) 0.167(10) 0.317(12) -0.005(8) 0.136(8) 0.038(7)
C19 0.220(10) 0.106(8) 0.196(8) -0.051(6) 0.017(7) 0.064(8)
C18 0.166(6) 0.205(8) 0.123(5) 0.011(5) 0.044(5) 0.118(6)
C21 0.263(10) 0.161(7) 0.202(8) -0.097(6) -0.073(7) 0.109(7)
C22 0.375(14) 0.352(13) 0.125(6) -0.087(7) 0.023(7) 0.296(12)
C23 0.110(8) 0.151(10) 0.465(17) 0.029(10) -0.140(11) 0.005(7)
C24 0.213(10) 0.204(10) 0.221(9) 0.036(7) 0.088(7) 0.098(8)
O1 0.154(5) 0.129(4) 0.149(4) -0.017(3) -0.012(4) 0.059(4)
O2 0.188(5) 0.131(4) 0.145(3) -0.018(3) -0.030(3) 0.052(4)
O3 0.263(7) 0.158(5) 0.205(6) -0.039(5) -0.083(5) 0.095(5)
O4 0.254(6) 0.207(5) 0.136(3) -0.021(4) 0.060(4) 0.108(5)
O5 0.123(4) 0.123(4) 0.126(6) 0.000 0.000 0.0613(18)
O6 0.167(6) 0.238(7) 0.238(6) 0.073(5) 0.074(5) 0.068(5)
O7 0.153(5) 0.152(5) 0.134(4) -0.048(4) -0.036(4) 0.061(4)
Zn1 0.1327(8) 0.1327(8) 0.1089(10) 0.000 0.000 0.0664(4)
Zn2 0.1546(9) 0.1395(8) 0.1208(6) -0.0020(6) 0.0014(6) 0.0717(7)

_geom_special_details            
;
All esds (except the esd in the dihedral angle between two l.s. planes)
are estimated using the full covariance matrix. The cell esds are taken
into account individually in the estimation of esds in distances, angles
and torsion angles; correlations between esds in cell parameters are only
used when they are defined by crystal symmetry. An approximate (isotropic)
treatment of cell esds is used for estimating esds involving l.s. planes.
;

loop_
_geom_bond_atom_site_label_1
_geom_bond_atom_site_label_2
_geom_bond_distance
_geom_bond_site_symmetry_2
_geom_bond_publ_flag
C1 O1 1.232(7) . ?
C1 O3 1.264(9) 2_665 ?
C1 C2 1.479(10) . ?
C2 C7 1.329(10) . ?
C2 C3 1.398(10) . ?
C3 C4 1.403(11) . ?
C3 H6 0.9300 . ?
C4 C5 1.455(14) . ?
C4 H5 0.9300 . ?
C5 C11 1.405(15) . ?
C5 C6 1.447(16) . ?
C6 C8 1.400(11) . ?
C6 C7 1.442(11) . ?
C7 H2 0.9300 . ?
C8 C9 1.361(9) . ?
C8 H11 0.9300 . ?
C9 C10 1.425(11) . ?
C9 H10 0.9300 . ?
C10 O7 1.312(10) . ?
C10 C11 1.347(12) . ?
C11 H7 0.9300 . ?
C12 O7 1.416(5) . ?
C12 C13 1.539(7) . ?
C12 H12A 0.9700 . ?
C12 H12B 0.9700 . ?
C13 C14 1.534(6) 36_665 ?
C13 C14 1.534(6) 20_566 ?
C13 C12 1.539(7) 17_655 ?
C14 O6 1.350(7) . ?
C14 C13 1.534(6) 21_656 ?
C14 H01A 0.9700 . ?
C14 H01B 0.9700 . ?
C15 O6 1.233(4) . ?
C15 C16 1.3900 . ?
C15 C18 1.3900 . ?
C16 C17 1.3900 . ?
C16 H16 0.9300 . ?
C17 C19 1.3900 . ?
C17 H17 0.9300 . ?
C19 C20 1.3900 . ?
C19 C24 1.593(4) . ?
C20 C21 1.294(4) . ?
C20 C18 1.3900 . ?
C18 H18 0.9300 . ?
C21 C22 1.3899 . ?
C21 H21 0.9300 . ?
C22 C23 1.3900 . ?
C22 H22 0.9301 . ?
C23 C24 1.3900 . ?
C23 C25 1.4507 . ?
C24 H24 0.9300 . ?
C25 O4 1.1495 . ?
C25 O2 1.2081(11) 2_665 ?
O1 Zn1 1.9579 . ?
O2 C25 1.2081(11) 3_565 ?
O2 Zn2 1.9789 . ?
O3 C1 1.264(9) 3_565 ?
O3 Zn2 1.9319 . ?
O4 Zn2 1.9602 . ?
O5 Zn2 1.9323(13) 3_565 ?
O5 Zn2 1.9325(13) 2_665 ?
O5 Zn2 1.9325 . ?
O5 Zn1 1.9510 . ?
Zn1 O1 1.9577(14) 2_665 ?
Zn1 O1 1.9580(12) 3_565 ?
Zn2 Zn2 3.1577(13) 2_665 ?
Zn2 Zn2 3.1577(13) 3_565 ?

loop_
_geom_angle_atom_site_label_1
_geom_angle_atom_site_label_2
_geom_angle_atom_site_label_3
_geom_angle
_geom_angle_site_symmetry_1
_geom_angle_site_symmetry_3
_geom_angle_publ_flag
O1 C1 O3 128.4(8) . 2_665 ?
O1 C1 C2 117.4(9) . . ?
O3 C1 C2 114.1(7) 2_665 . ?
C7 C2 C3 119.9(10) . . ?
C7 C2 C1 123.3(12) . . ?
C3 C2 C1 116.8(12) . . ?
C2 C3 C4 119.6(12) . . ?
C2 C3 H6 120.2 . . ?
C4 C3 H6 120.2 . . ?
C3 C4 C5 127.1(14) . . ?
C3 C4 H5 116.4 . . ?
C5 C4 H5 116.4 . . ?
C11 C5 C6 119.9(16) . . ?
C11 C5 C4 133.6(13) . . ?
C6 C5 C4 106.4(16) . . ?
C8 C6 C7 114.1(18) . . ?
C8 C6 C5 118.1(16) . . ?
C7 C6 C5 127.8(15) . . ?
C2 C7 C6 119.0(11) . . ?
C2 C7 H2 120.5 . . ?
C6 C7 H2 120.5 . . ?
C9 C8 C6 120.6(12) . . ?
C9 C8 H11 119.7 . . ?
C6 C8 H11 119.7 . . ?
C8 C9 C10 120.6(10) . . ?
C8 C9 H10 119.7 . . ?
C10 C9 H10 119.7 . . ?
O7 C10 C11 118.1(16) . . ?
O7 C10 C9 121.1(14) . . ?
C11 C10 C9 120.7(12) . . ?
C10 C11 C5 120.0(15) . . ?
C10 C11 H7 120.0 . . ?
C5 C11 H7 120.0 . . ?
O7 C12 C13 113.9(5) . . ?
O7 C12 H12A 108.8 . . ?
C13 C12 H12A 108.8 . . ?
O7 C12 H12B 108.8 . . ?
C13 C12 H12B 108.8 . . ?
H12A C12 H12B 107.7 . . ?
C14 C13 C14 116.0(8) 36_665 20_566 ?
C14 C13 C12 112.3(4) 36_665 . ?
C14 C13 C12 107.4(3) 20_566 . ?
C14 C13 C12 107.4(3) 36_665 17_655 ?
C14 C13 C12 112.3(4) 20_566 17_655 ?
C12 C13 C12 100.5(8) . 17_655 ?
O6 C14 C13 113.1(5) . 21_656 ?
O6 C14 H01A 109.0 . . ?
C13 C14 H01A 109.0 21_656 . ?
O6 C14 H01B 109.0 . . ?
C13 C14 H01B 109.0 21_656 . ?
H01A C14 H01B 107.8 . . ?
O6 C15 C16 117.1(6) . . ?
O6 C15 C18 122.9(6) . . ?
C16 C15 C18 120.0 . . ?
C15 C16 C17 120.0 . . ?
C15 C16 H16 120.0 . . ?
C17 C16 H16 120.0 . . ?
C19 C17 C16 120.0 . . ?
C19 C17 H17 120.0 . . ?
C16 C17 H17 120.0 . . ?
C17 C19 C20 120.0 . . ?
C17 C19 C24 109.7(5) . . ?
C20 C19 C24 130.3(5) . . ?
C21 C20 C18 133.9(5) . . ?
C21 C20 C19 106.1(5) . . ?
C18 C20 C19 120.0 . . ?
C20 C18 C15 120.0 . . ?
C20 C18 H18 120.0 . . ?
C15 C18 H18 120.0 . . ?
C20 C21 C22 133.3(3) . . ?
C20 C21 H21 113.4 . . ?
C22 C21 H21 113.4 . . ?
C21 C22 C23 120.0 . . ?
C21 C22 H22 120.0 . . ?
C23 C22 H22 120.0 . . ?
C24 C23 C22 120.0 . . ?
C24 C23 C25 117.5 . . ?
C22 C23 C25 120.7 . . ?
C23 C24 C19 110.3(3) . . ?
C23 C24 H24 122.5 . . ?
C19 C24 H24 127.2 . . ?
O4 C25 O2 128.4 . 2_665 ?
O4 C25 C23 110.6 . . ?
O2 C25 C23 109.97(6) 2_665 . ?
C1 O1 Zn1 125.1(5) . . ?
C25 O2 Zn2 122.96(7) 3_565 . ?
C1 O3 Zn2 131.7(4) 3_565 . ?
C25 O4 Zn2 129.6 . . ?
Zn2 O5 Zn2 109.6 3_565 2_665 ?
Zn2 O5 Zn2 109.6 3_565 . ?
Zn2 O5 Zn2 109.6 2_665 . ?
Zn2 O5 Zn1 109.4 3_565 . ?
Zn2 O5 Zn1 109.4 2_665 . ?
Zn2 O5 Zn1 109.4 . . ?
C15 O6 C14 122.6(4) . . ?
C10 O7 C12 126.8(8) . . ?
O5 Zn1 O1 112.8 . 2_665 ?
O5 Zn1 O1 112.8 . . ?
O1 Zn1 O1 105.9 2_665 . ?
O5 Zn1 O1 112.8 . 3_565 ?
O1 Zn1 O1 105.9 2_665 3_565 ?
O1 Zn1 O1 105.9 . 3_565 ?
O3 Zn2 O5 108.9 . . ?
O3 Zn2 O4 120.8 . . ?
O5 Zn2 O4 109.0 . . ?
O3 Zn2 O2 103.1 . . ?
O5 Zn2 O2 109.9 . . ?
O4 Zn2 O2 104.7 . . ?
O3 Zn2 Zn2 125.6 . 2_665 ?
O5 Zn2 Zn2 35.2 . 2_665 ?
O4 Zn2 Zn2 74.1 . 2_665 ?
O2 Zn2 Zn2 124.5 . 2_665 ?
O3 Zn2 Zn2 119.1 . 3_565 ?
O5 Zn2 Zn2 35.2 . 3_565 ?
O4 Zn2 Zn2 118.2 . 3_565 ?
O2 Zn2 Zn2 74.7 . 3_565 ?
Zn2 Zn2 Zn2 60.0 2_665 3_565 ?

loop_
_geom_torsion_atom_site_label_1
_geom_torsion_atom_site_label_2
_geom_torsion_atom_site_label_3
_geom_torsion_atom_site_label_4
_geom_torsion
_geom_torsion_site_symmetry_1
_geom_torsion_site_symmetry_2
_geom_torsion_site_symmetry_3
_geom_torsion_site_symmetry_4
_geom_torsion_publ_flag
O1 C1 C2 C7 170.7(8) . . . . ?
O3 C1 C2 C7 -12.8(12) 2_665 . . . ?
O1 C1 C2 C3 -10.3(11) . . . . ?
O3 C1 C2 C3 166.2(7) 2_665 . . . ?
C7 C2 C3 C4 0.9(15) . . . . ?
C1 C2 C3 C4 -178.2(8) . . . . ?
C2 C3 C4 C5 -5.0(17) . . . . ?
C3 C4 C5 C11 180.0(11) . . . . ?
C3 C4 C5 C6 3.9(14) . . . . ?
C11 C5 C6 C8 2.1(13) . . . . ?
C4 C5 C6 C8 178.8(9) . . . . ?
C11 C5 C6 C7 -176.1(9) . . . . ?
C4 C5 C6 C7 0.5(13) . . . . ?
C3 C2 C7 C6 3.2(14) . . . . ?
C1 C2 C7 C6 -177.9(7) . . . . ?
C8 C6 C7 C2 177.6(9) . . . . ?
C5 C6 C7 C2 -4.1(14) . . . . ?
C7 C6 C8 C9 179.7(8) . . . . ?
C5 C6 C8 C9 1.2(14) . . . . ?
C6 C8 C9 C10 -2.9(15) . . . . ?
C8 C9 C10 O7 -174.7(8) . . . . ?
C8 C9 C10 C11 1.3(17) . . . . ?
O7 C10 C11 C5 178.2(7) . . . . ?
C9 C10 C11 C5 2.1(18) . . . . ?
C6 C5 C11 C10 -3.8(16) . . . . ?
C4 C5 C11 C10 -179.3(12) . . . . ?
O7 C12 C13 C14 -179.5(5) . . . 36_665 ?
O7 C12 C13 C14 51.9(7) . . . 20_566 ?
O7 C12 C13 C12 -65.6(4) . . . 17_655 ?
O6 C15 C16 C17 179.0(5) . . . . ?
C18 C15 C16 C17 0.0 . . . . ?
C15 C16 C17 C19 0.0 . . . . ?
C16 C17 C19 C20 0.0 . . . . ?
C16 C17 C19 C24 178.9(4) . . . . ?
C17 C19 C20 C21 -178.3(4) . . . . ?
C24 C19 C20 C21 3.1(3) . . . . ?
C17 C19 C20 C18 0.0 . . . . ?
C24 C19 C20 C18 -178.6(5) . . . . ?
C21 C20 C18 C15 177.7(5) . . . . ?
C19 C20 C18 C15 0.0 . . . . ?
O6 C15 C18 C20 -179.0(5) . . . . ?
C16 C15 C18 C20 0.0 . . . . ?
C18 C20 C21 C22 178.7(3) . . . . ?
C19 C20 C21 C22 -3.4(3) . . . . ?
C20 C21 C22 C23 2.2(3) . . . . ?
C21 C22 C23 C24 0.0 . . . . ?
C21 C22 C23 C25 -164.4 . . . . ?
C22 C23 C24 C19 -0.1(2) . . . . ?
C25 C23 C24 C19 164.8(2) . . . . ?
C17 C19 C24 C23 179.5(2) . . . . ?
C20 C19 C24 C23 -1.7(4) . . . . ?
C24 C23 C25 O4 33.4 . . . . ?
C22 C23 C25 O4 -161.8 . . . . ?
C24 C23 C25 O2 -179.2 . . . 2_665 ?
C22 C23 C25 O2 -14.4 . . . 2_665 ?
O3 C1 O1 Zn1 9.8(10) 2_665 . . . ?
C2 C1 O1 Zn1 -174.3(5) . . . . ?
O2 C25 O4 Zn2 29.05(8) 2_665 . . . ?
C23 C25 O4 Zn2 168.8 . . . . ?
C16 C15 O6 C14 179.5(4) . . . . ?
C18 C15 O6 C14 -1.5(6) . . . . ?
C13 C14 O6 C15 -169.1(5) 21_656 . . . ?
C11 C10 O7 C12 -9.7(14) . . . . ?
C9 C10 O7 C12 166.4(7) . . . . ?
C13 C12 O7 C10 -164.0(7) . . . . ?
Zn2 O5 Zn1 O1 6.91(5) 3_565 . . 2_665 ?
Zn2 O5 Zn1 O1 126.91(8) 2_665 . . 2_665 ?
Zn2 O5 Zn1 O1 -113.1 . . . 2_665 ?
Zn2 O5 Zn1 O1 -113.1 3_565 . . . ?
Zn2 O5 Zn1 O1 6.9 2_665 . . . ?
Zn2 O5 Zn1 O1 126.9 . . . . ?
Zn2 O5 Zn1 O1 126.91(9) 3_565 . . 3_565 ?
Zn2 O5 Zn1 O1 -113.08(9) 2_665 . . 3_565 ?
Zn2 O5 Zn1 O1 6.9 . . . 3_565 ?
C1 O1 Zn1 O5 -18.6(4) . . . . ?
C1 O1 Zn1 O1 -142.5(4) . . . 2_665 ?
C1 O1 Zn1 O1 105.3(4) . . . 3_565 ?
C1 O3 Zn2 O5 -19.5(5) 3_565 . . . ?
C1 O3 Zn2 O4 107.6(5) 3_565 . . . ?
C1 O3 Zn2 O2 -136.2(5) 3_565 . . . ?
C1 O3 Zn2 Zn2 15.6(5) 3_565 . . 2_665 ?
C1 O3 Zn2 Zn2 -56.6(5) 3_565 . . 3_565 ?
Zn2 O5 Zn2 O3 -114.1 3_565 . . . ?
Zn2 O5 Zn2 O3 125.6 2_665 . . . ?
Zn1 O5 Zn2 O3 5.8 . . . . ?
Zn2 O5 Zn2 O4 112.4 3_565 . . . ?
Zn2 O5 Zn2 O4 -7.9 2_665 . . . ?
Zn1 O5 Zn2 O4 -127.8 . . . . ?
Zn2 O5 Zn2 O2 -1.9 3_565 . . . ?
Zn2 O5 Zn2 O2 -122.1 2_665 . . . ?
Zn1 O5 Zn2 O2 118.0 . . . . ?
Zn2 O5 Zn2 Zn2 120.3 3_565 . . 2_665 ?
Zn1 O5 Zn2 Zn2 -119.9 . . . 2_665 ?
Zn2 O5 Zn2 Zn2 -120.3 2_665 . . 3_565 ?
Zn1 O5 Zn2 Zn2 119.9 . . . 3_565 ?
C25 O4 Zn2 O3 -126.3 . . . . ?
C25 O4 Zn2 O5 0.7 . . . . ?
C25 O4 Zn2 O2 118.3 . . . . ?
C25 O4 Zn2 Zn2 -4.0 . . . 2_665 ?
C25 O4 Zn2 Zn2 38.0 . . . 3_565 ?
C25 O2 Zn2 O3 143.6 3_565 . . . ?
C25 O2 Zn2 O5 27.7 3_565 . . . ?
C25 O2 Zn2 O4 -89.3 3_565 . . . ?
C25 O2 Zn2 Zn2 -8.7 3_565 . . 2_665 ?
C25 O2 Zn2 Zn2 26.6 3_565 . . 3_565 ?

_diffrn_measured_fraction_theta_max 0.998
_diffrn_reflns_theta_full        25.00
_diffrn_measured_fraction_theta_full 0.998
_refine_diff_density_max         0.224
_refine_diff_density_min         -0.271
_refine_diff_density_rms         0.022

# SQUEEZE RESULTS (APPEND TO CIF)
loop_
_platon_squeeze_void_nr
_platon_squeeze_void_average_x
_platon_squeeze_void_average_y
_platon_squeeze_void_average_z
_platon_squeeze_void_volume
_platon_squeeze_void_count_electrons
1 -0.040 -0.030 -0.001 77344.1 15163.6
_platon_squeeze_details          
; ?
;





