####################################################################### 
# 
# This file contains crystal structure data downloaded from the 
# Cambridge Structural Database (CSD) hosted by the Cambridge 
# Crystallographic Data Centre (CCDC).
# 
# Full information about CCDC data access policies and citation 
# guidelines are available at http://www.ccdc.cam.ac.uk/access/V1 
# 
# Audit and citation data items may have been added by the CCDC. 
# Please retain this information to preserve the provenance of 
# this file and to allow appropriate attribution of the data. 
# 
#######################################################################

data_1
_audit_block_doi                 10.5517/ccx0dbm
_database_code_depnum_ccdc_archive 'CCDC 834530'
loop_
_citation_id
_citation_doi
_citation_year
1 10.1002/adma.201102880 2011
_audit_update_record             
;
2011-07-14 deposited with the CCDC.	2024-07-11 downloaded from the CCDC.
;
#TrackingRef '1-3.cif'


_audit_creation_method           SHELXL-97
_chemical_name_systematic        
;
?
;
_chemical_name_common            ?
_chemical_melting_point          ?
_chemical_formula_moiety         ?
_chemical_formula_sum            'C111 H96 O50 Zn8'
_chemical_formula_weight         2752.84

loop_
_atom_type_symbol
_atom_type_description
_atom_type_scat_dispersion_real
_atom_type_scat_dispersion_imag
_atom_type_scat_source
C C 0.0033 0.0016 'International Tables Vol C Tables 4.2.6.8 and 6.1.1.4'
H H 0.0000 0.0000 'International Tables Vol C Tables 4.2.6.8 and 6.1.1.4'
O O 0.0106 0.0060 'International Tables Vol C Tables 4.2.6.8 and 6.1.1.4'
Zn Zn 0.2839 1.4301 'International Tables Vol C Tables 4.2.6.8 and 6.1.1.4'

_symmetry_cell_setting           Trigonal
_symmetry_space_group_name_H-M   ' R -3 c '
_symmetry_space_group_name_Hall  '-R 3 2"c '

loop_
_symmetry_equiv_pos_as_xyz
'x, y, z'
'-y, x-y, z'
'-x+y, -x, z'
'x-y, -y, -z+1/2'
'-x, -x+y, -z+1/2'
'y, x, -z+1/2'
'x+2/3, y+1/3, z+1/3'
'-y+2/3, x-y+1/3, z+1/3'
'-x+y+2/3, -x+1/3, z+1/3'
'x-y+2/3, -y+1/3, -z+5/6'
'-x+2/3, -x+y+1/3, -z+5/6'
'y+2/3, x+1/3, -z+5/6'
'x+1/3, y+2/3, z+2/3'
'-y+1/3, x-y+2/3, z+2/3'
'-x+y+1/3, -x+2/3, z+2/3'
'x-y+1/3, -y+2/3, -z+7/6'
'-x+1/3, -x+y+2/3, -z+7/6'
'y+1/3, x+2/3, -z+7/6'
'-x, -y, -z'
'y, -x+y, -z'
'x-y, x, -z'
'-x+y, y, z-1/2'
'x, x-y, z-1/2'
'-y, -x, z-1/2'
'-x+2/3, -y+1/3, -z+1/3'
'y+2/3, -x+y+1/3, -z+1/3'
'x-y+2/3, x+1/3, -z+1/3'
'-x+y+2/3, y+1/3, z-1/6'
'x+2/3, x-y+1/3, z-1/6'
'-y+2/3, -x+1/3, z-1/6'
'-x+1/3, -y+2/3, -z+2/3'
'y+1/3, -x+y+2/3, -z+2/3'
'x-y+1/3, x+2/3, -z+2/3'
'-x+y+1/3, y+2/3, z+1/6'
'x+1/3, x-y+2/3, z+1/6'
'-y+1/3, -x+2/3, z+1/6'

_cell_length_a                   26.880(3)
_cell_length_b                   26.880(3)
_cell_length_c                   85.169(4)
_cell_angle_alpha                90.00
_cell_angle_beta                 90.00
_cell_angle_gamma                120.00
_cell_volume                     53293(10)
_cell_formula_units_Z            6
_cell_measurement_temperature    293(2)
_cell_measurement_reflns_used    ?
_cell_measurement_theta_min      1.30
_cell_measurement_theta_max      25.21

_exptl_crystal_description       block
_exptl_crystal_colour            colorless
_exptl_crystal_size_max          0.35
_exptl_crystal_size_mid          0.34
_exptl_crystal_size_min          0.31
_exptl_crystal_density_meas      ?
_exptl_crystal_density_diffrn    0.515
_exptl_crystal_density_method    'not measured'
_exptl_crystal_F_000             8412
_exptl_absorpt_coefficient_mu    0.561
_exptl_absorpt_correction_type   multi-scan
_exptl_absorpt_correction_T_min  0.641
_exptl_absorpt_correction_T_max  0.671
_exptl_absorpt_process_details   'SADABS (Sheldrick, 1996)'

_exptl_special_details           
;
?
;

_diffrn_ambient_temperature      293(2)
_diffrn_radiation_wavelength     0.71069
_diffrn_radiation_type           MoK\a
_diffrn_radiation_source         'fine-focus sealed tube'
_diffrn_radiation_monochromator  graphite
_diffrn_measurement_device_type  'Bruker APEX CCD area-detector'
_diffrn_measurement_method       '\w scans'
_diffrn_detector_area_resol_mean ?
_diffrn_standards_number         0
_diffrn_standards_interval_count ?
_diffrn_standards_interval_time  ?
_diffrn_standards_decay_%        ?
_diffrn_reflns_number            87702
_diffrn_reflns_av_R_equivalents  0.1337
_diffrn_reflns_av_sigmaI/netI    0.1522
_diffrn_reflns_limit_h_min       -31
_diffrn_reflns_limit_h_max       32
_diffrn_reflns_limit_k_min       -23
_diffrn_reflns_limit_k_max       32
_diffrn_reflns_limit_l_min       -101
_diffrn_reflns_limit_l_max       95
_diffrn_reflns_theta_min         1.30
_diffrn_reflns_theta_max         25.21
_reflns_number_total             10646
_reflns_number_gt                3423
_reflns_threshold_expression     >2sigma(I)

_computing_data_collection       'SMART (Bruker, 1997)'
_computing_cell_refinement       'SMART (Bruker, 1997)'
_computing_data_reduction        SAINT
_computing_structure_solution    'SHELXS-97(Sheldrick, 1997)'
_computing_structure_refinement  'SHELXL-97 (Sheldrick, 1997)'
_computing_molecular_graphics    "'Diamond V3.2d (Crystal Impact, 2008)"
_computing_publication_material  SHELXL-97

_refine_special_details          
;
Refinement of F^2^ against ALL reflections. The weighted R-factor wR and
goodness of fit S are based on F^2^, conventional R-factors R are based
on F, with F set to zero for negative F^2^. The threshold expression of
F^2^ > 2sigma(F^2^) is used only for calculating R-factors(gt) etc. and is
not relevant to the choice of reflections for refinement. R-factors based
on F^2^ are statistically about twice as large as those based on F, and R-
factors based on ALL data will be even larger.
;

_refine_ls_structure_factor_coef Fsqd
_refine_ls_matrix_type           full
_refine_ls_weighting_scheme      calc
_refine_ls_weighting_details     
'calc w=1/[\s^2^(Fo^2^)+(0.0200P)^2^+0.0000P] where P=(Fo^2^+2Fc^2^)/3'
_atom_sites_solution_primary     direct
_atom_sites_solution_secondary   difmap
_atom_sites_solution_hydrogens   geom
_refine_ls_hydrogen_treatment    mixed
_refine_ls_extinction_method     none
_refine_ls_extinction_coef       ?
_refine_ls_number_reflns         10646
_refine_ls_number_parameters     255
_refine_ls_number_restraints     0
_refine_ls_R_factor_all          0.1640
_refine_ls_R_factor_gt           0.0497
_refine_ls_wR_factor_ref         0.0942
_refine_ls_wR_factor_gt          0.0879
_refine_ls_goodness_of_fit_ref   0.966
_refine_ls_restrained_S_all      0.966
_refine_ls_shift/su_max          0.001
_refine_ls_shift/su_mean         0.000

loop_
_atom_site_label
_atom_site_type_symbol
_atom_site_fract_x
_atom_site_fract_y
_atom_site_fract_z
_atom_site_U_iso_or_equiv
_atom_site_adp_type
_atom_site_occupancy
_atom_site_symmetry_multiplicity
_atom_site_calc_flag
_atom_site_refinement_flags
_atom_site_disorder_assembly
_atom_site_disorder_group
Zn1 Zn 0.0000 0.0000 0.138519(7) 0.0782(3) Uani 1 3 d S . .
Zn2 Zn 0.063799(18) 0.072106(18) 0.168696(4) 0.08126(18) Uani 1 1 d . . .
O5 O 0.0000 0.0000 0.16131(3) 0.0690(10) Uani 1 3 d S . .
C10 C 0.3526(2) 0.3333 0.0833 0.0699(15) Uani 1 2 d S . .
O6 O 0.27162(13) 0.29296(11) 0.10128(3) 0.1065(9) Uani 1 1 d . . .
C5 C 0.2282(2) 0.2470(2) 0.10880(6) 0.0906(14) Uani 1 1 d . . .
O3 O 0.10400(13) 0.12227(12) 0.15142(3) 0.1473(13) Uani 1 1 d . . .
C9 C 0.29452(16) 0.28117(15) 0.08721(4) 0.0884(12) Uani 1 1 d . . .
H01A H 0.2682 0.2729 0.0785 0.106 Uiso 1 1 calc R . .
H01B H 0.2989 0.2479 0.0889 0.106 Uiso 1 1 calc R . .
O9 O -0.03147(12) 0.24031(15) 0.23178(3) 0.1231(10) Uani 1 1 d . . .
C2 C 0.1446(2) 0.1602(2) 0.12689(6) 0.1013(14) Uani 1 1 d . . .
O2 O 0.03563(14) 0.11381(13) 0.18108(3) 0.1299(12) Uani 1 1 d . . .
C15 C -0.0185(3) 0.1376(3) 0.19828(6) 0.136(2) Uani 1 1 d . . .
C11 C 0.01850(17) 0.29342(18) 0.23591(4) 0.0985(13) Uani 1 1 d . . .
H18A H 0.0300 0.3208 0.2274 0.118 Uiso 1 1 calc R . .
H18B H 0.0503 0.2875 0.2385 0.118 Uiso 1 1 calc R . .
C16 C -0.0678(2) 0.1227(2) 0.20572(7) 0.160(2) Uani 1 1 d . . .
H10 H -0.1002 0.0876 0.2035 0.191 Uiso 1 1 calc R . .
C12 C -0.0244(3) 0.2086(3) 0.22049(6) 0.1223(18) Uani 1 1 d . . .
C14 C 0.0294(2) 0.1900(3) 0.20146(6) 0.1414(19) Uani 1 1 d . . .
H05 H 0.0638 0.2018 0.1962 0.170 Uiso 1 1 calc R . .
C17 C -0.0716(3) 0.1578(3) 0.21650(7) 0.151(2) Uani 1 1 d . . .
C4 C 0.1938(2) 0.1952(3) 0.10268(5) 0.1208(17) Uani 1 1 d . . .
H018 H 0.1990 0.1877 0.0923 0.145 Uiso 1 1 calc R . .
C13 C 0.0249(3) 0.2247(2) 0.21285(7) 0.1410(19) Uani 1 1 d . . .
H06 H 0.0569 0.2599 0.2152 0.169 Uiso 1 1 calc R . .
O7 O 0.2552(2) 0.3095(2) 0.12973(5) 0.267(2) Uani 1 1 d . . .
C3 C 0.1505(2) 0.15257(19) 0.11148(6) 0.1237(16) Uani 1 1 d . . .
H017 H 0.1249 0.1179 0.1067 0.148 Uiso 1 1 calc R . .
C6 C 0.2189(3) 0.2529(3) 0.12421(8) 0.144(2) Uani 1 1 d . . .
C18 C -0.0134(3) 0.0994(3) 0.18678(7) 0.138(2) Uani 1 1 d . . .
C7 C 0.1790(3) 0.2111(3) 0.13318(6) 0.159(2) Uani 1 1 d . . .
H015 H 0.1755 0.2177 0.1437 0.191 Uiso 1 1 calc R . .
O1 O 0.11271(13) 0.05943(16) 0.18292(4) 0.1551(14) Uani 1 1 d . . .
O4 O 0.06531(13) 0.06733(14) 0.12990(3) 0.1194(10) Uani 1 1 d . . .
O8 O -0.1207(2) 0.14507(18) 0.22441(5) 0.237(2) Uani 1 1 d . . .
C1 C 0.0998(2) 0.1139(2) 0.13668(6) 0.1230(18) Uani 1 1 d . . .
C19 C -0.1664(4) 0.0779(4) 0.22500(10) 0.642(12) Uani 1 1 d . . .
H01C H -0.1991 0.0717 0.2311 0.963 Uiso 1 1 calc R . .
H01D H -0.1491 0.0578 0.2298 0.963 Uiso 1 1 calc R . .
H01E H -0.1785 0.0638 0.2145 0.963 Uiso 1 1 calc R . .
C8 C 0.2504(5) 0.3232(3) 0.14580(10) 0.784(16) Uani 1 1 d . . .
H01F H 0.2772 0.3630 0.1477 1.176 Uiso 1 1 calc R . .
H01G H 0.2586 0.2999 0.1527 1.176 Uiso 1 1 calc R . .
H01H H 0.2121 0.3158 0.1477 1.176 Uiso 1 1 calc R . .

loop_
_atom_site_aniso_label
_atom_site_aniso_U_11
_atom_site_aniso_U_22
_atom_site_aniso_U_33
_atom_site_aniso_U_23
_atom_site_aniso_U_13
_atom_site_aniso_U_12
Zn1 0.0880(4) 0.0880(4) 0.0585(5) 0.000 0.000 0.04402(19)
Zn2 0.0917(4) 0.0850(3) 0.0647(3) 0.0026(3) -0.0012(3) 0.0425(3)
O5 0.0731(17) 0.0731(17) 0.061(2) 0.000 0.000 0.0365(8)
C10 0.069(3) 0.061(4) 0.076(4) 0.023(4) 0.0114(18) 0.031(2)
O6 0.137(3) 0.091(2) 0.0773(19) 0.0231(17) 0.0436(18) 0.046(2)
C5 0.120(4) 0.080(4) 0.057(3) 0.016(3) 0.031(3) 0.039(4)
O3 0.156(3) 0.121(3) 0.098(2) 0.013(2) 0.047(2) 0.020(2)
C9 0.102(4) 0.102(4) 0.055(3) 0.012(2) 0.000(2) 0.047(3)
O9 0.114(3) 0.113(3) 0.133(2) -0.054(2) 0.006(2) 0.049(2)
C2 0.117(4) 0.087(4) 0.077(4) 0.031(3) 0.036(3) 0.033(4)
O2 0.139(3) 0.105(2) 0.137(2) -0.0226(19) 0.029(2) 0.056(3)
C15 0.152(6) 0.118(5) 0.121(4) -0.061(4) 0.033(4) 0.056(5)
C11 0.105(4) 0.087(4) 0.101(3) -0.048(3) -0.012(3) 0.045(3)
C16 0.111(5) 0.138(5) 0.181(5) -0.090(4) 0.026(4) 0.027(4)
C12 0.067(4) 0.126(6) 0.145(5) -0.055(4) 0.016(4) 0.026(4)
C14 0.106(5) 0.110(5) 0.176(5) -0.046(4) 0.036(4) 0.030(4)
C17 0.096(5) 0.150(6) 0.164(5) -0.076(4) 0.040(4) 0.029(5)
C4 0.158(5) 0.104(4) 0.068(3) 0.012(4) 0.030(3) 0.041(4)
C13 0.118(5) 0.107(4) 0.170(5) -0.064(4) 0.014(4) 0.035(4)
O7 0.341(6) 0.151(4) 0.168(4) 0.009(3) 0.144(4) 0.018(4)
C3 0.130(4) 0.105(4) 0.081(4) 0.017(3) 0.018(3) 0.018(3)
C6 0.179(6) 0.065(4) 0.125(5) -0.022(4) 0.021(4) 0.013(4)
C18 0.119(6) 0.129(6) 0.133(5) -0.034(4) 0.007(4) 0.038(5)
C7 0.208(6) 0.072(4) 0.116(4) 0.025(4) 0.081(4) 0.010(4)
O1 0.151(3) 0.160(3) 0.165(3) -0.020(3) -0.090(2) 0.085(3)
O4 0.119(3) 0.112(3) 0.109(2) 0.020(2) 0.0300(19) 0.044(2)
O8 0.149(4) 0.185(4) 0.295(4) -0.143(3) 0.064(4) 0.021(3)
C1 0.154(5) 0.088(4) 0.093(4) 0.019(4) 0.027(4) 0.035(4)
C19 0.355(12) 0.449(14) 0.565(15) -0.300(12) 0.275(11) -0.217(11)
C8 0.93(2) 0.328(11) 0.374(10) -0.236(9) 0.458(14) -0.228(12)

_geom_special_details            
;
All esds (except the esd in the dihedral angle between two l.s. planes)
are estimated using the full covariance matrix. The cell esds are taken
into account individually in the estimation of esds in distances, angles
and torsion angles; correlations between esds in cell parameters are only
used when they are defined by crystal symmetry. An approximate (isotropic)
treatment of cell esds is used for estimating esds involving l.s. planes.
;

loop_
_geom_bond_atom_site_label_1
_geom_bond_atom_site_label_2
_geom_bond_distance
_geom_bond_site_symmetry_2
_geom_bond_publ_flag
Zn1 O4 1.929(3) 2 ?
Zn1 O4 1.929(3) 3 ?
Zn1 O4 1.929(3) . ?
Zn1 O5 1.941(3) . ?
Zn1 Zn2 3.1590(6) 2 ?
Zn1 Zn2 3.1590(6) . ?
Zn1 Zn2 3.1590(6) 3 ?
Zn2 O3 1.922(3) . ?
Zn2 O1 1.939(3) . ?
Zn2 O5 1.9415(10) . ?
Zn2 O2 1.947(3) . ?
O5 Zn2 1.9415(10) 2 ?
O5 Zn2 1.9415(10) 3 ?
C10 C11 1.507(4) 30 ?
C10 C11 1.507(4) 27 ?
C10 C9 1.524(4) 16_554 ?
C10 C9 1.524(4) . ?
O6 C5 1.362(4) . ?
O6 C9 1.452(3) . ?
C5 C4 1.335(5) . ?
C5 C6 1.360(5) . ?
O3 C1 1.271(4) . ?
O9 C12 1.359(5) . ?
O9 C11 1.431(4) . ?
C2 C7 1.323(5) . ?
C2 C3 1.349(5) . ?
C2 C1 1.483(6) . ?
O2 C18 1.269(5) . ?
C15 C16 1.338(5) . ?
C15 C14 1.378(5) . ?
C15 C18 1.474(7) . ?
C11 C10 1.508(4) 26_455 ?
C16 C17 1.357(5) . ?
C12 C13 1.340(5) . ?
C12 C17 1.363(5) . ?
C14 C13 1.393(5) . ?
C17 O8 1.364(5) . ?
C4 C3 1.375(5) . ?
O7 C6 1.416(5) . ?
O7 C8 1.440(6) . ?
C6 C7 1.338(5) . ?
C18 O1 1.282(5) 2 ?
O1 C18 1.282(5) 3 ?
O4 C1 1.264(4) . ?
O8 C19 1.598(8) . ?

loop_
_geom_angle_atom_site_label_1
_geom_angle_atom_site_label_2
_geom_angle_atom_site_label_3
_geom_angle
_geom_angle_site_symmetry_1
_geom_angle_site_symmetry_3
_geom_angle_publ_flag
O4 Zn1 O4 106.41(10) 2 3 ?
O4 Zn1 O4 106.41(10) 2 . ?
O4 Zn1 O4 106.41(10) 3 . ?
O4 Zn1 O5 112.39(9) 2 . ?
O4 Zn1 O5 112.39(9) 3 . ?
O4 Zn1 O5 112.39(9) . . ?
O4 Zn1 Zn2 76.93(9) 2 2 ?
O4 Zn1 Zn2 122.75(9) 3 2 ?
O4 Zn1 Zn2 127.93(9) . 2 ?
O5 Zn1 Zn2 35.551(10) . 2 ?
O4 Zn1 Zn2 122.75(9) 2 . ?
O4 Zn1 Zn2 127.93(9) 3 . ?
O4 Zn1 Zn2 76.93(9) . . ?
O5 Zn1 Zn2 35.551(10) . . ?
Zn2 Zn1 Zn2 60.468(17) 2 . ?
O4 Zn1 Zn2 127.93(9) 2 3 ?
O4 Zn1 Zn2 76.93(9) 3 3 ?
O4 Zn1 Zn2 122.75(9) . 3 ?
O5 Zn1 Zn2 35.552(10) . 3 ?
Zn2 Zn1 Zn2 60.469(17) 2 3 ?
Zn2 Zn1 Zn2 60.469(17) . 3 ?
O3 Zn2 O1 114.12(14) . . ?
O3 Zn2 O5 111.01(12) . . ?
O1 Zn2 O5 111.41(12) . . ?
O3 Zn2 O2 104.77(13) . . ?
O1 Zn2 O2 104.83(14) . . ?
O5 Zn2 O2 110.28(11) . . ?
O3 Zn2 Zn1 75.52(9) . . ?
O1 Zn2 Zn1 127.45(11) . . ?
O5 Zn2 Zn1 35.55(8) . . ?
O2 Zn2 Zn1 123.09(10) . . ?
Zn1 O5 Zn2 108.90(8) . 2 ?
Zn1 O5 Zn2 108.90(8) . . ?
Zn2 O5 Zn2 110.03(8) 2 . ?
Zn1 O5 Zn2 108.90(8) . 3 ?
Zn2 O5 Zn2 110.03(8) 2 3 ?
Zn2 O5 Zn2 110.03(8) . 3 ?
C11 C10 C11 115.5(5) 30 27 ?
C11 C10 C9 110.85(19) 30 16_554 ?
C11 C10 C9 104.2(2) 27 16_554 ?
C11 C10 C9 104.2(2) 30 . ?
C11 C10 C9 110.85(19) 27 . ?
C9 C10 C9 111.3(4) 16_554 . ?
C5 O6 C9 117.0(3) . . ?
C4 C5 C6 115.2(5) . . ?
C4 C5 O6 126.6(5) . . ?
C6 C5 O6 118.2(6) . . ?
C1 O3 Zn2 131.5(3) . . ?
O6 C9 C10 109.2(3) . . ?
C12 O9 C11 116.3(4) . . ?
C7 C2 C3 118.4(5) . . ?
C7 C2 C1 119.7(5) . . ?
C3 C2 C1 121.9(6) . . ?
C18 O2 Zn2 132.5(4) . . ?
C16 C15 C14 119.5(5) . . ?
C16 C15 C18 122.0(7) . . ?
C14 C15 C18 118.5(7) . . ?
O9 C11 C10 104.2(3) . 26_455 ?
C15 C16 C17 121.4(5) . . ?
C13 C12 C17 118.5(6) . . ?
C13 C12 O9 124.6(6) . . ?
C17 C12 O9 116.9(6) . . ?
C15 C14 C13 118.1(5) . . ?
C12 C17 C16 120.6(6) . . ?
C12 C17 O8 115.3(6) . . ?
C16 C17 O8 124.0(7) . . ?
C5 C4 C3 120.9(4) . . ?
C12 C13 C14 121.8(5) . . ?
C6 O7 C8 119.2(5) . . ?
C2 C3 C4 121.2(4) . . ?
C7 C6 C5 124.7(5) . . ?
C7 C6 O7 123.0(6) . . ?
C5 C6 O7 112.2(6) . . ?
O2 C18 O1 123.3(6) . 2 ?
O2 C18 C15 119.1(6) . . ?
O1 C18 C15 117.6(6) 2 . ?
C2 C7 C6 119.3(5) . . ?
C18 O1 Zn2 131.2(4) 3 . ?
C1 O4 Zn1 128.8(3) . . ?
C17 O8 C19 113.6(5) . . ?
O4 C1 O3 125.7(5) . . ?
O4 C1 C2 117.4(5) . . ?
O3 C1 C2 116.3(5) . . ?

_diffrn_measured_fraction_theta_max 0.995
_diffrn_reflns_theta_full        25.00
_diffrn_measured_fraction_theta_full 1.000
_refine_diff_density_max         0.382
_refine_diff_density_min         -0.208
_refine_diff_density_rms         0.034

# SQUEEZE RESULTS (APPEND TO CIF)
loop_
_platon_squeeze_void_nr
_platon_squeeze_void_average_x
_platon_squeeze_void_average_y
_platon_squeeze_void_average_z
_platon_squeeze_void_volume
_platon_squeeze_void_count_electrons
1 -0.056 -0.054 -0.001 40336.3 8412.5
_platon_squeeze_details          
; ?
;
