####################################################################### 
# 
# This file contains crystal structure data downloaded from the 
# Cambridge Structural Database (CSD) hosted by the Cambridge 
# Crystallographic Data Centre (CCDC).
# 
# Full information about CCDC data access policies and citation 
# guidelines are available at http://www.ccdc.cam.ac.uk/access/V1 
# 
# Audit and citation data items may have been added by the CCDC. 
# Please retain this information to preserve the provenance of 
# this file and to allow appropriate attribution of the data. 
# 
#######################################################################

data_2
_audit_block_doi                 10.5517/ccx0dcn
_database_code_depnum_ccdc_archive 'CCDC 834531'
loop_
_citation_id
_citation_doi
_citation_year
1 10.1002/adma.201102880 2011
_audit_update_record             
;
2011-07-14 deposited with the CCDC.	2024-07-11 downloaded from the CCDC.
;
#TrackingRef '1-3.cif'


_audit_creation_method           SHELXL-97
_chemical_name_systematic        
;
?
;
_chemical_name_common            ?
_chemical_melting_point          ?
_chemical_formula_moiety         ?
_chemical_formula_sum            'C135 H120 O50 Zn8'
_chemical_formula_weight         3065.27

loop_
_atom_type_symbol
_atom_type_description
_atom_type_scat_dispersion_real
_atom_type_scat_dispersion_imag
_atom_type_scat_source
C C 0.0033 0.0016 'International Tables Vol C Tables 4.2.6.8 and 6.1.1.4'
H H 0.0000 0.0000 'International Tables Vol C Tables 4.2.6.8 and 6.1.1.4'
O O 0.0106 0.0060 'International Tables Vol C Tables 4.2.6.8 and 6.1.1.4'
Zn Zn 0.2839 1.4301 'International Tables Vol C Tables 4.2.6.8 and 6.1.1.4'

_symmetry_cell_setting           trigonal
_symmetry_space_group_name_H-M   ' R -3 c '
_symmetry_space_group_name_Hall  '-R 3 2"c '

loop_
_symmetry_equiv_pos_as_xyz
'x, y, z'
'-y, x-y, z'
'-x+y, -x, z'
'x-y, -y, -z+1/2'
'-x, -x+y, -z+1/2'
'y, x, -z+1/2'
'x+2/3, y+1/3, z+1/3'
'-y+2/3, x-y+1/3, z+1/3'
'-x+y+2/3, -x+1/3, z+1/3'
'x-y+2/3, -y+1/3, -z+5/6'
'-x+2/3, -x+y+1/3, -z+5/6'
'y+2/3, x+1/3, -z+5/6'
'x+1/3, y+2/3, z+2/3'
'-y+1/3, x-y+2/3, z+2/3'
'-x+y+1/3, -x+2/3, z+2/3'
'x-y+1/3, -y+2/3, -z+7/6'
'-x+1/3, -x+y+2/3, -z+7/6'
'y+1/3, x+2/3, -z+7/6'
'-x, -y, -z'
'y, -x+y, -z'
'x-y, x, -z'
'-x+y, y, z-1/2'
'x, x-y, z-1/2'
'-y, -x, z-1/2'
'-x+2/3, -y+1/3, -z+1/3'
'y+2/3, -x+y+1/3, -z+1/3'
'x-y+2/3, x+1/3, -z+1/3'
'-x+y+2/3, y+1/3, z-1/6'
'x+2/3, x-y+1/3, z-1/6'
'-y+2/3, -x+1/3, z-1/6'
'-x+1/3, -y+2/3, -z+2/3'
'y+1/3, -x+y+2/3, -z+2/3'
'x-y+1/3, x+2/3, -z+2/3'
'-x+y+1/3, y+2/3, z+1/6'
'x+1/3, x-y+2/3, z+1/6'
'-y+1/3, -x+2/3, z+1/6'

_cell_length_a                   32.3599(13)
_cell_length_b                   32.3599(12)
_cell_length_c                   100.8246(11)
_cell_angle_alpha                90.00
_cell_angle_beta                 90.00
_cell_angle_gamma                120.00
_cell_volume                     91435(5)
_cell_formula_units_Z            6
_cell_measurement_temperature    293(2)
_cell_measurement_reflns_used    ?
_cell_measurement_theta_min      1.09
_cell_measurement_theta_max      14.48

_exptl_crystal_description       block
_exptl_crystal_colour            colorless
_exptl_crystal_size_max          0.32
_exptl_crystal_size_mid          0.31
_exptl_crystal_size_min          0.30
_exptl_crystal_density_meas      ?
_exptl_crystal_density_diffrn    0.334
_exptl_crystal_density_method    'not measured'
_exptl_crystal_F_000             9420
_exptl_absorpt_coefficient_mu    0.329
_exptl_absorpt_correction_type   multi-scan
_exptl_absorpt_correction_T_min  0.900
_exptl_absorpt_correction_T_max  0.906
_exptl_absorpt_process_details   'SADABS (Sheldrick, 1996)'

_exptl_special_details           
;
?
;

_diffrn_ambient_temperature      293(2)
_diffrn_radiation_wavelength     0.71069
_diffrn_radiation_type           MoK\a
_diffrn_radiation_source         'fine-focus sealed tube'
_diffrn_radiation_monochromator  graphite
_diffrn_measurement_device_type  'Bruker APEX CCD area-detector'
_diffrn_measurement_method       '\w scans'
_diffrn_detector_area_resol_mean ?
_diffrn_standards_number         0
_diffrn_standards_interval_count ?
_diffrn_standards_interval_time  ?
_diffrn_standards_decay_%        ?
_diffrn_reflns_number            41192
_diffrn_reflns_av_R_equivalents  0.1819
_diffrn_reflns_av_sigmaI/netI    0.0971
_diffrn_reflns_limit_h_min       -22
_diffrn_reflns_limit_h_max       22
_diffrn_reflns_limit_k_min       -21
_diffrn_reflns_limit_k_max       22
_diffrn_reflns_limit_l_min       -70
_diffrn_reflns_limit_l_max       59
_diffrn_reflns_theta_min         1.09
_diffrn_reflns_theta_max         14.48
_reflns_number_total             3702
_reflns_number_gt                1264
_reflns_threshold_expression     >2sigma(I)

_computing_data_collection       'SMART (Bruker, 1997)'
_computing_cell_refinement       SMART
_computing_data_reduction        'SAINT (Bruker, 1999)'
_computing_structure_solution    'SHELXS-97(Sheldrick, 2008)'
_computing_structure_refinement  'SHELXL-97 (Sheldrick, 2008)'
_computing_molecular_graphics    'Diamond (Brandenburg and Putz, 2008)'
_computing_publication_material  SHELXL-97

_refine_special_details          
;
Refinement of F^2^ against ALL reflections. The weighted R-factor wR and
goodness of fit S are based on F^2^, conventional R-factors R are based
on F, with F set to zero for negative F^2^. The threshold expression of
F^2^ > 2sigma(F^2^) is used only for calculating R-factors(gt) etc. and is
not relevant to the choice of reflections for refinement. R-factors based
on F^2^ are statistically about twice as large as those based on F, and R-
factors based on ALL data will be even larger.
;

_refine_ls_structure_factor_coef Fsqd
_refine_ls_matrix_type           full
_refine_ls_weighting_scheme      calc
_refine_ls_weighting_details     
'calc w=1/[\s^2^(Fo^2^)+(0.1000P)^2^+0.0000P] where P=(Fo^2^+2Fc^2^)/3'
_atom_sites_solution_primary     direct
_atom_sites_solution_secondary   difmap
_atom_sites_solution_hydrogens   geom
_refine_ls_hydrogen_treatment    mixed
_refine_ls_extinction_method     SHELXL
_refine_ls_extinction_coef       0.000039(6)
_refine_ls_extinction_expression Fc^*^=kFc[1+0.001xFc^2^\l^3^/sin(2\q)]^-1/4^
_refine_ls_number_reflns         3702
_refine_ls_number_parameters     114
_refine_ls_number_restraints     8
_refine_ls_R_factor_all          0.1636
_refine_ls_R_factor_gt           0.0841
_refine_ls_wR_factor_ref         0.2321
_refine_ls_wR_factor_gt          0.2116
_refine_ls_goodness_of_fit_ref   0.964
_refine_ls_restrained_S_all      0.966
_refine_ls_shift/su_max          0.001
_refine_ls_shift/su_mean         0.000

loop_
_atom_site_label
_atom_site_type_symbol
_atom_site_fract_x
_atom_site_fract_y
_atom_site_fract_z
_atom_site_U_iso_or_equiv
_atom_site_adp_type
_atom_site_occupancy
_atom_site_symmetry_multiplicity
_atom_site_calc_flag
_atom_site_refinement_flags
_atom_site_disorder_assembly
_atom_site_disorder_group
C1 C 0.4271(8) 0.7505(8) 0.5272(3) 0.326(11) Uiso 1 1 d D . .
C2 C 0.4609(7) 0.7818(7) 0.53805(19) 0.349(9) Uiso 1 1 d D . .
H2 H 0.4498 0.7765 0.5467 0.419 Uiso 1 1 calc R . .
C3 C 0.4985(7) 0.8111(6) 0.53616(16) 0.376(11) Uiso 1 1 d D . .
H3 H 0.5127 0.8152 0.5279 0.452 Uiso 1 1 calc R . .
C4 C 0.5252(6) 0.8436(4) 0.54774(18) 0.340(8) Uiso 1 1 d GD . .
C5 C 0.5162(4) 0.8505(5) 0.5608(2) 0.431(10) Uiso 1 1 d G . .
H5 H 0.4863 0.8307 0.5645 0.517 Uiso 1 1 calc R . .
C6 C 0.5518(8) 0.8869(7) 0.56831(9) 0.383(9) Uiso 1 1 d G . .
H6 H 0.5457 0.8915 0.5771 0.460 Uiso 1 1 calc R . .
C7 C 0.5964(6) 0.9164(4) 0.56277(19) 0.298(7) Uiso 1 1 d G . .
C8 C 0.6055(4) 0.9096(5) 0.5497(2) 0.418(10) Uiso 1 1 d GD . .
C9 C 0.5698(8) 0.8732(7) 0.54220(9) 0.345(8) Uiso 1 1 d G . .
H9 H 0.5759 0.8686 0.5335 0.415 Uiso 1 1 calc R . .
C11 C 0.6183(5) 0.9683(5) 0.58025(14) 0.278(7) Uiso 1 1 d . . .
H11A H 0.6098 0.9463 0.5877 0.333 Uiso 1 1 calc R . .
H11B H 0.5912 0.9715 0.5777 0.333 Uiso 1 1 calc R . .
C12 C 0.6667 1.0206(7) 0.5833 0.268(9) Uiso 1 2 d S . .
C13 C 0.6852(6) 1.0555(5) 0.57071(15) 0.319(8) Uiso 1 1 d . . .
H13A H 0.7122 1.0865 0.5729 0.382 Uiso 1 1 calc R . .
H13B H 0.6937 1.0417 0.5634 0.382 Uiso 1 1 calc R . .
C14 C 0.6481(7) 1.0910(3) 0.55789(9) 0.276(7) Uiso 1 1 d G . .
C15 C 0.6909(5) 1.1166(5) 0.55106(15) 0.298(7) Uiso 1 1 d G . .
H15 H 0.7162 1.1115 0.5529 0.357 Uiso 1 1 calc R . .
C16 C 0.6959(4) 1.1497(4) 0.54150(12) 0.332(7) Uiso 1 1 d G . .
H16 H 0.7245 1.1669 0.5369 0.398 Uiso 1 1 calc R . .
C17 C 0.6581(6) 1.1572(3) 0.53877(9) 0.318(7) Uiso 1 1 d G . .
C18 C 0.6153(4) 1.1316(5) 0.54560(15) 0.300(7) Uiso 1 1 d G . .
H18 H 0.5899 1.1367 0.5438 0.359 Uiso 1 1 calc R . .
C19 C 0.6103(4) 1.0985(4) 0.55516(12) 0.414(13) Uiso 1 1 d G . .
C20 C 0.5315(7) 1.0773(6) 0.56290(19) 0.493(13) Uiso 1 1 d D . .
H20A H 0.5082 1.0521 0.5684 0.739 Uiso 1 1 calc R . .
H20B H 0.5185 1.0750 0.5542 0.739 Uiso 1 1 calc R . .
H20C H 0.5397 1.1076 0.5667 0.739 Uiso 1 1 calc R . .
C21 C 0.4700(6) 0.6643(6) 0.47199(15) 0.310(9) Uiso 1 1 d D . .
H21 H 0.4803 0.6930 0.4764 0.372 Uiso 1 1 calc R . .
C22 C 0.4354(8) 0.6325(7) 0.47402(17) 0.365(11) Uiso 1 1 d D . .
H22 H 0.4240 0.6025 0.4703 0.438 Uiso 1 1 calc R . .
C23 C 0.4097(9) 0.6463(12) 0.48386(18) 0.322(10) Uiso 1 1 d D . .
O1 O 0.3854(5) 0.7174(4) 0.53245(11) 0.313(5) Uiso 1 1 d . . .
O2 O 0.4250(4) 0.6875(5) 0.49067(14) 0.307(6) Uiso 1 1 d . . .
O3 O 0.4381(4) 0.7499(4) 0.51545(16) 0.333(7) Uiso 1 1 d . . .
O4 O 0.3882(4) 0.7556(5) 0.48948(16) 0.328(6) Uiso 1 1 d . . .
O5 O 0.3333 0.6667 0.5075(2) 0.224(6) Uiso 1 3 d S . .
O6 O 0.6377(4) 0.9550(4) 0.56924(12) 0.331(5) Uiso 1 1 d . . .
O7 O 0.6418(4) 1.0580(4) 0.56791(11) 0.319(5) Uiso 1 1 d . . .
O8 O 0.5749(7) 1.0727(5) 0.56196(15) 0.434(7) Uiso 1 1 d D . .
O9 O 0.6540(5) 0.9313(5) 0.54402(18) 0.492(8) Uiso 1 1 d D . .
Zn1 Zn 0.3333 0.6667 0.52604(5) 0.290(2) Uani 1 3 d S . .
Zn2 Zn 0.39471(9) 0.71384(9) 0.50092(2) 0.2953(16) Uani 1 1 d . . .
C10 C 0.6565(14) 0.9324(14) 0.5291(2) 0.93(4) Uiso 1 1 d D . .
H10A H 0.6892 0.9469 0.5264 1.395 Uiso 1 1 calc R . .
H10B H 0.6427 0.9506 0.5258 1.395 Uiso 1 1 calc R . .
H10C H 0.6390 0.9005 0.5258 1.395 Uiso 1 1 calc R . .

loop_
_atom_site_aniso_label
_atom_site_aniso_U_11
_atom_site_aniso_U_22
_atom_site_aniso_U_33
_atom_site_aniso_U_23
_atom_site_aniso_U_13
_atom_site_aniso_U_12
Zn1 0.315(3) 0.315(3) 0.239(5) 0.000 0.000 0.1575(16)
Zn2 0.304(3) 0.304(3) 0.269(3) 0.010(2) -0.001(2) 0.145(3)

_geom_special_details            
;
All esds (except the esd in the dihedral angle between two l.s. planes)
are estimated using the full covariance matrix. The cell esds are taken
into account individually in the estimation of esds in distances, angles
and torsion angles; correlations between esds in cell parameters are only
used when they are defined by crystal symmetry. An approximate (isotropic)
treatment of cell esds is used for estimating esds involving l.s. planes.
;

loop_
_geom_bond_atom_site_label_1
_geom_bond_atom_site_label_2
_geom_bond_distance
_geom_bond_site_symmetry_2
_geom_bond_publ_flag
C1 O3 1.24(2) . ?
C1 O1 1.34(2) . ?
C1 C2 1.523(9) . ?
C2 C3 1.124(10) . ?
C2 H2 0.9300 . ?
C3 C4 1.519(9) . ?
C3 H3 0.9300 . ?
C4 C5 1.3900 . ?
C4 C9 1.3900 . ?
C5 C6 1.3900 . ?
C5 H5 0.9300 . ?
C6 C7 1.3900 . ?
C6 H6 0.9300 . ?
C7 C8 1.3900 . ?
C7 O6 1.449(12) . ?
C8 C9 1.3900 . ?
C8 O9 1.479(9) . ?
C9 H9 0.9300 . ?
C11 O6 1.442(13) . ?
C11 C12 1.663(14) . ?
C11 H11A 0.9700 . ?
C11 H11B 0.9700 . ?
C12 C13 1.604(15) 17_655 ?
C12 C13 1.604(15) . ?
C12 C11 1.663(14) 17_655 ?
C13 O7 1.476(13) . ?
C13 H13A 0.9700 . ?
C13 H13B 0.9700 . ?
C14 C15 1.3900 . ?
C14 C19 1.3900 . ?
C14 O7 1.409(12) . ?
C15 C16 1.3900 . ?
C15 H15 0.9300 . ?
C16 C17 1.3900 . ?
C16 H16 0.9300 . ?
C17 C18 1.3900 . ?
C17 C21 1.553(14) 20_566 ?
C18 C19 1.3900 . ?
C18 H18 0.9300 . ?
C19 O8 1.234(19) . ?
C20 O8 1.486(9) . ?
C20 H20A 0.9600 . ?
C20 H20B 0.9600 . ?
C20 H20C 0.9600 . ?
C21 C22 1.10(2) . ?
C21 C17 1.55(8) 21_656 ?
C21 H21 0.9300 . ?
C22 C23 1.498(9) . ?
C22 H22 0.9300 . ?
C23 O2 1.35(2) . ?
C23 O4 1.386(17) 3_565 ?
O1 Zn1 1.785(12) . ?
O2 Zn2 1.896(16) . ?
O3 Zn2 1.960(15) . ?
O4 C23 1.386(17) 2_665 ?
O4 Zn2 1.866(19) . ?
O5 Zn1 1.870(18) . ?
O5 Zn2 1.919(7) 2_665 ?
O5 Zn2 1.919(7) . ?
O5 Zn2 1.919(7) 3_565 ?
O9 C10 1.502(10) . ?
Zn1 O1 1.785(12) 2_665 ?
Zn1 O1 1.785(12) 3_565 ?
Zn1 Zn2 3.107(4) 2_665 ?
Zn1 Zn2 3.107(4) . ?
Zn1 Zn2 3.107(4) 3_565 ?
Zn2 Zn2 3.119(4) 2_665 ?
Zn2 Zn2 3.119(4) 3_565 ?
C10 H10A 0.9600 . ?
C10 H10B 0.9600 . ?
C10 H10C 0.9600 . ?

loop_
_geom_angle_atom_site_label_1
_geom_angle_atom_site_label_2
_geom_angle_atom_site_label_3
_geom_angle
_geom_angle_site_symmetry_1
_geom_angle_site_symmetry_3
_geom_angle_publ_flag
O3 C1 O1 123(2) . . ?
O3 C1 C2 126(2) . . ?
O1 C1 C2 110(2) . . ?
C3 C2 C1 124(2) . . ?
C3 C2 H2 118.2 . . ?
C1 C2 H2 118.2 . . ?
C2 C3 C4 117(2) . . ?
C2 C3 H3 121.5 . . ?
C4 C3 H3 121.5 . . ?
C5 C4 C9 120.0 . . ?
C5 C4 C3 138.3(18) . . ?
C9 C4 C3 101.7(17) . . ?
C6 C5 C4 120.0 . . ?
C6 C5 H5 120.0 . . ?
C4 C5 H5 120.0 . . ?
C7 C6 C5 120.0 . . ?
C7 C6 H6 120.0 . . ?
C5 C6 H6 120.0 . . ?
C6 C7 C8 120.0 . . ?
C6 C7 O6 127.2(19) . . ?
C8 C7 O6 112.7(19) . . ?
C9 C8 C7 120.0 . . ?
C9 C8 O9 115.1(19) . . ?
C7 C8 O9 123.4(19) . . ?
C8 C9 C4 120.0 . . ?
C8 C9 H9 120.0 . . ?
C4 C9 H9 120.0 . . ?
O6 C11 C12 96.9(11) . . ?
O6 C11 H11A 112.4 . . ?
C12 C11 H11A 112.4 . . ?
O6 C11 H11B 112.4 . . ?
C12 C11 H11B 112.4 . . ?
H11A C11 H11B 109.9 . . ?
C13 C12 C13 118(2) 17_655 . ?
C13 C12 C11 99.6(7) 17_655 . ?
C13 C12 C11 113.5(7) . . ?
C13 C12 C11 113.5(7) 17_655 17_655 ?
C13 C12 C11 99.6(7) . 17_655 ?
C11 C12 C11 113.3(18) . 17_655 ?
O7 C13 C12 99.1(13) . . ?
O7 C13 H13A 112.0 . . ?
C12 C13 H13A 112.0 . . ?
O7 C13 H13B 112.0 . . ?
C12 C13 H13B 112.0 . . ?
H13A C13 H13B 109.6 . . ?
C15 C14 C19 120.0 . . ?
C15 C14 O7 122.1(17) . . ?
C19 C14 O7 117.9(17) . . ?
C16 C15 C14 120.0 . . ?
C16 C15 H15 120.0 . . ?
C14 C15 H15 120.0 . . ?
C15 C16 C17 120.0 . . ?
C15 C16 H16 120.0 . . ?
C17 C16 H16 120.0 . . ?
C18 C17 C16 120.0 . . ?
C18 C17 C21 120.8(16) . 20_566 ?
C16 C17 C21 119.2(16) . 20_566 ?
C17 C18 C19 120.0 . . ?
C17 C18 H18 120.0 . . ?
C19 C18 H18 120.0 . . ?
O8 C19 C18 128.0(18) . . ?
O8 C19 C14 112.0(18) . . ?
C18 C19 C14 120.0 . . ?
O8 C20 H20A 109.5 . . ?
O8 C20 H20B 109.5 . . ?
H20A C20 H20B 109.5 . . ?
O8 C20 H20C 109.5 . . ?
H20A C20 H20C 109.5 . . ?
H20B C20 H20C 109.5 . . ?
C22 C21 C17 116(4) . 21_656 ?
C22 C21 H21 122.2 . . ?
C17 C21 H21 122.2 21_656 . ?
C21 C22 C23 107.7(16) . . ?
C21 C22 H22 126.1 . . ?
C23 C22 H22 126.1 . . ?
O2 C23 O4 108.4(14) . 3_565 ?
O2 C23 C22 130(3) . . ?
O4 C23 C22 120(3) 3_565 . ?
C1 O1 Zn1 134.4(15) . . ?
C23 O2 Zn2 134.6(12) . . ?
C1 O3 Zn2 126.7(17) . . ?
C23 O4 Zn2 141.1(16) 2_665 . ?
Zn1 O5 Zn2 110.2(6) . 2_665 ?
Zn1 O5 Zn2 110.2(6) . . ?
Zn2 O5 Zn2 108.7(6) 2_665 . ?
Zn1 O5 Zn2 110.2(6) . 3_565 ?
Zn2 O5 Zn2 108.7(6) 2_665 3_565 ?
Zn2 O5 Zn2 108.7(6) . 3_565 ?
C11 O6 C7 104.6(14) . . ?
C14 O7 C13 113.4(15) . . ?
C19 O8 C20 125.0(18) . . ?
C8 O9 C10 115(2) . . ?
O1 Zn1 O1 107.6(5) 2_665 . ?
O1 Zn1 O1 107.6(5) 2_665 3_565 ?
O1 Zn1 O1 107.6(5) . 3_565 ?
O1 Zn1 O5 111.2(4) 2_665 . ?
O1 Zn1 O5 111.3(4) . . ?
O1 Zn1 O5 111.2(4) 3_565 . ?
O1 Zn1 Zn2 76.5(4) 2_665 2_665 ?
O1 Zn1 Zn2 117.9(4) . 2_665 ?
O1 Zn1 Zn2 130.7(4) 3_565 2_665 ?
O5 Zn1 Zn2 35.42(8) . 2_665 ?
O1 Zn1 Zn2 130.7(4) 2_665 . ?
O1 Zn1 Zn2 76.5(4) . . ?
O1 Zn1 Zn2 117.9(4) 3_565 . ?
O5 Zn1 Zn2 35.42(8) . . ?
Zn2 Zn1 Zn2 60.26(12) 2_665 . ?
O1 Zn1 Zn2 117.9(4) 2_665 3_565 ?
O1 Zn1 Zn2 130.7(4) . 3_565 ?
O1 Zn1 Zn2 76.5(4) 3_565 3_565 ?
O5 Zn1 Zn2 35.42(7) . 3_565 ?
Zn2 Zn1 Zn2 60.26(12) 2_665 3_565 ?
Zn2 Zn1 Zn2 60.26(12) . 3_565 ?
O4 Zn2 O2 105.0(5) . . ?
O4 Zn2 O5 110.1(5) . . ?
O2 Zn2 O5 113.2(5) . . ?
O4 Zn2 O3 109.7(5) . . ?
O2 Zn2 O3 107.3(6) . . ?
O5 Zn2 O3 111.4(7) . . ?
O4 Zn2 Zn1 125.7(4) . . ?
O2 Zn2 Zn1 124.8(3) . . ?
O5 Zn2 Zn1 34.4(6) . . ?
O3 Zn2 Zn1 77.0(4) . . ?
O4 Zn2 Zn2 74.5(4) . 2_665 ?
O2 Zn2 Zn2 126.4(4) . 2_665 ?
O5 Zn2 Zn2 35.6(3) . 2_665 ?
O3 Zn2 Zn2 123.6(4) . 2_665 ?
Zn1 Zn2 Zn2 59.87(6) . 2_665 ?
O4 Zn2 Zn2 120.4(3) . 3_565 ?
O2 Zn2 Zn2 77.6(3) . 3_565 ?
O5 Zn2 Zn2 35.6(3) . 3_565 ?
O3 Zn2 Zn2 126.6(4) . 3_565 ?
Zn1 Zn2 Zn2 59.87(6) . 3_565 ?
Zn2 Zn2 Zn2 60.000(1) 2_665 3_565 ?
O9 C10 H10A 109.5 . . ?
O9 C10 H10B 109.5 . . ?
H10A C10 H10B 109.5 . . ?
O9 C10 H10C 109.5 . . ?
H10A C10 H10C 109.5 . . ?
H10B C10 H10C 109.5 . . ?

loop_
_geom_torsion_atom_site_label_1
_geom_torsion_atom_site_label_2
_geom_torsion_atom_site_label_3
_geom_torsion_atom_site_label_4
_geom_torsion
_geom_torsion_site_symmetry_1
_geom_torsion_site_symmetry_2
_geom_torsion_site_symmetry_3
_geom_torsion_site_symmetry_4
_geom_torsion_publ_flag
O3 C1 C2 C3 8(4) . . . . ?
O1 C1 C2 C3 177.3(18) . . . . ?
C1 C2 C3 C4 171.5(13) . . . . ?
C2 C3 C4 C5 -4(3) . . . . ?
C2 C3 C4 C9 177.3(18) . . . . ?
C9 C4 C5 C6 0.0 . . . . ?
C3 C4 C5 C6 -178.1(14) . . . . ?
C4 C5 C6 C7 0.0 . . . . ?
C5 C6 C7 C8 0.0 . . . . ?
C5 C6 C7 O6 -178.2(10) . . . . ?
C6 C7 C8 C9 0.0 . . . . ?
O6 C7 C8 C9 178.4(9) . . . . ?
C6 C7 C8 O9 -165.3(11) . . . . ?
O6 C7 C8 O9 13.2(11) . . . . ?
C7 C8 C9 C4 0.0 . . . . ?
O9 C8 C9 C4 166.4(11) . . . . ?
C5 C4 C9 C8 0.0 . . . . ?
C3 C4 C9 C8 178.7(10) . . . . ?
O6 C11 C12 C13 -178.1(11) . . . 17_655 ?
O6 C11 C12 C13 55.5(17) . . . . ?
O6 C11 C12 C11 -57.2(7) . . . 17_655 ?
C13 C12 C13 O7 -57.9(8) 17_655 . . . ?
C11 C12 C13 O7 58.1(17) . . . . ?
C11 C12 C13 O7 178.9(10) 17_655 . . . ?
C19 C14 C15 C16 0.0 . . . . ?
O7 C14 C15 C16 -178.2(9) . . . . ?
C14 C15 C16 C17 0.0 . . . . ?
C15 C16 C17 C18 0.0 . . . . ?
C15 C16 C17 C21 -179.7(10) . . . 20_566 ?
C16 C17 C18 C19 0.0 . . . . ?
C21 C17 C18 C19 179.7(10) 20_566 . . . ?
C17 C18 C19 C14 0.0 . . . . ?
C15 C14 C19 O8 179.4(11) . . . . ?
O7 C14 C19 O8 -2.3(10) . . . . ?
C15 C14 C19 C18 0.0 . . . . ?
O7 C14 C19 C18 178.3(9) . . . . ?
C17 C21 C22 C23 -176.1(12) 21_656 . . . ?
C21 C22 C23 O2 -7(3) . . . . ?
C21 C22 C23 O4 -172.1(16) . . . 3_565 ?
O3 C1 O1 Zn1 -3(3) . . . . ?
C2 C1 O1 Zn1 -172.6(9) . . . . ?
O4 C23 O2 Zn2 -26(3) 3_565 . . . ?
C22 C23 O2 Zn2 167.4(13) . . . . ?
O1 C1 O3 Zn2 17(3) . . . . ?
C2 C1 O3 Zn2 -174.8(12) . . . . ?
C12 C11 O6 C7 -164.0(10) . . . . ?
C6 C7 O6 C11 -22.1(13) . . . . ?
C8 C7 O6 C11 159.6(8) . . . . ?
C15 C14 O7 C13 2.7(14) . . . . ?
C19 C14 O7 C13 -175.5(8) . . . . ?
C12 C13 O7 C14 173.5(10) . . . . ?
C18 C19 