
#######################################################################
#
#                 Cambridge Crystallographic Data Centre
#                                CCDC
#
#######################################################################
#
# If this CIF has been generated from an entry in the Cambridge
# Structural Database, then it will include bibliographic, chemical,
# crystal, experimental, refinement or atomic coordinate data resulting
# from the CCDC's data processing and validation procedures.
#
#######################################################################

data_CSD_CIF_LEJKIU
_audit_creation_date 1997-08-01
_audit_creation_method CSD-ConQuest-V1
_database_code_CSD LEJKIU
_database_code_depnum_ccdc_archive 'CCDC 1205066'
_chemical_formula_sum 'C8 H16'
_chemical_formula_moiety
;
(C8 H16)n
;
_journal_coeditor_code "IUCr CR0447"
_journal_coden_Cambridge 622
_journal_volume 50
_journal_year 1994
_journal_page_first 201
_journal_name_full 'Acta Crystallogr.,Sect.B:Struct.Sci. '
loop_
_publ_author_name
"D.L.Dorset"
"M.P.McCourt"
"S.Kopp"
"J.-C.Wittmann"
"B.Lotz"
_chemical_name_systematic
;
Poly(1-butene)
;
_chemical_name_common
;
Teaching Subset: Fundamental Chemistry
;
_cell_volume    831.104
_exptl_special_details
;
observed fiber period (c =7.56A); obtained from single crystal and 
epitaxially oriented film
isotactic; 4!1$-helical symmetry conformer
polymorph III
earlier study by Cojazzi, Makromol Chem 1976, 177, 915-926 with minimal 
details
;
_diffrn_ambient_temperature ?
_diffrn_special_details
;
The study was carried out at room temperature,in the range 283-303K

;
#These two values have been output from a single CSD field.
_refine_ls_R_factor_gt 0.26
_refine_ls_wR_factor_gt 0.26
_symmetry_cell_setting orthorhombic
_symmetry_space_group_name_H-M 'P 21 21 21'
_symmetry_Int_Tables_number 19
loop_
_symmetry_equiv_pos_site_id
_symmetry_equiv_pos_as_xyz
1 x,y,z
2 1/2-x,-y,1/2+z
3 1/2+x,1/2-y,-z
4 -x,1/2+y,1/2-z
_cell_length_a 12.38
_cell_length_b 8.88
_cell_length_c 7.56
_cell_angle_alpha 90
_cell_angle_beta 90
_cell_angle_gamma 90
_cell_formula_units_Z 4
loop_
_atom_type_symbol
_atom_type_radius_bond
C 0.68
loop_
_atom_site_label
_atom_site_type_symbol
_atom_site_fract_x
_atom_site_fract_y
_atom_site_fract_z
C1 C 0.34600 -0.03800 0.10800
C2 C 0.29800 0.12500 0.16300
C3 C 0.38100 0.24800 0.10300
C4 C 0.32500 0.40200 0.12000
C5 C 0.27900 0.13400 0.35800
C6 C 0.34000 -0.06700 -0.08700
C7 C 0.42800 -0.18300 -0.14700
C8 C 0.53800 -0.10500 -0.13000
C6A C 0.16000 0.06700 0.41300
C5A C 0.22100 -0.13400 -0.14200
#END
