
#######################################################################
#
#                 Cambridge Crystallographic Data Centre
#                                CCDC
#
#######################################################################
#
# If this CIF has been generated from an entry in the Cambridge
# Structural Database, then it will include bibliographic, chemical,
# crystal, experimental, refinement or atomic coordinate data resulting
# from the CCDC's data processing and validation procedures.
#
#######################################################################

data_CSD_CIF_LETGIA02
_audit_creation_date 1999-02-09
_audit_creation_method CSD-ConQuest-V1
_database_code_CSD LETGIA02
_database_code_depnum_ccdc_archive 'CCDC 1205936'
_chemical_formula_sum 'C1 H6 N4 O3'
_chemical_formula_moiety
;
C1 H6 N3 1+,N1 O3 1-
;
_journal_coden_Cambridge 119
_journal_volume 378
_journal_year 1996
_journal_page_first 205
_journal_name_full 'J.Mol.Struct. '
loop_
_publ_author_name
"A.Katrusiak"
"M.Szafranski"
_chemical_name_systematic
;
Guanidinium nitrate
;
_chemical_name_common
;
Teaching Subset: Fundamental Chemistry
;
_cell_volume    285.230
_exptl_crystal_density_diffrn 1.421
_exptl_special_details
;
Cm polymorph

;
_diffrn_ambient_temperature 257
#These two values have been output from a single CSD field.
_refine_ls_R_factor_gt 0.045
_refine_ls_wR_factor_gt 0.045
_symmetry_cell_setting monoclinic
_symmetry_space_group_name_H-M 'C m'
_symmetry_Int_Tables_number 8
loop_
_symmetry_equiv_pos_site_id
_symmetry_equiv_pos_as_xyz
1 x,y,z
2 x,-y,z
3 1/2+x,1/2+y,z
4 1/2+x,1/2-y,z
_cell_length_a 12.706(7)
_cell_length_b 7.260(4)
_cell_length_c 3.6077(9)
_cell_angle_alpha 90
_cell_angle_beta 121.01(4)
_cell_angle_gamma 90
_cell_formula_units_Z 2
loop_
_atom_type_symbol
_atom_type_radius_bond
C 0.68
H 0.23
N 0.68
O 0.68
loop_
_atom_site_label
_atom_site_type_symbol
_atom_site_fract_x
_atom_site_fract_y
_atom_site_fract_z
N1 N 0.5462(5) 0.00000 0.0930(14)
O1 O 0.6511(5) 0.00000 0.1205(15)
O2 O 0.4993(4) 0.1548(4) 0.0926(11)
C1 C 0.20000 0.00000 0.00000
N2 N 0.0939(5) 0.00000 -0.0383(19)
N3 N 0.2570(4) 0.1511(5) 0.0239(13)
H1 H 0.075(5) 0.111(10) 0.014(14)
H2 H 0.325(5) 0.123(6) 0.054(10)
H3 H 0.224(4) 0.226(9) 0.087(17)
O2A O 0.4993(4) -0.1548(4) 0.0926(11)
H1A H 0.075(5) -0.111(10) 0.014(14)
N3A N 0.2570(4) -0.1511(5) 0.0239(13)
H2A H 0.325(5) -0.123(6) 0.054(10)
H3A H 0.224(4) -0.226(9) 0.087(17)
#END
