####################################################################### 
# 
# This file contains crystal structure data downloaded from the 
# Cambridge Structural Database (CSD) hosted by the Cambridge 
# Crystallographic Data Centre (CCDC).
# 
# Full information about CCDC data access policies and citation 
# guidelines are available at http://www.ccdc.cam.ac.uk/access/V1 
# 
# Audit and citation data items may have been added by the CCDC. 
# Please retain this information to preserve the provenance of 
# this file and to allow appropriate attribution of the data. 
# 
#######################################################################

data_1
_audit_block_doi                 10.5517/cczbvx1
_database_code_depnum_ccdc_archive 'CCDC 904174'
loop_
_citation_id
_citation_doi
_citation_year
1 10.1002/chem.201203515 2013
_audit_update_record             
;
2012-10-03 deposited with the CCDC.	2024-07-11 downloaded from the CCDC.
;
#TrackingRef 'Xiao Juan.cif'


_audit_creation_method           SHELXL-97
_chemical_name_systematic        
;
?
;
_chemical_name_common            ?
_chemical_melting_point          ?
_chemical_formula_moiety         ?
_chemical_formula_sum            'C14 H8 N6 O6 Zn3'
_chemical_formula_weight         552.37

loop_
_atom_type_symbol
_atom_type_description
_atom_type_scat_dispersion_real
_atom_type_scat_dispersion_imag
_atom_type_scat_source
C C 0.0033 0.0016 'International Tables Vol C Tables 4.2.6.8 and 6.1.1.4'
H H 0.0000 0.0000 'International Tables Vol C Tables 4.2.6.8 and 6.1.1.4'
N N 0.0061 0.0033 'International Tables Vol C Tables 4.2.6.8 and 6.1.1.4'
O O 0.0106 0.0060 'International Tables Vol C Tables 4.2.6.8 and 6.1.1.4'
Zn Zn 0.2839 1.4301 'International Tables Vol C Tables 4.2.6.8 and 6.1.1.4'

_symmetry_cell_setting           Monoclinic
_symmetry_space_group_name_H-M   C2/c

loop_
_symmetry_equiv_pos_as_xyz
'x, y, z'
'-x, y, -z+1/2'
'x+1/2, y+1/2, z'
'-x+1/2, y+1/2, -z+1/2'
'-x, -y, -z'
'x, -y, z-1/2'
'-x+1/2, -y+1/2, -z'
'x+1/2, -y+1/2, z-1/2'

_cell_length_a                   17.9856(4)
_cell_length_b                   12.7314(4)
_cell_length_c                   11.0892(3)
_cell_angle_alpha                90.00
_cell_angle_beta                 93.206(2)
_cell_angle_gamma                90.00
_cell_volume                     2535.25(11)
_cell_formula_units_Z            4
_cell_measurement_temperature    293(2)
_cell_measurement_reflns_used    2213
_cell_measurement_theta_min      3.20
_cell_measurement_theta_max      25.00

_exptl_crystal_description       block
_exptl_crystal_colour            buff
_exptl_crystal_size_max          0.27
_exptl_crystal_size_mid          0.22
_exptl_crystal_size_min          0.18
_exptl_crystal_density_meas      ?
_exptl_crystal_density_diffrn    1.447
_exptl_crystal_density_method    'not measured'
_exptl_crystal_F_000             1088
_exptl_absorpt_coefficient_mu    2.849
_exptl_absorpt_correction_type   multi-scan
_exptl_absorpt_correction_T_min  0.476
_exptl_absorpt_correction_T_max  0.599
_exptl_absorpt_process_details   SADABS

_exptl_special_details           
;
?
;

_diffrn_ambient_temperature      293(2)
_diffrn_radiation_wavelength     0.71073
_diffrn_radiation_type           MoK\a
_diffrn_radiation_source         'fine-focus sealed tube'
_diffrn_radiation_monochromator  graphite
_diffrn_measurement_device_type  'Bruker Smart Apex CCD area detector'
_diffrn_measurement_method       'phi and omega scans'
_diffrn_detector_area_resol_mean ?
_diffrn_standards_number         ?
_diffrn_standards_interval_count ?
_diffrn_standards_interval_time  ?
_diffrn_standards_decay_%        ?
_diffrn_reflns_number            5595
_diffrn_reflns_av_R_equivalents  0.0361
_diffrn_reflns_av_sigmaI/netI    0.0494
_diffrn_reflns_limit_h_min       -20
_diffrn_reflns_limit_h_max       21
_diffrn_reflns_limit_k_min       -11
_diffrn_reflns_limit_k_max       15
_diffrn_reflns_limit_l_min       -13
_diffrn_reflns_limit_l_max       11
_diffrn_reflns_theta_min         3.20
_diffrn_reflns_theta_max         25.00
_reflns_number_total             2213
_reflns_number_gt                1864
_reflns_threshold_expression     >2sigma(I)

_computing_data_collection       'Bruker SMART'
_computing_cell_refinement       'Bruker SMART'
_computing_data_reduction        'Bruker SMART'
_computing_structure_solution    'SHELXS-97 (Sheldrick, 1990)'
_computing_structure_refinement  'SHELXL-97 (Sheldrick, 1997)'
_computing_molecular_graphics    'Bruker SMART'
_computing_publication_material  'Bruker SMART'

_refine_special_details          
;
Refinement of F^2^ against ALL reflections. The weighted R-factor wR and
goodness of fit S are based on F^2^, conventional R-factors R are based
on F, with F set to zero for negative F^2^. The threshold expression of
F^2^ > 2sigma(F^2^) is used only for calculating R-factors(gt) etc. and is
not relevant to the choice of reflections for refinement. R-factors based
on F^2^ are statistically about twice as large as those based on F, and R-
factors based on ALL data will be even larger.
;

_refine_ls_structure_factor_coef Fsqd
_refine_ls_matrix_type           full
_refine_ls_weighting_scheme      calc
_refine_ls_weighting_details     
'calc w=1/[\s^2^(Fo^2^)+(0.0501P)^2^+0.0000P] where P=(Fo^2^+2Fc^2^)/3'
_atom_sites_solution_primary     direct
_atom_sites_solution_secondary   difmap
_atom_sites_solution_hydrogens   geom
_refine_ls_hydrogen_treatment    constr
_refine_ls_extinction_method     none
_refine_ls_extinction_coef       ?
_refine_ls_number_reflns         2213
_refine_ls_number_parameters     132
_refine_ls_number_restraints     0
_refine_ls_R_factor_all          0.0386
_refine_ls_R_factor_gt           0.0319
_refine_ls_wR_factor_ref         0.0924
_refine_ls_wR_factor_gt          0.0888
_refine_ls_goodness_of_fit_ref   1.037
_refine_ls_restrained_S_all      1.037
_refine_ls_shift/su_max          0.000
_refine_ls_shift/su_mean         0.000

loop_
_atom_site_label
_atom_site_type_symbol
_atom_site_fract_x
_atom_site_fract_y
_atom_site_fract_z
_atom_site_U_iso_or_equiv
_atom_site_adp_type
_atom_site_occupancy
_atom_site_symmetry_multiplicity
_atom_site_calc_flag
_atom_site_refinement_flags
_atom_site_disorder_assembly
_atom_site_disorder_group
Zn2 Zn 0.080187(19) 0.05111(3) 0.00083(3) 0.01530(16) Uani 1 1 d . . .
Zn1 Zn 0.0000 0.10390(4) 0.2500 0.01391(18) Uani 1 2 d S . .
O2 O -0.41749(13) -0.2867(2) 0.2381(2) 0.0284(7) Uani 1 1 d . . .
O1 O -0.35915(13) -0.3141(2) 0.0671(2) 0.0258(6) Uani 1 1 d . . .
O3 O -0.01664(12) 0.08715(18) 0.0661(2) 0.0147(5) Uani 1 1 d . . .
H3B H -0.0480 0.0385 0.0501 0.018 Uiso 1 1 d R . .
N1 N -0.12524(15) -0.0323(2) 0.3553(3) 0.0171(7) Uani 1 1 d . . .
N2 N -0.09021(14) -0.0188(2) 0.2548(3) 0.0173(7) Uani 1 1 d . . .
N3 N -0.12646(15) -0.0649(2) 0.1613(3) 0.0176(7) Uani 1 1 d . . .
C1 C -0.18667(18) -0.0902(3) 0.3279(3) 0.0185(8) Uani 1 1 d . . .
C2 C -0.18791(19) -0.1120(3) 0.2046(3) 0.0195(8) Uani 1 1 d . . .
C3 C -0.24622(18) -0.1718(3) 0.1483(3) 0.0199(8) Uani 1 1 d . . .
H3A H -0.2482 -0.1857 0.0659 0.024 Uiso 1 1 calc R . .
C4 C -0.30022(18) -0.2085(3) 0.2215(3) 0.0233(9) Uani 1 1 d . . .
C5 C -0.2979(2) -0.1852(3) 0.3455(4) 0.0289(10) Uani 1 1 d . . .
H5A H -0.3358 -0.2103 0.3915 0.035 Uiso 1 1 calc R . .
C6 C -0.2420(2) -0.1267(3) 0.4014(4) 0.0288(10) Uani 1 1 d . . .
H6A H -0.2408 -0.1122 0.4836 0.035 Uiso 1 1 calc R . .
C7 C -0.36423(19) -0.2756(3) 0.1700(3) 0.0211(8) Uani 1 1 d . . .

loop_
_atom_site_aniso_label
_atom_site_aniso_U_11
_atom_site_aniso_U_22
_atom_site_aniso_U_33
_atom_site_aniso_U_23
_atom_site_aniso_U_13
_atom_site_aniso_U_12
Zn2 0.0124(2) 0.0245(3) 0.0091(3) 0.00130(17) 0.00157(16) -0.00153(16)
Zn1 0.0114(3) 0.0193(4) 0.0111(3) 0.000 0.0015(2) 0.000
O2 0.0210(13) 0.0369(16) 0.0280(16) -0.0102(13) 0.0090(11) -0.0150(12)
O1 0.0275(14) 0.0340(16) 0.0164(15) -0.0094(13) 0.0058(11) -0.0185(12)
O3 0.0117(11) 0.0207(13) 0.0119(13) -0.0028(11) 0.0004(9) -0.0076(10)
N1 0.0152(14) 0.0244(17) 0.0114(16) 0.0001(13) -0.0008(11) -0.0035(13)
N2 0.0166(15) 0.0237(17) 0.0117(16) -0.0013(14) 0.0022(12) -0.0053(13)
N3 0.0157(15) 0.0244(17) 0.0127(17) -0.0042(13) 0.0012(12) -0.0061(12)
C1 0.0182(18) 0.026(2) 0.011(2) -0.0011(16) 0.0009(14) -0.0041(16)
C2 0.0192(18) 0.023(2) 0.017(2) 0.0030(17) 0.0066(14) -0.0016(16)
C3 0.0224(18) 0.025(2) 0.0125(19) -0.0061(16) 0.0016(14) -0.0068(16)
C4 0.0177(17) 0.031(2) 0.021(2) -0.0067(18) 0.0052(15) -0.0074(17)
C5 0.0237(19) 0.043(3) 0.021(2) -0.002(2) 0.0090(16) -0.0134(19)
C6 0.034(2) 0.041(3) 0.012(2) -0.0026(19) 0.0059(16) -0.0124(19)
C7 0.0225(19) 0.021(2) 0.021(2) 0.0012(17) 0.0053(15) -0.0071(16)

_geom_special_details            
;
All esds (except the esd in the dihedral angle between two l.s. planes)
are estimated using the full covariance matrix. The cell esds are taken
into account individually in the estimation of esds in distances, angles
and torsion angles; correlations between esds in cell parameters are only
used when they are defined by crystal symmetry. An approximate (isotropic)
treatment of cell esds is used for estimating esds involving l.s. planes.
;

loop_
_geom_bond_atom_site_label_1
_geom_bond_atom_site_label_2
_geom_bond_distance
_geom_bond_site_symmetry_2
_geom_bond_publ_flag
Zn2 O3 1.977(2) . ?
Zn2 N3 2.031(3) 5 ?
Zn2 N1 2.046(3) 2 ?
Zn2 O1 2.142(2) 3 ?
Zn2 O3 2.205(2) 5 ?
Zn1 O2 2.045(2) 3 ?
Zn1 O2 2.045(2) 4_455 ?
Zn1 O3 2.055(2) . ?
Zn1 O3 2.055(2) 2 ?
Zn1 N2 2.255(3) 2 ?
Zn1 N2 2.255(3) . ?
O2 C7 1.260(4) . ?
O2 Zn1 2.045(2) 3_445 ?
O1 C7 1.250(4) . ?
O1 Zn2 2.142(2) 3_445 ?
O3 Zn2 2.205(2) 5 ?
O3 H3B 0.8500 . ?
N1 C1 1.349(4) . ?
N1 N2 1.322(4) . ?
N1 Zn2 2.046(3) 2 ?
N2 N3 1.330(4) . ?
N3 C2 1.368(4) . ?
N3 Zn2 2.031(3) 5 ?
C1 C2 1.394(5) . ?
C1 C6 1.400(5) . ?
C2 C3 1.413(5) . ?
C3 C4 1.382(5) . ?
C3 H3A 0.9300 . ?
C4 C5 1.405(5) . ?
C4 C7 1.519(5) . ?
C5 C6 1.371(5) . ?
C5 H5A 0.9300 . ?
C6 H6A 0.9300 . ?

loop_
_geom_angle_atom_site_label_1
_geom_angle_atom_site_label_2
_geom_angle_atom_site_label_3
_geom_angle
_geom_angle_site_symmetry_1
_geom_angle_site_symmetry_3
_geom_angle_publ_flag
O3 Zn2 N3 135.83(11) . 5 ?
O3 Zn2 N1 98.82(10) . 2 ?
N3 Zn2 N1 124.84(11) 5 2 ?
O3 Zn2 O1 97.50(9) . 3 ?
N3 Zn2 O1 90.48(10) 5 3 ?
N1 Zn2 O1 88.65(11) 2 3 ?
O3 Zn2 O3 81.84(9) . 5 ?
N3 Zn2 O3 90.07(10) 5 5 ?
N1 Zn2 O3 91.35(10) 2 5 ?
O1 Zn2 O3 179.33(9) 3 5 ?
O2 Zn1 O2 94.12(15) 3 4_455 ?
O2 Zn1 O3 94.16(10) 3 . ?
O2 Zn1 O3 93.95(10) 4_455 . ?
O2 Zn1 O3 93.95(10) 3 2 ?
O2 Zn1 O3 94.16(10) 4_455 2 ?
O3 Zn1 O3 168.08(13) . 2 ?
O2 Zn1 N2 86.83(11) 3 2 ?
O2 Zn1 N2 177.50(10) 4_455 2 ?
O3 Zn1 N2 88.28(10) . 2 ?
O3 Zn1 N2 83.47(9) 2 2 ?
O2 Zn1 N2 177.50(10) 3 . ?
O2 Zn1 N2 86.83(11) 4_455 . ?
O3 Zn1 N2 83.47(9) . . ?
O3 Zn1 N2 88.28(10) 2 . ?
N2 Zn1 N2 92.32(14) 2 . ?
C7 O2 Zn1 133.9(2) . 3_445 ?
C7 O1 Zn2 124.4(2) . 3_445 ?
Zn2 O3 Zn1 107.77(10) . . ?
Zn2 O3 Zn2 98.16(9) . 5 ?
Zn1 O3 Zn2 117.45(10) . 5 ?
Zn2 O3 H3B 110.0 . . ?
Zn1 O3 H3B 110.0 . . ?
Zn2 O3 H3B 12.1 5 . ?
C1 N1 N2 107.7(3) . . ?
C1 N1 Zn2 138.0(2) . 2 ?
N2 N1 Zn2 113.8(2) . 2 ?
N3 N2 N1 111.3(3) . . ?
N3 N2 Zn1 127.6(2) . . ?
N1 N2 Zn1 119.2(2) . . ?
N2 N3 C2 106.9(3) . . ?
N2 N3 Zn2 116.4(2) . 5 ?
C2 N3 Zn2 136.7(2) . 5 ?
N1 C1 C2 107.3(3) . . ?
N1 C1 C6 130.6(3) . . ?
C2 C1 C6 122.1(3) . . ?
C1 C2 N3 106.8(3) . . ?
C1 C2 C3 120.8(3) . . ?
N3 C2 C3 132.5(3) . . ?
C4 C3 C2 116.9(3) . . ?
C4 C3 H3A 121.6 . . ?
C2 C3 H3A 121.6 . . ?
C3 C4 C5 121.3(3) . . ?
C3 C4 C7 120.8(3) . . ?
C5 C4 C7 117.8(3) . . ?
C6 C5 C4 122.5(3) . . ?
C6 C5 H5A 118.8 . . ?
C4 C5 H5A 118.8 . . ?
C5 C6 C1 116.4(3) . . ?
C5 C6 H6A 121.8 . . ?
C1 C6 H6A 121.8 . . ?
O1 C7 O2 126.9(3) . . ?
O1 C7 C4 118.1(3) . . ?
O2 C7 C4 115.1(3) . . ?

_diffrn_measured_fraction_theta_max 0.998
_diffrn_reflns_theta_full        25.00
_diffrn_measured_fraction_theta_full 0.998
_refine_diff_density_max         0.686
_refine_diff_density_min         -0.618
_refine_diff_density_rms         0.096

# start Validation Reply Form
_vrf_PLAT602_1                   
;
PROBLEM: Structure Contains Solvent Accessible VOIDS of . 1085.30 A**3
RESPONSE: This is a three dimensional metal-organic framework structure,
in which there are many voids occupied by disorder solvent molecules (DMF, H2O
in this case).
;
