####################################################################### 
# 
# This file contains crystal structure data downloaded from the 
# Cambridge Structural Database (CSD) hosted by the Cambridge 
# Crystallographic Data Centre (CCDC).
# 
# Full information about CCDC data access policies and citation 
# guidelines are available at http://www.ccdc.cam.ac.uk/access/V1 
# 
# Audit and citation data items may have been added by the CCDC. 
# Please retain this information to preserve the provenance of 
# this file and to allow appropriate attribution of the data. 
# 
#######################################################################

data_1a
_audit_block_doi                 10.5517/cczbvy2
_database_code_depnum_ccdc_archive 'CCDC 904175'
loop_
_citation_id
_citation_doi
_citation_year
1 10.1002/chem.201203515 2013
_audit_update_record             
;
2012-10-03 deposited with the CCDC.	2024-07-11 downloaded from the CCDC.
;
#TrackingRef 'Xiao Juan.cif'


_audit_creation_method           SHELXL-97
_chemical_name_systematic        
;
?
;
_chemical_name_common            ?
_chemical_melting_point          ?
_chemical_formula_moiety         ?
_chemical_formula_sum            'C14 H8 N6 O6 Zn3'
_chemical_formula_weight         552.37

loop_
_atom_type_symbol
_atom_type_description
_atom_type_scat_dispersion_real
_atom_type_scat_dispersion_imag
_atom_type_scat_source
C C 0.0033 0.0016 'International Tables Vol C Tables 4.2.6.8 and 6.1.1.4'
H H 0.0000 0.0000 'International Tables Vol C Tables 4.2.6.8 and 6.1.1.4'
N N 0.0061 0.0033 'International Tables Vol C Tables 4.2.6.8 and 6.1.1.4'
O O 0.0106 0.0060 'International Tables Vol C Tables 4.2.6.8 and 6.1.1.4'
Zn Zn 0.2839 1.4301 'International Tables Vol C Tables 4.2.6.8 and 6.1.1.4'

_symmetry_cell_setting           Monoclinic
_symmetry_space_group_name_H-M   C2/c

loop_
_symmetry_equiv_pos_as_xyz
'x, y, z'
'-x, y, -z+1/2'
'x+1/2, y+1/2, z'
'-x+1/2, y+1/2, -z+1/2'
'-x, -y, -z'
'x, -y, z-1/2'
'-x+1/2, -y+1/2, -z'
'x+1/2, -y+1/2, z-1/2'

_cell_length_a                   19.092(3)
_cell_length_b                   10.3933(16)
_cell_length_c                   11.0647(17)
_cell_angle_alpha                90.00
_cell_angle_beta                 90.418(2)
_cell_angle_gamma                90.00
_cell_volume                     2195.5(6)
_cell_formula_units_Z            4
_cell_measurement_temperature    273(2)
_cell_measurement_reflns_used    1914
_cell_measurement_theta_min      2.23
_cell_measurement_theta_max      25.00

_exptl_crystal_description       block
_exptl_crystal_colour            buff
_exptl_crystal_size_max          0.21
_exptl_crystal_size_mid          0.17
_exptl_crystal_size_min          0.14
_exptl_crystal_density_meas      ?
_exptl_crystal_density_diffrn    1.671
_exptl_crystal_density_method    'not measured'
_exptl_crystal_F_000             1088
_exptl_absorpt_coefficient_mu    3.290
_exptl_absorpt_correction_type   multi-scan
_exptl_absorpt_correction_T_min  0.516
_exptl_absorpt_correction_T_max  0.631
_exptl_absorpt_process_details   SADABS

_exptl_special_details           
;
?
;

_diffrn_ambient_temperature      273(2)
_diffrn_radiation_wavelength     0.71073
_diffrn_radiation_type           MoK\a
_diffrn_radiation_source         'fine-focus sealed tube'
_diffrn_radiation_monochromator  graphite
_diffrn_measurement_device_type  'Bruker Smart Apex CCD area detector'
_diffrn_measurement_method       'phi and omega scans'
_diffrn_detector_area_resol_mean ?
_diffrn_standards_number         ?
_diffrn_standards_interval_count ?
_diffrn_standards_interval_time  ?
_diffrn_standards_decay_%        ?
_diffrn_reflns_number            5878
_diffrn_reflns_av_R_equivalents  0.0359
_diffrn_reflns_av_sigmaI/netI    0.0409
_diffrn_reflns_limit_h_min       -22
_diffrn_reflns_limit_h_max       22
_diffrn_reflns_limit_k_min       -8
_diffrn_reflns_limit_k_max       12
_diffrn_reflns_limit_l_min       -13
_diffrn_reflns_limit_l_max       13
_diffrn_reflns_theta_min         2.23
_diffrn_reflns_theta_max         25.00
_reflns_number_total             1914
_reflns_number_gt                1740
_reflns_threshold_expression     >2sigma(I)

_computing_data_collection       'Bruker SMART'
_computing_cell_refinement       'Bruker SMART'
_computing_data_reduction        'Bruker SMART'
_computing_structure_solution    'SHELXS-97 (Sheldrick, 1990)'
_computing_structure_refinement  'SHELXL-97 (Sheldrick, 1997)'
_computing_molecular_graphics    'Bruker SMART'
_computing_publication_material  'Bruker SMART'

_refine_special_details          
;
Refinement of F^2^ against ALL reflections. The weighted R-factor wR and
goodness of fit S are based on F^2^, conventional R-factors R are based
on F, with F set to zero for negative F^2^. The threshold expression of
F^2^ > 2sigma(F^2^) is used only for calculating R-factors(gt) etc. and is
not relevant to the choice of reflections for refinement. R-factors based
on F^2^ are statistically about twice as large as those based on F, and R-
factors based on ALL data will be even larger.
;

_refine_ls_structure_factor_coef Fsqd
_refine_ls_matrix_type           full
_refine_ls_weighting_scheme      calc
_refine_ls_weighting_details     
'calc w=1/[\s^2^(Fo^2^)+(0.0488P)^2^+10.7960P] where P=(Fo^2^+2Fc^2^)/3'
_atom_sites_solution_primary     direct
_atom_sites_solution_secondary   difmap
_atom_sites_solution_hydrogens   geom
_refine_ls_hydrogen_treatment    constr
_refine_ls_extinction_method     none
_refine_ls_extinction_coef       ?
_refine_ls_number_reflns         1914
_refine_ls_number_parameters     132
_refine_ls_number_restraints     0
_refine_ls_R_factor_all          0.0507
_refine_ls_R_factor_gt           0.0450
_refine_ls_wR_factor_ref         0.1053
_refine_ls_wR_factor_gt          0.1026
_refine_ls_goodness_of_fit_ref   1.070
_refine_ls_restrained_S_all      1.070
_refine_ls_shift/su_max          0.000
_refine_ls_shift/su_mean         0.000

loop_
_atom_site_label
_atom_site_type_symbol
_atom_site_fract_x
_atom_site_fract_y
_atom_site_fract_z
_atom_site_U_iso_or_equiv
_atom_site_adp_type
_atom_site_occupancy
_atom_site_symmetry_multiplicity
_atom_site_calc_flag
_atom_site_refinement_flags
_atom_site_disorder_assembly
_atom_site_disorder_group
Zn1 Zn 0.5000 0.12220(8) 0.2500 0.0195(2) Uani 1 2 d S . .
Zn2 Zn 0.57716(3) 0.05949(6) -0.00382(4) 0.0212(2) Uani 1 1 d . . .
O1 O 0.63320(18) 0.2243(4) 0.0582(3) 0.0314(9) Uani 1 1 d . . .
O2 O 0.57893(18) 0.2543(4) 0.2352(3) 0.0333(9) Uani 1 1 d . . .
O3 O 0.48529(16) 0.1067(3) 0.0656(3) 0.0202(7) Uani 1 1 d . . .
H3B H 0.4554 0.0482 0.0502 0.024 Uiso 1 1 d R . .
N1 N 0.8792(2) 0.4619(4) 0.3633(3) 0.0222(9) Uani 1 1 d . . .
N2 N 0.91558(19) 0.4702(4) 0.2615(3) 0.0235(9) Uani 1 1 d . . .
N3 N 0.8781(2) 0.4295(4) 0.1670(3) 0.0242(9) Uani 1 1 d . . .
C1 C 0.8149(3) 0.4140(5) 0.3337(4) 0.0223(11) Uani 1 1 d . . .
C2 C 0.8142(2) 0.3926(5) 0.2097(4) 0.0203(10) Uani 1 1 d . . .
C3 C 0.7534(3) 0.3447(5) 0.1510(4) 0.0245(11) Uani 1 1 d . . .
H3A H 0.7523 0.3304 0.0681 0.029 Uiso 1 1 calc R . .
C4 C 0.6965(3) 0.3204(5) 0.2216(4) 0.0272(11) Uani 1 1 d . . .
C5 C 0.6972(3) 0.3438(6) 0.3472(4) 0.0324(13) Uani 1 1 d . . .
H5A H 0.6570 0.3275 0.3916 0.039 Uiso 1 1 calc R . .
C6 C 0.7559(3) 0.3902(6) 0.4058(4) 0.0316(13) Uani 1 1 d . . .
H6A H 0.7566 0.4049 0.4887 0.038 Uiso 1 1 calc R . .
C7 C 0.6307(3) 0.2631(5) 0.1660(4) 0.0261(11) Uani 1 1 d . . .

loop_
_atom_site_aniso_label
_atom_site_aniso_U_11
_atom_site_aniso_U_22
_atom_site_aniso_U_33
_atom_site_aniso_U_23
_atom_site_aniso_U_13
_atom_site_aniso_U_12
Zn1 0.0120(4) 0.0332(5) 0.0132(4) 0.000 0.0012(3) 0.000
Zn2 0.0126(3) 0.0405(4) 0.0105(3) -0.0003(2) 0.0010(2) -0.0027(2)
O1 0.0238(19) 0.048(2) 0.0227(18) -0.0048(17) 0.0032(15) -0.0148(17)
O2 0.0223(18) 0.049(2) 0.0292(19) -0.0117(17) 0.0123(15) -0.0165(17)
O3 0.0118(15) 0.033(2) 0.0156(16) -0.0035(14) 0.0008(13) -0.0057(14)
N1 0.017(2) 0.036(3) 0.0130(18) 0.0006(17) -0.0001(16) -0.0055(18)
N2 0.014(2) 0.042(3) 0.0146(19) 0.0001(18) 0.0019(16) -0.0091(18)
N3 0.020(2) 0.039(3) 0.0134(19) -0.0061(17) 0.0028(16) -0.0092(19)
C1 0.022(3) 0.030(3) 0.014(2) 0.004(2) -0.0039(19) -0.004(2)
C2 0.019(2) 0.029(3) 0.012(2) -0.0001(19) 0.0015(18) -0.005(2)
C3 0.021(2) 0.041(3) 0.012(2) -0.005(2) 0.0009(19) -0.007(2)
C4 0.021(3) 0.039(3) 0.022(2) -0.006(2) 0.003(2) -0.006(2)
C5 0.021(3) 0.057(4) 0.020(2) -0.003(2) 0.009(2) -0.013(2)
C6 0.024(3) 0.056(4) 0.015(2) -0.003(2) 0.008(2) -0.015(3)
C7 0.020(3) 0.034(3) 0.024(3) -0.003(2) 0.006(2) -0.011(2)

_geom_special_details            
;
All esds (except the esd in the dihedral angle between two l.s. planes)
are estimated using the full covariance matrix. The cell esds are taken
into account individually in the estimation of esds in distances, angles
and torsion angles; correlations between esds in cell parameters are only
used when they are defined by crystal symmetry. An approximate (isotropic)
treatment of cell esds is used for estimating esds involving l.s. planes.
;

loop_
_geom_bond_atom_site_label_1
_geom_bond_atom_site_label_2
_geom_bond_distance
_geom_bond_site_symmetry_2
_geom_bond_publ_flag
Zn1 O2 2.046(3) 2_655 ?
Zn1 O2 2.046(3) . ?
Zn1 O3 2.064(3) . ?
Zn1 O3 2.064(3) 2_655 ?
Zn1 N2 2.261(4) 3_445 ?
Zn1 N2 2.261(4) 4_645 ?
Zn2 O3 1.982(3) . ?
Zn2 N3 2.006(4) 7_655 ?
Zn2 N1 2.030(4) 4_645 ?
Zn2 O1 2.130(4) . ?
Zn2 O3 2.205(3) 5_655 ?
O1 C7 1.261(6) . ?
O2 C7 1.258(6) . ?
O3 Zn2 2.205(3) 5_655 ?
O3 H3B 0.8500 . ?
N1 N2 1.330(5) . ?
N1 C1 1.363(6) . ?
N1 Zn2 2.030(4) 4_655 ?
N2 N3 1.332(5) . ?
N2 Zn1 2.261(4) 3 ?
N3 C2 1.366(6) . ?
N3 Zn2 2.006(4) 7_655 ?
C1 C2 1.390(6) . ?
C1 C6 1.407(7) . ?
C2 C3 1.416(6) . ?
C3 C4 1.367(7) . ?
C3 H3A 0.9300 . ?
C4 C5 1.411(7) . ?
C4 C7 1.516(7) . ?
C5 C6 1.378(7) . ?
C5 H5A 0.9300 . ?
C6 H6A 0.9300 . ?

loop_
_geom_angle_atom_site_label_1
_geom_angle_atom_site_label_2
_geom_angle_atom_site_label_3
_geom_angle
_geom_angle_site_symmetry_1
_geom_angle_site_symmetry_3
_geom_angle_publ_flag
O2 Zn1 O2 95.7(2) 2_655 . ?
O2 Zn1 O3 92.11(13) 2_655 . ?
O2 Zn1 O3 93.90(13) . . ?
O2 Zn1 O3 93.90(13) 2_655 2_655 ?
O2 Zn1 O3 92.11(13) . 2_655 ?
O3 Zn1 O3 171.04(19) . 2_655 ?
O2 Zn1 N2 86.48(15) 2_655 3_445 ?
O2 Zn1 N2 177.49(15) . 3_445 ?
O3 Zn1 N2 84.78(13) . 3_445 ?
O3 Zn1 N2 88.96(13) 2_655 3_445 ?
O2 Zn1 N2 177.49(15) 2_655 4_645 ?
O2 Zn1 N2 86.48(15) . 4_645 ?
O3 Zn1 N2 88.96(13) . 4_645 ?
O3 Zn1 N2 84.78(13) 2_655 4_645 ?
N2 Zn1 N2 91.4(2) 3_445 4_645 ?
O3 Zn2 N3 135.93(15) . 7_655 ?
O3 Zn2 N1 100.73(14) . 4_645 ?
N3 Zn2 N1 122.88(17) 7_655 4_645 ?
O3 Zn2 O1 96.89(14) . . ?
N3 Zn2 O1 91.59(15) 7_655 . ?
N1 Zn2 O1 87.30(15) 4_645 . ?
O3 Zn2 O3 80.55(14) . 5_655 ?
N3 Zn2 O3 89.92(14) 7_655 5_655 ?
N1 Zn2 O3 93.66(15) 4_645 5_655 ?
O1 Zn2 O3 177.39(13) . 5_655 ?
C7 O1 Zn2 122.7(3) . . ?
C7 O2 Zn1 132.9(3) . . ?
Zn2 O3 Zn1 106.75(14) . . ?
Zn2 O3 Zn2 99.45(14) . 5_655 ?
Zn1 O3 Zn2 115.92(15) . 5_655 ?
Zn2 O3 H3B 109.9 . . ?
Zn1 O3 H3B 109.9 . . ?
Zn2 O3 H3B 10.6 5_655 . ?
N2 N1 C1 107.1(4) . . ?
N2 N1 Zn2 113.7(3) . 4_655 ?
C1 N1 Zn2 136.9(3) . 4_655 ?
N1 N2 N3 111.3(4) . . ?
N1 N2 Zn1 118.0(3) . 3 ?
N3 N2 Zn1 123.9(3) . 3 ?
N2 N3 C2 107.1(4) . . ?
N2 N3 Zn2 117.3(3) . 7_655 ?
C2 N3 Zn2 135.6(3) . 7_655 ?
N1 C1 C2 107.3(4) . . ?
N1 C1 C6 130.6(4) . . ?
C2 C1 C6 122.0(4) . . ?
N3 C2 C1 107.1(4) . . ?
N3 C2 C3 132.1(4) . . ?
C1 C2 C3 120.7(4) . . ?
C4 C3 C2 117.1(4) . . ?
C4 C3 H3A 121.4 . . ?
C2 C3 H3A 121.4 . . ?
C3 C4 C5 121.9(5) . . ?
C3 C4 C7 120.1(4) . . ?
C5 C4 C7 118.0(4) . . ?
C6 C5 C4 121.7(5) . . ?
C6 C5 H5A 119.1 . . ?
C4 C5 H5A 119.1 . . ?
C5 C6 C1 116.5(4) . . ?
C5 C6 H6A 121.7 . . ?
C1 C6 H6A 121.7 . . ?
O2 C7 O1 126.0(5) . . ?
O2 C7 C4 115.7(4) . . ?
O1 C7 C4 118.2(4) . . ?

_diffrn_measured_fraction_theta_max 0.992
_diffrn_reflns_theta_full        25.00
_diffrn_measured_fraction_theta_full 0.992
_refine_diff_density_max         0.684
_refine_diff_density_min         -0.934
_refine_diff_density_rms         0.114

# start Validation Reply Form
_vrf_PLAT601_2                   
;
PROBLEM: Structure Contains Solvent Accessible VOIDS of . 709.20 A**3
RESPONSE: This is a three dimensional metal-organic framework structure,
in which there are many voids occupied by disorder solvent molecules (DMF, H2O
in this case).
;
