####################################################################### 
# 
# This file contains crystal structure data downloaded from the 
# Cambridge Structural Database (CSD) hosted by the Cambridge 
# Crystallographic Data Centre (CCDC).
# 
# Full information about CCDC data access policies and citation 
# guidelines are available at http://www.ccdc.cam.ac.uk/access/V1 
# 
# Audit and citation data items may have been added by the CCDC. 
# Please retain this information to preserve the provenance of 
# this file and to allow appropriate attribution of the data. 
# 
#######################################################################

data_1b
_audit_block_doi                 10.5517/cczbvz3
_database_code_depnum_ccdc_archive 'CCDC 904176'
loop_
_citation_id
_citation_doi
_citation_year
1 10.1002/chem.201203515 2013
_audit_update_record             
;
2012-10-03 deposited with the CCDC.	2024-07-11 downloaded from the CCDC.
;
#TrackingRef 'Xiao Juan.cif'


_audit_creation_method           SHELXL-97
_chemical_name_systematic        
;
?
;
_chemical_name_common            ?
_chemical_melting_point          ?
_chemical_formula_moiety         ?
_chemical_formula_sum            'C14 H8 N6 O6 Zn3'
_chemical_formula_weight         552.37

loop_
_atom_type_symbol
_atom_type_description
_atom_type_scat_dispersion_real
_atom_type_scat_dispersion_imag
_atom_type_scat_source
C C 0.0033 0.0016 'International Tables Vol C Tables 4.2.6.8 and 6.1.1.4'
H H 0.0000 0.0000 'International Tables Vol C Tables 4.2.6.8 and 6.1.1.4'
N N 0.0061 0.0033 'International Tables Vol C Tables 4.2.6.8 and 6.1.1.4'
O O 0.0106 0.0060 'International Tables Vol C Tables 4.2.6.8 and 6.1.1.4'
Zn Zn 0.2839 1.4301 'International Tables Vol C Tables 4.2.6.8 and 6.1.1.4'

_symmetry_cell_setting           Monoclinic
_symmetry_space_group_name_H-M   C2/c

loop_
_symmetry_equiv_pos_as_xyz
'x, y, z'
'-x, y, -z+1/2'
'x+1/2, y+1/2, z'
'-x+1/2, y+1/2, -z+1/2'
'-x, -y, -z'
'x, -y, z-1/2'
'-x+1/2, -y+1/2, -z'
'x+1/2, -y+1/2, z-1/2'

_cell_length_a                   19.465(3)
_cell_length_b                   9.3348(13)
_cell_length_c                   11.0748(15)
_cell_angle_alpha                90.00
_cell_angle_beta                 90.00
_cell_angle_gamma                90.00
_cell_volume                     2012.4(5)
_cell_formula_units_Z            4
_cell_measurement_temperature    293(2)
_cell_measurement_reflns_used    1777
_cell_measurement_theta_min      2.09
_cell_measurement_theta_max      24.99

_exptl_crystal_description       block
_exptl_crystal_colour            buff
_exptl_crystal_size_max          0.18
_exptl_crystal_size_mid          0.13
_exptl_crystal_size_min          0.09
_exptl_crystal_density_meas      ?
_exptl_crystal_density_diffrn    1.823
_exptl_crystal_density_method    'not measured'
_exptl_crystal_F_000             1088
_exptl_absorpt_coefficient_mu    3.590
_exptl_absorpt_correction_type   multi-scan
_exptl_absorpt_correction_T_min  0.577
_exptl_absorpt_correction_T_max  0.724
_exptl_absorpt_process_details   SADABS

_exptl_special_details           
;
?
;

_diffrn_ambient_temperature      293(2)
_diffrn_radiation_wavelength     0.71073
_diffrn_radiation_type           MoK\a
_diffrn_radiation_source         'fine-focus sealed tube'
_diffrn_radiation_monochromator  graphite
_diffrn_measurement_device_type  'Bruker Smart Apex CCD area detector'
_diffrn_measurement_method       'phi and omega scans'
_diffrn_detector_area_resol_mean ?
_diffrn_standards_number         ?
_diffrn_standards_interval_count ?
_diffrn_standards_interval_time  ?
_diffrn_standards_decay_%        ?
_diffrn_reflns_number            4724
_diffrn_reflns_av_R_equivalents  0.0504
_diffrn_reflns_av_sigmaI/netI    0.0556
_diffrn_reflns_limit_h_min       -14
_diffrn_reflns_limit_h_max       23
_diffrn_reflns_limit_k_min       -11
_diffrn_reflns_limit_k_max       11
_diffrn_reflns_limit_l_min       -12
_diffrn_reflns_limit_l_max       13
_diffrn_reflns_theta_min         2.09
_diffrn_reflns_theta_max         24.99
_reflns_number_total             1777
_reflns_number_gt                1455
_reflns_threshold_expression     >2sigma(I)

_computing_data_collection       'Bruker SMART'
_computing_cell_refinement       'Bruker SMART'
_computing_data_reduction        'Bruker SMART'
_computing_structure_solution    'SHELXS-97 (Sheldrick, 1990)'
_computing_structure_refinement  'SHELXL-97 (Sheldrick, 1997)'
_computing_molecular_graphics    'Bruker SMART'
_computing_publication_material  'Bruker SMART'

_refine_special_details          
;
Refinement of F^2^ against ALL reflections. The weighted R-factor wR and
goodness of fit S are based on F^2^, conventional R-factors R are based
on F, with F set to zero for negative F^2^. The threshold expression of
F^2^ > 2sigma(F^2^) is used only for calculating R-factors(gt) etc. and is
not relevant to the choice of reflections for refinement. R-factors based
on F^2^ are statistically about twice as large as those based on F, and R-
factors based on ALL data will be even larger.
;

_refine_ls_structure_factor_coef Fsqd
_refine_ls_matrix_type           full
_refine_ls_weighting_scheme      calc
_refine_ls_weighting_details     
'calc w=1/[\s^2^(Fo^2^)+(0.0607P)^2^+2.7980P] where P=(Fo^2^+2Fc^2^)/3'
_atom_sites_solution_primary     direct
_atom_sites_solution_secondary   difmap
_atom_sites_solution_hydrogens   geom
_refine_ls_hydrogen_treatment    constr
_refine_ls_extinction_method     none
_refine_ls_extinction_coef       ?
_refine_ls_number_reflns         1777
_refine_ls_number_parameters     132
_refine_ls_number_restraints     0
_refine_ls_R_factor_all          0.0611
_refine_ls_R_factor_gt           0.0482
_refine_ls_wR_factor_ref         0.1192
_refine_ls_wR_factor_gt          0.1144
_refine_ls_goodness_of_fit_ref   1.091
_refine_ls_restrained_S_all      1.091
_refine_ls_shift/su_max          0.001
_refine_ls_shift/su_mean         0.000

loop_
_atom_site_label
_atom_site_type_symbol
_atom_site_fract_x
_atom_site_fract_y
_atom_site_fract_z
_atom_site_U_iso_or_equiv
_atom_site_adp_type
_atom_site_occupancy
_atom_site_symmetry_multiplicity
_atom_site_calc_flag
_atom_site_refinement_flags
_atom_site_disorder_assembly
_atom_site_disorder_group
Zn1 Zn 0.5000 0.14060(11) 0.2500 0.0197(3) Uani 1 2 d S . .
Zn2 Zn 0.57502(3) 0.05946(8) 0.50530(6) 0.0230(2) Uani 1 1 d . . .
O1 O 0.8695(2) -0.2518(5) 0.0526(4) 0.0358(11) Uani 1 1 d . . .
O2 O 0.9220(2) -0.2112(5) 0.2304(4) 0.0333(11) Uani 1 1 d . . .
O3 O 0.48643(18) 0.1196(4) 0.4331(3) 0.0204(9) Uani 1 1 d . . .
H3B H 0.4561 0.0561 0.4470 0.025 Uiso 1 1 d R . .
N1 N 0.6195(2) -0.0417(5) 0.3641(4) 0.0242(11) Uani 1 1 d . . .
N2 N 0.5833(2) -0.0304(6) 0.2618(4) 0.0279(12) Uani 1 1 d . . .
N3 N 0.6209(2) -0.0697(6) 0.1652(4) 0.0266(12) Uani 1 1 d . . .
C1 C 0.6841(3) -0.0872(6) 0.3346(5) 0.0213(13) Uani 1 1 d . . .
C2 C 0.6853(3) -0.1061(6) 0.2073(5) 0.0200(13) Uani 1 1 d . . .
C3 C 0.7456(3) -0.1484(7) 0.1488(5) 0.0251(14) Uani 1 1 d . . .
H3A H 0.7467 -0.1635 0.0658 0.030 Uiso 1 1 calc R . .
C4 C 0.8027(3) -0.1667(7) 0.2180(5) 0.0260(14) Uani 1 1 d . . .
C5 C 0.8006(3) -0.1490(7) 0.3474(5) 0.0324(16) Uani 1 1 d . . .
H5A H 0.8404 -0.1645 0.3919 0.039 Uiso 1 1 calc R . .
C6 C 0.7414(3) -0.1098(7) 0.4068(5) 0.0321(16) Uani 1 1 d . . .
H6A H 0.7399 -0.0990 0.4903 0.039 Uiso 1 1 calc R . .
C7 C 0.8698(3) -0.2129(7) 0.1606(6) 0.0295(15) Uani 1 1 d . . .

loop_
_atom_site_aniso_label
_atom_site_aniso_U_11
_atom_site_aniso_U_22
_atom_site_aniso_U_33
_atom_site_aniso_U_23
_atom_site_aniso_U_13
_atom_site_aniso_U_12
Zn1 0.0103(5) 0.0382(6) 0.0108(5) 0.000 -0.0006(3) 0.000
Zn2 0.0113(4) 0.0479(5) 0.0099(4) 0.0009(3) -0.0011(2) -0.0030(3)
O1 0.027(2) 0.062(3) 0.019(2) -0.011(2) -0.0048(18) 0.014(2)
O2 0.016(2) 0.054(3) 0.029(2) -0.011(2) -0.0091(18) 0.016(2)
O3 0.0118(18) 0.038(2) 0.011(2) 0.0040(17) 0.0003(15) -0.0069(17)
N1 0.017(2) 0.046(3) 0.010(2) 0.000(2) 0.0004(19) 0.005(2)
N2 0.011(2) 0.056(4) 0.017(3) 0.001(2) 0.000(2) 0.014(2)
N3 0.016(2) 0.054(4) 0.011(2) -0.004(2) -0.0015(19) 0.010(2)
C1 0.016(3) 0.033(3) 0.015(3) 0.003(2) 0.006(2) 0.003(2)
C2 0.016(3) 0.030(3) 0.013(3) -0.006(2) -0.005(2) 0.005(2)
C3 0.022(3) 0.039(4) 0.014(3) -0.006(3) 0.000(2) 0.003(3)
C4 0.022(3) 0.033(4) 0.024(3) 0.004(3) -0.003(3) 0.004(3)
C5 0.017(3) 0.057(4) 0.023(3) 0.004(3) -0.009(3) 0.010(3)
C6 0.026(3) 0.056(4) 0.015(3) -0.002(3) -0.002(3) 0.008(3)
C7 0.016(3) 0.043(4) 0.029(4) -0.005(3) -0.002(3) 0.006(3)

_geom_special_details            
;
All esds (except the esd in the dihedral angle between two l.s. planes)
are estimated using the full covariance matrix. The cell esds are taken
into account individually in the estimation of esds in distances, angles
and torsion angles; correlations between esds in cell parameters are only
used when they are defined by crystal symmetry. An approximate (isotropic)
treatment of cell esds is used for estimating esds involving l.s. planes.
;

loop_
_geom_bond_atom_site_label_1
_geom_bond_atom_site_label_2
_geom_bond_distance
_geom_bond_site_symmetry_2
_geom_bond_publ_flag
Zn1 O3 2.055(4) . ?
Zn1 O3 2.055(4) 2_655 ?
Zn1 O2 2.066(4) 4_655 ?
Zn1 O2 2.066(4) 3_455 ?
Zn1 N2 2.280(5) . ?
Zn1 N2 2.280(5) 2_655 ?
Zn2 O3 1.982(4) . ?
Zn2 N3 1.986(5) 6_556 ?
Zn2 N1 2.022(5) . ?
Zn2 O3 2.165(4) 5_656 ?
Zn2 O1 2.164(4) 4_655 ?
Zn2 Zn2 3.1268(13) 5_656 ?
O1 C7 1.249(7) . ?
O1 Zn2 2.164(4) 4_645 ?
O2 C7 1.276(7) . ?
O2 Zn1 2.066(4) 3_545 ?
O3 Zn2 2.165(4) 5_656 ?
O3 H3B 0.8500 . ?
N1 N2 1.337(6) . ?
N1 C1 1.367(7) . ?
N2 N3 1.347(6) . ?
N3 C2 1.380(7) . ?
N3 Zn2 1.986(5) 6 ?
C1 C6 1.389(8) . ?
C1 C2 1.421(8) . ?
C2 C3 1.398(8) . ?
C3 C4 1.360(8) . ?
C3 H3A 0.9300 . ?
C4 C5 1.444(8) . ?
C4 C7 1.516(8) . ?
C5 C6 1.377(8) . ?
C5 H5A 0.9300 . ?
C6 H6A 0.9300 . ?

loop_
_geom_angle_atom_site_label_1
_geom_angle_atom_site_label_2
_geom_angle_atom_site_label_3
_geom_angle
_geom_angle_site_symmetry_1
_geom_angle_site_symmetry_3
_geom_angle_publ_flag
O3 Zn1 O3 169.0(2) . 2_655 ?
O3 Zn1 O2 93.15(16) . 4_655 ?
O3 Zn1 O2 94.20(16) 2_655 4_655 ?
O3 Zn1 O2 94.20(16) . 3_455 ?
O3 Zn1 O2 93.15(16) 2_655 3_455 ?
O2 Zn1 O2 95.9(3) 4_655 3_455 ?
O3 Zn1 N2 88.15(16) . . ?
O3 Zn1 N2 84.16(15) 2_655 . ?
O2 Zn1 N2 86.54(18) 4_655 . ?
O2 Zn1 N2 176.49(17) 3_455 . ?
O3 Zn1 N2 84.16(15) . 2_655 ?
O3 Zn1 N2 88.15(16) 2_655 2_655 ?
O2 Zn1 N2 176.49(17) 4_655 2_655 ?
O2 Zn1 N2 86.54(18) 3_455 2_655 ?
N2 Zn1 N2 91.1(3) . 2_655 ?
O3 Zn2 N3 137.52(18) . 6_556 ?
O3 Zn2 N1 101.13(17) . . ?
N3 Zn2 N1 121.3(2) 6_556 . ?
O3 Zn2 O3 82.22(16) . 5_656 ?
N3 Zn2 O3 90.28(17) 6_556 5_656 ?
N1 Zn2 O3 96.88(18) . 5_656 ?
O3 Zn2 O1 94.83(16) . 4_655 ?
N3 Zn2 O1 90.04(18) 6_556 4_655 ?
N1 Zn2 O1 86.40(19) . 4_655 ?
O3 Zn2 O1 175.94(16) 5_656 4_655 ?
O3 Zn2 Zn2 43.32(11) . 5_656 ?
N3 Zn2 Zn2 118.09(14) 6_556 5_656 ?
N1 Zn2 Zn2 101.85(14) . 5_656 ?
O3 Zn2 Zn2 38.90(10) 5_656 5_656 ?
O1 Zn2 Zn2 138.08(12) 4_655 5_656 ?
C7 O1 Zn2 121.2(4) . 4_645 ?
C7 O2 Zn1 129.8(4) . 3_545 ?
Zn2 O3 Zn1 108.25(16) . . ?
Zn2 O3 Zn2 97.78(16) . 5_656 ?
Zn1 O3 Zn2 117.11(18) . 5_656 ?
Zn2 O3 H3B 109.5 . . ?
Zn1 O3 H3B 109.5 . . ?
Zn2 O3 H3B 12.0 5_656 . ?
N2 N1 C1 107.9(4) . . ?
N2 N1 Zn2 113.1(3) . . ?
C1 N1 Zn2 136.4(4) . . ?
N1 N2 N3 111.4(4) . . ?
N1 N2 Zn1 118.6(4) . . ?
N3 N2 Zn1 122.1(4) . . ?
N2 N3 C2 107.0(4) . . ?
N2 N3 Zn2 116.8(3) . 6 ?
C2 N3 Zn2 136.2(4) . 6 ?
N1 C1 C6 130.4(5) . . ?
N1 C1 C2 106.9(5) . . ?
C6 C1 C2 122.7(5) . . ?
N3 C2 C3 132.5(5) . . ?
N3 C2 C1 106.8(5) . . ?
C3 C2 C1 120.6(5) . . ?
C4 C3 C2 117.4(5) . . ?
C4 C3 H3A 121.3 . . ?
C2 C3 H3A 121.3 . . ?
C3 C4 C5 121.5(5) . . ?
C3 C4 C7 120.2(5) . . ?
C5 C4 C7 118.2(5) . . ?
C6 C5 C4 121.9(5) . . ?
C6 C5 H5A 119.0 . . ?
C4 C5 H5A 119.0 . . ?
C5 C6 C1 115.9(5) . . ?
C5 C6 H6A 122.0 . . ?
C1 C6 H6A 122.0 . . ?
O1 C7 O2 126.0(5) . . ?
O1 C7 C4 118.7(5) . . ?
O2 C7 C4 115.3(5) . . ?

_diffrn_measured_fraction_theta_max 0.998
_diffrn_reflns_theta_full        24.99
_diffrn_measured_fraction_theta_full 0.998
_refine_diff_density_max         0.777
_refine_diff_density_min         -0.917
_refine_diff_density_rms         0.141

# start Validation Reply Form
_vrf_PLAT601_3                   
;
PROBLEM: Structure Contains Solvent Accessible VOIDS of . 488.70 A**3
RESPONSE: This is a three dimensional metal-organic framework structure,
in which there are many voids occupied by disorder solvent molecules (H2O
in this case).
;
# end Validation Reply Form

#===============================END

