
#######################################################################
#
#                 Cambridge Crystallographic Data Centre
#                                CCDC
#
#######################################################################
#
# If this CIF has been generated from an entry in the Cambridge
# Structural Database, then it will include bibliographic, chemical,
# crystal, experimental, refinement or atomic coordinate data resulting
# from the CCDC's data processing and validation procedures.
#
#######################################################################

data_CSD_CIF_LETVUB
_audit_creation_date 1995-01-18
_audit_creation_method CSD-ConQuest-V1
_database_code_CSD LETVUB
_database_code_depnum_ccdc_archive 'CCDC 1205999'
_chemical_formula_sum 'C20 H16 Cu1 F6 N4 P1'
_chemical_formula_moiety
;
(C20 H16 Cu1 N4 1+)n,n(F6 P1 1-)
;
_journal_coden_Cambridge 182
_journal_year 1994
_journal_page_first 1325
_journal_name_full 'Chem.Commun. '
loop_
_publ_author_name
"L.R.MacGillivray"
"S.Subramanian"
"M.J.Zaworotko"
_chemical_name_systematic
;
catena-[bis(\m~2~-4,4'-bipyridine)-copper(i) hexafluorophosphate]
;
_chemical_name_common
;
Teaching Subset: MOFs
;
_cell_volume   1060.470
_exptl_crystal_density_diffrn 1.63
_diffrn_ambient_temperature ?
_diffrn_special_details
;
The study was carried out at room temperature,in the range 283-303K

;
#These two values have been output from a single CSD field.
_refine_ls_R_factor_gt 0.067
_refine_ls_wR_factor_gt 0.067
_symmetry_cell_setting tetragonal
_symmetry_space_group_name_H-M 'P 4/n'
_symmetry_Int_Tables_number 85
loop_
_symmetry_equiv_pos_site_id
_symmetry_equiv_pos_as_xyz
1 x,y,z
2 1/2-y,x,z
3 1/2-x,1/2-y,z
4 y,1/2-x,z
5 -x,-y,-z
6 -1/2+y,-x,-z
7 -1/2+x,-1/2+y,-z
8 -y,-1/2+x,-z
_cell_length_a 12.3251(24)
_cell_length_b 12.3251(24)
_cell_length_c 6.981(3)
_cell_angle_alpha 90
_cell_angle_beta 90
_cell_angle_gamma 90
_cell_formula_units_Z 2
loop_
_atom_type_symbol
_atom_type_radius_bond
C 0.68
H 0.23
Cu 1.52
F 0.64
N 0.68
P 1.05
loop_
_atom_site_label
_atom_site_type_symbol
_atom_site_fract_x
_atom_site_fract_y
_atom_site_fract_z
Cu1 Cu 0.75000 0.25000 0.00000
N1 N 0.6527(8) 0.3424(10) 0.1695(17)
C1 C 0.5944(14) 0.3007(12) 0.302(3)
C2 C 0.5300(12) 0.3579(15) 0.4300(21)
C3 C 0.5335(12) 0.4691(13) 0.4320(18)
C4 C 0.5944(13) 0.5138(11) 0.294(3)
C5 C 0.6550(12) 0.4512(14) 0.171(3)
H1 H 0.59600 0.21400 0.32600
H2 H 0.47500 0.31900 0.52900
H3 H 0.59300 0.60100 0.27900
H4 H 0.70600 0.49300 0.06900
P1 P 0.25000 0.25000 0.121(3)
F1 F 0.25000 0.25000 -0.114(6)
F2 F 0.25000 0.25000 0.333(5)
F3 F 0.3382(9) 0.3361(9) 0.1021(23)
N1E N 0.8424(8) 0.3473(10) -0.1695(17)
N1B N 0.8473(8) 0.1576(10) 0.1695(17)
N1G N 0.6576(8) 0.1527(10) -0.1695(17)
C3D C 0.4665(12) 0.5309(13) 0.5680(18)
C1E C 0.8007(14) 0.4056(12) -0.302(3)
C5E C 0.9512(12) 0.3450(14) -0.171(3)
C2D C 0.4700(12) 0.6421(15) 0.5700(21)
C4D C 0.4056(13) 0.4862(11) 0.706(3)
C2E C 0.8579(12) 0.4700(15) -0.4300(21)
H1E H 0.71400 0.40400 -0.32600
C4E C 1.0138(13) 0.4056(11) -0.294(3)
H4E H 0.99300 0.29400 -0.06900
C1D C 0.4056(14) 0.6993(12) 0.698(3)
H2D H 0.52500 0.68100 0.47100
C5D C 0.3450(12) 0.5488(14) 0.829(3)
H3D H 0.40700 0.39900 0.72100
C3E C 0.9691(12) 0.4665(13) -0.4320(18)
H2E H 0.81900 0.52500 -0.52900
H3E H 1.10100 0.40700 -0.27900
N1D N 0.3473(8) 0.6576(10) 0.8305(17)
H1D H 0.40400 0.78600 0.67400
H4D H 0.29400 0.50700 0.93100
C3A C 1.0309(12) 0.5335(13) -0.5680(18)
Cu1A Cu 0.25000 0.75000 1.00000
C2A C 1.1421(12) 0.5300(15) -0.5700(21)
C4A C 0.9862(13) 0.5944(11) -0.706(3)
C1A C 1.1993(14) 0.5944(12) -0.698(3)
H2A H 1.18100 0.47500 -0.47100
C5A C 1.0488(12) 0.6550(14) -0.829(3)
H3A H 0.89900 0.59300 -0.72100
N1A N 1.1576(8) 0.6527(10) -0.8305(17)
H1A H 1.28600 0.59600 -0.67400
H4A H 1.00700 0.70600 -0.93100
Cu1A* Cu 1.25000 0.75000 -1.00000
F3A F 0.1639(9) 0.3382(9) 0.1021(23)
F3B F 0.1618(9) 0.1639(9) 0.1021(23)
F3C F 0.3361(9) 0.1618(9) 0.1021(23)
#END
