
#######################################################################
#
#                 Cambridge Crystallographic Data Centre
#                                CCDC
#
#######################################################################
#
# If this CIF has been generated from an entry in the Cambridge
# Structural Database, then it will include bibliographic, chemical,
# crystal, experimental, refinement or atomic coordinate data resulting
# from the CCDC's data processing and validation procedures.
#
#######################################################################

data_CSD_CIF_LETWAI
_audit_creation_date 1995-01-18
_audit_creation_method CSD-ConQuest-V1
_database_code_CSD LETWAI
_database_code_depnum_ccdc_archive 'CCDC 1206001'
_chemical_formula_sum 'C24 H24 Cu4 F12 N12 Si2'
_chemical_formula_moiety
;
(C24 H24 Cu4 N12)n,2n(F6 Si1)
;
_journal_coden_Cambridge 182
_journal_year 1994
_journal_page_first 1325
_journal_name_full 'Chem.Commun. '
loop_
_publ_author_name
"L.R.MacGillivray"
"S.Subramanian"
"M.J.Zaworotko"
_chemical_name_systematic
;
catena-[hexakis(\m~2~-pyrazine)-tetra-copper(i) bis(hexafluorosilicate)]
;
_chemical_name_common
;
Teaching Subset: MOFs
;
_cell_volume   1842.983
_exptl_crystal_density_diffrn 1.84
_exptl_special_details
;
We calculate 12% void space in the structure

;
_diffrn_ambient_temperature ?
_diffrn_special_details
;
The study was carried out at room temperature,in the range 283-303K

;
#These two values have been output from a single CSD field.
_refine_ls_R_factor_gt 0.034
_refine_ls_wR_factor_gt 0.034
_symmetry_cell_setting tetragonal
_symmetry_space_group_name_H-M 'I 4/m c m'
_symmetry_Int_Tables_number 140
loop_
_symmetry_equiv_pos_site_id
_symmetry_equiv_pos_as_xyz
1 x,y,z
2 1/2+x,1/2+y,1/2+z
3 -y,x,z
4 x,-y,1/2-z
5 1/2-y,1/2+x,1/2+z
6 1/2+x,1/2-y,-z
7 -x,-y,z
8 y,x,1/2-z
9 1/2-x,1/2-y,1/2+z
10 1/2+y,1/2+x,-z
11 y,-x,z
12 -x,y,1/2-z
13 1/2+y,1/2-x,1/2+z
14 1/2-x,1/2+y,-z
15 -y,-x,1/2-z
16 1/2-y,1/2-x,-z
17 -x,-y,-z
18 -1/2-x,-1/2-y,-1/2-z
19 y,-x,-z
20 -x,y,-1/2+z
21 -1/2+y,-1/2-x,-1/2-z
22 -1/2-x,-1/2+y,z
23 x,y,-z
24 -y,-x,-1/2+z
25 -1/2+x,-1/2+y,-1/2-z
26 -1/2-y,-1/2-x,z
27 -y,x,-z
28 x,-y,-1/2+z
29 -1/2-y,-1/2+x,-1/2-z
30 -1/2+x,-1/2-y,z
31 y,x,-1/2+z
32 -1/2+y,-1/2+x,z
_cell_length_a 11.8869(5)
_cell_length_b 11.8869(5)
_cell_length_c 13.0432(7)
_cell_angle_alpha 90
_cell_angle_beta 90
_cell_angle_gamma 90
_cell_formula_units_Z 2
loop_
_atom_type_symbol
_atom_type_radius_bond
C 0.68
H 0.23
Cu 1.52
F 0.64
N 0.68
Si 1.20
loop_
_atom_site_label
_atom_site_type_symbol
_atom_site_fract_x
_atom_site_fract_y
_atom_site_fract_z
Cu1 Cu 0.29368(5) 0.20632 0.00000
N1 N 0.4164(3) 0.08360 0.00000
N2 N 0.2611(3) 0.23890 0.1435(3)
C1 C 0.1876(4) 0.1766(4) 0.1977(3)
C2 C 0.3914(5) -0.0272(5) 0.00000
H1 H 0.13600 0.11900 0.16100
H2 H 0.31300 -0.04300 0.00000
Si1 Si 0.00000 0.00000 0.00000
F1 F 0.13911(21) 0.0289(3) 0.00000
F2 F 0.00000 0.00000 0.12860(24)
N2O N 0.2611(3) 0.23890 -0.1435(3)
C2O C 0.5272(5) 0.1086(5) 0.00000
C1Y C 0.3234(4) 0.3124(4) 0.1977(3)
C1G C 0.1766(4) 0.1876(4) 0.3023(3)
C2I C 0.4728(5) -0.1086(5) 0.00000
C1V C 0.1876(4) 0.1766(4) -0.1977(3)
C1O C 0.3234(4) 0.3124(4) -0.1977(3)
C2F C 0.6086(5) 0.0272(5) 0.00000
H2O H 0.54300 0.18700 0.00000
C1Q C 0.3124(4) 0.3234(4) 0.3023(3)
H1Y H 0.38100 0.36400 0.16100
N2G N 0.2389(3) 0.26110 0.3565(3)
H1G H 0.11900 0.13600 0.33900
N1F N 0.5836(3) -0.08360 0.00000
H2I H 0.45700 -0.18700 0.00000
C1DA C 0.1766(4) 0.1876(4) -0.3023(3)
H1V H 0.13600 0.11900 -0.16100
C1H C 0.3124(4) 0.3234(4) -0.3023(3)
H1O H 0.38100 0.36400 -0.16100
H2F H 0.68700 0.04300 0.00000
H1Q H 0.36400 0.38100 0.33900
Cu1G Cu 0.20632(5) 0.29368 0.50000
Cu1F Cu 0.70632(5) -0.20632 0.00000
N2H N 0.2389(3) 0.26110 -0.3565(3)
H1DA H 0.11900 0.13600 -0.33900
H1H H 0.36400 0.38100 -0.33900
N1G N 0.0836(3) 0.41640 0.50000
N2H* N 0.2389(3) 0.26110 0.6435(3)
N2I N 0.7389(3) -0.23890 -0.1435(3)
N2F N 0.7389(3) -0.23890 0.1435(3)
Cu1G* Cu 0.20632(5) 0.29368 -0.50000
C2H C 0.1086(5) 0.5272(5) 0.50000
C2G C -0.0272(5) 0.3914(5) 0.50000
C1P C 0.8124(4) -0.1766(4) -0.1977(3)
C1I C 0.6766(4) -0.3124(4) -0.1977(3)
C1F C 0.8124(4) -0.1766(4) 0.1977(3)
C1EA C 0.6766(4) -0.3124(4) 0.1977(3)
C2N C 0.0272(5) 0.6086(5) 0.50000
H2H H 0.18700 0.54300 0.50000
C2A C -0.1086(5) 0.4728(5) 0.50000
H2G H -0.04300 0.31300 0.50000
C1W C 0.8234(4) -0.1876(4) -0.3023(3)
H1P H 0.86400 -0.11900 -0.16100
C1A C 0.6876(4) -0.3234(4) -0.3023(3)
H1I H 0.61900 -0.36400 -0.16100
C1N C 0.8234(4) -0.1876(4) 0.3023(3)
H1F H 0.86400 -0.11900 0.16100
C1X C 0.6876(4) -0.3234(4) 0.3023(3)
H1EA H 0.61900 -0.36400 0.16100
N1A N -0.0836(3) 0.58360 0.50000
H2N H 0.04300 0.68700 0.50000
H2A H -0.18700 0.45700 0.50000
N2A N 0.7611(3) -0.26110 -0.3565(3)
H1W H 0.88100 -0.13600 -0.33900
H1A H 0.63600 -0.38100 -0.33900
N2N N 0.7611(3) -0.26110 0.3565(3)
H1N H 0.88100 -0.13600 0.33900
H1X H 0.63600 -0.38100 0.33900
Cu1A Cu -0.20632(5) 0.70632 0.50000
Cu1A* Cu 0.79368(5) -0.29368 -0.50000
Cu1A** Cu 0.79368(5) -0.29368 0.50000
N2A* N -0.2389(3) 0.73890 0.6435(3)
N2N* N -0.2389(3) 0.73890 0.3565(3)
F1F F -0.13911(21) -0.0289(3) 0.00000
F1B F -0.02890(21) 0.13911(30) 0.00000
F1J F 0.02890(21) -0.13911(30) 0.00000
F2P F 0.00000 0.00000 -0.12860(24)
#END
