
#######################################################################
#
#                 Cambridge Crystallographic Data Centre
#                                CCDC
#
#######################################################################
#
# If this CIF has been generated from an entry in the Cambridge
# Structural Database, then it will include bibliographic, chemical,
# crystal, experimental, refinement or atomic coordinate data resulting
# from the CCDC's data processing and validation procedures.
#
#######################################################################

data_CSD_CIF_LEUCIN03
_audit_creation_date 2007-07-26
_audit_creation_method CSD-ConQuest-V1
_database_code_CSD LEUCIN03
_database_code_depnum_ccdc_archive 'CCDC 646718'
_chemical_formula_sum 'C6 H13 N1 O2'
_chemical_formula_moiety
;
C6 H13 N1 O2
;
_journal_coeditor_code "IUCr BG2041"
_journal_coden_Cambridge 1370
_journal_volume 63
_journal_year 2007
_journal_page_first o2762
_journal_name_full 'Acta Crystallogr.,Sect.E:Struct.Rep.Online '
loop_
_publ_author_name
"M.Yamashita"
"S.Inomata"
"K.Ishikawa"
"T.Kashiwagi"
"H.Matsuo"
"S.Sawamura"
"M.Kato"
_chemical_name_systematic
;
L-\a-leucine
;
_chemical_name_common
;
Teaching Subset: Essential Nutrients
;
_cell_volume    742.535
_exptl_crystal_colour 'colorless'
_exptl_crystal_density_diffrn 1.173
_exptl_special_details
;
C2 high pressure polymorph

;
_exptl_crystal_description 'prism'
_diffrn_ambient_temperature 296
#These two values have been output from a single CSD field.
_refine_ls_R_factor_gt 0.0331
_refine_ls_wR_factor_gt 0.0331
loop_
_citation_database_id_CSD
_citation_special_details
ZZZRKY "is a stereoisomer of this entry"
DLLEUC "is a racemate of this entry"
_symmetry_cell_setting monoclinic
_symmetry_space_group_name_H-M 'C 2'
_symmetry_Int_Tables_number 5
loop_
_symmetry_equiv_pos_site_id
_symmetry_equiv_pos_as_xyz
1 x,y,z
2 -x,y,-z
3 1/2+x,1/2+y,z
4 1/2-x,1/2+y,-z
_cell_length_a 8.807(3)
_cell_length_b 5.975(1)
_cell_length_c 14.193(3)
_cell_angle_alpha 90
_cell_angle_beta 96.17(2)
_cell_angle_gamma 90
_cell_formula_units_Z 4
loop_
_atom_type_symbol
_atom_type_radius_bond
C 0.68
H 0.23
N 0.68
O 0.68
loop_
_atom_site_label
_atom_site_type_symbol
_atom_site_fract_x
_atom_site_fract_y
_atom_site_fract_z
O1 O 0.4071(1) 0.592(2) 0.60053(9)
O2 O 0.5502(2) 0.900(2) 0.6072(1)
N1 N 0.7934(2) 0.640(2) 0.5727(1)
C1 C 0.6790(2) 0.559(2) 0.6351(1)
C2 C 0.5317(2) 0.693(2) 0.6121(1)
C3 C 0.7453(2) 0.591(2) 0.7382(1)
C4 C 0.6481(3) 0.493(2) 0.8107(2)
C5 C 0.6636(4) 0.239(2) 0.8159(2)
C6 C 0.6968(6) 0.595(2) 0.9079(2)
H1 H 0.65940 0.40260 0.62330
H2 H 0.75580 0.74550 0.74990
H3 H 0.84300 0.52060 0.74660
H4 H 0.54410 0.52680 0.79250
H5 H 0.76690 0.19870 0.83560
H6 H 0.63410 0.17470 0.75510
H7 H 0.59980 0.17980 0.86000
H8 H 0.80050 0.56070 0.92650
H9 H 0.63530 0.53180 0.95310
H10 H 0.68180 0.75070 0.90490
H11 H 0.88540 0.55610 0.58550
H12 H 0.75420 0.61950 0.50830
H13 H 0.81330 0.79300 0.58490
#END
