####################################################################### 
# 
# This file contains crystal structure data downloaded from the 
# Cambridge Structural Database (CSD) hosted by the Cambridge 
# Crystallographic Data Centre (CCDC).
# 
# Full information about CCDC data access policies and citation 
# guidelines are available at http://www.ccdc.cam.ac.uk/access/V1 
# 
# Audit and citation data items may have been added by the CCDC. 
# Please retain this information to preserve the provenance of 
# this file and to allow appropriate attribution of the data. 
# 
#######################################################################

data_shelxl
_audit_block_doi                 10.5517/ccz70nv
_database_code_depnum_ccdc_archive 'CCDC 900477'
loop_
_citation_id
_citation_doi
_citation_year
1 10.1039/c2ra22550f 2013
_audit_update_record             
;
2012-09-07 deposited with the CCDC.	2024-07-11 downloaded from the CCDC.
;
#TrackingRef 'revised CIF20121130.cif'


_audit_creation_method           SHELXL-97
_chemical_name_systematic        
;
?
;
_chemical_name_common            ?
_chemical_melting_point          ?
_chemical_formula_moiety         ?
_chemical_formula_sum            'C77 H93 Cd2 N7 Ni2 O19'
_chemical_formula_weight         1762.81

loop_
_atom_type_symbol
_atom_type_description
_atom_type_scat_dispersion_real
_atom_type_scat_dispersion_imag
_atom_type_scat_source
C C 0.0033 0.0016 'International Tables Vol C Tables 4.2.6.8 and 6.1.1.4'
H H 0.0000 0.0000 'International Tables Vol C Tables 4.2.6.8 and 6.1.1.4'
Cd Cd -0.8075 1.2024 'International Tables Vol C Tables 4.2.6.8 and 6.1.1.4'
N N 0.0061 0.0033 'International Tables Vol C Tables 4.2.6.8 and 6.1.1.4'
Ni Ni 0.3393 1.1124 'International Tables Vol C Tables 4.2.6.8 and 6.1.1.4'
O O 0.0106 0.0060 'International Tables Vol C Tables 4.2.6.8 and 6.1.1.4'

_symmetry_cell_setting           Triclinic
_symmetry_space_group_name_H-M   P-1

loop_
_symmetry_equiv_pos_as_xyz
'x, y, z'
'-x, -y, -z'

_cell_length_a                   16.348(3)
_cell_length_b                   16.635(3)
_cell_length_c                   20.293(4)
_cell_angle_alpha                89.29(3)
_cell_angle_beta                 87.12(3)
_cell_angle_gamma                68.48(3)
_cell_volume                     5127.4(17)
_cell_formula_units_Z            2
_cell_measurement_temperature    293(2)
_cell_measurement_reflns_used    ?
_cell_measurement_theta_min      ?
_cell_measurement_theta_max      ?

_exptl_crystal_description       block
_exptl_crystal_colour            brown
_exptl_crystal_size_max          0.20
_exptl_crystal_size_mid          0.20
_exptl_crystal_size_min          0.20
_exptl_crystal_density_meas      ?
_exptl_crystal_density_diffrn    1.142
_exptl_crystal_density_method    'not measured'
_exptl_crystal_F_000             1816
_exptl_absorpt_coefficient_mu    0.816
_exptl_absorpt_correction_type   multi-scan
_exptl_absorpt_correction_T_min  0.8538
_exptl_absorpt_correction_T_max  0.8538
_exptl_absorpt_process_details   ?

_exptl_special_details           
;
?
;

_diffrn_ambient_temperature      293(2)
_diffrn_radiation_wavelength     0.71073
_diffrn_radiation_type           MoK\a
_diffrn_radiation_source         'fine-focus sealed tube'
_diffrn_radiation_monochromator  graphite
_diffrn_measurement_device_type  ?
_diffrn_measurement_method       ?
_diffrn_detector_area_resol_mean ?
_diffrn_standards_number         ?
_diffrn_standards_interval_count ?
_diffrn_standards_interval_time  ?
_diffrn_standards_decay_%        ?
_diffrn_reflns_number            38898
_diffrn_reflns_av_R_equivalents  0.0534
_diffrn_reflns_av_sigmaI/netI    0.0831
_diffrn_reflns_limit_h_min       -18
_diffrn_reflns_limit_h_max       19
_diffrn_reflns_limit_k_min       -19
_diffrn_reflns_limit_k_max       19
_diffrn_reflns_limit_l_min       -24
_diffrn_reflns_limit_l_max       24
_diffrn_reflns_theta_min         3.02
_diffrn_reflns_theta_max         25.00
_reflns_number_total             17511
_reflns_number_gt                7378
_reflns_threshold_expression     >2sigma(I)

_computing_data_collection       ?
_computing_cell_refinement       ?
_computing_data_reduction        ?
_computing_structure_solution    'SHELXS-97 (Sheldrick, 1990)'
_computing_structure_refinement  'SHELXL-97 (Sheldrick, 1997)'
_computing_molecular_graphics    ?
_computing_publication_material  ?

_refine_special_details          
;
Refinement of F^2^ against ALL reflections. The weighted R-factor wR and
goodness of fit S are based on F^2^, conventional R-factors R are based
on F, with F set to zero for negative F^2^. The threshold expression of
F^2^ > 2sigma(F^2^) is used only for calculating R-factors(gt) etc. and is
not relevant to the choice of reflections for refinement. R-factors based
on F^2^ are statistically about twice as large as those based on F, and R-
factors based on ALL data will be even larger.
Because some of the benzene ring C-C bond distances and
some of atoms Uiso have anomalous values,
appropriate restraints as following were employed.
SIMU 0.01 C49 C48 C50 C51 C52 C53
FLAT C48 C49 C50 C51 C52 C53
DFIX 1.38 0.01 C53 C48
DFIX 1.38 0.01 C52 C53
DFIX 1.38 0.01 C51 C52
DFIX 1.38 0.01 C50 C51
DFIX 1.38 0.01 C49 C50
DFIX 1.38 0.01 C48 C49
SIMU 0.01 O9 O10
SIMU 0.01 C9 C8 C10 C11 C12 C13
FLAT C8 C9 C10 C11 C12 C13
DFIX 1.38 0.01 C13 C8
DFIX 1.38 0.01 C12 C13
DFIX 1.38 0.01 C11 C12
DFIX 1.38 0.01 C10 C11
DFIX 1.38 0.01 C9 C10
DFIX 1.38 0.01 C8 C9
;
_refine_ls_structure_factor_coef Fsqd
_refine_ls_matrix_type           full
_refine_ls_weighting_scheme      calc
_refine_ls_weighting_details     
'calc w=1/[\s^2^(Fo^2^)+(0.1408P)^2^+0.0000P] where P=(Fo^2^+2Fc^2^)/3'
_atom_sites_solution_primary     direct
_atom_sites_solution_secondary   difmap
_atom_sites_solution_hydrogens   geom
_refine_ls_hydrogen_treatment    constr
_refine_ls_extinction_method     SHELXL
_refine_ls_extinction_coef       0.0029(5)
_refine_ls_extinction_expression Fc^*^=kFc[1+0.001xFc^2^\l^3^/sin(2\q)]^-1/4^
_refine_ls_number_reflns         17511
_refine_ls_number_parameters     830
_refine_ls_number_restraints     115
_refine_ls_R_factor_all          0.1333
_refine_ls_R_factor_gt           0.0810
_refine_ls_wR_factor_ref         0.2650
_refine_ls_wR_factor_gt          0.2369
_refine_ls_goodness_of_fit_ref   0.947
_refine_ls_restrained_S_all      0.975
_refine_ls_shift/su_max          0.002
_refine_ls_shift/su_mean         0.000

loop_
_atom_site_label
_atom_site_type_symbol
_atom_site_fract_x
_atom_site_fract_y
_atom_site_fract_z
_atom_site_U_iso_or_equiv
_atom_site_adp_type
_atom_site_occupancy
_atom_site_symmetry_multiplicity
_atom_site_calc_flag
_atom_site_refinement_flags
_atom_site_disorder_assembly
_atom_site_disorder_group
Cd1 Cd 0.56863(8) 0.92611(6) 0.06188(4) 0.1961(6) Uani 1 1 d . . .
Cd2 Cd 1.40574(7) 0.44905(6) 1.00272(3) 0.1692(4) Uani 1 1 d D . .
Ni1 Ni 1.06601(5) 0.60940(5) 0.48394(4) 0.0791(3) Uani 1 1 d . . .
Ni2 Ni 0.60357(5) 0.57109(6) -0.46062(4) 0.0892(3) Uani 1 1 d . . .
O1 O 1.0799(3) 0.6655(3) 0.5584(2) 0.0884(12) Uani 1 1 d . . .
O1W O 0.6868(15) 0.9647(12) 0.0145(6) 0.431(12) Uani 1 1 d . . .
O2 O 0.9924(3) 0.7161(3) 0.4570(2) 0.0914(12) Uani 1 1 d . . .
O2W O 0.4583(9) 0.8841(9) 0.0978(5) 0.300(6) Uani 1 1 d . . .
O3 O 0.6669(5) 0.8331(4) 0.1304(3) 0.162(3) Uani 1 1 d . . .
O3W O 1.2918(8) 0.4046(13) 1.0445(6) 0.411(11) Uani 1 1 d . . .
O4 O 0.5969(6) 0.9653(5) 0.1667(3) 0.185(3) Uani 1 1 d . . .
O5 O 1.3407(5) 0.4485(6) 0.9013(4) 0.163(3) Uani 1 1 d . . .
O6 O 1.3176(6) 0.5667(6) 0.9441(4) 0.203(4) Uani 1 1 d . . .
O7 O 0.5643(3) 0.6784(3) -0.4222(2) 0.0994(13) Uani 1 1 d . . .
O8 O 0.5735(3) 0.6297(3) -0.5386(2) 0.1024(14) Uani 1 1 d . . .
O9 O 0.6006(6) 0.8082(5) -0.0252(3) 0.188(3) Uani 1 1 d . . .
O10 O 0.5258(7) 0.9399(7) -0.0442(4) 0.225(4) Uani 1 1 d U . .
O11 O 0.4566(7) 0.5389(7) -0.9421(5) 0.234(5) Uani 1 1 d . . .
O12 O 0.4458(8) 0.4408(7) -0.8868(3) 0.220(5) Uani 1 1 d . . .
N1 N 1.1395(3) 0.5018(3) 0.5102(3) 0.0877(14) Uani 1 1 d . . .
N2 N 1.0514(3) 0.5519(3) 0.4111(3) 0.0834(14) Uani 1 1 d . . .
N3 N 0.6480(4) 0.5134(4) -0.3831(3) 0.1055(17) Uani 1 1 d . . .
N4 N 0.6357(3) 0.4621(3) -0.4975(3) 0.0936(15) Uani 1 1 d . . .
C1 C 1.1231(4) 0.6329(4) 0.6116(3) 0.0808(16) Uani 1 1 d . . .
C2 C 1.1697(4) 0.5444(4) 0.6162(3) 0.0847(17) Uani 1 1 d . . .
C3 C 1.2144(4) 0.5118(5) 0.6753(4) 0.100(2) Uani 1 1 d . . .
H3A H 1.2453 0.4527 0.6790 0.120 Uiso 1 1 calc R . .
C4 C 1.2129(5) 0.5661(6) 0.7276(4) 0.104(2) Uani 1 1 d . . .
C5 C 1.1680(5) 0.6530(6) 0.7178(4) 0.111(2) Uani 1 1 d . . .
H5A H 1.1671 0.6899 0.7521 0.133 Uiso 1 1 calc R . .
C6 C 1.1251(4) 0.6904(4) 0.6637(3) 0.0942(19) Uani 1 1 d . . .
C7 C 1.1760(4) 0.4834(4) 0.5656(4) 0.0934(19) Uani 1 1 d . . .
H7A H 1.2092 0.4256 0.5736 0.112 Uiso 1 1 calc R . .
C8 C 1.1571(6) 0.4321(5) 0.4615(4) 0.145(3) Uani 1 1 d DU . .
C9 C 1.2125(5) 0.3442(4) 0.4696(4) 0.124(2) Uani 1 1 d DU . .
H9A H 1.2450 0.3252 0.5069 0.148 Uiso 1 1 calc R . .
C10 C 1.2152(7) 0.2876(5) 0.4174(4) 0.165(3) Uani 1 1 d DU . .
H10A H 1.2514 0.2297 0.4201 0.198 Uiso 1 1 calc R . .
C11 C 1.1653(7) 0.3159(5) 0.3621(5) 0.167(3) Uani 1 1 d DU . .
H11A H 1.1697 0.2760 0.3291 0.200 Uiso 1 1 calc R . .
C12 C 1.1077(5) 0.4034(4) 0.3539(4) 0.121(2) Uani 1 1 d DU . .
H12A H 1.0751 0.4227 0.3167 0.146 Uiso 1 1 calc R . .
C13 C 1.1048(6) 0.4598(5) 0.4093(4) 0.137(3) Uani 1 1 d DU . .
C14 C 0.9405(4) 0.6754(4) 0.3614(3) 0.0855(17) Uani 1 1 d . . .
C15 C 0.8848(5) 0.6949(5) 0.3081(4) 0.106(2) Uani 1 1 d . . .
H15A H 0.8854 0.6515 0.2794 0.127 Uiso 1 1 calc R . .
C16 C 0.8292(5) 0.7793(5) 0.2990(3) 0.100(2) Uani 1 1 d . . .
C17 C 0.8305(5) 0.8433(5) 0.3437(3) 0.103(2) Uani 1 1 d . . .
H17A H 0.7919 0.9000 0.3388 0.123 Uiso 1 1 calc R . .
C18 C 0.8876(4) 0.8237(4) 0.3942(4) 0.0924(19) Uani 1 1 d . . .
C19 C 0.9408(4) 0.7378(4) 0.4058(3) 0.0877(18) Uani 1 1 d . . .
C20 C 0.8850(6) 0.8986(4) 0.4411(4) 0.115(3) Uani 1 1 d . . .
C21 C 0.8529(8) 0.8854(6) 0.5105(5) 0.177(5) Uani 1 1 d . . .
H21A H 0.7943 0.8852 0.5095 0.266 Uiso 1 1 calc R . .
H21B H 0.8527 0.9315 0.5386 0.266 Uiso 1 1 calc R . .
H21C H 0.8914 0.8312 0.5272 0.266 Uiso 1 1 calc R . .
C22 C 0.8231(6) 0.9855(5) 0.4162(5) 0.156(4) Uani 1 1 d . . .
H22A H 0.7636 0.9876 0.4200 0.234 Uiso 1 1 calc R . .
H22B H 0.8387 0.9924 0.3708 0.234 Uiso 1 1 calc R . .
H22C H 0.8281 1.0313 0.4421 0.234 Uiso 1 1 calc R . .
C23 C 0.9811(6) 0.9013(5) 0.4355(5) 0.152(4) Uani 1 1 d . . .
H23A H 0.9834 0.9467 0.4632 0.227 Uiso 1 1 calc R . .
H23B H 0.9953 0.9120 0.3905 0.227 Uiso 1 1 calc R . .
H23C H 1.0229 0.8470 0.4493 0.227 Uiso 1 1 calc R . .
C24 C 0.7701(6) 0.8015(5) 0.2426(4) 0.115(2) Uani 1 1 d . . .
H24A H 0.7781 0.7573 0.2124 0.138 Uiso 1 1 calc R . .
C25 C 0.7101(6) 0.8736(6) 0.2311(4) 0.125(3) Uani 1 1 d . . .
H25A H 0.7002 0.9180 0.2615 0.150 Uiso 1 1 calc R . .
C26 C 0.6537(7) 0.8931(7) 0.1722(4) 0.127(3) Uani 1 1 d . . .
C27 C 1.0799(6) 0.7872(5) 0.6598(4) 0.125(3) Uani 1 1 d . . .
C28 C 0.9749(6) 0.8085(6) 0.6613(5) 0.156(4) Uani 1 1 d . . .
H28A H 0.9570 0.7872 0.7015 0.234 Uiso 1 1 calc R . .
H28B H 0.9612 0.7811 0.6242 0.234 Uiso 1 1 calc R . .
H28C H 0.9441 0.8699 0.6589 0.234 Uiso 1 1 calc R . .
C29 C 1.0910(8) 0.8363(6) 0.7199(5) 0.180(5) Uani 1 1 d . . .
H29A H 1.1519 0.8284 0.7226 0.270 Uiso 1 1 calc R . .
H29B H 1.0714 0.8146 0.7592 0.270 Uiso 1 1 calc R . .
H29C H 1.0566 0.8967 0.7156 0.270 Uiso 1 1 calc R . .
C30 C 1.1081(7) 0.8215(5) 0.5964(4) 0.137(3) Uani 1 1 d . . .
H30A H 1.1703 0.8092 0.5956 0.206 Uiso 1 1 calc R . .
H30B H 1.0771 0.8829 0.5942 0.206 Uiso 1 1 calc R . .
H30C H 1.0946 0.7942 0.5592 0.206 Uiso 1 1 calc R . .
C31 C 1.2563(5) 0.5277(6) 0.7891(4) 0.115(2) Uani 1 1 d . . .
H31A H 1.2832 0.4678 0.7901 0.138 Uiso 1 1 calc R . .
C32 C 1.2603(6) 0.5692(7) 0.8407(4) 0.143(3) Uani 1 1 d . . .
H32A H 1.2322 0.6290 0.8410 0.171 Uiso 1 1 calc R . .
C33 C 1.3067(8) 0.5278(9) 0.8994(6) 0.149(4) Uani 1 1 d . . .
C34 C 0.5593(9) 0.8654(9) -0.0643(5) 0.175(5) Uani 1 1 d . . .
C35 C 0.5475(7) 0.8453(8) -0.1308(5) 0.160(4) Uani 1 1 d . . .
H35A H 0.5141 0.8911 -0.1566 0.192 Uiso 1 1 calc R . .
C36 C 0.5790(7) 0.7690(7) -0.1588(5) 0.146(3) Uani 1 1 d . . .
H36A H 0.6076 0.7231 -0.1314 0.175 Uiso 1 1 calc R . .
C37 C 0.5750(6) 0.7462(7) -0.2288(4) 0.129(3) Uani 1 1 d . . .
C38 C 0.6111(5) 0.6606(6) -0.2487(4) 0.113(2) Uani 1 1 d . . .
H38A H 0.6389 0.6186 -0.2181 0.136 Uiso 1 1 calc R . .
C39 C 0.6068(5) 0.6358(6) -0.3130(4) 0.103(2) Uani 1 1 d . . .
C40 C 0.6450(5) 0.5461(6) -0.3264(4) 0.108(2) Uani 1 1 d . . .
H40A H 0.6692 0.5091 -0.2918 0.130 Uiso 1 1 calc R . .
C41 C 0.5665(4) 0.6976(5) -0.3601(4) 0.100(2) Uani 1 1 d . . .
C42 C 0.5269(5) 0.7896(5) -0.3410(4) 0.109(2) Uani 1 1 d . . .
C43 C 0.5331(5) 0.8082(6) -0.2752(4) 0.115(2) Uani 1 1 d . . .
H43A H 0.5077 0.8655 -0.2613 0.138 Uiso 1 1 calc R . .
C44 C 0.4780(6) 0.8591(5) -0.3893(4) 0.115(3) Uani 1 1 d . . .
C45 C 0.4358(7) 0.9495(6) -0.3576(5) 0.159(4) Uani 1 1 d . . .
H45A H 0.4808 0.9663 -0.3404 0.238 Uiso 1 1 calc R . .
H45B H 0.3948 0.9483 -0.3224 0.238 Uiso 1 1 calc R . .
H45C H 0.4054 0.9904 -0.3903 0.238 Uiso 1 1 calc R . .
C46 C 0.4016(6) 0.8382(6) -0.4178(5) 0.148(3) Uani 1 1 d . . .
H46A H 0.4247 0.7824 -0.4388 0.222 Uiso 1 1 calc R . .
H46B H 0.3727 0.8812 -0.4496 0.222 Uiso 1 1 calc R . .
H46C H 0.3600 0.8380 -0.3827 0.222 Uiso 1 1 calc R . .
C47 C 0.5417(6) 0.8659(5) -0.4462(4) 0.134(3) Uani 1 1 d . . .
H47A H 0.5887 0.8791 -0.4284 0.201 Uiso 1 1 calc R . .
H47B H 0.5103 0.9109 -0.4757 0.201 Uiso 1 1 calc R . .
H47C H 0.5657 0.8120 -0.4697 0.201 Uiso 1 1 calc R . .
C48 C 0.6884(7) 0.4175(6) -0.3928(4) 0.158(3) Uani 1 1 d DU . .
C49 C 0.7323(6) 0.3621(5) -0.3421(4) 0.138(3) Uani 1 1 d DU . .
H49A H 0.7381 0.3809 -0.3002 0.166 Uiso 1 1 calc R . .
C50 C 0.7666(8) 0.2747(6) -0.3626(5) 0.184(3) Uani 1 1 d DU . .
H50A H 0.7964 0.2345 -0.3314 0.221 Uiso 1 1 calc R . .
C51 C 0.7607(7) 0.2425(6) -0.4238(5) 0.155(3) Uani 1 1 d DU . .
H51A H 0.7849 0.1837 -0.4335 0.186 Uiso 1 1 calc R . .
C52 C 0.7162(6) 0.3036(5) -0.4701(4) 0.138(3) Uani 1 1 d DU . .
H52A H 0.7099 0.2851 -0.5120 0.165 Uiso 1 1 calc R . .
C53 C 0.6810(7) 0.3912(5) -0.4551(4) 0.144(3) Uani 1 1 d DU . .
C54 C 0.6126(4) 0.4485(5) -0.5562(4) 0.098(2) Uani 1 1 d . . .
H54A H 0.6201 0.3917 -0.5660 0.118 Uiso 1 1 calc R . .
C55 C 0.5777(4) 0.5097(5) -0.6060(4) 0.0920(19) Uani 1 1 d . . .
C56 C 0.5650(4) 0.5971(5) -0.5965(4) 0.0930(19) Uani 1 1 d . . .
C57 C 0.5416(5) 0.6552(5) -0.6516(4) 0.107(2) Uani 1 1 d . . .
C58 C 0.5245(5) 0.6215(6) -0.7083(4) 0.118(2) Uani 1 1 d . . .
H58A H 0.5084 0.6583 -0.7442 0.142 Uiso 1 1 calc R . .
C59 C 0.5292(5) 0.5358(6) -0.7170(4) 0.105(2) Uani 1 1 d . . .
C60 C 0.5390(5) 0.7477(5) -0.6480(4) 0.106(2) Uani 1 1 d . . .
C61 C 0.4654(6) 0.8010(5) -0.5974(5) 0.140(3) Uani 1 1 d . . .
H61A H 0.4095 0.8022 -0.6109 0.210 Uiso 1 1 calc R . .
H61B H 0.4644 0.8590 -0.5952 0.210 Uiso 1 1 calc R . .
H61C H 0.4766 0.7749 -0.5547 0.210 Uiso 1 1 calc R . .
C62 C 0.6283(5) 0.7464(5) -0.6264(4) 0.116(2) Uani 1 1 d . . .
H62A H 0.6738 0.7143 -0.6581 0.175 Uiso 1 1 calc R . .
H62B H 0.6400 0.7195 -0.5840 0.175 Uiso 1 1 calc R . .
H62C H 0.6267 0.8046 -0.6237 0.175 Uiso 1 1 calc R . .
C63 C 0.5239(7) 0.7932(6) -0.7151(4) 0.151(3) Uani 1 1 d . . .
H63A H 0.5694 0.7607 -0.7466 0.227 Uiso 1 1 calc R . .
H63B H 0.5250 0.8502 -0.7106 0.227 Uiso 1 1 calc R . .
H63C H 0.4677 0.7973 -0.7300 0.227 Uiso 1 1 calc R . .
C64 C 0.5032(6) 0.5053(6) -0.7750(4) 0.122(3) Uani 1 1 d . . .
H64A H 0.5026 0.4496 -0.7724 0.146 Uiso 1 1 calc R . .
C65 C 0.4820(7) 0.5415(8) -0.8267(5) 0.161(4) Uani 1 1 d . . .
H65A H 0.4783 0.5986 -0.8283 0.193 Uiso 1 1 calc R . .
C66 C 0.4605(8) 0.5069(9) -0.8893(6) 0.150(4) Uani 1 1 d . . .
C67 C 0.5581(5) 0.4807(6) -0.6638(4) 0.112(2) Uani 1 1 d . . .
H67A H 0.5640 0.4231 -0.6675 0.134 Uiso 1 1 calc R . .
C68 C 0.9979(5) 0.5850(4) 0.3657(3) 0.0903(18) Uani 1 1 d . . .
H68A H 0.9954 0.5480 0.3325 0.108 Uiso 1 1 calc R . .
O4W O 1.4817(7) 0.3113(5) 0.9893(4) 0.258(5) Uani 1 1 d D . .

loop_
_atom_site_aniso_label
_atom_site_aniso_U_11
_atom_site_aniso_U_22
_atom_site_aniso_U_33
_atom_site_aniso_U_23
_atom_site_aniso_U_13
_atom_site_aniso_U_12
Cd1 0.2872(12) 0.1532(7) 0.1183(6) 0.0059(5) -0.1271(7) -0.0313(8)
Cd2 0.2364(10) 0.1930(9) 0.0956(5) 0.0305(5) -0.0760(5) -0.0917(8)
Ni1 0.0780(5) 0.0667(5) 0.0890(6) 0.0059(4) -0.0240(4) -0.0199(4)
Ni2 0.0854(6) 0.0889(6) 0.0874(6) 0.0034(5) -0.0073(4) -0.0247(5)
O1 0.090(3) 0.072(3) 0.099(3) 0.008(2) -0.034(2) -0.021(2)
O1W 0.77(4) 0.48(2) 0.242(12) 0.189(14) -0.170(17) -0.46(3)
O2 0.103(3) 0.073(3) 0.092(3) 0.009(2) -0.042(2) -0.021(2)
O2W 0.333(14) 0.404(17) 0.204(9) -0.053(10) -0.082(9) -0.171(13)
O3 0.222(7) 0.148(5) 0.103(4) 0.014(4) -0.084(4) -0.045(5)
O3W 0.232(11) 0.70(3) 0.256(12) 0.309(16) -0.075(9) -0.122(15)
O4 0.239(8) 0.137(6) 0.128(5) -0.004(4) -0.108(5) 0.006(6)
O5 0.173(7) 0.188(7) 0.129(5) 0.047(6) -0.062(4) -0.062(6)
O6 0.267(10) 0.221(9) 0.118(5) 0.001(5) -0.076(6) -0.078(7)
O7 0.116(3) 0.085(3) 0.081(3) -0.017(2) -0.014(2) -0.017(3)
O8 0.119(4) 0.092(3) 0.087(3) -0.003(2) -0.019(3) -0.026(3)
O9 0.273(9) 0.173(7) 0.109(5) 0.010(5) -0.081(5) -0.064(6)
O10 0.288(8) 0.211(7) 0.123(5) -0.016(5) -0.106(5) -0.018(6)
O11 0.322(12) 0.278(11) 0.179(8) 0.107(8) -0.148(8) -0.188(10)
O12 0.396(14) 0.245(10) 0.087