####################################################################### 
# 
# This file contains crystal structure data downloaded from the 
# Cambridge Structural Database (CSD) hosted by the Cambridge 
# Crystallographic Data Centre (CCDC).
# 
# Full information about CCDC data access policies and citation 
# guidelines are available at http://www.ccdc.cam.ac.uk/access/V1 
# 
# Audit and citation data items may have been added by the CCDC. 
# Please retain this information to preserve the provenance of 
# this file and to allow appropriate attribution of the data. 
# 
#######################################################################

data_bo1623
_audit_block_doi                 10.5517/ccywzb3
_database_code_depnum_ccdc_archive 'CCDC 890826'
loop_
_citation_id
_citation_doi
_citation_year
1 10.1039/c2cc37140e 2013
_audit_update_record             
;
2012-07-07 deposited with the CCDC.	2024-07-11 downloaded from the CCDC.
;
#TrackingRef 'lgl101.cif'


_audit_creation_method           SHELXL-97
_chemical_name_systematic        
;
?
;
_chemical_name_common            complex1
_chemical_melting_point          ?
_chemical_formula_moiety         ?
_chemical_formula_sum            'C23 H21 N O7.67 Zn'
_chemical_formula_weight         499.78

loop_
_atom_type_symbol
_atom_type_description
_atom_type_scat_dispersion_real
_atom_type_scat_dispersion_imag
_atom_type_scat_source
C C 0.0033 0.0016 'International Tables Vol C Tables 4.2.6.8 and 6.1.1.4'
H H 0.0000 0.0000 'International Tables Vol C Tables 4.2.6.8 and 6.1.1.4'
N N 0.0061 0.0033 'International Tables Vol C Tables 4.2.6.8 and 6.1.1.4'
O O 0.0106 0.0060 'International Tables Vol C Tables 4.2.6.8 and 6.1.1.4'
Zn Zn 0.2839 1.4301 'International Tables Vol C Tables 4.2.6.8 and 6.1.1.4'

_symmetry_cell_setting           Rhombohedral
_symmetry_space_group_name_H-M   R-3

loop_
_symmetry_equiv_pos_as_xyz
'x, y, z'
'-y, x-y, z'
'-x+y, -x, z'
'x+2/3, y+1/3, z+1/3'
'-y+2/3, x-y+1/3, z+1/3'
'-x+y+2/3, -x+1/3, z+1/3'
'x+1/3, y+2/3, z+2/3'
'-y+1/3, x-y+2/3, z+2/3'
'-x+y+1/3, -x+2/3, z+2/3'
'-x, -y, -z'
'y, -x+y, -z'
'x-y, x, -z'
'-x+2/3, -y+1/3, -z+1/3'
'y+2/3, -x+y+1/3, -z+1/3'
'x-y+2/3, x+1/3, -z+1/3'
'-x+1/3, -y+2/3, -z+2/3'
'y+1/3, -x+y+2/3, -z+2/3'
'x-y+1/3, x+2/3, -z+2/3'

_cell_length_a                   31.864(5)
_cell_length_b                   31.864(5)
_cell_length_c                   12.846(3)
_cell_angle_alpha                90.00
_cell_angle_beta                 90.00
_cell_angle_gamma                120.00
_cell_volume                     11295(3)
_cell_formula_units_Z            18
_cell_measurement_temperature    153(2)
_cell_measurement_reflns_used    10855
_cell_measurement_theta_min      3.0984
_cell_measurement_theta_max      27.4989

_exptl_crystal_description       Prism
_exptl_crystal_colour            Colorless
_exptl_crystal_size_max          0.25
_exptl_crystal_size_mid          0.07
_exptl_crystal_size_min          0.07
_exptl_crystal_density_meas      ?
_exptl_crystal_density_diffrn    1.322
_exptl_crystal_density_method    'not measured'
_exptl_crystal_F_000             4632
_exptl_absorpt_coefficient_mu    1.021
_exptl_absorpt_correction_type   none
_exptl_absorpt_correction_T_min  0.7858
_exptl_absorpt_correction_T_max  0.9366
_exptl_absorpt_process_details   ?

_exptl_special_details           
;
?
;

_diffrn_ambient_temperature      153(2)
_diffrn_radiation_wavelength     0.71073
_diffrn_radiation_type           MoK\a
_diffrn_radiation_source         'fine-focus sealed tube'
_diffrn_radiation_monochromator  graphite
_diffrn_measurement_device_type  'Bruker P4'
_diffrn_measurement_method       '\w scans'
_diffrn_detector_area_resol_mean 28.5714
_diffrn_standards_number         ?
_diffrn_standards_interval_count ?
_diffrn_standards_interval_time  ?
_diffrn_standards_decay_%        ?
_diffrn_reflns_number            24909
_diffrn_reflns_av_R_equivalents  0.0489
_diffrn_reflns_av_sigmaI/netI    0.0339
_diffrn_reflns_limit_h_min       -37
_diffrn_reflns_limit_h_max       37
_diffrn_reflns_limit_k_min       -37
_diffrn_reflns_limit_k_max       37
_diffrn_reflns_limit_l_min       -14
_diffrn_reflns_limit_l_max       15
_diffrn_reflns_theta_min         3.10
_diffrn_reflns_theta_max         25.01
_reflns_number_total             4356
_reflns_number_gt                3904
_reflns_threshold_expression     >2sigma(I)

_computing_data_collection       'Bruker XSCANS'
_computing_cell_refinement       'Bruker XSCANS'
_computing_data_reduction        'Bruker SHELXTL'
_computing_structure_solution    'SHELXS-97 (Sheldrick, 1990)'
_computing_structure_refinement  'SHELXL-97 (Sheldrick, 1997)'
_computing_molecular_graphics    'Bruker SHELXTL'
_computing_publication_material  'Bruker SHELXTL'

_refine_special_details          
;
Refinement of F^2^ against ALL reflections. The weighted R-factor wR and
goodness of fit S are based on F^2^, conventional R-factors R are based
on F, with F set to zero for negative F^2^. The threshold expression of
F^2^ > 2sigma(F^2^) is used only for calculating R-factors(gt) etc. and is
not relevant to the choice of reflections for refinement. R-factors based
on F^2^ are statistically about twice as large as those based on F, and R-
factors based on ALL data will be even larger. isor 0.01 o9
;

_refine_ls_structure_factor_coef Fsqd
_refine_ls_matrix_type           full
_refine_ls_weighting_scheme      calc
_refine_ls_weighting_details     
'calc w=1/[\s^2^(Fo^2^)+(0.0814P)^2^+76.9182P] where P=(Fo^2^+2Fc^2^)/3'
_atom_sites_solution_primary     direct
_atom_sites_solution_secondary   difmap
_atom_sites_solution_hydrogens   geom
_refine_ls_hydrogen_treatment    constr
_refine_ls_extinction_method     none
_refine_ls_extinction_coef       ?
_refine_ls_number_reflns         4356
_refine_ls_number_parameters     320
_refine_ls_number_restraints     6
_refine_ls_R_factor_all          0.0708
_refine_ls_R_factor_gt           0.0625
_refine_ls_wR_factor_ref         0.1585
_refine_ls_wR_factor_gt          0.1523
_refine_ls_goodness_of_fit_ref   1.065
_refine_ls_restrained_S_all      1.070
_refine_ls_shift/su_max          0.007
_refine_ls_shift/su_mean         0.000

loop_
_atom_site_label
_atom_site_type_symbol
_atom_site_fract_x
_atom_site_fract_y
_atom_site_fract_z
_atom_site_U_iso_or_equiv
_atom_site_adp_type
_atom_site_occupancy
_atom_site_symmetry_multiplicity
_atom_site_calc_flag
_atom_site_refinement_flags
_atom_site_disorder_assembly
_atom_site_disorder_group
C1 C 0.03921(14) 0.39413(15) 0.7007(3) 0.0242(9) Uani 1 1 d . . .
C2 C 0.05806(15) 0.44685(15) 0.6894(3) 0.0259(9) Uani 1 1 d . . .
H2 H 0.0568 0.4593 0.6248 0.031 Uiso 1 1 calc R . .
C3 C 0.07669(15) 0.47645(15) 0.7700(3) 0.0277(9) Uani 1 1 d . . .
H3 H 0.0784 0.4618 0.8313 0.033 Uiso 1 1 calc R . .
C4 C 0.09490(16) 0.52835(16) 0.7775(4) 0.0312(10) Uani 1 1 d . . .
C5 C 0.09287(16) 0.55731(16) 0.6987(3) 0.0314(10) Uani 1 1 d . . .
C6 C 0.10783(19) 0.60603(18) 0.7163(5) 0.0453(13) Uani 1 1 d . . .
H6 H 0.1060 0.6248 0.6630 0.054 Uiso 1 1 calc R . .
C7 C 0.1254(2) 0.62640(19) 0.8134(5) 0.0530(14) Uani 1 1 d . . .
H7 H 0.1347 0.6587 0.8253 0.064 Uiso 1 1 calc R . .
C8 C 0.1293(2) 0.5994(2) 0.8916(5) 0.0536(15) Uani 1 1 d . . .
H8 H 0.1419 0.6133 0.9560 0.064 Uiso 1 1 calc R . .
C9 C 0.11429(19) 0.55115(18) 0.8740(4) 0.0424(12) Uani 1 1 d . . .
H9 H 0.1171 0.5330 0.9276 0.051 Uiso 1 1 calc R . .
C10 C 0.09638(16) 0.30748(16) 0.7495(3) 0.0294(9) Uani 1 1 d . . .
C11 C 0.12992(16) 0.29221(16) 0.7092(3) 0.0296(9) Uani 1 1 d . . .
H11 H 0.1630 0.3137 0.7156 0.036 Uiso 1 1 calc R . .
C12 C 0.11599(16) 0.24995(17) 0.6644(3) 0.0323(10) Uani 1 1 d . . .
H12 H 0.0829 0.2289 0.6569 0.039 Uiso 1 1 calc R . .
C13 C 0.14874(16) 0.23362(17) 0.6256(4) 0.0320(10) Uani 1 1 d . . .
C14 C 0.13243(18) 0.19606(18) 0.5520(4) 0.0416(12) Uani 1 1 d . . .
C15 C 0.16328(19) 0.18021(19) 0.5158(4) 0.0432(12) Uani 1 1 d . . .
H15 H 0.1522 0.1555 0.4667 0.052 Uiso 1 1 calc R . .
C16 C 0.21009(18) 0.20092(19) 0.5524(4) 0.0401(11) Uani 1 1 d . . .
H16 H 0.2303 0.1896 0.5290 0.048 Uiso 1 1 calc R . .
C17 C 0.22723(17) 0.23855(18) 0.6238(4) 0.0382(11) Uani 1 1 d . . .
H17 H 0.2592 0.2533 0.6465 0.046 Uiso 1 1 calc R . .
C18 C 0.19660(17) 0.25413(17) 0.6611(4) 0.0337(10) Uani 1 1 d . . .
H18 H 0.2080 0.2787 0.7106 0.040 Uiso 1 1 calc R . .
C19 C -0.08902(16) 0.24013(17) 0.8149(3) 0.0319(10) Uani 1 1 d . . .
H19 H -0.0845 0.2508 0.8835 0.038 Uiso 1 1 calc R . .
C20 C -0.13434(15) 0.20358(16) 0.7853(3) 0.0315(10) Uani 1 1 d . . .
H20 H -0.1594 0.1902 0.8338 0.038 Uiso 1 1 calc R . .
C21 C -0.14268(15) 0.18671(15) 0.6836(3) 0.0255(9) Uani 1 1 d . . .
C22 C -0.10323(16) 0.20916(16) 0.6155(3) 0.0303(9) Uani 1 1 d . . .
H22 H -0.1068 0.1997 0.5460 0.036 Uiso 1 1 calc R . .
C23 C -0.05915(16) 0.24519(16) 0.6512(3) 0.0306(10) Uani 1 1 d . . .
H23 H -0.0334 0.2594 0.6046 0.037 Uiso 1 1 calc R . .
N1 N -0.05148(12) 0.26086(12) 0.7501(3) 0.0251(7) Uani 1 1 d . . .
O1 O 0.03298(10) 0.37675(10) 0.7912(2) 0.0264(6) Uani 1 1 d . . .
O2 O 0.02957(10) 0.36744(10) 0.6214(2) 0.0264(6) Uani 1 1 d . . .
O3 O 0.05080(11) 0.27825(11) 0.7432(2) 0.0321(7) Uani 1 1 d . . .
O4 O 0.11311(11) 0.34883(12) 0.7878(3) 0.0377(8) Uani 1 1 d . . .
O5 O 0.07547(13) 0.53737(12) 0.6049(3) 0.0394(8) Uani 1 1 d . . .
H5 H 0.0619 0.5507 0.5779 0.059 Uiso 1 1 calc R . .
O6 O 0.08627(14) 0.17652(17) 0.5182(4) 0.0697(14) Uani 1 1 d . . .
H6A H 0.0798 0.1535 0.4799 0.104 Uiso 1 1 calc R . .
O7 O 0.0000 0.0000 1.0000 0.0364(18) Uani 1 6 d S . .
O8 O 0.0470(3) 0.9438(3) 0.3848(8) 0.076(3) Uani 0.50 1 d P . .
H8A H 0.0439 0.9635 0.4242 0.091 Uiso 0.50 1 d PR . .
H8B H 0.0694 0.9594 0.3406 0.091 Uiso 0.50 1 d PR . .
O9 O 0.0619(4) 0.1327(3) 0.7785(9) 0.068(3) Uani 0.42 1 d PU A 1
H9A H 0.0359 0.1221 0.7438 0.081 Uiso 0.42 1 d PR A 1
H9B H 0.0691 0.1599 0.8050 0.081 Uiso 0.42 1 d PR A 1
O9" O 0.1156(8) 0.1369(10) 0.8196(16) 0.079(7) Uani 0.22 1 d P A 1
H9"A H 0.0969 0.1076 0.8016 0.095 Uiso 0.22 1 d PR A 1
H9"B H 0.1386 0.1493 0.7755 0.095 Uiso 0.22 1 d PR A 1
O9' O 0.0680(5) 0.1106(5) 0.9284(11) 0.076(4) Uani 0.36 1 d P B 1
H9'A H 0.0809 0.0960 0.9582 0.091 Uiso 0.36 1 d PR B 1
H9'B H 0.0412 0.1023 0.9582 0.091 Uiso 0.36 1 d PR B 1
Zn1 Zn 0.016727(16) 0.309263(16) 0.80286(4) 0.02291(18) Uani 1 1 d . . .

loop_
_atom_site_aniso_label
_atom_site_aniso_U_11
_atom_site_aniso_U_22
_atom_site_aniso_U_33
_atom_site_aniso_U_23
_atom_site_aniso_U_13
_atom_site_aniso_U_12
C1 0.0194(19) 0.027(2) 0.030(2) -0.0012(18) 0.0002(16) 0.0140(17)
C2 0.030(2) 0.026(2) 0.023(2) 0.0023(17) 0.0011(17) 0.0155(18)
C3 0.029(2) 0.029(2) 0.028(2) -0.0003(18) 0.0007(17) 0.0160(19)
C4 0.031(2) 0.029(2) 0.035(2) -0.0042(19) 0.0016(19) 0.0158(19)
C5 0.030(2) 0.029(2) 0.038(2) -0.0028(19) 0.0024(19) 0.0169(19)
C6 0.041(3) 0.028(2) 0.067(4) 0.001(2) 0.004(3) 0.017(2)
C7 0.048(3) 0.032(3) 0.080(4) -0.017(3) -0.004(3) 0.020(3)
C8 0.052(3) 0.046(3) 0.060(4) -0.026(3) -0.008(3) 0.022(3)
C9 0.044(3) 0.040(3) 0.040(3) -0.010(2) -0.004(2) 0.019(2)
C10 0.032(2) 0.036(2) 0.024(2) 0.0015(18) -0.0007(18) 0.020(2)
C11 0.025(2) 0.038(2) 0.029(2) 0.0021(19) -0.0003(17) 0.0185(19)
C12 0.028(2) 0.037(3) 0.034(2) 0.002(2) 0.0012(18) 0.018(2)
C13 0.031(2) 0.036(2) 0.035(2) 0.0003(19) -0.0003(19) 0.021(2)
C14 0.035(3) 0.041(3) 0.054(3) -0.011(2) -0.007(2) 0.023(2)
C15 0.048(3) 0.041(3) 0.049(3) -0.015(2) -0.008(2) 0.029(2)
C16 0.036(3) 0.045(3) 0.047(3) -0.004(2) 0.002(2) 0.027(2)
C17 0.030(2) 0.042(3) 0.046(3) -0.004(2) -0.002(2) 0.021(2)
C18 0.037(2) 0.035(2) 0.032(2) -0.0029(19) -0.0002(19) 0.020(2)
C19 0.031(2) 0.036(2) 0.026(2) -0.0077(18) -0.0007(18) 0.014(2)
C20 0.023(2) 0.033(2) 0.030(2) -0.0062(18) 0.0041(17) 0.0074(19)
C21 0.026(2) 0.024(2) 0.028(2) -0.0015(17) -0.0017(17) 0.0128(18)
C22 0.029(2) 0.031(2) 0.022(2) -0.0021(17) 0.0004(17) 0.0090(19)
C23 0.026(2) 0.033(2) 0.027(2) 0.0028(18) 0.0030(17) 0.0095(19)
N1 0.0232(17) 0.0253(18) 0.0272(18) 0.0011(14) 0.0002(14) 0.0124(15)
O1 0.0315(16) 0.0265(15) 0.0214(15) 0.0020(12) 0.0011(12) 0.0149(13)
O2 0.0309(16) 0.0246(15) 0.0251(15) -0.0019(12) -0.0022(12) 0.0149(13)
O3 0.0282(16) 0.0325(16) 0.0384(17) 0.0006(13) 0.0017(13) 0.0174(14)
O4 0.0346(18) 0.044(2) 0.0411(18) -0.0087(15) -0.0030(14) 0.0242(16)
O5 0.050(2) 0.0341(18) 0.0418(19) -0.0005(15) -0.0029(15) 0.0266(16)
O6 0.038(2) 0.073(3) 0.106(4) -0.052(3) -0.027(2) 0.034(2)
O7 0.026(2) 0.026(2) 0.057(5) 0.000 0.000 0.0130(12)
O8 0.074(6) 0.052(5) 0.106(7) 0.014(5) -0.043(5) 0.035(5)
O9 0.060(5) 0.035(4) 0.113(7) 0.010(4) -0.038(5) 0.027(4)
O9" 0.065(13) 0.14(2) 0.067(13) -0.038(13) -0.020(10) 0.076(15)
O9' 0.064(8) 0.059(8) 0.097(10) 0.008(7) 0.003(7) 0.025(6)
Zn1 0.0225(3) 0.0221(3) 0.0245(3) -0.00123(18) -0.00083(18) 0.0114(2)

_geom_special_details            
;
All esds (except the esd in the dihedral angle between two l.s. planes)
are estimated using the full covariance matrix. The cell esds are taken
into account individually in the estimation of esds in distances, angles
and torsion angles; correlations between esds in cell parameters are only
used when they are defined by crystal symmetry. An approximate (isotropic)
treatment of cell esds is used for estimating esds involving l.s. planes.
;

loop_
_geom_bond_atom_site_label_1
_geom_bond_atom_site_label_2
_geom_bond_distance
_geom_bond_site_symmetry_2
_geom_bond_publ_flag
C1 O1 1.260(5) . ?
C1 O2 1.262(5) . ?
C1 C2 1.481(6) . ?
C2 C3 1.324(6) . ?
C2 H2 0.9300 . ?
C3 C4 1.456(6) . ?
C3 H3 0.9300 . ?
C4 C5 1.392(6) . ?
C4 C9 1.414(7) . ?
C5 O5 1.347(5) . ?
C5 C6 1.396(6) . ?
C6 C7 1.388(8) . ?
C6 H6 0.9300 . ?
C7 C8 1.369(9) . ?
C7 H7 0.9300 . ?
C8 C9 1.381(7) . ?
C8 H8 0.9300 . ?
C9 H9 0.9300 . ?
C10 O4 1.249(5) . ?
C10 O3 1.277(5) . ?
C10 C11 1.472(6) . ?
C11 C12 1.320(6) . ?
C11 H11 0.9300 . ?
C12 C13 1.467(6) . ?
C12 H12 0.9300 . ?
C13 C18 1.401(7) . ?
C13 C14 1.405(7) . ?
C14 O6 1.351(6) . ?
C14 C15 1.391(7) . ?
C15 C16 1.377(7) . ?
C15 H15 0.9300 . ?
C16 C17 1.387(7) . ?
C16 H16 0.9300 . ?
C17 C18 1.383(7) . ?
C17 H17 0.9300 . ?
C18 H18 0.9300 . ?
C19 N1 1.330(6) . ?
C19 C20 1.380(6) . ?
C19 H19 0.9300 . ?
C20 C21 1.387(6) . ?
C20 H20 0.9300 . ?
C21 C22 1.399(6) . ?
C21 C21 1.485(8) 13_456 ?
C22 C23 1.374(6) . ?
C22 H22 0.9300 . ?
C23 N1 1.342(5) . ?
C23 H23 0.9300 . ?
N1 Zn1 2.052(3) . ?
O1 Zn1 1.949(3) . ?
O2 Zn1 1.980(3) 8_554 ?
O3 Zn1 1.953(3) . ?
O5 H5 0.8200 . ?
O6 H6A 0.8200 . ?
O8 H8A 0.8501 . ?
O8 H8B 0.8500 . ?
O9 O9" 1.73(2) . ?
O9 H9A 0.8499 . ?
O9 H9B 0.8499 . ?
O9" H9"A 0.8502 . ?
O9" H9"B 0.8499 . ?
O9' H9'A 0.8501 . ?
O9' H9'B 0.8500 . ?
Zn1 O2 1.980(3) 6_455 ?

loop_
_geom_angle_atom_site_label_1
_geom_angle_atom_site_label_2
_geom_angle_atom_site_label_3
_geom_angle
_geom_angle_site_symmetry_1
_geom_angle_site_symmetry_3
_geom_angle_publ_flag
O1 C1 O2 121.1(4) . . ?
O1 C1 C2 118.3(4) . . ?
O2 C1 C2 120.6(4) . . ?
C3 C2 C1 121.0(4) . . ?
C3 C2 H2 119.5 . . ?
C1 C2 H2 119.5 . . ?
C2 C3 C4 130.0(4) . . ?
C2 C3 H3 115.0 . . ?
C4 C3 H3 115.0 . . ?
C5 C4 C9 116.7(4) . . ?
C5 C4 C3 125.5(4) . . ?
C9 C4 C3 117.7(4) . . ?
O5 C5 C6 120.0(4) . . ?
O5 C5 C4 118.8(4) . . ?
C6 C5 C4 121.1(4) . . ?
C7 C6 C5 119.9(5) . . ?
C7 C6 H6 120.0 . . ?
C5 C6 H6 120.0 . . ?
C8 C7 C6 120.5(5) . . ?
C8 C7 H7 119.7 . . ?
C6 C7 H7 119.7 . . ?
C7 C8 C9 119.4(5) . . ?
C7 C8 H8 120.3 . . ?
C9 C8 H8 120.3 . . ?
C8 C9 C4 122.3(5) . . ?
C8 C9 H9 118.8 . . ?
C4 C9 H9 118.8 . . ?
O4 C10 O3 121.6(4) . . ?
O4 C10 C11 119.3(4) . . ?
O3 C10 C11 119.1(4) . . ?
C12 C11 C10 124.1(4) . . ?
C12 C11 H11 117.9 . . ?
C10 C11 H11 117.9 . . ?
C11 C12 C13 125.0(4) . . ?
C11 C12 H12 117.5 . . ?
C13 C12 H12 117.5 . . ?
C18 C13 C14 117.9(4) . . ?
C18 C13 C12 121.7(4) . . ?
C14 C13 C12 120.3(4) . . ?
O6 C14 C15 122.0(4) . . ?
O6 C14 C13 117.6(4) . . ?
C15 C14 C13 120.4(4) . . ?
C16 C15 C14 120.3(5) . . ?
C16 C15 H15 119.8 . . ?
C14 C15 H15 119.8 . . ?
C15 C16 C17 120.2(4) . . ?
C15 C16 H16 119.9 . . ?
C17 C16 H16 119.9 . . ?
C16 C17 C18 119.7(4) . . ?
C16 C17 H17 120.1 . . ?
C18 C17 H17 120.1 . . ?
C17 C18 C13 121.3(4) . . ?
C17 C18 H18 119.4 . . ?
C13 C18 H18 119.4 . . ?
N1 C19 C20 123.3(4) . . ?
N1 C19 H19 118.4 . . ?
C20 C19 H19 118.4 . . ?
C19 C20 C21 120.2(4) . . ?
C19 C20 H20 119.9 . . ?
C21 C20 H20 119.9 . . ?
C20 C21 C22 116.2(4) . . ?
C20 C21 C21 121.6(5) . 13_456 ?
C22 C21 C21 122.1(5) . 13_456 ?
C23 C22 C21 120.0(4) . . ?
C23 C22 H22 120.0 . . ?
C21 C22 H22 120.0 . . ?
N1 C23 C22 123.1(4) . . ?
N1 C23 H23 118.4 . . ?
C22 C23 H23 118.4 . . ?
C19 N1 C23 117.1(4) . . ?
C19 N1 Zn1 121.2(3) . . ?
C23 N1 Zn1 121.3(3) . . ?
C1 O1 Zn1 116.9(3) . . ?
C1 O2 Zn1 136.7(3) . 8_554 ?
C10 O3 Zn1 108.9(3) . . ?
C5 O5 H5 109.5 . . ?
C14 O6 H6A 109.5 . . ?
H8A O8 H8B 110.0 . . ?
O9" O9 H9A 157.5 . . ?
O9" O9 H9B 92.7 . . ?
H9A O9 H9B 108.9 . . ?
O9 O9" H9"A 73.1 . . ?
O9 O9" H9"B 115.0 . . ?
H9"A O9" H9"B 107.2 . . ?
H9'A O9' H9'B 108.2 . . ?
O1 Zn1 O3 128.29(12) . . ?
O1 Zn1 O2 96.05(12) . 6_455 ?
O3 Zn1 O2 118.41(12) . 6_455 ?
O1 Zn1 N1 113.65(13) . . ?
O3 Zn1 N1 97.94(13) . . ?
O2 Zn1 N1 99.88(13) 6_455 . ?

_diffrn_measured_fraction_theta_max 0.983
_diffrn_reflns_theta_full        25.01
_diffrn_measured_fraction_theta_full 0.983
_refine_diff_density_max         1.007
_refine_diff_density_min         -0.490
_refine_diff_density_rms         0.097
