
#######################################################################
#
#                 Cambridge Crystallographic Data Centre
#                                CCDC
#
#######################################################################
#
# If this CIF has been generated from an entry in the Cambridge
# Structural Database, then it will include bibliographic, chemical,
# crystal, experimental, refinement or atomic coordinate data resulting
# from the CCDC's data processing and validation procedures.
#
#######################################################################

data_CSD_CIF_LEZJAB
_audit_creation_date 1995-01-30
_audit_creation_method CSD-ConQuest-V1
_database_code_CSD LEZJAB
_database_code_depnum_ccdc_archive 'CCDC 1206460'
_chemical_formula_sum 'C7 H6 O4'
_chemical_formula_moiety
;
C7 H6 O4
;
_journal_coeditor_code "IUCr KA1067"
_journal_coden_Cambridge 591
_journal_volume 50
_journal_year 1994
_journal_page_first 1622
_journal_name_full 'Acta Crystallogr.,Sect.C:Cryst.Struct.Commun. '
loop_
_publ_author_name
"M.Gdaniec"
"M.Gilski"
"G.S.Denisov"
_chemical_name_systematic
;
2,6-Dihydroxybenzoic acid
;
_chemical_name_common
;
gamma-Resorcylic acid; Teaching Subset: Fundamental Chemistry, Symmetry
;
_cell_volume    658.259
_exptl_crystal_colour 'Colorless'
_exptl_crystal_density_diffrn 1.555
_exptl_special_details
;
orthorhombic polymorph

;
_diffrn_ambient_temperature ?
_diffrn_special_details
;
The study was carried out at room temperature,in the range 283-303K

;
#These two values have been output from a single CSD field.
_refine_ls_R_factor_gt 0.0326
_refine_ls_wR_factor_gt 0.0326
_symmetry_cell_setting orthorhombic
_symmetry_space_group_name_H-M 'P n a 21'
_symmetry_Int_Tables_number 33
loop_
_symmetry_equiv_pos_site_id
_symmetry_equiv_pos_as_xyz
1 x,y,z
2 1/2-x,1/2+y,1/2+z
3 1/2+x,1/2-y,z
4 -x,-y,1/2+z
_cell_length_a 14.174(3)
_cell_length_b 12.132(2)
_cell_length_c 3.828(1)
_cell_angle_alpha 90
_cell_angle_beta 90
_cell_angle_gamma 90
_cell_formula_units_Z 4
loop_
_atom_type_symbol
_atom_type_radius_bond
C 0.68
H 0.23
O 0.68
loop_
_atom_site_label
_atom_site_type_symbol
_atom_site_fract_x
_atom_site_fract_y
_atom_site_fract_z
O1 O 0.32734(11) 0.95654(12) 0.1199(11)
O2 O 0.21241(12) 0.83726(15) 0.1133(11)
O3 O 0.49314(12) 0.90902(13) 0.3657(10)
O4 O 0.23830(12) 0.65025(14) 0.3845(11)
C1 C 0.36031(14) 0.7831(2) 0.37430
C2 C 0.45459(15) 0.8111(2) 0.4524(10)
C3 C 0.5129(2) 0.7363(2) 0.6217(11)
C4 C 0.4792(2) 0.6338(2) 0.7091(12)
C5 C 0.3880(2) 0.6030(2) 0.6354(11)
C6 C 0.32897(15) 0.6764(2) 0.4665(10)
C7 C 0.29946(15) 0.8631(2) 0.1948(11)
H1 H 0.57621(15) 0.7573(2) 0.6814(11)
H2 H 0.52059(15) 0.5817(2) 0.8207(11)
H3 H 0.36489(15) 0.5312(2) 0.7004(11)
H4 H 0.2062(24) 0.7675(27) 0.183(12)
H5 H 0.4423(25) 0.9487(29) 0.276(12)
H6 H 0.2294(19) 0.5899(24) 0.427(11)
#END
