
#######################################################################
#
#                 Cambridge Crystallographic Data Centre
#                                CCDC
#
#######################################################################
#
# If this CIF has been generated from an entry in the Cambridge
# Structural Database, then it will include bibliographic, chemical,
# crystal, experimental, refinement or atomic coordinate data resulting
# from the CCDC's data processing and validation procedures.
#
#######################################################################

data_CSD_CIF_LHISTD38
_audit_creation_date 2020-11-06
_audit_creation_method CSD-ConQuest-V1
_database_code_CSD LHISTD38
_database_code_depnum_ccdc_archive 'CCDC 2020589'
_chemical_formula_sum 'C6 H9 N3 O2'
_chemical_formula_moiety
;
C6 H9 N3 O2
;
_journal_coden_Cambridge 1147
_journal_volume 20
_journal_year 2020
_journal_page_first 7788
_journal_name_full 'Cryst.Growth Des. '
loop_
_publ_author_name
"G.Novelli"
"H.E.Maynard-Casely"
"G.J.McIntyre"
"M.R.Warren"
"S.Parsons"
_chemical_name_systematic
;
L-histidine
;
_chemical_name_common
;
2-azaniumyl-3-(1H-imidazol-4-yl)propanoate; Teaching Subset: Essential 
Nutrients
;
_cell_volume    318.231
_exptl_crystal_colour 'colorless'
_exptl_crystal_density_diffrn 1.619
_exptl_special_details
;
polymorph II

;
_exptl_crystal_description 'plate'
_diffrn_ambient_temperature 293
_diffrn_ambient_pressure 1900000.0
_diffrn_radiation_probe x-ray
_diffrn_source synchrotron
#These two values have been output from a single CSD field.
_refine_ls_R_factor_gt 0.037
_refine_ls_wR_factor_gt 0.037
loop_
_citation_database_id_CSD
_citation_special_details
DLHIST "is a racemate of this entry"
_symmetry_cell_setting monoclinic
_symmetry_space_group_name_H-M 'P 21'
_symmetry_Int_Tables_number 4
loop_
_symmetry_equiv_pos_site_id
_symmetry_equiv_pos_as_xyz
1 x,y,z
2 -x,1/2+y,-z
_cell_length_a 5.006(3)
_cell_length_b 6.8962(7)
_cell_length_c 9.3401(19)
_cell_angle_alpha 90
_cell_angle_beta 99.27(4)
_cell_angle_gamma 90
_cell_formula_units_Z 2
loop_
_atom_type_symbol
_atom_type_radius_bond
C 0.68
H 0.23
N 0.68
O 0.68
loop_
_atom_site_label
_atom_site_type_symbol
_atom_site_fract_x
_atom_site_fract_y
_atom_site_fract_z
O1 O 0.322(2) 0.4612(7) 1.0129(8)
O2 O 0.765(3) 0.4692(9) 1.0996(11)
N1 N 0.878(3) 0.6479(6) 0.8615(10)
H1 H 0.92569 0.65826 0.77419
H2 H 1.00699 0.58656 0.92107
H3 H 0.85363 0.76571 0.89629
N2 N 0.706(3) 0.4308(8) 0.3805(11)
H4 H 0.66538 0.42450 0.28756
N3 N 0.934(3) 0.4973(7) 0.5965(9)
C1 C 0.562(4) 0.4874(11) 1.0000(13)
C2 C 0.705(3) 0.3987(8) 0.6128(10)
C3 C 0.625(3) 0.5383(8) 0.8502(11)
H5 H 0.47819 0.61960 0.80070
C4 C 0.555(3) 0.3564(8) 0.4786(11)
H6 H 0.38982 0.29214 0.45906
C5 C 0.639(3) 0.3537(7) 0.7599(11)
H7 H 0.77687 0.26799 0.81038
H8 H 0.46703 0.28676 0.74955
C6 C 0.919(4) 0.5121(10) 0.4533(12)
H9 H 1.04937 0.57474 0.40956
#END
