
#######################################################################
#
#                 Cambridge Crystallographic Data Centre
#                                CCDC
#
#######################################################################
#
# If this CIF has been generated from an entry in the Cambridge
# Structural Database, then it will include bibliographic, chemical,
# crystal, experimental, refinement or atomic coordinate data resulting
# from the CCDC's data processing and validation procedures.
#
#######################################################################

data_CSD_CIF_LIALET01
_audit_creation_date 2001-04-25
_audit_creation_method CSD-ConQuest-V1
_database_code_CSD LIALET01
_database_code_depnum_ccdc_archive 'CCDC 135237'
_chemical_formula_sum 'C8 H20 Al1 Li1'
_chemical_formula_moiety
;
C8 H20 Al1 1-,Li1 1+
;
_journal_coden_Cambridge 36
_journal_volume 603
_journal_year 2000
_journal_page_first 167
_journal_name_full 'J.Organomet.Chem. '
loop_
_publ_author_name
"A.I.Sizov"
"T.M.Zvukova"
"B.M.Bulychev"
"V.K.Belsky"
_chemical_name_systematic
;
Lithium tetraethyl-aluminium(iii)
;
_chemical_name_common
;
Teaching Subset: Fundamental Chemistry, Symmetry
;
_cell_volume    539.892
_exptl_crystal_colour 'colorless'
_exptl_crystal_density_diffrn 0.924
_exptl_crystal_description 'prism'
_diffrn_ambient_temperature ?
_diffrn_special_details
;
The study was carried out at room temperature,in the range 283-303K

;
#These two values have been output from a single CSD field.
_refine_ls_R_factor_gt 0.0292
_refine_ls_wR_factor_gt 0.0292
_symmetry_cell_setting tetragonal
_symmetry_space_group_name_H-M 'P 42/n m c'
_symmetry_Int_Tables_number 137
loop_
_symmetry_equiv_pos_site_id
_symmetry_equiv_pos_as_xyz
1 x,y,z
2 1/2-y,x,1/2+z
3 y,1/2-x,1/2+z
4 1/2+y,1/2+x,1/2-z
5 1/2-x,1/2-y,z
6 -x,1/2+y,-z
7 1/2+x,-y,-z
8 -y,-x,1/2-z
9 -x,-y,-z
10 -1/2+y,-x,-1/2-z
11 -y,-1/2+x,-1/2-z
12 -1/2-y,-1/2-x,-1/2+z
13 -1/2+x,-1/2+y,-z
14 x,-1/2-y,z
15 -1/2-x,y,z
16 y,x,-1/2+z
_cell_length_a 9.999(1)
_cell_length_b 9.999(1)
_cell_length_c 5.400(1)
_cell_angle_alpha 90
_cell_angle_beta 90
_cell_angle_gamma 90
_cell_formula_units_Z 2
loop_
_atom_type_symbol
_atom_type_radius_bond
C 0.68
H 0.23
Al 1.35
Li 0.68
loop_
_atom_site_label
_atom_site_type_symbol
_atom_site_fract_x
_atom_site_fract_y
_atom_site_fract_z
Al1 Al 0.25000 0.75000 0.75000
C1 C 0.4172(5) 0.75000 0.5415(8)
C2 C 0.5392(7) 0.75000 0.7113(13)
H1 H 0.4227(36) 0.8218(30) 0.4394(88)
H2 H 0.5372(49) 0.8337(47) 0.7810(94)
H3 H 0.6256(65) 0.75000 0.646(14)
Li1 Li 0.25000 0.75000 0.25000
H2M H 0.5372(49) 0.6663(47) 0.7810(94)
H1M H 0.4227(36) 0.6782(30) 0.4394(88)
C1C C 0.2500(5) 0.91720 0.9585(8)
C2C C 0.2500(7) 1.03920 0.7887(13)
H2C H 0.3337(49) 1.0372(47) 0.7190(94)
H2J H 0.1663(49) 1.0372(47) 0.7190(94)
H3C H 0.2500(65) 1.12560 0.854(14)
H1C H 0.3218(36) 0.9227(30) 1.0606(88)
H1J H 0.1782(36) 0.9227(30) 1.0606(88)
C1N C 0.0828(5) 0.75000 0.5415(8)
C2N C -0.0392(7) 0.75000 0.7113(13)
H2N H -0.0372(49) 0.8337(47) 0.7810(94)
H2D H -0.0372(49) 0.6663(47) 0.7810(94)
H3N H -0.1256(65) 0.75000 0.646(14)
H1N H 0.0773(36) 0.8218(30) 0.4394(88)
H1D H 0.0773(36) 0.6782(30) 0.4394(88)
C1I C 0.2500(5) 0.58280 0.9585(8)
C2I C 0.2500(7) 0.46080 0.7887(13)
H2I H 0.3337(49) 0.4628(47) 0.7190(94)
H2G H 0.1663(49) 0.4628(47) 0.7190(94)
H3I H 0.2500(65) 0.37440 0.854(14)
H1I H 0.3218(36) 0.5773(30) 1.0606(88)
H1G H 0.1782(36) 0.5773(30) 1.0606(88)
#END
