####################################################################### 
# 
# This file contains crystal structure data downloaded from the 
# Cambridge Structural Database (CSD) hosted by the Cambridge 
# Crystallographic Data Centre (CCDC).
# 
# Full information about CCDC data access policies and citation 
# guidelines are available at http://www.ccdc.cam.ac.uk/access/V1 
# 
# Audit and citation data items may have been added by the CCDC. 
# Please retain this information to preserve the provenance of 
# this file and to allow appropriate attribution of the data. 
# 
#######################################################################

data_xb0456m
_audit_block_doi                 10.5517/ccnc6qx
_database_code_depnum_ccdc_archive 'CCDC 606599'
loop_
_citation_id
_citation_doi
_citation_year
1 10.1080/00958970601003599 2007
_audit_update_record             
;
2006-05-05 deposited with the CCDC.	2024-07-11 downloaded from the CCDC.
;

_audit_creation_method           SHELXL-97
_chemical_name_systematic        
;
?
;
_chemical_name_common            ?
_chemical_melting_point          ?
_chemical_formula_moiety         ?
_chemical_formula_sum            'C30 H36 Cu2 N8 O11'
_chemical_formula_weight         811.75

loop_
_atom_type_symbol
_atom_type_description
_atom_type_scat_dispersion_real
_atom_type_scat_dispersion_imag
_atom_type_scat_source
C C 0.0033 0.0016 'International Tables Vol C Tables 4.2.6.8 and 6.1.1.4'
H H 0.0000 0.0000 'International Tables Vol C Tables 4.2.6.8 and 6.1.1.4'
N N 0.0061 0.0033 'International Tables Vol C Tables 4.2.6.8 and 6.1.1.4'
O O 0.0106 0.0060 'International Tables Vol C Tables 4.2.6.8 and 6.1.1.4'
Cu Cu 0.3201 1.2651 'International Tables Vol C Tables 4.2.6.8 and 6.1.1.4'

_symmetry_cell_setting           triclinic
_symmetry_space_group_name_H-M   p-1

loop_
_symmetry_equiv_pos_as_xyz
'x, y, z'
'-x, -y, -z'

_cell_length_a                   7.6158(9)
_cell_length_b                   13.4743(17)
_cell_length_c                   18.232(2)
_cell_angle_alpha                73.661(9)
_cell_angle_beta                 85.305(9)
_cell_angle_gamma                75.060(9)
_cell_volume                     1734.6(4)
_cell_formula_units_Z            2
_cell_measurement_temperature    273(2)
_cell_measurement_reflns_used    ?
_cell_measurement_theta_min      ?
_cell_measurement_theta_max      ?

_exptl_crystal_description       ?
_exptl_crystal_colour            ?
_exptl_crystal_size_max          0.15
_exptl_crystal_size_mid          0.11
_exptl_crystal_size_min          0.09
_exptl_crystal_density_meas      ?
_exptl_crystal_density_diffrn    1.554
_exptl_crystal_density_method    'not measured'
_exptl_crystal_F_000             836
_exptl_absorpt_coefficient_mu    1.296
_exptl_absorpt_correction_type   empirical
_exptl_absorpt_correction_T_min  0.8293
_exptl_absorpt_correction_T_max  0.8923
_exptl_absorpt_process_details   ?

_exptl_special_details           
;
?
;

_diffrn_ambient_temperature      273(2)
_diffrn_radiation_wavelength     0.71073
_diffrn_radiation_type           MoK\a
_diffrn_radiation_source         'fine-focus sealed tube'
_diffrn_radiation_monochromator  graphite
_diffrn_measurement_device_type  ?
_diffrn_measurement_method       ?
_diffrn_detector_area_resol_mean ?
_diffrn_standards_number         ?
_diffrn_standards_interval_count ?
_diffrn_standards_interval_time  ?
_diffrn_standards_decay_%        ?
_diffrn_reflns_number            13479
_diffrn_reflns_av_R_equivalents  0.0771
_diffrn_reflns_av_sigmaI/netI    0.1789
_diffrn_reflns_limit_h_min       -9
_diffrn_reflns_limit_h_max       8
_diffrn_reflns_limit_k_min       -15
_diffrn_reflns_limit_k_max       16
_diffrn_reflns_limit_l_min       -21
_diffrn_reflns_limit_l_max       21
_diffrn_reflns_theta_min         1.16
_diffrn_reflns_theta_max         25.05
_reflns_number_total             5993
_reflns_number_gt                3177
_reflns_threshold_expression     >2sigma(I)

_computing_data_collection       ?
_computing_cell_refinement       ?
_computing_data_reduction        ?
_computing_structure_solution    'SHELXS-97 (Sheldrick, 1990)'
_computing_structure_refinement  'SHELXL-97 (Sheldrick, 1997)'
_computing_molecular_graphics    ?
_computing_publication_material  ?

_refine_special_details          
;
Refinement of F^2^ against ALL reflections. The weighted R-factor wR and
goodness of fit S are based on F^2^, conventional R-factors R are based
on F, with F set to zero for negative F^2^. The threshold expression of
F^2^ > 2sigma(F^2^) is used only for calculating R-factors(gt) etc. and is
not relevant to the choice of reflections for refinement. R-factors based
on F^2^ are statistically about twice as large as those based on F, and R-
factors based on ALL data will be even larger.
;

_refine_ls_structure_factor_coef Fsqd
_refine_ls_matrix_type           full
_refine_ls_weighting_scheme      calc
_refine_ls_weighting_details     
'calc w=1/[\s^2^(Fo^2^)+(0.0550P)^2^+0.0000P] where P=(Fo^2^+2Fc^2^)/3'
_atom_sites_solution_primary     direct
_atom_sites_solution_secondary   difmap
_atom_sites_solution_hydrogens   geom
_refine_ls_hydrogen_treatment    mixed
_refine_ls_extinction_method     none
_refine_ls_extinction_coef       ?
_refine_ls_number_reflns         5993
_refine_ls_number_parameters     460
_refine_ls_number_restraints     0
_refine_ls_R_factor_all          0.1817
_refine_ls_R_factor_gt           0.0586
_refine_ls_wR_factor_ref         0.1638
_refine_ls_wR_factor_gt          0.1258
_refine_ls_goodness_of_fit_ref   1.061
_refine_ls_restrained_S_all      1.061
_refine_ls_shift/su_max          0.000
_refine_ls_shift/su_mean         0.000

loop_
_atom_site_label
_atom_site_type_symbol
_atom_site_fract_x
_atom_site_fract_y
_atom_site_fract_z
_atom_site_U_iso_or_equiv
_atom_site_adp_type
_atom_site_occupancy
_atom_site_symmetry_multiplicity
_atom_site_calc_flag
_atom_site_refinement_flags
_atom_site_disorder_assembly
_atom_site_disorder_group
Cu1 Cu -0.44559(14) 0.54353(7) 0.15692(5) 0.0558(4) Uani 1 1 d . . .
Cu2 Cu 0.90924(14) 0.01346(7) 0.33792(5) 0.0574(4) Uani 1 1 d . . .
C1 C 0.8823(11) -0.2184(6) 0.3579(5) 0.061(2) Uani 1 1 d . . .
H1 H 0.8451 -0.2200 0.4080 0.073 Uiso 1 1 calc R . .
C2 C 0.8869(13) -0.3067(6) 0.3320(6) 0.079(3) Uani 1 1 d . . .
H2 H 0.8544 -0.3657 0.3650 0.095 Uiso 1 1 calc R . .
C3 C 0.9839(11) -0.2241(7) 0.2181(5) 0.067(3) Uani 1 1 d . . .
H3 H 1.0214 -0.2244 0.1683 0.080 Uiso 1 1 calc R . .
C4 C 0.9821(10) -0.1327(6) 0.2413(5) 0.049(2) Uani 1 1 d . . .
C5 C 1.0294(12) -0.0355(7) 0.1909(5) 0.060(2) Uani 1 1 d . . .
C6 C -0.4152(11) 0.7745(7) 0.1044(5) 0.062(3) Uani 1 1 d . . .
H6 H -0.3781 0.7607 0.0576 0.074 Uiso 1 1 calc R . .
C7 C -0.4173(12) 0.8746(6) 0.1135(5) 0.077(3) Uani 1 1 d . . .
H7 H -0.3764 0.9244 0.0741 0.092 Uiso 1 1 calc R . .
C8 C -0.5300(12) 0.8216(7) 0.2324(5) 0.071(3) Uani 1 1 d . . .
H8 H -0.5728 0.8354 0.2787 0.086 Uiso 1 1 calc R . .
C9 C -0.5244(11) 0.7233(6) 0.2237(5) 0.052(2) Uani 1 1 d . . .
C10 C -0.5761(11) 0.6362(7) 0.2878(5) 0.059(2) Uani 1 1 d . . .
C11 C 0.6059(11) 0.2048(6) 0.3266(4) 0.051(2) Uani 1 1 d . . .
H11 H 0.6838 0.2287 0.3504 0.062 Uiso 1 1 calc R . .
C12 C 0.4390(12) 0.2734(6) 0.3020(4) 0.062(3) Uani 1 1 d . . .
H12 H 0.4086 0.3415 0.3091 0.074 Uiso 1 1 calc R . .
C13 C 0.3197(11) 0.2414(5) 0.2675(4) 0.0388(19) Uani 1 1 d . . .
C14 C 0.3726(11) 0.1366(6) 0.2594(4) 0.051(2) Uani 1 1 d . . .
H14 H 0.2950 0.1094 0.2381 0.062 Uiso 1 1 calc R . .
C15 C 0.5413(12) 0.0767(6) 0.2838(4) 0.058(2) Uani 1 1 d . . .
H15 H 0.5763 0.0090 0.2760 0.069 Uiso 1 1 calc R . .
C16 C -0.1519(11) 0.3456(6) 0.1834(4) 0.057(2) Uani 1 1 d . . .
H16 H -0.2312 0.3187 0.1628 0.069 Uiso 1 1 calc R . .
C17 C 0.0145(12) 0.2782(6) 0.2104(4) 0.055(2) Uani 1 1 d . . .
H17 H 0.0420 0.2078 0.2080 0.067 Uiso 1 1 calc R . .
C18 C 0.1396(12) 0.3130(5) 0.2407(4) 0.042(2) Uani 1 1 d . . .
C19 C 0.0855(10) 0.4181(5) 0.2441(4) 0.046(2) Uani 1 1 d . . .
H19 H 0.1614 0.4465 0.2653 0.055 Uiso 1 1 calc R . .
C20 C -0.0809(11) 0.4799(6) 0.2158(4) 0.055(2) Uani 1 1 d . . .
H20 H -0.1111 0.5506 0.2176 0.065 Uiso 1 1 calc R . .
C21 C -0.7668(13) 0.6094(6) 0.0633(5) 0.068(3) Uani 1 1 d . . .
H21 H -0.7635 0.6757 0.0681 0.082 Uiso 1 1 calc R . .
C22 C -0.9120(11) 0.6045(6) 0.0260(4) 0.061(2) Uani 1 1 d . . .
H22 H -1.0030 0.6655 0.0066 0.073 Uiso 1 1 calc R . .
C23 C -0.9202(10) 0.5059(5) 0.0178(4) 0.042(2) Uani 1 1 d . . .
C24 C -0.7782(10) 0.4195(6) 0.0477(4) 0.047(2) Uani 1 1 d . . .
H24 H -0.7787 0.3519 0.0446 0.057 Uiso 1 1 calc R . .
C25 C -0.6365(11) 0.4342(6) 0.0821(4) 0.051(2) Uani 1 1 d . . .
H25 H -0.5392 0.3755 0.0987 0.061 Uiso 1 1 calc R . .
C26 C 1.2393(12) -0.0805(6) 0.4265(4) 0.064(3) Uani 1 1 d . . .
H26 H 1.2273 -0.1416 0.4152 0.077 Uiso 1 1 calc R . .
C27 C 1.3926(12) -0.0885(6) 0.4645(4) 0.060(2) Uani 1 1 d . . .
H27 H 1.4798 -0.1529 0.4782 0.073 Uiso 1 1 calc R . .
C28 C 1.4156(10) 0.0005(5) 0.4820(4) 0.044(2) Uani 1 1 d . . .
C29 C 1.2758(11) 0.0934(6) 0.4606(4) 0.047(2) Uani 1 1 d . . .
H29 H 1.2848 0.1558 0.4708 0.057 Uiso 1 1 calc R . .
C30 C 1.1273(12) 0.0921(6) 0.4251(4) 0.057(2) Uani 1 1 d . . .
H30 H 1.0338 0.1539 0.4143 0.068 Uiso 1 1 calc R . .
N1 N 0.9292(8) -0.1313(5) 0.3139(4) 0.0501(18) Uani 1 1 d . . .
N2 N 0.9369(12) -0.3079(6) 0.2611(5) 0.088(3) Uani 1 1 d . . .
N3 N -0.4632(9) 0.6997(5) 0.1589(4) 0.0500(18) Uani 1 1 d . . .
N4 N -0.4781(11) 0.8987(6) 0.1788(5) 0.082(3) Uani 1 1 d . . .
N5 N 0.6612(8) 0.1056(4) 0.3178(3) 0.0497(18) Uani 1 1 d . . .
N6 N -0.2032(8) 0.4474(4) 0.1859(3) 0.0430(16) Uani 1 1 d . . .
N7 N -0.6284(9) 0.5259(5) 0.0934(3) 0.0527(18) Uani 1 1 d . . .
N8 N 1.1050(9) 0.0082(5) 0.4042(3) 0.0510(18) Uani 1 1 d . . .
O1 O 1.0200(8) 0.0401(4) 0.2188(3) 0.0735(18) Uani 1 1 d . . .
O2 O 1.0785(10) -0.0357(5) 0.1235(4) 0.101(2) Uani 1 1 d . . .
O3 O -0.5577(7) 0.5474(4) 0.2758(3) 0.0646(16) Uani 1 1 d . . .
O4 O -0.6379(8) 0.6622(4) 0.3471(3) 0.083(2) Uani 1 1 d . . .
O5W O 0.8909(13) 0.1328(5) 0.9909(4) 0.195(5) Uani 1 1 d . . .
H5B H 0.9016 0.1028 0.9551 0.235 Uiso 1 1 d R . .
H5A H 0.9048 0.0885 1.0349 0.235 Uiso 1 1 d R . .
O6W O 0.7418(12) 0.8563(5) 0.9325(4) 0.163(4) Uani 1 1 d . . .
H6A H 0.6382 0.8488 0.9245 0.196 Uiso 1 1 d R . .
H6B H 0.7260 0.9219 0.9086 0.196 Uiso 1 1 d R . .
O7W O 0.9705(9) 0.6454(4) 0.5466(3) 0.110(2) Uani 1 1 d . . .
H7A H 0.9173 0.5936 0.5484 0.132 Uiso 1 1 d R . .
H7B H 1.0722 0.6522 0.5577 0.132 Uiso 1 1 d R . .
O8W O 0.3040(9) 0.6063(5) 0.6102(3) 0.108(2) Uani 1 1 d . . .
H8A H 0.3666 0.6172 0.6423 0.130 Uiso 1 1 d R . .
H8B H 0.3702 0.6217 0.5709 0.130 Uiso 1 1 d R . .
O9W O 0.5300(8) 0.6559(4) 0.4800(3) 0.100(2) Uani 1 1 d . . .
H9B H 0.6126 0.6027 0.5025 0.120 Uiso 1 1 d R . .
H9A H 0.4796 0.7111 0.4456 0.120 Uiso 1 1 d R . .
O10W O 0.2035(8) 0.5187(4) 0.4478(3) 0.100(2) Uani 1 1 d . . .
H10A H 0.2537 0.5636 0.4167 0.120 Uiso 1 1 d R . .
H10B H 0.1081 0.5088 0.4734 0.120 Uiso 1 1 d R . .
O11W O 0.6301(16) 0.1707(7) 0.0966(5) 0.258(6) Uani 1 1 d . . .
H11B H 0.5259 0.1636 0.0889 0.310 Uiso 1 1 d R . .
H11A H 0.7118 0.1589 0.0633 0.310 Uiso 1 1 d R . .

loop_
_atom_site_aniso_label
_atom_site_aniso_U_11
_atom_site_aniso_U_22
_atom_site_aniso_U_33
_atom_site_aniso_U_23
_atom_site_aniso_U_13
_atom_site_aniso_U_12
Cu1 0.0531(8) 0.0534(6) 0.0639(7) -0.0211(5) -0.0132(6) -0.0083(5)
Cu2 0.0528(8) 0.0555(6) 0.0679(8) -0.0249(5) -0.0149(6) -0.0070(6)
C1 0.057(7) 0.045(5) 0.077(6) -0.007(5) -0.018(5) -0.011(5)
C2 0.083(8) 0.049(6) 0.094(8) 0.000(6) -0.033(7) -0.007(5)
C3 0.062(7) 0.068(6) 0.084(7) -0.043(6) -0.004(5) -0.015(5)
C4 0.042(6) 0.038(4) 0.068(6) -0.021(4) -0.027(5) 0.002(4)
C5 0.065(7) 0.054(6) 0.067(7) -0.014(5) -0.004(6) -0.026(5)
C6 0.070(7) 0.059(6) 0.056(6) -0.009(5) 0.001(5) -0.024(5)
C7 0.087(8) 0.035(5) 0.108(8) -0.010(5) 0.000(6) -0.025(5)
C8 0.069(7) 0.071(6) 0.083(7) -0.041(6) 0.003(6) -0.010(6)
C9 0.058(6) 0.048(5) 0.052(6) -0.023(5) -0.018(5) 0.002(4)
C10 0.052(7) 0.055(6) 0.063(6) -0.017(5) -0.008(5) 0.000(5)
C11 0.057(7) 0.047(5) 0.062(6) -0.020(4) -0.018(5) -0.022(5)
C12 0.059(7) 0.046(5) 0.083(7) -0.030(5) -0.014(5) 0.002(5)
C13 0.042(6) 0.038(4) 0.037(5) -0.007(4) -0.001(4) -0.014(4)
C14 0.052(6) 0.055(5) 0.061(6) -0.026(4) -0.013(5) -0.022(5)
C15 0.064(7) 0.040(5) 0.068(6) -0.023(4) -0.006(5) -0.001(5)
C16 0.059(7) 0.053(5) 0.071(6) -0.031(5) -0.020(5) -0.011(5)
C17 0.059(7) 0.036(4) 0.073(6) -0.018(4) -0.013(5) -0.008(5)
C18 0.051(6) 0.043(4) 0.035(5) -0.011(4) 0.001(4) -0.018(5)
C19 0.036(6) 0.037(4) 0.069(6) -0.015(4) -0.032(5) -0.004(4)
C20 0.057(7) 0.048(5) 0.068(6) -0.030(4) -0.007(5) -0.010(5)
C21 0.075(8) 0.051(5) 0.075(7) -0.013(5) -0.028(6) -0.005(5)
C22 0.052(7) 0.054(5) 0.067(6) -0.008(4) -0.032(5) 0.006(5)
C23 0.048(6) 0.036(4) 0.046(5) -0.015(4) -0.010(4) -0.010(4)
C24 0.039(6) 0.054(5) 0.061(6) -0.030(4) -0.013(5) -0.012(4)
C25 0.048(6) 0.046(5) 0.064(6) -0.025(4) 0.002(5) -0.010(4)
C26 0.072(7) 0.056(5) 0.066(6) -0.023(5) -0.025(5) -0.003(5)
C27 0.061(7) 0.050(5) 0.073(6) -0.026(4) -0.026(5) -0.001(5)
C28 0.052(6) 0.041(4) 0.046(5) -0.016(4) -0.013(4) -0.014(4)
C29 0.042(6) 0.054(5) 0.053(5) -0.022(4) -0.002(5) -0.017(5)
C30 0.047(6) 0.058(5) 0.069(6) -0.027(5) 0.014(5) -0.011(5)
N1 0.044(5) 0.046(4) 0.060(5) -0.015(4) -0.013(4) -0.005(3)
N2 0.117(8) 0.054(5) 0.101(7) -0.028(5) -0.018(6) -0.020(5)
N3 0.050(5) 0.047(4) 0.049(5) -0.012(4) -0.019(4) 0.000(4)
N4 0.108(7) 0.052(5) 0.098(7) -0.034(5) 0.011(6) -0.027(5)
N5 0.044(5) 0.051(4) 0.064(5) -0.030(3) -0.016(4) -0.010(3)
N6 0.037(4) 0.044(4) 0.053(4) -0.017(3) -0.008(3) -0.012(3)
N7 0.049(5) 0.058(4) 0.053(4) -0.023(4) -0.016(4) -0.003(4)
N8 0.051(5) 0.054(4) 0.049(4) -0.016(3) -0.020(4) -0.007(4)
O1 0.102(5) 0.048(3) 0.079(4) -0.023(3) 0.003(4) -0.027(3)
O2 0.146(7) 0.087(5) 0.073(5) -0.032(4) 0.010(5) -0.025(4)
O3 0.068(4) 0.058(3) 0.069(4) -0.018(3) 0.006(3) -0.019(3)
O4 0.095(5) 0.099(4) 0.062(4) -0.034(4) 0.015(4) -0.024(4)
O5W 0.332(13) 0.097(5) 0.111(6) -0.052(5) -0.061(7) 0.073(7)
O6W 0.261(11) 0.090(5) 0.113(6) -0.004(4) 0.058(7) -0.044(6)
O7W 0.108(6) 0.094(5) 0.136(6) -0.013(4) -0.021(5) -0.050(4)
O8W 0.118(6) 0.122(5) 0.091(5) -0.040(4) -0.017(4) -0.026(5)
O9W 0.121(6) 0.059(4) 0.096(5) -0.007(3) -0.026(4) 0.011(4)
O10W 0.084(5) 0.086(4) 0.120(5) -0.003(4) 0.015(4) -0.036(4)
O11W 0.341(16) 0.162(9) 0.192(9) -0.010(7) 0.120(10) -0.003(9)

_geom_special_details            
;
All esds (except the esd in the dihedral angle between two l.s. planes)
are estimated using the full covariance matrix. The cell esds are taken
into account individually in the estimation of esds in distances, angles
and torsion angles; correlations between esds in cell parameters are only
used when they are defined by crystal symmetry. An approximate (isotropic)
treatment of cell esds is used for estimating esds involving l.s. planes.
;

loop_
_geom_bond_atom_site_label_1
_geom_bond_atom_site_label_2
_geom_bond_distance
_geom_bond_site_symmetry_2
_geom_bond_publ_flag
Cu1 N6 1.976(6) . ?
Cu1 N7 1.981(6) . ?
Cu1 N3 2.084(6) . ?
Cu1 O3 2.273(5) . ?
Cu2 N8 1.970(6) . ?
Cu2 N5 1.973(6) . ?
Cu2 N1 2.083(5) . ?
Cu2 O1 2.230(5) . ?
C1 N1 1.338(9) . ?
C1 C2 1.390(10) . ?
C2 N2 1.321(10) . ?
C3 N2 1.297(10) . ?
C3 C4 1.408(9) . ?
C4 N1 1.355(8) . ?
C4 C5 1.483(10) . ?
C5 O1 1.245(8) . ?
C5 O2 1.255(9) . ?
C6 N3 1.305(9) . ?
C6 C7 1.401(9) . ?
C7 N4 1.337(9) . ?
C8 N4 1.329(10) . ?
C8 C9 1.367(10) . ?
C9 N3 1.326(8) . ?
C9 C10 1.513(11) . ?
C10 O3 1.247(8) . ?
C10 O4 1.249(8) . ?
C11 N5 1.345(7) . ?
C11 C12 1.387(9) . ?
C12 C13 1.362(9) . ?
C13 C14 1.412(8) . ?
C13 C18 1.488(9) . ?
C14 C15 1.363(10) . ?
C15 N5 1.335(9) . ?
C16 N6 1.339(7) . ?
C16 C17 1.389(10) . ?
C17 C18 1.377(9) . ?
C18 C19 1.386(8) . ?
C19 C20 1.374(9) . ?
C20 N6 1.335(8) . ?
C21 N7 1.347(9) . ?
C21 C22 1.369(10) . ?
C22 C23 1.397(9) . ?
C23 C24 1.382(9) . ?
C23 C23 1.486(13) 2_365 ?
C24 C25 1.374(9) . ?
C25 N7 1.326(8) . ?
C26 N8 1.344(9) . ?
C26 C27 1.371(10) . ?
C27 C28 1.379(8) . ?
C28 C29 1.400(9) . ?
C28 C28 1.485(13) 2_856 ?
C29 C30 1.355(9) . ?
C30 N8 1.342(8) . ?

loop_
_geom_angle_atom_site_label_1
_geom_angle_atom_site_label_2
_geom_angle_atom_site_label_3
_geom_angle
_geom_angle_site_symmetry_1
_geom_angle_site_symmetry_3
_geom_angle_publ_flag
N6 Cu1 N7 127.3(2) . . ?
N6 Cu1 N3 113.0(2) . . ?
N7 Cu1 N3 115.5(2) . . ?
N6 Cu1 O3 98.7(2) . . ?
N7 Cu1 O3 111.2(2) . . ?
N3 Cu1 O3 76.6(2) . . ?
N8 Cu2 N5 132.7(2) . . ?
N8 Cu2 N1 113.1(2) . . ?
N5 Cu2 N1 110.5(2) . . ?
N8 Cu2 O1 107.0(2) . . ?
N5 Cu2 O1 99.7(2) . . ?
N1 Cu2 O1 76.8(2) . . ?
N1 C1 C2 122.7(8) . . ?
N2 C2 C1 121.0(9) . . ?
N2 C3 C4 124.7(9) . . ?
N1 C4 C3 118.3(8) . . ?
N1 C4 C5 117.3(6) . . ?
C3 C4 C5 124.4(8) . . ?
O1 C5 O2 124.6(8) . . ?
O1 C5 C4 117.5(8) . . ?
O2 C5 C4 117.9(7) . . ?
N3 C6 C7 122.6(8) . . ?
N4 C7 C6 120.2(8) . . ?
N4 C8 C9 124.1(8) . . ?
N3 C9 C8 120.1(8) . . ?
N3 C9 C10 117.6(7) . . ?
C8 C9 C10 122.2(7) . . ?
O3 C10 O4 126.7(9) . . ?
O3 C10 C9 117.6(7) . . ?
O4 C10 C9 115.8(7) . . ?
N5 C11 C12 123.6(7) . . ?
C13 C12 C11 120.2(7) . . ?
C12 C13 C14 117.3(7) . . ?
C12 C13 C18 121.5(6) . . ?
C14 C13 C18 121.2(7) . . ?
C15 C14 C13 117.8(7) . . ?
N5 C15 C14 126.4(7) . . ?
N6 C16 C17 123.0(7) . . ?
C18 C17 C16 121.6(7) . . ?
C17 C18 C19 115.4(7) . . ?
C17 C18 C13 121.4(6) . . ?
C19 C18 C13 123.2(7) . . ?
C20 C19 C18 119.5(7) . . ?
N6 C20 C19 125.8(6) . . ?
N7 C21 C22 125.4(8) . . ?
C21 C22 C23 118.5(7) . . ?
C24 C23 C22 116.9(7) . . ?
C24 C23 C23 122.0(8) . 2_365 ?
C22 C23 C2