####################################################################### 
# 
# This file contains crystal structure data downloaded from the 
# Cambridge Structural Database (CSD) hosted by the Cambridge 
# Crystallographic Data Centre (CCDC).
# 
# Full information about CCDC data access policies and citation 
# guidelines are available at http://www.ccdc.cam.ac.uk/access/V1 
# 
# Audit and citation data items may have been added by the CCDC. 
# Please retain this information to preserve the provenance of 
# this file and to allow appropriate attribution of the data. 
# 
#######################################################################

data_de112a
_audit_block_doi                 10.5517/ccp5pgz
_database_code_depnum_ccdc_archive 'CCDC 631081'
loop_
_citation_id
_citation_doi
_citation_year
1 10.1016/j.poly.2007.01.009 2007
_audit_update_record             
;
2006-12-14 deposited with the CCDC.	2024-07-11 downloaded from the CCDC.
;

_audit_creation_method           SHELXL
_chemical_name_systematic        
;
?
;
_chemical_name_common            '[Zn(pydz)(N3)(SO4)]Na(H2O)8'
_chemical_formula_moiety         'C4 H4 N5 O4 S Zn, H8 Na O4, 4(H2 O)'
_chemical_formula_structural     ?
_chemical_formula_analytical     ?
_chemical_formula_sum            'C4 H20 N5 Na O12 S Zn'
_chemical_formula_weight         450.70
_chemical_melting_point          ?
_chemical_compound_source        ?

loop_
_atom_type_symbol
_atom_type_description
_atom_type_scat_dispersion_real
_atom_type_scat_dispersion_imag
_atom_type_scat_source
C C 0.0033 0.0016 'International Tables Vol C Tables 4.2.6.8 and 6.1.1.4'
H H 0.0000 0.0000 'International Tables Vol C Tables 4.2.6.8 and 6.1.1.4'
N N 0.0061 0.0033 'International Tables Vol C Tables 4.2.6.8 and 6.1.1.4'
O O 0.0106 0.0060 'International Tables Vol C Tables 4.2.6.8 and 6.1.1.4'
Na Na 0.0362 0.0249 'International Tables Vol C Tables 4.2.6.8 and 6.1.1.4'
S S 0.1246 0.1234 'International Tables Vol C Tables 4.2.6.8 and 6.1.1.4'
Zn Zn 0.2839 1.4301 'International Tables Vol C Tables 4.2.6.8 and 6.1.1.4'

_symmetry_cell_setting           Monoclinic
_symmetry_space_group_name_H-M   C2/m
_symmetry_space_group_name_Hall  '-C 2y'

loop_
_symmetry_equiv_pos_as_xyz
'x, y, z'
'-x, y, -z'
'x+1/2, y+1/2, z'
'-x+1/2, y+1/2, -z'
'-x, -y, -z'
'x, -y, z'
'-x+1/2, -y+1/2, -z'
'x+1/2, -y+1/2, z'

_cell_length_a                   16.127(4)
_cell_length_b                   7.067(2)
_cell_length_c                   15.078(6)
_cell_angle_alpha                90.00
_cell_angle_beta                 105.08(3)
_cell_angle_gamma                90.00
_cell_volume                     1659.2(9)
_cell_formula_units_Z            4
_cell_measurement_temperature    100(2)
_cell_measurement_reflns_used    40
_cell_measurement_theta_min      7.2
_cell_measurement_theta_max      15.9

_exptl_crystal_description       irregular
_exptl_crystal_colour            colorless
_exptl_crystal_size_max          0.26
_exptl_crystal_size_mid          0.20
_exptl_crystal_size_min          0.12
_exptl_crystal_density_meas      ?
_exptl_crystal_density_diffrn    1.804
_exptl_crystal_density_method    ?
_exptl_crystal_F_000             928
_exptl_absorpt_coefficient_mu    1.701
_exptl_absorpt_correction_type   refdelf
_exptl_absorpt_correction_T_min  0.660
_exptl_absorpt_correction_T_max  0.815
_exptl_absorpt_process_details   DIFABS

_exptl_special_details           
;
?
;

_diffrn_ambient_temperature      100(2)
_diffrn_radiation_wavelength     0.71073
_diffrn_radiation_type           MoK\a
_diffrn_radiation_source         'fine-focus sealed tube'
_diffrn_radiation_monochromator  graphite
_diffrn_measurement_device       'mod. STOE 4-circle diffractometer'
_diffrn_measurement_method       \w-sacns
_diffrn_standards_number         3
_diffrn_standards_interval_count 100
_diffrn_standards_interval_time  '1 h'
_diffrn_standards_decay_%        4
_diffrn_reflns_number            3156
_diffrn_reflns_av_R_equivalents  0.0507
_diffrn_reflns_av_sigmaI/netI    0.0535
_diffrn_reflns_limit_h_min       -20
_diffrn_reflns_limit_h_max       20
_diffrn_reflns_limit_k_min       -9
_diffrn_reflns_limit_k_max       9
_diffrn_reflns_limit_l_min       -19
_diffrn_reflns_limit_l_max       19
_diffrn_reflns_theta_min         2.80
_diffrn_reflns_theta_max         27.00
_reflns_number_total             1960
_reflns_number_gt                1729
_reflns_threshold_expression     >2sigma(I)

_computing_data_collection       ?
_computing_cell_refinement       ?
_computing_data_reduction        ?
_computing_structure_solution    'SHELXS-86 (Sheldrick, 1990)'
_computing_structure_refinement  'SHELXL-93 (Sheldrick, 1993)'
_computing_molecular_graphics    'SHELXTL/PC v.5.03 (Siemens Ind. Aut.)'
_computing_publication_material  'SHELXTL/PC v.5.03 (Siemens Ind. Aut.)'

_refine_special_details          
;
Refinement on F^2^ for ALL reflections except for 4 with very negative F^2^
or flagged by the user for potential systematic errors. Weighted R-factors
wR and all goodnesses of fit S are based on F^2^, conventional R-factors R
are based on F, with F set to zero for negative F^2^. The observed criterion
of F^2^ > 2sigma(F^2^) is used only for calculating _R_factor_obs etc. and is
not relevant to the choice of reflections for refinement. R-factors based
on F^2^ are statistically about twice as large as those based on F, and R-
factors based on ALL data will be even larger.
;

_refine_ls_structure_factor_coef Fsqd
_refine_ls_matrix_type           full
_refine_ls_weighting_scheme      calc
_refine_ls_weighting_details     
'calc w=1/[\s^2^(Fo^2^)+(0.0000P)^2^+10.4085P] where P=(Fo^2^+2Fc^2^)/3'
_atom_sites_solution_primary     direct
_atom_sites_solution_secondary   difmap
_atom_sites_solution_hydrogens   geom
_refine_ls_hydrogen_treatment    mixed
_refine_ls_extinction_method     none
_refine_ls_extinction_coef       ?
_refine_ls_number_reflns         1956
_refine_ls_number_parameters     159
_refine_ls_number_restraints     16
_refine_ls_R_factor_all          0.0511
_refine_ls_R_factor_gt           0.0427
_refine_ls_wR_factor_all         0.1076
_refine_ls_wR_factor_ref         0.1000
_refine_ls_goodness_of_fit_all   1.196
_refine_ls_goodness_of_fit_ref   1.206
_refine_ls_restrained_S_all      1.207
_refine_ls_restrained_S_gt       1.201
_refine_ls_shift/su_max          0.000
_refine_ls_shift/esd_mean        0.000

loop_
_atom_site_label
_atom_site_type_symbol
_atom_site_fract_x
_atom_site_fract_y
_atom_site_fract_z
_atom_site_U_iso_or_equiv
_atom_site_thermal_displace_type
_atom_site_occupancy
_atom_site_calc_flag
_atom_site_refinement_flags
_atom_site_disorder_group
Zn1 Zn 0.2500 0.2500 0.5000 0.0069(2) Uani 1 d S .
N1 N 0.1574(2) 0.0957(4) 0.5575(2) 0.0092(6) Uani 1 d . .
C1 C 0.1031(2) 0.1874(5) 0.5944(2) 0.0120(7) Uani 1 d . .
H1 H 0.1050 0.3190 0.5955 0.014 Uiso 1 calc R .
C2 C 0.0430(2) 0.0960(5) 0.6318(2) 0.0127(7) Uani 1 d . .
H2 H 0.0045 0.1643 0.6557 0.015 Uiso 1 calc R .
N11 N 0.3222(2) 0.0000 0.5158(3) 0.0083(8) Uani 1 d S .
N12 N 0.3953(3) 0.0000 0.5643(3) 0.0103(8) Uani 1 d S .
N13 N 0.4650(3) 0.0000 0.6086(3) 0.0193(10) Uani 1 d S .
S1 S 0.17939(7) 0.0000 0.30814(8) 0.0080(2) Uani 1 d S .
O1 O 0.1804(2) 0.1722(4) 0.3654(2) 0.0126(5) Uani 1 d . .
O2 O 0.2541(2) 0.0000 0.2696(3) 0.0177(8) Uani 1 d S .
O3 O 0.0987(2) 0.0000 0.2342(2) 0.0143(7) Uani 1 d S .
Na1 Na 0.0000 0.2577(3) 0.0000 0.0143(4) Uani 1 d S .
O4 O -0.0186(2) 0.2980(4) 0.1549(2) 0.0194(6) Uani 1 d D .
O5 O 0.0994(2) 0.0000 0.0485(3) 0.0160(8) Uani 1 d SD .
O6 O 0.1051(2) 0.5000 0.0534(3) 0.0185(8) Uani 1 d SD .
O7 O 0.3168(2) 0.2939(4) 0.1716(2) 0.0210(6) Uani 1 d D .
O8 O 0.1741(3) 0.5000 0.2472(3) 0.0215(9) Uani 1 d SD .
O9 O 0.2478(4) 0.3929(8) -0.0075(4) 0.0183(11) Uani 0.50 d PD -1
H91 H 0.2667 0.3330 0.0400 0.061(8) Uiso 0.50 d PD -1
H92 H 0.2360 0.3241 -0.0528 0.061(8) Uiso 0.50 d PD -1
H41 H 0.0240 0.2348 0.1790 0.061(8) Uiso 1 d D .
H42 H -0.0586 0.2506 0.1709 0.061(8) Uiso 1 d D .
H51 H 0.1465 0.0000 0.0369 0.061(8) Uiso 1 d SD .
H52 H 0.1064 0.0000 0.1044 0.061(8) Uiso 1 d SD .
H61 H 0.1274 0.5000 0.1091 0.061(8) Uiso 1 d SD .
H62 H 0.1431 0.5000 0.0262 0.061(8) Uiso 1 d SD .
H71 H 0.2936 0.2287 0.2033 0.061(8) Uiso 1 d D .
H72 H 0.3590 0.2370 0.1652 0.061(8) Uiso 1 d D .
H81 H 0.1795 0.4132 0.2842 0.061(8) Uiso 1 d D .

loop_
_atom_site_aniso_label
_atom_site_aniso_U_11
_atom_site_aniso_U_22
_atom_site_aniso_U_33
_atom_site_aniso_U_23
_atom_site_aniso_U_13
_atom_site_aniso_U_12
Zn1 0.0068(2) 0.0059(2) 0.0082(3) 0.0003(2) 0.0022(2) 0.0006(2)
N1 0.0109(12) 0.0070(14) 0.0091(13) -0.0005(11) 0.0017(10) 0.0004(11)
C1 0.015(2) 0.0097(15) 0.012(2) -0.0017(13) 0.0051(13) 0.0007(13)
C2 0.0104(14) 0.017(2) 0.011(2) -0.0011(14) 0.0052(12) 0.0010(14)
N11 0.007(2) 0.007(2) 0.012(2) 0.000 0.0028(15) 0.000
N12 0.013(2) 0.004(2) 0.014(2) 0.000 0.0044(14) 0.000
N13 0.012(2) 0.013(2) 0.029(3) 0.000 -0.002(2) 0.000
S1 0.0089(5) 0.0081(5) 0.0065(5) 0.000 0.0011(4) 0.000
O1 0.0163(12) 0.0111(12) 0.0081(11) -0.0013(10) -0.0010(9) 0.0041(10)
O2 0.017(2) 0.021(2) 0.018(2) 0.000 0.010(2) 0.000
O3 0.014(2) 0.016(2) 0.009(2) 0.000 -0.0037(14) 0.000
Na1 0.0147(9) 0.0156(10) 0.0120(9) 0.000 0.0024(7) 0.000
O4 0.0149(12) 0.0257(15) 0.0181(13) 0.0032(12) 0.0050(10) 0.0016(11)
O5 0.016(2) 0.018(2) 0.013(2) 0.000 0.0027(15) 0.000
O6 0.015(2) 0.024(2) 0.017(2) 0.000 0.0047(15) 0.000
O7 0.0176(13) 0.029(2) 0.0186(13) 0.0025(12) 0.0077(11) 0.0008(11)
O8 0.033(2) 0.016(2) 0.014(2) 0.000 0.003(2) 0.000
O9 0.017(2) 0.023(3) 0.014(2) -0.003(2) 0.003(2) 0.001(2)

_geom_special_details            
;
All esds (except the esd in the dihedral angle between two l.s. planes)
are estimated using the full covariance matrix. The cell esds are taken
into account individually in the estimation of esds in distances, angles
and torsion angles; correlations between esds in cell parameters are only
used when they are defined by crystal symmetry. An approximate (isotropic)
treatment of cell esds is used for estimating esds involving l.s. planes.
;

loop_
_geom_bond_atom_site_label_1
_geom_bond_atom_site_label_2
_geom_bond_distance
_geom_bond_site_symmetry_2
_geom_bond_publ_flag
Zn1 N11 2.095(2) 7_556 ?
Zn1 N11 2.095(2) . yes
Zn1 O1 2.120(2) . yes
Zn1 O1 2.120(2) 7_556 ?
Zn1 N1 2.201(3) 7_556 ?
Zn1 N1 2.201(3) . yes
N1 C1 1.323(4) . yes
N1 N1 1.352(6) 6 yes
C1 C2 1.401(5) . yes
C1 H1 0.93 . ?
C2 C2 1.357(7) 6 yes
C2 H2 0.93 . ?
N11 N12 1.214(6) . yes
N11 Zn1 2.095(2) 4_546 ?
N12 N13 1.149(6) . yes
S1 O2 1.468(4) . ?
S1 O3 1.477(3) . ?
S1 O1 1.490(3) . ?
S1 O1 1.490(3) 6 ?
Na1 O6 2.397(3) . ?
Na1 O6 2.397(3) 5_565 ?
Na1 O5 2.410(3) 5 ?
Na1 O5 2.410(3) . ?
Na1 O4 2.447(3) . ?
Na1 O4 2.447(3) 2 ?
O4 H41 0.820 . ?
O4 H42 0.817 . ?
O5 Na1 2.410(3) 5 ?
O5 H51 0.823 . ?
O5 H52 0.820 . ?
O6 Na1 2.397(3) 5_565 ?
O6 H61 0.822 . ?
O6 H62 0.821 . ?
O7 H71 0.821 . ?
O7 H72 0.816 . ?
O8 H81 0.818 . ?
O9 H91 0.819 . ?
O9 H92 0.820 . ?

loop_
_geom_angle_atom_site_label_1
_geom_angle_atom_site_label_2
_geom_angle_atom_site_label_3
_geom_angle
_geom_angle_site_symmetry_1
_geom_angle_site_symmetry_3
_geom_angle_publ_flag
N11 Zn1 N11 180.0 7_556 . ?
N11 Zn1 O1 88.25(12) 7_556 . ?
N11 Zn1 O1 91.75(12) . . yes
N11 Zn1 O1 91.75(12) 7_556 7_556 ?
N11 Zn1 O1 88.25(12) . 7_556 ?
O1 Zn1 O1 180.0 . 7_556 ?
N11 Zn1 N1 87.20(12) 7_556 7_556 ?
N11 Zn1 N1 92.80(12) . 7_556 yes
O1 Zn1 N1 89.74(10) . 7_556 ?
O1 Zn1 N1 90.26(10) 7_556 7_556 ?
N11 Zn1 N1 92.80(12) 7_556 . yes
N11 Zn1 N1 87.20(12) . . ?
O1 Zn1 N1 90.26(10) . . yes
O1 Zn1 N1 89.74(10) 7_556 . ?
N1 Zn1 N1 180.0 7_556 . ?
C1 N1 N1 119.4(2) . 6 ?
C1 N1 Zn1 120.9(2) . . ?
N1 N1 Zn1 119.71(7) 6 . ?
N1 C1 C2 123.1(3) . . ?
N1 C1 H1 118.4 . . ?
C2 C1 H1 118.4 . . ?
C2 C2 C1 117.5(2) 6 . ?
C2 C2 H2 121.263 6 . ?
C1 C2 H2 121.3 . . ?
N12 N11 Zn1 119.48(12) . 4_546 ?
N12 N11 Zn1 119.48(12) . . yes
Zn1 N11 Zn1 115.0(2) 4_546 . yes
N13 N12 N11 178.5(5) . . yes
O2 S1 O3 110.7(2) . . ?
O2 S1 O1 110.04(13) . . ?
O3 S1 O1 108.20(13) . . ?
O2 S1 O1 110.04(13) . 6 ?
O3 S1 O1 108.20(13) . 6 ?
O1 S1 O1 109.6(2) . 6 ?
S1 O1 Zn1 133.62(15) . . ?
O6 Na1 O6 88.79(15) . 5_565 ?
O6 Na1 O5 176.46(12) . 5 ?
O6 Na1 O5 94.67(9) 5_565 5 ?
O6 Na1 O5 94.67(9) . . ?
O6 Na1 O5 176.46(12) 5_565 . ?
O5 Na1 O5 81.87(15) 5 . ?
O6 Na1 O4 81.22(12) . . ?
O6 Na1 O4 89.20(12) 5_565 . ?
O5 Na1 O4 98.10(12) 5 . ?
O5 Na1 O4 92.01(12) . . ?
O6 Na1 O4 89.20(12) . 2 ?
O6 Na1 O4 81.22(12) 5_565 2 ?
O5 Na1 O4 92.01(12) 5 2 ?
O5 Na1 O4 98.10(12) . 2 ?
O4 Na1 O4 166.6(2) . 2 ?
H41 O4 H42 106.3 . . ?
Na1 O5 Na1 98.13(15) 5 . ?
H51 O5 H52 109.2 . . ?
Na1 O6 Na1 91.21(15) . 5_565 ?
H61 O6 H62 109.0 . . ?
H71 O7 H72 108.1 . . ?
H91 O9 H92 112.0 . . ?

loop_
_geom_torsion_atom_site_label_1
_geom_torsion_atom_site_label_2
_geom_torsion_atom_site_label_3
_geom_torsion_atom_site_label_4
_geom_torsion
_geom_torsion_site_symmetry_1
_geom_torsion_site_symmetry_2
_geom_torsion_site_symmetry_3
_geom_torsion_site_symmetry_4
_geom_torsion_publ_flag
N11 Zn1 N1 C1 -21.1(3) 7_556 . . . ?
N11 Zn1 N1 C1 158.9(3) . . . . ?
O1 Zn1 N1 C1 -109.3(3) . . . . ?
O1 Zn1 N1 C1 70.7(3) 7_556 . . . ?
N11 Zn1 N1 N1 160.8(3) 7_556 . . 6 ?
N11 Zn1 N1 N1 -19.2(3) . . . 6 ?
O1 Zn1 N1 N1 72.5(3) . . . 6 ?
O1 Zn1 N1 N1 -107.5(3) 7_556 . . 6 ?
N1 N1 C1 C2 -1.9(4) 6 . . . ?
Zn1 N1 C1 C2 179.9(2) . . . . ?
N1 C1 C2 C2 1.8(4) . . . 6 ?
O1 Zn1 N11 N12 149.6(4) . . . . ?
O1 Zn1 N11 N12 -30.4(4) 7_556 . . . ?
N1 Zn1 N11 N12 59.7(4) 7_556 . . . ?
N1 Zn1 N11 N12 -120.3(4) . . . . ?
O1 Zn1 N11 Zn1 -58.0(2) . . . 4_546 ?
O1 Zn1 N11 Zn1 122.0(2) 7_556 . . 4_546 ?
N1 Zn1 N11 Zn1 -147.8(2) 7_556 . . 4_546 ?
N1 Zn1 N11 Zn1 32.2(2) . . . 4_546 ?
O2 S1 O1 Zn1 -78.0(2) . . . . ?
O3 S1 O1 Zn1 160.9(2) . . . . ?
O1 S1 O1 Zn1 43.2(3) 6 . . . ?
N11 Zn1 O1 S1 -175.9(2) 7_556 . . . ?
N11 Zn1 O1 S1 4.1(2) . . . . ?
N1 Zn1 O1 S1 96.9(2) 7_556 . . . ?
N1 Zn1 O1 S1 -83.1(2) . . . . ?

_diffrn_measured_fraction_theta_max 1.00
_diffrn_reflns_theta_full        27.00
_diffrn_measured_fraction_theta_full 1.00
_refine_diff_density_max         0.629
_refine_diff_density_min         -0.616
_refine_diff_density_rms         0.108
