
#######################################################################
#
#                 Cambridge Crystallographic Data Centre
#                                CCDC
#
#######################################################################
#
# If this CIF has been generated from an entry in the Cambridge
# Structural Database, then it will include bibliographic, chemical,
# crystal, experimental, refinement or atomic coordinate data resulting
# from the CCDC's data processing and validation procedures.
#
#######################################################################

data_CSD_CIF_LIKSAZ
_audit_creation_date 1995-05-01
_audit_creation_method CSD-ConQuest-V1
_database_code_CSD LIKSAZ
_database_code_depnum_ccdc_archive 'CCDC 1207318'
_database_code_depnum_ccdc_fiz 'CSD 380033'
_chemical_formula_sum 'C2 H4 F1 N1'
_chemical_formula_moiety
;
C2 H3 N1,H1 F1
;
_journal_coden_Cambridge 48
_journal_volume 127
_journal_year 1994
_journal_page_first 1871
_journal_name_full 'Chem.Ber. '
loop_
_publ_author_name
"O.Dunkelberg"
"A.Haas"
"M.F.Klapdor"
"D.Mootz"
"W.Poll"
"E.H.Appelman"
_chemical_name_systematic
;
Acetonitrile hydrofluoric acid
;
_chemical_name_common
;
Teaching Subset: Fundamental Chemistry
;
_cell_volume    171.213
_exptl_crystal_density_diffrn 1.184
_diffrn_ambient_temperature 143
#These two values have been output from a single CSD field.
_refine_ls_R_factor_gt 0.0443
_refine_ls_wR_factor_gt 0.0443
_symmetry_cell_setting monoclinic
_symmetry_space_group_name_H-M 'P 21/m'
_symmetry_Int_Tables_number 11
loop_
_symmetry_equiv_pos_site_id
_symmetry_equiv_pos_as_xyz
1 x,y,z
2 -x,1/2+y,-z
3 -x,-y,-z
4 x,-1/2-y,z
_cell_length_a 4.092(2)
_cell_length_b 5.825(3)
_cell_length_c 7.184(4)
_cell_angle_alpha 90
_cell_angle_beta 90.97(4)
_cell_angle_gamma 90
_cell_formula_units_Z 2
loop_
_atom_type_symbol
_atom_type_radius_bond
C 0.68
H 0.23
F 0.64
N 0.68
loop_
_atom_site_label
_atom_site_type_symbol
_atom_site_fract_x
_atom_site_fract_y
_atom_site_fract_z
N1 N 0.7136(3) 0.25000 0.5102(2)
C1 C 0.8418(3) 0.25000 0.3699(2)
C2 C 1.0020(4) 0.25000 0.1907(2)
H1 H 0.8310(56) 0.25000 0.0939(35)
H2 H 1.1400(39) 0.1139(36) 0.1814(24)
F1 F 0.4224(3) 0.25000 0.8264(2)
H3 H 0.5062(86) 0.25000 0.7173(54)
H2C H 1.1400(39) 0.3861(36) 0.1814(24)
#END
