####################################################################### 
# 
# This file contains crystal structure data downloaded from the 
# Cambridge Structural Database (CSD) hosted by the Cambridge 
# Crystallographic Data Centre (CCDC).
# 
# Full information about CCDC data access policies and citation 
# guidelines are available at http://www.ccdc.cam.ac.uk/access/V1 
# 
# Audit and citation data items may have been added by the CCDC. 
# Please retain this information to preserve the provenance of 
# this file and to allow appropriate attribution of the data. 
# 
#######################################################################

data_LILWAE
#This CIF has been generated from an entry in the Cambridge Structural Database
_database_code_depnum_ccdc_archive 'CCDC 1207408'
_database_code_CSD               LILWAE
loop_
_citation_id
_citation_doi
_citation_year
1 10.1039/j19680000757 1968
_audit_creation_method           'Created from the CSD'
_audit_update_record             
;
2024-07-11 downloaded from the CCDC.
;
_database_code_NBS               668069
_chemical_formula_moiety         '(C40 H88 O8 P4 Zn1)n'
_chemical_name_systematic        
'catena-(bis(\m~2~-Di-t-butylphosphonato)-bis(\m~2~-t-hexylphosphonato)-di-zinc) copolymer'
_chemical_absolute_configuration unk
_diffrn_ambient_temperature      295
_exptl_crystal_density_diffrn    1.03225
#These two values have been output from a single CSD field.
_refine_ls_R_factor_gt           0.25
_refine_ls_wR_factor_gt          0.25
_diffrn_radiation_probe          x-ray
_symmetry_cell_setting           orthorhombic
_symmetry_space_group_name_H-M   'I m m a'
_symmetry_Int_Tables_number      74
_space_group_name_Hall           '-I 2b 2'
loop_
_symmetry_equiv_pos_site_id
_symmetry_equiv_pos_as_xyz
1 x,y,z
2 -x,1/2-y,z
3 x,-y,-z
4 -x,1/2+y,-z
5 1/2+x,1/2+y,1/2+z
6 1/2-x,-y,1/2+z
7 1/2+x,1/2-y,1/2-z
8 1/2-x,y,1/2-z
9 -x,-y,-z
10 x,1/2+y,-z
11 -x,y,z
12 x,1/2-y,z
13 1/2-x,1/2-y,1/2-z
14 1/2+x,y,1/2-z
15 1/2-x,1/2+y,1/2+z
16 1/2+x,-y,1/2+z
_cell_length_a                   27.77(4)
_cell_length_b                   9.87(2)
_cell_length_c                   20.81(4)
_cell_angle_alpha                90
_cell_angle_beta                 90
_cell_angle_gamma                90
_cell_volume                     5703.81
_cell_formula_units_Z            4
_exptl_crystal_preparation       'observed fiber period (b=9.9A)'
loop_
_atom_site_label
_atom_site_type_symbol
_atom_site_fract_x
_atom_site_fract_y
_atom_site_fract_z
Zn1 Zn 0.000 -0.070 0.330
P1 P 0.083 -0.250 0.267
P2 P 0.000 -0.250 0.458
P3 P 0.000 0.250 0.288
O1 O 0.064 -0.135 0.306
O2 O 0.048 -0.135 0.269
O3 O 0.016 -0.135 0.416
O4 O 0.000 0.128 0.330
C1 C 0.091 -0.199 0.184
C2 C 0.140 -0.199 0.299
C3 C 0.050 -0.199 0.508
C4 C 0.053 0.250 0.238
O1 O 0.064 -0.365 0.306
O2 O 0.048 -0.365 0.269
C1 C 0.091 -0.301 0.184
C2 C 0.140 -0.301 0.299
O3 O -0.016 -0.365 0.416
C3 C -0.050 -0.301 0.508
O3 O -0.016 -0.135 0.416
C3 C -0.050 -0.199 0.508
O3 O 0.016 -0.365 0.416
C3 C 0.050 -0.301 0.508
O4 O 0.000 0.372 0.330
C4 C -0.053 0.250 0.238
Zn1 Zn 0.000 -0.430 0.330
P1 P -0.083 -0.250 0.267
O1 O -0.064 -0.365 0.306
O2 O -0.048 -0.365 0.269
C1 C -0.091 -0.301 0.184
C2 C -0.140 -0.301 0.299
O1 O -0.064 -0.135 0.306
O2 O -0.048 -0.135 0.269
C1 C -0.091 -0.199 0.184
C2 C -0.140 -0.199 0.299
Zn1 Zn 0.000 0.570 0.330
O4 O 0.000 -0.628 0.330

#END
