
#######################################################################
#
#                 Cambridge Crystallographic Data Centre
#                                CCDC
#
#######################################################################
#
# If this CIF has been generated from an entry in the Cambridge
# Structural Database, then it will include bibliographic, chemical,
# crystal, experimental, refinement or atomic coordinate data resulting
# from the CCDC's data processing and validation procedures.
#
#######################################################################

data_CSD_CIF_LINOLA
_audit_creation_date 1979-10-24
_audit_creation_method CSD-ConQuest-V1
_database_code_CSD LINOLA
_database_code_depnum_ccdc_archive 'CCDC 1207562'
_chemical_formula_sum 'C18 H32 O2'
_chemical_formula_moiety
;
C18 H32 O2
;
_journal_coden_Cambridge 644
_journal_volume 34
_journal_year 1979
_journal_page_first 706
_journal_name_full 'Z.Naturforsch.,B:Chem.Sci. '
loop_
_publ_author_name
"J.Ernst"
"W.S.Sheldrick"
"J.-H.Fuhrhop"
_chemical_name_systematic
;
Linoleic acid
;
_chemical_name_common
;
PDB Chemical Component code: EIC; DrugBank: DB14104; Teaching Subset: 
Essential Nutrients
;
_chemical_melting_point 267
_cell_volume   1761.029
_exptl_crystal_density_diffrn 1.06
_diffrn_ambient_temperature 163
#These two values have been output from a single CSD field.
_refine_ls_R_factor_gt 0.075
_refine_ls_wR_factor_gt 0.075
_symmetry_cell_setting monoclinic
_symmetry_space_group_name_H-M 'P 21/c'
_symmetry_Int_Tables_number 14
loop_
_symmetry_equiv_pos_site_id
_symmetry_equiv_pos_as_xyz
1 x,y,z
2 -x,1/2+y,1/2-z
3 -x,-y,-z
4 x,-1/2-y,-1/2+z
_cell_length_a 42.98(3)
_cell_length_b 4.632(3)
_cell_length_c 9.377(6)
_cell_angle_alpha 90
_cell_angle_beta 109.38(8)
_cell_angle_gamma 90
_cell_formula_units_Z 4
loop_
_atom_type_symbol
_atom_type_radius_bond
C 0.68
O 0.68
loop_
_atom_site_label
_atom_site_type_symbol
_atom_site_fract_x
_atom_site_fract_y
_atom_site_fract_z
O1 O 0.03670 -0.07940 0.98210
O2 O 0.00420 0.29780 0.88720
C1 C 0.03090 0.15120 0.91140
C2 C 0.05490 0.28640 0.84480
C3 C 0.08090 0.08100 0.82060
C4 C 0.10690 0.25520 0.77860
C5 C 0.13260 0.06440 0.74720
C6 C 0.15850 0.24260 0.70640
C7 C 0.18500 0.06270 0.67480
C8 C 0.21000 0.24480 0.63220
C9 C 0.23570 0.06420 0.59450
C10 C 0.26800 0.06790 0.66440
C11 C 0.28720 0.25840 0.79390
C12 C 0.30670 0.06400 0.92430
C13 C 0.33870 0.06100 0.99570
C14 C 0.36370 0.24500 0.95650
C15 C 0.38930 0.04910 0.91850
C16 C 0.41630 0.23170 0.88780
C17 C 0.44160 0.03690 0.84880
C18 C 0.46950 0.21100 0.82200
#END
