
#######################################################################
#
#                 Cambridge Crystallographic Data Centre
#                                CCDC
#
#######################################################################
#
# If this CIF has been generated from an entry in the Cambridge
# Structural Database, then it will include bibliographic, chemical,
# crystal, experimental, refinement or atomic coordinate data resulting
# from the CCDC's data processing and validation procedures.
#
#######################################################################

data_CSD_CIF_LIPXIR
_audit_creation_date 2000-06-13
_audit_creation_method CSD-ConQuest-V1
_database_code_CSD LIPXIR
_database_code_depnum_ccdc_archive 'CCDC 134765'
_chemical_formula_sum 'C25 H24 N2 O4 S1'
_chemical_formula_moiety
;
C12 H10 O4 S1,C13 H14 N2
;
_journal_coeditor_code "IUCr CF0004"
_journal_coden_Cambridge 622
_journal_volume 55
_journal_year 1999
_journal_page_first 573
_journal_name_full 'Acta Crystallogr.,Sect.B:Struct.Sci. '
loop_
_publ_author_name
"G.Ferguson"
"C.Glidewell"
"R.M.Gregson"
"E.S.Lavender"
_chemical_name_systematic
;
4,4'-Sulfonyldiphenol 4,4'-trimethylenedipyridine
;
_chemical_name_common
;
Teaching Subset: Fundamental Chemistry
;
_cell_volume   2261.896
_exptl_crystal_colour 'colorless'
_exptl_crystal_density_diffrn 1.317
_exptl_crystal_description 'block cut from larger piece'
_diffrn_ambient_temperature 150
#These two values have been output from a single CSD field.
_refine_ls_R_factor_gt 0.0405
_refine_ls_wR_factor_gt 0.0405
_symmetry_cell_setting monoclinic
_symmetry_space_group_name_H-M 'P 21/c'
_symmetry_Int_Tables_number 14
loop_
_symmetry_equiv_pos_site_id
_symmetry_equiv_pos_as_xyz
1 x,y,z
2 -x,1/2+y,1/2-z
3 -x,-y,-z
4 x,-1/2-y,-1/2+z
_cell_length_a 10.0292(10)
_cell_length_b 15.579(2)
_cell_length_c 15.0208(10)
_cell_angle_alpha 90
_cell_angle_beta 105.4699(10)
_cell_angle_gamma 90
_cell_formula_units_Z 4
loop_
_atom_type_symbol
_atom_type_radius_bond
C 0.68
H 0.23
N 0.68
O 0.68
S 1.02
loop_
_atom_site_label
_atom_site_type_symbol
_atom_site_fract_x
_atom_site_fract_y
_atom_site_fract_z
S1 S 0.23814(4) 0.07748(3) 0.09133(3)
O1 O 0.14797(12) 0.00489(8) 0.08950(9)
O2 O 0.35940(12) 0.08684(8) 0.16790(8)
O3 O -0.08787(12) 0.39407(8) 0.06202(10)
O4 O 0.40552(11) 0.09085(7) -0.25431(7)
C1 C 0.13838(15) 0.17092(10) 0.08364(10)
C2 C -0.00415(15) 0.16806(10) 0.04256(11)
C3 C -0.08130(16) 0.24228(11) 0.03462(12)
C4 C -0.01805(15) 0.31998(10) 0.06644(11)
C5 C 0.12475(15) 0.32275(11) 0.10531(12)
C6 C 0.20157(15) 0.24850(11) 0.11404(10)
C7 C 0.29251(14) 0.07695(9) -0.01041(10)
C8 C 0.19855(15) 0.05628(10) -0.09397(11)
C9 C 0.23872(15) 0.06097(10) -0.17438(11)
C10 C 0.37310(15) 0.08622(9) -0.17296(10)
C11 C 0.46723(15) 0.10506(10) -0.08879(11)
C12 C 0.42692(15) 0.10098(9) -0.00785(11)
H1 H -0.17020 0.38560 0.03770
H2 H 0.48320 0.11130 -0.24610
H3 H -0.04670 0.11630 0.02070
H4 H -0.17620 0.24040 0.00780
H5 H 0.16800 0.37470 0.12530
H6 H 0.29660 0.25050 0.14050
H7 H 0.10910 0.03940 -0.09540
H8 H 0.17600 0.04720 -0.23030
H9 H 0.55750 0.12040 -0.08710
H10 H 0.48960 0.11430 0.04820
N1 N -0.35849(13) 0.38411(9) -0.01309(10)
C13 C -0.45180(16) 0.32954(11) 0.00330(12)
C14 C -0.59206(16) 0.3355(1) -0.03900(12)
C15 C -0.64118(15) 0.40102(9) -0.1015(1)
C16 C -0.54310(15) 0.4570(1) -0.11908(10)
C17 C -0.40596(16) 0.44668(10) -0.07419(11)
N2 N -1.36352(13) 0.18273(9) -0.24115(9)
C18 C -1.38586(16) 0.26732(11) -0.24185(12)
C19 C -1.28353(15) 0.32759(11) -0.23339(11)
C20 C -1.14730(14) 0.30164(10) -0.22194(10)
C21 C -1.12389(15) 0.21389(10) -0.22187(12)
C22 C -1.23335(16) 0.15735(11) -0.23156(12)
C23 C -0.79200(15) 0.41627(10) -0.14664(12)
C24 C -0.88803(14) 0.33905(10) -0.16117(11)
C25 C -1.03420(15) 0.36768(10) -0.21006(12)
H11 H -0.42100 0.28530 0.04530
H12 H -0.65300 0.29570 -0.02550
H13 H -0.57070 0.50140 -0.16130
H14 H -0.34260 0.48520 -0.08690
H15 H -1.47580 0.28640 -0.24840
H16 H -1.30520 0.38570 -0.23530
H17 H -1.03490 0.19310 -0.21530
H18 H -1.21530 0.09880 -0.23140
H19 H -0.79980 0.44240 -0.20640
H20 H -0.82550 0.45780 -0.10960
H21 H -0.88660 0.31350 -0.10200
H22 H -0.85710 0.29620 -0.19810
H23 H -1.05760 0.41580 -0.17600
H24 H -1.03400 0.38870 -0.27080
#END
