####################################################################### 
# 
# This file contains crystal structure data downloaded from the 
# Cambridge Structural Database (CSD) hosted by the Cambridge 
# Crystallographic Data Centre (CCDC).
# 
# Full information about CCDC data access policies and citation 
# guidelines are available at http://www.ccdc.cam.ac.uk/access/V1 
# 
# Audit and citation data items may have been added by the CCDC. 
# Please retain this information to preserve the provenance of 
# this file and to allow appropriate attribution of the data. 
# 
#######################################################################

data_MOF2
_audit_block_doi                 10.5517/ccnnrpq
_database_code_depnum_ccdc_archive 'CCDC 615774'
loop_
_citation_id
_citation_doi
_citation_year
1 10.1016/j.inoche.2006.11.008 2007
_audit_update_record             
;
2006-07-23 deposited with the CCDC.	2024-07-11 downloaded from the CCDC.
;

_audit_creation_method           SHELXTL
_chemical_name_systematic        
;
?
;
_chemical_name_common            ?
_chemical_melting_point          ?
_chemical_formula_moiety         ?
_chemical_formula_sum            'C20 H34 Ag2 N4 O8 S2'
_chemical_formula_weight         738.37

loop_
_atom_type_symbol
_atom_type_description
_atom_type_scat_dispersion_real
_atom_type_scat_dispersion_imag
_atom_type_scat_source
C C 0.0033 0.0016 'International Tables Vol C Tables 4.2.6.8 and 6.1.1.4'
H H 0.0000 0.0000 'International Tables Vol C Tables 4.2.6.8 and 6.1.1.4'
N N 0.0061 0.0033 'International Tables Vol C Tables 4.2.6.8 and 6.1.1.4'
O O 0.0106 0.0060 'International Tables Vol C Tables 4.2.6.8 and 6.1.1.4'
S S 0.1246 0.1234 'International Tables Vol C Tables 4.2.6.8 and 6.1.1.4'
Ag Ag -0.8971 1.1015 'International Tables Vol C Tables 4.2.6.8 and 6.1.1.4'

_symmetry_cell_setting           Rhombohedral
_symmetry_space_group_name_H-M   R-3

loop_
_symmetry_equiv_pos_as_xyz
'x, y, z'
'-y, x-y, z'
'-x+y, -x, z'
'x+2/3, y+1/3, z+1/3'
'-y+2/3, x-y+1/3, z+1/3'
'-x+y+2/3, -x+1/3, z+1/3'
'x+1/3, y+2/3, z+2/3'
'-y+1/3, x-y+2/3, z+2/3'
'-x+y+1/3, -x+2/3, z+2/3'
'-x, -y, -z'
'y, -x+y, -z'
'x-y, x, -z'
'-x+2/3, -y+1/3, -z+1/3'
'y+2/3, -x+y+1/3, -z+1/3'
'x-y+2/3, x+1/3, -z+1/3'
'-x+1/3, -y+2/3, -z+2/3'
'y+1/3, -x+y+2/3, -z+2/3'
'x-y+1/3, x+2/3, -z+2/3'

_cell_length_a                   30.1781(6)
_cell_length_b                   30.1781(6)
_cell_length_c                   9.8743(4)
_cell_angle_alpha                90.00
_cell_angle_beta                 90.00
_cell_angle_gamma                120.00
_cell_volume                     7787.9(4)
_cell_formula_units_Z            9
_cell_measurement_temperature    173(2)
_cell_measurement_reflns_used    5474
_cell_measurement_theta_min      2.20
_cell_measurement_theta_max      28.25

_exptl_crystal_description       block
_exptl_crystal_colour            colorless
_exptl_crystal_size_max          0.35
_exptl_crystal_size_mid          0.24
_exptl_crystal_size_min          0.18
_exptl_crystal_density_meas      ?
_exptl_crystal_density_diffrn    1.417
_exptl_crystal_density_method    'not measured'
_exptl_crystal_F_000             3348
_exptl_absorpt_coefficient_mu    1.291
_exptl_absorpt_correction_type   'empirical psi-scan'
_exptl_absorpt_correction_T_min  0.3517
_exptl_absorpt_correction_T_max  0.5921
_exptl_absorpt_process_details   ?

_exptl_special_details           
;
?
;

_diffrn_ambient_temperature      173(2)
_diffrn_radiation_wavelength     0.71073
_diffrn_radiation_type           MoK\a
_diffrn_radiation_source         'fine-focus sealed tube'
_diffrn_radiation_monochromator  graphite
_diffrn_measurement_device_type  'CCD area detector'
_diffrn_measurement_method       'phi and omega scans'
_diffrn_detector_area_resol_mean ?
_diffrn_standards_number         ?
_diffrn_standards_interval_count ?
_diffrn_standards_interval_time  ?
_diffrn_standards_decay_%        ?
_diffrn_reflns_number            23529
_diffrn_reflns_av_R_equivalents  0.0516
_diffrn_reflns_av_sigmaI/netI    0.0306
_diffrn_reflns_limit_h_min       -39
_diffrn_reflns_limit_h_max       40
_diffrn_reflns_limit_k_min       -38
_diffrn_reflns_limit_k_max       40
_diffrn_reflns_limit_l_min       -13
_diffrn_reflns_limit_l_max       12
_diffrn_reflns_theta_min         1.35
_diffrn_reflns_theta_max         28.29
_reflns_number_total             4206
_reflns_number_gt                3439
_reflns_threshold_expression     >2sigma(I)

_computing_data_collection       'Bruker SMART'
_computing_cell_refinement       'Bruker SMART'
_computing_data_reduction        'Bruker SAINT'
_computing_structure_solution    'Bruker SHELXTL'
_computing_structure_refinement  'Bruker SHELXTL'
_computing_molecular_graphics    'Bruker SHELXTL'
_computing_publication_material  'Bruker SHELXTL'

_refine_special_details          
;
Refinement of F^2^ against ALL reflections. The weighted R-factor wR and
goodness of fit S are based on F^2^, conventional R-factors R are based
on F, with F set to zero for negative F^2^. The threshold expression of
F^2^ > 2sigma(F^2^) is used only for calculating R-factors(gt) etc. and is
not relevant to the choice of reflections for refinement. R-factors based
on F^2^ are statistically about twice as large as those based on F, and R-
factors based on ALL data will be even larger.
;

_refine_ls_structure_factor_coef Fsqd
_refine_ls_matrix_type           full
_refine_ls_weighting_scheme      calc
_refine_ls_weighting_details     
'calc w=1/[\s^2^(Fo^2^)+(0.0540P)^2^+0.0000P] where P=(Fo^2^+2Fc^2^)/3'
_atom_sites_solution_primary     direct
_atom_sites_solution_secondary   difmap
_atom_sites_solution_hydrogens   geom
_refine_ls_hydrogen_treatment    constr
_refine_ls_extinction_method     none
_refine_ls_extinction_coef       ?
_refine_ls_number_reflns         4206
_refine_ls_number_parameters     163
_refine_ls_number_restraints     0
_refine_ls_R_factor_all          0.0349
_refine_ls_R_factor_gt           0.0272
_refine_ls_wR_factor_ref         0.0864
_refine_ls_wR_factor_gt          0.0842
_refine_ls_goodness_of_fit_ref   1.055
_refine_ls_restrained_S_all      1.055
_refine_ls_shift/su_max          0.001
_refine_ls_shift/su_mean         0.000

loop_
_atom_site_label
_atom_site_type_symbol
_atom_site_fract_x
_atom_site_fract_y
_atom_site_fract_z
_atom_site_U_iso_or_equiv
_atom_site_adp_type
_atom_site_occupancy
_atom_site_symmetry_multiplicity
_atom_site_calc_flag
_atom_site_refinement_flags
_atom_site_disorder_assembly
_atom_site_disorder_group
Ag1 Ag 0.302495(7) 0.030159(7) 0.066882(18) 0.02781(8) Uani 1 1 d . . .
S1 S 0.38736(2) 0.06810(2) 0.17669(5) 0.02204(13) Uani 1 1 d . . .
O1 O 0.46926(6) 0.04831(7) 0.26826(15) 0.0278(4) Uani 1 1 d . . .
O2 O 0.24429(7) -0.00846(8) 0.24670(18) 0.0423(5) Uani 1 1 d . . .
O3 O 0.24185(9) -0.03222(9) 0.4549(2) 0.0548(6) Uani 1 1 d . . .
O4 O 0.30156(7) 0.04267(8) 0.3898(2) 0.0436(5) Uani 1 1 d . . .
N1 N 0.49992(8) 0.04095(8) 0.06724(19) 0.0256(4) Uani 1 1 d . . .
N2 N 0.26287(9) 0.00095(9) 0.3651(2) 0.0317(5) Uani 1 1 d . . .
C1 C 0.46433(10) 0.16216(10) 0.2733(3) 0.0324(6) Uani 1 1 d . . .
H1A H 0.4897 0.1597 0.2148 0.039 Uiso 1 1 calc R . .
H1B H 0.4619 0.1443 0.3595 0.039 Uiso 1 1 calc R . .
C2 C 0.48214(13) 0.21863(11) 0.3019(3) 0.0444(7) Uani 1 1 d . . .
H2A H 0.4587 0.2209 0.3680 0.053 Uiso 1 1 calc R . .
H2B H 0.5168 0.2353 0.3424 0.053 Uiso 1 1 calc R . .
C3 C 0.48321(15) 0.24641(12) 0.1736(3) 0.0525(9) Uani 1 1 d . . .
H3A H 0.5090 0.2469 0.1107 0.063 Uiso 1 1 calc R . .
H3B H 0.4933 0.2823 0.1954 0.063 Uiso 1 1 calc R . .
C4 C 0.43102(14) 0.22050(11) 0.1049(3) 0.0469(8) Uani 1 1 d . . .
H4A H 0.4331 0.2386 0.0194 0.056 Uiso 1 1 calc R . .
H4B H 0.4059 0.2228 0.1645 0.056 Uiso 1 1 calc R . .
C5 C 0.41279(12) 0.16432(10) 0.0744(2) 0.0346(6) Uani 1 1 d . . .
H5A H 0.3779 0.1478 0.0356 0.041 Uiso 1 1 calc R . .
H5B H 0.4358 0.1619 0.0069 0.041 Uiso 1 1 calc R . .
C6 C 0.41255(9) 0.13668(9) 0.2036(2) 0.0261(5) Uani 1 1 d . . .
H6 H 0.3884 0.1396 0.2673 0.031 Uiso 1 1 calc R . .
C7 C 0.43380(9) 0.06491(9) 0.0671(2) 0.0242(5) Uani 1 1 d . . .
H7A H 0.4155 0.0393 -0.0048 0.029 Uiso 1 1 calc R . .
H7B H 0.4549 0.0985 0.0228 0.029 Uiso 1 1 calc R . .
C8 C 0.46879(8) 0.05066(9) 0.1433(2) 0.0215(4) Uani 1 1 d . . .
C9 C 0.49939(10) 0.03903(10) -0.0813(2) 0.0267(5) Uani 1 1 d . . .
H9A H 0.5349 0.0579 -0.1160 0.032 Uiso 1 1 calc R . .
H9B H 0.4807 0.0557 -0.1172 0.032 Uiso 1 1 calc R . .
C10 C 0.52639(9) 0.01613(10) 0.1292(2) 0.0271(5) Uani 1 1 d . . .
H10A H 0.5245 0.0173 0.2291 0.033 Uiso 1 1 calc R . .
H10B H 0.5629 0.0343 0.1022 0.033 Uiso 1 1 calc R . .

loop_
_atom_site_aniso_label
_atom_site_aniso_U_11
_atom_site_aniso_U_22
_atom_site_aniso_U_33
_atom_site_aniso_U_23
_atom_site_aniso_U_13
_atom_site_aniso_U_12
Ag1 0.02877(12) 0.03138(12) 0.02235(11) 0.00090(7) -0.00372(7) 0.01433(9)
S1 0.0240(3) 0.0264(3) 0.0185(3) -0.0012(2) 0.0002(2) 0.0147(2)
O1 0.0273(9) 0.0400(10) 0.0198(8) -0.0037(7) -0.0022(6) 0.0197(8)
O2 0.0355(11) 0.0491(12) 0.0255(9) -0.0001(8) 0.0022(8) 0.0086(9)
O3 0.0664(16) 0.0505(13) 0.0337(11) 0.0138(10) 0.0105(10) 0.0189(12)
O4 0.0346(11) 0.0423(12) 0.0396(11) -0.0132(9) 0.0036(8) 0.0086(10)
N1 0.0300(11) 0.0367(12) 0.0173(9) -0.0018(8) -0.0003(8) 0.0219(10)
N2 0.0386(13) 0.0342(12) 0.0243(10) -0.0031(9) 0.0047(9) 0.0196(11)
C1 0.0345(14) 0.0286(13) 0.0320(13) -0.0021(10) -0.0060(11) 0.0142(11)
C2 0.0527(19) 0.0307(15) 0.0424(16) -0.0091(12) -0.0075(13) 0.0152(14)
C3 0.081(3) 0.0269(15) 0.0432(16) 0.0012(12) 0.0074(16) 0.0224(16)
C4 0.081(2) 0.0386(16) 0.0347(15) 0.0010(12) -0.0022(15) 0.0400(17)
C5 0.0523(17) 0.0349(14) 0.0242(12) -0.0024(10) -0.0043(11) 0.0276(13)
C6 0.0327(13) 0.0257(12) 0.0232(11) -0.0039(9) 0.0010(9) 0.0171(10)
C7 0.0287(12) 0.0290(12) 0.0196(10) -0.0013(9) 0.0025(9) 0.0179(10)
C8 0.0207(11) 0.0210(11) 0.0201(10) -0.0023(8) -0.0002(8) 0.0084(9)
C9 0.0314(13) 0.0393(14) 0.0176(10) 0.0010(9) 0.0023(9) 0.0237(11)
C10 0.0257(12) 0.0430(15) 0.0207(11) -0.0023(10) -0.0020(9) 0.0232(11)

_geom_special_details            
;
All esds (except the esd in the dihedral angle between two l.s. planes)
are estimated using the full covariance matrix. The cell esds are taken
into account individually in the estimation of esds in distances, angles
and torsion angles; correlations between esds in cell parameters are only
used when they are defined by crystal symmetry. An approximate (isotropic)
treatment of cell esds is used for estimating esds involving l.s. planes.
;

loop_
_geom_bond_atom_site_label_1
_geom_bond_atom_site_label_2
_geom_bond_distance
_geom_bond_site_symmetry_2
_geom_bond_publ_flag
Ag1 O2 2.3556(18) . ?
Ag1 O1 2.4283(16) 8_544 ?
Ag1 S1 2.4725(6) . ?
Ag1 S1 2.5332(6) 8_544 ?
S1 C7 1.811(2) . ?
S1 C6 1.832(2) . ?
S1 Ag1 2.5332(6) 6 ?
O1 C8 1.236(3) . ?
O1 Ag1 2.4285(16) 6 ?
O2 N2 1.266(3) . ?
O3 N2 1.247(3) . ?
O4 N2 1.240(3) . ?
N1 C8 1.345(3) . ?
N1 C9 1.467(3) . ?
N1 C10 1.473(3) . ?
C1 C6 1.518(3) . ?
C1 C2 1.535(4) . ?
C2 C3 1.511(4) . ?
C3 C4 1.523(5) . ?
C4 C5 1.528(4) . ?
C5 C6 1.523(3) . ?
C7 C8 1.523(3) . ?
C9 C10 1.518(4) 10_655 ?
C10 C9 1.518(4) 10_655 ?

loop_
_geom_angle_atom_site_label_1
_geom_angle_atom_site_label_2
_geom_angle_atom_site_label_3
_geom_angle
_geom_angle_site_symmetry_1
_geom_angle_site_symmetry_3
_geom_angle_publ_flag
O2 Ag1 O1 112.54(7) . 8_544 ?
O2 Ag1 S1 104.01(5) . . ?
O1 Ag1 S1 116.68(5) 8_544 . ?
O2 Ag1 S1 111.80(5) . 8_544 ?
O1 Ag1 S1 73.21(4) 8_544 8_544 ?
S1 Ag1 S1 135.25(2) . 8_544 ?
C7 S1 C6 104.58(11) . . ?
C7 S1 Ag1 111.30(8) . . ?
C6 S1 Ag1 109.60(8) . . ?
C7 S1 Ag1 105.01(8) . 6 ?
C6 S1 Ag1 107.17(8) . 6 ?
Ag1 S1 Ag1 118.24(2) . 6 ?
C8 O1 Ag1 120.77(15) . 6 ?
N2 O2 Ag1 116.63(15) . . ?
C8 N1 C9 124.9(2) . . ?
C8 N1 C10 119.62(19) . . ?
C9 N1 C10 113.13(18) . . ?
O4 N2 O3 121.2(2) . . ?
O4 N2 O2 119.7(2) . . ?
O3 N2 O2 119.1(2) . . ?
C6 C1 C2 110.3(2) . . ?
C3 C2 C1 111.1(2) . . ?
C2 C3 C4 111.0(3) . . ?
C3 C4 C5 111.3(3) . . ?
C6 C5 C4 110.1(2) . . ?
C1 C6 C5 112.4(2) . . ?
C1 C6 S1 112.25(17) . . ?
C5 C6 S1 112.49(16) . . ?
C8 C7 S1 112.56(15) . . ?
O1 C8 N1 121.0(2) . . ?
O1 C8 C7 122.6(2) . . ?
N1 C8 C7 116.35(19) . . ?
N1 C9 C10 110.1(2) . 10_655 ?
N1 C10 C9 108.50(19) . 10_655 ?

_diffrn_measured_fraction_theta_max 0.975
_diffrn_reflns_theta_full        28.29
_diffrn_measured_fraction_theta_full 0.975
_refine_diff_density_max         0.498
_refine_diff_density_min         -0.540
_refine_diff_density_rms         0.105
