####################################################################### 
# 
# This file contains crystal structure data downloaded from the 
# Cambridge Structural Database (CSD) hosted by the Cambridge 
# Crystallographic Data Centre (CCDC).
# 
# Full information about CCDC data access policies and citation 
# guidelines are available at http://www.ccdc.cam.ac.uk/access/V1 
# 
# Audit and citation data items may have been added by the CCDC. 
# Please retain this information to preserve the provenance of 
# this file and to allow appropriate attribution of the data. 
# 
#######################################################################

data_l
_audit_block_doi                 10.5517/ccpkjb2
_database_code_depnum_ccdc_archive 'CCDC 642454'
loop_
_citation_id
_citation_doi
_citation_year
1 10.1016/j.inoche.2007.08.009 2007
_audit_update_record             
;
2007-04-01 deposited with the CCDC.	2024-07-11 downloaded from the CCDC.
;

_audit_creation_method           SHELXL-97
_chemical_name_systematic        
;
?
;
_chemical_name_common            ?
_chemical_melting_point          ?
_chemical_formula_moiety         ?
_chemical_formula_sum            'C10 H8 Cu N2 O32 P W9 '
_chemical_formula_weight         2417.26

loop_
_atom_type_symbol
_atom_type_description
_atom_type_scat_dispersion_real
_atom_type_scat_dispersion_imag
_atom_type_scat_source
C C 0.0033 0.0016 'International Tables Vol C Tables 4.2.6.8 and 6.1.1.4'
N N 0.0061 0.0033 'International Tables Vol C Tables 4.2.6.8 and 6.1.1.4'
O O 0.0106 0.0060 'International Tables Vol C Tables 4.2.6.8 and 6.1.1.4'
P P 0.1023 0.0942 'International Tables Vol C Tables 4.2.6.8 and 6.1.1.4'
Cu Cu 0.3201 1.2651 'International Tables Vol C Tables 4.2.6.8 and 6.1.1.4'
W W -0.8490 6.8722 'International Tables Vol C Tables 4.2.6.8 and 6.1.1.4'
H H 0.0000 0.0000 'International Tables Vol C Tables 4.2.6.8 and 6.1.1.4'

_symmetry_cell_setting           Orthorhombic
_symmetry_space_group_name_H-M   'Cmma '

loop_
_symmetry_equiv_pos_as_xyz
'x, y, z'
'-x, -y+1/2, z'
'x, -y, -z'
'-x+1/2, y, -z'
'x+1/2, y+1/2, z'
'-x+1/2, -y+1, z'
'x+1/2, -y+1/2, -z'
'-x+1, y+1/2, -z'
'-x, -y, -z'
'x, y-1/2, -z'
'-x, y, z'
'x-1/2, -y, z'
'-x+1/2, -y+1/2, -z'
'x+1/2, y, -z'
'-x+1/2, y+1/2, z'
'x, -y+1/2, z'

_cell_length_a                   19.840(5)
_cell_length_b                   21.933(5)
_cell_length_c                   21.739(5)
_cell_angle_alpha                90.000(5)
_cell_angle_beta                 90.000(5)
_cell_angle_gamma                90.000(5)
_cell_volume                     9460(4)
_cell_formula_units_Z            8
_cell_measurement_temperature    293(2)
_cell_measurement_reflns_used    0
_cell_measurement_theta_min      3.11
_cell_measurement_theta_max      24.71

_exptl_crystal_description       block
_exptl_crystal_colour            brown
_exptl_crystal_size_max          0
_exptl_crystal_size_mid          0
_exptl_crystal_size_min          0
_exptl_crystal_density_meas      ?
_exptl_crystal_density_diffrn    3.395
_exptl_crystal_density_method    'not measured'
_exptl_crystal_F_000             7555
_exptl_absorpt_coefficient_mu    22.293
_exptl_absorpt_correction_type   none
_exptl_absorpt_correction_T_min  0
_exptl_absorpt_correction_T_max  0
_exptl_absorpt_process_details   ?

_exptl_special_details           
;
?
;

_diffrn_ambient_temperature      293(2)
_diffrn_radiation_wavelength     0.71069
_diffrn_radiation_type           MoK\a
_diffrn_radiation_source         'fine-focus sealed tube'
_diffrn_radiation_monochromator  graphite
_diffrn_measurement_device_type  'Bruker P4'
_diffrn_measurement_method       '\w scans'
_diffrn_detector_area_resol_mean ?
_diffrn_standards_number         ?
_diffrn_standards_interval_count ?
_diffrn_standards_interval_time  ?
_diffrn_standards_decay_%        none
_diffrn_reflns_number            34531
_diffrn_reflns_av_R_equivalents  0.1627
_diffrn_reflns_av_sigmaI/netI    0.0789
_diffrn_reflns_limit_h_min       -23
_diffrn_reflns_limit_h_max       23
_diffrn_reflns_limit_k_min       -25
_diffrn_reflns_limit_k_max       25
_diffrn_reflns_limit_l_min       -25
_diffrn_reflns_limit_l_max       25
_diffrn_reflns_theta_min         3.11
_diffrn_reflns_theta_max         24.71
_reflns_number_total             4234
_reflns_number_gt                2645
_reflns_threshold_expression     >2sigma(I)

_computing_data_collection       'Bruker XSCANS'
_computing_cell_refinement       'Bruker XSCANS'
_computing_data_reduction        'Bruker SHELXTL'
_computing_structure_solution    'SHELXS-97 (Sheldrick, 1990)'
_computing_structure_refinement  'SHELXL-97 (Sheldrick, 1997)'
_computing_molecular_graphics    'Bruker SHELXTL'
_computing_publication_material  'Bruker SHELXTL'

_refine_special_details          
;
Refinement of F^2^ against ALL reflections. The weighted R-factor wR and
goodness of fit S are based on F^2^, conventional R-factors R are based
on F, with F set to zero for negative F^2^. The threshold expression of
F^2^ > 2sigma(F^2^) is used only for calculating R-factors(gt) etc. and is
not relevant to the choice of reflections for refinement. R-factors based
on F^2^ are statistically about twice as large as those based on F, and R-
factors based on ALL data will be even larger.
;

_refine_ls_structure_factor_coef Fsqd
_refine_ls_matrix_type           full
_refine_ls_weighting_scheme      calc
_refine_ls_weighting_details     
'calc w=1/[\s^2^(Fo^2^)+(0.1528P)^2^+6457.3789P] where P=(Fo^2^+2Fc^2^)/3'
_atom_sites_solution_primary     direct
_atom_sites_solution_secondary   difmap
_atom_sites_solution_hydrogens   geom
_refine_ls_hydrogen_treatment    refal
_refine_ls_extinction_method     none
_refine_ls_extinction_coef       ?
_refine_ls_number_reflns         4234
_refine_ls_number_parameters     269
_refine_ls_number_restraints     0
_refine_ls_R_factor_all          0.1232
_refine_ls_R_factor_gt           0.0754
_refine_ls_wR_factor_ref         0.2330
_refine_ls_wR_factor_gt          0.1931
_refine_ls_goodness_of_fit_ref   0.633
_refine_ls_restrained_S_all      0.633
_refine_ls_shift/su_max          0.093
_refine_ls_shift/su_mean         0.005

loop_
_atom_site_label
_atom_site_type_symbol
_atom_site_fract_x
_atom_site_fract_y
_atom_site_fract_z
_atom_site_U_iso_or_equiv
_atom_site_adp_type
_atom_site_occupancy
_atom_site_symmetry_multiplicity
_atom_site_calc_flag
_atom_site_refinement_flags
_atom_site_disorder_assembly
_atom_site_disorder_group
W1 W 0.09423(6) 0.09064(6) 0.27531(6) 0.0384(4) Uani 1 1 d . . .
W2 W 0.09443(7) 0.16613(6) 0.40917(6) 0.0428(4) Uani 1 1 d . . .
W3 W 0.24660(11) 0.2500 0.36100(11) 0.0555(6) Uani 1 2 d S . .
W4 W 0.09431(8) 0.17377(6) 0.12870(6) 0.0477(4) Uani 1 1 d . . .
W5 W 0.24753(8) 0.17348(7) 0.22531(8) 0.0534(4) Uani 1 1 d . . .
Cu1 Cu 0.2500 0.0000 0.2507(2) 0.0575(17) Uani 1 2 d S . .
P1 P 0.0997(6) 0.2500 0.2705(5) 0.039(3) Uani 1 2 d S . .
O1 O 0.0763(12) 0.2500 0.2048(10) 0.024(6) Uani 1 2 d S . .
O20 O 0.0000 0.0863(13) 0.2866(13) 0.035(7) Uani 1 2 d S . .
O19 O 0.0784(9) 0.1946(10) 0.3030(8) 0.035(5) Uani 1 1 d . . .
O18 O 0.0000 0.1858(19) 0.1176(18) 0.067(10) Uani 1 2 d S . .
O17 O 0.3052(19) 0.2500 0.4160(18) 0.083(14) Uani 1 2 d S . .
O16 O 0.3089(12) 0.1260(10) 0.1983(13) 0.064(7) Uani 1 1 d . . .
O15 O 0.0769(10) 0.1205(11) 0.1957(9) 0.044(6) Uani 1 1 d . . .
O14 O 0.1818(12) 0.1916(10) 0.3881(11) 0.052(6) Uani 1 1 d . . .
O13 O 0.1101(14) 0.1383(12) 0.4805(10) 0.064(7) Uani 1 1 d . . .
N1 N 0.2500 0.0000 0.3358(14) 0.046(10) Uani 1 2 d S . .
O12 O 0.0000 0.1547(13) 0.4077(12) 0.042(7) Uani 1 2 d S . .
O11 O 0.2836(14) 0.2500 0.1958(14) 0.049(8) Uani 1 2 d S . .
O10 O 0.1845(12) 0.1780(10) 0.1604(10) 0.048(6) Uani 1 1 d . . .
O9 O 0.0775(13) 0.2500 0.4254(11) 0.029(6) Uani 1 2 d S . .
O8 O 0.1091(15) 0.2500 0.0878(14) 0.045(8) Uani 1 2 d S . .
O7 O 0.1087(13) 0.1256(12) 0.0662(10) 0.060(7) Uani 1 1 d . . .
O6 O 0.1068(10) 0.0936(10) 0.3619(8) 0.039(5) Uani 1 1 d . . .
O5 O 0.1836(11) 0.1207(10) 0.2608(9) 0.045(6) Uani 1 1 d . . .
O4 O 0.1769(15) 0.2500 0.2725(12) 0.037(7) Uani 1 2 d S . .
N2 N 0.2500 0.0000 0.1651(15) 0.041(9) Uani 1 2 d S . .
O3 O 0.1102(10) 0.0152(11) 0.2599(11) 0.051(6) Uani 1 1 d . . .
O2 O 0.2837(11) 0.1888(13) 0.3061(13) 0.068(8) Uani 1 1 d . . .
C1 C 0.3031(17) 0.001(2) 0.1319(14) 0.058(10) Uani 1 1 d . . .
H1A H 0.3441 0.0043 0.1522 0.070 Uiso 1 1 calc R . .
C3 C 0.2500 0.0000 0.036(2) 0.043(11) Uani 1 2 d S . .
C5 C 0.263(2) 0.0532(16) 0.4311(15) 0.055(10) Uani 1 1 d . . .
H5A H 0.2721 0.0899 0.4508 0.066 Uiso 1 1 calc R . .
C6 C 0.2500 0.0000 0.4660(18) 0.046(12) Uani 1 2 d S . .
C2 C 0.3051(19) -0.003(2) 0.0672(15) 0.067(11) Uani 1 1 d . . .
H2A H 0.3462 -0.0069 0.0471 0.080 Uiso 1 1 calc R . .
C4 C 0.262(2) 0.0504(19) 0.3718(19) 0.077(14) Uani 1 1 d . . .
H4A H 0.2715 0.0865 0.3510 0.093 Uiso 1 1 calc R . .
O1W O 0.0000 0.875(3) 0.3383(18) 0.116(19) Uani 1 2 d S . .

loop_
_atom_site_aniso_label
_atom_site_aniso_U_11
_atom_site_aniso_U_22
_atom_site_aniso_U_33
_atom_site_aniso_U_23
_atom_site_aniso_U_13
_atom_site_aniso_U_12
W1 0.0408(7) 0.0372(7) 0.0372(7) -0.0006(5) 0.0019(6) 0.0022(5)
W2 0.0550(8) 0.0416(8) 0.0319(7) 0.0038(5) -0.0096(6) 0.0029(6)
W3 0.0428(11) 0.0561(13) 0.0676(14) 0.000 -0.0152(10) 0.000
W4 0.0669(10) 0.0440(8) 0.0323(7) -0.0026(6) 0.0127(6) 0.0031(7)
W5 0.0406(7) 0.0465(9) 0.0732(11) -0.0009(7) 0.0150(7) 0.0035(6)
Cu1 0.083(4) 0.072(4) 0.018(3) 0.000 0.000 0.012(4)
P1 0.039(6) 0.038(6) 0.040(6) 0.000 0.012(5) 0.000
O1 0.028(13) 0.030(14) 0.016(12) 0.000 0.024(10) 0.000
O20 0.032(15) 0.038(17) 0.034(16) 0.005(13) 0.000 0.000
O19 0.037(11) 0.049(12) 0.020(9) 0.015(9) -0.016(8) 0.020(9)
O18 0.06(2) 0.08(3) 0.06(2) 0.02(2) 0.000 0.000
O17 0.05(2) 0.14(4) 0.06(2) 0.000 -0.020(19) 0.000
O16 0.059(15) 0.030(13) 0.10(2) -0.019(13) 0.021(14) 0.023(11)
O15 0.034(11) 0.066(15) 0.031(11) -0.010(10) 0.006(9) 0.029(10)
O14 0.058(14) 0.035(13) 0.063(15) 0.004(11) 0.005(12) -0.005(11)
O13 0.095(19) 0.061(16) 0.035(13) 0.023(12) -0.023(12) -0.011(15)
N1 0.04(2) 0.09(3) 0.009(15) 0.000 0.000 -0.02(2)
O12 0.08(2) 0.033(17) 0.018(14) -0.003(12) 0.000 0.000
O11 0.030(16) 0.08(2) 0.041(18) 0.000 0.027(14) 0.000
O10 0.058(14) 0.045(14) 0.040(13) -0.008(11) 0.019(11) -0.002(11)
O9 0.045(16) 0.030(14) 0.012(12) 0.000 0.010(11) 0.000
O8 0.049(18) 0.042(18) 0.044(18) 0.000 0.013(14) 0.000
O7 0.077(17) 0.067(17) 0.036(13) 0.011(12) 0.017(12) 0.010(14)
O6 0.043(12) 0.050(13) 0.024(10) -0.001(9) -0.004(9) 0.010(10)
O5 0.053(13) 0.043(13) 0.039(12) 0.008(10) 0.016(10) 0.017(10)
O4 0.045(16) 0.037(17) 0.029(15) 0.000 -0.017(13) 0.000
N2 0.06(2) 0.05(2) 0.016(16) 0.000 0.000 0.007(19)
O3 0.025(10) 0.058(16) 0.070(16) -0.003(12) 0.009(10) -0.005(10)
O2 0.029(12) 0.078(18) 0.10(2) 0.020(16) -0.004(12) 0.040(12)
C1 0.045(18) 0.10(3) 0.030(17) 0.03(2) -0.001(14) -0.01(2)
C3 0.04(2) 0.04(2) 0.05(3) 0.000 0.000 0.01(2)
C5 0.09(3) 0.04(2) 0.033(18) -0.008(16) 0.007(17) -0.019(19)
C6 0.04(2) 0.07(3) 0.03(2) 0.000 0.000 0.04(2)
C2 0.06(2) 0.11(3) 0.030(17) -0.01(2) 0.023(16) -0.02(2)
C4 0.10(3) 0.06(3) 0.07(3) 0.04(2) -0.04(3) 0.01(2)
O1W 0.14(5) 0.17(6) 0.03(2) -0.02(3) 0.000 0.000

_geom_special_details            
;
All esds (except the esd in the dihedral angle between two l.s. planes)
are estimated using the full covariance matrix. The cell esds are taken
into account individually in the estimation of esds in distances, angles
and torsion angles; correlations between esds in cell parameters are only
used when they are defined by crystal symmetry. An approximate (isotropic)
treatment of cell esds is used for estimating esds involving l.s. planes.
;

loop_
_geom_bond_atom_site_label_1
_geom_bond_atom_site_label_2
_geom_bond_distance
_geom_bond_site_symmetry_2
_geom_bond_publ_flag
W1 O3 1.72(2) . ?
W1 O15 1.88(2) . ?
W1 O20 1.888(4) . ?
W1 O6 1.899(18) . ?
W1 O5 1.92(2) . ?
W1 O19 2.38(2) . ?
W2 O13 1.69(2) . ?
W2 O14 1.88(2) . ?
W2 O12 1.890(4) . ?
W2 O9 1.903(6) . ?
W2 O6 1.91(2) . ?
W2 O19 2.411(16) . ?
W3 O17 1.67(3) . ?
W3 O14 1.91(2) 16 ?
W3 O14 1.91(2) . ?
W3 O2 1.94(3) 16 ?
W3 O2 1.94(3) . ?
W3 O4 2.37(3) . ?
W4 O7 1.74(2) . ?
W4 O18 1.905(7) . ?
W4 O15 1.90(2) . ?
W4 O8 1.916(14) . ?
W4 O10 1.92(2) . ?
W4 O1 2.379(15) . ?
W5 O16 1.71(2) . ?
W5 O5 1.88(2) . ?
W5 O10 1.89(2) . ?
W5 O2 1.93(3) . ?
W5 O11 1.934(13) . ?
W5 O4 2.42(2) . ?
Cu1 N1 1.85(3) . ?
Cu1 N2 1.86(3) . ?
P1 O19 1.47(2) 16 ?
P1 O19 1.47(2) . ?
P1 O1 1.50(3) . ?
P1 O4 1.53(3) . ?
O1 W4 2.379(15) 16 ?
O20 W1 1.888(4) 11 ?
O18 W4 1.905(7) 11 ?
N1 C4 1.38(5) . ?
N1 C4 1.38(5) 6_545 ?
O12 W2 1.890(4) 11 ?
O11 W5 1.934(13) 16 ?
O9 W2 1.903(6) 16 ?
O8 W4 1.916(14) 16 ?
O4 W5 2.42(2) 16 ?
N2 C1 1.28(4) 6_545 ?
N2 C1 1.28(4) . ?
C1 C2 1.41(4) . ?
C3 C2 1.29(4) . ?
C3 C2 1.29(4) 6_545 ?
C3 C3 1.56(9) 3 ?
C5 C4 1.29(5) . ?
C5 C6 1.42(4) . ?
C6 C5 1.42(4) 6_545 ?
C6 C6 1.48(8) 3_556 ?

loop_
_geom_angle_atom_site_label_1
_geom_angle_atom_site_label_2
_geom_angle_atom_site_label_3
_geom_angle
_geom_angle_site_symmetry_1
_geom_angle_site_symmetry_3
_geom_angle_publ_flag
O3 W1 O15 101.0(10) . . ?
O3 W1 O20 99.2(11) . . ?
O15 W1 O20 87.4(10) . . ?
O3 W1 O6 101.7(10) . . ?
O15 W1 O6 157.3(9) . . ?
O20 W1 O6 90.2(10) . . ?
O3 W1 O5 97.4(9) . . ?
O15 W1 O5 84.1(9) . . ?
O20 W1 O5 162.5(11) . . ?
O6 W1 O5 91.7(9) . . ?
O3 W1 O19 175.5(9) . . ?
O15 W1 O19 82.8(8) . . ?
O20 W1 O19 83.4(10) . . ?
O6 W1 O19 74.5(7) . . ?
O5 W1 O19 80.4(8) . . ?
O13 W2 O14 99.3(12) . . ?
O13 W2 O12 98.6(12) . . ?
O14 W2 O12 161.8(11) . . ?
O13 W2 O9 102.2(12) . . ?
O14 W2 O9 85.4(10) . . ?
O12 W2 O9 87.5(12) . . ?
O13 W2 O6 99.8(11) . . ?
O14 W2 O6 89.9(10) . . ?
O12 W2 O6 90.4(10) . . ?
O9 W2 O6 158.0(9) . . ?
O13 W2 O19 173.1(11) . . ?
O14 W2 O19 79.1(9) . . ?
O12 W2 O19 83.5(9) . . ?
O9 W2 O19 84.4(9) . . ?
O6 W2 O19 73.6(8) . . ?
O17 W3 O14 104.4(13) . 16 ?
O17 W3 O14 104.4(13) . . ?
O14 W3 O14 84.3(14) 16 . ?
O17 W3 O2 100.1(12) . 16 ?
O14 W3 O2 88.9(11) 16 16 ?
O14 W3 O2 155.5(10) . 16 ?
O17 W3 O2 100.1(12) . . ?
O14 W3 O2 155.5(10) 16 . ?
O14 W3 O2 88.9(11) . . ?
O2 W3 O2 87.6(17) 16 . ?
O17 W3 O4 171.5(16) . . ?
O14 W3 O4 81.8(9) 16 . ?
O14 W3 O4 81.8(9) . . ?
O2 W3 O4 73.9(9) 16 . ?
O2 W3 O4 73.9(9) . . ?
O7 W4 O18 98.4(15) . . ?
O7 W4 O15 104.8(10) . . ?
O18 W4 O15 90.2(12) . . ?
O7 W4 O8 98.1(11) . . ?
O18 W4 O8 88.3(15) . . ?
O15 W4 O8 157.0(10) . . ?
O7 W4 O10 99.0(11) . . ?
O18 W4 O10 162.6(14) . . ?
O15 W4 O10 85.7(9) . . ?
O8 W4 O10 88.9(12) . . ?
O7 W4 O1 172.6(9) . . ?
O18 W4 O1 81.0(14) . . ?
O15 W4 O1 82.6(7) . . ?
O8 W4 O1 74.5(8) . . ?
O10 W4 O1 81.8(9) . . ?
O16 W5 O5 104.3(11) . . ?
O16 W5 O10 104.3(12) . . ?
O5 W5 O10 83.8(10) . . ?
O16 W5 O2 98.9(12) . . ?
O5 W5 O2 89.1(11) . . ?
O10 W5 O2 156.7(9) . . ?
O16 W5 O11 98.7(11) . . ?
O5 W5 O11 156.7(9) . . ?
O10 W5 O11 87.2(12) . . ?
O2 W5 O11 90.8(13) . . ?
O16 W5 O4 169.8(11) . . ?
O5 W5 O4 82.1(8) . . ?
O10 W5 O4 84.1(9) . . ?
O2 W5 O4 73.0(9) . . ?
O11 W5 O4 75.7(8) . . ?
N1 Cu1 N2 180.000(3) . . ?
O19 P1 O19 111.7(17) 16 . ?
O19 P1 O1 111.7(10) 16 . ?
O19 P1 O1 111.7(10) . . ?
O19 P1 O4 105.9(10) 16 . ?
O19 P1 O4 105.9(10) . . ?
O1 P1 O4 109.6(15) . . ?
P1 O1 W4 127.9(8) . 16 ?
P1 O1 W4 127.9(8) . . ?
W4 O1 W4 89.3(7) 16 . ?
W1 O20 W1 164.0(16) 11 . ?
P1 O19 W1 129.3(11) . . ?
P1 O19 W2 129.6(12) . . ?
W1 O19 W2 88.7(6) . . ?
W4 O18 W4 158(2) . 11 ?
W1 O15 W4 152.4(13) . . ?
W2 O14 W3 153.8(14) . . ?
C4 N1 C4 111(4) . 6_545 ?
C4 N1 Cu1 124.6(19) . . ?
C4 N1 Cu1 124.6(19) 6_545 . ?
W2 O12 W2 164.6(17) 11 . ?
W5 O11 W5 120.4(13) 16 . ?
W5 O10 W4 152.0(12) . . ?
W2 O9 W2 150.3(14) 16 . ?
W4 O8 W4 121.5(15) 16 . ?
W1 O6 W2 123.0(11) . . ?
W5 O5 W1 154.4(12) . . ?
P1 O4 W3 127.3(17) . . ?
P1 O4 W5 124.6(9) . 16 ?
W3 O4 W5 90.4(8) . 16 ?
P1 O4 W5 124.6(9) . . ?
W3 O4 W5 90.4(8) . . ?
W5 O4 W5 88.0(10) 16 . ?
C1 N2 C1 111(4) 6_545 . ?
C1 N2 Cu1 124.5(19) 6_545 . ?
C1 N2 Cu1 124.5(19) . . ?
W5 O2 W3 122.7(10) . . ?
N2 C1 C2 126(3) . . ?
C2 C3 C2 116(5) . 6_545 ?
C2 C3 C3 122(2) . 3 ?
C2 C3 C3 122(2) 6_545 3 ?
C4 C5 C6 120(4) . . ?
C5 C6 C5 115(4) 6_545 . ?
C5 C6 C6 122.4(19) 6_545 3_556 ?
C5 C6 C6 122.4(19) . 3_556 ?
C3 C2 C1 120(4) . . ?
C5 C4 N1 127(4) . . ?

_diffrn_measured_fraction_theta_max 0.985
_diffrn_reflns_theta_full        24.71
_diffrn_measured_fraction_theta_full 0.985
_refine_diff_density_max         2.972
_refine_diff_density_min         -2.151
_refine_diff_density_rms         0.388


