
#######################################################################
#
#                 Cambridge Crystallographic Data Centre
#                                CCDC
#
#######################################################################
#
# If this CIF has been generated from an entry in the Cambridge
# Structural Database, then it will include bibliographic, chemical,
# crystal, experimental, refinement or atomic coordinate data resulting
# from the CCDC's data processing and validation procedures.
#
#######################################################################

data_CSD_CIF_LISLOO
_audit_creation_date 2000-06-13
_audit_creation_method CSD-ConQuest-V1
_database_code_CSD LISLOO
_database_code_depnum_ccdc_archive 'CCDC 142508'
_database_code_depnum_ccdc_journal 186/1810
_chemical_formula_sum 'C33 H64 Ga2 Mn2 O8 Si6'
_chemical_formula_moiety
;
C28 H54 Ga2 Mn2 O8 Si6,C5 H10
;
_journal_coden_Cambridge 186
_journal_year 2000
_journal_page_first 643
_journal_name_full 'J.Chem.Soc.,Dalton Trans. '
loop_
_publ_author_name
"W.Uhl"
"M.Benter"
"M.Prott"
_chemical_name_systematic
;
bis(tris(Trimethylsilyl)methyl)-octacarbonyl-di-gallium-di-manganese 
cyclopentane solvate
;
_chemical_name_common
;
Teaching Subset: Fundamental Chemistry
;
_chemical_melting_point 478
_cell_volume   4761.494
_exptl_crystal_colour 'orange'
_exptl_crystal_density_diffrn 1.404
_exptl_crystal_description 'needles'
_diffrn_ambient_temperature 193
#These two values have been output from a single CSD field.
_refine_ls_R_factor_gt 0.0521
_refine_ls_wR_factor_gt 0.0521
_symmetry_cell_setting monoclinic
_symmetry_space_group_name_H-M 'P 21/n'
_symmetry_Int_Tables_number 14
loop_
_symmetry_equiv_pos_site_id
_symmetry_equiv_pos_as_xyz
1 x,y,z
2 1/2-x,1/2+y,1/2-z
3 -x,-y,-z
4 -1/2+x,-1/2-y,-1/2+z
_cell_length_a 21.2302(17)
_cell_length_b 9.4767(4)
_cell_length_c 23.7715(18)
_cell_angle_alpha 90
_cell_angle_beta 95.390(9)
_cell_angle_gamma 90
_cell_formula_units_Z 4
loop_
_atom_type_symbol
_atom_type_radius_bond
C 0.68
H 0.23
Ga 1.22
Mn 1.35
O 0.68
Si 1.20
loop_
_atom_site_label
_atom_site_type_symbol
_atom_site_fract_x
_atom_site_fract_y
_atom_site_fract_z
Ga1 Ga 0.50970(4) 0.78633(10) 0.33223(3)
Ga2 Ga 0.34757(4) 0.7403(1) 0.39924(3)
Mn1 Mn 0.44703(5) 0.62137(14) 0.38938(5)
Mn2 Mn 0.42787(5) 0.92665(14) 0.37043(5)
C1 C 0.5800(3) 0.7895(9) 0.2826(3)
Si1 Si 0.56381(12) 0.6593(3) 0.22143(10)
C2 C 0.4933(5) 0.7121(13) 0.1726(4)
H1 H 0.48420 0.63960 0.14480
H2 H 0.50220 0.79880 0.15400
H3 H 0.45750 0.72490 0.19380
C3 C 0.5477(5) 0.4751(11) 0.2431(5)
H4 H 0.51720 0.47590 0.27050
H5 H 0.58630 0.43270 0.25940
H6 H 0.53140 0.42170 0.21060
C4 C 0.6337(6) 0.6459(14) 0.1775(5)
H7 H 0.67240 0.65190 0.20180
H8 H 0.63200 0.72170 0.15070
H9 H 0.63220 0.55730 0.15790
Si2 Si 0.65728(10) 0.7437(3) 0.32823(10)
C5 C 0.6825(5) 0.5555(12) 0.3262(5)
H10 H 0.68160 0.52490 0.28770
H11 H 0.65420 0.49840 0.34580
H12 H 0.72470 0.54640 0.34420
C6 C 0.6509(5) 0.7902(12) 0.4046(4)
H13 H 0.61700 0.73750 0.41850
H14 H 0.64250 0.88930 0.40780
H15 H 0.68990 0.76750 0.42650
C7 C 0.7288(4) 0.8393(13) 0.3070(5)
H16 H 0.76520 0.81230 0.33160
H17 H 0.72230 0.93920 0.30970
H18 H 0.73540 0.81520 0.26880
Si3 Si 0.58271(10) 0.9797(3) 0.25583(10)
C8 C 0.6072(5) 1.1037(11) 0.3157(4)
H19 H 0.64780 1.07570 0.33350
H20 H 0.57650 1.10080 0.34290
H21 H 0.61000 1.19800 0.30140
C9 C 0.6401(5) 1.0088(13) 0.2004(5)
H22 H 0.64550 1.10810 0.19470
H23 H 0.62360 0.96580 0.16550
H24 H 0.68020 0.96700 0.21290
C10 C 0.5046(4) 1.0434(11) 0.2199(4)
H25 H 0.47050 0.99750 0.23650
H26 H 0.50240 1.02140 0.18040
H27 H 0.50130 1.14360 0.22470
C11 C 0.2560(3) 0.7265(9) 0.4117(3)
Si4 Si 0.23472(10) 0.5287(3) 0.40624(10)
C12 C 0.1466(4) 0.4945(12) 0.3949(5)
H28 H 0.13010 0.53420 0.35940
H29 H 0.12610 0.53750 0.42490
H30 H 0.13900 0.39470 0.39470
C13 C 0.2678(4) 0.4391(10) 0.3451(3)
H31 H 0.30950 0.40450 0.35680
H32 H 0.26990 0.50540 0.31480
H33 H 0.24090 0.36170 0.33250
C14 C 0.2647(5) 0.4267(12) 0.4710(4)
H34 H 0.26450 0.32770 0.46240
H35 H 0.23780 0.44410 0.50060
H36 H 0.30710 0.45610 0.48320
Si5 Si 0.24563(11) 0.7927(3) 0.48614(10)
C15 C 0.2219(5) 0.9831(12) 0.4921(5)
H37 H 0.23290 1.01550 0.53000
H38 H 0.17700 0.99190 0.48300
H39 H 0.24360 1.03910 0.46630
C16 C 0.3217(5) 0.7682(14) 0.5318(4)
H40 H 0.35280 0.83330 0.52030
H41 H 0.33660 0.67340 0.52790
H42 H 0.31480 0.78550 0.57050
C17 C 0.1800(5) 0.7020(15) 0.5211(4)
H43 H 0.18810 0.60240 0.52310
H44 H 0.14030 0.71880 0.49940
H45 H 0.17840 0.73880 0.55860
Si6 Si 0.20429(10) 0.8292(3) 0.35536(10)
C18 C 0.2002(4) 0.7397(12) 0.2847(4)
H46 H 0.17520 0.79560 0.25740
H47 H 0.18130 0.64830 0.28740
H48 H 0.24220 0.72950 0.27330
C19 C 0.2322(4) 1.0136(10) 0.3428(4)
H49 H 0.27340 1.01030 0.32940
H50 H 0.23420 1.06600 0.37750
H51 H 0.20310 1.05880 0.31510
C20 C 0.1198(4) 0.8475(13) 0.3735(5)
H52 H 0.11180 0.94380 0.38320
H53 H 0.11320 0.78770 0.40500
H54 H 0.09140 0.82030 0.34160
C21 C 0.4700(4) 0.6846(12) 0.4616(4)
O1 O 0.4823(3) 0.7163(10) 0.5080(3)
C22 C 0.5215(5) 0.5267(12) 0.3887(4)
O2 O 0.5647(3) 0.4561(9) 0.3922(4)
C23 C 0.4137(4) 0.5748(10) 0.3173(4)
O3 O 0.3933(3) 0.5464(9) 0.2725(3)
C24 C 0.4134(4) 0.4640(12) 0.4174(4)
O4 O 0.3978(4) 0.359(1) 0.4348(5)
C25 C 0.4420(5) 1.0992(11) 0.3414(4)
O5 O 0.4474(4) 1.2106(9) 0.3248(3)
C26 C 0.3763(4) 1.0093(10) 0.4172(4)
O6 O 0.3500(3) 1.0766(8) 0.4482(3)
C27 C 0.3810(4) 0.8895(10) 0.3031(4)
O7 O 0.3559(3) 0.8679(8) 0.2588(3)
C28 C 0.4963(4) 0.9557(11) 0.4220(4)
O8 O 0.5398(3) 0.9827(9) 0.4522(3)
C29 C 0.4723(14) 0.799(4) 0.0019(12)
H55 H 0.51750 0.80470 0.00920
H56 H 0.45390 0.85600 0.02940
C30 C 0.454(3) 0.667(7) 0.007(2)
H57 H 0.41400 0.66150 0.02210
H58 H 0.48500 0.61410 0.03050
C31 C 0.450(2) 0.611(5) -0.0610(18)
H59 H 0.48900 0.62100 -0.07790
H60 H 0.43350 0.51740 -0.06610
C32 C 0.4077(17) 0.711(4) -0.0773(15)
H61 H 0.37000 0.70370 -0.05810
H62 H 0.39700 0.71110 -0.11740
C33 C 0.4533(19) 0.854(5) -0.0549(17)
H63 H 0.48850 0.86800 -0.07680
H64 H 0.42900 0.93960 -0.05410
#END
