
#######################################################################
#
#                 Cambridge Crystallographic Data Centre
#                                CCDC
#
#######################################################################
#
# If this CIF has been generated from an entry in the Cambridge
# Structural Database, then it will include bibliographic, chemical,
# crystal, experimental, refinement or atomic coordinate data resulting
# from the CCDC's data processing and validation procedures.
#
#######################################################################

data_CSD_CIF_LISLEU03
_audit_creation_date 2018-05-02
_audit_creation_method CSD-ConQuest-V1
_database_code_CSD LISLEU03
_database_code_depnum_ccdc_archive 'CCDC 1838774'
_chemical_formula_sum 'C6 H13 N1 O2'
_chemical_formula_moiety
;
C6 H13 N1 O2
;
_journal_coeditor_code "lh5872"
_journal_coden_Cambridge 1828
_journal_volume 74
_journal_year 2018
_journal_page_first 776
_journal_name_full 'Acta Crystallogr.,Sect.E:Cryst.Commun. '
loop_
_publ_author_name
"S.Curland"
"E.Meirzadeh"
"Y.Diskin-Posner"
_chemical_name_systematic
;
2-azaniumyl-3-methylpentanoate
;
_chemical_name_common
;
(2S,3S)-2-amino-3-methylpentanoic acid; Teaching Subset: Essential Nutrients
;
_cell_volume   1418.440
_exptl_crystal_colour 'colorless'
_exptl_crystal_density_diffrn 1.228
_exptl_special_details
;
Absolute configuration
anti-parallel polymorph

;
_exptl_crystal_description 'prism'
_diffrn_ambient_temperature 100
#These two values have been output from a single CSD field.
_refine_ls_R_factor_gt 0.0774
_refine_ls_wR_factor_gt 0.0774
_symmetry_cell_setting monoclinic
_symmetry_space_group_name_H-M 'P 21'
_symmetry_Int_Tables_number 4
loop_
_symmetry_equiv_pos_site_id
_symmetry_equiv_pos_as_xyz
1 x,y,z
2 -x,1/2+y,-z
_cell_length_a 9.6757(5)
_cell_length_b 5.2885(3)
_cell_length_c 28.0136(15)
_cell_angle_alpha 90
_cell_angle_beta 98.300(3)
_cell_angle_gamma 90
_cell_formula_units_Z 8
loop_
_atom_type_symbol
_atom_type_radius_bond
C 0.68
H 0.23
N 0.68
O 0.68
loop_
_atom_site_label
_atom_site_type_symbol
_atom_site_fract_x
_atom_site_fract_y
_atom_site_fract_z
O1 O 0.8884(3) 0.5064(6) 0.04413(11)
O2 O 0.8218(3) 0.8831(6) 0.06814(11)
C1 C 0.8005(4) 0.6525(8) 0.05824(14)
C2 C 0.6598(4) 0.5418(8) 0.06684(14)
H1 H 0.58430 0.66150 0.05310
N1 N 0.6375(3) 0.2952(7) 0.04012(12)
H2 H 0.70630 0.18470 0.05180
H3 H 0.63960 0.32190 0.00810
H4 H 0.55310 0.22970 0.04430
C3 C 0.6498(4) 0.5036(8) 0.12085(15)
H5 H 0.57340 0.37910 0.12340
C4 C 0.6086(5) 0.7558(10) 0.14216(16)
H6 H 0.68050 0.88370 0.13790
H7 H 0.51920 0.81350 0.12370
C5 C 0.5922(6) 0.7431(12) 0.19564(18)
H8 H 0.68320 0.70800 0.21480
H9 H 0.52650 0.60800 0.20070
H10 H 0.55660 0.90510 0.20570
C6 C 0.7850(4) 0.3964(9) 0.14852(15)
H11 H 0.76850 0.34260 0.18070
H12 H 0.85760 0.52690 0.15160
H13 H 0.81530 0.25100 0.13100
O3 O 0.8415(3) 0.0087(6) 0.45421(11)
O4 O 0.7533(3) -0.3784(6) 0.44210(13)
C7 C 0.7422(4) -0.1469(8) 0.44123(14)
C8 C 0.6019(4) -0.0244(8) 0.42024(15)
H14 H 0.52500 -0.14920 0.42180
N2 N 0.5777(4) 0.2014(8) 0.44997(13)
H15 H 0.48520 0.24100 0.44520
H16 H 0.62780 0.33450 0.44110
H17 H 0.60530 0.16610 0.48170
C9 C 0.6022(4) 0.0536(9) 0.36746(15)
H18 H 0.68020 0.17690 0.36660
C10 C 0.4661(5) 0.1855(10) 0.34710(17)
H19 H 0.45790 0.34360 0.36540
H20 H 0.38680 0.07510 0.35210
C11 C 0.4548(6) 0.2498(11) 0.29339(17)
H21 H 0.43690 0.09490 0.27430
H22 H 0.54240 0.32630 0.28690
H23 H 0.37790 0.36920 0.28460
C12 C 0.6304(8) -0.1739(12) 0.3372(2)
H24 H 0.63930 -0.11830 0.30440
H25 H 0.55270 -0.29380 0.33600
H26 H 0.71720 -0.25620 0.35160
O5 O 0.2587(3) 0.1881(6) 0.43174(12)
O6 O 0.3479(3) 0.5641(6) 0.45466(11)
C13 C 0.2467(4) 0.4193(8) 0.44065(14)
C14 C 0.0998(4) 0.5344(8) 0.43171(15)
H27 H 0.03400 0.41580 0.44480
N3 N 0.1002(3) 0.7776(7) 0.45836(12)
H28 H 0.15550 0.89110 0.44570
H29 H 0.13380 0.75150 0.49000
H30 H 0.01160 0.83900 0.45570
C15 C 0.0477(4) 0.5754(9) 0.37737(15)
H31 H -0.03100 0.69950 0.37490
C16 C -0.0116(5) 0.3277(10) 0.35459(17)
H32 H -0.08290 0.26290 0.37360
H33 H 0.06450 0.20140 0.35670
C17 C -0.0782(6) 0.3523(12) 0.30162(19)
H34 H -0.00610 0.39610 0.28180
H35 H -0.14950 0.48530 0.29870
H36 H -0.12160 0.19120 0.29050
C18 C 0.1600(5) 0.6889(9) 0.35062(16)
H37 H 0.11840 0.73510 0.31780
H38 H 0.23430 0.56440 0.34920
H39 H 0.19930 0.84010 0.36770
O7 O 0.3780(3) 0.0868(6) 0.04550(11)
O8 O 0.3022(3) 0.4780(6) 0.05701(12)
C19 C 0.2915(4) 0.2440(8) 0.05879(14)
C20 C 0.1698(4) 0.1267(8) 0.08112(14)
H40 H 0.09260 0.25350 0.07950
N4 N 0.1169(4) -0.1027(7) 0.05243(13)
H41 H 0.02950 -0.14100 0.05850
H42 H 0.17490 -0.23570 0.06100
H43 H 0.11430 -0.07020 0.02040
C21 C 0.2165(4) 0.0562(9) 0.13404(15)
H44 H 0.29440 -0.06880 0.13520
C22 C 0.0973(5) -0.0696(12) 0.15609(18)
H45 H 0.01530 0.04450 0.15170
H46 H 0.07020 -0.22750 0.13820
C23 C 0.1336(6) -0.1325(13) 0.20962(18)
H47 H 0.13030 0.02200 0.22870
H48 H 0.22780 -0.20480 0.21570
H49 H 0.06620 -0.25520 0.21880
C24 C 0.2721(7) 0.2875(13) 0.1629(2)
H50 H 0.19400 0.39710 0.16810
H51 H 0.33570 0.38060 0.14500
H52 H 0.32250 0.23380 0.19410
#END
