
#######################################################################
#
#                 Cambridge Crystallographic Data Centre
#                                CCDC
#
#######################################################################
#
# If this CIF has been generated from an entry in the Cambridge
# Structural Database, then it will include bibliographic, chemical,
# crystal, experimental, refinement or atomic coordinate data resulting
# from the CCDC's data processing and validation procedures.
#
#######################################################################

data_CSD_CIF_LITREL
_audit_creation_date 2000-06-13
_audit_creation_method CSD-ConQuest-V1
_database_code_CSD LITREL
_database_code_depnum_ccdc_archive 'CCDC 1207721'
_chemical_formula_sum 'C8 H28 Cl5 Co1 Hg1 N6'
_chemical_formula_moiety
;
C8 H28 Co1 N6 3+,Cl5 Hg1 3-
;
_journal_coden_Cambridge 41
_journal_volume 44
_journal_year 1999
_journal_page_first 226
_journal_name_full 'Kristallografiya(Russ.)(Crystallogr.Rep.) '
loop_
_publ_author_name
"I.F.Burshtein"
"V.I.Pavlovsky"
"A.L.Poznyak"
_chemical_name_systematic
;
(1,4-Butylenediamine)-bis(1,2-ethylenediamine)-cobalt(iii) 
pentachloro-mercury(ii)
;
_chemical_name_common
;
Teaching Subset: Fundamental Chemistry
;
_cell_volume   2001.256
_exptl_crystal_density_diffrn 2.141
_diffrn_ambient_temperature ?
_diffrn_special_details
;
The study was carried out at room temperature,in the range 283-303K

;
#These two values have been output from a single CSD field.
_refine_ls_R_factor_gt 0.0408
_refine_ls_wR_factor_gt 0.0408
_symmetry_cell_setting monoclinic
_symmetry_space_group_name_H-M 'P 21/c'
_symmetry_Int_Tables_number 14
loop_
_symmetry_equiv_pos_site_id
_symmetry_equiv_pos_as_xyz
1 x,y,z
2 -x,1/2+y,1/2-z
3 -x,-y,-z
4 x,-1/2-y,-1/2+z
_cell_length_a 11.669(1)
_cell_length_b 10.243(1)
_cell_length_c 17.190(1)
_cell_angle_alpha 90
_cell_angle_beta 103.09(1)
_cell_angle_gamma 90
_cell_formula_units_Z 4
loop_
_atom_type_symbol
_atom_type_radius_bond
C 0.68
Cl 0.99
Co 1.33
Hg 1.70
N 0.68
loop_
_atom_site_label
_atom_site_type_symbol
_atom_site_fract_x
_atom_site_fract_y
_atom_site_fract_z
Hg1 Hg 0.2426(1) -0.6728(1) 0.8224(1)
Cl1 Cl 0.0821(3) -0.8240(4) 0.8029(2)
Cl2 Cl 0.1025(2) -0.4994(3) 0.8955(2)
Cl3 Cl 0.4074(3) -0.5544(4) 0.9027(2)
Cl4 Cl 0.2560(4) -0.5781(3) 0.6848(2)
Cl5 Cl 0.3965(3) -0.8874(3) 0.8225(2)
Co1 Co 0.2534(1) -0.1660(2) 0.6318(1)
N1 N 0.3118(8) -0.0439(9) 0.5619(5)
N2 N 0.1842(7) -0.0082(9) 0.6696(5)
N3 N 0.1985(8) -0.2731(9) 0.7107(5)
N4 N 0.3977(8) -0.1466(9) 0.7164(5)
N5 N 0.3302(8) -0.3163(10) 0.5913(5)
N6 N 0.1031(8) -0.1909(9) 0.5527(5)
C1 C 0.3013(12) 0.0913(12) 0.5891(7)
C2 C 0.1869(11) 0.0992(12) 0.6137(7)
C3 C 0.2690(11) -0.2481(13) 0.7918(7)
C4 C 0.3954(12) -0.2397(12) 0.7825(7)
C5 C 0.3217(12) -0.3437(13) 0.5061(6)
C6 C 0.2201(12) -0.4308(13) 0.4687(7)
C7 C 0.1004(11) -0.3691(11) 0.4512(7)
C8 C 0.0549(11) -0.3220(12) 0.5231(7)
#END
