####################################################################### 
# 
# This file contains crystal structure data downloaded from the 
# Cambridge Structural Database (CSD) hosted by the Cambridge 
# Crystallographic Data Centre (CCDC).
# 
# Full information about CCDC data access policies and citation 
# guidelines are available at http://www.ccdc.cam.ac.uk/access/V1 
# 
# Audit and citation data items may have been added by the CCDC. 
# Please retain this information to preserve the provenance of 
# this file and to allow appropriate attribution of the data. 
# 
#######################################################################

data_s-p11
_audit_block_doi                 10.5517/cc10vkfv
_database_code_depnum_ccdc_archive 'CCDC 949047'
loop_
_citation_id
_citation_doi
_citation_year
1 10.1016/j.inoche.2013.11.041 2014
_audit_update_record             
;
2013-07-08 deposited with the CCDC.	2024-07-11 downloaded from the CCDC.
;

_audit_creation_method           SHELXL-97
_chemical_name_systematic        
; 
 ? 
;
_chemical_name_common            ?
_chemical_melting_point          ?
_chemical_formula_moiety         '2(C18 H18 Ag2 N4 O2), 3(C4 H9 N O)'
_chemical_formula_sum            'C48 H63 Ag4 N11 O7'
_chemical_formula_weight         1337.57

loop_
_atom_type_symbol
_atom_type_description
_atom_type_scat_dispersion_real
_atom_type_scat_dispersion_imag
_atom_type_scat_source
C C 0.0033 0.0016 'International Tables Vol C Tables 4.2.6.8 and 6.1.1.4'
H H 0.0000 0.0000 'International Tables Vol C Tables 4.2.6.8 and 6.1.1.4'
N N 0.0061 0.0033 'International Tables Vol C Tables 4.2.6.8 and 6.1.1.4'
O O 0.0106 0.0060 'International Tables Vol C Tables 4.2.6.8 and 6.1.1.4'
Ag Ag -0.8971 1.1015 'International Tables Vol C Tables 4.2.6.8 and 6.1.1.4'

_symmetry_cell_setting           Triclinic
_symmetry_space_group_name_H-M   'P1   '
_symmetry_space_group_name_Hall  'P 1'

loop_
_symmetry_equiv_pos_as_xyz
'x, y, z'

_cell_length_a                   12.1688(3)
_cell_length_b                   12.2018(4)
_cell_length_c                   19.7929(3)
_cell_angle_alpha                83.004(2)
_cell_angle_beta                 84.406(3)
_cell_angle_gamma                72.401(2)
_cell_volume                     2774.75(12)
_cell_formula_units_Z            2
_cell_measurement_temperature    291(2)
_cell_measurement_reflns_used    3936
_cell_measurement_theta_min      2.11
_cell_measurement_theta_max      24.72

_exptl_crystal_description       Plate
_exptl_crystal_colour            Pale-yellow
_exptl_crystal_size_max          0.60
_exptl_crystal_size_mid          0.22
_exptl_crystal_size_min          0.18
_exptl_crystal_density_meas      ?
_exptl_crystal_density_diffrn    1.601
_exptl_crystal_density_method    'not measured'
_exptl_crystal_F_000             1344
_exptl_absorpt_coefficient_mu    1.447
_exptl_absorpt_correction_type   multi-scan
_exptl_absorpt_correction_T_min  0.6874
_exptl_absorpt_correction_T_max  0.7414
_exptl_absorpt_process_details   'SADABS; Bruker, 2000'

_exptl_special_details           
; 
 ? 
;

_diffrn_ambient_temperature      291(2)
_diffrn_radiation_wavelength     0.71073
_diffrn_radiation_type           MoK\a
_diffrn_radiation_source         'sealed tube'
_diffrn_radiation_monochromator  graphite
_diffrn_measurement_device_type  'Bruker Smart Apex CCD'
_diffrn_measurement_method       'phi and omega scans'
_diffrn_detector_area_resol_mean ?
_diffrn_reflns_number            25106
_diffrn_reflns_av_R_equivalents  0.0028
_diffrn_reflns_av_sigmaI/netI    0.0817
_diffrn_reflns_limit_h_min       -15
_diffrn_reflns_limit_h_max       15
_diffrn_reflns_limit_k_min       -12
_diffrn_reflns_limit_k_max       15
_diffrn_reflns_limit_l_min       -24
_diffrn_reflns_limit_l_max       24
_diffrn_reflns_theta_min         3.12
_diffrn_reflns_theta_max         26.00
_reflns_number_total             16790
_reflns_number_gt                13206
_reflns_threshold_expression     >2sigma(I)

_computing_data_collection       'SMART (Bruker, 2000)'
_computing_cell_refinement       SMART
_computing_data_reduction        'SAINT (Bruker, 2000)'
_computing_structure_solution    'SHELXTL (Bruker, 2000)'
_computing_structure_refinement  SHELXTL
_computing_molecular_graphics    Diamond
_computing_publication_material  SHELXTL

_refine_special_details          
; 
 Refinement of F^2^ against ALL reflections.  The weighted R-factor wR and 
 goodness of fit S are based on F^2^, conventional R-factors R are based 
 on F, with F set to zero for negative F^2^. The threshold expression of 
 F^2^ > 2sigma(F^2^) is used only for calculating R-factors(gt) etc. and is 
 not relevant to the choice of reflections for refinement.  R-factors based 
 on F^2^ are statistically about twice as large as those based on F, and R- 
 factors based on ALL data will be even larger. 
;

_refine_ls_structure_factor_coef Fsqd
_refine_ls_matrix_type           full
_refine_ls_weighting_scheme      calc
_refine_ls_weighting_details     
'calc w=1/[\s^2^(Fo^2^)+(0.06P)^2^+1.66P] where P=(Fo^2^+2Fc^2^)/3'
_atom_sites_solution_primary     direct
_atom_sites_solution_secondary   difmap
_atom_sites_solution_hydrogens   geom
_refine_ls_hydrogen_treatment    constr
_refine_ls_extinction_method     none
_refine_ls_extinction_coef       ?
_refine_ls_abs_structure_details 'Flack H D (1983), Acta Cryst. A39, 876-881'
_chemical_absolute_configuration unk
_refine_ls_abs_structure_Flack   0.04(3)
_refine_ls_number_reflns         16790
_refine_ls_number_parameters     1288
_refine_ls_number_restraints     3
_refine_ls_R_factor_all          0.0601
_refine_ls_R_factor_gt           0.0570
_refine_ls_wR_factor_ref         0.1430
_refine_ls_wR_factor_gt          0.1422
_refine_ls_goodness_of_fit_ref   1.061
_refine_ls_restrained_S_all      1.061
_refine_ls_shift/su_max          0.000
_refine_ls_shift/su_mean         0.000

loop_
_atom_site_label
_atom_site_type_symbol
_atom_site_fract_x
_atom_site_fract_y
_atom_site_fract_z
_atom_site_U_iso_or_equiv
_atom_site_adp_type
_atom_site_occupancy
_atom_site_symmetry_multiplicity
_atom_site_calc_flag
_atom_site_refinement_flags
_atom_site_disorder_assembly
_atom_site_disorder_group
Ag1 Ag 1.29354(7) 0.03545(8) 0.63611(4) 0.0434(2) Uani 1 1 d . . .
Ag2 Ag 0.79265(7) 0.04247(8) 0.62393(4) 0.0423(2) Uani 1 1 d . . .
Ag3 Ag 1.22968(7) 0.63845(8) 0.52237(4) 0.0438(2) Uani 1 1 d . . .
Ag4 Ag 0.73065(7) 0.63062(7) 0.53338(4) 0.0407(2) Uani 1 1 d . . .
Ag5 Ag 0.62190(8) 0.24963(7) 0.14348(4) 0.0419(2) Uani 1 1 d . . .
Ag6 Ag 0.62805(8) 0.75000(7) 0.13251(4) 0.0440(2) Uani 1 1 d . . .
Ag7 Ag 0.19992(7) 0.09007(7) 0.03108(4) 0.0407(2) Uani 1 1 d . . .
Ag8 Ag 0.23657(8) 0.57808(7) 0.03024(4) 0.0420(2) Uani 1 1 d . . .
C1 C 1.1365(9) -0.0277(10) 0.5351(5) 0.036(3) Uani 1 1 d . . .
C2 C 1.2176(11) -0.0754(11) 0.4812(6) 0.049(3) Uani 1 1 d . . .
H2 H 1.2957 -0.0825 0.4820 0.059 Uiso 1 1 calc R . .
C3 C 1.1780(11) -0.1083(12) 0.4311(7) 0.054(4) Uani 1 1 d . . .
H3 H 1.2315 -0.1367 0.3958 0.064 Uiso 1 1 calc R . .
C4 C 1.0624(11) -0.1058(11) 0.4242(7) 0.051(3) Uani 1 1 d . . .
H4 H 1.0393 -0.1273 0.3857 0.062 Uiso 1 1 calc R . .
C5 C 0.9863(11) -0.0685(10) 0.4795(5) 0.043(3) Uani 1 1 d . . .
H5 H 0.9106 -0.0713 0.4806 0.052 Uiso 1 1 calc R . .
C6 C 1.0217(11) -0.0278(11) 0.5324(6) 0.048(3) Uani 1 1 d . . .
C7 C 1.0428(11) 0.0454(11) 0.6252(6) 0.038(3) Uani 1 1 d . . .
C8 C 1.0102(11) 0.1129(12) 0.6857(7) 0.054(3) Uani 1 1 d . . .
H8 H 0.9400 0.0984 0.7085 0.065 Uiso 1 1 calc R . .
C9 C 0.9839(11) 0.2386(11) 0.6658(6) 0.054(3) Uani 1 1 d . . .
H9A H 0.9072 0.2771 0.6832 0.081 Uiso 1 1 calc R . .
H9B H 0.9891 0.2526 0.6170 0.081 Uiso 1 1 calc R . .
H9C H 1.0385 0.2675 0.6844 0.081 Uiso 1 1 calc R . .
C10 C 0.5784(10) 0.0837(12) 0.7288(7) 0.048(3) Uani 1 1 d . . .
C11 C 0.6262(10) 0.0996(10) 0.7873(6) 0.041(3) Uani 1 1 d . . .
H11 H 0.7029 0.0992 0.7859 0.049 Uiso 1 1 calc R . .
C12 C 0.5583(11) 0.1154(11) 0.8456(6) 0.050(3) Uani 1 1 d . . .
H12 H 0.5868 0.1312 0.8841 0.060 Uiso 1 1 calc R . .
C13 C 0.4445(12) 0.1081(11) 0.8484(6) 0.050(3) Uani 1 1 d . . .
H13 H 0.4015 0.1165 0.8899 0.059 Uiso 1 1 calc R . .
C14 C 0.3930(12) 0.0895(12) 0.7938(6) 0.056(4) Uani 1 1 d . . .
H14 H 0.3174 0.0860 0.7963 0.067 Uiso 1 1 calc R . .
C15 C 0.4674(9) 0.0761(12) 0.7324(6) 0.047(3) Uani 1 1 d . . .
C16 C 0.5376(10) 0.0586(10) 0.6296(5) 0.035(3) Uani 1 1 d . . .
C17 C 0.5451(12) 0.0552(10) 0.5551(6) 0.044(3) Uani 1 1 d . . .
H17 H 0.4679 0.0902 0.5383 0.052 Uiso 1 1 calc R . .
C18 C 0.5918(11) -0.0688(10) 0.5351(6) 0.049(3) Uani 1 1 d . . .
H18D H 0.6231 -0.1199 0.5739 0.073 Uiso 1 1 calc R . .
H18E H 0.6514 -0.0725 0.4991 0.073 Uiso 1 1 calc R . .
H18F H 0.5303 -0.0915 0.5197 0.073 Uiso 1 1 calc R . .
C19 C 1.0639(10) 0.5899(9) 0.4284(5) 0.035(3) Uani 1 1 d . . .
C20 C 1.1417(11) 0.5618(11) 0.3717(6) 0.048(3) Uani 1 1 d . . .
H20 H 1.2189 0.5585 0.3725 0.058 Uiso 1 1 calc R . .
C21 C 1.1003(12) 0.5399(12) 0.3165(6) 0.054(3) Uani 1 1 d . . .
H21 H 1.1471 0.5330 0.2763 0.064 Uiso 1 1 calc R . .
C22 C 0.9892(11) 0.5268(11) 0.3159(6) 0.049(3) Uani 1 1 d . . .
H22 H 0.9691 0.4988 0.2787 0.059 Uiso 1 1 calc R . .
C23 C 0.9086(13) 0.5562(11) 0.3721(7) 0.053(3) Uani 1 1 d . . .
H23 H 0.8324 0.5554 0.3722 0.064 Uiso 1 1 calc R . .
C24 C 0.9524(11) 0.5869(10) 0.4276(6) 0.040(3) Uani 1 1 d . . .
C25 C 0.9764(10) 0.6354(11) 0.5247(6) 0.040(3) Uani 1 1 d . . .
C26 C 0.9585(10) 0.6622(11) 0.5973(6) 0.045(3) Uani 1 1 d . . .
H26 H 1.0117 0.7047 0.6057 0.054 Uiso 1 1 calc R . .
C27 C 0.9762(12) 0.5564(11) 0.6472(6) 0.051(3) Uani 1 1 d . . .
H27A H 0.9243 0.5740 0.6868 0.076 Uiso 1 1 calc R . .
H27B H 1.0544 0.5316 0.6604 0.076 Uiso 1 1 calc R . .
H27C H 0.9610 0.4959 0.6263 0.076 Uiso 1 1 calc R . .
C28 C 0.5057(10) 0.6894(10) 0.6252(5) 0.039(3) Uani 1 1 d . . .
C29 C 0.5360(12) 0.7262(11) 0.6830(6) 0.049(3) Uani 1 1 d . . .
H29 H 0.6127 0.7209 0.6882 0.059 Uiso 1 1 calc R . .
C30 C 0.4550(10) 0.7686(11) 0.7300(6) 0.046(3) Uani 1 1 d . . .
H30 H 0.4762 0.7967 0.7668 0.056 Uiso 1 1 calc R . .
C31 C 0.3359(13) 0.7738(11) 0.7278(7) 0.054(3) Uani 1 1 d . . .
H31 H 0.2836 0.8000 0.7640 0.065 Uiso 1 1 calc R . .
C32 C 0.2991(11) 0.7408(10) 0.6731(6) 0.050(3) Uani 1 1 d . . .
H32 H 0.2214 0.7494 0.6687 0.060 Uiso 1 1 calc R . .
C33 C 0.3863(11) 0.6924(11) 0.6231(6) 0.044(3) Uani 1 1 d . . .
C34 C 0.4825(11) 0.6197(10) 0.5342(6) 0.037(3) Uani 1 1 d . . .
C35 C 0.5168(10) 0.5676(10) 0.4658(6) 0.039(3) Uani 1 1 d . . .
H35 H 0.5977 0.5198 0.4652 0.047 Uiso 1 1 calc R . .
C36 C 0.5011(11) 0.6619(11) 0.4069(6) 0.050(3) Uani 1 1 d . . .
H36A H 0.5502 0.6326 0.3681 0.075 Uiso 1 1 calc R . .
H36B H 0.5210 0.7263 0.4200 0.075 Uiso 1 1 calc R . .
H36C H 0.4220 0.6865 0.3952 0.075 Uiso 1 1 calc R . .
C37 C 0.5515(12) 0.4815(10) 0.0454(6) 0.049(3) Uani 1 1 d . . .
C38 C 0.5122(11) 0.4415(11) -0.0076(6) 0.048(3) Uani 1 1 d . . .
H38 H 0.5060 0.3669 -0.0043 0.057 Uiso 1 1 calc R . .
C39 C 0.4825(12) 0.5170(13) -0.0656(7) 0.060(4) Uani 1 1 d . . .
H39 H 0.4572 0.4930 -0.1025 0.072 Uiso 1 1 calc R . .
C40 C 0.4905(10) 0.6265(12) -0.0687(6) 0.046(3) Uani 1 1 d . . .
H40 H 0.4746 0.6738 -0.1092 0.055 Uiso 1 1 calc R . .
C41 C 0.5206(10) 0.6709(10) -0.0153(6) 0.040(3) Uani 1 1 d . . .
H41 H 0.5155 0.7487 -0.0166 0.048 Uiso 1 1 calc R . .
C42 C 0.5595(9) 0.5928(10) 0.0412(5) 0.035(3) Uani 1 1 d . . .
C43 C 0.6271(13) 0.5003(13) 0.1346(7) 0.048(3) Uani 1 1 d . . .
C44 C 0.6924(12) 0.4684(13) 0.1992(6) 0.056(4) Uani 1 1 d . . .
H44 H 0.6661 0.5329 0.2277 0.067 Uiso 1 1 calc R . .
C45 C 0.8180(11) 0.4494(11) 0.1781(7) 0.058(4) Uani 1 1 d . . .
H45A H 0.8636 0.4101 0.2157 0.088 Uiso 1 1 calc R . .
H45B H 0.8321 0.5226 0.1650 0.088 Uiso 1 1 calc R . .
H45C H 0.8388 0.4034 0.1402 0.088 Uiso 1 1 calc R . .
C46 C 0.6743(11) 0.9075(12) 0.2351(6) 0.049(3) Uani 1 1 d . . .
C47 C 0.6965(11) 0.8302(12) 0.2933(6) 0.050(3) Uani 1 1 d . . .
H47 H 0.6964 0.7543 0.2922 0.059 Uiso 1 1 calc R . .
C48 C 0.7189(11) 0.8664(12) 0.3531(6) 0.055(4) Uani 1 1 d . . .
H48 H 0.7338 0.8146 0.3920 0.065 Uiso 1 1 calc R . .
C49 C 0.7192(11) 0.9799(11) 0.3547(6) 0.047(3) Uani 1 1 d . . .
H49 H 0.7342 1.0040 0.3947 0.057 Uiso 1 1 calc R . .
C50 C 0.6970(11) 1.0572(11) 0.2965(5) 0.048(3) Uani 1 1 d . . .
H50 H 0.6972 1.1331 0.2975 0.058 Uiso 1 1 calc R . .
C51 C 0.6746(9) 1.0210(9) 0.2367(5) 0.035(2) Uani 1 1 d . . .
C52 C 0.6407(10) 0.9985(12) 0.1349(6) 0.037(3) Uani 1 1 d . . .
C53 C 0.6226(11) 1.0169(10) 0.0629(6) 0.045(3) Uani 1 1 d . . .
H53 H 0.6416 1.0876 0.0441 0.054 Uiso 1 1 calc R . .
C54 C 0.4957(11) 1.0326(11) 0.0508(6) 0.053(3) Uani 1 1 d . . .
H54A H 0.4874 1.0355 0.0028 0.079 Uiso 1 1 calc R . .
H54B H 0.4480 1.1033 0.0676 0.079 Uiso 1 1 calc R . .
H54C H 0.4726 0.9688 0.0743 0.079 Uiso 1 1 calc R . .
C55 C 0.1625(11) 0.3166(11) -0.0692(6) 0.045(3) Uani 1 1 d . . .
C56 C 0.1361(10) 0.2788(10) -0.1258(6) 0.043(3) Uani 1 1 d . . .
H56 H 0.1277 0.2053 -0.1249 0.052 Uiso 1 1 calc R . .
C57 C 0.1221(11) 0.3553(11) -0.1857(7) 0.051(3) Uani 1 1 d . . .
H57 H 0.1037 0.3339 -0.2257 0.062 Uiso 1 1 calc R . .
C58 C 0.1360(12) 0.4621(13) -0.1837(7) 0.055(4) Uani 1 1 d . . .
H58 H 0.1224 0.5127 -0.2232 0.066 Uiso 1 1 calc R . .
C59 C 0.1686(12) 0.5016(12) -0.1283(6) 0.054(3) Uani 1 1 d . . .
H59 H 0.1831 0.5725 -0.1299 0.065 Uiso 1 1 calc R . .
C60 C 0.1771(10) 0.4258(11) -0.0714(6) 0.041(3) Uani 1 1 d . . .
C61 C 0.2014(11) 0.3414(11) 0.0328(7) 0.045(3) Uani 1 1 d . . .
C62 C 0.2279(11) 0.3106(11) 0.1063(6) 0.044(3) Uani 1 1 d . . .
H62 H 0.2622 0.2271 0.1160 0.052 Uiso 1 1 calc R . .
C63 C 0.1194(12) 0.3518(11) 0.1477(7) 0.061(4) Uani 1 1 d . . .
H63A H 0.1332 0.3301 0.1951 0.091 Uiso 1 1 calc R . .
H63B H 0.0636 0.3178 0.1353 0.091 Uiso 1 1 calc R . .
H63C H 0.0905 0.4344 0.1399 0.091 Uiso 1 1 calc R . .
C64 C 0.2812(10) 0.7357(10) 0.1245(6) 0.041(3) Uani 1 1 d . . .
C65 C 0.3275(11) 0.6553(11) 0.1762(6) 0.051(3) Uani 1 1 d . . .
H65 H 0.3301 0.5784 0.1758 0.061 Uiso 1 1 calc R . .
C66 C 0.3723(11) 0.6920(12) 0.2314(6) 0.053(3) Uani 1 1 d . . .
H66 H 0.4056 0.6385 0.2668 0.063 Uiso 1 1 calc R . .
C67 C 0.3656(11) 0.8053(12) 0.2317(6) 0.048(3) Uani 1 1 d . . .
H67 H 0.3916 0.8260 0.2695 0.058 Uiso 1 1 calc R . .
C68 C 0.3232(11) 0.8937(10) 0.1802(5) 0.046(3) Uani 1 1 d . . .
H68 H 0.3215 0.9700 0.1819 0.055 Uiso 1 1 calc R . .
C69 C 0.2844(10) 0.8557(10) 0.1268(6) 0.040(3) Uani 1 1 d . . .
C70 C 0.2064(12) 0.8420(13) 0.0340(6) 0.043(3) Uani 1 1 d . . .
C71 C 0.1452(11) 0.8670(10) -0.0332(6) 0.046(3) Uani 1 1 d . . .
H71 H 0.1155 0.8034 -0.0405 0.055 Uiso 1 1 calc R . .
C72 C 0.2359(10) 0.8843(10) -0.0912(5) 0.043(3) Uani 1 1 d . . .
H72A H 0.1976 0.9179 -0.1323 0.065 Uiso 1 1 calc R . .
H72B H 0.2906 0.8110 -0.0991 0.065 Uiso 1 1 calc R . .
H72C H 0.2755 0.9349 -0.0782 0.065 Uiso 1 1 calc R . .
C73 C 0.8348(12) 0.2526(12) 0.9646(7) 0.058(3) Uani 1 1 d . . .
H73A H 0.7836 0.2222 0.9439 0.087 Uiso 1 1 calc R . .
H73B H 0.8043 0.2704 1.0099 0.087 Uiso 1 1 calc R . .
H73C H 0.9094 0.1963 0.9668 0.087 Uiso 1 1 calc R . .
C74 C 0.8464(11) 0.4635(12) 0.9562(7) 0.059(4) Uani 1 1 d . . .
H74A H 0.8712 0.5164 0.9226 0.089 Uiso 1 1 calc R . .
H74B H 0.8985 0.4404 0.9922 0.089 Uiso 1 1 calc R . .
H74C H 0.7700 0.5006 0.9745 0.089 Uiso 1 1 calc R . .
C75 C 0.8635(14) 0.3545(15) 0.8465(7) 0.075(5) Uani 1 1 d . . .
C76 C 0.7983(14) 0.4512(13) 0.8047(8) 0.082(5) Uani 1 1 d . . .
H76D H 0.8394 0.4568 0.7611 0.123 Uiso 1 1 calc R . .
H76E H 0.7870 0.5205 0.8263 0.123 Uiso 1 1 calc R . .
H76F H 0.7247 0.4414 0.7986 0.123 Uiso 1 1 calc R . .
C77 C 0.8842(14) 0.8086(14) 0.9084(7) 0.074(5) Uani 1 1 d . . .
H77A H 0.9602 0.8120 0.8921 0.111 Uiso 1 1 calc R . .
H77B H 0.8903 0.7402 0.9392 0.111 Uiso 1 1 calc R . .
H77C H 0.8449 0.8755 0.9317 0.111 Uiso 1 1 calc R . .
C78 C 0.9707(11) 0.8023(11) 0.7577(7) 0.056(3) Uani 1 1 d . . .
H78A H 0.9964 0.7692 0.7152 0.083 Uiso 1 1 calc R . .
H78B H 1.0227 0.7611 0.7920 0.083 Uiso 1 1 calc R . .
H78C H 0.9693 0.8820 0.7520 0.083 Uiso 1 1 calc R . .
C79 C 0.8163(13) 0.8054(12) 0.8479(7) 0.063(4) Uani 1 1 d . . .
C80 C 0.6899(12) 0.8030(13) 0.8720(7) 0.071(4) Uani 1 1 d . . .
H80A H 0.6852 0.7824 0.9203 0.107 Uiso 1 1 calc R . .
H80B H 0.6705 0.7472 0.8489 0.107 Uiso 1 1 calc R . .
H80C H 0.6368 0.8780 0.8614 0.107 Uiso 1 1 calc R . .
C81 C 0.8187(14) 0.2983(14) 0.4453(7) 0.073(5) Uani 1 1 d . . .
H81A H 0.7662 0.3428 0.4120 0.109 Uiso 1 1 calc R . .
H81B H 0.8187 0.3451 0.4809 0.109 Uiso 1 1 calc R . .
H81C H 0.7947 0.2324 0.4644 0.109 Uiso 1 1 calc R . .
C82 C 1.0428(13) 0.2457(13) 0.4512(7) 0.070(4) Uani 1 1 d . . .
H82A H 1.1116 0.1963 0.4304 0.105 Uiso 1 1 calc R . .
H82B H 1.0290 0.2131 0.4967 0.105 Uiso 1 1 calc R . .
H82C H 1.0523 0.3206 0.4528 0.105 Uiso 1 1 calc R . .
C83 C 0.9575(13) 0.2393(13) 0.3390(7) 0.060(4) Uani 1 1 d . . .
C84 C 1.0823(14) 0.2058(13) 0.3137(7) 0.078(5) Uani 1 1 d . . .
H84D H 1.0881 0.1996 0.2656 0.117 Uiso 1 1 calc R . .
H84E H 1.1222 0.1327 0.3368 0.117 Uiso 1 1 calc R . .
H84F H 1.1164 0.2635 0.3227 0.117 Uiso 1 1 calc R . .
C85 C 0.4709(11) 0.4077(12) 0.7425(6) 0.056(3) Uani 1 1 d . . .
H85A H 0.4776 0.4827 0.7474 0.084 Uiso 1 1 calc R . .
H85B H 0.5142 0.3521 0.7760 0.084 Uiso 1 1 calc R . .
H85C H 0.3912 0.4096 0.7487 0.084 Uiso 1 1 calc R . .
C86 C 0.6499(11) 0.3594(14) 0.6531(7) 0.069(4) Uani 1 1 d . . .
H86A H 0.6734 0.3160 0.6141 0.104 Uiso 1 1 calc R . .
H86B H 0.6948 0.3189 0.6906 0.104 Uiso 1 1 calc R . .
H86C H 0.6618 0.4340 0.6422 0.104 Uiso 1 1 calc R . .
C87 C 0.4662(11) 0.3562(12) 0.6199(6) 0.054(3) Uani 1 1 d . . .
C88 C 0.3333(11) 0.3680(11) 0.6281(6) 0.051(3) Uani 1 1 d . . .
H88A H 0.2939 0.4260 0.5943 0.077 Uiso 1 1 calc R . .
H88B H 0.3032 0.3899 0.6728 0.077 Uiso 1 1 calc R . .
H88C H 0.3218 0.2954 0.6223 0.077 Uiso 1 1 calc R . .
C89 C 0.4537(14) 0.0497(12) 0.3329(7) 0.069(4) Uani 1 1 d . . .
H89A H 0.3943 0.0146 0.3287 0.104 Uiso 1 1 calc R . .
H89B H 0.4956 0.0132 0.3723 0.104 Uiso 1 1 calc R . .
H89C H 0.5057 0.0404 0.2928 0.104 Uiso 1 1 calc R . .
C90 C 0.4211(13) 0.3662(13) 0.3041(8) 0.077(5) Uani 1 1 d . . .
H90A H 0.4710 0.3895 0.2683 0.115 Uiso 1 1 calc R . .
H90B H 0.4564 0.3542 0.3468 0.115 Uiso 1 1 calc R . .
H90C H 0.3484 0.4254 0.3067 0.115 Uiso 1 1 calc R . .
C91 C 0.4021(11) 0.2575(12) 0.2895(7) 0.055(3) Uani 1 1 d . . .
C92 C 0.3419(13) 0.2006(13) 0.4167(7) 0.064(4) Uani 1 1 d . . .
H92D H 0.2869 0.2761 0.4158 0.095 Uiso 1 1 calc R . .
H92E H 0.4012 0.1959 0.4465 0.095 Uiso 1 1 calc R . .
H92F H 0.3035 0.1434 0.4329 0.095 Uiso 1 1 calc R . .
C93 C 0.9502(14) 0.7514(13) 0.1430(8) 0.076(5) Uani 1 1 d . . .
H93A H 0.8793 0.7474 0.1676 0.114 Uiso 1 1 calc R . .
H93B H 1.0129 0.7202 0.1724 0.114 Uiso 1 1 calc R . .
H93C H 0.9639 0.7074 0.1044 0.114 Uiso 1 1 calc R . .
C94 C 0.9640(12) 1.0482(12) 0.1712(7) 0.057(3) Uani 1 1 d . . .
H94A H 1.0368 1.0613 0.1565 0.086 Uiso 1 1 calc R . .
H94B H 0.9396 1.0743 0.2156 0.086 Uiso 1 1 calc R . .
H94C H 0.9074 1.0900 0.1395 0.086 Uiso 1 1 calc R . .
C95 C 0.9772(12) 0.9154(12) 0.1746(7) 0.059(3) Uani 1 1 d . . .
C96 C 1.0017(11) 0.8510(13) 0.2416(7) 0.063(4) Uani 1 1 d . . .
H96D H 0.9967 0.9040 0.2747 0.094 Uiso 1 1 calc R . .
H96E H 1.0781 0.7978 0.2394 0.094 Uiso 1 1 calc R . .
H96F H 0.9464 0.8092 0.2546 0.094 Uiso 1 1 calc R . .
N1 N 1.1532(8) 0.0204(9) 0.5925(5) 0.047(3) Uani 1 1 d . . .
N2 N 0.9621(8) 0.0179(9) 0.5935(5) 0.044(2) Uani 1 1 d . . .
N3 N 0.6213(8) 0.0719(9) 0.6637(4) 0.042(2) Uani 1 1 d . . .
N4 N 0.4394(8) 0.0669(8) 0.6696(5) 0.041(2) Uani 1 1 d . . .
N5 N 1.0803(8) 0.6180(9) 0.4928(5) 0.047(3) Uani 1 1 d . . .
N6 N 0.8953(9) 0.6125(10) 0.4912(5) 0.049(3) Uani 1 1 d . . .
N7 N 0.5612(7) 0.6428(7) 0.5685(4) 0.033(2) Uani 1 1 d . . .
N8 N 0.3757(8) 0.6489(9) 0.5629(5) 0.043(2) Uani 1 1 d . . .
N9 N 0.5965(8) 0.4219(8) 0.1041(5) 0.040(2) Uani 1 1 d . . .
N10 N 0.6043(8) 0.6012(8) 0.1018(5) 0.042(2) Uani 1 1 d . . .
N11 N 0.6544(9) 0.8928(9) 0.1704(5) 0.049(3) Uani 1 1 d . . .
N12 N 0.6536(9) 1.0765(8) 0.1743(5) 0.046(2) Uani 1 1 d . . .
N13 N 0.1825(9) 0.2647(9) -0.0033(5) 0.046(2) Uani 1 1 d . . .
N14 N 0.2085(8) 0.4331(7) -0.0026(4) 0.037(2) Uani 1 1 d . . .
N15 N 0.2386(8) 0.7302(8) 0.0648(4) 0.042(2) Uani 1 1 d . . .
N16 N 0.2292(8) 0.9189(7) 0.0665(5) 0.040(2) Uani 1 1 d . . .
N17 N 0.8457(10) 0.3590(10) 0.9235(6) 0.061(3) Uani 1 1 d . . .
N18 N 0.8523(9) 0.7940(9) 0.7790(5) 0.051(3) Uani 1 1 d . . .
N19 N 0.9430(12) 0.2569(10) 0.4105(6) 0.066(3) Uani 1 1 d . . .
N20 N 0.3991(10) 0.1780(11) 0.3406(5) 0.060(3) Uani 1 1 d . . .
N21 N 0.5169(9) 0.3748(10) 0.6734(5) 0.059(3) Uani 1 1 d . . .
N22 N 0.9417(10) 0.8754(10) 0.1190(5) 0.057(3) Uani 1 1 d . . .
O1 O 1.1022(7) 0.0692(8) 0.7332(4) 0.052(2) Uani 1 1 d . . .
H1X H 1.0842 0.1051 0.7688 0.063 Uiso 1 1 d R . .
O2 O 0.6203(7) 0.1138(7) 0.5210(4) 0.049(2) Uani 1 1 d . . .
H2X H 0.5806 0.1772 0.5012 0.059 Uiso 1 1 d R . .
O3 O 0.8454(7) 0.7326(8) 0.6061(4) 0.054(2) Uani 1 1 d . . .
H3X H 0.8458 0.7934 0.6228 0.065 Uiso 1 1 d R . .
O4 O 0.4448(7) 0.4989(7) 0.4564(4) 0.048(2) Uani 1 1 d . . .
H4X H 0.4683 0.4338 0.4795 0.058 Uiso 1 1 d R . .
O5 O 0.6731(8) 0.3733(8) 0.2346(4) 0.056(2) Uani 1 1 d . . .
H5X H 0.7077 0.3585 0.2714 0.067 Uiso 1 1 d R . .
O6 O 0.6946(8) 0.9229(7) 0.0270(4) 0.053(2) Uani 1 1 d . . .
H6X H 0.7653 0.9140 0.0324 0.064 Uiso 1 1 d R . .
O7 O 0.3065(9) 0.3725(8) 0.1190(4) 0.057(3) Uani 1 1 d . . .
H7X H 0.3433 0.3557 0.1551 0.068 Uiso 1 1 d R . .
O8 O 0.0543(7) 0.9732(6) -0.0311(4) 0.048(2) Uani 1 1 d . . .
H8X H 0.0004 0.9611 -0.0033 0.057 Uiso 1 1 d R . .
O9 O 0.9297(10) 0.2653(10) 0.8234(6) 0.081(3) Uani 1 1 d . . .
O10 O 0.7969(7) 0.7826(7) 0.7305(4) 0.050(2) Uani 1 1 d . . .
O11 O 0.8718(9) 0.2444(8) 0.3100(5) 0.065(3) Uani 1 1 d . . .
O12 O 0.3882(8) 0.2471(9) 0.2303(5) 0.062(3) Uani 1 1 d . . .
O13 O 0.9102(8) 0.9181(9) 0.0652(5) 0.064(3) Uani 1 1 d . . .
O14 O 0.5057(8) 0.3319(8) 0.5600(4) 0.058(2) Uani 1 1 d . . .

loop_
_atom_site_aniso_label
_atom_site_aniso_U_11
_atom_site_aniso_U_22
_atom_site_aniso_U_33
_atom_site_aniso_U_23
_atom_site_aniso_U_13
_atom_site_aniso_U_12
Ag1 0.0354(5) 0.0513(6) 0.0452(5) -0.0085(4) -0.0080(4) -0.0122(4)
Ag2 0.0354(5) 0.0501(6) 0.0441(5) -0.0085(4) -0.0076(4) -0.0134(4)
Ag3 0.0367(5) 0.0501(6) 0.0478(5) -0.0113(4) -0.0084(4) -0.0131(4)
Ag4 0.0355(5) 0.0461(5) 0.0434(5) -0.0083(4) -0.0077(4) -0.0133(4)
Ag5 0.0471(5) 0.0355(5) 0.0456(5) -0.0071(4) -0.0089(4) -0.0129(4)
Ag6 0.0505(5) 0.0367(5) 0.0473(5) -0.0084(4) -0.0075(4) -0.0134(4)
Ag7 0.0459(5) 0.0354(5) 0.0437(5) -0.0067(4) -0.0081(4) -0.0136(4)
Ag8 0.0488(5) 0.0363(5) 0.0442(5) -0.0087(4) -0.0088(4) -0.0137(4)
C1 0.032(6) 0.056(8) 0.027(6) 0.005(5) -0.002(5) -0.024(6)
C2 0.048(7) 0.049(8) 0.048(7) -0.010(6) 0.001(6) -0.009(6)
C3 0.043(8) 0.055(9) 0.058(8) -0.019(7) -0.004(6) -0.003(6)
C4 0.050(8) 0.036(7) 0.067(8) -0.012(6) -0.006(6) -0.009(6)
C5 0.050(7) 0.044(7) 0.037(6) 0.009(5) -0.006(5) -0.020(6)
C6 0.047(7) 0.042(8) 0.057(8) -0.012(6) -0.019(6) -0.010(6)
C7 0.029(6) 0.050(7) 0.036(6) -0.006(5) 0.000(4) -0.012(5)
C8 0.044(8) 0.055(9) 0.062(8) -0.018(7) 0.001(6) -0.009(6)
C9 0.052(8) 0.067(9) 0.041(7) -0.018(6) -0.013(6) -0.008(7)
C10 0.033(7) 0.053(8) 0.058(8) -0.006(6) -0.017(6) -0.010(6)
C11 0.035(6) 0.041(7) 0.043(6) -0.018(5) 0.003(5) -0.004(5)
C12 0.055(8) 0.047(8) 0.047(7) -0.002(5) -0.004(6) -0.015(6)
C13 0.062(9) 0.041(8) 0.042(7) 0.009(5) 0.001(6) -0.015(6)
C14 0.056(8) 0.061(9) 0.044(7) 0.012(6) 0.012(6) -0.020(7)
C15 0.019(6) 0.073(9) 0.041(7) 0.005(6) -0.011(5) -0.004(5)
C16 0.032(6) 0.032(7) 0.033(5) 0.009(4) -0.012(4) 0.004(5)
C17 0.061(8) 0.043(7) 0.036(6) -0.002(5) -0.008(5) -0.027(6)
C18 0.049(8) 0.045(7) 0.043(7) -0.002(5) 0.012(5) -0.005(6)
C19 0.039(6) 0.017(6) 0.041(6) 0.005(4) -0.003(5) 0.000(4)
C20 0.037(7) 0.067(9) 0.034(6) 0.012(5) 0.003(5) -0.013(6)
C21 0.056(9) 0.070(10) 0.042(7) -0.010(6) -0.004(6) -0.026(7)
C22 0.050(8) 0.047(8) 0.045(7) -0.017(6) -0.006(6) 0.000(6)
C23 0.057(8) 0.050(8) 0.060(8) -0.015(6) 0.000(7) -0.024(7)
C24 0.048(8) 0.036(7) 0.037(6) 0.000(5) -0.005(5) -0.016(6)
C25 0.021(5) 0.044(7) 0.047(6) -0.010(5) -0.010(5) 0.007(5)
C26 0.034(6) 0.049(8) 0.054(7) -0.021(6) -0.003(5) -0.008(6)
C27 0.069(9) 0.044(8) 0.044(7) -0.008(5) -0.014(6) -0.020(7)
C28 0.040(7) 0.041(7) 0.030(6) -0.007(5) 0.000(5) -0.001(5)
C29 0.059(8) 0.043(7) 0.058(8) -0.019(6) 0.015(6) -0.032(6)
C30 0.044(7) 0.055(8) 0.036(6) -0.019(5) -0.001(5) -0.004(6)
C31 0.064(9) 0.045(8) 0.056(8) -0.001(6) -0.002(7) -0.022(7)
C32 0.035(7) 0.040(8) 0.061(8) -0.018(6) -0.012(6) 0.017(5)
C33 0.053(8) 0.054(8) 0.028(6) -0.007(5) 0.010(5) -0.020(6)
C34 0.042(7) 0.032(7) 0.038(6) -0.004(5) 0.002(5) -0.013(5)
C35 0.032(6) 0.035(7) 0.052(7) -0.022(5) -0.011(5) -0.003(5)
C36 0.054(8) 0.070(9) 0.038(6) -0.029(6) 0.005(5) -0.029(7)
C37 0.062(9) 0.028(7) 0.050(7) -0.006(5) -0.009(6) -0.002(6)
C38 0.054(8) 0.049(8) 0.046(7) -0.004(6) -0.005(6) -0.023(6)
C39 0.055(9) 0.067(10) 0.048(8) -0.013(7) -0.009(6) 0.000(7)
C40 0.029(6) 0.062(9) 0.040(7) 0.013(6) 0.006(5) -0.011(6)
C41 0.041(7) 0.030(6) 0.042(6) 0.004(5) -0.005(5) -0.002(5)
C42 0.028(6) 0.037(7) 0.038(6) 0.000(5) 0.011(5) -0.010(5)
C43 0.051(7) 0.046(8) 0.044(7) -0.004(5) -0.005(5) -0.010(6)
C44 0.066(9) 0.063(9) 0.049(7) 0.029(6) -0.022(6) -0.043(8)
C45 0.045(8) 0.049(8) 0.067(8) 0.006(6) 0.007(6) 0.000(6)
C46 0.046(7) 0.056(9) 0.054(7) 0.000(6) -0.025(6) -0.025(6)
C47 0.045(7) 0.054(8) 0.050(8) -0.001(6) 0.022(6) -0.025(6)
C48 0.048(8) 0.057(9) 0.037(7) 0.008(6) 0.006(5) 0.009(6)
C49 0.048(7) 0.050(8) 0.035(6) 0.010(5) -0.005(5) -0.006(6)
C50 0.061(8) 0.047(8) 0.031(6) -0.002(5) 0.002(5) -0.009(6)
C51 0.029(6) 0.034(6) 0.039(6) -0.005(5) -0.010(4) -0.003(5)
C52 0.037(7) 0.044(7) 0.037(6) -0.009(5) 0.006(5) -0.021(5)
C53 0.053(8) 0.038(7) 0.042(6) 0.000(5) -0.019(5) -0.008(6)
C54 0.052(8) 0.048(8) 0.053(7) -0.028(6) -0.014(6) 0.004(6)
C55 0.049(8) 0.041(7) 0.044(7) -0.014(5) 0.002(5) -0.007(6)
C56 0.052(8) 0.029(6) 0.045(7) 0.000(5) 0.005(5) -0.009(5)
C57 0.048(8) 0.048(8) 0.061(8) 0.008(6) -0.012(6) -0.020(6)
C58 0.063(9) 0.057(9) 0.043(7) -0.001(6) -0.016(6) -0.011(7)
C59 0.076(10) 0.064(9) 0.033(6) 0.005(6) 0.008(6) -0.043(8)
C60 0.034(7) 0.050(8) 0.037(6) -0.003(5) -0.007(5) -0.011(6)
C61 0.041(7) 0.025(7) 0.067(8) 0.000(6) -0.024(6) -0.003(5)
C62 0.046(7) 0.036(7) 0.047(7) 0.001(5) 0.004(5) -0.013(6)
C63 0.062(9) 0.052(9) 0.062(8) -0.025(7) 0.003(7) -0.002(7)
C64 0.042(7) 0.043(7) 0.038(6) -0.003(5) -0.009(5) -0.013(5)
C65 0.059(8) 0.037(7) 0.052(7) -0.009(6) 0.013(6) -0.009(6)
C66 0.050(8) 0.064(10) 0.045(7) 0.006(6) -0.016(6) -0.020(7)
C67 0.059(8) 0.055(9) 0.034(6) 0.007(5) -0.012(6) -0.022(7)
C68 0.057(8) 0.030(7) 0.042(6) -0.010(5) -0.016(6) 0.005(5)
C69 0.040(7) 0.027(6) 0.055(7) 0.003(5) -0.024(6) -0.010(5)
C70 0.048(7) 0.052(8) 0.032(6) -0.008(5) -0.015(5) -0.015(6)
C71 0.051(8) 0.039(7) 0.047(7) -0.010(5) -0.019(6) -0.006(6)
C72 0.046(7) 0.050(7) 0.033(6) -0.015(5) -0.003(5) -0.009(6)
C73 0.056(9) 0.057(9) 0.060(8) 0.003(7) 0.002(6) -0.022(7)
C74 0.049(8) 0.060(9) 0.061(8) -0.002(6) -0.026(6) 0.000(6)
C75 0.076(11) 0.082(12) 0.054(9) -0.019(8) -0.002(7) 0.000(9)
C76 0.070(11) 0.058(10) 0.096(12) 0.031(8) -0.025(9) 0.006(8)
C77 0.087(12) 0.078(11) 0.074(10) -0.018(8) -0.030(9) -0.036(9)
C78 0.057(8) 0.053(8) 0.061(8) -0.009(6) -0.026(6) -0.015(6)
C79 0.075(10) 0.056(9) 0.053(8) -0.013(6) -0.018(7) -0.006(7)
C80 0.052(9) 0.074(11) 0.068(9) -0.014(7) 0.007(7) 0.010(7)
C81 0.090(12) 0.088(12) 0.059(9) 0.002(7) -0.037(8) -0.046(10)
C82 0.073(10) 0.060(10) 0.057(8) 0.014(7) -0.015(7) 0.005(8)
C83 0.062(9) 0.073(10) 0.061(8) 0.002(7) -0.018(7) -0.045(8)
C84 0.079(11) 0.066(10) 0.067(9) -0.018(8) 0.006(8) 0.012(8)
C85 0.051(8) 0.070(10) 0.047(7) -0.002(6) -0.005(6) -0.019(7)
C86 0.043(8) 0.088(12) 0.081(10) -0.037(8) 0.017(7) -0.022(7)
C87 0.053(8) 0.063(9) 0.038(7) 0.019(6) -0.007(6) -0.014(7)
C88 0.060(8) 0.048(8) 0.055(8) -0.009(6) 0.005(6) -0.030(7)
C89 0.079(11) 0.052(9) 0.070(9) -0.017(7) 0.009(8) -0.010(8)
C90 0.062(10) 0.063(10) 0.099(12) -0.038(9) -0.031(8) 0.009(8)
C91 0.048(8) 0.055(9) 0.052(8) -0.008(6) -0.018(6) 0.004(6)
C92 0.065(10) 0.073(10) 0.052(8) -0.007(7) -0.004(7) -0.017(8)
C93 0.073(11) 0.058(10) 0.103(12) -0.011(8) -0.030(9) -0.020(8)
C94 0.045(8) 0.062(9) 0.067(9) -0.001(7) -0.008(6) -0.018(7)
C95 0.064(9) 0.061(9) 0.053(8) -0.003(6) -0.018(6) -0.019(7)
C96 0.034(7) 0.073(10) 0.080(10) 0.012(7) -0.010(6) -0.020(7)
N1 0.022(5) 0.068(8) 0.045(6) -0.005(5) -0.010(4) -0.001(5)
N2 0.028(5) 0.064(7) 0.039(5) -0.007(5) -0.006(4) -0.011(5)
N3 0.039(6) 0.055(7) 0.032(5) 0.010(4) -0.013(4) -0.013(5)
N4 0.038(6) 0.037(6) 0.047(6) -0.006(4) -0.008(4) -0.006(4)
N5 0.034(6) 0.067(7) 0.041(6) 0.005(5) -0.012(4) -0.019(5)
N6 0.036(6) 0.061(7) 0.056(6) -0.022(5) 0.005(5) -0.018(5)
N7 0.032(5) 0.027(5) 0.038(5) -0.005(4) -0.006(4) -0.006(4)
N8 0.035(6) 0.049(6) 0.045(6) -0.009(5) 0.000(4) -0.014(5)
N9 0.037(5) 0.034(6) 0.041(5) -0.008(4) 0.008(4) 0.000(4)
N10 0.043(6) 0.028(5) 0.048(6) -0.005(4) -0.016(4) 0.005(4)
N11 0.057(7) 0.041(6) 0.044(6) -0.014(5) 0.004(5) -0.008(5)
N12 0.058(7) 0.035(6) 0.041(5) -0.006(4) -0.003(5) -0.008(5)
N13 0.048(6) 0.051(7) 0.045(6) -0.007(5) 0.011(5) -0.028(5)
N14 0.048(6) 0.022(5) 0.033(5) -0.004(4) 0.005(4) -0.002(4)
N15 0.048(6) 0.031(5) 0.042(5) -0.007(4) -0.008(4) -0.001(4)
N16 0.051(6) 0.023(5) 0.046(5) 0.000(4) -0.024(5) -0.006(4)
N17 0.068(8) 0.052(7) 0.066(7) -0.007(6) -0.027(6) -0.014(6)
N18 0.044(6) 0.048(6) 0.058(7) -0.015(5) -0.012(5) -0.003(5)
N19 0.084(9) 0.048(7) 0.071(8) -0.003(5) -0.028(7) -0.022(6)
N20 0.046(7) 0.082(9) 0.047(7) -0.004(6) -0.008(5) -0.009(6)
N21 0.054(7) 0.063(8) 0.058(7) -0.008(5) 0.010(5) -0.018(6)
N22 0.056(7) 0.062(8) 0.051(7) -0.011(5) 0.003(5) -0.012(6)
O1 0.035(5) 0.072(6) 0.050(5) -0.017(4) -0.004(4) -0.012(4)
O2 0.038(5) 0.051(5) 0.050(5) 0.008(4) 0.008(4) -0.009(4)
O3 0.036(5) 0.070(6) 0.052(5) -0.021(4) 0.006(4) -0.005(4)
O4 0.059(5) 0.055(5) 0.038(4) -0.014(4) -0.008(4) -0.022(4)
O5 0.068(6) 0.044(6) 0.058(5) 0.003(4) -0.017(4) -0.019(5)
O6 0.068(6) 0.039(5) 0.050(5) -0.016(4) -0.002(4) -0.008(4)
O7 0.089(7) 0.043(6) 0.043(5) 0.000(4) -0.014(5) -0.024(5)
O8 0.063(6) 0.033(5) 0.042(4) -0.005(3) -0.017(4) -0.002(4)
O9 0.070(7) 0.067(7) 0.109(8) -0.014(6) -0.013(6) -0.020(6)
O10 0.049(5) 0.047(5) 0.057(5) -0.022(4) -0.008(4) -0.010(4)
O11 0.077(7) 0.060(6) 0.064(6) -0.003(5) -0.017(5) -0.029(5)
O12 0.059(6) 0.072(7) 0.052(5) -0.002(5) -0.007(4) -0.017(5)
O13 0.045(5) 0.090(8) 0.054(6) -0.002(5) -0.001(4) -0.016(5)
O14 0.055(6) 0.056(6) 0.063(6) -0.004(4) -0.003(4) -0.018(4)

_geom_special_details            
; 
 All esds (except the esd in the dihedral angle between two l.s. planes) 
 are estimated using the full covariance matrix.  The cell esds are taken 
 into account individually in the estimation of esds in distances, angles 
 and torsion angles; correlations between esds in cell parameters are only 
 used when they are defined by crystal symmetry.  An approximate (isotropic) 
 treatment of cell esds is used for estimating esds involving l.s. planes. 
;

loop_
_geom_bond_atom_site_label_1
_geom_bond_atom_site_label_2
_geom_bond_distance
_geom_bond_site_symmetry_2
_geom_bond_publ_flag
Ag1 N1 2.052(9) . ?
Ag1 N4 2.107(9) 1_655 ?
Ag2 N2 2.033(9) . ?
Ag2 N3 2.096(10) . ?
Ag3 N5 2.055(9) . ?
Ag3 N8 2.063(10) 1_655 ?
Ag4 N6 2.052(10) . ?
Ag4 N7 2.078(9) . ?
Ag5 N12 2.055(10) 1_545 ?
Ag5 N9 2.092(10) . ?
Ag6 N10 2.090(9) . ?
Ag6 N11 2.098(10) . ?
Ag7 N16 2.055(9) 1_545 ?
Ag7 N13 2.110(10) . ?
Ag8 N15 2.063(9) . ?
Ag8 N14 2.087(9) . ?
C1 N1 1.398(14) . ?
C1 C6 1.404(16) . ?
C1 C2 1.432(16) . ?
C2 C3 1.296(17) . ?
C2 H2 0.9300 . ?
C3 C4 1.417(18) . ?
C3 H3 0.9300 . ?
C4 C5 1.391(17) . ?
C4 H4 0.9300 . ?
C5 C6 1.368(16) . ?
C5 H5 0.9300 . ?
C6 N2 1.430(15) . ?
C7 N2 1.357(15) . ?
C7 N1 1.396(15) . ?
C7 C8 1.489(16) . ?
C8 O1 1.465(15) . ?
C8 C9 1.480(18) . ?
C8 H8 0.9800 . ?
C9 H9A 0.9600 . ?
C9 H9B 0.9600 . ?
C9 H9C 0.9600 . ?
C10 N3 1.351(15) . ?
C10 C15 1.376(17) . ?
C10 C11 1.403(16) . ?
C11 C12 1.350(16) . ?
C11 H11 0.9300 . ?
C12 C13 1.409(18) . ?
C12 H12 0.9300 . ?
C13 C14 1.376(18) . ?
C13 H13 0.9300 . ?
C14 C15 1.438(17) . ?
C14 H14 0.9300 . ?
C15 N4 1.346(14) . ?
C16 N3 1.333(15) . ?
C16 N4 1.352(15) . ?
C16 C17 1.475(15) . ?
C17 O2 1.402(14) . ?
C17 C18 1.533(16) . ?
C17 H17 0.9800 . ?
C18 H18D 0.9600 . ?
C18 H18E 0.9600 . ?
C18 H18F 0.9600 . ?
C19 C24 1.370(16) . ?
C19 C20 1.402(16) . ?
C19 N5 1.408(14) . ?
C20 C21 1.333(16) . ?
C20 H20 0.9300 . ?
C21 C22 1.409(18) . ?
C21 H21 0.9300 . ?
C22 C23 1.414(17) . ?
C22 H22 0.9300 . ?
C23 C24 1.403(16) . ?
C23 H23 0.9300 . ?
C24 N6 1.399(15) . ?
C25 N5 1.325(16) . ?
C25 N6 1.353(15) . ?
C25 C26 1.494(16) . ?
C26 O3 1.391(13) . ?
C26 C27 1.500(17) . ?
C26 H26 0.9800 . ?
C27 H27A 0.9600 . ?
C27 H27B 0.9600 . ?
C27 H27C 0.9600 . ?
C28 N7 1.348(13) . ?
C28 C29 1.398(15) . ?
C28 C33 1.446(17) . ?
C29 C30 1.317(16) . ?
C29 H29 0.9300 . ?
C30 C31 1.437(18) . ?
C30 H30 0.9300 . ?
C31 C32 1.358(17) . ?
C31 H31 0.9300 . ?
C32 C33 1.419(16) . ?
C32 H32 0.9300 . ?
C33 N8 1.395(14) . ?
C34 N8 1.328(15) . ?
C34 N7 1.339(15) . ?
C34 C35 1.532(15) . ?
C35 O4 1.421(13) . ?
C35 C36 1.519(17) . ?
C35 H35 0.9800 . ?
C36 H36A 0.9600 . ?
C36 H36B 0.9600 . ?
C36 H36C 0.9600 . ?
C37 N9 1.362(15) . ?
C37 C42 1.382(16) . ?
C37 C38 1.391(16) . ?
C38 C39 1.385(18) . ?
C38 H38 0.9300 . ?
C39 C40 1.362(19) . ?
C39 H39 0.9300 . ?
C40 C41 1.371(16) . ?
C40 H40 0.9300 . ?
C41 C42 1.398(15) . ?
C41 H41 0.9300 . ?
C42 N10 1.392(14) . ?
C43 N10 1.284(17) . ?
C43 N9 1.348(17) . ?
C43 C44 1.519(17) . ?
C44 O5 1.351(14) . ?
C44 C45 1.500(18) . ?
C44 H44 0.9800 . ?
C45 H45A 0.9600 . ?
C45 H45B 0.9600 . ?
C45 H45C 0.9600 . ?
C46 N11 1.370(14) . ?
C46 C47 1.390(17) . ?
C46 C51 1.390(16) . ?
C47 C48 1.390(18) . ?
C47 H47 0.9300 . ?
C48 C49 1.390(18) . ?
C48 H48 0.9300 . ?
C49 C50 1.390(15) . ?
C49 H49 0.9300 . ?
C50 C51 1.390(15) . ?
C50 H50 0.9300 . ?
C51 N12 1.342(14) . ?
C52 N12 1.354(15) . ?
C52 N11 1.362(16) . ?
C52 C53 1.444(16) . ?
C53 O6 1.435(14) . ?
C53 C54 1.536(17) . ?
C53 H53 0.9800 . ?
C54 H54A 0.9600 . ?
C54 H54B 0.9600 . ?
C54 H54C 0.9600 . ?
C55 C56 1.362(16) . ?
C55 N13 1.390(15) . ?
C55 C60 1.391(17) . ?
C56 C57 1.407(16) . ?
C56 H56 0.9300 . ?
C57 C58 1.369(18) . ?
C57 H57 0.9300 . ?
C58 C59 1.387(17) . ?
C58 H58 0.9300 . ?
C59 C60 1.359(17) . ?
C59 H59 0.9300 . ?
C60 N14 1.468(13) . ?
C61 N14 1.268(16) . ?
C61 N13 1.327(16) . ?
C61 C62 1.500(17) . ?
C62 O7 1.442(15) . ?
C62 C63 1.469(16) . ?
C62 H62 0.9800 . ?
C63 H63A 0.9600 . ?
C63 H63B 0.9600 . ?
C63 H63C 0.9600 . ?
C64 N15 1.352(13) . ?
C64 C65 1.364(16) . ?
C64 C69 1.482(16) . ?
C65 C66 1.441(17) . ?
C65 H65 0.9300 . ?
C66 C67 1.361(18) . ?
C66 H66 0.9300 . ?
C67 C68 1.402(16) . ?
C67 H67 0.9300 . ?
C68 C69 1.381(15) . ?
C68 H68 0.9300 . ?
C69 N16 1.445(13) . ?
C70 N16 1.308(15) . ?
C70 N15 1.381(17) . ?
C70 C71 1.542(15) . ?
C71 O8 1.429(13) . ?
C71 C72 1.555(17) . ?
C71 H71 0.9800 . ?
C72 H72A 0.9600 . ?
C72 H72B 0.9600 . ?
C72 H72C 0.9600 . ?
C73 N17 1.481(17) . ?
C73 H73A 0.9600 . ?
C73 H73B 0.9600 . ?
C73 H73C 0.9600 . ?
C74 N17 1.502(16) . ?
C74 H74A 0.9600 . ?
C74 H74B 0.9600 . ?
C74 H74C 0.9600 . ?
C75 O9 1.250(17) . ?
C75 C76 1.424(19) . ?
C75 N17 1.522(17) . ?
C76 H76D 0.9600 . ?
C76 H76E 0.9600 . ?
C76 H76F 0.9600 . ?
C77 C79 1.530(17) . ?
C77 H77A 0.9600 . ?
C77 H77B 0.9600 . ?
C77 H77C 0.9600 . ?
C78 N18 1.492(17) . ?
C78 H78A 0.9600 . ?
C78 H78B 0.9600 . ?
C78 H78C 0.9600 . ?
C79 N18 1.401(17) . ?
C79 C80 1.57(2) . ?
C80 H80A 0.9600 . ?
C80 H80B 0.9600 . ?
C80 H80C 0.9600 . ?
C81 N19 1.56(2) . ?
C81 H81A 0.9600 . ?
C81 H81B 0.9600 . ?
C81 H81C 0.9600 . ?
C82 N19 1.486(17) . ?
C82 H82A 0.9600 . ?
C82 H82B 0.9600 . ?
C82 H82C 0.9600 . ?
C83 O11 1.222(15) . ?
C83 N19 1.442(17) . ?
C83 C84 1.50(2) . ?
C84 H84D 0.9600 . ?
C84 H84E 0.9600 . ?
C84 H84F 0.9600 . ?
C85 N21 1.481(16) . ?
C85 H85A 0.9600 . ?
C85 H85B 0.9600 . ?
C85 H85C 0.9600 . ?
C86 N21 1.588(16) . ?
C86 H86A 0.9600 . ?
C86 H86B 0.9600 . ?
C86 H86C 0.9600 . ?
C87 O14 1.271(15) . ?
C87 N21 1.349(16) . ?
C87 C88 1.574(18) . ?
C88 H88A 0.9600 . ?
C88 H88B 0.9600 . ?
C88 H88C 0.9600 . ?
C89 N20 1.524(17) . ?
C89 H89A 0.9600 . ?
C89 H89B 0.9600 . ?
C89 H89C 0.9600 . ?
C90 C91 1.479(19) . ?
C90 H90A 0.9600 . ?
C90 H90B 0.9600 . ?
C90 H90C 0.9600 . ?
C91 O12 1.227(14) . ?
C91 N20 1.319(17) . ?
C92 N20 1.616(17) . ?
C92 H92D 0.9600 . ?
C92 H92E 0.9600 . ?
C92 H92F 0.9600 . ?
C93 N22 1.506(18) . ?
C93 H93A 0.9600 . ?
C93 H93B 0.9600 . ?
C93 H93C 0.9600 . ?
C94 C95 1.573(19) . ?
C94 H94A 0.9600 . ?
C94 H94B 0.9600 . ?
C94 H94C 0.9600 . ?
C95 N22 1.410(16) . ?
C95 C96 1.464(18) . ?
C96 H96D 0.9600 . ?
C96 H96E 0.9600 . ?
C96 H96F 0.9600 . ?
N4 Ag1 2.107(9) 1_455 ?
N8 Ag3 2.063(9) 1_455 ?
N12 Ag5 2.055(10) 1_565 ?
N16 Ag7 2.055(9) 1_565 ?
N18 O10 1.270(12) . ?
N22 O13 1.172(13) . ?
O1 H1X 0.8501 . ?
O2 H2X 0.8499 . ?
O3 H3X 0.8499 . ?
O4 H4X 0.8500 . ?
O5 H5X 0.8499 . ?
O6 H6X 0.8501 . ?
O7 H7X 0.8500 . ?
O8 H8X 0.8500 . ?

loop_
_geom_angle_atom_site_label_1
_geom_angle_atom_site_label_2
_geom_angle_atom_site_label_3
_geom_angle
_geom_angle_site_symmetry_1
_geom_angle_site_symmetry_3
_geom_angle_publ_flag
N1 Ag1 N4 172.3(4) . 1_655 ?
N2 Ag2 N3 174.8(4) . . ?
N5 Ag3 N8 173.2(4) . 1_655 ?
N6 Ag4 N7 174.8(4) . . ?
N12 Ag5 N9 175.2(4) 1_545 . ?
N10 Ag6 N11 175.8(4) . . ?
N16 Ag7 N13 175.7(4) 1_545 . ?
N15 Ag8 N14 171.7(4) . . ?
N1 C1 C6 112.6(10) . . ?
N1 C1 C2 129.8(10) . . ?
C6 C1 C2 117.6(10) . . ?
C3 C2 C1 117.5(12) . . ?
C3 C2 H2 121.2 . . ?
C1 C2 H2 121.2 . . ?
C2 C3 C4 127.3(13) . . ?
C2 C3 H3 116.4 . . ?
C4 C3 H3 116.4 . . ?
C5 C4 C3 114.7(12) . . ?
C5 C4 H4 122.6 . . ?
C3 C4 H4 122.6 . . ?
C6 C5 C4 120.6(12) . . ?
C6 C5 H5 119.7 . . ?
C4 C5 H5 119.7 . . ?
C5 C6 C1 122.0(12) . . ?
C5 C6 N2 132.2(12) . . ?
C1 C6 N2 105.8(9) . . ?
N2 C7 N1 115.8(10) . . ?
N2 C7 C8 121.1(11) . . ?
N1 C7 C8 122.5(11) . . ?
O1 C8 C9 112.9(10) . . ?
O1 C8 C7 108.6(10) . . ?
C9 C8 C7 111.8(11) . . ?
O1 C8 H8 107.8 . . ?
C9 C8 H8 107.8 . . ?
C7 C8 H8 107.8 . . ?
C8 C9 H9A 109.5 . . ?
C8 C9 H9B 109.5 . . ?
H9A C9 H9B 109.5 . . ?
C8 C9 H9C 109.5 . . ?
H9A C9 H9C 109.5 . . ?
H9B C9 H9C 109.5 . . ?
N3 C10 C15 107.3(10) . . ?
N3 C10 C11 132.3(11) . . ?
C15 C10 C11 120.4(12) . . ?
C12 C11 C10 118.5(12) . . ?
C12 C11 H11 120.7 . . ?
C10 C11 H11 120.7 . . ?
C11 C12 C13 120.3(12) . . ?
C11 C12 H12 119.8 . . ?
C13 C12 H12 119.8 . . ?
C14 C13 C12 124.3(12) . . ?
C14 C13 H13 117.8 . . ?
C12 C13 H13 117.8 . . ?
C13 C14 C15 113.4(12) . . ?
C13 C14 H14 123.3 . . ?
C15 C14 H14 123.3 . . ?
N4 C15 C10 109.4(11) . . ?
N4 C15 C14 127.4(11) . . ?
C10 C15 C14 122.9(12) . . ?
N3 C16 N4 111.9(10) . . ?
N3 C16 C17 123.7(12) . . ?
N4 C16 C17 123.7(11) . . ?
O2 C17 C16 112.6(10) . . ?
O2 C17 C18 105.5(10) . . ?
C16 C17 C18 111.8(10) . . ?
O2 C17 H17 109.0 . . ?
C16 C17 H17 109.0 . . ?
C18 C17 H17 109.0 . . ?
C17 C18 H18D 109.5 . . ?
C17 C18 H18E 109.5 . . ?
H18D C18 H18E 109.5 . . ?
C17 C18 H18F 109.5 . . ?
H18D C18 H18F 109.5 . . ?
H18E C18 H18F 109.5 . . ?
C24 C19 C20 120.4(11) . . ?
C24 C19 N5 108.8(10) . . ?
C20 C19 N5 130.7(11) . . ?
C21 C20 C19 117.2(12) . . ?
C21 C20 H20 121.4 . . ?
C19 C20 H20 121.4 . . ?
C20 C21 C22 123.5(12) . . ?
C20 C21 H21 118.3 . . ?
C22 C21 H21 118.3 . . ?
C21 C22 C23 119.7(11) . . ?
C21 C22 H22 120.1 . . ?
C23 C22 H22 120.1 . . ?
C24 C23 C22 114.8(13) . . ?
C24 C23 H23 122.6 . . ?
C22 C23 H23 122.6 . . ?
C19 C24 N6 108.9(10) . . ?
C19 C24 C23 123.7(12) . . ?
N6 C24 C23 127.4(12) . . ?
N5 C25 N6 116.4(11) . . ?
N5 C25 C26 119.8(10) . . ?
N6 C25 C26 123.2(11) . . ?
O3 C26 C25 106.7(9) . . ?
O3 C26 C27 109.4(11) . . ?
C25 C26 C27 113.1(10) . . ?
O3 C26 H26 109.2 . . ?
C25 C26 H26 109.2 . . ?
C27 C26 H26 109.2 . . ?
C26 C27 H27A 109.5 . . ?
C26 C27 H27B 109.5 . . ?
H27A C27 H27B 109.5 . . ?
C26 C27 H27C 109.5 . . ?
H27A C27 H27C 109.5 . . ?
H27B C27 H27C 109.5 . . ?
N7 C28 C29 136.6(11) . . ?
N7 C28 C33 106.2(9) . . ?
C29 C28 C33 117.1(10) . . ?
C30 C29 C28 119.4(12) . . ?
C30 C29 H29 120.3 . . ?
C28 C29 H29 120.3 . . ?
C29 C30 C31 123.8(12) . . ?
C29 C30 H30 118.1 . . ?
C31 C30 H30 118.1 . . ?
C32 C31 C30 120.4(12) . . ?
C32 C31 H31 119.8 . . ?
C30 C31 H31 119.8 . . ?
C31 C32 C33 115.9(13) . . ?
C31 C32 H32 122.1 . . ?
C33 C32 H32 122.1 . . ?
N8 C33 C32 129.0(12) . . ?
N8 C33 C28 107.8(10) . . ?
C32 C33 C28 123.0(11) . . ?
N8 C34 N7 114.9(10) . . ?
N8 C34 C35 124.5(11) . . ?
N7 C34 C35 120.5(11) . . ?
O4 C35 C36 107.2(9) . . ?
O4 C35 C34 109.9(10) . . ?
C36 C35 C34 110.9(9) . . ?
O4 C35 H35 109.6 . . ?
C36 C35 H35 109.6 . . ?
C34 C35 H35 109.6 . . ?
C35 C36 H36A 109.5 . . ?
C35 C36 H36B 109.5 . . ?
H36A C36 H36B 109.5 . . ?
C35 C36 H36C 109.5 . . ?
H36A C36 H36C 109.5 . . ?
H36B C36 H36C 109.5 . . ?
N9 C37 C42 109.3(11) . . ?
N9 C37 C38 128.9(12) . . ?
C42 C37 C38 121.6(12) . . ?
C39 C38 C37 117.5(12) . . ?
C39 C38 H38 121.3 . . ?
C37 C38 H38 121.3 . . ?
C40 C39 C38 120.0(12) . . ?
C40 C39 H39 120.0 . . ?
C38 C39 H39 120.0 . . ?
C39 C40 C41 123.7(11) . . ?
C39 C40 H40 118.2 . . ?
C41 C40 H40 118.2 . . ?
C40 C41 C42 116.4(11) . . ?
C40 C41 H41 121.8 . . ?
C42 C41 H41 121.8 . . ?
C37 C42 N10 105.8(10) . . ?
C37 C42 C41 120.3(11) . . ?
N10 C42 C41 133.9(11) . . ?
N10 C43 N9 114.4(11) . . ?
N10 C43 C44 123.0(13) . . ?
N9 C43 C44 122.3(13) . . ?
O5 C44 C45 111.7(12) . . ?
O5 C44 C43 110.5(11) . . ?
C45 C44 C43 107.3(11) . . ?
O5 C44 H44 109.1 . . ?
C45 C44 H44 109.1 . . ?
C43 C44 H44 109.1 . . ?
C44 C45 H45A 109.5 . . ?
C44 C45 H45B 109.5 . . ?
H45A C45 H45B 109.5 . . ?
C44 C45 H45C 109.5 . . ?
H45A C45 H45C 109.5 . . ?
H45B C45 H45C 109.5 . . ?
N11 C46 C47 131.3(12) . . ?
N11 C46 C51 108.7(11) . . ?
C47 C46 C51 120.0(11) . . ?
C48 C47 C46 120.0(12) . . ?
C48 C47 H47 120.0 . . ?
C46 C47 H47 120.0 . . ?
C47 C48 C49 120.0(11) . . ?
C47 C48 H48 120.0 . . ?
C49 C48 H48 120.0 . . ?
C50 C49 C48 120.0(11) . . ?
C50 C49 H49 120.0 . . ?
C48 C49 H49 120.0 . . ?
C51 C50 C49 120.0(12) . . ?
C51 C50 H50 120.0 . . ?
C49 C50 H50 120.0 . . ?
N12 C51 C50 131.7(11) . . ?
N12 C51 C46 108.3(9) . . ?
C50 C51 C46 120.0(10) . . ?
N12 C52 N11 111.9(10) . . ?
N12 C52 C5