####################################################################### 
# 
# This file contains crystal structure data downloaded from the 
# Cambridge Structural Database (CSD) hosted by the Cambridge 
# Crystallographic Data Centre (CCDC).
# 
# Full information about CCDC data access policies and citation 
# guidelines are available at http://www.ccdc.cam.ac.uk/access/V1 
# 
# Audit and citation data items may have been added by the CCDC. 
# Please retain this information to preserve the provenance of 
# this file and to allow appropriate attribution of the data. 
# 
#######################################################################

data_sad
_audit_block_doi                 10.5517/cc112vnm
_database_code_depnum_ccdc_archive 'CCDC 956060'
loop_
_citation_id
_citation_doi
_citation_year
1 10.1016/j.inoche.2013.11.011 2014
_audit_update_record             
;
2013-08-15 deposited with the CCDC.	2024-07-11 downloaded from the CCDC.
;

_audit_creation_method           SHELXL-97
_chemical_name_systematic        
; 
 ? 
;
_chemical_name_common            ?
_chemical_melting_point          'not measured'
_chemical_formula_moiety         'C24 H16 Cd N12 S2'
_chemical_formula_sum            'C24 H16 Cd N12 S2'
_chemical_formula_weight         649.01

loop_
_atom_type_symbol
_atom_type_description
_atom_type_scat_dispersion_real
_atom_type_scat_dispersion_imag
_atom_type_scat_source
C C 0.0033 0.0016 'International Tables Vol C Tables 4.2.6.8 and 6.1.1.4'
H H 0.0000 0.0000 'International Tables Vol C Tables 4.2.6.8 and 6.1.1.4'
N N 0.0061 0.0033 'International Tables Vol C Tables 4.2.6.8 and 6.1.1.4'
S S 0.1246 0.1234 'International Tables Vol C Tables 4.2.6.8 and 6.1.1.4'
Cd Cd -0.8075 1.2024 'International Tables Vol C Tables 4.2.6.8 and 6.1.1.4'

_symmetry_cell_setting           Monoclinic
_symmetry_space_group_name_H-M   'C2/c  '

loop_
_symmetry_equiv_pos_as_xyz
'x, y, z'
'-x, y, -z+1/2'
'x+1/2, y+1/2, z'
'-x+1/2, y+1/2, -z+1/2'
'-x, -y, -z'
'x, -y, z-1/2'
'-x+1/2, -y+1/2, -z'
'x+1/2, -y+1/2, z-1/2'

_cell_length_a                   21.3927(6)
_cell_length_b                   24.0819(6)
_cell_length_c                   15.8047(4)
_cell_angle_alpha                90.00
_cell_angle_beta                 130.500(2)
_cell_angle_gamma                90.00
_cell_volume                     6191.4(3)
_cell_formula_units_Z            8
_cell_measurement_temperature    293(2)
_cell_measurement_reflns_used    7718
_cell_measurement_theta_min      1.55
_cell_measurement_theta_max      28.35

_exptl_crystal_description       block
_exptl_crystal_colour            yellow
_exptl_crystal_size_max          0.33
_exptl_crystal_size_mid          0.27
_exptl_crystal_size_min          0.24
_exptl_crystal_density_meas      'not measured'
_exptl_crystal_density_diffrn    1.393
_exptl_crystal_density_method    'not measured'
_exptl_crystal_F_000             2592
_exptl_absorpt_coefficient_mu    0.874
_exptl_absorpt_correction_type   empirical
_exptl_absorpt_correction_T_min  0.689
_exptl_absorpt_correction_T_max  0.862
_exptl_absorpt_process_details   SADABS

_exptl_special_details           
; 
 ? 
;

_diffrn_ambient_temperature      293(2)
_diffrn_radiation_wavelength     0.71073
_diffrn_radiation_type           MoK\a
_diffrn_radiation_source         'fine-focus sealed tube'
_diffrn_radiation_monochromator  graphite
_diffrn_measurement_device_type  'CCD area detector'
_diffrn_measurement_method       'phi and omega scans'
_diffrn_detector_area_resol_mean 9.00cm
_diffrn_standards_number         none
_diffrn_standards_interval_count none
_diffrn_standards_interval_time  none
_diffrn_standards_decay_%        none
_diffrn_reflns_number            22624
_diffrn_reflns_av_R_equivalents  0.0448
_diffrn_reflns_av_sigmaI/netI    0.0557
_diffrn_reflns_limit_h_min       -28
_diffrn_reflns_limit_h_max       27
_diffrn_reflns_limit_k_min       -26
_diffrn_reflns_limit_k_max       32
_diffrn_reflns_limit_l_min       -18
_diffrn_reflns_limit_l_max       21
_diffrn_reflns_theta_min         1.55
_diffrn_reflns_theta_max         28.35
_reflns_number_total             7718
_reflns_number_gt                5164
_reflns_threshold_expression     >2sigma(I)

_computing_data_collection       'Bruker SMART'
_computing_cell_refinement       'Bruker SMART'
_computing_data_reduction        'Bruker SAINT'
_computing_structure_solution    'SHELXS-97 (Sheldrick, 1990)'
_computing_structure_refinement  'SHELXL-97 (Sheldrick, 1997)'
_computing_molecular_graphics    SHELXP-97
_computing_publication_material  SHELXTL

_refine_special_details          
; 
 Refinement of F^2^ against ALL reflections.  The weighted R-factor wR and 
 goodness of fit S are based on F^2^, conventional R-factors R are based 
 on F, with F set to zero for negative F^2^. The threshold expression of 
 F^2^ > 2sigma(F^2^) is used only for calculating R-factors(gt) etc. and is 
 not relevant to the choice of reflections for refinement.  R-factors based 
 on F^2^ are statistically about twice as large as those based on F, and R- 
 factors based on ALL data will be even larger. 
;

_refine_ls_structure_factor_coef Fsqd
_refine_ls_matrix_type           full
_refine_ls_weighting_scheme      calc
_refine_ls_weighting_details     
'calc w=1/[\s^2^(Fo^2^)+(0.0944P)^2^+0.7846P] where P=(Fo^2^+2Fc^2^)/3'
_atom_sites_solution_primary     direct
_atom_sites_solution_secondary   difmap
_atom_sites_solution_hydrogens   geom
_refine_ls_hydrogen_treatment    none
_refine_ls_extinction_method     none
_refine_ls_extinction_coef       ?
_refine_ls_number_reflns         7718
_refine_ls_number_parameters     352
_refine_ls_number_restraints     0
_refine_ls_R_factor_all          0.0794
_refine_ls_R_factor_gt           0.0443
_refine_ls_wR_factor_ref         0.1699
_refine_ls_wR_factor_gt          0.1464
_refine_ls_goodness_of_fit_ref   1.101
_refine_ls_restrained_S_all      1.101
_refine_ls_shift/su_max          0.000
_refine_ls_shift/su_mean         0.000

loop_
_atom_site_label
_atom_site_type_symbol
_atom_site_fract_x
_atom_site_fract_y
_atom_site_fract_z
_atom_site_U_iso_or_equiv
_atom_site_adp_type
_atom_site_occupancy
_atom_site_symmetry_multiplicity
_atom_site_calc_flag
_atom_site_refinement_flags
_atom_site_disorder_assembly
_atom_site_disorder_group
Cd1 Cd 0.190762(19) 0.126771(13) -0.32949(2) 0.02891(12) Uani 1 1 d . . .
S1 S 0.17214(10) 0.06178(5) -0.46858(11) 0.0454(3) Uani 1 1 d . . .
S2 S 0.31577(8) 0.18423(7) -0.19577(10) 0.0476(4) Uani 1 1 d . . .
N1 N 0.1533(3) 0.11396(19) -0.5571(4) 0.0457(11) Uani 1 1 d . . .
N2 N 0.1551(2) 0.16614(15) -0.5309(3) 0.0320(8) Uani 1 1 d . . .
N3 N 0.0977(3) 0.19338(18) -0.7138(4) 0.0531(13) Uani 1 1 d . . .
N4 N 0.1014(3) 0.14109(18) -0.7376(4) 0.0491(12) Uani 1 1 d . . .
N5 N 0.1650(2) -0.05194(16) -0.7627(3) 0.0325(8) Uani 1 1 d . . .
N6 N 0.1531(5) 0.3758(2) -0.5230(7) 0.087(2) Uani 1 1 d . . .
N7 N 0.3163(3) 0.18997(19) -0.0866(4) 0.0463(11) Uani 1 1 d . . .
N8 N 0.2580(2) 0.16399(16) -0.0922(3) 0.0330(8) Uani 1 1 d . . .
N9 N 0.3192(3) 0.1978(2) 0.0885(4) 0.0589(14) Uani 1 1 d . . .
N10 N 0.3756(3) 0.2251(2) 0.0927(3) 0.0561(13) Uani 1 1 d . . .
N11 N 0.5823(2) 0.31639(16) 0.1032(3) 0.0326(8) Uani 1 1 d . . .
N12 N 0.0924(3) 0.0783(2) 0.0012(4) 0.0530(12) Uani 1 1 d . . .
C1 C 0.1301(3) 0.20412(19) -0.6092(4) 0.0372(11) Uani 1 1 d . . .
C2 C 0.1313(3) 0.10165(19) -0.6621(4) 0.0338(10) Uani 1 1 d . . .
C3 C 0.1774(5) 0.3363(3) -0.4520(7) 0.075(2) Uani 1 1 d . . .
H3 H 0.2005 0.3467 -0.3802 0.080 Uiso 1 1 calc . . .
C4 C 0.1718(4) 0.2795(2) -0.4740(5) 0.0561(15) Uani 1 1 d . . .
H4 H 0.1914 0.2533 -0.4186 0.080 Uiso 1 1 calc . . .
C5 C 0.1367(3) 0.2640(2) -0.5789(4) 0.0410(11) Uani 1 1 d . . .
C6 C 0.1094(4) 0.3048(2) -0.6579(5) 0.0589(16) Uani 1 1 d . . .
H6 H 0.0853 0.2961 -0.7308 0.080 Uiso 1 1 calc . . .
C7 C 0.1202(6) 0.3599(3) -0.6217(8) 0.084(3) Uani 1 1 d . . .
H7 H 0.1016 0.3876 -0.6743 0.080 Uiso 1 1 calc . . .
C8 C 0.2244(3) -0.0315(2) -0.6610(4) 0.0415(12) Uani 1 1 d . . .
H8 H 0.2740 -0.0505 -0.6131 0.080 Uiso 1 1 calc . . .
C9 C 0.2140(3) 0.0176(2) -0.6249(4) 0.0422(12) Uani 1 1 d . . .
H9 H 0.2564 0.0310 -0.5540 0.080 Uiso 1 1 calc . . .
C10 C 0.1411(3) 0.04618(19) -0.6939(4) 0.0325(10) Uani 1 1 d . . .
C11 C 0.0800(3) 0.0245(2) -0.7993(4) 0.0352(10) Uani 1 1 d . . .
H11 H 0.0299 0.0426 -0.8488 0.080 Uiso 1 1 calc . . .
C12 C 0.0944(3) -0.02414(19) -0.8298(3) 0.0324(10) Uani 1 1 d . . .
H12 H 0.0528 -0.0383 -0.9005 0.080 Uiso 1 1 calc . . .
C13 C 0.2636(3) 0.1685(2) -0.0028(4) 0.0365(11) Uani 1 1 d . . .
C14 C 0.3771(3) 0.2208(2) 0.0107(4) 0.0368(11) Uani 1 1 d . . .
C15 C 0.0773(4) 0.0914(3) -0.0925(5) 0.0608(17) Uani 1 1 d . . .
H15 H 0.0271 0.0803 -0.1592 0.080 Uiso 1 1 calc . . .
C16 C 0.1300(4) 0.1198(2) -0.0986(5) 0.0507(14) Uani 1 1 d . . .
H16 H 0.1156 0.1269 -0.1672 0.080 Uiso 1 1 calc . . .
C17 C 0.2036(3) 0.1377(2) -0.0029(4) 0.0376(11) Uani 1 1 d . . .
C18 C 0.2205(4) 0.1251(3) 0.0952(5) 0.0643(19) Uani 1 1 d . . .
H18 H 0.2702 0.1361 0.1628 0.080 Uiso 1 1 calc . . .
C19 C 0.1652(4) 0.0966(3) 0.0937(5) 0.068(2) Uani 1 1 d . . .
H19 H 0.1786 0.0891 0.1616 0.080 Uiso 1 1 calc . . .
C20 C 0.5108(3) 0.3175(2) -0.0023(4) 0.0376(11) Uani 1 1 d . . .
H20 H 0.5062 0.3412 -0.0525 0.080 Uiso 1 1 calc . . .
C21 C 0.4442(3) 0.2853(2) -0.0394(4) 0.0401(12) Uani 1 1 d . . .
H21 H 0.3969 0.2864 -0.1140 0.080 Uiso 1 1 calc . . .
C22 C 0.4477(3) 0.2511(2) 0.0346(4) 0.0371(11) Uani 1 1 d . . .
C23 C 0.5237(3) 0.2487(2) 0.1440(4) 0.0480(14) Uani 1 1 d . . .
H23 H 0.5302 0.2251 0.1958 0.080 Uiso 1 1 calc . . .
C24 C 0.5878(3) 0.2807(2) 0.1741(4) 0.0433(12) Uani 1 1 d . . .
H24 H 0.6375 0.2780 0.2465 0.080 Uiso 1 1 calc . . .

loop_
_atom_site_aniso_label
_atom_site_aniso_U_11
_atom_site_aniso_U_22
_atom_site_aniso_U_33
_atom_site_aniso_U_23
_atom_site_aniso_U_13
_atom_site_aniso_U_12
Cd1 0.03097(18) 0.02893(18) 0.02608(17) 0.00019(13) 0.01819(14) 0.00111(13)
S1 0.0787(10) 0.0308(6) 0.0397(7) -0.0001(5) 0.0443(7) -0.0009(6)
S2 0.0445(7) 0.0728(9) 0.0323(6) -0.0168(6) 0.0281(6) -0.0242(7)
N1 0.049(3) 0.053(3) 0.038(2) -0.001(2) 0.030(2) 0.002(2)
N2 0.044(2) 0.0281(19) 0.0303(19) -0.0036(15) 0.0268(18) -0.0016(16)
N3 0.089(4) 0.035(2) 0.044(2) 0.008(2) 0.048(3) 0.013(2)
N4 0.075(3) 0.039(2) 0.035(2) 0.0045(18) 0.037(2) 0.012(2)
N5 0.041(2) 0.034(2) 0.0279(18) -0.0066(16) 0.0243(18) -0.0039(16)
N6 0.121(6) 0.034(3) 0.117(6) -0.016(3) 0.083(5) -0.012(3)
N7 0.046(2) 0.054(3) 0.042(2) -0.001(2) 0.030(2) -0.007(2)
N8 0.0301(19) 0.039(2) 0.0303(19) -0.0016(16) 0.0198(17) -0.0062(16)
N9 0.054(3) 0.094(4) 0.035(2) -0.022(2) 0.032(2) -0.040(3)
N10 0.055(3) 0.085(4) 0.034(2) -0.018(2) 0.031(2) -0.036(3)
N11 0.0316(19) 0.038(2) 0.0253(18) -0.0013(16) 0.0170(16) -0.0060(16)
N12 0.049(3) 0.063(3) 0.055(3) -0.003(2) 0.038(2) -0.013(2)
C1 0.047(3) 0.031(2) 0.042(3) 0.004(2) 0.033(2) 0.006(2)
C2 0.042(3) 0.036(2) 0.026(2) -0.0002(19) 0.023(2) 0.004(2)
C3 0.104(6) 0.051(4) 0.085(5) -0.023(4) 0.068(5) -0.013(4)
C4 0.079(4) 0.040(3) 0.065(4) -0.013(3) 0.053(4) -0.012(3)
C5 0.048(3) 0.031(2) 0.054(3) -0.003(2) 0.038(3) -0.001(2)
C6 0.072(4) 0.038(3) 0.073(4) 0.010(3) 0.050(4) 0.005(3)
C7 0.099(6) 0.037(3) 0.111(7) 0.017(4) 0.067(6) 0.010(4)
C8 0.040(3) 0.042(3) 0.034(2) -0.007(2) 0.021(2) 0.003(2)
C9 0.044(3) 0.040(3) 0.030(2) -0.008(2) 0.018(2) 0.001(2)
C10 0.044(3) 0.032(2) 0.028(2) -0.0054(18) 0.026(2) -0.002(2)
C11 0.032(2) 0.039(3) 0.030(2) -0.0008(19) 0.018(2) 0.0003(19)
C12 0.035(2) 0.035(2) 0.026(2) -0.0050(18) 0.0193(19) -0.0021(19)
C13 0.037(2) 0.045(3) 0.030(2) -0.002(2) 0.023(2) -0.007(2)
C14 0.033(2) 0.050(3) 0.024(2) -0.002(2) 0.0167(19) -0.011(2)
C15 0.046(3) 0.090(5) 0.046(3) -0.016(3) 0.030(3) -0.029(3)
C16 0.049(3) 0.068(4) 0.039(3) -0.007(3) 0.030(3) -0.020(3)
C17 0.037(3) 0.043(3) 0.035(2) -0.004(2) 0.025(2) -0.006(2)
C18 0.048(3) 0.101(6) 0.039(3) -0.001(3) 0.026(3) -0.027(3)
C19 0.064(4) 0.101(6) 0.043(3) 0.002(3) 0.037(3) -0.025(4)
C20 0.035(2) 0.044(3) 0.028(2) 0.003(2) 0.018(2) -0.006(2)
C21 0.033(2) 0.051(3) 0.021(2) 0.006(2) 0.0105(19) -0.006(2)
C22 0.036(2) 0.047(3) 0.025(2) -0.006(2) 0.019(2) -0.017(2)
C23 0.043(3) 0.063(4) 0.025(2) 0.005(2) 0.017(2) -0.015(3)
C24 0.033(2) 0.059(3) 0.024(2) 0.006(2) 0.012(2) -0.009(2)

_geom_special_details            
; 
 All esds (except the esd in the dihedral angle between two l.s. planes) 
 are estimated using the full covariance matrix.  The cell esds are taken 
 into account individually in the estimation of esds in distances, angles 
 and torsion angles; correlations between esds in cell parameters are only 
 used when they are defined by crystal symmetry.  An approximate (isotropic) 
 treatment of cell esds is used for estimating esds involving l.s. planes. 
;

loop_
_geom_bond_atom_site_label_1
_geom_bond_atom_site_label_2
_geom_bond_distance
_geom_bond_site_symmetry_2
_geom_bond_publ_flag
Cd1 N11 2.276(4) 8_455 ?
Cd1 N5 2.328(4) 6_556 ?
Cd1 S2 2.4883(13) . ?
Cd1 S1 2.5106(13) . ?
S1 N1 1.722(5) . ?
S2 N7 1.724(5) . ?
N1 N2 1.316(6) . ?
N1 C2 1.431(6) . ?
N2 C1 1.339(6) . ?
N3 N4 1.331(6) . ?
N3 C1 1.340(6) . ?
N4 C2 1.321(6) . ?
N5 C12 1.333(6) . ?
N5 C8 1.338(6) . ?
N5 Cd1 2.328(4) 6 ?
N6 C7 1.283(11) . ?
N6 C3 1.295(10) . ?
N7 N8 1.345(6) . ?
N7 C14 1.417(6) . ?
N8 C13 1.343(6) . ?
N9 C13 1.330(6) . ?
N9 N10 1.337(6) . ?
N10 C14 1.321(6) . ?
N11 C20 1.344(6) . ?
N11 C24 1.355(6) . ?
N11 Cd1 2.276(4) 8_556 ?
N12 C15 1.333(8) . ?
N12 C19 1.341(7) . ?
C1 C5 1.497(7) . ?
C2 C10 1.490(6) . ?
C3 C4 1.397(9) . ?
C4 C5 1.355(7) . ?
C5 C6 1.384(7) . ?
C6 C7 1.404(10) . ?
C8 C9 1.390(7) . ?
C9 C10 1.372(7) . ?
C10 C11 1.389(6) . ?
C11 C12 1.374(6) . ?
C13 C17 1.483(7) . ?
C14 C22 1.488(6) . ?
C15 C16 1.373(8) . ?
C16 C17 1.363(7) . ?
C17 C18 1.378(8) . ?
C18 C19 1.355(8) . ?
C20 C21 1.375(7) . ?
C21 C22 1.393(6) . ?
C22 C23 1.410(6) . ?
C23 C24 1.361(7) . ?

loop_
_geom_angle_atom_site_label_1
_geom_angle_atom_site_label_2
_geom_angle_atom_site_label_3
_geom_angle
_geom_angle_site_symmetry_1
_geom_angle_site_symmetry_3
_geom_angle_publ_flag
N11 Cd1 N5 102.03(14) 8_455 6_556 ?
N11 Cd1 S2 105.63(10) 8_455 . ?
N5 Cd1 S2 119.05(10) 6_556 . ?
N11 Cd1 S1 115.57(10) 8_455 . ?
N5 Cd1 S1 87.97(10) 6_556 . ?
S2 Cd1 S1 124.20(5) . . ?
N1 S1 Cd1 94.39(16) . . ?
N7 S2 Cd1 101.52(16) . . ?
N2 N1 C2 118.8(4) . . ?
N2 N1 S1 119.9(3) . . ?
C2 N1 S1 121.2(4) . . ?
N1 N2 C1 116.7(4) . . ?
N4 N3 C1 117.0(4) . . ?
C2 N4 N3 120.5(4) . . ?
C12 N5 C8 118.1(4) . . ?
C12 N5 Cd1 120.6(3) . 6 ?
C8 N5 Cd1 120.7(3) . 6 ?
C7 N6 C3 115.4(6) . . ?
N8 N7 C14 118.3(4) . . ?
N8 N7 S2 119.5(3) . . ?
C14 N7 S2 122.2(3) . . ?
C13 N8 N7 116.6(4) . . ?
C13 N9 N10 117.2(4) . . ?
C14 N10 N9 120.6(4) . . ?
C20 N11 C24 117.1(4) . . ?
C20 N11 Cd1 124.1(3) . 8_556 ?
C24 N11 Cd1 118.7(3) . 8_556 ?
C15 N12 C19 114.0(5) . . ?
N2 C1 N3 125.8(4) . . ?
N2 C1 C5 117.7(4) . . ?
N3 C1 C5 116.5(4) . . ?
N4 C2 N1 120.1(4) . . ?
N4 C2 C10 115.5(4) . . ?
N1 C2 C10 124.4(4) . . ?
N6 C3 C4 125.6(7) . . ?
C5 C4 C3 117.6(6) . . ?
C4 C5 C6 118.8(5) . . ?
C4 C5 C1 121.3(5) . . ?
C6 C5 C1 119.9(5) . . ?
C5 C6 C7 116.2(6) . . ?
N6 C7 C6 126.4(7) . . ?
N5 C8 C9 121.7(4) . . ?
C10 C9 C8 120.2(4) . . ?
C9 C10 C11 117.5(4) . . ?
C9 C10 C2 121.2(4) . . ?
C11 C10 C2 120.9(4) . . ?
C12 C11 C10 119.4(4) . . ?
N5 C12 C11 123.1(4) . . ?
N9 C13 N8 126.2(4) . . ?
N9 C13 C17 115.5(4) . . ?
N8 C13 C17 118.3(4) . . ?
N10 C14 N7 121.0(4) . . ?
N10 C14 C22 112.3(4) . . ?
N7 C14 C22 126.7(4) . . ?
N12 C15 C16 125.3(5) . . ?
C17 C16 C15 119.3(5) . . ?
C16 C17 C18 116.7(5) . . ?
C16 C17 C13 122.3(5) . . ?
C18 C17 C13 121.0(5) . . ?
C19 C18 C17 120.2(6) . . ?
N12 C19 C18 124.6(6) . . ?
N11 C20 C21 123.2(4) . . ?
C20 C21 C22 120.0(4) . . ?
C21 C22 C23 116.4(4) . . ?
C21 C22 C14 125.8(4) . . ?
C23 C22 C14 117.6(4) . . ?
C24 C23 C22 120.2(4) . . ?
N11 C24 C23 123.0(4) . . ?

_diffrn_measured_fraction_theta_max 0.998
_diffrn_reflns_theta_full        28.35
_diffrn_measured_fraction_theta_full 0.998
_refine_diff_density_max         1.024
_refine_diff_density_min         -0.883
_refine_diff_density_rms         0.143
