####################################################################### 
# 
# This file contains crystal structure data downloaded from the 
# Cambridge Structural Database (CSD) hosted by the Cambridge 
# Crystallographic Data Centre (CCDC).
# 
# Full information about CCDC data access policies and citation 
# guidelines are available at http://www.ccdc.cam.ac.uk/access/V1 
# 
# Audit and citation data items may have been added by the CCDC. 
# Please retain this information to preserve the provenance of 
# this file and to allow appropriate attribution of the data. 
# 
#######################################################################

data_1
_audit_block_doi                 10.5517/cc10x4wy
_database_code_depnum_ccdc_archive 'CCDC 950580'
loop_
_citation_id
_citation_doi
_citation_year
1 10.1016/j.inoche.2013.10.031 2014
_audit_update_record             
;
2013-07-16 deposited with the CCDC.	2024-07-11 downloaded from the CCDC.
;

_audit_creation_method           SHELXL-97
_chemical_name_systematic        
; 
 ? 
;
_chemical_name_common            ?
_chemical_melting_point          ?
_chemical_formula_moiety         ?
_chemical_formula_sum            'C23 H22 N2 O9 Zn'
_chemical_formula_weight         535.80

loop_
_atom_type_symbol
_atom_type_description
_atom_type_scat_dispersion_real
_atom_type_scat_dispersion_imag
_atom_type_scat_source
C C 0.0033 0.0016 'International Tables Vol C Tables 4.2.6.8 and 6.1.1.4'
H H 0.0000 0.0000 'International Tables Vol C Tables 4.2.6.8 and 6.1.1.4'
N N 0.0061 0.0033 'International Tables Vol C Tables 4.2.6.8 and 6.1.1.4'
O O 0.0106 0.0060 'International Tables Vol C Tables 4.2.6.8 and 6.1.1.4'
Zn Zn 0.2839 1.4301 'International Tables Vol C Tables 4.2.6.8 and 6.1.1.4'

_symmetry_cell_setting           Orthorhombic
_symmetry_space_group_name_H-M   'Pbca '

loop_
_symmetry_equiv_pos_as_xyz
'x, y, z'
'-x+1/2, -y, z+1/2'
'-x, y+1/2, -z+1/2'
'x+1/2, -y+1/2, -z'
'-x, -y, -z'
'x-1/2, y, -z-1/2'
'x, -y-1/2, z-1/2'
'-x-1/2, y-1/2, z'

_cell_length_a                   21.339(12)
_cell_length_b                   10.199(6)
_cell_length_c                   22.162(12)
_cell_angle_alpha                90.00
_cell_angle_beta                 90.00
_cell_angle_gamma                90.00
_cell_volume                     4823(5)
_cell_formula_units_Z            8
_cell_measurement_temperature    200(2)
_cell_measurement_reflns_used    ?
_cell_measurement_theta_min      ?
_cell_measurement_theta_max      ?

_exptl_crystal_description       block
_exptl_crystal_colour            colorless
_exptl_crystal_size_max          0.28
_exptl_crystal_size_mid          0.22
_exptl_crystal_size_min          0.20
_exptl_crystal_density_meas      ?
_exptl_crystal_density_diffrn    1.476
_exptl_crystal_density_method    'not measured'
_exptl_crystal_F_000             2208
_exptl_absorpt_coefficient_mu    1.073
_exptl_absorpt_correction_type   empirical
_exptl_absorpt_correction_T_min  0.7532
_exptl_absorpt_correction_T_max  0.8140
_exptl_absorpt_process_details   SADABS

_exptl_special_details           
; 
 ? 
;

_diffrn_ambient_temperature      293(2)
_diffrn_radiation_wavelength     0.71073
_diffrn_radiation_type           MoK\a
_diffrn_radiation_source         'fine-focus sealed tube'
_diffrn_radiation_monochromator  graphite
_diffrn_measurement_device_type  'Bruker APEX-II CCD'
_diffrn_measurement_method       '\f and \w scans'
_diffrn_reflns_number            19577
_diffrn_reflns_av_R_equivalents  0.1603
_diffrn_reflns_av_sigmaI/netI    0.1098
_diffrn_reflns_limit_h_min       -24
_diffrn_reflns_limit_h_max       25
_diffrn_reflns_limit_k_min       -12
_diffrn_reflns_limit_k_max       12
_diffrn_reflns_limit_l_min       -26
_diffrn_reflns_limit_l_max       15
_diffrn_reflns_theta_min         1.91
_diffrn_reflns_theta_max         25.00
_reflns_number_total             4235
_reflns_number_gt                2036
_reflns_threshold_expression     >2sigma(I)

_computing_data_collection       'Bruker APEX2'
_computing_cell_refinement       'Bruker SAINT'
_computing_data_reduction        'Bruker SAINT'
_computing_structure_solution    'SHELXS-97 (Sheldrick, 2008)'
_computing_structure_refinement  'SHELXL-97 (Sheldrick, 2008)'
_computing_molecular_graphics    'Bruker SHELXTL'
_computing_publication_material  'Bruker SHELXTL'

_refine_special_details          
; 
 Refinement of F^2^ against ALL reflections.  The weighted R-factor wR and 
 goodness of fit S are based on F^2^, conventional R-factors R are based 
 on F, with F set to zero for negative F^2^. The threshold expression of 
 F^2^ > 2sigma(F^2^) is used only for calculating R-factors(gt) etc. and is 
 not relevant to the choice of reflections for refinement.  R-factors based 
 on F^2^ are statistically about twice as large as those based on F, and R- 
 factors based on ALL data will be even larger. 
;

_refine_ls_structure_factor_coef Fsqd
_refine_ls_matrix_type           full
_refine_ls_weighting_scheme      calc
_refine_ls_weighting_details     
'calc w=1/[\s^2^(Fo^2^)+(0.0903P)^2^+0.0000P] where P=(Fo^2^+2Fc^2^)/3'
_atom_sites_solution_primary     direct
_atom_sites_solution_secondary   difmap
_atom_sites_solution_hydrogens   geom
_refine_ls_hydrogen_treatment    constr
_refine_ls_extinction_method     none
_refine_ls_extinction_coef       ?
_refine_ls_number_reflns         4235
_refine_ls_number_parameters     316
_refine_ls_number_restraints     0
_refine_ls_R_factor_all          0.1681
_refine_ls_R_factor_gt           0.0769
_refine_ls_wR_factor_ref         0.2064
_refine_ls_wR_factor_gt          0.1749
_refine_ls_goodness_of_fit_ref   1.014
_refine_ls_restrained_S_all      1.014
_refine_ls_shift/su_max          0.000
_refine_ls_shift/su_mean         0.000

loop_
_atom_site_label
_atom_site_type_symbol
_atom_site_fract_x
_atom_site_fract_y
_atom_site_fract_z
_atom_site_U_iso_or_equiv
_atom_site_adp_type
_atom_site_occupancy
_atom_site_symmetry_multiplicity
_atom_site_calc_flag
_atom_site_refinement_flags
_atom_site_disorder_assembly
_atom_site_disorder_group
Zn1 Zn 0.09031(4) 0.55178(7) 0.42828(4) 0.0421(3) Uani 1 1 d . . .
O1 O 0.0893(2) 0.6980(4) 0.4873(2) 0.0485(13) Uani 1 1 d . . .
O2 O 0.0871(3) 1.3983(4) 0.4820(2) 0.0561(14) Uani 1 1 d . . .
O3 O 0.1001(3) 0.8065(4) 0.4017(2) 0.0558(15) Uani 1 1 d . . .
C23 C 0.0924(3) 0.8044(6) 0.4565(4) 0.0400(18) Uani 1 1 d . . .
N1 N 0.0133(3) 0.5568(5) 0.3749(2) 0.0415(15) Uani 1 1 d . . .
N2 N -0.3277(3) 0.5466(5) 0.1186(3) 0.0446(15) Uani 1 1 d . . .
C9 C 0.0876(3) 1.0463(5) 0.4590(3) 0.0429(17) Uani 1 1 d . . .
H9A H 0.0924 1.0447 0.4172 0.051 Uiso 1 1 calc R . .
O4 O 0.0824(3) 1.2857(4) 0.3967(3) 0.0654(16) Uani 1 1 d . . .
C11 C 0.0820(3) 1.1654(6) 0.4885(3) 0.0434(19) Uani 1 1 d . . .
C12 C 0.0860(3) 0.9309(5) 0.4906(3) 0.0422(18) Uani 1 1 d . . .
C13 C -0.0976(4) 0.5673(8) 0.3084(4) 0.056(2) Uani 1 1 d . . .
C14 C -0.0892(5) 0.4836(7) 0.3553(4) 0.060(2) Uani 1 1 d . . .
H14A H -0.1217 0.4270 0.3654 0.072 Uiso 1 1 calc R . .
C15 C 0.0686(4) 1.0537(7) 0.5804(4) 0.067(3) Uani 1 1 d . . .
C16 C 0.0757(4) 0.9342(7) 0.5509(4) 0.062(2) Uani 1 1 d . . .
H16A H 0.0733 0.8564 0.5726 0.074 Uiso 1 1 calc R . .
C17 C -0.3179(4) 0.4623(7) 0.1629(4) 0.061(2) Uani 1 1 d . . .
H17A H -0.3503 0.4064 0.1740 0.073 Uiso 1 1 calc R . .
C18 C -0.2140(4) 0.5359(7) 0.1775(4) 0.058(2) Uani 1 1 d . . .
C19 C -0.1575(4) 0.5812(8) 0.2732(4) 0.068(3) Uani 1 1 d . . .
H19A H -0.1892 0.5277 0.2938 0.081 Uiso 1 1 calc R . .
C20 C -0.2243(4) 0.6243(8) 0.1321(4) 0.063(2) Uani 1 1 d . . .
H20A H -0.1928 0.6819 0.1205 0.076 Uiso 1 1 calc R . .
C21 C -0.0363(4) 0.4787(7) 0.3876(3) 0.050(2) Uani 1 1 d . . .
H21A H -0.0335 0.4202 0.4197 0.060 Uiso 1 1 calc R . .
C22 C 0.0732(4) 1.1693(6) 0.5491(4) 0.061(2) Uani 1 1 d . . .
H22A H 0.0703 1.2492 0.5691 0.073 Uiso 1 1 calc R . .
C24 C 0.0068(4) 0.6403(7) 0.3297(3) 0.050(2) Uani 1 1 d . . .
H24A H 0.0402 0.6950 0.3201 0.060 Uiso 1 1 calc R . .
C26 C -0.2806(4) 0.6271(7) 0.1045(4) 0.059(2) Uani 1 1 d . . .
H26A H -0.2869 0.6884 0.0740 0.071 Uiso 1 1 calc R . .
C27 C -0.1513(4) 0.5290(8) 0.2110(4) 0.072(3) Uani 1 1 d . . .
H27A H -0.1229 0.5886 0.1897 0.087 Uiso 1 1 calc R . .
C28 C -0.2611(4) 0.4537(8) 0.1935(4) 0.071(3) Uani 1 1 d . . .
H28A H -0.2555 0.3929 0.2243 0.085 Uiso 1 1 calc R . .
C29 C -0.0477(4) 0.6496(7) 0.2958(3) 0.058(2) Uani 1 1 d . . .
H29A H -0.0508 0.7109 0.2649 0.069 Uiso 1 1 calc R . .
C30 C 0.1055(9) 0.8901(10) 0.6925(5) 0.115(5) Uani 1 1 d . . .
O6 O 0.0553(4) 1.0678(5) 0.6401(3) 0.122(3) Uani 1 1 d . . .
O7 O -0.1800(4) 0.7065(8) 0.2712(4) 0.153(4) Uani 1 1 d . . .
H7A H -0.1920 0.7284 0.3049 0.229 Uiso 1 1 calc R . .
C33 C 0.0827(4) 1.2899(6) 0.4517(4) 0.049(2) Uani 1 1 d . . .
C38 C 0.0447(7) 0.9536(10) 0.6755(4) 0.120(5) Uani 1 1 d . . .
H38A H 0.0193 0.8919 0.6529 0.144 Uiso 1 1 calc R . .
H38B H 0.0220 0.9773 0.7118 0.144 Uiso 1 1 calc R . .
C25 C 0.1530(8) 0.8376(12) 0.7030(6) 0.139(6) Uani 1 1 d . . .
H25 H 0.1908 0.7959 0.7113 0.166 Uiso 1 1 calc R . .
O8 O -0.1247(3) 0.4110(6) 0.2090(3) 0.101(2) Uani 1 1 d . . .
H8A H -0.1194 0.3894 0.1737 0.151 Uiso 1 1 calc R . .
O1W O 0.2794(10) 1.677(2) 0.6292(11) 0.471(17) Uani 1 1 d . . .
O2W O 0.2196(9) 1.3870(19) 0.5479(8) 0.353(10) Uani 1 1 d . . .

loop_
_atom_site_aniso_label
_atom_site_aniso_U_11
_atom_site_aniso_U_22
_atom_site_aniso_U_33
_atom_site_aniso_U_23
_atom_site_aniso_U_13
_atom_site_aniso_U_12
Zn1 0.0474(6) 0.0282(4) 0.0509(5) -0.0037(4) 0.0013(4) -0.0008(4)
O1 0.071(4) 0.018(2) 0.057(3) 0.004(2) 0.001(3) 0.000(2)
O2 0.075(4) 0.025(2) 0.068(4) -0.006(2) 0.005(3) 0.002(3)
O3 0.091(5) 0.031(2) 0.045(3) -0.005(2) 0.005(3) -0.002(3)
C23 0.036(5) 0.023(3) 0.061(5) 0.000(3) 0.000(4) -0.002(3)
N1 0.046(4) 0.030(3) 0.049(4) 0.001(3) -0.001(3) 0.004(3)
N2 0.041(4) 0.035(3) 0.058(4) 0.000(3) -0.005(3) 0.000(3)
C9 0.055(5) 0.021(3) 0.053(4) 0.002(3) 0.004(4) -0.005(4)
O4 0.098(5) 0.031(3) 0.067(4) 0.009(3) 0.015(4) 0.006(3)
C11 0.044(5) 0.026(3) 0.060(5) -0.002(3) 0.007(4) -0.002(3)
C12 0.045(5) 0.026(3) 0.056(5) 0.004(3) 0.005(4) -0.001(3)
C13 0.035(5) 0.077(6) 0.055(5) -0.025(5) -0.001(4) 0.004(5)
C14 0.075(7) 0.043(4) 0.062(5) -0.003(4) 0.007(5) -0.009(4)
C15 0.098(8) 0.048(4) 0.056(5) 0.009(4) 0.028(5) 0.013(5)
C16 0.085(7) 0.031(4) 0.070(6) 0.012(4) 0.017(5) -0.002(4)
C17 0.066(7) 0.038(4) 0.078(6) 0.012(4) -0.015(5) -0.006(4)
C18 0.045(6) 0.049(5) 0.079(6) -0.016(5) -0.006(5) 0.001(5)
C19 0.074(7) 0.065(5) 0.064(6) -0.025(4) -0.016(5) 0.021(5)
C20 0.044(6) 0.062(5) 0.084(7) -0.002(5) 0.005(5) -0.011(5)
C21 0.047(6) 0.048(4) 0.054(5) 0.001(4) 0.000(4) 0.001(4)
C22 0.091(8) 0.027(4) 0.064(6) 0.000(4) 0.018(5) 0.001(4)
C24 0.054(6) 0.046(4) 0.049(5) -0.007(4) 0.006(4) -0.003(4)
C26 0.048(6) 0.057(5) 0.073(6) 0.016(4) 0.002(5) -0.019(5)
C27 0.065(7) 0.074(6) 0.078(7) -0.027(5) -0.017(5) 0.013(5)
C28 0.075(7) 0.064(5) 0.075(6) 0.015(5) -0.030(5) -0.002(5)
C29 0.079(7) 0.045(4) 0.049(5) 0.004(4) -0.005(5) -0.002(5)
C30 0.214(19) 0.053(7) 0.078(8) 0.010(6) 0.002(9) 0.006(8)
O6 0.252(10) 0.048(4) 0.065(4) 0.001(3) 0.048(5) 0.003(5)
O7 0.144(8) 0.144(7) 0.171(8) -0.071(6) -0.068(6) 0.083(6)
C33 0.042(5) 0.019(3) 0.085(6) 0.007(4) 0.013(5) 0.001(3)
C38 0.213(16) 0.087(8) 0.060(7) 0.023(6) 0.029(8) 0.015(9)
C25 0.185(17) 0.080(9) 0.151(12) 0.011(9) -0.057(11) 0.027(9)
O8 0.100(6) 0.103(5) 0.100(5) -0.043(4) -0.038(4) 0.049(4)
O1W 0.38(3) 0.52(3) 0.52(3) -0.35(3) 0.17(2) -0.15(2)
O2W 0.40(2) 0.331(18) 0.331(19) 0.009(17) -0.205(18) 0.022(17)

_geom_special_details            
; 
 All esds (except the esd in the dihedral angle between two l.s. planes) 
 are estimated using the full covariance matrix.  The cell esds are taken 
 into account individually in the estimation of esds in distances, angles 
 and torsion angles; correlations between esds in cell parameters are only 
 used when they are defined by crystal symmetry.  An approximate (isotropic) 
 treatment of cell esds is used for estimating esds involving l.s. planes. 
;

loop_
_geom_bond_atom_site_label_1
_geom_bond_atom_site_label_2
_geom_bond_distance
_geom_bond_site_symmetry_2
_geom_bond_publ_flag
Zn1 O2 1.969(5) 1_545 ?
Zn1 O1 1.983(4) . ?
Zn1 N1 2.027(6) . ?
Zn1 N2 2.036(6) 6_656 ?
O1 C23 1.284(7) . ?
O2 C33 1.297(8) . ?
O2 Zn1 1.969(5) 1_565 ?
O3 C23 1.226(8) . ?
C23 C12 1.502(9) . ?
N1 C24 1.322(8) . ?
N1 C21 1.354(9) . ?
N2 C17 1.321(8) . ?
N2 C26 1.335(9) . ?
N2 Zn1 2.036(6) 6_556 ?
C9 C12 1.370(8) . ?
C9 C11 1.385(8) . ?
O4 C33 1.218(8) . ?
C11 C22 1.356(9) . ?
C11 C33 1.510(9) . ?
C12 C16 1.355(10) . ?
C13 C14 1.358(11) . ?
C13 C29 1.384(10) . ?
C13 C19 1.503(11) . ?
C14 C21 1.338(11) . ?
C15 O6 1.360(9) . ?
C15 C22 1.372(9) . ?
C15 C16 1.391(10) . ?
C17 C28 1.392(11) . ?
C18 C28 1.356(11) . ?
C18 C20 1.368(11) . ?
C18 C27 1.531(11) . ?
C19 O7 1.367(9) . ?
C19 C27 1.485(11) . ?
C20 C26 1.348(10) . ?
C24 C29 1.387(10) . ?
C27 O8 1.332(9) . ?
C30 C25 1.170(17) . ?
C30 C38 1.498(19) . ?
O6 C38 1.423(10) . ?

loop_
_geom_angle_atom_site_label_1
_geom_angle_atom_site_label_2
_geom_angle_atom_site_label_3
_geom_angle
_geom_angle_site_symmetry_1
_geom_angle_site_symmetry_3
_geom_angle_publ_flag
O2 Zn1 O1 101.46(19) 1_545 . ?
O2 Zn1 N1 110.2(2) 1_545 . ?
O1 Zn1 N1 110.9(2) . . ?
O2 Zn1 N2 108.6(2) 1_545 6_656 ?
O1 Zn1 N2 111.4(2) . 6_656 ?
N1 Zn1 N2 113.6(2) . 6_656 ?
C23 O1 Zn1 106.6(4) . . ?
C33 O2 Zn1 111.5(5) . 1_565 ?
O3 C23 O1 123.2(6) . . ?
O3 C23 C12 119.7(6) . . ?
O1 C23 C12 117.1(7) . . ?
C24 N1 C21 117.1(7) . . ?
C24 N1 Zn1 123.0(5) . . ?
C21 N1 Zn1 119.8(5) . . ?
C17 N2 C26 117.1(7) . . ?
C17 N2 Zn1 122.1(5) . 6_556 ?
C26 N2 Zn1 120.8(5) . 6_556 ?
C12 C9 C11 120.6(7) . . ?
C22 C11 C9 120.4(6) . . ?
C22 C11 C33 120.8(6) . . ?
C9 C11 C33 118.8(7) . . ?
C16 C12 C9 119.1(6) . . ?
C16 C12 C23 122.2(6) . . ?
C9 C12 C23 118.6(6) . . ?
C14 C13 C29 115.7(8) . . ?
C14 C13 C19 124.7(8) . . ?
C29 C13 C19 119.6(8) . . ?
C21 C14 C13 123.1(8) . . ?
O6 C15 C22 114.6(7) . . ?
O6 C15 C16 124.9(7) . . ?
C22 C15 C16 120.5(7) . . ?
C12 C16 C15 120.2(6) . . ?
N2 C17 C28 122.8(8) . . ?
C28 C18 C20 118.7(8) . . ?
C28 C18 C27 119.5(9) . . ?
C20 C18 C27 121.8(8) . . ?
O7 C19 C27 109.6(8) . . ?
O7 C19 C13 113.8(7) . . ?
C27 C19 C13 111.8(7) . . ?
C26 C20 C18 119.5(8) . . ?
C14 C21 N1 121.7(7) . . ?
C11 C22 C15 119.0(7) . . ?
N1 C24 C29 122.8(7) . . ?
N2 C26 C20 123.4(8) . . ?
O8 C27 C19 113.1(8) . . ?
O8 C27 C18 113.5(7) . . ?
C19 C27 C18 110.9(7) . . ?
C18 C28 C17 118.6(8) . . ?
C13 C29 C24 119.7(7) . . ?
C25 C30 C38 176.7(14) . . ?
C15 O6 C38 118.9(7) . . ?
O4 C33 O2 123.3(7) . . ?
O4 C33 C11 120.7(6) . . ?
O2 C33 C11 115.9(7) . . ?
O6 C38 C30 110.8(11) . . ?

_diffrn_measured_fraction_theta_max 0.999
_diffrn_reflns_theta_full        25.00
_diffrn_measured_fraction_theta_full 0.999
_refine_diff_density_max         0.718
_refine_diff_density_min         -0.471
_refine_diff_density_rms         0.101
