
#######################################################################
#
#                 Cambridge Crystallographic Data Centre
#                                CCDC
#
#######################################################################
#
# If this CIF has been generated from an entry in the Cambridge
# Structural Database, then it will include bibliographic, chemical,
# crystal, experimental, refinement or atomic coordinate data resulting
# from the CCDC's data processing and validation procedures.
#
#######################################################################

data_CSD_CIF_LMETON14
_audit_creation_date 2016-08-10
_audit_creation_method CSD-ConQuest-V1
_database_code_CSD LMETON14
_database_code_depnum_ccdc_archive 'CCDC 1472687'
_chemical_formula_sum 'C5 H11 N1 O2 S1'
_chemical_formula_moiety
;
C5 H11 N1 O2 S1
;
_journal_coeditor_code "ed5010"
_journal_coden_Cambridge 1742
_journal_volume 3
_journal_year 2016
_journal_page_first 341
_journal_name_full 'IUCrJ '
loop_
_publ_author_name
"C.H.Gorbitz"
"P.Karen"
"M.Dusek"
"V.Petricek"
_chemical_name_systematic
;
(S)-2-amino-4-(methylthio)butanoic acid
;
_chemical_name_common
;
L-methionine; DrugBank: DB00134; Teaching Subset: Essential Nutrients
;
_cell_volume    791.334
_exptl_crystal_colour 'colorless'
_exptl_crystal_density_diffrn 1.252
_exptl_special_details
;
Phase transitions at 300, 397 and 424 K

;
_exptl_crystal_description 'plate'
_diffrn_ambient_temperature 405
_refine_special_details
;
C22A,C32A,C42A,C52A,S12A and C21A,C31A,C41A,C51A,S11A and 
C23A,C33A,C43A,C53A,S13A and C24A,C34A,C44A,C54A,S14A disordered over four 
sites with occupancies 0.50:0.28:0.130:0.093; C24B,C34B,C44B,C54B,S14B and 
C26B,C36B,C46B,C56B,S16B and C25B,C35B,C45B,C55B,S15B and 
C22B,C32B,C42B,C52B,S12B and C23B,C33B,C43B,C53B,S13B and 
C21B,C31B,C41B,C51B,S11B disordered over six sites with occupancies 
0.239:0.224:0.174:0.153:0.139:0.098.
;
#These two values have been output from a single CSD field.
_refine_ls_R_factor_gt 0.1166
_refine_ls_wR_factor_gt 0.1166
loop_
_citation_database_id_CSD
_citation_special_details
FAZHAP "is a stereoisomer of this entry"
DLMETA "is a racemate of this entry"
_symmetry_cell_setting monoclinic
_symmetry_space_group_name_H-M 'P 21'
_symmetry_Int_Tables_number 4
loop_
_symmetry_equiv_pos_site_id
_symmetry_equiv_pos_as_xyz
1 x,y,z
2 -x,1/2+y,-z
_cell_length_a 9.588(4)
_cell_length_b 5.203(2)
_cell_length_c 16.101(7)
_cell_angle_alpha 90
_cell_angle_beta 99.869(13)
_cell_angle_gamma 90
_cell_formula_units_Z 4
loop_
_atom_type_symbol
_atom_type_radius_bond
C 0.68
H 0.23
N 0.68
O 0.68
S 1.02
loop_
_atom_site_label
_atom_site_type_symbol
_atom_site_fract_x
_atom_site_fract_y
_atom_site_fract_z
O1 O 0.1542(5) 0.249(3) 0.5780(4)
O2 O 0.2429(6) -0.120(3) 0.6253(5)
N1 N 0.4012(7) 0.465(3) 0.5735(5)
H1 H 0.41950 0.41990 0.52310
H2 H 0.47100 0.56420 0.59950
H3 H 0.32010 0.55200 0.56710
C1 C 0.2536(8) 0.111(3) 0.6062(6)
C2 C 0.412(2) 0.238(6) 0.6249(10)
H4 H 0.48410 0.11960 0.61080
C3 C 0.441(2) 0.311(4) 0.7163(10)
H5 H 0.51590 0.43830 0.72550
H6 H 0.35650 0.38820 0.73130
C4 C 0.482(3) 0.088(5) 0.7712(12)
H7 H 0.55990 0.00000 0.75160
H8 H 0.40330 -0.03050 0.76580
S1 S 0.535(3) 0.165(5) 0.8792(9)
C5 C 0.577(5) -0.129(7) 0.918(2)
H9 H 0.61960 -0.11640 0.97590
H10 H 0.64290 -0.20760 0.88650
H11 H 0.49300 -0.23210 0.91240
O3 O 0.6633(5) 0.696(3) 0.5801(4)
O4 O 0.7439(7) 0.307(3) 0.6116(5)
N2 N 0.9217(7) 0.892(3) 0.5891(5)
H12 H 0.95740 1.02590 0.62030
H13 H 0.83230 0.92530 0.56620
H14 H 0.97230 0.86500 0.54850
C6 C 0.7611(9) 0.541(3) 0.6050(6)
C7 C 0.900(7) 0.690(12) 0.6410(19)
H15 H 0.97100 0.56800 0.62770
C8 C 0.916(4) 0.650(8) 0.7363(19)
H16 H 0.83350 0.71950 0.75600
H17 H 0.92080 0.46770 0.74870
C9 C 1.047(5) 0.779(10) 0.7821(19)
H18 H 1.04740 0.95540 0.76220
H19 H 1.12850 0.69360 0.76710
S2 S 1.065(4) 0.784(8) 0.8942(16)
C10 C 1.065(14) 0.474(11) 0.923(4)
H20 H 0.99540 0.44680 0.95780
H21 H 1.15700 0.42860 0.95300
H22 H 1.04370 0.36870 0.87300
C11? C 0.390(4) 0.238(10) 0.6234(17)
H23? H 0.44690 0.11720 0.59630
C12? C 0.490(3) 0.288(7) 0.7042(15)
H24? H 0.58190 0.33300 0.69160
H25? H 0.45520 0.43230 0.73280
C13? C 0.504(5) 0.062(7) 0.760(2)
H26? H 0.53290 -0.08420 0.73020
H27? H 0.41260 0.02340 0.77510
S3? S 0.628(3) 0.104(6) 0.8546(16)
C14? C 0.522(7) 0.24(2) 0.915(3)
H28? H 0.57520 0.26950 0.97050
H29? H 0.44450 0.12680 0.91870
H30? H 0.48710 0.40010 0.89050
C15? C 0.386(6) 0.236(17) 0.635(3)
H31? H 0.45460 0.11080 0.62050
C16? C 0.418(4) 0.238(9) 0.729(3)
H32? H 0.34420 0.33050 0.75080
H33? H 0.41930 0.06290 0.75000
C17? C 0.556(5) 0.360(16) 0.761(3)
H34? H 0.55330 0.53560 0.74130
H35? H 0.62880 0.26990 0.73810
S4? S 0.603(7) 0.362(13) 0.873(3)
C18? C 0.485(12) 0.58(2) 0.896(5)
H36? H 0.49270 0.58920 0.95600
H37? H 0.39120 0.52210 0.87170
H38? H 0.50390 0.74120 0.87330
C19? C 0.374(10) 0.203(17) 0.613(3)
H39? H 0.42330 0.08080 0.58170
C20? C 0.451(7) 0.180(11) 0.702(3)
H40? H 0.44500 0.00480 0.72070
H41? H 0.55050 0.22010 0.70290
C21? C 0.393(5) 0.355(10) 0.759(3)
H42? H 0.29430 0.31350 0.75760
H43? H 0.39830 0.52950 0.73900
S5? S 0.482(8) 0.341(17) 0.865(2)
C22? C 0.635(9) 0.48(3) 0.855(5)
H44? H 0.70400 0.44840 0.90400
H45? H 0.62040 0.66360 0.84810
H46? H 0.66700 0.41340 0.80590
C23? C 0.926(7) 0.68(2) 0.638(3)
H47? H 1.00810 0.57020 0.63760
C24? C 0.911(7) 0.795(12) 0.724(4)
H48? H 0.98720 0.91720 0.74140
H49? H 0.82220 0.88660 0.71890
C25? C 0.917(6) 0.588(16) 0.789(4)
H50? H 0.84350 0.46310 0.76910
H51? H 0.89410 0.66430 0.84010
S6? S 1.081(6) 0.423(13) 0.815(3)
C26? C 1.197(10) 0.65(2) 0.859(10)
H52? H 1.28470 0.56670 0.88240
H53? H 1.15890 0.73320 0.90320
H54? H 1.21190 0.76970 0.81710
C27? C 0.898(7) 0.620(8) 0.663(3)
H55? H 0.97290 0.48940 0.66620
C28? C 0.888(5) 0.741(11) 0.748(3)
H56? H 0.83240 0.89770 0.73900
H57? H 0.83910 0.62350 0.78010
C29? C 1.031(6) 0.801(8) 0.797(3)
H58? H 1.02070 0.92790 0.83950
H59? H 1.08760 0.87870 0.75900
S7? S 1.127(5) 0.534(11) 0.848(3)
C30? C 1.026(10) 0.42(2) 0.915(6)
H60? H 1.06340 0.26220 0.93840
H61? H 0.93100 0.39950 0.88640
H62? H 1.02670 0.54530 0.96020
C31? C 0.902(11) 0.608(18) 0.625(2)
H63? H 0.95670 0.48770 0.59590
C32? C 0.962(8) 0.600(11) 0.719(3)
H64? H 0.93490 0.43980 0.74290
H65? H 1.06500 0.60460 0.72720
C33? C 0.910(9) 0.822(12) 0.764(3)
H66? H 0.80730 0.81440 0.75540
H67? H 0.93590 0.97960 0.73880
S8? S 0.973(6) 0.838(11) 0.875(2)
C34? C 0.917(19) 0.57(2) 0.914(5)
H68? H 0.93860 0.56930 0.97440
H69? H 0.96350 0.42110 0.89350
H70? H 0.81650 0.54940 0.89640
C35? C 0.914(8) 0.65(2) 0.630(2)
H71? H 0.97760 0.53280 0.60680
C36? C 0.992(4) 0.734(12) 0.717(2)
H72? H 1.08520 0.79660 0.71210
H73? H 0.94000 0.87290 0.73780
C37? C 1.006(7) 0.515(11) 0.778(3)
H74? H 1.05570 0.37610 0.75610
H75? H 0.91140 0.45270 0.78190
S9? S 1.095(6) 0.585(14) 0.883(2)
C38? C 1.254(7) 0.70(3) 0.870(5)
H76? H 1.31010 0.72940 0.92440
H77? H 1.24300 0.85090 0.83760
H78? H 1.30090 0.56870 0.84130
C39? C 0.902(8) 0.649(18) 0.627(2)
H79? H 0.97130 0.52640 0.61270
C40? C 0.947(3) 0.734(11) 0.719(2)
H80? H 1.04180 0.80370 0.72660
H81? H 0.88370 0.86880 0.73170
C41? C 0.943(7) 0.514(10) 0.778(2)
H82? H 1.00330 0.37840 0.76360
H83? H 0.84680 0.44680 0.77020
S10? S 0.996(5) 0.586(10) 0.8876(17)
C42? C 1.167(6) 0.67(3) 0.897(4)
H84? H 1.20000 0.72860 0.95380
H85? H 1.17610 0.80620 0.85840
H86? H 1.22140 0.52480 0.88540
#END
