####################################################################### 
# 
# This file contains crystal structure data downloaded from the 
# Cambridge Structural Database (CSD) hosted by the Cambridge 
# Crystallographic Data Centre (CCDC).
# 
# Full information about CCDC data access policies and citation 
# guidelines are available at http://www.ccdc.cam.ac.uk/access/V1 
# 
# Audit and citation data items may have been added by the CCDC. 
# Please retain this information to preserve the provenance of 
# this file and to allow appropriate attribution of the data. 
# 
#######################################################################

data_3
_audit_block_doi                 10.5517/cc11hsr2
_database_code_depnum_ccdc_archive 'CCDC 968494'
loop_
_citation_id
_citation_doi
_citation_year
1 10.1021/cg401590w 2014
_audit_update_record             
;
2013-11-26 deposited with the CCDC.	2024-07-11 downloaded from the CCDC.
;
_chemical_name_systematic        ?
_chemical_name_common            JMC180ver
_chemical_formula_moiety         ?
_chemical_formula_sum            'C39 H31 N5 Ni4 O16'
_chemical_formula_iupac          ?
_chemical_formula_weight         1060.53

_chemical_melting_point          ?

_space_group_crystal_system      monoclinic
_space_group_name_H-M_alt        'P 1 21/n 1'
_space_group_name_Hall           '-P 2yn'
loop_
_space_group_symop_operation_xyz
'x, y, z'
'-x+1/2, y+1/2, -z+1/2'
'-x, -y, -z'
'x-1/2, -y-1/2, z-1/2'

_cell_length_a                   13.2430(6)
_cell_length_b                   18.2511(8)
_cell_length_c                   21.8973(10)
_cell_angle_alpha                90
_cell_angle_beta                 104.1740(10)
_cell_angle_gamma                90
_cell_volume                     5131.4(4)
_cell_formula_units_Z            4
_cell_measurement_reflns_used    ?
_cell_measurement_theta_min      ?
_cell_measurement_theta_max      ?
_cell_measurement_temperature    296.(2)

_exptl_crystal_description       prismatic
_exptl_crystal_colour            'clear green'
_exptl_crystal_size_max          0.360
_exptl_crystal_size_mid          0.150
_exptl_crystal_size_min          0.130
_exptl_crystal_density_diffrn    1.373
_exptl_crystal_density_meas      ?
_exptl_crystal_density_method    'not measured'
_exptl_crystal_F_000             2160

_exptl_absorpt_coefficient_mu    1.510
_exptl_absorpt_correction_type   multi-scan
_exptl_absorpt_process_details   sadabs
_exptl_absorpt_correction_T_min  0.71
_exptl_absorpt_correction_T_max  0.83

_exptl_special_details           
;
;

_diffrn_ambient_temperature      296.(2)

_diffrn_source                   ?
_diffrn_source_type              ?

_diffrn_radiation_type           ?
_diffrn_radiation_wavelength     0.71073
_diffrn_radiation_monochromator  ?

_diffrn_measurement_device_type  ?
_diffrn_measurement_method       ?

_diffrn_detector_area_resol_mean ?

_diffrn_reflns_number            40059
_diffrn_reflns_av_R_equivalents  0.0455
_diffrn_reflns_av_sigmaI/netI    0.0413
_diffrn_reflns_theta_min         1.47
_diffrn_reflns_theta_max         25.35
_diffrn_reflns_theta_full        25.35
_diffrn_measured_fraction_theta_max 1.000
_diffrn_measured_fraction_theta_full 1.000
_diffrn_reflns_limit_h_min       -15
_diffrn_reflns_limit_h_max       15
_diffrn_reflns_limit_k_min       -21
_diffrn_reflns_limit_k_max       17
_diffrn_reflns_limit_l_min       -25
_diffrn_reflns_limit_l_max       26

_refine_special_details          
;
Refinement of F^2^ against ALL reflections.  The weighted R-factor wR and
goodness of fit S are based on F^2^, conventional R-factors R are based
on F, with F set to zero for negative F^2^. The threshold expression of
F^2^ > 2sigma(F^2^) is used only for calculating R-factors(gt) etc. and is
not relevant to the choice of reflections for refinement.  R-factors based
on F^2^ are statistically about twice as large as those based on F, and R-
factors based on ALL data will be even larger.
;

_reflns_number_total             9389
_reflns_number_gt                7309
_reflns_threshold_expression     >2sigma(I)

_refine_ls_structure_factor_coef Fsqd
_refine_ls_matrix_type           full
_refine_ls_R_factor_all          0.0714
_refine_ls_R_factor_gt           0.0531
_refine_ls_wR_factor_gt          0.1869
_refine_ls_wR_factor_ref         0.2049
_refine_ls_goodness_of_fit_ref   1.037
_refine_ls_restrained_S_all      1.037
_refine_ls_number_reflns         9389
_refine_ls_number_parameters     579
_refine_ls_number_restraints     12
_refine_ls_hydrogen_treatment    refxyz
_refine_ls_weighting_scheme      calc
_refine_ls_weighting_details     
'calc w=1/[\s^2^(Fo^2^)+(0.1266P)^2^+22.7044P] where P=(Fo^2^+2Fc^2^)/3'

_atom_sites_solution_hydrogens   geom
_atom_sites_solution_primary     direct
_atom_sites_solution_secondary   difmap

_refine_ls_shift/su_max          0.001
_refine_ls_shift/su_mean         0.000
_refine_diff_density_max         2.506
_refine_diff_density_min         -0.661
_refine_ls_extinction_method     none
_refine_ls_extinction_coef       ?

loop_
_atom_type_symbol
_atom_type_description
_atom_type_scat_dispersion_real
_atom_type_scat_dispersion_imag
_atom_type_scat_source
C C 0.0033 0.0016 'International Tables Vol C Tables 4.2.6.8 and 6.1.1.4'
H H 0.0000 0.0000 'International Tables Vol C Tables 4.2.6.8 and 6.1.1.4'
N N 0.0061 0.0033 'International Tables Vol C Tables 4.2.6.8 and 6.1.1.4'
O O 0.0106 0.0060 'International Tables Vol C Tables 4.2.6.8 and 6.1.1.4'
Ni Ni 0.3393 1.1124 'International Tables Vol C Tables 4.2.6.8 and 6.1.1.4'

_computing_data_collection       ?
_computing_cell_refinement       ?
_computing_data_reduction        ?
_computing_structure_solution    'SHELXS-97 (Sheldrick, 2008)'
_computing_structure_refinement  'SHELXL-97 (Sheldrick, 2008)'
_computing_molecular_graphics    ?
_computing_publication_material  ?

loop_
_atom_site_type_symbol
_atom_site_label
_atom_site_fract_x
_atom_site_fract_y
_atom_site_fract_z
_atom_site_U_iso_or_equiv
_atom_site_adp_type
_atom_site_calc_flag
_atom_site_refinement_flags
_atom_site_occupancy
_atom_site_disorder_assembly
_atom_site_disorder_group
C C1 0.7805(4) 0.8554(3) 0.1949(2) 0.0196(11) Uani d . 1 . .
C C2 0.7196(5) 0.9195(3) 0.2107(3) 0.0256(13) Uani d . 1 . .
C C3 0.7636(5) 0.9719(4) 0.2539(3) 0.0352(16) Uani d . 1 . .
H H3 0.8345 0.9703 0.2731 0.042 Uiso calc R 1 . .
C C4 0.7972(5) 0.5270(4) 0.2312(3) 0.0337(15) Uani d . 1 . .
H H4 0.766 0.5615 0.2013 0.04 Uiso calc R 1 . .
C C5 0.9404(5) 0.4849(4) 0.3030(3) 0.0447(19) Uani d . 1 . .
H H5 1.0099 0.4903 0.3243 0.054 Uiso calc R 1 . .
C C6 0.6153(5) 0.9276(4) 0.1808(4) 0.0442(19) Uani d . 1 . .
H H6 0.583 0.8945 0.1499 0.053 Uiso calc R 1 . .
C C7 1.3191(5) 0.6949(4) 0.1831(3) 0.0363(15) Uani d . 1 . .
C C8 0.4287(5) 0.6872(4) 0.1737(3) 0.0372(16) Uani d . 1 . .
C C9 0.4450(6) 0.6636(7) 0.1183(4) 0.078(3) Uani d . 1 . .
H H9 0.3887 0.6512 0.0853 0.093 Uiso calc R 1 . .
C C10 0.5466(7) 0.6580(7) 0.1109(5) 0.079(3) Uani d . 1 . .
H H10 0.5549 0.6395 0.0728 0.095 Uiso calc R 1 . .
C C11 0.6118(6) 0.6973(6) 0.2075(4) 0.065(3) Uani d . 1 . .
H H11 0.669 0.7097 0.24 0.078 Uiso calc R 1 . .
C C12 0.5150(6) 0.7021(6) 0.2204(4) 0.066(3) Uani d . 1 . .
H H12 0.5088 0.7153 0.2604 0.08 Uiso calc R 1 . .
C C13 1.0470(4) 0.7118(3) 0.3427(2) 0.0193(11) Uani d . 1 . .
C C14 1.0928(5) 0.7270(3) 0.4114(3) 0.0260(13) Uani d . 1 . .
C C15 1.1106(7) 0.7983(4) 0.4316(3) 0.050(2) Uani d . 1 . .
H H15 1.091 0.8368 0.4033 0.06 Uiso calc R 1 . .
C C16 1.1576(7) 0.8124(4) 0.4938(3) 0.053(2) Uani d . 1 . .
H H16 1.168 0.8611 0.5065 0.064 Uiso calc R 1 . .
C C17 0.6683(6) 0.8083(4) 0.0173(3) 0.0365(16) Uani d . 1 . .
H H17 0.6863 0.8457 0.0468 0.044 Uiso calc R 1 . .
C C18 1.1216(6) 0.6727(4) 0.4557(3) 0.0383(17) Uani d . 1 . .
H H18 1.1099 0.6238 0.4444 0.046 Uiso calc R 1 . .
C C19 1.1813(5) 0.5295(3) 0.2263(3) 0.0268(13) Uani d . 1 . .
C C20 1.2630(5) 0.4709(3) 0.2483(3) 0.0273(13) Uani d . 1 . .
C C21 1.2546(5) 0.4168(4) 0.2917(3) 0.0335(15) Uani d . 1 . .
H H21 1.1992 0.4172 0.3108 0.04 Uiso calc R 1 . .
C C22 1.1701(5) 0.8624(3) 0.1941(3) 0.0292(13) Uani d . 1 . .
H H22 1.1768 0.8263 0.1653 0.035 Uiso calc R 1 . .
C C23 1.0804(5) 0.9112(3) 0.2613(3) 0.0329(15) Uani d . 1 . .
H H23 1.0245 0.9095 0.28 0.039 Uiso calc R 1 . .
C C24 1.3485(5) 0.4676(4) 0.2223(3) 0.0346(15) Uani d . 1 . .
H H24 1.3579 0.5032 0.1938 0.042 Uiso calc R 1 . .
C C25 0.8797(4) 0.5737(3) 0.0979(2) 0.0191(11) Uani d . 1 . .
C C26 0.8759(4) 0.5128(3) 0.0499(3) 0.0236(12) Uani d . 1 . .
C C27 0.7965(6) 0.5096(5) -0.0045(3) 0.049(2) Uani d . 1 . .
H H27 0.7402 0.5414 -0.0099 0.059 Uiso calc R 1 . .
C C28 1.1989(5) 0.5405(4) 0.0503(3) 0.0461(19) Uani d . 1 . .
H H28 1.2523 0.541 0.0869 0.055 Uiso calc R 1 . .
C C29 1.0503(5) 0.5905(4) -0.0104(3) 0.0330(14) Uani d . 1 . .
H H29 0.9998 0.627 -0.0169 0.04 Uiso calc R 1 . .
C C30 0.9517(5) 0.4596(3) 0.0586(3) 0.0334(15) Uani d . 1 . .
H H30 1.0032 0.4571 0.096 0.04 Uiso calc R 1 . .
C C31 0.9546(4) 0.7657(3) 0.0680(3) 0.0217(12) Uani d . 1 . .
N N1 0.8990(4) 0.5331(3) 0.2578(2) 0.0262(11) Uani d . 1 . .
N N2 0.6314(4) 0.6769(3) 0.1533(3) 0.0359(13) Uani d . 1 . .
N N3 0.6889(4) 0.7395(3) 0.0368(2) 0.0271(11) Uani d . 1 . .
N N4 1.0881(4) 0.8592(2) 0.2198(2) 0.0222(10) Uani d . 1 . .
N N5 1.1210(4) 0.5887(3) 0.0446(2) 0.0283(11) Uani d . 1 . .
O O1 0.8737(3) 0.68938(18) 0.21158(16) 0.0148(7) Uani d . 1 . .
H H1 0.8404 0.6952 0.2466 0.018 Uiso calc R 1 . .
O O2 1.0815(3) 0.69219(19) 0.20426(16) 0.0159(7) Uani d . 1 . .
H H2 1.1477 0.6989 0.2356 0.019 Uiso calc R 1 . .
O O3 0.7290(3) 0.8107(2) 0.15589(18) 0.0264(9) Uani d . 1 . .
O O4 0.8745(3) 0.8512(2) 0.22289(18) 0.0236(9) Uani d . 1 . .
O O5 1.3074(4) 0.7019(4) 0.2376(2) 0.0535(15) Uani d . 1 . .
O O6 1.2477(3) 0.6946(3) 0.1324(2) 0.0343(10) Uani d . 1 . .
O O7 1.0268(3) 0.7677(2) 0.30810(18) 0.0267(9) Uani d . 1 . .
O O8 1.0337(3) 0.6464(2) 0.32617(18) 0.0262(9) Uani d . 1 . .
O O9 1.1150(3) 0.5393(2) 0.2570(2) 0.0279(9) Uani d . 1 . .
O O10 1.1872(3) 0.5621(2) 0.1768(2) 0.0333(10) Uani d . 1 . .
O O11 0.7977(3) 0.6097(2) 0.09417(18) 0.0251(9) Uani d . 1 . .
O O12 0.9655(3) 0.5828(2) 0.13729(17) 0.0235(9) Uani d . 1 . .
O O13 0.9096(3) 0.7658(2) 0.11297(17) 0.0217(8) Uani d . 1 . .
O O14 1.0308(3) 0.7260(2) 0.06536(19) 0.0304(10) Uani d . 1 . .
Ni Ni1 0.77179(5) 0.71198(4) 0.12845(3) 0.01690(19) Uani d . 1 . .
Ni Ni2 0.98022(5) 0.77309(3) 0.21179(3) 0.01425(19) Uani d . 1 . .
Ni Ni3 0.99317(5) 0.61343(3) 0.23385(3) 0.01479(19) Uani d . 1 . .
Ni Ni4 1.10604(5) 0.64643(4) 0.12626(3) 0.0200(2) Uani d . 1 . .
C C32 0.9141(5) 0.8181(4) 0.0139(3) 0.0336(14) Uani d U 1 . .
O O16 0.9420(6) 0.9127(3) 0.0880(3) 0.074(2) Uani d . 1 . .
C C33 0.8824(6) 0.7934(5) -0.0487(3) 0.0470(19) Uani d U 1 . .
C C34 0.8466(8) 0.8449(6) -0.0972(4) 0.067(3) Uani d U 1 . .
H H34 0.8288 0.8299 -0.139 0.081 Uiso calc R 1 . .
C C35 0.8383(9) 0.9165(6) -0.0825(5) 0.084(3) Uani d U 1 . .
H H35 0.8111 0.9494 -0.1147 0.101 Uiso calc R 1 . .
C C37 0.9074(7) 0.8927(4) 0.0263(4) 0.052(2) Uani d U 1 . .
C C36 0.8684(9) 0.9422(5) -0.0219(5) 0.082(3) Uani d U 1 . .
H H36 0.8629 0.9917 -0.0133 0.098 Uiso calc R 1 . .
C C38 0.8509(10) 0.6934(7) -0.1215(4) 0.097(4) Uani d . 1 . .
H H38A 0.7804 0.7088 -0.1388 0.145 Uiso calc R 1 . .
H H38B 0.8541 0.6408 -0.1212 0.145 Uiso calc R 1 . .
H H38C 0.8947 0.7124 -0.1468 0.145 Uiso calc R 1 . .
C C39 0.9209(10) 0.9826(5) 0.1068(5) 0.084(3) Uani d . 1 . .
H H39A 0.9481 1.0184 0.0829 0.126 Uiso calc R 1 . .
H H39B 0.9532 0.9888 0.1508 0.126 Uiso calc R 1 . .
H H39C 0.847 0.989 0.0998 0.126 Uiso calc R 1 . .
O O15 0.8858(5) 0.7203(3) -0.0584(2) 0.0632(18) Uani d . 1 . .

loop_
_atom_site_aniso_label
_atom_site_aniso_U_11
_atom_site_aniso_U_22
_atom_site_aniso_U_33
_atom_site_aniso_U_12
_atom_site_aniso_U_13
_atom_site_aniso_U_23
C1 0.023(3) 0.017(3) 0.020(3) 0.005(2) 0.007(2) -0.002(2)
C2 0.025(3) 0.023(3) 0.028(3) 0.010(2) 0.004(2) -0.005(2)
C3 0.022(3) 0.033(4) 0.046(4) 0.007(3) -0.001(3) -0.017(3)
C4 0.024(3) 0.029(3) 0.045(4) -0.003(3) 0.002(3) 0.016(3)
C5 0.031(4) 0.042(4) 0.052(4) -0.016(3) -0.008(3) 0.024(3)
C6 0.029(3) 0.044(4) 0.052(4) 0.009(3) -0.006(3) -0.029(3)
C7 0.028(3) 0.037(4) 0.044(4) -0.002(3) 0.009(3) -0.003(3)
C8 0.028(3) 0.045(4) 0.039(4) -0.005(3) 0.009(3) -0.008(3)
C9 0.029(4) 0.146(10) 0.058(5) -0.028(5) 0.010(4) -0.035(6)
C10 0.046(5) 0.120(9) 0.079(7) -0.028(5) 0.028(5) -0.058(6)
C11 0.029(4) 0.123(9) 0.043(4) -0.006(5) 0.005(3) 0.011(5)
C12 0.028(4) 0.134(9) 0.037(4) -0.006(5) 0.008(3) -0.015(5)
C13 0.019(3) 0.021(3) 0.017(3) -0.003(2) 0.003(2) -0.002(2)
C14 0.028(3) 0.028(3) 0.018(3) 0.004(2) -0.002(2) 0.001(2)
C15 0.086(6) 0.025(4) 0.024(3) -0.003(4) -0.013(4) 0.004(3)
C16 0.089(6) 0.024(4) 0.031(4) -0.010(4) -0.016(4) 0.000(3)
C17 0.055(4) 0.026(3) 0.024(3) 0.008(3) 0.001(3) -0.007(3)
C18 0.057(4) 0.022(3) 0.027(3) -0.009(3) -0.007(3) 0.001(3)
C19 0.024(3) 0.020(3) 0.035(3) 0.007(2) 0.004(3) 0.004(2)
C20 0.024(3) 0.019(3) 0.038(3) 0.006(2) 0.006(3) 0.005(2)
C21 0.032(3) 0.032(3) 0.043(4) 0.012(3) 0.022(3) 0.014(3)
C22 0.028(3) 0.026(3) 0.036(3) -0.007(3) 0.012(3) -0.010(3)
C23 0.026(3) 0.028(3) 0.048(4) -0.008(3) 0.016(3) -0.015(3)
C24 0.027(3) 0.030(3) 0.051(4) 0.011(3) 0.015(3) 0.019(3)
C25 0.022(3) 0.017(3) 0.020(3) 0.000(2) 0.006(2) -0.003(2)
C26 0.018(3) 0.022(3) 0.031(3) 0.000(2) 0.007(2) -0.010(2)
C27 0.036(4) 0.063(5) 0.041(4) 0.023(4) -0.004(3) -0.028(4)
C28 0.033(4) 0.062(5) 0.039(4) 0.013(3) -0.001(3) -0.022(4)
C29 0.039(4) 0.032(3) 0.029(3) 0.009(3) 0.009(3) -0.003(3)
C30 0.037(4) 0.029(3) 0.028(3) 0.004(3) -0.003(3) -0.005(3)
C31 0.022(3) 0.023(3) 0.021(3) -0.001(2) 0.007(2) 0.002(2)
N1 0.024(2) 0.022(3) 0.033(3) -0.005(2) 0.006(2) 0.008(2)
N2 0.025(3) 0.042(3) 0.040(3) -0.007(2) 0.007(2) -0.002(3)
N3 0.033(3) 0.023(3) 0.020(2) 0.002(2) -0.003(2) -0.003(2)
N4 0.020(2) 0.017(2) 0.029(2) -0.0040(19) 0.004(2) -0.0048(19)
N5 0.023(3) 0.030(3) 0.031(3) 0.000(2) 0.006(2) -0.011(2)
O1 0.0147(17) 0.0135(18) 0.0163(17) 0.0005(14) 0.0039(14) -0.0012(14)
O2 0.0127(17) 0.0143(18) 0.0208(18) -0.0016(14) 0.0042(14) -0.0021(14)
O3 0.023(2) 0.025(2) 0.028(2) 0.0059(17) -0.0007(17) -0.0121(17)
O4 0.019(2) 0.021(2) 0.029(2) 0.0033(16) 0.0013(16) -0.0069(16)
O5 0.034(3) 0.090(4) 0.037(3) -0.006(3) 0.011(2) -0.011(3)
O6 0.022(2) 0.043(3) 0.037(2) -0.0058(19) 0.0076(19) -0.001(2)
O7 0.036(2) 0.025(2) 0.0160(18) -0.0001(18) 0.0005(17) -0.0027(16)
O8 0.036(2) 0.021(2) 0.0187(19) -0.0033(17) 0.0014(17) -0.0011(16)
O9 0.023(2) 0.028(2) 0.034(2) 0.0090(17) 0.0109(18) 0.0085(18)
O10 0.031(2) 0.034(2) 0.037(2) 0.0168(19) 0.0130(19) 0.011(2)
O11 0.026(2) 0.020(2) 0.026(2) 0.0073(16) 0.0013(17) -0.0064(16)
O12 0.020(2) 0.026(2) 0.0225(19) 0.0023(16) 0.0015(16) -0.0089(16)
O13 0.0192(19) 0.028(2) 0.0186(19) 0.0022(16) 0.0064(15) 0.0024(16)
O14 0.033(2) 0.037(2) 0.023(2) 0.016(2) 0.0106(18) 0.0072(18)
Ni1 0.0159(4) 0.0167(4) 0.0166(3) 0.0025(3) 0.0011(3) -0.0029(3)
Ni2 0.0133(3) 0.0120(3) 0.0168(3) -0.0006(2) 0.0027(3) -0.0014(2)
Ni3 0.0148(3) 0.0115(3) 0.0180(4) -0.0005(2) 0.0038(3) 0.0006(2)
Ni4 0.0190(4) 0.0199(4) 0.0211(4) 0.0031(3) 0.0051(3) -0.0023(3)
C32 0.034(3) 0.040(4) 0.029(3) 0.011(3) 0.012(3) 0.011(3)
O16 0.115(6) 0.026(3) 0.064(4) 0.007(3) -0.012(4) 0.001(3)
C33 0.055(5) 0.065(5) 0.022(3) 0.021(4) 0.012(3) 0.011(3)
C34 0.081(6) 0.087(6) 0.032(4) 0.028(5) 0.013(4) 0.026(4)
C35 0.106(8) 0.076(6) 0.062(5) 0.020(6) 0.004(6) 0.049(5)
C37 0.060(5) 0.037(4) 0.052(4) 0.008(4) 0.001(4) 0.015(3)
C36 0.117(9) 0.042(5) 0.077(6) 0.010(5) 0.007(6) 0.032(4)
C38 0.128(10) 0.113(10) 0.035(5) 0.051(8) -0.007(5) -0.024(5)
C39 0.117(9) 0.042(5) 0.091(8) 0.011(6) 0.023(7) 0.007(5)
O15 0.092(5) 0.064(4) 0.025(2) 0.040(3) -0.002(3) -0.005(2)

_geom_special_details            
;
All esds (except the esd in the dihedral angle between two l.s. planes)
are estimated using the full covariance matrix.  The cell esds are taken
into account individually in the estimation of esds in distances, angles
and torsion angles; correlations between esds in cell parameters are only
used when they are defined by crystal symmetry.  An approximate (isotropic)
treatment of cell esds is used for estimating esds involving l.s. planes.
;

loop_
_geom_bond_atom_site_label_1
_geom_bond_atom_site_label_2
_geom_bond_site_symmetry_2
_geom_bond_distance
_geom_bond_publ_flag
C1 O4 . 1.248(7) ?
C1 O3 . 1.255(7) ?
C1 C2 . 1.508(7) ?
C2 C3 . 1.372(8) ?
C2 C6 . 1.384(8) ?
C3 C4 2_655 1.377(9) ?
C3 H3 . 0.93 ?
C4 N1 . 1.335(8) ?
C4 C3 2_645 1.376(9) ?
C4 H4 . 0.93 ?
C5 N1 . 1.337(8) ?
C5 C6 2_645 1.376(9) ?
C5 H5 . 0.93 ?
C6 C5 2_655 1.376(9) ?
C6 H6 . 0.93 ?
C7 O5 . 1.245(9) ?
C7 O6 . 1.271(8) ?
C7 C8 1_655 1.522(9) ?
C8 C9 . 1.353(11) ?
C8 C12 . 1.361(10) ?
C8 C7 1_455 1.522(9) ?
C9 C10 . 1.399(12) ?
C9 H9 . 0.93 ?
C10 N2 . 1.316(10) ?
C10 H10 . 0.93 ?
C11 N2 . 1.329(10) ?
C11 C12 . 1.382(11) ?
C11 H11 . 0.93 ?
C12 H12 . 0.93 ?
C13 O8 . 1.247(7) ?
C13 O7 . 1.259(7) ?
C13 C14 . 1.504(7) ?
C14 C18 . 1.374(8) ?
C14 C15 . 1.376(9) ?
C15 C16 . 1.377(9) ?
C15 H15 . 0.93 ?
C16 N3 4_676 1.329(8) ?
C16 H16 . 0.93 ?
C17 N3 . 1.334(8) ?
C17 C18 4_575 1.383(9) ?
C17 H17 . 0.93 ?
C18 C17 4_676 1.383(9) ?
C18 H18 . 0.93 ?
C19 O9 . 1.242(7) ?
C19 O10 . 1.255(7) ?
C19 C20 . 1.515(8) ?
C20 C24 . 1.389(9) ?
C20 C21 . 1.392(9) ?
C21 C22 2_745 1.388(8) ?
C21 H21 . 0.93 ?
C22 N4 . 1.341(8) ?
C22 C21 2_755 1.388(8) ?
C22 H22 . 0.93 ?
C23 N4 . 1.335(8) ?
C23 C24 2_755 1.381(8) ?
C23 H23 . 0.93 ?
C24 C23 2_745 1.381(8) ?
C24 H24 . 0.93 ?
C25 O11 . 1.255(7) ?
C25 O12 . 1.258(6)