
#######################################################################
#
#                 Cambridge Crystallographic Data Centre
#                                CCDC
#
#######################################################################
#
# If this CIF has been generated from an entry in the Cambridge
# Structural Database, then it will include bibliographic, chemical,
# crystal, experimental, refinement or atomic coordinate data resulting
# from the CCDC's data processing and validation procedures.
#
#######################################################################

data_CSD_CIF_LOFRII02
_audit_creation_date 2008-12-19
_audit_creation_method CSD-ConQuest-V1
_database_code_CSD LOFRII02
_database_code_depnum_ccdc_archive 'CCDC 678442'
_chemical_formula_sum 'C3 H18 I9 N9 Sb2'
_chemical_formula_moiety
;
3(C1 H6 N3 1+),I9 Sb2 3-
;
_journal_coden_Cambridge 1116
_journal_volume 20
_journal_year 2008
_journal_page_first 255221
_journal_name_full 'J.Phys.:Condens.Matter '
loop_
_publ_author_name
"P.Szklarz"
"A.Pietraszko"
"R.Jakubas"
"G.Bator"
"P.Zielinski"
"M.Galazka"
_chemical_name_systematic
;
tris(Guanidinium) tris(\m~2~-iodo)-hexaiodo-di-antimony(iii)
;
_chemical_name_common
;
Teaching Subset: Fundamental Chemistry, Symmetry
;
_cell_volume   1608.916
_exptl_crystal_density_diffrn 3.232
_exptl_special_details
;
polymorph I
isomorphous with the bismuth analogue
undergoes three structural first order phase transitions at 119/121 deg.C, 
341/344 deg.C and 355/362 deg.C (on cooling/heating)
;
_diffrn_ambient_temperature 368
#These two values have been output from a single CSD field.
_refine_ls_R_factor_gt 0.1533
_refine_ls_wR_factor_gt 0.1533
_symmetry_cell_setting hexagonal
_symmetry_space_group_name_H-M 'P 63/m m c'
_symmetry_Int_Tables_number 194
loop_
_symmetry_equiv_pos_site_id
_symmetry_equiv_pos_as_xyz
1 x,y,z
2 -y,x-y,z
3 -x+y,-x,z
4 y,-x+y,1/2+z
5 x-y,x,1/2+z
6 y,x,-z
7 -x+y,y,1/2-z
8 x,x-y,1/2-z
9 -x,-y,1/2+z
10 x-y,-y,-z
11 -x,-x+y,-z
12 -y,-x,1/2-z
13 -x,-y,-z
14 y,-x+y,-z
15 x-y,x,-z
16 -y,x-y,-1/2-z
17 -x+y,-x,-1/2-z
18 -y,-x,z
19 x-y,-y,-1/2+z
20 -x,-x+y,-1/2+z
21 x,y,-1/2-z
22 -x+y,y,z
23 x,x-y,z
24 y,x,-1/2+z
_cell_length_a 9.2400(13)
_cell_length_b 9.2400(13)
_cell_length_c 21.760(4)
_cell_angle_alpha 90
_cell_angle_beta 90
_cell_angle_gamma 120
_cell_formula_units_Z 2
loop_
_atom_type_symbol
_atom_type_radius_bond
C 0.68
H 0.23
I 1.40
N 0.68
Sb 1.46
loop_
_atom_site_label
_atom_site_type_symbol
_atom_site_fract_x
_atom_site_fract_y
_atom_site_fract_z
I1 I 0.51092(9) 0.48908(9) 0.25000
Sb1 Sb 0.66670 0.33330 0.15460(7)
I2 I 0.81823(8) 0.18177(8) 0.08395(5)
N1 N 0.2581(7) 0.7419(7) 0.0924(6)
H1 H 0.14510 0.68510 0.09720
C1 C 0.33330 0.66670 0.0892(5)
C2 C 1.00000 0.00000 0.25000
N2 N 1.0781(9) 0.1561(17) 0.25000
H2 H 1.02120 0.21300 0.25000
H3 H 1.19180 0.21300 0.25000
H4? H 0.31430 0.85540 0.09000
I1B I 0.97816(9) 0.48908(9) 0.25000
I1A I 0.51092(9) 0.02184(9) 0.25000
Sb1G Sb 0.66670 0.33340 0.34540(7)
I2A I 0.81823(8) 0.63646(8) 0.08395(5)
I2B I 0.36354(8) 0.18177(8) 0.08395(5)
I2G I 0.81823(8) 0.63646(8) 0.41605(5)
I2T I 0.81823(8) 0.18177(8) 0.41605(5)
I2F I 0.36354(8) 0.18177(8) 0.41605(5)
N1B N 0.4838(7) 0.7419(7) 0.0924(6)
N1A N 0.2581(7) 0.5162(7) 0.0924(6)
H1Q H 0.31490 0.85490 0.09720
H1B H 0.54000 0.85490 0.09720
H1U H 0.54000 0.68510 0.09720
H1A H 0.31490 0.46000 0.09720
H1V H 0.14510 0.46000 0.09720
N2A N 0.8439(9) -0.0780(17) 0.25000
N2B N 1.0780(9) -0.0781(17) 0.25000
H2A H 0.78700 -0.19180 0.25000
H2Q H 0.78700 -0.02120 0.25000
H2B H 1.19180 -0.02120 0.25000
H2G H 1.02120 -0.19180 0.25000
#END
