####################################################################### 
# 
# This file contains crystal structure data downloaded from the 
# Cambridge Structural Database (CSD) hosted by the Cambridge 
# Crystallographic Data Centre (CCDC).
# 
# Full information about CCDC data access policies and citation 
# guidelines are available at http://www.ccdc.cam.ac.uk/access/V1 
# 
# Audit and citation data items may have been added by the CCDC. 
# Please retain this information to preserve the provenance of 
# this file and to allow appropriate attribution of the data. 
# 
#######################################################################

data_post-squeeze
_audit_block_doi                 10.5517/ccqr6j5
_database_code_depnum_ccdc_archive 'CCDC 677707'
loop_
_citation_id
_citation_doi
_citation_year
1 10.1021/ja069319v 2007
_audit_update_record             
;
2008-02-12 deposited with the CCDC.	2024-07-11 downloaded from the CCDC.
;
_audit_creation_method           SHELXL-97
_chemical_name_systematic        
;
?
;
_chemical_name_common            Tb1
_chemical_melting_point          ?
_chemical_formula_moiety         'C45.50 H41 N6.50 O28.25 Tb V6'
_chemical_formula_sum            'C45.50 H41 N6.50 O28.25 Tb V6'
_chemical_formula_weight         1595.41

loop_
_atom_type_symbol
_atom_type_description
_atom_type_scat_dispersion_real
_atom_type_scat_dispersion_imag
_atom_type_scat_source
C C 0.0033 0.0016 'International Tables Vol C Tables 4.2.6.8 and 6.1.1.4'
H H 0.0000 0.0000 'International Tables Vol C Tables 4.2.6.8 and 6.1.1.4'
N N 0.0061 0.0033 'International Tables Vol C Tables 4.2.6.8 and 6.1.1.4'
O O 0.0106 0.0060 'International Tables Vol C Tables 4.2.6.8 and 6.1.1.4'
V V 0.3005 0.5294 'International Tables Vol C Tables 4.2.6.8 and 6.1.1.4'
Tb Tb -0.1723 4.1537 'International Tables Vol C Tables 4.2.6.8 and 6.1.1.4'
_symmetry_cell_setting           Monoclinic
_symmetry_space_group_name_H-M   P2(1)/c
loop_
_symmetry_equiv_pos_as_xyz
'x, y, z'
'-x, y+1/2, -z+1/2'
'-x, -y, -z'
'x, -y-1/2, z-1/2'
_cell_length_a                   13.102(4)
_cell_length_b                   26.279(9)
_cell_length_c                   26.104(6)
_cell_angle_alpha                90.00
_cell_angle_beta                 93.923(5)
_cell_angle_gamma                90.00
_cell_volume                     8967(5)
_cell_formula_units_Z            4
_cell_measurement_temperature    173(2)
_cell_measurement_reflns_used    1348
_cell_measurement_theta_min      2.20
_cell_measurement_theta_max      17.70
_exptl_crystal_description       plate
_exptl_crystal_colour            orange-red
_exptl_crystal_size_max          0.17
_exptl_crystal_size_mid          0.16
_exptl_crystal_size_min          0.05
_exptl_crystal_density_meas      ?
_exptl_crystal_density_diffrn    1.182
_exptl_crystal_density_method    'not measured'
_exptl_crystal_F_000             3154
_exptl_absorpt_coefficient_mu    1.436
_exptl_absorpt_correction_type   multi-scan
_exptl_absorpt_correction_T_min  0.7923
_exptl_absorpt_correction_T_max  0.9317
_exptl_absorpt_process_details   'SADABS V2.08, Sheldrick 2003'
_exptl_special_details           
;
?
;
_diffrn_ambient_temperature      173(2)
_diffrn_radiation_wavelength     0.71073
_diffrn_radiation_type           MoK\a
_diffrn_radiation_source         'fine-focus sealed tube'
_diffrn_radiation_monochromator  graphite
_diffrn_measurement_device_type  'CCD area detector'
_diffrn_measurement_method       'phi and omega scans'
_diffrn_detector_area_resol_mean ?
_diffrn_standards_number         ?
_diffrn_standards_interval_count ?
_diffrn_standards_interval_time  ?
_diffrn_standards_decay_%        ?
_diffrn_reflns_number            34327
_diffrn_reflns_av_R_equivalents  0.0988
_diffrn_reflns_av_sigmaI/netI    0.1037
_diffrn_reflns_limit_h_min       -13
_diffrn_reflns_limit_h_max       13
_diffrn_reflns_limit_k_min       -27
_diffrn_reflns_limit_k_max       26
_diffrn_reflns_limit_l_min       -27
_diffrn_reflns_limit_l_max       21
_diffrn_reflns_theta_min         1.55
_diffrn_reflns_theta_max         21.97
_reflns_number_total             10930
_reflns_number_gt                7921
_reflns_threshold_expression     >2sigma(I)
_computing_data_collection       'Bruker SMART'
_computing_cell_refinement       'Bruker SMART'
_computing_data_reduction        'Bruker SAINT'
_computing_structure_solution    'SHELXS-97 (Sheldrick, 1990)'
_computing_structure_refinement  'SHELXL-97 (Sheldrick, 1997)'
_computing_molecular_graphics    'Bruker SHELXTL'
_computing_publication_material  'Bruker SHELXTL'
_refine_special_details          
;
Refinement of F^2^ against ALL reflections. The weighted R-factor wR and
goodness of fit S are based on F^2^, conventional R-factors R are based
on F, with F set to zero for negative F^2^. The threshold expression of
F^2^ > 2sigma(F^2^) is used only for calculating R-factors(gt) etc. and is
not relevant to the choice of reflections for refinement. R-factors based
on F^2^ are statistically about twice as large as those based on F, and Rfactors
based on ALL data will be even larger.
All non-hydrogen atoms in the framework structure except the one of two
bezene ring moieties from the polyoxometalate unit were refined anisotropically.
The anisotropic displacement factors of the benzene ring moiety were pointing
same direction implying a disordered structure. However, we could not make
a reasonable disorder model. So the carbons in the benzene moiety were
refined isotropically. Only one solvent DMF molecule in the void space was
reasonably modeled. The high R value reflects the large number of disordered
and dynamic solvent molecules in the channels, a situation that is common for
crystals of highly porous materials.
;
_refine_ls_structure_factor_coef Fsqd
_refine_ls_matrix_type           full
_refine_ls_weighting_scheme      calc
_refine_ls_weighting_details     
'calc w=1/[\s^2^(Fo^2^)+(0.1647P)^2^+208.9801P] where P=(Fo^2^+2Fc^2^)/3'
_atom_sites_solution_primary     direct
_atom_sites_solution_secondary   difmap
_atom_sites_solution_hydrogens   geom
_refine_ls_hydrogen_treatment    constr
_refine_ls_extinction_method     none
_refine_ls_extinction_coef       ?
_refine_ls_number_reflns         10930
_refine_ls_number_parameters     707
_refine_ls_number_restraints     31
_refine_ls_R_factor_all          0.1666
_refine_ls_R_factor_gt           0.1318
_refine_ls_wR_factor_ref         0.3582
_refine_ls_wR_factor_gt          0.3367
_refine_ls_goodness_of_fit_ref   1.137
_refine_ls_restrained_S_all      1.135
_refine_ls_shift/su_max          0.005
_refine_ls_shift/su_mean         0.001
loop_
_atom_site_label
_atom_site_type_symbol
_atom_site_fract_x
_atom_site_fract_y
_atom_site_fract_z
_atom_site_U_iso_or_equiv
_atom_site_adp_type
_atom_site_occupancy
_atom_site_symmetry_multiplicity
_atom_site_calc_flag
_atom_site_refinement_flags
_atom_site_disorder_assembly
_atom_site_disorder_group
C1 C -0.029(2) -0.3632(9) 0.3226(12) 0.077(8) Uani 1 1 d . . .
H1A H 0.0228 -0.3901 0.3293 0.093 Uiso 1 1 calc R . .
H1B H -0.0681 -0.3711 0.2897 0.093 Uiso 1 1 calc R . .
C2 C -0.1868(18) -0.3262(10) 0.3563(11) 0.074(8) Uani 1 1 d . . .
H2A H -0.2261 -0.3353 0.3238 0.089 Uiso 1 1 calc R . .
H2B H -0.2338 -0.3278 0.3844 0.089 Uiso 1 1 calc R . .
C3 C -0.103(2) -0.3627(11) 0.3664(12) 0.079(9) Uani 1 1 d . . .
C4 C -0.0455(18) -0.3577(9) 0.4176(11) 0.071(8) Uani 1 1 d . . .
H4A H -0.0925 -0.3614 0.4455 0.085 Uiso 1 1 calc R . .
H4B H 0.0082 -0.3842 0.4219 0.085 Uiso 1 1 calc R . .
C5 C -0.192(3) -0.4349(16) 0.3323(16) 0.130(14) Uiso 1 1 d . . .
H5A H -0.1414 -0.4403 0.3063 0.156 Uiso 1 1 calc R . .
H5B H -0.2389 -0.4077 0.3193 0.156 Uiso 1 1 calc R . .
C6 C 0.081(2) -0.0847(11) 0.4037(12) 0.083(9) Uani 1 1 d . . .
H6A H 0.1174 -0.0770 0.4374 0.100 Uiso 1 1 calc R . .
H6B H 0.0287 -0.0582 0.3964 0.100 Uiso 1 1 calc R . .
C7 C 0.1017(18) -0.0943(7) 0.3081(11) 0.066(8) Uani 1 1 d . . .
H7A H 0.0509 -0.0671 0.3002 0.080 Uiso 1 1 calc R . .
H7B H 0.1530 -0.0927 0.2820 0.080 Uiso 1 1 calc R . .
C8 C 0.157(2) -0.0840(10) 0.3625(13) 0.085(10) Uani 1 1 d . . .
C9 C 0.2401(18) -0.1223(9) 0.3702(11) 0.070(8) Uani 1 1 d . . .
H9A H 0.2877 -0.1184 0.3426 0.084 Uiso 1 1 calc R . .
H9B H 0.2791 -0.1154 0.4033 0.084 Uiso 1 1 calc R . .
C10 C 0.266(4) -0.013(2) 0.332(2) 0.19(2) Uiso 1 1 d D . .
H10A H 0.2361 -0.0148 0.2960 0.229 Uiso 1 1 calc R . .
H10B H 0.3287 -0.0342 0.3347 0.229 Uiso 1 1 calc R . .
C11 C 0.291(4) 0.041(2) 0.347(2) 0.23(3) Uiso 1 1 d D . .
C12 C 0.270(3) 0.0782(18) 0.309(2) 0.18(2) Uiso 1 1 d D . .
H12 H 0.2370 0.0683 0.2767 0.219 Uiso 1 1 calc R . .
C13 C 0.297(2) 0.1298(18) 0.3165(14) 0.158(17) Uiso 1 1 d D . .
H13 H 0.2824 0.1546 0.2906 0.189 Uiso 1 1 calc R . .
C14 C 0.346(2) 0.1432(12) 0.3636(13) 0.090(9) Uiso 1 1 d D . .
C15 C 0.373(4) 0.113(3) 0.406(2) 0.40(6) Uiso 1 1 d D . .
H15 H 0.4062 0.1225 0.4384 0.477 Uiso 1 1 calc R . .
C16 C 0.340(4) 0.064(4) 0.390(3) 0.34(5) Uiso 1 1 d D . .
H16 H 0.3546 0.0396 0.4165 0.402 Uiso 1 1 calc R . .
C17 C 0.3824(16) 0.1952(7) 0.3694(10) 0.044(6) Uani 1 1 d . . .
C18 C 0.5870(15) 0.3792(8) 0.3766(7) 0.037(5) Uani 1 1 d U . .
C19 C 0.641(2) 0.4269(13) 0.3643(9) 0.094(9) Uiso 1 1 d D . .
C20 C 0.602(2) 0.4752(12) 0.3733(9) 0.087(9) Uiso 1 1 d D . .
H20 H 0.5390 0.4781 0.3891 0.104 Uiso 1 1 calc R . .
C21 C 0.655(3) 0.5209(19) 0.3592(12) 0.160(18) Uiso 1 1 d D . .
H21 H 0.6275 0.5536 0.3656 0.192 Uiso 1 1 calc R . .
C22 C 0.745(3) 0.5156(17) 0.3363(12) 0.133(14) Uiso 1 1 d D . .
C23 C 0.787(3) 0.4673(14) 0.3270(10) 0.108(11) Uiso 1 1 d D . .
H23 H 0.8506 0.4652 0.3115 0.130 Uiso 1 1 calc R . .
C24 C 0.737(2) 0.4217(12) 0.3402(9) 0.084(9) Uiso 1 1 d D . .
H24 H 0.7652 0.3893 0.3335 0.101 Uiso 1 1 calc R . .
C25 C 0.5309(15) 0.3098(9) 0.2432(8) 0.047(6) Uani 1 1 d . . .
H25 H 0.5870 0.3203 0.2657 0.056 Uiso 1 1 calc R . .
C26 C 0.5466(14) 0.2940(8) 0.1950(8) 0.047(6) Uani 1 1 d . . .
H26 H 0.6143 0.2939 0.1842 0.056 Uiso 1 1 calc R . .
C27 C 0.4699(14) 0.2786(8) 0.1620(8) 0.038(5) Uani 1 1 d . . .
C28 C 0.3692(15) 0.2797(9) 0.1790(9) 0.055(6) Uani 1 1 d . . .
H28 H 0.3123 0.2699 0.1567 0.066 Uiso 1 1 calc R . .
C29 C 0.3560(15) 0.2950(9) 0.2273(8) 0.052(7) Uani 1 1 d . . .
H29 H 0.2892 0.2947 0.2392 0.062 Uiso 1 1 calc R . .
C30 C 0.4842(14) 0.2622(9) 0.1078(8) 0.046(6) Uani 1 1 d . . .
C31 C 0.4226(14) 0.2639(11) 0.5222(9) 0.065(8) Uani 1 1 d U . .
H31 H 0.3665 0.2688 0.4977 0.078 Uiso 1 1 calc R . .
C32 C 0.4069(15) 0.2435(10) 0.5728(8) 0.060(7) Uani 1 1 d . . .
H32 H 0.3399 0.2341 0.5809 0.072 Uiso 1 1 calc R . .
C33 C 0.5827(17) 0.2523(11) 0.5944(9) 0.067(8) Uani 1 1 d . . .
H33 H 0.6388 0.2497 0.6193 0.081 Uiso 1 1 calc R . .
C34 C 0.5984(16) 0.2694(11) 0.5483(10) 0.068(8) Uani 1 1 d . . .
H34 H 0.6663 0.2775 0.5405 0.081 Uiso 1 1 calc R . .
C35 C 0.7506(15) 0.2563(10) 0.3371(10) 0.061(7) Uani 1 1 d . . .
H35 H 0.7140 0.2627 0.3051 0.073 Uiso 1 1 calc R . .
C36 C 0.8528(15) 0.2648(9) 0.3437(9) 0.051(6) Uani 1 1 d . . .
H36 H 0.8882 0.2741 0.3146 0.061 Uiso 1 1 calc R . .
C37 C 0.9079(14) 0.2606(10) 0.3899(8) 0.048(6) Uani 1 1 d . . .
C38 C 0.8529(17) 0.2450(12) 0.4316(10) 0.081(9) Uani 1 1 d . . .
H38 H 0.8863 0.2409 0.4648 0.097 Uiso 1 1 calc R . .
C39 C 0.7518(16) 0.2359(10) 0.4235(10) 0.062(7) Uani 1 1 d . . .
H39 H 0.7139 0.2273 0.4520 0.074 Uiso 1 1 calc R . .
C40 C 0.1812(14) 0.2825(11) 0.3608(9) 0.064(8) Uani 1 1 d . . .
H40 H 0.2228 0.2785 0.3327 0.077 Uiso 1 1 calc R . .
C41 C 0.0796(14) 0.2671(9) 0.3560(9) 0.053(6) Uani 1 1 d . . .
H41 H 0.0514 0.2523 0.3249 0.064 Uiso 1 1 calc R . .
C42 C 0.0205(16) 0.2738(10) 0.3973(8) 0.058(7) Uani 1 1 d . . .
C43 C 0.0636(17) 0.2927(12) 0.4393(11) 0.085(10) Uani 1 1 d . . .
H43 H 0.0238 0.2956 0.4683 0.102 Uiso 1 1 calc R . .
C44 C 0.1633(18) 0.3089(12) 0.4443(9) 0.078(9) Uani 1 1 d . . .
H44 H 0.1909 0.3241 0.4753 0.094 Uiso 1 1 calc R . .
C1S C 0.476(8) 0.158(4) 0.215(4) 0.14(4) Uiso 0.40 1 d P . .
H1S H 0.4516 0.1778 0.2420 0.165 Uiso 0.40 1 calc PR . .
C2S C 0.586(9) 0.123(5) 0.160(4) 0.17(5) Uiso 0.40 1 d P . .
H2S1 H 0.5215 0.1232 0.1384 0.250 Uiso 0.40 1 calc PR . .
H2S2 H 0.6103 0.0877 0.1639 0.250 Uiso 0.40 1 calc PR . .
H2S3 H 0.6374 0.1428 0.1427 0.250 Uiso 0.40 1 calc PR . .
C3S C 0.621(8) 0.154(4) 0.254(4) 0.15(4) Uiso 0.40 1 d P . .
H3S1 H 0.6920 0.1443 0.2510 0.219 Uiso 0.40 1 calc PR . .
H3S2 H 0.5924 0.1336 0.2816 0.219 Uiso 0.40 1 calc PR . .
H3S3 H 0.6171 0.1902 0.2633 0.219 Uiso 0.40 1 calc PR . .
N1 N -0.146(2) -0.4196(10) 0.3717(9) 0.103(10) Uani 1 1 d . . .
H1 H -0.1371 -0.4379 0.3999 0.124 Uiso 1 1 calc R . .
N2 N 0.200(2) -0.0301(10) 0.3636(13) 0.123(11) Uani 1 1 d . . .
H2 H 0.1788 -0.0090 0.3869 0.147 Uiso 1 1 calc R . .
N3 N 0.2207(11) 0.3027(7) 0.4042(6) 0.044(5) Uani 1 1 d . . .
N4 N 0.4345(11) 0.3106(6) 0.2591(6) 0.037(4) Uani 1 1 d . . .
N5 N 0.7030(12) 0.2386(7) 0.3774(8) 0.053(5) Uani 1 1 d . . .
N6 N 0.5198(12) 0.2759(8) 0.5107(7) 0.054(5) Uani 1 1 d . . .
N1S N 0.570(3) 0.1462(16) 0.2129(17) 0.041(10) Uiso 0.40 1 d P . .
O1 O 0.1774(13) -0.3469(7) 0.3862(8) 0.088(6) Uani 1 1 d . . .
O2 O 0.0198(11) -0.3158(6) 0.3187(6) 0.064(5) Uani 1 1 d . . .
O3 O 0.0011(10) -0.3061(6) 0.4186(6) 0.059(4) Uani 1 1 d . . .
O4 O -0.1355(13) -0.2849(8) 0.2501(7) 0.086(6) Uani 1 1 d . . .
O5 O -0.1476(10) -0.2767(6) 0.3527(6) 0.054(4) Uani 1 1 d . . .
O6 O -0.1703(11) -0.2668(7) 0.4541(6) 0.074(5) Uani 1 1 d . . .
O7 O 0.1983(9) -0.2636(6) 0.3282(6) 0.051(4) Uani 1 1 d . . .
O8 O 0.0458(9) -0.2347(6) 0.2613(5) 0.047(4) Uani 1 1 d . . .
O9 O 0.1764(10) -0.2546(6) 0.4292(6) 0.060(5) Uani 1 1 d . . .
O10 O 0.0259(9) -0.2245(5) 0.3626(5) 0.040(3) Uani 1 1 d . . .
O11 O -0.1237(10) -0.1938(6) 0.2951(7) 0.066(5) Uani 1 1 d . . .
O12 O 0.0073(12) -0.2135(7) 0.4616(6) 0.076(5) Uani 1 1 d . . .
O13 O -0.1422(11) -0.1859(7) 0.3956(7) 0.071(5) Uani 1 1 d . . .
O14 O 0.2229(10) -0.1819(6) 0.2675(6) 0.055(4) Uani 1 1 d . . .
O15 O 0.2032(9) -0.1739(6) 0.3702(5) 0.048(4) Uani 1 1 d . . .
O16 O 0.0508(10) -0.1427(5) 0.3042(6) 0.057(4) Uani 1 1 d . . .
O17 O 0.1849(14) -0.1633(8) 0.4730(6) 0.093(7) Uani 1 1 d . . .
O18 O 0.0345(12) -0.1326(6) 0.4056(7) 0.066(5) Uani 1 1 d . . .
O19 O -0.1164(14) -0.0999(7) 0.3408(10) 0.111(8) Uani 1 1 d . . .
O20 O 0.3891(10) 0.2256(5) 0.3334(6) 0.054(4) Uani 1 1 d . . .
O21 O 0.4040(13) 0.2131(7) 0.4166(7) 0.075(5) Uani 1 1 d . . .
O22 O 0.6230(9) 0.3362(6) 0.3643(5) 0.047(4) Uani 1 1 d . . .
O23 O 0.5005(10) 0.3816(5) 0.3953(5) 0.050(4) Uani 1 1 d . . .
O24 O 0.3175(9) 0.3181(6) 0.4089(5) 0.051(4) Uani 1 1 d . . .
O25 O 0.4177(9) 0.3293(5) 0.3049(5) 0.040(3) Uani 1 1 d . . .
O26 O 0.6008(10) 0.2295(6) 0.3714(5) 0.055(4) Uani 1 1 d U . .
O27 O 0.5389(12) 0.2967(7) 0.4670(6) 0.071(5) Uani 1 1 d . . .
O1S O 0.416(5) 0.141(2) 0.177(3) 0.12(2) Uiso 0.40 1 d P . .
Tb1 Tb 0.47275(6) 0.29010(4) 0.38343(4) 0.0329(4) Uani 1 1 d . . .
V1 V 0.1389(2) -0.20393(14) 0.30453(15) 0.0462(10) Uani 1 1 d . . .
V2 V 0.1211(3) -0.19339(18) 0.42881(17) 0.0669(13) Uani 1 1 d . . .
V3 V -0.0682(3) -0.15427(17) 0.3486(2) 0.0740(15) Uani 1 1 d . . .
V4 V -0.0857(3) -0.24451(18) 0.41826(17) 0.0608(12) Uani 1 1 d . . .
V5 V -0.0674(3) -0.25567(17) 0.29460(16) 0.0588(12) Uani 1 1 d . . .
V6 V 0.1211(3) -0.29492(16) 0.37490(19) 0.0644(13) Uani 1 1 d . . .
loop_
_atom_site_aniso_label
_atom_site_aniso_U_11
_atom_site_aniso_U_22
_atom_site_aniso_U_33
_atom_site_aniso_U_23
_atom_site_aniso_U_13
_atom_site_aniso_U_12
C1 0.068(17) 0.047(16) 0.12(2) 0.004(15) 0.022(17) -0.033(13)
C2 0.038(14) 0.08(2) 0.10(2) 0.015(16) -0.018(14) -0.042(14)
C3 0.063(18) 0.08(2) 0.09(2) 0.013(16) -0.008(17) -0.054(16)
C4 0.042(14) 0.067(18) 0.11(2) 0.022(16) 0.018(15) 0.023(13)
C6 0.061(18) 0.08(2) 0.11(2) -0.024(18) 0.017(17) -0.006(15)
C7 0.055(15) 0.015(11) 0.13(2) 0.024(13) 0.030(16) -0.005(10)
C8 0.056(17) 0.056(18) 0.14(3) -0.023(18) -0.014(18) -0.030(14)
C9 0.047(15) 0.051(16) 0.11(2) 0.008(15) 0.001(14) -0.033(13)
C17 0.042(13) 0.021(12) 0.071(18) -0.008(12) 0.013(12) -0.012(9)
C18 0.042(13) 0.044(14) 0.026(11) -0.002(10) 0.008(10) -0.042(11)
C25 0.027(12) 0.075(16) 0.038(14) 0.008(11) -0.001(10) -0.002(10)
C26 0.013(10) 0.067(15) 0.062(16) -0.020(13) 0.018(10) -0.014(10)
C27 0.028(11) 0.047(13) 0.038(13) -0.007(10) -0.013(9) -0.002(9)
C28 0.026(12) 0.083(18) 0.056(16) -0.012(13) -0.005(10) -0.002(11)
C29 0.024(11) 0.099(19) 0.033(13) -0.043(13) 0.002(9) -0.022(11)
C30 0.019(11) 0.073(16) 0.047(14) -0.013(12) 0.001(10) -0.004(10)
C31 0.006(10) 0.14(2) 0.048(15) 0.006(15) -0.015(10) 0.003(12)
C32 0.015(11) 0.12(2) 0.040(14) -0.001(14) -0.004(10) -0.022(12)
C33 0.030(13) 0.12(2) 0.051(17) 0.015(15) 0.013(11) 0.002(13)
C34 0.018(11) 0.12(2) 0.066(18) 0.023(16) -0.003(12) -0.019(12)
C35 0.020(12) 0.10(2) 0.070(18) 0.001(15) 0.022(12) -0.013(12)
C36 0.027(12) 0.069(16) 0.059(16) 0.018(12) 0.013(11) 0.006(11)
C37 0.014(10) 0.098(18) 0.031(13) 0.018(12) -0.001(9) -0.003(10)
C38 0.035(14) 0.15(3) 0.063(18) 0.045(18) 0.017(12) 0.007(15)
C39 0.022(12) 0.091(19) 0.072(19) 0.005(15) 0.009(12) -0.012(12)
C40 0.012(11) 0.13(2) 0.049(16) 0.015(16) 0.015(10) 0.009(13)
C