####################################################################### 
# 
# This file contains crystal structure data downloaded from the 
# Cambridge Structural Database (CSD) hosted by the Cambridge 
# Crystallographic Data Centre (CCDC).
# 
# Full information about CCDC data access policies and citation 
# guidelines are available at http://www.ccdc.cam.ac.uk/access/V1 
# 
# Audit and citation data items may have been added by the CCDC. 
# Please retain this information to preserve the provenance of 
# this file and to allow appropriate attribution of the data. 
# 
#######################################################################

data_pre-squeeze
_audit_block_doi                 10.5517/ccqr6h4
_database_code_depnum_ccdc_archive 'CCDC 677706'
loop_
_citation_id
_citation_doi
_citation_year
1 10.1021/ja069319v 2007
_audit_update_record             
;
2008-02-12 deposited with the CCDC.	2024-07-11 downloaded from the CCDC.
;
_audit_creation_method           SHELXL-97
_chemical_name_systematic        
;
?
;
_chemical_name_common            Tb1
_chemical_melting_point          ?
_chemical_formula_moiety         'C45.50 H41 N6.50 O28.25 Tb V6'
_chemical_formula_sum            'C45.50 H41 N6.50 O28.25 Tb V6'
_chemical_formula_weight         1595.41

loop_
_atom_type_symbol
_atom_type_description
_atom_type_scat_dispersion_real
_atom_type_scat_dispersion_imag
_atom_type_scat_source
C C 0.0033 0.0016 'International Tables Vol C Tables 4.2.6.8 and 6.1.1.4'
H H 0.0000 0.0000 'International Tables Vol C Tables 4.2.6.8 and 6.1.1.4'
N N 0.0061 0.0033 'International Tables Vol C Tables 4.2.6.8 and 6.1.1.4'
O O 0.0106 0.0060 'International Tables Vol C Tables 4.2.6.8 and 6.1.1.4'
V V 0.3005 0.5294 'International Tables Vol C Tables 4.2.6.8 and 6.1.1.4'
Tb Tb -0.1723 4.1537 'International Tables Vol C Tables 4.2.6.8 and 6.1.1.4'
_symmetry_cell_setting           Monoclinic
_symmetry_space_group_name_H-M   P2(1)/c
loop_
_symmetry_equiv_pos_as_xyz
'x, y, z'
'-x, y+1/2, -z+1/2'
'-x, -y, -z'
'x, -y-1/2, z-1/2'
_cell_length_a                   13.102(4)
_cell_length_b                   26.279(9)
_cell_length_c                   26.104(6)
_cell_angle_alpha                90.00
_cell_angle_beta                 93.923(5)
_cell_angle_gamma                90.00
_cell_volume                     8967(5)
_cell_formula_units_Z            4
_cell_measurement_temperature    173(2)
_cell_measurement_reflns_used    1348
_cell_measurement_theta_min      2.20
_cell_measurement_theta_max      17.70
_exptl_crystal_description       plate
_exptl_crystal_colour            orange-red
_exptl_crystal_size_max          0.17
_exptl_crystal_size_mid          0.16
_exptl_crystal_size_min          0.05
_exptl_crystal_density_meas      ?
_exptl_crystal_density_diffrn    1.182
_exptl_crystal_density_method    'not measured'
_exptl_crystal_F_000             3154
_exptl_absorpt_coefficient_mu    1.436
_exptl_absorpt_correction_type   multi-scan
_exptl_absorpt_correction_T_min  0.7923
_exptl_absorpt_correction_T_max  0.9317
_exptl_absorpt_process_details   'SADABS V2.08, Sheldrick 2003'
_exptl_special_details           
;
?
;
_diffrn_ambient_temperature      173(2)
_diffrn_radiation_wavelength     0.71073
_diffrn_radiation_type           MoK\a
_diffrn_radiation_source         'fine-focus sealed tube'
_diffrn_radiation_monochromator  graphite
_diffrn_measurement_device_type  'CCD area detector'
_diffrn_measurement_method       'phi and omega scans'
_diffrn_detector_area_resol_mean ?
_diffrn_standards_number         ?
_diffrn_standards_interval_count ?
_diffrn_standards_interval_time  ?
_diffrn_standards_decay_%        ?
_diffrn_reflns_number            34327
_diffrn_reflns_av_R_equivalents  0.0926
_diffrn_reflns_av_sigmaI/netI    0.0982
_diffrn_reflns_limit_h_min       -13
_diffrn_reflns_limit_h_max       13
_diffrn_reflns_limit_k_min       -27
_diffrn_reflns_limit_k_max       26
_diffrn_reflns_limit_l_min       -27
_diffrn_reflns_limit_l_max       21
_diffrn_reflns_theta_min         1.55
_diffrn_reflns_theta_max         21.97
_reflns_number_total             10930
_reflns_number_gt                7293
_reflns_threshold_expression     >2sigma(I)
_computing_data_collection       'Bruker SMART'
_computing_cell_refinement       'Bruker SMART'
_computing_data_reduction        'Bruker SAINT'
_computing_structure_solution    'SHELXS-97 (Sheldrick, 1990)'
_computing_structure_refinement  'SHELXL-97 (Sheldrick, 1997)'
_computing_molecular_graphics    'Bruker SHELXTL'
_computing_publication_material  'Bruker SHELXTL'
_refine_special_details          
;
Refinement of F^2^ against ALL reflections. The weighted R-factor wR and
goodness of fit S are based on F^2^, conventional R-factors R are based
on F, with F set to zero for negative F^2^. The threshold expression of
F^2^ > 2sigma(F^2^) is used only for calculating R-factors(gt) etc. and is
not relevant to the choice of reflections for refinement. R-factors based
on F^2^ are statistically about twice as large as those based on F, and Rfactors
based on ALL data will be even larger.
Due to the large void space in the structure, solvent in the structure
is highly disordered. Complete assignment of scattering factors to all residual
electron density was therfore not possible.
Some DMF molecules were located and refined isotropically. Because of severe
disorder, many strong reflections in the void space could not modelled
appropriately.
The disordered solvent region was treated with SQUEEZE subroutine
in PLATON software suite: Spek, A.L. (1990), Acta Crystallogr.A46, C-34.
A sum total of 1423 electrons were accounted for in
the void space of 4036.7 A^3.
;
_refine_ls_structure_factor_coef Fsqd
_refine_ls_matrix_type           full
_refine_ls_weighting_scheme      calc
_refine_ls_weighting_details     
'calc w=1/[\s^2^(Fo^2^)+(0.1299P)^2^+0.0000P] where P=(Fo^2^+2Fc^2^)/3'
_atom_sites_solution_primary     direct
_atom_sites_solution_secondary   difmap
_atom_sites_solution_hydrogens   geom
_refine_ls_hydrogen_treatment    constr
_refine_ls_extinction_method     none
_refine_ls_extinction_coef       ?
_refine_ls_number_reflns         10930
_refine_ls_number_parameters     742
_refine_ls_number_restraints     28
_refine_ls_R_factor_all          0.1161
_refine_ls_R_factor_gt           0.0827
_refine_ls_wR_factor_ref         0.2198
_refine_ls_wR_factor_gt          0.2058
_refine_ls_goodness_of_fit_ref   1.007
_refine_ls_restrained_S_all      1.007
_refine_ls_shift/su_max          0.003
_refine_ls_shift/su_mean         0.000
loop_
_atom_site_label
_atom_site_type_symbol
_atom_site_fract_x
_atom_site_fract_y
_atom_site_fract_z
_atom_site_U_iso_or_equiv
_atom_site_adp_type
_atom_site_occupancy
_atom_site_symmetry_multiplicity
_atom_site_calc_flag
_atom_site_refinement_flags
_atom_site_disorder_assembly
_atom_site_disorder_group
C1 C -0.0288(12) -0.3653(5) 0.3213(6) 0.083(5) Uani 1 1 d . . .
H1A H 0.0236 -0.3922 0.3271 0.099 Uiso 1 1 calc R . .
H1B H -0.0691 -0.3726 0.2887 0.099 Uiso 1 1 calc R . .
C2 C -0.1862(10) -0.3263(6) 0.3561(6) 0.072(5) Uani 1 1 d . . .
H2A H -0.2246 -0.3352 0.3233 0.087 Uiso 1 1 calc R . .
H2B H -0.2340 -0.3280 0.3838 0.087 Uiso 1 1 calc R . .
C3 C -0.1006(12) -0.3641(6) 0.3669(6) 0.078(5) Uani 1 1 d . . .
C4 C -0.0437(10) -0.3583(5) 0.4186(6) 0.068(4) Uani 1 1 d . . .
H4A H -0.0910 -0.3621 0.4464 0.081 Uiso 1 1 calc R . .
H4B H 0.0107 -0.3843 0.4233 0.081 Uiso 1 1 calc R . .
C5 C -0.197(2) -0.4354(8) 0.3274(10) 0.164(12) Uani 1 1 d . . .
H5A H -0.1494 -0.4399 0.3001 0.197 Uiso 1 1 calc R . .
H5B H -0.2477 -0.4089 0.3160 0.197 Uiso 1 1 calc R . .
C6 C 0.0811(12) -0.0835(6) 0.4031(7) 0.094(5) Uani 1 1 d . . .
H6A H 0.1173 -0.0757 0.4367 0.112 Uiso 1 1 calc R . .
H6B H 0.0282 -0.0571 0.3957 0.112 Uiso 1 1 calc R . .
C7 C 0.0994(11) -0.0938(4) 0.3063(6) 0.072(5) Uani 1 1 d . . .
H7A H 0.0479 -0.0668 0.2986 0.087 Uiso 1 1 calc R . .
H7B H 0.1497 -0.0925 0.2798 0.087 Uiso 1 1 calc R . .
C8 C 0.1565(11) -0.0833(6) 0.3614(7) 0.082(5) Uani 1 1 d . . .
C9 C 0.2408(10) -0.1224(5) 0.3705(6) 0.073(4) Uani 1 1 d . . .
H9A H 0.2899 -0.1187 0.3435 0.087 Uiso 1 1 calc R . .
H9B H 0.2782 -0.1156 0.4040 0.087 Uiso 1 1 calc R . .
C10 C 0.277(3) -0.0122(14) 0.3312(15) 0.266(18) Uiso 1 1 d D . .
H10A H 0.2503 -0.0122 0.2948 0.319 Uiso 1 1 calc R . .
H10B H 0.3388 -0.0336 0.3350 0.319 Uiso 1 1 calc R . .
C11 C 0.300(2) 0.0430(15) 0.3501(17) 0.229(15) Uiso 1 1 d D . .
C12 C 0.2742(18) 0.0754(13) 0.3077(12) 0.199(13) Uiso 1 1 d D . .
H12 H 0.2420 0.0646 0.2758 0.239 Uiso 1 1 calc R . .
C13 C 0.3051(15) 0.1296(11) 0.3207(11) 0.164(10) Uiso 1 1 d D . .
H13 H 0.2912 0.1551 0.2954 0.197 Uiso 1 1 calc R . .
C14 C 0.3485(12) 0.1427(7) 0.3635(8) 0.090(5) Uiso 1 1 d D . .
C15 C 0.376(2) 0.118(2) 0.4061(18) 0.31(2) Uiso 1 1 d D . .
H15 H 0.4081 0.1322 0.4366 0.377 Uiso 1 1 calc R . .
C16 C 0.349(3) 0.062(2) 0.3975(19) 0.32(2) Uiso 1 1 d D . .
H16 H 0.3647 0.0391 0.4247 0.387 Uiso 1 1 calc R . .
C17 C 0.3825(9) 0.1947(4) 0.3702(6) 0.041(3) Uani 1 1 d . . .
C18 C 0.5865(9) 0.3793(5) 0.3761(4) 0.039(3) Uani 1 1 d U . .
C19 C 0.6421(12) 0.4269(7) 0.3639(6) 0.108(7) Uani 1 1 d D . .
C20 C 0.6040(12) 0.4741(7) 0.3736(6) 0.118(8) Uani 1 1 d D . .
H20 H 0.5415 0.4771 0.3898 0.142 Uiso 1 1 calc R . .
C21 C 0.6572(19) 0.5187(9) 0.3597(8) 0.204(15) Uani 1 1 d D . .
H21 H 0.6298 0.5512 0.3668 0.245 Uiso 1 1 calc R . .
C22 C 0.7479(18) 0.5154(9) 0.3362(8) 0.173(13) Uani 1 1 d D . .
C23 C 0.7863(14) 0.4666(8) 0.3265(7) 0.135(9) Uani 1 1 d D . .
H23 H 0.8489 0.4637 0.3104 0.162 Uiso 1 1 calc R . .
C24 C 0.7342(12) 0.4212(6) 0.3401(6) 0.094(6) Uani 1 1 d D . .
H24 H 0.7609 0.3885 0.3332 0.112 Uiso 1 1 calc R . .
C25 C 0.5291(9) 0.3099(5) 0.2430(5) 0.048(3) Uani 1 1 d . . .
H25 H 0.5851 0.3202 0.2656 0.058 Uiso 1 1 calc R . .
C26 C 0.5460(8) 0.2946(5) 0.1950(5) 0.047(3) Uani 1 1 d . . .
H26 H 0.6137 0.2953 0.1841 0.057 Uiso 1 1 calc R . .
C27 C 0.4695(8) 0.2787(4) 0.1625(4) 0.038(3) Uani 1 1 d . . .
C28 C 0.3683(9) 0.2798(5) 0.1791(5) 0.054(4) Uani 1 1 d . . .
H28 H 0.3115 0.2695 0.1569 0.064 Uiso 1 1 calc R . .
C29 C 0.3556(9) 0.2957(5) 0.2266(4) 0.053(4) Uani 1 1 d . . .
H29 H 0.2885 0.2966 0.2383 0.064 Uiso 1 1 calc R . .
C30 C 0.4851(8) 0.2624(5) 0.1079(5) 0.044(3) Uani 1 1 d . . .
C31 C 0.4229(8) 0.2634(6) 0.5223(5) 0.068(5) Uani 1 1 d U . .
H31 H 0.3670 0.2677 0.4975 0.081 Uiso 1 1 calc R . .
C32 C 0.4063(9) 0.2437(6) 0.5721(5) 0.065(4) Uani 1 1 d . . .
H32 H 0.3390 0.2348 0.5802 0.078 Uiso 1 1 calc R . .
C33 C 0.5826(9) 0.2516(6) 0.5943(5) 0.070(5) Uani 1 1 d . . .
H33 H 0.6389 0.2490 0.6191 0.084 Uiso 1 1 calc R . .
C34 C 0.5982(9) 0.2685(6) 0.5475(6) 0.076(5) Uani 1 1 d . . .
H34 H 0.6663 0.2757 0.5393 0.092 Uiso 1 1 calc R . .
C35 C 0.7509(9) 0.2558(6) 0.3379(5) 0.063(4) Uani 1 1 d . . .
H35 H 0.7142 0.2616 0.3058 0.076 Uiso 1 1 calc R . .
C36 C 0.8535(8) 0.2648(5) 0.3436(5) 0.052(4) Uani 1 1 d . . .
H36 H 0.8884 0.2741 0.3143 0.063 Uiso 1 1 calc R . .
C37 C 0.9077(8) 0.2607(5) 0.3898(5) 0.048(3) Uani 1 1 d . . .
C38 C 0.8539(10) 0.2469(7) 0.4323(6) 0.087(6) Uani 1 1 d . . .
H38 H 0.8873 0.2449 0.4657 0.105 Uiso 1 1 calc R . .
C39 C 0.7505(9) 0.2362(6) 0.4240(6) 0.064(4) Uani 1 1 d . . .
H39 H 0.7131 0.2267 0.4524 0.077 Uiso 1 1 calc R . .
C40 C 0.1799(8) 0.2822(6) 0.3600(5) 0.066(4) Uani 1 1 d . . .
H40 H 0.2207 0.2782 0.3316 0.079 Uiso 1 1 calc R . .
C41 C 0.0806(8) 0.2677(5) 0.3562(5) 0.054(4) Uani 1 1 d . . .
H41 H 0.0520 0.2532 0.3251 0.065 Uiso 1 1 calc R . .
C42 C 0.0209(9) 0.2739(5) 0.3971(5) 0.057(4) Uani 1 1 d . . .
C43 C 0.0648(10) 0.2928(7) 0.4407(6) 0.090(6) Uani 1 1 d . . .
H43 H 0.0260 0.2950 0.4701 0.108 Uiso 1 1 calc R . .
C44 C 0.1631(10) 0.3090(7) 0.4442(5) 0.085(6) Uani 1 1 d . . .
H44 H 0.1914 0.3250 0.4746 0.102 Uiso 1 1 calc R . .
C1S C 0.471(2) 0.1562(18) 0.2186(19) 0.114(16) Uiso 0.40 1 d PD . .
H1S H 0.4443 0.1713 0.2478 0.137 Uiso 0.40 1 calc PR . .
C2S C 0.590(4) 0.119(2) 0.1654(15) 0.15(2) Uiso 0.40 1 d PD . .
H2S1 H 0.5297 0.1216 0.1412 0.226 Uiso 0.40 1 calc PR . .
H2S2 H 0.6037 0.0835 0.1740 0.226 Uiso 0.40 1 calc PR . .
H2S3 H 0.6493 0.1338 0.1498 0.226 Uiso 0.40 1 calc PR . .
C3S C 0.631(3) 0.1528(18) 0.2550(14) 0.122(17) Uiso 0.40 1 d PD . .
H3S1 H 0.7029 0.1456 0.2488 0.183 Uiso 0.40 1 calc PR . .
H3S2 H 0.6086 0.1296 0.2812 0.183 Uiso 0.40 1 calc PR . .
H3S3 H 0.6255 0.1880 0.2668 0.183 Uiso 0.40 1 calc PR . .
N1 N -0.1455(12) -0.4204(7) 0.3714(6) 0.113(6) Uani 1 1 d . . .
H1 H -0.1374 -0.4394 0.3991 0.135 Uiso 1 1 calc R . .
N2 N 0.2004(13) -0.0302(5) 0.3635(7) 0.140(7) Uani 1 1 d . . .
H2 H 0.1777 -0.0089 0.3861 0.168 Uiso 1 1 calc R . .
N3 N 0.2201(7) 0.3020(4) 0.4037(4) 0.047(3) Uani 1 1 d . . .
N4 N 0.4353(7) 0.3106(3) 0.2589(4) 0.038(2) Uani 1 1 d . . .
N5 N 0.7024(7) 0.2389(4) 0.3781(5) 0.058(3) Uani 1 1 d . . .
N6 N 0.5198(7) 0.2760(4) 0.5104(4) 0.056(3) Uani 1 1 d . . .
N1S N 0.5721(18) 0.1464(9) 0.2106(9) 0.043(6) Uiso 0.40 1 d PD . .
O1 O 0.1784(7) -0.3467(4) 0.3869(4) 0.092(4) Uani 1 1 d . . .
O2 O 0.0199(6) -0.3157(4) 0.3188(3) 0.066(3) Uani 1 1 d . . .
O3 O 0.0015(6) -0.3062(3) 0.4195(3) 0.055(2) Uani 1 1 d . . .
O4 O -0.1353(7) -0.2850(4) 0.2498(4) 0.087(3) Uani 1 1 d . . .
O5 O -0.1475(6) -0.2765(3) 0.3529(3) 0.056(2) Uani 1 1 d . . .
O6 O -0.1702(6) -0.2669(4) 0.4541(3) 0.078(3) Uani 1 1 d . . .
O7 O 0.1987(5) -0.2639(3) 0.3282(3) 0.051(2) Uani 1 1 d . . .
O8 O 0.0458(5) -0.2345(3) 0.2614(3) 0.049(2) Uani 1 1 d . . .
O9 O 0.1763(6) -0.2547(4) 0.4294(3) 0.061(3) Uani 1 1 d . . .
O10 O 0.0259(5) -0.2245(3) 0.3625(3) 0.042(2) Uani 1 1 d . . .
O11 O -0.1245(6) -0.1935(3) 0.2956(4) 0.068(3) Uani 1 1 d . . .
O12 O 0.0071(7) -0.2141(4) 0.4619(4) 0.077(3) Uani 1 1 d . . .
O13 O -0.1434(6) -0.1855(4) 0.3950(4) 0.074(3) Uani 1 1 d . . .
O14 O 0.2229(5) -0.1817(3) 0.2681(3) 0.055(2) Uani 1 1 d . . .
O15 O 0.2029(5) -0.1735(3) 0.3700(3) 0.049(2) Uani 1 1 d . . .
O16 O 0.0497(6) -0.1424(3) 0.3045(3) 0.057(2) Uani 1 1 d . . .
O17 O 0.1857(8) -0.1633(5) 0.4738(4) 0.098(4) Uani 1 1 d . . .
O18 O 0.0335(7) -0.1328(3) 0.4052(4) 0.066(3) Uani 1 1 d . . .
O19 O -0.1180(8) -0.0998(4) 0.3402(5) 0.109(4) Uani 1 1 d . . .
O20 O 0.3882(6) 0.2256(3) 0.3339(4) 0.058(2) Uani 1 1 d . . .
O21 O 0.4039(8) 0.2124(4) 0.4163(4) 0.077(3) Uani 1 1 d . . .
O22 O 0.6234(5) 0.3369(3) 0.3643(3) 0.044(2) Uani 1 1 d . . .
O23 O 0.5001(6) 0.3817(3) 0.3957(3) 0.051(2) Uani 1 1 d . . .
O24 O 0.3172(6) 0.3178(3) 0.4085(3) 0.054(2) Uani 1 1 d . . .
O25 O 0.4172(5) 0.3293(3) 0.3045(3) 0.042(2) Uani 1 1 d . . .
O26 O 0.6006(6) 0.2302(3) 0.3719(3) 0.060(3) Uani 1 1 d U . .
O27 O 0.5399(7) 0.2967(4) 0.4668(3) 0.074(3) Uani 1 1 d . . .
O1S O 0.419(3) 0.1389(12) 0.1744(13) 0.118(11) Uiso 0.40 1 d P . .
Tb1 Tb 0.47276(4) 0.29012(2) 0.38343(2) 0.0345(2) Uani 1 1 d . . .
V1 V 0.13884(14) -0.20389(8) 0.30448(9) 0.0472(6) Uani 1 1 d . . .
V2 V 0.12083(18) -0.19337(10) 0.42886(10) 0.0687(8) Uani 1 1 d . . .
V3 V -0.06815(17) -0.15410(10) 0.34844(12) 0.0742(9) Uani 1 1 d . . .
V4 V -0.08573(16) -0.24461(10) 0.41840(9) 0.0635(7) Uani 1 1 d . . .
V5 V -0.06751(16) -0.25571(10) 0.29457(9) 0.0611(7) Uani 1 1 d . . .
V6 V 0.12121(16) -0.29497(9) 0.37497(11) 0.0664(8) Uani 1 1 d . . .
loop_
_atom_site_aniso_label
_atom_site_aniso_U_11
_atom_site_aniso_U_22
_atom_site_aniso_U_33
_atom_site_aniso_U_23
_atom_site_aniso_U_13
_atom_site_aniso_U_12
C1 0.078(11) 0.046(9) 0.129(15) 0.001(9) 0.034(10) -0.037(8)
C2 0.032(8) 0.084(12) 0.098(12) 0.021(9) -0.011(8) -0.046(8)
C3 0.068(11) 0.068(11) 0.096(13) 0.019(9) -0.001(10) -0.052(9)
C4 0.042(8) 0.072(11) 0.089(12) 0.025(9) 0.006(8) 0.020(7)
C5 0.24(3) 0.101(18) 0.16(2) 0.055(17) 0.13(2) 0.002(19)
C6 0.071(11) 0.084(13) 0.129(16) -0.013(11) 0.028(11) -0.001(9)
C7 0.064(9) 0.011(7) 0.143(15) 0.031(8) 0.017(10) -0.009(6)
C8 0.052(10) 0.056(10) 0.136(16) -0.013(10) 0.001(10) -0.027(8)
C9 0.052(9) 0.051(9) 0.115(13) 0.012(9) 0.010(8) -0.027(8)
C17 0.051(8) 0.014(7) 0.059(10) -0.001(6) 0.012(7) -0.013(5)
C18 0.045(8) 0.051(8) 0.023(7) -0.011(6) 0.011(6) -0.034(7)
C19 0.083(13) 0.071(12) 0.18(2) -0.024(12) 0.073(13) -0.027(10)
C20 0.067(11) 0.087(14) 0.21(2) -0.062(14) 0.074(13) -0.033(10)
C21 0.17(3) 0.081(17) 0.37(5) -0.01(2) 0.11(3) -0.035(17)
C22 0.19(3) 0.108(19) 0.24(3) -0.071(19) 0.15(2) -0.097(18)
C23 0.113(16) 0.114(17) 0.19(2) -0.035(15) 0.095(15) -0.074(14)
C24 0.082(12) 0.082(12) 0.124(15) -0.018(10) 0.052(11) -0.036(10)
C25 0.025(7) 0.079(10) 0.041(9) -0.001(7) 0.003(6) -0.004(6)
C26 0.011(6) 0.073(9) 0.059(9) -0.009(7) 0.014(6) -0.013(6)
C27 0.029(7) 0.055(8) 0.030(7) -0.007(6) -0.013(5) -0.006(5)
C28 0.027(7) 0.078(10) 0.054(10) -0.011(7) -0.006(6) -0.008(6)
C29 0.029(7) 0.102(11) 0.029(8) -0.048(7) 0.005(6) -0.028(7)
C30 0.018(6) 0.065(9) 0.048(8) -0.011(7) -0.006(6) -0.003(6)
C31 0.006(6) 0.149(14) 0.046(9) 0.020(9) -0.014(6) 0.005(7)
C32 0.020(7) 0.125(13) 0.048(9) 0.006(8) -0.005(6) -0.023(7)
C33 0.026(7) 0.129(14) 0.055(1