####################################################################### 
# 
# This file contains crystal structure data downloaded from the 
# Cambridge Structural Database (CSD) hosted by the Cambridge 
# Crystallographic Data Centre (CCDC).
# 
# Full information about CCDC data access policies and citation 
# guidelines are available at http://www.ccdc.cam.ac.uk/access/V1 
# 
# Audit and citation data items may have been added by the CCDC. 
# Please retain this information to preserve the provenance of 
# this file and to allow appropriate attribution of the data. 
# 
#######################################################################

data_compound_l
_audit_block_doi                 10.5517/cc10qks2
_database_code_depnum_ccdc_archive 'CCDC 945214'
loop_
_citation_id
_citation_doi
_citation_year
1 10.1016/j.dyepig.2014.04.003 2014
_audit_update_record             
;
2013-06-16 deposited with the CCDC.	2024-07-11 downloaded from the CCDC.
;

_audit_creation_method           SHELXL-97
_chemical_name_systematic        
; 
 ? 
;
_chemical_name_common            ?
_chemical_melting_point          ?
_chemical_formula_moiety         ?
_chemical_formula_sum            'C276 H250 Cd64 N10 Ru2 S84 Se25'
_chemical_formula_weight         15771.12

loop_
_atom_type_symbol
_atom_type_description
_atom_type_scat_dispersion_real
_atom_type_scat_dispersion_imag
_atom_type_scat_source
C C 0.0033 0.0016 'International Tables Vol C Tables 4.2.6.8 and 6.1.1.4'
H H 0.0000 0.0000 'International Tables Vol C Tables 4.2.6.8 and 6.1.1.4'
Cd Cd -0.8075 1.2024 'International Tables Vol C Tables 4.2.6.8 and 6.1.1.4'
N N 0.0061 0.0033 'International Tables Vol C Tables 4.2.6.8 and 6.1.1.4'
Ru Ru -1.2594 0.8363 'International Tables Vol C Tables 4.2.6.8 and 6.1.1.4'
S S 0.1246 0.1234 'International Tables Vol C Tables 4.2.6.8 and 6.1.1.4'
Se Se -0.0929 2.2259 'International Tables Vol C Tables 4.2.6.8 and 6.1.1.4'

_symmetry_cell_setting           tetragonal
_symmetry_space_group_name_H-M   'I -4 2 d    '
_symmetry_space_group_name_Hall  'I -4 2bw   '

loop_
_symmetry_equiv_pos_as_xyz
'x, y, z'
'y, -x, -z'
'-x, -y, z'
'-y, x, -z'
'x, -y+1/2, -z+1/4'
'-y+1/2, -x, z+3/4'
'-x, y+1/2, -z+1/4'
'y+1/2, x, z+3/4'
'x+1/2, y+1/2, z+1/2'
'y+1/2, -x+1/2, -z+1/2'
'-x+1/2, -y+1/2, z+1/2'
'-y+1/2, x+1/2, -z+1/2'
'x+1/2, -y+1, -z+3/4'
'-y+1, -x+1/2, z+5/4'
'-x+1/2, y+1, -z+3/4'
'y+1, x+1/2, z+5/4'

_cell_length_a                   35.5387(7)
_cell_length_b                   35.5387(7)
_cell_length_c                   53.2607(17)
_cell_angle_alpha                90.00
_cell_angle_beta                 90.00
_cell_angle_gamma                90.00
_cell_volume                     67268(3)
_cell_formula_units_Z            4
_cell_measurement_temperature    293(2)
_cell_measurement_reflns_used    ?
_cell_measurement_theta_min      ?
_cell_measurement_theta_max      ?

_exptl_crystal_description       ?
_exptl_crystal_colour            ?
_exptl_crystal_size_max          0.45
_exptl_crystal_size_mid          0.30
_exptl_crystal_size_min          0.20
_exptl_crystal_density_meas      ?
_exptl_crystal_density_diffrn    1.557
_exptl_crystal_density_method    'not measured'
_exptl_crystal_F_000             29317
_exptl_absorpt_coefficient_mu    3.656
_exptl_absorpt_correction_type   multi-scan
_exptl_absorpt_correction_T_min  0.2900
_exptl_absorpt_correction_T_max  0.5284
_exptl_absorpt_process_details   'Jacobson, R. (1998) Private communication '
_exptl_special_details           
; 
 ? 
;

_diffrn_ambient_temperature      293(2)
_diffrn_radiation_wavelength     0.71073
_diffrn_radiation_type           MoK\a
_diffrn_radiation_source         'fine-focus sealed tube'
_diffrn_radiation_monochromator  graphite
_diffrn_measurement_device_type  'Rigaku Saturn'
_diffrn_measurement_method       \w
_diffrn_detector_area_resol_mean 14.63
_diffrn_standards_number         ?
_diffrn_standards_interval_count ?
_diffrn_standards_interval_time  ?
_diffrn_standards_decay_%        ?
_diffrn_reflns_number            101064
_diffrn_reflns_av_R_equivalents  0.1382
_diffrn_reflns_av_sigmaI/netI    0.1606
_diffrn_reflns_limit_h_min       -41
_diffrn_reflns_limit_h_max       39
_diffrn_reflns_limit_k_min       -32
_diffrn_reflns_limit_k_max       42
_diffrn_reflns_limit_l_min       -63
_diffrn_reflns_limit_l_max       50
_diffrn_reflns_theta_min         3.02
_diffrn_reflns_theta_max         25.03
_reflns_number_total             29299
_reflns_number_gt                11968
_reflns_threshold_expression     >2sigma(I)

_computing_data_collection       ?
_computing_cell_refinement       ?
_computing_data_reduction        ?
_computing_structure_solution    'SHELXS-97 (Sheldrick, 1990)'
_computing_structure_refinement  'SHELXL-97 (Sheldrick, 1997)'
_computing_molecular_graphics    ?
_computing_publication_material  ?

_refine_special_details          
; 
 Refinement of F^2^ against ALL reflections.  The weighted R-factor wR and 
 goodness of fit S are based on F^2^, conventional R-factors R are based 
 on F, with F set to zero for negative F^2^. The threshold expression of 
 F^2^ > 2sigma(F^2^) is used only for calculating R-factors(gt) etc. and is 
 not relevant to the choice of reflections for refinement.  R-factors based 
 on F^2^ are statistically about twice as large as those based on F, and R- 
 factors based on ALL data will be even larger. 
;

_refine_ls_structure_factor_coef Fsqd
_refine_ls_matrix_type           full
_refine_ls_weighting_scheme      calc
_refine_ls_weighting_details     
'calc w=1/[\s^2^(Fo^2^)+(0.0001P)^2^+1200.0000P] where P=(Fo^2^+2Fc^2^)/3'
_atom_sites_solution_primary     direct
_atom_sites_solution_secondary   difmap
_atom_sites_solution_hydrogens   ?
_refine_ls_hydrogen_treatment    ?
_refine_ls_extinction_method     none
_refine_ls_extinction_coef       ?
_refine_ls_abs_structure_details 'Flack H D (1983), Acta Cryst. A39, 876-881'
_refine_ls_abs_structure_Flack   0.00(2)
_refine_ls_number_reflns         29299
_refine_ls_number_parameters     793
_refine_ls_number_restraints     227
_refine_ls_R_factor_all          0.2308
_refine_ls_R_factor_gt           0.0920
_refine_ls_wR_factor_ref         0.2000
_refine_ls_wR_factor_gt          0.1647
_refine_ls_goodness_of_fit_ref   1.185
_refine_ls_restrained_S_all      1.187
_refine_ls_shift/su_max          0.026
_refine_ls_shift/su_mean         0.001

loop_
_atom_site_label
_atom_site_type_symbol
_atom_site_fract_x
_atom_site_fract_y
_atom_site_fract_z
_atom_site_U_iso_or_equiv
_atom_site_adp_type
_atom_site_occupancy
_atom_site_symmetry_multiplicity
_atom_site_calc_flag
_atom_site_refinement_flags
_atom_site_disorder_assembly
_atom_site_disorder_group
Ru1 Ru 0.0000 0.0000 0.0000 0.0892(16) Uani 1 4 d S . .
Ru2 Ru 0.5000 0.0000 0.2500 0.294(7) Uani 1 4 d S . .
Cd1 Cd 0.19870(7) 0.07812(7) 0.14955(5) 0.1064(8) Uani 1 1 d . . .
Cd2 Cd 0.12509(6) -0.00872(6) 0.15900(4) 0.0846(7) Uani 1 1 d . . .
Cd3 Cd 0.08943(7) 0.10622(7) 0.16931(5) 0.1055(8) Uani 1 1 d . . .
Cd4 Cd 0.16802(6) 0.05573(7) 0.22100(4) 0.0925(7) Uani 1 1 d . . .
Cd5 Cd -0.02202(6) 0.06007(6) 0.16386(3) 0.0749(6) Uani 1 1 d . . .
Cd6 Cd 0.09950(6) -0.08828(6) 0.21577(3) 0.0697(6) Uani 1 1 d . . .
Cd7 Cd 0.05355(5) 0.02219(5) 0.21910(3) 0.0608(5) Uani 1 1 d . . .
Cd8 Cd 0.13089(6) -0.01039(6) 0.27757(4) 0.0789(6) Uani 1 1 d . . .
Cd9 Cd 0.00505(6) 0.13376(6) 0.21666(4) 0.0761(6) Uani 1 1 d . . .
Cd10 Cd 0.09279(6) 0.09592(6) 0.27512(4) 0.0833(7) Uani 1 1 d . . .
Cd11 Cd -0.07137(6) 0.16112(6) 0.27146(4) 0.0826(7) Uani 1 1 d . . .
Cd12 Cd -0.02035(5) 0.05427(5) 0.27322(3) 0.0642(5) Uani 1 1 d . . .
Cd13 Cd -0.09056(7) 0.08543(7) 0.33270(4) 0.0920(7) Uani 1 1 d . . .
Cd14 Cd -0.05828(6) -0.02514(7) 0.32958(4) 0.0861(7) Uani 1 1 d . . .
Cd15 Cd 0.01861(6) 0.13484(7) 0.32646(4) 0.0971(8) Uani 1 1 d . . .
Cd16 Cd -0.07362(7) 0.19705(8) 0.34567(5) 0.1100(9) Uani 1 1 d . . .
Se1 Se 0.0000 0.0000 0.18918(6) 0.0579(9) Uani 1 2 d S . .
Se2 Se 0.11045(8) 0.04422(8) 0.19187(5) 0.0698(8) Uani 1 1 d . . .
Se3 Se 0.07827(7) -0.03367(7) 0.24628(4) 0.0599(7) Uani 1 1 d . . .
Se4 Se 0.03438(7) 0.08089(8) 0.24568(5) 0.0629(7) Uani 1 1 d . . .
Se5 Se -0.04051(8) 0.11135(8) 0.30112(5) 0.0703(8) Uani 1 1 d . . .
Se6 Se 0.0000 0.0000 0.30337(6) 0.0655(10) Uani 1 2 d S . .
Se7 Se -0.04958(9) 0.11775(8) 0.18644(5) 0.0750(8) Uani 1 1 d . . .
Se8 Se 0.11802(9) 0.04626(10) 0.30631(6) 0.0908(10) Uani 1 1 d . . .
S1 S -0.1033(3) 0.2516(3) 0.3694(2) 0.163(5) Uani 1 1 d . . .
S2 S 0.1777(2) 0.0166(2) 0.13132(14) 0.097(3) Uani 1 1 d . . .
S3 S 0.1471(2) 0.1270(2) 0.14607(18) 0.111(3) Uani 1 1 d U . .
S4 S 0.2246(3) 0.0740(3) 0.19362(16) 0.121(3) Uani 1 1 d . . .
S5 S -0.0695(2) 0.0282(2) 0.13353(12) 0.080(2) Uani 1 1 d . . .
S6 S 0.1526(2) -0.0565(2) 0.18987(13) 0.081(2) Uani 1 1 d . . .
S7 S 0.0389(2) 0.0779(2) 0.14053(13) 0.087(2) Uani 1 1 d . . .
S8 S 0.1878(2) 0.0028(2) 0.24889(13) 0.084(2) Uani 1 1 d . . .
S9 S 0.0599(3) 0.1601(3) 0.1910(2) 0.137(4) Uani 1 1 d . . .
S10 S 0.1412(2) 0.1144(2) 0.24213(16) 0.101(3) Uani 1 1 d . . .
S11 S -0.1264(2) 0.1368(2) 0.24725(13) 0.077(2) Uani 1 1 d U . .
S12 S -0.1428(2) 0.0733(2) 0.30064(14) 0.084(2) Uani 1 1 d . . .
S13 S -0.0134(2) 0.1858(2) 0.24757(15) 0.082(2) Uani 1 1 d . . .
S14 S 0.0699(2) 0.1552(2) 0.29813(16) 0.097(3) Uani 1 1 d . . .
S15 S -0.0885(2) 0.2154(2) 0.30081(15) 0.098(3) Uani 1 1 d . . .
S16 S -0.0684(3) 0.0313(3) 0.35920(13) 0.113(3) Uani 1 1 d . . .
S17 S -0.1095(3) 0.1405(3) 0.35956(15) 0.109(3) Uani 1 1 d . . .
S18 S 0.0306(2) 0.0807(3) 0.35512(14) 0.107(3) Uani 1 1 d . . .
S19 S -0.0031(2) 0.1923(3) 0.35189(16) 0.121(4) Uani 1 1 d . . .
N1 N -0.0644(7) 0.0101(7) 0.0000(4) 0.107(8) Uani 1 1 d U . .
N2 N 0.0000 0.0000 0.0454(6) 0.108(11) Uiso 1 2 d S . .
N3 N 0.0000 0.0000 0.4528(11) 0.24(3) Uiso 1 2 d S . .
C1 C 0.1601(11) 0.0337(9) 0.1029(6) 0.114(9) Uani 1 1 d U . .
C2 C 0.1891(11) 0.0395(10) 0.0846(7) 0.124(10) Uani 1 1 d U . .
C3 C 0.1748(12) 0.0555(11) 0.0610(7) 0.138(11) Uani 1 1 d U . .
C4 C 0.1314(11) 0.0651(10) 0.0560(7) 0.124(10) Uiso 1 1 d U . .
C5 C 0.1092(10) 0.0570(10) 0.0771(7) 0.118(12) Uiso 1 1 d . . .
C6 C 0.1232(12) 0.0447(11) 0.1027(7) 0.136(13) Uiso 1 1 d . . .
C7 C 0.1745(17) 0.1750(19) 0.1574(18) 0.40(6) Uani 1 1 d U . .
C13 C 0.297(2) 0.0262(19) 0.2034(12) 0.29(3) Uani 1 1 d U . .
C19 C -0.0902(3) 0.0649(5) 0.1138(3) 0.163(14) Uiso 1 1 d GU . .
C20 C -0.0912(4) 0.0580(5) 0.0881(4) 0.197(16) Uiso 1 1 d GU . .
C21 C -0.1081(5) 0.0838(6) 0.0721(3) 0.152(15) Uiso 1 1 d G . .
C22 C -0.1239(4) 0.1165(5) 0.0817(4) 0.147(15) Uani 1 1 d G . .
C23 C -0.1230(4) 0.1234(5) 0.1074(4) 0.146(14) Uiso 1 1 d G . .
C24 C -0.1061(4) 0.0976(6) 0.1234(3) 0.127(12) Uiso 1 1 d G . .
C25 C 0.1772(5) -0.0889(6) 0.1714(3) 0.171(12) Uani 1 1 d GU . .
C26 C 0.1660(5) -0.1295(6) 0.1771(4) 0.179(13) Uani 1 1 d GU . .
C27 C 0.1920(6) -0.1609(5) 0.1614(5) 0.185(12) Uani 1 1 d GU . .
C28 C 0.2200(6) -0.1482(6) 0.1453(4) 0.182(13) Uiso 1 1 d GU . .
C29 C 0.2261(5) -0.0987(6) 0.1487(4) 0.207(13) Uiso 1 1 d GU . .
C30 C 0.2046(4) -0.0758(6) 0.1569(4) 0.199(11) Uani 1 1 d GU . .
C31 C 0.0269(16) 0.1128(8) 0.1205(6) 0.176(17) Uiso 1 1 d G . .
C32 C -0.0098(12) 0.1251(12) 0.1168(8) 0.233(17) Uani 1 1 d GU . .
C33 C -0.0182(10) 0.1490(13) 0.0969(10) 0.248(16) Uiso 1 1 d GU . .
C34 C 0.0101(18) 0.1606(8) 0.0807(6) 0.258(17) Uiso 1 1 d GU . .
C35 C 0.0469(14) 0.1483(12) 0.0844(8) 0.252(17) Uiso 1 1 d GU . .
C36 C 0.0552(8) 0.1244(12) 0.1042(10) 0.217(18) Uiso 1 1 d GU . .
C37 C 0.2179(10) 0.0393(12) 0.2727(7) 0.153(14) Uani 1 1 d U . .
C43 C -0.1481(10) 0.1761(9) 0.2318(7) 0.114(10) Uani 1 1 d U . .
C44 C -0.1759(11) 0.2307(9) 0.2117(7) 0.17(2) Uani 1 1 d . . .
C48 C -0.1305(10) 0.1967(10) 0.2156(8) 0.131(11) Uani 1 1 d U . .
C49 C -0.1921(11) 0.0754(13) 0.3215(8) 0.165(15) Uani 1 1 d U . .
C50 C -0.2278(15) 0.0962(15) 0.3454(9) 0.23(2) Uani 1 1 d U . .
C55 C -0.0304(10) 0.2267(9) 0.2327(7) 0.114(9) Uani 1 1 d U . .
C56 C -0.0425(11) 0.2554(11) 0.2482(7) 0.130(8) Uani 1 1 d U . .
C57 C -0.0574(11) 0.2892(11) 0.2355(8) 0.143(9) Uani 1 1 d U . .
C58 C -0.0519(12) 0.2875(11) 0.2079(9) 0.144(9) Uani 1 1 d U . .
C59 C -0.0432(12) 0.2590(11) 0.1909(8) 0.145(9) Uani 1 1 d U . .
C60 C -0.0263(12) 0.2296(11) 0.2054(9) 0.154(11) Uani 1 1 d U . .
C61 C -0.1404(11) 0.2192(12) 0.2988(7) 0.135(9) Uani 1 1 d U . .
C62 C -0.1643(13) 0.1869(12) 0.3020(7) 0.149(11) Uiso 1 1 d U . .
C63 C -0.2038(12) 0.1897(11) 0.3010(7) 0.125(12) Uiso 1 1 d . . .
C64 C -0.2153(12) 0.2253(15) 0.2955(8) 0.158(11) Uani 1 1 d U . .
C65 C -0.1917(14) 0.2530(13) 0.2859(8) 0.156(10) Uani 1 1 d U . .
C66 C -0.1555(13) 0.2568(13) 0.2897(8) 0.148(9) Uiso 1 1 d U . .
C67 C -0.1122(13) 0.0259(12) 0.3809(10) 0.176(15) Uani 1 1 d U . .
C68 C -0.1434(15) 0.0149(14) 0.3695(9) 0.188(17) Uani 1 1 d U . .
C73 C -0.0934(10) 0.1288(11) 0.3930(7) 0.137(13) Uiso 1 1 d . . .
C79 C 0.0642(13) 0.0978(13) 0.3798(8) 0.169(16) Uiso 1 1 d . . .
C80 C 0.1015(12) 0.0722(12) 0.3805(8) 0.157(15) Uiso 1 1 d . . .
C81 C 0.1091(18) 0.0988(19) 0.4165(11) 0.28(3) Uiso 1 1 d . . .
C85 C 0.0185(7) 0.2308(6) 0.3340(5) 0.127(13) Uiso 1 1 d G . .
C86 C 0.0109(5) 0.2346(6) 0.3086(5) 0.102(10) Uani 1 1 d GU . .
C87 C 0.0250(7) 0.2652(7) 0.2953(3) 0.130(14) Uani 1 1 d G . .
C88 C 0.0468(7) 0.2920(6) 0.3076(5) 0.123(12) Uiso 1 1 d G . .
C89 C 0.0545(6) 0.2882(7) 0.3331(5) 0.127(13) Uani 1 1 d GU . .
C90 C 0.0403(7) 0.2576(8) 0.3463(3) 0.119(13) Uani 1 1 d G . .
C91 C 0.1184(15) 0.1589(14) 0.3273(9) 0.187(19) Uani 1 1 d U . .
C92 C 0.1579(12) 0.1864(15) 0.3560(9) 0.195(19) Uani 1 1 d U . .
C93 C 0.2069(19) 0.201(2) 0.4169(12) 0.30(3) Uiso 1 1 d . . .
C94 C 0.1411(14) 0.2267(13) 0.3327(9) 0.177(18) Uiso 1 1 d . . .
C95 C 0.1106(11) 0.209(2) 0.3154(8) 0.22(3) Uani 1 1 d . . .
C101 C -0.1298(10) 0.0154(9) -0.0032(6) 0.120(11) Uiso 1 1 d . . .
C102 C 0.0000 0.0000 0.0829(7) 0.089(12) Uiso 1 2 d S . .
C103 C 0.4615(16) 0.0948(17) 0.2466(11) 0.25(3) Uiso 1 1 d . . .
C104 C -0.1508(18) 0.1475(18) 0.0154(11) 0.28(3) Uiso 1 1 d . . .
C105 C -0.1566(12) 0.3416(13) 0.3216(8) 0.177(18) Uiso 1 1 d . . .
C106 C 0.0766(15) 0.2667(15) 0.2239(10) 0.23(2) Uiso 1 1 d . . .
C107 C 0.269(2) -0.002(2) 0.1753(13) 0.31(3) Uiso 1 1 d . . .
C108 C 0.0978(12) 0.2209(12) 0.2397(8) 0.168(17) Uiso 1 1 d . . .

loop_
_atom_site_aniso_label
_atom_site_aniso_U_11
_atom_site_aniso_U_22
_atom_site_aniso_U_33
_atom_site_aniso_U_23
_atom_site_aniso_U_13
_atom_site_aniso_U_12
Ru1 0.111(3) 0.111(3) 0.045(3) 0.000 0.000 0.000
Ru2 0.417(11) 0.417(11) 0.049(4) 0.000 0.000 0.000
Cd1 0.1022(19) 0.113(2) 0.1041(18) 0.0174(16) 0.0418(15) 0.0028(16)
Cd2 0.0920(17) 0.0958(17) 0.0661(13) -0.0024(12) 0.0277(12) 0.0034(14)
Cd3 0.0924(18) 0.0956(18) 0.128(2) 0.0354(16) 0.0345(16) 0.0113(15)
Cd4 0.0727(15) 0.1155(19) 0.0894(16) 0.0027(15) 0.0115(13) -0.0062(14)
Cd5 0.0843(16) 0.0841(16) 0.0565(12) 0.0082(11) -0.0011(11) 0.0041(13)
Cd6 0.0719(14) 0.0759(14) 0.0613(12) 0.0020(11) 0.0080(10) 0.0098(12)
Cd7 0.0637(13) 0.0670(13) 0.0519(11) -0.0014(10) 0.0030(10) -0.0005(11)
Cd8 0.0654(14) 0.0978(17) 0.0736(13) -0.0030(12) -0.0075(11) 0.0033(12)
Cd9 0.0833(15) 0.0674(14) 0.0775(13) -0.0076(11) 0.0063(12) 0.0029(12)
Cd10 0.0747(15) 0.0881(16) 0.0870(15) -0.0321(13) -0.0070(12) 0.0023(13)
Cd11 0.0815(15) 0.0841(16) 0.0824(15) -0.0230(12) -0.0039(12) 0.0185(13)
Cd12 0.0637(13) 0.0748(14) 0.0541(11) -0.0084(10) -0.0045(10) 0.0040(11)
Cd13 0.0989(18) 0.1101(19) 0.0669(13) -0.0188(13) 0.0156(13) 0.0080(15)
Cd14 0.0861(17) 0.1116(19) 0.0607(13) 0.0151(12) 0.0165(12) 0.0172(14)
Cd15 0.0798(16) 0.111(2) 0.1000(17) -0.0508(15) -0.0175(13) 0.0184(14)
Cd16 0.0934(18) 0.123(2) 0.1135(19) -0.0592(17) -0.0063(15) 0.0192(16)
Se1 0.065(2) 0.068(2) 0.0415(19) 0.000 0.000 0.003(2)
Se2 0.0671(19) 0.077(2) 0.0653(17) 0.0025(15) 0.0182(14) -0.0005(16)
Se3 0.0620(17) 0.0714(18) 0.0463(15) -0.0006(13) 0.0030(13) 0.0035(14)
Se4 0.0600(17) 0.0731(19) 0.0555(16) -0.0114(14) 0.0027(13) -0.0007(14)
Se5 0.0688(19) 0.083(2) 0.0589(17) -0.0228(15) 0.0026(14) 0.0058(16)
Se6 0.066(3) 0.087(3) 0.044(2) 0.000 0.000 0.004(2)
Se7 0.091(2) 0.0653(19) 0.0685(18) 0.0050(15) -0.0009(16) 0.0082(16)
Se8 0.077(2) 0.116(3) 0.080(2) -0.0226(19) -0.0195(17) 0.012(2)
S1 0.127(8) 0.179(10) 0.183(10) -0.150(9) -0.024(8) 0.030(8)
S2 0.097(6) 0.109(7) 0.086(6) 0.015(5) 0.043(5) 0.004(5)
S3 0.086(6) 0.094(6) 0.154(8) 0.001(6) 0.039(6) -0.008(5)
S4 0.109(7) 0.158(9) 0.096(6) 0.008(6) 0.014(5) -0.048(7)
S5 0.091(6) 0.101(6) 0.049(4) 0.008(4) -0.015(4) 0.013(5)
S6 0.074(5) 0.098(6) 0.070(5) 0.009(4) 0.018(4) 0.012(4)
S7 0.090(6) 0.102(6) 0.068(5) 0.030(4) 0.020(4) 0.006(5)
S8 0.062(5) 0.106(6) 0.084(5) -0.003(5) 0.013(4) 0.006(4)
S9 0.168(10) 0.084(6) 0.160(9) -0.022(6) 0.083(8) -0.033(7)
S10 0.092(6) 0.099(6) 0.111(6) -0.024(5) 0.034(5) -0.027(5)
S11 0.076(5) 0.083(5) 0.072(5) -0.009(4) -0.005(4) 0.021(4)
S12 0.083(5) 0.088(6) 0.082(5) -0.006(4) 0.006(4) 0.011(4)
S13 0.078(5) 0.068(5) 0.100(6) -0.023(4) -0.002(4) 0.006(4)
S14 0.078(5) 0.084(6) 0.129(7) -0.051(5) -0.014(5) -0.005(5)
S15 0.088(6) 0.106(6) 0.100(6) -0.036(5) 0.012(5) 0.016(5)
S16 0.138(8) 0.154(9) 0.048(4) -0.003(5) 0.024(5) 0.051(7)
S17 0.128(8) 0.118(7) 0.081(6) -0.025(5) 0.012(5) 0.015(6)
S18 0.106(7) 0.154(8) 0.063(5) -0.034(5) -0.014(5) 0.042(6)
S19 0.086(6) 0.164(9) 0.114(7) -0.087(7) -0.029(5) 0.037(6)
N1 0.128(16) 0.135(16) 0.057(11) 0.009(12) -0.041(1