####################################################################### 
# 
# This file contains crystal structure data downloaded from the 
# Cambridge Structural Database (CSD) hosted by the Cambridge 
# Crystallographic Data Centre (CCDC).
# 
# Full information about CCDC data access policies and citation 
# guidelines are available at http://www.ccdc.cam.ac.uk/access/V1 
# 
# Audit and citation data items may have been added by the CCDC. 
# Please retain this information to preserve the provenance of 
# this file and to allow appropriate attribution of the data. 
# 
#######################################################################

data_1_100_cmma
_audit_block_doi                 10.5517/cc126khb
_database_code_depnum_ccdc_archive 'CCDC 989411'
loop_
_citation_id
_citation_doi
_citation_year
1 10.1002/anie.201402951 2014
_audit_update_record             
;
2014-03-01 deposited with the CCDC.	2024-07-11 downloaded from the CCDC.
;

_audit_creation_method           SHELXL-97
_chemical_name_systematic        
; 
 ? 
;
_chemical_name_common            ?
_chemical_melting_point          ?
_chemical_formula_moiety         ?
_chemical_formula_sum            'C16 H8 Au2 Fe N10 O'
_chemical_formula_weight         806.11

loop_
_atom_type_symbol
_atom_type_description
_atom_type_scat_dispersion_real
_atom_type_scat_dispersion_imag
_atom_type_scat_source
C C 0.0033 0.0016 'International Tables Vol C Tables 4.2.6.8 and 6.1.1.4'
H H 0.0000 0.0000 'International Tables Vol C Tables 4.2.6.8 and 6.1.1.4'
N N 0.0061 0.0033 'International Tables Vol C Tables 4.2.6.8 and 6.1.1.4'
O O 0.0106 0.0060 'International Tables Vol C Tables 4.2.6.8 and 6.1.1.4'
Fe Fe 0.3463 0.8444 'International Tables Vol C Tables 4.2.6.8 and 6.1.1.4'
Au Au -2.0133 8.8022 'International Tables Vol C Tables 4.2.6.8 and 6.1.1.4'

_symmetry_cell_setting           orthorhombic
_symmetry_space_group_name_H-M   'C m m a'
_symmetry_int_tables_number      67

loop_
_symmetry_equiv_pos_as_xyz
'x, y, z'
'-x, -y+1/2, z'
'-x, y+1/2, -z'
'x, -y, -z'
'x+1/2, y+1/2, z'
'-x+1/2, -y+1, z'
'-x+1/2, y+1, -z'
'x+1/2, -y+1/2, -z'
'-x, -y, -z'
'x, y-1/2, -z'
'x, -y-1/2, z'
'-x, y, z'
'-x+1/2, -y+1/2, -z'
'x+1/2, y, -z'
'x+1/2, -y, z'
'-x+1/2, y+1/2, z'

_cell_length_a                   12.066(2)
_cell_length_b                   16.121(3)
_cell_length_c                   15.099(3)
_cell_angle_alpha                90.00
_cell_angle_beta                 90.00
_cell_angle_gamma                90.00
_cell_volume                     2937.0(9)
_cell_formula_units_Z            4
_cell_measurement_temperature    100(2)

_cell_measurement_reflns_used    7142
_cell_measurement_theta_min      2.5
_cell_measurement_theta_max      34.9

_exptl_crystal_description       plate
_exptl_crystal_colour            red
_exptl_crystal_size_max          0.166
_exptl_crystal_size_mid          0.128
_exptl_crystal_size_min          0.041
_exptl_crystal_density_meas      ?
_exptl_crystal_density_diffrn    1.823
_exptl_crystal_density_method    'not measured'
_exptl_crystal_F_000             1464
_exptl_absorpt_coefficient_mu    10.474
_exptl_absorpt_correction_type   multi-scan
_exptl_absorpt_correction_T_min  0.619
_exptl_absorpt_correction_T_max  0.747
_exptl_absorpt_process_details   
;
 SADABS (Sheldrick, 1996)
;


_diffrn_crystal_treatment        
;
attached with Exxon Paratone N, to a short length 
of fibre supported on a thin piece of copper wire 
inserted in a copper mounting pin.  The crystal was 
quenched in a cold nitrogen gas stream from an 
Oxford Cryosystems Cryostream.
;

_exptl_special_details           
; 
 ? 
;

_diffrn_ambient_temperature      100(2)
_diffrn_radiation_wavelength     0.71073
_diffrn_radiation_type           MoK\a
_diffrn_radiation_source         'rotating anode'
_diffrn_radiation_monochromator  'multi-layer Helios focusing mirrors'
_diffrn_measurement_device_type  APEXII-FR591
_diffrn_measurement_method       \w+\f

_diffrn_detector_area_resol_mean ?
_diffrn_reflns_number            13970
_diffrn_reflns_av_R_equivalents  0.0254
_diffrn_reflns_av_sigmaI/netI    0.0146
_diffrn_reflns_limit_h_min       -12
_diffrn_reflns_limit_h_max       14
_diffrn_reflns_limit_k_min       -18
_diffrn_reflns_limit_k_max       19
_diffrn_reflns_limit_l_min       -18
_diffrn_reflns_limit_l_max       18
_diffrn_reflns_theta_min         3.38
_diffrn_reflns_theta_max         26.00
_reflns_number_total             1581
_reflns_number_gt                1356
_reflns_threshold_expression     >2sigma(I)

_computing_data_collection       'APEX (Bruker-AXS,2003)'
_computing_cell_refinement       'SAINT (Bruker-AXS,2003)'
_computing_data_reduction        'SAINT and XPREP (Bruker-AXS,2003)'
_computing_structure_solution    'SHELXS-97 (Sheldrick, 2008)'
_computing_structure_refinement  'SHELXL-97 (Sheldrick, 2008)'
_computing_molecular_graphics    
;
 WinGX (Farrugia, 1999)
 SHELXTL (Bruker, 2003)
 Diamond (Crystal Impact GbR, 2011)
;
_computing_publication_material  ?

_refine_special_details          
; 
 Refinement of F^2^ against ALL reflections.  The weighted R-factor wR and 
 goodness of fit S are based on F^2^, conventional R-factors R are based 
 on F, with F set to zero for negative F^2^. The threshold expression of 
 F^2^ > 2sigma(F^2^) is used only for calculating R-factors(gt) etc. and is 
 not relevant to the choice of reflections for refinement.  R-factors based 
 on F^2^ are statistically about twice as large as those based on F, and R- 
 factors based on ALL data will be even larger. 
;

_refine_ls_structure_factor_coef Fsqd
_refine_ls_matrix_type           full
_refine_ls_weighting_scheme      calc
_refine_ls_weighting_details     
'calc w=1/[\s^2^(Fo^2^)+(0.037P)^2^+5.0P] where P=(Fo^2^+2Fc^2^)/3'
_atom_sites_solution_primary     direct
_atom_sites_solution_secondary   difmap
_atom_sites_solution_hydrogens   geom
_refine_ls_hydrogen_treatment    constr
_refine_ls_extinction_method     none
_refine_ls_extinction_coef       ?
_refine_ls_number_reflns         1581
_refine_ls_number_parameters     92
_refine_ls_number_restraints     0
_refine_ls_R_factor_all          0.0267
_refine_ls_R_factor_gt           0.0213
_refine_ls_wR_factor_ref         0.0776
_refine_ls_wR_factor_gt          0.0732
_refine_ls_goodness_of_fit_ref   1.412
_refine_ls_restrained_S_all      1.412
_refine_ls_shift/su_max          0.003
_refine_ls_shift/su_mean         0.000

loop_
_atom_site_label
_atom_site_type_symbol
_atom_site_fract_x
_atom_site_fract_y
_atom_site_fract_z
_atom_site_U_iso_or_equiv
_atom_site_adp_type
_atom_site_occupancy
_atom_site_symmetry_multiplicity
_atom_site_calc_flag
_atom_site_refinement_flags
_atom_site_disorder_assembly
_atom_site_disorder_group
Au1 Au 0.7500 0.0000 0.392711(15) 0.01594(13) Uani 1 2 d S . .
Fe1 Fe 0.5000 0.2500 0.38450(8) 0.0060(3) Uani 1 4 d S . .
N1 N 0.6102(3) 0.1631(2) 0.3855(2) 0.0121(7) Uani 1 1 d . . .
C1 C 0.6640(4) 0.1042(3) 0.3891(3) 0.0151(9) Uani 1 1 d . . .
N11 N 0.5000 0.2500 0.2527(5) 0.0116(16) Uani 1 4 d S . .
N12 N 0.5987(5) 0.2500 -0.0722(4) 0.0317(15) Uani 1 2 d S . .
N13 N 0.5982(5) 0.2500 -0.1602(4) 0.0324(16) Uani 1 2 d S . .
N14 N 0.5000 0.2500 -0.4836(5) 0.0107(16) Uani 1 4 d S . .
C11 C 0.5950(5) 0.2500 0.2061(4) 0.0148(12) Uani 1 2 d S . .
H11 H 0.6629 0.2500 0.2380 0.018 Uiso 1 2 calc SR . .
C12 C 0.5995(5) 0.2500 0.1150(4) 0.0194(15) Uani 1 2 d S . .
H12 H 0.6689 0.2500 0.0852 0.023 Uiso 1 2 calc SR . .
C13 C 0.5000 0.2500 0.0670(6) 0.0149(19) Uani 1 4 d S . .
C14 C 0.5000 0.2500 -0.0311(7) 0.025(2) Uani 1 4 d S . .
C15 C 0.5000 0.2500 -0.2002(7) 0.023(2) Uani 1 4 d S . .
C16 C 0.5000 0.2500 -0.2994(7) 0.027(2) Uani 1 4 d S . .
C17 C 0.5969(5) 0.2500 -0.3448(5) 0.0287(17) Uani 1 2 d S . .
H17 H 0.6655 0.2500 -0.3140 0.034 Uiso 1 2 calc SR . .
C18 C 0.5949(5) 0.2500 -0.4371(4) 0.0241(15) Uani 1 2 d S . .
H18 H 0.6633 0.2500 -0.4683 0.029 Uiso 1 2 calc SR . .
O21 O 0.5000 -0.0025(13) 0.196(3) 0.161(13) Uiso 0.50 2 d SP . .

loop_
_atom_site_aniso_label
_atom_site_aniso_U_11
_atom_site_aniso_U_22
_atom_site_aniso_U_33
_atom_site_aniso_U_23
_atom_site_aniso_U_13
_atom_site_aniso_U_12
Au1 0.01552(18) 0.01211(18) 0.02018(19) 0.000 0.000 0.00842(8)
Fe1 0.0051(5) 0.0045(5) 0.0085(5) 0.000 0.000 0.000
N1 0.0117(16) 0.0125(18) 0.0122(16) 0.0002(14) -0.0003(13) 0.0006(15)
C1 0.015(2) 0.014(2) 0.015(2) -0.0006(16) -0.0002(16) 0.0021(19)
N11 0.010(3) 0.012(3) 0.013(4) 0.000 0.000 0.000
N12 0.016(3) 0.066(5) 0.014(3) 0.000 0.001(2) 0.000
N13 0.017(3) 0.070(5) 0.009(3) 0.000 -0.001(2) 0.000
N14 0.014(4) 0.007(3) 0.011(4) 0.000 0.000 0.000
C11 0.008(3) 0.023(3) 0.013(3) 0.000 -0.002(2) 0.000
C12 0.011(3) 0.031(4) 0.015(3) 0.000 0.002(2) 0.000
C13 0.011(4) 0.025(5) 0.009(5) 0.000 0.000 0.000
C14 0.017(5) 0.047(7) 0.010(5) 0.000 0.000 0.000
C15 0.015(4) 0.041(6) 0.012(5) 0.000 0.000 0.000
C16 0.017(5) 0.049(7) 0.015(5) 0.000 0.000 0.000
C17 0.014(3) 0.057(5) 0.015(3) 0.000 -0.001(3) 0.000
C18 0.008(3) 0.048(4) 0.016(3) 0.000 0.000(2) 0.000

_geom_special_details            
; 
 All esds (except the esd in the dihedral angle between two l.s. planes) 
 are estimated using the full covariance matrix.  The cell esds are taken 
 into account individually in the estimation of esds in distances, angles 
 and torsion angles; correlations between esds in cell parameters are only 
 used when they are defined by crystal symmetry.  An approximate (isotropic) 
 treatment of cell esds is used for estimating esds involving l.s. planes. 
;

loop_
_geom_bond_atom_site_label_1
_geom_bond_atom_site_label_2
_geom_bond_distance
_geom_bond_site_symmetry_2
_geom_bond_publ_flag
Au1 C1 1.976(4) . ?
Au1 C1 1.976(4) 6_645 ?
Au1 Au1 3.2400(7) 7_646 ?
Fe1 N1 1.931(3) . ?
Fe1 N1 1.931(3) 12_655 ?
Fe1 N1 1.931(3) 11_565 ?
Fe1 N1 1.931(3) 2_655 ?
Fe1 N11 1.990(7) . ?
Fe1 N14 1.991(7) 1_556 ?
N1 C1 1.151(5) . ?
N11 C11 1.345(7) . ?
N11 C11 1.345(7) 2_655 ?
N12 N13 1.329(8) . ?
N12 C14 1.343(7) . ?
N13 C15 1.330(7) . ?
N14 C18 1.344(7) . ?
N14 C18 1.344(7) 2_655 ?
N14 Fe1 1.991(7) 1_554 ?
C11 C12 1.377(9) . ?
C12 C13 1.403(8) . ?
C13 C12 1.403(8) 2_655 ?
C13 C14 1.481(14) . ?
C14 N12 1.343(7) 2_655 ?
C15 N13 1.330(7) 2_655 ?
C15 C16 1.497(15) . ?
C16 C17 1.355(8) . ?
C16 C17 1.355(8) 2_655 ?
C17 C18 1.394(10) . ?

loop_
_geom_angle_atom_site_label_1
_geom_angle_atom_site_label_2
_geom_angle_atom_site_label_3
_geom_angle
_geom_angle_site_symmetry_1
_geom_angle_site_symmetry_3
_geom_angle_publ_flag
C1 Au1 C1 176.9(2) . 6_645 ?
C1 Au1 Au1 91.57(11) . 7_646 ?
C1 Au1 Au1 91.57(11) 6_645 7_646 ?
N1 Fe1 N1 87.0(2) . 12_655 ?
N1 Fe1 N1 93.0(2) . 11_565 ?
N1 Fe1 N1 179.1(2) 12_655 11_565 ?
N1 Fe1 N1 179.1(2) . 2_655 ?
N1 Fe1 N1 93.0(2) 12_655 2_655 ?
N1 Fe1 N1 87.0(2) 11_565 2_655 ?
N1 Fe1 N11 90.45(10) . . ?
N1 Fe1 N11 90.44(10) 12_655 . ?
N1 Fe1 N11 90.44(10) 11_565 . ?
N1 Fe1 N11 90.44(10) 2_655 . ?
N1 Fe1 N14 89.55(10) . 1_556 ?
N1 Fe1 N14 89.56(10) 12_655 1_556 ?
N1 Fe1 N14 89.56(10) 11_565 1_556 ?
N1 Fe1 N14 89.56(10) 2_655 1_556 ?
N11 Fe1 N14 180.000(1) . 1_556 ?
C1 N1 Fe1 170.6(3) . . ?
N1 C1 Au1 177.1(4) . . ?
C11 N11 C11 116.9(7) . 2_655 ?
C11 N11 Fe1 121.5(4) . . ?
C11 N11 Fe1 121.5(4) 2_655 . ?
N13 N12 C14 117.3(6) . . ?
N12 N13 C15 117.3(6) . . ?
C18 N14 C18 116.9(8) . 2_655 ?
C18 N14 Fe1 121.5(4) . 1_554 ?
C18 N14 Fe1 121.5(4) 2_655 1_554 ?
N11 C11 C12 123.8(6) . . ?
C11 C12 C13 118.8(6) . . ?
C12 C13 C12 117.8(8) . 2_655 ?
C12 C13 C14 121.1(4) . . ?
C12 C13 C14 121.1(4) 2_655 . ?
N12 C14 N12 124.9(10) 2_655 . ?
N12 C14 C13 117.5(5) 2_655 . ?
N12 C14 C13 117.6(5) . . ?
N13 C15 N13 125.9(9) . 2_655 ?
N13 C15 C16 117.0(5) . . ?
N13 C15 C16 117.0(5) 2_655 . ?
C17 C16 C17 119.2(10) . 2_655 ?
C17 C16 C15 120.4(5) . . ?
C17 C16 C15 120.4(5) 2_655 . ?
C16 C17 C18 119.4(7) . . ?
N14 C18 C17 122.5(6) . . ?

_diffrn_measured_fraction_theta_max 0.997
_diffrn_reflns_theta_full        26.00
_diffrn_measured_fraction_theta_full 0.997
_refine_diff_density_max         1.185
_refine_diff_density_min         -0.829
_refine_diff_density_rms         0.142
