####################################################################### 
# 
# This file contains crystal structure data downloaded from the 
# Cambridge Structural Database (CSD) hosted by the Cambridge 
# Crystallographic Data Centre (CCDC).
# 
# Full information about CCDC data access policies and citation 
# guidelines are available at http://www.ccdc.cam.ac.uk/access/V1 
# 
# Audit and citation data items may have been added by the CCDC. 
# Please retain this information to preserve the provenance of 
# this file and to allow appropriate attribution of the data. 
# 
#######################################################################

data_1_300_cmma
_audit_block_doi                 10.5517/cc126kjc
_database_code_depnum_ccdc_archive 'CCDC 989412'
loop_
_citation_id
_citation_doi
_citation_year
1 10.1002/anie.201402951 2014
_audit_update_record             
;
2014-03-01 deposited with the CCDC.	2024-07-11 downloaded from the CCDC.
;

_audit_creation_method           SHELXL-97
_chemical_name_systematic        
; 
 ? 
;
_chemical_name_common            ?
_chemical_melting_point          ?
_chemical_formula_moiety         ?
_chemical_formula_sum            'C16 H8 Au2 Fe N10 O'
_chemical_formula_weight         806.11

loop_
_atom_type_symbol
_atom_type_description
_atom_type_scat_dispersion_real
_atom_type_scat_dispersion_imag
_atom_type_scat_source
C C 0.0033 0.0016 'International Tables Vol C Tables 4.2.6.8 and 6.1.1.4'
H H 0.0000 0.0000 'International Tables Vol C Tables 4.2.6.8 and 6.1.1.4'
N N 0.0061 0.0033 'International Tables Vol C Tables 4.2.6.8 and 6.1.1.4'
O O 0.0106 0.0060 'International Tables Vol C Tables 4.2.6.8 and 6.1.1.4'
Fe Fe 0.3463 0.8444 'International Tables Vol C Tables 4.2.6.8 and 6.1.1.4'
Au Au -2.0133 8.8022 'International Tables Vol C Tables 4.2.6.8 and 6.1.1.4'

_symmetry_cell_setting           orthorhombic
_symmetry_space_group_name_H-M   'C m m a'
_symmetry_int_tables_number      67


loop_
_symmetry_equiv_pos_as_xyz
'x, y, z'
'-x, -y+1/2, z'
'-x, y+1/2, -z'
'x, -y, -z'
'x+1/2, y+1/2, z'
'-x+1/2, -y+1, z'
'-x+1/2, y+1, -z'
'x+1/2, -y+1/2, -z'
'-x, -y, -z'
'x, y-1/2, -z'
'x, -y-1/2, z'
'-x, y, z'
'-x+1/2, -y+1/2, -z'
'x+1/2, y, -z'
'x+1/2, -y, z'
'-x+1/2, y+1/2, z'

_cell_length_a                   11.9183(7)
_cell_length_b                   16.9983(8)
_cell_length_c                   15.4986(10)
_cell_angle_alpha                90.00
_cell_angle_beta                 90.00
_cell_angle_gamma                90.00
_cell_volume                     3139.9(3)
_cell_formula_units_Z            4
_cell_measurement_temperature    300(2)
_cell_measurement_reflns_used    1502
_cell_measurement_theta_min      2.73
_cell_measurement_theta_max      29.5

_exptl_crystal_description       plate
_exptl_crystal_colour            red
_exptl_crystal_size_max          0.142
_exptl_crystal_size_mid          0.113
_exptl_crystal_size_min          0.030
_exptl_crystal_density_meas      ?
_exptl_crystal_density_diffrn    1.705
_exptl_crystal_density_method    'not measured'
_exptl_crystal_F_000             1464
_exptl_absorpt_coefficient_mu    9.798
_exptl_absorpt_correction_T_min  0.59929
_exptl_absorpt_correction_T_max  1.00000
_exptl_absorpt_correction_type   multi-scan
_exptl_absorpt_process_details   
;
CrysAlisPro, Agilent Technologies,
Version 1.171.35.11 (release 16-05-2011 CrysAlis171 .NET)
(compiled May 16 2011,17:55:39)
Empirical absorption correction using spherical harmonics,
 implemented in SCALE3 ABSPACK scaling algorithm.
;


_diffrn_crystal_treatment        
;
attached with Exxon Paratone N, to a short length 
of fibre supported on a thin piece of copper wire 
inserted in a copper mounting pin.  The crystal was 
quenched in a cold nitrogen gas stream from an 
Oxford Cryosystems Cryostream.
;


_exptl_special_details           
; 
 ? 
;

_diffrn_ambient_temperature      300(2)
_diffrn_radiation_wavelength     0.71073
_diffrn_radiation_type           MoK\a

_diffrn_radiation_source         'SuperNova (Mo) X-ray Source'
_diffrn_radiation_monochromator  mirror
_diffrn_measurement_device_type  'SuperNova, Dual, Cu at zero, Atlas'
_diffrn_detector_area_resol_mean 10.5861
_diffrn_measurement_method       '\w scans'
_diffrn_reflns_number            5451
_diffrn_reflns_av_R_equivalents  0.0799
_diffrn_reflns_av_sigmaI/netI    0.0707
_diffrn_reflns_limit_h_min       -14
_diffrn_reflns_limit_h_max       11
_diffrn_reflns_limit_k_min       -20
_diffrn_reflns_limit_k_max       16
_diffrn_reflns_limit_l_min       -15
_diffrn_reflns_limit_l_max       19
_diffrn_reflns_theta_min         3.42
_diffrn_reflns_theta_max         25.99
_reflns_number_total             1668
_reflns_number_gt                1111
_reflns_threshold_expression     >2sigma(I)

_computing_data_collection       
;
CrysAlisPro, Agilent Technologies,
Version 1.171.35.11 (release 16-05-2011 CrysAlis171 .NET)
(compiled May 16 2011,17:55:39)
;
_computing_cell_refinement       
;
CrysAlisPro, Agilent Technologies,
Version 1.171.35.11 (release 16-05-2011 CrysAlis171 .NET)
(compiled May 16 2011,17:55:39)
;
_computing_data_reduction        
;
CrysAlisPro, Agilent Technologies,
Version 1.171.35.11 (release 16-05-2011 CrysAlis171 .NET)
(compiled May 16 2011,17:55:39)
;
_computing_structure_solution    'SHELXS-97 (Sheldrick, 2008)'
_computing_structure_refinement  'SHELXL-97 (Sheldrick, 2008)'
_computing_molecular_graphics    
;
 WinGX (Farrugia, 1999)
 SHELXTL (Bruker, 2003)
 Diamond (Crystal Impact GbR, 2011)
;

_computing_publication_material  ?

_refine_special_details          
; 
 Refinement of F^2^ against ALL reflections.  The weighted R-factor wR and 
 goodness of fit S are based on F^2^, conventional R-factors R are based 
 on F, with F set to zero for negative F^2^. The threshold expression of 
 F^2^ > 2sigma(F^2^) is used only for calculating R-factors(gt) etc. and is 
 not relevant to the choice of reflections for refinement.  R-factors based 
 on F^2^ are statistically about twice as large as those based on F, and R- 
 factors based on ALL data will be even larger. 
;

_refine_ls_structure_factor_coef Fsqd
_refine_ls_matrix_type           full
_refine_ls_weighting_scheme      calc
_refine_ls_weighting_details     
'calc w=1/[\s^2^(Fo^2^)+(0.052P)^2^] where P=(Fo^2^+2Fc^2^)/3'
_atom_sites_solution_primary     direct
_atom_sites_solution_secondary   difmap
_atom_sites_solution_hydrogens   geom
_refine_ls_hydrogen_treatment    constr
_refine_ls_extinction_method     none
_refine_ls_extinction_coef       ?
_refine_ls_number_reflns         1668
_refine_ls_number_parameters     92
_refine_ls_number_restraints     0
_refine_ls_R_factor_all          0.0792
_refine_ls_R_factor_gt           0.0457
_refine_ls_wR_factor_ref         0.1247
_refine_ls_wR_factor_gt          0.1063
_refine_ls_goodness_of_fit_ref   0.988
_refine_ls_restrained_S_all      0.988
_refine_ls_shift/su_max          0.019
_refine_ls_shift/su_mean         0.002

loop_
_atom_site_label
_atom_site_type_symbol
_atom_site_fract_x
_atom_site_fract_y
_atom_site_fract_z
_atom_site_U_iso_or_equiv
_atom_site_adp_type
_atom_site_occupancy
_atom_site_symmetry_multiplicity
_atom_site_calc_flag
_atom_site_refinement_flags
_atom_site_disorder_assembly
_atom_site_disorder_group
Au1 Au 0.7500 0.0000 0.39434(4) 0.0581(3) Uani 1 2 d S . .
Fe1 Fe 0.5000 0.2500 0.38594(12) 0.0254(5) Uani 1 4 d S . .
N1 N 0.6245(5) 0.1599(4) 0.3867(4) 0.0477(17) Uani 1 1 d . . .
C1 C 0.6714(7) 0.1028(5) 0.3900(5) 0.049(2) Uani 1 1 d . . .
N11 N 0.5000 0.2500 0.2424(9) 0.053(4) Uani 1 4 d S . .
N12 N 0.6002(10) 0.2500 -0.0727(8) 0.138(7) Uani 1 2 d S . .
N13 N 0.5982(11) 0.2500 -0.1591(8) 0.141(7) Uani 1 2 d S . .
N14 N 0.5000 0.2500 -0.4731(8) 0.045(3) Uani 1 4 d S . .
C11 C 0.5934(11) 0.2500 0.1990(8) 0.070(4) Uani 1 2 d S . .
H11 H 0.6605 0.2500 0.2296 0.084 Uiso 1 2 calc SR . .
C12 C 0.5984(12) 0.2500 0.1095(8) 0.088(6) Uani 1 2 d S . .
H12 H 0.6671 0.2500 0.0811 0.106 Uiso 1 2 calc SR . .
C13 C 0.5000 0.2500 0.0638(11) 0.069(6) Uani 1 4 d S . .
C14 C 0.5000 0.2500 -0.0311(14) 0.115(11) Uani 1 4 d S . .
C15 C 0.5000 0.2500 -0.1949(14) 0.102(9) Uani 1 4 d S . .
C16 C 0.5000 0.2500 -0.2924(13) 0.096(8) Uani 1 4 d S . .
C17 C 0.5970(11) 0.2500 -0.3375(9) 0.113(7) Uani 1 2 d S . .
H17 H 0.6658 0.2500 -0.3091 0.136 Uiso 1 2 calc SR . .
C18 C 0.5920(9) 0.2500 -0.4286(8) 0.083(5) Uani 1 2 d S . .
H18 H 0.6595 0.2500 -0.4587 0.100 Uiso 1 2 calc SR . .
O21 O 0.5000 -0.002(4) 0.162(7) 0.40(5) Uiso 0.50 2 d SP . .

loop_
_atom_site_aniso_label
_atom_site_aniso_U_11
_atom_site_aniso_U_22
_atom_site_aniso_U_33
_atom_site_aniso_U_23
_atom_site_aniso_U_13
_atom_site_aniso_U_12
Au1 0.0607(4) 0.0439(3) 0.0698(5) 0.000 0.000 0.0273(2)
Fe1 0.0271(10) 0.0189(8) 0.0301(11) 0.000 0.000 0.000
N1 0.043(4) 0.049(4) 0.051(4) 0.001(3) 0.002(3) 0.016(3)
C1 0.049(5) 0.042(4) 0.055(5) -0.003(4) -0.002(4) 0.023(4)
N11 0.041(8) 0.074(9) 0.044(10) 0.000 0.000 0.000
N12 0.042(8) 0.34(2) 0.030(7) 0.000 0.000(7) 0.000
N13 0.044(8) 0.35(2) 0.029(7) 0.000 0.004(6) 0.000
N14 0.045(8) 0.080(9) 0.010(6) 0.000 0.000 0.000
C11 0.038(7) 0.129(12) 0.042(9) 0.000 -0.009(7) 0.000
C12 0.038(8) 0.194(18) 0.033(9) 0.000 -0.004(7) 0.000
C13 0.036(10) 0.150(18) 0.021(10) 0.000 0.000 0.000
C14 0.037(11) 0.28(4) 0.025(11) 0.000 0.000 0.000
C15 0.032(11) 0.23(3) 0.045(13) 0.000 0.000 0.000
C16 0.029(10) 0.21(3) 0.050(14) 0.000 0.000 0.000
C17 0.025(7) 0.27(2) 0.044(9) 0.000 -0.007(7) 0.000
C18 0.021(7) 0.197(16) 0.032(7) 0.000 0.003(6) 0.000

_geom_special_details            
; 
 All esds (except the esd in the dihedral angle between two l.s. planes) 
 are estimated using the full covariance matrix.  The cell esds are taken 
 into account individually in the estimation of esds in distances, angles 
 and torsion angles; correlations between esds in cell parameters are only 
 used when they are defined by crystal symmetry.  An approximate (isotropic) 
 treatment of cell esds is used for estimating esds involving l.s. planes. 
;

loop_
_geom_bond_atom_site_label_1
_geom_bond_atom_site_label_2
_geom_bond_distance
_geom_bond_site_symmetry_2
_geom_bond_publ_flag
Au1 C1 1.985(8) . ?
Au1 C1 1.985(8) 6_645 ?
Au1 Au1 3.2751(11) 7_646 ?
Fe1 N1 2.133(6) 12_655 ?
Fe1 N1 2.133(6) 11_565 ?
Fe1 N1 2.133(6) 2_655 ?
Fe1 N1 2.133(6) . ?
Fe1 N14 2.185(12) 1_556 ?
Fe1 N11 2.225(14) . ?
N1 C1 1.120(9) . ?
N11 C11 1.301(14) 2_655 ?
N11 C11 1.301(14) . ?
N12 N13 1.339(16) . ?
N12 C14 1.358(15) . ?
N13 C15 1.296(15) . ?
N14 C18 1.296(12) . ?
N14 C18 1.296(12) 2_655 ?
N14 Fe1 2.185(12) 1_554 ?
C11 C12 1.389(16) . ?
C12 C13 1.370(15) . ?
C13 C12 1.370(15) 2_655 ?
C13 C14 1.47(3) . ?
C14 N12 1.358(15) 2_655 ?
C15 N13 1.296(15) 2_655 ?
C15 C16 1.51(3) . ?
C16 C17 1.351(16) 2_655 ?
C16 C17 1.351(16) . ?
C17 C18 1.413(18) . ?

loop_
_geom_angle_atom_site_label_1
_geom_angle_atom_site_label_2
_geom_angle_atom_site_label_3
_geom_angle
_geom_angle_site_symmetry_1
_geom_angle_site_symmetry_3
_geom_angle_publ_flag
C1 Au1 C1 176.1(4) . 6_645 ?
C1 Au1 Au1 92.0(2) . 7_646 ?
C1 Au1 Au1 92.0(2) 6_645 7_646 ?
N1 Fe1 N1 179.4(3) 12_655 11_565 ?
N1 Fe1 N1 91.9(3) 12_655 2_655 ?
N1 Fe1 N1 88.1(3) 11_565 2_655 ?
N1 Fe1 N1 88.1(3) 12_655 . ?
N1 Fe1 N1 91.9(3) 11_565 . ?
N1 Fe1 N1 179.4(3) 2_655 . ?
N1 Fe1 N14 89.68(17) 12_655 1_556 ?
N1 Fe1 N14 89.68(17) 11_565 1_556 ?
N1 Fe1 N14 89.68(17) 2_655 1_556 ?
N1 Fe1 N14 89.68(17) . 1_556 ?
N1 Fe1 N11 90.32(17) 12_655 . ?
N1 Fe1 N11 90.32(17) 11_565 . ?
N1 Fe1 N11 90.32(17) 2_655 . ?
N1 Fe1 N11 90.32(17) . . ?
N14 Fe1 N11 180.000(2) 1_556 . ?
C1 N1 Fe1 165.8(7) . . ?
N1 C1 Au1 178.1(8) . . ?
C11 N11 C11 117.7(15) 2_655 . ?
C11 N11 Fe1 121.1(8) 2_655 . ?
C11 N11 Fe1 121.1(8) . . ?
N13 N12 C14 117.4(13) . . ?
C15 N13 N12 116.3(14) . . ?
C18 N14 C18 115.7(14) . 2_655 ?
C18 N14 Fe1 122.2(7) . 1_554 ?
C18 N14 Fe1 122.2(7) 2_655 1_554 ?
N11 C11 C12 123.6(13) . . ?
C13 C12 C11 118.7(13) . . ?
C12 C13 C12 117.8(16) . 2_655 ?
C12 C13 C14 121.1(8) . . ?
C12 C13 C14 121.1(8) 2_655 . ?
N12 C14 N12 123.2(19) . 2_655 ?
N12 C14 C13 118.4(9) . . ?
N12 C14 C13 118.4(9) 2_655 . ?
N13 C15 N13 129(2) 2_655 . ?
N13 C15 C16 115.3(10) 2_655 . ?
N13 C15 C16 115.3(10) . . ?
C17 C16 C17 117.8(19) 2_655 . ?
C17 C16 C15 121.1(9) 2_655 . ?
C17 C16 C15 121.1(9) . . ?
C16 C17 C18 118.7(13) . . ?
N14 C18 C17 124.6(11) . . ?

_diffrn_measured_fraction_theta_max 0.992
_diffrn_reflns_theta_full        25.99
_diffrn_measured_fraction_theta_full 0.992
_refine_diff_density_max         1.148
_refine_diff_density_min         -1.023
_refine_diff_density_rms         0.170
