####################################################################### 
# 
# This file contains crystal structure data downloaded from the 
# Cambridge Structural Database (CSD) hosted by the Cambridge 
# Crystallographic Data Centre (CCDC).
# 
# Full information about CCDC data access policies and citation 
# guidelines are available at http://www.ccdc.cam.ac.uk/access/V1 
# 
# Audit and citation data items may have been added by the CCDC. 
# Please retain this information to preserve the provenance of 
# this file and to allow appropriate attribution of the data. 
# 
#######################################################################

data_1
_audit_block_doi                 10.5517/ccqzpy9
_database_code_depnum_ccdc_archive 'CCDC 684912'
loop_
_citation_id
_citation_doi
_citation_year
1 10.1016/j.poly.2008.09.008 2008
_audit_update_record             
;
2008-04-14 deposited with the CCDC.	2024-07-11 downloaded from the CCDC.
;


_audit_creation_method           SHELXL-97
_chemical_name_systematic        
;
?
;
_chemical_name_common            ?
_chemical_melting_point          ?
_chemical_formula_moiety         ?
_chemical_formula_sum            'C50 H40 Cl2 Cu N8 O4'
_chemical_formula_weight         951.34

loop_
_atom_type_symbol
_atom_type_description
_atom_type_scat_dispersion_real
_atom_type_scat_dispersion_imag
_atom_type_scat_source
C C 0.0033 0.0016 'International Tables Vol C Tables 4.2.6.8 and 6.1.1.4'
H H 0.0000 0.0000 'International Tables Vol C Tables 4.2.6.8 and 6.1.1.4'
N N 0.0061 0.0033 'International Tables Vol C Tables 4.2.6.8 and 6.1.1.4'
Cl Cl 0.1484 0.1585 'International Tables Vol C Tables 4.2.6.8 and 6.1.1.4'
Cu Cu 0.3201 1.2651 'International Tables Vol C Tables 4.2.6.8 and 6.1.1.4'
O O 0.0106 0.0060 'International Tables Vol C Tables 4.2.6.8 and 6.1.1.4'

_symmetry_cell_setting           monoclinic
_symmetry_space_group_name_H-M   C2/c

loop_
_symmetry_equiv_pos_as_xyz
'x, y, z'
'-x, y, -z+1/2'
'x+1/2, y+1/2, z'
'-x+1/2, y+1/2, -z+1/2'
'-x, -y, -z'
'x, -y, z-1/2'
'-x+1/2, -y+1/2, -z'
'x+1/2, -y+1/2, z-1/2'

_cell_length_a                   25.987(3)
_cell_length_b                   19.128(3)
_cell_length_c                   15.500(2)
_cell_angle_alpha                90.00
_cell_angle_beta                 121.353(9)
_cell_angle_gamma                90.00
_cell_volume                     6579.6(15)
_cell_formula_units_Z            4
_cell_measurement_temperature    295(2)
_cell_measurement_reflns_used    28
_cell_measurement_theta_min      5.02
_cell_measurement_theta_max      13.16

_exptl_crystal_description       block
_exptl_crystal_colour            blue
_exptl_crystal_size_max          0.7
_exptl_crystal_size_mid          0.6
_exptl_crystal_size_min          0.5
_exptl_crystal_density_meas      ?
_exptl_crystal_density_diffrn    0.960
_exptl_crystal_density_method    'not measured'
_exptl_crystal_F_000             1964
_exptl_absorpt_coefficient_mu    0.451
_exptl_absorpt_correction_type   empirical
_exptl_absorpt_correction_T_min  0.789
_exptl_absorpt_correction_T_max  0.997
_exptl_absorpt_process_details   ?

_exptl_special_details           
;
?
;

_diffrn_ambient_temperature      295(2)
_diffrn_radiation_wavelength     0.71073
_diffrn_radiation_type           MoK\a
_diffrn_radiation_source         'fine-focus sealed tube'
_diffrn_radiation_monochromator  graphite
_diffrn_measurement_device_type  'Bruker P4'
_diffrn_measurement_method       '\w scans'
_diffrn_detector_area_resol_mean ?
_diffrn_standards_number         3
_diffrn_standards_interval_count 97
_diffrn_standards_interval_time  ?
_diffrn_standards_decay_%        ?
_diffrn_reflns_number            6550
_diffrn_reflns_av_R_equivalents  0.0258
_diffrn_reflns_av_sigmaI/netI    0.0343
_diffrn_reflns_limit_h_min       -1
_diffrn_reflns_limit_h_max       30
_diffrn_reflns_limit_k_min       -1
_diffrn_reflns_limit_k_max       22
_diffrn_reflns_limit_l_min       -18
_diffrn_reflns_limit_l_max       16
_diffrn_reflns_theta_min         2.13
_diffrn_reflns_theta_max         25.00
_reflns_number_total             5748
_reflns_number_gt                3890
_reflns_threshold_expression     >2sigma(I)

_computing_data_collection       'Bruker XSCANS'
_computing_cell_refinement       'Bruker XSCANS'
_computing_data_reduction        'Bruker SHELXTL'
_computing_structure_solution    'SHELXS-97 (Sheldrick, 1990)'
_computing_structure_refinement  'SHELXL-97 (Sheldrick, 1997)'
_computing_molecular_graphics    'Bruker SHELXTL'
_computing_publication_material  'Bruker SHELXTL'

_refine_special_details          
;
Refinement of F^2^ against ALL reflections. The weighted R-factor wR and
goodness of fit S are based on F^2^, conventional R-factors R are based
on F, with F set to zero for negative F^2^. The threshold expression of
F^2^ > 2sigma(F^2^) is used only for calculating R-factors(gt) etc. and is
not relevant to the choice of reflections for refinement. R-factors based
on F^2^ are statistically about twice as large as those based on F, and R-
factors based on ALL data will be even larger.
;

_refine_ls_structure_factor_coef Fsqd
_refine_ls_matrix_type           full
_refine_ls_weighting_scheme      calc
_refine_ls_weighting_details     
'calc w=1/[\s^2^(Fo^2^)+(0.0100P)^2^+40.1720P] where P=(Fo^2^+2Fc^2^)/3'
_atom_sites_solution_primary     direct
_atom_sites_solution_secondary   difmap
_atom_sites_solution_hydrogens   geom
_refine_ls_hydrogen_treatment    constr
_refine_ls_extinction_method     none
_refine_ls_extinction_coef       ?
_refine_ls_number_reflns         5748
_refine_ls_number_parameters     294
_refine_ls_number_restraints     0
_refine_ls_R_factor_all          0.0940
_refine_ls_R_factor_gt           0.0661
_refine_ls_wR_factor_ref         0.1564
_refine_ls_wR_factor_gt          0.1474
_refine_ls_goodness_of_fit_ref   1.036
_refine_ls_restrained_S_all      1.036
_refine_ls_shift/su_max          0.001
_refine_ls_shift/su_mean         0.000

loop_
_atom_site_label
_atom_site_type_symbol
_atom_site_fract_x
_atom_site_fract_y
_atom_site_fract_z
_atom_site_U_iso_or_equiv
_atom_site_adp_type
_atom_site_occupancy
_atom_site_symmetry_multiplicity
_atom_site_calc_flag
_atom_site_refinement_flags
_atom_site_disorder_assembly
_atom_site_disorder_group
Cu Cu 1.0000 -0.89437(4) 1.7500 0.0538(2) Uani 1 2 d S . .
Cl Cl 1.05849(5) -0.88836(7) 1.63823(9) 0.0586(3) Uani 1 1 d . . .
N1 N 0.94196(15) -0.82002(17) 1.6554(3) 0.0451(8) Uani 1 1 d . . .
N2 N 0.82638(17) -0.63273(19) 1.3922(3) 0.0566(10) Uani 1 1 d . . .
H2N H 0.8467 -0.6615 1.3800 0.068 Uiso 1 1 d R . .
N3 N 0.83033(18) -0.16096(19) 1.4002(3) 0.0574(10) Uani 1 1 d . . .
H3N H 0.8510 -0.1314 1.3830 0.069 Uiso 1 1 d R . .
N4 N 0.94285(16) 0.02907(18) 1.6598(3) 0.0504(9) Uani 1 1 d . . .
O1 O 0.77855(17) -0.64521(19) 1.4799(3) 0.0748(11) Uani 1 1 d . . .
O2 O 0.7927(3) -0.1612(3) 1.5031(4) 0.136(2) Uani 1 1 d . . .
C1 C 0.9606(2) -0.7677(2) 1.6214(4) 0.0598(13) Uani 1 1 d . . .
H1 H 1.0011 -0.7655 1.6418 0.072 Uiso 1 1 calc R . .
C2 C 0.9224(2) -0.7166(3) 1.5576(4) 0.0612(13) Uani 1 1 d . . .
H2 H 0.9373 -0.6810 1.5357 0.073 Uiso 1 1 calc R . .
C3 C 0.8621(2) -0.7185(2) 1.5262(3) 0.0475(10) Uani 1 1 d . . .
C4 C 0.84295(19) -0.7733(2) 1.5605(3) 0.0472(10) Uani 1 1 d . . .
H4 H 0.8026 -0.7768 1.5407 0.057 Uiso 1 1 calc R . .
C5 C 0.88318(19) -0.8223(2) 1.6236(3) 0.0472(10) Uani 1 1 d . . .
H5 H 0.8692 -0.8589 1.6455 0.057 Uiso 1 1 calc R . .
C6 C 0.8180(2) -0.6619(2) 1.4633(3) 0.0521(11) Uani 1 1 d . . .
C7 C 0.7942(2) -0.5768(2) 1.3281(3) 0.0518(11) Uani 1 1 d . . .
C8 C 0.7453(2) -0.5452(3) 1.3228(4) 0.0713(15) Uani 1 1 d . . .
H8 H 0.7302 -0.5623 1.3614 0.086 Uiso 1 1 calc R . .
C9 C 0.7182(2) -0.4879(3) 1.2603(4) 0.0712(15) Uani 1 1 d . . .
H9 H 0.6852 -0.4673 1.2583 0.085 Uiso 1 1 calc R . .
C10 C 0.7384(2) -0.4605(2) 1.2016(3) 0.0536(12) Uani 1 1 d . . .
C11 C 0.7846(3) -0.4946(3) 1.2027(4) 0.0746(16) Uani 1 1 d . . .
H11 H 0.7979 -0.4790 1.1608 0.089 Uiso 1 1 calc R . .
C12 C 0.8124(3) -0.5518(3) 1.2645(4) 0.0730(16) Uani 1 1 d . . .
H12 H 0.8439 -0.5738 1.2632 0.088 Uiso 1 1 calc R . .
C13 C 0.7112(2) -0.3947(2) 1.1403(3) 0.0598(13) Uani 1 1 d . . .
H13A H 0.7169 -0.3945 1.0833 0.072 Uiso 1 1 calc R . .
H13B H 0.6682 -0.3941 1.1142 0.072 Uiso 1 1 calc R . .
C14 C 0.7398(2) -0.3301(2) 1.2039(3) 0.0533(12) Uani 1 1 d . . .
C15 C 0.7890(3) -0.2991(3) 1.2117(4) 0.0664(14) Uani 1 1 d . . .
H15 H 0.8039 -0.3161 1.1727 0.080 Uiso 1 1 calc R . .
C16 C 0.8180(3) -0.2428(3) 1.2757(4) 0.0662(14) Uani 1 1 d . . .
H16 H 0.8514 -0.2227 1.2784 0.079 Uiso 1 1 calc R . .
C17 C 0.7975(2) -0.2170(2) 1.3346(3) 0.0513(11) Uani 1 1 d . . .
C18 C 0.7465(2) -0.2454(3) 1.3251(5) 0.0789(17) Uani 1 1 d . . .
H18 H 0.7306 -0.2272 1.3619 0.095 Uiso 1 1 calc R . .
C19 C 0.7185(2) -0.3015(3) 1.2605(5) 0.0742(16) Uani 1 1 d . . .
H19 H 0.6841 -0.3204 1.2554 0.089 Uiso 1 1 calc R . .
C20 C 0.8272(3) -0.1376(3) 1.4791(5) 0.0738(16) Uani 1 1 d . . .
C21 C 0.9280(2) 0.0217(2) 1.5645(4) 0.0563(12) Uani 1 1 d . . .
H21 H 0.9431 0.0538 1.5382 0.068 Uiso 1 1 calc R . .
C22 C 0.8914(2) -0.0311(2) 1.5024(4) 0.0549(12) Uani 1 1 d . . .
H22 H 0.8826 -0.0344 1.4363 0.066 Uiso 1 1 calc R . .
C23 C 0.8679(2) -0.0788(2) 1.5393(4) 0.0547(12) Uani 1 1 d . . .
C24 C 0.8836(3) -0.0717(3) 1.6385(5) 0.087(2) Uani 1 1 d . . .
H24 H 0.8685 -0.1030 1.6658 0.105 Uiso 1 1 calc R . .
C25 C 0.9216(3) -0.0185(3) 1.6978(4) 0.0768(16) Uani 1 1 d . . .
H25 H 0.9327 -0.0154 1.7653 0.092 Uiso 1 1 calc R . .

loop_
_atom_site_aniso_label
_atom_site_aniso_U_11
_atom_site_aniso_U_22
_atom_site_aniso_U_33
_atom_site_aniso_U_23
_atom_site_aniso_U_13
_atom_site_aniso_U_12
Cu 0.0467(4) 0.0335(4) 0.0531(5) 0.000 0.0063(4) 0.000
Cl 0.0537(7) 0.0645(7) 0.0584(7) -0.0042(6) 0.0298(6) -0.0084(6)
N1 0.043(2) 0.0360(18) 0.046(2) -0.0001(15) 0.0163(17) 0.0004(15)
N2 0.063(3) 0.046(2) 0.062(2) 0.0161(19) 0.033(2) 0.0152(19)
N3 0.067(3) 0.042(2) 0.064(3) -0.0132(18) 0.035(2) -0.0199(19)
N4 0.050(2) 0.0361(19) 0.057(2) -0.0054(17) 0.0226(19) -0.0026(16)
O1 0.079(3) 0.071(2) 0.088(3) 0.036(2) 0.052(2) 0.032(2)
O2 0.172(5) 0.143(4) 0.159(5) -0.096(4) 0.132(4) -0.115(4)
C1 0.044(3) 0.054(3) 0.069(3) 0.009(2) 0.021(2) 0.000(2)
C2 0.056(3) 0.056(3) 0.069(3) 0.018(2) 0.031(3) 0.000(2)
C3 0.048(3) 0.043(2) 0.044(2) 0.0034(19) 0.019(2) 0.003(2)
C4 0.041(2) 0.044(2) 0.051(2) 0.001(2) 0.020(2) -0.0007(19)
C5 0.050(3) 0.040(2) 0.046(2) 0.0040(19) 0.020(2) 0.000(2)
C6 0.052(3) 0.043(2) 0.055(3) 0.008(2) 0.023(2) 0.008(2)
C7 0.054(3) 0.042(2) 0.055(3) 0.007(2) 0.025(2) 0.004(2)
C8 0.071(4) 0.065(3) 0.090(4) 0.033(3) 0.050(3) 0.018(3)
C9 0.072(4) 0.063(3) 0.085(4) 0.027(3) 0.045(3) 0.021(3)
C10 0.062(3) 0.033(2) 0.046(3) 0.0022(19) 0.015(2) -0.003(2)
C11 0.094(4) 0.064(3) 0.078(4) 0.023(3) 0.053(3) 0.007(3)
C12 0.087(4) 0.068(3) 0.086(4) 0.027(3) 0.060(3) 0.024(3)
C13 0.073(3) 0.033(2) 0.049(3) 0.003(2) 0.014(2) -0.008(2)
C14 0.059(3) 0.035(2) 0.047(3) 0.0036(19) 0.014(2) -0.006(2)
C15 0.090(4) 0.057(3) 0.063(3) -0.014(2) 0.047(3) -0.024(3)
C16 0.083(4) 0.056(3) 0.067(3) -0.014(2) 0.045(3) -0.031(3)
C17 0.056(3) 0.038(2) 0.055(3) -0.006(2) 0.025(2) -0.012(2)
C18 0.072(4) 0.065(3) 0.109(5) -0.035(3) 0.054(4) -0.026(3)
C19 0.060(3) 0.056(3) 0.101(4) -0.021(3) 0.038(3) -0.026(3)
C20 0.079(4) 0.064(3) 0.098(4) -0.028(3) 0.060(4) -0.033(3)
C21 0.052(3) 0.041(2) 0.058(3) 0.003(2) 0.016(2) -0.008(2)
C22 0.055(3) 0.045(2) 0.055(3) -0.004(2) 0.023(2) -0.007(2)
C23 0.058(3) 0.048(3) 0.070(3) -0.017(2) 0.042(3) -0.011(2)
C24 0.121(5) 0.074(4) 0.103(5) -0.035(3) 0.083(4) -0.052(4)
C25 0.098(4) 0.068(4) 0.078(4) -0.025(3) 0.055(4) -0.031(3)

_geom_special_details            
;
All esds (except the esd in the dihedral angle between two l.s. planes)
are estimated using the full covariance matrix. The cell esds are taken
into account individually in the estimation of esds in distances, angles
and torsion angles; correlations between esds in cell parameters are only
used when they are defined by crystal symmetry. An approximate (isotropic)
treatment of cell esds is used for estimating esds involving l.s. planes.
;

loop_
_geom_bond_atom_site_label_1
_geom_bond_atom_site_label_2
_geom_bond_distance
_geom_bond_site_symmetry_2
_geom_bond_publ_flag
Cu N4 2.036(4) 1_545 ?
Cu N4 2.036(4) 2_748 ?
Cu N1 2.036(3) 2_758 ?
Cu N1 2.036(3) . ?
N1 C1 1.333(6) . ?
N1 C5 1.340(5) . ?
N2 C6 1.350(6) . ?
N2 C7 1.402(5) . ?
N2 H2N 0.8490 . ?
N3 C20 1.343(6) . ?
N3 C17 1.417(5) . ?
N3 H3N 0.9099 . ?
N4 C21 1.326(6) . ?
N4 C25 1.348(6) . ?
N4 Cu 2.036(3) 1_565 ?
O1 C6 1.224(5) . ?
O2 C20 1.221(6) . ?
C1 C2 1.376(6) . ?
C1 H1 0.9300 . ?
C2 C3 1.379(6) . ?
C2 H2 0.9300 . ?
C3 C4 1.380(6) . ?
C3 C6 1.508(6) . ?
C4 C5 1.366(6) . ?
C4 H4 0.9300 . ?
C5 H5 0.9300 . ?
C7 C8 1.369(7) . ?
C7 C12 1.382(7) . ?
C8 C9 1.388(7) . ?
C8 H8 0.9300 . ?
C9 C10 1.368(7) . ?
C9 H9 0.9300 . ?
C10 C11 1.358(7) . ?
C10 C13 1.513(6) . ?
C11 C12 1.385(7) . ?
C11 H11 0.9300 . ?
C12 H12 0.9300 . ?
C13 C14 1.513(6) . ?
C13 H13A 0.9700 . ?
C13 H13B 0.9700 . ?
C14 C15 1.357(7) . ?
C14 C19 1.371(7) . ?
C15 C16 1.390(6) . ?
C15 H15 0.9300 . ?
C16 C17 1.368(7) . ?
C16 H16 0.9300 . ?
C17 C18 1.366(7) . ?
C18 C19 1.388(7) . ?
C18 H18 0.9300 . ?
C19 H19 0.9300 . ?
C20 C23 1.492(6) . ?
C21 C22 1.377(6) . ?
C21 H21 0.9300 . ?
C22 C23 1.378(6) . ?
C22 H22 0.9300 . ?
C23 C24 1.376(7) . ?
C24 C25 1.383(7) . ?
C24 H24 0.9300 . ?
C25 H25 0.9300 . ?

loop_
_geom_angle_atom_site_label_1
_geom_angle_atom_site_label_2
_geom_angle_atom_site_label_3
_geom_angle
_geom_angle_site_symmetry_1
_geom_angle_site_symmetry_3
_geom_angle_publ_flag
N4 Cu N4 88.0(2) 1_545 2_748 ?
N4 Cu N1 177.92(15) 1_545 2_758 ?
N4 Cu N1 90.31(13) 2_748 2_758 ?
N4 Cu N1 90.31(13) 1_545 . ?
N4 Cu N1 177.92(15) 2_748 . ?
N1 Cu N1 91.40(19) 2_758 . ?
C1 N1 C5 117.3(4) . . ?
C1 N1 Cu 121.6(3) . . ?
C5 N1 Cu 121.1(3) . . ?
C6 N2 C7 127.1(4) . . ?
C6 N2 H2N 107.3 . . ?
C7 N2 H2N 123.2 . . ?
C20 N3 C17 127.3(4) . . ?
C20 N3 H3N 112.6 . . ?
C17 N3 H3N 119.1 . . ?
C21 N4 C25 117.8(4) . . ?
C21 N4 Cu 121.8(3) . 1_565 ?
C25 N4 Cu 120.2(3) . 1_565 ?
N1 C1 C2 122.9(4) . . ?
N1 C1 H1 118.5 . . ?
C2 C1 H1 118.5 . . ?
C1 C2 C3 119.7(4) . . ?
C1 C2 H2 120.1 . . ?
C3 C2 H2 120.1 . . ?
C2 C3 C4 117.1(4) . . ?
C2 C3 C6 123.4(4) . . ?
C4 C3 C6 119.3(4) . . ?
C5 C4 C3 120.1(4) . . ?
C5 C4 H4 119.9 . . ?
C3 C4 H4 119.9 . . ?
N1 C5 C4 122.8(4) . . ?
N1 C5 H5 118.6 . . ?
C4 C5 H5 118.6 . . ?
O1 C6 N2 124.9(4) . . ?
O1 C6 C3 119.3(4) . . ?
N2 C6 C3 115.8(4) . . ?
C8 C7 C12 117.1(4) . . ?
C8 C7 N2 124.9(4) . . ?
C12 C7 N2 118.0(4) . . ?
C7 C8 C9 120.5(5) . . ?
C7 C8 H8 119.7 . . ?
C9 C8 H8 119.7 . . ?
C10 C9 C8 122.4(5) . . ?
C10 C9 H9 118.8 . . ?
C8 C9 H9 118.8 . . ?
C11 C10 C9 116.7(4) . . ?
C11 C10 C13 121.9(5) . . ?
C9 C10 C13 121.3(5) . . ?
C10 C11 C12 121.8(5) . . ?
C10 C11 H11 119.1 . . ?
C12 C11 H11 119.1 . . ?
C7 C12 C11 121.2(5) . . ?
C7 C12 H12 119.4 . . ?
C11 C12 H12 119.4 . . ?
C14 C13 C10 111.1(3) . . ?
C14 C13 H13A 109.4 . . ?
C10 C13 H13A 109.4 . . ?
C14 C13 H13B 109.4 . . ?
C10 C13 H13B 109.4 . . ?
H13A C13 H13B 108.0 . . ?
C15 C14 C19 116.4(4) . . ?
C15 C14 C13 122.5(5) . . ?
C19 C14 C13 121.1(5) . . ?
C14 C15 C16 122.5(5) . . ?
C14 C15 H15 118.8 . . ?
C16 C15 H15 118.8 . . ?
C17 C16 C15 120.2(5) . . ?
C17 C16 H16 119.9 . . ?
C15 C16 H16 119.9 . . ?
C18 C17 C16 118.4(4) . . ?
C18 C17 N3 124.6(5) . . ?
C16 C17 N3 117.0(4) . . ?
C17 C18 C19 120.1(5) . . ?
C17 C18 H18 120.0 . . ?
C19 C18 H18 120.0 . . ?
C14 C19 C18 122.4(5) . . ?
C14 C19 H19 118.8 . . ?
C18 C19 H19 118.8 . . ?
O2 C20 N3 123.8(5) . . ?
O2 C20 C23 118.7(5) . . ?
N3 C20 C23 117.5(4) . . ?
N4 C21 C22 123.5(5) . . ?
N4 C21 H21 118.3 . . ?
C22 C21 H21 118.3 . . ?
C21 C22 C23 119.3(5) . . ?
C21 C22 H22 120.3 . . ?
C23 C22 H22 120.3 . . ?
C24 C23 C22 117.4(4) . . ?
C24 C23 C20 118.4(5) . . ?
C22 C23 C20 124.3(5) . . ?
C23 C24 C25 120.7(5) . . ?
C23 C24 H24 119.7 . . ?
C25 C24 H24 119.7 . . ?
N4 C25 C24 121.3(5) . . ?
N4 C25 H25 119.4 . . ?
C24 C25 H25 119.4 . . ?

_diffrn_measured_fraction_theta_max 0.990
_diffrn_reflns_theta_full        25.00
_diffrn_measured_fraction_theta_full 0.990
_refine_diff_density_max         0.264
_refine_diff_density_min         -0.729
_refine_diff_density_rms         0.074
