####################################################################### 
# 
# This file contains crystal structure data downloaded from the 
# Cambridge Structural Database (CSD) hosted by the Cambridge 
# Crystallographic Data Centre (CCDC).
# 
# Full information about CCDC data access policies and citation 
# guidelines are available at http://www.ccdc.cam.ac.uk/access/V1 
# 
# Audit and citation data items may have been added by the CCDC. 
# Please retain this information to preserve the provenance of 
# this file and to allow appropriate attribution of the data. 
# 
#######################################################################

data_4
_audit_block_doi                 10.5517/ccqzq1f
_database_code_depnum_ccdc_archive 'CCDC 684915'
loop_
_citation_id
_citation_doi
_citation_year
1 10.1016/j.poly.2008.09.008 2008
_audit_update_record             
;
2008-04-14 deposited with the CCDC.	2024-07-11 downloaded from the CCDC.
;



_audit_creation_method           SHELXL-97
_chemical_name_systematic        
;
?
;
_chemical_name_common            ?
_chemical_melting_point          ?
_chemical_formula_moiety         ?
_chemical_formula_sum            'C50 H40 Ag2 N8 O8 S'
_chemical_formula_weight         1128.70

loop_
_atom_type_symbol
_atom_type_description
_atom_type_scat_dispersion_real
_atom_type_scat_dispersion_imag
_atom_type_scat_source
C C 0.0033 0.0016 'International Tables Vol C Tables 4.2.6.8 and 6.1.1.4'
H H 0.0000 0.0000 'International Tables Vol C Tables 4.2.6.8 and 6.1.1.4'
N N 0.0061 0.0033 'International Tables Vol C Tables 4.2.6.8 and 6.1.1.4'
O O 0.0106 0.0060 'International Tables Vol C Tables 4.2.6.8 and 6.1.1.4'
S S 0.1246 0.1234 'International Tables Vol C Tables 4.2.6.8 and 6.1.1.4'
Ag Ag -0.8971 1.1015 'International Tables Vol C Tables 4.2.6.8 and 6.1.1.4'

_symmetry_cell_setting           Triclinic
_symmetry_space_group_name_H-M   P-1

loop_
_symmetry_equiv_pos_as_xyz
'x, y, z'
'-x, -y, -z'

_cell_length_a                   8.9863(13)
_cell_length_b                   17.0138(15)
_cell_length_c                   20.087(3)
_cell_angle_alpha                100.407(12)
_cell_angle_beta                 101.125(14)
_cell_angle_gamma                90.537(10)
_cell_volume                     2960.7(7)
_cell_formula_units_Z            2
_cell_measurement_temperature    295(2)
_cell_measurement_reflns_used    32
_cell_measurement_theta_min      5.19
_cell_measurement_theta_max      12.51

_exptl_crystal_description       block
_exptl_crystal_colour            yellow
_exptl_crystal_size_max          0.4
_exptl_crystal_size_mid          0.4
_exptl_crystal_size_min          0.4
_exptl_crystal_density_meas      ?
_exptl_crystal_density_diffrn    1.266
_exptl_crystal_density_method    'not measured'
_exptl_crystal_F_000             1140
_exptl_absorpt_coefficient_mu    0.748
_exptl_absorpt_correction_type   empirical
_exptl_absorpt_correction_T_min  0.7395
_exptl_absorpt_correction_T_max  0.9604
_exptl_absorpt_process_details   ?

_exptl_special_details           
;
?
;

_diffrn_ambient_temperature      295(2)
_diffrn_radiation_wavelength     0.71073
_diffrn_radiation_type           MoK\a
_diffrn_radiation_source         'fine-focus sealed tube'
_diffrn_radiation_monochromator  graphite
_diffrn_measurement_device_type  'Bruker P4'
_diffrn_measurement_method       '\w scans'
_diffrn_detector_area_resol_mean ?
_diffrn_standards_number         3
_diffrn_standards_interval_count 97
_diffrn_standards_interval_time  ?
_diffrn_standards_decay_%        ?
_diffrn_reflns_number            12412
_diffrn_reflns_av_R_equivalents  0.0243
_diffrn_reflns_av_sigmaI/netI    0.0329
_diffrn_reflns_limit_h_min       -1
_diffrn_reflns_limit_h_max       10
_diffrn_reflns_limit_k_min       -19
_diffrn_reflns_limit_k_max       19
_diffrn_reflns_limit_l_min       -23
_diffrn_reflns_limit_l_max       23
_diffrn_reflns_theta_min         1.75
_diffrn_reflns_theta_max         25.00
_reflns_number_total             10296
_reflns_number_gt                7723
_reflns_threshold_expression     >2sigma(I)

_computing_data_collection       'Bruker XSCANS'
_computing_cell_refinement       'Bruker XSCANS'
_computing_data_reduction        'Bruker SHELXTL'
_computing_structure_solution    'Bruker SHELXTL'
_computing_structure_refinement  'Bruker SHELXTL'
_computing_molecular_graphics    'Bruker SHELXTL'
_computing_publication_material  'Bruker SHELXTL'

_refine_special_details          
;
Refinement of F^2^ against ALL reflections. The weighted R-factor wR and
goodness of fit S are based on F^2^, conventional R-factors R are based
on F, with F set to zero for negative F^2^. The threshold expression of
F^2^ > 2sigma(F^2^) is used only for calculating R-factors(gt) etc. and is
not relevant to the choice of reflections for refinement. R-factors based
on F^2^ are statistically about twice as large as those based on F, and R-
factors based on ALL data will be even larger.
;

_refine_ls_structure_factor_coef Fsqd
_refine_ls_matrix_type           full
_refine_ls_weighting_scheme      calc
_refine_ls_weighting_details     
'calc w=1/[\s^2^(Fo^2^)+(0.0000P)^2^+9.1247P] where P=(Fo^2^+2Fc^2^)/3'
_atom_sites_solution_primary     direct
_atom_sites_solution_secondary   difmap
_atom_sites_solution_hydrogens   geom
_refine_ls_hydrogen_treatment    constr
_refine_ls_extinction_method     SHELXL
_refine_ls_extinction_coef       0.00079(3)
_refine_ls_extinction_expression Fc^*^=kFc[1+0.001xFc^2^\l^3^/sin(2\q)]^-1/4^
_refine_ls_number_reflns         10296
_refine_ls_number_parameters     623
_refine_ls_number_restraints     0
_refine_ls_R_factor_all          0.0686
_refine_ls_R_factor_gt           0.0519
_refine_ls_wR_factor_ref         0.1061
_refine_ls_wR_factor_gt          0.1005
_refine_ls_goodness_of_fit_ref   1.032
_refine_ls_restrained_S_all      1.032
_refine_ls_shift/su_max          0.001
_refine_ls_shift/su_mean         0.000

loop_
_atom_site_label
_atom_site_type_symbol
_atom_site_fract_x
_atom_site_fract_y
_atom_site_fract_z
_atom_site_U_iso_or_equiv
_atom_site_adp_type
_atom_site_occupancy
_atom_site_symmetry_multiplicity
_atom_site_calc_flag
_atom_site_refinement_flags
_atom_site_disorder_assembly
_atom_site_disorder_group
Ag1 Ag -0.28242(4) 0.06722(3) -0.50123(2) 0.06224(13) Uani 1 1 d . . .
Ag2 Ag 0.27039(5) 0.54427(3) 0.47575(2) 0.06665(14) Uani 1 1 d . . .
S S -0.27975(15) 0.26037(8) -0.47769(7) 0.0548(3) Uani 1 1 d . . .
N1 N -0.0808(4) 0.0516(2) -0.4263(2) 0.0543(10) Uani 1 1 d . . .
N2 N 0.3782(4) 0.0843(2) -0.23011(19) 0.0482(9) Uani 1 1 d . . .
H2N H 0.3491 0.1293 -0.2406 0.058 Uiso 1 1 calc R . .
N3 N 0.6494(4) 0.3245(2) 0.22312(19) 0.0512(9) Uani 1 1 d . . .
H3N H 0.6329 0.3004 0.2553 0.061 Uiso 1 1 calc R . .
N4 N 0.3955(5) 0.4996(3) 0.3968(2) 0.0576(10) Uani 1 1 d . . .
N5 N -0.8606(4) -0.4509(2) -1.4452(2) 0.0551(10) Uani 1 1 d . . .
N6 N -1.1181(4) -0.3436(2) -1.24595(19) 0.0534(10) Uani 1 1 d . . .
H6N H -1.0969 -0.3070 -1.2676 0.064 Uiso 1 1 calc R . .
N7 N -0.8963(4) -0.0840(2) -0.78506(19) 0.0524(10) Uani 1 1 d . . .
H7N H -0.8424 -0.1193 -0.7674 0.063 Uiso 1 1 calc R . .
N8 N -0.4813(4) 0.0411(3) -0.5838(2) 0.0547(10) Uani 1 1 d . . .
O1 O 0.3312(4) -0.0495(2) -0.26288(18) 0.0665(10) Uani 1 1 d . . .
O2 O 0.6451(5) 0.4461(2) 0.1923(2) 0.0794(12) Uani 1 1 d . . .
O3 O -1.1077(5) -0.4767(2) -1.2461(2) 0.0775(11) Uani 1 1 d . . .
O4 O -0.9215(4) 0.0495(2) -0.77566(19) 0.0711(11) Uani 1 1 d . . .
O5 O -0.3432(5) 0.2104(2) -0.4369(2) 0.0794(11) Uani 1 1 d . . .
O6 O -0.4006(5) 0.3028(3) -0.5137(3) 0.0989(15) Uani 1 1 d . . .
O7 O -0.2080(4) 0.2083(2) -0.52904(19) 0.0719(10) Uani 1 1 d . . .
O8 O -0.1683(5) 0.3192(2) -0.4333(2) 0.0859(12) Uani 1 1 d . . .
C1 C -0.0297(5) -0.0198(3) -0.4193(2) 0.0548(12) Uani 1 1 d . . .
H1 H -0.0802 -0.0645 -0.4489 0.066 Uiso 1 1 calc R . .
C2 C 0.0955(5) -0.0311(3) -0.3700(2) 0.0560(12) Uani 1 1 d . . .
H2 H 0.1291 -0.0823 -0.3677 0.067 Uiso 1 1 calc R . .
C3 C 0.1688(5) 0.0338(3) -0.3250(2) 0.0455(10) Uani 1 1 d . . .
C4 C 0.1139(6) 0.1087(3) -0.3308(3) 0.0663(15) Uani 1 1 d . . .
H4 H 0.1593 0.1543 -0.3007 0.080 Uiso 1 1 calc R . .
C5 C -0.0089(6) 0.1139(3) -0.3822(3) 0.0716(16) Uani 1 1 d . . .
H5 H -0.0439 0.1644 -0.3862 0.086 Uiso 1 1 calc R . .
C6 C 0.3015(5) 0.0187(3) -0.2695(2) 0.0481(11) Uani 1 1 d . . .
C7 C 0.5014(5) 0.0884(3) -0.1733(2) 0.0459(11) Uani 1 1 d . . .
C8 C 0.5597(6) 0.0231(3) -0.1469(3) 0.0605(13) Uani 1 1 d . . .
H8 H 0.5206 -0.0283 -0.1671 0.073 Uiso 1 1 calc R . .
C9 C 0.6782(6) 0.0355(3) -0.0894(3) 0.0621(14) Uani 1 1 d . . .
H9 H 0.7158 -0.0086 -0.0714 0.074 Uiso 1 1 calc R . .
C10 C 0.7412(5) 0.1092(3) -0.0587(2) 0.0526(12) Uani 1 1 d . . .
C11 C 0.6823(6) 0.1737(3) -0.0870(3) 0.0653(14) Uani 1 1 d . . .
H11A H 0.7230 0.2250 -0.0673 0.078 Uiso 1 1 calc R . .
C12 C 0.5640(6) 0.1632(3) -0.1439(3) 0.0604(13) Uani 1 1 d . . .
H12 H 0.5270 0.2072 -0.1622 0.072 Uiso 1 1 calc R . .
C13 C 0.8678(5) 0.1232(3) 0.0052(2) 0.0606(14) Uani 1 1 d . . .
H13A H 0.8959 0.0723 0.0180 0.073 Uiso 1 1 calc R . .
H13B H 0.9563 0.1478 -0.0052 0.073 Uiso 1 1 calc R . .
C14 C 0.8182(5) 0.1770(3) 0.0651(2) 0.0517(12) Uani 1 1 d . . .
C15 C 0.8475(5) 0.2585(3) 0.0779(3) 0.0596(13) Uani 1 1 d . . .
H15 H 0.9057 0.2801 0.0515 0.071 Uiso 1 1 calc R . .
C16 C 0.7930(5) 0.3092(3) 0.1290(2) 0.0576(13) Uani 1 1 d . . .
H16 H 0.8134 0.3641 0.1363 0.069 Uiso 1 1 calc R . .
C17 C 0.7083(5) 0.2775(3) 0.1690(2) 0.0475(11) Uani 1 1 d . . .
C18 C 0.6812(5) 0.1959(3) 0.1578(2) 0.0496(11) Uani 1 1 d . . .
H18 H 0.6263 0.1741 0.1854 0.060 Uiso 1 1 calc R . .
C19 C 0.7345(5) 0.1456(3) 0.1059(2) 0.0520(12) Uani 1 1 d . . .
H19 H 0.7138 0.0907 0.0985 0.062 Uiso 1 1 calc R . .
C20 C 0.6163(5) 0.4019(3) 0.2302(2) 0.0507(11) Uani 1 1 d . . .
C21 C 0.4334(6) 0.5439(3) 0.3540(3) 0.0676(15) Uani 1 1 d . . .
H21 H 0.4108 0.5976 0.3603 0.081 Uiso 1 1 calc R . .
C22 C 0.5060(6) 0.5130(3) 0.2997(3) 0.0634(14) Uani 1 1 d . . .
H22 H 0.5312 0.5459 0.2708 0.076 Uiso 1 1 calc R . .
C23 C 0.5398(5) 0.4329(3) 0.2896(2) 0.0483(11) Uani 1 1 d . . .
C24 C 0.5031(6) 0.3880(3) 0.3348(3) 0.0570(13) Uani 1 1 d . . .
H24 H 0.5262 0.3344 0.3303 0.068 Uiso 1 1 calc R . .
C25 C 0.4318(6) 0.4227(3) 0.3871(3) 0.0584(13) Uani 1 1 d . . .
H25 H 0.4077 0.3911 0.4172 0.070 Uiso 1 1 calc R . .
C26 C -0.8585(6) -0.5037(3) -1.4042(3) 0.0626(14) Uani 1 1 d . . .
H26 H -0.8059 -0.5498 -1.4136 0.075 Uiso 1 1 calc R . .
C27 C -0.9290(6) -0.4948(3) -1.3484(3) 0.0615(13) Uani 1 1 d . . .
H27 H -0.9225 -0.5339 -1.3212 0.074 Uiso 1 1 calc R . .
C28 C -1.0091(5) -0.4276(3) -1.3331(2) 0.0514(12) Uani 1 1 d . . .
C29 C -1.0199(6) -0.3735(3) -1.3767(3) 0.0622(13) Uani 1 1 d . . .
H29 H -1.0780 -0.3289 -1.3697 0.075 Uiso 1 1 calc R . .
C30 C -0.9448(6) -0.3854(3) -1.4309(3) 0.0641(14) Uani 1 1 d . . .
H30 H -0.9512 -0.3473 -1.4591 0.077 Uiso 1 1 calc R . .
C31 C -1.0823(6) -0.4184(3) -1.2710(3) 0.0536(12) Uani 1 1 d . . .
C32 C -1.1865(5) -0.3179(3) -1.1881(2) 0.0491(11) Uani 1 1 d . . .
C33 C -1.2332(6) -0.3677(3) -1.1485(3) 0.0665(14) Uani 1 1 d . . .
H33 H -1.2227 -0.4225 -1.1597 0.080 Uiso 1 1 calc R . .
C34 C -1.2960(6) -0.3363(4) -1.0919(3) 0.0692(15) Uani 1 1 d . . .
H34 H -1.3272 -0.3710 -1.0659 0.083 Uiso 1 1 calc R . .
C35 C -1.3134(5) -0.2559(3) -1.0729(2) 0.0552(12) Uani 1 1 d . . .
C36 C -1.2694(6) -0.2078(3) -1.1141(3) 0.0643(14) Uani 1 1 d . . .
H36 H -1.2816 -0.1531 -1.1033 0.077 Uiso 1 1 calc R . .
C37 C -1.2080(6) -0.2370(3) -1.1706(3) 0.0625(13) Uani 1 1 d . . .
H37 H -1.1806 -0.2021 -1.1973 0.075 Uiso 1 1 calc R . .
C38 C -1.3767(5) -0.2223(3) -1.0093(2) 0.0623(14) Uani 1 1 d . . .
H38A H -1.4289 -0.2652 -0.9957 0.075 Uiso 1 1 calc R . .
H38B H -1.4503 -0.1831 -1.0205 0.075 Uiso 1 1 calc R . .
C39 C -1.2536(5) -0.1835(3) -0.9490(2) 0.0535(12) Uani 1 1 d . . .
C40 C -1.1602(7) -0.2301(3) -0.9104(3) 0.0754(17) Uani 1 1 d . . .
H40 H -1.1751 -0.2855 -0.9207 0.090 Uiso 1 1 calc R . .
C41 C -1.0451(6) -0.1953(3) -0.8566(3) 0.0676(15) Uani 1 1 d . . .
H41 H -0.9845 -0.2277 -0.8310 0.081 Uiso 1 1 calc R . .
C42 C -1.0186(5) -0.1139(3) -0.8404(2) 0.0479(11) Uani 1 1 d . . .
C43 C -1.1118(5) -0.0665(3) -0.8778(2) 0.0542(12) Uani 1 1 d . . .
H43 H -1.0969 -0.0111 -0.8676 0.065 Uiso 1 1 calc R . .
C44 C -1.2285(5) -0.1026(3) -0.9312(2) 0.0566(13) Uani 1 1 d . . .
H44 H -1.2919 -0.0702 -0.9557 0.068 Uiso 1 1 calc R . .
C45 C -0.8546(5) -0.0084(3) -0.7573(2) 0.0514(12) Uani 1 1 d . . .
C46 C -0.5608(6) 0.0996(3) -0.6084(3) 0.0626(14) Uani 1 1 d . . .
H46 H -0.5352 0.1524 -0.5869 0.075 Uiso 1 1 calc R . .
C47 C -0.6791(5) 0.0838(3) -0.6646(3) 0.0591(13) Uani 1 1 d . . .
H47 H -0.7305 0.1259 -0.6808 0.071 Uiso 1 1 calc R . .
C48 C -0.7217(5) 0.0063(3) -0.6968(2) 0.0473(11) Uani 1 1 d . . .
C49 C -0.6395(5) -0.0538(3) -0.6715(2) 0.0561(12) Uani 1 1 d . . .
H49 H -0.6628 -0.1071 -0.6923 0.067 Uiso 1 1 calc R . .
C50 C -0.5217(6) -0.0337(3) -0.6146(3) 0.0603(13) Uani 1 1 d . . .
H50 H -0.4687 -0.0747 -0.5973 0.072 Uiso 1 1 calc R . .

loop_
_atom_site_aniso_label
_atom_site_aniso_U_11
_atom_site_aniso_U_22
_atom_site_aniso_U_33
_atom_site_aniso_U_23
_atom_site_aniso_U_13
_atom_site_aniso_U_12
Ag1 0.0521(2) 0.0674(3) 0.0597(2) 0.0124(2) -0.00805(18) 0.00427(19)
Ag2 0.0599(3) 0.0716(3) 0.0662(3) -0.0044(2) 0.0228(2) 0.0068(2)
S 0.0573(7) 0.0488(7) 0.0553(7) 0.0080(6) 0.0050(6) 0.0079(6)
N1 0.052(2) 0.058(3) 0.052(2) 0.014(2) 0.0044(19) 0.007(2)
N2 0.047(2) 0.045(2) 0.049(2) 0.0080(18) 0.0029(17) 0.0084(17)
N3 0.056(2) 0.054(2) 0.043(2) 0.0070(18) 0.0089(18) 0.0067(19)
N4 0.057(3) 0.058(3) 0.057(3) 0.004(2) 0.013(2) 0.006(2)
N5 0.047(2) 0.055(3) 0.058(3) -0.007(2) 0.0135(19) -0.0009(19)
N6 0.055(2) 0.056(3) 0.047(2) 0.0068(19) 0.0075(19) -0.0039(19)
N7 0.046(2) 0.054(2) 0.050(2) 0.0077(19) -0.0064(18) 0.0035(18)
N8 0.044(2) 0.060(3) 0.056(2) 0.008(2) 0.0040(18) 0.0010(19)
O1 0.073(2) 0.050(2) 0.063(2) 0.0072(17) -0.0152(18) 0.0071(18)
O2 0.110(3) 0.065(2) 0.078(3) 0.020(2) 0.046(2) 0.024(2)
O3 0.105(3) 0.054(2) 0.082(3) 0.006(2) 0.046(2) 0.004(2)
O4 0.072(2) 0.058(2) 0.066(2) -0.0021(18) -0.0168(19) 0.0160(19)
O5 0.093(3) 0.076(3) 0.080(3) 0.019(2) 0.036(2) 0.007(2)
O6 0.079(3) 0.091(3) 0.127(4) 0.047(3) -0.005(3) 0.027(2)
O7 0.084(3) 0.062(2) 0.065(2) -0.0068(18) 0.023(2) 0.0022(19)
O8 0.094(3) 0.069(3) 0.079(3) -0.009(2) 0.000(2) -0.009(2)
C1 0.052(3) 0.056(3) 0.049(3) 0.003(2) -0.002(2) -0.001(2)
C2 0.055(3) 0.054(3) 0.056(3) 0.013(2) 0.001(2) 0.004(2)
C3 0.043(2) 0.052(3) 0.040(2) 0.007(2) 0.0057(19) 0.003(2)
C4 0.067(3) 0.051(3) 0.067(3) 0.005(3) -0.016(3) 0.004(3)
C5 0.076(4) 0.048(3) 0.078(4) 0.011(3) -0.015(3) 0.007(3)
C6 0.047(3) 0.051(3) 0.047(3) 0.011(2) 0.008(2) 0.003(2)
C7 0.041(2) 0.055(3) 0.040(2) 0.006(2) 0.0053(19) 0.004(2)
C8 0.067(3) 0.055(3) 0.051(3) 0.006(2) -0.007(2) 0.000(3)
C9 0.069(3) 0.060(3) 0.050(3) 0.010(2) -0.006(2) 0.011(3)
C10 0.045(3) 0.071(3) 0.040(2) 0.001(2) 0.010(2) 0.011(2)
C11 0.061(3) 0.061(3) 0.062(3) -0.004(3) -0.002(3) -0.002(3)
C12 0.061(3) 0.056(3) 0.056(3) 0.006(2) -0.004(2) 0.007(2)
C13 0.045(3) 0.082(4) 0.046(3) -0.005(3) 0.004(2) 0.019(3)
C14 0.036(2) 0.071(3) 0.038(2) -0.006(2) -0.0046(19) 0.008(2)
C15 0.044(3) 0.082(4) 0.049(3) -0.002(3) 0.013(2) -0.005(3)
C16 0.054(3) 0.062(3) 0.050(3) -0.005(2) 0.010(2) -0.005(2)
C17 0.037(2) 0.061(3) 0.040(2) 0.004(2) 0.0003(19) 0.007(2)
C18 0.047(3) 0.060(3) 0.041(2) 0.005(2) 0.009(2) 0.010(2)
C19 0.051(3) 0.059(3) 0.040(2) 0.002(2) 0.002(2) 0.014(2)
C20 0.051(3) 0.054(3) 0.046(3) 0.006(2) 0.011(2) 0.008(2)
C21 0.072(4) 0.055(3) 0.073(4) 0.005(3) 0.014(3) 0.014(3)
C22 0.076(4) 0.056(3) 0.064(3) 0.015(3) 0.023(3) 0.012(3)
C23 0.043(3) 0.052(3) 0.045(3) 0.003(2) 0.004(2) 0.004(2)
C24 0.062(3) 0.048(3) 0.064(3) 0.006(2) 0.022(3) 0.016(2)
C25 0.060(3) 0.056(3) 0.060(3) 0.009(2) 0.017(3) 0.009(2)
C26 0.058(3) 0.053(3) 0.073(4) 0.000(3) 0.013(3) 0.015(2)
C27 0.069(3) 0.053(3) 0.063(3) 0.011(3) 0.013(3) 0.010(3)
C28 0.046(3) 0.049(3) 0.055(3) -0.001(2) 0.010(2) 0.000(2)
C29 0.067(3) 0.055(3) 0.068(3) 0.009(3) 0.025(3) 0.014(3)
C30 0.075(4) 0.055(3) 0.064(3) 0.004(3) 0.024(3) 0.008(3)
C31 0.054(3) 0.046(3) 0.055(3) -0.002(2) 0.006(2) -0.005(2)
C32 0.042(2) 0.057(3) 0.043(3) 0.002(2) 0.002(2) -0.001(2)
C33 0.078(4) 0.057(3) 0.064(3) -0.001(3) 0.025(3) -0.002(3)
C34 0.076(4) 0.072(4) 0.060(3) 0.005(3) 0.024(3) -0.012(3)
C35 0.039(3) 0.071(3) 0.048(3) -0.003(3) 0.002(2) -0.003(2)
C36 0.071(4) 0.059(3) 0.061(3) 0.000(3) 0.017(3) 0.011(3)
C37 0.066(3) 0.065(3) 0.058(3) 0.010(3) 0.017(3) 0.008(3)
C38 0.043(3) 0.086(4) 0.050(3) -0.007(3) 0.008(2) 0.001(3)
C39 0.040(3) 0.076(4) 0.039(2) -0.003(2) 0.008(2) 0.002(2)
C40 0.076(4) 0.059(3) 0.077(4) 0.006(3) -0.011(3) -0.011(3)
C41 0.064(3) 0.059(3) 0.068(3) 0.012(3) -0.015(3) 0.002(3)
C42 0.041(2) 0.058(3) 0.041(2) 0.006(2) 0.004(2) 0.002(2)
C43 0.055(3) 0.051(3) 0.051(3) 0.000(2) 0.005(2) 0.012(2)
C44 0.043(3) 0.072(4) 0.050(3) 0.005(3) 0.000(2) 0.016(2)
C45 0.046(3) 0.061(3) 0.045(3) 0.006(2) 0.007(2) 0.005(2)
C46 0.056(3) 0.051(3) 0.071(3) 0.001(3) -0.001(3) 0.001(2)
C47 0.050(3) 0.054(3) 0.065(3) 0.008(3) -0.005(2) 0.006(2)
C48 0.039(2) 0.057(3) 0.043(2) 0.007(2) 0.0044(19) 0.001(2)
C49 0.052(3) 0.052(3) 0.055(3) -0.001(2) 0.000(2) 0.002(2)
C50 0.049(3) 0.064(3) 0.065(3) 0.017(3) 0.000(2) 0.007(2)

_geom_special_details            
;
All esds (except the esd in the dihedral angle between two l.s. planes)
are estimated using the full covariance matrix. The cell esds are taken
into account individually in the estimation of esds in distances, angles
and torsion angles; correlations between esds in cell parameters are only
used when they are defined by crystal symmetry. An approximate (isotropic)
treatment of cell esds is used for estimating esds involving l.s. planes.
;

loop_
_geom_bond_atom_site_label_1
_geom_bond_atom_site_label_2
_geom_bond_distance
_geom_bond_site_symmetry_2
_geom_bond_publ_flag
Ag1 N1 2.173(4) . ?
Ag1 N8 2.173(4) . ?
Ag2 N5 2.142(4) 1_667 ?
Ag