####################################################################### 
# 
# This file contains crystal structure data downloaded from the 
# Cambridge Structural Database (CSD) hosted by the Cambridge 
# Crystallographic Data Centre (CCDC).
# 
# Full information about CCDC data access policies and citation 
# guidelines are available at http://www.ccdc.cam.ac.uk/access/V1 
# 
# Audit and citation data items may have been added by the CCDC. 
# Please retain this information to preserve the provenance of 
# this file and to allow appropriate attribution of the data. 
# 
#######################################################################

data_2
_audit_block_doi                 10.5517/ccqzpzb
_database_code_depnum_ccdc_archive 'CCDC 684913'
loop_
_citation_id
_citation_doi
_citation_year
1 10.1016/j.poly.2008.09.008 2008
_audit_update_record             
;
2008-04-14 deposited with the CCDC.	2024-07-11 downloaded from the CCDC.
;

_audit_creation_method           SHELXL-97
_chemical_name_systematic        
;
?
;
_chemical_name_common            ?
_chemical_melting_point          ?
_chemical_formula_moiety         ?
_chemical_formula_sum            'C50 H40 Br2 Cu N8 O4'
_chemical_formula_weight         1040.26

loop_
_atom_type_symbol
_atom_type_description
_atom_type_scat_dispersion_real
_atom_type_scat_dispersion_imag
_atom_type_scat_source
C C 0.0033 0.0016 'International Tables Vol C Tables 4.2.6.8 and 6.1.1.4'
H H 0.0000 0.0000 'International Tables Vol C Tables 4.2.6.8 and 6.1.1.4'
N N 0.0061 0.0033 'International Tables Vol C Tables 4.2.6.8 and 6.1.1.4'
Br Br -0.2901 2.4595 'International Tables Vol C Tables 4.2.6.8 and 6.1.1.4'
Cu Cu 0.3201 1.2651 'International Tables Vol C Tables 4.2.6.8 and 6.1.1.4'
O O 0.0106 0.0060 'International Tables Vol C Tables 4.2.6.8 and 6.1.1.4'

_symmetry_cell_setting           Monoclinic
_symmetry_space_group_name_H-M   C2/c

loop_
_symmetry_equiv_pos_as_xyz
'x, y, z'
'-x, y, -z+1/2'
'x+1/2, y+1/2, z'
'-x+1/2, y+1/2, -z+1/2'
'-x, -y, -z'
'x, -y, z-1/2'
'-x+1/2, -y+1/2, -z'
'x+1/2, -y+1/2, z-1/2'

_cell_length_a                   26.737(4)
_cell_length_b                   19.056(4)
_cell_length_c                   15.746(3)
_cell_angle_alpha                90.00
_cell_angle_beta                 122.044(13)
_cell_angle_gamma                90.00
_cell_volume                     6800(2)
_cell_formula_units_Z            4
_cell_measurement_temperature    295(2)
_cell_measurement_reflns_used    39
_cell_measurement_theta_min      5.18
_cell_measurement_theta_max      12.50

_exptl_crystal_description       plate
_exptl_crystal_colour            green
_exptl_crystal_size_max          0.6
_exptl_crystal_size_mid          0.2
_exptl_crystal_size_min          0.1
_exptl_crystal_density_meas      ?
_exptl_crystal_density_diffrn    1.016
_exptl_crystal_density_method    'not measured'
_exptl_crystal_F_000             2108
_exptl_absorpt_coefficient_mu    1.533
_exptl_absorpt_correction_type   empirical
_exptl_absorpt_correction_T_min  0.699
_exptl_absorpt_correction_T_max  0.858
_exptl_absorpt_process_details   ?

_exptl_special_details           
;
?
;

_diffrn_ambient_temperature      295(2)
_diffrn_radiation_wavelength     0.71073
_diffrn_radiation_type           MoK\a
_diffrn_radiation_source         'fine-focus sealed tube'
_diffrn_radiation_monochromator  graphite
_diffrn_measurement_device_type  'Bruker P4'
_diffrn_measurement_method       '\w scans'
_diffrn_detector_area_resol_mean ?
_diffrn_standards_number         3
_diffrn_standards_interval_count 97
_diffrn_standards_interval_time  ?
_diffrn_standards_decay_%        ?
_diffrn_reflns_number            6715
_diffrn_reflns_av_R_equivalents  0.0647
_diffrn_reflns_av_sigmaI/netI    0.0988
_diffrn_reflns_limit_h_min       -1
_diffrn_reflns_limit_h_max       31
_diffrn_reflns_limit_k_min       -22
_diffrn_reflns_limit_k_max       1
_diffrn_reflns_limit_l_min       -18
_diffrn_reflns_limit_l_max       16
_diffrn_reflns_theta_min         1.80
_diffrn_reflns_theta_max         25.00
_reflns_number_total             5910
_reflns_number_gt                2916
_reflns_threshold_expression     >2sigma(I)

_computing_data_collection       ?
_computing_cell_refinement       ?
_computing_data_reduction        ?
_computing_structure_solution    'SHELXS-97 (Sheldrick, 1990)'
_computing_structure_refinement  'SHELXL-97 (Sheldrick, 1997)'
_computing_molecular_graphics    ?
_computing_publication_material  ?

_refine_special_details          
;
Refinement of F^2^ against ALL reflections. The weighted R-factor wR and
goodness of fit S are based on F^2^, conventional R-factors R are based
on F, with F set to zero for negative F^2^. The threshold expression of
F^2^ > 2sigma(F^2^) is used only for calculating R-factors(gt) etc. and is
not relevant to the choice of reflections for refinement. R-factors based
on F^2^ are statistically about twice as large as those based on F, and R-
factors based on ALL data will be even larger.
;

_refine_ls_structure_factor_coef Fsqd
_refine_ls_matrix_type           full
_refine_ls_weighting_scheme      calc
_refine_ls_weighting_details     
'calc w=1/[\s^2^(Fo^2^)+(0.1245P)^2^+0.0000P] where P=(Fo^2^+2Fc^2^)/3'
_atom_sites_solution_primary     direct
_atom_sites_solution_secondary   difmap
_atom_sites_solution_hydrogens   geom
_refine_ls_hydrogen_treatment    constr
_refine_ls_extinction_method     none
_refine_ls_extinction_coef       ?
_refine_ls_number_reflns         5910
_refine_ls_number_parameters     294
_refine_ls_number_restraints     0
_refine_ls_R_factor_all          0.1332
_refine_ls_R_factor_gt           0.0756
_refine_ls_wR_factor_ref         0.2182
_refine_ls_wR_factor_gt          0.1992
_refine_ls_goodness_of_fit_ref   0.940
_refine_ls_restrained_S_all      0.940
_refine_ls_shift/su_max          0.001
_refine_ls_shift/su_mean         0.000

loop_
_atom_site_label
_atom_site_type_symbol
_atom_site_fract_x
_atom_site_fract_y
_atom_site_fract_z
_atom_site_U_iso_or_equiv
_atom_site_adp_type
_atom_site_occupancy
_atom_site_symmetry_multiplicity
_atom_site_calc_flag
_atom_site_refinement_flags
_atom_site_disorder_assembly
_atom_site_disorder_group
Cu Cu 1.0000 -0.89262(6) 1.7500 0.0543(4) Uani 1 2 d S . .
Br Br 1.05637(3) -0.88809(4) 1.62866(5) 0.0564(3) Uani 1 1 d . . .
N1 N 0.9422(2) -0.8187(3) 1.6584(4) 0.0441(13) Uani 1 1 d . . .
N2 N 0.8235(2) -0.6318(3) 1.3974(4) 0.0571(15) Uani 1 1 d . . .
H2N H 0.8438 -0.6606 1.3851 0.069 Uiso 1 1 d R . .
N3 N 0.8282(3) -0.1596(3) 1.4072(4) 0.0597(16) Uani 1 1 d . . .
H3N H 0.8489 -0.1301 1.3899 0.072 Uiso 1 1 d R . .
N4 N 0.9430(2) 0.0301(3) 1.6622(4) 0.0485(14) Uani 1 1 d . . .
O1 O 0.7782(2) -0.6474(3) 1.4843(4) 0.0808(17) Uani 1 1 d . . .
O2 O 0.7984(4) -0.1621(5) 1.5155(7) 0.186(5) Uani 1 1 d . . .
C1 C 0.9576(3) -0.7672(4) 1.6245(6) 0.068(2) Uani 1 1 d . . .
H1 H 0.9970 -0.7639 1.6437 0.081 Uiso 1 1 calc R . .
C2 C 0.9186(3) -0.7163(4) 1.5609(6) 0.075(2) Uani 1 1 d . . .
H2 H 0.9325 -0.6804 1.5388 0.090 Uiso 1 1 calc R . .
C3 C 0.8621(3) -0.7178(4) 1.5308(5) 0.0480(17) Uani 1 1 d . . .
C4 C 0.8435(3) -0.7742(4) 1.5649(5) 0.062(2) Uani 1 1 d . . .
H4 H 0.8043 -0.7784 1.5458 0.075 Uiso 1 1 calc R . .
C5 C 0.8851(3) -0.8236(4) 1.6277(5) 0.0573(18) Uani 1 1 d . . .
H5 H 0.8727 -0.8615 1.6492 0.069 Uiso 1 1 calc R . .
C6 C 0.8174(3) -0.6627(4) 1.4672(5) 0.0595(19) Uani 1 1 d . . .
C7 C 0.7908(3) -0.5758(4) 1.3335(5) 0.0565(18) Uani 1 1 d . . .
C8 C 0.7411(3) -0.5477(4) 1.3243(6) 0.072(2) Uani 1 1 d . . .
H8 H 0.7255 -0.5673 1.3594 0.086 Uiso 1 1 calc R . .
C9 C 0.7137(4) -0.4894(4) 1.2620(6) 0.074(2) Uani 1 1 d . . .
H9 H 0.6799 -0.4705 1.2561 0.089 Uiso 1 1 calc R . .
C10 C 0.7363(3) -0.4603(3) 1.2099(5) 0.0561(19) Uani 1 1 d . . .
C11 C 0.7808(4) -0.4911(5) 1.2112(7) 0.084(3) Uani 1 1 d . . .
H11 H 0.7929 -0.4752 1.1690 0.101 Uiso 1 1 calc R . .
C12 C 0.8103(4) -0.5478(5) 1.2761(6) 0.082(3) Uani 1 1 d . . .
H12 H 0.8436 -0.5666 1.2800 0.099 Uiso 1 1 calc R . .
C13 C 0.7082(3) -0.3934(3) 1.1471(5) 0.062(2) Uani 1 1 d . . .
H13A H 0.7133 -0.3931 1.0905 0.074 Uiso 1 1 calc R . .
H13B H 0.6663 -0.3929 1.1214 0.074 Uiso 1 1 calc R . .
C14 C 0.7375(3) -0.3280(3) 1.2122(5) 0.0526(18) Uani 1 1 d . . .
C15 C 0.7816(3) -0.2940(4) 1.2118(5) 0.062(2) Uani 1 1 d . . .
H15 H 0.7926 -0.3086 1.1677 0.074 Uiso 1 1 calc R . .
C16 C 0.8109(3) -0.2384(4) 1.2744(5) 0.062(2) Uani 1 1 d . . .
H16 H 0.8410 -0.2158 1.2722 0.075 Uiso 1 1 calc R . .
C17 C 0.7951(3) -0.2165(4) 1.3407(5) 0.0535(18) Uani 1 1 d . . .
C18 C 0.7479(4) -0.2463(4) 1.3355(7) 0.085(3) Uani 1 1 d . . .
H18 H 0.7339 -0.2283 1.3741 0.102 Uiso 1 1 calc R . .
C19 C 0.7201(4) -0.3027(5) 1.2741(7) 0.083(3) Uani 1 1 d . . .
H19 H 0.6890 -0.3241 1.2745 0.100 Uiso 1 1 calc R . .
C20 C 0.8287(4) -0.1379(5) 1.4863(7) 0.083(3) Uani 1 1 d . . .
C21 C 0.9233(3) 0.0236(4) 1.5670(5) 0.062(2) Uani 1 1 d . . .
H21 H 0.9340 0.0574 1.5370 0.074 Uiso 1 1 calc R . .
C22 C 0.8870(3) -0.0314(4) 1.5075(6) 0.062(2) Uani 1 1 d . . .
H22 H 0.8753 -0.0339 1.4405 0.075 Uiso 1 1 calc R . .
C23 C 0.8695(3) -0.0789(4) 1.5448(5) 0.0557(18) Uani 1 1 d . . .
C24 C 0.8910(4) -0.0763(5) 1.6482(6) 0.087(3) Uani 1 1 d . . .
H24 H 0.8814 -0.1108 1.6789 0.104 Uiso 1 1 calc R . .
C25 C 0.9270(4) -0.0209(5) 1.7017(6) 0.078(2) Uani 1 1 d . . .
H25 H 0.9411 -0.0187 1.7698 0.094 Uiso 1 1 calc R . .

loop_
_atom_site_aniso_label
_atom_site_aniso_U_11
_atom_site_aniso_U_22
_atom_site_aniso_U_33
_atom_site_aniso_U_23
_atom_site_aniso_U_13
_atom_site_aniso_U_12
Cu 0.0423(6) 0.0314(7) 0.0498(6) 0.000 -0.0024(5) 0.000
Br 0.0528(4) 0.0567(5) 0.0575(4) -0.0062(4) 0.0277(3) -0.0081(4)
N1 0.034(3) 0.034(3) 0.049(3) 0.003(3) 0.011(2) -0.003(2)
N2 0.058(4) 0.042(4) 0.066(4) 0.019(3) 0.030(3) 0.020(3)
N3 0.076(4) 0.044(4) 0.064(4) -0.017(3) 0.040(3) -0.032(3)
N4 0.048(3) 0.037(3) 0.041(3) 0.003(3) 0.011(3) -0.009(3)
O1 0.075(4) 0.084(4) 0.084(4) 0.040(3) 0.042(3) 0.031(3)
O2 0.251(10) 0.218(10) 0.186(8) -0.150(8) 0.183(8) -0.194(9)
C1 0.045(4) 0.068(6) 0.083(5) 0.022(5) 0.029(4) 0.016(4)
C2 0.069(5) 0.046(5) 0.104(6) 0.029(5) 0.040(5) 0.004(4)
C3 0.038(4) 0.048(4) 0.045(4) 0.016(3) 0.014(3) 0.009(3)
C4 0.056(4) 0.051(5) 0.057(4) 0.000(4) 0.015(4) 0.004(4)
C5 0.061(5) 0.040(4) 0.057(4) 0.008(4) 0.022(4) 0.011(4)
C6 0.062(5) 0.058(5) 0.059(4) 0.009(4) 0.032(4) -0.002(4)
C7 0.065(5) 0.038(4) 0.059(4) 0.010(4) 0.028(4) -0.001(4)
C8 0.060(5) 0.078(6) 0.083(5) 0.037(5) 0.042(4) 0.024(5)
C9 0.070(5) 0.068(6) 0.083(5) 0.034(5) 0.040(5) 0.021(5)
C10 0.053(4) 0.031(4) 0.050(4) 0.006(3) 0.004(4) 0.000(4)
C11 0.100(7) 0.072(6) 0.093(6) 0.040(5) 0.060(6) 0.028(6)
C12 0.092(6) 0.072(6) 0.097(6) 0.028(5) 0.060(6) 0.027(5)
C13 0.068(5) 0.032(4) 0.055(4) -0.002(3) 0.012(4) -0.010(4)
C14 0.064(4) 0.023(4) 0.049(4) 0.006(3) 0.015(4) -0.003(3)
C15 0.090(6) 0.050(5) 0.058(4) -0.007(4) 0.047(4) -0.017(4)
C16 0.082(5) 0.049(5) 0.074(5) -0.024(4) 0.052(4) -0.034(4)
C17 0.058(4) 0.036(4) 0.050(4) -0.004(3) 0.018(3) -0.012(4)
C18 0.099(6) 0.057(5) 0.127(7) -0.048(5) 0.079(6) -0.053(5)
C19 0.080(6) 0.084(7) 0.098(6) -0.037(5) 0.056(5) -0.047(5)
C20 0.088(6) 0.096(7) 0.095(6) -0.049(5) 0.068(5) -0.065(5)
C21 0.054(4) 0.051(5) 0.064(5) -0.003(4) 0.021(4) -0.014(4)
C22 0.068(5) 0.048(5) 0.069(5) -0.025(4) 0.034(4) -0.021(4)
C23 0.061(4) 0.053(5) 0.064(5) -0.013(4) 0.040(4) -0.019(4)
C24 0.102(7) 0.084(7) 0.073(6) -0.019(5) 0.045(5) -0.044(6)
C25 0.081(6) 0.088(7) 0.058(5) -0.026(5) 0.030(4) -0.026(5)

_geom_special_details            
;
All esds (except the esd in the dihedral angle between two l.s. planes)
are estimated using the full covariance matrix. The cell esds are taken
into account individually in the estimation of esds in distances, angles
and torsion angles; correlations between esds in cell parameters are only
used when they are defined by crystal symmetry. An approximate (isotropic)
treatment of cell esds is used for estimating esds involving l.s. planes.
;

loop_
_geom_bond_atom_site_label_1
_geom_bond_atom_site_label_2
_geom_bond_distance
_geom_bond_site_symmetry_2
_geom_bond_publ_flag
Cu N1 2.022(5) 2_758 ?
Cu N1 2.022(5) . ?
Cu N4 2.042(5) 1_545 ?
Cu N4 2.042(5) 2_748 ?
N1 C1 1.285(9) . ?
N1 C5 1.337(8) . ?
N2 C6 1.332(8) . ?
N2 C7 1.408(9) . ?
N2 H2N 0.8619 . ?
N3 C20 1.307(9) . ?
N3 C17 1.439(8) . ?
N3 H3N 0.9245 . ?
N4 C21 1.305(8) . ?
N4 C25 1.342(9) . ?
N4 Cu 2.042(5) 1_565 ?
O1 C6 1.247(8) . ?
O2 C20 1.214(9) . ?
C1 C2 1.386(10) . ?
C1 H1 0.9300 . ?
C2 C3 1.322(9) . ?
C2 H2 0.9300 . ?
C3 C4 1.405(10) . ?
C3 C6 1.504(10) . ?
C4 C5 1.390(9) . ?
C4 H4 0.9300 . ?
C5 H5 0.9300 . ?
C7 C8 1.367(10) . ?
C7 C12 1.369(10) . ?
C8 C9 1.404(10) . ?
C8 H8 0.9300 . ?
C9 C10 1.368(10) . ?
C9 H9 0.9300 . ?
C10 C11 1.318(10) . ?
C10 C13 1.542(9) . ?
C11 C12 1.407(11) . ?
C11 H11 0.9300 . ?
C12 H12 0.9300 . ?
C13 C14 1.539(9) . ?
C13 H13A 0.9700 . ?
C13 H13B 0.9700 . ?
C14 C15 1.349(10) . ?
C14 C19 1.370(10) . ?
C15 C16 1.373(9) . ?
C15 H15 0.9300 . ?
C16 C17 1.382(9) . ?
C16 H16 0.9300 . ?
C17 C18 1.346(10) . ?
C18 C19 1.371(10) . ?
C18 H18 0.9300 . ?
C19 H19 0.9300 . ?
C20 C23 1.496(10) . ?
C21 C22 1.397(9) . ?
C21 H21 0.9300 . ?
C22 C23 1.294(9) . ?
C22 H22 0.9300 . ?
C23 C24 1.411(10) . ?
C24 C25 1.374(11) . ?
C24 H24 0.9300 . ?
C25 H25 0.9300 . ?

loop_
_geom_angle_atom_site_label_1
_geom_angle_atom_site_label_2
_geom_angle_atom_site_label_3
_geom_angle
_geom_angle_site_symmetry_1
_geom_angle_site_symmetry_3
_geom_angle_publ_flag
N1 Cu N1 91.7(3) 2_758 . ?
N1 Cu N4 177.8(2) 2_758 1_545 ?
N1 Cu N4 90.3(2) . 1_545 ?
N1 Cu N4 90.3(2) 2_758 2_748 ?
N1 Cu N4 177.8(2) . 2_748 ?
N4 Cu N4 87.7(3) 1_545 2_748 ?
C1 N1 C5 117.4(6) . . ?
C1 N1 Cu 122.4(4) . . ?
C5 N1 Cu 120.2(5) . . ?
C6 N2 C7 128.5(6) . . ?
C6 N2 H2N 105.8 . . ?
C7 N2 H2N 123.3 . . ?
C20 N3 C17 128.5(6) . . ?
C20 N3 H3N 112.5 . . ?
C17 N3 H3N 118.6 . . ?
C21 N4 C25 115.5(6) . . ?
C21 N4 Cu 123.3(5) . 1_565 ?
C25 N4 Cu 121.0(5) . 1_565 ?
N1 C1 C2 123.3(7) . . ?
N1 C1 H1 118.3 . . ?
C2 C1 H1 118.3 . . ?
C3 C2 C1 121.5(7) . . ?
C3 C2 H2 119.3 . . ?
C1 C2 H2 119.3 . . ?
C2 C3 C4 116.6(6) . . ?
C2 C3 C6 125.2(7) . . ?
C4 C3 C6 118.1(6) . . ?
C5 C4 C3 118.6(7) . . ?
C5 C4 H4 120.7 . . ?
C3 C4 H4 120.7 . . ?
N1 C5 C4 122.5(7) . . ?
N1 C5 H5 118.7 . . ?
C4 C5 H5 118.7 . . ?
O1 C6 N2 124.0(7) . . ?
O1 C6 C3 118.8(6) . . ?
N2 C6 C3 117.1(7) . . ?
C8 C7 C12 117.8(7) . . ?
C8 C7 N2 124.9(6) . . ?
C12 C7 N2 117.2(7) . . ?
C7 C8 C9 120.1(7) . . ?
C7 C8 H8 120.0 . . ?
C9 C8 H8 120.0 . . ?
C10 C9 C8 120.5(7) . . ?
C10 C9 H9 119.8 . . ?
C8 C9 H9 119.8 . . ?
C11 C10 C9 119.6(7) . . ?
C11 C10 C13 120.4(7) . . ?
C9 C10 C13 120.0(7) . . ?
C10 C11 C12 120.5(8) . . ?
C10 C11 H11 119.8 . . ?
C12 C11 H11 119.8 . . ?
C7 C12 C11 121.1(8) . . ?
C7 C12 H12 119.5 . . ?
C11 C12 H12 119.5 . . ?
C14 C13 C10 109.9(5) . . ?
C14 C13 H13A 109.7 . . ?
C10 C13 H13A 109.7 . . ?
C14 C13 H13B 109.7 . . ?
C10 C13 H13B 109.7 . . ?
H13A C13 H13B 108.2 . . ?
C15 C14 C19 117.5(7) . . ?
C15 C14 C13 121.5(7) . . ?
C19 C14 C13 121.0(7) . . ?
C14 C15 C16 122.3(7) . . ?
C14 C15 H15 118.9 . . ?
C16 C15 H15 118.9 . . ?
C15 C16 C17 119.3(6) . . ?
C15 C16 H16 120.4 . . ?
C17 C16 H16 120.4 . . ?
C18 C17 C16 118.6(7) . . ?
C18 C17 N3 123.8(7) . . ?
C16 C17 N3 117.4(6) . . ?
C17 C18 C19 120.9(8) . . ?
C17 C18 H18 119.6 . . ?
C19 C18 H18 119.6 . . ?
C14 C19 C18 121.0(7) . . ?
C14 C19 H19 119.5 . . ?
C18 C19 H19 119.5 . . ?
O2 C20 N3 124.8(7) . . ?
O2 C20 C23 117.9(7) . . ?
N3 C20 C23 117.4(6) . . ?
N4 C21 C22 123.7(7) . . ?
N4 C21 H21 118.1 . . ?
C22 C21 H21 118.1 . . ?
C23 C22 C21 120.7(7) . . ?
C23 C22 H22 119.7 . . ?
C21 C22 H22 119.7 . . ?
C22 C23 C24 118.4(7) . . ?
C22 C23 C20 124.6(7) . . ?
C24 C23 C20 117.0(7) . . ?
C25 C24 C23 117.3(8) . . ?
C25 C24 H24 121.3 . . ?
C23 C24 H24 121.3 . . ?
N4 C25 C24 124.3(7) . . ?
N4 C25 H25 117.9 . . ?
C24 C25 H25 117.9 . . ?

_diffrn_measured_fraction_theta_max 0.985
_diffrn_reflns_theta_full        25.00
_diffrn_measured_fraction_theta_full 0.985
_refine_diff_density_max         0.952
_refine_diff_density_min         -0.929
_refine_diff_density_rms         0.110
