
#######################################################################
#
#                 Cambridge Crystallographic Data Centre
#                                CCDC
#
#######################################################################
#
# If this CIF has been generated from an entry in the Cambridge
# Structural Database, then it will include bibliographic, chemical,
# crystal, experimental, refinement or atomic coordinate data resulting
# from the CCDC's data processing and validation procedures.
#
#######################################################################

data_CSD_CIF_LOLWIS
_audit_creation_date 2000-12-08
_audit_creation_method CSD-ConQuest-V1
_database_code_CSD LOLWIS
_database_code_depnum_ccdc_archive 'CCDC 148366'
_chemical_formula_sum 'C22 H18 Cl2 N6 Ru1'
_chemical_formula_moiety
;
C22 H18 Cl2 N6 Ru1
;
_journal_coden_Cambridge 9
_journal_volume 39
_journal_year 2000
_journal_page_first 2966
_journal_name_full 'Inorg.Chem. '
loop_
_publ_author_name
"A.H.Velders"
"H.Kooijman"
"A.L.Spek"
"J.G.Haasnoot"
"D.de Vos"
"J.Reedijk"
_chemical_name_systematic
;
trans-Dichloro-cis-bis(2-phenylazapyridine)-ruthenium(ii)
;
_chemical_name_common
;
Teaching Subset: Fundamental Chemistry, Symmetry
;
_cell_volume   3663.503
_exptl_crystal_colour 'purple'
_exptl_crystal_density_diffrn 1.464
_exptl_special_details
;
gamma isomer
low cytotoxic activity

;
_exptl_crystal_description 'needle'
_diffrn_ambient_temperature 150
_refine_special_details
;
Disordered solvent molecules (probably diethyl ether) were not located.

;
#These two values have been output from a single CSD field.
_refine_ls_R_factor_gt 0.0557
_refine_ls_wR_factor_gt 0.0557
loop_
_citation_database_id_CSD
_citation_special_details
BOYGUR "is a stereoisomer of this entry"
BOYHAY "is a stereoisomer of this entry"
_symmetry_cell_setting hexagonal
_symmetry_space_group_name_H-M 'P 65'
_symmetry_Int_Tables_number 170
loop_
_symmetry_equiv_pos_site_id
_symmetry_equiv_pos_as_xyz
1 x,y,z
2 x-y,x,5/6+z
3 -y,x-y,2/3+z
4 -x,-y,1/2+z
5 -x+y,-x,1/3+z
6 y,-x+y,1/6+z
_cell_length_a 22.2928(19)
_cell_length_b 22.2928(19)
_cell_length_c 8.5121(10)
_cell_angle_alpha 90
_cell_angle_beta 90
_cell_angle_gamma 120
_cell_formula_units_Z 6
loop_
_atom_type_symbol
_atom_type_radius_bond
C 0.68
H 0.23
Cl 0.99
N 0.68
Ru 1.40
loop_
_atom_site_label
_atom_site_type_symbol
_atom_site_fract_x
_atom_site_fract_y
_atom_site_fract_z
Ru1 Ru 0.61909(2) 0.77474(2) 0.42757(7)
Cl1 Cl 0.69990(8) 0.87167(7) 0.57743(17)
Cl2 Cl 0.55255(8) 0.67240(8) 0.27955(17)
N1 N 0.6975(3) 0.7997(2) 0.2579(7)
N2 N 0.6307(3) 0.8402(3) 0.1300(6)
N3 N 0.6003(2) 0.8277(2) 0.2664(6)
N4 N 0.6353(2) 0.7146(2) 0.5935(6)
N5 N 0.5532(3) 0.7301(3) 0.7275(5)
N6 N 0.5483(2) 0.7549(2) 0.5922(6)
C1 C 0.6830(3) 0.8237(3) 0.1253(7)
C2 C 0.7226(4) 0.8359(4) -0.0107(8)
C3 C 0.7781(5) 0.8273(5) -0.0037(10)
C4 C 0.7951(5) 0.8048(5) 0.1311(10)
C5 C 0.7534(4) 0.7929(4) 0.263(1)
C6 C 0.5537(3) 0.8542(3) 0.2737(7)
C7 C 0.5040(4) 0.8367(4) 0.1590(8)
C8 C 0.4620(4) 0.8664(5) 0.1609(9)
C9 C 0.4716(4) 0.9144(4) 0.2779(11)
C10 C 0.5202(4) 0.9305(4) 0.3926(10)
C11 C 0.5623(3) 0.9001(3) 0.3922(8)
C12 C 0.6009(3) 0.7087(3) 0.7279(6)
C13 C 0.6073(4) 0.6766(4) 0.8620(8)
C14 C 0.6503(4) 0.6487(4) 0.8562(8)
C15 C 0.6852(4) 0.6536(3) 0.7164(8)
C16 C 0.6759(3) 0.6855(3) 0.5899(8)
C17 C 0.4901(3) 0.7669(3) 0.5925(8)
C18 C 0.4424(3) 0.7385(3) 0.4709(7)
C19 C 0.3835(4) 0.7450(4) 0.4788(8)
C20 C 0.3740(3) 0.7802(4) 0.5995(9)
C21 C 0.4227(4) 0.8099(4) 0.7164(8)
C22 C 0.4817(3) 0.8028(3) 0.7157(7)
H1 H 0.71060 0.84990 -0.10550
H2 H 0.80650 0.83700 -0.09420
H3 H 0.83370 0.79760 0.13420
H4 H 0.76530 0.77960 0.35890
H5 H 0.49840 0.80460 0.07910
H6 H 0.42710 0.85420 0.08350
H7 H 0.44410 0.93610 0.27770
H8 H 0.52570 0.96250 0.47290
H9 H 0.59600 0.91090 0.47200
H10 H 0.58270 0.67390 0.95520
H11 H 0.65610 0.62670 0.94570
H12 H 0.71510 0.63490 0.70960
H13 H 0.69910 0.68740 0.49480
H14 H 0.44970 0.71550 0.38540
H15 H 0.34920 0.72470 0.39910
H16 H 0.33350 0.78400 0.60240
H17 H 0.41640 0.83530 0.79790
H18 H 0.51500 0.82200 0.79750
#END
