####################################################################### 
# 
# This file contains crystal structure data downloaded from the 
# Cambridge Structural Database (CSD) hosted by the Cambridge 
# Crystallographic Data Centre (CCDC).
# 
# Full information about CCDC data access policies and citation 
# guidelines are available at http://www.ccdc.cam.ac.uk/access/V1 
# 
# Audit and citation data items may have been added by the CCDC. 
# Please retain this information to preserve the provenance of 
# this file and to allow appropriate attribution of the data. 
# 
#######################################################################

data_cdrynt
_audit_block_doi                 10.5517/cc4mb02
_database_code_depnum_ccdc_archive 'CCDC 137733'
loop_
_citation_id
_citation_doi
_citation_year
1 10.1002/1521-3773(20000703)39:13<2317::AID-ANIE2317>3.0.CO;2-B 2000
_audit_update_record             
;
1999-12-08 deposited with the CCDC.	2024-07-11 downloaded from the CCDC.
;

_audit_creation_method           SHELXL-97
_chemical_name_systematic        
; 
Biscadmium bis-(1-(2'-pyridyl)-4-(4''-pyridyl)benzene)tetranitrate 
;
_chemical_name_common            {[Cd(NO3)2*bipybenzene]2}n
_chemical_melting_point          'not measured'
_chemical_formula_moiety         'C16 H12 N2 Cd++, 2NO3-'
_chemical_formula_sum            'C16 H12 Cd N4 O6'
_chemical_formula_weight         468.70

loop_
_atom_type_symbol
_atom_type_description
_atom_type_scat_dispersion_real
_atom_type_scat_dispersion_imag
_atom_type_scat_source
C C 0.0033 0.0016 'International Tables Vol C Tables 4.2.6.8 and 6.1.1.4'
H H 0.0000 0.0000 'International Tables Vol C Tables 4.2.6.8 and 6.1.1.4'
N N 0.0061 0.0033 'International Tables Vol C Tables 4.2.6.8 and 6.1.1.4'
O O 0.0106 0.0060 'International Tables Vol C Tables 4.2.6.8 and 6.1.1.4'
Cd Cd -0.8075 1.2024 'International Tables Vol C Tables 4.2.6.8 and 6.1.1.4'

_symmetry_cell_setting           Trigonal
_symmetry_space_group_name_H-M   R-3

loop_
_symmetry_equiv_pos_as_xyz
'x, y, z'
'-y, x-y, z'
'-x+y, -x, z'
'x+2/3, y+1/3, z+1/3'
'-y+2/3, x-y+1/3, z+1/3'
'-x+y+2/3, -x+1/3, z+1/3'
'x+1/3, y+2/3, z+2/3'
'-y+1/3, x-y+2/3, z+2/3'
'-x+y+1/3, -x+2/3, z+2/3'
'-x, -y, -z'
'y, -x+y, -z'
'x-y, x, -z'
'-x+2/3, -y+1/3, -z+1/3'
'y+2/3, -x+y+1/3, -z+1/3'
'x-y+2/3, x+1/3, -z+1/3'
'-x+1/3, -y+2/3, -z+2/3'
'y+1/3, -x+y+2/3, -z+2/3'
'x-y+1/3, x+2/3, -z+2/3'

_cell_length_a                   36.42(8)
_cell_length_b                   36.42(8)
_cell_length_c                   7.799(15)
_cell_angle_alpha                90.00
_cell_angle_beta                 90.00
_cell_angle_gamma                120.00
_cell_volume                     8959(33)
_cell_formula_units_Z            18
_cell_measurement_temperature    298(2)
_cell_measurement_reflns_used    16
_cell_measurement_theta_min      10
_cell_measurement_theta_max      11.5

_exptl_crystal_description       needle
_exptl_crystal_colour            'pale brown'
_exptl_crystal_size_max          0.50
_exptl_crystal_size_mid          0.06
_exptl_crystal_size_min          0.04
_exptl_crystal_density_meas      'not measured'
_exptl_crystal_density_diffrn    1.564
_exptl_crystal_density_method    'not measured'
_exptl_crystal_F_000             4176
_exptl_absorpt_coefficient_mu    1.134
_exptl_absorpt_correction_type   numerical
_exptl_absorpt_correction_T_min  0.915
_exptl_absorpt_correction_T_max  0.946
_exptl_absorpt_process_details   ?

_exptl_special_details           
; 
? 
;

_diffrn_ambient_temperature      298(2)
_diffrn_radiation_wavelength     0.71073
_diffrn_radiation_type           MoK\a
_diffrn_radiation_source         'fine-focus sealed tube'
_diffrn_radiation_monochromator  graphite
_diffrn_measurement_device_type  'Stoe Stadi-4'
_diffrn_measurement_method       omega/theta
_diffrn_detector_area_resol_mean ?
_diffrn_standards_number         3
_diffrn_standards_interval_count ?
_diffrn_standards_interval_time  2
_diffrn_standards_decay_%        'random variation 9.8'
_diffrn_reflns_number            3563
_diffrn_reflns_av_R_equivalents  0.1089
_diffrn_reflns_av_sigmaI/netI    0.1973
_diffrn_reflns_limit_h_min       -38
_diffrn_reflns_limit_h_max       39
_diffrn_reflns_limit_k_min       -38
_diffrn_reflns_limit_k_max       39
_diffrn_reflns_limit_l_min       0
_diffrn_reflns_limit_l_max       8
_diffrn_reflns_theta_min         2.69
_diffrn_reflns_theta_max         22.49
_reflns_number_total             2602
_reflns_number_gt                1381
_reflns_threshold_expression     >2sigma(I)

_computing_data_collection       'STADI-4 (Stoe & Cie, 1997a)'
_computing_cell_refinement       STADI-4
_computing_data_reduction        'X-RED (Stoe & Cie, 1997b)'
_computing_structure_solution    'SHELXS-97 (Sheldrick, 1990)'
_computing_structure_refinement  'SHELXL-97 (Sheldrick, 1997)'
_computing_molecular_graphics    'SHELXTL/PC (Sheldrick, 1994)'
_computing_publication_material  SHELXL-97

_refine_special_details          
; 
Refinement of F^2^ against ALL reflections.  The weighted R-factor wR and 
goodness of fit S are based on F^2^, conventional R-factors R are based 
on F, with F set to zero for negative F^2^. The threshold expression of 
F^2^ > 2sigma(F^2^) is used only for calculating R-factors(gt) etc. and is 
not relevant to the choice of reflections for refinement.  R-factors based 
on F^2^ are statistically about twice as large as those based on F, and R- 
factors based on ALL data will be even larger. 
;

_refine_ls_structure_factor_coef Fsqd
_refine_ls_matrix_type           full
_refine_ls_weighting_scheme      calc
_refine_ls_weighting_details     
'calc w=1/[\s^2^(Fo^2^)+(0.0002P)^2^+812.7061P] where P=(Fo^2^+2Fc^2^)/3'
_atom_sites_solution_primary     'direct methods'
_atom_sites_solution_secondary   'different Fourier method'
_atom_sites_solution_hydrogens   'geometrically placed'
_refine_ls_hydrogen_treatment    'riding model'
_refine_ls_extinction_method     none
_refine_ls_extinction_coef       ?
_refine_ls_number_reflns         2602
_refine_ls_number_parameters     244
_refine_ls_number_restraints     98
_refine_ls_R_factor_all          0.2160
_refine_ls_R_factor_gt           0.1110
_refine_ls_wR_factor_ref         0.2681
_refine_ls_wR_factor_gt          0.1951
_refine_ls_goodness_of_fit_ref   1.198
_refine_ls_restrained_S_all      1.176
_refine_ls_shift/su_max          0.000
_refine_ls_shift/su_mean         0.000

loop_
_atom_site_label
_atom_site_type_symbol
_atom_site_fract_x
_atom_site_fract_y
_atom_site_fract_z
_atom_site_U_iso_or_equiv
_atom_site_adp_type
_atom_site_occupancy
_atom_site_symetry_multiplicity
_atom_site_calc_flag
_atom_site_refinement_flags
_atom_site_disorder_assembly
_atom_site_disorder_group
Cd Cd 0.40837(6) 0.08918(5) 0.8371(3) 0.0427(6) Uani 1 1 d U . .
N20 N 0.3805(8) 0.0027(7) 0.896(3) 0.053(5) Uani 1 1 d U . .
O21 O 0.4069(5) 0.0242(5) 0.781(2) 0.051(4) Uani 1 1 d U . .
O22 O 0.3665(5) -0.0369(5) 0.897(2) 0.057(5) Uani 1 1 d U . .
O23 O 0.3688(5) 0.0197(5) 0.999(2) 0.055(4) Uani 1 1 d U . .
N30 N 0.4718(6) 0.1518(6) 0.630(3) 0.042(5) Uani 1 1 d U . .
O31 O 0.4485(5) 0.1597(5) 0.725(2) 0.048(4) Uani 1 1 d U . .
O32 O 0.5013(6) 0.1806(6) 0.549(3) 0.079(6) Uani 1 1 d U . .
O33 O 0.4627(5) 0.1148(5) 0.619(2) 0.050(4) Uani 1 1 d U . .
N1 N 0.3562(5) 0.1027(4) 0.906(2) 0.043(5) Uani 1 1 d DU . .
C2 C 0.3240(6) 0.0790(6) 1.006(3) 0.059(8) Uani 1 1 d DU . .
H2 H 0.3211 0.0535 1.0450 0.070 Uiso 1 1 calc R . .
C3 C 0.2938(6) 0.0896(6) 1.058(2) 0.049(7) Uani 1 1 d DU . .
H3 H 0.2716 0.0715 1.1297 0.058 Uiso 1 1 calc R . .
C4 C 0.2971(5) 0.1267(5) 1.004(2) 0.028(5) Uani 1 1 d DU . .
C5 C 0.3304(6) 0.1515(6) 0.900(3) 0.061(8) Uani 1 1 d DU . .
H5 H 0.3341 0.1772 0.8592 0.074 Uiso 1 1 calc R . .
C6 C 0.3590(6) 0.1383(6) 0.854(3) 0.058(7) Uani 1 1 d DU . .
H6 H 0.3815 0.1558 0.7826 0.069 Uiso 1 1 calc R . .
C7 C 0.2674(5) 0.1415(5) 1.062(2) 0.032(5) Uani 1 1 d DU . .
C8 C 0.2304(6) 0.1150(6) 1.151(2) 0.056(7) Uani 1 1 d DU . .
H8 H 0.2238 0.0873 1.1741 0.067 Uiso 1 1 calc R . .
C9 C 0.2027(6) 0.1285(6) 1.207(2) 0.049(6) Uani 1 1 d DU . .
H9 H 0.1781 0.1102 1.2664 0.059 Uiso 1 1 calc R . .
C10 C 0.2126(6) 0.1695(5) 1.173(2) 0.043(5) Uani 1 1 d DU . .
C11 C 0.2488(6) 0.1970(6) 1.085(2) 0.047(6) Uani 1 1 d DU . .
H11 H 0.2552 0.2246 1.0625 0.056 Uiso 1 1 calc R . .
C12 C 0.2759(5) 0.1826(6) 1.031(2) 0.043(6) Uani 1 1 d DU . .
H12 H 0.3004 0.2011 0.9718 0.052 Uiso 1 1 calc R . .
C13 C 0.1830(7) 0.1846(7) 1.235(3) 0.051(7) Uani 1 1 d DU . .
C14 C 0.1412(7) 0.1621(8) 1.186(3) 0.056(7) Uani 1 1 d DU . .
H14 H 0.1308 0.1373 1.1224 0.067 Uiso 1 1 calc R . .
C15 C 0.1140(8) 0.1781(9) 1.235(3) 0.083(10) Uani 1 1 d DU . .
H15 H 0.0855 0.1639 1.2050 0.099 Uiso 1 1 calc R . .
C16 C 0.1301(8) 0.2131(9) 1.324(3) 0.068(8) Uani 1 1 d DU . .
H16 H 0.1129 0.2240 1.3574 0.081 Uiso 1 1 calc R . .
C17 C 0.1716(8) 0.2336(8) 1.368(3) 0.057(7) Uani 1 1 d DU . .
H17 H 0.1822 0.2584 1.4319 0.068 Uiso 1 1 calc R . .
N18 N 0.1983(6) 0.2196(6) 1.324(2) 0.041(5) Uani 1 1 d DU . .

loop_
_atom_site_aniso_label
_atom_site_aniso_U_11
_atom_site_aniso_U_22
_atom_site_aniso_U_33
_atom_site_aniso_U_23
_atom_site_aniso_U_13
_atom_site_aniso_U_12
Cd 0.0347(11) 0.0317(11) 0.0673(13) 0.0027(10) 0.0074(10) 0.0208(9)
N20 0.088(17) 0.040(6) 0.041(14) 0.002(8) -0.001(9) 0.040(11)
O21 0.066(12) 0.044(5) 0.060(11) 0.003(7) 0.001(7) 0.041(8)
O22 0.073(12) 0.039(6) 0.072(13) -0.001(7) 0.002(9) 0.038(8)
O23 0.062(11) 0.028(6) 0.072(13) -0.003(6) 0.009(8) 0.020(7)
N30 0.027(10) 0.033(6) 0.057(14) -0.013(8) 0.009(7) 0.008(8)
O31 0.058(9) 0.042(6) 0.054(11) 0.009(7) 0.025(7) 0.032(7)
O32 0.067(13) 0.063(8) 0.097(16) 0.025(11) 0.049(10) 0.025(9)
O33 0.051(9) 0.040(6) 0.059(11) -0.011(7) 0.011(6) 0.024(7)
N1 0.027(8) 0.030(9) 0.072(15) -0.015(8) -0.001(7) 0.014(7)
C2 0.026(12) 0.024(12) 0.12(3) 0.003(11) 0.013(11) 0.011(10)
C3 0.044(13) 0.039(12) 0.07(2) 0.032(12) 0.025(11) 0.029(11)
C4 0.026(10) 0.024(10) 0.031(14) 0.007(8) -0.001(8) 0.011(8)
C5 0.050(15) 0.057(15) 0.09(2) 0.053(15) 0.041(12) 0.040(13)
C6 0.028(13) 0.060(14) 0.10(2) 0.023(13) 0.012(11) 0.030(12)
C7 0.028(10) 0.035(9) 0.036(15) -0.001(10) -0.003(8) 0.018(8)
C8 0.037(13) 0.040(11) 0.09(2) 0.009(13) 0.020(11) 0.020(10)
C9 0.028(12) 0.040(10) 0.08(2) -0.003(12) 0.007(10) 0.015(10)
C10 0.026(9) 0.043(9) 0.063(17) -0.006(10) 0.000(9) 0.019(9)
C11 0.045(13) 0.042(11) 0.062(19) 0.003(12) 0.014(11) 0.028(10)
C12 0.014(10) 0.029(9) 0.08(2) -0.005(11) -0.003(9) 0.009(8)
C13 0.026(8) 0.053(13) 0.08(2) -0.014(11) -0.003(9) 0.022(10)
C14 0.023(8) 0.053(15) 0.09(2) 0.001(12) 0.003(12) 0.019(10)
C15 0.028(11) 0.08(2) 0.15(3) -0.016(17) 0.003(15) 0.033(14)
C16 0.059(12) 0.09(2) 0.09(2) -0.002(15) -0.006(16) 0.060(16)
C17 0.056(12) 0.051(15) 0.08(2) 0.000(12) 0.001(14) 0.042(12)
N18 0.041(9) 0.043(11) 0.052(14) 0.004(8) 0.000(9) 0.031(9)

_geom_special_details            
; 
All esds (except the esd in the dihedral angle between two l.s. planes) 
are estimated using the full covariance matrix.  The cell esds are taken 
into account individually in the estimation of esds in distances, angles 
and torsion angles; correlations between esds in cell parameters are only 
used when they are defined by crystal symmetry.  An approximate (isotropic) 
treatment of cell esds is used for estimating esds involving l.s. planes. 
;

loop_
_geom_bond_atom_site_label_1
_geom_bond_atom_site_label_2
_geom_bond_distance
_geom_bond_site_symmetry_2
_geom_bond_publ_flag
Cd N1 2.251(18) . y
Cd N18 2.331(19) 13_557 y
Cd O21 2.380(16) . y
Cd O31 2.397(16) . y
Cd O33 2.416(16) . y
Cd O22 2.447(18) 8_544 y
Cd O23 2.537(16) . y
N20 O23 1.21(2) . ?
N20 O21 1.26(2) . ?
N20 O22 1.27(2) . ?
O22 Cd 2.447(18) 6 ?
N30 O33 1.22(2) . ?
N30 O32 1.23(2) . ?
N30 O31 1.26(2) . ?
N1 C6 1.311(19) . ?
N1 C2 1.313(19) . ?
C2 C3 1.39(2) . ?
C3 C4 1.362(19) . ?
C4 C5 1.360(19) . ?
C4 C7 1.50(3) . ?
C5 C6 1.40(2) . ?
C7 C8 1.390(19) . ?
C7 C12 1.391(19) . ?
C8 C9 1.39(2) . ?
C9 C10 1.38(2) . ?
C10 C11 1.37(2) . ?
C10 C13 1.51(3) . ?
C11 C12 1.39(2) . ?
C13 N18 1.31(3) . ?
C13 C14 1.38(3) . ?
C14 C15 1.43(3) . ?
C15 C16 1.30(4) . ?
C16 C17 1.35(3) . ?
C17 N18 1.35(3) . ?
N18 Cd 2.331(19) 13_557 ?

loop_
_geom_angle_atom_site_label_1
_geom_angle_atom_site_label_2
_geom_angle_atom_site_label_3
_geom_angle
_geom_angle_site_symmetry_1
_geom_angle_site_symmetry_3
_geom_angle_publ_flag
N1 Cd N18 120.7(6) . 13_557 y
N1 Cd O21 131.2(5) . . y
N18 Cd O21 92.2(6) 13_557 . y
N1 Cd O31 89.0(5) . . y
N18 Cd O31 81.1(6) 13_557 . y
O21 Cd O31 134.2(6) . . y
N1 Cd O33 134.4(6) . . y
N18 Cd O33 80.1(6) 13_557 . y
O21 Cd O33 82.1(6) . . y
O31 Cd O33 52.1(5) . . y
N1 Cd O22 81.3(6) . 8_544 y
N18 Cd O22 154.4(6) 13_557 8_544 y
O21 Cd O22 80.2(6) . 8_544 y
O31 Cd O22 86.7(6) . 8_544 y
O33 Cd O22 74.6(6) . 8_544 y
N1 Cd O23 88.8(5) . . y
N18 Cd O23 93.0(6) 13_557 . y
O21 Cd O23 51.7(6) . . y
O31 Cd O23 171.4(6) . . y
O33 Cd O23 133.2(5) . . y
O22 Cd O23 101.1(6) 8_544 . y
O23 N20 O21 121(2) . . ?
O23 N20 O22 122(2) . . ?
O21 N20 O22 117(2) . . ?
N20 O21 Cd 96.8(13) . . ?
N20 O22 Cd 119.3(15) . 6 ?
N20 O23 Cd 90.4(14) . . ?
O33 N30 O32 123(2) . . ?
O33 N30 O31 116.7(19) . . ?
O32 N30 O31 120.3(19) . . ?
N30 O31 Cd 95.2(12) . . ?
N30 O33 Cd 95.5(13) . . ?
C6 N1 C2 116(2) . . ?
C6 N1 Cd 119.1(13) . . ?
C2 N1 Cd 125.0(13) . . ?
N1 C2 C3 124.2(18) . . ?
C4 C3 C2 119.4(18) . . ?
C5 C4 C3 117(2) . . ?
C5 C4 C7 120.3(14) . . ?
C3 C4 C7 122.6(15) . . ?
C4 C5 C6 119.5(18) . . ?
N1 C6 C5 124.2(18) . . ?
C8 C7 C12 117(2) . . ?
C8 C7 C4 121.8(15) . . ?
C12 C7 C4 121.6(15) . . ?
C7 C8 C9 122.3(18) . . ?
C10 C9 C8 118.6(18) . . ?
C11 C10 C9 121(2) . . ?
C11 C10 C13 119.6(16) . . ?
C9 C10 C13 119.0(16) . . ?
C10 C11 C12 118.6(18) . . ?
C7 C12 C11 122.4(18) . . ?
N18 C13 C14 122(2) . . ?
N18 C13 C10 119.4(19) . . ?
C14 C13 C10 118(2) . . ?
C13 C14 C15 118(3) . . ?
C16 C15 C14 119(3) . . ?
C15 C16 C17 120(3) . . ?
N18 C17 C16 123(3) . . ?
C13 N18 C17 118(2) . . ?
C13 N18 Cd 122.8(14) . 13_557 ?
C17 N18 Cd 114.9(16) . 13_557 ?

_diffrn_measured_fraction_theta_max 0.999
_diffrn_reflns_theta_full        22.49
_diffrn_measured_fraction_theta_full 0.999
_refine_diff_density_max         0.737
_refine_diff_density_min         -0.989
_refine_diff_density_rms         0.184





