####################################################################### 
# 
# This file contains crystal structure data downloaded from the 
# Cambridge Structural Database (CSD) hosted by the Cambridge 
# Crystallographic Data Centre (CCDC).
# 
# Full information about CCDC data access policies and citation 
# guidelines are available at http://www.ccdc.cam.ac.uk/access/V1 
# 
# Audit and citation data items may have been added by the CCDC. 
# Please retain this information to preserve the provenance of 
# this file and to allow appropriate attribution of the data. 
# 
#######################################################################

data_2
_audit_block_doi                 10.5517/cc4m9z0
_database_code_depnum_ccdc_archive 'CCDC 137732'
loop_
_citation_id
_citation_doi
_citation_year
1 10.1002/1521-3773(20000703)39:13<2317::AID-ANIE2317>3.0.CO;2-B 2000
_audit_update_record             
;
1999-12-08 deposited with the CCDC.	2024-07-11 downloaded from the CCDC.
;
_audit_creation_method           SHELXL-97
_chemical_name_systematic        
; 
Biscadmium bis-(1-(2'-pyridyl)-4-(4''-pyridyl)benzene)tetranitrate 
;
_chemical_name_common            {[Cd(NO3)2*bipybenzene]2+0.5bipybenzene}n
_chemical_melting_point          'not measured'
_chemical_formula_moiety         {[Cd(NO3)2*Py-C6H4-Py]2+0.5Py-C6H4-Py}n
_chemical_formula_sum            'C20 H15 Cd N4.50 O6'
_chemical_formula_weight         526.77

loop_
_atom_type_symbol
_atom_type_description
_atom_type_scat_dispersion_real
_atom_type_scat_dispersion_imag
_atom_type_scat_source
C C 0.0033 0.0016 'International Tables Vol C Tables 4.2.6.8 and 6.1.1.4'
H H 0.0000 0.0000 'International Tables Vol C Tables 4.2.6.8 and 6.1.1.4'
N N 0.0061 0.0033 'International Tables Vol C Tables 4.2.6.8 and 6.1.1.4'
O O 0.0106 0.0060 'International Tables Vol C Tables 4.2.6.8 and 6.1.1.4'
Cd Cd -0.8075 1.2024 'International Tables Vol C Tables 4.2.6.8 and 6.1.1.4'

_symmetry_cell_setting           Trigonal
_symmetry_space_group_name_H-M   R-3

loop_
_symmetry_equiv_pos_as_xyz
'x, y, z'
'-y, x-y, z'
'-x+y, -x, z'
'x+2/3, y+1/3, z+1/3'
'-y+2/3, x-y+1/3, z+1/3'
'-x+y+2/3, -x+1/3, z+1/3'
'x+1/3, y+2/3, z+2/3'
'-y+1/3, x-y+2/3, z+2/3'
'-x+y+1/3, -x+2/3, z+2/3'
'-x, -y, -z'
'y, -x+y, -z'
'x-y, x, -z'
'-x+2/3, -y+1/3, -z+1/3'
'y+2/3, -x+y+1/3, -z+1/3'
'x-y+2/3, x+1/3, -z+1/3'
'-x+1/3, -y+2/3, -z+2/3'
'y+1/3, -x+y+2/3, -z+2/3'
'x-y+1/3, x+2/3, -z+2/3'

_cell_length_a                   36.475(9)
_cell_length_b                   36.475(9)
_cell_length_c                   7.570(3)
_cell_angle_alpha                90.00
_cell_angle_beta                 90.00
_cell_angle_gamma                120.00
_cell_volume                     8722(5)
_cell_formula_units_Z            18
_cell_measurement_temperature    150(2)
_cell_measurement_reflns_used    36
_cell_measurement_theta_min      11
_cell_measurement_theta_max      16

_exptl_crystal_description       column
_exptl_crystal_colour            colourless
_exptl_crystal_size_max          0.47
_exptl_crystal_size_mid          0.15
_exptl_crystal_size_min          0.13
_exptl_crystal_density_meas      'not measured'
_exptl_crystal_density_diffrn    1.606
_exptl_crystal_density_method    'not measured'
_exptl_crystal_F_000             4176
_exptl_absorpt_coefficient_mu    1.165
_exptl_absorpt_correction_type   none
_exptl_absorpt_correction_T_min  ?
_exptl_absorpt_correction_T_max  ?
_exptl_absorpt_process_details   ?

_exptl_special_details           
; 
Electronic density within the channels was left unassigned as a suitable 
model could not be found due to the heavy disorder of the guest molecule
;

_diffrn_ambient_temperature      150(2)
_diffrn_radiation_wavelength     0.71073
_diffrn_radiation_type           MoK\a
_diffrn_radiation_source         'fine-focus sealed tube'
_diffrn_radiation_monochromator  graphite
_diffrn_measurement_device_type  Stadi-4
_diffrn_measurement_method       omega
_diffrn_detector_area_resol_mean ?
_diffrn_standards_number         3
_diffrn_standards_interval_count ?
_diffrn_standards_interval_time  60
_diffrn_standards_decay_%        'random variation 4.2%'
_diffrn_reflns_number            12854
_diffrn_reflns_av_R_equivalents  0.0727
_diffrn_reflns_av_sigmaI/netI    0.0578
_diffrn_reflns_limit_h_min       -44
_diffrn_reflns_limit_h_max       44
_diffrn_reflns_limit_k_min       -44
_diffrn_reflns_limit_k_max       44
_diffrn_reflns_limit_l_min       -9
_diffrn_reflns_limit_l_max       9
_diffrn_reflns_theta_min         2.77
_diffrn_reflns_theta_max         26.16
_reflns_number_total             3808
_reflns_number_gt                2974
_reflns_threshold_expression     >2sigma(I)

_computing_data_collection       'STADI-4 (Stoe & Cie, 1997a)'
_computing_cell_refinement       STADI-4
_computing_data_reduction        'X-RED (Stoe & Cie, 1997b)'
_computing_structure_solution    'SHELXS-97 (Sheldrick, 1990)'
_computing_structure_refinement  'SHELXL-97 (Sheldrick, 1997)'
_computing_molecular_graphics    'SHELXTL/PC (Sheldrick, 1994)'
_computing_publication_material  SHELXL-97

_refine_special_details          
; 
Refinement of F^2^ against ALL reflections.  The weighted R-factor wR and 
goodness of fit S are based on F^2^, conventional R-factors R are based 
on F, with F set to zero for negative F^2^. The threshold expression of 
F^2^ > 2sigma(F^2^) is used only for calculating R-factors(gt) etc. and is 
not relevant to the choice of reflections for refinement.  R-factors based 
on F^2^ are statistically about twice as large as those based on F, and R- 
factors based on ALL data will be even larger. 
;

_refine_ls_structure_factor_coef Fsqd
_refine_ls_matrix_type           full
_refine_ls_weighting_scheme      calc
_refine_ls_weighting_details     
'calc w=1/[\s^2^(Fo^2^)+(0.1069P)^2^+155.3791P] where P=(Fo^2^+2Fc^2^)/3'
_atom_sites_solution_primary     direct
_atom_sites_solution_secondary   difmap
_atom_sites_solution_hydrogens   geom
_refine_ls_hydrogen_treatment    mixed
_refine_ls_extinction_method     none
_refine_ls_extinction_coef       ?
_refine_ls_number_reflns         3808
_refine_ls_number_parameters     244
_refine_ls_number_restraints     0
_refine_ls_R_factor_all          0.0839
_refine_ls_R_factor_gt           0.0601
_refine_ls_wR_factor_ref         0.2019
_refine_ls_wR_factor_gt          0.1729
_refine_ls_goodness_of_fit_ref   1.127
_refine_ls_restrained_S_all      1.127
_refine_ls_shift/su_max          0.001
_refine_ls_shift/su_mean         0.000

loop_
_atom_site_label
_atom_site_type_symbol
_atom_site_fract_x
_atom_site_fract_y
_atom_site_fract_z
_atom_site_U_iso_or_equiv
_atom_site_adp_type
_atom_site_occupancy
_atom_site_symetry_multiplicity
_atom_site_calc_flag
_atom_site_refinement_flags
_atom_site_disorder_assembly
_atom_site_disorder_group
Cd1 Cd 0.422256(16) 0.075252(17) 0.82812(8) 0.0202(2) Uani 1 1 d . . .
N30 N 0.4865(2) 0.1394(2) 1.0368(10) 0.0241(14) Uani 1 1 d . . .
N20 N 0.3357(2) 0.0468(2) 0.7720(9) 0.0218(14) Uani 1 1 d . . .
O31 O 0.49353(18) 0.11529(18) 0.9391(8) 0.0275(13) Uani 1 1 d . . .
O23 O 0.35320(17) 0.03481(17) 0.6624(8) 0.0256(12) Uani 1 1 d . . .
O33 O 0.44825(16) 0.13028(18) 1.0531(8) 0.0277(13) Uani 1 1 d . . .
O21 O 0.35828(17) 0.07384(18) 0.8871(8) 0.0302(13) Uani 1 1 d . . .
C11 C 0.5294(2) -0.0848(2) 0.5815(11) 0.0239(16) Uani 1 1 d . . .
H11A H 0.5578 -0.0780 0.6038 0.029 Uiso 1 1 calc R . .
O32 O 0.51526(19) 0.1696(2) 1.1134(10) 0.0408(17) Uani 1 1 d . . .
O22 O 0.29684(17) 0.03300(19) 0.7733(8) 0.0290(13) Uani 1 1 d . . .
C10 C 0.5023(2) -0.1219(2) 0.4936(10) 0.0219(16) Uani 1 1 d . . .
C12 C 0.5158(2) -0.0573(2) 0.6373(10) 0.0213(15) Uani 1 1 d . . .
H12A H 0.5349 -0.0321 0.6981 0.026 Uiso 1 1 calc R . .
C4 C 0.4605(2) -0.0364(2) 0.6640(10) 0.0200(15) Uani 1 1 d . . .
C7 C 0.4747(2) -0.0662(2) 0.6059(10) 0.0188(15) Uani 1 1 d . . .
C5 C 0.4854(3) -0.0019(3) 0.7706(13) 0.0298(19) Uani 1 1 d . . .
H5A H 0.5117 0.0024 0.8136 0.036 Uiso 1 1 calc R . .
N1 N 0.43581(19) 0.02296(19) 0.7592(9) 0.0196(13) Uani 1 1 d . . .
C8 C 0.4470(2) -0.1037(2) 0.5203(11) 0.0245(17) Uani 1 1 d . . .
H8A H 0.4187 -0.1103 0.4990 0.029 Uiso 1 1 calc R . .
C9 C 0.4602(2) -0.1318(2) 0.4650(13) 0.0296(19) Uani 1 1 d . . .
H9A H 0.4408 -0.1575 0.4082 0.036 Uiso 1 1 calc R . .
C2 C 0.4116(2) -0.0101(3) 0.6578(12) 0.0280(18) Uani 1 1 d . . .
H2A H 0.3855 -0.0134 0.6170 0.034 Uiso 1 1 calc R . .
C6 C 0.4720(3) 0.0266(3) 0.8153(12) 0.0285(18) Uani 1 1 d . . .
H6A H 0.4897 0.0499 0.8895 0.034 Uiso 1 1 calc R . .
C13 C 0.5167(3) -0.1518(2) 0.4387(11) 0.0247(17) Uani 1 1 d . . .
N18 N 0.5534(2) -0.13487(19) 0.3447(10) 0.0242(14) Uani 1 1 d . . .
C14 C 0.4947(3) -0.1938(3) 0.4822(13) 0.033(2) Uani 1 1 d . . .
H14A H 0.4691 -0.2044 0.5475 0.040 Uiso 1 1 calc R . .
C15 C 0.5089(3) -0.2209(3) 0.4326(14) 0.042(2) Uani 1 1 d . . .
H15A H 0.4938 -0.2501 0.4632 0.051 Uiso 1 1 calc R . .
C16 C 0.5463(3) -0.2040(3) 0.3362(14) 0.039(2) Uani 1 1 d . . .
H16A H 0.5570 -0.2216 0.2981 0.047 Uiso 1 1 calc R . .
C17 C 0.5676(3) -0.1614(3) 0.2963(13) 0.033(2) Uani 1 1 d . . .
H17A H 0.5934 -0.1502 0.2323 0.039 Uiso 1 1 calc R . .
C3 C 0.4225(3) -0.0400(3) 0.6082(12) 0.0294(18) Uani 1 1 d . . .
H3A H 0.4038 -0.0631 0.5357 0.035 Uiso 1 1 calc R . .

loop_
_atom_site_aniso_label
_atom_site_aniso_U_11
_atom_site_aniso_U_22
_atom_site_aniso_U_33
_atom_site_aniso_U_23
_atom_site_aniso_U_13
_atom_site_aniso_U_12
Cd1 0.0162(3) 0.0187(3) 0.0285(4) -0.0039(2) -0.0018(2) 0.0108(2)
N30 0.019(3) 0.023(3) 0.033(4) -0.004(3) 0.004(3) 0.012(3)
N20 0.021(3) 0.025(3) 0.022(3) 0.001(3) 0.000(3) 0.013(3)
O31 0.029(3) 0.033(3) 0.031(3) -0.008(3) -0.006(2) 0.024(3)
O23 0.026(3) 0.029(3) 0.026(3) -0.001(2) 0.003(2) 0.017(2)
O33 0.019(3) 0.030(3) 0.037(3) -0.007(3) -0.002(2) 0.014(2)
O21 0.023(3) 0.034(3) 0.035(3) -0.014(3) -0.007(2) 0.014(2)
C11 0.021(4) 0.025(4) 0.030(4) -0.003(3) -0.004(3) 0.014(3)
O32 0.026(3) 0.031(3) 0.051(4) -0.020(3) -0.010(3) 0.004(3)
O22 0.017(3) 0.039(3) 0.033(3) 0.000(3) -0.001(2) 0.016(2)
C10 0.022(4) 0.023(4) 0.021(4) -0.001(3) -0.002(3) 0.011(3)
C12 0.022(4) 0.018(3) 0.021(4) -0.001(3) -0.004(3) 0.008(3)
C4 0.021(4) 0.018(3) 0.021(4) 0.000(3) -0.001(3) 0.010(3)
C7 0.024(4) 0.017(3) 0.015(3) -0.003(3) 0.000(3) 0.011(3)
C5 0.026(4) 0.026(4) 0.041(5) -0.010(4) -0.009(4) 0.016(3)
N1 0.020(3) 0.017(3) 0.022(3) -0.003(3) -0.002(3) 0.010(2)
C8 0.017(3) 0.021(4) 0.034(5) -0.008(3) -0.007(3) 0.009(3)
C9 0.021(4) 0.019(4) 0.046(5) -0.009(4) -0.007(4) 0.007(3)
C2 0.017(4) 0.030(4) 0.039(5) -0.012(4) -0.009(3) 0.013(3)
C6 0.027(4) 0.025(4) 0.036(5) -0.017(4) -0.011(4) 0.014(3)
C13 0.030(4) 0.021(4) 0.028(4) -0.007(3) -0.007(3) 0.016(3)
N18 0.030(3) 0.016(3) 0.033(4) -0.003(3) -0.001(3) 0.017(3)
C14 0.039(5) 0.021(4) 0.038(5) 0.000(4) 0.004(4) 0.013(4)
C15 0.061(6) 0.023(4) 0.051(6) 0.006(4) 0.003(5) 0.027(4)
C16 0.053(6) 0.030(5) 0.051(6) -0.007(4) -0.009(5) 0.032(4)
C17 0.035(5) 0.039(5) 0.040(5) -0.010(4) -0.013(4) 0.030(4)
C3 0.025(4) 0.023(4) 0.040(5) -0.009(4) -0.004(4) 0.012(3)

_geom_special_details            
; 
All esds (except the esd in the dihedral angle between two l.s. planes) 
are estimated using the full covariance matrix.  The cell esds are taken 
into account individually in the estimation of esds in distances, angles 
and torsion angles; correlations between esds in cell parameters are only 
used when they are defined by crystal symmetry.  An approximate (isotropic) 
treatment of cell esds is used for estimating esds involving l.s. planes. 
;

loop_
_geom_bond_atom_site_label_1
_geom_bond_atom_site_label_2
_geom_bond_distance
_geom_bond_site_symmetry_2
_geom_bond_publ_flag
Cd1 N1 2.258(6) . y
Cd1 N18 2.301(7) 10_656 y
Cd1 O21 2.351(6) . y
Cd1 O31 2.408(6) . y
Cd1 O33 2.434(6) . y
Cd1 O22 2.438(6) 6 y
Cd1 O23 2.526(6) . y
N30 O32 1.224(9) . ?
N30 O33 1.267(8) . ?
N30 O31 1.270(9) . ?
N20 O22 1.243(8) . ?
N20 O23 1.252(8) . ?
N20 O21 1.265(9) . ?
C11 C10 1.385(11) . ?
C11 C12 1.385(11) . ?
O22 Cd1 2.438(6) 8_544 ?
C10 C9 1.407(11) . ?
C10 C13 1.488(10) . ?
C12 C7 1.388(10) . ?
C4 C5 1.384(11) . ?
C4 C3 1.391(11) . ?
C4 C7 1.486(10) . ?
C7 C8 1.389(10) . ?
C5 C6 1.393(11) . ?
N1 C2 1.326(10) . ?
N1 C6 1.329(10) . ?
C8 C9 1.395(11) . ?
C2 C3 1.385(11) . ?
C13 N18 1.361(11) . ?
C13 C14 1.365(11) . ?
N18 C17 1.360(10) . ?
N18 Cd1 2.301(7) 10_656 ?
C14 C15 1.381(12) . ?
C15 C16 1.389(15) . ?
C16 C17 1.377(13) . ?

loop_
_geom_angle_atom_site_label_1
_geom_angle_atom_site_label_2
_geom_angle_atom_site_label_3
_geom_angle
_geom_angle_site_symmetry_1
_geom_angle_site_symmetry_3
_geom_angle_publ_flag
N1 Cd1 N18 121.5(2) . 10_656 y
N1 Cd1 O21 131.3(2) . . y
N18 Cd1 O21 92.2(2) 10_656 . y
N1 Cd1 O31 88.1(2) . . y
N18 Cd1 O31 80.5(2) 10_656 . y
O21 Cd1 O31 134.88(19) . . y
N1 Cd1 O33 134.3(2) . . y
N18 Cd1 O33 79.1(2) 10_656 . y
O21 Cd1 O33 81.85(18) . . y
O31 Cd1 O33 53.03(18) . . y
N1 Cd1 O22 80.4(2) . 6 y
N18 Cd1 O22 154.5(2) 10_656 6 y
O21 Cd1 O22 80.0(2) . 6 y
O31 Cd1 O22 87.9(2) . 6 y
O33 Cd1 O22 75.7(2) . 6 y
N1 Cd1 O23 88.1(2) . . y
N18 Cd1 O23 94.1(2) 10_656 . y
O21 Cd1 O23 52.58(19) . . y
O31 Cd1 O23 170.53(19) . . y
O33 Cd1 O23 133.84(17) . . y
O22 Cd1 O23 100.09(19) 6 . y
O32 N30 O33 121.7(7) . . ?
O32 N30 O31 121.4(6) . . ?
O33 N30 O31 116.9(6) . . ?
O22 N20 O23 122.8(6) . . ?
O22 N20 O21 118.4(6) . . ?
O23 N20 O21 118.8(6) . . ?
N30 O31 Cd1 95.3(4) . . ?
N20 O23 Cd1 90.1(4) . . ?
N30 O33 Cd1 94.1(4) . . ?
N20 O21 Cd1 98.0(4) . . ?
C10 C11 C12 120.9(7) . . ?
N20 O22 Cd1 119.2(5) . 8_544 ?
C11 C10 C9 118.6(7) . . ?
C11 C10 C13 120.7(7) . . ?
C9 C10 C13 120.6(7) . . ?
C11 C12 C7 121.0(7) . . ?
C5 C4 C3 115.6(7) . . ?
C5 C4 C7 121.9(7) . . ?
C3 C4 C7 122.4(7) . . ?
C12 C7 C8 118.5(7) . . ?
C12 C7 C4 120.7(7) . . ?
C8 C7 C4 120.8(7) . . ?
C4 C5 C6 120.4(7) . . ?
C2 N1 C6 116.9(6) . . ?
C2 N1 Cd1 125.1(5) . . ?
C6 N1 Cd1 117.9(5) . . ?
C7 C8 C9 121.1(7) . . ?
C8 C9 C10 119.8(7) . . ?
N1 C2 C3 123.4(7) . . ?
N1 C6 C5 123.2(7) . . ?
N18 C13 C14 122.0(7) . . ?
N18 C13 C10 116.1(7) . . ?
C14 C13 C10 121.9(8) . . ?
C17 N18 C13 117.2(7) . . ?
C17 N18 Cd1 114.5(6) . 10_656 ?
C13 N18 Cd1 123.7(5) . 10_656 ?
C13 C14 C15 121.1(9) . . ?
C14 C15 C16 117.5(8) . . ?
C17 C16 C15 119.5(8) . . ?
N18 C17 C16 122.8(9) . . ?
C2 C3 C4 120.5(7) . . ?

_diffrn_measured_fraction_theta_max 0.981
_diffrn_reflns_theta_full        26.16
_diffrn_measured_fraction_theta_full 0.981
_refine_diff_density_max         2.387
_refine_diff_density_min         -0.947
_refine_diff_density_rms         0.211
