####################################################################### 
# 
# This file contains crystal structure data downloaded from the 
# Cambridge Structural Database (CSD) hosted by the Cambridge 
# Crystallographic Data Centre (CCDC).
# 
# Full information about CCDC data access policies and citation 
# guidelines are available at http://www.ccdc.cam.ac.uk/access/V1 
# 
# Audit and citation data items may have been added by the CCDC. 
# Please retain this information to preserve the provenance of 
# this file and to allow appropriate attribution of the data. 
# 
#######################################################################

data_yg269-2012-07-26
_audit_block_doi                 10.5517/ccz7b3m
_database_code_depnum_ccdc_archive 'CCDC 900770'
loop_
_citation_id
_citation_doi
_citation_year
1 10.1016/j.micromeso.2013.09.006 2014
_audit_update_record             
;
2012-09-10 deposited with the CCDC.	2024-07-11 downloaded from the CCDC.
;
#TrackingRef 'yg269-2012-07-26.cif'


_audit_creation_method           SHELXL-97
_chemical_name_systematic        
;
?
;
_chemical_name_common            ?
_chemical_melting_point          ?
_chemical_formula_moiety         ?
_chemical_formula_sum            'C60 H108 Ag8 B2 F8 N18'
_chemical_formula_weight         2118.22

loop_
_atom_type_symbol
_atom_type_description
_atom_type_scat_dispersion_real
_atom_type_scat_dispersion_imag
_atom_type_scat_source
C C 0.0033 0.0016 'International Tables Vol C Tables 4.2.6.8 and 6.1.1.4'
H H 0.0000 0.0000 'International Tables Vol C Tables 4.2.6.8 and 6.1.1.4'
B B 0.0013 0.0007 'International Tables Vol C Tables 4.2.6.8 and 6.1.1.4'
N N 0.0061 0.0033 'International Tables Vol C Tables 4.2.6.8 and 6.1.1.4'
F F 0.0171 0.0103 'International Tables Vol C Tables 4.2.6.8 and 6.1.1.4'
Ag Ag -0.8971 1.1015 'International Tables Vol C Tables 4.2.6.8 and 6.1.1.4'

_symmetry_cell_setting           hexagonal
_symmetry_space_group_name_H-M   P6(3)22
loop_
_symmetry_equiv_pos_as_xyz
'x, y, z'
'-y, x-y, z'
'-x+y, -x, z'
'-x, -y, z+1/2'
'y, -x+y, z+1/2'
'x-y, x, z+1/2'
'y, x, -z'
'x-y, -y, -z'
'-x, -x+y, -z'
'-y, -x, -z+1/2'
'-x+y, y, -z+1/2'
'x, x-y, -z+1/2'

_cell_length_a                   21.420(3)
_cell_length_b                   21.420(3)
_cell_length_c                   14.320(3)
_cell_angle_alpha                90.00
_cell_angle_beta                 90.00
_cell_angle_gamma                120.00
_cell_volume                     5690.0(16)
_cell_formula_units_Z            2
_cell_measurement_temperature    298(2)
_cell_measurement_reflns_used    1024
_cell_measurement_theta_min      5.231
_cell_measurement_theta_max      50.496

_exptl_crystal_description       prism
_exptl_crystal_colour            colorless
_exptl_crystal_size_max          0.03
_exptl_crystal_size_mid          0.02
_exptl_crystal_size_min          0.02
_exptl_crystal_density_meas      ?
_exptl_crystal_density_diffrn    1.236
_exptl_crystal_density_method    'not measured'
_exptl_crystal_F_000             2104
_exptl_absorpt_coefficient_mu    1.392
_exptl_absorpt_correction_type   multi-scan
_exptl_absorpt_correction_T_min  0.9594
_exptl_absorpt_correction_T_max  0.9727
_exptl_absorpt_process_details   'SADABS (Sheldrick, 1996)'

_exptl_special_details           
;
?
;

_diffrn_ambient_temperature      298(2)
_diffrn_radiation_wavelength     0.71073
_diffrn_radiation_type           MoK\a
_diffrn_radiation_source         'fine-focus sealed tube'
_diffrn_radiation_monochromator  graphite
_diffrn_measurement_device_type  'CCD area detector'
_diffrn_measurement_method       'phi and omega scans'
_diffrn_detector_area_resol_mean ?
_diffrn_standards_number         ?
_diffrn_standards_interval_count ?
_diffrn_standards_interval_time  ?
_diffrn_standards_decay_%        ?
_diffrn_reflns_number            40501
_diffrn_reflns_av_R_equivalents  0.1225
_diffrn_reflns_av_sigmaI/netI    0.0793
_diffrn_reflns_limit_h_min       -25
_diffrn_reflns_limit_h_max       26
_diffrn_reflns_limit_k_min       -26
_diffrn_reflns_limit_k_max       26
_diffrn_reflns_limit_l_min       -17
_diffrn_reflns_limit_l_max       17
_diffrn_reflns_theta_min         1.10
_diffrn_reflns_theta_max         26.14
_reflns_number_total             3801
_reflns_number_gt                2361
_reflns_threshold_expression     >2sigma(I)

_computing_data_collection       'Bruker SMART'
_computing_cell_refinement       'Bruker SMART'
_computing_data_reduction        'Bruker SMART'
_computing_structure_solution    'SHELXS-97 (Sheldrick, 1990)'
_computing_structure_refinement  'SHELXL-97 (Sheldrick, 1997)'
_computing_molecular_graphics    'Bruker SHELXTL'
_computing_publication_material  'Bruker SHELXTL'

_refine_special_details          
;
Refinement of F^2^ against ALL reflections. The weighted R-factor wR and
goodness of fit S are based on F^2^, conventional R-factors R are based
on F, with F set to zero for negative F^2^. The threshold expression of
F^2^ > 2sigma(F^2^) is used only for calculating R-factors(gt) etc. and is
not relevant to the choice of reflections for refinement. R-factors based
on F^2^ are statistically about twice as large as those based on F, and R-
factors based on ALL data will be even larger.
;

_refine_ls_structure_factor_coef Fsqd
_refine_ls_matrix_type           full
_refine_ls_weighting_scheme      calc
_refine_ls_weighting_details     
'calc w=1/[\s^2^(Fo^2^)+(0.1578P)^2^+0.0000P] where P=(Fo^2^+2Fc^2^)/3'
_atom_sites_solution_primary     direct
_atom_sites_solution_secondary   difmap
_atom_sites_solution_hydrogens   geom
_refine_ls_hydrogen_treatment    constr
_refine_ls_extinction_method     none
_refine_ls_extinction_coef       ?
_refine_ls_abs_structure_details 'Flack H D (1983), Acta Cryst. A39, 876-881'
_refine_ls_abs_structure_Flack   0.07(18)
_refine_ls_number_reflns         3801
_refine_ls_number_parameters     86
_refine_ls_number_restraints     36
_refine_ls_R_factor_all          0.1194
_refine_ls_R_factor_gt           0.0865
_refine_ls_wR_factor_ref         0.2493
_refine_ls_wR_factor_gt          0.2341
_refine_ls_goodness_of_fit_ref   0.992
_refine_ls_restrained_S_all      0.999
_refine_ls_shift/su_max          0.001
_refine_ls_shift/su_mean         0.000

loop_
_atom_site_label
_atom_site_type_symbol
_atom_site_fract_x
_atom_site_fract_y
_atom_site_fract_z
_atom_site_U_iso_or_equiv
_atom_site_adp_type
_atom_site_occupancy
_atom_site_symmetry_multiplicity
_atom_site_calc_flag
_atom_site_refinement_flags
_atom_site_disorder_assembly
_atom_site_disorder_group
Ag1 Ag 0.3333 0.6667 0.60124(8) 0.0524(3) Uani 1 3 d S . .
Ag2 Ag 0.27111(2) 0.72889(2) 0.7500 0.0602(2) Uani 1 2 d S . .
Ag3 Ag 0.0000 0.46927(7) 0.5000 0.0825(4) Uani 1 2 d S . .
C1 C 0.1597(2) 0.5861(2) 0.5421(3) 0.058(2) Uani 1 1 d GU . .
N3 N 0.0986(2) 0.5190(3) 0.5660(3) 0.066(2) Uani 1 1 d GU . .
C2 C 0.1178(3) 0.4899(3) 0.6426(4) 0.075(3) Uani 1 1 d GU . .
N2 N 0.1907(3) 0.5390(3) 0.6660(3) 0.0469(19) Uani 1 1 d GU . .
N1 N 0.2166(2) 0.5985(3) 0.6039(3) 0.081(3) Uani 1 1 d G . .
C3 C 0.1626(3) 0.6316(4) 0.4682(6) 0.152(3) Uani 1 1 d D . .
C4 C 0.2242(6) 0.7100(4) 0.4800(10) 0.152(3) Uani 1 1 d D . .
H4A H 0.2058 0.7423 0.4707 0.228 Uiso 1 1 calc R . .
H4B H 0.2612 0.7201 0.4349 0.228 Uiso 1 1 calc R . .
H4C H 0.2439 0.7164 0.5418 0.228 Uiso 1 1 calc R . .
C5 C 0.0931(4) 0.6360(6) 0.4570(11) 0.152(3) Uani 1 1 d D . .
H5A H 0.0604 0.6102 0.5070 0.228 Uiso 1 1 calc R . .
H5B H 0.0707 0.6150 0.3983 0.228 Uiso 1 1 calc R . .
H5C H 0.1050 0.6856 0.4586 0.228 Uiso 1 1 calc R . .
C6 C 0.1686(6) 0.5975(6) 0.3767(7) 0.152(3) Uani 1 1 d D . .
H6A H 0.2154 0.6274 0.3498 0.228 Uiso 1 1 calc R . .
H6B H 0.1322 0.5932 0.3339 0.228 Uiso 1 1 calc R . .
H6C H 0.1620 0.5506 0.3894 0.228 Uiso 1 1 calc R . .
C7 C 0.0846(3) 0.4231(4) 0.6866(5) 0.152(3) Uani 1 1 d D . .
C8 C 0.0757(6) 0.3632(5) 0.6183(7) 0.152(3) Uani 1 1 d D . .
H8A H 0.0963 0.3842 0.5589 0.228 Uiso 1 1 calc R . .
H8B H 0.0254 0.3289 0.6105 0.228 Uiso 1 1 calc R . .
H8C H 0.0998 0.3392 0.6430 0.228 Uiso 1 1 calc R . .
C9 C 0.0101(4) 0.4111(6) 0.7117(9) 0.152(3) Uani 1 1 d D . .
H9A H 0.0111 0.4564 0.7108 0.228 Uiso 1 1 calc R . .
H9B H -0.0031 0.3904 0.7730 0.228 Uiso 1 1 calc R . .
H9C H -0.0246 0.3790 0.6671 0.228 Uiso 1 1 calc R . .
C10 C 0.1206(5) 0.4116(7) 0.7737(7) 0.152(3) Uani 1 1 d D . .
H10A H 0.1293 0.3724 0.7624 0.228 Uiso 1 1 calc R . .
H10B H 0.0892 0.4005 0.8266 0.228 Uiso 1 1 calc R . .
H10C H 0.1655 0.4547 0.7860 0.228 Uiso 1 1 calc R . .

loop_
_atom_site_aniso_label
_atom_site_aniso_U_11
_atom_site_aniso_U_22
_atom_site_aniso_U_33
_atom_site_aniso_U_23
_atom_site_aniso_U_13
_atom_site_aniso_U_12
Ag1 0.0515(3) 0.0515(3) 0.0541(6) 0.000 0.000 0.02575(17)
Ag2 0.0666(2) 0.0666(2) 0.0510(4) 0.0263(5) 0.0263(5) 0.0361(3)
Ag3 0.0361(5) 0.1241(8) 0.0581(5) -0.0100(3) -0.0201(5) 0.0180(2)
C1 0.052(3) 0.072(4) 0.052(4) 0.019(4) -0.009(3) 0.032(3)
N3 0.062(3) 0.090(4) 0.042(3) 0.019(3) -0.020(3) 0.034(3)
C2 0.086(4) 0.089(4) 0.090(6) -0.015(4) -0.002(4) 0.074(3)
N2 0.043(3) 0.029(3) 0.049(3) 0.010(3) -0.002(3) 0.003(2)
N1 0.088(5) 0.077(5) 0.044(4) 0.004(5) -0.010(4) 0.015(5)
C3 0.171(5) 0.121(4) 0.138(5) 0.045(4) -0.009(4) 0.054(4)
C4 0.171(5) 0.121(4) 0.138(5) 0.045(4) -0.009(4) 0.054(4)
C5 0.171(5) 0.121(4) 0.138(5) 0.045(4) -0.009(4) 0.054(4)
C6 0.171(5) 0.121(4) 0.138(5) 0.045(4) -0.009(4) 0.054(4)
C7 0.171(5) 0.121(4) 0.138(5) 0.045(4) -0.009(4) 0.054(4)
C8 0.171(5) 0.121(4) 0.138(5) 0.045(4) -0.009(4) 0.054(4)
C9 0.171(5) 0.121(4) 0.138(5) 0.045(4) -0.009(4) 0.054(4)
C10 0.171(5) 0.121(4) 0.138(5) 0.045(4) -0.009(4) 0.054(4)

_geom_special_details            
;
All esds (except the esd in the dihedral angle between two l.s. planes)
are estimated using the full covariance matrix. The cell esds are taken
into account individually in the estimation of esds in distances, angles
and torsion angles; correlations between esds in cell parameters are only
used when they are defined by crystal symmetry. An approximate (isotropic)
treatment of cell esds is used for estimating esds involving l.s. planes.
;

loop_
_geom_bond_atom_site_label_1
_geom_bond_atom_site_label_2
_geom_bond_distance
_geom_bond_site_symmetry_2
_geom_bond_publ_flag
Ag1 N1 2.175(8) 3_565 ?
Ag1 N1 2.175(4) . ?
Ag1 N1 2.175(7) 2_665 ?
Ag1 Ag2 3.1412(11) . ?
Ag1 Ag2 3.1412(11) 3_565 ?
Ag1 Ag2 3.1412(11) 2_665 ?
Ag2 N2 2.073(11) 12_566 ?
Ag2 N2 2.073(14) 3_565 ?
Ag2 Ag1 3.1412(11) 10_666 ?
Ag3 N3 2.059(4) 9_556 ?
Ag3 N3 2.059(4) . ?
C1 C3 1.419(10) . ?
C1 N3 1.4200 . ?
C1 N1 1.4200 . ?
N3 C2 1.4200 . ?
C2 C7 1.389(9) . ?
C2 N2 1.4200 . ?
N2 N1 1.4200 . ?
N2 Ag2 2.073(4) 2_665 ?
C3 C6 1.537(8) . ?
C3 C4 1.540(7) . ?
C3 C5 1.546(8) . ?
C7 C9 1.528(8) . ?
C7 C8 1.548(8) . ?
C7 C10 1.549(8) . ?

loop_
_geom_angle_atom_site_label_1
_geom_angle_atom_site_label_2
_geom_angle_atom_site_label_3
_geom_angle
_geom_angle_site_symmetry_1
_geom_angle_site_symmetry_3
_geom_angle_publ_flag
N1 Ag1 N1 120.0(3) 3_565 . ?
N1 Ag1 N1 120.0 3_565 2_665 ?
N1 Ag1 N1 120.0(3) . 2_665 ?
N1 Ag1 Ag2 64.0(3) 3_565 . ?
N1 Ag1 Ag2 71.57(15) . . ?
N1 Ag1 Ag2 136.0(4) 2_665 . ?
N1 Ag1 Ag2 71.6(4) 3_565 3_565 ?
N1 Ag1 Ag2 136.02(13) . 3_565 ?
N1 Ag1 Ag2 64.0(3) 2_665 3_565 ?
Ag2 Ag1 Ag2 79.06(3) . 3_565 ?
N1 Ag1 Ag2 136.0(3) 3_565 2_665 ?
N1 Ag1 Ag2 63.97(13) . 2_665 ?
N1 Ag1 Ag2 71.6(4) 2_665 2_665 ?
Ag2 Ag1 Ag2 79.06(3) . 2_665 ?
Ag2 Ag1 Ag2 79.06(3) 3_565 2_665 ?
N2 Ag2 N2 176.7(4) 12_566 3_565 ?
N2 Ag2 Ag1 68.1(3) 12_566 10_666 ?
N2 Ag2 Ag1 114.5(4) 3_565 10_666 ?
N2 Ag2 Ag1 114.5(2) 12_566 . ?
N2 Ag2 Ag1 68.1(3) 3_565 . ?
Ag1 Ag2 Ag1 85.40(4) 10_666 . ?
N3 Ag3 N3 179.5(6) 9_556 . ?
C3 C1 N3 125.3(4) . . ?
C3 C1 N1 126.7(4) . . ?
N3 C1 N1 108.0 . . ?
C2 N3 C1 108.0 . . ?
C2 N3 Ag3 125.1(2) . . ?
C1 N3 Ag3 126.9(2) . . ?
C7 C2 N2 117.6(5) . . ?
C7 C2 N3 133.7(5) . . ?
N2 C2 N3 108.0 . . ?
N1 N2 C2 108.0 . . ?
N1 N2 Ag2 112.9(3) . 2_665 ?
C2 N2 Ag2 138.5(3) . 2_665 ?
N2 N1 C1 108.0 . . ?
N2 N1 Ag1 114.5(3) . . ?
C1 N1 Ag1 134.9(2) . . ?
C1 C3 C6 107.1(7) . . ?
C1 C3 C4 112.7(8) . . ?
C6 C3 C4 112.5(8) . . ?
C1 C3 C5 114.0(7) . . ?
C6 C3 C5 104.6(8) . . ?
C4 C3 C5 105.7(7) . . ?
C2 C7 C9 103.5(7) . . ?
C2 C7 C8 110.8(7) . . ?
C9 C7 C8 108.9(7) . . ?
C2 C7 C10 119.3(7) . . ?
C9 C7 C10 110.2(7) . . ?
C8 C7 C10 104.0(8) . . ?

# SQUEEZE RESULTS (APPEND TO CIF)
# Note: Data are Listed for all Voids in the P1 Unit Cell
# i.e. Centre of Gravity, Solvent Accessible Volume,
# Recovered number of Electrons in the Void and
# Details about the Squeezed Material
loop_
_platon_squeeze_void_nr
_platon_squeeze_void_average_x
_platon_squeeze_void_average_y
_platon_squeeze_void_average_z
_platon_squeeze_void_volume
_platon_squeeze_void_count_electrons
_platon_squeeze_void_content
1 0.000 0.000 -0.016 2458 479 ' '
2 0.333 0.667 0.250 37 2 ' '
3 0.667 0.333 0.750 37 2 ' '
_platon_squeeze_details          
;
;

_diffrn_measured_fraction_theta_max 0.999
_diffrn_reflns_theta_full        26.14
_diffrn_measured_fraction_theta_full 0.999
_refine_diff_density_max         1.002
_refine_diff_density_min         -1.286
_refine_diff_density_rms         0.165


