####################################################################### 
# 
# This file contains crystal structure data downloaded from the 
# Cambridge Structural Database (CSD) hosted by the Cambridge 
# Crystallographic Data Centre (CCDC).
# 
# Full information about CCDC data access policies and citation 
# guidelines are available at http://www.ccdc.cam.ac.uk/access/V1 
# 
# Audit and citation data items may have been added by the CCDC. 
# Please retain this information to preserve the provenance of 
# this file and to allow appropriate attribution of the data. 
# 
#######################################################################

data_1
_audit_block_doi                 10.5517/cc11z6v2
_database_code_depnum_ccdc_archive 'CCDC 982354'
loop_
_citation_id
_citation_doi
_citation_year
1 10.1002/chem.201403123 2014
_audit_update_record             
;
2014-01-20 deposited with the CCDC.	2024-07-11 downloaded from the CCDC.
;

_audit_creation_method           SHELXL-97
_chemical_name_systematic        
; 
 ? 
;
_chemical_name_common            ?
_chemical_melting_point          ?
_chemical_formula_moiety         ?
_chemical_formula_sum            'C3 H Cl Mn N3'
_chemical_formula_weight         169.46

loop_
_atom_type_symbol
_atom_type_description
_atom_type_scat_dispersion_real
_atom_type_scat_dispersion_imag
_atom_type_scat_source
C C 0.0033 0.0016 'International Tables Vol C Tables 4.2.6.8 and 6.1.1.4'
H H 0.0000 0.0000 'International Tables Vol C Tables 4.2.6.8 and 6.1.1.4'
N N 0.0061 0.0033 'International Tables Vol C Tables 4.2.6.8 and 6.1.1.4'
Cl Cl 0.1484 0.1585 'International Tables Vol C Tables 4.2.6.8 and 6.1.1.4'
Mn Mn 0.3368 0.7283 'International Tables Vol C Tables 4.2.6.8 and 6.1.1.4'

_symmetry_cell_setting           ?
_symmetry_space_group_name_H-M   R-3m

loop_
_symmetry_equiv_pos_as_xyz
'x, y, z'
'-y, x-y, z'
'-x+y, -x, z'
'y, x, -z'
'x-y, -y, -z'
'-x, -x+y, -z'
'x+2/3, y+1/3, z+1/3'
'-y+2/3, x-y+1/3, z+1/3'
'-x+y+2/3, -x+1/3, z+1/3'
'y+2/3, x+1/3, -z+1/3'
'x-y+2/3, -y+1/3, -z+1/3'
'-x+2/3, -x+y+1/3, -z+1/3'
'x+1/3, y+2/3, z+2/3'
'-y+1/3, x-y+2/3, z+2/3'
'-x+y+1/3, -x+2/3, z+2/3'
'y+1/3, x+2/3, -z+2/3'
'x-y+1/3, -y+2/3, -z+2/3'
'-x+1/3, -x+y+2/3, -z+2/3'
'-x, -y, -z'
'y, -x+y, -z'
'x-y, x, -z'
'-y, -x, z'
'-x+y, y, z'
'x, x-y, z'
'-x+2/3, -y+1/3, -z+1/3'
'y+2/3, -x+y+1/3, -z+1/3'
'x-y+2/3, x+1/3, -z+1/3'
'-y+2/3, -x+1/3, z+1/3'
'-x+y+2/3, y+1/3, z+1/3'
'x+2/3, x-y+1/3, z+1/3'
'-x+1/3, -y+2/3, -z+2/3'
'y+1/3, -x+y+2/3, -z+2/3'
'x-y+1/3, x+2/3, -z+2/3'
'-y+1/3, -x+2/3, z+2/3'
'-x+y+1/3, y+2/3, z+2/3'
'x+1/3, x-y+2/3, z+2/3'

_cell_length_a                   25.458(3)
_cell_length_b                   25.458(3)
_cell_length_c                   8.4044(9)
_cell_angle_alpha                90.00
_cell_angle_beta                 90.00
_cell_angle_gamma                120.00
_cell_volume                     4717.4(9)
_cell_formula_units_Z            18
_cell_measurement_temperature    123(2)
_cell_measurement_reflns_used    ?
_cell_measurement_theta_min      ?
_cell_measurement_theta_max      ?

_exptl_crystal_description       rod-like
_exptl_crystal_colour            yellow
_exptl_crystal_size_max          0.23
_exptl_crystal_size_mid          0.13
_exptl_crystal_size_min          0.12
_exptl_crystal_density_meas      ?
_exptl_crystal_density_diffrn    1.074
_exptl_crystal_density_method    'not measured'
_exptl_crystal_F_000             1476
_exptl_absorpt_coefficient_mu    1.447
_exptl_absorpt_correction_type   multi-scan
_exptl_absorpt_correction_T_min  0.7320
_exptl_absorpt_correction_T_max  0.8455
_exptl_absorpt_process_details   SADABS

_exptl_special_details           
; 
 ? 
;

_diffrn_ambient_temperature      123(2)
_diffrn_radiation_wavelength     0.71073
_diffrn_radiation_type           MoK\a
_diffrn_radiation_source         'fine-focus sealed tube'
_diffrn_radiation_monochromator  graphite
_diffrn_measurement_device_type  CCD
_diffrn_measurement_method       '/w scan'
_diffrn_detector_area_resol_mean ?
_diffrn_standards_number         ?
_diffrn_standards_interval_count ?
_diffrn_standards_interval_time  ?
_diffrn_standards_decay_%        ?
_diffrn_reflns_number            9589
_diffrn_reflns_av_R_equivalents  0.0489
_diffrn_reflns_av_sigmaI/netI    0.0330
_diffrn_reflns_limit_h_min       -30
_diffrn_reflns_limit_h_max       29
_diffrn_reflns_limit_k_min       -31
_diffrn_reflns_limit_k_max       31
_diffrn_reflns_limit_l_min       -10
_diffrn_reflns_limit_l_max       10
_diffrn_reflns_theta_min         2.59
_diffrn_reflns_theta_max         25.97
_reflns_number_total             1075
_reflns_number_gt                908
_reflns_threshold_expression     >2sigma(I)

_computing_data_collection       ?
_computing_cell_refinement       ?
_computing_data_reduction        ?
_computing_structure_solution    'SHELXS-97 (Sheldrick, 1990)'
_computing_structure_refinement  'SHELXL-97 (Sheldrick, 1997)'
_computing_molecular_graphics    ?
_computing_publication_material  ?

_refine_special_details          
; 
 Refinement of F^2^ against ALL reflections.  The weighted R-factor wR and 
 goodness of fit S are based on F^2^, conventional R-factors R are based 
 on F, with F set to zero for negative F^2^. The threshold expression of 
 F^2^ > 2sigma(F^2^) is used only for calculating R-factors(gt) etc. and is 
 not relevant to the choice of reflections for refinement.  R-factors based 
 on F^2^ are statistically about twice as large as those based on F, and R- 
 factors based on ALL data will be even larger. 
;

_refine_ls_structure_factor_coef Fsqd
_refine_ls_matrix_type           full
_refine_ls_weighting_scheme      calc
_refine_ls_weighting_details     
'calc w=1/[\s^2^(Fo^2^)+(0.0387P)^2^+27.3401P] where P=(Fo^2^+2Fc^2^)/3'
_atom_sites_solution_primary     direct
_atom_sites_solution_secondary   difmap
_atom_sites_solution_hydrogens   geom
_refine_ls_hydrogen_treatment    constr
_refine_ls_extinction_method     none
_refine_ls_extinction_coef       ?
_refine_ls_number_reflns         1075
_refine_ls_number_parameters     40
_refine_ls_number_restraints     0
_refine_ls_R_factor_all          0.0546
_refine_ls_R_factor_gt           0.0435
_refine_ls_wR_factor_ref         0.1042
_refine_ls_wR_factor_gt          0.0992
_refine_ls_goodness_of_fit_ref   1.047
_refine_ls_restrained_S_all      1.047
_refine_ls_shift/su_max          0.000
_refine_ls_shift/su_mean         0.000

loop_
_atom_site_label
_atom_site_type_symbol
_atom_site_fract_x
_atom_site_fract_y
_atom_site_fract_z
_atom_site_U_iso_or_equiv
_atom_site_adp_type
_atom_site_occupancy
_atom_site_symmetry_multiplicity
_atom_site_calc_flag
_atom_site_refinement_flags
_atom_site_disorder_assembly
_atom_site_disorder_group
Mn1 Mn 0.95445(3) 0.3333 0.3333 0.0239(2) Uani 1 2 d S . .
Cl1 Cl 1.0000 0.42520(5) 0.5000 0.0370(3) Uani 1 2 d S . .
N1 N 0.91956(12) 0.27584(12) 0.5493(3) 0.0272(6) Uani 1 1 d . . .
N2 N 0.95971(15) 0.29304(15) 0.6667 0.0260(8) Uani 1 2 d S . .
C1 C 0.87195(15) 0.21984(15) 0.5911(4) 0.0264(7) Uani 1 1 d . . .
C2 C 0.81814(11) 0.18186(11) 0.5095(5) 0.0287(10) Uani 1 2 d S . .
H2A H 0.8084 0.1916 0.4087 0.034 Uiso 1 2 calc SR . .

loop_
_atom_site_aniso_label
_atom_site_aniso_U_11
_atom_site_aniso_U_22
_atom_site_aniso_U_33
_atom_site_aniso_U_23
_atom_site_aniso_U_13
_atom_site_aniso_U_12
Mn1 0.0297(3) 0.0293(4) 0.0125(3) 0.0017(3) 0.00083(13) 0.0146(2)
Cl1 0.0632(9) 0.0372(5) 0.0193(6) -0.0047(3) -0.0095(5) 0.0316(4)
N1 0.0309(15) 0.0323(15) 0.0147(13) -0.0008(11) -0.0016(11) 0.0130(13)
N2 0.0296(15) 0.0296(15) 0.0141(18) 0.0001(8) -0.0001(8) 0.0112(17)
C1 0.0323(18) 0.0289(17) 0.0139(14) 0.0014(12) 0.0017(13) 0.0122(15)
C2 0.0336(18) 0.0336(18) 0.015(2) 0.0019(10) -0.0019(10) 0.014(2)

_geom_special_details            
; 
 All esds (except the esd in the dihedral angle between two l.s. planes) 
 are estimated using the full covariance matrix.  The cell esds are taken 
 into account individually in the estimation of esds in distances, angles 
 and torsion angles; correlations between esds in cell parameters are only 
 used when they are defined by crystal symmetry.  An approximate (isotropic) 
 treatment of cell esds is used for estimating esds involving l.s. planes. 
;

loop_
_geom_bond_atom_site_label_1
_geom_bond_atom_site_label_2
_geom_bond_distance
_geom_bond_site_symmetry_2
_geom_bond_publ_flag
Mn1 N2 2.185(4) 14_644 ?
Mn1 N1 2.219(3) 17 ?
Mn1 N1 2.219(3) . ?
Mn1 Cl1 2.4626(9) . ?
Mn1 Cl1 2.4627(9) 14_644 ?
Cl1 Mn1 2.4626(9) 9_665 ?
N1 N2 1.327(3) . ?
N1 C1 1.377(4) . ?
N2 N1 1.327(3) 10_546 ?
N2 Mn1 2.185(4) 9_665 ?
C1 C2 1.399(4) . ?
C1 C1 1.423(6) 10_546 ?
C2 C1 1.399(4) 22_665 ?

loop_
_geom_angle_atom_site_label_1
_geom_angle_atom_site_label_2
_geom_angle_atom_site_label_3
_geom_angle
_geom_angle_site_symmetry_1
_geom_angle_site_symmetry_3
_geom_angle_publ_flag
N2 Mn1 N1 94.04(7) 14_644 17 ?
N2 Mn1 N1 94.04(7) 14_644 . ?
N1 Mn1 N1 171.92(15) 17 . ?
N2 Mn1 Cl1 90.23(2) 14_644 . ?
N1 Mn1 Cl1 89.72(7) 17 . ?
N1 Mn1 Cl1 90.25(7) . . ?
N2 Mn1 Cl1 90.22(2) 14_644 14_644 ?
N1 Mn1 Cl1 90.25(7) 17 14_644 ?
N1 Mn1 Cl1 89.72(7) . 14_644 ?
Cl1 Mn1 Cl1 179.54(4) . 14_644 ?
Mn1 Cl1 Mn1 88.83(5) 9_665 . ?
N2 N1 C1 106.6(3) . . ?
N2 N1 Mn1 113.7(2) . . ?
C1 N1 Mn1 138.3(2) . . ?
N1 N2 N1 113.3(4) 10_546 . ?
N1 N2 Mn1 123.36(18) 10_546 9_665 ?
N1 N2 Mn1 123.36(18) . 9_665 ?
N1 C1 C2 129.9(3) . . ?
N1 C1 C1 106.75(17) . 10_546 ?
C2 C1 C1 123.4(2) . 10_546 ?
C1 C2 C1 113.2(4) . 22_665 ?

_diffrn_measured_fraction_theta_max 0.967
_diffrn_reflns_theta_full        25.97
_diffrn_measured_fraction_theta_full 0.967
_refine_diff_density_max         0.726
_refine_diff_density_min         -0.275
_refine_diff_density_rms         0.079
