####################################################################### 
# 
# This file contains crystal structure data downloaded from the 
# Cambridge Structural Database (CSD) hosted by the Cambridge 
# Crystallographic Data Centre (CCDC).
# 
# Full information about CCDC data access policies and citation 
# guidelines are available at http://www.ccdc.cam.ac.uk/access/V1 
# 
# Audit and citation data items may have been added by the CCDC. 
# Please retain this information to preserve the provenance of 
# this file and to allow appropriate attribution of the data. 
# 
#######################################################################

data_complex_1
_audit_block_doi                 10.5517/ccnf7dp
_database_code_depnum_ccdc_archive 'CCDC 608542'
loop_
_citation_id
_citation_doi
_citation_year
1 10.1021/ic8008859 2008
_audit_update_record             
;
2006-05-22 deposited with the CCDC.	2024-07-11 downloaded from the CCDC.
;

_audit_creation_method           SHELXL-97
_chemical_name_systematic        
;
?
;
_chemical_name_common            ?
_chemical_melting_point          ?
_chemical_formula_moiety         ?
_chemical_formula_sum            'C100 H130 Co O19 Rb2'
_chemical_formula_weight         1865.91

loop_
_atom_type_symbol
_atom_type_description
_atom_type_scat_dispersion_real
_atom_type_scat_dispersion_imag
_atom_type_scat_source
C C 0.0033 0.0016 'International Tables Vol C Tables 4.2.6.8 and 6.1.1.4'
Co Co 0.3494 0.9721 'International Tables Vol C Tables 4.2.6.8 and 6.1.1.4'
Rb Rb -0.9393 2.9676 'International Tables Vol C Tables 4.2.6.8 and 6.1.1.4'
O O 0.0106 0.0060 'International Tables Vol C Tables 4.2.6.8 and 6.1.1.4'
H H 0.0000 0.0000 'International Tables Vol C Tables 4.2.6.8 and 6.1.1.4'

_symmetry_cell_setting           Cubic
_symmetry_space_group_name_H-M   I2(1)3

loop_
_symmetry_equiv_pos_as_xyz
'x, y, z'
'-x, -y+1/2, z'
'x, -y, -z+1/2'
'-x, y+1/2, -z+1/2'
'z, x, y'
'-z, -x+1/2, y'
'z, -x, -y+1/2'
'-z, x+1/2, -y+1/2'
'y, z, x'
'y, -z, -x+1/2'
'-y, z+1/2, -x+1/2'
'-y, -z+1/2, x'
'x+1/2, y+1/2, z+1/2'
'-x+1/2, -y+1, z+1/2'
'x+1/2, -y+1/2, -z+1'
'-x+1/2, y+1, -z+1'
'z+1/2, x+1/2, y+1/2'
'-z+1/2, -x+1, y+1/2'
'z+1/2, -x+1/2, -y+1'
'-z+1/2, x+1, -y+1'
'y+1/2, z+1/2, x+1/2'
'y+1/2, -z+1/2, -x+1'
'-y+1/2, z+1, -x+1'
'-y+1/2, -z+1, x+1/2'

_cell_length_a                   27.083(5)
_cell_length_b                   27.083(5)
_cell_length_c                   27.083(5)
_cell_angle_alpha                90.00
_cell_angle_beta                 90.00
_cell_angle_gamma                90.00
_cell_volume                     19865(6)
_cell_formula_units_Z            6
_cell_measurement_temperature    293(2)
_cell_measurement_reflns_used    ?
_cell_measurement_theta_min      ?
_cell_measurement_theta_max      ?

_exptl_crystal_description       ?
_exptl_crystal_colour            ?
_exptl_crystal_size_max          ?
_exptl_crystal_size_mid          ?
_exptl_crystal_size_min          ?
_exptl_crystal_density_meas      0
_exptl_crystal_density_diffrn    0.936
_exptl_crystal_density_method    'not measured'
_exptl_crystal_F_000             5898
_exptl_absorpt_coefficient_mu    0.908
_exptl_absorpt_correction_type   none
_exptl_absorpt_correction_T_min  ?
_exptl_absorpt_correction_T_max  ?
_exptl_absorpt_process_details   ?

_exptl_special_details           
;
?
;

_diffrn_ambient_temperature      293(2)
_diffrn_radiation_wavelength     0.71073
_diffrn_radiation_type           MoK\a
_diffrn_radiation_source         'fine-focus sealed tube'
_diffrn_radiation_monochromator  graphite
_diffrn_measurement_device_type  'CCD area detector'
_diffrn_measurement_method       'phi and omega scans'
_diffrn_detector_area_resol_mean ?
_diffrn_standards_number         ?
_diffrn_standards_interval_count ?
_diffrn_standards_interval_time  ?
_diffrn_standards_decay_%        ?
_diffrn_reflns_number            33888
_diffrn_reflns_av_R_equivalents  0.1265
_diffrn_reflns_av_sigmaI/netI    0.0817
_diffrn_reflns_limit_h_min       -27
_diffrn_reflns_limit_h_max       16
_diffrn_reflns_limit_k_min       -27
_diffrn_reflns_limit_k_max       27
_diffrn_reflns_limit_l_min       -27
_diffrn_reflns_limit_l_max       27
_diffrn_reflns_theta_min         1.84
_diffrn_reflns_theta_max         20.82
_reflns_number_total             3502
_reflns_number_gt                2569
_reflns_threshold_expression     >2sigma(I)

_computing_data_collection       'Bruker SMART'
_computing_cell_refinement       'Bruker SMART'
_computing_data_reduction        'Bruker SAINT'
_computing_structure_solution    'SHELXS-97 (Sheldrick, 1990)'
_computing_structure_refinement  'SHELXL-97 (Sheldrick, 1997)'
_computing_molecular_graphics    'Bruker SHELXTL'
_computing_publication_material  'Bruker SHELXTL'

_refine_special_details          
;
Refinement of F^2^ against ALL reflections. The weighted R-factor wR and
goodness of fit S are based on F^2^, conventional R-factors R are based
on F, with F set to zero for negative F^2^. The threshold expression of
F^2^ > 2sigma(F^2^) is used only for calculating R-factors(gt) etc. and is
not relevant to the choice of reflections for refinement. R-factors based
on F^2^ are statistically about twice as large as those based on F, and R-
factors based on ALL data will be even larger.
;

_refine_ls_structure_factor_coef Fsqd
_refine_ls_matrix_type           full
_refine_ls_weighting_scheme      calc
_refine_ls_weighting_details     
'calc w=1/[\s^2^(Fo^2^)+(0.0800P)^2^+0.0000P] where P=(Fo^2^+2Fc^2^)/3'
_atom_sites_solution_primary     direct
_atom_sites_solution_secondary   difmap
_atom_sites_solution_hydrogens   geom
_refine_ls_hydrogen_treatment    mixed
_refine_ls_extinction_method     none
_refine_ls_extinction_coef       ?
_refine_ls_abs_structure_details 'Flack H D (1983), Acta Cryst. A39, 876-881'
_refine_ls_abs_structure_Flack   0.00
_refine_ls_number_reflns         3502
_refine_ls_number_parameters     279
_refine_ls_number_restraints     0
_refine_ls_R_factor_all          0.0717
_refine_ls_R_factor_gt           0.0572
_refine_ls_wR_factor_ref         0.1510
_refine_ls_wR_factor_gt          0.1462
_refine_ls_goodness_of_fit_ref   1.025
_refine_ls_restrained_S_all      1.025
_refine_ls_shift/su_max          0.000
_refine_ls_shift/su_mean         0.000

loop_
_atom_site_label
_atom_site_type_symbol
_atom_site_fract_x
_atom_site_fract_y
_atom_site_fract_z
_atom_site_U_iso_or_equiv
_atom_site_adp_type
_atom_site_occupancy
_atom_site_symmetry_multiplicity
_atom_site_calc_flag
_atom_site_refinement_flags
_atom_site_disorder_assembly
_atom_site_disorder_group
Rb1 Rb 0.2500 0.03401(5) 0.5000 0.0638(4) Uani 1 2 d S . .
Co2 Co 0.10067(4) -0.10067(4) 0.39933(4) 0.0278(5) Uani 0.75 3 d SP . .
O1 O 0.1729(2) 0.0800(2) 0.4533(2) 0.0712(18) Uani 1 1 d . . .
O2 O 0.1853(2) -0.0193(2) 0.4421(3) 0.082(2) Uani 1 1 d . . .
C25 C 0.2347(3) 0.1026(4) 0.6094(3) 0.064(2) Uani 1 1 d . . .
O5 O 0.0900(2) -0.17780(19) 0.3902(2) 0.0385(17) Uani 0.75 1 d P . .
O4 O 0.2112(3) 0.1753(3) 0.5638(3) 0.096(2) Uani 1 1 d . . .
C24 C 0.1663(3) 0.1316(3) 0.4486(4) 0.056(2) Uani 1 1 d . . .
C23 C 0.1505(4) 0.0577(4) 0.5766(4) 0.080(3) Uani 1 1 d . . .
H23A H 0.1188 0.0427 0.5677 0.096 Uiso 1 1 calc R . .
C22 C 0.2008(4) 0.1281(4) 0.5786(3) 0.068(3) Uani 1 1 d . . .
C21 C 0.1398(4) 0.1550(3) 0.4827(4) 0.068(3) Uani 1 1 d . . .
C20 C 0.1351(4) 0.0539(4) 0.4309(4) 0.095(3) Uani 1 1 d . . .
H20A H 0.1303 0.0662 0.3976 0.114 Uiso 1 1 calc R . .
H20B H 0.1047 0.0591 0.4492 0.114 Uiso 1 1 calc R . .
C19 C 0.1687(4) -0.0220(4) 0.6224(4) 0.084(3) Uani 1 1 d . . .
C18 C 0.1299(3) 0.2045(4) 0.4735(5) 0.088(3) Uani 1 1 d . . .
H18A H 0.1113 0.2224 0.4962 0.106 Uiso 1 1 calc R . .
C17 C 0.1865(4) 0.1534(4) 0.4076(4) 0.072(3) Uani 1 1 d . . .
C16 C 0.1821(4) 0.0302(4) 0.6071(4) 0.068(3) Uani 1 1 d . . .
C15 C 0.1584(3) 0.1032(4) 0.5618(4) 0.070(3) Uani 1 1 d . . .
C14 C 0.2227(4) 0.0528(4) 0.6207(3) 0.072(3) Uani 1 1 d . . .
H14A H 0.2435 0.0360 0.6450 0.087 Uiso 1 1 calc R . .
O3 O 0.1090(2) -0.0263(2) 0.4083(2) 0.0678(17) Uani 1 1 d . . .
C13 C 0.1469(5) -0.0023(4) 0.4291(3) 0.076(3) Uani 1 1 d . . .
C12 C 0.1476(4) 0.2287(3) 0.4296(5) 0.083(3) Uani 1 1 d . . .
C11 C 0.1744(4) 0.2033(4) 0.3998(4) 0.082(3) Uani 1 1 d . . .
H11A H 0.1864 0.2187 0.3716 0.099 Uiso 1 1 calc R . .
C10 C 0.1196(3) 0.1317(4) 0.5294(4) 0.082(3) Uani 1 1 d . . .
H10A H 0.0936 0.1088 0.5202 0.098 Uiso 1 1 calc R . .
H10B H 0.1048 0.1574 0.5494 0.098 Uiso 1 1 calc R . .
C9 C 0.1844(8) 0.3129(5) 0.4241(10) 0.269(12) Uani 1 1 d . . .
H9A H 0.1791 0.3477 0.4198 0.404 Uiso 1 1 calc R . .
H9B H 0.2049 0.3008 0.3979 0.404 Uiso 1 1 calc R . .
H9C H 0.2002 0.3071 0.4553 0.404 Uiso 1 1 calc R . .
C8 C 0.2178(4) 0.1277(4) 0.3730(4) 0.087(3) Uani 1 1 d . . .
H8A H 0.2270 0.1512 0.3476 0.104 Uiso 1 1 calc R . .
H8B H 0.1978 0.1026 0.3572 0.104 Uiso 1 1 calc R . .
C7 C 0.1807(5) -0.0555(4) 0.5758(4) 0.117(4) Uani 1 1 d . . .
H7A H 0.1600 -0.0459 0.5487 0.175 Uiso 1 1 calc R . .
H7B H 0.1747 -0.0895 0.5838 0.175 Uiso 1 1 calc R . .
H7C H 0.2147 -0.0514 0.5667 0.175 Uiso 1 1 calc R . .
C6 C 0.2024(5) -0.0418(5) 0.6661(5) 0.156(6) Uani 1 1 d . . .
H6A H 0.1927 -0.0748 0.6745 0.234 Uiso 1 1 calc R . .
H6B H 0.1985 -0.0208 0.6944 0.234 Uiso 1 1 calc R . .
H6C H 0.2363 -0.0416 0.6559 0.234 Uiso 1 1 calc R . .
C5 C 0.0925(7) 0.3044(5) 0.4558(7) 0.215(10) Uani 1 1 d . . .
H5A H 0.0865 0.3383 0.4475 0.323 Uiso 1 1 calc R . .
H5B H 0.1033 0.3022 0.4895 0.323 Uiso 1 1 calc R . .
H5C H 0.0626 0.2858 0.4518 0.323 Uiso 1 1 calc R . .
C4 C 0.1126(8) 0.2863(5) 0.3734(8) 0.233(11) Uani 1 1 d . . .
H4A H 0.1019 0.3194 0.3663 0.349 Uiso 1 1 calc R . .
H4B H 0.0851 0.2641 0.3702 0.349 Uiso 1 1 calc R . .
H4C H 0.1381 0.2770 0.3508 0.349 Uiso 1 1 calc R . .
C3 C 0.1184(4) -0.0312(4) 0.6358(4) 0.105(4) Uani 1 1 d . . .
H3A H 0.0970 -0.0207 0.6095 0.158 Uiso 1 1 calc R . .
H3B H 0.1105 -0.0132 0.6653 0.158 Uiso 1 1 calc R . .
H3C H 0.1138 -0.0659 0.6415 0.158 Uiso 1 1 calc R . .
C2 C 0.1312(6) 0.2841(4) 0.4230(6) 0.123(5) Uani 1 1 d . . .
C1 C 0.1985(8) 0.2131(6) 0.5874(8) 0.240(12) Uani 1 1 d . . .
H1A H 0.2088 0.2420 0.5698 0.360 Uiso 1 1 calc R . .
H1B H 0.2137 0.2126 0.6194 0.360 Uiso 1 1 calc R . .
H1C H 0.1633 0.2134 0.5911 0.360 Uiso 1 1 calc R . .

loop_
_atom_site_aniso_label
_atom_site_aniso_U_11
_atom_site_aniso_U_22
_atom_site_aniso_U_33
_atom_site_aniso_U_23
_atom_site_aniso_U_13
_atom_site_aniso_U_12
Rb1 0.0631(9) 0.0649(9) 0.0634(9) 0.000 -0.0140(7) 0.000
Co2 0.0278(5) 0.0278(5) 0.0278(5) 0.0048(6) -0.0048(6) -0.0048(6)
O1 0.061(4) 0.065(4) 0.088(5) 0.000(4) -0.034(4) 0.000(3)
O2 0.054(4) 0.075(5) 0.118(6) -0.003(4) -0.028(4) 0.020(4)
C25 0.082(7) 0.065(7) 0.046(6) -0.012(5) 0.004(5) 0.003(6)
O5 0.055(4) 0.019(3) 0.041(4) 0.002(3) 0.000(3) -0.003(3)
O4 0.119(6) 0.046(5) 0.122(6) -0.012(5) -0.007(5) -0.004(4)
C24 0.062(6) 0.031(6) 0.076(7) 0.001(5) -0.002(6) 0.017(5)
C23 0.079(8) 0.069(8) 0.093(8) 0.015(6) 0.006(6) -0.018(6)
C22 0.090(8) 0.067(8) 0.048(6) -0.010(6) 0.022(6) 0.001(7)
C21 0.090(8) 0.042(6) 0.071(7) 0.005(5) -0.010(6) 0.006(6)
C20 0.099(9) 0.067(8) 0.120(9) -0.011(7) -0.004(8) -0.015(6)
C19 0.079(8) 0.064(7) 0.110(9) 0.027(7) 0.003(7) -0.018(6)
C18 0.054(6) 0.079(8) 0.133(11) -0.026(8) -0.024(7) 0.019(6)
C17 0.067(7) 0.070(8) 0.079(8) -0.017(6) 0.008(6) 0.004(6)
C16 0.060(6) 0.076(7) 0.070(7) -0.001(6) -0.007(5) -0.024(6)
C15 0.058(7) 0.079(8) 0.072(7) -0.006(6) -0.002(5) -0.008(6)
C14 0.100(8) 0.062(7) 0.055(6) 0.000(5) 0.011(6) -0.007(6)
O3 0.065(4) 0.051(4) 0.088(4) 0.012(3) -0.026(4) -0.014(3)
C13 0.117(10) 0.049(7) 0.060(7) -0.004(6) 0.023(7) -0.007(7)
C12 0.097(9) 0.045(7) 0.106(9) 0.030(7) -0.001(7) 0.004(6)
C11 0.091(8) 0.059(7) 0.098(8) 0.034(7) 0.038(7) 0.036(6)
C10 0.061(6) 0.089(7) 0.096(8) -0.001(7) 0.005(6) 0.004(6)
C9 0.27(3) 0.075(11) 0.47(4) -0.002(16) 0.05(3) 0.078(15)
C8 0.112(9) 0.074(7) 0.074(7) -0.004(6) -0.032(7) 0.039(7)
C7 0.157(12) 0.067(8) 0.126(10) 0.002(8) 0.029(9) -0.021(8)
C6 0.194(14) 0.171(14) 0.103(10) 0.055(10) -0.083(10) -0.036(11)
C5 0.29(2) 0.067(9) 0.29(2) -0.001(11) 0.12(2) 0.059(12)
C4 0.32(3) 0.078(11) 0.30(3) 0.040(13) -0.13(2) 0.081(14)
C3 0.119(11) 0.105(9) 0.092(8) -0.017(7) 0.021(7) -0.006(8)
C2 0.144(13) 0.065(9) 0.159(13) 0.037(9) -0.018(11) 0.012(9)
C1 0.34(3) 0.110(14) 0.27(3) -0.008(15) -0.17(2) -0.011(16)

_geom_special_details            
;
All esds (except the esd in the dihedral angle between two l.s. planes)
are estimated using the full covariance matrix. The cell esds are taken
into account individually in the estimation of esds in distances, angles
and torsion angles; correlations between esds in cell parameters are only
used when they are defined by crystal symmetry. An approximate (isotropic)
treatment of cell esds is used for estimating esds involving l.s. planes.
;

loop_
_geom_bond_atom_site_label_1
_geom_bond_atom_site_label_2
_geom_bond_distance
_geom_bond_site_symmetry_2
_geom_bond_publ_flag
Rb1 O1 2.741(5) 16_545 ?
Rb1 O1 2.741(5) . ?
Rb1 O2 2.761(7) 16_545 ?
Rb1 O2 2.761(7) . ?
Rb1 C14 3.389(8) . ?
Rb1 C14 3.389(8) 16_545 ?
Rb1 C16 3.436(9) . ?
Rb1 C16 3.436(9) 16_545 ?
Rb1 C23 3.460(10) . ?
Rb1 C23 3.460(10) 16_545 ?
Rb1 C25 3.521(8) . ?
Rb1 C25 3.521(8) 16_545 ?
Co2 O3 2.042(6) 18_545 ?
Co2 O3 2.042(6) . ?
Co2 O3 2.042(6) 11_545 ?
Co2 O5 2.123(5) 11_545 ?
Co2 O5 2.123(5) . ?
Co2 O5 2.123(5) 18_545 ?
O1 C20 1.384(11) . ?
O1 C24 1.414(9) . ?
O2 C13 1.188(12) . ?
C25 C22 1.418(12) . ?
C25 C14 1.421(12) . ?
C25 C8 1.530(12) 16_545 ?
O4 C1 1.253(19) . ?
O4 C22 1.370(11) . ?
C24 C21 1.330(12) . ?
C24 C17 1.370(12) . ?
C23 C15 1.313(12) . ?
C23 C16 1.401(13) . ?
C23 H23A 0.9800 . ?
C22 C15 1.407(13) . ?
C21 C18 1.389(12) . ?
C21 C10 1.516(12) . ?
C20 C13 1.559(13) . ?
C20 H20A 0.9700 . ?
C20 H20B 0.9700 . ?
C19 C3 1.434(13) . ?
C19 C16 1.518(12) . ?
C19 C6 1.587(14) . ?
C19 C7 1.588(14) . ?
C18 C12 1.441(14) . ?
C18 H18A 0.9300 . ?
C17 C11 1.407(12) . ?
C17 C8 1.443(12) . ?
C16 C14 1.312(11) . ?
C15 C10 1.571(13) . ?
C14 H14A 0.9800 . ?
O3 C13 1.341(12) . ?
C12 C11 1.286(12) . ?
C12 C2 1.576(15) . ?
C11 H11A 0.9300 . ?
C10 H10A 0.9700 . ?
C10 H10B 0.9700 . ?
C9 C2 1.64(2) . ?
C9 H9A 0.9600 . ?
C9 H9B 0.9600 . ?
C9 H9C 0.9600 . ?
C8 C25 1.530(12) 16_545 ?
C8 H8A 0.9700 . ?
C8 H8B 0.9700 . ?
C7 H7A 0.9600 . ?
C7 H7B 0.9600 . ?
C7 H7C 0.9600 . ?
C6 H6A 0.9600 . ?
C6 H6B 0.9600 . ?
C6 H6C 0.9600 . ?
C5 C2 1.481(19) . ?
C5 H5A 0.9600 . ?
C5 H5B 0.9600 . ?
C5 H5C 0.9600 . ?
C4 C2 1.43(2) . ?
C4 H4A 0.9600 . ?
C4 H4B 0.9600 . ?
C4 H4C 0.9600 . ?
C3 H3A 0.9600 . ?
C3 H3B 0.9600 . ?
C3 H3C 0.9600 . ?
C1 H1A 0.9600 . ?
C1 H1B 0.9600 . ?
C1 H1C 0.9600 . ?

loop_
_geom_angle_atom_site_label_1
_geom_angle_atom_site_label_2
_geom_angle_atom_site_label_3
_geom_angle
_geom_angle_site_symmetry_1
_geom_angle_site_symmetry_3
_geom_angle_publ_flag
O1 Rb1 O1 125.9(3) 16_545 . ?
O1 Rb1 O2 59.46(18) 16_545 16_545 ?
O1 Rb1 O2 169.7(2) . 16_545 ?
O1 Rb1 O2 169.7(2) 16_545 . ?
O1 Rb1 O2 59.46(18) . . ?
O2 Rb1 O2 116.9(3) 16_545 . ?
O1 Rb1 C14 69.6(2) 16_545 . ?
O1 Rb1 C14 102.2(2) . . ?
O2 Rb1 C14 70.7(2) 16_545 . ?
O2 Rb1 C14 119.2(2) . . ?
O1 Rb1 C14 102.2(2) 16_545 16_545 ?
O1 Rb1 C14 69.6(2) . 16_545 ?
O2 Rb1 C14 119.2(2) 16_545 16_545 ?
O2 Rb1 C14 70.7(2) . 16_545 ?
C14 Rb1 C14 162.7(3) . 16_545 ?
O1 Rb1 C16 91.8(2) 16_545 . ?
O1 Rb1 C16 89.7(2) . . ?
O2 Rb1 C16 81.1(2) 16_545 . ?
O2 Rb1 C16 97.1(2) . . ?
C14 Rb1 C16 22.2(2) . . ?
C14 Rb1 C16 159.2(2) 16_545 . ?
O1 Rb1 C16 89.7(2) 16_545 16_545 ?
O1 Rb1 C16 91.8(2) . 16_545 ?
O2 Rb1 C16 97.1(2) 16_545 16_545 ?
O2 Rb1 C16 81.1(2) . 16_545 ?
C14 Rb1 C16 159.2(2) . 16_545 ?
C14 Rb1 C16 22.16(19) 16_545 16_545 ?
C16 Rb1 C16 176.6(3) . 16_545 ?
O1 Rb1 C23 103.4(2) 16_545 . ?
O1 Rb1 C23 66.4(2) . . ?
O2 Rb1 C23 104.5(2) 16_545 . ?
O2 Rb1 C23 86.7(2) . . ?
C14 Rb1 C23 39.1(3) . . ?
C14 Rb1 C23 136.0(2) 16_545 . ?
C16 Rb1 C23 23.4(2) . . ?
C16 Rb1 C23 158.2(2) 16_545 . ?
O1 Rb1 C23 66.4(2) 16_545 16_545 ?
O1 Rb1 C23 103.4(2) . 16_545 ?
O2 Rb1 C23 86.7(2) 16_545 16_545 ?
O2 Rb1 C23 104.5(2) . 16_545 ?
C14 Rb1 C23 136.0(3) . 16_545 ?
C14 Rb1 C23 39.1(3) 16_545 16_545 ?
C16 Rb1 C23 158.2(2) . 16_545 ?
C16 Rb1 C23 23.4(2) 16_545 16_545 ?
C23 Rb1 C23 158.6(4) . 16_545 ?
O1 Rb1 C25 57.4(2) 16_545 . ?
O1 Rb1 C25 93.4(2) . . ?
O2 Rb1 C25 82.7(2) 16_545 . ?
O2 Rb1 C25 132.8(2) . . ?
C14 Rb1 C25 23.64(19) . . ?
C14 Rb1 C25 139.2(3) 16_545 . ?
C16 Rb1 C25 40.8(2) . . ?
C16 Rb1 C25 142.0(2) 16_545 . ?
C23 Rb1 C25 46.1(2) . . ?
C23 Rb1 C25 119.9(2) 16_545 . ?
O1 Rb1 C25 93.4(2) 16_545 16_545 ?
O1 Rb1 C25 57.4(2) . 16_545 ?
O2 Rb1 C25 132.8(2) 16_545 16_545 ?
O2 Rb1 C25 82.7(2) . 16_545 ?
C14 Rb1 C25 139.2(3) . 16_545 ?
C14 Rb1 C25 23.64(19) 16_545 16_545 ?
C16 Rb1 C25 142.0(2) . 16_545 ?
C16 Rb1 C25 40.8(2) 16_545 16_545 ?
C23 Rb1 C25 119.9(2) . 16_545 ?
C23 Rb1 C25 46.1(2) 16_545 16_545 ?
C25 Rb1 C25 116.3(3) . 16_545 ?
O3 Co2 O3 90.2(2) 18_545 . ?
O3 Co2 O3 90.2(2) 18_545 11_545 ?
O3 Co2 O3 90.2(2) . 11_545 ?
O3 Co2 O5 88.3(2) 18_545 11_545 ?
O3 Co2 O5 89.5(2) . 11_545 ?
O3 Co2 O5 178.5(2) 11_545 11_545 ?
O3 Co2 O5 89.5(2) 18_545 . ?
O3 Co2 O5 178.5(2) . . ?
O3 Co2 O5 88.3(2) 11_545 . ?
O5 Co2 O5 92.0(2) 11_545 . ?
O3 Co2 O5 178.5(2) 18_545 18_545 ?
O3 Co2 O5 88.3(2) . 18_545 ?
O3 Co2 O5 89.5(2) 11_545 18_545 ?
O5 Co2 O5 92.0(2) 11_545 18_545 ?
O5 Co2 O5 92.0(2) . 18_545 ?
C20 O1 C24 111.7(7) . . ?
C20 O1 Rb1 122.3(6) . . ?
C24 O1 Rb1 126.0(5) . . ?
C13 O2 Rb1 121.3(7) . . ?
C22 C25 C14 116.1(9) . . ?
C22 C25 C8 120.8(9) . 16_545 ?
C14 C25 C8 123.1(9) . 16_545 ?
C22 C25 Rb1 80.7(5) . . ?
C14 C25 Rb1 72.9(5) . . ?
C8 C25 Rb1 113.4(6) 16_545 . ?
C1 O4 C22 123.9(12) . . ?
C21 C24 C17 124.9(8) . . ?
C21 C24 O1 118.5(9) . . ?
C17 C24 O1 116.5(9) . . ?
C15 C23 C16 125.3(10) . . ?
C15 C23 Rb1 82.3(6) . . ?
C16 C23 Rb1 77.3(5) . . ?
C15 C23 H23A 117.3 . . ?
C16 C23 H23A 117.3 . . ?
Rb1 C23 H23A 117.3 . . ?
O4 C22 C15 121.3(10) . . ?
O4 C22 C25 119.5(10) . . ?
C15 C22 C25 119.1(9) . . ?
O4 C22 Rb1 114.6(5) . . ?
C15 C22 Rb1 76.8(5) . . ?
C25 C22 Rb1 76.3(5) . . ?
C24 C21 C18 116.1(9) . . ?
C24 C21 C10 125.1(9) . . ?
C18 C21 C10 118.8(10) . . ?
O1 C20 C13 111.1(9) . . ?
O1 C20 Rb1 39.1(4) . . ?
C13 C20 Rb1 72.4(7) . . ?
O1 C20 H20A 109.4 . . ?
C13 C20 H20A 109.4 . . ?
Rb1 C20 H20A 129.7 . . ?
O1 C20 H20B 109.4 . . ?
C13 C20 H20B 109.4 . . ?
Rb1 C20 H20B 118.8 . . ?
H20A C20 H20B 108.0 . . ?
C3 C19 C16 117.2(10) . . ?
C3 C19 C6 107.4(9) . . ?
C16 C19 C6 112.5(9) . . ?
C3 C19 C7 107.2(9) . . ?
C16 C19 C7 105.5(8) . . ?
C6 C19 C7 106.4(10) . . ?
C21 C18 C12 121.5(10) . . ?
C21 C18 H18A 119.3 . . ?
C12 C18 H18A 119.3 . . ?
C24 C17 C11 116.3(9) . . ?
C24 C17 C8 123.6(9) . . ?
C11 C17 C8 120.1(10) . . ?
C14 C16 C23 115.5(9) . . ?
C14 C16 C19 123.8(10) . . ?
C23 C16 C19 120.7(9) . . ?
C14 C16 