####################################################################### 
# 
# This file contains crystal structure data downloaded from the 
# Cambridge Structural Database (CSD) hosted by the Cambridge 
# Crystallographic Data Centre (CCDC).
# 
# Full information about CCDC data access policies and citation 
# guidelines are available at http://www.ccdc.cam.ac.uk/access/V1 
# 
# Audit and citation data items may have been added by the CCDC. 
# Please retain this information to preserve the provenance of 
# this file and to allow appropriate attribution of the data. 
# 
#######################################################################

data_d
_audit_block_doi                 10.5517/ccs17z0
_database_code_depnum_ccdc_archive 'CCDC 716192'
loop_
_citation_id
_citation_doi
_citation_year
1 10.1021/ic800514f 2008
_audit_update_record             
;
2009-01-14 deposited with the CCDC.	2024-07-11 downloaded from the CCDC.
;

_audit_creation_method           SHELXL-97
_chemical_name_systematic        
;
?
;
_chemical_name_common            ?
_chemical_melting_point          ?
_chemical_formula_moiety         ?
_chemical_formula_sum            'C165 H134 Cl9 Cu3 N12 O20'
_chemical_formula_weight         3114.51

loop_
_atom_type_symbol
_atom_type_description
_atom_type_scat_dispersion_real
_atom_type_scat_dispersion_imag
_atom_type_scat_source
C C 0.0033 0.0016 'International Tables Vol C Tables 4.2.6.8 and 6.1.1.4'
H H 0.0000 0.0000 'International Tables Vol C Tables 4.2.6.8 and 6.1.1.4'
N N 0.0061 0.0033 'International Tables Vol C Tables 4.2.6.8 and 6.1.1.4'
O O 0.0106 0.0060 'International Tables Vol C Tables 4.2.6.8 and 6.1.1.4'
Cl Cl 0.1484 0.1585 'International Tables Vol C Tables 4.2.6.8 and 6.1.1.4'
Cu Cu 0.3201 1.2651 'International Tables Vol C Tables 4.2.6.8 and 6.1.1.4'

_symmetry_cell_setting           Monoclinic
_symmetry_space_group_name_H-M   C2

loop_
_symmetry_equiv_pos_as_xyz
'x, y, z'
'-x, y, -z'
'x+1/2, y+1/2, z'
'-x+1/2, y+1/2, -z'

_cell_length_a                   45.8522(6)
_cell_length_b                   18.7196(3)
_cell_length_c                   34.03470(10)
_cell_angle_alpha                90.00
_cell_angle_beta                 111.2480(10)
_cell_angle_gamma                90.00
_cell_volume                     27227.3(6)
_cell_formula_units_Z            4
_cell_measurement_temperature    173(2)
_cell_measurement_reflns_used    ?
_cell_measurement_theta_min      ?
_cell_measurement_theta_max      ?

_exptl_crystal_description       Block
_exptl_crystal_colour            Blue
_exptl_crystal_size_max          0.90
_exptl_crystal_size_mid          0.80
_exptl_crystal_size_min          0.40
_exptl_crystal_density_meas      ?
_exptl_crystal_density_diffrn    0.760
_exptl_crystal_density_method    'not measured'
_exptl_crystal_F_000             6432
_exptl_absorpt_coefficient_mu    0.360
_exptl_absorpt_correction_type   multi-scan
_exptl_absorpt_correction_T_min  0.802
_exptl_absorpt_correction_T_max  0.866
_exptl_absorpt_process_details   'SADABS (Sheldrick, 1996)'

_exptl_special_details           
;
?
;

_diffrn_ambient_temperature      173(2)
_diffrn_radiation_wavelength     0.71073
_diffrn_radiation_type           MoK\a
_diffrn_radiation_source         'fine-focus sealed tube'
_diffrn_radiation_monochromator  graphite
_diffrn_measurement_device_type  ?
_diffrn_measurement_method       ?
_diffrn_detector_area_resol_mean ?
_diffrn_standards_number         ?
_diffrn_standards_interval_count ?
_diffrn_standards_interval_time  ?
_diffrn_standards_decay_%        ?
_diffrn_reflns_number            58114
_diffrn_reflns_av_R_equivalents  0.0823
_diffrn_reflns_av_sigmaI/netI    0.1783
_diffrn_reflns_limit_h_min       -47
_diffrn_reflns_limit_h_max       47
_diffrn_reflns_limit_k_min       -18
_diffrn_reflns_limit_k_max       19
_diffrn_reflns_limit_l_min       -33
_diffrn_reflns_limit_l_max       35
_diffrn_reflns_theta_min         1.43
_diffrn_reflns_theta_max         21.50
_reflns_number_total             30460
_reflns_number_gt                13407
_reflns_threshold_expression     >2sigma(I)

_computing_data_collection       ?
_computing_cell_refinement       ?
_computing_data_reduction        ?
_computing_structure_solution    'SHELXS-97 (Sheldrick, 1990)'
_computing_structure_refinement  'SHELXL-97 (Sheldrick, 1997)'
_computing_molecular_graphics    ?
_computing_publication_material  ?

_refine_special_details          
;
Refinement of F^2^ against ALL reflections. The weighted R-factor wR and
goodness of fit S are based on F^2^, conventional R-factors R are based
on F, with F set to zero for negative F^2^. The threshold expression of
F^2^ > 2sigma(F^2^) is used only for calculating R-factors(gt) etc. and is
not relevant to the choice of reflections for refinement. R-factors based
on F^2^ are statistically about twice as large as those based on F, and R-
factors based on ALL data will be even larger.
;

_refine_ls_structure_factor_coef Fsqd
_refine_ls_matrix_type           full
_refine_ls_weighting_scheme      calc
_refine_ls_weighting_details     
'calc w=1/[\s^2^(Fo^2^)+(0.1500P)^2^+0.0000P] where P=(Fo^2^+2Fc^2^)/3'
_atom_sites_solution_primary     direct
_atom_sites_solution_secondary   difmap
_atom_sites_solution_hydrogens   geom
_refine_ls_hydrogen_treatment    constr
_refine_ls_extinction_method     SHELXL
_refine_ls_extinction_coef       0.00006(3)
_refine_ls_extinction_expression Fc^*^=kFc[1+0.001xFc^2^\l^3^/sin(2\q)]^-1/4^
_refine_ls_abs_structure_details 'Flack H D (1983), Acta Cryst. A39, 876-881'
_refine_ls_abs_structure_Flack   0.150(19)
_refine_ls_number_reflns         30460
_refine_ls_number_parameters     1440
_refine_ls_number_restraints     1759
_refine_ls_R_factor_all          0.1659
_refine_ls_R_factor_gt           0.1013
_refine_ls_wR_factor_ref         0.2768
_refine_ls_wR_factor_gt          0.2501
_refine_ls_goodness_of_fit_ref   0.903
_refine_ls_restrained_S_all      0.905
_refine_ls_shift/su_max          0.003
_refine_ls_shift/su_mean         0.000

loop_
_atom_site_label
_atom_site_type_symbol
_atom_site_fract_x
_atom_site_fract_y
_atom_site_fract_z
_atom_site_U_iso_or_equiv
_atom_site_adp_type
_atom_site_occupancy
_atom_site_symmetry_multiplicity
_atom_site_calc_flag
_atom_site_refinement_flags
_atom_site_disorder_assembly
_atom_site_disorder_group
Cu1 Cu 0.56904(3) 0.79647(11) -0.30876(4) 0.1191(7) Uani 1 1 d U . .
Cu2 Cu 0.83435(3) 1.00486(10) 1.20335(4) 0.1080(6) Uani 1 1 d U . .
Cu3 Cu 0.64893(6) 1.13074(17) 0.42809(5) 0.2168(15) Uani 1 1 d U . .
O1S O 0.5423(2) 0.8944(4) -0.3474(3) 0.114(3) Uiso 1 1 d DU . .
C1S C 0.5226(4) 0.8874(11) -0.3795(5) 0.200(8) Uiso 1 1 d DU . .
N1S N 0.5127(3) 0.9456(8) -0.4073(4) 0.168(5) Uiso 1 1 d DU . .
C2S C 0.4846(5) 0.9344(13) -0.4470(6) 0.258(11) Uiso 1 1 d DU . .
C3S C 0.5177(4) 1.0178(10) -0.3907(6) 0.188(7) Uiso 1 1 d DU . .
O2S O 0.84885(19) 0.8902(4) 1.2007(3) 0.108(2) Uiso 1 1 d DU . .
C4S C 0.8646(7) 0.8515(14) 1.2289(8) 0.161(11) Uiso 0.50 1 d PDU . .
N2S N 0.8670(9) 0.7777(15) 1.2264(11) 0.263(16) Uiso 0.50 1 d PDU . .
C5S C 0.8604(14) 0.760(3) 1.1794(12) 0.32(3) Uiso 0.50 1 d PDU . .
C6S C 0.8958(10) 0.739(2) 1.2507(13) 0.25(2) Uiso 0.50 1 d PDU . .
O3S O 0.6956(3) 1.1310(8) 0.4380(4) 0.203(5) Uiso 1 1 d DU . .
C7S C 0.7016(3) 1.0642(8) 0.4381(4) 0.130(5) Uiso 1 1 d DU . .
N3S N 0.7326(4) 1.0488(9) 0.4481(5) 0.186(5) Uiso 1 1 d DU . .
C8S C 0.7502(4) 0.9827(9) 0.4536(6) 0.184(7) Uiso 1 1 d DU . .
C9S C 0.7501(5) 1.1119(10) 0.4510(7) 0.220(9) Uiso 1 1 d DU . .
O4S O 0.6395(3) 1.0277(6) 0.4296(3) 0.156(4) Uiso 1 1 d DU . .
C10S C 0.6301(3) 0.9687(8) 0.4270(4) 0.116(4) Uiso 1 1 d DU . .
N4S N 0.6234(3) 0.9000(8) 0.4257(4) 0.158(5) Uiso 1 1 d DU . .
C11S C 0.6510(5) 0.8545(11) 0.4365(7) 0.215(8) Uiso 1 1 d DU . .
C12S C 0.5935(5) 0.8605(13) 0.4096(8) 0.256(11) Uiso 1 1 d DU . .
O5S O 0.6724(7) 1.2277(13) 0.4329(10) 0.234(11) Uiso 0.50 1 d PDU . .
C13S C 0.6557(4) 1.2749(9) 0.4226(5) 0.050(4) Uiso 0.50 1 d PDU . .
N5S N 0.6622(5) 1.3493(10) 0.4300(8) 0.155(9) Uiso 0.50 1 d PDU . .
C14S C 0.6955(6) 1.3631(15) 0.4534(9) 0.152(11) Uiso 0.50 1 d PDU . .
C15S C 0.6446(6) 1.4105(13) 0.4085(9) 0.142(10) Uiso 0.50 1 d PDU . .
Cl1S Cl 0.8186(2) 1.2091(5) 1.1779(3) 0.277(3) Uiso 1 1 d DU . .
O8S O 0.81900(18) 1.1382(4) 1.2082(2) 0.111(2) Uiso 1 1 d DU . .
O9S O 0.8514(3) 1.2389(8) 1.1840(5) 0.242(6) Uiso 1 1 d DU . .
O10S O 0.8008(5) 1.2598(10) 1.1921(6) 0.317(9) Uiso 1 1 d DU . .
O11S O 0.8067(6) 1.1852(13) 1.1308(6) 0.386(13) Uiso 1 1 d DU . .
O7S O 0.6027(5) 1.1257(12) 0.4171(7) 0.182(8) Uiso 0.50 1 d PDU . .
C19S C 0.5978(4) 1.1895(10) 0.4178(5) 0.047(4) Uiso 0.50 1 d PDU . .
C20S C 0.5632(5) 1.2141(15) 0.4041(10) 0.149(11) Uiso 0.50 1 d PDU . .
O10 O 0.5668(2) 0.7433(8) -0.3605(3) 0.201(6) Uani 1 1 d U . .
O12 O 0.85136(15) 1.0108(4) 1.26609(19) 0.0845(19) Uiso 1 1 d U . .
O17 O 0.6000(2) 0.6864(5) 0.7277(3) 0.136(3) Uiso 1 1 d . . .
Cl1 Cl 0.43422(19) 0.3246(4) -0.3086(3) 0.275(3) Uiso 1 1 d U . .
Cl2 Cl 0.20627(10) 0.4782(3) -0.46451(11) 0.193(2) Uani 1 1 d U . .
Cl3 Cl 0.49820(11) 1.1467(3) -0.10650(12) 0.1745(19) Uani 1 1 d U . .
Cl4 Cl 0.72229(10) 1.1484(3) 0.17162(13) 0.1678(18) Uani 1 1 d U . .
Cl5 Cl 0.59325(9) 1.0463(3) 0.69083(13) 0.178(2) Uani 1 1 d U . .
Cl6 Cl 0.74486(19) 1.3230(4) 0.9539(2) 0.269(3) Uiso 1 1 d U . .
Cl7 Cl 0.56168(13) 0.4500(3) 1.18614(17) 0.195(2) Uiso 1 1 d U . .
Cl8 Cl 0.67505(10) 0.9384(2) 1.35192(13) 0.1528(15) Uiso 1 1 d U . .
O1 O 0.32013(19) 0.6591(5) -0.3024(3) 0.121(3) Uani 1 1 d DU . .
O2 O 0.33105(17) 0.5034(5) -0.2259(2) 0.125(3) Uani 1 1 d DU . .
O3 O 0.63075(17) 0.8877(4) 0.05072(19) 0.091(2) Uani 1 1 d DU . .
O4 O 0.55409(14) 0.9500(4) 0.07075(17) 0.0761(19) Uani 1 1 d DU . .
O5 O 0.77669(19) 1.1278(6) 0.7946(2) 0.145(3) Uani 1 1 d DU . .
O6 O 0.75181(16) 0.9593(5) 0.8296(2) 0.102(2) Uani 1 1 d DU . .
O7 O 0.53566(13) 0.8791(3) 1.18824(19) 0.0677(17) Uani 1 1 d DU . .
O8 O 0.57655(14) 0.7813(4) 1.11870(18) 0.095(2) Uani 1 1 d DU . .
C1A C 0.56074(10) 0.7708(3) 1.19043(18) 0.057(2) Uani 1 1 d GU . .
C2A C 0.53410(13) 0.8082(2) 1.19066(19) 0.059(2) Uani 1 1 d GDU . .
C3A C 0.50744(11) 0.7702(3) 1.19026(19) 0.072(3) Uani 1 1 d GU . .
H3A H 0.4895 0.7954 1.1904 0.086 Uiso 1 1 calc R . .
C4A C 0.50742(10) 0.6949(3) 1.18964(19) 0.066(2) Uani 1 1 d GDU . .
C5A C 0.53406(13) 0.6576(2) 1.18942(19) 0.058(2) Uani 1 1 d GDU . .
C6A C 0.56073(10) 0.6955(3) 1.18982(18) 0.048(2) Uiso 1 1 d GDU . .
C7A C 0.58669(18) 0.6562(5) 1.1906(3) 0.080(3) Uani 1 1 d DU . .
H7A H 0.6048 0.6819 1.1916 0.095 Uiso 1 1 calc R . .
C8A C 0.5880(2) 0.5839(6) 1.1900(3) 0.090(3) Uani 1 1 d DU . .
H8A H 0.6059 0.5599 1.1889 0.108 Uiso 1 1 calc R . .
C9A C 0.5621(3) 0.5461(5) 1.1911(4) 0.101(4) Uani 1 1 d DU . .
C10A C 0.5343(2) 0.5832(5) 1.1880(3) 0.083(3) Uani 1 1 d DU . .
H10A H 0.5159 0.5572 1.1849 0.099 Uiso 1 1 calc R . .
C11A C 0.58877(10) 0.8150(3) 1.19076(16) 0.062(2) Uani 1 1 d GU . .
C12A C 0.59698(12) 0.8151(3) 1.15464(13) 0.069(3) Uani 1 1 d GDU . .
C13A C 0.62559(13) 0.8454(3) 1.15648(14) 0.072(3) Uani 1 1 d GU . .
H13A H 0.6311 0.8455 1.1321 0.087 Uiso 1 1 calc R . .
C14A C 0.64599(10) 0.8757(3) 1.19443(17) 0.056(2) Uani 1 1 d GDU . .
C15A C 0.63778(11) 0.8756(3) 1.23054(14) 0.056(2) Uani 1 1 d GDU . .
C16A C 0.60917(11) 0.8452(3) 1.22871(14) 0.042(2) Uiso 1 1 d GDU . .
C17A C 0.60112(19) 0.8450(5) 1.2656(3) 0.089(3) Uani 1 1 d DU . .
H17A H 0.5817 0.8262 1.2647 0.106 Uiso 1 1 calc R . .
C18A C 0.6222(2) 0.8727(6) 1.3023(3) 0.098(4) Uani 1 1 d DU . .
H18A H 0.6166 0.8726 1.3267 0.118 Uiso 1 1 calc R . .
C19A C 0.6510(2) 0.9009(7) 1.3059(3) 0.102(4) Uani 1 1 d DU . .
C20A C 0.65868(18) 0.9027(5) 1.2695(3) 0.074(3) Uani 1 1 d DU . .
H20A H 0.6782 0.9224 1.2709 0.088 Uiso 1 1 calc R . .
C21A C 0.74034(14) 1.0822(4) 0.83931(16) 0.082(3) Uani 1 1 d GU . .
C22A C 0.75015(16) 1.0131(4) 0.8550(2) 0.090(3) Uani 1 1 d GDU . .
C23A C 0.76083(18) 1.0001(4) 0.8988(2) 0.116(4) Uani 1 1 d GU . .
H23A H 0.7674 0.9535 0.9094 0.140 Uiso 1 1 calc R . .
C24A C 0.76171(18) 1.0562(5) 0.92682(16) 0.131(4) Uani 1 1 d GDU . .
C25A C 0.75191(18) 1.1253(4) 0.9111(2) 0.113(3) Uani 1 1 d GDU . .
C26A C 0.74122(17) 1.1383(4) 0.8673(2) 0.097(3) Uani 1 1 d GDU . .
C27A C 0.7301(3) 1.2036(7) 0.8501(4) 0.137(4) Uani 1 1 d DU . .
H27A H 0.7218 1.2087 0.8203 0.164 Uiso 1 1 calc R . .
C28A C 0.7306(3) 1.2636(7) 0.8758(4) 0.141(5) Uani 1 1 d DU . .
H28A H 0.7223 1.3088 0.8645 0.170 Uiso 1 1 calc R . .
C29A C 0.7445(5) 1.2508(8) 0.9196(5) 0.184(6) Uani 1 1 d DU . .
C30A C 0.7517(4) 1.1833(8) 0.9374(3) 0.167(6) Uani 1 1 d DU . .
H30A H 0.7565 1.1763 0.9667 0.200 Uiso 1 1 calc R . .
C31A C 0.72748(16) 1.0879(5) 0.79196(15) 0.108(4) Uani 1 1 d GU . .
C32A C 0.74790(13) 1.1125(6) 0.7723(2) 0.131(5) Uani 1 1 d GDU . .
C33A C 0.73634(16) 1.1264(6) 0.7286(2) 0.126(5) Uani 1 1 d GU . .
H33A H 0.7501 1.1429 0.7154 0.151 Uiso 1 1 calc R . .
C34A C 0.70437(17) 1.1159(6) 0.70460(15) 0.130(5) Uani 1 1 d GDU . .
C35A C 0.68395(13) 1.0913(5) 0.72425(19) 0.116(4) Uani 1 1 d GDU . .
C36A C 0.69551(15) 1.0774(5) 0.7679(2) 0.109(4) Uani 1 1 d GDU . .
C37A C 0.6757(2) 1.0551(6) 0.7873(3) 0.106(4) Uani 1 1 d DU . .
H37A H 0.6835 1.0479 0.8169 0.127 Uiso 1 1 calc R . .
C38A C 0.6434(2) 1.0426(6) 0.7635(3) 0.100(3) Uani 1 1 d DU . .
H38A H 0.6297 1.0282 0.7773 0.120 Uiso 1 1 calc R . .
C39A C 0.6321(2) 1.0516(8) 0.7194(3) 0.127(4) Uani 1 1 d DU . .
C40A C 0.6521(2) 1.0785(7) 0.7009(3) 0.116(4) Uani 1 1 d DU . .
H40A H 0.6441 1.0886 0.6715 0.139 Uiso 1 1 calc R . .
C41A C 0.60340(14) 0.9987(4) 0.07558(15) 0.070(2) Uani 1 1 d GU . .
C42A C 0.58093(12) 0.9856(4) 0.09407(18) 0.068(2) Uani 1 1 d GDU . .
C43A C 0.58685(14) 1.0066(4) 0.13604(18) 0.083(3) Uani 1 1 d GU . .
H43A H 0.5717 0.9977 0.1485 0.100 Uiso 1 1 calc R . .
C44A C 0.61524(16) 1.0407(4) 0.15953(15) 0.097(3) Uani 1 1 d GDU . .
C45A C 0.63771(13) 1.0539(4) 0.14104(19) 0.091(3) Uani 1 1 d GDU . .
C46A C 0.63179(14) 1.0329(4) 0.09906(19) 0.090(3) Uani 1 1 d GDU . .
C47A C 0.6538(2) 1.0476(6) 0.0799(3) 0.120(4) Uani 1 1 d DU . .
H47A H 0.6494 1.0347 0.0513 0.145 Uiso 1 1 calc R . .
C48A C 0.6819(2) 1.0807(7) 0.1027(4) 0.126(4) Uani 1 1 d DU . .
H48A H 0.6969 1.0897 0.0900 0.152 Uiso 1 1 calc R . .
C49A C 0.6880(2) 1.1006(7) 0.1443(3) 0.113(4) Uani 1 1 d DU . .
C50A C 0.6653(2) 1.0896(7) 0.1630(3) 0.114(4) Uani 1 1 d DU . .
H50A H 0.6690 1.1068 0.1907 0.137 Uiso 1 1 calc R . .
C51A C 0.59487(14) 0.9805(3) 0.02982(13) 0.060(2) Uani 1 1 d GU . .
C52A C 0.61152(13) 0.9251(3) 0.01922(16) 0.064(3) Uani 1 1 d GDU . .
C53A C 0.60551(14) 0.9088(3) -0.02346(18) 0.074(3) Uani 1 1 d GU . .
H53A H 0.6167 0.8715 -0.0306 0.088 Uiso 1 1 calc R . .
C54A C 0.58285(15) 0.9480(4) -0.05555(13) 0.062(2) Uani 1 1 d GDU . .
C55A C 0.56620(15) 1.0034(4) -0.04495(16) 0.090(3) Uani 1 1 d GDU . .
C56A C 0.57221(15) 1.0197(3) -0.00227(18) 0.086(3) Uani 1 1 d GDU . .
C57A C 0.5546(2) 1.0731(5) 0.0070(3) 0.087(3) Uani 1 1 d DU . .
H57A H 0.5582 1.0837 0.0357 0.104 Uiso 1 1 calc R . .
C58A C 0.5323(3) 1.1108(6) -0.0240(3) 0.125(4) Uani 1 1 d DU . .
H58A H 0.5207 1.1470 -0.0166 0.150 Uiso 1 1 calc R . .
C59A C 0.5264(2) 1.0959(6) -0.0674(3) 0.090(3) Uani 1 1 d DU . .
C60A C 0.5441(2) 1.0419(5) -0.0774(3) 0.090(3) Uani 1 1 d DU . .
H60A H 0.5411 1.0319 -0.1060 0.107 Uiso 1 1 calc R . .
C61A C 0.43130(11) 0.5992(4) 1.1973(2) 0.097(4) Uani 1 1 d GDU . .
C62A C 0.43265(11) 0.5411(4) 1.2243(2) 0.119(4) Uani 1 1 d GU . .
H62A H 0.4523 0.5213 1.2410 0.142 Uiso 1 1 calc R . .
C63A C 0.40483(14) 0.5125(3) 1.2264(2) 0.098(4) Uani 1 1 d GU . .
H63A H 0.4057 0.4734 1.2446 0.118 Uiso 1 1 calc R . .
N1A N 0.37565(11) 0.5419(3) 1.20158(18) 0.073(2) Uani 1 1 d GU . .
C64A C 0.37430(11) 0.5999(4) 1.1746(2) 0.108(4) Uani 1 1 d GU . .
H64A H 0.3546 0.6198 1.1578 0.130 Uiso 1 1 calc R . .
C65A C 0.40213(14) 0.6286(4) 1.1724(2) 0.107(4) Uani 1 1 d GU . .
H65A H 0.4012 0.6677 1.1543 0.128 Uiso 1 1 calc R . .
C66A C 0.45543(19) 0.6378(6) 1.1912(3) 0.078(3) Uani 1 1 d DU . .
C67A C 0.4793(2) 0.6620(6) 1.1913(3) 0.079(3) Uani 1 1 d DU . .
C68A C 0.6763(2) 0.9015(6) 1.1967(3) 0.077(3) Uani 1 1 d DU . .
C69A C 0.7014(2) 0.9126(7) 1.1988(3) 0.101(4) Uani 1 1 d DU . .
C71A C 0.73255(13) 0.9323(5) 1.2012(3) 0.111(4) Uani 1 1 d GDU . .
C72A C 0.74824(16) 0.9897(4) 1.2270(2) 0.115(4) Uani 1 1 d GU . .
H72A H 0.7387 1.0145 1.2435 0.138 Uiso 1 1 calc R . .
C73A C 0.77815(15) 1.0104(4) 1.2283(2) 0.098(3) Uani 1 1 d GU . .
H73A H 0.7887 1.0491 1.2457 0.118 Uiso 1 1 calc R . .
N2A N 0.79235(12) 0.9736(4) 1.2038(2) 0.095(3) Uiso 1 1 d GU . .
C74A C 0.77666(16) 0.9161(4) 1.1780(3) 0.151(6) Uani 1 1 d GU . .
H74A H 0.7862 0.8913 1.1615 0.181 Uiso 1 1 calc R . .
C75A C 0.74675(16) 0.8955(4) 1.1767(3) 0.113(4) Uiso 1 1 d GU . .
H75A H 0.7362 0.8567 1.1593 0.135 Uiso 1 1 calc R . .
C87A C 0.3587(3) 0.4169(7) -0.2958(4) 0.139(4) Uani 1 1 d DU . .
H87A H 0.3397 0.3991 -0.2945 0.167 Uiso 1 1 calc R . .
C88A C 0.3814(3) 0.3713(7) -0.2989(5) 0.174(6) Uani 1 1 d DU . .
H88A H 0.3783 0.3211 -0.2987 0.209 Uiso 1 1 calc R . .
C81A C 0.33991(14) 0.5365(5) -0.2964(3) 0.10