####################################################################### 
# 
# This file contains crystal structure data downloaded from the 
# Cambridge Structural Database (CSD) hosted by the Cambridge 
# Crystallographic Data Centre (CCDC).
# 
# Full information about CCDC data access policies and citation 
# guidelines are available at http://www.ccdc.cam.ac.uk/access/V1 
# 
# Audit and citation data items may have been added by the CCDC. 
# Please retain this information to preserve the provenance of 
# this file and to allow appropriate attribution of the data. 
# 
#######################################################################

data_new2
_audit_block_doi                 10.5517/ccndv84
_database_code_depnum_ccdc_archive 'CCDC 608166'
loop_
_citation_id
_citation_doi
_citation_year
1 10.1021/ic800514f 2008
_audit_update_record             
;
2006-05-19 deposited with the CCDC.	2024-07-11 downloaded from the CCDC.
;

_audit_creation_method           SHELXL-97
_chemical_name_systematic        
;
?
;
_chemical_name_common            ?
_chemical_melting_point          ?
_chemical_formula_moiety         ?
_chemical_formula_sum            'C252 H298 Cl16 Cu3 N24 O63'
_chemical_formula_weight         5428.96

loop_
_atom_type_symbol
_atom_type_description
_atom_type_scat_dispersion_real
_atom_type_scat_dispersion_imag
_atom_type_scat_source
C C 0.0033 0.0016 'International Tables Vol C Tables 4.2.6.8 and 6.1.1.4'
H H 0.0000 0.0000 'International Tables Vol C Tables 4.2.6.8 and 6.1.1.4'
N N 0.0061 0.0033 'International Tables Vol C Tables 4.2.6.8 and 6.1.1.4'
O O 0.0106 0.0060 'International Tables Vol C Tables 4.2.6.8 and 6.1.1.4'
Cl Cl 0.1484 0.1585 'International Tables Vol C Tables 4.2.6.8 and 6.1.1.4'
Cu Cu 0.3201 1.2651 'International Tables Vol C Tables 4.2.6.8 and 6.1.1.4'

_symmetry_cell_setting           triclinic
_symmetry_space_group_name_H-M   P1

loop_
_symmetry_equiv_pos_as_xyz
'x, y, z'

_cell_length_a                   13.954(1)
_cell_length_b                   24.637(1)
_cell_length_c                   24.781(1)
_cell_angle_alpha                81.901(3)
_cell_angle_beta                 80.008(3)
_cell_angle_gamma                74.554(3)
_cell_volume                     8046.6(7)
_cell_formula_units_Z            1
_cell_measurement_temperature    173(2)
_cell_measurement_reflns_used    ?
_cell_measurement_theta_min      1.68
_cell_measurement_theta_max      23.01

_exptl_crystal_description       Bloc
_exptl_crystal_colour            Blue
_exptl_crystal_size_max          0.80
_exptl_crystal_size_mid          0.50
_exptl_crystal_size_min          0.30
_exptl_crystal_density_meas      ?
_exptl_crystal_density_diffrn    1.120
_exptl_crystal_density_method    'not measured'
_exptl_crystal_F_000             2841
_exptl_absorpt_coefficient_mu    0.398
_exptl_absorpt_correction_type   empirical
_exptl_absorpt_process_details   'SADABS (Sheldrick, 1996)'
_exptl_absorpt_correction_T_min  0.7252
_exptl_absorpt_correction_T_max  1.0000


_exptl_special_details           
;
?
;

_diffrn_ambient_temperature      173(2)
_diffrn_radiation_wavelength     0.71073
_diffrn_radiation_type           MoK\a
_diffrn_radiation_source         'fine-focus sealed tube'
_diffrn_radiation_monochromator  graphite
_diffrn_measurement_device_type  ?
_diffrn_measurement_method       ?
_diffrn_detector_area_resol_mean ?
_diffrn_standards_number         none
_diffrn_standards_interval_count none
_diffrn_standards_interval_time  none
_diffrn_standards_decay_%        none
_diffrn_reflns_number            73572
_diffrn_reflns_av_R_equivalents  0.0750
_diffrn_reflns_av_sigmaI/netI    0.1491
_diffrn_reflns_limit_h_min       -15
_diffrn_reflns_limit_h_max       15
_diffrn_reflns_limit_k_min       -27
_diffrn_reflns_limit_k_max       27
_diffrn_reflns_limit_l_min       -27
_diffrn_reflns_limit_l_max       27
_diffrn_reflns_theta_min         1.68
_diffrn_reflns_theta_max         23.01
_reflns_number_total             42476
_reflns_number_gt                24214
_reflns_threshold_expression     >2sigma(I)

_computing_data_collection       'Siemens SMART'
_computing_cell_refinement       'Siemens SMART & SAINT'
_computing_data_reduction        'Siemens XPREP'
_computing_structure_solution    'Siemens SHELXTL'
_computing_structure_refinement  'Siemens SHELXTL'
_computing_molecular_graphics    ?
_computing_publication_material  ?

_refine_special_details          
;
Refinement of F^2^ against ALL reflections. The weighted R-factor wR and
goodness of fit S are based on F^2^, conventional R-factors R are based
on F, with F set to zero for negative F^2^. The threshold expression of
F^2^ > 2sigma(F^2^) is used only for calculating R-factors(gt) etc. and is
not relevant to the choice of reflections for refinement. R-factors based
on F^2^ are statistically about twice as large as those based on F, and R-
factors based on ALL data will be even larger.
;

_refine_ls_structure_factor_coef Fsqd
_refine_ls_matrix_type           full
_refine_ls_weighting_scheme      calc
_refine_ls_weighting_details     
'calc w=1/[\s^2^(Fo^2^)+(0.1650P)^2^+12.8873P] where P=(Fo^2^+2Fc^2^)/3'
_atom_sites_solution_primary     direct
_atom_sites_solution_secondary   difmap
_atom_sites_solution_hydrogens   geom
_refine_ls_hydrogen_treatment    mixed
_refine_ls_extinction_method     none
_refine_ls_extinction_coef       ?
_refine_ls_abs_structure_details 'Flack H D (1983), Acta Cryst. A39, 876-881'
_refine_ls_abs_structure_Flack   0.053(18)
_refine_ls_number_reflns         42476
_refine_ls_number_parameters     2388
_refine_ls_number_restraints     23
_refine_ls_R_factor_ref          0.1954
_refine_ls_R_factor_gt           0.1154
_refine_ls_wR_factor_ref         0.3047
_refine_ls_wR_factor_gt          0.2709
_refine_ls_goodness_of_fit_ref   0.988
_refine_ls_restrained_S_all      0.988
_refine_ls_shift/su_max          0.001
_refine_ls_shift/su_mean         0.000

loop_
_atom_site_label
_atom_site_type_symbol
_atom_site_fract_x
_atom_site_fract_y
_atom_site_fract_z
_atom_site_U_iso_or_equiv
_atom_site_adp_type
_atom_site_occupancy
_atom_site_symmetry_multiplicity
_atom_site_calc_flag
_atom_site_refinement_flags
_atom_site_disorder_assembly
_atom_site_disorder_group
Cu1 Cu 1.06559(9) 0.08771(4) 1.01556(5) 0.0340(3) Uani 1 1 d . . .
Cu2 Cu 0.27896(9) 0.25402(5) 0.71023(5) 0.0387(4) Uani 1 1 d . . .
Cu3 Cu 0.61606(14) 0.83914(6) 0.31161(9) 0.0793(6) Uani 1 1 d . . .
Cl1 Cl 0.6819(4) 0.1818(3) 0.6741(2) 0.148(2) Uani 1 1 d . . .
Cl2 Cl 1.0513(3) 0.32335(14) 0.34245(13) 0.0629(9) Uani 1 1 d . . .
Cl3 Cl 0.5309(7) 0.7429(2) 1.1901(3) 0.188(4) Uani 1 1 d . . .
Cl4 Cl 0.3816(3) 0.36356(14) 1.07293(18) 0.0859(12) Uani 1 1 d . . .
Cl5 Cl -0.0582(3) 0.34273(19) 1.09516(17) 0.0944(14) Uani 1 1 d . . .
Cl6 Cl 0.3671(3) 0.01512(12) 1.38014(12) 0.0590(9) Uani 1 1 d . . .
Cl7 Cl 0.0964(7) 0.6081(4) 0.9004(4) 0.210(3) Uiso 1 1 d . . .
Cl8 Cl -0.0510(6) 0.9823(4) 0.6358(4) 0.185(3) Uiso 1 1 d . . .
Cl9 Cl 0.9325(3) 0.44376(17) 0.2649(2) 0.0923(13) Uani 1 1 d . . .
Cl10 Cl 0.5593(3) 0.15499(15) 0.53766(13) 0.0716(10) Uani 1 1 d . . .
O1 O 1.2547(6) 0.0663(3) 0.5343(3) 0.047(2) Uani 1 1 d . . .
O2 O 1.1072(8) 0.0056(4) 0.4891(3) 0.071(3) Uani 1 1 d . . .
O3 O 0.4567(10) 0.6087(4) 0.9261(5) 0.105(4) Uani 1 1 d . . .
O4 O 0.7178(7) 0.5887(4) 0.9694(6) 0.115(5) Uani 1 1 d D . .
O5 O 0.5044(6) 0.1925(3) 1.1620(3) 0.044(2) Uani 1 1 d . . .
O6 O 0.3137(6) 0.3324(3) 1.2276(3) 0.051(2) Uani 1 1 d . . .
O7 O -0.2222(16) 0.7305(7) 0.6554(10) 0.085(6) Uani 0.50 1 d P . .
O8 O -0.3474(15) 0.7566(8) 0.7897(8) 0.172(6) Uiso 1 1 d D . .
O9 O 0.3755(6) 0.3977(3) 0.3696(3) 0.052(2) Uani 1 1 d . . .
O10 O 0.5447(7) 0.3367(3) 0.2400(3) 0.056(2) Uani 1 1 d . . .
O11 O 1.2179(6) 0.1167(3) 0.9813(3) 0.047(2) Uani 1 1 d . . .
O12 O 0.4885(10) 0.8667(4) 0.2729(6) 0.111(4) Uani 1 1 d . . .
O13 O 0.4349(7) 0.2810(4) 0.6872(4) 0.065(2) Uani 1 1 d . . .
O14 O 0.1262(7) 0.2233(3) 0.7417(4) 0.058(2) Uani 1 1 d . . .
O15 O 0.7539(14) 0.8071(4) 0.3432(8) 0.170(7) Uani 1 1 d D . .
O16 O 0.7064(13) 0.8316(5) 0.2213(9) 0.162(7) Uani 1 1 d . . .
O17 O 0.9136(7) 0.0573(3) 1.0466(4) 0.054(2) Uani 1 1 d . . .
O18 O 0.5270(15) 0.8507(5) 0.3980(6) 0.156(7) Uani 1 1 d . . .
N1 N 1.0565(7) 0.0834(4) 0.9350(4) 0.043(2) Uiso 1 1 d . . .
N2 N 1.0818(7) 0.0928(3) 0.0948(3) 0.031(2) Uani 1 1 d . . .
N3 N 0.1398(7) 1.0049(3) 1.0211(3) 0.034(2) Uani 1 1 d . . .
N4 N 0.9850(7) 0.1702(3) 1.0099(3) 0.035(2) Uani 1 1 d . . .
N5 N 0.2936(8) 0.2539(4) 0.7896(4) 0.042(2) Uani 1 1 d . . .
N6 N 0.2728(7) 0.2534(4) 1.6293(4) 0.040(2) Uani 1 1 d . . .
N7 N 0.2032(8) 0.3371(4) 0.7088(4) 0.047(3) Uani 1 1 d . . .
N8 N -0.6441(7) 1.1709(4) 0.7123(4) 0.045(3) Uani 1 1 d . . .
N9 N 0.5970(9) 0.7610(4) 0.3172(5) 0.078(4) Uani 1 1 d . . .
N10 N 0.6273(8) -0.0819(4) 0.3111(5) 0.067(3) Uani 1 1 d . . .
N11 N 1.3856(8) 0.1013(4) 0.9559(4) 0.052(3) Uiso 1 1 d . . .
N12 N 0.7833(10) 0.0180(6) 1.0613(7) 0.092(4) Uani 1 1 d . . .
N13 N 0.570(2) 0.3181(10) 0.6717(10) 0.170(8) Uiso 1 1 d D . .
N14 N -0.0401(9) 0.2425(5) 0.7656(5) 0.074(4) Uani 1 1 d . . .
N15 N 0.3382(12) 0.9077(6) 0.2582(6) 0.099(4) Uani 1 1 d . . .
N16 N 0.4504(17) 0.8423(10) 0.4814(10) 0.165(7) Uiso 1 1 d D . .
N17 N 0.716(4) 0.8421(18) 0.130(2) 0.279(18) Uiso 1 1 d D . .
C208 C 0.999(3) 0.797(3) 0.302(3) 0.38(3) Uiso 1 1 d D . .
H20K H 0.9685 0.8360 0.2894 0.570 Uiso 1 1 calc R . .
H20L H 1.0175 0.7737 0.2708 0.570 Uiso 1 1 calc R . .
H20M H 1.0593 0.7950 0.3181 0.570 Uiso 1 1 calc R . .
C1 C 0.9717(8) 0.1090(4) 0.9120(5) 0.039(3) Uani 1 1 d . . .
H1A H 0.9139 0.1275 0.9351 0.047 Uiso 1 1 calc R . .
C2 C 0.9656(11) 0.1093(5) 0.8589(5) 0.048(3) Uani 1 1 d . . .
H2A H 0.9041 0.1261 0.8448 0.058 Uiso 1 1 calc R . .
C3 C 1.0498(12) 0.0850(5) 0.8252(5) 0.053(4) Uani 1 1 d . . .
C4 C 1.1351(11) 0.0589(5) 0.8473(5) 0.055(4) Uani 1 1 d . . .
H4A H 1.1936 0.0403 0.8248 0.066 Uiso 1 1 calc R . .
C5 C 1.1355(9) 0.0595(5) 0.9017(5) 0.049(3) Uani 1 1 d . . .
H5A H 1.1959 0.0418 0.9165 0.059 Uiso 1 1 calc R . .
C6 C 1.0508(11) 0.0866(6) 0.7658(6) 0.061(4) Uani 1 1 d . . .
C7 C 1.0603(11) 0.0894(6) 0.7164(7) 0.067(4) Uani 1 1 d . . .
C8 C 1.0658(11) 0.0930(5) 0.6569(4) 0.048(3) Uani 1 1 d . . .
C9 C 0.9728(9) 0.1171(5) 0.6311(5) 0.048(3) Uani 1 1 d . . .
C10 C 0.8852(13) 0.1332(6) 0.6636(5) 0.071(4) Uani 1 1 d . . .
H10A H 0.8810 0.1292 0.7025 0.085 Uiso 1 1 calc R . .
C11 C 0.7998(12) 0.1562(8) 0.6372(6) 0.089(5) Uani 1 1 d . . .
C12 C 0.8100(13) 0.1604(8) 0.5787(7) 0.088(5) Uani 1 1 d . . .
H12A H 0.7523 0.1772 0.5612 0.106 Uiso 1 1 calc R . .
C13 C 0.8976(13) 0.1415(8) 0.5477(7) 0.088(5) Uani 1 1 d . . .
H13A H 0.9028 0.1427 0.5089 0.106 Uiso 1 1 calc R . .
C14 C 0.9816(12) 0.1199(6) 0.5751(5) 0.069(4) Uani 1 1 d . . .
C15 C 1.0828(11) 0.0998(5) 0.5423(4) 0.054(3) Uani 1 1 d . . .
C16 C 1.1646(9) 0.0806(5) 0.5674(5) 0.043(3) Uani 1 1 d . . .
C17 C 1.1561(10) 0.0751(5) 0.6249(5) 0.047(3) Uani 1 1 d . . .
H17A H 1.2144 0.0586 0.6421 0.056 Uiso 1 1 calc R . .
C18 C 1.3472(11) 0.0475(6) 0.5588(6) 0.076(4) Uani 1 1 d . . .
H18A H 1.3507 0.0099 0.5800 0.091 Uiso 1 1 calc R . .
H18B H 1.3492 0.0746 0.5843 0.091 Uiso 1 1 calc R . .
C19 C 1.4366(11) 0.0438(8) 0.5118(7) 0.085(5) Uani 1 1 d . . .
H19A H 1.4998 0.0320 0.5274 0.127 Uiso 1 1 calc R . .
H19B H 1.4318 0.0810 0.4907 0.127 Uiso 1 1 calc R . .
H19C H 1.4350 0.0161 0.4874 0.127 Uiso 1 1 calc R . .
C20 C 1.117(2) -0.0903(9) 0.5133(9) 0.147(9) Uani 1 1 d . . .
H20A H 1.1244 -0.1259 0.4978 0.220 Uiso 1 1 calc R . .
H20B H 1.0533 -0.0812 0.5378 0.220 Uiso 1 1 calc R . .
H20C H 1.1728 -0.0942 0.5341 0.220 Uiso 1 1 calc R . .
C21 C 1.1193(16) -0.0456(7) 0.4693(7) 0.101(6) Uani 1 1 d . . .
H21A H 1.1842 -0.0547 0.4447 0.121 Uiso 1 1 calc R . .
H21B H 1.0650 -0.0428 0.4473 0.121 Uiso 1 1 calc R . .
C22 C 1.0886(9) 0.1035(5) 0.4794(4) 0.050(3) Uani 1 1 d . . .
C23 C 1.0812(8) 0.1555(5) 0.4471(5) 0.051(3) Uani 1 1 d . . .
C24 C 1.0653(8) 0.2084(6) 0.4709(5) 0.049(3) Uani 1 1 d . . .
H24A H 1.0600 0.2080 0.5097 0.059 Uiso 1 1 calc R . .
C25 C 1.0582(9) 0.2570(6) 0.4398(5) 0.054(3) Uani 1 1 d . . .
H25A H 1.0499 0.2909 0.4562 0.065 Uiso 1 1 calc R . .
C26 C 1.0628(8) 0.2590(5) 0.3825(5) 0.054(3) Uani 1 1 d . . .
C27 C 1.0781(9) 0.2086(6) 0.3582(5) 0.050(3) Uani 1 1 d . . .
H27A H 1.0815 0.2097 0.3195 0.060 Uiso 1 1 calc R . .
C28 C 1.0877(8) 0.1590(5) 0.3895(4) 0.042(3) Uani 1 1 d . . .
C29 C 1.1018(9) 0.1055(5) 0.3650(4) 0.045(3) Uani 1 1 d . . .
C30 C 1.1071(9) 0.0572(6) 0.3976(5) 0.056(3) Uani 1 1 d . . .
H30A H 1.1129 0.0235 0.3813 0.067 Uiso 1 1 calc R . .
C31 C 1.1043(10) 0.0538(6) 0.4567(5) 0.059(3) Uani 1 1 d . . .
C32 C 1.1039(8) 0.1054(5) 0.3090(5) 0.047(3) Uani 1 1 d . . .
C33 C 1.1048(9) 0.1049(5) 0.2577(5) 0.053(3) Uani 1 1 d . . .
C34 C 1.0571(8) 0.0551(4) 0.1342(4) 0.037(3) Uani 1 1 d . . .
H34A H 1.0310 0.0260 0.1255 0.044 Uiso 1 1 calc R . .
C35 C 1.0689(9) 0.0575(5) 0.1893(5) 0.046(3) Uani 1 1 d . . .
H35A H 1.0548 0.0286 0.2169 0.055 Uiso 1 1 calc R . .
C36 C 1.0997(8) 0.1001(4) 0.2032(4) 0.038(3) Uani 1 1 d . . .
C37 C 1.1236(8) 0.1403(4) 0.1602(4) 0.035(3) Uani 1 1 d . . .
H37A H 1.1462 0.1711 0.1679 0.043 Uiso 1 1 calc R . .
C38 C 1.1143(9) 0.1347(5) 0.1082(5) 0.041(3) Uani 1 1 d . . .
H38A H 1.1317 0.1619 0.0797 0.050 Uiso 1 1 calc R . .
C39 C 0.2283(11) 0.9875(5) 1.0392(5) 0.054(3) Uani 1 1 d . . .
H39A H 0.2554 1.0139 1.0523 0.065 Uiso 1 1 calc R . .
C40 C 0.2824(10) 0.9305(5) 1.0392(5) 0.058(4) Uani 1 1 d . . .
H40A H 0.3440 0.9184 1.0539 0.069 Uiso 1 1 calc R . .
C41 C 0.2472(10) 0.8919(5) 1.0182(6) 0.060(4) Uani 1 1 d . . .
C42 C 0.1536(11) 0.9101(5) 0.9999(5) 0.060(4) Uani 1 1 d . . .
H42A H 0.1247 0.8848 0.9866 0.072 Uiso 1 1 calc R . .
C43 C 0.1049(9) 0.9665(5) 1.0021(5) 0.047(3) Uani 1 1 d . . .
H43A H 0.0417 0.9793 0.9891 0.057 Uiso 1 1 calc R . .
C44 C 0.2986(12) 0.8340(6) 1.0170(7) 0.074(4) Uani 1 1 d . . .
C45 C 0.3476(12) 0.7871(6) 1.0144(7) 0.080(5) Uani 1 1 d . . .
C46 C 0.4031(12) 0.7285(5) 1.0124(8) 0.082(5) Uani 1 1 d . . .
C47 C 0.4637(12) 0.7010(5) 1.0522(7) 0.072(4) Uani 1 1 d . . .
C48 C 0.4725(13) 0.7306(6) 1.0955(7) 0.089(5) Uani 1 1 d . . .
H48A H 0.4384 0.7695 1.0968 0.107 Uiso 1 1 calc R . .
C49 C 0.5271(16) 0.7048(8) 1.1336(8) 0.102(6) Uani 1 1 d . . .
C50 C 0.5810(19) 0.6484(8) 1.1345(9) 0.142(9) Uani 1 1 d . . .
H50A H 0.6198 0.6310 1.1631 0.170 Uiso 1 1 calc R . .
C51 C 0.5759(12) 0.6194(6) 1.0930(7) 0.079(5) Uani 1 1 d . . .
H51A H 0.6093 0.5804 1.0933 0.095 Uiso 1 1 calc R . .
C52 C 0.5226(10) 0.6457(4) 1.0499(6) 0.059(4) Uani 1 1 d . . .
C53 C 0.5168(9) 0.6143(5) 1.0057(7) 0.060(4) Uani 1 1 d . . .
C54 C 0.4577(13) 0.6414(5) 0.9650(8) 0.088(5) Uani 1 1 d . . .
C55 C 0.4024(12) 0.6975(5) 0.9697(7) 0.083(5) Uani 1 1 d . . .
H55A H 0.3619 0.7155 0.9420 0.100 Uiso 1 1 calc R . .
C56 C 0.3762(19) 0.6259(9) 0.8957(11) 0.144(9) Uani 1 1 d . . .
H56A H 0.3814 0.6603 0.8706 0.173 Uiso 1 1 calc R . .
H56B H 0.3115 0.6342 0.9206 0.173 Uiso 1 1 calc R . .
C57 C 0.384(3) 0.5751(16) 0.8621(17) 0.27(2) Uani 1 1 d . . .
H57A H 0.3281 0.5846 0.8402 0.404 Uiso 1 1 calc R . .
H57B H 0.3794 0.5413 0.8876 0.404 Uiso 1 1 calc R . .
H57C H 0.4477 0.5677 0.8375 0.404 Uiso 1 1 calc R . .
C60 C 0.5750(10) 0.5547(5) 1.0022(6) 0.059(4) Uani 1 1 d . . .
C61 C 0.5336(10) 0.5087(4) 1.0204(5) 0.055(4) Uani 1 1 d . . .
C62 C 0.4278(11) 0.5175(5) 1.0397(6) 0.061(4) Uani 1 1 d . . .
H62A H 0.3878 0.5551 1.0420 0.074 Uiso 1 1 calc R . .
C63 C 0.3847(10) 0.4755(5) 1.0542(6) 0.061(4) Uani 1 1 d . . .
H63A H 0.3142 0.4826 1.0657 0.073 Uiso 1 1 calc R . .
C64 C 0.4441(13) 0.4197(5) 1.0525(6) 0.068(4) Uani 1 1 d . . .
C65 C 0.5410(11) 0.4085(5) 1.0341(5) 0.051(3) Uani 1 1 d . . .
H65A H 0.5785 0.3704 1.0320 0.062 Uiso 1 1 calc R . .
C66 C 0.5882(9) 0.4517(4) 1.0178(5) 0.046(3) Uani 1 1 d . . .
C67 C 0.6942(9) 0.4416(5) 0.9991(5) 0.049(3) Uiso 1 1 d . . .
C68 C 0.7393(11) 0.4875(5) 0.9847(7) 0.079(5) Uani 1 1 d . . .
H68A H 0.8097 0.4804 0.9734 0.095 Uiso 1 1 calc R . .
C69 C 0.6802(12) 0.5444(4) 0.9870(6) 0.073(4) Uani 1 1 d . . .
C70 C 0.7553(9) 0.3852(4) 0.9996(5) 0.053(3) Uani 1 1 d . . .
C71 C 0.8001(9) 0.3359(4) 0.9994(5) 0.046(3) Uani 1 1 d . . .
C72 C 0.8955(10) 0.1844(4) 1.0406(5) 0.049(3) Uani 1 1 d . . .
H72A H 0.8728 0.1562 1.0659 0.059 Uiso 1 1 calc R . .
C73 C 0.8336(9) 0.2398(5) 1.0371(5) 0.055(3) Uani 1 1 d . . .
H73A H 0.7698 0.2485 1.0593 0.066 Uiso 1 1 calc R . .
C74 C 0.8653(8) 0.2798(4) 1.0021(4) 0.029(2) Uiso 1 1 d . . .
C75 C 0.9602(9) 0.2657(4) 0.9710(5) 0.051(3) Uani 1 1 d . . .
H75A H 0.9850 0.2939 0.9467 0.062 Uiso 1 1 calc R . .
C76 C 1.0168(9) 0.2117(4) 0.9758(4) 0.040(3) Uani 1 1 d . . .
H76A H 1.0812 0.2027 0.9542 0.048 Uiso 1 1 calc R . .
C77 C 0.3833(10) 0.2325(5) 0.8088(5) 0.052(3) Uani 1 1 d . . .
H77A H 0.4413 0.2187 0.7834 0.062 Uiso 1 1 calc R . .
C78 C 0.3928(11) 0.2300(5) 0.8622(6) 0.063(4) Uani 1 1 d . . .
H78A H 0.4567 0.2132 0.8736 0.076 Uiso 1 1 calc R . .
C79 C 0.3093(10) 0.2519(5) 0.9022(4) 0.043(3) Uani 1 1 d . . .
C80 C 0.2167(9) 0.2761(5) 0.8821(5) 0.044(3) Uiso 1 1 d . . .
H80A H 0.1580 0.2915 0.9063 0.052 Uiso 1 1 calc R . .
C81 C 0.2134(9) 0.2771(5) 0.8260(5) 0.048(3) Uiso 1 1 d . . .
H81A H 0.1517 0.2948 0.8125 0.058 Uiso 1 1 calc R . .
C82 C 0.3138(10) 0.2492(5) 0.9585(5) 0.054(3) Uani 1 1 d . . .
C83 C 0.3184(9) 0.2478(4) 1.0066(5) 0.039(3) Uani 1 1 d . . .
C84 C 0.3207(10) 0.2424(5) 1.0639(5) 0.047(3) Uani 1 1 d . . .
C85 C 0.2342(10) 0.2642(4) 1.0981(4) 0.042(3) Uani 1 1 d . . .
C86 C 0.1401(1