####################################################################### 
# 
# This file contains crystal structure data downloaded from the 
# Cambridge Structural Database (CSD) hosted by the Cambridge 
# Crystallographic Data Centre (CCDC).
# 
# Full information about CCDC data access policies and citation 
# guidelines are available at http://www.ccdc.cam.ac.uk/access/V1 
# 
# Audit and citation data items may have been added by the CCDC. 
# Please retain this information to preserve the provenance of 
# this file and to allow appropriate attribution of the data. 
# 
#######################################################################

data_shelx
_audit_block_doi                 10.5517/cc13jr5k
_database_code_depnum_ccdc_archive 'CCDC 1028988'
loop_
_citation_id
_citation_doi
_citation_year
1 10.1039/C4CE02210F 2015
_audit_update_record             
;
2014-10-13 deposited with the CCDC.	2024-07-11 downloaded from the CCDC.
;

_audit_creation_method           SHELXL-2014/6
_chemical_name_systematic        ?
_chemical_name_common            ?
_chemical_melting_point          ?
_chemical_formula_moiety         ?
_chemical_formula_sum            'C208 H241 Cu4 N24 O52'
_chemical_formula_weight         4163.39

loop_
_atom_type_symbol
_atom_type_description
_atom_type_scat_dispersion_real
_atom_type_scat_dispersion_imag
_atom_type_scat_source
C C 0.0033 0.0016 'International Tables Vol C Tables 4.2.6.8 and 6.1.1.4'
H H 0.0000 0.0000 'International Tables Vol C Tables 4.2.6.8 and 6.1.1.4'
O O 0.0106 0.0060 'International Tables Vol C Tables 4.2.6.8 and 6.1.1.4'
Cu Cu 0.3201 1.2651 'International Tables Vol C Tables 4.2.6.8 and 6.1.1.4'
N N 0.0061 0.0033 'International Tables Vol C Tables 4.2.6.8 and 6.1.1.4'

_space_group_crystal_system      monoclinic
_space_group_IT_number           4
_space_group_name_H-M_alt        'P 21'
_space_group_name_Hall           'P 2yb'

_shelx_space_group_comment       
;
The symmetry employed for this shelxl refinement is uniquely defined
by the following loop, which should always be used as a source of
symmetry information in preference to the above space-group names.
They are only intended as comments.
;

loop_
_space_group_symop_operation_xyz
'x, y, z'
'-x, y+1/2, -z'

_cell_length_a                   22.7600(9)
_cell_length_b                   25.2630(11)
_cell_length_c                   24.1460(11)
_cell_angle_alpha                90
_cell_angle_beta                 116.121(8)
_cell_angle_gamma                90
_cell_volume                     12465.6(12)
_cell_formula_units_Z            2
_cell_measurement_temperature    100(2)
_cell_measurement_reflns_used    ?
_cell_measurement_theta_min      2.61
_cell_measurement_theta_max      27.49

_exptl_crystal_description       plate
_exptl_crystal_colour            green
_exptl_crystal_density_meas      1.03
_exptl_crystal_density_method    'flotation, ZnCl2/H2O'
_exptl_crystal_density_diffrn    1.109
_exptl_crystal_F_000             4378
_exptl_transmission_factor_min   ?
_exptl_transmission_factor_max   ?
_exptl_crystal_size_max          0.15
_exptl_crystal_size_mid          0.10
_exptl_crystal_size_min          0.06
_exptl_absorpt_coefficient_mu    0.408
_shelx_estimated_absorpt_T_min   0.9496
_shelx_estimated_absorpt_T_max   0.9794
_exptl_absorpt_correction_type   none
_exptl_absorpt_correction_T_min  ?
_exptl_absorpt_correction_T_max  ?
_exptl_absorpt_process_details   ?
_exptl_absorpt_special_details   ?
_diffrn_ambient_temperature      100(2)
_diffrn_radiation_wavelength     0.71073
_diffrn_radiation_type           MoK\a
_diffrn_source                   'fine-focus sealed tube'
_diffrn_measurement_device_type  'Bruker APEX-II CCD'
_diffrn_measurement_method       '\f and \w scans'
_diffrn_detector_area_resol_mean ?
_diffrn_reflns_number            28035
_diffrn_reflns_av_unetI/netI     0.0470
_diffrn_reflns_av_R_equivalents  0.0279
_diffrn_reflns_limit_h_min       -22
_diffrn_reflns_limit_h_max       20
_diffrn_reflns_limit_k_min       -22
_diffrn_reflns_limit_k_max       25
_diffrn_reflns_limit_l_min       -24
_diffrn_reflns_limit_l_max       23
_diffrn_reflns_theta_min         1.612
_diffrn_reflns_theta_max         20.816
_diffrn_reflns_theta_full        25.242
_diffrn_measured_fraction_theta_max 0.994
_diffrn_measured_fraction_theta_full 0.579
_diffrn_reflns_Laue_measured_fraction_max 0.994
_diffrn_reflns_Laue_measured_fraction_full 0.579
_diffrn_reflns_point_group_measured_fraction_max 0.740
_diffrn_reflns_point_group_measured_fraction_full 0.428
_reflns_number_total             19321
_reflns_number_gt                15115
_reflns_threshold_expression     'I > 2\s(I)'
_reflns_Friedel_coverage         0.445
_reflns_Friedel_fraction_max     0.470
_reflns_Friedel_fraction_full    0.271

_reflns_special_details          
;
 Reflections were merged by SHELXL according to the crystal
 class for the calculation of statistics and refinement.
 
 Structure factors included contributions from the .fab file.
 
 _reflns_Friedel_fraction is defined as the number of unique
 Friedel pairs measured divided by the number that would be
 possible theoretically, ignoring centric projections and
 systematic absences.
;

_computing_data_collection       'Bruker APEX2'
_computing_cell_refinement       'Bruker SAINT'
_computing_data_reduction        'Bruker SAINT'
_computing_structure_solution    'SHELXS-97 (Sheldrick, 2008)'
_computing_structure_refinement  'SHELXL-2014/6 (Sheldrick, 2014)'
_computing_molecular_graphics    'Bruker SHELXTL'
_computing_publication_material  'Bruker SHELXTL'
_refine_special_details          Squeeze
_refine_ls_structure_factor_coef Fsqd
_refine_ls_matrix_type           full
_refine_ls_weighting_scheme      calc
_refine_ls_weighting_details     
'w=1/[\s^2^(Fo^2^)+(0.1203P)^2^] where P=(Fo^2^+2Fc^2^)/3'
_atom_sites_solution_primary     ?
_atom_sites_solution_secondary   ?
_atom_sites_solution_hydrogens   geom
_refine_ls_hydrogen_treatment    constr
_refine_ls_extinction_method     none
_refine_ls_extinction_coef       .
_refine_ls_abs_structure_details 
;
 Flack x determined using 4311 quotients [(I+)-(I-)]/[(I+)+(I-)]
 (Parsons, Flack and Wagner, Acta Cryst. B69 (2013) 249-259).
;
_refine_ls_abs_structure_Flack   0.312(6)
_chemical_absolute_configuration known
_refine_ls_number_reflns         19321
_refine_ls_number_parameters     1514
_refine_ls_number_restraints     1
_refine_ls_R_factor_all          0.0797
_refine_ls_R_factor_gt           0.0638
_refine_ls_wR_factor_ref         0.1829
_refine_ls_wR_factor_gt          0.1736
_refine_ls_goodness_of_fit_ref   1.028
_refine_ls_restrained_S_all      1.028
_refine_ls_shift/su_max          0.054
_refine_ls_shift/su_mean         0.001

loop_
_atom_site_label
_atom_site_type_symbol
_atom_site_fract_x
_atom_site_fract_y
_atom_site_fract_z
_atom_site_U_iso_or_equiv
_atom_site_adp_type
_atom_site_occupancy
_atom_site_site_symmetry_order
_atom_site_calc_flag
_atom_site_refinement_flags_posn
_atom_site_refinement_flags_adp
_atom_site_refinement_flags_occupancy
_atom_site_disorder_assembly
_atom_site_disorder_group
C11 C 0.3492(4) 0.0690(4) 0.8155(3) 0.040(2) Uani 1 1 d . . . . .
C16 C -0.6369(4) -0.4368(4) 0.2858(3) 0.042(2) Uani 1 1 d . . . . .
C19 C 1.1488(4) 0.4740(4) 1.1608(4) 0.047(2) Uani 1 1 d . . . . .
C20 C 0.1388(4) -0.0238(4) 0.6982(3) 0.041(2) Uani 1 1 d . . . . .
C23 C 0.2597(4) 0.0213(4) 0.6656(4) 0.045(2) Uani 1 1 d . . . . .
C24 C 0.2231(4) 0.0214(5) 0.8545(4) 0.057(3) Uani 1 1 d . . . . .
C26 C 0.2256(4) -0.0286(4) 0.9458(4) 0.057(2) Uani 1 1 d . . . . .
H26 H 0.2402 -0.0595 0.9330 0.069 Uiso 1 1 calc R U . . .
C27 C 1.2304(5) 0.4710(4) 1.4662(4) 0.065(3) Uani 1 1 d . . . . .
H27 H 1.2367 0.4393 1.4893 0.078 Uiso 1 1 calc R U . . .
C28 C 1.2286(4) 0.5156(4) 1.3790(4) 0.055(2) Uani 1 1 d . . . . .
C29 C 0.2502(4) 0.0626(4) 0.5096(4) 0.058(2) Uani 1 1 d . . . . .
H29 H 0.2300 0.0895 0.4797 0.070 Uiso 1 1 calc R U . . .
C30 C -0.5746(4) -0.4082(4) 0.3211(4) 0.051(2) Uani 1 1 d . . . . .
C31 C 1.2389(4) 0.4695(4) 1.4124(3) 0.055(2) Uani 1 1 d . . . . .
H31 H 1.2514 0.4378 1.3993 0.065 Uiso 1 1 calc R U . . .
C32 C 1.2741(4) 0.5237(4) 1.1288(4) 0.051(2) Uani 1 1 d . . . . .
C33 C 0.2428(4) 0.0607(4) 0.5649(3) 0.057(2) Uani 1 1 d . . . . .
H33 H 0.2174 0.0874 0.5720 0.069 Uiso 1 1 calc R U . . .
C34 C 1.2557(4) 0.5681(4) 1.0285(4) 0.058(2) Uani 1 1 d . . . . .
H34 H 1.2255 0.5921 1.0324 0.070 Uiso 1 1 calc R U . . .
C35 C 0.2138(4) 0.0173(4) 0.9111(4) 0.054(3) Uani 1 1 d . . . . .
C36 C 0.3004(6) 0.0292(5) 0.4435(4) 0.071(3) Uani 1 1 d . . . . .
C37 C 0.3049(5) -0.0181(4) 0.5968(3) 0.062(3) Uani 1 1 d . . . . .
H37 H 0.3216 -0.0470 0.6246 0.075 Uiso 1 1 calc R U . . .
C38 C 1.3134(4) 0.5376(4) 0.9721(4) 0.051(2) Uani 1 1 d . . . . .
C40 C 1.2861(4) 0.5297(4) 1.0735(3) 0.046(2) Uani 1 1 d . . . . .
C41 C 0.4136(4) 0.0982(5) 0.8508(4) 0.061(3) Uani 1 1 d . . . . .
C43 C 0.2701(4) 0.0230(4) 0.6074(4) 0.050(2) Uani 1 1 d . . . . .
C44 C 0.6386(4) 0.1667(4) 0.8795(5) 0.066(3) Uani 1 1 d . . . . .
H44 H 0.5993 0.1499 0.8516 0.080 Uiso 1 1 calc R U . . .
C45 C 0.0145(5) -0.0287(5) 0.6307(4) 0.074(3) Uani 1 1 d . . . . .
H45 H 0.0092 0.0044 0.6466 0.089 Uiso 1 1 calc R U . . .
C46 C 0.5272(4) 0.1563(4) 0.9133(4) 0.060(3) Uani 1 1 d . . . . .
C47 C 0.1919(5) 0.0635(5) 0.9296(4) 0.070(3) Uani 1 1 d . . . . .
H47 H 0.1813 0.0944 0.9047 0.084 Uiso 1 1 calc R U . . .
C48 C 0.4686(4) 0.1821(4) 0.8895(4) 0.062(3) Uani 1 1 d . . . . .
H48 H 0.4675 0.2192 0.8957 0.074 Uiso 1 1 calc R U . . .
C49 C 0.3143(5) -0.0146(5) 0.5418(4) 0.069(3) Uani 1 1 d . . . . .
H49 H 0.3402 -0.0403 0.5342 0.083 Uiso 1 1 calc R U . . .
C50 C -0.5151(4) -0.4352(4) 0.3430(4) 0.072(3) Uani 1 1 d . . . . .
H50 H -0.5146 -0.4718 0.3342 0.086 Uiso 1 1 calc R U . . .
C51 C 0.7474(4) 0.1933(4) 0.9050(5) 0.073(3) Uani 1 1 d . . . . .
C52' C 1.2053(6) 0.5208(4) 1.5443(4) 0.070(3) Uani 1 1 d . . . . .
C53' C 1.2051(4) 0.5617(5) 1.4526(4) 0.068(3) Uani 1 1 d . . . . .
H53' H 1.1949 0.5942 1.4661 0.082 Uiso 1 1 calc R U . . .
C54' C 1.3268(4) 0.4939(4) 1.0661(4) 0.056(3) Uani 1 1 d . . . . .
H54' H 1.3469 0.4668 1.0959 0.067 Uiso 1 1 calc R U . . .
C55' C 1.0269(4) 0.4722(4) 1.0968(4) 0.061(3) Uani 1 1 d . . . . .
H55' H 1.0248 0.5081 1.1076 0.073 Uiso 1 1 calc R U . . .
C56' C 1.2690(4) 0.5715(4) 0.9786(4) 0.058(2) Uani 1 1 d . . . . .
H56' H 1.2475 0.5976 0.9480 0.070 Uiso 1 1 calc R U . . .
C57' C 0.4714(4) 0.0741(4) 0.8727(4) 0.054(2) Uani 1 1 d . . . . .
H57' H 0.4728 0.0369 0.8672 0.064 Uiso 1 1 calc R U . . .
C58' C 1.2941(5) 0.5026(4) 0.8664(4) 0.063(3) Uani 1 1 d . . . . .
C59' C 0.2868(5) 0.0246(4) 0.5013(4) 0.067(3) Uani 1 1 d . . . . .
C60' C 0.7539(5) 0.2150(4) 0.9600(5) 0.065(3) Uani 1 1 d . . . . .
C61' C 0.2007(5) 0.0151(5) 1.0214(4) 0.069(3) Uani 1 1 d . . . . .
C62' C 0.6884(4) 0.1699(4) 0.8647(4) 0.061(3) Uani 1 1 d . . . . .
H62' H 0.6838 0.1563 0.8263 0.073 Uiso 1 1 calc R U . . .
C63' C 1.3233(5) 0.5426(4) 0.9161(4) 0.053(2) Uani 1 1 d . . . . .
C64' C -0.5735(5) -0.3536(4) 0.3320(4) 0.062(3) Uani 1 1 d . . . . .
H64' H -0.6137 -0.3347 0.3157 0.075 Uiso 1 1 calc R U . . .
C65' C -0.3459(5) -0.3376(4) 0.3533(4) 0.065(3) Uani 1 1 d . . . . .
H65' H -0.3856 -0.3523 0.3233 0.077 Uiso 1 1 calc R U . . .
C66' C 0.2333(5) -0.0071(5) 1.1297(5) 0.074(3) Uani 1 1 d . . . . .
C67' C -0.3416(4) -0.3211(4) 0.4114(4) 0.055(2) Uani 1 1 d . . . . .
C68' C -0.2307(4) -0.2947(4) 0.4374(4) 0.058(3) Uani 1 1 d . . . . .
C69' C 0.4100(4) 0.1548(4) 0.8560(4) 0.058(2) Uani 1 1 d . . . . .
H69' H 0.3693 0.1730 0.8373 0.069 Uiso 1 1 calc R U . . .
C70' C 0.0759(5) -0.0520(5) 0.6485(4) 0.074(3) Uani 1 1 d . . . . .
C71 C 1.0856(5) 0.4461(5) 1.1172(4) 0.068(3) Uani 1 1 d . . . . .
C72 C -0.2366(4) -0.3118(4) 0.3815(4) 0.057(2) Uani 1 1 d . . . . .
C73 C -0.3957(4) -0.3259(4) 0.4279(4) 0.058(3) Uani 1 1 d . . . . .
C74 C -0.2822(4) -0.2977(4) 0.4520(4) 0.052(2) Uani 1 1 d . . . . .
C75 C 0.9080(4) 0.3660(4) 1.0023(4) 0.064(3) Uani 1 1 d . . . . .
C76' C -0.2758(5) -0.2765(4) 0.5111(4) 0.070(3) Uani 1 1 d . . . . .
H76' H -0.2355 -0.2619 0.5401 0.084 Uiso 1 1 calc R U . . .
C77' C -0.5167(5) -0.3268(4) 0.3654(4) 0.064(3) Uani 1 1 d . . . . .
H77' H -0.5182 -0.2898 0.3718 0.077 Uiso 1 1 calc R U . . .
C78' C 0.1868(6) 0.0141(5) 1.0777(5) 0.083(3) Uani 1 1 d . . . . .
C79' C -0.4575(5) -0.3523(4) 0.3899(4) 0.067(3) Uani 1 1 d . . . . .
C80' C -0.2957(5) -0.3327(4) 0.3411(4) 0.062(3) Uani 1 1 d . . . . .
H80' H -0.3003 -0.3443 0.3019 0.075 Uiso 1 1 calc R U . . .
C81 C 0.2872(5) -0.0060(5) 0.3447(4) 0.074(3) Uani 1 1 d . . . . .
C82 C 0.7027(5) 0.2136(4) 0.9746(4) 0.066(3) Uani 1 1 d . . . . .
C83 C 0.2161(4) -0.0300(5) 0.9998(4) 0.067(3) Uani 1 1 d . . . . .
H83 H 0.2206 -0.0625 1.0211 0.080 Uiso 1 1 calc R U . . .
C84 C -0.1663(4) -0.2682(4) 0.4828(4) 0.063(3) Uani 1 1 d . . . . .
C85 C 1.3500(5) 0.4535(4) 1.7124(5) 0.075(3) Uani 1 1 d . . . . .
C86' C 1.2116(4) 0.5609(5) 1.3968(4) 0.065(3) Uani 1 1 d . . . . .
H86' H 1.2041 0.5921 1.3726 0.078 Uiso 1 1 calc R U . . .
C87' C 1.3389(4) 0.4975(4) 1.0136(4) 0.061(3) Uani 1 1 d . . . . .
H87' H 1.3652 0.4714 1.0071 0.073 Uiso 1 1 calc R U . . .
C88' C 1.2564(6) 0.4989(5) 1.6000(5) 0.086(3) Uani 1 1 d . . . . .
C89' C -0.0322(5) -0.1058(4) 0.5592(4) 0.069(3) Uani 1 1 d . . . . .
C90' C 1.2129(5) 0.5172(5) 1.4879(4) 0.067(3) Uani 1 1 d . . . . .
C91A C 1.3613(5) 0.5795(4) 0.9125(4) 0.072(3) Uani 1 1 d . . . . .
H91A H 1.3817 0.6034 0.9459 0.087 Uiso 1 1 calc R U . . .
C92 C 0.2079(6) -0.0890(6) 0.3514(6) 0.114(5) Uani 1 1 d . . . . .
H92 H 0.1826 -0.1175 0.3550 0.137 Uiso 1 1 calc R U . . .
C92' C 1.2375(4) 0.5133(5) 1.3196(4) 0.058(3) Uani 1 1 d . . . . .
C92A C 0.7038(5) 0.2382(4) 1.0312(4) 0.063(3) Uani 1 1 d . . . . .
H92A H 0.7424 0.2560 1.0587 0.076 Uiso 1 1 calc R U . . .
C93' C 0.5889(4) 0.1853(4) 0.9530(4) 0.062(3) Uani 1 1 d . . . . .
C93A C 0.1858(5) 0.0631(6) 0.9850(5) 0.089(3) Uani 1 1 d . . . . .
H93A H 0.1720 0.0940 0.9984 0.107 Uiso 1 1 calc R U . . .
C94A C 0.2722(5) -0.0113(5) 0.3955(5) 0.072(3) Uani 1 1 d . . . . .
C95' C 0.3310(6) 0.0690(6) 0.4358(5) 0.096(4) Uani 1 1 d . . . . .
H95' H 0.3434 0.0962 0.4660 0.116 Uiso 1 1 calc R U . . .
C95A C -0.0908(5) -0.1311(4) 0.5147(5) 0.065(3) Uani 1 1 d . . . . .
C96A C -0.1012(4) -0.1868(4) 0.5213(4) 0.062(3) Uani 1 1 d . . . . .
C97A C 0.9696(5) 0.4436(4) 1.0590(4) 0.064(3) Uani 1 1 d . . . . .
H97A H 0.9286 0.4610 1.0447 0.076 Uiso 1 1 calc R U . . .
C98A C 0.2997(6) -0.0203(6) 1.1384(5) 0.099(4) Uani 1 1 d . . . . .
H98A H 0.3108 -0.0140 1.1054 0.119 Uiso 1 1 calc R U . . .
C99A C 0.1303(5) 0.0323(5) 1.0754(5) 0.078(3) Uani 1 1 d . . . . .
H99A H 0.0985 0.0489 1.0393 0.094 Uiso 1 1 calc R U . . .
C100 C -0.1362(4) -0.1056(4) 0.4652(4) 0.067(3) Uani 1 1 d . . . . .
H100 H -0.1303 -0.0693 0.4588 0.080 Uiso 1 1 calc R U . . .
C103 C -0.1560(4) -0.2142(4) 0.4778(4) 0.049(2) Uani 1 1 d . . . . .
C104 C 0.3475(6) -0.0418(5) 1.1933(6) 0.100(4) Uani 1 1 d . . . . .
H104 H 0.3892 -0.0516 1.1966 0.119 Uiso 1 1 calc R U . . .
C105 C 0.9141(5) 0.2501(5) 1.0962(5) 0.071(3) Uani 1 1 d . . . . .
H105 H 0.9427 0.2351 1.1349 0.085 Uiso 1 1 calc R U . . .
C106 C 1.2442(7) 0.4977(5) 1.6551(5) 0.086(3) Uani 1 1 d . . . . .
C107 C 1.3070(5) 0.5078(4) 0.8156(4) 0.066(3) Uani 1 1 d . . . . .
C108 C -0.0403(5) -0.0584(4) 0.5866(5) 0.075(3) Uani 1 1 d . . . . .
H108 H -0.0833 -0.0458 0.5755 0.090 Uiso 1 1 calc R U . . .
C109 C 1.2756(6) 0.4699(5) 0.7640(5) 0.089(3) Uani 1 1 d . . . . .
C110 C -0.3285(5) -0.2782(4) 0.5236(4) 0.070(3) Uani 1 1 d . . . . .
H110 H -0.3256 -0.2621 0.5603 0.084 Uiso 1 1 calc R U . . .
C111 C -0.2038(4) -0.1839(4) 0.4262(4) 0.054(2) Uani 1 1 d . . . . .
H111 H -0.2419 -0.2003 0.3957 0.064 Uiso 1 1 calc R U . . .
C112 C 0.6422(5) 0.1872(4) 0.9349(4) 0.061(3) Uani 1 1 d . . . . .
C114 C 0.9706(5) 0.3935(4) 1.0425(4) 0.071(3) Uani 1 1 d . . . . .
C115 C 0.8167(4) 0.2421(4) 1.0008(4) 0.057(2) Uani 1 1 d . . . . .
C116 C 0.6543(5) 0.2364(4) 1.0450(4) 0.067(3) Uani 1 1 d . . . . .
H116 H 0.6583 0.2533 1.0816 0.081 Uiso 1 1 calc R U . . .
C117 C 1.0892(4) 0.3948(4) 1.0995(4) 0.060(3) Uani 1 1 d . . . . .
H117 H 1.1304 0.3781 1.1112 0.072 Uiso 1 1 calc R U . . .
C118 C 0.0856(5) -0.1005(5) 0.6213(5) 0.083(3) Uani 1 1 d . . . . .
H118 H 0.1279 -0.1153 0.6340 0.099 Uiso 1 1 calc R U . . .
C119 C 1.2906(6) 0.4713(5) 1.7111(4) 0.085(3) Uani 1 1 d . . . . .
C120 C -0.3908(5) -0.3048(4) 0.4811(5) 0.072(3) Uani 1 1 d . . . . .
H120 H -0.4265 -0.3068 0.4914 0.086 Uiso 1 1 calc R U . . .
C121 C 1.3184(5) 0.4787(4) 1.6067(4) 0.074(3) Uani 1 1 d . . . . .
H121 H 1.3276 0.4804 1.5720 0.089 Uiso 1 1 calc R U . . .
C122 C 1.2268(6) 0.4273(6) 0.8206(6) 0.101(4) Uani 1 1 d . . . . .
H122 H 1.2026 0.3983 0.8249 0.122 Uiso 1 1 calc R U . . .
C123 C 0.9295(5) 0.2946(4) 1.0817(5) 0.071(3) Uani 1 1 d . . . . .
H123 H 0.9664 0.3131 1.1111 0.085 Uiso 1 1 calc R U . . .
C124 C 0.2693(6) -0.0382(5) 1.2377(5) 0.083(3) Uani 1 1 d . . . . .
C127 C 0.8341(4) 0.2903(4) 0.9838(4) 0.060(3) Uani 1 1 d . . . . .
C128 C 0.8921(4) 0.3175(4) 1.0216(4) 0.056(2) Uani 1 1 d . . . . .
C129 C 0.7926(4) 0.3128(4) 0.9242(4) 0.053(2) Uani 1 1 d . . . . .
H129 H 0.7539 0.2950 0.8968 0.063 Uiso 1 1 calc R U . . .
C130 C -0.0664(5) -0.2701(5) 0.5790(5) 0.085(3) Uani 1 1 d . . . . .
H130 H -0.0363 -0.2888 0.6143 0.102 Uiso 1 1 calc R U . . .
C131 C 1.3658(6) 0.4569(5) 1.6611(5) 0.102(4) Uani 1 1 d . . . . .
H131 H 1.4066 0.4449 1.6641 0.122 Uiso 1 1 calc R U . . .
C132 C -0.0571(5) -0.2184(5) 0.5714(5) 0.079(3) Uani 1 1 d . . . . .
H132 H -0.0188 -0.2018 0.6013 0.095 Uiso 1 1 calc R U . . .
C133 C 0.2225(7) -0.0112(5) 1.1835(5) 0.091(4) Uani 1 1 d . . . . .
C135 C 0.52