####################################################################### 
# 
# This file contains crystal structure data downloaded from the 
# Cambridge Structural Database (CSD) hosted by the Cambridge 
# Crystallographic Data Centre (CCDC).
# 
# Full information about CCDC data access policies and citation 
# guidelines are available at http://www.ccdc.cam.ac.uk/access/V1 
# 
# Audit and citation data items may have been added by the CCDC. 
# Please retain this information to preserve the provenance of 
# this file and to allow appropriate attribution of the data. 
# 
#######################################################################

data_am19
_audit_block_doi                 10.5517/cc13qz71
_database_code_depnum_ccdc_archive 'CCDC 1034973'
loop_
_citation_id
_citation_doi
_citation_year
1 10.1021/cg501690b 2015

_audit_update_record             
;
2014-11-19 deposited with the CCDC.	2024-07-11 downloaded from the CCDC.
;
_audit_creation_date             2014-11-05
_audit_creation_method           
;
Olex2 1.2
(compiled 2014.08.28 svn.r2986 for OlexSys, GUI svn.r4874)
;
_shelxl_version_number           2013-2
_chemical_name_common            ?
_chemical_name_systematic        
;
 ?
;
_chemical_formula_moiety         'C44 H28 Co3 N4 O14'
_chemical_formula_sum            'C44 H28 Co3 N4 O14'
_chemical_formula_weight         1013.49
_chemical_melting_point          ?
loop_
_atom_type_symbol
_atom_type_description
_atom_type_scat_dispersion_real
_atom_type_scat_dispersion_imag
_atom_type_scat_source
C C 0.0033 0.0016 'International Tables Vol C Tables 4.2.6.8 and 6.1.1.4'
H H 0.0000 0.0000 'International Tables Vol C Tables 4.2.6.8 and 6.1.1.4'
Co Co 0.3494 0.9721 'International Tables Vol C Tables 4.2.6.8 and 6.1.1.4'
N N 0.0061 0.0033 'International Tables Vol C Tables 4.2.6.8 and 6.1.1.4'
O O 0.0106 0.0060 'International Tables Vol C Tables 4.2.6.8 and 6.1.1.4'

_shelx_space_group_comment       
;
The symmetry employed for this shelxl refinement is uniquely defined
by the following loop, which should always be used as a source of
symmetry information in preference to the above space-group names.
They are only intended as comments.
;
_space_group_crystal_system      triclinic
_space_group_IT_number           2
_space_group_name_H-M_alt        'P -1'
_space_group_name_Hall           '-P 1'
loop_
_space_group_symop_operation_xyz
'x, y, z'
'-x, -y, -z'

_cell_length_a                   9.650(6)
_cell_length_b                   17.270(12)
_cell_length_c                   18.274(12)
_cell_angle_alpha                99.057(11)
_cell_angle_beta                 90.485(9)
_cell_angle_gamma                106.122(10)
_cell_volume                     2885(3)
_cell_formula_units_Z            2
_cell_measurement_reflns_used    6055
_cell_measurement_temperature    100(2)
_cell_measurement_theta_max      27.5
_cell_measurement_theta_min      2.2
_shelx_estimated_absorpt_T_max   ?
_shelx_estimated_absorpt_T_min   ?
_exptl_absorpt_coefficient_mu    0.907
_exptl_absorpt_correction_T_max  1.000
_exptl_absorpt_correction_T_min  0.757
_exptl_absorpt_correction_type   Multi-scan
_exptl_absorpt_process_details   
;
Higashi, T. (1995). Program for Absorption Correction.
Rigaku Corporation, Tokyo, Japan.
;
_exptl_crystal_colour            pink
_exptl_crystal_density_diffrn    1.167
_exptl_crystal_density_meas      ?
_exptl_crystal_density_method    ?
_exptl_crystal_description       Platelet
_exptl_crystal_F_000             1026
_exptl_crystal_size_max          0.05
_exptl_crystal_size_mid          0.04
_exptl_crystal_size_min          0.01
_exptl_special_details           
;
 We are grateful to the National Crystallographic Service for recording 
the data for am19.

The data collection nominally covered over a hemisphere of 
Reciprocal space, by a combination of six sets of exposures with 
different \f angles for the crystal; each 30 s exposure covered 
1.0\% in \w. 

The crystal-to-detector distance was 5.5 cm. 
Crystal decay was found to be negligible by repeating the initial 
frames at the end of data collection and analyzing the duplicate 
reflections. 
;
_exptl_transmission_factor_max   ?
_exptl_transmission_factor_min   ?
_diffrn_reflns_av_R_equivalents  0.136
_diffrn_reflns_av_unetI/netI     0.175
_diffrn_reflns_Laue_measured_fraction_full 0.997
_diffrn_reflns_Laue_measured_fraction_max 0.984
_diffrn_reflns_limit_h_max       12
_diffrn_reflns_limit_h_min       -10
_diffrn_reflns_limit_k_max       22
_diffrn_reflns_limit_k_min       -22
_diffrn_reflns_limit_l_max       23
_diffrn_reflns_limit_l_min       -23
_diffrn_reflns_number            37606
_diffrn_reflns_point_group_measured_fraction_full 0.997
_diffrn_reflns_point_group_measured_fraction_max 0.984
_diffrn_reflns_theta_full        27.5
_diffrn_reflns_theta_max         27.515
_diffrn_reflns_theta_min         2.2
_diffrn_ambient_temperature      100(2)
_diffrn_detector                 CCD
_diffrn_detector_area_resol_mean 28.5714
_diffrn_measured_fraction_theta_full 0.985
_diffrn_measured_fraction_theta_max 0.985
_diffrn_measurement_details      
;
scan:
	Number of images: 128
	           Slice: -110.0000 - 18.0000
	     Image width: 1.0000
	        Exp time: 30.0000
	   Rotation axis: Omega
	           Omega: 0.0000
	           Kappa: -70.0000
	             Phi: 315.0000
	             XTD: 45.2039
	          2theta: -20.0967
scan:
	Number of images: 128
	           Slice: -110.0000 - 18.0000
	     Image width: 1.0000
	        Exp time: 30.0000
	   Rotation axis: Omega
	           Omega: 0.0000
	           Kappa: -70.0000
	             Phi: 270.0000
	             XTD: 45.2039
	          2theta: -20.0967
scan:
	Number of images: 113
	           Slice: -110.0000 - 3.0000
	     Image width: 1.0000
	        Exp time: 30.0000
	   Rotation axis: Omega
	           Omega: 0.0000
	           Kappa: -70.0000
	             Phi: 135.0000
	             XTD: 45.2039
	          2theta: -20.0967
scan:
	Number of images: 90
	           Slice: -87.0000 - 3.0000
	     Image width: 1.0000
	        Exp time: 30.0000
	   Rotation axis: Omega
	           Omega: 0.0000
	           Kappa: 0.0000
	             Phi: 45.0000
	             XTD: 45.2039
	          2theta: -20.0967
scan:
	Number of images: 60
	           Slice: -110.0000 - -50.0000
	     Image width: 1.0000
	        Exp time: 30.0000
	   Rotation axis: Omega
	           Omega: 0.0000
	           Kappa: 0.0000
	             Phi: 0.0000
	             XTD: 45.2039
	          2theta: -20.0967
scan:
	Number of images: 48
	           Slice: -86.0000 - -38.0000
	     Image width: 1.0000
	        Exp time: 30.0000
	   Rotation axis: Omega
	           Omega: 0.0000
	           Kappa: -70.0000
	             Phi: 90.0000
	             XTD: 45.2039
	          2theta: -20.0967

 Reflections were merged by SHELXL according to the crystal
 class for the calculation of statistics and refinement.
 
 _reflns_Friedel_fraction is defined as the number of unique
 Friedel pairs measured divided by the number that would be
 possible theoretically, ignoring centric projections and
 systematic absences.
;
_diffrn_measurement_device       
;
AFC12 (Right): Kappa 3 circle
;
_diffrn_measurement_device_type  
;
Rigaku Saturn724+ (2x2 bin mode)
;
_diffrn_measurement_method       'profile data from \w-scans'
_diffrn_measurement_specimen_support Mitegen
_diffrn_orient_matrix_type       d*Trek
_diffrn_orient_matrix_UB_11      0.105904
_diffrn_orient_matrix_UB_12      0.019681
_diffrn_orient_matrix_UB_13      0.008207
_diffrn_orient_matrix_UB_21      0.015173
_diffrn_orient_matrix_UB_22      0.033514
_diffrn_orient_matrix_UB_23      -0.048816
_diffrn_orient_matrix_UB_31      -0.007945
_diffrn_orient_matrix_UB_32      0.050812
_diffrn_orient_matrix_UB_33      0.020856
_diffrn_radiation_monochromator  Confocal
_diffrn_radiation_type           'Mo K\a'
_diffrn_radiation_wavelength     0.71075
_diffrn_source                   'Rotating Anode'
_diffrn_source_current           55.0
_diffrn_source_power             2.5
_diffrn_source_voltage           45.0
_reflns_number_gt                6882
_reflns_number_total             13070
_reflns_threshold_expression     >2sigma(I)
_computing_cell_refinement       
;
CrystalClear-SM Expert 2.0 r11 (Rigaku, 2011)
;
_computing_data_collection       
;
CrystalClear-SM Expert 2.0 r11 (Rigaku, 2011)
;
_computing_data_reduction        
;
CrystalClear-SM Expert 2.0 r11 (Rigaku, 2011)
;
_computing_molecular_graphics    'Olex2 (Dolomanov et al., 2009)'
_computing_publication_material  'Olex2 (Dolomanov et al., 2009)'
_computing_structure_refinement  'ShelXL (Sheldrick, 2008)'
_computing_structure_solution    'ShelXS (Sheldrick, 2008)'
_refine_diff_density_max         0.744
_refine_diff_density_min         -1.135
_refine_diff_density_rms         0.240
_refine_ls_extinction_coef       .
_refine_ls_extinction_method     none
_refine_ls_goodness_of_fit_ref   0.989
_refine_ls_hydrogen_treatment    constr
_refine_ls_matrix_type           full
_refine_ls_number_parameters     589
_refine_ls_number_reflns         13070
_refine_ls_number_restraints     42
_refine_ls_R_factor_all          0.1626
_refine_ls_R_factor_gt           0.0898
_refine_ls_restrained_S_all      0.989
_refine_ls_shift/su_max          0.000
_refine_ls_shift/su_mean         0.000
_refine_ls_structure_factor_coef Fsqd
_refine_ls_weighting_details     
;
 w=1/[\s^2^(Fo^2^)+(0.0985P)^2^]
 where P=(Fo^2^+2Fc^2^)/3
;
_refine_ls_weighting_scheme      calc
_refine_ls_wR_factor_gt          0.2159
_refine_ls_wR_factor_ref         0.2484
_refine_special_details          
;
  Refinement of F^2^ against ALL reflections.  The weighted R-factor wR and 

 goodness of fit S are based on F^2^, conventional R-factors R are based 

 on F, with F set to zero for negative F^2^. The threshold expression of 

 F^2^ > 2sigma(F^2^) is used only for calculating R-factors(gt) etc. and is 

 not relevant to the choice of reflections for refinement.  R-factors based 

 on F^2^ are statistically about twice as large as those based on F, and R- 

 factors based on ALL data will be even larger. 

Hydrogen atoms were added at calculated positions and refined using 

a riding model.  Anisotropic displacement parameters were used for all 

non-H atoms; H-atoms were given isotropic displacement parameter equal 

to 1.2 times the equivalent isotropic displacement parameter of the 
atom to which they are attached. 

SIMU restraints were used to give some of the cigar shaped thermal 
parameters of terephthalate ligand C  ellipsoids more in line with 
chemically similar ligands.

The higher symmetry C centred cell was also investigated.
33.001/9.584/18.144  Beta 99.26 but refinement gave an R1 of 
about 14% with many problematic thermal parameters.
;
_olex2_refinement_description    
;
1. Fixed Uiso
 At 1.2 times of:
  All C(H) groups
2. Uiso/Uaniso restraints and constraints
C3B \\sim C4B \\sim C4B \\sim C5B \\sim C6B: within 1.7A with sigma of 0.008
and sigma for terminal atoms of 0.016
C5C \\sim C6C \\sim C7C \\sim C8C \\sim C3C: within 1.7A with sigma of 0.004
and sigma for terminal atoms of 0.016
3.a Aromatic/amide H refined with riding coordinates:
 C4C(H4C), C5C(H5C), C7C(H7C), C8C(H8C), C4D(H4D), C5D(H5D), C7D(H7D),
 C8D(H8D), C4F(H4F), C5F(H5F), C3A(H3A), C4A(H4A), C5A(H5A), C6A(H6A), C9A(H9A),
  C10A(H10A), C11A(H11A), C12A(H12A), C3B(H3B), C4B(H4B), C5B(H5B), C6B(H6B),
 C9B(H9B), C10B(H10B), C11B(H11B), C12B(H12B), C4E(H4E), C5E(H5E)
;
_atom_sites_solution_hydrogens   geom
_atom_sites_solution_primary     direct
_atom_sites_solution_secondary   ?
loop_
_atom_site_label
_atom_site_type_symbol
_atom_site_fract_x
_atom_site_fract_y
_atom_site_fract_z
_atom_site_U_iso_or_equiv
_atom_site_adp_type
_atom_site_occupancy
_atom_site_site_symmetry_order
_atom_site_calc_flag
_atom_site_refinement_flags_posn
_atom_site_refinement_flags_adp
_atom_site_refinement_flags_occupancy
_atom_site_disorder_assembly
_atom_site_disorder_group
Co1 Co 0.5000 0.0000 0.5000 0.0140(3) Uani 1 2 d S T P . .
Co2 Co 0.0000 0.0000 1.0000 0.0157(3) Uani 1 2 d S T P . .
Co3 Co -0.16403(10) -0.21059(5) 0.95073(5) 0.0185(2) Uani 1 1 d . . . . .
Co4 Co 0.45115(10) -0.21070(5) 0.45201(5) 0.0171(2) Uani 1 1 d . . . . .
O1C O 0.0200(5) -0.1793(3) 0.8947(2) 0.0209(11) Uani 1 1 d . . . . .
O2C O 0.0704(5) -0.0434(3) 0.8997(2) 0.0204(11) Uani 1 1 d . . . . .
C2C C 0.0725(7) -0.1134(4) 0.8697(4) 0.0181(14) Uani 1 1 d . . . . .
C3C C 0.1437(7) -0.1201(4) 0.7962(4) 0.0206(13) Uani 1 1 d . . . . .
C4C C 0.1972(7) -0.0494(4) 0.7647(4) 0.0201(15) Uani 1 1 d . . . . .
H4C H 0.1903 0.0018 0.7899 0.024 Uiso 1 1 calc R . . . .
C5C C 0.2603(7) -0.0541(4) 0.6964(4) 0.0218(14) Uani 1 1 d . . . . .
H5C H 0.2965 -0.0061 0.6751 0.026 Uiso 1 1 calc R . . . .
C6C C 0.2704(7) -0.1296(4) 0.6593(4) 0.0185(12) Uani 1 1 d . . . . .
C7C C 0.2243(7) -0.1984(4) 0.6921(3) 0.0167(11) Uani 1 1 d . . . . .
H7C H 0.2374 -0.2488 0.6687 0.020 Uiso 1 1 calc R . . . .
C8C C 0.1587(7) -0.1940(4) 0.7595(4) 0.0199(12) Uani 1 1 d . . . . .
H8C H 0.1238 -0.2421 0.7808 0.024 Uiso 1 1 calc R . . . .
O9C O 0.3454(5) -0.0707(3) 0.5531(2) 0.0200(11) Uani 1 1 d . . . . .
C9C C 0.3356(7) -0.1328(4) 0.5864(4) 0.0150(14) Uani 1 1 d . . . . .
O10C O 0.3734(5) -0.1944(3) 0.5578(3) 0.0237(11) Uani 1 1 d . . . . .
O1D O 0.2981(5) -0.1789(3) 0.3961(2) 0.0171(10) Uani 1 1 d . . . . .
O2D O 0.3817(5) -0.0424(3) 0.4002(3) 0.0205(11) Uani 1 1 d . . . . .
C2D C 0.3094(7) -0.1136(4) 0.3709(3) 0.0180(15) Uani 1 1 d . . . . .
C3D C 0.2320(7) -0.1204(4) 0.2968(4) 0.0183(15) Uani 1 1 d . . . . .
C4D C 0.1528(8) -0.1968(4) 0.2560(4) 0.0223(16) Uani 1 1 d . . . . .
H4D H 0.1472 -0.2451 0.2759 0.027 Uiso 1 1 calc R . . . .
C5D C 0.0847(8) -0.2028(4) 0.1895(4) 0.0243(17) Uani 1 1 d . . . . .
H5D H 0.0288 -0.2545 0.1639 0.029 Uiso 1 1 calc R . . . .
C6D C 0.0974(7) -0.1325(4) 0.1591(4) 0.0165(14) Uani 1 1 d . . . . .
C7D C 0.1765(8) -0.0551(4) 0.1975(3) 0.0242(17) Uani 1 1 d . . . . .
H7D H 0.1848 -0.0073 0.1763 0.029 Uiso 1 1 calc R . . . .
C8D C 0.2420(8) -0.0497(4) 0.2668(4) 0.0209(15) Uani 1 1 d . . . . .
H8D H 0.2937 0.0022 0.2938 0.025 Uiso 1 1 calc R . . . .
O9D O 0.0833(5) -0.0732(3) 0.0520(3) 0.0219(11) Uani 1 1 d . . . . .
C9D C 0.0313(8) -0.1356(4) 0.0829(4) 0.0220(16) Uani 1 1 d . . . . .
O10D O -0.0715(5) -0.1978(3) 0.0558(3) 0.0244(11) Uani 1 1 d . . . . .
O1F O -0.2077(5) -0.3385(3) 0.9364(3) 0.0288(12) Uani 1 1 d . . . . .
O2F O -0.3661(5) -0.2795(3) 0.9924(3) 0.0279(12) Uani 1 1 d . . . . .
C2F C -0.3248(9) -0.3421(5) 0.9723(4) 0.0300(18) Uani 1 1 d . . . . .
C3F C -0.4166(9) -0.4248(4) 0.9886(4) 0.0315(19) Uani 1 1 d . . . . .
C4F C -0.3663(9) -0.4942(5) 0.9677(5) 0.038(2) Uani 1 1 d . . . . .
H4F H -0.2769 -0.4896 0.9449 0.045 Uiso 1 1 calc R . . . .
C5F C -0.5481(9) -0.4296(5) 1.0185(5) 0.038(2) Uani 1 1 d . . . . .
H5F H -0.5808 -0.3822 1.0298 0.046 Uiso 1 1 calc R . . . .
O1A O 0.6011(5) -0.0975(3) 0.4705(2) 0.0161(10) Uani 1 1 d . . . . .
N2A N 0.7361(6) -0.1035(3) 0.4769(3) 0.0207(13) Uani 1 1 d . . . . .
C3A C 0.8120(8) -0.0735(5) 0.5429(4) 0.0289(18) Uani 1 1 d . . . . .
H3A H 0.7703 -0.0468 0.5825 0.035 Uiso 1 1 calc R . . . .
C4A C 0.9491(8) -0.0812(5) 0.5531(5) 0.0334(19) Uani 1 1 d . . . . .
H4A H 1.0017 -0.0605 0.5996 0.040 Uiso 1 1 calc R . . . .
C5A C 1.0082(9) -0.1194(5) 0.4946(5) 0.038(2) Uani 1 1 d . . . . .
H5A H 1.1032 -0.1244 0.5001 0.046 Uiso 1 1 calc R . . . .
C6A C 0.9305(8) -0.1498(5) 0.4293(5) 0.034(2) Uani 1 1 d . . . . .
H6A H 0.9718 -0.1766 0.3895 0.041 Uiso 1 1 calc R . . . .
C7A C 0.7925(8) -0.1430(4) 0.4188(4) 0.0207(15) Uani 1 1 d . . . . .
C8A C 0.7054(8) -0.1779(4) 0.3472(4) 0.0270(17) Uani 1 1 d . . . . .
C9A C 0.7737(9) -0.1711(5) 0.2798(4) 0.0331(19) Uani 1 1 d . . . . .
H9A H 0.8724 -0.1409 0.2802 0.040 Uiso 1 1 calc R . . . .
C10A C 0.6992(10) -0.2073(5) 0.2143(4) 0.040(2) Uani 1 1 d . . . . .
H10A H 0.7449 -0.2036 0.1686 0.048 Uiso 1 1 calc R . . . .
C11A C 0.5540(9) -0.2502(5) 0.2158(4) 0.035(2) Uani 1 1 d . . . . .
H11A H 0.4992 -0.2763 0.1708 0.042 Uiso 1 1 calc R . . . .
C12A C 0.4894(9) -0.2547(4) 0.2834(4) 0.0280(18) Uani 1 1 d . . . . .
H12A H 0.3909 -0.2850 0.2840 0.034 Uiso 1 1 calc R . . . .
N13A N 0.5640(6) -0.2167(3) 0.3488(3) 0.0213(13) Uani 1 1 d . . . . .
O1B O -0.1983(5) -0.0971(3) 0.9740(3) 0.0216(11) Uani 1 1 d . . . . .
N2B N -0.3390(7) -0.1015(4) 0.9804(4) 0.0280(15) Uani 1 1 d . . . . .
C3B C -0.3812(10) -0.0750(7) 1.0497(5) 0.051(2) Uani 1 1 d . . . . .
H3B H -0.3124 -0.0511 1.0903 0.061 Uiso 1 1 calc R . . . .
C4B C -0.5278(11) -0.0846(8) 1.0581(6) 0.068(3) Uani 1 1 d . . . . .
H4B H -0.5601 -0.0671 1.1052 0.081 Uiso 1 1 calc R . . . .
C5B C -0.6260(11) -0.1188(8) 0.9994(6) 0.077(3) Uani 1 1 d . . . . .
H5B H -0.7260 -0.1254 1.0056 0.093 Uiso 1 1 calc R . . . .
C6B C -0.5782(9) -0.1438(8) 0.9310(5) 0.067(3) Uani 1 1 d . . . . .
H6B H -0.6466 -0.1661 0.