
#######################################################################
#
#                 Cambridge Crystallographic Data Centre
#                                CCDC
#
#######################################################################
#
# If this CIF has been generated from an entry in the Cambridge
# Structural Database, then it will include bibliographic, chemical,
# crystal, experimental, refinement or atomic coordinate data resulting
# from the CCDC's data processing and validation procedures.
#
#######################################################################

data_CSD_CIF_LOZNOD
_audit_creation_date 2002-11-13
_audit_creation_method CSD-ConQuest-V1
_database_code_CSD LOZNOD
_database_code_depnum_ccdc_archive 'CCDC 182128'
_chemical_formula_sum 'C40 H75.88 Kr0.42 N20 O22.94'
_chemical_formula_moiety
;
C40 H50 N20 O10,0.42(Kr1),12.94(H2 O1)
;
_journal_coden_Cambridge 179
_journal_volume 41
_journal_year 2002
_journal_page_first 3020
_journal_name_full 'Angew.Chem.,Int.Ed. '
loop_
_publ_author_name
"Y.Miyahara"
"K.Abe"
"T.Inazu"
_chemical_name_systematic
;
Decamethylcucurbit(5)uril krypton hydrate clathrate dodecahydrate
;
_chemical_name_common
;
Teaching Subset: Fundamental Chemistry, Symmetry
;
_cell_volume   5320.256
_exptl_crystal_colour 'colorless'
_exptl_special_details
;
The total number of water molecules is unclear in the paper and the 
supplementary data; The water molecules in the cavity (O6) have an occupancy 
of 0.47
;
_exptl_crystal_description 'prism'
_diffrn_ambient_temperature 86.2
#These two values have been output from a single CSD field.
_refine_ls_R_factor_gt 0.0454
_refine_ls_wR_factor_gt 0.0454
_symmetry_cell_setting monoclinic
_symmetry_space_group_name_H-M 'C 2/c'
_symmetry_Int_Tables_number 15
loop_
_symmetry_equiv_pos_site_id
_symmetry_equiv_pos_as_xyz
1 x,y,z
2 1/2+x,1/2+y,z
3 -x,y,1/2-z
4 1/2-x,1/2+y,1/2-z
5 -x,-y,-z
6 -1/2-x,-1/2-y,-z
7 x,-y,-1/2+z
8 -1/2+x,-1/2-y,-1/2+z
_cell_length_a 17.912(1)
_cell_length_b 14.3280(7)
_cell_length_c 21.422(1)
_cell_angle_alpha 90
_cell_angle_beta 104.601(1)
_cell_angle_gamma 90
_cell_formula_units_Z 4
loop_
_atom_type_symbol
_atom_type_radius_bond
C 0.68
H 0.23
Kr 0.62
N 0.68
O 0.38
loop_
_atom_site_label
_atom_site_type_symbol
_atom_site_fract_x
_atom_site_fract_y
_atom_site_fract_z
Kr1 Kr 0.50000 0.40733(5) 0.75000
O1 O 0.40696(6) 0.25426(8) 0.58242(5)
O2 O 0.44071(6) 0.46338(8) 0.55653(5)
O3 O 0.35263(6) 0.59402(8) 0.63871(5)
O4 O 0.30394(6) 0.26258(8) 0.69429(5)
O5 O 0.26147(6) 0.46490(8) 0.72632(5)
N1 N 0.47938(7) 0.16123(9) 0.66355(6)
N2 N 0.54042(7) 0.25164(9) 0.60829(6)
N3 N 0.56650(7) 0.41089(9) 0.58168(6)
N4 N 0.54297(7) 0.55603(9) 0.60851(6)
N5 N 0.47629(7) 0.65434(9) 0.66957(6)
N6 N 0.40631(7) 0.64813(9) 0.74202(6)
N7 N 0.40669(7) 0.16989(9) 0.74559(6)
N8 N 0.65904(7) 0.24688(9) 0.69502(6)
N9 N 0.68249(8) 0.40924(9) 0.67108(6)
N10 N 0.33764(7) 0.55659(9) 0.80552(6)
C1 C 0.41501(9) 0.1266(1) 0.68622(7)
C2 C 0.46937(8) 0.2263(1) 0.61525(7)
C3 C 0.54772(9) 0.3168(1) 0.55837(7)
C4 C 0.50964(9) 0.4751(1) 0.58022(7)
C5 C 0.49578(9) 0.6378(1) 0.60886(7)
C6 C 0.40674(8) 0.6274(1) 0.67950(7)
C7 C 0.33677(8) 0.6370(1) 0.76464(7)
C8 C 0.52564(8) 0.7022(1) 0.72473(7)
C9 C 0.62726(8) 0.5531(1) 0.62494(7)
C10 C 0.64378(8) 0.4480(1) 0.60789(7)
C11 C 0.60307(8) 0.1943(1) 0.64653(7)
C12 C 0.55983(8) 0.1343(1) 0.68924(7)
C13 C 0.34670(8) 0.2308(1) 0.74307(7)
C14 C 0.71314(8) 0.3154(1) 0.68241(7)
C15 C 0.30204(8) 0.4752(1) 0.78091(7)
C16 C 0.54856(9) 0.7985(1) 0.70601(8)
C17 C 0.66076(9) 0.6277(1) 0.58936(7)
C18 C 0.69345(9) 0.4371(1) 0.56046(7)
C19 C 0.64232(9) 0.1375(1) 0.60351(7)
C20 C 0.56993(9) 0.0295(1) 0.68559(8)
H1 H 0.420(1) 0.058(1) 0.6904(9)
H2 H 0.370(1) 0.142(1) 0.6530(9)
H3 H 0.585(1) 0.293(1) 0.5370(9)
H4 H 0.500(1) 0.320(1) 0.5259(9)
H5 H 0.521(1) 0.694(1) 0.5989(9)
H6 H 0.446(1) 0.624(1) 0.5771(9)
H7 H 0.327(1) 0.690(1) 0.7877(9)
H8 H 0.296(1) 0.627(1) 0.727(1)
H9 H 0.753(1) 0.321(1) 0.7205(9)
H10 H 0.733(1) 0.294(1) 0.6449(9)
H11 H 0.503(1) 0.837(1) 0.6860(9)
H12 H 0.579(1) 0.795(1) 0.6766(9)
H13 H 0.578(1) 0.830(1) 0.7412(10)
H14 H 0.639(1) 0.620(1) 0.5411(9)
H15 H 0.649(1) 0.688(1) 0.6055(9)
H16 H 0.717(1) 0.621(1) 0.5971(9)
H17 H 0.668(1) 0.465(1) 0.5232(9)
H18 H 0.69810 0.36880 0.55370
H19 H 0.743(1) 0.466(1) 0.5798(9)
H20 H 0.670(1) 0.181(1) 0.5813(9)
H21 H 0.679(1) 0.096(1) 0.6292(9)
H22 H 0.604(1) 0.101(1) 0.5734(10)
H23 H 0.625(1) 0.011(1) 0.7028(9)
H24 H 0.551(1) 0.006(1) 0.6420(9)
H25 H 0.539(1) -0.005(1) 0.7094(9)
O6 O 0.4338(3) 0.4123(4) 0.6984(2)
O7 O 0.29386(7) 0.4043(1) 0.57021(6)
H26 H 0.329(1) 0.364(2) 0.577(1)
H27 H 0.319(1) 0.457(2) 0.592(1)
O8 O 0.33246(8) 0.07626(10) 0.53695(6)
H28 H 0.349(1) 0.132(2) 0.543(1)
H29 H 0.291(1) 0.083(2) 0.505(1)
O9 O 0.48171(9) 0.0911(2) 0.47025(8)
H30 H 0.49190 0.06470 0.46800
H31 H 0.43910 0.10540 0.44820
O10 O 0.83600(7) 0.37046(9) 0.88309(6)
H32 H 0.798(1) 0.367(2) 0.901(1)
H33 H 0.814(1) 0.392(2) 0.846(1)
O11 O 0.89979(9) 0.4084(1) 0.59277(7)
H34 H 0.927(2) 0.396(2) 0.576(1)
H35 H 0.874(1) 0.457(2) 0.575(1)
O12 O 0.68594(9) 0.2525(1) 0.44975(7)
H36 H 0.667(1) 0.212(2) 0.432(1)
H37 H 0.674(1) 0.299(2) 0.427(1)
C12B C 0.44017(8) 0.1343(1) 0.81076(7)
N1B N 0.52062(7) 0.16123(9) 0.83645(6)
C1B C 0.58499(9) 0.1266(1) 0.81378(7)
N7B N 0.59331(7) 0.16989(9) 0.75441(6)
C9B C 0.37274(8) 0.5531(1) 0.87506(7)
N4B N 0.45703(7) 0.55603(9) 0.89149(6)
C4B C 0.49036(9) 0.4751(1) 0.91978(7)
O2B O 0.55929(6) 0.46338(8) 0.94347(5)
N3B N 0.43350(7) 0.41089(9) 0.91832(6)
C3B C 0.45228(9) 0.3168(1) 0.94163(7)
N2B N 0.45958(7) 0.25164(9) 0.89171(6)
C2B C 0.53063(8) 0.2263(1) 0.88475(7)
O1B O 0.59304(6) 0.25426(8) 0.91758(5)
C11B C 0.39693(8) 0.1943(1) 0.85347(7)
N8B N 0.34096(7) 0.24688(9) 0.80498(6)
C14B C 0.28686(8) 0.3154(1) 0.81759(7)
N9B N 0.31751(8) 0.40924(9) 0.82892(6)
C10B C 0.35622(8) 0.4480(1) 0.89211(7)
C17B C 0.33924(9) 0.6277(1) 0.91064(7)
H14B H 0.361(1) 0.620(1) 0.9589(9)
H15B H 0.351(1) 0.688(1) 0.8945(9)
H16B H 0.283(1) 0.621(1) 0.9029(9)
C18B C 0.30655(9) 0.4371(1) 0.93954(7)
H17B H 0.332(1) 0.465(1) 0.9768(9)
H18B H 0.30190 0.36880 0.94630
H19B H 0.257(1) 0.466(1) 0.9202(9)
H9B H 0.247(1) 0.321(1) 0.7795(9)
H10B H 0.267(1) 0.294(1) 0.8551(9)
C20B C 0.43007(9) 0.0295(1) 0.81441(8)
H23B H 0.375(1) 0.011(1) 0.7972(9)
H24B H 0.449(1) 0.006(1) 0.8580(9)
H25B H 0.461(1) -0.005(1) 0.7906(9)
C19B C 0.35768(9) 0.1375(1) 0.89649(7)
H20B H 0.330(1) 0.181(1) 0.9187(9)
H21B H 0.321(1) 0.096(1) 0.8708(9)
H22B H 0.396(1) 0.101(1) 0.9266(10)
H3B H 0.415(1) 0.293(1) 0.9630(9)
H4B H 0.500(1) 0.320(1) 0.9741(9)
C5B C 0.50422(9) 0.6378(1) 0.89114(7)
N5B N 0.52371(7) 0.65434(9) 0.83043(6)
C6B C 0.59326(8) 0.6274(1) 0.82050(7)
O3B O 0.64737(6) 0.59402(8) 0.86129(5)
N6B N 0.59369(7) 0.64813(9) 0.75798(6)
C7B C 0.66323(8) 0.6370(1) 0.73536(7)
N10B N 0.66236(7) 0.55659(9) 0.69448(6)
C13B C 0.65330(8) 0.2308(1) 0.75693(7)
O4B O 0.69606(6) 0.26258(8) 0.80571(5)
C15B C 0.69796(8) 0.4752(1) 0.71909(7)
O5B O 0.73853(6) 0.46490(8) 0.77368(5)
H7B H 0.673(1) 0.690(1) 0.7123(9)
H8B H 0.704(1) 0.627(1) 0.773(1)
C8B C 0.47436(8) 0.7022(1) 0.77527(7)
C16B C 0.45144(9) 0.7985(1) 0.79399(8)
H11B H 0.497(1) 0.837(1) 0.8140(9)
H12B H 0.421(1) 0.795(1) 0.8234(9)
H13B H 0.422(1) 0.830(1) 0.7588(10)
H5B H 0.479(1) 0.694(1) 0.9011(9)
H6B H 0.554(1) 0.624(1) 0.9229(9)
H1B H 0.580(1) 0.058(1) 0.8096(9)
H2B H 0.630(1) 0.142(1) 0.8470(9)
#END
