####################################################################### 
# 
# This file contains crystal structure data downloaded from the 
# Cambridge Structural Database (CSD) hosted by the Cambridge 
# Crystallographic Data Centre (CCDC).
# 
# Full information about CCDC data access policies and citation 
# guidelines are available at http://www.ccdc.cam.ac.uk/access/V1 
# 
# Audit and citation data items may have been added by the CCDC. 
# Please retain this information to preserve the provenance of 
# this file and to allow appropriate attribution of the data. 
# 
#######################################################################

data_2
_audit_block_doi                 10.5517/cc69g0y
_database_code_depnum_ccdc_archive 'CCDC 187829'
loop_
_citation_id
_citation_doi
_citation_year
1 10.1002/1521-3773(20020916)41:18<3392::AID-ANIE3392>3.0.CO;2-V 2002
_audit_update_record             
;
2002-06-14 deposited with the CCDC.	2024-07-11 downloaded from the CCDC.
;

_audit_creation_method           SHELXL-97
_chemical_name_systematic        
; 
? 
;
_chemical_name_common            ?
_chemical_melting_point          ?
_chemical_formula_moiety         ?
_chemical_formula_sum            'C69 H51.50 I6 N17.50 O11 Zn3'
_chemical_formula_weight         2259.29

loop_
_atom_type_symbol
_atom_type_description
_atom_type_scat_dispersion_real
_atom_type_scat_dispersion_imag
_atom_type_scat_source
C C 0.0033 0.0016 'International Tables Vol C Tables 4.2.6.8 and 6.1.1.4'
H H 0.0000 0.0000 'International Tables Vol C Tables 4.2.6.8 and 6.1.1.4'
N N 0.0061 0.0033 'International Tables Vol C Tables 4.2.6.8 and 6.1.1.4'
O O 0.0106 0.0060 'International Tables Vol C Tables 4.2.6.8 and 6.1.1.4'
Zn Zn 0.2839 1.4301 'International Tables Vol C Tables 4.2.6.8 and 6.1.1.4'
I I -0.4742 1.8119 'International Tables Vol C Tables 4.2.6.8 and 6.1.1.4'

_symmetry_cell_setting           Monoclinic
_symmetry_space_group_name_H-M   C2/c

loop_
_symmetry_equiv_pos_as_xyz
'x, y, z'
'-x, y, -z+1/2'
'x+1/2, y+1/2, z'
'-x+1/2, y+1/2, -z+1/2'
'-x, -y, -z'
'x, -y, z-1/2'
'-x+1/2, -y+1/2, -z'
'x+1/2, -y+1/2, z-1/2'

_cell_length_a                   36.079(10)
_cell_length_b                   14.978(4)
_cell_length_c                   30.734(9)
_cell_angle_alpha                90.00
_cell_angle_beta                 102.470(5)
_cell_angle_gamma                90.00
_cell_volume                     16217(8)
_cell_formula_units_Z            8
_cell_measurement_temperature    193(2)
_cell_measurement_reflns_used    ?
_cell_measurement_theta_min      ?
_cell_measurement_theta_max      ?

_exptl_crystal_description       ?
_exptl_crystal_colour            ?
_exptl_crystal_size_max          0.20
_exptl_crystal_size_mid          0.20
_exptl_crystal_size_min          0.15
_exptl_crystal_density_meas      ?
_exptl_crystal_density_diffrn    1.851
_exptl_crystal_density_method    'not measured'
_exptl_crystal_F_000             8672
_exptl_absorpt_coefficient_mu    3.231
_exptl_absorpt_correction_type   ?
_exptl_absorpt_correction_T_min  0.5643
_exptl_absorpt_correction_T_max  0.6429
_exptl_absorpt_process_details   ?

_exptl_special_details           
; 
? 
;

_diffrn_ambient_temperature      193(2)
_diffrn_radiation_wavelength     0.71073
_diffrn_radiation_type           MoK\a
_diffrn_radiation_source         'fine-focus sealed tube'
_diffrn_radiation_monochromator  graphite
_diffrn_measurement_device_type  ?
_diffrn_measurement_method       ?
_diffrn_detector_area_resol_mean ?
_diffrn_standards_number         ?
_diffrn_standards_interval_count ?
_diffrn_standards_interval_time  ?
_diffrn_standards_decay_%        ?
_diffrn_reflns_number            41812
_diffrn_reflns_av_R_equivalents  0.0419
_diffrn_reflns_av_sigmaI/netI    0.0375
_diffrn_reflns_limit_h_min       -23
_diffrn_reflns_limit_h_max       42
_diffrn_reflns_limit_k_min       -17
_diffrn_reflns_limit_k_max       17
_diffrn_reflns_limit_l_min       -36
_diffrn_reflns_limit_l_max       35
_diffrn_reflns_theta_min         1.16
_diffrn_reflns_theta_max         25.00
_reflns_number_total             14243
_reflns_number_gt                9066
_reflns_threshold_expression     >2sigma(I)

_computing_data_collection       ?
_computing_cell_refinement       ?
_computing_data_reduction        ?
_computing_structure_solution    'SHELXS-97 (Sheldrick, 1990)'
_computing_structure_refinement  'SHELXL-97 (Sheldrick, 1997)'
_computing_molecular_graphics    ?
_computing_publication_material  ?

_refine_special_details          
; 
Refinement of F^2^ against ALL reflections.  The weighted R-factor wR and 
goodness of fit S are based on F^2^, conventional R-factors R are based 
on F, with F set to zero for negative F^2^. The threshold expression of 
F^2^ > 2sigma(F^2^) is used only for calculating R-factors(gt) etc. and is 
not relevant to the choice of reflections for refinement.  R-factors based 
on F^2^ are statistically about twice as large as those based on F, and R- 
factors based on ALL data will be even larger. 
;

_refine_ls_structure_factor_coef Fsqd
_refine_ls_matrix_type           full
_refine_ls_weighting_scheme      calc
_refine_ls_weighting_details     
'calc w=1/[\s^2^(Fo^2^)+(0.1498P)^2^+84.5022P] where P=(Fo^2^+2Fc^2^)/3'
_atom_sites_solution_primary     direct
_atom_sites_solution_secondary   difmap
_atom_sites_solution_hydrogens   geom
_refine_ls_hydrogen_treatment    mixed
_refine_ls_extinction_method     none
_refine_ls_extinction_coef       ?
_refine_ls_number_reflns         14243
_refine_ls_number_parameters     781
_refine_ls_number_restraints     0
_refine_ls_R_factor_all          0.1278
_refine_ls_R_factor_gt           0.0794
_refine_ls_wR_factor_ref         0.2697
_refine_ls_wR_factor_gt          0.2316
_refine_ls_goodness_of_fit_ref   1.145
_refine_ls_restrained_S_all      1.145
_refine_ls_shift/su_max          0.587
_refine_ls_shift/su_mean         0.023

loop_
_atom_site_label
_atom_site_type_symbol
_atom_site_fract_x
_atom_site_fract_y
_atom_site_fract_z
_atom_site_U_iso_or_equiv
_atom_site_adp_type
_atom_site_occupancy
_atom_site_symmetry_multiplicity
_atom_site_calc_flag
_atom_site_refinement_flags
_atom_site_disorder_assembly
_atom_site_disorder_group
Zn1 Zn 0.37701(3) 2.09068(8) 0.43463(4) 0.0560(3) Uani 1 1 d . . .
Zn2 Zn 0.5856(3) 2.6274(3) 0.0877(3) 0.077(2) Uani 0.85(3) 1 d P . .
Zn2A Zn 0.5710(6) 2.6100(13) 0.0957(3) 0.026(5) Uani 0.15(3) 1 d P . .
Zn3 Zn 0.67284(3) 1.86472(8) 0.27398(5) 0.0587(3) Uani 1 1 d . . .
I1 I 0.39401(3) 2.23340(6) 0.39859(4) 0.0955(4) Uani 1 1 d . . .
I2 I 0.3637(3) 2.0714(10) 0.5158(3) 0.082(3) Uani 0.19(3) 1 d P . .
I2A I 0.35825(18) 2.0932(6) 0.5083(3) 0.0939(14) Uani 0.81(3) 1 d P . .
I3 I 0.62128(12) 2.73907(10) 0.04738(10) 0.0858(9) Uani 0.764(8) 1 d P . .
I3A I 0.6043(2) 2.7357(3) 0.06008(19) 0.0538(16) Uani 0.236(8) 1 d P . .
I4 I 0.53297(10) 2.66292(19) 0.12608(10) 0.0920(11) Uani 0.764(8) 1 d P . .
I4A I 0.5168(2) 2.6287(5) 0.13485(12) 0.0567(19) Uani 0.236(8) 1 d P . .
I5 I 0.62649(6) 1.83549(16) 0.19874(14) 0.0761(8) Uani 0.886(15) 1 d P . .
I5A I 0.6341(12) 1.8218(17) 0.2119(9) 0.120(8) Uani 0.114(15) 1 d P . .
I6 I 0.7321(2) 1.7731(7) 0.2983(4) 0.0728(14) Uani 0.78(4) 1 d P . .
I6A I 0.7413(9) 1.7917(10) 0.3135(14) 0.068(4) Uani 0.22(4) 1 d P . .
N11 N 0.5744(2) 1.7257(5) 0.4353(3) 0.052(2) Uani 1 1 d . . .
N12 N 0.5243(2) 1.7718(5) 0.4698(3) 0.0464(18) Uani 1 1 d . . .
N13 N 0.5380(2) 1.8552(5) 0.4089(3) 0.0481(19) Uani 1 1 d . . .
C11 C 0.5521(3) 1.7152(6) 0.4637(3) 0.050(2) Uani 1 1 d . . .
C12 C 0.5175(2) 1.8382(6) 0.4397(3) 0.046(2) Uani 1 1 d . . .
C13 C 0.5673(2) 1.7990(6) 0.4097(4) 0.050(2) Uani 1 1 d . . .
N11A N 0.5685(3) 1.4807(7) 0.5449(4) 0.086(4) Uani 1 1 d . . .
C11A C 0.5918(4) 1.5004(10) 0.5186(7) 0.123(8) Uani 1 1 d . . .
H11A H 0.6120 1.4605 0.5173 0.147 Uiso 1 1 calc R . .
C12A C 0.5879(4) 1.5781(9) 0.4926(6) 0.099(5) Uani 1 1 d . . .
H12A H 0.6061 1.5924 0.4754 0.119 Uiso 1 1 calc R . .
C13A C 0.5574(3) 1.6333(7) 0.4922(4) 0.059(3) Uani 1 1 d . . .
C14A C 0.5320(3) 1.6104(7) 0.5186(4) 0.061(3) Uani 1 1 d . . .
H14A H 0.5103 1.6460 0.5186 0.074 Uiso 1 1 calc R . .
C15A C 0.5393(4) 1.5339(8) 0.5452(4) 0.075(4) Uani 1 1 d . . .
H15A H 0.5226 1.5196 0.5641 0.090 Uiso 1 1 calc R . .
N21A N 0.4215(2) 2.0050(6) 0.4377(3) 0.0510(19) Uani 1 1 d . . .
C21A C 0.4358(4) 1.9939(10) 0.4033(4) 0.084(4) Uani 1 1 d . . .
H21A H 0.4233 2.0230 0.3767 0.101 Uiso 1 1 calc R . .
C22A C 0.4677(4) 1.9433(11) 0.4011(4) 0.091(5) Uani 1 1 d . . .
H22A H 0.4775 1.9405 0.3748 0.110 Uiso 1 1 calc R . .
C23A C 0.4848(2) 1.8965(6) 0.4400(3) 0.045(2) Uani 1 1 d . . .
C24A C 0.4692(3) 1.9040(7) 0.4762(3) 0.059(3) Uani 1 1 d . . .
H24A H 0.4795 1.8718 0.5027 0.071 Uiso 1 1 calc R . .
C25A C 0.4380(3) 1.9593(7) 0.4742(4) 0.058(3) Uani 1 1 d . . .
H25A H 0.4278 1.9650 0.5001 0.070 Uiso 1 1 calc R . .
N31A N 0.6409(2) 1.8494(5) 0.3219(3) 0.054(2) Uani 1 1 d . . .
C31A C 0.6506(3) 1.7916(8) 0.3555(4) 0.066(3) Uani 1 1 d . . .
H31A H 0.6745 1.7625 0.3598 0.079 Uiso 1 1 calc R . .
C32A C 0.6269(3) 1.7727(7) 0.3841(4) 0.061(3) Uani 1 1 d . . .
H32A H 0.6342 1.7294 0.4069 0.073 Uiso 1 1 calc R . .
C33A C 0.5928(2) 1.8168(6) 0.3796(3) 0.046(2) Uani 1 1 d . . .
C34A C 0.5839(3) 1.8787(7) 0.3454(4) 0.056(2) Uani 1 1 d . . .
H34A H 0.5609 1.9119 0.3416 0.067 Uiso 1 1 calc R . .
C35A C 0.6081(3) 1.8926(7) 0.3167(4) 0.060(3) Uani 1 1 d . . .
H35A H 0.6012 1.9339 0.2929 0.072 Uiso 1 1 calc R . .
N21 N 0.7207(2) 2.4532(5) 0.2696(3) 0.0492(19) Uani 1 1 d . . .
N22 N 0.7360(2) 2.3146(5) 0.3071(3) 0.0466(18) Uani 1 1 d . . .
N23 N 0.6827(2) 2.3272(5) 0.2456(3) 0.0485(19) Uani 1 1 d . . .
C21 C 0.6926(3) 2.4126(6) 0.2442(3) 0.053(2) Uani 1 1 d . . .
C22 C 0.7410(3) 2.4027(7) 0.3023(3) 0.051(2) Uani 1 1 d . . .
C23 C 0.7063(2) 2.2800(6) 0.2779(3) 0.045(2) Uani 1 1 d . . .
N11B N 0.6221(3) 2.5586(6) 0.1382(4) 0.093(4) Uani 1 1 d . . .
C11B C 0.6159(8) 2.4739(10) 0.1462(10) 0.27(2) Uani 1 1 d . . .
H11B H 0.5941 2.4455 0.1289 0.327 Uiso 1 1 calc R . .
C12B C 0.6397(7) 2.4255(9) 0.1784(9) 0.219(17) Uani 1 1 d . . .
H12B H 0.6358 2.3631 0.1807 0.263 Uiso 1 1 calc R . .
C13B C 0.6684(3) 2.4653(7) 0.2066(4) 0.060(3) Uani 1 1 d . . .
C14B C 0.6747(3) 2.5530(7) 0.1993(3) 0.054(2) Uani 1 1 d . . .
H14B H 0.6949 2.5839 0.2184 0.065 Uiso 1 1 calc R . .
C15B C 0.6514(3) 2.5971(7) 0.1638(3) 0.057(3) Uani 1 1 d . . .
H15B H 0.6570 2.6573 0.1579 0.068 Uiso 1 1 calc R . .
N21B N 0.8339(2) 2.5301(5) 0.3906(3) 0.052(2) Uani 1 1 d . . .
C21B C 0.8092(3) 2.5751(6) 0.3605(4) 0.056(3) Uani 1 1 d . . .
H21B H 0.8128 2.6377 0.3586 0.067 Uiso 1 1 calc R . .
C22B C 0.7786(3) 2.5375(7) 0.3317(3) 0.058(3) Uani 1 1 d . . .
H22B H 0.7617 2.5739 0.3111 0.070 Uiso 1 1 calc R . .
C23B C 0.7727(2) 2.4460(6) 0.3330(3) 0.042(2) Uani 1 1 d . . .
C24B C 0.7981(3) 2.3973(7) 0.3645(4) 0.058(3) Uani 1 1 d . . .
H24B H 0.7952 2.3347 0.3675 0.069 Uiso 1 1 calc R . .
C25B C 0.8283(3) 2.4439(7) 0.3921(4) 0.058(3) Uani 1 1 d . . .
H25B H 0.8459 2.4102 0.4132 0.069 Uiso 1 1 calc R . .
N31B N 0.6851(2) 2.0002(5) 0.2763(3) 0.0492(19) Uani 1 1 d . . .
C31B C 0.7158(3) 2.0356(7) 0.3024(4) 0.052(2) Uani 1 1 d . . .
H31B H 0.7333 1.9965 0.3206 0.063 Uiso 1 1 calc R . .
C32B C 0.7237(3) 2.1254(7) 0.3048(4) 0.054(2) Uani 1 1 d . . .
H32B H 0.7459 2.1471 0.3245 0.065 Uiso 1 1 calc R . .
C33B C 0.6994(3) 2.1828(7) 0.2787(3) 0.054(2) Uani 1 1 d . . .
C34B C 0.6675(3) 2.1466(7) 0.2488(4) 0.061(3) Uani 1 1 d . . .
H34B H 0.6505 2.1839 0.2288 0.074 Uiso 1 1 calc R . .
C35B C 0.6620(3) 2.0570(7) 0.2494(4) 0.061(3) Uani 1 1 d . . .
H35B H 0.6403 2.0330 0.2296 0.073 Uiso 1 1 calc R . .
N100 N 0.4379(7) 1.3560(17) 0.0714(7) 0.159(7) Uiso 1 1 d . . .
O101 O 0.4581(11) 1.423(3) 0.0599(13) 0.327(17) Uiso 1 1 d . . .
O102 O 0.4024(7) 1.3899(16) 0.0694(8) 0.210(8) Uiso 1 1 d . . .
C101 C 0.4474(8) 1.2694(18) 0.0764(8) 0.143(8) Uiso 1 1 d . . .
C102 C 0.4849(9) 1.255(2) 0.0882(10) 0.175(10) Uiso 1 1 d . . .
C103 C 0.4888(9) 1.160(2) 0.0982(11) 0.192(12) Uiso 1 1 d . . .
C104 C 0.4549(10) 1.090(2) 0.0961(11) 0.184(11) Uiso 1 1 d . . .
C105 C 0.4144(13) 1.117(3) 0.0914(15) 0.255(18) Uiso 1 1 d . . .
C106 C 0.4145(8) 1.208(2) 0.0782(10) 0.170(10) Uiso 1 1 d . . .
C200 C 0.6622(8) 1.5907(19) 0.4447(9) 0.158(9) Uiso 1 1 d . . .
C201 C 0.7134(8) 1.490(2) 0.4580(10) 0.168(9) Uiso 1 1 d . . .
C202 C 0.7007(12) 1.402(3) 0.4822(14) 0.242(17) Uiso 1 1 d . . .
C203 C 0.742(2) 1.336(5) 0.481(2) 0.38(3) Uiso 1 1 d . . .
C204 C 0.6538(13) 1.561(3) 0.3120(15) 0.241(16) Uiso 1 1 d . . .
C205 C 0.7678(11) 1.391(3) 0.4698(13) 0.212(14) Uiso 1 1 d . . .
C206 C 0.7539(7) 1.4882(18) 0.4504(9) 0.148(8) Uiso 1 1 d . . .
O207 C 0.6692(7) 1.4528(18) 0.3588(9) 0.144(8) Uiso 1 1 d . . .
O208 C 0.6314(13) 1.478(3) 0.3875(17) 0.28(2) Uiso 1 1 d . . .
C209 C 0.6201(9) 1.551(2) 0.3297(11) 0.180(11) Uiso 1 1 d . . .
C210 C 0.6952(12) 1.581(3) 0.4329(13) 0.197(13) Uiso 1 1 d . . .
C211 C 0.5577(17) 1.572(4) 0.343(2) 0.30(2) Uiso 1 1 d . . .
C212 C 0.5784(10) 1.651(2) 0.2748(11) 0.179(11) Uiso 1 1 d . . .
C213 C 0.5563(11) 1.628(3) 0.3049(14) 0.213(14) Uiso 1 1 d . . .
C214 C 0.5878(7) 1.5648(15) 0.3456(8) 0.128(6) Uiso 1 1 d . . .
C215 C 0.5888(15) 1.111(4) 0.3127(18) 0.29(2) Uiso 1 1 d . . .
C216 C 0.6210(16) 1.174(4) 0.3326(18) 0.29(2) Uiso 1 1 d . . .
C217 C 0.704(2) 1.340(5) 0.595(2) 0.39(3) Uiso 1 1 d . . .
C218 C 0.6465(14) 1.410(3) 0.3367(17) 0.26(2) Uiso 1 1 d . . .
C219 C 0.6612(18) 1.247(4) 0.3642(19) 0.31(3) Uiso 1 1 d . . .
C220 C 0.7209(8) 1.6272(17) 0.4301(9) 0.132(7) Uiso 1 1 d . . .
C221 C 0.7537(9) 1.590(2) 0.4283(11) 0.186(11) Uiso 1 1 d . . .
C222 C 0.7234(14) 1.629(3) 0.4856(15) 0.238(16) Uiso 1 1 d . . .
C223 C 0.6838(17) 1.664(4) 0.500(2) 0.33(3) Uiso 1 1 d . . .
C224 C 0.6880(14) 1.659(3) 0.5519(17) 0.238(17) Uiso 1 1 d . . .
C225 C 0.7189(14) 1.679(3) 0.5636(14) 0.231(16) Uiso 1 1 d . . .
C226 C 0.7591(8) 1.647(2) 0.5566(10) 0.161(9) Uiso 1 1 d . . .
C227 C 0.7629(11) 1.635(3) 0.5115(14) 0.212(14) Uiso 1 1 d . . .
C228 C 0.5109(10) 0.840(2) 0.2370(12) 0.191(13) Uiso 1 1 d . . .
C229 C 0.7160(10) 1.443(2) 0.6022(11) 0.184(11) Uiso 1 1 d . . .
C230 C 0.7446(18) 1.433(4) 0.581(2) 0.29(2) Uiso 1 1 d . . .
C231 C 0.7608(14) 1.559(4) 0.5704(17) 0.28(2) Uiso 1 1 d . . .
C232 C 0.7734(14) 1.396(3) 0.5759(16) 0.258(19) Uiso 1 1 d . . .
C233 C 0.6963(11) 1.566(3) 0.5819(13) 0.223(15) Uiso 1 1 d . . .
C234 C 0.5224(8) 0.900(2) 0.2227(9) 0.150(8) Uiso 1 1 d . . .
C235 C 0.6811(9) 1.467(2) 0.5522(11) 0.193(12) Uiso 1 1 d . . .
C236 C 0.4376(14) 1.134(3) 0.2946(17) 0.29(2) Uiso 1 1 d . . .
C237 C 0.4475(15) 1.268(4) 0.2912(17) 0.28(2) Uiso 1 1 d . . .
C238 C 0.5151(11) 0.969(3) 0.2365(14) 0.231(17) Uiso 1 1 d . . .
C239 C 0.6989(9) 1.640(2) 0.4072(11) 0.163(10) Uiso 1 1 d . . .
C240 C 0.6466(10) 1.085(2) 0.3613(12) 0.198(12) Uiso 1 1 d . . .
C241 C 0.6132(11) 1.624(3) 0.2799(13) 0.209(13) Uiso 1 1 d . . .
C242 C 0.466(2) 1.375(6) 0.302(2) 0.41(4) Uiso 1 1 d . . .

loop_
_atom_site_aniso_label
_atom_site_aniso_U_11
_atom_site_aniso_U_22
_atom_site_aniso_U_33
_atom_site_aniso_U_23
_atom_site_aniso_U_13
_atom_site_aniso_U_12
Zn1 0.0343(5) 0.0558(7) 0.0722(8) -0.0224(6) -0.0016(5) 0.0026(5)
Zn2 0.075(4) 0.0393(11) 0.088(2) -0.0143(14) -0.048(3) 0.0091(18)
Zn2A 0.018(7) 0.024(5) 0.030(6) -0.011(3) -0.010(3) -0.001(4)
Zn3 0.0499(7) 0.0418(6) 0.0890(9) -0.0017(6) 0.0254(6) -0.0014(5)
I1 0.0755(6) 0.0510(5) 0.1505(10) -0.0114(5) 0.0035(6) -0.0087(4)
I2 0.080(5) 0.121(7) 0.037(5) -0.001(4) -0.006(3) 0.062(8)
I2A 0.0697(15) 0.112(3) 0.106(2) -0.0524(18) 0.0337(13) -0.0135(14)
I3 0.0989(18) 0.0530(7) 0.0874(13) -0.0185(7) -0.0194(13) -0.0022(8)
I3A 0.055(3) 0.0457(17) 0.052(2) 0.0000(14) -0.0068(17) 0.0048(16)
I4 0.0855(15) 0.0808(12) 0.0893(13) -0.0227(10) -0.0259(12) 0.0178(12)
I4A 0.046(3) 0.065(3) 0.055(2) 0.0044(16) 0.0031(15) 0.020(2)
I5 0.0746(10) 0.0619(9) 0.0873(15) -0.0208(9) 0.0075(9) -0.0043(6)
I5A 0.20(2) 0.115(11) 0.065(9) 0.021(8) 0.069(11) 0.027(13)
I6 0.0578(14) 0.058(2) 0.109(3) 0.0140(18) 0.0310(19) 0.0181(13)
I6A 0.060(6) 0.046(3) 0.110(10) -0.001(4) 0.044(6) 0.004(4)
N11 0.037(4) 0.044(4) 0.068(6) 0.012(4) 0.000(4) 0.003(3)
N12 0.043(4) 0.041(4) 0.051(5) 0.008(3) -0.001(3) 0.001(3)
N13 0.031(4) 0.043(4) 0.069(5) 0.017(4) 0.009(4) 0.007(3)
C11 0.042(5) 0.040(5) 0.055(6) 0.015(4) -0.014(4) -0.004(4)
C12 0.036(5) 0.040(5) 0.055(6) 0.003(4) -0.004(4) 0.001(4)
C13 0.034(4) 0.040(5) 0.070(6) 0.009(4) -0.004(4) 0.002(4)
N11A 0.077(7) 0.054(6) 0.097(8) 0.030(5) -0.048(6) -0.022(5)
C11A 0.053(7) 0.084(10) 0.22(2) 0.090(13) 0.007(10) 0.012(7)
C12A 0.077(8) 0.073(8) 0.152(14) 0.064(9) 0.035(9) 0.031(7)
C13A 0.040(5) 0.048(5) 0.075(7) 0.010(5) -0.019(5) 0.000(4)
C14A 0.054(6) 0.055(6) 0.067(7) 0.019(5) -0.004(5) -0.006(5)
C15A 0.080(8) 0.057(6) 0.067(7) 0.023(5) -0.028(6) -0.017(6)
N21A 0.038(4) 0.056(5) 0.060(5) -0.007(4) 0.010(4) 0.006(4)
C21A 0.073(8) 0.109(11) 0.065(8) 0.032(7) 0.003(6) 0.057(8)
C22A 0.092(9) 0.125(12) 0.063(8) 0.039(8) 0.028(7) 0.063(9)
C23A 0.034(4) 0.048(5) 0.048(5) 0.013(4) -0.003(4) 0.007(4)
C24A 0.062(6) 0.066(7) 0.041(5) 0.004(5) -0.006(5) 0.010(5)
C25A 0.064(6) 0.064(6) 0.048(6) 0.002(5) 0.014(5) 0.017(5)
N31A 0.044(4) 0.045(4) 0.076(6) 0.005(4) 0.023(4) 0.006(4)
C31A 0.037(5) 0.065(7) 0.096(9) 0.008(6) 0.017(5) 0.005(5)
C32A 0.049(6) 0.053(6) 0.082(8) 0.017(5) 0.015(5) 0.010(5)
C33A 0.032(4) 0.038(5) 0.06