####################################################################### 
# 
# This file contains crystal structure data downloaded from the 
# Cambridge Structural Database (CSD) hosted by the Cambridge 
# Crystallographic Data Centre (CCDC).
# 
# Full information about CCDC data access policies and citation 
# guidelines are available at http://www.ccdc.cam.ac.uk/access/V1 
# 
# Audit and citation data items may have been added by the CCDC. 
# Please retain this information to preserve the provenance of 
# this file and to allow appropriate attribution of the data. 
# 
#######################################################################

data_4
_audit_block_doi                 10.5517/cc69g42
_database_code_depnum_ccdc_archive 'CCDC 187833'
loop_
_citation_id
_citation_doi
_citation_year
1 10.1002/1521-3773(20020916)41:18<3392::AID-ANIE3392>3.0.CO;2-V 2002
_audit_update_record             
;
2002-06-14 deposited with the CCDC.	2024-07-11 downloaded from the CCDC.
;

_audit_creation_method           SHELXL-97
_chemical_name_systematic        
; 
? 
;
_chemical_name_common            ?
_chemical_melting_point          ?
_chemical_formula_moiety         ?
_chemical_formula_sum            'C72 H60 I6 N12 Zn3'
_chemical_formula_weight         2050.83

loop_
_atom_type_symbol
_atom_type_description
_atom_type_scat_dispersion_real
_atom_type_scat_dispersion_imag
_atom_type_scat_source
C C 0.0033 0.0016 'International Tables Vol C Tables 4.2.6.8 and 6.1.1.4'
H H 0.0000 0.0000 'International Tables Vol C Tables 4.2.6.8 and 6.1.1.4'
N N 0.0061 0.0033 'International Tables Vol C Tables 4.2.6.8 and 6.1.1.4'
Zn Zn 0.2839 1.4301 'International Tables Vol C Tables 4.2.6.8 and 6.1.1.4'
I I -0.4742 1.8119 'International Tables Vol C Tables 4.2.6.8 and 6.1.1.4'

_symmetry_cell_setting           Monoclinic
_symmetry_space_group_name_H-M   C2/c

loop_
_symmetry_equiv_pos_as_xyz
'x, y, z'
'-x, y, -z+1/2'
'x+1/2, y+1/2, z'
'-x+1/2, y+1/2, -z+1/2'
'-x, -y, -z'
'x, -y, z-1/2'
'-x+1/2, -y+1/2, -z'
'x+1/2, -y+1/2, z-1/2'

_cell_length_a                   35.316(3)
_cell_length_b                   14.7247(14)
_cell_length_c                   31.766(3)
_cell_angle_alpha                90.00
_cell_angle_beta                 101.906(2)
_cell_angle_gamma                90.00
_cell_volume                     16163(3)
_cell_formula_units_Z            8
_cell_measurement_temperature    193(2)
_cell_measurement_reflns_used    ?
_cell_measurement_theta_min      ?
_cell_measurement_theta_max      ?

_exptl_crystal_description       ?
_exptl_crystal_colour            ?
_exptl_crystal_size_max          0.20
_exptl_crystal_size_mid          0.20
_exptl_crystal_size_min          0.15
_exptl_crystal_density_meas      ?
_exptl_crystal_density_diffrn    1.686
_exptl_crystal_density_method    'not measured'
_exptl_crystal_F_000             7872
_exptl_absorpt_coefficient_mu    3.220
_exptl_absorpt_correction_type   ?
_exptl_absorpt_correction_T_min  0.5652
_exptl_absorpt_correction_T_max  0.6437
_exptl_absorpt_process_details   ?

_exptl_special_details           
; 
? 
;

_diffrn_ambient_temperature      193(2)
_diffrn_radiation_wavelength     0.71073
_diffrn_radiation_type           MoK\a
_diffrn_radiation_source         'fine-focus sealed tube'
_diffrn_radiation_monochromator  graphite
_diffrn_measurement_device_type  ?
_diffrn_measurement_method       ?
_diffrn_detector_area_resol_mean ?
_diffrn_standards_number         ?
_diffrn_standards_interval_count ?
_diffrn_standards_interval_time  ?
_diffrn_standards_decay_%        ?
_diffrn_reflns_number            41932
_diffrn_reflns_av_R_equivalents  0.0482
_diffrn_reflns_av_sigmaI/netI    0.0443
_diffrn_reflns_limit_h_min       -41
_diffrn_reflns_limit_h_max       33
_diffrn_reflns_limit_k_min       -16
_diffrn_reflns_limit_k_max       17
_diffrn_reflns_limit_l_min       -37
_diffrn_reflns_limit_l_max       37
_diffrn_reflns_theta_min         1.50
_diffrn_reflns_theta_max         25.00
_reflns_number_total             14232
_reflns_number_gt                10419
_reflns_threshold_expression     >2sigma(I)

_computing_data_collection       ?
_computing_cell_refinement       ?
_computing_data_reduction        ?
_computing_structure_solution    'SHELXS-97 (Sheldrick, 1990)'
_computing_structure_refinement  'SHELXL-97 (Sheldrick, 1997)'
_computing_molecular_graphics    ?
_computing_publication_material  ?

_refine_special_details          
; 
Refinement of F^2^ against ALL reflections.  The weighted R-factor wR and 
goodness of fit S are based on F^2^, conventional R-factors R are based 
on F, with F set to zero for negative F^2^. The threshold expression of 
F^2^ > 2sigma(F^2^) is used only for calculating R-factors(gt) etc. and is 
not relevant to the choice of reflections for refinement.  R-factors based 
on F^2^ are statistically about twice as large as those based on F, and R- 
factors based on ALL data will be even larger. 
;

_refine_ls_structure_factor_coef Fsqd
_refine_ls_matrix_type           full
_refine_ls_weighting_scheme      calc
_refine_ls_weighting_details     
'calc w=1/[\s^2^(Fo^2^)+(0.0992P)^2^+46.9592P] where P=(Fo^2^+2Fc^2^)/3'
_atom_sites_solution_primary     direct
_atom_sites_solution_secondary   difmap
_atom_sites_solution_hydrogens   geom
_refine_ls_hydrogen_treatment    mixed
_refine_ls_extinction_method     none
_refine_ls_extinction_coef       ?
_refine_ls_number_reflns         14232
_refine_ls_number_parameters     616
_refine_ls_number_restraints     0
_refine_ls_R_factor_all          0.0802
_refine_ls_R_factor_gt           0.0557
_refine_ls_wR_factor_ref         0.1701
_refine_ls_wR_factor_gt          0.1589
_refine_ls_goodness_of_fit_ref   1.067
_refine_ls_restrained_S_all      1.067
_refine_ls_shift/su_max          0.277
_refine_ls_shift/su_mean         0.008

loop_
_atom_site_label
_atom_site_type_symbol
_atom_site_fract_x
_atom_site_fract_y
_atom_site_fract_z
_atom_site_U_iso_or_equiv
_atom_site_adp_type
_atom_site_occupancy
_atom_site_symmetry_multiplicity
_atom_site_calc_flag
_atom_site_refinement_flags
_atom_site_disorder_assembly
_atom_site_disorder_group
Zn1 Zn 0.37555(2) 0.09258(6) 0.43489(3) 0.0430(2) Uani 1 1 d . . .
Zn2 Zn 0.58601(2) 0.62020(5) 0.09489(3) 0.0379(2) Uani 1 1 d . . .
Zn3 Zn 0.67242(3) -0.15142(5) 0.27190(3) 0.0379(2) Uani 1 1 d . . .
I1 I 0.354920(19) 0.08869(6) 0.50682(2) 0.0800(3) Uani 1 1 d . . .
I2 I 0.39256(2) 0.23665(4) 0.39840(3) 0.0775(2) Uani 1 1 d . . .
I3 I 0.62456(2) 0.73534(4) 0.06265(2) 0.0677(2) Uani 1 1 d . . .
I4 I 0.5264(6) 0.6498(12) 0.1184(14) 0.081(7) Uani 0.15(5) 1 d P . .
I4A I 0.52541(7) 0.64943(18) 0.1247(2) 0.0552(8) Uani 0.85(5) 1 d P . .
I5 I 0.628254(18) -0.16665(4) 0.197739(17) 0.05402(17) Uani 1 1 d . . .
I6 I 0.734225(17) -0.24317(4) 0.293355(19) 0.05147(16) Uani 1 1 d . . .
N11 N 0.57850(16) -0.2764(4) 0.43848(18) 0.0360(13) Uani 1 1 d . . .
N12 N 0.52751(16) -0.2273(4) 0.47087(18) 0.0367(14) Uani 1 1 d . . .
N13 N 0.54096(17) -0.1489(4) 0.41077(19) 0.0377(14) Uani 1 1 d . . .
C11 C 0.55592(19) -0.2837(5) 0.4678(2) 0.0340(15) Uani 1 1 d . . .
C12 C 0.5208(2) -0.1630(5) 0.4410(2) 0.0356(16) Uani 1 1 d . . .
C13 C 0.57035(19) -0.2060(5) 0.4116(2) 0.0329(15) Uani 1 1 d . . .
N11A N 0.57445(17) -0.5131(4) 0.55104(18) 0.0371(14) Uani 1 1 d . . .
C11A C 0.6008(2) -0.4874(5) 0.5293(3) 0.0479(19) Uani 1 1 d . . .
H11A H 0.6239 -0.5221 0.5324 0.057 Uiso 1 1 calc R . .
C12A C 0.5966(2) -0.4128(6) 0.5023(3) 0.048(2) Uani 1 1 d . . .
H12A H 0.6166 -0.3956 0.4880 0.058 Uiso 1 1 calc R . .
C13A C 0.56255(19) -0.3638(5) 0.4966(2) 0.0326(15) Uani 1 1 d . . .
C14A C 0.5344(2) -0.3904(5) 0.5192(2) 0.0419(18) Uani 1 1 d . . .
H14A H 0.5109 -0.3573 0.5165 0.050 Uiso 1 1 calc R . .
C15A C 0.5413(2) -0.4651(5) 0.5454(2) 0.0399(17) Uani 1 1 d . . .
H15A H 0.5219 -0.4839 0.5603 0.048 Uiso 1 1 calc R . .
N21A N 0.42202(17) 0.0067(4) 0.43839(19) 0.0395(14) Uani 1 1 d . . .
C21A C 0.4388(3) -0.0025(8) 0.4047(3) 0.081(4) Uani 1 1 d . . .
H21A H 0.4273 0.0280 0.3788 0.097 Uiso 1 1 calc R . .
C22A C 0.4715(3) -0.0529(8) 0.4047(3) 0.082(4) Uani 1 1 d . . .
H22A H 0.4833 -0.0535 0.3804 0.098 Uiso 1 1 calc R . .
C23A C 0.4867(2) -0.1025(5) 0.4409(2) 0.0383(16) Uani 1 1 d . . .
C24A C 0.4694(2) -0.0964(6) 0.4753(3) 0.053(2) Uani 1 1 d . . .
H24A H 0.4791 -0.1299 0.5007 0.064 Uiso 1 1 calc R . .
C25A C 0.4377(2) -0.0416(6) 0.4728(3) 0.052(2) Uani 1 1 d . . .
H25A H 0.4263 -0.0380 0.4973 0.063 Uiso 1 1 calc R . .
N31A N 0.64059(17) -0.1700(4) 0.31857(19) 0.0389(14) Uani 1 1 d . . .
C31A C 0.6529(2) -0.2165(5) 0.3549(2) 0.0440(18) Uani 1 1 d . . .
H31A H 0.6780 -0.2425 0.3596 0.053 Uiso 1 1 calc R . .
C32A C 0.6317(2) -0.2290(5) 0.3855(2) 0.0428(18) Uani 1 1 d . . .
H32A H 0.6422 -0.2620 0.4109 0.051 Uiso 1 1 calc R . .
C33A C 0.5946(2) -0.1931(5) 0.3795(2) 0.0354(15) Uani 1 1 d . . .
C34A C 0.5815(3) -0.1449(7) 0.3420(3) 0.061(2) Uani 1 1 d . . .
H34A H 0.5565 -0.1182 0.3366 0.074 Uiso 1 1 calc R . .
C35A C 0.6049(2) -0.1359(7) 0.3127(3) 0.057(2) Uani 1 1 d . . .
H35A H 0.5952 -0.1036 0.2868 0.068 Uiso 1 1 calc R . .
N21 N 0.72085(16) 0.4471(4) 0.27377(18) 0.0339(13) Uani 1 1 d . . .
N22 N 0.73431(16) 0.3072(4) 0.31170(17) 0.0307(12) Uani 1 1 d . . .
N23 N 0.68096(16) 0.3194(4) 0.25253(18) 0.0321(12) Uani 1 1 d . . .
C21 C 0.69111(19) 0.4062(5) 0.2487(2) 0.0340(15) Uani 1 1 d . . .
C22 C 0.74063(18) 0.3952(5) 0.3058(2) 0.0312(14) Uani 1 1 d . . .
C23 C 0.70419(19) 0.2724(4) 0.2838(2) 0.0310(14) Uani 1 1 d . . .
N11B N 0.62291(17) 0.5526(4) 0.14435(18) 0.0380(14) Uani 1 1 d . . .
C11B C 0.6140(2) 0.4684(5) 0.1535(3) 0.054(2) Uani 1 1 d . . .
H11B H 0.5919 0.4408 0.1361 0.064 Uiso 1 1 calc R . .
C12B C 0.6350(2) 0.4193(5) 0.1867(3) 0.049(2) Uani 1 1 d . . .
H12B H 0.6276 0.3590 0.1920 0.058 Uiso 1 1 calc R . .
C13B C 0.6675(2) 0.4590(4) 0.2129(2) 0.0337(15) Uani 1 1 d . . .
C14B C 0.6761(2) 0.5475(5) 0.2044(2) 0.0381(17) Uani 1 1 d . . .
H14B H 0.6972 0.5778 0.2223 0.046 Uiso 1 1 calc R . .
C15B C 0.6537(2) 0.5922(4) 0.1694(2) 0.0353(16) Uani 1 1 d . . .
H15B H 0.6603 0.6524 0.1630 0.042 Uiso 1 1 calc R . .
N21B N 0.83301(17) 0.5275(4) 0.39121(18) 0.0372(14) Uani 1 1 d . . .
C21B C 0.8156(2) 0.5659(5) 0.3535(2) 0.0421(18) Uani 1 1 d . . .
H21B H 0.8243 0.6238 0.3463 0.051 Uiso 1 1 calc R . .
C22B C 0.7860(2) 0.5249(5) 0.3253(2) 0.0422(18) Uani 1 1 d . . .
H22B H 0.7743 0.5543 0.2993 0.051 Uiso 1 1 calc R . .
C23B C 0.77344(18) 0.4404(4) 0.3351(2) 0.0304(14) Uani 1 1 d . . .
C24B C 0.7912(2) 0.3994(5) 0.3736(2) 0.047(2) Uani 1 1 d . . .
H24B H 0.7836 0.3406 0.3809 0.056 Uiso 1 1 calc R . .
C25B C 0.8202(2) 0.4460(5) 0.4008(3) 0.0447(19) Uani 1 1 d . . .
H25B H 0.8315 0.4191 0.4276 0.054 Uiso 1 1 calc R . .
N31B N 0.68407(17) -0.0129(4) 0.27957(18) 0.0377(14) Uani 1 1 d . . .
C31B C 0.7153(2) 0.0218(5) 0.3054(2) 0.0403(17) Uani 1 1 d . . .
H31B H 0.7334 -0.0185 0.3222 0.048 Uiso 1 1 calc R . .
C32B C 0.7224(2) 0.1130(5) 0.3087(2) 0.0412(17) Uani 1 1 d . . .
H32B H 0.7448 0.1350 0.3278 0.049 Uiso 1 1 calc R . .
C33B C 0.6970(2) 0.1733(4) 0.2843(2) 0.0331(15) Uani 1 1 d . . .
C34B C 0.6642(2) 0.1370(5) 0.2577(3) 0.047(2) Uani 1 1 d . . .
H34B H 0.6458 0.1757 0.2402 0.056 Uiso 1 1 calc R . .
C35B C 0.6585(2) 0.0446(5) 0.2569(3) 0.0460(19) Uani 1 1 d . . .
H35B H 0.6355 0.0207 0.2395 0.055 Uiso 1 1 calc R . .
C101 C 0.2741(3) 1.5976(8) 0.0494(3) 0.132(6) Uiso 1 1 d G . .
H101 H 0.2550 1.6266 0.0282 0.158 Uiso 1 1 calc R . .
C102 C 0.3045(3) 1.5513(8) 0.0373(3) 0.134(6) Uiso 1 1 d G . .
H102 H 0.3061 1.5488 0.0078 0.161 Uiso 1 1 calc R . .
C103 C 0.3324(3) 1.5088(8) 0.0682(4) 0.145(6) Uiso 1 1 d G . .
H103 H 0.3532 1.4772 0.0599 0.174 Uiso 1 1 calc R . .
C104 C 0.3300(3) 1.5125(8) 0.1113(4) 0.176(8) Uiso 1 1 d G . .
H104 H 0.3491 1.4834 0.1325 0.211 Uiso 1 1 calc R . .
C105 C 0.2996(3) 1.5587(8) 0.1234(2) 0.117(5) Uiso 1 1 d G . .
H105 H 0.2980 1.5613 0.1529 0.141 Uiso 1 1 calc R . .
C106 C 0.2717(3) 1.6013(7) 0.0925(3) 0.105(4) Uiso 1 1 d G . .
H106 H 0.2510 1.6329 0.1008 0.126 Uiso 1 1 calc R . .
C201 C 0.7428(3) -0.1179(8) 0.4268(4) 0.136(6) Uiso 1 1 d G . .
H201 H 0.7263 -0.1653 0.4326 0.163 Uiso 1 1 calc R . .
C202 C 0.7768(4) -0.1388(6) 0.4133(4) 0.160(7) Uiso 1 1 d G . .
H202 H 0.7835 -0.2004 0.4097 0.192 Uiso 1 1 calc R . .
C203 C 0.8009(2) -0.0695(7) 0.4049(3) 0.106(4) Uiso 1 1 d G . .
H203 H 0.8241 -0.0838 0.3956 0.128 Uiso 1 1 calc R . .
C204 C 0.7911(3) 0.0206(6) 0.4101(3) 0.102(4) Uiso 1 1 d G . .
H204 H 0.8076 0.0680 0.4043 0.123 Uiso 1 1 calc R . .
C205 C 0.7572(3) 0.0415(6) 0.4237(3) 0.121(5) Uiso 1 1 d G . .
H205 H 0.7505 0.1031 0.4272 0.146 Uiso 1 1 calc R . .
C206 C 0.7330(2) -0.0278(9) 0.4321(3) 0.145(6) Uiso 1 1 d G . .
H206 H 0.7098 -0.0136 0.4414 0.174 Uiso 1 1 calc R . .
C301 C 0.3666(7) 1.0938(11) 0.1307(7) 0.206(11) Uiso 1 1 d G . .
H301 H 0.3625 1.0342 0.1192 0.248 Uiso 1 1 calc R . .
C302 C 0.3406(5) 1.1626(17) 0.1149(5) 0.241(13) Uiso 1 1 d G . .
H302 H 0.3187 1.1500 0.0927 0.289 Uiso 1 1 calc R . .
C303 C 0.3465(6) 1.2498(14) 0.1317(7) 0.207(11) Uiso 1 1 d G . .
H303 H 0.3287 1.2969 0.1209 0.249 Uiso 1 1 calc R . .
C304 C 0.3784(7) 1.2683(12) 0.1642(7) 0.258(15) Uiso 1 1 d G . .
H304 H 0.3825 1.3279 0.1757 0.310 Uiso 1 1 calc R . .
C305 C 0.4044(5) 1.1995(19) 0.1799(5) 0.33(2) Uiso 1 1 d G . .
H305 H 0.4263 1.2121 0.2022 0.391 Uiso 1 1 calc R . .
C306 C 0.3985(6) 1.1122(16) 0.1632(7) 0.262(15) Uiso 1 1 d G . .
H306 H 0.4163 1.0652 0.1739 0.314 Uiso 1 1 calc R . .
C401 C 0.7514(8) 0.8304(17) 0.0222(8) 0.175(8) Uiso 1 1 d . . .
H401 H 0.7528 0.8835 0.0394 0.210 Uiso 1 1 calc R . .
C402 C 0.7178(8) 0.7929(19) 0.0053(8) 0.179(9) Uiso 1 1 d . . .
H402 H 0.6945 0.8240 0.0066 0.215 Uiso 1 1 calc R . .
C403 C 0.7161(7) 0.7090(19) -0.0144(8) 0.178(8) Uiso 1 1 d . . .
H403 H 0.6920 0.6787 -0.0224 0.214 Uiso 1 1 calc R . .
C501 C 0.4546(7) -0.3754(10) 0.5840(6) 0.226(12) Uiso 1 1 d G . .
H501 H 0.4532 -0.4398 0.5849 0.271 Uiso 1 1 calc R . .
C502 C 0.4242(5) -0.3261(15) 0.5598(5) 0.189(9) Uiso 1 1 d G . .
H502 H 0.4020 -0.3567 0.5442 0.227 Uiso 1 1 calc R . .
C503 C 0.4263(5) -0.2319(15) 0.5584(5) 0.198(10) Uiso 1 1 d G . .
H503 H 0.4055 -0.1982 0.5418 0.238 Uiso 1 1 calc R . .
C504 C 0.4587(7) -0.1871(11) 0.5812(7) 0.293(17) Uiso 1 1 d G . .
H504 H 0.4601 -0.1227 0.5802 0.351 Uiso 1 1 calc R . .
C505 C 0.4891(5) -0.2364(18) 0.6054(6) 0.251(14) Uiso 1 1 d G . .
H505 H 0.5113 -0.2058 0.6210 0.301 Uiso 1 1 calc R . .
C506 C 0.4871(5) -0.3306(18) 0.6068(6) 0.253(14) Uiso 1 1 d G . .
H506 H 0.5079 -0.3643 0.6234 0.304 Uiso 1 1 calc R . .
C601 C 0.5000 -0.190(2) 0.2500 0.162(10) Uiso 1 2 d S . .
H601 H 0.5000 -0.2544 0.2500 0.195 Uiso 1 2 calc SR . .
C602 C 0.5199(5) -0.1449(14) 0.2238(6) 0.140(6) Uiso 1 1 d . . .
H602 H 0.5334 -0.1779 0.2058 0.168 Uiso 1 1 calc R . .
C603 C 0.5202(5) -0.0601(14) 0.2236(6) 0.134(6) Uiso 1 1 d . . .
H603 H 0.5342 -0.0286 0.2056 0.161 Uiso 1 1 calc R . .
C604 C 0.5000 -0.011(2) 0.2500 0.151(10) Uiso 1 2 d S . .
H604 H 0.5000 0.0537 0.2500 0.182 Uiso 1 2 calc SR . .
C701 C 0.5609(8) 0.544(2) 0.3235(9) 0.190(10) Uiso 1 1 d . . .
C704 C 0.5820(6) 0.5910(15) 0.2509(7) 0.154(7) Uiso 1 1 d . . .
C705 C 0.6075(12) 0.606(3) 0.2925(12) 0.281(17) Uiso 1 1 d . . .
C706 C 0.5671(11) 0.609(3) 0.3136(12) 0.253(16) Uiso 1 1 d . . .
C702 C 0.5582(17) 0.442(4) 0.267(2) 0.47(3) Uiso 1 1 d . . .

loop_
_atom_site_aniso_label
_atom_site_aniso_U_11
_atom_site_aniso_U_22
_atom_site_aniso_U_33
_atom_site_aniso_U_23
_atom_site_aniso_U_13
_atom_site_aniso_U_12
Zn1 0.0368(5) 0.0345(5) 0.0517(5) -0.0116(4) -0.0048(4) 0.0048(4)
Zn2 0.0484(5) 0.0252(4) 0.0349(4) -0.0012(3) -0.0035(4) 0.0020(4)
Zn3 0.0491(5) 0.0239(4) 0.0427(5) 0.0021(3) 0.0143(4) -0.0022(3)
I1 0.0573(4) 0.1174(6) 0.0667(4) -0.0476(4) 0.0160(3) -0.0129(4)
I2 0.0769(4) 0.0366(3) 0.1017(5) 0.0065(3) -0.0220(4) -0.0120(3)
I3 0.0943(5) 0.0430(3) 0.0612(4) 0.0057(3) 0.0050(3) -0.0250(3)
I4 0.092(12) 0.082(9) 0.054(7) -0.020(5) -0.021(7) 0.064(12)
I4A 0.0533(12) 0.0561(10) 0.0547(11) -0.0063(7) 0.0074(11) 0.0154(14)
I5 0.0722(4) 0.0422(3) 0.0455(3) -0.0075(2) 0.0072(3) -0.0095(3)
I6 0.0592(3) 0.0378(3) 0.0633(3) 0.0116(2) 0.0264(3) 0.0120(2)
N11 0.035(3) 0.033(3) 0.038(3) 0.005(3) 0.004(3) -0.001(3)
N12 0.035(3) 0.034(3) 0.037(3) 0.006(3) -0.002(2) 0.003(3)
N13 0.036(3) 0.038(3) 0.038(3) 0.005(3) 0.005(3) 0.002(3)
C11 0.033(4) 0.035(4) 0.032(3) 0.003(3) 0.002(3) -0.004(3)
C12 0.035(4) 0.034(4) 0.035(4) 0.003(3) 0.001(3) -0.003(3)
C13 0.036(4) 0.028(4) 0.032(3) 0.000(3) 0.003(3) -0.002(3)
N11A 0.044(3) 0.028(3) 0.035(3) 0.004(2) 0.000(3) 0.003(3)
C11A 0.046(4) 0.041(4) 0.056(5) 0.015(4) 0.009(4) 0.016(4)
C12A 0.043(4) 0.048(5) 0.056(5) 0.021(4) 0.014(4) 0.013(4)
C13A 0.037(4) 0.030(4) 0.029(3) -0.003(3) 0.000(3) -0.004(3)
C14A 0.033(4) 0.041(4) 0.048(4) 0.009(3) 0.002(3) -0.002(3)
C15A 0.044(4) 0.041(4) 0.036(4) 0.007(3) 0.012(3) 0.000(3)
N21A 0.040(3) 0.037(3) 0.041(3) -0.001(3) 0.008(3) 0.011(3)
C21A 0.089(7) 0.108(9) 0.050(5) 0.035(6) 0.023(5) 0.060(7)
C22A 0.097(8) 0.098(8) 0.059(6) 0.035(6) 0.037(6) 0.057(7)
C23A 0.040(4) 0.035(4) 0.037(4) 0.003(3) 0.003(3) 0.006(3)
C24A 0.053(5) 0.063(6) 0.042(4) 0.019(4) 0.009(4) 0.019(4)
C25A 0.041(4) 0.070(6) 0.048(5) 0.022(4) 0.015(4) 0.015(4)
N31A 0.045(4) 0.030(3) 0.044(3) 0.004(3) 0.014(3) 0.004(3)
C31A 0.043(4) 0.041(4) 0.049(4) 0.007(3) 0.010(3) 0.009(3)
C32A 0.043(4) 0.045(4) 0.042(4) 0.013(3) 0.011(3) 0.008(3)
C33A 0.042(4) 0.028(4) 0.034(3) 0.004(3) 0.004(3) 0.004(3)
C34A 0.047(5) 0.075(7) 0.061(5) 0.028(5) 0.006(4) 0.012(4)
C35A 0.050(5) 0.072(6) 0.053(5) 0.032(4) 0.020(4) 0.016(4)
N21 0.034(3) 0.026(3) 0.037(3) -0.004(2) -0.002(2) 0.002(2)
N22 0.039(3) 0.021(3) 0.031(3) -0.001(2) 0.004(2) 0.000(