####################################################################### 
# 
# This file contains crystal structure data downloaded from the 
# Cambridge Structural Database (CSD) hosted by the Cambridge 
# Crystallographic Data Centre (CCDC).
# 
# Full information about CCDC data access policies and citation 
# guidelines are available at http://www.ccdc.cam.ac.uk/access/V1 
# 
# Audit and citation data items may have been added by the CCDC. 
# Please retain this information to preserve the provenance of 
# this file and to allow appropriate attribution of the data. 
# 
#######################################################################

data_3
_audit_block_doi                 10.5517/cc69g20
_database_code_depnum_ccdc_archive 'CCDC 187831'
loop_
_citation_id
_citation_doi
_citation_year
1 10.1002/1521-3773(20020916)41:18<3392::AID-ANIE3392>3.0.CO;2-V 2002
_audit_update_record             
;
2002-06-14 deposited with the CCDC.	2024-07-11 downloaded from the CCDC.
;

_audit_creation_method           SHELXL-97
_chemical_name_systematic        
; 
? 
;
_chemical_name_common            ?
_chemical_melting_point          ?
_chemical_formula_moiety         ?
_chemical_formula_sum            'C78 H54 I6 N18 Zn3'
_chemical_formula_weight         2200.90

loop_
_atom_type_symbol
_atom_type_description
_atom_type_scat_dispersion_real
_atom_type_scat_dispersion_imag
_atom_type_scat_source
C C 0.0033 0.0016 'International Tables Vol C Tables 4.2.6.8 and 6.1.1.4'
H H 0.0000 0.0000 'International Tables Vol C Tables 4.2.6.8 and 6.1.1.4'
N N 0.0061 0.0033 'International Tables Vol C Tables 4.2.6.8 and 6.1.1.4'
Zn Zn 0.2839 1.4301 'International Tables Vol C Tables 4.2.6.8 and 6.1.1.4'
I I -0.4742 1.8119 'International Tables Vol C Tables 4.2.6.8 and 6.1.1.4'

_symmetry_cell_setting           Monoclinic
_symmetry_space_group_name_H-M   C2/c

loop_
_symmetry_equiv_pos_as_xyz
'x, y, z'
'-x, y, -z+1/2'
'x+1/2, y+1/2, z'
'-x+1/2, y+1/2, -z+1/2'
'-x, -y, -z'
'x, -y, z-1/2'
'-x+1/2, -y+1/2, -z'
'x+1/2, -y+1/2, z-1/2'

_cell_length_a                   35.487(8)
_cell_length_b                   15.080(4)
_cell_length_c                   31.542(7)
_cell_angle_alpha                90.00
_cell_angle_beta                 102.107(4)
_cell_angle_gamma                90.00
_cell_volume                     16504(7)
_cell_formula_units_Z            8
_cell_measurement_temperature    193(2)
_cell_measurement_reflns_used    ?
_cell_measurement_theta_min      ?
_cell_measurement_theta_max      ?

_exptl_crystal_description       ?
_exptl_crystal_colour            ?
_exptl_crystal_size_max          0.20
_exptl_crystal_size_mid          0.20
_exptl_crystal_size_min          0.15
_exptl_crystal_density_meas      ?
_exptl_crystal_density_diffrn    1.772
_exptl_crystal_density_method    'not measured'
_exptl_crystal_F_000             8448
_exptl_absorpt_coefficient_mu    3.162
_exptl_absorpt_correction_type   ?
_exptl_absorpt_correction_T_min  0.5704
_exptl_absorpt_correction_T_max  0.6484
_exptl_absorpt_process_details   ?

_exptl_special_details           
; 
? 
;

_diffrn_ambient_temperature      193(2)
_diffrn_radiation_wavelength     0.71073
_diffrn_radiation_type           MoK\a
_diffrn_radiation_source         'fine-focus sealed tube'
_diffrn_radiation_monochromator  graphite
_diffrn_measurement_device_type  ?
_diffrn_measurement_method       ?
_diffrn_detector_area_resol_mean ?
_diffrn_standards_number         ?
_diffrn_standards_interval_count ?
_diffrn_standards_interval_time  ?
_diffrn_standards_decay_%        ?
_diffrn_reflns_number            42888
_diffrn_reflns_av_R_equivalents  0.0571
_diffrn_reflns_av_sigmaI/netI    0.0548
_diffrn_reflns_limit_h_min       -42
_diffrn_reflns_limit_h_max       42
_diffrn_reflns_limit_k_min       -11
_diffrn_reflns_limit_k_max       17
_diffrn_reflns_limit_l_min       -37
_diffrn_reflns_limit_l_max       34
_diffrn_reflns_theta_min         1.32
_diffrn_reflns_theta_max         25.00
_reflns_number_total             14518
_reflns_number_gt                9884
_reflns_threshold_expression     >2sigma(I)

_computing_data_collection       ?
_computing_cell_refinement       ?
_computing_data_reduction        ?
_computing_structure_solution    'SHELXS-97 (Sheldrick, 1990)'
_computing_structure_refinement  'SHELXL-97 (Sheldrick, 1997)'
_computing_molecular_graphics    ?
_computing_publication_material  ?

_refine_special_details          
; 
Refinement of F^2^ against ALL reflections.  The weighted R-factor wR and 
goodness of fit S are based on F^2^, conventional R-factors R are based 
on F, with F set to zero for negative F^2^. The threshold expression of 
F^2^ > 2sigma(F^2^) is used only for calculating R-factors(gt) etc. and is 
not relevant to the choice of reflections for refinement.  R-factors based 
on F^2^ are statistically about twice as large as those based on F, and R- 
factors based on ALL data will be even larger. 
;

_refine_ls_structure_factor_coef Fsqd
_refine_ls_matrix_type           full
_refine_ls_weighting_scheme      calc
_refine_ls_weighting_details     
'calc w=1/[\s^2^(Fo^2^)+(0.1501P)^2^+125.1709P] where P=(Fo^2^+2Fc^2^)/3'
_atom_sites_solution_primary     direct
_atom_sites_solution_secondary   difmap
_atom_sites_solution_hydrogens   geom
_refine_ls_hydrogen_treatment    mixed
_refine_ls_extinction_method     none
_refine_ls_extinction_coef       ?
_refine_ls_number_reflns         14518
_refine_ls_number_parameters     794
_refine_ls_number_restraints     4
_refine_ls_R_factor_all          0.0975
_refine_ls_R_factor_gt           0.0638
_refine_ls_wR_factor_ref         0.2138
_refine_ls_wR_factor_gt          0.1922
_refine_ls_goodness_of_fit_ref   0.891
_refine_ls_restrained_S_all      0.891
_refine_ls_shift/su_max          0.921
_refine_ls_shift/su_mean         0.048

loop_
_atom_site_label
_atom_site_type_symbol
_atom_site_fract_x
_atom_site_fract_y
_atom_site_fract_z
_atom_site_U_iso_or_equiv
_atom_site_adp_type
_atom_site_occupancy
_atom_site_symmetry_multiplicity
_atom_site_calc_flag
_atom_site_refinement_flags
_atom_site_disorder_assembly
_atom_site_disorder_group
I1 I 0.73742(3) 0.26839(5) 0.80593(3) 0.0875(3) Uani 1 1 d . . .
I2 I 0.6299(4) 0.3237(4) 0.7039(2) 0.0573(12) Uani 0.72(6) 1 d P . .
I2A I 0.6412(13) 0.315(2) 0.7109(13) 0.067(5) Uani 0.28(6) 1 d P . .
I3 I 0.02756(2) 0.64493(5) 0.63252(2) 0.0651(2) Uani 1 1 d . . .
I4 I 0.11775(3) 0.73406(5) 0.56141(3) 0.0734(2) Uani 1 1 d . . .
I5 I 0.39474(3) 0.72529(5) 0.90161(3) 0.0852(3) Uani 1 1 d . . .
I6 I 0.35576(2) 0.58162(7) 1.00794(3) 0.0877(3) Uani 1 1 d . . .
Zn1 Zn 0.67582(3) 0.35569(7) 0.77908(4) 0.0500(3) Uani 1 1 d . . .
Zn2 Zn 0.08287(3) 0.61525(6) 0.59441(3) 0.0431(3) Uani 1 1 d . . .
Zn3 Zn 0.37454(3) 0.58414(7) 0.93464(3) 0.0480(3) Uani 1 1 d . . .
N11 N 0.52256(19) 0.2643(4) 0.9689(2) 0.0367(15) Uani 1 1 d . . .
N12 N 0.57575(19) 0.2202(4) 0.9383(2) 0.0363(15) Uani 1 1 d . . .
N13 N 0.53740(19) 0.3442(4) 0.9094(2) 0.0381(15) Uani 1 1 d . . .
C11 C 0.5164(2) 0.3277(5) 0.9392(2) 0.0341(17) Uani 1 1 d . . .
C12 C 0.5521(2) 0.2107(5) 0.9658(2) 0.0345(17) Uani 1 1 d . . .
C13 C 0.5678(2) 0.2906(5) 0.9118(2) 0.0361(17) Uani 1 1 d . . .
N11A N 0.41916(19) 0.4962(5) 0.9368(2) 0.0421(16) Uani 1 1 d . . .
C11A C 0.4376(3) 0.4582(7) 0.9728(3) 0.050(2) Uani 1 1 d . . .
H11A H 0.4287 0.4697 0.9987 0.060 Uiso 1 1 calc R . .
C12A C 0.4689(3) 0.4031(6) 0.9755(3) 0.049(2) Uani 1 1 d . . .
H12A H 0.4812 0.3777 1.0025 0.059 Uiso 1 1 calc R . .
C13A C 0.4818(2) 0.3857(5) 0.9383(3) 0.0379(18) Uani 1 1 d . . .
C14A C 0.4621(3) 0.4215(6) 0.8996(3) 0.054(2) Uani 1 1 d . . .
H14A H 0.4700 0.4096 0.8733 0.065 Uiso 1 1 calc R . .
C15A C 0.4309(3) 0.4743(7) 0.9001(3) 0.052(2) Uani 1 1 d . . .
H15A H 0.4168 0.4967 0.8733 0.063 Uiso 1 1 calc R . .
N21A N 0.5691(2) -0.0142(5) 1.0490(2) 0.0447(17) Uani 1 1 d . . .
C21A C 0.5950(3) 0.0053(7) 1.0248(3) 0.060(3) Uani 1 1 d . . .
H21A H 0.6172 -0.0310 1.0266 0.072 Uiso 1 1 calc R . .
C22A C 0.5897(3) 0.0777(7) 0.9974(3) 0.065(3) Uani 1 1 d . . .
H22A H 0.6081 0.0903 0.9803 0.078 Uiso 1 1 calc R . .
C23A C 0.5583(2) 0.1315(5) 0.9944(3) 0.0380(18) Uani 1 1 d . . .
C24A C 0.5313(2) 0.1089(6) 1.0193(3) 0.0422(19) Uani 1 1 d . . .
H24A H 0.5089 0.1440 1.0179 0.051 Uiso 1 1 calc R . .
C25A C 0.5377(2) 0.0355(5) 1.0458(3) 0.0400(18) Uani 1 1 d . . .
H25A H 0.5191 0.0200 1.0623 0.048 Uiso 1 1 calc R . .
N31A N 0.6422(2) 0.3404(4) 0.8251(2) 0.0421(16) Uani 1 1 d . . .
C31A C 0.6073(3) 0.3764(6) 0.8190(3) 0.052(2) Uani 1 1 d . . .
H31A H 0.5993 0.4139 0.7945 0.062 Uiso 1 1 calc R . .
C32A C 0.5823(3) 0.3626(6) 0.8459(3) 0.050(2) Uani 1 1 d . . .
H32A H 0.5576 0.3899 0.8400 0.060 Uiso 1 1 calc R . .
C33A C 0.5931(2) 0.3091(5) 0.8816(3) 0.0362(17) Uani 1 1 d . . .
C34A C 0.6302(3) 0.2710(6) 0.8891(3) 0.050(2) Uani 1 1 d . . .
H34A H 0.6392 0.2342 0.9136 0.060 Uiso 1 1 calc R . .
C35A C 0.6534(3) 0.2888(6) 0.8596(3) 0.050(2) Uani 1 1 d . . .
H35A H 0.6783 0.2630 0.8644 0.060 Uiso 1 1 calc R . .
C23 C 0.2415(2) 0.3914(5) 0.8008(3) 0.0362(17) Uani 1 1 d . . .
C21 C 0.1916(2) 0.3998(5) 0.7443(3) 0.0351(17) Uani 1 1 d . . .
C22 C 0.2073(2) 0.2698(5) 0.7773(3) 0.0380(18) Uani 1 1 d . . .
N23 N 0.22075(19) 0.4421(4) 0.7709(2) 0.0388(15) Uani 1 1 d . . .
N21 N 0.18304(18) 0.3148(4) 0.7472(2) 0.0353(14) Uani 1 1 d . . .
N22 N 0.23686(19) 0.3045(4) 0.8058(2) 0.0364(15) Uani 1 1 d . . .
N11B N 0.1221(2) 0.5456(4) 0.6403(2) 0.0422(16) Uani 1 1 d . . .
C11B C 0.1168(4) 0.4599(7) 0.6462(4) 0.087(5) Uani 1 1 d . . .
H11B H 0.0963 0.4308 0.6270 0.104 Uiso 1 1 calc R . .
C12B C 0.1394(4) 0.4104(6) 0.6790(4) 0.090(5) Uani 1 1 d . . .
H12B H 0.1354 0.3484 0.6810 0.108 Uiso 1 1 calc R . .
C13B C 0.1677(2) 0.4524(5) 0.7082(3) 0.0373(18) Uani 1 1 d . . .
C14B C 0.1732(2) 0.5411(5) 0.7025(3) 0.044(2) Uani 1 1 d . . .
H14B H 0.1925 0.5723 0.7223 0.053 Uiso 1 1 calc R . .
C15B C 0.1507(3) 0.5854(5) 0.6678(3) 0.044(2) Uani 1 1 d . . .
H15B H 0.1558 0.6462 0.6634 0.052 Uiso 1 1 calc R . .
N21B N 0.1872(2) -0.0095(4) 0.7790(2) 0.0432(16) Uani 1 1 d . . .
C21B C 0.1621(3) 0.0446(6) 0.7557(3) 0.050(2) Uani 1 1 d . . .
H21B H 0.1391 0.0201 0.7388 0.061 Uiso 1 1 calc R . .
C22B C 0.1674(3) 0.1356(6) 0.7543(3) 0.048(2) Uani 1 1 d . . .
H22B H 0.1487 0.1718 0.7365 0.057 Uiso 1 1 calc R . .
C23B C 0.2003(2) 0.1731(5) 0.7792(3) 0.0352(17) Uani 1 1 d . . .
C24B C 0.2267(3) 0.1165(6) 0.8043(3) 0.049(2) Uani 1 1 d . . .
H24B H 0.2496 0.1394 0.8220 0.059 Uiso 1 1 calc R . .
C25B C 0.2194(3) 0.0265(6) 0.8033(3) 0.053(2) Uani 1 1 d . . .
H25B H 0.2379 -0.0117 0.8203 0.063 Uiso 1 1 calc R . .
N31B N 0.33149(19) 0.5229(5) 0.8897(2) 0.0413(16) Uani 1 1 d . . .
C31B C 0.3246(3) 0.4382(6) 0.8949(3) 0.051(2) Uani 1 1 d . . .
H31B H 0.3397 0.4077 0.9189 0.061 Uiso 1 1 calc R . .
C32B C 0.2958(3) 0.3915(6) 0.8666(3) 0.045(2) Uani 1 1 d . . .
H32B H 0.2916 0.3302 0.8708 0.054 Uiso 1 1 calc R . .
C33B C 0.2735(2) 0.4372(5) 0.8324(2) 0.0313(16) Uani 1 1 d . . .
C34B C 0.2812(3) 0.5255(6) 0.8266(3) 0.048(2) Uani 1 1 d . . .
H34B H 0.2666 0.5580 0.8030 0.058 Uiso 1 1 calc R . .
C35B C 0.3103(3) 0.5654(6) 0.8556(3) 0.051(2) Uani 1 1 d . . .
H35B H 0.3158 0.6261 0.8514 0.061 Uiso 1 1 calc R . .
C101 C 0.4522(6) 0.7607(12) 0.5759(5) 0.109(5) Uani 1 1 d . . .
C102 C 0.4167(6) 0.7195(17) 0.5666(6) 0.137(8) Uani 1 1 d . . .
C103 C 0.394(3) 0.630(6) 0.588(2) 0.53(7) Uani 1 1 d . . .
C104 C 0.4250(14) 0.610(3) 0.5757(9) 0.22(2) Uani 1 1 d . . .
C105 C 0.4708(15) 0.607(2) 0.5920(7) 0.26(3) Uani 1 1 d . . .
C106 C 0.4862(7) 0.7138(19) 0.5897(6) 0.152(9) Uani 1 1 d . . .
C107 C 0.4524(6) 0.8582(17) 0.5724(8) 0.134(7) Uani 1 1 d . . .
N101 N 0.4533(6) 0.9413(16) 0.5714(10) 0.198(10) Uani 1 1 d . . .
C201 C 0.3798(8) 1.0316(12) 0.6331(7) 0.121(7) Uani 1 1 d D . .
C202 C 0.4176(6) 1.0615(11) 0.6468(6) 0.108(5) Uani 1 1 d . . .
C203 C 0.4286(6) 1.1078(12) 0.6845(6) 0.116(6) Uani 1 1 d . . .
C204 C 0.3990(9) 1.1243(13) 0.7076(6) 0.136(8) Uani 1 1 d . . .
C205 C 0.3606(8) 1.0928(15) 0.6903(10) 0.139(9) Uani 1 1 d . . .
C206 C 0.3510(7) 1.0469(13) 0.6552(7) 0.121(7) Uani 1 1 d . . .
C207 C 0.3647(11) 0.981(2) 0.5909(9) 0.31(6) Uani 0.50 1 d PD . .
N201 N 0.3486(17) 0.960(7) 0.5507(14) 1.2(2) Uani 0.50 1 d PD . .
C301 C 0.4763(4) 0.4112(13) 0.7702(4) 0.092(5) Uani 1 1 d D . .
C302 C 0.4756(5) 0.3215(15) 0.7726(5) 0.109(6) Uani 1 1 d . . .
C303 C 0.5000 0.2732(16) 0.7500 0.154(16) Uani 1 2 d S . .
C304 C 0.5000 0.4555(15) 0.7500 0.088(6) Uani 1 2 d S . .
C305 C 0.4547(7) 0.4861(15) 0.7876(7) 0.086(9) Uani 0.50 1 d PD . .
N301 N 0.4353(6) 0.5512(18) 0.8007(7) 0.098(8) Uani 0.50 1 d PD . .
C401 C 0.4414(9) 0.657(2) 0.7960(10) 0.199(12) Uiso 1 1 d . . .
C402 C 0.4523(12) 0.921(2) 0.7917(13) 0.231(14) Uiso 1 1 d . . .
C403 C 0.5704(10) 0.623(3) 0.8063(12) 0.228(14) Uiso 1 1 d . . .
C404 C 0.4228(11) 0.888(3) 0.7433(13) 0.243(16) Uiso 1 1 d . . .
C405 C 0.4898(17) 0.876(4) 0.8089(18) 0.34(3) Uiso 1 1 d . . .
C406 C 0.3454(12) 0.778(3) 0.6414(13) 0.233(15) Uiso 1 1 d . . .
C407 C 0.3569(13) 0.636(3) 0.6392(15) 0.286(19) Uiso 1 1 d . . .
C408 C 0.3281(12) 0.554(3) 0.6096(13) 0.254(16) Uiso 1 1 d . . .
C409 C 0.2104(14) 0.799(4) 0.5113(16) 0.30(2) Uiso 1 1 d . . .
C410 C 0.4234(19) 0.776(5) 0.735(2) 0.39(3) Uiso 1 1 d . . .
C411 C 0.2426(19) 0.895(4) 0.528(2) 0.38(3) Uiso 1 1 d . . .
C412 C 0.4543(9) 0.767(2) 0.7917(10) 0.194(11) Uiso 1 1 d . . .
C413 C 0.707(2) 0.164(5) 1.058(2) 0.42(4) Uiso 1 1 d . . .
C414 C 0.3182(16) 0.730(3) 0.6142(17) 0.30(2) Uiso 1 1 d . . .
C415 C 0.7269(14) 0.156(3) 0.9517(15) 0.32(2) Uiso 1 1 d . . .
C416 C 0.2628(16) 0.476(4) 0.5779(17) 0.34(2) Uiso 1 1 d . . .
C417 C 0.291(2) 0.966(5) 0.612(2) 0.44(4) Uiso 1 1 d . . .
C418 C 0.2104(12) 0.474(3) 0.5853(13) 0.264(17) Uiso 1 1 d . . .
C419 C 0.272(2) 0.656(5) 0.596(2) 0.46(4) Uiso 1 1 d . . .
C420 C 0.2144(15) 0.685(4) 0.4932(17) 0.31(2) Uiso 1 1 d . . .

loop_
_atom_site_aniso_label
_atom_site_aniso_U_11
_atom_site_aniso_U_22
_atom_site_aniso_U_33
_atom_site_aniso_U_23
_atom_site_aniso_U_13
_atom_site_aniso_U_12
I1 0.0872(6) 0.0611(5) 0.1364(8) 0.0448(5) 0.0741(6) 0.0341(4)
I2 0.076(3) 0.0484(9) 0.0500(13) -0.0076(8) 0.0198(15) -0.0082(15)
I2A 0.079(9) 0.060(6) 0.069(8) -0.023(6) 0.035(7) -0.026(6)
I3 0.0773(5) 0.0602(4) 0.0563(4) -0.0009(3) 0.0108(3) 0.0246(3)
I4 0.1045(6) 0.0427(4) 0.0701(5) 0.0015(3) 0.0119(4) -0.0200(4)
I5 0.0832(5) 0.0430(4) 0.1124(7) 0.0060(4) -0.0183(5) -0.0055(4)
I6 0.0762(5) 0.1240(8) 0.0595(5) -0.0323(5) 0.0066(4) 0.0293(5)
Zn1 0.0661(7) 0.0303(5) 0.0634(7) 0.0069(5) 0.0357(6) -0.0001(5)
Zn2 0.0561(6) 0.0296(5) 0.0367(5) -0.0031(4) -0.0062(4) 0.0000(4)
Zn3 0.0425(5) 0.0416(6) 0.0519(6) -0.0119(5) -0.0083(4) 0.0108(4)
N11 0.039(4) 0.030(3) 0.038(4) 0.005(3) 0.002(3) 0.009(3)
N12 0.039(4) 0.038(4) 0.033(3) 0.001(3) 0.010(3) 0.007(3)
N13 0.037(4) 0.035(4) 0.042(4) 0.003(3) 0.007(3) -0.001(3)
C11 0.035(4) 0.031(4) 0.035(4) 0.002(3) 0.006(3) 0.001(3)
C12 0.037(4) 0.036(4) 0.030(4) 0.006(3) 0.005(3) 0.003(3)
C13 0.035(4) 0.036(4) 0.035(4) 0.000(3) 0.003(3) 0.002(3)
N11A 0.041(4) 0.042(4) 0.040(4) -0.003(3) 0.000(3) 0.011(3)
C11A 0.053(5) 0.060(6) 0.037(5) 0.000(4) 0.009(4) 0.023(5)
C12A 0.056(5) 0.056(6) 0.034(4) 0.009(4) 0.005(4) 0.018(4)
C13A 0.034(4) 0.035(4) 0.044(5) 0.008(4) 0.008(3) 0.003(3)
C14A 0.071(6) 0.055(6) 0.035(5) 0.009(4) 0.006(4) 0.022(5)
C15A 0.057(5) 0.056(6) 0.041(5) 0.005(4) 0.003(4) 0.023(5)
N21A 0.052(4) 0.038(4) 0.040(4) 0.008(3) 0.000(3) 0.012(3)
C21A 0.072(6) 0.059(6) 0.059(6) 0.025(5) 0.033(5) 0.038(5)
C22A 0.084(7) 0.060(6) 0.059(6) 0.026(5) 0.034(5) 0.030(6)
C23A 0.043(4) 0.036(4) 0.034(4) 0.005(3) 0.005(3) 0.005(4)
C24A 0.036(4) 0.039(4) 0.050(5) 0.009(4) 0.007(4) 0.004(4)
C25A 0.039(4) 0.037(4) 0.041(4) 0.007(4) 0.001(3) 0.000(4)
N31A 0.057(4) 0.032(4) 0.041(4) 0.009(3) 0.017(3) 0.001(3)
C31A 0.057(6) 0.046(5) 0.057(6) 0.015(4) 0.024(5) 0.006(4)
C32A 0.043(5) 0.053(5) 0.054(5) 0.015(4) 0.010(4) 0.003(4)
C33A 0.034(4) 0.039(4) 0.037(4) 0.001(3) 0.010(3) -0.003(3)
C34A 0.053(5) 0.047(5) 0.058(6) 0.018(4) 0.026(4) 0.013(4)
C35A 0.045(5) 0.049(5) 0.059(6) 0.008(4) 0.020(4) 0.011(4)
C23 0.037(4) 0.030(4) 0.042(4) 0.001(3) 0.010(3) 0.003(3)
C21 0.036(4) 0.029(4) 0.040(4) 0.003(3) 0.005(3) 0.006(3)
C22 0.031(4) 0.033(4) 0.050(5) -0.003(4) 0.006(3) 0.002(3)
N23 0.041(4) 0.031(3) 0.042(4) -0.003(3) 0.002(3) 0.005(3)
N21 0.032(3) 0.031(3) 0.042(4) -0.005(3) 0.005(3) -0.002(3)
N22 0.038(3) 0.030(3) 0.039(4) 0.002(3) 0.006(3) 0.005(3)
N11B 0.049(4) 0.030(3) 0.043(4) 0.001(3) -0.001(3) 0.002(3)
C11B 0.106(9) 0.049(6) 0.075(7) 0.024(6) -0.052(7) -0.032(6)
C12B 0.110(9) 0.026(5) 0.096(9) 0.003(5) -0.065(8) -0.011(5)
C13B 0.035(4) 0.031(4) 0.043(4) 0.002(3) 0.001(3) 0.002(3)
C14B 0.041(4) 0.029(4) 0.054(5) -0.001(4) -0.006(4) -0.003(3)
C15B 0.053(5) 0.028(4) 0.047(5) -0.006(4) 0.004(4) 0.001(4)
N21B 0.045(4) 0.033(4) 0.055(4) 0.011(3) 0.019(3) -0.004(3)
C21B 0.055(5) 0.029(4) 0.067(6) 0.002(4) 0.012(4) -0.009(4)
C22B 0.046(5) 0.033(4) 0.062(6) -0.001(4) 0.004(4) 0.000(4)
C23B 0.037(4) 0.031(4) 0.039(4) 0.003(3) 0.010(3) 0.003(3)
C24B 0.045(5) 0.041(5) 0.057(5) 0.010(4) 0.000(4) -0.005(4)
C25B 0.055(5) 0.031(4) 0.069(6) 0.012(4) 0.006(5) 0.002(4)
N31B 0.035(3) 0.041(4) 0.042(4) -0.005(3) -0.007(3) 0.009(3)
C31B 0.054(5) 0.040(5) 0.049(5) -0.002(4) -0.011(4) 0.008(4)
C32B 0.055(5) 0.030(4) 0.047(5) 0.003(4) 0.002(4) -0.002(4)
C33B 0.032(4) 0.031(4) 0.031(4) -0.002(3) 0.007(3) 0.004(3)
C34B 0.057(5) 0.039(5) 0.038(4) 0.002(4) -0.014(4) 0.005(4)
C35B 0.061(6) 0.035(4) 0.048(5) 0.002(4) -0.011(4) 0.000(4)
C101 0.137(15) 0.103(12) 0.083(10) -0.005(9) 0.012(9) 0.029(11)
C102 0.131(15) 0.18(2) 0.099(12) -0.021(13) 0.024(11) -0.076(15)
C103 0.74(17) 0.57(12) 0.31(8) -0.30(8) 0.13(9) -0.14(12)
C104 0.36(5) 0.21(3) 0.110(18) -0.09(2) 0.13(3) -0.17(4)
C105 0.53(6) 0.20(3) 0.082(14) 0.034(16) 0.11(3) 0.26(4)
C106 0.147(17) 0.20(2) 0.110(14) 0.009(15) 0.025(12) 0.085(17)
C107 0.094(12) 0.139(18) 0.176(