####################################################################### 
# 
# This file contains crystal structure data downloaded from the 
# Cambridge Structural Database (CSD) hosted by the Cambridge 
# Crystallographic Data Centre (CCDC).
# 
# Full information about CCDC data access policies and citation 
# guidelines are available at http://www.ccdc.cam.ac.uk/access/V1 
# 
# Audit and citation data items may have been added by the CCDC. 
# Please retain this information to preserve the provenance of 
# this file and to allow appropriate attribution of the data. 
# 
#######################################################################

data_2
_audit_block_doi                 10.5517/ccxvswd
_database_code_depnum_ccdc_archive 'CCDC 859905'
loop_
_citation_id
_citation_doi
_citation_year
1 10.4236/ojic.2012.23009 2012
_audit_update_record             
;
2011-12-23 deposited with the CCDC.	2024-07-11 downloaded from the CCDC.
;
#TrackingRef '2.CIF'


_audit_creation_method           SHELXL-97
_chemical_name_systematic        
;
?
;
_chemical_name_common            MOF
_chemical_melting_point          ?
_chemical_formula_moiety         ?
_chemical_formula_sum            'C18 H16 Cu N6 O6'
_chemical_formula_weight         475.91

loop_
_atom_type_symbol
_atom_type_description
_atom_type_scat_dispersion_real
_atom_type_scat_dispersion_imag
_atom_type_scat_source
C C 0.0033 0.0016 'International Tables Vol C Tables 4.2.6.8 and 6.1.1.4'
H H 0.0000 0.0000 'International Tables Vol C Tables 4.2.6.8 and 6.1.1.4'
N N 0.0061 0.0033 'International Tables Vol C Tables 4.2.6.8 and 6.1.1.4'
O O 0.0106 0.0060 'International Tables Vol C Tables 4.2.6.8 and 6.1.1.4'
Cu Cu 0.3201 1.2651 'International Tables Vol C Tables 4.2.6.8 and 6.1.1.4'

_symmetry_cell_setting           Orthorhombic
_symmetry_space_group_name_H-M   Pnna

loop_
_symmetry_equiv_pos_as_xyz
'x, y, z'
'-x+1/2, -y, z'
'-x+1/2, y+1/2, -z+1/2'
'x, -y+1/2, -z+1/2'
'-x, -y, -z'
'x-1/2, y, -z'
'x-1/2, -y-1/2, z-1/2'
'-x, y-1/2, z-1/2'

_cell_length_a                   13.063(2)
_cell_length_b                   9.9017(18)
_cell_length_c                   17.472(3)
_cell_angle_alpha                90.00
_cell_angle_beta                 90.00
_cell_angle_gamma                90.00
_cell_volume                     2260.0(7)
_cell_formula_units_Z            4
_cell_measurement_temperature    293(2)
_cell_measurement_reflns_used    42
_cell_measurement_theta_min      1.95
_cell_measurement_theta_max      26.00

_exptl_crystal_description       Block
_exptl_crystal_colour            Blue
_exptl_crystal_size_max          0.56
_exptl_crystal_size_mid          0.32
_exptl_crystal_size_min          0.20
_exptl_crystal_density_meas      'not measured'
_exptl_crystal_density_diffrn    1.399
_exptl_crystal_density_method    'not measured'
_exptl_crystal_F_000             972
_exptl_absorpt_coefficient_mu    1.011
_exptl_absorpt_correction_type   'empirical used sadabs'
_exptl_absorpt_correction_T_min  0.6015
_exptl_absorpt_correction_T_max  0.8234
_exptl_absorpt_process_details   sadabs

_exptl_special_details           
;
?
;

_diffrn_ambient_temperature      293(2)
_diffrn_radiation_wavelength     0.71073
_diffrn_radiation_type           MoK\a
_diffrn_radiation_source         'fine-focus sealed tube'
_diffrn_radiation_monochromator  graphite
_diffrn_measurement_device_type  'Bruker SMART CCD area detector'
_diffrn_measurement_method       'phi and omega scans'
_diffrn_detector_area_resol_mean ?
_diffrn_standards_number         ?
_diffrn_standards_interval_count ?
_diffrn_standards_interval_time  '10 Sec.'
_diffrn_standards_decay_%        0
_diffrn_reflns_number            9407
_diffrn_reflns_av_R_equivalents  0.0857
_diffrn_reflns_av_sigmaI/netI    0.0733
_diffrn_reflns_limit_h_min       -16
_diffrn_reflns_limit_h_max       6
_diffrn_reflns_limit_k_min       -12
_diffrn_reflns_limit_k_max       12
_diffrn_reflns_limit_l_min       -21
_diffrn_reflns_limit_l_max       18
_diffrn_reflns_theta_min         1.95
_diffrn_reflns_theta_max         26.00
_reflns_number_total             2231
_reflns_number_gt                1232
_reflns_threshold_expression     >2sigma(I)

_computing_data_collection       'Bruker SMART'
_computing_cell_refinement       'Bruker SMART'
_computing_data_reduction        'Bruker SHELXTL'
_computing_structure_solution    'SHELXS-97 (Sheldrick, 1990)'
_computing_structure_refinement  'SHELXL-97 (Sheldrick, 1997)'
_computing_molecular_graphics    'Bruker SHELXTL'
_computing_publication_material  'Bruker SHELXTL'

_refine_special_details          
;
Refinement of F^2^ against ALL reflections. The weighted R-factor wR and
goodness of fit S are based on F^2^, conventional R-factors R are based
on F, with F set to zero for negative F^2^. The threshold expression of
F^2^ > 2sigma(F^2^) is used only for calculating R-factors(gt) etc. and is
not relevant to the choice of reflections for refinement. R-factors based
on F^2^ are statistically about twice as large as those based on F, and R-
factors based on ALL data will be even larger.
;

_refine_ls_structure_factor_coef Fsqd
_refine_ls_matrix_type           full
_refine_ls_weighting_scheme      calc
_refine_ls_weighting_details     
'calc w=1/[\s^2^(Fo^2^)+(0.1269P)^2^+0.0000P] where P=(Fo^2^+2Fc^2^)/3'
_atom_sites_solution_primary     direct
_atom_sites_solution_secondary   difmap
_atom_sites_solution_hydrogens   geom
_refine_ls_hydrogen_treatment    none
_refine_ls_extinction_method     none
_refine_ls_extinction_coef       ?
_refine_ls_number_reflns         2231
_refine_ls_number_parameters     150
_refine_ls_number_restraints     12
_refine_ls_R_factor_all          0.1218
_refine_ls_R_factor_gt           0.0656
_refine_ls_wR_factor_ref         0.2329
_refine_ls_wR_factor_gt          0.1890
_refine_ls_goodness_of_fit_ref   1.038
_refine_ls_restrained_S_all      1.070
_refine_ls_shift/su_max          0.000
_refine_ls_shift/su_mean         0.000

loop_
_atom_site_label
_atom_site_type_symbol
_atom_site_fract_x
_atom_site_fract_y
_atom_site_fract_z
_atom_site_U_iso_or_equiv
_atom_site_adp_type
_atom_site_occupancy
_atom_site_symmetry_multiplicity
_atom_site_calc_flag
_atom_site_refinement_flags
_atom_site_disorder_assembly
_atom_site_disorder_group
Cu1 Cu 0.7500 0.5000 0.33823(5) 0.0406(4) Uani 1 2 d S . .
O1 O 1.1501(3) 0.0524(5) -0.0823(2) 0.0535(11) Uani 1 1 d . . .
O2 O 1.2262(3) 0.2404(5) -0.1185(3) 0.0629(13) Uani 1 1 d . . .
N1 N 0.8619(4) 0.5045(5) 0.2606(3) 0.0508(13) Uani 1 1 d . . .
N2 N 1.0127(5) 0.5490(8) 0.2070(4) 0.103(3) Uani 1 1 d U . .
N3 N 0.9637(4) 0.4513(6) 0.1672(3) 0.0582(16) Uani 1 1 d . . .
C1 C 0.9484(6) 0.5773(9) 0.2634(5) 0.098(3) Uani 1 1 d U . .
H1A H 0.9619 0.6412 0.3011 0.118 Uiso 1 1 calc R . .
C2 C 0.8747(5) 0.4286(7) 0.1991(3) 0.0498(15) Uani 1 1 d . . .
H2A H 0.8268 0.3671 0.1809 0.060 Uiso 1 1 calc R . .
C3 C 1.0118(5) 0.3851(6) 0.1043(3) 0.0542(17) Uani 1 1 d . . .
C4 C 1.0951(6) 0.4424(8) 0.0699(4) 0.084(3) Uani 1 1 d . . .
H4A H 1.1202 0.5251 0.0868 0.100 Uiso 1 1 calc R . .
C5 C 0.9757(5) 0.2637(7) 0.0806(4) 0.071(2) Uani 1 1 d . . .
H5A H 0.9182 0.2261 0.1036 0.085 Uiso 1 1 calc R . .
C6 C 1.1412(6) 0.3757(7) 0.0098(4) 0.081(3) Uani 1 1 d . . .
H6A H 1.1957 0.4168 -0.0153 0.097 Uiso 1 1 calc R . .
C7 C 1.0253(5) 0.1955(7) 0.0212(4) 0.0660(19) Uani 1 1 d . . .
H7A H 1.0014 0.1116 0.0053 0.079 Uiso 1 1 calc R . .
C8 C 1.1095(5) 0.2520(6) -0.0137(3) 0.0501(16) Uani 1 1 d . . .
C9 C 1.1656(4) 0.1783(7) -0.0746(3) 0.0490(15) Uani 1 1 d . . .
O1W O 1.245(2) 0.561(3) 0.3539(15) 0.194(11) Uani 0.50 1 d P . .
O1W' O 1.171(2) 0.638(4) 0.3965(13) 0.283(17) Uani 0.50 1 d P . .

loop_
_atom_site_aniso_label
_atom_site_aniso_U_11
_atom_site_aniso_U_22
_atom_site_aniso_U_33
_atom_site_aniso_U_23
_atom_site_aniso_U_13
_atom_site_aniso_U_12
Cu1 0.0423(6) 0.0495(7) 0.0302(6) 0.000 0.000 0.0032(5)
O1 0.059(3) 0.053(3) 0.048(3) -0.011(2) 0.011(2) -0.008(2)
O2 0.065(3) 0.067(3) 0.056(3) -0.005(2) 0.025(2) -0.017(2)
N1 0.047(3) 0.062(3) 0.043(3) -0.015(3) 0.009(2) -0.008(3)
N2 0.093(5) 0.123(5) 0.094(5) -0.065(4) 0.041(4) -0.052(4)
N3 0.057(3) 0.065(3) 0.053(3) -0.026(3) 0.021(3) -0.021(3)
C1 0.092(5) 0.107(6) 0.095(6) -0.053(5) 0.037(5) -0.043(5)
C2 0.048(4) 0.058(4) 0.043(4) -0.012(3) 0.001(3) -0.008(3)
C3 0.051(4) 0.061(4) 0.052(4) -0.017(3) 0.019(3) -0.021(3)
C4 0.091(6) 0.070(5) 0.089(6) -0.042(5) 0.043(5) -0.042(5)
C5 0.064(4) 0.069(5) 0.079(5) -0.020(4) 0.033(4) -0.028(4)
C6 0.093(6) 0.072(5) 0.079(5) -0.026(4) 0.051(5) -0.036(4)
C7 0.070(4) 0.058(4) 0.070(4) -0.023(4) 0.029(4) -0.026(3)
C8 0.058(4) 0.056(4) 0.036(3) -0.008(3) 0.018(3) -0.014(3)
C9 0.048(3) 0.058(4) 0.041(4) -0.008(3) 0.006(3) -0.009(3)
O1W 0.21(2) 0.17(2) 0.20(2) -0.053(15) -0.094(18) 0.05(2)
O1W' 0.21(2) 0.47(5) 0.166(19) -0.13(3) 0.040(18) -0.17(3)

_geom_special_details            
;
All esds (except the esd in the dihedral angle between two l.s. planes)
are estimated using the full covariance matrix. The cell esds are taken
into account individually in the estimation of esds in distances, angles
and torsion angles; correlations between esds in cell parameters are only
used when they are defined by crystal symmetry. An approximate (isotropic)
treatment of cell esds is used for estimating esds involving l.s. planes.
;

loop_
_geom_bond_atom_site_label_1
_geom_bond_atom_site_label_2
_geom_bond_distance
_geom_bond_site_symmetry_2
_geom_bond_publ_flag
Cu1 O1 1.975(4) 8_766 ?
Cu1 O1 1.975(4) 7_566 ?
Cu1 N1 1.994(5) 2_665 ?
Cu1 N1 1.994(5) . ?
O1 C9 1.269(7) . ?
O1 Cu1 1.975(4) 7_665 ?
O2 C9 1.262(7) . ?
N1 C2 1.322(8) . ?
N1 C1 1.342(8) . ?
N2 C1 1.324(9) . ?
N2 N3 1.353(8) . ?
N3 C2 1.308(7) . ?
N3 C3 1.426(7) . ?
C1 H1A 0.9300 . ?
C2 H2A 0.9300 . ?
C3 C5 1.357(8) . ?
C3 C4 1.365(8) . ?
C4 C6 1.379(9) . ?
C4 H4A 0.9300 . ?
C5 C7 1.397(8) . ?
C5 H5A 0.9300 . ?
C6 C8 1.357(9) . ?
C6 H6A 0.9300 . ?
C7 C8 1.376(8) . ?
C7 H7A 0.9300 . ?
C8 C9 1.485(8) . ?
O1W O1W 1.21(5) 2_765 ?
O1W O1W' 1.43(3) . ?

loop_
_geom_angle_atom_site_label_1
_geom_angle_atom_site_label_2
_geom_angle_atom_site_label_3
_geom_angle
_geom_angle_site_symmetry_1
_geom_angle_site_symmetry_3
_geom_angle_publ_flag
O1 Cu1 O1 90.6(3) 8_766 7_566 ?
O1 Cu1 N1 165.53(19) 8_766 2_665 ?
O1 Cu1 N1 89.3(2) 7_566 2_665 ?
O1 Cu1 N1 89.3(2) 8_766 . ?
O1 Cu1 N1 165.53(19) 7_566 . ?
N1 Cu1 N1 94.3(3) 2_665 . ?
C9 O1 Cu1 103.1(4) . 7_665 ?
C2 N1 C1 103.2(6) . . ?
C2 N1 Cu1 129.3(4) . . ?
C1 N1 Cu1 127.2(5) . . ?
C1 N2 N3 103.5(6) . . ?
C2 N3 N2 108.9(5) . . ?
C2 N3 C3 129.9(5) . . ?
N2 N3 C3 121.1(5) . . ?
N2 C1 N1 113.2(7) . . ?
N2 C1 H1A 123.4 . . ?
N1 C1 H1A 123.4 . . ?
N3 C2 N1 111.2(6) . . ?
N3 C2 H2A 124.4 . . ?
N1 C2 H2A 124.4 . . ?
C5 C3 C4 120.7(6) . . ?
C5 C3 N3 119.3(5) . . ?
C4 C3 N3 120.0(6) . . ?
C3 C4 C6 118.9(6) . . ?
C3 C4 H4A 120.5 . . ?
C6 C4 H4A 120.5 . . ?
C3 C5 C7 119.6(6) . . ?
C3 C5 H5A 120.2 . . ?
C7 C5 H5A 120.2 . . ?
C8 C6 C4 122.0(6) . . ?
C8 C6 H6A 119.0 . . ?
C4 C6 H6A 119.0 . . ?
C8 C7 C5 120.3(6) . . ?
C8 C7 H7A 119.9 . . ?
C5 C7 H7A 119.9 . . ?
C6 C8 C7 118.5(6) . . ?
C6 C8 C9 120.7(5) . . ?
C7 C8 C9 120.8(6) . . ?
O2 C9 O1 121.0(6) . . ?
O2 C9 C8 120.4(6) . . ?
O1 C9 C8 118.7(5) . . ?
O1W O1W O1W' 128(4) 2_765 . ?

_diffrn_measured_fraction_theta_max 0.998
_diffrn_reflns_theta_full        26.00
_diffrn_measured_fraction_theta_full 0.998
_refine_diff_density_max         0.619
_refine_diff_density_min         -0.366
_refine_diff_density_rms         0.109


