####################################################################### 
# 
# This file contains crystal structure data downloaded from the 
# Cambridge Structural Database (CSD) hosted by the Cambridge 
# Crystallographic Data Centre (CCDC).
# 
# Full information about CCDC data access policies and citation 
# guidelines are available at http://www.ccdc.cam.ac.uk/access/V1 
# 
# Audit and citation data items may have been added by the CCDC. 
# Please retain this information to preserve the provenance of 
# this file and to allow appropriate attribution of the data. 
# 
#######################################################################

data_1
_audit_block_doi                 10.5517/ccxvsvc
_database_code_depnum_ccdc_archive 'CCDC 859904'
loop_
_citation_id
_citation_doi
_citation_year
1 10.4236/ojic.2012.23009 2012
_audit_update_record             
;
2011-12-23 deposited with the CCDC.	2024-07-11 downloaded from the CCDC.
;
#TrackingRef '1.CIF'


_audit_creation_method           SHELXL-97
_chemical_name_systematic        
;
?
;
_chemical_name_common            MOF
_chemical_melting_point          ?
_chemical_formula_moiety         ?
_chemical_formula_sum            'C18 H15 Cd N6 O5.50'
_chemical_formula_weight         515.76

loop_
_atom_type_symbol
_atom_type_description
_atom_type_scat_dispersion_real
_atom_type_scat_dispersion_imag
_atom_type_scat_source
C C 0.0033 0.0016 'International Tables Vol C Tables 4.2.6.8 and 6.1.1.4'
H H 0.0000 0.0000 'International Tables Vol C Tables 4.2.6.8 and 6.1.1.4'
N N 0.0061 0.0033 'International Tables Vol C Tables 4.2.6.8 and 6.1.1.4'
O O 0.0106 0.0060 'International Tables Vol C Tables 4.2.6.8 and 6.1.1.4'
Cd Cd -0.8075 1.2024 'International Tables Vol C Tables 4.2.6.8 and 6.1.1.4'

_symmetry_cell_setting           Monoclinic
_symmetry_space_group_name_H-M   C2/c

loop_
_symmetry_equiv_pos_as_xyz
'x, y, z'
'-x, y, -z+1/2'
'x+1/2, y+1/2, z'
'-x+1/2, y+1/2, -z+1/2'
'-x, -y, -z'
'x, -y, z-1/2'
'-x+1/2, -y+1/2, -z'
'x+1/2, -y+1/2, z-1/2'

_cell_length_a                   15.629(3)
_cell_length_b                   15.991(3)
_cell_length_c                   9.2343(19)
_cell_angle_alpha                90.00
_cell_angle_beta                 102.774(2)
_cell_angle_gamma                90.00
_cell_volume                     2250.6(8)
_cell_formula_units_Z            4
_cell_measurement_temperature    293(2)
_cell_measurement_reflns_used    38
_cell_measurement_theta_min      2.67
_cell_measurement_theta_max      25.0

_exptl_crystal_description       Block
_exptl_crystal_colour            Colorless
_exptl_crystal_size_max          0.53
_exptl_crystal_size_mid          0.35
_exptl_crystal_size_min          0.21
_exptl_crystal_density_meas      'not measured'
_exptl_crystal_density_diffrn    1.522
_exptl_crystal_density_method    'not measured'
_exptl_crystal_F_000             1028
_exptl_absorpt_coefficient_mu    1.012
_exptl_absorpt_correction_type   'empirical used sadabs'
_exptl_absorpt_correction_T_min  0.6161
_exptl_absorpt_correction_T_max  0.8156
_exptl_absorpt_process_details   sadabs

_exptl_special_details           
;
?
;

_diffrn_ambient_temperature      293(2)
_diffrn_radiation_wavelength     0.71073
_diffrn_radiation_type           MoK\a
_diffrn_radiation_source         'fine-focus sealed tube'
_diffrn_radiation_monochromator  graphite
_diffrn_measurement_device_type  'Bruker SMART CCD area detector'
_diffrn_measurement_method       'phi and omega scans'
_diffrn_detector_area_resol_mean ?
_diffrn_standards_number         ?
_diffrn_standards_interval_count ?
_diffrn_standards_interval_time  '10 Sec.'
_diffrn_standards_decay_%        0
_diffrn_reflns_number            5525
_diffrn_reflns_av_R_equivalents  0.0202
_diffrn_reflns_av_sigmaI/netI    0.0225
_diffrn_reflns_limit_h_min       -18
_diffrn_reflns_limit_h_max       18
_diffrn_reflns_limit_k_min       -15
_diffrn_reflns_limit_k_max       18
_diffrn_reflns_limit_l_min       -10
_diffrn_reflns_limit_l_max       10
_diffrn_reflns_theta_min         2.67
_diffrn_reflns_theta_max         25.00
_reflns_number_total             1979
_reflns_number_gt                1573
_reflns_threshold_expression     >2sigma(I)

_computing_data_collection       'Bruker SMART'
_computing_cell_refinement       'Bruker SAINT'
_computing_data_reduction        'Bruker SAINT'
_computing_structure_solution    'SHELXS-97 (Sheldrick, 1990)'
_computing_structure_refinement  'SHELXL-97 (Sheldrick, 1997)'
_computing_molecular_graphics    'Bruker SHELXTL'
_computing_publication_material  'Bruker SHELXTL'

_refine_special_details          
;
Refinement of F^2^ against ALL reflections. The weighted R-factor wR and
goodness of fit S are based on F^2^, conventional R-factors R are based
on F, with F set to zero for negative F^2^. The threshold expression of
F^2^ > 2sigma(F^2^) is used only for calculating R-factors(gt) etc. and is
not relevant to the choice of reflections for refinement. R-factors based
on F^2^ are statistically about twice as large as those based on F, and R-
factors based on ALL data will be even larger.
;

_refine_ls_structure_factor_coef Fsqd
_refine_ls_matrix_type           full
_refine_ls_weighting_scheme      calc
_refine_ls_weighting_details     
'calc w=1/[\s^2^(Fo^2^)+(0.0800P)^2^+0.6087P] where P=(Fo^2^+2Fc^2^)/3'
_atom_sites_solution_primary     direct
_atom_sites_solution_secondary   difmap
_atom_sites_solution_hydrogens   geom
_refine_ls_hydrogen_treatment    none
_refine_ls_extinction_method     none
_refine_ls_extinction_coef       ?
_refine_ls_number_reflns         1979
_refine_ls_number_parameters     145
_refine_ls_number_restraints     0
_refine_ls_R_factor_all          0.0420
_refine_ls_R_factor_gt           0.0335
_refine_ls_wR_factor_ref         0.1114
_refine_ls_wR_factor_gt          0.1047
_refine_ls_goodness_of_fit_ref   1.037
_refine_ls_restrained_S_all      1.037
_refine_ls_shift/su_max          0.000
_refine_ls_shift/su_mean         0.000

loop_
_atom_site_label
_atom_site_type_symbol
_atom_site_fract_x
_atom_site_fract_y
_atom_site_fract_z
_atom_site_U_iso_or_equiv
_atom_site_adp_type
_atom_site_occupancy
_atom_site_symmetry_multiplicity
_atom_site_calc_flag
_atom_site_refinement_flags
_atom_site_disorder_assembly
_atom_site_disorder_group
Cd1 Cd -0.5000 0.0000 0.0000 0.03686(18) Uani 1 2 d S . .
O1 O -0.11018(16) -0.42145(15) -0.4280(3) 0.0548(7) Uani 1 1 d . . .
O2 O -0.0988(2) -0.49868(11) -0.2257(4) 0.0480(8) Uani 1 1 d . . .
N1 N -0.45904(18) -0.13614(16) -0.0495(3) 0.0439(7) Uani 1 1 d . . .
N2 N -0.4407(2) -0.27533(17) -0.0261(4) 0.0633(10) Uani 1 1 d . . .
N3 N -0.38889(17) -0.24244(16) -0.1133(3) 0.0411(7) Uani 1 1 d . . .
C1 C -0.4813(3) -0.2088(3) 0.0075(4) 0.0533(11) Uani 1 1 d . . .
H1A H -0.5225 -0.2114 0.0662 0.064 Uiso 1 1 calc R . .
C2 C -0.4005(2) -0.1604(2) -0.1247(4) 0.0459(8) Uani 1 1 d . . .
H2A H -0.3716 -0.1250 -0.1779 0.055 Uiso 1 1 calc R . .
C3 C -0.3276(2) -0.29330(19) -0.1683(4) 0.0396(8) Uani 1 1 d . . .
C4 C -0.3058(2) -0.3711(2) -0.1079(5) 0.0502(9) Uani 1 1 d . . .
H4A H -0.3326 -0.3916 -0.0347 0.060 Uiso 1 1 calc R . .
C5 C -0.2872(3) -0.2625(2) -0.2749(5) 0.0618(11) Uani 1 1 d . . .
H5A H -0.3011 -0.2093 -0.3139 0.074 Uiso 1 1 calc R . .
C6 C -0.2443(2) -0.4182(2) -0.1564(4) 0.0514(9) Uani 1 1 d . . .
H6A H -0.2304 -0.4712 -0.1164 0.062 Uiso 1 1 calc R . .
C7 C -0.2256(3) -0.3110(2) -0.3243(4) 0.0568(10) Uani 1 1 d . . .
H7A H -0.1997 -0.2909 -0.3989 0.068 Uiso 1 1 calc R . .
C8 C -0.2026(2) -0.38864(19) -0.2633(4) 0.0389(7) Uani 1 1 d . . .
C9 C -0.1319(2) -0.4395(2) -0.3098(4) 0.0416(8) Uani 1 1 d . . .
O2W O -0.4139(13) -0.6093(12) -0.197(2) 0.175(7) Uiso 0.33 1 d P . .
O1W O -0.4977(18) -0.5570(16) -0.179(2) 0.214(9) Uiso 0.33 1 d P . .
O3W O -0.538(2) -0.4912(14) -0.091(4) 0.204(16) Uiso 0.33 1 d P . .

loop_
_atom_site_aniso_label
_atom_site_aniso_U_11
_atom_site_aniso_U_22
_atom_site_aniso_U_33
_atom_site_aniso_U_23
_atom_site_aniso_U_13
_atom_site_aniso_U_12
Cd1 0.0414(3) 0.0246(3) 0.0522(3) -0.00225(12) 0.02678(19) 0.00216(11)
O1 0.0610(15) 0.0456(14) 0.0725(18) 0.0045(12) 0.0463(14) 0.0087(11)
O2 0.0492(17) 0.0350(16) 0.061(2) -0.0045(10) 0.0155(15) 0.0116(9)
N1 0.0476(15) 0.0313(14) 0.0595(19) -0.0044(13) 0.0262(14) 0.0054(12)
N2 0.075(2) 0.0362(16) 0.098(3) 0.0074(16) 0.062(2) 0.0090(15)
N3 0.0452(15) 0.0294(14) 0.0571(18) 0.0000(12) 0.0292(13) 0.0057(11)
C1 0.057(2) 0.042(2) 0.075(3) 0.0026(16) 0.042(2) 0.0059(18)
C2 0.0487(18) 0.0333(19) 0.065(2) 0.0017(16) 0.0320(17) 0.0045(15)
C3 0.0408(16) 0.0298(16) 0.054(2) -0.0004(14) 0.0233(15) 0.0066(13)
C4 0.0516(19) 0.0384(19) 0.072(3) 0.0093(17) 0.0375(19) 0.0060(15)
C5 0.079(3) 0.045(2) 0.079(3) 0.0230(19) 0.053(2) 0.0288(18)
C6 0.055(2) 0.0303(17) 0.080(3) 0.0105(17) 0.0391(19) 0.0117(15)
C7 0.074(2) 0.044(2) 0.066(2) 0.0144(17) 0.046(2) 0.0199(18)
C8 0.0424(16) 0.0309(16) 0.049(2) 0.0001(13) 0.0218(15) 0.0058(13)
C9 0.0383(16) 0.0320(17) 0.060(2) -0.0084(15) 0.0230(16) -0.0024(14)

_geom_special_details            
;
All esds (except the esd in the dihedral angle between two l.s. planes)
are estimated using the full covariance matrix. The cell esds are taken
into account individually in the estimation of esds in distances, angles
and torsion angles; correlations between esds in cell parameters are only
used when they are defined by crystal symmetry. An approximate (isotropic)
treatment of cell esds is used for estimating esds involving l.s. planes.
;

loop_
_geom_bond_atom_site_label_1
_geom_bond_atom_site_label_2
_geom_bond_distance
_geom_bond_site_symmetry_2
_geom_bond_publ_flag
Cd1 O2 2.303(3) 7_445 ?
Cd1 O2 2.303(3) 3_455 ?
Cd1 N1 2.342(3) 5_455 ?
Cd1 N1 2.342(3) . ?
Cd1 O1 2.343(2) 8_446 ?
Cd1 O1 2.343(2) 4_454 ?
O1 C9 1.246(4) . ?
O1 Cd1 2.343(2) 4_444 ?
O2 C9 1.260(4) . ?
O2 Cd1 2.303(3) 3_545 ?
N1 C2 1.323(4) . ?
N1 C1 1.353(5) . ?
N2 C1 1.310(5) . ?
N2 N3 1.367(4) . ?
N3 C2 1.325(4) . ?
N3 C3 1.432(4) . ?
C1 H1A 0.9300 . ?
C2 H2A 0.9300 . ?
C3 C5 1.373(5) . ?
C3 C4 1.375(5) . ?
C4 C6 1.372(4) . ?
C4 H4A 0.9300 . ?
C5 C7 1.390(5) . ?
C5 H5A 0.9300 . ?
C6 C8 1.381(5) . ?
C6 H6A 0.9300 . ?
C7 C8 1.378(5) . ?
C7 H7A 0.9300 . ?
C8 C9 1.510(4) . ?
O2W O1W 1.59(3) . ?
O2W O1W 1.79(3) 2_454 ?
O1W O1W 1.29(4) 2_454 ?
O1W O3W 1.54(4) . ?
O1W O2W 1.79(3) 2_454 ?

loop_
_geom_angle_atom_site_label_1
_geom_angle_atom_site_label_2
_geom_angle_atom_site_label_3
_geom_angle
_geom_angle_site_symmetry_1
_geom_angle_site_symmetry_3
_geom_angle_publ_flag
O2 Cd1 O2 180.00(15) 7_445 3_455 ?
O2 Cd1 N1 89.39(9) 7_445 5_455 ?
O2 Cd1 N1 90.61(9) 3_455 5_455 ?
O2 Cd1 N1 90.61(9) 7_445 . ?
O2 Cd1 N1 89.39(9) 3_455 . ?
N1 Cd1 N1 180.00(16) 5_455 . ?
O2 Cd1 O1 97.23(11) 7_445 8_446 ?
O2 Cd1 O1 82.77(11) 3_455 8_446 ?
N1 Cd1 O1 101.13(9) 5_455 8_446 ?
N1 Cd1 O1 78.87(9) . 8_446 ?
O2 Cd1 O1 82.77(11) 7_445 4_454 ?
O2 Cd1 O1 97.23(11) 3_455 4_454 ?
N1 Cd1 O1 78.87(9) 5_455 4_454 ?
N1 Cd1 O1 101.13(9) . 4_454 ?
O1 Cd1 O1 180.00(15) 8_446 4_454 ?
C9 O1 Cd1 118.9(2) . 4_444 ?
C9 O2 Cd1 131.8(2) . 3_545 ?
C2 N1 C1 102.7(3) . . ?
C2 N1 Cd1 128.7(2) . . ?
C1 N1 Cd1 128.1(2) . . ?
C1 N2 N3 102.0(3) . . ?
C2 N3 N2 109.8(3) . . ?
C2 N3 C3 128.6(3) . . ?
N2 N3 C3 121.3(3) . . ?
N2 C1 N1 115.1(3) . . ?
N2 C1 H1A 122.4 . . ?
N1 C1 H1A 122.4 . . ?
N1 C2 N3 110.3(3) . . ?
N1 C2 H2A 124.8 . . ?
N3 C2 H2A 124.8 . . ?
C5 C3 C4 120.2(3) . . ?
C5 C3 N3 120.0(3) . . ?
C4 C3 N3 119.7(3) . . ?
C6 C4 C3 119.6(3) . . ?
C6 C4 H4A 120.2 . . ?
C3 C4 H4A 120.2 . . ?
C3 C5 C7 119.8(3) . . ?
C3 C5 H5A 120.1 . . ?
C7 C5 H5A 120.1 . . ?
C4 C6 C8 121.3(3) . . ?
C4 C6 H6A 119.3 . . ?
C8 C6 H6A 119.3 . . ?
C8 C7 C5 120.4(3) . . ?
C8 C7 H7A 119.8 . . ?
C5 C7 H7A 119.8 . . ?
C7 C8 C6 118.6(3) . . ?
C7 C8 C9 120.7(3) . . ?
C6 C8 C9 120.6(3) . . ?
O1 C9 O2 124.1(3) . . ?
O1 C9 C8 118.8(3) . . ?
O2 C9 C8 117.1(3) . . ?
O1W O2W O1W 44.4(15) . 2_454 ?
O1W O1W O3W 126(2) 2_454 . ?
O1W O1W O2W 76(2) 2_454 . ?
O3W O1W O2W 148(2) . . ?
O1W O1W O2W 59.7(16) 2_454 2_454 ?
O3W O1W O2W 108(2) . 2_454 ?
O2W O1W O2W 103.0(18) . 2_454 ?

_diffrn_measured_fraction_theta_max 0.996
_diffrn_reflns_theta_full        25.00
_diffrn_measured_fraction_theta_full 0.996
_refine_diff_density_max         0.826
_refine_diff_density_min         -0.263
_refine_diff_density_rms         0.097
