####################################################################### 
# 
# This file contains crystal structure data downloaded from the 
# Cambridge Structural Database (CSD) hosted by the Cambridge 
# Crystallographic Data Centre (CCDC).
# 
# Full information about CCDC data access policies and citation 
# guidelines are available at http://www.ccdc.cam.ac.uk/access/V1 
# 
# Audit and citation data items may have been added by the CCDC. 
# Please retain this information to preserve the provenance of 
# this file and to allow appropriate attribution of the data. 
# 
#######################################################################

data_[Cp*WCu2Br(i-mnt)2]n
_audit_block_doi                 10.5517/cc6lhnx
_database_code_depnum_ccdc_archive 'CCDC 196529'
loop_
_citation_id
_citation_doi
_citation_year
1 10.1021/ic025609a 2002
_audit_update_record             
;
2002-10-28 deposited with the CCDC.	2024-07-11 downloaded from the CCDC.
;

_audit_creation_date             'Tue Mar 19 13:51:27 2002'
_audit_creation_method           'by teXsan'

#------------------------------------------------------------------------------
# CHEMICAL DATA 
_chemical_formula_sum            'C20 H18 Br Cu2 N5 S4 W '
_chemical_formula_moiety         ?
_chemical_formula_weight         847.48
_chemical_melting_point          ?
#------------------------------------------------------------------------------
# CRYSTAL DATA 
_symmetry_cell_setting           triclinic
_symmetry_space_group_name_H-M   'P -1         '
_symmetry_Int_Tables_number      2
loop_
_symmetry_equiv_pos_as_xyz
x,y,z
-x,-y,-z
_cell_length_a                   11.28(2)
_cell_length_b                   14.758(6)
_cell_length_c                   9.597(3)
_cell_angle_alpha                98.21(3)
_cell_angle_beta                 90.64(6)
_cell_angle_gamma                74.84(4)
_cell_volume                     1525(2)
_cell_formula_units_Z            2
_cell_measurement_reflns_used    22
_cell_measurement_theta_min      11.0
_cell_measurement_theta_max      12.4
_cell_measurement_temperature    296.2
#------------------------------------------------------------------------------
_exptl_crystal_description       prismatic
_exptl_crystal_colour            dark-red
_exptl_crystal_size_max          0.550
_exptl_crystal_size_mid          0.360
_exptl_crystal_size_min          0.320
_exptl_crystal_size_rad          ?
_exptl_crystal_density_diffrn    1.844
_exptl_crystal_density_meas      ?
_exptl_crystal_density_method    'not measured'
_exptl_absorpt_coefficient_mu    6.749
_exptl_absorpt_correction_type   psi-scan
_exptl_absorpt_process_details   '(North, Phillips & Mathews, 1968)'
_exptl_absorpt_correction_T_min  0.847
_exptl_absorpt_correction_T_max  0.999
#------------------------------------------------------------------------------
# EXPERIMENTAL DATA 
_diffrn_radiation_type           'Mo K\a'
_diffrn_radiation_wavelength     0.7107
_diffrn_measurement_device_type  'Rigaku AFC7R'
_diffrn_measurement_method       \w-2\q
_diffrn_reflns_number            5443
_diffrn_reflns_av_R_equivalents  0.007
_diffrn_reflns_theta_max         25.00
_diffrn_measured_fraction_theta_max 0.9561
_diffrn_reflns_theta_full        25.00
_diffrn_measured_fraction_theta_full 0.9561
_diffrn_reflns_limit_h_min       0
_diffrn_reflns_limit_h_max       11
_diffrn_reflns_limit_k_min       -16
_diffrn_reflns_limit_k_max       17
_diffrn_reflns_limit_l_min       -11
_diffrn_reflns_limit_l_max       11
_diffrn_standards_number         3
_diffrn_standards_interval_count 150
_diffrn_standards_decay_%        0.21
#------------------------------------------------------------------------------
# REFINEMENT DATA 
_refine_special_details          
;
Refinement using reflections with F^2^ > 3.0 sigma(F^2^). The weighted R-factor
(wR), goodness of fit (S) and R-factor (gt) are based on F, with F set to zero 
for negative F. The threshold expression of F^2^ > 3.0 sigma(F^2^) is used only 
for calculating R-factor (gt).
;
_reflns_number_total             5145
_reflns_number_gt                4611
_reflns_threshold_expression     F^2^>3.0\s(F^2^)
_refine_ls_structure_factor_coef F
_refine_ls_R_factor_gt           0.0326
_refine_ls_wR_factor_ref         0.0493
_refine_ls_hydrogen_treatment    noref
_refine_ls_number_reflns         4611
_refine_ls_number_parameters     288
_refine_ls_goodness_of_fit_ref   3.134
_refine_ls_weighting_scheme      calc
_refine_ls_weighting_details     'w = 1/[\s^2^(Fo) + 0.00010|Fo|^2^]'
_refine_ls_shift/su_max          0.0471
_refine_diff_density_max         1.15
_refine_diff_density_min         -0.94
_refine_ls_extinction_method     none
_refine_ls_extinction_coef       ?
_refine_ls_abs_structure_details ?
_refine_ls_abs_structure_Flack   ?
loop_
_atom_type_symbol
_atom_type_description
_atom_type_scat_dispersion_real
_atom_type_scat_dispersion_imag
_atom_type_scat_source
W W -0.849 6.872
;International Tables for Crystallography
(1992, Vol. C, Tables 4.2.6.8 and 6.1.1.1)
;
Cu Cu 0.320 1.265
;International Tables for Crystallography
(1992, Vol. C, Tables 4.2.6.8 and 6.1.1.1)
;
Br Br -0.290 2.459
;International Tables for Crystallography
(1992, Vol. C, Tables 4.2.6.8 and 6.1.1.1)
;
S S 0.125 0.123
;International Tables for Crystallography
(1992, Vol. C, Tables 4.2.6.8 and 6.1.1.1)
;
N N 0.006 0.003
;International Tables for Crystallography
(1992, Vol. C, Tables 4.2.6.8 and 6.1.1.1)
;
C C 0.003 0.002
;International Tables for Crystallography
(1992, Vol. C, Tables 4.2.6.8 and 6.1.1.1)
;
H H 0.000 0.000
;International Tables for Crystallography
(1992, Vol. C, Table 6.1.1.2)
;
#------------------------------------------------------------------------------
# ATOMIC COORDINATES AND DISPLACEMENT PARAMETERS 
loop_
_atom_site_label
_atom_site_type_symbol
_atom_site_fract_x
_atom_site_fract_y
_atom_site_fract_z
_atom_site_U_iso_or_equiv
_atom_site_adp_type
_atom_site_occupancy
_atom_site_calc_flag
_atom_site_refinement_flags
_atom_site_disorder_assembly
_atom_site_disorder_group
W W 0.68406(3) 0.18994(2) 0.70856(3) 0.03509(9) Uani 1.00 d . . .
Br Br 0.69790(8) 0.15466(7) 1.13771(8) 0.0475(2) Uani 1.00 d . . .
Cu(1) Cu 0.84159(8) 0.16957(7) 0.96606(10) 0.0399(3) Uani 1.00 d . . .
Cu(2) Cu 0.54123(9) 0.16763(7) 0.96612(10) 0.0391(3) Uani 1.00 d . . .
S(1) S 0.8548(2) 0.0594(1) 0.7567(2) 0.0329(5) Uani 1.00 d . . .
S(2) S 0.6030(2) 0.0595(1) 0.7559(2) 0.0317(5) Uani 1.00 d . . .
S(3) S 0.5192(2) 0.3011(1) 0.8553(2) 0.0353(5) Uani 1.00 d . . .
S(4) S 0.7709(2) 0.3035(1) 0.8567(2) 0.0367(5) Uani 1.00 d . . .
N(1) N 0.9933(6) -0.1432(5) 0.9574(7) 0.041(2) Uani 1.00 d . . .
N(2) N 0.6026(6) -0.1413(5) 0.9586(7) 0.042(2) Uani 1.00 d . . .
N(3) N 0.781(1) 0.4612(8) 1.205(1) 0.103(4) Uani 1.00 d . . .
N(4) N 0.3992(10) 0.4439(6) 1.2022(10) 0.084(3) Uani 1.00 d . . .
N(5) N 0.1368 0.2756 0.3618 0.14(2) Uiso 0.30 d P . .
N(6) N 0.157(3) 0.232(3) 0.759(4) 0.16(1) Uiso 0.50 d P . .
N(7) N 0.1232 0.3576 0.4493 0.13(2) Uiso 0.20 d P . .
C(1) C 0.7503(6) -0.0004(5) 0.7998(7) 0.028(2) Uani 1.00 d . . .
C(2) C 0.7761(6) -0.0755(5) 0.8757(7) 0.029(2) Uani 1.00 d . . .
C(3) C 0.8972(7) -0.1129(5) 0.9205(8) 0.034(2) Uani 1.00 d . . .
C(4) C 0.6820(7) -0.1122(5) 0.9205(7) 0.035(2) Uani 1.00 d . . .
C(5) C 0.6280(7) 0.3496(5) 0.9453(7) 0.034(2) Uani 1.00 d . . .
C(6) C 0.6077(8) 0.4044(5) 1.0747(8) 0.045(2) Uani 1.00 d . . .
C(7) C 0.708(1) 0.4361(7) 1.1475(10) 0.067(3) Uani 1.00 d . . .
C(8) C 0.491(1) 0.4271(6) 1.1458(9) 0.056(3) Uani 1.00 d . . .
C(9) C 0.7038(8) 0.1240(5) 0.4807(7) 0.042(2) Uani 1.00 d . . .
C(10) C 0.5827(8) 0.1843(6) 0.5012(7) 0.045(2) Uani 1.00 d . . .
C(11) C 0.5918(8) 0.2795(5) 0.5299(7) 0.042(2) Uani 1.00 d . . .
C(12) C 0.7179(8) 0.2769(5) 0.5287(7) 0.044(2) Uani 1.00 d . . .
C(13) C 0.7870(8) 0.1811(6) 0.4997(7) 0.044(2) Uani 1.00 d . . .
C(14) C 0.7392(10) 0.0191(6) 0.4275(8) 0.058(3) Uani 1.00 d . . .
C(15) C 0.4647(10) 0.1575(8) 0.475(1) 0.068(3) Uani 1.00 d . . .
C(16) C 0.4860(10) 0.3680(7) 0.5431(9) 0.064(3) Uani 1.00 d . . .
C(17) C 0.770(1) 0.3631(7) 0.5418(10) 0.064(3) Uani 1.00 d . . .
C(18) C 0.9272(10) 0.1492(7) 0.472(1) 0.072(3) Uani 1.00 d . . .
C(19) C 0.1360 0.3678 0.1724 0.17(2) Uiso 0.30 d P . .
C(20) C 0.1333 0.3434 0.3410 0.12(1) Uiso 0.50 d P . .
C(21) C 0.130(3) 0.340(2) 0.958(4) 0.13(1) Uiso 0.50 d P . .
C(22) C 0.143(3) 0.291(3) 0.829(4) 0.12(1) Uiso 0.50 d P . .
C(23) C 0.1301 0.4393 0.4203 0.22(4) Uiso 0.20 d P . .
H(1) H 0.6663 -0.0042 0.4226 0.0683 Uiso 1.00 calc . . .
H(2) H 0.7771 0.0082 0.3339 0.0683 Uiso 1.00 calc . . .
H(3) H 0.7968 -0.0139 0.4905 0.0683 Uiso 1.00 calc . . .
H(4) H 0.4097 0.1821 0.5571 0.0816 Uiso 1.00 calc . . .
H(5) H 0.4259 0.1837 0.3938 0.0816 Uiso 1.00 calc . . .
H(6) H 0.4806 0.0888 0.4581 0.0816 Uiso 1.00 calc . . .
H(7) H 0.4908 0.4081 0.6308 0.0783 Uiso 1.00 calc . . .
H(8) H 0.4895 0.4017 0.4646 0.0783 Uiso 1.00 calc . . .
H(9) H 0.4087 0.3499 0.5420 0.0783 Uiso 1.00 calc . . .
H(10) H 0.8284 0.3597 0.6171 0.0762 Uiso 1.00 calc . . .
H(11) H 0.8119 0.3629 0.4536 0.0762 Uiso 1.00 calc . . .
H(12) H 0.7041 0.4201 0.5617 0.0762 Uiso 1.00 calc . . .
H(13) H 0.9539 0.0802 0.4536 0.0854 Uiso 1.00 calc . . .
H(14) H 0.9476 0.1747 0.3901 0.0854 Uiso 1.00 calc . . .
H(15) H 0.9686 0.1717 0.5530 0.0854 Uiso 1.00 calc . . .

loop_
_atom_site_aniso_label
_atom_site_aniso_U_11
_atom_site_aniso_U_22
_atom_site_aniso_U_33
_atom_site_aniso_U_12
_atom_site_aniso_U_13
_atom_site_aniso_U_23
W 0.0461(2) 0.0343(2) 0.0243(2) -0.0077(1) 0.0009(1) 0.0074(1)
Br 0.0460(5) 0.0740(6) 0.0282(4) -0.0187(4) -0.0049(3) 0.0218(4)
Cu(1) 0.0331(5) 0.0463(6) 0.0419(5) -0.0084(4) -0.0040(4) 0.0161(4)
Cu(2) 0.0359(5) 0.0465(6) 0.0394(5) -0.0139(4) -0.0014(4) 0.0159(4)
S(1) 0.0315(10) 0.0329(9) 0.0344(9) -0.0063(8) 0.0046(7) 0.0088(7)
S(2) 0.0314(10) 0.0329(9) 0.0313(9) -0.0073(8) -0.0044(7) 0.0088(7)
S(3) 0.040(1) 0.0345(10) 0.0276(9) -0.0016(8) 0.0011(8) 0.0078(7)
S(4) 0.048(1) 0.0346(10) 0.0306(9) -0.0143(8) -0.0018(8) 0.0083(8)
N(1) 0.034(4) 0.047(4) 0.048(4) -0.015(3) -0.008(3) 0.016(3)
N(2) 0.036(4) 0.045(4) 0.048(4) -0.009(3) -0.002(3) 0.022(3)
N(3) 0.14(1) 0.101(8) 0.085(7) -0.065(8) -0.039(7) 0.002(6)
N(4) 0.106(8) 0.070(6) 0.060(6) 0.001(5) 0.033(5) 0.002(5)
C(1) 0.032(4) 0.026(3) 0.024(3) -0.007(3) -0.001(3) 0.003(3)
C(2) 0.025(4) 0.032(4) 0.034(4) -0.009(3) -0.002(3) 0.008(3)
C(3) 0.035(5) 0.033(4) 0.038(4) -0.015(3) 0.002(3) 0.010(3)
C(4) 0.039(5) 0.032(4) 0.030(4) 0.001(3) -0.005(3) 0.009(3)
C(5) 0.052(5) 0.022(3) 0.028(4) -0.006(3) -0.003(3) 0.009(3)
C(6) 0.073(6) 0.032(4) 0.027(4) -0.005(4) 0.001(4) 0.007(3)
C(7) 0.113(9) 0.050(6) 0.038(5) -0.022(6) -0.004(5) 0.001(4)
C(8) 0.096(8) 0.032(4) 0.031(4) -0.003(5) 0.001(5) 0.003(3)
C(9) 0.074(6) 0.036(4) 0.013(3) -0.008(4) 0.002(3) 0.005(3)
C(10) 0.072(6) 0.044(5) 0.019(4) -0.016(4) -0.010(4) 0.009(3)
C(11) 0.068(6) 0.038(4) 0.016(3) -0.004(4) 0.001(3) 0.012(3)
C(12) 0.080(6) 0.040(4) 0.014(3) -0.015(4) 0.004(4) 0.013(3)
C(13) 0.064(6) 0.047(5) 0.020(4) -0.008(4) 0.013(3) 0.009(3)
C(14) 0.101(8) 0.038(5) 0.031(4) -0.016(5) 0.004(4) 0.000(3)
C(15) 0.083(7) 0.082(7) 0.049(6) -0.035(6) -0.029(5) 0.017(5)
C(16) 0.090(7) 0.051(5) 0.040(5) 0.008(5) -0.007(5) 0.021(4)
C(17) 0.100(8) 0.056(6) 0.047(5) -0.034(6) 0.003(5) 0.018(4)
C(18) 0.078(7) 0.075(7) 0.053(6) 0.001(6) 0.034(5) 0.015(5)
#------------------------------------------------------------------------------
_computing_data_collection       'MSC/AFC Diffractometer Control'
_computing_cell_refinement       'MSC/AFC Diffractometer Control'
_computing_data_reduction        'teXsan Ver. 1.11'
_computing_structure_solution    DirectMethod
_computing_structure_refinement  'teXsan Ver. 1.10'
_computing_publication_material  'teXsan Ver. 1.11'
_computing_molecular_graphics    ?
#------------------------------------------------------------------------------
_geom_special_details            
;
?
;
loop_
_geom_bond_atom_site_label_1
_geom_bond_atom_site_label_2
_geom_bond_distance
_geom_bond_site_symmetry_1
_geom_bond_site_symmetry_2
_geom_bond_publ_flag
W Cu(1) 3.032(2) . . yes
W Cu(2) 3.069(2) . . yes
W S(1) 2.435(3) . . yes
W S(2) 2.433(3) . . yes
W S(3) 2.438(3) . . yes
W S(4) 2.434(3) . . yes
W C(1) 2.955(9) . . yes
W C(5) 2.972(10) . . yes
W C(9) 2.250(9) . . yes
W C(10) 2.29(1) . . yes
W C(11) 2.391(10) . . yes
W C(12) 2.389(9) . . yes
W C(13) 2.297(10) . . yes
Br Cu(1) 2.395(2) . . yes
Br Cu(2) 2.393(2) . . yes
Br H(2) 3.021 . 1_556 no
Cu(1) S(1) 2.376(3) . . yes
Cu(1) S(4) 2.325(3) . . yes
Cu(1) N(1) 1.941(9) . 2_757 yes
Cu(1) C(3) 3.05(1) . 2_757 yes
Cu(2) S(2) 2.373(3) . . yes
Cu(2) S(3) 2.325(3) . . yes
Cu(2) N(2) 1.925(10) . 2_657 yes
Cu(2) C(4) 3.07(1) . 2_657 yes
S(1) S(2) 2.840(5) . . yes
S(1) C(1) 1.724(10) . . yes
S(1) C(2) 2.75(1) . . yes
S(1) H(3) 2.770 . . no
S(2) C(1) 1.740(10) . . yes
S(2) C(2) 2.753(10) . . yes
S(3) S(4) 2.844(6) . . yes
S(3) C(5) 1.74(1) . . yes
S(3) C(6) 2.76(1) . . yes
S(3) C(8) 3.09(1) . . yes
S(3) H(7) 2.819 . . no
S(4) C(5) 1.75(1) . . yes
S(4) C(6) 2.78(1) . . yes
S(4) H(10) 2.693 . . no
N(1) C(2) 2.58(1) . . yes
N(1) C(3) 1.12(1) . . yes
N(2) C(2) 2.60(1) . . yes
N(2) C(4) 1.15(1) . . yes
N(3) C(6) 2.52(2) . . yes
N(3) C(7) 1.10(2) . . yes
N(3) H(11) 2.924 . 1_556 no
N(4) C(6) 2.54(2) . . yes
N(4) C(8) 1.12(2) . . yes
N(4) H(7) 3.019 . 2_667 no
N(4) H(8) 2.806 . 1_556 no
N(4) H(12) 2.837 . 2_667 no
C(1) C(2) 1.37(1) . . yes
C(1) C(3) 2.46(1) . . yes
C(1) C(4) 2.46(1) . . yes
C(1) H(3) 2.989 . . no
C(2) C(3) 1.46(1) . . yes
C(2) C(4) 1.45(2) . . yes
C(3) C(4) 2.48(2) . . yes
C(5) C(6) 1.37(1) . . yes
C(5) C(7) 2.45(2) . . yes
C(5) C(8) 2.42(2) . . yes
C(6) C(7) 1.43(2) . . yes
C(6) C(8) 1.42(2) . . yes
C(7) C(8) 2.43(2) . . yes
C(8) H(7) 3.045 . 2_667 no
C(9) C(10) 1.44(2) . . yes
C(9) C(11) 2.30(1) . . yes
C(9) C(12) 2.29(2) . . yes
C(9) C(13) 1.40(2) . . yes
C(9) C(14) 1.51(2) . . yes
C(9) C(15) 2.62(2) . . yes
C(9) C(18) 2.62(2) . . yes
C(9) H(1) 2.052 . . no
C(9) H(2) 2.046 . . no
C(9) H(3) 2.043 . . no
C(9) H(6) 2.716 . . no
C(9) H(13) 2.718 . . no
C(10) C(11) 1.43(2) . . yes
C(10) C(12) 2.30(2) . . yes
C(10) C(13) 2.31(2) . . yes
C(10) C(14) 2.63(2) . . yes
C(10) C(15) 1.48(2) . . yes
C(10) C(16) 2.62(2) . . yes
C(10) H(1) 2.697 . . no
C(10) H(4) 2.032 . . no
C(10) H(5) 2.029 . . no
C(10) H(6) 2.036 . . no
C(10) H(9) 2.675 . . no
C(11) C(12) 1.40(2) . . yes
C(11) C(13) 2.29(2) . . yes
C(11) C(15) 2.58(2) . . yes
C(11) C(16) 1.51(2) . . yes
C(11) C(17) 2.58(2) . . yes
C(11) H(4) 2.843 . . no
C(11) H(5) 2.834 . . no
C(11) H(7) 2.052 . . no
C(11) H(8) 2.040 . . no
C(11) H(9) 2.054 . . no
C(11) H(12) 2.672 . . no
C(12) C(13) 1.42(2) . . yes
C(12) C(16) 2.59(2) . . yes
C(12) C(17) 1.51(2) . . yes
C(12) C(18) 2.62(2) . . yes
C(12) H(7) 2.856 . . no
C(12) H(8) 2.859 . . no
C(12) H(10) 2.056 . . no
C(12) H(11) 2.053 . . no
C(12) H(12) 2.048 . . no
C(12) H(14) 2.872 . . no
C(12) H(15) 2.879 . . no
C(13) C(14) 2.59(2) . . yes
C(13) C(17) 2.61(2) . . yes
C(13) C(18) 1.53(2) . . yes
C(13) H(2) 2.841 . . no
C(13) H(3) 2.843 . . no
C(13) H(10) 2.861 . . no
C(13) H(11) 2.862 . . no
C(13) H(13) 2.079 . . no
C(13) H(14) 2.078 . . no
C(13) H(15) 2.077 . . no
C(14) H(1) 0.967 . . no
C(14) H(2) 0.969 . . no
C(14) H(3) 0.970 . . no
C(14) H(6) 2.831 . . no
C(14) H(13) 2.796 . . no
C(15) H(1) 2.820 . . no
C(15) H(4) 0.994 . . no
C(15) H(5) 0.950 . . no
C(15) H(6) 0.979 . . no
C(15) H(9) 2.721 . . no
C(16) H(7) 0.953 . . no
C(16) H(8) 0.965 . . no
C(16) H(9) 0.994 . . no
C(16) H(12) 2.741 . . no
C(17) H(10) 0.975 . . no
C(17) H(11) 0.998 . . no
C(17) H(12) 0.947 . . no
C(18) H(13) 0.961 . . no
C(18) H(14) 0.985 . . no
C(18) H(15) 0.976 . . no
#------------------------------------------------------------------------------
loop_
_geom_angle_atom_site_label_1
_geom_angle_atom_site_label_2
_geom_angle_atom_site_label_3
_geom_angle
_geom_angle_site_symmetry_1
_geom_angle_site_symmetry_2
_geom_angle_site_symmetry_3
_geom_angle_publ_flag
Cu(1) W Cu(2) 67.66(8) . . . yes
Cu(1) W S(1) 50.09(7) . . . yes
Cu(1) W S(2) 90.25(8) . . . yes
Cu(1) W S(3) 89.20(9) . . . yes
Cu(1) W S(4) 48.87(7) . . . yes
Cu(1) W C(1) 63.8(2) . . . yes
Cu(1) W C(5) 62.6(2) . . . yes
Cu(1) W C(9) 135.6(3) . . . yes
Cu(1) W C(10) 172.0(3) . . . yes
Cu(1) W C(11) 150.2(3) . . . yes
Cu(1) W C(12) 122.8(3) . . . yes
Cu(1) W C(13) 115.7(3) . . . yes
Cu(2) W S(1) 90.18(9) . . . yes
Cu(2) W S(2) 49.46(7) . . . yes
Cu(2) W S(3) 48.28(7) . . . yes
Cu(2) W S(4) 89.46(8) . . . yes
Cu(2) W C(1) 63.7(2) . . . yes
Cu(2) W C(5) 62.3(2) . . . yes
Cu(2) W C(9) 135.0(3) . . . yes
Cu(2) W C(10) 115.0(3) . . . yes
Cu(2) W C(11) 123.6(3) . . . yes
Cu(2) W C(12) 151.8(3) . . . yes
Cu(2) W C(13) 170.2(3) . . . yes
S(1) W S(2) 71.4(1) . . . yes
S(1) W S(3) 133.25(9) . . . yes
S(1) W S(4) 91.0(1) . . . yes
S(1) W C(1) 35.7(2) . . . yes
S(1) W C(5) 112.7(2) . . . yes
S(1) W C(9) 87.7(3) . . . yes
S(1) W C(10) 121.9(3) . . . yes
S(1) W C(11) 143.5(3) . . . yes
S(1) W C(12) 116.8(3) . . . yes
S(1) W C(13) 85.9(3) . . . yes
S(2) W S(3) 89.7(1) . . . yes
S(2) W S(4) 133.45(9) . . . yes
S(2) W C(1) 36.1(2) . . . yes
S(2) W C(5) 111.8(2) . . . yes
S(2) W C(9) 87.8(3) . . . yes
S(2) W C(10) 86.5(3) . . . yes
S(2) W C(11) 118.3(3) . . . yes
S(2) W C(12) 143.9(3) . . . yes
S(2) W C(13) 120.7(3) . . . yes
S(3) W S(4) 71.4(1) . . . yes
S(3) W C(1) 111.9(2) . . . yes
S(3) W C(5) 35.7(2) . . . yes
S(3) W C(9) 135.1(3) . . . yes
S(3) W C(10) 98.1(3) . . . yes
S(3) W C(11) 83.2(3) . . . yes
S(3) W C(12) 103.7(3) . . . yes
S(3) W C(13) 138.6(3) . . . yes
S(4) W C(1) 112.6(2) . . . yes
S(4) W C(5) 36.1(2) . . . yes
S(4) W C(9) 135.5(3) . . . yes
S(4) W C(10) 136.9(3) . . . yes
S(4) W C(11) 101.6(3) . . . yes
S(4) W C(12) 82.6(3) . . . yes
S(4) W C(13) 99.6(3) . . . yes
C(1) W C(5) 114.0(3) . . . yes
C(1) W C(9) 91.0(3) . . . yes
C(1) W C(10) 110.0(3) . . . yes
C(1) W C(11) 145.4(3) . . . yes
C(1) W C(12) 144.0(3) . . . yes
C(1) W C(13) 108.8(3) . . . yes
C(5) W C(9) 155.0(3) . . . yes
C(5) W C(10) 125.4(3) . . . yes
C(5) W C(11) 96.6(3) . . . yes
C(5) W C(12) 97.6(3) . . . yes
C(5) W C(13) 127.5(4) . . . yes
C(9) W C(10) 37.0(4) . . . yes
C(9) W C(11) 59.4(4) . . . yes
C(9) W C(12) 59.0(4) . . . yes
C(9) W C(13) 35.9(4) . . . yes
C(10) W C(11) 35.4(4) . . . yes
C(10) W C(12) 58.7(4) . . . yes
C(10) W C(13) 60.3(4) . . . yes
C(11) W C(12) 34.2(4) . . . yes
C(11) W C(13) 58.5(4) . . . yes
C(12) W C(13) 35.2(4) . . . yes
Cu(1) Br Cu(2) 90.39(9) . . . yes
Cu(1) Br H(2) 119.7 . . 1_556 no
Cu(2) Br H(2) 129.1 . . 1_556 no
W Cu(1) Br 101.48(9) . . . yes
W Cu(1) S(1) 51.80(7) . . . yes
W Cu(1) S(4) 52.02(7) . . . yes
W Cu(1) N(1) 148.1(3) . . 2_757 yes
W Cu(1) C(3) 146.7(2) . . 2_757 yes
Br Cu(1) S(1) 113.10(9) . . . yes
Br Cu(1) S(4) 112.8(1) . . . yes
Br Cu(1) N(1) 109.0(3) . . 2_757 yes
Br Cu(1) C(3) 109.1(2) . . 2_757 yes
S(1) Cu(1) S(4) 95.2(1) . . . yes
S(1) Cu(1) N(1) 105.8(3) . . 2_757 yes
S(1) Cu(1) C(3) 102.6(2) . . 2_757 yes
S(4) Cu(1) N(1) 120.0(3) . . 2_757 yes
S(4) Cu(1) C(3) 122.7(2) . . 2_757 yes
N(1) Cu(1) C(3) 3.8(3) 2_757 . 2_757 yes
W Cu(2) Br 100.48(9) . . . yes
W Cu(2) S(2) 51.18(7) . . . yes
W Cu(2) S(3) 51.51(7) . . . yes
W Cu(2) N(2) 148.5(3) . . 2_657 yes
W Cu(2) C(4) 147.5(2) . . 2_657 yes
Br Cu(2) S(2) 112.90(10) . . . yes
Br Cu(2) S(3) 112.24(9) . . . yes
Br Cu(2) N(2) 109.9(3) . . 2_657 yes
Br Cu(2) C(4) 109.8(2) . . 2_657 yes
S(2) Cu(2) S(3) 93.94(10) . . . yes
S(2) Cu(2) N(2) 107.0(3) . . 2_657 yes
S(2) Cu(2) C(4) 104.2(2) . . 2_657 yes
S(3) Cu(2) N(2) 119.7(3) . . 2_657 yes
S(3) Cu(2) C(4) 122.3(2) . . 2_657 yes
N(2) Cu(2) C(4) 3.4(3) 2_657 . 2_657 yes
W S(1) Cu(1) 78.11(8) . . . yes
W S(1) S(2) 54.28(9) . . . yes
W S(1) C(1) 88.8(3) . . . yes
W S(1) C(2) 111.8(2) . . . yes
W S(1) H(3) 80.2 . . . no
Cu(1) S(1) S(2) 96.2(1) . . . yes
Cu(1) S(1) C(1) 99.7(3) . . . yes
Cu(1) S(1) C(2) 96.9(2) . . . yes
Cu(1) S(1) 