
#######################################################################
#
#                 Cambridge Crystallographic Data Centre
#                                CCDC
#
#######################################################################
#
# If this CIF has been generated from an entry in the Cambridge
# Structural Database, then it will include bibliographic, chemical,
# crystal, experimental, refinement or atomic coordinate data resulting
# from the CCDC's data processing and validation procedures.
#
#######################################################################

data_CSD_CIF_LUJTAM
_audit_creation_date 2010-06-17
_audit_creation_method CSD-ConQuest-V1
_database_code_CSD LUJTAM
_database_code_depnum_ccdc_archive 'CCDC 720368'
_chemical_formula_sum 'C10 H11 N1 O6'
_chemical_formula_moiety
;
C8 H9 N1 O2,C2 H2 O4
;
_journal_coden_Cambridge 1089
_journal_volume 21
_journal_year 2009
_journal_page_first 3905
_journal_name_full 'Adv.Mater. '
loop_
_publ_author_name
"S.Karki"
"T.Friscic"
"L.Fabian"
"P.R.Laity"
"G.M.Day"
"W.Jones"
_chemical_name_systematic
;
N-(4-hydroxyphenyl)acetamide ethanedioic acid
;
_chemical_name_common
;
paracetamol oxalic acid; acetaminophen oxalic acid; Teaching Subset: 
Fundamental Chemistry, Drug Molecules
;
_cell_volume   1062.833
_exptl_crystal_colour 'white'
_exptl_crystal_density_diffrn 1.507
_exptl_special_details
;
powder data

;
_exptl_crystal_description 'fine ground powder'
_diffrn_ambient_temperature 298
#These two values have been output from a single CSD field.
_refine_ls_R_factor_gt 0.0664
_refine_ls_wR_factor_gt 0.0664
_symmetry_cell_setting monoclinic
_symmetry_space_group_name_H-M 'P 21/c'
_symmetry_Int_Tables_number 14
loop_
_symmetry_equiv_pos_site_id
_symmetry_equiv_pos_as_xyz
1 x,y,z
2 -x,1/2+y,1/2-z
3 -x,-y,-z
4 x,-1/2-y,-1/2+z
_cell_length_a 5.16384(26)
_cell_length_b 11.7323(8)
_cell_length_c 17.5934(9)
_cell_angle_alpha 90
_cell_angle_beta 94.3285(23)
_cell_angle_gamma 90
_cell_formula_units_Z 4
loop_
_atom_type_symbol
_atom_type_radius_bond
C 0.68
H 0.23
N 0.68
O 0.68
loop_
_atom_site_label
_atom_site_type_symbol
_atom_site_fract_x
_atom_site_fract_y
_atom_site_fract_z
C1 C 0.0996(8) 0.91789(32) 0.35955(28)
C2 C 0.1588(8) 0.8024(4) 0.35445(27)
C3 C 0.0135(9) 0.72241(34) 0.39148(28)
C4 C -0.1824(8) 0.7566(4) 0.43658(26)
C5 C -0.2394(8) 0.8719(4) 0.44289(29)
C6 C -0.0999(10) 0.9519(4) 0.40414(30)
O1 O -0.3186(9) 0.6744(5) 0.47185(25)
N1 N 0.2297(9) 1.00555(30) 0.32198(24)
C7 C 0.4183(10) 0.9957(4) 0.27270(31)
O2 O 0.5005(9) 0.9027(4) 0.2508(4)
C8 C 0.5279(12) 1.1072(5) 0.24634(35)
H1 H 0.3111(13) 0.7742(4) 0.3198(4)
H2 H 0.0608(12) 0.6329(4) 0.3866(4)
H3 H -0.3954(14) 0.8991(5) 0.4765(4)
H4 H -0.1451(13) 1.0417(5) 0.4080(4)
H5 H -0.2576(19) 0.5970(5) 0.4609(8)
H6 H 0.1825(14) 1.0859(4) 0.3361(5)
H7 H 0.480(14) 1.1175(34) 0.1857(10)
H8 H 0.480(13) 1.1799(19) 0.281(4)
H9 H 0.7383(14) 1.1028(26) 0.251(5)
C9 C 1.1960(7) 0.8541(4) 0.08742(24)
O3 O 1.3333(9) 0.7661(5) 0.07272(28)
O4 O 1.2437(10) 0.9535(5) 0.06916(30)
C10 C 0.9728(8) 0.8307(4) 0.13984(25)
O5 O 0.8469(10) 0.9183(5) 0.15786(30)
O6 O 0.9208(10) 0.7317(5) 0.15642(30)
H10 H 1.4970(18) 0.7812(7) 0.0495(9)
H11 H 0.6869(20) 0.9043(7) 0.1833(9)
#END
