####################################################################### 
# 
# This file contains crystal structure data downloaded from the 
# Cambridge Structural Database (CSD) hosted by the Cambridge 
# Crystallographic Data Centre (CCDC).
# 
# Full information about CCDC data access policies and citation 
# guidelines are available at http://www.ccdc.cam.ac.uk/access/V1 
# 
# Audit and citation data items may have been added by the CCDC. 
# Please retain this information to preserve the provenance of 
# this file and to allow appropriate attribution of the data. 
# 
#######################################################################

data_3
_audit_block_doi                 10.5517/cc14750k
_database_code_depnum_ccdc_archive 'CCDC 1049567'
loop_
_citation_id
_citation_doi
_citation_year
1 10.1039/C5CE00349K 2015
_audit_update_record             
;
2015-02-14 deposited with the CCDC.	2024-07-11 downloaded from the CCDC.
;
_audit_creation_date             2015-02-14
_audit_creation_method           
;
Olex2 1.2
(compiled 2015.01.26 svn.r3150 for OlexSys, GUI svn.r4998)
;
_chemical_name_common            ?
_chemical_name_systematic        ?
_chemical_formula_moiety         'C68 H40 Co3 N4 O12, 3(C3 H7 N O), H2 O'
_chemical_formula_sum            'C77 H63 Co3 N7 O16'
_chemical_formula_weight         1519.13
_chemical_absolute_configuration ?
_chemical_melting_point          ?
loop_
_atom_type_symbol
_atom_type_description
_atom_type_scat_dispersion_real
_atom_type_scat_dispersion_imag
_atom_type_scat_source
C C 0.0033 0.0016 'International Tables Vol C Tables 4.2.6.8 and 6.1.1.4'
H H 0.0000 0.0000 'International Tables Vol C Tables 4.2.6.8 and 6.1.1.4'
N N 0.0061 0.0033 'International Tables Vol C Tables 4.2.6.8 and 6.1.1.4'
O O 0.0106 0.0060 'International Tables Vol C Tables 4.2.6.8 and 6.1.1.4'
Co Co 0.3494 0.9721 'International Tables Vol C Tables 4.2.6.8 and 6.1.1.4'

_shelx_space_group_comment       
;
The symmetry employed for this shelxl refinement is uniquely defined
by the following loop, which should always be used as a source of
symmetry information in preference to the above space-group names.
They are only intended as comments.
;
_space_group_crystal_system      monoclinic
_space_group_IT_number           9
_space_group_name_H-M_alt        'C 1 c 1'
_space_group_name_Hall           'C -2yc'
loop_
_space_group_symop_operation_xyz
'x, y, z'
'x, -y, z+1/2'
'x+1/2, y+1/2, z'
'x+1/2, -y+1/2, z+1/2'

_cell_length_a                   25.938(3)
_cell_length_b                   18.158(2)
_cell_length_c                   16.7929(19)
_cell_angle_alpha                90
_cell_angle_beta                 116.945(2)
_cell_angle_gamma                90
_cell_volume                     7050.5(14)
_cell_formula_units_Z            4
_cell_measurement_reflns_used    ?
_cell_measurement_temperature    123(2)
_cell_measurement_theta_max      ?
_cell_measurement_theta_min      ?
_shelx_estimated_absorpt_T_max   0.861
_shelx_estimated_absorpt_T_min   0.861
_exptl_absorpt_coefficient_mu    0.772
_exptl_absorpt_correction_T_max  ?
_exptl_absorpt_correction_T_min  ?
_exptl_absorpt_correction_type   ?
_exptl_absorpt_process_details   ?
_exptl_absorpt_special_details   ?
_exptl_crystal_colour            red
_exptl_crystal_density_diffrn    1.431
_exptl_crystal_density_meas      ?
_exptl_crystal_density_method    ?
_exptl_crystal_description       block
_exptl_crystal_F_000             3132
_exptl_crystal_preparation       ?
_exptl_crystal_size_max          0.2
_exptl_crystal_size_mid          0.2
_exptl_crystal_size_min          0.2
_exptl_transmission_factor_max   ?
_exptl_transmission_factor_min   ?
_diffrn_reflns_av_R_equivalents  0.0353
_diffrn_reflns_av_unetI/netI     0.0502
_diffrn_reflns_Laue_measured_fraction_full 0.978
_diffrn_reflns_Laue_measured_fraction_max 0.979
_diffrn_reflns_limit_h_max       29
_diffrn_reflns_limit_h_min       -31
_diffrn_reflns_limit_k_max       22
_diffrn_reflns_limit_k_min       -22
_diffrn_reflns_limit_l_max       20
_diffrn_reflns_limit_l_min       -14
_diffrn_reflns_number            20587
_diffrn_reflns_point_group_measured_fraction_full 0.978
_diffrn_reflns_point_group_measured_fraction_max 0.979
_diffrn_reflns_theta_full        25.242
_diffrn_reflns_theta_max         26.000
_diffrn_reflns_theta_min         3.022
_diffrn_ambient_temperature      123.15
_diffrn_detector_area_resol_mean ?
_diffrn_measured_fraction_theta_full 0.978
_diffrn_measured_fraction_theta_max 0.979
_diffrn_measurement_device_type  ?
_diffrn_measurement_method       ?
_diffrn_radiation_type           MoK\a
_diffrn_radiation_wavelength     0.71073
_diffrn_source                   ?
_reflns_Friedel_coverage         0.999
_reflns_Friedel_fraction_full    0.978
_reflns_Friedel_fraction_max     0.979
_reflns_number_gt                9933
_reflns_number_total             10905
_reflns_special_details          
;
 Reflections were merged by SHELXL according to the crystal
 class for the calculation of statistics and refinement.
 
 _reflns_Friedel_fraction is defined as the number of unique
 Friedel pairs measured divided by the number that would be
 possible theoretically, ignoring centric projections and
 systematic absences.
;
_reflns_threshold_expression     'I > 2\s(I)'
_computing_cell_refinement       ?
_computing_data_collection       ?
_computing_data_reduction        ?
_computing_molecular_graphics    'Olex2 (Dolomanov et al., 2009)'
_computing_publication_material  'Olex2 (Dolomanov et al., 2009)'
_computing_structure_refinement  'ShelXL (Sheldrick, 2008)'
_computing_structure_solution    'ShelXS (Sheldrick, 2008)'
_refine_diff_density_max         0.620
_refine_diff_density_min         -0.656
_refine_diff_density_rms         0.115
_refine_ls_abs_structure_details 
;
 Flack x determined using 3354 quotients [(I+)-(I-)]/[(I+)+(I-)]
 (Parsons, Flack and Wagner, Acta Cryst. B69 (2013) 249-259).
;
_refine_ls_abs_structure_Flack   0.03(3)
_refine_ls_extinction_coef       .
_refine_ls_extinction_method     none
_refine_ls_goodness_of_fit_ref   1.078
_refine_ls_hydrogen_treatment    constr
_refine_ls_matrix_type           full
_refine_ls_number_parameters     935
_refine_ls_number_reflns         10905
_refine_ls_number_restraints     8
_refine_ls_R_factor_all          0.0590
_refine_ls_R_factor_gt           0.0480
_refine_ls_restrained_S_all      1.078
_refine_ls_shift/su_max          0.001
_refine_ls_shift/su_mean         0.000
_refine_ls_structure_factor_coef Fsqd
_refine_ls_weighting_details     
'w=1/[\s^2^(Fo^2^)+(0.1394P)^2^] where P=(Fo^2^+2Fc^2^)/3'
_refine_ls_weighting_scheme      calc
_refine_ls_wR_factor_gt          0.1302
_refine_ls_wR_factor_ref         0.1757
_refine_special_details          Twin
_olex2_refinement_description    
;
1. Others
 Fixed Uiso: H16A(0.075) H16B(0.075) H3(0.027) H4(0.031) H6(0.029) H7(0.025)
 H11(0.029) H12(0.025) H14(0.025) H15(0.028) H19(0.026) H20(0.03) H22(0.027)
 H23(0.024) H27(0.032) H28(0.025) H30(0.025) H31(0.027) H35(0.023) H36(0.025)
 H38(0.034) H39(0.028) H43(0.044) H44(0.033) H46(0.033) H47(0.038) H49(0.035)
 H50(0.037) H51(0.04) H52(0.035) H55(0.037) H56(0.041) H57(0.042) H58(0.035)
 H59(0.032) H60(0.03) H61(0.031) H62(0.032) H65(0.034) H66(0.039) H67(0.041)
 H68(0.032) H69(0.047) H70A(0.108) H70B(0.108) H70C(0.108) H71A(0.073)
 H71B(0.073) H71C(0.073) H72(0.039) H73A(0.095) H73B(0.095) H73C(0.095)
 H74A(0.1) H74B(0.1) H74C(0.1) H75(0.044) H76A(0.076) H76B(0.076) H76C(0.076)
 H77A(0.05) H77B(0.05) H77C(0.05)
 Fixed X: H16A(0.3114) H16B(0.2968) H3(0.3645) H4(0.3471) H6(0.2674)
 H7(0.2842) H11(0.3304) H12(0.3164) H14(0.2) H15(0.2152) H19(0.5406)
 H20(0.5915) H22(0.4438) H23(0.3917) H27(0.6814) H28(0.7171) H30(0.5623)
 H31(0.5236) H35(0.342) H36(0.4178) H38(0.5329) H39(0.4563) H43(0.5818)
 H44(0.6521) H46(0.7272) H47(0.6557) H49(0.2288) H50(0.2171) H51(0.1765)
 H52(0.1513) H55(0.1354) H56(0.1274) H57(0.1528) H58(0.1847) H59(0.3192)
 H60(0.3125) H61(0.353) H62(0.3974) H65(0.4331) H66(0.4689) H67(0.4582)
 H68(0.4188) H69(0.1092) H70A(-0.0145) H70B(0.009) H70C(-0.0373) H71A(0.0779)
 H71B(0.0088) H71C(0.0396) H72(0.0254) H73A(-0.0635) H73B(-0.0134) H73C(-
 0.0424) H74A(0.0954) H74B(0.0741) H74C(0.0881) H75(0.3672) H76A(0.491)
 H76B(0.524) H76C(0.5272) H77A(0.4299) H77B(0.4983) H77C(0.4634)
 Fixed Y: H16A(0.4802) H16B(0.4192) H3(0.4914) H4(0.3664) H6(0.4136)
 H7(0.5393) H11(0.1247) H12(-0.0032) H14(0.0397) H15(0.1657) H19(0.7908)
 H20(0.8722) H22(0.9886) H23(0.905) H27(1.0563) H28(1.1324) H30(1.2355)
 H31(1.1568) H35(0.7682) H36(0.7504) H38(0.7722) H39(0.789) H43(0.6611)
 H44(0.6718) H46(0.8387) H47(0.8307) H49(0.6421) H50(0.5481) H51(0.579)
 H52(0.7019) H55(0.8183) H56(0.9466) H57(1.0228) H58(0.9693) H59(0.883)
 H60(0.992) H61(0.9954) H62(0.8895) H65(0.7855) H66(0.6689) H67(0.5687)
 H68(0.5908) H69(0.9381) H70A(1.041) H70B(1.0647) H70C(0.9995) H71A(0.8818)
 H71B(0.8784) H71C(0.9295) H72(0.6029) H73A(0.5578) H73B(0.5258) H73C(0.4745)
 H74A(0.5429) H74B(0.471) H74C(0.545) H75(0.6111) H76A(0.5442) H76B(0.5385)
 H76C(0.6129) H77A(0.6781) H77B(0.6697) H77C(0.6111)
 Fixed Z: H16A(0.0737) H16B(0.0356) H3(0.4846) H4(0.4534) H6(0.1878)
 H7(0.2206) H11(0.3948) H12(0.366) H14(0.1098) H15(0.136) H19(0.4879)
 H20(0.4438) H22(0.3023) H23(0.3443) H27(0.3426) H28(0.2668) H30(0.1441)
 H31(0.2156) H35(-0.0007) H36(-0.0377) H38(0.2267) H39(0.2605) H43(-0.0784)
 H44(-0.1296) H46(0.0449) H47(0.0942) H49(0.0653) H50(-0.0377) H51(-0.1909)
 H52(-0.2355) H55(-0.2643) H56(-0.2848) H57(-0.1593) H58(-0.0175) H59(0.459)
 H60(0.5283) H61(0.6834) H62(0.7671) H65(0.8332) H66(0.896) H67(0.7986)
 H68(0.6456) H69(0.0425) H70A(-0.0261) H70B(0.0762) H70C(0.036) H71A(0.1344)
 H71B(0.0813) H71C(0.1679) H72(0.4563) H73A(0.5482) H73B(0.6392) H73C(0.5524)
 H74A(0.5692) H74B(0.6011) H74C(0.6589) H75(0.2096) H76A(0.2122) H76B(0.3188)
 H76C(0.2702) H77A(0.3331) H77B(0.3698) H77C(0.3979)
;
_atom_sites_solution_hydrogens   mixed
_atom_sites_solution_primary     direct
_atom_sites_solution_secondary   ?
loop_
_atom_site_label
_atom_site_type_symbol
_atom_site_fract_x
_atom_site_fract_y
_atom_site_fract_z
_atom_site_U_iso_or_equiv
_atom_site_adp_type
_atom_site_occupancy
_atom_site_site_symmetry_order
_atom_site_calc_flag
_atom_site_refinement_flags_posn
_atom_site_refinement_flags_adp
_atom_site_refinement_flags_occupancy
_atom_site_disorder_assembly
_atom_site_disorder_group
Co1 Co 0.37050(4) 0.72123(5) 0.51337(6) 0.0146(2) Uani 1 1 d . . . . .
Co2 Co 0.29643(4) 0.76828(5) 0.29557(6) 0.0118(2) Uani 1 1 d . . . . .
Co3 Co 0.21186(4) 0.81194(5) 0.06896(6) 0.0141(2) Uani 1 1 d . . . . .
O1 O 0.3745(2) 0.6220(3) 0.4605(3) 0.0168(11) Uani 1 1 d . . . . .
O2 O 0.3143(2) 0.6547(3) 0.3186(4) 0.0167(11) Uani 1 1 d . . . . .
O3 O 0.2828(2) -0.1187(3) 0.2773(4) 0.0191(11) Uani 1 1 d . . . . .
O4 O 0.2158(2) -0.0937(3) 0.1360(4) 0.0204(11) Uani 1 1 d . . . . .
O5 O 0.4563(2) 0.7513(3) 0.5226(4) 0.0211(12) Uani 1 1 d . . . . .
O6 O 0.3738(2) 0.7904(3) 0.4143(3) 0.0173(11) Uani 1 1 d . . . . .
O7 O 0.7215(2) 1.2408(3) 0.1764(4) 0.0190(12) Uani 1 1 d . . . . .
O8 O 0.6339(2) 1.2763(3) 0.0827(4) 0.0191(11) Uani 1 1 d . . . . .
O9 O 0.3471(2) 0.7670(3) 0.2282(4) 0.0205(12) Uani 1 1 d . . . . .
O10 O 0.2955(2) 0.8148(3) 0.0910(4) 0.0232(12) Uani 1 1 d . . . . .
O11 O 0.7863(2) 0.8042(3) -0.0238(4) 0.0231(12) Uani 1 1 d . . . . .
O12 O 0.7437(2) 0.7227(3) -0.1353(4) 0.0201(11) Uani 1 1 d . . . . .
O13 O 0.0803(4) 1.0232(4) -0.0240(7) 0.062(2) Uani 1 1 d . . . . .
O14 O -0.0530(3) 0.6084(4) 0.4233(4) 0.0432(18) Uani 1 1 d . . . . .
O15 O 0.3887(4) 0.5487(4) 0.1402(5) 0.056(2) Uani 1 1 d . . . . .
O16 O 0.2825(3) 0.4544(4) 0.0489(6) 0.0500(19) Uani 1 1 d . . . . .
H16A H 0.3114 0.4802 0.0737 0.075 Uiso 1 1 d R . . . .
H16B H 0.2968 0.4192 0.0356 0.075 Uiso 1 1 d R . . . .
N1 N 0.1989(3) 0.7236(3) -0.0215(5) 0.0237(15) Uani 1 1 d . . . . .
N2 N 0.1794(3) 0.8652(3) -0.0569(4) 0.0207(14) Uani 1 1 d . . . . .
N3 N 0.3599(3) 0.8239(3) 0.5691(5) 0.0199(14) Uani 1 1 d . . . . .
N4 N 0.4044(3) 0.6979(3) 0.6494(5) 0.0202(14) Uani 1 1 d . . . . .
N5 N 0.0424(3) 0.9707(4) 0.0597(5) 0.0332(18) Uani 1 1 d . . . . .
N6 N 0.0126(3) 0.5485(4) 0.5471(6) 0.041(2) Uani 1 1 d . . . . .
N7 N 0.4523(3) 0.5981(4) 0.2726(5) 0.0295(16) Uani 1 1 d . . . . .
C1 C 0.3397(3) 0.6088(4) 0.3808(5) 0.0166(15) Uani 1 1 d . . . . .
C2 C 0.3272(3) 0.5275(4) 0.3578(5) 0.0169(15) Uani 1 1 d . . . . .
C3 C 0.3446(3) 0.4757(4) 0.4241(5) 0.0222(17) Uani 1 1 d . . . . .
H3 H 0.3645 0.4914 0.4846 0.027 Uiso 1 1 calc R . . . .
C4 C 0.3342(3) 0.4012(4) 0.4060(6) 0.0256(18) Uani 1 1 d . . . . .
H4 H 0.3471 0.3664 0.4534 0.031 Uiso 1 1 calc R . . . .
C5 C 0.3045(3) 0.3778(4) 0.3174(6) 0.0242(18) Uani 1 1 d . . . . .
C6 C 0.2867(4) 0.4295(4) 0.2482(6) 0.0239(17) Uani 1 1 d . . . . .
H6 H 0.2674 0.4136 0.1878 0.029 Uiso 1 1 calc R . . . .
C7 C 0.2971(3) 0.5042(4) 0.2676(5) 0.0210(16) Uani 1 1 d . . . . .
H7 H 0.2842 0.5393 0.2206 0.025 Uiso 1 1 calc R . . . .
C8 C 0.2934(4) 0.3001(4) 0.2971(6) 0.0265(19) Uani 1 1 d . . . . .
C9 C 0.2853(4) 0.2356(5) 0.2832(6) 0.0268(18) Uani 1 1 d . . . . .
C10 C 0.2752(3) 0.1581(4) 0.2675(6) 0.0259(19) Uani 1 1 d . . . . .
C11 C 0.3048(4) 0.1076(4) 0.3367(6) 0.0243(17) Uani 1 1 d . . . . .
H11 H 0.3304 0.1247 0.3948 0.029 Uiso 1 1 calc R . . . .
C12 C 0.2962(3) 0.0311(4) 0.3195(5) 0.0205(16) Uani 1 1 d . . . . .
H12 H 0.3164 -0.0032 0.3660 0.025 Uiso 1 1 calc R . . . .
C13 C 0.2580(3) 0.0059(4) 0.2338(5) 0.0185(15) Uani 1 1 d . . . . .
C14 C 0.2273(3) 0.0567(4) 0.1670(5) 0.0204(16) Uani 1 1 d . . . . .
H14 H 0.2000 0.0397 0.1098 0.025 Uiso 1 1 calc R . . . .
C15 C 0.2359(3) 0.1318(4) 0.1827(6) 0.0237(17) Uani 1 1 d . . . . .
H15 H 0.2152 0.1657 0.1360 0.028 Uiso 1 1 calc R . . . .
C16 C 0.2514(3) -0.0756(4) 0.2143(5) 0.0146(14) Uani 1 1 d . . . . .
C17 C 0.4300(3) 0.7901(4) 0.4530(5) 0.0147(14) Uani 1 1 d . . . . .
C18 C 0.4615(3) 0.8395(4) 0.4200(5) 0.0155(14) Uani 1 1 d . . . . .
C19 C 0.5210(3) 0.8308(4) 0.4496(5) 0.0216(16) Uani 1 1 d . . . . .
H19 H 0.5406 0.7908 0.4879 0.026 Uiso 1 1 calc R . . . .
C20 C 0.5513(3) 0.8792(4) 0.4241(6) 0.0246(17) Uani 1 1 d . . . . .
H20 H 0.5915 0.8722 0.4438 0.030 Uiso 1 1 calc R . . . .
C21 C 0.5228(3) 0.9394(4) 0.3685(6) 0.0239(17) Uani 1 1 d . . . . .
C22 C 0.4633(3) 0.9481(4) 0.3397(5) 0.0223(16) Uani 1 1 d . . . . .
H22 H 0.4438 0.9886 0.3023 0.027 Uiso 1 1 calc R . . . .
C23 C 0.4321(3) 0.8986(4) 0.3646(5) 0.0197(15) Uani 1 1 d . . . . .
H23 H 0.3917 0.9050 0.3443 0.024 Uiso 1 1 calc R . . . .
C24 C 0.5532(3) 0.9937(4) 0.3439(6) 0.0261(18) Uani 1 1 d . . . . .
C25 C 0.5738(3) 1.0426(5) 0.3198(6) 0.0273(18) Uani 1 1 d . . . . .
C26 C 0.5987(3) 1.0957(4) 0.2830(5) 0.0209(16) Uani 1 1 d . . . . .
C27 C 0.6566(4) 1.0912(4) 0.3005(6) 0.0267(18) Uani 1 1 d . . . . .
H27 H 0.6814 1.0563 0.3426 0.032 Uiso 1 1 calc R . . . .
C28 C 0.6782(3) 1.1374(4) 0.2569(5) 0.0209(16) Uani 1 1 d . . . . .
H28 H 0.7171 1.1324 0.2668 0.025 Uiso 1 1 calc R . . . .
C29 C 0.6423(3) 1.1915(4) 0.1981(5) 0.0141(14) Uani 1 1 d . . . . .
C30 C 0.5860(3) 1.1983(4) 0.1834(5) 0.0207(16) Uani 1 1 d . . . . .
H30 H 0.5623 1.2355 0.1441 0.025 Uiso 1 1 calc R . . . .
C31 C 0.5625(3) 1.1514(4) 0.2254(5) 0.0221(16) Uani 1 1 d . . . . .
H31 H 0.5236 1.1568 0.2156 0.027 Uiso 1 1 calc R . . . .
C32 C 0.6666(3) 1.2403(3) 0.1508(5) 0.0122(13) Uani 1 1 d . U . . .
C33 C 0.3410(3) 0.7886(4) 0.1537(5) 0.0144(14) Uani 1 1 d . . . . .
C34 C 0.3916(3) 0.7789(4) 0.1332(5) 0.0182(15) Uani 1 1 d . . . . .
C35 C 0.3808(3) 0.7682(4) 0.0451(5) 0.0189(16) Uani 1 1 d . . . . .
H35 H 0.3420 0.7682 -0.0007 0.023 Uiso 1 1 calc R . . . .
C36 C 0.4258(3) 0.7577(4) 0.0228(6) 0.0208(15) Uani 1 1 d . . . . .
H36 H 0.4178 0.7504 -0.0377 0.025 Uiso 1 1 calc R . . . .
C37 C 0.4840(3) 0.7578(4) 0.0916(6) 0.0203(15) Uani 1 1 d . . . . .
C38 C 0.4943(4) 0.7706(5) 0.1803(6) 0.0281(18) Uani 1 1 d . . . . .
H38 H 0.5329 0.7722 0.2267 0.034 Uiso 1 1 calc R . . . .
C39 C 0.4488(3) 0.7807(5) 0.2003(6) 0.0235(17) Uani 1 1 d . . . . .
H39 H 0.4563 0.7890 0.2605 0.028 Uiso 1 1 calc R . . . .
C40 C 0.5302(4) 0.7489(5) 0.0674(6) 0.0252(17) Uani 1 1 d . . . . .
C41 C 0.5663(3) 0.7444(5) 0.0406(6) 0.0227(16) Uani 1 1 d . . . . .
C42 C 0.6103(3) 0.7462(4) 0.0103(6) 0.0233(16) Uani 1 1 d . . . . .
C43 C 0.6107(4) 0.6981(5) -0.0542(