####################################################################### 
# 
# This file contains crystal structure data downloaded from the 
# Cambridge Structural Database (CSD) hosted by the Cambridge 
# Crystallographic Data Centre (CCDC).
# 
# Full information about CCDC data access policies and citation 
# guidelines are available at http://www.ccdc.cam.ac.uk/access/V1 
# 
# Audit and citation data items may have been added by the CCDC. 
# Please retain this information to preserve the provenance of 
# this file and to allow appropriate attribution of the data. 
# 
#######################################################################

data_ek4n
_audit_block_doi                 10.5517/cc141md6
_database_code_depnum_ccdc_archive 'CCDC 1044247'
loop_
_citation_id
_citation_doi
_citation_year
1 10.1016/j.jlumin.2015.05.007 2015
_audit_update_record             
;
2015-01-19 deposited with the CCDC.	2024-07-11 downloaded from the CCDC.
;

_audit_creation_method           SHELXL-2014/7
_shelx_SHELXL_version_number     2014/7
_chemical_name_systematic        ?
_chemical_name_common            ?
_chemical_melting_point          ?
_chemical_formula_moiety         'C48 H52 N4 Na Nd O20 P4 S4, C4 H8 O2'
_chemical_formula_sum            'C52 H60 N4 Na Nd O22 P4 S4'
_chemical_formula_weight         1512.39

loop_
_atom_type_symbol
_atom_type_description
_atom_type_scat_dispersion_real
_atom_type_scat_dispersion_imag
_atom_type_scat_source
C C 0.0033 0.0016 'International Tables Vol C Tables 4.2.6.8 and 6.1.1.4'
H H 0.0000 0.0000 'International Tables Vol C Tables 4.2.6.8 and 6.1.1.4'
N N 0.0061 0.0033 'International Tables Vol C Tables 4.2.6.8 and 6.1.1.4'
O O 0.0106 0.0060 'International Tables Vol C Tables 4.2.6.8 and 6.1.1.4'
P P 0.1023 0.0942 'International Tables Vol C Tables 4.2.6.8 and 6.1.1.4'
S S 0.1246 0.1234 'International Tables Vol C Tables 4.2.6.8 and 6.1.1.4'
Nd Nd -0.1943 3.0179 'International Tables Vol C Tables 4.2.6.8 and 6.1.1.4'
Na Na 0.0362 0.0249 'International Tables Vol C Tables 4.2.6.8 and 6.1.1.4'

_space_group_crystal_system      monoclinic
_space_group_IT_number           5
_space_group_name_H-M_alt        'C 2'
_space_group_name_Hall           'C 2y'

_shelx_space_group_comment       
;
The symmetry employed for this shelxl refinement is uniquely defined
by the following loop, which should always be used as a source of
symmetry information in preference to the above space-group names.
They are only intended as comments.
;

loop_
_space_group_symop_operation_xyz
'x, y, z'
'-x, y, -z'
'x+1/2, y+1/2, z'
'-x+1/2, y+1/2, -z'

_cell_length_a                   24.420(5)
_cell_length_b                   11.284(4)
_cell_length_c                   17.065(4)
_cell_angle_alpha                90
_cell_angle_beta                 134.09(3)
_cell_angle_gamma                90
_cell_volume                     3377(2)
_cell_formula_units_Z            2
_cell_measurement_temperature    100(2)
_cell_measurement_reflns_used    19701
_cell_measurement_theta_min      3.17
_cell_measurement_theta_max      35.91

_exptl_crystal_description       block
_exptl_crystal_colour            colorless
_exptl_crystal_density_meas      ?
_exptl_crystal_density_method    ?
_exptl_crystal_density_diffrn    1.487
_exptl_crystal_F_000             1542
_exptl_crystal_size_max          0.278
_exptl_crystal_size_mid          0.123
_exptl_crystal_size_min          0.086
_exptl_absorpt_coefficient_mu    1.067
_exptl_absorpt_correction_type   analytical
_exptl_absorpt_correction_T_min  0.739
_exptl_absorpt_correction_T_max  0.904
_exptl_absorpt_process_details   
;
CrysAlis RED, Oxford Diffraction Ltd.,
Analytical numeric absorption correction using a multifaceted crystal
model based on expressions derived by R.C. Clark & J.S. Reid.
(Clark, R. C. & Reid, J. S. (1995). Acta Cryst. A51, 887-897)
;
_diffrn_ambient_temperature      100(2)
_diffrn_radiation_wavelength     0.71073
_diffrn_radiation_type           MoK\a
_diffrn_source                   'Enhance (Mo) X-ray Source'
_diffrn_measurement_device_type  'Xcalibur, Sapphire2, large Be window'
_diffrn_measurement_method       '\w scans'
_diffrn_detector_area_resol_mean 8.3359
_diffrn_reflns_number            32280
_diffrn_reflns_av_unetI/netI     0.0629
_diffrn_reflns_av_R_equivalents  0.0377
_diffrn_reflns_limit_h_min       -40
_diffrn_reflns_limit_h_max       30
_diffrn_reflns_limit_k_min       -18
_diffrn_reflns_limit_k_max       18
_diffrn_reflns_limit_l_min       -25
_diffrn_reflns_limit_l_max       28
_diffrn_reflns_theta_min         3.171
_diffrn_reflns_theta_max         35.920
_diffrn_reflns_theta_full        25.242
_diffrn_measured_fraction_theta_max 0.955
_diffrn_measured_fraction_theta_full 0.998
_diffrn_reflns_Laue_measured_fraction_max 0.955
_diffrn_reflns_Laue_measured_fraction_full 0.998
_diffrn_reflns_point_group_measured_fraction_max 0.958
_diffrn_reflns_point_group_measured_fraction_full 0.999
_reflns_number_total             14370
_reflns_number_gt                12431
_reflns_threshold_expression     'I > 2\s(I)'
_reflns_Friedel_coverage         0.929
_reflns_Friedel_fraction_max     0.961
_reflns_Friedel_fraction_full    0.999

_reflns_special_details          
;
 Reflections were merged by SHELXL according to the crystal
 class for the calculation of statistics and refinement.
 
 _reflns_Friedel_fraction is defined as the number of unique
 Friedel pairs measured divided by the number that would be
 possible theoretically, ignoring centric projections and
 systematic absences.
;

_computing_data_collection       ?
_computing_cell_refinement       ?
_computing_data_reduction        ?
_computing_structure_solution    ?
_computing_structure_refinement  'SHELXL-2014/7 (Sheldrick, 2014)'
_computing_molecular_graphics    ?
_computing_publication_material  ?
_refine_special_details          
;
 Refined as a 2-component inversion twin.
 Structure Contains Solvent Accessible VOIDS of  181 A3 
;
_refine_ls_structure_factor_coef Fsqd
_refine_ls_matrix_type           full
_refine_ls_weighting_scheme      calc
_refine_ls_weighting_details     
'w=1/[\s^2^(Fo^2^)+(0.0357P)^2^] where P=(Fo^2^+2Fc^2^)/3'
_atom_sites_solution_primary     ?
_atom_sites_solution_secondary   ?
_atom_sites_solution_hydrogens   geom
_refine_ls_hydrogen_treatment    constr
_refine_ls_extinction_method     none
_refine_ls_extinction_coef       .
_refine_ls_abs_structure_details 
;
 Refined as an inversion twin.
;
_refine_ls_abs_structure_Flack   0.202(7)
_chemical_absolute_configuration unk
loop_
_platon_squeeze_void_nr
_platon_squeeze_void_average_x
_platon_squeeze_void_average_y
_platon_squeeze_void_average_z
_platon_squeeze_void_volume
_platon_squeeze_void_count_electrons
_platon_squeeze_void_content
1 0.000 -0.074 0.000 177 54 ' '
2 0.500 0.426 0.000 177 54 ' '
_platon_squeeze_void_probe_radius 1.20
_platon_squeeze_details          ?

_refine_ls_number_reflns         14370
_refine_ls_number_parameters     403
_refine_ls_number_restraints     1
_refine_ls_R_factor_all          0.0459
_refine_ls_R_factor_gt           0.0369
_refine_ls_wR_factor_ref         0.0724
_refine_ls_wR_factor_gt          0.0704
_refine_ls_goodness_of_fit_ref   0.959
_refine_ls_restrained_S_all      0.959
_refine_ls_shift/su_max          0.000
_refine_ls_shift/su_mean         0.000

loop_
_atom_site_label
_atom_site_type_symbol
_atom_site_fract_x
_atom_site_fract_y
_atom_site_fract_z
_atom_site_U_iso_or_equiv
_atom_site_adp_type
_atom_site_occupancy
_atom_site_site_symmetry_order
_atom_site_calc_flag
_atom_site_refinement_flags_posn
_atom_site_refinement_flags_adp
_atom_site_refinement_flags_occupancy
_atom_site_disorder_assembly
_atom_site_disorder_group
Nd1 Nd 0.5000 0.62424(2) 0.5000 0.01396(5) Uani 1 2 d S T P . .
Na1 Na 0.5000 1.1245(2) 0.5000 0.0184(3) Uani 1 2 d S T P . .
S1 S 0.43005(4) 0.34827(6) 0.32845(6) 0.01481(13) Uani 1 1 d . . . . .
P1 P 0.32865(4) 0.44008(7) 0.34137(6) 0.01521(14) Uani 1 1 d . . . . .
N1 N 0.36476(16) 0.3370(2) 0.3246(2) 0.0179(5) Uani 1 1 d . . . . .
O11 O 0.48107(12) 0.44854(19) 0.39259(17) 0.0166(4) Uani 1 1 d . . . . .
O12 O 0.46866(13) 0.2349(2) 0.36065(19) 0.0202(4) Uani 1 1 d . . . . .
O13 O 0.37393(12) 0.55085(19) 0.39671(18) 0.0182(4) Uani 1 1 d . . . . .
O14 O 0.24555(13) 0.4695(2) 0.22776(19) 0.0243(5) Uani 1 1 d . . . . .
O15 O 0.30936(14) 0.3867(2) 0.4048(2) 0.0206(5) Uani 1 1 d . . . . .
C17 C 0.2359(2) 0.5284(5) 0.1441(3) 0.0456(12) Uani 1 1 d . . . . .
H17A H 0.1815 0.5419 0.0803 0.068 Uiso 1 1 calc R U . . .
H17B H 0.2569 0.4788 0.1231 0.068 Uiso 1 1 calc R U . . .
H17C H 0.2626 0.6046 0.1718 0.068 Uiso 1 1 calc R U . . .
C18 C 0.2739(2) 0.2709(3) 0.3746(3) 0.0307(8) Uani 1 1 d . . . . .
H18A H 0.2636 0.2521 0.4194 0.046 Uiso 1 1 calc R U . . .
H18B H 0.3083 0.2112 0.3867 0.046 Uiso 1 1 calc R U . . .
H18C H 0.2260 0.2713 0.2974 0.046 Uiso 1 1 calc R U . . .
C11 C 0.38482(19) 0.3744(3) 0.1922(3) 0.0164(6) Uani 1 1 d . . . . .
C12 C 0.39380(17) 0.4807(3) 0.1638(2) 0.0169(5) Uani 1 1 d . . . . .
H12A H 0.4292 0.5374 0.2183 0.020 Uiso 1 1 calc R U . . .
C13 C 0.34953(18) 0.5057(3) 0.0515(2) 0.0184(6) Uani 1 1 d . . . . .
C131 C 0.35367(18) 0.6182(4) 0.0176(2) 0.0261(6) Uani 1 1 d . . . . .
H131 H 0.3887 0.6762 0.0707 0.031 Uiso 1 1 calc R U . . .
C132 C 0.3075(2) 0.6431(4) -0.0910(3) 0.0297(9) Uani 1 1 d . . . . .
H132 H 0.3098 0.7188 -0.1131 0.036 Uiso 1 1 calc R U . . .
C134 C 0.2565(2) 0.5563(4) -0.1703(3) 0.0293(8) Uani 1 1 d . . . . .
H134 H 0.2248 0.5740 -0.2454 0.035 Uiso 1 1 calc R U . . .
C135 C 0.2521(2) 0.4473(3) -0.1402(3) 0.0262(7) Uani 1 1 d . . . . .
H135 H 0.2180 0.3896 -0.1946 0.031 Uiso 1 1 calc R U . . .
C14 C 0.29781(19) 0.4192(3) -0.0287(3) 0.0206(6) Uani 1 1 d . . . . .
C15 C 0.2911(2) 0.3097(3) 0.0054(3) 0.0250(7) Uani 1 1 d . . . . .
H15A H 0.2567 0.2512 -0.0475 0.030 Uiso 1 1 calc R U . . .
C16 C 0.3332(2) 0.2876(3) 0.1128(3) 0.0220(6) Uani 1 1 d . . . . .
H16A H 0.3280 0.2142 0.1344 0.026 Uiso 1 1 calc R U . . .
P2 P 0.48598(4) 0.80677(7) 0.30964(6) 0.01556(15) Uani 1 1 d . . . . .
S2 S 0.59802(4) 0.89974(6) 0.52339(6) 0.01527(14) Uani 1 1 d . . . . .
O21 O 0.58532(12) 0.80000(19) 0.56384(17) 0.0165(4) Uani 1 1 d . . . . .
O22 O 0.60352(13) 1.0133(2) 0.56796(19) 0.0207(4) Uani 1 1 d . . . . .
O23 O 0.47692(13) 0.69711(19) 0.34825(17) 0.0189(4) Uani 1 1 d . . . . .
O24 O 0.51268(15) 0.7754(2) 0.2499(2) 0.0262(5) Uani 1 1 d . . . . .
O25 O 0.40538(13) 0.8611(2) 0.2120(2) 0.0205(5) Uani 1 1 d . . . . .
N2 N 0.53935(15) 0.9090(2) 0.3974(2) 0.0192(5) Uani 1 1 d . . . . .
C21 C 0.68742(18) 0.8739(3) 0.5674(3) 0.0164(6) Uani 1 1 d . . . . .
C22 C 0.72469(17) 0.7686(3) 0.6162(2) 0.0185(6) Uani 1 1 d . . . . .
H32A H 0.7045 0.7117 0.6315 0.022 Uiso 1 1 calc R U . . .
C23 C 0.79366(17) 0.7446(3) 0.6437(3) 0.0186(6) Uani 1 1 d . . . . .
C231 C 0.83280(17) 0.6353(4) 0.6916(2) 0.0236(6) Uani 1 1 d . . . . .
H231 H 0.8132 0.5765 0.7065 0.028 Uiso 1 1 calc R U . . .
C232 C 0.89877(18) 0.6143(5) 0.7164(3) 0.0285(7) Uani 1 1 d . . . . .
H232 H 0.9244 0.5407 0.7478 0.034 Uiso 1 1 calc R U . . .
C233 C 0.9288(2) 0.7013(4) 0.6954(3) 0.0324(8) Uani 1 1 d . . . . .
H233 H 0.9748 0.6859 0.7135 0.039 Uiso 1 1 calc R U . . .
C234 C 0.8923(2) 0.8079(4) 0.6490(3) 0.0276(7) Uani 1 1 d . . . . .
H234 H 0.9131 0.8655 0.6353 0.033 Uiso 1 1 calc R U . . .
C24 C 0.82377(19) 0.8321(3) 0.6217(3) 0.0223(6) Uani 1 1 d . . . . .
C25 C 0.78271(19) 0.9402(3) 0.5709(3) 0.0232(6) Uani 1 1 d . . . . .
H25A H 0.8021 0.9989 0.5556 0.028 Uiso 1 1 calc R U . . .
C26 C 0.71624(19) 0.9609(3) 0.5439(3) 0.0208(6) Uani 1 1 d . . . . .
H26A H 0.6894 1.0332 0.5095 0.025 Uiso 1 1 calc R U . . .
C27 C 0.5861(3) 0.7238(6) 0.3105(4) 0.0556(15) Uani 1 1 d . . . . .
H27A H 0.5912 0.6522 0.3477 0.083 Uiso 1 1 calc R U . . .
H27B H 0.6258 0.7808 0.3646 0.083 Uiso 1 1 calc R U . . .
H27C H 0.5917 0.7029 0.2606 0.083 Uiso 1 1 calc R U . . .
C28 C 0.4001(2) 0.9747(3) 0.1681(3) 0.0271(7) Uani 1 1 d . . . . .
H28A H 0.3465 0.9937 0.1048 0.041 Uiso 1 1 calc R U . . .
H28B H 0.4277 0.9715 0.1456 0.041 Uiso 1 1 calc R U . . .
H28C H 0.4227 1.0359 0.2240 0.041 Uiso 1 1 calc R U . . .
O30 O 0.46531(18) 0.9534(3) 0.0400(3) 0.0467(8) Uani 1 1 d . . . . .
C31 C 0.4657(3) 1.0574(4) -0.0068(4) 0.0428(10) Uani 1 1 d . . . . .
H311 H 0.4675 1.1284 0.0290 0.051 Uiso 1 1 calc R U . . .
H312 H 0.4182 1.0609 -0.0854 0.051 Uiso 1 1 calc R U . . .
C32 C 0.4650(3) 0.8517(4) -0.0082(4) 0.0483(11) Uani 1 1 d . . . . .
H321 H 0.4180 0.8506 -0.0871 0.058 Uiso 1 1 calc R U . . .
H322 H 0.4653 0.7798 0.0253 0.058 Uiso 1 1 calc R U . . .

loop_
_atom_site_aniso_label
_atom_site_aniso_U_11
_atom_site_aniso_U_22
_atom_site_aniso_U_33
_atom_site_aniso_U_23
_atom_site_aniso_U_13
_atom_site_aniso_U_12
Nd1 0.01445(10) 0.01190(9) 0.01357(9) 0.000 0.00902(8) 0.000
Na1 0.0199(7) 0.0143(6) 0.0195(7) 0.000 0.0131(6) 0.000
S1 0.0185(3) 0.0117(3) 0.0161(3) 0.0000(2) 0.0127(3) 0.0009(2)
P1 0.0159(3) 0.0137(3) 0.0160(3) -0.0016(3) 0.0110(3) -0.0009(3)
N1 0.0250(13) 0.0124(11) 0.0226(13) -0.0029(9) 0.0189(12) -0.0016(9)
O11 0.0182(10) 0.0164(10) 0.0159(10) -0.0019(8) 0.0121(9) -0.0004(8)
O12 0.0262(12) 0.0148(10) 0.0228(11) 0.0034(8) 0.0183(10) 0.0050(8)
O13 0.0154(10) 0.0152(10) 0.0223(10) -0.0031(8) 0.0125(9) -0.0020(8)
O14 0.0187(11) 0.0294(13) 0.0174(11) 0.0004(9) 0.0098(9) -0.0006(9)
O15 0.0268(12) 0.0171(11) 0.0244(12) -0.0054(9) 0.0203(11) -0.0048(9)
C17 0.031(2) 0.077(3) 0.028(2) 0.027(2) 0.0202(18) 0.021(2)
C18 0.044(2) 0.0233(17) 0.043(2) -0.0083(15) 0.037(2) -0.0118(15)
C11 0.0192(15) 0.0139(13) 0.0172(14) -0.0002(11) 0.0130(13) 0.0017(11)
C12 0.0167(13) 0.0193(14) 0.0147(13) -0.0015(11) 0.0109(12) -0.0015(10)
C13 0.0174(14) 0.0219(15) 0.0152(13) 0.0007(11) 0.0111(12) -0.0004(11)
C131 0.0290(14) 0.0255(15) 0.0204(12) -0.0002(18) 0.0159(12) -0.0057(19)
C132 0.0317(16) 0.032(2) 0.0199(14) 0.0018(13) 0.0157(13) -0.0043(14)
C134 0.0255(17) 0.040(2) 0.0149(14) 0.0011(14) 0.0111(14) -0.0042(15)
C135 0.0215(15) 0.0346(18) 0.0176(15) -0.0039(13) 0.0118(13) -0.0059(14)
C14 0.0216(15) 0.0235(15) 0.0159(13) -0.0024(11) 0.0127(13) -0.0019(12)
C15 0.0282(17) 0.0226(16) 0.0187(15) -0.0063(12) 0.0143(14) -0.0058(13)
C16 0.0292(17) 0.0151(14) 0.0207(15) -0.0024(11) 0.0169(14) -0.0024(12)
P2 0.0168(4) 0.0135(3) 0.0146(3) 0.0005(3) 0.0102(3) -0.0005(3)
S2 0.0138(3) 0.0117(3) 0.0156(3) -0.0007(2) 0.0085(3) -0.0008(2)
O21 0.0153(9) 0.0146(9) 0.0168(10) -0.0003(8) 0.0101(9) -0.0012(8)
O22 0.0187(10) 0.0154(10) 0.0225(11) -0.0039(8) 0.0123(10) -0.0009(8)
O23 0.0243(11) 0.0138(10) 0.0143(10) 0.0006(8) 0.0119(9) -0.0013(8)
O24 0.0292(13) 0.0282(13) 0.0272(12) 0.0006(10) 0.0219(11) 0.0012(10)
O25 0.0178(11) 0.0169(11) 0.0187(11) 0.0027(9) 0.0097(10) -0.0012(9)
N2 0.0181(12) 0.0137(11) 0.0148(11) 0.0025(9) 0.0075(10) -0.0013(9)
C21 0.0149(13) 0.0152(13) 0.0166(14) -0.0019(11) 0.0100(12) -0.0027(11)
C22 0.0161(14) 0.0193(14) 0.0163(13) -0.0009(11) 0.0099(12) -0.0012(11)
C23 0.0168(14) 0.0212(14) 0.0165(13) 0.0016(11) 0.0111(12) 0.0006(11)
C231 0.0220(13) 0.0250(18) 0.0248(13) 0.0064(15) 0.0167(12) 0.0033(15)
C232 0.0263(14) 0.032(2) 0.0314(15) 0.0085(19) 0.0217(13) 0.0076(18)
C233 0.0224(17) 0.047(2) 0.0324(19) 0.0126(17) 0.0209(16) 0.0096(15)
C234 0.0234(16) 0.0367(19) 0.0285(17) 0.0067(15) 0.0202(15) 0.0010(14)
C24 0.0206(15) 0.0256(16) 0.0204(15) 0.0013(12) 0.0142(13) -0.0013(12)
C25 0.0254(16) 0.0193(14) 0.0268(16) 0.0007(13) 0.0188(14) -0.0033(12)
C26 0.0232(15) 0.0144(13) 0.0246(15) 0.0005(11) 0.0166(14) -0.0017(11)
C27 0.031(2) 0.094(4) 0.040(2) -0.014(3) 0.024(2) 0.012(2)
C28 0.0248(17) 0.0229(16) 0.0233(16) 0.0080(13) 0.0129(14) 0.0031(13)
O30 0.0429(18) 0.055(2) 0.0450(18) 0.0015(15) 0.0317(16) 0.0000(15)
C31 0.043(2) 0.041(2) 0.042(2) 0.0030(19) 0.029(2) 0.0049(19)
C32 0.049(3) 0.044(3) 0.051(3) 0.001(2) 0.034(2) -0.003(2)

_geom_special_details            
;
 All esds (except the esd in the dihedral angle between two l.s. planes)
 are estimated using the full covariance matrix.  The cell esds are taken
 into account individually in the estimation of esds in distances, angles
 and torsion angles; correlations between esds in cell parameters are only
 used when they are defined by crystal symmetry.  An approximate (isotropic)
 treatment of cell esds is used for estimating esds involving l.s. planes.
;

loop_
_geom_bond_atom_site_label_1
_geom_bond_atom_site_label_2
_geom_bond_distance