
#######################################################################
#
#                 Cambridge Crystallographic Data Centre
#                                CCDC
#
#######################################################################
#
# If this CIF has been generated from an entry in the Cambridge
# Structural Database, then it will include bibliographic, chemical,
# crystal, experimental, refinement or atomic coordinate data resulting
# from the CCDC's data processing and validation procedures.
#
#######################################################################

data_CSD_CIF_LUPNIN
_audit_creation_date 1979-02-14
_audit_creation_method CSD-ConQuest-V1
_database_code_CSD LUPNIN
_database_code_depnum_ccdc_archive 'CCDC 1208755'
_chemical_formula_sum 'C10 H19 N1 O1'
_chemical_formula_moiety
;
C10 H19 N1 O1
;
_journal_coeditor_code "IUCr A16604"
_journal_coden_Cambridge 107
_journal_volume 34
_journal_year 1978
_journal_page_first 3491
_journal_name_full 'Acta Crystallogr.,Sect.B:Struct.Crystallogr.Cryst.Chem. '
loop_
_publ_author_name
"A.Koziol"
"Z.Kosturkiewcz"
"H.Podkowinska"
_chemical_name_systematic
;
Lupinine
;
_chemical_name_common
;
Teaching Subset: Fundamental Chemistry
;
_chemical_melting_point 342.15
_cell_volume    511.976
_exptl_crystal_density_diffrn 1.1
_exptl_special_details
;
x(O1) is 0.3774 not 0.6774. No study temperature is reported

;
_diffrn_ambient_temperature ?
_diffrn_special_details
;
The study was carried out at room temperature,in the range 283-303K

;
#These two values have been output from a single CSD field.
_refine_ls_R_factor_gt 0.045
_refine_ls_wR_factor_gt 0.045
_chemical_compound_source
;
from Lupinus luteus seeds
;
loop_
_citation_database_id_CSD
_citation_special_details
EPLUPN "is a stereoisomer of this entry"
_symmetry_cell_setting monoclinic
_symmetry_space_group_name_H-M 'P 21'
_symmetry_Int_Tables_number 4
loop_
_symmetry_equiv_pos_site_id
_symmetry_equiv_pos_as_xyz
1 x,y,z
2 -x,1/2+y,-z
_cell_length_a 6.746(1)
_cell_length_b 8.245(2)
_cell_length_c 10.079(2)
_cell_angle_alpha 90
_cell_angle_beta 114.04(2)
_cell_angle_gamma 90
_cell_formula_units_Z 2
loop_
_atom_type_symbol
_atom_type_radius_bond
C 0.68
H 0.23
N 0.68
O 0.68
loop_
_atom_site_label
_atom_site_type_symbol
_atom_site_fract_x
_atom_site_fract_y
_atom_site_fract_z
N1 N 0.22970 0.26130 0.28640
C1 C 0.18730 -0.03880 0.26250
C2 C 0.00850 -0.02990 0.31930
C3 C 0.04020 0.11670 0.41620
C4 C 0.05310 0.26750 0.33650
C5 C 0.22790 0.41480 0.20950
C6 C 0.40540 0.41990 0.15350
C7 C 0.38740 0.27720 0.05660
C8 C 0.38020 0.12140 0.13310
C9 C 0.20100 0.12160 0.18910
C10 C 0.40620 -0.08840 0.38240
O1 O 0.37740 -0.22940 0.45410
H1 H 0.15200 -0.12800 0.19600
H2 H -0.14100 -0.01700 0.24300
H3 H 0.03600 -0.14300 0.39300
H4 H 0.17300 0.12300 0.50300
H5 H -0.08100 0.11700 0.45100
H6 H -0.10700 0.27500 0.23300
H7 H 0.08100 0.33900 0.39700
H8 H 0.07800 0.41100 0.09900
H9 H 0.24200 0.52000 0.27900
H10 H 0.57400 0.42200 0.24800
H11 H 0.39300 0.54100 0.10700
H12 H 0.24700 0.27800 -0.03000
H13 H 0.48700 0.27400 0.00800
H14 H 0.52600 0.11400 0.21500
H15 H 0.32100 0.01400 0.04900
H16 H 0.06700 0.13000 0.09900
H17 H 0.48900 -0.00700 0.46600
H18 H 0.52000 -0.11700 0.34600
H19 H 0.50500 -0.24400 0.54600
#END
