####################################################################### 
# 
# This file contains crystal structure data downloaded from the 
# Cambridge Structural Database (CSD) hosted by the Cambridge 
# Crystallographic Data Centre (CCDC).
# 
# Full information about CCDC data access policies and citation 
# guidelines are available at http://www.ccdc.cam.ac.uk/access/V1 
# 
# Audit and citation data items may have been added by the CCDC. 
# Please retain this information to preserve the provenance of 
# this file and to allow appropriate attribution of the data. 
# 
#######################################################################

data_fed1
_audit_block_doi                 10.5517/cc6tr80
_database_code_depnum_ccdc_archive 'CCDC 203492'
_audit_update_record             
;
2003-02-07 deposited with the CCDC.	2024-07-11 downloaded from the CCDC.
;


_audit_creation_method           SHELXL-97
_chemical_name_systematic        
; 
? 
;
_chemical_name_common            ?
_chemical_melting_point          ?
_chemical_formula_moiety         ?
_chemical_formula_sum            'C10 H24 N2 Na O13 V'
_chemical_formula_weight         454.24

loop_
_atom_type_symbol
_atom_type_description
_atom_type_scat_dispersion_real
_atom_type_scat_dispersion_imag
_atom_type_scat_source
C C 0.0033 0.0016 'International Tables Vol C Tables 4.2.6.8 and 6.1.1.4'
H H 0.0000 0.0000 'International Tables Vol C Tables 4.2.6.8 and 6.1.1.4'
N N 0.0061 0.0033 'International Tables Vol C Tables 4.2.6.8 and 6.1.1.4'
Na Na 0.0362 0.0249 'International Tables Vol C Tables 4.2.6.8 and 6.1.1.4'
O O 0.0106 0.0060 'International Tables Vol C Tables 4.2.6.8 and 6.1.1.4'
V V 0.3005 0.5294 'International Tables Vol C Tables 4.2.6.8 and 6.1.1.4'

_symmetry_cell_setting           triclinic
_symmetry_space_group_name_H-M   P-1

loop_
_symmetry_equiv_pos_as_xyz
'x, y, z'
'-x, -y, -z'

_cell_length_a                   7.200(4)
_cell_length_b                   11.245(4)
_cell_length_c                   13.703(5)
_cell_angle_alpha                111.66(2)
_cell_angle_beta                 90.86(2)
_cell_angle_gamma                88.01(2)
_cell_volume                     1030.5(8)
_cell_formula_units_Z            2
_cell_measurement_temperature    293(2)
_cell_measurement_reflns_used    ?
_cell_measurement_theta_min      ?
_cell_measurement_theta_max      ?

_exptl_crystal_description       ?
_exptl_crystal_colour            ?
_exptl_crystal_size_max          0.30
_exptl_crystal_size_mid          0.30
_exptl_crystal_size_min          0.30
_exptl_crystal_density_meas      ?
_exptl_crystal_density_diffrn    1.464
_exptl_crystal_density_method    'not measured'
_exptl_crystal_F_000             472
_exptl_absorpt_coefficient_mu    0.564
_exptl_absorpt_correction_type   ?
_exptl_absorpt_correction_T_min  0.8490
_exptl_absorpt_correction_T_max  0.8490
_exptl_absorpt_process_details   ?

_exptl_special_details           
; 
? 
;

_diffrn_ambient_temperature      293(2)
_diffrn_radiation_wavelength     0.71073
_diffrn_radiation_type           MoK\a
_diffrn_radiation_source         'fine-focus sealed tube'
_diffrn_radiation_monochromator  graphite
_diffrn_measurement_device_type  ?
_diffrn_measurement_method       ?
_diffrn_detector_area_resol_mean ?
_diffrn_standards_number         ?
_diffrn_standards_interval_count ?
_diffrn_standards_interval_time  ?
_diffrn_standards_decay_%        ?
_diffrn_reflns_number            4218
_diffrn_reflns_av_R_equivalents  0.0321
_diffrn_reflns_av_sigmaI/netI    0.0270
_diffrn_reflns_limit_h_min       -9
_diffrn_reflns_limit_h_max       8
_diffrn_reflns_limit_k_min       -13
_diffrn_reflns_limit_k_max       12
_diffrn_reflns_limit_l_min       0
_diffrn_reflns_limit_l_max       16
_diffrn_reflns_theta_min         1.60
_diffrn_reflns_theta_max         27.97
_reflns_number_total             4048
_reflns_number_gt                3536
_reflns_threshold_expression     >2sigma(I)

_computing_data_collection       ?
_computing_cell_refinement       ?
_computing_data_reduction        ?
_computing_structure_solution    'SHELXS-97 (Sheldrick, 1990)'
_computing_structure_refinement  'SHELXL-97 (Sheldrick, 1997)'
_computing_molecular_graphics    ?
_computing_publication_material  ?

_refine_special_details          
; 
Refinement of F^2^ against ALL reflections.  The weighted R-factor wR and 
goodness of fit S are based on F^2^, conventional R-factors R are based 
on F, with F set to zero for negative F^2^. The threshold expression of 
F^2^ > 2sigma(F^2^) is used only for calculating R-factors(gt) etc. and is 
not relevant to the choice of reflections for refinement.  R-factors based 
on F^2^ are statistically about twice as large as those based on F, and R- 
factors based on ALL data will be even larger. 
;

_refine_ls_structure_factor_coef Fsqd
_refine_ls_matrix_type           full
_refine_ls_weighting_scheme      calc
_refine_ls_weighting_details     
'calc w=1/[\s^2^(Fo^2^)+(0.0569P)^2^+0.0582P] where P=(Fo^2^+2Fc^2^)/3'
_atom_sites_solution_primary     direct
_atom_sites_solution_secondary   difmap
_atom_sites_solution_hydrogens   geom
_refine_ls_hydrogen_treatment    refall
_refine_ls_extinction_method     SHELXL
_refine_ls_extinction_coef       0.0096(15)
_refine_ls_extinction_expression Fc^*^=kFc[1+0.001xFc^2^\l^3^/sin(2\q)]^-1/4^
_refine_ls_number_reflns         4048
_refine_ls_number_parameters     341
_refine_ls_number_restraints     0
_refine_ls_R_factor_all          0.0404
_refine_ls_R_factor_gt           0.0329
_refine_ls_wR_factor_ref         0.0836
_refine_ls_wR_factor_gt          0.0790
_refine_ls_goodness_of_fit_ref   0.985
_refine_ls_restrained_S_all      0.985
_refine_ls_shift/su_max          0.015
_refine_ls_shift/su_mean         0.001

loop_
_atom_site_label
_atom_site_type_symbol
_atom_site_fract_x
_atom_site_fract_y
_atom_site_fract_z
_atom_site_U_iso_or_equiv
_atom_site_adp_type
_atom_site_occupancy
_atom_site_symmetry_multiplicity
_atom_site_calc_flag
_atom_site_refinement_flags
_atom_site_disorder_assembly
_atom_site_disorder_group
V1 V 0.74980(4) 0.20388(2) 0.26343(2) 0.02315(10) Uani 1 1 d . . .
Na2 Na 0.74974(9) 0.50071(6) 0.50659(5) 0.03028(17) Uani 1 1 d . . .
O1 O 0.74187(19) 0.35723(11) 0.32021(9) 0.0350(3) Uani 1 1 d . . .
O11 O 0.57327(18) 0.15172(12) 0.33828(9) 0.0348(3) Uani 1 1 d . . .
O12 O 0.49042(17) 0.16954(12) 0.24672(10) 0.0359(3) Uani 1 1 d . . .
O22 O 1.01212(17) 0.17219(12) 0.24391(10) 0.0352(3) Uani 1 1 d . . .
O21 O 0.94107(18) 0.15368(12) 0.33638(9) 0.0345(3) Uani 1 1 d . . .
O2 O 0.7540(2) 0.62385(14) 0.69049(11) 0.0346(3) Uani 1 1 d . . .
O3 O 0.4242(3) 0.29812(19) 0.69342(14) 0.0527(4) Uani 1 1 d . . .
O4 O 0.50389(19) 0.36929(14) 0.51902(13) 0.0340(3) Uani 1 1 d . . .
O5 O 0.0358(2) 0.2955(2) 0.69545(15) 0.0516(4) Uani 1 1 d . . .
O6 O 1.01455(19) 0.36782(14) 0.51622(12) 0.0342(3) Uani 1 1 d . . .
O7 O 0.9325(3) 0.04045(18) 0.60414(18) 0.0540(4) Uani 1 1 d . . .
O8 O 0.5488(3) 0.04247(18) 0.6071(2) 0.0566(4) Uani 1 1 d . . .
O9 O 0.7318(3) 0.45083(18) 0.78995(14) 0.0539(4) Uani 1 1 d . . .
N11 N 0.75841(19) -0.00331(13) 0.14313(10) 0.0264(3) Uani 1 1 d . . .
C12 C 0.7675(3) -0.10826(17) 0.16667(15) 0.0336(4) Uani 1 1 d . . .
C13 C 0.7721(3) -0.22992(19) 0.09165(16) 0.0425(5) Uani 1 1 d . . .
C14 C 0.7651(3) -0.24358(19) -0.01287(16) 0.0437(5) Uani 1 1 d . . .
C15 C 0.7557(3) -0.13672(19) -0.03846(14) 0.0373(4) Uani 1 1 d . . .
C16 C 0.7528(2) -0.01684(16) 0.04179(12) 0.0264(3) Uani 1 1 d . . .
C17 C 0.7428(2) 0.10432(17) 0.02299(13) 0.0292(4) Uani 1 1 d . . .
C18 C 0.7369(3) 0.1087(2) -0.07674(16) 0.0424(5) Uani 1 1 d . . .
C19 C 0.7279(4) 0.2244(2) -0.08807(18) 0.0528(6) Uani 1 1 d . . .
C20 C 0.7249(4) 0.3351(2) -0.00013(19) 0.0525(6) Uani 1 1 d . . .
C21 C 0.7314(3) 0.3258(2) 0.09771(17) 0.0423(5) Uani 1 1 d . . .
N22 N 0.7401(2) 0.21245(14) 0.10934(11) 0.0290(3) Uani 1 1 d . . .
H12 H 0.776(3) -0.0927(18) 0.2338(17) 0.029(5) Uiso 1 1 d . . .
H13 H 0.778(3) -0.306(2) 0.1156(17) 0.049(6) Uiso 1 1 d . . .
H14 H 0.765(4) -0.330(2) -0.0657(19) 0.056(7) Uiso 1 1 d . . .
H15 H 0.749(3) -0.146(2) -0.1072(19) 0.048(6) Uiso 1 1 d . . .
H18 H 0.733(4) 0.040(2) -0.132(2) 0.058(7) Uiso 1 1 d . . .
H19 H 0.720(4) 0.226(2) -0.157(2) 0.062(7) Uiso 1 1 d . . .
H20 H 0.723(4) 0.421(3) -0.002(2) 0.064(8) Uiso 1 1 d . . .
H21 H 0.736(3) 0.395(2) 0.1604(18) 0.039(5) Uiso 1 1 d . . .
H2A H 0.841(4) 0.670(2) 0.7073(18) 0.044(7) Uiso 1 1 d . . .
H2B H 0.679(4) 0.664(2) 0.6959(19) 0.044(8) Uiso 1 1 d . . .
H3A H 0.452(5) 0.220(3) 0.667(2) 0.076(10) Uiso 1 1 d . . .
H3B H 0.318(5) 0.295(3) 0.698(2) 0.072(10) Uiso 1 1 d . . .
H4A H 0.513(4) 0.310(3) 0.471(2) 0.048(7) Uiso 1 1 d . . .
H4B H 0.493(3) 0.346(2) 0.563(2) 0.041(7) Uiso 1 1 d . . .
H5A H 0.001(4) 0.221(3) 0.671(2) 0.059(8) Uiso 1 1 d . . .
H5B H -0.039(5) 0.340(3) 0.725(3) 0.081(12) Uiso 1 1 d . . .
H6A H 0.997(3) 0.305(3) 0.467(2) 0.047(7) Uiso 1 1 d . . .
H6B H 1.018(4) 0.345(2) 0.562(2) 0.050(8) Uiso 1 1 d . . .
H7A H 0.961(4) -0.013(3) 0.628(2) 0.058(8) Uiso 1 1 d . . .
H7B H 0.916(8) 0.013(5) 0.551(4) 0.15(2) Uiso 1 1 d . . .
H8A H 0.530(4) -0.008(3) 0.632(2) 0.068(9) Uiso 1 1 d . . .
H8B H 0.566(9) 0.027(6) 0.561(4) 0.19(3) Uiso 1 1 d . . .
H9A H 0.727(4) 0.503(3) 0.761(2) 0.056(8) Uiso 1 1 d . . .
H9B H 0.648(5) 0.413(3) 0.765(2) 0.073(11) Uiso 1 1 d . . .

loop_
_atom_site_aniso_label
_atom_site_aniso_U_11
_atom_site_aniso_U_22
_atom_site_aniso_U_33
_atom_site_aniso_U_23
_atom_site_aniso_U_13
_atom_site_aniso_U_12
V1 0.02263(15) 0.02360(16) 0.02055(15) 0.00481(11) 0.00220(10) -0.00204(10)
Na2 0.0247(3) 0.0305(4) 0.0326(4) 0.0080(3) 0.0019(3) -0.0021(3)
O1 0.0458(8) 0.0275(6) 0.0286(6) 0.0066(5) 0.0021(5) -0.0024(5)
O11 0.0353(7) 0.0373(7) 0.0302(6) 0.0099(5) 0.0086(5) -0.0047(5)
O12 0.0253(6) 0.0420(7) 0.0368(7) 0.0102(6) 0.0024(5) -0.0002(5)
O22 0.0254(6) 0.0416(7) 0.0349(7) 0.0092(6) 0.0033(5) -0.0056(5)
O21 0.0339(7) 0.0379(7) 0.0303(6) 0.0111(5) -0.0041(5) -0.0011(5)
O2 0.0289(7) 0.0315(7) 0.0387(7) 0.0075(6) 0.0020(6) -0.0021(6)
O3 0.0482(10) 0.0537(11) 0.0625(10) 0.0281(8) 0.0052(8) -0.0104(8)
O4 0.0351(7) 0.0331(7) 0.0329(7) 0.0109(7) 0.0073(6) -0.0011(5)
O5 0.0479(10) 0.0509(10) 0.0612(10) 0.0267(9) 0.0042(8) -0.0011(9)
O6 0.0358(7) 0.0337(7) 0.0327(7) 0.0115(7) -0.0012(6) -0.0052(5)
O7 0.0517(10) 0.0488(9) 0.0698(12) 0.0320(9) -0.0023(8) 0.0022(7)
O8 0.0538(10) 0.0507(10) 0.0765(13) 0.0362(10) 0.0095(9) -0.0037(8)
O9 0.0644(12) 0.0457(9) 0.0531(10) 0.0199(8) -0.0048(9) -0.0037(8)
N11 0.0219(6) 0.0297(7) 0.0241(7) 0.0057(6) 0.0015(5) -0.0019(5)
C12 0.0394(10) 0.0330(9) 0.0276(9) 0.0098(7) 0.0006(7) -0.0037(7)
C13 0.0506(12) 0.0309(10) 0.0423(11) 0.0092(8) 0.0026(9) -0.0011(8)
C14 0.0493(12) 0.0324(10) 0.0366(10) -0.0025(8) 0.0016(9) -0.0027(9)
C15 0.0384(10) 0.0419(11) 0.0230(9) 0.0018(8) 0.0019(7) -0.0026(8)
C16 0.0174(7) 0.0339(9) 0.0239(8) 0.0059(7) 0.0016(6) -0.0027(6)
C17 0.0204(8) 0.0396(9) 0.0272(8) 0.0114(7) 0.0020(6) -0.0033(7)
C18 0.0476(12) 0.0512(12) 0.0282(10) 0.0140(9) 0.0002(8) -0.0049(9)
C19 0.0627(15) 0.0685(15) 0.0373(11) 0.0310(11) -0.0011(10) -0.0044(12)
C20 0.0639(15) 0.0531(13) 0.0530(13) 0.0343(11) -0.0002(11) -0.0017(11)
C21 0.0517(12) 0.0365(10) 0.0407(11) 0.0164(9) 0.0003(9) -0.0028(9)
N22 0.0276(7) 0.0327(8) 0.0276(7) 0.0120(6) 0.0017(6) -0.0018(6)

_geom_special_details            
; 
All esds (except the esd in the dihedral angle between two l.s. planes) 
are estimated using the full covariance matrix.  The cell esds are taken 
into account individually in the estimation of esds in distances, angles 
and torsion angles; correlations between esds in cell parameters are only 
used when they are defined by crystal symmetry.  An approximate (isotropic) 
treatment of cell esds is used for estimating esds involving l.s. planes. 
;

loop_
_geom_bond_atom_site_label_1
_geom_bond_atom_site_label_2
_geom_bond_distance
_geom_bond_site_symmetry_2
_geom_bond_publ_flag
V1 O1 1.6082(14) . ?
V1 O21 1.8804(14) . ?
V1 O11 1.8833(14) . ?
V1 O12 1.9135(16) . ?
V1 O22 1.9141(16) . ?
V1 N22 2.1490(16) . ?
V1 N11 2.3038(16) . ?
Na2 O6 2.3864(17) 2_766 ?
Na2 O2 2.3861(17) . ?
Na2 O4 2.3922(18) . ?
Na2 O4 2.4018(18) 2_666 ?
Na2 O6 2.4138(18) . ?
Na2 O1 2.4677(16) . ?
Na2 Na2 3.598(2) 2_666 ?
Na2 Na2 3.610(2) 2_766 ?
Na2 H2B 2.61(3) . ?
Na2 H6A 2.68(2) . ?
O11 O12 1.4577(19) . ?
O22 O21 1.4602(18) . ?
O2 H2A 0.81(3) . ?
O2 H2B 0.68(3) . ?
O3 H3A 0.83(3) . ?
O3 H3B 0.77(3) . ?
O4 Na2 2.4018(18) 2_666 ?
O4 H4A 0.75(3) . ?
O4 H4B 0.74(3) . ?
O5 H5A 0.82(3) . ?
O5 H5B 0.74(4) . ?
O6 Na2 2.3864(17) 2_766 ?
O6 H6A 0.79(3) . ?
O6 H6B 0.75(3) . ?
O7 H7A 0.81(3) . ?
O7 H7B 0.69(5) . ?
O8 H8A 0.78(3) . ?
O8 H8B 0.60(6) . ?
O9 H9A 0.82(3) . ?
O9 H9B 0.76(3) . ?
N11 C12 1.333(2) . ?
N11 C16 1.340(2) . ?
C12 C13 1.374(3) . ?
C12 H12 0.87(2) . ?
C13 C14 1.383(3) . ?
C13 H13 1.02(2) . ?
C14 C15 1.370(3) . ?
C14 H14 0.97(2) . ?
C15 C16 1.390(3) . ?
C15 H15 0.91(2) . ?
C16 C17 1.476(3) . ?
C17 N22 1.347(2) . ?
C17 C18 1.386(3) . ?
C18 C19 1.365(3) . ?
C18 H18 0.86(3) . ?
C19 C20 1.376(4) . ?
C19 H19 0.95(3) . ?
C20 C21 1.383(3) . ?
C20 H20 0.98(3) . ?
C21 N22 1.340(2) . ?
C21 H21 0.92(2) . ?

loop_
_geom_angle_atom_site_label_1
_geom_angle_atom_site_label_2
_geom_angle_atom_site_label_3
_geom_angle
_geom_angle_site_symmetry_1
_geom_angle_site_symmetry_3
_geom_angle_publ_flag
O1 V1 O21 102.99(7) . . ?
O1 V1 O11 103.06(7) . . ?
O21 V1 O11 89.50(7) . . ?
O1 V1 O12 100.68(7) . . ?
O21 V1 O12 132.64(6) . . ?
O11 V1 O12 45.15(6) . . ?
O1 V1 O22 100.60(7) . . ?
O21 V1 O22 45.25(6) . . ?
O11 V1 O22 132.73(6) . . ?
O12 V1 O22 158.17(6) . . ?
O1 V1 N22 92.69(6) . . ?
O21 V1 N22 131.67(6) . . ?
O11 V1 N22 131.26(6) . . ?
O12 V1 N22 86.94(6) . . ?
O22 V1 N22 87.26(6) . . ?
O1 V1 N11 165.04(6) . . ?
O21 V1 N11 87.50(6) . . ?
O11 V1 N11 87.48(6) . . ?
O12 V1 N11 79.10(6) . . ?
O22 V1 N11 79.09(6) . . ?
N22 V1 N11 72.35(6) . . ?
O6 Na2 O2 88.84(6) 2_766 . ?
O6 Na2 O4 176.19(6) 2_766 . ?
O2 Na2 O4 94.05(6) . . ?
O6 Na2 O4 94.76(7) 2_766 2_666 ?
O2 Na2 O4 91.14(7) . 2_666 ?
O4 Na2 O4 82.71(7) . 2_666 ?
O6 Na2 O6 82.45(7) 2_766 . ?
O2 Na2 O6 93.36(7) . . ?
O4 Na2 O6 99.83(7) . . ?
O4 Na2 O6 174.65(6) 2_666 . ?
O6 Na2 O1 94.96(6) 2_766 . ?
O2 Na2 O1 175.15(5) . . ?
O4 Na2 O1 82.29(6) . . ?
O4 Na2 O1 91.55(6) 2_666 . ?
O6 Na2 O1 84.17(6) . . ?
O6 Na2 Na2 135.95(5) 2_766 2_666 ?
O2 Na2 Na2 93.45(5) . 2_666 ?
O4 Na2 Na2 41.46(4) . 2_666 ?
O4 Na2 Na2 41.26(4) 2_666 2_666 ?
O6 Na2 Na2 141.08(5) . 2_666 ?
O1 Na2 Na2 85.92(5) . 2_666 ?
O6 Na2 Na2 41.51(4) 2_766 2_766 ?
O2 Na2 Na2 91.48(5) . 2_766 ?
O4 Na2 Na2 140.69(5) . 2_766 ?
O4 Na2 Na2 136.10(5) 2_666 2_766 ?
O6 Na2 Na2 40.94(4) . 2_766 ?
O1 Na2 Na2 89.38(5) . 2_766 ?
Na2 Na2 Na2 174.42(4) 2_666 2_766 ?
O6 Na2 H2B 91.4(6) 2_766 . ?
O2 Na2 H2B 14.8(6) . . ?
O4 Na2 H2B 90.8(6) . . ?
O4 Na2 H2B 76.4(6) 2_666 . ?
O6 Na2 H2B 108.1(6) . . ?
O1 Na2 H2B 166.8(6) . . ?
Na2 Na2 H2B 81.5(6) 2_666 . ?
Na2 Na2 H2B 103.0(6) 2_766 . ?
O6 Na2 H6A 90.3(5) 2_766 . ?
O2 Na2 H6A 108.5(6) . . ?
O4 Na2 H6A 91.1(5) . . ?
O4 Na2 H6A 159.8(6) 2_666 . ?
O6 Na2 H6A 16.9(6) . . ?
O1 Na2 H6A 68.5(6) . . ?
Na2 Na2 H6A 129.8(6) 2_666 . ?
Na2 Na2 H6A 50.5(6) 2_766 . ?
H2B Na2 H6A 123.1(8) . . ?
V1 O1 Na2 132.46(7) . . ?
O12 O11 V1 68.52(8) . . ?
O11 O12 V1 66.33(7) . . ?
O21 O22 V1 66.15(7) . . ?
O22 O21 V1 68.59(8) . . ?
Na2 O2 H2A 112.2(17) . . ?
Na2 O2 H2B 102(2) . . ?
H2A O2 H2B 104(3) . . ?
H3A O3 H3B 100(3) . . ?
Na2 O4 Na2 97.29(7) . 2_666 ?
Na2 O4 H4A 105(2) . . ?
Na2 O4 H4A 108.5(19) 2_666 . ?
Na2 O4 H4B 124.7(19) . . ?
Na2 O4 H4B 115.8(19) 2_666 . ?
H4A O4 H4B 105(3) . . ?
H5A O5 H5B 112(3) . . ?
Na2 O6 Na2 97.55(7) 2_766 . ?
Na2 O6 H6A 114.7(18) 2_766 . ?
Na2 O6 H6A 100.9(18) . . ?
Na2 O6 H6B 121(2) 2_766 . ?
Na2 O6 H6B 117(2) . . ?
H6A O6 H6B 104(3) . . ?
H7A O7 H7B 111(5) . . ?
H8A O8 H8B 122(6) . . ?
H9A O9 H9B 99(3) . . ?
C12 N11 C16 118.60(15) . . ?
C12 N11 V1 125.31(12) . . ?
C16 N11 V1 116.09(11) . . ?
N11 C12 C13 122.96(18) . . ?
N11 C12 H12 113.9(13) . . ?
C13 C12 H12 123.1(13) . . ?
C12 C13 C14 118.30(19) . . ?
C12 C13 H13 118.6(13) . . ?
C14 C13 H13 123.1(13) . . ?
C15 C14 C13 119.50(18) . . ?
C15 C14 H14 122.3(14) . . ?
C13 C14 H14 118.2(14) . . ?
C14 C15 C16 118.87(18) . . ?
C14 C15 H15 119.5(14) . . ?
C16 C15 H15 121.6(14) . . ?
N11 C16 C15 121.76(17) . . ?
N11 C16 C17 114.93(14) . . ?
C15 C16 C17 123.31(16) . . ?
N22 C17 C18 121.16(18) . . ?
N22 C17 C16 115.96(15) . . ?
C18 C17 C16 122.88(17) . . ?
C19 C18 C17 119.6(2) . . ?
C19 C18 H18 119.2(17) . . ?
C17 C18 H18 121.1(17) . . ?
C18 C19 C20 119.5(2) . . ?
C18 C19 H19 118.8(16) . . ?
C20 C19 H19 121.7(16) . . ?
C21 C20 C19 118.8(2) . . ?
C21 C20 H20 117.3(16) . . ?
C19 C20 H20 123.9(15) . . ?
N22 C21 C20 122.0(2) . . ?
N22 C21 H21 113.6(13) . . ?
C20 C21 H21 124.3(13) . . ?
C21 N22 C17 118.96(16) . . ?
C21 N22 V1 120.38(13) . . ?
C17 N22 V1 120.66(12) . . ?

_diffrn_measured_fraction_theta_max 0.815
_diffrn_reflns_theta_full        27.97
_diffrn_measured_fraction_theta_full 0.815
_refine_diff_density_max         0.411
_refine_diff_density_min         -0.546
_refine_diff_density_rms         0.055

