####################################################################### 
# 
# This file contains crystal structure data downloaded from the 
# Cambridge Structural Database (CSD) hosted by the Cambridge 
# Crystallographic Data Centre (CCDC).
# 
# Full information about CCDC data access policies and citation 
# guidelines are available at http://www.ccdc.cam.ac.uk/access/V1 
# 
# Audit and citation data items may have been added by the CCDC. 
# Please retain this information to preserve the provenance of 
# this file and to allow appropriate attribution of the data. 
# 
#######################################################################

data_1
_audit_block_doi                 10.5517/cc1jlw22
_database_code_depnum_ccdc_archive 'CCDC 1418314'
loop_
_citation_id
_citation_doi
_citation_year
1 10.1039/C5CC07004J 2015
_audit_update_record             
;
2015-08-19 deposited with the CCDC.	2024-07-11 downloaded from the CCDC.
;

_audit_creation_method           SHELXL-97
_chemical_name_systematic        
;
 ?
;
_chemical_name_common            ?
_chemical_melting_point          ?
_chemical_formula_moiety         ?
_chemical_formula_sum            'C46 H25 N2.50 O16 Zn4'
_chemical_formula_weight         1130.17

loop_
_atom_type_symbol
_atom_type_description
_atom_type_scat_dispersion_real
_atom_type_scat_dispersion_imag
_atom_type_scat_source
C C 0.0033 0.0016 'International Tables Vol C Tables 4.2.6.8 and 6.1.1.4'
H H 0.0000 0.0000 'International Tables Vol C Tables 4.2.6.8 and 6.1.1.4'
N N 0.0061 0.0033 'International Tables Vol C Tables 4.2.6.8 and 6.1.1.4'
O O 0.0106 0.0060 'International Tables Vol C Tables 4.2.6.8 and 6.1.1.4'
Zn Zn 0.2839 1.4301 'International Tables Vol C Tables 4.2.6.8 and 6.1.1.4'

_space_group_crystal_system      monoclinic
_space_group_IT_number           14
_space_group_name_H-M_alt        'P 21/c'
_space_group_name_Hall           '-P 2ybc'

loop_
_symmetry_equiv_pos_as_xyz
'x, y, z'
'-x, y+1/2, -z+1/2'
'-x, -y, -z'
'x, -y-1/2, z-1/2'

_cell_length_a                   24.736(7)
_cell_length_b                   21.701(7)
_cell_length_c                   25.337(7)
_cell_angle_alpha                90.00
_cell_angle_beta                 109.956(5)
_cell_angle_gamma                90.00
_cell_volume                     12785(6)
_cell_formula_units_Z            4
_cell_measurement_temperature    296(2)
_cell_measurement_reflns_used    72583
_cell_measurement_theta_min      0.9
_cell_measurement_theta_max      25

_exptl_crystal_description       block
_exptl_crystal_colour            yellow
_exptl_crystal_size_max          0.26
_exptl_crystal_size_mid          0.25
_exptl_crystal_size_min          0.25
_exptl_crystal_density_meas      ?
_exptl_crystal_density_diffrn    0.587
_exptl_crystal_density_method    'not measured'
_exptl_crystal_F_000             2266
_exptl_absorpt_coefficient_mu    0.768
_exptl_absorpt_correction_type   multi-scan
_exptl_absorpt_correction_T_min  0.8253
_exptl_absorpt_correction_T_max  0.8311
_exptl_absorpt_process_details   'SADABS, Sheldrick (2008)'

_exptl_special_details           
;
 ?
;

_diffrn_ambient_temperature      296(2)
_diffrn_radiation_wavelength     0.71073
_diffrn_radiation_type           MoK\a
_diffrn_radiation_source         'fine-focus sealed tube'
_diffrn_radiation_monochromator  graphite
_diffrn_measurement_device_type  'Bruker SMART Apex II CCD Detector'
_diffrn_measurement_method       \w
_diffrn_detector_area_resol_mean ?
_diffrn_standards_number         ?
_diffrn_standards_interval_count ?
_diffrn_standards_interval_time  ?
_diffrn_standards_decay_%        ?
_diffrn_reflns_number            72583
_diffrn_reflns_av_R_equivalents  0.0991
_diffrn_reflns_av_sigmaI/netI    0.1354
_diffrn_reflns_limit_h_min       -27
_diffrn_reflns_limit_h_max       29
_diffrn_reflns_limit_k_min       -25
_diffrn_reflns_limit_k_max       17
_diffrn_reflns_limit_l_min       -30
_diffrn_reflns_limit_l_max       28
_diffrn_reflns_theta_min         0.88
_diffrn_reflns_theta_max         25.00
_reflns_number_total             22447
_reflns_number_gt                10828
_reflns_threshold_expression     >2\s(I)

_computing_data_collection       'Bruker APEX2'
_computing_cell_refinement       'Bruker SAINT'
_computing_data_reduction        'Bruker SAINT'
_computing_structure_solution    'SHELXS-97 (Sheldrick, 2008)'
_computing_structure_refinement  'SHELXL-97 (Sheldrick, 2008)'
_computing_molecular_graphics    Diamond
_computing_publication_material  'SHELXTL (Sheldrick, 2008)'

_refine_special_details          
;
 Refinement of F^2^ against ALL reflections.  The weighted R-factor wR and
 goodness of fit S are based on F^2^, conventional R-factors R are based
 on F, with F set to zero for negative F^2^. The threshold expression of
 F^2^ > 2\s(F^2^) is used only for calculating R-factors(gt) etc. and is
 not relevant to the choice of reflections for refinement.  R-factors based
 on F^2^ are statistically about twice as large as those based on F, and R-
 factors based on ALL data will be even larger.

1. Fixed Uiso
 At 1.2 times of:
  All C(H) groups
2. Restrained distances
 N3-C45
 1.468 with sigma of 0.001
 N3-O16 = N3-O17
 1.21 with sigma of 0.001
 O16-O17
 2.14 with sigma of 0.02
3. Uiso/Uaniso restraints and constraints
N1 \\sim N2 \\sim N3 \\sim O1 \\sim O2 \\sim O3 \\sim O4 \\sim O5 \\sim O6
\\sim O7 \\sim O8 \\sim O9 \\sim O10 \\sim O11 \\sim O12 \\sim O13 \\sim O14
\\sim O15 \\sim O16 \\sim O17 \\sim C1 \\sim C2 \\sim C3 \\sim C4 \\sim C5
\\sim C6 \\sim C7 \\sim C8 \\sim C9 \\sim C10 \\sim C11 \\sim C12 \\sim C13
\\sim C14 \\sim C15 \\sim C16 \\sim C17 \\sim C18 \\sim C19 \\sim C20 \\sim C21
\\sim C22 \\sim C23 \\sim C24 \\sim C25 \\sim C26 \\sim C27 \\sim C28 \\sim C29
\\sim C30 \\sim C31 \\sim C32 \\sim C33 \\sim C34 \\sim C35 \\sim C36 \\sim C37
\\sim C38 \\sim C39 \\sim C40 \\sim C41 \\sim C42 \\sim C43 \\sim C44 \\sim C45
\\sim C46: within 5A with sigma of 0.01 and sigma for terminal atoms of 0.03
Uanis(N1) \\sim Ueq, Uanis(N2) \\sim Ueq: with sigma of 0.01 and sigma for
terminal atoms of 0.02
Uanis(N3) \\sim Ueq, Uanis(O16) \\sim Ueq, Uanis(O17) \\sim Ueq: with sigma of
0.003 and sigma for terminal atoms of 0.006
4. Others
 Fixed Sof: N3(0.5) O16(0.5) O17(0.5)
5.a Aromatic/amide H refined with riding coordinates:
 C2(H2), C3(H3), C5(H5), C6(H6), C8(H8), C9(H9), C11(H11), C12(H12), C14(H14),
 C15(H15), C17(H17), C18(H18), C23(H23), C24(H24), C26(H26), C27(H27), C29(H29),
  C30(H30), C32(H32), C33(H33), C35(H35), C36(H36), C38(H38), C39(H39), C43(H43)
;
# SQUEEZE RESULTS (Version =  50315)
# Note: Data are Listed for all Voids in the P1 Unit Cell
# i.e. Centre of Gravity, Solvent Accessible Volume,
# Recovered number of Electrons in the Void and
# Details about the Squeezed Material
loop_
_platon_squeeze_void_nr
_platon_squeeze_void_average_x
_platon_squeeze_void_average_y
_platon_squeeze_void_average_z
_platon_squeeze_void_volume
_platon_squeeze_void_count_electrons
_platon_squeeze_void_content
1 -0.005 -0.010 -0.002 9294 2907 ' '
_platon_squeeze_void_probe_radius 1.20
_platon_squeeze_details          ?

_refine_ls_structure_factor_coef Fsqd
_refine_ls_matrix_type           full
_refine_ls_weighting_scheme      calc
_refine_ls_weighting_details     
'calc w=1/[\s^2^(Fo^2^)+(0.0414P)^2^+0.0000P] where P=(Fo^2^+2Fc^2^)/3'
_atom_sites_solution_primary     direct
_atom_sites_solution_secondary   difmap
_atom_sites_solution_hydrogens   geom
_refine_ls_hydrogen_treatment    constr
_refine_ls_extinction_method     SHELXL
_refine_ls_extinction_coef       0.000017(6)
_refine_ls_extinction_expression Fc^*^=kFc[1+0.001xFc^2^\l^3^/sin(2\q)]^-1/4^
_refine_ls_number_reflns         22447
_refine_ls_number_parameters     632
_refine_ls_number_restraints     2632
_refine_ls_R_factor_all          0.0958
_refine_ls_R_factor_gt           0.0454
_refine_ls_wR_factor_ref         0.0999
_refine_ls_wR_factor_gt          0.0921
_refine_ls_goodness_of_fit_ref   0.778
_refine_ls_restrained_S_all      0.796
_refine_ls_shift/su_max          0.002
_refine_ls_shift/su_mean         0.000

loop_
_atom_site_label
_atom_site_type_symbol
_atom_site_fract_x
_atom_site_fract_y
_atom_site_fract_z
_atom_site_U_iso_or_equiv
_atom_site_adp_type
_atom_site_occupancy
_atom_site_symmetry_multiplicity
_atom_site_calc_flag
_atom_site_refinement_flags
_atom_site_disorder_assembly
_atom_site_disorder_group
C1 C -0.18319(16) 0.40285(19) -0.06848(14) 0.0561(10) Uani 1 1 d U . .
C2 C -0.12732(17) 0.3867(2) -0.04752(15) 0.0694(11) Uani 1 1 d U . .
H2A H -0.1052 0.3897 -0.0706 0.083 Uiso 1 1 calc R . .
C3 C -0.10132(17) 0.3658(2) 0.00695(16) 0.0731(10) Uani 1 1 d U . .
H3A H -0.0623 0.3564 0.0205 0.088 Uiso 1 1 calc R . .
C4 C -0.13428(17) 0.3592(2) 0.04064(16) 0.0666(10) Uani 1 1 d U . .
C5 C -0.19134(17) 0.3747(2) 0.02104(15) 0.0718(10) Uani 1 1 d U . .
H5A H -0.2134 0.3712 0.0441 0.086 Uiso 1 1 calc R . .
C6 C -0.21603(17) 0.3960(2) -0.03387(15) 0.0693(11) Uani 1 1 d U . .
H6A H -0.2550 0.4057 -0.0476 0.083 Uiso 1 1 calc R . .
C7 C 0.05614(16) 0.4103(2) 0.18465(15) 0.0591(10) Uani 1 1 d U . .
C8 C 0.01048(16) 0.4475(2) 0.15812(16) 0.0732(11) Uani 1 1 d U . .
H8A H 0.0159 0.4899 0.1589 0.088 Uiso 1 1 calc R . .
C9 C -0.04341(17) 0.4239(2) 0.13026(16) 0.0757(11) Uani 1 1 d U . .
H9A H -0.0738 0.4504 0.1126 0.091 Uiso 1 1 calc R . .
C10 C -0.05237(17) 0.3615(2) 0.12853(15) 0.0693(10) Uani 1 1 d U . .
C11 C -0.00614(17) 0.3236(2) 0.15507(16) 0.0784(11) Uani 1 1 d U . .
H11A H -0.0116 0.2812 0.1539 0.094 Uiso 1 1 calc R . .
C12 C 0.04777(17) 0.3471(2) 0.18325(15) 0.0720(11) Uani 1 1 d U . .
H12A H 0.0782 0.3208 0.2011 0.086 Uiso 1 1 calc R . .
C13 C -0.17369(15) 0.18488(19) 0.15777(15) 0.0569(10) Uani 1 1 d U . .
C14 C -0.13902(16) 0.2286(2) 0.19406(16) 0.0713(11) Uani 1 1 d U . .
H14A H -0.1295 0.2233 0.2326 0.086 Uiso 1 1 calc R . .
C15 C -0.11875(16) 0.2788(2) 0.17457(16) 0.0729(10) Uani 1 1 d U . .
H15A H -0.0969 0.3082 0.1995 0.088 Uiso 1 1 calc R . .
C16 C -0.13088(16) 0.2858(2) 0.11708(16) 0.0690(10) Uani 1 1 d U . .
C17 C -0.16547(16) 0.2434(2) 0.08101(16) 0.0717(10) Uani 1 1 d U . .
H17A H -0.1743 0.2484 0.0425 0.086 Uiso 1 1 calc R . .
C18 C -0.18745(16) 0.1933(2) 0.10089(15) 0.0674(11) Uani 1 1 d U . .
H18A H -0.2115 0.1655 0.0758 0.081 Uiso 1 1 calc R . .
C19 C -0.20897(18) 0.4256(2) -0.12723(15) 0.0564(10) Uani 1 1 d U . .
C20 C -0.19521(15) 0.1294(2) 0.18066(16) 0.0545(10) Uani 1 1 d U . .
C21 C 0.11480(18) 0.4357(2) 0.21305(16) 0.0580(11) Uani 1 1 d U . .
C22 C -0.30697(16) 0.6258(2) -0.43358(15) 0.0597(10) Uani 1 1 d U . .
C23 C -0.30898(17) 0.6889(2) -0.44037(16) 0.0714(11) Uani 1 1 d U . .
H23A H -0.2900 0.7144 -0.4102 0.086 Uiso 1 1 calc R . .
C24 C -0.33896(17) 0.7141(2) -0.49150(16) 0.0768(11) Uani 1 1 d U . .
H24A H -0.3394 0.7567 -0.4961 0.092 Uiso 1 1 calc R . .
C25 C -0.36867(17) 0.6770(2) -0.53638(16) 0.0669(10) Uani 1 1 d U . .
C26 C -0.36571(17) 0.6150(2) -0.53007(16) 0.0714(10) Uani 1 1 d U . .
H26A H -0.3852 0.5898 -0.5603 0.086 Uiso 1 1 calc R . .
C27 C -0.33405(16) 0.5887(2) -0.47923(15) 0.0672(10) Uani 1 1 d U . .
H27A H -0.3310 0.5461 -0.4758 0.081 Uiso 1 1 calc R . .
C28 C -0.33271(17) 0.84152(19) -0.66476(14) 0.0547(10) Uani 1 1 d U . .
C29 C -0.30154(17) 0.7909(2) -0.64087(16) 0.0688(11) Uani 1 1 d U . .
H29A H -0.2645 0.7867 -0.6418 0.083 Uiso 1 1 calc R . .
C30 C -0.32304(18) 0.7455(2) -0.61530(16) 0.0738(11) Uani 1 1 d U . .
H30A H -0.3005 0.7116 -0.5993 0.089 Uiso 1 1 calc R . .
C31 C -0.37771(18) 0.7505(2) -0.61359(15) 0.0655(10) Uani 1 1 d U . .
C32 C -0.40976(18) 0.8014(2) -0.63728(16) 0.0736(10) Uani 1 1 d U . .
H32A H -0.4471 0.8049 -0.6369 0.088 Uiso 1 1 calc R . .
C33 C -0.38750(18) 0.8484(2) -0.66218(16) 0.0705(11) Uani 1 1 d U . .
H33A H -0.4091 0.8834 -0.6767 0.085 Uiso 1 1 calc R . .
C34 C -0.56558(16) 0.63205(18) -0.67812(15) 0.0550(10) Uani 1 1 d U . .
C35 C -0.55026(16) 0.64466(19) -0.62182(15) 0.0632(10) Uani 1 1 d U . .
H35A H -0.5764 0.6381 -0.6033 0.076 Uiso 1 1 calc R . .
C36 C -0.49528(17) 0.6674(2) -0.59241(16) 0.0699(10) Uani 1 1 d U . .
H36A H -0.4845 0.6733 -0.5538 0.084 Uiso 1 1 calc R . .
C37 C -0.45689(17) 0.6812(2) -0.61885(16) 0.0650(10) Uani 1 1 d U . .
C38 C -0.47401(17) 0.6699(2) -0.67602(16) 0.0705(10) Uani 1 1 d U . .
H38A H -0.4490 0.6791 -0.6952 0.085 Uiso 1 1 calc R . .
C39 C -0.52748(17) 0.6455(2) -0.70518(16) 0.0695(11) Uani 1 1 d U . .
H39A H -0.5377 0.6381 -0.7435 0.083 Uiso 1 1 calc R . .
C40 C -0.27516(16) 0.5960(2) -0.37697(17) 0.0578(10) Uani 1 1 d U . .
C41 C -0.30996(18) 0.8892(2) -0.69290(15) 0.0516(10) Uani 1 1 d U . .
C42 C -0.62316(17) 0.6028(2) -0.70827(17) 0.0565(10) Uani 1 1 d U . .
C43 C -0.48998(18) 0.5304(2) -0.44964(18) 0.0821(12) Uani 1 1 d U . .
H43A H -0.4836 0.5510 -0.4159 0.098 Uiso 1 1 calc R . .
C44 C -0.44769(17) 0.4938(2) -0.45707(17) 0.0689(11) Uani 1 1 d U . .
C45 C -0.45729(17) 0.4638(2) -0.50663(18) 0.0761(12) Uani 1 1 d DU . .
C46 C -0.38930(19) 0.4870(2) -0.40869(19) 0.0706(11) Uani 1 1 d U . .
N1 N -0.10777(13) 0.33755(17) 0.09723(12) 0.0728(9) Uani 1 1 d U . .
N2 N -0.40162(13) 0.70386(16) -0.58895(12) 0.0713(9) Uani 1 1 d U . .
O1 O -0.17643(12) 0.42507(14) -0.15500(10) 0.0718(8) Uani 1 1 d U . .
O2 O -0.26016(11) 0.44400(13) -0.14398(9) 0.0644(8) Uani 1 1 d U . .
O3 O 0.11829(10) 0.49436(14) 0.21548(11) 0.0708(8) Uani 1 1 d U . .
O4 O 0.15683(10) 0.40012(13) 0.23091(10) 0.0620(7) Uani 1 1 d U . .
O5 O -0.17347(10) 0.12058(12) 0.23252(9) 0.0592(7) Uani 1 1 d U . .
O6 O -0.23381(10) 0.09706(12) 0.14698(9) 0.0581(7) Uani 1 1 d U . .
O7 O -0.26860(11) 0.62950(13) -0.33382(10) 0.0639(7) Uani 1 1 d U . .
O8 O -0.25994(11) 0.54145(13) -0.37523(10) 0.0614(7) Uani 1 1 d U . .
O9 O -0.26866(12) 0.87593(12) -0.70933(10) 0.0604(7) Uani 1 1 d U . .
O10 O -0.33304(11) 0.94203(13) -0.69921(10) 0.0625(7) Uani 1 1 d U . .
O11 O -0.66333(11) 0.60873(12) -0.68936(10) 0.0605(7) Uani 1 1 d U . .
O12 O -0.62765(10) 0.57288(13) -0.75246(10) 0.0608(7) Uani 1 1 d U . .
O13 O -0.35365(12) 0.45132(15) -0.41810(11) 0.0763(8) Uani 1 1 d U . .
O14 O -0.38197(11) 0.51671(15) -0.36492(12) 0.0831(9) Uani 1 1 d U . .
O15 O -0.25705(8) 0.49675(11) -0.26382(8) 0.0380(6) Uani 1 1 d U . .
Zn1 Zn -0.185529(16) 0.45274(2) -0.230567(15) 0.03794(12) Uani 1 1 d . . .
Zn2 Zn -0.305120(16) 1.021064(19) -0.718710(15) 0.03827(12) Uani 1 1 d . . .
Zn3 Zn -0.239753(17) 0.58308(2) -0.264171(15) 0.03958(12) Uani 1 1 d . . .
Zn4 Zn -0.291139(16) 0.46188(2) -0.341244(15) 0.03976(12) Uani 1 1 d . . .
N3 N -0.4170(3) 0.4226(3) -0.5206(3) 0.1014(18) Uani 0.50 1 d PDU . .
O16 O -0.4167(4) 0.3679(4) -0.5111(4) 0.174(3) Uani 0.50 1 d PDU . .
O17 O -0.3862(4) 0.4427(4) -0.5448(3) 0.160(3) Uani 0.50 1 d PDU . .

loop_
_atom_site_aniso_label
_atom_site_aniso_U_11
_atom_site_aniso_U_22
_atom_site_aniso_U_33
_atom_site_aniso_U_23
_atom_site_aniso_U_13
_atom_site_aniso_U_12
C1 0.049(2) 0.069(2) 0.0402(19) 0.0161(18) 0.0018(17) -0.0099(19)
C2 0.055(2) 0.090(2) 0.0507(19) 0.0221(19) 0.0009(17) -0.0085(19)
C3 0.0547(18) 0.088(2) 0.0566(18) 0.0247(18) -0.0074(17) -0.0130(18)
C4 0.0521(18) 0.077(2) 0.0499(18) 0.0256(17) -0.0090(16) -0.0242(17)
C5 0.0565(19) 0.093(2) 0.0512(18) 0.0274(18) -0.0006(16) -0.0182(18)
C6 0.0505(19) 0.086(2) 0.0528(19) 0.0250(19) -0.0064(17) -0.0108(19)
C7 0.0419(19) 0.064(2) 0.056(2) 0.0119(19) -0.0037(16) -0.0144(19)
C8 0.0510(19) 0.072(2) 0.072(2) 0.0167(19) -0.0096(17) -0.0177(19)
C9 0.0533(18) 0.075(2) 0.0714(19) 0.0249(19) -0.0146(16) -0.0177(18)
C10 0.0516(18) 0.079(2) 0.0549(18) 0.0247(18) -0.0112(16) -0.0268(18)
C11 0.0608(19) 0.074(2) 0.073(2) 0.0277(18) -0.0116(17) -0.0210(19)
C12 0.052(2) 0.070(2) 0.068(2) 0.0201(19) -0.0135(17) -0.0209(19)
C13 0.0438(19) 0.067(2) 0.0454(19) 0.0176(19) -0.0031(16) -0.0213(18)
C14 0.065(2) 0.081(2) 0.0474(19) 0.0221(19) -0.0070(17) -0.031(2)
C15 0.0642(19) 0.079(2) 0.0511(18) 0.0225(18) -0.0124(16) -0.0362(18)
C16 0.0513(18) 0.077(2) 0.0524(18) 0.0251(17) -0.0169(16) -0.0300(17)
C17 0.0620(19) 0.082(2) 0.0496(18) 0.0239(18) -0.0085(16) -0.0331(18)
C18 0.059(2) 0.076(2) 0.0487(19) 0.0165(19) -0.0047(17) -0.0333(19)
C19 0.049(2) 0.070(2) 0.0392(19) 0.0128(19) 0.0011(18) -0.006(2)
C20 0.040(2) 0.068(2) 0.047(2) 0.012(2) 0.0039(17) -0.0132(19)
C21 0.049(2) 0.060(3) 0.055(2) 0.009(2) 0.0046(18) -0.015(2)
C22 0.0572(18) 0.065(2) 0.0452(17) 0.0170(17) 0.0020(15) -0.0130(18)
C23 0.075(2) 0.067(2) 0.0495(18) 0.0151(18) -0.0085(17) -0.0151(19)
C24 0.076(2) 0.070(2) 0.0609(19) 0.0232(18) -0.0078(17) -0.0194(19)
C25 0.0640(18) 0.068(2) 0.0486(17) 0.0247(17) -0.0071(16) -0.0237(18)
C26 0.0691(17) 0.0701(19) 0.0545(16) 0.0127(16) -0.0055(15) -0.0213(17)
C27 0.0662(18) 0.070(2) 0.0514(17) 0.0182(17) 0.0027(16) -0.0115(17)
C28 0.054(2) 0.052(2) 0.0499(19) 0.0184(18) 0.0062(17) -0.0178(19)
C29 0.060(2) 0.068(2) 0.068(2) 0.0269(19) 0.0091(17) -0.0157(19)
C30 0.068(2) 0.068(2) 0.0690(19) 0.0314(18) 0.0022(17) -0.0123(19)
C31 0.0594(19) 0.067(2) 0.0525(17) 0.0248(17) -0.0033(16) -0.0247(18)
C32 0.0611(19) 0.077(2) 0.0720(19) 0.0241(19) 0.0091(17) -0.0152(18)
C33 0.063(2) 0.067(2) 0.072(2) 0.0300(19) 0.0121(18) -0.013(2)
C34 0.051(2) 0.061(2) 0.0437(19) 0.0077(18) 0.0038(17) -0.0220(19)
C35 0.0551(19) 0.072(2) 0.0543(18) 0.0114(18) 0.0075(16) -0.0251(18)
C36 0.0636(18) 0.079(2) 0.0528(17) 0.0135(17) 