####################################################################### 
# 
# This file contains crystal structure data downloaded from the 
# Cambridge Structural Database (CSD) hosted by the Cambridge 
# Crystallographic Data Centre (CCDC).
# 
# Full information about CCDC data access policies and citation 
# guidelines are available at http://www.ccdc.cam.ac.uk/access/V1 
# 
# Audit and citation data items may have been added by the CCDC. 
# Please retain this information to preserve the provenance of 
# this file and to allow appropriate attribution of the data. 
# 
#######################################################################

data_2
_audit_block_doi                 10.5517/cc1j00h1
_database_code_depnum_ccdc_archive 'CCDC 1400192'
loop_
_citation_id
_citation_doi
_citation_year
1 10.1039/C5CE01340B 2015
_audit_update_record             
;
2015-09-08 deposited with the CCDC.	2024-07-11 downloaded from the CCDC.
;

# SQUEEZE RESULTS (APPEND TO CIF)
# Note: Data are Listed for all Voids in the P1 Unit Cell
# i.e. Centre of Gravity, Solvent Accessible Volume,
# Recovered number of Electrons in the Void and
# Details about the Squeezed Material
loop_
_platon_squeeze_void_nr
_platon_squeeze_void_average_x
_platon_squeeze_void_average_y
_platon_squeeze_void_average_z
_platon_squeeze_void_volume
_platon_squeeze_void_count_electrons
_platon_squeeze_void_content
1 -0.041 -0.012 -0.008 7481 1578 ' '
_platon_squeeze_details          
;
The total potential solvent accessible void is 7481 eA3, indicating more
solvent molecules can reside in the crystal structure. Based on the TG
and elemental analysis, 5.4 DMF molecules were included in the final molecules.
;

_audit_creation_method           SHELXL-2014/7
_shelx_SHELXL_version_number     2014/7
_chemical_name_systematic        ?
_chemical_name_common            ?
_chemical_melting_point          ?
_chemical_formula_moiety         ?
_chemical_formula_sum            'C46.25 H55.75 N20.38 Ni3 O12.38'
_chemical_formula_weight         1271.24

loop_
_atom_type_symbol
_atom_type_description
_atom_type_scat_dispersion_real
_atom_type_scat_dispersion_imag
_atom_type_scat_source
C C 0.0033 0.0016 'International Tables Vol C Tables 4.2.6.8 and 6.1.1.4'
H H 0.0000 0.0000 'International Tables Vol C Tables 4.2.6.8 and 6.1.1.4'
N N 0.0061 0.0033 'International Tables Vol C Tables 4.2.6.8 and 6.1.1.4'
O O 0.0106 0.0060 'International Tables Vol C Tables 4.2.6.8 and 6.1.1.4'
Ni Ni 0.3393 1.1124 'International Tables Vol C Tables 4.2.6.8 and 6.1.1.4'

_space_group_crystal_system      cubic
_space_group_IT_number           217
_space_group_name_H-M_alt        'I -4 3 m'
_space_group_name_Hall           'I -4 2 3'

_shelx_space_group_comment       
;
The symmetry employed for this shelxl refinement is uniquely defined
by the following loop, which should always be used as a source of
symmetry information in preference to the above space-group names.
They are only intended as comments.
;

loop_
_space_group_symop_operation_xyz
'x, y, z'
'-x, -y, z'
'-x, y, -z'
'x, -y, -z'
'z, x, y'
'z, -x, -y'
'-z, -x, y'
'-z, x, -y'
'y, z, x'
'-y, z, -x'
'y, -z, -x'
'-y, -z, x'
'y, x, z'
'-y, -x, z'
'y, -x, -z'
'-y, x, -z'
'x, z, y'
'-x, z, -y'
'-x, -z, y'
'x, -z, -y'
'z, y, x'
'z, -y, -x'
'-z, y, -x'
'-z, -y, x'
'x+1/2, y+1/2, z+1/2'
'-x+1/2, -y+1/2, z+1/2'
'-x+1/2, y+1/2, -z+1/2'
'x+1/2, -y+1/2, -z+1/2'
'z+1/2, x+1/2, y+1/2'
'z+1/2, -x+1/2, -y+1/2'
'-z+1/2, -x+1/2, y+1/2'
'-z+1/2, x+1/2, -y+1/2'
'y+1/2, z+1/2, x+1/2'
'-y+1/2, z+1/2, -x+1/2'
'y+1/2, -z+1/2, -x+1/2'
'-y+1/2, -z+1/2, x+1/2'
'y+1/2, x+1/2, z+1/2'
'-y+1/2, -x+1/2, z+1/2'
'y+1/2, -x+1/2, -z+1/2'
'-y+1/2, x+1/2, -z+1/2'
'x+1/2, z+1/2, y+1/2'
'-x+1/2, z+1/2, -y+1/2'
'-x+1/2, -z+1/2, y+1/2'
'x+1/2, -z+1/2, -y+1/2'
'z+1/2, y+1/2, x+1/2'
'z+1/2, -y+1/2, -x+1/2'
'-z+1/2, y+1/2, -x+1/2'
'-z+1/2, -y+1/2, x+1/2'

_cell_length_a                   23.290(3)
_cell_length_b                   23.290(3)
_cell_length_c                   23.290(3)
_cell_angle_alpha                90
_cell_angle_beta                 90
_cell_angle_gamma                90
_cell_volume                     12633(4)
_cell_formula_units_Z            8
_cell_measurement_temperature    113.15
_cell_measurement_reflns_used    21843
_cell_measurement_theta_min      2.1409
_cell_measurement_theta_max      27.8744

_exptl_crystal_description       block
_exptl_crystal_colour            green
_exptl_crystal_density_meas      ?
_exptl_crystal_density_method    'not measured'
_exptl_crystal_density_diffrn    1.337
_exptl_crystal_F_000             5271
_exptl_transmission_factor_min   ?
_exptl_transmission_factor_max   ?
_exptl_crystal_size_max          0.2
_exptl_crystal_size_mid          0.2
_exptl_crystal_size_min          0.2
_exptl_absorpt_coefficient_mu    0.955
_shelx_estimated_absorpt_T_min   ?
_shelx_estimated_absorpt_T_max   ?
_exptl_absorpt_correction_type   Multi-scan
_exptl_absorpt_correction_T_min  0.8471
_exptl_absorpt_correction_T_max  1.0000
_exptl_absorpt_process_details   ?
_exptl_absorpt_special_details   ?
_diffrn_ambient_temperature      113.15
_diffrn_radiation_wavelength     0.71073
_diffrn_radiation_type           MoK\a
_diffrn_source                   ?
_diffrn_measurement_device_type  \w
_diffrn_measurement_method       dtprofit.ref
_diffrn_detector_area_resol_mean ?
_diffrn_reflns_number            58291
_diffrn_reflns_av_unetI/netI     0.0234
_diffrn_reflns_av_R_equivalents  0.0729
_diffrn_reflns_limit_h_min       -28
_diffrn_reflns_limit_h_max       30
_diffrn_reflns_limit_k_min       -30
_diffrn_reflns_limit_k_max       30
_diffrn_reflns_limit_l_min       -30
_diffrn_reflns_limit_l_max       30
_diffrn_reflns_theta_min         2.142
_diffrn_reflns_theta_max         27.925
_diffrn_reflns_theta_full        25.242
_diffrn_measured_fraction_theta_max 0.997
_diffrn_measured_fraction_theta_full 0.998
_diffrn_reflns_Laue_measured_fraction_max 0.997
_diffrn_reflns_Laue_measured_fraction_full 0.998
_diffrn_reflns_point_group_measured_fraction_max 0.997
_diffrn_reflns_point_group_measured_fraction_full 0.999
_reflns_number_total             2788
_reflns_number_gt                2768
_reflns_threshold_expression     'I > 2\s(I)'
_reflns_Friedel_coverage         0.865
_reflns_Friedel_fraction_max     0.997
_reflns_Friedel_fraction_full    1.000

_reflns_special_details          
;
 Reflections were merged by SHELXL according to the crystal
 class for the calculation of statistics and refinement.
 
 _reflns_Friedel_fraction is defined as the number of unique
 Friedel pairs measured divided by the number that would be
 possible theoretically, ignoring centric projections and
 systematic absences.
;

_computing_data_collection       'CrystalClear (Rigaku Inc., 2008)'
_computing_cell_refinement       'CrystalClear (Rigaku Inc., 2008)'
_computing_data_reduction        'CrystalClear (Rigaku Inc., 2008)'
_computing_structure_solution    'SHELXS-97 (Sheldrick, 1990)'
_computing_structure_refinement  'SHELXL-2014/7 (Sheldrick, 2014)'
_computing_molecular_graphics    ?
_computing_publication_material  ?
_refine_special_details          SQUEEZE
_refine_ls_structure_factor_coef Fsqd
_refine_ls_matrix_type           full
_refine_ls_weighting_scheme      calc
_refine_ls_weighting_details     
'w=1/[\s^2^(Fo^2^)+(0.0425P)^2^+7.1270P] where P=(Fo^2^+2Fc^2^)/3'
_atom_sites_solution_primary     ?
_atom_sites_solution_secondary   ?
_atom_sites_solution_hydrogens   geom
_refine_ls_hydrogen_treatment    constr
_refine_ls_extinction_method     none
_refine_ls_extinction_coef       .
_refine_ls_abs_structure_details 
;
 Flack x determined using 1238 quotients [(I+)-(I-)]/[(I+)+(I-)]
 (Parsons, Flack and Wagner, Acta Cryst. B69 (2013) 249-259).
;
_refine_ls_abs_structure_Flack   0.011(8)
_chemical_absolute_configuration ?
_refine_ls_number_reflns         2788
_refine_ls_number_parameters     94
_refine_ls_number_restraints     0
_refine_ls_R_factor_all          0.0294
_refine_ls_R_factor_gt           0.0289
_refine_ls_wR_factor_ref         0.0766
_refine_ls_wR_factor_gt          0.0762
_refine_ls_goodness_of_fit_ref   1.111
_refine_ls_restrained_S_all      1.111
_refine_ls_shift/su_max          0.001
_refine_ls_shift/su_mean         0.000

loop_
_atom_site_label
_atom_site_type_symbol
_atom_site_fract_x
_atom_site_fract_y
_atom_site_fract_z
_atom_site_U_iso_or_equiv
_atom_site_adp_type
_atom_site_occupancy
_atom_site_site_symmetry_order
_atom_site_calc_flag
_atom_site_refinement_flags_posn
_atom_site_refinement_flags_adp
_atom_site_refinement_flags_occupancy
_atom_site_disorder_assembly
_atom_site_disorder_group
Ni1 Ni 0.61353(2) 0.28333(2) 0.28333(2) 0.01432(12) Uani 1 2 d S T P . .
O1 O 0.57052(8) 0.27336(9) 0.36068(8) 0.0247(4) Uani 1 1 d . . . . .
O2 O 0.67310(10) 0.32690(10) 0.32690(10) 0.0163(8) Uani 1 6 d S T P . .
N1 N 0.74461(9) 0.25539(9) -0.04350(12) 0.0186(6) Uani 1 2 d S T P . .
N2 N 0.65933(9) 0.30020(9) 0.20834(8) 0.0173(4) Uani 1 1 d . . . . .
N3 N 0.65657(9) 0.27585(9) 0.15692(9) 0.0196(4) Uani 1 1 d . . . . .
C1 C 0.70116(12) 0.22989(13) -0.01713(12) 0.0291(6) Uani 1 1 d . . . . .
H1 H 0.6819 0.2007 -0.0363 0.035 Uiso 1 1 calc R U . . .
C2 C 0.68300(13) 0.24450(14) 0.03755(12) 0.0308(7) Uani 1 1 d . . . . .
H2 H 0.6526 0.2252 0.0549 0.037 Uiso 1 1 calc R U . . .
C3 C 0.71133(10) 0.28867(10) 0.06570(14) 0.0209(6) Uani 1 2 d S T P . .
C4 C 0.69691(11) 0.30309(11) 0.12620(15) 0.0205(7) Uani 1 2 d S T P . .
C5 C 0.58776(11) 0.27184(17) 0.41224(11) 0.0227(7) Uani 1 2 d S T P . .
C6 C 0.54261(11) 0.26953(19) 0.45739(11) 0.0279(8) Uani 1 2 d S T P . .
C7 C 0.48511(14) 0.2682(3) 0.44301(14) 0.0638(15) Uani 1 1 d . . . . .
H7 H 0.4745 0.2672 0.4045 0.077 Uiso 1 1 calc R U . . .

loop_
_atom_site_aniso_label
_atom_site_aniso_U_11
_atom_site_aniso_U_22
_atom_site_aniso_U_33
_atom_site_aniso_U_23
_atom_site_aniso_U_13
_atom_site_aniso_U_12
Ni1 0.01319(19) 0.01488(14) 0.01488(14) -0.00035(16) 0.00068(10) 0.00068(10)
O1 0.0183(8) 0.0377(11) 0.0182(9) -0.0012(8) 0.0053(7) -0.0049(8)
O2 0.0163(8) 0.0163(8) 0.0163(8) 0.0012(9) -0.0012(9) -0.0012(9)
N1 0.0213(9) 0.0213(9) 0.0130(14) -0.0005(8) 0.0005(8) 0.0020(11)
N2 0.0171(9) 0.0202(10) 0.0147(9) -0.0008(8) 0.0011(7) -0.0038(8)
N3 0.0224(10) 0.0209(10) 0.0155(9) -0.0044(8) 0.0025(7) -0.0020(8)
C1 0.0261(13) 0.0408(17) 0.0204(12) -0.0114(11) 0.0042(10) -0.0105(12)
C2 0.0306(15) 0.0411(16) 0.0208(13) -0.0091(11) 0.0088(11) -0.0149(13)
C3 0.0221(10) 0.0221(10) 0.0186(15) 0.0006(9) -0.0006(9) 0.0027(14)
C4 0.0220(10) 0.0220(10) 0.0174(16) -0.0010(9) 0.0010(9) 0.0010(13)
C5 0.0186(10) 0.031(2) 0.0186(10) 0.0011(10) -0.0010(13) -0.0011(10)
C6 0.0176(10) 0.049(3) 0.0176(10) 0.0021(11) 0.0015(13) -0.0021(11)
C7 0.0219(15) 0.150(5) 0.0197(15) -0.008(2) 0.0024(12) -0.007(2)

_geom_special_details            
;
 All esds (except the esd in the dihedral angle between two l.s. planes)
 are estimated using the full covariance matrix.  The cell esds are taken
 into account individually in the estimation of esds in distances, angles
 and torsion angles; correlations between esds in cell parameters are only
 used when they are defined by crystal symmetry.  An approximate (isotropic)
 treatment of cell esds is used for estimating esds involving l.s. planes.
;

loop_
_geom_bond_atom_site_label_1
_geom_bond_atom_site_label_2
_geom_bond_distance
_geom_bond_site_symmetry_2
_geom_bond_publ_flag
Ni1 O2 1.9960(9) . ?
Ni1 N1 2.070(3) 32_545 ?
Ni1 O1 2.0743(18) . ?
Ni1 O1 2.0744(18) 17 ?
Ni1 N2 2.0839(19) 17 ?
Ni1 N2 2.0839(19) . ?
O1 C5 1.267(2) . ?
O2 Ni1 1.9961(9) 7_665 ?
O2 Ni1 1.9961(9) 10_656 ?
N1 C1 1.324(3) . ?
N1 C1 1.324(3) 14_665 ?
N1 Ni1 2.070(3) 35 ?
N2 N3 1.327(3) . ?
N2 N2 1.333(4) 14_665 ?
N3 C4 1.340(3) . ?
C1 C2 1.384(4) . ?
C1 H1 0.9300 . ?
C2 C3 1.387(3) . ?
C2 H2 0.9300 . ?
C3 C2 1.387(3) 14_665 ?
C3 C4 1.487(5) . ?
C4 N3 1.340(3) 14_665 ?
C5 O1 1.267(2) 23_656 ?
C5 C6 1.488(5) . ?
C6 C7 1.381(4) . ?
C6 C7 1.381(4) 23_656 ?
C7 C7 1.387(6) 21 ?
C7 H7 0.9300 . ?

loop_
_geom_angle_atom_site_label_1
_geom_angle_atom_site_label_2
_geom_angle_atom_site_label_3
_geom_angle
_geom_angle_site_symmetry_1
_geom_angle_site_symmetry_3
_geom_angle_publ_flag
O2 Ni1 N1 172.05(15) . 32_545 ?
O2 Ni1 O1 87.20(10) . . ?
N1 Ni1 O1 87.08(8) 32_545 . ?
O2 Ni1 O1 87.20(10) . 17 ?
N1 Ni1 O1 87.08(8) 32_545 17 ?
O1 Ni1 O1 87.77(12) . 17 ?
O2 Ni1 N2 88.54(10) . 17 ?
N1 Ni1 N2 96.91(8) 32_545 17 ?
O1 Ni1 N2 89.41(8) . 17 ?
O1 Ni1 N2 174.99(8) 17 17 ?
O2 Ni1 N2 88.54(10) . . ?
N1 Ni1 N2 96.91(8) 32_545 . ?
O1 Ni1 N2 174.99(8) . . ?
O1 Ni1 N2 89.41(8) 17 . ?
N2 Ni1 N2 93.10(11) 17 . ?
C5 O1 Ni1 132.33(19) . . ?
Ni1 O2 Ni1 116.63(7) . 7_665 ?
Ni1 O2 Ni1 116.63(7) . 10_656 ?
Ni1 O2 Ni1 116.63(7) 7_665 10_656 ?
C1 N1 C1 118.1(3) . 14_665 ?
C1 N1 Ni1 120.19(16) . 35 ?
C1 N1 Ni1 120.19(16) 14_665 35 ?
N3 N2 N2 109.67(13) . 14_665 ?
N3 N2 Ni1 130.63(16) . . ?
N2 N2 Ni1 119.68(6) 14_665 . ?
N2 N3 C4 104.2(2) . . ?
N1 C1 C2 123.4(3) . . ?
N1 C1 H1 118.3 . . ?
C2 C1 H1 118.3 . . ?
C1 C2 C3 118.2(3) . . ?
C1 C2 H2 120.9 . . ?
C3 C2 H2 120.9 . . ?
C2 C3 C2 118.8(3) . 14_665 ?
C2 C3 C4 120.53(16) . . ?
C2 C3 C4 120.54(16) 14_665 . ?
N3 C4 N3 112.3(3) . 14_665 ?
N3 C4 C3 123.86(15) . . ?
N3 C4 C3 123.85(15) 14_665 . ?
O1 C5 O1 126.9(3) 23_656 . ?
O1 C5 C6 116.55(17) 23_656 . ?
O1 C5 C6 116.55(17) . . ?
C7 C6 C7 118.0(4) . 23_656 ?
C7 C6 C5 120.98(19) . . ?
C7 C6 C5 120.98(19) 23_656 . ?
C6 C7 C7 120.95(19) . 21 ?
C6 C7 H7 119.5 . . ?
C7 C7 H7 119.5 21 . ?

_refine_diff_density_max         0.253
_refine_diff_density_min         -0.303
_refine_diff_density_rms         0.050

_shelx_res_file                  
;

    2.res created by SHELXL-2014/7

TITL 2.res in I-43m
CELL  0.71073  23.2899  23.2899  23.2899   90.000   90.000   90.000
ZERR   8   0.0027   0.0027   0.0027    0.000    0.000    0.000
LATT -2
SYMM  - X, - Y,   Z
SYMM  - X,   Y, - Z
SYMM    X, - Y, - Z
SYMM    Z,   X,   Y
SYMM    Z, - X, - Y
SYMM  - Z, - X,   Y
SYMM  - Z,   X, - Y
SYMM    Y,   Z,   X
SYMM  - Y,   Z, - X
SYMM    Y, - Z, - X
SYMM  - Y, - Z,   X
SYMM    Y,   X,   Z
SYMM  - Y, - X,   Z
SYMM    Y, - X, - Z
SYMM  - Y,   X, - Z
SYMM    X,   Z,   Y
SYMM  - X,   Z, - Y
SYMM  - X, - Z,   Y
SYMM    X, - Z, - Y
SYMM    Z,   Y,   X
SYMM    Z, - Y, - X
SYMM  - Z,   Y, - X
SYMM  - Z, - Y,   X
SFAC C  H  N  O  Ni
UNIT 370 446 163 99 24
MERG 2
L.S. 10
ACTA
BOND   $H
FMAP 2
PLAN 10
LIST 6
WGHT    0.042500    7.127000
FVAR       1.22400
NI1   5    0.613535    0.283328    0.283328    10.50000    0.01319    0.01488 =
         0.01488   -0.00035    0.00068    0.00068
O1    4    0.570516    0.273364    0.360677    11.00000    0.01828    0.03771 =
         0.01825   -0.00115    0.00531   -0.00495
O2    4    0.673103    0.326897    0.326897    10.16667    0.01629    0.01629 =
         0.01629    0.00117   -0.00117   -0.00117
N1    3    0.744610    0.255390   -0.043505    10.50000    0.02134    0.02134 =
         0.01304   -0.00045    0.00045    0.00204
N2    3    0.659331    0.300199    0.208335    11.00000    0.01713    0.02016 =
         0.01470   -0.00076    0.00108   -0.00380
N3    3    0.656573    0.275848    0.156915    11.00000    0.02242    0.02092 =
         0.01546   -0.00440    0.00251   -0.00197
C1    1    0.701158    0.229891   -0.017133    11.00000    0.02606    0.04078 =
         0.02043   -0.01140    0.00425   -0.01052
AFIX  43
H1    2    0.681856    0.200676   -0.036329    11.00000   -1.20000
AFIX   0
C2    1    0.683001    0.244505    0.037552    11.00000    0.03062    0.04107 =
         0.02076   -0.00913    0.00878   -0.01487
AFIX  43
H2    2    0.652645    0.225239    0.054926    11.00000   -1.20000
AFIX   0
C3    1    0.711333    0.288667    0.065703    10.50000    0.02206    0.02206 =
         0.01856    0.00065   -0.00065    0.00268
C4    1    0.696906    0.303094    0.126198    10.50000    0.02204    0.02204 =
         0.01744   -0.00098    0.00098    0.00104
C5    1    0.5877