
#######################################################################
#
#                 Cambridge Crystallographic Data Centre
#                                CCDC
#
#######################################################################
#
# If this CIF has been generated from an entry in the Cambridge
# Structural Database, then it will include bibliographic, chemical,
# crystal, experimental, refinement or atomic coordinate data resulting
# from the CCDC's data processing and validation procedures.
#
#######################################################################

data_CSD_CIF_LUVJIV
_audit_creation_date 2003-04-28
_audit_creation_method CSD-ConQuest-V1
_database_code_CSD LUVJIV
_database_code_depnum_ccdc_archive 'CCDC 183344'
_chemical_formula_sum 'C4 H6 Au1 F6 N2 P1'
_chemical_formula_moiety
;
C4 H6 Au1 N2 1+,F6 P1 1-
;
_journal_coden_Cambridge 4
_journal_volume 125
_journal_year 2003
_journal_page_first 1033
_journal_name_full 'J.Am.Chem.Soc. '
loop_
_publ_author_name
"R.L.White-Morris"
"M.M.Olmstead"
"A.L.Balch"
_chemical_name_systematic
;
bis(Methyl isocyanide)-gold(i) hexafluorophosphate
;
_chemical_name_common
;
Teaching Subset: Fundamental Chemistry
;
_cell_volume    943.990
_exptl_crystal_colour 'colorless'
_exptl_crystal_density_diffrn 2.984
_exptl_crystal_description 'block'
_diffrn_ambient_temperature 90
#These two values have been output from a single CSD field.
_refine_ls_R_factor_gt 0.0356
_refine_ls_wR_factor_gt 0.0356
_symmetry_cell_setting cubic
_symmetry_space_group_name_H-M 'P a -3'
_symmetry_Int_Tables_number 205
loop_
_symmetry_equiv_pos_site_id
_symmetry_equiv_pos_as_xyz
1 x,y,z
2 z,x,y
3 y,z,x
4 1/2-x,-y,1/2+z
5 -x,1/2+y,1/2-z
6 1/2+x,1/2-y,-z
7 1/2+z,1/2-x,-y
8 1/2-z,-x,1/2+y
9 -z,1/2+x,1/2-y
10 -y,1/2+z,1/2-x
11 1/2+y,1/2-z,-x
12 1/2-y,-z,1/2+x
13 -x,-y,-z
14 -z,-x,-y
15 -y,-z,-x
16 -1/2+x,y,-1/2-z
17 x,-1/2-y,-1/2+z
18 -1/2-x,-1/2+y,z
19 -1/2-z,-1/2+x,y
20 -1/2+z,x,-1/2-y
21 z,-1/2-x,-1/2+y
22 y,-1/2-z,-1/2+x
23 -1/2-y,-1/2+z,x
24 -1/2+y,z,-1/2-x
_cell_length_a 9.8097(7)
_cell_length_b 9.8097(7)
_cell_length_c 9.8097(7)
_cell_angle_alpha 90
_cell_angle_beta 90
_cell_angle_gamma 90
_cell_formula_units_Z 4
loop_
_atom_type_symbol
_atom_type_radius_bond
C 0.68
H 0.23
Au 1.50
F 0.64
N 0.68
P 1.05
loop_
_atom_site_label
_atom_site_type_symbol
_atom_site_fract_x
_atom_site_fract_y
_atom_site_fract_z
Au1 Au 0.00000 1.00000 0.50000
N1 N 0.1833(6) 0.8167(6) 0.3167(6)
C1 C 0.1169(7) 0.8831(7) 0.3831(7)
C2 C 0.2682(8) 0.7318(8) 0.2318(8)
H1 H 0.317(13) 0.666(12) 0.261(11)
P1 P 0.00000 0.50000 0.50000
F1 F -0.0380(5) 0.6558(4) 0.5321(5)
H1G H 0.239(13) 0.683(12) 0.166(11)
H1I H 0.334(13) 0.761(12) 0.183(11)
C1S C -0.1169(7) 1.1169(7) 0.6169(7)
N1S N -0.1833(6) 1.1833(6) 0.6833(6)
C2S C -0.2682(8) 1.2682(8) 0.7682(8)
H1S H -0.239(13) 1.317(12) 0.834(11)
H1U H -0.334(13) 1.239(12) 0.817(11)
H1L H -0.317(13) 1.334(12) 0.739(11)
F1R F -0.0321(5) 0.4620(4) 0.6558(5)
F1W F 0.1558(5) 0.5321(4) 0.5380(5)
F1L F 0.0380(5) 0.3442(4) 0.4679(5)
F1F F 0.0321(5) 0.5380(4) 0.3442(5)
F1K F -0.1558(5) 0.4679(4) 0.4620(5)
#END
