####################################################################### 
# 
# This file contains crystal structure data downloaded from the 
# Cambridge Structural Database (CSD) hosted by the Cambridge 
# Crystallographic Data Centre (CCDC).
# 
# Full information about CCDC data access policies and citation 
# guidelines are available at http://www.ccdc.cam.ac.uk/access/V1 
# 
# Audit and citation data items may have been added by the CCDC. 
# Please retain this information to preserve the provenance of 
# this file and to allow appropriate attribution of the data. 
# 
#######################################################################

data_2
_audit_block_doi                 10.5517/cc6cpmv
_database_code_depnum_ccdc_archive 'CCDC 189987'
loop_
_citation_id
_citation_doi
_citation_year
1 10.1002/ejic.200390018 2003
_audit_update_record             
;
2002-07-16 deposited with the CCDC.	2024-07-11 downloaded from the CCDC.
;

_audit_creation_method           SHELXL-97
_chemical_name_systematic        
; 
? 
;
_chemical_name_common            ?
_chemical_melting_point          ?
_chemical_formula_moiety         ?
_chemical_formula_sum            'C11 H26 Cu N2 O15.50 S'
_chemical_formula_weight         529.94

loop_
_atom_type_symbol
_atom_type_description
_atom_type_scat_dispersion_real
_atom_type_scat_dispersion_imag
_atom_type_scat_source
C C 0.0033 0.0016 'International Tables Vol C Tables 4.2.6.8 and 6.1.1.4'
H H 0.0000 0.0000 'International Tables Vol C Tables 4.2.6.8 and 6.1.1.4'
N N 0.0061 0.0033 'International Tables Vol C Tables 4.2.6.8 and 6.1.1.4'
O O 0.0106 0.0060 'International Tables Vol C Tables 4.2.6.8 and 6.1.1.4'
S S 0.1246 0.1234 'International Tables Vol C Tables 4.2.6.8 and 6.1.1.4'
Cu Cu 0.3201 1.2651 'International Tables Vol C Tables 4.2.6.8 and 6.1.1.4'

_symmetry_cell_setting           monoclinic
_symmetry_space_group_name_H-M   C2/m

loop_
_symmetry_equiv_pos_as_xyz
'x, y, z'
'-x, y, -z'
'x+1/2, y+1/2, z'
'-x+1/2, y+1/2, -z'
'-x, -y, -z'
'x, -y, z'
'-x+1/2, -y+1/2, -z'
'x+1/2, -y+1/2, z'

_cell_length_a                   15.3759(3)
_cell_length_b                   18.8359(6)
_cell_length_c                   14.1292(2)
_cell_angle_alpha                90.00
_cell_angle_beta                 90.324(2)
_cell_angle_gamma                90.00
_cell_volume                     4092.02(16)
_cell_formula_units_Z            8
_cell_measurement_temperature    293(2)
_cell_measurement_reflns_used    ?
_cell_measurement_theta_min      ?
_cell_measurement_theta_max      ?

_exptl_crystal_description       prism
_exptl_crystal_colour            blue
_exptl_crystal_size_max          0.30
_exptl_crystal_size_mid          0.25
_exptl_crystal_size_min          ?
_exptl_crystal_density_meas      0.10
_exptl_crystal_density_diffrn    1.720
_exptl_crystal_density_method    'not measured'
_exptl_crystal_F_000             2200
_exptl_absorpt_coefficient_mu    1.251
_exptl_absorpt_correction_type   ?
_exptl_absorpt_correction_T_min  ?
_exptl_absorpt_correction_T_max  ?
_exptl_absorpt_process_details   ?

_exptl_special_details           
; 
? 
;

_diffrn_ambient_temperature      293(2)
_diffrn_radiation_wavelength     0.71073
_diffrn_radiation_type           MoK\a
_diffrn_radiation_source         'fine-focus sealed tube'
_diffrn_radiation_monochromator  graphite
_diffrn_measurement_device_type  ?
_diffrn_measurement_method       ?
_diffrn_detector_area_resol_mean ?
_diffrn_standards_number         ?
_diffrn_standards_interval_count ?
_diffrn_standards_interval_time  ?
_diffrn_standards_decay_%        ?
_diffrn_reflns_number            6739
_diffrn_reflns_av_R_equivalents  0.0513
_diffrn_reflns_av_sigmaI/netI    0.0655
_diffrn_reflns_limit_h_min       -18
_diffrn_reflns_limit_h_max       18
_diffrn_reflns_limit_k_min       -11
_diffrn_reflns_limit_k_max       22
_diffrn_reflns_limit_l_min       -11
_diffrn_reflns_limit_l_max       16
_diffrn_reflns_theta_min         1.44
_diffrn_reflns_theta_max         25.12
_reflns_number_total             3711
_reflns_number_gt                2671
_reflns_threshold_expression     >2sigma(I)

_computing_data_collection       ?
_computing_cell_refinement       ?
_computing_data_reduction        ?
_computing_structure_solution    'SHELXS-97 (Sheldrick, 1990)'
_computing_structure_refinement  'SHELXL-97 (Sheldrick, 1997)'
_computing_molecular_graphics    ?
_computing_publication_material  ?

_refine_special_details          
; 
Refinement of F^2^ against ALL reflections.  The weighted R-factor wR and 
goodness of fit S are based on F^2^, conventional R-factors R are based 
on F, with F set to zero for negative F^2^. The threshold expression of 
F^2^ > 2sigma(F^2^) is used only for calculating R-factors(gt) etc. and is 
not relevant to the choice of reflections for refinement.  R-factors based 
on F^2^ are statistically about twice as large as those based on F, and R- 
factors based on ALL data will be even larger. 
;

_refine_ls_structure_factor_coef Fsqd
_refine_ls_matrix_type           full
_refine_ls_weighting_scheme      calc
_refine_ls_weighting_details     
'calc w=1/[\s^2^(Fo^2^)+(0.0736P)^2^+68.2618P] where P=(Fo^2^+2Fc^2^)/3'
_atom_sites_solution_primary     direct
_atom_sites_solution_secondary   difmap
_atom_sites_solution_hydrogens   geom
_refine_ls_hydrogen_treatment    mixed
_refine_ls_extinction_method     none
_refine_ls_extinction_coef       ?
_refine_ls_number_reflns         3711
_refine_ls_number_parameters     294
_refine_ls_number_restraints     0
_refine_ls_R_factor_all          0.1307
_refine_ls_R_factor_gt           0.0864
_refine_ls_wR_factor_ref         0.2349
_refine_ls_wR_factor_gt          0.1939
_refine_ls_goodness_of_fit_ref   1.175
_refine_ls_restrained_S_all      1.175
_refine_ls_shift/su_max          0.000
_refine_ls_shift/su_mean         0.000

loop_
_atom_site_label
_atom_site_type_symbol
_atom_site_fract_x
_atom_site_fract_y
_atom_site_fract_z
_atom_site_U_iso_or_equiv
_atom_site_adp_type
_atom_site_occupancy
_atom_site_symmetry_multiplicity
_atom_site_calc_flag
_atom_site_refinement_flags
_atom_site_disorder_assembly
_atom_site_disorder_group
Cu Cu 0.16884(6) 0.27839(5) 0.86926(7) 0.0319(3) Uani 1 1 d . . .
O1 O 0.2009(4) 0.1897(3) 0.8053(4) 0.0340(13) Uani 1 1 d . . .
O01 O -0.0168(6) 0.2024(5) 0.6988(7) 0.085(3) Uani 1 1 d . . .
O2 O 0.1875(4) 0.1282(3) 0.9385(4) 0.0441(15) Uani 1 1 d . . .
O02 O -0.1642(9) 0.2813(7) 0.6700(8) 0.144(5) Uani 1 1 d . . .
O03 O 0.0908(13) 0.6218(9) 1.4672(12) 0.206(8) Uani 1 1 d . . .
O3 O 0.291(2) 0.0000 0.5022(15) 0.32(3) Uani 1 2 d S . .
O4 O 0.177(2) 0.0607(10) 0.4947(9) 0.334(19) Uani 1 1 d . . .
O04 O 0.1003(15) 0.2469(14) 0.5666(13) 0.263(11) Uani 1 1 d . . .
O5 O 0.1411(4) 0.3681(3) 0.9317(4) 0.0366(14) Uani 1 1 d . . .
O05 O 0.229(4) 0.193(2) 0.460(3) 0.55(4) Uani 1 1 d . . .
O6 O 0.0975(4) 0.3104(3) 1.0601(4) 0.0394(14) Uani 1 1 d . . .
O06 O 0.0000 0.117(2) 0.5000 0.34(2) Uani 1 2 d S . .
O7 O -0.1286(7) 0.5000 1.2545(8) 0.106(6) Uani 1 2 d S . .
O8 O -0.0252(7) 0.5632(5) 1.3409(6) 0.114(4) Uani 1 1 d . . .
O9 O 0.0458(4) 0.2488(4) 0.8621(5) 0.0558(18) Uani 1 1 d . . .
O10 O 0.1709(5) 0.3338(4) 0.7289(5) 0.0560(18) Uani 1 1 d . . .
O11 O 0.2919(4) 0.2945(3) 0.9075(4) 0.0347(13) Uani 1 1 d . . .
N1 N 0.0646(5) 0.0643(4) 1.2314(5) 0.0432(18) Uani 1 1 d . . .
C1 C 0.1974(5) 0.1324(4) 0.8513(6) 0.0316(18) Uani 1 1 d . . .
C2 C 0.2025(5) 0.0643(4) 0.7964(5) 0.0278(17) Uani 1 1 d . . .
C3 C 0.2059(6) 0.0641(4) 0.6988(6) 0.041(2) Uani 1 1 d . . .
H3B H 0.2078 0.1066 0.6655 0.049 Uiso 1 1 calc R . .
C4 C 0.2065(11) 0.0000 0.6512(8) 0.051(4) Uani 1 2 d S . .
C5 C 0.1999(7) 0.0000 0.8438(8) 0.029(2) Uani 1 2 d S . .
H5A H 0.1962 0.0000 0.9094 0.034 Uiso 1 2 calc SR . .
C6 C 0.1114(5) 0.3663(4) 1.0148(6) 0.0339(19) Uani 1 1 d . . .
C7 C 0.0901(5) 0.4360(4) 1.0609(5) 0.0257(17) Uani 1 1 d . . .
C8 C 0.0480(5) 0.4361(4) 1.1477(6) 0.0300(18) Uani 1 1 d . . .
H8A H 0.0355 0.3935 1.1779 0.036 Uiso 1 1 calc R . .
C9 C 0.0248(7) 0.5000 1.1891(8) 0.032(3) Uani 1 2 d S . .
C10 C 0.1098(7) 0.5000 1.0164(8) 0.029(2) Uani 1 2 d S . .
H10B H 0.1360 0.5000 0.9572 0.035 Uiso 1 2 calc SR . .
C11 C 0.1562(6) 0.0655(5) 1.2522(7) 0.049(2) Uani 1 1 d . . .
H11B H 0.1652 0.0670 1.3202 0.059 Uiso 1 1 calc R . .
H11C H 0.1822 0.1076 1.2250 0.059 Uiso 1 1 calc R . .
C12 C 0.1836(8) 0.0000 1.1044(9) 0.046(3) Uani 1 2 d S . .
H12A H 0.2101 0.0417 1.0765 0.055 Uiso 0.50 1 calc PR . .
H12B H 0.2101 -0.0417 1.0765 0.055 Uiso 0.50 1 calc PR . .
C13 C 0.0511(6) 0.0636(5) 1.1282(6) 0.048(2) Uani 1 1 d . . .
H13A H 0.0759 0.1061 1.1007 0.058 Uiso 1 1 calc R . .
H13B H -0.0107 0.0633 1.1142 0.058 Uiso 1 1 calc R . .
C14 C 0.0259(8) 0.0000 1.2713(9) 0.043(3) Uani 1 2 d S . .
H14A H 0.0341 0.0000 1.3394 0.052 Uiso 1 2 calc SR . .
H14B H -0.0362 0.0000 1.2585 0.052 Uiso 1 2 calc SR . .
S1 S 0.2070(6) 0.0000 0.5244(3) 0.113(3) Uani 1 2 d S . .
S2 S -0.0416(2) 0.5000 1.2904(2) 0.0353(7) Uani 1 2 d S . .
N2 N 0.1993(7) 0.0000 1.2119(8) 0.046(3) Uani 1 2 d S . .
N3 N 0.0924(7) 0.0000 1.0856(7) 0.037(2) Uani 1 2 d S . .

loop_
_atom_site_aniso_label
_atom_site_aniso_U_11
_atom_site_aniso_U_22
_atom_site_aniso_U_33
_atom_site_aniso_U_23
_atom_site_aniso_U_13
_atom_site_aniso_U_12
Cu 0.0369(6) 0.0216(5) 0.0371(6) -0.0037(4) 0.0035(4) 0.0011(4)
O1 0.042(3) 0.022(3) 0.038(3) -0.001(3) 0.006(3) 0.002(2)
O01 0.077(6) 0.083(6) 0.095(6) -0.007(5) -0.003(5) -0.009(5)
O2 0.069(4) 0.030(3) 0.033(3) -0.002(3) 0.001(3) -0.005(3)
O02 0.161(11) 0.163(12) 0.109(8) 0.033(8) 0.059(8) 0.075(9)
O03 0.28(2) 0.181(15) 0.158(14) -0.011(12) -0.070(13) 0.042(15)
O3 0.20(3) 0.69(9) 0.073(15) 0.000 0.066(16) 0.000
O4 0.76(6) 0.197(17) 0.042(7) 0.042(9) -0.019(16) 0.17(3)
O04 0.27(2) 0.36(3) 0.158(15) 0.046(18) 0.040(16) -0.05(2)
O5 0.045(3) 0.027(3) 0.038(3) -0.009(3) 0.006(3) 0.000(3)
O05 0.96(11) 0.31(4) 0.39(5) -0.03(4) 0.03(6) 0.19(6)
O6 0.041(3) 0.023(3) 0.055(4) 0.004(3) 0.013(3) -0.001(3)
O06 0.42(6) 0.23(4) 0.37(5) 0.000 0.07(4) 0.000
O7 0.041(6) 0.230(18) 0.047(7) 0.000 0.009(5) 0.000
O8 0.139(9) 0.108(7) 0.096(7) -0.072(6) 0.074(6) -0.076(7)
O9 0.036(3) 0.047(4) 0.084(5) -0.020(4) 0.008(3) -0.005(3)
O10 0.067(5) 0.044(4) 0.056(4) 0.009(3) 0.001(3) 0.008(3)
O11 0.037(3) 0.031(3) 0.036(3) -0.005(2) 0.001(2) -0.001(2)
N1 0.052(5) 0.037(4) 0.040(4) 0.003(3) 0.007(3) 0.001(4)
C1 0.034(4) 0.027(4) 0.034(5) 0.003(4) -0.002(3) -0.003(4)
C2 0.035(4) 0.020(4) 0.029(4) 0.001(3) 0.002(3) -0.003(3)
C3 0.066(6) 0.022(4) 0.036(5) 0.004(4) 0.000(4) -0.006(4)
C4 0.091(11) 0.042(8) 0.018(6) 0.000 0.000(6) 0.000
C5 0.020(5) 0.037(6) 0.029(6) 0.000 -0.002(4) 0.000
C6 0.025(4) 0.034(5) 0.043(5) 0.003(4) -0.003(4) 0.003(4)
C7 0.025(4) 0.022(4) 0.030(4) -0.004(3) -0.003(3) 0.003(3)
C8 0.029(4) 0.024(4) 0.037(5) 0.005(4) -0.002(3) 0.000(3)
C9 0.031(6) 0.033(6) 0.032(6) 0.000 -0.009(5) 0.000
C10 0.023(6) 0.029(6) 0.034(6) 0.000 -0.002(5) 0.000
C11 0.051(6) 0.055(6) 0.040(5) -0.002(5) -0.005(4) -0.017(5)
C12 0.039(7) 0.064(9) 0.034(7) 0.000 0.003(5) 0.000
C13 0.048(6) 0.053(6) 0.045(5) 0.011(5) 0.004(4) 0.010(5)
C14 0.035(7) 0.060(9) 0.033(7) 0.000 0.013(5) 0.000
S1 0.263(9) 0.051(3) 0.025(2) 0.000 0.013(3) 0.000
S2 0.0415(17) 0.0344(16) 0.0302(16) 0.000 0.0019(13) 0.000
N2 0.042(6) 0.059(7) 0.037(6) 0.000 -0.002(5) 0.000
N3 0.040(6) 0.045(6) 0.027(5) 0.000 -0.005(4) 0.000

_geom_special_details            
; 
All esds (except the esd in the dihedral angle between two l.s. planes) 
are estimated using the full covariance matrix.  The cell esds are taken 
into account individually in the estimation of esds in distances, angles 
and torsion angles; correlations between esds in cell parameters are only 
used when they are defined by crystal symmetry.  An approximate (isotropic) 
treatment of cell esds is used for estimating esds involving l.s. planes. 
;

loop_
_geom_bond_atom_site_label_1
_geom_bond_atom_site_label_2
_geom_bond_distance
_geom_bond_site_symmetry_2
_geom_bond_publ_flag
Cu O5 1.955(5) . ?
Cu O1 1.964(5) . ?
Cu O9 1.975(6) . ?
Cu O11 1.988(6) . ?
Cu O10 2.241(7) . ?
O1 C1 1.260(9) . ?
O2 C1 1.244(10) . ?
O3 S1 1.34(3) . ?
O4 S1 1.304(17) . ?
O5 C6 1.264(10) . ?
O6 C6 1.250(10) . ?
O7 S2 1.429(12) . ?
O8 S2 1.410(8) . ?
N1 C11 1.437(12) . ?
N1 C14 1.464(9) . ?
N1 C13 1.472(11) . ?
C1 C2 1.502(11) . ?
C2 C3 1.380(11) . ?
C2 C5 1.385(9) . ?
C3 C4 1.382(10) . ?
C4 C3 1.382(10) 6 ?
C4 S1 1.791(13) . ?
C5 C2 1.385(9) 6 ?
C6 C7 1.501(11) . ?
C7 C8 1.389(11) . ?
C7 C10 1.395(9) . ?
C8 C9 1.386(10) . ?
C9 C8 1.386(10) 6_565 ?
C9 S2 1.763(12) . ?
C10 C7 1.395(9) 6_565 ?
C11 N2 1.512(12) . ?
C12 N3 1.425(16) . ?
C12 N2 1.537(16) . ?
C13 N3 1.484(11) . ?
C14 N1 1.464(9) 6 ?
S1 O4 1.304(17) 6 ?
S2 O8 1.410(8) 6_565 ?
N2 C11 1.512(12) 6 ?
N3 C13 1.484(11) 6 ?

loop_
_geom_angle_atom_site_label_1
_geom_angle_atom_site_label_2
_geom_angle_atom_site_label_3
_geom_angle
_geom_angle_site_symmetry_1
_geom_angle_site_symmetry_3
_geom_angle_publ_flag
O5 Cu O1 177.9(2) . . ?
O5 Cu O9 93.2(3) . . ?
O1 Cu O9 88.8(3) . . ?
O5 Cu O11 87.4(2) . . ?
O1 Cu O11 90.8(2) . . ?
O9 Cu O11 165.3(3) . . ?
O5 Cu O10 90.0(2) . . ?
O1 Cu O10 89.1(2) . . ?
O9 Cu O10 96.0(3) . . ?
O11 Cu O10 98.7(2) . . ?
C1 O1 Cu 118.6(5) . . ?
C6 O5 Cu 118.5(5) . . ?
C11 N1 C14 109.5(8) . . ?
C11 N1 C13 109.6(7) . . ?
C14 N1 C13 108.5(8) . . ?
O2 C1 O1 124.9(8) . . ?
O2 C1 C2 117.6(7) . . ?
O1 C1 C2 117.5(7) . . ?
C3 C2 C5 118.8(8) . . ?
C3 C2 C1 121.4(7) . . ?
C5 C2 C1 119.8(7) . . ?
C2 C3 C4 119.3(8) . . ?
C3 C4 C3 121.7(11) . 6 ?
C3 C4 S1 119.2(6) . . ?
C3 C4 S1 119.2(6) 6 . ?
C2 C5 C2 122.1(10) 6 . ?
O6 C6 O5 124.2(8) . . ?
O6 C6 C7 118.4(7) . . ?
O5 C6 C7 117.4(7) . . ?
C8 C7 C10 120.0(7) . . ?
C8 C7 C6 119.2(7) . . ?
C10 C7 C6 120.8(7) . . ?
C9 C8 C7 119.8(8) . . ?
C8 C9 C8 120.5(11) . 6_565 ?
C8 C9 S2 119.7(5) . . ?
C8 C9 S2 119.7(5) 6_565 . ?
C7 C10 C7 119.8(10) 6_565 . ?
N1 C11 N2 109.9(8) . . ?
N3 C12 N2 109.4(10) . . ?
N1 C13 N3 110.5(8) . . ?
N1 C14 N1 111.6(9) 6 . ?
O4 S1 O4 123(3) 6 . ?
O4 S1 O3 105.7(15) 6 . ?
O4 S1 O3 105.7(15) . . ?
O4 S1 C4 108.6(7) 6 . ?
O4 S1 C4 108.6(7) . . ?
O3 S1 C4 104.2(13) . . ?
O8 S2 O8 115.2(10) . 6_565 ?
O8 S2 O7 110.1(6) . . ?
O8 S2 O7 110.1(6) 6_565 . ?
O8 S2 C9 107.9(4) . . ?
O8 S2 C9 107.9(4) 6_565 . ?
O7 S2 C9 104.9(6) . . ?
C11 N2 C11 109.3(10) 6 . ?
C11 N2 C12 107.8(7) 6 . ?
C11 N2 C12 107.8(7) . . ?
C12 N3 C13 110.3(7) . 6 ?
C12 N3 C13 110.3(7) . . ?
C13 N3 C13 107.5(10) 6 . ?

_diffrn_measured_fraction_theta_max 0.979
_diffrn_reflns_theta_full        25.12
_diffrn_measured_fraction_theta_full 0.979
_refine_diff_density_max         1.127
_refine_diff_density_min         -0.659
_refine_diff_density_rms         0.157

