
#######################################################################
#
#                 Cambridge Crystallographic Data Centre
#                                CCDC
#
#######################################################################
#
# If this CIF has been generated from an entry in the Cambridge
# Structural Database, then it will include bibliographic, chemical,
# crystal, experimental, refinement or atomic coordinate data resulting
# from the CCDC's data processing and validation procedures.
#
#######################################################################

data_CSD_CIF_LYSCLH11
_audit_creation_date 1973-04-16
_audit_creation_method CSD-ConQuest-V1
_database_code_CSD LYSCLH11
_database_code_depnum_ccdc_archive 'CCDC 1208842'
_chemical_formula_sum 'C6 H19 Cl1 N2 O4'
_chemical_formula_moiety
;
C6 H15 N2 O2 1+,Cl1 1-,2(H2 O1)
;
_journal_coeditor_code "IUCr A09379"
_journal_coden_Cambridge 107
_journal_volume 28
_journal_year 1972
_journal_page_first 3207
_journal_name_full 'Acta Crystallogr.,Sect.B:Struct.Crystallogr.Cryst.Chem. '
loop_
_publ_author_name
"T.F.Koetzle"
"M.S.Lehmann"
"J.J.Verbist"
"W.C.Hamilton"
_chemical_name_systematic
;
L-Lysine monohydrochloride dihydrate
;
_chemical_name_common
;
Teaching Subset: Essential Nutrients
;
_cell_volume    581.271
_exptl_crystal_density_diffrn 1.25
_exptl_special_details
;
RESULTS OF A VARIETY OF THERMAL MOTION CORRECTIONS FOR BONDS INVOLVING 
HYDROGENS ARE PRESENTED. WE INCLUDE ONLY ONE OF THESE IN OUR FILE. BOND 
LENGTHS FOR HEAVIER ATOMS ARE GIVEN FULLY IN BUGAYONG ET AL. ACTA CRYST B28, 
3214, 1972
;
_diffrn_ambient_temperature ?
_diffrn_radiation_probe 'neutron radiation'
_diffrn_special_details
;
The study was carried out at room temperature,in the range 283-303K

;
#These two values have been output from a single CSD field.
_refine_ls_R_factor_gt 0.03
_refine_ls_wR_factor_gt 0.03
_symmetry_cell_setting monoclinic
_symmetry_space_group_name_H-M 'P 21'
_symmetry_Int_Tables_number 4
loop_
_symmetry_equiv_pos_site_id
_symmetry_equiv_pos_as_xyz
1 x,y,z
2 -x,1/2+y,-z
_cell_length_a 7.492(1)
_cell_length_b 13.320(4)
_cell_length_c 5.879(1)
_cell_angle_alpha 90
_cell_angle_beta 97.79(1)
_cell_angle_gamma 90
_cell_formula_units_Z 2
loop_
_atom_type_symbol
_atom_type_radius_bond
C 0.68
H 0.20
Cl 0.99
N 0.68
O 0.68
loop_
_atom_site_label
_atom_site_type_symbol
_atom_site_fract_x
_atom_site_fract_y
_atom_site_fract_z
Cl1 Cl 0.20686 -0.49970 -0.11335
C1 C 0.25000 0.07646 -0.24918
C2 C 0.30402 0.03407 -0.00677
C3 C 0.27275 -0.07906 -0.01032
C4 C 0.31367 -0.12933 0.22497
C5 C 0.29230 -0.24274 0.20678
C6 C 0.30368 -0.29240 0.43995
H1 H 0.20534 0.16220 0.13171
H2 H 0.43249 -0.27858 0.54261
H3 H 0.19526 -0.26559 0.53045
H4 H 0.39685 -0.27369 0.11413
H5 H 0.16204 -0.26083 0.10996
H6 H 0.22421 -0.10157 0.34200
H7 H 0.45150 -0.11077 0.30426
H8 H 0.13281 -0.09487 -0.07935
H9 H 0.36147 -0.11086 -0.12557
H10 H 0.44600 0.05000 0.04781
H11 H 0.25067 0.07215 0.32909
H12 H 0.06545 0.06320 0.12965
H13 H 0.16646 -0.41814 0.30492
H14 H 0.39199 -0.43356 0.36130
H15 H 0.26378 -0.43609 0.56821
N1 N 0.19806 0.08541 0.15524
N2 N 0.27970 -0.40272 0.41498
O1 O 0.35738 0.05943 -0.39049
O2 O 0.10390 0.12151 -0.28916
H16 H 0.24346 0.30833 0.29135
H17 H 0.27647 0.34630 0.06455
O3 O 0.29787 0.28991 0.15924
H18 H 0.14675 0.36665 -0.35171
H19 H 0.12653 0.25262 -0.38870
O4 O 0.12580 0.31597 -0.46669
#END
