####################################################################### 
# 
# This file contains crystal structure data downloaded from the 
# Cambridge Structural Database (CSD) hosted by the Cambridge 
# Crystallographic Data Centre (CCDC).
# 
# Full information about CCDC data access policies and citation 
# guidelines are available at http://www.ccdc.cam.ac.uk/access/V1 
# 
# Audit and citation data items may have been added by the CCDC. 
# Please retain this information to preserve the provenance of 
# this file and to allow appropriate attribution of the data. 
# 
#######################################################################

data_2
_audit_block_doi                 10.5517/ccvg42h
_database_code_depnum_ccdc_archive 'CCDC 788146'
loop_
_citation_id
_citation_doi
_citation_year
1 10.1039/c0ce00510j 2010
_audit_update_record             
;
2010-08-09 deposited with the CCDC.	2024-07-11 downloaded from the CCDC.
;
#TrackingRef '- Paper3-cif.txt'


_audit_creation_method           SHELXL-97
_chemical_name_systematic        
;
?
;
_chemical_name_common            ?
_chemical_melting_point          ?
_chemical_formula_moiety         'C26 H21 Cu N2 O8'
_chemical_formula_sum            'C26 H21 Cu N2 O8'
_chemical_formula_weight         552.99

loop_
_atom_type_symbol
_atom_type_description
_atom_type_scat_dispersion_real
_atom_type_scat_dispersion_imag
_atom_type_scat_source
C C 0.0033 0.0016 'International Tables Vol C Tables 4.2.6.8 and 6.1.1.4'
H H 0.0000 0.0000 'International Tables Vol C Tables 4.2.6.8 and 6.1.1.4'
N N 0.0061 0.0033 'International Tables Vol C Tables 4.2.6.8 and 6.1.1.4'
O O 0.0106 0.0060 'International Tables Vol C Tables 4.2.6.8 and 6.1.1.4'
Cu Cu 0.3201 1.2651 'International Tables Vol C Tables 4.2.6.8 and 6.1.1.4'

_symmetry_cell_setting           triclinic
_symmetry_space_group_name_H-M   'P -1'

loop_
_symmetry_equiv_pos_as_xyz
'x, y, z'
'-x, -y, -z'

_cell_length_a                   6.4557(2)
_cell_length_b                   13.1407(4)
_cell_length_c                   16.9417(6)
_cell_angle_alpha                76.069(2)
_cell_angle_beta                 88.4996(13)
_cell_angle_gamma                88.541(2)
_cell_volume                     1394.18(8)
_cell_formula_units_Z            2
_cell_measurement_temperature    110(2)
_cell_measurement_reflns_used    5247
_cell_measurement_theta_min      2.48
_cell_measurement_theta_max      27.46

_exptl_crystal_description       needles
_exptl_crystal_colour            purple
_exptl_crystal_size_max          0.30
_exptl_crystal_size_mid          0.15
_exptl_crystal_size_min          0.10
_exptl_crystal_density_meas      ?
_exptl_crystal_density_diffrn    1.317
_exptl_crystal_density_method    'not measured'
_exptl_crystal_F_000             568
_exptl_absorpt_coefficient_mu    0.831
_exptl_absorpt_correction_type   multi-scan
_exptl_absorpt_correction_T_min  0.7887
_exptl_absorpt_correction_T_max  0.9215
_exptl_absorpt_process_details   'Blessing, 1995'

_exptl_special_details           
;
?
;

_diffrn_ambient_temperature      110(2)
_diffrn_radiation_wavelength     0.71073
_diffrn_radiation_type           MoK\a
_diffrn_radiation_source         'fine-focus sealed tube'
_diffrn_radiation_monochromator  graphite
_diffrn_measurement_device_type  'Nonius KappaCCD'
_diffrn_measurement_method       '1 deg. \w scans'
_diffrn_detector_area_resol_mean 12.8
_diffrn_standards_number         0
_diffrn_standards_interval_count ?
_diffrn_standards_interval_time  ?
_diffrn_standards_decay_%        ?
_diffrn_reflns_number            17583
_diffrn_reflns_av_R_equivalents  0.0420
_diffrn_reflns_av_sigmaI/netI    0.0484
_diffrn_reflns_limit_h_min       0
_diffrn_reflns_limit_h_max       8
_diffrn_reflns_limit_k_min       -16
_diffrn_reflns_limit_k_max       17
_diffrn_reflns_limit_l_min       -21
_diffrn_reflns_limit_l_max       21
_diffrn_reflns_theta_min         2.48
_diffrn_reflns_theta_max         27.46
_reflns_number_total             6278
_reflns_number_gt                4880
_reflns_threshold_expression     >2sigma(I)

_computing_data_collection       'Collect, Nonius KappaCCD'
_computing_cell_refinement       Denzo
_computing_data_reduction        'Denzo & Scalepack'
_computing_structure_solution    SIR-97
_computing_structure_refinement  'SHELXL-97 (Sheldrick, 1997)'
_computing_molecular_graphics    ?
_computing_publication_material  ?

_refine_special_details          
;
Refinement of F^2^ against ALL reflections. The weighted R-factor wR and
goodness of fit S are based on F^2^, conventional R-factors R are based
on F, with F set to zero for negative F^2^. The threshold expression of
F^2^ > 2sigma(F^2^) is used only for calculating R-factors(gt) etc. and is
not relevant to the choice of reflections for refinement. R-factors based
on F^2^ are statistically about twice as large as those based on F, and R-
factors based on ALL data will be even larger.

The lattice contains unidentified crystallization solvent, the
contribution of which to the diffraction data was subtracted by the
SQUEEZE procedure, using the PLATON software (Spek, 2009).
Due to the mixed coordination/hydrogen-bonding association between the
porphyrin species, the H-atoms potentially involved in the intermolecular
interaction synthon attached to O23, O34, O35 and O36, could not be
located reliably. In the structural model listed below, they were
positioned assuming the coordination interaction only.
;

_refine_ls_structure_factor_coef Fsqd
_refine_ls_matrix_type           full
_refine_ls_weighting_scheme      calc
_refine_ls_weighting_details     
'calc w=1/[\s^2^(Fo^2^)+(0.0902P)^2^+1.2651P] where P=(Fo^2^+2Fc^2^)/3'
_atom_sites_solution_primary     direct
_atom_sites_solution_secondary   difmap
_atom_sites_solution_hydrogens   geom
_refine_ls_hydrogen_treatment    constr
_refine_ls_extinction_method     none
_refine_ls_extinction_coef       ?
_refine_ls_number_reflns         6278
_refine_ls_number_parameters     342
_refine_ls_number_restraints     0
_refine_ls_R_factor_all          0.0812
_refine_ls_R_factor_gt           0.0624
_refine_ls_wR_factor_ref         0.1711
_refine_ls_wR_factor_gt          0.1612
_refine_ls_goodness_of_fit_ref   1.053
_refine_ls_restrained_S_all      1.053
_refine_ls_shift/su_max          0.000
_refine_ls_shift/su_mean         0.000

loop_
_atom_site_label
_atom_site_type_symbol
_atom_site_fract_x
_atom_site_fract_y
_atom_site_fract_z
_atom_site_U_iso_or_equiv
_atom_site_adp_type
_atom_site_occupancy
_atom_site_symmetry_multiplicity
_atom_site_calc_flag
_atom_site_refinement_flags
_atom_site_disorder_assembly
_atom_site_disorder_group
Cu1 Cu 1.0000 0.0000 0.5000 0.02486(16) Uani 1 2 d S . .
Cu2 Cu -0.59776(15) -0.22128(10) 1.08364(5) 0.0604(3) Uani 0.50 1 d P . .
C1 C 1.3226(4) 0.1074(2) 0.37608(16) 0.0277(6) Uani 1 1 d . . .
C2 C 1.3679(5) 0.2085(2) 0.32216(17) 0.0298(6) Uani 1 1 d . . .
H2 H 1.4746 0.2227 0.2816 0.036 Uiso 1 1 calc R . .
C3 C 1.2304(5) 0.2782(2) 0.34051(18) 0.0306(6) Uani 1 1 d . . .
H3 H 1.2213 0.3509 0.3151 0.037 Uiso 1 1 calc R . .
C4 C 1.0991(4) 0.2219(2) 0.40615(16) 0.0274(6) Uani 1 1 d . . .
C5 C 0.9305(4) 0.2686(2) 0.43904(17) 0.0272(6) Uani 1 1 d . . .
C6 C 0.7887(4) 0.2120(2) 0.49491(17) 0.0282(6) Uani 1 1 d . . .
C7 C 0.6138(5) 0.2580(2) 0.52998(18) 0.0317(6) Uani 1 1 d . . .
H7 H 0.5762 0.3303 0.5188 0.038 Uiso 1 1 calc R . .
C8 C 0.5143(5) 0.1790(2) 0.58150(18) 0.0326(6) Uani 1 1 d . . .
H8 H 0.3920 0.1850 0.6126 0.039 Uiso 1 1 calc R . .
C9 C 0.6286(4) 0.0840(2) 0.58030(17) 0.0277(6) Uani 1 1 d . . .
C10 C 0.5741(4) -0.0143(2) 0.62800(17) 0.0287(6) Uani 1 1 d . . .
N11 N 1.1564(4) 0.11725(18) 0.42650(14) 0.0266(5) Uani 1 1 d . . .
N12 N 0.7952(4) 0.10440(18) 0.52645(14) 0.0271(5) Uani 1 1 d . . .
C13 C 0.9036(4) 0.3852(2) 0.41083(16) 0.0284(6) Uani 1 1 d . . .
C14 C 1.0653(5) 0.4508(2) 0.41639(17) 0.0299(6) Uani 1 1 d . . .
H14 H 1.1898 0.4209 0.4415 0.036 Uiso 1 1 calc R . .
C15 C 1.0506(5) 0.5586(2) 0.38642(18) 0.0323(6) Uani 1 1 d . . .
H15 H 1.1653 0.6014 0.3891 0.039 Uiso 1 1 calc R . .
C16 C 0.8670(5) 0.6031(2) 0.35258(18) 0.0364(7) Uani 1 1 d . . .
C17 C 0.7011(5) 0.5397(3) 0.34825(19) 0.0383(7) Uani 1 1 d . . .
H17 H 0.5741 0.5702 0.3260 0.046 Uiso 1 1 calc R . .
C18 C 0.7205(5) 0.4314(3) 0.37647(18) 0.0353(7) Uani 1 1 d . . .
H18 H 0.6072 0.3884 0.3722 0.042 Uiso 1 1 calc R . .
O19 O 0.8335(4) 0.70928(17) 0.32280(15) 0.0468(6) Uani 1 1 d . . .
C20 C 1.0120(7) 0.7704(3) 0.2992(2) 0.0506(9) Uani 1 1 d . . .
H20A H 1.1136 0.7528 0.3434 0.061 Uiso 1 1 calc R . .
H20B H 0.9731 0.8455 0.2910 0.061 Uiso 1 1 calc R . .
C21 C 1.1125(6) 0.7527(3) 0.2217(3) 0.0533(10) Uani 1 1 d . . .
O22 O 1.0238(5) 0.7021(3) 0.18142(17) 0.0677(8) Uani 1 1 d . . .
O23 O 1.2828(5) 0.7967(3) 0.2008(2) 0.0833(11) Uani 1 1 d . . .
H23 H 1.3861 0.7668 0.2427 0.100 Uiso 0.50 1 d PR . .
C24 C 0.4019(4) -0.0218(2) 0.68973(16) 0.0278(6) Uani 1 1 d . . .
C25 C 0.4138(5) 0.0262(2) 0.75493(18) 0.0333(7) Uani 1 1 d . . .
H25 H 0.5268 0.0703 0.7572 0.040 Uiso 1 1 calc R . .
C26 C 0.2619(5) 0.0101(2) 0.81627(17) 0.0347(7) Uani 1 1 d . . .
H26 H 0.2717 0.0426 0.8604 0.042 Uiso 1 1 calc R . .
C27 C 0.0959(5) -0.0538(2) 0.81267(17) 0.0328(7) Uani 1 1 d . . .
C28 C 0.0789(5) -0.1001(3) 0.74805(17) 0.0328(7) Uani 1 1 d . . .
H28 H -0.0359 -0.1429 0.7452 0.039 Uiso 1 1 calc R . .
C29 C 0.2332(5) -0.0832(2) 0.68688(18) 0.0315(6) Uani 1 1 d . . .
H29 H 0.2214 -0.1147 0.6423 0.038 Uiso 1 1 calc R . .
O30 O -0.0447(3) -0.0678(2) 0.87724(13) 0.0417(6) Uani 1 1 d . . .
C31 C -0.2021(5) -0.1421(3) 0.8806(2) 0.0458(8) Uani 1 1 d . . .
H31A H -0.1392 -0.2103 0.8768 0.055 Uiso 1 1 calc R . .
H31B H -0.2962 -0.1179 0.8343 0.055 Uiso 1 1 calc R . .
C32 C -0.3238(6) -0.1549(4) 0.9605(2) 0.0547(10) Uani 1 1 d . . .
O33 O -0.2780(5) -0.1096(3) 1.01120(17) 0.0694(9) Uani 1 1 d . . .
O34 O -0.4746(5) -0.2159(3) 0.96917(19) 0.0770(10) Uani 1 1 d . . .
H34 H -0.5794 -0.1887 0.9272 0.092 Uiso 0.50 1 d PR . .
O35 O -0.8079(5) -0.1133(3) 1.03605(18) 0.0766(9) Uani 1 1 d . . .
H35A H -0.9310 -0.1172 1.0075 0.115 Uiso 1 1 d R . .
H35B H -0.7861 -0.0403 1.0279 0.115 Uiso 1 1 d R . .
O36 O -0.4042(6) -0.3134(4) 1.1448(3) 0.1249(19) Uani 1 1 d . . .
H36A H -0.2793 -0.3212 1.1743 0.187 Uiso 1 1 d R . .
H36B H -0.3702 -0.3576 1.1063 0.187 Uiso 1 1 d R . .

loop_
_atom_site_aniso_label
_atom_site_aniso_U_11
_atom_site_aniso_U_22
_atom_site_aniso_U_33
_atom_site_aniso_U_23
_atom_site_aniso_U_13
_atom_site_aniso_U_12
Cu1 0.0260(3) 0.0259(3) 0.0223(3) -0.00567(18) 0.00839(18) -0.00476(19)
Cu2 0.0461(5) 0.0970(8) 0.0343(5) -0.0077(5) 0.0157(4) -0.0240(5)
C1 0.0280(14) 0.0318(15) 0.0235(13) -0.0075(11) 0.0080(11) -0.0071(11)
C2 0.0308(15) 0.0300(15) 0.0287(14) -0.0074(12) 0.0101(11) -0.0085(12)
C3 0.0312(15) 0.0283(15) 0.0323(15) -0.0073(12) 0.0077(12) -0.0084(12)
C4 0.0301(15) 0.0272(14) 0.0250(14) -0.0066(11) 0.0043(11) -0.0057(11)
C5 0.0298(15) 0.0270(14) 0.0250(13) -0.0071(11) 0.0044(11) -0.0030(11)
C6 0.0287(15) 0.0294(15) 0.0262(14) -0.0066(11) 0.0061(11) -0.0040(11)
C7 0.0352(16) 0.0286(15) 0.0294(15) -0.0046(12) 0.0106(12) -0.0008(12)
C8 0.0324(16) 0.0348(16) 0.0295(15) -0.0067(12) 0.0121(12) -0.0008(12)
C9 0.0278(14) 0.0288(14) 0.0256(14) -0.0055(11) 0.0065(11) -0.0030(11)
C10 0.0266(14) 0.0341(15) 0.0257(14) -0.0086(12) 0.0086(11) -0.0045(12)
N11 0.0253(12) 0.0294(12) 0.0252(11) -0.0068(9) 0.0064(9) -0.0051(9)
N12 0.0302(13) 0.0256(12) 0.0246(11) -0.0049(9) 0.0070(9) -0.0043(10)
C13 0.0320(15) 0.0283(14) 0.0235(13) -0.0045(11) 0.0077(11) -0.0010(12)
C14 0.0309(15) 0.0283(14) 0.0305(15) -0.0074(12) 0.0019(11) -0.0002(12)
C15 0.0374(16) 0.0291(15) 0.0305(15) -0.0081(12) 0.0061(12) -0.0046(12)
C16 0.0478(19) 0.0291(15) 0.0295(15) -0.0039(12) 0.0130(13) 0.0067(13)
C17 0.0327(16) 0.0413(18) 0.0352(16) 0.0003(13) 0.0057(13) 0.0053(14)
C18 0.0309(16) 0.0398(17) 0.0320(15) -0.0032(13) 0.0077(12) -0.0033(13)
O19 0.0584(16) 0.0279(11) 0.0475(14) 0.0010(10) 0.0150(11) 0.0086(11)
C20 0.071(3) 0.0238(16) 0.053(2) 0.0001(14) -0.0057(18) -0.0026(16)
C21 0.053(2) 0.0373(19) 0.061(2) 0.0046(17) 0.0115(18) -0.0087(17)
O22 0.079(2) 0.081(2) 0.0436(15) -0.0143(15) 0.0155(14) -0.0261(17)
O23 0.069(2) 0.092(3) 0.081(2) -0.0026(19) 0.0055(17) -0.0390(19)
C24 0.0297(15) 0.0296(14) 0.0217(13) -0.0026(11) 0.0095(11) -0.0026(11)
C25 0.0378(17) 0.0314(15) 0.0314(15) -0.0091(12) 0.0098(12) -0.0076(13)
C26 0.0432(18) 0.0393(17) 0.0233(14) -0.0112(12) 0.0084(12) -0.0067(14)
C27 0.0317(16) 0.0409(17) 0.0237(14) -0.0043(12) 0.0108(11) -0.0024(13)
C28 0.0251(14) 0.0445(17) 0.0282(15) -0.0079(13) 0.0077(11) -0.0078(13)
C29 0.0294(15) 0.0393(16) 0.0271(14) -0.0105(12) 0.0060(11) -0.0031(12)
O30 0.0374(12) 0.0595(15) 0.0289(11) -0.0126(10) 0.0171(9) -0.0109(11)
C31 0.0378(18) 0.063(2) 0.0354(17) -0.0106(16) 0.0137(14) -0.0129(16)
C32 0.044(2) 0.077(3) 0.038(2) -0.0036(19) 0.0166(16) -0.0090(19)
O33 0.0570(18) 0.116(3) 0.0365(14) -0.0215(16) 0.0244(12) -0.0217(17)
O34 0.067(2) 0.101(3) 0.0634(19) -0.0221(18) 0.0375(16) -0.0355(19)
O35 0.064(2) 0.110(3) 0.0508(17) -0.0094(17) 0.0070(14) -0.0041(18)
O36 0.076(3) 0.177(5) 0.086(3) 0.035(3) 0.014(2) 0.007(3)

_geom_special_details            
;
All esds (except the esd in the dihedral angle between two l.s. planes)
are estimated using the full covariance matrix. The cell esds are taken
into account individually in the estimation of esds in distances, angles
and torsion angles; correlations between esds in cell parameters are only
used when they are defined by crystal symmetry. An approximate (isotropic)
treatment of cell esds is used for estimating esds involving l.s. planes.
;

loop_
_geom_bond_atom_site_label_1
_geom_bond_atom_site_label_2
_geom_bond_distance
_geom_bond_site_symmetry_2
_geom_bond_publ_flag
Cu1 N12 2.001(2) 2_756 ?
Cu1 N12 2.001(2) . ?
Cu1 N11 2.008(2) . ?
Cu1 N11 2.008(2) 2_756 ?
Cu2 O36 1.867(4) . ?
Cu2 O35 1.978(4) . ?
Cu2 O34 2.063(3) . ?
Cu2 O23 2.174(4) 1_346 ?
C1 N11 1.377(3) . ?
C1 C10 1.393(4) 2_756 ?
C1 C2 1.451(4) . ?
C2 C3 1.343(4) . ?
C2 H2 0.9500 . ?
C3 C4 1.446(4) . ?
C3 H3 0.9500 . ?
C4 N11 1.378(4) . ?
C4 C5 1.403(4) . ?
C5 C6 1.392(4) . ?
C5 C13 1.498(4) . ?
C6 N12 1.385(4) . ?
C6 C7 1.448(4) . ?
C7 C8 1.349(4) . ?
C7 H7 0.9500 . ?
C8 C9 1.438(4) . ?
C8 H8 0.9500 . ?
C9 N12 1.381(3) . ?
C9 C10 1.397(4) . ?
C10 C1 1.393(4) 2_756 ?
C10 C24 1.495(4) . ?
C13 C14 1.390(4) . ?
C13 C18 1.390(4) . ?
C14 C15 1.387(4) . ?
C14 H14 0.9500 . ?
C15 C16 1.384(5) . ?
C15 H15 0.9500 . ?
C16 O19 1.379(4) . ?
C16 C17 1.387(5) . ?
C17 C18 1.391(5) . ?
C17 H17 0.9500 . ?
C18 H18 0.9500 . ?
O19 C20 1.415(5) . ?
C20 C21 1.514(6) . ?
C20 H20A 0.9900 . ?
C20 H20B 0.9900 . ?
C21 O22 1.223(5) . ?
C21 O23 1.258(5) . ?
O23 Cu2 2.174(4) 1_764 ?
O23 H23 0.9900 . ?
C24 C29 1.380(4) . ?
C24 C25 1.403(4) . ?
C25 C26 1.392(4) . ?
C25 H25 0.9500 . ?
C26 C27 1.389(4) . ?
C26 H26 0.9500 . ?
C27 C28 1.383(4) . ?
C27 O30 1.383(3) . ?
C28 C29 1.401(4) . ?
C28 H28 0.9500 . ?
C29 H29 0.9500 . ?
O30 C31 1.418(4) . ?
C31 C32 1.523(5) . ?
C31 H31A 0.9900 . ?
C31 H31B 0.9900 . ?
C32 O33 1.202(5) . ?
C32 O34 1.260(5) . ?
O34 H34 0.9900 . ?
O35 H35A 0.9502 . ?
O35 H35B 0.9493 . ?
O36 H36A 0.9502 . ?
O36 H36B 0.9899 . ?

loop_
_geom_angle_atom_site_label_1
_geom_angle_atom_site_label_2
_geom_angle_atom_site_label_3
_geom_angle
_geom_angle_site_symmetry_1
_geom_angle_site_symmetry_3
_geom_angle_publ_flag
N12 Cu1 N12 180.00(9) 2_756 . ?
N12 Cu1 N11 90.21(9) 2_756 . ?
N12 Cu1 N11 89.79(9) . . ?
N12 Cu1 N11 89.79(9) 2_756 2_756 ?
N12 Cu1 N11 90.21(9) . 2_756 ?
N11 Cu1 N11 180.0 . 2_756 ?
O36 Cu2 O35 169.8(2) . . ?
O36 Cu2 O34 98.71(18) . . ?
O35 Cu2 O34 90.17(15) . . ?
O36 Cu2 O23 84.87(18) . 1_346 ?
O35 Cu2 O23 85.69(14) . 1_346 ?
O34 Cu2 O23 171.80(15) . 1_346 ?
N11 C1 C10 126.2(3) . 2_756 ?
N11 C1 C2 109.9(2) . . ?
C10 C1 C2 123.7(3) 2_756 . ?
C3 C2 C1 107.1(2) . . ?
C3 C2 H2 126.5 . . ?
C1 C2 H2 126.5 . . ?
C2 C3 C4 107.2(3) . . ?
C2 C3 H3 126.4 . . ?
C4 C3 H3 126.4 . . ?
N11 C4 C5 126.4(2) . . ?
N11 C4 C3 110.0(2) . . ?
C5 C4 C3 123.4(3) . . ?
C6 C5 C4 123.3(3) . . ?
C6 C5 C13 119.4(3) . . ?
C4 C5 C13 117.3(2) . . ?
N12 C6 C5 125.6(3) . . ?
N12 C6 C7 109.9(2) . . ?
C5 C6 C7 124.5(3) . . ?
C8 C7 C6 107.3(3) . . ?
C8 C7 H7 126.4 . . ?
C6 C7 H7 126.4 . . ?
C7 C8 C9 106.9(3) . . ?
C7 C8 H8 126.5 . . ?
C9 C8 H8 126.5 . . ?
N12 C9 C10 126.0(3) . . ?
N12 C9 C8 110.7(2) . . ?
C10 C9 C8 123.3(3) . . ?
C1 C10 C9 123.6(3) 2_756 . ?
C1 C10 C24 117.0(2) 2_756 . ?
C9 C10 C24 119.3(3) . . ?
C1 N11 C4 105.8(2) . . ?
C1 N11 Cu1 126.64(19) . . ?
C4 N11 Cu1 126.81(18) . . ?
C9 N12 C6 105.2(2) . . ?
C9 N12 Cu1 127.00(19) . . ?
C6 N12 Cu1 127.83(19) . . ?
C14 C13 C18 117.8(3) . . ?
C14 C13 C5 120.4(3) . . ?
C18 C13 C5 121.8(3) . . ?
C15 C14 C13 122.0(3) . . ?
C15 C14 H14 119.0 . . ?
C13 C14 H14 119.0 . . ?
C16 C15 C14 119.