####################################################################### 
# 
# This file contains crystal structure data downloaded from the 
# Cambridge Structural Database (CSD) hosted by the Cambridge 
# Crystallographic Data Centre (CCDC).
# 
# Full information about CCDC data access policies and citation 
# guidelines are available at http://www.ccdc.cam.ac.uk/access/V1 
# 
# Audit and citation data items may have been added by the CCDC. 
# Please retain this information to preserve the provenance of 
# this file and to allow appropriate attribution of the data. 
# 
#######################################################################

data_[(CuI)(dpcp)](MeCN)
_audit_block_doi                 10.5517/cc7t6s0
_database_code_depnum_ccdc_archive 'CCDC 232772'
loop_
_citation_id
_citation_doi
_citation_year
1 10.1016/j.ica.2004.03.057 2004
_audit_update_record             
;
2004-03-02 deposited with the CCDC.	2024-07-11 downloaded from the CCDC.
;
#------------------------------------------------------------------------------
# CHEMICAL DATA
_chemical_formula_sum            'C18 H19 Cu I N S2 '
_chemical_formula_moiety         'C16 H16 Cu I S2, C2 H3 N'
_chemical_formula_weight         503.93
_chemical_melting_point          ?
#------------------------------------------------------------------------------
# CRYSTAL DATA
_symmetry_cell_setting           orthorhombic
_symmetry_space_group_name_H-M   'P n m a         '
_symmetry_space_group_name_Hall  '-P 2ac 2n'
_symmetry_Int_Tables_number      62
loop_
_symmetry_equiv_pos_as_xyz
x,y,z
1/2+x,1/2-y,1/2-z
-x,1/2+y,-z
1/2-x,-y,1/2+z
-x,-y,-z
1/2-x,1/2+y,1/2+z
x,1/2-y,z
1/2+x,y,1/2-z
_cell_length_a                   7.201(3)
_cell_length_b                   20.784(9)
_cell_length_c                   12.400(5)
_cell_angle_alpha                90
_cell_angle_beta                 90
_cell_angle_gamma                90
_cell_volume                     1855(2)
_cell_formula_units_Z            4
_cell_measurement_reflns_used    4755
_cell_measurement_theta_min      3.3
_cell_measurement_theta_max      27.5
_cell_measurement_temperature    150.2
#------------------------------------------------------------------------------
_exptl_crystal_description       Block
_exptl_crystal_colour            Colorless
_exptl_crystal_size_max          0.150
_exptl_crystal_size_mid          0.100
_exptl_crystal_size_min          0.080
_exptl_crystal_size_rad          ?
_exptl_crystal_density_diffrn    1.803
_exptl_crystal_density_meas      ?
_exptl_crystal_density_method    'not measured'
_exptl_crystal_F_000             992
_exptl_absorpt_coefficient_mu    3.064
_exptl_absorpt_correction_type   multi-scan
_exptl_absorpt_process_details   '(Jacobson, 1998)'
_exptl_absorpt_correction_T_min  0.673
_exptl_absorpt_correction_T_max  0.783
#------------------------------------------------------------------------------
# EXPERIMENTAL DATA
_diffrn_radiation_type           'Mo K\a'
_diffrn_radiation_wavelength     0.7107
_diffrn_measurement_device_type  'Rigaku/MSC Mercury CCD'
_diffrn_measurement_method       \w
_diffrn_detector_area_resol_mean 14.62
_diffrn_reflns_number            2176
_diffrn_reflns_av_R_equivalents  0.047
_diffrn_reflns_theta_min         ?
_diffrn_reflns_theta_max         27.49
_diffrn_reflns_theta_full        27.49
_diffrn_measured_fraction_theta_max 1.00
_diffrn_measured_fraction_theta_full 1.00
_diffrn_reflns_limit_h_min       -9
_diffrn_reflns_limit_h_max       9
_diffrn_reflns_limit_k_min       -26
_diffrn_reflns_limit_k_max       26
_diffrn_reflns_limit_l_min       -16
_diffrn_reflns_limit_l_max       16
#------------------------------------------------------------------------------
# REFINEMENT DATA
_refine_special_details          
;
Refinement using reflections with F^2^ > -10.0 sigma(F^2^). The weighted
R-factor (wR) and goodness of fit (S) are based on F^2^. R-factor (gt) are
based on F. The threshold expression of F^2^ > 2.0 sigma(F^2^) is used only
for calculating R-factor (gt).
;
_reflns_number_total             2176
_reflns_number_gt                2011
_reflns_threshold_expression     >2.0sigma(I)
_refine_ls_structure_factor_coef Fsqd
_refine_ls_R_factor_gt           0.0353
_refine_ls_wR_factor_ref         0.0673
_refine_ls_hydrogen_treatment    noref
_refine_ls_number_reflns         2011
_refine_ls_number_parameters     112
_refine_ls_goodness_of_fit_ref   1.189
_refine_ls_weighting_scheme      calc
_refine_ls_weighting_details     
'w = 1/[\s^2^(Fo^2^) + (0.0236P)^2^+3.9415P] where P=(Fo^2^+2Fc^2^)/3'
_refine_ls_shift/su_max          0.0000
_refine_ls_extinction_method     SHELXL
_refine_ls_extinction_coef       0.0000
_refine_ls_extinction_expression Fc^*^=kFc[1+0.001xFc^2^\l^3^/sin(2\q)]^-1/4^
_refine_diff_density_max         0.73
_refine_diff_density_min         -0.80
loop_
_atom_type_symbol
_atom_type_description
_atom_type_scat_dispersion_real
_atom_type_scat_dispersion_imag
_atom_type_scat_source
C C 0.003 0.002
;International Tables for Crystallography
(1992, Vol. C, Tables 4.2.6.8 and 6.1.1.4)
;
H H 0.000 0.000
;International Tables for Crystallography
(1992, Vol. C, Table 6.1.1.4)
;
Cu Cu 0.320 1.265
;International Tables for Crystallography
(1992, Vol. C, Tables 4.2.6.8 and 6.1.1.4)
;
I I -0.474 1.812
;International Tables for Crystallography
(1992, Vol. C, Tables 4.2.6.8 and 6.1.1.4)
;
S S 0.125 0.123
;International Tables for Crystallography
(1992, Vol. C, Tables 4.2.6.8 and 6.1.1.4)
;
N N 0.006 0.003
;International Tables for Crystallography
(1992, Vol. C, Tables 4.2.6.8 and 6.1.1.4)
;
#------------------------------------------------------------------------------
# ATOMIC COORDINATES AND DISPLACEMENT PARAMETERS
loop_
_atom_site_label
_atom_site_type_symbol
_atom_site_fract_x
_atom_site_fract_y
_atom_site_fract_z
_atom_site_U_iso_or_equiv
_atom_site_adp_type
_atom_site_occupancy
_atom_site_calc_flag
_atom_site_refinement_flags
_atom_site_disorder_assembly
_atom_site_disorder_group
I(1) I 0.12819(4) 0.2500 0.14065(2) 0.01621(9) Uani 1.00 d S . .
Cu(1) Cu -0.23648(8) 0.2500 0.16219(5) 0.0170(1) Uani 1.00 d S . .
S(1) S -0.3683(1) 0.16211(4) 0.07298(7) 0.0186(2) Uani 1.00 d . . .
N(1) N -0.185(2) 0.2500 -0.1645(10) 0.166(6) Uani 1.00 d S . .
C(1) C -0.3481(5) 0.0598(2) -0.1398(3) 0.0214(7) Uani 1.00 d . . .
C(2) C -0.4352(5) 0.0061(2) -0.1839(3) 0.0187(7) Uani 1.00 d . . .
C(3) C -0.4210(4) -0.0537(2) -0.1339(3) 0.0176(7) Uani 1.00 d . . .
C(4) C -0.3094(5) -0.0592(2) -0.0425(3) 0.0198(7) Uani 1.00 d . . .
C(5) C -0.2270(5) -0.0054(2) 0.0024(3) 0.0212(7) Uani 1.00 d . . .
C(6) C -0.2496(5) 0.0548(2) -0.0431(3) 0.0208(7) Uani 1.00 d . . .
C(7) C -0.1803(5) 0.1136(2) 0.0157(3) 0.0255(8) Uani 1.00 d . . .
C(8) C -0.4692(5) 0.1107(2) 0.1763(3) 0.0199(7) Uani 1.00 d . . .
C(9) C -0.177(2) 0.2500 -0.2520(9) 0.126(6) Uani 1.00 d S . .
C(10) C -0.183(3) 0.2500 -0.354(1) 0.27(2) Uani 1.00 d S . .
H(1) H -0.3557 0.1001 -0.1757 0.0256 Uiso 1.00 calc . . .
H(2) H -0.5049 0.0103 -0.2486 0.0225 Uiso 1.00 calc . . .
H(3) H -0.2897 -0.1003 -0.0108 0.0237 Uiso 1.00 calc . . .
H(4) H -0.1536 -0.0099 0.0656 0.0255 Uiso 1.00 calc . . .
H(5) H -0.1010 0.1002 0.0726 0.0306 Uiso 1.00 calc . . .
H(6) H -0.1123 0.1395 -0.0335 0.0306 Uiso 1.00 calc . . .
H(7) H -0.3711 0.0946 0.2199 0.0238 Uiso 1.00 calc . . .
H(8) H -0.5500 0.1362 0.2192 0.0238 Uiso 1.00 calc . . .
H(9) H -0.2468 0.2873 -0.3788 0.3265 Uiso 0.50 calc P . .
H(10) H -0.0604 0.2500 -0.3826 0.3265 Uiso 1.00 calc S . .
H(11) H -0.2468 0.2127 -0.3788 0.3265 Uiso 0.50 calc P . .

loop_
_atom_site_aniso_label
_atom_site_aniso_U_11
_atom_site_aniso_U_22
_atom_site_aniso_U_33
_atom_site_aniso_U_12
_atom_site_aniso_U_13
_atom_site_aniso_U_23
I(1) 0.0133(2) 0.0158(2) 0.0195(2) 0.0000 -0.0001(1) 0.0000
Cu(1) 0.0159(3) 0.0133(3) 0.0218(3) 0.0000 0.0005(2) 0.0000
S(1) 0.0169(4) 0.0160(4) 0.0229(4) -0.0024(4) 0.0011(4) -0.0046(3)
N(1) 0.18(1) 0.24(2) 0.077(8) 0.0000 0.000(8) 0.0000
C(1) 0.021(2) 0.018(2) 0.025(2) -0.002(1) 0.007(2) -0.003(1)
C(2) 0.018(2) 0.021(2) 0.017(2) -0.002(1) 0.004(1) -0.003(1)
C(3) 0.012(2) 0.019(2) 0.022(2) -0.001(1) 0.004(1) -0.005(1)
C(4) 0.014(2) 0.022(2) 0.024(2) 0.001(1) 0.002(1) -0.003(1)
C(5) 0.010(1) 0.030(2) 0.024(2) -0.001(1) 0.000(1) -0.007(1)
C(6) 0.014(2) 0.020(2) 0.028(2) -0.003(1) 0.008(1) -0.010(1)
C(7) 0.017(2) 0.026(2) 0.034(2) -0.005(1) 0.007(2) -0.012(2)
C(8) 0.018(2) 0.019(2) 0.022(2) -0.002(1) -0.001(1) -0.004(1)
C(9) 0.093(9) 0.24(2) 0.048(6) 0.0000 0.001(6) 0.0000
C(10) 0.11(1) 0.65(6) 0.052(8) 0.0000 -0.012(8) 0.0000
#------------------------------------------------------------------------------
_computing_data_collection       CRYSTALCLEAR
_computing_cell_refinement       CRYSTALCLEAR
_computing_data_reduction        'teXsan Ver. 1.11'
_computing_structure_solution    SIR88
_computing_structure_refinement  SHELXL97
_computing_publication_material  'teXsan Ver. 1.11'
_computing_molecular_graphics    ?
#------------------------------------------------------------------------------
_geom_special_details            
;
?
;
loop_
_geom_bond_atom_site_label_1
_geom_bond_atom_site_label_2
_geom_bond_distance
_geom_bond_site_symmetry_1
_geom_bond_site_symmetry_2
_geom_bond_publ_flag
I(1) Cu(1) 2.640(1) . . yes
I(1) Cu(1) 2.6318(7) . 2_555 yes
Cu(1) S(1) 2.3371(9) . . yes
Cu(1) S(1) 2.3371(9) . 7_555 yes
S(1) C(7) 1.831(4) . . yes
S(1) C(8) 1.821(4) . . yes
N(1) C(9) 1.09(2) . . yes
C(1) C(2) 1.392(5) . . yes
C(1) C(6) 1.397(5) . . yes
C(1) H(1) 0.950 . . no
C(2) C(3) 1.392(5) . . yes
C(2) H(2) 0.950 . . no
C(3) C(4) 1.395(5) . . yes
C(3) C(8) 1.517(5) . 5_455 yes
C(4) C(5) 1.382(5) . . yes
C(4) H(3) 0.950 . . no
C(5) C(6) 1.383(5) . . yes
C(5) H(4) 0.950 . . no
C(6) C(7) 1.508(5) . . yes
C(7) H(5) 0.950 . . no
C(7) H(6) 0.950 . . no
C(8) H(7) 0.950 . . no
C(8) H(8) 0.950 . . no
C(9) C(10) 1.27(2) . . yes
C(10) H(9) 0.950 . . no
C(10) H(10) 0.950 . . no
C(10) H(11) 0.950 . . no
#------------------------------------------------------------------------------
loop_
_geom_angle_atom_site_label_1
_geom_angle_atom_site_label_2
_geom_angle_atom_site_label_3
_geom_angle
_geom_angle_site_symmetry_1
_geom_angle_site_symmetry_2
_geom_angle_site_symmetry_3
_geom_angle_publ_flag
Cu(1) I(1) Cu(1) 105.93(2) . . 2_555 yes
I(1) Cu(1) I(1) 117.54(2) . . 2_455 yes
I(1) Cu(1) S(1) 110.87(3) . . . yes
I(1) Cu(1) S(1) 110.87(3) . . 7_555 yes
I(1) Cu(1) S(1) 106.81(3) 2_455 . . yes
I(1) Cu(1) S(1) 106.81(3) 2_455 . 7_555 yes
S(1) Cu(1) S(1) 102.82(5) . . 7_555 yes
Cu(1) S(1) C(7) 108.3(1) . . . yes
Cu(1) S(1) C(8) 106.7(1) . . . yes
C(7) S(1) C(8) 104.2(2) . . . yes
C(2) C(1) C(6) 120.5(3) . . . yes
C(2) C(1) H(1) 119.8 . . . no
C(6) C(1) H(1) 119.8 . . . no
C(1) C(2) C(3) 120.5(3) . . . yes
C(1) C(2) H(2) 119.8 . . . no
C(3) C(2) H(2) 119.8 . . . no
C(2) C(3) C(4) 118.5(3) . . . yes
C(2) C(3) C(8) 120.2(3) . . 5_455 yes
C(4) C(3) C(8) 121.2(3) . . 5_455 yes
C(3) C(4) C(5) 120.5(3) . . . yes
C(3) C(4) H(3) 119.7 . . . no
C(5) C(4) H(3) 119.7 . . . no
C(4) C(5) C(6) 121.2(3) . . . yes
C(4) C(5) H(4) 119.4 . . . no
C(6) C(5) H(4) 119.4 . . . no
C(1) C(6) C(5) 118.4(3) . . . yes
C(1) C(6) C(7) 121.5(3) . . . yes
C(5) C(6) C(7) 119.9(3) . . . yes
S(1) C(7) C(6) 112.9(2) . . . yes
S(1) C(7) H(5) 108.6 . . . no
S(1) C(7) H(6) 108.6 . . . no
C(6) C(7) H(5) 108.6 . . . no
C(6) C(7) H(6) 108.6 . . . no
H(5) C(7) H(6) 109.5 . . . no
S(1) C(8) C(3) 115.0(2) . . 5_455 yes
S(1) C(8) H(7) 108.1 . . . no
S(1) C(8) H(8) 108.1 . . . no
C(3) C(8) H(7) 108.1 5_455 . . no
C(3) C(8) H(8) 108.1 5_455 . . no
H(7) C(8) H(8) 109.5 . . . no
N(1) C(9) C(10) 175(1) . . . yes
C(9) C(10) H(9) 109.5 . . . no
C(9) C(10) H(10) 109.5 . . . no
C(9) C(10) H(11) 109.5 . . . no
H(9) C(10) H(10) 109.4 . . . no
H(9) C(10) H(11) 109.4 . . . no
H(10) C(10) H(11) 109.4 . . . no
#------------------------------------------------------------------------------
loop_
_geom_contact_atom_site_label_1
_geom_contact_atom_site_label_2
_geom_contact_distance
_geom_contact_site_symmetry_1
_geom_contact_site_symmetry_2
_geom_contact_publ_flag
I(1) Cu(1) 2.640(1) . . ?
I(1) Cu(1) 2.6318(7) . 2_555 ?
N(1) C(10) 3.60(2) . 2_454 ?
C(5) C(5) 3.278(7) . 5_555 ?
