####################################################################### 
# 
# This file contains crystal structure data downloaded from the 
# Cambridge Structural Database (CSD) hosted by the Cambridge 
# Crystallographic Data Centre (CCDC).
# 
# Full information about CCDC data access policies and citation 
# guidelines are available at http://www.ccdc.cam.ac.uk/access/V1 
# 
# Audit and citation data items may have been added by the CCDC. 
# Please retain this information to preserve the provenance of 
# this file and to allow appropriate attribution of the data. 
# 
#######################################################################

data_[CuCl(dpcp)](MeCN)
_audit_block_doi                 10.5517/cc7t6v2
_database_code_depnum_ccdc_archive 'CCDC 232774'
loop_
_citation_id
_citation_doi
_citation_year
1 10.1016/j.ica.2004.03.057 2004
_audit_update_record             
;
2004-03-02 deposited with the CCDC.	2024-07-11 downloaded from the CCDC.
;

_audit_creation_date             'Sun Oct  5 09:32:32 2003'
_audit_creation_method           'by teXsan'



#------------------------------------------------------------------------------

#------------------------------------------------------------------------------
# CHEMICAL DATA
_chemical_formula_sum            'C18 H19 Cl Cu N S2 '
_chemical_formula_moiety         'C16 H16 Cl Cu S2, C2 H3 N '
_chemical_formula_weight         412.47
_chemical_melting_point          ?
#------------------------------------------------------------------------------
# CRYSTAL DATA
_symmetry_cell_setting           monoclinic
_symmetry_space_group_name_H-M   'P 1 21/n 1'
_symmetry_space_group_name_Hall  '-p 2yn    '
_symmetry_Int_Tables_number      14
loop_
_symmetry_equiv_pos_as_xyz
x,y,z
1/2-x,1/2+y,1/2-z
-x,-y,-z
1/2+x,1/2-y,1/2+z
_cell_length_a                   7.255(2)
_cell_length_b                   20.602(3)
_cell_length_c                   12.415(2)
_cell_angle_alpha                90
_cell_angle_beta                 102.491(9)
_cell_angle_gamma                90
_cell_volume                     1811.6(6)
_cell_formula_units_Z            4
_cell_measurement_reflns_used    3998
_cell_measurement_theta_min      3.0
_cell_measurement_theta_max      27.5
_cell_measurement_temperature    150.2
#------------------------------------------------------------------------------
_exptl_crystal_description       Block
_exptl_crystal_colour            Colorless
_exptl_crystal_size_max          0.120
_exptl_crystal_size_mid          0.120
_exptl_crystal_size_min          0.080
_exptl_crystal_size_rad          ?
_exptl_crystal_density_diffrn    1.512
_exptl_crystal_density_meas      ?
_exptl_crystal_density_method    'not measured'
_exptl_crystal_F_000             848
_exptl_absorpt_coefficient_mu    1.581
_exptl_absorpt_correction_type   multi-scan
_exptl_absorpt_process_details   '(Jacobson, 1998)'
_exptl_absorpt_correction_T_min  0.777
_exptl_absorpt_correction_T_max  0.881
#------------------------------------------------------------------------------
# EXPERIMENTAL DATA
_diffrn_radiation_type           'Mo K\a'
_diffrn_radiation_wavelength     0.7107
_diffrn_measurement_device_type  'Rigaku/MSC Mercury CCD'
_diffrn_measurement_method       \w
_diffrn_detector_area_resol_mean 14.62
_diffrn_reflns_number            21686
_diffrn_reflns_av_R_equivalents  0.064
_diffrn_reflns_theta_min         ?
_diffrn_reflns_theta_max         27.48
_diffrn_reflns_theta_full        27.48
_diffrn_measured_fraction_theta_max 1.00
_diffrn_measured_fraction_theta_full 1.00
_diffrn_reflns_limit_h_min       -9
_diffrn_reflns_limit_h_max       9
_diffrn_reflns_limit_k_min       -26
_diffrn_reflns_limit_k_max       26
_diffrn_reflns_limit_l_min       -16
_diffrn_reflns_limit_l_max       16
#------------------------------------------------------------------------------
# REFINEMENT DATA
_refine_special_details          
;
Refinement using reflections with F^2^ > -10.0 sigma(F^2^). The weighted
R-factor (wR) and goodness of fit (S) are based on F^2^. R-factor (gt) are
based on F. The threshold expression of F^2^ > 2.0 sigma(F^2^) is used only
for calculating R-factor (gt).
;
_reflns_number_total             4132
_reflns_number_gt                3510
_reflns_threshold_expression     >2.0sigma(I)
_refine_ls_structure_factor_coef Fsqd
_refine_ls_R_factor_gt           0.0642
_refine_ls_wR_factor_ref         0.0863
_refine_ls_hydrogen_treatment    noref
_refine_ls_number_reflns         3510
_refine_ls_number_parameters     208
_refine_ls_goodness_of_fit_ref   1.238
_refine_ls_weighting_scheme      calc
_refine_ls_weighting_details     
'w = 1/[\s^2^(Fo^2^) + (0.0134P)^2^+4.0773P] where P=(Fo^2^+2Fc^2^)/3'
_refine_ls_shift/su_max          0.0000
_refine_ls_extinction_method     SHELXL
_refine_ls_extinction_coef       0.0000
_refine_ls_extinction_expression Fc^*^=kFc[1+0.001xFc^2^\l^3^/sin(2\q)]^-1/4^
_refine_diff_density_max         0.40
_refine_diff_density_min         -0.41
loop_
_atom_type_symbol
_atom_type_description
_atom_type_scat_dispersion_real
_atom_type_scat_dispersion_imag
_atom_type_scat_source
Cu Cu 0.320 1.265
;International Tables for Crystallography
(1992, Vol. C, Tables 4.2.6.8 and 6.1.1.4)
;
Cl Cl 0.148 0.159
;International Tables for Crystallography
(1992, Vol. C, Tables 4.2.6.8 and 6.1.1.4)
;
S S 0.125 0.123
;International Tables for Crystallography
(1992, Vol. C, Tables 4.2.6.8 and 6.1.1.4)
;
N N 0.006 0.003
;International Tables for Crystallography
(1992, Vol. C, Tables 4.2.6.8 and 6.1.1.4)
;
C C 0.003 0.002
;International Tables for Crystallography
(1992, Vol. C, Tables 4.2.6.8 and 6.1.1.4)
;
H H 0.000 0.000
;International Tables for Crystallography
(1992, Vol. C, Table 6.1.1.4)
;
#------------------------------------------------------------------------------
# ATOMIC COORDINATES AND DISPLACEMENT PARAMETERS
loop_
_atom_site_label
_atom_site_type_symbol
_atom_site_fract_x
_atom_site_fract_y
_atom_site_fract_z
_atom_site_U_iso_or_equiv
_atom_site_adp_type
_atom_site_occupancy
_atom_site_calc_flag
_atom_site_refinement_flags
_atom_site_disorder_assembly
_atom_site_disorder_group
Cu(1) Cu 0.91734(6) 0.00329(2) 0.09968(4) 0.0205(1) Uani 1.00 d . . .
Cl(1) Cl 1.2368(1) 0.01289(4) 0.09119(7) 0.0219(2) Uani 1.00 d . . .
S(1) S 0.8264(1) 0.10049(4) 0.15376(7) 0.0179(2) Uani 1.00 d . . .
S(2) S 0.6339(1) 0.40783(4) 0.31932(8) 0.0216(2) Uani 1.00 d . . .
N(1) N 0.225(1) 0.0481(3) 0.5195(6) 0.112(2) Uani 1.00 d . . .
C(1) C 0.6892(5) 0.1707(2) 0.4051(3) 0.0250(8) Uani 1.00 d . . .
C(2) C 0.6593(5) 0.2333(2) 0.4401(3) 0.0240(8) Uani 1.00 d . . .
C(3) C 0.5602(5) 0.2786(2) 0.3683(3) 0.0196(8) Uani 1.00 d . . .
C(4) C 0.4783(5) 0.2587(2) 0.2616(3) 0.0224(8) Uani 1.00 d . . .
C(5) C 0.5075(5) 0.1964(2) 0.2263(3) 0.0213(8) Uani 1.00 d . . .
C(6) C 0.6192(5) 0.1524(2) 0.2966(3) 0.0196(8) Uani 1.00 d . . .
C(7) C 0.6763(5) 0.0889(2) 0.2535(3) 0.0234(8) Uani 1.00 d . . .
C(8) C 1.0416(5) 0.1359(2) 0.2360(3) 0.0240(8) Uani 1.00 d . . .
C(9) C 0.9093(5) 0.3145(2) 0.2117(3) 0.0246(8) Uani 1.00 d . . .
C(10) C 0.9428(5) 0.2513(2) 0.1834(3) 0.0209(8) Uani 1.00 d . . .
C(11) C 1.0256(5) 0.2071(2) 0.2633(3) 0.0191(7) Uani 1.00 d . . .
C(12) C 1.0885(5) 0.2287(2) 0.3706(3) 0.0258(8) Uani 1.00 d . . .
C(13) C 1.0546(5) 0.2919(2) 0.3995(3) 0.0276(9) Uani 1.00 d . . .
C(14) C 0.9560(5) 0.3342(2) 0.3214(3) 0.0251(9) Uani 1.00 d . . .
C(15) C 0.8904(6) 0.3990(2) 0.3555(4) 0.034(1) Uani 1.00 d . . .
C(16) C 0.5458(5) 0.3480(2) 0.4041(3) 0.0252(8) Uani 1.00 d . . .
C(17) C 0.2446(9) 0.0106(3) 0.4583(5) 0.066(2) Uani 1.00 d . . .
C(18) C 0.2716(10) -0.0386(3) 0.3796(4) 0.076(2) Uani 1.00 d . . .
H(1) H 0.7583 0.1405 0.4557 0.0307 Uiso 1.00 calc . . .
H(2) H 0.7082 0.2450 0.5150 0.0290 Uiso 1.00 calc . . .
H(3) H 0.4018 0.2881 0.2123 0.0267 Uiso 1.00 calc . . .
H(4) H 0.4501 0.1835 0.1536 0.0258 Uiso 1.00 calc . . .
H(5) H 0.5659 0.0661 0.2187 0.0279 Uiso 1.00 calc . . .
H(6) H 0.7440 0.0641 0.3139 0.0279 Uiso 1.00 calc . . .
H(7) H 1.0751 0.1126 0.3033 0.0287 Uiso 1.00 calc . . .
H(8) H 1.1390 0.1316 0.1961 0.0287 Uiso 1.00 calc . . .
H(9) H 0.8540 0.3444 0.1558 0.0295 Uiso 1.00 calc . . .
H(10) H 0.9095 0.2381 0.1084 0.0253 Uiso 1.00 calc . . .
H(11) H 1.1554 0.2000 0.4250 0.0312 Uiso 1.00 calc . . .
H(12) H 1.0998 0.3062 0.4731 0.0332 Uiso 1.00 calc . . .
H(13) H 0.9456 0.4322 0.3210 0.0408 Uiso 1.00 calc . . .
H(14) H 0.9308 0.4027 0.4338 0.0408 Uiso 1.00 calc . . .
H(15) H 0.6166 0.3520 0.4778 0.0304 Uiso 1.00 calc . . .
H(16) H 0.4170 0.3572 0.4018 0.0304 Uiso 1.00 calc . . .
H(17) H 0.2629 -0.0801 0.4105 0.0935 Uiso 1.00 calc . . .
H(18) H 0.1785 -0.0336 0.3141 0.0935 Uiso 1.00 calc . . .
H(19) H 0.3938 -0.0330 0.3643 0.0935 Uiso 1.00 calc . . .

loop_
_atom_site_aniso_label
_atom_site_aniso_U_11
_atom_site_aniso_U_22
_atom_site_aniso_U_33
_atom_site_aniso_U_12
_atom_site_aniso_U_13
_atom_site_aniso_U_23
Cu(1) 0.0251(2) 0.0124(2) 0.0257(2) -0.0013(2) 0.0093(2) -0.0019(2)
Cl(1) 0.0193(4) 0.0223(5) 0.0238(4) 0.0016(3) 0.0043(4) -0.0027(3)
S(1) 0.0213(5) 0.0129(4) 0.0199(4) -0.0002(3) 0.0056(4) -0.0028(3)
S(2) 0.0242(5) 0.0145(4) 0.0279(5) 0.0005(4) 0.0097(4) -0.0023(4)
N(1) 0.147(7) 0.099(5) 0.086(5) -0.006(5) 0.016(5) -0.001(4)
C(1) 0.030(2) 0.020(2) 0.027(2) 0.001(2) 0.011(2) 0.003(2)
C(2) 0.028(2) 0.023(2) 0.022(2) -0.005(2) 0.008(2) -0.004(1)
C(3) 0.018(2) 0.015(2) 0.030(2) -0.004(1) 0.013(2) -0.004(1)
C(4) 0.018(2) 0.020(2) 0.030(2) 0.002(1) 0.005(2) -0.001(2)
C(5) 0.016(2) 0.025(2) 0.023(2) -0.004(1) 0.006(2) -0.009(2)
C(6) 0.021(2) 0.013(2) 0.029(2) -0.006(1) 0.014(2) -0.002(1)
C(7) 0.027(2) 0.014(2) 0.032(2) -0.004(1) 0.013(2) -0.002(1)
C(8) 0.021(2) 0.020(2) 0.031(2) 0.000(1) 0.005(2) -0.006(2)
C(9) 0.022(2) 0.019(2) 0.034(2) -0.003(2) 0.011(2) -0.001(2)
C(10) 0.018(2) 0.021(2) 0.026(2) -0.003(1) 0.012(2) -0.004(2)
C(11) 0.011(2) 0.017(2) 0.031(2) -0.004(1) 0.007(2) -0.007(1)
C(12) 0.018(2) 0.025(2) 0.033(2) -0.001(2) 0.003(2) -0.006(2)
C(13) 0.017(2) 0.033(2) 0.033(2) -0.006(2) 0.006(2) -0.017(2)
C(14) 0.014(2) 0.018(2) 0.046(2) -0.008(1) 0.013(2) -0.012(2)
C(15) 0.024(2) 0.023(2) 0.058(3) -0.005(2) 0.016(2) -0.016(2)
C(16) 0.029(2) 0.022(2) 0.028(2) -0.005(2) 0.014(2) -0.005(2)
C(17) 0.074(4) 0.068(4) 0.044(3) -0.023(3) -0.013(3) 0.018(3)
C(18) 0.094(5) 0.088(5) 0.034(3) -0.026(4) -0.015(3) 0.020(3)
#------------------------------------------------------------------------------
_computing_data_collection       CRYSTALCLEAR
_computing_cell_refinement       CRYSTALCLEAR
_computing_data_reduction        'teXsan Ver. 1.11'
_computing_structure_solution    SIR88
_computing_structure_refinement  SHELXL97
_computing_publication_material  'teXsan Ver. 1.11'
_computing_molecular_graphics    ?
#------------------------------------------------------------------------------
_geom_special_details            
;
?
;
loop_
_geom_bond_atom_site_label_1
_geom_bond_atom_site_label_2
_geom_bond_distance
_geom_bond_site_symmetry_1
_geom_bond_site_symmetry_2
_geom_bond_publ_flag
Cu(1) Cl(1) 2.351(1) . . yes
Cu(1) Cl(1) 2.4145(9) . 3_755 yes
Cu(1) S(1) 2.256(1) . . yes
Cu(1) S(2) 2.276(1) . 2_645 yes
S(1) C(7) 1.832(4) . . yes
S(1) C(8) 1.823(4) . . yes
S(2) C(15) 1.827(4) . . yes
S(2) C(16) 1.824(4) . . yes
N(1) C(17) 1.113(10) . . yes
C(1) C(2) 1.393(5) . . yes
C(1) C(6) 1.385(5) . . yes
C(1) H(1) 0.948 . . no
C(2) C(3) 1.380(5) . . yes
C(2) H(2) 0.951 . . no
C(3) C(4) 1.391(5) . . yes
C(3) C(16) 1.508(5) . . yes
C(4) C(5) 1.385(5) . . yes
C(4) H(3) 0.951 . . no
C(5) C(6) 1.390(5) . . yes
C(5) H(4) 0.947 . . no
C(6) C(7) 1.505(5) . . yes
C(7) H(5) 0.949 . . no
C(7) H(6) 0.951 . . no
C(8) C(11) 1.514(5) . . yes
C(8) H(7) 0.950 . . no
C(8) H(8) 0.951 . . no
C(9) C(10) 1.383(5) . . yes
C(9) C(14) 1.392(6) . . yes
C(9) H(9) 0.950 . . no
C(10) C(11) 1.385(5) . . yes
C(10) H(10) 0.950 . . no
C(11) C(12) 1.385(5) . . yes
C(12) C(13) 1.386(6) . . yes
C(12) H(11) 0.949 . . no
C(13) C(14) 1.383(5) . . yes
C(13) H(12) 0.949 . . no
C(14) C(15) 1.507(6) . . yes
C(15) H(13) 0.942 . . no
C(15) H(14) 0.955 . . no
C(16) H(15) 0.950 . . no
C(16) H(16) 0.948 . . no
C(17) C(18) 1.450(9) . . yes
C(18) H(17) 0.945 . . no
C(18) H(18) 0.944 . . no
C(18) H(19) 0.953 . . no
#------------------------------------------------------------------------------
loop_
_geom_angle_atom_site_label_1
_geom_angle_atom_site_label_2
_geom_angle_atom_site_label_3
_geom_angle
_geom_angle_site_symmetry_1
_geom_angle_site_symmetry_2
_geom_angle_site_symmetry_3
_geom_angle_publ_flag
Cl(1) Cu(1) Cl(1) 102.67(3) . . 3_755 yes
Cl(1) Cu(1) S(1) 107.06(3) . . . yes
Cl(1) Cu(1) S(2) 110.45(4) . . 2_645 yes
Cl(1) Cu(1) S(1) 108.15(3) 3_755 . . yes
Cl(1) Cu(1) S(2) 103.25(3) 3_755 . 2_645 yes
S(1) Cu(1) S(2) 123.33(4) . . 2_645 yes
Cu(1) Cl(1) Cu(1) 77.33(3) . . 3_755 yes
Cu(1) S(1) C(7) 109.9(1) . . . yes
Cu(1) S(1) C(8) 104.6(1) . . . yes
C(7) S(1) C(8) 103.6(2) . . . yes
Cu(1) S(2) C(15) 103.5(1) 2_655 . . yes
Cu(1) S(2) C(16) 102.6(1) 2_655 . . yes
C(15) S(2) C(16) 104.8(2) . . . yes
C(2) C(1) C(6) 120.5(3) . . . yes
C(2) C(1) H(1) 119.8 . . . no
C(6) C(1) H(1) 119.7 . . . no
C(1) C(2) C(3) 121.2(3) . . . yes
C(1) C(2) H(2) 119.3 . . . no
C(3) C(2) H(2) 119.5 . . . no
C(2) C(3) C(4) 118.2(3) . . . yes
C(2) C(3) C(16) 120.6(3) . . . yes
C(4) C(3) C(16) 121.2(3) . . . yes
C(3) C(4) C(5) 120.7(3) . . . yes
C(3) C(4) H(3) 119.7 . . . no
C(5) C(4) H(3) 119.7 . . . no
C(4) C(5) C(6) 120.9(3) . . . yes
C(4) C(5) H(4) 119.7 . . . no
C(6) C(5) H(4) 119.4 . . . no
C(1) C(6) C(5) 118.3(3) . . . yes
C(1) C(6) C(7) 120.8(3) . . . yes
C(5) C(6) C(7) 120.8(3) . . . yes
S(1) C(7) C(6) 112.1(3) . . . yes
S(1) C(7) H(5) 108.9 . . . no
S(1) C(7) H(6) 108.7 . . . no
C(6) C(7) H(5) 108.9 . . . no
C(6) C(7) H(6) 108.7 . . . no
H(5) C(7) H(6) 109.5 . . . no
S(1) C(8) C(11) 114.6(2) . . . yes
S(1) C(8) H(7) 108.4 . . . no
S(1) C(8) H(8) 108.3 . . . no
C(11) C(8) H(7) 108.1 . . . no
C(11) C(8) H(8) 108.1 . . . no
H(7) C(8) H(8) 109.4 . . . no
C(10) C(9) C(14) 120.3(3) . . . yes
C(10) C(9) H(9) 119.7 . . . no
C(14) C(9) H(9) 120.0 . . . no
C(9) C(10) C(11) 120.7(3) . . . yes
C(9) C(10) H(10) 119.8 . . . no
C(11) C(10) H(10) 119.5 . . . no
C(8) C(11) C(10) 121.2(3) . . . yes
C(8) C(11) C(12) 120.1(3) . . . yes
C(10) C(11) C(12) 118.6(3) . . . yes
C(11) C(12) C(13) 120.7(3) . . . yes
C(11) C(12) H(11) 119.7 . . . no
C(13) C(12) H(11) 119.6 . . . no
C(12) C(13) C(14) 120.3(4) . . . yes
C(12) C(13) H(12) 119.9 . . . no
C(14) C(13) H(12) 119.8 . . . no
C(9) C(14) C(13) 118.7(3) . . . yes
C(9) C(14) C(15) 120.6(3) . . . yes
C(13) C(14) C(15) 120.5(4) . . . yes
S(2) C(15) C(14) 112.7(3) . . . yes
S(2) C(15) H(13) 109.0 . . . no
S(2) C(15) H(14) 108.3 . . . no
C(14) C(15) H(13) 108.9 . . . no
C(14) C(15) H(14) 108.1 . . . no
H(13) C(15) H(14) 109.8 . . . no
S(2) C(16) C(3) 114.5(3) . . . yes
S(2) C(16) H(15) 108.2 . . . no
S(2) C(16) H(16) 108.3 . . . no
C(3) C(16) H(15) 108.0 . . . no
C(3) C(16) H(16) 108.2 . . . no
H(15) C(16) H(16) 109.6 . . . no
N(1) C(17) C(18) 179.3(7) . . . yes
C(17) C(18) H(17) 109.3 . . . no
C(17) C(18) H(18) 109.2 . . . no
C(17) C(18) H(19) 108.5 . . . no
H(17) C(18) H(18) 110.4 . . . no
H(17) C(18) H(19) 109.7 . . . no
H(18) C(18) H(19) 109.7 . . . no
#------------------------------------------------------------------------------
loop_
_geom_contact_atom_site_label_1
_geom_contact_atom_site_label_2
_geom_contact_distance
_geom_contact_site_symmetry_1
_geom_contact_site_symmetry_2
_geom_contact_publ_flag
Cl(1) C(15) 3.534(4) . 2_745 ?
S(2) C(18) 3.582(6) . 2_555 ?
C(3) C(12) 3.579(5) . 1_455 ?
C(4) C(12) 3.445(6) . 1_455 ?
C(4) C(11) 3.457(5) . 1_455 ?
