
#######################################################################
#
#                 Cambridge Crystallographic Data Centre
#                                CCDC
#
#######################################################################
#
# If this CIF has been generated from an entry in the Cambridge
# Structural Database, then it will include bibliographic, chemical,
# crystal, experimental, refinement or atomic coordinate data resulting
# from the CCDC's data processing and validation procedures.
#
#######################################################################

data_CSD_CIF_MAFLAI
_audit_creation_date 2011-04-07
_audit_creation_method CSD-ConQuest-V1
_database_code_CSD MAFLAI
_database_code_depnum_ccdc_archive 'CCDC 759221'
_chemical_formula_sum 'C50 H76 N4 O15'
_chemical_formula_moiety
;
C47 H64 N4 O12,3(C1 H4 O1)
;
_journal_coden_Cambridge 119
_journal_volume 983
_journal_year 2010
_journal_page_first 27
_journal_name_full 'J.Mol.Struct. '
loop_
_publ_author_name
"K.Zhou"
"J.Li"
"D.S.Zheng"
_chemical_name_systematic
;
Rifapentine methanol solvate
;
_chemical_name_common
;
Priftin methanol solvate; PDB Chemical Component code: RPT; Teaching Subset: 
Drug Molecules, 'Bound' Drugs
;
_cell_volume   2799.921
_exptl_crystal_colour 'red'
_exptl_special_details
;
potent antibiotic

;
_exptl_crystal_description 'parallelepiped'
_exptl_crystal_preparation 'methanol'
_diffrn_ambient_temperature 113
#These two values have been output from a single CSD field.
_refine_ls_R_factor_gt 0.0631
_refine_ls_wR_factor_gt 0.0631
_symmetry_cell_setting monoclinic
_symmetry_space_group_name_H-M 'P 21'
_symmetry_Int_Tables_number 4
loop_
_symmetry_equiv_pos_site_id
_symmetry_equiv_pos_as_xyz
1 x,y,z
2 -x,1/2+y,-z
_cell_length_a 12.278
_cell_length_b 19.768
_cell_length_c 12.473
_cell_angle_alpha 90
_cell_angle_beta 112.35
_cell_angle_gamma 90
_cell_formula_units_Z 2
loop_
_atom_type_symbol
_atom_type_radius_bond
C 0.68
H 0.23
N 0.68
O 0.68
loop_
_atom_site_label
_atom_site_type_symbol
_atom_site_fract_x
_atom_site_fract_y
_atom_site_fract_z
O1 O -0.85179 -0.69463 -0.34423
O2 O -0.64592 -0.39085 -0.44350
H1 H -0.68830 -0.36200 -0.49020
O3 O -0.41903 -0.36059 -0.34625
H2 H -0.49160 -0.35550 -0.36300
O4 O -0.16282 -0.47625 -0.23118
O5 O -0.13100 -0.36492 -0.24194
O6 O -0.11120 -0.43224 0.02670
O7 O -0.03322 -0.64623 0.21070
O8 O -0.18890 -0.72636 0.01087
O9 O -0.20173 -0.64008 0.25492
O10 O -0.59080 -0.55755 0.12250
H3 H -0.59540 -0.51760 0.09830
O11 O -0.72121 -0.56595 -0.08337
H4 H -0.69680 -0.55340 -0.01390
O12 O -0.37698 -0.70538 -0.17474
H5 H -0.32090 -0.71700 -0.11390
N1 N -0.75725 -0.59379 -0.30305
H6 H -0.76300 -0.55300 -0.31200
N2 N -0.66550 -0.66592 -0.44537
N3 N -0.66420 -0.67534 -0.55538
N4 N -0.68560 -0.74006 -0.76937
C1 C -0.65210 -0.61827 -0.21510
C2 C -0.63440 -0.59959 -0.10280
C3 C -0.52670 -0.61429 -0.01030
C4 C -0.50700 -0.58823 0.10520
C5 C -0.39550 -0.59576 0.19710
C6 C -0.31270 -0.63148 0.17180
C7 C -0.32830 -0.66174 0.06500
C8 C -0.43800 -0.65074 -0.03270
C9 C -0.45950 -0.67111 -0.14630
C10 C -0.56440 -0.65387 -0.23930
C11 C -0.85020 -0.63341 -0.36180
C12 C -0.95470 -0.59751 -0.44790
C13 C -1.07110 -0.61927 -0.44700
H7 H -1.13450 -0.59550 -0.50840
H8 H -1.07450 -0.60840 -0.37170
H9 H -1.08050 -0.66820 -0.46030
C14 C -0.94640 -0.55081 -0.52230
H10 H -1.01770 -0.52920 -0.56940
C15 C -0.84080 -0.52938 -0.53920
H11 H -0.77140 -0.55540 -0.50290
C16 C -0.83400 -0.47608 -0.60150
H12 H -0.90190 -0.44840 -0.63470
C17 C -0.72500 -0.45698 -0.62270
H13 H -0.74090 -0.41370 -0.66770
C18 C -0.69820 -0.51194 -0.69560
H14 H -0.77000 -0.52270 -0.76260
H15 H -0.66990 -0.55270 -0.64840
H16 H -0.63750 -0.49570 -0.72250
C19 C -0.61990 -0.44566 -0.50760
H17 H -0.61060 -0.48770 -0.46040
C20 C -0.50160 -0.43262 -0.51950
H18 H -0.48240 -0.47440 -0.55410
C21 C -0.50700 -0.37440 -0.60190
H19 H -0.54010 -0.33430 -0.57930
H20 H -0.55680 -0.38740 -0.68130
H21 H -0.42740 -0.36420 -0.59790
C22 C -0.39930 -0.42171 -0.40070
H22 H -0.32580 -0.41470 -0.41600
C23 C -0.37570 -0.48084 -0.31360
H23 H -0.44470 -0.48440 -0.29000
C24 C -0.36350 -0.54811 -0.36790
H24 H -0.33270 -0.58240 -0.30700
H25 H -0.30920 -0.54270 -0.40800
H26 H -0.44070 -0.56240 -0.42340
C25 C -0.26720 -0.46472 -0.20530
H27 H -0.26990 -0.41580 -0.18590
C26 C -0.10100 -0.42307 -0.24310
C27 C 0.00840 -0.44554 -0.25830
H28 H 0.05030 -0.40600 -0.27060
H29 H -0.01260 -0.47560 -0.32560
H30 H 0.05920 -0.46980 -0.18870
C28 C -0.25610 -0.50731 -0.09790
H31 H -0.27150 -0.55570 -0.12240
C29 C -0.34990 -0.48447 -0.05350
H32 H -0.33780 -0.43670 -0.03130
H33 H -0.34420 -0.51170 0.01410
H34 H -0.42810 -0.49040 -0.11470
C30 C -0.13170 -0.50232 -0.00360
H35 H -0.07370 -0.51750 -0.03720
C31 C 0.00980 -0.41610 0.08230
H36 H 0.05470 -0.43940 0.04300
H37 H 0.03810 -0.43060 0.16350
H38 H 0.02040 -0.36710 0.07880
C32 C -0.11680 -0.54546 0.10030
H39 H -0.15960 -0.53480 0.14760
C33 C -0.04520 -0.59777 0.12640
H40 H 0.00340 -0.60290 0.08310
C34 C -0.13590 -0.68124 0.20410
C35 C -0.09680 -0.74495 0.27610
H41 H -0.04410 -0.73290 0.35510
H42 H -0.05510 -0.77450 0.24130
H43 H -0.16590 -0.76870 0.27860
C36 C -0.22150 -0.69367 0.07870
C37 C -0.37230 -0.56420 0.31260
H44 H -0.29490 -0.54230 0.34080
H45 H -0.37360 -0.59930 0.36770
H46 H -0.43320 -0.53040 0.30510
C38 C -0.57030 -0.67068 -0.35630
H47 H -0.50080 -0.68550 -0.36570
C39 C -0.77230 -0.71009 -0.62690
H48 H -0.84030 -0.68790 -0.61730
H49 H -0.76900 -0.75750 -0.60050
C40 C -0.78950 -0.70919 -0.75300
H50 H -0.86160 -0.73480 -0.79860
H51 H -0.79980 -0.66200 -0.78150
C41 C -0.57590 -0.70267 -0.69430
H52 H -0.58070 -0.65520 -0.72100
H53 H -0.50640 -0.72380 -0.70250
C42 C -0.56090 -0.70377 -0.56820
H54 H -0.54920 -0.75090 -0.53920
H55 H -0.49040 -0.67720 -0.52160
C43 C -0.69920 -0.73786 -0.89600
H56 H -0.70010 -0.68960 -0.92030
C44 C -0.60000 -0.77502 -0.91680
H57 H -0.57860 -0.81740 -0.87120
H58 H -0.52910 -0.74620 -0.89710
C45 C -0.65640 -0.78989 -1.04980
H59 H -0.62550 -0.75800 -1.09250
H60 H -0.63750 -0.83660 -1.06570
C46 C -0.78700 -0.78150 -1.08730
H61 H -0.82850 -0.82180 -1.13080
H62 H -0.81410 -0.74130 -1.13800
C47 C -0.81240 -0.77254 -0.97680
H63 H -0.88230 -0.74360 -0.99080
H64 H -0.82420 -0.81670 -0.94520
O13 O -0.9080(4) -0.6147(3) -1.0413(3)
C48 C -1.0054(5) -0.6411(3) -1.1314(5)
H65 H -1.05130 -0.66930 -1.09930
H66 H -0.97880 -0.66850 -1.18220
H67 H -1.05470 -0.60390 -1.17610
O14 O -0.7806(2) -0.2915(2) -0.5702(3)
C49 C -0.7763(4) -0.2534(3) -0.6633(4)
H68 H -0.84600 -0.26310 -0.73300
H69 H -0.70520 -0.26520 -0.67720
H70 H -0.77450 -0.20510 -0.64480
O15 O -0.7332(3) -0.4484(1) -0.2835(3)
C50 C -0.6771(15) -0.4188(9) -0.1977(13)
H71 H -0.60310 -0.44290 -0.15710
H72 H -0.72190 -0.41590 -0.14740
H73 H -0.66000 -0.37310 -0.21760
#END
