####################################################################### 
# 
# This file contains crystal structure data downloaded from the 
# Cambridge Structural Database (CSD) hosted by the Cambridge 
# Crystallographic Data Centre (CCDC).
# 
# Full information about CCDC data access policies and citation 
# guidelines are available at http://www.ccdc.cam.ac.uk/access/V1 
# 
# Audit and citation data items may have been added by the CCDC. 
# Please retain this information to preserve the provenance of 
# this file and to allow appropriate attribution of the data. 
# 
#######################################################################

data_2
_audit_block_doi                 10.5517/cctxn5j
_database_code_depnum_ccdc_archive 'CCDC 772308'
loop_
_citation_id
_citation_doi
_citation_year
1 10.1016/j.poly.2010.08.025 2010
_audit_update_record             
;
2010-04-07 deposited with the CCDC.	2024-07-11 downloaded from the CCDC.
;
#TrackingRef '2.cif'


_audit_creation_method           SHELXL-97
_chemical_name_systematic        
;
?
;
_chemical_name_common            ?
_chemical_melting_point          ?
_chemical_formula_moiety         ?
_chemical_formula_sum            'C42 H56 Cl2 Cu N11 O16'
_chemical_formula_weight         1105.42

loop_
_atom_type_symbol
_atom_type_description
_atom_type_scat_dispersion_real
_atom_type_scat_dispersion_imag
_atom_type_scat_source
C C 0.0033 0.0016 'International Tables Vol C Tables 4.2.6.8 and 6.1.1.4'
H H 0.0000 0.0000 'International Tables Vol C Tables 4.2.6.8 and 6.1.1.4'
N N 0.0061 0.0033 'International Tables Vol C Tables 4.2.6.8 and 6.1.1.4'
O O 0.0106 0.0060 'International Tables Vol C Tables 4.2.6.8 and 6.1.1.4'
Cl Cl 0.1484 0.1585 'International Tables Vol C Tables 4.2.6.8 and 6.1.1.4'
Cu Cu 0.3201 1.2651 'International Tables Vol C Tables 4.2.6.8 and 6.1.1.4'

_symmetry_cell_setting           Triclinic
_symmetry_space_group_name_H-M   P-1

loop_
_symmetry_equiv_pos_as_xyz
'x, y, z'
'-x, -y, -z'

_cell_length_a                   11.7978(5)
_cell_length_b                   13.8814(6)
_cell_length_c                   17.2370(7)
_cell_angle_alpha                77.851(2)
_cell_angle_beta                 77.219(2)
_cell_angle_gamma                73.103(2)
_cell_volume                     2601.60(19)
_cell_formula_units_Z            2
_cell_measurement_temperature    296(2)
_cell_measurement_reflns_used    9996
_cell_measurement_theta_min      2.372
_cell_measurement_theta_max      24.085

_exptl_crystal_description       block
_exptl_crystal_colour            blue
_exptl_crystal_size_max          0.5
_exptl_crystal_size_mid          0.3
_exptl_crystal_size_min          0.1
_exptl_crystal_density_meas      ?
_exptl_crystal_density_diffrn    1.411
_exptl_crystal_density_method    'not measured'
_exptl_crystal_F_000             1152
_exptl_absorpt_coefficient_mu    0.599
_exptl_absorpt_correction_type   empirical
_exptl_absorpt_correction_T_min  0.4309
_exptl_absorpt_correction_T_max  0.9317
_exptl_absorpt_process_details   ?

_exptl_special_details           
;
?
;

_diffrn_ambient_temperature      296(2)
_diffrn_radiation_wavelength     0.71073
_diffrn_radiation_type           MoK\a
_diffrn_radiation_source         'fine-focus sealed tube'
_diffrn_radiation_monochromator  graphite
_diffrn_measurement_device_type  'Bruker APEX-II CCD'
_diffrn_measurement_method       '\f and \w scans'
_diffrn_detector_area_resol_mean ?
_diffrn_standards_number         ?
_diffrn_standards_interval_count ?
_diffrn_standards_interval_time  ?
_diffrn_standards_decay_%        ?
_diffrn_reflns_number            43252
_diffrn_reflns_av_R_equivalents  0.1373
_diffrn_reflns_av_sigmaI/netI    0.1193
_diffrn_reflns_limit_h_min       -15
_diffrn_reflns_limit_h_max       15
_diffrn_reflns_limit_k_min       -18
_diffrn_reflns_limit_k_max       17
_diffrn_reflns_limit_l_min       -22
_diffrn_reflns_limit_l_max       22
_diffrn_reflns_theta_min         1.23
_diffrn_reflns_theta_max         28.41
_reflns_number_total             12691
_reflns_number_gt                6164
_reflns_threshold_expression     >2sigma(I)

_computing_data_collection       'Bruker APEX2'
_computing_cell_refinement       'Bruker SAINT'
_computing_data_reduction        'Bruker SAINT'
_computing_structure_solution    'SHELXS-97 (Sheldrick, 1990)'
_computing_structure_refinement  'SHELXL-97 (Sheldrick, 1997)'
_computing_molecular_graphics    'Bruker SHELXTL'
_computing_publication_material  'Bruker SHELXTL'

_refine_special_details          
;
Refinement of F^2^ against ALL reflections. The weighted R-factor wR and
goodness of fit S are based on F^2^, conventional R-factors R are based
on F, with F set to zero for negative F^2^. The threshold expression of
F^2^ > 2sigma(F^2^) is used only for calculating R-factors(gt) etc. and is
not relevant to the choice of reflections for refinement. R-factors based
on F^2^ are statistically about twice as large as those based on F, and R-
factors based on ALL data will be even larger.
;

_refine_ls_structure_factor_coef Fsqd
_refine_ls_matrix_type           full
_refine_ls_weighting_scheme      calc
_refine_ls_weighting_details     
'calc w=1/[\s^2^(Fo^2^)+(0.0375P)^2^+0.0000P] where P=(Fo^2^+2Fc^2^)/3'
_atom_sites_solution_primary     direct
_atom_sites_solution_secondary   difmap
_atom_sites_solution_hydrogens   geom
_refine_ls_hydrogen_treatment    constr
_refine_ls_extinction_method     none
_refine_ls_extinction_coef       ?
_refine_ls_number_reflns         12691
_refine_ls_number_parameters     720
_refine_ls_number_restraints     1
_refine_ls_R_factor_all          0.1265
_refine_ls_R_factor_gt           0.0538
_refine_ls_wR_factor_ref         0.1322
_refine_ls_wR_factor_gt          0.1182
_refine_ls_goodness_of_fit_ref   1.020
_refine_ls_restrained_S_all      1.021
_refine_ls_shift/su_max          0.001
_refine_ls_shift/su_mean         0.000

loop_
_atom_site_label
_atom_site_type_symbol
_atom_site_fract_x
_atom_site_fract_y
_atom_site_fract_z
_atom_site_U_iso_or_equiv
_atom_site_adp_type
_atom_site_occupancy
_atom_site_symmetry_multiplicity
_atom_site_calc_flag
_atom_site_refinement_flags
_atom_site_disorder_assembly
_atom_site_disorder_group
Cu Cu 0.70482(3) 0.52733(2) 0.71665(2) 0.04200(12) Uani 1 1 d . . .
Cl1 Cl 0.76852(11) 0.87360(8) 0.86264(8) 0.0879(3) Uani 1 1 d D . .
Cl2 Cl 0.77594(10) 0.80450(7) 0.30685(7) 0.0817(3) Uani 1 1 d . . .
O1 O 0.9909(2) 0.24740(15) 0.40580(13) 0.0679(7) Uani 1 1 d . . .
O2 O 0.2964(2) 0.73639(15) 0.46505(15) 0.0777(7) Uani 1 1 d . . .
O3 O 0.18419(18) 0.67293(15) 0.99360(15) 0.0686(7) Uani 1 1 d . . .
O4 O 0.7213(2) 0.35818(14) 0.76662(13) 0.0618(6) Uani 1 1 d . . .
O5 O 0.85286(17) 0.51407(14) 0.75815(12) 0.0516(5) Uani 1 1 d . . .
O6 O 0.3342(3) 0.8194(2) 0.7282(2) 0.1296(13) Uani 1 1 d . . .
O7 O 0.69850(18) 0.71388(15) 0.66414(13) 0.0606(6) Uani 1 1 d . . .
O8 O 0.6386(3) 0.63920(19) 0.12557(19) 0.1008(10) Uani 1 1 d . . .
O9 O 0.6458(6) 0.9094(12) 0.8659(14) 0.281(13) Uani 0.50 1 d PD A 1
O10 O 0.7868(16) 0.7769(10) 0.8887(12) 0.195(9) Uani 0.50 1 d P A 1
O11 O 0.8437(13) 0.8873(12) 0.7876(7) 0.174(5) Uani 0.50 1 d P A 1
O12 O 0.7814(13) 0.9424(8) 0.9040(8) 0.157(5) Uani 0.50 1 d P A 1
O9' O 0.6532(9) 0.8656(11) 0.8876(10) 0.196(8) Uani 0.50 1 d P A 2
O10' O 0.8272(17) 0.7792(9) 0.8405(10) 0.159(7) Uani 0.50 1 d P A 2
O11' O 0.7702(13) 0.9391(8) 0.7925(9) 0.156(5) Uani 0.50 1 d P A 2
O12' O 0.8331(12) 0.8780(8) 0.9226(9) 0.150(4) Uani 0.50 1 d P A 2
O13 O 0.8941(2) 0.75857(17) 0.32256(16) 0.0868(8) Uani 1 1 d . B .
O14 O 0.7914(11) 0.7978(9) 0.2221(7) 0.165(5) Uani 0.50 1 d P B 1
O15 O 0.6977(11) 0.7575(10) 0.3480(11) 0.192(7) Uani 0.50 1 d P B 1
O16 O 0.7441(13) 0.9125(11) 0.3013(11) 0.132(7) Uani 0.50 1 d P B 1
O14' O 0.7355(12) 0.7473(10) 0.2665(12) 0.182(9) Uani 0.50 1 d P B 2
O15' O 0.7052(11) 0.8040(9) 0.3919(6) 0.132(4) Uani 0.50 1 d P B 2
O16' O 0.7683(15) 0.9016(9) 0.2735(9) 0.120(5) Uani 0.50 1 d P B 2
N1 N 0.80561(18) 0.49461(15) 0.60836(14) 0.0408(6) Uani 1 1 d . . .
N2 N 1.00781(19) 0.27065(15) 0.52786(13) 0.0442(6) Uani 1 1 d . . .
H2A H 1.0431 0.2435 0.5688 0.053 Uiso 1 1 calc R . .
N3 N 0.55995(18) 0.53629(15) 0.66849(14) 0.0410(6) Uani 1 1 d . . .
N4 N 0.3234(2) 0.74444(16) 0.58911(16) 0.0541(7) Uani 1 1 d . . .
H4A H 0.3051 0.7826 0.6258 0.065 Uiso 1 1 calc R . .
N5 N 0.59615(19) 0.57031(16) 0.82073(14) 0.0426(6) Uani 1 1 d . . .
N6 N 0.30772(19) 0.53693(16) 0.93847(14) 0.0466(6) Uani 1 1 d . . .
H6A H 0.3122 0.4775 0.9288 0.056 Uiso 1 1 calc R . .
N7 N 0.8490(3) 0.21254(19) 0.81269(18) 0.0776(9) Uani 1 1 d . . .
N8 N 1.0225(2) 0.5541(2) 0.76495(14) 0.0561(7) Uani 1 1 d . . .
N9 N 0.2322(4) 0.8757(2) 0.8424(2) 0.0995(12) Uani 1 1 d . . .
N10 N 0.5997(2) 0.8786(2) 0.6335(2) 0.0798(10) Uani 1 1 d . . .
N11 N 0.5735(4) 0.8081(3) 0.1267(3) 0.1046(13) Uani 1 1 d . . .
C1 C 0.8792(2) 0.40127(18) 0.60064(17) 0.0393(7) Uani 1 1 d . . .
H1A H 0.8935 0.3552 0.6473 0.047 Uiso 1 1 calc R . .
C2 C 0.9342(2) 0.37033(18) 0.52777(16) 0.0367(6) Uani 1 1 d . . .
C3 C 0.9149(2) 0.43981(19) 0.45842(17) 0.0427(7) Uani 1 1 d . . .
H3A H 0.9502 0.4220 0.4078 0.051 Uiso 1 1 calc R . .
C4 C 0.8418(2) 0.53614(19) 0.46644(18) 0.0453(7) Uani 1 1 d . . .
H4B H 0.8289 0.5846 0.4208 0.054 Uiso 1 1 calc R . .
C5 C 0.7889(2) 0.56039(19) 0.54047(18) 0.0445(7) Uani 1 1 d . . .
H5A H 0.7389 0.6254 0.5442 0.053 Uiso 1 1 calc R . .
C6 C 1.0282(2) 0.2132(2) 0.46877(18) 0.0444(7) Uani 1 1 d . . .
C7 C 1.0969(2) 0.10378(19) 0.48558(17) 0.0422(7) Uani 1 1 d . . .
C8 C 1.1263(3) 0.0561(2) 0.56009(19) 0.0584(9) Uani 1 1 d . . .
H8A H 1.1055 0.0929 0.6027 0.070 Uiso 1 1 calc R . .
C9 C 1.1277(3) 0.0474(2) 0.42420(19) 0.0551(8) Uani 1 1 d . . .
H9B H 1.1082 0.0782 0.3738 0.066 Uiso 1 1 calc R . .
C10 C 0.4851(2) 0.62805(19) 0.64953(18) 0.0454(7) Uani 1 1 d . . .
H10A H 0.4951 0.6839 0.6665 0.055 Uiso 1 1 calc R . .
C11 C 0.3944(2) 0.6439(2) 0.60639(18) 0.0463(7) Uani 1 1 d . . .
C12 C 0.3772(3) 0.5600(2) 0.5834(2) 0.0624(9) Uani 1 1 d . . .
H12A H 0.3162 0.5673 0.5548 0.075 Uiso 1 1 calc R . .
C13 C 0.4523(3) 0.4656(2) 0.6040(2) 0.0669(10) Uani 1 1 d . . .
H13B H 0.4418 0.4082 0.5897 0.080 Uiso 1 1 calc R . .
C14 C 0.5427(3) 0.4562(2) 0.64541(19) 0.0527(8) Uani 1 1 d . . .
H14A H 0.5936 0.3921 0.6579 0.063 Uiso 1 1 calc R . .
C15 C 0.2821(3) 0.7851(2) 0.5188(2) 0.0543(8) Uani 1 1 d . . .
C16 C 0.2171(2) 0.8968(2) 0.51006(19) 0.0468(7) Uani 1 1 d . . .
C17 C 0.1869(3) 0.9535(2) 0.5716(2) 0.0607(9) Uani 1 1 d . . .
H17A H 0.2074 0.9226 0.6217 0.073 Uiso 1 1 calc R . .
C18 C 0.1878(3) 0.9446(2) 0.43641(19) 0.0569(8) Uani 1 1 d . . .
H18A H 0.2085 0.9077 0.3939 0.068 Uiso 1 1 calc R . .
C19 C 0.4947(2) 0.53959(18) 0.84948(18) 0.0433(7) Uani 1 1 d . . .
H19A H 0.4788 0.4938 0.8236 0.052 Uiso 1 1 calc R . .
C20 C 0.4128(2) 0.57242(19) 0.91537(17) 0.0416(7) Uani 1 1 d . . .
C21 C 0.4393(3) 0.6385(2) 0.95503(19) 0.0532(8) Uani 1 1 d . . .
H21A H 0.3877 0.6613 1.0004 0.064 Uiso 1 1 calc R . .
C22 C 0.5442(3) 0.6696(2) 0.92554(19) 0.0543(8) Uani 1 1 d . . .
H22A H 0.5634 0.7144 0.9507 0.065 Uiso 1 1 calc R . .
C23 C 0.6192(3) 0.6345(2) 0.85941(18) 0.0481(7) Uani 1 1 d . . .
H23A H 0.6893 0.6561 0.8404 0.058 Uiso 1 1 calc R . .
C24 C 0.1995(3) 0.5901(2) 0.97499(17) 0.0457(7) Uani 1 1 d . . .
C25 C 0.0994(2) 0.5411(2) 0.98808(16) 0.0423(7) Uani 1 1 d . . .
C26 C 0.1126(3) 0.4365(2) 1.00960(18) 0.0497(8) Uani 1 1 d . . .
H26A H 0.1878 0.3935 1.0163 0.060 Uiso 1 1 calc R . .
C27 C -0.0155(3) 0.6033(2) 0.97899(17) 0.0491(8) Uani 1 1 d . . .
H27A H -0.0261 0.6734 0.9649 0.059 Uiso 1 1 calc R . .
C28 C 0.7893(3) 0.3085(2) 0.8136(2) 0.0641(10) Uani 1 1 d . . .
H28A H 0.7992 0.3410 0.8527 0.077 Uiso 1 1 calc R . .
C29 C 0.8437(4) 0.1570(3) 0.7506(3) 0.0986(14) Uani 1 1 d . . .
H29A H 0.7866 0.1992 0.7176 0.148 Uiso 1 1 calc R . .
H29B H 0.8193 0.0959 0.7758 0.148 Uiso 1 1 calc R . .
H29C H 0.9216 0.1395 0.7178 0.148 Uiso 1 1 calc R . .
C30 C 0.9305(4) 0.1606(3) 0.8691(3) 0.133(2) Uani 1 1 d . . .
H30A H 0.9314 0.2069 0.9031 0.199 Uiso 1 1 calc R . .
H30B H 1.0100 0.1372 0.8399 0.199 Uiso 1 1 calc R . .
H30C H 0.9040 0.1034 0.9016 0.199 Uiso 1 1 calc R . .
C31 C 0.9129(3) 0.5773(2) 0.75027(18) 0.0502(8) Uani 1 1 d . . .
H31A H 0.8773 0.6453 0.7328 0.060 Uiso 1 1 calc R . .
C32 C 1.0861(3) 0.6306(3) 0.7583(2) 0.0845(12) Uani 1 1 d . . .
H32A H 1.0383 0.6960 0.7380 0.127 Uiso 1 1 calc R . .
H32B H 1.1611 0.6144 0.7221 0.127 Uiso 1 1 calc R . .
H32C H 1.1014 0.6322 0.8104 0.127 Uiso 1 1 calc R . .
C33 C 1.0825(3) 0.4492(3) 0.7899(3) 0.0968(14) Uani 1 1 d . . .
H33A H 1.0373 0.4057 0.7821 0.145 Uiso 1 1 calc R . .
H33B H 1.0886 0.4391 0.8458 0.145 Uiso 1 1 calc R . .
H33C H 1.1616 0.4332 0.7584 0.145 Uiso 1 1 calc R . .
C34 C 0.3267(5) 0.8494(3) 0.7910(3) 0.1045(15) Uani 1 1 d . . .
H34A H 0.3981 0.8537 0.8029 0.125 Uiso 1 1 calc R . .
C35 C 0.1231(6) 0.8710(5) 0.8309(5) 0.188(3) Uani 1 1 d . . .
H35A H 0.1336 0.8130 0.8055 0.282 Uiso 1 1 calc R . .
H35B H 0.0883 0.9320 0.7971 0.282 Uiso 1 1 calc R . .
H35C H 0.0709 0.8648 0.8820 0.282 Uiso 1 1 calc R . .
C36 C 0.2310(7) 0.9126(4) 0.9134(3) 0.190(3) Uani 1 1 d . . .
H36A H 0.3121 0.9026 0.9209 0.284 Uiso 1 1 calc R . .
H36B H 0.1891 0.8762 0.9589 0.284 Uiso 1 1 calc R . .
H36C H 0.1910 0.9839 0.9085 0.284 Uiso 1 1 calc R . .
C37 C 0.6561(3) 0.7997(3) 0.6792(2) 0.0639(9) Uani 1 1 d . . .
H37A H 0.6646 0.8107 0.7288 0.077 Uiso 1 1 calc R . .
C38 C 0.5475(4) 0.9779(3) 0.6608(4) 0.147(2) Uani 1 1 d . . .
H38A H 0.5689 0.9749 0.7120 0.220 Uiso 1 1 calc R . .
H38B H 0.4616 0.9945 0.6661 0.220 Uiso 1 1 calc R . .
H38C H 0.5779 1.0292 0.6222 0.220 Uiso 1 1 calc R . .
C39 C 0.5847(4) 0.8698(3) 0.5556(3) 0.1213(19) Uani 1 1 d . . .
H39A H 0.6226 0.8014 0.5453 0.182 Uiso 1 1 calc R . .
H39B H 0.6210 0.9165 0.5156 0.182 Uiso 1 1 calc R . .
H39C H 0.5006 0.8855 0.5535 0.182 Uiso 1 1 calc R . .
C40 C 0.6472(5) 0.7221(4) 0.1131(4) 0.129(2) Uani 1 1 d . C .
H40A H 0.7237 0.7280 0.0879 0.154 Uiso 1 1 calc R . .
C41 C 0.5969(5) 0.9082(3) 0.1044(4) 0.153(2) Uani 1 1 d . C .
H41A H 0.6755 0.9028 0.0724 0.229 Uiso 1 1 calc R . .
H41B H 0.5928 0.9351 0.1522 0.229 Uiso 1 1 calc R . .
H41C H 0.5378 0.9530 0.0739 0.229 Uiso 1 1 calc R . .
C42 C 0.4811(10) 0.7998(7) 0.1969(6) 0.118(3) Uiso 0.50 1 d P C 1
H42A H 0.5048 0.7350 0.2300 0.177 Uiso 0.50 1 d PR C 1
H42B H 0.4068 0.8053 0.1802 0.177 Uiso 0.50 1 d PR C 1
H42C H 0.4707 0.8535 0.2271 0.177 Uiso 0.50 1 d PR C 1
C42' C 0.4605(15) 0.8117(11) 0.1260(11) 0.211(7) Uiso 0.50 1 d P C 2
H42D H 0.4392 0.8460 0.0748 0.316 Uiso 0.50 1 d PR C 2
H42E H 0.4090 0.8479 0.1678 0.316 Uiso 0.50 1 d PR C 2
H42F H 0.4511 0.7435 0.1354 0.316 Uiso 0.50 1 d PR C 2

loop_
_atom_site_aniso_label
_atom_site_aniso_U_11
_atom_site_aniso_U_22
_atom_site_aniso_U_33
_atom_site_aniso_U_23
_atom_site_aniso_U_13
_atom_site_aniso_U_12
Cu 0.03055(19) 0.0408(2) 0.0498(2) -0.00895(15) -0.00647(16) -0.00072(14)
Cl1 0.0980(9) 0.0617(7) 0.0998(9) -0.0066(6) -0.0143(8) -0.0205(6)
Cl2 0.0823(7) 0.0628(6) 0.1017(9) -0.0193(6) -0.0500(7) 0.0092(5)
O1 0.0974(18) 0.0518(12) 0.0512(14) -0.0104(10) -0.0317(14) 0.0017(12)
O2 0.0927(18) 0.0538(13) 0.0847(18) -0.0286(13) -0.0349(15) 0.0117(12)
O3 0.0472(13) 0.0594(14) 0.1006(19) -0.0374(13) 0.0038(13) -0.0107(10)
O4 0.0674(14) 0.0436(12) 0.0635(15) -0.0011(11) -0.0065(12) -0.0062(10)
O5 0.0427(12) 0.0504(12) 0.0585(14) -0.0052(10) -0.0185(11) -0.0022(10)
O6 0.163(3) 0.110(2) 0.094(2) -0.0507(19) -0.045(2) 0.040(2)
O7 0.0583(13) 0.0420(12) 0.0790(16) -0.0066(11) -0.0247(12) -0.0018(10)
O8 0.111(2) 0.0609(16) 0.139(3) -0.0514(17) 0.0165(19) -0.0381(15)
O9 0.177(14) 0.218(14) 0.36(2) -0.068(14) -0.115(15) 0.155(13)
O10 0.159(15) 0.087(9) 0.34(2) 0.116(12) -0.135(15) -0.066(10)
O11 0.210(13) 0.196(15) 0.094(7) -0.041(9) 0.049(8) -0.061(9)
O12 0.219(15) 0.143(9) 0.149(9) -0.071(9) 0.021(9) -0.113(9)
O9' 0.122(10) 0.225(14) 0.279(17) -0.131(12) 0.079(11) -0.122(11)
O10' 0.163(12) 0.082(9) 0.235(17) -0.062(12) -0.073(11) 0.017(8)
O11' 0.207(14) 0.078(6) 0.168(11) 0.040(7) -0.031(10) -0.055(7)
O12' 0.145(8) 0.167(10) 0.171(10) -0.094(10) -0.026(7) -0.046(8)
O13 0.0776(17) 0.0839(16) 0.0957(19) -0.0229(14) -0.0469(16) 0.0144(13)
O14 0.193(11) 0.200(12) 0.129(8) -0.014(7) -0.114(8) -0.035(8)
O15 0.117(8) 0.170(14) 0.27(2) 0.077(13) -0.042(14) -0.085(10)
O16 0.100(7) 0.085(6) 0.218(17) -0.066(8) -0.080(10) 0.032(5)
O14' 0.148(11) 0.145(10) 0.31(2) -0.161(14) -0.155(13) 0.046(8)
O15' 0.114(8) 0.152(9) 0.100(6) -0.027(5) 0.018(5) -0.008(6)
O16' 0.151(9) 0.047(6) 0.112(8) 0.020(6) -0.021(6) 0.029(5)
N1 0.0296(12) 0.0395(12) 0.0472(15) -0.0048(11) -0.0038(11) -0.0028(10)
N2 0.0421(13) 0.0428(13) 0.0406(14) -0.0069(11) -0.0141(12) 0.0052(10)
N3 0.0340(12) 0.0337(12) 0.0539(15) -0.0129(11) -0.0086(12) -0.0018(10)
N4 0.0459(15) 0.0401(13) 0.0772(19) -0.0186(13) -0.0260(15) 0.0060(11)
N5 0.0349(13) 0.0398(12) 0.0499(15) -0.0071(11) -0.0059(12) -0.0054(10)
N6 0.0372(13) 0.0419(13) 0.0592(16) -0.0142(11) 0.0026(13) -0.0116(10)
N7 0.097(2) 0.0450(16) 0.067(2) 0.0010(15) -0.0020(18) 0.0036(15)
N8 0.0405(15) 0.0827(18) 0.0432(15) -0.0118(13) -0.0123(13) -0.0077(14)
N9 0.130(4) 0.065(2) 0.082(3) -0.0109(18) 0.021(3) -0.020(2)
N10 0.0510(17) 0.0482(16) 0.120(3) 0.0108(18) -0.0156(19) 0.0014(13)