
#######################################################################
#
#                 Cambridge Crystallographic Data Centre
#                                CCDC
#
#######################################################################
#
# If this CIF has been generated from an entry in the Cambridge
# Structural Database, then it will include bibliographic, chemical,
# crystal, experimental, refinement or atomic coordinate data resulting
# from the CCDC's data processing and validation procedures.
#
#######################################################################

data_CSD_CIF_MALIAC13
_audit_creation_date 2006-04-19
_audit_creation_method CSD-ConQuest-V1
_database_code_CSD MALIAC13
_database_code_depnum_ccdc_archive 'CCDC 285154'
_chemical_formula_sum 'C4 H4 O4'
_chemical_formula_moiety
;
C4 H4 O4
;
_journal_coden_Cambridge 182
_journal_year 2006
_journal_page_first 54
_journal_name_full 'Chem.Commun. '
loop_
_publ_author_name
"G.M.Day"
"A.V.Trask"
"W.D.S.Motherwell"
"W.Jones"
_chemical_name_systematic
;
cis-ethene-1,2-dicarboxylic acid
;
_chemical_name_common
;
Maleic Acid; Teaching Subset: Fundamental Chemistry, Symmetry; DrugBank: 
DB04299
;
_cell_volume    232.143
_exptl_crystal_colour 'colorless'
_exptl_crystal_density_diffrn 1.661
_exptl_special_details
;
Pc polymorph

;
_exptl_crystal_description 'plate'
_exptl_crystal_preparation 'chloroform'
_diffrn_ambient_temperature 180
#These two values have been output from a single CSD field.
_refine_ls_R_factor_gt 0.0261
_refine_ls_wR_factor_gt 0.0261
loop_
_citation_database_id_CSD
_citation_special_details
FUMAAC "is a stereoisomer of this entry"
_symmetry_cell_setting monoclinic
_symmetry_space_group_name_H-M 'P c'
_symmetry_Int_Tables_number 7
loop_
_symmetry_equiv_pos_site_id
_symmetry_equiv_pos_as_xyz
1 x,y,z
2 x,-y,1/2+z
_cell_length_a 3.6933(3)
_cell_length_b 7.4840(5)
_cell_length_c 8.5933(7)
_cell_angle_alpha 90
_cell_angle_beta 102.220(3)
_cell_angle_gamma 90
_cell_formula_units_Z 2
loop_
_atom_type_symbol
_atom_type_radius_bond
C 0.68
H 0.23
O 0.68
loop_
_atom_site_label
_atom_site_type_symbol
_atom_site_fract_x
_atom_site_fract_y
_atom_site_fract_z
C1 C 0.9251(6) 0.4467(2) 0.7379(2)
O1 O 0.7362(4) 0.35142(19) 0.6217(2)
H1 H 0.776(11) 0.223(3) 0.639(5)
O2 O 0.8994(4) 0.60968(17) 0.7313(2)
C2 C 1.1744(6) 0.3622(3) 0.8778(2)
H2 H 1.31060 0.44490 0.95160
C3 C 1.2408(5) 0.1901(2) 0.9183(2)
H3 H 1.41200 0.16910 1.01580
C4 C 1.0803(5) 0.0291(2) 0.8298(2)
O3 O 1.2137(5) -0.1185(2) 0.9008(2)
H4 H 1.106(8) -0.228(3) 0.843(3)
O4 O 0.8476(4) 0.0302(2) 0.70456(17)
#END
