####################################################################### 
# 
# This file contains crystal structure data downloaded from the 
# Cambridge Structural Database (CSD) hosted by the Cambridge 
# Crystallographic Data Centre (CCDC).
# 
# Full information about CCDC data access policies and citation 
# guidelines are available at http://www.ccdc.cam.ac.uk/access/V1 
# 
# Audit and citation data items may have been added by the CCDC. 
# Please retain this information to preserve the provenance of 
# this file and to allow appropriate attribution of the data. 
# 
#######################################################################

data_ce
_audit_block_doi                 10.5517/cct0l0d
_database_code_depnum_ccdc_archive 'CCDC 745333'
loop_
_citation_id
_citation_doi
_citation_year
1 10.1021/om900768w 2010
_audit_update_record             
;
2009-08-24 deposited with the CCDC.	2024-07-11 downloaded from the CCDC.
;

_audit_creation_method           SHELXL-97
_chemical_name_systematic        
;
?
;
_chemical_name_common            ?
_chemical_melting_point          ?
_chemical_formula_moiety         'C58 H70 Ce N4 O8, N O3'
_chemical_formula_sum            'C58 H70 Ce N5 O11'
_chemical_formula_weight         1153.31

loop_
_atom_type_symbol
_atom_type_description
_atom_type_scat_dispersion_real
_atom_type_scat_dispersion_imag
_atom_type_scat_source
C C 0.0033 0.0016 'International Tables Vol C Tables 4.2.6.8 and 6.1.1.4'
H H 0.0000 0.0000 'International Tables Vol C Tables 4.2.6.8 and 6.1.1.4'
Ce Ce -0.2486 2.6331 'International Tables Vol C Tables 4.2.6.8 and 6.1.1.4'
N N 0.0061 0.0033 'International Tables Vol C Tables 4.2.6.8 and 6.1.1.4'
O O 0.0106 0.0060 'International Tables Vol C Tables 4.2.6.8 and 6.1.1.4'

_symmetry_cell_setting           Monoclinic
_symmetry_space_group_name_H-M   'P2(1)/c '
_symmetry_space_group_name_Hall  '-P 2ybc'


loop_
_symmetry_equiv_pos_as_xyz
'x, y, z'
'-x, y+1/2, -z+1/2'
'-x, -y, -z'
'x, -y-1/2, z-1/2'

_cell_length_a                   14.868(4)
_cell_length_b                   25.174(6)
_cell_length_c                   22.523(6)
_cell_angle_alpha                90.00
_cell_angle_beta                 98.458(4)
_cell_angle_gamma                90.00
_cell_volume                     8338(4)
_cell_formula_units_Z            4
_cell_measurement_temperature    293(2)
_cell_measurement_reflns_used    ?
_cell_measurement_theta_min      ?
_cell_measurement_theta_max      ?

_exptl_crystal_description       BLOCK
_exptl_crystal_colour            colorless
_exptl_crystal_size_max          0.200
_exptl_crystal_size_mid          0.150
_exptl_crystal_size_min          0.100
_exptl_crystal_density_meas      ?
_exptl_crystal_density_diffrn    0.919
_exptl_crystal_density_method    'not measured'
_exptl_crystal_F_000             2396
_exptl_absorpt_coefficient_mu    0.588
_exptl_absorpt_correction_type   multi-scan
_exptl_absorpt_correction_T_min  0.8914
_exptl_absorpt_correction_T_max  0.9435
_exptl_absorpt_process_details   ?

_exptl_special_details           
;
?
;

_diffrn_ambient_temperature      293(2)
_diffrn_radiation_wavelength     0.71073
_diffrn_radiation_type           MoK\a
_diffrn_radiation_source         'sealed tube'
_diffrn_radiation_monochromator  graphite
_diffrn_measurement_device_type  'Bruker P4'
_diffrn_measurement_method       '\w scans'
_diffrn_detector_area_resol_mean ?
_diffrn_standards_number         ?
_diffrn_standards_interval_count ?
_diffrn_standards_interval_time  ?
_diffrn_standards_decay_%        ?
_diffrn_reflns_number            30887
_diffrn_reflns_av_R_equivalents  0.0794
_diffrn_reflns_av_sigmaI/netI    0.0853
_diffrn_reflns_limit_h_min       -14
_diffrn_reflns_limit_h_max       14
_diffrn_reflns_limit_k_min       -22
_diffrn_reflns_limit_k_max       24
_diffrn_reflns_limit_l_min       -19
_diffrn_reflns_limit_l_max       22
_diffrn_reflns_theta_min         1.22
_diffrn_reflns_theta_max         20.69
_reflns_number_total             8508
_reflns_number_gt                5813
_reflns_threshold_expression     >2sigma(I)

_computing_data_collection       'Bruker XSCANS'
_computing_cell_refinement       'Bruker XSCANS'
_computing_data_reduction        'Bruker SHELXTL'
_computing_structure_solution    'Bruker SHELXTL'
_computing_structure_refinement  'Bruker SHELXTL'
_computing_molecular_graphics    'Bruker SHELXTL'
_computing_publication_material  'Bruker SHELXTL'

_refine_special_details          
;
Refinement of F^2^ against ALL reflections. The weighted R-factor wR and
goodness of fit S are based on F^2^, conventional R-factors R are based
on F, with F set to zero for negative F^2^. The threshold expression of
F^2^ > 2sigma(F^2^) is used only for calculating R-factors(gt) etc. and is
not relevant to the choice of reflections for refinement. R-factors based
on F^2^ are statistically about twice as large as those based on F, and R-
factors based on ALL data will be even larger.
;

_refine_ls_structure_factor_coef Fsqd
_refine_ls_matrix_type           full
_refine_ls_weighting_scheme      calc
_refine_ls_weighting_details     
'calc w=1/[\s^2^(Fo^2^)+(0.0842P)^2^+0.0000P] where P=(Fo^2^+2Fc^2^)/3'
_atom_sites_solution_primary     direct
_atom_sites_solution_secondary   difmap
_atom_sites_solution_hydrogens   geom
_refine_ls_hydrogen_treatment    constr
_refine_ls_extinction_method     SHELXL
_refine_ls_extinction_coef       0.00175(16)
_refine_ls_extinction_expression Fc^*^=kFc[1+0.001xFc^2^\l^3^/sin(2\q)]^-1/4^
_refine_ls_number_reflns         8508
_refine_ls_number_parameters     692
_refine_ls_number_restraints     0
_refine_ls_R_factor_all          0.0712
_refine_ls_R_factor_gt           0.0500
_refine_ls_wR_factor_ref         0.1446
_refine_ls_wR_factor_gt          0.1356
_refine_ls_goodness_of_fit_ref   0.960
_refine_ls_restrained_S_all      0.960
_refine_ls_shift/su_max          0.000
_refine_ls_shift/su_mean         0.000

loop_
_atom_site_label
_atom_site_type_symbol
_atom_site_fract_x
_atom_site_fract_y
_atom_site_fract_z
_atom_site_U_iso_or_equiv
_atom_site_adp_type
_atom_site_occupancy
_atom_site_symmetry_multiplicity
_atom_site_calc_flag
_atom_site_refinement_flags
_atom_site_disorder_assembly
_atom_site_disorder_group
C1 C 0.5990(6) 0.5168(3) 0.4129(3) 0.0458(18) Uani 1 1 d . . .
C2 C 0.6007(5) 0.5416(3) 0.3515(3) 0.0444(19) Uani 1 1 d . . .
C3 C 0.5189(5) 0.5490(3) 0.3124(3) 0.054(2) Uani 1 1 d . . .
H3 H 0.4641 0.5379 0.3235 0.065 Uiso 1 1 calc R . .
C4 C 0.5204(5) 0.5736(3) 0.2563(3) 0.052(2) Uani 1 1 d . . .
C5 C 0.6052(6) 0.5901(3) 0.2431(3) 0.056(2) Uani 1 1 d . . .
C6 C 0.6859(5) 0.5842(3) 0.2807(4) 0.065(2) Uani 1 1 d . . .
C7 C 0.6827(5) 0.5585(3) 0.3347(3) 0.065(2) Uani 1 1 d . . .
H7 H 0.7366 0.5524 0.3604 0.078 Uiso 1 1 calc R . .
C8 C 0.6224(6) 0.5972(3) 0.1342(4) 0.078(3) Uani 1 1 d . . .
H8 H 0.6347 0.5618 0.1272 0.093 Uiso 1 1 calc R . .
C9 C 0.6179(6) 0.6372(4) 0.0935(4) 0.083(3) Uani 1 1 d . . .
H9 H 0.6267 0.6344 0.0536 0.100 Uiso 1 1 calc R . .
C10 C 0.5907(5) 0.6696(3) 0.1795(3) 0.051(2) Uani 1 1 d . . .
H10 H 0.5773 0.6933 0.2087 0.062 Uiso 1 1 calc R . .
C11 C 0.5838(6) 0.7358(3) 0.0982(3) 0.0476(19) Uani 1 1 d . . .
C12 C 0.4966(5) 0.7485(3) 0.0695(3) 0.051(2) Uani 1 1 d . . .
C13 C 0.4865(5) 0.8002(3) 0.0484(3) 0.056(2) Uani 1 1 d . . .
H13 H 0.4299 0.8109 0.0287 0.068 Uiso 1 1 calc R . .
C14 C 0.5570(5) 0.8367(3) 0.0553(3) 0.0484(19) Uani 1 1 d . . .
C15 C 0.6426(5) 0.8209(3) 0.0828(3) 0.052(2) Uani 1 1 d . . .
H15 H 0.6904 0.8450 0.0861 0.062 Uiso 1 1 calc R . .
C16 C 0.6586(5) 0.7702(3) 0.1053(3) 0.049(2) Uani 1 1 d . . .
C17 C 0.5403(6) 0.8936(3) 0.0325(3) 0.052(2) Uani 1 1 d . . .
C18 C 0.4307(5) 0.5827(3) 0.2151(3) 0.066(2) Uani 1 1 d . . .
H18 H 0.4456 0.5942 0.1761 0.079 Uiso 1 1 calc R . .
C19 C 0.3748(8) 0.5318(4) 0.2046(6) 0.153(6) Uani 1 1 d . . .
H19A H 0.3640 0.5176 0.2424 0.229 Uiso 1 1 calc R . .
H19B H 0.4076 0.5062 0.1844 0.229 Uiso 1 1 calc R . .
H19C H 0.3178 0.5395 0.1802 0.229 Uiso 1 1 calc R . .
C20 C 0.3743(7) 0.6262(5) 0.2378(4) 0.123(4) Uani 1 1 d . . .
H20A H 0.3437 0.6124 0.2692 0.185 Uiso 1 1 calc R . .
H20B H 0.3302 0.6388 0.2054 0.185 Uiso 1 1 calc R . .
H20C H 0.4132 0.6550 0.2532 0.185 Uiso 1 1 calc R . .
C21 C 0.7748(7) 0.6049(6) 0.2643(5) 0.116(4) Uani 1 1 d . . .
H21 H 0.7622 0.6172 0.2226 0.139 Uiso 1 1 calc R . .
C22 C 0.8050(9) 0.6546(7) 0.3038(8) 0.199(8) Uani 1 1 d . . .
H22A H 0.7522 0.6743 0.3106 0.299 Uiso 1 1 calc R . .
H22B H 0.8434 0.6767 0.2835 0.299 Uiso 1 1 calc R . .
H22C H 0.8379 0.6433 0.3416 0.299 Uiso 1 1 calc R . .
C23 C 0.8457(9) 0.5637(7) 0.2665(8) 0.210(8) Uani 1 1 d . . .
H23A H 0.8733 0.5583 0.3074 0.315 Uiso 1 1 calc R . .
H23B H 0.8912 0.5749 0.2431 0.315 Uiso 1 1 calc R . .
H23C H 0.8189 0.5310 0.2506 0.315 Uiso 1 1 calc R . .
C24 C 0.4159(6) 0.7109(3) 0.0635(4) 0.071(3) Uani 1 1 d . . .
H24 H 0.4395 0.6767 0.0799 0.086 Uiso 1 1 calc R . .
C25 C 0.3442(8) 0.7275(5) 0.1005(6) 0.152(5) Uani 1 1 d . . .
H25A H 0.3276 0.7638 0.0918 0.227 Uiso 1 1 calc R . .
H25B H 0.3677 0.7240 0.1424 0.227 Uiso 1 1 calc R . .
H25C H 0.2916 0.7053 0.0910 0.227 Uiso 1 1 calc R . .
C26 C 0.3783(8) 0.7009(5) -0.0019(5) 0.139(5) Uani 1 1 d . . .
H26A H 0.3386 0.6706 -0.0048 0.208 Uiso 1 1 calc R . .
H26B H 0.4276 0.6942 -0.0240 0.208 Uiso 1 1 calc R . .
H26C H 0.3449 0.7315 -0.0182 0.208 Uiso 1 1 calc R . .
C27 C 0.7527(6) 0.7542(3) 0.1354(4) 0.071(3) Uani 1 1 d . . .
H27 H 0.7503 0.7168 0.1473 0.086 Uiso 1 1 calc R . .
C28 C 0.7809(7) 0.7861(5) 0.1908(5) 0.134(5) Uani 1 1 d . . .
H28A H 0.8383 0.7734 0.2108 0.201 Uiso 1 1 calc R . .
H28B H 0.7359 0.7827 0.2171 0.201 Uiso 1 1 calc R . .
H28C H 0.7865 0.8228 0.1802 0.201 Uiso 1 1 calc R . .
C29 C 0.8244(7) 0.7595(5) 0.0952(6) 0.135(5) Uani 1 1 d . . .
H29A H 0.8169 0.7318 0.0656 0.203 Uiso 1 1 calc R . .
H29B H 0.8836 0.7567 0.1187 0.203 Uiso 1 1 calc R . .
H29C H 0.8187 0.7935 0.0756 0.203 Uiso 1 1 calc R . .
C30 C 0.7585(6) 0.5265(3) 0.6354(4) 0.052(2) Uani 1 1 d . . .
C31 C 0.8289(5) 0.5531(3) 0.6793(3) 0.058(2) Uani 1 1 d . . .
C32 C 0.9101(6) 0.5697(3) 0.6635(3) 0.065(2) Uani 1 1 d . . .
H32 H 0.9189 0.5650 0.6238 0.078 Uiso 1 1 calc R . .
C33 C 0.9801(6) 0.5931(3) 0.7025(4) 0.066(2) Uani 1 1 d . . .
C34 C 0.9595(6) 0.6002(3) 0.7615(4) 0.069(3) Uani 1 1 d . . .
C35 C 0.8802(6) 0.5860(3) 0.7814(3) 0.071(3) Uani 1 1 d . . .
C36 C 0.8129(5) 0.5618(3) 0.7380(4) 0.070(2) Uani 1 1 d . . .
H36 H 0.7575 0.5517 0.7491 0.083 Uiso 1 1 calc R . .
C37 C 1.0916(6) 0.5941(4) 0.8474(4) 0.096(3) Uani 1 1 d . . .
H37 H 1.0950 0.5574 0.8515 0.115 Uiso 1 1 calc R . .
C38 C 0.9512(5) 0.1743(3) 0.6843(3) 0.061(2) Uani 1 1 d . . .
H38 H 0.9821 0.2021 0.7054 0.073 Uiso 1 1 calc R . .
C39 C 0.8565(6) 0.1301(4) 0.6201(4) 0.086(3) Uani 1 1 d . . .
H39 H 0.8100 0.1225 0.5889 0.103 Uiso 1 1 calc R . .
C40 C 0.8390(6) 0.2281(3) 0.6209(4) 0.056(2) Uani 1 1 d . . .
C41 C 0.8734(5) 0.2571(3) 0.5751(4) 0.064(2) Uani 1 1 d . . .
C42 C 0.8313(5) 0.3062(3) 0.5606(3) 0.063(2) Uani 1 1 d . . .
H42 H 0.8509 0.3267 0.5306 0.076 Uiso 1 1 calc R . .
C43 C 0.7604(5) 0.3255(3) 0.5898(3) 0.055(2) Uani 1 1 d . . .
C44 C 0.7302(5) 0.2945(3) 0.6335(3) 0.057(2) Uani 1 1 d . . .
H44 H 0.6832 0.3070 0.6528 0.069 Uiso 1 1 calc R . .
C45 C 0.7681(6) 0.2451(3) 0.6493(3) 0.060(2) Uani 1 1 d . . .
C46 C 0.7202(5) 0.3799(3) 0.5744(4) 0.056(2) Uani 1 1 d . . .
C47 C 0.8616(8) 0.5952(5) 0.8454(4) 0.112(4) Uani 1 1 d . . .
H47 H 0.9197 0.6031 0.8703 0.135 Uiso 1 1 calc R . .
C48 C 0.8221(15) 0.5458(8) 0.8710(6) 0.268(13) Uani 1 1 d . . .
H48A H 0.8034 0.5543 0.9089 0.402 Uiso 1 1 calc R . .
H48B H 0.8675 0.5184 0.8765 0.402 Uiso 1 1 calc R . .
H48C H 0.7706 0.5336 0.8436 0.402 Uiso 1 1 calc R . .
C49 C 0.8009(12) 0.6431(8) 0.8467(6) 0.236(11) Uani 1 1 d . . .
H49A H 0.8149 0.6687 0.8178 0.354 Uiso 1 1 calc R . .
H49B H 0.8107 0.6586 0.8861 0.354 Uiso 1 1 calc R . .
H49C H 0.7384 0.6324 0.8371 0.354 Uiso 1 1 calc R . .
C50 C 1.0678(7) 0.6117(4) 0.6833(4) 0.089(3) Uani 1 1 d . . .
H50 H 1.1113 0.6199 0.7192 0.107 Uiso 1 1 calc R . .
C51 C 1.1076(9) 0.5682(7) 0.6476(8) 0.194(7) Uani 1 1 d . . .
H51A H 1.0601 0.5529 0.6193 0.291 Uiso 1 1 calc R . .
H51B H 1.1347 0.5411 0.6745 0.291 Uiso 1 1 calc R . .
H51C H 1.1531 0.5833 0.6265 0.291 Uiso 1 1 calc R . .
C52 C 1.0535(8) 0.6598(6) 0.6453(6) 0.161(6) Uani 1 1 d . . .
H52A H 1.0182 0.6508 0.6075 0.241 Uiso 1 1 calc R . .
H52B H 1.1114 0.6737 0.6386 0.241 Uiso 1 1 calc R . .
H52C H 1.0218 0.6861 0.6651 0.241 Uiso 1 1 calc R . .
C53 C 0.7336(7) 0.2121(3) 0.6977(4) 0.083(3) Uani 1 1 d . . .
H53 H 0.7638 0.1774 0.7001 0.100 Uiso 1 1 calc R . .
C54 C 0.6313(9) 0.2039(6) 0.6818(7) 0.206(9) Uani 1 1 d . . .
H54A H 0.6045 0.2346 0.6610 0.309 Uiso 1 1 calc R . .
H54B H 0.6052 0.1986 0.7179 0.309 Uiso 1 1 calc R . .
H54C H 0.6198 0.1732 0.6564 0.309 Uiso 1 1 calc R . .
C55 C 0.7539(10) 0.2401(5) 0.7601(5) 0.147(5) Uani 1 1 d . . .
H55A H 0.8180 0.2467 0.7695 0.220 Uiso 1 1 calc R . .
H55B H 0.7348 0.2176 0.7903 0.220 Uiso 1 1 calc R . .
H55C H 0.7215 0.2731 0.7588 0.220 Uiso 1 1 calc R . .
C56 C 0.9511(7) 0.2379(4) 0.5446(4) 0.091(3) Uani 1 1 d . . .
H56 H 0.9665 0.2021 0.5599 0.110 Uiso 1 1 calc R . .
C57 C 0.9257(9) 0.2331(6) 0.4784(5) 0.161(6) Uani 1 1 d . . .
H57A H 0.9665 0.2089 0.4630 0.242 Uiso 1 1 calc R . .
H57B H 0.9297 0.2674 0.4602 0.242 Uiso 1 1 calc R . .
H57C H 0.8646 0.2200 0.4694 0.242 Uiso 1 1 calc R . .
C58 C 1.0336(8) 0.2712(6) 0.5608(7) 0.180(7) Uani 1 1 d . . .
H58A H 1.0845 0.2544 0.5468 0.271 Uiso 1 1 calc R . .
H58B H 1.0459 0.2752 0.6037 0.271 Uiso 1 1 calc R . .
H58C H 1.0238 0.3055 0.5425 0.271 Uiso 1 1 calc R . .
Ce1 Ce 0.62790(3) 0.478493(15) 0.541036(16) 0.0373(2) Uani 1 1 d . . .
N1 N 0.6055(4) 0.6184(3) 0.1873(3) 0.0539(17) Uani 1 1 d . . .
N2 N 0.5979(4) 0.6822(2) 0.1226(3) 0.0544(16) Uani 1 1 d . . .
N3 N 0.8822(4) 0.1790(3) 0.6397(3) 0.0622(18) Uani 1 1 d . . .
N4 N 1.0318(4) 0.6225(3) 0.8065(3) 0.0673(19) Uani 1 1 d . . .
N5 N 0.5578(15) 0.4047(6) 0.2851(10) 0.216(7) Uani 1 1 d . . .
O1 O 0.6742(3) 0.5030(2) 0.4418(2) 0.0564(14) Uani 1 1 d . . .
O2 O 0.5248(4) 0.51087(18) 0.4318(2) 0.0491(12) Uani 1 1 d . . .
O3 O 0.6082(3) 0.92441(19) 0.0387(2) 0.0520(13) Uani 1 1 d . . .
O4 O 0.4594(4) 0.90475(18) 0.0105(2) 0.0663(15) Uani 1 1 d . . .
O5 O 0.6828(4) 0.5141(2) 0.6495(2) 0.0617(14) Uani 1 1 d . . .
O6 O 0.7799(3) 0.5172(2) 0.5841(3) 0.0667(15) Uani 1 1 d . . .
O7 O 0.6645(4) 0.3975(2) 0.6065(2) 0.0665(15) Uani 1 1 d . . .
O8 O 0.7415(3) 0.4046(2) 0.5296(2) 0.0615(14) Uani 1 1 d . . .
O9 O 0.6223(12) 0.3826(6) 0.3424(7) 0.251(6) Uani 1 1 d . . .
O10 O 0.4631(15) 0.3957(10) 0.2751(17) 0.56(3) Uani 1 1 d . . .
O11 O 0.632(2) 0.4303(5) 0.2381(8) 0.424(16) Uani 1 1 d . . .

loop_
_atom_site_aniso_label
_atom_site_aniso_U_11
_atom_site_aniso_U_22
_atom_site_aniso_U_33
_atom_site_aniso_U_23
_atom_site_aniso_U_13
_atom_site_aniso_U_12
C1 0.057(6) 0.039(5) 0.040(5) 0.002(4) -0.001(4) -0.002(4)
C2 0.050(5) 0.035(4) 0.047(5) 0.010(3) 0.001(4) 0.003(4)
C3 0.061(5) 0.052(5) 0.046(5) 0.017(4) 0.001(4) -0.015(4)
C4 0.070(6) 0.049(5) 0.034(5) 0.006(4) -0.002(4) 0.004(4)
C5 0.062(6) 0.054(5) 0.051(5) 0.036(4) 0.006(4) -0.003(4)
C6 0.055(6) 0.072(6) 0.065(6) 0.038(5) 0.003(5) -0.002(4)
C7 0.043(5) 0.088(6) 0.059(6) 0.024(5) -0.006(4) 0.000(5)
C8 0.120(8) 0.051(6) 0.067(7) 0.015(5) 0.029(5) 0.013(5)
C9 0.137(9) 0.058(6) 0.060(6) 0.019(5) 0.032(6) 0.028(6)
C10 0.068(5) 0.041(5) 0.042(5) 0.012(4) -0.003(4) 0.002(4)
C11 0.073(6) 0.029(5) 0.041(5) 0.010(4) 0.011(4) 0.010(4)
C12 0.063(6) 0.037(5) 0.051(5) 0.010(4) 0.003(4) 0.000(4)
C13 0.060(5) 0.055(6) 0.048(5) 0.006(4) -0.010(4) 0.008(5)
C14 0.062(5) 0.039(5) 0.042(5) 0.006(4) 0.001(4) 0.001(4)
C15 0.051(5) 0.039(5) 0.062(5) 0.015(4) -0.004(4) 0.002(4)
C16 0.056(5) 0.047(5) 0.041(5) 0.013(4) -0.001(4) 0.000(4)
C17 0.063(6) 0.048(5) 0.040(5) -0.003(4) -0.016(4) 0.011(5)
C18 0.067(6) 0.087(7) 0.041(5) 0.025(4) -0.005(4) -0.014(5)
C19 0.139(11) 0.136(11) 0.154(12) 0.037(9) -0.079(9) -0.061(9)
C20 0.100(8) 0.185(12) 0.084(8) 0.014(8) 0.011(6) 0.064(9)
C21 0.057(7) 0.176(12) 0.113(9) 0.088(9) 0.005(6) -0.006(8)
C22 0.135(13) 0.226(19) 0.240(19) 0.040(16) 0.041(12) -0.100(13)
C23 0.102(11) 0.234(18) 0.32(2) 0.107(17) 0.107(12) 0.032(12)
C24 0.074(6) 0.061(6) 0.075(6) 0.025(5) -0.005(5) -0.012(5)
C25 0.097(9) 0.180(14) 0.185(13) -0.003(11) 0.047(9) -0.059(9)
C26 0.173(12) 0.119(10) 0.109(10) 0.010(8) -0.028(8) -0.066(9)
C27 0.058(6) 0.054(6) 0.096(7) 0.028(5) -0.008(5) 0.002(4)
C28 0.122(10) 0.122(10) 0.133(11) 0.010(8) -0.062(8) 0.019(8)
C29 0.074(8) 0.177(13) 0.159(12) 0.045(10) 0.028(8) 0.028(8)
C30 0.047(5) 0.060(5) 0.043(5) 0.005(4) -0.016(4) -0.017(4)
C31 0.058(6) 0.073(6) 0.041(5) -0.004(4) 0.001(4) -0.008(5)
C32 0.062(6) 0.081(6) 0.047(5) -0.006(5) -0.006(4) -0.013(5)
C33 0.070(6) 0.069(6) 0.054(6) -0.001(5) -0.005(5) -0.025(5)
C34 0.071(6) 0.063(6) 0.061(6) 0.004(5) -0.029(5) -0.025(5)
C35 0.087(7) 0.077(6) 0.045(5) -0.014(4) -0.010(5) -0.042(5)
C36 0.068(6) 0.081(6) 0.059(6) 0.004(5) 0.006(5) -0.017(5)
C37 0.110(8) 0.066(6) 0.095(7) 0.009(6) -0.045(6) -0.009(6)
C38 0.064(6) 0.057(6) 0.055(5) 0.004(4) -0.012(4) 0.022(4)
C39 0.116(8) 0.056(6) 0.070(6) 0.008(5) -0.040(6) 0.022(6)
C40 0.063(6) 0.046(5) 0.055(5) 0.010(4) -0.008(4) 0.016(4)
C41 0.061(6) 0.067(6) 0.063(6) 0.009(5) 0.006(5) 0.028(5)
C42 0.064(6) 0.071(6) 0.054(5) 0.023(4) 0.005(4) 0.007(5)
C43 0.051(5) 0.061(6) 0.048(5) 0.000(4) -0.003(4) 0.008(4)
C44 0.050(5) 0.061(6) 0.062(5) 0.022(5) 0.016(4) 0.009(4)
C45 0.066(6) 0.057(6) 0.053(5) 0.019(4) -0.004(4) 0.015(5)
C46 0.044(5) 0.052(6) 0.065(6) 0.009(5) -0.014(4) 0.005(4)
C47 0.125(10) 0.151(11) 0.057(7) -0.026(7) 0.001(6) -0.064(9)
C48 0.46(3) 0.28(2) 0.079(10) -0.028(11) 0.085(14) -0.22(2)
C49 0.25(2) 0.37(3) 0.091(10) -0.047(14) 0.043(11) 0.15(2)
C50 0.084(7) 0.104(8) 0.072(7) -0.002(6) -0.010(5) -0.037(6)
C51 0.129(12) 0.203(16) 0.271(19) -0.069(15) 0.103(12) -0.018(11)
C52 0.114(10) 0.185(14) 0.181(14) 0.078(12) 0.015(9) -0.031(9)
C53 0.094(8) 0.060(6) 0.097(8) 0.045(6) 0.015(6) 0.026(5)
C54 0.121(12) 0.235(18) 0.255(18) 0.