####################################################################### 
# 
# This file contains crystal structure data downloaded from the 
# Cambridge Structural Database (CSD) hosted by the Cambridge 
# Crystallographic Data Centre (CCDC).
# 
# Full information about CCDC data access policies and citation 
# guidelines are available at http://www.ccdc.cam.ac.uk/access/V1 
# 
# Audit and citation data items may have been added by the CCDC. 
# Please retain this information to preserve the provenance of 
# this file and to allow appropriate attribution of the data. 
# 
#######################################################################

data_itw
_audit_block_doi                 10.5517/cc891p8
_database_code_depnum_ccdc_archive 'CCDC 247029'
loop_
_citation_id
_citation_doi
_citation_year
1 10.1002/anie.200461625 2005
_audit_update_record             
;
2004-08-07 deposited with the CCDC.	2024-07-11 downloaded from the CCDC.
;

_audit_creation_method           SHELXL-97
_chemical_name_systematic        
;
Diperchlorato-3,3',5,5'-tetrakis[4-pyridyl]bimesitylzinc(II)-solvate
;

_chemical_name_common            
;Diperchlorato-3,3',5,5'-tetrakis(4-pyridyl)bimesitylzinc(ii)-
solvate
;
_chemical_melting_point          ?
_chemical_formula_moiety         'C57 H51 Zn N6 Cl O4'
_chemical_formula_sum            'C912 H816 Cl16 N96 O64 Zn16'
_chemical_formula_weight         15757.73

loop_
_atom_type_symbol
_atom_type_description
_atom_type_scat_dispersion_real
_atom_type_scat_dispersion_imag
_atom_type_scat_source
C C 0.0033 0.0016 'International Tables Vol C Tables 4.2.6.8 and 6.1.1.4'
Cl Cl 0.1484 0.1585 'International Tables Vol C Tables 4.2.6.8 and 6.1.1.4'
N N 0.0061 0.0033 'International Tables Vol C Tables 4.2.6.8 and 6.1.1.4'
O O 0.0106 0.0060 'International Tables Vol C Tables 4.2.6.8 and 6.1.1.4'
Zn Zn 0.2839 1.4301 'International Tables Vol C Tables 4.2.6.8 and 6.1.1.4'
H H 0.0000 0.0000 'International Tables Vol C Tables 4.2.6.8 and 6.1.1.4'

_symmetry_cell_setting           cubic
_symmetry_space_group_name_H-M   'I a -3 d'
_symmetry_int_tables_number      230

loop_
_symmetry_equiv_pos_as_xyz
'x, y, z'
'-y+1/4, x+3/4, z+1/4'
'-x+1/2, -y, z+1/2'
'y+1/4, -x+1/4, z+3/4'
'x, -y, -z+1/2'
'y+1/4, x+3/4, -z+3/4'
'-x+1/2, y, -z'
'-y+1/4, -x+1/4, -z+1/4'
'z, x, y'
'-x+1/4, z+3/4, y+1/4'
'-z+1/2, -x, y+1/2'
'x+1/4, -z+1/4, y+3/4'
'z, -x, -y+1/2'
'x+1/4, z+3/4, -y+3/4'
'-z+1/2, x, -y'
'-x+1/4, -z+1/4, -y+1/4'
'y, z, x'
'-z+1/4, -y+1/4, -x+1/4'
'-z+3/4, y+1/4, x+3/4'
'z+3/4, y+1/4, -x+1/4'
'z+1/4, -y+1/4, x+3/4'
'y, -z, -x+1/2'
'-y, -z+1/2, x'
'-y, z+1/2, -x+1/2'
'x+1/2, y+1/2, z+1/2'
'-y+3/4, x+5/4, z+3/4'
'-x+1, -y+1/2, z+1'
'y+3/4, -x+3/4, z+5/4'
'x+1/2, -y+1/2, -z+1'
'y+3/4, x+5/4, -z+5/4'
'-x+1, y+1/2, -z+1/2'
'-y+3/4, -x+3/4, -z+3/4'
'z+1/2, x+1/2, y+1/2'
'-x+3/4, z+5/4, y+3/4'
'-z+1, -x+1/2, y+1'
'x+3/4, -z+3/4, y+5/4'
'z+1/2, -x+1/2, -y+1'
'x+3/4, z+5/4, -y+5/4'
'-z+1, x+1/2, -y+1/2'
'-x+3/4, -z+3/4, -y+3/4'
'y+1/2, z+1/2, x+1/2'
'-z+3/4, -y+3/4, -x+3/4'
'-z+5/4, y+3/4, x+5/4'
'z+5/4, y+3/4, -x+3/4'
'z+3/4, -y+3/4, x+5/4'
'y+1/2, -z+1/2, -x+1'
'-y+1/2, -z+1, x+1/2'
'-y+1/2, z+1, -x+1'
'-x, -y, -z'
'y-1/4, -x-3/4, -z-1/4'
'x-1/2, y, -z-1/2'
'-y-1/4, x-1/4, -z-3/4'
'-x, y, z-1/2'
'-y-1/4, -x-3/4, z-3/4'
'x-1/2, -y, z'
'y-1/4, x-1/4, z-1/4'
'-z, -x, -y'
'x-1/4, -z-3/4, -y-1/4'
'z-1/2, x, -y-1/2'
'-x-1/4, z-1/4, -y-3/4'
'-z, x, y-1/2'
'-x-1/4, -z-3/4, y-3/4'
'z-1/2, -x, y'
'x-1/4, z-1/4, y-1/4'
'-y, -z, -x'
'z-1/4, y-1/4, x-1/4'
'z-3/4, -y-1/4, -x-3/4'
'-z-3/4, -y-1/4, x-1/4'
'-z-1/4, y-1/4, -x-3/4'
'-y, z, x-1/2'
'y, z-1/2, -x'
'y, -z-1/2, x-1/2'
'-x+1/2, -y+1/2, -z+1/2'
'y+1/4, -x-1/4, -z+1/4'
'x, y+1/2, -z'
'-y+1/4, x+1/4, -z-1/4'
'-x+1/2, y+1/2, z'
'-y+1/4, -x-1/4, z-1/4'
'x, -y+1/2, z+1/2'
'y+1/4, x+1/4, z+1/4'
'-z+1/2, -x+1/2, -y+1/2'
'x+1/4, -z-1/4, -y+1/4'
'z, x+1/2, -y'
'-x+1/4, z+1/4, -y-1/4'
'-z+1/2, x+1/2, y'
'-x+1/4, -z-1/4, y-1/4'
'z, -x+1/2, y+1/2'
'x+1/4, z+1/4, y+1/4'
'-y+1/2, -z+1/2, -x+1/2'
'z+1/4, y+1/4, x+1/4'
'z-1/4, -y+1/4, -x-1/4'
'-z-1/4, -y+1/4, x+1/4'
'-z+1/4, y+1/4, -x-1/4'
'-y+1/2, z+1/2, x'
'y+1/2, z, -x+1/2'
'y+1/2, -z, x'

_cell_length_a                   32.198(4)
_cell_length_b                   32.198(4)
_cell_length_c                   32.198(4)
_cell_angle_alpha                90.00
_cell_angle_beta                 90.00
_cell_angle_gamma                90.00
_cell_volume                     33380(7)
_cell_formula_units_Z            1
_cell_measurement_temperature    100(2)
_cell_measurement_reflns_used    182
_cell_measurement_theta_min      0
_cell_measurement_theta_max      28

_exptl_crystal_description       prism
_exptl_crystal_colour            white
_exptl_crystal_size_max          0.2
_exptl_crystal_size_mid          0.2
_exptl_crystal_size_min          0.1
_exptl_crystal_density_meas      ?
_exptl_crystal_density_diffrn    0.784
_exptl_crystal_density_method    'not measured'
_exptl_crystal_F_000             8224
_exptl_absorpt_coefficient_mu    0.358
_exptl_absorpt_correction_type   none
_exptl_absorpt_correction_T_min  ?
_exptl_absorpt_correction_T_max  ?
_exptl_absorpt_process_details   ?

_exptl_special_details           
;
?
;

_diffrn_ambient_temperature      100(2)
_diffrn_radiation_probe          x-ray
_diffrn_radiation_type           MoK\a
_diffrn_radiation_wavelength     0.71073
_diffrn_source                   'fine-focus sealed tube'
_diffrn_source_type              'Siemens Ceramic tube'
_diffrn_radiation_monochromator  graphite
_diffrn_measurement_device_type  'Bruker P4'
_diffrn_measurement_method       '\w scans'
_diffrn_detector_area_resol_mean ?
_diffrn_standards_number         ?
_diffrn_standards_interval_count ?
_diffrn_standards_interval_time  ?
_diffrn_standards_decay_%        ?
_diffrn_reflns_number            2782
_diffrn_reflns_av_R_equivalents  0.1152
_diffrn_reflns_av_sigmaI/netI    0.0935
_diffrn_reflns_limit_h_min       -22
_diffrn_reflns_limit_h_max       0
_diffrn_reflns_limit_k_min       0
_diffrn_reflns_limit_k_max       22
_diffrn_reflns_limit_l_min       2
_diffrn_reflns_limit_l_max       32
_diffrn_reflns_theta_min         1.55
_diffrn_reflns_theta_max         20.81
_reflns_number_total             1467
_reflns_number_gt                651
_reflns_threshold_expression     >2sigma(I)

_computing_data_collection       'Bruker XSCANS'
_computing_cell_refinement       'Bruker XSCANS'
_computing_data_reduction        'Bruker SHELXTL'
_computing_structure_solution    'SHELXS-97 (Sheldrick, 1990)'
_computing_structure_refinement  'SHELXL-97 (Sheldrick, 1997)'
_computing_molecular_graphics    'Bruker SHELXTL'
_computing_publication_material  'Bruker SHELXTL'

_refine_special_details          
;
Refinement of F^2^ against ALL reflections. The weighted R-factor wR and
goodness of fit S are based on F^2^, conventional R-factors R are based
on F, with F set to zero for negative F^2^. The threshold expression of
F^2^ > 2sigma(F^2^) is used only for calculating R-factors(gt) etc. and is
not relevant to the choice of reflections for refinement. R-factors based
on F^2^ are statistically about twice as large as those based on F, and R-
factors based on ALL data will be even larger.
;

_refine_ls_structure_factor_coef Fsqd
_refine_ls_matrix_type           full
_refine_ls_weighting_scheme      calc
_refine_ls_weighting_details     
'calc w=1/[\s^2^(Fo^2^)+(0.1059P)^2^+0.0000P] where P=(Fo^2^+2Fc^2^)/3'
_atom_sites_solution_primary     direct
_atom_sites_solution_secondary   difmap
_atom_sites_solution_hydrogens   geom
_refine_ls_hydrogen_treatment    mixed
_refine_ls_extinction_method     SHELXL
_refine_ls_extinction_coef       0.000000(12)
_refine_ls_extinction_expression Fc^*^=kFc[1+0.001xFc^2^\l^3^/sin(2\q)]^-1/4^
_refine_ls_number_reflns         1467
_refine_ls_number_parameters     101
_refine_ls_number_restraints     54
_refine_ls_R_factor_all          0.1093
_refine_ls_R_factor_gt           0.0709
_refine_ls_wR_factor_ref         0.1944
_refine_ls_wR_factor_gt          0.1802
_refine_ls_goodness_of_fit_ref   0.831
_refine_ls_restrained_S_all      0.874
_refine_ls_shift/su_max          1.513
_refine_ls_shift/su_mean         0.015

loop_
_atom_site_label
_atom_site_type_symbol
_atom_site_fract_x
_atom_site_fract_y
_atom_site_fract_z
_atom_site_U_iso_or_equiv
_atom_site_adp_type
_atom_site_occupancy
_atom_site_symmetry_multiplicity
_atom_site_calc_flag
_atom_site_refinement_flags
_atom_site_disorder_assembly
_atom_site_disorder_group
N1 N 0.02098(14) 0.94698(12) 0.96376(13) 0.0623(15) Uani 1 1 d GU . .
C1 C 0.04217(14) 0.91712(15) 0.97976(13) 0.113(3) Uani 1 1 d GU . .
H1 H 0.0535 0.9212 1.0060 0.136 Uiso 1 1 calc R . .
C2 C 0.04961(17) 0.87730(16) 0.95960(15) 0.133(3) Uani 1 1 d GU . .
H2 H 0.0636 0.8559 0.9730 0.160 Uiso 1 1 calc R . .
C3 C 0.03502(16) 0.87291(15) 0.92016(15) 0.0739(19) Uani 1 1 d GU . .
C4 C 0.0144(2) 0.90470(15) 0.90382(14) 0.157(4) Uani 1 1 d GU . .
H4 H 0.0032 0.9022 0.8773 0.188 Uiso 1 1 calc R . .
C5 C 0.00963(19) 0.93846(13) 0.92369(13) 0.158(4) Uani 1 1 d GU . .
H5 H -0.0031 0.9600 0.9093 0.190 Uiso 1 1 calc R . .
C7 C 0.11214(18) 0.86214(18) 0.8750 0.119(4) Uani 1 2 d S . .
H7A H 0.1348 0.8536 0.8576 0.178 Uiso 0.50 1 calc PR . .
H7B H 0.1220 0.8663 0.9028 0.178 Uiso 0.50 1 calc PR . .
H7C H 0.1007 0.8876 0.8646 0.178 Uiso 0.50 1 calc PR . .
C8 C 0.07701(19) 0.82701(19) 0.8750 0.082(3) Uani 1 2 d S . .
C9 C 0.04166(18) 0.83361(19) 0.89812(19) 0.0644(18) Uani 1 1 d . . .
C10 C 0.01146(17) 0.8023(2) 0.89880(18) 0.0599(17) Uani 1 1 d . . .
C11 C 0.01624(16) 0.76624(16) 0.8750 0.054(2) Uani 1 2 d S . .
C12 C -0.02681(17) 0.80639(19) 0.9267(2) 0.081(2) Uani 1 1 d . . .
H12A H -0.0255 0.8321 0.9417 0.121 Uiso 1 1 calc R . .
H12B H -0.0275 0.7837 0.9460 0.121 Uiso 1 1 calc R . .
H12C H -0.0515 0.8059 0.9099 0.121 Uiso 1 1 calc R . .
Zn1 Zn 0.0000 1.0000 1.0000 0.0593(6) Uani 1 6 d S . .
Cl1 Cl 0.1250 0.1250 0.1250 0.133(2) Uiso 1 6 d SD . .
O1 O 0.1560(3) 0.0940(3) 0.1250 0.154(6) Uiso 0.67 2 d SPD . .
O2 O 0.1158(8) 0.1258(6) 0.1705(5) 0.068(7) Uiso 0.17 1 d PD . .
O3 O 0.1523(9) 0.1615(6) 0.1294(8) 0.147(15) Uiso 0.17 1 d PD . .

loop_
_atom_site_aniso_label
_atom_site_aniso_U_11
_atom_site_aniso_U_22
_atom_site_aniso_U_33
_atom_site_aniso_U_23
_atom_site_aniso_U_13
_atom_site_aniso_U_12
N1 0.074(4) 0.049(3) 0.065(3) 0.002(3) -0.010(3) -0.014(2)
C1 0.096(6) 0.136(7) 0.108(6) -0.055(5) -0.042(5) 0.047(5)
C2 0.140(7) 0.130(6) 0.129(7) -0.059(6) -0.030(6) 0.081(6)
C3 0.072(5) 0.060(4) 0.090(5) -0.014(4) 0.009(3) 0.003(4)
C4 0.290(12) 0.047(5) 0.133(7) -0.049(5) -0.058(7) 0.069(6)
C5 0.320(13) 0.050(5) 0.105(6) -0.004(5) -0.063(7) 0.055(6)
C7 0.094(6) 0.094(6) 0.167(11) -0.046(6) 0.046(6) -0.048(6)
C8 0.073(4) 0.073(4) 0.100(8) -0.017(5) 0.017(5) -0.034(5)
C9 0.047(4) 0.069(5) 0.076(5) -0.012(4) 0.011(3) -0.010(3)
C10 0.043(4) 0.060(4) 0.077(4) 0.009(3) 0.007(3) 0.000(3)
C11 0.043(3) 0.043(3) 0.078(6) -0.012(3) 0.012(3) -0.012(3)
C12 0.050(4) 0.079(5) 0.113(6) -0.007(4) 0.025(4) -0.001(3)
Zn1 0.0593(6) 0.0593(6) 0.0593(6) -0.0086(5) -0.0086(5) -0.0086(5)

_geom_special_details            
;
All esds (except the esd in the dihedral angle between two l.s. planes)
are estimated using the full covariance matrix. The cell esds are taken
into account individually in the estimation of esds in distances, angles
and torsion angles; correlations between esds in cell parameters are only
used when they are defined by crystal symmetry. An approximate (isotropic)
treatment of cell esds is used for estimating esds involving l.s. planes.
;

loop_
_geom_bond_atom_site_label_1
_geom_bond_atom_site_label_2
_geom_bond_distance
_geom_bond_site_symmetry_2
_geom_bond_publ_flag
N1 C1 1.287(2) . ?
N1 C5 1.368(3) . ?
N1 Zn1 2.175(4) . ?
C1 C2 1.457(3) . ?
C2 C3 1.361(3) . ?
C3 C4 1.329(3) . ?
C3 C9 1.466(7) . ?
C4 C5 1.271(2) . ?
C7 C8 1.599(11) . ?
C8 C9 1.377(7) 6_456 ?
C8 C9 1.377(7) . ?
C9 C10 1.400(8) . ?
C10 C11 1.401(7) . ?
C10 C12 1.531(7) . ?
C11 C10 1.401(7) 6_456 ?
C11 C11 1.479(15) 27_464 ?
Zn1 N1 2.175(4) 17_456 ?
Zn1 N1 2.175(4) 57_667 ?
Zn1 N1 2.175(4) 65_676 ?
Zn1 N1 2.175(4) 9_465 ?
Zn1 N1 2.175(4) 49_577 ?
Cl1 O1 1.413(11) . ?
Cl1 O1 1.413(11) 9 ?
Cl1 O1 1.413(11) 16 ?
Cl1 O3 1.474(16) 8 ?
Cl1 O3 1.474(16) 18 ?
Cl1 O3 1.474(16) 16 ?
Cl1 O3 1.474(16) . ?
Cl1 O3 1.475(16) 9 ?
Cl1 O3 1.475(16) 17 ?
Cl1 O2 1.496(14) 17 ?
Cl1 O2 1.496(14) 9 ?
Cl1 O2 1.496(14) 18 ?
O1 O2 0.84(3) 9 ?
O1 O2 0.84(3) 16 ?
O1 O3 1.45(3) 17 ?
O1 O3 1.45(3) 18 ?
O2 O1 0.84(3) 16 ?
O2 O3 1.00(3) 9 ?
O2 O3 1.59(4) 17 ?
O2 O2 1.65(5) 18 ?
O3 O2 1.00(3) 17 ?
O3 O3 1.30(4) 9 ?
O3 O3 1.30(4) 17 ?
O3 O1 1.45(3) 9 ?
O3 O2 1.59(4) 9 ?

loop_
_geom_angle_atom_site_label_1
_geom_angle_atom_site_label_2
_geom_angle_atom_site_label_3
_geom_angle
_geom_angle_site_symmetry_1
_geom_angle_site_symmetry_3
_geom_angle_publ_flag
C1 N1 C5 111.7 . . ?
C1 N1 Zn1 122.4(2) . . ?
C5 N1 Zn1 125.5(2) . . ?
N1 C1 C2 124.5 . . ?
C3 C2 C1 116.8 . . ?
C4 C3 C2 117.5 . . ?
C4 C3 C9 123.1(4) . . ?
C2 C3 C9 119.4(4) . . ?
C5 C4 C3 121.3 . . ?
C4 C5 N1 127.9 . . ?
C9 C8 C9 123.2(8) 6_456 . ?
C9 C8 C7 118.4(4) 6_456 . ?
C9 C8 C7 118.4(4) . . ?
C8 C9 C10 118.2(7) . . ?
C8 C9 C3 121.0(5) . . ?
C10 C9 C3 120.8(6) . . ?
C9 C10 C11 120.8(6) . . ?
C9 C10 C12 120.5(6) . . ?
C11 C10 C12 118.7(5) . . ?
C10 C11 C10 118.8(7) . 6_456 ?
C10 C11 C11 120.6(3) . 27_464 ?
C10 C11 C11 120.6(3) 6_456 27_464 ?
N1 Zn1 N1 90.62(16) 17_456 57_667 ?
N1 Zn1 N1 89.38(16) 17_456 . ?
N1 Zn1 N1 90.62(16) 57_667 . ?
N1 Zn1 N1 180.0 17_456 65_676 ?
N1 Zn1 N1 89.38(16) 57_667 65_676 ?
N1 Zn1 N1 90.62(16) . 65_676 ?
N1 Zn1 N1 89.38(16) 17_456 9_465 ?
N1 Zn1 N1 180.00(18) 57_667 9_465 ?
N1 Zn1 N1 89.38(16) . 9_465 ?
N1 Zn1 N1 90.62(16) 65_676 9_465 ?
N1 Zn1 N1 90.62(16) 17_456 49_577 ?
N1 Zn1 N1 89.38(16) 57_667 49_577 ?
N1 Zn1 N1 180.0 . 49_577 ?
N1 Zn1 N1 89.38(16) 65_676 49_577 ?
N1 Zn1 N1 90.62(16) 9_465 49_577 ?
O1 Cl1 O1 119.995(2) . 9 ?
O1 Cl1 O1 120.0 . 16 ?
O1 Cl1 O1 120.0 9 16 ?
O1 Cl1 O3 98.1(13) . 8 ?
O1 Cl1 O3 110.7(10) 9 8 ?
O1 Cl1 O3 60.3(11) 16 8 ?
O1 Cl1 O3 60.3(11) . 18 ?
O1 Cl1 O3 98.1(13) 9 18 ?
O1 Cl1 O3 110.7(10) 16 18 ?
O3 Cl1 O3 52.4(18) 8 18 ?
O1 Cl1 O3 110.7(10) . 16 ?
O1 Cl1 O3 60.3(11) 9 16 ?
O1 Cl1 O3 98.1(13) 16 16 ?
O3 Cl1 O3 52.4(18) 8 16 ?
O3 Cl1 O3 52.4(18) 18 16 ?
O1 Cl1 O3 98.1(13) . . ?
O1 Cl1 O3 60.3(11) 9 . ?
O1 Cl1 O3 110.7(10) 16 . ?
O3 Cl1 O3 164(3) 8 . ?
O3 Cl1 O3 139(2) 18 . ?
O3 Cl1 O3 121(2) 16 . ?
O1 Cl1 O3 110.7(10) . 9 ?
O1 Cl1 O3 98.1(13) 9 9 ?
O1 Cl1 O3 60.3(11) 16 9 ?
O3 Cl1 O3 121(2) 8 9 ?
O3 Cl1 O3 164(3) 18 9 ?
O3 Cl1 O3 139(2) 16 9 ?
O3 Cl1 O3 52.4(18) . 9 ?
O1 Cl1 O3 60.3(11) . 17 ?
O1 Cl1 O3 110.7(10) 9 17 ?
O1 Cl1 O3 98.1(13) 16 17 ?
O3 Cl1 O3 139(2) 8 17 ?
O3 Cl1 O3 121(2) 18 17 ?
O3 Cl1 O3 164(3) 16 17 ?
O3 Cl1 O3 52.4(18) . 17 ?
O3 Cl1 O3 52.4(18) 9 17 ?
O1 Cl1 O2 132.9(8) . 17 ?
O1 Cl1 O2 33.5(11) 9 17 ?
O1 Cl1 O2 98.8(8) 16 17 ?
O3 Cl1 O2 125.4(18) 8 17 ?
O3 Cl1 O2 131.6(13) 18 17 ?
O3 Cl1 O2 87.0(13) 16 17 ?
O3 Cl1 O2 39.5(13) . 17 ?
O3 Cl1 O2 65(2) 9 17 ?
O3 Cl1 O2 90.6(11) 17 17 ?
O1 Cl1 O2 33.5(11) . 9 ?
O1 Cl1 O2 98.8(8) 9 9 ?
O1 Cl1 O2 132.9(8) 16 9 ?
O3 Cl1 O2 131.6(13) 8 9 ?
O3 Cl1 O2 87.0(13) 18 9 ?
O3 Cl1 O2 125.4(18) 16 9 ?
O3 Cl1 O2 65(2) . 9 ?
O3 Cl1 O2 90.6(11) 9 9 ?
O3 Cl1 O2 39.5(13) 17 9 ?
O2 Cl1 O2 100.4(13) 17 9 ?
O1 Cl1 O2 132.9(8) . 18 ?
O1 Cl1 O2 98.8(8) 9 18 ?
O1 Cl1 O2 33.5(11) 16 18 ?
O3 Cl1 O2 39.5(13) 8 18 ?
O3 Cl1 O2 90.6(11) 18 18 ?
O3 Cl1 O2 65(2) 16 18 ?
O3 Cl1 O2 125.4(18) . 18 ?
O3 Cl1 O2 87.0(13) 9 18 ?
O3 Cl1 O2 131.6(13) 17 18 ?
O2 Cl1 O2 94.3(15) 17 18 ?
O2 Cl1 O2 162.4(17) 9 18 ?
O2 O1 O2 157(3) 9 16 ?
O2 O1 Cl1 78.7(14) 9 . ?
O2 O1 Cl1 78.7(14) 16 . ?
O2 O1 O3 42.2(12) 9 17 ?
O2 O1 O3 123.8(19) 16 17 ?
Cl1 O1 O3 61.9(7) . 17 ?
O2 O1 O3 123.7(19) 9 18 ?
O2 O1 O3 42.2(12) 16 18 ?
Cl1 O1 O3 61.9(7) . 18 ?
O3 O1 O3 123.9(15) 17 18 ?
O1 O2 O3 103(2) 16 9 ?
O1 O2 Cl1 67.8(12) 16 . ?
O3 O2 Cl1 69.1(11) 9 . ?
O1 O2 O3 124.6(19) 16 17 ?
O3 O2 O3 55(3) 9 17 ?
Cl1 O2 O3 57.0(13) . 17 ?
O1 O2 O2 11.3(14) 16 18 ?
O3 O2 O2 98(2) 9 18 ?
Cl1 O2 O2 56.5(11) . 18 ?
O3 O2 O2 113.3(10) 17 18 ?
O2 O3 O3 86(3) 17 9 ?
O2 O3 O3 132(2) 17 17 ?
O3 O3 O3 60.005(6) 9 17 ?
O2 O3 O1 34.4(17) 17 9 ?
O3 O3 O1 104.6(18) 9 9 ?
O3 O3 O1 119.1(9) 17 9 ?
O2 O3 Cl1 71.4(14) 17 . ?
O3 O3 Cl1 63.8(9) 9 . ?
O3 O3 Cl1 63.8(9) 17 . ?
O1 O3 Cl1 57.7(9) 9 . ?
O2 O3 O2 123(2) 17 9 ?
O3 O3 O2 93(2) 9 9 ?
O3 O3 O2 39(2) 17 9 ?
O1 O3 O2 93.1(15) 9 9 ?
Cl1 O3 O2 58.3(10) . 9 ?

loop_
_geom_torsion_atom_site_label_1
_geom_torsion_atom_site_label_2
_geom_torsion_atom_site_label_3
_geom_torsion_atom_site_label_4
_geom_torsion
_geom_torsion_site_symmetry_1
_geom_torsion_site_symmetry_2
_geom_torsion_site_symmetry_3
_geom_torsion_site_symmetry_4
_geom_torsion_publ_flag
C5 N1 C1 C2 -6.1 . . . . ?
Zn1 N1 C1 C2 166.7(3) . . . . ?
N1 C1 C2 C3 4.1 . . . . ?
C1 C2 C3 C4 -1.8 . . . . ?
C1 C2 C3 C9 179.8(5) . . . . ?
C2 C3 C4 C5 2.4 . . . . ?
C9 C3 C4 C5 -179.2(5) . . . . ?
C3 C4 C5 N1 -5.3 . . . . ?
C1 N1 C5 C4 6.9 . . . . ?
Zn1 N1 C5 C4 -165.6(3) . . . . ?
C9 C8 C9 C10 1.5(4) 6_456 . . . ?
C7 C8 C9 C10 -178.5(4) . . . . ?
C9 C8 C9 C3 -176.2(6) 6_456 . . . ?
C7 C8 C9 C3 3.8(6) . . . . ?
C4 C3 C9 C8 93.0(6) . . . . ?
C2 C3 C9 C8 -88.7(6) . . . . ?
C4 C3 C9 C10 -84.7(7) . . . . ?
C2 C3 C9 C10 93.7(7) . . . . ?
C8 C9 C10 C11 -3.0(9) . . . . ?
C3 C9 C10 C11 174.7(4) . . . . ?
C8 C9 C10 C12 175.0(5) . . . . ?
C3 C9 C10 C12 -7.3(9) . . . . ?
C9 C10 C11 C10 1.5(4) . . . 6_456 ?
C12 C10 C11 C10 -176.5(6) . . . 6_456 ?
C9 C10 C11 C11 -178.5(4) . . . 27_464 ?
C12 C10 C11 C11 3.5(6) . . . 27_464 ?
C1 N1 Zn1 N1 -83.0(4) . . . 17_456 ?
C5 N1 Zn1 N1 88.7(3) . . . 17_456 ?
C1 N1 Zn1 N1 7.6(3) . . . 57_667 ?
C5 N1 Zn1 N1 179.3(3) . . . 57_667 ?
C1 N1 Zn1 N1 97.0(4) . . . 65_676 ?
C5 N1 Zn1 N1 -91.3(3) . . . 65_676 ?
C1 N1 Zn1 N1 -172.4(3) . . . 9_465 ?
C5 N1 Zn1 N1 -0.7(3) . . . 9_465 ?
C1 N1 Zn1 N1 -70(22) . . . 49_577 ?
C5 N1 Zn1 N1 102(22) . . . 49_577 ?
O1 Cl1 O1 O2 56.6(14) 9 . . 9 ?
O1 Cl1 O1 O2 -123.4(14) 16 . . 9 ?
O3 Cl1 O1 O2 176(2) 8 . . 9 ?
O3 Cl1 O1 O2 138.5(15) 18 . . 9 ?
O3 Cl1 O1 O2 123(2) 16 . . 9 ?
O3 Cl1 O1 O2 -4(2) . . . 9 ?
O3 Cl1 O1 O2 -57(2) 9 . . 9 ?
O3 Cl1 O1 O2 -41.5(15) 17 . . 9 ?
O2 Cl1 O1 O2 17.6(17) 17 . . 9 ?
O2 Cl1 O1 O2 -162.4(17) 18 . . 9 ?
O1 Cl1 O1 O2 -123.4(14) 9 . . 16 ?
O1 Cl1 O1 O2 56.6(14) 16 . . 16 ?
O3 Cl1 O1 O2 -4(2) 8 . . 16 ?
O3 Cl1 O1 O2 -41.5(15) 18 . . 16 ?
O3 Cl1 O1 O2 -57(2) 16 . . 16 ?
O3 Cl1 O1 O2 176(2) . . . 16 ?
O3 Cl1 O1 O2 123(2) 9 . . 16 ?
O3 Cl1 O1 O2 138.5(15) 17 . . 16 ?
O2 Cl1 O1 O2 -162.4(17) 17 . . 16 ?
O2 Cl1 O1 O2 180.0 9 . . 16 ?
O2 Cl1 O1 O2 17.6(17) 18 . . 16 ?
O1 Cl1 O1 O3 98.1(13) 9 . . 17 ?
O1 Cl1 O1 O3 -81.9(13) 16 . . 17 ?
O3 Cl1 O1 O3 -142.2(19) 8 . . 17 ?
O3 Cl1 O1 O3 179.998(1) 18 . . 17 ?
O3 Cl1 O1 O3 165(2) 16 . . 17 ?
O3 Cl1 O1 O3 37.8(19) . . . 17 ?
O3 Cl1 O1 O3 -15(2) 9 . . 17 ?
O2 Cl1 O1 O3 59.1(14) 17 . . 17 ?
O2 Cl1 O1 O3 41.5(15) 9 . . 17 ?
O2 Cl1 O1 O3 -120.9(14) 18 . . 17 ?
O1 Cl1 O1 O3 -81.9(13) 9 . . 18 ?
O1 Cl1 O1 O3 98.1(13) 16 . . 18 ?
O3 Cl1 O1 O3 37.8(19) 8 . . 18 ?
O3 Cl1 O1 O3 -15(2) 16 . . 18 ?
O3 Cl1 O1 O3 -142.2(19) . . . 18 ?
O3 Cl1 O1 O3 165(2) 9 . . 18 ?
O3 Cl1 O1 O3 180.0 17 . . 18 ?
O2 Cl1 O1 O3 -120.9(14) 17 . . 18 ?
O2 Cl1 O1 O3 -138.5(15) 9 . . 18 ?
O2 Cl1 O1 O3 