####################################################################### 
# 
# This file contains crystal structure data downloaded from the 
# Cambridge Structural Database (CSD) hosted by the Cambridge 
# Crystallographic Data Centre (CCDC).
# 
# Full information about CCDC data access policies and citation 
# guidelines are available at http://www.ccdc.cam.ac.uk/access/V1 
# 
# Audit and citation data items may have been added by the CCDC. 
# Please retain this information to preserve the provenance of 
# this file and to allow appropriate attribution of the data. 
# 
#######################################################################

data_lfljcm3
_audit_block_doi                 10.5517/cc8pd5h
_database_code_depnum_ccdc_archive 'CCDC 258886'
loop_
_citation_id
_citation_doi
_citation_year
1 10.1002/ejic.200500108 2005
_audit_update_record             
;
2004-12-21 deposited with the CCDC.	2024-07-11 downloaded from the CCDC.
;

_audit_creation_method           SHELXL-97
_chemical_name_systematic        
;
?
;
_chemical_name_common            ?
_chemical_melting_point          ?
_chemical_formula_moiety         'C20 H20 Cd N6 O7, 1.4(H2 O)'
_chemical_formula_sum            'C20 H22.80 Cd N6 O8.40'
_chemical_formula_weight         594.04

loop_
_atom_type_symbol
_atom_type_description
_atom_type_scat_dispersion_real
_atom_type_scat_dispersion_imag
_atom_type_scat_source
C C 0.0033 0.0016 'International Tables Vol C Tables 4.2.6.8 and 6.1.1.4'
H H 0.0000 0.0000 'International Tables Vol C Tables 4.2.6.8 and 6.1.1.4'
N N 0.0061 0.0033 'International Tables Vol C Tables 4.2.6.8 and 6.1.1.4'
O O 0.0106 0.0060 'International Tables Vol C Tables 4.2.6.8 and 6.1.1.4'
Cd Cd -0.8075 1.2024 'International Tables Vol C Tables 4.2.6.8 and 6.1.1.4'

_symmetry_cell_setting           triclinic
_symmetry_space_group_name_H-M   P-1
_symmetry_space_group_name_Hall  '-P 1'
_symmetry_Int_Tables_number      2

loop_
_symmetry_equiv_pos_as_xyz
'x, y, z'
'-x, -y, -z'

_cell_length_a                   9.105(2)
_cell_length_b                   12.106(3)
_cell_length_c                   12.494(3)
_cell_angle_alpha                80.891(4)
_cell_angle_beta                 86.483(3)
_cell_angle_gamma                80.048(4)
_cell_volume                     1338.5(5)
_cell_formula_units_Z            2
_cell_measurement_temperature    150(2)
_cell_measurement_reflns_used    1014
_cell_measurement_theta_min      2.618
_cell_measurement_theta_max      27.814

_exptl_crystal_description       multifaced
_exptl_crystal_colour            colourless
_exptl_crystal_size_max          0.265
_exptl_crystal_size_mid          0.184
_exptl_crystal_size_min          0.162
_exptl_crystal_density_meas      ?
_exptl_crystal_density_diffrn    1.474
_exptl_crystal_density_method    'not measured'
_exptl_crystal_F_000             600
_exptl_absorpt_coefficient_mu    0.869
_exptl_absorpt_correction_type   multi-scan
_exptl_absorpt_correction_T_min  0.712
_exptl_absorpt_correction_T_max  0.869
_exptl_absorpt_process_details   'SADABS (Sheldrick, 1999)'

_exptl_special_details           
;
?
;

_diffrn_ambient_temperature      150(2)
_diffrn_radiation_wavelength     0.71073
_diffrn_radiation_type           MoK\a
_diffrn_radiation_source         'sealed tube'
_diffrn_radiation_monochromator  graphite
_diffrn_measurement_device_type  'Bruker SMART 1000 CCD'
_diffrn_measurement_method       \w
_diffrn_detector_area_resol_mean ?
_diffrn_standards_number         169
_diffrn_standards_interval_count ?
_diffrn_standards_interval_time  ?
_diffrn_standards_decay_%        0.01
_diffrn_reflns_number            13064
_diffrn_reflns_av_R_equivalents  0.0214
_diffrn_reflns_av_sigmaI/netI    0.0265
_diffrn_reflns_limit_h_min       -11
_diffrn_reflns_limit_h_max       12
_diffrn_reflns_limit_k_min       -15
_diffrn_reflns_limit_k_max       15
_diffrn_reflns_limit_l_min       -16
_diffrn_reflns_limit_l_max       16
_diffrn_reflns_theta_min         1.65
_diffrn_reflns_theta_max         28.03
_reflns_number_total             6101
_reflns_number_gt                5490
_reflns_threshold_expression     >2sigma(I)

_computing_data_collection       'SMART (Siemens, 1995)'
_computing_cell_refinement       'SAINT (Siemens, 1995)'
_computing_data_reduction        'SAINT and XPREP (Siemens, 1995)'
_computing_structure_solution    'SIR97 (Altomare, et. al. 1997)'
_computing_structure_refinement  'SHELXL-97 (Sheldrick, 1997)'
_computing_molecular_graphics    
;ORTEP-3 (Farrugia, 1997)
WINGX-32 (Farrugia, 1999)
;
_computing_publication_material  'enCIFer 1.0 (CCDC, 2003)'

_refine_special_details          
;
Refinement of F^2^ against ALL reflections. The weighted R-factor wR and
goodness of fit S are based on F^2^, conventional R-factors R are based
on F, with F set to zero for negative F^2^. The threshold expression of
F^2^ > 2sigma(F^2^) is used only for calculating R-factors(gt) etc. and is
not relevant to the choice of reflections for refinement. R-factors based
on F^2^ are statistically about twice as large as those based on F, and R-
factors based on ALL data will be even larger.
;

_refine_ls_structure_factor_coef Fsqd
_refine_ls_matrix_type           full
_refine_ls_weighting_scheme      calc
_refine_ls_weighting_details     
'calc w=1/[\s^2^(Fo^2^)+(0.0705P)^2^+0.7933P] where P=(Fo^2^+2Fc^2^)/3'
_atom_sites_solution_primary     direct
_atom_sites_solution_secondary   difmap
_atom_sites_solution_hydrogens   geom
_refine_ls_hydrogen_treatment    mixed
_refine_ls_extinction_method     none
_refine_ls_extinction_coef       ?
_refine_ls_number_reflns         6101
_refine_ls_number_parameters     341
_refine_ls_number_restraints     1
_refine_ls_R_factor_all          0.0431
_refine_ls_R_factor_gt           0.0380
_refine_ls_wR_factor_ref         0.1131
_refine_ls_wR_factor_gt          0.1081
_refine_ls_goodness_of_fit_ref   1.117
_refine_ls_restrained_S_all      1.117
_refine_ls_shift/su_max          0.002
_refine_ls_shift/su_mean         0.000

loop_
_atom_site_label
_atom_site_type_symbol
_atom_site_fract_x
_atom_site_fract_y
_atom_site_fract_z
_atom_site_U_iso_or_equiv
_atom_site_adp_type
_atom_site_occupancy
_atom_site_symmetry_multiplicity
_atom_site_calc_flag
_atom_site_refinement_flags
_atom_site_disorder_assembly
_atom_site_disorder_group
Cd1 Cd -0.03421(2) 0.259855(17) 0.552381(14) 0.02976(9) Uani 1 1 d . . .
N1 N 0.1201(3) 0.2987(2) -0.32619(18) 0.0316(5) Uani 1 1 d . . .
N2 N 0.3969(2) 0.3485(2) -0.08756(18) 0.0305(5) Uani 1 1 d . . .
N3 N 0.2315(3) 0.3568(2) 0.06287(19) 0.0357(6) Uani 1 1 d . . .
N4 N 0.0835(2) 0.2975(2) 0.38767(18) 0.0289(5) Uani 1 1 d . . .
N5 N 0.0466(3) 0.0266(2) 0.6464(2) 0.0369(6) Uani 1 1 d . . .
O1 O 0.1121(3) 0.0664(2) 0.56092(19) 0.0437(5) Uani 1 1 d . . .
O2 O 0.0826(3) -0.0739(2) 0.68773(19) 0.0471(6) Uani 1 1 d . . .
O3 O -0.0555(3) 0.0920(2) 0.6885(2) 0.0452(5) Uani 1 1 d . . .
N6 N -0.2667(3) 0.4347(2) 0.5968(2) 0.0339(5) Uani 1 1 d . . .
O4 O -0.2443(2) 0.34214(19) 0.65990(17) 0.0381(5) Uani 1 1 d . . .
O5 O -0.3705(3) 0.5107(2) 0.6123(2) 0.0482(6) Uani 1 1 d . . .
O6 O -0.1761(3) 0.4475(2) 0.51596(18) 0.0416(5) Uani 1 1 d . . .
C1 C 0.0786(3) 0.2833(3) -0.2201(2) 0.0356(6) Uani 1 1 d . . .
H1 H -0.0143 0.2587 -0.2007 0.043 Uiso 1 1 calc R . .
C2 C 0.1621(3) 0.3009(3) -0.1384(2) 0.0341(6) Uani 1 1 d . . .
H2 H 0.1262 0.2903 -0.0652 0.041 Uiso 1 1 calc R . .
C3 C 0.3011(3) 0.3349(2) -0.1648(2) 0.0281(5) Uani 1 1 d . . .
C4 C 0.3448(3) 0.3514(3) -0.2752(2) 0.0318(6) Uani 1 1 d . . .
H4 H 0.4374 0.3753 -0.2973 0.038 Uiso 1 1 calc R . .
C5 C 0.2521(3) 0.3327(3) -0.3510(2) 0.0325(6) Uani 1 1 d . . .
H5 H 0.2835 0.3446 -0.4253 0.039 Uiso 1 1 calc R . .
C6 C 0.5568(3) 0.3465(3) -0.1149(2) 0.0331(6) Uani 1 1 d . . .
H6A H 0.5739 0.4148 -0.1659 0.040 Uiso 1 1 calc R . .
H6B H 0.6006 0.2779 -0.1470 0.040 Uiso 1 1 calc R . .
C7 C 0.6197(3) 0.3447(3) -0.0068(2) 0.0318(6) Uani 1 1 d . . .
C8 C 0.7660(3) 0.3418(3) 0.0189(3) 0.0458(8) Uani 1 1 d . . .
H8 H 0.8434 0.3397 -0.0356 0.055 Uiso 1 1 calc R . .
C9 C 0.7973(4) 0.3421(4) 0.1255(3) 0.0518(9) Uani 1 1 d . . .
H9 H 0.8978 0.3375 0.1446 0.062 Uiso 1 1 calc R . .
C10 C 0.6846(4) 0.3489(3) 0.2055(3) 0.0429(7) Uani 1 1 d . . .
H10 H 0.7087 0.3513 0.2780 0.051 Uiso 1 1 calc R . .
C11 C 0.5371(3) 0.3523(3) 0.1806(2) 0.0340(6) Uani 1 1 d . . .
H11 H 0.4595 0.3569 0.2349 0.041 Uiso 1 1 calc R . .
C12 C 0.5066(3) 0.3487(2) 0.0734(2) 0.0282(5) Uani 1 1 d . . .
C13 C 0.3646(3) 0.3499(2) 0.0232(2) 0.0280(5) Uani 1 1 d . . .
C14 C 0.1952(3) 0.3388(3) 0.1732(2) 0.0308(6) Uani 1 1 d . . .
C15 C 0.2236(3) 0.2322(3) 0.2346(2) 0.0383(7) Uani 1 1 d . . .
H15 H 0.2823 0.1708 0.2048 0.046 Uiso 1 1 calc R . .
C16 C 0.1657(4) 0.2159(3) 0.3399(2) 0.0365(6) Uani 1 1 d . . .
H16 H 0.1859 0.1419 0.3804 0.044 Uiso 1 1 calc R . .
C17 C 0.0578(3) 0.4013(3) 0.3289(2) 0.0343(6) Uani 1 1 d . . .
H17 H -0.0001 0.4611 0.3614 0.041 Uiso 1 1 calc R . .
C18 C 0.1115(3) 0.4255(3) 0.2232(2) 0.0349(6) Uani 1 1 d . . .
H18 H 0.0916 0.5006 0.1851 0.042 Uiso 1 1 calc R . .
O7 O -0.2204(2) 0.1968(2) 0.47234(18) 0.0381(5) Uani 1 1 d D . .
H7OE H -0.178(4) 0.157(3) 0.411(2) 0.038 Uiso 1 1 d D . .
C19 C -0.3431(4) 0.1498(3) 0.5323(3) 0.0444(7) Uani 1 1 d . . .
H19A H -0.3686 0.1859 0.5983 0.053 Uiso 1 1 calc R . .
H19B H -0.3117 0.0674 0.5554 0.053 Uiso 1 1 calc R . .
C20 C -0.4762(4) 0.1683(4) 0.4657(3) 0.0594(10) Uani 1 1 d . . .
H20A H -0.5568 0.1357 0.5080 0.089 Uiso 1 1 calc R . .
H20B H -0.4515 0.1317 0.4008 0.089 Uiso 1 1 calc R . .
H20C H -0.5086 0.2499 0.4439 0.089 Uiso 1 1 calc R . .
O1W O -0.0180(19) 0.0554(13) -0.0015(14) 0.0449(12) Uiso 0.15 1 d P . 1
O2W O -0.1422(18) 0.0912(14) -0.0891(14) 0.0449(12) Uiso 0.15 1 d P A 2
O3W O 0.5559(16) -0.0353(11) 0.2141(11) 0.0449(12) Uiso 0.20 1 d P B 3
O4W O 0.6261(18) 0.0456(14) 0.1395(14) 0.0449(12) Uiso 0.15 1 d P C 4
O5W O 0.610(3) 0.060(2) 0.044(2) 0.0449(12) Uiso 0.10 1 d P D 5
O6W O 0.4733(14) 0.1015(10) 0.0614(10) 0.0449(12) Uiso 0.20 1 d P E 6
O7W O 0.403(3) 0.044(2) 0.089(2) 0.0449(12) Uiso 0.10 1 d P F 7
O8W O 0.482(3) -0.043(2) 0.177(2) 0.0449(12) Uiso 0.10 1 d P G 8
O9W O 0.611(2) -0.0140(15) 0.2031(15) 0.0449(12) Uiso 0.15 1 d P H 9
O10W O 0.047(3) 0.044(2) 0.045(2) 0.0449(12) Uiso 0.10 1 d P I 10

loop_
_atom_site_aniso_label
_atom_site_aniso_U_11
_atom_site_aniso_U_22
_atom_site_aniso_U_33
_atom_site_aniso_U_23
_atom_site_aniso_U_13
_atom_site_aniso_U_12
Cd1 0.03288(13) 0.04032(14) 0.01614(12) -0.00750(8) 0.00294(8) -0.00461(8)
N1 0.0353(12) 0.0426(13) 0.0163(11) -0.0068(9) 0.0005(9) -0.0030(10)
N2 0.0231(11) 0.0490(14) 0.0183(10) -0.0058(10) 0.0050(8) -0.0043(9)
N3 0.0236(11) 0.0660(17) 0.0170(11) -0.0100(11) 0.0020(8) -0.0035(11)
N4 0.0263(11) 0.0450(13) 0.0175(10) -0.0096(9) 0.0040(8) -0.0092(9)
N5 0.0447(14) 0.0406(14) 0.0259(12) -0.0050(10) -0.0049(10) -0.0071(11)
O1 0.0563(14) 0.0430(12) 0.0290(12) -0.0035(9) 0.0029(10) -0.0038(10)
O2 0.0650(16) 0.0408(13) 0.0334(12) -0.0017(10) -0.0027(11) -0.0063(11)
O3 0.0484(13) 0.0500(13) 0.0349(12) -0.0058(10) 0.0031(10) -0.0035(11)
N6 0.0323(12) 0.0446(14) 0.0262(12) -0.0117(11) 0.0070(9) -0.0078(10)
O4 0.0414(12) 0.0478(12) 0.0237(10) -0.0042(9) 0.0106(8) -0.0085(9)
O5 0.0402(12) 0.0526(14) 0.0491(14) -0.0160(11) 0.0130(11) 0.0021(10)
O6 0.0446(12) 0.0453(12) 0.0298(11) -0.0024(9) 0.0177(9) -0.0030(10)
C1 0.0338(14) 0.0563(18) 0.0194(13) -0.0100(12) 0.0039(11) -0.0126(13)
C2 0.0321(14) 0.0554(18) 0.0167(12) -0.0083(12) 0.0034(10) -0.0115(12)
C3 0.0276(13) 0.0390(14) 0.0163(12) -0.0048(10) 0.0013(9) -0.0016(10)
C4 0.0313(13) 0.0424(15) 0.0206(13) -0.0037(11) 0.0048(10) -0.0055(11)
C5 0.0378(15) 0.0414(15) 0.0163(12) -0.0040(11) 0.0047(10) -0.0031(12)
C6 0.0241(13) 0.0506(17) 0.0239(13) -0.0055(12) 0.0072(10) -0.0072(11)
C7 0.0244(13) 0.0428(16) 0.0273(14) -0.0044(11) 0.0034(10) -0.0054(11)
C8 0.0249(14) 0.070(2) 0.0422(18) -0.0081(16) 0.0050(12) -0.0094(14)
C9 0.0273(15) 0.082(3) 0.049(2) -0.0108(19) -0.0059(14) -0.0153(16)
C10 0.0351(16) 0.061(2) 0.0344(16) -0.0056(15) -0.0073(13) -0.0136(14)
C11 0.0304(14) 0.0473(17) 0.0250(14) -0.0049(12) -0.0015(11) -0.0087(12)
C12 0.0232(12) 0.0366(14) 0.0234(13) -0.0027(10) 0.0016(10) -0.0039(10)
C13 0.0243(12) 0.0414(15) 0.0169(12) -0.0040(10) 0.0013(9) -0.0027(10)
C14 0.0189(11) 0.0579(18) 0.0179(12) -0.0098(12) 0.0006(9) -0.0089(11)
C15 0.0336(15) 0.0533(18) 0.0256(14) -0.0126(13) 0.0040(11) 0.0039(13)
C16 0.0387(15) 0.0417(16) 0.0263(14) -0.0043(12) 0.0032(11) -0.0011(12)
C17 0.0365(15) 0.0436(16) 0.0263(14) -0.0134(12) 0.0084(11) -0.0121(12)
C18 0.0382(15) 0.0415(16) 0.0258(14) -0.0065(12) 0.0077(11) -0.0106(12)
O7 0.0380(11) 0.0492(13) 0.0302(11) -0.0116(9) 0.0009(9) -0.0117(9)
C19 0.0420(17) 0.055(2) 0.0384(18) -0.0081(15) 0.0028(14) -0.0137(14)
C20 0.0414(19) 0.087(3) 0.050(2) -0.010(2) -0.0022(16) -0.0126(19)

_geom_special_details            
;
All esds (except the esd in the dihedral angle between two l.s. planes)
are estimated using the full covariance matrix. The cell esds are taken
into account individually in the estimation of esds in distances, angles
and torsion angles; correlations between esds in cell parameters are only
used when they are defined by crystal symmetry. An approximate (isotropic)
treatment of cell esds is used for estimating esds involving l.s. planes.
;

loop_
_geom_bond_atom_site_label_1
_geom_bond_atom_site_label_2
_geom_bond_distance
_geom_bond_site_symmetry_2
_geom_bond_publ_flag
Cd1 N4 2.279(2) . ?
Cd1 N1 2.283(2) 1_556 ?
Cd1 O7 2.314(2) . ?
Cd1 O6 2.402(2) . ?
Cd1 O4 2.430(2) . ?
Cd1 O3 2.462(2) . ?
Cd1 O1 2.476(2) . ?
N1 C5 1.339(4) . ?
N1 C1 1.349(4) . ?
N1 Cd1 2.283(2) 1_554 ?
N2 C3 1.386(4) . ?
N2 C13 1.399(3) . ?
N2 C6 1.472(3) . ?
N3 C13 1.275(3) . ?
N3 C14 1.389(3) . ?
N4 C16 1.330(4) . ?
N4 C17 1.342(4) . ?
N5 O2 1.241(3) . ?
N5 O1 1.259(4) . ?
N5 O3 1.259(4) . ?
N6 O5 1.229(3) . ?
N6 O4 1.257(3) . ?
N6 O6 1.272(3) . ?
C1 C2 1.373(4) . ?
C1 H1 0.9500 . ?
C2 C3 1.402(4) . ?
C2 H2 0.9500 . ?
C3 C4 1.404(4) . ?
C4 C5 1.376(4) . ?
C4 H4 0.9500 . ?
C5 H5 0.9500 . ?
C6 C7 1.494(4) . ?
C6 H6A 0.9900 . ?
C6 H6B 0.9900 . ?
C7 C8 1.383(4) . ?
C7 C12 1.392(4) . ?
C8 C9 1.379(5) . ?
C8 H8 0.9500 . ?
C9 C10 1.388(5) . ?
C9 H9 0.9500 . ?
C10 C11 1.390(4) . ?
C10 H10 0.9500 . ?
C11 C12 1.393(4) . ?
C11 H11 0.9500 . ?
C12 C13 1.469(4) . ?
C14 C15 1.384(5) . ?
C14 C18 1.395(4) . ?
C15 C16 1.383(4) . ?
C15 H15 0.9500 . ?
C16 H16 0.9500 . ?
C17 C18 1.384(4) . ?
C17 H17 0.9500 . ?
C18 H18 0.9500 . ?
O7 C19 1.455(4) . ?
O7 H7OE 0.985(18) . ?
C19 C20 1.478(5) . ?
C19 H19A 0.9900 . ?
C19 H19B 0.9900 . ?
C20 H20A 0.9800 . ?
C20 H20B 0.9800 . ?
C20 H20C 0.9800 . ?
O1W O1W 1.32(3) 2 ?

loop_
_geom_angle_atom_site_label_1
_geom_angle_atom_site_label_2
_geom_angle_atom_site_label_3
_geom_angle
_geom_angle_site_symmetry_1
_geom_angle_site_symmetry_3
_geom_angle_publ_flag
N4 Cd1 N1 104.76(8) . 1_556 ?
N4 Cd1 O7 90.62(8) . . ?
N1 Cd1 O7 164.20(9) 1_556 . ?
N4 Cd1 O6 87.22(8) . . ?
N1 Cd1 O6 96.68(9) 1_556 . ?
O7 Cd1 O6 87.56(9) . . ?
N4 Cd1 O4 139.73(8) . . ?
N1 Cd1 O4 88.12(8) 1_556 . ?
O7 Cd1 O4 82.27(8) . . ?
O6 Cd1 O4 53.06(7) . . ?
N4 Cd1 O3 137.02(9) . . ?
N1 Cd1 O3 83.76(9) 1_556 . ?
O7 Cd1 O3 82.43(9) . . ?
O6 Cd1 O3 134.36(8) . . ?
O4 Cd1 O3 81.44(8) . . ?
N4 Cd1 O1 85.71(8) . . ?
N1 Cd1 O1 89.49(9) 1_556 . ?
O7 Cd1 O1 88.00(9) . . ?
O6 Cd1 O1 171.61(8) . . ?
O4 Cd1 O1 133.18(8) . . ?
O3 Cd1 O1 51.84(8) . . ?
C5 N1 C1 116.5(2) . . ?
C5 N1 Cd1 125.35(18) . 1_554 ?
C1 N1 Cd1 118.1(2) . 1_554 ?
C3 N2 C13 127.2(2) . . ?
C3 N2 C6 120.3(2) . . ?
C13 N2 C6 112.0(2) . . ?
C13 N3 C14 124.2(2) . . ?
C16 N4 C17 116.8(2) . . ?
C16 N4 Cd1 121.9(2) . . ?
C17 N4 Cd1 120.83(18) . . ?
O2 N5 O1 120.7(3) . . ?
O2 N5 O3 121.3(3) . . ?
O1 N5 O3 118.0(3) . . ?
N5 O1 Cd1 94.73(18) . . ?
N5 O3 Cd1 95.40(18) . . ?
O5 N6 O4 122.0(2) . . ?
O5 N6 O6 120.8(3) . . ?
O4 N6 O6 117.2(2) . . ?
N6 O4 Cd1 94.34(15) . . ?
N6 O6 Cd1 95.28(17) . . ?
N1 C1 C2 124.2(3) . . ?
N1 C1 H1 117.9 . . ?
C2 C1 H1 117.9 . . ?
C1 C2 C3 119.0(3) . . ?
C1 C2 H2 120.5 . . ?
C3 C2 H2 120.5 . . ?
N2 C3 C2 123.2(2) . . ?
N2 C3 C4 119.7(2) . . ?
C2 C3 C4 117.1(2) . . ?
C5 C4 C3 119.4(3) . . ?
C5 C4 H4 120.3 . . ?
C3 C4 H4 120.3 . . ?
N1 C5 C4 123.8(3) . . ?
N1 C5 H5 118.1 . . ?
C4 C5 H5 118.1 . . ?
N2 C6 C7 102.3(2) . . ?
N2 C6 H6A 111.3 . . ?
C7 C6 H6A 111.3 . . ?
N2 C6 H6B 111.3 . . ?
C7 C6 H6B 111.3 . . ?
H6A C6 H6B 109.2 . . ?
C8 C7 C12 120.4(3) . . ?
C8 C7 C6 129.1(3) . . ?
C12 C7 C6 110.5(2) . . ?
C9 C8 C7 118.6(3) . . ?
C9 C8 H8 120.7 . . ?
C7 C8 H8 120.7 . . ?
C8 C9 C10 121.3(3) . . ?
C8 C9 H9 119.4 . . ?
C10 C9 H9 119.4 . . ?
C9 C10 C11 120.6(3) . . ?
C9 C10 H10 119.7 . . ?
C11 C10 H10 119.7 . . ?
C10 C11 C12 117.9(3) . . ?
C10 C11 H11 121.1 . . ?
C12 C11 H11 121.1 . . ?
C7 C12 C11 121.2(3) . . ?
C7 C12 C13 108.4(2) . . ?
C11 C12 C13 130.4(2) . . ?
N3 C13 N2 121.9(2) . . ?
N3 C13 C12 131.3(2) . . ?
N2 C13 C12 106.7(2) . . ?
C15 C14 N3 121.9(3) . . ?
C15 C14 C18 117.1(3) . . ?
N3 C14 C18 120.5(3) . . ?
C16 C15 C14 119.4(3) . . ?
C16 C15 H15 120.3 . . ?
C14 C15 H15 120.3 . . ?
N4 C16 C15 123.9(3) . . ?
N4 C16 H16 118.0 . . ?
C15 C16 H16 118.0 . . ?
N4 C17 C18 123.3(3) . . ?
N4 C17 H17 118.4 . . ?
C18 C17 H17 118.4 . . ?
C17 C18 C14 119.4(3) . . ?
C17 C18 H18 120.3 . . ?
C14 C18 H18 120.3 . . ?
C19 O7 Cd1 124.02(19) . . ?
C19 O7 H7OE 114(2) . . ?
Cd1 O7 H7OE 110(2) . . ?
O7 C19 C20 111.3(3) . . ?
O7 C19 H19A 109.4 . . ?
C