
#######################################################################
#
#                 Cambridge Crystallographic Data Centre
#                                CCDC
#
#######################################################################
#
# If this CIF has been generated from an entry in the Cambridge
# Structural Database, then it will include bibliographic, chemical,
# crystal, experimental, refinement or atomic coordinate data resulting
# from the CCDC's data processing and validation procedures.
#
#######################################################################

data_CSD_CIF_MASBUD
_audit_creation_date 2000-09-12
_audit_creation_method CSD-ConQuest-V1
_database_code_CSD MASBUD
_database_code_depnum_ccdc_archive 'CCDC 145801'
_database_code_depnum_ccdc_journal 188/233
_chemical_formula_sum 'C7 H6 O3'
_chemical_formula_moiety
;
C7 H6 O3
;
_journal_coden_Cambridge 188
_journal_year 2000
_journal_page_first 1119
_journal_name_full 'J.Chem.Soc.,Perkin Trans.2 '
loop_
_publ_author_name
"J.A.R.P.Sarma"
"A.Nagaraju"
"K.K.Majumdar"
"P.M.Samuel"
"I.Das"
"S.Roy"
"A.J.McGhie"
_chemical_name_systematic
;
3,4-Dihydroxybenzaldehyde
;
_chemical_name_common
;
DrugBank: DB11268
;
_cell_volume    304.809
_exptl_crystal_density_diffrn 1.505
_exptl_crystal_description 'irregular'
_diffrn_ambient_temperature 273.2
#These two values have been output from a single CSD field.
_refine_ls_R_factor_gt 0.0307
_refine_ls_wR_factor_gt 0.0307
_symmetry_cell_setting monoclinic
_symmetry_space_group_name_H-M 'P 21'
_symmetry_Int_Tables_number 4
loop_
_symmetry_equiv_pos_site_id
_symmetry_equiv_pos_as_xyz
1 x,y,z
2 -x,1/2+y,-z
_cell_length_a 3.780(1)
_cell_length_b 7.621(1)
_cell_length_c 10.581(2)
_cell_angle_alpha 90
_cell_angle_beta 90.20(1)
_cell_angle_gamma 90
_cell_formula_units_Z 2
loop_
_atom_type_symbol
_atom_type_radius_bond
C 0.68
H 0.23
O 0.68
loop_
_atom_site_label
_atom_site_type_symbol
_atom_site_fract_x
_atom_site_fract_y
_atom_site_fract_z
O1 O 0.3848(3) 0.2285(2) 0.42825(9)
O2 O 0.5477(3) 0.1226(2) 0.19561(9)
O3 O -0.1716(3) 0.8576(2) 0.34433(8)
C1 C 0.1024(3) 0.6132(3) 0.2411(1)
C2 C 0.1597(3) 0.5060(3) 0.3473(1)
C3 C 0.3095(3) 0.3431(3) 0.3329(1)
C4 C 0.4023(4) 0.2824(3) 0.2109(1)
C5 C 0.3426(3) 0.3875(3) 0.1064(1)
C6 C 0.1958(3) 0.5526(3) 0.1206(1)
C7 C -0.0503(3) 0.7869(3) 0.2499(1)
H1 H 0.08480 0.56070 0.42420
H2 H 0.29570 0.26720 0.49690
H3 H 0.59660 0.08010 0.26800
H4 H 0.39800 0.34230 0.02520
H5 H 0.13270 0.62040 0.04790
H6 H -0.05060 0.83850 0.16760
#END
