
#######################################################################
#
#                 Cambridge Crystallographic Data Centre
#                                CCDC
#
#######################################################################
#
# If this CIF has been generated from an entry in the Cambridge
# Structural Database, then it will include bibliographic, chemical,
# crystal, experimental, refinement or atomic coordinate data resulting
# from the CCDC's data processing and validation procedures.
#
#######################################################################

data_CSD_CIF_MATHIY
_audit_creation_date 2000-09-12
_audit_creation_method CSD-ConQuest-V1
_database_code_CSD MATHIY
_database_code_depnum_ccdc_archive 'CCDC 147663'
_chemical_formula_sum 'C13 H11 N1'
_chemical_formula_moiety
;
C13 H11 N1
;
_journal_coeditor_code "IUCr DE1132"
_journal_coden_Cambridge 591
_journal_volume 56
_journal_year 2000
_journal_page_first 874
_journal_name_full 'Acta Crystallogr.,Sect.C:Cryst.Struct.Commun. '
loop_
_publ_author_name
"T.Steiner"
_chemical_name_systematic
;
2-Aminofluorene
;
_chemical_name_common
;
PDB Chemical Component code: AF; Teaching Subset: Fundamental Chemistry, 
Symmetry
;
_cell_volume    939.954
_exptl_crystal_colour 'yellow'
_exptl_crystal_density_diffrn 1.281
_exptl_crystal_description 'rod'
_exptl_crystal_preparation 'methanol'
_diffrn_ambient_temperature ?
_diffrn_special_details
;
The study was carried out at room temperature,in the range 283-303K

;
#These two values have been output from a single CSD field.
_refine_ls_R_factor_gt 0.043
_refine_ls_wR_factor_gt 0.043
_symmetry_cell_setting orthorhombic
_symmetry_space_group_name_H-M 'P n a 21'
_symmetry_Int_Tables_number 33
loop_
_symmetry_equiv_pos_site_id
_symmetry_equiv_pos_as_xyz
1 x,y,z
2 -x,-y,1/2+z
3 1/2+x,1/2-y,z
4 1/2-x,1/2+y,1/2+z
_cell_length_a 14.790(14)
_cell_length_b 5.681(9)
_cell_length_c 11.187(11)
_cell_angle_alpha 90
_cell_angle_beta 90
_cell_angle_gamma 90
_cell_formula_units_Z 4
loop_
_atom_type_symbol
_atom_type_radius_bond
C 0.68
H 0.23
N 0.68
loop_
_atom_site_label
_atom_site_type_symbol
_atom_site_fract_x
_atom_site_fract_y
_atom_site_fract_z
N1 N 0.3763(2) 0.4268(7) 0.0485(3)
H1 H 0.341(3) 0.529(9) 0.101(5)
H2 H 0.347(3) 0.348(8) -0.005(4)
C1 C 0.48630(18) 0.1156(6) 0.0491(3)
H3 H 0.46430 0.05890 -0.02320
C2 C 0.44602(17) 0.3086(6) 0.1026(3)
C3 C 0.4799(2) 0.3882(6) 0.2121(3)
H4 H 0.45250 0.51590 0.24940
C4 C 0.55252(19) 0.2823(6) 0.2655(3)
H5 H 0.57450 0.33910 0.33790
C5 C 0.72689(19) -0.0385(7) 0.3438(3)
H6 H 0.71990 0.08080 0.40000
C6 C 0.79407(19) -0.2008(7) 0.3569(3)
H7 H 0.83330 -0.19050 0.42160
C7 C 0.8042(2) -0.3789(7) 0.2756(3)
H8 H 0.84930 -0.49110 0.28620
C8 C 0.7471(2) -0.3920(6) 0.1770(3)
H9 H 0.75440 -0.51170 0.12100
C9 C 0.6116(2) -0.2014(6) 0.0637(2)
H10 H 0.64080 -0.17360 -0.01270
H11 H 0.57340 -0.33980 0.05740
C10 C 0.55830(16) 0.0084(6) 0.1025(3)
C11 C 0.59276(17) 0.0918(5) 0.2120(2)
C12 C 0.66916(17) -0.0516(6) 0.2468(3)
C13 C 0.68059(18) -0.2291(6) 0.1627(2)
#END
