####################################################################### 
# 
# This file contains crystal structure data downloaded from the 
# Cambridge Structural Database (CSD) hosted by the Cambridge 
# Crystallographic Data Centre (CCDC).
# 
# Full information about CCDC data access policies and citation 
# guidelines are available at http://www.ccdc.cam.ac.uk/access/V1 
# 
# Audit and citation data items may have been added by the CCDC. 
# Please retain this information to preserve the provenance of 
# this file and to allow appropriate attribution of the data. 
# 
#######################################################################

data_1
_audit_block_doi                 10.5517/ccxs8gd
_database_code_depnum_ccdc_archive 'CCDC 857474'
loop_
_citation_id
_citation_doi
_citation_year
1 10.1039/c2cc17821d 2012
_audit_update_record             
;
2011-12-08 deposited with the CCDC.	2024-07-11 downloaded from the CCDC.
;
#TrackingRef '- Crystal Data.cif'


_audit_creation_method           SHELXL-97
_chemical_name_systematic        
;
?
;
_chemical_name_common            ?
_chemical_melting_point          ?
_chemical_formula_moiety         ?
_chemical_formula_sum            'C90 H109 Co8 N6 O90'
_chemical_formula_weight         3186.27

loop_
_atom_type_symbol
_atom_type_description
_atom_type_scat_dispersion_real
_atom_type_scat_dispersion_imag
_atom_type_scat_source
C C 0.0033 0.0016 'International Tables Vol C Tables 4.2.6.8 and 6.1.1.4'
H H 0.0000 0.0000 'International Tables Vol C Tables 4.2.6.8 and 6.1.1.4'
N N 0.0061 0.0033 'International Tables Vol C Tables 4.2.6.8 and 6.1.1.4'
O O 0.0106 0.0060 'International Tables Vol C Tables 4.2.6.8 and 6.1.1.4'
Co Co 0.3494 0.9721 'International Tables Vol C Tables 4.2.6.8 and 6.1.1.4'

_symmetry_cell_setting           Orthorhombic
_symmetry_space_group_name_H-M   'Pbca '
_symmetry_space_group_name_Hall  '-P 2ac 2ab '

loop_
_symmetry_equiv_pos_as_xyz
'x, y, z'
'-x+1/2, -y, z+1/2'
'-x, y+1/2, -z+1/2'
'x+1/2, -y+1/2, -z'
'-x, -y, -z'
'x-1/2, y, -z-1/2'
'x, -y-1/2, z-1/2'
'-x-1/2, y-1/2, z'

_cell_length_a                   13.4362(14)
_cell_length_b                   29.6111(12)
_cell_length_c                   37.4139(18)
_cell_angle_alpha                90.00
_cell_angle_beta                 90.00
_cell_angle_gamma                90.00
_cell_volume                     14885.5(18)
_cell_formula_units_Z            4
_cell_measurement_temperature    100(2)
_cell_measurement_reflns_used    9844
_cell_measurement_theta_min      2.32
_cell_measurement_theta_max      28.00

_exptl_crystal_description       plate
_exptl_crystal_colour            purple
_exptl_crystal_size_max          0.32
_exptl_crystal_size_mid          0.32
_exptl_crystal_size_min          0.08
_exptl_crystal_density_meas      ?
_exptl_crystal_density_diffrn    1.422
_exptl_crystal_density_method    'not measured'
_exptl_crystal_F_000             6508
_exptl_absorpt_coefficient_mu    0.973
_exptl_absorpt_correction_type   multi-scan
_exptl_absorpt_correction_T_min  0.7458
_exptl_absorpt_correction_T_max  0.9262
_exptl_absorpt_process_details   'SADABS; Bruker, 2000'

_exptl_special_details           
;
?
;

_diffrn_ambient_temperature      100(2)
_diffrn_radiation_wavelength     0.71073
_diffrn_radiation_type           MoK\a
_diffrn_radiation_source         'sealed tube'
_diffrn_radiation_monochromator  graphite
_diffrn_measurement_device_type  'Bruker Smart Apex CCD '
_diffrn_measurement_method       'phi and omega scans'
_diffrn_detector_area_resol_mean ?
_diffrn_standards_number         ?
_diffrn_standards_interval_count ?
_diffrn_standards_interval_time  ?
_diffrn_standards_decay_%        ?
_diffrn_reflns_number            24468
_diffrn_reflns_av_R_equivalents  0.0279
_diffrn_reflns_av_sigmaI/netI    0.0921
_diffrn_reflns_limit_h_min       -16
_diffrn_reflns_limit_h_max       15
_diffrn_reflns_limit_k_min       0
_diffrn_reflns_limit_k_max       36
_diffrn_reflns_limit_l_min       -14
_diffrn_reflns_limit_l_max       46
_diffrn_reflns_theta_min         1.09
_diffrn_reflns_theta_max         26.00
_reflns_number_total             14298
_reflns_number_gt                8072
_reflns_threshold_expression     >2sigma(I)

_computing_data_collection       'SMART(Bruker, 2000)'
_computing_cell_refinement       SMART
_computing_data_reduction        'SAINT(Bruker, 2000)'
_computing_structure_solution    'SHELXTL(Bruker, 2000)'
_computing_structure_refinement  SHELXTL
_computing_molecular_graphics    SHELXTL
_computing_publication_material  SHELXTL

_refine_special_details          
;
Refinement of F^2^ against ALL reflections. The weighted R-factor wR and
goodness of fit S are based on F^2^, conventional R-factors R are based
on F, with F set to zero for negative F^2^. The threshold expression of
F^2^ > 2sigma(F^2^) is used only for calculating R-factors(gt) etc. and is
not relevant to the choice of reflections for refinement. R-factors based
on F^2^ are statistically about twice as large as those based on F, and R-
factors based on ALL data will be even larger.
;

_refine_ls_structure_factor_coef Fsqd
_refine_ls_matrix_type           fullcycle
_refine_ls_weighting_scheme      calc
_refine_ls_weighting_details     
'calc w=1/[\s^2^(Fo^2^)+(0.06P)^2^+1.99P] where P=(Fo^2^+2Fc^2^)/3'
_atom_sites_solution_primary     direct
_atom_sites_solution_secondary   difmap
_atom_sites_solution_hydrogens   geom
_refine_ls_hydrogen_treatment    constr
_refine_ls_extinction_method     none
_refine_ls_extinction_coef       ?
_refine_ls_number_reflns         14298
_refine_ls_number_parameters     928
_refine_ls_number_restraints     0
_refine_ls_R_factor_all          0.0908
_refine_ls_R_factor_gt           0.0503
_refine_ls_wR_factor_ref         0.1447
_refine_ls_wR_factor_gt          0.1145
_refine_ls_goodness_of_fit_ref   1.077
_refine_ls_restrained_S_all      1.077
_refine_ls_shift/su_max          0.000
_refine_ls_shift/su_mean         0.000

loop_
_atom_site_label
_atom_site_type_symbol
_atom_site_fract_x
_atom_site_fract_y
_atom_site_fract_z
_atom_site_U_iso_or_equiv
_atom_site_adp_type
_atom_site_occupancy
_atom_site_symmetry_multiplicity
_atom_site_calc_flag
_atom_site_refinement_flags
_atom_site_disorder_assembly
_atom_site_disorder_group
C1 C 0.9062(3) 0.37056(14) 0.28532(11) 0.0369(9) Uani 1 1 d . . .
C2 C 0.9589(3) 0.34401(13) 0.30668(10) 0.0348(8) Uani 1 1 d . . .
H2 H 1.0295 0.3459 0.3063 0.042 Uiso 1 1 calc R . .
C3 C 0.9126(3) 0.31317(13) 0.32996(11) 0.0341(8) Uani 1 1 d . . .
C4 C 0.8090(3) 0.31214(12) 0.33190(12) 0.0381(9) Uani 1 1 d . . .
H4 H 0.7768 0.2937 0.3492 0.046 Uiso 1 1 calc R . .
C5 C 0.7540(3) 0.33779(12) 0.30890(11) 0.0361(8) Uani 1 1 d . . .
C6 C 0.8026(3) 0.36926(12) 0.28623(10) 0.0314(8) Uani 1 1 d . . .
H6 H 0.7647 0.3893 0.2718 0.038 Uiso 1 1 calc R . .
C7 C 0.9550(3) 0.40246(14) 0.25948(10) 0.0353(8) Uani 1 1 d . . .
C8 C 0.9731(3) 0.28278(13) 0.35372(11) 0.0365(9) Uani 1 1 d . . .
C9 C 0.6064(3) 0.30446(14) 0.28860(11) 0.0371(8) Uani 1 1 d . . .
C10 C 0.5028(3) 0.29870(12) 0.29040(9) 0.0303(7) Uani 1 1 d . . .
C11 C 0.4561(3) 0.26410(13) 0.27262(11) 0.0338(8) Uani 1 1 d . . .
H11 H 0.3871 0.2591 0.2764 0.041 Uiso 1 1 calc R . .
C12 C 0.5077(3) 0.23645(12) 0.24929(10) 0.0298(8) Uani 1 1 d . . .
C13 C 0.6128(3) 0.24437(14) 0.24487(11) 0.0382(9) Uani 1 1 d . . .
H13 H 0.6495 0.2270 0.2281 0.046 Uiso 1 1 calc R . .
C14 C 0.6600(3) 0.27671(11) 0.26472(10) 0.0304(8) Uani 1 1 d . . .
H14 H 0.7299 0.2805 0.2624 0.036 Uiso 1 1 calc R . .
C15 C 0.4580(3) 0.19593(12) 0.23243(10) 0.0307(8) Uani 1 1 d . . .
C16 C 0.0613(3) 0.18884(14) 0.16783(11) 0.0395(9) Uani 1 1 d . . .
C17 C 0.1140(3) 0.21967(12) 0.14685(10) 0.0360(8) Uani 1 1 d . . .
H17 H 0.1845 0.2222 0.1480 0.043 Uiso 1 1 calc R . .
C18 C 0.0571(3) 0.24646(13) 0.12411(11) 0.0355(9) Uani 1 1 d . . .
C19 C -0.0428(3) 0.24326(15) 0.12211(11) 0.0387(9) Uani 1 1 d . . .
H19 H -0.0784 0.2629 0.1066 0.046 Uiso 1 1 calc R . .
C20 C -0.0947(3) 0.21169(14) 0.14239(11) 0.0383(9) Uani 1 1 d . . .
C21 C -0.0432(3) 0.18332(12) 0.16451(10) 0.0346(8) Uani 1 1 d . . .
H21 H -0.0768 0.1603 0.1774 0.042 Uiso 1 1 calc R . .
C22 C 0.1158(3) 0.15597(14) 0.19183(11) 0.0385(8) Uani 1 1 d . . .
C23 C -0.2066(3) 0.20886(13) 0.14025(10) 0.0337(8) Uani 1 1 d . . .
C24 C 0.1016(3) 0.27442(13) 0.06772(11) 0.0352(8) Uani 1 1 d . . .
C25 C 0.0956(2) 0.31192(13) 0.04632(10) 0.0323(8) Uani 1 1 d . . .
C26 C 0.0965(3) 0.30914(14) 0.00944(10) 0.0364(9) Uani 1 1 d . . .
H26 H 0.0972 0.3358 -0.0047 0.044 Uiso 1 1 calc R . .
C27 C 0.0963(3) 0.26726(16) -0.00642(12) 0.0420(10) Uani 1 1 d . . .
C28 C 0.1022(3) 0.22843(14) 0.01439(11) 0.0387(9) Uani 1 1 d . . .
H28 H 0.1046 0.1996 0.0032 0.046 Uiso 1 1 calc R . .
C29 C 0.1044(3) 0.23167(14) 0.05165(11) 0.0358(9) Uani 1 1 d . . .
H29 H 0.1077 0.2052 0.0659 0.043 Uiso 1 1 calc R . .
C30 C 0.0940(3) 0.26460(15) -0.04665(11) 0.0410(10) Uani 1 1 d . . .
C31 C 0.0085(3) 0.10589(12) 0.09669(11) 0.0340(8) Uani 1 1 d . . .
C32 C -0.0619(3) 0.08833(14) 0.12077(11) 0.0387(9) Uani 1 1 d . . .
H32 H -0.0407 0.0757 0.1428 0.046 Uiso 1 1 calc R . .
C33 C -0.1644(3) 0.08945(12) 0.11217(10) 0.0326(8) Uani 1 1 d . . .
C34 C -0.1918(3) 0.10681(14) 0.07913(11) 0.0383(9) Uani 1 1 d . . .
H34 H -0.2601 0.1079 0.0725 0.046 Uiso 1 1 calc R . .
C35 C -0.1206(3) 0.12226(14) 0.05610(11) 0.0366(8) Uani 1 1 d . . .
C36 C -0.0200(3) 0.12203(14) 0.06334(11) 0.0384(9) Uani 1 1 d . . .
H36 H 0.0275 0.1324 0.0464 0.046 Uiso 1 1 calc R . .
C37 C 0.1146(3) 0.10315(12) 0.10756(10) 0.0294(7) Uani 1 1 d . . .
C38 C -0.2370(3) 0.07157(17) 0.13797(12) 0.0466(10) Uani 1 1 d . . .
C39 C -0.1489(3) 0.17757(12) 0.01083(12) 0.0350(9) Uani 1 1 d . . .
C40 C -0.1429(3) 0.18782(13) -0.02492(12) 0.0406(9) Uani 1 1 d . . .
C41 C -0.1490(3) 0.23248(15) -0.03760(12) 0.0413(10) Uani 1 1 d . . .
H41 H -0.1489 0.2387 -0.0625 0.050 Uiso 1 1 calc R . .
C42 C -0.1550(3) 0.26701(11) -0.01295(10) 0.0288(7) Uani 1 1 d . . .
C43 C -0.1552(3) 0.25633(13) 0.02346(10) 0.0316(8) Uani 1 1 d . . .
H43 H -0.1574 0.2802 0.0404 0.038 Uiso 1 1 calc R . .
C44 C -0.1525(3) 0.21195(14) 0.03561(11) 0.0370(9) Uani 1 1 d . . .
H44 H -0.1532 0.2055 0.0605 0.044 Uiso 1 1 calc R . .
C45 C -0.1599(3) 0.31264(13) -0.02692(12) 0.0374(9) Uani 1 1 d . . .
Co1 Co 0.94247(4) 0.478676(18) 0.205358(15) 0.03655(13) Uani 1 1 d . . .
Co2 Co 0.29449(4) 0.128879(18) 0.233959(14) 0.03248(13) Uani 1 1 d . . .
Co3 Co 0.09747(4) 0.263437(17) -0.112804(15) 0.03459(13) Uani 1 1 d . . .
Co4 Co 0.33083(4) 0.128048(18) 0.092827(15) 0.03685(13) Uani 1 1 d . . .
N1 N 0.4400(3) 0.32816(12) 0.31172(9) 0.0376(7) Uani 1 1 d . . .
N2 N 0.0865(3) 0.35533(13) 0.06262(9) 0.0453(9) Uani 1 1 d . . .
N3 N -0.1400(3) 0.15175(12) -0.05190(10) 0.0387(8) Uani 1 1 d . . .
O1 O 0.9078(2) 0.43697(10) 0.24859(7) 0.0398(7) Uani 1 1 d . . .
O2 O 1.0419(2) 0.39212(9) 0.24984(7) 0.0382(6) Uani 1 1 d . . .
O3 O 1.0660(2) 0.28697(10) 0.35299(8) 0.0433(7) Uani 1 1 d . . .
O4 O 0.9333(2) 0.25496(9) 0.37391(8) 0.0372(6) Uani 1 1 d . . .
O5 O 0.65116(19) 0.33702(9) 0.30954(7) 0.0336(6) Uani 1 1 d . . .
O6 O 0.4763(2) 0.35154(10) 0.33496(7) 0.0370(6) Uani 1 1 d . . .
O7 O 0.3510(2) 0.32948(9) 0.30416(8) 0.0419(7) Uani 1 1 d . . .
O8 O 0.3723(2) 0.18857(9) 0.24127(8) 0.0383(6) Uani 1 1 d . . .
O9 O 0.5120(2) 0.17263(9) 0.21096(7) 0.0326(6) Uani 1 1 d . . .
O10 O 0.2114(2) 0.16019(9) 0.19347(8) 0.0349(6) Uani 1 1 d . . .
O11 O 0.0670(2) 0.12892(9) 0.21005(7) 0.0356(6) Uani 1 1 d . . .
O12 O -0.2421(2) 0.17851(10) 0.16038(7) 0.0408(7) Uani 1 1 d . . .
O13 O -0.2513(2) 0.23241(9) 0.11812(7) 0.0361(6) Uani 1 1 d . . .
O14 O 0.1115(2) 0.27854(9) 0.10323(7) 0.0366(6) Uani 1 1 d . . .
O15 O 0.0272(3) 0.35900(9) 0.08775(9) 0.0482(8) Uani 1 1 d . . .
O16 O 0.1302(3) 0.38708(11) 0.04959(9) 0.0542(9) Uani 1 1 d . . .
O17 O 0.09033(19) 0.30143(9) -0.06422(7) 0.0359(6) Uani 1 1 d . . .
O18 O 0.0985(2) 0.22777(10) -0.06222(8) 0.0416(7) Uani 1 1 d . . .
O19 O 0.1754(2) 0.12799(9) 0.09006(7) 0.0359(6) Uani 1 1 d . . .
O20 O 0.1407(2) 0.07775(9) 0.13254(8) 0.0381(6) Uani 1 1 d . . .
O21 O -0.2046(2) 0.05765(9) 0.16778(7) 0.0363(6) Uani 1 1 d . . .
H21C H -0.1572 0.0330 0.1638 0.054 Uiso 1 1 d R . .
O22 O -0.3257(2) 0.06737(11) 0.12803(8) 0.0479(8) Uani 1 1 d . . .
O23 O -0.1512(2) 0.13372(10) 0.02119(8) 0.0416(7) Uani 1 1 d . . .
O24 O -0.0994(2) 0.11708(11) -0.04545(8) 0.0451(7) Uani 1 1 d . . .
O25 O -0.1792(2) 0.16049(10) -0.08070(8) 0.0426(7) Uani 1 1 d . . .
O26 O -0.1598(2) 0.31751(9) -0.06011(8) 0.0406(7) Uani 1 1 d . . .
O27 O -0.1690(2) 0.34550(10) -0.00496(8) 0.0432(7) Uani 1 1 d . . .
O1W O 1.0815(2) 0.44463(10) 0.19618(7) 0.0378(6) Uani 1 1 d . . .
H1X H 1.0684 0.4138 0.1879 0.057 Uiso 1 1 d R . .
H1Y H 1.1197 0.4435 0.2185 0.057 Uiso 1 1 d R . .
O2W O 1.0143(2) 0.52324(10) 0.23885(8) 0.0459(8) Uani 1 1 d . . .
H2X H 1.0759 0.5226 0.2439 0.069 Uiso 1 1 d R . .
H2Y H 0.9662 0.5453 0.2480 0.069 Uiso 0.50 1 d PR . .
O3W O 0.8124(2) 0.51276(9) 0.21471(8) 0.0386(6) Uani 1 1 d . . .
H3X H 0.7586 0.4983 0.2012 0.058 Uiso 1 1 d R . .
H3Y H 0.8194 0.5442 0.2070 0.058 Uiso 1 1 d R . .
O4W O 0.8653(2) 0.43373(9) 0.17218(8) 0.0371(6) Uani 1 1 d . . .
H4X H 0.9113 0.4111 0.1626 0.056 Uiso 1 1 d R . .
H4Y H 0.8351 0.4505 0.1524 0.056 Uiso 1 1 d R . .
O5W O 0.9682(2) 0.52207(9) 0.16274(7) 0.0393(6) Uani 1 1 d . . .
H5X H 0.9711 0.5533 0.1713 0.059 Uiso 1 1 d R . .
H5Y H 0.9141 0.5191 0.1453 0.059 Uiso 1 1 d R . .
O6W O 0.3820(2) 0.09898(10) 0.27433(8) 0.0390(6) Uani 1 1 d . . .
H6X H 0.3443 0.0747 0.2859 0.058 Uiso 1 1 d R . .
H6Y H 0.4470 0.1140 0.2753 0.058 Uiso 1 1 d R . .
O7W O 0.2006(2) 0.14187(9) 0.27662(7) 0.0347(6) Uani 1 1 d . . .
H7X H 0.2398 0.1448 0.2986 0.052 Uiso 1 1 d R . .
H7Y H 0.1318 0.1434 0.2680 0.052 Uiso 1 1 d R . .
O8W O 0.2064(2) 0.06953(9) 0.22807(7) 0.0339(6) Uani 1 1 d . . .
H8X H 0.2489 0.0428 0.2307 0.051 Uiso 1 1 d R . .
H8Y H 0.1758 0.0695 0.2043 0.051 Uiso 1 1 d R . .
O9W O 0.40172(19) 0.10069(9) 0.19932(7) 0.0329(6) Uani 1 1 d . . .
H9X H 0.4056 0.1189 0.1775 0.049 Uiso 1 1 d R . .
H9Y H 0.4669 0.1003 0.2111 0.049 Uiso 1 1 d R . .
O10W O 0.07265(19) 0.32051(9) -0.14277(7) 0.0341(6) Uani 1 1 d . . .
H10X H 0.0515 0.3118 -0.1669 0.051 Uiso 1 1 d R . .
H10Y H 0.1341 0.3382 -0.1442 0.051 Uiso 1 1 d R . .
O11W O 0.3343(2) 0.08433(10) 0.04923(8) 0.0476(7) Uani 1 1 d . . .
H11X H 0.2732 0.0662 0.0488 0.071 Uiso 1 1 d R . .
H11Y H 0.3394 0.1018 0.0271 0.071 Uiso 1 1 d R . .
O12W O 0.4885(2) 0.12542(10) 0.09019(8) 0.0419(7) Uani 1 1 d . . .
H12X H 0.5132 0.1497 0.0748 0.063 Uiso 1 1 d R . .
H12Y H 0.5163 0.1290 0.1142 0.063 Uiso 1 1 d R . .
O13W O 0.3420(2) 0.17191(10) 0.13688(7) 0.0382(6) Uani 1 1 d . . .
H13X H 0.4052 0.1884 0.1358 0.057 Uiso 1 1 d R . .
H13Y H 0.2822 0.1690 0.1517 0.057 Uiso 1 1 d R . .
O14W O 0.3307(2) 0.07570(9) 0.13153(8) 0.0398(6) Uani 1 1 d . . .
H14X H 0.3787 0.0577 0.1355 0.060 Uiso 1 1 d R . .
H14Y H 0.2668 0.0756 0.1442 0.060 Uiso 1 1 d R . .
O15W O 0.8751(5) 0.4350(2) 0.10425(17) 0.0544(17) Uani 0.50 1 d P . .
H15X H 0.8382 0.4143 0.0957 0.082 Uiso 0.50 1 d PR . .
H15Y H 0.9350 0.4304 0.0979 0.082 Uiso 0.50 1 d PR . .
H16A H 0.7534 0.0648 1.0024 0.082 Uiso 0.40 1 d PR . .
H16B H 0.7897 0.0270 0.9849 0.082 Uiso 0.40 1 d PR . .
O16W O 0.7880(4) 0.0410(2) 1.0047(2) 0.0379(16) Uani 0.40 1 d P . .
O17W O 0.7303(5) 0.3735(3) 0.15953(18) 0.0555(18) Uani 0.50 1 d P . .
H17X H 0.7819 0.3572 0.1618 0.083 Uiso 0.50 1 d PR . .
H17Y H 0.7349 0.3964 0.1732 0.083 Uiso 0.50 1 d PR . .
O18W O 0.6752(5) 0.4196(3) 0.0799(2) 0.049(2) Uani 0.40 1 d P . .
H18A H 0.6387 0.4013 0.0683 0.073 Uiso 0.40 1 d PR . .
H18D H 0.6888 0.4077 0.1000 0.073 Uiso 0.40 1 d PR . .
O19W O 0.5670(6) 0.4745(3) 0.0575(2) 0.055(2) Uani 0.40 1 d P . .
H19D H 0.6064 0.4545 0.0657 0.082 Uiso 0.40 1 d PR . .
H19A H 0.5749 0.4769 0.0351 0.082 Uiso 0.40 1 d PR . .
O20W O 0.4017(7) 0.4917(4) 0.1497(3) 0.045(2) Uani 0.30 1 d P . .
H20A H 0.3569 0.5115 0.1461 0.067 Uiso 0.30 1 d PR . .
H20B H 0.3747 0.4668 0.1554 0.067 Uiso 0.30 1 d PR . .
O21W O 0.3125(6) 0.4435(3) 0.1005(2) 0.0473(19) Uani 0.40 1 d P . .
H21E H 0.3414 0.4591 0.1164 0.071 Uiso 0.40 1 d PR . .
H21D H 0.3472 0.4203 0.0958 0.071 Uiso 0.40 1 d PR . .
O22W O 0.6918(5) 0.4408(2) -0.00593(17) 0.0509(16) Uani 0.50 1 d P . .
H22X H 0.6296 0.4387 -0.0021 0.076 Uiso 0.50 1 d PR . .
H22Y H 0.7141 0.4592 0.0096 0.076 Uiso 0.50 1 d PR . .
O23W O 0.0240(7) 0.5229(3) 0.0401(3) 0.045(2) Uani 0.30 1 d P . .
H23D H 0.0840 0.5156 0.0360 0.067 Uiso 0.30 1 d PR . .
H23C H 0.0218 0.5402 0.0583 0.067 Uiso 0.30 1 d PR . .
O24W O 0.6107(8) 0.4315(3) 0.1630(3) 0.046(2) Uani 0.30 1 d P . .
H24C H 0.5493 0.4382 0.1618 0.069 Uiso 0.30 1 d PR . .
H24B H 0.6248 0.4099 0.1488 0.069 Uiso 0.30 1 d PR . .

loop_
_atom_site_aniso_label
_atom_site_aniso_U_11
_atom_site_aniso_U_22
_atom_site_aniso_U_33
_atom_site_aniso_U_23
_atom_site_aniso_U_13
_atom_site_aniso_U_12
C1 0.039(2) 0.037(2) 0.035(2) -0.0044(17) -0.0011(16) -0.0005(16)
C2 0.042(2) 0.0353(18) 0.0268(18) 0.0020(15) -0.0025(16) 0.0101(16)
C3 0.0271(18) 0.044(2) 0.0314(19) 0.0014(16) 0.0014(15) 0.0007(15)
C4 0.0303(18) 0.0248(16) 0.059(3) -0.0111(17) -0.0153(18) -0.0057(15)
C5 0.0313(19) 0.0298(17) 0.047(2) 0.0025(16) 0.0050(17) -0.0031(16)
C6 0.0279(18) 0.0282(16) 0.038(2) -0.0014(15) -0.0087(15) -0.0086(14)
C7 0.0319(19) 0.042(2) 0.032(2) 0.0049(16) 0.0035(17) -0.0031(16)
C8 0.039(2) 0.0378(19) 0.033(2) 0.0064(16) 0.0126(16) 0.0146(16)
C9 0.0322(19) 0.044(2) 0.035(2) 0.0040(17) 0.0065(16) -0.0022(16)
C10 0.0361(19) 0.0296(16) 0.0252(18) 0.0020(14) 0.0032(15) -0.0002(15)
C11 0.0288(19) 0.0328(17) 0.040(2) 0.0081(16) -0.0