
#######################################################################
#
#                 Cambridge Crystallographic Data Centre
#                                CCDC
#
#######################################################################
#
# If this CIF has been generated from an entry in the Cambridge
# Structural Database, then it will include bibliographic, chemical,
# crystal, experimental, refinement or atomic coordinate data resulting
# from the CCDC's data processing and validation procedures.
#
#######################################################################

data_CSD_CIF_MAYLUU
_audit_creation_date 2006-03-02
_audit_creation_method CSD-ConQuest-V1
_database_code_CSD MAYLUU
_database_code_depnum_ccdc_archive 'CCDC 291652'
_chemical_formula_sum 'C58 H85 Fe1 K1 N8 O6'
_chemical_formula_moiety
;
C18 H36 K1 N2 O6 1+,C40 H49 Fe1 N6 1-
;
_journal_coden_Cambridge 4
_journal_volume 127
_journal_year 2005
_journal_page_first 15018
_journal_name_full 'J.Am.Chem.Soc. '
loop_
_publ_author_name
"Chuanjiang Hu"
"B.C.Noll"
"C.E.Schulz"
"W.R.Scheidt"
_chemical_name_systematic
;
(4,7,13,16,21,24-Hexaoxa-1,10-diazabicyclo(8.8.8)hexacosane)-potassium 
(2,3,7,8,12,13,17,18-octaethylporphyrinato)-(2-methylimidazolato)-iron(ii)
;
_chemical_name_common
;
(2,2,2-Cryptand)-potassium 
(2,3,7,8,12,13,17,18-octaethylporphyrinato)-(2-methylimidazolato)-iron(ii); 
Teaching Subset: Fundamental Chemistry
;
_cell_volume   5715.040
_exptl_crystal_colour 'dark red'
_exptl_crystal_density_diffrn 1.261
_exptl_crystal_description 'plate'
_diffrn_ambient_temperature 100
#These two values have been output from a single CSD field.
_refine_ls_R_factor_gt 0.0605
_refine_ls_wR_factor_gt 0.0605
_symmetry_cell_setting monoclinic
_symmetry_space_group_name_H-M 'P 21/n'
_symmetry_Int_Tables_number 14
loop_
_symmetry_equiv_pos_site_id
_symmetry_equiv_pos_as_xyz
1 x,y,z
2 1/2-x,1/2+y,1/2-z
3 -x,-y,-z
4 -1/2+x,-1/2-y,-1/2+z
_cell_length_a 12.9232(1)
_cell_length_b 19.6316(2)
_cell_length_c 22.5922(3)
_cell_angle_alpha 90
_cell_angle_beta 94.371(1)
_cell_angle_gamma 90
_cell_formula_units_Z 4
loop_
_atom_type_symbol
_atom_type_radius_bond
C 0.68
H 0.23
Fe 1.34
K 1.93
N 0.68
O 0.68
loop_
_atom_site_label
_atom_site_type_symbol
_atom_site_fract_x
_atom_site_fract_y
_atom_site_fract_z
Fe1 Fe 0.37586(3) 0.258287(18) 0.278103(15)
N1 N 0.46128(16) 0.33995(11) 0.24593(9)
N2 N 0.24760(15) 0.32566(11) 0.27042(9)
N3 N 0.29918(16) 0.21052(11) 0.34625(10)
N4 N 0.51495(16) 0.22954(12) 0.32709(10)
C1 C 0.56681(19) 0.34264(14) 0.24397(12)
C2 C 0.42141(19) 0.38943(13) 0.20771(11)
C3 C 0.23647(19) 0.37913(13) 0.23155(11)
C4 C 0.15239(18) 0.31632(13) 0.29206(11)
C5 C 0.19647(19) 0.21523(13) 0.35702(11)
C6 C 0.3386(2) 0.15693(14) 0.37991(12)
C7 C 0.5257(2) 0.17542(15) 0.36536(13)
C8 C 0.6127(2) 0.25268(15) 0.31979(12)
C9 C 0.5948(2) 0.39333(15) 0.20131(12)
C10 C 0.5045(2) 0.42247(14) 0.17856(12)
C11 C 0.13024(19) 0.40436(13) 0.22789(11)
C12 C 0.07834(19) 0.36569(13) 0.26613(11)
C13 C 0.16954(19) 0.16217(14) 0.39798(11)
C14 C 0.2575(2) 0.12494(14) 0.41122(12)
C15 C 0.6348(2) 0.16349(17) 0.38278(14)
C16 C 0.6884(2) 0.21285(17) 0.35595(13)
C17 C 0.31660(19) 0.40713(13) 0.20118(11)
H1 H 0.29770 0.44190 0.17310
C18 C 0.12930(18) 0.26518(13) 0.33193(11)
H2 H 0.06010 0.26410 0.34330
C19 C 0.4437(2) 0.13967(15) 0.38725(13)
H3 H 0.46100 0.09960 0.40940
C20 C 0.6365(2) 0.30404(15) 0.28005(12)
H4 H 0.70810 0.31360 0.27740
C21 C 0.7035(2) 0.40709(19) 0.18467(15)
H5 H 0.74860 0.41750 0.22090
H6 H 0.70320 0.44730 0.15820
C22 C 0.7480(3) 0.3447(3) 0.15270(18)
H7 H 0.75870 0.30690 0.18090
H8 H 0.81450 0.35700 0.13740
H9 H 0.69900 0.33070 0.11970
C23 C 0.4889(2) 0.47458(15) 0.13024(13)
H10 H 0.55180 0.50330 0.12980
H11 H 0.42990 0.50440 0.13840
C24 C 0.4673(3) 0.44125(19) 0.06962(14)
H12 H 0.52820 0.41500 0.05980
H13 H 0.45230 0.47650 0.03950
H14 H 0.40740 0.41070 0.07060
C25 C 0.0865(2) 0.45903(14) 0.18680(13)
H15 H 0.14030 0.49410 0.18200
H16 H 0.02740 0.48120 0.20450
C26 C 0.0499(3) 0.42998(18) 0.12587(15)
H17 H 0.10850 0.40830 0.10810
H18 H 0.02240 0.46690 0.10000
H19 H -0.00470 0.39610 0.13040
C27 C -0.03308(19) 0.37315(14) 0.28007(13)
H20 H -0.05990 0.32800 0.29100
H21 H -0.07460 0.38870 0.24400
C28 C -0.0476(2) 0.42286(17) 0.33003(16)
H22 H -0.00770 0.40740 0.36610
H23 H -0.12130 0.42530 0.33730
H24 H -0.02320 0.46810 0.31900
C29 C 0.0657(2) 0.15378(14) 0.42328(12)
H25 H 0.05950 0.10640 0.43770
H26 H 0.01020 0.16120 0.39130
C30 C 0.0496(2) 0.20257(16) 0.47405(14)
H27 H 0.10200 0.19380 0.50680
H28 H -0.01980 0.19570 0.48780
H29 H 0.05620 0.24960 0.46030
C31 C 0.2727(2) 0.06503(16) 0.45217(14)
H30 H 0.32280 0.03320 0.43600
H31 H 0.20580 0.04070 0.45370
C32 C 0.3118(4) 0.0850(2) 0.51402(17)
H32 H 0.38100 0.10520 0.51330
H33 H 0.31560 0.04450 0.53950
H34 H 0.26430 0.11820 0.52970
C33 C 0.6770(2) 0.10680(19) 0.42312(16)
H35 H 0.63240 0.06610 0.41650
H36 H 0.74750 0.09470 0.41230
C34 C 0.6821(4) 0.1250(2) 0.48672(19)
H37 H 0.72660 0.16500 0.49380
H38 H 0.71080 0.08660 0.51040
H39 H 0.61210 0.13530 0.49820
C35 C 0.8010(2) 0.22872(19) 0.36436(16)
H40 H 0.82740 0.23910 0.32530
H41 H 0.83870 0.18830 0.38090
C36 C 0.8224(2) 0.2880(2) 0.40519(18)
H42 H 0.78560 0.32830 0.38880
H43 H 0.89720 0.29720 0.40920
H44 H 0.79850 0.27740 0.44430
N5 N 0.36179(17) 0.18617(13) 0.21172(11)
C37 C 0.3442(2) 0.18608(16) 0.15243(13)
N6 N 0.33514(18) 0.12486(13) 0.12715(11)
C38 C 0.3503(2) 0.08088(17) 0.17530(16)
H45 H 0.34980 0.03260 0.17260
C39 C 0.3659(2) 0.11608(17) 0.22629(15)
H46 H 0.37750 0.09730 0.26500
C40 C 0.3376(3) 0.24972(18) 0.11788(16)
H47 H 0.40590 0.27160 0.11990
H48 H 0.28740 0.28040 0.13440
H49 H 0.31520 0.23950 0.07640
K1 K 0.64350(4) 0.59507(3) 0.40075(3)
O1 O 0.47779(17) 0.49972(12) 0.38352(10)
O2 O 0.67350(17) 0.45916(12) 0.43852(10)
O3 O 0.71339(17) 0.62925(13) 0.28883(11)
O4 O 0.84829(17) 0.63373(17) 0.39341(12)
O5 O 0.5306(2) 0.71748(14) 0.39501(15)
O6 O 0.6100(2) 0.65739(13) 0.50426(12)
N7 N 0.4870(2) 0.61507(15) 0.29865(12)
N8 N 0.7923(2) 0.56574(18) 0.50205(11)
C41 C 0.4282(3) 0.5502(2) 0.28836(16)
H50 H 0.36660 0.55930 0.26070
H51 H 0.47260 0.51740 0.26870
C42 C 0.3939(3) 0.5187(2) 0.34169(17)
H52 H 0.34810 0.55090 0.36100
H53 H 0.35260 0.47770 0.33040
C43 C 0.5258(3) 0.43800(19) 0.37204(15)
H54 H 0.57140 0.44370 0.33910
H55 H 0.47260 0.40330 0.36000
C44 C 0.5881(3) 0.41517(18) 0.42657(18)
H56 H 0.54420 0.41520 0.46060
H57 H 0.61310 0.36810 0.42100
C45 C 0.7227(3) 0.4479(2) 0.49652(16)
H58 H 0.74420 0.39970 0.50080
H59 H 0.67330 0.45790 0.52680
C46 C 0.8149(3) 0.4929(2) 0.50575(16)
H60 H 0.85000 0.48310 0.54530
H61 H 0.86400 0.48150 0.47570
C47 C 0.5413(3) 0.6291(2) 0.24544(15)
H62 H 0.54950 0.67900 0.24160
H63 H 0.49750 0.61310 0.21030
C48 C 0.6467(3) 0.5965(2) 0.24460(16)
H64 H 0.64220 0.54720 0.25320
H65 H 0.67380 0.60210 0.20510
C49 C 0.8199(3) 0.6096(3) 0.2889(2)
H66 H 0.84580 0.62010 0.24980
H67 H 0.82610 0.55990 0.29560
C50 C 0.8817(3) 0.6451(3) 0.33469(18)
H68 H 0.87890 0.69450 0.32610
H69 H 0.95480 0.63030 0.33390
C51 C 0.9226(3) 0.6028(2) 0.43249(15)
H70 H 0.98960 0.62710 0.43160
H71 H 0.93310 0.55500 0.42030
C52 C 0.8873(3) 0.6045(3) 0.49383(17)
H72 H 0.94370 0.58650 0.52160
H73 H 0.87560 0.65260 0.50480
C53 C 0.4179(3) 0.6704(2) 0.31093(17)
H74 H 0.36740 0.65410 0.33860
H75 H 0.37850 0.68410 0.27350
C54 C 0.4718(3) 0.7296(2) 0.3366(2)
H76 H 0.42020 0.76610 0.34160
H77 H 0.52070 0.74640 0.30830
C55 C 0.4763(4) 0.7174(2) 0.4422(2)
H78 H 0.43360 0.67560 0.44240
H79 H 0.42900 0.75710 0.44060
C56 C 0.5467(5) 0.7205(2) 0.4978(2)
H80 H 0.59300 0.76050 0.49640
H81 H 0.50500 0.72560 0.53250
C57 C 0.6916(4) 0.6576(2) 0.54984(19)
H82 H 0.66350 0.66980 0.58800
H83 H 0.74350 0.69250 0.54090
C58 C 0.7432(3) 0.5891(3) 0.55545(15)
H84 H 0.79690 0.59070 0.58910
H85 H 0.69070 0.55500 0.56530
#END
