####################################################################### 
# 
# This file contains crystal structure data downloaded from the 
# Cambridge Structural Database (CSD) hosted by the Cambridge 
# Crystallographic Data Centre (CCDC).
# 
# Full information about CCDC data access policies and citation 
# guidelines are available at http://www.ccdc.cam.ac.uk/access/V1 
# 
# Audit and citation data items may have been added by the CCDC. 
# Please retain this information to preserve the provenance of 
# this file and to allow appropriate attribution of the data. 
# 
#######################################################################

data_2
_audit_block_doi                 10.5517/ccxyf7h
_database_code_depnum_ccdc_archive 'CCDC 862427'
loop_
_citation_id
_citation_doi
_citation_year
1 10.1002/chem.201200385 2012
_audit_update_record             
;
2012-01-12 deposited with the CCDC.	2024-07-11 downloaded from the CCDC.
;
#TrackingRef 'compounds.cif'


_audit_creation_method           SHELXL-97
_chemical_name_systematic        
;
?
;
_chemical_name_common            ?
_chemical_melting_point          ?
_chemical_formula_moiety         ?
_chemical_formula_sum            'C20 H12 N6 O11 Zn3'
_chemical_formula_weight         708.53

loop_
_atom_type_symbol
_atom_type_description
_atom_type_scat_dispersion_real
_atom_type_scat_dispersion_imag
_atom_type_scat_source
C C 0.0033 0.0016 'International Tables Vol C Tables 4.2.6.8 and 6.1.1.4'
H H 0.0000 0.0000 'International Tables Vol C Tables 4.2.6.8 and 6.1.1.4'
N N 0.0061 0.0033 'International Tables Vol C Tables 4.2.6.8 and 6.1.1.4'
O O 0.0106 0.0060 'International Tables Vol C Tables 4.2.6.8 and 6.1.1.4'
Zn Zn 0.2839 1.4301 'International Tables Vol C Tables 4.2.6.8 and 6.1.1.4'

_symmetry_cell_setting           Triclinic
_symmetry_space_group_name_H-M   P-1

loop_
_symmetry_equiv_pos_as_xyz
'x, y, z'
'-x, -y, -z'

_cell_length_a                   9.1789(9)
_cell_length_b                   10.9267(14)
_cell_length_c                   11.3710(14)
_cell_angle_alpha                117.844(13)
_cell_angle_beta                 100.861(10)
_cell_angle_gamma                99.344(10)
_cell_volume                     948.30(19)
_cell_formula_units_Z            1
_cell_measurement_temperature    293(2)
_cell_measurement_reflns_used    2462
_cell_measurement_theta_min      2.3548
_cell_measurement_theta_max      29.1485

_exptl_crystal_description       prism
_exptl_crystal_colour            colorless
_exptl_crystal_size_max          .23
_exptl_crystal_size_mid          .16
_exptl_crystal_size_min          .10
_exptl_crystal_density_meas      ?
_exptl_crystal_density_diffrn    1.241
_exptl_crystal_density_method    'not measured'
_exptl_crystal_F_000             352
_exptl_absorpt_coefficient_mu    1.929
_exptl_absorpt_correction_T_min  0.70165
_exptl_absorpt_correction_T_max  1.00000
_exptl_absorpt_correction_type   multi-scan
_exptl_absorpt_process_details   none

_exptl_special_details           
;
?
;

_diffrn_ambient_temperature      293(2)
_diffrn_radiation_wavelength     0.71073
_diffrn_radiation_type           MoK\a
_diffrn_radiation_source         'fine-focus sealed tube'
_diffrn_radiation_monochromator  graphite
_diffrn_measurement_device_type  'multiwire proportional'
_diffrn_measurement_method       'phi and omega scans'
_diffrn_detector_area_resol_mean none
_diffrn_standards_number         none
_diffrn_standards_interval_count none
_diffrn_standards_interval_time  none
_diffrn_standards_decay_%        none
_diffrn_reflns_number            6225
_diffrn_reflns_av_R_equivalents  0.0311
_diffrn_reflns_av_sigmaI/netI    0.0527
_diffrn_reflns_limit_h_min       -10
_diffrn_reflns_limit_h_max       8
_diffrn_reflns_limit_k_min       -10
_diffrn_reflns_limit_k_max       12
_diffrn_reflns_limit_l_min       -13
_diffrn_reflns_limit_l_max       12
_diffrn_reflns_theta_min         2.36
_diffrn_reflns_theta_max         25.00
_reflns_number_total             3335
_reflns_number_gt                2678
_reflns_threshold_expression     >2sigma(I)

_computing_data_collection       'Bruker FRAMBO'
_computing_cell_refinement       'Bruker FRAMBO'
_computing_data_reduction        'Bruker SHELXTL'
_computing_structure_solution    'SHELXS-97 (Sheldrick, 1990)'
_computing_structure_refinement  'SHELXL-97 (Sheldrick, 1997)'
_computing_molecular_graphics    'Bruker SHELXTL'
_computing_publication_material  'Bruker SHELXTL'

_refine_special_details          
;
Refinement of F^2^ against ALL reflections. The weighted R-factor wR and
goodness of fit S are based on F^2^, conventional R-factors R are based
on F, with F set to zero for negative F^2^. The threshold expression of
F^2^ > 2sigma(F^2^) is used only for calculating R-factors(gt) etc. and is
not relevant to the choice of reflections for refinement. R-factors based
on F^2^ are statistically about twice as large as those based on F, and R-
factors based on ALL data will be even larger.
;

_refine_ls_structure_factor_coef Fsqd
_refine_ls_matrix_type           full
_refine_ls_weighting_scheme      calc
_refine_ls_weighting_details     
'calc w=1/[\s^2^(Fo^2^)+(0.1780P)^2^+2.8080P] where P=(Fo^2^+2Fc^2^)/3'
_atom_sites_solution_primary     direct
_atom_sites_solution_secondary   difmap
_atom_sites_solution_hydrogens   geom
_refine_ls_hydrogen_treatment    none
_refine_ls_extinction_method     none
_refine_ls_extinction_coef       ?
_refine_ls_number_reflns         3335
_refine_ls_number_parameters     174
_refine_ls_number_restraints     0
_refine_ls_R_factor_all          0.0897
_refine_ls_R_factor_gt           0.0745
_refine_ls_wR_factor_ref         0.2586
_refine_ls_wR_factor_gt          0.2435
_refine_ls_goodness_of_fit_ref   1.033
_refine_ls_restrained_S_all      1.033
_refine_ls_shift/su_max          0.015
_refine_ls_shift/su_mean         0.002

loop_
_atom_site_label
_atom_site_type_symbol
_atom_site_fract_x
_atom_site_fract_y
_atom_site_fract_z
_atom_site_U_iso_or_equiv
_atom_site_adp_type
_atom_site_occupancy
_atom_site_symmetry_multiplicity
_atom_site_calc_flag
_atom_site_refinement_flags
_atom_site_disorder_assembly
_atom_site_disorder_group
Zn1 Zn 0.5000 0.5000 0.0000 0.0288(4) Uani 1 2 d S . .
Zn2 Zn 0.80905(9) 0.37645(8) -0.12211(8) 0.0310(3) Uani 1 1 d . . .
O1 O 0.7299(7) 0.2092(6) -0.1056(7) 0.0540(15) Uani 1 1 d . . .
O2 O 0.5331(7) 0.2949(6) -0.0720(7) 0.0556(15) Uani 1 1 d . . .
O3 O 0.4638(7) 0.4982(7) 0.1762(6) 0.0517(15) Uani 1 1 d . . .
O4 O 0.2975(7) 0.6090(7) 0.2751(6) 0.0519(15) Uani 1 1 d . . .
N1 N 0.7357(7) 0.6007(8) 0.1115(7) 0.0453(16) Uani 1 1 d . . .
N2 N 0.8486(6) 0.5568(5) 0.0618(5) 0.0306(13) Uani 1 1 d . . .
N3 N 0.9849(7) 0.6439(7) 0.1543(7) 0.0459(16) Uani 1 1 d . . .
C1 C 0.5516(9) 0.0995(8) -0.0374(9) 0.0424(18) Uani 1 1 d . . .
C2 C 0.4260(11) 0.1030(11) 0.0143(13) 0.064(3) Uani 1 1 d . . .
H2A H 0.3747 0.1722 0.0233 0.077 Uiso 1 1 calc R . .
C3 C 0.6228(12) -0.0050(11) -0.0521(12) 0.064(3) Uani 1 1 d . . .
H3A H 0.7058 -0.0097 -0.0885 0.077 Uiso 1 1 calc R . .
C4 C 0.6081(9) 0.2099(8) -0.0731(8) 0.0420(18) Uani 1 1 d . . .
C5 C 0.4533(9) 0.5258(10) 0.3928(8) 0.0451(19) Uani 1 1 d . . .
C6 C 0.3847(12) 0.5660(12) 0.4958(9) 0.058(3) Uani 1 1 d . . .
H6A H 0.3058 0.6092 0.4929 0.070 Uiso 1 1 calc R . .
C7 C 0.5685(12) 0.4570(14) 0.3952(10) 0.068(3) Uani 1 1 d . . .
H7A H 0.6136 0.4267 0.3235 0.081 Uiso 1 1 calc R . .
C8 C 0.4019(9) 0.5449(9) 0.2699(8) 0.0427(18) Uani 1 1 d . . .
C9 C 0.8024(12) 0.7162(14) 0.2367(13) 0.108(6) Uani 1 1 d . . .
H9A H 0.7504 0.7690 0.2962 0.130 Uiso 1 1 calc R . .
C10 C 0.9584(13) 0.7461(15) 0.2653(12) 0.106(6) Uani 1 1 d . . .
H10A H 1.0323 0.8224 0.3460 0.127 Uiso 1 1 calc R . .
O6 O 0.992(3) 0.228(3) 0.270(3) 0.268(11) Uiso 1 1 d . . .
O5 O 0.5000 1.0000 0.5000 0.269(15) Uiso 1 2 d S . .

loop_
_atom_site_aniso_label
_atom_site_aniso_U_11
_atom_site_aniso_U_22
_atom_site_aniso_U_33
_atom_site_aniso_U_23
_atom_site_aniso_U_13
_atom_site_aniso_U_12
Zn1 0.0188(6) 0.0437(7) 0.0352(7) 0.0266(5) 0.0115(5) 0.0120(5)
Zn2 0.0205(5) 0.0440(5) 0.0365(5) 0.0258(4) 0.0106(3) 0.0096(3)
O1 0.052(4) 0.060(3) 0.080(4) 0.051(3) 0.035(3) 0.021(3)
O2 0.056(4) 0.051(3) 0.076(4) 0.044(3) 0.023(3) 0.016(3)
O3 0.051(4) 0.089(4) 0.046(3) 0.052(3) 0.025(3) 0.029(3)
O4 0.053(4) 0.078(4) 0.049(3) 0.045(3) 0.019(3) 0.035(3)
N1 0.022(3) 0.065(4) 0.045(4) 0.021(3) 0.019(3) 0.015(3)
N2 0.020(3) 0.041(3) 0.031(3) 0.017(3) 0.011(3) 0.009(3)
N3 0.019(3) 0.054(4) 0.043(4) 0.010(3) 0.007(3) 0.007(3)
C1 0.037(4) 0.046(4) 0.055(5) 0.033(4) 0.017(4) 0.013(3)
C2 0.055(6) 0.066(6) 0.121(9) 0.067(6) 0.059(6) 0.039(5)
C3 0.058(6) 0.069(6) 0.112(8) 0.064(6) 0.061(6) 0.037(5)
C4 0.040(4) 0.044(4) 0.053(5) 0.033(4) 0.017(4) 0.010(3)
C5 0.034(4) 0.077(6) 0.048(5) 0.045(4) 0.020(3) 0.023(4)
C6 0.066(6) 0.099(7) 0.053(5) 0.056(5) 0.031(4) 0.056(6)
C7 0.061(6) 0.137(10) 0.058(6) 0.072(7) 0.040(5) 0.065(7)
C8 0.034(4) 0.063(5) 0.040(4) 0.034(4) 0.011(3) 0.011(4)
C9 0.038(6) 0.106(9) 0.081(8) -0.028(7) 0.018(5) 0.016(6)
C10 0.042(6) 0.122(10) 0.056(7) -0.023(7) 0.015(5) 0.007(6)

_geom_special_details            
;
All esds (except the esd in the dihedral angle between two l.s. planes)
are estimated using the full covariance matrix. The cell esds are taken
into account individually in the estimation of esds in distances, angles
and torsion angles; correlations between esds in cell parameters are only
used when they are defined by crystal symmetry. An approximate (isotropic)
treatment of cell esds is used for estimating esds involving l.s. planes.
;

loop_
_geom_bond_atom_site_label_1
_geom_bond_atom_site_label_2
_geom_bond_distance
_geom_bond_site_symmetry_2
_geom_bond_publ_flag
Zn1 O2 2.095(6) . ?
Zn1 O2 2.095(6) 2_665 ?
Zn1 N1 2.095(6) 2_665 ?
Zn1 N1 2.095(6) . ?
Zn1 O3 2.100(5) 2_665 ?
Zn1 O3 2.100(5) . ?
Zn2 O4 1.917(5) 2_665 ?
Zn2 O1 1.960(5) . ?
Zn2 N2 2.005(5) . ?
Zn2 N3 2.021(6) 2_765 ?
O1 C4 1.242(10) . ?
O2 C4 1.240(9) . ?
O3 C8 1.238(9) . ?
O4 C8 1.270(10) . ?
O4 Zn2 1.917(5) 2_665 ?
N1 C9 1.318(12) . ?
N1 N2 1.324(8) . ?
N2 N3 1.326(8) . ?
N3 C10 1.336(12) . ?
N3 Zn2 2.021(6) 2_765 ?
C1 C3 1.365(12) . ?
C1 C2 1.386(12) . ?
C1 C4 1.491(10) . ?
C2 C3 1.372(13) 2_655 ?
C2 H2A 0.9300 . ?
C3 C2 1.372(13) 2_655 ?
C3 H3A 0.9300 . ?
C5 C6 1.359(11) . ?
C5 C7 1.397(12) . ?
C5 C8 1.508(10) . ?
C6 C7 1.382(12) 2_666 ?
C6 H6A 0.9300 . ?
C7 C6 1.382(12) 2_666 ?
C7 H7A 0.9300 . ?
C9 C10 1.356(15) . ?
C9 H9A 0.9300 . ?
C10 H10A 0.9300 . ?

loop_
_geom_angle_atom_site_label_1
_geom_angle_atom_site_label_2
_geom_angle_atom_site_label_3
_geom_angle
_geom_angle_site_symmetry_1
_geom_angle_site_symmetry_3
_geom_angle_publ_flag
O2 Zn1 O2 180.000(1) . 2_665 ?
O2 Zn1 N1 88.6(3) . 2_665 ?
O2 Zn1 N1 91.4(3) 2_665 2_665 ?
O2 Zn1 N1 91.4(3) . . ?
O2 Zn1 N1 88.6(3) 2_665 . ?
N1 Zn1 N1 180.0(5) 2_665 . ?
O2 Zn1 O3 91.4(2) . 2_665 ?
O2 Zn1 O3 88.6(2) 2_665 2_665 ?
N1 Zn1 O3 88.6(3) 2_665 2_665 ?
N1 Zn1 O3 91.4(3) . 2_665 ?
O2 Zn1 O3 88.6(2) . . ?
O2 Zn1 O3 91.4(2) 2_665 . ?
N1 Zn1 O3 91.4(3) 2_665 . ?
N1 Zn1 O3 88.6(3) . . ?
O3 Zn1 O3 180.0(4) 2_665 . ?
O4 Zn2 O1 120.0(3) 2_665 . ?
O4 Zn2 N2 111.8(2) 2_665 . ?
O1 Zn2 N2 108.5(2) . . ?
O4 Zn2 N3 104.0(3) 2_665 2_765 ?
O1 Zn2 N3 103.3(3) . 2_765 ?
N2 Zn2 N3 108.3(2) . 2_765 ?
C4 O1 Zn2 112.8(5) . . ?
C4 O2 Zn1 154.1(6) . . ?
C8 O3 Zn1 145.9(5) . . ?
C8 O4 Zn2 123.5(5) . 2_665 ?
C9 N1 N2 106.7(7) . . ?
C9 N1 Zn1 129.6(6) . . ?
N2 N1 Zn1 123.7(5) . . ?
N1 N2 N3 109.9(5) . . ?
N1 N2 Zn2 122.7(4) . . ?
N3 N2 Zn2 127.3(4) . . ?
N2 N3 C10 107.7(7) . . ?
N2 N3 Zn2 124.2(5) . 2_765 ?
C10 N3 Zn2 128.1(6) . 2_765 ?
C3 C1 C2 118.6(8) . . ?
C3 C1 C4 121.3(7) . . ?
C2 C1 C4 120.1(7) . . ?
C3 C2 C1 120.3(8) 2_655 . ?
C3 C2 H2A 119.9 2_655 . ?
C1 C2 H2A 119.9 . . ?
C1 C3 C2 121.1(8) . 2_655 ?
C1 C3 H3A 119.5 . . ?
C2 C3 H3A 119.5 2_655 . ?
O2 C4 O1 123.1(7) . . ?
O2 C4 C1 120.2(7) . . ?
O1 C4 C1 116.7(7) . . ?
C6 C5 C7 119.7(7) . . ?
C6 C5 C8 121.9(7) . . ?
C7 C5 C8 118.3(7) . . ?
C5 C6 C7 120.4(8) . 2_666 ?
C5 C6 H6A 119.8 . . ?
C7 C6 H6A 119.8 2_666 . ?
C6 C7 C5 119.9(8) 2_666 . ?
C6 C7 H7A 120.0 2_666 . ?
C5 C7 H7A 120.0 . . ?
O3 C8 O4 126.9(7) . . ?
O3 C8 C5 118.2(7) . . ?
O4 C8 C5 114.9(7) . . ?
N1 C9 C10 109.5(9) . . ?
N1 C9 H9A 125.3 . . ?
C10 C9 H9A 125.3 . . ?
N3 C10 C9 106.3(9) . . ?
N3 C10 H10A 126.9 . . ?
C9 C10 H10A 126.9 . . ?

_diffrn_measured_fraction_theta_max 0.999
_diffrn_reflns_theta_full        25.00
_diffrn_measured_fraction_theta_full 0.999
_refine_diff_density_max         1.602
_refine_diff_density_min         -0.682
_refine_diff_density_rms         0.245

#end

