
#######################################################################
#
#                 Cambridge Crystallographic Data Centre
#                                CCDC
#
#######################################################################
#
# If this CIF has been generated from an entry in the Cambridge
# Structural Database, then it will include bibliographic, chemical,
# crystal, experimental, refinement or atomic coordinate data resulting
# from the CCDC's data processing and validation procedures.
#
#######################################################################

data_CSD_CIF_MBNZAM10
_audit_creation_date 1978-09-01
_audit_creation_method CSD-ConQuest-V1
_database_code_CSD MBNZAM10
_database_code_depnum_ccdc_archive 'CCDC 1209900'
_chemical_formula_sum 'C8 H9 N1 O1'
_chemical_formula_moiety
;
C8 H9 N1 O1
;
_journal_coeditor_code "IUCr A15988"
_journal_coden_Cambridge 107
_journal_volume 34
_journal_year 1978
_journal_page_first 1230
_journal_name_full 'Acta Crystallogr.,Sect.B:Struct.Crystallogr.Cryst.Chem. '
loop_
_publ_author_name
"L.Leiserowitz"
"M.Tuval"
_chemical_name_systematic
;
N-Methylbenzamide
;
_chemical_name_common
;
Teaching Subset: Fundamental Chemistry
;
_chemical_melting_point 355.15
_cell_volume   1487.657
_exptl_crystal_density_diffrn 1.2
_diffrn_ambient_temperature ?
_diffrn_special_details
;
The study was carried out at room temperature,in the range 283-303K

;
#These two values have been output from a single CSD field.
_refine_ls_R_factor_gt 0.02
_refine_ls_wR_factor_gt 0.02
_symmetry_cell_setting orthorhombic
_symmetry_space_group_name_H-M 'P b c a'
_symmetry_Int_Tables_number 61
loop_
_symmetry_equiv_pos_site_id
_symmetry_equiv_pos_as_xyz
1 x,y,z
2 1/2-x,-y,1/2+z
3 1/2+x,1/2-y,-z
4 -x,1/2+y,1/2-z
5 -x,-y,-z
6 -1/2+x,y,-1/2-z
7 -1/2-x,-1/2+y,z
8 x,-1/2-y,-1/2+z
_cell_length_a 16.734(2)
_cell_length_b 9.615(1)
_cell_length_c 9.246(1)
_cell_angle_alpha 90
_cell_angle_beta 90
_cell_angle_gamma 90
_cell_formula_units_Z 8
loop_
_atom_type_symbol
_atom_type_radius_bond
C 0.68
H 0.23
N 0.68
O 0.68
loop_
_atom_site_label
_atom_site_type_symbol
_atom_site_fract_x
_atom_site_fract_y
_atom_site_fract_z
C1 C 0.40100 -0.09950 0.15660
C2 C 0.50710 -0.16470 0.32350
C3 C 0.58030 -0.12360 0.40520
C4 C 0.62270 -0.00340 0.37760
C5 C 0.69160 0.02600 0.45440
C6 C 0.71800 -0.06360 0.55990
C7 C 0.67560 -0.18300 0.58940
C8 C 0.60750 -0.21320 0.51250
N1 N 0.47200 -0.06880 0.24190
O1 O 0.48080 -0.28460 0.33140
H1 H 0.37600 -0.01100 0.12500
H2 H 0.41300 -0.16300 0.07800
H3 H 0.36100 -0.15600 0.21900
H4 H 0.49100 0.01700 0.23800
H5 H 0.60300 0.05900 0.30300
H6 H 0.72100 0.11500 0.43100
H7 H 0.76500 -0.04400 0.61200
H8 H 0.69800 -0.24700 0.66500
H9 H 0.57700 -0.30200 0.53000
#END
