
#######################################################################
#
#                 Cambridge Crystallographic Data Centre
#                                CCDC
#
#######################################################################
#
# If this CIF has been generated from an entry in the Cambridge
# Structural Database, then it will include bibliographic, chemical,
# crystal, experimental, refinement or atomic coordinate data resulting
# from the CCDC's data processing and validation procedures.
#
#######################################################################

data_CSD_CIF_MECJOT
_audit_creation_date 2000-10-09
_audit_creation_method CSD-ConQuest-V1
_database_code_CSD MECJOT
_database_code_depnum_ccdc_archive 'CCDC 141727'
_database_code_depnum_ccdc_journal 1350/12
_chemical_formula_sum 'C4 H8 Ag1 B1 F4 S2'
_chemical_formula_moiety
;
(C4 H8 Ag1 B1 F4 S2)n
;
_journal_coden_Cambridge 1350
_journal_volume 2
_journal_year 2000
_journal_page_first 41
_journal_name_full 'CrystEngComm '
loop_
_publ_author_name
"A.J.Blake"
"N.R.Brooks"
"N.R.Champness"
"J.W.Cunningham"
"P.Hubberstey"
"M.Schroder"
_chemical_name_systematic
;
catena-[(\m~2~-1,4-Dithiacyclohexane-S,S')-(\m~2~-tetrafluoroborato-F,F',F'',F
''')-silver(i)]
;
_chemical_name_common
;
catena-[(mu!2$-1,4-Dithiane-S,S')-(mu!2$-tetrafluoroborato-F,F',F'',F''')-silv
er(i)]; Teaching Subset: MOFs
;
_cell_volume    838.537
_exptl_crystal_colour 'colorless'
_exptl_crystal_density_diffrn 2.494
_exptl_crystal_description 'plate'
_exptl_crystal_preparation 'methanol/dichloromethane'
_diffrn_ambient_temperature 150
#These two values have been output from a single CSD field.
_refine_ls_R_factor_gt 0.0299
_refine_ls_wR_factor_gt 0.0299
_symmetry_cell_setting tetragonal
_symmetry_space_group_name_H-M 'P 42/m b c'
_symmetry_Int_Tables_number 135
loop_
_symmetry_equiv_pos_site_id
_symmetry_equiv_pos_as_xyz
1 x,y,z
2 -y,x,1/2+z
3 y,-x,1/2+z
4 1/2+y,1/2+x,1/2-z
5 -x,-y,z
6 1/2-x,1/2+y,-z
7 1/2+x,1/2-y,-z
8 1/2-y,1/2-x,1/2-z
9 -x,-y,-z
10 y,-x,-1/2-z
11 -y,x,-1/2-z
12 -1/2-y,-1/2-x,-1/2+z
13 x,y,-z
14 -1/2+x,-1/2-y,z
15 -1/2-x,-1/2+y,z
16 -1/2+y,-1/2+x,-1/2+z
_cell_length_a 7.774(3)
_cell_length_b 7.774(3)
_cell_length_c 13.875(5)
_cell_angle_alpha 90
_cell_angle_beta 90
_cell_angle_gamma 90
_cell_formula_units_Z 4
loop_
_atom_type_symbol
_atom_type_radius_bond
C 0.68
H 0.23
Ag 1.86
B 0.83
F 0.64
S 1.02
loop_
_atom_site_label
_atom_site_type_symbol
_atom_site_fract_x
_atom_site_fract_y
_atom_site_fract_z
Ag1 Ag 0.50000 1.00000 0.00000
S1 S 0.19580(7) 0.89574(8) 0.00000
C1 C 0.0977(2) 1.0064(2) 0.10182(13)
H1 H 0.14270 0.95660 0.16240
H2 H 0.13130 1.12930 0.10010
B1 B 0.50000 1.00000 0.25000
F1 F 0.50082(17) 0.8557(2) 0.19161(12)
S1H S 0.80420(7) 1.10426(8) 0.00000
F1L F 0.50082(17) 0.8557(2) -0.19161(12)
F1H F 0.49918(17) 1.1443(2) -0.19161(12)
F1D F 0.49918(17) 1.1443(2) 0.19161(12)
C1L C 0.0977(2) 1.0064(2) -0.10182(13)
C1D C -0.0977(2) 0.9936(2) 0.10182(13)
F1C F 0.35570(17) 1.00082(20) 0.30839(12)
F1G F 0.64430(17) 0.99918(20) 0.30839(12)
C1H C -0.0977(2) 0.9936(2) -0.10182(13)
H1L H 0.14270 0.95660 -0.16240
H2L H 0.13130 1.12930 -0.10010
S1H* S -0.19580(7) 1.10426(8) 0.00000
H1D H -0.14270 1.04340 0.16240
H2D H -0.13130 0.87070 0.10010
Ag1C Ag 0.50000 1.00000 0.50000
Ag1* Ag -0.50000 1.00000 0.00000
H1H H -0.14270 1.04340 -0.16240
H2H H -0.13130 0.87070 -0.10010
#END
