####################################################################### 
# 
# This file contains crystal structure data downloaded from the 
# Cambridge Structural Database (CSD) hosted by the Cambridge 
# Crystallographic Data Centre (CCDC).
# 
# Full information about CCDC data access policies and citation 
# guidelines are available at http://www.ccdc.cam.ac.uk/access/V1 
# 
# Audit and citation data items may have been added by the CCDC. 
# Please retain this information to preserve the provenance of 
# this file and to allow appropriate attribution of the data. 
# 
#######################################################################

data_compoud_2
_audit_block_doi                 10.5517/cc9mtxm
_database_code_depnum_ccdc_archive 'CCDC 287181'
loop_
_citation_id
_citation_doi
_citation_year
1 10.1002/anie.200503778 2006
_audit_update_record             
;
2005-10-21 deposited with the CCDC.	2024-07-11 downloaded from the CCDC.
;

_audit_creation_method           SHELXL-97
_chemical_name_systematic        
;
?
;
_chemical_name_common            ?
_chemical_melting_point          ?
_chemical_formula_moiety         ?
_chemical_formula_sum            'C10 H16 N4 O Zn'
_chemical_formula_weight         273.64

loop_
_atom_type_symbol
_atom_type_description
_atom_type_scat_dispersion_real
_atom_type_scat_dispersion_imag
_atom_type_scat_source
C C 0.0033 0.0016 'International Tables Vol C Tables 4.2.6.8 and 6.1.1.4'
H H 0.0000 0.0000 'International Tables Vol C Tables 4.2.6.8 and 6.1.1.4'
N N 0.0061 0.0033 'International Tables Vol C Tables 4.2.6.8 and 6.1.1.4'
O O 0.0106 0.0060 'International Tables Vol C Tables 4.2.6.8 and 6.1.1.4'
Zn Zn 0.2839 1.4301 'International Tables Vol C Tables 4.2.6.8 and 6.1.1.4'

_symmetry_cell_setting           Cubic
_symmetry_space_group_name_H-M   Ia-3d

loop_
_symmetry_equiv_pos_as_xyz
'x, y, z'
'-x+1/2, -y, z+1/2'
'-x, y+1/2, -z+1/2'
'x+1/2, -y+1/2, -z'
'z, x, y'
'z+1/2, -x+1/2, -y'
'-z+1/2, -x, y+1/2'
'-z, x+1/2, -y+1/2'
'y, z, x'
'-y, z+1/2, -x+1/2'
'y+1/2, -z+1/2, -x'
'-y+1/2, -z, x+1/2'
'y+3/4, x+1/4, -z+1/4'
'-y+3/4, -x+3/4, -z+3/4'
'y+1/4, -x+1/4, z+3/4'
'-y+1/4, x+3/4, z+1/4'
'x+3/4, z+1/4, -y+1/4'
'-x+1/4, z+3/4, y+1/4'
'-x+3/4, -z+3/4, -y+3/4'
'x+1/4, -z+1/4, y+3/4'
'z+3/4, y+1/4, -x+1/4'
'z+1/4, -y+1/4, x+3/4'
'-z+1/4, y+3/4, x+1/4'
'-z+3/4, -y+3/4, -x+3/4'
'x+1/2, y+1/2, z+1/2'
'-x+1, -y+1/2, z+1'
'-x+1/2, y+1, -z+1'
'x+1, -y+1, -z+1/2'
'z+1/2, x+1/2, y+1/2'
'z+1, -x+1, -y+1/2'
'-z+1, -x+1/2, y+1'
'-z+1/2, x+1, -y+1'
'y+1/2, z+1/2, x+1/2'
'-y+1/2, z+1, -x+1'
'y+1, -z+1, -x+1/2'
'-y+1, -z+1/2, x+1'
'y+5/4, x+3/4, -z+3/4'
'-y+5/4, -x+5/4, -z+5/4'
'y+3/4, -x+3/4, z+5/4'
'-y+3/4, x+5/4, z+3/4'
'x+5/4, z+3/4, -y+3/4'
'-x+3/4, z+5/4, y+3/4'
'-x+5/4, -z+5/4, -y+5/4'
'x+3/4, -z+3/4, y+5/4'
'z+5/4, y+3/4, -x+3/4'
'z+3/4, -y+3/4, x+5/4'
'-z+3/4, y+5/4, x+3/4'
'-z+5/4, -y+5/4, -x+5/4'
'-x, -y, -z'
'x-1/2, y, -z-1/2'
'x, -y-1/2, z-1/2'
'-x-1/2, y-1/2, z'
'-z, -x, -y'
'-z-1/2, x-1/2, y'
'z-1/2, x, -y-1/2'
'z, -x-1/2, y-1/2'
'-y, -z, -x'
'y, -z-1/2, x-1/2'
'-y-1/2, z-1/2, x'
'y-1/2, z, -x-1/2'
'-y-3/4, -x-1/4, z-1/4'
'y-3/4, x-3/4, z-3/4'
'-y-1/4, x-1/4, -z-3/4'
'y-1/4, -x-3/4, -z-1/4'
'-x-3/4, -z-1/4, y-1/4'
'x-1/4, -z-3/4, -y-1/4'
'x-3/4, z-3/4, y-3/4'
'-x-1/4, z-1/4, -y-3/4'
'-z-3/4, -y-1/4, x-1/4'
'-z-1/4, y-1/4, -x-3/4'
'z-1/4, -y-3/4, -x-1/4'
'z-3/4, y-3/4, x-3/4'
'-x+1/2, -y+1/2, -z+1/2'
'x, y+1/2, -z'
'x+1/2, -y, z'
'-x, y, z+1/2'
'-z+1/2, -x+1/2, -y+1/2'
'-z, x, y+1/2'
'z, x+1/2, -y'
'z+1/2, -x, y'
'-y+1/2, -z+1/2, -x+1/2'
'y+1/2, -z, x'
'-y, z, x+1/2'
'y, z+1/2, -x'
'-y-1/4, -x+1/4, z+1/4'
'y-1/4, x-1/4, z-1/4'
'-y+1/4, x+1/4, -z-1/4'
'y+1/4, -x-1/4, -z+1/4'
'-x-1/4, -z+1/4, y+1/4'
'x+1/4, -z-1/4, -y+1/4'
'x-1/4, z-1/4, y-1/4'
'-x+1/4, z+1/4, -y-1/4'
'-z-1/4, -y+1/4, x+1/4'
'-z+1/4, y+1/4, -x-1/4'
'z+1/4, -y-1/4, -x+1/4'
'z-1/4, y-1/4, x-1/4'

_cell_length_a                   26.531(1)
_cell_length_b                   26.531
_cell_length_c                   26.531
_cell_angle_alpha                90.00
_cell_angle_beta                 90.00
_cell_angle_gamma                90.00
_cell_volume                     18674.8(8)
_cell_formula_units_Z            48
_cell_measurement_temperature    123(2)
_cell_measurement_reflns_used    ?
_cell_measurement_theta_min      ?
_cell_measurement_theta_max      ?

_exptl_crystal_description       Prism
_exptl_crystal_colour            colorless
_exptl_crystal_size_max          0.24
_exptl_crystal_size_mid          0.23
_exptl_crystal_size_min          0.22
_exptl_crystal_density_meas      ?
_exptl_crystal_density_diffrn    1.168
_exptl_crystal_density_method    'not measured'
_exptl_crystal_F_000             6816
_exptl_absorpt_coefficient_mu    1.567
_exptl_absorpt_correction_type   Multi-scan
_exptl_absorpt_correction_T_min  0.7049
_exptl_absorpt_correction_T_max  0.7244
_exptl_absorpt_process_details   'SADABS (Bruker, 2002)'

_exptl_special_details           
;
?
;

_diffrn_ambient_temperature      123(2)
_diffrn_radiation_wavelength     0.71073
_diffrn_radiation_type           MoK\a
_diffrn_radiation_source         'fine-focus sealed tube'
_diffrn_radiation_monochromator  graphite
_diffrn_measurement_device_type  'Bruker Apex CCD'
_diffrn_measurement_method       '\w scan'
_diffrn_detector_area_resol_mean ?
_diffrn_standards_decay_%        ?
_diffrn_reflns_number            42559
_diffrn_reflns_av_R_equivalents  0.0557
_diffrn_reflns_av_sigmaI/netI    0.0199
_diffrn_reflns_limit_h_min       -33
_diffrn_reflns_limit_h_max       35
_diffrn_reflns_limit_k_min       -25
_diffrn_reflns_limit_k_max       34
_diffrn_reflns_limit_l_min       -12
_diffrn_reflns_limit_l_max       35
_diffrn_reflns_theta_min         2.17
_diffrn_reflns_theta_max         28.29
_reflns_number_total             1943
_reflns_number_gt                1659
_reflns_threshold_expression     >2sigma(I)

_computing_data_collection       'SMART, 1998.'
_computing_cell_refinement       'SAINT-PLUS, Ver. 6.0, 1997'
_computing_data_reduction        'SAINT-PLUS, Ver. 6.0, 1997'
_computing_structure_solution    'SHELXS-97 (Sheldrick, 1990)'
_computing_structure_refinement  'SHELXL-97 (Sheldrick, 1997)'
_computing_molecular_graphics    'XP, Ver. 6.10, Bruker AXS Inc., 2000.'
_computing_publication_material  'SHELXTL-Bruker AXS Inc., 1998.'

_refine_special_details          
;
Refinement of F^2^ against ALL reflections. The weighted R-factor wR and
goodness of fit S are based on F^2^, conventional R-factors R are based
on F, with F set to zero for negative F^2^. The threshold expression of
F^2^ > 2sigma(F^2^) is used only for calculating R-factors(gt) etc. and is
not relevant to the choice of reflections for refinement. R-factors based
on F^2^ are statistically about twice as large as those based on F, and R-
factors based on ALL data will be even larger.
;

_refine_ls_structure_factor_coef Fsqd
_refine_ls_matrix_type           full
_refine_ls_weighting_scheme      calc
_refine_ls_weighting_details     
'calc w=1/[\s^2^(Fo^2^)+(0.0798P)^2^+24.1677P] where P=(Fo^2^+2Fc^2^)/3'
_atom_sites_solution_primary     direct
_atom_sites_solution_secondary   difmap
_atom_sites_solution_hydrogens   geom
_refine_ls_hydrogen_treatment    mixed
_refine_ls_extinction_method     none
_refine_ls_extinction_coef       ?
_refine_ls_number_reflns         1943
_refine_ls_number_parameters     90
_refine_ls_number_restraints     0
_refine_ls_R_factor_all          0.0450
_refine_ls_R_factor_gt           0.0365
_refine_ls_wR_factor_ref         0.1177
_refine_ls_wR_factor_gt          0.1106
_refine_ls_goodness_of_fit_ref   1.042
_refine_ls_restrained_S_all      1.042
_refine_ls_shift/su_max          0.000
_refine_ls_shift/su_mean         0.000

loop_
_atom_site_label
_atom_site_type_symbol
_atom_site_fract_x
_atom_site_fract_y
_atom_site_fract_z
_atom_site_U_iso_or_equiv
_atom_site_adp_type
_atom_site_occupancy
_atom_site_symmetry_multiplicity
_atom_site_calc_flag
_atom_site_refinement_flags
_atom_site_disorder_assembly
_atom_site_disorder_group
Zn1 Zn 0.1250 0.838680(9) 0.088680(9) 0.01566(15) Uani 1 2 d S . .
N1 N 0.11956(7) 0.84801(7) 0.01344(7) 0.0191(4) Uani 1 1 d . . .
N2 N 0.13377(7) 0.87434(7) -0.06531(7) 0.0185(4) Uani 1 1 d . . .
C1 C 0.10406(9) 0.81082(8) -0.01949(8) 0.0221(5) Uani 1 1 d . . .
H1A H 0.0895 0.7794 -0.0102 0.027 Uiso 1 1 calc R . .
C2 C 0.11308(9) 0.82659(8) -0.06732(9) 0.0215(5) Uani 1 1 d . . .
H2A H 0.1063 0.8079 -0.0971 0.026 Uiso 1 1 calc R . .
C3 C 0.13673(8) 0.88554(8) -0.01610(8) 0.0188(4) Uani 1 1 d . B .
C4 C 0.15514(11) 0.93506(9) 0.00345(9) 0.0314(6) Uani 1 1 d . . .
H4A H 0.1404 0.9617 -0.0168 0.038 Uiso 0.50 1 d PR A 1
H4B H 0.1428 0.9393 0.0376 0.038 Uiso 0.50 1 d PR A 1
H4C H 0.1751 0.9508 -0.0222 0.038 Uiso 0.50 1 d PR A 2
H4D H 0.1767 0.9288 0.0318 0.038 Uiso 0.50 1 d PR A 2
C5 C 0.2107(2) 0.9416(3) 0.0037(2) 0.0453(14) Uani 0.50 1 d P B 1
H5A H 0.2191 0.9749 0.0171 0.068 Uiso 0.50 1 calc PR B 1
H5B H 0.2236 0.9385 -0.0307 0.068 Uiso 0.50 1 calc PR B 1
H5C H 0.2260 0.9155 0.0250 0.068 Uiso 0.50 1 calc PR B 1
C6 C 0.1151(3) 0.9698(2) 0.0184(3) 0.062(2) Uani 0.50 1 d P B 2
H6A H 0.0942 0.9778 -0.0110 0.093 Uiso 0.50 1 calc PR B 2
H6B H 0.1301 1.0009 0.0317 0.093 Uiso 0.50 1 calc PR B 2
H6C H 0.0942 0.9541 0.0445 0.093 Uiso 0.50 1 calc PR B 2
O1W O 0.2500 1.1031(10) 0.0000 0.135(7) Uiso 0.25 2 d SP C 1
H1WA H 0.2298 1.1175 0.0203 0.162 Uiso 0.13 1 d PR C 1
H1WB H 0.2423 1.0720 0.0007 0.162 Uiso 0.13 1 d PR C 1
O2W O 0.2099(17) 1.0949(17) 0.0314(17) 0.135(7) Uiso 0.13 1 d P D 2
H2WA H 0.1983 1.0651 0.0294 0.162 Uiso 0.13 1 d PR D 2
H2WB H 0.2328 1.1134 0.0188 0.162 Uiso 0.13 1 d PR D 2
O3W O 0.1981(15) 1.1250 0.0519(15) 0.135(7) Uiso 0.13 2 d SP E 3
H3WA H 0.1755 1.1250 0.0745 0.162 Uiso 0.13 2 d SPR E 3
H3WB H 0.2219 1.1309 0.0736 0.162 Uiso 0.06 1 d PR E 3
O4W O 0.1716(15) 1.1964 0.1156(15) 0.135(7) Uiso 0.06 1 d PR E 4
H4WA H 0.2023 1.1905 0.1230 0.162 Uiso 0.06 1 d PR E 4
H4WB H 0.1536 1.1825 0.0930 0.162 Uiso 0.06 1 d PR E 4
O5W O 0.199(3) 1.166(3) 0.069(4) 0.135(7) Uiso 0.06 1 d P F 5
H5WA H 0.1967 1.1644 0.1011 0.162 Uiso 0.06 1 d PR F 5
H5WB H 0.1684 1.1719 0.0611 0.162 Uiso 0.06 1 d PR F 5
O6W O 0.281(3) 1.240(4) 0.209(3) 0.135(7) Uiso 0.06 1 d P G 6
H6WA H 0.2813 1.2642 0.2302 0.162 Uiso 0.06 1 d PR G 6
H6WB H 0.2744 1.2249 0.1815 0.162 Uiso 0.06 1 d PR G 6

loop_
_atom_site_aniso_label
_atom_site_aniso_U_11
_atom_site_aniso_U_22
_atom_site_aniso_U_33
_atom_site_aniso_U_23
_atom_site_aniso_U_13
_atom_site_aniso_U_12
Zn1 0.0146(2) 0.01618(17) 0.01618(17) 0.00105(12) 0.00153(8) -0.00153(8)
N1 0.0202(9) 0.0204(9) 0.0166(9) 0.0013(7) 0.0014(7) -0.0023(7)
N2 0.0204(9) 0.0187(9) 0.0165(9) 0.0011(7) -0.0004(7) -0.0003(7)
C1 0.0239(11) 0.0209(10) 0.0215(11) 0.0019(8) -0.0011(8) -0.0042(8)
C2 0.0257(11) 0.0191(10) 0.0198(11) 0.0002(8) -0.0027(9) -0.0022(9)
C3 0.0198(10) 0.0184(10) 0.0181(10) 0.0016(8) 0.0004(8) 0.0002(8)
C4 0.0537(16) 0.0218(12) 0.0188(11) 0.0009(9) 0.0000(11) -0.0106(10)
C5 0.050(4) 0.045(3) 0.042(3) 0.005(3) -0.005(3) -0.018(3)
C6 0.109(6) 0.017(3) 0.059(4) -0.016(3) 0.003(4) 0.017(3)

_geom_special_details            
;
All esds (except the esd in the dihedral angle between two l.s. planes)
are estimated using the full covariance matrix. The cell esds are taken
into account individually in the estimation of esds in distances, angles
and torsion angles; correlations between esds in cell parameters are only
used when they are defined by crystal symmetry. An approximate (isotropic)
treatment of cell esds is used for estimating esds involving l.s. planes.
;

loop_
_geom_bond_atom_site_label_1
_geom_bond_atom_site_label_2
_geom_bond_distance
_geom_bond_site_symmetry_2
_geom_bond_publ_flag
Zn1 N2 2.0013(18) 95_575 ?
Zn1 N2 2.0013(18) 53_566 ?
Zn1 N1 2.0167(19) . ?
Zn1 N1 2.0167(19) 18_554 ?
N1 C3 1.346(3) . ?
N1 C1 1.381(3) . ?
N2 C3 1.341(3) . ?
N2 C2 1.382(3) . ?
N2 Zn1 2.0013(18) 57_665 ?
C1 C2 1.357(3) . ?
C3 C4 1.495(3) . ?
C4 C6 1.461(7) . ?
C4 C5 1.484(7) . ?
O1W O1W 1.16(5) 22_574 ?
O2W O2W 1.63(9) 48_464 ?
O6W O6W 1.49(10) 77_566 ?
O6W O6W 1.49(10) 81_665 ?

loop_
_geom_angle_atom_site_label_1
_geom_angle_atom_site_label_2
_geom_angle_atom_site_label_3
_geom_angle
_geom_angle_site_symmetry_1
_geom_angle_site_symmetry_3
_geom_angle_publ_flag
N2 Zn1 N2 105.55(11) 95_575 53_566 ?
N2 Zn1 N1 110.98(7) 95_575 . ?
N2 Zn1 N1 112.57(8) 53_566 . ?
N2 Zn1 N1 112.57(8) 95_575 18_554 ?
N2 Zn1 N1 110.98(7) 53_566 18_554 ?
N1 Zn1 N1 104.36(11) . 18_554 ?
C3 N1 C1 105.13(18) . . ?
C3 N1 Zn1 129.99(15) . . ?
C1 N1 Zn1 124.06(15) . . ?
C3 N2 C2 105.31(18) . . ?
C3 N2 Zn1 129.81(15) . 57_665 ?
C2 N2 Zn1 124.34(14) . 57_665 ?
C2 C1 N1 108.6(2) . . ?
C1 C2 N2 108.45(19) . . ?
N2 C3 N1 112.51(19) . . ?
N2 C3 C4 123.5(2) . . ?
N1 C3 C4 124.0(2) . . ?
C6 C4 C5 130.3(5) . . ?
C6 C4 C3 114.3(4) . . ?
C5 C4 C3 115.4(3) . . ?
O6W O6W O6W 104(8) 77_566 81_665 ?

_diffrn_measured_fraction_theta_max 0.999
_diffrn_reflns_theta_full        28.29
_diffrn_measured_fraction_theta_full 0.999
_refine_diff_density_max         0.538
_refine_diff_density_min         -0.367
_refine_diff_density_rms         0.107
