####################################################################### 
# 
# This file contains crystal structure data downloaded from the 
# Cambridge Structural Database (CSD) hosted by the Cambridge 
# Crystallographic Data Centre (CCDC).
# 
# Full information about CCDC data access policies and citation 
# guidelines are available at http://www.ccdc.cam.ac.uk/access/V1 
# 
# Audit and citation data items may have been added by the CCDC. 
# Please retain this information to preserve the provenance of 
# this file and to allow appropriate attribution of the data. 
# 
#######################################################################

data_a
_audit_block_doi                 10.5517/ccn4gpx
_database_code_depnum_ccdc_archive 'CCDC 600119'
_audit_update_record             
;
2006-03-02 deposited with the CCDC.	2024-07-11 downloaded from the CCDC.
;

_audit_creation_method           SHELXL-97
_chemical_name_systematic        
;
?
;
_chemical_name_common            ?
_chemical_melting_point          ?
_chemical_formula_moiety         'C14 H12 N2 O10 Zn, 2(C2 H6 O S), 2(H2 O)'
_chemical_formula_sum            'C18 H28 N2 O14 S2 Zn'
_chemical_formula_weight         625.91

loop_
_atom_type_symbol
_atom_type_description
_atom_type_scat_dispersion_real
_atom_type_scat_dispersion_imag
_atom_type_scat_source
C C 0.0033 0.0016 'International Tables Vol C Tables 4.2.6.8 and 6.1.1.4'
H H 0.0000 0.0000 'International Tables Vol C Tables 4.2.6.8 and 6.1.1.4'
N N 0.0061 0.0033 'International Tables Vol C Tables 4.2.6.8 and 6.1.1.4'
O O 0.0106 0.0060 'International Tables Vol C Tables 4.2.6.8 and 6.1.1.4'
S S 0.1246 0.1234 'International Tables Vol C Tables 4.2.6.8 and 6.1.1.4'
Zn Zn 0.2839 1.4301 'International Tables Vol C Tables 4.2.6.8 and 6.1.1.4'

_symmetry_cell_setting           Monoclinic
_symmetry_space_group_name_H-M   P2(1)/c
_symmetry_space_group_name_Hall  '-P 2ybc'

loop_
_symmetry_equiv_pos_as_xyz
'x, y, z'
'-x, y+1/2, -z+1/2'
'-x, -y, -z'
'x, -y-1/2, z-1/2'

_cell_length_a                   8.2791(6)
_cell_length_b                   12.5495(10)
_cell_length_c                   13.6519(11)
_cell_angle_alpha                90.00
_cell_angle_beta                 105.294(2)
_cell_angle_gamma                90.00
_cell_volume                     1368.18(18)
_cell_formula_units_Z            2
_cell_measurement_temperature    293(2)
_cell_measurement_reflns_used    1882
_cell_measurement_theta_min      2.24
_cell_measurement_theta_max      25.02

_exptl_crystal_description       prism
_exptl_crystal_colour            colorless
_exptl_crystal_size_max          .25
_exptl_crystal_size_mid          .14
_exptl_crystal_size_min          .08
_exptl_crystal_density_meas      ?
_exptl_crystal_density_diffrn    1.514
_exptl_crystal_density_method    'not measured'
_exptl_crystal_F_000             648
_exptl_absorpt_coefficient_mu    1.117
_exptl_absorpt_correction_type   empirical
_exptl_absorpt_process_details   'SADABS (Sheldrick, 1996)'
_exptl_absorpt_correction_T_min  0.829
_exptl_absorpt_correction_T_max  0.915

_exptl_special_details           
;
?
;

_diffrn_ambient_temperature      293(2)
_diffrn_radiation_wavelength     0.71073
_diffrn_radiation_type           MoK\a
_diffrn_radiation_source         'fine-focus sealed tube'
_diffrn_radiation_monochromator  graphite
_diffrn_measurement_device_type  'CCD area detector'
_diffrn_measurement_method       'phi and omega scans'
_diffrn_detector_area_resol_mean ?
_diffrn_standards_number         none
_diffrn_standards_interval_count none
_diffrn_standards_interval_time  none
_diffrn_standards_decay_%        none
_diffrn_reflns_number            4041
_diffrn_reflns_av_R_equivalents  0.0354
_diffrn_reflns_av_sigmaI/netI    0.0527
_diffrn_reflns_limit_h_min       -9
_diffrn_reflns_limit_h_max       8
_diffrn_reflns_limit_k_min       -11
_diffrn_reflns_limit_k_max       14
_diffrn_reflns_limit_l_min       -15
_diffrn_reflns_limit_l_max       16
_diffrn_reflns_theta_min         2.24
_diffrn_reflns_theta_max         25.02
_reflns_number_total             2414
_reflns_number_gt                1799
_reflns_threshold_expression     I>2\s(I)

_computing_data_collection       'SMART (Siemens, 1996)'
_computing_cell_refinement       'SMART and SAINT (Siemens,1994)'
_computing_data_reduction        'XPREP in SHELXTL (Siemens, 1994)'
_computing_structure_solution    SHELXTL
_computing_structure_refinement  SHELXTL
_computing_molecular_graphics    SHELXTL
_computing_publication_material  SHELXTL

_refine_special_details          
;
Refinement of F^2^ against ALL reflections. The weighted R-factor wR and
goodness of fit S are based on F^2^, conventional R-factors R are based
on F, with F set to zero for negative F^2^. The threshold expression of
F^2^ > 2sigma(F^2^) is used only for calculating R-factors(gt) etc. and is
not relevant to the choice of reflections for refinement. R-factors based
on F^2^ are statistically about twice as large as those based on F, and R-
factors based on ALL data will be even larger.
;

_refine_ls_structure_factor_coef Fsqd
_refine_ls_matrix_type           full
_refine_ls_weighting_scheme      calc
_refine_ls_weighting_details     
'calc w=1/[\s^2^(Fo^2^)+(0.0578P)^2^+5.6895P] where P=(Fo^2^+2Fc^2^)/3'
_atom_sites_solution_primary     direct
_atom_sites_solution_secondary   difmap
_atom_sites_solution_hydrogens   geom
_refine_ls_hydrogen_treatment    mixed
_refine_ls_extinction_method     none
_refine_ls_extinction_coef       ?
_refine_ls_number_reflns         2379
_refine_ls_number_parameters     183
_refine_ls_number_restraints     5
_refine_ls_R_factor_ref          0.0957
_refine_ls_R_factor_gt           0.0654
_refine_ls_wR_factor_ref         0.1654
_refine_ls_wR_factor_gt          0.1432
_refine_ls_goodness_of_fit_ref   1.105
_refine_ls_restrained_S_all      1.103
_refine_ls_shift/su_max          0.009
_refine_ls_shift/su_mean         0.000

loop_
_atom_site_label
_atom_site_type_symbol
_atom_site_fract_x
_atom_site_fract_y
_atom_site_fract_z
_atom_site_U_iso_or_equiv
_atom_site_adp_type
_atom_site_occupancy
_atom_site_symmetry_multiplicity
_atom_site_calc_flag
_atom_site_refinement_flags
_atom_site_disorder_assembly
_atom_site_disorder_group
Zn1 Zn 0.5000 0.0000 0.0000 0.0246(3) Uani 1 2 d S . .
S1 S 0.8033(3) 0.46700(18) 0.18133(15) 0.0658(6) Uani 1 1 d . . .
O1 O 0.7135(8) -0.0017(4) 0.4097(3) 0.0644(16) Uani 1 1 d D . .
H1O H 0.750(11) 0.025(7) 0.469(3) 0.097 Uiso 1 1 d D . .
O1W O 0.9069(8) 0.2118(4) 0.0242(5) 0.0785(18) Uani 1 1 d D . .
H1WA H 0.936(14) 0.200(7) 0.088(2) 0.118 Uiso 1 1 d D . .
H1WB H 0.904(13) 0.2799(17) 0.026(6) 0.118 Uiso 1 1 d D . .
O2W O 0.7635(5) 0.0189(3) 0.0421(3) 0.0348(9) Uani 1 1 d D . .
H2WA H 0.8047 -0.0189 0.0060 0.052 Uiso 1 1 calc R . .
H2WB H 0.807(8) 0.079(3) 0.040(5) 0.052 Uiso 1 1 d D . .
O2 O 0.7143(8) -0.1579(4) 0.4831(3) 0.0722(18) Uani 1 1 d . . .
O3 O 0.7755(6) -0.3768(4) 0.3959(4) 0.0546(13) Uani 1 1 d . . .
O4 O 0.5063(5) -0.3725(3) 0.3993(3) 0.0289(9) Uani 1 1 d . . .
O5 O 0.8170(9) 0.4130(4) 0.0852(4) 0.085(2) Uani 1 1 d . . .
N1 N 0.5320(6) -0.1129(3) 0.1242(3) 0.0289(10) Uani 1 1 d . . .
C1 C 0.5943(7) -0.0808(4) 0.2208(4) 0.0300(13) Uani 1 1 d . . .
H1A H 0.6175 -0.0087 0.2326 0.036 Uiso 1 1 calc R . .
C2 C 0.6260(7) -0.1485(4) 0.3040(4) 0.0265(12) Uani 1 1 d . . .
C3 C 0.5944(7) -0.2576(4) 0.2868(4) 0.0273(12) Uani 1 1 d . . .
C4 C 0.5292(8) -0.2905(4) 0.1873(4) 0.0351(14) Uani 1 1 d . . .
H4A H 0.5052 -0.3622 0.1731 0.042 Uiso 1 1 calc R . .
C5 C 0.4998(8) -0.2171(4) 0.1092(4) 0.0328(13) Uani 1 1 d . . .
H5A H 0.4555 -0.2412 0.0431 0.039 Uiso 1 1 calc R . .
C6 C 0.6883(8) -0.1044(4) 0.4090(4) 0.0347(14) Uani 1 1 d . . .
C7 C 0.6301(7) -0.3410(4) 0.3707(4) 0.0292(12) Uani 1 1 d . . .
C8 C 0.9600(11) 0.5668(7) 0.2066(6) 0.071(2) Uani 1 1 d . . .
H8A H 0.9336 0.6198 0.1541 0.107 Uiso 1 1 calc R . .
H8B H 1.0665 0.5352 0.2086 0.107 Uiso 1 1 calc R . .
H8C H 0.9650 0.5995 0.2709 0.107 Uiso 1 1 calc R . .
C9 C 0.8952(13) 0.3754(9) 0.2779(6) 0.098(3) Uani 1 1 d . . .
H9A H 0.8275 0.3123 0.2704 0.148 Uiso 1 1 calc R . .
H9B H 0.9028 0.4070 0.3430 0.148 Uiso 1 1 calc R . .
H9C H 1.0053 0.3571 0.2729 0.148 Uiso 1 1 calc R . .

loop_
_atom_site_aniso_label
_atom_site_aniso_U_11
_atom_site_aniso_U_22
_atom_site_aniso_U_33
_atom_site_aniso_U_23
_atom_site_aniso_U_13
_atom_site_aniso_U_12
Zn1 0.0378(5) 0.0204(4) 0.0141(4) 0.0002(4) 0.0043(3) 0.0009(4)
S1 0.0714(14) 0.0731(14) 0.0466(10) -0.0019(9) 0.0048(10) 0.0159(11)
O1 0.124(5) 0.028(2) 0.024(2) -0.001(2) -0.010(3) -0.001(3)
O1W 0.065(4) 0.043(3) 0.117(5) -0.011(3) 0.007(4) -0.009(3)
O2W 0.039(2) 0.033(2) 0.030(2) -0.0092(18) 0.0039(18) -0.0063(18)
O2 0.135(5) 0.046(3) 0.022(2) 0.005(2) -0.004(3) -0.031(3)
O3 0.044(3) 0.060(3) 0.061(3) 0.038(3) 0.015(2) 0.006(2)
O4 0.042(2) 0.0227(19) 0.0214(18) 0.0036(15) 0.0074(17) -0.0058(17)
O5 0.158(6) 0.048(3) 0.034(3) 0.002(2) 0.000(3) 0.026(4)
N1 0.043(3) 0.025(2) 0.017(2) 0.0066(18) 0.005(2) 0.002(2)
C1 0.044(3) 0.022(3) 0.022(3) -0.001(2) 0.005(2) -0.002(2)
C2 0.035(3) 0.026(3) 0.017(2) 0.002(2) 0.005(2) 0.000(2)
C3 0.033(3) 0.026(3) 0.022(3) 0.005(2) 0.006(2) 0.002(2)
C4 0.056(4) 0.022(3) 0.024(3) 0.000(2) 0.006(3) -0.005(3)
C5 0.049(4) 0.028(3) 0.020(3) -0.003(2) 0.006(3) -0.006(3)
C6 0.052(4) 0.026(3) 0.023(3) 0.007(2) 0.004(3) -0.005(3)
C7 0.041(4) 0.022(3) 0.020(3) -0.001(2) 0.001(2) -0.004(3)
C8 0.074(6) 0.082(6) 0.052(5) -0.009(4) 0.006(4) -0.004(5)
C9 0.126(9) 0.116(9) 0.048(5) 0.027(5) 0.014(5) 0.005(7)

_geom_special_details            
;
All esds (except the esd in the dihedral angle between two l.s. planes)
are estimated using the full covariance matrix. The cell esds are taken
into account individually in the estimation of esds in distances, angles
and torsion angles; correlations between esds in cell parameters are only
used when they are defined by crystal symmetry. An approximate (isotropic)
treatment of cell esds is used for estimating esds involving l.s. planes.
;

loop_
_geom_bond_atom_site_label_1
_geom_bond_atom_site_label_2
_geom_bond_distance
_geom_bond_site_symmetry_2
_geom_bond_publ_flag
Zn1 O2W 2.118(4) . yes
Zn1 O2W 2.118(4) 3_655 ?
Zn1 O4 2.119(3) 2_655 ?
Zn1 O4 2.119(3) 4 yes
Zn1 N1 2.171(4) . yes
Zn1 N1 2.171(4) 3_655 ?
S1 O5 1.507(5) . ?
S1 C9 1.763(9) . ?
S1 C8 1.771(9) . ?
O1 C6 1.306(7) . ?
O1 H1O 0.85(5) . ?
O1W H1WA 0.85(2) . ?
O1W H1WB 0.86(2) . ?
O2W H2WA 0.8200 . ?
O2W H2WB 0.84(5) . ?
O2 C6 1.185(7) . ?
O3 C7 1.245(7) . ?
O4 C7 1.253(7) . ?
O4 Zn1 2.119(3) 2_645 ?
N1 C5 1.340(7) . ?
N1 C1 1.346(6) . ?
C1 C2 1.387(7) . ?
C1 H1A 0.9300 . ?
C2 C3 1.402(7) . ?
C2 C6 1.495(7) . ?
C3 C4 1.385(7) . ?
C3 C7 1.522(7) . ?
C4 C5 1.382(7) . ?
C4 H4A 0.9300 . ?
C5 H5A 0.9300 . ?
C8 H8A 0.9600 . ?
C8 H8B 0.9600 . ?
C8 H8C 0.9600 . ?
C9 H9A 0.9600 . ?
C9 H9B 0.9600 . ?
C9 H9C 0.9600 . ?

loop_
_geom_angle_atom_site_label_1
_geom_angle_atom_site_label_2
_geom_angle_atom_site_label_3
_geom_angle
_geom_angle_site_symmetry_1
_geom_angle_site_symmetry_3
_geom_angle_publ_flag
O2W Zn1 O2W 180.0 . 3_655 ?
O2W Zn1 O4 86.51(15) . 2_655 ?
O2W Zn1 O4 93.49(15) 3_655 2_655 ?
O2W Zn1 O4 93.49(15) . 4 yes
O2W Zn1 O4 86.51(15) 3_655 4 ?
O4 Zn1 O4 180.00(14) 2_655 4 ?
O2W Zn1 N1 87.51(16) . . yes
O2W Zn1 N1 92.49(16) 3_655 . ?
O4 Zn1 N1 90.29(15) 2_655 . ?
O4 Zn1 N1 89.71(15) 4 . yes
O2W Zn1 N1 92.49(16) . 3_655 ?
O2W Zn1 N1 87.51(16) 3_655 3_655 ?
O4 Zn1 N1 89.71(15) 2_655 3_655 ?
O4 Zn1 N1 90.29(15) 4 3_655 ?
N1 Zn1 N1 180.0(2) . 3_655 ?
O5 S1 C9 104.0(4) . . ?
O5 S1 C8 105.5(4) . . ?
C9 S1 C8 99.5(5) . . ?
C6 O1 H1O 114(6) . . ?
H1WA O1W H1WB 98(8) . . ?
Zn1 O2W H2WA 109.5 . . ?
Zn1 O2W H2WB 121(5) . . ?
H2WA O2W H2WB 104.5 . . ?
C7 O4 Zn1 127.0(4) . 2_645 ?
C5 N1 C1 116.8(4) . . ?
C5 N1 Zn1 122.7(4) . . ?
C1 N1 Zn1 120.4(4) . . ?
N1 C1 C2 124.1(5) . . ?
N1 C1 H1A 118.0 . . ?
C2 C1 H1A 118.0 . . ?
C1 C2 C3 118.3(5) . . ?
C1 C2 C6 120.1(5) . . ?
C3 C2 C6 121.6(5) . . ?
C4 C3 C2 117.6(5) . . ?
C4 C3 C7 118.7(5) . . ?
C2 C3 C7 123.7(5) . . ?
C5 C4 C3 120.1(5) . . ?
C5 C4 H4A 120.0 . . ?
C3 C4 H4A 120.0 . . ?
N1 C5 C4 123.1(5) . . ?
N1 C5 H5A 118.4 . . ?
C4 C5 H5A 118.4 . . ?
O2 C6 O1 124.0(5) . . ?
O2 C6 C2 123.2(5) . . ?
O1 C6 C2 112.8(5) . . ?
O3 C7 O4 127.7(5) . . ?
O3 C7 C3 116.0(5) . . ?
O4 C7 C3 116.0(5) . . ?
S1 C8 H8A 109.5 . . ?
S1 C8 H8B 109.5 . . ?
H8A C8 H8B 109.5 . . ?
S1 C8 H8C 109.5 . . ?
H8A C8 H8C 109.5 . . ?
H8B C8 H8C 109.5 . . ?
S1 C9 H9A 109.5 . . ?
S1 C9 H9B 109.5 . . ?
H9A C9 H9B 109.5 . . ?
S1 C9 H9C 109.5 . . ?
H9A C9 H9C 109.5 . . ?
H9B C9 H9C 109.5 . . ?

loop_
_geom_hbond_atom_site_label_D
_geom_hbond_atom_site_label_H
_geom_hbond_atom_site_label_A
_geom_hbond_distance_DH
_geom_hbond_distance_HA
_geom_hbond_distance_DA
_geom_hbond_angle_DHA
_geom_hbond_site_symmetry_A
O1W H1WB O5 0.86(2) 2.06(6) 2.820(8) 147(9) .
O2W H2WA O3 0.82 1.96 2.697(6) 149.4 4
O2W H2WB O1W 0.84(8) 1.90(5) 2.735(7) 175(7) .
O1 H1O O5 0.85(5) 1.72(5) 2.574(6) 176(9) 4_566

_diffrn_measured_fraction_theta_max 0.986
_diffrn_reflns_theta_full        25.02
_diffrn_measured_fraction_theta_full 0.986
_refine_diff_density_max         0.847
_refine_diff_density_min         -0.867
_refine_diff_density_rms         0.104


