
#######################################################################
#
#                 Cambridge Crystallographic Data Centre
#                                CCDC
#
#######################################################################
#
# If this CIF has been generated from an entry in the Cambridge
# Structural Database, then it will include bibliographic, chemical,
# crystal, experimental, refinement or atomic coordinate data resulting
# from the CCDC's data processing and validation procedures.
#
#######################################################################

data_CSD_CIF_MEHXHE
_audit_creation_date 1980-07-01
_audit_creation_method CSD-ConQuest-V1
_database_code_CSD MEHXHE
_database_code_depnum_ccdc_archive 'CCDC 1210865'
_chemical_formula_sum 'C27 H18'
_chemical_formula_moiety
;
C27 H18
;
_journal_coden_Cambridge 189
_journal_volume 9
_journal_year 1980
_journal_page_first 137
_journal_name_full 'Cryst.Struct.Commun. '
loop_
_publ_author_name
"H.M.Doesburg"
_chemical_name_systematic
;
1-Methylhexahelicene
;
_chemical_name_common
;
Teaching Subset: Fundamental Chemistry
;
_cell_volume   1802.418
_exptl_crystal_density_diffrn 1.29
_diffrn_ambient_temperature ?
_diffrn_special_details
;
The study was carried out at room temperature,in the range 283-303K

;
#These two values have been output from a single CSD field.
_refine_ls_R_factor_gt 0.036
_refine_ls_wR_factor_gt 0.036
_symmetry_cell_setting monoclinic
_symmetry_space_group_name_H-M 'P 21/c'
_symmetry_Int_Tables_number 14
loop_
_symmetry_equiv_pos_site_id
_symmetry_equiv_pos_as_xyz
1 x,y,z
2 -x,1/2+y,1/2-z
3 -x,-y,-z
4 x,-1/2-y,-1/2+z
_cell_length_a 8.375(1)
_cell_length_b 16.335(2)
_cell_length_c 13.264(3)
_cell_angle_alpha 90
_cell_angle_beta 96.64(3)
_cell_angle_gamma 90
_cell_formula_units_Z 4
loop_
_atom_type_symbol
_atom_type_radius_bond
C 0.68
H 0.23
loop_
_atom_site_label
_atom_site_type_symbol
_atom_site_fract_x
_atom_site_fract_y
_atom_site_fract_z
C1 C 0.13240 0.60520 0.86440
C2 C 0.20430 0.58850 0.96170
C3 C 0.37410 0.58880 0.98520
C4 C 0.46650 0.61390 0.91390
C5 C 0.49910 0.66680 0.74200
C6 C 0.42930 0.68850 0.64940
C7 C 0.20330 0.69420 0.51440
C8 C 0.04890 0.67860 0.48420
C9 C -0.20820 0.61050 0.50640
C10 C -0.29260 0.55800 0.55660
C11 C -0.30210 0.44580 0.67850
C12 C -0.22860 0.39270 0.74440
C13 C 0.01920 0.32970 0.82590
C14 C 0.18070 0.32380 0.83950
C15 C 0.27330 0.38020 0.79330
C16 C 0.20040 0.44360 0.73750
C17 C 0.03350 0.45430 0.72480
C18 C -0.05960 0.39280 0.76660
C19 C -0.04760 0.51910 0.66450
C20 C -0.21410 0.50790 0.63330
C21 C 0.03100 0.58950 0.62980
C22 C -0.04360 0.62730 0.53770
C23 C 0.17750 0.62490 0.67710
C24 C 0.27150 0.66930 0.61390
C25 C 0.23370 0.61890 0.78610
C26 C 0.40110 0.63150 0.81560
C27 C -0.04640 0.61700 0.85020
H1 H 0.12600 0.57400 1.01100
H2 H 0.40500 0.57200 1.05200
H3 H 0.60000 0.62800 0.92200
H4 H 0.59900 0.67600 0.76400
H5 H 0.49300 0.71900 0.59500
H6 H 0.27900 0.72500 0.48000
H7 H -0.00700 0.70400 0.42200
H8 H -0.26300 0.64100 0.45000
H9 H -0.42400 0.54900 0.53600
H10 H -0.42300 0.44300 0.66200
H11 H -0.29300 0.34700 0.78100
H12 H -0.04900 0.28700 0.85300
H13 H 0.23700 0.27600 0.88400
H14 H 0.39800 0.37300 0.79700
H15 H 0.27100 0.48200 0.70400
H16 H -0.08100 0.65600 0.79400
H17 H -0.10500 0.56600 0.83900
H18 H -0.08100 0.64300 0.91400
#END
