####################################################################### 
# 
# This file contains crystal structure data downloaded from the 
# Cambridge Structural Database (CSD) hosted by the Cambridge 
# Crystallographic Data Centre (CCDC).
# 
# Full information about CCDC data access policies and citation 
# guidelines are available at http://www.ccdc.cam.ac.uk/access/V1 
# 
# Audit and citation data items may have been added by the CCDC. 
# Please retain this information to preserve the provenance of 
# this file and to allow appropriate attribution of the data. 
# 
#######################################################################

data_2
_audit_block_doi                 10.5517/ccnqznz
_database_code_depnum_ccdc_archive 'CCDC 617912'
loop_
_citation_id
_citation_doi
_citation_year
1 10.1021/ic060129v 2006
_audit_update_record             
;
2006-08-16 deposited with the CCDC.	2024-07-11 downloaded from the CCDC.
;

_audit_creation_method           SHELXL-97
_chemical_name_systematic        
;
?
;
_chemical_name_common            ?
_chemical_melting_point          ?
_chemical_formula_moiety         ?
_chemical_formula_sum            'C20 H26 N8 O6 S2 Zn'
_chemical_formula_weight         603.98

loop_
_atom_type_symbol
_atom_type_description
_atom_type_scat_dispersion_real
_atom_type_scat_dispersion_imag
_atom_type_scat_source
C C 0.0033 0.0016 'International Tables Vol C Tables 4.2.6.8 and 6.1.1.4'
H H 0.0000 0.0000 'International Tables Vol C Tables 4.2.6.8 and 6.1.1.4'
N N 0.0061 0.0033 'International Tables Vol C Tables 4.2.6.8 and 6.1.1.4'
O O 0.0106 0.0060 'International Tables Vol C Tables 4.2.6.8 and 6.1.1.4'
S S 0.1246 0.1234 'International Tables Vol C Tables 4.2.6.8 and 6.1.1.4'
Zn Zn 0.2839 1.4301 'International Tables Vol C Tables 4.2.6.8 and 6.1.1.4'

_symmetry_cell_setting           Monoclinic
_symmetry_space_group_name_H-M   P2(1)/n

loop_
_symmetry_equiv_pos_as_xyz
'x, y, z'
'-x+1/2, y+1/2, -z+1/2'
'-x, -y, -z'
'x-1/2, -y-1/2, z-1/2'

_cell_length_a                   8.815(4)
_cell_length_b                   12.671(5)
_cell_length_c                   11.906(5)
_cell_angle_alpha                90.00
_cell_angle_beta                 100.050(5)
_cell_angle_gamma                90.00
_cell_volume                     1309.4(9)
_cell_formula_units_Z            2
_cell_measurement_temperature    293(2)
_cell_measurement_reflns_used    3840
_cell_measurement_theta_min      2.37
_cell_measurement_theta_max      27.75

_exptl_crystal_description       Lamellar
_exptl_crystal_colour            Pale-Yellow
_exptl_crystal_size_max          0.54
_exptl_crystal_size_mid          0.48
_exptl_crystal_size_min          0.20
_exptl_crystal_density_meas      None
_exptl_crystal_density_diffrn    1.532
_exptl_crystal_density_method    'not measured'
_exptl_crystal_F_000             624
_exptl_absorpt_coefficient_mu    1.149
_exptl_absorpt_correction_type   Multi-Scan
_exptl_absorpt_correction_T_min  0.715778
_exptl_absorpt_correction_T_max  1.000000
_exptl_absorpt_process_details   SADABS

_exptl_special_details           
;
?
;

_diffrn_ambient_temperature      293(2)
_diffrn_radiation_wavelength     0.71073
_diffrn_radiation_type           MoK\a
_diffrn_radiation_source         'fine-focus sealed tube'
_diffrn_radiation_monochromator  graphite
_diffrn_measurement_device_type  'APEX II CCD area detector'
_diffrn_measurement_method       'phi and omega scans'
_diffrn_detector_area_resol_mean ?
_diffrn_standards_number         ?
_diffrn_standards_interval_count ?
_diffrn_standards_interval_time  ?
_diffrn_standards_decay_%        ?
_diffrn_reflns_number            6870
_diffrn_reflns_av_R_equivalents  0.0195
_diffrn_reflns_av_sigmaI/netI    0.0201
_diffrn_reflns_limit_h_min       -10
_diffrn_reflns_limit_h_max       10
_diffrn_reflns_limit_k_min       -14
_diffrn_reflns_limit_k_max       15
_diffrn_reflns_limit_l_min       -10
_diffrn_reflns_limit_l_max       14
_diffrn_reflns_theta_min         2.37
_diffrn_reflns_theta_max         25.00
_reflns_number_total             2303
_reflns_number_gt                2088
_reflns_threshold_expression     >2sigma(I)

_computing_data_collection       'Bruker APEX II'
_computing_cell_refinement       'Bruker APEX II'
_computing_data_reduction        'Bruker SAINT'
_computing_structure_solution    'SHELXS-97 (Sheldrick, 1990)'
_computing_structure_refinement  'SHELXL-97 (Sheldrick, 1997)'
_computing_molecular_graphics    'Bruker SHELXTL'
_computing_publication_material  'Bruker SHELXTL'

_refine_special_details          
;
Refinement of F^2^ against ALL reflections. The weighted R-factor wR and
goodness of fit S are based on F^2^, conventional R-factors R are based
on F, with F set to zero for negative F^2^. The threshold expression of
F^2^ > 2sigma(F^2^) is used only for calculating R-factors(gt) etc. and is
not relevant to the choice of reflections for refinement. R-factors based
on F^2^ are statistically about twice as large as those based on F, and R-
factors based on ALL data will be even larger.
;

_refine_ls_structure_factor_coef Fsqd
_refine_ls_matrix_type           full
_refine_ls_weighting_scheme      calc
_refine_ls_weighting_details     
'calc w=1/[\s^2^(Fo^2^)+(0.0297P)^2^+0.7605P] where P=(Fo^2^+2Fc^2^)/3'
_atom_sites_solution_primary     direct
_atom_sites_solution_secondary   difmap
_atom_sites_solution_hydrogens   geom
_refine_ls_hydrogen_treatment    constr
_refine_ls_extinction_method     none
_refine_ls_extinction_coef       ?
_refine_ls_number_reflns         2303
_refine_ls_number_parameters     171
_refine_ls_number_restraints     0
_refine_ls_R_factor_all          0.0282
_refine_ls_R_factor_gt           0.0249
_refine_ls_wR_factor_ref         0.0666
_refine_ls_wR_factor_gt          0.0649
_refine_ls_goodness_of_fit_ref   1.071
_refine_ls_restrained_S_all      1.071
_refine_ls_shift/su_max          0.000
_refine_ls_shift/su_mean         0.000

loop_
_atom_site_label
_atom_site_type_symbol
_atom_site_fract_x
_atom_site_fract_y
_atom_site_fract_z
_atom_site_U_iso_or_equiv
_atom_site_adp_type
_atom_site_occupancy
_atom_site_symmetry_multiplicity
_atom_site_calc_flag
_atom_site_refinement_flags
_atom_site_disorder_assembly
_atom_site_disorder_group
Zn1 Zn 0.0000 1.0000 1.0000 0.02425(11) Uani 1 2 d S . .
S1 S 0.42924(6) 0.95615(5) 1.16422(4) 0.03887(15) Uani 1 1 d . . .
O1 O 0.42920(15) 0.84451(11) 0.97488(11) 0.0314(3) Uani 1 1 d . . .
O2 O 0.4029(3) 0.5984(2) 1.13500(19) 0.0924(8) Uani 1 1 d . . .
O3 O 0.12670(16) 1.09685(11) 1.13056(11) 0.0347(3) Uani 1 1 d D . .
H3A H 0.2181 1.0727 1.1468 0.052 Uiso 1 1 d RD . .
H3B H 0.0827 1.1062 1.1882 0.052 Uiso 1 1 d RD . .
N1 N 0.45249(18) 0.61806(12) 0.62691(13) 0.0298(4) Uani 1 1 d . . .
N2 N 0.19844(18) 0.87087(13) 0.87228(13) 0.0309(4) Uani 1 1 d . . .
N3 N 0.20784(17) 0.92375(12) 0.97626(13) 0.0276(3) Uani 1 1 d . . .
N4 N 0.2012(3) 0.59844(18) 0.99027(18) 0.0601(6) Uani 1 1 d . . .
C1 C 0.3758(2) 0.75782(15) 0.78904(16) 0.0293(4) Uani 1 1 d . . .
C2 C 0.5217(2) 0.71450(17) 0.80081(18) 0.0376(5) Uani 1 1 d . . .
H2 H 0.5966 0.7316 0.8633 0.045 Uiso 1 1 calc R . .
C3 C 0.5549(2) 0.64565(17) 0.71872(18) 0.0362(5) Uani 1 1 d . . .
H3 H 0.6534 0.6170 0.7277 0.043 Uiso 1 1 calc R . .
C4 C 0.3117(2) 0.66110(16) 0.61550(17) 0.0328(4) Uani 1 1 d . . .
H4 H 0.2392 0.6429 0.5520 0.039 Uiso 1 1 calc R . .
C5 C 0.2691(2) 0.73085(16) 0.69304(17) 0.0337(4) Uani 1 1 d . . .
H5 H 0.1704 0.7595 0.6814 0.040 Uiso 1 1 calc R . .
C6 C 0.3296(2) 0.82623(15) 0.87564(16) 0.0289(4) Uani 1 1 d . . .
C7 C 0.3470(2) 0.90936(15) 1.03596(16) 0.0274(4) Uani 1 1 d . . .
C8 C 0.0500(4) 0.6428(3) 0.9476(3) 0.0729(8) Uani 1 1 d . . .
H8A H 0.0246 0.6936 1.0012 0.109 Uiso 1 1 calc R . .
H8B H -0.0255 0.5875 0.9379 0.109 Uiso 1 1 calc R . .
H8C H 0.0511 0.6767 0.8757 0.109 Uiso 1 1 calc R . .
C9 C 0.2574(4) 0.5183(2) 0.9215(3) 0.0795(10) Uani 1 1 d . . .
H9A H 0.3612 0.5000 0.9547 0.119 Uiso 1 1 calc R . .
H9B H 0.2550 0.5447 0.8457 0.119 Uiso 1 1 calc R . .
H9C H 0.1931 0.4568 0.9186 0.119 Uiso 1 1 calc R . .
C10 C 0.2795(4) 0.6301(3) 1.0905(3) 0.0744(9) Uani 1 1 d . . .
H10 H 0.2339 0.6815 1.1292 0.089 Uiso 1 1 calc R . .

loop_
_atom_site_aniso_label
_atom_site_aniso_U_11
_atom_site_aniso_U_22
_atom_site_aniso_U_33
_atom_site_aniso_U_23
_atom_site_aniso_U_13
_atom_site_aniso_U_12
Zn1 0.02364(17) 0.02625(17) 0.02359(17) -0.00027(11) 0.00611(12) 0.00169(12)
S1 0.0305(3) 0.0539(3) 0.0306(3) -0.0080(2) 0.0009(2) 0.0019(2)
O1 0.0250(7) 0.0367(7) 0.0328(7) -0.0046(6) 0.0056(6) 0.0049(6)
O2 0.0801(16) 0.133(2) 0.0603(13) 0.0107(14) 0.0013(12) 0.0175(15)
O3 0.0329(7) 0.0407(8) 0.0304(7) -0.0067(6) 0.0050(6) 0.0011(6)
N1 0.0285(8) 0.0310(8) 0.0313(9) -0.0040(7) 0.0092(7) 0.0002(7)
N2 0.0295(9) 0.0354(9) 0.0282(8) -0.0067(7) 0.0062(7) 0.0033(7)
N3 0.0260(8) 0.0313(8) 0.0258(8) -0.0039(6) 0.0059(6) 0.0040(7)
N4 0.0813(17) 0.0577(13) 0.0394(12) -0.0004(10) 0.0051(11) -0.0056(12)
C1 0.0276(10) 0.0292(10) 0.0328(10) -0.0034(8) 0.0101(8) -0.0007(8)
C2 0.0285(10) 0.0441(12) 0.0390(12) -0.0132(9) 0.0028(9) 0.0024(9)
C3 0.0250(10) 0.0427(12) 0.0411(12) -0.0091(9) 0.0064(9) 0.0046(9)
C4 0.0283(10) 0.0382(11) 0.0314(10) -0.0051(9) 0.0041(8) 0.0004(8)
C5 0.0262(10) 0.0379(11) 0.0378(11) -0.0038(9) 0.0073(9) 0.0060(8)
C6 0.0269(10) 0.0296(10) 0.0310(10) -0.0031(8) 0.0071(8) -0.0003(8)
C7 0.0275(10) 0.0283(9) 0.0282(10) -0.0004(8) 0.0098(8) 0.0004(8)
C8 0.077(2) 0.0697(19) 0.071(2) -0.0026(16) 0.0103(17) -0.0053(16)
C9 0.099(3) 0.071(2) 0.072(2) -0.0032(16) 0.025(2) 0.0063(18)
C10 0.089(2) 0.079(2) 0.0549(18) 0.0094(16) 0.0138(17) 0.0081(18)

_geom_special_details            
;
All esds (except the esd in the dihedral angle between two l.s. planes)
are estimated using the full covariance matrix. The cell esds are taken
into account individually in the estimation of esds in distances, angles
and torsion angles; correlations between esds in cell parameters are only
used when they are defined by crystal symmetry. An approximate (isotropic)
treatment of cell esds is used for estimating esds involving l.s. planes.
;

loop_
_geom_bond_atom_site_label_1
_geom_bond_atom_site_label_2
_geom_bond_distance
_geom_bond_site_symmetry_2
_geom_bond_publ_flag
Zn1 N3 2.1332(16) . ?
Zn1 N3 2.1332(16) 3_577 ?
Zn1 O3 2.1363(14) 3_577 ?
Zn1 O3 2.1363(14) . ?
Zn1 N1 2.2175(17) 4_576 ?
Zn1 N1 2.2175(17) 2_556 ?
S1 C7 1.680(2) . ?
O1 C6 1.363(2) . ?
O1 C7 1.383(2) . ?
O2 C10 1.193(4) . ?
O3 H3A 0.8520 . ?
O3 H3B 0.8530 . ?
N1 C3 1.337(3) . ?
N1 C4 1.340(3) . ?
N1 Zn1 2.2175(17) 2_546 ?
N2 C6 1.282(3) . ?
N2 N3 1.397(2) . ?
N3 C7 1.318(2) . ?
N4 C10 1.331(4) . ?
N4 C9 1.445(4) . ?
N4 C8 1.454(4) . ?
C1 C2 1.383(3) . ?
C1 C5 1.390(3) . ?
C1 C6 1.458(3) . ?
C2 C3 1.379(3) . ?
C2 H2 0.9300 . ?
C3 H3 0.9300 . ?
C4 C5 1.377(3) . ?
C4 H4 0.9300 . ?
C5 H5 0.9300 . ?
C8 H8A 0.9600 . ?
C8 H8B 0.9600 . ?
C8 H8C 0.9600 . ?
C9 H9A 0.9600 . ?
C9 H9B 0.9600 . ?
C9 H9C 0.9600 . ?
C10 H10 0.9300 . ?

loop_
_geom_angle_atom_site_label_1
_geom_angle_atom_site_label_2
_geom_angle_atom_site_label_3
_geom_angle
_geom_angle_site_symmetry_1
_geom_angle_site_symmetry_3
_geom_angle_publ_flag
N3 Zn1 N3 180.000(1) . 3_577 ?
N3 Zn1 O3 89.74(6) . 3_577 ?
N3 Zn1 O3 90.26(6) 3_577 3_577 ?
N3 Zn1 O3 90.26(6) . . ?
N3 Zn1 O3 89.74(6) 3_577 . ?
O3 Zn1 O3 180.0 3_577 . ?
N3 Zn1 N1 93.06(6) . 4_576 ?
N3 Zn1 N1 86.94(6) 3_577 4_576 ?
O3 Zn1 N1 88.36(6) 3_577 4_576 ?
O3 Zn1 N1 91.64(6) . 4_576 ?
N3 Zn1 N1 86.94(6) . 2_556 ?
N3 Zn1 N1 93.06(6) 3_577 2_556 ?
O3 Zn1 N1 91.64(6) 3_577 2_556 ?
O3 Zn1 N1 88.36(6) . 2_556 ?
N1 Zn1 N1 180.0 4_576 2_556 ?
C6 O1 C7 103.86(14) . . ?
Zn1 O3 H3A 108.2 . . ?
Zn1 O3 H3B 114.3 . . ?
H3A O3 H3B 114.4 . . ?
C3 N1 C4 117.23(17) . . ?
C3 N1 Zn1 123.54(13) . 2_546 ?
C4 N1 Zn1 119.14(13) . 2_546 ?
C6 N2 N3 105.68(15) . . ?
C7 N3 N2 108.49(15) . . ?
C7 N3 Zn1 136.96(13) . . ?
N2 N3 Zn1 114.52(11) . . ?
C10 N4 C9 123.0(3) . . ?
C10 N4 C8 119.8(3) . . ?
C9 N4 C8 117.3(2) . . ?
C2 C1 C5 118.00(18) . . ?
C2 C1 C6 122.24(18) . . ?
C5 C1 C6 119.71(17) . . ?
C3 C2 C1 119.20(19) . . ?
C3 C2 H2 120.4 . . ?
C1 C2 H2 120.4 . . ?
N1 C3 C2 123.25(19) . . ?
N1 C3 H3 118.4 . . ?
C2 C3 H3 118.4 . . ?
N1 C4 C5 123.33(18) . . ?
N1 C4 H4 118.3 . . ?
C5 C4 H4 118.3 . . ?
C4 C5 C1 118.97(18) . . ?
C4 C5 H5 120.5 . . ?
C1 C5 H5 120.5 . . ?
N2 C6 O1 113.14(16) . . ?
N2 C6 C1 126.99(18) . . ?
O1 C6 C1 119.82(16) . . ?
N3 C7 O1 108.79(16) . . ?
N3 C7 S1 130.88(14) . . ?
O1 C7 S1 120.33(14) . . ?
N4 C8 H8A 109.5 . . ?
N4 C8 H8B 109.5 . . ?
H8A C8 H8B 109.5 . . ?
N4 C8 H8C 109.5 . . ?
H8A C8 H8C 109.5 . . ?
H8B C8 H8C 109.5 . . ?
N4 C9 H9A 109.5 . . ?
N4 C9 H9B 109.5 . . ?
H9A C9 H9B 109.5 . . ?
N4 C9 H9C 109.5 . . ?
H9A C9 H9C 109.5 . . ?
H9B C9 H9C 109.5 . . ?
O2 C10 N4 125.9(3) . . ?
O2 C10 H10 117.0 . . ?
N4 C10 H10 117.0 . . ?

loop_
_geom_torsion_atom_site_label_1
_geom_torsion_atom_site_label_2
_geom_torsion_atom_site_label_3
_geom_torsion_atom_site_label_4
_geom_torsion
_geom_torsion_site_symmetry_1
_geom_torsion_site_symmetry_2
_geom_torsion_site_symmetry_3
_geom_torsion_site_symmetry_4
_geom_torsion_publ_flag
C6 N2 N3 C7 1.2(2) . . . . ?
C6 N2 N3 Zn1 -176.90(13) . . . . ?
O3 Zn1 N3 C7 -158.52(19) 3_577 . . . ?
O3 Zn1 N3 C7 21.48(19) . . . . ?
N1 Zn1 N3 C7 -70.2(2) 4_576 . . . ?
N1 Zn1 N3 C7 109.8(2) 2_556 . . . ?
O3 Zn1 N3 N2 18.88(12) 3_577 . . . ?
O3 Zn1 N3 N2 -161.12(12) . . . . ?
N1 Zn1 N3 N2 107.23(13) 4_576 . . . ?
N1 Zn1 N3 N2 -72.77(13) 2_556 . . . ?
C5 C1 C2 C3 -1.0(3) . . . . ?
C6 C1 C2 C3 176.31(19) . . . . ?
C4 N1 C3 C2 0.5(3) . . . . ?
Zn1 N1 C3 C2 -176.09(16) 2_546 . . . ?
C1 C2 C3 N1 0.1(3) . . . . ?
C3 N1 C4 C5 -0.2(3) . . . . ?
Zn1 N1 C4 C5 176.56(16) 2_546 . . . ?
N1 C4 C5 C1 -0.7(3) . . . . ?
C2 C1 C5 C4 1.3(3) . . . . ?
C6 C1 C5 C4 -176.10(18) . . . . ?
N3 N2 C6 O1 0.1(2) . . . . ?
N3 N2 C6 C1 177.32(18) . . . . ?
C7 O1 C6 N2 -1.2(2) . . . . ?
C7 O1 C6 C1 -178.71(17) . . . . ?
C2 C1 C6 N2 179.2(2) . . . . ?
C5 C1 C6 N2 -3.5(3) . . . . ?
C2 C1 C6 O1 -3.7(3) . . . . ?
C5 C1 C6 O1 173.62(17) . . . . ?
N2 N3 C7 O1 -2.0(2) . . . . ?
Zn1 N3 C7 O1 175.49(13) . . . . ?
N2 N3 C7 S1 177.55(15) . . . . ?
Zn1 N3 C7 S1 -4.9(3) . . . . ?
C6 O1 C7 N3 2.0(2) . . . . ?
C6 O1 C7 S1 -177.65(14) . . . . ?
C9 N4 C10 O2 0.8(5) . . . . ?
C8 N4 C10 O2 178.8(3) . . . . ?

_diffrn_measured_fraction_theta_max 0.998
_diffrn_reflns_theta_full        25.00
_diffrn_measured_fraction_theta_full 0.998
_refine_diff_density_max         0.534
_refine_diff_density_min         -0.240
_refine_diff_density_rms         0.045
