####################################################################### 
# 
# This file contains crystal structure data downloaded from the 
# Cambridge Structural Database (CSD) hosted by the Cambridge 
# Crystallographic Data Centre (CCDC).
# 
# Full information about CCDC data access policies and citation 
# guidelines are available at http://www.ccdc.cam.ac.uk/access/V1 
# 
# Audit and citation data items may have been added by the CCDC. 
# Please retain this information to preserve the provenance of 
# this file and to allow appropriate attribution of the data. 
# 
#######################################################################

data_51230c
_audit_block_doi                 10.5517/ccnv9sk
_database_code_depnum_ccdc_archive 'CCDC 621109'
_audit_update_record             
;
2006-09-15 deposited with the CCDC.	2024-07-11 downloaded from the CCDC.
;

_audit_creation_method           SHELXL-97
_chemical_name_systematic        
;
?
;
_chemical_name_common            ?
_chemical_melting_point          ?
_chemical_formula_moiety         ?
_chemical_formula_sum            'C22 H20 Co N2 O6'
_chemical_formula_weight         467.33

loop_
_atom_type_symbol
_atom_type_description
_atom_type_scat_dispersion_real
_atom_type_scat_dispersion_imag
_atom_type_scat_source
C C 0.0033 0.0016 'International Tables Vol C Tables 4.2.6.8 and 6.1.1.4'
H H 0.0000 0.0000 'International Tables Vol C Tables 4.2.6.8 and 6.1.1.4'
N N 0.0061 0.0033 'International Tables Vol C Tables 4.2.6.8 and 6.1.1.4'
O O 0.0106 0.0060 'International Tables Vol C Tables 4.2.6.8 and 6.1.1.4'
Co Co 0.3494 0.9721 'International Tables Vol C Tables 4.2.6.8 and 6.1.1.4'

_symmetry_cell_setting           Monoclinic
_symmetry_space_group_name_H-M   P2(1)/n

loop_
_symmetry_equiv_pos_as_xyz
'x, y, z'
'-x+1/2, y+1/2, -z+1/2'
'-x, -y, -z'
'x-1/2, -y-1/2, z-1/2'

_cell_length_a                   12.7352(16)
_cell_length_b                   8.8125(11)
_cell_length_c                   18.677(2)
_cell_angle_alpha                90.00
_cell_angle_beta                 102.633(2)
_cell_angle_gamma                90.00
_cell_volume                     2045.3(4)
_cell_formula_units_Z            4
_cell_measurement_temperature    293(2)
_cell_measurement_reflns_used    4220
_cell_measurement_theta_min      2.57
_cell_measurement_theta_max      26.25

_exptl_crystal_description       ?
_exptl_crystal_colour            ?
_exptl_crystal_size_max          0.24
_exptl_crystal_size_mid          0.20
_exptl_crystal_size_min          0.12
_exptl_crystal_density_meas      NONE
_exptl_crystal_density_diffrn    1.518
_exptl_crystal_density_method    'not measured'
_exptl_crystal_F_000             964
_exptl_absorpt_coefficient_mu    0.882
_exptl_absorpt_correction_type   MULTI-SCAN
_exptl_absorpt_correction_T_min  0.719704
_exptl_absorpt_correction_T_max  1.000000
_exptl_absorpt_process_details   SADABS

_exptl_special_details           
;
?
;

_diffrn_ambient_temperature      293(2)
_diffrn_radiation_wavelength     0.71073
_diffrn_radiation_type           MoK\a
_diffrn_radiation_source         'fine-focus sealed tube'
_diffrn_radiation_monochromator  graphite
_diffrn_measurement_device_type  'CCD area detector'
_diffrn_measurement_method       'phi and omega scans'
_diffrn_detector_area_resol_mean ?
_diffrn_standards_number         .
_diffrn_standards_interval_count .
_diffrn_standards_interval_time  .
_diffrn_standards_decay_%        .
_diffrn_reflns_number            11214
_diffrn_reflns_av_R_equivalents  0.0315
_diffrn_reflns_av_sigmaI/netI    0.0388
_diffrn_reflns_limit_h_min       -15
_diffrn_reflns_limit_h_max       14
_diffrn_reflns_limit_k_min       -8
_diffrn_reflns_limit_k_max       11
_diffrn_reflns_limit_l_min       -23
_diffrn_reflns_limit_l_max       23
_diffrn_reflns_theta_min         2.18
_diffrn_reflns_theta_max         26.42
_reflns_number_total             4173
_reflns_number_gt                3135
_reflns_threshold_expression     >2sigma(I)

_computing_data_collection       'Bruker SMART'
_computing_cell_refinement       'Bruker SMART'
_computing_data_reduction        'Bruker SAINT'
_computing_structure_solution    'SHELXS-97 (Sheldrick, 1990)'
_computing_structure_refinement  'SHELXL-97 (Sheldrick, 1997)'
_computing_molecular_graphics    'Bruker SHELXTL'
_computing_publication_material  'Bruker SHELXTL'

_refine_special_details          
;
Refinement of F^2^ against ALL reflections. The weighted R-factor wR and
goodness of fit S are based on F^2^, conventional R-factors R are based
on F, with F set to zero for negative F^2^. The threshold expression of
F^2^ > 2sigma(F^2^) is used only for calculating R-factors(gt) etc. and is
not relevant to the choice of reflections for refinement. R-factors based
on F^2^ are statistically about twice as large as those based on F, and R-
factors based on ALL data will be even larger.
;

_refine_ls_structure_factor_coef Fsqd
_refine_ls_matrix_type           full
_refine_ls_weighting_scheme      calc
_refine_ls_weighting_details     
'calc w=1/[\s^2^(Fo^2^)+(0.0513P)^2^+1.4264P] where P=(Fo^2^+2Fc^2^)/3'
_atom_sites_solution_primary     direct
_atom_sites_solution_secondary   difmap
_atom_sites_solution_hydrogens   geom
_refine_ls_hydrogen_treatment    CONSTR
_refine_ls_extinction_method     none
_refine_ls_extinction_coef       ?
_refine_ls_number_reflns         4173
_refine_ls_number_parameters     290
_refine_ls_number_restraints     23
_refine_ls_R_factor_all          0.0625
_refine_ls_R_factor_gt           0.0401
_refine_ls_wR_factor_ref         0.1111
_refine_ls_wR_factor_gt          0.0984
_refine_ls_goodness_of_fit_ref   1.053
_refine_ls_restrained_S_all      1.095
_refine_ls_shift/su_max          0.002
_refine_ls_shift/su_mean         0.000

loop_
_atom_site_label
_atom_site_type_symbol
_atom_site_fract_x
_atom_site_fract_y
_atom_site_fract_z
_atom_site_U_iso_or_equiv
_atom_site_adp_type
_atom_site_occupancy
_atom_site_symmetry_multiplicity
_atom_site_calc_flag
_atom_site_refinement_flags
_atom_site_disorder_assembly
_atom_site_disorder_group
Co1 Co 0.34990(3) 0.77041(4) 0.82655(2) 0.02938(13) Uani 1 1 d . . .
O1 O 0.19049(16) 0.6958(2) 0.79086(12) 0.0358(5) Uani 1 1 d . . .
O2 O 0.21152(16) 0.9160(2) 0.84633(11) 0.0377(5) Uani 1 1 d . . .
O3 O 0.07789(16) 1.0936(2) 0.71824(11) 0.0341(5) Uani 1 1 d . . .
O4 O -0.0011(2) 1.2239(3) 0.79373(16) 0.0647(8) Uani 1 1 d . . .
O5 O 0.3450(2) 0.8970(3) 0.73348(14) 0.0485(6) Uani 1 1 d D . .
N1 N 0.36411(19) 0.6737(3) 0.93277(12) 0.0321(5) Uani 1 1 d . . .
N2 N 0.49756(19) 0.8675(3) 0.88729(13) 0.0346(6) Uani 1 1 d . . .
C1 C 0.1512(2) 0.8144(3) 0.81411(14) 0.0287(6) Uani 1 1 d . . .
C2 C 0.0318(2) 0.8238(3) 0.80552(14) 0.0292(6) Uani 1 1 d . . .
C3 C -0.0224(2) 0.6937(3) 0.82016(17) 0.0377(7) Uani 1 1 d . . .
H3 H 0.0160 0.6044 0.8328 0.045 Uiso 1 1 calc R . .
C4 C -0.1311(3) 0.6948(4) 0.8163(2) 0.0486(9) Uani 1 1 d . . .
H4 H -0.1655 0.6068 0.8264 0.058 Uiso 1 1 calc R . .
C5 C -0.1890(3) 0.8248(4) 0.7976(2) 0.0535(9) Uani 1 1 d . . .
H5 H -0.2630 0.8252 0.7940 0.064 Uiso 1 1 calc R . .
C6 C -0.1365(3) 0.9568(4) 0.78411(19) 0.0459(8) Uani 1 1 d . . .
H6 H -0.1759 1.0457 0.7729 0.055 Uiso 1 1 calc R . .
C7 C -0.0267(2) 0.9587(3) 0.78697(15) 0.0311(6) Uani 1 1 d . . .
C8 C 0.0223(2) 1.1036(3) 0.76600(16) 0.0339(7) Uani 1 1 d . . .
C9 C 0.2953(3) 0.5831(4) 0.95546(18) 0.0425(8) Uani 1 1 d . . .
H9 H 0.2329 0.5554 0.9220 0.051 Uiso 1 1 calc R . .
C10 C 0.3110(3) 0.5268(4) 1.02663(19) 0.0499(9) Uani 1 1 d . . .
H10 H 0.2594 0.4650 1.0402 0.060 Uiso 1 1 calc R . .
C11 C 0.4028(3) 0.5634(4) 1.07603(18) 0.0499(9) Uani 1 1 d . . .
H11 H 0.4152 0.5254 1.1236 0.060 Uiso 1 1 calc R . .
C12 C 0.4792(3) 0.6597(4) 1.05465(16) 0.0408(7) Uani 1 1 d . . .
C13 C 0.5782(3) 0.7064(4) 1.10282(19) 0.0524(9) Uani 1 1 d . . .
H13 H 0.5959 0.6688 1.1505 0.063 Uiso 1 1 calc R . .
C14 C 0.6448(3) 0.8023(4) 1.08041(19) 0.0517(9) Uani 1 1 d . . .
H14 H 0.7079 0.8311 1.1129 0.062 Uiso 1 1 calc R . .
C15 C 0.6217(3) 0.8625(3) 1.00734(18) 0.0412(8) Uani 1 1 d . . .
C16 C 0.6871(3) 0.9673(4) 0.9812(2) 0.0500(9) Uani 1 1 d . . .
H16 H 0.7502 1.0017 1.0119 0.060 Uiso 1 1 calc R . .
C17 C 0.6584(3) 1.0188(4) 0.9108(2) 0.0507(9) Uani 1 1 d . . .
H17 H 0.7020 1.0877 0.8931 0.061 Uiso 1 1 calc R . .
C18 C 0.5628(3) 0.9669(4) 0.86539(19) 0.0445(8) Uani 1 1 d . . .
H18 H 0.5438 1.0037 0.8176 0.053 Uiso 1 1 calc R . .
C19 C 0.5269(2) 0.8168(3) 0.95789(16) 0.0325(6) Uani 1 1 d . . .
C20 C 0.4550(2) 0.7133(3) 0.98203(15) 0.0320(6) Uani 1 1 d . . .
O6 O 0.6161(5) 0.8076(7) 0.6027(3) 0.1482(18) Uani 1 1 d DU . .
H6A H 0.5836 0.7877 0.6349 0.222 Uiso 1 1 calc R . .
C21 C 0.5614(6) 0.7373(10) 0.5342(4) 0.142(3) Uani 1 1 d DU . .
H21A H 0.5883 0.7792 0.4936 0.171 Uiso 1 1 calc R . .
H21B H 0.5745 0.6288 0.5360 0.171 Uiso 1 1 calc R . .
C22 C 0.4470(6) 0.7672(11) 0.5239(5) 0.179(4) Uani 1 1 d DU . .
H22A H 0.4348 0.8330 0.5622 0.268 Uiso 1 1 calc R . .
H22B H 0.4094 0.6733 0.5256 0.268 Uiso 1 1 calc R . .
H22C H 0.4212 0.8149 0.4772 0.268 Uiso 1 1 calc R . .
H5A H 0.398(2) 0.863(4) 0.717(2) 0.081(15) Uiso 1 1 d D . .
H5B H 0.337(3) 0.9926(14) 0.734(2) 0.089(16) Uiso 1 1 d D . .

loop_
_atom_site_aniso_label
_atom_site_aniso_U_11
_atom_site_aniso_U_22
_atom_site_aniso_U_33
_atom_site_aniso_U_23
_atom_site_aniso_U_13
_atom_site_aniso_U_12
Co1 0.0277(2) 0.0289(2) 0.0294(2) 0.00258(16) 0.00153(15) 0.00035(16)
O1 0.0315(11) 0.0268(11) 0.0473(12) -0.0059(9) 0.0046(9) 0.0010(8)
O2 0.0300(11) 0.0333(11) 0.0451(12) -0.0080(9) -0.0022(9) -0.0058(9)
O3 0.0366(12) 0.0321(11) 0.0347(11) -0.0042(8) 0.0102(9) -0.0039(9)
O4 0.092(2) 0.0331(13) 0.088(2) -0.0108(13) 0.0601(17) -0.0040(13)
O5 0.0601(17) 0.0366(14) 0.0519(14) 0.0161(11) 0.0192(12) 0.0130(11)
N1 0.0296(13) 0.0349(13) 0.0307(12) 0.0034(10) 0.0038(10) 0.0024(10)
N2 0.0319(13) 0.0315(14) 0.0393(14) -0.0015(10) 0.0056(11) 0.0006(10)
C1 0.0296(15) 0.0276(15) 0.0267(14) 0.0029(11) 0.0015(11) -0.0012(12)
C2 0.0305(15) 0.0318(15) 0.0246(13) -0.0036(11) 0.0042(11) -0.0041(12)
C3 0.0375(17) 0.0317(17) 0.0434(17) -0.0018(13) 0.0080(14) -0.0028(13)
C4 0.041(2) 0.043(2) 0.064(2) -0.0057(16) 0.0167(16) -0.0148(15)
C5 0.0306(18) 0.062(2) 0.071(2) -0.0074(19) 0.0178(17) -0.0061(17)
C6 0.0339(18) 0.048(2) 0.056(2) -0.0014(16) 0.0102(15) 0.0067(15)
C7 0.0303(15) 0.0341(16) 0.0283(14) -0.0026(11) 0.0049(12) -0.0009(12)
C8 0.0366(17) 0.0318(16) 0.0333(15) 0.0005(12) 0.0079(13) 0.0023(13)
C9 0.0355(18) 0.049(2) 0.0418(18) 0.0083(15) 0.0064(14) 0.0007(14)
C10 0.050(2) 0.054(2) 0.048(2) 0.0145(16) 0.0153(17) 0.0010(17)
C11 0.065(2) 0.050(2) 0.0347(17) 0.0112(15) 0.0122(16) 0.0142(18)
C12 0.051(2) 0.0352(17) 0.0330(16) -0.0031(13) 0.0017(14) 0.0125(15)
C13 0.067(2) 0.047(2) 0.0330(17) -0.0051(15) -0.0113(16) 0.0101(18)
C14 0.053(2) 0.044(2) 0.046(2) -0.0112(15) -0.0158(16) 0.0033(17)
C15 0.0383(18) 0.0313(17) 0.0479(19) -0.0135(14) -0.0043(14) 0.0057(13)
C16 0.0388(19) 0.043(2) 0.062(2) -0.0177(17) -0.0015(16) -0.0013(15)
C17 0.041(2) 0.041(2) 0.073(3) -0.0121(17) 0.0189(18) -0.0113(15)
C18 0.0418(19) 0.0421(19) 0.0501(19) -0.0009(15) 0.0110(15) -0.0037(15)
C19 0.0318(16) 0.0271(15) 0.0361(16) -0.0060(12) 0.0023(12) 0.0065(12)
C20 0.0341(16) 0.0288(15) 0.0310(14) -0.0029(12) 0.0028(12) 0.0091(12)
O6 0.143(4) 0.198(5) 0.117(3) -0.002(4) 0.056(3) -0.067(4)
C21 0.122(5) 0.207(7) 0.108(5) -0.003(5) 0.050(4) -0.006(5)
C22 0.137(6) 0.244(8) 0.140(6) 0.063(6) -0.003(5) -0.011(6)

_geom_special_details            
;
All esds (except the esd in the dihedral angle between two l.s. planes)
are estimated using the full covariance matrix. The cell esds are taken
into account individually in the estimation of esds in distances, angles
and torsion angles; correlations between esds in cell parameters are only
used when they are defined by crystal symmetry. An approximate (isotropic)
treatment of cell esds is used for estimating esds involving l.s. planes.
;

loop_
_geom_bond_atom_site_label_1
_geom_bond_atom_site_label_2
_geom_bond_distance
_geom_bond_site_symmetry_2
_geom_bond_publ_flag
Co1 O5 2.055(2) . ?
Co1 O3 2.076(2) 2_546 ?
Co1 O1 2.099(2) . ?
Co1 N1 2.130(2) . ?
Co1 N2 2.150(2) . ?
Co1 O2 2.275(2) . ?
Co1 C1 2.519(3) . ?
O1 C1 1.275(3) . ?
O2 C1 1.246(3) . ?
O3 C8 1.257(3) . ?
O3 Co1 2.076(2) 2_556 ?
O4 C8 1.244(4) . ?
O5 H5A 0.852(10) . ?
O5 H5B 0.848(10) . ?
N1 C9 1.322(4) . ?
N1 C20 1.357(4) . ?
N2 C18 1.332(4) . ?
N2 C19 1.365(4) . ?
C1 C2 1.496(4) . ?
C2 C3 1.396(4) . ?
C2 C7 1.406(4) . ?
C3 C4 1.369(4) . ?
C3 H3 0.9300 . ?
C4 C5 1.366(5) . ?
C4 H4 0.9300 . ?
C5 C6 1.392(5) . ?
C5 H5 0.9300 . ?
C6 C7 1.388(4) . ?
C6 H6 0.9300 . ?
C7 C8 1.510(4) . ?
C9 C10 1.392(4) . ?
C9 H9 0.9300 . ?
C10 C11 1.361(5) . ?
C10 H10 0.9300 . ?
C11 C12 1.412(5) . ?
C11 H11 0.9300 . ?
C12 C20 1.405(4) . ?
C12 C13 1.440(5) . ?
C13 C14 1.328(6) . ?
C13 H13 0.9300 . ?
C14 C15 1.433(5) . ?
C14 H14 0.9300 . ?
C15 C16 1.401(5) . ?
C15 C19 1.409(4) . ?
C16 C17 1.363(5) . ?
C16 H16 0.9300 . ?
C17 C18 1.401(5) . ?
C17 H17 0.9300 . ?
C18 H18 0.9300 . ?
C19 C20 1.434(4) . ?
O6 C21 1.454(7) . ?
O6 H6A 0.8200 . ?
C21 C22 1.452(7) . ?
C21 H21A 0.9700 . ?
C21 H21B 0.9700 . ?
C22 H22A 0.9600 . ?
C22 H22B 0.9600 . ?
C22 H22C 0.9600 . ?

loop_
_geom_angle_atom_site_label_1
_geom_angle_atom_site_label_2
_geom_angle_atom_site_label_3
_geom_angle
_geom_angle_site_symmetry_1
_geom_angle_site_symmetry_3
_geom_angle_publ_flag
O5 Co1 O3 90.06(9) . 2_546 ?
O5 Co1 O1 93.03(10) . . ?
O3 Co1 O1 96.88(8) 2_546 . ?
O5 Co1 N1 170.28(10) . . ?
O3 Co1 N1 96.90(9) 2_546 . ?
O1 Co1 N1 92.85(9) . . ?
O5 Co1 N2 95.26(10) . . ?
O3 Co1 N2 95.62(9) 2_546 . ?
O1 Co1 N2 164.97(9) . . ?
N1 Co1 N2 77.37(9) . . ?
O5 Co1 O2 87.11(9) . . ?
O3 Co1 O2 156.36(8) 2_546 . ?
O1 Co1 O2 59.89(7) . . ?
N1 Co1 O2 89.16(8) . . ?
N2 Co1 O2 108.01(8) . . ?
O5 Co1 C1 89.66(9) . . ?
O3 Co1 C1 127.06(9) 2_546 . ?
O1 Co1 C1 30.34(8) . . ?
N1 Co1 C1 91.51(9) . . ?
N2 Co1 C1 137.08(9) . . ?
O2 Co1 C1 29.56(8) . . ?
C1 O1 Co1 93.39(16) . . ?
C1 O2 Co1 86.18(17) . . ?
C8 O3 Co1 126.90(19) . 2_556 ?
Co1 O5 H5A 103(3) . . ?
Co1 O5 H5B 121(3) . . ?
H5A O5 H5B 117(2) . . ?
C9 N1 C20 117.7(3) . . ?
C9 N1 Co1 127.8(2) . . ?
C20 N1 Co1 114.50(19) . . ?
C18 N2 C19 117.0(3) . . ?
C18 N2 Co1 129.2(2) . . ?
C19 N2 Co1 113.76(19) . . ?
O2 C1 O1 120.5(3) . . ?
O2 C1 C2 121.1(3) . . ?
O1 C1 C2 118.3(2) . . ?
O2 C1 Co1 64.26(15) . . ?
O1 C1 Co1 56.27(14) . . ?
C2 C1 Co1 174.3(2) . . ?
C3 C2 C7 119.0(3) . . ?
C3 C2 C1 117.9(3) . . ?
C7 C2 C1 123.0(2) . . ?
C4 C3 C2 121.4(3) . . ?
C4 C3 H3 119.3 . . ?
C2 C3 H3 119.3 . . ?
C5 C4 C3 120.2(3) . . ?
C5 C4 H4 119.9 . . ?
C3 C4 H4 119.9 . . ?
C4 C5 C6 119.5(3) . . ?
C4 C5 H5 120.2 . . ?
C6 C5 H5 120.2 . . ?
C7 C6 C5 121.6(3) . . ?
C7 C6 H6 119.2 . . ?
C5 C6 H6 119.2 . . ?
C6 C7 C2 118.3(3) . . ?
C6 C7 C8 118.1(3) . . ?
C2 C7 C8 123.5(3) . . ?
O4 C8 O3 125.4(3) . . ?
O4 C8 C7 117.5(3) . . ?
O3 C8 C7 116.9(2) . . ?
N1 C9 C10 123.7(3) . . ?
N1 C9 H9 118.2 . . ?
C10 C9 H9 118.2 . . ?
C11 C10 C9 119.1(3) . . ?
C11 C10 H10 120.5 . . ?
C9 C10 H10 120.5 . . ?
C10 C11 C12 119.6(3) . . ?
C10 C11 H11 120.2 . . ?
C12 C11 H11 120.2 . . ?
C20 C12 C11 117.1(3) . . ?
C20 C12 C13 118.9(3) . . ?
C11 C12 C13 123.9(3) . . ?
C14 C13 C12 121.2(3) . . ?
C14 C13 H13 119.4 . . ?
C12 C13 H13 119.4 . . ?
C13 C14 C15 121.6(3) . . ?
C13 C14 H14 119.2 . . ?
C15 C14 H14 119.2 . . ?
C16 C15 C19 116.7(3) . . ?
C16 C15 C14 124.2(3) . . ?
C19 C15 C14 119.1(3) . . ?
C17 C16 C15 120.1(3) . . ?
C17 C16 H16 120.0 . . ?
C15 C16 H16 120.0 . . ?
C16 C17 C18 119.3(3) . . ?
C16 C17 H17 120.3 . . ?
C18 C17 H17 120.3 . . ?
N2 C18 C17 123.2(3) . . ?
N2 C18 H18 118.4 . . ?
C17 C18 H18 118.4 . . ?
N2 C19 C15 123.7(3) . . ?
N2 C19 C20 117.0(2) . . ?
C15 C19 C20 119.4(3) . . ?
N1 C20 C12 122.8(3) . . ?
N1 C20 C19 117.3(2) . . ?
C12 C20 C19 119.8(3) . . ?
C21 O6 H6A 109.5 . . ?
C22 C21 O6 108.2(7) . . ?
C22 C21 H21A 110.1 . . ?
O6 C21 H21A 110.1 . . ?
C22 C21 H21B 110.1 . . ?
O6 C21 H21B 110.1 . . ?
H21A C21 H21B 108.4 . . ?
C21 C22 H22A 109.5 . . ?
C21 C22 H22B 109.5 . . ?
H22A C22 H22B 109.5 . . ?
C21 C22 H22C 109.5 . . ?
H22A C22 H22C 109.5 . . ?
H22B C22 H22C 109.5 . . ?

loop_
_geom_torsion_atom_site_label_1
_geom_torsion_atom_site_label_2
_geom_torsion_atom_site_label_3
_geom_torsion_atom_site_label_4
_geom_torsion
_geom_torsion_site_symmetry_1
_geom_torsion_site_symmetry_2
_geom_torsion_site_symmetry_3
_geom_torsion_site_symmetry_4
_geom_torsion_publ_flag
O5 Co1 O1 C1 -84.13(17) . . . . ?
O3 Co1 O1 C1 -174.56(16) 2_546 . . . ?
N1 Co1 O1 C1 88.13(17) . . . . ?
N2 Co1 O1 C1 39.4(4) . . . . ?
O2 Co1 O1 C1 0.76(15) . . . . ?
O5 Co1 O2 C1 94.42(17) . . . . ?
O3 Co1 O2 C1 10.9(3) 2_546 . . . ?
O1 Co1 O2 C1 -0.78(15) . . . . ?
N1 Co1 O2 C1 -94.56(17) . . . . ?
N2 Co1 O2 C1 -170.98(16) . . . . ?
O5 Co1 N1 C9 135.6(6) . . . . ?
O3 Co1 N1 C9 -88.9(3) 2_546 . . . ?
O1 Co1 N1 C9 8.4(3) . . . . ?
N2 Co1 N1 C9 176.8(3) . . . . ?
O2 Co1 N1 C9 68.2(3) . . . . ?
C1 Co1 N1 C9 38.7(3) . . . . ?
O5 Co1 N1 C20 -43.7(7) . . . . ?
O3 Co1 N1 C20 91.8(2) 2_546 . . . ?
O1 Co1 N1 C20 -170.9(2) . . . . ?
N2 Co1 N1 C20 -2.4(2) . . . . ?
O2 Co1 N1 C20 -111.1(2) . . . . ?
C1 Co1 N1 C20 -140.5(2) . . . . ?
O5 Co1 N2 C18 -4.5(3) . . . . ?
O3 Co1 N2 C18 86.1(3) 2_546 . . . ?
O1 Co1 N2 C18 -127.7(4) . . . . ?
N1 Co1 N2 C18 -178.1(3) . . . . ?
O2 Co1 N2 C18 -93.2(3) . . . . ?
C1 Co1 N2 C18 -99.7(3) . . . . ?
O5 Co1 N2 C19 176.1(2) . . . . ?
O3 Co1 N2 C19 -93.3(2) 2_546 . . . ?
O1 Co1 N2 C19 52.9(4) . . . . ?
N1 Co1 N2 C19 2.54(19) . . . . ?
O2 Co1 N2 C19 87.5(2) . . . . ?
C1 Co1 N2 C19 80.9(2) . . . . ?
Co1 O2 C1 O1 1.3(2) . . . . ?
Co1 O2 C1 C2 177.7(2) . . . . ?
Co1 O1 C1 O2 -1.4(3) . . . . ?
Co1 O1 C1 C2 -177.9(2) . . . . ?
O5 Co1 C1 O2 -84.73(17) . . . . ?
O3 Co1 C1 O2 -174.56(14) 2_546 . . . ?
O1 Co1 