####################################################################### 
# 
# This file contains crystal structure data downloaded from the 
# Cambridge Structural Database (CSD) hosted by the Cambridge 
# Crystallographic Data Centre (CCDC).
# 
# Full information about CCDC data access policies and citation 
# guidelines are available at http://www.ccdc.cam.ac.uk/access/V1 
# 
# Audit and citation data items may have been added by the CCDC. 
# Please retain this information to preserve the provenance of 
# this file and to allow appropriate attribution of the data. 
# 
#######################################################################

data_try
_audit_block_doi                 10.5517/cc9b4b2
_database_code_depnum_ccdc_archive 'CCDC 277863'
loop_
_citation_id
_citation_doi
_citation_year
1 10.1002/anie.200502413 2006
_audit_update_record             
;
2005-07-08 deposited with the CCDC.	2024-07-11 downloaded from the CCDC.
;

_audit_creation_method           SHELXL
_chemical_name_systematic        
;
?
;
_chemical_name_common            ?
_chemical_formula_moiety         ?
_chemical_formula_structural     ?
_chemical_formula_analytical     ?
_chemical_formula_sum            'C13 H0 N3 O16 Zn2'
_chemical_formula_weight         584.90
_chemical_melting_point          ?
_chemical_compound_source        ?

loop_
_atom_type_symbol
_atom_type_description
_atom_type_scat_dispersion_real
_atom_type_scat_dispersion_imag
_atom_type_scat_source
C C 0.0033 0.0016 'International Tables Vol C Tables 4.2.6.8 and 6.1.1.4'
H H 0.0000 0.0000 'International Tables Vol C Tables 4.2.6.8 and 6.1.1.4'
N N 0.0061 0.0033 'International Tables Vol C Tables 4.2.6.8 and 6.1.1.4'
O O 0.0106 0.0060 'International Tables Vol C Tables 4.2.6.8 and 6.1.1.4'
Zn Zn 0.2839 1.4301 'International Tables Vol C Tables 4.2.6.8 and 6.1.1.4'

_symmetry_cell_setting           Monoclinic
_symmetry_space_group_name_H-M   P2(1)/m

loop_
_symmetry_equiv_pos_as_xyz
'x, y, z'
'-x, y+1/2, -z'
'-x, -y, -z'
'x, -y-1/2, z'

_cell_length_a                   8.7924(9)
_cell_length_b                   35.595(4)
_cell_length_c                   9.2583(10)
_cell_angle_alpha                90.00
_cell_angle_beta                 96.602(2)
_cell_angle_gamma                90.00
_cell_volume                     2878.3(5)
_cell_formula_units_Z            4
_cell_measurement_temperature    293(2)
_cell_measurement_reflns_used    ?
_cell_measurement_theta_min      ?
_cell_measurement_theta_max      ?

_exptl_crystal_description       block
_exptl_crystal_colour            colorless
_exptl_crystal_size_max          0.28
_exptl_crystal_size_mid          0.26
_exptl_crystal_size_min          0.22
_exptl_crystal_density_meas      ?
_exptl_crystal_density_diffrn    1.350
_exptl_crystal_density_method    ?
_exptl_crystal_F_000             1148
_exptl_absorpt_coefficient_mu    1.730
_exptl_absorpt_correction_type   empirical
_exptl_absorpt_correction_T_min  0.756540
_exptl_absorpt_correction_T_max  1.000000

_exptl_special_details           
;
?
;

_diffrn_ambient_temperature      293(2)
_diffrn_radiation_wavelength     0.71073
_diffrn_radiation_type           MoK\a
_diffrn_radiation_source         'fine-focus sealed tube'
_diffrn_radiation_monochromator  graphite
_diffrn_measurement_device       ?
_diffrn_measurement_method       ?
_diffrn_standards_number         ?
_diffrn_standards_interval_count ?
_diffrn_standards_interval_time  ?
_diffrn_standards_decay_%        ?
_diffrn_reflns_number            11941
_diffrn_reflns_av_R_equivalents  0.2564
_diffrn_reflns_av_sigmaI/netI    0.3437
_diffrn_reflns_limit_h_min       -9
_diffrn_reflns_limit_h_max       9
_diffrn_reflns_limit_k_min       -35
_diffrn_reflns_limit_k_max       39
_diffrn_reflns_limit_l_min       -10
_diffrn_reflns_limit_l_max       9
_diffrn_reflns_theta_min         1.14
_diffrn_reflns_theta_max         23.37
_reflns_number_total             4229
_reflns_number_observed          1281
_reflns_observed_criterion       >2sigma(I)

_computing_data_collection       ?
_computing_cell_refinement       ?
_computing_data_reduction        ?
_computing_structure_solution    'SHELXS-86 (Sheldrick, 1990)'
_computing_structure_refinement  'SHELXL-93 (Sheldrick, 1993)'
_computing_molecular_graphics    ?
_computing_publication_material  ?

_refine_special_details          
;
Refinement on F^2^ for ALL reflections except for 0 with very negative F^2^
or flagged by the user for potential systematic errors. Weighted R-factors
wR and all goodnesses of fit S are based on F^2^, conventional R-factors R
are based on F, with F set to zero for negative F^2^. The observed criterion
of F^2^ > 2sigma(F^2^) is used only for calculating _R_factor_obs etc. and is
not relevant to the choice of reflections for refinement. R-factors based
on F^2^ are statistically about twice as large as those based on F, and R-
factors based on ALL data will be even larger.
;

_refine_ls_structure_factor_coef Fsqd
_refine_ls_matrix_type           full
_refine_ls_weighting_scheme      
'calc w=1/[\s^2^(Fo^2^)+(0.1000P)^2^+0.0000P] where P=(Fo^2^+2Fc^2^)/3'
_atom_sites_solution_primary     direct
_atom_sites_solution_secondary   difmap
_atom_sites_solution_hydrogens   geom
_refine_ls_hydrogen_treatment    ?
_refine_ls_extinction_method     none
_refine_ls_extinction_coef       ?
_refine_ls_number_reflns         4229
_refine_ls_number_parameters     147
_refine_ls_number_restraints     0
_refine_ls_R_factor_all          0.3567
_refine_ls_R_factor_obs          0.1449
_refine_ls_wR_factor_all         0.3901
_refine_ls_wR_factor_obs         0.3085
_refine_ls_goodness_of_fit_all   1.334
_refine_ls_goodness_of_fit_obs   1.946
_refine_ls_restrained_S_all      1.334
_refine_ls_restrained_S_obs      1.946
_refine_ls_shift/esd_max         0.000
_refine_ls_shift/esd_mean        0.000

loop_
_atom_site_label
_atom_site_type_symbol
_atom_site_fract_x
_atom_site_fract_y
_atom_site_fract_z
_atom_site_U_iso_or_equiv
_atom_site_thermal_displace_type
_atom_site_occupancy
_atom_site_calc_flag
_atom_site_refinement_flags
_atom_site_disorder_group
Zn1 Zn 0.2112(3) 0.40684(8) 0.4558(4) 0.0379(10) Uiso 1 d . .
Zn2 Zn 0.2209(3) 0.32637(8) 0.9598(4) 0.0409(10) Uiso 1 d . .
O14 O 0.0943(17) 0.2815(4) 0.8676(18) 0.040(5) Uiso 1 d . .
O13 O 0.3534(17) 0.2813(4) 1.0480(18) 0.042(5) Uiso 1 d . .
O12 O 0.3437(17) 0.3674(4) 0.5835(19) 0.041(5) Uiso 1 d . .
O11 O 0.0783(16) 0.3988(4) 0.6273(17) 0.032(4) Uiso 1 d . .
O10 O 0.0785(17) 0.4504(4) 0.3621(18) 0.041(5) Uiso 1 d . .
O9 O 0.3480(17) 0.3998(4) 0.2855(18) 0.041(5) Uiso 1 d . .
O8 O 0.3306(16) 0.4520(4) 0.5628(18) 0.042(5) Uiso 1 d . .
O7 O 0.0792(17) 0.3662(4) 0.3285(18) 0.037(5) Uiso 1 d . .
O6 O 0.0858(16) 0.3663(4) 0.8355(18) 0.033(5) Uiso 1 d . .
O5 O 0.3559(18) 0.3643(5) 1.0816(20) 0.050(5) Uiso 1 d . .
O4 O 0.0895(18) 0.3325(4) 1.1327(19) 0.043(5) Uiso 1 d . .
O3 O 0.3487(19) 0.3333(5) 0.7876(20) 0.052(5) Uiso 1 d . .
C8 C 0.2921(43) 0.2500 1.0147(41) 0.041(11) Uiso 1 d S .
C7 C 0.1364(27) 0.3767(7) 0.7216(29) 0.033(7) Uiso 1 d . .
O2 O 0.0865(18) 0.5128(4) 0.3515(18) 0.044(5) Uiso 1 d . .
C6 C 0.2909(26) 0.3592(7) 0.6948(29) 0.031(7) Uiso 1 d . .
C5 C 0.1465(40) 0.2500 0.9129(40) 0.035(10) Uiso 1 d S .
C4 C 0.1433(27) 0.3566(7) 0.2227(29) 0.033(7) Uiso 1 d . .
C3 C 0.2723(29) 0.4835(7) 0.5163(29) 0.037(7) Uiso 1 d . .
C2 C 0.2937(26) 0.3754(6) 0.1882(29) 0.031(7) Uiso 1 d . .
O1 O 0.3084(20) 0.5127(5) 0.5841(20) 0.060(6) Uiso 1 d . .
C1 C 0.1357(28) 0.4820(7) 0.4006(28) 0.035(7) Uiso 1 d . .
N3 N 0.7836(24) 0.4180(6) 0.5243(25) 0.055(6) Uiso 1 d . .
N2 N 0.6563(22) 0.3463(6) 0.5611(23) 0.047(6) Uiso 1 d . .
N1 N -0.0970(27) 0.5168(7) 0.0947(27) 0.073(8) Uiso 1 d . .
C14 C 0.7478(30) 0.3565(8) 0.4343(31) 0.062(9) Uiso 1 d . .
O100 O 0.5638(28) 0.5229(7) 0.7865(30) 0.017(7) Uiso 0.50 d P .
C13 C 0.6838(32) 0.4123(8) 0.6424(34) 0.069(10) Uiso 1 d . .
C12 C 0.6970(31) 0.3677(8) 0.6851(33) 0.067(10) Uiso 1 d . .
C11 C 0.7280(29) 0.3952(8) 0.3884(30) 0.053(8) Uiso 1 d . .
C10 C 0.0267(33) 0.4592(8) -0.0036(33) 0.068(10) Uiso 1 d . .
C9 C -0.1292(35) 0.4774(9) 0.0387(35) 0.077(10) Uiso 1 d . .
O200 O 0.3650(31) 0.4491(8) 0.8643(33) 0.034(9) Uiso 0.50 d P .
O400 O 0.6279(39) 0.4012(10) 1.0216(40) 0.063(11) Uiso 0.50 d P .
O300 O 0.4351(42) 0.3013(10) 1.3514(46) 0.083(14) Uiso 0.50 d P .

loop_
_atom_site_aniso_label
_atom_site_aniso_U_11
_atom_site_aniso_U_22
_atom_site_aniso_U_33
_atom_site_aniso_U_23
_atom_site_aniso_U_13
_atom_site_aniso_U_12
? ? ? ? ? ? ?

_geom_special_details            
;
All esds (except the esd in the dihedral angle between two l.s. planes)
are estimated using the full covariance matrix. The cell esds are taken
into account individually in the estimation of esds in distances, angles
and torsion angles; correlations between esds in cell parameters are only
used when they are defined by crystal symmetry. An approximate (isotropic)
treatment of cell esds is used for estimating esds involving l.s. planes.
;

loop_
_geom_bond_atom_site_label_1
_geom_bond_atom_site_label_2
_geom_bond_distance
_geom_bond_site_symmetry_2
_geom_bond_publ_flag
Zn1 O10 2.071(15) . ?
Zn1 O11 2.10(2) . ?
Zn1 O12 2.10(2) . ?
Zn1 O8 2.10(2) . ?
Zn1 O9 2.10(2) . ?
Zn1 O7 2.12(2) . ?
Zn2 O5 2.05(2) . ?
Zn2 O3 2.07(2) . ?
Zn2 O14 2.07(2) . ?
Zn2 O4 2.09(2) . ?
Zn2 O13 2.09(2) . ?
Zn2 O6 2.108(15) . ?
O14 C5 1.26(2) . ?
O13 C8 1.26(2) . ?
O12 C6 1.21(3) . ?
O11 C7 1.24(2) . ?
O10 C1 1.27(2) . ?
O9 C2 1.30(3) . ?
O8 C3 1.29(2) . ?
O7 C4 1.23(3) . ?
O6 C7 1.25(3) . ?
O5 C2 1.25(3) 1_556 ?
O4 C4 1.25(2) 1_556 ?
O3 C6 1.32(3) . ?
C8 O13 1.26(2) 4_565 ?
C8 C5 1.50(4) . ?
C7 C6 1.54(3) . ?
O2 C1 1.24(2) . ?
C5 O14 1.26(2) 4_565 ?
C4 O4 1.25(2) 1_554 ?
C4 C2 1.55(3) . ?
C3 O1 1.24(2) . ?
C3 C1 1.52(3) . ?
C2 O5 1.25(3) 1_554 ?
N3 C13 1.49(4) . ?
N3 C11 1.53(3) . ?
N2 C12 1.39(3) . ?
N2 C14 1.54(3) . ?
N1 C10 1.39(3) 3_565 ?
N1 C9 1.51(3) . ?
C14 C11 1.45(3) . ?
C13 C12 1.64(4) . ?
C10 N1 1.39(3) 3_565 ?
C10 C9 1.61(4) . ?

loop_
_geom_angle_atom_site_label_1
_geom_angle_atom_site_label_2
_geom_angle_atom_site_label_3
_geom_angle
_geom_angle_site_symmetry_1
_geom_angle_site_symmetry_3
_geom_angle_publ_flag
O10 Zn1 O11 94.8(6) . . ?
O10 Zn1 O12 170.5(7) . . ?
O11 Zn1 O12 78.7(6) . . ?
O10 Zn1 O8 81.5(6) . . ?
O11 Zn1 O8 92.2(6) . . ?
O12 Zn1 O8 91.8(6) . . ?
O10 Zn1 O9 96.7(7) . . ?
O11 Zn1 O9 165.3(6) . . ?
O12 Zn1 O9 90.8(7) . . ?
O8 Zn1 O9 98.4(6) . . ?
O10 Zn1 O7 91.9(6) . . ?
O11 Zn1 O7 90.6(6) . . ?
O12 Zn1 O7 95.1(6) . . ?
O8 Zn1 O7 172.9(6) . . ?
O9 Zn1 O7 80.0(6) . . ?
O5 Zn2 O3 90.8(7) . . ?
O5 Zn2 O14 169.7(7) . . ?
O3 Zn2 O14 95.0(7) . . ?
O5 Zn2 O4 81.2(7) . . ?
O3 Zn2 O4 167.2(6) . . ?
O14 Zn2 O4 94.4(7) . . ?
O5 Zn2 O13 91.7(6) . . ?
O3 Zn2 O13 93.7(7) . . ?
O14 Zn2 O13 79.5(6) . . ?
O4 Zn2 O13 96.5(7) . . ?
O5 Zn2 O6 96.3(6) . . ?
O3 Zn2 O6 79.7(7) . . ?
O14 Zn2 O6 93.0(6) . . ?
O4 Zn2 O6 91.3(6) . . ?
O13 Zn2 O6 169.6(7) . . ?
C5 O14 Zn2 112.9(17) . . ?
C8 O13 Zn2 112.3(18) . . ?
C6 O12 Zn1 113.4(16) . . ?
C7 O11 Zn1 113.5(16) . . ?
C1 O10 Zn1 111.2(15) . . ?
C2 O9 Zn1 113.7(15) . . ?
C3 O8 Zn1 110.5(15) . . ?
C4 O7 Zn1 111.1(15) . . ?
C7 O6 Zn2 115.4(15) . . ?
C2 O5 Zn2 111.4(16) 1_556 . ?
C4 O4 Zn2 112.4(17) 1_556 . ?
C6 O3 Zn2 112.4(16) . . ?
O13 C8 O13 124.2(35) . 4_565 ?
O13 C8 C5 117.6(17) . . ?
O13 C8 C5 117.6(17) 4_565 . ?
O11 C7 O6 128.7(24) . . ?
O11 C7 C6 116.3(25) . . ?
O6 C7 C6 115.0(22) . . ?
O12 C6 O3 124.3(23) . . ?
O12 C6 C7 118.0(23) . . ?
O3 C6 C7 117.3(24) . . ?
O14 C5 O14 124.9(33) 4_565 . ?
O14 C5 C8 117.3(16) 4_565 . ?
O14 C5 C8 117.3(16) . . ?
O7 C4 O4 123.2(24) . 1_554 ?
O7 C4 C2 121.6(23) . . ?
O4 C4 C2 115.2(25) 1_554 . ?
O1 C3 O8 119.6(24) . . ?
O1 C3 C1 121.6(23) . . ?
O8 C3 C1 117.4(22) . . ?
O5 C2 O9 126.8(23) 1_554 . ?
O5 C2 C4 119.4(22) 1_554 . ?
O9 C2 C4 113.5(24) . . ?
O2 C1 O10 124.7(23) . . ?
O2 C1 C3 116.2(22) . . ?
O10 C1 C3 119.1(22) . . ?
C13 N3 C11 111.9(21) . . ?
C12 N2 C14 113.1(21) . . ?
C10 N1 C9 116.0(26) 3_565 . ?
C11 C14 N2 113.2(23) . . ?
N3 C13 C12 106.0(23) . . ?
N2 C12 C13 109.1(23) . . ?
C14 C11 N3 104.2(22) . . ?
N1 C10 C9 110.6(24) 3_565 . ?
N1 C9 C10 109.1(24) . . ?

_refine_diff_density_max         1.628
_refine_diff_density_min         -0.731
_refine_diff_density_rms         0.247


