
#######################################################################
#
#                 Cambridge Crystallographic Data Centre
#                                CCDC
#
#######################################################################
#
# If this CIF has been generated from an entry in the Cambridge
# Structural Database, then it will include bibliographic, chemical,
# crystal, experimental, refinement or atomic coordinate data resulting
# from the CCDC's data processing and validation procedures.
#
#######################################################################

data_CSD_CIF_METPOT
_audit_creation_date 1976-02-16
_audit_creation_method CSD-ConQuest-V1
_database_code_CSD METPOT
_database_code_depnum_ccdc_archive 'CCDC 1211519'
_chemical_formula_sum 'C1 H3 K1'
_chemical_formula_moiety
;
C1 H3 1-,K1 1+
;
_journal_coden_Cambridge 48
_journal_volume 103
_journal_year 1970
_journal_page_first 265
_journal_name_full 'Chem.Ber. '
loop_
_publ_author_name
"E.Weiss"
"G.Sauermann"
_chemical_name_systematic
;
Methyl potassium
;
_chemical_name_common
;
Teaching Subset: Fundamental Chemistry
;
_cell_volume    131.280
_exptl_crystal_density_diffrn 1.37
_exptl_special_details
;
powder data

;
_diffrn_ambient_temperature ?
_diffrn_special_details
;
The study was carried out at room temperature,in the range 283-303K

;
#These two values have been output from a single CSD field.
_refine_ls_R_factor_gt 0.127
_refine_ls_wR_factor_gt 0.127
_symmetry_cell_setting hexagonal
_symmetry_space_group_name_H-M 'P 63/m m c'
_symmetry_Int_Tables_number 194
loop_
_symmetry_equiv_pos_site_id
_symmetry_equiv_pos_as_xyz
1 x,y,z
2 -y,x-y,z
3 -x+y,-x,z
4 -x,-y,1/2+z
5 y,-x+y,1/2+z
6 x-y,x,1/2+z
7 y,x,-z
8 x-y,-y,-z
9 -x,-x+y,-z
10 -y,-x,1/2-z
11 -x+y,y,1/2-z
12 x,x-y,1/2-z
13 -x,-y,-z
14 y,-x+y,-z
15 x-y,x,-z
16 x,y,-1/2-z
17 -y,x-y,-1/2-z
18 -x+y,-x,-1/2-z
19 -y,-x,z
20 -x+y,y,z
21 x,x-y,z
22 y,x,-1/2+z
23 x-y,-y,-1/2+z
24 -x,-x+y,-1/2+z
_cell_length_a 4.278
_cell_length_b 4.278
_cell_length_c 8.283
_cell_angle_alpha 90
_cell_angle_beta 90
_cell_angle_gamma 120
_cell_formula_units_Z 2
loop_
_atom_type_symbol
_atom_type_radius_bond
C 0.68
K 1.33
loop_
_atom_site_label
_atom_site_type_symbol
_atom_site_fract_x
_atom_site_fract_y
_atom_site_fract_z
C1 C 0.33333 -0.33333 0.25000
K1 K 0.00000 0.00000 0.00000
#END
