####################################################################### 
# 
# This file contains crystal structure data downloaded from the 
# Cambridge Structural Database (CSD) hosted by the Cambridge 
# Crystallographic Data Centre (CCDC).
# 
# Full information about CCDC data access policies and citation 
# guidelines are available at http://www.ccdc.cam.ac.uk/access/V1 
# 
# Audit and citation data items may have been added by the CCDC. 
# Please retain this information to preserve the provenance of 
# this file and to allow appropriate attribution of the data. 
# 
#######################################################################

data_u:\keller~1\comple~1\bispyr~1\281g\work\jmk281g
_audit_block_doi                 10.5517/cc5jtt9
_database_code_depnum_ccdc_archive 'CCDC 165131'
loop_
_citation_id
_citation_doi
_citation_year
1 10.1016/S0020-1693(01)00538-2 2001
_audit_update_record             
;
2001-06-08 deposited with the CCDC.	2024-07-11 downloaded from the CCDC.
;

_chemical_name_systematic        
;
Cantena-[(mu!2$-trans-1,2-bis(4-pyridyl)-ethyelene)-
bis-(triphenylphosphino)-copper(I) hexafluorphosphate]
tetrahydrofuran chloroform solvate
;
_chemical_name_common            ?
_chemical_melting_point          ?
_chemical_formula_moiety         
;
(C48 H51 Cu1 N2 P2 +1)n n(P1 F6) n(C4 H8 O1) 3n(C1 H1 Cl3) 
;
_chemical_formula_sum            'C55 H51 Cl9 Cu F6 N2 O P3'
_chemical_formula_weight         1345.48

loop_
_atom_type_symbol
_atom_type_description
_atom_type_scat_dispersion_real
_atom_type_scat_dispersion_imag
_atom_type_scat_source
C C 0.0033 0.0016 'International Tables Vol C Tables 4.2.6.8 and 6.1.1.4'
H H 0.0000 0.0000 'International Tables Vol C Tables 4.2.6.8 and 6.1.1.4'
N N 0.0061 0.0033 'International Tables Vol C Tables 4.2.6.8 and 6.1.1.4'
O O 0.0106 0.0060 'International Tables Vol C Tables 4.2.6.8 and 6.1.1.4'
Cl Cl 0.1484 0.1585 'International Tables Vol C Tables 4.2.6.8 and 6.1.1.4'
Cu Cu 0.3201 1.2651 'International Tables Vol C Tables 4.2.6.8 and 6.1.1.4'
P P 0.1023 0.0942 'International Tables Vol C Tables 4.2.6.8 and 6.1.1.4'
F F 0.0171 0.0103 'International Tables Vol C Tables 4.2.6.8 and 6.1.1.4'

_symmetry_cell_setting           Triclinic
_symmetry_space_group_name_H-M   P-1

loop_
_symmetry_equiv_pos_as_xyz
'x, y, z'
'-x, -y, -z'

_cell_length_a                   10.436(2)
_cell_length_b                   17.713(4)
_cell_length_c                   17.830(4)
_cell_angle_alpha                98.296(4)
_cell_angle_beta                 106.424(4)
_cell_angle_gamma                101.979(4)
_cell_volume                     3019.3(11)
_cell_formula_units_Z            2
_cell_measurement_temperature    173(2)
_cell_measurement_reflns_used    3586
_cell_measurement_theta_min      2.408
_cell_measurement_theta_max      23.186

_exptl_crystal_colour            yellow
_exptl_crystal_size_max          .2
_exptl_crystal_size_mid          .2
_exptl_crystal_size_min          .1
_exptl_crystal_density_meas      ?
_exptl_crystal_density_diffrn    1.480
_exptl_crystal_density_method    'not measured'
_exptl_crystal_F_000             1368
_exptl_absorpt_coefficient_mu    0.898
_exptl_absorpt_correction_type   multi-scan
_exptl_absorpt_correction_T_min  0.860533
_exptl_absorpt_correction_T_max  1.000000
_exptl_absorpt_process_details   
;
Data were collected for decay and absorption using the program SADABS
based on the method of R.H. Blessing (Acta Cryst. A51, 33-38, 1995).
;

_exptl_special_details           
; 
? 
;

_diffrn_ambient_temperature      173(2)
_diffrn_radiation_wavelength     0.71070
_diffrn_radiation_type           MoK\a
_diffrn_radiation_source         'fine-focus sealed tube'
_diffrn_radiation_monochromator  graphite
_diffrn_measurement_device_type  'Bruker SMART CCD area detector'
_diffrn_measurement_method       'omega scans'
_diffrn_detector_area_resol_mean ?
_diffrn_standards_number         ?
_diffrn_standards_interval_count ?
_diffrn_standards_interval_time  ?
_diffrn_standards_decay_%        0.0
_diffrn_reflns_number            18521
_diffrn_reflns_av_R_equivalents  0.0476
_diffrn_reflns_av_sigmaI/netI    0.1362
_diffrn_reflns_limit_h_min       -13
_diffrn_reflns_limit_h_max       12
_diffrn_reflns_limit_k_min       -22
_diffrn_reflns_limit_k_max       18
_diffrn_reflns_limit_l_min       -22
_diffrn_reflns_limit_l_max       22
_diffrn_reflns_theta_min         1.22
_diffrn_reflns_theta_max         27.11
_reflns_number_total             12949
_reflns_number_gt                7076
_reflns_threshold_expression     >2sigma(I)

_computing_data_collection       'Smart (Bruker 1998)'
_computing_cell_refinement       'Smart (Bruker 1998)'
_computing_data_reduction        'Saint (Bruker 1998)'
_computing_structure_solution    'SHELXS-97 (Sheldrick, 1997)'
_computing_structure_refinement  'SHELXL-97 (Sheldrick, 1997)'
_computing_molecular_graphics    'ORTEP-III (Burnett & Johnson, 1996)'
_computing_publication_material  'CIFTAB (Sheldrick, 1997)'
_refine_special_details          
; 
Refinement of F^2^ against ALL reflections.  The weighted R-factor wR and 
goodness of fit S are based on F^2^, conventional R-factors R are based 
on F, with F set to zero for negative F^2^. The threshold expression of 
F^2^ > 2sigma(F^2^) is used only for calculating R-factors(gt) etc. and is 
not relevant to the choice of reflections for refinement.  R-factors based 
on F^2^ are statistically about twice as large as those based on F, and R- 
factors based on ALL data will be even larger. 
;

_refine_ls_structure_factor_coef Fsqd
_refine_ls_matrix_type           full
_refine_ls_weighting_scheme      calc
_refine_ls_weighting_details     
'calc w=1/[\s^2^(Fo^2^)+(0.1191P)^2^+1.0505P] where P=(Fo^2^+2Fc^2^)/3'
_atom_sites_solution_primary     patterson
_atom_sites_solution_secondary   difmap
_atom_sites_solution_hydrogens   geom
_refine_ls_hydrogen_treatment    mixed
_refine_ls_extinction_method     none
_refine_ls_extinction_coef       ?
_refine_ls_number_reflns         12949
_refine_ls_number_parameters     694
_refine_ls_number_restraints     0
_refine_ls_R_factor_all          0.1552
_refine_ls_R_factor_gt           0.0786
_refine_ls_wR_factor_ref         0.2318
_refine_ls_wR_factor_gt          0.1953
_refine_ls_goodness_of_fit_ref   0.993
_refine_ls_restrained_S_all      0.993
_refine_ls_shift/su_max          0.004
_refine_ls_shift/su_mean         0.001

loop_
_atom_site_label
_atom_site_type_symbol
_atom_site_fract_x
_atom_site_fract_y
_atom_site_fract_z
_atom_site_U_iso_or_equiv
_atom_site_adp_type
_atom_site_occupancy
_atom_site_symmetry_multiplicity
_atom_site_calc_flag
_atom_site_refinement_flags
_atom_site_disorder_assembly
_atom_site_disorder_group
Cu1 Cu 0.90996(7) 0.81370(4) 0.72652(4) 0.01700(18) Uani 1 1 d . . .
Cl1 Cl 1.1549(6) 1.1467(5) 0.5938(3) 0.221(3) Uani 1 1 d . . .
P1 P 1.13456(14) 0.88439(9) 0.77589(8) 0.0192(3) Uani 1 1 d . . .
F1 F 0.6391(6) 1.2047(3) 0.6600(3) 0.0896(18) Uani 1 1 d . . .
O1 O 0.9830(12) 1.4676(6) 0.8734(6) 0.149(4) Uani 1 1 d . . .
N1 N 0.9227(5) 0.7188(3) 0.6472(2) 0.0220(10) Uani 1 1 d . . .
C1 C 0.9444(6) 0.7282(3) 0.5774(3) 0.0235(12) Uani 1 1 d . . .
H1 H 0.9426 0.7774 0.5622 0.028 Uiso 1 1 calc R . .
Cl2 Cl 1.0058(5) 1.2000(4) 0.6863(3) 0.184(2) Uani 1 1 d . . .
P2 P 0.77379(14) 0.78487(8) 0.80276(8) 0.0177(3) Uani 1 1 d . . .
F2 F 0.6289(6) 1.2115(4) 0.8366(3) 0.0930(18) Uani 1 1 d . . .
N2 N 0.8017(5) 0.8690(3) 0.6430(2) 0.0220(10) Uani 1 1 d . . .
C2 C 0.9689(6) 0.6703(3) 0.5272(3) 0.0274(13) Uani 1 1 d . . .
H2 H 0.9826 0.6797 0.4786 0.033 Uiso 1 1 calc R . .
Cl3 Cl 1.2278(5) 1.3071(4) 0.6685(4) 0.224(3) Uani 1 1 d . . .
P3 P 0.6349(2) 1.20818(11) 0.74819(11) 0.0421(5) Uani 1 1 d . . .
F3 F 0.5191(6) 1.2547(3) 0.7319(4) 0.0975(19) Uani 1 1 d . . .
C3 C 0.9735(6) 0.5981(4) 0.5477(3) 0.0288(14) Uani 1 1 d . . .
Cl4 Cl 0.6923(3) 1.35010(18) 0.55394(16) 0.0932(8) Uani 1 1 d . . .
F4 F 0.7478(6) 1.2888(3) 0.7757(3) 0.098(2) Uani 1 1 d . . .
C4 C 0.9534(7) 0.5885(4) 0.6202(4) 0.0355(16) Uani 1 1 d . . .
H4 H 0.9567 0.5403 0.6372 0.043 Uiso 1 1 calc R . .
Cl5 Cl 0.4332(3) 1.38514(15) 0.54820(15) 0.0833(8) Uani 1 1 d . . .
F5 F 0.5196(6) 1.1268(3) 0.7198(3) 0.0837(16) Uani 1 1 d . . .
C5 C 0.9288(7) 0.6490(3) 0.6669(3) 0.0283(14) Uani 1 1 d . . .
H5 H 0.9154 0.6410 0.7160 0.034 Uiso 1 1 calc R . .
Cl6 Cl 0.6767(3) 1.46226(17) 0.68244(17) 0.1100(11) Uani 1 1 d . . .
F6 F 0.7513(6) 1.1635(4) 0.7669(4) 0.0956(18) Uani 1 1 d . . .
C6 C 0.9990(7) 0.5360(4) 0.4942(4) 0.0331(15) Uani 1 1 d . . .
H6 H 1.0155 0.5486 0.4472 0.040 Uiso 1 1 calc R . .
Cl7 Cl 0.4037(3) 1.35601(17) 0.9060(3) 0.1180(12) Uani 1 1 d . . .
C7 C 0.6996(6) 0.8249(3) 0.5767(3) 0.0266(13) Uani 1 1 d . . .
H7 H 0.6895 0.7695 0.5649 0.032 Uiso 1 1 calc R . .
Cl8 Cl 0.5091(4) 1.4842(2) 0.8425(2) 0.1256(13) Uani 1 1 d . . .
C8 C 0.6096(6) 0.8552(3) 0.5254(3) 0.0283(14) Uani 1 1 d . . .
H8 H 0.5418 0.8212 0.4786 0.034 Uiso 1 1 calc R . .
Cl9 Cl 0.6907(4) 1.4265(2) 0.9576(2) 0.1322(13) Uani 1 1 d . . .
C9 C 0.6166(6) 0.9355(3) 0.5413(3) 0.0234(12) Uani 1 1 d . . .
C10 C 0.7232(6) 0.9815(3) 0.6098(3) 0.0279(13) Uani 1 1 d . . .
H10 H 0.7340 1.0368 0.6240 0.033 Uiso 1 1 calc R . .
C11 C 0.8117(6) 0.9468(3) 0.6561(3) 0.0270(13) Uani 1 1 d . . .
H11 H 0.8854 0.9801 0.7007 0.032 Uiso 1 1 calc R . .
C12 C 0.5157(6) 0.9668(4) 0.4893(3) 0.0306(14) Uani 1 1 d . . .
H12 H 0.4690 0.9372 0.4361 0.037 Uiso 1 1 calc R . .
C13 C 1.1668(6) 0.9900(3) 0.8145(3) 0.0233(12) Uani 1 1 d . . .
C14 C 1.0717(6) 1.0134(3) 0.8465(3) 0.0265(13) Uani 1 1 d . . .
H14 H 0.9953 0.9748 0.8485 0.032 Uiso 1 1 calc R . .
C15 C 1.0869(7) 1.0930(4) 0.8760(4) 0.0367(16) Uani 1 1 d . . .
H15 H 1.0202 1.1084 0.8973 0.044 Uiso 1 1 calc R . .
C16 C 1.1978(7) 1.1494(4) 0.8742(4) 0.0378(16) Uani 1 1 d . . .
H16 H 1.2086 1.2036 0.8952 0.045 Uiso 1 1 calc R . .
C17 C 1.2948(7) 1.1271(4) 0.8416(4) 0.0361(15) Uani 1 1 d . . .
H17 H 1.3712 1.1658 0.8396 0.043 Uiso 1 1 calc R . .
C18 C 1.2777(6) 1.0474(4) 0.8121(3) 0.0322(14) Uani 1 1 d . . .
H18 H 1.3432 1.0318 0.7899 0.039 Uiso 1 1 calc R . .
C19 C 1.2069(6) 0.8782(3) 0.6934(3) 0.0250(13) Uani 1 1 d . . .
C20 C 1.1709(7) 0.9214(4) 0.6348(4) 0.0369(16) Uani 1 1 d . . .
H20 H 1.1230 0.9605 0.6424 0.044 Uiso 1 1 calc R . .
C21 C 1.2055(8) 0.9069(4) 0.5651(4) 0.0474(19) Uani 1 1 d . . .
H21 H 1.1806 0.9360 0.5249 0.057 Uiso 1 1 calc R . .
C22 C 1.2750(8) 0.8509(5) 0.5542(4) 0.0476(19) Uani 1 1 d . . .
H22 H 1.2976 0.8409 0.5064 0.057 Uiso 1 1 calc R . .
C23 C 1.3121(7) 0.8091(4) 0.6123(4) 0.0396(16) Uani 1 1 d . . .
H23 H 1.3615 0.7708 0.6048 0.047 Uiso 1 1 calc R . .
C24 C 1.2783(6) 0.8223(4) 0.6814(3) 0.0305(14) Uani 1 1 d . . .
H24 H 1.3041 0.7929 0.7211 0.037 Uiso 1 1 calc R . .
C25 C 1.2510(5) 0.8505(3) 0.8528(3) 0.0206(12) Uani 1 1 d . . .
C26 C 1.3745(6) 0.8996(4) 0.9076(3) 0.0282(13) Uani 1 1 d . . .
H26 H 1.4024 0.9534 0.9048 0.034 Uiso 1 1 calc R . .
C27 C 1.4562(7) 0.8706(4) 0.9656(3) 0.0345(15) Uani 1 1 d . . .
H27 H 1.5389 0.9049 1.0033 0.041 Uiso 1 1 calc R . .
C28 C 1.4189(7) 0.7925(4) 0.9693(3) 0.0343(15) Uani 1 1 d . . .
H28 H 1.4766 0.7730 1.0092 0.041 Uiso 1 1 calc R . .
C29 C 1.2986(7) 0.7425(4) 0.9157(4) 0.0363(15) Uani 1 1 d . . .
H29 H 1.2734 0.6884 0.9180 0.044 Uiso 1 1 calc R . .
C30 C 1.2136(6) 0.7718(4) 0.8576(3) 0.0296(14) Uani 1 1 d . . .
H30 H 1.1296 0.7376 0.8210 0.036 Uiso 1 1 calc R . .
C31 C 0.8503(6) 0.7525(3) 0.8946(3) 0.0226(12) Uani 1 1 d . . .
C32 C 0.9847(6) 0.7948(4) 0.9422(3) 0.0274(13) Uani 1 1 d . . .
H32 H 1.0314 0.8390 0.9271 0.033 Uiso 1 1 calc R . .
C33 C 1.0501(7) 0.7727(4) 1.0112(3) 0.0328(15) Uani 1 1 d . . .
H33 H 1.1407 0.8025 1.0436 0.039 Uiso 1 1 calc R . .
C34 C 0.9845(7) 0.7072(4) 1.0334(4) 0.0385(16) Uani 1 1 d . . .
H34 H 1.0300 0.6913 1.0803 0.046 Uiso 1 1 calc R . .
C35 C 0.8532(8) 0.6661(4) 0.9866(4) 0.0449(18) Uani 1 1 d . . .
H35 H 0.8077 0.6218 1.0022 0.054 Uiso 1 1 calc R . .
C36 C 0.7844(7) 0.6863(4) 0.9175(4) 0.0358(15) Uani 1 1 d . . .
H36 H 0.6937 0.6560 0.8858 0.043 Uiso 1 1 calc R . .
C37 C 0.6068(5) 0.7119(3) 0.7543(3) 0.0212(12) Uani 1 1 d . . .
C38 C 0.5870(6) 0.6609(3) 0.6825(3) 0.0299(14) Uani 1 1 d . . .
H38 H 0.6581 0.6657 0.6586 0.036 Uiso 1 1 calc R . .
C39 C 0.4645(7) 0.6038(4) 0.6463(4) 0.0416(17) Uani 1 1 d . . .
H39 H 0.4522 0.5684 0.5978 0.050 Uiso 1 1 calc R . .
C40 C 0.3592(7) 0.5969(4) 0.6790(4) 0.0369(16) Uani 1 1 d . . .
H40 H 0.2750 0.5570 0.6533 0.044 Uiso 1 1 calc R . .
C41 C 0.3763(7) 0.6481(4) 0.7490(4) 0.0373(16) Uani 1 1 d . . .
H41 H 0.3037 0.6437 0.7717 0.045 Uiso 1 1 calc R . .
C42 C 0.4992(6) 0.7057(4) 0.7863(4) 0.0309(14) Uani 1 1 d . . .
H42 H 0.5102 0.7415 0.8342 0.037 Uiso 1 1 calc R . .
C43 C 0.7257(6) 0.8739(3) 0.8375(3) 0.0194(11) Uani 1 1 d . . .
C44 C 0.7788(6) 0.9181(3) 0.9158(3) 0.0265(13) Uani 1 1 d . . .
H44 H 0.8343 0.8986 0.9567 0.032 Uiso 1 1 calc R . .
C45 C 0.7509(7) 0.9902(4) 0.9340(4) 0.0385(16) Uani 1 1 d . . .
H45 H 0.7880 1.0203 0.9875 0.046 Uiso 1 1 calc R . .
C46 C 0.6698(7) 1.0191(4) 0.8753(4) 0.0369(16) Uani 1 1 d . . .
H46 H 0.6527 1.0692 0.8881 0.044 Uiso 1 1 calc R . .
C47 C 0.6143(6) 0.9750(4) 0.7986(4) 0.0330(15) Uani 1 1 d . . .
H47 H 0.5565 0.9942 0.7585 0.040 Uiso 1 1 calc R . .
C48 C 0.6410(6) 0.9030(3) 0.7788(3) 0.0247(13) Uani 1 1 d . . .
H48 H 0.6020 0.8731 0.7252 0.030 Uiso 1 1 calc R . .
C49 C 0.9975(9) 1.5509(5) 0.8543(6) 0.071(3) Uani 1 1 d . . .
H49A H 0.9049 1.5594 0.8311 0.085 Uiso 1 1 calc R . .
H49B H 1.0482 1.5920 0.9039 0.085 Uiso 1 1 calc R . .
C50 C 1.0692(7) 1.5553(4) 0.8004(4) 0.0362(16) Uani 1 1 d . . .
H50A H 1.0110 1.5658 0.7507 0.043 Uiso 1 1 calc R . .
H50B H 1.1536 1.5998 0.8232 0.043 Uiso 1 1 calc R . .
C51 C 1.1059(13) 1.4866(7) 0.7824(8) 0.110(4) Uani 1 1 d . . .
H51A H 1.2068 1.4986 0.7916 0.132 Uiso 1 1 calc R . .
H51B H 1.0574 1.4610 0.7252 0.132 Uiso 1 1 calc R . .
C52 C 1.0704(15) 1.4350(7) 0.8308(8) 0.115(5) Uani 1 1 d . . .
H52A H 1.1552 1.4302 0.8702 0.137 Uiso 1 1 calc R . .
H52B H 1.0187 1.3818 0.7973 0.137 Uiso 1 1 calc R . .
C53 C 1.1625(14) 1.2116(10) 0.6768(7) 0.140(6) Uani 1 1 d . . .
H53 H 1.2261 1.2008 0.7252 0.168 Uiso 1 1 calc R . .
C54 C 0.5896(10) 1.3764(5) 0.6113(5) 0.065(2) Uani 1 1 d . . .
H54 H 0.5679 1.3330 0.6396 0.077 Uiso 1 1 calc R . .
C55 C 0.5377(9) 1.4008(5) 0.8779(5) 0.064(2) Uani 1 1 d . . .
H55 H 0.5470 1.3626 0.8339 0.076 Uiso 1 1 calc R . .

loop_
_atom_site_aniso_label
_atom_site_aniso_U_11
_atom_site_aniso_U_22
_atom_site_aniso_U_33
_atom_site_aniso_U_23
_atom_site_aniso_U_13
_atom_site_aniso_U_12
Cu1 0.0163(4) 0.0198(4) 0.0144(3) 0.0021(3) 0.0035(3) 0.0069(3)
Cl1 0.161(5) 0.403(10) 0.132(4) 0.075(5) 0.040(3) 0.143(6)
P1 0.0147(7) 0.0239(8) 0.0187(7) 0.0046(6) 0.0042(6) 0.0059(6)
F1 0.132(5) 0.076(4) 0.037(2) 0.002(2) 0.016(3) 0.000(3)
O1 0.184(10) 0.127(8) 0.156(9) 0.046(7) 0.073(8) 0.046(7)
N1 0.023(3) 0.024(3) 0.017(2) 0.0007(19) 0.005(2) 0.007(2)
C1 0.032(3) 0.021(3) 0.022(3) 0.007(2) 0.012(3) 0.011(3)
Cl2 0.104(3) 0.281(6) 0.158(4) 0.067(4) 0.056(3) 0.001(3)
P2 0.0153(7) 0.0183(7) 0.0177(7) 0.0015(6) 0.0041(6) 0.0041(6)
F2 0.105(5) 0.126(5) 0.056(3) 0.032(3) 0.031(3) 0.031(4)
N2 0.020(2) 0.026(3) 0.016(2) 0.0028(19) -0.0016(19) 0.008(2)
C2 0.032(3) 0.032(3) 0.020(3) 0.004(3) 0.009(3) 0.010(3)
Cl3 0.111(3) 0.314(8) 0.250(6) 0.190(6) 0.008(4) 0.041(4)
P3 0.0462(12) 0.0377(10) 0.0355(9) 0.0100(8) 0.0026(8) 0.0096(9)
F3 0.084(4) 0.087(4) 0.118(5) 0.032(4) 0.004(4) 0.048(3)
C3 0.031(3) 0.031(3) 0.023(3) -0.004(3) 0.008(3) 0.013(3)
Cl4 0.104(2) 0.108(2) 0.0821(17) 0.0204(16) 0.0500(16) 0.0316(17)
F4 0.109(5) 0.066(4) 0.072(3) -0.002(3) 0.006(3) -0.033(3)
C4 0.060(5) 0.025(3) 0.031(3) 0.008(3) 0.019(3) 0.023(3)
Cl5 0.0722(16) 0.0765(17) 0.0766(16) -0.0185(13) 0.0198(13) -0.0031(13)
F5 0.075(4) 0.056(3) 0.102(4) 0.017(3) 0.013(3) 0.000(3)
C5 0.046(4) 0.020(3) 0.019(3) 0.004(2) 0.009(3) 0.012(3)
Cl6 0.124(3) 0.0793(19) 0.0820(18) -0.0247(15) -0.0175(17) 0.0303(18)
F6 0.082(4) 0.116(5) 0.126(5) 0.065(4) 0.051(4) 0.057(4)
C6 0.042(4) 0.033(3) 0.025(3) -0.003(3) 0.012(3) 0.015(3)
Cl7 0.087(2) 0.082(2) 0.220(4) 0.073(2) 0.083(2) 0.0234(16)
C7 0.024(3) 0.023(3) 0.032(3) 0.005(3) 0.006(3) 0.011(3)
Cl8 0.119(3) 0.098(2) 0.149(3) 0.072(2) 0.025(2) 0.002(2)
C8 0.029(3) 0.027(3) 0.022(3) -0.002(2) -0.001(3) 0.009(3)
Cl9 0.092(2) 0.127(3) 0.130(3) 0.031(2) -0.017(2) -0.002(2)
C9 0.023(3) 0.025(3) 0.020(3) 0.005(2) 0.003(2) 0.007(2)
C10 0.030(3) 0.022(3) 0.028(3) 0.006(3) 0.003(3) 0.009(3)
C11 0.026(3) 0.027(3) 0.021(3) 0.003(2) -0.004(2) 0.008(3)
C12 0.034(4) 0.035(4) 0.020(3) 0.007(3) 0.000(3) 0.015(3)
C13 0.024(3) 0.030(3) 0.014(2) 0.007(2) 0.002(2) 0.008(3)
C14 0.024(3) 0.031(3) 0.019(3) 0.005(2) -0.001(2) 0.005(3)
C15 0.043(4) 0.036(4) 0.029(3) 0.002(3) 0.006(3) 0.016(3)
C16 0.052(4) 0.020(3) 0.032(3) 0.003(3) 0.001(3) 0.008(3)
C17 0.027(3) 0.030(4) 0.035(3) 0.006(3) -0.005(3) -0.004(3)
C18 0.020(3) 0.038(4) 0.029(3) 0.004(3) -0.002(3) 0.004(3)
C19 0.015(3) 0.028(3) 0.026(3) 0.002(2) 0.003(2) -0.001(2)
C20 0.045(4) 0.042(4) 0.033(3) 0.016(3) 0.021(3) 0.012(3)
C21 0.066(5) 0.055(5) 0.032(4) 0.019(3) 0.027(4) 0.017(4)
C22 0.046(4) 0.064(5) 0.036(4) 0.006(4) 0.024(3) 0.007(4)
C23 0.034(4) 0.052(4) 0.036(4) -0.002(3) 0.018(3) 0.015(3)
C24 0.030(3) 0.039(4) 0.027(3) 0.007(3) 0.013(3) 0.012(3)
C25 0.017(3) 0.029(3) 0.018(3) 0.004(2) 0.006(2) 0.009(2)
C26 0.025(3) 0.031(3) 0.026(3) 0.009(3) 0.001(3) 0.009(3)
C27 0.028(3) 0.045(4) 0.023(3) 0.005(3) -0.001(3) 0.009(3)
C28 0.038(4) 0.040(4) 0.025(3) 0.009(3) 0.002(3) 0.020(3)
C29 0.034(4) 0.036(4) 0.043(4) 0.017(3) 0.011(3) 0.012(3)
C30 0.025(3) 0.034(4) 0.028(3) 0.008(3) 0.003(3) 0.009(3)
C31 0.021(3) 0.025(3) 0.021(3) 0.003(2) 0.004(2) 0.009(2)
C32 0.025(3) 0.030(3) 0.029(3) 0.007(3) 0.009(3) 0.009(3)
C33 0.033(4) 0.041(4) 0.021(3) 0.006(3) 0.003(3) 0.012(3)
C34 0.044(4) 0.040(4) 0.029(3) 0.012(3) 0.003(3) 0.013(3)
C35 0.055(5) 0.041(4) 0.042(4) 0.025(3) 0.012(4) 0.014(4)
C36 0.036(4) 0.032(4) 0.035(3) 0.014(3) 0.005(3) 0.002(3)
C37 0.015(3) 0.022(3) 0.025(3) 0.006(2) 0.002(2) 0.006(2)
C38 0.028(3) 0.028(3) 0.032(3) 0.003(3) 0.013(3) 0.002(3)
C39 0.040(4) 0.039(4) 0.030(3) -0.004(3) 0.002(3) -0.002(3)
C40 0.023(3) 0.030(4) 0.044(4) 0.001(3) 0.000(3) -0.003(3)
C41 0.025(3) 0.030(4) 0.059(4) 0.008(3) 0.022(3) 0.002(3)
C42 0.027(3) 0.034(4) 0.029(3) 0.001(3) 0.012(3) 0.004(3)
C43 0.021(3) 0.015(3) 0.022(3) 0.001(2) 0.010(2) 0.004(2)
C44 0.028(3) 0.025(3) 0.024(3) -0.001(2) 0.007(3) 0.006(3)
C45 0.035(4) 0.036(4) 0.038(4) -0.006(3) 0.009(3) 0.008(3)
C46 0.037(4) 0.024(3) 0.054(4) 0.000(3) 0.020(3) 0.014(3)
C47 0.028(3) 0.032(4) 0.046(4) 0.015(3) 0.014(3) 0.016(3)
C48 0.023(3) 0.029(3) 0.024(3) 0.006(3) 0.011(2) 0.007(3)
C49 0.053(5) 0.050(5) 0.093(7) 0.017(5) 0.001(5) 0.010(4)
C50 0.051(4) 0.025(3) 0.039(4) 0.022(3) 0.020(3) 0.007(3)
C51 0.119(10) 0.122(10) 0.163(12) 0.091(9) 0.100(10) 0.072(8)
C52 0.178(13) 0.080(8) 0.166(12) 0.063(8) 0.137(11) 0.067(8)
C53 0.116(11) 0.246(18) 0.077(8) 0.100(10) 0.026(8) 0.053(12)
C54 0.089(7) 0.049(5) 0.057(5) 0.010(4) 0.033(5) 0.010(5)
C55 0.059(6) 0.065(6) 0.069(5) 0.013(5) 0.029(5) 0.013(4)

_geom_special_details            
; 
All esds (except the esd in the dihedral angle between two l.s. planes) 
are estimated using the full covariance matrix.  The cell esds are taken 
into account individually in the estimation of esds in distances, angles 
and torsion angles; correlations between esds in cell parameters are only 
used when they are defined by crystal symmetry.  An approximate (isotropic) 
treatment of cell esds is used for estimating esds involving l.s. planes. 
;

loop_
_geom_bond_atom_site_label_1
_geom_bond_atom_site_label_2
_geom_bond_distance
_geom_bond_site_symmetry_2
_geom_bond_publ_flag
Cu1 N1 2.087(4) . ?
Cu1 N2 2.093(4) . ?
Cu1 P2 2.2625(16) . ?
Cu1 P1 2.2657(16) . ?
Cl1 C53 1.709(16) . ?
P1 C25 1.821(5) . ?
P1 C19 1.834(6) . ?
P1 C13 1.823(6) . ?
F1 P3 1.578(5) . ?
O1 C52 1.491(13) . ?
O1 C49 1.547(12) . ?
N1 C5 1.343(7) . ?
N1 C1 1.354(7) . ?
C1 C2 1.375(7) . ?
Cl2 C53 1.666(14) . ?
P2 C43 1.830(5) . ?
P2 C37 1.829(6) . ?
P2 C31 1.835(5) . ?
F2 P3 1.588(5) . ?
N2 C7 1.349(7) . ?
N2 C11 1.342(7) . ?
C2 C3 1.386(8) . ?
Cl3 C53 1.731(17) . ?
P3 F4 1.562(5) . ?
P3 F6 1.568(5) . ?
P3 F3 1.584(5) . ?
P3 F5 1.583(5) . ?
C3 C4 1.395(8) . ?
C3 C6 1.467(8) . ?
Cl4 C54 1.761(9) . ?
C4 C5 1.372(8) . ?
Cl5 C54 1.751(10) . ?
Cl6 C54 1.722(9) . ?
C6 C6 1.325(12) 2_766 ?
Cl7 C55 1.699(9) . ?
C7 C8 1.368(8) . ?
Cl8 C55 1.737(9) . ?
C8 C9 1.393(8) . ?
Cl9 C55 1.733(9) . ?
C9 C10 1.401(8) . ?
C9 C12 1.453(8) . ?
C10 C11 1.365(7) . ?
C12 C12 1.318(11) 2_676 ?
C13 C14 1.380(8) . ?
C13 C18 1.387(8) . ?
C14 C15 1.391(8) . ?
C15 C16 1.374(9) . ?
C16 C17 1.397(9) . ?
C17 C18 1.389(9) . ?
C19 C24 1.385(8) . ?
C19 C20 1.394(8) . ?
C20 C21 1.393(9) . ?
C21 C22 1.367(10) . ?
C22 C23 1.373(10) . ?
C23 C24 1.375(8) . ?
C25 C30 1.388(8) . ?
C25 C26 1.397(8) . ?
C26 C27 1.376(8) . ?
C27 C28 1.374(9) . ?
C28 C29 1.375(9) . ?
C29 C30 1.399(8) . ?
C31 C32 1.399(8) . ?
C31 C36 1.406(8) . ?
C32 C33 1.380(8) . ?
C33 C34 1.389(9) . ?
C34 C35 1.367(10) . ?
C35 C36 1.376(9) . ?
C37 C42 1.389(8) . ?
C37 C38 1.392(8) . ?
C38 C39 1.372(9) . ?
C39 C40 1.375(9) . ?
C40 C41 1.376(9) . ?
C41 C42 1.381(9) . ?
C43 C48 1.401(8) . ?
C43 C44 1.390(7) . ?
C44 C45 1.383(8) . ?
C45 C46 1.380(9) . ?
C46 C47 1.368(9) . ?
C47 C48 1.379(8) . ?
C49 C50 1.378(11) . ?
C50 C51 1.371(12) . ?
C51 C52 1.410(13) . ?

loop_
_geom_angle_atom_site_label_1
_geom_angle_atom_site_label_2
_geom_angle_atom_site_label_3
_geom_angle
_geom_angle_site_symmetry_1
_geom_angle_site_symmetry_3
_geom_angle_publ_flag
N1 Cu1 N2 98.80(17) . . ?
N1 Cu1 P2 116.78(14) . . ?
N2 Cu1 P2 104.87(13) . . ?
N1 Cu1 P1 100.75(13) . . ?
N2 Cu1 P1 108.48(14) . . ?
P2 Cu1 P1 124.23(6) . . ?
C25 P1 C19 104.0(2) . . ?
C25 P1 C13 105.3(2) . . ?
C19 P1 C13 104.7(3) . . ?
C25 P1 Cu1 117.36(19) . . ?
C19 P1 Cu1 107.69(18) . . ?
C13 P1 Cu1 116.43(19) . . ?
C52 O1 C49 101.7(8) . . ?
C5 N1 C1 116.3(5) . . ?
C5 N1 Cu1 122.2(4) . . ?
C1 N1 Cu1 121.0(4) . . ?
N1 C1 C2 123.3(5) . . ?
C43 P2 C37 103.3(2) . . ?
C43 P2 C31 104.5(2) . . ?
C37 P2 C31 104.2(3) . . ?
C43 P2 Cu1 108.90(18) . . ?
C37 P2 Cu1 117.44(18) . . ?
C31 P2 Cu1 116.96(19) . . ?
C7 N2 C11 115.3(5) . . ?
C7 N2 Cu1 119.9(4) . . ?
C11 N2 Cu1 123.9(3) . . ?
C1 C2 C3 119.9(5) . . ?
F4 P3 F6 89.9(4) . . ?
F4 P3 F1 89.1(3) . . ?
F6 P3 F1 91.0(3) . . ?
F4 P3 F3 89.2(4) . . ?
F6 P3 F3 178.3(4) . . ?
F1 P3 F3 90.4(3) . . ?
F4 P3 F2 91.3(3) . . ?
F6 P3 F2 89.5(3) . . ?
F1 P3 F2 179.4(3) . . ?
F3 P3 F2 89.0(3) . . ?
F4 P3 F5 179.5(4) . . ?
F6 P3 F5 90.6(3) . . ?
F1 P3 F5 90.7(3) . . ?
F3 P3 F5 90.3(3) . . ?
F2 P3 F5 88.9(3) . . ?
C2 C3 C4 116.9(5) . . ?
C2 C3 C6 120.1(5) . . ?
C4 C3 C6 123.0(6) . . ?
C5 C4 C3 119.8(5) . . ?
N1 C5 C4 123.7(5) . . ?
C6 C6 C3 125.7(7) 2_766 . ?
N2 C7 C8 124.0(5) . . ?
C7 C8 C9 120.4(5) . . ?
C8 C9 C10 115.7(5) . . ?
C8 C9 C12 120.3(5) . . ?
C10 C9 C12 123.9(5) . . ?
C11 C10 C9 120.0(5) . . ?
N2 C11 C10 124.5(5) . . ?
C12 C12 C9 124.8(7) 2_676 . ?
C14 C13 C18 118.8(6) . . ?
C14 C13 P1 116.8(4) . . ?
C18 C13 P1 124.4(4) . . ?
C13 C14 C15 120.6(6) . . ?
C16 C15 C14 120.3(6) . . ?
C15 C16 C17 120.1(6) . . ?
C18 C17 C16 118.8(6) . . ?
C13 C18 C17 121.4(6) . . ?
C24 C19 C20 119.0(5) . . ?
C24 C19 P1 120.8(5) . . ?
C20 C19 P1 119.4(4) . . ?
C19 C20 C21 119.7(6) . . ?
C22 C21 C20 120.3(7) . . ?
C21 C22 C23 120.1(6) . . ?
C22 C23 C24 120.5(6) . . ?
C23 C24 C19 120.4(6) . . ?
C30 C25 C26 118.5(5) . . ?
C30 C25 P1 118.0(4) . . ?
C26 C25 P1 123.4(4) . . ?
C27 C26 C25 120.5(6) . . ?
C28 C27 C26 120.5(6) . . ?
C27 C28 C29 120.3(6) . . ?
C28 C29 C30 119.5(6) . . ?
C25 C30 C29 120.6(6) . . ?
C32 C31 C36 118.7(5) . . ?
C32 C31 P2 117.3(4) . . ?
C36 C31 P2 124.0(4) . . ?
C33 C32 C31 120.5(6) . . ?
C32 C33 C34 120.5(6) . . ?
C35 C34 C33 118.7(6) . . ?
C34 C35 C36 122.6(7) . . ?
C35 C36 C31 119.0(6) . . ?
C42 C37 C38 118.9(5) . . ?
C42 C37 P2 122.5(4) . . ?
C38 C37 P2 118.6(4) . . ?
C37 C38 C39 119.8(6) . . ?
C40 C39 C38 121.0(6) . . ?
C39 C40 C41 119.7(6) . . ?
C40 C41 C42 119.9(6) . . ?
C37 C42 C41 120.6(6) . . ?
C48 C43 C44 118.8(5) . . ?
C48 C43 P2 116.6(4) . . ?
C44 C43 P2 124.2(4) . . ?
C45 C44 C43 119.9(6) . . ?
C44 C45 C46 120.8(6) . . ?
C47 C46 C45 119.6(6) . . ?
C46 C47 C48 120.8(6) . . ?
C47 C48 C43 120.1(5) . . ?
C50 C49 O1 107.6(7) . . ?
C51 C50 C49 111.4(7) . . ?
C50 C51 C52 109.8(9) . . ?
C51 C52 O1 108.4(9) . . ?
Cl2 C53 Cl1 110.1(9) . . ?
Cl2 C53 Cl3 110.9(10) . . ?
Cl1 C53 Cl3 109.2(7) . . ?
Cl6 C54 Cl5 111.3(5) . . ?
Cl6 C54 Cl4 111.1(5) . . ?
Cl5 C54 Cl4 109.9(5) . . ?
Cl7 C55 Cl9 110.4(5) . . ?
Cl7 C55 Cl8 111.4(5) . . ?
Cl9 C55 Cl8 109.7(5) . . ?

_diffrn_measured_fraction_theta_max 0.972
_diffrn_reflns_theta_full        27.11
_diffrn_measured_fraction_theta_full 0.972
_refine_diff_density_max         0.914
_refine_diff_density_min         -1.110
_refine_diff_density_rms         0.108
