####################################################################### 
# 
# This file contains crystal structure data downloaded from the 
# Cambridge Structural Database (CSD) hosted by the Cambridge 
# Crystallographic Data Centre (CCDC).
# 
# Full information about CCDC data access policies and citation 
# guidelines are available at http://www.ccdc.cam.ac.uk/access/V1 
# 
# Audit and citation data items may have been added by the CCDC. 
# Please retain this information to preserve the provenance of 
# this file and to allow appropriate attribution of the data. 
# 
#######################################################################

data_shelxl
_audit_block_doi                 10.5517/ccvkssy
_database_code_depnum_ccdc_archive 'CCDC 791671'
loop_
_citation_id
_citation_doi
_citation_year
1 10.1021/cm300450x 2012
_audit_update_record             
;
2013-05-03 deposited with the CCDC.	2024-07-11 downloaded from the CCDC.
;

_audit_creation_method           SHELXL-97
_chemical_name_systematic        
; 
 ? 
;
_chemical_name_common            ?
_chemical_melting_point          ?
_chemical_formula_moiety         '(Fe 3+)3,(C14O4H8 2-)3, (O 2-), (OH-), 2(H2O)'
_chemical_formula_sum            'C42 H24 Fe3 O16'
_chemical_formula_weight         952.16

_vrf_THETM01_shelxl              
;
PROBLEM: The value of sine(theta_max)/wavelength is less than 0.550
RESPONSE: Currently available synchrotron radiation facilities can not provide
significantly better signal/noise ratio for micron-sized crystals which 
defines the limit of the highest resolution available.
;
_vrf_PLAT023_shelxl              
;
PROBLEM: Resolution (too) Low [sin(theta)/Lambda < 0.6]..      28.73 Deg. 
RESPONSE: Currently available synchrotron radiation facilities can not provide
significantly better signal/noise ratio for micron-sized crystals which 
defines the limit of the highest resolution available.
;
_vrf_PLAT602_shelxl              
;
PROBLEM: VERY LARGE Solvent Accessible VOID(S) in Structure        !
RESPONSE: the compound belongs to metal organic framework materials.
;
_vrf_PLAT761_shelxl              
;
PROBLEM: CIF Contains no X-H Bonds ......................          ?
RESPONSE: only hydrogen atoms attached to carbons were included into the 
refinement.
;
_vrf_PLAT762_shelxl              
;
PROBLEM: CIF Contains no X-Y-H or H-Y-H Angles ..........          ?
RESPONSE: only hydrogen atoms attached to carbons were included into the 
refinement.
;
# end Validation Reply Form



loop_
_atom_type_symbol
_atom_type_description
_atom_type_scat_dispersion_real
_atom_type_scat_dispersion_imag
_atom_type_scat_source
C C 0.0070 0.0030 'International Tables Vol C Tables 4.2.6.8 and 6.1.1.4'
H H 0.0000 0.0000 'International Tables Vol C Tables 4.2.6.8 and 6.1.1.4'
O O 0.0210 0.0120 'International Tables Vol C Tables 4.2.6.8 and 6.1.1.4'
Fe Fe 0.3090 1.4520 'International Tables Vol C Tables 4.2.6.8 and 6.1.1.4'

_symmetry_cell_setting           tetragonal
_symmetry_space_group_name_H-M   'P 43 21 2'

loop_
_symmetry_equiv_pos_as_xyz
'x, y, z'
'-x, -y, z+1/2'
'-y+1/2, x+1/2, z+3/4'
'y+1/2, -x+1/2, z+1/4'
'-x+1/2, y+1/2, -z+3/4'
'x+1/2, -y+1/2, -z+1/4'
'y, x, -z'
'-y, -x, -z+1/2'

_cell_length_a                   21.800(3)
_cell_length_b                   21.800(3)
_cell_length_c                   35.407(7)
_cell_angle_alpha                90.00
_cell_angle_beta                 90.00
_cell_angle_gamma                90.00
_cell_volume                     16827(5)
_cell_formula_units_Z            8
_cell_measurement_temperature    100(2)
_cell_measurement_reflns_used    1000
_cell_measurement_theta_min      1.79
_cell_measurement_theta_max      28.73

_exptl_crystal_description       needle
_exptl_crystal_colour            orange
_exptl_crystal_size_max          0.010
_exptl_crystal_size_mid          0.005
_exptl_crystal_size_min          0.005
_exptl_crystal_density_meas      ?
_exptl_crystal_density_diffrn    0.752
_exptl_crystal_density_method    'not measured'
_exptl_crystal_F_000             3856
_exptl_absorpt_coefficient_mu    1.218
_exptl_absorpt_correction_type   none
_exptl_absorpt_correction_T_min  ?
_exptl_absorpt_correction_T_max  ?
_exptl_absorpt_process_details   ?

_exptl_special_details           
; 
 ? 
;

_diffrn_ambient_temperature      100(2)
_diffrn_radiation_wavelength     0.96130
_diffrn_radiation_type           synchrotron
_diffrn_radiation_source         'ESRF ID13 beamline'
_diffrn_radiation_monochromator  silicon
_diffrn_measurement_device_type  'goniometer setup for micro-crystallography'
_diffrn_measurement_method       'oscillation method'
_diffrn_detector_area_resol_mean ?
_diffrn_standards_number         0
_diffrn_standards_interval_count 0
_diffrn_standards_interval_time  0
_diffrn_standards_decay_%        0
_diffrn_reflns_number            61077
_diffrn_reflns_av_R_equivalents  0.1983
_diffrn_reflns_av_sigmaI/netI    0.0835
_diffrn_reflns_limit_h_min       -20
_diffrn_reflns_limit_h_max       22
_diffrn_reflns_limit_k_min       -22
_diffrn_reflns_limit_k_max       22
_diffrn_reflns_limit_l_min       -31
_diffrn_reflns_limit_l_max       35
_diffrn_reflns_theta_min         1.48
_diffrn_reflns_theta_max         29.04
_reflns_number_total             8159
_reflns_number_gt                5932
_reflns_threshold_expression     >2sigma(I)

_computing_data_collection       ?
_computing_cell_refinement       ?
_computing_data_reduction        ?
_computing_structure_solution    'SHELXS-97 (Sheldrick, 1990)'
_computing_structure_refinement  'SHELXL-97 (Sheldrick, 1997)'
_computing_molecular_graphics    ?
_computing_publication_material  ?

_refine_special_details          
; 
 Refinement of F^2^ against ALL reflections.  The weighted R-factor wR and 
 goodness of fit S are based on F^2^, conventional R-factors R are based 
 on F, with F set to zero for negative F^2^. The threshold expression of 
 F^2^ > 2sigma(F^2^) is used only for calculating R-factors(gt) etc. and is 
 not relevant to the choice of reflections for refinement.  R-factors based 
 on F^2^ are statistically about twice as large as those based on F, and R- 
 factors based on ALL data will be even larger. 
;

_refine_ls_structure_factor_coef Fsqd
_refine_ls_matrix_type           full
_refine_ls_weighting_scheme      calc
_refine_ls_weighting_details     
'calc w=1/[\s^2^(Fo^2^)+(0.1700P)^2^+0.0000P] where P=(Fo^2^+2Fc^2^)/3'
_atom_sites_solution_primary     direct
_atom_sites_solution_secondary   difmap
_atom_sites_solution_hydrogens   geom
_refine_ls_hydrogen_treatment    constr
_refine_ls_extinction_method     none
_refine_ls_extinction_coef       ?
_refine_ls_abs_structure_details 'Flack H D (1983), Acta Cryst. A39, 876-881'
_refine_ls_abs_structure_Flack   0.00(14)
_refine_ls_number_reflns         8159
_refine_ls_number_parameters     553
_refine_ls_number_restraints     452
_refine_ls_R_factor_all          0.1172
_refine_ls_R_factor_gt           0.1017
_refine_ls_wR_factor_ref         0.2663
_refine_ls_wR_factor_gt          0.2495
_refine_ls_goodness_of_fit_ref   1.084
_refine_ls_restrained_S_all      1.091
_refine_ls_shift/su_max          0.018
_refine_ls_shift/su_mean         0.002

loop_
_atom_site_label
_atom_site_type_symbol
_atom_site_fract_x
_atom_site_fract_y
_atom_site_fract_z
_atom_site_U_iso_or_equiv
_atom_site_adp_type
_atom_site_occupancy
_atom_site_symmetry_multiplicity
_atom_site_calc_flag
_atom_site_refinement_flags
_atom_site_disorder_assembly
_atom_site_disorder_group
Fe1 Fe 0.28091(7) 0.00020(8) 0.09865(4) 0.1390(5) Uani 1 1 d U . .
Fe2 Fe 0.34289(7) -0.00270(7) 0.01349(4) 0.1369(5) Uani 1 1 d U . .
Fe3 Fe 0.19267(7) 0.00724(7) 0.02319(4) 0.1345(5) Uani 1 1 d U . .
O1 O 0.3524(4) 0.0609(4) 0.0976(2) 0.1504(15) Uani 1 1 d U . .
O2 O 0.3853(4) 0.0686(4) 0.0373(2) 0.1489(15) Uani 1 1 d U . .
C1 C 0.3848(6) 0.0847(5) 0.0717(4) 0.147(3) Uani 1 1 d U . .
C2 C 0.4279(6) 0.1349(6) 0.0817(4) 0.158(3) Uani 1 1 d U . .
C3 C 0.4475(6) 0.1425(6) 0.1197(4) 0.158(3) Uani 1 1 d U . .
H3 H 0.4337 0.1147 0.1386 0.189 Uiso 1 1 calc R . .
C4 C 0.4856(6) 0.1892(7) 0.1292(4) 0.170(4) Uani 1 1 d U . .
H4 H 0.4967 0.1948 0.1549 0.204 Uiso 1 1 calc R . .
C5 C 0.5092(7) 0.2297(6) 0.1016(4) 0.165(4) Uani 1 1 d U . .
C6 C 0.4926(8) 0.2196(7) 0.0654(4) 0.186(5) Uani 1 1 d U . .
H6 H 0.5084 0.2457 0.0463 0.224 Uiso 1 1 calc R . .
C7 C 0.4519(8) 0.1708(7) 0.0550(4) 0.180(5) Uani 1 1 d U . .
H7 H 0.4421 0.1641 0.0292 0.216 Uiso 1 1 calc R . .
C8 C 0.5480(6) 0.2824(7) 0.1129(4) 0.164(4) Uani 1 1 d U . .
C9 C 0.5336(7) 0.3146(6) 0.1450(4) 0.160(3) Uani 1 1 d U . .
H9 H 0.4964 0.3068 0.1580 0.192 Uiso 1 1 calc R . .
C10 C 0.5744(6) 0.3586(6) 0.1580(3) 0.150(3) Uani 1 1 d U . .
H10 H 0.5658 0.3785 0.1813 0.180 Uiso 1 1 calc R . .
C11 C 0.6263(5) 0.3746(6) 0.1388(4) 0.150(3) Uani 1 1 d U . .
C12 C 0.6377(6) 0.3448(7) 0.1064(4) 0.162(4) Uani 1 1 d U . .
H12 H 0.6735 0.3547 0.0924 0.195 Uiso 1 1 calc R . .
C13 C 0.5987(7) 0.2999(7) 0.0931(4) 0.173(4) Uani 1 1 d U . .
H13 H 0.6074 0.2808 0.0696 0.207 Uiso 1 1 calc R . .
C14 C 0.6699(6) 0.4187(5) 0.1562(4) 0.142(3) Uani 1 1 d U . .
O3 O 0.1558(4) 0.0591(4) 0.0628(2) 0.1491(17) Uani 1 1 d U . .
O4 O 0.2210(4) 0.0688(4) 0.1110(2) 0.1480(15) Uani 1 1 d U . .
O5 O 0.1616(4) -0.0678(4) 0.0502(2) 0.1542(18) Uani 1 1 d U . .
O6 O 0.2111(4) -0.0625(4) 0.1055(2) 0.1514(15) Uani 1 1 d U . .
C15 C 0.1720(6) -0.0845(6) 0.0831(4) 0.158(3) Uani 1 1 d U . .
C16 C 0.1332(9) -0.1359(8) 0.0982(5) 0.202(4) Uani 1 1 d U . .
C17 C 0.0867(9) -0.1608(9) 0.0767(5) 0.217(4) Uani 1 1 d U . .
H17 H 0.0789 -0.1434 0.0526 0.261 Uiso 1 1 calc R . .
C18 C 0.0517(9) -0.2080(9) 0.0877(5) 0.221(4) Uani 1 1 d U . .
H18 H 0.0267 -0.2279 0.0695 0.265 Uiso 1 1 calc RD . .
C19 C 0.0506(10) -0.2282(9) 0.1235(5) 0.215(4) Uani 1 1 d U . .
C20 C 0.0994(9) -0.2070(9) 0.1443(5) 0.216(4) Uani 1 1 d U . .
H20 H 0.1084 -0.2266 0.1676 0.259 Uiso 1 1 calc R . .
C21 C 0.1382(9) -0.1561(9) 0.1327(5) 0.208(4) Uani 1 1 d U . .
H21 H 0.1665 -0.1380 0.1498 0.250 Uiso 1 1 calc R . .
C22 C 0.0088(10) -0.2754(9) 0.1371(5) 0.214(4) Uani 1 1 d U . .
C23 C -0.0394(9) -0.2916(9) 0.1159(6) 0.219(5) Uani 1 1 d U . .
H23 H -0.0453 -0.2707 0.0926 0.263 Uiso 1 1 calc RD . .
C24 C 0.4170(8) -0.1616(8) 0.1240(5) 0.194(4) Uani 1 1 d U . .
H24 H 0.3837 -0.1508 0.1399 0.233 Uiso 1 1 calc R . .
C25 C 0.4269(8) -0.1335(8) 0.0896(5) 0.182(3) Uani 1 1 d U . .
C26 C 0.4817(8) -0.1441(8) 0.0716(5) 0.197(4) Uani 1 1 d U . .
H26 H 0.4931 -0.1193 0.0506 0.236 Uiso 1 1 calc R . .
C27 C 0.0202(9) -0.3099(9) 0.1667(6) 0.220(5) Uani 1 1 d U . .
H27 H 0.0569 -0.3028 0.1805 0.263 Uiso 1 1 calc R . .
C28 C 0.3824(7) -0.0849(7) 0.0767(4) 0.166(3) Uani 1 1 d U . .
O7 O 0.3922(4) -0.0633(4) 0.0453(2) 0.1499(15) Uani 1 1 d U . .
O8 O 0.3428(4) -0.0699(4) 0.0988(2) 0.1532(15) Uani 1 1 d U . .
O9 O 0.2096(3) -0.0487(3) -0.0204(2) 0.1415(16) Uani 1 1 d U . .
O10 O 0.3101(4) -0.0728(3) -0.0166(2) 0.1453(15) Uani 1 1 d U . .
C29 C 0.2574(6) -0.0788(5) -0.0301(3) 0.143(3) Uani 1 1 d U . .
C30 C 0.2484(6) -0.1263(5) -0.0608(4) 0.150(3) Uani 1 1 d U . .
C31 C 0.3004(6) -0.1561(6) -0.0741(4) 0.160(4) Uani 1 1 d U . .
H31 H 0.3393 -0.1490 -0.0629 0.192 Uiso 1 1 calc R . .
C32 C 0.2946(6) -0.1959(7) -0.1036(4) 0.169(4) Uani 1 1 d U . .
H32 H 0.3305 -0.2149 -0.1133 0.203 Uiso 1 1 calc R . .
C33 C 0.2407(6) -0.2093(6) -0.1196(4) 0.152(3) Uani 1 1 d U . .
C34 C 0.1883(6) -0.1793(6) -0.1053(4) 0.167(4) Uani 1 1 d U . .
H34 H 0.1492 -0.1884 -0.1157 0.201 Uiso 1 1 calc R . .
C35 C 0.1929(6) -0.1375(6) -0.0768(4) 0.159(4) Uani 1 1 d U . .
H35 H 0.1575 -0.1163 -0.0683 0.191 Uiso 1 1 calc R . .
C36 C 0.2355(6) -0.2546(6) -0.1487(4) 0.151(3) Uani 1 1 d U . .
C37 C 0.2188(6) 0.2408(6) -0.0748(4) 0.149(3) Uani 1 1 d U . .
H37 H 0.1877 0.2712 -0.0733 0.178 Uiso 1 1 calc R . .
C38 C 0.2185(5) 0.1896(5) -0.0494(3) 0.145(3) Uani 1 1 d U . .
H38 H 0.1850 0.1844 -0.0325 0.174 Uiso 1 1 calc R . .
C39 C 0.2666(6) 0.1472(5) -0.0490(3) 0.141(3) Uani 1 1 d U . .
C40 C 0.3136(6) 0.1553(6) -0.0739(4) 0.158(4) Uani 1 1 d U . .
H40 H 0.3465 0.1267 -0.0742 0.189 Uiso 1 1 calc R . .
C41 C 0.3146(7) 0.2040(6) -0.0988(4) 0.165(4) Uani 1 1 d U . .
H41 H 0.3494 0.2099 -0.1146 0.198 Uiso 1 1 calc R . .
C42 C 0.2644(5) 0.0927(4) -0.0246(3) 0.132(2) Uani 1 1 d U . .
O11 O 0.3103(3) 0.0580(3) -0.0249(2) 0.1409(14) Uani 1 1 d U . .
O12 O 0.2160(3) 0.0841(3) -0.0061(2) 0.1405(16) Uani 1 1 d U . .
O13 O 0.2732(3) 0.0023(3) 0.04486(18) 0.1379(12) Uani 1 1 d U . .
O14 O 0.4192(4) -0.0086(4) -0.0234(2) 0.164(2) Uani 1 1 d U . .
O15 O 0.1030(4) 0.0170(5) -0.0006(2) 0.173(3) Uani 1 1 d U . .
O16 O 0.2926(4) -0.0009(4) 0.1562(2) 0.169(2) Uani 1 1 d U . .

loop_
_atom_site_aniso_label
_atom_site_aniso_U_11
_atom_site_aniso_U_22
_atom_site_aniso_U_33
_atom_site_aniso_U_23
_atom_site_aniso_U_13
_atom_site_aniso_U_12
Fe1 0.1382(9) 0.1296(9) 0.1492(9) 0.0028(8) -0.0006(7) 0.0034(8)
Fe2 0.1384(9) 0.1251(8) 0.1470(9) 0.0023(8) -0.0025(7) 0.0025(7)
Fe3 0.1407(9) 0.1220(9) 0.1407(8) -0.0008(8) 0.0061(7) -0.0024(8)
O1 0.149(3) 0.144(3) 0.159(3) -0.006(3) -0.002(3) -0.009(3)
O2 0.149(3) 0.142(3) 0.156(3) -0.001(3) -0.002(3) -0.007(3)
C1 0.149(7) 0.136(7) 0.154(6) 0.002(5) -0.014(5) -0.003(5)
C2 0.156(8) 0.156(8) 0.162(7) -0.005(6) -0.016(6) -0.020(6)
C3 0.165(9) 0.152(8) 0.156(6) -0.007(6) 0.000(6) -0.021(6)
C4 0.166(10) 0.189(10) 0.156(7) -0.010(6) -0.013(7) -0.037(8)
C5 0.169(9) 0.171(8) 0.156(6) -0.012(6) -0.005(7) -0.035(7)
C6 0.228(14) 0.173(10) 0.158(6) -0.002(7) -0.023(9) -0.061(9)
C7 0.212(13) 0.171(10) 0.156(7) -0.005(7) -0.013(8) -0.052(8)
C8 0.162(8) 0.176(9) 0.155(8) -0.013(6) -0.011(6) -0.036(7)
C9 0.168(8) 0.164(9) 0.149(7) 0.001(6) 0.006(6) -0.027(7)
C10 0.159(7) 0.150(8) 0.141(7) -0.001(5) -0.005(5) -0.010(6)
C11 0.134(6) 0.152(8) 0.164(8) -0.012(6) -0.003(5) -0.004(5)
C12 0.153(8) 0.176(10) 0.158(7) -0.019(7) 0.004(6) -0.032(7)
C13 0.175(10) 0.180(11) 0.163(9) -0.024(7) 0.010(7) -0.042(8)
C14 0.152(8) 0.126(6) 0.149(7) 0.002(5) 0.000(6) 0.004(5)
O3 0.147(4) 0.150(4) 0.151(4) 0.001(3) 0.001(3) 0.009(3)
O4 0.146(3) 0.144(3) 0.154(3) -0.001(3) -0.002(3) 0.008(3)
O5 0.155(4) 0.146(4) 0.162(4) 0.012(3) 0.002(3) -0.009(3)
O6 0.152(3) 0.144(3) 0.158(3) 0.007(3) 0.002(3) -0.007(3)
C15 0.159(9) 0.155(8) 0.161(7) 0.009(6) 0.009(6) -0.022(6)
C16 0.217(8) 0.202(8) 0.186(7) 0.044(6) -0.012(7) -0.072(6)
C17 0.231(8) 0.221(8) 0.200(7) 0.044(6) -0.017(6) -0.084(6)
C18 0.234(8) 0.224(8) 0.203(6) 0.053(6) -0.019(6) -0.085(6)
C19 0.226(7) 0.219(7) 0.200(6) 0.051(5) -0.020(6) -0.072(6)
C20 0.226(8) 0.223(7) 0.200(7) 0.053(6) -0.016(6) -0.068(6)
C21 0.221(8) 0.211(8) 0.193(7) 0.044(6) -0.015(6) -0.065(6)
C22 0.221(7) 0.220(7) 0.203(7) 0.054(6) -0.018(6) -0.073(6)
C23 0.227(9) 0.222(9) 0.208(9) 0.049(8) -0.023(7) -0.072(8)
C24 0.198(8) 0.192(8) 0.192(7) 0.042(6) 0.006(6) 0.047(7)
C25 0.187(6) 0.179(6) 0.181(6) 0.035(5) 0.005(5) 0.046(5)
C26 0.193(7) 0.200(8) 0.197(7) 0.040(7) 0.011(6) 0.051(6)
C27 0.221(9) 0.232(9) 0.205(8) 0.055(7) -0.021(7) -0.074(8)
C28 0.172(7) 0.162(7) 0.164(6) 0.026(5) 0.006(5) 0.031(6)
O7 0.150(3) 0.144(3) 0.156(3) 0.009(3) -0.003(3) 0.013(3)
O8 0.154(3) 0.144(3) 0.161(3) 0.012(3) 0.001(3) 0.013(3)
O9 0.146(4) 0.128(3) 0.150(3) -0.006(3) -0.001(3) -0.002(3)
O10 0.149(3) 0.133(3) 0.154(3) -0.007(3) -0.004(3) 0.008(3)
C29 0.156(7) 0.125(6) 0.147(6) -0.007(5) 0.001(5) 0.000(5)
C30 0.156(7) 0.134(7) 0.161(8) -0.029(5) 0.007(6) -0.009(6)
C31 0.146(6) 0.152(8) 0.181(9) -0.034(7) 0.011(7) -0.015(6)
C32 0.146(6) 0.191(11) 0.169(9) -0.051(8) 0.007(7) 0.003(8)
C33 0.150(7) 0.145(8) 0.161(8) -0.025(6) -0.003(6) 0.002(6)
C34 0.154(7) 0.173(10) 0.174(9) -0.054(7) -0.002(7) -0.005(7)
C35 0.151(6) 0.149(8) 0.177(9) -0.034(6) -0.001(6) 0.009(7)
C36 0.137(7) 0.147(8) 0.168(8) -0.028(6) 0.005(7) 0.000(6)
C37 0.136(7) 0.146(7) 0.164(8) 0.025(6) -0.014(7) 0.004(6)
C38 0.140(6) 0.144(7) 0.150(7) 0.015(6) 0.007(6) 0.004(5)
C39 0.146(7) 0.137(6) 0.140(6) 0.010(5) 0.003(5) 0.007(5)
C40 0.139(7) 0.159(8) 0.175(9) 0.036(7) 0.010(6) 0.013(7)
C41 0.156(9) 0.163(9) 0.176(9) 0.037(7) 0.027(8) 0.011(8)
C42 0.139(6) 0.116(5) 0.142(6) -0.004(4) 0.001(5) -0.004(4)
O11 0.143(3) 0.132(3) 0.148(3) 0.007(3) 0.004(3) 0.003(3)
O12 0.143(4) 0.133(3) 0.145(3) 0.006(3) 0.003(3) 0.006(3)
O13 0.144(3) 0.124(3) 0.145(2) 0.002(2) -0.003(2) 0.001(2)
O14 0.155(4) 0.171(5) 0.166(4) 0.009(4) -0.007(4) 0.002(4)
O15 0.148(4) 0.211(8) 0.158(5) 0.019(5) -0.001(4) 0.010(4)
O16 0.167(5) 0.166(5) 0.173(4) 0.006(4) -0.005(4) 0.010(4)

_geom_special_details            
; 
 All esds (except the esd in the dihedral angle between two l.s. planes) 
 are estimated using the full covariance matrix.  The cell esds are taken 
 into account individually in the estimation of esds in distances, angles 
 and torsion angles; correlations between esds in cell parameters are only 
 used when they are defined by crystal symmetry.  An approximate (isotropic) 
 treatment of cell esds is used for estimating esds involving l.s. planes. 
;

loop_
_geom_bond_atom_site_label_1
_geom_bond_atom_site_label_2
_geom_bond_distance
_geom_bond_site_symmetry_2
_geom_bond_publ_flag
Fe1 O13 1.912(7) . ?
Fe1 O8 2.039(8) . ?
Fe1 O4 2.033(8) . ?
Fe1 O16 2.053(9) . ?
Fe1 O1 2.046(8) . ?
Fe1 O6 2.060(8) . ?
Fe2 O13 1.884(7) . ?
Fe2 O10 1.995(8) . ?
Fe2 O2 1.997(8) . ?
Fe2 O11 2.024(7) . ?
Fe2 O7 2.043(8) . ?
Fe2 O14 2.119(8) . ?
Fe3 O13 1.920(7) . ?
Fe3 O3 1.971(8) . ?
Fe3 O9 2.000(7) . ?
Fe3 O5 2.012(8) . ?
Fe3 O12