####################################################################### 
# 
# This file contains crystal structure data downloaded from the 
# Cambridge Structural Database (CSD) hosted by the Cambridge 
# Crystallographic Data Centre (CCDC).
# 
# Full information about CCDC data access policies and citation 
# guidelines are available at http://www.ccdc.cam.ac.uk/access/V1 
# 
# Audit and citation data items may have been added by the CCDC. 
# Please retain this information to preserve the provenance of 
# this file and to allow appropriate attribution of the data. 
# 
#######################################################################

data_mof52vt_340
_audit_block_doi                 10.5517/cc10hh33
_database_code_depnum_ccdc_archive 'CCDC 938404'
loop_
_citation_id
_citation_doi
_citation_year
1 10.1021/jp103212z 2010
_audit_update_record             
;
2013-05-09 deposited with the CCDC.	2024-07-11 downloaded from the CCDC.
;

_audit_creation_date             2010-06-30T16:42:31-00:00
_audit_creation_method           'WinGX routine CIF_UPDATE'

#----------------------------------------------------------------------------#
#                   CHEMICAL INFORMATION                                     #
#----------------------------------------------------------------------------#

_chemical_name_systematic        
;
 ?
;
_chemical_formula_moiety         'C24 H12 O13 Zn4'
_chemical_formula_sum            'C24 H12 O13 Zn4'
_chemical_formula_weight         769.82
_chemical_compound_source        'synthesis as described'

#----------------------------------------------------------------------------#
#                   UNIT CELL INFORMATION                                    #
#----------------------------------------------------------------------------#

_symmetry_cell_setting           cubic
_symmetry_space_group_name_H-M   'F m -3 m'
_symmetry_space_group_name_Hall  '-F 4 2 3'
_symmetry_Int_Tables_number      225
loop_
_symmetry_equiv_pos_as_xyz
'x, y, z'
'-x, -y, z'
'-x, y, -z'
'x, -y, -z'
'z, x, y'
'z, -x, -y'
'-z, -x, y'
'-z, x, -y'
'y, z, x'
'-y, z, -x'
'y, -z, -x'
'-y, -z, x'
'y, x, -z'
'-y, -x, -z'
'y, -x, z'
'-y, x, z'
'x, z, -y'
'-x, z, y'
'-x, -z, -y'
'x, -z, y'
'z, y, -x'
'z, -y, x'
'-z, y, x'
'-z, -y, -x'
'x, y+1/2, z+1/2'
'-x, -y+1/2, z+1/2'
'-x, y+1/2, -z+1/2'
'x, -y+1/2, -z+1/2'
'z, x+1/2, y+1/2'
'z, -x+1/2, -y+1/2'
'-z, -x+1/2, y+1/2'
'-z, x+1/2, -y+1/2'
'y, z+1/2, x+1/2'
'-y, z+1/2, -x+1/2'
'y, -z+1/2, -x+1/2'
'-y, -z+1/2, x+1/2'
'y, x+1/2, -z+1/2'
'-y, -x+1/2, -z+1/2'
'y, -x+1/2, z+1/2'
'-y, x+1/2, z+1/2'
'x, z+1/2, -y+1/2'
'-x, z+1/2, y+1/2'
'-x, -z+1/2, -y+1/2'
'x, -z+1/2, y+1/2'
'z, y+1/2, -x+1/2'
'z, -y+1/2, x+1/2'
'-z, y+1/2, x+1/2'
'-z, -y+1/2, -x+1/2'
'x+1/2, y, z+1/2'
'-x+1/2, -y, z+1/2'
'-x+1/2, y, -z+1/2'
'x+1/2, -y, -z+1/2'
'z+1/2, x, y+1/2'
'z+1/2, -x, -y+1/2'
'-z+1/2, -x, y+1/2'
'-z+1/2, x, -y+1/2'
'y+1/2, z, x+1/2'
'-y+1/2, z, -x+1/2'
'y+1/2, -z, -x+1/2'
'-y+1/2, -z, x+1/2'
'y+1/2, x, -z+1/2'
'-y+1/2, -x, -z+1/2'
'y+1/2, -x, z+1/2'
'-y+1/2, x, z+1/2'
'x+1/2, z, -y+1/2'
'-x+1/2, z, y+1/2'
'-x+1/2, -z, -y+1/2'
'x+1/2, -z, y+1/2'
'z+1/2, y, -x+1/2'
'z+1/2, -y, x+1/2'
'-z+1/2, y, x+1/2'
'-z+1/2, -y, -x+1/2'
'x+1/2, y+1/2, z'
'-x+1/2, -y+1/2, z'
'-x+1/2, y+1/2, -z'
'x+1/2, -y+1/2, -z'
'z+1/2, x+1/2, y'
'z+1/2, -x+1/2, -y'
'-z+1/2, -x+1/2, y'
'-z+1/2, x+1/2, -y'
'y+1/2, z+1/2, x'
'-y+1/2, z+1/2, -x'
'y+1/2, -z+1/2, -x'
'-y+1/2, -z+1/2, x'
'y+1/2, x+1/2, -z'
'-y+1/2, -x+1/2, -z'
'y+1/2, -x+1/2, z'
'-y+1/2, x+1/2, z'
'x+1/2, z+1/2, -y'
'-x+1/2, z+1/2, y'
'-x+1/2, -z+1/2, -y'
'x+1/2, -z+1/2, y'
'z+1/2, y+1/2, -x'
'z+1/2, -y+1/2, x'
'-z+1/2, y+1/2, x'
'-z+1/2, -y+1/2, -x'
'-x, -y, -z'
'x, y, -z'
'x, -y, z'
'-x, y, z'
'-z, -x, -y'
'-z, x, y'
'z, x, -y'
'z, -x, y'
'-y, -z, -x'
'y, -z, x'
'-y, z, x'
'y, z, -x'
'-y, -x, z'
'y, x, z'
'-y, x, -z'
'y, -x, -z'
'-x, -z, y'
'x, -z, -y'
'x, z, y'
'-x, z, -y'
'-z, -y, x'
'-z, y, -x'
'z, -y, -x'
'z, y, x'
'-x, -y+1/2, -z+1/2'
'x, y+1/2, -z+1/2'
'x, -y+1/2, z+1/2'
'-x, y+1/2, z+1/2'
'-z, -x+1/2, -y+1/2'
'-z, x+1/2, y+1/2'
'z, x+1/2, -y+1/2'
'z, -x+1/2, y+1/2'
'-y, -z+1/2, -x+1/2'
'y, -z+1/2, x+1/2'
'-y, z+1/2, x+1/2'
'y, z+1/2, -x+1/2'
'-y, -x+1/2, z+1/2'
'y, x+1/2, z+1/2'
'-y, x+1/2, -z+1/2'
'y, -x+1/2, -z+1/2'
'-x, -z+1/2, y+1/2'
'x, -z+1/2, -y+1/2'
'x, z+1/2, y+1/2'
'-x, z+1/2, -y+1/2'
'-z, -y+1/2, x+1/2'
'-z, y+1/2, -x+1/2'
'z, -y+1/2, -x+1/2'
'z, y+1/2, x+1/2'
'-x+1/2, -y, -z+1/2'
'x+1/2, y, -z+1/2'
'x+1/2, -y, z+1/2'
'-x+1/2, y, z+1/2'
'-z+1/2, -x, -y+1/2'
'-z+1/2, x, y+1/2'
'z+1/2, x, -y+1/2'
'z+1/2, -x, y+1/2'
'-y+1/2, -z, -x+1/2'
'y+1/2, -z, x+1/2'
'-y+1/2, z, x+1/2'
'y+1/2, z, -x+1/2'
'-y+1/2, -x, z+1/2'
'y+1/2, x, z+1/2'
'-y+1/2, x, -z+1/2'
'y+1/2, -x, -z+1/2'
'-x+1/2, -z, y+1/2'
'x+1/2, -z, -y+1/2'
'x+1/2, z, y+1/2'
'-x+1/2, z, -y+1/2'
'-z+1/2, -y, x+1/2'
'-z+1/2, y, -x+1/2'
'z+1/2, -y, -x+1/2'
'z+1/2, y, x+1/2'
'-x+1/2, -y+1/2, -z'
'x+1/2, y+1/2, -z'
'x+1/2, -y+1/2, z'
'-x+1/2, y+1/2, z'
'-z+1/2, -x+1/2, -y'
'-z+1/2, x+1/2, y'
'z+1/2, x+1/2, -y'
'z+1/2, -x+1/2, y'
'-y+1/2, -z+1/2, -x'
'y+1/2, -z+1/2, x'
'-y+1/2, z+1/2, x'
'y+1/2, z+1/2, -x'
'-y+1/2, -x+1/2, z'
'y+1/2, x+1/2, z'
'-y+1/2, x+1/2, -z'
'y+1/2, -x+1/2, -z'
'-x+1/2, -z+1/2, y'
'x+1/2, -z+1/2, -y'
'x+1/2, z+1/2, y'
'-x+1/2, z+1/2, -y'
'-z+1/2, -y+1/2, x'
'-z+1/2, y+1/2, -x'
'z+1/2, -y+1/2, -x'
'z+1/2, y+1/2, x'

_cell_length_a                   25.8030(5)
_cell_length_b                   25.8030(5)
_cell_length_c                   25.8030(5)
_cell_angle_alpha                90
_cell_angle_beta                 90
_cell_angle_gamma                90
_cell_volume                     17179.5(6)
_cell_formula_units_Z            8
_cell_measurement_temperature    340(2)
_cell_measurement_reflns_used    2975
_cell_measurement_theta_min      3.16
_cell_measurement_theta_max      25
_cell_measurement_wavelength     0.71073

#----------------------------------------------------------------------------#
#                   CRYSTAL INFORMATION                                      #
#----------------------------------------------------------------------------#

_exptl_crystal_description       cube
_exptl_crystal_colour            colourless
_exptl_crystal_size_max          0.260
_exptl_crystal_size_mid          0.186
_exptl_crystal_size_min          0.150
_exptl_crystal_density_diffrn    0.595
_exptl_crystal_density_method    'not measured'
_exptl_crystal_F_000             3040
_exptl_special_details           
;
 ?
;

#----------------------------------------------------------------------------#
#                   ABSORPTION CORRECTION                                    #
#----------------------------------------------------------------------------#

_exptl_absorpt_correction_type   multi-scan
_exptl_absorpt_correction_T_max  0.84
_exptl_absorpt_correction_T_min  0.71
_exptl_absorpt_coefficient_mu    1.124
_exptl_absorpt_process_details   
;
SADABS (Sheldrick, 2004)
;

#----------------------------------------------------------------------------#
#                   DATA COLLECTION                                          #
#----------------------------------------------------------------------------#

_diffrn_ambient_temperature      340(2)
_diffrn_radiation_wavelength     0.71073
_diffrn_radiation_type           MoK\a
_diffrn_radiation_monochromator  graphite
_diffrn_radiation_probe          x-ray
_diffrn_source                   'rotating anode'
_diffrn_source_type              ?
_diffrn_detector_type            'APEX2 charged-coupled device'
_diffrn_measurement_device_type  'Bruker X8 APEX-II diffractometer'
_diffrn_measurement_method       
;
			Narrow slices collected using \f- and \w-scans
;
_diffrn_detector_area_resol_mean 12.00
_diffrn_standards_number         0
_diffrn_reflns_av_R_equivalents  0.059
_diffrn_reflns_av_unetI/netI     0.0291
_diffrn_reflns_number            15365
_diffrn_reflns_limit_h_min       -33
_diffrn_reflns_limit_h_max       19
_diffrn_reflns_limit_k_min       -17
_diffrn_reflns_limit_k_max       34
_diffrn_reflns_limit_l_min       -18
_diffrn_reflns_limit_l_max       28
_diffrn_reflns_theta_min         1.37
_diffrn_reflns_theta_max         27.92
_diffrn_reflns_theta_full        27.92
_diffrn_measured_fraction_theta_full 0.997
_diffrn_measured_fraction_theta_max 0.997
_reflns_number_total             1086
_reflns_number_gt                698
_reflns_threshold_expression     >2\s(I)

#----------------------------------------------------------------------------#
#                   COMPUTER PROGRAMS USED                                   #
#----------------------------------------------------------------------------#

_computing_data_collection       'APEX II'
_computing_cell_refinement       SAINT
_computing_data_reduction        SAINT
_computing_structure_solution    SHELXS
_computing_structure_refinement  'SHELXL-97 (Sheldrick, 2008)'
_computing_molecular_graphics    'Ortep-3 for Windows (Farrugia, 1997)'
_computing_publication_material  'WinGX publication routines (Farrugia, 1999)'

#----------------------------------------------------------------------------#
#                   STRUCTURE SOLUTION
#----------------------------------------------------------------------------#

_atom_sites_solution_primary     direct
_atom_sites_solution_secondary   difmap
_atom_sites_solution_hydrogens   geom

#----------------------------------------------------------------------------#
#                   REFINEMENT INFORMATION                                   #
#----------------------------------------------------------------------------#

_refine_special_details          
;
 Refinement of F^2^ against ALL reflections.  The weighted R-factor wR and
 goodness of fit S are based on F^2^, conventional R-factors R are based
 on F, with F set to zero for negative F^2^. The threshold expression of
 F^2^ > 2\s(F^2^) is used only for calculating R-factors(gt) etc. and is
 not relevant to the choice of reflections for refinement.  R-factors based
 on F^2^ are statistically about twice as large as those based on F, and R-
 factors based on ALL data will be even larger.
;
_refine_ls_structure_factor_coef Fsqd
_refine_ls_matrix_type           full
_refine_ls_weighting_scheme      calc
_refine_ls_weighting_details     
'calc w=1/[\s^2^(Fo^2^)+(0.1000P)^2^+0.0000P] where P=(Fo^2^+2Fc^2^)/3'
_refine_ls_hydrogen_treatment    constr
_refine_ls_extinction_method     none
_refine_ls_number_reflns         1086
_refine_ls_number_parameters     26
_refine_ls_number_restraints     0
_refine_ls_R_factor_all          0.0708
_refine_ls_R_factor_gt           0.0313
_refine_ls_wR_factor_ref         0.1599
_refine_ls_wR_factor_gt          0.0841
_refine_ls_goodness_of_fit_ref   1.101
_refine_ls_restrained_S_all      1.101
_refine_ls_shift/su_max          0.062
_refine_ls_shift/su_mean         0.005
_refine_diff_density_max         0.661
_refine_diff_density_min         -0.362
_refine_diff_density_rms         0.072

#----------------------------------------------------------------------------#
#                   ATOMIC TYPES, COORDINATES AND THERMAL PARAMETERS         #
#----------------------------------------------------------------------------#

loop_
_atom_type_symbol
_atom_type_description
_atom_type_scat_dispersion_real
_atom_type_scat_dispersion_imag
_atom_type_scat_source
C C 0.0033 0.0016 'International Tables Vol C Tables 4.2.6.8 and 6.1.1.4'
H H 0 0 'International Tables Vol C Tables 4.2.6.8 and 6.1.1.4'
O O 0.0106 0.006 'International Tables Vol C Tables 4.2.6.8 and 6.1.1.4'
Zn Zn 0.2839 1.4301 'International Tables Vol C Tables 4.2.6.8 and 6.1.1.4'

loop_
_atom_site_label
_atom_site_type_symbol
_atom_site_fract_x
_atom_site_fract_y
_atom_site_fract_z
_atom_site_U_iso_or_equiv
_atom_site_adp_type
_atom_site_occupancy
_atom_site_symmetry_multiplicity
_atom_site_calc_flag
_atom_site_refinement_flags
_atom_site_disorder_assembly
_atom_site_disorder_group
Zn1 Zn 0.206460(15) 0.293540(15) 0.206460(15) 0.0311(3) Uani 1 6 d S . .
O1 O 0.25 0.25 0.25 0.0319(17) Uani 1 24 d S . .
O2 O 0.21957(9) 0.28043(9) 0.13397(11) 0.0638(9) Uani 1 2 d S . .
C1 C 0.25 0.25 0.11143(19) 0.0501(14) Uani 1 4 d S . .
C2 C 0.25 0.25 0.0538(2) 0.0562(17) Uani 1 4 d S . .
C3 C 0.21824(14) 0.28176(14) 0.02655(18) 0.089(2) Uani 1 2 d S . .
H3 H 0.196 0.304 0.0442 0.116 Uiso 1 2 calc SR . .

loop_
_atom_site_aniso_label
_atom_site_aniso_U_11
_atom_site_aniso_U_22
_atom_site_aniso_U_33
_atom_site_aniso_U_23
_atom_site_aniso_U_13
_atom_site_aniso_U_12
Zn1 0.0311(3) 0.0311(3) 0.0311(3) 0.00062(15) -0.00062(15) 0.00062(15)
O1 0.0319(17) 0.0319(17) 0.0319(17) 0 0 0
O2 0.0803(14) 0.0803(14) 0.0307(15) -0.0021(10) 0.0021(10) 0.0267(17)
C1 0.060(2) 0.060(2) 0.031(3) 0 0 0.004(3)
C2 0.069(3) 0.069(3) 0.030(3) 0 0 0.018(3)
C3 0.117(3) 0.117(3) 0.034(3) -0.0045(14) 0.0045(14) 0.071(4)


#----------------------------------------------------------------------------#
#                   MOLECULAR GEOMETRY                                       #
#----------------------------------------------------------------------------#

_geom_special_details            
;
 All s.u.'s (except the s.u. in the dihedral angle between two l.s. planes)
 are estimated using the full covariance matrix.  The cell s.u.'s are taken
 into account individually in the estimation of s.u.'s in distances, angles
 and torsion angles; correlations between s.u.'s in cell parameters are only
 used when they are defined by crystal symmetry.  An approximate (isotropic)
 treatment of cell s.u.'s is used for estimating s.u.'s involving l.s. planes.
;
loop_
_geom_bond_atom_site_label_1
_geom_bond_atom_site_label_2
_geom_bond_distance
_geom_bond_site_symmetry_2
_geom_bond_publ_flag
Zn1 O2 1.931(3) 84 ?
Zn1 O2 1.931(3) 30 ?
Zn1 O2 1.931(3) . ?
Zn1 O1 1.9459(7) . ?
O1 Zn1 1.9459(7) 9 ?
O1 Zn1 1.9459(7) 28 ?
O1 Zn1 1.9459(7) 51 ?
O2 C1 1.253(3) . ?
C1 O2 1.253(3) 74 ?
C1 C2 1.487(7) . ?
C2 C3 1.356(5) . ?
C2 C3 1.356(5) 74 ?
C3 C3 1.370(9) 98 ?
C3 H3 0.93 . ?

loop_
_geom_angle_atom_site_label_1
_geom_angle_atom_site_label_2
_geom_angle_atom_site_label_3
_geom_angle
_geom_angle_site_symmetry_1
_geom_angle_site_symmetry_3
_geom_angle_publ_flag
O2 Zn1 O2 107.99(10) 84 30 ?
O2 Zn1 O2 107.99(10) 84 . ?
O2 Zn1 O2 107.99(10) 30 . ?
O2 Zn1 O1 110.91(10) 84 . ?
O2 Zn1 O1 110.91(10) 30 . ?
O2 Zn1 O1 110.91(10) . . ?
Zn1 O1 Zn1 109.5 9 . ?
Zn1 O1 Zn1 109.5 9 28 ?
Zn1 O1 Zn1 109.5 . 28 ?
Zn1 O1 Zn1 109.5 9 51 ?
Zn1 O1 Zn1 109.5 . 51 ?
Zn1 O1 Zn1 109.5 28 51 ?
C1 O2 Zn1 132.0(3) . . ?
O2 C1 O2 124.7(5) . 74 ?
O2 C1 C2 117.6(3) . . ?
O2 C1 C2 117.6(3) 74 . ?
C3 C2 C3 117.5(6) . 74 ?
C3 C2 C1 121.3(3) . . ?
C3 C2 C1 121.3(3) 74 . ?
C2 C3 C3 121.3(3) . 98 ?
C2 C3 H3 119.4 . . ?
C3 C3 H3 119.4 98 . ?

loop_
_geom_torsion_atom_site_label_1
_geom_torsion_atom_site_label_2
_geom_torsion_atom_site_label_3
_geom_torsion_atom_site_label_4
_geom_torsion
_geom_torsion_site_symmetry_1
_geom_torsion_site_symmetry_2
_geom_torsion_site_symmetry_3
_geom_torsion_site_symmetry_4
_geom_torsion_publ_flag
O2 Zn1 O1 Zn1 -120 84 . . 9 ?
O2 Zn1 O1 Zn1 120 30 . . 9 ?
O2 Zn1 O1 Zn1 0 . . . 9 ?
O2 Zn1 O1 Zn1 120 84 . . 28 ?
O2 Zn1 O1 Zn1 0 30 . . 28 ?
O2 Zn1 O1 Zn1 -120 . . . 28 ?
O2 Zn1 O1 Zn1 0 84 . . 51 ?
O2 Zn1 O1 Zn1 -120 30 . . 51 ?
O2 Zn1 O1 Zn1 120 . . . 51 ?
O2 Zn1 O2 C1 121.73(12) 84 . . . ?
O2 Zn1 O2 C1 -121.73(12) 30 . . . ?
O1 Zn1 O2 C1 0 . . . . ?
Zn1 O2 C1 O2 0 . . . 74 ?
Zn1 O2 C1 C2 180 . . . . ?
O2 C1 C2 C3 0 . . . . ?
O2 C1 C2 C3 180 74 . . . ?
O2 C1 C2 C3 180 . . . 74 ?
O2 C1 C2 C3 0 74 . . 74 ?
C3 C2 C3 C3 0 74 . . 98 ?
C1 C2 C3 C3 180 . . . 98 ?

# The following lines are used to test the character set of files sent by
# network email or other means. They are not part of the CIF data set
# abcdefghijklmnopqrstuvwxyzABCDEFGHIJKLMNOPQRSTUVWXYZ0123456789
# !@#$%^&*()_+{}:"~<>?|\-=[];'`,./

# END of CIF
