####################################################################### 
# 
# This file contains crystal structure data downloaded from the 
# Cambridge Structural Database (CSD) hosted by the Cambridge 
# Crystallographic Data Centre (CCDC).
# 
# Full information about CCDC data access policies and citation 
# guidelines are available at http://www.ccdc.cam.ac.uk/access/V1 
# 
# Audit and citation data items may have been added by the CCDC. 
# Please retain this information to preserve the provenance of 
# this file and to allow appropriate attribution of the data. 
# 
#######################################################################

data_3
_audit_block_doi                 10.5517/ccz2gyf
_database_code_depnum_ccdc_archive 'CCDC 896115'
loop_
_citation_id
_citation_doi
_citation_year
1 10.1021/cg400015v 2013
_audit_update_record             
;
2013-05-10 deposited with the CCDC.	2024-07-11 downloaded from the CCDC.
;

_audit_creation_method           SHELXL-97
_chemical_name_systematic        
; 
 ? 
;
_chemical_name_common            ?
_chemical_melting_point          ?
_chemical_formula_moiety         ?
_chemical_formula_sum            'C67 H70 Cd3 N6 O23'
_chemical_formula_weight         1664.49

loop_
_atom_type_symbol
_atom_type_description
_atom_type_scat_dispersion_real
_atom_type_scat_dispersion_imag
_atom_type_scat_source
C C 0.0033 0.0016 'International Tables Vol C Tables 4.2.6.8 and 6.1.1.4'
H H 0.0000 0.0000 'International Tables Vol C Tables 4.2.6.8 and 6.1.1.4'
N N 0.0061 0.0033 'International Tables Vol C Tables 4.2.6.8 and 6.1.1.4'
O O 0.0106 0.0060 'International Tables Vol C Tables 4.2.6.8 and 6.1.1.4'
Cd Cd -0.8075 1.2024 'International Tables Vol C Tables 4.2.6.8 and 6.1.1.4'

_symmetry_cell_setting           orthorhombic
_symmetry_space_group_name_H-M   'P n a 21'
_symmetry_space_group_name_Hall  'P 2c -2n'

loop_
_symmetry_equiv_pos_as_xyz
'x, y, z'
'-x, -y, z+1/2'
'x+1/2, -y+1/2, z'
'-x+1/2, y+1/2, z+1/2'

_cell_length_a                   36.680(15)
_cell_length_b                   5.819(2)
_cell_length_c                   33.079(14)
_cell_angle_alpha                90.00
_cell_angle_beta                 90.00
_cell_angle_gamma                90.00
_cell_volume                     7060(5)
_cell_formula_units_Z            4
_cell_measurement_temperature    291(2)
_cell_measurement_reflns_used    ?
_cell_measurement_theta_min      ?
_cell_measurement_theta_max      ?

_exptl_crystal_description       ?
_exptl_crystal_colour            ?
_exptl_crystal_size_max          0.28
_exptl_crystal_size_mid          0.24
_exptl_crystal_size_min          0.22
_exptl_crystal_density_meas      ?
_exptl_crystal_density_diffrn    1.566
_exptl_crystal_density_method    'not measured'
_exptl_crystal_F_000             3368
_exptl_absorpt_coefficient_mu    0.976
_exptl_absorpt_correction_type   multi-scan
_exptl_absorpt_correction_T_min  0.7718
_exptl_absorpt_correction_T_max  0.8140
_exptl_absorpt_process_details   'SADABS; Bruker, 2000'

_exptl_special_details           
; 
 ? 
;

_diffrn_ambient_temperature      291(2)
_diffrn_radiation_wavelength     0.71073
_diffrn_radiation_type           MoK\a
_diffrn_radiation_source         'fine-focus sealed tube'
_diffrn_radiation_monochromator  graphite
_diffrn_measurement_device_type  'phi and omega scans'
_diffrn_measurement_method       ?
_diffrn_detector_area_resol_mean ?
_diffrn_standards_number         ?
_diffrn_standards_interval_count ?
_diffrn_standards_interval_time  ?
_diffrn_standards_decay_%        ?
_diffrn_reflns_number            39344
_diffrn_reflns_av_R_equivalents  0.0438
_diffrn_reflns_av_sigmaI/netI    0.0429
_diffrn_reflns_limit_h_min       -34
_diffrn_reflns_limit_h_max       44
_diffrn_reflns_limit_k_min       -7
_diffrn_reflns_limit_k_max       6
_diffrn_reflns_limit_l_min       -38
_diffrn_reflns_limit_l_max       40
_diffrn_reflns_theta_min         1.11
_diffrn_reflns_theta_max         26.00
_reflns_number_total             13566
_reflns_number_gt                11981
_reflns_threshold_expression     >2sigma(I)

_computing_data_collection       'SMART (Bruker, 2000)'
_computing_cell_refinement       'SMART (Bruker, 2000)'
_computing_data_reduction        'SMART (Bruker, 2000)'
_computing_structure_solution    'SHELXS-97 (Sheldrick, 2008)'
_computing_structure_refinement  'SHELXL-97 (Sheldrick, 2008)'
_computing_molecular_graphics    SHELXTL
_computing_publication_material  SHELXTL

_refine_special_details          
; 
 Refinement of F^2^ against ALL reflections.  The weighted R-factor wR and 
 goodness of fit S are based on F^2^, conventional R-factors R are based 
 on F, with F set to zero for negative F^2^. The threshold expression of 
 F^2^ > 2sigma(F^2^) is used only for calculating R-factors(gt) etc. and is 
 not relevant to the choice of reflections for refinement.  R-factors based 
 on F^2^ are statistically about twice as large as those based on F, and R- 
 factors based on ALL data will be even larger. 
;

_refine_ls_structure_factor_coef Fsqd
_refine_ls_matrix_type           full
_refine_ls_weighting_scheme      calc
_refine_ls_weighting_details     
'calc w=1/[\s^2^(Fo^2^)+(0.0700P)^2^+1.9900P] where P=(Fo^2^+2Fc^2^)/3'
_atom_sites_solution_primary     direct
_atom_sites_solution_secondary   difmap
_atom_sites_solution_hydrogens   geom
_refine_ls_hydrogen_treatment    constr
_refine_ls_extinction_method     none
_refine_ls_extinction_coef       ?
_refine_ls_abs_structure_details 'Flack H D (1983), Acta Cryst. A39, 876-881'
_refine_ls_abs_structure_Flack   0.04(2)
_refine_ls_number_reflns         13566
_refine_ls_number_parameters     899
_refine_ls_number_restraints     1
_refine_ls_R_factor_all          0.0490
_refine_ls_R_factor_gt           0.0429
_refine_ls_wR_factor_ref         0.1066
_refine_ls_wR_factor_gt          0.1040
_refine_ls_goodness_of_fit_ref   1.017
_refine_ls_restrained_S_all      1.016
_refine_ls_shift/su_max          0.000
_refine_ls_shift/su_mean         0.000

loop_
_atom_site_label
_atom_site_type_symbol
_atom_site_fract_x
_atom_site_fract_y
_atom_site_fract_z
_atom_site_U_iso_or_equiv
_atom_site_adp_type
_atom_site_occupancy
_atom_site_symmetry_multiplicity
_atom_site_calc_flag
_atom_site_refinement_flags
_atom_site_disorder_assembly
_atom_site_disorder_group
C1 C 0.47856(18) 0.9074(10) -0.05042(18) 0.0318(13) Uani 1 1 d . . .
C2 C 0.48124(15) 0.8414(10) -0.09272(17) 0.0274(11) Uani 1 1 d . . .
C3 C 0.49941(14) 0.9843(9) -0.11707(16) 0.0230(11) Uani 1 1 d . . .
H3 H 0.5091 1.1202 -0.1069 0.028 Uiso 1 1 calc R . .
C4 C 0.50395(18) 0.9278(11) -0.15907(17) 0.0313(13) Uani 1 1 d . . .
C5 C 0.48717(14) 0.7250(10) -0.17389(18) 0.0263(12) Uani 1 1 d . . .
H5 H 0.4882 0.6865 -0.2011 0.032 Uiso 1 1 calc R . .
C6 C 0.46948(17) 0.5882(10) -0.14662(19) 0.0281(12) Uani 1 1 d . . .
C7 C 0.46758(14) 0.6256(9) -0.10598(17) 0.0270(12) Uani 1 1 d . . .
H7 H 0.4580 0.5175 -0.0882 0.032 Uiso 1 1 calc R . .
C8 C 0.55560(15) 1.1368(11) -0.17718(19) 0.0295(12) Uani 1 1 d . . .
C9 C 0.58144(18) 0.9869(10) -0.16137(18) 0.0286(14) Uani 1 1 d . . .
H9 H 0.5743 0.8438 -0.1517 0.034 Uiso 1 1 calc R . .
C10 C 0.61792(17) 1.0511(12) -0.16001(19) 0.0313(14) Uani 1 1 d . . .
H10 H 0.6352 0.9508 -0.1494 0.038 Uiso 1 1 calc R . .
C11 C 0.62857(14) 1.2651(9) -0.17448(17) 0.0246(11) Uani 1 1 d . . .
C12 C 0.60273(16) 1.4149(11) -0.19029(18) 0.0286(13) Uani 1 1 d . . .
H12 H 0.6099 1.5581 -0.2000 0.034 Uiso 1 1 calc R . .
C13 C 0.56625(15) 1.3508(11) -0.19164(17) 0.0280(12) Uani 1 1 d . . .
H13 H 0.5490 1.4510 -0.2022 0.034 Uiso 1 1 calc R . .
C14 C 0.66534(15) 1.3392(10) -0.17377(18) 0.0258(12) Uani 1 1 d . . .
C15 C 0.41833(13) 0.3352(9) -0.16062(14) 0.0194(10) Uani 1 1 d . . .
C16 C 0.40859(15) 0.1186(9) -0.1747(2) 0.0290(13) Uani 1 1 d . . .
H16 H 0.4265 0.0148 -0.1825 0.035 Uiso 1 1 calc R . .
C17 C 0.37204(16) 0.0572(10) -0.17708(16) 0.0270(12) Uani 1 1 d . . .
H17 H 0.3655 -0.0877 -0.1865 0.032 Uiso 1 1 calc R . .
C18 C 0.34521(15) 0.2125(10) -0.16544(17) 0.0261(12) Uani 1 1 d . . .
C19 C 0.35495(16) 0.4291(11) -0.15140(18) 0.0297(12) Uani 1 1 d . . .
H19 H 0.3370 0.5329 -0.1436 0.036 Uiso 1 1 calc R . .
C20 C 0.39151(18) 0.4904(10) -0.1490(2) 0.0290(14) Uani 1 1 d . . .
H20 H 0.3980 0.6354 -0.1396 0.035 Uiso 1 1 calc R . .
C21 C 0.30586(15) 0.1449(10) -0.16698(18) 0.0271(12) Uani 1 1 d . . .
C22 C 0.49990(17) 0.9250(12) 0.10459(18) 0.0328(13) Uani 1 1 d . . .
C23 C 0.50468(13) 0.8543(8) 0.14653(15) 0.0181(10) Uani 1 1 d . . .
C24 C 0.52325(17) 0.9938(9) 0.17138(19) 0.0299(13) Uani 1 1 d . . .
H24 H 0.5328 1.1287 0.1606 0.036 Uiso 1 1 calc R . .
C25 C 0.52917(15) 0.9509(11) 0.21168(18) 0.0239(11) Uani 1 1 d . . .
C26 C 0.51296(13) 0.7365(9) 0.22734(16) 0.0211(11) Uani 1 1 d . . .
H26 H 0.5161 0.6939 0.2542 0.025 Uiso 1 1 calc R . .
C27 C 0.49359(16) 0.6039(10) 0.20182(18) 0.0281(12) Uani 1 1 d . . .
C28 C 0.49099(15) 0.6379(10) 0.16060(18) 0.0276(12) Uani 1 1 d . . .
H28 H 0.4811 0.5286 0.1433 0.033 Uiso 1 1 calc R . .
C29 C 0.58161(14) 1.1435(10) 0.23375(17) 0.0252(11) Uani 1 1 d . . .
C30 C 0.6073(2) 0.9979(10) 0.2163(2) 0.0342(17) Uani 1 1 d . . .
H30 H 0.5995 0.8582 0.2057 0.041 Uiso 1 1 calc R . .
C31 C 0.64417(17) 1.0533(11) 0.21406(19) 0.0289(12) Uani 1 1 d . . .
H31 H 0.6614 0.9556 0.2027 0.035 Uiso 1 1 calc R . .
C32 C 0.65320(18) 1.2673(11) 0.2303(2) 0.0371(14) Uani 1 1 d . . .
C33 C 0.62777(15) 1.4160(11) 0.24610(17) 0.0269(12) Uani 1 1 d . . .
H33 H 0.6351 1.5564 0.2568 0.032 Uiso 1 1 calc R . .
C34 C 0.59225(16) 1.3573(9) 0.24598(15) 0.0214(11) Uani 1 1 d . . .
H34 H 0.5748 1.4634 0.2543 0.026 Uiso 1 1 calc R . .
C35 C 0.69360(15) 1.3381(10) 0.22942(19) 0.0276(12) Uani 1 1 d . . .
C36 C 0.44325(14) 0.3489(11) 0.21572(16) 0.0250(11) Uani 1 1 d . . .
C37 C 0.41611(17) 0.5017(10) 0.2040(2) 0.0321(15) Uani 1 1 d . . .
H37 H 0.4223 0.6465 0.1943 0.039 Uiso 1 1 calc R . .
C38 C 0.37967(16) 0.4383(12) 0.20679(18) 0.0281(13) Uani 1 1 d . . .
H38 H 0.3615 0.5405 0.1989 0.034 Uiso 1 1 calc R . .
C39 C 0.37036(15) 0.2220(10) 0.22133(16) 0.0254(12) Uani 1 1 d . . .
C40 C 0.39749(14) 0.0692(10) 0.23306(18) 0.0246(11) Uani 1 1 d . . .
H40 H 0.3913 -0.0756 0.2428 0.030 Uiso 1 1 calc R . .
C41 C 0.43394(15) 0.1326(9) 0.23026(17) 0.0259(11) Uani 1 1 d . . .
H41 H 0.4521 0.0304 0.2381 0.031 Uiso 1 1 calc R . .
C42 C 0.33136(14) 0.1539(10) 0.22577(18) 0.0244(12) Uani 1 1 d . . .
C43 C 0.54681(18) 1.2987(11) -0.01738(19) 0.0388(15) Uani 1 1 d . . .
H43 H 0.5270 1.3975 -0.0202 0.047 Uiso 1 1 calc R . .
C44 C 0.5792(2) 1.5136(10) -0.0774(2) 0.0383(15) Uani 1 1 d . . .
H44A H 0.5557 1.5808 -0.0823 0.058 Uiso 1 1 calc R . .
H44B H 0.5878 1.4408 -0.1017 0.058 Uiso 1 1 calc R . .
H44C H 0.5961 1.6313 -0.0695 0.058 Uiso 1 1 calc R . .
C45 C 0.60670(15) 1.1683(11) -0.04215(18) 0.0333(13) Uani 1 1 d . . .
H45A H 0.6290 1.2481 -0.0361 0.050 Uiso 1 1 calc R . .
H45B H 0.6089 1.0924 -0.0678 0.050 Uiso 1 1 calc R . .
H45C H 0.6020 1.0565 -0.0215 0.050 Uiso 1 1 calc R . .
C46 C 0.40734(18) 1.0500(12) 0.0709(2) 0.0379(14) Uani 1 1 d . . .
H46 H 0.4150 1.1919 0.0807 0.046 Uiso 1 1 calc R . .
C47 C 0.37769(17) 0.6806(12) 0.0873(2) 0.0409(14) Uani 1 1 d . . .
H47A H 0.3632 0.6416 0.0642 0.061 Uiso 1 1 calc R . .
H47B H 0.3669 0.6149 0.1111 0.061 Uiso 1 1 calc R . .
H47C H 0.4019 0.6213 0.0839 0.061 Uiso 1 1 calc R . .
C48 C 0.35142(19) 1.0642(12) 0.1154(2) 0.0410(15) Uani 1 1 d . . .
H48A H 0.3627 1.1269 0.1391 0.061 Uiso 1 1 calc R . .
H48B H 0.3318 0.9642 0.1231 0.061 Uiso 1 1 calc R . .
H48C H 0.3420 1.1869 0.0990 0.061 Uiso 1 1 calc R . .
C49 C 0.24886(15) 0.1576(10) 0.40002(17) 0.0266(11) Uani 1 1 d . . .
H49 H 0.2298 0.1200 0.3827 0.032 Uiso 1 1 calc R . .
C50 C 0.25458(18) 0.0228(11) 0.4368(2) 0.0345(14) Uani 1 1 d . . .
H50 H 0.2377 -0.0882 0.4444 0.041 Uiso 1 1 calc R . .
C51 C 0.28253(15) 0.0582(10) 0.45802(18) 0.0284(12) Uani 1 1 d . . .
C52 C 0.30583(13) 0.2267(10) 0.44853(16) 0.0267(11) Uani 1 1 d . . .
H52 H 0.3268 0.2491 0.4639 0.032 Uiso 1 1 calc R . .
C53 C 0.29879(16) 0.3644(10) 0.41653(17) 0.0296(12) Uani 1 1 d . . .
H53 H 0.3142 0.4883 0.4116 0.036 Uiso 1 1 calc R . .
C54 C 0.28873(16) -0.1024(10) 0.49529(17) 0.0297(12) Uani 1 1 d . . .
H54A H 0.2700 -0.2204 0.4955 0.036 Uiso 1 1 calc R . .
H54B H 0.3122 -0.1781 0.4925 0.036 Uiso 1 1 calc R . .
C55 C 0.28783(16) 0.0232(10) 0.5348(2) 0.0350(14) Uani 1 1 d . . .
H55A H 0.3065 0.1413 0.5349 0.042 Uiso 1 1 calc R . .
H55B H 0.2932 -0.0833 0.5566 0.042 Uiso 1 1 calc R . .
C56 C 0.25119(16) 0.1325(11) 0.54220(17) 0.0317(13) Uani 1 1 d . . .
H56A H 0.2322 0.0222 0.5359 0.038 Uiso 1 1 calc R . .
H56B H 0.2483 0.2625 0.5241 0.038 Uiso 1 1 calc R . .
C57 C 0.22432(17) 0.1762(10) 0.65247(18) 0.0314(12) Uani 1 1 d . . .
H57 H 0.2083 0.1014 0.6698 0.038 Uiso 1 1 calc R . .
C58 C 0.22925(16) 0.0887(11) 0.61212(19) 0.0328(13) Uani 1 1 d . . .
H58 H 0.2203 -0.0551 0.6049 0.039 Uiso 1 1 calc R . .
C59 C 0.24636(16) 0.2152(11) 0.58629(19) 0.0334(13) Uani 1 1 d . . .
C60 C 0.26439(18) 0.4169(11) 0.5965(2) 0.0399(15) Uani 1 1 d . . .
H60 H 0.2785 0.4994 0.5783 0.048 Uiso 1 1 calc R . .
C61 C 0.25921(18) 0.4883(11) 0.6386(2) 0.0365(15) Uani 1 1 d . . .
H61 H 0.2684 0.6297 0.6468 0.044 Uiso 1 1 calc R . .
C62 C 0.89699(17) 0.1447(11) 0.5496(2) 0.0361(14) Uani 1 1 d . . .
H62 H 0.9207 0.1585 0.5401 0.043 Uiso 1 1 calc R . .
C63 C 0.9211(2) -0.0523(12) 0.6134(2) 0.0424(16) Uani 1 1 d . . .
H63A H 0.9360 -0.1666 0.6005 0.064 Uiso 1 1 calc R . .
H63B H 0.9114 -0.1134 0.6381 0.064 Uiso 1 1 calc R . .
H63C H 0.9357 0.0807 0.6193 0.064 Uiso 1 1 calc R . .
C64 C 0.8530(2) -0.0606(12) 0.5949(2) 0.0424(15) Uani 1 1 d . . .
H64A H 0.8384 0.0718 0.6010 0.064 Uiso 1 1 calc R . .
H64B H 0.8529 -0.1636 0.6176 0.064 Uiso 1 1 calc R . .
H64C H 0.8431 -0.1374 0.5716 0.064 Uiso 1 1 calc R . .
C65 C 0.14153(18) 0.8185(13) 0.5054(2) 0.0454(17) Uani 1 1 d . . .
H65 H 0.1204 0.7997 0.5205 0.054 Uiso 1 1 calc R . .
C66 C 0.18558(17) 0.6210(11) 0.4563(2) 0.0397(15) Uani 1 1 d . . .
H66A H 0.1886 0.4662 0.4468 0.060 Uiso 1 1 calc R . .
H66B H 0.2040 0.6552 0.4760 0.060 Uiso 1 1 calc R . .
H66C H 0.1877 0.7254 0.4339 0.060 Uiso 1 1 calc R . .
C67 C 0.1204(2) 0.4932(13) 0.4581(3) 0.051(2) Uani 1 1 d . . .
H67A H 0.1153 0.3719 0.4769 0.077 Uiso 1 1 calc R . .
H67B H 0.1288 0.4285 0.4330 0.077 Uiso 1 1 calc R . .
H67C H 0.0986 0.5807 0.4533 0.077 Uiso 1 1 calc R . .
Cd1 Cd 0.263595(10) 0.49724(6) 0.328506(11) 0.01979(10) Uani 1 1 d . . .
Cd2 Cd 0.262091(10) -0.01066(6) 0.231353(11) 0.02185(10) Uani 1 1 d . . .
Cd3 Cd 0.482983(9) 1.06630(6) 0.028313(16) 0.02027(8) Uani 1 1 d . . .
N1 N 0.57618(13) 1.3349(9) -0.04377(14) 0.0297(10) Uani 1 1 d . . .
N2 N 0.37921(17) 0.9305(10) 0.09160(16) 0.0402(14) Uani 1 1 d . . .
N3 N 0.27005(13) 0.3289(9) 0.39126(14) 0.0302(11) Uani 1 1 d . . .
N4 N 0.24178(13) 0.3580(9) 0.66544(15) 0.0303(11) Uani 1 1 d . . .
N5 N 0.89097(16) 0.0128(9) 0.58629(19) 0.0393(13) Uani 1 1 d . . .
N6 N 0.14906(15) 0.6459(10) 0.47503(18) 0.0428(13) Uani 1 1 d . . .
O1 O 0.47318(11) 1.1134(7) -0.04089(12) 0.0309(9) Uani 1 1 d . . .
O2 O 0.47728(10) 0.7601(7) -0.02127(11) 0.0228(8) Uani 1 1 d . . .
O3 O 0.52027(10) 1.0754(8) -0.18496(13) 0.0324(9) Uani 1 1 d . . .
O4 O 0.69159(10) 1.1973(6) -0.16045(11) 0.0203(7) Uani 1 1 d . . .
O5 O 0.67629(11) 1.5302(6) -0.18238(11) 0.0205(8) Uani 1 1 d . . .
O6 O 0.45526(11) 0.3828(7) -0.16348(13) 0.0281(9) Uani 1 1 d . . .
O7 O 0.28098(9) 0.2882(6) -0.16004(11) 0.0206(7) Uani 1 1 d . . .
O8 O 0.29963(10) -0.0675(7) -0.17521(13) 0.0243(8) Uani 1 1 d . . .
O9 O 0.49352(11) 0.7723(7) 0.07715(12) 0.0291(9) Uani 1 1 d . . .
O10 O 0.49973(12) 1.1292(7) 0.09521(12) 0.0312(9) Uani 1 1 d . . .
O11 O 0.54515(11) 1.0857(8) 0.23964(12) 0.0304(9) Uani 1 1 d . . .
O12 O 0.71720(10) 1.2093(6) 0.21819(11) 0.0222(7) Uani 1 1 d . . .
O13 O 0.70118(10) 1.5491(7) 0.24234(11) 0.0222(8) Uani 1 1 d . . .
O14 O 0.48021(11) 0.3887(7) 0.21754(13) 0.0308(9) Uani 1 1 d . . .
O15 O 0.32289(10) -0.0460(7) 0.23416(14) 0.0256(8) Uani 1 1 d . . .
O16 O 0.30638(10) 0.2968(7) 0.21822(12) 0.0248(8) Uani 1 1 d . . .
O17 O 0.54416(11) 1.1482(7) 0.00963(12) 0.0327(9) Uani 1 1 d . . .
O18 O 0.42248(11) 0.9674(7) 0.03907(13) 0.0337(10) Uani 1 1 d . . .
O19 O 0.87127(12) 0.2434(8) 0.52966(19) 0.0479(11) Uani 1 1 d . . .
O20 O 0.16116(13) 0.9943(8) 0.51338(15) 0.0438(12) Uani 1 1 d . . .
O1W O 0.46246(11) 1.4334(6) 0.03503(12) 0.0316(9) Uani 1 1 d . . .
H1W4 H 0.4674 1.4873 0.0619 0.047 Uiso 1 1 d R . .
H1W6 H 0.4747 1.5299 0.0158 0.047 Uiso 1 1 d R . .
O2W O 0.26213(10) 0.5972(7) 0.25658(11) 0.0210(8) Uani 1 1 d . . .
H2WB H 0.2809 0.5423 0.2449 0.032 Uiso 1 1 d R . .
H2WC H 0.2430 0.5411 0.2459 0.032 Uiso 1 1 d R . .
O3W O 0.26296(11) 0.1063(7) 0.30178(12) 0.0256(9) Uani 1 1 d . . .
H3WA H 0.2446 0.0411 0.3126 0.031 Uiso 1 1 d R . .
H3WB H 0.2817 0.0419 0.3118 0.031 Uiso 1 1 d R . .

loop_
_atom_site_aniso_label
_atom_site_aniso_U_11
_atom_site_aniso_U_22
_atom_site_aniso_U_33
_atom_site_aniso_U_23
_atom_site_aniso_U_13
_atom_site_aniso_U_12
C1 0.043(3) 0.028(3) 0.024(3) -0.003(2) 0.009(2) -0.003(3)
C2 0.033(3) 0.024(3) 0.025(3) 0.005(2) -0.003(2) -0.005(2)
C3 0.022(3) 0.029(3) 0.018(3) 0.000(2) 0.0029(19) 0.000(2)
C4 0.044(4) 0.034(3) 0.016(3) 0.006(2) -0.002(2) 0.007(3)
C5 0.019(3) 0.039(3) 0.021(3) -0.008(2) -0.0054(19) -0.002(2)
C6 0.032(3) 0.019(3) 0.033(3) -0.005(2) -0.006(2) -0.003(2)
C7 0.022(3) 0.026(3) 0.033(3) 0.000(2) 0.001(2) -0.019(2)
C8 0.021(3) 0.039(3) 0.028(3) 0.004(3) -0.010(2) -0.003(2)
C9 0.034(3) 0.030(3) 0.022(3) -0.001(2) 0.002(2) 0.007(2)
C10 0.031(3) 0.034(3) 0.029(3) -0.006(2) -0.012(2) 0.003(3)
C11 0.022(3) 0.026(3) 0.026(3) -0.012(2) 0.009(2) 0.006(2)
C12 0.025(3) 0.030(3) 0.031(3) 0.000(2) -0.001(2) 0.000(2)
C13 0.02