####################################################################### 
# 
# This file contains crystal structure data downloaded from the 
# Cambridge Structural Database (CSD) hosted by the Cambridge 
# Crystallographic Data Centre (CCDC).
# 
# Full information about CCDC data access policies and citation 
# guidelines are available at http://www.ccdc.cam.ac.uk/access/V1 
# 
# Audit and citation data items may have been added by the CCDC. 
# Please retain this information to preserve the provenance of 
# this file and to allow appropriate attribution of the data. 
# 
#######################################################################

data_{[Cd(bpf)2(NO3)2]\/Y(o-xylene)4}n_(7)
_audit_block_doi                 10.5517/cc9gl2d
_database_code_depnum_ccdc_archive 'CCDC 282133'
loop_
_citation_id
_citation_doi
_citation_year
1 10.1002/chem.200501067 2007
_audit_update_record             
;
2005-08-25 deposited with the CCDC.	2024-07-11 downloaded from the CCDC.
;

_audit_creation_method           SHELXL-97

_chemical_name_systematic        
;
?
;
_chemical_name_common            ?
_chemical_melting_point          ?
_chemical_formula_moiety         ?
_chemical_formula_sum            'C68 H64 Cd F8 N6 O6'
_chemical_formula_weight         1325.65

loop_
_atom_type_symbol
_atom_type_description
_atom_type_scat_dispersion_real
_atom_type_scat_dispersion_imag
_atom_type_scat_source
C C 0.0033 0.0016 'International Tables Vol C Tables 4.2.6.8 and 6.1.1.4'
H H 0.0000 0.0000 'International Tables Vol C Tables 4.2.6.8 and 6.1.1.4'
N N 0.0061 0.0033 'International Tables Vol C Tables 4.2.6.8 and 6.1.1.4'
O O 0.0106 0.0060 'International Tables Vol C Tables 4.2.6.8 and 6.1.1.4'
F F 0.0171 0.0103 'International Tables Vol C Tables 4.2.6.8 and 6.1.1.4'
Cd Cd -0.8075 1.2024 'International Tables Vol C Tables 4.2.6.8 and 6.1.1.4'

_symmetry_cell_setting           Monoclinic
_symmetry_space_group_name_H-M   P2(1)/n

loop_
_symmetry_equiv_pos_as_xyz
'x, y, z'
'-x+1/2, y+1/2, -z+1/2'
'-x, -y, -z'
'x-1/2, -y-1/2, z-1/2'

_cell_length_a                   13.582(2)
_cell_length_b                   29.425(5)
_cell_length_c                   16.240(3)
_cell_angle_alpha                90.00
_cell_angle_beta                 106.624(3)
_cell_angle_gamma                90.00
_cell_volume                     6219.0(17)
_cell_formula_units_Z            4
_cell_measurement_temperature    173(2)
_cell_measurement_reflns_used    ?
_cell_measurement_theta_min      ?
_cell_measurement_theta_max      ?

_exptl_crystal_description       prism
_exptl_crystal_colour            colorless
_exptl_crystal_size_max          0.20
_exptl_crystal_size_mid          0.25
_exptl_crystal_size_min          0.45
_exptl_crystal_density_meas      ?
_exptl_crystal_density_diffrn    1.416
_exptl_crystal_density_method    'not measured'
_exptl_crystal_F_000             2728
_exptl_absorpt_coefficient_mu    0.433
_exptl_absorpt_correction_type   none
_exptl_absorpt_correction_T_min  ?
_exptl_absorpt_correction_T_max  ?
_exptl_absorpt_process_details   ?

_exptl_special_details           
;
?
;

_diffrn_ambient_temperature      173(2)
_diffrn_radiation_wavelength     0.71073
_diffrn_radiation_type           MoK\a
_diffrn_radiation_source         'fine-focus sealed tube'
_diffrn_radiation_monochromator  graphite
_diffrn_measurement_device_type  'CCD area detector'
_diffrn_measurement_method       'phi and omega scans'
_diffrn_detector_area_resol_mean ?
_diffrn_standards_number         ?
_diffrn_standards_interval_count ?
_diffrn_standards_interval_time  ?
_diffrn_standards_decay_%        ?
_diffrn_reflns_number            40361
_diffrn_reflns_av_R_equivalents  0.0555
_diffrn_reflns_av_sigmaI/netI    0.0843
_diffrn_reflns_limit_h_min       -17
_diffrn_reflns_limit_h_max       17
_diffrn_reflns_limit_k_min       -38
_diffrn_reflns_limit_k_max       38
_diffrn_reflns_limit_l_min       -11
_diffrn_reflns_limit_l_max       21
_diffrn_reflns_theta_min         1.38
_diffrn_reflns_theta_max         28.05
_reflns_number_total             14721
_reflns_number_gt                8469
_reflns_threshold_expression     >2sigma(I)

_computing_data_collection       'Bruker SMART'
_computing_cell_refinement       'Bruker SMART'
_computing_data_reduction        'Bruker SAINT & SADABS'
_computing_structure_solution    'SIR 97'
_computing_structure_refinement  'SHELXL-97 (Sheldrick, 1997)'
_computing_molecular_graphics    'Bruker SHELXTL'
_computing_publication_material  'Bruker SHELXTL'

_refine_special_details          
;
Refinement of F^2^ against ALL reflections. The weighted R-factor wR and
goodness of fit S are based on F^2^, conventional R-factors R are based
on F, with F set to zero for negative F^2^. The threshold expression of
F^2^ > 2sigma(F^2^) is used only for calculating R-factors(gt) etc. and is
not relevant to the choice of reflections for refinement. R-factors based
on F^2^ are statistically about twice as large as those based on F, and R-
factors based on ALL data will be even larger.
;

_refine_ls_structure_factor_coef Fsqd
_refine_ls_matrix_type           full
_refine_ls_weighting_scheme      calc
_refine_ls_weighting_details     
'calc w=1/[\s^2^(Fo^2^)+(0.0813P)^2^+0.0000P] where P=(Fo^2^+2Fc^2^)/3'
_atom_sites_solution_primary     direct
_atom_sites_solution_secondary   difmap
_atom_sites_solution_hydrogens   geom
_refine_ls_hydrogen_treatment    mixed
_refine_ls_extinction_method     none
_refine_ls_extinction_coef       ?
_refine_ls_number_reflns         14721
_refine_ls_number_parameters     802
_refine_ls_number_restraints     0
_refine_ls_R_factor_all          0.1158
_refine_ls_R_factor_gt           0.0506
_refine_ls_wR_factor_ref         0.1588
_refine_ls_wR_factor_gt          0.1241
_refine_ls_goodness_of_fit_ref   1.012
_refine_ls_restrained_S_all      1.012
_refine_ls_shift/su_max          0.037
_refine_ls_shift/su_mean         0.001

loop_
_atom_site_label
_atom_site_type_symbol
_atom_site_fract_x
_atom_site_fract_y
_atom_site_fract_z
_atom_site_U_iso_or_equiv
_atom_site_adp_type
_atom_site_occupancy
_atom_site_symmetry_multiplicity
_atom_site_calc_flag
_atom_site_refinement_flags
_atom_site_disorder_assembly
_atom_site_disorder_group
Cd1 Cd 0.78161(2) 0.305578(8) 0.498600(17) 0.03100(10) Uani 1 1 d . . .
F1 F 0.88504(17) 0.52546(8) 0.27033(18) 0.0553(7) Uani 1 1 d . . .
F2 F 0.52700(17) 0.50570(7) 0.18309(17) 0.0506(7) Uani 1 1 d . . .
F3 F 0.86042(18) 0.61153(7) 0.31165(17) 0.0532(7) Uani 1 1 d . . .
F4 F 0.50205(17) 0.59102(8) 0.22916(18) 0.0525(7) Uani 1 1 d . . .
F5 F 0.90551(19) 0.09759(9) 0.7997(2) 0.0848(11) Uani 1 1 d . . .
F6 F 0.5515(2) 0.11557(9) 0.7528(2) 0.0851(11) Uani 1 1 d . . .
F7 F 0.8762(3) 0.01029(10) 0.7570(3) 0.1138(15) Uani 1 1 d . . .
F8 F 0.5222(2) 0.02838(9) 0.7131(2) 0.0926(12) Uani 1 1 d . . .
O1 O 0.9539(2) 0.32220(10) 0.50120(19) 0.0491(8) Uani 1 1 d . . .
O2 O 1.0036(2) 0.27799(11) 0.6095(2) 0.0602(9) Uani 1 1 d . . .
O3 O 1.1137(2) 0.30351(10) 0.54919(19) 0.0482(7) Uani 1 1 d . . .
O4 O 0.6050(3) 0.32132(11) 0.4971(2) 0.0652(10) Uani 1 1 d . . .
O5 O 0.5702(3) 0.26828(16) 0.4043(3) 0.1007(15) Uani 1 1 d . . .
O6 O 0.4517(2) 0.29501(12) 0.4528(2) 0.0613(9) Uani 1 1 d . . .
N1 N 0.7514(2) 0.36058(9) 0.3858(2) 0.0319(7) Uani 1 1 d . . .
N2 N 0.7030(2) 0.74807(9) 0.09789(19) 0.0305(7) Uani 1 1 d . . .
N3 N 0.7742(2) 0.25196(9) 0.60255(19) 0.0290(7) Uani 1 1 d . . .
N4 N 0.6974(2) -0.13151(10) 0.9034(2) 0.0354(8) Uani 1 1 d . . .
N5 N 1.0253(2) 0.30108(10) 0.5539(2) 0.0330(7) Uani 1 1 d . . .
N6 N 0.5399(3) 0.29481(12) 0.4497(2) 0.0430(9) Uani 1 1 d . . .
C1 C 0.6659(3) 0.38519(12) 0.3585(3) 0.0363(9) Uani 1 1 d . . .
H1A H 0.6110 0.3789 0.3822 0.044 Uiso 1 1 calc R . .
C2 C 0.8261(3) 0.37066(13) 0.3504(3) 0.0412(10) Uani 1 1 d . . .
H2A H 0.8882 0.3538 0.3685 0.049 Uiso 1 1 calc R . .
C3 C 0.6522(3) 0.41938(12) 0.2977(3) 0.0395(10) Uani 1 1 d . . .
H3A H 0.5894 0.4358 0.2805 0.047 Uiso 1 1 calc R . .
C4 C 0.8191(3) 0.40403(13) 0.2893(3) 0.0395(10) Uani 1 1 d . . .
H4A H 0.8747 0.4094 0.2661 0.047 Uiso 1 1 calc R . .
C5 C 0.7304(3) 0.42942(11) 0.2624(2) 0.0289(8) Uani 1 1 d . . .
C6 C 0.7193(3) 0.46545(11) 0.1938(2) 0.0369(9) Uani 1 1 d . . .
H6A H 0.7809 0.4647 0.1729 0.044 Uiso 1 1 calc R . .
H6B H 0.6591 0.4579 0.1447 0.044 Uiso 1 1 calc R . .
C7 C 0.7061(3) 0.51289(11) 0.2240(2) 0.0317(9) Uani 1 1 d . . .
C8 C 0.7886(3) 0.54127(12) 0.2588(3) 0.0339(9) Uani 1 1 d . . .
C9 C 0.6112(3) 0.53130(12) 0.2158(3) 0.0343(9) Uani 1 1 d . . .
C10 C 0.7763(3) 0.58571(12) 0.2807(3) 0.0345(9) Uani 1 1 d . . .
C11 C 0.5985(3) 0.57574(12) 0.2396(3) 0.0340(9) Uani 1 1 d . . .
C12 C 0.6808(3) 0.60439(11) 0.2707(2) 0.0321(9) Uani 1 1 d . . .
C13 C 0.6675(3) 0.65377(12) 0.2911(3) 0.0379(9) Uani 1 1 d . . .
H13A H 0.7183 0.6616 0.3464 0.045 Uiso 1 1 calc R . .
H13B H 0.5980 0.6581 0.2981 0.045 Uiso 1 1 calc R . .
C14 C 0.6809(3) 0.68577(11) 0.2222(2) 0.0300(8) Uani 1 1 d . . .
C15 C 0.7563(3) 0.71898(11) 0.2414(2) 0.0327(9) Uani 1 1 d . . .
H15A H 0.8019 0.7211 0.2978 0.039 Uiso 1 1 calc R . .
C16 C 0.6173(3) 0.68424(11) 0.1376(3) 0.0344(9) Uani 1 1 d . . .
H16A H 0.5651 0.6618 0.1209 0.041 Uiso 1 1 calc R . .
C17 C 0.7650(3) 0.74891(12) 0.1790(2) 0.0321(9) Uani 1 1 d . . .
H17A H 0.8175 0.7713 0.1939 0.039 Uiso 1 1 calc R . .
C18 C 0.6309(3) 0.71560(11) 0.0787(2) 0.0332(9) Uani 1 1 d . . .
H18A H 0.5870 0.7141 0.0216 0.040 Uiso 1 1 calc R . .
C19 C 0.8295(3) 0.25628(12) 0.6847(2) 0.0323(9) Uani 1 1 d . . .
H19A H 0.8758 0.2812 0.6997 0.039 Uiso 1 1 calc R . .
C20 C 0.7106(3) 0.21608(12) 0.5834(3) 0.0352(9) Uani 1 1 d . . .
H20A H 0.6708 0.2120 0.5254 0.042 Uiso 1 1 calc R . .
C21 C 0.8236(3) 0.22698(11) 0.7486(2) 0.0313(8) Uani 1 1 d . . .
H21A H 0.8648 0.2318 0.8060 0.038 Uiso 1 1 calc R . .
C22 C 0.7002(3) 0.18486(12) 0.6440(3) 0.0361(9) Uani 1 1 d . . .
H22A H 0.6545 0.1599 0.6273 0.043 Uiso 1 1 calc R . .
C23 C 0.7567(3) 0.19010(11) 0.7288(2) 0.0282(8) Uani 1 1 d . . .
C24 C 0.7475(3) 0.15919(12) 0.8004(3) 0.0398(10) Uani 1 1 d . . .
H24A H 0.6900 0.1701 0.8214 0.048 Uiso 1 1 calc R . .
H24B H 0.8112 0.1616 0.8486 0.048 Uiso 1 1 calc R . .
C25 C 0.7293(3) 0.10958(12) 0.7757(2) 0.0331(9) Uani 1 1 d . . .
C26 C 0.8090(3) 0.08136(14) 0.7765(3) 0.0479(11) Uani 1 1 d . . .
C27 C 0.6345(3) 0.08998(14) 0.7543(3) 0.0447(11) Uani 1 1 d . . .
C28 C 0.7928(4) 0.03572(14) 0.7547(3) 0.0559(13) Uani 1 1 d . . .
C29 C 0.6186(3) 0.04479(13) 0.7340(3) 0.0479(11) Uani 1 1 d . . .
C30 C 0.6967(4) 0.01637(13) 0.7311(3) 0.0475(11) Uani 1 1 d . . .
C31 C 0.6783(5) -0.03272(14) 0.7029(3) 0.0703(16) Uani 1 1 d . . .
H31A H 0.7302 -0.0418 0.6740 0.084 Uiso 1 1 calc R . .
H31B H 0.6098 -0.0352 0.6604 0.084 Uiso 1 1 calc R . .
C32 C 0.6834(4) -0.06552(12) 0.7763(3) 0.0471(11) Uani 1 1 d . . .
C33 C 0.7728(4) -0.07189(15) 0.8416(3) 0.0645(14) Uani 1 1 d . . .
H33A H 0.8315 -0.0537 0.8442 0.077 Uiso 1 1 calc R . .
C34 C 0.6010(4) -0.09065(14) 0.7797(3) 0.0498(12) Uani 1 1 d . . .
H34A H 0.5366 -0.0862 0.7381 0.060 Uiso 1 1 calc R . .
C35 C 0.7770(4) -0.10480(15) 0.9034(3) 0.0587(13) Uani 1 1 d . . .
H35A H 0.8395 -0.1086 0.9478 0.070 Uiso 1 1 calc R . .
C36 C 0.6108(3) -0.12303(13) 0.8441(3) 0.0429(10) Uani 1 1 d . . .
H36A H 0.5515 -0.1399 0.8451 0.051 Uiso 1 1 calc R . .
C37 C 0.7964(4) 0.56878(16) 0.5050(3) 0.0538(12) Uani 1 1 d . . .
C38 C 0.7611(4) 0.52394(15) 0.4886(3) 0.0535(12) Uani 1 1 d . . .
C39 C 0.6583(4) 0.51564(18) 0.4689(4) 0.0707(16) Uani 1 1 d . . .
H39A H 0.6345 0.4853 0.4570 0.085 Uiso 1 1 calc R . .
C40 C 0.5878(5) 0.5497(2) 0.4656(4) 0.0818(18) Uani 1 1 d . . .
H40A H 0.5167 0.5428 0.4529 0.098 Uiso 1 1 calc R . .
C41 C 0.6206(6) 0.5932(2) 0.4806(4) 0.0752(17) Uani 1 1 d . . .
H41A H 0.5727 0.6170 0.4779 0.090 Uiso 1 1 calc R . .
C42 C 0.7243(5) 0.60255(17) 0.5000(3) 0.0698(16) Uani 1 1 d . . .
H42A H 0.7467 0.6332 0.5101 0.084 Uiso 1 1 calc R . .
C43 C 0.8370(4) 0.48590(17) 0.4929(4) 0.0731(16) Uani 1 1 d . . .
H43A H 0.8000 0.4570 0.4796 0.110 Uiso 1 1 calc R . .
H43B H 0.8850 0.4845 0.5509 0.110 Uiso 1 1 calc R . .
H43C H 0.8753 0.4915 0.4511 0.110 Uiso 1 1 calc R . .
C44 C 0.9078(5) 0.57896(19) 0.5267(4) 0.0864(19) Uani 1 1 d . . .
H44A H 0.9460 0.5507 0.5267 0.130 Uiso 1 1 calc R . .
H44B H 0.9305 0.5930 0.5837 0.130 Uiso 1 1 calc R . .
H44C H 0.9205 0.5999 0.4839 0.130 Uiso 1 1 calc R . .
C45 C 0.5978(5) 0.28867(19) 0.7507(4) 0.0735(17) Uani 1 1 d . . .
C46 C 0.5973(5) 0.25957(17) 0.8209(4) 0.0665(15) Uani 1 1 d . . .
C47 C 0.5281(5) 0.2249(2) 0.8081(4) 0.0719(16) Uani 1 1 d . . .
H47A H 0.5264 0.2062 0.8553 0.086 Uiso 1 1 calc R . .
C48 C 0.4611(5) 0.2165(2) 0.7293(5) 0.087(2) Uani 1 1 d . . .
H48A H 0.4148 0.1916 0.7222 0.104 Uiso 1 1 calc R . .
C49 C 0.4599(5) 0.2448(2) 0.6568(4) 0.0814(18) Uani 1 1 d . . .
H49A H 0.4137 0.2401 0.6013 0.098 Uiso 1 1 calc R . .
C50 C 0.5305(6) 0.2790(2) 0.6744(5) 0.092(2) Uani 1 1 d . . .
H50A H 0.5323 0.2981 0.6276 0.110 Uiso 1 1 calc R . .
C51 C 0.6707(5) 0.32737(19) 0.7671(5) 0.099(2) Uani 1 1 d . . .
H51A H 0.6624 0.3445 0.7138 0.148 Uiso 1 1 calc R . .
H51B H 0.7412 0.3159 0.7877 0.148 Uiso 1 1 calc R . .
H51C H 0.6568 0.3474 0.8108 0.148 Uiso 1 1 calc R . .
C52 C 0.6708(6) 0.2673(2) 0.9054(4) 0.097(2) Uani 1 1 d . . .
H52A H 0.6607 0.2444 0.9460 0.145 Uiso 1 1 calc R . .
H52B H 0.6598 0.2977 0.9261 0.145 Uiso 1 1 calc R . .
H52C H 0.7409 0.2652 0.9007 0.145 Uiso 1 1 calc R . .
C53 C 0.0232(4) 0.13255(15) 0.5936(3) 0.0499(11) Uani 1 1 d . . .
C54 C 0.1115(4) 0.14014(14) 0.5715(3) 0.0468(11) Uani 1 1 d . . .
C55 C 0.1390(4) 0.11126(16) 0.5129(3) 0.0583(13) Uani 1 1 d . . .
H55A H 0.2005 0.1166 0.4976 0.070 Uiso 1 1 calc R . .
C56 C 0.0762(5) 0.07486(17) 0.4771(3) 0.0691(16) Uani 1 1 d . . .
H56A H 0.0934 0.0555 0.4366 0.083 Uiso 1 1 calc R . .
C57 C -0.0115(4) 0.06744(17) 0.5017(3) 0.0649(15) Uani 1 1 d . . .
H57A H -0.0543 0.0423 0.4784 0.078 Uiso 1 1 calc R . .
C58 C -0.0383(4) 0.09542(19) 0.5586(4) 0.0699(16) Uani 1 1 d . . .
H58A H -0.0992 0.0896 0.5745 0.084 Uiso 1 1 calc R . .
C59 C 0.1818(5) 0.17870(17) 0.6109(4) 0.0800(18) Uani 1 1 d . . .
H59A H 0.1526 0.1955 0.6505 0.120 Uiso 1 1 calc R . .
H59B H 0.1892 0.1992 0.5654 0.120 Uiso 1 1 calc R . .
H59C H 0.2493 0.1666 0.6424 0.120 Uiso 1 1 calc R . .
C60 C -0.0099(5) 0.16279(18) 0.6560(4) 0.0798(18) Uani 1 1 d . . .
H60A H -0.0750 0.1517 0.6630 0.120 Uiso 1 1 calc R . .
H60B H -0.0188 0.1939 0.6337 0.120 Uiso 1 1 calc R . .
H60C H 0.0428 0.1624 0.7117 0.120 Uiso 1 1 calc R . .
C61 C 0.5309(13) 0.1337(7) 0.4417(8) 0.230(13) Uani 1 1 d . . .
C62 C 0.5147(6) 0.0880(5) 0.4936(7) 0.197(7) Uani 1 1 d . . .
C63 C 0.5851(6) 0.0637(3) 0.4973(5) 0.107(3) Uani 1 1 d . . .
H63A H 0.5783 0.0387 0.5323 0.128 Uiso 1 1 calc R . .
C64 C 0.6680(6) 0.0563(3) 0.4743(5) 0.117(3) Uani 1 1 d . . .
H64A H 0.7114 0.0304 0.4839 0.140 Uiso 1 1 calc R . .
C65 C 0.6772(10) 0.1050(6) 0.4230(6) 0.223(8) Uani 1 1 d . . .
H65A H 0.7339 0.1113 0.4015 0.267 Uiso 1 1 calc R . .
C66 C 0.6023(15) 0.1336(3) 0.4144(9) 0.251(13) Uani 1 1 d . . .
H66A H 0.6057 0.1592 0.3797 0.302 Uiso 1 1 calc R . .
C67 C 0.4523(10) 0.1617(5) 0.4399(13) 0.42(2) Uani 1 1 d . . .
H67A H 0.4581 0.1892 0.4074 0.637 Uiso 1 1 calc R . .
H67B H 0.4542 0.1701 0.4987 0.637 Uiso 1 1 calc R . .
H67C H 0.3872 0.1464 0.4121 0.637 Uiso 1 1 calc R . .
C68 C 0.4301(5) 0.0941(4) 0.5213(5) 0.152(4) Uani 1 1 d . . .
H68A H 0.4205 0.0675 0.5546 0.228 Uiso 1 1 calc R . .
H68B H 0.3695 0.0980 0.4717 0.228 Uiso 1 1 calc R . .
H68C H 0.4392 0.1213 0.5577 0.228 Uiso 1 1 calc R . .

loop_
_atom_site_aniso_label
_atom_site_aniso_U_11
_atom_site_aniso_U_22
_atom_site_aniso_U_33
_atom_site_aniso_U_23
_atom_site_aniso_U_13
_atom_site_aniso_U_12
Cd1 0.04661(18) 0.01693(12) 0.02491(15) 0.00129(12) 0.00294(12) -0.00114(12)
F1 0.0391(13) 0.0377(13) 0.087(2) -0.0009(13) 0.0149(14) 0.0094(11)
F2 0.0396(13) 0.0331(12) 0.0744(18) 0.0078(12) 0.0090(13) -0.0071(10)
F3 0.0439(14) 0.0349(13) 0.0751(19) -0.0095(12) 0.0078(13) -0.0081(11)
F4 0.0401(13) 0.0412(13) 0.0800(19) 0.0070(13) 0.0232(14) 0.0109(11)
F5 0.0349(14) 0.0582(17) 0.164(3) 0.0342(19) 0.0335(18) 0.0003(13)
F6 0.0427(15) 0.0425(15) 0.174(3) 0.0234(19) 0.0374(19) 0.0089(13)
F7 0.110(3) 0.0514(18) 0.226(5) 0.030(2) 0.123(3) 0.0307(18)
F8 0.0537(17) 0.0520(17) 0.147(3) 0.0283(19) -0.0108(19) -0.0270(14)
O1 0.0379(16) 0.0492(17) 0.0468(19) 0.0066(14) -0.0096(15) 0.0054(14)
O2 0.059(2) 0.059(2) 0.066(2) 0.0233(18) 0.0232(18) 0.0011(16)
O3 0.0345(16) 0.0610(19) 0.0472(18) -0.0005(15) 0.0088(14) 0.0038(14)
O4 0.056(2) 0.061(2) 0.066(2) 0.0169(18) -0.0024(19) -0.0217(17)
O5 0.102(3) 0.130(4) 0.075(3) -0.013(3) 0.033(3) 0.051(3)
O6 0.0326(17) 0.096(3) 0.051(2) -0.0085(18) 0.0039(16) -0.0031(16)
N1 0.0384(18) 0.0213(14) 0.0310(18) 0.0015(13) 0.0016(15) -0.0010(13)
N2 0.0396(18) 0.0187(14) 0.0286(17) -0.0022(12) 0.0021(15) 0.0009(13)
N3 0.0370(17) 0.0199(14) 0.0270(17) 0.0027(12) 0.0044(15) -0.0011(13)
N4 0.0418(19) 0.0216(15) 0.0377(19) 0.0038(14) 0.0033(16) 0.0022(14)
N5 0.0332(18) 0.0271(16) 0.0338(18) -0.0055(14) 0.0016(15) -0.0007(14)
N6 0.038(2) 0.050(2) 0.035(2) 0.0083(17) 0.0005(17) 0.0049(17)
C1 0.031(2) 0.0305(19) 0.043(2) 0.0106(18) 0.0036(19) -0.0018(16)
C2 0.042(2) 0.038(2) 0.042(2) 0.0138(19) 0.009(2) 0.0182(18)
C3 0.032(2) 0.030(2) 0.054(3) 0.0163(19) 0.007(2) 0.0055(17)
C4 0.040(2) 0.039(2) 0.041(2) 0.0104(19) 0.014(2) 0.0073(18)
C5 0.036(2) 0.0181(16) 0.028(2) 0.0001(14) 0.0029(17) -0.0013(15)
C6 0.054(2) 0.0233(18) 0.033(2) 0.0068(16) 0.012(2) 0.0033(17)
C7 0.042(2) 0.0217(17) 0.032(2) 0.0096(15) 0.0117(19) 0.0030(16)
C8 0.035(2) 0.0264(18) 0.039(2) 0.0068(17) 0.0094(19) 0.0074(17)
C9 0.037(2) 0.0285(19) 0.036(2) 0.0095(17) 0.0078(19) -0.0052(17)
C10 0.042(2) 0.0246(18) 0.036(2) 0.0010(1