####################################################################### 
# 
# This file contains crystal structure data downloaded from the 
# Cambridge Structural Database (CSD) hosted by the Cambridge 
# Crystallographic Data Centre (CCDC).
# 
# Full information about CCDC data access policies and citation 
# guidelines are available at http://www.ccdc.cam.ac.uk/access/V1 
# 
# Audit and citation data items may have been added by the CCDC. 
# Please retain this information to preserve the provenance of 
# this file and to allow appropriate attribution of the data. 
# 
#######################################################################

data_{[Cd(2,7-bpfn)2(NO3)2]\/Y(m-xylene)2}n_(24)
_audit_block_doi                 10.5517/cc9gm4h
_database_code_depnum_ccdc_archive 'CCDC 282166'
loop_
_citation_id
_citation_doi
_citation_year
1 10.1002/chem.200501067 2007
_audit_update_record             
;
2005-08-25 deposited with the CCDC.	2024-07-11 downloaded from the CCDC.
;

_audit_creation_method           SHELXL-97

_chemical_name_systematic        
;
?
;
_chemical_name_common            ?
_chemical_melting_point          ?
_chemical_formula_moiety         ?
_chemical_formula_sum            'C60 H44 Cd F12 N6 O6'
_chemical_formula_weight         1285.41

loop_
_atom_type_symbol
_atom_type_description
_atom_type_scat_dispersion_real
_atom_type_scat_dispersion_imag
_atom_type_scat_source
C C 0.0033 0.0016 'International Tables Vol C Tables 4.2.6.8 and 6.1.1.4'
H H 0.0000 0.0000 'International Tables Vol C Tables 4.2.6.8 and 6.1.1.4'
N N 0.0061 0.0033 'International Tables Vol C Tables 4.2.6.8 and 6.1.1.4'
O O 0.0106 0.0060 'International Tables Vol C Tables 4.2.6.8 and 6.1.1.4'
F F 0.0171 0.0103 'International Tables Vol C Tables 4.2.6.8 and 6.1.1.4'
Cd Cd -0.8075 1.2024 'International Tables Vol C Tables 4.2.6.8 and 6.1.1.4'

_symmetry_cell_setting           Monoclinic
_symmetry_space_group_name_H-M   P2(1)/c

loop_
_symmetry_equiv_pos_as_xyz
'x, y, z'
'-x, y+1/2, -z+1/2'
'-x, -y, -z'
'x, -y-1/2, z-1/2'

_cell_length_a                   8.1700(13)
_cell_length_b                   20.445(3)
_cell_length_c                   16.354(3)
_cell_angle_alpha                90.00
_cell_angle_beta                 100.204(3)
_cell_angle_gamma                90.00
_cell_volume                     2688.6(7)
_cell_formula_units_Z            2
_cell_measurement_temperature    153(2)
_cell_measurement_reflns_used    ?
_cell_measurement_theta_min      ?
_cell_measurement_theta_max      ?

_exptl_crystal_description       plate
_exptl_crystal_colour            colorless
_exptl_crystal_size_max          0.10
_exptl_crystal_size_mid          0.20
_exptl_crystal_size_min          0.50
_exptl_crystal_density_meas      ?
_exptl_crystal_density_diffrn    1.588
_exptl_crystal_density_method    'not measured'
_exptl_crystal_F_000             1300
_exptl_absorpt_coefficient_mu    0.508
_exptl_absorpt_correction_type   none
_exptl_absorpt_correction_T_min  ?
_exptl_absorpt_correction_T_max  ?
_exptl_absorpt_process_details   ?

_exptl_special_details           
;
?
;

_diffrn_ambient_temperature      153(2)
_diffrn_radiation_wavelength     0.71073
_diffrn_radiation_type           MoK\a
_diffrn_radiation_source         'fine-focus sealed tube'
_diffrn_radiation_monochromator  graphite
_diffrn_measurement_device_type  'CCD area detector'
_diffrn_measurement_method       'phi and omega scans'
_diffrn_detector_area_resol_mean ?
_diffrn_standards_number         ?
_diffrn_standards_interval_count ?
_diffrn_standards_interval_time  ?
_diffrn_standards_decay_%        ?
_diffrn_reflns_number            17157
_diffrn_reflns_av_R_equivalents  0.0273
_diffrn_reflns_av_sigmaI/netI    0.0413
_diffrn_reflns_limit_h_min       -10
_diffrn_reflns_limit_h_max       9
_diffrn_reflns_limit_k_min       -26
_diffrn_reflns_limit_k_max       26
_diffrn_reflns_limit_l_min       -18
_diffrn_reflns_limit_l_max       21
_diffrn_reflns_theta_min         1.61
_diffrn_reflns_theta_max         27.90
_reflns_number_total             6273
_reflns_number_gt                4662
_reflns_threshold_expression     >2sigma(I)

_computing_data_collection       'Bruker SMART'
_computing_cell_refinement       'Bruker SMART'
_computing_data_reduction        'Bruker SAINT & SADABS'
_computing_structure_solution    'SHELXS-97 (Sheldrick, 1990)'
_computing_structure_refinement  'SHELXL-97 (Sheldrick, 1997)'
_computing_molecular_graphics    'Bruker SHELXTL'
_computing_publication_material  'Bruker SHELXTL'

_refine_special_details          
;
Refinement of F^2^ against ALL reflections. The weighted R-factor wR and
goodness of fit S are based on F^2^, conventional R-factors R are based
on F, with F set to zero for negative F^2^. The threshold expression of
F^2^ > 2sigma(F^2^) is used only for calculating R-factors(gt) etc. and is
not relevant to the choice of reflections for refinement. R-factors based
on F^2^ are statistically about twice as large as those based on F, and R-
factors based on ALL data will be even larger.
;

_refine_ls_structure_factor_coef Fsqd
_refine_ls_matrix_type           full
_refine_ls_weighting_scheme      calc
_refine_ls_weighting_details     
'calc w=1/[\s^2^(Fo^2^)+(0.0331P)^2^+0.0000P] where P=(Fo^2^+2Fc^2^)/3'
_atom_sites_solution_primary     direct
_atom_sites_solution_secondary   difmap
_atom_sites_solution_hydrogens   geom
_refine_ls_hydrogen_treatment    mixed
_refine_ls_extinction_method     none
_refine_ls_extinction_coef       ?
_refine_ls_number_reflns         6273
_refine_ls_number_parameters     449
_refine_ls_number_restraints     0
_refine_ls_R_factor_all          0.0442
_refine_ls_R_factor_gt           0.0271
_refine_ls_wR_factor_ref         0.0636
_refine_ls_wR_factor_gt          0.0604
_refine_ls_goodness_of_fit_ref   0.949
_refine_ls_restrained_S_all      0.949
_refine_ls_shift/su_max          0.001
_refine_ls_shift/su_mean         0.000

loop_
_atom_site_label
_atom_site_type_symbol
_atom_site_fract_x
_atom_site_fract_y
_atom_site_fract_z
_atom_site_U_iso_or_equiv
_atom_site_adp_type
_atom_site_occupancy
_atom_site_symmetry_multiplicity
_atom_site_calc_flag
_atom_site_refinement_flags
_atom_site_disorder_assembly
_atom_site_disorder_group
Cd1 Cd 0.5000 1.0000 0.5000 0.01689(5) Uani 1 2 d S . .
F1 F -0.15814(13) 1.06569(5) 0.80454(6) 0.0270(2) Uani 1 1 d . . .
F2 F 0.37123(12) 0.99392(5) 0.93003(6) 0.0267(2) Uani 1 1 d . . .
F3 F -0.30117(13) 0.96507(5) 0.86657(7) 0.0320(3) Uani 1 1 d . . .
F4 F 0.39869(13) 0.89304(5) 1.02302(7) 0.0298(3) Uani 1 1 d . . .
F5 F -0.27302(14) 0.85933(5) 0.95628(7) 0.0326(3) Uani 1 1 d . . .
F6 F -0.08274(14) 0.78011(5) 1.06039(7) 0.0329(3) Uani 1 1 d . . .
O1 O 0.23293(15) 0.99967(6) 0.41836(7) 0.0234(3) Uani 1 1 d . . .
O2 O 0.0834(2) 1.08804(7) 0.40957(10) 0.0466(4) Uani 1 1 d . . .
O3 O 0.1979(3) 1.05978(8) 0.30766(10) 0.0666(6) Uani 1 1 d . . .
N1 N 0.38237(18) 1.03686(7) 0.61169(9) 0.0195(3) Uani 1 1 d . . .
N2 N 0.42741(19) 0.60760(7) 1.02837(9) 0.0215(3) Uani 1 1 d . . .
N3 N 0.16939(19) 1.05042(7) 0.37710(9) 0.0234(3) Uani 1 1 d . . .
C1 C 0.4845(2) 1.04740(9) 0.68450(11) 0.0228(4) Uani 1 1 d . . .
C2 C 0.2182(2) 1.04349(9) 0.60976(11) 0.0210(4) Uani 1 1 d . . .
C3 C 0.4266(2) 1.06525(9) 0.75614(11) 0.0218(4) Uani 1 1 d . . .
C4 C 0.1517(2) 1.06010(9) 0.67897(11) 0.0208(4) Uani 1 1 d . . .
C5 C 0.2581(2) 1.07190(8) 0.75411(10) 0.0186(4) Uani 1 1 d . . .
C6 C 0.1895(2) 1.08950(9) 0.83159(11) 0.0209(4) Uani 1 1 d . . .
C7 C 0.1115(2) 1.03086(8) 0.86620(10) 0.0179(4) Uani 1 1 d . . .
C8 C -0.0615(2) 1.02092(9) 0.85093(11) 0.0203(4) Uani 1 1 d . . .
C9 C 0.2054(2) 0.98504(8) 0.91451(10) 0.0194(4) Uani 1 1 d . . .
C10 C -0.1344(2) 0.96947(9) 0.88222(11) 0.0207(4) Uani 1 1 d . . .
C11 C 0.1377(2) 0.93047(8) 0.95014(10) 0.0181(4) Uani 1 1 d . . .
C12 C -0.0385(2) 0.92243(8) 0.93291(10) 0.0188(4) Uani 1 1 d . . .
C13 C 0.2323(2) 0.88504(9) 1.00507(11) 0.0199(4) Uani 1 1 d . . .
C14 C -0.1073(2) 0.86902(9) 0.97045(11) 0.0224(4) Uani 1 1 d . . .
C15 C -0.0087(2) 0.82848(9) 1.02361(11) 0.0224(4) Uani 1 1 d . . .
C16 C 0.1651(2) 0.83570(8) 1.04440(10) 0.0210(4) Uani 1 1 d . . .
C17 C 0.2678(3) 0.79369(9) 1.11083(12) 0.0252(4) Uani 1 1 d . . .
C18 C 0.3235(2) 0.72934(8) 1.07873(10) 0.0206(4) Uani 1 1 d . . .
C19 C 0.2151(2) 0.67692(9) 1.06485(12) 0.0235(4) Uani 1 1 d . . .
C20 C 0.4847(2) 0.71972(9) 1.06491(12) 0.0264(4) Uani 1 1 d . . .
C21 C 0.2707(2) 0.61778(9) 1.03981(12) 0.0239(4) Uani 1 1 d . . .
C22 C 0.5318(2) 0.65888(9) 1.04049(12) 0.0254(4) Uani 1 1 d . . .
C23 C 0.0182(3) 0.76980(11) 0.79287(13) 0.0353(5) Uani 1 1 d . . .
C24 C 0.1114(3) 0.82222(10) 0.77316(12) 0.0297(5) Uani 1 1 d . . .
C25 C 0.2830(3) 0.82249(10) 0.78960(12) 0.0297(5) Uani 1 1 d . . .
C26 C 0.3647(3) 0.76760(12) 0.82651(13) 0.0402(6) Uani 1 1 d . . .
C27 C 0.2745(3) 0.71428(12) 0.84618(14) 0.0460(6) Uani 1 1 d . . .
C28 C 0.1033(3) 0.71581(11) 0.83054(14) 0.0437(6) Uani 1 1 d . . .
C29 C -0.1701(3) 0.77201(15) 0.77437(18) 0.0638(8) Uani 1 1 d . . .
H29A H -0.2067 0.8138 0.7480 0.096 Uiso 1 1 calc R . .
H29B H -0.2133 0.7676 0.8263 0.096 Uiso 1 1 calc R . .
H29C H -0.2121 0.7360 0.7369 0.096 Uiso 1 1 calc R . .
C30 C 0.3805(3) 0.88106(11) 0.76814(15) 0.0492(6) Uani 1 1 d . . .
H30A H 0.3033 0.9150 0.7427 0.074 Uiso 1 1 calc R . .
H30B H 0.4523 0.8678 0.7290 0.074 Uiso 1 1 calc R . .
H30C H 0.4490 0.8983 0.8188 0.074 Uiso 1 1 calc R . .
H1 H 0.597(2) 1.0412(9) 0.6852(11) 0.024(5) Uiso 1 1 d . . .
H2 H 0.146(2) 1.0359(9) 0.5578(12) 0.024(5) Uiso 1 1 d . . .
H3 H 0.509(3) 1.0714(9) 0.8053(12) 0.031(5) Uiso 1 1 d . . .
H4 H 0.038(2) 1.0634(8) 0.6757(10) 0.014(4) Uiso 1 1 d . . .
H5 H 0.283(2) 1.1044(9) 0.8734(11) 0.023(5) Uiso 1 1 d . . .
H6 H 0.105(2) 1.1226(8) 0.8179(10) 0.011(4) Uiso 1 1 d . . .
H7 H 0.363(2) 0.8193(9) 1.1327(11) 0.026(5) Uiso 1 1 d . . .
H8 H 0.203(2) 0.7850(9) 1.1562(12) 0.024(5) Uiso 1 1 d . . .
H9 H 0.109(2) 0.6822(8) 1.0758(11) 0.020(5) Uiso 1 1 d . . .
H10 H 0.559(3) 0.7535(10) 1.0714(12) 0.034(6) Uiso 1 1 d . . .
H11 H 0.193(2) 0.5810(9) 1.0311(12) 0.029(5) Uiso 1 1 d . . .
H12 H 0.640(3) 0.6514(9) 1.0306(12) 0.031(6) Uiso 1 1 d . . .
H13 H 0.059(3) 0.8577(11) 0.7473(13) 0.042(6) Uiso 1 1 d . . .
H14 H 0.479(3) 0.7666(11) 0.8348(13) 0.045(7) Uiso 1 1 d . . .
H15 H 0.336(3) 0.6758(11) 0.8711(14) 0.052(7) Uiso 1 1 d . . .
H16 H 0.037(3) 0.6811(12) 0.8425(15) 0.065(8) Uiso 1 1 d . . .

loop_
_atom_site_aniso_label
_atom_site_aniso_U_11
_atom_site_aniso_U_22
_atom_site_aniso_U_33
_atom_site_aniso_U_23
_atom_site_aniso_U_13
_atom_site_aniso_U_12
Cd1 0.01874(9) 0.01662(9) 0.01625(9) 0.00023(8) 0.00564(6) -0.00097(8)
F1 0.0255(6) 0.0277(6) 0.0265(6) 0.0061(5) 0.0009(5) 0.0077(5)
F2 0.0183(5) 0.0301(6) 0.0307(5) 0.0047(5) 0.0015(4) -0.0025(5)
F3 0.0176(6) 0.0373(7) 0.0404(7) 0.0067(5) 0.0034(5) 0.0007(5)
F4 0.0223(6) 0.0286(6) 0.0359(6) 0.0070(5) -0.0021(5) 0.0007(5)
F5 0.0216(6) 0.0331(6) 0.0445(7) 0.0049(5) 0.0096(5) -0.0035(5)
F6 0.0378(7) 0.0227(6) 0.0418(7) 0.0074(5) 0.0171(5) -0.0012(5)
O1 0.0211(6) 0.0237(6) 0.0242(6) 0.0050(6) 0.0009(5) 0.0016(6)
O2 0.0533(10) 0.0442(9) 0.0482(10) 0.0057(8) 0.0252(8) 0.0273(8)
O3 0.1219(18) 0.0573(11) 0.0283(9) 0.0171(8) 0.0343(10) 0.0447(11)
N1 0.0233(8) 0.0179(8) 0.0183(7) -0.0005(6) 0.0061(6) -0.0004(6)
N2 0.0244(8) 0.0187(8) 0.0223(8) 0.0017(6) 0.0068(6) 0.0024(6)
N3 0.0231(9) 0.0246(8) 0.0219(8) -0.0007(7) 0.0019(7) 0.0028(7)
C1 0.0189(10) 0.0250(10) 0.0250(10) -0.0034(8) 0.0051(8) -0.0011(8)
C2 0.0231(10) 0.0212(9) 0.0182(9) -0.0007(7) 0.0025(8) 0.0004(8)
C3 0.0247(10) 0.0215(9) 0.0185(9) -0.0025(7) 0.0020(8) -0.0001(8)
C4 0.0189(10) 0.0225(9) 0.0215(9) 0.0020(7) 0.0049(7) 0.0021(8)
C5 0.0271(10) 0.0121(8) 0.0179(9) 0.0004(7) 0.0077(7) -0.0003(7)
C6 0.0262(11) 0.0187(9) 0.0193(9) -0.0001(7) 0.0077(8) 0.0018(8)
C7 0.0234(10) 0.0185(9) 0.0129(8) -0.0026(7) 0.0056(7) 0.0014(7)
C8 0.0250(10) 0.0215(9) 0.0143(8) -0.0006(7) 0.0036(7) 0.0065(7)
C9 0.0182(9) 0.0239(10) 0.0167(8) -0.0042(7) 0.0051(7) 0.0001(7)
C10 0.0160(9) 0.0276(10) 0.0190(9) -0.0036(8) 0.0043(7) 0.0014(8)
C11 0.0228(10) 0.0181(9) 0.0141(8) -0.0038(7) 0.0049(7) 0.0003(7)
C12 0.0235(10) 0.0191(9) 0.0152(8) -0.0045(7) 0.0071(7) 0.0004(7)
C13 0.0192(10) 0.0205(9) 0.0201(9) -0.0052(7) 0.0035(7) 0.0011(7)
C14 0.0202(10) 0.0228(10) 0.0258(10) -0.0048(8) 0.0086(8) -0.0018(8)
C15 0.0320(11) 0.0148(9) 0.0235(10) -0.0012(7) 0.0135(8) -0.0011(7)
C16 0.0318(11) 0.0137(9) 0.0176(9) -0.0033(7) 0.0053(8) 0.0043(8)
C17 0.0387(12) 0.0157(9) 0.0204(10) -0.0004(7) 0.0032(9) 0.0032(9)
C18 0.0296(10) 0.0158(9) 0.0162(8) 0.0033(7) 0.0033(7) 0.0028(8)
C19 0.0241(11) 0.0199(9) 0.0283(10) -0.0001(8) 0.0098(8) 0.0025(8)
C20 0.0261(11) 0.0187(9) 0.0328(11) 0.0006(8) 0.0011(8) -0.0041(8)
C21 0.0268(11) 0.0167(9) 0.0297(10) -0.0014(8) 0.0093(8) -0.0022(8)
C22 0.0208(10) 0.0244(10) 0.0319(11) 0.0019(8) 0.0072(8) 0.0005(8)
C23 0.0355(12) 0.0392(12) 0.0324(11) -0.0121(10) 0.0090(9) -0.0062(10)
C24 0.0372(13) 0.0246(11) 0.0263(10) -0.0036(8) 0.0026(9) 0.0040(9)
C25 0.0375(12) 0.0304(11) 0.0218(10) -0.0085(8) 0.0067(9) -0.0045(9)
C26 0.0341(14) 0.0511(15) 0.0319(12) -0.0065(10) -0.0034(10) 0.0080(11)
C27 0.0658(18) 0.0363(13) 0.0318(12) 0.0069(10) -0.0023(12) 0.0120(13)
C28 0.0672(18) 0.0340(13) 0.0320(12) -0.0014(10) 0.0146(12) -0.0157(12)
C29 0.0390(15) 0.077(2) 0.077(2) -0.0264(16) 0.0136(14) -0.0133(14)
C30 0.0547(16) 0.0464(14) 0.0491(15) -0.0152(12) 0.0160(12) -0.0220(12)

_geom_special_details            
;
All esds (except the esd in the dihedral angle between two l.s. planes)
are estimated using the full covariance matrix. The cell esds are taken
into account individually in the estimation of esds in distances, angles
and torsion angles; correlations between esds in cell parameters are only
used when they are defined by crystal symmetry. An approximate (isotropic)
treatment of cell esds is used for estimating esds involving l.s. planes.
;

loop_
_geom_bond_atom_site_label_1
_geom_bond_atom_site_label_2
_geom_bond_distance
_geom_bond_site_symmetry_2
_geom_bond_publ_flag
Cd1 N1 2.3344(14) 3_676 ?
Cd1 N1 2.3344(14) . ?
Cd1 N2 2.3460(15) 2_656 ?
Cd1 N2 2.3460(15) 4_575 ?
Cd1 O1 2.3477(12) 3_676 ?
Cd1 O1 2.3477(12) . ?
F1 C8 1.3510(19) . ?
F2 C9 1.346(2) . ?
F3 C10 1.344(2) . ?
F4 C13 1.349(2) . ?
F5 C14 1.347(2) . ?
F6 C15 1.354(2) . ?
O1 N3 1.2951(18) . ?
O2 N3 1.2244(19) . ?
O3 N3 1.214(2) . ?
N1 C2 1.343(2) . ?
N1 C1 1.345(2) . ?
N2 C21 1.342(2) . ?
N2 C22 1.344(2) . ?
N2 Cd1 2.3460(15) 2_646 ?
C1 C3 1.388(3) . ?
C2 C4 1.382(2) . ?
C3 C5 1.378(3) . ?
C4 C5 1.395(2) . ?
C5 C6 1.517(2) . ?
C6 C7 1.514(2) . ?
C7 C9 1.369(2) . ?
C7 C8 1.405(3) . ?
C8 C10 1.353(3) . ?
C9 C11 1.415(2) . ?
C10 C12 1.413(2) . ?
C11 C13 1.422(2) . ?
C11 C12 1.427(2) . ?
C12 C14 1.417(2) . ?
C13 C16 1.363(2) . ?
C14 C15 1.358(3) . ?
C15 C16 1.408(3) . ?
C16 C17 1.516(2) . ?
C17 C18 1.516(2) . ?
C18 C19 1.383(3) . ?
C18 C20 1.390(3) . ?
C19 C21 1.379(2) . ?
C20 C22 1.382(3) . ?
C23 C24 1.385(3) . ?
C23 C28 1.389(3) . ?
C23 C29 1.515(3) . ?
C24 C25 1.380(3) . ?
C25 C26 1.388(3) . ?
C25 C30 1.514(3) . ?
C26 C27 1.385(3) . ?
C27 C28 1.377(4) . ?

loop_
_geom_angle_atom_site_label_1
_geom_angle_atom_site_label_2
_geom_angle_atom_site_label_3
_geom_angle
_geom_angle_site_symmetry_1
_geom_angle_site_symmetry_3
_geom_angle_publ_flag
N1 Cd1 N1 180.000(1) 3_676 . ?
N1 Cd1 N2 89.68(5) 3_676 2_656 ?
N1 Cd1 N2 90.32(5) . 2_656 ?
N1 Cd1 N2 90.32(5) 3_676 4_575 ?
N1 Cd1 N2 89.68(5) . 4_575 ?
N2 Cd1 N2 180.0 2_656 4_575 ?
N1 Cd1 O1 88.62(5) 3_676 3_676 ?
N1 Cd1 O1 91.38(5) . 3_676 ?
N2 Cd1 O1 82.40(5) 2_656 3_676 ?
N2 Cd1 O1 97.60(5) 4_575 3_676 ?
N1 Cd1 O1 91.38(5) 3_676 . ?
N1 Cd1 O1 88.62(5) . . ?
N2 Cd1 O1 97.60(5) 2_656 . ?
N2 Cd1 O1 82.40(5) 4_575 . ?
O1 Cd1 O1 180.0 3_676 . ?
N3 O1 Cd1 122.71(10) . . ?
C2 N1 C1 117.72(15) . . ?
C2 N1 Cd1 124.20(11) . . ?
C1 N1 Cd1 117.88(12) . . ?
C21 N2 C22 117.01(16) . . ?
C21 N2 Cd1 116.98(12) . 2_646 ?
C22 N2 Cd1 125.79(13) . 2_646 ?
O3 N3 O2 121.78(16) . . ?
O3 N3 O1 119.20(15) . . ?
O2 N3 O1 119.01(15) . . ?
N1 C1 C3 122.58(18) . . ?
N1 C2 C4 122.78(17) . . ?
C5 C3 C1 119.62(17) . . ?
C2 C4 C5 119.34(17) . . ?
C3 C5 C4 117.93(16) . . ?
C3 C5 C6 121.25(16) . . ?
C4 C5 C6 120.80(17) . . ?
C7 C6 C5 111.51(14) . . ?
C9 C7 C8 116.50(16) . . ?
C9 C7 C6 121.85(16) . . ?
C8 C7 C6 121.64(16) . . ?
F1 C8 C10 119.08(16) . . ?
F1 C8 C7 118.11(16) . . ?
C10 C8 C7 122.78(16) . . ?
F2 C9 C7 117.30(15) . . ?
F2 C9 C11 118.82(15) . . ?
C7 C9 C11 123.86(16) . . ?
F3 C10 C8 118.66(16) . . ?
F3 C10 C12 120.30(16) . . ?
C8 C10 C12 121.01(16) . . ?
C9 C11 C13 124.54(16) . . ?
C9 C11 C12 117.60(16) . . ?
C13 C11 C12 117.79(16) . . ?
C10 C12 C14 123.87(17) . . ?
C10 C12 C11 118.23(16) . . ?
C14 C12 C11 117.85(16) . . ?
F4 C13 C16 117.52(16) . . ?
F4 C13 C11 118.19(16) . . ?
C16 C13 C11 124.20(17) . . ?
F5 C14 C15 118.97(16) . . ?
F5 C14 C12 120.18(16) . . ?
C15 C14 C12 120.80(17) . . ?
F6 C15 C14 117.99(17) . . ?
F6 C15 C16 118.68(16) . . ?
C14 C15 C16 123.29(17) . . ?
C13 C16 C15 115.93(16) . . ?
C13 C16 C17 122.62(18) . . ?
C15 C16 C17 121.33(17) . . ?
C16 C17 C18 113.92(15) . . ?
C19 C18 C20 117.49(17) . . ?
C19 C18 C17 120.43(17) . . ?
C20 C18 C17 122.04(17) . . ?
C21 C19 C18 119.53(18) . . ?
C22 C20 C18 119.65(18) . . ?
N2 C21 C19 123.36(18) . . ?
N2 C22 C20 122.93(18) . . ?
C24 C23 C28 117.7(2) . . ?
C24 C23 C29 120.7(2) . . ?
C28 C23 C29 121.5(2) . . ?
C25 C24 C23 122.6(2) . . ?
C24 C25 C26 118.4(2) . . ?
C24 C25 C30 121.1(2) . . ?
C26 C25 C30 120.5(2) . . ?
C27 C26 C25 120.2(2) . . ?
C28 C27 C26 120.2(2) . . ?
C27 C28 C23 120.8(2) . . ?

_diffrn_measured_fraction_theta_max 0.977
_diffrn_reflns_theta_full        27.90
_diffrn_measured_fraction_theta_full 0.977
_refine_diff_density_max         0.384
_refine_diff_density_min         -0.420
_refine_diff_density_rms         0.057
