####################################################################### 
# 
# This file contains crystal structure data downloaded from the 
# Cambridge Structural Database (CSD) hosted by the Cambridge 
# Crystallographic Data Centre (CCDC).
# 
# Full information about CCDC data access policies and citation 
# guidelines are available at http://www.ccdc.cam.ac.uk/access/V1 
# 
# Audit and citation data items may have been added by the CCDC. 
# Please retain this information to preserve the provenance of 
# this file and to allow appropriate attribution of the data. 
# 
#######################################################################

data_1a
_audit_block_doi                 10.5517/ccnxl37
_database_code_depnum_ccdc_archive 'CCDC 623289'
loop_
_citation_id
_citation_doi
_citation_year
1 10.1016/j.ica.2006.11.020 2007
_audit_update_record             
;
2006-10-07 deposited with the CCDC.	2024-07-11 downloaded from the CCDC.
;

_audit_creation_method           SHELXL-97
_chemical_name_systematic        
;
?
;
_chemical_name_common            ?
_chemical_melting_point          ?
_chemical_formula_moiety         ?
_chemical_formula_sum            'C20 H26 Co N8 O6 S2'
_chemical_formula_weight         597.54

loop_
_atom_type_symbol
_atom_type_description
_atom_type_scat_dispersion_real
_atom_type_scat_dispersion_imag
_atom_type_scat_source
C C 0.0033 0.0016 'International Tables Vol C Tables 4.2.6.8 and 6.1.1.4'
H H 0.0000 0.0000 'International Tables Vol C Tables 4.2.6.8 and 6.1.1.4'
N N 0.0061 0.0033 'International Tables Vol C Tables 4.2.6.8 and 6.1.1.4'
O O 0.0106 0.0060 'International Tables Vol C Tables 4.2.6.8 and 6.1.1.4'
S S 0.1246 0.1234 'International Tables Vol C Tables 4.2.6.8 and 6.1.1.4'
Co Co 0.3494 0.9721 'International Tables Vol C Tables 4.2.6.8 and 6.1.1.4'

_symmetry_cell_setting           Monoclinic
_symmetry_space_group_name_H-M   P2(1)/n

loop_
_symmetry_equiv_pos_as_xyz
'x, y, z'
'-x+1/2, y+1/2, -z+1/2'
'-x, -y, -z'
'x-1/2, -y-1/2, z-1/2'

_cell_length_a                   8.8339(17)
_cell_length_b                   12.660(3)
_cell_length_c                   11.858(2)
_cell_angle_alpha                90.00
_cell_angle_beta                 100.013(3)
_cell_angle_gamma                90.00
_cell_volume                     1306.0(4)
_cell_formula_units_Z            2
_cell_measurement_temperature    293(2)
_cell_measurement_reflns_used    1618
_cell_measurement_theta_min      2.37
_cell_measurement_theta_max      23.40

_exptl_crystal_description       Block
_exptl_crystal_colour            Orange
_exptl_crystal_size_max          0.24
_exptl_crystal_size_mid          0.20
_exptl_crystal_size_min          0.14
_exptl_crystal_density_meas      NONE
_exptl_crystal_density_diffrn    1.520
_exptl_crystal_density_method    'not measured'
_exptl_crystal_F_000             618
_exptl_absorpt_coefficient_mu    0.869
_exptl_absorpt_correction_type   MULTI-SCAN
_exptl_absorpt_correction_T_min  0.692756
_exptl_absorpt_correction_T_max  1.000000
_exptl_absorpt_process_details   SADABS

_exptl_special_details           
;
?
;

_diffrn_ambient_temperature      293(2)
_diffrn_radiation_wavelength     0.71073
_diffrn_radiation_type           MoK\a
_diffrn_radiation_source         'fine-focus sealed tube'
_diffrn_radiation_monochromator  graphite
_diffrn_measurement_device_type  'APEX II CCD area detector'
_diffrn_measurement_method       'phi and omega scans'
_diffrn_detector_area_resol_mean ?
_diffrn_standards_number         ?
_diffrn_standards_interval_count ?
_diffrn_standards_interval_time  ?
_diffrn_standards_decay_%        ?
_diffrn_reflns_number            6932
_diffrn_reflns_av_R_equivalents  0.0304
_diffrn_reflns_av_sigmaI/netI    0.0397
_diffrn_reflns_limit_h_min       -10
_diffrn_reflns_limit_h_max       10
_diffrn_reflns_limit_k_min       -15
_diffrn_reflns_limit_k_max       14
_diffrn_reflns_limit_l_min       -14
_diffrn_reflns_limit_l_max       8
_diffrn_reflns_theta_min         2.37
_diffrn_reflns_theta_max         25.01
_reflns_number_total             2301
_reflns_number_gt                1847
_reflns_threshold_expression     >2sigma(I)

_computing_data_collection       'Bruker APEX II'
_computing_cell_refinement       'Bruker APEX II'
_computing_data_reduction        'Bruker SAINT'
_computing_structure_solution    'SHELXS-97 (Sheldrick, 1990)'
_computing_structure_refinement  'SHELXL-97 (Sheldrick, 1997)'
_computing_molecular_graphics    'Bruker SHELXTL'
_computing_publication_material  'Bruker SHELXTL'

_refine_special_details          
;
Refinement of F^2^ against ALL reflections. The weighted R-factor wR and
goodness of fit S are based on F^2^, conventional R-factors R are based
on F, with F set to zero for negative F^2^. The threshold expression of
F^2^ > 2sigma(F^2^) is used only for calculating R-factors(gt) etc. and is
not relevant to the choice of reflections for refinement. R-factors based
on F^2^ are statistically about twice as large as those based on F, and R-
factors based on ALL data will be even larger.
;

_refine_ls_structure_factor_coef Fsqd
_refine_ls_matrix_type           full
_refine_ls_weighting_scheme      calc
_refine_ls_weighting_details     
'calc w=1/[\s^2^(Fo^2^)+(0.0302P)^2^+1.0561P] where P=(Fo^2^+2Fc^2^)/3'
_atom_sites_solution_primary     direct
_atom_sites_solution_secondary   difmap
_atom_sites_solution_hydrogens   geom
_refine_ls_hydrogen_treatment    constr
_refine_ls_extinction_method     none
_refine_ls_extinction_coef       ?
_refine_ls_number_reflns         2301
_refine_ls_number_parameters     171
_refine_ls_number_restraints     0
_refine_ls_R_factor_all          0.0474
_refine_ls_R_factor_gt           0.0332
_refine_ls_wR_factor_ref         0.0848
_refine_ls_wR_factor_gt          0.0786
_refine_ls_goodness_of_fit_ref   1.056
_refine_ls_restrained_S_all      1.056
_refine_ls_shift/su_max          0.001
_refine_ls_shift/su_mean         0.000

loop_
_atom_site_label
_atom_site_type_symbol
_atom_site_fract_x
_atom_site_fract_y
_atom_site_fract_z
_atom_site_U_iso_or_equiv
_atom_site_adp_type
_atom_site_occupancy
_atom_site_symmetry_multiplicity
_atom_site_calc_flag
_atom_site_refinement_flags
_atom_site_disorder_assembly
_atom_site_disorder_group
Co1 Co 0.0000 0.0000 1.0000 0.02239(15) Uani 1 2 d S . .
S1 S 0.42794(8) 0.04369(6) 1.16394(6) 0.0385(2) Uani 1 1 d . . .
O1 O 0.4281(2) 0.15569(14) 0.97403(15) 0.0310(4) Uani 1 1 d . . .
O2 O 0.1249(2) -0.09434(14) 1.13058(15) 0.0333(4) Uani 1 1 d . . .
H2A H 0.2187 -0.0757 1.1449 0.050 Uiso 1 1 d R . .
H2B H 0.0802 -0.1044 1.1876 0.050 Uiso 1 1 d R . .
N1 N 0.2071(2) 0.07661(16) 0.97572(18) 0.0266(5) Uani 1 1 d . . .
N2 N 0.1980(2) 0.12957(17) 0.87134(18) 0.0302(5) Uani 1 1 d . . .
N3 N 0.4515(2) 0.38344(16) 0.62537(18) 0.0279(5) Uani 1 1 d . . .
N4 N 0.2015(4) 0.4019(2) 0.9905(3) 0.0616(8) Uani 1 1 d . . .
C1 C 0.3750(3) 0.2428(2) 0.7879(2) 0.0290(6) Uani 1 1 d . . .
C2 C 0.5211(3) 0.2859(2) 0.7992(2) 0.0363(7) Uani 1 1 d . . .
H2 H 0.5962 0.2680 0.8614 0.044 Uiso 1 1 calc R . .
C3 C 0.5539(3) 0.3554(2) 0.7174(2) 0.0345(7) Uani 1 1 d . . .
H3 H 0.6521 0.3844 0.7266 0.041 Uiso 1 1 calc R . .
C4 C 0.3104(3) 0.3400(2) 0.6141(2) 0.0312(6) Uani 1 1 d . . .
H4 H 0.2378 0.3584 0.5506 0.037 Uiso 1 1 calc R . .
C5 C 0.2684(3) 0.2700(2) 0.6916(2) 0.0323(6) Uani 1 1 d . . .
H5 H 0.1701 0.2411 0.6798 0.039 Uiso 1 1 calc R . .
C6 C 0.3291(3) 0.1739(2) 0.8746(2) 0.0281(6) Uani 1 1 d . . .
C7 C 0.3463(3) 0.09059(19) 1.0353(2) 0.0264(6) Uani 1 1 d . . .
O3 O 0.4032(4) 0.4017(3) 1.1346(3) 0.0916(10) Uani 1 1 d . . .
C8 C 0.2799(6) 0.3701(4) 1.0905(4) 0.0759(12) Uani 1 1 d . . .
H8 H 0.2346 0.3186 1.1297 0.091 Uiso 1 1 calc R . .
C9 C 0.2567(5) 0.4823(3) 0.9210(4) 0.0784(13) Uani 1 1 d . . .
H9A H 0.3627 0.4971 0.9506 0.118 Uiso 1 1 calc R . .
H9B H 0.1970 0.5454 0.9228 0.118 Uiso 1 1 calc R . .
H9C H 0.2469 0.4576 0.8435 0.118 Uiso 1 1 calc R . .
C10 C 0.0502(5) 0.3573(3) 0.9474(4) 0.0740(11) Uani 1 1 d . . .
H10A H 0.0233 0.3080 1.0021 0.111 Uiso 1 1 calc R . .
H10B H 0.0523 0.3217 0.8762 0.111 Uiso 1 1 calc R . .
H10C H -0.0246 0.4130 0.9354 0.111 Uiso 1 1 calc R . .

loop_
_atom_site_aniso_label
_atom_site_aniso_U_11
_atom_site_aniso_U_22
_atom_site_aniso_U_33
_atom_site_aniso_U_23
_atom_site_aniso_U_13
_atom_site_aniso_U_12
Co1 0.0245(3) 0.0219(2) 0.0220(3) 0.0002(2) 0.00732(19) -0.0009(2)
S1 0.0316(4) 0.0513(5) 0.0315(4) 0.0088(3) 0.0020(3) -0.0020(3)
O1 0.0263(9) 0.0351(10) 0.0323(10) 0.0075(8) 0.0071(8) -0.0045(8)
O2 0.0335(11) 0.0366(10) 0.0307(11) 0.0052(8) 0.0079(8) -0.0018(8)
N1 0.0269(12) 0.0280(11) 0.0253(12) 0.0039(9) 0.0059(9) -0.0027(9)
N2 0.0313(12) 0.0322(12) 0.0286(12) 0.0090(10) 0.0094(10) -0.0027(10)
N3 0.0277(12) 0.0292(12) 0.0282(12) 0.0028(10) 0.0089(10) -0.0009(9)
N4 0.084(2) 0.0574(19) 0.0403(17) -0.0001(14) 0.0037(16) 0.0084(17)
C1 0.0287(14) 0.0273(14) 0.0331(16) 0.0025(12) 0.0109(12) -0.0013(11)
C2 0.0291(15) 0.0432(17) 0.0360(17) 0.0136(13) 0.0034(12) -0.0017(12)
C3 0.0268(14) 0.0389(16) 0.0386(16) 0.0100(13) 0.0077(12) -0.0049(12)
C4 0.0277(14) 0.0353(15) 0.0304(15) 0.0052(13) 0.0048(11) -0.0004(12)
C5 0.0266(14) 0.0334(14) 0.0377(17) 0.0030(13) 0.0082(12) -0.0057(11)
C6 0.0292(14) 0.0267(14) 0.0297(15) 0.0039(11) 0.0086(12) 0.0006(11)
C7 0.0278(14) 0.0260(13) 0.0275(14) 0.0007(11) 0.0110(11) -0.0018(11)
O3 0.078(2) 0.131(3) 0.0633(19) -0.0121(18) 0.0051(16) -0.017(2)
C8 0.091(3) 0.079(3) 0.059(3) -0.011(2) 0.018(2) -0.008(3)
C9 0.097(3) 0.070(3) 0.072(3) 0.003(2) 0.026(3) -0.006(2)
C10 0.078(3) 0.070(3) 0.073(3) 0.006(2) 0.012(2) 0.007(2)

_geom_special_details            
;
All esds (except the esd in the dihedral angle between two l.s. planes)
are estimated using the full covariance matrix. The cell esds are taken
into account individually in the estimation of esds in distances, angles
and torsion angles; correlations between esds in cell parameters are only
used when they are defined by crystal symmetry. An approximate (isotropic)
treatment of cell esds is used for estimating esds involving l.s. planes.
;

loop_
_geom_bond_atom_site_label_1
_geom_bond_atom_site_label_2
_geom_bond_distance
_geom_bond_site_symmetry_2
_geom_bond_publ_flag
Co1 O2 2.1087(18) . ?
Co1 O2 2.1087(18) 3_557 ?
Co1 N1 2.134(2) 3_557 ?
Co1 N1 2.134(2) . ?
Co1 N3 2.189(2) 2_546 ?
Co1 N3 2.189(2) 4_566 ?
S1 C7 1.678(3) . ?
O1 C6 1.360(3) . ?
O1 C7 1.383(3) . ?
O2 H2A 0.8498 . ?
O2 H2B 0.8499 . ?
N1 C7 1.319(3) . ?
N1 N2 1.398(3) . ?
N2 C6 1.282(3) . ?
N3 C3 1.339(3) . ?
N3 C4 1.348(3) . ?
N3 Co1 2.189(2) 2_556 ?
N4 C8 1.328(5) . ?
N4 C9 1.446(5) . ?
N4 C10 1.459(5) . ?
C1 C2 1.386(4) . ?
C1 C5 1.391(4) . ?
C1 C6 1.459(4) . ?
C2 C3 1.377(4) . ?
C2 H2 0.9300 . ?
C3 H3 0.9300 . ?
C4 C5 1.374(4) . ?
C4 H4 0.9300 . ?
C5 H5 0.9300 . ?
O3 C8 1.192(5) . ?
C8 H8 0.9300 . ?
C9 H9A 0.9600 . ?
C9 H9B 0.9600 . ?
C9 H9C 0.9600 . ?
C10 H10A 0.9600 . ?
C10 H10B 0.9600 . ?
C10 H10C 0.9600 . ?

loop_
_geom_angle_atom_site_label_1
_geom_angle_atom_site_label_2
_geom_angle_atom_site_label_3
_geom_angle
_geom_angle_site_symmetry_1
_geom_angle_site_symmetry_3
_geom_angle_publ_flag
O2 Co1 O2 180.0 . 3_557 ?
O2 Co1 N1 89.70(8) . 3_557 ?
O2 Co1 N1 90.30(8) 3_557 3_557 ?
O2 Co1 N1 90.30(8) . . ?
O2 Co1 N1 89.70(8) 3_557 . ?
N1 Co1 N1 180.0 3_557 . ?
O2 Co1 N3 88.73(8) . 2_546 ?
O2 Co1 N3 91.27(8) 3_557 2_546 ?
N1 Co1 N3 93.37(8) 3_557 2_546 ?
N1 Co1 N3 86.63(8) . 2_546 ?
O2 Co1 N3 91.27(8) . 4_566 ?
O2 Co1 N3 88.73(8) 3_557 4_566 ?
N1 Co1 N3 86.63(8) 3_557 4_566 ?
N1 Co1 N3 93.37(8) . 4_566 ?
N3 Co1 N3 180.0 2_546 4_566 ?
C6 O1 C7 103.95(19) . . ?
Co1 O2 H2A 110.9 . . ?
Co1 O2 H2B 114.4 . . ?
H2A O2 H2B 117.0 . . ?
C7 N1 N2 108.34(19) . . ?
C7 N1 Co1 136.86(17) . . ?
N2 N1 Co1 114.77(15) . . ?
C6 N2 N1 105.7(2) . . ?
C3 N3 C4 117.1(2) . . ?
C3 N3 Co1 123.23(17) . 2_556 ?
C4 N3 Co1 119.64(17) . 2_556 ?
C8 N4 C9 123.2(4) . . ?
C8 N4 C10 120.0(4) . . ?
C9 N4 C10 116.8(3) . . ?
C2 C1 C5 117.9(2) . . ?
C2 C1 C6 122.3(2) . . ?
C5 C1 C6 119.7(2) . . ?
C3 C2 C1 119.3(3) . . ?
C3 C2 H2 120.3 . . ?
C1 C2 H2 120.3 . . ?
N3 C3 C2 123.3(2) . . ?
N3 C3 H3 118.4 . . ?
C2 C3 H3 118.4 . . ?
N3 C4 C5 123.4(2) . . ?
N3 C4 H4 118.3 . . ?
C5 C4 H4 118.3 . . ?
C4 C5 C1 119.1(2) . . ?
C4 C5 H5 120.5 . . ?
C1 C5 H5 120.5 . . ?
N2 C6 O1 113.1(2) . . ?
N2 C6 C1 126.9(2) . . ?
O1 C6 C1 119.8(2) . . ?
N1 C7 O1 108.8(2) . . ?
N1 C7 S1 130.75(19) . . ?
O1 C7 S1 120.48(19) . . ?
O3 C8 N4 125.8(5) . . ?
O3 C8 H8 117.1 . . ?
N4 C8 H8 117.1 . . ?
N4 C9 H9A 109.5 . . ?
N4 C9 H9B 109.5 . . ?
H9A C9 H9B 109.5 . . ?
N4 C9 H9C 109.5 . . ?
H9A C9 H9C 109.5 . . ?
H9B C9 H9C 109.5 . . ?
N4 C10 H10A 109.5 . . ?
N4 C10 H10B 109.5 . . ?
H10A C10 H10B 109.5 . . ?
N4 C10 H10C 109.5 . . ?
H10A C10 H10C 109.5 . . ?
H10B C10 H10C 109.5 . . ?

loop_
_geom_torsion_atom_site_label_1
_geom_torsion_atom_site_label_2
_geom_torsion_atom_site_label_3
_geom_torsion_atom_site_label_4
_geom_torsion
_geom_torsion_site_symmetry_1
_geom_torsion_site_symmetry_2
_geom_torsion_site_symmetry_3
_geom_torsion_site_symmetry_4
_geom_torsion_publ_flag
O2 Co1 N1 C7 -20.4(3) . . . . ?
O2 Co1 N1 C7 159.6(3) 3_557 . . . ?
N3 Co1 N1 C7 -109.1(3) 2_546 . . . ?
N3 Co1 N1 C7 70.9(3) 4_566 . . . ?
O2 Co1 N1 N2 161.68(16) . . . . ?
O2 Co1 N1 N2 -18.32(16) 3_557 . . . ?
N3 Co1 N1 N2 72.97(17) 2_546 . . . ?
N3 Co1 N1 N2 -107.03(17) 4_566 . . . ?
C7 N1 N2 C6 -1.4(3) . . . . ?
Co1 N1 N2 C6 177.15(16) . . . . ?
C5 C1 C2 C3 1.8(4) . . . . ?
C6 C1 C2 C3 -176.1(3) . . . . ?
C4 N3 C3 C2 -0.2(4) . . . . ?
Co1 N3 C3 C2 176.8(2) 2_556 . . . ?
C1 C2 C3 N3 -0.8(4) . . . . ?
C3 N3 C4 C5 0.1(4) . . . . ?
Co1 N3 C4 C5 -177.0(2) 2_556 . . . ?
N3 C4 C5 C1 0.9(4) . . . . ?
C2 C1 C5 C4 -1.9(4) . . . . ?
C6 C1 C5 C4 176.1(2) . . . . ?
N1 N2 C6 O1 -0.2(3) . . . . ?
N1 N2 C6 C1 -176.9(2) . . . . ?
C7 O1 C6 N2 1.6(3) . . . . ?
C7 O1 C6 C1 178.6(2) . . . . ?
C2 C1 C6 N2 -179.2(3) . . . . ?
C5 C1 C6 N2 3.0(4) . . . . ?
C2 C1 C6 O1 4.3(4) . . . . ?
C5 C1 C6 O1 -173.5(2) . . . . ?
N2 N1 C7 O1 2.4(3) . . . . ?
Co1 N1 C7 O1 -175.66(17) . . . . ?
N2 N1 C7 S1 -177.7(2) . . . . ?
Co1 N1 C7 S1 4.3(4) . . . . ?
C6 O1 C7 N1 -2.4(3) . . . . ?
C6 O1 C7 S1 177.66(18) . . . . ?
C9 N4 C8 O3 -0.9(7) . . . . ?
C10 N4 C8 O3 -179.1(4) . . . . ?

_diffrn_measured_fraction_theta_max 1.000
_diffrn_reflns_theta_full        25.01
_diffrn_measured_fraction_theta_full 1.000
_refine_diff_density_max         0.479
_refine_diff_density_min         -0.239
_refine_diff_density_rms         0.057
