####################################################################### 
# 
# This file contains crystal structure data downloaded from the 
# Cambridge Structural Database (CSD) hosted by the Cambridge 
# Crystallographic Data Centre (CCDC).
# 
# Full information about CCDC data access policies and citation 
# guidelines are available at http://www.ccdc.cam.ac.uk/access/V1 
# 
# Audit and citation data items may have been added by the CCDC. 
# Please retain this information to preserve the provenance of 
# this file and to allow appropriate attribution of the data. 
# 
#######################################################################

data_{Cd(HBTB)(solvent)}(2)
_audit_block_doi                 10.5517/cc10jvn1
_database_code_depnum_ccdc_archive 'CCDC 939723'
loop_
_citation_id
_citation_doi
_citation_year
1 10.1021/cg301476p 2013
_audit_update_record             
;
2013-05-16 deposited with the CCDC.	2024-07-11 downloaded from the CCDC.
;
_audit_creation_method           SHELXL-97
_chemical_name_systematic        
; 
 ? 
;
_chemical_name_common            ?
_chemical_melting_point          ?
_chemical_formula_moiety         ?
_chemical_formula_sum            'C30 H23 Cd N O7'
_chemical_formula_weight         621.89

loop_
_atom_type_symbol
_atom_type_description
_atom_type_scat_dispersion_real
_atom_type_scat_dispersion_imag
_atom_type_scat_source
C C 0.0033 0.0016 'International Tables Vol C Tables 4.2.6.8 and 6.1.1.4'
H H 0.0000 0.0000 'International Tables Vol C Tables 4.2.6.8 and 6.1.1.4'
N N 0.0061 0.0033 'International Tables Vol C Tables 4.2.6.8 and 6.1.1.4'
O O 0.0106 0.0060 'International Tables Vol C Tables 4.2.6.8 and 6.1.1.4'
Cd Cd -0.8075 1.2024 'International Tables Vol C Tables 4.2.6.8 and 6.1.1.4'

_symmetry_cell_setting           monoclinic
_symmetry_space_group_name_H-M   P21/n

loop_
_symmetry_equiv_pos_as_xyz
'x, y, z'
'-x+1/2, y+1/2, -z+1/2'
'-x, -y, -z'
'x-1/2, -y-1/2, z-1/2'

_cell_length_a                   14.915(4)
_cell_length_b                   8.986(2)
_cell_length_c                   26.759(7)
_cell_angle_alpha                90.00
_cell_angle_beta                 96.272(3)
_cell_angle_gamma                90.00
_cell_volume                     3565.1(15)
_cell_formula_units_Z            4
_cell_measurement_temperature    223(2)
_cell_measurement_reflns_used    11582
_cell_measurement_theta_min      2.1661
_cell_measurement_theta_max      31.2463

_exptl_crystal_description       platelet
_exptl_crystal_colour            Colorless
_exptl_crystal_size_max          0.300
_exptl_crystal_size_mid          0.200
_exptl_crystal_size_min          0.100
_exptl_crystal_density_meas      ?
_exptl_crystal_density_diffrn    1.159
_exptl_crystal_density_method    'not measured'
_exptl_crystal_F_000             1256
_exptl_absorpt_coefficient_mu    0.649
_exptl_absorpt_correction_type   Numerical
_exptl_absorpt_correction_T_min  0.9037
_exptl_absorpt_correction_T_max  1.0000
_exptl_absorpt_process_details   ?

_exptl_special_details           
; 
 ? 
;

_diffrn_ambient_temperature      223(2)
_diffrn_radiation_wavelength     0.71073
_diffrn_radiation_type           MoK\a
_diffrn_radiation_source         'fine-focus sealed tube'
_diffrn_radiation_monochromator  graphite
_diffrn_measurement_device_type  CCD
_diffrn_measurement_method       dtprofit.ref
_diffrn_detector_area_resol_mean ?
_diffrn_standards_number         ?
_diffrn_standards_interval_count ?
_diffrn_standards_interval_time  ?
_diffrn_standards_decay_%        0
_diffrn_reflns_number            32652
_diffrn_reflns_av_R_equivalents  0.0362
_diffrn_reflns_av_sigmaI/netI    0.0451
_diffrn_reflns_limit_h_min       -21
_diffrn_reflns_limit_h_max       18
_diffrn_reflns_limit_k_min       -12
_diffrn_reflns_limit_k_max       12
_diffrn_reflns_limit_l_min       -34
_diffrn_reflns_limit_l_max       38
_diffrn_reflns_theta_min         1.64
_diffrn_reflns_theta_max         31.37
_reflns_number_total             10486
_reflns_number_gt                8066
_reflns_threshold_expression     >2sigma(I)

_computing_data_collection       'CrystalClear (Rigaku/MSC Inc., 2006)'
_computing_cell_refinement       'CrystalClear (Rigaku/MSC Inc., 2006)'
_computing_data_reduction        'CrystalClear (Rigaku/MSC Inc., 2006)'
_computing_structure_solution    'SHELXS-97 (Sheldrick, 1997)'
_computing_structure_refinement  'SHELXL-97 (Sheldrick, 1997)'
_computing_molecular_graphics    ORTEP
_computing_publication_material  wingx

_refine_special_details          
; 
 Refinement of F^2^ against ALL reflections.  The weighted R-factor wR and 
 goodness of fit S are based on F^2^, conventional R-factors R are based 
 on F, with F set to zero for negative F^2^. The threshold expression of 
 F^2^ > 2sigma(F^2^) is used only for calculating R-factors(gt) etc. and is 
 not relevant to the choice of reflections for refinement.  R-factors based 
 on F^2^ are statistically about twice as large as those based on F, and R- 
 factors based on ALL data will be even larger. 
;

_refine_ls_structure_factor_coef Fsqd
_refine_ls_matrix_type           full
_refine_ls_weighting_scheme      calc
_refine_ls_weighting_details     
'calc w=1/[\s^2^(Fo^2^)+(0.0762P)^2^+0.0000P] where P=(Fo^2^+2Fc^2^)/3'
_atom_sites_solution_primary     direct
_atom_sites_solution_secondary   difmap
_atom_sites_solution_hydrogens   geom
_refine_ls_hydrogen_treatment    constr
_refine_ls_extinction_method     SHELXL
_refine_ls_extinction_coef       0.0041(4)
_refine_ls_extinction_expression Fc^*^=kFc[1+0.001xFc^2^\l^3^/sin(2\q)]^-1/4^
_refine_ls_number_reflns         10486
_refine_ls_number_parameters     353
_refine_ls_number_restraints     0
_refine_ls_R_factor_all          0.0606
_refine_ls_R_factor_gt           0.0468
_refine_ls_wR_factor_ref         0.1330
_refine_ls_wR_factor_gt          0.1241
_refine_ls_goodness_of_fit_ref   1.013
_refine_ls_restrained_S_all      1.013
_refine_ls_shift/su_max          0.000
_refine_ls_shift/su_mean         0.000

loop_
_atom_site_label
_atom_site_type_symbol
_atom_site_fract_x
_atom_site_fract_y
_atom_site_fract_z
_atom_site_U_iso_or_equiv
_atom_site_adp_type
_atom_site_occupancy
_atom_site_symmetry_multiplicity
_atom_site_calc_flag
_atom_site_refinement_flags
_atom_site_disorder_assembly
_atom_site_disorder_group
C1 C 0.24375(16) 0.4783(3) 0.06904(9) 0.0327(5) Uani 1 1 d . . .
C2 C 0.25950(17) 0.5845(3) 0.03370(10) 0.0384(6) Uani 1 1 d . . .
H2 H 0.3177 0.5979 0.0250 0.046 Uiso 1 1 calc R . .
C3 C 0.18993(18) 0.6712(3) 0.01109(10) 0.0370(6) Uani 1 1 d . . .
H3 H 0.2018 0.7425 -0.0125 0.044 Uiso 1 1 calc R . .
C4 C 0.10217(16) 0.6525(3) 0.02341(9) 0.0295(5) Uani 1 1 d . . .
C5 C 0.08693(16) 0.5473(3) 0.05992(9) 0.0323(5) Uani 1 1 d . . .
H5 H 0.0291 0.5348 0.0692 0.039 Uiso 1 1 calc R . .
C6 C 0.15719(16) 0.4612(3) 0.08251(9) 0.0340(5) Uani 1 1 d . . .
H6 H 0.1462 0.3916 0.1068 0.041 Uiso 1 1 calc R . .
C7 C 0.02601(15) 0.7422(3) -0.00241(9) 0.0293(5) Uani 1 1 d . . .
C8 C 0.02904(17) 0.7923(3) -0.05124(9) 0.0300(5) Uani 1 1 d . . .
H8 H 0.0784 0.7684 -0.0682 0.036 Uiso 1 1 calc R . .
C9 C -0.04101(16) 0.8785(3) -0.07548(9) 0.0300(5) Uani 1 1 d . . .
C10 C -0.11470(16) 0.9115(3) -0.04992(9) 0.0318(5) Uani 1 1 d . . .
H10 H -0.1616 0.9681 -0.0658 0.038 Uiso 1 1 calc R . .
C11 C -0.12004(16) 0.8618(3) -0.00100(9) 0.0301(5) Uani 1 1 d . . .
C12 C -0.04881(16) 0.7775(3) 0.02256(9) 0.0311(5) Uani 1 1 d . . .
H12 H -0.0512 0.7444 0.0553 0.037 Uiso 1 1 calc R . .
C13 C -0.03560(15) 0.9414(3) -0.12614(9) 0.0310(5) Uani 1 1 d . . .
C14 C 0.00469(18) 0.8645(3) -0.16320(10) 0.0377(6) Uani 1 1 d . . .
H14 H 0.0288 0.7703 -0.1564 0.045 Uiso 1 1 calc R . .
C15 C 0.00894(18) 0.9278(3) -0.21003(10) 0.0407(6) Uani 1 1 d . . .
H15 H 0.0351 0.8748 -0.2345 0.049 Uiso 1 1 calc R . .
C16 C -0.02519(16) 1.0689(3) -0.22095(9) 0.0344(5) Uani 1 1 d . . .
C17 C -0.06405(19) 1.1461(3) -0.18402(10) 0.0402(6) Uani 1 1 d . . .
H17 H -0.0868 1.2413 -0.1907 0.048 Uiso 1 1 calc R . .
C18 C -0.06933(17) 1.0834(3) -0.13760(9) 0.0378(6) Uani 1 1 d . . .
H18 H -0.0959 1.1368 -0.1133 0.045 Uiso 1 1 calc R . .
C19 C -0.19759(15) 0.9087(3) 0.02530(9) 0.0306(5) Uani 1 1 d . . .
C20 C -0.28204(16) 0.9314(3) -0.00142(10) 0.0348(5) Uani 1 1 d . . .
H20 H -0.2910 0.9085 -0.0355 0.042 Uiso 1 1 calc R . .
C21 C -0.18702(16) 0.9403(3) 0.07649(9) 0.0351(5) Uani 1 1 d . . .
H21 H -0.1316 0.9232 0.0951 0.042 Uiso 1 1 calc R . .
C22 C -0.35287(16) 0.9880(3) 0.02243(9) 0.0348(5) Uani 1 1 d . . .
H22 H -0.4088 1.0030 0.0041 0.042 Uiso 1 1 calc R . .
C23 C -0.34116(15) 1.0222(3) 0.07316(9) 0.0312(5) Uani 1 1 d . . .
C24 C -0.25757(16) 0.9968(3) 0.10032(9) 0.0350(5) Uani 1 1 d . . .
H24 H -0.2491 1.0178 0.1345 0.042 Uiso 1 1 calc R . .
C25 C -0.41715(17) 1.0818(3) 0.09870(10) 0.0345(5) Uani 1 1 d . . .
C26 C -0.02379(18) 1.1390(3) -0.27209(10) 0.0388(6) Uani 1 1 d . . .
C27 C 0.31800(18) 0.3801(3) 0.09296(10) 0.0362(6) Uani 1 1 d . . .
C28 C 0.3583(2) -0.0704(3) 0.20188(12) 0.0471(7) Uani 1 1 d . . .
C29 C 0.3019(3) -0.3143(4) 0.17812(16) 0.0694(11) Uani 1 1 d . . .
H29A H 0.2740 -0.3955 0.1939 0.104 Uiso 1 1 calc R . .
H29B H 0.3576 -0.3474 0.1669 0.104 Uiso 1 1 calc R . .
H29C H 0.2622 -0.2798 0.1498 0.104 Uiso 1 1 calc R . .
C30 C 0.2944(3) -0.2155(4) 0.26473(14) 0.0627(9) Uani 1 1 d . . .
H30A H 0.2677 -0.3120 0.2673 0.094 Uiso 1 1 calc R . .
H30B H 0.2518 -0.1403 0.2717 0.094 Uiso 1 1 calc R . .
H30C H 0.3472 -0.2080 0.2886 0.094 Uiso 1 1 calc R . .
N1 N 0.31972(18) -0.1944(3) 0.21382(11) 0.0474(6) Uani 1 1 d . . .
O1 O 0.38276(15) -0.0451(2) 0.15939(8) 0.0523(5) Uani 1 1 d . . .
O2 O 0.29928(13) 0.2786(2) 0.12168(8) 0.0471(5) Uani 1 1 d . . .
O3 O 0.39818(12) 0.4030(2) 0.08281(8) 0.0445(5) Uani 1 1 d . . .
O5 O 0.00418(16) 1.0681(3) -0.30637(7) 0.0561(6) Uani 1 1 d . . .
O6 O -0.05406(14) 1.2697(2) -0.27693(7) 0.0478(5) Uani 1 1 d . . .
O7 O -0.40498(13) 1.1164(3) 0.14385(8) 0.0572(6) Uani 1 1 d . . .
O8 O -0.49342(12) 1.0963(2) 0.07375(7) 0.0479(5) Uani 1 1 d . . .
Cd1 Cd 0.441161(11) 0.18776(2) 0.141485(6) 0.03153(8) Uani 1 1 d . . .

loop_
_atom_site_aniso_label
_atom_site_aniso_U_11
_atom_site_aniso_U_22
_atom_site_aniso_U_33
_atom_site_aniso_U_23
_atom_site_aniso_U_13
_atom_site_aniso_U_12
C1 0.0298(12) 0.0326(12) 0.0350(12) -0.0024(10) 0.0002(9) 0.0051(10)
C2 0.0276(13) 0.0455(15) 0.0424(14) 0.0053(12) 0.0046(10) 0.0057(11)
C3 0.0313(14) 0.0423(14) 0.0386(14) 0.0107(11) 0.0097(11) 0.0059(10)
C4 0.0277(12) 0.0308(11) 0.0298(11) -0.0020(9) 0.0030(9) 0.0055(9)
C5 0.0290(12) 0.0327(12) 0.0357(12) -0.0004(10) 0.0059(9) 0.0018(9)
C6 0.0358(13) 0.0318(12) 0.0346(12) 0.0041(10) 0.0051(10) 0.0001(10)
C7 0.0254(12) 0.0323(12) 0.0307(11) 0.0013(9) 0.0049(9) 0.0042(9)
C8 0.0257(12) 0.0338(12) 0.0314(12) 0.0024(9) 0.0074(9) 0.0040(9)
C9 0.0321(12) 0.0329(12) 0.0259(11) 0.0018(9) 0.0072(9) 0.0020(10)
C10 0.0276(12) 0.0377(13) 0.0304(11) 0.0032(10) 0.0046(9) 0.0082(10)
C11 0.0290(12) 0.0320(11) 0.0295(11) -0.0026(9) 0.0045(9) 0.0036(9)
C12 0.0286(12) 0.0364(12) 0.0287(11) 0.0010(9) 0.0045(9) 0.0034(10)
C13 0.0267(12) 0.0378(12) 0.0284(11) 0.0016(10) 0.0029(9) 0.0060(10)
C14 0.0425(15) 0.0373(13) 0.0346(13) 0.0047(11) 0.0100(11) 0.0091(11)
C15 0.0462(15) 0.0460(15) 0.0319(12) -0.0006(11) 0.0125(11) 0.0069(12)
C16 0.0330(13) 0.0421(14) 0.0281(11) 0.0042(10) 0.0028(9) 0.0018(10)
C17 0.0449(16) 0.0429(14) 0.0324(13) 0.0086(11) 0.0031(11) 0.0102(12)
C18 0.0395(14) 0.0437(14) 0.0309(12) 0.0021(11) 0.0066(10) 0.0093(11)
C19 0.0274(12) 0.0346(12) 0.0305(11) 0.0004(9) 0.0066(9) 0.0038(9)
C20 0.0276(12) 0.0434(14) 0.0340(12) -0.0036(11) 0.0053(9) 0.0031(10)
C21 0.0269(12) 0.0449(14) 0.0335(12) 0.0013(11) 0.0040(9) 0.0066(10)
C22 0.0261(12) 0.0436(14) 0.0346(12) -0.0028(11) 0.0034(9) 0.0050(10)
C23 0.0272(12) 0.0317(12) 0.0360(12) 0.0003(10) 0.0089(9) 0.0016(9)
C24 0.0317(13) 0.0475(14) 0.0267(11) -0.0036(10) 0.0069(9) 0.0020(11)
C25 0.0323(13) 0.0332(12) 0.0400(13) -0.0004(10) 0.0125(10) 0.0023(10)
C26 0.0373(15) 0.0478(15) 0.0311(12) 0.0065(11) 0.0029(10) -0.0072(12)
C27 0.0361(14) 0.0348(13) 0.0367(13) -0.0052(10) 0.0003(10) 0.0096(11)
C28 0.0469(17) 0.0421(15) 0.0546(17) -0.0035(13) 0.0161(13) -0.0004(13)
C29 0.082(3) 0.0444(19) 0.086(3) -0.0159(17) 0.029(2) -0.0119(16)
C30 0.060(2) 0.066(2) 0.066(2) 0.0119(18) 0.0205(18) 0.0033(17)
N1 0.0471(15) 0.0420(14) 0.0548(16) -0.0027(11) 0.0136(12) -0.0043(10)
O1 0.0630(13) 0.0378(11) 0.0594(13) -0.0083(10) 0.0209(11) -0.0075(9)
O2 0.0382(11) 0.0507(12) 0.0520(12) 0.0165(10) 0.0024(9) 0.0128(9)
O3 0.0316(10) 0.0534(12) 0.0486(11) 0.0040(9) 0.0045(8) 0.0129(9)
O5 0.0809(16) 0.0588(13) 0.0317(10) 0.0022(9) 0.0191(10) 0.0007(12)
O6 0.0560(13) 0.0520(12) 0.0361(10) 0.0159(9) 0.0088(9) 0.0072(10)
O7 0.0393(11) 0.0883(17) 0.0451(12) -0.0221(12) 0.0093(9) 0.0149(11)
O8 0.0319(10) 0.0684(14) 0.0442(11) -0.0010(10) 0.0072(8) 0.0204(9)
Cd1 0.03033(13) 0.03627(12) 0.02879(11) -0.00026(7) 0.00688(7) 0.00788(7)

_geom_special_details            
; 
 All esds (except the esd in the dihedral angle between two l.s. planes) 
 are estimated using the full covariance matrix.  The cell esds are taken 
 into account individually in the estimation of esds in distances, angles 
 and torsion angles; correlations between esds in cell parameters are only 
 used when they are defined by crystal symmetry.  An approximate (isotropic) 
 treatment of cell esds is used for estimating esds involving l.s. planes. 
;

loop_
_geom_bond_atom_site_label_1
_geom_bond_atom_site_label_2
_geom_bond_distance
_geom_bond_site_symmetry_2
_geom_bond_publ_flag
C1 C2 1.382(4) . ?
C1 C6 1.386(3) . ?
C1 C27 1.503(3) . ?
C2 C3 1.383(3) . ?
C3 C4 1.394(4) . ?
C4 C5 1.396(3) . ?
C4 C7 1.499(3) . ?
C5 C6 1.387(3) . ?
C7 C8 1.387(3) . ?
C7 C12 1.398(3) . ?
C8 C9 1.401(3) . ?
C9 C10 1.388(3) . ?
C9 C13 1.479(3) . ?
C10 C11 1.394(3) . ?
C11 C12 1.398(3) . ?
C11 C19 1.480(3) . ?
C13 C18 1.394(3) . ?
C13 C14 1.397(3) . ?
C14 C15 1.384(3) . ?
C15 C16 1.386(4) . ?
C16 C17 1.386(4) . ?
C16 C26 1.509(3) . ?
C17 C18 1.374(3) . ?
C19 C21 1.391(3) . ?
C19 C20 1.394(3) . ?
C20 C22 1.389(3) . ?
C21 C24 1.385(3) . ?
C22 C23 1.384(3) . ?
C23 C24 1.392(3) . ?
C23 C25 1.486(3) . ?
C25 O7 1.242(3) . ?
C25 O8 1.261(3) . ?
C25 Cd1 2.685(2) 1_465 ?
C26 O5 1.227(3) . ?
C26 O6 1.260(4) . ?
C27 O2 1.244(3) . ?
C27 O3 1.272(3) . ?
C27 Cd1 2.743(3) . ?
C28 O1 1.252(3) . ?
C28 N1 1.310(4) . ?
C29 N1 1.445(4) . ?
C30 N1 1.465(4) . ?
O1 Cd1 2.337(2) . ?
O2 Cd1 2.2759(19) . ?
O3 Cd1 2.529(2) . ?
O6 Cd1 2.210(2) 4_575 ?
O7 Cd1 2.377(2) 1_465 ?
O8 Cd1 2.3019(19) 1_465 ?
Cd1 O6 2.210(2) 4_676 ?
Cd1 O8 2.3018(19) 1_645 ?
Cd1 O7 2.377(2) 1_645 ?
Cd1 C25 2.685(2) 1_645 ?

loop_
_geom_angle_atom_site_label_1
_geom_angle_atom_site_label_2
_geom_angle_atom_site_label_3
_geom_angle
_geom_angle_site_symmetry_1
_geom_angle_site_symmetry_3
_geom_angle_publ_flag
C2 C1 C6 119.2(2) . . ?
C2 C1 C27 121.6(2) . . ?
C6 C1 C27 119.2(2) . . ?
C1 C2 C3 120.9(2) . . ?
C2 C3 C4 120.5(2) . . ?
C3 C4 C5 118.4(2) . . ?
C3 C4 C7 120.7(2) . . ?
C5 C4 C7 120.9(2) . . ?
C6 C5 C4 120.7(2) . . ?
C1 C6 C5 120.4(2) . . ?
C8 C7 C12 119.1(2) . . ?
C8 C7 C4 120.5(2) . . ?
C12 C7 C4 120.4(2) . . ?
C7 C8 C9 121.1(2) . . ?
C10 C9 C8 118.7(2) . . ?
C10 C9 C13 119.7(2) . . ?
C8 C9 C13 121.5(2) . . ?
C9 C10 C11 121.6(2) . . ?
C10 C11 C12 118.6(2) . . ?
C10 C11 C19 118.9(2) . . ?
C12 C11 C19 122.4(2) . . ?
C11 C12 C7 121.0(2) . . ?
C18 C13 C14 118.0(2) . . ?
C18 C13 C9 119.8(2) . . ?
C14 C13 C9 122.2(2) . . ?
C15 C14 C13 120.4(2) . . ?
C14 C15 C16 121.0(2) . . ?
C15 C16 C17 118.7(2) . . ?
C15 C16 C26 122.2(2) . . ?
C17 C16 C26 119.1(2) . . ?
C18 C17 C16 120.6(3) . . ?
C17 C18 C13 121.3(2) . . ?
C21 C19 C20 118.3(2) . . ?
C21 C19 C11 121.1(2) . . ?
C20 C19 C11 120.5(2) . . ?
C22 C20 C19 120.5(2) . . ?
C24 C21 C19 121.2(2) . . ?
C23 C22 C20 120.7(2) . . ?
C22 C23 C24 119.1(2) . . ?
C22 C23 C25 120.7(2) . . ?
C24 C23 C25 120.2(2) . . ?
C21 C24 C23 120.1(2) . . ?
O7 C25 O8 121.1(2) . . ?
O7 C25 C23 120.0(2) . . ?
O8 C25 C23 118.9(2) . . ?
O7 C25 Cd1 62.26(14) . 1_465 ?
O8 C25 Cd1 58.86(12) . 1_465 ?
C23 C25 Cd1 177.73(19) . 1_465 ?
O5 C26 O6 123.7(3) . . ?
O5 C26 C16 120.1(3) . . ?
O6 C26 C16 116.3(2) . . ?
O2 C27 O3 122.0(2) . . ?
O2 C27 C1 119.3(2) . . ?
O3 C27 C1 118.7(2) . . ?
O2 C27 Cd1 55.21(13) . . ?
O3 C27 Cd1 66.82(13) . . ?
C1 C27 Cd1 174.5(2) . . ?
O1 C28 N1 123.7(3) . . ?
C28 N1 C29 121.8(3) . . ?
C28 N1 C30 120.1(3) . . ?
C29 N1 C30 118.1(3) . . ?
C28 O1 Cd1 120.06(19) . . ?
C27 O2 Cd1 98.11(17) . . ?
C27 O3 Cd1 85.65(16) . . ?
C26 O6 Cd1 103.61(17) . 4_575 ?
C25 O7 Cd1 90.20(16) . 1_465 ?
C25 O8 Cd1 93.18(15) . 1_465 ?
O6 Cd1 O2 95.56(8) 4_676 . ?
O6 Cd1 O8 150.33(7) 4_676 1_645 ?
O2 Cd1 O8 114.08(8) . 1_645 ?
O6 Cd1 O1 85.69(8) 4_676 . ?
O2 Cd1 O1 90.63(8) . . ?
O8 Cd1 O1 92.37(8) 1_645 . ?
O6 Cd1 O7 95.36(7) 4_676 1_645 ?
O2 Cd1 O7 166.74(8) . 1_645 ?
O8 Cd1 O7 55.50(7) 1_645 1_645 ?
O1 Cd1 O7 97.66(9) . 1_645 ?
O6 Cd1 O3 117.37(8) 4_676 . ?
O2 Cd1 O3 54.20(7) . . ?
O8 Cd1 O3 83.38(7) 1_645 . ?
O1 Cd1 O3 137.51(7) . . ?
O7 Cd1 O3 113.66(8) 1_645 . ?
O6 Cd1 C25 122.72(8) 4_676 1_645 ?
O2 Cd1 C25 141.51(8) . 1_645 ?
O8 Cd1 C25 27.96(7) 1_645 1_645 ?
O1 Cd1 C25 95.64(8) . 1_645 ?
O7 Cd1 C25 27.54(7) 1_645 1_645 ?
O3 Cd1 C25 99.45(7) . 1_645 ?
O6 Cd1 C27 107.84(8) 4_676 . ?
O2 Cd1 C27 26.67(8) . . ?
O8 Cd1 C27 99.89(7) 1_645 . ?
O1 Cd1 C27 114.58(8) . . ?
O7 Cd1 C27 141.00(9) 1_645 . ?
O3 Cd1 C27 27.53(7) . . ?
C25 Cd1 C27 122.61(8) 1_645 . ?

_diffrn_measured_fraction_theta_max 0.893
_diffrn_reflns_theta_full        31.37
_diffrn_measured_fraction_theta_full 0.893
_refine_diff_density_max         1.022
_refine_diff_density_min         -0.648
_refine_diff_density_rms         0.107
loop_
_platon_squeeze_void_nr
_platon_squeeze_void_average_x
_platon_squeeze_void_average_y
_platon_squeeze_void_average_z
_platon_squeeze_void_volume
_platon_squeeze_void_count_electrons
_platon_squeeze_void_content
1 0.712 -0.217 0.212 1192 318 ' '
_platon_squeeze_details          
;
;
