####################################################################### 
# 
# This file contains crystal structure data downloaded from the 
# Cambridge Structural Database (CSD) hosted by the Cambridge 
# Crystallographic Data Centre (CCDC).
# 
# Full information about CCDC data access policies and citation 
# guidelines are available at http://www.ccdc.cam.ac.uk/access/V1 
# 
# Audit and citation data items may have been added by the CCDC. 
# Please retain this information to preserve the provenance of 
# this file and to allow appropriate attribution of the data. 
# 
#######################################################################

data_6-Gd
_audit_block_doi                 10.5517/ccz6syw
_database_code_depnum_ccdc_archive 'CCDC 900269'
loop_
_citation_id
_citation_doi
_citation_year
1 10.1021/cg301668g 2013
_audit_update_record             
;
2013-05-16 deposited with the CCDC.	2024-07-11 downloaded from the CCDC.
;

_audit_creation_method           
;
  Olex2 1.1
  (compiled 2011.11.01 svn.r2039, GUI svn.r3906)
;

_chemical_name_common            ?
_chemical_name_systematic        
;
 ? 
;
_chemical_formula_moiety         'C48 H36 Co Gd2 N8 O22, 5(H2O)'
_chemical_formula_sum            'C48 H46 Co Gd2 N8 O27'
_chemical_formula_weight         1540.35

loop_
_atom_type_symbol
_atom_type_description
_atom_type_scat_dispersion_real
_atom_type_scat_dispersion_imag
_atom_type_scat_source
C C 0.0033 0.0016 'International Tables Vol C Tables 4.2.6.8 and 6.1.1.4'
H H 0.0000 0.0000 'International Tables Vol C Tables 4.2.6.8 and 6.1.1.4'
Co Co 0.3494 0.9721 'International Tables Vol C Tables 4.2.6.8 and 6.1.1.4'
Gd Gd -0.1653 3.9035 'International Tables Vol C Tables 4.2.6.8 and 6.1.1.4'
N N 0.0061 0.0033 'International Tables Vol C Tables 4.2.6.8 and 6.1.1.4'
O O 0.0106 0.0060 'International Tables Vol C Tables 4.2.6.8 and 6.1.1.4'

_space_group_crystal_system      tetragonal
_space_group_IT_number           88
_space_group_name_H-M_alt        'I 41/a'
_space_group_name_Hall           '-I 4ad'
loop_
_space_group_symop_id
_space_group_symop_operation_xyz
1 'x, y, z'
2 '-y+3/4, x+1/4, z+1/4'
3 '-x, -y+1/2, z'
4 'y+1/4, -x+1/4, z+1/4'
5 'x+1/2, y+1/2, z+1/2'
6 '-y+5/4, x+3/4, z+3/4'
7 '-x+1/2, -y+1, z+1/2'
8 'y+3/4, -x+3/4, z+3/4'
9 '-x, -y, -z'
10 'y-3/4, -x-1/4, -z-1/4'
11 'x, y-1/2, -z'
12 '-y-1/4, x-1/4, -z-1/4'
13 '-x+1/2, -y+1/2, -z+1/2'
14 'y-1/4, -x+1/4, -z+1/4'
15 'x+1/2, y, -z+1/2'
16 '-y+1/4, x+1/4, -z+1/4'

_cell_length_a                   45.204(2)
_cell_length_b                   45.204(2)
_cell_length_c                   10.7836(5)
_cell_angle_alpha                90.00
_cell_angle_beta                 90.00
_cell_angle_gamma                90.00
_cell_volume                     22035.4(17)
_cell_formula_units_Z            16
_cell_measurement_reflns_used    5485
_cell_measurement_temperature    293(2)
_cell_measurement_theta_max      29.3818
_cell_measurement_theta_min      2.4863
_exptl_absorpt_coefficient_mu    2.775
_exptl_absorpt_correction_T_max  1.00000
_exptl_absorpt_correction_T_min  0.73590
_exptl_absorpt_correction_type   multi-scan
_exptl_absorpt_process_details   
;
CrysAlisPro, Agilent Technologies,
Version 1.171.35.19 (release 27-10-2011 CrysAlis171 .NET)
(compiled Oct 27 2011,15:02:11)
Empirical absorption correction using spherical harmonics,
 implemented in SCALE3 ABSPACK scaling algorithm.
;
_exptl_crystal_colour            ?
_exptl_crystal_density_diffrn    1.845
_exptl_crystal_density_meas      ?
_exptl_crystal_density_method    'not measured'
_exptl_crystal_description       ?
_exptl_crystal_F_000             12016
_exptl_crystal_size_max          0.20
_exptl_crystal_size_mid          0.20
_exptl_crystal_size_min          0.20
_exptl_special_details           
;
 ? 
;
_diffrn_reflns_av_R_equivalents  0.0441
_diffrn_reflns_av_unetI/netI     0.0579
_diffrn_reflns_limit_h_max       53
_diffrn_reflns_limit_h_min       -26
_diffrn_reflns_limit_k_max       36
_diffrn_reflns_limit_k_min       -44
_diffrn_reflns_limit_l_max       12
_diffrn_reflns_limit_l_min       -12
_diffrn_reflns_number            21116
_diffrn_reflns_theta_full        25.01
_diffrn_reflns_theta_max         25.01
_diffrn_reflns_theta_min         2.49
_diffrn_ambient_temperature      293(2)
_diffrn_detector_area_resol_mean 16.2116
_diffrn_measured_fraction_theta_full 0.999
_diffrn_measured_fraction_theta_max 0.999
_diffrn_measurement_details      
;
#__ type_ start__ end____ width___ exp.time_
  1 omega  -10.00   16.25   0.7500  135.0000
omega____ theta____ kappa____ phi______ frames
    -       18.7135   79.0000  -31.0000 35

#__ type_ start__ end____ width___ exp.time_
  2 omega  -53.00   34.00   0.7500  135.0000
omega____ theta____ kappa____ phi______ frames
    -       18.7135  -19.0000  -30.0000 116
;
_diffrn_measurement_device_type  'SuperNova, Single source at offset), Eos'
_diffrn_measurement_method       '\w scans'
_diffrn_orient_matrix_UB_11      0.0148600000
_diffrn_orient_matrix_UB_12      0.0011294000
_diffrn_orient_matrix_UB_13      -0.0200863000
_diffrn_orient_matrix_UB_21      0.0033159000
_diffrn_orient_matrix_UB_22      -0.0135381000
_diffrn_orient_matrix_UB_23      0.0303859000
_diffrn_orient_matrix_UB_31      -0.0036118000
_diffrn_orient_matrix_UB_32      -0.0078814000
_diffrn_orient_matrix_UB_33      -0.0547766000
_diffrn_radiation_monochromator  mirror
_diffrn_radiation_type           'Mo K\a'
_diffrn_radiation_wavelength     0.7107
_diffrn_source                   'SuperNova (Mo) X-ray Source'
_diffrn_standards_decay_%        .
_diffrn_standards_interval_count .
_diffrn_standards_interval_time  .
_diffrn_standards_number         .
_reflns_number_gt                6847
_reflns_number_total             9706
_reflns_odcompleteness_completeness 99.83
_reflns_odcompleteness_iscentric 1
_reflns_odcompleteness_theta     26.32
_reflns_threshold_expression     >2sigma(I)
_computing_cell_refinement       
;
CrysAlisPro, Agilent Technologies,
Version 1.171.35.19 (release 27-10-2011 CrysAlis171 .NET)
(compiled Oct 27 2011,15:02:11)
;
_computing_data_collection       
;
CrysAlisPro, Agilent Technologies,
Version 1.171.35.19 (release 27-10-2011 CrysAlis171 .NET)
(compiled Oct 27 2011,15:02:11)
;
_computing_data_reduction        
;
CrysAlisPro, Agilent Technologies,
Version 1.171.35.19 (release 27-10-2011 CrysAlis171 .NET)
(compiled Oct 27 2011,15:02:11)
;
_computing_molecular_graphics    
;
O. V. Dolomanov, L. J. Bourhis, R. J. Gildea, J. A. K. Howard and H. Puschmann,
OLEX2: a complete structure solution, refinement and analysis program.
J. Appl. Cryst. (2009). 42, 339-341.
;
_computing_publication_material  
;
O. V. Dolomanov, L. J. Bourhis, R. J. Gildea, J. A. K. Howard and H. Puschmann,
OLEX2: a complete structure solution, refinement and analysis program.
J. Appl. Cryst. (2009). 42, 339-341.
;
_computing_structure_refinement  
;
XL, G.M. Sheldrick, Acta Cryst.
(2008). A64, 112-122
;
_computing_structure_solution    
;
SHELXS, G.M. Sheldrick, Acta Cryst.
(2008). A64, 112-122
;
_refine_diff_density_max         2.774
_refine_diff_density_min         -1.518
_refine_diff_density_rms         0.198
_refine_ls_extinction_coef       ?
_refine_ls_extinction_method     none
_refine_ls_goodness_of_fit_ref   1.091
_refine_ls_hydrogen_treatment    mixed
_refine_ls_matrix_type           full
_refine_ls_number_parameters     790
_refine_ls_number_reflns         9706
_refine_ls_number_restraints     219
_refine_ls_R_factor_all          0.0930
_refine_ls_R_factor_gt           0.0689
_refine_ls_restrained_S_all      1.099
_refine_ls_shift/su_max          0.176
_refine_ls_shift/su_mean         0.001
_refine_ls_structure_factor_coef Fsqd
_refine_ls_weighting_details     
'calc w=1/[\s^2^(Fo^2^)+(0.0923P)^2^+359.1527P] where P=(Fo^2^+2Fc^2^)/3'
_refine_ls_weighting_scheme      calc
_refine_ls_wR_factor_gt          0.1911
_refine_ls_wR_factor_ref         0.2102
_refine_special_details          
;
 Refinement of F^2^ against ALL reflections.  The weighted R-factor wR and 
 goodness of fit S are based on F^2^, conventional R-factors R are based 
 on F, with F set to zero for negative F^2^. The threshold expression of 
 F^2^ > 2sigma(F^2^) is used only for calculating R-factors(gt) etc. and is 
 not relevant to the choice of reflections for refinement.  R-factors based 
 on F^2^ are statistically about twice as large as those based on F, and R- 
 factors based on ALL data will be even larger. 
;
_atom_sites_solution_hydrogens   geom
_atom_sites_solution_primary     direct
_atom_sites_solution_secondary   difmap
loop_
_atom_site_label
_atom_site_type_symbol
_atom_site_fract_x
_atom_site_fract_y
_atom_site_fract_z
_atom_site_U_iso_or_equiv
_atom_site_adp_type
_atom_site_occupancy
_atom_site_symmetry_multiplicity
_atom_site_calc_flag
_atom_site_refinement_flags
_atom_site_disorder_assembly
_atom_site_disorder_group
C1 C 1.05870(19) 0.8582(2) -0.2736(7) 0.022(2) Uani 1 1 d . . .
H H 1.0507 0.8651 -0.1997 0.026 Uiso 1 1 calc R . .
C1A C 1.13619(18) 0.87465(18) -0.6094(8) 0.0155(18) Uani 1 1 d . . .
C1B C 0.8444(2) 0.9145(2) -0.2665(8) 0.024(2) Uani 1 1 d . . .
C2 C 1.0624(2) 0.8286(2) -0.2899(8) 0.024(2) Uani 1 1 d . . .
HA H 1.0569 0.8154 -0.2280 0.029 Uiso 1 1 calc R . .
C3 C 1.0742(2) 0.8187(2) -0.3973(8) 0.0214(19) Uani 1 1 d . . .
HB H 1.0768 0.7985 -0.4101 0.026 Uiso 1 1 calc R . .
C4 C 1.08229(19) 0.83846(19) -0.4870(7) 0.0190(18) Uani 1 1 d . . .
C5 C 1.0948(2) 0.82681(19) -0.6080(7) 0.0178(18) Uani 1 1 d . . .
C6 C 1.07825(17) 0.86798(19) -0.4659(7) 0.0158(17) Uani 1 1 d . . .
C7 C 1.08480(19) 0.89146(18) -0.5553(8) 0.0189(18) Uani 1 1 d . . .
C8 C 0.8553(3) 0.9501(3) -0.0271(12) 0.062(4) Uani 1 1 d DU . .
C9 C 1.1094(2) 0.89346(19) -0.6290(7) 0.0169(18) Uani 1 1 d . . .
C10 C 1.1105(2) 0.91561(18) -0.7141(8) 0.0222(19) Uani 1 1 d . . .
HC H 1.1268 0.9172 -0.7665 0.027 Uiso 1 1 calc R . .
C11 C 1.0882(2) 0.9353(2) -0.7230(9) 0.031(2) Uani 1 1 d . . .
HD H 1.0882 0.9497 -0.7848 0.038 Uiso 1 1 calc R . .
C12 C 1.0657(2) 0.9338(2) -0.6398(8) 0.024(2) Uani 1 1 d . . .
HE H 1.0510 0.9483 -0.6412 0.029 Uiso 1 1 calc R . .
C13 C 1.1117(2) 0.9336(2) -0.3623(8) 0.025(2) Uani 1 1 d . . .
HF H 1.1151 0.9141 -0.3394 0.030 Uiso 1 1 calc R . .
C14 C 1.1348(2) 0.9500(2) -0.4067(10) 0.036(2) Uani 1 1 d U . .
HG H 1.1539 0.9423 -0.4095 0.043 Uiso 1 1 calc R . .
C15 C 1.1289(2) 0.9777(2) -0.4464(10) 0.036(2) Uani 1 1 d U . .
HH H 1.1440 0.9889 -0.4818 0.043 Uiso 1 1 calc R . .
C16 C 1.1013(2) 0.9896(2) -0.4353(8) 0.027(2) Uani 1 1 d U . .
C17 C 1.0799(2) 0.9727(2) -0.3802(8) 0.027(2) Uani 1 1 d . . .
C18 C 1.0495(2) 0.9823(2) -0.3604(8) 0.024(2) Uani 1 1 d . . .
C19 C 1.0417(2) 1.00882(19) -0.3085(9) 0.024(2) Uani 1 1 d . . .
C20 C 1.0124(2) 1.01539(19) -0.3012(8) 0.024(2) Uani 1 1 d . . .
HI H 1.0063 1.0334 -0.2684 0.029 Uiso 1 1 calc R . .
C21 C 0.99205(19) 0.99571(19) -0.3417(8) 0.0211(19) Uani 1 1 d . . .
HJ H 0.9720 1.0005 -0.3400 0.025 Uiso 1 1 calc R . .
C22 C 1.0009(2) 0.9691(2) -0.3844(8) 0.023(2) Uani 1 1 d . . .
HK H 0.9868 0.9552 -0.4080 0.028 Uiso 1 1 calc R . .
C23 C 1.0635(2) 1.02862(19) -0.2471(8) 0.023(2) Uani 1 1 d . . .
C24 C 1.0955(2) 1.0189(2) -0.4952(9) 0.034(2) Uani 1 1 d U . .
C25 C 1.0386(2) 0.9422(2) -0.1108(8) 0.029(2) Uani 1 1 d . . .
HL H 1.0588 0.9462 -0.1100 0.035 Uiso 1 1 calc R . .
C26 C 1.0213(2) 0.9562(2) -0.0285(8) 0.029(2) Uani 1 1 d . . .
HM H 1.0291 0.9690 0.0305 0.035 Uiso 1 1 calc R . .
C27 C 0.9918(2) 0.9509(2) -0.0350(8) 0.026(2) Uani 1 1 d . . .
HN H 0.9791 0.9606 0.0197 0.031 Uiso 1 1 calc R . .
C28 C 0.98008(19) 0.93162(19) -0.1206(7) 0.0184(19) Uani 1 1 d . . .
C29 C 1.00000(19) 0.91631(18) -0.1938(7) 0.0181(18) Uani 1 1 d . . .
C30 C 0.99269(18) 0.89271(19) -0.2818(7) 0.0178(18) Uani 1 1 d . . .
C31 C 0.97466(19) 0.86922(18) -0.2592(7) 0.0170(18) Uani 1 1 d . . .
C32 C 0.97198(19) 0.84785(19) -0.3458(8) 0.0215(19) Uani 1 1 d . . .
HO H 0.9602 0.8314 -0.3301 0.026 Uiso 1 1 calc R . .
C33 C 0.98656(18) 0.85026(19) -0.4568(7) 0.0178(18) Uani 1 1 d . . .
HP H 0.9844 0.8360 -0.5184 0.021 Uiso 1 1 calc R . .
C34 C 1.00412(19) 0.8741(2) -0.4733(8) 0.0209(19) Uani 1 1 d . . .
HQ H 1.0142 0.8760 -0.5481 0.025 Uiso 1 1 calc R . .
C35 C 0.9580(2) 0.86602(19) -0.1394(8) 0.021(2) Uani 1 1 d . . .
C36 C 0.94773(19) 0.92952(19) -0.1344(7) 0.0166(18) Uani 1 1 d . . .
C37 C 0.7700(4) 0.8863(4) -0.1135(14) 0.0741(14) Uani 1 1 d U . .
HR H 0.7536 0.8782 -0.0742 0.089 Uiso 1 1 calc R . .
C38 C 0.7841(4) 0.8675(4) -0.1702(14) 0.0741(15) Uani 1 1 d U . .
HS H 0.7777 0.8483 -0.1859 0.089 Uiso 1 1 calc R . .
C39 C 0.8093(4) 0.8787(4) -0.2049(14) 0.0739(16) Uani 1 1 d U . .
HT H 0.8233 0.8655 -0.2352 0.089 Uiso 1 1 calc R . .
C40 C 0.8173(2) 0.9081(2) -0.2013(9) 0.030(2) Uani 1 1 d U . .
C41 C 0.8006(4) 0.9291(4) -0.1510(14) 0.0741(13) Uani 1 1 d U . .
C42 C 0.8073(4) 0.9602(4) -0.1537(14) 0.0746(13) Uani 1 1 d U . .
C43 C 0.8326(4) 0.9682(4) -0.1059(14) 0.0751(14) Uani 1 1 d DU . .
C44 C 0.8397(4) 0.9997(4) -0.1386(13) 0.0756(14) Uani 1 1 d U . .
HU H 0.8581 1.0068 -0.1138 0.091 Uiso 1 1 calc R . .
C45 C 0.8209(3) 1.0201(4) -0.2047(14) 0.0755(14) Uani 1 1 d U . .
HV H 0.8261 1.0387 -0.2344 0.091 Uiso 1 1 calc R . .
C46 C 0.7941(4) 1.0069(4) -0.2151(14) 0.0752(14) Uani 1 1 d U . .
HW H 0.7787 1.0195 -0.2371 0.090 Uiso 1 1 calc R . .
N1 N 1.06629(15) 0.87743(16) -0.3613(6) 0.0180(16) Uani 1 1 d . . .
N2 N 1.06401(15) 0.91220(16) -0.5562(6) 0.0200(16) Uani 1 1 d . . .
N3 N 1.08478(17) 0.94429(17) -0.3503(7) 0.0259(18) Uani 1 1 d . . .
N4 N 1.02902(17) 0.96232(17) -0.3934(7) 0.0241(17) Uani 1 1 d . . .
N5 N 1.02844(15) 0.92291(17) -0.1931(6) 0.0209(16) Uani 1 1 d . . .
N6 N 1.00767(15) 0.89489(16) -0.3877(6) 0.0157(15) Uani 1 1 d . . .
N7 N 0.7865(3) 0.9791(3) -0.1988(12) 0.0750(14) Uani 1 1 d U . .
N8 N 0.7721(3) 0.9158(3) -0.0929(11) 0.0742(14) Uani 1 1 d U . .
O1 O 1.11419(14) 0.80785(13) -0.5983(6) 0.0230(14) Uani 1 1 d . . .
O2 O 1.08474(14) 0.83706(13) -0.7049(5) 0.0229(14) Uani 1 1 d . . .
O3 O 1.14059(13) 0.86670(13) -0.5000(5) 0.0217(14) Uani 1 1 d . . .
O4 O 1.15198(13) 0.87000(13) -0.6974(6) 0.0243(14) Uani 1 1 d . . .
O5 O 1.11593(14) 1.03773(14) -0.4874(6) 0.0297(16) Uani 1 1 d . . .
O6 O 1.07309(16) 1.02317(17) -0.5549(9) 0.055(2) Uani 1 1 d . . .
O7 O 1.06722(14) 1.05422(13) -0.2852(6) 0.0279(15) Uani 1 1 d . . .
O8 O 1.07622(15) 1.01959(14) -0.1526(6) 0.0269(15) Uani 1 1 d . . .
O9 O 0.93166(14) 0.85823(15) -0.1479(5) 0.0259(15) Uani 1 1 d . . .
O10 O 0.97129(14) 0.87166(14) -0.0411(5) 0.0242(14) Uani 1 1 d . . .
O11 O 0.93831(13) 0.92345(14) -0.2373(5) 0.0236(14) Uani 1 1 d . . .
O12 O 0.93275(13) 0.93598(13) -0.0426(6) 0.0226(14) Uani 1 1 d . . .
O13 O 0.94221(13) 0.89543(14) 0.1445(5) 0.0250(14) Uani 1 1 d . . .
HX H 0.9398 0.8847 0.2095 0.037 Uiso 1 1 d R . .
HY H 0.9439 0.8841 0.0808 0.037 Uiso 1 1 d R . .
O14 O 0.88981(13) 0.88647(13) -0.0124(5) 0.0230(14) Uani 1 1 d . . .
HZ H 0.8763 0.8741 0.0221 0.034 Uiso 1 1 d R . .
H0AA H 0.8823 0.8923 -0.0860 0.034 Uiso 1 1 d R . .
O15 O 0.86764(14) 0.95120(14) 0.2531(6) 0.0282(15) Uani 1 1 d . . .
H1AA H 0.8492 0.9435 0.2484 0.042 Uiso 1 1 d R . .
H2AA H 0.8733 0.9497 0.3332 0.042 Uiso 1 1 d R . .
O16 O 0.8775(2) 0.9598(2) -0.0197(10) 0.078(3) Uani 1 1 d DU . .
O17 O 0.8452(2) 0.9302(2) 0.0419(10) 0.086(3) Uani 1 1 d DU . .
O18 O 0.86824(19) 0.90446(19) -0.2248(7) 0.052(2) Uani 1 1 d U . .
O19 O 0.84438(14) 0.92921(15) -0.3634(5) 0.0266(15) Uani 1 1 d . . .
O20 O 0.8903(2) 0.9642(2) -0.2396(9) 0.066(3) Uani 1 1 d U . .
H3AA H 0.8806 0.9795 -0.2762 0.100 Uiso 1 1 d R . .
H4AA H 0.8788 0.9582 -0.1753 0.100 Uiso 1 1 d R . .
O21 O 0.90820(16) 0.87364(14) -0.3615(5) 0.0290(16) Uani 1 1 d . . .
H5AA H 0.9130 0.8685 -0.2835 0.044 Uiso 1 1 d R . .
H6AA H 0.8920 0.8632 -0.3819 0.044 Uiso 1 1 d R . .
O22 O 0.94242(13) 0.91534(14) -0.5087(5) 0.0224(14) Uani 1 1 d . . .
H7AA H 0.9414 0.8978 -0.5400 0.034 Uiso 1 1 d R . .
H8AA H 0.9430 0.9281 -0.5682 0.034 Uiso 1 1 d R . .
Co1 Co 1.04635(3) 0.91876(3) -0.37482(10) 0.0189(3) Uani 1 1 d . . .
Gd1 Gd 0.900975(9) 0.927196(10) 0.11899(4) 0.01576(16) Uani 1 1 d . . .
Gd2 Gd 0.900125(9) 0.924602(10) -0.38046(4) 0.01940(17) Uani 1 1 d . . .
O28 O 1.0692(2) 0.9977(2) 0.1175(9) 0.072(3) Uani 1 1 d . . .
O25 O 0.9986(2) 1.0829(2) -0.2458(10) 0.077(3) Uani 1 1 d . . .
O23 O 0.7257(3) 0.9818(2) -0.1532(10) 0.087(3) Uani 1 1 d U . .
O27 O 0.8083(3) 0.9583(3) 0.2646(12) 0.120(4) Uani 1 1 d U . .
O26 O 1.0392(5) 0.8695(4) -0.787(2) 0.080(6) Uani 0.50 1 d PU . .
O24 O 0.7736(6) 1.0674(5) -0.245(2) 0.102(8) Uani 0.50 1 d PU . .

loop_
_atom_site_aniso_label
_atom_site_aniso_U_11
_atom_site_aniso_U_22
_atom_site_aniso_U_33
_atom_site_aniso_U_23
_atom_site_aniso_U_13
_atom_site_aniso_U_12
C1 0.017(4) 0.037(5) 0.012(4) 0.002(4) 0.000(3) 0.007(4)
C1A 0.016(4) 0.009(4) 0.022(4) 0.001(3) -0.002(4) -0.005(3)
C1B 0.027(5) 0.022(5) 0.024(5) -0.001(4) 0.000(4) 0.003(4)
C2 0.023(5) 0.032(5) 0.017(4) 0.006(4) -0.001(4) -0.005(4)
C3 0.025(5) 0.016(4) 0.023(4) 0.003(4) -0.002(4) -0.002(4)
C4 0.019(4) 0.021(5) 0.017(4) -0.001(4) -0.003(4) 0.000(4)
C5 0.021(5) 0.015(4) 0.018(4) 0.001(4) 0.000(4) -0.004(4)
C6 0.011(4) 0.021(4) 0.015(4) 0.002(3) 0.003(3) -0.003(4)
C7 0.024(5) 0.012(4) 0.021(4) -0.001(3) -0.005(4) 0.004(4)
C8 0.063(4) 0.061(4) 0.061(4) 0.0003(10) -0.0003(10) -0.0013(10)
C9 0.021(5) 0.016(4) 0.014(4) 0.000(3) 0.002(3) -0.002(4)
C10 0.026(5) 0.015(4) 0.025(5) 0.005(4) 0.004(4) -0.002(4)
C11 0.044(6) 0.023(5) 0.027(5) 0.012(4) 0.010(5) 0.004(5)
C12 0.029(5) 0.018(5) 0.024(5) 0.008(4) -0.002(4) 0.004(4)
C13 0.021(5) 0.018(5) 0.037(5) -0.003(4) 0.000(4) 0.002(4)
C14 0.036(3) 0.036(3) 0.037(3) 0.0001(10) 0.0002(10) 0.0001(10)
C15 0.036(3) 0.036(3) 0.037(3) -0.0001(10) 0.0004(10) -0.0001(10)
C16 0.026(2) 0.026(2) 0.028(2) 0.0000(10) 0.0007(10) 0.0001(10)
C17 0.023(5) 0.020(5) 0.037(5) -0.010(4) 0.000(4) 0.001(4)
C18 0.024(5) 0.018(5) 0.032(5) -0.004(4) 0.007(4) -0.002(4)
C19 0.023(5) 0.017(5) 0.034(5) -0.003(4) 0.006(4) 0.002(4)
C20 0.027(5) 0.017(4) 0.028(5) 0.003(4) 0.003(4) 0.008(4)
C21 0.016(4) 0.016(4) 0.032(5) 0.0