####################################################################### 
# 
# This file contains crystal structure data downloaded from the 
# Cambridge Structural Database (CSD) hosted by the Cambridge 
# Crystallographic Data Centre (CCDC).
# 
# Full information about CCDC data access policies and citation 
# guidelines are available at http://www.ccdc.cam.ac.uk/access/V1 
# 
# Audit and citation data items may have been added by the CCDC. 
# Please retain this information to preserve the provenance of 
# this file and to allow appropriate attribution of the data. 
# 
#######################################################################

data_4-Sm
_audit_block_doi                 10.5517/cc10jw0f

_database_code_depnum_ccdc_archive 'CCDC 939734'
loop_
_citation_id
_citation_doi
_citation_year
1 10.1021/cg301668g 2013
_audit_update_record             
;
2013-05-16 deposited with the CCDC.	2024-07-11 downloaded from the CCDC.
;

_audit_creation_method           
;
  Olex2 1.1
  (compiled 2011.11.01 svn.r2039, GUI svn.r3906)
;

_chemical_name_common            ?
_chemical_name_systematic        
;
 ? 
;
_chemical_formula_moiety         'C48 H36 Co N8 O22 Sm2, 7(H2O)'
_chemical_formula_sum            'C48 H50 Co N8 O29 Sm2'
_chemical_formula_weight         1562.60

loop_
_atom_type_symbol
_atom_type_description
_atom_type_scat_dispersion_real
_atom_type_scat_dispersion_imag
_atom_type_scat_source
C C 0.0033 0.0016 'International Tables Vol C Tables 4.2.6.8 and 6.1.1.4'
H H 0.0000 0.0000 'International Tables Vol C Tables 4.2.6.8 and 6.1.1.4'
Co Co 0.3494 0.9721 'International Tables Vol C Tables 4.2.6.8 and 6.1.1.4'
N N 0.0061 0.0033 'International Tables Vol C Tables 4.2.6.8 and 6.1.1.4'
O O 0.0106 0.0060 'International Tables Vol C Tables 4.2.6.8 and 6.1.1.4'
Sm Sm -0.1638 3.4418 'International Tables Vol C Tables 4.2.6.8 and 6.1.1.4'

_space_group_crystal_system      tetragonal
_space_group_IT_number           88
_space_group_name_H-M_alt        'I 41/a'
_space_group_name_Hall           '-I 4ad'
loop_
_space_group_symop_id
_space_group_symop_operation_xyz
1 'x, y, z'
2 '-y+3/4, x+1/4, z+1/4'
3 '-x, -y+1/2, z'
4 'y+1/4, -x+1/4, z+1/4'
5 'x+1/2, y+1/2, z+1/2'
6 '-y+5/4, x+3/4, z+3/4'
7 '-x+1/2, -y+1, z+1/2'
8 'y+3/4, -x+3/4, z+3/4'
9 '-x, -y, -z'
10 'y-3/4, -x-1/4, -z-1/4'
11 'x, y-1/2, -z'
12 '-y-1/4, x-1/4, -z-1/4'
13 '-x+1/2, -y+1/2, -z+1/2'
14 'y-1/4, -x+1/4, -z+1/4'
15 'x+1/2, y, -z+1/2'
16 '-y+1/4, x+1/4, -z+1/4'

_cell_length_a                   45.9697(10)
_cell_length_b                   45.9697(10)
_cell_length_c                   11.1834(3)
_cell_angle_alpha                90.00
_cell_angle_beta                 90.00
_cell_angle_gamma                90.00
_cell_volume                     23633.0(10)
_cell_formula_units_Z            16
_cell_measurement_reflns_used    7876
_cell_measurement_temperature    293(2)
_cell_measurement_theta_max      29.2447
_cell_measurement_theta_min      2.4176
_exptl_absorpt_coefficient_mu    2.335
_exptl_absorpt_correction_T_max  1.00000
_exptl_absorpt_correction_T_min  0.87690
_exptl_absorpt_correction_type   multi-scan
_exptl_absorpt_process_details   
;
CrysAlisPro, Oxford Diffraction Ltd.,
Version 1.171.34.44 (release 25-10-2010 CrysAlis171 .NET)
(compiled Oct 25 2010,18:11:34)
Empirical absorption correction using spherical harmonics,
 implemented in SCALE3 ABSPACK scaling algorithm.
;
_exptl_crystal_colour            ?
_exptl_crystal_density_diffrn    1.741
_exptl_crystal_density_meas      ?
_exptl_crystal_density_method    'not measured'
_exptl_crystal_description       ?
_exptl_crystal_F_000             12208
_exptl_crystal_size_max          0.20
_exptl_crystal_size_mid          0.10
_exptl_crystal_size_min          0.10
_exptl_special_details           
;
 ? 
;
_diffrn_reflns_av_R_equivalents  0.0287
_diffrn_reflns_av_unetI/netI     0.0461
_diffrn_reflns_limit_h_max       45
_diffrn_reflns_limit_h_min       -38
_diffrn_reflns_limit_k_max       27
_diffrn_reflns_limit_k_min       -54
_diffrn_reflns_limit_l_max       12
_diffrn_reflns_limit_l_min       -13
_diffrn_reflns_number            23046
_diffrn_reflns_theta_full        25.01
_diffrn_reflns_theta_max         25.01
_diffrn_reflns_theta_min         2.42
_diffrn_ambient_temperature      293(2)
_diffrn_detector_area_resol_mean 16.2116
_diffrn_measured_fraction_theta_full 0.998
_diffrn_measured_fraction_theta_max 0.998
_diffrn_measurement_details      
;
#__ type_ start__ end____ width___ exp.time_
  1 omega   53.00   79.25   0.7500   75.0000
omega____ theta____ kappa____ phi______ frames
    -       18.1935 -134.0000 -173.0000 35

#__ type_ start__ end____ width___ exp.time_
  2 omega  -91.00   -4.00   0.7500   75.0000
omega____ theta____ kappa____ phi______ frames
    -      -18.8185  -37.0000  -90.0000 116
;
_diffrn_measurement_device_type  'SuperNova, Single source at offset), Eos'
_diffrn_measurement_method       '\w scans'
_diffrn_orient_matrix_UB_11      0.0097292000
_diffrn_orient_matrix_UB_12      0.0119013000
_diffrn_orient_matrix_UB_13      -0.0055175000
_diffrn_orient_matrix_UB_21      0.0117875000
_diffrn_orient_matrix_UB_22      -0.0098230000
_diffrn_orient_matrix_UB_23      -0.0063156000
_diffrn_orient_matrix_UB_31      -0.0020407000
_diffrn_orient_matrix_UB_32      -0.0000445000
_diffrn_orient_matrix_UB_33      -0.0629014000
_diffrn_radiation_monochromator  mirror
_diffrn_radiation_type           'Mo K\a'
_diffrn_radiation_wavelength     0.7107
_diffrn_source                   'SuperNova (Mo) X-ray Source'
_diffrn_source_current           n/a
_diffrn_source_voltage           n/a
_diffrn_standards_decay_%        .
_diffrn_standards_interval_count .
_diffrn_standards_interval_time  .
_diffrn_standards_number         .
_reflns_number_gt                7654
_reflns_number_total             10409
_reflns_odcompleteness_completeness 99.74
_reflns_odcompleteness_iscentric 1
_reflns_odcompleteness_theta     26.32
_reflns_threshold_expression     >2sigma(I)
_computing_cell_refinement       
;
CrysAlisPro, Oxford Diffraction Ltd.,
Version 1.171.34.44 (release 25-10-2010 CrysAlis171 .NET)
(compiled Oct 25 2010,18:11:34)
;
_computing_data_collection       
;
CrysAlisPro, Oxford Diffraction Ltd.,
Version 1.171.34.44 (release 25-10-2010 CrysAlis171 .NET)
(compiled Oct 25 2010,18:11:34)
;
_computing_data_reduction        
;
CrysAlisPro, Oxford Diffraction Ltd.,
Version 1.171.34.44 (release 25-10-2010 CrysAlis171 .NET)
(compiled Oct 25 2010,18:11:34)
;
_computing_molecular_graphics    
;
O. V. Dolomanov, L. J. Bourhis, R. J. Gildea, J. A. K. Howard and H. Puschmann,
OLEX2: a complete structure solution, refinement and analysis program.
J. Appl. Cryst. (2009). 42, 339-341.
;
_computing_publication_material  
;
O. V. Dolomanov, L. J. Bourhis, R. J. Gildea, J. A. K. Howard and H. Puschmann,
OLEX2: a complete structure solution, refinement and analysis program.
J. Appl. Cryst. (2009). 42, 339-341.
;
_computing_structure_refinement  
;
XL, G.M. Sheldrick, Acta Cryst.
(2008). A64, 112-122
;
_computing_structure_solution    'SHELXS-97 (Sheldrick, 1990)'
_refine_diff_density_max         1.218
_refine_diff_density_min         -0.636
_refine_diff_density_rms         0.118
_refine_ls_extinction_coef       ?
_refine_ls_extinction_method     none
_refine_ls_goodness_of_fit_ref   1.044
_refine_ls_hydrogen_treatment    mixed
_refine_ls_matrix_type           full
_refine_ls_number_parameters     812
_refine_ls_number_reflns         10409
_refine_ls_number_restraints     104
_refine_ls_R_factor_all          0.0652
_refine_ls_R_factor_gt           0.0442
_refine_ls_restrained_S_all      1.066
_refine_ls_shift/su_max          0.003
_refine_ls_shift/su_mean         0.000
_refine_ls_structure_factor_coef Fsqd
_refine_ls_weighting_details     
'calc w=1/[\s^2^(Fo^2^)+(0.0485P)^2^+193.7162P] where P=(Fo^2^+2Fc^2^)/3'
_refine_ls_weighting_scheme      calc
_refine_ls_wR_factor_gt          0.1144
_refine_ls_wR_factor_ref         0.1290
_refine_special_details          
;
 Refinement of F^2^ against ALL reflections.  The weighted R-factor wR and 
 goodness of fit S are based on F^2^, conventional R-factors R are based 
 on F, with F set to zero for negative F^2^. The threshold expression of 
 F^2^ > 2sigma(F^2^) is used only for calculating R-factors(gt) etc. and is 
 not relevant to the choice of reflections for refinement.  R-factors based 
 on F^2^ are statistically about twice as large as those based on F, and R- 
 factors based on ALL data will be even larger. 
;
_atom_sites_solution_hydrogens   geom
_atom_sites_solution_primary     direct
_atom_sites_solution_secondary   difmap
loop_
_atom_site_label
_atom_site_type_symbol
_atom_site_fract_x
_atom_site_fract_y
_atom_site_fract_z
_atom_site_U_iso_or_equiv
_atom_site_adp_type
_atom_site_occupancy
_atom_site_symmetry_multiplicity
_atom_site_calc_flag
_atom_site_refinement_flags
_atom_site_disorder_assembly
_atom_site_disorder_group
H18A H 0.6305(13) 0.455(3) -0.177(2) 0.14(5) Uiso 1 1 d D . .
C1 C 0.54355(16) 0.36536(13) 0.3534(6) 0.0290(15) Uani 1 1 d . . .
C2 C 0.52627(14) 0.36844(14) 0.2378(5) 0.0262(14) Uani 1 1 d . . .
C3 C 0.52900(15) 0.34753(15) 0.1508(6) 0.0324(16) Uani 1 1 d . . .
H3 H 0.5412 0.3317 0.1635 0.039 Uiso 1 1 calc R . .
C4 C 0.51385(14) 0.34985(15) 0.0449(6) 0.0317(16) Uani 1 1 d . . .
H4 H 0.5158 0.3358 -0.0146 0.038 Uiso 1 1 calc R . .
C5 C 0.49602(14) 0.37314(15) 0.0295(5) 0.0296(15) Uani 1 1 d . . .
H5 H 0.4858 0.3748 -0.0419 0.036 Uiso 1 1 calc R . .
C6 C 0.50800(12) 0.39189(13) 0.2148(5) 0.0211(13) Uani 1 1 d . . .
C7 C 0.50070(13) 0.41545(13) 0.3027(5) 0.0218(13) Uani 1 1 d . . .
C8 C 0.46211(15) 0.43970(17) 0.3877(6) 0.0414(19) Uani 1 1 d . . .
H8 H 0.4422 0.4435 0.3895 0.050 Uiso 1 1 calc R . .
C9 C 0.47943(15) 0.45345(17) 0.4693(7) 0.0432(19) Uani 1 1 d . . .
H9 H 0.4716 0.4653 0.5286 0.052 Uiso 1 1 calc R . .
C10 C 0.50928(15) 0.44909(16) 0.4603(6) 0.0364(17) Uani 1 1 d . . .
H10 H 0.5218 0.4588 0.5121 0.044 Uiso 1 1 calc R . .
C11 C 0.52043(13) 0.43042(13) 0.3745(5) 0.0225(14) Uani 1 1 d . . .
C12 C 0.55265(13) 0.42943(13) 0.3558(5) 0.0223(14) Uani 1 1 d . . .
C13 C 0.56274(14) 0.47251(14) -0.2604(6) 0.0272(15) Uani 1 1 d . . .
C14 C 0.54149(14) 0.49247(14) -0.1970(6) 0.0275(14) Uani 1 1 d . . .
C15 C 0.51198(14) 0.48577(15) -0.1992(6) 0.0343(16) Uani 1 1 d . . .
H15 H 0.5058 0.4680 -0.2301 0.041 Uiso 1 1 calc R . .
C16 C 0.49207(15) 0.50513(15) -0.1563(6) 0.0352(17) Uani 1 1 d . . .
H16 H 0.4724 0.5005 -0.1552 0.042 Uiso 1 1 calc R . .
C17 C 0.50140(14) 0.53148(15) -0.1150(6) 0.0314(16) Uani 1 1 d . . .
H17 H 0.4877 0.5450 -0.0896 0.038 Uiso 1 1 calc R . .
C18 C 0.54953(14) 0.51871(14) -0.1450(5) 0.0256(14) Uani 1 1 d . . .
C19 C 0.57973(14) 0.52856(14) -0.1268(6) 0.0285(15) Uani 1 1 d . . .
C20 C 0.61132(14) 0.56752(15) -0.1477(6) 0.0325(16) Uani 1 1 d . . .
H20 H 0.6146 0.5867 -0.1707 0.039 Uiso 1 1 calc R . .
C21 C 0.63432(15) 0.55123(16) -0.1044(7) 0.0386(18) Uani 1 1 d . . .
H21 H 0.6529 0.5591 -0.1005 0.046 Uiso 1 1 calc R . .
C22 C 0.62915(14) 0.52356(15) -0.0675(7) 0.0360(17) Uani 1 1 d . . .
H22 H 0.6443 0.5126 -0.0363 0.043 Uiso 1 1 calc R . .
C23 C 0.60178(14) 0.51147(14) -0.0757(6) 0.0304(15) Uani 1 1 d . . .
C24 C 0.59596(16) 0.48248(15) -0.0164(6) 0.0342(17) Uani 1 1 d . . .
C25 C 0.64648(19) 0.45365(18) 0.4676(7) 0.0452(17) Uani 1 1 d U . .
C26 C 0.66806(19) 0.47032(19) 0.3870(7) 0.0537(15) Uani 1 1 d U . .
C27 C 0.6626(2) 0.4998(2) 0.3642(8) 0.0662(18) Uani 1 1 d U . .
H27 H 0.6457 0.5082 0.3937 0.079 Uiso 1 1 calc R . .
C28 C 0.6819(2) 0.5169(2) 0.2987(9) 0.074(2) Uani 1 1 d U . .
H28 H 0.6777 0.5360 0.2765 0.089 Uiso 1 1 calc R . .
C29 C 0.7078(2) 0.5030(2) 0.2692(9) 0.077(2) Uani 1 1 d U . .
H29 H 0.7223 0.5142 0.2340 0.092 Uiso 1 1 calc R . .
C30 C 0.69277(17) 0.4591(2) 0.3402(7) 0.0525(15) Uani 1 1 d U . .
C31 C 0.69937(16) 0.4275(2) 0.3445(7) 0.0490(14) Uani 1 1 d U . .
C32 C 0.7318(2) 0.3904(2) 0.3897(8) 0.0673(19) Uani 1 1 d U . .
H32 H 0.7492 0.3845 0.4244 0.081 Uiso 1 1 calc R . .
C33 C 0.71585(19) 0.3697(2) 0.3381(8) 0.0661(18) Uani 1 1 d U . .
H33 H 0.7222 0.3505 0.3348 0.079 Uiso 1 1 calc R . .
C34 C 0.68985(17) 0.3779(2) 0.2903(7) 0.0535(17) Uani 1 1 d U . .
H34 H 0.6776 0.3640 0.2573 0.064 Uiso 1 1 calc R . .
C35 C 0.68140(15) 0.40748(18) 0.2907(6) 0.0407(15) Uani 1 1 d U . .
C36 C 0.65406(15) 0.41554(15) 0.2281(6) 0.0303(15) Uani 1 1 d . . .
C37 C 0.62420(13) 0.38732(13) -0.1509(5) 0.0213(13) Uani 1 1 d . . .
C38 C 0.64287(13) 0.36059(13) -0.1318(5) 0.0227(14) Uani 1 1 d . . .
C39 C 0.66527(14) 0.36161(15) -0.0488(6) 0.0340(17) Uani 1 1 d . . .
H39 H 0.6669 0.3775 0.0023 0.041 Uiso 1 1 calc R . .
C40 C 0.68490(16) 0.33945(17) -0.0417(6) 0.0438(19) Uani 1 1 d . . .
H40 H 0.6992 0.3395 0.0172 0.053 Uiso 1 1 calc R . .
C41 C 0.68327(15) 0.31732(16) -0.1221(6) 0.0370(18) Uani 1 1 d . . .
H41 H 0.6977 0.3032 -0.1214 0.044 Uiso 1 1 calc R . .
C42 C 0.64082(13) 0.33569(13) -0.2033(5) 0.0217(13) Uani 1 1 d . . .
C43 C 0.61670(13) 0.32877(13) -0.2887(5) 0.0210(13) Uani 1 1 d . . .
C44 C 0.60636(15) 0.30903(14) -0.4735(6) 0.0301(15) Uani 1 1 d . . .
H44 H 0.6129 0.3007 -0.5444 0.036 Uiso 1 1 calc R . .
C45 C 0.57736(15) 0.31274(15) -0.4585(6) 0.0327(16) Uani 1 1 d . . .
H45 H 0.5643 0.3073 -0.5180 0.039 Uiso 1 1 calc R . .
C46 C 0.56776(15) 0.32467(14) -0.3534(6) 0.0331(16) Uani 1 1 d . . .
H46 H 0.5479 0.3271 -0.3406 0.040 Uiso 1 1 calc R . .
C47 C 0.58742(13) 0.33320(13) -0.2658(5) 0.0242(14) Uani 1 1 d . . .
C48 C 0.57553(13) 0.34606(14) -0.1499(6) 0.0254(14) Uani 1 1 d . . .
N1 N 0.62613(12) 0.31665(11) -0.3917(4) 0.0263(12) Uani 1 1 d . . .
N2 N 0.66169(11) 0.31499(11) -0.2022(5) 0.0274(12) Uani 1 1 d . . .
N3 N 0.72525(15) 0.4192(2) 0.3969(6) 0.0643(16) Uani 1 1 d U . .
N4 N 0.71351(16) 0.47501(18) 0.2873(7) 0.0673(17) Uani 1 1 d U . .
N5 N 0.47205(11) 0.42117(12) 0.3058(5) 0.0296(13) Uani 1 1 d . . .
N6 N 0.49256(11) 0.39377(11) 0.1128(4) 0.0237(12) Uani 1 1 d . . .
N7 N 0.52956(11) 0.53850(12) -0.1099(5) 0.0286(13) Uani 1 1 d . . .
N8 N 0.58464(11) 0.55671(11) -0.1576(5) 0.0268(12) Uani 1 1 d . . .
O1 O 0.53050(10) 0.36962(10) 0.4495(4) 0.0378(12) Uani 1 1 d . . .
O2 O 0.56972(10) 0.35885(10) 0.3424(4) 0.0351(11) Uani 1 1 d . . .
O3 O 0.56832(10) 0.43539(10) 0.4441(4) 0.0332(11) Uani 1 1 d . . .
O4 O 0.56132(9) 0.42406(10) 0.2522(4) 0.0312(11) Uani 1 1 d . . .
O5 O 0.55679(9) 0.41629(10) -0.0201(4) 0.0341(11) Uani 1 1 d . . .
H5A H 0.5579 0.3990 -0.0503 0.051 Uiso 1 1 d R . .
H5B H 0.5410 0.4175 0.0218 0.051 Uiso 1 1 d R . .
O6 O 0.60791(12) 0.46786(12) 0.2428(5) 0.0577(16) Uani 1 1 d . . .
H6A H 0.6240 0.4774 0.2221 0.086 Uiso 1 1 d R . .
H6B H 0.5932 0.4805 0.2399 0.086 Uiso 1 1 d R . .
O7 O 0.59269(11) 0.37382(10) 0.1298(4) 0.0411(13) Uani 1 1 d . . .
H7A H 0.5824 0.3700 0.1940 0.062 Uiso 1 1 d R . .
H7B H 0.5835 0.3667 0.0677 0.062 Uiso 1 1 d R . .
O8 O 0.63032(11) 0.40736(13) 0.2726(4) 0.0515(15) Uani 1 1 d . . .
O9 O 0.65479(11) 0.42910(12) 0.1327(4) 0.0444(13) Uani 1 1 d . . .
O10 O 0.57286(11) 0.47778(11) 0.0351(5) 0.0477(14) Uani 1 1 d . . .
O11 O 0.61665(11) 0.46412(10) -0.0215(4) 0.0404(12) Uani 1 1 d . . .
O12 O 0.61952(10) 0.40303(10) -0.0630(4) 0.0328(11) Uani 1 1 d . . .
O13 O 0.61595(10) 0.39176(9) -0.2562(4) 0.0298(11) Uani 1 1 d . . .
O14 O 0.55755(10) 0.39647(11) -0.3648(4) 0.0364(12) Uani 1 1 d . . .
H14A H 0.5548 0.3862 -0.4301 0.055 Uiso 1 1 d R . .
H14B H 0.5603 0.3843 -0.3052 0.055 Uiso 1 1 d R . .
O15 O 0.61154(10) 0.38677(10) -0.5175(4) 0.0340(11) Uani 1 1 d . . .
H15A H 0.5959 0.3753 -0.5322 0.051 Uiso 1 1 d R . .
H15B H 0.6185 0.3925 -0.5896 0.051 Uiso 1 1 d R . .
O16 O 0.57470(11) 0.48119(11) -0.3530(4) 0.0441(13) Uani 1 1 d . . .
O17 O 0.56670(11) 0.44715(10) -0.2219(4) 0.0398(12) Uani 1 1 d . . .
O18 O 0.63246(11) 0.45245(11) -0.2514(5) 0.0374(12) Uani 1 1 d D . .
H18B H 0.6508 0.4474 -0.2657 0.056 Uiso 1 1 d RD . .
O19 O 0.65455(13) 0.43241(13) 0.5278(5) 0.0581(16) Uani 1 1 d . . .
O20 O 0.62191(12) 0.46317(13) 0.4726(5) 0.0530(15) Uani 1 1 d . . .
O21 O 0.58562(10) 0.33608(11) -0.0546(4) 0.0379(12) Uani 1 1 d . . .
O22 O 0.55726(10) 0.36576(10) -0.1605(4) 0.0345(11) Uani 1 1 d . . .
Co1 Co 0.546482(18) 0.582575(19) -0.12904(8) 0.0249(2) Uani 1 1 d . . .
Sm1 Sm 0.599429(7) 0.425799(7) 0.10766(3) 0.02293(11) Uani 1 1 d . . .
Sm2 Sm 0.599395(7) 0.428601(7) -0.38933(3) 0.02211(11) Uani 1 1 d . . .
O30 O 0.6376(4) 0.3270(5) 0.2273(19) 0.149(8) Uani 0.50 1 d P . .
O26 O 0.5997(3) 0.2739(3) -0.7551(12) 0.212(6) Uani 1 1 d U . .
O24 O 0.4693(3) 0.3528(4) -0.2543(15) 0.258(7) Uani 1 1 d U . .
O27 O 0.6919(2) 0.4565(3) -0.2352(10) 0.166(4) Uani 1 1 d U . .
O23 O 0.7690(2) 0.5282(3) 0.0908(8) 0.151(4) Uani 1 1 d . . .
O28 O 0.6812(4) 0.4781(5) 0.007(2) 0.153(8) Uani 0.50 1 d P . .
O25 O 0.4973(3) 0.4142(3) -0.2576(11) 0.171(5) Uani 1 1 d . . .
O29 O 0.56722(18) 0.50409(16) 0.3825(7) 0.101(3) Uani 1 1 d . . .

loop_
_atom_site_aniso_label
_atom_site_aniso_U_11
_atom_site_aniso_U_22
_atom_site_aniso_U_33
_atom_site_aniso_U_23
_atom_site_aniso_U_13
_atom_site_aniso_U_12
C1 0.043(4) 0.016(3) 0.029(4) 0.003(3) -0.005(3) 0.005(3)
C2 0.028(4) 0.027(4) 0.024(3) -0.002(3) -0.001(3) 0.000(3)
C3 0.032(4) 0.026(4) 0.039(4) -0.007(3) 0.000(3) 0.004(3)
C4 0.030(4) 0.033(4) 0.032(4) -0.013(3) 0.002(3) -0.001(3)
C5 0.027(4) 0.041(4) 0.020(3) -0.007(3) 0.000(3) -0.006(3)
C6 0.016(3) 0.025(3) 0.023(3) -0.002(3) 0.002(3) -0.003(3)
C7 0.019(3) 0.025(3) 0.021(3) 0.001(3) -0.001(3) -0.001(3)
C8 0.023(4) 0.058(5) 0.043(4) -0.015(4) 0.000(3) 0.004(4)
C9 0.031(4) 0.058(5) 0.041(4) -0.018(4) 0.000(3) 0.014(4)
C10 0.034(4) 0.047(4) 0.028(4) -0.013(3) -0.007(3) 0.000(3)
C11 0.026(3) 0.023(3) 0.019(3) -0.001(3) 0.000(3) 0.004(3)
C12 0.023(3) 0.018(3) 0.027(3) 0.002(3) -0.003(3) 0.001(3)
C13 0.024(3) 0.02