####################################################################### 
# 
# This file contains crystal structure data downloaded from the 
# Cambridge Structural Database (CSD) hosted by the Cambridge 
# Crystallographic Data Centre (CCDC).
# 
# Full information about CCDC data access policies and citation 
# guidelines are available at http://www.ccdc.cam.ac.uk/access/V1 
# 
# Audit and citation data items may have been added by the CCDC. 
# Please retain this information to preserve the provenance of 
# this file and to allow appropriate attribution of the data. 
# 
#######################################################################

data_p120424a
_audit_block_doi                 10.5517/ccz6szx
_database_code_depnum_ccdc_archive 'CCDC 900270'
loop_
_citation_id
_citation_doi
_citation_year
1 10.1021/cg301668g 2013
_audit_update_record             
;
2013-05-16 deposited with the CCDC.	2024-07-11 downloaded from the CCDC.
;

_audit_creation_method           
;
  Olex2 1.1-beta
  (compiled 2011.11.01 svn.r2039, GUI svn.r3906)
;

_chemical_name_common            ?
_chemical_name_systematic        
;
 ? 
;
_chemical_formula_moiety         'C48 H36 Co N8 O22 Tb2, 6(H2O)'
_chemical_formula_sum            'C48 H48 Co N8 O28 Tb2'
_chemical_formula_weight         1561.72

loop_
_atom_type_symbol
_atom_type_description
_atom_type_scat_dispersion_real
_atom_type_scat_dispersion_imag
_atom_type_scat_source
C C 0.0033 0.0016 'International Tables Vol C Tables 4.2.6.8 and 6.1.1.4'
H H 0.0000 0.0000 'International Tables Vol C Tables 4.2.6.8 and 6.1.1.4'
Co Co 0.3494 0.9721 'International Tables Vol C Tables 4.2.6.8 and 6.1.1.4'
N N 0.0061 0.0033 'International Tables Vol C Tables 4.2.6.8 and 6.1.1.4'
O O 0.0106 0.0060 'International Tables Vol C Tables 4.2.6.8 and 6.1.1.4'
Tb Tb -0.1723 4.1537 'International Tables Vol C Tables 4.2.6.8 and 6.1.1.4'

_space_group_crystal_system      tetragonal
_space_group_IT_number           88
_space_group_name_H-M_alt        'I 41/a'
_space_group_name_Hall           '-I 4ad'
loop_
_space_group_symop_id
_space_group_symop_operation_xyz
1 'x, y, z'
2 '-y+3/4, x+1/4, z+1/4'
3 '-x, -y+1/2, z'
4 'y+1/4, -x+1/4, z+1/4'
5 'x+1/2, y+1/2, z+1/2'
6 '-y+5/4, x+3/4, z+3/4'
7 '-x+1/2, -y+1, z+1/2'
8 'y+3/4, -x+3/4, z+3/4'
9 '-x, -y, -z'
10 'y-3/4, -x-1/4, -z-1/4'
11 'x, y-1/2, -z'
12 '-y-1/4, x-1/4, -z-1/4'
13 '-x+1/2, -y+1/2, -z+1/2'
14 'y-1/4, -x+1/4, -z+1/4'
15 'x+1/2, y, -z+1/2'
16 '-y+1/4, x+1/4, -z+1/4'

_cell_length_a                   45.8220(7)
_cell_length_b                   45.8220(7)
_cell_length_c                   11.0046(3)
_cell_angle_alpha                90.00
_cell_angle_beta                 90.00
_cell_angle_gamma                90.00
_cell_volume                     23106.0(7)
_cell_formula_units_Z            16
_cell_measurement_reflns_used    8891
_cell_measurement_temperature    293(2)
_cell_measurement_theta_max      29.1594
_cell_measurement_theta_min      2.4433
_exptl_absorpt_coefficient_mu    2.801
_exptl_absorpt_correction_T_max  1.00000
_exptl_absorpt_correction_T_min  0.67251
_exptl_absorpt_correction_type   multi-scan
_exptl_absorpt_process_details   
;
CrysAlisPro, Agilent Technologies,
Version 1.171.35.19 (release 27-10-2011 CrysAlis171 .NET)
(compiled Oct 27 2011,15:02:11)
Empirical absorption correction using spherical harmonics,
 implemented in SCALE3 ABSPACK scaling algorithm.
;
_exptl_crystal_colour            ?
_exptl_crystal_density_diffrn    1.782
_exptl_crystal_density_meas      ?
_exptl_crystal_density_method    'not measured'
_exptl_crystal_description       ?
_exptl_crystal_F_000             12176
_exptl_crystal_size_max          0.20
_exptl_crystal_size_mid          0.10
_exptl_crystal_size_min          0.10
_exptl_special_details           
;
 ? 
;
_diffrn_reflns_av_R_equivalents  0.0268
_diffrn_reflns_av_unetI/netI     0.0367
_diffrn_reflns_limit_h_max       25
_diffrn_reflns_limit_h_min       -54
_diffrn_reflns_limit_k_max       35
_diffrn_reflns_limit_k_min       -53
_diffrn_reflns_limit_l_max       13
_diffrn_reflns_limit_l_min       -12
_diffrn_reflns_number            23277
_diffrn_reflns_theta_full        25.01
_diffrn_reflns_theta_max         25.01
_diffrn_reflns_theta_min         2.45
_diffrn_ambient_temperature      293(2)
_diffrn_detector_area_resol_mean 16.2116
_diffrn_measured_fraction_theta_full 0.999
_diffrn_measured_fraction_theta_max 0.999
_diffrn_measurement_details      
;
#__ type_ start__ end____ width___ exp.time_
  1 omega  -31.00   -4.00   0.7500   45.0000
omega____ theta____ kappa____ phi______ frames
    -      -19.2604  -87.0000  -52.0000 36

#__ type_ start__ end____ width___ exp.time_
  2 omega  -43.00   50.00   0.7500   45.0000
omega____ theta____ kappa____ phi______ frames
    -      -19.2604   37.0000  -90.0000 124
;
_diffrn_measurement_device_type  'SuperNova, Single source at offset), Eos'
_diffrn_measurement_method       '\w scans'
_diffrn_orient_matrix_UB_11      0.0037824000
_diffrn_orient_matrix_UB_12      0.0138961000
_diffrn_orient_matrix_UB_13      -0.0235620000
_diffrn_orient_matrix_UB_21      0.0141127000
_diffrn_orient_matrix_UB_22      -0.0013137000
_diffrn_orient_matrix_UB_23      0.0260653000
_diffrn_orient_matrix_UB_31      0.0051322000
_diffrn_orient_matrix_UB_32      -0.0066749000
_diffrn_orient_matrix_UB_33      -0.0540394000
_diffrn_radiation_monochromator  mirror
_diffrn_radiation_type           'Mo K\a'
_diffrn_radiation_wavelength     0.7107
_diffrn_source                   'SuperNova (Mo) X-ray Source'
_diffrn_standards_decay_%        .
_diffrn_standards_interval_count .
_diffrn_standards_interval_time  .
_diffrn_standards_number         .
_reflns_number_gt                7832
_reflns_number_total             10181
_reflns_odcompleteness_completeness 99.86
_reflns_odcompleteness_iscentric 1
_reflns_odcompleteness_theta     26.32
_reflns_threshold_expression     >2sigma(I)
_computing_cell_refinement       
;
CrysAlisPro, Agilent Technologies,
Version 1.171.35.19 (release 27-10-2011 CrysAlis171 .NET)
(compiled Oct 27 2011,15:02:11)
;
_computing_data_collection       
;
CrysAlisPro, Agilent Technologies,
Version 1.171.35.19 (release 27-10-2011 CrysAlis171 .NET)
(compiled Oct 27 2011,15:02:11)
;
_computing_data_reduction        
;
CrysAlisPro, Agilent Technologies,
Version 1.171.35.19 (release 27-10-2011 CrysAlis171 .NET)
(compiled Oct 27 2011,15:02:11)
;
_computing_molecular_graphics    
;
O. V. Dolomanov, L. J. Bourhis, R. J. Gildea, J. A. K. Howard and H. Puschmann,
OLEX2: a complete structure solution, refinement and analysis program.
J. Appl. Cryst. (2009). 42, 339-341.
;
_computing_publication_material  
;
O. V. Dolomanov, L. J. Bourhis, R. J. Gildea, J. A. K. Howard and H. Puschmann,
OLEX2: a complete structure solution, refinement and analysis program.
J. Appl. Cryst. (2009). 42, 339-341.
;
_computing_structure_refinement  
;
XL, G.M. Sheldrick, Acta Cryst.
(2008). A64, 112-122
;
_computing_structure_solution    
;
SHELXS, G.M. Sheldrick, Acta Cryst.
(2008). A64, 112-122
;
_refine_diff_density_max         2.323
_refine_diff_density_min         -1.078
_refine_diff_density_rms         0.163
_refine_ls_extinction_coef       ?
_refine_ls_extinction_method     none
_refine_ls_goodness_of_fit_ref   1.096
_refine_ls_hydrogen_treatment    mixed
_refine_ls_matrix_type           full
_refine_ls_number_parameters     806
_refine_ls_number_reflns         10181
_refine_ls_number_restraints     207
_refine_ls_R_factor_all          0.0705
_refine_ls_R_factor_gt           0.0547
_refine_ls_restrained_S_all      1.126
_refine_ls_shift/su_max          0.011
_refine_ls_shift/su_mean         0.000
_refine_ls_structure_factor_coef Fsqd
_refine_ls_weighting_details     
'calc w=1/[\s^2^(Fo^2^)+(0.0569P)^2^+448.1967P] where P=(Fo^2^+2Fc^2^)/3'
_refine_ls_weighting_scheme      calc
_refine_ls_wR_factor_gt          0.1401
_refine_ls_wR_factor_ref         0.1491
_refine_special_details          
;
 Refinement of F^2^ against ALL reflections.  The weighted R-factor wR and 
 goodness of fit S are based on F^2^, conventional R-factors R are based 
 on F, with F set to zero for negative F^2^. The threshold expression of 
 F^2^ > 2sigma(F^2^) is used only for calculating R-factors(gt) etc. and is 
 not relevant to the choice of reflections for refinement.  R-factors based 
 on F^2^ are statistically about twice as large as those based on F, and R- 
 factors based on ALL data will be even larger. 
;
_atom_sites_solution_hydrogens   geom
_atom_sites_solution_primary     direct
_atom_sites_solution_secondary   difmap
loop_
_atom_site_label
_atom_site_type_symbol
_atom_site_fract_x
_atom_site_fract_y
_atom_site_fract_z
_atom_site_U_iso_or_equiv
_atom_site_adp_type
_atom_site_occupancy
_atom_site_symmetry_multiplicity
_atom_site_calc_flag
_atom_site_refinement_flags
_atom_site_disorder_assembly
_atom_site_disorder_group
H16A H 0.797(2) 0.8743(14) -0.071(3) 0.03(3) Uiso 1 1 d D . .
H16B H 0.798(2) 0.8999(5) -0.003(7) 0.05(3) Uiso 1 1 d D . .
C1 C 0.82073(15) 0.80315(15) 0.3879(6) 0.0132(15) Uani 1 1 d . . .
C2 C 0.81925(16) 0.77058(16) 0.3715(6) 0.0145(15) Uani 1 1 d . . .
C3 C 0.79968(17) 0.75943(17) 0.2855(7) 0.0222(17) Uani 1 1 d . . .
H3 H 0.7898 0.7720 0.2334 0.027 Uiso 1 1 calc R . .
C4 C 0.79504(19) 0.72971(17) 0.2784(8) 0.0274(19) Uani 1 1 d . . .
H4 H 0.7827 0.7219 0.2198 0.033 Uiso 1 1 calc R . .
C5 C 0.80932(19) 0.71173(18) 0.3611(7) 0.0269(19) Uani 1 1 d . . .
H5 H 0.8055 0.6918 0.3599 0.032 Uiso 1 1 calc R . .
C6 C 0.83449(15) 0.75082(15) 0.4440(6) 0.0125(14) Uani 1 1 d . . .
C7 C 0.85843(15) 0.75820(15) 0.5325(6) 0.0126(14) Uani 1 1 d . . .
C8 C 0.87735(16) 0.74619(16) 0.7215(7) 0.0182(16) Uani 1 1 d . . .
H8 H 0.8757 0.7361 0.7946 0.022 Uiso 1 1 calc R . .
C9 C 0.90105(16) 0.76388(16) 0.7040(7) 0.0181(16) Uani 1 1 d . . .
H9 H 0.9152 0.7658 0.7641 0.022 Uiso 1 1 calc R . .
C10 C 0.90360(16) 0.77889(16) 0.5955(7) 0.0161(15) Uani 1 1 d . . .
H10 H 0.9199 0.7905 0.5809 0.019 Uiso 1 1 calc R . .
C11 C 0.88177(15) 0.77648(15) 0.5083(6) 0.0139(15) Uani 1 1 d . . .
C12 C 0.88460(15) 0.79356(16) 0.3911(6) 0.0161(16) Uani 1 1 d . . .
C13 C 0.90423(16) 0.82576(15) -0.1054(6) 0.0145(15) Uani 1 1 d . . .
C14 C 0.91713(15) 0.83701(15) 0.0130(6) 0.0133(15) Uani 1 1 d . . .
C15 C 0.92571(16) 0.81726(16) 0.1012(7) 0.0167(16) Uani 1 1 d . . .
H15 H 0.9233 0.7974 0.0879 0.020 Uiso 1 1 calc R . .
C16 C 0.93786(15) 0.82681(16) 0.2085(7) 0.0161(15) Uani 1 1 d . . .
H16 H 0.9435 0.8136 0.2684 0.019 Uiso 1 1 calc R . .
C17 C 0.94149(15) 0.85655(16) 0.2248(6) 0.0141(15) Uani 1 1 d . . .
H17 H 0.9497 0.8632 0.2970 0.017 Uiso 1 1 calc R . .
C18 C 0.92130(15) 0.86679(15) 0.0358(6) 0.0134(15) Uani 1 1 d . . .
C19 C 0.91505(15) 0.89095(15) -0.0516(6) 0.0137(15) Uani 1 1 d . . .
C20 C 0.93399(18) 0.93313(17) -0.1346(7) 0.0239(18) Uani 1 1 d . . .
H20 H 0.9484 0.9474 -0.1355 0.029 Uiso 1 1 calc R . .
C21 C 0.91155(18) 0.93501(18) -0.2177(7) 0.0269(19) Uani 1 1 d . . .
H21 H 0.9116 0.9494 -0.2773 0.032 Uiso 1 1 calc R . .
C22 C 0.88925(17) 0.91515(16) -0.2103(7) 0.0207(17) Uani 1 1 d . . .
H22 H 0.8735 0.9166 -0.2631 0.025 Uiso 1 1 calc R . .
C23 C 0.89000(16) 0.89301(15) -0.1250(6) 0.0133(15) Uani 1 1 d . . .
C24 C 0.86301(15) 0.87427(14) -0.1045(6) 0.0122(15) Uani 1 1 d . . .
C25 C 0.77798(15) 0.81316(15) 0.0090(7) 0.0151(15) Uani 1 1 d U . .
C26 C 0.75815(16) 0.79135(16) -0.0534(7) 0.0187(16) Uani 1 1 d . . .
C27 C 0.76519(16) 0.76194(16) -0.0485(7) 0.0197(17) Uani 1 1 d . . .
H27 H 0.7831 0.7560 -0.0172 0.024 Uiso 1 1 calc R . .
C28 C 0.74521(16) 0.74129(16) -0.0909(7) 0.0198(16) Uani 1 1 d . . .
H28 H 0.7498 0.7215 -0.0900 0.024 Uiso 1 1 calc R . .
C29 C 0.71858(17) 0.75062(16) -0.1342(7) 0.0177(16) Uani 1 1 d . . .
H29 H 0.7050 0.7368 -0.1592 0.021 Uiso 1 1 calc R . .
C30 C 0.73152(15) 0.79921(16) -0.1070(7) 0.0171(16) Uani 1 1 d . . .
C31 C 0.72164(16) 0.82965(16) -0.1269(7) 0.0210(17) Uani 1 1 d . . .
C32 C 0.68269(16) 0.86145(17) -0.1081(7) 0.0222(18) Uani 1 1 d . . .
H32 H 0.6634 0.8648 -0.0853 0.027 Uiso 1 1 calc R . .
C33 C 0.69926(17) 0.88481(17) -0.1537(9) 0.030(2) Uani 1 1 d . . .
H33 H 0.6915 0.9035 -0.1584 0.037 Uiso 1 1 calc R . .
C34 C 0.72738(17) 0.87913(17) -0.1914(9) 0.033(2) Uani 1 1 d . . .
H34 H 0.7387 0.8941 -0.2237 0.040 Uiso 1 1 calc R . .
C35 C 0.73908(16) 0.85106(16) -0.1814(8) 0.0220(18) Uani 1 1 d . . .
C36 C 0.76794(17) 0.84483(18) -0.2423(8) 0.0271(19) Uani 1 1 d . . .
C37 C 0.7980(2) 0.8965(3) 0.2748(9) 0.045(2) Uani 1 1 d U . .
C38 C 0.7800(3) 0.9185(3) 0.3595(12) 0.067(2) Uani 1 1 d U . .
C39 C 0.7504(3) 0.9117(3) 0.3845(12) 0.075(2) Uani 1 1 d U . .
H39 H 0.7430 0.8947 0.3501 0.090 Uiso 1 1 calc R . .
C40 C 0.7303(3) 0.9290(3) 0.4593(13) 0.077(2) Uani 1 1 d U . .
H40 H 0.7121 0.9234 0.4890 0.093 Uiso 1 1 calc R . .
C41 C 0.7444(3) 0.9560(3) 0.4762(13) 0.077(2) Uani 1 1 d U . .
H41 H 0.7327 0.9710 0.5056 0.093 Uiso 1 1 calc R . .
C42 C 0.7908(3) 0.9429(3) 0.4084(11) 0.0602(18) Uani 1 1 d U . .
C43 C 0.8221(3) 0.9499(2) 0.4010(10) 0.0507(17) Uani 1 1 d U . .
C44 C 0.8635(3) 0.9798(3) 0.3652(11) 0.061(2) Uani 1 1 d U . .
H44 H 0.8708 0.9969 0.3309 0.074 Uiso 1 1 calc R . .
C45 C 0.8831(3) 0.9651(3) 0.4161(11) 0.063(2) Uani 1 1 d U . .
H45 H 0.9025 0.9709 0.4233 0.076 Uiso 1 1 calc R . .
C46 C 0.8723(3) 0.9403(2) 0.4578(10) 0.0521(19) Uani 1 1 d U . .
H46 H 0.8853 0.9270 0.4915 0.062 Uiso 1 1 calc R . .
C47 C 0.8422(2) 0.9323(2) 0.4552(8) 0.0374(17) Uani 1 1 d U . .
C48 C 0.83498(16) 0.90494(16) 0.5197(7) 0.0163(15) Uani 1 1 d . . .
N1 N 0.82840(13) 0.72223(13) 0.4426(6) 0.0184(14) Uani 1 1 d . . .
N2 N 0.85640(13) 0.74276(12) 0.6371(5) 0.0139(13) Uani 1 1 d . . .
N3 N 0.93364(13) 0.87601(13) 0.1405(5) 0.0155(13) Uani 1 1 d . . .
N4 N 0.93580(13) 0.91153(13) -0.0522(5) 0.0153(13) Uani 1 1 d . . .
N5 N 0.69359(13) 0.83463(13) -0.0963(6) 0.0186(14) Uani 1 1 d . . .
N6 N 0.71158(13) 0.77900(13) -0.1413(6) 0.0194(14) Uani 1 1 d . . .
N7 N 0.8344(2) 0.9772(2) 0.3477(9) 0.0626(19) Uani 1 1 d U . .
N8 N 0.7724(3) 0.9631(2) 0.4559(10) 0.072(2) Uani 1 1 d U . .
O1 O 0.81442(11) 0.81840(11) 0.2985(4) 0.0171(11) Uani 1 1 d . . .
O2 O 0.82669(11) 0.81203(11) 0.4927(5) 0.0203(12) Uani 1 1 d . . .
O3 O 0.89124(11) 0.81978(11) 0.3998(5) 0.0202(12) Uani 1 1 d . . .
O4 O 0.88004(11) 0.77998(11) 0.2930(4) 0.0197(12) Uani 1 1 d . . .
O5 O 0.76928(12) 0.82517(12) 0.1037(5) 0.0228(12) Uani 1 1 d . . .
O6 O 0.80325(11) 0.81766(12) -0.0329(5) 0.0216(12) Uani 1 1 d . . .
O7 O 0.77171(14) 0.82206(13) -0.2964(7) 0.0437(18) Uani 1 1 d . . .
O8 O 0.78690(11) 0.86525(12) -0.2353(5) 0.0265(13) Uani 1 1 d . . .
O9 O 0.88410(11) 0.80757(10) -0.0974(5) 0.0163(11) Uani 1 1 d . . .
O10 O 0.91485(11) 0.83571(11) -0.2028(5) 0.0199(12) Uani 1 1 d . . .
O11 O 0.85853(10) 0.86631(10) 0.0027(4) 0.0153(11) Uani 1 1 d . . .
O12 O 0.84721(10) 0.86970(11) -0.1945(5) 0.0181(11) Uani 1 1 d . . .
O13 O 0.83388(11) 0.80782(10) -0.2389(5) 0.0165(11) Uani 1 1 d . . .
H13A H 0.8256 0.8101 -0.1690 0.025 Uiso 1 1 d R . .
H13B H 0.8269 0.7924 -0.2730 0.025 Uiso 1 1 d R . .
O14 O 0.87608(11) 0.84272(12) -0.3853(5) 0.0226(12) Uani 1 1 d . . .
H14A H 0.8822 0.8302 -0.3316 0.034 Uiso 1 1 d R . .
H14B H 0.8804 0.8361 -0.4574 0.034 Uiso 1 1 d R . .
O15 O 0.78495(17) 0.85892(14) -0.5049(7) 0.061(2) Uani 1 1 d U . .
H15A H 0.7748 0.8425 -0.5222 0.092 Uiso 1 1 d R . .
H15B H 0.7721 0.8718 -0.4738 0.092 Uiso 1 1 d R . .
O16 O 0.79799(12) 0.88145(11) -0.0008(5) 0.0206(12) Uani 1 1 d D . .
O17 O 0.86272(11) 0.86146(11) 0.2623(5) 0.0193(11) Uani 1 1 d . . .
H17A H 0.8719 0.8459 0.2817 0.029 Uiso 1 1 d R . .
H17B H 0.8742 0.8729 0.2243 0.029 Uiso 1 1 d R . .
O18 O 0.78981(18) 0.87349(16) 0.2722(6) 0.0526(19) Uani 1 1 d U . .
O19 O 0.81886(19) 0.90552(18) 0.2121(7) 0.067(2) Uani 1 1 d . . .
O20 O 0.84401(15) 0.88137(14) 0.4751(6) 0.0420(17) Uani 1 1 d U . .
O21 O 0.82069(13) 0.90524(12) 0.6150(5) 0.0241(13) Uani 1 1 d . . .
O22 O 0.85380(11) 0.80828(11) 0.1104(4) 0.0192(11) Uani 1 1 d . . .
H22A H 0.8444 0.7923 0.1248 0.029 Uiso 1 1 d R . .
H22B H 0.8604 0.8078 0.0370 0.029 Uiso 1 1 d R . .
Co1 Co 0.95380(2) 0.91756(2) 0.12776(9) 0.0149(2) Uani 1 1 d . . .
Tb1 Tb 0.822183(7) 0.849140(7) 0.13397(3) 0.01259(12) Uani 1 1 d . . .
Tb2 Tb 0.825136(8) 0.849845(7) -0.36525(3) 0.01476(12) Uani 1 1 d . . .
O1A O 0.74672(15) 0.81790(16) 0.3694(7) 0.052(2) Uani 1 1 d . . .
O1E O 0.8981(4) 0.7212(3) -0.0023(15) 0.068(5) Uani 0.50 1 d PU . .
O1F O 0.8353(3) 0.7481(3) 0.0057(14) 0.052(4) Uani 0.50 1 d P . .
O1G O 0.7725(7) 0.9314(7) -0.259(3) 0.337(15) Uani 1 1 d U . .
O1C O 0.7932(3) 0.9411(3) -0.0168(11) 0.129(4) Uani 1 1 d U . .
O1B O 0.7752(3) 0.9805(2) 0.1504(10) 0.106(4) Uani 1 1 d . . .
O1D O 0.9007(3) 0.7254(2) 0.2550(11) 0.113(4) Uani 1 1 d U . .

loop_
_atom_site_aniso_label
_atom_site_aniso_U_11
_atom_site_aniso_U_22
_atom_site_aniso_U_33
_atom_site_aniso_U_23
_atom_site_aniso_U_13
_atom_site_aniso_U_12
C1 0.012(3) 0.012(3) 0.015(4) 0.003(3) -0.005(3) -0.003(3)
C2 0.015(4) 0.014(4) 0.014(4) 0.002(3) 0.000(3) -0.001(3)
C3 0.026(4) 0.021(4) 0.019(4) 0.007(3) -0.006(3) -0.009(3)
C4 0.035(5) 0.019(4) 0.028(5) 0.000(4) -0.012(4) -0.007(4)
C5 0.036(5) 0.015(4) 0.029(5) 0.002(3) -0.010(4) -0.008(4)
C6 0.010(3) 0.014(3) 0.013(4) 0.002(3) -0.002(3) 0.000(3)
C7 0.016(4) 0.013(3) 0.008(3) -0.002(3) -0.003(3) 0.001(3)
C8 0.026(4) 0.016(4) 0.013(4) -0.001(3) -0.001(3) 0.007(3)
C9 0.019(4) 0.019(4) 0.017(4) -0.002(3) -0.007(3) 0.005(3)
C10 0.013(4) 0.017(4) 0.018(4) -0.001(3) -0.001(3) 0.000(3)
C11 0.014(4) 0.014(4) 0.013(4) 0.002(3) 0.004(3) -0.001(3)
C12 0.012(4) 0.022(4) 0.015(4) 0.003(3) 0.001(3) -0.001(3)
C13 0.018(4) 0.012(3) 0.014(4) -0.003(3) -0.001(3) 0.006(3)
C14 0.010(3) 0.018(4) 0.012(4) 0.000(3) 0.000(3) 0.000(3)
C15 0.016(4) 0.013(4) 0.021(4) 0.001(3) 0.000(3) 0.000(3)
C16 0.014(4) 0.017(4) 0.017(4) 0.007(3) -0.001(3) 0.005(3)
C17 0.012(3) 0.021(4) 0.009(3) -0.001(3) 0.000(3) 0.00