####################################################################### 
# 
# This file contains crystal structure data downloaded from the 
# Cambridge Structural Database (CSD) hosted by the Cambridge 
# Crystallographic Data Centre (CCDC).
# 
# Full information about CCDC data access policies and citation 
# guidelines are available at http://www.ccdc.cam.ac.uk/access/V1 
# 
# Audit and citation data items may have been added by the CCDC. 
# Please retain this information to preserve the provenance of 
# this file and to allow appropriate attribution of the data. 
# 
#######################################################################

data_go
_audit_block_doi                 10.5517/ccxl09s
_database_code_depnum_ccdc_archive 'CCDC 851455'
loop_
_citation_id
_citation_doi
_citation_year
1 10.1007/s10876-013-0573-4 2013
_audit_update_record             
;
2011-10-29 deposited with the CCDC.	2024-07-11 downloaded from the CCDC.
;
#TrackingRef 'ZAAC1029.cif'


_audit_creation_method           SHELXL-97
_chemical_name_systematic        
;
?
;
_chemical_name_common            ?
_chemical_melting_point          ?
_chemical_formula_moiety         'C14 H6 Ag Eu N2 O8, 2(H2 O)'
_chemical_formula_sum            'C24 H Ag Eu N O'
_chemical_formula_weight         579.09

loop_
_atom_type_symbol
_atom_type_description
_atom_type_scat_dispersion_real
_atom_type_scat_dispersion_imag
_atom_type_scat_source
C C 0.0033 0.0016 'International Tables Vol C Tables 4.2.6.8 and 6.1.1.4'
H H 0.0000 0.0000 'International Tables Vol C Tables 4.2.6.8 and 6.1.1.4'
Ag Ag -0.8971 1.1015 'International Tables Vol C Tables 4.2.6.8 and 6.1.1.4'
Eu Eu -0.1578 3.6682 'International Tables Vol C Tables 4.2.6.8 and 6.1.1.4'
N N 0.0061 0.0033 'International Tables Vol C Tables 4.2.6.8 and 6.1.1.4'
O O 0.0106 0.0060 'International Tables Vol C Tables 4.2.6.8 and 6.1.1.4'

_symmetry_cell_setting           Triclinic
_symmetry_space_group_name_H-M   'P -1'
_symmetry_space_group_name_Hall  '-P 1'

loop_
_symmetry_equiv_pos_as_xyz
'x, y, z'
'-x, -y, -z'

_cell_length_a                   7.235(3)
_cell_length_b                   10.370(5)
_cell_length_c                   11.560(5)
_cell_angle_alpha                99.736(3)
_cell_angle_beta                 100.996(5)
_cell_angle_gamma                95.670(5)
_cell_volume                     831.4(6)
_cell_formula_units_Z            2
_cell_measurement_temperature    293(2)
_cell_measurement_reflns_used    3032
_cell_measurement_theta_min      1.86
_cell_measurement_theta_max      22.56

_exptl_crystal_description       block
_exptl_crystal_colour            colorless
_exptl_crystal_size_max          0.16
_exptl_crystal_size_mid          0.12
_exptl_crystal_size_min          0.10
_exptl_crystal_density_meas      ?
_exptl_crystal_density_diffrn    2.313
_exptl_crystal_density_method    'not measured'
_exptl_crystal_F_000             540
_exptl_absorpt_coefficient_mu    4.929
_exptl_absorpt_correction_type   multi-scan
_exptl_absorpt_correction_T_min  0.5060
_exptl_absorpt_correction_T_max  0.6385
_exptl_absorpt_process_details   'SADABS(Bruker, 2000)'

_exptl_special_details           
;
?
;

_diffrn_ambient_temperature      293(2)
_diffrn_radiation_wavelength     0.71073
_diffrn_radiation_type           MoK\a
_diffrn_radiation_source         'sealed tube'
_diffrn_radiation_monochromator  graphite
_diffrn_measurement_device_type  'Bruker Smart Aepex CCD area detector'
_diffrn_measurement_method       'phi and omega scans'
_diffrn_detector_area_resol_mean ?
_diffrn_standards_number         ?
_diffrn_standards_interval_count ?
_diffrn_standards_interval_time  ?
_diffrn_standards_decay_%        ?
_diffrn_reflns_number            5437
_diffrn_reflns_av_R_equivalents  0.0411
_diffrn_reflns_av_sigmaI/netI    0.0676
_diffrn_reflns_limit_h_min       -8
_diffrn_reflns_limit_h_max       7
_diffrn_reflns_limit_k_min       -12
_diffrn_reflns_limit_k_max       12
_diffrn_reflns_limit_l_min       -13
_diffrn_reflns_limit_l_max       13
_diffrn_reflns_theta_min         2.44
_diffrn_reflns_theta_max         25.09
_reflns_number_total             2910
_reflns_number_gt                2559
_reflns_threshold_expression     >2sigma(I)

_computing_data_collection       'SMART (Bruker, 2000)'
_computing_cell_refinement       SMART
_computing_data_reduction        'SAINT (Bruker, 2000)'
_computing_structure_solution    'SHELXTL (Bruker, 2000)'
_computing_structure_refinement  SHELXTL
_computing_molecular_graphics    SHELXTL
_computing_publication_material  SHELXTL

_refine_special_details          
;
Refinement of F^2^ against ALL reflections. The weighted R-factor wR and
goodness of fit S are based on F^2^, conventional R-factors R are based
on F, with F set to zero for negative F^2^. The threshold expression of
F^2^ > 2sigma(F^2^) is used only for calculating R-factors(gt) etc. and is
not relevant to the choice of reflections for refinement. R-factors based
on F^2^ are statistically about twice as large as those based on F, and R-
factors based on ALL data will be even larger.
;

_refine_ls_structure_factor_coef Fsqd
_refine_ls_matrix_type           full
_refine_ls_weighting_scheme      calc
_refine_ls_weighting_details     
'calc w=1/[\s^2^(Fo^2^)+(0.0000P)^2^+30.0000P] where P=(Fo^2^+2Fc^2^)/3'
_atom_sites_solution_primary     direct
_atom_sites_solution_secondary   difmap
_atom_sites_solution_hydrogens   geom
_refine_ls_hydrogen_treatment    constr
_refine_ls_extinction_method     none
_refine_ls_extinction_coef       ?
_refine_ls_number_reflns         2910
_refine_ls_number_parameters     253
_refine_ls_number_restraints     0
_refine_ls_R_factor_all          0.0635
_refine_ls_R_factor_gt           0.0555
_refine_ls_wR_factor_ref         0.1413
_refine_ls_wR_factor_gt          0.1360
_refine_ls_goodness_of_fit_ref   1.081
_refine_ls_restrained_S_all      1.081
_refine_ls_shift/su_max          0.000
_refine_ls_shift/su_mean         0.000

loop_
_atom_site_label
_atom_site_type_symbol
_atom_site_fract_x
_atom_site_fract_y
_atom_site_fract_z
_atom_site_U_iso_or_equiv
_atom_site_adp_type
_atom_site_occupancy
_atom_site_symmetry_multiplicity
_atom_site_calc_flag
_atom_site_refinement_flags
_atom_site_disorder_assembly
_atom_site_disorder_group
Ag1 Ag 0.20890(17) 0.74513(13) 0.79064(11) 0.0458(4) Uani 1 1 d . . .
Eu1 Eu 0.24336(8) 0.02590(6) 0.43292(5) 0.01587(19) Uani 1 1 d . . .
N1 N 0.0080(17) 0.5701(11) 0.6961(11) 0.035(3) Uani 1 1 d . . .
N2 N 0.5404(15) 0.1788(11) 1.0658(9) 0.025(2) Uani 1 1 d . . .
O1 O -0.0400(11) 0.1262(8) 0.4953(7) 0.0210(18) Uani 1 1 d . . .
O2 O 0.2167(12) 0.2613(9) 0.5022(9) 0.028(2) Uani 1 1 d . . .
O3 O -0.4300(11) 0.1424(8) 0.5119(8) 0.0213(18) Uani 1 1 d . . .
O4 O -0.4388(14) 0.2631(9) 0.3703(9) 0.033(2) Uani 1 1 d . . .
O5 O 0.3079(12) 0.0630(9) 0.6473(7) 0.0229(19) Uani 1 1 d . . .
O6 O 0.6006(13) 0.0273(10) 0.7267(8) 0.030(2) Uani 1 1 d . . .
O7 O -0.0118(12) -0.0746(9) 0.7490(8) 0.026(2) Uani 1 1 d . . .
O8 O -0.0320(12) 0.1342(9) 0.7397(8) 0.027(2) Uani 1 1 d . . .
O1W O 0.067(6) 0.624(3) 0.089(2) 0.226(18) Uani 1 1 d . . .
H1WA H 0.0817 0.6165 0.1626 0.271 Uiso 1 1 d R . .
H1WB H 0.0978 0.7043 0.0874 0.271 Uiso 1 1 d R . .
O2W O 0.342(13) 0.505(4) 0.030(6) 0.55(8) Uani 1 1 d . . .
H2WA H 0.2398 0.4746 -0.0217 0.663 Uiso 1 1 d R . .
H2WB H 0.3113 0.5429 0.0933 0.663 Uiso 1 1 d R . .
C1 C 0.0544(18) 0.2418(12) 0.5217(11) 0.023(3) Uani 1 1 d . . .
C2 C -0.0381(16) 0.3516(12) 0.5731(11) 0.018(2) Uani 1 1 d . . .
C3 C 0.0802(18) 0.4644(13) 0.6427(12) 0.028(3) Uani 1 1 d . . .
H3 H 0.2112 0.4672 0.6528 0.033 Uiso 1 1 calc R . .
C4 C -0.1799(19) 0.5657(13) 0.6772(13) 0.029(3) Uani 1 1 d . . .
H4 H -0.2294 0.6397 0.7094 0.035 Uiso 1 1 calc R . .
C5 C -0.3052(18) 0.4574(12) 0.6123(12) 0.025(3) Uani 1 1 d . . .
H5 H -0.4353 0.4576 0.6055 0.030 Uiso 1 1 calc R . .
C6 C -0.2368(17) 0.3484(12) 0.5572(12) 0.023(3) Uani 1 1 d . . .
C7 C -0.3759(16) 0.2432(12) 0.4716(11) 0.019(3) Uani 1 1 d . . .
C8 C 0.4361(18) 0.0591(12) 0.7323(12) 0.025(3) Uani 1 1 d . . .
C9 C 0.4058(18) 0.0997(12) 0.8590(11) 0.023(3) Uani 1 1 d . . .
C10 C 0.5575(18) 0.1433(14) 0.9513(12) 0.028(3) Uani 1 1 d . . .
H10 H 0.6785 0.1488 0.9348 0.034 Uiso 1 1 calc R . .
C11 C 0.365(2) 0.1698(13) 1.0882(11) 0.028(3) Uani 1 1 d . . .
H11 H 0.3519 0.1926 1.1672 0.034 Uiso 1 1 calc R . .
C12 C 0.2048(18) 0.1282(14) 0.9994(11) 0.028(3) Uani 1 1 d . . .
H12 H 0.0853 0.1244 1.0184 0.034 Uiso 1 1 calc R . .
C13 C 0.2223(18) 0.0919(12) 0.8810(12) 0.025(3) Uani 1 1 d . . .
C14 C 0.0454(19) 0.0478(15) 0.7835(11) 0.028(3) Uani 1 1 d . . .

loop_
_atom_site_aniso_label
_atom_site_aniso_U_11
_atom_site_aniso_U_22
_atom_site_aniso_U_33
_atom_site_aniso_U_23
_atom_site_aniso_U_13
_atom_site_aniso_U_12
Ag1 0.0302(7) 0.0504(8) 0.0438(7) -0.0084(6) -0.0015(5) -0.0080(5)
Eu1 0.0078(3) 0.0185(3) 0.0212(3) 0.0049(2) 0.0019(2) 0.0016(2)
N1 0.032(7) 0.019(6) 0.045(7) -0.003(5) -0.003(5) 0.004(5)
N2 0.019(6) 0.031(6) 0.025(6) 0.005(5) 0.003(4) 0.000(5)
O1 0.011(4) 0.029(5) 0.023(4) 0.005(4) 0.003(3) 0.003(4)
O2 0.012(5) 0.025(5) 0.045(6) 0.004(4) 0.009(4) 0.000(4)
O3 0.008(4) 0.023(4) 0.032(5) 0.003(4) 0.005(3) -0.002(3)
O4 0.034(6) 0.030(5) 0.034(5) 0.012(4) 0.001(4) 0.001(4)
O5 0.016(4) 0.031(5) 0.019(4) 0.002(4) -0.001(4) 0.000(4)
O6 0.020(5) 0.044(6) 0.032(5) 0.015(4) 0.012(4) 0.005(4)
O7 0.014(4) 0.028(5) 0.035(5) 0.005(4) 0.003(4) -0.003(4)
O8 0.016(4) 0.034(5) 0.033(5) 0.015(4) 0.003(4) 0.004(4)
O1W 0.41(6) 0.17(3) 0.10(2) 0.026(19) 0.05(3) 0.04(3)
O2W 1.2(2) 0.19(4) 0.49(9) 0.22(5) 0.58(13) 0.29(8)
C1 0.024(7) 0.014(6) 0.027(7) 0.001(5) 0.000(5) 0.003(5)
C2 0.010(6) 0.019(6) 0.029(6) 0.010(5) 0.007(5) -0.002(5)
C3 0.016(7) 0.027(7) 0.038(8) 0.003(6) 0.003(6) 0.002(5)
C4 0.022(7) 0.027(7) 0.042(8) 0.002(6) 0.016(6) 0.007(6)
C5 0.013(6) 0.025(7) 0.040(8) 0.006(6) 0.010(5) 0.008(5)
C6 0.015(6) 0.022(6) 0.035(7) 0.007(6) 0.007(5) 0.003(5)
C7 0.007(5) 0.020(6) 0.034(7) 0.010(5) 0.006(5) 0.008(5)
C8 0.024(7) 0.012(6) 0.037(8) -0.003(5) 0.011(6) 0.002(5)
C9 0.025(7) 0.022(6) 0.022(6) 0.002(5) 0.005(5) 0.007(5)
C10 0.017(7) 0.039(8) 0.033(7) 0.017(6) 0.006(6) 0.004(6)
C11 0.039(8) 0.029(7) 0.018(6) 0.004(5) 0.012(6) 0.007(6)
C12 0.017(7) 0.045(8) 0.023(7) 0.007(6) 0.007(5) 0.000(6)
C13 0.021(7) 0.021(6) 0.034(7) 0.006(6) 0.006(6) 0.003(5)
C14 0.023(7) 0.047(9) 0.017(6) 0.005(6) 0.008(5) 0.011(6)

_geom_special_details            
;
All esds (except the esd in the dihedral angle between two l.s. planes)
are estimated using the full covariance matrix. The cell esds are taken
into account individually in the estimation of esds in distances, angles
and torsion angles; correlations between esds in cell parameters are only
used when they are defined by crystal symmetry. An approximate (isotropic)
treatment of cell esds is used for estimating esds involving l.s. planes.
;

loop_
_geom_bond_atom_site_label_1
_geom_bond_atom_site_label_2
_geom_bond_distance
_geom_bond_site_symmetry_2
_geom_bond_publ_flag
Ag1 N2 2.189(11) 2_667 ?
Ag1 N1 2.192(12) . ?
Eu1 O6 2.357(9) 2_656 ?
Eu1 O5 2.389(8) . ?
Eu1 O3 2.406(8) 2_556 ?
Eu1 O1 2.407(8) 2_556 ?
Eu1 O3 2.473(8) 1_655 ?
Eu1 O2 2.476(9) . ?
Eu1 O8 2.508(9) 2_556 ?
Eu1 O1 2.557(8) . ?
Eu1 O7 2.582(9) 2_556 ?
Eu1 C14 2.873(13) 2_556 ?
Eu1 Eu1 3.8683(18) 2_656 ?
Eu1 Eu1 4.1335(18) 2_556 ?
N1 C4 1.329(18) . ?
N1 C3 1.365(17) . ?
N2 C11 1.337(17) . ?
N2 C10 1.345(17) . ?
N2 Ag1 2.189(10) 2_667 ?
O1 C1 1.277(15) . ?
O1 Eu1 2.407(8) 2_556 ?
O2 C1 1.241(15) . ?
O3 C7 1.272(15) . ?
O3 Eu1 2.406(8) 2_556 ?
O3 Eu1 2.473(8) 1_455 ?
O4 C7 1.232(15) . ?
O5 C8 1.225(16) . ?
O6 C8 1.276(15) . ?
O6 Eu1 2.357(9) 2_656 ?
O7 C14 1.266(17) . ?
O7 Eu1 2.582(9) 2_556 ?
O8 C14 1.232(16) . ?
O8 Eu1 2.508(9) 2_556 ?
O1W H1WA 0.8500 . ?
O1W H1WB 0.8500 . ?
O2W H2WA 0.8500 . ?
O2W H2WB 0.8500 . ?
C1 C2 1.473(17) . ?
C2 C3 1.403(17) . ?
C2 C6 1.410(17) . ?
C3 H3 0.9300 . ?
C4 C5 1.378(19) . ?
C4 H4 0.9300 . ?
C5 C6 1.384(18) . ?
C5 H5 0.9300 . ?
C6 C7 1.490(18) . ?
C8 C9 1.517(18) . ?
C9 C10 1.356(18) . ?
C9 C13 1.396(18) . ?
C10 H10 0.9300 . ?
C11 C12 1.373(19) . ?
C11 H11 0.9300 . ?
C12 C13 1.391(18) . ?
C12 H12 0.9300 . ?
C13 C14 1.509(18) . ?
C14 Eu1 2.873(13) 2_556 ?

loop_
_geom_angle_atom_site_label_1
_geom_angle_atom_site_label_2
_geom_angle_atom_site_label_3
_geom_angle
_geom_angle_site_symmetry_1
_geom_angle_site_symmetry_3
_geom_angle_publ_flag
N2 Ag1 N1 145.4(4) 2_667 . ?
O6 Eu1 O5 139.7(3) 2_656 . ?
O6 Eu1 O3 75.4(3) 2_656 2_556 ?
O5 Eu1 O3 74.2(3) . 2_556 ?
O6 Eu1 O1 126.0(3) 2_656 2_556 ?
O5 Eu1 O1 68.4(3) . 2_556 ?
O3 Eu1 O1 73.6(3) 2_556 2_556 ?
O6 Eu1 O3 76.0(3) 2_656 1_655 ?
O5 Eu1 O3 71.0(3) . 1_655 ?
O3 Eu1 O3 75.1(3) 2_556 1_655 ?
O1 Eu1 O3 133.9(3) 2_556 1_655 ?
O6 Eu1 O2 117.9(3) 2_656 . ?
O5 Eu1 O2 73.6(3) . . ?
O3 Eu1 O2 140.2(3) 2_556 . ?
O1 Eu1 O2 114.3(3) 2_556 . ?
O3 Eu1 O2 72.8(3) 1_655 . ?
O6 Eu1 O8 68.6(3) 2_656 2_556 ?
O5 Eu1 O8 137.8(3) . 2_556 ?
O3 Eu1 O8 91.8(3) 2_556 2_556 ?
O1 Eu1 O8 69.5(3) 2_556 2_556 ?
O3 Eu1 O8 144.4(3) 1_655 2_556 ?
O2 Eu1 O8 127.9(3) . 2_556 ?
O6 Eu1 O1 144.9(3) 2_656 . ?
O5 Eu1 O1 74.0(3) . . ?
O3 Eu1 O1 136.4(3) 2_556 . ?
O1 Eu1 O1 67.3(3) 2_556 . ?
O3 Eu1 O1 120.4(3) 1_655 . ?
O2 Eu1 O1 51.6(3) . . ?
O8 Eu1 O1 92.0(3) 2_556 . ?
O6 Eu1 O7 76.8(3) 2_656 2_556 ?
O5 Eu1 O7 141.9(3) . 2_556 ?
O3 Eu1 O7 140.2(3) 2_556 2_556 ?
O1 Eu1 O7 101.3(3) 2_556 2_556 ?
O3 Eu1 O7 124.3(3) 1_655 2_556 ?
O2 Eu1 O7 78.6(3) . 2_556 ?
O8 Eu1 O7 51.3(3) 2_556 2_556 ?
O1 Eu1 O7 68.4(3) . 2_556 ?
O6 Eu1 C14 73.0(3) 2_656 2_556 ?
O5 Eu1 C14 145.6(3) . 2_556 ?
O3 Eu1 C14 116.6(3) 2_556 2_556 ?
O1 Eu1 C14 83.1(3) 2_556 2_556 ?
O3 Eu1 C14 142.0(3) 1_655 2_556 ?
O2 Eu1 C14 103.1(4) . 2_556 ?
O8 Eu1 C14 25.3(3) 2_556 2_556 ?
O1 Eu1 C14 77.5(3) . 2_556 ?
O7 Eu1 C14 26.1(3) 2_556 2_556 ?
O6 Eu1 Eu1 71.8(2) 2_656 2_656 ?
O5 Eu1 Eu1 67.8(2) . 2_656 ?
O3 Eu1 Eu1 38.16(19) 2_556 2_656 ?
O1 Eu1 Eu1 105.52(19) 2_556 2_656 ?
O3 Eu1 Eu1 36.95(19) 1_655 2_656 ?
O2 Eu1 Eu1 106.8(2) . 2_656 ?
O8 Eu1 Eu1 122.6(2) 2_556 2_656 ?
O1 Eu1 Eu1 140.73(18) . 2_656 ?
O7 Eu1 Eu1 146.9(2) 2_556 2_656 ?
C14 Eu1 Eu1 141.5(3) 2_556 2_656 ?
O6 Eu1 Eu1 148.1(2) 2_656 2_556 ?
O5 Eu1 Eu1 67.4(2) . 2_556 ?
O3 Eu1 Eu1 106.5(2) 2_556 2_556 ?
O1 Eu1 Eu1 34.79(19) 2_556 2_556 ?
O3 Eu1 Eu1 135.8(2) 1_655 2_556 ?
O2 Eu1 Eu1 81.7(2) . 2_556 ?
O8 Eu1 Eu1 79.5(2) 2_556 2_556 ?
O1 Eu1 Eu1 32.48(19) . 2_556 ?
O7 Eu1 Eu1 83.5(2) 2_556 2_556 ?
C14 Eu1 Eu1 78.2(3) 2_556 2_556 ?
Eu1 Eu1 Eu1 129.40(4) 2_656 2_556 ?
C4 N1 C3 118.0(12) . . ?
C4 N1 Ag1 124.0(9) . . ?
C3 N1 Ag1 117.6(9) . . ?
C11 N2 C10 117.8(11) . . ?
C11 N2 Ag1 121.4(9) . 2_667 ?
C10 N2 Ag1 120.8(9) . 2_667 ?
C1 O1 Eu1 143.5(8) . 2_556 ?
C1 O1 Eu1 91.1(7) . . ?
Eu1 O1 Eu1 112.7(3) 2_556 . ?
C1 O2 Eu1 95.9(7) . . ?
C7 O3 Eu1 127.0(7) . 2_556 ?
C7 O3 Eu1 119.5(7) . 1_455 ?
Eu1 O3 Eu1 104.9(3) 2_556 1_455 ?
C8 O5 Eu1 140.2(8) . . ?
C8 O6 Eu1 133.5(9) . 2_656 ?
C14 O7 Eu1 89.9(7) . 2_556 ?
C14 O8 Eu1 94.1(8) . 2_556 ?
H1WA O1W H1WB 107.7 . . ?
H2WA O2W H2WB 107.7 . . ?
O2 C1 O1 121.1(11) . . ?
O2 C1 C2 121.2(11) . . ?
O1 C1 C2 117.7(11) . . ?
C3 C2 C6 118.9(11) . . ?
C3 C2 C1 117.4(11) . . ?
C6 C2 C1 123.7(11) . . ?
N1 C3 C2 121.7(12) . . ?
N1 C3 H3 119.1 . . ?
C2 C3 H3 119.1 . . ?
N1 C4 C5 123.6(12) . . ?
N1 C4 H4 118.2 . . ?
C5 C4 H4 118.2 . . ?
C4 C5 C6 119.8(12) . . ?
C4 C5 H5 120.1 . . ?
C6 C5 H5 120.1 . . ?
C5 C6 C2 117.8(12) . . ?
C5 C6 C7 118.1(11) . . ?
C2 C6 C7 123.6(11) . . ?
O4 C7 O3 124.7(12) . . ?
O4 C7 C6 118.3(11) . . ?
O3 C7 C6 116.8(11) . . ?
O5 C8 O6 126.5(12) . . ?
O5 C8 C9 119.0(11) . . ?
O6 C8 C9 114.4(12) . . ?
C10 C9 C13 119.8(12) . . ?
C10 C9 C8 120.0(12) . . ?
C13 C9 C8 120.2(11) . . ?
N2 C10 C9 122.9(12) . . ?
N2 C10 H10 118.6 . . ?
C9 C10 H10 118.6 . . ?
N2 C11 C12 122.8(12) . . ?
N2 C11 H11 118.6 . . ?
C12 C11 H11 118.6 . . ?
C11 C12 C13 119.4(12) . . ?
C11 C12 H12 120.3 . . ?
C13 C12 H12 120.3 . . ?
C12 C13 C9 117.3(12) . . ?
C12 C13 C14 119.3(12) . . ?
C9 C13 C14 123.4(12) . . ?
O8 C14 O7 123.8(12) . . ?
O8 C14 C13 117.3(13) . . ?
O7 C14 C13 118.9(12) . . ?
O8 C14 Eu1 60.6(7) . 2_556 ?
O7 C14 Eu1 64.0(7) . 2_556 ?
C13 C14 Eu1 168.8(9) . 2_556 ?

loop_
_geom_torsion_atom_site_label_1
_geom_torsion_atom_site_label_2
_geom_torsion_atom_site_label_3
_geom_torsion_atom_site_label_4
_geom_torsion
_geom_torsion_site_symmetry_1
_geom_torsion_site_symmetry_2
_geom_torsion_site_symmetry_3
_geom_torsion_site_symmetry_4
_geom_torsion_publ_flag
N2 Ag1 N1 C4 129.1(11) 2_667 . . . ?
N2 Ag1 N1 C3 -58.1(14) 2_667 . . . ?
O6 Eu1 O1 C1 -87.5(8) 2_656 . . . ?
O5 Eu1 O1 C1 78.9(7) . . . . ?
O3 Eu1 O1 C1 123.6(7) 2_556 . . . ?
O1 Eu1 O1 C1 151.7(9) 2_556 . . . ?
O3 Eu1 O1 C1 23.0(8) 1_655 . . . ?
O2 Eu1 O1 C1 -2.6(7) . . . . ?
O8 Eu1 O1 C1 -141.6(7) 2_556 . . . ?
O7 Eu1 O1 C1 -95.0(7) 2_556 . . . ?
C14 Eu1 O1 C1 -120.7(8) 2_556 . . . ?
Eu1 Eu1 O1 C1 64.8(8) 2_656 . . . ?
Eu1 Eu1 O1 C1 151.7(9) 2_556 . . . ?
O6 Eu1 O1 Eu1 120.9(5) 2_656 . . 2_556 ?
O5 Eu1 O1 Eu1 -72.8(3) . . . 2_556 ?
O3 Eu1 O1 Eu1 -28.1(5) 2_556 . . 2_556 ?
O1 Eu1 O1 Eu1 0.0 2_556 . . 2_556 ?
O3 Eu1 O1 Eu1 -128.7(3) 1_655 . . 2_556 ?
O2 Eu1 O1 Eu1 -154.3(5) . . . 2_556 ?
O8 Eu1 O1 Eu1 66.7(3) 2_556 . . 2_556 ?
O7 Eu1 O1 Eu1 113.3(4) 2_556 . . 2_556 ?
C14 Eu1 O1 Eu1 87.6(4) 2_556 . . 2_556 ?
Eu1 Eu1 O1 Eu1 -86.9(4) 2_656 . . 2_556 ?
O6 Eu1 O2 C1 142.3(7) 2_656 . . . ?
O5 Eu1 O2 C1 -79.7(8) . . . . ?
O3 Eu1 O2 C1 -116.8(8) 2_556 . . . ?
O1 Eu1 O2 C1 -23.4(8) 2_556 . . . ?
O3 Eu1 O2 C1 -154.4(8) 1_655 . . . ?
O8 Eu1 O2 C1 58.8(9) 2_556 . . . ?
O1 Eu1 O2 C1 2.7(7) . . . . ?
O7 Eu1 O2 C1 74.0(8) 2_556 . . . ?
C14 Eu1 O2 C1 64.8(8) 2_556 . . . ?
Eu1 Eu1 O2 C1 -139.7(7) 2_656 . . . ?
Eu1 Eu1 O2 C1 -11.0(7) 2_556 . . . ?
O6 Eu1 O5 C8 -4.2(15) 2_656 . . . ?
O3 Eu1 O5 C8 38.2(12) 2_556 . . . ?
O1 Eu1 O5 C8 116.5(13) 2_556 . . . ?
O3 Eu1 O5 C8 -41.1(12) 1_655 . . . ?
O2 Eu1 O5 C8 -118.2(13) . . . . ?
O8 Eu1 O5 C8 113.0(12) 2_556 . . . ?
O1 Eu1 O5 C8 -172.1(13) . . . . ?
O7 Eu1 O5 C8 -162.9(11) 2_556 . . . ?
C14 Eu1 O5 C8 152.5(12) 2_556 . . . ?
Eu1 Eu1 O5 C8 -1.7(12) 2_656 . . . ?
Eu1 Eu1 O5 C8 154.1(13) 2_556 . . . ?
Eu1 O2 C1 O1 -4.9(13) . . . . ?
Eu1 O2 C1 C2 176.7(10) . . . . ?
Eu1 O1 C1 O2 137.3(11) 2_556 . . . ?
Eu1 O1 C1 O2 4.7(12) . . . . ?
Eu1 O1 C1 C2 -44.3(18) 2_556 . . . ?
Eu1 O1 C1 C2 -176.8(10) . . . . ?
O2 C1 C2 C3 -25.2(18) . . . . ?
O1 C1 C2 C3 156.3(11) . . . . ?
O2 C1 C2 C6 155.5(12) . . . . ?
O1 C1 C2 C6 -23.0(18) . . . . ?
C4 N1 C3 C2 -2(2) . . . . ?
Ag1 N1 C3 C2 -175.4(10) . . . . ?
C6 C2 C3 N1 0.6(19) . . . . ?
C1 C2 C3 N1 -178.7(