####################################################################### 
# 
# This file contains crystal structure data downloaded from the 
# Cambridge Structural Database (CSD) hosted by the Cambridge 
# Crystallographic Data Centre (CCDC).
# 
# Full information about CCDC data access policies and citation 
# guidelines are available at http://www.ccdc.cam.ac.uk/access/V1 
# 
# Audit and citation data items may have been added by the CCDC. 
# Please retain this information to preserve the provenance of 
# this file and to allow appropriate attribution of the data. 
# 
#######################################################################

data_ax149m
_audit_block_doi                 10.5517/ccn5600
_database_code_depnum_ccdc_archive 'CCDC 600811'
loop_
_citation_id
_citation_doi
_citation_year
1 10.1007/s10904-006-9015-1 2005
_audit_update_record             
;
2004-03-06 deposited with the CCDC.	2024-07-11 downloaded from the CCDC.
;

_audit_creation_method           SHELXL-97
_chemical_name_systematic        
;
?
;
_chemical_name_common            ?
_chemical_melting_point          ?
_chemical_formula_moiety         ?
_chemical_formula_sum            'C97 H92 Ag3 F9 N O11 P6 S3'
_chemical_formula_weight         2224.33

loop_
_atom_type_symbol
_atom_type_description
_atom_type_scat_dispersion_real
_atom_type_scat_dispersion_imag
_atom_type_scat_source
C C 0.0033 0.0016 'International Tables Vol C Tables 4.2.6.8 and 6.1.1.4'
H H 0.0000 0.0000 'International Tables Vol C Tables 4.2.6.8 and 6.1.1.4'
O O 0.0106 0.0060 'International Tables Vol C Tables 4.2.6.8 and 6.1.1.4'
F F 0.0171 0.0103 'International Tables Vol C Tables 4.2.6.8 and 6.1.1.4'
P P 0.1023 0.0942 'International Tables Vol C Tables 4.2.6.8 and 6.1.1.4'
S S 0.1246 0.1234 'International Tables Vol C Tables 4.2.6.8 and 6.1.1.4'
Ag Ag -0.8971 1.1015 'International Tables Vol C Tables 4.2.6.8 and 6.1.1.4'
N N 0.0061 0.0033 'International Tables Vol C Tables 4.2.6.8 and 6.1.1.4'

_symmetry_cell_setting           Triclinic
_symmetry_space_group_name_H-M   P-1

loop_
_symmetry_equiv_pos_as_xyz
'x, y, z'
'-x, -y, -z'

_cell_length_a                   12.415(4)
_cell_length_b                   20.624(6)
_cell_length_c                   22.114(7)
_cell_angle_alpha                92.201(9)
_cell_angle_beta                 105.575(8)
_cell_angle_gamma                95.105(9)
_cell_volume                     5421(3)
_cell_formula_units_Z            2
_cell_measurement_temperature    153(2)
_cell_measurement_reflns_used    ?
_cell_measurement_theta_min      ?
_cell_measurement_theta_max      ?

_exptl_crystal_description       block
_exptl_crystal_colour            colourless
_exptl_crystal_size_max          0.36
_exptl_crystal_size_mid          0.30
_exptl_crystal_size_min          0.25
_exptl_crystal_density_meas      not_measured
_exptl_crystal_density_diffrn    1.363
_exptl_crystal_density_method    'not measured'
_exptl_crystal_F_000             2258
_exptl_absorpt_coefficient_mu    0.751
_exptl_absorpt_correction_type   empirical
_exptl_absorpt_correction_T_min  0.6939
_exptl_absorpt_correction_T_max  1.0000
_exptl_absorpt_process_details   SADABS

_exptl_special_details           
;
?
;

_diffrn_ambient_temperature      153(2)
_diffrn_radiation_wavelength     0.71073
_diffrn_radiation_type           MoK\a
_diffrn_radiation_source         'fine-focus sealed tube'
_diffrn_radiation_monochromator  graphite
_diffrn_measurement_device_type  'CCD area detector'
_diffrn_measurement_method       'phi and omega scans'
_diffrn_detector_area_resol_mean ?
_diffrn_standards_number         ?
_diffrn_standards_interval_count ?
_diffrn_standards_interval_time  ?
_diffrn_standards_decay_%        ?
_diffrn_reflns_number            53362
_diffrn_reflns_av_R_equivalents  0.1034
_diffrn_reflns_av_sigmaI/netI    0.1524
_diffrn_reflns_limit_h_min       -14
_diffrn_reflns_limit_h_max       14
_diffrn_reflns_limit_k_min       -24
_diffrn_reflns_limit_k_max       24
_diffrn_reflns_limit_l_min       -26
_diffrn_reflns_limit_l_max       26
_diffrn_reflns_theta_min         0.96
_diffrn_reflns_theta_max         25.00
_reflns_number_total             19078
_reflns_number_gt                8600
_reflns_threshold_expression     >2sigma(I)

_computing_data_collection       'Bruker SMART'
_computing_cell_refinement       'Bruker SMART'
_computing_data_reduction        'Bruker SHELXTL'
_computing_structure_solution    'SHELXS-97 (Sheldrick, 1990)'
_computing_structure_refinement  'SHELXL-97 (Sheldrick, 1997)'
_computing_molecular_graphics    'Bruker SHELXTL'
_computing_publication_material  'Bruker SHELXTL'

_refine_special_details          
;
Refinement of F^2^ against ALL reflections. The weighted R-factor wR and
goodness of fit S are based on F^2^, conventional R-factors R are based
on F, with F set to zero for negative F^2^. The threshold expression of
F^2^ > 2sigma(F^2^) is used only for calculating R-factors(gt) etc. and is
not relevant to the choice of reflections for refinement. R-factors based
on F^2^ are statistically about twice as large as those based on F, and R-
factors based on ALL data will be even larger.
;

_refine_ls_structure_factor_coef Fsqd
_refine_ls_matrix_type           full
_refine_ls_weighting_scheme      calc
_refine_ls_weighting_details     
'calc w=1/[\s^2^(Fo^2^)+(0.1891P)^2^+0.0000P] where P=(Fo^2^+2Fc^2^)/3'
_atom_sites_solution_primary     direct
_atom_sites_solution_secondary   difmap
_atom_sites_solution_hydrogens   geom
_refine_ls_hydrogen_treatment    calc
_refine_ls_extinction_method     none
_refine_ls_extinction_coef       ?
_refine_ls_number_reflns         19078
_refine_ls_number_parameters     1013
_refine_ls_number_restraints     19
_refine_ls_R_factor_all          0.1837
_refine_ls_R_factor_gt           0.0911
_refine_ls_wR_factor_ref         0.3188
_refine_ls_wR_factor_gt          0.2445
_refine_ls_goodness_of_fit_ref   0.957
_refine_ls_restrained_S_all      0.961
_refine_ls_shift/su_max          0.001
_refine_ls_shift/su_mean         0.000

loop_
_atom_site_label
_atom_site_type_symbol
_atom_site_fract_x
_atom_site_fract_y
_atom_site_fract_z
_atom_site_U_iso_or_equiv
_atom_site_adp_type
_atom_site_occupancy
_atom_site_symmetry_multiplicity
_atom_site_calc_flag
_atom_site_refinement_flags
_atom_site_disorder_assembly
_atom_site_disorder_group
Ag1 Ag 1.35955(7) 1.42246(4) 1.03022(4) 0.0444(3) Uani 1 1 d . . .
Ag2 Ag 1.63235(7) 1.62707(4) 1.37312(4) 0.0424(3) Uani 1 1 d . . .
Ag3 Ag 1.62462(10) 2.03923(4) 1.43338(5) 0.0672(4) Uani 1 1 d . . .
C1A C 1.5192(8) 1.5305(5) 1.1565(5) 0.036(2) Uani 1 1 d . . .
C2A C 1.5314(8) 1.5671(5) 1.1072(5) 0.031(2) Uani 1 1 d . . .
H2AA H 1.4841 1.5559 1.0660 0.037 Uiso 1 1 calc R . .
C3A C 1.6153(8) 1.6221(5) 1.1182(5) 0.035(2) Uani 1 1 d . . .
C4A C 1.6812(8) 1.6375(5) 1.1780(5) 0.034(2) Uani 1 1 d . . .
H4AA H 1.7342 1.6751 1.1861 0.041 Uiso 1 1 calc R . .
C5A C 1.6729(9) 1.5994(5) 1.2275(5) 0.036(2) Uani 1 1 d . . .
C6A C 1.5898(9) 1.5465(5) 1.2156(5) 0.041(3) Uani 1 1 d . . .
H6AA H 1.5820 1.5209 1.2493 0.049 Uiso 1 1 calc R . .
C1B C 1.4879(9) 1.8326(5) 1.5020(5) 0.043(3) Uani 1 1 d . . .
C2B C 1.4599(9) 1.7722(5) 1.4681(5) 0.038(3) Uani 1 1 d . . .
H2BA H 1.4133 1.7392 1.4805 0.046 Uiso 1 1 calc R . .
C3B C 1.4996(9) 1.7605(5) 1.4167(5) 0.038(3) Uani 1 1 d . . .
C4B C 1.5673(8) 1.8084(5) 1.3987(6) 0.041(3) Uani 1 1 d . . .
H4BA H 1.5968 1.7993 1.3642 0.049 Uiso 1 1 calc R . .
C5B C 1.5928(9) 1.8695(5) 1.4300(5) 0.041(3) Uani 1 1 d . . .
C6B C 1.5527(10) 1.8821(5) 1.4817(5) 0.045(3) Uani 1 1 d . . .
H6BA H 1.5689 1.9241 1.5032 0.054 Uiso 1 1 calc R . .
P1 P 1.4171(2) 1.45931(13) 1.13891(14) 0.0379(7) Uani 1 1 d . . .
C11A C 1.4936(9) 1.3964(5) 1.1816(5) 0.043(3) Uani 1 1 d . . .
C12A C 1.4376(10) 1.3441(6) 1.2031(6) 0.054(3) Uani 1 1 d . . .
H12A H 1.3603 1.3446 1.2012 0.064 Uiso 1 1 calc R . .
C13A C 1.4931(13) 1.2916(6) 1.2270(6) 0.066(4) Uani 1 1 d . . .
H13A H 1.4553 1.2574 1.2434 0.079 Uiso 1 1 calc R . .
C14A C 1.6002(14) 1.2890(6) 1.2269(6) 0.065(4) Uani 1 1 d . . .
H14A H 1.6377 1.2523 1.2422 0.078 Uiso 1 1 calc R . .
C15A C 1.6570(11) 1.3396(6) 1.2045(6) 0.057(3) Uani 1 1 d . . .
H15A H 1.7330 1.3371 1.2043 0.069 Uiso 1 1 calc R . .
C16A C 1.6046(9) 1.3930(5) 1.1828(5) 0.043(3) Uani 1 1 d . . .
H16A H 1.6447 1.4279 1.1685 0.051 Uiso 1 1 calc R . .
C11B C 1.3061(10) 1.4787(5) 1.1745(6) 0.046(3) Uani 1 1 d . . .
C12B C 1.2070(10) 1.4916(6) 1.1369(7) 0.057(3) Uani 1 1 d . . .
H12B H 1.1920 1.4866 1.0924 0.068 Uiso 1 1 calc R . .
C13B C 1.1238(12) 1.5133(7) 1.1654(9) 0.078(5) Uani 1 1 d . . .
H13B H 1.0550 1.5254 1.1397 0.093 Uiso 1 1 calc R . .
C14B C 1.1431(14) 1.5165(7) 1.2273(10) 0.085(5) Uani 1 1 d . . .
H14B H 1.0859 1.5294 1.2449 0.102 Uiso 1 1 calc R . .
C15B C 1.2403(13) 1.5021(7) 1.2664(7) 0.073(4) Uani 1 1 d . . .
H15B H 1.2513 1.5049 1.3107 0.087 Uiso 1 1 calc R . .
C16B C 1.3257(11) 1.4828(6) 1.2402(6) 0.060(4) Uani 1 1 d . . .
H16B H 1.3953 1.4727 1.2667 0.072 Uiso 1 1 calc R . .
P2 P 1.6361(2) 1.66008(13) 1.04869(13) 0.0376(7) Uani 1 1 d . . .
C21A C 1.7689(9) 1.7108(5) 1.0771(5) 0.044(3) Uani 1 1 d . . .
C22A C 1.8675(10) 1.6809(6) 1.0817(6) 0.056(3) Uani 1 1 d . . .
H22A H 1.8639 1.6357 1.0704 0.067 Uiso 1 1 calc R . .
C23A C 1.9718(12) 1.7187(8) 1.1033(7) 0.076(4) Uani 1 1 d . . .
H23A H 2.0392 1.6982 1.1093 0.091 Uiso 1 1 calc R . .
C24A C 1.9774(12) 1.7824(7) 1.1154(7) 0.069(4) Uani 1 1 d . . .
H24A H 2.0486 1.8075 1.1274 0.083 Uiso 1 1 calc R . .
C25A C 1.8824(14) 1.8125(7) 1.1109(7) 0.075(4) Uani 1 1 d . . .
H25A H 1.8886 1.8579 1.1220 0.090 Uiso 1 1 calc R . .
C26A C 1.7762(11) 1.7777(6) 1.0903(6) 0.059(3) Uani 1 1 d . . .
H26A H 1.7102 1.7992 1.0853 0.070 Uiso 1 1 calc R . .
C21B C 1.5297(9) 1.7160(5) 1.0261(5) 0.041(3) Uani 1 1 d . . .
C22B C 1.4928(11) 1.7291(6) 0.9635(6) 0.058(3) Uani 1 1 d . . .
H22B H 1.5207 1.7076 0.9330 0.069 Uiso 1 1 calc R . .
C23B C 1.4155(13) 1.7734(8) 0.9454(7) 0.077(4) Uani 1 1 d . . .
H23B H 1.3893 1.7817 0.9022 0.092 Uiso 1 1 calc R . .
C24B C 1.3760(12) 1.8056(7) 0.9888(7) 0.069(4) Uani 1 1 d . . .
H24B H 1.3251 1.8375 0.9764 0.082 Uiso 1 1 calc R . .
C25B C 1.4100(12) 1.7914(6) 1.0486(7) 0.065(4) Uani 1 1 d . . .
H25B H 1.3806 1.8129 1.0784 0.078 Uiso 1 1 calc R . .
C26B C 1.4838(10) 1.7481(6) 1.0687(6) 0.051(3) Uani 1 1 d . . .
H26B H 1.5049 1.7391 1.1119 0.062 Uiso 1 1 calc R . .
P3 P 1.7592(2) 1.61529(13) 1.30883(13) 0.0360(7) Uani 1 1 d . . .
C31A C 1.8677(8) 1.6799(5) 1.3058(5) 0.041(3) Uani 1 1 d . . .
C32A C 1.9448(9) 1.6707(6) 1.2723(5) 0.045(3) Uani 1 1 d . . .
H32A H 1.9411 1.6302 1.2496 0.054 Uiso 1 1 calc R . .
C33A C 2.0291(10) 1.7210(7) 1.2716(7) 0.060(4) Uani 1 1 d . . .
H33A H 2.0782 1.7165 1.2457 0.072 Uiso 1 1 calc R . .
C34A C 2.0380(12) 1.7765(7) 1.3093(8) 0.077(5) Uani 1 1 d . . .
H34A H 2.0996 1.8087 1.3134 0.093 Uiso 1 1 calc R . .
C35A C 1.9620(16) 1.7860(7) 1.3404(10) 0.108(7) Uani 1 1 d . . .
H35A H 1.9673 1.8265 1.3635 0.129 Uiso 1 1 calc R . .
C36A C 1.8752(11) 1.7383(6) 1.3399(8) 0.074(4) Uani 1 1 d . . .
H36A H 1.8220 1.7458 1.3626 0.089 Uiso 1 1 calc R . .
C31B C 1.8316(8) 1.5428(5) 1.3233(5) 0.035(2) Uani 1 1 d . . .
C32B C 1.8683(8) 1.5256(5) 1.3843(5) 0.041(3) Uani 1 1 d . . .
H32B H 1.8535 1.5510 1.4174 0.049 Uiso 1 1 calc R . .
C33B C 1.9277(9) 1.4704(5) 1.3980(6) 0.045(3) Uani 1 1 d . . .
H33B H 1.9526 1.4584 1.4402 0.054 Uiso 1 1 calc R . .
C34B C 1.9487(9) 1.4351(5) 1.3513(6) 0.045(3) Uani 1 1 d . . .
H34B H 1.9891 1.3981 1.3608 0.054 Uiso 1 1 calc R . .
C35B C 1.9132(9) 1.4512(5) 1.2899(6) 0.046(3) Uani 1 1 d . . .
H35B H 1.9300 1.4255 1.2577 0.056 Uiso 1 1 calc R . .
C36B C 1.8530(9) 1.5046(5) 1.2747(6) 0.042(3) Uani 1 1 d . . .
H36B H 1.8267 1.5152 1.2321 0.050 Uiso 1 1 calc R . .
P4 P 1.4329(3) 1.85324(14) 1.56818(16) 0.0539(9) Uani 1 1 d . . .
C41A C 1.3182(11) 1.7894(5) 1.5617(6) 0.053(3) Uani 1 1 d . . .
C42A C 1.3178(15) 1.7481(7) 1.6100(7) 0.095(6) Uani 1 1 d . . .
H42A H 1.3797 1.7514 1.6466 0.114 Uiso 1 1 calc R . .
C43A C 1.2267(15) 1.7024(8) 1.6044(7) 0.093(6) Uani 1 1 d . . .
H43A H 1.2257 1.6751 1.6379 0.111 Uiso 1 1 calc R . .
C44A C 1.1389(13) 1.6958(6) 1.5521(8) 0.073(4) Uani 1 1 d . . .
H44A H 1.0770 1.6642 1.5494 0.088 Uiso 1 1 calc R . .
C45A C 1.1384(11) 1.7352(6) 1.5014(7) 0.062(4) Uani 1 1 d . . .
H45A H 1.0786 1.7296 1.4638 0.075 Uiso 1 1 calc R . .
C46A C 1.2292(10) 1.7832(6) 1.5085(6) 0.049(3) Uani 1 1 d . . .
H46A H 1.2290 1.8119 1.4759 0.059 Uiso 1 1 calc R . .
C41B C 1.5477(17) 1.8404(8) 1.6366(7) 0.089(6) Uani 1 1 d . . .
C42B C 1.567(2) 1.8784(8) 1.6900(9) 0.150(11) Uani 1 1 d . . .
H42B H 1.5199 1.9114 1.6926 0.181 Uiso 1 1 calc R . .
C43B C 1.656(3) 1.8699(10) 1.7409(9) 0.156(14) Uani 1 1 d . . .
H43B H 1.6704 1.8976 1.7782 0.187 Uiso 1 1 calc R . .
C44B C 1.725(2) 1.8202(16) 1.7377(12) 0.172(16) Uani 1 1 d . . .
H44B H 1.7861 1.8140 1.7726 0.207 Uiso 1 1 calc R . .
C45B C 1.7044(17) 1.7844(19) 1.6886(11) 0.202(18) Uani 1 1 d . . .
H45B H 1.7539 1.7520 1.6878 0.242 Uiso 1 1 calc R . .
C46B C 1.6173(14) 1.7871(12) 1.6355(8) 0.107(7) Uani 1 1 d . . .
H46B H 1.6033 1.7564 1.6004 0.128 Uiso 1 1 calc R . .
P5 P 1.4666(2) 1.68212(13) 1.36971(14) 0.0384(7) Uani 1 1 d . . .
C51A C 1.3928(8) 1.7051(5) 1.2920(5) 0.039(3) Uani 1 1 d . . .
C52A C 1.3870(10) 1.6621(6) 1.2410(6) 0.055(3) Uani 1 1 d . . .
H52A H 1.4211 1.6226 1.2477 0.066 Uiso 1 1 calc R . .
C53A C 1.3323(11) 1.6763(8) 1.1810(7) 0.067(4) Uani 1 1 d . . .
H53A H 1.3281 1.6463 1.1465 0.080 Uiso 1 1 calc R . .
C54A C 1.2834(10) 1.7337(8) 1.1706(6) 0.062(4) Uani 1 1 d . . .
H54A H 1.2462 1.7432 1.1289 0.075 Uiso 1 1 calc R . .
C55A C 1.2878(10) 1.7763(7) 1.2187(7) 0.057(3) Uani 1 1 d . . .
H55A H 1.2536 1.8156 1.2106 0.068 Uiso 1 1 calc R . .
C56A C 1.3428(9) 1.7636(6) 1.2814(6) 0.047(3) Uani 1 1 d . . .
H56A H 1.3457 1.7939 1.3154 0.057 Uiso 1 1 calc R . .
C51B C 1.3615(9) 1.6349(5) 1.3986(5) 0.041(3) Uani 1 1 d . . .
C52B C 1.2489(9) 1.6449(6) 1.3796(6) 0.052(3) Uani 1 1 d . . .
H52B H 1.2252 1.6789 1.3528 0.062 Uiso 1 1 calc R . .
C53B C 1.1722(10) 1.6062(7) 1.3996(6) 0.062(4) Uani 1 1 d . . .
H53B H 1.0951 1.6134 1.3864 0.074 Uiso 1 1 calc R . .
C54B C 1.2048(10) 1.5565(7) 1.4386(6) 0.057(3) Uani 1 1 d . . .
H54B H 1.1506 1.5300 1.4524 0.069 Uiso 1 1 calc R . .
C55B C 1.3177(11) 1.5456(6) 1.4576(6) 0.063(4) Uani 1 1 d . . .
H55B H 1.3419 1.5112 1.4836 0.075 Uiso 1 1 calc R . .
C56B C 1.3943(10) 1.5866(6) 1.4372(6) 0.051(3) Uani 1 1 d . . .
H56B H 1.4719 1.5807 1.4508 0.062 Uiso 1 1 calc R . .
P6 P 1.6749(3) 1.93487(15) 1.40439(18) 0.0580(10) Uani 1 1 d . . .
C61A C 1.8197(14) 1.9190(9) 1.4373(12) 0.110(8) Uani 1 1 d . . .
C62A C 1.8512(14) 1.8724(10) 1.4765(11) 0.113(8) Uani 1 1 d . . .
H62A H 1.7958 1.8442 1.4877 0.136 Uiso 1 1 calc R . .
C63A C 1.9659(17) 1.8643(13) 1.5014(14) 0.157(12) Uani 1 1 d . . .
H63A H 1.9873 1.8314 1.5298 0.189 Uiso 1 1 calc R . .
C64A C 2.045(3) 1.9030(16) 1.485(3) 0.22(3) Uani 1 1 d . . .
H64A H 2.1221 1.8961 1.5007 0.270 Uiso 1 1 calc R . .
C65A C 2.019(2) 1.9458(16) 1.452(2) 0.24(3) Uani 1 1 d . . .
H65A H 2.0792 1.9746 1.4456 0.289 Uiso 1 1 calc R . .
C66A C 1.8995(16) 1.9595(10) 1.4164(15) 0.185(14) Uani 1 1 d . . .
H66A H 1.8816 1.9903 1.3853 0.221 Uiso 1 1 calc R . .
C61B C 1.6457(16) 1.9163(7) 1.3216(8) 0.078(5) Uani 1 1 d . . .
C62B C 1.7209(17) 1.8845(8) 1.2956(9) 0.108(7) Uani 1 1 d . . .
H62B H 1.7886 1.8721 1.3223 0.129 Uiso 1 1 calc R . .
C63B C 1.697(3) 1.8723(15) 1.2348(14) 0.162(13) Uani 1 1 d . . .
H63B H 1.7498 1.8527 1.2179 0.194 Uiso 1 1 calc R . .
C64B C 1.602(3) 1.8859(12) 1.1958(13) 0.139(13) Uani 1 1 d . . .
H64B H 1.5914 1.8774 1.1519 0.167 Uiso 1 1 calc R . .
C65B C 1.511(3) 1.9140(12) 1.2169(12) 0.195(16) Uani 1 1 d . . .
H65B H 1.4403 1.9210 1.1895 0.234 Uiso 1 1 calc R . .
C66B C 1.543(2) 1.9299(9) 1.2855(8) 0.116(8) Uani 1 1 d . . .
H66B H 1.4928 1.9495 1.3045 0.139 Uiso 1 1 calc R . .
N1N N 1.5793(9) 1.5079(5) 1.3730(5) 0.062(3) Uiso 1 1 d . . .
C2N C 1.5568(13) 1.4576(8) 1.3799(7) 0.077(4) Uiso 1 1 d . . .
C3N C 1.510(2) 1.3857(12) 1.3905(12) 0.161(9) Uiso 1 1 d . . .
H3NA H 1.5686 1.3652 1.4201 0.242 Uiso 1 1 d R . .
H3NB H 1.4862 1.3597 1.3502 0.242 Uiso 1 1 d R . .
H3NC H 1.4450 1.3879 1.4077 0.242 Uiso 1 1 d R . .
O11 O 1.6778(9) 1.6188(5) 1.4869(5) 0.097(3) Uiso 1 1 d D . .
O12 O 1.7619(11) 1.6304(6) 1.6006(5) 0.123(4) Uiso 1 1 d D . .
O13 O 1.8674(10) 1.6039(6) 1.5239(6) 0.108(4) Uiso 1 1 d D . .
S1 S 1.7758(3) 1.6420(2) 1.5319(2) 0.0886(13) Uani 1 1 d D . .
C1S C 1.8162(19) 1.7201(9) 1.5297(10) 0.180(11) Uiso 1 1 d D . .
F11 F 1.9060(15) 1.7369(9) 1.5772(8) 0.223(7) Uiso 1 1 d D . .
F12 F 1.8371(12) 1.7269(7) 1.4724(7) 0.171(5) Uiso 1 1 d D . .
F13 F 1.7306(13) 1.7527(7) 1.5299(7) 0.185(6) Uiso 1 1 d D . .
O21 O 1.1924(7) 1.4792(4) 0.9720(4) 0.064(2) Uiso 1 1 d D . .
O22 O 1.1833(7) 1.5270(4) 0.8721(4) 0.067(2) Uiso 1 1 d D . .
O23 O 1.3562(7) 1.5397(4) 0.9586(4) 0.068(2) Uiso 1 1 d D . .
S2 S 1.2360(3) 1.52960(15) 0.93952(15) 0.0507(8) Uani 1 1 d D . .
C2S C 1.1948(12) 1.6020(7) 0.9691(7) 0.077(4) Uiso 1 1 d D . .
F21 F 1.2183(8) 1.6529(5) 0.9402(5) 0.104(3) Uiso 1 1 d D . .
F22 F 1.0819(8) 1.5969(4) 0.9617(4) 0.096(3) Uiso 1 1 d D . .
F23 F 1.2412(8) 1.6138(5) 1.0299(4) 0.101(3) Uiso 1 1 d D . .
O31 O 1.7222(12) 2.0357(7) 1.5507(7) 0.133(5) Uiso 1 1 d . . .
O32 O 1.5942(11) 2.0147(6) 1.6091(6) 0.117(4) Uiso 1 1 d . . .
O33 O 1.7072(11) 2.1187(6) 1.6271(6) 0.115(4) Uiso 1 1 d . . .
S3 S 1.6963(3) 2.04985(17) 1.6079(2) 0.0722(11) Uani 1 1 d . . .
C3S C 1.790(2) 2.0185(14) 1.6749(14) 0.151(9) Uiso 1 1 d . . .
F31 F 1.8135(15) 1.9590(9) 1.6571(8) 0.206(7) Uiso 1 1 d . . .
F32 F 1.7786(17) 2.0233(10) 1.7241(10) 0.229(8) Uiso 1 1 d . . .
F33 F 1.9025(12) 2.0506(7) 1.6727(6) 0.159(5) Uiso 1 1 d . . .
C1E C 0.068(2) 1.3209(12) 0.1801(12) 0.169(10) Uiso 1 1 d . . .
H1E1 H 0.0209 1.2825 0.1866 0.253 Uiso 1 1 d R . .
H1E2 H 0.0266 1.359