####################################################################### 
# 
# This file contains crystal structure data downloaded from the 
# Cambridge Structural Database (CSD) hosted by the Cambridge 
# Crystallographic Data Centre (CCDC).
# 
# Full information about CCDC data access policies and citation 
# guidelines are available at http://www.ccdc.cam.ac.uk/access/V1 
# 
# Audit and citation data items may have been added by the CCDC. 
# Please retain this information to preserve the provenance of 
# this file and to allow appropriate attribution of the data. 
# 
#######################################################################

data_1s_6C6H6
_audit_block_doi                 10.5517/cc100tsm
_database_code_depnum_ccdc_archive 'CCDC 924320'
loop_
_citation_id
_citation_doi
_citation_year
1 10.1021/ic400940w 2013
_audit_update_record             
;
2013-02-13 deposited with the CCDC.	2024-07-11 downloaded from the CCDC.
;
#TrackingRef 'web_deposit_cif_file_0_DenisG.Samsonenko_1360747082.submition.cif'

_audit_creation_method           SHELXL-97
_chemical_name_systematic        
;
?
;
_chemical_name_common            ?
_chemical_melting_point          ?
_chemical_formula_structural     
'(Zn4 (C6 H12 N4)2 (C12 H6 O4)4) . (S4 N4) . 6(C6 H6)'
_chemical_formula_sum            'C96 H84 N12 O16 S4 Zn4'
_chemical_formula_weight         2051.47

loop_
_atom_type_symbol
_atom_type_description
_atom_type_scat_dispersion_real
_atom_type_scat_dispersion_imag
_atom_type_scat_source
C C 0.0033 0.0016 'International Tables Vol C Tables 4.2.6.8 and 6.1.1.4'
H H 0.0000 0.0000 'International Tables Vol C Tables 4.2.6.8 and 6.1.1.4'
N N 0.0061 0.0033 'International Tables Vol C Tables 4.2.6.8 and 6.1.1.4'
O O 0.0106 0.0060 'International Tables Vol C Tables 4.2.6.8 and 6.1.1.4'
Zn Zn 0.2839 1.4301 'International Tables Vol C Tables 4.2.6.8 and 6.1.1.4'
S S 0.1246 0.1234 'International Tables Vol C Tables 4.2.6.8 and 6.1.1.4'

_symmetry_cell_setting           Monoclinic
_symmetry_space_group_name_H-M   'P 1 21/n 1'

loop_
_symmetry_equiv_pos_as_xyz
'x, y, z'
'-x+1/2, y+1/2, -z+1/2'
'-x, -y, -z'
'x-1/2, -y-1/2, z-1/2'

_cell_length_a                   12.2241(3)
_cell_length_b                   31.2482(7)
_cell_length_c                   24.8982(5)
_cell_angle_alpha                90.00
_cell_angle_beta                 97.846(1)
_cell_angle_gamma                90.00
_cell_volume                     9421.6(4)
_cell_formula_units_Z            4
_cell_measurement_temperature    150(2)
_cell_measurement_reflns_used    8959
_cell_measurement_theta_min      2.55
_cell_measurement_theta_max      25.91

_exptl_crystal_description       octahedral
_exptl_crystal_colour            yellow
_exptl_crystal_size_max          0.15
_exptl_crystal_size_mid          0.15
_exptl_crystal_size_min          0.15
_exptl_crystal_density_meas      ?
_exptl_crystal_density_diffrn    1.446
_exptl_crystal_density_method    'not measured'
_exptl_crystal_F_000             4224
_exptl_absorpt_coefficient_mu    1.167
_exptl_absorpt_correction_type   multi-scan
_exptl_absorpt_correction_T_min  0.8444
_exptl_absorpt_correction_T_max  0.8444
_exptl_absorpt_process_details   'SADABS (Bruker-AXS, 2004)'

_exptl_special_details           
;
?
;

_diffrn_radiation_probe          x-ray
_diffrn_ambient_temperature      150(2)
_diffrn_radiation_wavelength     0.71073
_diffrn_radiation_type           MoK\a
_diffrn_radiation_source         'fine-focus sealed tube'
_diffrn_radiation_monochromator  graphite
_diffrn_measurement_device_type  'Bruker X8Apex'
_diffrn_measurement_method       '\f scans'
_diffrn_detector_area_resol_mean 25
_diffrn_standards_number         0
_diffrn_standards_interval_count 0
_diffrn_standards_interval_time  0
_diffrn_standards_decay_%        0
_diffrn_reflns_number            75958
_diffrn_reflns_av_R_equivalents  0.0835
_diffrn_reflns_av_sigmaI/netI    0.0987
_diffrn_reflns_limit_h_min       -16
_diffrn_reflns_limit_h_max       16
_diffrn_reflns_limit_k_min       -37
_diffrn_reflns_limit_k_max       41
_diffrn_reflns_limit_l_min       -23
_diffrn_reflns_limit_l_max       33
_diffrn_reflns_theta_min         1.80
_diffrn_reflns_theta_max         28.29
_reflns_number_total             23374
_reflns_number_gt                15387
_reflns_threshold_expression     >2\s(I)

_computing_data_collection       'APEX2 (Bruker-AXS, 2004)'
_computing_cell_refinement       'SAINT (Bruker-AXS, 2004)'
_computing_data_reduction        'SAINT (Bruker-AXS, 2004)'
_computing_structure_solution    'SHELXS-97 (Sheldrick, 1998)'
_computing_structure_refinement  'SHELXL-97 (Sheldrick, 1998)'
_computing_molecular_graphics    'SHELXTL (Bruker-AXS, 2004)'
_computing_publication_material  'CIFTAB-97 (Sheldrick, 1998)'

_refine_special_details          
;
Refinement of F^2^ against ALL reflections. The weighted R-factor wR and
goodness of fit S are based on F^2^, conventional R-factors R are based
on F, with F set to zero for negative F^2^. The threshold expression of
F^2^ > 2sigma(F^2^) is used only for calculating R-factors(gt) etc. and is
not relevant to the choice of reflections for refinement. R-factors based
on F^2^ are statistically about twice as large as those based on F, and R-
factors based on ALL data will be even larger.
;

_refine_ls_structure_factor_coef Fsqd
_refine_ls_matrix_type           full
_refine_ls_weighting_scheme      calc
_refine_ls_weighting_details     
'calc w=1/[\s^2^(Fo^2^)+(0.0458P)^2^+3.4780P] where P=(Fo^2^+2Fc^2^)/3'
_atom_sites_solution_primary     direct
_atom_sites_solution_secondary   difmap
_atom_sites_solution_hydrogens   geom
_refine_ls_hydrogen_treatment    constr
_refine_ls_extinction_method     none
_refine_ls_extinction_coef       ?
_refine_ls_number_reflns         23374
_refine_ls_number_parameters     1189
_refine_ls_number_restraints     72
_refine_ls_R_factor_all          0.1026
_refine_ls_R_factor_gt           0.0564
_refine_ls_wR_factor_ref         0.1276
_refine_ls_wR_factor_gt          0.1165
_refine_ls_goodness_of_fit_ref   1.036
_refine_ls_restrained_S_all      1.040
_refine_ls_shift/su_max          0.003
_refine_ls_shift/su_mean         0.000

loop_
_atom_site_label
_atom_site_type_symbol
_atom_site_fract_x
_atom_site_fract_y
_atom_site_fract_z
_atom_site_U_iso_or_equiv
_atom_site_adp_type
_atom_site_occupancy
_atom_site_symmetry_multiplicity
_atom_site_calc_flag
_atom_site_refinement_flags
_atom_site_disorder_assembly
_atom_site_disorder_group
Zn1 Zn 0.61069(3) 0.269427(12) 0.744983(15) 0.01123(9) Uani 1 1 d . . .
Zn2 Zn 0.41037(3) 0.257011(12) 0.791381(15) 0.01091(9) Uani 1 1 d . . .
Zn3 Zn 0.20700(3) 0.138347(12) 0.932283(15) 0.01249(9) Uani 1 1 d . . .
Zn4 Zn 0.30369(3) 0.126743(13) 1.084820(15) 0.01324(9) Uani 1 1 d . . .
N11 N 0.7472(2) 0.27725(8) 0.70536(10) 0.0114(6) Uani 1 1 d . . .
N12 N 0.8259(2) 0.31902(9) 0.63665(11) 0.0127(6) Uani 1 1 d . . .
N13 N 0.8486(2) 0.24131(9) 0.64017(12) 0.0181(6) Uani 1 1 d . . .
N14 N 0.9470(2) 0.28593(10) 0.71142(12) 0.0201(7) Uani 1 1 d . . .
C11 C 0.7323(3) 0.31490(11) 0.66884(13) 0.0127(7) Uani 1 1 d . . .
H11A H 0.7274 0.3411 0.6907 0.015 Uiso 1 1 calc R . .
H11B H 0.6623 0.3119 0.6439 0.015 Uiso 1 1 calc R . .
C12 C 0.7569(3) 0.23792(10) 0.67138(13) 0.0153(7) Uani 1 1 d . . .
H12A H 0.7676 0.2125 0.6953 0.018 Uiso 1 1 calc R . .
H12B H 0.6874 0.2339 0.6464 0.018 Uiso 1 1 calc R . .
C13 C 0.8543(3) 0.28231(12) 0.74242(14) 0.0172(7) Uani 1 1 d . . .
H13A H 0.8508 0.3082 0.7650 0.021 Uiso 1 1 calc R . .
H13B H 0.8657 0.2573 0.7669 0.021 Uiso 1 1 calc R . .
C14 C 0.8326(3) 0.27836(11) 0.60503(13) 0.0162(7) Uani 1 1 d . . .
H14A H 0.7636 0.2747 0.5795 0.019 Uiso 1 1 calc R . .
H14B H 0.8947 0.2804 0.5834 0.019 Uiso 1 1 calc R . .
C15 C 0.9502(3) 0.24709(12) 0.67815(15) 0.0232(8) Uani 1 1 d . . .
H15A H 1.0138 0.2489 0.6575 0.028 Uiso 1 1 calc R . .
H15B H 0.9614 0.2218 0.7023 0.028 Uiso 1 1 calc R . .
C16 C 0.9301(3) 0.32305(11) 0.67535(14) 0.0174(7) Uani 1 1 d . . .
H16A H 0.9935 0.3258 0.6547 0.021 Uiso 1 1 calc R . .
H16B H 0.9269 0.3493 0.6973 0.021 Uiso 1 1 calc R . .
N21 N 0.2706(2) 0.24473(9) 0.82728(10) 0.0117(6) Uani 1 1 d . . .
N22 N 0.1875(2) 0.19608(8) 0.88790(10) 0.0114(6) Uani 1 1 d . . .
N23 N 0.1538(3) 0.27330(9) 0.89122(12) 0.0209(7) Uani 1 1 d . . .
N24 N 0.0711(2) 0.23172(10) 0.81324(12) 0.0201(7) Uani 1 1 d . . .
C21 C 0.2845(3) 0.20506(10) 0.86011(13) 0.0123(7) Uani 1 1 d . . .
H21A H 0.2964 0.1807 0.8362 0.015 Uiso 1 1 calc R . .
H21B H 0.3509 0.2078 0.8875 0.015 Uiso 1 1 calc R . .
C22 C 0.2510(3) 0.28095(11) 0.86427(14) 0.0178(8) Uani 1 1 d . . .
H22A H 0.3166 0.2845 0.8920 0.021 Uiso 1 1 calc R . .
H22B H 0.2407 0.3078 0.8430 0.021 Uiso 1 1 calc R . .
C23 C 0.1684(3) 0.23982(12) 0.78675(14) 0.0180(8) Uani 1 1 d . . .
H23A H 0.1567 0.2662 0.7647 0.022 Uiso 1 1 calc R . .
H23B H 0.1787 0.2158 0.7620 0.022 Uiso 1 1 calc R . .
C24 C 0.1709(3) 0.23387(11) 0.92300(14) 0.0193(8) Uani 1 1 d . . .
H24A H 0.1061 0.2287 0.9420 0.023 Uiso 1 1 calc R . .
H24B H 0.2365 0.2373 0.9508 0.023 Uiso 1 1 calc R . .
C25 C 0.0575(3) 0.26730(12) 0.84944(16) 0.0248(9) Uani 1 1 d . . .
H25A H -0.0088 0.2622 0.8674 0.030 Uiso 1 1 calc R . .
H25B H 0.0450 0.2939 0.8278 0.030 Uiso 1 1 calc R . .
C26 C 0.0882(3) 0.19268(11) 0.84522(14) 0.0184(8) Uani 1 1 d . . .
H26A H 0.0983 0.1683 0.8209 0.022 Uiso 1 1 calc R . .
H26B H 0.0219 0.1869 0.8629 0.022 Uiso 1 1 calc R . .
O11 O 0.5461(2) 0.32840(7) 0.73886(10) 0.0209(6) Uani 1 1 d . . .
O12 O 0.4061(2) 0.32284(7) 0.78776(10) 0.0212(6) Uani 1 1 d . . .
C101 C 0.4648(3) 0.34344(11) 0.75851(14) 0.0171(7) Uani 1 1 d . . .
C102 C 0.4349(3) 0.38908(11) 0.74566(14) 0.0179(8) Uani 1 1 d . . .
C103 C 0.3418(3) 0.40810(12) 0.76444(16) 0.0271(9) Uani 1 1 d . . .
H103 H 0.3002 0.3921 0.7870 0.033 Uiso 1 1 calc R . .
C104 C 0.3113(3) 0.44915(12) 0.75037(16) 0.0285(9) Uani 1 1 d . . .
H104 H 0.2501 0.4617 0.7642 0.034 Uiso 1 1 calc R . .
C105 C 0.3702(3) 0.47321(11) 0.71535(15) 0.0205(8) Uani 1 1 d . . .
C106 C 0.4636(3) 0.45439(11) 0.69626(14) 0.0169(7) Uani 1 1 d . . .
C107 C 0.4950(3) 0.41210(11) 0.71262(14) 0.0174(7) Uani 1 1 d . . .
H107 H 0.5581 0.3995 0.7006 0.021 Uiso 1 1 calc R . .
C108 C 0.3380(3) 0.51491(11) 0.69783(14) 0.0209(8) Uani 1 1 d . . .
H108 H 0.2771 0.5282 0.7111 0.025 Uiso 1 1 calc R . .
C109 C 0.3936(3) 0.53663(11) 0.66177(15) 0.0195(8) Uani 1 1 d . . .
C110 C 0.4866(3) 0.51793(12) 0.64320(15) 0.0231(8) Uani 1 1 d . . .
H110 H 0.5252 0.5331 0.6186 0.028 Uiso 1 1 calc R . .
C111 C 0.5214(3) 0.47791(11) 0.66059(15) 0.0205(8) Uani 1 1 d . . .
H111 H 0.5852 0.4659 0.6485 0.025 Uiso 1 1 calc R . .
C112 C 0.3486(3) 0.57856(11) 0.63876(15) 0.0195(8) Uani 1 1 d . . .
O13 O 0.2754(2) 0.59795(8) 0.65853(11) 0.0261(6) Uani 1 1 d . . .
O14 O 0.3894(2) 0.59228(8) 0.59651(10) 0.0258(6) Uani 1 1 d . . .
O21 O 0.6273(2) 0.20606(8) 0.76099(10) 0.0220(6) Uani 1 1 d . . .
O22 O 0.4590(2) 0.19435(8) 0.78359(10) 0.0210(6) Uani 1 1 d . . .
C201 C 0.5529(3) 0.18220(11) 0.77518(13) 0.0166(7) Uani 1 1 d . . .
C202 C 0.5818(3) 0.13612(11) 0.78354(14) 0.0182(8) Uani 1 1 d . . .
C203 C 0.6866(3) 0.12095(12) 0.77391(16) 0.0256(9) Uani 1 1 d . . .
H203 H 0.7373 0.1401 0.7609 0.031 Uiso 1 1 calc R . .
C204 C 0.7159(3) 0.07915(12) 0.78305(16) 0.0279(9) Uani 1 1 d . . .
H204 H 0.7865 0.0696 0.7763 0.034 Uiso 1 1 calc R . .
C205 C 0.6425(3) 0.04996(11) 0.80241(14) 0.0193(8) Uani 1 1 d . . .
C206 C 0.5367(3) 0.06482(11) 0.81266(13) 0.0164(7) Uani 1 1 d . . .
C207 C 0.5089(3) 0.10824(11) 0.80229(13) 0.0158(7) Uani 1 1 d . . .
H207 H 0.4383 0.1183 0.8084 0.019 Uiso 1 1 calc R . .
C208 C 0.6702(3) 0.00651(12) 0.81361(15) 0.0230(8) Uani 1 1 d . . .
H208 H 0.7391 -0.0042 0.8059 0.028 Uiso 1 1 calc R . .
C209 C 0.5989(3) -0.02048(12) 0.83546(15) 0.0224(8) Uani 1 1 d . . .
C210 C 0.4953(3) -0.00532(12) 0.84561(16) 0.0255(9) Uani 1 1 d . . .
H210 H 0.4460 -0.0241 0.8603 0.031 Uiso 1 1 calc R . .
C211 C 0.4651(3) 0.03604(11) 0.83456(15) 0.0218(8) Uani 1 1 d . . .
H211 H 0.3948 0.0457 0.8417 0.026 Uiso 1 1 calc R . .
C212 C 0.6387(3) -0.06418(12) 0.85442(15) 0.0242(9) Uani 1 1 d . . .
O23 O 0.5830(2) -0.08344(8) 0.88652(11) 0.0314(7) Uani 1 1 d . . .
O24 O 0.7252(2) -0.07941(9) 0.84198(13) 0.0373(7) Uani 1 1 d . . .
O31 O 0.6696(2) 0.27969(9) 0.82442(9) 0.0234(6) Uani 1 1 d . . .
O32 O 0.5190(2) 0.25982(8) 0.86045(9) 0.0201(6) Uani 1 1 d . . .
C301 C 0.6198(3) 0.27007(11) 0.86378(13) 0.0161(7) Uani 1 1 d . . .
C302 C 0.6871(3) 0.26980(11) 0.91933(13) 0.0165(7) Uani 1 1 d . . .
C303 C 0.8011(3) 0.27953(13) 0.92478(14) 0.0235(9) Uani 1 1 d . . .
H303 H 0.8336 0.2874 0.8937 0.028 Uiso 1 1 calc R . .
C304 C 0.8648(3) 0.27779(13) 0.97409(14) 0.0272(9) Uani 1 1 d . . .
H304 H 0.9411 0.2845 0.9770 0.033 Uiso 1 1 calc R . .
C305 C 0.8182(3) 0.26602(11) 1.02115(14) 0.0166(7) Uani 1 1 d . . .
C306 C 0.7032(3) 0.25711(11) 1.01584(13) 0.0156(7) Uani 1 1 d . . .
C307 C 0.6398(3) 0.25905(11) 0.96417(13) 0.0179(7) Uani 1 1 d . . .
H307 H 0.5631 0.2528 0.9605 0.022 Uiso 1 1 calc R . .
C308 C 0.8824(3) 0.26219(12) 1.07312(13) 0.0190(8) Uani 1 1 d . . .
H308 H 0.9596 0.2674 1.0769 0.023 Uiso 1 1 calc R . .
C309 C 0.8347(3) 0.25118(11) 1.11763(13) 0.0150(7) Uani 1 1 d . . .
C310 C 0.7203(3) 0.24303(13) 1.11212(14) 0.0229(8) Uani 1 1 d . . .
H310 H 0.6872 0.2353 1.1431 0.027 Uiso 1 1 calc R . .
C311 C 0.6563(3) 0.24606(13) 1.06269(13) 0.0214(8) Uani 1 1 d . . .
H311 H 0.5793 0.2406 1.0599 0.026 Uiso 1 1 calc R . .
C312 C 0.9024(3) 0.24637(11) 1.17203(13) 0.0165(7) Uani 1 1 d . . .
O33 O 0.8485(2) 0.24303(8) 1.21172(9) 0.0203(6) Uani 1 1 d . . .
O34 O 1.00571(19) 0.24614(8) 1.17499(9) 0.0188(5) Uani 1 1 d . . .
O41 O 0.36678(19) 0.13738(8) 0.94358(9) 0.0171(5) Uani 1 1 d . . .
O42 O 0.39145(19) 0.15361(7) 1.03176(9) 0.0161(5) Uani 1 1 d . . .
C401 C 0.4270(3) 0.14530(10) 0.98787(13) 0.0128(7) Uani 1 1 d . . .
C402 C 0.5483(3) 0.14557(11) 0.98666(13) 0.0137(7) Uani 1 1 d . . .
C403 C 0.5898(3) 0.14868(12) 0.93612(15) 0.0207(8) Uani 1 1 d . . .
H403 H 0.5403 0.1497 0.9032 0.025 Uiso 1 1 calc R . .
C404 C 0.7012(3) 0.15020(12) 0.93510(14) 0.0211(8) Uani 1 1 d . . .
H404 H 0.7286 0.1528 0.9014 0.025 Uiso 1 1 calc R . .
C405 C 0.7760(3) 0.14793(11) 0.98343(13) 0.0153(7) Uani 1 1 d . . .
C406 C 0.7347(3) 0.14332(12) 1.03380(13) 0.0171(7) Uani 1 1 d . . .
C407 C 0.6189(3) 0.14266(11) 1.03400(14) 0.0180(7) Uani 1 1 d . . .
H407 H 0.5900 0.1402 1.0674 0.022 Uiso 1 1 calc R . .
C408 C 0.8918(3) 0.14912(11) 0.98341(14) 0.0168(7) Uani 1 1 d . . .
H408 H 0.9207 0.1527 0.9502 0.020 Uiso 1 1 calc R . .
C409 C 0.9626(3) 0.14510(11) 1.03076(14) 0.0144(7) Uani 1 1 d . . .
C410 C 0.9207(3) 0.13987(12) 1.08089(14) 0.0214(8) Uani 1 1 d . . .
H410 H 0.9702 0.1367 1.1135 0.026 Uiso 1 1 calc R . .
C411 C 0.8105(3) 0.13933(13) 1.08213(14) 0.0230(8) Uani 1 1 d . . .
H411 H 0.7833 0.1362 1.1159 0.028 Uiso 1 1 calc R . .
C412 C 1.0836(3) 0.14533(10) 1.02977(13) 0.0123(7) Uani 1 1 d . . .
O43 O 1.14290(19) 0.13131(8) 1.07134(9) 0.0165(5) Uani 1 1 d . . .
O44 O 1.12068(19) 0.15950(7) 0.98825(9) 0.0163(5) Uani 1 1 d . . .
S1 S 0.15379(10) 0.03542(4) 1.00797(5) 0.0388(3) Uani 1 1 d . . .
N1 N 0.2621(3) 0.06570(11) 1.01111(15) 0.0338(9) Uani 1 1 d . . .
S2 S 0.37421(11) 0.03874(4) 1.00486(6) 0.0444(3) Uani 1 1 d . . .
S3 S 0.24034(16) -0.01713(4) 0.94376(5) 0.0659(5) Uani 1 1 d . . .
N3 N 0.2698(5) -0.04934(13) 0.99439(17) 0.0712(16) Uani 1 1 d . . .
S4 S 0.29240(13) -0.02677(4) 1.05220(5) 0.0508(4) Uani 1 1 d . . .
N4 N 0.1820(4) 0.00109(13) 1.05657(15) 0.0475(11) Uani 1 1 d . . .
N2 N 0.3471(5) 0.01433(14) 0.94740(17) 0.0701(16) Uani 1 1 d . . .
C11B C 0.4187(5) 0.02082(19) 0.6749(2) 0.0614(16) Uani 1 1 d . . .
H11C H 0.4828 0.0252 0.7005 0.074 Uiso 1 1 calc R . .
C12B C 0.3228(5) 0.04268(19) 0.6807(2) 0.0602(16) Uani 1 1 d . . .
H12C H 0.3216 0.0624 0.7097 0.072 Uiso 1 1 calc R . .
C13B C 0.2299(5) 0.03588(18) 0.6447(2) 0.0602(15) Uani 1 1 d . . .
H13C H 0.1637 0.0507 0.6487 0.072 Uiso 1 1 calc R . .
C14B C 0.2322(5) 0.0075(2) 0.6027(3) 0.0749(19) Uani 1 1 d . . .
H14C H 0.1670 0.0023 0.5782 0.090 Uiso 1 1 calc R . .
C15B C 0.3290(6) -0.01358(19) 0.5960(3) 0.081(2) Uani 1 1 d . . .
H15C H 0.3311 -0.0325 0.5662 0.097 Uiso 1 1 calc R . .
C16B C 0.4229(5) -0.00684(19) 0.6331(3) 0.0704(18) Uani 1 1 d . . .
H16C H 0.4895 -0.0214 0.6293 0.084 Uiso 1 1 calc R . .
C21B C 0.5779(5) 0.48740(19) 0.8459(2) 0.0652(17) Uani 1 1 d . . .
H21C H 0.5087 0.4782 0.8275 0.078 Uiso 1 1 calc R . .
C22B C 0.6033(6) 0.4810(2) 0.9002(3) 0.0779(19) Uani 1 1 d . . .
H22C H 0.5534 0.4661 0.9195 0.093 Uiso 1 1 calc R . .
C23B C 0.7027(7) 0.4965(3) 0.9275(3) 0.093(2) Uani 1 1 d . . .
H23C H 0.7211 0.4925 0.9655 0.112 Uiso 1 1 calc R . .
C24B C 0.7752(6) 0.5181(2) 0.8972(3) 0.086(2) Uani 1 1 d . . .
H24C H 0.8419 0.5302 0.9149 0.104 Uiso 1 1 calc R . .
C25B C 0.7493(6) 0.5215(2) 0.8433(3) 0.085(2) Uani 1 1 d . . .
H25C H 0.8001 0.5343 0.8225 0.102 Uiso 1 1 calc R . .
C26B C 0.6509(6) 0.5067(2) 0.8184(3) 0.0747(19) Uani 1 1 d . . .
H26C H 0.6332 0.5102 0.7803 0.090 Uiso 1 1 calc R . .
C31B C 0.5275(8) 0.6399(2) 0.8694(3) 0.093(3) Uani 1 1 d . . .
H31B H 0.5842 0.6432 0.8992 0.112 Uiso 1 1 calc R . .
C32B C 0.4233(8) 0.65537(19) 0.8721(3) 0.085(3) Uani 1 1 d . . .
H32B H 0.4078 0.6693 0.9041 0.102 Uiso 1 1 calc R . .
C33B C 0.3401(6) 0.65076(18) 0.8283(3) 0.078(2) Uani 1 1 d . . .
H33B H 0.2681 0.6616 0.8302 0.093 Uiso 1 1 calc R . .
C34B C 0.3637(6) 0.63013(19) 0.7820(2) 0.0687(19) Uani 1 1 d . . .
H34B H 0.3082 0.6265 0.7517 0.082 Uiso 1 1 calc R . .
C35B C 0.4680(7) 0.6151(2) 0.7808(2) 0.080(2) 