####################################################################### 
# 
# This file contains crystal structure data downloaded from the 
# Cambridge Structural Database (CSD) hosted by the Cambridge 
# Crystallographic Data Centre (CCDC).
# 
# Full information about CCDC data access policies and citation 
# guidelines are available at http://www.ccdc.cam.ac.uk/access/V1 
# 
# Audit and citation data items may have been added by the CCDC. 
# Please retain this information to preserve the provenance of 
# this file and to allow appropriate attribution of the data. 
# 
#######################################################################

data_MINVUA01
_audit_block_doi                 10.5517/ccvrm5c
_database_code_depnum_ccdc_archive 'CCDC 797263'
loop_
_citation_id
_citation_doi
_citation_year
1 10.1021/ja0276974 2002
_audit_update_record             
;
2010-10-19 deposited with the CCDC.	2024-07-11 downloaded from the CCDC.
;
#TrackingRef '2859_web_deposit_cif_file_2_LingtaoWang_1287475787.cif'

_audit_creation_date             2003-05-28
_database_code_NBS               795192
_chemical_name_common            MIL-53ht
_chemical_formula_moiety         '(C8 H5 Cr1 O5)n'
_chemical_name_systematic        
catena-((\m~4~-1,4-Benzenedicarboxylato)-(\m~2~-hydroxo)-chromium(iii))
_chemical_absolute_configuration unk
_diffrn_ambient_temperature      523
_exptl_crystal_density_meas      1.04
_exptl_crystal_density_diffrn    1.042
#These two values have been output from a single CSD field.
_refine_ls_R_factor_gt           0.1
_refine_ls_wR_factor_gt          0.1
_diffrn_radiation_probe          x-ray
_symmetry_cell_setting           orthorhombic
_symmetry_space_group_name_H-M   'I m c m'
_symmetry_Int_Tables_number      74
loop_
_symmetry_equiv_pos_site_id
_symmetry_equiv_pos_as_xyz
1 x,y,z
2 1/2-x,1/2-y,1/2+z
3 x,1/2-y,1/2-z
4 1/2+x,1/2+y,1/2+z
5 -x,-y,z
6 1/2+x,-y,-z
7 1/2-x,y,-z
8 -x,1/2+y,1/2-z
9 -x,-y,-z
10 1/2+x,1/2+y,1/2-z
11 -x,1/2+y,1/2+z
12 1/2-x,1/2-y,1/2-z
13 x,y,-z
14 1/2-x,y,z
15 1/2+x,-y,z
16 x,1/2-y,1/2+z
_cell_length_a                   16.733(1)
_cell_length_b                   13.038(1)
_cell_length_c                   6.812(1)
_cell_angle_alpha                90
_cell_angle_beta                 90
_cell_angle_gamma                90
_cell_volume                     1486.14
_cell_formula_units_Z            4
loop_
_atom_site_label
_atom_site_type_symbol
_atom_site_fract_x
_atom_site_fract_y
_atom_site_fract_z
Cr1 Cr 0.250 -0.250 -0.250
O1 O 0.250 -0.186(1) -0.500
O2 O 0.334(1) -0.343(1) -0.656(1)
C1 C 0.460(1) -0.482(1) -0.696(1)
C2 C 0.446(1) -0.461(2) -0.500
C3 C 0.375(1) -0.388(2) -0.500
O1A O 0.25 -0.314 0
Cr1A Cr 0.25 -0.25 -0.75
O2L O 0.334 -0.343 -0.344
O2O O 0.334 -0.157 -0.156
O2A O 0.166 -0.157 -0.156
O2F O 0.166 -0.343 -0.344
C1L C 0.46 -0.482 -0.304
C1D C 0.54 -0.518 -0.696
C1H C 0.54 -0.518 -0.304
C2D C 0.554 -0.539 -0.5
C3D C 0.625 -0.612 -0.5
O2H O 0.666 -0.657 -0.344
O2D O 0.666 -0.657 -0.656
Cr1D Cr 0.75 -0.75 -0.25
Cr1C Cr 0.75 -0.75 -0.75

#END



