####################################################################### 
# 
# This file contains crystal structure data downloaded from the 
# Cambridge Structural Database (CSD) hosted by the Cambridge 
# Crystallographic Data Centre (CCDC).
# 
# Full information about CCDC data access policies and citation 
# guidelines are available at http://www.ccdc.cam.ac.uk/access/V1 
# 
# Audit and citation data items may have been added by the CCDC. 
# Please retain this information to preserve the provenance of 
# this file and to allow appropriate attribution of the data. 
# 
#######################################################################

data_2
_audit_block_doi                 10.5517/cc62hpf
_database_code_depnum_ccdc_archive 'CCDC 181154'
loop_
_citation_id
_citation_doi
_citation_year
1 10.1039/b201381a 2002
_audit_update_record             
;
2002-03-06 deposited with the CCDC.	2024-07-11 downloaded from the CCDC.
;

_audit_creation_method           'Manually at CCDC'

_chemical_name_systematic        
; 
? 
;
_chemical_name_common            ?
_chemical_formula_sum            'Cr O5 C8 H5'
_chemical_formula_moiety         '?    '

_chemical_formula_weight         233.12

_symmetry_cell_setting           Orthorhombic
_symmetry_space_group_name_H-M   Imma
_symmetry_Int_Tables_number      ?

loop_
_symmetry_equiv_pos_as_xyz
?
?
?

_cell_length_a                   6.812(1)
_cell_length_b                   16.733(1)
_cell_length_c                   13.038(1)
_cell_angle_alpha                90.00
_cell_angle_beta                 90.00
_cell_angle_gamma                90.00
_cell_volume                     1486.1
_cell_formula_units_Z            4

_exptl_crystal_density_diffrn    1.04

_diffrn_ambient_temperature      523

_diffrn_source                   ?

_diffrn_radiation_probe          x-ray

_chemical_melting_point          ?

_exptl_crystal_description       ?
_exptl_crystal_colour            ' ?    '
_exptl_special_details           
;
Table 1 : Crystal data and structure refinement parameters  for 
CrIII(OH)(O2C-C6H4-CO2).(HO2C-C6H4-CO2H)0.75  (labelled MIL-53as) and 
CrIII(OH)(O2C-C6H4-CO2) (labelled MIL-53ht)

Formula	CrIII(OH)(O2C-C6H4-CO2).( HO2C-C6H4-CO2H)0.75
	CrIII(OH)(O2C-C6H4-CO2)
Chemical formula 	CrO8C14H11	CrO5C8H5
Molar weight (g.mol-1)	359.23	233.12
Calculated density (g.cm-3)	1.65	1.04
Crystal system	Orthorhombic	Orthorhombic
Space group	P n m a	I m m a
a (\~A )	17.340(1)	6.812(1)
b (\~A )	6.822(1)	16.733(1)
c (\~A )	12.178(1)	13.038(1)
V (\~A 3)	1440.6(1)	1486.1(1)
Z	4	4
Radiation (?Cu (\~A ): K?1, K?2)	1.54059, 1.54439	1.54059, 1.54439
?=K?2/K?1	0.4	0.5
Temperature  (\^A\%K)	296	523
2?  range (\^A\%)	7 - 70	5 - 80
N. reflections	355	271
N. atoms	18	6
N. intensity-dependent parameters	42
	13
N. profile parameters	29	20
RP	11.9	10.0
RWP	15.8	13.2
RB	6.6	7.9
RF	4.9	6.2
Secondary phase	Terephthalic acid	Eskola\~A?te Cr2O3
;

_refine_ls_R_factor_gt           0.062


loop_
_atom_site_label
_atom_site_fract_x
_atom_site_fract_y
_atom_site_fract_z
_atom_site_U_iso_or_equiv
#_atom_site_occupancy 
Cr 0.25 0.25 0.75 0.25
O(1) 0 0.25 0.686(1) 0.25
O(2) 0.150(1) 0.166(1) 0.843(1) 1.0
C(1) -0.196(1) 0.040(1) 0.982(1) 1.0
C(2) 0 0.054(1) 0.961(2) 0.5
C(3) 0 0.125(1) 0.888(2) 0.5


loop_
_geom_bond_atom_site_label_1
_geom_bond_atom_site_label_2
_geom_bond_distance
Cr O(1) 1.90(1)
Cr O(2) 1.96(1)
O(2) C(3) 1.39(2)
C(2) C(3) 1.53(2)
C(1) C(1) 1.42(2)
C(1) C(2) 1.38(2)

loop_
_atom_site_aniso_label
_atom_site_aniso_U_11
_atom_site_aniso_U_22
_atom_site_aniso_U_33
_atom_site_aniso_U_12
_atom_site_aniso_U_13
_atom_site_aniso_U_23
? ? ? ? ? ? ?


loop_
_geom_angle_atom_site_label_1
_geom_angle_atom_site_label_2
_geom_angle_atom_site_label_3
_geom_angle
? ? ? ?

loop_
_geom_torsion_atom_site_label_1
_geom_torsion_atom_site_label_2
_geom_torsion_atom_site_label_3
_geom_torsion_atom_site_label_4
_geom_torsion
_geom_torsion_site_symmetry_1
_geom_torsion_site_symmetry_2
_geom_torsion_site_symmetry_3
_geom_torsion_site_symmetry_4
_geom_torsion_publ_flag
? ? ? ? ? ? ? ? ? ?

#END
#Attach the next CIF data_number_n+1 below



