####################################################################### 
# 
# This file contains crystal structure data downloaded from the 
# Cambridge Structural Database (CSD) hosted by the Cambridge 
# Crystallographic Data Centre (CCDC).
# 
# Full information about CCDC data access policies and citation 
# guidelines are available at http://www.ccdc.cam.ac.uk/access/V1 
# 
# Audit and citation data items may have been added by the CCDC. 
# Please retain this information to preserve the provenance of 
# this file and to allow appropriate attribution of the data. 
# 
#######################################################################

data_mo01223b
_audit_block_doi                 10.5517/cc107phf
_database_code_depnum_ccdc_archive 'CCDC 930914'
loop_
_citation_id
_citation_doi
_citation_year
1 10.1021/ic400751n 2013
_audit_update_record             
;
2013-10-22 deposited with the CCDC.	2024-07-11 downloaded from the CCDC.
;

_audit_creation_method           SHELXL-97
_chemical_name_systematic        
; 
 ? 
;
_chemical_name_common            ?
_chemical_melting_point          ?
_chemical_formula_moiety         
'C96 H48 Ag3 N24 O24, 3(B F4), 2(C6 H6), C6, 2(C3 H7 N O)'
_chemical_formula_sum            'C120 H80 Ag3 B3 F12 N26 O26'
_chemical_formula_weight         2886.14

loop_
_atom_type_symbol
_atom_type_description
_atom_type_scat_dispersion_real
_atom_type_scat_dispersion_imag
_atom_type_scat_source
C C 0.0033 0.0016 'International Tables Vol C Tables 4.2.6.8 and 6.1.1.4'
H H 0.0000 0.0000 'International Tables Vol C Tables 4.2.6.8 and 6.1.1.4'
N N 0.0061 0.0033 'International Tables Vol C Tables 4.2.6.8 and 6.1.1.4'
O O 0.0106 0.0060 'International Tables Vol C Tables 4.2.6.8 and 6.1.1.4'
Ag Ag -0.8971 1.1015 'International Tables Vol C Tables 4.2.6.8 and 6.1.1.4'
F F 0.0171 0.0103 'International Tables Vol C Tables 4.2.6.8 and 6.1.1.4'
B B 0.0013 0.0007 'International Tables Vol C Tables 4.2.6.8 and 6.1.1.4'

_symmetry_cell_setting           Orthorhombic
_symmetry_space_group_name_H-M   Pba2
_symmetry_space_group_name_Hall  'P 2 -2ab'

loop_
_symmetry_equiv_pos_as_xyz
'x, y, z'
'-x, -y, z'
'x+1/2, -y+1/2, z'
'-x+1/2, y+1/2, z'

_cell_length_a                   24.111(2)
_cell_length_b                   39.900(4)
_cell_length_c                   7.9191(8)
_cell_angle_alpha                90.00
_cell_angle_beta                 90.00
_cell_angle_gamma                90.00
_cell_volume                     7618.4(13)
_cell_formula_units_Z            2
_cell_measurement_temperature    296(2)
_cell_measurement_reflns_used    9471
_cell_measurement_theta_min      2.57
_cell_measurement_theta_max      27.42

_exptl_crystal_description       block
_exptl_crystal_colour            colorless
_exptl_crystal_size_max          0.15
_exptl_crystal_size_mid          0.12
_exptl_crystal_size_min          0.06
_exptl_crystal_density_meas      ?
_exptl_crystal_density_diffrn    1.258
_exptl_crystal_density_method    'not measured'
_exptl_crystal_F_000             2908
_exptl_absorpt_coefficient_mu    0.465
_exptl_absorpt_correction_type   multi-scan
_exptl_absorpt_correction_T_min  0.9336
_exptl_absorpt_correction_T_max  0.9727
_exptl_absorpt_process_details   sadabs

_exptl_special_details           
; 
 ? 
;

_diffrn_ambient_temperature      296(2)
_diffrn_radiation_wavelength     0.71073
_diffrn_radiation_type           MoK\a
_diffrn_radiation_source         'fine-focus sealed tube'
_diffrn_radiation_monochromator  graphite
_diffrn_measurement_device_type  'Bruker APEX-II CCD'
_diffrn_measurement_method       '\f and \w scans'
_diffrn_detector_area_resol_mean ?
_diffrn_standards_number         0
_diffrn_standards_interval_count ?
_diffrn_standards_interval_time  ?
_diffrn_standards_decay_%        ?
_diffrn_reflns_number            35095
_diffrn_reflns_av_R_equivalents  0.0300
_diffrn_reflns_av_sigmaI/netI    0.0374
_diffrn_reflns_limit_h_min       -17
_diffrn_reflns_limit_h_max       28
_diffrn_reflns_limit_k_min       -46
_diffrn_reflns_limit_k_max       47
_diffrn_reflns_limit_l_min       -9
_diffrn_reflns_limit_l_max       9
_diffrn_reflns_theta_min         1.75
_diffrn_reflns_theta_max         25.01
_reflns_number_total             13378
_reflns_number_gt                13277
_reflns_threshold_expression     >2sigma(I)

_computing_data_collection       'Bruker APEX2'
_computing_cell_refinement       'Bruker SAINT'
_computing_data_reduction        'Bruker SAINT'
_computing_structure_solution    'SHELXS-97 (Sheldrick, 1990)'
_computing_structure_refinement  'SHELXL-97 (Sheldrick, 1997)'
_computing_molecular_graphics    'Bruker SHELXTL'
_computing_publication_material  'Bruker SHELXTL'

_refine_special_details          
; 
 Refinement of F^2^ against ALL reflections.  The weighted R-factor wR and 
 goodness of fit S are based on F^2^, conventional R-factors R are based 
 on F, with F set to zero for negative F^2^. The threshold expression of 
 F^2^ > 2sigma(F^2^) is used only for calculating R-factors(gt) etc. and is 
 not relevant to the choice of reflections for refinement.  R-factors based 
 on F^2^ are statistically about twice as large as those based on F, and R- 
 factors based on ALL data will be even larger. 
;

_refine_ls_structure_factor_coef Fsqd
_refine_ls_matrix_type           full
_refine_ls_weighting_scheme      calc
_refine_ls_weighting_details     
'calc w=1/[\s^2^(Fo^2^)+(0.1254P)^2^+89.4716P] where P=(Fo^2^+2Fc^2^)/3'
_atom_sites_solution_primary     direct
_atom_sites_solution_secondary   difmap
_atom_sites_solution_hydrogens   geom
_refine_ls_hydrogen_treatment    mixed
_refine_ls_extinction_method     none
_refine_ls_extinction_coef       ?
_refine_ls_abs_structure_details 'Flack H D (1983), Acta Cryst. A39, 876-881'
_refine_ls_abs_structure_Flack   0.0(2)
_refine_ls_number_reflns         13378
_refine_ls_number_parameters     858
_refine_ls_number_restraints     76
_refine_ls_R_factor_all          0.1135
_refine_ls_R_factor_gt           0.1130
_refine_ls_wR_factor_ref         0.2961
_refine_ls_wR_factor_gt          0.2958
_refine_ls_goodness_of_fit_ref   1.221
_refine_ls_restrained_S_all      1.220
_refine_ls_shift/su_max          0.521
_refine_ls_shift/su_mean         0.019

loop_
_atom_site_label
_atom_site_type_symbol
_atom_site_fract_x
_atom_site_fract_y
_atom_site_fract_z
_atom_site_U_iso_or_equiv
_atom_site_adp_type
_atom_site_occupancy
_atom_site_symmetry_multiplicity
_atom_site_calc_flag
_atom_site_refinement_flags
_atom_site_disorder_assembly
_atom_site_disorder_group
Ag1 Ag 0.94411(3) 0.15667(2) 0.86889(15) 0.0348(3) Uani 1 1 d . . .
Ag2 Ag 0.5000 0.0000 0.64680(15) 0.0246(3) Uani 1 2 d S . .
N1 N 0.5274(5) 0.0577(3) 0.6965(17) 0.043(3) Uani 1 1 d . . .
N2 N 0.5706(4) 0.1223(2) 0.7489(11) 0.0197(19) Uani 1 1 d U . .
N3 N 0.8484(4) 0.1789(3) 0.8467(17) 0.042(3) Uani 1 1 d . . .
N4 N 0.7342(4) 0.1833(2) 0.8251(11) 0.0218(19) Uani 1 1 d . . .
N5 N 0.5616(4) 0.2388(2) 0.8235(11) 0.028(2) Uani 1 1 d . . .
N6 N 0.4961(4) 0.2956(2) 0.846(2) 0.046(3) Uani 1 1 d . . .
N7 N 0.9090(4) 0.1020(3) 0.8459(14) 0.035(2) Uani 1 1 d . . .
N8 N 0.8621(4) 0.0399(2) 0.8187(11) 0.0199(19) Uani 1 1 d . . .
N9 N 0.5934(3) -0.0188(3) 0.6718(12) 0.027(2) Uani 1 1 d . . .
N10 N 0.7060(4) -0.0280(3) 0.7269(11) 0.022(2) Uani 1 1 d . . .
N11 N 0.8797(4) -0.0776(2) 0.8292(13) 0.028(2) Uani 1 1 d . . .
N12 N 0.9612(4) -0.1267(3) 0.8754(16) 0.040(3) Uani 1 1 d . . .
O1 O 0.5761(4) 0.1292(2) 0.4568(10) 0.037(2) Uani 1 1 d . . .
O2 O 0.5636(5) 0.1123(3) 1.0341(10) 0.045(3) Uani 1 1 d . . .
O3 O 0.7434(4) 0.1919(3) 0.5414(10) 0.040(2) Uani 1 1 d . . .
O4 O 0.7291(4) 0.1750(3) 1.1144(11) 0.045(2) Uani 1 1 d . . .
O5 O 0.5546(4) 0.2317(2) 1.1139(10) 0.037(2) Uani 1 1 d . . .
O6 O 0.5682(5) 0.2480(2) 0.5376(10) 0.040(2) Uani 1 1 d . . .
O7 O 0.7209(3) -0.0230(2) 0.4432(9) 0.0283(19) Uani 1 1 d . . .
O8 O 0.6861(3) -0.0324(3) 1.0134(9) 0.034(2) Uani 1 1 d . . .
O9 O 0.8349(5) 0.0429(2) 1.0973(14) 0.052(3) Uani 1 1 d . . .
O10 O 0.8914(4) 0.0379(2) 0.5385(11) 0.034(2) Uani 1 1 d . . .
O11 O 0.8900(4) -0.0826(2) 0.5382(11) 0.036(2) Uani 1 1 d . . .
O12 O 0.8710(4) -0.0746(2) 1.1192(12) 0.043(2) Uani 1 1 d . . .
C1 C 0.5362(5) 0.0680(3) 0.8541(19) 0.040(3) Uani 1 1 d . . .
H1A H 0.5299 0.0542 0.9469 0.048 Uiso 1 1 calc R . .
C2 C 0.5562(6) 0.1020(3) 0.872(2) 0.045(3) Uani 1 1 d . . .
C3 C 0.5641(5) 0.1101(3) 0.5970(14) 0.028(3) Uani 1 1 d . . .
C4 C 0.5429(5) 0.0784(3) 0.5622(15) 0.027(2) Uiso 1 1 d . . .
H4A H 0.5391 0.0711 0.4513 0.033 Uiso 1 1 calc R . .
C5 C 0.6009(5) 0.1602(3) 0.4913(12) 0.020(2) Uani 1 1 d U . .
C6 C 0.6583(6) 0.1599(3) 0.5061(15) 0.034(3) Uani 1 1 d . . .
H6A H 0.6784 0.1401 0.5001 0.041 Uiso 1 1 calc R . .
C7 C 0.6840(5) 0.1901(3) 0.5300(13) 0.021(2) Uani 1 1 d . . .
C8 C 0.6544(5) 0.2196(3) 0.5453(12) 0.026(2) Uani 1 1 d U . .
H8A H 0.6724 0.2398 0.5658 0.032 Uiso 1 1 calc R . .
C9 C 0.5961(5) 0.2182(3) 0.5288(14) 0.029(3) Uani 1 1 d . . .
C10 C 0.5712(4) 0.1887(3) 0.5083(12) 0.018(2) Uani 1 1 d U . .
H10A H 0.5327 0.1877 0.5056 0.022 Uiso 1 1 calc R . .
C11 C 0.5889(5) 0.1443(3) 1.0512(12) 0.022(2) Uani 1 1 d U . .
C12 C 0.6442(6) 0.1448(3) 1.0685(13) 0.035(3) Uani 1 1 d . . .
H12A H 0.6644 0.1250 1.0651 0.042 Uiso 1 1 calc R . .
C13 C 0.6708(5) 0.1752(3) 1.0913(13) 0.024(2) Uani 1 1 d . . .
C14 C 0.6431(6) 0.2040(3) 1.1012(14) 0.033(3) Uani 1 1 d . . .
H14A H 0.6617 0.2243 1.1131 0.040 Uiso 1 1 calc R . .
C15 C 0.5870(5) 0.2028(3) 1.0934(13) 0.024(2) Uani 1 1 d . . .
C16 C 0.5583(5) 0.1725(3) 1.0693(12) 0.029(3) Uani 1 1 d . . .
H16A H 0.5197 0.1719 1.0659 0.035 Uiso 1 1 calc R . .
C17 C 0.5433(5) 0.2503(3) 0.9673(13) 0.020(2) Uani 1 1 d . . .
C18 C 0.5114(6) 0.2792(3) 0.9908(18) 0.038(3) Uani 1 1 d U . .
H18A H 0.5013 0.2869 1.0974 0.046 Uiso 1 1 calc R . .
C19 C 0.5154(6) 0.2860(3) 0.7022(17) 0.037(3) Uani 1 1 d . . .
H19A H 0.5072 0.2982 0.6051 0.044 Uiso 1 1 calc R . .
C20 C 0.5495(5) 0.2566(3) 0.6919(15) 0.026(2) Uani 1 1 d U . .
C21 C 0.7663(5) 0.1858(3) 0.6820(15) 0.032(3) Uani 1 1 d . . .
C22 C 0.8260(6) 0.1829(4) 0.699(2) 0.047(4) Uani 1 1 d . . .
H22A H 0.8483 0.1840 0.6030 0.057 Uiso 1 1 calc R . .
C23 C 0.8168(5) 0.1757(3) 0.9922(18) 0.036(3) Uani 1 1 d . . .
H23A H 0.8325 0.1715 1.0975 0.043 Uiso 1 1 calc R . .
C24 C 0.7600(5) 0.1791(3) 0.9689(13) 0.023(2) Uani 1 1 d . . .
C25 C 0.9108(5) 0.0841(3) 0.704(2) 0.041(3) Uani 1 1 d . . .
H25A H 0.9298 0.0926 0.6113 0.049 Uiso 1 1 calc R . .
C26 C 0.8867(4) 0.0549(3) 0.6914(13) 0.022(2) Uani 1 1 d . . .
C27 C 0.8848(6) 0.0899(4) 0.978(3) 0.051(4) Uani 1 1 d . . .
H27A H 0.8829 0.1019 1.0789 0.061 Uiso 1 1 calc R . .
C28 C 0.8605(5) 0.0560(3) 0.9619(14) 0.024(2) Uani 1 1 d U . .
C29 C 0.8614(5) 0.0061(3) 0.5273(15) 0.032(3) Uani 1 1 d . . .
C30 C 0.8905(5) -0.0222(3) 0.5400(14) 0.021(2) Uani 1 1 d . . .
H30A H 0.9289 -0.0220 0.5522 0.026 Uiso 1 1 calc R . .
C31 C 0.8603(4) -0.0525(3) 0.5341(13) 0.024(2) Uani 1 1 d U . .
C32 C 0.8046(5) -0.0526(3) 0.4941(13) 0.025(2) Uani 1 1 d . . .
H32A H 0.7863 -0.0728 0.4753 0.030 Uiso 1 1 calc R . .
C33 C 0.7766(4) -0.0231(3) 0.4823(12) 0.021(2) Uani 1 1 d U . .
C34 C 0.8042(5) 0.0078(2) 0.4960(12) 0.020(2) Uani 1 1 d . . .
H34A H 0.7857 0.0282 0.4849 0.023 Uiso 1 1 calc R . .
C35 C 0.8170(5) 0.0099(3) 1.0836(14) 0.028(2) Uani 1 1 d . . .
C36 C 0.8538(5) -0.0147(4) 1.1000(14) 0.032(3) Uani 1 1 d . . .
H36A H 0.8911 -0.0101 1.1183 0.039 Uiso 1 1 calc R . .
C37 C 0.8343(5) -0.0484(3) 1.0887(13) 0.026(2) Uani 1 1 d . . .
C38 C 0.7791(5) -0.0543(3) 1.0593(14) 0.030(3) Uani 1 1 d . . .
H38A H 0.7656 -0.0760 1.0516 0.036 Uiso 1 1 calc R . .
C39 C 0.7441(4) -0.0274(3) 1.0414(14) 0.025(2) Uani 1 1 d . . .
C40 C 0.7627(6) 0.0047(3) 1.0516(14) 0.030(3) Uani 1 1 d . . .
H40A H 0.7386 0.0227 1.0369 0.036 Uiso 1 1 calc R . .
C41 C 0.6855(4) -0.0229(3) 0.5787(14) 0.022(2) Uani 1 1 d . . .
C42 C 0.6274(5) -0.0178(3) 0.5485(18) 0.036(3) Uani 1 1 d . . .
H42A H 0.6146 -0.0138 0.4396 0.044 Uiso 1 1 calc R . .
C43 C 0.6124(5) -0.0244(3) 0.8272(18) 0.039(3) Uani 1 1 d . . .
H43A H 0.5885 -0.0260 0.9189 0.047 Uiso 1 1 calc R . .
C44 C 0.6681(5) -0.0276(4) 0.8464(18) 0.040(3) Uani 1 1 d . . .
C45 C 0.9043(5) -0.0927(3) 0.7039(16) 0.029(3) Uiso 1 1 d . . .
C46 C 0.9446(6) -0.1170(4) 0.714(2) 0.044(4) Uani 1 1 d . . .
H46A H 0.9601 -0.1265 0.6181 0.053 Uiso 1 1 calc R . .
C47 C 0.9351(6) -0.1127(4) 1.001(2) 0.049(4) Uani 1 1 d . . .
H47A H 0.9427 -0.1197 1.1103 0.059 Uiso 1 1 calc R . .
C48 C 0.8958(5) -0.0873(3) 0.9737(16) 0.028(3) Uiso 1 1 d . . .
C49 C 0.7668(11) 0.0978(5) 0.631(5) 0.105(11) Uani 1 1 d . . .
H49A H 0.7931 0.1074 0.7023 0.126 Uiso 1 1 calc R . .
C50 C 0.7755(12) 0.1010(7) 0.458(6) 0.129(15) Uani 1 1 d . . .
H50A H 0.8057 0.1128 0.4158 0.154 Uiso 1 1 calc R . .
C51 C 0.7377(11) 0.0859(6) 0.353(4) 0.081(6) Uani 1 1 d U . .
H51A H 0.7420 0.0866 0.2362 0.098 Uiso 1 1 calc R . .
C52 C 0.6956(12) 0.0705(5) 0.421(3) 0.086(9) Uani 1 1 d . . .
H52A H 0.6687 0.0624 0.3477 0.103 Uiso 1 1 calc R . .
C53 C 0.6865(7) 0.0649(4) 0.591(6) 0.115(14) Uani 1 1 d . . .
H53A H 0.6582 0.0507 0.6264 0.138 Uiso 1 1 calc R . .
C54 C 0.7210(11) 0.0812(5) 0.710(3) 0.079(7) Uani 1 1 d . . .
H54A H 0.7147 0.0812 0.8258 0.095 Uiso 1 1 calc R . .
B1 B 0.9479(8) 0.1488(4) 0.334(2) 0.044(4) Uani 1 1 d U . .
F1 F 0.9429(5) 0.1601(3) 0.5033(11) 0.066(3) Uani 1 1 d . . .
F2 F 0.9685(5) 0.1156(2) 0.3332(13) 0.071(3) Uani 1 1 d . . .
F3 F 0.8940(10) 0.1433(5) 0.296(3) 0.219(16) Uani 1 1 d . . .
F4 F 0.9878(16) 0.1672(6) 0.283(5) 0.31(3) Uani 1 1 d . . .
B2 B 0.5000 0.0000 0.199(4) 0.074(10) Uani 1 2 d S . .
F5 F 0.5000 0.0000 0.0340(13) 0.031(2) Uani 1 2 d S . .
F6 F 0.5614(10) 0.0195(7) 0.235(3) 0.077(8) Uani 0.50 1 d P . .
F7 F 0.4726(11) 0.0306(7) 0.251(4) 0.110(11) Uani 0.50 1 d P . .
F8 F 0.527(2) 0.0132(7) 0.306(3) 0.121(15) Uani 0.50 1 d P . .
O13 O 0.872(2) 0.8213(15) 0.303(3) 0.45(5) Uani 1 1 d . . .
N13 N 0.7886(18) 0.8521(5) 0.250(4) 0.88(11) Uani 1 1 d D . .
C55 C 0.0000 1.0000 0.249(3) 0.13(2) Uani 1 2 d S . .
C56 C 0.0066(7) 0.9689(7) 0.165(4) 0.094(10) Uani 1 1 d . . .
C57 C 0.0034(6) 0.9706(6) -0.016(4) 0.083(8) Uani 1 1 d . . .
C58 C 0.0000 1.0000 -0.097(5) 0.077(9) Uani 1 2 d S . .
C59 C 0.856(3) 0.8494(16) 0.267(11) 0.41(7) Uani 1 1 d . . .
H59A H 0.8799 0.8675 0.2517 0.496 Uiso 1 1 calc R . .
C60 C 0.7580(14) 0.8222(6) 0.268(3) 0.23(3) Uani 1 1 d D . .
H60A H 0.7192 0.8270 0.2563 0.344 Uiso 1 1 calc R . .
H60B H 0.7649 0.8127 0.3775 0.344 Uiso 1 1 calc R . .
H60C H 0.7691 0.8066 0.1824 0.344 Uiso 1 1 calc R . .
C61 C 0.7578(9) 0.8799(6) 0.305(3) 0.153(18) Uani 1 1 d D . .
H61A H 0.7190 0.8755 0.2900 0.230 Uiso 1 1 calc R . .
H61B H 0.7682 0.8993 0.2410 0.230 Uiso 1 1 calc R . .
H61C H 0.7652 0.8839 0.4228 0.230 Uiso 1 1 calc R . .

loop_
_atom_site_aniso_label
_atom_site_aniso_U_11
_atom_site_aniso_U_22
_atom_site_aniso_U_33
_atom_site_aniso_U_23
_atom_site_aniso_U_13
_atom_site_aniso_U_12
Ag1 0.0243(4) 0.0212(4) 0.0588(6) -0.0012(5) 0.0052(5) -0.0066(3)
Ag2 0.0182(5) 0.0243(6) 0.0314(6) 0.000 0.000 -0.0018(5)
N1 0.035(6) 0.027(5) 0.068(8) -0.001(5) -0.035(6) -0.006(4)
N2 0.022(4) 0.021(4) 0.016(4) -0.015(3) -0.001(3) -0.005(3)
N3 0.025(5) 0.050(6) 0.050(7) -0.018(6) 0.002(6) 0.006(4)
N4 0.022(4) 0.028(5) 0.015(4) -0.005(4) 0.003(4) 0.000(4)
N5 0.045(6) 0.026(5) 0.013(4) 0.003(4) 0.000(4) 0.015(4)
N6 0.039(6) 0.019(5) 0.080(9) -0.002(6) -0.008(7) 0.010(4)
N7 0.035(5) 0.037(5) 0.032(6) 0.004(5) -0.005(5) -0.009(4)
N8 0.024(4) 0.017(4) 0.019(4) -0.002(3) 0.000(4) -0.005(3)
N9 0.007(4) 0.051(6) 0.022(5) -0.002(4) -0.002(4) -0.001(4)
N10 0.007(4) 0.040(6) 0.019(4) 0.003(4) -0.008(3) 0.007(4)
N11 0.025(5) 0.030(5) 0.030(5) -0.018(4) -0.002(4) 0.012(4)
N12 0.034(5) 0.044(6) 0.042(6) -0.006(6) -0.016(6) 0.023(5)
O1 0.060(6) 0.040(5) 0.012(4) 0.005(3) 0.011(4) -0.016(4)
O2 0.081(7) 0.045(6) 0.011(4) 0.010(4) -0.013(4) -0.033(5)
O3 0.024(4) 0.076(7) 0.019(4) -0.004(4) 0.005(3) 0.003(4)
O4 0.042(5) 0.073(7) 0.020(4) 0.004(4) -0.002(4) 0.010(5)
O5 0.058(6) 0.043(5) 0.012(4) 0.006(4) 0.006(4) 0.020(4)
O6 0.068(6) 0.036(5) 0.015(4) 0.010(4) 0.009(4) 0.027(5)
O7 0.016(4) 0.060(6) 0.009(3) 0.000(3) 0.002(3) 0.005(4)
O8 0.018(4) 0.075(7) 0.010(4) 0.005(4) 0.008(3) -0.006(4)
O9 0.066(7) 0.033(5) 0.057(7) -0.020(5) 0.024(6) -0.021(5)
O10 0.048(5) 0.028(4) 0.026(4) -0.005(3) 0.008(4) -0.018(4)
O11 0.048(5) 0.030(5) 0.031(4) -0.005(4) -0.017(4) 0.031(4)
O12 0.037(5) 0.052(6) 0.041(5) 0.028(5) 0.007(4) 0.020(4)
C1 0.035(6) 0.046(7) 0.039(7) 0.008(7) 0.015(6) -0.021(5)
C2 0.046(7) 0.043(7) 0.045(7) 0.010(8) -0.001(7) -0.023(6)
C3 0.045(7) 0.024(6) 0.014(5) 0.005(4) 0.010(5) -0.003(5)
C5 0.032(5) 0.022(5) 0.007(4) 0.006(4) 0.008(4) -0.004(4)
C6 0.044(7) 0.040(7) 0.019(6) 0.009(5) 0.019(5) 0.017(6)
C7 0.025(5) 0.026(5) 0.014(5) -0.012(4) -0.001(4) -0.002(4)
C8 0.040(6) 0.034(5) 0.005(4) -0.001(4) 0.009(4) -0.002(5)
C9 0.036(6) 0.034(6) 0.017(5) 0.006(5) 0.000(5) 0.018(5)
C10 0.018(4) 0.029(5) 0.009(4) 0.000(4) 0.006(4) 0.003(4)
C11 0.036(5) 0.023(5) 0.008(4) 0.003(4) 0.010(4) -0.003(4)
C12 0.067(9) 0.029(6) 0.009(5) 0.002(4) -0.011(5) 0.022(6)
C13 0.032(6) 0.028(6) 0.012(5) 0.010(4) -0.005(4) -0.001(5)
C14 0.062(8) 0.022(6) 0.016(5) -0.002(4) 0.004(5) -0.007(6)
C15 0.037(6) 0.029(6) 0.007(4) 0.002(4) 0.001(4) 0.008(5)
C16 0.034(6) 0.048(7) 0.006(5) -0.001(5) 0.011(4) 0.014(5)
C17 0.024(5) 0.025(6) 0.011(4) -0.005(4) -0.005(4) 0.011(4)
C18 0.050(7) 0.024(5) 0.041(6) -0.014(5) 0.004(5) 0.018(5)
C19 0.047(8) 0.030(6) 0.034(7) -0.009(5) -0.017(6) 0.025(6)
C20 0.026(5) 0.027(5) 0.025(5) 0.020(4) -0.004(4) 0.004(4)
C21 0.036(7) 0.037(6) 0.021(6) -0.004(5) 0.008(5) 0.011(5)
C22 0.032(7) 0.043(8) 0.067(10) -0.006(7) 0.019(7) -0.007(6)
C23 0.024(6) 0.037(7) 0.046(8) -0.006(6) -0.004(6) 0.009(5)
C2