####################################################################### 
# 
# This file contains crystal structure data downloaded from the 
# Cambridge Structural Database (CSD) hosted by the Cambridge 
# Crystallographic Data Centre (CCDC).
# 
# Full information about CCDC data access policies and citation 
# guidelines are available at http://www.ccdc.cam.ac.uk/access/V1 
# 
# Audit and citation data items may have been added by the CCDC. 
# Please retain this information to preserve the provenance of 
# this file and to allow appropriate attribution of the data. 
# 
#######################################################################

data_kujncor
_audit_block_doi                 10.5517/ccx0t90
_database_code_depnum_ccdc_archive 'CCDC 834932'
loop_
_citation_id
_citation_doi
_citation_year
1 10.1039/C3CE41586D 2013
_audit_update_record             
;
2013-09-17 deposited with the CCDC.	2024-07-11 downloaded from the CCDC.
;

_audit_creation_method           SHELXL-97
_chemical_name_systematic        
; 
 ? 
;
_chemical_name_common            ?
_chemical_melting_point          ?
_chemical_formula_moiety         'C200 H188 N4 O42 Zn8'
_chemical_formula_sum            'C200 H188 N4 O42 Zn8'
_chemical_formula_weight         3842.50

loop_
_atom_type_symbol
_atom_type_description
_atom_type_scat_dispersion_real
_atom_type_scat_dispersion_imag
_atom_type_scat_source
C C 0.0064 0.0028 'International Tables Vol C Tables 4.2.6.8 and 6.1.1.4'
H H 0.0000 0.0000 'International Tables Vol C Tables 4.2.6.8 and 6.1.1.4'
N N 0.0114 0.0055 'International Tables Vol C Tables 4.2.6.8 and 6.1.1.4'
O O 0.0194 0.0104 'International Tables Vol C Tables 4.2.6.8 and 6.1.1.4'
Zn Zn 0.0182 2.2077 'International Tables Vol C Tables 4.2.6.8 and 6.1.1.4'

_symmetry_cell_setting           orthorhombic
_symmetry_space_group_name_H-M   'P 21 21 21'
_space_group_name_Hall           'P 2ac 2ab'

loop_
_symmetry_equiv_pos_as_xyz
'x, y, z'
'-x+1/2, -y, z+1/2'
'-x, y+1/2, -z+1/2'
'x+1/2, -y+1/2, -z'

_cell_length_a                   22.945(5)
_cell_length_b                   31.803(6)
_cell_length_c                   32.955(7)
_cell_angle_alpha                90.00
_cell_angle_beta                 90.00
_cell_angle_gamma                90.00
_cell_volume                     24048(8)
_cell_formula_units_Z            4
_cell_measurement_temperature    100(2)
_cell_measurement_reflns_used    185918
_cell_measurement_theta_min      0.52
_cell_measurement_theta_max      32.39

_exptl_crystal_description       needle
_exptl_crystal_colour            colorless
_exptl_crystal_size_max          0.12
_exptl_crystal_size_mid          0.05
_exptl_crystal_size_min          0.04
_exptl_crystal_density_meas      ?
_exptl_crystal_density_diffrn    1.061
_exptl_crystal_density_method    'not measured'
_exptl_crystal_F_000             7968
_exptl_absorpt_coefficient_mu    1.569
_exptl_absorpt_correction_type   empirical
_exptl_absorpt_correction_T_min  0.8341
_exptl_absorpt_correction_T_max  0.9399
_exptl_absorpt_process_details   'HKL2000 Scalepack'

_exptl_special_details           
; 
 ? 
;

_diffrn_ambient_temperature      100(2)
_diffrn_radiation_wavelength     0.90000
_diffrn_radiation_type           synchrotron
_diffrn_source                   'PAL 6B bending beamline'
_diffrn_measurement_device_type  'ADSC Q210 CCD area detector'
_diffrn_measurement_method       'omega scan'
_diffrn_detector_area_resol_mean ?
_diffrn_standards_number         ?
_diffrn_standards_interval_count ?
_diffrn_standards_interval_time  ?
_diffrn_standards_decay_%        ?
_diffrn_reflns_number            94172
_diffrn_reflns_av_R_equivalents  0.0736
_diffrn_reflns_av_sigmaI/netI    0.0733
_diffrn_reflns_limit_h_min       -23
_diffrn_reflns_limit_h_max       23
_diffrn_reflns_limit_k_min       -31
_diffrn_reflns_limit_k_max       31
_diffrn_reflns_limit_l_min       -33
_diffrn_reflns_limit_l_max       33
_diffrn_reflns_theta_min         1.37
_diffrn_reflns_theta_max         27.50
_reflns_number_total             26210
_reflns_number_gt                15911
_reflns_threshold_expression     >2sigma(I)

_computing_data_collection       'PAL ADSC Quantum-210 ADX Program'
_computing_cell_refinement       HKL2000
_computing_data_reduction        HKL2000
_computing_structure_solution    'Bruker SHELXTL'
_computing_structure_refinement  'Bruker SHELXTL'
_computing_molecular_graphics    'Diamond 3.2e'
_computing_publication_material  WinGX

_refine_special_details          
; 
 Refinement of F^2^ against ALL reflections.  The weighted R-factor wR and 
 goodness of fit S are based on F^2^, conventional R-factors R are based 
 on F, with F set to zero for negative F^2^. The threshold expression of 
 F^2^ > 2sigma(F^2^) is used only for calculating R-factors(gt) etc. and is 
 not relevant to the choice of reflections for refinement.  R-factors based 
 on F^2^ are statistically about twice as large as those based on F, and R- 
 factors based on ALL data will be even larger. 
;

_refine_ls_structure_factor_coef Fsqd
_refine_ls_matrix_type           fullcycle
_refine_ls_weighting_scheme      calc
_refine_ls_weighting_details     
'calc w=1/[\s^2^(Fo^2^)+(0.1317P)^2^+0.0000P] where P=(Fo^2^+2Fc^2^)/3'
_atom_sites_solution_primary     direct
_atom_sites_solution_secondary   difmap
_atom_sites_solution_hydrogens   geom
_refine_ls_hydrogen_treatment    mixed
_refine_ls_extinction_method     SHELXL
_refine_ls_extinction_coef       0.00019(3)
_refine_ls_extinction_expression Fc^*^=kFc[1+0.001xFc^2^\l^3^/sin(2\q)]^-1/4^
_refine_ls_abs_structure_details 'Flack H D (1983), Acta Cryst. A39, 876-881'
_refine_ls_abs_structure_Flack   0.052(13)
_refine_ls_number_reflns         26210
_refine_ls_number_parameters     2213
_refine_ls_number_restraints     87
_refine_ls_R_factor_all          0.1115
_refine_ls_R_factor_gt           0.0788
_refine_ls_wR_factor_ref         0.2107
_refine_ls_wR_factor_gt          0.1906
_refine_ls_goodness_of_fit_ref   0.993
_refine_ls_restrained_S_all      1.393
_refine_ls_shift/su_max          0.011
_refine_ls_shift/su_mean         0.000

loop_
_atom_site_label
_atom_site_type_symbol
_atom_site_fract_x
_atom_site_fract_y
_atom_site_fract_z
_atom_site_U_iso_or_equiv
_atom_site_adp_type
_atom_site_occupancy
_atom_site_symmetry_multiplicity
_atom_site_calc_flag
_atom_site_refinement_flags
_atom_site_disorder_assembly
_atom_site_disorder_group
Zn1 Zn 0.04389(5) 0.26896(4) 0.27466(3) 0.077 Uani 1 1 d . . .
Zn2 Zn 0.16851(6) 0.22944(4) 0.27698(4) 0.080 Uani 1 1 d . . .
Zn3 Zn 0.12220(6) 0.27186(4) 0.19816(3) 0.078 Uani 1 1 d . . .
Zn4 Zn 0.15298(6) 0.33143(4) 0.27633(4) 0.079 Uani 1 1 d D . .
O1M O 0.1235(3) 0.27557(17) 0.25707(15) 0.066 Uani 1 1 d . . .
Zn5 Zn 0.18927(5) 0.22672(4) 0.77402(3) 0.076 Uani 1 1 d . . .
Zn6 Zn 0.11594(6) 0.22106(4) 0.69379(3) 0.076 Uani 1 1 d . . .
Zn7 Zn 0.05725(6) 0.26094(4) 0.77444(4) 0.082 Uani 1 1 d . . .
Zn8 Zn 0.08675(6) 0.16274(4) 0.76835(3) 0.079 Uani 1 1 d . . .
O2M O 0.1135(3) 0.21773(19) 0.75149(14) 0.062 Uani 1 1 d . . .
O1A O -0.0124(3) 0.2655(2) 0.23078(19) 0.099 Uani 1 1 d . . .
O2A O 0.0447(3) 0.2739(3) 0.1768(2) 0.118 Uani 1 1 d . . .
O3A O -0.4124(3) 0.2700(3) 0.0305(2) 0.103 Uani 1 1 d . . .
O4A O 0.1923(3) 0.1927(2) 0.2343(2) 0.106 Uani 1 1 d . . .
O5A O 0.1505(4) 0.2177(2) 0.1781(2) 0.100 Uani 1 1 d . . .
O6A O 0.3582(3) -0.0935(2) 0.07700(19) 0.088 Uani 1 1 d . . .
O7A O 0.1656(3) 0.31456(19) 0.17165(18) 0.075 Uani 1 1 d . . .
O8A O 0.2032(3) 0.3462(2) 0.22685(19) 0.084 Uani 1 1 d . . .
O9A O 0.3764(4) 0.5935(2) 0.01111(19) 0.097 Uani 1 1 d . . .
C1A C -0.0038(5) 0.2704(3) 0.1925(4) 0.089 Uani 1 1 d . . .
C2A C -0.0575(5) 0.2695(4) 0.1690(3) 0.105 Uani 1 1 d D . .
C3A C -0.1110(5) 0.2611(3) 0.1801(4) 0.105 Uani 1 1 d D . .
H3A H -0.1170 0.2542 0.2078 0.126 Uiso 1 1 calc R . .
C4A C -0.1588(6) 0.2612(3) 0.1558(3) 0.099 Uani 1 1 d D . .
H4A H -0.1955 0.2548 0.1677 0.119 Uiso 1 1 calc R . .
C5A C -0.1573(5) 0.2699(4) 0.1161(3) 0.103 Uani 1 1 d D . .
C6A C -0.1033(5) 0.2839(4) 0.1038(3) 0.099 Uani 1 1 d DU . .
H6A H -0.1000 0.3004 0.0799 0.119 Uiso 1 1 calc R . .
C7A C -0.0515(5) 0.2737(4) 0.1269(4) 0.105 Uani 1 1 d DU . .
H7A H -0.0149 0.2700 0.1139 0.126 Uiso 1 1 calc R . .
C8A C -0.2078(5) 0.2705(4) 0.0901(3) 0.098 Uani 1 1 d . . .
C9A C -0.2600(5) 0.2506(4) 0.1003(4) 0.105 Uani 1 1 d U . .
H9A H -0.2628 0.2346 0.1245 0.126 Uiso 1 1 calc R . .
C10A C -0.3083(6) 0.2544(4) 0.0743(3) 0.099 Uani 1 1 d U . .
H10A H -0.3447 0.2430 0.0825 0.119 Uiso 1 1 calc R . .
C11A C -0.3045(5) 0.2735(4) 0.0383(3) 0.090 Uani 1 1 d . . .
C12A C -0.2548(5) 0.2895(3) 0.0251(3) 0.081 Uani 1 1 d . . .
H12A H -0.2525 0.3003 -0.0018 0.097 Uiso 1 1 calc R . .
C13A C -0.2040(6) 0.2909(3) 0.0508(4) 0.103 Uani 1 1 d . . .
H13A H -0.1693 0.3046 0.0424 0.123 Uiso 1 1 calc R . .
C14A C -0.3597(5) 0.2727(3) 0.0095(3) 0.080 Uani 1 1 d . . .
H14A H -0.3598 0.2981 -0.0083 0.097 Uiso 1 1 calc R . .
C15A C -0.4233(8) 0.3081(5) 0.0509(5) 0.177 Uani 1 1 d U . .
H15A H -0.3932 0.3127 0.0715 0.265 Uiso 1 1 calc R . .
H15B H -0.4616 0.3068 0.0640 0.265 Uiso 1 1 calc R . .
H15C H -0.4228 0.3313 0.0314 0.265 Uiso 1 1 calc R . .
C16A C 0.1784(5) 0.1896(3) 0.1959(3) 0.082 Uani 1 1 d . . .
C17A C 0.1994(6) 0.1539(4) 0.1727(3) 0.093 Uani 1 1 d . . .
C18A C 0.1835(7) 0.1472(4) 0.1316(3) 0.125 Uani 1 1 d . . .
H18A H 0.1587 0.1664 0.1179 0.150 Uiso 1 1 calc R . .
C19A C 0.2051(6) 0.1118(4) 0.1119(3) 0.103 Uani 1 1 d . . .
H19A H 0.1936 0.1072 0.0846 0.124 Uiso 1 1 calc R . .
C20A C 0.2427(5) 0.0826(3) 0.1300(3) 0.090 Uani 1 1 d . . .
C21A C 0.2572(5) 0.0901(4) 0.1717(3) 0.095 Uani 1 1 d . . .
H21A H 0.2823 0.0715 0.1860 0.114 Uiso 1 1 calc R . .
C22A C 0.2335(5) 0.1258(4) 0.1913(3) 0.102 Uani 1 1 d . . .
H22A H 0.2424 0.1301 0.2191 0.122 Uiso 1 1 calc R . .
C23A C 0.2649(5) 0.0451(3) 0.1085(3) 0.080 Uani 1 1 d . . .
C24A C 0.2285(6) 0.0238(3) 0.0799(3) 0.099 Uani 1 1 d . . .
H24A H 0.1899 0.0330 0.0746 0.119 Uiso 1 1 calc R . .
C25A C 0.2527(6) -0.0121(4) 0.0595(3) 0.100 Uani 1 1 d . . .
H25A H 0.2303 -0.0264 0.0396 0.120 Uiso 1 1 calc R . .
C26A C 0.3073(5) -0.0259(3) 0.0686(3) 0.079 Uani 1 1 d . . .
C27A C 0.3416(6) -0.0056(3) 0.0974(3) 0.099 Uani 1 1 d . . .
H27A H 0.3792 -0.0161 0.1039 0.119 Uiso 1 1 calc R . .
C28A C 0.3198(6) 0.0308(3) 0.1169(4) 0.099 Uani 1 1 d . . .
H28A H 0.3434 0.0453 0.1360 0.119 Uiso 1 1 calc R . .
C29A C 0.3299(5) -0.0669(3) 0.0468(3) 0.083 Uani 1 1 d . . .
H29A H 0.2963 -0.0822 0.0344 0.099 Uiso 1 1 calc R . .
C30A C 0.3221(6) -0.1082(3) 0.1096(3) 0.096 Uani 1 1 d . . .
H30A H 0.3261 -0.0893 0.1329 0.145 Uiso 1 1 calc R . .
H30B H 0.3342 -0.1366 0.1174 0.145 Uiso 1 1 calc R . .
H30C H 0.2813 -0.1088 0.1007 0.145 Uiso 1 1 calc R . .
C31A C 0.1955(5) 0.3432(3) 0.1866(3) 0.072 Uani 1 1 d . . .
C32A C 0.2194(5) 0.3738(4) 0.1605(4) 0.096 Uani 1 1 d . . .
C33A C 0.2349(6) 0.4120(5) 0.1724(3) 0.122 Uani 1 1 d . . .
H33A H 0.2308 0.4177 0.2006 0.147 Uiso 1 1 calc R . .
C34A C 0.2563(6) 0.4447(4) 0.1493(3) 0.111 Uani 1 1 d . . .
H34A H 0.2671 0.4708 0.1611 0.133 Uiso 1 1 calc R . .
C35A C 0.2615(6) 0.4372(3) 0.1057(3) 0.085 Uani 1 1 d . . .
C36A C 0.2438(5) 0.4002(3) 0.0922(3) 0.088 Uani 1 1 d . . .
H36A H 0.2457 0.3941 0.0641 0.105 Uiso 1 1 calc R . .
C37A C 0.2226(5) 0.3705(3) 0.1187(3) 0.084 Uani 1 1 d . . .
H37A H 0.2088 0.3451 0.1070 0.101 Uiso 1 1 calc R . .
C38A C 0.2884(5) 0.4686(3) 0.0789(3) 0.088 Uani 1 1 d . . .
C39A C 0.2717(6) 0.5106(3) 0.0808(4) 0.108 Uani 1 1 d . . .
H39A H 0.2453 0.5201 0.1011 0.130 Uiso 1 1 calc R . .
C40A C 0.2952(5) 0.5391(3) 0.0515(3) 0.086 Uani 1 1 d . . .
H40A H 0.2822 0.5674 0.0518 0.103 Uiso 1 1 calc R . .
C41A C 0.3364(5) 0.5271(3) 0.0223(3) 0.074 Uani 1 1 d . . .
C42A C 0.3505(5) 0.4851(3) 0.0211(3) 0.080 Uani 1 1 d . . .
H42A H 0.3772 0.4753 0.0011 0.096 Uiso 1 1 calc R . .
C43A C 0.3262(5) 0.4564(3) 0.0486(3) 0.076 Uani 1 1 d . . .
H43A H 0.3361 0.4275 0.0462 0.091 Uiso 1 1 calc R . .
C44A C 0.3608(5) 0.5559(3) -0.0087(3) 0.081 Uani 1 1 d . . .
H44A H 0.3959 0.5429 -0.0215 0.098 Uiso 1 1 calc R . .
C45A C 0.4295(5) 0.6130(3) -0.0034(3) 0.103 Uani 1 1 d . . .
H45A H 0.4619 0.5931 -0.0006 0.154 Uiso 1 1 calc R . .
H45B H 0.4376 0.6382 0.0126 0.154 Uiso 1 1 calc R . .
H45C H 0.4248 0.6207 -0.0320 0.154 Uiso 1 1 calc R . .
O1B O 0.0334(3) 0.2118(2) 0.2958(2) 0.086 Uani 1 1 d . . .
O2B O 0.1240(3) 0.1948(2) 0.3116(3) 0.106 Uani 1 1 d . . .
O3B O -0.1034(3) -0.1048(2) 0.4206(2) 0.091 Uani 1 1 d . . .
O4B O 0.0721(3) 0.1724(2) 0.67021(19) 0.077 Uani 1 1 d . . .
O5B O 0.0653(3) 0.1291(2) 0.72063(17) 0.078 Uani 1 1 d . . .
O6B O -0.1182(4) -0.1101(2) 0.5027(2) 0.103 Uani 1 1 d . . .
O7B O 0.2239(3) 0.3129(2) 0.31186(18) 0.088 Uani 1 1 d . . .
O8B O 0.2368(3) 0.2426(2) 0.3050(2) 0.101 Uani 1 1 d . . .
O9B O 0.6630(3) 0.2756(2) 0.4746(2) 0.095 Uani 1 1 d . . .
O10B O 0.1942(3) 0.2130(2) 0.6757(2) 0.086 Uani 1 1 d . . .
O11B O 0.2446(3) 0.2340(2) 0.73144(18) 0.097 Uani 1 1 d . . .
O12B O 0.6591(4) 0.2537(3) 0.5544(3) 0.140 Uani 1 1 d . . .
O13B O 0.0107(4) 0.3081(2) 0.3111(2) 0.096 Uani 1 1 d . . .
O14B O 0.0999(3) 0.3319(2) 0.32657(18) 0.091 Uani 1 1 d . . .
O15B O -0.1414(4) 0.5904(2) 0.49415(19) 0.093 Uani 1 1 d . . .
O16B O 0.0924(3) 0.2738(2) 0.66801(18) 0.081 Uani 1 1 d . . .
O17B O 0.0503(4) 0.2963(2) 0.7239(2) 0.110 Uani 1 1 d . . .
O18B O -0.1101(3) 0.5909(2) 0.57711(18) 0.087 Uani 1 1 d . . .
C1B C 0.0681(6) 0.1877(3) 0.3117(3) 0.082 Uani 1 1 d . . .
C2B C 0.0475(5) 0.1474(3) 0.3298(3) 0.082 Uani 1 1 d . . .
C3B C -0.0076(5) 0.1341(3) 0.3236(3) 0.085 Uani 1 1 d . . .
H3B H -0.0337 0.1511 0.3084 0.101 Uiso 1 1 calc R . .
C4B C -0.0272(6) 0.0945(4) 0.3399(3) 0.098 Uani 1 1 d . . .
H4B H -0.0647 0.0839 0.3334 0.117 Uiso 1 1 calc R . .
C5B C 0.0088(5) 0.0727(3) 0.3646(3) 0.077 Uani 1 1 d . . .
C6B C 0.0649(5) 0.0842(3) 0.3723(4) 0.100 Uani 1 1 d . . .
H6B H 0.0906 0.0676 0.3882 0.120 Uiso 1 1 calc R . .
C7B C 0.0826(6) 0.1242(4) 0.3541(4) 0.107 Uani 1 1 d . . .
H7B H 0.1206 0.1345 0.3596 0.128 Uiso 1 1 calc R . .
C8B C -0.0141(6) 0.0327(3) 0.3853(3) 0.092 Uani 1 1 d . . .
C9B C -0.0730(5) 0.0245(4) 0.3865(3) 0.089 Uani 1 1 d . . .
H9B H -0.1013 0.0423 0.3742 0.107 Uiso 1 1 calc R . .
C10B C -0.0881(6) -0.0137(4) 0.4085(3) 0.099 Uani 1 1 d . . .
H10B H -0.1279 -0.0219 0.4093 0.119 Uiso 1 1 calc R . .
C11B C -0.0489(5) -0.0379(3) 0.4277(3) 0.087 Uani 1 1 d . . .
C12B C 0.0089(6) -0.0333(3) 0.4223(3) 0.092 Uani 1 1 d . . .
H12B H 0.0358 -0.0542 0.4310 0.110 Uiso 1 1 calc R . .
C13B C 0.0283(5) 0.0054(4) 0.4025(3) 0.090 Uani 1 1 d . . .
H13B H 0.0686 0.0122 0.4012 0.108 Uiso 1 1 calc R . .
C14B C -0.0690(5) -0.0791(3) 0.4471(3) 0.087 Uani 1 1 d . . .
H14B H -0.0348 -0.0953 0.4574 0.104 Uiso 1 1 calc R . .
C15B C -0.0684(5) -0.1147(4) 0.3842(3) 0.105 Uani 1 1 d . . .
H15D H -0.0636 -0.0893 0.3678 0.157 Uiso 1 1 calc R . .
H15E H -0.0885 -0.1363 0.3682 0.157 Uiso 1 1 calc R . .
H15F H -0.0301 -0.1252 0.3925 0.157 Uiso 1 1 calc R . .
C16B C 0.0579(4) 0.1381(3) 0.6852(3) 0.068 Uani 1 1 d . . .
C17B C 0.0346(5) 0.1074(3) 0.6550(3) 0.078 Uani 1 1 d . . .
C18B C 0.0132(5) 0.1214(4) 0.6157(3) 0.090 Uani 1 1 d . . .
H18B H 0.0135 0.1505 0.6092 0.108 Uiso 1 1 calc R . .
C19B C -0.0064(5) 0.0939(3) 0.5890(3) 0.090 Uani 1 1 d . . .
H19B H -0.0152 0.1036 0.5625 0.108 Uiso 1 1 calc R . .
C20B C -0.0152(5) 0.0509(3) 0.5976(3) 0.075 Uani 1 1 d . . .
C21B C 0.0082(6) 0.0391(4) 0.6370(4) 0.107 Uani 1 1 d . . .
H21B H 0.0096 0.0101 0.6440 0.129 Uiso 1 1 calc R . .
C22B C 0.0279(5) 0.0676(3) 0.6642(3) 0.088 Uani 1 1 d . . .
H22B H 0.0372 0.0584 0.6909 0.106 Uiso 1 1 calc R . .
C23B C -0.0381(5) 0.0209(3) 0.5685(4) 0.091 Uani 1 1 d . . .
C24B C -0.0809(5) 0.0319(4) 0.5392(3) 0.088 Uani 1 1 d . . .
H24B H -0.0937 0.0603 0.5385 0.105 Uiso 1 1 calc R . .
C25B C -0.1042(5) 0.0054(3) 0.5129(3) 0.080 Uani 1 1 d . . .
H25B H -0.1343 0.0143 0.4950 0.096 Uiso 1 1 calc R . .
C26B C -0.0827(5) -0.0382(4) 0.5118(3) 0.090 Uani 1 1 d . . .
C27B C -0.0374(5) -0.0512(3) 0.5379(4) 0.091 Uani 1 1 d . . .
H27B H -0.0218 -0.0788 0.5363 0.109 Uiso 1 1 calc R . .
C28B C -0.0163(5) -0.0225(3) 0.5659(3) 0.084 Uani 1 1 d . . .
H28B H 0.0133 -0.0313 0.5842 0.101 Uiso 1 1 calc R . .
C29B C -0.1116(6) -0.0690(3) 0.4824(3) 0.088 Uani 1 1 d . . .
H29B H -0.1498 -0.0581 0.4722 0.106 Uiso 1 1 calc R . .
C30B C -0.1648(7) -0.1094(4) 0.5316(5) 0.154 Uani 1 1 d . . .
H30D H -0.1530 -0.0928 0.5553 0.231 Uiso 1 1 calc R . .
H30E H -0.1738 -0.1382 0.5401 0.231 Uiso 1 1 calc R . .
H30F H -0.1993 -0.0967 0.5192 0.231 Uiso 1 1 calc R . .
C31B C 0.2485(4) 0.2795(4) 0.3183(3) 0.084 Uani 1 1 d . . .
C32B C 0.3055(5) 0.2810(3) 0.3429(3) 0.085 Uani 1 1 d . . .
C33B C 0.3439(5) 0.2482(4) 0.3431(3) 0.102 Uani 1 1 d . . .
H33B H 0.3361 0.2251 0.3256 0.122 Uiso 1 1 calc R . .
C34B C 0.3946(5) 0.2462(4) 0.3675(3) 0.098 Uani 1 1 d . . .
H34B H 0.4201 0.2227 0.3662 0.117 Uiso 1 1 calc R . .
C35B C 0.4058(5) 0.2796(3) 0.3933(3) 0.082 Uani 1 1 d . . .
C36B C 0.3661(5) 0.3136(3) 0.3937(3) 0.083 Uani 1 1 d . . .
H36B H 0.3732 0.3367 0.4112 0.099 Uiso 1 1 calc R . .
C37B C 0.3179(5) 0.3138(3) 0.3696(3) 0.082 Uani 1 1 d . . .
H37B H 0.2920 0.3370 0.3710 0.098 Uiso 1 1 calc R . .
C38B C 0.4558(4) 0.2800(3) 0.4197(3) 0.066 Uani 1 1 d . . .
C39B C 0.5079(5) 0.2571(3) 0.4091(3) 0.090 Uani 1 1 d . . .
H39B H 0.5095 0.2420 0.3843 0.109 Uiso 1 1 calc R . .
C40B C 0.5556(5) 0.2570(3) 0.4349(3) 0.080 Uani 1 1 d . . .
H40B H 0.5885 0.2401 0.4285 0.096 Uiso 1 1 calc R . .
C41B C 0.5561(5) 0.2819(3) 0.4706(3) 0.079 Uani 1 1 d . . .
C42B C 0.5063(5) 0.3032(3) 0.4813(3) 0.083 Uani 1 1 d . . .
H42B H 0.5050 0.3181 0.5062 0.100 Uiso 1 1 calc R . .
C43B C 0.4590(5) 0.3032(3) 0.4566(3) 0.072 Uani 1 1 d . . .
H43B H 0.4262 0.3196 0.4644 0.086 Uiso 1 1 calc R . .
C44B C 0.6090(4) 0.2810(3) 0.4983(3) 0.073 Uani 1 1 d . . .
H44B H 0.6112 0.3084 0.5133 0.088 Uiso 1 1 calc R . .
C45B C 0.6765(5) 0.3109(4) 0.4479(3) 0.099 Uani 1 1 d . . .
H45D H 0.6564 0.3072 0.4219 0.149 Uiso 1 1 calc R . .
H45E H 0.7187 0.3121 0.4432 0.149 Uiso 1 1 calc R . .
H45F H 0.6636 0.3372 0.4606 0.149 Uiso 1 1 calc R . .
C46B C 0.2404(5) 0.2251(3) 0.6931(3) 0.088 Uani 1 1 d . . .
C47B C 0.2958(5) 0.2300(3) 0.6686(3) 0.087 Uani 1 1 d . . .
C48B C 0.2961(5) 0.2185(4) 0.6254(3) 0.092 Uani 1 1 d . . .
H48B H 0.2614 0.2083 0.6132 0.110 Uiso 1 1 calc R . .
C49B C 0.3446(5) 0.2221(4) 0.6030(3) 0.087 Uani 1 1 d . . .
H49B H 0.3447 0.2130 0.5756 0.104 Uiso 1 1 calc R . .
C50B C 0.3948(5) 0.2392(3) 0.6199(3) 0.077 Uani 1 1 d . . .
C51B C 0.3979(5) 0.2495(3) 0.6616(3) 0.085 Uani 1 1 d . . .
H51B H 0.4330 0.2597 0.6734 0.101 Uiso 1 1 calc R . .
C52B C 0.3473(6) 0.2442(3) 0.6850(3) 0.095 Uani 1 1 d . . .
H52B H 0.3487 0.2506 0.7132 0.114 Uiso 1 1 calc R . .
C53B C 0.4514(5) 0.2410(3) 0.5962(3) 0.073 Uani 1 1 d . . .
C54B C 0.4599(6) 0.2121(3) 0.5651(4) 0.101 Uani 1 1 d . . .
H54B H 0.4310 0.1918 0.5588 0.121 Uiso 1 1 calc R . .
C55B C 0.5136(5) 0.2139(3) 0.5425(4) 0.092 Uani 1 1 d . . .
H55B H 0.5208 0.1942 0.5214 0.110 Uiso 1 1 calc R . .
C56B C 0.5544(5) 0.2441(3) 0.5515(3) 0.084 Uani 1 1 d . . .
C57B C 0.5421(5) 0.2718(4) 0.5823(3) 0.092 Uani 1 1 d . . .
H57B H 0.5710 0.2919 0.5893 0.110 Uiso 1 1 calc R . .
C58B C 0.4912(5) 0.2722(4) 0.6035(3) 0.097 Uani 1 1 d . . .
H58B H 0.4835 0.2937 0.6228 0.117 Uiso 1 1 calc R . .
C59B C 0.6129(5) 0.2454(4) 0.5287(4) 0.091 Uani 1 1 d . . .
H59B H 0.6194 0.2181 0.5143 0.109 Uiso 1 1 calc R . .
C60B C 0.6728(7) 0.2201(7) 0.5822(5) 0.212 Uani 1 1 d . . .
H60A H 0.6389 0.2144 0.5995 0.317 Uiso 1 1 calc R . .
H60B H 0.7059 0.2285 0.5993 0.317 Uiso 1 1 calc R . .
H60C H 0.6830 0.1947 0.5669 0.317 Uiso 1 1 calc R . .
C61B C 0.0442(5) 0.3348(3) 0.3286(3) 0.076 Uani 1 1 d . . .
C62B C 0.0188(5) 0.3674(3) 0.3536(3) 0.087 Uani 1 1 d . . .
C63B C 0.0482(6) 0.4024(4) 0.3659(4) 0.121 Uani 1 1 d . . .
H63B H 0.0876 0.4054 0.3576 0.145 Uiso 1 1 calc R . .
C64B C 0.0243(6) 0.4338(4) 0.3900(3) 0.104 Uani 1 1 d . . .
H64B H 0.0475 0.4573 0.3974 0.125 Uiso 1 1 calc R . .
C65B C -0.0319(5) 0.4315(3) 0.4031(3) 0.086 Uani 1 1 d . . .
C66B C -0.0671(6) 0.3974(3) 0.3905(3) 0.093 Uani 1 1 d . . .
H66B H -0.1065 0.3945 0.3989 0.112 Uiso 1 1 calc R . .
C67B C -0.0386(6) 0.3667(3) 0.3637(3) 0.096 Uani 1 1 d . . .
H67B H -0.0620 0.3449 0.3527 0.115 Uiso 1 1 calc R . .
C68B C -0.0540(5) 0.4637(3) 0.4326(4) 0.089 Uani 1 1 d . . .
C69B C -0.0376(6) 0.5053(3) 0.4289(4) 0.102 Uani 1 1 d . . .
H69B H -0.0135 0.5143 0.4072 0.123 Uiso 1 1 calc R . .
C70B C -0.0578(6) 0.5345(3) 0.4585(3) 0.097 Uani 1 1 d . . .
H70B H -0.0423 0.5622 0.4590 0.116 Uiso 1 1 calc R . .
C71B C -0.1003(5) 0.5229(3) 0.4872(3) 0.084 Uani 1 1 d . . .
C72B C -0.1193(5) 0.4794(3) 0.4877(3) 0.087 Uani 1 1 d . . .
H72B H -0.1479 0.4704 0.5066 0.104 Uiso 1 1 calc R . .
C73B C -0.0966(5) 0.4527(3) 0.4618(3) 0.089 Uani 1 1 d . . .
H73B H -0.1095 0.4244 0.4627 0.107 Uiso 1 1 calc R . .
C74B C -0.1258(6) 0.5528(3) 0.5164(3) 0.089 Uani 1 1 d . . .
H74B H -0.1608 0.5403 0.5300 0.107 Uiso 1 1 calc R . .
C75B C -0.1995(6) 0.6083(4) 0.5038(4) 0.120 Uani 1 1 d . . .
H75A H -0.2248 0.5862 0.5146 0.180 Uiso 1 1 calc R . .
H75B H -0.2169 0.6200 0.4791 0.180 Uiso 1 1 calc R . .
H75C H -0.1952 0.6306 0.5241 0.180 Uiso 1 1 calc R . .
C76B C 0.0661(6) 0.2996(3) 0.6878(3) 0.092 Uani 1 1 d . . .
C77B C 0.0420(5) 0.3355(4) 0.6640(4) 0.093 Uani 1 1 d . . .
C78B C -0.0054(5) 0.3585(3) 0.6782(3) 0.087 Uani 1 1 d . . .
H78B H -0.0263 0.3487 0.7011 0.104 Uiso 1 1 calc R . .
C79B C -0.0232(6) 0.3962(4) 0.6592(4) 0.118 Uani 1 1 d . . .
H79B H -0.0545 0.4120 0.6703 0.141 Uiso 1 1 calc R . .
C80B C 0.0049(5) 0.4107(4) 0.6241(3) 0.092 Uani 1 1 d . . .
C81B C 0.0487(6) 0.3889(3) 0.6082(3) 0.095 Uani 1 1 d . . .
H81B H 0.0686 0.3985 0.5847 0.114 Uiso 1 1 calc R . .
C82B C 0.0642(6) 0.3523(5) 0.6266(3) 0.117 Uani 1 1 d . . .
H82B H 0.0931 0.3360 0.6132 0.140 Uiso 1 1 calc R . .
C83B C -0.0156(5) 0.4485(3) 0.6039(3) 0.077 Uani 1 1 d . . .
C84B C -0.0731(6) 0.4629(3) 0.6105(3) 0.095 Uani 1 1 d . . .
H84B H -0.0991 0.4468 0.6269 0.114 Uiso 1 1 calc R . .
C85B C -0.0922(5) 0.5009(3) 0.5930(3) 0.088 Uani 1 1 d . . .
H85B H -0.1308 0.5102 0.5982 0.106 Uiso 1 1 calc R . .
C86B C -0.0565(6) 0.5253(3) 0.5683(3) 0.084 Uani 1 1 d . . .
C87B C 0.0026(6) 0.5107(4) 0.5623(4) 0.098 Uani 1 1 d . . .
H87B H 0.0288 0.5269 0.5464 0.118 Uiso 1 1 calc R . .
C88B C 0.0213(6) 0.4736(3) 0.5793(3) 0.089 Uani 1 1 d . . .
H88B H 0.0601 0.4644 0.5744 0.107 Uiso 1 1 calc R . .
C89B C -0.0779(5) 0.5645(3) 0.5483(3) 0.082 Uani 1 1 d . . .
H89B H -0.0452 0.5804 0.5354 0.098 Uiso 1 1 calc R . .
C90B C -0.0720(5) 0.6049(3) 0.6094(3) 0.094 Uani 1 1 d . . .
H90A H -0.0604 0.5808 0.6260 0.141 Uiso 1 1 calc R . .
H90B H -0.0927 0.6254 0.6264 0.141 Uiso 1 1 calc R . .
H90C H -0.0373 0.6181 0.5977 0.141 Uiso 1 1 calc R . .
O1C O 0.2169(3) 0.1807(2) 0.80832(19) 0.087 Uani 1 1 d . . .
O2C O 0.1534(3) 0.1316(2) 0.7893(2) 0.089 Uani 1 1 d . . .
O3C O 0.3867(4) -0.0948(2) 0.9983(2) 0.113 Uani 1 1 d . . .
O4C O 0.0292(3) 0.1579(3) 0.81093(19) 0.097 Uani 1 1 d . . .
O5C O 0.0506(4) 0.2246(3) 0.8270(2) 0.103 Uani 1 1 d . . .
O6C O -0.4041(4) 0.2413(3) 0.9540(2) 0.115 Uani 1 1 d . . .
O7C O 0.1133(4) 0.3030(2) 0.7991(2) 0.101 Uani 1 1 d . . .
O8C O 0.2028(3) 0.2791(2) 0.80412(19) 0.085 Uani 1 1 d . . .
O9C O 0.3436(3) 0.5924(2) 0.92966(19) 0.088 Uani 1 1 d . . .
C1C C 0.1945(5) 0.1440(4) 0.8120(4) 0.088 Uani 1 1 d U . .
C2C C 0.2241(6) 0.1163(4) 0.8392(3) 0.099 Uani 1 1 d . . .
C3C C 0.2715(7) 0.1270(5) 0.8645(5) 0.141 Uani 1 1 d U . .
H3C H 0.2871 0.1545 0.8615 0.169 Uiso 1 1 calc R . .
C4C C 0.2984(7) 0.1000(5) 0.8945(5) 0.141 Uani 1 1 d . . .
H4C H 0.3288 0.1091 0.9120 0.169 Uiso 1 1 calc R . .
C5C C 0.2745(6) 0.0574(4) 0.8953(3) 0.096 Uani 1 1 d . . .
C6C C 0.2354(5) 0.0438(4) 0.8666(3) 0.105 Uani 1 1 d . . .
H6C H 0.2246 0.0150 0.8668 0.126 Uiso 1 1 calc R . .
C7C C 0.2104(2) 0.06989(15) 0.83702(13) 0.102 Uani 1 1 d . . .
H7C H 0.1858 0.0588 0.8164 0.122 Uiso 1 1 calc R . .
C8C C 0.3026(2) 0.02835(15) 0.92599(13) 0.096 Uani 1 1 d R . .
C9C C 0.3442(2) 0.04287(15) 0.95321(13) 0.085 Uani 1 1 d R . .
H9C H 0.3579 0.0710 0.9514 0.102 Uiso 1 1 calc R . .
C10C C 0.3660(2) 0.01620(15) 0.98301(13) 0.089 Uani 1 1 d R . .
H10C H 0.3945 0.0261 1.0016 0.107 Uiso 1 1 calc R . .
C11C C 0.3460(2) -0.02498(15) 0.98559(13) 0.101 Uani 1 1 d R . .
C12C C 0.3043(2) -0.03950(15) 0.95838(13) 0.138 Uani 1 1 d R . .
H12C H 0.2907 -0.0676 0.9602 0.165 Uiso 1 1 calc R . .
C13C C 0.2826(2) -0.01283(15) 0.92858(13) 0.149 Uani 1 1 d R . .
H13C H 0.2541 -0.0228 0.9100 0.179 Uiso 1 1 calc R . .
C14C C 0.3741(6) -0.0567(4) 1.0148(3) 0.091 Uani 1 1 d . . .
H14C H 0.4097 -0.0443 1.0274 0.109 Uiso 1 1 calc R . .
C15C C 0.4429(8) -0.0920(4) 0.9807(4) 0.151 Uani 1 1 d . . .
H15G H 0.4465 -0.0654 0.9659 0.226 Uiso 1 1 calc R . .
H15H H 0.4486 -0.1155 0.9618 0.226 Uiso 1 1 calc R . .
H15I H 0.4725 -0.0932 1.0021 0.226 Uiso 1 1 calc R . .
C16C C 0.0219(5) 0.1927(4) 0.8304(3) 0.084 Uani 1 1 d . . .
C17C C -0.0322(6) 0.1969(4) 0.8573(3) 0.099 Uani 1 1 d . . .
C18C C -0.0511(6) 0.2372(4) 0.8683(3) 0.110 Uani 1 1 d . . .
H18C H -0.0292 0.2613 0.8608 0.132 Uiso 1 1 calc R . .
C19C C -0.1024(6) 0.2413(4) 0.8904(4) 0.123 Uani 1 1 d . . .
H19C H -0.1133 0.2686 0.8993 0.147 Uiso 1 1 calc R . .
C20C C -0.1378(5) 0.2085(4) 0.8999(3) 0.103 Uani 1 1 d . . .
C21C C -0.1176(6) 0.1648(4) 0.8891(3) 0.096 Uani 1 1 d . . .
H21C H -0.1383 0.1404 0.8972 0.116 Uiso 1 1 calc R . .
C22C C -0.0666(5) 0.1626(4) 0.8664(3) 0.094 Uani 1 1 d . . .
H22C H -0.0548 0.1359 0.8566 0.112 Uiso 1 1 calc R . .
C23C C -0.1928(6) 0.2159(4) 0.9226(3) 0.104 Uani 1 1 d . . .
C24C C -0.2312(6) 0.2444(3) 0.9078(3) 0.097 Uani 1 1 d . . .
H24C H -0.2211 0.2600 0.8842 0.116 Uiso 1 1 calc R . .
C25C C -0.2880(5) 0.2517(4) 0.9271(3) 0.102 Uani 1 1 d . . .
H25C H -0.3154 0.2718 0.9176 0.122 Uiso 1 1 calc R . .
C26C C -0.2981(6) 0.2256(4) 0.9617(3) 0.094 Uani 1 1 d . . .
C27C C -0.2623(5) 0.1978(3) 0.9752(3) 0.090 Uani 1 1 d . . .
H27C H -0.2729 0.1814 0.9981 0.107 Uiso 1 1 calc R . .
C28C C -0.2069(6) 0.1911(4) 0.9563(3) 0.104 Uani 1 1 d . . .
H28C H -0.1805 0.1706 0.9662 0.125 Uiso 1 1 calc R . .
C29C C -0.3589(5) 0.2335(4) 0.9838(4) 0.101 Uani 1 1 d . . .
H29C H -0.3694 0.2085 1.0007 0.122 Uiso 1 1 calc R . .
C30C C -0.4154(6) 0.2055(7) 0.9290(5) 0.213 Uani 1 1 d . . .
H30G H -0.3894 0.2060 0.9054 0.320 Uiso 1 1 calc R . .
H30H H -0.4560 0.2062 0.9198 0.320 Uiso 1 1 calc R . .
H30I H -0.4085 0.1797 0.9446 0.320 Uiso 1 1 calc R . .
C31C C 0.1696(2) 0.31076(16) 0.81150(12) 0.105 Uani 1 1 d . . .
C32C C 0.1849(2) 0.34543(16) 0.83238(12) 0.081 Uani 1 1 d R . .
C33C C 0.1517(2) 0.38097(16) 0.84075(12) 0.134 Uani 1 1 d R . .
H33C H 0.1121 0.3822 0.8324 0.161 Uiso 1 1 calc R . .
C34C C 0.1765(2) 0.41468(16) 0.86131(12) 0.144 Uani 1 1 d R . .
H34C H 0.1539 0.4390 0.8670 0.173 Uiso 1 1 calc R . .
C35C C 0.2345(2) 0.41284(16) 0.87351(12) 0.106 Uani 1 1 d R . .
C36C C 0.2676(2) 0.37730(16) 0.86514(12) 0.106 Uani 1 1 d R . .
H36C H 0.3072 0.3761 0.8735 0.127 Uiso 1 1 calc R . .
C37C C 0.2428(2) 0.34359(16) 0.84458(12) 0.106 Uani 1 1 d R . .
H37C H 0.2655 0.3193 0.8389 0.127 Uiso 1 1 calc R . .
C38C C 0.2518(5) 0.4537(3) 0.8972(3) 0.065 Uani 1 1 d . . .
C39C C 0.2121(6) 0.4802(3) 0.9166(3) 0.090 Uani 1 1 d . . .
H39C H 0.1715 0.4742 0.9169 0.108 Uiso 1 1 calc R . .
C40C C 0.2349(5) 0.5162(3) 0.9357(3) 0.077 Uani 1 1 d . . .
H40C H 0.2084 0.5355 0.9478 0.093 Uiso 1 1 calc R . .
C41C C 0.2949(6) 0.5254(4) 0.9378(3) 0.088 Uani 1 1 d . . .
C42C C 0.3301(5) 0.4964(4) 0.9167(3) 0.085 Uani 1 1 d . . .
H42C H 0.3710 0.5011 0.9159 0.102 Uiso 1 1 calc R . .
C43C C 0.3087(6) 0.4623(4) 0.8976(3) 0.100 Uani 1 1 d . . .
H43C H 0.3348 0.4439 0.8841 0.120 Uiso 1 1 calc R . .
C44C C 0.3145(5) 0.5648(3) 0.9591(3) 0.068 Uani 1 1 d . . .
H44C H 0.2804 0.5795 0.9716 0.082 Uiso 1 1 calc R . .
C45C C 0.3007(5) 0.6114(4) 0.9025(3) 0.092 Uani 1 1 d . . .
H45G H 0.2749 0.5894 0.8918 0.139 Uiso 1 1 calc R . .
H45H H 0.3208 0.6253 0.8799 0.139 Uiso 1 1 calc R . .
H45I H 0.2776 0.6321 0.9175 0.139 Uiso 1 1 calc R . .
O1E O 0.1758(4) 0.3926(2) 0.2927(2) 0.098 Uani 1 1 d D . .
N1E N 0.2484(4) 0.4430(3) 0.3010(3) 0.129 Uani 1 1 d D . .
C1E C 0.2277(6) 0.4023(4) 0.2902(3) 0.145 Uani 1 1 d D . .
H1E H 0.2548 0.3819 0.2808 0.174 Uiso 1 1 calc R . .
C2E C 0.2051(6) 0.4777(4) 0.3131(6) 0.197 Uani 1 1 d D . .
H2E1 H 0.2214 0.4936 0.3363 0.237 Uiso 1 1 calc R . .
H2E2 H 0.1684 0.4644 0.3223 0.237 Uiso 1 1 calc R . .
C3E C 0.1909(11) 0.5088(6) 0.2786(7) 0.271 Uani 1 1 d D . .
H3E1 H 0.2263 0.5241 0.2710 0.406 Uiso 1 1 calc R . .
H3E2 H 0.1612 0.5288 0.2879 0.406 Uiso 1 1 calc R . .
H3E3 H 0.1761 0.4933 0.2551 0.406 Uiso 1 1 calc R . .
C4E C 0.3135(5) 0.4529(5) 0.3000(5) 0.144 Uani 1 1 d D . .
H4E1 H 0.3188 0.4829 0.2929 0.172 Uiso 1 1 calc R . .
H4E2 H 0.3320 0.4359 0.2783 0.172 Uiso 1 1 calc R . .
C5E C 0.3453(6) 0.4438(5) 0.3410(4) 0.160 Uani 1 1 d D . .
H5E1 H 0.3274 0.4607 0.3626 0.240 Uiso 1 1 calc R . .
H5E2 H 0.3866 0.4513 0.3385 0.240 Uiso 1 1 calc R . .
H5E3 H 0.3417 0.4139 0.3477 0.240 Uiso 1 1 calc R . .
O2E O 0.0811(4) 0.3564(3) 0.2453(2) 0.116 Uani 1 1 d D . .
N2E N 0.0326(5) 0.4147(3) 0.2212(4) 0.127 Uani 1 1 d D . .
C6E C 0.0810(5) 0.3917(5) 0.2322(4) 0.136 Uani 1 1 d D . .
H6E H 0.1178 0.4051 0.2292 0.164 Uiso 1 1 calc R . .
C7E C -0.0281(7) 0.3961(5) 0.2286(5) 0.170 Uani 1 1 d D . .
H7E1 H -0.0239 0.3706 0.2456 0.204 Uiso 1 1 calc R . .
H7E2 H -0.0514 0.4167 0.2441 0.204 Uiso 1 1 calc R . .
C8E C -0.0615(8) 0.3844(5) 0.1903(5) 0.188 Uani 1 1 d DU . .
H8E1 H -0.0690 0.4097 0.1743 0.282 Uiso 1 1 calc R . .
H8E2 H -0.0986 0.3712 0.1978 0.282 Uiso 1 1 calc R . .
H8E3 H -0.0384 0.3646 0.1742 0.282 Uiso 1 1 calc R . .
C9E C 0.0356(7) 0.4599(4) 0.2051(5) 0.142 Uani 1 1 d DU . .
H9E1 H 0.0759 0.4661 0.1962 0.171 Uiso 1 1 calc R . .
H9E2 H 0.0097 0.4626 0.1812 0.171 Uiso 1 1 calc R . .
C10E C 0.0174(13) 0.4918(7) 0.2372(8) 0.314 Uani 1 1 d DU . .
H10D H 0.0435 0.4897 0.2606 0.471 Uiso 1 1 calc R . .
H10E H -0.0227 0.4860 0.2458 0.471 Uiso 1 1 calc R . .
H10F H 0.0196 0.5202 0.2257 0.471 Uiso 1 1 calc R . .
O3E O -0.0069(3) 0.2986(2) 0.7958(2) 0.092 Uani 1 1 d . . .
N3E N -0.0487(6) 0.3630(3) 0.7920(4) 0.148 Uani 1 1 d . . .
C11E C -0.0042(6) 0.3362(4) 0.7923(4) 0.120 Uani 1 1 d . . .
H11E H 0.0336 0.3480 0.7895 0.144 Uiso 1 1 calc R . .
C12E C -0.0380(7) 0.4067(5) 0.7785(6) 0.178 Uani 1 1 d . . .
H12D H -0.0608 0.4125 0.7536 0.214 Uiso 1 1 calc R . .
H12E H 0.0038 0.4104 0.7721 0.214 Uiso 1 1 calc R . .
C13E C -0.0557(8) 0.4375(6) 0.8118(7) 0.256 Uani 1 1 d . . .
H13D H -0.0773 0.4224 0.8329 0.385 Uiso 1 1 calc R . .
H13E H -0.0804 0.4595 0.8002 0.385 Uiso 1 1 calc R . .
H13F H -0.0207 0.4502 0.8236 0.385 Uiso 1 1 calc R . .
C14E C -0.1116(6) 0.3493(4) 0.7994(6) 0.176 Uani 1 1 d . . .
H14D H -0.1342 0.3720 0.8127 0.212 Uiso 1 1 calc R . .
H14E H -0.1132 0.3238 0.8165 0.212 Uiso 1 1 calc R . .
C15E C -0.1367(8) 0.3396(7) 0.7527(6) 0.213 Uani 1 1 d . . .
H15J H -0.1575 0.3645 0.7426 0.319 Uiso 1 1 calc R . .
H15K H -0.1635 0.3156 0.7536 0.319 Uiso 1 1 calc R . .
H15L H -0.1040 0.3332 0.7346 0.319 Uiso 1 1 calc R . .
O4E O -0.0125(4) 0.2215(3) 0.7505(2) 0.105 Uani 1 1 d . . .
N4E N -0.1043(4) 0.2001(3) 0.7544(3) 0.104 Uani 1 1 d D . .
C16E C -0.0655(6) 0.2266(4) 0.7584(4) 0.120 Uani 1 1 d . . .
H16E H -0.0768 0.2535 0.7682 0.144 Uiso 1 1 calc R . .
C17E C -0.0925(7) 0.1518(5) 0.7496(5) 0.178 Uani 1 1 d D . .
H17A H -0.0524 0.1450 0.7584 0.214 Uiso 1 1 calc R . .
H17B H -0.1202 0.1355 0.7665 0.214 Uiso 1 1 calc R . .
C18E C -0.1002(8) 0.1416(6) 0.7072(6) 0.256 Uani 1 1 d D . .
H18D H -0.0774 0.1165 0.7006 0.385 Uiso 1 1 calc R . .
H18E H -0.0870 0.1652 0.6905 0.385 Uiso 1 1 calc R . .
H18F H -0.1416 0.1362 0.7018 0.385 Uiso 1 1 calc R . .
C19E C -0.1677(5) 0.2064(6) 0.7616(5) 0.188 Uani 1 1 d D . .
H19D H -0.1838 0.2195 0.7368 0.225 Uiso 1 1 calc R . .
H19E H -0.1855 0.1782 0.7638 0.225 Uiso 1 1 calc R . .
C20E C -0.1883(7) 0.2305(6) 0.7954(5) 0.182 Uani 1 1 d D . .
H20A H -0.1974 0.2116 0.8180 0.273 Uiso 1 1 calc R . .
H20B H -0.2235 0.2460 0.7875 0.273 Uiso 1 1 calc R . .
H20C H -0.1581 0.2505 0.8038 0.273 Uiso 1 1 calc R . .

loop_
_atom_site_aniso_label
_atom_site_aniso_U_11
_atom_site_aniso_U_22
_atom_site_aniso_U_33
_atom_site_aniso_U_23
_atom_site_aniso_U_13
_atom_site_aniso_U_12
Zn1 0.106 0.078 0.049 -0.002 0.001 0.000
Zn2 0.098 0.085 0.057 -0.002 0.001 -0.001
Zn3 0.106 0.080 0.049 -0.002 0.001 -0.007
Zn4 0.107 0.076 0.054 -0.003 -0.002 -0.003
O1M 0.110 0.038 0.050 -0.003 -0.022 0.018
Zn5 0.105 0.079 0.045 0.000 0.003 0.001
Zn6 0.100 0.080 0.047 -0.001 0.002 0.007
Zn7 0.102 0.087 0.056 -0.002 -0.001 0.005
Zn8 0.102 0.085 0.051 0.002 0.005 0.000
O2M 0.083 0.075 0.030 -0.009 0.006 -0.008
O1A 0.112 0.140 0.044 0.007 -0.011 0.007
O2A 0.053 0.223 0.078 -0.006 -0.010 -0.015
O3A 0.092 0.133 0.084 -0.038 0.023 -0.002
O4A 0.110 0.132 0.077 -0.051 -0.017 0.011
O5A 0.169 0.053 0.078 -0.011 0.016 0.013
O6A 0.119 0.089 0.057 0.022 -0.021 0.021
O7A 0.111 0.065 0.048 0.010 0.017 -0.018
O8A 0.111 0.096 0.046 0.016 -0.015 -0.009
O9A 0.153 0.085 0.054 -0.001 -0.004 -0.023
C1A 0.094 0.076 0.096 0.007 -0.034 -0.008
C2A 0.102 0.159 0.055 -0.014 0.035 -0.010
C3A 0.101 0.124 0.088 -0.003 -0.010 0.005
C4A 0.124 0.130 0.044 0.018 0.016 -0.013
C5A 0.095 0.148 0.066 -0.020 0.034 -0.016
C6A 0.124 0.130 0.044 0.018 0.016 -0.013
C7A 0.101 0.124 0.088 -0.003 -0.010 0.005
C8A 0.078 0.176 0.040 0.013 -0.003 -0.002
C9A 0.101 0.124 0.088 -0.003 -0.010 0.005
C10A 0.124 0.130 0.044 0.018 0.016 -0.013
C11A 0.108 0.095 0.069 -0.015 -0.010 -0.012
C12A 0.106 0.082 0.056 0.006 0.004 -0.010
C13A 0.132 0.084 0.091 0.005 0.005 -0.025
C14A 0.100 0.065 0.076 -0.019 -0.006 -0.005
C15A 0.168 0.177 0.186 -0.109 0.000 0.000
C16A 0.119 0.060 0.068 -0.016 0.026 0.002
C17A 0.127 0.092 0.060 0.012 -0.013 0.020
C18A 0.260 0.080 0.034 -0.032 0.014 -0.036
C19A 0.137 0.121 0.052 0.026 0.020 -0.020
C20A 0.126 0.073 0.072 -0.013 -0.019 0.030
C21A 0.127 0.108 0.051 -0.013 -0.031 0.007
C22A 0.112 0.135 0.058 -0.063 -0.021 -0.013
C23A 0.092 0.071 0.076 -0.014 0.001 -0.017
C24A 0.174 0.057 0.068 -0.018 -0.025 0.036
C25A 0.123 0.116 0.062 -0.015 -0.049 0.009
C26A 0.103 0.093 0.043 0.010 0.016 0.011
C27A 0.141 0.071 0.086 -0.010 -0.037 -0.002
C28A 0.111 0.090 0.096 -0.045 -0.021 -0.007
C29A 0.102 0.062 0.085 -0.020 -0.002 0.000
C30A 0.138 0.089 0.062 0.001 -0.002 -0.001
C31A 0.090 0.053 0.071 0.032 0.009 -0.004
C32A 0.106 0.080 0.102 -0.052 -0.040 -0.020
C33A 0.120 0.191 0.055 0.058 0.038 -0.001
C34A 0.145 0.114 0.074 -0.048 -0.010 -0.024
C35A 0.152 0.060 0.043 -0.004 -0.021 0.018
C36A 0.126 0.094 0.043 0.008 0.010 -0.005
C37A 0.134 0.065 0.053 -0.003 -0.011 -0.015
C38A 0.115 0.086 0.064 0.005 -0.005 -0.016
C39A 0.186 0.062 0.077 -0.007 0.009 -0.012
C40A 0.129 0.057 0.072 -0.009 0.007 -0.005
C41A 0.090 0.063 0.068 0.010 -0.011 0.000
C42A 0.093 0.092 0.056 0.000 0.005 -0.018
C43A 0.105 0.061 0.061 -0.002 0.000 -0.006
C44A 0.122 0.059 0.063 -0.003 0.011 -0.011
C45A 0.129 0.086 0.093 0.024 -0.003 -0.045
O1B 0.111 0.071 0.076 0.008 0.018 -0.020
O2B 0.093 0.093 0.132 0.065 0.035 0.007
O3B 0.081 0.122 0.071 -0.006 0.010 -0.013
O4B 0.086 0.085 0.062 -0.021 -0.029 0.002
O5B 0.103 0.100 0.030 -0.007 -0.025 0.002
O6B 0.131 0.109 0.069 0.002 0.009 -0.034
O7B 0.116 0.102 0.044 0.002 -0.004 0.002
O8B 0.102 0.110 0.090 -0.016 -0.014 -0.024
O9B 0.093 0.119 0.074 0.023 0.001 0.009
O10B 0.050 0.123 0.086 0.010 -0.007 -0.004
O11B 0.121 0.134 0.035 -0.019 0.015 -0.029
O12B 0.075 0.226 0.117 0.079 -0.004 0.007
O13B 0.153 0.075 0.060 -0.020 0.021 0.002
O14B 0.109 0.123 0.043 -0.015 0.003 0.005
O15B 0.153 0.072 0.053 -0.003 -0.006 0.017
O16B 0.115 0.069 0.058 0.010 -0.006 0.015
O17B 0.127 0.111 0.091 0.044 0.028 0.013
O18B 0.133 0.076 0.051 -0.009 -0.013 0.021
C1B 0.144 0.071 0.031 0.019 0.028 0.020
C2B 0.125 0.068 0.052 0.003 -0.037 0.022
C3B 0.098 0.096 0.060 0.007 -0.034 0.022
C4B 0.123 0.096 0.074 0.008 -0.021 -0.003
C5B 0.107 0.069 0.054 0.009 -0.012 0.006
C6B 0.100 0.093 0.106 0.025 -0.036 -0.014
C7B 0.104 0.106 0.111 -0.002 0.010 -0.009
C8B 0.170 0.050 0.057 0.001 -0.031 0.015
C9B 0.062 0.105 0.099 0.007 -0.004 -0.015
C10B 0.108 0.124 0.067 -0.041 0.021 -0.031
C11B 0.105 0.100 0.055 0.054 0.007 0.031
C12B 0.107 0.084 0.085 0.016 0.014 -0.020
C13B 0.087 0.109 0.075 0.022 0.008 0.004
C14B 0.120 0.086 0.055 -0.004 -0.018 0.002
C15B 0.115 0.144 0.055 -0.030 0.000 -0.010
C16B 0.086 0.042 0.076 -0.008 -0.007 0.000
C17B 0.099 0.056 0.078 0.006 0.010 0.017
C18B 0.120 0.093 0.056 0.012 -0.030 0.020
C19B 0.135 0.081 0.054 -0.024 -0.009 0.008
C20B 0.110 0.065 0.050 0.010 0.004 0.011
C21B 0.135 0.097 0.090 0.044 0.021 0.031
C22B 0.130 0.090 0.045 -0.022 -0.017 -0.003
C23B 0.104 0.082 0.086 -0.018 0.011 0.015
C24B 0.110 0.094 0.060 0.007 -0.003 0.019
C25B 0.104 0.089 0.047 -0.001 0.000 -0.016
C26B 0.087 0.121 0.060 0.022 0.003 -0.021
C27B 0.109 0.058 0.106 -0.018 -0.019 -0.009
C28B 0.115 0.073 0.065 0.006 -0.005 -0.004
C29B 0.132 0.080 0.053 -0.014 0.001 -0.013
C30B 0.168 0.132 0.163 -0.085 0.089 -0.059
C31B 0.071 0.109 0.072 0.007 -0.051 -0.032
C32B 0.128 0.064 0.065 0.000 0.032 0.018
C33B 0.121 0.096 0.088 -0.016 -0.050 -0.008
C34B 0.123 0.100 0.070 -0.029 0.004 -0.007
C35B 0.105 0.089 0.053 0.015 0.022 0.006
C36B 0.097 0.104 0.047 -0.011 0.001 0.015
C37B 0.102 0.081 0.063 -0.003 -0.013 0.022
C38B 0.087 0.064 0.047 0.014 0.012 0.003
C39B 0.115 0.099 0.058 -0.022 -0.010 -0.005
C40B 0.097 0.066 0.078 0.014 0.012 0.009
C41B 0.103 0.083 0.052 0.006 -0.003 -0.026
C42B 0.110 0.085 0.054 -0.008 0.002 0.011
C43B 0.087 0.076 0.054 -0.013 0.001 -0.010
C44B 0.064 0.080 0.075 0.016 0.024 0.011
C45B 0.084 0.130 0.084 0.032 0.003 -0.016
C46B 0.078 0.100 0.084 0.019 0.068 0.001
C47B 0.105 0.082 0.074 -0.012 -0.039 0.011
C48B 0.084 0.143 0.048 -0.013 0.015 0.010
C49B 0.082 0.121 0.057 -0.016 0.026 -0.020
C50B 0.094 0.098 0.040 0.003 0.006 0.012
C51B 0.081 0.090 0.083 0.027 0.000 0.000
C52B 0.139 0.106 0.040 0.008 -0.001 0.002
C53B 0.085 0.087 0.047 -0.007 -0.014 0.012
C54B 0.134 0.066 0.103 0.026 -0.003 0.015
C55B 0.091 0.072 0.113 0.016 0.007 -0.002
C56B 0.097 0.088 0.068 0.018 0.006 0.009
C57B 0.089 0.123 0.064 0.015 -0.021 0.004
C58B 0.112 0.109 0.071 -0.002 -0.022 -0.011
C59B 0.080 0.093 0.099 0.037 0.016 0.003
C60B 0.132 0.358 0.145 0.184 -0.023 0.005
C61B 0.134 0.046 0.048 -0.013 0.018 0.009
C62B 0.104 0.073 0.082 -0.021 -0.025 0.027
C63B 0.136 0.133 0.094 -0.032 0.031 0.006
C64B 0.130 0.101 0.081 -0.026 -0.002 -0.016
C65B 0.111 0.076 0.069 -0.020 -0.002 -0.001
C66B 0.123 0.082 0.074 -0.013 -0.018 0.023
C67B 0.140 0.078 0.069 -0.010 -0.035 0.028
C68B 0.084 0.086 0.097 -0.020 0.008 -0.007
C69B 0.151 0.066 0.090 -0.014 0.007 0.013
C70B 0.146 0.068 0.077 -0.024 -0.009 0.021
C71B 0.102 0.094 0.056 -0.004 0.007 0.001
C72B 0.108 0.094 0.058 -0.016 -0.012 0.014
C73B 0.133 0.079 0.055 0.004 0.009 0.006
C74B 0.130 0.090 0.047 0.010 0.014 0.015
C75B 0.120 0.150 0.089 -0.022 0.015 0.033
C76B 0.172 0.043 0.060 0.002 0.006 -0.031
C77B 0.098 0.095 0.088 0.006 -0.007 -0.003
C78B 0.072 0.111 0.077 0.035 -0.008 -0.003
C79B 0.161 0.097 0.095 0.051 0.039 0.036
C80B 0.092 0.122 0.061 -0.004 -0.007 0.015
C81B 0.163 0.070 0.052 0.023 -0.004 0.016
C82B 0.106 0.188 0.057 -0.036 0.002 -0.062
C83B 0.096 0.085 0.051 -0.001 0.008 -0.007
C84B 0.137 0.070 0.079 0.023 0.003 -0.020
C85B 0.109 0.104 0.052 -0.012 0.002 0.027
C86B 0.141 0.083 0.028 -0.006 0.006 -0.017
C87B 0.125 0.088 0.083 -0.004 0.005 -0.004
C88B 0.153 0.064 0.051 0.015 0.012 -0.001
C89B 0.133 0.043 0.070 -0.011 -0.012 0.005
C90B 0.127 0.085 0.071 -0.005 -0.006 -0.009
O1C 0.120 0.085 0.058 -0.002 -0.030 0.013
O2C 0.096 0.099 0.071 0.023 -0.025 -0.002
O3C 0.171 0.097 0.072 -0.016 0.013 0.029
O4C 0.104 0.142 0.045 0.014 0.002 0.017
O5C 0.134 0.112 0.063 -0.001 0.025 -0.004
O6C 0.118 0.142 0.084 -0.049 -0.026 0.033
O7C 0.141 0.061 0.102 -0.034 0.018 0.004
O8C 0.110 0.086 0.060 -0.009 -0.008 -0.011
O9C 0.117 0.097 0.051 0.007 -0.011 0.009
C1C 0.088 0.088 0.088 0.001 0.000 0.001
C2C 0.113 0.117 0.065 0.011 -0.005 0.006
C3C 0.141 0.141 0.141 0.000 -0.001 0.000
C4C 0.141 0.141 0.141 0.000 -0.001 0.000
C5C 0.152 0.088 0.048 0.003 -0.001 0.026
C6C 0.123 0.129 0.062 0.034 -0.026 -0.004
C7C 0.103 0.098 0.105 0.024 -0.006 0.003
C8C 0.134 0.094 0.061 0.006 -0.012 0.017
C9C 0.109 0.102 0.045 0.024 0.028 0.034
C10C 0.116 0.083 0.068 -0.005 -0.008 0.000
C11C 0.174 0.080 0.048 0.004 -0.031 -0.005
C12C 0.242 0.064 0.107 0.013 -0.041 0.004
C13C 0.289 0.079 0.079 0.000 -0.044 0.002
C14C 0.113 0.104 0.055 -0.010 0.001 0.027
C15C 0.285 0.099 0.068 0.043 -0.009 0.007
C16C 0.112 0.109 0.031 -0.010 0.008 0.029
C17C 0.131 0.107 0.059 0.002 -0.006 -0.010
C18C 0.145 0.103 0.082 -0.043 0.043 -0.027
C19C 0.155 0.120 0.092 -0.007 0.026 -0.013
C20C 0.097 0.140 0.070 -0.028 0.013 -0.002
C21C 0.138 0.093 0.058 0.001 0.018 0.0