####################################################################### 
# 
# This file contains crystal structure data downloaded from the 
# Cambridge Structural Database (CSD) hosted by the Cambridge 
# Crystallographic Data Centre (CCDC).
# 
# Full information about CCDC data access policies and citation 
# guidelines are available at http://www.ccdc.cam.ac.uk/access/V1 
# 
# Audit and citation data items may have been added by the CCDC. 
# Please retain this information to preserve the provenance of 
# this file and to allow appropriate attribution of the data. 
# 
#######################################################################

data_3
_audit_block_doi                 10.5517/cc10mx4p
_database_code_depnum_ccdc_archive 'CCDC 942652'
loop_
_citation_id
_citation_doi
_citation_year
1 10.1016/j.saa.2013.07.079 2013
_audit_update_record             
;
2013-06-04 deposited with the CCDC.	2024-07-11 downloaded from the CCDC.
;

_audit_creation_method           SHELXL-97
_chemical_name_systematic        
; 
 ? 
;
_chemical_name_common            ?
_chemical_melting_point          ?
_chemical_formula_moiety         ?
_chemical_formula_sum            'C48 H44 Cl Cu2 Eu N8 O24'
_chemical_formula_weight         1431.40

loop_
_atom_type_symbol
_atom_type_description
_atom_type_scat_dispersion_real
_atom_type_scat_dispersion_imag
_atom_type_scat_source
C C 0.0033 0.0016 'International Tables Vol C Tables 4.2.6.8 and 6.1.1.4'
H H 0.0000 0.0000 'International Tables Vol C Tables 4.2.6.8 and 6.1.1.4'
Cu Cu 0.3201 1.2651 'International Tables Vol C Tables 4.2.6.8 and 6.1.1.4'
N N 0.0061 0.0033 'International Tables Vol C Tables 4.2.6.8 and 6.1.1.4'
O O 0.0106 0.0060 'International Tables Vol C Tables 4.2.6.8 and 6.1.1.4'
Eu Eu -0.1578 3.6682 'International Tables Vol C Tables 4.2.6.8 and 6.1.1.4'
Cl Cl 0.1484 0.1585 'International Tables Vol C Tables 4.2.6.8 and 6.1.1.4'

_symmetry_cell_setting           Monoclinic
_symmetry_space_group_name_H-M   C2/c

loop_
_symmetry_equiv_pos_as_xyz
'x, y, z'
'-x, y, -z+1/2'
'x+1/2, y+1/2, z'
'-x+1/2, y+1/2, -z+1/2'
'-x, -y, -z'
'x, -y, z-1/2'
'-x+1/2, -y+1/2, -z'
'x+1/2, -y+1/2, z-1/2'

_cell_length_a                   26.300(7)
_cell_length_b                   7.388(2)
_cell_length_c                   28.164(8)
_cell_angle_alpha                90.00
_cell_angle_beta                 98.114(5)
_cell_angle_gamma                90.00
_cell_volume                     5418(3)
_cell_formula_units_Z            4
_cell_measurement_temperature    296(2)
_cell_measurement_reflns_used    2567
_cell_measurement_theta_min      2.87
_cell_measurement_theta_max      25.00

_exptl_crystal_description       needle
_exptl_crystal_colour            black
_exptl_crystal_size_max          0.48
_exptl_crystal_size_mid          0.06
_exptl_crystal_size_min          0.04
_exptl_crystal_density_meas      ?
_exptl_crystal_density_diffrn    1.755
_exptl_crystal_density_method    'not measured'
_exptl_crystal_F_000             2872
_exptl_absorpt_coefficient_mu    2.064
_exptl_absorpt_correction_type   multi-scan
_exptl_absorpt_correction_T_min  0.4374
_exptl_absorpt_correction_T_max  0.9220
_exptl_absorpt_process_details   SADABS

_exptl_special_details           
; 
 ? 
;

_diffrn_ambient_temperature      296(2)
_diffrn_radiation_wavelength     0.71073
_diffrn_radiation_type           MoK\a
_diffrn_radiation_source         'fine-focus sealed tube'
_diffrn_radiation_monochromator  graphite
_diffrn_measurement_device_type  'Bruker APEX-II'
_diffrn_measurement_method       '\w scans'
_diffrn_detector_area_resol_mean none
_diffrn_standards_number         none
_diffrn_standards_interval_count none
_diffrn_standards_interval_time  none
_diffrn_standards_decay_%        none
_diffrn_reflns_number            12553
_diffrn_reflns_av_R_equivalents  0.0759
_diffrn_reflns_av_sigmaI/netI    0.0936
_diffrn_reflns_limit_h_min       -31
_diffrn_reflns_limit_h_max       25
_diffrn_reflns_limit_k_min       -8
_diffrn_reflns_limit_k_max       8
_diffrn_reflns_limit_l_min       -33
_diffrn_reflns_limit_l_max       32
_diffrn_reflns_theta_min         2.87
_diffrn_reflns_theta_max         25.00
_reflns_number_total             4616
_reflns_number_gt                3149
_reflns_threshold_expression     >2sigma(I)

_computing_data_collection       'Bruker XSCANS'
_computing_cell_refinement       'Bruker XSCANS'
_computing_data_reduction        'Bruker SHELXTL'
_computing_structure_solution    'SHELXS-97 (Sheldrick, 1990)'
_computing_structure_refinement  'SHELXL-97 (Sheldrick, 1997)'
_computing_molecular_graphics    'Bruker SHELXTL'
_computing_publication_material  'Bruker SHELXTL'

_refine_special_details          
; 
 Refinement of F^2^ against ALL reflections.  The weighted R-factor wR and 
 goodness of fit S are based on F^2^, conventional R-factors R are based 
 on F, with F set to zero for negative F^2^. The threshold expression of 
 F^2^ > 2sigma(F^2^) is used only for calculating R-factors(gt) etc. and is 
 not relevant to the choice of reflections for refinement.  R-factors based 
 on F^2^ are statistically about twice as large as those based on F, and R- 
 factors based on ALL data will be even larger. 
;

_refine_ls_structure_factor_coef Fsqd
_refine_ls_matrix_type           full
_refine_ls_weighting_scheme      calc
_refine_ls_weighting_details     
'calc w=1/[\s^2^(Fo^2^)+(0.1381P)^2^+50.7709P] where P=(Fo^2^+2Fc^2^)/3'
_atom_sites_solution_primary     direct
_atom_sites_solution_secondary   difmap
_atom_sites_solution_hydrogens   geom
_refine_ls_hydrogen_treatment    constr
_refine_ls_extinction_method     none
_refine_ls_extinction_coef       ?
_refine_ls_number_reflns         4616
_refine_ls_number_parameters     376
_refine_ls_number_restraints     58
_refine_ls_R_factor_all          0.1224
_refine_ls_R_factor_gt           0.0869
_refine_ls_wR_factor_ref         0.2448
_refine_ls_wR_factor_gt          0.2227
_refine_ls_goodness_of_fit_ref   1.050
_refine_ls_restrained_S_all      1.085
_refine_ls_shift/su_max          0.001
_refine_ls_shift/su_mean         0.000

loop_
_atom_site_label
_atom_site_type_symbol
_atom_site_fract_x
_atom_site_fract_y
_atom_site_fract_z
_atom_site_U_iso_or_equiv
_atom_site_adp_type
_atom_site_occupancy
_atom_site_symmetry_multiplicity
_atom_site_calc_flag
_atom_site_refinement_flags
_atom_site_disorder_assembly
_atom_site_disorder_group
Eu1 Eu 0.0000 0.26906(11) 0.2500 0.0260(3) Uani 1 2 d SD . .
Cu1 Cu 0.27705(5) 0.2690(2) 0.25037(5) 0.0308(4) Uani 1 1 d . . .
N1 N 0.3301(3) 0.3530(13) 0.3054(3) 0.029(2) Uani 1 1 d . . .
N2 N 0.2380(3) 0.2118(13) 0.3060(3) 0.030(2) Uani 1 1 d . . .
N3 N 0.3152(3) 0.1851(13) 0.1956(3) 0.028(2) Uani 1 1 d . . .
N4 N 0.2213(3) 0.3257(14) 0.1948(3) 0.033(2) Uani 1 1 d . . .
O1 O 0.4770(3) 0.5283(13) 0.2975(3) 0.046(2) Uani 1 1 d U . .
O1W O -0.2296(4) 0.4867(12) -0.0007(3) 0.053(2) Uani 1 1 d U . .
O2W O -0.3150(5) 0.5376(16) -0.0003(3) 0.067(3) Uani 1 1 d U . .
O3W O 0.0957(5) -0.0212(18) 0.4910(4) 0.081(3) Uiso 1 1 d . . .
O4W O 0.4679(10) -0.169(4) 0.5067(9) 0.086 Uiso 0.50 1 d P . .
O5W O 0.3404(9) -0.072(3) -0.0011(6) 0.063(6) Uani 0.50 1 d PU . .
O2 O 0.5000(3) 0.493(2) 0.3750(4) 0.076(4) Uani 1 1 d . . .
O3 O 0.0821(3) 0.1589(15) 0.2955(3) 0.048(2) Uani 1 1 d . . .
O4 O 0.0869(3) 0.1088(17) 0.3739(3) 0.060(3) Uani 1 1 d . . .
O5 O 0.4624(3) 0.0105(14) 0.2021(3) 0.050(3) Uani 1 1 d . . .
O6 O 0.4636(3) 0.0560(16) 0.1250(3) 0.060(3) Uani 1 1 d U . .
O7 O 0.0675(3) 0.3784(14) 0.2050(3) 0.045(2) Uani 1 1 d . . .
O8 O 0.0495(3) 0.4389(15) 0.1262(3) 0.053(3) Uani 1 1 d U . .
C1 C 0.4687(4) 0.4840(16) 0.3368(4) 0.032(3) Uani 1 1 d . . .
C2 C 0.4168(4) 0.4122(16) 0.3432(4) 0.030(3) Uani 1 1 d . . .
C3 C 0.3797(3) 0.4010(16) 0.3044(4) 0.028(3) Uani 1 1 d . . .
H3A H 0.3892 0.4286 0.2747 0.034 Uiso 1 1 calc R . .
C4 C 0.4038(5) 0.3633(19) 0.3869(5) 0.042(3) Uani 1 1 d . . .
H4A H 0.4284 0.3622 0.4140 0.051 Uiso 1 1 calc R . .
C5 C 0.3534(5) 0.3153(19) 0.3899(4) 0.040(3) Uani 1 1 d U . .
H5A H 0.3439 0.2861 0.4195 0.048 Uiso 1 1 calc R . .
C6 C 0.3169(4) 0.3103(17) 0.3493(4) 0.033(3) Uani 1 1 d . . .
C7 C 0.2634(4) 0.2657(15) 0.3487(4) 0.029(3) Uani 1 1 d . . .
C8 C 0.2395(5) 0.2644(19) 0.3894(5) 0.046(3) Uani 1 1 d U . .
H8A H 0.2583 0.2951 0.4188 0.055 Uiso 1 1 calc R . .
C9 C 0.1889(4) 0.2189(19) 0.3874(5) 0.042(3) Uani 1 1 d . . .
H9A H 0.1730 0.2176 0.4148 0.051 Uiso 1 1 calc R . .
C10 C 0.1944(4) 0.1721(19) 0.3077(4) 0.043(3) Uani 1 1 d D . .
H10A H 0.1780 0.1288 0.2785 0.052 Uiso 1 1 calc R . .
C11 C 0.1619(4) 0.1744(16) 0.3425(5) 0.033(3) Uani 1 1 d . . .
C12 C 0.1051(4) 0.1440(17) 0.3349(5) 0.033(3) Uani 1 1 d . . .
C13 C 0.4424(4) 0.0625(18) 0.1636(5) 0.036(3) Uani 1 1 d . . .
C14 C 0.3886(4) 0.1317(16) 0.1573(4) 0.029(3) Uani 1 1 d . . .
C15 C 0.3622(4) 0.1359(17) 0.1960(4) 0.033(3) Uani 1 1 d . . .
H15A H 0.3801 0.0998 0.2254 0.040 Uiso 1 1 calc R . .
C16 C 0.3620(5) 0.178(2) 0.1136(5) 0.044(3) Uani 1 1 d . . .
H16A H 0.3778 0.1724 0.0862 0.053 Uiso 1 1 calc R . .
C17 C 0.3120(5) 0.2308(18) 0.1109(5) 0.040(3) Uani 1 1 d . . .
H17A H 0.2935 0.2657 0.0817 0.048 Uiso 1 1 calc R . .
C18 C 0.2895(5) 0.2318(15) 0.1522(4) 0.032(3) Uani 1 1 d . . .
C19 C 0.2343(4) 0.2787(16) 0.1508(4) 0.031(3) Uani 1 1 d U . .
C20 C 0.1990(5) 0.2855(18) 0.1103(5) 0.041(3) Uani 1 1 d . . .
H20A H 0.2090 0.2630 0.0805 0.049 Uiso 1 1 calc R . .
C21 C 0.1487(5) 0.326(2) 0.1139(5) 0.050(4) Uani 1 1 d . . .
H21A H 0.1241 0.3280 0.0868 0.060 Uiso 1 1 calc R . .
C22 C 0.1731(4) 0.3724(14) 0.1945(4) 0.027(2) Uani 1 1 d D . .
H22A H 0.1644 0.4178 0.2231 0.032 Uiso 1 1 calc R . .
C23 C 0.1355(4) 0.3623(16) 0.1581(4) 0.026(2) Uani 1 1 d . . .
C24 C 0.0805(4) 0.3983(18) 0.1651(4) 0.037(3) Uani 1 1 d . . .
Cl1 Cl 0.1310(3) 0.1850(14) 0.2429(3) 0.080 Uiso 0.50 1 d PD . .

loop_
_atom_site_aniso_label
_atom_site_aniso_U_11
_atom_site_aniso_U_22
_atom_site_aniso_U_33
_atom_site_aniso_U_23
_atom_site_aniso_U_13
_atom_site_aniso_U_12
Eu1 0.0152(4) 0.0331(5) 0.0305(5) 0.000 0.0063(3) 0.000
Cu1 0.0168(7) 0.0461(10) 0.0308(8) 0.0011(6) 0.0074(6) 0.0013(6)
N1 0.019(5) 0.036(6) 0.031(5) 0.005(4) 0.004(4) -0.004(4)
N2 0.019(5) 0.039(6) 0.035(5) 0.002(4) 0.008(4) -0.004(4)
N3 0.013(4) 0.036(6) 0.036(5) 0.001(4) 0.009(4) -0.001(4)
N4 0.023(5) 0.041(6) 0.036(5) -0.001(4) 0.011(4) 0.010(4)
O1 0.033(4) 0.059(5) 0.046(5) 0.008(4) 0.008(4) -0.015(4)
O1W 0.106(7) 0.040(5) 0.013(4) -0.002(3) 0.011(4) -0.004(5)
O2W 0.097(7) 0.077(6) 0.028(4) 0.007(4) 0.017(5) -0.004(6)
O5W 0.117(14) 0.054(11) 0.020(8) -0.018(7) 0.020(9) -0.021(11)
O2 0.014(4) 0.168(13) 0.048(6) 0.014(7) 0.010(4) -0.032(6)
O3 0.016(4) 0.091(8) 0.033(5) 0.026(5) -0.007(4) -0.006(4)
O4 0.025(5) 0.120(10) 0.038(5) -0.001(5) 0.012(4) -0.030(5)
O5 0.029(5) 0.077(7) 0.045(5) 0.014(5) 0.008(4) 0.025(5)
O6 0.032(5) 0.096(7) 0.055(5) 0.007(5) 0.022(4) 0.017(5)
O7 0.013(4) 0.074(7) 0.051(6) 0.017(5) 0.014(4) 0.011(4)
O8 0.033(4) 0.081(6) 0.044(5) 0.003(4) 0.003(4) 0.023(4)
C1 0.015(5) 0.036(7) 0.046(7) 0.003(5) 0.006(5) -0.004(5)
C2 0.014(5) 0.039(7) 0.039(7) 0.004(5) 0.011(5) -0.001(5)
C3 0.003(5) 0.039(7) 0.042(7) 0.005(5) 0.002(4) -0.009(4)
C4 0.029(7) 0.057(9) 0.041(7) 0.009(6) 0.005(5) -0.012(6)
C5 0.029(6) 0.058(7) 0.035(6) 0.002(5) 0.015(5) -0.009(5)
C6 0.024(6) 0.036(7) 0.039(7) -0.004(5) 0.009(5) -0.010(5)
C7 0.015(5) 0.040(7) 0.032(6) 0.001(5) 0.008(4) -0.001(5)
C8 0.036(6) 0.056(7) 0.047(6) -0.006(5) 0.011(5) -0.011(5)
C9 0.019(6) 0.072(10) 0.038(7) -0.007(6) 0.013(5) -0.010(6)
C10 0.049(9) 0.041(8) 0.042(7) 0.006(6) 0.015(6) -0.004(6)
C11 0.020(6) 0.026(6) 0.058(8) 0.009(5) 0.020(5) -0.001(5)
C12 0.017(5) 0.035(7) 0.051(8) 0.011(6) 0.015(6) 0.004(5)
C13 0.017(6) 0.045(8) 0.046(8) -0.001(6) 0.006(5) 0.006(5)
C14 0.018(5) 0.033(7) 0.042(7) 0.008(5) 0.017(5) 0.004(5)
C15 0.024(6) 0.041(7) 0.036(7) 0.001(5) 0.012(5) 0.000(5)
C16 0.029(7) 0.054(9) 0.054(8) 0.002(7) 0.020(6) 0.016(6)
C17 0.037(7) 0.056(9) 0.030(6) 0.004(6) 0.015(5) 0.017(6)
C18 0.031(6) 0.030(7) 0.036(6) -0.001(5) 0.013(5) 0.001(5)
C19 0.021(5) 0.033(6) 0.040(6) -0.002(5) 0.005(4) -0.005(4)
C20 0.034(7) 0.051(8) 0.040(7) -0.012(6) 0.014(6) 0.004(6)
C21 0.020(6) 0.091(11) 0.039(7) -0.004(7) 0.004(5) 0.014(7)
C22 0.017(5) 0.031(6) 0.033(6) -0.007(5) 0.008(5) 0.003(4)
C23 0.009(5) 0.037(7) 0.032(6) 0.011(5) 0.006(4) 0.004(4)
C24 0.024(6) 0.047(8) 0.043(7) 0.007(6) 0.015(6) 0.010(5)

_geom_special_details            
; 
 All esds (except the esd in the dihedral angle between two l.s. planes) 
 are estimated using the full covariance matrix.  The cell esds are taken 
 into account individually in the estimation of esds in distances, angles 
 and torsion angles; correlations between esds in cell parameters are only 
 used when they are defined by crystal symmetry.  An approximate (isotropic) 
 treatment of cell esds is used for estimating esds involving l.s. planes. 
;

loop_
_geom_bond_atom_site_label_1
_geom_bond_atom_site_label_2
_geom_bond_distance
_geom_bond_site_symmetry_2
_geom_bond_publ_flag
Eu1 O1 2.355(9) 4_545 ?
Eu1 O1 2.355(9) 3_445 ?
Eu1 O5 2.367(9) 4 ?
Eu1 O5 2.367(9) 3_455 ?
Eu1 O7 2.457(8) . ?
Eu1 O7 2.457(8) 2 ?
Eu1 O3 2.487(8) . ?
Eu1 O3 2.487(8) 2 ?
Cu1 N1 2.030(9) . ?
Cu1 N4 2.031(9) . ?
Cu1 N2 2.034(9) . ?
Cu1 N3 2.050(9) . ?
N1 C3 1.356(13) . ?
N1 C6 1.367(14) . ?
N2 C10 1.193(14) . ?
N2 C7 1.351(15) . ?
N3 C15 1.289(14) . ?
N3 C18 1.356(16) . ?
N4 C22 1.313(13) . ?
N4 C19 1.375(14) . ?
O1 C1 1.205(14) . ?
O1 Eu1 2.355(9) 3 ?
O2 C1 1.260(15) . ?
O3 C12 1.191(14) . ?
O3 Cl1 2.105(11) . ?
O4 C12 1.286(14) . ?
O5 C13 1.199(14) . ?
O5 Eu1 2.367(9) 3_545 ?
O6 C13 1.291(14) . ?
O7 C24 1.230(14) . ?
O8 C24 1.305(15) . ?
C1 C2 1.499(14) . ?
C2 C3 1.361(15) . ?
C2 C4 1.370(16) . ?
C3 H3A 0.9300 . ?
C4 C5 1.388(17) . ?
C4 H4A 0.9300 . ?
C5 C6 1.385(17) . ?
C5 H5A 0.9300 . ?
C6 C7 1.442(15) . ?
C7 C8 1.385(18) . ?
C8 C9 1.365(18) . ?
C8 H8A 0.9300 . ?
C9 C11 1.398(18) . ?
C9 H9A 0.9300 . ?
C10 C11 1.387(17) . ?
C10 H10A 0.9300 . ?
C11 C12 1.495(15) . ?
C13 C14 1.490(15) . ?
C14 C16 1.368(18) . ?
C14 C15 1.374(15) . ?
C15 H15A 0.9300 . ?
C16 C17 1.363(17) . ?
C16 H16A 0.9300 . ?
C17 C18 1.378(16) . ?
C17 H17A 0.9300 . ?
C18 C19 1.490(16) . ?
C19 C20 1.366(18) . ?
C20 C21 1.373(17) . ?
C20 H20A 0.9300 . ?
C21 C23 1.366(16) . ?
C21 H21A 0.9300 . ?
C22 C23 1.320(15) . ?
C22 H22A 0.9300 . ?
C23 C24 1.511(14) . ?

loop_
_geom_angle_atom_site_label_1
_geom_angle_atom_site_label_2
_geom_angle_atom_site_label_3
_geom_angle
_geom_angle_site_symmetry_1
_geom_angle_site_symmetry_3
_geom_angle_publ_flag
O1 Eu1 O1 81.9(5) 4_545 3_445 ?
O1 Eu1 O5 140.6(3) 4_545 4 ?
O1 Eu1 O5 111.5(3) 3_445 4 ?
O1 Eu1 O5 111.5(3) 4_545 3_455 ?
O1 Eu1 O5 140.6(3) 3_445 3_455 ?
O5 Eu1 O5 82.2(5) 4 3_455 ?
O1 Eu1 O7 72.1(3) 4_545 . ?
O1 Eu1 O7 143.4(3) 3_445 . ?
O5 Eu1 O7 76.8(3) 4 . ?
O5 Eu1 O7 74.5(3) 3_455 . ?
O1 Eu1 O7 143.4(3) 4_545 2 ?
O1 Eu1 O7 72.1(3) 3_445 2 ?
O5 Eu1 O7 74.5(3) 4 2 ?
O5 Eu1 O7 76.8(3) 3_455 2 ?
O7 Eu1 O7 141.6(5) . 2 ?
O1 Eu1 O3 76.8(3) 4_545 . ?
O1 Eu1 O3 74.6(3) 3_445 . ?
O5 Eu1 O3 72.0(4) 4 . ?
O5 Eu1 O3 143.4(3) 3_455 . ?
O7 Eu1 O3 74.7(3) . . ?
O7 Eu1 O3 118.6(3) 2 . ?
O1 Eu1 O3 74.6(3) 4_545 2 ?
O1 Eu1 O3 76.8(3) 3_445 2 ?
O5 Eu1 O3 143.4(3) 4 2 ?
O5 Eu1 O3 72.0(4) 3_455 2 ?
O7 Eu1 O3 118.6(3) . 2 ?
O7 Eu1 O3 74.7(3) 2 2 ?
O3 Eu1 O3 141.8(5) . 2 ?
N1 Cu1 N4 150.3(4) . . ?
N1 Cu1 N2 81.0(4) . . ?
N4 Cu1 N2 104.3(4) . . ?
N1 Cu1 N3 108.1(4) . . ?
N4 Cu1 N3 81.9(4) . . ?
N2 Cu1 N3 150.4(4) . . ?
C3 N1 C6 116.5(9) . . ?
C3 N1 Cu1 128.6(7) . . ?
C6 N1 Cu1 112.6(7) . . ?
C10 N2 C7 113.2(10) . . ?
C10 N2 Cu1 132.6(8) . . ?
C7 N2 Cu1 112.6(7) . . ?
C15 N3 C18 115.7(10) . . ?
C15 N3 Cu1 130.5(8) . . ?
C18 N3 Cu1 111.6(7) . . ?
C22 N4 C19 114.9(9) . . ?
C22 N4 Cu1 130.7(7) . . ?
C19 N4 Cu1 113.4(7) . . ?
C1 O1 Eu1 145.3(9) . 3 ?
C12 O3 Cl1 112.4(7) . . ?
C12 O3 Eu1 143.2(8) . . ?
Cl1 O3 Eu1 100.3(4) . . ?
C13 O5 Eu1 148.3(9) . 3_545 ?
C24 O7 Eu1 145.6(8) . . ?
O1 C1 O2 126.1(10) . . ?
O1 C1 C2 119.5(10) . . ?
O2 C1 C2 114.4(10) . . ?
C3 C2 C4 117.6(10) . . ?
C3 C2 C1 119.1(10) . . ?
C4 C2 C1 123.2(11) . . ?
N1 C3 C2 125.6(10) . . ?
N1 C3 H3A 117.2 . . ?
C2 C3 H3A 117.2 . . ?
C2 C4 C5 118.9(11) . . ?
C2 C4 H4A 120.5 . . ?
C5 C4 H4A 120.5 . . ?
C6 C5 C4 120.9(11) . . ?
C6 C5 H5A 119.5 . . ?
C4 C5 H5A 119.5 . . ?
N1 C6 C5 120.3(10) . . ?
N1 C6 C7 114.4(10) . . ?
C5 C6 C7 125.2(11) . . ?
N2 C7 C8 120.7(10) . . ?
N2 C7 C6 115.9(10) . . ?
C8 C7 C6 123.2(11) . . ?
C9 C8 C7 121.3(12) . . ?
C9 C8 H8A 119.4 . . ?
C7 C8 H8A 119.4 . . ?
C8 C9 C11 117.7(11) . . ?
C8 C9 H9A 121.2 . . ?
C11 C9 H9A 121.2 . . ?
N2 C10 C11 135.9(11) . . ?
N2 C10 H10A 112.1 . . ?
C11 C10 H10A 112.1 . . ?
C10 C11 C9 110.9(10) . . ?
C10 C11 C12 126.7(11) . . ?
C9 C11 C12 122.3(10) . . ?
O3 C12 O4 127.7(10) . . ?
O3 C12 C11 119.1(10) . . ?
O4 C12 C11 113.1(11) . . ?
O5 C13 O6 124.3(11) . . ?
O5 C13 C14 120.4(11) . . ?
O6 C13 C14 115.3(10) . . ?
C16 C14 C15 117.1(10) . . ?
C16 C14 C13 123.4(10) . . ?
C15 C14 C13 119.2(10) . . ?
N3 C15 C14 126.2(11) . . ?
N3 C15 H15A 116.9 . . ?
C14 C15 H15A 116.9 . . ?
C17 C16 C14 119.4(11) . . ?
C17 C16 H16A 120.3 . . ?
C14 C16 H16A 120.3 . . ?
C16 C17 C18 118.6(12) . . ?
C16 C17 H17A 120.7 . . ?
C18 C17 H17A 120.7 . . ?
N3 C18 C17 122.9(11) . . ?
N3 C18 C19 116.2(10) . . ?
C17 C18 C19 120.9(11) . . ?
C20 C19 N4 121.1(10) . . ?
C20 C19 C18 125.1(11) . . ?
N4 C19 C18 113.7(10) . . ?
C19 C20 C21 119.6(12) . . ?
C19 C20 H20A 120.2 . . ?
C21 C20 H20A 120.2 . . ?
C23 C21 C20 118.8(12) . . ?
C23 C21 H21A 120.6 . . ?
C20 C21 H21A 120.6 . . ?
N4 C22 C23 127.4(10) . . ?
N4 C22 H22A 116.3 . . ?
C23 C22 H22A 116.3 . . ?
C22 C23 C21 117.3(10) . . ?
C22 C23 C24 121.0(10) . . ?
C21 C23 C24 121.6(10) . . ?
O7 C24 O8 125.1(11) . . ?
O7 C24 C23 119.5(10) . . ?
O8 C24 C23 115.3(10) . . ?

_diffrn_measured_fraction_theta_max 0.968
_diffrn_reflns_theta_full        25.00
_diffrn_measured_fraction_theta_full 0.968
_refine_diff_density_max         1.546
_refine_diff_density_min         -4.544
_refine_diff_density_rms         0.229

