####################################################################### 
# 
# This file contains crystal structure data downloaded from the 
# Cambridge Structural Database (CSD) hosted by the Cambridge 
# Crystallographic Data Centre (CCDC).
# 
# Full information about CCDC data access policies and citation 
# guidelines are available at http://www.ccdc.cam.ac.uk/access/V1 
# 
# Audit and citation data items may have been added by the CCDC. 
# Please retain this information to preserve the provenance of 
# this file and to allow appropriate attribution of the data. 
# 
#######################################################################

data_1
_audit_block_doi                 10.5517/cc10mx2m
_database_code_depnum_ccdc_archive 'CCDC 942650'
loop_
_citation_id
_citation_doi
_citation_year
1 10.1016/j.saa.2013.07.079 2013
_audit_update_record             
;
2013-06-04 deposited with the CCDC.	2024-07-11 downloaded from the CCDC.
;

_audit_creation_method           SHELXL-97
_chemical_name_systematic        
; 
 ? 
;
_chemical_name_common            ?
_chemical_melting_point          ?
_chemical_formula_moiety         ?
_chemical_formula_sum            'C48 H44 Cl Cu2 La N8 O24'
_chemical_formula_weight         1418.35

loop_
_atom_type_symbol
_atom_type_description
_atom_type_scat_dispersion_real
_atom_type_scat_dispersion_imag
_atom_type_scat_source
C C 0.0033 0.0016 'International Tables Vol C Tables 4.2.6.8 and 6.1.1.4'
H H 0.0000 0.0000 'International Tables Vol C Tables 4.2.6.8 and 6.1.1.4'
Cu Cu 0.3201 1.2651 'International Tables Vol C Tables 4.2.6.8 and 6.1.1.4'
N N 0.0061 0.0033 'International Tables Vol C Tables 4.2.6.8 and 6.1.1.4'
O O 0.0106 0.0060 'International Tables Vol C Tables 4.2.6.8 and 6.1.1.4'
La La -0.2871 2.4523 'International Tables Vol C Tables 4.2.6.8 and 6.1.1.4'
Cl Cl 0.1484 0.1585 'International Tables Vol C Tables 4.2.6.8 and 6.1.1.4'

_symmetry_cell_setting           Monoclinic
_symmetry_space_group_name_H-M   C2/c

loop_
_symmetry_equiv_pos_as_xyz
'x, y, z'
'-x, y, -z+1/2'
'x+1/2, y+1/2, z'
'-x+1/2, y+1/2, -z+1/2'
'-x, -y, -z'
'x, -y, z-1/2'
'-x+1/2, -y+1/2, -z'
'x+1/2, -y+1/2, z-1/2'

_cell_length_a                   26.455(12)
_cell_length_b                   7.444(3)
_cell_length_c                   28.352(12)
_cell_angle_alpha                90.00
_cell_angle_beta                 97.915(9)
_cell_angle_gamma                90.00
_cell_volume                     5530(4)
_cell_formula_units_Z            4
_cell_measurement_temperature    296(2)
_cell_measurement_reflns_used    2357
_cell_measurement_theta_min      2.91
_cell_measurement_theta_max      25.00

_exptl_crystal_description       needle
_exptl_crystal_colour            black
_exptl_crystal_size_max          0.48
_exptl_crystal_size_mid          0.06
_exptl_crystal_size_min          0.04
_exptl_crystal_density_meas      ?
_exptl_crystal_density_diffrn    1.703
_exptl_crystal_density_method    'not measured'
_exptl_crystal_F_000             2848
_exptl_absorpt_coefficient_mu    1.660
_exptl_absorpt_correction_type   multiscan
_exptl_absorpt_correction_T_min  0.5029
_exptl_absorpt_correction_T_max  0.9366
_exptl_absorpt_process_details   SADABS

_exptl_special_details           
; 
 ? 
;

_diffrn_ambient_temperature      296(2)
_diffrn_radiation_wavelength     0.71073
_diffrn_radiation_type           MoK\a
_diffrn_radiation_source         'fine-focus sealed tube'
_diffrn_radiation_monochromator  graphite
_diffrn_measurement_device_type  'Bruker APEX-II'
_diffrn_measurement_method       '\w scans'
_diffrn_detector_area_resol_mean none
_diffrn_standards_number         none
_diffrn_standards_interval_count none
_diffrn_standards_interval_time  none
_diffrn_standards_decay_%        none
_diffrn_reflns_number            12735
_diffrn_reflns_av_R_equivalents  0.1822
_diffrn_reflns_av_sigmaI/netI    0.2578
_diffrn_reflns_limit_h_min       -31
_diffrn_reflns_limit_h_max       31
_diffrn_reflns_limit_k_min       -8
_diffrn_reflns_limit_k_max       8
_diffrn_reflns_limit_l_min       -25
_diffrn_reflns_limit_l_max       33
_diffrn_reflns_theta_min         2.91
_diffrn_reflns_theta_max         25.00
_reflns_number_total             4736
_reflns_number_gt                1955
_reflns_threshold_expression     >2sigma(I)

_computing_data_collection       'Bruker XSCANS'
_computing_cell_refinement       'Bruker XSCANS'
_computing_data_reduction        'Bruker SHELXTL'
_computing_structure_solution    'SHELXS-97 (Sheldrick, 1990)'
_computing_structure_refinement  'SHELXL-97 (Sheldrick, 1997)'
_computing_molecular_graphics    'Bruker SHELXTL'
_computing_publication_material  'Bruker SHELXTL'

_refine_special_details          
; 
 Refinement of F^2^ against ALL reflections.  The weighted R-factor wR and 
 goodness of fit S are based on F^2^, conventional R-factors R are based 
 on F, with F set to zero for negative F^2^. The threshold expression of 
 F^2^ > 2sigma(F^2^) is used only for calculating R-factors(gt) etc. and is 
 not relevant to the choice of reflections for refinement.  R-factors based 
 on F^2^ are statistically about twice as large as those based on F, and R- 
 factors based on ALL data will be even larger. 
;

_refine_ls_structure_factor_coef Fsqd
_refine_ls_matrix_type           full
_refine_ls_weighting_scheme      calc
_refine_ls_weighting_details     
'calc w=1/[\s^2^(Fo^2^)+(0.0495P)^2^+0.0000P] where P=(Fo^2^+2Fc^2^)/3'
_atom_sites_solution_primary     direct
_atom_sites_solution_secondary   difmap
_atom_sites_solution_hydrogens   geom
_refine_ls_hydrogen_treatment    constr
_refine_ls_extinction_method     none
_refine_ls_extinction_coef       ?
_refine_ls_number_reflns         4736
_refine_ls_number_parameters     376
_refine_ls_number_restraints     57
_refine_ls_R_factor_all          0.2299
_refine_ls_R_factor_gt           0.1128
_refine_ls_wR_factor_ref         0.2816
_refine_ls_wR_factor_gt          0.2377
_refine_ls_goodness_of_fit_ref   1.049
_refine_ls_restrained_S_all      1.077
_refine_ls_shift/su_max          0.000
_refine_ls_shift/su_mean         0.000

loop_
_atom_site_label
_atom_site_type_symbol
_atom_site_fract_x
_atom_site_fract_y
_atom_site_fract_z
_atom_site_U_iso_or_equiv
_atom_site_adp_type
_atom_site_occupancy
_atom_site_symmetry_multiplicity
_atom_site_calc_flag
_atom_site_refinement_flags
_atom_site_disorder_assembly
_atom_site_disorder_group
La1 La 0.0000 0.26740(19) 0.2500 0.0325(5) Uani 1 2 d S . .
Cu1 Cu 0.27505(6) 0.2677(3) 0.25027(6) 0.0350(6) Uani 1 1 d . . .
N1 N 0.3271(4) 0.3552(18) 0.3053(5) 0.035(3) Uani 1 1 d . . .
N2 N 0.2369(4) 0.2122(16) 0.3066(5) 0.034(3) Uani 1 1 d . . .
N3 N 0.3125(4) 0.1854(16) 0.1956(5) 0.034(3) Uani 1 1 d . . .
N4 N 0.2189(4) 0.3220(17) 0.1928(5) 0.034(3) Uani 1 1 d . . .
O1 O 0.4753(4) 0.5217(17) 0.3006(5) 0.060(3) Uani 1 1 d U . .
O1W O -0.2297(5) 0.4922(15) 0.0005(4) 0.058(3) Uani 1 1 d U . .
O2W O -0.3160(6) 0.5438(19) 0.0004(5) 0.079(4) Uani 1 1 d U . .
O3W O 0.0954(6) -0.016(2) 0.4896(5) 0.089(5) Uiso 1 1 d . . .
O4W O 0.4551(12) -0.185(4) 0.5096(11) 0.086 Uiso 0.50 1 d P . .
O5W O 0.3362(10) -0.075(3) 0.0006(7) 0.052(6) Uani 0.50 1 d PU . .
O2 O 0.4973(4) 0.481(2) 0.3754(4) 0.071(4) Uani 1 1 d . . .
O3 O 0.0814(4) 0.1482(18) 0.2964(4) 0.054(3) Uani 1 1 d . . .
O4 O 0.0855(4) 0.1017(19) 0.3732(4) 0.062(4) Uani 1 1 d . . .
O5 O 0.4618(4) 0.0247(17) 0.2012(5) 0.060(4) Uani 1 1 d . . .
O6 O 0.4603(4) 0.0622(18) 0.1231(4) 0.058(3) Uani 1 1 d U . .
O7 O 0.0670(4) 0.3933(19) 0.2036(5) 0.066(4) Uani 1 1 d . . .
O8 O 0.0500(4) 0.4511(18) 0.1255(4) 0.063(4) Uani 1 1 d U . .
C1 C 0.4659(6) 0.474(2) 0.3378(6) 0.035(4) Uani 1 1 d . . .
C2 C 0.4144(6) 0.408(2) 0.3443(5) 0.031(4) Uani 1 1 d . . .
C3 C 0.3768(5) 0.396(2) 0.3049(5) 0.036(4) Uani 1 1 d . . .
H3A H 0.3869 0.4180 0.2753 0.043 Uiso 1 1 calc R . .
C4 C 0.4017(6) 0.366(3) 0.3879(6) 0.055(5) Uani 1 1 d . . .
H4A H 0.4256 0.3712 0.4152 0.066 Uiso 1 1 calc R . .
C5 C 0.3506(5) 0.314(2) 0.3900(6) 0.042(4) Uani 1 1 d U . .
H5A H 0.3404 0.2827 0.4189 0.051 Uiso 1 1 calc R . .
C6 C 0.3165(5) 0.311(2) 0.3493(6) 0.032(4) Uani 1 1 d . . .
C7 C 0.2624(5) 0.2595(19) 0.3497(5) 0.027(3) Uani 1 1 d . . .
C8 C 0.2390(5) 0.253(2) 0.3901(5) 0.036(4) Uani 1 1 d U . .
H8A H 0.2581 0.2749 0.4195 0.043 Uiso 1 1 calc R . .
C9 C 0.1884(5) 0.217(2) 0.3878(5) 0.038(4) Uani 1 1 d . . .
H9A H 0.1724 0.2209 0.4150 0.046 Uiso 1 1 calc R . .
C10 C 0.1920(6) 0.168(2) 0.3135(5) 0.070(7) Uani 1 1 d D . .
H10A H 0.1761 0.1123 0.2861 0.085 Uiso 1 1 calc R . .
C11 C 0.1609(5) 0.172(2) 0.3438(6) 0.033(4) Uani 1 1 d . . .
C12 C 0.1041(7) 0.137(2) 0.3376(7) 0.044(5) Uani 1 1 d . . .
C13 C 0.4408(6) 0.070(3) 0.1626(6) 0.046(5) Uani 1 1 d . . .
C14 C 0.3865(6) 0.136(2) 0.1564(6) 0.041(4) Uani 1 1 d . . .
C15 C 0.3614(6) 0.136(2) 0.1950(6) 0.038(4) Uani 1 1 d . . .
H15A H 0.3796 0.0981 0.2237 0.046 Uiso 1 1 calc R . .
C16 C 0.3601(6) 0.178(2) 0.1118(5) 0.038(4) Uani 1 1 d . . .
H16A H 0.3752 0.1691 0.0842 0.046 Uiso 1 1 calc R . .
C17 C 0.3085(5) 0.235(2) 0.1112(5) 0.044(4) Uani 1 1 d . . .
H17A H 0.2897 0.2739 0.0830 0.053 Uiso 1 1 calc R . .
C18 C 0.2877(6) 0.231(2) 0.1511(6) 0.036(4) Uani 1 1 d . . .
C19 C 0.2325(5) 0.2824(19) 0.1507(5) 0.029(3) Uani 1 1 d U . .
C20 C 0.1973(6) 0.290(2) 0.1096(5) 0.042(4) Uani 1 1 d . . .
H20A H 0.2071 0.2685 0.0798 0.050 Uiso 1 1 calc R . .
C21 C 0.1480(6) 0.329(3) 0.1145(6) 0.049(5) Uani 1 1 d . . .
H21A H 0.1237 0.3297 0.0875 0.059 Uiso 1 1 calc R . .
C22 C 0.1730(6) 0.389(2) 0.1892(6) 0.056(5) Uani 1 1 d D . .
H22A H 0.1673 0.4655 0.2139 0.067 Uiso 1 1 calc R . .
C23 C 0.1334(5) 0.365(2) 0.1560(6) 0.034(4) Uani 1 1 d . . .
C24 C 0.0780(6) 0.397(2) 0.1634(6) 0.045(5) Uani 1 1 d . . .
Cl1 Cl 0.1422(4) 0.1782(15) 0.2400(4) 0.080 Uiso 0.50 1 d PD . .

loop_
_atom_site_aniso_label
_atom_site_aniso_U_11
_atom_site_aniso_U_22
_atom_site_aniso_U_33
_atom_site_aniso_U_23
_atom_site_aniso_U_13
_atom_site_aniso_U_12
La1 0.0156(6) 0.0484(10) 0.0342(8) 0.000 0.0058(5) 0.000
Cu1 0.0204(10) 0.0514(15) 0.0343(11) 0.0036(10) 0.0077(8) 0.0003(9)
N1 0.008(6) 0.047(9) 0.050(9) 0.027(7) 0.006(6) -0.003(6)
N2 0.019(6) 0.039(9) 0.048(8) -0.010(6) 0.017(6) 0.006(6)
N3 0.020(7) 0.038(9) 0.043(8) 0.005(6) -0.002(6) 0.007(6)
N4 0.004(5) 0.052(9) 0.044(8) -0.002(6) 0.000(5) -0.001(5)
O1 0.029(6) 0.073(7) 0.075(7) -0.006(6) -0.002(5) -0.024(5)
O1W 0.113(8) 0.037(6) 0.024(5) 0.009(5) 0.008(5) -0.004(6)
O2W 0.102(8) 0.090(8) 0.046(7) 0.002(6) 0.017(6) -0.010(7)
O5W 0.103(15) 0.032(12) 0.021(10) -0.013(9) 0.007(10) -0.033(11)
O2 0.016(6) 0.142(14) 0.054(9) 0.013(8) 0.006(6) -0.022(7)
O3 0.021(6) 0.085(10) 0.052(8) 0.030(7) -0.006(6) 0.004(6)
O4 0.034(7) 0.113(12) 0.044(8) -0.013(7) 0.024(6) -0.014(7)
O5 0.044(8) 0.065(10) 0.067(9) 0.020(7) -0.006(6) 0.030(7)
O6 0.028(5) 0.095(8) 0.052(6) 0.009(6) 0.013(5) 0.016(5)
O7 0.033(7) 0.112(12) 0.058(9) 0.030(8) 0.027(6) 0.022(7)
O8 0.030(6) 0.089(8) 0.068(7) -0.008(6) -0.005(5) 0.012(6)
C1 0.042(10) 0.040(11) 0.028(9) 0.012(8) 0.025(8) -0.004(8)
C2 0.034(9) 0.021(9) 0.039(10) 0.002(7) 0.005(7) 0.000(7)
C3 0.036(9) 0.054(12) 0.021(9) 0.004(8) 0.012(7) 0.002(8)
C4 0.015(8) 0.113(17) 0.039(11) -0.013(10) 0.007(7) -0.003(9)
C5 0.027(7) 0.070(9) 0.030(7) -0.012(6) 0.006(6) -0.018(6)
C6 0.020(7) 0.028(10) 0.047(10) -0.002(7) 0.001(7) 0.012(6)
C7 0.024(7) 0.032(9) 0.026(8) -0.010(7) 0.011(6) 0.004(7)
C8 0.024(6) 0.063(8) 0.023(6) -0.003(6) 0.010(5) -0.017(6)
C9 0.029(8) 0.068(13) 0.021(8) 0.000(8) 0.016(6) 0.006(8)
C10 0.047(12) 0.041(13) 0.14(2) -0.019(12) 0.057(13) 0.004(9)
C11 0.012(7) 0.042(11) 0.046(10) 0.015(8) 0.009(7) 0.008(6)
C12 0.052(11) 0.030(10) 0.059(13) -0.014(9) 0.037(10) -0.016(8)
C13 0.027(9) 0.069(14) 0.045(11) -0.007(10) 0.013(8) 0.016(9)
C14 0.038(9) 0.041(11) 0.048(11) 0.011(8) 0.019(8) 0.008(8)
C15 0.039(10) 0.041(11) 0.035(10) 0.014(8) 0.002(8) -0.001(8)
C16 0.046(10) 0.054(12) 0.017(8) 0.002(7) 0.014(7) 0.011(8)
C17 0.025(8) 0.084(14) 0.023(8) -0.006(9) 0.003(6) -0.003(9)
C18 0.028(8) 0.040(11) 0.041(9) -0.016(8) 0.003(7) 0.006(8)
C19 0.025(6) 0.027(7) 0.040(7) -0.015(6) 0.017(6) 0.000(6)
C20 0.038(9) 0.062(13) 0.025(8) 0.006(8) 0.002(7) 0.031(8)
C21 0.021(8) 0.088(15) 0.038(10) -0.001(9) 0.001(7) 0.019(9)
C22 0.036(10) 0.056(13) 0.071(14) -0.018(10) -0.010(9) 0.028(9)
C23 0.021(8) 0.032(10) 0.050(11) 0.008(8) 0.008(8) 0.001(7)
C24 0.027(9) 0.058(13) 0.048(12) 0.015(9) 0.000(8) 0.009(8)

_geom_special_details            
; 
 All esds (except the esd in the dihedral angle between two l.s. planes) 
 are estimated using the full covariance matrix.  The cell esds are taken 
 into account individually in the estimation of esds in distances, angles 
 and torsion angles; correlations between esds in cell parameters are only 
 used when they are defined by crystal symmetry.  An approximate (isotropic) 
 treatment of cell esds is used for estimating esds involving l.s. planes. 
;

loop_
_geom_bond_atom_site_label_1
_geom_bond_atom_site_label_2
_geom_bond_distance
_geom_bond_site_symmetry_2
_geom_bond_publ_flag
La1 O1 2.467(13) 3_445 ?
La1 O1 2.467(13) 4_545 ?
La1 O5 2.494(11) 4 ?
La1 O5 2.494(11) 3_455 ?
La1 O3 2.525(10) 2 ?
La1 O3 2.525(10) . ?
La1 O7 2.529(12) 2 ?
La1 O7 2.529(12) . ?
Cu1 N1 2.040(13) . ?
Cu1 N3 2.045(13) . ?
Cu1 N2 2.047(12) . ?
Cu1 N4 2.087(12) . ?
N1 C3 1.350(17) . ?
N1 C6 1.354(19) . ?
N2 C10 1.271(19) . ?
N2 C7 1.359(18) . ?
N3 C15 1.348(18) . ?
N3 C18 1.382(19) . ?
N4 C22 1.302(18) . ?
N4 C19 1.328(18) . ?
O1 C1 1.171(17) . ?
O1 La1 2.467(13) 3 ?
O1W O5W 1.81(3) 3_455 ?
O5W O1W 1.81(3) 3_545 ?
O2 C1 1.259(19) . ?
O3 C12 1.24(2) . ?
O4 C12 1.212(18) . ?
O5 C13 1.203(19) . ?
O5 La1 2.494(11) 3_545 ?
O6 C13 1.298(18) . ?
O7 C24 1.214(19) . ?
O8 C24 1.284(18) . ?
C1 C2 1.48(2) . ?
C2 C4 1.36(2) . ?
C2 C3 1.39(2) . ?
C3 H3A 0.9300 . ?
C4 C5 1.41(2) . ?
C4 H4A 0.9300 . ?
C5 C6 1.36(2) . ?
C5 H5A 0.9300 . ?
C6 C7 1.48(2) . ?
C7 C8 1.376(19) . ?
C8 C9 1.359(19) . ?
C8 H8A 0.9300 . ?
C9 C11 1.39(2) . ?
C9 H9A 0.9300 . ?
C10 C11 1.27(2) . ?
C10 H10A 0.9300 . ?
C11 C12 1.51(2) . ?
C13 C14 1.51(2) . ?
C14 C15 1.36(2) . ?
C14 C16 1.39(2) . ?
C15 H15A 0.9300 . ?
C16 C17 1.43(2) . ?
C16 H16A 0.9300 . ?
C17 C18 1.32(2) . ?
C17 H17A 0.9300 . ?
C18 C19 1.510(19) . ?
C19 C20 1.39(2) . ?
C20 C21 1.36(2) . ?
C20 H20A 0.9300 . ?
C21 C23 1.32(2) . ?
C21 H21A 0.9300 . ?
C22 C23 1.32(2) . ?
C22 H22A 0.9300 . ?
C23 C24 1.53(2) . ?

loop_
_geom_angle_atom_site_label_1
_geom_angle_atom_site_label_2
_geom_angle_atom_site_label_3
_geom_angle
_geom_angle_site_symmetry_1
_geom_angle_site_symmetry_3
_geom_angle_publ_flag
O1 La1 O1 84.3(6) 3_445 4_545 ?
O1 La1 O5 111.5(4) 3_445 4 ?
O1 La1 O5 140.6(4) 4_545 4 ?
O1 La1 O5 140.6(4) 3_445 3_455 ?
O1 La1 O5 111.5(4) 4_545 3_455 ?
O5 La1 O5 79.6(6) 4 3_455 ?
O1 La1 O3 76.6(4) 3_445 2 ?
O1 La1 O3 73.2(4) 4_545 2 ?
O5 La1 O3 144.1(4) 4 2 ?
O5 La1 O3 74.3(4) 3_455 2 ?
O1 La1 O3 73.2(4) 3_445 . ?
O1 La1 O3 76.6(4) 4_545 . ?
O5 La1 O3 74.3(4) 4 . ?
O5 La1 O3 144.1(4) 3_455 . ?
O3 La1 O3 138.9(6) 2 . ?
O1 La1 O7 73.2(4) 3_445 2 ?
O1 La1 O7 146.9(4) 4_545 2 ?
O5 La1 O7 71.7(4) 4 2 ?
O5 La1 O7 75.2(4) 3_455 2 ?
O3 La1 O7 78.0(4) 2 2 ?
O3 La1 O7 117.9(4) . 2 ?
O1 La1 O7 146.9(4) 3_445 . ?
O1 La1 O7 73.2(4) 4_545 . ?
O5 La1 O7 75.2(4) 4 . ?
O5 La1 O7 71.7(4) 3_455 . ?
O3 La1 O7 117.9(4) 2 . ?
O3 La1 O7 78.0(4) . . ?
O7 La1 O7 136.5(6) 2 . ?
N1 Cu1 N3 109.2(5) . . ?
N1 Cu1 N2 79.7(5) . . ?
N3 Cu1 N2 150.9(5) . . ?
N1 Cu1 N4 150.2(5) . . ?
N3 Cu1 N4 80.4(5) . . ?
N2 Cu1 N4 105.9(5) . . ?
C3 N1 C6 112.8(12) . . ?
C3 N1 Cu1 128.3(10) . . ?
C6 N1 Cu1 115.0(9) . . ?
C10 N2 C7 106.7(12) . . ?
C10 N2 Cu1 138.0(11) . . ?
C7 N2 Cu1 114.3(9) . . ?
C15 N3 C18 113.1(13) . . ?
C15 N3 Cu1 131.1(10) . . ?
C18 N3 Cu1 113.6(9) . . ?
C22 N4 C19 112.2(13) . . ?
C22 N4 Cu1 133.7(11) . . ?
C19 N4 Cu1 114.1(9) . . ?
C1 O1 La1 148.7(12) . 3 ?
C12 O3 La1 141.4(11) . . ?
C13 O5 La1 144.9(13) . 3_545 ?
C24 O7 La1 140.4(13) . . ?
O1 C1 O2 123.6(15) . . ?
O1 C1 C2 121.7(16) . . ?
O2 C1 C2 114.7(13) . . ?
C4 C2 C3 118.3(14) . . ?
C4 C2 C1 122.3(14) . . ?
C3 C2 C1 119.3(14) . . ?
N1 C3 C2 126.7(14) . . ?
N1 C3 H3A 116.7 . . ?
C2 C3 H3A 116.7 . . ?
C2 C4 C5 117.1(15) . . ?
C2 C4 H4A 121.4 . . ?
C5 C4 H4A 121.4 . . ?
C6 C5 C4 119.7(15) . . ?
C6 C5 H5A 120.1 . . ?
C4 C5 H5A 120.1 . . ?
N1 C6 C5 125.2(14) . . ?
N1 C6 C7 113.2(12) . . ?
C5 C6 C7 121.6(14) . . ?
N2 C7 C8 120.9(12) . . ?
N2 C7 C6 114.8(12) . . ?
C8 C7 C6 124.2(13) . . ?
C9 C8 C7 121.5(13) . . ?
C9 C8 H8A 119.3 . . ?
C7 C8 H8A 119.3 . . ?
C8 C9 C11 118.5(13) . . ?
C8 C9 H9A 120.7 . . ?
C11 C9 H9A 120.7 . . ?
C11 C10 N2 143.5(15) . . ?
C11 C10 H10A 108.2 . . ?
N2 C10 H10A 108.2 . . ?
C10 C11 C9 107.7(13) . . ?
C10 C11 C12 130.0(15) . . ?
C9 C11 C12 122.2(14) . . ?
O4 C12 O3 126.9(17) . . ?
O4 C12 C11 116.8(17) . . ?
O3 C12 C11 116.3(14) . . ?
O5 C13 O6 125.8(15) . . ?
O5 C13 C14 120.6(15) . . ?
O6 C13 C14 113.5(15) . . ?
C15 C14 C16 119.6(15) . . ?
C15 C14 C13 118.1(15) . . ?
C16 C14 C13 122.0(14) . . ?
N3 C15 C14 125.9(15) . . ?
N3 C15 H15A 117.1 . . ?
C14 C15 H15A 117.1 . . ?
C14 C16 C17 115.9(13) . . ?
C14 C16 H16A 122.0 . . ?
C17 C16 H16A 122.0 . . ?
C18 C17 C16 119.5(14) . . ?
C18 C17 H17A 120.2 . . ?
C16 C17 H17A 120.2 . . ?
C17 C18 N3 125.7(14) . . ?
C17 C18 C19 120.3(14) . . ?
N3 C18 C19 113.9(13) . . ?
N4 C19 C20 121.0(13) . . ?
N4 C19 C18 115.5(13) . . ?
C20 C19 C18 123.5(13) . . ?
C21 C20 C19 117.5(14) . . ?
C21 C20 H20A 121.3 . . ?
C19 C20 H20A 121.3 . . ?
C23 C21 C20 122.7(15) . . ?
C23 C21 H21A 118.6 . . ?
C20 C21 H21A 118.6 . . ?
N4 C22 C23 130.2(17) . . ?
N4 C22 H22A 114.9 . . ?
C23 C22 H22A 114.9 . . ?
C21 C23 C22 111.1(15) . . ?
C21 C23 C24 124.1(15) . . ?
C22 C23 C24 124.5(15) . . ?
O7 C24 O8 127.5(16) . . ?
O7 C24 C23 118.9(14) . . ?
O8 C24 C23 112.7(15) . . ?

_diffrn_measured_fraction_theta_max 0.970
_diffrn_reflns_theta_full        25.00
_diffrn_measured_fraction_theta_full 0.970
_refine_diff_density_max         1.807
_refine_diff_density_min         -2.791
_refine_diff_density_rms         0.232

