####################################################################### 
# 
# This file contains crystal structure data downloaded from the 
# Cambridge Structural Database (CSD) hosted by the Cambridge 
# Crystallographic Data Centre (CCDC).
# 
# Full information about CCDC data access policies and citation 
# guidelines are available at http://www.ccdc.cam.ac.uk/access/V1 
# 
# Audit and citation data items may have been added by the CCDC. 
# Please retain this information to preserve the provenance of 
# this file and to allow appropriate attribution of the data. 
# 
#######################################################################

data_41018s13b
_audit_block_doi                 10.5517/ccn6y0s
_database_code_depnum_ccdc_archive 'CCDC 602485'
loop_
_citation_id
_citation_doi
_citation_year
1 10.1021/cg070604f 2008
_audit_update_record             
;
2006-03-22 deposited with the CCDC.	2024-07-11 downloaded from the CCDC.
;

_audit_creation_method           SHELXL-97
_chemical_name_systematic        
;
?
;
_chemical_name_common            ?
_chemical_melting_point          ?
_chemical_formula_moiety         'C60 H72 Cd5 Cl4 N4 O24'
_chemical_formula_sum            'C60 H72 Cd5 Cl4 N4 O24'
_chemical_formula_weight         1937.02

loop_
_atom_type_symbol
_atom_type_description
_atom_type_scat_dispersion_real
_atom_type_scat_dispersion_imag
_atom_type_scat_source
C C 0.0033 0.0016 'International Tables Vol C Tables 4.2.6.8 and 6.1.1.4'
H H 0.0000 0.0000 'International Tables Vol C Tables 4.2.6.8 and 6.1.1.4'
N N 0.0061 0.0033 'International Tables Vol C Tables 4.2.6.8 and 6.1.1.4'
O O 0.0106 0.0060 'International Tables Vol C Tables 4.2.6.8 and 6.1.1.4'
Cl Cl 0.1484 0.1585 'International Tables Vol C Tables 4.2.6.8 and 6.1.1.4'
Cd Cd -0.8075 1.2024 'International Tables Vol C Tables 4.2.6.8 and 6.1.1.4'

_symmetry_cell_setting           tetragonal
_symmetry_space_group_name_H-M   P42(1)2

loop_
_symmetry_equiv_pos_as_xyz
'x, y, z'
'-x, -y, z'
'-y+1/2, x+1/2, z'
'y+1/2, -x+1/2, z'
'-x+1/2, y+1/2, -z'
'x+1/2, -y+1/2, -z'
'y, x, -z'
'-y, -x, -z'

_cell_length_a                   20.1824(14)
_cell_length_b                   20.1824(14)
_cell_length_c                   12.6052(18)
_cell_angle_alpha                90.00
_cell_angle_beta                 90.00
_cell_angle_gamma                90.00
_cell_volume                     5134.5(9)
_cell_formula_units_Z            2
_cell_measurement_temperature    293(2)
_cell_measurement_reflns_used    ?
_cell_measurement_theta_min      ?
_cell_measurement_theta_max      ?

_exptl_crystal_description       block
_exptl_crystal_colour            colorless
_exptl_crystal_size_max          0.35
_exptl_crystal_size_mid          0.34
_exptl_crystal_size_min          0.25
_exptl_crystal_density_meas      ?
_exptl_crystal_density_diffrn    1.253
_exptl_crystal_density_method    'not measured'
_exptl_crystal_F_000             1920
_exptl_absorpt_coefficient_mu    1.177
_exptl_absorpt_correction_type   none
_exptl_absorpt_correction_T_min  ?
_exptl_absorpt_correction_T_max  ?
_exptl_absorpt_process_details   ?

_exptl_special_details           
;
?
;

_diffrn_ambient_temperature      293(2)
_diffrn_radiation_wavelength     0.71073
_diffrn_radiation_type           MoK\a
_diffrn_radiation_source         'fine-focus sealed tube'
_diffrn_radiation_monochromator  graphite
_diffrn_measurement_device_type  'CCD area detector'
_diffrn_measurement_method       'phi and omega scans'
_diffrn_detector_area_resol_mean 6.00cm
_diffrn_standards_number         none
_diffrn_standards_interval_count none
_diffrn_standards_interval_time  none
_diffrn_standards_decay_%        none
_diffrn_reflns_number            26806
_diffrn_reflns_av_R_equivalents  0.0343
_diffrn_reflns_av_sigmaI/netI    0.0212
_diffrn_reflns_limit_h_min       -24
_diffrn_reflns_limit_h_max       24
_diffrn_reflns_limit_k_min       -17
_diffrn_reflns_limit_k_max       23
_diffrn_reflns_limit_l_min       -14
_diffrn_reflns_limit_l_max       14
_diffrn_reflns_theta_min         2.02
_diffrn_reflns_theta_max         25.00
_reflns_number_total             4524
_reflns_number_gt                4373
_reflns_threshold_expression     >2sigma(I)

_computing_data_collection       'Bruker SMART'
_computing_cell_refinement       'Bruker SMART'
_computing_data_reduction        'Bruker SAINT'
_computing_structure_solution    'SHELXS-97 (Sheldrick, 1990)'
_computing_structure_refinement  'SHELXL-97 (Sheldrick, 1997)'
_computing_molecular_graphics    'Bruker SHELXTL'
_computing_publication_material  'Bruker SHELXTL'

_refine_special_details          
;
Refinement of F^2^ against ALL reflections. The weighted R-factor wR and
goodness of fit S are based on F^2^, conventional R-factors R are based
on F, with F set to zero for negative F^2^. The threshold expression of
F^2^ > 2sigma(F^2^) is used only for calculating R-factors(gt) etc. and is
not relevant to the choice of reflections for refinement. R-factors based
on F^2^ are statistically about twice as large as those based on F, and R-
factors based on ALL data will be even larger.
;

_refine_ls_structure_factor_coef Fsqd
_refine_ls_matrix_type           full
_refine_ls_weighting_scheme      calc
_refine_ls_weighting_details     
'calc w=1/[\s^2^(Fo^2^)+(0.1115P)^2^+0.0000P] where P=(Fo^2^+2Fc^2^)/3'
_atom_sites_solution_primary     direct
_atom_sites_solution_secondary   difmap
_atom_sites_solution_hydrogens   geom
_refine_ls_hydrogen_treatment    constr
_refine_ls_extinction_method     none
_refine_ls_extinction_coef       ?
_refine_ls_abs_structure_details 'Flack H D (1983), Acta Cryst. A39, 876-881'
_refine_ls_abs_structure_Flack   0.46(4)
_refine_ls_number_reflns         4524
_refine_ls_number_parameters     221
_refine_ls_number_restraints     18
_refine_ls_R_factor_all          0.0392
_refine_ls_R_factor_gt           0.0379
_refine_ls_wR_factor_ref         0.1258
_refine_ls_wR_factor_gt          0.1242
_refine_ls_goodness_of_fit_ref   1.007
_refine_ls_restrained_S_all      1.009
_refine_ls_shift/su_max          0.002
_refine_ls_shift/su_mean         0.000

loop_
_atom_site_label
_atom_site_type_symbol
_atom_site_fract_x
_atom_site_fract_y
_atom_site_fract_z
_atom_site_U_iso_or_equiv
_atom_site_adp_type
_atom_site_occupancy
_atom_site_symmetry_multiplicity
_atom_site_calc_flag
_atom_site_refinement_flags
_atom_site_disorder_assembly
_atom_site_disorder_group
Cd1 Cd 0.727615(16) 0.199761(16) 0.39967(3) 0.02807(14) Uani 1 1 d . . .
Cd2 Cd 1.0000 0.0000 0.0000 0.03098(19) Uani 1 4 d S . .
Cl1 Cl 0.69335(10) 0.15729(10) 0.22634(14) 0.0650(5) Uani 1 1 d . . .
N1 N 0.5184(3) 0.3188(3) 0.2202(5) 0.0565(15) Uani 1 1 d . . .
O1 O 0.84007(18) 0.2038(2) 0.3786(3) 0.0469(10) Uani 1 1 d . . .
O2 O 0.89251(17) 0.2586(2) 0.5063(4) 0.0475(10) Uani 1 1 d . . .
O3 O 0.9669(2) 0.0866(2) 0.1052(4) 0.0555(11) Uani 1 1 d . . .
O4 O 1.0730(2) 0.0732(2) 0.1280(3) 0.0536(11) Uani 1 1 d . . .
O5 O 1.19307(18) 0.2262(2) 0.3673(4) 0.0552(12) Uani 1 1 d . . .
O6 O 1.13847(19) 0.2767(2) 0.4985(4) 0.0556(11) Uani 1 1 d . . .
C1 C 0.8902(2) 0.2268(2) 0.4213(4) 0.0297(11) Uani 1 1 d . . .
C2 C 0.9565(2) 0.2124(3) 0.3708(4) 0.0326(11) Uani 1 1 d . . .
C3 C 0.9584(3) 0.1716(3) 0.2820(4) 0.0334(11) Uani 1 1 d . . .
H3A H 0.9190 0.1572 0.2515 0.040 Uiso 1 1 calc R . .
C4 C 1.0186(3) 0.1522(3) 0.2382(4) 0.0342(11) Uani 1 1 d . . .
C5 C 1.0767(3) 0.1759(3) 0.2819(4) 0.0377(12) Uani 1 1 d . . .
H5A H 1.1170 0.1628 0.2533 0.045 Uiso 1 1 calc R . .
C6 C 1.0760(2) 0.2195(3) 0.3688(4) 0.0334(11) Uani 1 1 d . . .
C7 C 1.0144(3) 0.2369(3) 0.4119(4) 0.0351(11) Uani 1 1 d . . .
H7A H 1.0129 0.2656 0.4696 0.042 Uiso 1 1 calc R . .
C8 C 1.0201(3) 0.1009(3) 0.1509(4) 0.0364(12) Uani 1 1 d . . .
C9 C 1.1409(3) 0.2437(3) 0.4148(5) 0.0401(13) Uani 1 1 d . . .
C10 C 0.5588(4) 0.2672(3) 0.2742(7) 0.0600(18) Uani 1 1 d . . .
H10A H 0.5971 0.2578 0.2304 0.072 Uiso 1 1 calc R . .
H10B H 0.5748 0.2854 0.3407 0.072 Uiso 1 1 calc R . .
C11 C 0.5260(4) 0.2063(4) 0.2963(7) 0.0623(18) Uani 1 1 d . . .
H11A H 0.5561 0.1768 0.3316 0.093 Uiso 1 1 calc R . .
H11B H 0.5115 0.1866 0.2310 0.093 Uiso 1 1 calc R . .
H11C H 0.4884 0.2145 0.3410 0.093 Uiso 1 1 calc R . .
C12 C 0.4643(5) 0.3417(5) 0.2889(10) 0.093(3) Uani 1 1 d . . .
H12A H 0.4437 0.3043 0.3243 0.112 Uiso 1 1 calc R . .
H12B H 0.4308 0.3642 0.2470 0.112 Uiso 1 1 calc R . .
C13 C 0.4946(8) 0.3906(6) 0.3731(9) 0.124(4) Uani 1 1 d U . .
H13A H 0.4601 0.4069 0.4185 0.186 Uiso 1 1 calc R . .
H13B H 0.5153 0.4272 0.3372 0.186 Uiso 1 1 calc R . .
H13C H 0.5271 0.3677 0.4149 0.186 Uiso 1 1 calc R . .
C14 C 0.4906(5) 0.2926(5) 0.1136(9) 0.093(3) Uani 1 1 d U . .
H14A H 0.4610 0.2559 0.1285 0.112 Uiso 1 1 calc R . .
H14B H 0.4644 0.3274 0.0810 0.112 Uiso 1 1 calc R . .
C15 C 0.5403(6) 0.2703(6) 0.0369(9) 0.116(4) Uani 1 1 d U . .
H15A H 0.5186 0.2559 -0.0268 0.174 Uiso 1 1 calc R . .
H15B H 0.5651 0.2342 0.0666 0.174 Uiso 1 1 calc R . .
H15C H 0.5698 0.3063 0.0207 0.174 Uiso 1 1 calc R . .

loop_
_atom_site_aniso_label
_atom_site_aniso_U_11
_atom_site_aniso_U_22
_atom_site_aniso_U_33
_atom_site_aniso_U_23
_atom_site_aniso_U_13
_atom_site_aniso_U_12
Cd1 0.0272(2) 0.02564(19) 0.0314(2) -0.00390(15) -0.00352(15) 0.00380(13)
Cd2 0.0337(2) 0.0337(2) 0.0256(3) 0.000 0.000 0.0033(3)
Cl1 0.0736(11) 0.0678(10) 0.0536(9) -0.0219(8) -0.0180(8) 0.0189(9)
N1 0.049(3) 0.043(3) 0.078(4) 0.016(3) -0.002(3) 0.004(2)
O1 0.0254(18) 0.060(2) 0.055(3) -0.012(2) 0.0052(17) 0.0010(18)
O2 0.0304(18) 0.065(3) 0.047(2) -0.015(2) 0.0034(19) -0.0015(18)
O3 0.040(2) 0.069(3) 0.057(3) -0.032(3) 0.000(2) -0.010(2)
O4 0.052(3) 0.069(3) 0.039(2) -0.015(2) -0.0044(19) 0.021(2)
O5 0.0239(19) 0.067(3) 0.075(3) -0.011(2) -0.0034(19) -0.0036(19)
O6 0.042(2) 0.070(3) 0.054(3) -0.016(3) -0.006(2) -0.014(2)
C1 0.026(2) 0.027(2) 0.036(3) 0.000(2) 0.005(2) -0.0023(19)
C2 0.025(2) 0.034(3) 0.038(3) 0.002(2) -0.001(2) -0.004(2)
C3 0.028(2) 0.039(3) 0.034(3) -0.003(2) -0.002(2) -0.002(2)
C4 0.039(3) 0.031(3) 0.032(2) -0.004(2) 0.002(2) -0.005(2)
C5 0.031(3) 0.044(3) 0.038(3) -0.007(2) 0.002(2) 0.001(2)
C6 0.023(2) 0.036(3) 0.041(3) -0.002(2) -0.004(2) 0.000(2)
C7 0.039(3) 0.034(3) 0.032(2) -0.010(2) 0.000(2) 0.000(2)
C8 0.043(3) 0.035(3) 0.031(3) -0.005(2) 0.000(2) 0.002(2)
C9 0.035(3) 0.037(3) 0.048(3) -0.001(3) -0.006(2) -0.004(2)
C10 0.052(4) 0.052(4) 0.076(5) 0.011(4) -0.003(3) 0.007(3)
C11 0.063(4) 0.057(4) 0.067(4) 0.015(4) -0.003(4) -0.002(3)
C12 0.062(5) 0.092(7) 0.125(8) 0.000(7) 0.019(6) 0.029(5)
C13 0.162(12) 0.105(8) 0.105(8) 0.008(7) 0.054(8) -0.003(9)
C14 0.097(5) 0.084(4) 0.099(5) 0.017(4) -0.017(4) -0.016(4)
C15 0.145(10) 0.116(9) 0.087(7) 0.003(7) 0.012(7) -0.004(8)

_geom_special_details            
;
All esds (except the esd in the dihedral angle between two l.s. planes)
are estimated using the full covariance matrix. The cell esds are taken
into account individually in the estimation of esds in distances, angles
and torsion angles; correlations between esds in cell parameters are only
used when they are defined by crystal symmetry. An approximate (isotropic)
treatment of cell esds is used for estimating esds involving l.s. planes.
;

loop_
_geom_bond_atom_site_label_1
_geom_bond_atom_site_label_2
_geom_bond_distance
_geom_bond_site_symmetry_2
_geom_bond_publ_flag
Cd1 O5 2.201(4) 4_565 ?
Cd1 O2 2.225(4) 8_666 ?
Cd1 O6 2.261(4) 6_456 ?
Cd1 O1 2.287(4) . ?
Cd1 Cl1 2.4468(16) . ?
Cd1 Cd1 3.2703(8) 8_666 ?
Cd2 O3 2.294(4) 7_645 ?
Cd2 O3 2.294(4) 2_755 ?
Cd2 O3 2.294(4) . ?
Cd2 O3 2.294(4) 8_665 ?
Cd2 O4 2.637(4) 7_645 ?
Cd2 O4 2.637(4) 8_665 ?
Cd2 O4 2.637(4) 2_755 ?
Cd2 O4 2.637(4) . ?
N1 C12 1.470(11) . ?
N1 C10 1.487(8) . ?
N1 C14 1.550(12) . ?
O1 C1 1.237(7) . ?
O2 C1 1.249(7) . ?
O2 Cd1 2.225(4) 8_666 ?
O3 C8 1.252(7) . ?
O4 C8 1.239(7) . ?
O5 C9 1.262(7) . ?
O5 Cd1 2.201(4) 3_645 ?
O6 C9 1.249(8) . ?
O6 Cd1 2.261(4) 6_556 ?
C1 C2 1.509(7) . ?
C2 C7 1.371(7) . ?
C2 C3 1.391(8) . ?
C3 C4 1.390(8) . ?
C3 H3A 0.9300 . ?
C4 C5 1.381(8) . ?
C4 C8 1.511(7) . ?
C5 C6 1.404(7) . ?
C5 H5A 0.9300 . ?
C6 C7 1.400(7) . ?
C6 C9 1.514(7) . ?
C7 H7A 0.9300 . ?
C10 C11 1.422(9) . ?
C10 H10A 0.9700 . ?
C10 H10B 0.9700 . ?
C11 H11A 0.9600 . ?
C11 H11B 0.9600 . ?
C11 H11C 0.9600 . ?
C12 C13 1.573(16) . ?
C12 H12A 0.9700 . ?
C12 H12B 0.9700 . ?
C13 H13A 0.9600 . ?
C13 H13B 0.9600 . ?
C13 H13C 0.9600 . ?
C14 C15 1.464(15) . ?
C14 H14A 0.9700 . ?
C14 H14B 0.9700 . ?
C15 H15A 0.9600 . ?
C15 H15B 0.9600 . ?
C15 H15C 0.9600 . ?

loop_
_geom_angle_atom_site_label_1
_geom_angle_atom_site_label_2
_geom_angle_atom_site_label_3
_geom_angle
_geom_angle_site_symmetry_1
_geom_angle_site_symmetry_3
_geom_angle_publ_flag
O5 Cd1 O2 157.35(16) 4_565 8_666 ?
O5 Cd1 O6 83.57(19) 4_565 6_456 ?
O2 Cd1 O6 88.47(17) 8_666 6_456 ?
O5 Cd1 O1 87.53(17) 4_565 . ?
O2 Cd1 O1 88.12(17) 8_666 . ?
O6 Cd1 O1 148.03(16) 6_456 . ?
O5 Cd1 Cl1 100.06(13) 4_565 . ?
O2 Cd1 Cl1 102.59(12) 8_666 . ?
O6 Cd1 Cl1 110.84(13) 6_456 . ?
O1 Cd1 Cl1 100.93(12) . . ?
O5 Cd1 Cd1 73.09(12) 4_565 8_666 ?
O2 Cd1 Cd1 84.66(10) 8_666 8_666 ?
O6 Cd1 Cd1 79.82(12) 6_456 8_666 ?
O1 Cd1 Cd1 68.21(11) . 8_666 ?
Cl1 Cd1 Cd1 167.00(6) . 8_666 ?
O3 Cd2 O3 83.7(2) 7_645 2_755 ?
O3 Cd2 O3 141.2(2) 7_645 . ?
O3 Cd2 O3 109.3(3) 2_755 . ?
O3 Cd2 O3 109.3(3) 7_645 8_665 ?
O3 Cd2 O3 141.2(2) 2_755 8_665 ?
O3 Cd2 O3 83.7(2) . 8_665 ?
O3 Cd2 O4 51.85(14) 7_645 7_645 ?
O3 Cd2 O4 128.02(15) 2_755 7_645 ?
O3 Cd2 O4 95.26(15) . 7_645 ?
O3 Cd2 O4 84.84(17) 8_665 7_645 ?
O3 Cd2 O4 84.84(17) 7_645 8_665 ?
O3 Cd2 O4 95.26(15) 2_755 8_665 ?
O3 Cd2 O4 128.02(15) . 8_665 ?
O3 Cd2 O4 51.85(14) 8_665 8_665 ?
O4 Cd2 O4 104.55(19) 7_645 8_665 ?
O3 Cd2 O4 128.02(15) 7_645 2_755 ?
O3 Cd2 O4 51.85(14) 2_755 2_755 ?
O3 Cd2 O4 84.84(17) . 2_755 ?
O3 Cd2 O4 95.26(15) 8_665 2_755 ?
O4 Cd2 O4 179.9(2) 7_645 2_755 ?
O4 Cd2 O4 75.45(19) 8_665 2_755 ?
O3 Cd2 O4 95.26(15) 7_645 . ?
O3 Cd2 O4 84.84(17) 2_755 . ?
O3 Cd2 O4 51.85(14) . . ?
O3 Cd2 O4 128.02(15) 8_665 . ?
O4 Cd2 O4 75.45(19) 7_645 . ?
O4 Cd2 O4 179.9(2) 8_665 . ?
O4 Cd2 O4 104.55(19) 2_755 . ?
C12 N1 C10 111.0(7) . . ?
C12 N1 C14 110.4(7) . . ?
C10 N1 C14 110.9(6) . . ?
C1 O1 Cd1 140.8(4) . . ?
C1 O2 Cd1 119.4(3) . 8_666 ?
C8 O3 Cd2 101.0(4) . . ?
C8 O4 Cd2 85.1(3) . . ?
C9 O5 Cd1 136.7(4) . 3_645 ?
C9 O6 Cd1 124.1(4) . 6_556 ?
O1 C1 O2 126.6(5) . . ?
O1 C1 C2 118.0(5) . . ?
O2 C1 C2 115.3(4) . . ?
C7 C2 C3 119.6(5) . . ?
C7 C2 C1 121.8(5) . . ?
C3 C2 C1 118.5(4) . . ?
C2 C3 C4 120.7(5) . . ?
C2 C3 H3A 119.7 . . ?
C4 C3 H3A 119.7 . . ?
C5 C4 C3 119.1(5) . . ?
C5 C4 C8 120.7(5) . . ?
C3 C4 C8 120.0(5) . . ?
C4 C5 C6 121.3(5) . . ?
C4 C5 H5A 119.3 . . ?
C6 C5 H5A 119.3 . . ?
C7 C6 C5 117.9(5) . . ?
C7 C6 C9 122.6(5) . . ?
C5 C6 C9 119.5(5) . . ?
C2 C7 C6 121.3(5) . . ?
C2 C7 H7A 119.4 . . ?
C6 C7 H7A 119.4 . . ?
O4 C8 O3 121.8(5) . . ?
O4 C8 C4 119.7(5) . . ?
O3 C8 C4 118.4(5) . . ?
O6 C9 O5 125.7(5) . . ?
O6 C9 C6 117.5(5) . . ?
O5 C9 C6 116.7(5) . . ?
C11 C10 N1 116.1(6) . . ?
C11 C10 H10A 108.3 . . ?
N1 C10 H10A 108.3 . . ?
C11 C10 H10B 108.3 . . ?
N1 C10 H10B 108.3 . . ?
H10A C10 H10B 107.4 . . ?
C10 C11 H11A 109.5 . . ?
C10 C11 H11B 109.5 . . ?
H11A C11 H11B 109.5 . . ?
C10 C11 H11C 109.5 . . ?
H11A C11 H11C 109.5 . . ?
H11B C11 H11C 109.5 . . ?
N1 C12 C13 107.8(8) . . ?
N1 C12 H12A 110.2 . . ?
C13 C12 H12A 110.2 . . ?
N1 C12 H12B 110.2 . . ?
C13 C12 H12B 110.2 . . ?
H12A C12 H12B 108.5 . . ?
C12 C13 H13A 109.5 . . ?
C12 C13 H13B 109.5 . . ?
H13A C13 H13B 109.5 . . ?
C12 C13 H13C 109.5 . . ?
H13A C13 H13C 109.5 . . ?
H13B C13 H13C 109.5 . . ?
C15 C14 N1 115.4(8) . . ?
C15 C14 H14A 108.4 . . ?
N1 C14 H14A 108.4 . . ?
C15 C14 H14B 108.4 . . ?
N1 C14 H14B 108.4 . . ?
H14A C14 H14B 107.5 . . ?
C14 C15 H15A 109.5 . . ?
C14 C15 H15B 109.5 . . ?
H15A C15 H15B 109.5 . . ?
C14 C15 H15C 109.5 . . ?
H15A C15 H15C 109.5 . . ?
H15B C15 H15C 109.5 . . ?

_diffrn_measured_fraction_theta_max 0.996
_diffrn_reflns_theta_full        25.00
_diffrn_measured_fraction_theta_full 0.996
_refine_diff_density_max         0.757
_refine_diff_density_min         -0.493
_refine_diff_density_rms         0.146
