####################################################################### 
# 
# This file contains crystal structure data downloaded from the 
# Cambridge Structural Database (CSD) hosted by the Cambridge 
# Crystallographic Data Centre (CCDC).
# 
# Full information about CCDC data access policies and citation 
# guidelines are available at http://www.ccdc.cam.ac.uk/access/V1 
# 
# Audit and citation data items may have been added by the CCDC. 
# Please retain this information to preserve the provenance of 
# this file and to allow appropriate attribution of the data. 
# 
#######################################################################

data_1b
_audit_block_doi                 10.5517/ccxkrmt
_database_code_depnum_ccdc_archive 'CCDC 851217'
loop_
_citation_id
_citation_doi
_citation_year
1 10.6023/A13070702 2013
_audit_update_record             
;
2011-10-27 deposited with the CCDC.	2024-07-11 downloaded from the CCDC.
;
#TrackingRef 'NiL1.cif'


_audit_creation_method           SHELXL-97
_chemical_name_systematic        
;
?
;
_chemical_name_common            ?
_chemical_melting_point          'not measure'
_chemical_formula_moiety         'C66 H36 Ni3 O16'
_chemical_formula_sum            'C66 H36 N0 Ni3 O16'
_chemical_formula_weight         1261.08

loop_
_atom_type_symbol
_atom_type_description
_atom_type_scat_dispersion_real
_atom_type_scat_dispersion_imag
_atom_type_scat_source
C C 0.0033 0.0016 'International Tables Vol C Tables 4.2.6.8 and 6.1.1.4'
H H 0.0000 0.0000 'International Tables Vol C Tables 4.2.6.8 and 6.1.1.4'
N N 0.0061 0.0033 'International Tables Vol C Tables 4.2.6.8 and 6.1.1.4'
O O 0.0106 0.0060 'International Tables Vol C Tables 4.2.6.8 and 6.1.1.4'
Ni Ni 0.3393 1.1124 'International Tables Vol C Tables 4.2.6.8 and 6.1.1.4'

_symmetry_cell_setting           Hexagonal
_symmetry_space_group_name_H-M   P-62c

loop_
_symmetry_equiv_pos_as_xyz
'x, y, z'
'-y, x-y, z'
'-x+y, -x, z'
'x, y, -z+1/2'
'-y, x-y, -z+1/2'
'-x+y, -x, -z+1/2'
'y, x, -z'
'x-y, -y, -z'
'-x, -x+y, -z'
'y, x, z+1/2'
'x-y, -y, z+1/2'
'-x, -x+y, z+1/2'

_cell_length_a                   19.1786(7)
_cell_length_b                   19.1786(7)
_cell_length_c                   27.926(2)
_cell_angle_alpha                90.00
_cell_angle_beta                 90.00
_cell_angle_gamma                120.00
_cell_volume                     8895.5(8)
_cell_formula_units_Z            2
_cell_measurement_temperature    296(2)
_cell_measurement_reflns_used    'Full-matrix least-squares on F^2'
_cell_measurement_theta_min      1.43
_cell_measurement_theta_max      28.36

_exptl_crystal_description       polyhedra
_exptl_crystal_colour            'pale green'
_exptl_crystal_size_max          0.7
_exptl_crystal_size_mid          0.4
_exptl_crystal_size_min          0.4
_exptl_crystal_density_meas      'not measured'
_exptl_crystal_density_diffrn    0.471
_exptl_crystal_density_method    'not measured'
_exptl_crystal_F_000             1288
_exptl_absorpt_coefficient_mu    0.338
_exptl_absorpt_correction_type   multi-scan
_exptl_absorpt_correction_T_min  0.850
_exptl_absorpt_correction_T_max  0.874
_exptl_absorpt_process_details   '(SADABS; Sheldrick, 1996)'

_exptl_special_details           
;
?
;

_diffrn_ambient_temperature      296(2)
_diffrn_radiation_wavelength     0.71073
_diffrn_radiation_type           MoK\a
_diffrn_radiation_source         'fine-focus sealed tube'
_diffrn_radiation_monochromator  graphite
_diffrn_measurement_device_type  'CCD area detector'
_diffrn_measurement_method       'phi and omega scans'
_diffrn_detector_area_resol_mean 6.00cm
_diffrn_standards_number         none
_diffrn_standards_interval_count none
_diffrn_standards_interval_time  none
_diffrn_standards_decay_%        none
_diffrn_reflns_number            53464
_diffrn_reflns_av_R_equivalents  0.0884
_diffrn_reflns_av_sigmaI/netI    0.0721
_diffrn_reflns_limit_h_min       -25
_diffrn_reflns_limit_h_max       25
_diffrn_reflns_limit_k_min       -15
_diffrn_reflns_limit_k_max       25
_diffrn_reflns_limit_l_min       -30
_diffrn_reflns_limit_l_max       37
_diffrn_reflns_theta_min         1.43
_diffrn_reflns_theta_max         28.36
_reflns_number_total             7533
_reflns_number_gt                4298
_reflns_threshold_expression     >2sigma(I)

_computing_data_collection       'Bruker SMART'
_computing_cell_refinement       'Bruker SMART'
_computing_data_reduction        'Bruker saint'
_computing_structure_solution    'SHELXS-97 (Sheldrick, 1990)'
_computing_structure_refinement  'SHELXL-97 (Sheldrick, 1997)'
_computing_molecular_graphics    'Bruker SHELXTL'
_computing_publication_material  'Bruker SHELXTL'

_refine_special_details          
;
Refinement of F^2^ against ALL reflections. The weighted R-factor wR and
goodness of fit S are based on F^2^, conventional R-factors R are based
on F, with F set to zero for negative F^2^. The threshold expression of
F^2^ > 2sigma(F^2^) is used only for calculating R-factors(gt) etc. and is
not relevant to the choice of reflections for refinement. R-factors based
on F^2^ are statistically about twice as large as those based on F, and R-
factors based on ALL data will be even larger.
;

_refine_ls_structure_factor_coef Fsqd
_refine_ls_matrix_type           full
_refine_ls_weighting_scheme      calc
_refine_ls_weighting_details     
'calc w=1/[\s^2^(Fo^2^)+(0.1844P)^2^+1.1045P] where P=(Fo^2^+2Fc^2^)/3'
_atom_sites_solution_primary     direct
_atom_sites_solution_secondary   difmap
_atom_sites_solution_hydrogens   geom
_refine_ls_hydrogen_treatment    constr
_refine_ls_extinction_method     none
_refine_ls_extinction_coef       ?
_refine_ls_abs_structure_details 'Flack H D (1983), Acta Cryst. A39, 876-881'
_refine_ls_abs_structure_Flack   -0.11(4)
_refine_ls_number_reflns         7533
_refine_ls_number_parameters     139
_refine_ls_number_restraints     0
_refine_ls_R_factor_all          0.1814
_refine_ls_R_factor_gt           0.1030
_refine_ls_wR_factor_ref         0.3273
_refine_ls_wR_factor_gt          0.2539
_refine_ls_goodness_of_fit_ref   1.176
_refine_ls_restrained_S_all      1.176
_refine_ls_shift/su_max          0.000
_refine_ls_shift/su_mean         0.000

loop_
_atom_site_label
_atom_site_type_symbol
_atom_site_fract_x
_atom_site_fract_y
_atom_site_fract_z
_atom_site_U_iso_or_equiv
_atom_site_adp_type
_atom_site_occupancy
_atom_site_symmetry_multiplicity
_atom_site_calc_flag
_atom_site_refinement_flags
_atom_site_disorder_assembly
_atom_site_disorder_group
O7 O 0.5125(4) 0.9046(4) 0.7500 0.088(2) Uani 1 2 d S . .
Ni1 Ni 0.41929(5) 0.78102(5) 0.7500 0.0442(3) Uani 1 2 d S . .
C7 C 0.2951(4) 0.7818(3) 0.68390(18) 0.0536(13) Uani 1 1 d . . .
C6 C 0.2802(4) 0.8265(4) 0.6442(2) 0.0605(15) Uani 1 1 d . . .
C3 C 0.2518(4) 0.9090(4) 0.5713(2) 0.0649(17) Uani 1 1 d . . .
C4 C 0.3280(4) 0.9374(5) 0.5895(3) 0.092(3) Uani 1 1 d . . .
H4 H 0.3707 0.9846 0.5773 0.11(3) Uiso 1 1 calc R . .
C1 C 0.2063(4) 0.7979(5) 0.6253(2) 0.077(2) Uani 1 1 d . . .
H1 H 0.1644 0.7492 0.6364 0.08(2) Uiso 1 1 calc R . .
C2 C 0.1907(4) 0.8380(5) 0.5902(3) 0.088(3) Uani 1 1 d . . .
H2 H 0.1384 0.8173 0.5789 0.11(3) Uiso 1 1 calc R . .
C5 C 0.3421(5) 0.8966(5) 0.6260(3) 0.088(2) Uani 1 1 d . . .
H5 H 0.3939 0.9171 0.6381 0.106 Uiso 1 1 calc R . .
O3 O 0.3333 0.6667 0.7500 0.0338(16) Uani 1 6 d S . .
O1 O 0.3659(3) 0.8126(3) 0.69829(17) 0.0699(12) Uani 1 1 d . . .
O2 O 0.2356(3) 0.7196(3) 0.69866(15) 0.0687(12) Uani 1 1 d . . .
C11 C 0.0708(4) 1.0000 0.5000 0.0515(18) Uani 1 2 d S . .
C12 C 0.2366(4) 0.9550(4) 0.5342(2) 0.0616(15) Uani 1 1 d . . .
C10 C 0.1506(4) 1.0000 0.5000 0.055(2) Uani 1 2 d S . .
C9 C 0.1643(4) 0.9541(4) 0.5331(2) 0.0602(15) Uani 1 1 d . . .
H9 H 0.1242 0.9224 0.5549 0.063(18) Uiso 1 1 calc R . .
C8 C 0.2932(5) 1.0000 0.5000 0.070(2) Uani 1 2 d S . .
H8 H 0.3417 1.0000 0.5000 0.084 Uiso 1 2 calc SR . .
C13 C 0.0000 0.9276(4) 0.5000 0.0509(17) Uani 1 2 d S . .
H13 H 0.0000 0.8791 0.5000 0.07(3) Uiso 1 2 calc SR . .

loop_
_atom_site_aniso_label
_atom_site_aniso_U_11
_atom_site_aniso_U_22
_atom_site_aniso_U_33
_atom_site_aniso_U_23
_atom_site_aniso_U_13
_atom_site_aniso_U_12
O7 0.075(4) 0.070(4) 0.101(5) 0.000 0.000 0.024(4)
Ni1 0.0509(6) 0.0521(6) 0.0320(4) 0.000 0.000 0.0275(5)
C7 0.069(4) 0.064(3) 0.036(2) 0.010(2) 0.002(3) 0.040(3)
C6 0.066(4) 0.076(4) 0.050(3) 0.017(3) -0.001(3) 0.043(3)
C3 0.062(4) 0.082(4) 0.057(3) 0.032(3) 0.010(3) 0.041(3)
C4 0.060(4) 0.101(6) 0.101(5) 0.065(5) 0.011(4) 0.028(4)
C1 0.064(4) 0.084(5) 0.071(4) 0.035(4) -0.002(3) 0.029(4)
C2 0.058(4) 0.095(5) 0.098(5) 0.049(5) -0.006(4) 0.029(4)
C5 0.066(4) 0.101(5) 0.088(5) 0.050(4) -0.002(4) 0.034(4)
O3 0.031(2) 0.031(2) 0.040(4) 0.000 0.000 0.0154(11)
O1 0.067(3) 0.080(3) 0.062(3) 0.023(2) -0.006(2) 0.036(2)
O2 0.067(3) 0.069(3) 0.064(2) 0.023(2) -0.011(2) 0.029(2)
C11 0.055(3) 0.064(5) 0.039(3) 0.011(3) 0.0053(16) 0.032(2)
C12 0.057(3) 0.076(4) 0.056(3) 0.027(3) 0.009(3) 0.036(3)
C10 0.051(3) 0.070(5) 0.052(4) 0.014(4) 0.0072(18) 0.035(3)
C9 0.060(4) 0.071(4) 0.050(3) 0.027(3) 0.014(3) 0.033(3)
C8 0.063(4) 0.084(6) 0.070(5) 0.030(5) 0.015(2) 0.042(3)
C13 0.055(5) 0.052(3) 0.046(3) 0.0026(17) 0.005(3) 0.028(2)

_geom_special_details            
;
All esds (except the esd in the dihedral angle between two l.s. planes)
are estimated using the full covariance matrix. The cell esds are taken
into account individually in the estimation of esds in distances, angles
and torsion angles; correlations between esds in cell parameters are only
used when they are defined by crystal symmetry. An approximate (isotropic)
treatment of cell esds is used for estimating esds involving l.s. planes.
;

loop_
_geom_bond_atom_site_label_1
_geom_bond_atom_site_label_2
_geom_bond_distance
_geom_bond_site_symmetry_2
_geom_bond_publ_flag
O7 Ni1 2.140(7) . ?
Ni1 O3 1.9780(9) . ?
Ni1 O2 2.023(4) 6_566 ?
Ni1 O2 2.023(4) 3_565 ?
Ni1 O1 2.030(4) 4_556 ?
Ni1 O1 2.030(4) . ?
C7 O2 1.237(7) . ?
C7 O1 1.246(7) . ?
C7 C6 1.514(7) . ?
C6 C1 1.346(10) . ?
C6 C5 1.371(10) . ?
C3 C4 1.376(10) . ?
C3 C2 1.381(9) . ?
C3 C12 1.481(8) . ?
C4 C5 1.390(9) . ?
C1 C2 1.368(9) . ?
O3 Ni1 1.9780(9) 3_565 ?
O3 Ni1 1.9780(9) 2_665 ?
O2 Ni1 2.023(4) 2_665 ?
C11 C13 1.373(5) 2_675 ?
C11 C13 1.373(5) . ?
C11 C10 1.531(11) . ?
C12 C9 1.379(8) . ?
C12 C8 1.378(7) . ?
C10 C9 1.390(6) . ?
C10 C9 1.390(7) 8_676 ?
C8 C12 1.378(7) 8_676 ?
C13 C11 1.373(5) 3_465 ?

loop_
_geom_angle_atom_site_label_1
_geom_angle_atom_site_label_2
_geom_angle_atom_site_label_3
_geom_angle
_geom_angle_site_symmetry_1
_geom_angle_site_symmetry_3
_geom_angle_publ_flag
O3 Ni1 O2 93.54(13) . 6_566 ?
O3 Ni1 O2 93.54(13) . 3_565 ?
O2 Ni1 O2 90.2(3) 6_566 3_565 ?
O3 Ni1 O1 93.78(15) . 4_556 ?
O2 Ni1 O1 89.1(2) 6_566 4_556 ?
O2 Ni1 O1 172.7(2) 3_565 4_556 ?
O3 Ni1 O1 93.78(15) . . ?
O2 Ni1 O1 172.7(2) 6_566 . ?
O2 Ni1 O1 89.1(2) 3_565 . ?
O1 Ni1 O1 90.7(3) 4_556 . ?
O3 Ni1 O7 179.9(2) . . ?
O2 Ni1 O7 86.4(2) 6_566 . ?
O2 Ni1 O7 86.4(2) 3_565 . ?
O1 Ni1 O7 86.3(2) 4_556 . ?
O1 Ni1 O7 86.3(2) . . ?
O2 C7 O1 127.6(5) . . ?
O2 C7 C6 116.5(6) . . ?
O1 C7 C6 115.9(5) . . ?
C1 C6 C5 118.3(5) . . ?
C1 C6 C7 121.0(6) . . ?
C5 C6 C7 120.7(6) . . ?
C4 C3 C2 117.3(6) . . ?
C4 C3 C12 120.6(6) . . ?
C2 C3 C12 122.1(6) . . ?
C3 C4 C5 121.0(7) . . ?
C6 C1 C2 122.3(7) . . ?
C1 C2 C3 120.7(7) . . ?
C6 C5 C4 120.4(7) . . ?
Ni1 O3 Ni1 119.999(1) . 3_565 ?
Ni1 O3 Ni1 120.0 . 2_665 ?
Ni1 O3 Ni1 120.002(1) 3_565 2_665 ?
C7 O1 Ni1 132.9(4) . . ?
C7 O2 Ni1 133.9(4) . 2_665 ?
C13 C11 C13 122.3(9) 2_675 . ?
C13 C11 C10 118.9(4) 2_675 . ?
C13 C11 C10 118.9(4) . . ?
C9 C12 C8 117.7(6) . . ?
C9 C12 C3 120.3(5) . . ?
C8 C12 C3 122.0(6) . . ?
C9 C10 C9 119.2(7) . 8_676 ?
C9 C10 C11 120.4(4) . . ?
C9 C10 C11 120.4(4) 8_676 . ?
C12 C9 C10 121.0(5) . . ?
C12 C8 C12 123.3(8) 8_676 . ?
C11 C13 C11 117.7(9) . 3_465 ?

_diffrn_measured_fraction_theta_max 0.997
_diffrn_reflns_theta_full        28.36
_diffrn_measured_fraction_theta_full 0.997
_refine_diff_density_max         1.294
_refine_diff_density_min         -1.346
_refine_diff_density_rms         0.186



