####################################################################### 
# 
# This file contains crystal structure data downloaded from the 
# Cambridge Structural Database (CSD) hosted by the Cambridge 
# Crystallographic Data Centre (CCDC).
# 
# Full information about CCDC data access policies and citation 
# guidelines are available at http://www.ccdc.cam.ac.uk/access/V1 
# 
# Audit and citation data items may have been added by the CCDC. 
# Please retain this information to preserve the provenance of 
# this file and to allow appropriate attribution of the data. 
# 
#######################################################################

data_1-Ag-I
_audit_block_doi                 10.5517/ccqs7yn
_database_code_depnum_ccdc_archive 'CCDC 678712'
loop_
_citation_id
_citation_doi
_citation_year
1 10.1021/ja075408b 2008
_audit_update_record             
;
2008-02-20 deposited with the CCDC.	2024-07-11 downloaded from the CCDC.
;

_audit_creation_method           SHELXL-97
_chemical_name_systematic        
;
?
;
_chemical_name_common            ?
_chemical_melting_point          ?
_chemical_formula_moiety         ?
_chemical_formula_sum            'C90 H108 Ag18 N36'
_chemical_formula_weight         3635.78

loop_
_atom_type_symbol
_atom_type_description
_atom_type_scat_dispersion_real
_atom_type_scat_dispersion_imag
_atom_type_scat_source
C C 0.0033 0.0016 'International Tables Vol C Tables 4.2.6.8 and 6.1.1.4'
H H 0.0000 0.0000 'International Tables Vol C Tables 4.2.6.8 and 6.1.1.4'
Ag Ag -0.8971 1.1015 'International Tables Vol C Tables 4.2.6.8 and 6.1.1.4'
N N 0.0061 0.0033 'International Tables Vol C Tables 4.2.6.8 and 6.1.1.4'

_symmetry_cell_setting           tetragonal
_symmetry_space_group_name_H-M   I-42d

loop_
_symmetry_equiv_pos_as_xyz
'x, y, z'
'y, -x, -z'
'-x, -y, z'
'-y, x, -z'
'x, -y+1/2, -z+1/4'
'-y+1/2, -x, z+3/4'
'-x, y+1/2, -z+1/4'
'y+1/2, x, z+3/4'
'x+1/2, y+1/2, z+1/2'
'y+1/2, -x+1/2, -z+1/2'
'-x+1/2, -y+1/2, z+1/2'
'-y+1/2, x+1/2, -z+1/2'
'x+1/2, -y+1, -z+3/4'
'-y+1, -x+1/2, z+5/4'
'-x+1/2, y+1, -z+3/4'
'y+1, x+1/2, z+5/4'

_cell_length_a                   27.1756(8)
_cell_length_b                   27.1756(8)
_cell_length_c                   81.019(3)
_cell_angle_alpha                90.00
_cell_angle_beta                 90.00
_cell_angle_gamma                90.00
_cell_volume                     59833(3)
_cell_formula_units_Z            16
_cell_measurement_temperature    123(2)
_cell_measurement_reflns_used    ?
_cell_measurement_theta_min      ?
_cell_measurement_theta_max      ?

_exptl_crystal_description       block-like
_exptl_crystal_colour            colorless
_exptl_crystal_size_max          0.25
_exptl_crystal_size_mid          0.20
_exptl_crystal_size_min          0.20
_exptl_crystal_density_meas      ?
_exptl_crystal_density_diffrn    1.614
_exptl_crystal_density_method    'not measured'
_exptl_crystal_F_000             27936
_exptl_absorpt_coefficient_mu    2.340
_exptl_absorpt_correction_type   empirical
_exptl_absorpt_correction_T_min  0.5924
_exptl_absorpt_correction_T_max  0.6519
_exptl_absorpt_process_details   REQABA

_exptl_special_details           
;
?
;

_diffrn_ambient_temperature      123(2)
_diffrn_radiation_wavelength     0.71073
_diffrn_radiation_type           MoK\a
_diffrn_radiation_source         'fine-focus sealed tube'
_diffrn_radiation_monochromator  graphite
_diffrn_measurement_device_type  CCD
_diffrn_measurement_method       '/w scan'
_diffrn_detector_area_resol_mean ?
_diffrn_standards_number         ?
_diffrn_standards_interval_count ?
_diffrn_standards_interval_time  ?
_diffrn_standards_decay_%        ?
_diffrn_reflns_number            75674
_diffrn_reflns_av_R_equivalents  0.0637
_diffrn_reflns_av_sigmaI/netI    0.0689
_diffrn_reflns_limit_h_min       -31
_diffrn_reflns_limit_h_max       24
_diffrn_reflns_limit_k_min       -24
_diffrn_reflns_limit_k_max       32
_diffrn_reflns_limit_l_min       -96
_diffrn_reflns_limit_l_max       61
_diffrn_reflns_theta_min         3.02
_diffrn_reflns_theta_max         25.00
_reflns_number_total             25968
_reflns_number_gt                23345
_reflns_threshold_expression     >2sigma(I)

_computing_data_collection       ?
_computing_cell_refinement       ?
_computing_data_reduction        ?
_computing_structure_solution    'SHELXS-97 (Sheldrick, 1990)'
_computing_structure_refinement  'SHELXL-97 (Sheldrick, 1997)'
_computing_molecular_graphics    ?
_computing_publication_material  ?

_refine_special_details          
;
Refinement of F^2^ against ALL reflections. The weighted R-factor wR and
goodness of fit S are based on F^2^, conventional R-factors R are based
on F, with F set to zero for negative F^2^. The threshold expression of
F^2^ > 2sigma(F^2^) is used only for calculating R-factors(gt) etc. and is
not relevant to the choice of reflections for refinement. R-factors based
on F^2^ are statistically about twice as large as those based on F, and R-
factors based on ALL data will be even larger.
;

_refine_ls_structure_factor_coef Fsqd
_refine_ls_matrix_type           full
_refine_ls_weighting_scheme      calc
_refine_ls_weighting_details     
'calc w=1/[\s^2^(Fo^2^)+(0.0300P)^2^+9000.0000P] where P=(Fo^2^+2Fc^2^)/3'
_atom_sites_solution_primary     direct
_atom_sites_solution_secondary   difmap
_atom_sites_solution_hydrogens   geom
_refine_ls_hydrogen_treatment    constr
_refine_ls_extinction_method     none
_refine_ls_extinction_coef       ?
_refine_ls_abs_structure_details 'Flack H D (1983), Acta Cryst. A39, 876-881'
_refine_ls_abs_structure_Flack   0.11(13)
_refine_ls_number_reflns         25968
_refine_ls_number_parameters     667
_refine_ls_number_restraints     151
_refine_ls_R_factor_all          0.1741
_refine_ls_R_factor_gt           0.1664
_refine_ls_wR_factor_ref         0.3870
_refine_ls_wR_factor_gt          0.3831
_refine_ls_goodness_of_fit_ref   1.441
_refine_ls_restrained_S_all      1.437
_refine_ls_shift/su_max          0.000
_refine_ls_shift/su_mean         0.000

loop_
_atom_site_label
_atom_site_type_symbol
_atom_site_fract_x
_atom_site_fract_y
_atom_site_fract_z
_atom_site_U_iso_or_equiv
_atom_site_adp_type
_atom_site_occupancy
_atom_site_symmetry_multiplicity
_atom_site_calc_flag
_atom_site_refinement_flags
_atom_site_disorder_assembly
_atom_site_disorder_group
Ag1 Ag 0.25590(12) 0.53163(14) 0.31377(4) 0.0579(9) Uani 1 1 d . . .
Ag2 Ag 0.27808(13) 0.44892(14) 0.28373(4) 0.0582(9) Uani 1 1 d . . .
Ag3 Ag 0.17441(13) 0.52277(14) 0.28133(4) 0.0604(9) Uani 1 1 d . . .
Ag4 Ag 0.27175(14) 0.61895(14) 0.28605(5) 0.0651(10) Uani 1 1 d . . .
Ag5 Ag 0.36310(13) 0.53174(13) 0.28176(4) 0.0604(9) Uani 1 1 d . . .
Ag6 Ag 0.26950(14) 0.54009(13) 0.25333(5) 0.0639(10) Uani 1 1 d . . .
Ag7 Ag 0.52769(12) 0.74240(12) 0.22461(4) 0.0539(8) Uani 1 1 d . . .
Ag8 Ag 0.51601(12) 0.66611(12) 0.19251(4) 0.0523(8) Uani 1 1 d . . .
Ag9 Ag 0.44108(12) 0.77074(12) 0.19569(4) 0.0492(7) Uani 1 1 d . . .
Ag10 Ag 0.61067(12) 0.79290(13) 0.20948(4) 0.0533(8) Uani 1 1 d . . .
Ag11 Ag 0.53269(12) 0.79963(13) 0.17678(4) 0.0534(8) Uani 1 1 d . . .
Ag12 Ag 0.52705(12) 0.89024(14) 0.20494(4) 0.0575(9) Uani 1 1 d . . .
Ag13 Ag 0.66887(12) 0.98336(14) 0.11543(4) 0.0565(9) Uani 1 1 d . . .
Ag14 Ag 0.75174(12) 1.00586(13) 0.14500(4) 0.0508(8) Uani 1 1 d . . .
Ag15 Ag 0.77275(12) 0.91043(15) 0.11752(4) 0.0584(9) Uani 1 1 d . . .
Ag16 Ag 0.85939(12) 1.01906(12) 0.12062(4) 0.0530(8) Uani 1 1 d . . .
Ag17 Ag 0.76325(13) 1.02414(13) 0.09473(4) 0.0582(9) Uani 1 1 d . . .
Ag18 Ag 0.76940(13) 1.10368(12) 0.12825(4) 0.0542(8) Uani 1 1 d . . .
N1 N 0.3169(16) 0.4773(14) 0.3169(3) 0.080(13) Uiso 1 1 d D . .
N2 N 0.3248(11) 0.4489(11) 0.3031(3) 0.047(8) Uiso 1 1 d D . .
N3 N 0.2207(12) 0.4353(10) 0.2672(4) 0.060(10) Uiso 1 1 d D . .
N4 N 0.1818(10) 0.4678(11) 0.2659(5) 0.065(10) Uiso 1 1 d D . .
N5 N 0.1623(14) 0.5716(16) 0.2994(5) 0.085(14) Uiso 1 1 d D . .
N6 N 0.1906(16) 0.5735(18) 0.3135(5) 0.094(15) Uiso 1 1 d D . .
N7 N 0.3246(15) 0.6153(14) 0.3024(5) 0.083(13) Uiso 1 1 d D . .
N8 N 0.3599(12) 0.5788(13) 0.3019(4) 0.064(10) Uiso 1 1 d D . .
N9 N 0.3644(9) 0.4863(10) 0.2609(3) 0.060(10) Uiso 1 1 d D . .
N10 N 0.3230(10) 0.4919(11) 0.2513(4) 0.052(9) Uiso 1 1 d D . .
N11 N 0.2153(13) 0.5892(15) 0.2566(5) 0.087(14) Uiso 1 1 d D . .
N12 N 0.2175(15) 0.6254(15) 0.2685(5) 0.093(15) Uiso 1 1 d D . .
N13 N 0.5660(11) 0.6788(10) 0.2238(3) 0.047(8) Uiso 1 1 d D . .
N14 N 0.5623(13) 0.6455(10) 0.2110(4) 0.065(10) Uiso 1 1 d D . .
N15 N 0.4605(11) 0.6748(11) 0.1770(3) 0.053(9) Uiso 1 1 d D . .
N16 N 0.4289(10) 0.7146(13) 0.1773(4) 0.092(15) Uiso 1 1 d D . .
N17 N 0.4455(10) 0.8133(11) 0.2160(4) 0.051(9) Uiso 1 1 d D . .
N18 N 0.4805(12) 0.8022(13) 0.2277(3) 0.063(10) Uiso 1 1 d D . .
N19 N 0.6149(11) 0.7421(11) 0.1919(4) 0.055(9) Uiso 1 1 d D . .
N20 N 0.5830(13) 0.7437(13) 0.1786(4) 0.066(10) Uiso 1 1 d D . .
N21 N 0.4809(11) 0.8563(11) 0.1735(3) 0.055(9) Uiso 1 1 d D . .
N22 N 0.4779(11) 0.8911(10) 0.1859(3) 0.044(7) Uiso 1 1 d D . .
N23 N 0.5765(10) 0.8902(9) 0.2245(3) 0.042(7) Uiso 1 1 d D . .
N24 N 0.6038(12) 0.8482(11) 0.2274(4) 0.060(10) Uiso 1 1 d D . .
N25 N 0.6493(9) 1.0326(10) 0.1338(3) 0.067(10) Uiso 1 1 d D . .
N26 N 0.6848(10) 1.0443(9) 0.1453(3) 0.040(7) Uiso 1 1 d D . .
N27 N 0.8148(8) 0.9585(8) 0.1471(2) 0.021(5) Uiso 1 1 d D . .
N28 N 0.8181(9) 0.9175(8) 0.1371(3) 0.067(11) Uiso 1 1 d D . .
N29 N 0.7182(10) 0.8974(11) 0.1000(4) 0.051(8) Uiso 1 1 d D . .
N30 N 0.6764(9) 0.9261(11) 0.0990(4) 0.054(9) Uiso 1 1 d D . .
N31 N 0.8561(10) 0.9718(10) 0.1015(3) 0.039(7) Uiso 1 1 d D . .
N32 N 0.8189(12) 0.9741(12) 0.0899(4) 0.067(11) Uiso 1 1 d D . .
N33 N 0.7120(11) 1.0782(12) 0.0983(4) 0.051(8) Uiso 1 1 d D . .
N34 N 0.7187(15) 1.1119(14) 0.1109(5) 0.097(15) Uiso 1 1 d D . .
N35 N 0.8308(12) 1.0981(12) 0.1443(4) 0.054(9) Uiso 1 1 d D . .
N36 N 0.8670(11) 1.0659(13) 0.1393(4) 0.074(12) Uiso 1 1 d D . .
C1 C 0.331(2) 0.4937(17) 0.3467(5) 0.083(16) Uiso 1 1 d D . .
H1A H 0.3074 0.5205 0.3451 0.124 Uiso 1 1 calc R . .
H1B H 0.3638 0.5074 0.3486 0.124 Uiso 1 1 calc R . .
H1C H 0.3211 0.4740 0.3563 0.124 Uiso 1 1 calc R . .
C2 C 0.3317(12) 0.4617(11) 0.3317(3) 0.040(9) Uiso 1 1 d D . .
C3 C 0.3609(12) 0.4227(11) 0.3265(3) 0.041(9) Uiso 1 1 d D . .
C4 C 0.3540(14) 0.4148(12) 0.3097(3) 0.053(10) Uiso 1 1 d D . .
C5 C 0.364(3) 0.3685(17) 0.3003(8) 0.12(2) Uiso 1 1 d D . .
H5A H 0.3525 0.3726 0.2889 0.179 Uiso 1 1 calc R . .
H5B H 0.3458 0.3412 0.3055 0.179 Uiso 1 1 calc R . .
H5C H 0.3990 0.3615 0.3004 0.179 Uiso 1 1 calc R . .
C6 C 0.2506(14) 0.3502(12) 0.2577(5) 0.054(11) Uiso 1 1 d D . .
H6A H 0.2825 0.3593 0.2625 0.082 Uiso 1 1 calc R . .
H6B H 0.2549 0.3417 0.2461 0.082 Uiso 1 1 calc R . .
H6C H 0.2372 0.3218 0.2637 0.082 Uiso 1 1 calc R . .
C7 C 0.2158(9) 0.3926(10) 0.2592(4) 0.045(9) Uiso 1 1 d D . .
C8 C 0.1674(9) 0.3934(9) 0.2537(4) 0.042(9) Uiso 1 1 d D . .
C9 C 0.1482(9) 0.4374(9) 0.2596(4) 0.037(8) Uiso 1 1 d D . .
C10 C 0.0990(10) 0.4582(13) 0.2551(4) 0.040(9) Uiso 1 1 d D . .
H10A H 0.0953 0.4908 0.2601 0.061 Uiso 1 1 calc R . .
H10B H 0.0730 0.4364 0.2593 0.061 Uiso 1 1 calc R . .
H10C H 0.0964 0.4608 0.2431 0.061 Uiso 1 1 calc R . .
C11 C 0.0787(13) 0.5946(16) 0.2928(5) 0.052(10) Uiso 1 1 d D . .
H11A H 0.0883 0.5787 0.2824 0.078 Uiso 1 1 calc R . .
H11B H 0.0693 0.6288 0.2906 0.078 Uiso 1 1 calc R . .
H11C H 0.0508 0.5770 0.2977 0.078 Uiso 1 1 calc R . .
C12 C 0.1211(13) 0.5937(18) 0.3046(4) 0.076(14) Uiso 1 1 d D . .
C13 C 0.1243(12) 0.6122(17) 0.3205(4) 0.070(13) Uiso 1 1 d D . .
C14 C 0.1703(14) 0.5975(18) 0.3262(5) 0.071(14) Uiso 1 1 d D . .
C15 C 0.192(2) 0.611(2) 0.3424(5) 0.087(17) Uiso 1 1 d D . .
H15A H 0.2249 0.5957 0.3435 0.131 Uiso 1 1 calc R . .
H15B H 0.1711 0.5996 0.3514 0.131 Uiso 1 1 calc R . .
H15C H 0.1960 0.6469 0.3431 0.131 Uiso 1 1 calc R . .
C16 C 0.308(2) 0.682(2) 0.3232(8) 0.11(2) Uiso 1 1 d D . .
H16A H 0.2798 0.6898 0.3159 0.163 Uiso 1 1 calc R . .
H16B H 0.3294 0.7104 0.3240 0.163 Uiso 1 1 calc R . .
H16C H 0.2950 0.6735 0.3342 0.163 Uiso 1 1 calc R . .
C17 C 0.3353(16) 0.639(2) 0.3163(6) 0.10(2) Uiso 1 1 d D . .
C18 C 0.3785(13) 0.6223(13) 0.3236(4) 0.057(11) Uiso 1 1 d D . .
C19 C 0.3933(11) 0.5828(12) 0.3139(4) 0.044(9) Uiso 1 1 d D . .
C20 C 0.4366(15) 0.5508(18) 0.3177(7) 0.083(16) Uiso 1 1 d D . .
H20A H 0.4401 0.5258 0.3090 0.124 Uiso 1 1 calc R . .
H20B H 0.4316 0.5346 0.3284 0.124 Uiso 1 1 calc R . .
H20C H 0.4665 0.5710 0.3181 0.124 Uiso 1 1 calc R . .
C21 C 0.4379(13) 0.4471(16) 0.2657(5) 0.065(12) Uiso 1 1 d D . .
H21A H 0.4369 0.4723 0.2743 0.097 Uiso 1 1 calc R . .
H21B H 0.4690 0.4496 0.2596 0.097 Uiso 1 1 calc R . .
H21C H 0.4353 0.4144 0.2707 0.097 Uiso 1 1 calc R . .
C22 C 0.3959(11) 0.4547(11) 0.2540(4) 0.052(10) Uiso 1 1 d D . .
C23 C 0.3731(11) 0.4313(11) 0.2408(4) 0.041(9) Uiso 1 1 d D . .
C24 C 0.3298(13) 0.4581(15) 0.2395(5) 0.11(2) Uiso 1 1 d D . .
C25 C 0.296(2) 0.447(2) 0.2254(6) 0.11(2) Uiso 1 1 d D . .
H25A H 0.2674 0.4691 0.2259 0.169 Uiso 1 1 calc R . .
H25B H 0.2849 0.4129 0.2261 0.169 Uiso 1 1 calc R . .
H25C H 0.3135 0.4522 0.2150 0.169 Uiso 1 1 calc R . .
C26 C 0.165(2) 0.5770(18) 0.2319(4) 0.074(14) Uiso 1 1 d D . .
H26A H 0.1883 0.5494 0.2305 0.112 Uiso 1 1 calc R . .
H26B H 0.1705 0.6010 0.2230 0.112 Uiso 1 1 calc R . .
H26C H 0.1315 0.5649 0.2316 0.112 Uiso 1 1 calc R . .
C27 C 0.1748(13) 0.6012(11) 0.2482(4) 0.046(9) Uiso 1 1 d D . .
C28 C 0.1522(11) 0.6450(12) 0.2528(4) 0.055(11) Uiso 1 1 d D . .
C29 C 0.1801(14) 0.6567(14) 0.2666(4) 0.058(11) Uiso 1 1 d D . .
C30 C 0.1713(16) 0.6945(14) 0.2797(5) 0.057(11) Uiso 1 1 d D . .
H30A H 0.1974 0.6926 0.2880 0.086 Uiso 1 1 calc R . .
H30B H 0.1394 0.6884 0.2849 0.086 Uiso 1 1 calc R . .
H30C H 0.1713 0.7274 0.2747 0.086 Uiso 1 1 calc R . .
C31 C 0.612(3) 0.675(3) 0.2511(7) 0.17(4) Uiso 1 1 d D . .
H31A H 0.6016 0.7093 0.2526 0.255 Uiso 1 1 calc R . .
H31B H 0.6483 0.6743 0.2498 0.255 Uiso 1 1 calc R . .
H31C H 0.6029 0.6556 0.2607 0.255 Uiso 1 1 calc R . .
C32 C 0.5887(14) 0.6543(11) 0.2360(4) 0.046(9) Uiso 1 1 d D . .
C33 C 0.6004(17) 0.6065(11) 0.2312(4) 0.068(13) Uiso 1 1 d D . .
C34 C 0.5857(13) 0.6038(11) 0.2148(3) 0.045(9) Uiso 1 1 d D . .
C35 C 0.5850(19) 0.5574(13) 0.2049(6) 0.072(14) Uiso 1 1 d D . .
H35A H 0.5693 0.5636 0.1942 0.108 Uiso 1 1 calc R . .
H35B H 0.5664 0.5321 0.2109 0.108 Uiso 1 1 calc R . .
H35C H 0.6188 0.5460 0.2032 0.108 Uiso 1 1 calc R . .
C36 C 0.4550(15) 0.5945(12) 0.1667(5) 0.056(11) Uiso 1 1 d D . .
H36A H 0.4875 0.5947 0.1719 0.083 Uiso 1 1 calc R . .
H36B H 0.4586 0.5887 0.1548 0.083 Uiso 1 1 calc R . .
H36C H 0.4349 0.5683 0.1716 0.083 Uiso 1 1 calc R . .
C37 C 0.4304(11) 0.6430(12) 0.1695(4) 0.088(17) Uiso 1 1 d D . .
C38 C 0.3847(11) 0.6603(11) 0.1645(5) 0.12(2) Uiso 1 1 d D . .
C39 C 0.3851(10) 0.7086(10) 0.1702(4) 0.043(9) Uiso 1 1 d D . .
C40 C 0.3467(11) 0.7480(11) 0.1701(4) 0.035(8) Uiso 1 1 d D . .
H40A H 0.3594 0.7773 0.1758 0.052 Uiso 1 1 calc R . .
H40B H 0.3173 0.7361 0.1759 0.052 Uiso 1 1 calc R . .
H40C H 0.3382 0.7564 0.1587 0.052 Uiso 1 1 calc R . .
C41 C 0.3664(13) 0.858(2) 0.2160(7) 0.088(17) Uiso 1 1 d D . .
H41A H 0.3646 0.8448 0.2048 0.132 Uiso 1 1 calc R . .
H41B H 0.3644 0.8940 0.2156 0.132 Uiso 1 1 calc R . .
H41C H 0.3389 0.8451 0.2226 0.132 Uiso 1 1 calc R . .
C42 C 0.4140(10) 0.8430(12) 0.2238(3) 0.037(8) Uiso 1 1 d D . .
C43 C 0.4292(10) 0.8543(12) 0.2397(3) 0.042(9) Uiso 1 1 d D . .
C44 C 0.4703(12) 0.8247(13) 0.2420(4) 0.053(10) Uiso 1 1 d D . .
C45 C 0.5065(18) 0.819(2) 0.2557(6) 0.091(18) Uiso 1 1 d D . .
H45A H 0.5321 0.7952 0.2524 0.136 Uiso 1 1 calc R . .
H45B H 0.4896 0.8061 0.2655 0.136 Uiso 1 1 calc R . .
H45C H 0.5217 0.8504 0.2582 0.136 Uiso 1 1 calc R . .
C46 C 0.6853(13) 0.6900(16) 0.1998(5) 0.057(11) Uiso 1 1 d D . .
H46A H 0.6837 0.7103 0.2098 0.085 Uiso 1 1 calc R . .
H46B H 0.7177 0.6940 0.1946 0.085 Uiso 1 1 calc R . .
H46C H 0.6804 0.6554 0.2027 0.085 Uiso 1 1 calc R . .
C47 C 0.6461(11) 0.7058(11) 0.1880(3) 0.041(9) Uiso 1 1 d D . .
C48 C 0.6333(13) 0.6833(13) 0.1732(4) 0.060(12) Uiso 1 1 d D . .
C49 C 0.5924(15) 0.7088(15) 0.1674(4) 0.074(14) Uiso 1 1 d D . .
C50 C 0.5680(16) 0.7069(17) 0.1509(4) 0.058(11) Uiso 1 1 d D . .
H50A H 0.5414 0.7313 0.1505 0.087 Uiso 1 1 calc R . .
H50B H 0.5543 0.6740 0.1491 0.087 Uiso 1 1 calc R . .
H50C H 0.5922 0.7142 0.1423 0.087 Uiso 1 1 calc R . .
C51 C 0.425(3) 0.826(3) 0.1502(9) 0.17(4) Uiso 1 1 d D . .
H51A H 0.4447 0.7959 0.1502 0.256 Uiso 1 1 calc R . .
H51B H 0.4242 0.8403 0.1392 0.256 Uiso 1 1 calc R . .
H51C H 0.3908 0.8174 0.1535 0.256 Uiso 1 1 calc R . .
C52 C 0.4456(12) 0.8618(10) 0.1623(4) 0.041(9) Uiso 1 1 d D . .
C53 C 0.4276(11) 0.9092(11) 0.1645(4) 0.049(10) Uiso 1 1 d D . .
C54 C 0.4442(15) 0.9224(14) 0.1801(4) 0.068(13) Uiso 1 1 d D . .
C55 C 0.435(4) 0.964(3) 0.1916(11) 0.22(5) Uiso 1 1 d D . .
H55A H 0.4564 0.9609 0.2013 0.326 Uiso 1 1 calc R . .
H55B H 0.4006 0.9641 0.1951 0.326 Uiso 1 1 calc R . .
H55C H 0.4424 0.9954 0.1860 0.326 Uiso 1 1 calc R . .
C56 C 0.5659(13) 0.9732(9) 0.2357(5) 0.043(9) Uiso 1 1 d D . .
H56A H 0.5407 0.9748 0.2270 0.065 Uiso 1 1 calc R . .
H56B H 0.5926 0.9962 0.2330 0.065 Uiso 1 1 calc R . .
H56C H 0.5512 0.9823 0.2463 0.065 Uiso 1 1 calc R . .
C57 C 0.5860(11) 0.9221(9) 0.2367(3) 0.041(9) Uiso 1 1 d D . .
C58 C 0.6233(11) 0.9024(10) 0.2464(3) 0.038(8) Uiso 1 1 d D . .
C59 C 0.6337(18) 0.8559(12) 0.2402(5) 0.090(17) Uiso 1 1 d D . .
C60 C 0.6681(14) 0.8169(13) 0.2462(5) 0.052(10) Uiso 1 1 d D . .
H60A H 0.6650 0.7876 0.2392 0.078 Uiso 1 1 calc R . .
H60B H 0.6600 0.8084 0.2576 0.078 Uiso 1 1 calc R . .
H60C H 0.7020 0.8291 0.2457 0.078 Uiso 1 1 calc R . .
C61 C 0.5584(14) 1.0430(19) 0.1310(7) 0.10(2) Uiso 1 1 d D . .
H61A H 0.5639 1.0266 0.1204 0.152 Uiso 1 1 calc R . .
H61B H 0.5440 1.0755 0.1291 0.152 Uiso 1 1 calc R . .
H61C H 0.5360 1.0232 0.1377 0.152 Uiso 1 1 calc R . .
C62 C 0.6064(11) 1.0486(11) 0.1398(3) 0.048(10) Uiso 1 1 d D . .
C63 C 0.6141(8) 1.0695(10) 0.1552(3) 0.030(7) Uiso 1 1 d D . .
C64 C 0.6644(8) 1.0668(11) 0.1582(3) 0.039(8) Uiso 1 1 d D . .
C65 C 0.682(4) 1.090(2) 0.1740