
#######################################################################
#
#                 Cambridge Crystallographic Data Centre
#                                CCDC
#
#######################################################################
#
# If this CIF has been generated from an entry in the Cambridge
# Structural Database, then it will include bibliographic, chemical,
# crystal, experimental, refinement or atomic coordinate data resulting
# from the CCDC's data processing and validation procedures.
#
#######################################################################

data_CSD_CIF_MNBISA01
_audit_creation_date 1994-02-02
_audit_creation_method CSD-ConQuest-V1
_database_code_CSD MNBISA01
_database_code_depnum_ccdc_archive 'CCDC 1212626'
_chemical_formula_sum 'C12 H36 Bi2 Br9 N3'
_chemical_formula_moiety
;
3(C4 H12 N1 1+),Bi2 Br9 3-
;
_journal_coden_Cambridge 7
_journal_volume 66
_journal_year 1993
_journal_page_first 380
_journal_name_full 'Bull.Chem.Soc.Jpn. '
loop_
_publ_author_name
"H.Ishihara"
"K.Yamada"
"T.Okuda"
"A.Weiss"
_chemical_name_systematic
;
tris(Tetramethylammonium) tris(\m~2~-bromo)-hexabromo-di-bismuth(iii)
;
_chemical_name_common
;
Teaching Subset: Fundamental Chemistry
;
_cell_volume   1762.027
_exptl_crystal_density_diffrn 2.563
_exptl_special_details
;
P63/mmc polymorph
powder data
No coordinates reported for the tetramethylammonium cation. Cs atoms were 
used as dummy atoms for the refinement
;
_diffrn_ambient_temperature ?
_diffrn_special_details
;
The study was carried out at room temperature,in the range 283-303K

;
_refine_special_details
;
Cs atoms were used as dummy atoms for the refinement.

;
#These two values have been output from a single CSD field.
_refine_ls_R_factor_gt 0.0637
_refine_ls_wR_factor_gt 0.0637
_symmetry_cell_setting hexagonal
_symmetry_space_group_name_H-M 'P 63/m m c'
_symmetry_Int_Tables_number 194
loop_
_symmetry_equiv_pos_site_id
_symmetry_equiv_pos_as_xyz
1 x,y,z
2 -y,x-y,z
3 -x+y,-x,z
4 -x,-y,1/2+z
5 y,-x+y,1/2+z
6 x-y,x,1/2+z
7 y,x,-z
8 x-y,-y,-z
9 -x,-x+y,-z
10 -y,-x,1/2-z
11 -x+y,y,1/2-z
12 x,x-y,1/2-z
13 -x,-y,-z
14 y,-x+y,-z
15 x-y,x,-z
16 x,y,-1/2-z
17 -y,x-y,-1/2-z
18 -x+y,-x,-1/2-z
19 -y,-x,z
20 -x+y,y,z
21 x,x-y,z
22 y,x,-1/2+z
23 x-y,-y,-1/2+z
24 -x,-x+y,-1/2+z
_cell_length_a 9.518(1)
_cell_length_b 9.518(1)
_cell_length_c 22.459(2)
_cell_angle_alpha 90
_cell_angle_beta 90
_cell_angle_gamma 120
_cell_formula_units_Z 2
loop_
_atom_type_symbol
_atom_type_radius_bond
Bi 1.54
Br 1.21
Cs 1.67
loop_
_atom_site_label
_atom_site_type_symbol
_atom_site_fract_x
_atom_site_fract_y
_atom_site_fract_z
Bi1 Bi 0.33330 0.66670 0.1602(4)
Br1 Br 0.4713(9) 0.94260 0.25000
Br2 Br 0.1945(9) 0.38910 0.0956(5)
Cs1? Cs 0.00000 0.00000 0.25000
Cs2? Cs 0.66670 0.33330 0.0917(16)
Br1A Br 0.0574(9) 0.52870 0.25000
Br1B Br 0.4713(9) 0.52870 0.25000
Br2A Br 0.6109(9) 0.80540 0.0956(5)
Br2B Br 0.1946(9) 0.80550 0.0956(5)
Bi1O Bi 0.33330 0.66670 0.3398(4)
Br2O Br 0.1945(9) 0.38910 0.4044(5)
Br2P Br 0.6109(9) 0.80540 0.4044(5)
Br2Q Br 0.1946(9) 0.80550 0.4044(5)
#END
