####################################################################### 
# 
# This file contains crystal structure data downloaded from the 
# Cambridge Structural Database (CSD) hosted by the Cambridge 
# Crystallographic Data Centre (CCDC).
# 
# Full information about CCDC data access policies and citation 
# guidelines are available at http://www.ccdc.cam.ac.uk/access/V1 
# 
# Audit and citation data items may have been added by the CCDC. 
# Please retain this information to preserve the provenance of 
# this file and to allow appropriate attribution of the data. 
# 
#######################################################################

data_NENU-503
_audit_block_doi                 10.5517/cc11dg85
_database_code_depnum_ccdc_archive 'CCDC 965286'
loop_
_citation_id
_citation_doi
_citation_year
1 10.1002/chem.201304692 2014
_audit_update_record             
;
2013-10-08 deposited with the CCDC.	2024-07-11 downloaded from the CCDC.
;

_audit_creation_method           SHELXL-97
_chemical_name_systematic        
;
 ?
;
_chemical_name_common            ?
_chemical_melting_point          ?
_chemical_formula_moiety         ?
_chemical_formula_sum            'C96 H72 Cd4 Cl2 N14 O14'
_chemical_formula_weight         2166.18

loop_
_atom_type_symbol
_atom_type_description
_atom_type_scat_dispersion_real
_atom_type_scat_dispersion_imag
_atom_type_scat_source
C C 0.0033 0.0016 'International Tables Vol C Tables 4.2.6.8 and 6.1.1.4'
H H 0.0000 0.0000 'International Tables Vol C Tables 4.2.6.8 and 6.1.1.4'
N N 0.0061 0.0033 'International Tables Vol C Tables 4.2.6.8 and 6.1.1.4'
O O 0.0106 0.0060 'International Tables Vol C Tables 4.2.6.8 and 6.1.1.4'
Cd Cd -0.8075 1.2024 'International Tables Vol C Tables 4.2.6.8 and 6.1.1.4'
Cl Cl 0.1484 0.1585 'International Tables Vol C Tables 4.2.6.8 and 6.1.1.4'

_symmetry_cell_setting           'MONOCLINIC '
_symmetry_space_group_name_H-M   'C 2/c '
_symmetry_space_group_name_Hall  '-C 2yc '

loop_
_symmetry_equiv_pos_as_xyz
'x, y, z'
'-x, y, -z+1/2'
'x+1/2, y+1/2, z'
'-x+1/2, y+1/2, -z+1/2'
'-x, -y, -z'
'x, -y, z-1/2'
'-x+1/2, -y+1/2, -z'
'x+1/2, -y+1/2, z-1/2'

_cell_length_a                   27.1650(12)
_cell_length_b                   33.5960(12)
_cell_length_c                   19.4720(11)
_cell_angle_alpha                90.00
_cell_angle_beta                 111.9950(10)
_cell_angle_gamma                90.00
_cell_volume                     16477.4(13)
_cell_formula_units_Z            4
_cell_measurement_temperature    293(2)
_cell_measurement_reflns_used    98
_cell_measurement_theta_min      1.89
_cell_measurement_theta_max      28.45

_exptl_crystal_description       needle
_exptl_crystal_colour            white
_exptl_crystal_size_max          0.35
_exptl_crystal_size_mid          0.28
_exptl_crystal_size_min          0.25
_exptl_crystal_density_meas      ?
_exptl_crystal_density_diffrn    0.873
_exptl_crystal_density_method    'not measured'
_exptl_crystal_F_000             4336
_exptl_absorpt_coefficient_mu    0.582
_exptl_absorpt_correction_type   multi-scan
_exptl_absorpt_correction_T_min  0.822
_exptl_absorpt_correction_T_max  0.865
_exptl_absorpt_process_details   'SADABS (Sheldrick, 1996)'

_exptl_special_details           
;
 ?
;

_diffrn_ambient_temperature      293(2)
_diffrn_radiation_wavelength     0.71069
_diffrn_radiation_type           MoK\a
_diffrn_radiation_source         'fine-focus sealed tube'
_diffrn_radiation_monochromator  graphite
_diffrn_measurement_device_type  'Bruker APEX CCD area-detector'
_diffrn_measurement_method       '\w scans'
_diffrn_detector_area_resol_mean ?
_diffrn_standards_number         0
_diffrn_standards_interval_count 0
_diffrn_standards_interval_time  0
_diffrn_standards_decay_%        0
_diffrn_reflns_number            34062
_diffrn_reflns_av_R_equivalents  0.0382
_diffrn_reflns_av_sigmaI/netI    0.0483
_diffrn_reflns_limit_h_min       -28
_diffrn_reflns_limit_h_max       29
_diffrn_reflns_limit_k_min       -36
_diffrn_reflns_limit_k_max       33
_diffrn_reflns_limit_l_min       -20
_diffrn_reflns_limit_l_max       20
_diffrn_reflns_theta_min         1.99
_diffrn_reflns_theta_max         22.44
_reflns_number_total             10660
_reflns_number_gt                5885
_reflns_threshold_expression     >2sigma(I)

_computing_data_collection       'SMART (Bruker, 1997)'
_computing_cell_refinement       SMART
_computing_data_reduction        'SAINT (Bruker, 1999)'
_computing_structure_solution    'SHELXS-97(Sheldrick, 2008)'
_computing_structure_refinement  'SHELXL-97 (Sheldrick, 2008)'
_computing_molecular_graphics    'Diamond (Brandenburg and Putz, 2008)'
_computing_publication_material  SHELXL-97

_refine_special_details          
;
 Refinement of F^2^ against ALL reflections.  The weighted R-factor wR and
 goodness of fit S are based on F^2^, conventional R-factors R are based
 on F, with F set to zero for negative F^2^. The threshold expression of
 F^2^ > 2sigma(F^2^) is used only for calculating R-factors(gt) etc. and is
 not relevant to the choice of reflections for refinement.  R-factors based
 on F^2^ are statistically about twice as large as those based on F, and R-
 factors based on ALL data will be even larger.
;

_refine_ls_structure_factor_coef Fsqd
_refine_ls_matrix_type           full
_refine_ls_weighting_scheme      calc
_refine_ls_weighting_details     
'calc w=1/[\s^2^(Fo^2^)+(0.0788P)^2^+0.0000P] where P=(Fo^2^+2Fc^2^)/3'
_atom_sites_solution_primary     direct
_atom_sites_solution_secondary   difmap
_atom_sites_solution_hydrogens   geom
_refine_ls_hydrogen_treatment    mixed
_refine_ls_extinction_method     none
_refine_ls_extinction_coef       ?
_refine_ls_number_reflns         10660
_refine_ls_number_parameters     574
_refine_ls_number_restraints     0
_refine_ls_R_factor_all          0.0780
_refine_ls_R_factor_gt           0.0418
_refine_ls_wR_factor_ref         0.1269
_refine_ls_wR_factor_gt          0.1175
_refine_ls_goodness_of_fit_ref   0.850
_refine_ls_restrained_S_all      0.850
_refine_ls_shift/su_max          0.001
_refine_ls_shift/su_mean         0.000

loop_
_atom_site_label
_atom_site_type_symbol
_atom_site_fract_x
_atom_site_fract_y
_atom_site_fract_z
_atom_site_U_iso_or_equiv
_atom_site_adp_type
_atom_site_occupancy
_atom_site_symmetry_multiplicity
_atom_site_calc_flag
_atom_site_refinement_flags
_atom_site_disorder_assembly
_atom_site_disorder_group
N4 N 0.75065(14) 0.44134(13) 0.5817(2) 0.0930(12) Uani 1 1 d . . .
N3 N 0.84337(16) 0.46552(14) 0.6983(2) 0.1059(13) Uani 1 1 d . . .
N7 N 0.81825(17) 0.43966(13) 0.7856(3) 0.1027(13) Uani 1 1 d . . .
N6 N 0.7972(2) 0.37622(16) 0.4700(3) 0.1069(14) Uani 1 1 d . . .
C9 C 0.57270(17) 0.53106(15) 0.4838(3) 0.0950(15) Uani 1 1 d . . .
C12 C 0.50585(17) 0.56682(14) 0.5464(3) 0.0845(13) Uani 1 1 d . . .
N2 N 0.82878(18) 0.43419(14) 0.5215(2) 0.0954(12) Uani 1 1 d . . .
N1 N 0.74902(16) 0.51962(14) 0.5311(2) 0.0972(12) Uani 1 1 d . . .
C30 C 0.8047(2) 0.44939(16) 0.7139(3) 0.0988(15) Uani 1 1 d . . .
C1 C 0.7042(2) 0.49994(18) 0.5133(3) 0.0921(15) Uani 1 1 d . . .
C16 C 0.7961(2) 0.4044(2) 0.5179(3) 0.0928(16) Uani 1 1 d . . .
C2 C 0.73509(18) 0.55727(13) 0.5042(2) 0.1057(16) Uani 1 1 d G . .
C3 C 0.76483(15) 0.59050(18) 0.5016(3) 0.131(2) Uani 1 1 d G . .
H3 H 0.8017 0.5898 0.5241 0.158 Uiso 1 1 calc R . .
C4 C 0.7395(3) 0.62478(14) 0.4655(3) 0.168(3) Uani 1 1 d G . .
H4 H 0.7594 0.6470 0.4638 0.202 Uiso 1 1 calc R . .
C5 C 0.6845(3) 0.62584(14) 0.4319(3) 0.186(4) Uani 1 1 d G . .
H5 H 0.6676 0.6488 0.4077 0.223 Uiso 1 1 calc R . .
C6 C 0.65475(16) 0.59261(19) 0.4345(3) 0.152(3) Uani 1 1 d G . .
H6 H 0.6179 0.5933 0.4120 0.182 Uiso 1 1 calc R . .
C7 C 0.68004(18) 0.55832(14) 0.4706(2) 0.1068(17) Uani 1 1 d G . .
C28 C 0.8044(3) 0.2333(2) 0.4608(4) 0.149(2) Uani 1 1 d . . .
H28 H 0.7946 0.2107 0.4309 0.178 Uiso 1 1 calc R . .
C32 C 0.8705(2) 0.45041(19) 0.8205(4) 0.1110(18) Uani 1 1 d . . .
C33 C 0.9031(3) 0.4483(2) 0.8945(4) 0.141(2) Uani 1 1 d . . .
H33 H 0.8921 0.4377 0.9304 0.170 Uiso 1 1 calc R . .
C34 C 0.9529(3) 0.4631(3) 0.9102(4) 0.177(3) Uani 1 1 d . . .
H34 H 0.9767 0.4623 0.9591 0.213 Uiso 1 1 calc R . .
C35 C 0.9703(2) 0.4793(3) 0.8573(5) 0.168(3) Uani 1 1 d . . .
H35 H 1.0048 0.4888 0.8715 0.201 Uiso 1 1 calc R . .
C36 C 0.9369(2) 0.4813(2) 0.7849(4) 0.140(2) Uani 1 1 d . . .
H36 H 0.9478 0.4921 0.7490 0.167 Uiso 1 1 calc R . .
C37 C 0.8861(2) 0.46656(19) 0.7672(4) 0.1132(18) Uani 1 1 d . . .
C29 C 0.7810(3) 0.2689(2) 0.4351(4) 0.144(2) Uani 1 1 d . . .
H29 H 0.7545 0.2702 0.3881 0.173 Uiso 1 1 calc R . .
C38 C 0.7815(2) 0.42687(16) 0.8194(3) 0.1062(16) Uani 1 1 d . . .
H38A H 0.8013 0.4173 0.8691 0.127 Uiso 1 1 calc R . .
H38B H 0.7601 0.4051 0.7909 0.127 Uiso 1 1 calc R . .
C39 C 0.7455(2) 0.46056(19) 0.8228(3) 0.0943(15) Uani 1 1 d . . .
C40 C 0.7654(2) 0.4963(2) 0.8536(3) 0.1104(18) Uani 1 1 d . . .
H40 H 0.8020 0.4995 0.8748 0.132 Uiso 1 1 calc R . .
C41 C 0.7333(2) 0.52787(18) 0.8546(3) 0.1095(17) Uani 1 1 d . . .
H41 H 0.7483 0.5517 0.8769 0.131 Uiso 1 1 calc R . .
C42 C 0.67893(19) 0.52411(18) 0.8226(3) 0.0895(14) Uani 1 1 d . . .
C43 C 0.6580(2) 0.48897(19) 0.7908(3) 0.1008(16) Uani 1 1 d . . .
H43 H 0.6213 0.4862 0.7691 0.121 Uiso 1 1 calc R . .
C44 C 0.6901(2) 0.45692(17) 0.7899(3) 0.1061(16) Uani 1 1 d . . .
H44 H 0.6749 0.4331 0.7674 0.127 Uiso 1 1 calc R . .
C10 C 0.59093(19) 0.54120(17) 0.5582(3) 0.1124(18) Uani 1 1 d . . .
H10 H 0.6261 0.5359 0.5882 0.135 Uiso 1 1 calc R . .
C17 C 0.8538(2) 0.4238(2) 0.4737(4) 0.1034(17) Uani 1 1 d . . .
C18 C 0.8341(3) 0.3874(2) 0.4423(4) 0.119(2) Uani 1 1 d . . .
C19 C 0.8535(4) 0.3691(2) 0.3902(5) 0.164(3) Uani 1 1 d . . .
H19 H 0.8408 0.3447 0.3680 0.197 Uiso 1 1 calc R . .
C20 C 0.8923(4) 0.3901(4) 0.3753(6) 0.209(4) Uani 1 1 d . . .
H20 H 0.9065 0.3791 0.3429 0.251 Uiso 1 1 calc R . .
C21 C 0.9106(3) 0.4266(3) 0.4064(5) 0.167(3) Uani 1 1 d . . .
H21 H 0.9357 0.4401 0.3933 0.200 Uiso 1 1 calc R . .
C22 C 0.8922(3) 0.4435(2) 0.4571(4) 0.133(2) Uani 1 1 d . . .
H22 H 0.9055 0.4678 0.4794 0.160 Uiso 1 1 calc R . .
C23 C 0.7656(2) 0.34039(18) 0.4460(3) 0.128(2) Uani 1 1 d . . .
H23A H 0.7518 0.3393 0.3923 0.154 Uiso 1 1 calc R . .
H23B H 0.7355 0.3420 0.4613 0.154 Uiso 1 1 calc R . .
C24 C 0.7953(2) 0.30231(19) 0.4761(4) 0.1133(18) Uani 1 1 d . . .
C25 C 0.8331(3) 0.3009(2) 0.5426(4) 0.157(3) Uani 1 1 d . . .
H25 H 0.8438 0.3242 0.5700 0.188 Uiso 1 1 calc R . .
C45 C 0.74879(17) 0.44419(16) 0.6559(3) 0.1032(16) Uani 1 1 d . . .
H45A H 0.7329 0.4202 0.6664 0.124 Uiso 1 1 calc R . .
H45B H 0.7269 0.4667 0.6578 0.124 Uiso 1 1 calc R . .
C26 C 0.8576(3) 0.2642(3) 0.5727(4) 0.159(3) Uani 1 1 d . . .
H26 H 0.8835 0.2632 0.6203 0.191 Uiso 1 1 calc R . .
O1 O 0.42022(13) 0.58504(10) 0.54238(19) 0.1102(11) Uani 1 1 d . . .
O3 O 0.40442(13) 0.55488(10) 0.7007(2) 0.1098(11) Uani 1 1 d . . .
O2 O 0.48892(12) 0.60190(11) 0.6396(2) 0.1072(11) Uani 1 1 d . . .
C8 C 0.60585(18) 0.51022(16) 0.4473(3) 0.1121(18) Uani 1 1 d . . .
H8A H 0.6037 0.4817 0.4534 0.135 Uiso 1 1 calc R . .
H8B H 0.5914 0.5160 0.3946 0.135 Uiso 1 1 calc R . .
C46 C 0.7634(2) 0.40144(16) 0.5643(3) 0.1034(16) Uani 1 1 d . . .
H46A H 0.7309 0.3869 0.5377 0.124 Uiso 1 1 calc R . .
H46B H 0.7829 0.3872 0.6097 0.124 Uiso 1 1 calc R . .
C13 C 0.48688(19) 0.55616(15) 0.4723(3) 0.0992(16) Uani 1 1 d . . .
H13 H 0.4515 0.5610 0.4429 0.119 Uiso 1 1 calc R . .
C14 C 0.51936(19) 0.53867(15) 0.4413(3) 0.1002(16) Uani 1 1 d . . .
H14 H 0.5057 0.5318 0.3914 0.120 Uiso 1 1 calc R . .
O5 O 0.3486(2) 0.66016(15) 0.5347(3) 0.168(2) Uani 1 1 d . . .
C11 C 0.55811(19) 0.55894(15) 0.5888(3) 0.1016(16) Uani 1 1 d . . .
H11 H 0.5715 0.5656 0.6388 0.122 Uiso 1 1 calc R . .
C47 C 0.70069(17) 0.45618(17) 0.5249(3) 0.0981(15) Uani 1 1 d . . .
H47A H 0.6714 0.4509 0.5406 0.118 Uiso 1 1 calc R . .
H47B H 0.6939 0.4423 0.4786 0.118 Uiso 1 1 calc R . .
C27 C 0.8431(3) 0.2305(2) 0.5319(5) 0.1211(19) Uani 1 1 d . . .
Cd2 Cd 0.406514(13) 0.621123(11) 0.64028(2) 0.09586(17) Uani 1 1 d . . .
Cd1 Cd 0.827328(13) 0.488785(12) 0.58469(2) 0.10324(18) Uani 1 1 d . . .
N5 N 0.66149(16) 0.52247(13) 0.4782(2) 0.0947(12) Uani 1 1 d . . .
C15 C 0.4696(2) 0.58506(15) 0.5773(3) 0.0941(15) Uani 1 1 d . . .
O4 O 0.33245(13) 0.58865(11) 0.6367(2) 0.1098(11) Uani 1 1 d . . .
C31 C 0.3554(2) 0.55834(19) 0.6724(3) 0.0951(15) Uani 1 1 d . . .
O6 O 0.4055(2) 0.69012(16) 0.6229(3) 0.180(2) Uani 1 1 d . . .
C48 C 0.3689(3) 0.6899(2) 0.5676(5) 0.121(2) Uani 1 1 d . . .
Cl1 Cl 0.89653(6) 0.53270(6) 0.58084(11) 0.1529(6) Uani 1 1 d . . .
O1W O 0.43198(14) 0.64222(11) 0.76023(19) 0.1268(12) Uani 1 1 d . . .

loop_
_atom_site_aniso_label
_atom_site_aniso_U_11
_atom_site_aniso_U_22
_atom_site_aniso_U_33
_atom_site_aniso_U_23
_atom_site_aniso_U_13
_atom_site_aniso_U_12
N4 0.069(2) 0.126(4) 0.071(3) -0.004(3) 0.011(2) 0.004(2)
N3 0.063(2) 0.164(4) 0.086(3) -0.014(3) 0.023(2) -0.006(3)
N7 0.080(3) 0.149(4) 0.079(4) 0.010(3) 0.030(3) 0.016(3)
N6 0.089(3) 0.103(4) 0.111(4) 0.005(3) 0.017(3) 0.011(3)
C9 0.065(3) 0.122(4) 0.081(4) -0.009(3) 0.008(3) 0.018(3)
C12 0.063(3) 0.106(4) 0.071(4) -0.004(3) 0.010(3) 0.011(3)
N2 0.078(3) 0.118(4) 0.087(3) 0.008(3) 0.027(2) 0.018(3)
N1 0.071(3) 0.112(3) 0.105(3) -0.008(3) 0.030(2) 0.003(3)
C30 0.078(4) 0.132(4) 0.081(4) -0.004(3) 0.024(3) 0.009(3)
C1 0.074(3) 0.126(5) 0.068(4) -0.010(3) 0.017(3) 0.016(4)
C16 0.092(4) 0.090(4) 0.077(4) -0.001(3) 0.009(3) 0.025(3)
C2 0.103(5) 0.109(5) 0.109(5) -0.017(4) 0.044(4) 0.007(4)
C3 0.124(5) 0.136(5) 0.130(6) -0.010(5) 0.043(4) -0.008(5)
C4 0.193(9) 0.106(6) 0.216(9) 0.018(5) 0.088(7) 0.012(5)
C5 0.170(8) 0.150(8) 0.203(9) 0.025(6) 0.029(7) 0.045(6)
C6 0.133(5) 0.138(6) 0.174(7) -0.006(6) 0.046(5) 0.008(6)
C7 0.095(4) 0.121(5) 0.098(5) 0.004(4) 0.029(3) 0.035(4)
C28 0.150(6) 0.167(7) 0.115(6) -0.009(5) 0.033(5) 0.013(5)
C32 0.066(4) 0.174(6) 0.080(4) -0.012(4) 0.012(4) 0.019(3)
C33 0.090(4) 0.204(7) 0.106(6) -0.012(5) 0.009(4) 0.016(4)
C34 0.113(6) 0.291(10) 0.093(6) -0.032(6) -0.001(5) 0.033(6)
C35 0.072(4) 0.281(10) 0.126(7) -0.061(7) 0.009(5) -0.009(5)
C36 0.072(4) 0.226(7) 0.112(6) -0.044(5) 0.023(4) -0.012(4)
C37 0.073(4) 0.170(5) 0.080(4) -0.020(4) 0.010(4) 0.002(3)
C29 0.152(6) 0.120(5) 0.124(6) 0.001(5) 0.009(4) 0.050(5)
C38 0.101(4) 0.127(4) 0.085(4) 0.015(3) 0.028(3) 0.019(4)
C39 0.084(4) 0.133(5) 0.061(3) 0.006(3) 0.022(3) 0.006(4)
C40 0.073(3) 0.146(5) 0.097(4) -0.027(4) 0.014(3) -0.006(4)
C41 0.074(3) 0.127(5) 0.112(5) -0.023(4) 0.018(3) -0.007(3)
C42 0.068(3) 0.121(4) 0.072(4) -0.012(3) 0.017(3) -0.014(3)
C43 0.072(3) 0.131(5) 0.097(4) -0.004(4) 0.029(3) -0.003(4)
C44 0.096(4) 0.111(4) 0.107(5) -0.006(3) 0.034(3) -0.009(4)
C10 0.065(3) 0.164(5) 0.079(4) -0.018(4) -0.005(3) 0.025(3)
C17 0.072(4) 0.131(6) 0.101(5) 0.015(4) 0.025(4) 0.021(4)
C18 0.109(5) 0.113(6) 0.116(6) -0.002(5) 0.019(4) 0.022(4)
C19 0.166(7) 0.174(7) 0.156(7) -0.050(6) 0.065(6) 0.025(6)
C20 0.204(10) 0.248(12) 0.213(11) -0.061(9) 0.123(9) -0.012(9)
C21 0.163(7) 0.199(8) 0.164(8) -0.016(6) 0.092(6) 0.009(7)
C22 0.105(5) 0.171(6) 0.115(6) -0.004(5) 0.032(4) 0.035(5)
C23 0.105(4) 0.119(5) 0.134(5) 0.011(4) 0.015(4) 0.030(4)
C24 0.099(4) 0.106(5) 0.109(5) -0.004(4) 0.009(4) 0.026(4)
C25 0.177(6) 0.123(5) 0.119(6) 0.002(5) -0.004(5) 0.048(5)
C45 0.068(3) 0.140(4) 0.089(4) 0.003(3) 0.015(3) 0.005(3)
C26 0.161(6) 0.143(6) 0.120(6) 0.006(5) -0.010(5) 0.027(5)
O1 0.069(2) 0.142(3) 0.102(3) -0.018(2) 0.0115(19) 0.012(2)
O3 0.074(2) 0.128(3) 0.114(3) 0.009(2) 0.020(2) 0.004(2)
O2 0.084(2) 0.130(3) 0.099(3) -0.013(2) 0.024(2) 0.013(2)
C8 0.074(3) 0.154(5) 0.086(4) -0.028(3) 0.004(3) 0.025(3)
C46 0.101(4) 0.109(4) 0.098(4) -0.002(3) 0.034(3) 0.016(3)
C13 0.075(3) 0.126(4) 0.079(4) 0.003(3) 0.008(3) 0.026(3)
C14 0.080(3) 0.132(4) 0.068(3) -0.011(3) 0.005(3) 0.018(3)
O5 0.152(4) 0.117(4) 0.230(6) 0.024(4) 0.066(4) 0.036(3)
C11 0.080(3) 0.133(4) 0.070(4) -0.017(3) 0.003(3) 0.017(3)
C47 0.071(3) 0.131(5) 0.080(4) -0.006(3) 0.015(3) -0.001(3)
C27 0.129(5) 0.111(5) 0.130(6) -0.003(5) 0.057(5) 0.018(4)
Cd2 0.0756(2) 0.1080(3) 0.0923(3) -0.0024(2) 0.0180(2) 0.0127(2)
Cd1 0.0718(2) 0.1342(4) 0.0986(3) -0.0021(3) 0.0259(2) 0.0015(2)
N5 0.079(3) 0.104(3) 0.096(3) -0.007(3) 0.026(2) 0.010(3)
C15 0.086(4) 0.098(4) 0.083(4) -0.006(3) 0.014(3) 0.007(3)
O4 0.086(2) 0.128(3) 0.101(3) 0.015(2) 0.019(2) 0.010(2)
C31 0.077(4) 0.131(5) 0.072(4) -0.001(3) 0.021(3) 0.006(4)
O6 0.197(5) 0.145(4) 0.164(5) 0.037(4) 0.029(4) 0.049(4)
C48 0.120(6) 0.102(6) 0.144(7) 0.014(6) 0.055(5) 0.019(5)
Cl1 0.1055(11) 0.1848(16) 0.1693(18) -0.0067(13) 0.0525(11) -0.0241(11)
O1W 0.136(3) 0.130(3) 0.092(3) -0.010(2) 0.016(2) 0.033(2)

_geom_special_details            
;
 All esds (except the esd in the dihedral angle between two l.s. planes)
 are estimated using the full covariance matrix.  The cell esds are taken
 into account individually in the estimation of esds in distances, angles
 and torsion angles; correlations between esds in cell parameters are only
 used when they are defined by crystal symmetry.  An approximate (isot