####################################################################### 
# 
# This file contains crystal structure data downloaded from the 
# Cambridge Structural Database (CSD) hosted by the Cambridge 
# Crystallographic Data Centre (CCDC).
# 
# Full information about CCDC data access policies and citation 
# guidelines are available at http://www.ccdc.cam.ac.uk/access/V1 
# 
# Audit and citation data items may have been added by the CCDC. 
# Please retain this information to preserve the provenance of 
# this file and to allow appropriate attribution of the data. 
# 
#######################################################################

data_pnma
_audit_block_doi                 10.5517/ccnb504
_database_code_depnum_ccdc_archive 'CCDC 605585'
loop_
_citation_id
_citation_doi
_citation_year
1 10.1002/ejic.200800434 2008
_audit_update_record             
;
2006-04-25 deposited with the CCDC.	2024-07-11 downloaded from the CCDC.
;

_audit_creation_method           SHELXL-97
_chemical_name_systematic        
;
?
;
_chemical_name_common            ?
_chemical_melting_point          ?
_chemical_formula_moiety         ?
_chemical_formula_sum            'C14 H11 N2 O15 Tb'
_chemical_formula_weight         606.17

loop_
_atom_type_symbol
_atom_type_description
_atom_type_scat_dispersion_real
_atom_type_scat_dispersion_imag
_atom_type_scat_source
C C 0.0033 0.0016 'International Tables Vol C Tables 4.2.6.8 and 6.1.1.4'
H H 0.0000 0.0000 'International Tables Vol C Tables 4.2.6.8 and 6.1.1.4'
N N 0.0061 0.0033 'International Tables Vol C Tables 4.2.6.8 and 6.1.1.4'
O O 0.0106 0.0060 'International Tables Vol C Tables 4.2.6.8 and 6.1.1.4'
Tb Tb -0.1723 4.1537 'International Tables Vol C Tables 4.2.6.8 and 6.1.1.4'

_symmetry_cell_setting           ?
_symmetry_space_group_name_H-M   ?

loop_
_symmetry_equiv_pos_as_xyz
'x, y, z'
'-x+1/2, -y, z+1/2'
'-x, y+1/2, -z'
'x+1/2, -y+1/2, -z+1/2'
'-x, -y, -z'
'x-1/2, y, -z-1/2'
'x, -y-1/2, z'
'-x-1/2, y-1/2, z-1/2'

_cell_length_a                   14.239(3)
_cell_length_b                   6.7220(13)
_cell_length_c                   22.880(5)
_cell_angle_alpha                90.00
_cell_angle_beta                 90.00
_cell_angle_gamma                90.00
_cell_volume                     2190.0(7)
_cell_formula_units_Z            4
_cell_measurement_temperature    293(2)
_cell_measurement_reflns_used    ?
_cell_measurement_theta_min      ?
_cell_measurement_theta_max      ?

_exptl_crystal_description       ?
_exptl_crystal_colour            ?
_exptl_crystal_size_max          0.20
_exptl_crystal_size_mid          0.20
_exptl_crystal_size_min          0.10
_exptl_crystal_density_meas      ?
_exptl_crystal_density_diffrn    1.839
_exptl_crystal_density_method    'not measured'
_exptl_crystal_F_000             1176
_exptl_absorpt_coefficient_mu    3.305
_exptl_absorpt_correction_type   ?
_exptl_absorpt_correction_T_min  0.5578
_exptl_absorpt_correction_T_max  0.7334
_exptl_absorpt_process_details   ?

_exptl_special_details           
;
?
;

_diffrn_ambient_temperature      293(2)
_diffrn_radiation_wavelength     0.71073
_diffrn_radiation_type           MoK\a
_diffrn_radiation_source         'fine-focus sealed tube'
_diffrn_radiation_monochromator  graphite
_diffrn_measurement_device_type  ?
_diffrn_measurement_method       ?
_diffrn_detector_area_resol_mean ?
_diffrn_standards_number         ?
_diffrn_standards_interval_count ?
_diffrn_standards_interval_time  ?
_diffrn_standards_decay_%        ?
_diffrn_reflns_number            4729
_diffrn_reflns_av_R_equivalents  0.0634
_diffrn_reflns_av_sigmaI/netI    0.0841
_diffrn_reflns_limit_h_min       -18
_diffrn_reflns_limit_h_max       0
_diffrn_reflns_limit_k_min       -8
_diffrn_reflns_limit_k_max       0
_diffrn_reflns_limit_l_min       -29
_diffrn_reflns_limit_l_max       29
_diffrn_reflns_theta_min         1.68
_diffrn_reflns_theta_max         27.54
_reflns_number_total             2591
_reflns_number_gt                2120
_reflns_threshold_expression     >2sigma(I)

_computing_data_collection       ?
_computing_cell_refinement       ?
_computing_data_reduction        ?
_computing_structure_solution    'SHELXS-97 (Sheldrick, 1990)'
_computing_structure_refinement  'SHELXL-97 (Sheldrick, 1997)'
_computing_molecular_graphics    ?
_computing_publication_material  ?

_refine_special_details          
;
Refinement of F^2^ against ALL reflections. The weighted R-factor wR and
goodness of fit S are based on F^2^, conventional R-factors R are based
on F, with F set to zero for negative F^2^. The threshold expression of
F^2^ > 2sigma(F^2^) is used only for calculating R-factors(gt) etc. and is
not relevant to the choice of reflections for refinement. R-factors based
on F^2^ are statistically about twice as large as those based on F, and R-
factors based on ALL data will be even larger.
;

_refine_ls_structure_factor_coef Fsqd
_refine_ls_matrix_type           full
_refine_ls_weighting_scheme      calc
_refine_ls_weighting_details     
'calc w=1/[\s^2^(Fo^2^)+(0.0696P)^2^+0.0000P] where P=(Fo^2^+2Fc^2^)/3'
_atom_sites_solution_primary     direct
_atom_sites_solution_secondary   difmap
_atom_sites_solution_hydrogens   geom
_refine_ls_hydrogen_treatment    mixed
_refine_ls_extinction_method     SHELXL
_refine_ls_extinction_coef       0.0020(2)
_refine_ls_extinction_expression Fc^*^=kFc[1+0.001xFc^2^\l^3^/sin(2\q)]^-1/4^
_refine_ls_number_reflns         2591
_refine_ls_number_parameters     193
_refine_ls_number_restraints     0
_refine_ls_R_factor_all          0.0977
_refine_ls_R_factor_gt           0.0670
_refine_ls_wR_factor_ref         0.1506
_refine_ls_wR_factor_gt          0.1372
_refine_ls_goodness_of_fit_ref   1.203
_refine_ls_restrained_S_all      1.203
_refine_ls_shift/su_max          3.211
_refine_ls_shift/su_mean         0.020

loop_
_atom_site_label
_atom_site_type_symbol
_atom_site_fract_x
_atom_site_fract_y
_atom_site_fract_z
_atom_site_U_iso_or_equiv
_atom_site_adp_type
_atom_site_occupancy
_atom_site_symmetry_multiplicity
_atom_site_calc_flag
_atom_site_refinement_flags
_atom_site_disorder_assembly
_atom_site_disorder_group
Tb1 Tb 0.04757(3) 0.2500 0.359561(15) 0.02225(9) Uani 1 2 d S . .
N1 N 0.1243(5) 0.2500 0.2587(3) 0.041(2) Uani 1 2 d S . .
N2 N 0.0934(4) 0.2500 0.4687(3) 0.0254(16) Uani 1 2 d S . .
O1 O 0.2112(4) 0.2500 0.3598(2) 0.0409(17) Uani 1 2 d S . .
O2 O 0.3529(4) 0.2500 0.3190(3) 0.070(3) Uani 1 2 d S . .
O3 O 0.4198(3) 0.0870(6) 0.19661(18) 0.0362(11) Uani 1 1 d . . .
O4 O -0.0779(4) 0.2500 0.4233(2) 0.0325(15) Uani 1 2 d S . .
O5 O -0.1452(4) 0.2500 0.5130(2) 0.0386(16) Uani 1 2 d S . .
O6 O -0.0755(3) 0.0845(6) 0.62927(16) 0.0323(10) Uani 1 1 d . . .
O7 O -0.3308(8) 0.2500 0.4990(6) 0.175(6) Uani 1.18(2) 2 d SP . .
O8 O 0.3551(13) -0.2500 0.2579(5) 0.222(7) Uani 1.14(2) 2 d SP . .
O9 O 0.2788(10) -0.2500 0.3718(7) 0.161(7) Uani 1.02(3) 2 d SP . .
O10 O 0.522(3) -0.2500 0.3789(15) 0.47(3) Uani 1.18(6) 2 d SP . .
O11 O 0.4205(10) 0.089(2) 0.465(2) 0.74(4) Uani 1.00(2) 1 d . . .
O12 O 0.143(2) -0.2500 0.2261(15) 0.267(17) Uani 0.78(3) 2 d SP . .
C1 C 0.0780(7) 0.2500 0.2057(4) 0.067(4) Uani 1.04(2) 2 d SP . .
H1A H 0.0127 0.2500 0.2053 0.080 Uiso 1 2 calc SR . .
C2 C 0.1259(7) 0.2500 0.1533(4) 0.073(5) Uani 1 2 d S . .
H2A H 0.0926 0.2500 0.1184 0.088 Uiso 1 2 calc SR . .
C3 C 0.2200(7) 0.2500 0.1523(4) 0.067(4) Uani 1 2 d S . .
H3A H 0.2521 0.2500 0.1169 0.080 Uiso 1 2 calc SR . .
C4 C 0.2698(6) 0.2500 0.2053(4) 0.036(2) Uani 1 2 d S . .
C5 C 0.3768(6) 0.2500 0.2028(3) 0.030(2) Uani 1 2 d S . .
C6 C 0.2192(6) 0.2500 0.2574(4) 0.032(2) Uani 1 2 d S . .
C7 C 0.2653(6) 0.2500 0.3163(4) 0.036(2) Uani 1 2 d S . .
C8 C 0.1805(6) 0.2500 0.4905(4) 0.035(2) Uani 1 2 d S . .
H8A H 0.2308 0.2500 0.4646 0.041 Uiso 1 2 calc SR . .
C9 C 0.1994(7) 0.2500 0.5494(4) 0.043(3) Uani 1 2 d S . .
H9A H 0.2612 0.2500 0.5626 0.052 Uiso 1 2 calc SR . .
C10 C 0.1261(6) 0.2500 0.5888(3) 0.033(2) Uani 1 2 d S . .
H10A H 0.1378 0.2500 0.6288 0.040 Uiso 1 2 calc SR . .
C11 C 0.0335(6) 0.2500 0.5675(3) 0.027(2) Uani 1 2 d S . .
C12 C -0.0455(6) 0.2500 0.6112(3) 0.0272(19) Uani 1 2 d S . .
C13 C 0.0204(6) 0.2500 0.5066(4) 0.027(2) Uani 1 2 d S . .
C14 C -0.0765(6) 0.2500 0.4794(4) 0.028(2) Uani 1 2 d S . .

loop_
_atom_site_aniso_label
_atom_site_aniso_U_11
_atom_site_aniso_U_22
_atom_site_aniso_U_33
_atom_site_aniso_U_23
_atom_site_aniso_U_13
_atom_site_aniso_U_12
Tb1 0.02176(17) 0.02300(17) 0.02200(17) 0.000 0.00088(17) 0.000
N1 0.020(3) 0.066(5) 0.038(4) 0.000 -0.005(3) 0.000
N2 0.022(3) 0.026(3) 0.029(3) 0.000 0.005(3) 0.000
O1 0.015(3) 0.076(4) 0.032(3) 0.000 0.004(2) 0.000
O2 0.016(3) 0.159(8) 0.034(3) 0.000 -0.003(3) 0.000
O3 0.0286(19) 0.040(2) 0.040(2) 0.003(2) 0.0056(18) 0.003(2)
O4 0.024(3) 0.050(3) 0.024(3) 0.000 0.000(2) 0.000
O5 0.028(3) 0.057(4) 0.031(3) 0.000 0.004(3) 0.000
O6 0.041(2) 0.0221(19) 0.034(2) 0.0048(18) 0.0029(17) 0.0005(19)
O7 0.092(8) 0.278(16) 0.154(10) 0.000 0.003(7) 0.000
O8 0.46(2) 0.064(6) 0.140(8) 0.000 0.177(10) 0.000
O9 0.107(10) 0.151(13) 0.226(16) 0.000 0.043(10) 0.000
O10 0.71(7) 0.21(3) 0.50(5) 0.000 -0.12(4) 0.000
O11 0.107(11) 0.207(17) 1.90(12) -0.08(4) 0.11(3) -0.020(11)
O12 0.27(3) 0.099(14) 0.44(4) 0.000 0.12(3) 0.000
C1 0.026(5) 0.138(12) 0.035(5) 0.000 -0.004(4) 0.000
C2 0.023(5) 0.175(14) 0.022(4) 0.000 -0.004(4) 0.000
C3 0.016(4) 0.147(12) 0.038(5) 0.000 -0.003(4) 0.000
C4 0.021(4) 0.056(5) 0.031(4) 0.000 0.000(4) 0.000
C5 0.030(4) 0.046(5) 0.015(3) 0.000 0.001(3) 0.000
C6 0.023(4) 0.040(5) 0.033(4) 0.000 -0.002(4) 0.000
C7 0.036(5) 0.046(5) 0.025(4) 0.000 0.003(4) 0.000
C8 0.032(4) 0.046(5) 0.026(4) 0.000 -0.007(4) 0.000
C9 0.031(5) 0.058(6) 0.041(5) 0.000 -0.005(4) 0.000
C10 0.034(5) 0.043(5) 0.022(4) 0.000 -0.005(4) 0.000
C11 0.035(5) 0.021(3) 0.025(4) 0.000 0.009(3) 0.000
C12 0.026(4) 0.031(4) 0.025(4) 0.000 -0.011(4) 0.000
C13 0.027(4) 0.021(4) 0.032(4) 0.000 -0.005(3) 0.000
C14 0.033(4) 0.027(4) 0.024(4) 0.000 0.002(3) 0.000

_geom_special_details            
;
All esds (except the esd in the dihedral angle between two l.s. planes)
are estimated using the full covariance matrix. The cell esds are taken
into account individually in the estimation of esds in distances, angles
and torsion angles; correlations between esds in cell parameters are only
used when they are defined by crystal symmetry. An approximate (isotropic)
treatment of cell esds is used for estimating esds involving l.s. planes.
;

loop_
_geom_bond_atom_site_label_1
_geom_bond_atom_site_label_2
_geom_bond_distance
_geom_bond_site_symmetry_2
_geom_bond_publ_flag
Tb1 O6 2.298(4) 3_556 ?
Tb1 O6 2.298(4) 5_556 ?
Tb1 O4 2.307(5) . ?
Tb1 O1 2.330(6) . ?
Tb1 O3 2.482(4) 6_556 ?
Tb1 O3 2.482(4) 4_455 ?
Tb1 N1 2.553(7) . ?
Tb1 N2 2.581(6) . ?
Tb1 C5 2.819(8) 6_556 ?
N1 C6 1.352(10) . ?
N1 C1 1.380(12) . ?
N2 C8 1.337(10) . ?
N2 C13 1.353(10) . ?
O1 C7 1.259(10) . ?
O2 C7 1.249(11) . ?
O3 C5 1.263(6) . ?
O3 Tb1 2.482(4) 6_656 ?
O4 C14 1.284(10) . ?
O5 C14 1.244(10) . ?
O6 C12 1.261(5) . ?
O6 Tb1 2.298(4) 5_556 ?
C1 C2 1.379(13) . ?
C2 C3 1.341(13) . ?
C3 C4 1.403(13) . ?
C4 C6 1.394(12) . ?
C4 C5 1.524(12) . ?
C5 O3 1.263(6) 7_565 ?
C5 Tb1 2.819(8) 6_656 ?
C6 C7 1.498(11) . ?
C8 C9 1.375(12) . ?
C9 C10 1.379(12) . ?
C10 C11 1.406(11) . ?
C11 C13 1.408(11) . ?
C11 C12 1.504(11) . ?
C12 O6 1.261(5) 7_565 ?
C13 C14 1.513(12) . ?

loop_
_geom_angle_atom_site_label_1
_geom_angle_atom_site_label_2
_geom_angle_atom_site_label_3
_geom_angle
_geom_angle_site_symmetry_1
_geom_angle_site_symmetry_3
_geom_angle_publ_flag
O6 Tb1 O6 156.3(2) 3_556 5_556 ?
O6 Tb1 O4 93.64(10) 3_556 . ?
O6 Tb1 O4 93.64(10) 5_556 . ?
O6 Tb1 O1 80.03(11) 3_556 . ?
O6 Tb1 O1 80.03(11) 5_556 . ?
O4 Tb1 O1 140.62(19) . . ?
O6 Tb1 O3 128.05(14) 3_556 6_556 ?
O6 Tb1 O3 75.66(14) 5_556 6_556 ?
O4 Tb1 O3 76.11(16) . 6_556 ?
O1 Tb1 O3 137.23(14) . 6_556 ?
O6 Tb1 O3 75.66(14) 3_556 4_455 ?
O6 Tb1 O3 128.05(14) 5_556 4_455 ?
O4 Tb1 O3 76.11(16) . 4_455 ?
O1 Tb1 O3 137.23(14) . 4_455 ?
O3 Tb1 O3 52.39(19) 6_556 4_455 ?
O6 Tb1 N1 91.52(10) 3_556 . ?
O6 Tb1 N1 91.52(10) 5_556 . ?
O4 Tb1 N1 154.6(2) . . ?
O1 Tb1 N1 64.8(2) . . ?
O3 Tb1 N1 81.12(17) 6_556 . ?
O3 Tb1 N1 81.12(17) 4_455 . ?
O6 Tb1 N2 81.29(10) 3_556 . ?
O6 Tb1 N2 81.29(10) 5_556 . ?
O4 Tb1 N2 65.4(2) . . ?
O1 Tb1 N2 75.2(2) . . ?
O3 Tb1 N2 133.33(15) 6_556 . ?
O3 Tb1 N2 133.33(15) 4_455 . ?
N1 Tb1 N2 140.0(2) . . ?
O6 Tb1 C5 101.86(11) 3_556 6_556 ?
O6 Tb1 C5 101.86(11) 5_556 6_556 ?
O4 Tb1 C5 69.6(2) . 6_556 ?
O1 Tb1 C5 149.8(2) . 6_556 ?
O3 Tb1 C5 26.61(10) 6_556 6_556 ?
O3 Tb1 C5 26.61(10) 4_455 6_556 ?
N1 Tb1 C5 84.9(2) . 6_556 ?
N2 Tb1 C5 135.0(2) . 6_556 ?
C6 N1 C1 117.3(8) . . ?
C6 N1 Tb1 116.6(5) . . ?
C1 N1 Tb1 126.1(6) . . ?
C8 N2 C13 118.3(7) . . ?
C8 N2 Tb1 126.6(5) . . ?
C13 N2 Tb1 115.1(5) . . ?
C7 O1 Tb1 127.6(5) . . ?
C5 O3 Tb1 91.7(4) . 6_656 ?
C14 O4 Tb1 128.3(5) . . ?
C12 O6 Tb1 147.2(4) . 5_556 ?
C2 C1 N1 121.8(9) . . ?
C3 C2 C1 120.6(9) . . ?
C2 C3 C4 119.3(9) . . ?
C6 C4 C3 118.6(8) . . ?
C6 C4 C5 123.2(7) . . ?
C3 C4 C5 118.2(7) . . ?
O3 C5 O3 120.3(7) . 7_565 ?
O3 C5 C4 119.3(4) . . ?
O3 C5 C4 119.3(4) 7_565 . ?
O3 C5 Tb1 61.6(4) . 6_656 ?
O3 C5 Tb1 61.6(4) 7_565 6_656 ?
C4 C5 Tb1 151.8(5) . 6_656 ?
N1 C6 C4 122.3(8) . . ?
N1 C6 C7 114.7(7) . . ?
C4 C6 C7 122.9(7) . . ?
O2 C7 O1 124.8(8) . . ?
O2 C7 C6 118.8(7) . . ?
O1 C7 C6 116.3(8) . . ?
N2 C8 C9 123.2(8) . . ?
C8 C9 C10 119.5(8) . . ?
C9 C10 C11 119.0(7) . . ?
C10 C11 C13 117.9(7) . . ?
C10 C11 C12 118.1(7) . . ?
C13 C11 C12 124.0(7) . . ?
O6 C12 O6 123.8(7) . 7_565 ?
O6 C12 C11 118.1(4) . . ?
O6 C12 C11 118.1(4) 7_565 . ?
N2 C13 C11 122.2(7) . . ?
N2 C13 C14 116.0(7) . . ?
C11 C13 C14 121.8(7) . . ?
O5 C14 O4 127.2(8) . . ?
O5 C14 C13 117.6(7) . . ?
O4 C14 C13 115.1(7) . . ?

_diffrn_measured_fraction_theta_max 0.944
_diffrn_reflns_theta_full        25.00
_diffrn_measured_fraction_theta_full 0.962
_refine_diff_density_max         1.643
_refine_diff_density_min         -3.244
_refine_diff_density_rms         0.261
