####################################################################### 
# 
# This file contains crystal structure data downloaded from the 
# Cambridge Structural Database (CSD) hosted by the Cambridge 
# Crystallographic Data Centre (CCDC).
# 
# Full information about CCDC data access policies and citation 
# guidelines are available at http://www.ccdc.cam.ac.uk/access/V1 
# 
# Audit and citation data items may have been added by the CCDC. 
# Please retain this information to preserve the provenance of 
# this file and to allow appropriate attribution of the data. 
# 
#######################################################################

data_2
_audit_block_doi                 10.5517/cc12mznb
_database_code_depnum_ccdc_archive 'CCDC 1002312'
loop_
_citation_id
_citation_doi
_citation_year
1 10.1007/s11243-014-9850-9 2014
_audit_update_record             
;
2014-05-30 deposited with the CCDC.	2024-07-11 downloaded from the CCDC.
;

_audit_creation_method           SHELXL-97
_chemical_name_systematic        
; 
 ? 
;
_chemical_name_common            ?
_chemical_melting_point          ?
_chemical_formula_moiety         ?
_chemical_formula_sum            'C33 H33 Co2 N5 O10'
_chemical_formula_weight         777.50

loop_
_atom_type_symbol
_atom_type_description
_atom_type_scat_dispersion_real
_atom_type_scat_dispersion_imag
_atom_type_scat_source
C C 0.0033 0.0016 'International Tables Vol C Tables 4.2.6.8 and 6.1.1.4'
H H 0.0000 0.0000 'International Tables Vol C Tables 4.2.6.8 and 6.1.1.4'
N N 0.0061 0.0033 'International Tables Vol C Tables 4.2.6.8 and 6.1.1.4'
O O 0.0106 0.0060 'International Tables Vol C Tables 4.2.6.8 and 6.1.1.4'
Co Co 0.3494 0.9721 'International Tables Vol C Tables 4.2.6.8 and 6.1.1.4'

_symmetry_cell_setting           monoclinic
_symmetry_space_group_name_H-M   C2/c

loop_
_symmetry_equiv_pos_as_xyz
'x, y, z'
'-x, y, -z+1/2'
'x+1/2, y+1/2, z'
'-x+1/2, y+1/2, -z+1/2'
'-x, -y, -z'
'x, -y, z-1/2'
'-x+1/2, -y+1/2, -z'
'x+1/2, -y+1/2, z-1/2'

_cell_length_a                   21.892(5)
_cell_length_b                   20.441(5)
_cell_length_c                   8.5308(19)
_cell_angle_alpha                90.00
_cell_angle_beta                 110.646(4)
_cell_angle_gamma                90.00
_cell_volume                     3572.3(14)
_cell_formula_units_Z            4
_cell_measurement_temperature    296(2)
_cell_measurement_reflns_used    ?
_cell_measurement_theta_min      0.820
_cell_measurement_theta_max      0.845

_exptl_crystal_description       ?
_exptl_crystal_colour            ?
_exptl_crystal_size_max          0.2
_exptl_crystal_size_mid          0.18
_exptl_crystal_size_min          0.17
_exptl_crystal_density_meas      ?
_exptl_crystal_density_diffrn    1.446
_exptl_crystal_density_method    'not measured'
_exptl_crystal_F_000             1600
_exptl_absorpt_coefficient_mu    0.990
_exptl_absorpt_correction_type   Multi-scan
_exptl_absorpt_correction_T_min  0.820
_exptl_absorpt_correction_T_max  0.845
_exptl_absorpt_process_details   ?

_exptl_special_details           
; 
 ? 
;

_diffrn_ambient_temperature      296(2)
_diffrn_radiation_wavelength     0.71073
_diffrn_radiation_type           MoK\a
_diffrn_radiation_source         'fine-focus sealed tube'
_diffrn_radiation_monochromator  graphite
_diffrn_measurement_device_type  ?
_diffrn_measurement_method       ?
_diffrn_detector_area_resol_mean ?
_diffrn_standards_number         ?
_diffrn_standards_interval_count ?
_diffrn_standards_interval_time  ?
_diffrn_standards_decay_%        ?
_diffrn_reflns_number            9088
_diffrn_reflns_av_R_equivalents  0.0606
_diffrn_reflns_av_sigmaI/netI    0.0731
_diffrn_reflns_limit_h_min       -26
_diffrn_reflns_limit_h_max       17
_diffrn_reflns_limit_k_min       -24
_diffrn_reflns_limit_k_max       20
_diffrn_reflns_limit_l_min       -10
_diffrn_reflns_limit_l_max       10
_diffrn_reflns_theta_min         1.99
_diffrn_reflns_theta_max         25.20
_reflns_number_total             3231
_reflns_number_gt                2199
_reflns_threshold_expression     >2sigma(I)

_computing_data_collection       ?
_computing_cell_refinement       ?
_computing_data_reduction        ?
_computing_structure_solution    'SHELXS-97 (Sheldrick, 1990)'
_computing_structure_refinement  'SHELXL-97 (Sheldrick, 1997)'
_computing_molecular_graphics    ?
_computing_publication_material  ?

_refine_special_details          
; 
 Refinement of F^2^ against ALL reflections.  The weighted R-factor wR and 
 goodness of fit S are based on F^2^, conventional R-factors R are based 
 on F, with F set to zero for negative F^2^. The threshold expression of 
 F^2^ > 2sigma(F^2^) is used only for calculating R-factors(gt) etc. and is 
 not relevant to the choice of reflections for refinement.  R-factors based 
 on F^2^ are statistically about twice as large as those based on F, and R- 
 factors based on ALL data will be even larger. 
;

_refine_ls_structure_factor_coef Fsqd
_refine_ls_matrix_type           full
_refine_ls_weighting_scheme      calc
_refine_ls_weighting_details     
'calc w=1/[\s^2^(Fo^2^)+(0.1521P)^2^+44.3396P] where P=(Fo^2^+2Fc^2^)/3'
_atom_sites_solution_primary     direct
_atom_sites_solution_secondary   difmap
_atom_sites_solution_hydrogens   geom
_refine_ls_hydrogen_treatment    mixed
_refine_ls_extinction_method     none
_refine_ls_extinction_coef       ?
_refine_ls_number_reflns         3194
_refine_ls_number_parameters     227
_refine_ls_number_restraints     0
_refine_ls_R_factor_all          0.1097
_refine_ls_R_factor_gt           0.0455
_refine_ls_wR_factor_ref         0.0768
_refine_ls_wR_factor_gt          0.0716
_refine_ls_goodness_of_fit_ref   1.001
_refine_ls_restrained_S_all      1.001
_refine_ls_shift/su_max          0.000
_refine_ls_shift/su_mean         0.000

loop_
_atom_site_label
_atom_site_type_symbol
_atom_site_fract_x
_atom_site_fract_y
_atom_site_fract_z
_atom_site_U_iso_or_equiv
_atom_site_adp_type
_atom_site_occupancy
_atom_site_symmetry_multiplicity
_atom_site_calc_flag
_atom_site_refinement_flags
_atom_site_disorder_assembly
_atom_site_disorder_group
Co1 Co 0.74192(5) 0.18224(5) 0.49605(12) 0.0240(4) Uani 1 1 d . . .
N1 N 0.7437(3) 0.0837(3) 0.4359(7) 0.0246(13) Uani 1 1 d . . .
O1 O 0.8020(3) 0.2113(3) 0.3635(7) 0.0434(15) Uani 1 1 d . . .
C1 C 0.8271(4) 0.2611(4) 0.3218(9) 0.0284(17) Uani 1 1 d . . .
O2 O 0.8171(3) 0.3191(3) 0.3617(7) 0.0341(13) Uani 1 1 d . . .
N2 N 0.6429(3) -0.0394(3) 0.1361(8) 0.0295(15) Uani 1 1 d . . .
H2B H 0.6424 -0.0815 0.1330 0.035 Uiso 1 1 calc R . .
C2 C 0.8728(4) 0.2499(4) 0.2268(9) 0.0277(17) Uani 1 1 d . . .
H2A H 0.9163 0.2439 0.3113 0.033 Uiso 1 1 calc R . .
O3 O 0.8345(3) 0.2923(3) -0.2915(7) 0.0353(13) Uani 1 1 d . . .
C3 C 0.8568(4) 0.1867(4) 0.1232(10) 0.0359(19) Uani 1 1 d . . .
H3A H 0.8569 0.1502 0.1960 0.043 Uiso 1 1 calc R . .
H3B H 0.8134 0.1900 0.0392 0.043 Uiso 1 1 calc R . .
N3 N 0.5000 -0.1509(4) -0.2500 0.032(2) Uani 1 2 d S . .
O4 O 0.8221(3) 0.1840(3) -0.2959(7) 0.0386(14) Uani 1 1 d . . .
C4 C 0.9056(4) 0.1736(4) 0.0378(10) 0.0328(19) Uani 1 1 d . . .
H4A H 0.8924 0.1348 -0.0312 0.039 Uiso 1 1 calc R . .
H4B H 0.9480 0.1650 0.1224 0.039 Uiso 1 1 calc R . .
C5 C 0.9116(4) 0.2313(4) -0.0723(9) 0.0300(18) Uani 1 1 d . . .
H5A H 0.9489 0.2225 -0.1070 0.036 Uiso 1 1 calc R . .
O5 O 0.5909(3) 0.0515(3) 0.0013(7) 0.0469(17) Uani 1 1 d . . .
C6 C 0.8505(4) 0.2363(4) -0.2317(9) 0.0288(18) Uani 1 1 d . . .
C7 C 0.9257(4) 0.2946(4) 0.0301(9) 0.0286(17) Uani 1 1 d . . .
H7A H 0.9694 0.2923 0.1129 0.034 Uiso 1 1 calc R . .
H7B H 0.9245 0.3310 -0.0439 0.034 Uiso 1 1 calc R . .
C8 C 0.8779(4) 0.3077(4) 0.1188(10) 0.0300(18) Uani 1 1 d . . .
H8A H 0.8352 0.3168 0.0361 0.036 Uiso 1 1 calc R . .
H8B H 0.8918 0.3462 0.1890 0.036 Uiso 1 1 calc R . .
C9 C 0.6953(4) 0.0572(4) 0.3052(9) 0.0270(16) Uani 1 1 d . . .
H9A H 0.6626 0.0843 0.2366 0.032 Uiso 1 1 calc R . .
C10 C 0.7917(4) 0.0452(4) 0.5320(11) 0.039(2) Uani 1 1 d . . .
H10A H 0.8254 0.0637 0.6204 0.047 Uiso 1 1 calc R . .
C11 C 0.7926(4) -0.0213(4) 0.5038(11) 0.044(2) Uani 1 1 d . . .
H11A H 0.8264 -0.0472 0.5727 0.053 Uiso 1 1 calc R . .
C12 C 0.7428(4) -0.0490(4) 0.3718(10) 0.039(2) Uani 1 1 d . . .
H12A H 0.7425 -0.0936 0.3511 0.047 Uiso 1 1 calc R . .
C13 C 0.6931(3) -0.0093(4) 0.2709(9) 0.0256(16) Uani 1 1 d . . .
C14 C 0.5951(4) -0.0072(4) 0.0100(9) 0.0285(17) Uani 1 1 d . . .
C15 C 0.5468(3) -0.0489(3) -0.1234(9) 0.0244(16) Uani 1 1 d . . .
C16 C 0.5444(4) -0.1171(4) -0.1286(10) 0.0325(18) Uani 1 1 d . . .
H16A H 0.5754 -0.1402 -0.0433 0.039 Uiso 1 1 calc R . .
C17 C 0.5000 -0.0149(5) -0.2500 0.030(2) Uani 1 2 d S . .
H17A H 0.5000 0.0306 -0.2500 0.036 Uiso 1 2 calc SR . .

loop_
_atom_site_aniso_label
_atom_site_aniso_U_11
_atom_site_aniso_U_22
_atom_site_aniso_U_33
_atom_site_aniso_U_23
_atom_site_aniso_U_13
_atom_site_aniso_U_12
Co1 0.0284(6) 0.0168(6) 0.0224(6) -0.0018(4) 0.0034(4) -0.0022(4)
N1 0.026(3) 0.021(3) 0.024(3) -0.004(3) 0.005(2) -0.001(3)
O1 0.055(4) 0.036(4) 0.049(4) -0.005(3) 0.031(3) -0.019(3)
C1 0.030(4) 0.028(4) 0.023(4) -0.001(3) 0.004(3) -0.005(3)
O2 0.043(3) 0.030(3) 0.033(3) -0.002(2) 0.018(3) 0.000(3)
N2 0.038(4) 0.018(3) 0.028(3) -0.005(3) 0.006(3) -0.002(3)
C2 0.031(4) 0.024(4) 0.028(4) -0.002(3) 0.010(3) -0.002(3)
O3 0.039(3) 0.027(3) 0.028(3) 0.002(2) -0.003(2) 0.001(3)
C3 0.054(5) 0.025(4) 0.031(4) -0.002(3) 0.017(4) -0.003(4)
N3 0.033(5) 0.023(5) 0.032(5) 0.000 0.002(4) 0.000
O4 0.041(3) 0.029(3) 0.034(3) -0.004(3) -0.001(2) -0.006(3)
C4 0.042(5) 0.023(4) 0.025(4) 0.000(3) 0.003(3) 0.011(3)
C5 0.027(4) 0.033(5) 0.026(4) 0.003(3) 0.004(3) 0.003(3)
O5 0.061(4) 0.015(3) 0.044(4) -0.001(3) -0.007(3) -0.002(3)
C6 0.034(4) 0.028(5) 0.024(4) -0.002(3) 0.010(3) -0.001(3)
C7 0.025(4) 0.034(5) 0.024(4) -0.002(3) 0.005(3) -0.007(3)
C8 0.042(5) 0.020(4) 0.029(4) -0.005(3) 0.014(3) -0.005(3)
C9 0.032(4) 0.020(4) 0.030(4) -0.003(3) 0.012(3) 0.001(3)
C10 0.040(5) 0.026(4) 0.040(5) -0.006(4) -0.001(4) 0.000(4)
C11 0.043(5) 0.026(5) 0.045(5) -0.003(4) -0.006(4) 0.007(4)
C12 0.047(5) 0.025(4) 0.034(4) -0.005(4) -0.001(4) 0.003(4)
C13 0.024(4) 0.023(4) 0.027(4) 0.001(3) 0.006(3) -0.005(3)
C14 0.029(4) 0.025(4) 0.029(4) -0.001(3) 0.006(3) -0.002(3)
C15 0.030(4) 0.016(4) 0.024(4) -0.004(3) 0.007(3) -0.004(3)
C16 0.029(4) 0.029(4) 0.032(4) 0.001(3) 0.003(3) 0.002(3)
C17 0.033(6) 0.023(6) 0.030(6) 0.000 0.009(5) 0.000

_geom_special_details            
; 
 All esds (except the esd in the dihedral angle between two l.s. planes) 
 are estimated using the full covariance matrix.  The cell esds are taken 
 into account individually in the estimation of esds in distances, angles 
 and torsion angles; correlations between esds in cell parameters are only 
 used when they are defined by crystal symmetry.  An approximate (isotropic) 
 treatment of cell esds is used for estimating esds involving l.s. planes. 
;

loop_
_geom_bond_atom_site_label_1
_geom_bond_atom_site_label_2
_geom_bond_distance
_geom_bond_site_symmetry_2
_geom_bond_publ_flag
Co1 O4 2.009(5) 1_556 ?
Co1 O3 2.014(5) 7_655 ?
Co1 O2 2.062(5) 7_656 ?
Co1 N1 2.082(6) . ?
Co1 O1 2.099(6) . ?
Co1 Co1 2.790(2) 7_656 ?
N1 C10 1.337(10) . ?
N1 C9 1.351(9) . ?
O1 C1 1.267(9) . ?
C1 O2 1.273(9) . ?
C1 C2 1.510(11) . ?
O2 Co1 2.062(5) 7_656 ?
N2 C14 1.375(10) . ?
N2 C13 1.420(9) . ?
C2 C8 1.527(10) . ?
C2 C3 1.535(10) . ?
O3 C6 1.251(9) . ?
O3 Co1 2.014(5) 7_655 ?
C3 C4 1.513(11) . ?
N3 C16 1.336(9) . ?
N3 C16 1.336(9) 2_654 ?
O4 C6 1.261(9) . ?
O4 Co1 2.009(5) 1_554 ?
C4 C5 1.541(11) . ?
C5 C7 1.532(11) . ?
C5 C6 1.538(10) . ?
O5 C14 1.205(9) . ?
C7 C8 1.516(10) . ?
C9 C13 1.389(10) . ?
C10 C11 1.383(12) . ?
C11 C12 1.383(11) . ?
C12 C13 1.386(11) . ?
C14 C15 1.515(10) . ?
C15 C17 1.385(9) . ?
C15 C16 1.395(11) . ?
C17 C15 1.385(9) 2_654 ?

loop_
_geom_angle_atom_site_label_1
_geom_angle_atom_site_label_2
_geom_angle_atom_site_label_3
_geom_angle
_geom_angle_site_symmetry_1
_geom_angle_site_symmetry_3
_geom_angle_publ_flag
O4 Co1 O3 163.9(2) 1_556 7_655 ?
O4 Co1 O2 90.8(2) 1_556 7_656 ?
O3 Co1 O2 90.7(2) 7_655 7_656 ?
O4 Co1 N1 98.6(2) 1_556 . ?
O3 Co1 N1 96.8(2) 7_655 . ?
O2 Co1 N1 101.7(2) 7_656 . ?
O4 Co1 O1 87.3(3) 1_556 . ?
O3 Co1 O1 86.9(3) 7_655 . ?
O2 Co1 O1 164.2(2) 7_656 . ?
N1 Co1 O1 94.1(2) . . ?
O4 Co1 Co1 84.08(16) 1_556 7_656 ?
O3 Co1 Co1 79.86(16) 7_655 7_656 ?
O2 Co1 Co1 95.71(16) 7_656 7_656 ?
N1 Co1 Co1 162.35(18) . 7_656 ?
O1 Co1 Co1 68.53(18) . 7_656 ?
C10 N1 C9 119.2(7) . . ?
C10 N1 Co1 119.8(5) . . ?
C9 N1 Co1 120.9(5) . . ?
C1 O1 Co1 142.7(6) . . ?
O1 C1 O2 122.8(7) . . ?
O1 C1 C2 117.7(7) . . ?
O2 C1 C2 119.5(7) . . ?
C1 O2 Co1 110.3(5) . 7_656 ?
C14 N2 C13 125.7(6) . . ?
C1 C2 C8 114.2(6) . . ?
C1 C2 C3 112.2(6) . . ?
C8 C2 C3 110.8(6) . . ?
C6 O3 Co1 128.1(5) . 7_655 ?
C4 C3 C2 111.7(7) . . ?
C16 N3 C16 117.7(10) . 2_654 ?
C6 O4 Co1 122.8(5) . 1_554 ?
C3 C4 C5 112.6(6) . . ?
C7 C5 C6 112.6(6) . . ?
C7 C5 C4 110.0(6) . . ?
C6 C5 C4 110.9(6) . . ?
O3 C6 O4 125.1(7) . . ?
O3 C6 C5 116.9(7) . . ?
O4 C6 C5 117.9(7) . . ?
C8 C7 C5 113.5(6) . . ?
C7 C8 C2 112.0(6) . . ?
N1 C9 C13 121.7(7) . . ?
N1 C10 C11 122.0(7) . . ?
C12 C11 C10 119.2(8) . . ?
C11 C12 C13 119.2(8) . . ?
C12 C13 C9 118.7(7) . . ?
C12 C13 N2 117.6(7) . . ?
C9 C13 N2 123.7(7) . . ?
O5 C14 N2 123.1(7) . . ?
O5 C14 C15 119.8(7) . . ?
N2 C14 C15 117.1(7) . . ?
C17 C15 C16 117.9(7) . . ?
C17 C15 C14 115.6(7) . . ?
C16 C15 C14 126.4(7) . . ?
N3 C16 C15 123.3(7) . . ?
C15 C17 C15 119.7(10) . 2_654 ?

_diffrn_measured_fraction_theta_max 0.989
_diffrn_reflns_theta_full        25.20
_diffrn_measured_fraction_theta_full 0.989
_refine_diff_density_max         1.697
_refine_diff_density_min         -0.507
_refine_diff_density_rms         0.165
# SQUEEZE RESULTS (APPEND TO CIF)
# Note: Data are Listed for all Voids in the P1 Unit Cell
# i.e. Centre of Gravity, Solvent Accessible Volume,
# Recovered number of Electrons in the Void and
# Details about the Squeezed Material
loop_
_platon_squeeze_void_nr
_platon_squeeze_void_average_x
_platon_squeeze_void_average_y
_platon_squeeze_void_average_z
_platon_squeeze_void_volume
_platon_squeeze_void_count_electrons
_platon_squeeze_void_content
1 0.000 0.000 -0.024 300 57 ' '
2 0.500 0.500 0.059 300 57 ' '
_platon_squeeze_details          
;
;
