####################################################################### 
# 
# This file contains crystal structure data downloaded from the 
# Cambridge Structural Database (CSD) hosted by the Cambridge 
# Crystallographic Data Centre (CCDC).
# 
# Full information about CCDC data access policies and citation 
# guidelines are available at http://www.ccdc.cam.ac.uk/access/V1 
# 
# Audit and citation data items may have been added by the CCDC. 
# Please retain this information to preserve the provenance of 
# this file and to allow appropriate attribution of the data. 
# 
#######################################################################

data_1
_audit_block_doi                 10.5517/cczxdmw
_database_code_depnum_ccdc_archive 'CCDC 921029'
loop_
_citation_id
_citation_doi
_citation_year
1 10.1007/s10904-013-9918-6 2013
_audit_update_record             
;
2013-01-21 deposited with the CCDC.	2024-07-11 downloaded from the CCDC.
;
#TrackingRef '1.cif'


_audit_creation_method           SHELXL-97
_chemical_name_systematic        
;
?
;
_chemical_name_common            ?
_chemical_melting_point          ?
_chemical_formula_moiety         ?
_chemical_formula_sum            'C18 H18 Ag Cl N4 '
_chemical_formula_weight         433.68

loop_
_atom_type_symbol
_atom_type_description
_atom_type_scat_dispersion_real
_atom_type_scat_dispersion_imag
_atom_type_scat_source
C C 0.0033 0.0016 'International Tables Vol C Tables 4.2.6.8 and 6.1.1.4'
Ag Ag -0.8971 1.1015 'International Tables Vol C Tables 4.2.6.8 and 6.1.1.4'
N N 0.0061 0.0033 'International Tables Vol C Tables 4.2.6.8 and 6.1.1.4'
O O 0.0106 0.0060 'International Tables Vol C Tables 4.2.6.8 and 6.1.1.4'
H H 0.0000 0.0000 'International Tables Vol C Tables 4.2.6.8 and 6.1.1.4'
Cl Cl 0.1484 0.1585 'International Tables Vol C Tables 4.2.6.8 and 6.1.1.4'

_symmetry_cell_setting           'monoclinic '
_symmetry_space_group_name_H-M   'C 2/c '
_symmetry_space_group_name_Hall  '-C 2yc '

loop_
_symmetry_equiv_pos_as_xyz
'x, y, z'
'-x, y, -z+1/2'
'x+1/2, y+1/2, z'
'-x+1/2, y+1/2, -z+1/2'
'-x, -y, -z'
'x, -y, z-1/2'
'-x+1/2, -y+1/2, -z'
'x+1/2, -y+1/2, z-1/2'

_cell_length_a                   25.437(12)
_cell_length_b                   11.469(5)
_cell_length_c                   7.876(4)
_cell_angle_alpha                90.00
_cell_angle_beta                 91.841(7)
_cell_angle_gamma                90.00
_cell_volume                     2296.5(19)
_cell_formula_units_Z            4
_cell_measurement_temperature    293(2)
_cell_measurement_reflns_used    ?
_cell_measurement_theta_min      ?
_cell_measurement_theta_max      ?

_exptl_crystal_description       block
_exptl_crystal_colour            colourless
_exptl_crystal_size_max          0.15
_exptl_crystal_size_mid          0.12
_exptl_crystal_size_min          0.11
_exptl_crystal_density_meas      ?
_exptl_crystal_density_diffrn    1.254
_exptl_crystal_density_method    'not measured'
_exptl_crystal_F_000             872
_exptl_absorpt_coefficient_mu    0.999
_exptl_absorpt_correction_type   multi-scan
_exptl_absorpt_correction_T_min  0.873
_exptl_absorpt_correction_T_max  0.956
_exptl_absorpt_process_details   '(<i>SADABS</i>; Sheldrick, 1996)'

_exptl_special_details           
;
?
;

_diffrn_ambient_temperature      293(2)
_diffrn_radiation_wavelength     0.71073
_diffrn_radiation_type           MoK\a
_diffrn_radiation_source         'fine--focus sealed tube'
_diffrn_radiation_monochromator  graphite
_diffrn_measurement_device_type  'Bruker SMART CCD area-detector'
_diffrn_measurement_method       '\f and \w scans'
_diffrn_detector_area_resol_mean ?
_diffrn_standards_number         0
_diffrn_standards_interval_count ?
_diffrn_standards_interval_time  ?
_diffrn_standards_decay_%        ?
_diffrn_reflns_number            5738
_diffrn_reflns_av_R_equivalents  0.0788
_diffrn_reflns_av_sigmaI/netI    0.0998
_diffrn_reflns_limit_h_min       -30
_diffrn_reflns_limit_h_max       29
_diffrn_reflns_limit_k_min       -13
_diffrn_reflns_limit_k_max       12
_diffrn_reflns_limit_l_min       -9
_diffrn_reflns_limit_l_max       8
_diffrn_reflns_theta_min         1.60
_diffrn_reflns_theta_max         25.02
_reflns_number_total             2025
_reflns_number_gt                1123
_reflns_threshold_expression     >2sigma(I)

_computing_data_collection       'SMART (Bruker, 1998)'
_computing_cell_refinement       'SAINT (Bruker, 1999)'
_computing_data_reduction        SAINT
_computing_structure_solution    'SHELXS97 (Sheldrick, 2008)'
_computing_structure_refinement  'SHELXL97 (Sheldrick, 2008)'
_computing_molecular_graphics    'SHELXTL (Bruker, 1999)'
_computing_publication_material  SHELXTL

_refine_special_details          
;
Refinement of F^2^ against ALL reflections. The weighted R-factor wR and
goodness of fit S are based on F^2^, conventional R-factors R are based
on F, with F set to zero for negative F^2^. The threshold expression of
F^2^ > 2sigma(F^2^) is used only for calculating R-factors(gt) etc. and is
not relevant to the choice of reflections for refinement. R-factors based
on F^2^ are statistically about twice as large as those based on F, and R-
factors based on ALL data will be even larger.
;

_refine_ls_structure_factor_coef Fsqd
_refine_ls_matrix_type           full
_refine_ls_weighting_scheme      calc
_refine_ls_weighting_details     
'calc w=1/[\s^2^(Fo^2^)+(0.1089P)^2^+0.0000P] where P=(Fo^2^+2Fc^2^)/3'
_atom_sites_solution_primary     direct
_atom_sites_solution_secondary   difmap
_atom_sites_solution_hydrogens   geom
_refine_ls_hydrogen_treatment    constr
_refine_ls_extinction_method     none
_refine_ls_extinction_coef       ?
_refine_ls_number_reflns         2025
_refine_ls_number_parameters     114
_refine_ls_number_restraints     0
_refine_ls_R_factor_all          0.1030
_refine_ls_R_factor_gt           0.0576
_refine_ls_wR_factor_ref         0.1843
_refine_ls_wR_factor_gt          0.1607
_refine_ls_goodness_of_fit_ref   0.875
_refine_ls_restrained_S_all      0.875
_refine_ls_shift/su_max          0.000
_refine_ls_shift/su_mean         0.000

loop_
_atom_site_label
_atom_site_type_symbol
_atom_site_fract_x
_atom_site_fract_y
_atom_site_fract_z
_atom_site_U_iso_or_equiv
_atom_site_adp_type
_atom_site_occupancy
_atom_site_symmetry_multiplicity
_atom_site_calc_flag
_atom_site_refinement_flags
_atom_site_disorder_assembly
_atom_site_disorder_group
Ag1 Ag 0.0000 0.10137(8) 0.2500 0.0628(4) Uani 1 2 d S . .
N1 N 0.0668(2) 0.0827(5) 0.1025(7) 0.0501(15) Uani 1 1 d . . .
N2 N 0.1419(2) 0.1223(5) -0.0205(8) 0.0518(16) Uani 1 1 d . . .
C2 C 0.0913(3) -0.0226(7) 0.0624(8) 0.0478(17) Uani 1 1 d . . .
C6 C 0.1719(3) -0.0853(7) -0.0685(10) 0.059(2) Uani 1 1 d . . .
H6 H 0.2032 -0.0677 -0.1205 0.071 Uiso 1 1 calc R . .
C7 C 0.1386(2) 0.0015(7) -0.0135(8) 0.0463(17) Uani 1 1 d . . .
C3 C 0.0756(3) -0.1363(7) 0.0879(9) 0.055(2) Uani 1 1 d . . .
H3 H 0.0435 -0.1533 0.1360 0.067 Uiso 1 1 calc R . .
C1 C 0.0985(3) 0.1643(7) 0.0488(9) 0.0517(18) Uani 1 1 d . . .
H1 H 0.0915 0.2435 0.0582 0.062 Uiso 1 1 calc R . .
C8 C 0.1846(3) 0.1927(7) -0.0948(10) 0.063(2) Uani 1 1 d . . .
H8A H 0.1704 0.2663 -0.1358 0.075 Uiso 1 1 calc R . .
H8B H 0.1988 0.1513 -0.1904 0.075 Uiso 1 1 calc R . .
C4 C 0.1094(4) -0.2240(8) 0.0390(10) 0.068(2) Uani 1 1 d . . .
H4 H 0.1008 -0.3013 0.0606 0.082 Uiso 1 1 calc R . .
C5 C 0.1565(4) -0.1984(8) -0.0430(11) 0.074(3) Uani 1 1 d . . .
H5 H 0.1775 -0.2591 -0.0802 0.089 Uiso 1 1 calc R . .
C9 C 0.2283(3) 0.2153(7) 0.0382(8) 0.0498(18) Uani 1 1 d . . .
H9A H 0.2142 0.2579 0.1330 0.060 Uiso 1 1 calc R . .
H9B H 0.2420 0.1417 0.0807 0.060 Uiso 1 1 calc R . .
Cl1 Cl 0.3082(4) 0.9900(10) 0.2682(14) 0.216(5) Uani 0.50 1 d P . .

loop_
_atom_site_aniso_label
_atom_site_aniso_U_11
_atom_site_aniso_U_22
_atom_site_aniso_U_33
_atom_site_aniso_U_23
_atom_site_aniso_U_13
_atom_site_aniso_U_12
Ag1 0.0426(5) 0.0778(7) 0.0687(7) 0.000 0.0137(4) 0.000
N1 0.038(3) 0.069(4) 0.044(3) 0.001(3) 0.005(3) -0.003(3)
N2 0.039(3) 0.063(5) 0.054(4) 0.001(3) 0.005(3) -0.012(3)
C2 0.043(4) 0.062(5) 0.039(4) 0.002(4) 0.000(3) 0.002(4)
C6 0.044(4) 0.077(6) 0.057(5) -0.006(4) 0.013(4) -0.001(4)
C7 0.034(4) 0.060(5) 0.045(4) -0.006(3) 0.005(3) -0.004(3)
C3 0.051(4) 0.067(5) 0.048(5) 0.002(4) -0.004(4) -0.015(4)
C1 0.046(4) 0.059(5) 0.051(5) 0.002(4) 0.008(4) -0.001(4)
C8 0.047(4) 0.063(5) 0.078(6) -0.001(4) 0.016(4) -0.011(4)
C4 0.090(7) 0.060(5) 0.054(5) -0.001(4) -0.017(5) -0.002(5)
C5 0.093(7) 0.064(6) 0.067(6) -0.015(5) 0.014(5) 0.019(5)
C9 0.046(4) 0.066(5) 0.038(4) 0.007(3) 0.006(3) -0.017(3)
Cl1 0.243(11) 0.172(9) 0.235(11) 0.045(8) 0.057(9) 0.009(8)

_geom_special_details            
;
All esds (except the esd in the dihedral angle between two l.s. planes)
are estimated using the full covariance matrix. The cell esds are taken
into account individually in the estimation of esds in distances, angles
and torsion angles; correlations between esds in cell parameters are only
used when they are defined by crystal symmetry. An approximate (isotropic)
treatment of cell esds is used for estimating esds involving l.s. planes.
;

loop_
_geom_bond_atom_site_label_1
_geom_bond_atom_site_label_2
_geom_bond_distance
_geom_bond_site_symmetry_2
_geom_bond_publ_flag
Ag1 N1 2.099(5) . ?
Ag1 N1 2.099(5) 2 ?
N1 C1 1.315(9) . ?
N1 C2 1.400(9) . ?
N2 C1 1.337(8) . ?
N2 C7 1.389(9) . ?
N2 C8 1.488(8) . ?
C2 C3 1.380(10) . ?
C2 C7 1.388(9) . ?
C6 C5 1.371(11) . ?
C6 C7 1.385(10) . ?
C6 H6 0.9300 . ?
C3 C4 1.387(11) . ?
C3 H3 0.9300 . ?
C1 H1 0.9300 . ?
C8 C9 1.524(10) . ?
C8 H8A 0.9700 . ?
C8 H8B 0.9700 . ?
C4 C5 1.412(12) . ?
C4 H4 0.9300 . ?
C5 H5 0.9300 . ?
C9 C9 1.504(12) 7 ?
C9 H9A 0.9700 . ?
C9 H9B 0.9700 . ?

loop_
_geom_angle_atom_site_label_1
_geom_angle_atom_site_label_2
_geom_angle_atom_site_label_3
_geom_angle
_geom_angle_site_symmetry_1
_geom_angle_site_symmetry_3
_geom_angle_publ_flag
N1 Ag1 N1 168.3(3) . 2 ?
C1 N1 C2 105.0(6) . . ?
C1 N1 Ag1 128.4(5) . . ?
C2 N1 Ag1 126.0(5) . . ?
C1 N2 C7 106.9(5) . . ?
C1 N2 C8 126.0(6) . . ?
C7 N2 C8 127.1(6) . . ?
C3 C2 C7 120.7(7) . . ?
C3 C2 N1 130.4(6) . . ?
C7 C2 N1 108.9(6) . . ?
C5 C6 C7 117.0(7) . . ?
C5 C6 H6 121.5 . . ?
C7 C6 H6 121.5 . . ?
C6 C7 C2 122.6(7) . . ?
C6 C7 N2 131.7(6) . . ?
C2 C7 N2 105.7(6) . . ?
C4 C3 C2 117.4(7) . . ?
C4 C3 H3 121.3 . . ?
C2 C3 H3 121.3 . . ?
N1 C1 N2 113.5(7) . . ?
N1 C1 H1 123.2 . . ?
N2 C1 H1 123.2 . . ?
N2 C8 C9 110.3(6) . . ?
N2 C8 H8A 109.6 . . ?
C9 C8 H8A 109.6 . . ?
N2 C8 H8B 109.6 . . ?
C9 C8 H8B 109.6 . . ?
H8A C8 H8B 108.1 . . ?
C3 C4 C5 121.3(8) . . ?
C3 C4 H4 119.3 . . ?
C5 C4 H4 119.3 . . ?
C6 C5 C4 120.9(7) . . ?
C6 C5 H5 119.5 . . ?
C4 C5 H5 119.5 . . ?
C9 C9 C8 110.1(7) 7 . ?
C9 C9 H9A 109.6 7 . ?
C8 C9 H9A 109.6 . . ?
C9 C9 H9B 109.6 7 . ?
C8 C9 H9B 109.6 . . ?
H9A C9 H9B 108.1 . . ?

loop_
_geom_torsion_atom_site_label_1
_geom_torsion_atom_site_label_2
_geom_torsion_atom_site_label_3
_geom_torsion_atom_site_label_4
_geom_torsion
_geom_torsion_site_symmetry_1
_geom_torsion_site_symmetry_2
_geom_torsion_site_symmetry_3
_geom_torsion_site_symmetry_4
_geom_torsion_publ_flag
N1 Ag1 N1 C1 -174.1(6) 2 . . . ?
N1 Ag1 N1 C2 -4.6(5) 2 . . . ?
C1 N1 C2 C3 -179.4(7) . . . . ?
Ag1 N1 C2 C3 9.1(11) . . . . ?
C1 N1 C2 C7 1.0(8) . . . . ?
Ag1 N1 C2 C7 -170.5(4) . . . . ?
C5 C6 C7 C2 -0.9(12) . . . . ?
C5 C6 C7 N2 -179.5(7) . . . . ?
C3 C2 C7 C6 0.7(11) . . . . ?
N1 C2 C7 C6 -179.7(7) . . . . ?
C3 C2 C7 N2 179.6(6) . . . . ?
N1 C2 C7 N2 -0.7(8) . . . . ?
C1 N2 C7 C6 179.0(8) . . . . ?
C8 N2 C7 C6 0.5(13) . . . . ?
C1 N2 C7 C2 0.2(7) . . . . ?
C8 N2 C7 C2 -178.3(7) . . . . ?
C7 C2 C3 C4 1.6(10) . . . . ?
N1 C2 C3 C4 -178.0(7) . . . . ?
C2 N1 C1 N2 -0.9(8) . . . . ?
Ag1 N1 C1 N2 170.3(5) . . . . ?
C7 N2 C1 N1 0.5(8) . . . . ?
C8 N2 C1 N1 179.0(6) . . . . ?
C1 N2 C8 C9 93.5(9) . . . . ?
C7 N2 C8 C9 -88.3(8) . . . . ?
C2 C3 C4 C5 -3.7(12) . . . . ?
C7 C6 C5 C4 -1.2(12) . . . . ?
C3 C4 C5 C6 3.6(13) . . . . ?
N2 C8 C9 C9 179.0(7) . . . 7 ?

_diffrn_measured_fraction_theta_max 0.996
_diffrn_reflns_theta_full        25.02
_diffrn_measured_fraction_theta_full 0.996
_refine_diff_density_max         0.702
_refine_diff_density_min         -0.420
_refine_diff_density_rms         0.133
# SQUEEZE RESULTS (APPEND TO CIF four water)
# Note: Data are Listed for all Voids in the P1 Unit Cell
# i.e. Centre of Gravity, Solvent Accessible Volume,
# Recovered number of Electrons in the Void and
# Details about the Squeezed Material
loop_
_platon_squeeze_void_nr
_platon_squeeze_void_average_x
_platon_squeeze_void_average_y
_platon_squeeze_void_average_z
_platon_squeeze_void_volume
_platon_squeeze_void_count_electrons
_platon_squeeze_void_content
1 0.500 0.000 -0.027 260 107 ' '
2 0.000 0.500 -0.025 260 107 ' '
_platon_squeeze_details          
;
;
