####################################################################### 
# 
# This file contains crystal structure data downloaded from the 
# Cambridge Structural Database (CSD) hosted by the Cambridge 
# Crystallographic Data Centre (CCDC).
# 
# Full information about CCDC data access policies and citation 
# guidelines are available at http://www.ccdc.cam.ac.uk/access/V1 
# 
# Audit and citation data items may have been added by the CCDC. 
# Please retain this information to preserve the provenance of 
# this file and to allow appropriate attribution of the data. 
# 
#######################################################################

data_t
_audit_block_doi                 10.5517/cczd8yk
_database_code_depnum_ccdc_archive 'CCDC 905539'
_audit_update_record             
;
2014-07-24 deposited with the CCDC.	2024-07-11 downloaded from the CCDC.
;

_audit_creation_method           SHELXL-97
_chemical_name_systematic        
; 
 ? 
;
_chemical_name_common            ?
_chemical_melting_point          ?
_chemical_formula_moiety         '2(C38 H46 N8 O17 Zn4), 3(C2 H6 O), C2 H8 O2'
_chemical_formula_sum            'C84 H118 N16 O39 Zn8'
_chemical_formula_weight         2498.90

loop_
_atom_type_symbol
_atom_type_description
_atom_type_scat_dispersion_real
_atom_type_scat_dispersion_imag
_atom_type_scat_source
C C 0.0033 0.0016 'International Tables Vol C Tables 4.2.6.8 and 6.1.1.4'
H H 0.0000 0.0000 'International Tables Vol C Tables 4.2.6.8 and 6.1.1.4'
N N 0.0061 0.0033 'International Tables Vol C Tables 4.2.6.8 and 6.1.1.4'
O O 0.0106 0.0060 'International Tables Vol C Tables 4.2.6.8 and 6.1.1.4'
Zn Zn 0.2839 1.4301 'International Tables Vol C Tables 4.2.6.8 and 6.1.1.4'

_symmetry_cell_setting           monoclinic
_symmetry_space_group_name_H-M   'C 2/c'
_symmetry_space_group_name_Hall  '-C 2yc'

loop_
_symmetry_equiv_pos_as_xyz
'x, y, z'
'-x, y, -z+1/2'
'x+1/2, y+1/2, z'
'-x+1/2, y+1/2, -z+1/2'
'-x, -y, -z'
'x, -y, z-1/2'
'-x+1/2, -y+1/2, -z'
'x+1/2, -y+1/2, z-1/2'

_cell_length_a                   39.074(4)
_cell_length_b                   9.9645(8)
_cell_length_c                   38.846(3)
_cell_angle_alpha                90.000(4)
_cell_angle_beta                 136.438(4)
_cell_angle_gamma                90.000(4)
_cell_volume                     10423.1(14)
_cell_formula_units_Z            4
_cell_measurement_temperature    296(2)
_cell_measurement_reflns_used    8135
_cell_measurement_theta_min      2.58
_cell_measurement_theta_max      28.37

_exptl_crystal_description       block
_exptl_crystal_colour            colourless
_exptl_crystal_size_max          0.33
_exptl_crystal_size_mid          0.28
_exptl_crystal_size_min          0.25
_exptl_crystal_density_meas      ?
_exptl_crystal_density_diffrn    1.592
_exptl_crystal_density_method    'not measured'
_exptl_crystal_F_000             5144
_exptl_absorpt_coefficient_mu    1.900
_exptl_absorpt_correction_type   multi-scan
_exptl_absorpt_correction_T_min  0.5729
_exptl_absorpt_correction_T_max  0.6481
_exptl_absorpt_process_details   sadabs

_exptl_special_details           
; 
 ? 
;

_diffrn_ambient_temperature      296(2)
_diffrn_radiation_wavelength     0.71073
_diffrn_radiation_type           MoK\a
_diffrn_radiation_source         'fine-focus sealed tube'
_diffrn_radiation_monochromator  graphite
_diffrn_measurement_device_type  'Bruker APEX-II CCD'
_diffrn_measurement_method       '\f and \w scans'
_diffrn_detector_area_resol_mean ?
_diffrn_standards_number         0
_diffrn_standards_interval_count ?
_diffrn_standards_interval_time  ?
_diffrn_standards_decay_%        ?
_diffrn_reflns_number            35305
_diffrn_reflns_av_R_equivalents  0.0479
_diffrn_reflns_av_sigmaI/netI    0.0489
_diffrn_reflns_limit_h_min       -48
_diffrn_reflns_limit_h_max       48
_diffrn_reflns_limit_k_min       -12
_diffrn_reflns_limit_k_max       12
_diffrn_reflns_limit_l_min       -47
_diffrn_reflns_limit_l_max       38
_diffrn_reflns_theta_min         2.12
_diffrn_reflns_theta_max         26.00
_reflns_number_total             9983
_reflns_number_gt                7345
_reflns_threshold_expression     >2sigma(I)

_computing_data_collection       'Bruker APEX2'
_computing_cell_refinement       'Bruker SAINT'
_computing_data_reduction        'Bruker SAINT'
_computing_structure_solution    'SHELXS-97 (Sheldrick, 1990)'
_computing_structure_refinement  'SHELXL-97 (Sheldrick, 1997)'
_computing_molecular_graphics    'Bruker SHELXTL'
_computing_publication_material  'Bruker SHELXTL'

_refine_special_details          
; 
 Refinement of F^2^ against ALL reflections.  The weighted R-factor wR and 
 goodness of fit S are based on F^2^, conventional R-factors R are based 
 on F, with F set to zero for negative F^2^. The threshold expression of 
 F^2^ > 2sigma(F^2^) is used only for calculating R-factors(gt) etc. and is 
 not relevant to the choice of reflections for refinement.  R-factors based 
 on F^2^ are statistically about twice as large as those based on F, and R- 
 factors based on ALL data will be even larger. 
;

_refine_ls_structure_factor_coef Fsqd
_refine_ls_matrix_type           full
_refine_ls_weighting_scheme      calc
_refine_ls_weighting_details     
'calc w=1/[\s^2^(Fo^2^)+(0.2000P)^2^+0.0000P] where P=(Fo^2^+2Fc^2^)/3'
_atom_sites_solution_primary     direct
_atom_sites_solution_secondary   difmap
_atom_sites_solution_hydrogens   geom
_refine_ls_hydrogen_treatment    constr
_refine_ls_extinction_method     none
_refine_ls_extinction_coef       ?
_refine_ls_number_reflns         9983
_refine_ls_number_parameters     686
_refine_ls_number_restraints     0
_refine_ls_R_factor_all          0.1377
_refine_ls_R_factor_gt           0.1036
_refine_ls_wR_factor_ref         0.3672
_refine_ls_wR_factor_gt          0.2953
_refine_ls_goodness_of_fit_ref   1.529
_refine_ls_restrained_S_all      1.529
_refine_ls_shift/su_max          0.139
_refine_ls_shift/su_mean         0.004

loop_
_atom_site_label
_atom_site_type_symbol
_atom_site_fract_x
_atom_site_fract_y
_atom_site_fract_z
_atom_site_U_iso_or_equiv
_atom_site_adp_type
_atom_site_occupancy
_atom_site_symmetry_multiplicity
_atom_site_calc_flag
_atom_site_refinement_flags
_atom_site_disorder_assembly
_atom_site_disorder_group
Zn1 Zn 0.2500 0.2500 0.0000 0.0374(4) Uani 1 2 d S . .
O1 O 0.2464(2) 0.4362(5) -0.0318(3) 0.0530(17) Uani 1 1 d . . .
H1A H 0.2435 0.4377 -0.0557 0.064 Uiso 1 1 d R . .
C1 C 0.3651(3) 0.2274(8) 0.0900(3) 0.041(2) Uani 1 1 d . . .
N1 N 0.2221(3) 0.3460(8) 0.0472(3) 0.0478(19) Uani 1 1 d . . .
H1 H 0.1928 0.3394 0.0172 0.057 Uiso 1 1 calc R . .
Zn2 Zn 0.32502(3) 0.31988(9) 0.13035(4) 0.0378(3) Uani 1 1 d . . .
O2 O 0.3258(2) 0.2409(6) 0.0443(2) 0.0478(16) Uani 1 1 d . . .
N2 N 0.0570(2) 0.3368(7) 0.0472(3) 0.0452(19) Uani 1 1 d . . .
H2D H 0.0592 0.3672 0.0694 0.054 Uiso 1 1 calc R . .
H2E H 0.0292 0.3057 0.0195 0.054 Uiso 1 1 calc R . .
C2 C 0.4111(4) 0.1870(18) 0.1040(5) 0.092(5) Uani 1 1 d . . .
H2A H 0.4065 0.0991 0.0911 0.138 Uiso 1 1 calc R . .
H2B H 0.4390 0.1862 0.1397 0.138 Uiso 1 1 calc R . .
H2C H 0.4171 0.2501 0.0902 0.138 Uiso 1 1 calc R . .
Zn3 Zn 0.38484(3) 0.20435(8) 0.25416(4) 0.0367(3) Uani 1 1 d . . .
N3 N 0.3970(2) 0.4443(6) 0.2232(3) 0.0397(17) Uani 1 1 d . . .
H3 H 0.4178 0.4612 0.2546 0.048 Uiso 1 1 calc R . .
O3 O 0.3693(2) 0.2443(7) 0.1249(2) 0.0500(16) Uani 1 1 d . . .
C3 C 0.2219(8) 0.5536(11) -0.0354(8) 0.104(6) Uani 1 1 d . . .
H3A H 0.2352 0.5716 -0.0029 0.125 Uiso 1 1 calc R . .
H3B H 0.1867 0.5353 -0.0586 0.125 Uiso 1 1 calc R . .
Zn4 Zn 0.44640(3) 0.08808(8) 0.37755(4) 0.0383(3) Uani 1 1 d . . .
O4 O 0.26284(19) 0.3437(6) 0.0555(2) 0.0411(14) Uani 1 1 d . . .
N4 N 0.4419(3) 1.0741(6) 0.2692(3) 0.051(2) Uani 1 1 d . . .
H4E H 0.4328 1.1412 0.2502 0.061 Uiso 1 1 calc R . .
H4D H 0.4588 1.0872 0.3000 0.061 Uiso 1 1 calc R . .
C4 C 0.2289(7) 0.6773(15) -0.0528(6) 0.117(6) Uani 1 1 d . . .
H4A H 0.2636 0.6988 -0.0289 0.176 Uiso 1 1 calc R . .
H4B H 0.2112 0.7516 -0.0558 0.176 Uiso 1 1 calc R . .
H4C H 0.2164 0.6594 -0.0846 0.176 Uiso 1 1 calc R . .
Zn5 Zn 0.0000 0.5000 0.0000 0.0378(4) Uani 1 2 d S . .
O5 O 0.2701(2) 0.3741(6) 0.1283(2) 0.0496(16) Uani 1 1 d . . .
N5 N 0.3684(2) -0.0339(6) 0.2830(3) 0.0379(16) Uani 1 1 d . . .
H5 H 0.3454 -0.0464 0.2512 0.045 Uiso 1 1 calc R . .
C5 C 0.2275(3) 0.3579(8) 0.0843(3) 0.044(2) Uani 1 1 d . . .
O6 O 0.38050(19) 0.3158(5) 0.2065(2) 0.0353(13) Uani 1 1 d . . .
C6 C 0.1820(3) 0.3522(9) 0.0732(4) 0.049(2) Uani 1 1 d . . .
N6 N 0.3268(2) -0.6659(6) 0.2375(3) 0.0415(18) Uani 1 1 d . . .
H6A H 0.3089 -0.6809 0.2065 0.050 Uiso 1 1 calc R . .
H6B H 0.3383 -0.7319 0.2577 0.050 Uiso 1 1 calc R . .
O7 O 0.3531(2) 0.5176(5) 0.1467(2) 0.0512(18) Uani 1 1 d . . .
N7 N 0.5326(3) -0.0601(7) 0.4546(3) 0.053(2) Uani 1 1 d . . .
H7D H 0.5530 -0.1105 0.4805 0.063 Uiso 1 1 calc R . .
C7 C 0.1373(3) 0.2981(11) 0.0291(4) 0.056(3) Uani 1 1 d . . .
H7 H 0.1352 0.2652 0.0052 0.067 Uiso 1 1 calc R . .
O8 O 0.3021(2) 0.1174(6) 0.1263(2) 0.0432(14) Uani 1 1 d . . .
C8 C 0.0989(3) 0.3379(8) 0.0561(3) 0.0402(19) Uani 1 1 d . . .
N8 N 0.6444(4) -0.4551(11) 0.4306(5) 0.093(4) Uani 1 1 d . . .
H8A H 0.6398 -0.4665 0.4055 0.112 Uiso 1 1 calc R . .
H8B H 0.6652 -0.5050 0.4566 0.112 Uiso 1 1 calc R . .
O9 O 0.3227(2) 0.0814(5) 0.1952(2) 0.0429(15) Uani 1 1 d . . .
C9 C 0.1431(3) 0.3875(11) 0.1003(4) 0.058(3) Uani 1 1 d . . .
H9 H 0.1455 0.4177 0.1246 0.070 Uiso 1 1 calc R . .
O10 O 0.4447(2) 0.3290(5) 0.3128(2) 0.0470(16) Uani 1 1 d . . .
C10 C 0.1842(3) 0.3930(11) 0.1089(4) 0.056(3) Uani 1 1 d . . .
H10 H 0.2141 0.4249 0.1394 0.067 Uiso 1 1 calc R . .
O11 O 0.4694(2) 0.2803(6) 0.3839(3) 0.0507(17) Uani 1 1 d . . .
C11 C 0.3818(3) 0.5414(8) 0.1923(3) 0.0355(18) Uani 1 1 d . . .
O12 O 0.38959(19) 0.0905(5) 0.3018(2) 0.0346(12) Uani 1 1 d . . .
C12 C 0.4006(3) 0.6787(8) 0.2137(3) 0.0388(19) Uani 1 1 d . . .
O13 O 0.4141(2) -0.1136(5) 0.3601(2) 0.0452(15) Uani 1 1 d . . .
C13 C 0.4277(4) 0.7073(8) 0.2622(4) 0.051(2) Uani 1 1 d . . .
H13 H 0.4372 0.6372 0.2836 0.061 Uiso 1 1 calc R . .
O14 O 0.50175(19) 0.0253(5) 0.4496(2) 0.0390(14) Uani 1 1 d . . .
C14 C 0.4414(3) 0.8364(9) 0.2807(4) 0.055(3) Uani 1 1 d . . .
H14 H 0.4588 0.8529 0.3136 0.066 Uiso 1 1 calc R . .
O15 O 0.5013(2) 0.0085(6) 0.3823(3) 0.0467(15) Uani 1 1 d . . .
C15 C 0.4290(3) 0.9419(7) 0.2498(4) 0.041(2) Uani 1 1 d . . .
O16 O 0.4021(2) 0.1620(6) 0.3847(2) 0.0474(15) Uani 1 1 d . . .
C16 C 0.4024(4) 0.9155(8) 0.2015(4) 0.055(3) Uani 1 1 d . . .
H16 H 0.3937 0.9855 0.1805 0.065 Uiso 1 1 calc R . .
O17 O 0.4442(2) 0.1496(6) 0.4646(3) 0.0495(16) Uani 1 1 d . . .
C17 C 0.3878(3) 0.7834(8) 0.1828(4) 0.046(2) Uani 1 1 d . . .
H17 H 0.3696 0.7666 0.1496 0.055 Uiso 1 1 calc R . .
C18 C 0.2952(3) 0.0666(9) 0.1500(3) 0.046(2) Uani 1 1 d . . .
C19 C 0.2510(5) -0.0216(16) 0.1231(6) 0.101(5) Uani 1 1 d . . .
H19A H 0.2459 -0.0354 0.1436 0.151 Uiso 1 1 calc R . .
H19B H 0.2565 -0.1065 0.1161 0.151 Uiso 1 1 calc R . .
H19C H 0.2221 0.0203 0.0923 0.151 Uiso 1 1 calc R . .
C20 C 0.4705(3) 0.3497(8) 0.3581(4) 0.045(2) Uani 1 1 d . . .
C21 C 0.5042(4) 0.4693(10) 0.3824(4) 0.070(3) Uani 1 1 d . . .
H21A H 0.4887 0.5420 0.3832 0.105 Uiso 1 1 calc R . .
H21B H 0.5106 0.4958 0.3637 0.105 Uiso 1 1 calc R . .
H21C H 0.5350 0.4466 0.4159 0.105 Uiso 1 1 calc R . .
C22 C 0.3827(3) -0.1335(7) 0.3129(3) 0.0353(18) Uani 1 1 d . . .
C23 C 0.3631(3) -0.2688(7) 0.2914(3) 0.0359(19) Uani 1 1 d . . .
C24 C 0.3320(3) -0.2952(7) 0.2417(4) 0.043(2) Uani 1 1 d . . .
H24 H 0.3190 -0.2241 0.2196 0.052 Uiso 1 1 calc R . .
C25 C 0.3193(3) -0.4255(7) 0.2234(3) 0.043(2) Uani 1 1 d . . .
H25 H 0.2985 -0.4408 0.1896 0.051 Uiso 1 1 calc R . .
C26 C 0.3375(3) -0.5321(7) 0.2553(3) 0.0320(17) Uani 1 1 d . . .
C27 C 0.3663(3) -0.5069(8) 0.3049(3) 0.041(2) Uani 1 1 d . . .
H27 H 0.3773 -0.5776 0.3265 0.049 Uiso 1 1 calc R . .
C28 C 0.3790(3) -0.3763(8) 0.3225(3) 0.041(2) Uani 1 1 d . . .
H28 H 0.3987 -0.3605 0.3561 0.050 Uiso 1 1 calc R . .
C29 C 0.5309(3) -0.0645(8) 0.4189(3) 0.042(2) Uani 1 1 d . . .
C30 C 0.5639(3) -0.1628(9) 0.4255(4) 0.048(2) Uani 1 1 d . . .
C31 C 0.5602(4) -0.1791(11) 0.3879(4) 0.061(3) Uani 1 1 d . . .
H31 H 0.5395 -0.1215 0.3606 0.073 Uiso 1 1 calc R . .
C32 C 0.5856(4) -0.2769(10) 0.3887(4) 0.060(3) Uani 1 1 d . . .
H32 H 0.5801 -0.2879 0.3612 0.072 Uiso 1 1 calc R . .
C33 C 0.6186(4) -0.3573(10) 0.4291(4) 0.059(3) Uani 1 1 d . . .
C34 C 0.6240(5) -0.3443(13) 0.4694(5) 0.079(4) Uani 1 1 d . . .
H34 H 0.6458 -0.3996 0.4973 0.095 Uiso 1 1 calc R . .
C35 C 0.5964(5) -0.2479(13) 0.4663(5) 0.074(3) Uani 1 1 d . . .
H35 H 0.5996 -0.2399 0.4924 0.088 Uiso 1 1 calc R . .
C36 C 0.4086(3) 0.1884(9) 0.4200(4) 0.050(2) Uani 1 1 d . . .
C37 C 0.3707(6) 0.2786(18) 0.4108(6) 0.113(7) Uani 1 1 d . . .
H37A H 0.3876 0.3521 0.4339 0.169 Uiso 1 1 calc R . .
H37B H 0.3534 0.2273 0.4154 0.169 Uiso 1 1 calc R . .
H37C H 0.3472 0.3127 0.3772 0.169 Uiso 1 1 calc R . .
C42 C 0.0961(3) 0.2922(10) 0.0201(4) 0.055(3) Uani 1 1 d . . .
H42 H 0.0663 0.2579 -0.0100 0.066 Uiso 1 1 calc R . .
O18 O 0.3040(3) -0.7942(9) 0.2867(4) 0.081(3) Uani 1 1 d . . .
H18 H 0.2957 -0.7314 0.2929 0.121 Uiso 1 1 calc R . .
C41 C 0.2717(6) -0.904(2) 0.2685(7) 0.118(6) Uani 1 1 d . . .
H41A H 0.2511 -0.8858 0.2735 0.142 Uiso 1 1 calc R . .
H41B H 0.2913 -0.9835 0.2877 0.142 Uiso 1 1 calc R . .
C40 C 0.2398(7) -0.931(3) 0.2158(8) 0.167(11) Uani 1 1 d . . .
H40A H 0.2076 -0.8921 0.1963 0.251 Uiso 1 1 calc R . .
H40B H 0.2364 -1.0260 0.2103 0.251 Uiso 1 1 calc R . .
H40C H 0.2542 -0.8921 0.2060 0.251 Uiso 1 1 calc R . .
O20 O 0.0007(9) 0.1127(16) -0.0309(7) 0.191(8) Uani 1 1 d . A -1
H20 H -0.0170 0.1269 -0.0606 0.286 Uiso 1 1 calc R A -1
C43 C -0.0082(18) 0.0018(19) -0.0260(11) 0.25(2) Uani 1 1 d . A -1
H43A H 0.0053 -0.0652 -0.0312 0.372 Uiso 1 1 calc R A -1
H43B H -0.0435 -0.0100 -0.0500 0.372 Uiso 1 1 calc R A -1
H43C H 0.0065 -0.0070 0.0071 0.372 Uiso 1 1 calc R A -1
C38 C 0.5000 1.335(2) 0.2500 0.118(11) Uani 1 2 d S . .
H38A H 0.5032 1.3614 0.2284 0.142 Uiso 0.50 1 calc PR B .
H38B H 0.4652 1.3164 0.2291 0.142 Uiso 0.50 1 calc PR . .
O19 O 0.5281(6) 1.2158(16) 0.2761(7) 0.071(4) Uani 0.50 1 d P B -1
H19 H 0.5280 1.1699 0.2585 0.107 Uiso 0.50 1 calc PR B -1
C39 C 0.5146(10) 1.431(4) 0.2802(12) 0.103(11) Uani 0.50 1 d P B -1
H39A H 0.5277 1.5024 0.2757 0.154 Uiso 0.50 1 calc PR B -1
H39B H 0.5400 1.3991 0.3139 0.154 Uiso 0.50 1 calc PR B -1
H39C H 0.4871 1.4640 0.2733 0.154 Uiso 0.50 1 calc PR B -1

loop_
_atom_site_aniso_label
_atom_site_aniso_U_11
_atom_site_aniso_U_22
_atom_site_aniso_U_33
_atom_site_aniso_U_23
_atom_site_aniso_U_13
_atom_site_aniso_U_12
Zn1 0.0233(6) 0.0381(7) 0.0351(8) -0.0070(6) 0.0161(6) -0.0034(5)
O1 0.058(4) 0.034(3) 0.055(4) -0.004(3) 0.037(4) -0.004(3)
C1 0.023(4) 0.044(4) 0.035(5) -0.008(4) 0.014(4) 0.001(3)
N1 0.026(3) 0.065(5) 0.031(4) -0.005(4) 0.014(3) 0.006(3)
Zn2 0.0241(5) 0.0365(5) 0.0329(6) -0.0050(4) 0.0141(5) -0.0038(3)
O2 0.026(3) 0.059(4) 0.045(4) -0.009(3) 0.021(3) -0.002(2)
N2 0.026(3) 0.041(4) 0.048(5) 0.000(3) 0.020(3) 0.004(3)
C2 0.037(6) 0.180(15) 0.058(7) 0.002(9) 0.034(6) 0.033(7)
Zn3 0.0319(5) 0.0237(5) 0.0363(6) 0.0001(4) 0.0187(5) -0.0031(3)
N3 0.028(3) 0.026(3) 0.043(4) -0.005(3) 0.019(3) -0.003(2)
O3 0.031(3) 0.062(4) 0.038(4) -0.006(3) 0.019(3) 0.005(3)
C3 0.186(17) 0.048(6) 0.155(17) -0.014(8) 0.149(16) -0.007(8)
Zn4 0.0315(5) 0.0285(5) 0.0340(6) 0.0005(4) 0.0170(5) -0.0006(3)
O4 0.021(3) 0.050(3) 0.039(3) -0.006(3) 0.017(3) 0.000(2)
N4 0.046(4) 0.027(3) 0.056(5) -0.002(3) 0.029(4) 0.000(3)
C4 0.148(16) 0.085(9) 0.080(11) 0.004(8) 0.070(12) 0.013(10)
Zn5 0.0241(6) 0.0368(7) 0.0359(8) -0.0002(6) 0.0162(6) -0.0022(5)
O5 0.027(3) 0.056(3) 0.038(3) -0.011(3) 0.014(3) -0.001(3)
N5 0.032(3) 0.025(3) 0.038(4) -0.002(3) 0.019(3) -0.003(2)
C5 0.033(4) 0.043(4) 0.034(5) -0.003(4) 0.018(4) 0.007(3)
O6 0.030(3) 0.027(2) 0.034(3) -0.002(2) 0.018(3) -0.004(2)
C6 0.028(4) 0.050(5) 0.044(5) -0.007(4) 0.019(4) 0.006(3)
N6 0.032(3) 0.027(3) 0.038(4) -0.002(3) 0.016(3) 0.001(3)
O7 0.034(3) 0.030(3) 0.046(4) 0.001(3) 0.015(3) -0.007(2)
N7 0.036(4) 0.047(4) 0.053(5) 0.005(4) 0.025(4) 0.010(3)
C7 0.031(4) 0.077(6) 0.043(6) -0.016(5) 0.021(4) -0.001(4)
O8 0.046(3) 0.039(3) 0.034(3) -0.006(3) 0.026(3) -0.010(3)
C8 0.027(4) 0.042(4) 0.044(5) 0.004(4) 0.023(4) 0.006(3)
N8 0.094(8) 0.085(7) 0.089(9) 0.009(6) 0.062(7) 0.042(6)
O9 0.034(3) 0.034(3) 0.039(4) 0.000(2) 0.019(3) -0.009(2)
C9 0.038(5) 0.074(6) 0.049(6) -0.013(5) 0.026(5) -0.001(4)
O10 0.034(3) 0.032(3) 0.042(4) 0.001(3) 0.016(3) -0.008(2)
C10 0.030(4) 0.077(6) 0.050(6) -0.018(5) 0.025(5) 0.000(4)
O11 0.054(4) 0.032(3) 0.052(4) -0.003(3) 0.033(4) -0.010(3)
C11 0.028(4) 0.035(4) 0.043(5) 0.003(4) 0.025(4) 0.002(3)
O12 0.031(3) 0.028(2) 0.036(3) -0.002(2) 0.021(3) -0.006(2)
C12 0.031(4) 0.035(4) 0.039(5) 0.000(4) 0.022(4) -0.001(3)
O13 0.043(3) 0.027(2) 0.040(4) -0.001(3) 0.022(3) -0.008(2)
C13 0.052(5) 0.028(4) 0.043(5) 0.006(4) 0.025(5) 0.001(3)
O14 0.023(3) 0.038(3) 0.037(3) 0.005(2) 0.016(3) 0.007(2)
C14 0.040(5) 0.037(4) 0.045(6) -0.004(4) 0.017(5) -0.002(4)
O15 0.035(3) 0.047(3) 0.049(4) 0.008(3) 0.028(3) 0.006(3)
C15 0.037(4) 0.030(4) 0.051(6) -0.005(4) 0.029(4) -0.005(3)
O16 0.041(3) 0.056(4) 0.033(3) 0.004(3) 0.023(3) 0.012(3)
C16 0.065(6) 0.029(4) 0.068(7) 0.007(4) 0.047(6) 0.003(4)
O17 0.041(3) 0.049(3) 0.050(4) 0.014(3) 0.030(3) 0.019(3)
C17 0.050(5) 0.031(4) 0.045(5) 0.004(4) 0.031(5) 0.003(3)
C18 0.035(4) 0.040(4) 0.034(5) -0.003(4) 0.016(4) -0.009(3)
C19 0.070(9) 0.121(11) 0.0