####################################################################### 
# 
# This file contains crystal structure data downloaded from the 
# Cambridge Structural Database (CSD) hosted by the Cambridge 
# Crystallographic Data Centre (CCDC).
# 
# Full information about CCDC data access policies and citation 
# guidelines are available at http://www.ccdc.cam.ac.uk/access/V1 
# 
# Audit and citation data items may have been added by the CCDC. 
# Please retain this information to preserve the provenance of 
# this file and to allow appropriate attribution of the data. 
# 
#######################################################################

data_20nove
_audit_block_doi                 10.5517/ccy3mg3
_database_code_depnum_ccdc_archive 'CCDC 867425'
loop_
_citation_id
_citation_doi
_citation_year
1 10.1002/chem.201403115 2014
_audit_update_record             
;
2012-02-16 deposited with the CCDC.	2024-07-11 downloaded from the CCDC.
;
#TrackingRef '20nove.cif'


_audit_creation_method           SHELXL-97
_chemical_name_systematic        
;
?
;
_chemical_name_common            ?
_chemical_melting_point          ?
_chemical_formula_moiety         ?
_chemical_formula_sum            'C24 H30 Cl Cu4 N15 S3'
_chemical_formula_weight         914.42

loop_
_atom_type_symbol
_atom_type_description
_atom_type_scat_dispersion_real
_atom_type_scat_dispersion_imag
_atom_type_scat_source
C C 0.0033 0.0016 'International Tables Vol C Tables 4.2.6.8 and 6.1.1.4'
H H 0.0000 0.0000 'International Tables Vol C Tables 4.2.6.8 and 6.1.1.4'
N N 0.0061 0.0033 'International Tables Vol C Tables 4.2.6.8 and 6.1.1.4'
S S 0.1246 0.1234 'International Tables Vol C Tables 4.2.6.8 and 6.1.1.4'
Cu Cu 0.3201 1.2651 'International Tables Vol C Tables 4.2.6.8 and 6.1.1.4'
Cl Cl 0.1484 0.1585 'International Tables Vol C Tables 4.2.6.8 and 6.1.1.4'

_symmetry_cell_setting           cubic
_symmetry_space_group_name_H-M   'F -4 3 c'

loop_
_symmetry_equiv_pos_as_xyz
'x, y, z'
'-x, -y, z'
'x, -y, -z'
'-x, y, -z'
'z, x, y'
'y, z, x'
'-z, -x, y'
'-y, z, -x'
'z, -x, -y'
'-y, -z, x'
'-z, x, -y'
'y, -z, -x'
'y+1/2, x, z'
'-y, -x, z+1/2'
'-y, x+1/2, -z'
'y+1/2, -x, -z'
'x+1/2, z, y'
'z+1/2, y, x'
'-x, -z, y+1/2'
'z+1/2, -y, -x'
'-x, z+1/2, -y'
'-z, -y, x+1/2'
'x+1/2, -z, -y'
'-z, y+1/2, -x'
'x, y+1/2, z+1/2'
'-x, -y+1/2, z+1/2'
'x, -y+1/2, -z+1/2'
'-x, y+1/2, -z+1/2'
'z, x+1/2, y+1/2'
'y, z+1/2, x+1/2'
'-z, -x+1/2, y+1/2'
'-y, z+1/2, -x+1/2'
'z, -x+1/2, -y+1/2'
'-y, -z+1/2, x+1/2'
'-z, x+1/2, -y+1/2'
'y, -z+1/2, -x+1/2'
'y+1/2, x+1/2, z+1/2'
'-y, -x+1/2, z+1'
'-y, x+1, -z+1/2'
'y+1/2, -x+1/2, -z+1/2'
'x+1/2, z+1/2, y+1/2'
'z+1/2, y+1/2, x+1/2'
'-x, -z+1/2, y+1'
'z+1/2, -y+1/2, -x+1/2'
'-x, z+1, -y+1/2'
'-z, -y+1/2, x+1'
'x+1/2, -z+1/2, -y+1/2'
'-z, y+1, -x+1/2'
'x+1/2, y, z+1/2'
'-x+1/2, -y, z+1/2'
'x+1/2, -y, -z+1/2'
'-x+1/2, y, -z+1/2'
'z+1/2, x, y+1/2'
'y+1/2, z, x+1/2'
'-z+1/2, -x, y+1/2'
'-y+1/2, z, -x+1/2'
'z+1/2, -x, -y+1/2'
'-y+1/2, -z, x+1/2'
'-z+1/2, x, -y+1/2'
'y+1/2, -z, -x+1/2'
'y+1, x, z+1/2'
'-y+1/2, -x, z+1'
'-y+1/2, x+1/2, -z+1/2'
'y+1, -x, -z+1/2'
'x+1, z, y+1/2'
'z+1, y, x+1/2'
'-x+1/2, -z, y+1'
'z+1, -y, -x+1/2'
'-x+1/2, z+1/2, -y+1/2'
'-z+1/2, -y, x+1'
'x+1, -z, -y+1/2'
'-z+1/2, y+1/2, -x+1/2'
'x+1/2, y+1/2, z'
'-x+1/2, -y+1/2, z'
'x+1/2, -y+1/2, -z'
'-x+1/2, y+1/2, -z'
'z+1/2, x+1/2, y'
'y+1/2, z+1/2, x'
'-z+1/2, -x+1/2, y'
'-y+1/2, z+1/2, -x'
'z+1/2, -x+1/2, -y'
'-y+1/2, -z+1/2, x'
'-z+1/2, x+1/2, -y'
'y+1/2, -z+1/2, -x'
'y+1, x+1/2, z'
'-y+1/2, -x+1/2, z+1/2'
'-y+1/2, x+1, -z'
'y+1, -x+1/2, -z'
'x+1, z+1/2, y'
'z+1, y+1/2, x'
'-x+1/2, -z+1/2, y+1/2'
'z+1, -y+1/2, -x'
'-x+1/2, z+1, -y'
'-z+1/2, -y+1/2, x+1/2'
'x+1, -z+1/2, -y'
'-z+1/2, y+1, -x'

_cell_length_a                   38.493
_cell_length_b                   38.493
_cell_length_c                   38.493
_cell_angle_alpha                90.00
_cell_angle_beta                 90.00
_cell_angle_gamma                90.00
_cell_volume                     57035.5
_cell_formula_units_Z            32
_cell_measurement_temperature    100(2)
_cell_measurement_reflns_used    4688
_cell_measurement_theta_min      2.1
_cell_measurement_theta_max      25.980

_exptl_crystal_description       block
_exptl_crystal_colour            yellow
_exptl_crystal_size_max          0.22
_exptl_crystal_size_mid          0.20
_exptl_crystal_size_min          0.18
_exptl_crystal_density_meas      ?
_exptl_crystal_density_diffrn    0.852
_exptl_crystal_density_method    'not measured'
_exptl_crystal_F_000             14720
_exptl_absorpt_coefficient_mu    1.323
_exptl_absorpt_correction_type   psi-scan
_exptl_absorpt_correction_T_min  0.755
_exptl_absorpt_correction_T_max  0.788
_exptl_absorpt_process_details   '(North et al., 1968)'

_exptl_special_details           
;
?
;

_diffrn_ambient_temperature      100(2)
_diffrn_radiation_wavelength     0.71073
_diffrn_radiation_type           MoK\a
_diffrn_radiation_source         'fine-focus sealed tube'
_diffrn_radiation_monochromator  graphite
_diffrn_measurement_device_type  ?
_diffrn_measurement_method       ?
_diffrn_detector_area_resol_mean ?
_diffrn_standards_number         ?
_diffrn_standards_interval_count ?
_diffrn_standards_interval_time  ?
_diffrn_standards_decay_%        ?
_diffrn_reflns_number            75506
_diffrn_reflns_av_R_equivalents  0.0980
_diffrn_reflns_av_sigmaI/netI    0.0390
_diffrn_reflns_limit_h_min       -46
_diffrn_reflns_limit_h_max       47
_diffrn_reflns_limit_k_min       -31
_diffrn_reflns_limit_k_max       47
_diffrn_reflns_limit_l_min       -47
_diffrn_reflns_limit_l_max       46
_diffrn_reflns_theta_min         2.12
_diffrn_reflns_theta_max         25.98
_reflns_number_total             4688
_reflns_number_gt                3368
_reflns_threshold_expression     >2sigma(I)

_computing_data_collection       ?
_computing_cell_refinement       ?
_computing_data_reduction        ?
_computing_structure_solution    ?
_computing_structure_refinement  'SHELXL-97 (Sheldrick, 1997)'
_computing_molecular_graphics    ?
_computing_publication_material  ?

_refine_special_details          
;
Refinement of F^2^ against ALL reflections. The weighted R-factor wR and
goodness of fit S are based on F^2^, conventional R-factors R are based
on F, with F set to zero for negative F^2^. The threshold expression of
F^2^ > 2sigma(F^2^) is used only for calculating R-factors(gt) etc. and is
not relevant to the choice of reflections for refinement. R-factors based
on F^2^ are statistically about twice as large as those based on F, and R-
factors based on ALL data will be even larger.
;

_refine_ls_structure_factor_coef Fsqd
_refine_ls_matrix_type           full
_refine_ls_weighting_scheme      calc
_refine_ls_weighting_details     
'calc w=1/[\s^2^(Fo^2^)+(0.1892P)^2^+0.0000P] where P=(Fo^2^+2Fc^2^)/3'
_atom_sites_solution_primary     direct
_atom_sites_solution_secondary   difmap
_atom_sites_solution_hydrogens   geom
_refine_ls_hydrogen_treatment    constr
_refine_ls_extinction_method     none
_refine_ls_extinction_coef       ?
_refine_ls_abs_structure_details 'Flack H D (1983), Acta Cryst. A39, 876-881'
_refine_ls_abs_structure_Flack   -0.01(4)
_refine_ls_number_reflns         4688
_refine_ls_number_parameters     142
_refine_ls_number_restraints     0
_refine_ls_R_factor_all          0.1127
_refine_ls_R_factor_gt           0.0888
_refine_ls_wR_factor_ref         0.2782
_refine_ls_wR_factor_gt          0.2535
_refine_ls_goodness_of_fit_ref   1.115
_refine_ls_restrained_S_all      1.115
_refine_ls_shift/su_max          0.001
_refine_ls_shift/su_mean         0.000

loop_
_atom_site_label
_atom_site_type_symbol
_atom_site_fract_x
_atom_site_fract_y
_atom_site_fract_z
_atom_site_U_iso_or_equiv
_atom_site_adp_type
_atom_site_occupancy
_atom_site_symmetry_multiplicity
_atom_site_calc_flag
_atom_site_refinement_flags
_atom_site_disorder_assembly
_atom_site_disorder_group
Cu2 Cu 0.67425(2) 0.67425(2) 0.82575(2) 0.0530(4) Uani 1 3 d S . .
Cl Cl 0.63707(5) 0.63707(5) 0.86293(5) 0.0699(10) Uani 1 3 d S . .
N3 N 0.77558(16) 0.71236(15) 0.84711(15) 0.0488(13) Uani 1 1 d . . .
N1 N 0.71764(16) 0.68920(15) 0.85322(16) 0.0496(14) Uani 1 1 d . . .
N6 N 0.6918(2) 0.6782(2) 0.90649(18) 0.074(2) Uani 1 1 d . . .
H61 H 0.6740 0.6699 0.8958 0.088 Uiso 1 1 calc R . .
H62 H 0.6922 0.6787 0.9288 0.088 Uiso 1 1 calc R . .
C4 C 0.77609(19) 0.71351(18) 0.88237(19) 0.0485(16) Uani 1 1 d . . .
C8 C 0.7902(2) 0.7230(2) 0.93621(19) 0.062(2) Uani 1 1 d . . .
C5 C 0.7491(2) 0.7031(2) 0.90334(18) 0.0512(17) Uani 1 1 d . . .
C10 C 0.8357(2) 0.7377(2) 0.8913(2) 0.0571(19) Uani 1 1 d . . .
H101 H 0.8473 0.7490 0.9106 0.069 Uiso 1 1 calc R . .
H102 H 0.8329 0.7547 0.8729 0.069 Uiso 1 1 calc R . .
N9 N 0.80191(17) 0.72565(17) 0.90242(15) 0.0534(15) Uani 1 1 d . . .
C12 C 0.8658(4) 0.6832(4) 0.9053(4) 0.113(5) Uani 1 1 d . . .
H123 H 0.8801 0.6649 0.8961 0.169 Uiso 1 1 calc R . .
H121 H 0.8445 0.6735 0.9140 0.169 Uiso 1 1 calc R . .
H122 H 0.8779 0.6947 0.9237 0.169 Uiso 1 1 calc R . .
C11 C 0.8581(3) 0.7077(3) 0.8782(3) 0.082(3) Uani 1 1 d . . .
H112 H 0.8460 0.6959 0.8594 0.098 Uiso 1 1 calc R . .
H111 H 0.8797 0.7169 0.8689 0.098 Uiso 1 1 calc R . .
N7 N 0.7583(2) 0.7096(2) 0.93826(17) 0.0666(19) Uani 1 1 d . . .
C6 C 0.7191(2) 0.69041(19) 0.88815(18) 0.0497(16) Uani 1 1 d . . .
C2 C 0.7461(2) 0.70029(19) 0.83523(19) 0.0490(16) Uani 1 1 d . . .
H2 H 0.7444 0.6991 0.8112 0.059 Uiso 1 1 calc R . .
S S 0.68696(7) 0.75719(8) 0.97065(5) 0.0725(7) Uani 1 1 d . . .
Cu1 Cu 0.72881(3) 0.71511(4) 0.98061(3) 0.0755(4) Uani 1 1 d . . .

loop_
_atom_site_aniso_label
_atom_site_aniso_U_11
_atom_site_aniso_U_22
_atom_site_aniso_U_33
_atom_site_aniso_U_23
_atom_site_aniso_U_13
_atom_site_aniso_U_12
Cu2 0.0530(4) 0.0530(4) 0.0530(4) 0.0019(4) 0.0019(4) -0.0019(4)
Cl 0.0699(10) 0.0699(10) 0.0699(10) 0.0118(9) 0.0118(9) -0.0118(9)
N3 0.056(3) 0.048(3) 0.043(3) -0.004(3) -0.002(3) 0.005(3)
N1 0.055(3) 0.042(3) 0.052(3) 0.002(2) 0.010(3) 0.002(3)
N6 0.069(5) 0.106(6) 0.046(4) -0.003(4) 0.017(3) -0.009(4)
C4 0.056(4) 0.043(3) 0.046(4) -0.004(3) 0.002(3) 0.008(3)
C8 0.070(5) 0.075(5) 0.042(4) 0.000(3) -0.006(4) 0.006(4)
C5 0.060(4) 0.055(4) 0.038(3) -0.002(3) 0.007(3) 0.003(3)
C10 0.057(4) 0.066(5) 0.049(4) 0.002(4) -0.007(3) -0.008(4)
N9 0.061(4) 0.058(4) 0.041(3) 0.002(3) -0.003(3) 0.008(3)
C12 0.126(11) 0.112(10) 0.100(8) 0.003(7) -0.007(8) 0.054(8)
C11 0.063(5) 0.105(8) 0.078(6) 0.006(6) 0.008(5) 0.001(5)
N7 0.079(5) 0.081(5) 0.040(3) 0.002(3) -0.003(3) 0.000(4)
C6 0.057(4) 0.051(4) 0.041(4) -0.005(3) 0.005(3) 0.006(3)
C2 0.053(4) 0.047(4) 0.048(4) 0.005(3) 0.003(3) 0.002(3)
S 0.0795(15) 0.0974(18) 0.0407(10) 0.0069(11) 0.0067(10) -0.0006(13)
Cu1 0.0888(8) 0.0993(10) 0.0384(5) -0.0029(5) 0.0053(5) -0.0010(7)

_geom_special_details            
;
All esds (except the esd in the dihedral angle between two l.s. planes)
are estimated using the full covariance matrix. The cell esds are taken
into account individually in the estimation of esds in distances, angles
and torsion angles; correlations between esds in cell parameters are only
used when they are defined by crystal symmetry. An approximate (isotropic)
treatment of cell esds is used for estimating esds involving l.s. planes.
;

loop_
_geom_bond_atom_site_label_1
_geom_bond_atom_site_label_2
_geom_bond_distance
_geom_bond_site_symmetry_2
_geom_bond_publ_flag
Cu2 N1 2.059(7) . ?
Cu2 N1 2.059(7) 59_656 ?
Cu2 N1 2.059(7) 36_566 ?
Cu2 Cl 2.479(4) . ?
N3 C2 1.307(10) . ?
N3 C4 1.358(9) . ?
N1 C6 1.347(9) . ?
N1 C2 1.366(10) . ?
N6 C6 1.351(11) . ?
C4 N9 1.342(10) . ?
C4 C5 1.375(11) . ?
C8 N7 1.335(12) . ?
C8 N9 1.380(10) . ?
C8 S 1.763(9) 74_665 ?
C5 C6 1.382(11) . ?
C5 N7 1.413(10) . ?
C10 N9 1.446(10) . ?
C10 C11 1.527(14) . ?
C12 C11 1.438(18) . ?
N7 Cu1 1.998(7) . ?
S C8 1.763(9) 74_665 ?
S Cu1 2.232(3) 88_467 ?
S Cu1 2.317(3) . ?
Cu1 S 2.232(3) 87_647 ?
Cu1 Cu1 2.6772(19) 87_647 ?
Cu1 Cu1 2.6772(19) 88_467 ?

loop_
_geom_angle_atom_site_label_1
_geom_angle_atom_site_label_2
_geom_angle_atom_site_label_3
_geom_angle
_geom_angle_site_symmetry_1
_geom_angle_site_symmetry_3
_geom_angle_publ_flag
N1 Cu2 N1 109.48(17) . 59_656 ?
N1 Cu2 N1 109.48(17) . 36_566 ?
N1 Cu2 N1 109.48(17) 59_656 36_566 ?
N1 Cu2 Cl 109.46(17) . . ?
N1 Cu2 Cl 109.46(17) 59_656 . ?
N1 Cu2 Cl 109.46(17) 36_566 . ?
C2 N3 C4 112.0(6) . . ?
C6 N1 C2 117.5(7) . . ?
C6 N1 Cu2 123.9(5) . . ?
C2 N1 Cu2 118.6(5) . . ?
N9 C4 N3 126.6(7) . . ?
N9 C4 C5 108.9(7) . . ?
N3 C4 C5 124.5(7) . . ?
N7 C8 N9 112.6(7) . . ?
N7 C8 S 125.5(6) . 74_665 ?
N9 C8 S 121.0(7) . 74_665 ?
C4 C5 C6 119.0(6) . . ?
C4 C5 N7 108.5(7) . . ?
C6 C5 N7 132.4(7) . . ?
N9 C10 C11 111.3(7) . . ?
C4 N9 C8 106.0(7) . . ?
C4 N9 C10 127.4(6) . . ?
C8 N9 C10 126.6(7) . . ?
C12 C11 C10 111.9(9) . . ?
C8 N7 C5 104.1(6) . . ?
C8 N7 Cu1 122.0(6) . . ?
C5 N7 Cu1 130.7(6) . . ?
N1 C6 N6 118.4(7) . . ?
N1 C6 C5 118.1(7) . . ?
N6 C6 C5 123.5(7) . . ?
N3 C2 N1 129.0(7) . . ?
C8 S Cu1 106.6(3) 74_665 88_467 ?
C8 S Cu1 94.6(3) 74_665 . ?
Cu1 S Cu1 72.08(9) 88_467 . ?
N7 Cu1 S 119.8(2) . 87_647 ?
N7 Cu1 S 109.6(2) . . ?
S Cu1 S 130.26(8) 87_647 . ?
N7 Cu1 Cu1 91.0(2) . 87_647 ?
S Cu1 Cu1 55.42(9) 87_647 87_647 ?
S Cu1 Cu1 121.01(8) . 87_647 ?
N7 Cu1 Cu1 130.7(2) . 88_467 ?
S Cu1 Cu1 88.30(8) 87_647 88_467 ?
S Cu1 Cu1 52.50(8) . 88_467 ?
Cu1 Cu1 Cu1 71.88(4) 87_647 88_467 ?

_diffrn_measured_fraction_theta_max 0.999
_diffrn_reflns_theta_full        25.98
_diffrn_measured_fraction_theta_full 0.999
_refine_diff_density_max         1.563
_refine_diff_density_min         -0.701
_refine_diff_density_rms         0.170


