####################################################################### 
# 
# This file contains crystal structure data downloaded from the 
# Cambridge Structural Database (CSD) hosted by the Cambridge 
# Crystallographic Data Centre (CCDC).
# 
# Full information about CCDC data access policies and citation 
# guidelines are available at http://www.ccdc.cam.ac.uk/access/V1 
# 
# Audit and citation data items may have been added by the CCDC. 
# Please retain this information to preserve the provenance of 
# this file and to allow appropriate attribution of the data. 
# 
#######################################################################

data_c2_c
_audit_block_doi                 10.5517/ccyr03s
_database_code_depnum_ccdc_archive 'CCDC 886045'
loop_
_citation_id
_citation_doi
_citation_year
1 10.2116/analsci.29.773 2013
_audit_update_record             
;
2013-07-11 deposited with the CCDC.	2024-07-11 downloaded from the CCDC.
;

_audit_creation_method           SHELXL-97
_chemical_name_systematic        
; 
 ? 
;
_chemical_name_common            ?
_chemical_melting_point          ?
_chemical_formula_moiety         ?
_chemical_formula_sum            'C30.39 H29 Cl4 Co0.50 N4 O1.50'
_chemical_formula_weight         645.57

loop_
_atom_type_symbol
_atom_type_description
_atom_type_scat_dispersion_real
_atom_type_scat_dispersion_imag
_atom_type_scat_source
C C 0.0033 0.0016 'International Tables Vol C Tables 4.2.6.8 and 6.1.1.4'
H H 0.0000 0.0000 'International Tables Vol C Tables 4.2.6.8 and 6.1.1.4'
N N 0.0061 0.0033 'International Tables Vol C Tables 4.2.6.8 and 6.1.1.4'
Cl Cl 0.1484 0.1585 'International Tables Vol C Tables 4.2.6.8 and 6.1.1.4'
Co Co 0.3494 0.9721 'International Tables Vol C Tables 4.2.6.8 and 6.1.1.4'
O O 0.0106 0.0060 'International Tables Vol C Tables 4.2.6.8 and 6.1.1.4'

_symmetry_cell_setting           monoclinic
_symmetry_space_group_name_H-M   C2/c

loop_
_symmetry_equiv_pos_as_xyz
'x, y, z'
'-x, y, -z+1/2'
'x+1/2, y+1/2, z'
'-x+1/2, y+1/2, -z+1/2'
'-x, -y, -z'
'x, -y, z-1/2'
'-x+1/2, -y+1/2, -z'
'x+1/2, -y+1/2, z-1/2'

_cell_length_a                   24.330(2)
_cell_length_b                   19.815(2)
_cell_length_c                   17.257(2)
_cell_angle_alpha                90.00
_cell_angle_beta                 130.627(2)
_cell_angle_gamma                90.00
_cell_volume                     6314.2(12)
_cell_formula_units_Z            8
_cell_measurement_temperature    100(2)
_cell_measurement_reflns_used    350
_cell_measurement_theta_min      5
_cell_measurement_theta_max      20

_exptl_crystal_description       plate
_exptl_crystal_colour            colourless
_exptl_crystal_size_max          0.90
_exptl_crystal_size_mid          0.30
_exptl_crystal_size_min          0.08
_exptl_crystal_density_meas      ?
_exptl_crystal_density_diffrn    1.358
_exptl_crystal_density_method    'not measured'
_exptl_crystal_F_000             2663
_exptl_absorpt_coefficient_mu    0.660
_exptl_absorpt_correction_type   empirical
_exptl_absorpt_correction_T_min  0.5879
_exptl_absorpt_correction_T_max  0.9491
_exptl_absorpt_process_details   'SADABS Sheldrick 1996'

_exptl_special_details           
; 
Solvent rinse under filtartion easily lost a crystallinity.  
;

_diffrn_ambient_temperature      100(2)
_diffrn_radiation_wavelength     0.71073
_diffrn_radiation_type           MoK\a
_diffrn_radiation_source         'fine-focus sealed tube'
_diffrn_radiation_monochromator  graphite
_diffrn_measurement_device_type  'APEX II CCD area detector'
_diffrn_measurement_method       '\f and \w scans'
_diffrn_detector_area_resol_mean ?
_diffrn_standards_number         ?
_diffrn_standards_interval_count ?
_diffrn_standards_interval_time  ?
_diffrn_standards_decay_%        none
_diffrn_reflns_number            27617
_diffrn_reflns_av_R_equivalents  0.0619
_diffrn_reflns_av_sigmaI/netI    0.0496
_diffrn_reflns_limit_h_min       -28
_diffrn_reflns_limit_h_max       28
_diffrn_reflns_limit_k_min       -23
_diffrn_reflns_limit_k_max       23
_diffrn_reflns_limit_l_min       -20
_diffrn_reflns_limit_l_max       20
_diffrn_reflns_theta_min         2.06
_diffrn_reflns_theta_max         24.90
_reflns_number_total             5472
_reflns_number_gt                4232
_reflns_threshold_expression     >2sigma(I)

_computing_data_collection       'SMART (Bruker, 1998)'
_computing_cell_refinement       SMART
_computing_data_reduction        'SAINT (Bruker 1998)'
_computing_structure_solution    'SHELXS-97 (Sheldrick, 1990)'
_computing_structure_refinement  'SHELXL-97 (Sheldrick, 1997)'
_computing_molecular_graphics    'Bruker XP'
_computing_publication_material  'Bruker SHELXTL'

_refine_special_details          
; 
 Refinement of F^2^ against ALL reflections.  The weighted R-factor wR and 
 goodness of fit S are based on F^2^, conventional R-factors R are based 
 on F, with F set to zero for negative F^2^. The threshold expression of 
 F^2^ > 2sigma(F^2^) is used only for calculating R-factors(gt) etc. and is 
 not relevant to the choice of reflections for refinement.  R-factors based 
 on F^2^ are statistically about twice as large as those based on F, and R- 
 factors based on ALL data will be even larger. 

Several solvents, methanol and chloroform, were overlaped and disordered 
in a pore, so that restrains command were applied to converge this refinements.
;

_refine_ls_structure_factor_coef Fsqd
_refine_ls_matrix_type           full
_refine_ls_weighting_scheme      calc
_refine_ls_weighting_details     
'calc w=1/[\s^2^(Fo^2^)+(0.1212P)^2^+4.0832P] where P=(Fo^2^+2Fc^2^)/3'
_atom_sites_solution_primary     direct
_atom_sites_solution_secondary   difmap
_atom_sites_solution_hydrogens   geom
_refine_ls_hydrogen_treatment    mixed
_refine_ls_extinction_method     none
_refine_ls_extinction_coef       ?
_refine_ls_number_reflns         5472
_refine_ls_number_parameters     449
_refine_ls_number_restraints     46
_refine_ls_R_factor_all          0.0762
_refine_ls_R_factor_gt           0.0622
_refine_ls_wR_factor_ref         0.1930
_refine_ls_wR_factor_gt          0.1779
_refine_ls_goodness_of_fit_ref   1.038
_refine_ls_restrained_S_all      1.039
_refine_ls_shift/su_max          0.000
_refine_ls_shift/su_mean         0.000

loop_
_atom_site_label
_atom_site_type_symbol
_atom_site_fract_x
_atom_site_fract_y
_atom_site_fract_z
_atom_site_U_iso_or_equiv
_atom_site_adp_type
_atom_site_occupancy
_atom_site_symmetry_multiplicity
_atom_site_calc_flag
_atom_site_refinement_flags
_atom_site_disorder_assembly
_atom_site_disorder_group
C1G C -0.1115(4) -0.5574(3) -0.1938(6) 0.0776(19) Uani 0.603(4) 1 d PD A 1
H1GA H -0.1486 -0.5745 -0.2652 0.093 Uiso 0.603(4) 1 calc PR A 1
Cl2G Cl -0.1079(2) -0.61451(15) -0.1118(2) 0.1025(10) Uani 0.603(4) 1 d PD A 1
Cl3G Cl -0.13764(16) -0.47688(12) -0.1896(2) 0.1072(9) Uani 0.603(4) 1 d PD A 1
Cl4G Cl -0.02694(13) -0.55328(13) -0.1660(2) 0.1224(11) Uani 0.603(4) 1 d PD A
1
C1I C -0.2322(5) -0.4856(5) -0.1047(8) 0.113(3) Uani 0.603(4) 1 d PDU A 1
O1I O -0.2694(5) -0.5023(5) -0.0689(6) 0.079(2) Uani 0.603(4) 1 d PDU A 1
C1K C 0.012(2) 0.5831(10) -0.274(2) 0.169(14) Uani 0.302(2) 1 d PDU A -1
O1K O 0.0649(15) 0.5523(8) -0.1621(12) 0.236(14) Uani 0.302(2) 1 d PDU A -1
C1H C 0.1636(15) 0.5528(12) 0.2055(19) 0.196(10) Uani 0.397(4) 1 d PDU A 2
H1HA H 0.1904 0.5689 0.2769 0.235 Uiso 0.397(4) 1 calc PR A 2
Cl2H Cl 0.2155(5) 0.5185(4) 0.1827(6) 0.239(5) Uani 0.397(4) 1 d PDU A 2
Cl3H Cl 0.1057(13) 0.6099(9) 0.1118(15) 0.354(10) Uani 0.397(4) 1 d PDU A 2
Cl4H Cl 0.0861(12) 0.4958(9) 0.1542(19) 0.413(12) Uani 0.397(4) 1 d PD A 2
C1J C 0.1730(7) 0.5348(6) -0.0423(12) 0.101(4) Uani 0.397(4) 1 d PDU A 2
O1J O 0.2433(9) 0.5070(11) 0.0251(11) 0.113(6) Uani 0.397(4) 1 d PDU A 2
C1L C -0.013(2) 0.4300(14) -0.248(4) 0.054(12) Uani 0.0992(10) 1 d PDU A -2
O1L O 0.0438(19) 0.4749(14) -0.195(2) 0.209(17) Uani 0.198(2) 1 d PDU A -2
Co1 Co 0.2500 0.2500 0.0000 0.0542(2) Uani 1 2 d S . .
Cl2 Cl 0.23427(5) 0.37147(4) -0.06576(6) 0.0608(3) Uani 1 1 d . . .
N1A N 0.15192(15) 0.22500(15) -0.1462(2) 0.0557(7) Uani 1 1 d . . .
C2A C 0.09822(19) 0.26499(19) -0.2259(3) 0.0609(8) Uani 1 1 d . . .
H2AA H 0.0992 0.3129 -0.2262 0.073 Uiso 1 1 calc R . .
C3A C 0.0437(2) 0.22636(19) -0.3038(3) 0.0623(8) Uani 1 1 d . . .
H3AA H 0.0002 0.2416 -0.3674 0.075 Uiso 1 1 calc R . .
N4A N 0.06427(15) 0.16052(14) -0.2721(2) 0.0560(7) Uani 1 1 d . . .
C5A C 0.12981(18) 0.16317(18) -0.1768(2) 0.0564(8) Uani 1 1 d . . .
H5AA H 0.1566 0.1245 -0.1369 0.068 Uiso 1 1 calc R . .
C6A C 0.02542(18) 0.10000(18) -0.3276(2) 0.0560(8) Uani 1 1 d . . .
C7A C -0.04784(18) 0.10252(18) -0.4096(2) 0.0581(8) Uani 1 1 d . . .
H7AA H -0.0731 0.1443 -0.4309 0.070 Uiso 1 1 calc R . .
C8A C -0.08423(18) 0.04333(19) -0.4608(3) 0.0595(8) Uani 1 1 d . . .
H8AA H -0.1347 0.0452 -0.5176 0.071 Uiso 1 1 calc R . .
C9A C -0.04899(18) -0.01886(18) -0.4315(2) 0.0559(8) Uani 1 1 d . . .
C10A C 0.02538(19) -0.01805(19) -0.3490(3) 0.0616(8) Uani 1 1 d . . .
H10A H 0.0514 -0.0594 -0.3274 0.074 Uiso 1 1 calc R . .
C11A C 0.06226(19) 0.03956(18) -0.2981(3) 0.0619(9) Uani 1 1 d . . .
H11A H 0.1130 0.0382 -0.2428 0.074 Uiso 1 1 calc R . .
N1B N -0.18939(15) -0.27536(15) -0.0452(2) 0.0560(7) Uani 1 1 d . . .
C2B C -0.19645(18) -0.24473(17) -0.1189(3) 0.0539(8) Uani 1 1 d . . .
H2BA H -0.2313 -0.2106 -0.1611 0.065 Uiso 1 1 calc R . .
N3B N -0.14835(14) -0.26749(14) -0.1275(2) 0.0537(6) Uani 1 1 d . . .
C4B C -0.1079(2) -0.31658(19) -0.0531(3) 0.0632(9) Uani 1 1 d . . .
H4BA H -0.0695 -0.3424 -0.0394 0.076 Uiso 1 1 calc R . .
C5B C -0.1340(2) -0.32044(19) -0.0040(3) 0.0633(9) Uani 1 1 d . . .
H5BA H -0.1164 -0.3501 0.0511 0.076 Uiso 1 1 calc R . .
C6B C -0.14269(18) -0.24661(17) -0.2017(2) 0.0534(8) Uani 1 1 d . . .
C7B C -0.17005(17) -0.18457(17) -0.2491(2) 0.0554(8) Uani 1 1 d . . .
H7BA H -0.1904 -0.1550 -0.2303 0.066 Uiso 1 1 calc R . .
C8B C -0.16762(18) -0.16588(17) -0.3240(2) 0.0555(8) Uani 1 1 d . . .
H8BA H -0.1879 -0.1238 -0.3578 0.067 Uiso 1 1 calc R . .
C9B C -0.13600(17) -0.20738(17) -0.3514(2) 0.0542(8) Uani 1 1 d . . .
C10B C -0.10788(17) -0.26820(18) -0.3009(2) 0.0554(8) Uani 1 1 d . . .
H10B H -0.0854 -0.2971 -0.3170 0.066 Uiso 1 1 calc R . .
C11B C -0.11136(17) -0.28851(18) -0.2270(2) 0.0547(8) Uani 1 1 d . . .
H11B H -0.0922 -0.3310 -0.1942 0.066 Uiso 1 1 calc R . .
C1C C -0.08847(17) -0.08580(18) -0.4763(2) 0.0560(8) Uani 1 1 d . . .
C2C C -0.04773(19) -0.13687(18) -0.4891(3) 0.0607(8) Uani 1 1 d . . .
H2CA H -0.0439 -0.1194 -0.5392 0.073 Uiso 1 1 calc R . .
H2CB H 0.0019 -0.1429 -0.4230 0.073 Uiso 1 1 calc R . .
C3C C -0.16597(18) -0.07804(19) -0.5791(2) 0.0608(8) Uani 1 1 d . . .
H3CA H -0.1933 -0.0461 -0.5713 0.073 Uiso 1 1 calc R . .
H3CB H -0.1642 -0.0593 -0.6306 0.073 Uiso 1 1 calc R . .
C4C C -0.09415(17) -0.11475(17) -0.3984(2) 0.0530(7) Uani 1 1 d . . .
H4CA H -0.0449 -0.1199 -0.3313 0.064 Uiso 1 1 calc R . .
H4CB H -0.1211 -0.0826 -0.3900 0.064 Uiso 1 1 calc R . .
C5C C -0.13269(17) -0.18339(17) -0.4325(2) 0.0547(8) Uani 1 1 d . . .
C6C C -0.20462(18) -0.1463(2) -0.6158(2) 0.0613(9) Uani 1 1 d . . .
H6CA H -0.2547 -0.1402 -0.6827 0.074 Uiso 1 1 calc R . .
C7C C -0.08654(18) -0.2047(2) -0.5256(2) 0.0614(9) Uani 1 1 d . . .
H7CA H -0.0589 -0.2370 -0.5335 0.074 Uiso 1 1 calc R . .
C8C C -0.09093(18) -0.23280(18) -0.4465(3) 0.0571(8) Uani 1 1 d . . .
H8CA H -0.1158 -0.2771 -0.4698 0.068 Uiso 1 1 calc R . .
H8CB H -0.0415 -0.2395 -0.3804 0.068 Uiso 1 1 calc R . .
C9C C -0.20918(18) -0.17416(19) -0.5366(2) 0.0579(8) Uani 1 1 d . . .
H9CA H -0.2371 -0.1425 -0.5294 0.070 Uiso 1 1 calc R . .
H9CB H -0.2347 -0.2181 -0.5605 0.070 Uiso 1 1 calc R . .
C10C C -0.16326(19) -0.1961(2) -0.6288(3) 0.0663(9) Uani 1 1 d . . .
H10C H -0.1608 -0.1790 -0.6804 0.080 Uiso 1 1 calc R . .
H10D H -0.1885 -0.2402 -0.6526 0.080 Uiso 1 1 calc R . .

loop_
_atom_site_aniso_label
_atom_site_aniso_U_11
_atom_site_aniso_U_22
_atom_site_aniso_U_33
_atom_site_aniso_U_23
_atom_site_aniso_U_13
_atom_site_aniso_U_12
C1G 0.095(5) 0.053(4) 0.074(4) -0.001(3) 0.051(4) 0.004(3)
Cl2G 0.161(2) 0.0856(17) 0.1062(19) 0.0329(15) 0.107(2) 0.0477(16)
Cl3G 0.127(2) 0.0647(12) 0.1248(18) 0.0084(11) 0.0795(16) 0.0159(12)
Cl4G 0.0957(16) 0.1065(17) 0.159(2) 0.0072(15) 0.0801(17) 0.0077(12)
C1I 0.095(6) 0.132(7) 0.127(7) -0.042(6) 0.079(6) -0.019(5)
O1I 0.079(5) 0.085(4) 0.080(5) -0.034(4) 0.054(5) -0.019(4)
C1K 0.23(3) 0.069(11) 0.17(3) -0.008(14) 0.12(2) -0.018(17)
O1K 0.34(3) 0.088(10) 0.099(10) 0.007(8) 0.061(14) -0.076(14)
C1H 0.29(3) 0.19(2) 0.20(2) 0.072(17) 0.20(2) 0.10(2)
Cl2H 0.260(9) 0.193(6) 0.165(6) 0.019(5) 0.096(6) 0.069(6)
Cl3H 0.53(3) 0.226(14) 0.296(16) 0.005(12) 0.264(19) 0.067(16)
Cl4H 0.55(3) 0.295(15) 0.66(3) -0.221(19) 0.52(3) -0.235(18)
C1J 0.082(8) 0.082(7) 0.127(10) -0.037(7) 0.062(8) -0.015(6)
O1J 0.110(12) 0.134(10) 0.081(9) -0.050(9) 0.056(9) -0.053(9)
C1L 0.05(3) 0.032(13) 0.08(2) 0.010(19) 0.04(2) -0.008(14)
O1L 0.27(4) 0.123(19) 0.14(2) 0.055(17) 0.09(2) 0.03(2)
Co1 0.0645(4) 0.0616(4) 0.0489(4) -0.0030(3) 0.0424(3) -0.0085(3)
Cl2 0.0737(6) 0.0607(5) 0.0573(5) -0.0014(4) 0.0467(5) -0.0076(4)
N1A 0.0635(16) 0.0653(17) 0.0494(15) -0.0039(13) 0.0417(14) -0.0083(13)
C2A 0.071(2) 0.063(2) 0.058(2) -0.0019(16) 0.0465(19) -0.0019(17)
C3A 0.067(2) 0.068(2) 0.058(2) 0.0012(17) 0.0434(18) 0.0023(17)
N4A 0.0625(16) 0.0661(17) 0.0510(15) -0.0006(12) 0.0421(14) -0.0058(13)
C5A 0.0605(19) 0.066(2) 0.0492(18) 0.0017(15) 0.0385(16) -0.0048(16)
C6A 0.061(2) 0.072(2) 0.0500(17) -0.0017(15) 0.0427(17) -0.0087(16)
C7A 0.061(2) 0.070(2) 0.0572(19) -0.0013(16) 0.0450(18) -0.0008(16)
C8A 0.0542(18) 0.081(2) 0.0517(18) -0.0058(16) 0.0384(16) -0.0068(17)
C9A 0.0591(19) 0.073(2) 0.0479(17) 0.0025(15) 0.0403(16) -0.0065(16)
C10A 0.0595(19) 0.065(2) 0.0559(19) 0.0044(16) 0.0354(17) -0.0046(16)
C11A 0.0587(19) 0.069(2) 0.0530(18) 0.0021(16) 0.0342(17) -0.0074(17)
N1B 0.0622(16) 0.0647(17) 0.0499(15) -0.0051(13) 0.0404(14) -0.0091(13)
C2B 0.0583(19) 0.063(2) 0.0498(18) -0.0029(14) 0.0394(16) -0.0058(14)
N3B 0.0583(15) 0.0630(16) 0.0474(14) -0.0034(12) 0.0378(13) -0.0085(12)
C4B 0.070(2) 0.071(2) 0.0593(19) 0.0057(17) 0.0469(18) 0.0049(17)
C5B 0.077(2) 0.067(2) 0.0556(19) 0.0063(16) 0.0470(18) 0.0038(18)
C6B 0.0551(18) 0.065(2) 0.0455(17) -0.0079(14) 0.0353(15) -0.0120(14)
C7B 0.0608(19) 0.062(2) 0.0557(18) -0.0064(15) 0.0433(16) -0.0059(15)
C8B 0.0611(19) 0.0587(19) 0.0554(18) -0.0020(14) 0.0418(16) -0.0069(15)
C9B 0.0520(17) 0.065(2) 0.0489(16) -0.0078(15) 0.0345(15) -0.0106(15)
C10B 0.0545(18) 0.066(2) 0.0526(18) -0.0057(15) 0.0380(16) -0.0045(15)
C11B 0.0535(17) 0.063(2) 0.0499(17) -0.0025(14) 0.0349(15) -0.0044(15)
C1C 0.0560(18) 0.073(2) 0.0446(16) -0.0025(15) 0.0351(15) -0.0079(15)
C2C 0.0610(19) 0.082(2) 0.0508(18) -0.0045(16) 0.0417(17) -0.0097(17)
C3C 0.0586(19) 0.079(2) 0.0449(17) 0.0033(16) 0.0338(16) -0.0066(17)
C4C 0.0533(17) 0.069(2) 0.0434(16) -0.0008(14) 0.0342(15) -0.0036(14)
C5C 0.0537(17) 0.070(2) 0.0486(17) -0.0041(15) 0.0369(15) -0.0066(15)
C6C 0.0554(19) 0.083(2) 0.0441(17) -0.0005(16) 0.0315(15) -0.0111(17)
C7C 0.063(2) 0.079(2) 0.0553(19) -0.0114(16) 0.0445(17) -0.0083(17)
C8C 0.0575(19) 0.070(2) 0.0518(18) -0.0082(15) 0.0390(16) -0.0078(15)
C9C 0.0560(18) 0.071(2) 0.0518(17) -0.0046(15) 0.0374(16) -0.0096(15)
C10C 0.070(2) 0.087(3) 0.0536(19) -0.0121(17) 0.0456(18) -0.0194(18)

_geom_special_details            
; 
 All esds (except the esd in the dihedral angle between two l.s. planes) 
 are estimated using the full covariance matrix.  The cell esds are taken 
 into account individually in the estimation of esds in distances, angles 
 and torsion angles; correlations between esds in cell parameters are only 
 used when they are defined by crystal symmetry.  An approximate (isotropic) 
 treatment of cell esds is used for estimating esds involving l.s. planes. 
;

loop_
_geom_bond_atom_site_label_1
_geom_bond_atom_site_label_2
_geom_bond_distance
_geom_bond_site_symmetry_2
_geom_bond_publ_flag
C1G Cl3G 1.735(7) . ?
C1G Cl2G 1.770(8) . ?
C1G Cl4G 1.785(9) . ?
C1I O1I 1.427(15) . ?
C1K O1K 1.59(3) . ?
C1H Cl2H 1.69(2) . ?
C1H Cl3H 1.71(2) . ?
C1H Cl4H 1.85(3) . ?
C1J O1J 1.41(2) . ?
C1L O1L 1.37(4) . ?
Co1 N1A 2.113(3) . ?
Co1 N1A 2.113(3) 7 ?
Co1 N1B 2.130(3) 5 ?
Co1 N1B 2.130(3) 3 ?
Co1 Cl2 2.5811(9) 7 ?
Co1 Cl2 2.5811(9) . ?
N1A C5A 1.304(4) . ?
N1A C2A 1.373(5) . ?
C2A C3A 1.353(5) . ?
C3A N4A 1.377(5) . ?
N4A C5A 1.354(4) . ?
N4A C6A 1.439(4) . ?
C6A C7A 1.378(5) . ?
C6A C11A 1.379(5) . ?
C7A C8A 1.386(5) . ?
C8A C9A 1.395(5) . ?
C9A C10A 1.395(5) . ?
C9A C1C 1.521(5) . ?
C10A C11A 1.361(5) . ?
N1B C2B 1.315(4) . ?
N1B C5B 1.368(5) . ?
N1B Co1 2.130(3) 3_445 ?
C2B N3B 1.350(4) . ?
N3B C4B 1.384(4) . ?
N3B C6B 1.435(4) . ?
C4B C5B 1.353(5) . ?
C6B C11B 1.377(5) . ?
C6B C7B 1.384(5) . ?
C7B C8B 1.382(4) . ?
C8B C9B 1.402(5) . ?
C9B C10B 1.380(5) . ?
C9B C5C 1.530(4) . ?
C10B C11B 1.391(5) . ?
C1C C2C 1.530(5) . ?
C1C C3C 1.539(4) . ?
C1C C4C 1.5