
#######################################################################
#
#                 Cambridge Crystallographic Data Centre
#                                CCDC
#
#######################################################################
#
# If this CIF has been generated from an entry in the Cambridge
# Structural Database, then it will include bibliographic, chemical,
# crystal, experimental, refinement or atomic coordinate data resulting
# from the CCDC's data processing and validation procedures.
#
#######################################################################

data_CSD_CIF_MORPHM
_audit_creation_date 1976-12-25
_audit_creation_method CSD-ConQuest-V1
_database_code_CSD MORPHM
_database_code_depnum_ccdc_archive 'CCDC 1213435'
_chemical_formula_sum 'C17 H21 N1 O4'
_chemical_formula_moiety
;
C17 H19 N1 O3,H2 O1
;
_journal_coden_Cambridge 3
_journal_volume 30
_journal_year 1976
_journal_page_first 549
_journal_name_full 'Acta Chem.Scand. '
loop_
_publ_author_name
"E.Bye"
_chemical_name_systematic
;
(-)-Morphine monohydrate
;
_chemical_name_common
;
Teaching Subset: Fundamental Chemistry, Drug Molecules
;
_cell_volume   1524.073
_exptl_crystal_density_diffrn 1.32
_exptl_special_details
;
powerful narcotic analgesic agent, principal alkaloid of opium

;
_diffrn_ambient_temperature ?
_diffrn_special_details
;
The study was carried out at room temperature,in the range 283-303K

;
#These two values have been output from a single CSD field.
_refine_ls_R_factor_gt 0.045
_refine_ls_wR_factor_gt 0.045
_symmetry_cell_setting orthorhombic
_symmetry_space_group_name_H-M 'P 21 21 21'
_symmetry_Int_Tables_number 19
loop_
_symmetry_equiv_pos_site_id
_symmetry_equiv_pos_as_xyz
1 x,y,z
2 1/2+x,1/2-y,-z
3 -x,1/2+y,1/2-z
4 1/2-x,-y,1/2+z
_cell_length_a 7.438(1)
_cell_length_b 13.751(3)
_cell_length_c 14.901(3)
_cell_angle_alpha 90
_cell_angle_beta 90
_cell_angle_gamma 90
_cell_formula_units_Z 4
loop_
_atom_type_symbol
_atom_type_radius_bond
C 0.68
H 0.23
N 0.68
O 0.68
loop_
_atom_site_label
_atom_site_type_symbol
_atom_site_fract_x
_atom_site_fract_y
_atom_site_fract_z
C1 C 0.30680 0.28210 0.08110
C2 C 0.13240 0.44420 0.08400
C3 C 0.17960 0.34390 0.11960
C4 C 0.11390 0.31790 0.20230
C5 C -0.00720 0.37730 0.26230
C6 C 0.04560 0.48430 0.24680
C7 C -0.20700 0.36400 0.23950
C8 C -0.24940 0.39980 0.14490
C9 C -0.23320 0.53450 0.04050
C10 C 0.36630 0.20040 0.12660
C11 C 0.30720 0.17770 0.21340
C12 C 0.17950 0.24010 0.24920
C13 C 0.04340 0.33440 0.35540
C14 C 0.17470 0.39790 0.40780
C15 C 0.29740 0.45690 0.34840
C16 C 0.23680 0.49990 0.27590
C17 C 0.01310 0.50680 0.14730
H1 H 0.35800 0.29900 0.02100
H2 H 0.22300 0.32000 0.50800
H3 H 0.47400 0.15700 0.10000
H4 H 0.08000 0.44400 0.44000
H5 H 0.31900 0.54800 0.24300
H6 H 0.08400 0.44200 0.02700
H7 H -0.02700 0.52900 0.27900
H8 H -0.24000 0.28900 0.24700
H9 H -0.20400 0.34700 0.09900
H10 H -0.36800 0.54800 0.04400
H11 H -0.07000 0.32100 0.38600
H12 H 0.29200 0.06300 0.30100
H13 H 0.42600 0.46500 0.36800
H14 H 0.04200 0.58300 0.13700
H15 H 0.25000 0.47800 0.07400
H16 H -0.27600 0.40500 0.28400
H17 H -0.38600 0.40000 0.13600
H18 H -0.19000 0.49300 -0.01000
H19 H -0.19200 0.60100 0.03400
N1 N -0.18200 0.49950 0.13050
O1 O 0.38380 0.10400 0.26070
O2 O 0.27920 0.34510 0.47030
O3 O 0.12310 0.23850 0.33740
H20 H 0.48100 0.26400 0.42800
H21 H 0.52900 0.19500 0.36600
O4 O 0.55440 0.22600 0.40470
#END
