####################################################################### 
# 
# This file contains crystal structure data downloaded from the 
# Cambridge Structural Database (CSD) hosted by the Cambridge 
# Crystallographic Data Centre (CCDC).
# 
# Full information about CCDC data access policies and citation 
# guidelines are available at http://www.ccdc.cam.ac.uk/access/V1 
# 
# Audit and citation data items may have been added by the CCDC. 
# Please retain this information to preserve the provenance of 
# this file and to allow appropriate attribution of the data. 
# 
#######################################################################

data_complex
_audit_block_doi                 10.5517/cc142s44
_database_code_depnum_ccdc_archive 'CCDC 1045355'
loop_
_citation_id
_citation_doi
_citation_year
1 10.1039/C5DT01061F 2015
_audit_update_record             
;
2015-01-24 deposited with the CCDC.	2024-07-11 downloaded from the CCDC.
;

_audit_creation_method           SHELXL-2013
_chemical_name_systematic        
; 
 ? 
;
_chemical_name_common            ?
_chemical_melting_point          ?
_chemical_formula_moiety         ?
_chemical_formula_sum            'C52 H75 Ag F3 N6 O6 Rh3 S7'
_chemical_formula_weight         1578.20

loop_
_atom_type_symbol
_atom_type_description
_atom_type_scat_dispersion_real
_atom_type_scat_dispersion_imag
_atom_type_scat_source
C C 0.0033 0.0016 'International Tables Vol C Tables 4.2.6.8 and 6.1.1.4'
H H 0.0000 0.0000 'International Tables Vol C Tables 4.2.6.8 and 6.1.1.4'
N N 0.0061 0.0033 'International Tables Vol C Tables 4.2.6.8 and 6.1.1.4'
O O 0.0106 0.0060 'International Tables Vol C Tables 4.2.6.8 and 6.1.1.4'
S S 0.1246 0.1234 'International Tables Vol C Tables 4.2.6.8 and 6.1.1.4'
Rh Rh -1.1178 0.9187 'International Tables Vol C Tables 4.2.6.8 and 6.1.1.4'
Ag Ag -0.8971 1.1015 'International Tables Vol C Tables 4.2.6.8 and 6.1.1.4'
F F 0.0171 0.0103 'International Tables Vol C Tables 4.2.6.8 and 6.1.1.4'

_space_group_crystal_system      orthorhombic
_space_group_IT_number           60
_space_group_name_H-M_alt        'P b c n'
_space_group_name_Hall           '-P 2n 2ab'

_shelx_space_group_comment       
; 
The symmetry employed for this shelxl refinement is uniquely defined 
by the following loop, which should always be used as a source of 
symmetry information in preference to the above space-group names. 
They are only intended as comments. 
;

loop_
_space_group_symop_operation_xyz
'x, y, z'
'-x+1/2, -y+1/2, z+1/2'
'-x, y, -z+1/2'
'x+1/2, -y+1/2, -z'
'-x, -y, -z'
'x-1/2, y-1/2, -z-1/2'
'x, -y, z-1/2'
'-x-1/2, y-1/2, z'

_cell_length_a                   25.2150(14)
_cell_length_b                   16.4859(10)
_cell_length_c                   28.9810(17)
_cell_angle_alpha                90
_cell_angle_beta                 90
_cell_angle_gamma                90
_cell_volume                     12047.2(12)
_cell_formula_units_Z            8
_cell_measurement_temperature    193(2)
_cell_measurement_reflns_used    9570
_cell_measurement_theta_min      2.47
_cell_measurement_theta_max      25.20

_exptl_crystal_description       block
_exptl_crystal_colour            red
_exptl_crystal_density_meas      ?
_exptl_crystal_density_method    ?
_exptl_crystal_density_diffrn    1.740
_exptl_crystal_F_000             6384
_exptl_transmission_factor_min   ?
_exptl_transmission_factor_max   ?
_exptl_crystal_size_max          0.240
_exptl_crystal_size_mid          0.160
_exptl_crystal_size_min          0.110
_exptl_absorpt_coefficient_mu    1.432
_shelx_estimated_absorpt_T_min   0.725
_shelx_estimated_absorpt_T_max   0.858
_exptl_absorpt_correction_type   multi-scan
_exptl_absorpt_correction_T_min  0.628
_exptl_absorpt_correction_T_max  0.745
_exptl_absorpt_process_details   sadabs

_exptl_special_details           
; 
 ? 
;

_diffrn_ambient_temperature      193(2)
_diffrn_radiation_wavelength     0.71073
_diffrn_radiation_type           MoK\a
_diffrn_source                   ?
_diffrn_measurement_device_type  'Bruker APEX-II CCD'
_diffrn_measurement_method       '\f and \w scans'
_diffrn_detector_area_resol_mean ?
_diffrn_reflns_number            57878
_diffrn_reflns_av_unetI/netI     0.0620
_diffrn_reflns_av_R_equivalents  0.0649
_diffrn_reflns_limit_h_min       -30
_diffrn_reflns_limit_h_max       31
_diffrn_reflns_limit_k_min       -8
_diffrn_reflns_limit_k_max       20
_diffrn_reflns_limit_l_min       -36
_diffrn_reflns_limit_l_max       35
_diffrn_reflns_theta_min         1.405
_diffrn_reflns_theta_max         26.602
_diffrn_reflns_theta_full        25.242
_diffrn_measured_fraction_theta_max 0.993
_diffrn_measured_fraction_theta_full 0.994
_diffrn_reflns_Laue_measured_fraction_max 0.993
_diffrn_reflns_Laue_measured_fraction_full 0.994
_diffrn_reflns_point_group_measured_fraction_max 0.993
_diffrn_reflns_point_group_measured_fraction_full 0.994
_reflns_number_total             12532
_reflns_number_gt                7434
_reflns_threshold_expression     'I > 2\s(I)'
_reflns_Friedel_coverage         0.000
_reflns_Friedel_fraction_max     .
_reflns_Friedel_fraction_full    .

_reflns_special_details          
; 
 Reflections were merged by SHELXL according to the crystal 
 class for the calculation of statistics and refinement. 
  
 _reflns_Friedel_fraction is defined as the number of unique 
 Friedel pairs measured divided by the number that would be 
 possible theoretically, ignoring centric projections and 
 systematic absences. 
;

_computing_data_collection       'Bruker APEX2'
_computing_cell_refinement       'Bruker SAINT'
_computing_data_reduction        'Bruker SAINT'
_computing_structure_solution    'SHELXS-97 (Sheldrick, 2008)'
_computing_structure_refinement  'SHELXL-2013 (Sheldrick, 2013)'
_computing_molecular_graphics    'Bruker SHELXTL'
_computing_publication_material  'Bruker SHELXTL'

_refine_special_details          
; 
 3 ISOR and 2 DFIX instructions were used to restrain Cp* 
 fragments so that there were 20 restraints in the data. 
;
_refine_ls_structure_factor_coef Fsqd
_refine_ls_matrix_type           full
_refine_ls_weighting_scheme      calc
_refine_ls_weighting_details     
; 
 w=1/[\s^2^(Fo^2^)+(0.0971P)^2^] 
 where P=(Fo^2^+2Fc^2^)/3 
;
_atom_sites_solution_primary     ?
_atom_sites_solution_secondary   ?
_atom_sites_solution_hydrogens   geom
_refine_ls_hydrogen_treatment    constr
_refine_ls_extinction_method     none
_refine_ls_extinction_coef       .
_refine_ls_number_reflns         12532
_refine_ls_number_parameters     538
_refine_ls_number_restraints     20
_refine_ls_R_factor_all          0.0927
_refine_ls_R_factor_gt           0.0558
_refine_ls_wR_factor_ref         0.1609
_refine_ls_wR_factor_gt          0.1459
_refine_ls_goodness_of_fit_ref   0.944
_refine_ls_restrained_S_all      0.946
_refine_ls_shift/su_max          0.001
_refine_ls_shift/su_mean         0.000

loop_
_platon_squeeze_void_nr
_platon_squeeze_void_average_x
_platon_squeeze_void_average_y
_platon_squeeze_void_average_z
_platon_squeeze_void_volume
_platon_squeeze_void_count_electrons
1 -0.003 -0.020 -0.010 4292.3 1851.8
_platon_squeeze_details          
; 
 In asymmetric unit of this data, there were disordered 
 anion and solvents (one triflate anion, two diethyl ether 
 and one methanol molecules) which could not be restrained 
 properly. Therefore, SQUEEZE algorithm was used to omit 
 them. 
;

loop_
_atom_site_label
_atom_site_type_symbol
_atom_site_fract_x
_atom_site_fract_y
_atom_site_fract_z
_atom_site_U_iso_or_equiv
_atom_site_adp_type
_atom_site_occupancy
_atom_site_site_symmetry_order
_atom_site_calc_flag
_atom_site_refinement_flags_posn
_atom_site_refinement_flags_adp
_atom_site_refinement_flags_occupancy
_atom_site_disorder_assembly
_atom_site_disorder_group
Ag1 Ag 0.51851(2) 0.88361(3) 0.17603(2) 0.05797(17) Uani 1 1 d . . . . .
Rh1 Rh 0.52555(2) 0.90075(3) 0.00815(2) 0.04701(15) Uani 1 1 d . . . . .
Rh2 Rh 0.31252(2) 0.79456(3) 0.16361(2) 0.05347(16) Uani 1 1 d . . . . .
Rh3 Rh 0.27469(2) 0.86801(3) 0.27340(2) 0.04035(14) Uani 1 1 d . . . . .
N1 N 0.6095(2) 1.1104(4) 0.07405(19) 0.0586(15) Uani 1 1 d . . . . .
N2 N 0.56172(19) 1.0175(3) 0.14393(16) 0.0429(12) Uani 1 1 d . . . . .
N3 N 0.44884(19) 0.9623(3) 0.19639(17) 0.0407(11) Uani 1 1 d . . . . .
N4 N 0.35487(19) 1.0477(3) 0.21138(17) 0.0427(12) Uani 1 1 d . . . . .
N5 N 0.4397(2) 0.7719(3) 0.3019(2) 0.0522(13) Uani 1 1 d . . . . .
N6 N 0.3824(2) 0.6511(3) 0.2580(2) 0.0652(16) Uani 1 1 d . . . . .
S1 S 0.55876(7) 1.03504(10) 0.00567(5) 0.0462(4) Uani 1 1 d . . . . .
S2 S 0.50565(7) 0.92940(11) 0.08624(5) 0.0520(4) Uani 1 1 d . . . . .
S3 S 0.40245(7) 0.82459(10) 0.17609(7) 0.0584(5) Uani 1 1 d . . . . .
S4 S 0.29275(6) 0.92042(9) 0.19731(6) 0.0442(4) Uani 1 1 d . . . . .
S5 S 0.36208(6) 0.87896(9) 0.29863(6) 0.0463(4) Uani 1 1 d . . . . .
S6 S 0.29827(6) 0.74272(9) 0.24036(6) 0.0448(4) Uani 1 1 d . . . . .
C1 C 0.5750(3) 1.0518(4) 0.0644(2) 0.0440(14) Uani 1 1 d . . . . .
C2 C 0.5506(2) 1.0049(4) 0.0991(2) 0.0431(14) Uani 1 1 d . . . . .
C3 C 0.5957(2) 1.0783(4) 0.1522(2) 0.0519(16) Uani 1 1 d . . . . .
H3 H 0.6035 1.0912 0.1834 0.062 Uiso 1 1 calc R U . . .
C4 C 0.6194(3) 1.1220(4) 0.1191(3) 0.0616(19) Uani 1 1 d . . . . .
H4 H 0.6442 1.1627 0.1279 0.074 Uiso 1 1 calc R U . . .
C5 C 0.4016(2) 0.9258(4) 0.1919(2) 0.0406(13) Uani 1 1 d . . . . .
C6 C 0.3551(2) 0.9693(3) 0.1996(2) 0.0380(13) Uani 1 1 d . . . . .
C7 C 0.4032(3) 1.0829(4) 0.2140(2) 0.0468(15) Uani 1 1 d . . . . .
H7 H 0.4052 1.1392 0.2209 0.056 Uiso 1 1 calc R U . . .
C8 C 0.4493(2) 1.0412(4) 0.2073(2) 0.0428(14) Uani 1 1 d . . . . .
H8 H 0.4822 1.0686 0.2104 0.051 Uiso 1 1 calc R U . . .
C9 C 0.3892(3) 0.7843(4) 0.2874(2) 0.0486(15) Uani 1 1 d . . . . .
C10 C 0.3613(2) 0.7225(3) 0.2645(2) 0.0455(15) Uani 1 1 d . . . . .
C11 C 0.4306(3) 0.6383(5) 0.2744(3) 0.073(2) Uani 1 1 d . . . . .
H11 H 0.4459 0.5860 0.2714 0.088 Uiso 1 1 calc R U . . .
C12 C 0.4589(3) 0.6975(4) 0.2956(3) 0.068(2) Uani 1 1 d . . . . .
H12 H 0.4936 0.6855 0.3063 0.081 Uiso 1 1 calc R U . . .
C13 C 0.5142(3) 0.7766(4) -0.0195(2) 0.064(2) Uani 1 1 d . . . . .
C14 C 0.5443(3) 0.8248(4) -0.0516(2) 0.0592(18) Uani 1 1 d . . . . .
C15 C 0.5911(3) 0.8502(5) -0.0301(3) 0.071(2) Uani 1 1 d . . . . .
C16 C 0.5911(4) 0.8197(5) 0.0159(3) 0.076(2) Uani 1 1 d . . . . .
C17 C 0.5434(4) 0.7734(5) 0.0221(3) 0.084(3) Uani 1 1 d . . . . .
C18 C 0.4636(4) 0.7356(6) -0.0283(4) 0.099(3) Uani 1 1 d . . . . .
H18A H 0.4655 0.6797 -0.0169 0.149 Uiso 1 1 calc R U . . .
H18B H 0.4565 0.7351 -0.0616 0.149 Uiso 1 1 calc R U . . .
H18C H 0.4350 0.7645 -0.0123 0.149 Uiso 1 1 calc R U . . .
C19 C 0.5308(4) 0.8351(5) -0.1021(2) 0.085(3) Uani 1 1 d . . . . .
H19A H 0.5410 0.8896 -0.1123 0.127 Uiso 1 1 calc R U . . .
H19B H 0.4926 0.8277 -0.1065 0.127 Uiso 1 1 calc R U . . .
H19C H 0.5501 0.7946 -0.1204 0.127 Uiso 1 1 calc R U . . .
C20 C 0.6339(4) 0.9003(7) -0.0534(4) 0.111(4) Uani 1 1 d . . . . .
H20A H 0.6454 0.9436 -0.0326 0.166 Uiso 1 1 calc R U . . .
H20B H 0.6196 0.9242 -0.0818 0.166 Uiso 1 1 calc R U . . .
H20C H 0.6641 0.8654 -0.0610 0.166 Uiso 1 1 calc R U . . .
C21 C 0.6340(4) 0.8269(7) 0.0512(4) 0.119(4) Uani 1 1 d . . . . .
H21A H 0.6529 0.7751 0.0537 0.179 Uiso 1 1 calc R U . . .
H21B H 0.6183 0.8407 0.0811 0.179 Uiso 1 1 calc R U . . .
H21C H 0.6589 0.8695 0.0419 0.179 Uiso 1 1 calc R U . . .
C22 C 0.5294(5) 0.7245(6) 0.0646(3) 0.110(4) Uani 1 1 d . . . . .
H22A H 0.5253 0.6673 0.0562 0.165 Uiso 1 1 calc R U . . .
H22B H 0.4960 0.7447 0.0777 0.165 Uiso 1 1 calc R U . . .
H22C H 0.5577 0.7299 0.0875 0.165 Uiso 1 1 calc R U . . .
C23 C 0.3125(4) 0.7981(6) 0.0894(3) 0.080(3) Uani 1 1 d . . . . .
C24 C 0.3262(4) 0.7164(7) 0.1051(4) 0.105(4) Uani 1 1 d D . . . .
C25 C 0.2788(5) 0.6901(5) 0.1295(3) 0.081(3) Uani 1 1 d D . . . .
C26 C 0.2418(5) 0.7522(8) 0.1277(4) 0.104(3) Uani 1 1 d D . . . .
C27 C 0.2592(5) 0.8142(7) 0.1030(4) 0.100(3) Uani 1 1 d D . . . .
C28 C 0.3430(6) 0.8569(9) 0.0596(4) 0.168(6) Uani 1 1 d . U . . .
H28A H 0.3791 0.8627 0.0717 0.251 Uiso 1 1 calc R U . . .
H28B H 0.3252 0.9098 0.0600 0.251 Uiso 1 1 calc R U . . .
H28C H 0.3445 0.8364 0.0279 0.251 Uiso 1 1 calc R U . . .
C29 C 0.3786(7) 0.6742(12) 0.0947(5) 0.197(8) Uani 1 1 d . . . . .
H29A H 0.3815 0.6647 0.0614 0.296 Uiso 1 1 calc R U . . .
H29B H 0.3799 0.6222 0.1111 0.296 Uiso 1 1 calc R U . . .
H29C H 0.4080 0.7086 0.1049 0.296 Uiso 1 1 calc R U . . .
C30 C 0.2734(7) 0.6061(6) 0.1494(4) 0.152(6) Uani 1 1 d . U . . .
H30A H 0.2547 0.6091 0.1790 0.228 Uiso 1 1 calc R U . . .
H30B H 0.3088 0.5828 0.1542 0.228 Uiso 1 1 calc R U . . .
H30C H 0.2533 0.5719 0.1280 0.228 Uiso 1 1 calc R U . . .
C31 C 0.1839(5) 0.7390(11) 0.1475(5) 0.171(7) Uani 1 1 d . U . . .
H31A H 0.1766 0.7800 0.1711 0.257 Uiso 1 1 calc R U . . .
H31B H 0.1813 0.6848 0.1611 0.257 Uiso 1 1 calc R U . . .
H31C H 0.1581 0.7441 0.1224 0.257 Uiso 1 1 calc R U . . .
C32 C 0.2297(7) 0.8875(9) 0.0917(5) 0.171(7) Uani 1 1 d . . . . .
H32A H 0.2139 0.8819 0.0610 0.256 Uiso 1 1 calc R U . . .
H32B H 0.2537 0.9342 0.0920 0.256 Uiso 1 1 calc R U . . .
H32C H 0.2015 0.8957 0.1146 0.256 Uiso 1 1 calc R U . . .
C33 C 0.2247(2) 0.9637(4) 0.3008(2) 0.0470(15) Uani 1 1 d . . . . .
C34 C 0.1915(3) 0.9096(4) 0.2749(2) 0.0525(17) Uani 1 1 d . . . . .
C35 C 0.1946(2) 0.8327(4) 0.2946(2) 0.0451(15) Uani 1 1 d . . . . .
C36 C 0.2298(3) 0.8373(4) 0.3335(2) 0.0525(16) Uani 1 1 d . . . . .
C37 C 0.2464(3) 0.9198(4) 0.3379(2) 0.0504(16) Uani 1 1 d . . . . .
C38 C 0.2332(3) 1.0532(4) 0.2922(3) 0.067(2) Uani 1 1 d . . . . .
H38A H 0.2067 1.0845 0.3093 0.101 Uiso 1 1 calc R U . . .
H38B H 0.2297 1.0645 0.2591 0.101 Uiso 1 1 calc R U . . .
H38C H 0.2688 1.0687 0.3025 0.101 Uiso 1 1 calc R U . . .
C39 C 0.1575(3) 0.9335(4) 0.2344(3) 0.0635(19) Uani 1 1 d . . . . .
H39A H 0.1265 0.9637 0.2455 0.095 Uiso 1 1 calc R U . . .
H39B H 0.1456 0.8846 0.2182 0.095 Uiso 1 1 calc R U . . .
H39C H 0.1781 0.9676 0.2134 0.095 Uiso 1 1 calc R U . . .
C40 C 0.1654(3) 0.7590(4) 0.2794(3) 0.0590(18) Uani 1 1 d . . . . .
H40A H 0.1338 0.7517 0.2986 0.088 Uiso 1 1 calc R U . . .
H40B H 0.1884 0.7114 0.2825 0.088 Uiso 1 1 calc R U . . .
H40C H 0.1547 0.7652 0.2471 0.088 Uiso 1 1 calc R U . . .
C41 C 0.2419(4) 0.7707(5) 0.3678(3) 0.081(3) Uani 1 1 d . . . . .
H41A H 0.2782 0.7772 0.3793 0.122 Uiso 1 1 calc R U . . .
H41B H 0.2384 0.7178 0.3526 0.122 Uiso 1 1 calc R U . . .
H41C H 0.2169 0.7739 0.3936 0.122 Uiso 1 1 calc R U . . .
C42 C 0.2778(3) 0.9553(5) 0.3775(3) 0.072(2) Uani 1 1 d . . . . .
H42A H 0.2859 1.0123 0.3710 0.108 Uiso 1 1 calc R U . . .
H42B H 0.3110 0.9249 0.3812 0.108 Uiso 1 1 calc R U . . .
H42C H 0.2570 0.9515 0.4060 0.108 Uiso 1 1 calc R U . . .

loop_
_atom_site_aniso_label
_atom_site_aniso_U_11
_atom_site_aniso_U_22
_atom_site_aniso_U_33
_atom_site_aniso_U_23
_atom_site_aniso_U_13
_atom_site_aniso_U_12
Ag1 0.0373(3) 0.0597(3) 0.0769(4) 0.0229(3) 0.0060(2) 0.0106(2)
Rh1 0.0616(3) 0.0460(3) 0.0335(3) -0.0047(2) -0.0035(2) -0.0034(2)
Rh2 0.0603(4) 0.0410(3) 0.0591(3) -0.0042(2) 0.0087(3) -0.0172(2)
Rh3 0.0305(3) 0.0354(2) 0.0552(3) 0.0020(2) 0.0007(2) -0.0062(2)
N1 0.057(4) 0.075(4) 0.044(3) 0.002(3) 0.003(3) -0.013(3)
N2 0.040(3) 0.055(3) 0.033(3) -0.007(2) -0.005(2) 0.005(2)
N3 0.034(3) 0.039(3) 0.049(3) 0.007(2) -0.002(2) 0.000(2)
N4 0.040(3) 0.033(3) 0.055(3) 0.005(2) 0.002(2) -0.001(2)
N5 0.034(3) 0.053(3) 0.069(4) -0.002(3) 0.001(3) -0.008(3)
N6 0.050(4) 0.043(3) 0.102(5) -0.010(3) 0.003(3) -0.005(3)
S1 0.0548(10) 0.0529(9) 0.0310(8) -0.0029(6) 0.0042(7) -0.0099(8)
S2 0.0652(11) 0.0604(10) 0.0303(8) -0.0016(7) -0.0020(7) -0.0170(9)
S3 0.0488(10) 0.0361(8) 0.0904(14) -0.0061(8) 0.0236(9) -0.0037(7)
S4 0.0334(8) 0.0403(8) 0.0591(10) 0.0054(7) 0.0013(7) -0.0060(6)
S5 0.0346(8) 0.0396(8) 0.0646(11) -0.0060(7) -0.0021(7) -0.0059(7)
S6 0.0392(8) 0.0348(8) 0.0604(10) -0.0017(7) -0.0001(7) -0.0104(6)
C1 0.048(4) 0.050(4) 0.034(3) -0.005(3) -0.002(3) -0.001(3)
C2 0.043(3) 0.045(3) 0.041(3) -0.009(3) -0.004(3) -0.002(3)
C3 0.039(4) 0.071(4) 0.046(4) -0.009(3) -0.006(3) 0.000(3)
C4 0.058(5) 0.068(5) 0.059(5) -0.010(4) -0.011(4) -0.018(4)
C5 0.037(3) 0.042(3) 0.042(3) 0.000(3) 0.006(3) 0.000(3)
C6 0.032(3) 0.032(3) 0.050(4) 0.007(2) 0.001(3) -0.006(2)
C7 0.052(4) 0.042(3) 0.046(4) -0.004(3) 0.004(3) -0.003(3)
C8 0.036(3) 0.043(3) 0.049(4) 0.008(3) 0.001(3) -0.008(3)
C9 0.051(4) 0.048(4) 0.047(4) 0.002(3) 0.002(3) 0.000(3)
C10 0.042(4) 0.036(3) 0.058(4) -0.002(3) -0.003(3) -0.015(3)
C11 0.049(4) 0.051(4) 0.120(7) -0.013(4) 0.000(4) 0.008(4)
C12 0.041(4) 0.044(4) 0.118(7) -0.014(4) -0.007(4) 0.005(3)
C13 0.102(6) 0.044(4) 0.046(4) -0.008(3) -0.014(4) -0.004(4)
C14 0.077(5) 0.049(4) 0.052(4) -0.015(3) 0.002(4) 0.010(4)
C15 0.077(6) 0.072(5) 0.064(5) -0.017(4) 0.014(4) 0.011(4)
C16 0.091(6) 0.068(5) 0.068(5) -0.021(4) -0.034(5) 0.023(5)
C17 0.129(8) 0.047(4) 0.077(6) 0.001(4) -0.014(6) 0.010(5)
C18 0.116(8) 0.074(6) 0.109(8) -0.019(5) -0.013(6) -0.033(6)
C19 0.135(8) 0.082(6) 0.038(4) -0.018(4) -0.003(4) 0.023(6)
C20 0.096(7) 0.121(8) 0.115(8) -0.042(7) 0.049(6) -0.011(6)
C21 0.113(8) 0.137(9) 0.108