####################################################################### 
# 
# This file contains crystal structure data downloaded from the 
# Cambridge Structural Database (CSD) hosted by the Cambridge 
# Crystallographic Data Centre (CCDC).
# 
# Full information about CCDC data access policies and citation 
# guidelines are available at http://www.ccdc.cam.ac.uk/access/V1 
# 
# Audit and citation data items may have been added by the CCDC. 
# Please retain this information to preserve the provenance of 
# this file and to allow appropriate attribution of the data. 
# 
#######################################################################

data_Co(NCS)2(3pia)4THF
_audit_block_doi                 10.5517/cc5xvlh
_database_code_depnum_ccdc_archive 'CCDC 176687'
loop_
_citation_id
_citation_doi
_citation_year
1 10.1002/1521-3765(20020816)8:16<3586::AID-CHEM3586>3.0.CO;2-K 2002
_audit_update_record             
;
2001-12-21 deposited with the CCDC.	2024-07-11 downloaded from the CCDC.
;
#---------------------------------------------------------------------------
# CHEMICAL DATA 
_chemical_formula_sum            'C40 H50 Co N8 O6 S2 '
_chemical_formula_moiety         ?
_chemical_formula_weight         861.94
_chemical_melting_point          ?
#---------------------------------------------------------------------------
# CRYSTAL DATA 
_symmetry_cell_setting           monoclinic
_symmetry_space_group_name_H-M   'P 1 21/n 1'
_symmetry_Int_Tables_number      14
loop_
_symmetry_equiv_pos_as_xyz
x,y,z
1/2-x,1/2+y,1/2-z
-x,-y,-z
1/2+x,1/2-y,1/2+z
_cell_length_a                   10.460(3)
_cell_length_b                   15.127(8)
_cell_length_c                   14.3170(9)
_cell_angle_alpha                90
_cell_angle_beta                 97.006(2)
_cell_angle_gamma                90
_cell_volume                     2248(1)
_cell_formula_units_Z            2
_cell_measurement_reflns_used    ?
_cell_measurement_theta_min      ?
_cell_measurement_theta_max      ?
_cell_measurement_temperature    293.2
#---------------------------------------------------------------------------
_exptl_crystal_description       block
_exptl_crystal_colour            red
_exptl_crystal_size_max          0.500
_exptl_crystal_size_mid          0.400
_exptl_crystal_size_min          0.300
_exptl_crystal_size_rad          ?
_exptl_crystal_density_diffrn    1.273
_exptl_crystal_density_meas      ?
_exptl_crystal_density_method    'not measured'
_exptl_absorpt_coefficient_mu    0.526
_exptl_absorpt_correction_type   empirical
_exptl_absorpt_process_details   REQABA
_exptl_absorpt_correction_T_min  0.424
_exptl_absorpt_correction_T_max  0.854
#---------------------------------------------------------------------------
# EXPERIMENTAL DATA 
_diffrn_radiation_type           'Mo K\a'
_diffrn_radiation_wavelength     0.7107
_diffrn_measurement_device_type  'Rigaku/MSC Mercury CCD'
_diffrn_measurement_method       \w
_diffrn_detector_area_resol_mean ?
_diffrn_reflns_number            15824
_diffrn_reflns_av_R_equivalents  0.024
_diffrn_reflns_theta_max         27.50
_diffrn_measured_fraction_theta_max 0.9382
_diffrn_reflns_theta_full        27.50
_diffrn_measured_fraction_theta_full 0.9382
_diffrn_reflns_limit_h_min       -11
_diffrn_reflns_limit_h_max       13
_diffrn_reflns_limit_k_min       -19
_diffrn_reflns_limit_k_max       14
_diffrn_reflns_limit_l_min       -18
_diffrn_reflns_limit_l_max       17
#---------------------------------------------------------------------------
# REFINEMENT DATA 
_refine_special_details          
;
Refinement using reflections with F^2^ > 5.0 sigma(F^2^). The weighted R-factor
(wR), goodness of fit (S) and R-factor (gt) are based on F, with F set to zero 
for negative F. The threshold expression of F^2^ > 5.0 sigma(F^2^) is used only 
for calculating R-factor (gt).
;
_reflns_number_total             4849
_reflns_number_gt                2418
_reflns_threshold_expression     F^2^>5.0\s(F^2^)
_refine_ls_structure_factor_coef F
_refine_ls_R_factor_gt           0.0723
_refine_ls_wR_factor_ref         0.1040
_refine_ls_hydrogen_treatment    noref
_refine_ls_number_reflns         2418
_refine_ls_number_parameters     221
_refine_ls_goodness_of_fit_ref   2.572
_refine_ls_weighting_scheme      calc
_refine_ls_weighting_details     'w = 1/[\s^2^(Fo) + 0.00090|Fo|^2^]'
_refine_ls_shift/su_max          0.0002
_refine_diff_density_max         0.65
_refine_diff_density_min         -0.46
_refine_ls_extinction_method     none
_refine_ls_extinction_coef       ?
_refine_ls_abs_structure_details ?
_refine_ls_abs_structure_Flack   ?
loop_
_atom_type_symbol
_atom_type_description
_atom_type_scat_dispersion_real
_atom_type_scat_dispersion_imag
_atom_type_scat_source
N N 0.006 0.003
;International Tables for Crystallography
(1992, Vol. C, Tables 4.2.6.8 and 6.1.1.1)
;
O O 0.011 0.006
;International Tables for Crystallography
(1992, Vol. C, Tables 4.2.6.8 and 6.1.1.1)
;
S S 0.125 0.123
;International Tables for Crystallography
(1992, Vol. C, Tables 4.2.6.8 and 6.1.1.1)
;
C C 0.003 0.002
;International Tables for Crystallography
(1992, Vol. C, Tables 4.2.6.8 and 6.1.1.1)
;
Co Co 0.349 0.972
;International Tables for Crystallography
(1992, Vol. C, Tables 4.2.6.8 and 6.1.1.1)
;
H H 0.000 0.000
;International Tables for Crystallography
(1992, Vol. C, Table 6.1.1.2)
;
#---------------------------------------------------------------------------
# ATOMIC COORDINATES AND DISPLACEMENT PARAMETERS 
loop_
_atom_site_label
_atom_site_type_symbol
_atom_site_fract_x
_atom_site_fract_y
_atom_site_fract_z
_atom_site_U_iso_or_equiv
_atom_site_adp_type
_atom_site_occupancy
_atom_site_calc_flag
_atom_site_refinement_flags
_atom_site_disorder_assembly
_atom_site_disorder_group
Co(1) Co 0.5000 0.5000 1.5000 0.0371(3) Uani 1.00 d S . .
S(1) S 0.8433(3) 0.7031(2) 1.5833(2) 0.115(1) Uani 1.00 d . . .
O(1) O 0.8694(6) 0.1071(4) 1.4712(4) 0.082(2) Uani 1.00 d . . .
O(2) O 0.8703(10) 0.3018(5) 1.1841(5) 0.110(3) Uani 1.00 d . . .
O(3) O 0.582(2) 0.091(1) 1.188(2) 0.3242 Uiso 1.00 d G . .
N(1) N 0.6222(5) 0.3883(3) 1.4729(3) 0.044(1) Uani 1.00 d . . .
N(2) N 1.0263(5) 0.0203(3) 1.1573(3) 0.042(1) Uani 1.00 d . . .
N(3) N 0.9050(5) 0.1656(3) 1.3304(3) 0.045(1) Uani 1.00 d . . .
N(4) N 0.6578(5) 0.5842(4) 1.5089(3) 0.046(2) Uani 1.00 d . . .
C(1) C 0.5985(7) 0.3056(5) 1.4989(5) 0.059(2) Uani 1.00 d . . .
C(2) C 0.6723(8) 0.2351(4) 1.4806(5) 0.065(2) Uani 1.00 d . . .
C(3) C 0.7770(6) 0.2463(4) 1.4311(4) 0.047(2) Uani 1.00 d . . .
C(4) C 0.8018(7) 0.3310(5) 1.4038(5) 0.060(2) Uani 1.00 d . . .
C(5) C 0.7247(7) 0.3994(4) 1.4264(5) 0.054(2) Uani 1.00 d . . .
C(6) C 1.0929(7) -0.0395(5) 1.2146(4) 0.058(2) Uani 1.00 d . . .
C(7) C 1.1037(8) -0.0338(5) 1.3098(5) 0.072(2) Uani 1.00 d . . .
C(8) C 1.0429(7) 0.0330(5) 1.3524(4) 0.060(2) Uani 1.00 d . . .
C(9) C 0.9734(6) 0.0949(4) 1.2956(4) 0.043(2) Uani 1.00 d . . .
C(10) C 0.9680(6) 0.0852(4) 1.1987(4) 0.040(2) Uani 1.00 d . . .
C(11) C 0.8568(7) 0.1674(5) 1.4134(4) 0.051(2) Uani 1.00 d . . .
C(12) C 0.7373(6) 0.6328(5) 1.5377(5) 0.051(2) Uani 1.00 d . . .
C(13) C 0.979(2) 0.358(1) 1.1745(9) 0.147(6) Uani 1.00 d . . .
C(14) C 0.924(3) 0.414(1) 1.085(1) 0.23(1) Uani 1.00 d . . .
C(15) C 0.788(3) 0.415(2) 1.090(2) 0.30(2) Uani 1.00 d . . .
C(16) C 0.759(2) 0.347(1) 1.149(1) 0.198(9) Uani 1.00 d . . .
C(17) C 0.576(2) 0.149(1) 1.275(1) 0.3242 Uiso 1.00 d G . .
C(18) C 0.4231 0.1821 1.2755 0.0760 Uiso 1.00 d . . .
C(19) C 0.3436 0.1488 1.1847 0.0760 Uiso 1.00 d . . .
C(20) C 0.4334 0.0941 1.1295 0.0760 Uiso 1.00 d . . .
H(1) H 0.5263 0.2955 1.5319 0.0705 Uiso 1.00 calc . . .
H(2) H 0.6519 0.1779 1.5019 0.0774 Uiso 1.00 calc . . .
H(3) H 0.8720 0.3423 1.3692 0.0718 Uiso 1.00 calc . . .
H(4) H 0.7451 0.4576 1.4082 0.0647 Uiso 1.00 calc . . .
H(5) H 1.1336 -0.0874 1.1870 0.0702 Uiso 1.00 calc . . .
H(6) H 1.1536 -0.0762 1.3473 0.0860 Uiso 1.00 calc . . .
H(7) H 1.0484 0.0367 1.4190 0.0725 Uiso 1.00 calc . . .
H(8) H 0.9199 0.1273 1.1597 0.0484 Uiso 1.00 calc . . .
H(9) H 0.8918 0.2167 1.2917 0.0541 Uiso 1.00 calc . . .
H(10) H 1.0528 0.3245 1.1629 0.1760 Uiso 1.00 calc . . .
H(11) H 1.0006 0.3940 1.2284 0.1760 Uiso 1.00 calc . . .
H(12) H 0.9429 0.3870 1.0288 0.2788 Uiso 1.00 calc . . .
H(13) H 0.9582 0.4725 1.0889 0.2788 Uiso 1.00 calc . . .
H(14) H 0.7432 0.4068 1.0287 0.3542 Uiso 1.00 calc . . .
H(15) H 0.7638 0.4705 1.1141 0.3542 Uiso 1.00 calc . . .
H(16) H 0.7011 0.3069 1.1152 0.2381 Uiso 1.00 calc . . .
H(17) H 0.7207 0.3709 1.2005 0.2381 Uiso 1.00 calc . . .
H(18) H 0.5881 0.1062 1.3385 0.0760 Uiso 1.00 calc . . .
H(19) H 0.6290 0.2043 1.2781 0.0760 Uiso 1.00 calc . . .
H(20) H 0.4227 0.2548 1.2768 0.0760 Uiso 1.00 calc . . .
H(21) H 0.3818 0.1567 1.3373 0.0760 Uiso 1.00 calc . . .
H(22) H 0.3047 0.2053 1.1420 0.0760 Uiso 1.00 calc . . .
H(23) H 0.2638 0.1072 1.2025 0.0760 Uiso 1.00 calc . . .
H(24) H 0.4379 0.1242 1.0600 0.0760 Uiso 1.00 calc . . .
H(25) H 0.3970 0.0260 1.1205 0.0760 Uiso 1.00 calc . . .

loop_
_atom_site_aniso_label
_atom_site_aniso_U_11
_atom_site_aniso_U_22
_atom_site_aniso_U_33
_atom_site_aniso_U_12
_atom_site_aniso_U_13
_atom_site_aniso_U_23
Co(1) 0.0442(6) 0.0312(6) 0.0374(5) -0.0045(6) 0.0112(4) -0.0016(5)
S(1) 0.096(2) 0.110(2) 0.131(2) -0.053(2) -0.020(2) -0.007(2)
O(1) 0.130(5) 0.068(4) 0.058(3) 0.042(3) 0.045(3) 0.023(3)
O(2) 0.173(8) 0.072(4) 0.082(4) 0.025(5) 0.001(5) 0.019(3)
N(1) 0.046(3) 0.039(3) 0.047(3) 0.003(2) 0.011(2) 0.002(2)
N(2) 0.049(3) 0.044(4) 0.033(2) 0.013(2) 0.012(2) 0.000(2)
N(3) 0.060(3) 0.039(3) 0.038(2) 0.007(2) 0.012(2) 0.001(2)
N(4) 0.048(3) 0.047(3) 0.045(3) -0.008(3) 0.010(2) -0.004(2)
C(1) 0.067(4) 0.041(4) 0.075(5) 0.006(3) 0.033(4) 0.007(3)
C(2) 0.089(5) 0.039(4) 0.075(5) 0.015(4) 0.043(4) 0.010(3)
C(3) 0.064(4) 0.042(4) 0.036(3) 0.007(3) 0.012(3) -0.003(3)
C(4) 0.067(5) 0.041(4) 0.079(5) 0.000(3) 0.040(4) -0.003(3)
C(5) 0.058(4) 0.042(4) 0.065(4) -0.001(3) 0.025(3) 0.006(3)
C(6) 0.085(5) 0.053(4) 0.037(3) 0.033(4) 0.009(3) -0.001(3)
C(7) 0.096(6) 0.076(5) 0.046(4) 0.051(5) 0.016(4) 0.012(3)
C(8) 0.071(5) 0.073(5) 0.037(3) 0.024(4) 0.004(3) -0.002(3)
C(9) 0.050(3) 0.042(3) 0.038(3) 0.007(3) 0.012(2) 0.001(2)
C(10) 0.048(3) 0.035(3) 0.038(3) 0.004(3) 0.004(2) 0.000(2)
C(11) 0.068(4) 0.046(4) 0.041(3) 0.010(3) 0.014(3) 0.000(3)
C(12) 0.049(4) 0.055(4) 0.051(4) 0.001(3) 0.016(3) 0.007(3)
C(13) 0.22(2) 0.13(1) 0.097(8) 0.05(1) 0.050(10) 0.041(8)
C(14) 0.39(3) 0.15(2) 0.19(2) 0.13(2) 0.18(2) 0.11(1)
C(15) 0.35(4) 0.23(3) 0.31(3) 0.16(3) 0.05(3) 0.16(2)
C(16) 0.22(2) 0.18(2) 0.18(2) 0.06(2) -0.04(1) 0.05(1)
#---------------------------------------------------------------------------
_computing_data_collection       .
_computing_cell_refinement       .
_computing_data_reduction        'teXsan Ver. 1.11'
_computing_structure_solution    SIR92
_computing_structure_refinement  'teXsan Ver. 1.10'
_computing_publication_material  'teXsan Ver. 1.11'
_computing_molecular_graphics    ?
#---------------------------------------------------------------------------
_geom_special_details            
;
?
;
loop_
_geom_bond_atom_site_label_1
_geom_bond_atom_site_label_2
_geom_bond_distance
_geom_bond_site_symmetry_1
_geom_bond_site_symmetry_2
_geom_bond_publ_flag
Co(1) N(1) 2.182(5) . . yes
Co(1) N(1) 2.182(5) . 3_668 yes
Co(1) N(2) 2.256(4) . 4_455 yes
Co(1) N(2) 2.256(4) . 2_657 yes
Co(1) N(4) 2.076(5) . . yes
Co(1) N(4) 2.076(5) . 3_668 yes
S(1) C(12) 1.615(7) . . yes
O(1) N(3) 2.273(7) . . yes
O(1) C(11) 1.228(8) . . yes
O(2) C(13) 1.44(2) . . yes
O(2) C(15) 2.29(2) . . yes
O(2) C(16) 1.38(2) . . yes
N(1) C(1) 1.336(8) . . yes
N(1) C(5) 1.339(8) . . yes
N(2) C(6) 1.355(8) . . yes
N(2) C(10) 1.333(7) . . yes
N(3) C(9) 1.412(8) . . yes
N(3) C(11) 1.347(8) . . yes
N(4) C(12) 1.149(8) . . yes
C(1) C(2) 1.360(9) . . yes
C(1) C(5) 2.273(10) . . yes
C(2) C(3) 1.385(9) . . yes
C(3) C(4) 1.373(9) . . yes
C(3) C(11) 1.496(9) . . yes
C(4) C(5) 1.375(9) . . yes
C(6) C(7) 1.357(9) . . yes
C(6) C(10) 2.290(9) . . yes
C(7) C(8) 1.376(10) . . yes
C(8) C(9) 1.387(9) . . yes
C(9) C(10) 1.388(8) . . yes
C(13) C(14) 1.59(2) . . yes
C(13) C(16) 2.29(3) . . yes
C(14) C(15) 1.43(3) . . yes
C(14) C(16) 2.29(3) . . yes
C(15) C(16) 1.40(3) . . yes
#---------------------------------------------------------------------------
loop_
_geom_angle_atom_site_label_1
_geom_angle_atom_site_label_2
_geom_angle_atom_site_label_3
_geom_angle
_geom_angle_site_symmetry_1
_geom_angle_site_symmetry_2
_geom_angle_site_symmetry_3
_geom_angle_publ_flag
N(1) Co(1) N(1) 180.0 . . 3_668 yes
N(1) Co(1) N(2) 94.0(2) . . 4_455 yes
N(1) Co(1) N(2) 86.0(2) . . 2_657 yes
N(1) Co(1) N(4) 90.4(2) . . . yes
N(1) Co(1) N(4) 89.6(2) . . 3_668 yes
N(1) Co(1) N(2) 86.0(2) 3_668 . 4_455 yes
N(1) Co(1) N(2) 94.0(2) 3_668 . 2_657 yes
N(1) Co(1) N(4) 89.6(2) 3_668 . . yes
N(1) Co(1) N(4) 90.4(2) 3_668 . 3_668 yes
N(2) Co(1) N(2) 180.0 4_455 . 2_657 yes
N(2) Co(1) N(4) 91.3(2) 4_455 . . yes
N(2) Co(1) N(4) 88.7(2) 4_455 . 3_668 yes
N(2) Co(1) N(4) 88.7(2) 2_657 . . yes
N(2) Co(1) N(4) 91.3(2) 2_657 . 3_668 yes
N(4) Co(1) N(4) 180.0 . . 3_668 yes
N(3) O(1) C(11) 29.4(4) . . . yes
C(13) O(2) C(15) 75(1) . . . yes
C(13) O(2) C(16) 108(1) . . . yes
C(15) O(2) C(16) 34(1) . . . yes
Co(1) N(1) C(1) 122.9(4) . . . yes
Co(1) N(1) C(5) 120.8(4) . . . yes
C(1) N(1) C(5) 116.3(5) . . . yes
Co(1) N(2) C(6) 120.3(4) 2_647 . . yes
Co(1) N(2) C(10) 122.5(4) 2_647 . . yes
C(6) N(2) C(10) 116.8(5) . . . yes
O(1) N(3) C(9) 99.3(4) . . . yes
O(1) N(3) C(11) 26.6(3) . . . yes
C(9) N(3) C(11) 126.0(5) . . . yes
Co(1) N(4) C(12) 161.8(5) . . . yes
N(1) C(1) C(2) 123.4(6) . . . yes
N(1) C(1) C(5) 31.9(3) . . . yes
C(2) C(1) C(5) 91.5(5) . . . yes
C(1) C(2) C(3) 120.3(6) . . . yes
C(2) C(3) C(4) 116.7(6) . . . yes
C(2) C(3) C(11) 118.8(6) . . . yes
C(4) C(3) C(11) 124.5(6) . . . yes
C(3) C(4) C(5) 119.9(6) . . . yes
N(1) C(5) C(1) 31.8(3) . . . yes
N(1) C(5) C(4) 123.4(6) . . . yes
C(1) C(5) C(4) 91.6(5) . . . yes
N(2) C(6) C(7) 122.6(6) . . . yes
N(2) C(6) C(10) 31.3(3) . . . yes
C(7) C(6) C(10) 91.3(4) . . . yes
C(6) C(7) C(8) 120.4(6) . . . yes
C(7) C(8) C(9) 118.2(6) . . . yes
N(3) C(9) C(8) 123.8(5) . . . yes
N(3) C(9) C(10) 118.1(5) . . . yes
C(8) C(9) C(10) 118.0(5) . . . yes
N(2) C(10) C(6) 31.9(3) . . . yes
N(2) C(10) C(9) 123.9(5) . . . yes
C(6) C(10) C(9) 92.0(4) . . . yes
O(1) C(11) N(3) 123.9(6) . . . yes
O(1) C(11) C(3) 119.7(6) . . . yes
N(3) C(11) C(3) 116.3(5) . . . yes
S(1) C(12) N(4) 176.3(6) . . . yes
O(2) C(13) C(14) 100(1) . . . yes
O(2) C(13) C(16) 35.0(7) . . . yes
C(14) C(13) C(16) 69(1) . . . yes
C(13) C(14) C(15) 103(1) . . . yes
C(13) C(14) C(16) 69(1) . . . yes
C(15) C(14) C(16) 35(1) . . . yes
O(2) C(15) C(14) 73(1) . . . yes
O(2) C(15) C(16) 34.5(10) . . . yes
C(14) C(15) C(16) 107(1) . . . yes
O(2) C(16) C(13) 36.7(7) . . . yes
O(2) C(16) C(14) 74(1) . . . yes
O(2) C(16) C(15) 110(2) . . . yes
C(13) C(16) C(14) 40.5(8) . . . yes
C(13) C(16) C(15) 75(1) . . . yes
C(14) C(16) C(15) 36(1) . . . yes
