####################################################################### 
# 
# This file contains crystal structure data downloaded from the 
# Cambridge Structural Database (CSD) hosted by the Cambridge 
# Crystallographic Data Centre (CCDC).
# 
# Full information about CCDC data access policies and citation 
# guidelines are available at http://www.ccdc.cam.ac.uk/access/V1 
# 
# Audit and citation data items may have been added by the CCDC. 
# Please retain this information to preserve the provenance of 
# this file and to allow appropriate attribution of the data. 
# 
#######################################################################

data_D-1C4
_audit_block_doi                 10.5517/cc134lnh
_database_code_depnum_ccdc_archive 'CCDC 1017316'
loop_
_citation_id
_citation_doi
_citation_year
1 10.1246/bcsj.20140253 2015
_audit_update_record             
;
2014-09-28 deposited with the CCDC.	2024-07-11 downloaded from the CCDC.
;

_audit_creation_method           SHELXL-2014
_chemical_name_systematic        
;
 ?
;
_chemical_name_common            ?
_chemical_melting_point          ?
_chemical_formula_moiety         ?
_chemical_formula_sum            'C37.25 H46.75 Au2 N1.75 O6.50 P2 S2'
_chemical_formula_weight         1143.00

loop_
_atom_type_symbol
_atom_type_description
_atom_type_scat_dispersion_real
_atom_type_scat_dispersion_imag
_atom_type_scat_source
C C 0.0033 0.0016 'International Tables Vol C Tables 4.2.6.8 and 6.1.1.4'
H H 0.0000 0.0000 'International Tables Vol C Tables 4.2.6.8 and 6.1.1.4'
N N 0.0061 0.0033 'International Tables Vol C Tables 4.2.6.8 and 6.1.1.4'
S S 0.1246 0.1234 'International Tables Vol C Tables 4.2.6.8 and 6.1.1.4'
P P 0.1023 0.0942 'International Tables Vol C Tables 4.2.6.8 and 6.1.1.4'
O O 0.0106 0.0060 'International Tables Vol C Tables 4.2.6.8 and 6.1.1.4'
Au Au -2.0133 8.8022 'International Tables Vol C Tables 4.2.6.8 and 6.1.1.4'

_space_group_crystal_system      monoclinic
_space_group_IT_number           4
_space_group_name_H-M_alt        'P 21'
_space_group_name_Hall           'P 2yb'

_shelx_space_group_comment       
;
The symmetry employed for this shelxl refinement is uniquely defined
by the following loop, which should always be used as a source of
symmetry information in preference to the above space-group names.
They are only intended as comments.
;

loop_
_space_group_symop_operation_xyz
'x, y, z'
'-x, y+1/2, -z'

_cell_length_a                   15.0714(5)
_cell_length_b                   24.8843(8)
_cell_length_c                   29.8410(11)
_cell_angle_alpha                90
_cell_angle_beta                 93.312(7)
_cell_angle_gamma                90
_cell_volume                     11172.9(7)
_cell_formula_units_Z            8
_cell_measurement_temperature    200(2)
_cell_measurement_reflns_used    25899
_cell_measurement_theta_min      2.99
_cell_measurement_theta_max      27.34

_exptl_crystal_description       block
_exptl_crystal_colour            colorless
_exptl_crystal_density_meas      ?
_exptl_crystal_density_method    ?
_exptl_crystal_density_diffrn    1.359
_exptl_crystal_F_000             4436
_exptl_transmission_factor_min   ?
_exptl_transmission_factor_max   ?
_exptl_crystal_size_max          0.160
_exptl_crystal_size_mid          0.080
_exptl_crystal_size_min          0.080
_exptl_absorpt_coefficient_mu    5.412
_shelx_estimated_absorpt_T_min   0.478
_shelx_estimated_absorpt_T_max   0.671
_exptl_absorpt_correction_type   multi-scan
_exptl_absorpt_correction_T_min  0.4608
_exptl_absorpt_correction_T_max  1.0000
_exptl_absorpt_process_details   
;
 ABSCOR (Higashi, 2001)
;

_exptl_special_details           
;
 ?
;

_diffrn_ambient_temperature      200(2)
_diffrn_radiation_wavelength     0.71075
_diffrn_radiation_type           MoK\a
_diffrn_radiation_source         'fine-focus sealed tube'
_diffrn_radiation_monochromator  graphite
_diffrn_measurement_device_type  'Rigaku RAXIS-RAPID'
_diffrn_measurement_method       \w
_diffrn_detector_area_resol_mean 10.00
_diffrn_reflns_number            72368
_diffrn_reflns_av_unetI/netI     0.1478
_diffrn_reflns_av_R_equivalents  0.0727
_diffrn_reflns_limit_h_min       -17
_diffrn_reflns_limit_h_max       17
_diffrn_reflns_limit_k_min       -29
_diffrn_reflns_limit_k_max       29
_diffrn_reflns_limit_l_min       -35
_diffrn_reflns_limit_l_max       35
_diffrn_reflns_theta_min         3.007
_diffrn_reflns_theta_max         25.000
_diffrn_reflns_theta_full        25.242
_diffrn_measured_fraction_theta_max 0.997
_diffrn_measured_fraction_theta_full 0.970
_diffrn_reflns_Laue_measured_fraction_max 0.997
_diffrn_reflns_Laue_measured_fraction_full 0.970
_diffrn_reflns_point_group_measured_fraction_max 0.970
_diffrn_reflns_point_group_measured_fraction_full 0.944
_reflns_number_total             38160
_reflns_number_gt                22325
_reflns_threshold_expression     'I > 2\s(I)'
_reflns_Friedel_coverage         0.898
_reflns_Friedel_fraction_max     0.942
_reflns_Friedel_fraction_full    0.917

_reflns_special_details          
;
 Reflections were merged by SHELXL according to the crystal
 class for the calculation of statistics and refinement.
 
 _reflns_Friedel_fraction is defined as the number of unique
 Friedel pairs measured divided by the number that would be
 possible theoretically, ignoring centric projections and
 systematic absences.
;

_computing_data_collection       PROCESS-AUTO
_computing_cell_refinement       PROCESS-AUTO
_computing_data_reduction        CrystalStructure
_computing_structure_solution    'SHELXL-2014 (Sheldrick, 2014)'
_computing_structure_refinement  'SHELXL-2014 (Sheldrick, 2014)'
_computing_molecular_graphics    'Yadokari-XG 2009 (Wakita Nemoto et al., 2009)'
_computing_publication_material  
;Yadokari-XG 2009 (Wakita,Nemoto et al., 2009)
;

_refine_special_details          
;
 ?
;
_refine_ls_structure_factor_coef Fsqd
_refine_ls_matrix_type           full
_refine_ls_weighting_scheme      calc
_refine_ls_weighting_details     
'w=1/[\s^2^(Fo^2^)+(0.1203P)^2^] where P=(Fo^2^+2Fc^2^)/3'
_atom_sites_solution_primary     ?
_atom_sites_solution_secondary   ?
_atom_sites_solution_hydrogens   geom
_refine_ls_hydrogen_treatment    constr
_refine_ls_extinction_method     none
_refine_ls_extinction_coef       .
_refine_ls_abs_structure_details 
;
 Flack x determined using 7463 quotients [(I+)-(I-)]/[(I+)+(I-)]
 (Parsons, Flack and Wagner, Acta Cryst. B69 (2013) 249-259).
;
_refine_ls_abs_structure_Flack   0.142(7)
_chemical_absolute_configuration rm
_refine_ls_number_reflns         38160
_refine_ls_number_parameters     1491
_refine_ls_number_restraints     715
_refine_ls_R_factor_all          0.1425
_refine_ls_R_factor_gt           0.0894
_refine_ls_wR_factor_ref         0.2386
_refine_ls_wR_factor_gt          0.2167
_refine_ls_goodness_of_fit_ref   1.019
_refine_ls_restrained_S_all      1.015
_refine_ls_shift/su_max          0.001
_refine_ls_shift/su_mean         0.000

loop_
_platon_squeeze_void_nr
_platon_squeeze_void_average_x
_platon_squeeze_void_average_y
_platon_squeeze_void_average_z
_platon_squeeze_void_volume
_platon_squeeze_void_count_electrons
_platon_squeeze_void_content
1 -0.147 0.063 0.277 1513 344 ' '
2 0.106 0.656 0.723 1513 345 ' '
3 0.106 0.025 0.874 5 1 ' '
4 0.201 0.487 0.151 10 3 ' '
5 0.185 0.057 0.928 7 1 ' '
6 0.799 0.987 0.849 10 3 ' '
7 0.817 0.556 0.073 6 1 ' '
8 0.896 0.524 0.128 6 1 ' '
_platon_squeeze_details          
;
;


loop_
_atom_site_label
_atom_site_type_symbol
_atom_site_fract_x
_atom_site_fract_y
_atom_site_fract_z
_atom_site_U_iso_or_equiv
_atom_site_adp_type
_atom_site_occupancy
_atom_site_site_symmetry_order
_atom_site_calc_flag
_atom_site_refinement_flags_posn
_atom_site_refinement_flags_adp
_atom_site_refinement_flags_occupancy
_atom_site_disorder_assembly
_atom_site_disorder_group
Au1 Au 1.11130(10) 0.21069(5) 1.04046(4) 0.0765(4) Uani 1 1 d . . . . .
Au2 Au 0.57547(8) 0.33117(5) 0.94547(4) 0.0651(3) Uani 1 1 d . . . . .
S1 S 1.1545(9) 0.2238(4) 1.1137(3) 0.132(5) Uani 1 1 d D . . . .
S2 S 0.4466(5) 0.3192(3) 0.9013(3) 0.069(2) Uani 1 1 d . U . . .
P1 P 1.0574(6) 0.1907(3) 0.9701(3) 0.068(2) Uani 1 1 d . . . . .
P2 P 0.6903(5) 0.3519(3) 0.9946(3) 0.066(2) Uani 1 1 d . . . . .
O1 O 1.096(3) 0.1917(13) 1.2201(13) 0.220(10) Uiso 1 1 d D . . . .
O2 O 1.082(2) 0.1052(13) 1.2007(13) 0.220(10) Uiso 1 1 d D . . . .
O3 O 0.490(3) 0.3549(10) 0.7436(7) 0.210(19) Uani 1 1 d D U . . .
O4 O 0.566(2) 0.4228(11) 0.7781(9) 0.175(13) Uani 1 1 d D U . . .
N1 N 1.270(3) 0.1943(18) 1.2009(12) 0.21(2) Uiso 1 1 d D . . . .
H1 H 1.2686 0.1911 1.2313 0.316 Uiso 1 1 calc R U . . .
H1A H 1.2515 0.2276 1.1923 0.316 Uiso 1 1 calc R U . . .
H1B H 1.3270 0.1893 1.1929 0.316 Uiso 1 1 calc R U . . .
N2 N 0.5112(17) 0.2940(9) 0.8140(8) 0.093(8) Uani 1 1 d D U . . .
H2 H 0.5496 0.2855 0.7926 0.140 Uiso 1 1 calc R U . . .
H2A H 0.5262 0.2755 0.8396 0.140 Uiso 1 1 calc R U . . .
H2B H 0.4549 0.2851 0.8041 0.140 Uiso 1 1 calc R U . . .
C1 C 1.221(3) 0.1630(12) 1.1283(12) 0.20(2) Uiso 1 1 d D . . . .
C2 C 1.211(3) 0.1527(18) 1.1784(13) 0.220(10) Uiso 1 1 d D . . . .
H2C H 1.2411 0.1175 1.1848 0.264 Uiso 1 1 calc R U . . .
C3 C 1.122(2) 0.1492(13) 1.2021(10) 0.220(10) Uiso 1 1 d D . . . .
C4 C 1.317(3) 0.175(2) 1.1183(19) 0.24(3) Uiso 1 1 d D . . . .
H4 H 1.3356 0.2093 1.1326 0.359 Uiso 1 1 calc R U . . .
H4A H 1.3559 0.1462 1.1301 0.359 Uiso 1 1 calc R U . . .
H4B H 1.3221 0.1782 1.0858 0.359 Uiso 1 1 calc R U . . .
C5 C 1.197(3) 0.1099(16) 1.1051(15) 0.17(2) Uiso 1 1 d D . . . .
H5 H 1.1352 0.1004 1.1106 0.261 Uiso 1 1 calc R U . . .
H5A H 1.2030 0.1136 1.0727 0.261 Uiso 1 1 calc R U . . .
H5B H 1.2367 0.0816 1.1170 0.261 Uiso 1 1 calc R U . . .
C6 C 0.4530(19) 0.3652(12) 0.8581(10) 0.074(6) Uani 1 1 d . U . . .
C7 C 0.516(2) 0.3532(9) 0.8234(7) 0.091(8) Uani 1 1 d D U . . .
H7 H 0.5759 0.3583 0.8391 0.109 Uiso 1 1 calc R U . . .
C8 C 0.5249(19) 0.3789(10) 0.7766(8) 0.140(14) Uani 1 1 d D U . . .
C9 C 0.359(2) 0.3701(14) 0.8326(12) 0.110(11) Uani 1 1 d . U . . .
H9 H 0.3379 0.3343 0.8232 0.164 Uiso 1 1 calc R U . . .
H9A H 0.3166 0.3859 0.8527 0.164 Uiso 1 1 calc R U . . .
H9B H 0.3630 0.3930 0.8062 0.164 Uiso 1 1 calc R U . . .
C10 C 0.480(3) 0.4174(13) 0.8709(11) 0.123(13) Uani 1 1 d . U . . .
H10 H 0.4425 0.4305 0.8944 0.185 Uiso 1 1 calc R U . . .
H10A H 0.5421 0.4167 0.8824 0.185 Uiso 1 1 calc R U . . .
H10B H 0.4738 0.4414 0.8448 0.185 Uiso 1 1 calc R U . . .
C11 C 1.1487(14) 0.1900(9) 0.9292(7) 0.091(10) Uani 1 1 d G U . . .
C12 C 1.2326(16) 0.1702(8) 0.9419(6) 0.079(9) Uani 1 1 d G U . . .
H12 H 1.2438 0.1551 0.9709 0.095 Uiso 1 1 calc R U . . .
C13 C 1.3002(12) 0.1724(9) 0.9122(8) 0.105(11) Uani 1 1 d G U . . .
H13 H 1.3575 0.1588 0.9209 0.125 Uiso 1 1 calc R U . . .
C14 C 1.2839(14) 0.1945(9) 0.8697(7) 0.113(12) Uani 1 1 d G U . . .
H14 H 1.3301 0.1960 0.8494 0.135 Uiso 1 1 calc R U . . .
C15 C 1.2000(17) 0.2143(9) 0.8570(6) 0.097(10) Uani 1 1 d G U . . .
H15 H 1.1888 0.2294 0.8279 0.116 Uiso 1 1 calc R U . . .
C16 C 1.1324(13) 0.2121(10) 0.8867(8) 0.126(12) Uani 1 1 d G U . . .
H16 H 1.0750 0.2257 0.8780 0.151 Uiso 1 1 calc R U . . .
C17 C 1.0005(14) 0.1239(7) 0.9695(8) 0.090(10) Uani 1 1 d G U . . .
C18 C 0.9745(15) 0.0985(10) 1.0081(7) 0.103(11) Uani 1 1 d G U . . .
H18 H 0.9848 0.1153 1.0365 0.123 Uiso 1 1 calc R U . . .
C19 C 0.9335(14) 0.0485(10) 1.0052(8) 0.118(12) Uani 1 1 d G U . . .
H19 H 0.9157 0.0312 1.0316 0.142 Uiso 1 1 calc R U . . .
C20 C 0.9185(14) 0.0239(8) 0.9636(10) 0.119(13) Uani 1 1 d G U . . .
H20 H 0.8904 -0.0103 0.9616 0.143 Uiso 1 1 calc R U . . .
C21 C 0.9444(15) 0.0492(9) 0.9250(8) 0.100(11) Uani 1 1 d G U . . .
H21 H 0.9341 0.0324 0.8966 0.120 Uiso 1 1 calc R U . . .
C22 C 0.9855(14) 0.0992(9) 0.9279(7) 0.090(10) Uani 1 1 d G U . . .
H22 H 1.0032 0.1166 0.9016 0.108 Uiso 1 1 calc R U . . .
C23 C 0.7565(12) 0.4098(6) 0.9788(7) 0.064(7) Uani 1 1 d G U . . .
C24 C 0.7535(12) 0.4244(7) 0.9338(6) 0.082(9) Uani 1 1 d G U . . .
H24 H 0.7190 0.4040 0.9122 0.098 Uiso 1 1 calc R U . . .
C25 C 0.8009(14) 0.4689(8) 0.9203(6) 0.075(8) Uani 1 1 d G U . . .
H25 H 0.7988 0.4789 0.8895 0.090 Uiso 1 1 calc R U . . .
C26 C 0.8513(14) 0.4988(7) 0.9518(8) 0.092(10) Uani 1 1 d G U . . .
H26 H 0.8837 0.5292 0.9425 0.110 Uiso 1 1 calc R U . . .
C27 C 0.8543(14) 0.4842(8) 0.9968(7) 0.117(12) Uani 1 1 d G U . . .
H27 H 0.8887 0.5046 1.0183 0.141 Uiso 1 1 calc R U . . .
C28 C 0.8069(14) 0.4397(8) 1.0103(6) 0.087(9) Uani 1 1 d G U . . .
H28 H 0.8089 0.4297 1.0411 0.104 Uiso 1 1 calc R U . . .
C29 C 0.6521(14) 0.3703(8) 1.0479(7) 0.064(7) Uani 1 1 d G U . . .
C30 C 0.5797(14) 0.4048(9) 1.0490(7) 0.110(11) Uani 1 1 d G U . . .
H30 H 0.5524 0.4183 1.0218 0.132 Uiso 1 1 calc R U . . .
C31 C 0.5472(13) 0.4194(10) 1.0899(9) 0.119(12) Uani 1 1 d G U . . .
H31 H 0.4977 0.4430 1.0907 0.143 Uiso 1 1 calc R U . . .
C32 C 0.5871(17) 0.3996(12) 1.1297(7) 0.145(14) Uani 1 1 d G U . . .
H32 H 0.5648 0.4096 1.1577 0.174 Uiso 1 1 calc R U . . .
C33 C 0.6595(17) 0.3651(11) 1.1286(7) 0.132(13) Uani 1 1 d G U . . .
H33 H 0.6868 0.3516 1.1558 0.158 Uiso 1 1 calc R U . . .
C34 C 0.6920(12) 0.3505(8) 1.0877(8) 0.086(9) Uani 1 1 d G U . . .
H34 H 0.7415 0.3269 1.0869 0.104 Uiso 1 1 calc R U . . .
C35 C 0.9695(16) 0.2331(11) 0.9442(10) 0.065(8) Uani 1 1 d . U . . .
H35 H 0.9934 0.2687 0.9361 0.078 Uiso 1 1 calc R U . . .
H35A H 0.9424 0.2159 0.9168 0.078 Uiso 1 1 calc R U . . .
C36 C 0.8988(16) 0.2391(11) 0.9813(10) 0.070(8) Uani 1 1 d . U . . .
H36 H 0.9291 0.2483 1.0106 0.084 Uiso 1 1 calc R U . . .
H36A H 0.8664 0.2049 0.9846 0.084 Uiso 1 1 calc R U . . .
C37 C 0.8303(19) 0.2862(9) 0.9657(9) 0.077(9) Uani 1 1 d D U . . .
H37 H 0.8629 0.3184 0.9562 0.092 Uiso 1 1 calc R U . . .
H37A H 0.7903 0.2739 0.9403 0.092 Uiso 1 1 calc R U . . .
C38 C 0.7758(19) 0.2995(10) 1.0073(9) 0.076(9) Uani 1 1 d D U . . .
H38 H 0.8169 0.3120 1.0322 0.091 Uiso 1 1 calc R U . . .
H38A H 0.7464 0.2664 1.0173 0.091 Uiso 1 1 calc R U . . .
Au3 Au 0.60130(8) 0.20389(4) 0.95846(4) 0.0625(3) Uani 1 1 d . . . . .
Au4 Au 0.08974(8) 0.33884(5) 1.04641(4) 0.0632(3) Uani 1 1 d . . . . .
S3 S 0.6340(7) 0.2098(3) 0.8844(3) 0.086(3) Uani 1 1 d . U . . .
S4 S -0.0289(5) 0.3237(4) 1.0900(2) 0.081(3) Uani 1 1 d . U . . .
P3 P 0.5662(5) 0.1945(3) 1.0303(2) 0.0591(19) Uani 1 1 d . . . . .
P4 P 0.1938(5) 0.3557(3) 0.9961(3) 0.064(2) Uani 1 1 d . . . . .
O5 O 0.7535(14) 0.0717(7) 0.7901(7) 0.103(7) Uani 1 1 d D U . . .
O6 O 0.6078(16) 0.0537(9) 0.7856(10) 0.148(12) Uani 1 1 d D U . . .
O7 O 0.0234(19) 0.3687(17) 1.2480(7) 0.211(19) Uani 1 1 d D U . . .
O8 O -0.119(2) 0.3889(13) 1.2337(10) 0.199(14) Uani 1 1 d D U . . .
N3 N 0.7231(17) 0.1751(10) 0.7980(7) 0.096(9) Uani 1 1 d D U . . .
H3 H 0.7210 0.1729 0.7676 0.144 Uiso 1 1 calc R U . . .
H3A H 0.7115 0.2095 0.8063 0.144 Uiso 1 1 calc R U . . .
H3B H 0.7782 0.1655 0.8094 0.144 Uiso 1 1 calc R U . . .
N4 N 0.018(3) 0.2955(14) 1.1865(11) 0.23(2) Uani 1 1 d D U . . .
H4C H 0.0012 0.2773 1.2111 0.341 Uiso 1 1 calc R U . . .
H4D H 0.0153 0.2731 1.1623 0.341 Uiso 1 1 calc R U . . .
H4E H 0.0744 0.3078 1.1915 0.341 Uiso 1 1 calc R U . . .
C39 C 0.6515(17) 0.1381(11) 0.8675(10) 0.075(6) Uani 1 1 d D U . . .
C40 C 0.6552(16) 0.1383(7) 0.8159(9) 0.077(6) Uani 1 1 d D U . . .
H40 H 0.5957 0.1503 0.8032 0.092 Uiso 1 1 calc R U . . .
C41 C 0.6740(15) 0.0826(8) 0.7954(7) 0.094(10) Uani 1 1 d D U . . .
C42 C 0.575(2) 0.1043(12) 0.8808(11) 0.092(9) Uani 1 1 d . U . . .
H42 H 0.5196 0.1179 0.8658 0.138 Uiso 1 1 calc R U . . .
H42A H 0.5841 0.0670 0.8719 0.138 Uiso 1 1 calc R U . . .
H42B H 0.5704 0.1062 0.9134 0.138 Uiso 1 1 calc R U . . .
C43 C 0.7399(17) 0.1186(11) 0.8901(10) 0.079(8) Uani 1 1 d D U . . .
H43 H 0.7884 0.1415 0.8806 0.118 Uiso 1 1 calc R U . . .
H43A H 0.7371 0.1206 0.9227 0.118 Uiso 1 1 calc R U . . .
H43B H 0.7508 0.0814 0.8812 0.118 Uiso 1 1 calc R U . . .
C44 C -0.017(2) 0.3717(16) 1.1376(14) 0.119(10) Uani 1 1 d . U . . .
C45 C -0.044(3) 0.3421(15) 1.1775(8) 0.151(12) Uani 1 1 d D U . . .
H45 H -0.1041 0.3268 1.1698 0.182 Uiso 1 1 calc R U . . .
C46 C -0.0467(19) 0.3690(11) 1.2243(7) 0.155(18) Uani 1 1 d D U . . .
C47 C 0.082(3) 0.3909(15) 1.1509(14) 0.163(17) Uani 1 1 d D U . . .
H47 H 0.1051 0.4112 1.1259 0.244 Uiso 1 1 calc R U . . .
H47A H 0.0819 0.4139 1.1776 0.244 Uiso 1 1 calc R U . . .
H47B H 0.1197 0.3595 1.1573 0.244 Uiso 1 1 calc R U . . .
C48 C -0.091(3) 0.4147(15) 1.1344(13) 0.127(13) Uani 1 1 d . U . . .
H48 H -0.0817 0.4383 1.1087 0.190 Uiso 1 1 calc R U . . .
H48A H -0.1487 0.3971 1.1304 0.190 Uiso 1 1 calc R U . . .
H48B H -0.0882 0.4361 1.1621 0.190 Uiso 1 1 calc R U . . .
C49 C 0.6634(12) 0.1943(9) 1.0715(6) 0.097(10) Uani 1 1 d G U . . .
C50 C 0.6606(14) 0.2212(9) 1.1122(7) 0.098(10) Uani 1 1 d G U . . .
H50 H 0.6079 0.2393 1.1196 0.118 Uiso 1 1 calc R U . . .
C51 C 0.7348(17) 0.2216(9) 1.1421(6) 0.107(11) Uani 1 1 d G U . . .
H51 H 0.7329 0.2400 1.1699 0.128 Uiso 1 1 calc R U . . .
C52 C 0.8119(13) 0.1952(10) 1.1312(8) 0.121(12) Uani 1 1 d G U . . .
H52 H 0.8627 0.1955 1.1516 0.145 Uiso 1 1 calc R U . . .
C53 C 0.8148(12) 0.1683(10) 1.0905(8) 0.127(13) Uani 1 1 d G U . . .
H53 H 0.8675 0.1503 1.0830 0.153 Uiso 1 1 calc R U . . .
C54 C 0.7405(15) 0.1679(9) 1.0606(6) 0.103(11) Uani 1 1 d G U . . .
H54 H 0.7424 0.1495 1.0328 0.123 Uiso 1 1 calc R U . . .
C55 C 0.