####################################################################### 
# 
# This file contains crystal structure data downloaded from the 
# Cambridge Structural Database (CSD) hosted by the Cambridge 
# Crystallographic Data Centre (CCDC).
# 
# Full information about CCDC data access policies and citation 
# guidelines are available at http://www.ccdc.cam.ac.uk/access/V1 
# 
# Audit and citation data items may have been added by the CCDC. 
# Please retain this information to preserve the provenance of 
# this file and to allow appropriate attribution of the data. 
# 
#######################################################################

data_D-2C3
_audit_block_doi                 10.5517/cc134lpj
_database_code_depnum_ccdc_archive 'CCDC 1017317'
loop_
_citation_id
_citation_doi
_citation_year
1 10.1246/bcsj.20140253 2015
_audit_update_record             
;
2014-09-28 deposited with the CCDC.	2024-07-11 downloaded from the CCDC.
;

_audit_creation_method           SHELXL-2014
_chemical_name_systematic        
;
 ?
;
_chemical_name_common            ?
_chemical_melting_point          ?
_chemical_formula_moiety         ?
_chemical_formula_sum            'C37 H44 Au2 Cu N2 O7.67 P2 S2'
_chemical_formula_weight         1222.94

loop_
_atom_type_symbol
_atom_type_description
_atom_type_scat_dispersion_real
_atom_type_scat_dispersion_imag
_atom_type_scat_source
C C 0.0033 0.0016 'International Tables Vol C Tables 4.2.6.8 and 6.1.1.4'
H H 0.0000 0.0000 'International Tables Vol C Tables 4.2.6.8 and 6.1.1.4'
O O 0.0106 0.0060 'International Tables Vol C Tables 4.2.6.8 and 6.1.1.4'
N N 0.0061 0.0033 'International Tables Vol C Tables 4.2.6.8 and 6.1.1.4'
Au Au -2.0133 8.8022 'International Tables Vol C Tables 4.2.6.8 and 6.1.1.4'
Cu Cu 0.3201 1.2651 'International Tables Vol C Tables 4.2.6.8 and 6.1.1.4'
S S 0.1246 0.1234 'International Tables Vol C Tables 4.2.6.8 and 6.1.1.4'
P P 0.1023 0.0942 'International Tables Vol C Tables 4.2.6.8 and 6.1.1.4'

_space_group_crystal_system      hexagonal
_space_group_IT_number           173
_space_group_name_H-M_alt        'P 63'
_space_group_name_Hall           'P 6c'

_shelx_space_group_comment       
;
The symmetry employed for this shelxl refinement is uniquely defined
by the following loop, which should always be used as a source of
symmetry information in preference to the above space-group names.
They are only intended as comments.
;

loop_
_space_group_symop_operation_xyz
'x, y, z'
'-x, -y, z+1/2'
'-y, x-y, z'
'-x+y, -x, z'
'x-y, x, z+1/2'
'y, -x+y, z+1/2'

_cell_length_a                   45.058(3)
_cell_length_b                   45.058(3)
_cell_length_c                   12.0740(8)
_cell_angle_alpha                90
_cell_angle_beta                 90
_cell_angle_gamma                120
_cell_volume                     21229(3)
_cell_formula_units_Z            12
_cell_measurement_temperature    200(2)
_cell_measurement_reflns_used    75612
_cell_measurement_theta_min      3.11
_cell_measurement_theta_max      27.49

_exptl_crystal_description       plate
_exptl_crystal_colour            blue
_exptl_crystal_density_meas      ?
_exptl_crystal_density_method    ?
_exptl_crystal_density_diffrn    1.148
_exptl_crystal_F_000             7084
_exptl_transmission_factor_min   ?
_exptl_transmission_factor_max   ?
_exptl_crystal_size_max          0.20
_exptl_crystal_size_mid          0.08
_exptl_crystal_size_min          0.05
_exptl_absorpt_coefficient_mu    4.568
_shelx_estimated_absorpt_T_min   0.658
_shelx_estimated_absorpt_T_max   0.658
_exptl_absorpt_correction_type   multi-scan
_exptl_absorpt_correction_T_min  0.4699
_exptl_absorpt_correction_T_max  1.000
_exptl_absorpt_process_details   
;
 ABSCOR (Higashi, 2001)
;

_exptl_special_details           
;
 ?
;

_diffrn_ambient_temperature      200(2)
_diffrn_radiation_wavelength     0.71075
_diffrn_radiation_type           MoK\a
_diffrn_radiation_source         'fine-focus sealed tube'
_diffrn_radiation_monochromator  graphite
_diffrn_measurement_device_type  'Rigaku RAXIS-7'
_diffrn_measurement_method       \w
_diffrn_detector_area_resol_mean 10.00
_diffrn_reflns_number            168990
_diffrn_reflns_av_unetI/netI     0.1725
_diffrn_reflns_av_R_equivalents  0.1502
_diffrn_reflns_limit_h_min       -58
_diffrn_reflns_limit_h_max       58
_diffrn_reflns_limit_k_min       -58
_diffrn_reflns_limit_k_max       58
_diffrn_reflns_limit_l_min       -15
_diffrn_reflns_limit_l_max       12
_diffrn_reflns_theta_min         3.108
_diffrn_reflns_theta_max         27.485
_diffrn_reflns_theta_full        25.242
_diffrn_measured_fraction_theta_max 0.984
_diffrn_measured_fraction_theta_full 0.993
_diffrn_reflns_Laue_measured_fraction_max 0.984
_diffrn_reflns_Laue_measured_fraction_full 0.993
_diffrn_reflns_point_group_measured_fraction_max 0.924
_diffrn_reflns_point_group_measured_fraction_full 0.937
_reflns_number_total             30019
_reflns_number_gt                14294
_reflns_threshold_expression     'I > 2\s(I)'
_reflns_Friedel_coverage         0.793
_reflns_Friedel_fraction_max     0.858
_reflns_Friedel_fraction_full    0.874

_reflns_special_details          
;
 Reflections were merged by SHELXL according to the crystal
 class for the calculation of statistics and refinement.
 
 _reflns_Friedel_fraction is defined as the number of unique
 Friedel pairs measured divided by the number that would be
 possible theoretically, ignoring centric projections and
 systematic absences.
;

_computing_data_collection       PROCESS-AUTO
_computing_cell_refinement       PROCESS-AUTO
_computing_data_reduction        CrystalStructure
_computing_structure_solution    'SHELXS-2014 (Sheldrick, 2014)'
_computing_structure_refinement  'SHELXL-2014 (Sheldrick, 2014)'
_computing_molecular_graphics    'Yadokari-XG 2009 (Wakita Nemoto et al., 2009)'
_computing_publication_material  
;Yadokari-XG 2009 (Wakita,Nemoto et al., 2009)
;

_refine_special_details          
;
 ?
;
_refine_ls_structure_factor_coef Fsqd
_refine_ls_matrix_type           full
_refine_ls_weighting_scheme      calc
_refine_ls_weighting_details     
'w=1/[\s^2^(Fo^2^)+(0.0526P)^2^] where P=(Fo^2^+2Fc^2^)/3'
_atom_sites_solution_primary     ?
_atom_sites_solution_secondary   ?
_atom_sites_solution_hydrogens   geom
_refine_ls_hydrogen_treatment    constr
_refine_ls_extinction_method     none
_refine_ls_extinction_coef       .
_refine_ls_abs_structure_details 
;
 Flack x determined using 4397 quotients [(I+)-(I-)]/[(I+)+(I-)]
 (Parsons, Flack and Wagner, Acta Cryst. B69 (2013) 249-259).
;
_refine_ls_abs_structure_Flack   0.016(5)
_chemical_absolute_configuration rm
_refine_ls_number_reflns         30019
_refine_ls_number_parameters     805
_refine_ls_number_restraints     119
_refine_ls_R_factor_all          0.1378
_refine_ls_R_factor_gt           0.0555
_refine_ls_wR_factor_ref         0.1258
_refine_ls_wR_factor_gt          0.1079
_refine_ls_goodness_of_fit_ref   0.838
_refine_ls_restrained_S_all      0.840
_refine_ls_shift/su_max          0.001
_refine_ls_shift/su_mean         0.000

loop_
_platon_squeeze_void_nr
_platon_squeeze_void_average_x
_platon_squeeze_void_average_y
_platon_squeeze_void_average_z
_platon_squeeze_void_volume
_platon_squeeze_void_count_electrons
_platon_squeeze_void_content
1 0.000 0.000 -0.010 5793 1463 ' '
2 0.333 0.667 0.042 1692 465 ' '
3 0.667 0.333 0.542 1692 464 ' '
_platon_squeeze_details          
;
;


loop_
_atom_site_label
_atom_site_type_symbol
_atom_site_fract_x
_atom_site_fract_y
_atom_site_fract_z
_atom_site_U_iso_or_equiv
_atom_site_adp_type
_atom_site_occupancy
_atom_site_site_symmetry_order
_atom_site_calc_flag
_atom_site_refinement_flags_posn
_atom_site_refinement_flags_adp
_atom_site_refinement_flags_occupancy
_atom_site_disorder_assembly
_atom_site_disorder_group
Au1 Au 0.39950(2) 0.36567(2) 0.21342(6) 0.05487(17) Uani 1 1 d . . . . .
Au2 Au 0.31081(2) 0.42894(2) 0.39925(6) 0.05961(18) Uani 1 1 d . . . . .
Au3 Au 0.24650(2) 0.43971(2) 0.46178(7) 0.0679(2) Uani 1 1 d . . . . .
Au4 Au 0.11497(2) 0.42786(2) 0.66670(6) 0.05878(18) Uani 1 1 d . . . . .
Cu1 Cu 0.49197(5) 0.40831(5) 0.1696(2) 0.0683(6) Uani 1 1 d . . . . .
Cu2 Cu 0.33250(5) 0.51878(5) 0.4127(2) 0.0771(7) Uani 1 1 d . . . . .
S1 S 0.45057(10) 0.39184(10) 0.3097(4) 0.0603(11) Uani 1 1 d . . . . .
S2 S 0.31898(10) 0.47458(11) 0.2888(4) 0.0672(12) Uani 1 1 d . . . . .
S3 S 0.29248(11) 0.48665(13) 0.5433(5) 0.0868(16) Uani 1 1 d D . . . .
S4 S 0.10491(11) 0.46544(12) 0.5643(4) 0.0699(13) Uani 1 1 d . . . . .
P1 P 0.34674(10) 0.33830(10) 0.1392(4) 0.0521(11) Uani 1 1 d . . . . .
P2 P 0.29919(10) 0.38074(11) 0.4950(4) 0.0576(12) Uani 1 1 d . . . . .
P3 P 0.20130(10) 0.39231(11) 0.3895(4) 0.0603(11) Uani 1 1 d . . . . .
P4 P 0.12554(10) 0.38933(11) 0.7542(4) 0.0561(11) Uani 1 1 d . . . . .
O1 O 0.4739(3) 0.4404(3) 0.0841(11) 0.083(4) Uani 1 1 d . . . . .
O2 O 0.4604(3) 0.4795(3) 0.1338(12) 0.103(5) Uani 1 1 d . . . . .
O3 O 0.3777(3) 0.5163(3) 0.4784(12) 0.085(4) Uani 1 1 d . . . . .
O4 O 0.4265(3) 0.5226(3) 0.3971(12) 0.096(4) Uani 1 1 d . . . . .
O5 O 0.3151(5) 0.6011(6) 0.576(2) 0.215(10) Uiso 1 1 d D . . . .
O6 O 0.3118(7) 0.5878(7) 0.739(2) 0.282(14) Uiso 1 1 d D . . . .
O7 O 0.1857(4) 0.5886(4) 0.5661(14) 0.141(6) Uiso 1 1 d D . . . .
O8 O 0.1854(5) 0.5739(4) 0.3987(16) 0.169(7) Uiso 1 1 d D . . . .
N1 N 0.5143(3) 0.4531(3) 0.2537(11) 0.065(4) Uani 1 1 d . . . . .
H1A H 0.5215 0.4506 0.3216 0.078 Uiso 1 1 calc R U . . .
H1B H 0.5325 0.4697 0.2155 0.078 Uiso 1 1 calc R U . . .
N2 N 0.3687(3) 0.5463(3) 0.3017(13) 0.087(5) Uani 1 1 d . . . . .
H2A H 0.3593 0.5486 0.2379 0.104 Uiso 1 1 calc R U . . .
H2B H 0.3836 0.5675 0.3286 0.104 Uiso 1 1 calc R U . . .
N3 N 0.3378(4) 0.5596(4) 0.4986(16) 0.109(6) Uani 1 1 d . U . . .
H3A H 0.3598 0.5719 0.5234 0.130 Uiso 1 1 calc R U . . .
H3B H 0.3343 0.5734 0.4516 0.130 Uiso 1 1 calc R U . . .
N4 N 0.1197(3) 0.5357(4) 0.5890(14) 0.089(5) Uani 1 1 d . U . . .
H4A H 0.1085 0.5455 0.5563 0.107 Uiso 1 1 calc R U . . .
H4B H 0.1338 0.5507 0.6414 0.107 Uiso 1 1 calc R U . . .
C1 C 0.4610(4) 0.4353(4) 0.3474(16) 0.068(5) Uani 1 1 d . U . . .
C2 C 0.4874(4) 0.4613(4) 0.2633(18) 0.080(6) Uani 1 1 d . . . . .
H1 H 0.4971 0.4850 0.2937 0.096 Uiso 1 1 calc R U . . .
C3 C 0.4717(5) 0.4596(4) 0.1507(16) 0.063(5) Uani 1 1 d . . . . .
C4 C 0.4739(5) 0.4408(5) 0.4688(18) 0.108(7) Uani 1 1 d . U . . .
H2 H 0.4950 0.4396 0.4728 0.162 Uiso 1 1 calc R U . . .
H3 H 0.4785 0.4634 0.4944 0.162 Uiso 1 1 calc R U . . .
H4 H 0.4563 0.4230 0.5159 0.162 Uiso 1 1 calc R U . . .
C5 C 0.4278(4) 0.4374(5) 0.3445(16) 0.089(6) Uani 1 1 d . . . . .
H5 H 0.4191 0.4339 0.2684 0.133 Uiso 1 1 calc R U . . .
H6 H 0.4105 0.4196 0.3924 0.133 Uiso 1 1 calc R U . . .
H7 H 0.4327 0.4600 0.3708 0.133 Uiso 1 1 calc R U . . .
C6 C 0.3609(4) 0.4933(4) 0.2229(18) 0.068(5) Uani 1 1 d . . . . .
C7 C 0.3859(4) 0.5264(4) 0.2828(19) 0.082(6) Uani 1 1 d . . . . .
H8 H 0.4061 0.5400 0.2333 0.099 Uiso 1 1 calc R U . . .
C8 C 0.3989(5) 0.5229(4) 0.394(2) 0.085(6) Uani 1 1 d . . . . .
C9 C 0.3557(5) 0.4984(5) 0.1011(18) 0.104(7) Uani 1 1 d . . . . .
H9 H 0.3462 0.5137 0.0950 0.156 Uiso 1 1 calc R U . . .
H10 H 0.3778 0.5086 0.0626 0.156 Uiso 1 1 calc R U . . .
H11 H 0.3399 0.4762 0.0675 0.156 Uiso 1 1 calc R U . . .
C10 C 0.3752(5) 0.4701(5) 0.2202(17) 0.093(6) Uani 1 1 d . . . . .
H12 H 0.3794 0.4653 0.2961 0.139 Uiso 1 1 calc R U . . .
H13 H 0.3589 0.4486 0.1839 0.139 Uiso 1 1 calc R U . . .
H14 H 0.3968 0.4810 0.1790 0.139 Uiso 1 1 calc R U . . .
C11 C 0.3375(3) 0.3636(3) 0.0399(8) 0.055(4) Uani 1 1 d G . . . .
C12 C 0.3611(2) 0.3979(3) 0.0200(9) 0.071(5) Uani 1 1 d G . . . .
H15 H 0.3828 0.4083 0.0556 0.085 Uiso 1 1 calc R U . . .
C13 C 0.3530(3) 0.4168(2) -0.0518(10) 0.090(6) Uani 1 1 d G . . . .
H16 H 0.3691 0.4403 -0.0654 0.108 Uiso 1 1 calc R U . . .
C14 C 0.3212(4) 0.4015(4) -0.1039(9) 0.088(6) Uani 1 1 d G . . . .
H17 H 0.3157 0.4145 -0.1530 0.106 Uiso 1 1 calc R U . . .
C15 C 0.2976(3) 0.3672(4) -0.0840(9) 0.082(6) Uani 1 1 d G . . . .
H18 H 0.2759 0.3568 -0.1196 0.098 Uiso 1 1 calc R U . . .
C16 C 0.3057(2) 0.3483(2) -0.0122(9) 0.069(5) Uani 1 1 d G . . . .
H19 H 0.2896 0.3248 0.0014 0.082 Uiso 1 1 calc R U . . .
C17 C 0.3371(3) 0.3008(2) 0.0574(8) 0.060(4) Uani 1 1 d G U . . .
C18 C 0.3612(2) 0.3047(2) -0.0220(9) 0.060(4) Uani 1 1 d G U . . .
H20 H 0.3822 0.3257 -0.0275 0.073 Uiso 1 1 calc R U . . .
C19 C 0.3544(3) 0.2779(3) -0.0935(9) 0.097(6) Uani 1 1 d G U . . .
H21 H 0.3709 0.2806 -0.1478 0.116 Uiso 1 1 calc R U . . .
C20 C 0.3236(3) 0.2471(3) -0.0856(10) 0.105(7) Uani 1 1 d G U . . .
H22 H 0.3190 0.2288 -0.1344 0.126 Uiso 1 1 calc R U . . .
C21 C 0.2996(2) 0.2432(2) -0.0062(11) 0.099(7) Uani 1 1 d G U . . .
H23 H 0.2786 0.2222 -0.0007 0.118 Uiso 1 1 calc R U . . .
C22 C 0.3064(2) 0.2700(3) 0.0653(9) 0.076(5) Uani 1 1 d G U . . .
H24 H 0.2899 0.2673 0.1196 0.091 Uiso 1 1 calc R U . . .
C23 C 0.3326(3) 0.3838(3) 0.5855(9) 0.057(4) Uani 1 1 d G U . . .
C24 C 0.3258(3) 0.3561(2) 0.6530(10) 0.084(5) Uani 1 1 d G U . . .
H25 H 0.3040 0.3359 0.6507 0.101 Uiso 1 1 calc R U . . .
C25 C 0.3510(4) 0.3580(3) 0.7239(10) 0.108(7) Uani 1 1 d G U . . .
H26 H 0.3464 0.3391 0.7700 0.129 Uiso 1 1 calc R U . . .
C26 C 0.3830(3) 0.3876(4) 0.7272(10) 0.109(7) Uani 1 1 d G U . . .
H27 H 0.4002 0.3889 0.7757 0.131 Uiso 1 1 calc R U . . .
C27 C 0.3898(2) 0.4153(3) 0.6597(12) 0.107(6) Uani 1 1 d G U . . .
H28 H 0.4116 0.4355 0.6620 0.128 Uiso 1 1 calc R U . . .
C28 C 0.3645(3) 0.4134(3) 0.5888(10) 0.102(6) Uani 1 1 d G U . . .
H29 H 0.3692 0.4323 0.5427 0.122 Uiso 1 1 calc R U . . .
C29 C 0.2628(3) 0.3669(3) 0.5850(8) 0.058(4) Uani 1 1 d G . . . .
C30 C 0.2374(3) 0.3327(3) 0.5933(10) 0.074(5) Uani 1 1 d G . . . .
H30 H 0.2377 0.3161 0.5458 0.089 Uiso 1 1 calc R U . . .
C31 C 0.2114(3) 0.3229(3) 0.6710(12) 0.095(6) Uani 1 1 d G . . . .
H31 H 0.1939 0.2995 0.6767 0.113 Uiso 1 1 calc R U . . .
C32 C 0.2108(3) 0.3472(4) 0.7405(9) 0.087(6) Uani 1 1 d G . . . .
H32 H 0.1930 0.3405 0.7936 0.105 Uiso 1 1 calc R U . . .
C33 C 0.2363(3) 0.3814(3) 0.7321(9) 0.074(5) Uani 1 1 d G . . . .
H33 H 0.2359 0.3980 0.7796 0.088 Uiso 1 1 calc R U . . .
C34 C 0.2623(2) 0.3912(2) 0.6544(10) 0.066(5) Uani 1 1 d G . . . .
H34 H 0.2797 0.4146 0.6487 0.079 Uiso 1 1 calc R U . . .
C35 C 0.3131(4) 0.3256(4) 0.2448(13) 0.060(4) Uani 1 1 d . . . . .
H35 H 0.2907 0.3168 0.2071 0.072 Uiso 1 1 calc R U . . .
H36 H 0.3120 0.3066 0.2893 0.072 Uiso 1 1 calc R U . . .
C36 C 0.3184(4) 0.3544(3) 0.3227(13) 0.054(4) Uani 1 1 d . . . . .
H37 H 0.3398 0.3619 0.3649 0.064 Uiso 1 1 calc R U . . .
H38 H 0.3215 0.3742 0.2777 0.064 Uiso 1 1 calc R U . . .
C37 C 0.2906(3) 0.3456(4) 0.4009(13) 0.053(4) Uani 1 1 d . . . . .
H39 H 0.2869 0.3255 0.4448 0.064 Uiso 1 1 calc R U . . .
H40 H 0.2693 0.3391 0.3592 0.064 Uiso 1 1 calc R U . . .
C38 C 0.2802(4) 0.5182(5) 0.5805(19) 0.118(7) Uani 1 1 d D U . . .
C39 C 0.3153(5) 0.5516(5) 0.591(2) 0.123(8) Uani 1 1 d D U . . .
H41 H 0.3271 0.5455 0.6492 0.147 Uiso 1 1 calc R U . . .
C40 C 0.3143(6) 0.5815(7) 0.642(3) 0.242(18) Uiso 1 1 d D . . . .
C41 C 0.2584(6) 0.5047(6) 0.686(2) 0.178(10) Uani 1 1 d D U . . .
H42 H 0.2369 0.4836 0.6692 0.267 Uiso 1 1 calc R U . . .
H43 H 0.2711 0.4998 0.7424 0.267 Uiso 1 1 calc R U . . .
H44 H 0.2532 0.5220 0.7147 0.267 Uiso 1 1 calc R U . . .
C42 C 0.2599(6) 0.5223(6) 0.483(2) 0.182(11) Uani 1 1 d D U . . .
H45 H 0.2747 0.5310 0.4174 0.272 Uiso 1 1 calc R U . . .
H46 H 0.2398 0.5001 0.4656 0.272 Uiso 1 1 calc R U . . .
H47 H 0.2524 0.5386 0.5039 0.272 Uiso 1 1 calc R U . . .
C43 C 0.1442(6) 0.5011(6) 0.5290(17) 0.135(9) Uani 1 1 d D U . . .
C44 C 0.1402(5) 0.5328(5) 0.510(2) 0.133(10) Uani 1 1 d D U . . .
H48 H 0.1265 0.5275 0.4397 0.159 Uiso 1 1 calc R U . . .
C45 C 0.1724(4) 0.5693(4) 0.4889(18) 0.090(6) Uiso 1 1 d D . . . .
C46 C 0.1691(5) 0.5130(5) 0.625(2) 0.145(9) Uani 1 1 d D U . . .
H49 H 0.1588 0.5178 0.6889 0.217 Uiso 1 1 calc R U . . .
H50 H 0.1745 0.4951 0.6442 0.217 Uiso 1 1 calc R U . . .
H51 H 0.1902 0.5339 0.6037 0.217 Uiso 1 1 calc R U . . .
C47 C 0.1608(7) 0.4939(6) 0.432(2) 0.201(13) Uani 1 1 d D U . . .
H52 H 0.1450 0.4861 0.3685 0.302 Uiso 1 1 calc R U . . .
H53 H 0.1819 0.5149 0.4114 0.302 Uiso 1 1 calc R U . . .
H54 H 0.1662 0.4761 0.4518 0.302 Uiso 1 1 calc R U . . .
C48 C 0.1755(3) 0.4007(3) 0.2969(9) 0.063(4) Uani 1 1 d G U . . .
C49 C 0.1812(3) 0.4337(3) 0.2826(11) 0.096(6) Uani 1 1 d G U . . .
H55 H 0.1981 0.4520 0.3256 0.116 Uiso 1 1 calc R U . . .
C50 C 0.1621(4) 0.4400(3) 0.2055(12) 0.109(7) Uani 1 1 d G U . . .
H56 H 0.1660 0.4626 0.1958 0.130 Uiso 1 1 calc R U . . .
C51 C 0.1373(3) 0.4132(4) 0.1426(9) 0.109(7) Uani 1 1 d G U . . .
H57 H 0.1242 0.4175 0.0899 0.130 Uiso 1 1 calc R U . . .
C52 C 0.1316(3) 0.3802(4) 0.1569(10) 0.099(6) Uani 1 1 d G U . . .
H58 H 0.1146 0.3619 0.1139 0.119 Uiso 1 1 calc R U . . .
C53 C 0.1507(3) 0.3739(2) 0.2340(11) 0.088(6) Uani 1 1 d G U . . .
H59 H 0.1468 0.3513 0.2438 0.106 Uiso 1 1 calc R U . . .
C54 C 0.2138(3) 0.3667(3) 0.3115(9) 0.065(4) Uani 1 1 d G U . . .
C55 C 0.2391(3) 0.3831(2) 0.2316(10) 0.069(4) Uani 1 1 d G U . . .
H60 H 0.2505 0.4073 0.2249 0.083 Uiso 1 1 calc R U . . .
C56 C 0.2476(3) 0.3640(4) 0.1614(9) 0.102(6) Uani 1 1 d G U . . .
H61 H 0.2649 0.3752 0.1068 0.123 Uiso 1 1 calc R U . . .
C57 C 0.2309(3) 0.3285(4) 0.1712(10) 0.103(7) Uani 1 1 d G U . . .
H62 H 0.2367 0.3155 0.1233 0.123 Uiso 1 1 calc R U . . .
C58 C 0.2056(3) 0.3121(2) 0.2511(11) 0.093(6) Uani 1 1 d G U . . .
H63 H 0.1942 0.2879 0.2578 0.112 Uiso 1 1 calc R U . . .
C59 C 0.1971(3) 0.3