####################################################################### 
# 
# This file contains crystal structure data downloaded from the 
# Cambridge Structural Database (CSD) hosted by the Cambridge 
# Crystallographic Data Centre (CCDC).
# 
# Full information about CCDC data access policies and citation 
# guidelines are available at http://www.ccdc.cam.ac.uk/access/V1 
# 
# Audit and citation data items may have been added by the CCDC. 
# Please retain this information to preserve the provenance of 
# this file and to allow appropriate attribution of the data. 
# 
#######################################################################

data_Co(NCS)2(3pia)22EtOH11H2O
_audit_block_doi                 10.5517/cc5xvhd
_database_code_depnum_ccdc_archive 'CCDC 176684'
loop_
_citation_id
_citation_doi
_citation_year
1 10.1002/1521-3765(20020816)8:16<3586::AID-CHEM3586>3.0.CO;2-K 2002
_audit_update_record             
;
2001-12-21 deposited with the CCDC.	2024-07-11 downloaded from the CCDC.
;
#---------------------------------------------------------------------------
# CHEMICAL DATA 
_chemical_formula_sum            'C28 H18 Co N8 O15 S2 '
_chemical_formula_moiety         ?
_chemical_formula_weight         829.55
_chemical_melting_point          ?
#---------------------------------------------------------------------------
# CRYSTAL DATA 
_symmetry_cell_setting           monoclinic
_symmetry_space_group_name_H-M   'C 1 2/c 1'
_symmetry_Int_Tables_number      15
loop_
_symmetry_equiv_pos_as_xyz
x,y,z
-x,y,1/2-z
-x,-y,-z
x,-y,1/2+z
1/2+x,1/2+y,z
1/2-x,1/2+y,1/2-z
1/2-x,1/2-y,-z
1/2+x,1/2-y,1/2+z
_cell_length_a                   19.730(3)
_cell_length_b                   18.3287(8)
_cell_length_c                   14.9877(3)
_cell_angle_alpha                90
_cell_angle_beta                 115.2061(6)
_cell_angle_gamma                90
_cell_volume                     4904.0(6)
_cell_formula_units_Z            4
_cell_measurement_reflns_used    ?
_cell_measurement_theta_min      ?
_cell_measurement_theta_max      ?
_cell_measurement_temperature    293.2
#---------------------------------------------------------------------------
_exptl_crystal_description       block
_exptl_crystal_colour            red
_exptl_crystal_size_max          0.500
_exptl_crystal_size_mid          0.400
_exptl_crystal_size_min          0.300
_exptl_crystal_size_rad          ?
_exptl_crystal_density_diffrn    1.123
_exptl_crystal_density_meas      ?
_exptl_crystal_density_method    'not measured'
_exptl_absorpt_coefficient_mu    0.494
_exptl_absorpt_correction_type   empirical
_exptl_absorpt_process_details   REQABA
_exptl_absorpt_correction_T_min  0.667
_exptl_absorpt_correction_T_max  0.862
#---------------------------------------------------------------------------
# EXPERIMENTAL DATA 
_diffrn_radiation_type           'Mo K\a'
_diffrn_radiation_wavelength     0.7107
_diffrn_measurement_device_type  'Rigaku/MSC Mercury CCD'
_diffrn_measurement_method       \w
_diffrn_detector_area_resol_mean ?
_diffrn_reflns_number            18180
_diffrn_reflns_av_R_equivalents  0.023
_diffrn_reflns_theta_max         27.40
_diffrn_measured_fraction_theta_max 0.9714
_diffrn_reflns_theta_full        27.40
_diffrn_measured_fraction_theta_full 0.9714
_diffrn_reflns_limit_h_min       -21
_diffrn_reflns_limit_h_max       25
_diffrn_reflns_limit_k_min       -23
_diffrn_reflns_limit_k_max       17
_diffrn_reflns_limit_l_min       -17
_diffrn_reflns_limit_l_max       19
#---------------------------------------------------------------------------
# REFINEMENT DATA 
_refine_special_details          
;
Refinement using reflections with F^2^ > 4.0 sigma(F^2^). The weighted R-factor
(wR), goodness of fit (S) and R-factor (gt) are based on F, with F set to zero 
for negative F. The threshold expression of F^2^ > 4.0 sigma(F^2^) is used only 
for calculating R-factor (gt).
;
_reflns_number_total             5431
_reflns_number_gt                2117
_reflns_threshold_expression     F^2^>4.0\s(F^2^)
_refine_ls_structure_factor_coef F
_refine_ls_R_factor_gt           0.0810
_refine_ls_wR_factor_ref         0.1071
_refine_ls_hydrogen_treatment    noref
_refine_ls_number_reflns         2117
_refine_ls_number_parameters     203
_refine_ls_goodness_of_fit_ref   2.513
_refine_ls_weighting_scheme      calc
_refine_ls_weighting_details     'w = 1/[\s^2^(Fo) + 0.00090|Fo|^2^]'
_refine_ls_shift/su_max          0.0002
_refine_diff_density_max         0.59
_refine_diff_density_min         -0.36
_refine_ls_extinction_method     none
_refine_ls_extinction_coef       ?
_refine_ls_abs_structure_details ?
_refine_ls_abs_structure_Flack   ?
loop_
_atom_type_symbol
_atom_type_description
_atom_type_scat_dispersion_real
_atom_type_scat_dispersion_imag
_atom_type_scat_source
Co Co 0.349 0.972
;International Tables for Crystallography
(1992, Vol. C, Tables 4.2.6.8 and 6.1.1.1)
;
N N 0.006 0.003
;International Tables for Crystallography
(1992, Vol. C, Tables 4.2.6.8 and 6.1.1.1)
;
S S 0.125 0.123
;International Tables for Crystallography
(1992, Vol. C, Tables 4.2.6.8 and 6.1.1.1)
;
C C 0.003 0.002
;International Tables for Crystallography
(1992, Vol. C, Tables 4.2.6.8 and 6.1.1.1)
;
O O 0.011 0.006
;International Tables for Crystallography
(1992, Vol. C, Tables 4.2.6.8 and 6.1.1.1)
;
H H 0.000 0.000
;International Tables for Crystallography
(1992, Vol. C, Table 6.1.1.2)
;
#---------------------------------------------------------------------------
# ATOMIC COORDINATES AND DISPLACEMENT PARAMETERS 
loop_
_atom_site_label
_atom_site_type_symbol
_atom_site_fract_x
_atom_site_fract_y
_atom_site_fract_z
_atom_site_U_iso_or_equiv
_atom_site_adp_type
_atom_site_occupancy
_atom_site_calc_flag
_atom_site_refinement_flags
_atom_site_disorder_assembly
_atom_site_disorder_group
Co(1) Co 0.2500 0.2500 0.5000 0.0531(4) Uani 1.00 d S . .
S(1) S 0.0476(2) 0.1353(3) 0.5477(3) 0.183(2) Uani 1.00 d . . .
O(1) O 0.4343(4) -0.0831(4) 0.4829(5) 0.101(2) Uani 1.00 d . . .
O(2) O 0.1940(5) -0.0319(6) 0.1908(7) 0.153(3) Uiso 1.00 d . . .
O(3) O 0.030(2) 0.009(2) 0.304(2) 0.44(2) Uiso 1.00 d . . .
O(4) O 0.436(1) 0.033(1) 0.236(2) 0.37(1) Uiso 1.00 d . . .
O(5) O 0.5000 0.073(1) 0.7500 0.253(9) Uiso 1.00 d S . .
O(6) O 0.172(2) 0.185(2) 0.859(3) 0.44(2) Uiso 1.00 d . . .
O(7) O 0.167(2) 0.266(2) 0.781(3) 0.50(2) Uiso 1.00 d . . .
O(8) O 0.114(2) 0.254(2) 0.893(3) 0.50(2) Uiso 1.00 d . . .
N(1) N 0.2891(4) 0.1423(3) 0.4742(4) 0.056(2) Uani 1.00 d . . .
N(2) N 0.3213(4) -0.2325(3) 0.1577(4) 0.059(2) Uani 1.00 d . . .
N(3) N 0.3312(4) -0.0968(4) 0.3393(4) 0.069(2) Uani 1.00 d . . .
N(4) N 0.1609(4) 0.1989(3) 0.5145(4) 0.062(2) Uani 1.00 d . . .
C(1) C 0.3603(5) 0.1331(5) 0.4908(6) 0.076(3) Uani 1.00 d . . .
C(2) C 0.3880(5) 0.0677(5) 0.4751(7) 0.084(3) Uani 1.00 d . . .
C(3) C 0.3417(5) 0.0083(4) 0.4393(5) 0.062(2) Uani 1.00 d . . .
C(4) C 0.2683(5) 0.0174(5) 0.4229(6) 0.076(3) Uani 1.00 d . . .
C(5) C 0.2444(5) 0.0843(5) 0.4431(6) 0.073(3) Uani 1.00 d . . .
C(6) C 0.3788(6) -0.2759(5) 0.2111(6) 0.078(3) Uani 1.00 d . . .
C(7) C 0.4224(5) -0.2647(5) 0.3101(6) 0.088(3) Uani 1.00 d . . .
C(8) C 0.4090(5) -0.2060(5) 0.3570(5) 0.078(3) Uani 1.00 d . . .
C(9) C 0.3507(4) -0.1592(4) 0.3019(5) 0.060(2) Uani 1.00 d . . .
C(10) C 0.3090(4) -0.1757(4) 0.2029(5) 0.059(2) Uani 1.00 d . . .
C(11) C 0.3728(5) -0.0616(4) 0.4227(5) 0.065(2) Uani 1.00 d . . .
C(12) C 0.1141(5) 0.1731(5) 0.5278(5) 0.074(3) Uani 1.00 d . . .
C(13) C 0.220(2) 0.038(3) 0.152(3) 0.35(2) Uiso 1.00 d . . .
C(14) C 0.166(3) 0.059(2) 0.117(3) 0.35(2) Uiso 1.00 d . . .
H(1) H 0.3936 0.1734 0.5144 0.0906 Uiso 1.00 calc . . .
H(2) H 0.4395 0.0636 0.4891 0.1006 Uiso 1.00 calc . . .
H(3) H 0.2339 -0.0218 0.3977 0.0910 Uiso 1.00 calc . . .
H(4) H 0.1940 0.0888 0.4343 0.0875 Uiso 1.00 calc . . .
H(5) H 0.4618 -0.2977 0.3459 0.1060 Uiso 1.00 calc . . .
H(6) H 0.4387 -0.1976 0.4253 0.0941 Uiso 1.00 calc . . .
H(7) H 0.2689 -0.1439 0.1652 0.0711 Uiso 1.00 calc . . .
H(8) H 0.3900 -0.3159 0.1795 0.0931 Uiso 1.00 calc . . .
H(9) H 0.2829 -0.0772 0.3009 0.0833 Uiso 1.00 calc . . .

loop_
_atom_site_aniso_label
_atom_site_aniso_U_11
_atom_site_aniso_U_22
_atom_site_aniso_U_33
_atom_site_aniso_U_12
_atom_site_aniso_U_13
_atom_site_aniso_U_23
Co(1) 0.0647(9) 0.0444(8) 0.0527(7) -0.0066(8) 0.0274(6) -0.0019(7)
S(1) 0.076(2) 0.294(6) 0.172(3) -0.018(3) 0.044(2) 0.128(4)
O(1) 0.087(4) 0.084(5) 0.097(4) 0.018(4) 0.005(4) -0.030(3)
N(1) 0.064(4) 0.048(4) 0.057(3) -0.011(3) 0.027(3) -0.012(3)
N(2) 0.073(4) 0.047(4) 0.053(3) 0.012(3) 0.024(3) -0.001(3)
N(3) 0.069(4) 0.065(5) 0.061(3) 0.012(4) 0.015(3) -0.018(3)
N(4) 0.070(5) 0.055(4) 0.064(3) -0.007(3) 0.032(3) 0.002(3)
C(1) 0.067(6) 0.059(6) 0.101(6) -0.013(5) 0.036(5) -0.017(4)
C(2) 0.060(5) 0.071(7) 0.112(6) -0.001(5) 0.029(5) -0.022(5)
C(3) 0.072(6) 0.054(5) 0.059(4) 0.007(4) 0.026(4) -0.010(3)
C(4) 0.073(6) 0.057(6) 0.102(6) -0.012(4) 0.042(5) -0.023(4)
C(5) 0.064(5) 0.059(6) 0.105(6) -0.004(5) 0.045(5) -0.018(5)
C(6) 0.104(7) 0.055(5) 0.071(5) 0.020(5) 0.035(5) -0.003(4)
C(7) 0.102(7) 0.076(7) 0.064(5) 0.038(5) 0.012(5) -0.002(4)
C(8) 0.092(7) 0.068(6) 0.058(4) 0.022(5) 0.014(4) 0.002(4)
C(9) 0.064(5) 0.051(5) 0.060(4) 0.007(4) 0.021(4) -0.005(3)
C(10) 0.069(5) 0.053(5) 0.055(4) 0.006(4) 0.026(4) 0.002(3)
C(11) 0.071(6) 0.056(5) 0.060(4) 0.010(4) 0.020(4) -0.005(4)
C(12) 0.068(6) 0.088(7) 0.061(4) 0.004(5) 0.024(4) 0.026(4)
#---------------------------------------------------------------------------
_computing_data_collection       .
_computing_cell_refinement       .
_computing_data_reduction        'teXsan Ver. 1.11'
_computing_structure_solution    SIR88
_computing_structure_refinement  'teXsan Ver. 1.10'
_computing_publication_material  'teXsan Ver. 1.11'
_computing_molecular_graphics    ?
#---------------------------------------------------------------------------
_geom_special_details            
;
?
;
loop_
_geom_bond_atom_site_label_1
_geom_bond_atom_site_label_2
_geom_bond_distance
_geom_bond_site_symmetry_1
_geom_bond_site_symmetry_2
_geom_bond_publ_flag
Co(1) N(1) 2.214(6) . . yes
Co(1) N(1) 2.214(6) . 7_556 yes
Co(1) N(2) 2.199(5) . 4_555 yes
Co(1) N(2) 2.199(5) . 6_555 yes
Co(1) N(4) 2.083(7) . . yes
Co(1) N(4) 2.083(7) . 7_556 yes
S(1) C(12) 1.62(1) . . yes
O(1) N(3) 2.258(8) . . yes
O(1) C(11) 1.229(9) . . yes
O(2) C(13) 1.57(4) . . yes
O(2) C(14) 1.94(4) . . yes
O(3) O(3) 1.56(5) . 2_555 yes
O(4) O(5) 2.29(3) . 3_656 yes
O(6) O(7) 1.88(4) . . yes
O(6) O(8) 1.91(4) . . yes
N(1) C(1) 1.33(1) . . yes
N(1) C(5) 1.332(10) . . yes
N(2) C(6) 1.336(10) . . yes
N(2) C(10) 1.321(8) . . yes
N(3) C(9) 1.398(9) . . yes
N(3) C(11) 1.333(9) . . yes
N(4) C(12) 1.129(10) . . yes
C(1) C(2) 1.38(1) . . yes
C(1) C(5) 2.27(1) . . yes
C(2) C(3) 1.37(1) . . yes
C(3) C(4) 1.37(1) . . yes
C(3) C(11) 1.48(1) . . yes
C(4) C(5) 1.39(1) . . yes
C(6) C(7) 1.38(1) . . yes
C(6) C(10) 2.27(1) . . yes
C(7) C(8) 1.37(1) . . yes
C(8) C(9) 1.39(1) . . yes
C(9) C(10) 1.389(9) . . yes
C(13) C(14) 1.04(5) . . yes
#---------------------------------------------------------------------------
loop_
_geom_angle_atom_site_label_1
_geom_angle_atom_site_label_2
_geom_angle_atom_site_label_3
_geom_angle
_geom_angle_site_symmetry_1
_geom_angle_site_symmetry_2
_geom_angle_site_symmetry_3
_geom_angle_publ_flag
N(1) Co(1) N(1) 180.0 . . 7_556 yes
N(1) Co(1) N(2) 86.9(2) . . 4_555 yes
N(1) Co(1) N(2) 93.1(2) . . 6_555 yes
N(1) Co(1) N(4) 89.4(2) . . . yes
N(1) Co(1) N(4) 90.6(2) . . 7_556 yes
N(1) Co(1) N(2) 93.1(2) 7_556 . 4_555 yes
N(1) Co(1) N(2) 86.9(2) 7_556 . 6_555 yes
N(1) Co(1) N(4) 90.6(2) 7_556 . . yes
N(1) Co(1) N(4) 89.4(2) 7_556 . 7_556 yes
N(2) Co(1) N(2) 180.0 4_555 . 6_555 yes
N(2) Co(1) N(4) 90.3(2) 4_555 . . yes
N(2) Co(1) N(4) 89.7(2) 4_555 . 7_556 yes
N(2) Co(1) N(4) 89.7(2) 6_555 . . yes
N(2) Co(1) N(4) 90.3(2) 6_555 . 7_556 yes
N(4) Co(1) N(4) 180.0 . . 7_556 yes
N(3) O(1) C(11) 29.5(4) . . . yes
C(13) O(2) C(14) 32(1) . . . yes
O(4) O(5) O(4) 62(1) 4_555 . 3_656 yes
O(7) O(6) O(8) 76(2) . . . yes
Co(1) N(1) C(1) 119.9(5) . . . yes
Co(1) N(1) C(5) 123.0(5) . . . yes
C(1) N(1) C(5) 117.1(7) . . . yes
Co(1) N(2) C(6) 123.2(5) 4_554 . . yes
Co(1) N(2) C(10) 119.6(5) 4_554 . . yes
C(6) N(2) C(10) 117.2(6) . . . yes
O(1) N(3) C(9) 100.6(5) . . . yes
O(1) N(3) C(11) 26.9(4) . . . yes
C(9) N(3) C(11) 127.5(6) . . . yes
Co(1) N(4) C(12) 175.8(6) . . . yes
N(1) C(1) C(2) 122.7(8) . . . yes
N(1) C(1) C(5) 31.5(4) . . . yes
C(2) C(1) C(5) 91.3(6) . . . yes
C(1) C(2) C(3) 120.7(8) . . . yes
C(2) C(3) C(4) 116.6(8) . . . yes
C(2) C(3) C(11) 119.7(8) . . . yes
C(4) C(3) C(11) 123.7(8) . . . yes
C(3) C(4) C(5) 119.9(8) . . . yes
N(1) C(5) C(1) 31.4(4) . . . yes
N(1) C(5) C(4) 122.8(7) . . . yes
C(1) C(5) C(4) 91.5(6) . . . yes
N(2) C(6) C(7) 122.6(7) . . . yes
N(2) C(6) C(10) 31.2(3) . . . yes
C(7) C(6) C(10) 91.4(5) . . . yes
C(6) C(7) C(8) 120.1(7) . . . yes
C(7) C(8) C(9) 118.0(7) . . . yes
N(3) C(9) C(8) 124.4(6) . . . yes
N(3) C(9) C(10) 117.9(6) . . . yes
C(8) C(9) C(10) 117.7(7) . . . yes
N(2) C(10) C(6) 31.6(4) . . . yes
N(2) C(10) C(9) 124.4(7) . . . yes
C(6) C(10) C(9) 92.8(5) . . . yes
O(1) C(11) N(3) 123.6(7) . . . yes
O(1) C(11) C(3) 120.2(7) . . . yes
N(3) C(11) C(3) 116.2(7) . . . yes
S(1) C(12) N(4) 179.3(8) . . . yes
O(2) C(13) C(14) 93(4) . . . yes
O(2) C(14) C(13) 53(3) . . . yes
