####################################################################### 
# 
# This file contains crystal structure data downloaded from the 
# Cambridge Structural Database (CSD) hosted by the Cambridge 
# Crystallographic Data Centre (CCDC).
# 
# Full information about CCDC data access policies and citation 
# guidelines are available at http://www.ccdc.cam.ac.uk/access/V1 
# 
# Audit and citation data items may have been added by the CCDC. 
# Please retain this information to preserve the provenance of 
# this file and to allow appropriate attribution of the data. 
# 
#######################################################################

data_D-2C5
_audit_block_doi                 10.5517/cc134lrl
_database_code_depnum_ccdc_archive 'CCDC 1017319'
loop_
_citation_id
_citation_doi
_citation_year
1 10.1246/bcsj.20140253 2015
_audit_update_record             
;
2014-09-28 deposited with the CCDC.	2024-07-11 downloaded from the CCDC.
;

_audit_creation_method           SHELXL-2014
_chemical_name_systematic        
;
 ?
;
_chemical_name_common            ?
_chemical_melting_point          ?
_chemical_formula_moiety         'C39 H48 Au2 Cu N2 O4 P2 S2, 7(O)'
_chemical_formula_sum            'C39 H48 Au2 Cu N2 O11 P2 S2'
_chemical_formula_weight         1304.32

loop_
_atom_type_symbol
_atom_type_description
_atom_type_scat_dispersion_real
_atom_type_scat_dispersion_imag
_atom_type_scat_source
Au Au -2.0133 8.8022 'International Tables Vol C Tables 4.2.6.8 and 6.1.1.4'
P P 0.1023 0.0942 'International Tables Vol C Tables 4.2.6.8 and 6.1.1.4'
S S 0.1246 0.1234 'International Tables Vol C Tables 4.2.6.8 and 6.1.1.4'
Cu Cu 0.3201 1.2651 'International Tables Vol C Tables 4.2.6.8 and 6.1.1.4'
C C 0.0033 0.0016 'International Tables Vol C Tables 4.2.6.8 and 6.1.1.4'
N N 0.0061 0.0033 'International Tables Vol C Tables 4.2.6.8 and 6.1.1.4'
H H 0.0000 0.0000 'International Tables Vol C Tables 4.2.6.8 and 6.1.1.4'
O O 0.0106 0.0060 'International Tables Vol C Tables 4.2.6.8 and 6.1.1.4'

_space_group_crystal_system      triclinic
_space_group_IT_number           1
_space_group_name_H-M_alt        'P 1'
_space_group_name_Hall           'P 1'

_shelx_space_group_comment       
;
The symmetry employed for this shelxl refinement is uniquely defined
by the following loop, which should always be used as a source of
symmetry information in preference to the above space-group names.
They are only intended as comments.
;

loop_
_space_group_symop_operation_xyz
'x, y, z'

_cell_length_a                   8.153(3)
_cell_length_b                   15.778(6)
_cell_length_c                   22.334(9)
_cell_angle_alpha                74.413(7)
_cell_angle_beta                 81.760(7)
_cell_angle_gamma                78.438(7)
_cell_volume                     2699.0(17)
_cell_formula_units_Z            2
_cell_measurement_temperature    200(2)
_cell_measurement_reflns_used    4116
_cell_measurement_theta_min      3.04
_cell_measurement_theta_max      27.45

_exptl_crystal_description       platelet
_exptl_crystal_colour            blue
_exptl_crystal_density_meas      ?
_exptl_crystal_density_method    ?
_exptl_crystal_density_diffrn    1.605
_exptl_crystal_F_000             1266
_exptl_transmission_factor_min   ?
_exptl_transmission_factor_max   ?
_exptl_crystal_size_max          0.100
_exptl_crystal_size_mid          0.050
_exptl_crystal_size_min          0.010
_exptl_absorpt_coefficient_mu    5.998
_shelx_estimated_absorpt_T_min   0.585
_shelx_estimated_absorpt_T_max   0.942
_exptl_absorpt_correction_type   multi-scan
_exptl_absorpt_correction_T_min  0.0421
_exptl_absorpt_correction_T_max  1.0000
_exptl_absorpt_process_details   
;
 ABSCOR (Higashi, 2001)
;

_exptl_special_details           
;
 ?
;

_diffrn_ambient_temperature      200(2)
_diffrn_radiation_wavelength     0.71075
_diffrn_radiation_type           MoK\a
_diffrn_radiation_source         'fine-focus sealed tube'
_diffrn_radiation_monochromator  graphite
_diffrn_measurement_device_type  'Rigaku RAXIS-7'
_diffrn_measurement_method       \w
_diffrn_detector_area_resol_mean 10.00
_diffrn_reflns_number            26459
_diffrn_reflns_av_unetI/netI     0.2183
_diffrn_reflns_av_R_equivalents  0.1347
_diffrn_reflns_limit_h_min       -10
_diffrn_reflns_limit_h_max       10
_diffrn_reflns_limit_k_min       -20
_diffrn_reflns_limit_k_max       20
_diffrn_reflns_limit_l_min       -28
_diffrn_reflns_limit_l_max       23
_diffrn_reflns_theta_min         3.039
_diffrn_reflns_theta_max         27.480
_diffrn_reflns_theta_full        25.242
_diffrn_measured_fraction_theta_max 0.990
_diffrn_measured_fraction_theta_full 0.997
_diffrn_reflns_Laue_measured_fraction_max 0.990
_diffrn_reflns_Laue_measured_fraction_full 0.997
_diffrn_reflns_point_group_measured_fraction_max 0.804
_diffrn_reflns_point_group_measured_fraction_full 0.830
_reflns_number_total             19956
_reflns_number_gt                8715
_reflns_threshold_expression     'I > 2\s(I)'
_reflns_Friedel_coverage         0.624
_reflns_Friedel_fraction_max     0.618
_reflns_Friedel_fraction_full    0.663

_reflns_special_details          
;
 Reflections were merged by SHELXL according to the crystal
 class for the calculation of statistics and refinement.
 
 _reflns_Friedel_fraction is defined as the number of unique
 Friedel pairs measured divided by the number that would be
 possible theoretically, ignoring centric projections and
 systematic absences.
;

_computing_data_collection       PROCESS-AUTO
_computing_cell_refinement       PROCESS-AUTO
_computing_data_reduction        CrystalStructure
_computing_structure_solution    'SHELXS-2014 (Sheldrick, 2014)'
_computing_structure_refinement  'SHELXL-2014 (Sheldrick, 2014)'
_computing_molecular_graphics    'Yadokari-XG 2009 (Wakita Nemoto et al., 2009)'
_computing_publication_material  
;Yadokari-XG 2009 (Wakita,Nemoto et al., 2009)
;

_refine_special_details          
;
 ?
;
_refine_ls_structure_factor_coef Fsqd
_refine_ls_matrix_type           full
_refine_ls_weighting_scheme      calc
_refine_ls_weighting_details     
'w=1/[\s^2^(Fo^2^)+(0.1043P)^2^] where P=(Fo^2^+2Fc^2^)/3'
_atom_sites_solution_primary     ?
_atom_sites_solution_secondary   ?
_atom_sites_solution_hydrogens   geom
_refine_ls_hydrogen_treatment    constr
_refine_ls_extinction_method     none
_refine_ls_extinction_coef       .
_refine_ls_abs_structure_details 
;
 Flack x determined using 2299 quotients [(I+)-(I-)]/[(I+)+(I-)]
 (Parsons, Flack and Wagner, Acta Cryst. B69 (2013) 249-259).
;
_refine_ls_abs_structure_Flack   0.035(11)
_chemical_absolute_configuration rm
_refine_ls_number_reflns         19956
_refine_ls_number_parameters     838
_refine_ls_number_restraints     176
_refine_ls_R_factor_all          0.1916
_refine_ls_R_factor_gt           0.0825
_refine_ls_wR_factor_ref         0.2620
_refine_ls_wR_factor_gt          0.1879
_refine_ls_goodness_of_fit_ref   0.980
_refine_ls_restrained_S_all      0.977
_refine_ls_shift/su_max          0.000
_refine_ls_shift/su_mean         0.000

loop_
_atom_site_label
_atom_site_type_symbol
_atom_site_fract_x
_atom_site_fract_y
_atom_site_fract_z
_atom_site_U_iso_or_equiv
_atom_site_adp_type
_atom_site_occupancy
_atom_site_site_symmetry_order
_atom_site_calc_flag
_atom_site_refinement_flags_posn
_atom_site_refinement_flags_adp
_atom_site_refinement_flags_occupancy
_atom_site_disorder_assembly
_atom_site_disorder_group
Au1 Au 0.25818(15) 1.04587(8) 0.80324(7) 0.0632(4) Uani 1 1 d . . . . .
Au2 Au 0.19218(16) 0.89364(9) 0.91124(7) 0.0690(4) Uani 1 1 d . . . . .
Cu1 Cu 0.3063(7) 0.8203(3) 0.7716(3) 0.0852(15) Uani 1 1 d . . . . .
S1 S 0.4516(14) 0.9287(7) 0.7748(5) 0.076(3) Uani 1 1 d . U . . .
S2 S 0.0665(13) 0.8650(7) 0.8344(6) 0.081(3) Uani 1 1 d . U . . .
P1 P 0.0912(10) 1.1640(6) 0.8321(5) 0.056(2) Uani 1 1 d . . . . .
P2 P 0.3003(13) 0.9097(7) 0.9947(5) 0.074(3) Uani 1 1 d . . . . .
O1 O 0.541(5) 0.885(2) 0.5662(16) 0.122(11) Uani 1 1 d . U . . .
O2 O 0.793(6) 0.902(3) 0.5891(18) 0.132(12) Uani 1 1 d . U . . .
O3 O 0.400(4) 0.6997(18) 0.8540(13) 0.091(9) Uani 1 1 d . U . . .
O4 O 0.283(4) 0.5948(19) 0.9248(17) 0.117(12) Uani 1 1 d . U . . .
N1 N 0.454(5) 0.815(2) 0.6912(18) 0.097(10) Uani 1 1 d . U . . .
H1 H 0.5023 0.7574 0.6929 0.117 Uiso 1 1 calc R U . . .
H1A H 0.3888 0.8342 0.6588 0.117 Uiso 1 1 calc R U . . .
N2 N 0.182(5) 0.721(2) 0.773(2) 0.107(11) Uani 1 1 d . U . . .
H2 H 0.0908 0.7417 0.7502 0.129 Uiso 1 1 calc R U . . .
H2A H 0.2503 0.6770 0.7570 0.129 Uiso 1 1 calc R U . . .
C1 C 0.518(6) 0.965(3) 0.685(2) 0.088(9) Uani 1 1 d . U . . .
C2 C 0.581(6) 0.867(2) 0.680(2) 0.085(8) Uani 1 1 d . U . . .
H2B H 0.6762 0.8373 0.7059 0.102 Uiso 1 1 calc R U . . .
C3 C 0.648(8) 0.888(2) 0.602(2) 0.096(10) Uani 1 1 d . U . . .
C4 C 0.361(7) 1.014(3) 0.657(2) 0.115(15) Uani 1 1 d . U . . .
H4 H 0.3361 1.0742 0.6637 0.172 Uiso 1 1 calc R U . . .
H4A H 0.3765 1.0178 0.6120 0.172 Uiso 1 1 calc R U . . .
H4B H 0.2683 0.9820 0.6763 0.172 Uiso 1 1 calc R U . . .
C5 C 0.676(7) 1.011(3) 0.686(2) 0.122(16) Uani 1 1 d . U . . .
H5 H 0.7645 0.9656 0.7074 0.184 Uiso 1 1 calc R U . . .
H5A H 0.7194 1.0366 0.6433 0.184 Uiso 1 1 calc R U . . .
H5B H 0.6411 1.0579 0.7087 0.184 Uiso 1 1 calc R U . . .
C6 C -0.006(5) 0.755(3) 0.866(2) 0.089(9) Uani 1 1 d . U . . .
C7 C 0.130(6) 0.687(3) 0.841(3) 0.101(10) Uani 1 1 d . U . . .
H7 H 0.0795 0.6329 0.8458 0.122 Uiso 1 1 calc R U . . .
C8 C 0.277(6) 0.660(3) 0.874(3) 0.098(13) Uani 1 1 d . U . . .
C9 C -0.036(6) 0.732(3) 0.937(2) 0.116(14) Uani 1 1 d . U . . .
H9 H -0.1235 0.7781 0.9500 0.174 Uiso 1 1 calc R U . . .
H9A H -0.0722 0.6741 0.9519 0.174 Uiso 1 1 calc R U . . .
H9B H 0.0684 0.7302 0.9548 0.174 Uiso 1 1 calc R U . . .
C10 C -0.182(6) 0.754(3) 0.848(3) 0.127(17) Uani 1 1 d . U . . .
H10 H -0.1801 0.7680 0.8028 0.190 Uiso 1 1 calc R U . . .
H10A H -0.2119 0.6946 0.8665 0.190 Uiso 1 1 calc R U . . .
H10B H -0.2652 0.7986 0.8645 0.190 Uiso 1 1 calc R U . . .
C11 C 0.223(3) 1.231(2) 0.8516(16) 0.107(7) Uani 1 1 d G . . . .
C12 C 0.189(3) 1.263(2) 0.9049(15) 0.107(7) Uani 1 1 d G . . . .
H12 H 0.0911 1.2520 0.9325 0.128 Uiso 1 1 calc R U . . .
C13 C 0.298(3) 1.312(2) 0.9180(14) 0.107(7) Uani 1 1 d G . . . .
H13 H 0.2745 1.3339 0.9545 0.128 Uiso 1 1 calc R U . . .
C14 C 0.441(3) 1.328(2) 0.8778(16) 0.107(7) Uani 1 1 d G . . . .
H14 H 0.5154 1.3615 0.8867 0.128 Uiso 1 1 calc R U . . .
C15 C 0.475(3) 1.296(2) 0.8244(15) 0.107(7) Uani 1 1 d G . . . .
H15 H 0.5729 1.3072 0.7969 0.128 Uiso 1 1 calc R U . . .
C16 C 0.366(3) 1.247(2) 0.8113(14) 0.107(7) Uani 1 1 d G . . . .
H16 H 0.3895 1.2253 0.7748 0.128 Uiso 1 1 calc R U . . .
C17 C -0.022(3) 1.2370(13) 0.7704(10) 0.056(7) Uani 1 1 d G U . . .
C18 C -0.073(3) 1.3272(14) 0.7682(13) 0.090(11) Uani 1 1 d G U . . .
H18 H -0.0405 1.3516 0.7983 0.108 Uiso 1 1 calc R U . . .
C19 C -0.171(3) 1.3817(13) 0.7218(15) 0.110(15) Uani 1 1 d G U . . .
H19 H -0.2053 1.4434 0.7203 0.132 Uiso 1 1 calc R U . . .
C20 C -0.218(3) 1.346(2) 0.6777(13) 0.113(14) Uani 1 1 d G U . . .
H20 H -0.2849 1.3833 0.6460 0.135 Uiso 1 1 calc R U . . .
C21 C -0.167(4) 1.256(2) 0.6799(12) 0.126(18) Uani 1 1 d G U . . .
H21 H -0.1996 1.2314 0.6497 0.151 Uiso 1 1 calc R U . . .
C22 C -0.069(3) 1.2013(14) 0.7262(12) 0.075(9) Uani 1 1 d G U . . .
H22 H -0.0348 1.1396 0.7277 0.089 Uiso 1 1 calc R U . . .
C23 C 0.138(3) 0.9227(18) 1.0573(10) 0.074(9) Uani 1 1 d G U . . .
C24 C 0.166(3) 0.954(2) 1.1069(13) 0.106(14) Uani 1 1 d G U . . .
H24 H 0.2714 0.9701 1.1078 0.127 Uiso 1 1 calc R U . . .
C25 C 0.040(4) 0.961(2) 1.1551(12) 0.119(15) Uani 1 1 d G U . . .
H25 H 0.0593 0.9822 1.1891 0.143 Uiso 1 1 calc R U . . .
C26 C -0.114(4) 0.937(2) 1.1538(14) 0.15(2) Uani 1 1 d G U . . .
H26 H -0.2004 0.9420 1.1868 0.175 Uiso 1 1 calc R U . . .
C27 C -0.143(3) 0.906(2) 1.1042(16) 0.125(17) Uani 1 1 d G U . . .
H27 H -0.2480 0.8897 1.1033 0.150 Uiso 1 1 calc R U . . .
C28 C -0.017(3) 0.8988(18) 1.0559(12) 0.089(11) Uani 1 1 d G U . . .
H28 H -0.0359 0.8776 1.0220 0.107 Uiso 1 1 calc R U . . .
C29 C 0.450(3) 0.8077(16) 1.0250(12) 0.071(9) Uani 1 1 d G U . . .
C30 C 0.493(3) 0.744(2) 0.9900(10) 0.087(11) Uani 1 1 d G U . . .
H30 H 0.4515 0.7559 0.9505 0.105 Uiso 1 1 calc R U . . .
C31 C 0.598(4) 0.6643(17) 1.0127(14) 0.104(12) Uani 1 1 d G U . . .
H31 H 0.6280 0.6211 0.9887 0.124 Uiso 1 1 calc R U . . .
C32 C 0.659(3) 0.6475(17) 1.0705(15) 0.116(16) Uani 1 1 d G U . . .
H32 H 0.7311 0.5927 1.0860 0.139 Uiso 1 1 calc R U . . .
C33 C 0.616(4) 0.711(2) 1.1055(11) 0.14(2) Uani 1 1 d G U . . .
H33 H 0.6578 0.6992 1.1450 0.163 Uiso 1 1 calc R U . . .
C34 C 0.511(4) 0.7908(19) 1.0828(12) 0.093(12) Uani 1 1 d G U . . .
H34 H 0.4812 0.8340 1.1067 0.112 Uiso 1 1 calc R U . . .
C35 C -0.586(4) 1.000(2) 0.9857(17) 0.068(9) Uani 1 1 d . U . . .
H35 H -0.6673 1.0567 0.9767 0.081 Uiso 1 1 calc R U . . .
H35A H -0.5442 0.9942 1.0263 0.081 Uiso 1 1 calc R U . . .
C36 C -0.439(4) 1.008(2) 0.9360(14) 0.060(9) Uani 1 1 d . U . . .
H36 H -0.3675 0.9487 0.9395 0.072 Uiso 1 1 calc R U . . .
H36A H -0.4824 1.0269 0.8944 0.072 Uiso 1 1 calc R U . . .
C37 C -0.333(4) 1.073(2) 0.9400(16) 0.061(8) Uani 1 1 d . U . . .
H37 H -0.2833 1.0527 0.9804 0.073 Uiso 1 1 calc R U . . .
H37A H -0.4045 1.1321 0.9382 0.073 Uiso 1 1 calc R U . . .
C38 C -0.194(4) 1.080(2) 0.8862(15) 0.055(7) Uani 1 1 d . U . . .
H38 H -0.2428 1.1096 0.8462 0.066 Uiso 1 1 calc R U . . .
H38A H -0.1332 1.0202 0.8840 0.066 Uiso 1 1 calc R U . . .
C39 C -0.065(4) 1.138(2) 0.8976(15) 0.059(8) Uani 1 1 d . U . . .
H39 H -0.0068 1.1049 0.9351 0.071 Uiso 1 1 calc R U . . .
H39A H -0.1293 1.1949 0.9059 0.071 Uiso 1 1 calc R U . . .
Au3 Au 0.67708(15) 0.58104(8) 0.32026(7) 0.0630(4) Uani 1 1 d . . . . .
Au4 Au 0.74751(14) 0.49529(8) 0.45186(7) 0.0614(4) Uani 1 1 d . . . . .
Cu2 Cu 0.6312(6) 0.7322(3) 0.4269(2) 0.0764(13) Uani 1 1 d . . . . .
S3 S 0.4838(12) 0.6745(6) 0.3712(5) 0.067(2) Uani 1 1 d . U . . .
S4 S 0.8696(13) 0.6225(7) 0.4322(5) 0.077(3) Uani 1 1 d . U . . .
P3 P 0.8507(12) 0.4896(6) 0.2659(5) 0.063(2) Uani 1 1 d . . . . .
P4 P 0.6414(10) 0.3672(6) 0.4810(5) 0.059(2) Uani 1 1 d . . . . .
N3 N 0.495(6) 0.845(2) 0.3951(18) 0.113(13) Uani 1 1 d . U . . .
H3 H 0.4408 0.8653 0.4283 0.136 Uiso 1 1 calc R U . . .
H3A H 0.5652 0.8836 0.3744 0.136 Uiso 1 1 calc R U . . .
N4 N 0.748(4) 0.782(2) 0.4824(15) 0.082(8) Uani 1 1 d . U . . .
H4C H 0.8370 0.8063 0.4609 0.098 Uiso 1 1 calc R U . . .
H4D H 0.6749 0.8227 0.4992 0.098 Uiso 1 1 calc R U . . .
O5 O 0.412(5) 0.986(2) 0.290(2) 0.165(19) Uani 1 1 d . U . . .
O6 O 0.154(4) 0.960(2) 0.2983(18) 0.121(11) Uani 1 1 d . U . . .
O7 O 0.532(3) 0.6699(18) 0.5314(12) 0.080(7) Uani 1 1 d . U . . .
O8 O 0.644(3) 0.622(2) 0.6221(11) 0.104(10) Uani 1 1 d . U . . .
C40 C 0.415(6) 0.780(3) 0.311(2) 0.083(8) Uani 1 1 d . U . . .
C41 C 0.367(6) 0.850(2) 0.3528(19) 0.090(10) Uani 1 1 d . U . . .
H41 H 0.2674 0.8309 0.3814 0.108 Uiso 1 1 calc R U . . .
C42 C 0.299(6) 0.941(3) 0.311(3) 0.119(17) Uani 1 1 d . U . . .
C43 C 0.560(6) 0.808(3) 0.265(2) 0.126(17) Uani 1 1 d . U . . .
H43 H 0.6494 0.8153 0.2879 0.189 Uiso 1 1 calc R U . . .
H43A H 0.6044 0.7627 0.2421 0.189 Uiso 1 1 calc R U . . .
H43B H 0.5222 0.8652 0.2361 0.189 Uiso 1 1 calc R U . . .
C44 C 0.279(6) 0.768(4) 0.282(3) 0.130(17) Uani 1 1 d . U . . .
H44 H 0.1877 0.7501 0.3133 0.195 Uiso 1 1 calc R U . . .
H44A H 0.2366 0.8247 0.2526 0.195 Uiso 1 1 calc R U . . .
H44B H 0.3188 0.7222 0.2585 0.195 Uiso 1 1 calc R U . . .
C45 C 0.937(5) 0.630(3) 0.506(2) 0.078(7) Uani 1 1 d . U . . .
C46 C 0.804(5) 0.695(3) 0.5335(19) 0.081(7) Uani 1 1 d . U . . .
H46 H 0.8558 0.7126 0.5654 0.098 Uiso 1 1 calc R U . . .
C47 C 0.653(5) 0.658(3) 0.5646(19) 0.091(13) Uani 1 1 d . U . . .
C48 C 0.961(5) 0.543(3) 0.5506(19) 0.079(9) Uani 1 1 d . U . . .
H48 H 0.8530 0.5216 0.5624 0.119 Uiso 1 1 calc R U . . .
H48A H 1.0413 0.5007 0.5313 0.119 Uiso 1 1 calc R U . . .
H48B H 1.0042 0.5482 0.5880 0.119 Uiso 1 1 calc R U . . .
C49 C 1.104(6) 0.657(4) 0.491(3) 0.133(16) Uani 1 1 d . U . . .
H49 H 1.0953 0.7155 0.4616 0.199 Uiso 1 1 calc R U . . .
H49A H 1.1452 0.6603 0.5297 0.199 Uiso 1 1 calc R U . . .
H49B H 1.1823 0.6128 0.4730 0.199 Uiso 1 1 calc R U . . .
C50 C 0.719(4) 0.436(2) 0.240(2) 0.136(10) Uani 1 1 d G . . . .
C51 C 0.763(4) 0.346(2) 0.241(2) 0.136(10) Uani 1 1 d G . . . .
H51 H 0.8634 0.3125 0.2581 0.164 Uiso 1 1 calc R U . . .
C52 C 0.661(5) 0.3053(17) 0.217(2) 0.136(10) Uani 1 1 d G . . . .
H52 H 0.6909 0.2437 0.2177 0.164 Uiso 1 1 calc R U . . .
C53 C 0.514(4) 0.355(2) 0.192(2) 0.136(10) Uani 1 1 d G . . . .
H53 H 0.4440 0.3266 0.1755 0.164 Uiso 1 1 calc R U . . .
C54 C 0.470(4) 0.445(2) 0.191(2) 0.136(10) Uani 1 1 d G . . . .
H54 H 0.3697 0.4783 0.1738 0.164 Uiso 1 1 calc R U . . .
C55 C 0.572(5) 0.4855(17) 0.215(2) 0.136(10) Uani 1 1 d G . . . .
H55 H 0.5422 0.5471 0.2143 0.164 Uiso 1 1 calc R U . . .
C56 C 0.969(3) 0.5528(18) 0.2000(10) 0.074(9) Uani 1 1 d G U . . .
C57 C 1.024(3) 0.5209(19) 0.1471(12) 0.105(12) Uani 1 1 d G U . . .
H57 H 0.9984 0.4657 0.1449 0.127 Uiso 1 1 calc R U . . .
C58 C 1.116(3) 0.570(3) 0.0973(10) 0.143(19) Uani 1 1 d G U . . .
H58 H 1.1541 0.5480 0.0611 0.171 Uiso 1 1 calc R U . . .
C59 C 1.154(3) 0.651(3) 0.1004(13) 0.16(2) Uani 1 1 d G U . . .
H59 H 1.