####################################################################### 
# 
# This file contains crystal structure data downloaded from the 
# Cambridge Structural Database (CSD) hosted by the Cambridge 
# Crystallographic Data Centre (CCDC).
# 
# Full information about CCDC data access policies and citation 
# guidelines are available at http://www.ccdc.cam.ac.uk/access/V1 
# 
# Audit and citation data items may have been added by the CCDC. 
# Please retain this information to preserve the provenance of 
# this file and to allow appropriate attribution of the data. 
# 
#######################################################################

data_L-2C3
_audit_block_doi                 10.5517/cc134lsm
_database_code_depnum_ccdc_archive 'CCDC 1017320'
loop_
_citation_id
_citation_doi
_citation_year
1 10.1246/bcsj.20140253 2015
_audit_update_record             
;
2014-09-29 deposited with the CCDC.	2024-07-11 downloaded from the CCDC.
;

_audit_creation_method           SHELXL-2014
_chemical_name_systematic        
;
 ?
;
_chemical_name_common            ?
_chemical_melting_point          ?
_chemical_formula_moiety         ?
_chemical_formula_sum            'C37 H44 Au2 Cu N2 O8 P2 S2'
_chemical_formula_weight         1228.27

loop_
_atom_type_symbol
_atom_type_description
_atom_type_scat_dispersion_real
_atom_type_scat_dispersion_imag
_atom_type_scat_source
C C 0.0033 0.0016 'International Tables Vol C Tables 4.2.6.8 and 6.1.1.4'
H H 0.0000 0.0000 'International Tables Vol C Tables 4.2.6.8 and 6.1.1.4'
O O 0.0106 0.0060 'International Tables Vol C Tables 4.2.6.8 and 6.1.1.4'
N N 0.0061 0.0033 'International Tables Vol C Tables 4.2.6.8 and 6.1.1.4'
Au Au -2.0133 8.8022 'International Tables Vol C Tables 4.2.6.8 and 6.1.1.4'
Cu Cu 0.3201 1.2651 'International Tables Vol C Tables 4.2.6.8 and 6.1.1.4'
S S 0.1246 0.1234 'International Tables Vol C Tables 4.2.6.8 and 6.1.1.4'
P P 0.1023 0.0942 'International Tables Vol C Tables 4.2.6.8 and 6.1.1.4'

_space_group_crystal_system      hexagonal
_space_group_IT_number           173
_space_group_name_H-M_alt        'P 63'
_space_group_name_Hall           'P 6c'

_shelx_space_group_comment       
;
The symmetry employed for this shelxl refinement is uniquely defined
by the following loop, which should always be used as a source of
symmetry information in preference to the above space-group names.
They are only intended as comments.
;

loop_
_space_group_symop_operation_xyz
'x, y, z'
'-x, -y, z+1/2'
'-y, x-y, z'
'-x+y, -x, z'
'x-y, x, z+1/2'
'y, -x+y, z+1/2'

_cell_length_a                   44.6970(8)
_cell_length_b                   44.6970(8)
_cell_length_c                   11.9683(2)
_cell_angle_alpha                90
_cell_angle_beta                 90
_cell_angle_gamma                120
_cell_volume                     20707.1(8)
_cell_formula_units_Z            12
_cell_measurement_temperature    180(2)
_cell_measurement_reflns_used    43929
_cell_measurement_theta_min      3.14
_cell_measurement_theta_max      27.52

_exptl_crystal_description       blue
_exptl_crystal_colour            plate
_exptl_crystal_size_max          0.10
_exptl_crystal_size_mid          0.05
_exptl_crystal_size_min          0.05
_exptl_crystal_density_meas      ?
_exptl_crystal_density_method    ?
_exptl_crystal_density_diffrn    1.182
_exptl_crystal_F_000             7116
_exptl_transmission_factor_min   ?
_exptl_transmission_factor_max   ?
_exptl_absorpt_coefficient_mu    4.683
_shelx_estimated_absorpt_T_min   0.652
_shelx_estimated_absorpt_T_max   0.652
_exptl_absorpt_correction_type   multi-scan
_exptl_absorpt_correction_T_min  0.7394
_exptl_absorpt_correction_T_max  1.0000
_exptl_absorpt_process_details   
;
 ABSCOR (Higashi, 2001)
;


_exptl_special_details           
;
 ?
;

_diffrn_ambient_temperature      180(2)
_diffrn_radiation_wavelength     0.71075
_diffrn_radiation_type           MoK\a
_diffrn_radiation_source         'fine-focus sealed tube'
_diffrn_radiation_monochromator  graphite
_diffrn_measurement_device_type  'Rigaku RAXIS-7'
_diffrn_measurement_method       \w
_diffrn_detector_area_resol_mean 10.00
_diffrn_reflns_number            127766
_diffrn_reflns_av_unetI/netI     0.2029
_diffrn_reflns_av_R_equivalents  0.1828
_diffrn_reflns_limit_h_min       -51
_diffrn_reflns_limit_h_max       50
_diffrn_reflns_limit_k_min       -51
_diffrn_reflns_limit_k_max       43
_diffrn_reflns_limit_l_min       -13
_diffrn_reflns_limit_l_max       13
_diffrn_reflns_theta_min         3.134
_diffrn_reflns_theta_max         23.998
_diffrn_reflns_theta_full        25.242
_diffrn_measured_fraction_theta_max 0.997
_diffrn_measured_fraction_theta_full 0.866
_diffrn_reflns_Laue_measured_fraction_max 0.997
_diffrn_reflns_Laue_measured_fraction_full 0.866
_diffrn_reflns_point_group_measured_fraction_max 0.998
_diffrn_reflns_point_group_measured_fraction_full 0.864
_reflns_number_total             21605
_reflns_number_gt                10577
_reflns_threshold_expression     'I > 2\s(I)'
_reflns_Friedel_coverage         0.898
_reflns_Friedel_fraction_max     0.999
_reflns_Friedel_fraction_full    0.863

_reflns_special_details          
;
 Reflections were merged by SHELXL according to the crystal
 class for the calculation of statistics and refinement.
 
 _reflns_Friedel_fraction is defined as the number of unique
 Friedel pairs measured divided by the number that would be
 possible theoretically, ignoring centric projections and
 systematic absences.
;

_computing_data_collection       PROCESS-AUTO
_computing_cell_refinement       PROCESS-AUTO
_computing_data_reduction        CrystalStructure
_computing_structure_solution    'SHELXL-2014 (Sheldrick, 2014)'
_computing_structure_refinement  'SHELXL-2014 (Sheldrick, 2014)'
_computing_molecular_graphics    'Yadokari-XG 2009 (Wakita Nemoto et al., 2009)'
_computing_publication_material  
;Yadokari-XG 2009 (Wakita,Nemoto et al., 2009)
;

_refine_special_details          SQUEEZE
_refine_ls_structure_factor_coef Fsqd
_refine_ls_matrix_type           full
_refine_ls_weighting_scheme      calc
_refine_ls_weighting_details     
'w=1/[\s^2^(Fo^2^)+(0.0667P)^2^] where P=(Fo^2^+2Fc^2^)/3'
_atom_sites_solution_primary     ?
_atom_sites_solution_secondary   ?
_atom_sites_solution_hydrogens   geom
_refine_ls_hydrogen_treatment    constr
_refine_ls_extinction_method     none
_refine_ls_extinction_coef       .
_refine_ls_abs_structure_details 
;
 Flack x determined using 3338 quotients [(I+)-(I-)]/[(I+)+(I-)]
 (Parsons, Flack and Wagner, Acta Cryst. B69 (2013) 249-259).
;
_refine_ls_abs_structure_Flack   0.057(8)
_chemical_absolute_configuration rm
_refine_ls_number_reflns         21605
_refine_ls_number_parameters     803
_refine_ls_number_restraints     367
_refine_ls_R_factor_all          0.1645
_refine_ls_R_factor_gt           0.0769
_refine_ls_wR_factor_ref         0.1662
_refine_ls_wR_factor_gt          0.1425
_refine_ls_goodness_of_fit_ref   0.928
_refine_ls_restrained_S_all      0.924
_refine_ls_shift/su_max          0.000
_refine_ls_shift/su_mean         0.000


loop_
_platon_squeeze_void_nr
_platon_squeeze_void_average_x
_platon_squeeze_void_average_y
_platon_squeeze_void_average_z
_platon_squeeze_void_volume
_platon_squeeze_void_count_electrons
_platon_squeeze_void_content
1 0.000 0.000 -0.009 5616 1701 ' '
2 0.333 0.667 -0.120 1552 504 ' '
3 0.667 0.333 0.380 1552 505 ' '
_platon_squeeze_details          
;
;


loop_
_atom_site_label
_atom_site_type_symbol
_atom_site_fract_x
_atom_site_fract_y
_atom_site_fract_z
_atom_site_U_iso_or_equiv
_atom_site_adp_type
_atom_site_occupancy
_atom_site_site_symmetry_order
_atom_site_calc_flag
_atom_site_refinement_flags_posn
_atom_site_refinement_flags_adp
_atom_site_refinement_flags_occupancy
_atom_site_disorder_assembly
_atom_site_disorder_group
Au1 Au 0.36622(3) 0.39993(3) 0.55896(10) 0.0629(3) Uani 1 1 d . . . . .
Au2 Au 0.42900(3) 0.31060(3) 0.74610(10) 0.0680(4) Uani 1 1 d . . . . .
Au3 Au 0.43868(3) 0.24645(3) 0.81157(11) 0.0750(4) Uani 1 1 d . . . . .
Au4 Au 0.42746(3) 0.11373(3) 1.01222(10) 0.0660(4) Uani 1 1 d . . . . .
Cu1 Cu 0.40945(9) 0.49275(9) 0.5149(3) 0.0850(12) Uani 1 1 d . . . . .
Cu2 Cu 0.51840(9) 0.33177(9) 0.7648(3) 0.0898(13) Uani 1 1 d . . . . .
S1 S 0.39269(19) 0.45072(18) 0.6574(7) 0.072(2) Uani 1 1 d . . . . .
S2 S 0.4750(2) 0.31829(19) 0.6361(7) 0.077(2) Uani 1 1 d . . . . .
S3 S 0.4849(2) 0.2927(2) 0.8981(8) 0.097(3) Uani 1 1 d . U . . .
S4 S 0.46671(19) 0.10559(19) 0.9095(7) 0.076(2) Uani 1 1 d . U . . .
P1 P 0.33891(18) 0.34680(18) 0.4812(6) 0.059(2) Uani 1 1 d . . . . .
P2 P 0.38003(18) 0.29884(17) 0.8408(6) 0.059(2) Uani 1 1 d . . . . .
P3 P 0.39149(19) 0.20109(18) 0.7365(7) 0.064(2) Uani 1 1 d . . . . .
P4 P 0.38847(18) 0.12381(19) 1.1000(6) 0.064(2) Uani 1 1 d . . . . .
O1 O 0.4419(5) 0.4751(5) 0.4324(16) 0.086(6) Uani 1 1 d . U . . .
O2 O 0.4818(5) 0.4605(5) 0.4794(18) 0.108(8) Uani 1 1 d . U . . .
O3 O 0.5165(5) 0.3780(5) 0.8257(19) 0.094(6) Uani 1 1 d . U . . .
O4 O 0.5250(5) 0.4271(5) 0.746(2) 0.117(8) Uani 1 1 d . U . . .
O5 O 0.5988(9) 0.3105(8) 0.932(3) 0.236(10) Uiso 1 1 d D . . . .
O6 O 0.5870(9) 0.3122(8) 1.095(3) 0.236(10) Uiso 1 1 d D . . . .
O7 O 0.5908(6) 0.1882(6) 0.925(2) 0.156(6) Uiso 1 1 d D . . . .
O8 O 0.5763(6) 0.1889(6) 0.761(2) 0.156(6) Uiso 1 1 d D . . . .
N1 N 0.4566(5) 0.5156(5) 0.596(2) 0.092(8) Uani 1 1 d . U . . .
H1A H 0.4732 0.5332 0.5552 0.110 Uiso 1 1 calc R U . . .
H1B H 0.4552 0.5238 0.6645 0.110 Uiso 1 1 calc R U . . .
N2 N 0.5475(5) 0.3681(5) 0.6503(18) 0.079(7) Uani 1 1 d . U . . .
H2A H 0.5685 0.3837 0.6785 0.095 Uiso 1 1 calc R U . . .
H2B H 0.5505 0.3585 0.5874 0.095 Uiso 1 1 calc R U . . .
N3 N 0.5606(6) 0.3362(6) 0.840(3) 0.139(12) Uani 1 1 d . U . . .
H3A H 0.5710 0.3277 0.7950 0.167 Uiso 1 1 calc R U . . .
H3B H 0.5760 0.3588 0.8543 0.167 Uiso 1 1 calc R U . . .
N4 N 0.5391(7) 0.1224(6) 0.944(3) 0.141(12) Uani 1 1 d . U . . .
H4A H 0.5516 0.1382 0.9977 0.170 Uiso 1 1 calc R U . . .
H4B H 0.5518 0.1129 0.9192 0.170 Uiso 1 1 calc R U . . .
C1 C 0.4349(9) 0.4599(8) 0.692(3) 0.090(10) Uani 1 1 d . U . . .
C2 C 0.4636(8) 0.4877(8) 0.607(3) 0.082(8) Uani 1 1 d . U . . .
H1 H 0.4871 0.4967 0.6396 0.098 Uiso 1 1 calc R U . . .
C3 C 0.4625(7) 0.4725(8) 0.495(3) 0.071(8) Uani 1 1 d . U . . .
C4 C 0.4383(8) 0.4265(8) 0.700(3) 0.117(12) Uani 1 1 d . U . . .
H2 H 0.4333 0.4152 0.6269 0.176 Uiso 1 1 calc R U . . .
H3 H 0.4618 0.4330 0.7227 0.176 Uiso 1 1 calc R U . . .
H4 H 0.4218 0.4106 0.7553 0.176 Uiso 1 1 calc R U . . .
C5 C 0.4436(7) 0.4750(7) 0.815(2) 0.091(9) Uani 1 1 d . U . . .
H5 H 0.4421 0.4962 0.8184 0.136 Uiso 1 1 calc R U . . .
H6 H 0.4270 0.4579 0.8672 0.136 Uiso 1 1 calc R U . . .
H7 H 0.4670 0.4803 0.8347 0.136 Uiso 1 1 calc R U . . .
C6 C 0.4950(8) 0.3608(7) 0.559(3) 0.080(8) Uani 1 1 d . U . . .
C7 C 0.5256(9) 0.3841(7) 0.629(3) 0.090(9) Uani 1 1 d . U . . .
H8 H 0.5401 0.4044 0.5797 0.108 Uiso 1 1 calc R U . . .
C8 C 0.5227(7) 0.3991(9) 0.735(3) 0.083(9) Uani 1 1 d . U . . .
C9 C 0.5027(9) 0.3543(7) 0.445(3) 0.133(14) Uani 1 1 d . U . . .
H9 H 0.4811 0.3388 0.4060 0.200 Uiso 1 1 calc R U . . .
H10 H 0.5150 0.3763 0.4043 0.200 Uiso 1 1 calc R U . . .
H11 H 0.5172 0.3436 0.4484 0.200 Uiso 1 1 calc R U . . .
C10 C 0.4716(8) 0.3765(8) 0.557(3) 0.140(14) Uani 1 1 d . U . . .
H12 H 0.4668 0.3806 0.6337 0.210 Uiso 1 1 calc R U . . .
H13 H 0.4832 0.3985 0.5164 0.210 Uiso 1 1 calc R U . . .
H14 H 0.4499 0.3606 0.5194 0.210 Uiso 1 1 calc R U . . .
C11 C 0.3647(4) 0.3386(5) 0.3850(11) 0.059(6) Uani 1 1 d G U . . .
C12 C 0.3995(5) 0.3617(3) 0.3670(13) 0.066(6) Uani 1 1 d G U . . .
H15 H 0.4105 0.3835 0.4036 0.079 Uiso 1 1 calc R U . . .
C13 C 0.4184(3) 0.3530(4) 0.2954(14) 0.068(6) Uani 1 1 d G U . . .
H16 H 0.4423 0.3687 0.2831 0.082 Uiso 1 1 calc R U . . .
C14 C 0.4025(4) 0.3211(5) 0.2418(13) 0.079(6) Uani 1 1 d G U . . .
H17 H 0.4154 0.3151 0.1929 0.094 Uiso 1 1 calc R U . . .
C15 C 0.3676(4) 0.2980(3) 0.2598(14) 0.067(6) Uani 1 1 d G U . . .
H18 H 0.3567 0.2762 0.2232 0.081 Uiso 1 1 calc R U . . .
C16 C 0.3487(3) 0.3068(4) 0.3314(14) 0.070(6) Uani 1 1 d G U . . .
H19 H 0.3249 0.2910 0.3437 0.084 Uiso 1 1 calc R U . . .
C17 C 0.3018(4) 0.3387(5) 0.3969(14) 0.076(6) Uani 1 1 d G U . . .
C18 C 0.2715(5) 0.3070(4) 0.4059(13) 0.083(7) Uani 1 1 d G U . . .
H20 H 0.2696 0.2908 0.4608 0.100 Uiso 1 1 calc R U . . .
C19 C 0.2440(4) 0.2990(4) 0.3344(16) 0.087(7) Uani 1 1 d G U . . .
H21 H 0.2233 0.2774 0.3405 0.104 Uiso 1 1 calc R U . . .
C20 C 0.2468(4) 0.3227(5) 0.2539(14) 0.083(6) Uani 1 1 d G U . . .
H22 H 0.2280 0.3172 0.2050 0.100 Uiso 1 1 calc R U . . .
C21 C 0.2771(5) 0.3544(4) 0.2450(13) 0.075(6) Uani 1 1 d G U . . .
H23 H 0.2790 0.3706 0.1900 0.090 Uiso 1 1 calc R U . . .
C22 C 0.3046(4) 0.3624(4) 0.3165(16) 0.070(6) Uani 1 1 d G U . . .
H24 H 0.3253 0.3840 0.3104 0.084 Uiso 1 1 calc R U . . .
C23 C 0.3842(5) 0.3327(4) 0.9329(13) 0.078(6) Uani 1 1 d G U . . .
C24 C 0.4136(4) 0.3652(5) 0.9368(14) 0.085(7) Uani 1 1 d G U . . .
H25 H 0.4329 0.3703 0.8908 0.102 Uiso 1 1 calc R U . . .
C25 C 0.4149(4) 0.3904(4) 1.0079(16) 0.096(7) Uani 1 1 d G U . . .
H26 H 0.4350 0.4126 1.0106 0.115 Uiso 1 1 calc R U . . .
C26 C 0.3866(5) 0.3831(4) 1.0751(13) 0.085(7) Uani 1 1 d G U . . .
H27 H 0.3875 0.4003 1.1238 0.102 Uiso 1 1 calc R U . . .
C27 C 0.3572(4) 0.3506(5) 1.0712(13) 0.078(6) Uani 1 1 d G U . . .
H28 H 0.3379 0.3456 1.1172 0.094 Uiso 1 1 calc R U . . .
C28 C 0.3560(4) 0.3254(4) 1.0001(15) 0.070(6) Uani 1 1 d G U . . .
H29 H 0.3359 0.3032 0.9974 0.084 Uiso 1 1 calc R U . . .
C29 C 0.3653(6) 0.2627(4) 0.9337(13) 0.079(6) Uani 1 1 d G U . . .
C30 C 0.3895(4) 0.2616(4) 1.0035(16) 0.091(7) Uani 1 1 d G U . . .
H30 H 0.4131 0.2791 0.9991 0.109 Uiso 1 1 calc R U . . .
C31 C 0.3793(5) 0.2348(5) 1.0799(14) 0.089(7) Uani 1 1 d G U . . .
H31 H 0.3959 0.2340 1.1276 0.107 Uiso 1 1 calc R U . . .
C32 C 0.3448(5) 0.2090(4) 1.0864(13) 0.088(7) Uani 1 1 d G U . . .
H32 H 0.3378 0.1907 1.1386 0.105 Uiso 1 1 calc R U . . .
C33 C 0.3205(4) 0.2101(4) 1.0166(16) 0.082(6) Uani 1 1 d G U . . .
H33 H 0.2970 0.1926 1.0210 0.099 Uiso 1 1 calc R U . . .
C34 C 0.3308(5) 0.2370(5) 0.9402(14) 0.079(6) Uani 1 1 d G U . . .
H34 H 0.3142 0.2377 0.8925 0.095 Uiso 1 1 calc R U . . .
C35 C 0.3261(6) 0.3128(6) 0.582(2) 0.073(8) Uani 1 1 d . U . . .
H35 H 0.3060 0.3108 0.6242 0.087 Uiso 1 1 calc R U . . .
H36 H 0.3180 0.2908 0.5414 0.087 Uiso 1 1 calc R U . . .
C36 C 0.3544(6) 0.3164(7) 0.671(2) 0.074(9) Uani 1 1 d . U . . .
H37 H 0.3747 0.3191 0.6291 0.089 Uiso 1 1 calc R U . . .
H38 H 0.3620 0.3381 0.7132 0.089 Uiso 1 1 calc R U . . .
C37 C 0.3452(6) 0.2900(6) 0.749(2) 0.056(7) Uani 1 1 d . U . . .
H39 H 0.3381 0.2681 0.7085 0.067 Uiso 1 1 calc R U . . .
H40 H 0.3252 0.2871 0.7927 0.067 Uiso 1 1 calc R U . . .
C38 C 0.5167(8) 0.2785(8) 0.938(3) 0.132(11) Uani 1 1 d D U . . .
C39 C 0.5488(7) 0.3155(7) 0.950(4) 0.127(11) Uani 1 1 d D U . . .
H41 H 0.5430 0.3288 1.0046 0.152 Uiso 1 1 calc R U . . .
C40 C 0.5790(8) 0.3130(7) 0.996(4) 0.236(10) Uiso 1 1 d D . . . .
C41 C 0.5195(9) 0.2567(8) 0.841(4) 0.180(15) Uani 1 1 d D U . . .
H42 H 0.5300 0.2716 0.7757 0.270 Uiso 1 1 calc R U . . .
H43 H 0.5337 0.2469 0.8646 0.270 Uiso 1 1 calc R U . . .
H44 H 0.4963 0.2380 0.8212 0.270 Uiso 1 1 calc R U . . .
C42 C 0.5001(9) 0.2565(9) 1.045(3) 0.204(17) Uani 1 1 d D U . . .
H45 H 0.4989 0.2712 1.1036 0.306 Uiso 1 1 calc R U . . .
H46 H 0.4767 0.2378 1.0277 0.306 Uiso 1 1 calc R U . . .
H47 H 0.5141 0.2467 1.0712 0.306 Uiso 1 1 calc R U . . .
C43 C 0.5028(7) 0.1469(8) 0.882(3) 0.106(9) Uani 1 1 d D U . . .
C44 C 0.5329(7) 0.1403(7) 0.849(3) 0.118(11) Uani 1 1 d D U . . .
H48 H 0.5281 0.1271 0.7780 0.141 Uiso 1 1 calc R U . . .
C45 C 0.5684(7) 0.1730(7) 0.849(3) 0.156(6) Uiso 1 1 d D . . . .
C46 C 0.5108(8) 0.1691(9) 0.989(4) 0.182(16) Uani 1 1 d D U . . .
H49 H 0.5133 0.1567 1.0524 0.272 Uiso 1 1 calc R U . . .
H50 H 0.5323 0.1911 0.9785 0.272 Uiso 1 1 calc R U . . .
H51 H 0.4918 0.1736 1.0036 0.272 Uiso 1 1 calc R U . . .
C47 C 0.4981(9) 0.1621(11) 0.775(3) 0.212(19) Uani 1 1 d D U . . .
H52 H 0.4932 0.1459 0.7129 0.318 Uiso 1 1 calc R U . . .
H53 H 0.4787 0.1664 0.7833 0.318 Uiso 1 1 calc R U . . .
H54 H 0.5192 0.1839 0.7582 0.318 Uiso 1 1 calc R U . . .
C48 C 0.3668(5) 0.2143(5) 0.6534(15) 0.083(7) Uani 1 1 d G U . . .
C49 C 0.3311(5) 0.1960(4) 0.6635(13) 0.084(7) Uani 1 1 d G U . . .
H55 H 0.3204 0.1785 0.7187 0.100 Uiso 1 1 calc R U . . .
C50 C 0.3109(4) 0.2034(4) 0.5929(16) 0.077(6) Uani 1 1 d G U . . .
H56 H 0.2865 0.1909 0.5998 0.092 Uiso 1 1 calc R U . . .
C51 C 0.3265(5) 0.2290(5) 0.5122(14) 0.089(7) Uani 1 1 d G U . . .
H57 H 0.3127 0.2341 0.4640 0.107 Uiso 1 1 calc R U . . .
C52 C 0.3623(5) 0.2473(4) 0.5021(14) 0.091(7) Uani 1 1 d G U . . .
H58 H 0.3729 0.2648 0.4469 0.110 Uiso 1 1 calc R U . . .
C53 C 0.3824(4) 0.2399(4) 0.5727(17) 0.088(7) Uani 1 1 d G U . . .
H59 H 0.4069 0.2524 0.5657 0.106 Uiso 1 1 calc R U . . .
C54 C 0.3998(6) 0.1763(4) 0.6397(13) 0.086(7) Uani 1 1 d G U . . .
C55 C 0.4335(5) 0.1826(4) 0.6318(14) 0.090(7) Uani 1 1 d G U . . .
H60 H 0.4511 0.1999 0.6771 0.108 Uiso 1 1 calc R U . . .
C56 C 0.4414(4) 0.1637(5) 0.5576(16) 0.096(7) Uani 1 1 d G U . . .
H61 H 0.4645 0.1680 0.5521 0.115 Uiso 1 1 calc R U . . .
C57 C 0.4156(6) 0.1384(5) 0.4913(13) 0.088(7) Uani 1 1 d G U . . .
H62 H 0.4211 0.1255 0.4405 0.106 Uiso 1 1 calc R U . . .
C58 C 0.3819(5) 0.1321(4) 0.4992(14) 0.096(7) Uani 1 1 d G U . . .
H63 H 0.3643 0.1148 0.4539 0.115 Uiso 1 1 calc R U . . .
C59 C 0.3740(4) 0.1510(5) 0.5734(15) 0.082(7) Uani 1 1 d G U . . .
H64 H 0.3510 0.1467 0.5788 0.098 Uiso 1 1 calc R U . . .
C60 C 0.4079(6) 0.1610(4) 1.1918(14) 0.082(7) Uani 1 1 d G U . . .
C61 C 0.3854(4) 0.1683(4) 1.2503(16) 0.075(6) Uani 1 1 d G U . . .
H65 H 0.3612 0.1535 1.2