####################################################################### 
# 
# This file contains crystal structure data downloaded from the 
# Cambridge Structural Database (CSD) hosted by the Cambridge 
# Crystallographic Data Centre (CCDC).
# 
# Full information about CCDC data access policies and citation 
# guidelines are available at http://www.ccdc.cam.ac.uk/access/V1 
# 
# Audit and citation data items may have been added by the CCDC. 
# Please retain this information to preserve the provenance of 
# this file and to allow appropriate attribution of the data. 
# 
#######################################################################

data_zn
_audit_block_doi                 10.5517/ccrbv74
_database_code_depnum_ccdc_archive 'CCDC 695616'
loop_
_citation_id
_citation_doi
_citation_year
1 10.1002/zaac.200801233 2009
_audit_update_record             
;
2008-07-18 deposited with the CCDC.	2024-07-11 downloaded from the CCDC.
;



_audit_creation_method           SHELXL-97

_chemical_name_systematic        
;

?

;

_chemical_name_common            ?

_chemical_melting_point          ?

_chemical_formula_moiety         ?

_chemical_formula_sum            'C28 H32 Cl2 N6 O2 Zn'

_chemical_formula_weight         620.87



loop_

_atom_type_symbol

_atom_type_description

_atom_type_scat_dispersion_real

_atom_type_scat_dispersion_imag

_atom_type_scat_source












C C 0.0033 0.0016 'International Tables Vol C Tables 4.2.6.8 and 6.1.1.4'
H H 0.0000 0.0000 'International Tables Vol C Tables 4.2.6.8 and 6.1.1.4'
N N 0.0061 0.0033 'International Tables Vol C Tables 4.2.6.8 and 6.1.1.4'
O O 0.0106 0.0060 'International Tables Vol C Tables 4.2.6.8 and 6.1.1.4'
Cl Cl 0.1484 0.1585 'International Tables Vol C Tables 4.2.6.8 and 6.1.1.4'
Zn Zn 0.2839 1.4301 'International Tables Vol C Tables 4.2.6.8 and 6.1.1.4'



_symmetry_cell_setting           Monoclinic

_symmetry_space_group_name_H-M   P2(1)/n



loop_

_symmetry_equiv_pos_as_xyz




'x, y, z'
'-x+1/2, y+1/2, -z+1/2'
'-x, -y, -z'
'x-1/2, -y-1/2, z-1/2'



_cell_length_a                   14.3019(16)

_cell_length_b                   12.4411(13)

_cell_length_c                   17.975(2)

_cell_angle_alpha                90.00

_cell_angle_beta                 106.8710(10)

_cell_angle_gamma                90.00

_cell_volume                     3060.7(6)

_cell_formula_units_Z            4

_cell_measurement_temperature    173(2)

_cell_measurement_reflns_used    3568

_cell_measurement_theta_min      2.31

_cell_measurement_theta_max      23.56



_exptl_crystal_description       block

_exptl_crystal_colour            colorless

_exptl_crystal_size_max          0.26

_exptl_crystal_size_mid          0.22

_exptl_crystal_size_min          0.15

_exptl_crystal_density_meas      ?

_exptl_crystal_density_diffrn    1.347

_exptl_crystal_density_method    'not measured'

_exptl_crystal_F_000             1288

_exptl_absorpt_coefficient_mu    1.012

_exptl_absorpt_correction_type   multi-scan

_exptl_absorpt_correction_T_min  0.7789

_exptl_absorpt_correction_T_max  0.8631

_exptl_absorpt_process_details   'SADABS (Sheldrick, 1996)'



_exptl_special_details           
;

?

;



_diffrn_ambient_temperature      293(2)

_diffrn_radiation_wavelength     0.71073

_diffrn_radiation_type           MoK\a

_diffrn_radiation_source         'fine-focus sealed tube'

_diffrn_radiation_monochromator  graphite

_diffrn_measurement_device_type  'CCD area detector'

_diffrn_measurement_method       'phi and omega scans'

_diffrn_detector_area_resol_mean ?

_diffrn_standards_number         ?

_diffrn_standards_interval_count ?

_diffrn_standards_interval_time  ?

_diffrn_standards_decay_%        ?

_diffrn_reflns_number            18217

_diffrn_reflns_av_R_equivalents  0.0416

_diffrn_reflns_av_sigmaI/netI    0.0631

_diffrn_reflns_limit_h_min       -17

_diffrn_reflns_limit_h_max       18

_diffrn_reflns_limit_k_min       -16

_diffrn_reflns_limit_k_max       10

_diffrn_reflns_limit_l_min       -23

_diffrn_reflns_limit_l_max       20

_diffrn_reflns_theta_min         1.61

_diffrn_reflns_theta_max         27.47

_reflns_number_total             6957

_reflns_number_gt                3687

_reflns_threshold_expression     >2sigma(I)



_computing_data_collection       'Bruker FRAMBO'

_computing_cell_refinement       'Bruker FRAMBO'

_computing_data_reduction        'Bruker SAINT'

_computing_structure_solution    'SHELXS-97 (Sheldrick, 1990)'

_computing_structure_refinement  'SHELXL-97 (Sheldrick, 1997)'

_computing_molecular_graphics    'Bruker SHELXTL'

_computing_publication_material  'Bruker SHELXTL'



_refine_special_details          
;

Refinement of F^2^ against ALL reflections. The weighted R-factor wR and

goodness of fit S are based on F^2^, conventional R-factors R are based

on F, with F set to zero for negative F^2^. The threshold expression of

F^2^ > 2sigma(F^2^) is used only for calculating R-factors(gt) etc. and is

not relevant to the choice of reflections for refinement. R-factors based

on F^2^ are statistically about twice as large as those based on F, and R-

factors based on ALL data will be even larger.

;



_refine_ls_structure_factor_coef Fsqd

_refine_ls_matrix_type           full

_refine_ls_weighting_scheme      calc

_refine_ls_weighting_details     
'calc w=1/[\s^2^(Fo^2^)+(0.1095P)^2^+1.9273P] where P=(Fo^2^+2Fc^2^)/3'

_atom_sites_solution_primary     direct

_atom_sites_solution_secondary   difmap

_atom_sites_solution_hydrogens   geom

_refine_ls_hydrogen_treatment    constr
_refine_ls_extinction_method     none

_refine_ls_extinction_coef       ?

_refine_ls_number_reflns         6957

_refine_ls_number_parameters     363

_refine_ls_number_restraints     50

_refine_ls_R_factor_all          0.1299

_refine_ls_R_factor_gt           0.0664

_refine_ls_wR_factor_ref         0.2212

_refine_ls_wR_factor_gt          0.1817

_refine_ls_goodness_of_fit_ref   1.026

_refine_ls_restrained_S_all      1.059

_refine_ls_shift/su_max          0.001

_refine_ls_shift/su_mean         0.000



loop_

_atom_site_label

_atom_site_type_symbol

_atom_site_fract_x

_atom_site_fract_y

_atom_site_fract_z

_atom_site_U_iso_or_equiv

_atom_site_adp_type

_atom_site_occupancy

_atom_site_symmetry_multiplicity

_atom_site_calc_flag

_atom_site_refinement_flags

_atom_site_disorder_assembly

_atom_site_disorder_group



















































































Zn1 Zn 0.757015(19) 0.33566(2) 0.524683(15) 0.05170(8) Uani 1 1 d . . .
Cl1 Cl 0.79040(4) 0.42444(6) 0.63791(4) 0.0638(2) Uani 1 1 d . . .
Cl2 Cl 0.73073(8) 0.16244(7) 0.53915(5) 0.0942(3) Uani 1 1 d . . .
O1 O 0.71622(18) 0.4629(3) 0.25011(15) 0.1381(12) Uani 1 1 d . . .
N1 N 0.86607(14) 0.35868(17) 0.47587(11) 0.0555(6) Uani 1 1 d . . .
N2 N 0.94479(13) 0.40541(16) 0.39160(11) 0.0511(6) Uani 1 1 d . . .
N3 N 0.97558(13) 0.02906(16) 0.09455(11) 0.0511(6) Uani 1 1 d . . .
N4 N 0.86001(13) -0.09342(16) 0.04960(11) 0.0524(6) Uani 1 1 d . . .
N5 N 0.6010(2) 0.5335(3) 0.14934(16) 0.1027(11) Uani 1 1 d . . .
C1 C 0.96390(17) 0.33379(19) 0.50800(14) 0.0512(7) Uani 1 1 d . . .
C2 C 1.0113(2) 0.2868(3) 0.57880(16) 0.0726(9) Uani 1 1 d . . .
H2 H 0.9782 0.2660 0.6140 0.087 Uiso 1 1 calc R . .
C3 C 1.1124(2) 0.2725(3) 0.5939(2) 0.0924(13) Uani 1 1 d . . .
H3 H 1.1477 0.2431 0.6413 0.111 Uiso 1 1 calc R . .
C4 C 1.1612(2) 0.3006(3) 0.5412(2) 0.0920(12) Uani 1 1 d . . .
H4 H 1.2280 0.2879 0.5535 0.110 Uiso 1 1 calc R . .
C5 C 1.11455(19) 0.3466(3) 0.47115(18) 0.0746(10) Uani 1 1 d . . .
H5 H 1.1479 0.3661 0.4359 0.090 Uiso 1 1 calc R . .
C6 C 1.01467(18) 0.3628(2) 0.45557(14) 0.0543(7) Uani 1 1 d . . .
C7 C 0.85893(17) 0.4013(2) 0.40730(14) 0.0560(7) Uani 1 1 d . . .
H7 H 0.8006 0.4257 0.3735 0.067 Uiso 1 1 calc R . .
C8 C 0.96036(19) 0.4452(2) 0.32039(14) 0.0596(8) Uani 1 1 d . . .
H8A H 1.0155 0.4942 0.3337 0.071 Uiso 1 1 calc R . .
H8B H 0.9032 0.4858 0.2921 0.071 Uiso 1 1 calc R . .
C9 C 0.97956(18) 0.3586(2) 0.26751(14) 0.0544(7) Uani 1 1 d . . .
C10 C 0.90874(18) 0.2854(3) 0.23343(16) 0.0715(9) Uani 1 1 d . . .
H10 H 0.8492 0.2871 0.2446 0.086 Uiso 1 1 calc R . .
C11 C 0.92477(18) 0.2075(3) 0.18184(15) 0.0658(8) Uani 1 1 d . . .
H11 H 0.8766 0.1569 0.1605 0.079 Uiso 1 1 calc R . .
C12 C 1.01071(17) 0.2056(2) 0.16281(14) 0.0534(7) Uani 1 1 d . . .
C13 C 1.08188(19) 0.2762(3) 0.19880(18) 0.0852(10) Uani 1 1 d . . .
H13 H 1.1417 0.2740 0.1881 0.102 Uiso 1 1 calc R . .
C14 C 1.0672(2) 0.3512(2) 0.25104(19) 0.0864(10) Uani 1 1 d . . .
H14 H 1.1178 0.3975 0.2755 0.104 Uiso 1 1 calc R . .
C15 C 1.02748(18) 0.1316(2) 0.10185(15) 0.0595(8) Uani 1 1 d . . .
H15A H 1.0075 0.1680 0.0520 0.071 Uiso 1 1 calc R . .
H15B H 1.0969 0.1172 0.1140 0.071 Uiso 1 1 calc R . .
C16 C 0.89069(16) 0.0038(2) 0.04104(13) 0.0535(7) Uani 1 1 d . . .
H16 H 0.8573 0.0506 0.0020 0.064 Uiso 1 1 calc R . .
C17 C 0.92896(17) -0.1355(2) 0.11459(13) 0.0524(7) Uani 1 1 d . . .
C18 C 0.9349(2) -0.2349(2) 0.15094(16) 0.0739(10) Uani 1 1 d . . .
H18 H 0.8870 -0.2869 0.1327 0.089 Uiso 1 1 calc R . .
C19 C 1.0129(2) -0.2540(3) 0.21412(18) 0.0876(12) Uani 1 1 d . . .
H19 H 1.0178 -0.3198 0.2395 0.105 Uiso 1 1 calc R . .
C20 C 1.0859(2) -0.1767(3) 0.24171(18) 0.0868(12) Uani 1 1 d . . .
H20 H 1.1380 -0.1927 0.2851 0.104 Uiso 1 1 calc R . .
C21 C 1.0831(2) -0.0775(3) 0.20667(16) 0.0731(10) Uani 1 1 d . . .
H21 H 1.1320 -0.0265 0.2245 0.088 Uiso 1 1 calc R . .
C22 C 1.00203(17) -0.0592(2) 0.14277(14) 0.0548(7) Uani 1 1 d . . .
C23 C 0.6333(3) 0.4773(3) 0.2134(2) 0.1050(14) Uani 1 1 d . . .
H23 H 0.5862 0.4450 0.2324 0.126 Uiso 1 1 calc R . .
C24 C 0.6697(4) 0.5789(6) 0.1170(3) 0.243(3) Uani 1 1 d . . .
H24A H 0.6721 0.5380 0.0723 0.365 Uiso 1 1 calc R . .
H24B H 0.7329 0.5783 0.1548 0.365 Uiso 1 1 calc R . .
H24C H 0.6513 0.6517 0.1016 0.365 Uiso 1 1 calc R . .
C25 C 0.4977(4) 0.5489(5) 0.1139(3) 0.192(3) Uani 1 1 d . . .
H25A H 0.4744 0.4974 0.0729 0.288 Uiso 1 1 calc R . .
H25B H 0.4861 0.6202 0.0929 0.288 Uiso 1 1 calc R . .
H25C H 0.4637 0.5392 0.1523 0.288 Uiso 1 1 calc R . .
O2 O 0.66715(16) -0.2893(3) 0.5484(2) 0.1111(12) Uani 0.50 1 d PDU A 1
N6 N 0.64205(12) -0.1277(3) 0.5737(2) 0.196(2) Uani 0.50 1 d PDU A 1
C26 C 0.66300(13) -0.2257(3) 0.5980(3) 0.253(4) Uani 0.50 1 d PDU A 1
H26 H 0.6740 -0.2453 0.6498 0.304 Uiso 0.50 1 calc PR A 1
C27 C 0.6238(3) -0.0900(4) 0.4943(2) 0.256(3) Uani 0.50 1 d PDU A 1
H27A H 0.6104 -0.0142 0.4922 0.384 Uiso 0.50 1 calc PR A 1
H27B H 0.5686 -0.1274 0.4613 0.384 Uiso 0.50 1 calc PR A 1
H27C H 0.6803 -0.1033 0.4771 0.384 Uiso 0.50 1 calc PR A 1
C28 C 0.6355(3) -0.0442(4) 0.6320(3) 0.256(3) Uani 0.50 1 d PDU A 1
H28A H 0.6148 0.0228 0.6059 0.384 Uiso 0.50 1 calc PR A 1
H28B H 0.6984 -0.0352 0.6693 0.384 Uiso 0.50 1 calc PR A 1
H28C H 0.5890 -0.0667 0.6581 0.384 Uiso 0.50 1 calc PR A 1
O2' O 0.6320(2) -0.2736(3) 0.52461(15) 0.1111(12) Uani 0.50 1 d PD B 2
N6' N 0.67105(18) -0.1332(2) 0.59509(13) 0.196(2) Uani 0.50 1 d PD B 2
C26' C 0.6922(2) -0.2290(2) 0.57435(14) 0.253(4) Uani 0.50 1 d PD B 2
H26' H 0.7523 -0.2609 0.5979 0.304 Uiso 0.50 1 calc PR B 2
C27' C 0.5768(3) -0.0796(3) 0.5594(3) 0.256(3) Uani 0.50 1 d PD B 2
H27D H 0.5766 -0.0103 0.5828 0.384 Uiso 0.50 1 calc PR B 2
H27E H 0.5248 -0.1225 0.5674 0.384 Uiso 0.50 1 calc PR B 2
H27F H 0.5675 -0.0712 0.5046 0.384 Uiso 0.50 1 calc PR B 2
C28' C 0.7430(3) -0.0763(4) 0.6559(2) 0.256(3) Uani 0.50 1 d PD B 2
H28D H 0.7167 -0.0083 0.6651 0.384 Uiso 0.50 1 calc PR B 2
H28E H 0.8008 -0.0648 0.6400 0.384 Uiso 0.50 1 calc PR B 2
H28F H 0.7591 -0.1182 0.7027 0.384 Uiso 0.50 1 calc PR B 2



loop_

_atom_site_aniso_label

_atom_site_aniso_U_11

_atom_site_aniso_U_22

_atom_site_aniso_U_33

_atom_site_aniso_U_23

_atom_site_aniso_U_13

_atom_site_aniso_U_12












































Zn1 0.05097(13) 0.06119(17) 0.04576(13) 0.00331(13) 0.01847(11) 0.00158(13)
Cl1 0.0551(3) 0.0860(5) 0.0501(3) -0.0093(3) 0.0150(3) -0.0076(3)
Cl2 0.1348(6) 0.0626(5) 0.0923(5) 0.0060(4) 0.0440(5) -0.0102(4)
O1 0.0929(17) 0.210(3) 0.0999(18) 0.0439(19) 0.0106(15) 0.0422(18)
N1 0.0531(10) 0.0700(13) 0.0481(10) 0.0032(9) 0.0221(8) 0.0075(10)
N2 0.0528(9) 0.0574(12) 0.0474(9) -0.0030(9) 0.0212(8) 0.0007(9)
N3 0.0480(9) 0.0580(12) 0.0488(10) -0.0058(9) 0.0164(8) 0.0013(9)
N4 0.0497(10) 0.0571(12) 0.0498(10) -0.0023(9) 0.0137(8) -0.0023(9)
N5 0.112(2) 0.117(2) 0.0766(16) 0.0256(16) 0.0245(15) 0.0080(18)
C1 0.0495(11) 0.0571(14) 0.0488(12) -0.0045(11) 0.0168(10) 0.0016(11)
C2 0.0737(16) 0.0885(19) 0.0553(14) 0.0132(15) 0.0184(13) 0.0028(16)
C3 0.0674(18) 0.114(3) 0.080(2) 0.0207(19) -0.0036(17) 0.0095(19)
C4 0.0538(16) 0.118(3) 0.098(2) 0.015(2) 0.0115(16) 0.0060(17)
C5 0.0493(13) 0.098(2) 0.0785(17) -0.0016(16) 0.0223(12) -0.0022(14)
C6 0.0551(12) 0.0547(15) 0.0545(13) -0.0031(11) 0.0181(10) -0.0007(11)
C7 0.0554(12) 0.0645(16) 0.0547(12) -0.0015(12) 0.0264(10) 0.0046(12)
C8 0.0759(14) 0.0581(15) 0.0528(12) 0.0022(11) 0.0315(11) -0.0051(12)
C9 0.0650(13) 0.0550(15) 0.0481(12) 0.0006(11) 0.0241(10) 0.0010(11)
C10 0.0479(12) 0.099(2) 0.0750(15) -0.0253(15) 0.0288(11) -0.0111(14)
C11 0.0489(12) 0.0859(18) 0.0635(14) -0.0211(14) 0.0179(11) -0.0119(13)
C12 0.0444(11) 0.0662(15) 0.0506(12) -0.0029(12) 0.0153(10) -0.0051(11)
C13 0.0662(13) 0.097(2) 0.1114(18) -0.0424(17) 0.0562(12) -0.0287(14)
C14 0.0726(13) 0.088(2) 0.119(2) -0.0425(16) 0.0583(13) -0.0400(13)
C15 0.0525(12) 0.0736(17) 0.0571(13) -0.0115(12) 0.0233(10) -0.0073(12)
C16 0.0489(12) 0.0673(16) 0.0440(11) -0.0033(11) 0.0129(10) 0.0100(11)
C17 0.0523(12) 0.0629(15) 0.0429(11) 0.0004(11) 0.0150(10) 0.0084(11)
C18 0.0835(17) 0.076(2) 0.0623(15) 0.0125(14) 0.0210(14) 0.0035(16)
C19 0.100(2) 0.091(2) 0.0680(18) 0.0209(16) 0.0173(16) 0.0258(18)
C20 0.0788(19) 0.116(3) 0.0567(17) 0.0099(17) 0.0053(15) 0.0273(18)
C21 0.0548(14) 0.101(2) 0.0554(15) 0.0002(16) 0.0025(13) 0.0072(15)
C22 0.0495(12) 0.0686(16) 0.0480(12) -0.0036(12) 0.0169(10) 0.0069(12)
C23 0.116(2) 0.125(3) 0.084(2) 0.024(2) 0.0443(18) 0.009(2)
C24 0.245(5) 0.289(6) 0.231(5) 0.129(4) 0.124(4) -0.031(5)
C25 0.136(4) 0.253(6) 0.154(5) 0.053(4) -0.010(4) 0.047(4)
O2 0.101(2) 0.118(2) 0.099(2) -0.0176(18) 0.0061(18) -0.0063(19)
N6 0.210(4) 0.117(2) 0.239(4) 0.107(3) 0.032(3) 0.027(3)
C26 0.243(5) 0.282(5) 0.257(6) -0.031(5) 0.107(4) 0.007(5)
C27 0.262(4) 0.263(4) 0.239(4) 0.007(3) 0.066(3) -0.038(3)
C28 0.262(4) 0.263(4) 0.239(4) 0.007(3) 0.066(3) -0.038(3)
O2' 0.101(2) 0.118(2) 0.099(2) -0.0176(18) 0.0061(18) -0.0063(19)
N6' 0.210(4) 0.117(2) 0.239(4) 0.107(3) 0.032(3) 0.027(3)
C26' 0.243(5) 0.282(5) 0.257(6) -0.031(5) 0.107(4) 0.007(5)
C27' 0.262(4) 0.263(4) 0.239(4) 0.007(3) 0.066(3) -0.038(3)
C28' 0.262(4) 0.263(4) 0.239(4) 0.007(3) 0.066(3) -0.038(3)



_geom_special_details            
;

All esds (except the esd in the dihedral angle between two l.s. planes)

are estimated using the full covariance matrix. The cell esds are taken

into account individually in the estimation of esds in distances, angles

and torsion angles; correlations between esds in cell parameters are only

used when they are defined by crystal symmetry. An approximate (isotropic)

treatment of cell esds is used for estimating esds involving l.s. planes.

;



loop_

_geom_bond_atom_site_label_1

_geom_bond_atom_site_label_2

_geom_bond_distance

_geom_bond_site_symmetry_2

_geom_bond_publ_flag






















































































Zn1 N4 2.0164(18) 2_655 ?
Zn1 N1 2.020(2) . ?
Zn1 Cl2 2.2158(9) . ?
Zn1 Cl1 2.2420(7) . ?
O1 C23 1.191(4) . ?
N1 C7 1.318(3) . ?
N1 C1 1.385(3) . ?
N2 C7 1.338(3) . ?
N2 C6 1.391(3) . ?
N2 C8 1.448(3) . ?
N3 C16 1.349(3) . ?
N3 C22 1.382(3) . ?
N3 C15 1.462(3) . ?
N4 C16 1.311(3) . ?
N4 C17 1.394(3) . ?
N4 Zn1 2.0164(18) 2_645 ?
N5 C23 1.312(4) . ?
N5 C24 1.399(7) . ?
N5 C25 1.442(5) . ?
C1 C2 1.386(4) . ?
C1 C6 1.394(4) . ?
C2 C3 1.403(4) . ?
C2 H2 0.9300 . ?
C3 C4 1.376(5) . ?
C3 H3 0.9300 . ?
C4 C5 1.367(4) . ?
C4 H4 0.9300 . ?
C5 C6 1.388(4) . ?
C5 H5 0.9300 . ?
C7 H7 0.9300 . ?
C8 C9 1.513(4) . ?
C8 H8A 0.9700 . ?
C8 H8B 0.9700 . ?
C9 C10 1.368(4) . ?
C9 C14 1.373(4) . ?
C10 C11 1.405(4) . ?
C10 H10 0.9300 . ?
C11 C12 1.368(4) . ?
C11 H11 0.9300 . ?
C12 C13 1.358(4) . ?
C12 C15 1.503(4) . ?
C13 C14 1.382(5) . ?
C13 H13 0.9300 . ?
C14 H14 0.9300 . ?
C15 H15A 0.9700 . ?
C15 H15B 0.9700 . ?
C16 H16 0.9300 . ?
C17 C18 1.390(4) . ?
C17 C22 1.394(3) . ?
C18 C19 1.362(4) . ?
C18 H18 0.9300 . ?
C19 C20 1.400(5) . ?
C19 H19 0.9300 . ?
C20 C21 1.381(5) . ?
C20 H20 0.9300 . ?
C21 C22 1.394(3) . ?
C21 H21 0.9300 . ?
C23 H23 0.9300 . ?
C24 H24A 0.9600 . ?
C24 H24B 0.9600 . ?
C24 H24C 0.9600 . ?
C25 H25A 0.9600 . ?
C25 H25B 0.9600 . ?
C25 H25C 0.9600 . ?
O2 C26 1.206(5) . ?
N6 C26 1.300(4) . ?
N6 C27 1.452(5) . ?
N6 C28 1.497(5) . ?
C26 H26 0.9300 . ?
C27 H27A 0.9600 . ?
C27 H27B 0.9600 . ?
C27 H27C 0.9600 . ?
C28 H28A 0.9600 . ?
C28 H28B 0.9600 . ?
C28 H28C 0.9600 . ?
O2' C26' 1.184(4) . ?
N6' C26' 1.310(4) . ?
N6' C28' 1.449(4) . ?
N6' C27' 1.474(4) . ?
C26' H26' 0.9300 . ?
C27' H27D 0.9600 . ?
C27' H27E 0.9600 . ?
C27' H27F 0.9600 . ?
C28' H28D 0.9600 . ?
C28' H28E 0.9600 . ?
C28' H28F 0.9600 . ?



loop_

_geom_angle_atom_site_label_1

_geom_angle_atom_site_label_2

_geom_angle_atom_site_label_3

_geom_angle

_geom_angle_site_symmetry_1

_geom_angle_site_symmetry_3

_geom_angle_publ_flag
















































































































































N4 Zn1 N1 104.33(8) 2_655 . ?
N4 Zn1 Cl2 111.52(6) 2_655 . ?
N1 Zn1 Cl2 111.57(7) . . ?
N4 Zn1 Cl1 107.62(6) 2_655 . ?
N1 Zn1 Cl1 109.68(6) . . ?
Cl2 Zn1 Cl1 111.80(3) . . ?
C7 N1 C1 105.9(2) . . ?
C7 N1 Zn1 127.11(16) . . ?
C1 N