####################################################################### 
# 
# This file contains crystal structure data downloaded from the 
# Cambridge Structural Database (CSD) hosted by the Cambridge 
# Crystallographic Data Centre (CCDC).
# 
# Full information about CCDC data access policies and citation 
# guidelines are available at http://www.ccdc.cam.ac.uk/access/V1 
# 
# Audit and citation data items may have been added by the CCDC. 
# Please retain this information to preserve the provenance of 
# this file and to allow appropriate attribution of the data. 
# 
#######################################################################

data_3
_audit_block_doi                 10.5517/ccr7kxf
_database_code_depnum_ccdc_archive 'CCDC 692475'
loop_
_citation_id
_citation_doi
_citation_year
1 10.1021/cg800895g 2009
_audit_update_record             
;
2008-06-22 deposited with the CCDC.	2024-07-11 downloaded from the CCDC.
;

_audit_creation_method           SHELXL-97
_chemical_name_systematic        
;
?
;
_chemical_name_common            ?
_chemical_melting_point          ?
_chemical_formula_moiety         ?
_chemical_formula_sum            'C62 H54 Co3 N2 O18'
_chemical_formula_weight         1291.86

loop_
_atom_type_symbol
_atom_type_description
_atom_type_scat_dispersion_real
_atom_type_scat_dispersion_imag
_atom_type_scat_source
C C 0.0033 0.0016 'International Tables Vol C Tables 4.2.6.8 and 6.1.1.4'
H H 0.0000 0.0000 'International Tables Vol C Tables 4.2.6.8 and 6.1.1.4'
O O 0.0106 0.0060 'International Tables Vol C Tables 4.2.6.8 and 6.1.1.4'
N N 0.0061 0.0033 'International Tables Vol C Tables 4.2.6.8 and 6.1.1.4'
Co Co 0.3494 0.9721 'International Tables Vol C Tables 4.2.6.8 and 6.1.1.4'

_symmetry_cell_setting           Monoclinic
_symmetry_space_group_name_H-M   P2/c

loop_
_symmetry_equiv_pos_as_xyz
'x, y, z'
'-x, y, -z+1/2'
'-x, -y, -z'
'x, -y, z-1/2'

_cell_length_a                   22.550(10)
_cell_length_b                   14.187(7)
_cell_length_c                   25.681(12)
_cell_angle_alpha                90.00
_cell_angle_beta                 92.096(9)
_cell_angle_gamma                90.00
_cell_volume                     8210(7)
_cell_formula_units_Z            4
_cell_measurement_temperature    294(2)
_cell_measurement_reflns_used    14353
_cell_measurement_theta_min      1.44
_cell_measurement_theta_max      25.00

_exptl_crystal_description       Block
_exptl_crystal_colour            Purple
_exptl_crystal_size_max          0.15
_exptl_crystal_size_mid          0.14
_exptl_crystal_size_min          0.11
_exptl_crystal_density_meas      ?
_exptl_crystal_density_diffrn    1.045
_exptl_crystal_density_method    'not measured'
_exptl_crystal_F_000             2660
_exptl_absorpt_coefficient_mu    0.653
_exptl_absorpt_correction_type   Multi-scan
_exptl_absorpt_correction_T_min  0.9084
_exptl_absorpt_correction_T_max  0.9316
_exptl_absorpt_process_details   ?

_exptl_special_details           
;
?
;

_diffrn_ambient_temperature      294(2)
_diffrn_radiation_wavelength     0.71073
_diffrn_radiation_type           MoK\a
_diffrn_radiation_source         'rotating anode'
_diffrn_radiation_monochromator  graphite
_diffrn_measurement_device_type  'rigaku r-axis rapid IP area detector'
_diffrn_measurement_method       oscillation
_diffrn_detector_area_resol_mean ?
_diffrn_standards_number         ?
_diffrn_standards_interval_count ?
_diffrn_standards_interval_time  ?
_diffrn_standards_decay_%        ?
_diffrn_reflns_number            44282
_diffrn_reflns_av_R_equivalents  0.1710
_diffrn_reflns_av_sigmaI/netI    0.2491
_diffrn_reflns_limit_h_min       -28
_diffrn_reflns_limit_h_max       25
_diffrn_reflns_limit_k_min       -17
_diffrn_reflns_limit_k_max       17
_diffrn_reflns_limit_l_min       -31
_diffrn_reflns_limit_l_max       30
_diffrn_reflns_theta_min         1.44
_diffrn_reflns_theta_max         26.43
_reflns_number_total             16476
_reflns_number_gt                6910
_reflns_threshold_expression     >2sigma(I)

_computing_data_collection       'rapid auto'
_computing_cell_refinement       'rapid auto'
_computing_data_reduction        'rapid auto'
_computing_structure_solution    'SHELXS-97 (Sheldrick, 1990)'
_computing_structure_refinement  'SHELXL-97 (Sheldrick, 1997)'
_computing_molecular_graphics    'SHELXTL-97 (Sheldrick, 1997)'
_computing_publication_material  'SHELXTL-97 (Sheldrick, 1997)'

_refine_special_details          
;
Refinement of F^2^ against ALL reflections. The weighted R-factor wR and
goodness of fit S are based on F^2^, conventional R-factors R are based
on F, with F set to zero for negative F^2^. The threshold expression of
F^2^ > 2sigma(F^2^) is used only for calculating R-factors(gt) etc. and is
not relevant to the choice of reflections for refinement. R-factors based
on F^2^ are statistically about twice as large as those based on F, and R-
factors based on ALL data will be even larger.
;

_refine_ls_structure_factor_coef Fsqd
_refine_ls_matrix_type           full
_refine_ls_weighting_scheme      calc
_refine_ls_weighting_details     
'calc w=1/[\s^2^(Fo^2^)+(0.2000P)^2^+0.0000P] where P=(Fo^2^+2Fc^2^)/3'
_atom_sites_solution_primary     direct
_atom_sites_solution_secondary   difmap
_atom_sites_solution_hydrogens   geom
_refine_ls_hydrogen_treatment    refu
_refine_ls_extinction_method     SHELXL
_refine_ls_extinction_coef       0.15880(5)
_refine_ls_extinction_expression Fc^*^=kFc[1+0.001xFc^2^\l^3^/sin(2\q)]^-1/4^
_refine_ls_number_reflns         16476
_refine_ls_number_parameters     653
_refine_ls_number_restraints     7
_refine_ls_R_factor_all          0.3233
_refine_ls_R_factor_gt           0.2256
_refine_ls_wR_factor_ref         0.5282
_refine_ls_wR_factor_gt          0.4838
_refine_ls_goodness_of_fit_ref   1.462
_refine_ls_restrained_S_all      1.462
_refine_ls_shift/su_max          0.024
_refine_ls_shift/su_mean         0.001

loop_
_atom_site_label
_atom_site_type_symbol
_atom_site_fract_x
_atom_site_fract_y
_atom_site_fract_z
_atom_site_U_iso_or_equiv
_atom_site_adp_type
_atom_site_occupancy
_atom_site_symmetry_multiplicity
_atom_site_calc_flag
_atom_site_refinement_flags
_atom_site_disorder_assembly
_atom_site_disorder_group
C1 C -0.027996(8) 0.704146(14) 0.061763(7) 0.09560(7) Uani 1 1 d . . .
C2 C -0.130949(2) 0.689241(4) 0.023231(3) 0.13467(10) Uani 1 1 d G . .
H2 H -0.1160 0.6647 -0.0072 0.162 Uiso 1 1 calc R . .
C3 C -0.191597(2) 0.704139(4) 0.026728(3) 0.09111(7) Uani 1 1 d G . .
H3 H -0.2172 0.6896 -0.0014 0.109 Uiso 1 1 calc R . .
C4 C -0.214013(2) 0.740755(5) 0.072197(3) 0.07859(7) Uani 1 1 d G . .
C5 C -0.175782(3) 0.762474(7) 0.114170(3) 0.14151(11) Uani 1 1 d G . .
H5 H -0.1908 0.7870 0.1446 0.170 Uiso 1 1 calc R . .
C6 C -0.115134(3) 0.747576(7) 0.110674(3) 0.10450(7) Uani 1 1 d G . .
H6 H -0.0896 0.7621 0.1388 0.125 Uiso 1 1 calc R . .
C7 C -0.092717(2) 0.710960(5) 0.065204(3) 0.18750(9) Uani 1 1 d G . .
C8 C -0.403721(3) 0.789912(8) 0.067334(5) 0.12762(7) Uani 1 1 d GD . .
C9 C -0.370584(2) 0.808180(6) 0.023876(5) 0.10064(7) Uani 1 1 d G . .
H9 H -0.3891 0.8313 -0.0064 0.121 Uiso 1 1 calc R . .
C10 C -0.309764(2) 0.791852(5) 0.025740(4) 0.10906(9) Uani 1 1 d G . .
H10 H -0.2876 0.8041 -0.0033 0.131 Uiso 1 1 calc R . .
C11 C -0.282082(2) 0.757261(6) 0.071062(4) 0.10033(8) Uani 1 1 d G . .
C12 C -0.315219(3) 0.738994(8) 0.114522(4) 0.20641(11) Uani 1 1 d G . .
H12 H -0.2967 0.7158 0.1448 0.248 Uiso 1 1 calc R . .
C13 C -0.376038(3) 0.755319(9) 0.112659(5) 0.23679(12) Uani 1 1 d G . .
H13 H -0.3982 0.7431 0.1417 0.284 Uiso 1 1 calc R . .
C14 C -0.471837(4) 0.788161(16) 0.065865(10) 0.17370(10) Uani 1 1 d D . .
C15 C 0.154580(6) 0.825639(11) 0.016286(5) 0.05741(5) Uani 1 1 d . . .
C16 C 0.154912(2) 0.876577(4) -0.035917(2) 0.05994(5) Uani 1 1 d G . .
C17 C 0.202757(2) 0.933581(4) -0.047620(2) 0.09686(7) Uani 1 1 d G . .
H17 H 0.2348 0.9393 -0.0240 0.116 Uiso 1 1 calc R . .
C18 C 0.202709(3) 0.982092(4) -0.094647(2) 0.09030(6) Uani 1 1 d G . .
H18 H 0.2347 1.0202 -0.1025 0.108 Uiso 1 1 calc R . .
C19 C 0.154817(3) 0.973601(4) -0.129970(2) 0.07878(6) Uani 1 1 d G . .
C20 C 0.106972(3) 0.916598(5) -0.118267(2) 0.09232(7) Uani 1 1 d G . .
H20 H 0.0749 0.9109 -0.1419 0.111 Uiso 1 1 calc R . .
C21 C 0.107019(2) 0.868086(4) -0.071241(2) 0.06992(6) Uani 1 1 d G . .
H21 H 0.0750 0.8299 -0.0634 0.084 Uiso 1 1 calc R . .
C22 C 0.156093(4) 1.029248(5) -0.178371(2) 0.09202(6) Uani 1 1 d G . .
C23 C 0.209738(4) 1.038401(6) -0.206364(2) 0.11442(8) Uani 1 1 d G . .
H23 H 0.2440 1.0107 -0.1921 0.137 Uiso 1 1 calc R . .
C24 C 0.213749(5) 1.084229(7) -0.251766(3) 0.12068(9) Uani 1 1 d G . .
H24 H 0.2500 1.0901 -0.2675 0.145 Uiso 1 1 calc R . .
C25 C 0.159985(6) 1.124572(7) -0.275844(3) 0.06976(6) Uani 1 1 d G . .
C26 C 0.106385(5) 1.109745(7) -0.251718(3) 0.08034(6) Uani 1 1 d G . .
H26 H 0.0717 1.1328 -0.2678 0.096 Uiso 1 1 calc R . .
C27 C 0.102472(4) 1.060371(6) -0.203059(2) 0.10418(8) Uani 1 1 d G . .
H27 H 0.0660 1.0493 -0.1884 0.125 Uiso 1 1 calc R . .
C28 C 0.161088(6) 1.178592(11) -0.326726(6) 0.05922(5) Uani 1 1 d . . .
C29 C 0.350768(6) 0.928233(9) 0.104540(6) 0.05107(5) Uani 1 1 d . . .
C30 C 0.321819(2) 1.024922(3) 0.111731(2) 0.05549(5) Uani 1 1 d G . .
C31 C 0.355689(2) 1.104325(3) 0.123871(2) 0.09461(8) Uani 1 1 d G . .
H31 H 0.3964 1.0987 0.1299 0.114 Uiso 1 1 calc R . .
C32 C 0.328641(2) 1.192091(3) 0.126932(2) 0.08922(7) Uani 1 1 d G . .
H32 H 0.3513 1.2452 0.1351 0.107 Uiso 1 1 calc R . .
C33 C 0.267723(2) 1.200455(3) 0.117853(2) 0.07496(6) Uani 1 1 d G . .
C34 C 0.233852(2) 1.121053(3) 0.105714(3) 0.07244(6) Uani 1 1 d G . .
H34 H 0.1931 1.1266 0.0996 0.087 Uiso 1 1 calc R . .
C35 C 0.260900(2) 1.033286(3) 0.102652(2) 0.08098(7) Uani 1 1 d G . .
H35 H 0.2382 0.9802 0.0945 0.097 Uiso 1 1 calc R . .
C36 C 0.240046(3) 1.298720(3) 0.116108(3) 0.05751(5) Uani 1 1 d G . .
C37 C 0.272299(3) 1.376026(3) 0.101841(3) 0.06758(6) Uani 1 1 d G . .
H37 H 0.3123 1.3685 0.0953 0.081 Uiso 1 1 calc R . .
C38 C 0.246562(4) 1.467063(3) 0.096714(4) 0.07006(6) Uani 1 1 d G . .
H38 H 0.2687 1.5185 0.0862 0.084 Uiso 1 1 calc R . .
C39 C 0.189020(4) 1.476215(4) 0.107648(4) 0.04782(4) Uani 1 1 d G . .
C40 C 0.158251(3) 1.397014(4) 0.122805(5) 0.08477(7) Uani 1 1 d G . .
H40 H 0.1185 1.4044 0.1303 0.102 Uiso 1 1 calc R . .
C41 C 0.181960(3) 1.308936(4) 0.127480(4) 0.08757(7) Uani 1 1 d G . .
H41 H 0.1594 1.2580 0.1380 0.105 Uiso 1 1 calc R . .
C42 C 0.157663(6) 1.569777(9) 0.101677(6) 0.04774(5) Uani 1 1 d . . .
C43 C 0.354673(6) 0.669853(10) 0.171238(5) 0.04686(4) Uani 1 1 d . . .
C44 C 0.354876(2) 0.616513(4) 0.223151(2) 0.05762(5) Uani 1 1 d G . .
C45 C 0.405466(2) 0.608800(4) 0.255447(2) 0.06893(6) Uani 1 1 d G . .
H45 H 0.4409 0.6359 0.2456 0.083 Uiso 1 1 calc R . .
C46 C 0.403089(3) 0.560606(4) 0.302449(2) 0.07325(6) Uani 1 1 d G . .
H46 H 0.4369 0.5554 0.3241 0.088 Uiso 1 1 calc R . .
C47 C 0.350121(3) 0.520125(4) 0.317155(2) 0.08665(6) Uani 1 1 d G . .
C48 C 0.299531(3) 0.527838(4) 0.284860(2) 0.10177(7) Uani 1 1 d G . .
H48 H 0.2641 0.5008 0.2947 0.122 Uiso 1 1 calc R . .
C49 C 0.301908(2) 0.576031(4) 0.237857(2) 0.09263(7) Uani 1 1 d G . .
H49 H 0.2681 0.5812 0.2162 0.111 Uiso 1 1 calc R . .
C50 C 0.348252(4) 0.465386(5) 0.367130(2) 0.07817(6) Uani 1 1 d G . .
C51 C 0.297646(4) 0.468800(6) 0.396758(2) 0.10489(7) Uani 1 1 d G . .
H51 H 0.2641 0.5016 0.3849 0.126 Uiso 1 1 calc R . .
C52 C 0.298608(5) 0.422568(7) 0.443828(2) 0.09170(6) Uani 1 1 d G . .
H52 H 0.2653 0.4269 0.4641 0.110 Uiso 1 1 calc R . .
C53 C 0.345997(5) 0.370289(7) 0.462647(2) 0.06560(5) Uani 1 1 d G . .
C54 C 0.391807(5) 0.364813(6) 0.431015(3) 0.07875(6) Uani 1 1 d G . .
H54 H 0.4240 0.3278 0.4417 0.094 Uiso 1 1 calc R . .
C55 C 0.394613(4) 0.411137(5) 0.382715(2) 0.08724(6) Uani 1 1 d G . .
H55 H 0.4275 0.4045 0.3622 0.105 Uiso 1 1 calc R . .
C56 C 0.342082(6) 0.315415(10) 0.513034(5) 0.06747(5) Uani 1 1 d . . .
Co1 Co 0.091617(1) 0.716760(1) 0.092755(1) 0.04074(1) Uani 1 1 d . . .
Co2 Co 0.414710(1) 0.782776(1) 0.095608(1) 0.04115(1) Uani 1 1 d . . .
Co3 Co 0.253030(1) 0.749871(1) 0.095268(1) 0.03915(1) Uani 1 1 d . . .
O1 O 0.320625(4) 0.856767(7) 0.097415(4) 0.06758(4) Uani 1 1 d . . .
O2 O 0.405728(4) 0.925366(7) 0.107569(4) 0.06578(4) Uani 1 1 d . . .
O3 O 0.185768(5) 1.640408(6) 0.091115(4) 0.06374(4) Uani 1 1 d . . .
O4 O 0.102956(5) 1.575889(7) 0.104281(5) 0.08000(4) Uani 1 1 d . . .
O5 O 0.208877(5) 1.196296(10) -0.342041(4) 0.11453(5) Uani 1 1 d . . .
O6 O 0.112126(4) 1.207930(8) -0.343381(4) 0.06839(4) Uani 1 1 d . . .
O7 O 0.198102(5) 0.836728(8) 0.046986(4) 0.09210(4) Uani 1 1 d . . .
O8 O 0.109298(4) 0.779490(7) 0.025488(3) 0.06091(3) Uani 1 1 d . . .
O9 O 0.004307(5) 0.733388(8) 0.097057(4) 0.07234(4) Uani 1 1 d . . .
O10 O -0.008388(7) 0.655960(13) 0.024123(7) 0.18090(8) Uani 1 1 d . . .
O11 O 0.399452(4) 0.711184(7) 0.161312(3) 0.05555(3) Uani 1 1 d . . .
O12 O 0.307857(5) 0.663865(8) 0.143395(4) 0.09457(4) Uani 1 1 d . . .
O13 O 0.391700(5) 0.279157(8) 0.527053(4) 0.06894(4) Uani 1 1 d . . .
O14 O 0.296267(5) 0.310913(10) 0.533301(4) 0.11658(5) Uani 1 1 d . . .
O15 O -0.499073(4) 0.765996(9) 0.097200(5) 0.10458(5) Uani 1 1 d . . .
O16 O -0.491951(8) 0.851496(17) 0.027680(9) 0.21454(12) Uani 1 1 d . . .
C57 C 0.464698(7) 0.305058(7) 0.122200(4) 0.21349(17) Uani 1 1 d D . .
H57A H 0.5005 0.2730 0.1135 0.320 Uiso 1 1 calc R . .
H57B H 0.4347 0.2596 0.1299 0.320 Uiso 1 1 calc R . .
H57C H 0.4724 0.3443 0.1521 0.320 Uiso 1 1 calc R . .
C58 C 0.427387(9) 0.474773(5) 0.076332(9) 0.7709(6) Uani 1 1 d D . .
H58A H 0.4629 0.5110 0.0725 1.156 Uiso 1 1 calc R . .
H58B H 0.4102 0.4900 0.1089 1.156 Uiso 1 1 calc R . .
H58C H 0.3996 0.4893 0.0483 1.156 Uiso 1 1 calc R . .
N1 N 0.442725(7) 0.367406(6) 0.075133(5) 0.4003(2) Uani 1 1 d D . .
H1A H 0.4704 0.3612 0.0510 0.480 Uiso 1 1 calc R . .
H1B H 0.4099 0.3387 0.0619 0.480 Uiso 1 1 calc R . .
O18 O 0.446209(16) 0.91686(3) 0.928141(13) 0.4437(3) Uani 1 1 d . . .
C63 C 0.392345(18) 0.94930(2) 0.968616(11) 0.3618(2) Uani 1 1 d . . .
H63A H 0.4085 0.9919 0.9945 0.543 Uiso 1 1 calc R . .
H63B H 0.3770 0.8944 0.9854 0.543 Uiso 1 1 calc R . .
H63C H 0.3609 0.9800 0.9489 0.543 Uiso 1 1 calc R . .
C59 C 0.042538(8) 0.192967(5) 0.101005(9) 0.22681(19) Uani 1 1 d D . .
H59A H 0.0208 0.1863 0.1322 0.340 Uiso 1 1 calc R . .
H59B H 0.0182 0.2241 0.0748 0.340 Uiso 1 1 calc R . .
H59C H 0.0776 0.2297 0.1083 0.340 Uiso 1 1 calc R . .
O17 O 0.888104(17) 0.44146(2) 0.035447(10) 0.3435(2) Uani 1 1 d . . .
C62 C 0.948275(13) 0.40665(2) 0.069787(10) 0.35955(14) Uani 1 1 d . . .
H62A H 0.9827 0.4149 0.0493 0.539 Uiso 1 1 calc R . .
H62B H 0.9443 0.3413 0.0788 0.539 Uiso 1 1 calc R . .
H62C H 0.9525 0.4437 0.1010 0.539 Uiso 1 1 calc R . .
N2 N 0.060477(7) 0.093638(6) 0.080986(6) 0.4234(3) Uani 1 1 d D . .
H2A H 0.0914 0.1035 0.0605 0.508 Uiso 1 1 calc R . .
H2B H 0.0302 0.0749 0.0596 0.508 Uiso 1 1 calc R . .
C60 C 0.077615(10) 0.005487(6) 0.114746(7) 0.5262(3) Uani 1 1 d D . .
H60A H 0.0435 -0.0343 0.1179 0.789 Uiso 1 1 calc R . .
H60B H 0.0914 0.0255 0.1488 0.789 Uiso 1 1 calc R . .
H60C H 0.1085 -0.0290 0.0984 0.789 Uiso 1 1 calc R . .

loop_
_atom_site_aniso_label
_atom_site_aniso_U_11
_atom_site_aniso_U_22
_atom_site_aniso_U_33
_atom_site_aniso_U_23
_atom_site_aniso_U_13
_atom_site_aniso_U_12
C1 0.09172(12) 0.11100(14) 0.08439(12) 0.00876(11) 0.00754(10) -0.05237(10)
C2 0.1880(2) 0.05687(12) 0.16284(18) -0.04226(12) 0.05675(16) -0.00415(14)
C3 0.03562(9) 0.12622(16) 0.11053(13) -0.04613(11) -0.01059(9) 0.00323(10)
C4 0.05374(9) 0.05821(10) 0.12357(14) -0.00234(10) -0.00012(10) 0.01896(8)
C5 0.12940(18) 0.2293(2) 0.06555(11) -0.07047(12) 0.00024(11) 0.02739(18)
C6 0.04662(9) 0.14034(15) 0.12724(13) -0.07577(11) 0.01268(9) -0.03474(10)
C7 0.14487(10) 0.04772(8) 0.3818(2) -0.08542(12) 0.17204(11) -0.09439(6)
C8 0.08940(8) 0.05886(8) 0.22692(18) 0.06163(10) -0.09898(9) -0.08077(6)
C9 0.05725(10) 0.11016(14) 0.13366(14) 0.06428(10) -0.00808(10) 0.02449(10)
C10 0.02511(8) 0.13002(16) 0.17098(18) 0.02736(15) -0.01116(10) 0.03506(9)
C11 0.09023(11) 0.04141(9) 0.17210(17) 0.02122(11) 0.04224(11) 0.03625(8)
C12 0.16984(18) 0.15456(18) 0.2830(2) 0.13905(14) -0.15374(13) -0.04704(16)
C13 0.10709(18) 0.2615(2) 0.3462(2) 0.24331(15) 0.06810(16) 0.04949(17)
C14 0.09110(14) 0.13782(14) 0.2957(2) -0.15097(13) 0.05467(15) -0.05949(12)
C15 0.04803(8) 0.06907(9) 0.05473(8) 0.03139(7) -0.00370(7) 0.00462(8)
C16 0.05595(9) 0.07106(10) 0.05216(8) 0.03299(7) -0.00695(7) 0.00821(8)
C17 0.09645(13) 0.11215(13) 0.07985(10) 0.06591(8) -0.02574(9) -0.03109(11)
C18 0.05986(10) 0.11478(13) 0.09497(10) 0.07010(8) -0.01460(9) -0.01839(10)
C19 0.08711(11) 0.10386(12) 0.04644(8) 0.04322(7) 0.01700(8) 0.00619(10)
C20 0.05978(10) 0.12674(14) 0.08890(10) 0.06767(9) -0.018