####################################################################### 
# 
# This file contains crystal structure data downloaded from the 
# Cambridge Structural Database (CSD) hosted by the Cambridge 
# Crystallographic Data Centre (CCDC).
# 
# Full information about CCDC data access policies and citation 
# guidelines are available at http://www.ccdc.cam.ac.uk/access/V1 
# 
# Audit and citation data items may have been added by the CCDC. 
# Please retain this information to preserve the provenance of 
# this file and to allow appropriate attribution of the data. 
# 
#######################################################################

data_jiw450
_audit_block_doi                 10.5517/ccsh29m
_database_code_depnum_ccdc_archive 'CCDC 729470'
loop_
_citation_id
_citation_doi
_citation_year
1 10.1021/ic8019809 2009
_audit_update_record             
;
2009-04-27 deposited with the CCDC.	2024-07-11 downloaded from the CCDC.
;

_audit_creation_method           SHELXL97
_chemical_name_systematic        
;
?
;
_chemical_name_common            ?
_chemical_melting_point          ?
_chemical_formula_moiety         'C25 H24 N4 O4 Cu, B F4, 2(C2 H3 N), 3(H2 O)'
_chemical_formula_sum            'C29 H36 B Cu F4 N6 O7'
_chemical_formula_weight         730.99
_chemical_compound_source        'Synthesized by the authors. See text'

loop_
_atom_type_symbol
_atom_type_description
_atom_type_scat_dispersion_real
_atom_type_scat_dispersion_imag
_atom_type_scat_source
C C 0.0181 0.0000 'International Tables Vol C Tables 4.2.6.8 and 6.1.1.4'
H H 0.0000 0.0000 'International Tables Vol C Tables 4.2.6.8 and 6.1.1.4'
B B 0.0090 0.0000 'International Tables Vol C Tables 4.2.6.8 and 6.1.1.4'
Cu Cu -1.9646 0.0000 'International Tables Vol C Tables 4.2.6.8 and 6.1.1.4'
F F 0.0727 0.0000 'International Tables Vol C Tables 4.2.6.8 and 6.1.1.4'
N N 0.0311 0.0000 'International Tables Vol C Tables 4.2.6.8 and 6.1.1.4'
O O 0.0492 0.0000 'International Tables Vol C Tables 4.2.6.8 and 6.1.1.4'

_symmetry_cell_setting           Monoclinic
_symmetry_space_group_name_H-M   C2/c
_symmetry_space_group_name_hall  '-C 2yc'

loop_
_symmetry_equiv_pos_as_xyz
'x, y, z'
'-x, y, -z+1/2'
'x+1/2, y+1/2, z'
'-x+1/2, y+1/2, -z+1/2'
'-x, -y, -z'
'x, -y, z-1/2'
'-x+1/2, -y+1/2, -z'
'x+1/2, -y+1/2, z-1/2'

_cell_length_a                   14.272(2)
_cell_length_b                   24.516(4)
_cell_length_c                   21.640(3)
_cell_angle_alpha                90.00
_cell_angle_beta                 97.075(4)
_cell_angle_gamma                90.00
_cell_volume                     7514.0(19)
_cell_formula_units_Z            8
_cell_measurement_temperature    223(2)
_cell_measurement_reflns_used    6537
_cell_measurement_theta_min      3.60
_cell_measurement_theta_max      70.07

_exptl_crystal_description       block
_exptl_crystal_colour            Colorless
_exptl_crystal_size_max          0.38
_exptl_crystal_size_mid          0.22
_exptl_crystal_size_min          0.13
_exptl_crystal_density_meas      ?
_exptl_crystal_density_diffrn    1.292
_exptl_crystal_density_method    'not measured'
_exptl_crystal_F_000             3024
_exptl_absorpt_coefficient_mu    1.416
_exptl_absorpt_correction_Type   multi-scan
_exptl_absorpt_correction_T_min  0.7100
_exptl_absorpt_correction_T_max  0.8200
_exptl_absorpt_process_details   'Sadabs Sheldrick, 2002)'

_exptl_special_details           
;
X-ray crystallographic data for I were collected from a single crystal
sample, which was mounted on a loop fiber. Data were collected using
a Bruker Platform diffractometer, equipped with a Bruker SMART 2K
Charged-Coupled Device (CCD) Area Detector using the program SMART and
normal focus sealed tube source graphite monochromated Cu-K\a radiation.
The crystal-to-detector distance was 4.908 cm, and the data collection
was carried out in 512 x 512 pixel mode, utilizing 4 x 4 pixel binning.
The initial unit cell parameters were determined by a least-squares fit
of the angular setting of strong reflections, collected by a 9.0 degree
scan in 30 frames over four different parts of the reciprocal space
(120 frames total). One complete sphere of data was collected, to
better than 0.8\%A resolution.

The structure was solved and refined using SHELXL97. All the atoms have
been refined with anisotropic atomic displacement parameters. One of the
two BF4 couter ion is lying close to an inversion center, so its occupancy
factor has been set to 0.5 to account for this statistical disorder.

;

_diffrn_ambient_temperature      223(2)
_diffrn_radiation_wavelength     1.54178
_diffrn_radiation_type           CuK\a
_diffrn_radiation_source         'X-ray Sealed Tube'
_diffrn_radiation_monochromator  graphite
_diffrn_measurement_device_type  'Bruker AXS Smart 2k/Platform'
_diffrn_measurement_method       \w
_diffrn_detector_area_resol_mean 5.5
_diffrn_standards_number         5
_diffrn_standards_interval_count ?
_diffrn_standards_interval_time  ?
_diffrn_standards_decay_%        0.00
_diffrn_reflns_number            10387
_diffrn_reflns_av_R_equivalents  0.059
_diffrn_reflns_av_sigmaI/netI    0.063
_diffrn_reflns_limit_h_min       -17
_diffrn_reflns_limit_h_max       17
_diffrn_reflns_limit_k_min       -29
_diffrn_reflns_limit_k_max       29
_diffrn_reflns_limit_l_min       -26
_diffrn_reflns_limit_l_max       26
_diffrn_reflns_theta_min         5.18
_diffrn_reflns_theta_max         70.07
_reflns_number_total             7145
_reflns_number_gt                7085
_reflns_threshold_expression     I>2\s(I)

_computing_data_collection       'SMART v5.059 (Bruker, 1999)'
_computing_cell_refinement       'SAINT V6.35A (Bruker AXS, 2002)'
_computing_data_reduction        'SAINT V6.35A (Bruker AXS, 2002)'
_computing_structure_solution    'SHELXS97 (Sheldrick, 2008)'
_computing_structure_refinement  'SHELXL97 (Sheldrick, 2008)'
_computing_molecular_graphics    'ATOMS (Dowty, 2003)'
_computing_publication_material  'UdMX (Maris, 2004)'


_refine_special_details          
;
Refinement of F^2^ against ALL reflections. The weighted R-factor wR and
goodness of fit S are based on F^2^, conventional R-factors R are based
on F, with F set to zero for negative F^2^. The threshold expression of
F^2^ > 2sigma(F^2^) is used only for calculating R-factors(gt) etc. and is
not relevant to the choice of reflections for refinement. R-factors based
on F^2^ are statistically about twice as large as those based on F, and R-
factors based on ALL data will be even larger.
;

_refine_ls_structure_factor_coef Fsqd
_refine_ls_matrix_type           full
_refine_ls_weighting_scheme      calc
_refine_ls_weighting_details     
'calc w=1/[\s^2^(Fo^2^)+(0.1710P)^2^] where P=(Fo^2^+2Fc^2^)/3'
_atom_sites_solution_primary     direct
_atom_sites_solution_secondary   difmap
_atom_sites_solution_hydrogens   geom
_refine_ls_hydrogen_treatment    constr
_refine_ls_extinction_method     none
_refine_ls_extinction_coef       ?
_refine_ls_number_reflns         7145
_refine_ls_number_parameters     458
_refine_ls_number_restraints     19
_refine_ls_R_factor_all          0.0849
_refine_ls_R_factor_gt           0.0781
_refine_ls_wR_factor_ref         0.2321
_refine_ls_wR_factor_gt          0.1828
_refine_ls_goodness_of_fit_ref   1.106
_refine_ls_restrained_S_all      1.119
_refine_ls_shift/su_max          0.001
_refine_ls_shift/su_mean         0.000

loop_
_atom_site_label
_atom_site_type_symbol
_atom_site_fract_x
_atom_site_fract_y
_atom_site_fract_z
_atom_site_U_iso_or_equiv
_atom_site_adp_type
_atom_site_occupancy
_atom_site_symmetry_multiplicity
_atom_site_calc_flag
_atom_site_refinement_flags
_atom_site_disorder_assembly
_atom_site_disorder_group
Cu1 Cu -0.109038(8) 0.123830(5) -0.429597(6) 0.07014(15) Uani 1 1 d . . .
C1 C -0.15117(4) 0.31815(3) -0.11216(3) 0.04997(19) Uani 1 1 d . . .
C10 C -0.14344(4) 0.30073(2) -0.18051(2) 0.04703(18) Uani 1 1 d . . .
H10A H -0.1978 0.3145 -0.2082 0.056 Uiso 1 1 calc R . .
H10B H -0.0858 0.3159 -0.1941 0.056 Uiso 1 1 calc R . .
O11 O -0.14115(3) 0.24296(2) -0.18297(2) 0.05876(18) Uani 1 1 d . . .
C12 C -0.13215(4) 0.21731(3) -0.23844(3) 0.0594(2) Uani 1 1 d . . .
C13 C -0.12095(5) 0.24795(2) -0.28986(3) 0.05476(19) Uani 1 1 d . . .
H13 H -0.1191 0.2863 -0.2885 0.066 Uiso 1 1 calc R . .
C14 C -0.11291(5) 0.22062(3) -0.34159(3) 0.05590(19) Uani 1 1 d . . .
H14 H -0.1087 0.2411 -0.3779 0.067 Uiso 1 1 calc R . .
N15 N -0.11022(4) 0.16665(2) -0.34654(3) 0.05651(18) Uani 1 1 d . . .
C16 C -0.12215(5) 0.13768(3) -0.29591(3) 0.0591(2) Uani 1 1 d . . .
H16 H -0.1253 0.0995 -0.2989 0.071 Uiso 1 1 calc R . .
C17 C -0.13016(5) 0.16237(3) -0.23851(3) 0.0616(2) Uani 1 1 d . . .
H17 H -0.1339 0.1419 -0.2022 0.074 Uiso 1 1 calc R . .
C20 C -0.15619(5) 0.38060(2) -0.10742(3) 0.05414(19) Uani 1 1 d . . .
H20A H -0.1394 0.3923 -0.0642 0.065 Uiso 1 1 calc R . .
H20B H -0.1123 0.3976 -0.1331 0.065 Uiso 1 1 calc R . .
O21 O -0.25323(3) 0.39630(2) -0.129608(19) 0.05269(17) Uani 1 1 d . . .
C22 C -0.27684(5) 0.44526(2) -0.11483(3) 0.05198(19) Uani 1 1 d . . .
C23 C -0.37175(5) 0.45403(3) -0.12002(3) 0.05801(19) Uani 1 1 d . . .
H23 H -0.4147 0.4264 -0.1342 0.070 Uiso 1 1 calc R . .
C24 C -0.40288(4) 0.50482(2) -0.10389(3) 0.04968(18) Uani 1 1 d . . .
H24 H -0.4685 0.5099 -0.1060 0.060 Uiso 1 1 calc R . .
N25 N -0.34773(5) 0.54753(2) -0.08554(3) 0.05577(18) Uani 1 1 d . . .
C26 C -0.25167(5) 0.53665(4) -0.08140(3) 0.0630(2) Uani 1 1 d . . .
H26 H -0.2081 0.5640 -0.0672 0.076 Uiso 1 1 calc R . .
C27 C -0.21873(8) 0.48594(4) -0.09792(7) 0.0957(4) Uani 1 1 d . . .
H27 H -0.1534 0.4805 -0.0970 0.115 Uiso 1 1 calc R . .
C30 C -0.23471(4) 0.29119(2) -0.09072(3) 0.05377(19) Uani 1 1 d . . .
H30A H -0.2924 0.3003 -0.1182 0.065 Uiso 1 1 calc R . .
H30B H -0.2270 0.2515 -0.0897 0.065 Uiso 1 1 calc R . .
O31 O -0.23849(3) 0.31265(3) -0.02831(3) 0.0683(2) Uani 1 1 d . . .
C32 C -0.32142(5) 0.32714(4) -0.00949(4) 0.0687(2) Uani 1 1 d . . .
C33 C -0.40500(5) 0.31209(3) -0.04252(3) 0.0614(2) Uani 1 1 d . . .
H33 H -0.4070 0.2908 -0.0788 0.074 Uiso 1 1 calc R . .
C34 C -0.48724(6) 0.32972(3) -0.02021(3) 0.0706(2) Uani 1 1 d . . .
H34 H -0.5449 0.3195 -0.0431 0.085 Uiso 1 1 calc R . .
N35 N -0.49164(3) 0.36000(2) 0.03112(2) 0.04720(17) Uani 1 1 d . . .
C36 C -0.40679(5) 0.37366(3) 0.06080(4) 0.0614(2) Uani 1 1 d . . .
H36 H -0.4056 0.3946 0.0973 0.074 Uiso 1 1 calc R . .
C37 C -0.32230(5) 0.35954(3) 0.04225(3) 0.0605(2) Uani 1 1 d . . .
H37 H -0.2655 0.3718 0.0645 0.073 Uiso 1 1 calc R . .
C40 C -0.06148(5) 0.30011(4) -0.07293(4) 0.0699(2) Uani 1 1 d . . .
H40A H -0.0644 0.3086 -0.0290 0.084 Uiso 1 1 calc R . .
H40B H -0.0524 0.2607 -0.0771 0.084 Uiso 1 1 calc R . .
O41 O 0.01410(3) 0.32935(2) -0.09552(3) 0.06411(19) Uani 1 1 d . . .
C42 C 0.09873(4) 0.33180(2) -0.05781(3) 0.04904(18) Uani 1 1 d . . .
C43 C 0.16848(6) 0.36283(4) -0.08018(4) 0.0721(3) Uani 1 1 d . . .
H43 H 0.1567 0.3808 -0.1187 0.086 Uiso 1 1 calc R . .
C44 C 0.25221(5) 0.36670(2) -0.04607(3) 0.0564(2) Uani 1 1 d . . .
H44 H 0.2994 0.3863 -0.0632 0.068 Uiso 1 1 calc R . .
N45 N 0.27526(5) 0.34489(3) 0.01093(3) 0.0706(2) Uani 1 1 d . . .
C46 C 0.20961(5) 0.31567(3) 0.03321(4) 0.0576(2) Uani 1 1 d . . .
H46 H 0.2219 0.2997 0.0728 0.069 Uiso 1 1 calc R . .
C47 C 0.12408(5) 0.30865(2) -0.00108(4) 0.0589(2) Uani 1 1 d . . .
H47 H 0.0796 0.2864 0.0154 0.071 Uiso 1 1 calc R . .
B1 B 0.0000 0.42787(9) -0.2500 0.1031(6) Uani 1 2 d S . .
F1 F -0.02713(9) 0.45965(5) -0.20390(6) 0.1475(5) Uani 1 1 d . . .
F2 F -0.07235(9) 0.39595(6) -0.27269(5) 0.1524(4) Uani 1 1 d . . .
B2 B -0.41740(15) 0.30599(8) -0.30690(11) 0.1234(12) Uani 0.50 1 d PD A -1
F3 F -0.50852(12) 0.30022(8) -0.30769(11) 0.1227(5) Uani 0.50 1 d PD A -1
F4 F -0.38703(13) 0.27263(7) -0.34716(8) 0.1148(5) Uani 0.50 1 d PD A -1
F5 F -0.37529(15) 0.29522(12) -0.25123(11) 0.1483(8) Uani 0.50 1 d PD A -1
F6 F -0.39808(15) 0.35619(7) -0.32125(9) 0.1231(6) Uani 0.50 1 d PD A -1
N50 N -0.49293(8) 0.07432(5) -0.03337(5) 0.1009(3) Uani 1 1 d D . .
C50 C -0.45119(15) 0.04366(8) -0.05811(9) 0.1358(6) Uani 1 1 d D . .
C51 C -0.39346(17) 0.00459(9) -0.08694(10) 0.1416(7) Uani 1 1 d D . .
H51A H -0.3467 -0.0109 -0.0555 0.212 Uiso 1 1 calc R . .
H51B H -0.3618 0.0229 -0.1183 0.212 Uiso 1 1 calc R . .
H51C H -0.4333 -0.0243 -0.1063 0.212 Uiso 1 1 calc R . .
N60 N -0.35967(8) 0.56220(5) -0.33104(6) 0.1033(3) Uani 1 1 d D . .
C60 C -0.34020(13) 0.51868(6) -0.31715(11) 0.1318(6) Uani 1 1 d D . .
C61 C -0.31190(16) 0.46307(6) -0.30081(10) 0.1411(7) Uani 1 1 d D . .
H61A H -0.2534 0.4635 -0.2727 0.212 Uiso 1 1 calc R . .
H61B H -0.3026 0.4431 -0.3383 0.212 Uiso 1 1 calc R . .
H61C H -0.3608 0.4455 -0.2805 0.212 Uiso 1 1 calc R . .
O70 O 0.10103(9) 0.35570(6) 0.18381(5) 0.1196(3) Uani 1 1 d . . .
H70A H 0.1006 0.3278 0.2071 0.179 Uiso 1 1 d R . .
H70B H 0.1136 0.3404 0.1506 0.179 Uiso 1 1 d R . .
O71 O 0.14650(10) 0.38622(5) 0.28196(7) 0.1353(4) Uani 1 1 d . . .
H71A H 0.1211 0.3755 0.3134 0.203 Uiso 1 1 d R . .
H71B H 0.1362 0.4035 0.2477 0.203 Uiso 1 1 d R . .
O72 O -0.05081(10) 0.34939(5) 0.12299(6) 0.1311(4) Uani 1 1 d . . .
H72A H 0.0066 0.3422 0.1359 0.197 Uiso 1 1 d R . .
H72B H -0.0501 0.3778 0.1005 0.197 Uiso 1 1 d R . .

loop_
_atom_site_aniso_label
_atom_site_aniso_U_11
_atom_site_aniso_U_22
_atom_site_aniso_U_33
_atom_site_aniso_U_23
_atom_site_aniso_U_13
_atom_site_aniso_U_12
Cu1 0.0647(12) 0.0781(13) 0.0693(12) -0.0027(8) 0.0137(8) -0.0081(8)
C1 0.049(9) 0.060(9) 0.043(8) 0.000(6) 0.015(7) -0.006(7)
C10 0.041(7) 0.053(9) 0.047(9) 0.007(7) 0.005(5) 0.005(5)
O11 0.052(4) 0.059(6) 0.065(6) 0.003(5) 0.006(3) 0.004(3)
C12 0.055(7) 0.094(16) 0.032(13) -0.025(14) 0.013(6) -0.004(7)
C13 0.058(7) 0.037(10) 0.070(9) -0.006(14) 0.010(6) -0.002(5)
C14 0.055(7) 0.053(15) 0.059(14) -0.002(9) 0.007(6) 0.003(6)
N15 0.053(5) 0.052(10) 0.066(10) -0.003(8) 0.011(4) 0.000(5)
C16 0.064(7) 0.056(9) 0.058(9) 0.002(14) 0.012(6) -0.007(6)
C17 0.063(7) 0.059(14) 0.062(16) 0.000(10) 0.004(6) -0.001(6)
C20 0.066(9) 0.043(10) 0.053(7) -0.002(6) 0.002(6) -0.004(7)
O21 0.052(6) 0.058(6) 0.048(4) -0.003(4) 0.004(4) 0.000(5)
C22 0.066(14) 0.045(14) 0.046(7) -0.007(7) 0.014(7) 0.002(12)
C23 0.057(13) 0.055(13) 0.062(7) 0.004(7) 0.006(6) -0.005(8)
C24 0.048(9) 0.044(9) 0.058(7) 0.003(6) 0.008(6) 0.007(11)
N25 0.065(9) 0.050(8) 0.053(5) -0.005(5) 0.012(5) -0.005(7)
C26 0.054(13) 0.077(12) 0.056(7) 0.008(7) 0.002(6) 0.002(8)
C27 0.073(11) 0.054(11) 0.166(12) -0.033(9) 0.046(9) 0.001(12)
C30 0.038(7) 0.052(7) 0.073(9) -0.019(7) 0.011(6) 0.005(6)
O31 0.051(6) 0.081(5) 0.072(6) -0.024(4) 0.006(5) 0.016(4)
C32 0.044(12) 0.078(10) 0.078(11) 0.009(9) -0.017(11) -0.009(9)
C33 0.064(10) 0.062(7) 0.058(8) -0.003(6) 0.005(11) 0.001(8)
C34 0.093(14) 0.068(9) 0.048(9) -0.021(7) -0.008(7) -0.021(7)
N35 0.045(8) 0.048(6) 0.048(6) -0.003(5) 0.005(6) 0.003(5)
C36 0.040(9) 0.078(8) 0.066(8) -0.013(6) -0.002(10) 0.002(8)
C37 0.043(12) 0.072(8) 0.063(9) -0.026(7) -0.004(8) 0.000(7)
C40 0.043(8) 0.084(8) 0.085(8) -0.021(7) 0.021(8) -0.006(8)
O41 0.031(5) 0.077(5) 0.082(5) 0.006(4) -0.007(5) 0.009(4)
C42 0.040(12) 0.043(8) 0.067(10) 0.003(7) 0.019(11) 0.011(9)
C43 0.062(10) 0.093(9) 0.056(9) 0.014(7) -0.006(10) -0.025(9)
C44 0.058(11) 0.049(8) 0.066(10) 0.008(8) 0.021(8) -0.022(7)
N45 0.070(8) 0.071(7) 0.073(8) 0.010(6) 0.015(7) -0.006(7)
C46 0.041(8) 0.059(8) 0.071(8) -0.002(6) 0.003(10) -0.028(7)
C47 0.059(12) 0.043(7) 0.079(11) 0.029(8) 0.023(8) -0.002(7)
B1 0.15(3) 0.09(2) 0.07(2) 0.000 -0.010(18) 0.000
F1 0.157(6) 0.145(6) 0.153(7) -0.045(5) 0.065(5) -0.053(5)
F2 0.165(7) 0.158(7) 0.120(6) -0.031(5) -0.029(5) -0.067(5)
B2 0.11(4) 0.11(4) 0.16(4) 0.03(3) 0.04(3) 0.00(3)
F3 0.114(11) 0.111(10) 0.145(12) 0.002(8) 0.026(10) -0.027(9)
F4 0.117(11) 0.120(11) 0.116(11) -0.026(9) 0.044(8) -0.017(8)
F5 0.112(12) 0.173(12) 0.159(13) 0.029(11) 0.017(10) -0.002(9)
F6 0.143(12) 0.116(11) 0.120(11) -0.031(10) 0.059(9) -0.045(10)
N50 0.106(9) 0.105(10) 0.091(9) -0.005(7) 0.004(6) -0.007(6)
C50 0.155(17) 0.138(17) 0.121(15) -0.013(12) 0.027(11) -0.009(11)
C51 0.154(13) 0.147(13) 0.130(13) -0.014(10) 0.031(9) 0.005(9)
N60 0.097(8) 0.103(9) 0.111(8) -0.006(8) 0.016(6) 0.005(8)
C60 0.104(12) 0.133(15) 0.161(13) -0.020(15) 0.022(10) 0.023(14)
C61 0.139(12) 0.149(13) 0.140(12) -0.011(11) 0.021(9) 0.017(10)
O70 0.128(6) 0.127(6) 0.104(6) -0.006(5) 0.011(5) 0.007(5)
O71 0.155(7) 0.120(7) 0.131(7) -0.004(5) 0.025(5) 0.014(5)
O72 0.150(7) 0.111(6) 0.136(7) 0.004(5) 0.035(5) -0.001(5)

_geom_special_details            
;
All esds (except the esd in the dihedral angle between two l.s. planes)
are estimated using the full covariance matrix. The 