####################################################################### 
# 
# This file contains crystal structure data downloaded from the 
# Cambridge Structural Database (CSD) hosted by the Cambridge 
# Crystallographic Data Centre (CCDC).
# 
# Full information about CCDC data access policies and citation 
# guidelines are available at http://www.ccdc.cam.ac.uk/access/V1 
# 
# Audit and citation data items may have been added by the CCDC. 
# Please retain this information to preserve the provenance of 
# this file and to allow appropriate attribution of the data. 
# 
#######################################################################

data_yk173m
_audit_block_doi                 10.5517/ccrbfs8
_database_code_depnum_ccdc_archive 'CCDC 695230'
loop_
_citation_id
_citation_doi
_citation_year
1 10.1016/j.poly.2009.02.014 2009
_audit_update_record             
;
2008-07-15 deposited with the CCDC.	2024-07-11 downloaded from the CCDC.
;

_audit_creation_method           SHELXL-97
_chemical_name_systematic        
;
?
;
_chemical_name_common            ?
_chemical_melting_point          ?
_chemical_formula_moiety         ?
_chemical_formula_sum            'C34 H28 N4 O6 Zn2'
_chemical_formula_weight         719.34

loop_
_atom_type_symbol
_atom_type_description
_atom_type_scat_dispersion_real
_atom_type_scat_dispersion_imag
_atom_type_scat_source
C C 0.0033 0.0016 'International Tables Vol C Tables 4.2.6.8 and 6.1.1.4'
H H 0.0000 0.0000 'International Tables Vol C Tables 4.2.6.8 and 6.1.1.4'
N N 0.0061 0.0033 'International Tables Vol C Tables 4.2.6.8 and 6.1.1.4'
O O 0.0106 0.0060 'International Tables Vol C Tables 4.2.6.8 and 6.1.1.4'
Zn Zn 0.2839 1.4301 'International Tables Vol C Tables 4.2.6.8 and 6.1.1.4'

_symmetry_cell_setting           Monoclinic
_symmetry_space_group_name_H-M   P2(1)/c

loop_
_symmetry_equiv_pos_as_xyz
'x, y, z'
'-x, y+1/2, -z+1/2'
'-x, -y, -z'
'x, -y-1/2, z-1/2'

_cell_length_a                   7.5157(13)
_cell_length_b                   22.813(4)
_cell_length_c                   24.820(4)
_cell_angle_alpha                90.00
_cell_angle_beta                 95.732(3)
_cell_angle_gamma                90.00
_cell_volume                     4234.2(13)
_cell_formula_units_Z            4
_cell_measurement_temperature    170(2)
_cell_measurement_reflns_used    2469
_cell_measurement_theta_min      2.43
_cell_measurement_theta_max      19.62

_exptl_crystal_description       rod
_exptl_crystal_colour            colorless
_exptl_crystal_size_max          0.10
_exptl_crystal_size_mid          0.03
_exptl_crystal_size_min          0.03
_exptl_crystal_density_meas      'not measured'
_exptl_crystal_density_diffrn    1.128
_exptl_crystal_density_method    'not measured'
_exptl_crystal_F_000             1472
_exptl_absorpt_coefficient_mu    1.172
_exptl_absorpt_correction_type   none
_exptl_absorpt_correction_T_min  ?
_exptl_absorpt_correction_T_max  ?
_exptl_absorpt_process_details   ?

_exptl_special_details           
;
?
;

_diffrn_ambient_temperature      170(2)
_diffrn_radiation_wavelength     0.71073
_diffrn_radiation_type           MoK\a
_diffrn_radiation_source         'fine-focus sealed tube'
_diffrn_radiation_monochromator  graphite
_diffrn_measurement_device_type  'CCD area detector'
_diffrn_measurement_method       'phi and omega scans'
_diffrn_detector_area_resol_mean ?
_diffrn_standards_number         ?
_diffrn_standards_interval_count ?
_diffrn_standards_interval_time  ?
_diffrn_standards_decay_%        ?
_diffrn_reflns_number            20746
_diffrn_reflns_av_R_equivalents  0.0783
_diffrn_reflns_av_sigmaI/netI    0.1832
_diffrn_reflns_limit_h_min       -8
_diffrn_reflns_limit_h_max       8
_diffrn_reflns_limit_k_min       -27
_diffrn_reflns_limit_k_max       23
_diffrn_reflns_limit_l_min       -26
_diffrn_reflns_limit_l_max       29
_diffrn_reflns_theta_min         2.72
_diffrn_reflns_theta_max         25.00
_reflns_number_total             7441
_reflns_number_gt                4859
_reflns_threshold_expression     >2sigma(I)

_computing_data_collection       'Bruker SMART'
_computing_cell_refinement       'Bruker SMART'
_computing_data_reduction        'Bruker SAINT'
_computing_structure_solution    'SHELXS-97 (Sheldrick, 1990)'
_computing_structure_refinement  'SHELXL-97 (Sheldrick, 1997)'
_computing_molecular_graphics    'Bruker SHELXTL'
_computing_publication_material  'Bruker SHELXTL'

_refine_special_details          
;
Refinement of F^2^ against ALL reflections. The weighted R-factor wR and
goodness of fit S are based on F^2^, conventional R-factors R are based
on F, with F set to zero for negative F^2^. The threshold expression of
F^2^ > 2sigma(F^2^) is used only for calculating R-factors(gt) etc. and is
not relevant to the choice of reflections for refinement. R-factors based
on F^2^ are statistically about twice as large as those based on F, and R-
factors based on ALL data will be even larger.
;

_refine_ls_structure_factor_coef Fsqd
_refine_ls_matrix_type           full
_refine_ls_weighting_scheme      calc
_refine_ls_weighting_details     
'calc w=1/[\s^2^(Fo^2^)+(0.0905P)^2^+0.0000P] where P=(Fo^2^+2Fc^2^)/3'
_atom_sites_solution_primary     direct
_atom_sites_solution_secondary   difmap
_atom_sites_solution_hydrogens   geom
_refine_ls_hydrogen_treatment    mixed
_refine_ls_extinction_method     none
_refine_ls_extinction_coef       ?
_refine_ls_number_reflns         7441
_refine_ls_number_parameters     421
_refine_ls_number_restraints     2
_refine_ls_R_factor_all          0.1483
_refine_ls_R_factor_gt           0.0705
_refine_ls_wR_factor_ref         0.1819
_refine_ls_wR_factor_gt          0.1656
_refine_ls_goodness_of_fit_ref   0.818
_refine_ls_restrained_S_all      0.817
_refine_ls_shift/su_max          0.000
_refine_ls_shift/su_mean         0.000

loop_
_atom_site_label
_atom_site_type_symbol
_atom_site_fract_x
_atom_site_fract_y
_atom_site_fract_z
_atom_site_U_iso_or_equiv
_atom_site_adp_type
_atom_site_occupancy
_atom_site_symmetry_multiplicity
_atom_site_calc_flag
_atom_site_refinement_flags
_atom_site_disorder_assembly
_atom_site_disorder_group
Zn1 Zn 1.28921(10) 0.29791(4) 0.60301(3) 0.0525(3) Uani 1 1 d . . .
O11 O 1.4471(6) 0.32771(19) 0.66406(19) 0.0591(13) Uani 1 1 d . . .
O12 O 1.6175(6) 0.3632(2) 0.6044(2) 0.0683(15) Uani 1 1 d . . .
C16 C 1.5853(9) 0.3557(3) 0.6507(3) 0.0492(19) Uani 1 1 d . . .
C17 C 1.7067(9) 0.3787(3) 0.6976(3) 0.0529(19) Uani 1 1 d . . .
C18 C 1.8604(11) 0.4064(3) 0.6860(4) 0.072(2) Uani 1 1 d . . .
H18 H 1.8862 0.4111 0.6496 0.086 Uiso 1 1 calc R . .
C19 C 1.9769(15) 0.4274(4) 0.7281(6) 0.098(3) Uani 1 1 d . . .
H19 H 2.0811 0.4481 0.7204 0.118 Uiso 1 1 calc R . .
C110 C 1.9452(16) 0.4189(5) 0.7791(7) 0.111(4) Uani 1 1 d . . .
H110 H 2.0311 0.4321 0.8072 0.133 Uiso 1 1 calc R . .
C111 C 1.7889(15) 0.3913(4) 0.7932(4) 0.090(3) Uani 1 1 d . . .
H111 H 1.7640 0.3868 0.8297 0.108 Uiso 1 1 calc R . .
C112 C 1.6739(11) 0.3711(3) 0.7501(4) 0.061(2) Uani 1 1 d . . .
H112 H 1.5681 0.3511 0.7574 0.074 Uiso 1 1 calc R . .
O13 O 1.3687(12) 0.2210(8) 0.5691(9) 0.50(2) Uani 1 1 d D . .
N11 N 1.1695(7) 0.3706(2) 0.5667(3) 0.0473(15) Uani 1 1 d . . .
C11 C 1.0721(9) 0.3679(3) 0.5179(3) 0.0498(18) Uani 1 1 d . . .
H11 H 1.0490 0.3309 0.5012 0.060 Uiso 1 1 calc R . .
C12 C 1.0059(8) 0.4179(3) 0.4922(3) 0.0449(17) Uani 1 1 d . . .
H12 H 0.9383 0.4142 0.4580 0.054 Uiso 1 1 calc R . .
C13 C 1.0338(8) 0.4739(3) 0.5143(3) 0.0373(16) Uani 1 1 d . . .
C14 C 1.1287(8) 0.4752(3) 0.5647(3) 0.0402(16) Uani 1 1 d . . .
H14 H 1.1498 0.5118 0.5824 0.048 Uiso 1 1 calc R . .
C15 C 1.1941(9) 0.4244(3) 0.5901(3) 0.0510(19) Uani 1 1 d . . .
H15 H 1.2582 0.4271 0.6250 0.061 Uiso 1 1 calc R . .
Zn2 Zn 0.18825(10) 0.15661(4) 0.84603(3) 0.0580(3) Uani 1 1 d . . .
O21 O 0.0349(6) 0.1188(2) 0.78977(19) 0.0605(13) Uani 1 1 d . . .
O22 O -0.1143(7) 0.0853(2) 0.8566(2) 0.0749(16) Uani 1 1 d . . .
C26 C -0.0978(9) 0.0910(3) 0.8077(4) 0.0539(19) Uani 1 1 d . . .
C27 C -0.2316(10) 0.0668(3) 0.7654(4) 0.057(2) Uani 1 1 d . . .
C28 C -0.2076(12) 0.0676(4) 0.7127(4) 0.073(2) Uani 1 1 d . . .
H28 H -0.1024 0.0847 0.7012 0.087 Uiso 1 1 calc R . .
C29 C -0.3376(19) 0.0431(5) 0.6738(5) 0.090(4) Uani 1 1 d . . .
H29 H -0.3187 0.0415 0.6366 0.156 Uiso 1 1 calc R . .
C210 C -0.4984(14) 0.0208(4) 0.6927(7) 0.117(4) Uani 1 1 d . . .
H210 H -0.5912 0.0058 0.6677 0.141 Uiso 1 1 calc R . .
C211 C -0.5173(15) 0.0213(4) 0.7462(5) 0.092(3) Uani 1 1 d . . .
H211 H -0.6241 0.0063 0.7585 0.111 Uiso 1 1 calc R . .
C212 C -0.3915(10) 0.0419(3) 0.7818(4) 0.066(2) Uani 1 1 d . . .
H212 H -0.4075 0.0401 0.8193 0.079 Uiso 1 1 calc R . .
O23 O 0.0949(9) 0.2299(3) 0.8819(3) 0.110(2) Uani 1 1 d D . .
N21 N 0.3149(7) 0.0998(3) 0.9004(2) 0.0448(14) Uani 1 1 d . . .
C21 C 0.4068(9) 0.1181(3) 0.9458(3) 0.0523(19) Uani 1 1 d . . .
H21 H 0.4218 0.1591 0.9507 0.063 Uiso 1 1 calc R . .
C22 C 0.4823(8) 0.0816(3) 0.9864(3) 0.0402(16) Uani 1 1 d . . .
H22 H 0.5439 0.0972 1.0185 0.048 Uiso 1 1 calc R . .
C23 C 0.4648(7) 0.0208(3) 0.9787(2) 0.0334(15) Uani 1 1 d . . .
C24 C 0.3723(8) 0.0023(3) 0.9306(3) 0.0375(16) Uani 1 1 d . . .
H24 H 0.3578 -0.0384 0.9233 0.045 Uiso 1 1 calc R . .
C25 C 0.3020(8) 0.0423(4) 0.8937(3) 0.0472(18) Uani 1 1 d . . .
H25 H 0.2397 0.0280 0.8611 0.057 Uiso 1 1 calc R . .
N31 N 1.0898(8) 0.2686(2) 0.6475(3) 0.0516(15) Uani 1 1 d . . .
N32 N 0.3914(7) 0.1794(2) 0.8011(3) 0.0521(15) Uani 1 1 d . . .
C31 C 0.9441(10) 0.2403(4) 0.6243(3) 0.075(2) Uani 1 1 d . . .
H31 H 0.9351 0.2328 0.5864 0.090 Uiso 1 1 calc R . .
C32 C 0.8069(10) 0.2219(4) 0.6538(3) 0.070(2) Uani 1 1 d . . .
H32 H 0.7050 0.2028 0.6360 0.085 Uiso 1 1 calc R . .
C33 C 0.8187(9) 0.2310(3) 0.7076(3) 0.053(2) Uani 1 1 d . . .
C34 C 0.9709(8) 0.2600(3) 0.7330(3) 0.0447(17) Uani 1 1 d . . .
H34 H 0.9846 0.2665 0.7710 0.054 Uiso 1 1 calc R . .
C35 C 1.0991(9) 0.2784(3) 0.7006(3) 0.0488(18) Uani 1 1 d . . .
H35 H 1.1997 0.2991 0.7171 0.059 Uiso 1 1 calc R . .
C36 C 0.6739(9) 0.2130(3) 0.7415(3) 0.0516(19) Uani 1 1 d . . .
C37 C 0.6848(10) 0.2227(3) 0.7963(3) 0.063(2) Uani 1 1 d . . .
H37 H 0.7855 0.2422 0.8143 0.076 Uiso 1 1 calc R . .
C38 C 0.5463(10) 0.2036(3) 0.8251(3) 0.069(2) Uani 1 1 d . . .
H38 H 0.5598 0.2076 0.8634 0.082 Uiso 1 1 calc R . .
C39 C 0.3805(9) 0.1721(3) 0.7470(4) 0.059(2) Uani 1 1 d . . .
H39 H 0.2745 0.1553 0.7293 0.070 Uiso 1 1 calc R . .
C310 C 0.5123(9) 0.1874(3) 0.7165(3) 0.0519(19) Uani 1 1 d . . .
H310 H 0.4978 0.1812 0.6785 0.062 Uiso 1 1 calc R . .
H13 H 1.420(8) 0.211(3) 0.5409(15) 0.062 Uiso 1 1 d D . .
H23 H 0.096(10) 0.2646(13) 0.868(3) 0.062 Uiso 1 1 d D . .

loop_
_atom_site_aniso_label
_atom_site_aniso_U_11
_atom_site_aniso_U_22
_atom_site_aniso_U_33
_atom_site_aniso_U_23
_atom_site_aniso_U_13
_atom_site_aniso_U_12
Zn1 0.0445(5) 0.0501(5) 0.0649(6) 0.0196(4) 0.0152(4) 0.0037(4)
O11 0.047(3) 0.046(3) 0.086(4) 0.018(3) 0.014(3) -0.004(2)
O12 0.059(3) 0.069(4) 0.080(4) 0.031(3) 0.020(3) 0.006(3)
C16 0.035(4) 0.042(4) 0.073(6) 0.025(4) 0.018(4) 0.005(3)
C17 0.042(5) 0.036(4) 0.082(6) 0.012(4) 0.012(4) 0.004(4)
C18 0.052(5) 0.046(5) 0.117(8) 0.008(5) 0.008(5) -0.006(4)
C19 0.094(8) 0.062(6) 0.136(10) -0.004(7) 0.007(9) -0.008(6)
C110 0.085(9) 0.083(8) 0.153(12) -0.040(8) -0.040(8) 0.004(6)
C111 0.109(8) 0.065(6) 0.096(8) -0.001(5) 0.004(7) 0.010(6)
C112 0.061(5) 0.050(5) 0.073(6) 0.007(4) 0.000(5) 0.004(4)
O13 0.069(6) 0.063(3) 0.084(4) -0.034(3) 0.0171(12) -0.0118(11)
N11 0.036(3) 0.046(4) 0.064(4) 0.006(3) 0.023(3) -0.002(3)
C11 0.044(4) 0.053(5) 0.052(5) 0.013(4) 0.002(4) -0.003(4)
C12 0.028(4) 0.050(5) 0.057(5) 0.015(4) 0.001(3) -0.002(3)
C13 0.024(4) 0.050(5) 0.041(5) 0.004(3) 0.017(3) 0.007(3)
C14 0.042(4) 0.042(4) 0.039(4) 0.009(3) 0.017(3) 0.011(3)
C15 0.042(4) 0.067(6) 0.046(4) 0.006(4) 0.019(3) 0.009(4)
Zn2 0.0408(5) 0.0658(6) 0.0685(6) 0.0262(5) 0.0111(4) 0.0046(4)
O21 0.040(3) 0.067(3) 0.076(3) 0.027(3) 0.014(2) -0.010(2)
O22 0.061(3) 0.103(4) 0.061(4) 0.037(3) 0.005(3) -0.006(3)
C26 0.041(5) 0.046(5) 0.075(6) 0.017(4) 0.002(4) 0.006(4)
C27 0.052(5) 0.044(5) 0.077(6) 0.020(4) 0.010(5) 0.011(4)
C28 0.071(6) 0.078(6) 0.068(6) 0.010(5) -0.001(5) -0.009(5)
C29 0.068(13) 0.082(10) 0.070(9) 0.003(8) 0.024(10) 0.023(9)
C210 0.083(8) 0.085(8) 0.083(14) -0.044(8) 0.007(9) -0.043(6)
C211 0.098(8) 0.086(7) 0.091(8) 0.013(6) -0.002(7) -0.027(6)
C212 0.043(5) 0.050(5) 0.106(7) 0.023(5) 0.013(5) 0.000(4)
O23 0.104(5) 0.115(6) 0.101(5) 0.007(4) -0.043(4) 0.041(5)
N21 0.031(3) 0.050(4) 0.054(4) 0.012(3) 0.007(3) -0.005(3)
C21 0.046(4) 0.047(5) 0.064(5) -0.001(4) 0.008(4) -0.012(4)
C22 0.035(4) 0.045(4) 0.041(4) 0.001(3) 0.008(3) -0.005(3)
C23 0.022(3) 0.043(4) 0.037(4) 0.004(3) 0.014(3) 0.007(3)
C24 0.032(4) 0.048(4) 0.033(4) -0.006(3) 0.006(3) 0.010(3)
C25 0.037(4) 0.070(6) 0.036(4) -0.003(4) 0.012(3) -0.004(4)
N31 0.043(4) 0.050(4) 0.062(4) 0.023(3) 0.006(3) -0.001(3)
N32 0.035(4) 0.055(4) 0.066(5) 0.022(3) 0.002(3) 0.002(3)
C31 0.055(5) 0.110(7) 0.061(5) 0.013(5) 0.010(4) -0.029(5)
C32 0.051(5) 0.097(7) 0.063(6) 0.015(5) 0.004(4) -0.023(4)
C33 0.031(4) 0.052(5) 0.079(6) 0.034(4) 0.015(4) 0.011(3)
C34 0.038(4) 0.047(4) 0.051(4) 0.006(3) 0.011(3) -0.009(3)
C35 0.041(4) 0.030(4) 0.077(6) 0.004(4) 0.010(4) 0.001(3)
C36 0.037(4) 0.048(5) 0.071(6) 0.028(4) 0.007(4) 0.009(3)
C37 0.050(5) 0.075(6) 0.068(6) 0.009(4) 0.020(4) -0.007(4)
C38 0.062(6) 0.077(6) 0.068(5) 0.019(5) 0.013(5) 0.000(5)
C39 0.033(4) 0.054(5) 0.088(7) 0.020(4) 0.003(4) -0.008(3)
C310 0.039(4) 0.049(5) 0.067(5) 0.020(4) 0.006(4) -0.001(3)

_geom_special_details            
;
All esds (except the esd in the dihedral angle between two l.s. planes)
are estimated using the full covariance matrix. The cell esds are taken
into account individually in the estimation of esds in distances, angles
and torsion angles; correlations between esds in cell parameters are only
used when they are defined by crystal symmetry. An approximate (isotropic)
treatment of cell esds is used for estimating esds involving l.s. planes.
;

loop_
_geom_bond_atom_site_label_1
_geom_bond_atom_site_label_2
_geom_bond_distance
_geom_bond_site_symmetry_2
_geom_bond_publ_flag
Zn1 O11 1.951(5) . ?
Zn1 N11 2.052(6) . ?
Zn1 N31 2.059(5) . ?
Zn1 O13 2.060(11) . ?
O11 C16 1.290(7) . ?
O12 C16 1.208(8) . ?
C16 C17 1.501(10) . ?
C17 C112 1.362(10) . ?
C17 C18 1.371(9) . ?
C18 C19 1.380(13) . ?
C18 H18 0.9500 . ?
C19 C110 1.325(14) . ?
C19 H19 0.9500 . ?
C110 C111 1.408(14) . ?
C110 H110 0.9500 . ?
C111 C112 1.385(11) . ?
C111 H111 0.9500 . ?
C112 H112 0.9500 . ?
O13 H13 0.86(5) . ?
N11 C11 1.351(8) . ?
N11 C15 1.363(8) . ?
C11 C12 1.375(9) . ?
C11 H11 0.9500 . ?
C12 C13 1.397(9) . ?
C12 H12 0.9500 . ?
C13 C14 1.376(8) . ?
C13 C13 1.454(12) 3_766 ?
C14 C15 1.387(9) . ?
C14 H14 0.9500 . ?
C15 H15 0.9500 . ?
Zn2 O21 1.924(5) . ?
Zn2 N21 2.037(5) . ?
Zn2 N32 2.045(6) . ?
Zn2 O23 2.051(7) . ?
O21 C26 1.297(8) . ?
O22 C26 1.240(9) . ?
C26 C27 1.484(11) . ?
C27 C28 1.340(11) . ?
C27 C212 1.425(10) . ?
C28 C29 1.417(14) . ?
C28 H28 0.9500 . ?
C29 C210 1.432(14) . ?
C29 H29 0.9500 . ?
C210 C211 1.350(14) . ?
C210 H210 0.9500 . ?
C211 C212 1.315(11) . ?
C211 H211 0.9500 . ?
C212 H212 0.9500 . ?
O23 H23 0.86(5) . ?
N21 C25 1.325(8) . ?
N21 C21 1.328(8) . ?
C21 C22 1.385(9) . ?
C21 H21 0.9500 . ?
C22 C23 1.405(8) . ?
C22 H22 0.9500 . ?
C23 C24 1.385(8) . ?
C23 C23 1.478(11) 3_657 ?
C24 C25 1.360(9) . ?
C24 H24 0.9500 . ?
C25 H25 0.9500 . ?
N31 C35 1.332(8) . ?
N31 C31 1.349(9) . ?
N32 C39 1.350(9) . ?
N32 C38 1.370(9) . ?
C31 C32 1.389(9) . ?
C31 H31 0.9500 . ?
C32 C33 1.347(10) . ?
C32 H32 0.9500 . ?
C33 C34 1.413(9) . ?
C33 C36 1.498(9) . ?
C34 C35 1.380(8) . ?
C34 H34 0.9500 . ?
C35 H35 0.9500 . ?
C36 C37 1.372(10) . ?
C36 C310 1.432(9) . ?
C37 C38 1.390(9) . ?
C37 H37 0.9500 . ?
C38 H38 0.9500 . ?
C39 C310 1.351(9) . ?
C39 H39 0.9500 . ?
C310 H310 0.9500 . ?

loop_
_geom_angle_atom_site_label_1
_geom_angle_atom_site_label_2
_geom_angle_atom_site_label_3
_geom_angle
_geom_angle_site_symmetry_1
_geom_angle_site_symmetry_3
_geom_angle_publ_flag
O11 Zn1 N11 105.4(2) . . ?
O11 Zn1 N31 96.7(2) . . ?
N11 Zn1 N31 100.8(2) . . ?
O11 Zn1 O13 115.8(5) . . ?
N11 Zn1 O13 129.8(7) . . ?
N31 Zn1 O13 101.5(5) . . ?
C16 O11 Zn1 114.5(5) . . ?
O12 C16 O11 123.9(8) . . ?
O12 C16 C17 121.5(6) . . ?
O11 C16 C17 114.6(7) . . ?
C112 C17 C18 119.7(8) . . ?
C112 C17 C16 122.9(7) . . ?
C18 C17 C16 117.3(8) . . ?
C17 C18 C19 119.1(9) . . ?
C17 C18 H18 120.5 . . ?
C19 C18 H18 120.5 . . ?
C110 C19 C18 120.7(11) . . ?
C110 C19 H19 119.6 . . ?
C18 C19 H19 119.6 . . ?
C19 C110 C111 122.4(11) . . ?
C19 C110 H110 118.8 . . ?
C111 C110 H110 118.8 . . ?
C112 C111 C110 115.4(10) . . ?
C112 C111 H111 122.3 . . ?
C110 C111 H111 122.3 . . ?
C17 C112 C111 122.5(8) . . ?
C17 C112 H112 118.7 . . ?
C111 C112 H112 118.7 . . ?
Zn1 O13 H13 136(5) . . ?
C11 N11 C15 117.5(6) . . ?
C11 N11 Zn1 122.1(5) . . ?
C15 N11 Zn1 120.3(5) . . ?
N11 C11 C12 121.1(7) . . ?
N11 C11 H11 119.5 . . ?
C12 C11 H11 119.5 . . ?
C11 C12 C13 122.8(7) . . ?
C11 C12 H12 118.6 . . ?
C13 C12 H12 118.6 . . ?
C14 C13 C12 114.9(6) . . ?
C14 C13 C13 123.3(8) . 3_766 ?
C12 C13 C13 121.8(8) . 3_766 ?
C13 C14 C15 121.5(7) . . ?
C13 C14 H14 119.2 . . ?
C15 C14 H14 119.2 . . ?
N11 C15 C14 122.1(7) . . ?
N11 C15 H15 119.0 . . ?
C14 C15 H15 119.0 . . ?
O21 Zn2 N21 113.7(2) . . ?
O21 Zn2 N32 98.3(2) . . ?
