####################################################################### 
# 
# This file contains crystal structure data downloaded from the 
# Cambridge Structural Database (CSD) hosted by the Cambridge 
# Crystallographic Data Centre (CCDC).
# 
# Full information about CCDC data access policies and citation 
# guidelines are available at http://www.ccdc.cam.ac.uk/access/V1 
# 
# Audit and citation data items may have been added by the CCDC. 
# Please retain this information to preserve the provenance of 
# this file and to allow appropriate attribution of the data. 
# 
#######################################################################

data_compound3
_audit_block_doi                 10.5517/ccsg8s8
_database_code_depnum_ccdc_archive 'CCDC 728710'
loop_
_citation_id
_citation_doi
_citation_year
1 10.1021/cg8006469 2009
_audit_update_record             
;
2009-04-22 deposited with the CCDC.	2024-07-11 downloaded from the CCDC.
;

_audit_creation_method           SHELXL-97
_chemical_name_systematic        
;
?
;
_chemical_name_common            ?
_chemical_melting_point          0
_chemical_formula_moiety         'C140 H142 N16 O19 Zn4'
_chemical_formula_sum            'C140 H142 N16 O19 Zn4'
_chemical_formula_weight         2614.18

loop_
_atom_type_symbol
_atom_type_description
_atom_type_scat_dispersion_real
_atom_type_scat_dispersion_imag
_atom_type_scat_source
C C 0.0033 0.0016 'International Tables Vol C Tables 4.2.6.8 and 6.1.1.4'
H H 0.0000 0.0000 'International Tables Vol C Tables 4.2.6.8 and 6.1.1.4'
N N 0.0061 0.0033 'International Tables Vol C Tables 4.2.6.8 and 6.1.1.4'
O O 0.0106 0.0060 'International Tables Vol C Tables 4.2.6.8 and 6.1.1.4'
Zn Zn 0.2839 1.4301 'International Tables Vol C Tables 4.2.6.8 and 6.1.1.4'

_symmetry_cell_setting           triclinic
_symmetry_space_group_name_H-M   p-1
_symmetry_space_group_name_Hall  p-1
loop_
_symmetry_equiv_pos_as_xyz
'x, y, z'
'-x, -y, -z'

_cell_length_a                   13.7354(7)
_cell_length_b                   13.8485(8)
_cell_length_c                   22.4233(12)
_cell_angle_alpha                88.4380(10)
_cell_angle_beta                 85.2750(10)
_cell_angle_gamma                70.7740(10)
_cell_volume                     4013.7(4)
_cell_formula_units_Z            1
_cell_measurement_temperature    298(2)
_cell_measurement_reflns_used    15341
_cell_measurement_theta_min      3.4
_cell_measurement_theta_max      27.5

_exptl_crystal_description       Block
_exptl_crystal_colour            Colorless
_exptl_crystal_size_max          0.40
_exptl_crystal_size_mid          0.38
_exptl_crystal_size_min          0.22
_exptl_crystal_density_meas      ?
_exptl_crystal_density_diffrn    1.082
_exptl_crystal_density_method    'not measured'
_exptl_crystal_F_000             1366
_exptl_absorpt_coefficient_mu    0.650
_exptl_absorpt_correction_type   multi-scan
_exptl_absorpt_correction_T_min  0.7712
_exptl_absorpt_correction_T_max  0.8671
_exptl_absorpt_process_details   'SADABS (Sheldrick, 1996)'

_exptl_special_details           
;
?
;

_diffrn_ambient_temperature      293(2)
_diffrn_radiation_wavelength     0.71073
_diffrn_radiation_type           MoK\a
_diffrn_radiation_source         'fine-focus sealed tube'
_diffrn_radiation_monochromator  graphite
_diffrn_measurement_device_type  'Bruker APEX CCD area-detector'
_diffrn_measurement_method       '\w scans'
_diffrn_detector_area_resol_mean ?
_diffrn_standards_number         0
_diffrn_standards_interval_count ?
_diffrn_standards_interval_time  ?
_diffrn_standards_decay_%        ?
_diffrn_reflns_number            22465
_diffrn_reflns_av_R_equivalents  0.0195
_diffrn_reflns_av_sigmaI/netI    0.0441
_diffrn_reflns_limit_h_min       -15
_diffrn_reflns_limit_h_max       16
_diffrn_reflns_limit_k_min       -16
_diffrn_reflns_limit_k_max       17
_diffrn_reflns_limit_l_min       -18
_diffrn_reflns_limit_l_max       27
_diffrn_reflns_theta_min         1.56
_diffrn_reflns_theta_max         26.03
_reflns_number_total             15341
_reflns_number_gt                11751
_reflns_threshold_expression     >2sigma(I)

_computing_data_collection       'SMART (Bruker, 1997)'
_computing_cell_refinement       'SAINT (Bruker, 1999)'
_computing_data_reduction        SAINT
_computing_structure_solution    'SHELXS-97 (Sheldrick, 1997)'
_computing_structure_refinement  'SHELXL-97 (Sheldrick, 1997)'
_computing_molecular_graphics    'SHELXTL-PLUS (Sheldrick, 1990)'
_computing_publication_material  SHELXL-97

_refine_special_details          
;
Refinement of F^2^ against ALL reflections. The weighted R-factor wR and
goodness of fit S are based on F^2^, conventional R-factors R are based
on F, with F set to zero for negative F^2^. The threshold expression of
F^2^ > 2sigma(F^2^) is used only for calculating R-factors(gt) etc. and is
not relevant to the choice of reflections for refinement. R-factors based
on F^2^ are statistically about twice as large as those based on F, and R-
factors based on ALL data will be even larger.
;

_refine_ls_structure_factor_coef Fsqd
_refine_ls_matrix_type           full
_refine_ls_weighting_scheme      calc
_refine_ls_weighting_details     
'calc w=1/[\s^2^(Fo^2^)+(0.1472P)^2^+4.2702P] where P=(Fo^2^+2Fc^2^)/3'
_atom_sites_solution_primary     direct
_atom_sites_solution_secondary   difmap
_atom_sites_solution_hydrogens   geom
_refine_ls_hydrogen_treatment    constr
_refine_ls_extinction_method     none
_refine_ls_extinction_coef       ?
_refine_ls_number_reflns         15341
_refine_ls_number_parameters     820
_refine_ls_number_restraints     0
_refine_ls_R_factor_all          0.0945
_refine_ls_R_factor_gt           0.0758
_refine_ls_wR_factor_ref         0.2336
_refine_ls_wR_factor_gt          0.2153
_refine_ls_goodness_of_fit_ref   1.051
_refine_ls_restrained_S_all      1.051
_refine_ls_shift/su_max          0.002
_refine_ls_shift/su_mean         0.000

loop_
_atom_site_label
_atom_site_type_symbol
_atom_site_fract_x
_atom_site_fract_y
_atom_site_fract_z
_atom_site_U_iso_or_equiv
_atom_site_adp_type
_atom_site_occupancy
_atom_site_symmetry_multiplicity
_atom_site_calc_flag
_atom_site_refinement_flags
_atom_site_disorder_assembly
_atom_site_disorder_group
C1 C 0.0855(4) 1.7053(4) 0.2275(4) 0.0657(19) Uani 1 1 d . . .
H1 H 0.0518 1.7530 0.2571 0.079 Uiso 1 1 calc R . .
C2 C 0.0592(4) 1.7223(5) 0.1678(4) 0.081(2) Uani 1 1 d . . .
C3 C 0.1114(5) 1.6543(6) 0.1250(4) 0.098(3) Uani 1 1 d . . .
H3 H 0.0935 1.6672 0.0857 0.118 Uiso 1 1 calc R . .
C4 C 0.1913(5) 1.5654(6) 0.1374(3) 0.081(2) Uani 1 1 d . . .
H4 H 0.2264 1.5194 0.1072 0.097 Uiso 1 1 calc R . .
C5 C 0.3683(4) 1.3760(4) 0.1955(2) 0.0543(14) Uani 1 1 d . . .
H5 H 0.3715 1.3658 0.1544 0.065 Uiso 1 1 calc R . .
C6 C 0.4353(3) 1.3054(3) 0.2309(2) 0.0428(11) Uani 1 1 d . . .
H6 H 0.4831 1.2467 0.2136 0.051 Uiso 1 1 calc R . .
C7 C 0.4319(3) 1.3215(3) 0.2924(2) 0.0314(9) Uani 1 1 d . . .
C8 C 0.3585(3) 1.4074(3) 0.3193(2) 0.0361(9) Uani 1 1 d . . .
H8 H 0.3549 1.4170 0.3604 0.043 Uiso 1 1 calc R . .
C9 C 0.2014(3) 1.5765(3) 0.3015(3) 0.0486(13) Uani 1 1 d . . .
C10 C 0.1637(4) 1.6148(3) 0.2413(3) 0.0528(14) Uani 1 1 d . . .
C11 C 0.2166(4) 1.5476(4) 0.1955(3) 0.0568(14) Uani 1 1 d . . .
C12 C 0.2961(3) 1.4624(3) 0.2223(2) 0.0436(11) Uani 1 1 d . . .
C13 C 0.2909(3) 1.4783(3) 0.2842(2) 0.0387(10) Uani 1 1 d . . .
C14 C -0.0262(5) 1.8187(8) 0.1542(6) 0.120(5) Uani 1 1 d . . .
C15 C 0.5075(3) 1.2466(3) 0.33003(19) 0.0295(8) Uani 1 1 d . . .
C16 C 0.2391(4) 1.6587(4) 0.3296(3) 0.0656(17) Uani 1 1 d . . .
H16A H 0.2910 1.6715 0.3015 0.079 Uiso 1 1 calc R . .
H16B H 0.1810 1.7218 0.3335 0.079 Uiso 1 1 calc R . .
C17 C 0.2830(6) 1.6357(5) 0.3884(4) 0.082(2) Uani 1 1 d . . .
H17A H 0.3438 1.5749 0.3851 0.098 Uiso 1 1 calc R . .
H17B H 0.2327 1.6221 0.4173 0.098 Uiso 1 1 calc R . .
C18 C 0.3133(7) 1.7273(6) 0.4103(5) 0.121(4) Uani 1 1 d . . .
H18A H 0.3416 1.7110 0.4485 0.181 Uiso 1 1 calc R . .
H18B H 0.2530 1.7872 0.4140 0.181 Uiso 1 1 calc R . .
H18C H 0.3640 1.7399 0.3819 0.181 Uiso 1 1 calc R . .
C19 C 0.1168(4) 1.5516(4) 0.3420(3) 0.0561(14) Uani 1 1 d . . .
H19A H 0.1443 1.5265 0.3800 0.067 Uiso 1 1 calc R . .
H19B H 0.0595 1.6144 0.3498 0.067 Uiso 1 1 calc R . .
C20 C 0.0756(4) 1.4736(4) 0.3169(3) 0.0649(16) Uani 1 1 d . . .
H20A H 0.0532 1.4955 0.2774 0.078 Uiso 1 1 calc R . .
H20B H 0.1313 1.4087 0.3125 0.078 Uiso 1 1 calc R . .
C21 C -0.0131(6) 1.4575(7) 0.3550(4) 0.100(3) Uani 1 1 d . . .
H21A H -0.0354 1.4074 0.3366 0.150 Uiso 1 1 calc R . .
H21B H -0.0694 1.5209 0.3589 0.150 Uiso 1 1 calc R . .
H21C H 0.0088 1.4339 0.3939 0.150 Uiso 1 1 calc R . .
C22 C -0.3031(4) 2.3665(3) 0.2252(2) 0.0396(10) Uani 1 1 d . . .
H22 H -0.3646 2.3526 0.2335 0.047 Uiso 1 1 calc R . .
C23 C -0.2170(3) 2.2939(3) 0.1965(2) 0.0363(9) Uani 1 1 d . . .
C24 C -0.1257(4) 2.3164(3) 0.1841(2) 0.0426(11) Uani 1 1 d . . .
H24 H -0.0682 2.2673 0.1657 0.051 Uiso 1 1 calc R . .
C25 C -0.1188(4) 2.4102(3) 0.1986(2) 0.0441(11) Uani 1 1 d . . .
H25 H -0.0578 2.4249 0.1898 0.053 Uiso 1 1 calc R . .
C26 C -0.1576(3) 2.6471(3) 0.2431(2) 0.0429(11) Uani 1 1 d . . .
H26 H -0.0918 2.6226 0.2236 0.051 Uiso 1 1 calc R . .
C27 C -0.1931(3) 2.7432(3) 0.2686(2) 0.0385(10) Uani 1 1 d . . .
H27 H -0.1500 2.7829 0.2669 0.046 Uiso 1 1 calc R . .
C28 C -0.2923(3) 2.7820(3) 0.29685(19) 0.0318(9) Uani 1 1 d . . .
C29 C -0.3588(3) 2.7238(3) 0.2982(2) 0.0345(9) Uani 1 1 d . . .
H29 H -0.4262 2.7502 0.3153 0.041 Uiso 1 1 calc R . .
C30 C -0.3806(3) 2.5497(3) 0.2716(2) 0.0433(11) Uani 1 1 d . . .
C31 C -0.2958(3) 2.4594(3) 0.2410(2) 0.0408(11) Uani 1 1 d . . .
C32 C -0.2054(3) 2.4822(3) 0.2268(2) 0.0391(10) Uani 1 1 d . . .
C33 C -0.2224(3) 2.5873(3) 0.2472(2) 0.0368(10) Uani 1 1 d . . .
C34 C -0.3230(3) 2.6263(3) 0.2736(2) 0.0365(10) Uani 1 1 d . . .
C35 C -0.2263(4) 2.1943(3) 0.1777(2) 0.0366(10) Uani 1 1 d . . .
C36 C -0.3313(3) 2.8856(3) 0.32515(18) 0.0300(9) Uani 1 1 d . . .
C37 C -0.4748(4) 2.5890(4) 0.2344(3) 0.0561(15) Uani 1 1 d . . .
H37A H -0.5106 2.5390 0.2368 0.067 Uiso 1 1 calc R . .
H37B H -0.5217 2.6515 0.2526 0.067 Uiso 1 1 calc R . .
C38 C -0.4534(5) 2.6104(5) 0.1687(3) 0.0670(16) Uani 1 1 d . . .
H38A H -0.4130 2.6563 0.1656 0.080 Uiso 1 1 calc R . .
H38B H -0.4120 2.5468 0.1491 0.080 Uiso 1 1 calc R . .
C39 C -0.5495(6) 2.6569(6) 0.1362(4) 0.094(2) Uani 1 1 d . . .
H39A H -0.5305 2.6685 0.0951 0.141 Uiso 1 1 calc R . .
H39B H -0.5901 2.7208 0.1546 0.141 Uiso 1 1 calc R . .
H39C H -0.5891 2.6112 0.1381 0.141 Uiso 1 1 calc R . .
C40 C -0.4157(4) 2.5226(4) 0.3348(3) 0.0539(14) Uani 1 1 d . . .
H40A H -0.4701 2.5821 0.3514 0.065 Uiso 1 1 calc R . .
H40B H -0.4456 2.4688 0.3314 0.065 Uiso 1 1 calc R . .
C41 C -0.3327(6) 2.4879(5) 0.3788(3) 0.0722(18) Uani 1 1 d . . .
H41A H -0.2785 2.4274 0.3633 0.087 Uiso 1 1 calc R . .
H41B H -0.3022 2.5412 0.3829 0.087 Uiso 1 1 calc R . .
C42 C -0.3756(8) 2.4642(6) 0.4399(4) 0.106(3) Uani 1 1 d . . .
H42A H -0.3210 2.4428 0.4665 0.160 Uiso 1 1 calc R . .
H42B H -0.4045 2.4104 0.4363 0.160 Uiso 1 1 calc R . .
H42C H -0.4285 2.5243 0.4557 0.160 Uiso 1 1 calc R . .
C43 C 0.7188(3) 0.9122(3) 0.61966(18) 0.0310(9) Uani 1 1 d . . .
C44 C 0.7472(4) 0.8383(4) 0.6636(2) 0.0430(11) Uani 1 1 d . . .
H44 H 0.7108 0.7926 0.6706 0.052 Uiso 1 1 calc R . .
C45 C 0.8301(4) 0.8317(4) 0.6975(2) 0.0436(11) Uani 1 1 d . . .
H45 H 0.8481 0.7816 0.7268 0.052 Uiso 1 1 calc R . .
C46 C 0.8853(3) 0.8978(4) 0.6882(2) 0.0414(11) Uani 1 1 d . . .
C47 C 0.8555(4) 0.9727(5) 0.6449(3) 0.0601(16) Uani 1 1 d . . .
H47 H 0.8913 1.0189 0.6384 0.072 Uiso 1 1 calc R . .
C48 C 0.7730(4) 0.9801(4) 0.6107(2) 0.0521(13) Uani 1 1 d . . .
H48 H 0.7544 1.0310 0.5818 0.062 Uiso 1 1 calc R . .
C49 C 0.9730(3) 0.8930(5) 0.7255(2) 0.0514(13) Uani 1 1 d . . .
H49A H 0.9590 0.9584 0.7450 0.062 Uiso 1 1 calc R . .
H49B H 0.9784 0.8414 0.7564 0.062 Uiso 1 1 calc R . .
C50 C 0.6270(3) 0.9167(3) 0.5847(2) 0.0341(9) Uani 1 1 d . . .
H50A H 0.6386 0.8501 0.5674 0.041 Uiso 1 1 calc R . .
H50B H 0.5653 0.9323 0.6121 0.041 Uiso 1 1 calc R . .
C51 C 0.7942(4) 1.2068(4) 0.3724(3) 0.0632(17) Uani 1 1 d . . .
H51 H 0.7483 1.2523 0.3997 0.076 Uiso 1 1 calc R . .
C52 C 0.8860(4) 1.2121(4) 0.3509(3) 0.0702(19) Uani 1 1 d . . .
H52 H 0.9157 1.2605 0.3606 0.084 Uiso 1 1 calc R . .
C53 C 0.8607(3) 1.0813(3) 0.31196(19) 0.0343(9) Uani 1 1 d . . .
H53 H 0.8709 1.0229 0.2894 0.041 Uiso 1 1 calc R . .
C54 C 0.5680(3) 1.1389(3) 0.48912(19) 0.0334(9) Uani 1 1 d . . .
H54 H 0.5415 1.2082 0.4803 0.040 Uiso 1 1 calc R . .
C55 C 0.5600(3) 1.0971(3) 0.5436(2) 0.0375(10) Uani 1 1 d . . .
H55 H 0.5275 1.1315 0.5785 0.045 Uiso 1 1 calc R . .
C56 C 0.6456(3) 0.9762(3) 0.47975(18) 0.0319(9) Uani 1 1 d . . .
H56 H 0.6826 0.9121 0.4638 0.038 Uiso 1 1 calc R . .
C57 C -0.8114(4) 2.0221(5) 0.1386(2) 0.0493(13) Uani 1 1 d . . .
C58 C -0.7784(4) 1.9435(5) 0.1781(2) 0.0519(13) Uani 1 1 d . . .
H58 H -0.8137 1.8967 0.1845 0.062 Uiso 1 1 calc R . .
C59 C -0.6913(4) 1.9337(4) 0.2088(2) 0.0480(12) Uani 1 1 d . . .
H59 H -0.6694 1.8801 0.2357 0.058 Uiso 1 1 calc R . .
C60 C -0.6372(3) 2.0010(4) 0.2003(2) 0.0403(10) Uani 1 1 d . . .
C61 C -0.6712(4) 2.0804(5) 0.1611(3) 0.0585(14) Uani 1 1 d . . .
H61 H -0.6358 2.1271 0.1552 0.070 Uiso 1 1 calc R . .
C62 C -0.7584(4) 2.0923(5) 0.1298(3) 0.0606(15) Uani 1 1 d . . .
H62 H -0.7808 2.1466 0.1033 0.073 Uiso 1 1 calc R . .
C63 C -0.9073(4) 2.0357(6) 0.1054(2) 0.0661(18) Uani 1 1 d . . .
H63A H -0.9527 2.0055 0.1286 0.079 Uiso 1 1 calc R . .
H63B H -0.9444 2.1080 0.1008 0.079 Uiso 1 1 calc R . .
C64 C -0.5446(4) 1.9898(4) 0.2354(2) 0.0469(12) Uani 1 1 d . . .
H64A H -0.5537 2.0541 0.2551 0.056 Uiso 1 1 calc R . .
H64B H -0.5403 1.9382 0.2662 0.056 Uiso 1 1 calc R . .
C65 C -0.4104(4) 1.8778(4) 0.1593(3) 0.0530(13) Uani 1 1 d . . .
H65 H -0.4441 1.8318 0.1513 0.064 Uiso 1 1 calc R . .
C66 C -0.3146(4) 1.8756(4) 0.1360(2) 0.0479(12) Uani 1 1 d . . .
H66 H -0.2709 1.8271 0.1094 0.057 Uiso 1 1 calc R . .
C67 C -0.3755(3) 2.0064(3) 0.19538(19) 0.0329(9) Uani 1 1 d . . .
H67 H -0.3819 2.0646 0.2173 0.039 Uiso 1 1 calc R . .
C68 C -0.8331(5) 1.8760(4) -0.0259(2) 0.0567(14) Uani 1 1 d . . .
H68 H -0.8126 1.8146 -0.0468 0.068 Uiso 1 1 calc R . .
C69 C -0.8517(5) 1.8853(5) 0.0338(3) 0.0665(16) Uani 1 1 d . . .
H69 H -0.8465 1.8327 0.0613 0.080 Uiso 1 1 calc R . .
C70 C -0.8775(4) 2.0344(4) -0.0059(2) 0.0458(11) Uani 1 1 d . . .
H70 H -0.8943 2.1049 -0.0097 0.055 Uiso 1 1 calc R . .
N1 N 0.7780(3) 1.1243(3) 0.34820(17) 0.0334(8) Uani 1 1 d . . .
N2 N 0.9277(3) 1.1322(3) 0.31188(18) 0.0422(9) Uani 1 1 d . . .
N3 N 0.6097(3) 0.9931(3) 0.53718(15) 0.0313(7) Uani 1 1 d . . .
N4 N 0.6216(3) 1.0627(2) 0.44844(15) 0.0301(7) Uani 1 1 d . . .
N5 N -0.2939(3) 1.9580(3) 0.15886(16) 0.0335(8) Uani 1 1 d . . .
N6 N -0.4471(3) 1.9604(3) 0.19650(17) 0.0376(8) Uani 1 1 d . . .
N7 N -0.8797(3) 1.9871(4) 0.04593(17) 0.0487(11) Uani 1 1 d . . .
N8 N -0.8489(3) 1.9708(3) -0.05131(16) 0.0392(8) Uani 1 1 d . . .
O1 O 0.5264(3) 1.2739(2) 0.37837(15) 0.0488(8) Uani 1 1 d . . .
O2 O 0.5501(2) 1.1553(2) 0.30906(13) 0.0330(6) Uani 1 1 d . . .
O1W O -0.0752(10) 2.8293(8) 0.3892(6) 0.117(4) Uani 0.50 1 d P . .
O3 O -0.0731(4) 1.8103(5) 0.1039(3) 0.113(2) Uani 1 1 d . . .
O2W O -0.9586(14) 2.2890(12) 0.0482(6) 0.148(6) Uani 0.50 1 d P . .
O4 O -0.0513(3) 1.8915(4) 0.1813(4) 0.152(4) Uani 1 1 d . . .
O3W O 0.7995(13) 0.7461(10) 0.4656(9) 0.166(7) Uani 0.50 1 d P . .
O5 O -0.3113(3) 2.1906(3) 0.16617(19) 0.0553(9) Uani 1 1 d . . .
O6 O -0.1430(2) 2.1177(2) 0.17240(14) 0.0404(7) Uani 1 1 d . . .
O7 O -0.4225(2) 2.9216(2) 0.34550(13) 0.0364(7) Uani 1 1 d . . .
O8 O -0.2665(2) 2.9347(2) 0.32738(14) 0.0363(7) Uani 1 1 d . . .
Zn1 Zn 0.65605(3) 1.07389(3) 0.36072(2) 0.02660(15) Uani 1 1 d . . .
Zn2 Zn -0.16662(3) 1.99647(3) 0.13939(2) 0.02942(15) Uani 1 1 d . . .

loop_
_atom_site_aniso_label
_atom_site_aniso_U_11
_atom_site_aniso_U_22
_atom_site_aniso_U_33
_atom_site_aniso_U_23
_atom_site_aniso_U_13
_atom_site_aniso_U_12
C1 0.024(2) 0.034(3) 0.136(6) 0.015(3) 0.000(3) -0.007(2)
C2 0.031(3) 0.059(4) 0.139(7) 0.066(4) -0.007(4) 0.000(3)
C3 0.042(3) 0.106(6) 0.118(6) 0.073(5) -0.007(4) 0.008(4)
C4 0.049(3) 0.087(5) 0.081(5) 0.038(4) -0.014(3) 0.010(3)
C5 0.044(3) 0.052(3) 0.049(3) 0.010(2) -0.010(2) 0.010(2)
C6 0.034(2) 0.034(2) 0.048(3) 0.006(2) -0.006(2) 0.0051(19)
C7 0.0232(19) 0.0239(19) 0.045(2) 0.0048(17) -0.0073(17) -0.0046(15)
C8 0.031(2) 0.027(2) 0.051(3) -0.0010(18) -0.0071(19) -0.0092(17)
C9 0.026(2) 0.022(2) 0.092(4) -0.010(2) -0.006(2) -0.0001(17)
C10 0.028(2) 0.029(2) 0.101(4) 0.020(3) -0.014(3) -0.0085(19)
C11 0.032(3) 0.045(3) 0.081(4) 0.023(3) -0.004(3) 0.002(2)
C12 0.032(2) 0.035(2) 0.057(3) 0.012(2) -0.008(2) -0.0017(19)
C13 0.024(2) 0.023(2) 0.068(3) 0.002(2) -0.005(2) -0.0062(16)
C14 0.024(3) 0.109(7) 0.201(10) 0.121(7) 0.001(5) 0.000(4)
C15 0.026(2) 0.0248(19) 0.037(2) 0.0017(16) -0.0033(16) -0.0078(16)
C16 0.043(3) 0.034(3) 0.114(5) -0.015(3) -0.008(3) -0.003(2)
C17 0.078(5) 0.053(4) 0.114(6) -0.017(4) -0.013(4) -0.020(3)
C18 0.102(6) 0.070(5) 0.194(11) -0.060(6) -0.029(6) -0.023(5)
C19 0.033(3) 0.041(3) 0.085(4) -0.008(3) 0.005(3) -0.002(2)
C20 0.043(3) 0.050(3) 0.103(5) 0.004(3) -0.005(3) -0.016(2)
C21 0.069(5) 0.122(7) 0.125(7) 0.028(5) -0.008(4) -0.056(5)
C22 0.038(2) 0.030(2) 0.052(3) -0.0097(19) 0.004(2) -0.0148(19)
C23 0.040(2) 0.023(2) 0.044(2) -0.0031(17) -0.0022(19) -0.00