####################################################################### 
# 
# This file contains crystal structure data downloaded from the 
# Cambridge Structural Database (CSD) hosted by the Cambridge 
# Crystallographic Data Centre (CCDC).
# 
# Full information about CCDC data access policies and citation 
# guidelines are available at http://www.ccdc.cam.ac.uk/access/V1 
# 
# Audit and citation data items may have been added by the CCDC. 
# Please retain this information to preserve the provenance of 
# this file and to allow appropriate attribution of the data. 
# 
#######################################################################

data_compound4
_audit_block_doi                 10.5517/ccsg8t9
_database_code_depnum_ccdc_archive 'CCDC 728711'
loop_
_citation_id
_citation_doi
_citation_year
1 10.1021/cg8006469 2009
_audit_update_record             
;
2009-04-22 deposited with the CCDC.	2024-07-11 downloaded from the CCDC.
;

_audit_creation_method           SHELXL-97
_chemical_name_systematic        
;
?
;
_chemical_name_common            ?
_chemical_melting_point          0
_chemical_formula_moiety         'C70 H68 Cd2 N8 O8'
_chemical_formula_sum            'C70 H68 Cd2 N8 O8'
_chemical_formula_weight         1374.12

loop_
_atom_type_symbol
_atom_type_description
_atom_type_scat_dispersion_real
_atom_type_scat_dispersion_imag
_atom_type_scat_source
C C 0.0033 0.0016 'International Tables Vol C Tables 4.2.6.8 and 6.1.1.4'
H H 0.0000 0.0000 'International Tables Vol C Tables 4.2.6.8 and 6.1.1.4'
N N 0.0061 0.0033 'International Tables Vol C Tables 4.2.6.8 and 6.1.1.4'
O O 0.0106 0.0060 'International Tables Vol C Tables 4.2.6.8 and 6.1.1.4'
Cd Cd -0.8075 1.2024 'International Tables Vol C Tables 4.2.6.8 and 6.1.1.4'

_symmetry_cell_setting           triclinic
_symmetry_space_group_name_H-M   p-1
_symmetry_space_group_name_Hall  p-1

loop_
_symmetry_equiv_pos_as_xyz
'x, y, z'
'-x, -y, -z'

_cell_length_a                   13.8420(19)
_cell_length_b                   13.928(2)
_cell_length_c                   22.838(3)
_cell_angle_alpha                87.372(3)
_cell_angle_beta                 87.465(3)
_cell_angle_gamma                72.708(3)
_cell_volume                     4197.5(10)
_cell_formula_units_Z            2
_cell_measurement_temperature    293(2)
_cell_measurement_reflns_used    15907
_cell_measurement_theta_min      3.4
_cell_measurement_theta_max      27.5

_exptl_crystal_description       Block
_exptl_crystal_colour            Colorless
_exptl_crystal_size_max          0.44
_exptl_crystal_size_mid          0.32
_exptl_crystal_size_min          0.20
_exptl_crystal_density_meas      ?
_exptl_crystal_density_diffrn    1.087
_exptl_crystal_density_method    'not measured'
_exptl_crystal_F_000             1408
_exptl_absorpt_coefficient_mu    0.554
_exptl_absorpt_correction_type   multi-scan
_exptl_absorpt_correction_T_min  0.8082
_exptl_absorpt_correction_T_max  0.8950
_exptl_absorpt_process_details   'SADABS (Sheldrick, 1996)'

_exptl_special_details           
;
?
;

_diffrn_ambient_temperature      293(2)
_diffrn_radiation_wavelength     0.71073
_diffrn_radiation_type           MoK\a
_diffrn_radiation_source         'fine-focus sealed tube'
_diffrn_radiation_monochromator  graphite
_diffrn_measurement_device_type  'Bruker APEX CCD area-detector'
_diffrn_measurement_method       '\w scans'
_diffrn_detector_area_resol_mean ?
_diffrn_standards_number         0
_diffrn_standards_interval_count ?
_diffrn_standards_interval_time  ?
_diffrn_standards_decay_%        ?
_diffrn_reflns_number            23027
_diffrn_reflns_av_R_equivalents  0.1012
_diffrn_reflns_av_sigmaI/netI    0.2830
_diffrn_reflns_limit_h_min       -15
_diffrn_reflns_limit_h_max       17
_diffrn_reflns_limit_k_min       -17
_diffrn_reflns_limit_k_max       13
_diffrn_reflns_limit_l_min       -28
_diffrn_reflns_limit_l_max       28
_diffrn_reflns_theta_min         1.54
_diffrn_reflns_theta_max         26.07
_reflns_number_total             15907
_reflns_number_gt                6151
_reflns_threshold_expression     >2sigma(I)

_computing_data_collection       'SMART (Bruker, 1997)'
_computing_cell_refinement       'SAINT (Bruker, 1999)'
_computing_data_reduction        SAINT
_computing_structure_solution    'SHELXS-97 (Sheldrick, 1997)'
_computing_structure_refinement  'SHELXL-97 (Sheldrick, 1997)'
_computing_molecular_graphics    'SHELXTL-PLUS (Sheldrick, 1990)'
_computing_publication_material  SHELXL-97

_refine_special_details          
;
Refinement of F^2^ against ALL reflections. The weighted R-factor wR and
goodness of fit S are based on F^2^, conventional R-factors R are based
on F, with F set to zero for negative F^2^. The threshold expression of
F^2^ > 2sigma(F^2^) is used only for calculating R-factors(gt) etc. and is
not relevant to the choice of reflections for refinement. R-factors based
on F^2^ are statistically about twice as large as those based on F, and R-
factors based on ALL data will be even larger.
;

_refine_ls_structure_factor_coef Fsqd
_refine_ls_matrix_type           full
_refine_ls_weighting_scheme      calc
_refine_ls_weighting_details     
'calc w=1/[\s^2^(Fo^2^)+(0.1210P)^2^+0.0000P] where P=(Fo^2^+2Fc^2^)/3'
_atom_sites_solution_primary     direct
_atom_sites_solution_secondary   difmap
_atom_sites_solution_hydrogens   geom
_refine_ls_hydrogen_treatment    constr
_refine_ls_extinction_method     none
_refine_ls_extinction_coef       ?
_refine_ls_number_reflns         15907
_refine_ls_number_parameters     793
_refine_ls_number_restraints     0
_refine_ls_R_factor_all          0.2542
_refine_ls_R_factor_gt           0.1071
_refine_ls_wR_factor_ref         0.2990
_refine_ls_wR_factor_gt          0.2196
_refine_ls_goodness_of_fit_ref   0.955
_refine_ls_restrained_S_all      0.955
_refine_ls_shift/su_max          0.000
_refine_ls_shift/su_mean         0.000

loop_
_atom_site_label
_atom_site_type_symbol
_atom_site_fract_x
_atom_site_fract_y
_atom_site_fract_z
_atom_site_U_iso_or_equiv
_atom_site_adp_type
_atom_site_occupancy
_atom_site_symmetry_multiplicity
_atom_site_calc_flag
_atom_site_refinement_flags
_atom_site_disorder_assembly
_atom_site_disorder_group
C1 C 0.7002(10) 1.1591(10) 0.2996(6) 0.040(3) Uani 1 1 d . . .
H1 H 0.7217 1.0946 0.3166 0.048 Uiso 1 1 calc R . .
C2 C 0.7635(10) 1.2208(9) 0.2997(6) 0.039(3) Uani 1 1 d . . .
C3 C 0.7323(11) 1.3140(9) 0.2736(6) 0.051(4) Uani 1 1 d . . .
H3 H 0.7743 1.3552 0.2726 0.061 Uiso 1 1 calc R . .
C4 C 0.6381(10) 1.3485(11) 0.2483(7) 0.060(4) Uani 1 1 d . . .
H4 H 0.6186 1.4123 0.2304 0.072 Uiso 1 1 calc R . .
C5 C 0.4093(11) 1.3885(11) 0.2003(7) 0.057(4) Uani 1 1 d . . .
H5 H 0.4310 1.4445 0.1906 0.069 Uiso 1 1 calc R . .
C6 C 0.3134(10) 1.3877(11) 0.1849(7) 0.052(4) Uani 1 1 d . . .
H6 H 0.2702 1.4430 0.1654 0.062 Uiso 1 1 calc R . .
C7 C 0.2830(9) 1.3003(10) 0.1995(6) 0.043(4) Uani 1 1 d . . .
C8 C 0.3483(11) 1.2188(10) 0.2284(7) 0.052(4) Uani 1 1 d . . .
H8 H 0.3284 1.1615 0.2373 0.062 Uiso 1 1 calc R . .
C9 C 0.5253(10) 1.1377(9) 0.2716(6) 0.042(3) Uani 1 1 d . . .
C10 C 0.6083(10) 1.1915(9) 0.2754(6) 0.043(4) Uani 1 1 d . . .
C11 C 0.5708(11) 1.2886(9) 0.2491(7) 0.050(4) Uani 1 1 d . . .
C12 C 0.4708(10) 1.3085(10) 0.2291(7) 0.048(4) Uani 1 1 d . . .
C13 C 0.4425(10) 1.2214(10) 0.2441(6) 0.039(3) Uani 1 1 d . . .
C14 C 0.8643(10) 1.1846(10) 0.3269(6) 0.038(3) Uani 1 1 d . . .
C15 C 0.1784(12) 1.3033(12) 0.1820(6) 0.044(4) Uani 1 1 d . . .
C16 C 0.5617(11) 1.0444(10) 0.2331(8) 0.059(4) Uani 1 1 d . . .
H16A H 0.6230 0.9996 0.2493 0.071 Uiso 1 1 calc R . .
H16B H 0.5107 1.0092 0.2359 0.071 Uiso 1 1 calc R . .
C17 C 0.5823(11) 1.0641(11) 0.1701(8) 0.059(4) Uani 1 1 d . . .
H17A H 0.6292 1.1040 0.1666 0.071 Uiso 1 1 calc R . .
H17B H 0.5198 1.1029 0.1522 0.071 Uiso 1 1 calc R . .
C18 C 0.6266(14) 0.9678(15) 0.1375(11) 0.118(8) Uani 1 1 d . . .
H18A H 0.6394 0.9838 0.0971 0.177 Uiso 1 1 calc R . .
H18B H 0.5796 0.9290 0.1399 0.177 Uiso 1 1 calc R . .
H18C H 0.6889 0.9296 0.1548 0.177 Uiso 1 1 calc R . .
C19 C 0.4928(11) 1.1071(12) 0.3316(7) 0.059(4) Uani 1 1 d . . .
H19A H 0.4335 1.0848 0.3272 0.071 Uiso 1 1 calc R . .
H19B H 0.5462 1.0493 0.3456 0.071 Uiso 1 1 calc R . .
C20 C 0.4684(12) 1.1828(13) 0.3779(7) 0.071(5) Uani 1 1 d . . .
H20A H 0.4147 1.2410 0.3647 0.085 Uiso 1 1 calc R . .
H20B H 0.5276 1.2045 0.3837 0.085 Uiso 1 1 calc R . .
C21 C 0.4346(15) 1.1421(19) 0.4378(9) 0.123(9) Uani 1 1 d . . .
H21A H 0.4207 1.1938 0.4661 0.184 Uiso 1 1 calc R . .
H21B H 0.4876 1.0848 0.4514 0.184 Uiso 1 1 calc R . .
H21C H 0.3745 1.1226 0.4327 0.184 Uiso 1 1 calc R . .
C22 C -0.3078(9) 1.5974(9) 0.2335(6) 0.038(3) Uani 1 1 d . . .
H22 H -0.2677 1.5674 0.2648 0.046 Uiso 1 1 calc R . .
C23 C -0.2804(10) 1.5645(10) 0.1773(6) 0.043(3) Uani 1 1 d . . .
C24 C -0.3412(12) 1.6130(13) 0.1285(7) 0.081(6) Uani 1 1 d . . .
H24 H -0.3242 1.5903 0.0906 0.097 Uiso 1 1 calc R . .
C25 C -0.4242(14) 1.6930(12) 0.1393(7) 0.082(6) Uani 1 1 d . . .
H25 H -0.4615 1.7287 0.1082 0.098 Uiso 1 1 calc R . .
C26 C -0.6210(13) 1.8679(10) 0.1892(7) 0.069(5) Uani 1 1 d . . .
H26 H -0.6242 1.8666 0.1487 0.083 Uiso 1 1 calc R . .
C27 C -0.6955(11) 1.9364(10) 0.2219(6) 0.052(4) Uani 1 1 d . . .
H27 H -0.7495 1.9813 0.2029 0.062 Uiso 1 1 calc R . .
C28 C -0.6907(9) 1.9388(9) 0.2820(6) 0.035(3) Uani 1 1 d . . .
C29 C -0.6093(10) 1.8725(9) 0.3105(6) 0.038(3) Uani 1 1 d . . .
H29 H -0.6042 1.8752 0.3508 0.045 Uiso 1 1 calc R . .
C30 C -0.4434(9) 1.7212(9) 0.2999(6) 0.038(3) Uani 1 1 d . . .
C31 C -0.3951(10) 1.6749(10) 0.2425(6) 0.042(3) Uani 1 1 d . . .
C32 C -0.4534(11) 1.7215(11) 0.1962(7) 0.050(4) Uani 1 1 d . . .
C33 C -0.5417(10) 1.8018(10) 0.2192(6) 0.049(4) Uani 1 1 d . . .
C34 C -0.5354(9) 1.8018(9) 0.2785(6) 0.037(3) Uani 1 1 d . . .
C35 C -0.1886(12) 1.4795(11) 0.1636(7) 0.052(4) Uani 1 1 d . . .
C36 C -0.7715(10) 2.0122(9) 0.3169(6) 0.033(3) Uani 1 1 d . . .
C37 C -0.3644(12) 1.7667(12) 0.3290(7) 0.074(5) Uani 1 1 d . . .
H37A H -0.3036 1.7116 0.3361 0.088 Uiso 1 1 calc R . .
H37B H -0.3463 1.8121 0.3001 0.088 Uiso 1 1 calc R . .
C38 C -0.3940(13) 1.8222(13) 0.3850(8) 0.079(5) Uani 1 1 d . . .
H38A H -0.4058 1.7773 0.4164 0.095 Uiso 1 1 calc R . .
H38B H -0.4556 1.8774 0.3801 0.095 Uiso 1 1 calc R . .
C39 C -0.3043(14) 1.8636(16) 0.4001(10) 0.121(9) Uani 1 1 d . . .
H39A H -0.3207 1.8994 0.4359 0.181 Uiso 1 1 calc R . .
H39B H -0.2935 1.9081 0.3689 0.181 Uiso 1 1 calc R . .
H39C H -0.2438 1.8084 0.4049 0.181 Uiso 1 1 calc R . .
C40 C -0.4702(11) 1.6453(11) 0.3399(6) 0.052(4) Uani 1 1 d . . .
H40A H -0.5024 1.6776 0.3754 0.063 Uiso 1 1 calc R . .
H40B H -0.4087 1.5937 0.3507 0.063 Uiso 1 1 calc R . .
C41 C -0.5405(14) 1.5967(13) 0.3125(10) 0.104(8) Uani 1 1 d . . .
H41A H -0.5093 1.5666 0.2762 0.125 Uiso 1 1 calc R . .
H41B H -0.6028 1.6482 0.3028 0.125 Uiso 1 1 calc R . .
C42 C -0.5666(19) 1.5128(19) 0.3542(14) 0.175(13) Uani 1 1 d . . .
H42A H -0.6106 1.4837 0.3346 0.263 Uiso 1 1 calc R . .
H42B H -0.5998 1.5426 0.3896 0.263 Uiso 1 1 calc R . .
H42C H -0.5053 1.4613 0.3637 0.263 Uiso 1 1 calc R . .
C43 C 0.0222(11) 1.1367(9) -0.2022(6) 0.041(3) Uani 1 1 d . . .
C44 C -0.0654(13) 1.1693(11) -0.1669(8) 0.073(5) Uani 1 1 d . . .
H44 H -0.1134 1.1346 -0.1643 0.088 Uiso 1 1 calc R . .
C45 C -0.0782(14) 1.2573(13) -0.1352(7) 0.072(5) Uani 1 1 d . . .
H45 H -0.1357 1.2807 -0.1112 0.086 Uiso 1 1 calc R . .
C46 C -0.0059(15) 1.3101(10) -0.1390(6) 0.059(5) Uani 1 1 d . . .
C47 C 0.0728(13) 1.2784(11) -0.1752(7) 0.060(4) Uani 1 1 d . . .
H47 H 0.1199 1.3142 -0.1794 0.072 Uiso 1 1 calc R . .
C48 C 0.0872(11) 1.1917(10) -0.2075(6) 0.046(4) Uani 1 1 d . . .
H48 H 0.1430 1.1718 -0.2331 0.055 Uiso 1 1 calc R . .
C49 C 0.0393(11) 1.0448(10) -0.2371(6) 0.050(4) Uani 1 1 d . . .
H49A H -0.0213 1.0502 -0.2584 0.061 Uiso 1 1 calc R . .
H49B H 0.0939 1.0418 -0.2657 0.061 Uiso 1 1 calc R . .
C50 C -0.023(2) 1.4037(11) -0.1042(7) 0.114(9) Uani 1 1 d . . .
H50A H 0.0066 1.4504 -0.1257 0.137 Uiso 1 1 calc R . .
H50B H -0.0949 1.4361 -0.0989 0.137 Uiso 1 1 calc R . .
C51 C 0.1466(14) 0.9168(12) -0.1672(8) 0.073(5) Uani 1 1 d . . .
H51 H 0.1963 0.9482 -0.1629 0.088 Uiso 1 1 calc R . .
C52 C 0.1439(12) 0.8321(12) -0.1416(8) 0.073(6) Uani 1 1 d . . .
H52 H 0.1899 0.7945 -0.1146 0.087 Uiso 1 1 calc R . .
C53 C 0.0139(11) 0.8832(9) -0.1970(6) 0.040(3) Uani 1 1 d . . .
H53 H -0.0456 0.8882 -0.2160 0.048 Uiso 1 1 calc R . .
C54 C 0.1173(17) 1.369(2) -0.0309(9) 0.129(11) Uani 1 1 d . . .
H54 H 0.1700 1.3744 -0.0562 0.155 Uiso 1 1 calc R . .
C55 C 0.1240(16) 1.3487(18) 0.0266(8) 0.100(7) Uani 1 1 d . . .
H55 H 0.1814 1.3404 0.0483 0.119 Uiso 1 1 calc R . .
C56 C -0.0303(15) 1.3620(13) 0.0042(8) 0.076(5) Uani 1 1 d . . .
H56 H -0.0981 1.3640 0.0067 0.092 Uiso 1 1 calc R . .
C57 C 1.0735(11) 1.6276(9) 0.3044(6) 0.046(4) Uani 1 1 d . . .
C58 C 0.9952(11) 1.6625(10) 0.3452(6) 0.051(4) Uani 1 1 d . . .
H58 H 0.9442 1.6317 0.3503 0.061 Uiso 1 1 calc R . .
C59 C 0.9937(11) 1.7440(9) 0.3784(6) 0.051(4) Uani 1 1 d . . .
H59 H 0.9441 1.7642 0.4078 0.061 Uiso 1 1 calc R . .
C60 C 1.0651(10) 1.7962(9) 0.3686(6) 0.036(3) Uani 1 1 d . . .
C61 C 1.1436(11) 1.7574(10) 0.3272(6) 0.048(4) Uani 1 1 d . . .
H61 H 1.1946 1.7881 0.3214 0.058 Uiso 1 1 calc R . .
C62 C 1.1471(11) 1.6760(9) 0.2954(6) 0.047(4) Uani 1 1 d . . .
H62 H 1.1990 1.6530 0.2676 0.057 Uiso 1 1 calc R . .
C63 C 1.0791(12) 1.5358(9) 0.2703(7) 0.058(4) Uani 1 1 d . . .
H63A H 1.0139 1.5435 0.2536 0.069 Uiso 1 1 calc R . .
H63B H 1.1287 1.5300 0.2383 0.069 Uiso 1 1 calc R . .
C64 C 0.9372(11) 1.1131(9) 0.5983(6) 0.042(3) Uani 1 1 d . . .
H64A H 0.9588 1.0541 0.6243 0.050 Uiso 1 1 calc R . .
H64B H 0.8690 1.1190 0.5867 0.050 Uiso 1 1 calc R . .
C65 C 1.1914(13) 1.3177(11) 0.3643(7) 0.060(4) Uani 1 1 d . . .
H65 H 1.2411 1.2770 0.3882 0.072 Uiso 1 1 calc R . .
C66 C 1.1899(11) 1.4122(12) 0.3410(7) 0.061(5) Uani 1 1 d . . .
H66 H 1.2365 1.4466 0.3472 0.074 Uiso 1 1 calc R . .
C67 C 1.0616(9) 1.3730(9) 0.3113(6) 0.036(3) Uani 1 1 d . . .
H67 H 1.0031 1.3768 0.2916 0.043 Uiso 1 1 calc R . .
C68 C 1.1391(9) 1.0634(8) 0.4871(5) 0.034(3) Uani 1 1 d . . .
H68 H 1.2054 1.0385 0.4726 0.041 Uiso 1 1 calc R . .
C69 C 1.1061(10) 1.0504(9) 0.5441(6) 0.036(3) Uani 1 1 d . . .
H69 H 1.1449 1.0166 0.5751 0.044 Uiso 1 1 calc R . .
C70 C 0.9784(10) 1.1378(8) 0.4926(6) 0.034(3) Uani 1 1 d . . .
H70 H 0.9130 1.1746 0.4827 0.041 Uiso 1 1 calc R . .
N1 N 0.0608(8) 0.8068(8) -0.1613(5) 0.044(3) Uani 1 1 d . . .
N2 N 0.0641(10) 0.9518(8) -0.2016(5) 0.049(3) Uani 1 1 d . . .
N3 N 0.0232(15) 1.3791(8) -0.0464(6) 0.075(5) Uani 1 1 d . . .
N4 N 0.0334(9) 1.3424(8) 0.0484(5) 0.045(3) Uani 1 1 d . . .
N5 N 1.1070(8) 1.4445(8) 0.3072(5) 0.040(3) Uani 1 1 d . . .
N6 N 1.1083(8) 1.2940(8) 0.3467(5) 0.037(3) Uani 1 1 d . . .
N7 N 1.0594(8) 1.1182(7) 0.4556(4) 0.031(2) Uani 1 1 d . . .
N8 N 1.0049(9) 1.0973(8) 0.5452(5) 0.040(3) Uani 1 1 d . . .
O1 O 0.1168(7) 1.3860(7) 0.1676(4) 0.048(2) Uani 1 1 d . . .
O2 O 0.1559(8) 1.2225(8) 0.1823(5) 0.071(3) Uani 1 1 d . . .
O3 O 0.9173(7) 1.2464(6) 0.3256(4) 0.050(3) Uani 1 1 d . . .
O4 O 0.8996(7) 1.0983(7) 0.3472(4) 0.046(2) Uani 1 1 d . . .
O5 O -0.1759(8) 1.4361(7) 0.1166(5) 0.071(3) Uani 1 1 d . . .
O6 O -0.1208(7) 1.4547(7) 0.2017(5) 0.055(3) Uani 1 1 d . . .
O7 O -0.8583(6) 2.0434(6) 0.2949(4) 0.039(2) Uani 1 1 d . . .
O8 O -0.7527(7) 2.0397(7) 0.3637(4) 0.054(3) Uani 1 1 d . . .
Cd1 Cd -0.01215(7) 1.32962(7) 0.14418(4) 0.0361(3) Uani 1 1 d . . .
Cd2 Cd 1.06280(7) 1.15567(6) 0.36050(4) 0.0327(3) Uani 1 1 d . . .

loop_
_atom_site_aniso_label
_atom_site_aniso_U_11
_atom_site_aniso_U_22
_atom_site_aniso_U_33
_atom_site_aniso_U_23
_atom_site_aniso_U_13
_atom_site_aniso_U_12
C1 0.039(9) 0.034(7) 0.046(8) 0.003(6) -0.002(7) -0.009(6)
C2 0.041(9) 0.034(8) 0.043(8) 0.008(6) 0.002(7) -0.011(7)
C3 0.044(9) 0.028(7) 0.079(11) -0.003(7) -0.028(8) -0.004(6)
C4 0.029(9) 0.046(9) 0.094(13) 0.027(8) -0.001(8) 0.000(7)
C5 0.046(10) 0.043(9) 0.086(12) 0.020(8) -0.012(9) -0.019(7)
C6 0.027(8) 0.049(9) 0.070(10) 0.014(8) -0.007(7) 0.003(7)
C7 0.016(7) 0.042(8) 0.071(10) 0.010(7) -0.010(7) -0.007(6)
C8 0.049(10) 0.029(8) 0.084(11) 0.011(7) -0.017(8) -0.020(7)
C9 0.035(8) 0.033(7) 0.055(9) 0.015(7) -0.007(7) -0.008(6)
C10 0.027(8) 0.030(7) 0.077(11) 0.011(7) -0.012(7) -0.015(6)
C11 0.047(10) 0.026(7) 0.080(11) 0.002(7) -0.012(8) -0.014(7)
C12 0.018(7) 0.037(8) 0.091(12) 0.002(8) -0.022(8) -0.011(6)
C13 0.027(8) 0.051(9) 0.046(8) 0.014(7) -0.021(7) -0.019(7)
C14 0.029(8) 0.042(8) 0.043(8) -0.012(7) 0.009(6) -0.008(7)
C15 0.058(11) 0.051(10) 0.029(8) -0.005(7) 0.001(7) -0.024(9)
C16 0.039(9) 0.040(8) 0.101(14) 0.011(8) -0.030(9) -0.014(7)
C17 0.036(9) 0.047(9) 0.092(13) -0.008(9) -0.011(9) -0.008(7)
C18 0.068(15) 0.099(16) 0.19(3) -0.060(16) 0.010(15) -0.030(12)
C19 0.033(9) 0.068(11) 0.084(12) 0.020(9) -0.015(8) -0.026(8)
C20 0.045(11) 0.079(12) 0.073(12) 0.021(10) 0.005(9) 0.000(9)
C21 0.083(16) 0.19(2) 0.101(17) 0.039(17) 0.014(13) -0.055(16)
C22 0.021(7) 0.045(8) 0.047(8) 0.000(6) 0.014(6) -0.011(6)
C23 0.036(9) 0.047(8) 0.042(8) 0.005(7) 0.006(7) -0.008(7)
C24 0.061(11) 0.096(13) 0.050(10) -0.025(9) 0.016(8) 0.035(10)
C25 0.100(15) 0.058(11) 0.056(11) -0.004(9) 0.003(10) 0.023(10)
C26 0.092(13) 0.044(9) 0.043(9) -0.011(7) -0.006(9) 0.027(9)
C27 0.048(10) 0.050(9) 0.043(9) 0.002(7) 0.002(7) 0.007(7)
C28 0.028(8) 0.038(7) 0.039(8) 0.002(6) 0.000(6) -0.009(6)
C29 0.051(9) 0.029(7) 0.036(7) -0.007(6) 0.009(7) -0.017(6)
C30 0.016(7) 0.031(7) 0.059(9) -0.003(6) 0.005(6) 0.005(6)
C31 0.034(8) 0.046(8) 0.039(8) -0.013(7) 0.014(7) -0.002(7)
C32 0.036(9) 0.054(9) 0.050(9) 0.002(7) 0.007(7) -0.002(7)
C33 0.039(9) 0.041(8) 0.044(9) -0.003(7) 0.004(7) 0.021(7)
C34 0.024(7) 0.032(7) 0.055(9) 0.003(6) -0.003(6) -0.006(6)
C35 0.042(10) 0.050(9) 0.054(10) 0.009(8) 0.005(8) 0.003(8)
C36 0.02