####################################################################### 
# 
# This file contains crystal structure data downloaded from the 
# Cambridge Structural Database (CSD) hosted by the Cambridge 
# Crystallographic Data Centre (CCDC).
# 
# Full information about CCDC data access policies and citation 
# guidelines are available at http://www.ccdc.cam.ac.uk/access/V1 
# 
# Audit and citation data items may have been added by the CCDC. 
# Please retain this information to preserve the provenance of 
# this file and to allow appropriate attribution of the data. 
# 
#######################################################################

data_xb1716m
_audit_block_doi                 10.5517/ccqyx3n
_database_code_depnum_ccdc_archive 'CCDC 684142'
loop_
_citation_id
_citation_doi
_citation_year
1 10.1016/j.ica.2008.08.028 2009
_audit_update_record             
;
2008-04-07 deposited with the CCDC.	2024-07-11 downloaded from the CCDC.
;

_audit_creation_method           SHELXL-97
_chemical_name_systematic        
;
?
;
_chemical_name_common            ?
_chemical_melting_point          ?
_chemical_formula_moiety         ?
_chemical_formula_sum            'C21 H13 Cl6 Co N5 O5 S'
_chemical_formula_weight         719.05

loop_
_atom_type_symbol
_atom_type_description
_atom_type_scat_dispersion_real
_atom_type_scat_dispersion_imag
_atom_type_scat_source
C C 0.0033 0.0016 'International Tables Vol C Tables 4.2.6.8 and 6.1.1.4'
H H 0.0000 0.0000 'International Tables Vol C Tables 4.2.6.8 and 6.1.1.4'
N N 0.0061 0.0033 'International Tables Vol C Tables 4.2.6.8 and 6.1.1.4'
O O 0.0106 0.0060 'International Tables Vol C Tables 4.2.6.8 and 6.1.1.4'
Co Co 0.3494 0.9721 'International Tables Vol C Tables 4.2.6.8 and 6.1.1.4'
S S 0.1246 0.1234 'International Tables Vol C Tables 4.2.6.8 and 6.1.1.4'
Cl Cl 0.1484 0.1585 'International Tables Vol C Tables 4.2.6.8 and 6.1.1.4'

_symmetry_cell_setting           Orthorhombic
_symmetry_space_group_name_H-M   Pbca

loop_
_symmetry_equiv_pos_as_xyz
'x, y, z'
'-x+1/2, -y, z+1/2'
'-x, y+1/2, -z+1/2'
'x+1/2, -y+1/2, -z'
'-x, -y, -z'
'x-1/2, y, -z-1/2'
'x, -y-1/2, z-1/2'
'-x-1/2, y-1/2, z'

_cell_length_a                   18.0702(13)
_cell_length_b                   10.5176(8)
_cell_length_c                   29.665(2)
_cell_angle_alpha                90.00
_cell_angle_beta                 90.00
_cell_angle_gamma                90.00
_cell_volume                     5637.9(7)
_cell_formula_units_Z            8
_cell_measurement_temperature    296(2)
_cell_measurement_reflns_used    3030
_cell_measurement_theta_min      2.25
_cell_measurement_theta_max      20.24

_exptl_crystal_description       BLOCK
_exptl_crystal_colour            pink
_exptl_crystal_size_max          0.35
_exptl_crystal_size_mid          0.24
_exptl_crystal_size_min          0.13
_exptl_crystal_density_meas      ?
_exptl_crystal_density_diffrn    1.694
_exptl_crystal_density_method    'not measured'
_exptl_crystal_F_000             2872
_exptl_absorpt_coefficient_mu    1.294
_exptl_absorpt_correction_type   multi-scan
_exptl_absorpt_correction_T_min  0.6587
_exptl_absorpt_correction_T_max  0.8519
_exptl_absorpt_process_details   sadabs

_exptl_special_details           
;
?
;

_diffrn_ambient_temperature      296(2)
_diffrn_radiation_wavelength     0.71073
_diffrn_radiation_type           MoK\a
_diffrn_radiation_source         'fine-focus sealed tube'
_diffrn_radiation_monochromator  graphite
_diffrn_measurement_device_type  'CCD area detector'
_diffrn_measurement_method       'phi and omega scans'
_diffrn_detector_area_resol_mean ?
_diffrn_standards_number         0
_diffrn_standards_interval_count ?
_diffrn_standards_interval_time  ?
_diffrn_standards_decay_%        ?
_diffrn_reflns_number            26932
_diffrn_reflns_av_R_equivalents  0.0618
_diffrn_reflns_av_sigmaI/netI    0.0435
_diffrn_reflns_limit_h_min       -21
_diffrn_reflns_limit_h_max       21
_diffrn_reflns_limit_k_min       -12
_diffrn_reflns_limit_k_max       12
_diffrn_reflns_limit_l_min       -35
_diffrn_reflns_limit_l_max       30
_diffrn_reflns_theta_min         1.78
_diffrn_reflns_theta_max         25.05
_reflns_number_total             4984
_reflns_number_gt                3314
_reflns_threshold_expression     >2sigma(I)

_computing_data_collection       'Bruker SMART'
_computing_cell_refinement       'Bruker SMART'
_computing_data_reduction        'Bruker SAINT'
_computing_structure_solution    'SHELXS-97 (Sheldrick, 1990)'
_computing_structure_refinement  'SHELXL-97 (Sheldrick, 1997)'
_computing_molecular_graphics    'Bruker SHELXTL'
_computing_publication_material  'Bruker SHELXTL'

_refine_special_details          
;
Refinement of F^2^ against ALL reflections. The weighted R-factor wR and
goodness of fit S are based on F^2^, conventional R-factors R are based
on F, with F set to zero for negative F^2^. The threshold expression of
F^2^ > 2sigma(F^2^) is used only for calculating R-factors(gt) etc. and is
not relevant to the choice of reflections for refinement. R-factors based
on F^2^ are statistically about twice as large as those based on F, and R-
factors based on ALL data will be even larger.
;

_refine_ls_structure_factor_coef Fsqd
_refine_ls_matrix_type           full
_refine_ls_weighting_scheme      calc
_refine_ls_weighting_details     
'calc w=1/[\s^2^(Fo^2^)+(0.0873P)^2^+15.9487P] where P=(Fo^2^+2Fc^2^)/3'
_atom_sites_solution_primary     direct
_atom_sites_solution_secondary   difmap
_atom_sites_solution_hydrogens   geom
_refine_ls_hydrogen_treatment    constr
_refine_ls_extinction_method     none
_refine_ls_extinction_coef       ?
_refine_ls_number_reflns         4984
_refine_ls_number_parameters     352
_refine_ls_number_restraints     0
_refine_ls_R_factor_all          0.0956
_refine_ls_R_factor_gt           0.0651
_refine_ls_wR_factor_ref         0.1898
_refine_ls_wR_factor_gt          0.1660
_refine_ls_goodness_of_fit_ref   1.006
_refine_ls_restrained_S_all      1.006
_refine_ls_shift/su_max          0.001
_refine_ls_shift/su_mean         0.000

loop_
_atom_site_label
_atom_site_type_symbol
_atom_site_fract_x
_atom_site_fract_y
_atom_site_fract_z
_atom_site_U_iso_or_equiv
_atom_site_adp_type
_atom_site_occupancy
_atom_site_symmetry_multiplicity
_atom_site_calc_flag
_atom_site_refinement_flags
_atom_site_disorder_assembly
_atom_site_disorder_group
Co1 Co 0.80882(4) 0.94672(6) 0.11886(2) 0.0356(2) Uani 1 1 d . . .
S1 S 0.72196(9) 0.99079(14) 0.36653(4) 0.0519(4) Uani 1 1 d . . .
Cl1 Cl 0.5366(2) 0.8836(4) 0.05229(14) 0.1770(16) Uani 1 1 d . . .
Cl2 Cl 0.49703(18) 0.7014(4) -0.01120(10) 0.1494(12) Uani 1 1 d . . .
Cl3 Cl 0.38534(16) 0.8534(3) 0.02917(16) 0.1769(17) Uani 1 1 d . . .
Cl4 Cl 0.11326(15) 0.3116(3) 0.16080(10) 0.1244(9) Uani 1 1 d . . .
Cl5 Cl 0.0711(3) 0.1313(5) 0.22706(17) 0.257(3) Uani 1 1 d . . .
Cl6 Cl -0.0079(3) 0.3554(4) 0.2192(2) 0.241(3) Uani 1 1 d . . .
N1 N 0.8957(2) 0.8192(4) 0.12169(12) 0.0356(9) Uani 1 1 d . . .
N2 N 0.8049(2) 0.9746(4) 0.19093(13) 0.0439(11) Uani 1 1 d . . .
N3 N 0.8049(2) 1.1759(4) 0.34595(13) 0.0470(11) Uani 1 1 d . . .
N4 N 0.7936(3) 1.1866(5) 0.39121(14) 0.0497(12) Uani 1 1 d . . .
N5 N 0.7069(2) 1.0644(4) 0.54724(13) 0.0421(10) Uani 1 1 d . . .
O1 O 0.7870(2) 0.5468(3) 0.12061(12) 0.0484(9) Uani 1 1 d . . .
O2 O 0.75807(19) 0.7523(4) 0.12544(11) 0.0437(9) Uani 1 1 d . . .
O3 O 0.9054(2) 1.0616(3) 0.11229(11) 0.0437(9) Uani 1 1 d . . .
O4 O 1.0287(2) 1.0568(4) 0.10883(17) 0.0715(13) Uani 1 1 d . . .
C1 C 0.8027(3) 0.6622(5) 0.12398(14) 0.0363(11) Uani 1 1 d . . .
C2 C 0.8831(3) 0.6958(5) 0.12657(16) 0.0410(12) Uani 1 1 d . . .
C3 C 0.9410(3) 0.6119(6) 0.1328(2) 0.0623(17) Uani 1 1 d . . .
H3 H 0.9321 0.5252 0.1359 0.075 Uiso 1 1 calc R . .
C4 C 1.0123(3) 0.6587(7) 0.1342(3) 0.081(2) Uani 1 1 d . . .
H4 H 1.0519 0.6043 0.1395 0.098 Uiso 1 1 calc R . .
C5 C 1.0240(3) 0.7864(6) 0.1279(2) 0.0640(18) Uani 1 1 d . . .
H5 H 1.0719 0.8189 0.1281 0.077 Uiso 1 1 calc R . .
C6 C 0.9649(3) 0.8658(5) 0.12134(17) 0.0424(12) Uani 1 1 d . . .
C7 C 0.9678(3) 1.0066(5) 0.11344(17) 0.0430(12) Uani 1 1 d . . .
C8 C 0.8415(3) 1.0693(6) 0.21057(18) 0.0566(15) Uani 1 1 d . . .
H8 H 0.8759 1.1137 0.1933 0.068 Uiso 1 1 calc R . .
C9 C 0.8320(3) 1.1060(6) 0.25454(18) 0.0540(15) Uani 1 1 d . . .
H9 H 0.8594 1.1728 0.2665 0.065 Uiso 1 1 calc R . .
C10 C 0.7812(3) 1.0423(5) 0.28067(16) 0.0415(12) Uani 1 1 d . . .
C11 C 0.7434(4) 0.9455(6) 0.26139(18) 0.0655(18) Uani 1 1 d . . .
H11 H 0.7090 0.8995 0.2781 0.079 Uiso 1 1 calc R . .
C12 C 0.7562(4) 0.9156(6) 0.21671(18) 0.0651(18) Uani 1 1 d . . .
H12 H 0.7288 0.8499 0.2040 0.078 Uiso 1 1 calc R . .
C13 C 0.7721(3) 1.0784(5) 0.32863(15) 0.0402(12) Uani 1 1 d . . .
C14 C 0.7523(3) 1.0957(5) 0.40670(15) 0.0418(12) Uani 1 1 d . . .
C15 C 0.7350(3) 1.0837(5) 0.45521(16) 0.0415(12) Uani 1 1 d . . .
C16 C 0.6780(3) 1.0106(6) 0.47136(18) 0.0562(16) Uani 1 1 d . . .
H16 H 0.6475 0.9662 0.4516 0.067 Uiso 1 1 calc R . .
C17 C 0.6665(4) 1.0038(6) 0.51694(18) 0.0553(15) Uani 1 1 d . . .
H17 H 0.6277 0.9534 0.5272 0.066 Uiso 1 1 calc R . .
C18 C 0.7625(3) 1.1346(7) 0.53153(18) 0.0617(17) Uani 1 1 d . . .
H18 H 0.7919 1.1778 0.5522 0.074 Uiso 1 1 calc R . .
C19 C 0.7791(3) 1.1470(6) 0.48635(18) 0.0559(15) Uani 1 1 d . . .
H19 H 0.8189 1.1965 0.4769 0.067 Uiso 1 1 calc R . .
C20 C 0.4690(4) 0.7796(8) 0.0379(3) 0.089(2) Uani 1 1 d . . .
H20 H 0.4635 0.7170 0.0621 0.107 Uiso 1 1 calc R . .
C21 C 0.0436(5) 0.2463(8) 0.1930(3) 0.101(3) Uani 1 1 d . . .
H21 H 0.0102 0.2053 0.1714 0.121 Uiso 1 1 calc R . .
O5 O 0.8980(10) 0.3035(17) 0.1408(6) 0.345(9) Uani 1 1 d . . .

loop_
_atom_site_aniso_label
_atom_site_aniso_U_11
_atom_site_aniso_U_22
_atom_site_aniso_U_33
_atom_site_aniso_U_23
_atom_site_aniso_U_13
_atom_site_aniso_U_12
Co1 0.0391(4) 0.0402(4) 0.0275(4) -0.0003(3) 0.0014(3) 0.0028(3)
S1 0.0721(10) 0.0520(9) 0.0314(7) -0.0047(6) 0.0091(6) -0.0162(7)
Cl1 0.159(3) 0.179(3) 0.193(3) -0.053(3) -0.021(3) -0.069(3)
Cl2 0.148(2) 0.182(3) 0.118(2) -0.051(2) -0.0145(18) 0.018(2)
Cl3 0.0970(19) 0.123(2) 0.311(5) 0.066(3) 0.034(2) 0.0261(17)
Cl4 0.1133(18) 0.1116(19) 0.148(2) -0.0120(17) 0.0166(16) -0.0418(15)
Cl5 0.298(6) 0.242(5) 0.231(5) 0.147(4) 0.080(4) 0.123(5)
Cl6 0.273(5) 0.130(3) 0.320(6) 0.018(3) 0.169(5) 0.051(3)
N1 0.037(2) 0.036(2) 0.033(2) -0.0009(17) -0.0020(17) -0.0044(18)
N2 0.048(3) 0.058(3) 0.026(2) -0.0026(19) 0.0011(18) -0.002(2)
N3 0.055(3) 0.055(3) 0.031(2) -0.004(2) 0.0043(19) -0.012(2)
N4 0.065(3) 0.058(3) 0.027(2) -0.005(2) 0.003(2) -0.010(2)
N5 0.043(2) 0.055(3) 0.028(2) 0.0021(19) 0.0033(18) 0.005(2)
O1 0.053(2) 0.041(2) 0.051(2) -0.0045(17) 0.0037(17) -0.0129(17)
O2 0.040(2) 0.051(2) 0.040(2) 0.0002(16) -0.0006(15) -0.0027(17)
O3 0.050(2) 0.039(2) 0.043(2) 0.0003(16) 0.0048(16) -0.0013(17)
O4 0.053(3) 0.055(3) 0.107(4) 0.010(3) -0.002(2) -0.018(2)
C1 0.045(3) 0.041(3) 0.023(2) 0.001(2) 0.000(2) -0.005(2)
C2 0.044(3) 0.038(3) 0.041(3) -0.001(2) 0.001(2) -0.005(2)
C3 0.054(4) 0.034(3) 0.098(5) 0.002(3) -0.003(3) -0.001(3)
C4 0.040(3) 0.063(5) 0.142(7) 0.017(4) -0.013(4) 0.007(3)
C5 0.032(3) 0.060(4) 0.100(5) 0.001(4) -0.006(3) -0.006(3)
C6 0.035(3) 0.047(3) 0.046(3) -0.005(2) -0.002(2) 0.000(2)
C7 0.047(3) 0.040(3) 0.043(3) -0.003(2) 0.000(2) -0.007(3)
C8 0.065(4) 0.070(4) 0.035(3) -0.004(3) 0.012(3) -0.015(3)
C9 0.065(4) 0.060(4) 0.036(3) -0.009(3) 0.007(3) -0.018(3)
C10 0.050(3) 0.049(3) 0.025(2) 0.001(2) 0.004(2) 0.003(2)
C11 0.086(5) 0.075(4) 0.035(3) -0.010(3) 0.020(3) -0.034(4)
C12 0.084(4) 0.074(4) 0.037(3) -0.012(3) 0.011(3) -0.032(4)
C13 0.043(3) 0.050(3) 0.027(2) 0.000(2) 0.004(2) 0.002(2)
C14 0.051(3) 0.047(3) 0.027(2) -0.003(2) 0.000(2) -0.002(2)
C15 0.053(3) 0.042(3) 0.030(3) 0.001(2) 0.003(2) 0.001(2)
C16 0.073(4) 0.064(4) 0.031(3) -0.007(3) 0.004(3) -0.020(3)
C17 0.069(4) 0.062(4) 0.036(3) -0.002(3) 0.003(3) -0.019(3)
C18 0.061(4) 0.092(5) 0.032(3) -0.010(3) 0.000(3) -0.019(4)
C19 0.057(3) 0.076(4) 0.036(3) -0.005(3) 0.004(2) -0.021(3)
C20 0.087(5) 0.089(6) 0.091(6) 0.007(5) 0.003(4) -0.008(5)
C21 0.098(6) 0.073(5) 0.132(8) -0.002(5) 0.006(5) -0.010(5)
O5 0.300(19) 0.36(2) 0.38(2) -0.018(18) -0.116(15) -0.063(17)

_geom_special_details            
;
All esds (except the esd in the dihedral angle between two l.s. planes)
are estimated using the full covariance matrix. The cell esds are taken
into account individually in the estimation of esds in distances, angles
and torsion angles; correlations between esds in cell parameters are only
used when they are defined by crystal symmetry. An approximate (isotropic)
treatment of cell esds is used for estimating esds involving l.s. planes.
;

loop_
_geom_bond_atom_site_label_1
_geom_bond_atom_site_label_2
_geom_bond_distance
_geom_bond_site_symmetry_2
_geom_bond_publ_flag
Co1 O1 2.027(4) 8_765 ?
Co1 N1 2.066(4) . ?
Co1 O3 2.131(4) . ?
Co1 N5 2.147(4) 2_674 ?
Co1 N2 2.159(4) . ?
Co1 O2 2.250(4) . ?
S1 C14 1.714(5) . ?
S1 C13 1.713(5) . ?
Cl1 C20 1.695(8) . ?
Cl2 C20 1.747(9) . ?
Cl3 C20 1.719(9) . ?
Cl4 C21 1.723(9) . ?
Cl5 C21 1.652(9) . ?
Cl6 C21 1.669(9) . ?
N1 C2 1.326(7) . ?
N1 C6 1.342(6) . ?
N2 C12 1.321(7) . ?
N2 C8 1.330(7) . ?
N3 C13 1.291(6) . ?
N3 N4 1.363(6) . ?
N4 C14 1.296(7) . ?
N5 C17 1.322(7) . ?
N5 C18 1.332(7) . ?
N5 Co1 2.147(4) 2_675 ?
O1 C1 1.250(6) . ?
O1 Co1 2.027(4) 8_755 ?
O2 C1 1.245(6) . ?
O3 C7 1.268(6) . ?
O4 C7 1.229(6) . ?
C1 C2 1.497(7) . ?
C2 C3 1.382(8) . ?
C3 C4 1.379(9) . ?
C3 H3 0.9300 . ?
C4 C5 1.373(10) . ?
C4 H4 0.9300 . ?
C5 C6 1.371(8) . ?
C5 H5 0.9300 . ?
C6 C7 1.501(8) . ?
C8 C9 1.371(7) . ?
C8 H8 0.9300 . ?
C9 C10 1.375(7) . ?
C9 H9 0.9300 . ?
C10 C11 1.354(8) . ?
C10 C13 1.482(7) . ?
C11 C12 1.382(7) . ?
C11 H11 0.9300 . ?
C12 H12 0.9300 . ?
C14 C15 1.478(6) . ?
C15 C16 1.371(8) . ?
C15 C19 1.390(7) . ?
C16 C17 1.370(7) . ?
C16 H16 0.9300 . ?
C17 H17 0.9300 . ?
C18 C19 1.379(7) . ?
C18 H18 0.9300 . ?
C19 H19 0.9300 . ?
C20 H20 0.9800 . ?
C21 H21 0.9800 . ?

loop_
_geom_angle_atom_site_label_1
_geom_angle_atom_site_label_2
_geom_angle_atom_site_label_3
_geom_angle
_geom_angle_site_symmetry_1
_geom_angle_site_symmetry_3
_geom_angle_publ_flag
O1 Co1 N1 170.05(16) 8_765 . ?
O1 Co1 O3 114.04(15) 8_765 . ?
N1 Co1 O3 75.49(15) . . ?
O1 Co1 N5 86.60(15) 8_765 2_674 ?
N1 Co1 N5 96.04(15) . 2_674 ?
O3 Co1 N5 92.78(15) . 2_674 ?
O1 Co1 N2 82.88(15) 8_765 . ?
N1 Co1 N2 94.19(16) . . ?
O3 Co1 N2 92.31(15) . . ?
N5 Co1 N2 169.44(16) 2_674 . ?
O1 Co1 O2 96.99(15) 8_765 . ?
N1 Co1 O2 73.52(14) . . ?
O3 Co1 O2 148.97(14) . . ?
N5 Co1 O2 88.99(15) 2_674 . ?
N2 Co1 O2 91.40(15) . . ?
C14 S1 C13 86.6(3) . . ?
C2 N1 C6 121.2(4) . . ?
C2 N1 Co1 120.6(3) . . ?
C6 N1 Co1 118.1(3) . . ?
C12 N2 C8 115.4(5) . . ?
C12 N2 Co1 122.1(4) . . ?
C8 N2 Co1 121.3(4) . . ?
C13 N3 N4 112.9(4) . . ?
C14 N4 N3 112.0(4) . . ?
C17 N5 C18 116.5(5) . . ?
C17 N5 Co1 125.0(4) . 2_675 ?
C18 N5 Co1 118.4(3) . 2_675 ?
C1 O1 Co1 134.5(4) . 8_755 ?
C1 O2 Co1 115.1(3) . . ?
C7 O3 Co1 117.9(3) . . ?
O2 C1 O1 126.4(5) . . ?
O2 C1 C2 116.5(4) . . ?
O1 C1 C2 117.0(5) . . ?
N1 C2 C3 120.7(5) . . ?
N1 C2 C1 113.1(5) . . ?
C3 C2 C1 126.2(5) . . ?
C2 C3 C4 118.9(6) . . ?
C2 C3 H3 120.6 . . ?
C4 C3 H3 120.6 . . ?
C5 C4 C3 119.3(6) . . ?
C5 C4 H4 120.3 . . ?
C3 C4 H4 120.3 . . ?
C4 C5 C6 119.6(6) . . ?
C4 C5 H5 120.2 . . ?
C6 C5 H5 120.2 . . ?
N1 C6 C5 120.2(5) . . ?
N1 C6 C7 113.2(4) . . ?
C5 C6 C7 126.6(5) . . ?
O4 C7 O3 126.8(5) . . ?
O4 C7 C6 118.2(5) . . ?
O3 C7 C6 115.0(5) . . ?
N2 C8 C9 124.4(5) . . ?
N2 C8 H8 117.8 . . ?
C9 C8 H8 117.8 . . ?
C8 C9 C10 118.9(5) . . ?
C8 C9 H9 120.6 . . ?
C10 C9 H9 120.6 . . ?
C11 C10 C9 117.7(5) . . ?
C11 C10 C13 122.9(5) . . ?
C9 C10 C13 119.4(5) . . ?
C10 C11 C12 119.5(5) . . ?
C10 C11 H11 120.3 . . ?
C12 C11 H11 120.3 . . ?
N2 C12 C11 124.0(6) . . ?
N2 C12 H12 118.0 . . ?
C11 C12 H12 118.0 . . ?
N3 C13 C10 122.3(5) . . ?
N3 C13 S1 114.1(4) . . ?
C10 C13 S1 123.4(4) . . ?
N4 C14 C15 122.0(5) . . ?
N4 C14 S1 114.4(4) . . ?
C15 C14 S1 123.6(4) . . ?
C16 C15 C19 117.9(5) . . ?
C16 C15 C14 123.2(5) . . ?
C19 C15 C14 118.9(5) . . ?
C15 C16 C17 119.2(5) . . ?
C15 C16 H16 120.4 . . ?
C17 C16 H16 120.4 . . ?
N5 C17 C16 124.2(6) . . ?
N5 C17 H17 117.9 . . ?
C16 C17 H17 117.9 . . ?
N5 C18 C19 123.8(5) . . ?
N5 C18 H18 118.1 . . ?
C19 C18 H18 118.1 . . ?
C15 C19 C18 118.4(5) . . ?
C15 C19 H19 120.8 . . ?
C18 C19 H19 120.8 . . ?
Cl1 C20 Cl3 112.4(5) . . ?
Cl1 C20 Cl2 107.8(5) . . ?
Cl3 C20 Cl2 110.0(5) . . ?
Cl1 C20 H20 108.9 . . ?
Cl3 C20 H20 108.9 . . ?
Cl2 C20 H20 108.9 . . ?
Cl5 C21 Cl6 112.8(6) . . ?
Cl5 C21 Cl4 114.2(5) . . ?
Cl6 C21 Cl4 113.0(5) . . ?
Cl5 C21 H21 105.2 . . ?
Cl6 C21 H21 105.2 . . ?
Cl4 C21 H21 105.2 . . ?

loop_
_geom_torsion_atom_site_label_1
_geom_torsion_atom_site_label_2
_geom_torsion_atom_site_label_3
_geom_torsion_atom_site_label_4
_geom_torsion
_geom_torsion_site_symmetry_1
_geom_torsion_site_symmetry_2
_geom_torsion_site_symmetry_3
_geom_torsion_site_symmetry_4
_geom_torsion_publ_flag
O1 Co1 N1 C2 16.4(11) 8_765 . . . ?
O3 Co1 N1 C2 -179.9(4) . . . . ?
N5 Co1 N1 C2 -88.6(4) 2_674 . . . ?
N2 Co1 N1 C2 88.8(4) . . . . ?
O2 Co1 N1 C2 -1.4(3) . . . . ?
O1 Co1 N1 C6 -159.5(8) 8_765 . . . ?
O3 Co1 N1 C6 4.3(3) . . . . ?
N5 Co1 N1 C6 95.6(4) 2_674 . . . ?
N2 Co1 N1 C6 -87.0(4) . . . . ?
O2 Co1 N1 C6 -177.3(4) . . . . ?
O1 Co1 N2 C12 71.0(5) 8_765 . . . ?
N1 Co1 N2 C12 -99.5(5) . . . . ?
O3 Co1 N2 C12 -175.1(5) . . . . ?
N5 Co1 N2 C12 66.1(11) 2_674 . . . ?
O2 Co1 N2 C12 -25.9(5) . . . . ?
O1 Co1 N2 C8 -96.0(4) 8_765 . . . ?
N1 Co1 N2 C8 93.5(4) . . . . ?
O3 Co1 N2 C8 17.9(4) . . . . ?
N5 Co1 N2 C8 -100.9(10) 2_674 . . . ?
O2 Co1 N2 C8 167.1(4) . . . . ?
C13 N3 N4 C14 0.2(7) . . . . ?
O1 Co1 