
#######################################################################
#
#                 Cambridge Crystallographic Data Centre
#                                CCDC
#
#######################################################################
#
# If this CIF has been generated from an entry in the Cambridge
# Structural Database, then it will include bibliographic, chemical,
# crystal, experimental, refinement or atomic coordinate data resulting
# from the CCDC's data processing and validation procedures.
#
#######################################################################

data_CSD_CIF_MUBJAU
_audit_creation_date 2002-11-01
_audit_creation_method CSD-ConQuest-V1
_database_code_CSD MUBJAU
_database_code_depnum_ccdc_archive 'CCDC 181106'
_chemical_formula_sum 'C46 H61.5 N0.5 O4'
_chemical_formula_moiety
;
C44 H56 O4,0.5(C4 H11 N1)
;
_journal_coden_Cambridge 182
_journal_year 2002
_journal_page_first 2162
_journal_name_full 'Chem.Commun. '
loop_
_publ_author_name
"K.A.Udachin"
"G.D.Enright"
"P.O.Brown"
"J.A.Ripmeester"
_chemical_name_systematic
;
p-t-Butylcalix(4)arene hemikis(n-butylamine) clathrate
;
_chemical_name_common
;
Teaching Subset: Fundamental Chemistry, Symmetry
;
_cell_volume   4166.674
_exptl_crystal_density_diffrn 1.093
_diffrn_ambient_temperature 173
_refine_special_details
;
The guest molecule is disordered.

;
#These two values have been output from a single CSD field.
_refine_ls_R_factor_gt 0.0513
_refine_ls_wR_factor_gt 0.0513
_symmetry_cell_setting tetragonal
_symmetry_space_group_name_H-M 'P 4/n n c'
_symmetry_Int_Tables_number 126
loop_
_symmetry_equiv_pos_site_id
_symmetry_equiv_pos_as_xyz
1 x,y,z
2 1/2-y,x,z
3 y,1/2-x,z
4 y,x,1/2-z
5 1/2-x,1/2-y,z
6 1/2-x,y,1/2-z
7 x,1/2-y,1/2-z
8 1/2-y,1/2-x,1/2-z
9 -x,-y,-z
10 -1/2+y,-x,-z
11 -y,-1/2+x,-z
12 -y,-x,-1/2+z
13 -1/2+x,-1/2+y,-z
14 -1/2+x,-y,-1/2+z
15 -x,-1/2+y,-1/2+z
16 -1/2+y,-1/2+x,-1/2+z
_cell_length_a 12.8837(10)
_cell_length_b 12.8837(10)
_cell_length_c 25.102(2)
_cell_angle_alpha 90
_cell_angle_beta 90
_cell_angle_gamma 90
_cell_formula_units_Z 4
loop_
_atom_type_symbol
_atom_type_radius_bond
C 0.68
H 0.23
N 0.68
O 0.68
loop_
_atom_site_label
_atom_site_type_symbol
_atom_site_fract_x
_atom_site_fract_y
_atom_site_fract_z
O1 O 0.18613(3) 0.11897(3) 0.473289(14)
H1 H 0.15460 0.17590 0.47150
C1 C 0.15818(4) 0.06784(4) 0.51994(2)
C2 C 0.06055(4) 0.08375(4) 0.54234(2)
C3 C 0.03328(4) 0.02575(4) 0.58692(2)
H2 H -0.03330 0.03590 0.60240
C4 C 0.10020(4) -0.04675(4) 0.60978(2)
C5 C 0.19857(4) -0.05709(4) 0.58679(2)
H3 H 0.24650 -0.10420 0.60240
C6 C 0.22911(4) -0.00161(4) 0.54217(2)
C7 C -0.01566(4) 0.16224(4) 0.51950(2)
H4 H -0.08730 0.13850 0.52700
H5 H -0.00690 0.16500 0.48030
C8 C 0.07004(5) -0.11499(5) 0.65740(2)
C9 C 0.14255(7) -0.09304(8) 0.70397(3)
H6 H 0.13550 -0.02030 0.71480
H7 H 0.21440 -0.10650 0.69310
H8 H 0.12440 -0.13820 0.73400
C10 C -0.04182(6) -0.09752(7) 0.67507(3)
H9 H -0.05790 -0.14370 0.70500
H10 H -0.08880 -0.11240 0.64530
H11 H -0.05060 -0.02520 0.68630
C11 C 0.07993(6) -0.23012(5) 0.64117(3)
H12 H 0.15090 -0.24390 0.62900
H13 H 0.03100 -0.24520 0.61230
H14 H 0.06410 -0.27430 0.67190
H15? H 0.33590 0.31880 0.79930
N1? N 0.2069(5) 0.2317(6) 0.66536(14)
H16? H 0.18680 0.16480 0.67090
H17? H 0.24620 0.23540 0.63530
H18? H 0.14970 0.27250 0.66150
C12? C 0.2687(3) 0.2682(5) 0.71165(13)
H19? H 0.19500 0.16660 0.70220
H20? H 0.32170 0.21550 0.72080
C13? C 0.1981(4) 0.2872(7) 0.76002(13)
H21? H 0.14290 0.33720 0.75040
H22? H 0.33550 0.22130 0.72930
C14? C 0.2389(6) 0.3299(5) 0.69354(13)
H23? H 0.25090 0.40550 0.69070
C15? C 0.2781(8) 0.2327(7) 0.64052(16)
H24? H 0.20400 0.26430 0.62010
H25? H 0.21250 0.19660 0.64750
H26? H 0.32420 0.18720 0.62010
O1A O 0.38103(3) 0.18613(3) 0.473289(14)
H1A H 0.32410 0.15460 0.47150
C1A C 0.43216(4) 0.15818(4) 0.51994(2)
C2A C 0.41625(4) 0.06055(4) 0.54234(2)
C3A C 0.47425(4) 0.03328(4) 0.58692(2)
H2A H 0.46410 -0.03330 0.60240
C4A C 0.54675(4) 0.10020(4) 0.60978(2)
C5A C 0.55709(4) 0.19857(4) 0.58679(2)
H3A H 0.60420 0.24650 0.60240
C6A C 0.50161(4) 0.22911(4) 0.54217(2)
C7A C 0.33776(4) -0.01566(4) 0.51950(2)
H4A H 0.36150 -0.08730 0.52700
H5A H 0.33500 -0.00690 0.48030
C8A C 0.61499(5) 0.07004(5) 0.65740(2)
C9A C 0.59304(7) 0.14255(8) 0.70397(3)
H6A H 0.52030 0.13550 0.71480
H7A H 0.60650 0.21440 0.69310
H8A H 0.63820 0.12440 0.73400
C10A C 0.59752(6) -0.04182(7) 0.67507(3)
H9A H 0.64370 -0.05790 0.70500
H10A H 0.61240 -0.08880 0.64530
H11A H 0.52520 -0.05060 0.68630
C11A C 0.73012(6) 0.07993(5) 0.64117(3)
H12A H 0.74390 0.15090 0.62900
H13A H 0.74520 0.03100 0.61230
H14A H 0.77430 0.06410 0.67190
O1B O 0.11897(3) 0.31387(3) 0.473289(14)
H1B H 0.17590 0.34540 0.47150
C1B C 0.06784(4) 0.34182(4) 0.51994(2)
C2B C 0.08375(4) 0.43945(4) 0.54234(2)
C3B C 0.02575(4) 0.46672(4) 0.58692(2)
H2B H 0.03590 0.53330 0.60240
C4B C -0.04675(4) 0.39980(4) 0.60978(2)
C5B C -0.05709(4) 0.30143(4) 0.58679(2)
H3B H -0.10420 0.25350 0.60240
C6B C -0.00161(4) 0.27089(4) 0.54217(2)
C7B C 0.16224(4) 0.51566(4) 0.51950(2)
H4B H 0.13850 0.58730 0.52700
H5B H 0.16500 0.50690 0.48030
C8B C -0.11499(5) 0.42996(5) 0.65740(2)
C9B C -0.09304(7) 0.35745(8) 0.70397(3)
H6B H -0.02030 0.36450 0.71480
H7B H -0.10650 0.28560 0.69310
H8B H -0.13820 0.37560 0.73400
C10B C -0.09752(6) 0.54182(7) 0.67507(3)
H9B H -0.14370 0.55790 0.70500
H10B H -0.11240 0.58880 0.64530
H11B H -0.02520 0.55060 0.68630
C11B C -0.23012(6) 0.42007(5) 0.64117(3)
H12B H -0.24390 0.34910 0.62900
H13B H -0.24520 0.46900 0.61230
H14B H -0.27430 0.43590 0.67190
O1D O 0.31387(3) 0.38103(3) 0.473289(14)
H1D H 0.34540 0.32410 0.47150
C1D C 0.34182(4) 0.43216(4) 0.51994(2)
C2D C 0.43945(4) 0.41625(4) 0.54234(2)
C3D C 0.46672(4) 0.47425(4) 0.58692(2)
H2D H 0.53330 0.46410 0.60240
C4D C 0.39980(4) 0.54675(4) 0.60978(2)
C5D C 0.30143(4) 0.55709(4) 0.58679(2)
H3D H 0.25350 0.60420 0.60240
C6D C 0.27089(4) 0.50161(4) 0.54217(2)
C7D C 0.51566(4) 0.33776(4) 0.51950(2)
H4D H 0.58730 0.36150 0.52700
H5D H 0.50690 0.33500 0.48030
C8D C 0.42996(5) 0.61499(5) 0.65740(2)
C9D C 0.35745(7) 0.59304(8) 0.70397(3)
H6D H 0.36450 0.52030 0.71480
H7D H 0.28560 0.60650 0.69310
H8D H 0.37560 0.63820 0.73400
C10D C 0.54182(6) 0.59752(7) 0.67507(3)
H9D H 0.55790 0.64370 0.70500
H10D H 0.58880 0.61240 0.64530
H11D H 0.55060 0.52520 0.68630
C11D C 0.42007(6) 0.73012(5) 0.64117(3)
H12D H 0.34910 0.74390 0.62900
H13D H 0.46900 0.74520 0.61230
H14D H 0.43590 0.77430 0.67190
#END
