
#######################################################################
#
#                 Cambridge Crystallographic Data Centre
#                                CCDC
#
#######################################################################
#
# If this CIF has been generated from an entry in the Cambridge
# Structural Database, then it will include bibliographic, chemical,
# crystal, experimental, refinement or atomic coordinate data resulting
# from the CCDC's data processing and validation procedures.
#
#######################################################################

data_CSD_CIF_MUCONC10
_audit_creation_date 1978-11-29
_audit_creation_method CSD-ConQuest-V1
_database_code_CSD MUCONC10
_database_code_depnum_ccdc_archive 'CCDC 1214941'
_chemical_formula_sum 'C6 H4 Cl2 O2'
_chemical_formula_moiety
;
C6 H4 Cl2 O2
;
_journal_coeditor_code "IUCr A16246"
_journal_coden_Cambridge 107
_journal_volume 34
_journal_year 1978
_journal_page_first 2257
_journal_name_full 'Acta Crystallogr.,Sect.B:Struct.Crystallogr.Cryst.Chem. '
loop_
_publ_author_name
"J.Leser"
"D.Rabinovich"
_chemical_name_systematic
;
Muconyl chloride
;
_chemical_name_common
;
Teaching Subset: Fundamental Chemistry, Symmetry
;
_cell_volume    768.990
_exptl_crystal_density_diffrn 1.545
_diffrn_ambient_temperature ?
_diffrn_special_details
;
The study was carried out at room temperature,in the range 283-303K

;
#These two values have been output from a single CSD field.
_refine_ls_R_factor_gt 0.05
_refine_ls_wR_factor_gt 0.05
_symmetry_cell_setting orthorhombic
_symmetry_space_group_name_H-M 'C m c a'
_symmetry_Int_Tables_number 64
loop_
_symmetry_equiv_pos_site_id
_symmetry_equiv_pos_as_xyz
1 x,y,z
2 1/2+x,1/2+y,z
3 -x,1/2-y,1/2+z
4 1/2-x,-y,1/2+z
5 x,-y,-z
6 1/2+x,1/2-y,-z
7 -x,1/2+y,1/2-z
8 1/2-x,y,1/2-z
9 -x,-y,-z
10 -1/2-x,-1/2-y,-z
11 x,-1/2+y,-1/2-z
12 -1/2+x,y,-1/2-z
13 -x,y,z
14 -1/2-x,-1/2+y,z
15 x,-1/2-y,-1/2+z
16 -1/2+x,-y,-1/2+z
_cell_length_a 6.476(1)
_cell_length_b 9.838(1)
_cell_length_c 12.070(2)
_cell_angle_alpha 90
_cell_angle_beta 90
_cell_angle_gamma 90
_cell_formula_units_Z 4
loop_
_atom_type_symbol
_atom_type_radius_bond
C 0.68
H 0.23
Cl 0.99
O 0.68
loop_
_atom_site_label
_atom_site_type_symbol
_atom_site_fract_x
_atom_site_fract_y
_atom_site_fract_z
C1 C 0.00000 0.06690 0.02430
C2 C 0.00000 0.08660 0.13250
C3 C 0.00000 0.21790 0.18790
O1 O 0.00000 0.23380 0.28390
Cl1 Cl 0.00000 0.36231 0.10027
H1 H 0.00000 0.14600 -0.02100
H2 H 0.00000 0.01200 0.18200
C1H C 0.00000 -0.06690 -0.02430
C2H C 0.00000 -0.08660 -0.13250
H1H H 0.00000 -0.14600 0.02100
C3H C 0.00000 -0.21790 -0.18790
H2H H 0.00000 -0.01200 -0.18200
O1H O 0.00000 -0.23380 -0.28390
Cl1H Cl 0.00000 -0.36231 -0.10027
#END
