####################################################################### 
# 
# This file contains crystal structure data downloaded from the 
# Cambridge Structural Database (CSD) hosted by the Cambridge 
# Crystallographic Data Centre (CCDC).
# 
# Full information about CCDC data access policies and citation 
# guidelines are available at http://www.ccdc.cam.ac.uk/access/V1 
# 
# Audit and citation data items may have been added by the CCDC. 
# Please retain this information to preserve the provenance of 
# this file and to allow appropriate attribution of the data. 
# 
#######################################################################

data_3
_audit_block_doi                 10.5517/ccs1bpt
_database_code_depnum_ccdc_archive 'CCDC 716276'
loop_
_citation_id
_citation_doi
_citation_year
1 10.1080/00958970903164982 2009
_audit_update_record             
;
2009-01-14 deposited with the CCDC.	2024-07-11 downloaded from the CCDC.
;

_audit_creation_method           SHELXL-97
_chemical_name_systematic        
;
?
;
_chemical_name_common            ?
_chemical_melting_point          ?
_chemical_formula_moiety         
'C48 H44 N4 S4 Zn2, 0.5(C2 H8 O2), 0.5(H1.60 O0.80), 1.6(H2 O)'
_chemical_formula_sum            'C49 H52 N4 O3 S4 Zn2'
_chemical_formula_weight         1003.93

loop_
_atom_type_symbol
_atom_type_description
_atom_type_scat_dispersion_real
_atom_type_scat_dispersion_imag
_atom_type_scat_source
C C 0.0033 0.0016 'International Tables Vol C Tables 4.2.6.8 and 6.1.1.4'
H H 0.0000 0.0000 'International Tables Vol C Tables 4.2.6.8 and 6.1.1.4'
N N 0.0061 0.0033 'International Tables Vol C Tables 4.2.6.8 and 6.1.1.4'
O O 0.0106 0.0060 'International Tables Vol C Tables 4.2.6.8 and 6.1.1.4'
S S 0.1246 0.1234 'International Tables Vol C Tables 4.2.6.8 and 6.1.1.4'
Zn Zn 0.2839 1.4301 'International Tables Vol C Tables 4.2.6.8 and 6.1.1.4'

_symmetry_cell_setting           Monoclinic
_symmetry_space_group_name_H-M   'C2/c '
_symmetry_space_group_name_Hall  '-C 2yc'

loop_
_symmetry_equiv_pos_as_xyz
'x, y, z'
'-x, y, -z+1/2'
'x+1/2, y+1/2, z'
'-x+1/2, y+1/2, -z+1/2'
'-x, -y, -z'
'x, -y, z-1/2'
'-x+1/2, -y+1/2, -z'
'x+1/2, -y+1/2, z-1/2'

_cell_length_a                   31.9666(19)
_cell_length_b                   28.474(3)
_cell_length_c                   14.3397(17)
_cell_angle_alpha                90.00
_cell_angle_beta                 114.194(2)
_cell_angle_gamma                90.00
_cell_volume                     11905.6(19)
_cell_formula_units_Z            8
_cell_measurement_temperature    291(2)
_cell_measurement_reflns_used    4899
_cell_measurement_theta_min      2.21
_cell_measurement_theta_max      28.00

_exptl_crystal_description       ?
_exptl_crystal_colour            ?
_exptl_crystal_size_max          0.30
_exptl_crystal_size_mid          0.26
_exptl_crystal_size_min          0.24
_exptl_crystal_density_meas      ?
_exptl_crystal_density_diffrn    1.120
_exptl_crystal_density_method    'not measured'
_exptl_crystal_F_000             4176
_exptl_absorpt_coefficient_mu    0.982
_exptl_absorpt_correction_type   multi-scan
_exptl_absorpt_correction_T_min  0.748
_exptl_absorpt_correction_T_max  0.793
_exptl_absorpt_process_details   'SADABS; Bruker, 2000'

_exptl_special_details           
;
?
;

_diffrn_ambient_temperature      291(2)
_diffrn_radiation_wavelength     0.71073
_diffrn_radiation_type           MoK\a
_diffrn_radiation_source         'sealed tube'
_diffrn_radiation_monochromator  graphite
_diffrn_measurement_device_type  'Bruker Smart Apex CCD'
_diffrn_measurement_method       'phi and omega scans'
_diffrn_detector_area_resol_mean ?
_diffrn_standards_number         ?
_diffrn_standards_interval_count ?
_diffrn_standards_interval_time  ?
_diffrn_standards_decay_%        ?
_diffrn_reflns_number            32112
_diffrn_reflns_av_R_equivalents  0.0310
_diffrn_reflns_av_sigmaI/netI    0.0387
_diffrn_reflns_limit_h_min       -39
_diffrn_reflns_limit_h_max       39
_diffrn_reflns_limit_k_min       -20
_diffrn_reflns_limit_k_max       35
_diffrn_reflns_limit_l_min       -17
_diffrn_reflns_limit_l_max       17
_diffrn_reflns_theta_min         2.00
_diffrn_reflns_theta_max         26.00
_reflns_number_total             11637
_reflns_number_gt                6958
_reflns_threshold_expression     >2sigma(I)

_computing_data_collection       'SMART (Bruker, 2000)'
_computing_cell_refinement       SMART
_computing_data_reduction        'SAINT (Bruker, 2000)'
_computing_structure_solution    'SHELXTL (Bruker, 2000)'
_computing_structure_refinement  SHELXTL
_computing_molecular_graphics    SHELXTL
_computing_publication_material  SHELXTL

_refine_special_details          
;
Refinement of F^2^ against ALL reflections. The weighted R-factor wR and
goodness of fit S are based on F^2^, conventional R-factors R are based
on F, with F set to zero for negative F^2^. The threshold expression of
F^2^ > 2sigma(F^2^) is used only for calculating R-factors(gt) etc. and is
not relevant to the choice of reflections for refinement. R-factors based
on F^2^ are statistically about twice as large as those based on F, and R-
factors based on ALL data will be even larger.
;

_refine_ls_structure_factor_coef Fsqd
_refine_ls_matrix_type           fullcycle
_refine_ls_weighting_scheme      calc
_refine_ls_weighting_details     
'calc w=1/[\s^2^(Fo^2^)+(0.07P)^2^+1.99P] where P=(Fo^2^+2Fc^2^)/3'
_atom_sites_solution_primary     direct
_atom_sites_solution_secondary   difmap
_atom_sites_solution_hydrogens   geom
_refine_ls_hydrogen_treatment    constr
_refine_ls_extinction_method     none
_refine_ls_extinction_coef       ?
_refine_ls_number_reflns         11637
_refine_ls_number_parameters     668
_refine_ls_number_restraints     0
_refine_ls_R_factor_all          0.0900
_refine_ls_R_factor_gt           0.0581
_refine_ls_wR_factor_ref         0.1524
_refine_ls_wR_factor_gt          0.1433
_refine_ls_goodness_of_fit_ref   1.068
_refine_ls_restrained_S_all      1.068
_refine_ls_shift/su_max          0.001
_refine_ls_shift/su_mean         0.000

loop_
_atom_site_label
_atom_site_type_symbol
_atom_site_fract_x
_atom_site_fract_y
_atom_site_fract_z
_atom_site_U_iso_or_equiv
_atom_site_adp_type
_atom_site_occupancy
_atom_site_symmetry_multiplicity
_atom_site_calc_flag
_atom_site_refinement_flags
_atom_site_disorder_assembly
_atom_site_disorder_group
C1 C 0.31048(9) 1.09183(10) 0.39497(19) 0.0373(6) Uani 1 1 d . . .
C2 C 0.34655(9) 1.08042(10) 0.3719(2) 0.0425(6) Uani 1 1 d . . .
H2 H 0.3513 1.0490 0.3612 0.051 Uiso 1 1 calc R . .
C3 C 0.37603(9) 1.11316(11) 0.3639(2) 0.0482(7) Uani 1 1 d . . .
H3 H 0.3986 1.1033 0.3432 0.058 Uiso 1 1 calc R . .
C4 C 0.37395(10) 1.16045(11) 0.3852(2) 0.0439(7) Uani 1 1 d . . .
C5 C 0.33678(10) 1.17457(9) 0.4143(2) 0.0431(7) Uani 1 1 d . . .
H5 H 0.3345 1.2051 0.4349 0.052 Uiso 1 1 calc R . .
C6 C 0.30443(10) 1.13930(9) 0.40927(19) 0.0402(6) Uani 1 1 d . . .
H6 H 0.2778 1.1484 0.4159 0.048 Uiso 1 1 calc R . .
C7 C 0.40806(9) 1.19567(9) 0.38280(19) 0.0402(6) Uani 1 1 d . . .
H7A H 0.4385 1.1834 0.4185 0.060 Uiso 1 1 calc R . .
H7B H 0.4049 1.2241 0.4152 0.060 Uiso 1 1 calc R . .
H7C H 0.4027 1.2021 0.3131 0.060 Uiso 1 1 calc R . .
C8 C 0.20536(9) 1.10424(10) 0.12209(19) 0.0407(6) Uani 1 1 d . . .
C9 C 0.23155(10) 1.14272(11) 0.1579(2) 0.0480(7) Uani 1 1 d . . .
H9 H 0.2622 1.1419 0.1679 0.058 Uiso 1 1 calc R . .
C10 C 0.21329(11) 1.18501(12) 0.1812(2) 0.0538(8) Uani 1 1 d . . .
H10 H 0.2322 1.2097 0.2168 0.065 Uiso 1 1 calc R . .
C11 C 0.16816(11) 1.18705(11) 0.1492(2) 0.0486(8) Uani 1 1 d . . .
C12 C 0.14012(10) 1.14832(12) 0.1149(2) 0.0504(8) Uani 1 1 d . . .
H12 H 0.1090 1.1496 0.1009 0.060 Uiso 1 1 calc R . .
C13 C 0.15931(9) 1.11029(10) 0.1032(2) 0.0420(6) Uani 1 1 d . . .
H13 H 0.1405 1.0841 0.0798 0.050 Uiso 1 1 calc R . .
C14 C 0.14986(11) 1.23302(11) 0.1712(2) 0.0505(7) Uani 1 1 d . . .
H14A H 0.1748 1.2512 0.2185 0.076 Uiso 1 1 calc R . .
H14B H 0.1282 1.2266 0.2003 0.076 Uiso 1 1 calc R . .
H14C H 0.1350 1.2503 0.1087 0.076 Uiso 1 1 calc R . .
C15 C 0.20339(11) 0.94546(11) 0.3356(2) 0.0517(8) Uani 1 1 d . . .
H15 H 0.2246 0.9573 0.3973 0.062 Uiso 1 1 calc R . .
C16 C 0.17670(11) 0.91110(11) 0.3397(3) 0.0590(9) Uani 1 1 d . . .
H16 H 0.1809 0.8983 0.4026 0.071 Uiso 1 1 calc R . .
C17 C 0.14178(9) 0.89351(10) 0.24958(19) 0.0409(6) Uani 1 1 d . . .
C18 C 0.13827(9) 0.91354(12) 0.15849(19) 0.0441(7) Uani 1 1 d . . .
H18 H 0.1154 0.9038 0.0968 0.053 Uiso 1 1 calc R . .
C19 C 0.16939(9) 0.94865(11) 0.15937(19) 0.0446(7) Uani 1 1 d . . .
H19 H 0.1674 0.9610 0.0977 0.054 Uiso 1 1 calc R . .
C20 C 0.10937(10) 0.85574(11) 0.2519(2) 0.0432(7) Uani 1 1 d . . .
C21 C 0.11123(10) 0.83724(11) 0.3411(2) 0.0464(7) Uani 1 1 d . . .
H21 H 0.1335 0.8473 0.4033 0.056 Uiso 1 1 calc R . .
C22 C 0.08127(9) 0.80498(13) 0.3386(2) 0.0502(8) Uani 1 1 d . . .
H22 H 0.0822 0.7939 0.4004 0.060 Uiso 1 1 calc R . .
C23 C 0.04706(10) 0.80406(10) 0.1669(2) 0.0425(7) Uani 1 1 d . . .
H23 H 0.0255 0.7909 0.1072 0.051 Uiso 1 1 calc R . .
C24 C 0.07415(10) 0.84009(11) 0.15841(18) 0.0449(7) Uani 1 1 d . . .
H24 H 0.0697 0.8533 0.0957 0.054 Uiso 1 1 calc R . .
C25 C -0.0530(2) 0.6540(3) 0.1156(5) 0.0557(17) Uani 0.50 1 d P A 1
C26 C -0.1001(2) 0.6530(2) 0.0687(5) 0.0579(17) Uani 0.50 1 d P A 1
H26 H -0.1159 0.6788 0.0306 0.069 Uiso 0.50 1 calc PR A 1
C27 C -0.1243(2) 0.6145(3) 0.0771(5) 0.0569(17) Uani 0.50 1 d P A 1
H27 H -0.1561 0.6139 0.0425 0.068 Uiso 0.50 1 calc PR A 1
C28 C -0.1019(2) 0.5770(2) 0.1361(4) 0.0552(17) Uani 0.50 1 d P A 1
C29 C -0.0547(2) 0.5765(3) 0.1836(4) 0.0564(17) Uani 0.50 1 d P A 1
H29 H -0.0393 0.5510 0.2236 0.068 Uiso 0.50 1 calc PR A 1
C30 C -0.0301(2) 0.6154(2) 0.1705(4) 0.0528(16) Uani 0.50 1 d P A 1
H30 H 0.0018 0.6149 0.1993 0.063 Uiso 0.50 1 calc PR A 1
C31 C -0.1287(2) 0.5357(2) 0.1419(5) 0.0609(18) Uani 0.50 1 d P A 1
H31A H -0.1082 0.5106 0.1763 0.091 Uiso 0.50 1 calc PR A 1
H31B H -0.1486 0.5259 0.0740 0.091 Uiso 0.50 1 calc PR A 1
H31C H -0.1468 0.5438 0.1790 0.091 Uiso 0.50 1 calc PR A 1
C32 C 0.29595(9) 0.94532(9) 0.16805(19) 0.0362(6) Uani 1 1 d . . .
H32 H 0.2723 0.9558 0.1082 0.043 Uiso 1 1 calc R . .
C33 C 0.32576(8) 0.91044(10) 0.16119(18) 0.0382(6) Uani 1 1 d . . .
H33 H 0.3228 0.8990 0.0980 0.046 Uiso 1 1 calc R . .
C34 C 0.35992(8) 0.89343(9) 0.25186(16) 0.0323(5) Uani 1 1 d . . .
C35 C 0.36260(9) 0.91474(10) 0.34151(19) 0.0448(7) Uani 1 1 d . . .
H35 H 0.3860 0.9063 0.4037 0.054 Uiso 1 1 calc R . .
C36 C 0.33176(10) 0.94733(10) 0.3394(2) 0.0479(8) Uani 1 1 d . . .
H36 H 0.3330 0.9588 0.4012 0.057 Uiso 1 1 calc R . .
C37 C 0.39066(8) 0.85618(8) 0.24870(18) 0.0306(5) Uani 1 1 d . . .
C38 C 0.38815(10) 0.83467(11) 0.1595(2) 0.0503(8) Uani 1 1 d . . .
H38 H 0.3649 0.8438 0.0977 0.060 Uiso 1 1 calc R . .
C39 C 0.41920(8) 0.79962(10) 0.15810(19) 0.0423(7) Uani 1 1 d . . .
H39 H 0.4171 0.7872 0.0963 0.051 Uiso 1 1 calc R . .
C40 C 0.45540(9) 0.80488(10) 0.33546(18) 0.0416(7) Uani 1 1 d . . .
H40 H 0.4794 0.7961 0.3964 0.050 Uiso 1 1 calc R . .
C41 C 0.42492(9) 0.83783(10) 0.3374(2) 0.0430(7) Uani 1 1 d . . .
H41 H 0.4270 0.8486 0.4004 0.052 Uiso 1 1 calc R . .
C42 C 0.55391(8) 0.65156(8) 0.38684(18) 0.0308(5) Uani 1 1 d . . .
C43 C 0.53909(9) 0.60473(9) 0.3819(2) 0.0415(6) Uani 1 1 d . . .
H43 H 0.5112 0.5979 0.3848 0.050 Uiso 1 1 calc R . .
C44 C 0.56623(8) 0.56894(8) 0.37264(19) 0.0343(6) Uani 1 1 d . . .
H44 H 0.5549 0.5385 0.3674 0.041 Uiso 1 1 calc R . .
C45 C 0.60751(9) 0.57418(10) 0.3706(2) 0.0393(6) Uani 1 1 d . . .
C46 C 0.62051(9) 0.61968(10) 0.3703(2) 0.0428(6) Uani 1 1 d . . .
H46 H 0.6474 0.6255 0.3620 0.051 Uiso 1 1 calc R . .
C47 C 0.59636(9) 0.65765(10) 0.3816(2) 0.0430(7) Uani 1 1 d . . .
H47 H 0.6084 0.6877 0.3858 0.052 Uiso 1 1 calc R . .
C48 C 0.63557(10) 0.53374(11) 0.3565(2) 0.0513(8) Uani 1 1 d . . .
H48A H 0.6476 0.5151 0.4176 0.077 Uiso 1 1 calc R . .
H48B H 0.6605 0.5460 0.3429 0.077 Uiso 1 1 calc R . .
H48C H 0.6164 0.5146 0.3001 0.077 Uiso 1 1 calc R . .
C49 C 0.4805(2) 0.9605(2) 0.0522(5) 0.074(2) Uani 0.50 1 d P . .
H49D H 0.4952 0.9404 0.0210 0.111 Uiso 0.50 1 calc PR . .
H49E H 0.5026 0.9820 0.0978 0.111 Uiso 0.50 1 calc PR . .
H49F H 0.4565 0.9778 0.0001 0.111 Uiso 0.50 1 calc PR . .
C50 C 0.01778(18) 0.96272(18) 0.4517(4) 0.0416(13) Uani 0.50 1 d P . .
H50A H -0.0107 0.9535 0.4537 0.062 Uiso 0.50 1 calc PR . .
H50B H 0.0131 0.9904 0.4104 0.062 Uiso 0.50 1 calc PR . .
H50C H 0.0398 0.9692 0.5199 0.062 Uiso 0.50 1 calc PR . .
C25' C -0.0526(2) 0.6537(3) 0.1151(4) 0.0560(16) Uani 0.50 1 d P A 2
C26' C -0.0951(2) 0.6610(2) 0.1200(4) 0.0523(15) Uani 0.50 1 d P A 2
H26' H -0.1070 0.6912 0.1142 0.063 Uiso 0.50 1 calc PR A 2
C27' C -0.11881(18) 0.6240(2) 0.1332(4) 0.0514(16) Uani 0.50 1 d P A 2
H27' H -0.1462 0.6289 0.1402 0.062 Uiso 0.50 1 calc PR A 2
C28' C -0.1014(2) 0.5770(2) 0.1365(4) 0.0444(13) Uani 0.50 1 d P A 2
C29' C -0.0634(2) 0.5724(3) 0.1188(4) 0.0575(17) Uani 0.50 1 d P A 2
H29' H -0.0547 0.5421 0.1107 0.069 Uiso 0.50 1 calc PR A 2
C30' C -0.03626(14) 0.60832(16) 0.1117(3) 0.0488(15) Uani 0.50 1 d P A 2
H30' H -0.0089 0.6029 0.1050 0.059 Uiso 0.50 1 calc PR A 2
C31' C -0.12894(14) 0.53595(16) 0.1419(3) 0.0564(18) Uani 0.50 1 d PR A 2
H31D H -0.1128 0.5075 0.1418 0.085 Uiso 0.50 1 calc PR A 2
H31E H -0.1580 0.5362 0.0838 0.085 Uiso 0.50 1 calc PR A 2
H31F H -0.1339 0.5376 0.2035 0.085 Uiso 0.50 1 calc PR A 2
N1 N 0.20235(8) 0.96490(8) 0.24829(16) 0.0378(5) Uani 1 1 d . . .
N2 N 0.05022(9) 0.78772(10) 0.25363(19) 0.0529(7) Uani 1 1 d . . .
N3 N 0.30016(8) 0.96354(8) 0.25463(16) 0.0381(5) Uani 1 1 d . . .
N4 N 0.45167(6) 0.78445(7) 0.24624(13) 0.0237(4) Uani 1 1 d . . .
O1 O 0.21705(13) 0.82970(14) 0.1155(3) 0.0277(9) Uani 0.40 1 d P . .
H1X H 0.2280 0.8085 0.1607 0.033 Uiso 0.40 1 d PR . .
H1Y H 0.1879 0.8284 0.0899 0.033 Uiso 0.40 1 d PR . .
O2 O 0.20997(16) 0.77118(16) 0.9428(4) 0.0477(12) Uani 0.40 1 d P . .
H2X H 0.2117 0.7879 0.9934 0.057 Uiso 0.40 1 d PR . .
H2Y H 0.2367 0.7670 0.9451 0.057 Uiso 0.40 1 d PR . .
O3 O 0.29454(16) 0.8249(2) 0.4016(4) 0.0569(15) Uani 0.40 1 d P . .
H3X H 0.3160 0.8058 0.4344 0.068 Uiso 0.40 1 d PR . .
H3Y H 0.3052 0.8527 0.4092 0.068 Uiso 0.40 1 d PR . .
O4 O 0.0000 0.89893(11) 0.2500 0.0396(7) Uani 0.80 2 d SP . .
H4X H 0.0246 0.8832 0.2676 0.047 Uiso 0.40 1 d PR . .
H4Y H -0.0227 0.8818 0.2142 0.047 Uiso 0.40 1 d PR . .
O5 O 0.22300(15) 0.75706(15) 0.4080(3) 0.0391(10) Uani 0.40 1 d P . .
H5X H 0.2037 0.7479 0.4308 0.047 Uiso 0.40 1 d PR . .
H5Y H 0.2436 0.7362 0.4199 0.047 Uiso 0.40 1 d PR . .
O6 O 0.46087(11) 0.93182(14) 0.1100(3) 0.0371(8) Uani 0.50 1 d P . .
H6X H 0.4693 0.8996 0.1072 0.045 Uiso 0.50 1 d PR . .
O7 O 0.03529(13) 0.92349(15) 0.4064(3) 0.0489(10) Uani 0.50 1 d P . .
H7X H 0.0493 0.9367 0.3647 0.059 Uiso 0.50 1 d PR . .
S1 S 0.27295(2) 1.04991(3) 0.40326(5) 0.04190(17) Uani 1 1 d . . .
S2 S 0.22913(3) 1.05043(3) 0.09745(5) 0.04066(17) Uani 1 1 d . . .
S3 S -0.02124(3) 0.70098(3) 0.09698(5) 0.04805(19) Uani 1 1 d . . .
S4 S 0.52210(2) 0.69881(2) 0.40323(5) 0.03362(15) Uani 1 1 d . . .
Zn1 Zn 0.250780(10) 1.014646(11) 0.25006(2) 0.03508(9) Uani 1 1 d . . .
Zn2 Zn 0.0000 0.736486(18) 0.2500 0.04384(13) Uani 1 2 d S . .
Zn3 Zn 0.5000 0.734618(15) 0.2500 0.03041(11) Uani 1 2 d S . .

loop_
_atom_site_aniso_label
_atom_site_aniso_U_11
_atom_site_aniso_U_22
_atom_site_aniso_U_33
_atom_site_aniso_U_23
_atom_site_aniso_U_13
_atom_site_aniso_U_12
C1 0.0347(13) 0.0372(15) 0.0336(13) 0.0049(11) 0.0076(11) 0.0100(12)
C2 0.0373(14) 0.0389(15) 0.0490(16) 0.0031(13) 0.0151(12) 0.0050(12)
C3 0.0327(14) 0.0581(19) 0.0479(16) -0.0197(14) 0.0106(12) -0.0222(14)
C4 0.0444(15) 0.0558(18) 0.0346(14) -0.0050(13) 0.0193(12) -0.0269(14)
C5 0.0616(17) 0.0203(12) 0.0527(16) 0.0121(11) 0.0288(14) -0.0103(12)
C6 0.0515(15) 0.0312(14) 0.0373(14) 0.0070(11) 0.0177(12) -0.0126(12)
C7 0.0517(16) 0.0313(13) 0.0366(13) 0.0101(11) 0.0171(12) -0.0170(12)
C8 0.0396(14) 0.0427(16) 0.0309(13) 0.0004(12) 0.0052(11) 0.0179(13)
C9 0.0492(16) 0.0479(17) 0.0445(16) 0.0007(14) 0.0166(14) 0.0014(14)
C10 0.0548(19) 0.0464(18) 0.0513(17) 0.0138(14) 0.0129(15) 0.0100(15)
C11 0.0578(18) 0.0541(19) 0.0268(13) 0.0184(13) 0.0099(13) 0.0249(16)
C12 0.0411(15) 0.067(2) 0.0374(15) 0.0141(15) 0.0102(13) 0.0286(16)
C13 0.0382(14) 0.0320(14) 0.0500(16) 0.0053(12) 0.0121(12) 0.0068(12)
C14 0.0558(18) 0.0427(17) 0.0556(17) 0.0152(14) 0.0254(15) 0.0219(14)
C15 0.0549(17) 0.0501(18) 0.0361(15) -0.0119(13) 0.0045(13) -0.0035(15)
C16 0.0521(18) 0.0456(18) 0.068(2) -0.0250(16) 0.0133(16) -0.0058(16)
C17 0.0421(15) 0.0468(16) 0.0323(13) -0.0008(12) 0.0139(12) 0.0003(13)
C18 0.0292(13) 0.071(2) 0.0248(12) 0.0002(13) 0.0033(10) -0.0076(14)
C19 0.0325(13) 0.066(2) 0.0257(12) 0.0085(13) 0.0016(11) -0.0048(14)
C20 0.0462(16) 0.0463(17) 0.0320(14) 0.0090(12) 0.0109(12) -0.0077(13)
C21 0.0516(17) 0.0524(18) 0.0312(14) 0.0114(13) 0.0129(13) -0.0094(15)
C22 0.0361(15) 0.078(2) 0.0342(14) 0.0120(15) 0.0123(12) -0.0130(15)
C23 0.0444(15) 0.0429(17) 0.0356(14) -0.0109(12) 0.0116(12) -0.0049(13)
C24 0.0646(18) 0.0521(18) 0.0146(11) 0.0040(11) 0.0126(12) -0.0118(15)
C25 0.059(4) 0.066(4) 0.045(3) -0.016(3) 0.023(3) -0.005(3)
C26 0.057(4) 0.049(4) 0.066(4) -0.009(3) 0.023(3) -0.014(3)
C27 0.046(3) 0.071(5) 0.049(4) -0.008(3) 0.014(3) -0.008(3)
C28 0.057(4) 0.050(4) 0.037(3) 0.000(3) -0.003(3) -0.030(3)
C29 0.044(3) 0.079(5) 0.035(3) -0.002(3) 0.006(3) -0.027(3)
C30 0.051(3) 0.067(4) 0.051(3) 0.009(3) 0.032(3) -0.016(3)
C31 0.073(4) 0.060(4) 0.047(3) -0.018(3) 0.023(3) -0.032(4)
C32 0.0352(13) 0.0352(14) 0.0366(13) 0.0035(11) 0.0130(11) 0.0214(11)
C33 0.0382(13) 0.0512