####################################################################### 
# 
# This file contains crystal structure data downloaded from the 
# Cambridge Structural Database (CSD) hosted by the Cambridge 
# Crystallographic Data Centre (CCDC).
# 
# Full information about CCDC data access policies and citation 
# guidelines are available at http://www.ccdc.cam.ac.uk/access/V1 
# 
# Audit and citation data items may have been added by the CCDC. 
# Please retain this information to preserve the provenance of 
# this file and to allow appropriate attribution of the data. 
# 
#######################################################################

data_1
_audit_block_doi                 10.5517/cc1432y8
_database_code_depnum_ccdc_archive 'CCDC 1045659'
loop_
_citation_id
_citation_doi
_citation_year
1 10.1021/acs.jpcc.5b02359 2015
_audit_update_record             
;
2015-01-26 deposited with the CCDC.	2024-07-11 downloaded from the CCDC.
;
_audit_creation_date             2015-01-16
_audit_creation_method           
;
Olex2 1.2
(compiled 2015.01.06 svn.r3119 for OlexSys, GUI svn.r4979)
;
_chemical_name_common            ?
_chemical_name_systematic        
;
 ? 
;
_chemical_formula_moiety         '0.25(C56 H32 N24 O24 Zn12), C3 H7 N O'
_chemical_formula_sum            'C17 H15 N7 O7 Zn3'
_chemical_formula_weight         625.47
_chemical_melting_point          ?
loop_
_atom_type_symbol
_atom_type_description
_atom_type_scat_dispersion_real
_atom_type_scat_dispersion_imag
_atom_type_scat_source
C C 0.0033 0.0016 'International Tables Vol C Tables 4.2.6.8 and 6.1.1.4'
H H 0.0000 0.0000 'International Tables Vol C Tables 4.2.6.8 and 6.1.1.4'
N N 0.0061 0.0033 'International Tables Vol C Tables 4.2.6.8 and 6.1.1.4'
O O 0.0106 0.0060 'International Tables Vol C Tables 4.2.6.8 and 6.1.1.4'
Zn Zn 0.2839 1.4301 'International Tables Vol C Tables 4.2.6.8 and 6.1.1.4'

_space_group_crystal_system      monoclinic
_space_group_IT_number           15
_space_group_name_H-M_alt        'C 1 2/c 1'
_space_group_name_Hall           '-C 2yc'
loop_
_space_group_symop_id
_space_group_symop_operation_xyz
1 'x, y, z'
2 '-x, y, -z+1/2'
3 'x+1/2, y+1/2, z'
4 '-x+1/2, y+1/2, -z+1/2'
5 '-x, -y, -z'
6 'x, -y, z-1/2'
7 '-x+1/2, -y+1/2, -z'
8 'x+1/2, -y+1/2, z-1/2'

_cell_length_a                   17.927(4)
_cell_length_b                   12.869(3)
_cell_length_c                   11.055(2)
_cell_angle_alpha                90.00
_cell_angle_beta                 93.14(3)
_cell_angle_gamma                90.00
_cell_volume                     2546.7(9)
_cell_formula_units_Z            4
_cell_measurement_reflns_used    ?
_cell_measurement_temperature    293(2)
_cell_measurement_theta_max      ?
_cell_measurement_theta_min      ?
_exptl_absorpt_coefficient_mu    2.851
_exptl_absorpt_correction_T_max  0.867
_exptl_absorpt_correction_T_min  0.717
_exptl_absorpt_correction_type   multi-scan
_exptl_absorpt_process_details   
;                                                         
CrysAlisPro, Agilent Technologies,                        
Version 1.171.35.21 (release 20-01-2012 CrysAlis171 .NET) 
(compiled Jan 23 2012,18:06:46)                           
Empirical absorption correction using spherical harmonics,
 implemented in SCALE3 ABSPACK scaling algorithm.         
;
_exptl_crystal_colour            colorless
_exptl_crystal_density_diffrn    1.631
_exptl_crystal_density_meas      ?
_exptl_crystal_density_method    'not measured'
_exptl_crystal_description       block
_exptl_crystal_F_000             1248
_exptl_crystal_size_max          0.12
_exptl_crystal_size_mid          0.1
_exptl_crystal_size_min          0.05
_exptl_special_details           
;
 ? 
;
_diffrn_reflns_av_R_equivalents  0.0292
_diffrn_reflns_av_unetI/netI     0.0440
_diffrn_reflns_limit_h_max       21
_diffrn_reflns_limit_h_min       -22
_diffrn_reflns_limit_k_max       16
_diffrn_reflns_limit_k_min       -15
_diffrn_reflns_limit_l_max       13
_diffrn_reflns_limit_l_min       -13
_diffrn_reflns_number            6678
_diffrn_reflns_theta_full        26.37
_diffrn_reflns_theta_max         26.37
_diffrn_reflns_theta_min         3.69
_diffrn_ambient_temperature      293.15
_diffrn_detector_area_resol_mean ?
_diffrn_measured_fraction_theta_full 0.990
_diffrn_measured_fraction_theta_max 0.990
_diffrn_measurement_device_type  ?
_diffrn_measurement_method       ?
_diffrn_radiation_monochromator  graphite
_diffrn_radiation_type           MoK\a
_diffrn_radiation_wavelength     0.71073
_diffrn_source                   'fine-focus sealed tube'
_diffrn_standards_decay_%        ?
_diffrn_standards_interval_count ?
_diffrn_standards_interval_time  ?
_diffrn_standards_number         ?
_reflns_number_gt                2003
_reflns_number_total             2576
_reflns_threshold_expression     >2sigma(I)
_computing_data_collection       
;
CrysAlisPro, Agilent Technologies,
Version 1.171.35.21 (release 20-01-2012 CrysAlis171 .NET)
;
_computing_cell_refinement       
;
CrysAlisPro, Agilent Technologies,
Version 1.171.35.21 (release 20-01-2012 CrysAlis171 .NET)
;
_computing_data_reduction        
;
CrysAlisPro, Agilent Technologies,
Version 1.171.35.21 (release 20-01-2012 CrysAlis171 .NET)
;
_computing_molecular_graphics    'Olex2 (Dolomanov et al., 2009)'
_computing_publication_material  'Olex2 (Dolomanov et al., 2009)'
_computing_structure_refinement  'ShelXL (Sheldrick, 2008)'
_computing_structure_solution    'SHELXS-97 (Sheldrick, 1990)'
_refine_diff_density_max         0.908
_refine_diff_density_min         -0.648
_refine_diff_density_rms         0.116
_refine_ls_extinction_coef       ?
_refine_ls_extinction_method     none
_refine_ls_goodness_of_fit_ref   0.997
_refine_ls_hydrogen_treatment    mixed
_refine_ls_matrix_type           full
_refine_ls_number_parameters     159
_refine_ls_number_reflns         2576
_refine_ls_number_restraints     0
_refine_ls_R_factor_all          0.0490
_refine_ls_R_factor_gt           0.0376
_refine_ls_restrained_S_all      0.997
_refine_ls_shift/su_max          0.040
_refine_ls_shift/su_mean         0.002
_refine_ls_structure_factor_coef Fsqd
_refine_ls_weighting_details     
'calc w=1/[\s^2^(Fo^2^)+(0.0721P)^2^+0.0000P] where P=(Fo^2^+2Fc^2^)/3'
_refine_ls_weighting_scheme      calc
_refine_ls_wR_factor_gt          0.1057
_refine_ls_wR_factor_ref         0.1081
_refine_special_details          
;
 Refinement of F^2^ against ALL reflections.  The weighted R-factor wR and 
 goodness of fit S are based on F^2^, conventional R-factors R are based 
 on F, with F set to zero for negative F^2^. The threshold expression of 
 F^2^ > 2sigma(F^2^) is used only for calculating R-factors(gt) etc. and is 
 not relevant to the choice of reflections for refinement.  R-factors based 
 on F^2^ are statistically about twice as large as those based on F, and R- 
 factors based on ALL data will be even larger. 
;
_olex2_refinement_description    
;
1. Fixed Uiso
 At 1.2 times of:
  All C(H) groups
 At 1.5 times of:
  All C(H,H,H) groups
2. Uiso/Uaniso restraints and constraints
Uanis(O4) = Uanis(C10) = Uanis(N1) = Uanis(C4) = Uanis(C9)
3. Others
 Fixed Sof: C9(0.5) H9A(0.5) H9B(0.5) H9C(0.5) C10(0.5) H10(0.5) O4(0.5)
 N1(0.5) C4(0.5) H4A(0.5) H4B(0.5) H4C(0.5)
4.a Aromatic/amide H refined with riding coordinates:
 C3(H3), C6(H6), C7(H7), C10(H10)
4.b Idealised Me refined as rotating group:
 C9(H9A,H9B,H9C), C4(H4A,H4B,H4C)
;
_atom_sites_solution_hydrogens   geom
_atom_sites_solution_primary     direct
_atom_sites_solution_secondary   difmap
loop_
_atom_site_label
_atom_site_type_symbol
_atom_site_fract_x
_atom_site_fract_y
_atom_site_fract_z
_atom_site_U_iso_or_equiv
_atom_site_adp_type
_atom_site_occupancy
_atom_site_calc_flag
_atom_site_disorder_assembly
_atom_site_disorder_group
_atom_site_site_symmetry_order
_atom_site_refinement_flags_posn
_atom_site_refinement_flags_adp
_atom_site_refinement_flags_occupancy
Zn1 Zn 0.41923(2) 0.05185(4) -0.00106(4) 0.01816(16) Uani 1 d . . 1 . . .
Zn2 Zn 0.5000 0.10186(5) -0.2500 0.01612(18) Uani 1 d . . 2 S T P
C0AA C 0.3651(2) 0.2256(3) -0.1703(3) 0.0221(8) Uani 1 d . . 1 . . .
C2 C 0.3012(2) 0.2930(3) -0.2210(3) 0.0249(9) Uani 1 d . . 1 . . .
C3 C 0.2472(2) 0.3292(3) -0.1478(3) 0.0225(8) Uani 1 d . . 1 . . .
H3 H 0.2491 0.3154 -0.0652 0.027 Uiso 1 calc . . 1 R . .
C1AA C 0.1889(2) 0.3884(3) -0.2047(3) 0.0204(8) Uani 1 d . . 1 . . .
C5 C 0.1875(2) 0.4101(3) -0.3285(3) 0.0230(9) Uani 1 d . . 1 . . .
C6 C 0.2431(2) 0.3747(4) -0.4010(4) 0.0328(10) Uani 1 d . . 1 . . .
H6 H 0.2421 0.3900 -0.4833 0.039 Uiso 1 calc . . 1 R . .
C7 C 0.2988(2) 0.3169(4) -0.3470(4) 0.0345(11) Uani 1 d . . 1 . . .
H7 H 0.3366 0.2922 -0.3936 0.041 Uiso 1 calc . . 1 R . .
C9 C 0.3836(9) 0.3799(12) -0.8481(14) 0.0885(19) Uani 0.50 d . . 1 . . .
H9A H 0.4069 0.4430 -0.8731 0.133 Uiso 0.50 calc . . 1 GR . .
H9B H 0.3312 0.3822 -0.8708 0.133 Uiso 0.50 calc . . 1 GR . .
H9C H 0.4059 0.3217 -0.8868 0.133 Uiso 0.50 calc . . 1 GR . .
C10 C 0.4341(9) 0.2823(12) -0.6447(15) 0.0885(19) Uani 0.50 d . . 1 . . .
H10 H 0.4548 0.2299 -0.6900 0.106 Uiso 0.50 calc . . 1 R . .
H3A H 0.538(3) 0.140(4) -0.033(5) 0.046(15) Uiso 1 d . . 1 . . .
N0AA N 0.12728(18) 0.4352(3) -0.1611(3) 0.0205(7) Uani 1 d . . 1 . . .
N2 N 0.09047(17) 0.4824(3) -0.2539(3) 0.0197(7) Uani 1 d . . 1 . . .
N3 N 0.12593(17) 0.4687(3) -0.3556(3) 0.0210(7) Uani 1 d . . 1 . . .
O1 O 0.35978(15) 0.1870(2) -0.0669(2) 0.0297(7) Uani 1 d . . 1 . . .
O2 O 0.41789(15) 0.2123(2) -0.2390(3) 0.0310(7) Uani 1 d . . 1 . . .
O3 O 0.51720(14) 0.0854(2) -0.0651(2) 0.0168(5) Uani 1 d . . 1 . . .
O4 O 0.4420(6) 0.2721(8) -0.5528(10) 0.0885(19) Uani 0.50 d . . 1 . . .
N1 N 0.3936(7) 0.3694(10) -0.7235(12) 0.0885(19) Uani 0.50 d . . 1 . . .
C4 C 0.3732(10) 0.4419(11) -0.6507(15) 0.0885(19) Uani 0.50 d . . 1 . . .
H4A H 0.4164 0.4699 -0.6072 0.133 Uiso 0.50 calc . . 1 GR . .
H4B H 0.3399 0.4132 -0.5944 0.133 Uiso 0.50 calc . . 1 GR . .
H4C H 0.3482 0.4961 -0.6967 0.133 Uiso 0.50 calc . . 1 GR . .

loop_
_atom_site_aniso_label
_atom_site_aniso_U_11
_atom_site_aniso_U_22
_atom_site_aniso_U_33
_atom_site_aniso_U_23
_atom_site_aniso_U_13
_atom_site_aniso_U_12
Zn1 0.0143(2) 0.0309(3) 0.0094(2) -0.00113(17) 0.00232(15) 0.00129(18)
Zn2 0.0130(3) 0.0241(4) 0.0114(3) 0.000 0.0023(2) 0.000
C0AA 0.0203(19) 0.029(2) 0.0178(18) 0.0026(16) 0.0044(15) 0.0090(17)
C2 0.0189(19) 0.039(2) 0.0165(18) 0.0055(17) 0.0033(14) 0.0129(19)
C3 0.023(2) 0.031(2) 0.0138(17) 0.0046(16) 0.0029(14) 0.0092(17)
C1AA 0.0200(19) 0.025(2) 0.0167(18) 0.0011(15) 0.0048(14) 0.0063(17)
C5 0.020(2) 0.035(2) 0.0140(18) -0.0003(16) 0.0021(14) 0.0072(18)
C6 0.033(2) 0.054(3) 0.0118(18) 0.0043(19) 0.0076(16) 0.017(2)
C7 0.031(2) 0.055(3) 0.019(2) 0.003(2) 0.0107(17) 0.020(2)
C9 0.097(4) 0.074(3) 0.095(5) 0.038(4) 0.016(4) 0.014(3)
C10 0.097(4) 0.074(3) 0.095(5) 0.038(4) 0.016(4) 0.014(3)
N0AA 0.0163(16) 0.0331(19) 0.0122(15) 0.0023(13) 0.0012(12) 0.0075(14)
N2 0.0186(16) 0.0293(18) 0.0113(15) 0.0006(13) 0.0020(12) 0.0061(14)
N3 0.0186(17) 0.0359(19) 0.0088(14) -0.0004(13) 0.0032(12) 0.0039(15)
O1 0.0276(16) 0.0415(18) 0.0207(14) 0.0097(13) 0.0074(12) 0.0167(13)
O2 0.0246(15) 0.0426(17) 0.0267(15) 0.0127(14) 0.0105(12) 0.0197(14)
O3 0.0156(13) 0.0229(14) 0.0120(12) -0.0006(11) 0.0010(10) 0.0009(12)
O4 0.097(4) 0.074(3) 0.095(5) 0.038(4) 0.016(4) 0.014(3)
N1 0.097(4) 0.074(3) 0.095(5) 0.038(4) 0.016(4) 0.014(3)
C4 0.097(4) 0.074(3) 0.095(5) 0.038(4) 0.016(4) 0.014(3)

_geom_special_details            
;
 All esds (except the esd in the dihedral angle between two l.s. planes) 
 are estimated using the full covariance matrix.  The cell esds are taken 
 into account individually in the estimation of esds in distances, angles 
 and torsion angles; correlations between esds in cell parameters are only 
 used when they are defined by crystal symmetry.  An approximate (isotropic) 
 treatment of cell esds is used for estimating esds involving l.s. planes. 
;
loop_
_geom_bond_atom_site_label_1
_geom_bond_atom_site_label_2
_geom_bond_distance
_geom_bond_site_symmetry_2
_geom_bond_publ_flag
Zn1 N0AA 2.025(3) 7 ?
Zn1 N3 2.042(3) 4_544 ?
Zn1 O1 2.147(3) . ?
Zn1 O3 1.977(3) . ?
Zn1 O3 2.205(3) 5_655 ?
Zn2 N2 2.237(3) 3_545 ?
Zn2 N2 2.237(3) 4_544 ?
Zn2 O2 2.055(3) . ?
Zn2 O2 2.055(3) 2_654 ?
Zn2 O3 2.061(2) 2_654 ?
Zn2 O3 2.061(2) . ?
C0AA C2 1.520(5) . ?
C0AA O1 1.254(4) . ?
C0AA O2 1.257(4) . ?
C2 C3 1.376(5) . ?
C2 C7 1.424(5) . ?
C3 H3 0.9300 . ?
C3 C1AA 1.413(5) . ?
C1AA C5 1.396(5) . ?
C1AA N0AA 1.369(5) . ?
C5 C6 1.389(5) . ?
C5 N3 1.357(5) . ?
C6 H6 0.9300 . ?
C6 C7 1.357(6) . ?
C7 H7 0.9300 . ?
C9 H9A 0.9600 . ?
C9 H9B 0.9600 . ?
C9 H9C 0.9600 . ?
C9 N1 1.386(18) . ?
C10 H10 0.9300 . ?
C10 O4 1.026(17) . ?
C10 N1 1.573(18) . ?
N0AA Zn1 2.025(3) 7 ?
N0AA N2 1.335(4) . ?
N2 Zn2 2.237(3) 3_455 ?
N2 N3 1.333(4) . ?
N3 Zn1 2.042(3) 4_554 ?
O3 Zn1 2.205(3) 5_655 ?
O3 H3A 0.86(5) . ?
N1 C4 1.297(19) . ?
C4 H4A 0.9600 . ?
C4 H4B 0.9600 . ?
C4 H4C 0.9600 . ?

loop_
_geom_angle_atom_site_label_1
_geom_angle_atom_site_label_2
_geom_angle_atom_site_label_3
_geom_angle
_geom_angle_site_symmetry_1
_geom_angle_site_symmetry_3
_geom_angle_publ_flag
N0AA Zn1 N3 124.41(13) 7 4_544 ?
N0AA Zn1 O1 90.74(11) 7 . ?
N0AA Zn1 O3 90.14(11) 7 5_655 ?
N3 Zn1 O1 89.59(12) 4_544 . ?
N3 Zn1 O3 90.79(12) 4_544 5_655 ?
O1 Zn1 O3 178.61(10) . 5_655 ?
O3 Zn1 N0AA 135.74(12) . 7 ?
O3 Zn1 N3 99.12(12) . 4_544 ?
O3 Zn1 O1 97.81(11) . . ?
O3 Zn1 O3 80.81(11) . 5_655 ?
N2 Zn2 N2 93.16(17) 4_544 3_545 ?
O2 Zn2 N2 177.67(11) 2_654 4_544 ?
O2 Zn2 N2 87.24(12) . 4_544 ?
O2 Zn2 N2 177.67(11) . 3_545 ?
O2 Zn2 N2 87.24(12) 2_654 3_545 ?
O2 Zn2 O2 92.45(18) 2_654 . ?
O2 Zn2 O3 93.52(11) 2_654 . ?
O2 Zn2 O3 94.66(11) 2_654 2_654 ?
O2 Zn2 O3 94.66(11) . . ?
O2 Zn2 O3 93.52(11) . 2_654 ?
O3 Zn2 N2 88.81(11) 2_654 3_545 ?
O3 Zn2 N2 83.06(10) . 3_545 ?
O3 Zn2 N2 83.06(10) 2_654 4_544 ?
O3 Zn2 N2 88.81(11) . 4_544 ?
O3 Zn2 O3 168.18(16) 2_654 . ?
O1 C0AA C2 117.9(3) . . ?
O1 C0AA O2 126.5(3) . . ?
O2 C0AA C2 115.6(3) . . ?
C3 C2 C0AA 121.1(3) . . ?
C3 C2 C7 121.1(3) . . ?
C7 C2 C0AA 117.8(3) . . ?
C2 C3 H3 121.7 . . ?
C2 C3 C1AA 116.6(3) . . ?
C1AA C3 H3 121.7 . . ?
C5 C1AA C3 121.1(3) . . ?
N0AA C1AA C3 132.3(3) . . ?
N0AA C1AA C5 106.6(3) . . ?
C6 C5 C1AA 121.7(4) . . ?
N3 C5 C1AA 107.3(3) . . ?
N3 C5 C6 131.0(4) . . ?
C5 C6 H6 121.3 . . ?
C7 C6 C5 117.4(4) . . ?
C7 C6 H6 121.3 . . ?
C2 C7 H7 119.0 . . ?
C6 C7 C2 122.0(4) . . ?
C6 C7 H7 119.0 . . ?
H9A C9 H9B 109.5 . . ?
H9A C9 H9C 109.5 . . ?
H9B C9 H9C 109.5 . . ?
N1 C9 H9A 109.5 . . ?
N1 C9 H9B 109.5 . . ?
N1 C9 H9C 109.5 . . ?
O4 C10 H10 113.8 . . ?
O4 C10 N1 132.4(17) . . ?
N1 C10 H10 113.8 . . ?
C1AA N0AA Zn1 136.6(3) . 7 ?
N2 N0AA Zn1 115.6(2) . 7 ?
N2 N0AA C1AA 107.7(3) . . ?
N0AA N2 Zn2 128.8(2) . 3_455 ?
N3 N2 Zn2 119.1(2) . 3_455 ?
N3 N2 N0AA 110.5(3) . . ?
C5 N3 Zn1 138.2(2) . 4_554 ?
N2 N3 Zn1 113.5(2) . 4_554 ?
N2 N3 C5 107.9(3) . . ?
C0AA O1 Zn1 124.7(2) . . ?
C0AA O2 Zn2 134.1(3) . . ?
Zn1 O3 Zn1 99.19(11) . 5_655 ?
Zn1 O3 Zn2 106.87(12) . . ?
Zn1 O3 H3A 114(3) . . ?
Zn1 O3 H3A 108(3) 5_655 . ?
Zn2 O3 Zn1 117.26(12) . 5_655 ?
Zn2 O3 H3A 111(3) . . ?
C9 N1 C10 130.6(14) . . ?
C4 N1 C9 121.4(13) . . ?
C4 N1 C10 107.8(13) . . ?
N1 C4 H4A 109.5 . . ?
N1 C4 H4B 109.5 . . ?
N1 C4 H4C 109.5 . . ?
H4A C4 H4B 109.5 . . ?
H4A C4 H4C 109.5 . . ?
H4B C4 H4C 109.5 . . ?

_olex2_submission_special_instructions 'No special instructions were received'
