####################################################################### 
# 
# This file contains crystal structure data downloaded from the 
# Cambridge Structural Database (CSD) hosted by the Cambridge 
# Crystallographic Data Centre (CCDC).
# 
# Full information about CCDC data access policies and citation 
# guidelines are available at http://www.ccdc.cam.ac.uk/access/V1 
# 
# Audit and citation data items may have been added by the CCDC. 
# Please retain this information to preserve the provenance of 
# this file and to allow appropriate attribution of the data. 
# 
#######################################################################

data_Co-L-GGazobipy
_audit_block_doi                 10.5517/cc13pszk
_database_code_depnum_ccdc_archive 'CCDC 1033849'
loop_
_citation_id
_citation_doi
_citation_year
1 10.1002/chem.201501315 2015
_audit_update_record             
;
2014-11-12 deposited with the CCDC.	2024-07-11 downloaded from the CCDC.
;

_audit_creation_method           SHELXL-2013
_chemical_name_systematic        
;
 ?
;
_chemical_name_common            ?
_chemical_melting_point          ?
_chemical_formula_moiety         'C24 H26 Co2 N8 O12'
_chemical_formula_sum            'C24 H26 Co2 N8 O12'
_chemical_formula_weight         736.39

loop_
_atom_type_symbol
_atom_type_description
_atom_type_scat_dispersion_real
_atom_type_scat_dispersion_imag
_atom_type_scat_source
C C 0.0033 0.0016 'International Tables Vol C Tables 4.2.6.8 and 6.1.1.4'
N N 0.0061 0.0033 'International Tables Vol C Tables 4.2.6.8 and 6.1.1.4'
O O 0.0106 0.0060 'International Tables Vol C Tables 4.2.6.8 and 6.1.1.4'
Co Co 0.3494 0.9721 'International Tables Vol C Tables 4.2.6.8 and 6.1.1.4'
H H 0.0000 0.0000 'International Tables Vol C Tables 4.2.6.8 and 6.1.1.4'

_space_group_crystal_system      triclinic
_space_group_IT_number           1
_space_group_name_H-M_alt        'P 1'
_space_group_name_Hall           'P 1'

_shelx_space_group_comment       
;
The symmetry employed for this shelxl refinement is uniquely defined
by the following loop, which should always be used as a source of
symmetry information in preference to the above space-group names.
They are only intended as comments.
;

loop_
_space_group_symop_operation_xyz
'x, y, z'

_cell_length_a                   5.471(6)
_cell_length_b                   9.501(6)
_cell_length_c                   18.045(6)
_cell_angle_alpha                77.39(3)
_cell_angle_beta                 83.99(3)
_cell_angle_gamma                89.86(3)
_cell_volume                     910.1(12)
_cell_formula_units_Z            1
_cell_measurement_temperature    100(2)
_cell_measurement_reflns_used    1485
_cell_measurement_theta_min      2.20
_cell_measurement_theta_max      20.67

_exptl_crystal_description       prism
_exptl_crystal_colour            pink
_exptl_crystal_density_meas      ?
_exptl_crystal_density_method    ?
_exptl_crystal_density_diffrn    ?
_exptl_crystal_F_000             536
_exptl_transmission_factor_min   ?
_exptl_transmission_factor_max   ?
_exptl_crystal_size_max          0.20
_exptl_crystal_size_mid          0.12
_exptl_crystal_size_min          0.10
_exptl_absorpt_coefficient_mu    ?
_shelx_estimated_absorpt_T_min   ?
_shelx_estimated_absorpt_T_max   ?
_exptl_absorpt_correction_type   empirical
_exptl_absorpt_correction_T_min  0.494555
_exptl_absorpt_correction_T_max  1.000000
_exptl_absorpt_process_details   'SADABS v2.10 BRUKER'

_exptl_special_details           
;
 ?
;

_diffrn_ambient_temperature      100(2)
_diffrn_radiation_wavelength     0.71073
_diffrn_radiation_type           MoK\a
_diffrn_source                   'sealed tube'
_diffrn_radiation_monochromator  graphite
_diffrn_measurement_device_type  'CCD area detector'
_diffrn_measurement_method       'phi and omega scans'
_diffrn_detector_area_resol_mean ?
_diffrn_reflns_number            12016
_diffrn_reflns_av_unetI/netI     0.2082
_diffrn_reflns_av_R_equivalents  0.0984
_diffrn_reflns_limit_h_min       -6
_diffrn_reflns_limit_h_max       6
_diffrn_reflns_limit_k_min       -11
_diffrn_reflns_limit_k_max       11
_diffrn_reflns_limit_l_min       -22
_diffrn_reflns_limit_l_max       22
_diffrn_reflns_theta_min         2.702
_diffrn_reflns_theta_max         26.369
_diffrn_reflns_theta_full        25.242
_diffrn_measured_fraction_theta_max 0.989
_diffrn_measured_fraction_theta_full 0.994
_diffrn_reflns_Laue_measured_fraction_max 0.989
_diffrn_reflns_Laue_measured_fraction_full 0.994
_diffrn_reflns_point_group_measured_fraction_max 0.989
_diffrn_reflns_point_group_measured_fraction_full 0.994
_reflns_number_total             7065
_reflns_number_gt                4179
_reflns_threshold_expression     'I > 2\s(I)'
_reflns_Friedel_coverage         1.000
_reflns_Friedel_fraction_max     0.989
_reflns_Friedel_fraction_full    0.994

_reflns_special_details          
;
 Reflections were merged by SHELXL according to the crystal
 class for the calculation of statistics and refinement.
 
 _reflns_Friedel_fraction is defined as the number of unique
 Friedel pairs measured divided by the number that would be
 possible theoretically, ignoring centric projections and
 systematic absences.
;

_computing_data_collection       'Bruker SMART'
_computing_cell_refinement       'Bruker SMART'
_computing_data_reduction        'Bruker SAINT'
_computing_structure_solution    'Bruker SHELXTL'
_computing_structure_refinement  'SHELXL-2013 (Sheldrick, 2013)'
_computing_molecular_graphics    'Bruker SHELXTL'
_computing_publication_material  'Bruker SHELXTL'

_refine_special_details          
;
 Refined as a 2-component inversion twin.
;
_refine_ls_structure_factor_coef Fsqd
_refine_ls_matrix_type           full
_refine_ls_weighting_scheme      calc
_refine_ls_weighting_details     
;
 w=1/[\s^2^(Fo^2^)+(0.2000P)^2^]
 where P=(Fo^2^+2Fc^2^)/3
;
_atom_sites_solution_primary     ?
_atom_sites_solution_secondary   ?
_atom_sites_solution_hydrogens   geom
_refine_ls_hydrogen_treatment    constr
_refine_ls_extinction_method     none
_refine_ls_extinction_coef       .
_refine_ls_abs_structure_details 
;
 Refined as an inversion twin.
;
_refine_ls_abs_structure_Flack   0.13(7)
_chemical_absolute_configuration syn
_refine_ls_number_reflns         7065
_refine_ls_number_parameters     369
_refine_ls_number_restraints     142
_refine_ls_R_factor_all          0.1819
_refine_ls_R_factor_gt           0.1157
_refine_ls_wR_factor_ref         0.3311
_refine_ls_wR_factor_gt          0.2816
_refine_ls_goodness_of_fit_ref   1.004
_refine_ls_restrained_S_all      1.003
_refine_ls_shift/su_max          0.000
_refine_ls_shift/su_mean         0.000

loop_
_atom_site_label
_atom_site_type_symbol
_atom_site_fract_x
_atom_site_fract_y
_atom_site_fract_z
_atom_site_U_iso_or_equiv
_atom_site_adp_type
_atom_site_occupancy
_atom_site_site_symmetry_order
_atom_site_calc_flag
_atom_site_refinement_flags_posn
_atom_site_refinement_flags_adp
_atom_site_refinement_flags_occupancy
_atom_site_disorder_assembly
_atom_site_disorder_group
Co1 Co 0.8790(3) 0.9373(2) 0.64830(15) 0.0224(7) Uani 1 1 d . . . . .
Co2 Co 0.5804(3) 0.5641(2) 0.34496(15) 0.0195(7) Uani 1 1 d . . . . .
O10 O 0.622(3) 0.4823(15) 0.4675(8) 0.025(3) Uani 1 1 d . . . . .
O5 O 0.828(2) 0.9604(15) 0.5262(8) 0.021(3) Uani 1 1 d . U . . .
O6 O 0.639(3) 0.7691(15) 0.6736(8) 0.027(3) Uani 1 1 d . . . . .
N3 N 0.428(3) 1.3564(16) 0.5792(9) 0.019(3) Uani 1 1 d . . . . .
H3 H 0.2876 1.3229 0.6021 0.022 Uiso 1 1 calc R U . . .
O8 O 0.606(2) 1.0921(13) 0.6483(7) 0.028 Uani 1 1 d . U . . .
O2 O 0.811(3) 0.4200(15) 0.3194(8) 0.031(4) Uani 1 1 d . . . . .
N1 N 1.030(3) 0.9299(18) 0.4143(9) 0.024(4) Uani 1 1 d . . . . .
H1 H 1.1717 0.9176 0.3916 0.028 Uiso 1 1 calc R U . . .
O3 O 0.851(2) 0.7158(13) 0.3495(7) 0.025(3) Uani 1 1 d . U . . .
O9 O 0.977(2) 1.1855(16) 0.6327(8) 0.028(3) Uani 1 1 d . . . . .
O4 O 0.478(2) 0.7986(15) 0.3626(8) 0.025(3) Uani 1 1 d . . . . .
C6 C 1.012(3) 0.921(2) 0.4889(11) 0.022(4) Uani 1 1 d . U . . .
C10 C 0.549(4) 0.371(2) 0.7053(11) 0.023(4) Uani 1 1 d . U . . .
H10A H 0.4006 0.3133 0.7245 0.027 Uiso 1 1 calc R U . . .
H10B H 0.6723 0.3394 0.7398 0.027 Uiso 1 1 calc R U . . .
C4 C 0.820(3) 0.959(2) 0.3672(12) 0.024(4) Uani 1 1 d . U . . .
H4 H 0.6952 1.0120 0.3925 0.029 Uiso 1 1 calc R U . . .
O7 O 0.918(3) 0.599(2) 0.6829(17) 0.085(8) Uani 1 1 d . U . . .
N4 N 0.228(3) 0.4970(17) 0.3908(9) 0.022(3) Uani 1 1 d . . . . .
H4A H 0.1340 0.5808 0.3977 0.026 Uiso 1 1 calc R U . . .
H4B H 0.1514 0.4544 0.3546 0.026 Uiso 1 1 calc R U . . .
C13 C 0.448(3) 0.415(2) 0.5033(10) 0.021(4) Uani 1 1 d . . . . .
O1 O 0.546(3) 1.255(2) 0.3062(17) 0.087(9) Uani 1 1 d . U . . .
C11 C 0.642(3) 1.349(2) 0.6241(10) 0.022(4) Uani 1 1 d . . . . .
H11 H 0.7650 1.4237 0.5988 0.026 Uiso 1 1 calc R U . . .
C3 C 0.896(4) 1.045(2) 0.2898(12) 0.025(4) Uani 1 1 d . . . . .
H3A H 0.7630 1.0436 0.2583 0.030 Uiso 1 1 calc R U . . .
H3B H 1.0367 1.0004 0.2675 0.030 Uiso 1 1 calc R U . . .
C1 C 0.756(4) 1.298(3) 0.3084(15) 0.040(6) Uani 1 1 d . U . . .
C14 C 0.213(4) 0.391(2) 0.4648(12) 0.033(5) Uani 1 1 d . . . . .
C2 C 0.965(4) 1.208(2) 0.2894(15) 0.037(6) Uani 1 1 d . . . . .
H2A H 1.0844 1.2074 0.3256 0.045 Uiso 1 1 calc R U . . .
H2B H 1.0444 1.2524 0.2391 0.045 Uiso 1 1 calc R U . . .
C8 C 0.690(4) 0.635(3) 0.6865(14) 0.034(5) Uani 1 1 d . U . . .
C7 C 1.232(4) 0.861(2) 0.5299(11) 0.027(4) Uani 1 1 d . . . . .
H7A H 1.2262 0.7562 0.5404 0.032 Uiso 1 1 calc R U . . .
H7B H 1.3838 0.8940 0.4978 0.032 Uiso 1 1 calc R U . . .
C5 C 0.709(3) 0.818(2) 0.3603(11) 0.021(4) Uani 1 1 d . U . . .
N7 N 1.313(5) 0.761(3) 1.0053(19) 0.075(9) Uani 1 1 d . . . . .
N2 N 1.226(3) 0.9099(18) 0.6015(8) 0.021(3) Uani 1 1 d . . . . .
H2C H 1.3170 1.0006 0.5921 0.025 Uiso 1 1 calc R U . . .
H2D H 1.3077 0.8400 0.6379 0.025 Uiso 1 1 calc R U . . .
N6 N 1.166(8) 0.825(4) 0.9886(16) 0.113(16) Uani 1 1 d . . . . .
C12 C 0.753(3) 1.2023(19) 0.6316(9) 0.013(3) Uani 1 1 d . . . . .
C22 C 0.598(3) 0.654(3) 0.0959(8) 0.113(12) Uani 1 1 d G U . . .
H22 H 0.7060 0.6377 0.0556 0.135 Uiso 1 1 calc R U . . .
C23 C 0.374(4) 0.719(3) 0.0818(7) 0.079(10) Uani 1 1 d G U . . .
C21 C 0.212(3) 0.744(3) 0.1421(9) 0.108(12) Uani 1 1 d G U . . .
H21 H 0.0623 0.7868 0.1326 0.130 Uiso 1 1 calc R U . . .
C24 C 0.274(3) 0.704(2) 0.2165(8) 0.036(5) Uani 1 1 d G U . . .
H24 H 0.1654 0.7202 0.2568 0.044 Uiso 1 1 calc R U . . .
N8 N 0.497(2) 0.6391(19) 0.2306(6) 0.035(5) Uani 1 1 d G U . . .
C20 C 0.659(3) 0.614(3) 0.1703(9) 0.090(11) Uani 1 1 d G U . . .
H20 H 0.8090 0.5712 0.1797 0.108 Uiso 1 1 calc R U . . .
C9 C 0.494(4) 0.530(2) 0.7032(12) 0.027(4) Uani 1 1 d . U . . .
H9A H 0.3785 0.5604 0.6659 0.032 Uiso 1 1 calc R U . . .
H9B H 0.4098 0.5353 0.7526 0.032 Uiso 1 1 calc R U . . .
C15 C 1.060(6) 1.0253(19) 0.7916(12) 0.124(13) Uani 1 1 d G U . . .
H15 H 1.0496 1.1202 0.7649 0.149 Uiso 1 1 calc R U . . .
C16 C 1.151(7) 0.996(3) 0.8624(14) 0.158(16) Uani 1 1 d G U . . .
H16 H 1.2010 1.0713 0.8831 0.189 Uiso 1 1 calc R U . . .
C18 C 1.168(8) 0.854(3) 0.9022(13) 0.154(16) Uani 1 1 d G U . . .
C19 C 1.093(8) 0.742(2) 0.8713(15) 0.165(16) Uani 1 1 d G U . . .
H19 H 1.1041 0.6466 0.8980 0.198 Uiso 1 1 calc R U . . .
C17 C 1.002(6) 0.7708(19) 0.8005(13) 0.119(8) Uani 1 1 d G U . . .
H17 H 0.9526 0.6955 0.7799 0.143 Uiso 1 1 calc R U . . .
N5 N 0.986(3) 0.913(2) 0.7607(8) 0.043(5) Uani 1 1 d G U . . .
O1W O 0.983(8) 0.377(5) 0.842(3) 0.18(2) Uani 1 1 d . . . . .
O2W O 0.467(8) 0.204(10) 0.155(2) 0.29(4) Uani 1 1 d . . . . .


loop_
_atom_site_aniso_label
_atom_site_aniso_U_11
_atom_site_aniso_U_22
_atom_site_aniso_U_33
_atom_site_aniso_U_23
_atom_site_aniso_U_13
_atom_site_aniso_U_12
Co1 0.0212(16) 0.0219(15) 0.0280(16) -0.0099(12) -0.0110(13) 0.0057(12)
Co2 0.0158(14) 0.0182(14) 0.0253(15) -0.0024(11) -0.0106(12) 0.0012(11)
O10 0.038(9) 0.015(7) 0.025(8) -0.009(6) -0.010(7) -0.005(7)
O5 0.017(6) 0.023(8) 0.029(8) -0.017(6) -0.008(6) 0.000(6)
O6 0.030(8) 0.029(8) 0.023(7) -0.004(6) -0.013(6) 0.006(6)
O3 0.022(7) 0.023(7) 0.031(8) -0.004(6) -0.014(6) 0.014(6)
N3 0.008(7) 0.015(8) 0.030(8) 0.004(6) -0.010(6) 0.003(6)
O2 0.038(9) 0.025(8) 0.034(8) -0.004(6) -0.022(7) 0.002(7)
N1 0.018(8) 0.035(10) 0.023(8) -0.018(7) -0.001(7) 0.001(7)
O9 0.017(7) 0.033(8) 0.036(8) -0.011(7) -0.006(6) 0.012(6)
O8 0.018(7) 0.034(8) 0.036(8) -0.013(6) -0.006(6) 0.012(6)
O4 0.017(6) 0.021(7) 0.038(8) -0.009(6) -0.002(6) -0.007(6)
C6 0.020(9) 0.019(9) 0.025(10) -0.004(7) -0.006(7) -0.001(7)
C10 0.029(11) 0.012(8) 0.027(10) -0.004(8) -0.004(8) 0.004(8)
C4 0.016(9) 0.026(10) 0.036(11) -0.017(9) -0.011(8) 0.006(8)
O7 0.020(8) 0.045(12) 0.21(3) -0.063(15) -0.040(13) 0.008(8)
N4 0.017(8) 0.016(8) 0.034(9) -0.006(7) -0.012(7) -0.001(7)
C13 0.015(9) 0.034(11) 0.018(9) -0.015(8) -0.003(8) 0.000(8)
O1 0.014(8) 0.049(12) 0.22(3) -0.078(16) -0.023(12) 0.003(8)
C11 0.018(9) 0.021(10) 0.023(10) 0.004(8) -0.009(8) -0.002(8)
C3 0.029(11) 0.019(11) 0.028(11) -0.008(8) -0.002(9) -0.003(9)
C1 0.012(9) 0.048(15) 0.056(16) 0.000(12) -0.015(10) -0.004(9)
C14 0.034(12) 0.037(12) 0.029(11) 0.005(9) -0.026(9) -0.005(10)
C2 0.038(13) 0.013(10) 0.067(17) -0.020(10) -0.009(12) 0.003(9)
C8 0.029(9) 0.035(10) 0.048(13) -0.026(10) -0.011(10) 0.014(8)
C7 0.021(10) 0.038(12) 0.024(10) -0.009(9) -0.003(8) 0.004(9)
C5 0.016(9) 0.024(9) 0.027(10) -0.012(8) -0.014(8) -0.003(8)
N7 0.058(17) 0.073(19) 0.10(2) -0.024(17) -0.025(17) 0.042(16)
N2 0.021(8) 0.026(9) 0.018(8) -0.007(7) -0.007(7) 0.001(7)
N6 0.16(4) 0.15(4) 0.042(15) -0.037(18) -0.046(19) 0.11(3)
C12 0.011(8) 0.024(9) 0.007(8) -0.009(7) 0.003(6) -0.005(7)
C22 0.068(18) 0.22(4) 0.039(11) -0.01(2) -0.015(13) 0.02(2)
C23 0.050(14) 0.16(3) 0.018(10) -0.002(15) -0.019(9) -0.009(16)
C21 0.08(2) 0.20(3) 0.042(13) -0.01(2) -0.024(12) 0.04(2)
C24 0.038(11) 0.040(13) 0.033(9) -0.004(9) -0.021(9) 0.011(10)
N8 0.015(8) 0.048(12) 0.034(9) 0.010(9) -0.002(7) -0.010(8)
C20 0.055(16) 0.17(3) 0.034(12) -0.008(17) -0.006(11) 0.048(18)
C9 0.029(11) 0.012(8) 0.027(10) -0.004(8) -0.004(8) 0.004(8
C15 0.20(3) 0.121(19) 0.054(18) 0.011(15) -0.08(2) -0.07(3)
C16 0.25(4) 0.16(3) 0.06(2) 0.014(19) -0.09(2) -0.06(3)
C18 0.24(4) 0.16(3) 0.08(2) -0.007(18) -0.11(2) 0.01(3)
C19 0.27(4) 0.14(2) 0.08(2) 0.034(19) -0.12(2) -0.03(3)
C17 0.200 0.095(16) 0.062(18) 0.017(16) -0.083(19) 0.01(3)
N5 0.048(13) 0.058(13) 0.019(9) 0.001(8) -0.005(9) 0.005(10)
O1W 0.13(3) 0.13(4) 0.29(6) -0.06(3) -0.09(4) 0.02(3)
O2W 0.10(3) 0.70(14) 0.11(3) -0.14(5) -0.05(3) 0.12(5)

_geom_special_details            
;
 All esds (except the esd in the dihedral angle between two l.s. planes)
 are estimated using the full covariance matrix.  The cell esds are taken
 into account individually in the estimation of esds in distances, angles
 and torsion angles; correlations between esds in cell parameters are only
 used when they are defined by crystal symmetry.  An approximate (isotropic)
 treatment of cell esds is used for estimating esds involving l.s. planes.
;

loop_
_geom_bond_atom_site_label_1
_geom_bond_atom_site_label_2
_geom_bond_distance
_geom_bond_site_symmetry_2
_geom_bond_publ_flag
Co1 O6 2.013(14) . ?
Co1 N2 2.035(16) . ?
Co1 O8 2.095(13) . ?
Co1 N5 2.133(12) . ?
Co1 O5 2.214(14) . ?
Co1 O9 2.368(15) . ?
Co2 O2 1.957(16) . ?
Co2 N4 2.062(15) . ?
Co2 O3 2.091(12) . ?
Co2 N8 2.127(10) . ?
Co2 O10 2.213(14) . ?
Co2 O4 2.376(14) . ?
O10 C13 1.20(2) . ?
O5 C6 1.25(2) . ?
O6 C8 1.27(3) . ?
N3 C13 1.35(2) 1_565 ?
N3 C11 1.49(2) . ?
O8 C12 1.29(2) . ?
O2 C1 1.26(3) 1_545 ?
N1 C6 1.32(2) . ?
N1 C4 1.49(2) . ?
O3 C5 1.28(2) . ?
O9 C12 1.23(2) . ?
O4 C5 1.27(2) . ?
C6 C7 1.53(3) . ?
C10 C9 1.53(3) . ?
C10 C11 1.56(3) 1_545 ?
C4 C3 1.47(3) . ?
C4 C5 1.51(3) . ?
O7 C8 1.30(3) . ?
N4 C14 1.48(2) . ?
C13 N3 1.35(2) 1_545 ?
C13 C14 1.56(2) . ?
O1 C1 1.23(3) . ?
C11 C12 1.50(3) . ?
C11 C10 1.56(3) 1_565 ?
C3 C2 1.59(3) . ?
C1 O2 1.26(3) 1_565 ?
C1 C2 1.49(3) . ?
C8 C9 1.43(3) . ?
C7 N2 1.46(2) . ?
N7 N6 1.04(3) . ?
N7 C23 1.42(8) 1_656 ?
N6 C18 1.52(3) . ?
C22 C23 1.3900 . ?
C22 C20 1.3900 . ?
C23 C21 1.3900 . ?
C23 N7 1.42(3) 1_454 ?
C21 C24 1.3900 . ?
C24 N8 1.3900 . ?
N8 C20 1.3900 . ?
C15 C16 1.3900 . ?
C15 N5 1.3900 . ?
C16 C18 1.3900 . ?
C18 C19 1.3900 . ?
C19 C17 1.3900 . ?
C17 N5 1.3900 . ?

loop_
_geom_angle_atom_site_label_1
_geom_angle_atom_site_label_2
_geom_angle_atom_site_label_3
_geom_angle
_geom_angle_site_