####################################################################### 
# 
# This file contains crystal structure data downloaded from the 
# Cambridge Structural Database (CSD) hosted by the Cambridge 
# Crystallographic Data Centre (CCDC).
# 
# Full information about CCDC data access policies and citation 
# guidelines are available at http://www.ccdc.cam.ac.uk/access/V1 
# 
# Audit and citation data items may have been added by the CCDC. 
# Please retain this information to preserve the provenance of 
# this file and to allow appropriate attribution of the data. 
# 
#######################################################################

data_Co-L-GGazinebipy
_audit_block_doi                 10.5517/cc13pt0m
_database_code_depnum_ccdc_archive 'CCDC 1033850'
loop_
_citation_id
_citation_doi
_citation_year
1 10.1002/chem.201501315 2015
_audit_update_record             
;
2014-11-12 deposited with the CCDC.	2024-07-11 downloaded from the CCDC.
;

_audit_creation_method           SHELXL-2013
_chemical_name_systematic        
;
 ?
;
_chemical_name_common            ?
_chemical_melting_point          ?
_chemical_formula_moiety         'C26 H26 Co2 N8 O10, 3(O)'
_chemical_formula_sum            'C26 H26 Co2 N8 O13'
_chemical_formula_weight         776.41

loop_
_atom_type_symbol
_atom_type_description
_atom_type_scat_dispersion_real
_atom_type_scat_dispersion_imag
_atom_type_scat_source
C C 0.0033 0.0016 'International Tables Vol C Tables 4.2.6.8 and 6.1.1.4'
N N 0.0061 0.0033 'International Tables Vol C Tables 4.2.6.8 and 6.1.1.4'
O O 0.0106 0.0060 'International Tables Vol C Tables 4.2.6.8 and 6.1.1.4'
Co Co 0.3494 0.9721 'International Tables Vol C Tables 4.2.6.8 and 6.1.1.4'
H H 0.0000 0.0000 'International Tables Vol C Tables 4.2.6.8 and 6.1.1.4'

_space_group_crystal_system      triclinic
_space_group_IT_number           1
_space_group_name_H-M_alt        'P 1'
_space_group_name_Hall           'P 1'

_shelx_space_group_comment       
;
The symmetry employed for this shelxl refinement is uniquely defined
by the following loop, which should always be used as a source of
symmetry information in preference to the above space-group names.
They are only intended as comments.
;

loop_
_space_group_symop_operation_xyz
'x, y, z'

_cell_length_a                   5.430(5)
_cell_length_b                   9.490(5)
_cell_length_c                   17.100(5)
_cell_angle_alpha                101.78(3)
_cell_angle_beta                 95.90(3)
_cell_angle_gamma                91.40(3)
_cell_volume                     857.1(10)
_cell_formula_units_Z            1
_cell_measurement_temperature    100(2)
_cell_measurement_reflns_used    1283
_cell_measurement_theta_min      2.22
_cell_measurement_theta_max      21.28

_exptl_crystal_description       prism
_exptl_crystal_colour            pink
_exptl_crystal_density_meas      ?
_exptl_crystal_density_method    ?
_exptl_crystal_density_diffrn    ?
_exptl_crystal_F_000             374
_exptl_transmission_factor_min   ?
_exptl_transmission_factor_max   ?
_exptl_crystal_size_max          0.22
_exptl_crystal_size_mid          0.20
_exptl_crystal_size_min          0.17
_exptl_absorpt_coefficient_mu    ?
_shelx_estimated_absorpt_T_min   ?
_shelx_estimated_absorpt_T_max   ?
_exptl_absorpt_correction_type   empirical
_exptl_absorpt_correction_T_min  0.8435
_exptl_absorpt_correction_T_max  1.0000
_exptl_absorpt_process_details   'SADABS v2.10 BRUKER'

_exptl_special_details           
;
 ?
;

_diffrn_ambient_temperature      100(2)
_diffrn_radiation_wavelength     0.71073
_diffrn_radiation_type           MoK\a
_diffrn_source                   'sealed tube'
_diffrn_radiation_monochromator  graphite
_diffrn_measurement_device_type  'CCD area detector'
_diffrn_measurement_method       'phi and omega scans'
_diffrn_detector_area_resol_mean ?
_diffrn_reflns_number            6578
_diffrn_reflns_av_unetI/netI     0.1048
_diffrn_reflns_av_R_equivalents  0.0461
_diffrn_reflns_limit_h_min       -6
_diffrn_reflns_limit_h_max       6
_diffrn_reflns_limit_k_min       -10
_diffrn_reflns_limit_k_max       11
_diffrn_reflns_limit_l_min       -19
_diffrn_reflns_limit_l_max       21
_diffrn_reflns_theta_min         2.195
_diffrn_reflns_theta_max         26.368
_diffrn_reflns_theta_full        25.242
_diffrn_measured_fraction_theta_max 0.967
_diffrn_measured_fraction_theta_full 0.969
_diffrn_reflns_Laue_measured_fraction_max 0.967
_diffrn_reflns_Laue_measured_fraction_full 0.969
_diffrn_reflns_point_group_measured_fraction_max 0.678
_diffrn_reflns_point_group_measured_fraction_full 0.691
_reflns_number_total             4754
_reflns_number_gt                3232
_reflns_threshold_expression     'I > 2\s(I)'
_reflns_Friedel_coverage         0.402
_reflns_Friedel_fraction_max     0.389
_reflns_Friedel_fraction_full    0.413

_reflns_special_details          
;
 Reflections were merged by SHELXL according to the crystal
 class for the calculation of statistics and refinement.
 
 _reflns_Friedel_fraction is defined as the number of unique
 Friedel pairs measured divided by the number that would be
 possible theoretically, ignoring centric projections and
 systematic absences.
;

_computing_data_collection       'Bruker SMART'
_computing_cell_refinement       'Bruker SMART'
_computing_data_reduction        'Bruker SAINT'
_computing_structure_solution    'Bruker SHELXTL'
_computing_structure_refinement  'SHELXL-2013 (Sheldrick, 2013)'
_computing_molecular_graphics    'Bruker SHELXTL'
_computing_publication_material  'Bruker SHELXTL'

_refine_special_details          
;
 ?
;
_refine_ls_structure_factor_coef Fsqd
_refine_ls_matrix_type           full
_refine_ls_weighting_scheme      calc
_refine_ls_weighting_details     
;
 w=1/[\s^2^(Fo^2^)+(0.1166P)^2^]
 where P=(Fo^2^+2Fc^2^)/3
;
_atom_sites_solution_primary     ?
_atom_sites_solution_secondary   ?
_atom_sites_solution_hydrogens   geom
_refine_ls_hydrogen_treatment    constr
_refine_ls_extinction_method     none
_refine_ls_extinction_coef       .
_refine_ls_abs_structure_details 
;
 Flack x determined using 767 quotients [(I+)-(I-)]/[(I+)+(I-)]
 (Parsons and Flack (2004), Acta Cryst. A60, s61).
;
_refine_ls_abs_structure_Flack   0.147(19)
_chemical_absolute_configuration syn
_refine_ls_number_reflns         4754
_refine_ls_number_parameters     427
_refine_ls_number_restraints     3
_refine_ls_R_factor_all          0.0781
_refine_ls_R_factor_gt           0.0629
_refine_ls_wR_factor_ref         0.1862
_refine_ls_wR_factor_gt          0.1647
_refine_ls_goodness_of_fit_ref   0.992
_refine_ls_restrained_S_all      0.992
_refine_ls_shift/su_max          0.000
_refine_ls_shift/su_mean         0.000

loop_
_atom_site_label
_atom_site_type_symbol
_atom_site_fract_x
_atom_site_fract_y
_atom_site_fract_z
_atom_site_U_iso_or_equiv
_atom_site_adp_type
_atom_site_occupancy
_atom_site_site_symmetry_order
_atom_site_calc_flag
_atom_site_refinement_flags_posn
_atom_site_refinement_flags_adp
_atom_site_refinement_flags_occupancy
_atom_site_disorder_assembly
_atom_site_disorder_group
Co1 Co 0.28925(18) 0.75932(12) 0.48589(8) 0.0292(4) Uani 1 1 d . . . . .
Co2 Co -0.01666(16) 1.37898(11) 0.81188(7) 0.0272(4) Uani 1 1 d . . . . .
O5 O 0.2335(14) 0.8443(8) 0.6142(5) 0.0333(18) Uani 1 1 d . . . . .
O8 O 0.3881(12) 0.5289(8) 0.5148(4) 0.0308(16) Uani 1 1 d . . . . .
O4 O -0.1078(12) 1.1348(7) 0.7861(4) 0.0287(15) Uani 1 1 d . . . . .
O10 O 0.0343(14) 0.3572(8) 0.6827(4) 0.0305(17) Uani 1 1 d . . . . .
O9 O 0.0170(14) 0.6035(8) 0.4918(5) 0.0323(17) Uani 1 1 d . . . . .
O3 O 0.2683(13) 1.2315(7) 0.8105(4) 0.0293(16) Uani 1 1 d . . . . .
N2 N 0.6444(16) 0.8309(9) 0.5380(5) 0.032(2) Uani 1 1 d . . . . .
H2A H 0.7358 0.7494 0.5492 0.038 Uiso 1 1 calc R U . . .
H2B H 0.7294 0.8725 0.5002 0.038 Uiso 1 1 calc R U . . .
N1 N 0.4380(15) 0.9698(9) 0.7315(5) 0.0306(19) Uani 1 1 d . . . . .
H1 H 0.5801 1.0058 0.7549 0.037 Uiso 1 1 calc R U . . .
O6 O 0.0596(14) 0.9054(8) 0.4568(5) 0.0367(19) Uani 1 1 d . . . . .
N6 N -0.1546(17) 1.3905(10) 0.9245(5) 0.032(2) Uani 1 1 d . . . . .
O1 O 0.2120(14) 0.5527(8) 0.8349(5) 0.0368(19) Uani 1 1 d . . . . .
N5 N 0.4211(19) 0.6915(11) 0.3716(6) 0.039(3) Uani 1 1 d . . . . .
N4 N -0.3680(15) 0.4151(10) 0.7611(5) 0.035(2) Uani 1 1 d . . . . .
C4 C 0.2312(17) 0.9762(10) 0.7805(6) 0.028(2) Uani 1 1 d . . . . .
H4 H 0.1026 0.9030 0.7537 0.033 Uiso 1 1 calc R U . . .
O7 O 0.3320(17) 1.0815(10) 0.4554(9) 0.092(4) Uani 1 1 d . . . . .
C11 C 0.0462(19) 0.3667(10) 0.5183(6) 0.029(2) Uani 1 1 d . . . . .
H11 H 0.1715 0.3165 0.5463 0.035 Uiso 1 1 calc R U . . .
N3 N -0.1637(15) 0.3932(10) 0.5647(5) 0.031(2) Uani 1 1 d . . . . .
H3 H -0.3043 0.4087 0.5407 0.038 Uiso 1 1 calc R U . . .
C5 C 0.1229(19) 1.1233(11) 0.7911(6) 0.028(2) Uani 1 1 d . . . . .
C7 C 0.643(2) 0.9370(12) 0.6116(6) 0.036(3) Uani 1 1 d . . . . .
H7A H 0.6408 1.0326 0.5997 0.043 Uiso 1 1 calc R U . . .
H7B H 0.7926 0.9317 0.6469 0.043 Uiso 1 1 calc R U . . .
C9 C -0.105(2) 1.1230(13) 0.4306(8) 0.042(3) Uani 1 1 d . . . . .
C2 C 0.381(2) 0.7922(11) 0.8623(7) 0.037(3) Uani 1 1 d . . . . .
H2C H 0.4915 0.7616 0.8216 0.044 Uiso 1 1 calc R U . . .
H2D H 0.4710 0.7894 0.9140 0.044 Uiso 1 1 calc R U . . .
C14 C -0.1467(19) 0.3946(11) 0.6437(6) 0.030(2) Uani 1 1 d . . . . .
C6 C 0.4209(19) 0.9118(10) 0.6529(6) 0.030(2) Uani 1 1 d . . . . .
C1 C 0.167(2) 0.6856(11) 0.8478(7) 0.033(2) Uani 1 1 d . . . . .
C25 C -0.207(2) 1.2787(12) 0.9587(7) 0.038(3) Uani 1 1 d . . . . .
H25 H -0.1297 1.1931 0.9420 0.045 Uiso 1 1 calc R U . . .
N12 N 1.212(2) 0.5269(17) 0.1194(6) 0.064(4) Uani 1 1 d . . . . .
C8 C 0.112(2) 1.0327(12) 0.4511(7) 0.036(3) Uani 1 1 d . . . . .
C12 C 0.1573(19) 0.5123(11) 0.5093(6) 0.028(2) Uani 1 1 d . . . . .
C3 C 0.321(2) 0.9469(12) 0.8619(6) 0.033(3) Uani 1 1 d . . . . .
H3A H 0.4680 1.0080 0.8836 0.039 Uiso 1 1 calc R U . . .
H3B H 0.1944 0.9743 0.8976 0.039 Uiso 1 1 calc R U . . .
C20 C 0.746(2) 0.6449(14) 0.2534(6) 0.041(3) Uani 1 1 d . . . . .
C24 C -0.367(2) 1.2821(14) 1.0167(7) 0.047(3) Uani 1 1 d . . . . .
H24 H -0.3945 1.2018 1.0385 0.057 Uiso 1 1 calc R U . . .
N11 N 1.049(2) 0.5154(17) 0.1775(6) 0.066(4) Uani 1 1 d . . . . .
C26 C -0.254(3) 1.5142(15) 0.9525(8) 0.052(4) Uani 1 1 d . . . . .
H26 H -0.2099 1.5958 0.9340 0.063 Uiso 1 1 calc R U . . .
C15 C -0.377(2) 0.4546(17) 0.6837(7) 0.051(3) Uani 1 1 d . . . . .
H15A H -0.3747 0.5586 0.6903 0.061 Uiso 1 1 calc R U . . .
H15B H -0.5274 0.4142 0.6504 0.061 Uiso 1 1 calc R U . . .
C27 C -0.430(3) 1.5252(15) 1.0115(8) 0.054(4) Uani 1 1 d . . . . .
H27 H -0.5045 1.6118 1.0286 0.065 Uiso 1 1 calc R U . . .
C23 C -0.486(2) 1.4082(16) 1.0414(8) 0.048(3) Uani 1 1 d . . . . .
C16 C 0.545(3) 0.5702(15) 0.3521(8) 0.053(4) Uani 1 1 d . . . . .
H16 H 0.5204 0.4989 0.3809 0.064 Uiso 1 1 calc R U . . .
C18 C 0.466(3) 0.7905(13) 0.3283(9) 0.054(4) Uani 1 1 d . . . . .
H18 H 0.3863 0.8770 0.3378 0.065 Uiso 1 1 calc R U . . .
C10 C -0.034(2) 0.2772(12) 0.4350(6) 0.037(3) Uani 1 1 d . . . . .
H10A H -0.1744 0.3216 0.4114 0.044 Uiso 1 1 calc R U . . .
H10B H 0.1000 0.2812 0.4021 0.044 Uiso 1 1 calc R U . . .
C17 C 0.696(3) 0.5428(18) 0.2967(8) 0.060(4) Uani 1 1 d . . . . .
H17 H 0.7699 0.4545 0.2867 0.072 Uiso 1 1 calc R U . . .
C19 C 0.627(3) 0.7679(15) 0.2705(8) 0.056(4) Uani 1 1 d . . . . .
H19 H 0.6542 0.8399 0.2424 0.067 Uiso 1 1 calc R U . . .
C21 C 0.932(3) 0.6306(17) 0.1944(7) 0.052(4) Uani 1 1 d . . . . .
H21 H 0.9642 0.7068 0.1698 0.062 Uiso 1 1 calc R U . . .
C22 C 1.334(3) 0.4144(17) 0.0990(8) 0.059(4) Uani 1 1 d . . . . .
H22 H 1.3064 0.3347 0.1215 0.071 Uiso 1 1 calc R U . . .
O2 O -0.0494(17) 0.7308(10) 0.8475(8) 0.073(3) Uani 1 1 d . . . . .
O1W O -0.106(4) 0.931(3) 0.9933(14) 0.177(8) Uiso 1 1 d . . . . .
O2W O 0.406(6) 1.162(4) 0.298(2) 0.259(14) Uiso 1 1 d . . . . .
O3W O 0.979(5) 0.216(3) 0.2140(16) 0.217(10) Uiso 1 1 d . . . . .

loop_
_atom_site_aniso_label
_atom_site_aniso_U_11
_atom_site_aniso_U_22
_atom_site_aniso_U_33
_atom_site_aniso_U_23
_atom_site_aniso_U_13
_atom_site_aniso_U_12
Co1 0.0217(8) 0.0300(7) 0.0356(8) 0.0026(6) 0.0110(6) -0.0006(6)
Co2 0.0221(8) 0.0271(7) 0.0348(8) 0.0080(5) 0.0110(6) 0.0015(6)
O5 0.021(4) 0.038(4) 0.038(4) -0.004(3) 0.015(3) -0.006(3)
O8 0.023(4) 0.032(4) 0.041(4) 0.012(3) 0.011(3) 0.004(3)
O4 0.018(4) 0.033(4) 0.036(4) 0.005(3) 0.008(3) 0.002(3)
O10 0.020(4) 0.041(5) 0.033(4) 0.010(3) 0.006(3) 0.001(3)
O9 0.028(4) 0.028(4) 0.042(4) 0.007(3) 0.009(3) 0.003(3)
O3 0.025(4) 0.024(4) 0.040(4) 0.007(3) 0.011(3) -0.002(3)
N2 0.033(5) 0.030(5) 0.034(5) 0.002(4) 0.018(4) 0.003(4)
N1 0.020(4) 0.035(5) 0.032(5) -0.004(4) 0.004(4) -0.008(4)
O6 0.026(4) 0.040(4) 0.048(5) 0.013(4) 0.014(4) 0.002(3)
N6 0.025(5) 0.038(6) 0.033(5) 0.009(4) 0.003(4) -0.002(4)
O1 0.027(4) 0.031(4) 0.055(5) 0.011(4) 0.014(4) -0.001(3)
N5 0.036(6) 0.048(6) 0.028(5) -0.002(4) 0.009(4) -0.010(5)
N4 0.020(5) 0.046(6) 0.041(5) 0.016(4) 0.009(4) 0.002(4)
C4 0.021(5) 0.021(5) 0.040(5) 0.001(4) 0.013(4) -0.001(4)
O7 0.037(6) 0.032(5) 0.208(14) 0.023(7) 0.019(7) 0.001(5)
C11 0.035(6) 0.027(5) 0.029(5) 0.009(4) 0.015(4) 0.000(4)
N3 0.017(4) 0.049(6) 0.031(4) 0.013(4) 0.006(4) 0.005(4)
C5 0.032(6) 0.030(5) 0.024(5) 0.005(4) 0.014(4) 0.004(5)
C7 0.027(6) 0.039(6) 0.038(6) -0.008(5) 0.019(5) 0.001(5)
C9 0.035(7) 0.034(6) 0.057(8) 0.003(6) 0.019(6) 0.004(5)
C2 0.035(6) 0.024(6) 0.053(7) 0.014(5) 0.003(5) -0.001(5)
C14 0.023(5) 0.033(6) 0.036(5) 0.001(4) 0.016(4) 0.000(4)
C6 0.029(6) 0.021(5) 0.045(6) 0.010(4) 0.019(5) 0.008(4)
C1 0.029(6) 0.025(5) 0.046(6) 0.006(5) 0.016(5) 0.003(5)
C25 0.049(7) 0.032(6) 0.036(6) 0.008(5) 0.023(5) 0.003(5)
N12 0.036(7) 0.121(12) 0.034(6) 0.007(7) 0.014(5) 0.002(7)
C8 0.026(6) 0.026(5) 0.055(7) -0.001(5) 0.020(5) -0.003(5)
C12 0.031(6) 0.029(5) 0.024(5) 0.006(4) 0.007(4) -0.005(4)
C3 0.036(7) 0.022(5) 0.039(6) 0.001(5) 0.008(5) -0.004(5)
C20 0.041(7) 0.051(7) 0.025(5) -0.009(5) 0.006(5) 0.005(6)
C24 0.065(9) 0.039(7) 0.039(6) 0.010(5) 0.013(6) -0.005(6)
N11 0.048(7) 0.127(13) 0.021(5) 0.003(6) 0.018(5) 0.006(8)
C26 0.076(10) 0.044(8) 0.041(7) 0.009(6) 0.017(7) 0.031(7)
C15 0.030(6) 0.090(10) 0.045(7) 0.032(7) 0.020(5) 0.027(6)
C27 0.073(10) 0.059(9) 0.039(7) 0.016(6) 0.029(7) 0.030(8)
C23 0.032(7) 0.066(9) 0.040(7) -0.006(6) 0.007(5) 0.002(6)
C16 0.075(10) 0.048(8) 0.043(7) 0.008(6) 0.024(7) 0.047(7)
C18 0.083(10) 0.019(5) 0.069(9) 0.010(6) 0.040(8) 0.011(6)
C10 0.044(7) 0.029(6) 0.037(6) 0.006(5) 0.007(5) 0.000(5)
C17 0.060(9) 0.094(11) 0.043(7) 0.036(7) 0.035(7) 0.035(8)
C19 0.062(9) 0.056(9) 0.060(8) 0.024(7) 0.035(8) 0.004(7)
C21 0.047(9) 0.076(10) 0.027(6) -0.006(6) 0.012(6) -0.002(8)
C22 0.062(10) 0.070(10) 0.037(7) -0.012(7) 0.016(7) 0.007(8)
O2 0.035(5) 0.048(6) 0.144(10) 0.034(6) 0.016(6) 0.002(5)

_geom_special_details            
;
 All esds (except the esd in the dihedral angle between two l.s. planes)
 are estimated using the full covariance matrix.  The cell esds are taken
 into account individually in the estimation of esds in distances, angles
 and torsion angles; correlations between esds in cell parameters are only
 used when they are defined by crystal symmetry.  An approximate (isotropic)
 treatment of cell esds is used for estimating esds involving l.s. planes.
;

loop_
_geom_bond_atom_site_label_1
_geom_bond_atom_site_label_2
_geom_bond_distance
_geom_bond_site_symmetry_2
_geom_bond_publ_flag
Co1 O6 1.991(8) . ?
Co1 N2 2.076(9) . ?
Co1 O9 2.090(7) . ?
Co1 N5 2.131(9) . ?
Co1 O5 2.232(7) . ?
Co1 O8 2.399(7) . ?
Co2 O1 1.987(8) 1_565 ?
Co2 N4 2.079(9) 1_565 ?
Co2 O3 2.110(7) . ?
Co2 N6 2.120(9) . ?
Co2 O10 2.223(7) 1_565 ?
Co2 O4 2.301(7) . ?
O5 C6 1.241(13) . ?
O8 C12 1.250(12) . ?
O4 C5 1.256(11) . ?
O10 C14 1.231(13) . ?
O10 Co2 2.223(7) 1_545 ?
O9 C12 1.229(12) . ?
O3 C5 1.247(12) . ?
N2 C7 1.443(13) . ?
N1 C6 1.338(13) . ?
N1 C4 1.464(12) . ?
O6 C8 1.260(13) . ?
N6 C26 1.324(15) . ?
N6 C25 1.350(13) . ?
O1 C1 1.270(13) . ?
O1 Co2 1.987(7) 1_545 ?
N5 C16 1.347(15) . ?
N5 C18 1.341(15) . ?
N4 C15 1.443(13) . ?
N4 Co2 2.079(9) 1_545 ?
C4 C5 1.512(13) . ?
C4 C3 1.509(14) . ?
O7 C8 1.259(13) . ?
C11 N3 1.453(12) . ?
C11 C10 1.517(14) . ?
C11 C12 1.538(13) . ?
N3 C14 1.341(12) . ?
C7 C6 1.496(14) . ?
C9 C10 1.489(16) 1_565 ?
C9 C8 1.529(17) . ?
C2 C1 1.491(14) . ?
C2 C3 1.513(14) . ?
C14 C15 1.551(14) . ?
C1 O2 1.259(13) . ?
C25 C24 1.380(15) . ?
N12 C22 1.277(19) . ?
N12 N11 1.415(12) . ?
C20 C19 1.342(18) . ?
C20 C17 1.371(17) . ?
C20 C21 1.491(17) . ?
C24 C23 1.383(19) . ?
N11 C21 1.27(2) . ?
C26 C27 1.450(18) . ?
C27 C23 1.354(19) . ?
C23 C22 1.454(18) 1_366 ?
C16 C17 1.307(17) . ?
C18 C19 1.373(17) . ?
C10 C9 1.489(16) 1_545 ?
C22 C23 1.454(18) 1_744 ?

loop_
_geom_angle_atom_site_label_1
_geom_angle_atom_site_label_2
_geom_angle_atom_site_label_3
_geom_angle
_geom_angle_site_symmetry_1
_geom_angle_site_symmetry_3
_geom_angle_publ_flag
O6 Co1 N2 117.7(3) . . ?
O6 Co1 O9 96.8(3) . . ?
N2 Co1 O9 139.6(3) . . ?
O6 Co1 N5 97.9(4) . . ?
N2 Co1 N5 90.9(3) . . ?
O9 Co1 N5 105.4(3) . . ?
O6 Co1 O5 87.8(3) . . ?
N2 Co1 O5 77.2(3) . . ?
O9 Co1 O5 84.2(3) . . ?
N5 Co1 O5 168.1(3) . . ?
O6 Co1 O8 154.2(3) . . ?
N2 Co1 O8 86.9(3) . . ?
O9 Co1 O8 57.5(3) . . ?
N5 Co1 O8 88.5(3) . . ?
O5 Co1 O8 90.8(3) . . ?
O1 Co2 N4 113.2(3) 1_565 1_565 ?
O1 Co2 O3 94.8(3) 1_565 . ?
N4 Co2 O3 145.2(3) 1_565 . ?
O1 Co2 N6 101.5(3) 1_565 . ?
N4 Co2 N6 90.0(3) 1_565 . ?
O3 Co2 N6 104.8(3) . . ?
O1 Co2 O10 87.9(3) 1_565 1_565 ?
N4 Co2 O10 77.3(3) 1_565 1_565 ?
O3 Co2 O10 83.8(3) . 1_565 ?
N6 Co2 O10 166.5(3) . 1_565 ?
O1 Co2 O4 154.0(3) 1_565 . ?
N4 Co2 O4 91.0(3) 1_565 . ?
O3 Co2 O4 59.1(2) . . ?
N6 Co2 O4 87.5(3) . . ?
O10 Co2 O4 88.2(3) 1_565 . ?
C6 O5 Co1 112.1(6) . . ?
C12 O8 Co1 82.4(6) . . ?
C5 O4 Co2 85.2(6) . . ?
C14 O10 Co2 112.5(6) . 1_545 ?
C12 O9 Co1 97.3(6) . . ?
C5 O3 Co2 94.1(6) . . ?
C7 N2 Co1 112.3(6) . . ?
C6 N1 C4 124.4(9) . . ?
C8 O6 Co1 128.1(7) . . ?
C26 N6 C25 116.8(10) . . ?
C26 N6 Co2 114.2(8) . . ?
C25 N6 Co2 126.7(8) . . ?
C1 O1 Co2 130.5(7) . 1_545 ?
C16 N5 C18 113.8(11) . . ?
C16 N5 Co1 122.9(8) . . ?
C18 N5 Co1 119.0(9) . . ?
C15 N4 Co2 115.3(7) . 1_545 ?
N1 C4 C5 110.3(8) . . ?
N1 C4 C3 109.7(9) . . ?
C5 C4 C3 109.3(8) . . ?
N3 C11 C10 110.9(9) . . ?
N3 C11 C12 108.5(8) . . ?
C10 C11 C12 108.3(8) . . ?
C14 N3 C11 122.5(9) . . ?
O3 C5 O4 121.4(9) . . ?
O3 C5 C4 118.2(9) . . ?
O4 C5 C4 120.2(9) . . ?
N2 C7 C6 110.6(9) . . ?
C10 C9 C8 113.8(10) 1_565 . ?
C1 C2 C3 116.5(10) . . ?
O10 C14 N3 124.7(9) . . ?
O10 C14 C15 121.9(9) . . ?
N3 C14 C15 113.3(9) . . ?
O5 C6 N1 123.8(9) . . ?
O5 C6 C7 120.4(9) . . ?
N1 C6 C7 115.8(10) . . ?
O2 C1 O1 123.3(10) . . ?
O2 C1 C2 118.9(10) . . ?
O1 C1 C2 117.9(9) . . ?
N6 C25 C24 124.8(11) . . ?
C22 N12 N11 113.7(15) . . ?
O7 C8 O6 122.6(11) . . ?
O7 C8 C9 120.6(10) . . ?
O6 C8 C9 116.6(9) . . ?
O9 C12 O8 122.8(9) . . ?
O9 C12 C11 118.9(9) . . ?
O8 C12 C11 118.1(9) . . ?
C2 C3 C4 115.1(9) . . ?
C19 C20 C17 116.1(11) . . ?
C19 C20 C21 119.6(12) . . ?
C17 C20 C21 124.2(12) . . ?
C23 C24 C25 118.2(11) . . ?
C21 N11 N12 110.3(15) . . ?
N6 C26 C27 121.5(12) . . ?
N4 C15 C14 107.9(9) . . ?
C23 C27 C26 119.3(12) . . ?
C27 C23 C24 119.1(12) . . ?
C27 C23 C22 120.8(13) . 1_366 ?
C24 C23 C22 120.1(13) . 1_366 ?
C17 C16 N5 126.5(13) . . ?
N5 C18 C19 121.9(12) . . ?
C9 C10 C11 116.2(9) 1_545 . ?
C16 C17 C20 119.8(14) . . ?
C20 C19 C18 122.0(12) . . ?
N11 C21 C20 120.8(13) . . ?
N12 C22 C23 121.3(15) . 1_744 ?

_refine_diff_density_max         1.259
_refine_diff_density_min         -1.183
_refine_diff_density_rms         0.154

_shelxl_version_number           2013-2

_shelx_res_file                  
;
TITL shelx in P 1
CELL  0.71073   5.4300   9.4900  17.1000  101.780   95.900   91.400
ZERR     1.00   0.0000   0.0000   0.0000    0.000    0.000    0.000
LATT  -1
SFAC  C    N    O    CO   H
UNIT  40   4    4    2    20
MERG   2
FMAP   2
PLAN   25
ACTA
SHEL 0.8 10
L.S.  20
WGHT    0.116600
FVAR      14.40176
CO1   4    0.289248    0.759321    0.485885    11.00000    0.02169    0.03003 =
         0.03557    0.00258    0.01102   -0.00063
CO2   4   -0.016661    1.378979    0.811877    11.00000    0.02210    0.02705 =
         0.03485    0.00803    0.01100    0.00154
O5    3    0.233490    0.844341    0.614157    11.00000    0.02078    0.03786 =
         0.03837   -0.00383    0.01536   -0.00564
O8    3    0.388060    0.528930    0.514774    11.00000    0.02299    0.03207 =
         0.04096    0.01178    0.01116    0.00408
O4    3   -0.107783    1.134755    0.786139    11.00000    0.01779    0.03306 =
         0.03562    0.00529    0.00785    0.00217
O10   3    0.034289    0.357223    0.682714    11.00000    0.01960    0.04127 =
         0.03257    0.01025    0.00610    0.00138
O9    3    0.017015    0.603502    0.491764    11.00000    0.02754    0.02810 =
         0.04238    0.00723    0.00913    0.00251
O3    3    0.268316    1.231529    0.810516    11.00000    0.02544    0.02375 =
         0.04019    0.00708    0.01067   -0.00197
N2    2    0.644389    0.830916    0.537979    11.00000    0.03289    0.02971 =
         0.03384    0.00152    0.01848    0.00270
AFIX  23
H2A   5    0.735764    0.749389    0.549151    11.00000   -1.20000
H2B   5    0.729398    0.872451    0.500248    11.00000   -1.20000
AFIX   0
N1    2    0.438001    0.969826    0.731525    11.00000    0.01986    0.03481 =
         0.03237   -0.00382    0.00437   -0.00787
AFIX  43
H1    5    0.580117    1.005779    0.754885    11.00000   -1.20000
AFIX   0
O6    3    0.059561    0.905406    0.456815    11.00000    0.02590    0.04030 =
         0.04772    0.01273    0.01434    0.00198
N6    2   -0.154614    1.390526    0.924498    11.00000    0.02543    0.03835 =
         0.03289    0.00944    0.00298   -0.00162
O1    3    0.212027    0.552727    0.834907    11.00000    0.02741    0.03103 =
         0.05478    0.01096    0.01389   -0.00137
N5    2    0.421103    0.691514    0.371597    11.00000    0.03611    0.04837 =
         0.02769   -0.00232    0.00934   -0.01038
N4    2   -0.367955    0.415145    0.761081    11.00000    0.02037    0.04585 =
         0.04148    0.01586    0.00892    0.00213
C4    1    0.231188    0.976227    0.780508    11.00000    0.02134    0.02098 =
         0.03999    0.00121    0.01278   -0.00070
AFIX  13
H4    5    0.102648    0.903012    0.753716    11.00000   -1.20000
AFIX   0
O7    3    0.331960    1.081479    0.455433    11.00000    0.03733    0.03169 =
         0.20764    0.02323    0.01919    0.00121
C11   1    0.046244    0.366668    0.518337    11.00000    0.03480    0.02687 =
         0.02944    0.00857    0.01503    0.00003
AFIX  13
H11   5    0.171469    0.316496    0.546343    11.00000   -1.20000
AFIX   0
N3    2   -0.163695    0.393240    0.564744    11.00000    0.01698    0.04918 =
         0.03110    0.01315    0.00566    0.00505
AFIX  43
H3    5   -0.304307    0.408675    0.540650    11.00000   -1.20000
AFIX   0
C5    1    0.122926    1.123300    0.791092    11.00000    0.03178    0.03010 =
         0.02363    0.00509    0.01385    0.00377
C7    1    0.642946    0.936966    0.611566    11.00000    0.02696    0.03851 =
         0.03773   -0.00787    0.01892    0.00122
AFIX  23
H7A   5    0.640820    1.032603    0.599652    11.00000   -1.20000
H7B   5    0.792571    0.931705    0.646892    11.00000   -1.20000
AFIX   0
C9    1   -0.105376    1.122979    0.430615    11.00000    0.03545    0.03370 =
         0.05667    0.00254    0.01869    0.00414
C2    1    0.380973    0.792235    0.862320    11.00000    0.03451    0.02435 =
         0.05342    0.01377    0.00324   -0.00125
AFIX  23
H2C   5    0.491476    0.761556    0.821617    11.00000   -1.20000
H2D   5    0.471005    0.789405    0.913954    11.00000   -1.20000
AFIX   0
C14   1   -0.146661    0.394625    0.643705    11.00000    0.02251    0.03304 =
         0.03594    0.00144    0.01589   -0.00037
C6    1    0.420945    0.911841    0.652882    11.00000    0.02875    0.02148 =
         0.04456    0.01002    0.01911    0.00821
C1    1    0.166594    0.685575    0.847785    11.00000    0.02935    0.02475 =
         0.04601    0.00633    0.01555    0.00320
C25   1   -0.207094    1.278740    0.958738    11.00000    0.04948    0.03181 =
         0.03628    0.00781    0.02257    0.00257
AFIX  43
H25   5   -0.129661    1.193143    0.942028    11.00000   -1.20000
AFIX   0
N12   2    1.211697    0.526910    0.119383    11.00000    0.03553    0.12085 =
         0.03416    0.00743    0.01382    0.00204
C8    1    0.112137    1.032741    0.451078    11.00000    0.02636    0.02589 =
         0.05475   -0.00082    0.01981   -0.00324
C12   1    0.157321    0.512331    0.509252    11.00000    0.03138    0.02906 =
         0.02410    0.00574    0.00682   -0.00465
C3    1    0.320759    0.946911    0.861928    11.00000    0.03577    0.02167 =
         0.03885    0.00088    0.00807   -0.00374
AFIX  23
H3A   5    0.467976    1.007987    0.883571    11.00000   -1.20000
H3B   5    0.194415    0.974293    0.897629    11.00000   -1.20000
AFIX   0
C20   1    0.745741    0.644903    0.253383    11.00000    0.04086    0.05078 =
         0.02546   -0.00852    0.00612    0.00477
C24   1   -0.367118    1.282103    1.016691    11.00000    0.06489    0.03936 =
         0.03945    0.00977    0.01319   -0.00507
AFIX  43
H24   5   -0.394473    1.201774    1.038537    11.00000   -1.20000
AFIX   0
N11   2    1.048606    0.515402    0.177462    11.00000    0.04786    0.12675 =
         0.02121    0.00300    0.01756    0.00582
C26   1   -0.254074    1.514194    0.952536    11.00000    0.07583    0.04382 =
         0.04068    0.00875    0.01654    0.03051
AFIX  43
H26   5   -0.209915    1.595823    0.933998    11.00000   -1.20000
AFIX   0
C15   1   -0.376707    0.454596    0.683743    11.00000    0.03017    0.09000 =
         0.04543    0.03190    0.02029    0.02708
AFIX  23
H15A  5   -0.374735    0.558599    0.690299    11.00000   -1.20000
H15B  5   -0.527406    0.414176    0.650427    11.00000   -1.20000
AFIX   0
C27   1   -0.430331    1.525243    1.011505    11.00000    0.07266    0.05916 =
         0.03908    0.01641    0.02948    0.03003
AFIX  43
H27   5   -0.504490    1.611820    1.028589    11.00000   -1.20000
AFIX   0
C23   1   -0.485755    1.408238    1.041410    11.00000    0.03197    0.06644 =
         0.04047   -0.00569    0.00749    0.00192
C16   1    0.544966    0.570244    0.352094    11.00000    0.07517    0.04764 =
         0.04284    0.00829    0.02362    0.04678
AFIX  43
H16   5    0.520415    0.498883    0.380926    11.00000   -1.20000
AFIX   0
C18   1    0.466192    0.790507    0.328349    11.00000    0.08294    0.01874 =
         0.06889    0.00980    0.03963    0.01061
AFIX  43
H18   5    0.386319    0.876953    0.337802    11.00000   -1.20000
AFIX   0
C10   1   -0.034308    0.277177    0.435014    11.00000    0.04442    0.02925 =
         0.03740    0.00637    0.00750   -0.00001
AFIX  23
H10A  5   -0.174395    0.321612    0.411446    11.00000   -1.20000
H10B  5    0.099955    0.281173    0.402124    11.00000   -1.20000
AFIX   0
C17   1    0.696204    0.542839    0.296702    11.00000    0.06047    0.09401 =
         0.04344    0.03591    0.03459    0.03484
AFIX  43
H17   5    0.769922    0.454455    0.286713    11.00000   -1.20000
AFIX   0
C19   1    0.626908    0.767871    0.270516    11.00000    0.06174    0.05584 =
         0.06044    0.02435    0.03539    0.00364
AFIX  43
H19   5    0.654196    0.839924    0.242386    11.00000   -1.20000
AFIX   0
C21   1    0.932354    0.630603    0.194441    11.00000    0.04738    0.07558 =
         0.02658   -0.00610    0.01234   -0.00189
AFIX  43
H21   5    0.964239    0.706828    0.169762    11.00000   -1.20000
AFIX   0
C22   1    1.333678    0.414360    0.099010    11.00000    0.06218    0.07017 =
         0.03730   -0.01161    0.01614    0.00651
AFIX  43
H22   5    1.306437    0.334747    0.121469    11.00000   -1.20000
AFIX   0
O2    3   -0.049393    0.730789    0.847470    11.00000    0.03512    0.04764 =
         0.14353    0.03387    0.01578    0.00250
O1W   3   -0.105884    0.931202    0.993329    11.00000    0.17732
O2W   3    0.406288    1.161658    0.298428    11.00000    0.25892
O3W   3    0.978516    0.215553    0.214011    11.00000    0.21706
HKLF    4

REM  shelx in P 1
REM R1 =  0.0629 for    3232 Fo > 4sig(Fo)  and  0.0781 for all    4754 data
REM    427 parameters refined using      3 restraints

END

WGHT      0.1079      0.0000

REM Highest difference peak  1.259,  deepest hole -1.183,  1-sigma level  0.154
Q1    1  -0.3044  0.9857  1.1233  11.00000  0.05    1.26
Q2    1   0.5915  0.1355  0.1662  11.00000  0.05    0.94
Q3    1  -0.4894  0.9560  1.0896  11.00000  0.05    0.91
Q4    1   0.0818  0.7998  1.0415  11.00000  0.05    0.79
Q5    1   0.8807  0.1992  0.2222  11.00000  0.05    0.78
Q6    1   0.7924  0.1744  0.2146  11.00000  0.05    0.77
Q7    1   0.3148  0.8606  0.4830  11.00000  0.05    0.70
Q8    1  -0.7251  1.8418  1.0940  11.00000  0.05    0.69
Q9    1   0.2581  0.6562  0.4887  11.00000  0.05    0.67
Q10   1   0.0077  1.4866  0.8147  11.00000  0.05    0.60
Q11   1   0.6336  1.0697  0.2031  11.00000  0.05    0.56
Q12   1  -0.0464  1.2664  0.8115  11.00000  0.05    0.54
Q13   1   0.8816  0.9516  0.5796  11.00000  0.05    0.52
Q14   1   1.1852  0.3351  0.2639  11.00000  0.05    0.49
Q15   1   1.3384  0.2841  0.1341  11.00000  0.05    0.48
Q16   1   1.1210  0.0619  0.2252  11.00000  0.05    0.48
Q17   1  -0.6874  1.0474  1.0829  11.00000  0.05    0.47
Q18   1   0.2586  1.2354  0.8357  11.00000  0.05    0.47
Q19   1   0.6965  0.9218  0.5410  11.00000  0.05    0.47
Q20   1   0.6451  0.7116  0.5391  11.00000  0.05    0.46
Q21   1  -0.1704  1.0386  0.7565  11.00000  0.05    0.45
Q22   1   0.1365  0.1175  0.6173  11.00000  0.05    0.44
Q23   1  -0.3738  0.2972  0.7608  11.00000  0.05    0.43
Q24   1   0.0348  0.8845  0.6378  11.00000  0.05    0.42
Q25   1   0.3664  0.7638  0.1969  11.00000  0.05    0.42
;
_shelx_res_checksum              7030

_shelx_hkl_file                  
;
   0   0  -1  -19.84   94.41   1 0.33684-0.34140 0.90805-0.91645-0.24885 0.20858
   0   0   1  -21.97  332.85   1 0.82578-0.82115 0.53265-0.52419-0.18522 0.22555
   0   0  -1  -33.40  374.23   1-0.94729 0.94256-0.28281 0.27418 0.15050-0.19076
   0   0   2  695.24  622.99   1-0.96785 0.97687 0.22925-0.21250 0.10316-0.02252
   0   0   5319706.0 3761.26   1 0.53208-0.50901 0.83669-0.79451-0.12953 0.33106
   0   0   5314194.4 4202.22   1 0.83111-0.80736 0.54584-0.50357-0.10605 0.30744
   0   0  -5306036.8 3482.99   1-0.84545 0.82282 0.52027-0.56243-0.12029-0.08110
   0   0  -5309781.2 4363.94   1-0.96563 0.94232-0.25315 0.21030 0.05881-0.26037
   0   0   7320340.3 4401.75   1 0.59276-0.56046 0.80070-0.74165-0.08634 0.36849
   0   0   7301976.0 5775.94   1 0.83156-0.79831 0.55159-0.49241-0.06470 0.34665
   0   0  -7339165.8 4177.31   1-0.78239 0.75071 0.59448-0.65350-0.18547-0.09649
   0   0  -7334055.2 5157.14   1-0.97115 0.93852-0.23804 0.17804 0.01356-0.29574
   0   0   816453.98 2281.30   1 0.62301-0.58616 0.77945-0.71138-0.06527 0.38768
   0   0   817070.85 2820.86   1 0.83124-0.79324 0.55412-0.48649-0.04388 0.36611
   0   0  -812517.78 1224.77   1-0.74859 0.71221 0.62660-0.69395-0.21661-0.10545
   0   0  -810590.17 1652.35   1-0.97309 0.93579-0.23023 0.16166-0.00921-0.31328
   0   0   9122532.2 4744.94   1 0.65170-0.61024 0.75724-0.68067-0.04255 0.40526
   0   0   9116498.0 4692.21   1 0.83055-0.78780 0.55641-0.48032-0.02297 0.38548
   0   0  -9113964.1 3900.71   1-0.70786 0.66693 0.66073-0.73650-0.24961-0.11271
   0   0  -9114899.0 4629.72   1-0.97446 0.93250-0.22224 0.14511-0.03208-0.33072
   0   0  1062367.56 2980.57   1 0.67964-0.63358 0.73325-0.64816-0.01936 0.42237
   0   0  1061147.08 3936.92   1 0.82949-0.78199 0.55847-0.47392-0.00197 0.40476
   0   0 -1061135.67 2681.59   1-0.66269 0.61721 0.69340-0.77759-0.28281-0.11977
   0   0 -1061406.86 3695.25   1-0.97525 0.92863-0.21409 0.12838-0.05506-0.34805
   0   0  1117919.54 5657.03   1 0.82805-0.77579 0.56028-0.46728 0.01911 0.42394
   0   0 -1115669.69 1464.21   1-0.61250 0.56248 0.72441-0.81702-0.31623-0.12661
   0   0 -1115934.34 5768.91   1-0.97547 0.92419-0.20575 0.11148-0.07814-0.36528
   0   0  12 2149.76 1752.76   1 0.82622-0.76922 0.56184-0.46039 0.04031 0.44303
   0   0 -12 1392.13 1446.08   1-0.97510 0.91915-0.19724 0.09439-0.10133-0.38241
   0   0  1359185.59 6082.66   1 0.82401-0.76226 0.56316-0.45325 0.06160 0.46202
   0   0 -1368240.35 6409.56   1-0.97412 0.91351-0.18854 0.07712-0.12463-0.39942
   0   0  14 3007.62 2190.43   1 0.82103-0.75531 0.56466-0.44605 0.08369 0.48009
   0   0  14 2091.59 2147.73   1 0.94590-0.88111 0.29890-0.17981 0.12618 0.43738
   0   0  1521682.4912226.64   1 0.81800-0.74758 0.56546-0.43838 0.10518 0.49887
   0   0  1517680.75 8202.46   1 0.94552-0.87611 0.28913-0.16153 0.14958 0.45423
   0   0  1667540.7611644.58   1 0.81456-0.73945 0.56600-0.43044 0.12676 0.51756
   0   0  1660777.72 6730.17   1 0.94453-0.87048 0.27908-0.14297 0.17311 0.47096
   0   0  17 1717.06 1223.63   1 0.81070-0.73090 0.56627-0.42224 0.14846 0.53613
   0   0  17 2441.22 2060.67   1 0.94289-0.86422 0.26873-0.12412 0.19678 0.48754
   0   0  18 5426.32 3704.79   1 0.80641-0.72191 0.56626-0.41376 0.17026 0.55460
   0   0  18 4446.21 3141.04   1 0.94059-0.85730 0.25809-0.10497 0.22058 0.50399
   0   0  19 9412.16 4470.26   1 0.80168-0.71248 0.56597-0.40499 0.19217 0.57296
   0   0  19 6185.55 4790.68   1 0.93761-0.84968 0.24713-0.08550 0.24453 0.52030
   0   0  20  650.61 1357.28   1 0.79649-0.70260 0.56538-0.39594 0.21420 0.59120
   0   0  20  612.85  964.30   1 0.93392-0.84136 0.23584-0.06571 0.26864 0.53645
   0   0  2110759.04 5323.46   1 0.79083-0.69225 0.56450-0.38658 0.23635 0.60933
   0   0  21 4905.29 4280.22   1 0.93038-0.83073 0.22580-0.04621 0.28876 0.55475
   0  -1  21 2731.54 1949.14   1 0.77896-0.68375 0.56201-0.45847 0.27803 0.56764
   0  -1  21 2357.69 1985.30   1 0.92819-0.83134 0.22043-0.11491 0.29977 0.54374
   0  -1  20 9906.58 4125.83   1 0.78466-0.69415 0.56330-0.46823 0.25873 0.54668
   0  -1  20 6125.73 5470.40   1 0.93148-0.84206 0.22925-0.13329 0.28245 0.52264
   0  -1  19  947.82 1606.61   1 0.78991-0.70409 0.56433-0.47774 0.23981 0.52532
   0  -1  19  832.48 2001.86   1 0.93515-0.85036 0.23941-0.15196 0.26107 0.50376
   0  -1  1821026.6810235.58   1 0.79472-0.71359 0.56513-0.48701 0.22133 0.50353
   0  -1  1815952.73 9760.41   1 0.93822-0.85806 0.24918-0.17024 0.24007 0.48450
   0  -1  17103018.111893.59   1 0.79910-0.72267 0.56571-0.49606 0.20334 0.48125
   0  -1  1796274.4016992.44   1 0.94071-0.86518 0.25857-0.18813 0.21950 0.46482
   0  -1  1622057.2210000.85   1 0.80308-0.73134 0.56608-0.50490 0.18590 0.45842
   0  -1  1613170.71 7854.25   1 0.94267-0.87176 0.26757-0.20564 0.19940 0.44466
   0  -1  1530208.40 3879.32   1 0.80665-0.73961 0.56627-0.51356 0.16911 0.43494
   0  -1  1527246.3711104.51   1 0.94413-0.87785 0.27616-0.22273 0.17984 0.42397
   0  -1  14190661.815080.44   1 0.80983-0.74748 0.56629-0.52206 0.15309 0.41069
   0  -1  1345509.25 4730.75   1 0.81262-0.75496 0.56617-0.53041 0.13798 0.38552
   0   1 -1341020.32 5393.23   1-0.73154 0.67574 0.64149-0.67656-0.23082-0.29254
   0  -1  1336077.18 5778.67   1 0.94570-0.88867 0.29204-0.25563 0.14265 0.38065
   0  -1  1270222.24 4708.06   1 0.81502-0.76206 0.56595-0.53866 0.12401 0.35922
   0   1 -1253839.12 3772.45   1-0.77147 0.72021 0.60510-0.63175-0.19654-0.28656
   0   1 -1247681.94 6475.15   1-0.97388 0.92133-0.18696 0.15861-0.12881-0.35493
   0  -1  1254967.95 4410.40   1 0.94590-0.89351 0.29927-0.27136 0.12528 0.35777
   0  -1  11176025.0 6144.27   1 0.81704-0.76878 0.56565-0.54683 0.11147 0.33150
   0   1 -11154012.2 5726.87   1-0.80508 0.75858 0.57012-0.58853-0.16356-0.27952
   0   1 -11157078.1 6956.66   1-0.97477 0.92689-0.19371 0.17392-0.11084-0.33259
   0  -1  1083064.53 5771.53   1 0.81866-0.77509 0.56532-0.55498 0.10074 0.30195
   0   1 -1076487.03 3491.89   1-0.83723 0.79525 0.53122-0.54119-0.12962-0.27318
   0   1 -1077676.08 4704.58   1-0.97528 0.93206-0.19998 0.18877-0.09390-0.30922
   0  -1   9590367.015561.46   1 0.81984-0.78097 0.56502-0.56315 0.09245 0.26998
   0   1  -9619427.616041.49   1-0.86576 0.82832 0.49112-0.49266-0.09586-0.26666
   0   1  -9594101.715944.19   1-0.97547 0.93691-0.20570 0.20305-0.07828-0.28452
   0  -1   8843027.812901.15   1 0.82052-0.78634 0.56482-0.57142 0.08748 0.23468
   0   1  -8947353.027174.90   1-0.89087 0.85795 0.44990-0.44300-0.06224-0.26000
   0   1  -8886686.511337.28   1