
#######################################################################
#
#                 Cambridge Crystallographic Data Centre
#                                CCDC
#
#######################################################################
#
# If this CIF has been generated from an entry in the Cambridge
# Structural Database, then it will include bibliographic, chemical,
# crystal, experimental, refinement or atomic coordinate data resulting
# from the CCDC's data processing and validation procedures.
#
#######################################################################

data_CSD_CIF_MULJIM
_audit_creation_date 2003-02-20
_audit_creation_method CSD-ConQuest-V1
_database_code_CSD MULJIM
_database_code_depnum_ccdc_archive 'CCDC 188467; not CCDC 164967 as published'
_chemical_formula_sum 'C6 H5 Co1 I2 O1'
_chemical_formula_moiety
;
C6 H5 Co1 I2 O1
;
_journal_coden_Cambridge 186
_journal_year 2002
_journal_page_first 4595
_journal_name_full 'J.Chem.Soc.,Dalton Trans. '
loop_
_publ_author_name
"T.Aviles"
"A.Dinis"
"J.O.Goncalves"
"V.Felix"
"M.J.Calhorda"
"A.Prazeres"
"M.G.B.Drew"
"H.Alves"
"R.T.Henriques"
"V.da Gama"
"P.Zanello"
"M.Fontani"
_chemical_name_systematic
;
(\h^5^-cyclopentadienyl)-carbonyl-bis(iodo)-cobalt(iii)
;
_chemical_name_common
;
Teaching Subset: Fundamental Chemistry, Symmetry
;
_cell_volume    468.879
_exptl_crystal_density_diffrn 2.875
_diffrn_ambient_temperature 293
#These two values have been output from a single CSD field.
_refine_ls_R_factor_gt 0.0378
_refine_ls_wR_factor_gt 0.0378
_symmetry_cell_setting monoclinic
_symmetry_space_group_name_H-M 'P 21/m'
_symmetry_Int_Tables_number 11
loop_
_symmetry_equiv_pos_site_id
_symmetry_equiv_pos_as_xyz
1 x,y,z
2 -x,1/2+y,-z
3 -x,-y,-z
4 x,-1/2-y,z
_cell_length_a 6.730(12)
_cell_length_b 11.167(17)
_cell_length_c 7.033(12)
_cell_angle_alpha 90
_cell_angle_beta 117.49(1)
_cell_angle_gamma 90
_cell_formula_units_Z 2
loop_
_atom_type_symbol
_atom_type_radius_bond
C 0.68
H 0.23
Co 1.33
I 1.40
O 0.68
loop_
_atom_site_label
_atom_site_type_symbol
_atom_site_fract_x
_atom_site_fract_y
_atom_site_fract_z
I1 I 0.26715(7) 0.08201(4) 0.65998(7)
Co1 Co 0.54790(16) 0.25000 0.85538(14)
C1 C 0.7593(13) 0.1881(8) 0.7399(14)
H1 H 0.71750 0.13820 0.62170
C2 C 0.8336(17) 0.1534(10) 0.949(2)
H2 H 0.85040 0.07450 0.99680
C3 C 0.878(2) 0.25000 1.075(2)
H3 H 0.93000 0.25000 1.22220
C4 C 0.4563(15) 0.25000 1.0534(14)
O1 O 0.3980(15) 0.25000 1.1816(12)
I1C I 0.26715(7) 0.41799(4) 0.65998(7)
C1C C 0.7593(13) 0.3119(8) 0.7399(14)
C2C C 0.8336(17) 0.3466(10) 0.949(2)
H1C H 0.71750 0.36180 0.62170
H2C H 0.85040 0.42550 0.99680
#END
