####################################################################### 
# 
# This file contains crystal structure data downloaded from the 
# Cambridge Structural Database (CSD) hosted by the Cambridge 
# Crystallographic Data Centre (CCDC).
# 
# Full information about CCDC data access policies and citation 
# guidelines are available at http://www.ccdc.cam.ac.uk/access/V1 
# 
# Audit and citation data items may have been added by the CCDC. 
# Please retain this information to preserve the provenance of 
# this file and to allow appropriate attribution of the data. 
# 
#######################################################################

data_zn
_audit_block_doi                 10.5517/ccr4ncw
_database_code_depnum_ccdc_archive 'CCDC 689668'
loop_
_citation_id
_citation_doi
_citation_year
1 10.1080/15533170802440755 2008
_audit_update_record             
;
2008-05-29 deposited with the CCDC.	2024-07-11 downloaded from the CCDC.
;

_audit_creation_method           SHELXL-97
_chemical_name_systematic        
;
?
;
_chemical_name_common            ?
_chemical_melting_point          ?
_chemical_formula_moiety         ?
_chemical_formula_sum            'C10 H12 N4 O15 Zn3'
_chemical_formula_weight         624.35

loop_
_atom_type_symbol
_atom_type_description
_atom_type_scat_dispersion_real
_atom_type_scat_dispersion_imag
_atom_type_scat_source
C C 0.0181 0.0091 'International Tables Vol C Tables 4.2.6.8 and 6.1.1.4'
H H 0.0000 0.0000 'International Tables Vol C Tables 4.2.6.8 and 6.1.1.4'
N N 0.0311 0.0180 'International Tables Vol C Tables 4.2.6.8 and 6.1.1.4'
O O 0.0492 0.0322 'International Tables Vol C Tables 4.2.6.8 and 6.1.1.4'
Zn Zn -1.5491 0.6778 'International Tables Vol C Tables 4.2.6.8 and 6.1.1.4'

_symmetry_cell_setting           Monoclinic
_symmetry_space_group_name_H-M   P2(1)/n

loop_
_symmetry_equiv_pos_as_xyz
'x, y, z'
'-x+1/2, y+1/2, -z+1/2'
'-x, -y, -z'
'x-1/2, -y-1/2, z-1/2'

_cell_length_a                   11.7437(2)
_cell_length_b                   18.9251(3)
_cell_length_c                   13.0101(4)
_cell_angle_alpha                90.00
_cell_angle_beta                 112.316(3)
_cell_angle_gamma                90.00
_cell_volume                     2674.94(10)
_cell_formula_units_Z            4
_cell_measurement_temperature    293(2)
_cell_measurement_reflns_used    3909
_cell_measurement_theta_min      3.6724
_cell_measurement_theta_max      61.4646

_exptl_crystal_description       BLOCK
_exptl_crystal_colour            COLORLESS
_exptl_crystal_size_max          0.24
_exptl_crystal_size_mid          0.22
_exptl_crystal_size_min          0.20
_exptl_crystal_density_meas      ?
_exptl_crystal_density_diffrn    1.550
_exptl_crystal_density_method    'not measured'
_exptl_crystal_F_000             1240
_exptl_absorpt_coefficient_mu    3.743
_exptl_absorpt_correction_type   MULTI-SCAN
_exptl_absorpt_correction_T_min  0.468
_exptl_absorpt_correction_T_max  0.473
_exptl_absorpt_process_details   SADABS

_exptl_special_details           
;
?
;

_diffrn_ambient_temperature      293(2)
_diffrn_radiation_wavelength     1.54178
_diffrn_radiation_type           CuK\a
_diffrn_radiation_source         'fine-focus sealed tube'
_diffrn_radiation_monochromator  graphite
_diffrn_measurement_device_type  'CCD area detector'
_diffrn_measurement_method       'phi and omega scans'
_diffrn_detector_area_resol_mean ?
_diffrn_standards_number         ?
_diffrn_standards_interval_count ?
_diffrn_standards_interval_time  ?
_diffrn_standards_decay_%        ?
_diffrn_reflns_number            10516
_diffrn_reflns_av_R_equivalents  0.0308
_diffrn_reflns_av_sigmaI/netI    0.0546
_diffrn_reflns_limit_h_min       -13
_diffrn_reflns_limit_h_max       12
_diffrn_reflns_limit_k_min       -21
_diffrn_reflns_limit_k_max       14
_diffrn_reflns_limit_l_min       -13
_diffrn_reflns_limit_l_max       14
_diffrn_reflns_theta_min         4.32
_diffrn_reflns_theta_max         61.47
_reflns_number_total             4028
_reflns_number_gt                2645
_reflns_threshold_expression     >2sigma(I)

_computing_data_collection       'Bruker XSCANS'
_computing_cell_refinement       'Bruker XSCANS'
_computing_data_reduction        'Bruker SHELXTL'
_computing_structure_solution    'SHELXS-97 (Sheldrick, 1990)'
_computing_structure_refinement  'SHELXL-97 (Sheldrick, 1997)'
_computing_molecular_graphics    'Bruker SHELXTL'
_computing_publication_material  'Bruker SHELXTL'

_refine_special_details          
;
Refinement of F^2^ against ALL reflections. The weighted R-factor wR and
goodness of fit S are based on F^2^, conventional R-factors R are based
on F, with F set to zero for negative F^2^. The threshold expression of
F^2^ > 2sigma(F^2^) is used only for calculating R-factors(gt) etc. and is
not relevant to the choice of reflections for refinement. R-factors based
on F^2^ are statistically about twice as large as those based on F, and R-
factors based on ALL data will be even larger.
;

_refine_ls_structure_factor_coef Fsqd
_refine_ls_matrix_type           full
_refine_ls_weighting_scheme      calc
_refine_ls_weighting_details     
'calc w=1/[\s^2^(Fo^2^)+(0.1500P)^2^+0.0000P] where P=(Fo^2^+2Fc^2^)/3'
_atom_sites_solution_primary     direct
_atom_sites_solution_secondary   difmap
_atom_sites_solution_hydrogens   geom
_refine_ls_hydrogen_treatment    mixed
_refine_ls_extinction_method     none
_refine_ls_extinction_coef       ?
_refine_ls_number_reflns         4028
_refine_ls_number_parameters     297
_refine_ls_number_restraints     8
_refine_ls_R_factor_all          0.0920
_refine_ls_R_factor_gt           0.0721
_refine_ls_wR_factor_ref         0.2124
_refine_ls_wR_factor_gt          0.2009
_refine_ls_goodness_of_fit_ref   1.005
_refine_ls_restrained_S_all      1.004
_refine_ls_shift/su_max          0.000
_refine_ls_shift/su_mean         0.000

loop_
_atom_site_label
_atom_site_type_symbol
_atom_site_fract_x
_atom_site_fract_y
_atom_site_fract_z
_atom_site_U_iso_or_equiv
_atom_site_adp_type
_atom_site_occupancy
_atom_site_symmetry_multiplicity
_atom_site_calc_flag
_atom_site_refinement_flags
_atom_site_disorder_assembly
_atom_site_disorder_group
O3W O 0.089(3) 0.2047(7) 0.3633(16) 0.331(17) Uani 1 1 d . . .
H7W H 0.0560 0.2491 0.3508 0.398 Uiso 1 1 d R . .
H8W H 0.1575 0.1979 0.4165 0.398 Uiso 1 1 d R . .
O4W O 0.8249(9) 0.1438(6) 0.1923(13) 0.161(6) Uani 1 1 d D . .
H5W H 0.7597 0.1686 0.1774 0.194 Uiso 1 1 d RD . .
H6W H 0.8465 0.1244 0.1445 0.194 Uiso 1 1 d R . .
Zn1 Zn 0.82390(8) 0.37185(5) 0.34921(9) 0.0392(4) Uani 1 1 d . . .
Zn2 Zn 0.33880(9) 0.41437(6) 0.37745(11) 0.0486(4) Uani 1 1 d . . .
O3 O 0.6800(4) 0.4338(3) 0.3474(5) 0.0409(13) Uani 1 1 d . . .
O2 O 0.5138(4) 0.4587(3) 0.3816(5) 0.0467(15) Uani 1 1 d . . .
O4 O 0.6146(5) 0.2223(3) 0.1394(5) 0.0492(15) Uani 1 1 d . . .
O1W O 0.3947(6) 0.4159(3) 0.5401(6) 0.0540(16) Uani 1 1 d D . .
C6 C 0.9074(6) 0.5285(4) 0.3687(6) 0.0336(17) Uani 1 1 d . . .
H6 H 0.8393 0.5479 0.3783 0.040 Uiso 1 1 calc R . .
C4 C 0.5764(6) 0.4180(4) 0.3467(7) 0.0340(17) Uani 1 1 d . . .
O5 O 0.7234(5) 0.3182(3) 0.2105(5) 0.0522(17) Uani 1 1 d . . .
O6 O 0.8442(6) 0.3069(4) 0.4694(7) 0.085(3) Uani 1 1 d . . .
H1W H 0.7632 0.2946 0.4661 0.102 Uiso 1 1 d R . .
H2W H 0.8782 0.2636 0.4521 0.102 Uiso 1 1 d R . .
O7 O 0.9911(5) 0.3330(4) 0.3264(8) 0.099(3) Uani 1 1 d . . .
N3 N 0.9219(5) 0.4603(3) 0.3583(5) 0.0332(14) Uani 1 1 d . . .
N2 N 0.4099(5) 0.3358(3) 0.3170(6) 0.0387(16) Uani 1 1 d . . .
C1 C 0.3726(6) 0.2727(4) 0.2714(7) 0.042(2) Uani 1 1 d . . .
H1 H 0.3025 0.2498 0.2712 0.050 Uiso 1 1 calc R . .
C2 C 0.5409(6) 0.2944(4) 0.2469(7) 0.0349(18) Uani 1 1 d . . .
N1 N 0.4477(5) 0.2463(3) 0.2261(6) 0.0452(18) Uani 1 1 d . . .
C5 C 0.6332(6) 0.2776(4) 0.1968(7) 0.0407(19) Uani 1 1 d . . .
C3 C 0.5168(6) 0.3500(4) 0.3031(6) 0.0319(17) Uani 1 1 d . . .
C9 C 1.0821(6) 0.5191(4) 0.3517(6) 0.0324(17) Uani 1 1 d . . .
N4 N 1.0013(5) 0.5670(3) 0.3642(6) 0.0378(15) Uani 1 1 d . . .
C8 C 1.0708(7) 0.3797(5) 0.3353(9) 0.058(3) Uani 1 1 d . . .
C7 C 1.0343(6) 0.4521(4) 0.3490(7) 0.0356(18) Uani 1 1 d . . .
Zn3 Zn 0.94398(9) 0.33179(6) 0.62111(11) 0.0500(4) Uani 1 1 d . . .
O2W O 0.5869(10) 0.3250(6) 0.6214(13) 0.186(7) Uani 1 1 d D . .
O8 O 1.1733(5) 0.3648(3) 0.3323(7) 0.078(3) Uani 1 1 d . . .
O1 O 0.2746(5) 0.5094(3) 0.3261(5) 0.0508(15) Uani 1 1 d . . .
C10 C 1.1949(7) 0.5492(5) 0.3397(8) 0.051(2) Uani 1 1 d . . .
O9 O 1.2026(6) 0.6157(4) 0.3423(8) 0.089(3) Uani 1 1 d . . .
O6W O 0.813(3) 0.3250(15) 0.042(2) 0.42(3) Uani 1 1 d . . .
H3W H 0.368(10) 0.446(5) 0.573(5) 0.12(6) Uiso 1 1 d D . .
H4W H 0.447(2) 0.3867(13) 0.578(2) 0.09(4) Uiso 1 1 d D . .
H9W H 0.5911 0.3457 0.6793 0.107 Uiso 1 1 d RD . .
H10W H 0.6362 0.3395 0.5905 0.107 Uiso 1 1 d RD . .
O5W O 0.575(4) 0.1849(12) 0.573(3) 0.62(4) Uani 1 1 d . . .

loop_
_atom_site_aniso_label
_atom_site_aniso_U_11
_atom_site_aniso_U_22
_atom_site_aniso_U_33
_atom_site_aniso_U_23
_atom_site_aniso_U_13
_atom_site_aniso_U_12
O3W 0.79(5) 0.065(8) 0.27(2) 0.049(10) 0.34(3) 0.087(18)
O4W 0.091(7) 0.105(8) 0.302(18) -0.060(10) 0.089(10) 0.003(6)
Zn1 0.0202(5) 0.0322(6) 0.0677(8) -0.0130(5) 0.0196(5) -0.0047(4)
Zn2 0.0274(6) 0.0340(6) 0.0942(10) -0.0203(6) 0.0342(6) -0.0060(4)
O3 0.026(3) 0.027(3) 0.077(4) -0.010(3) 0.028(3) -0.005(2)
O2 0.028(3) 0.033(3) 0.092(4) -0.017(3) 0.036(3) -0.004(2)
O4 0.031(3) 0.048(3) 0.076(4) -0.035(3) 0.029(3) -0.016(3)
O1W 0.054(4) 0.029(3) 0.084(5) -0.006(3) 0.032(3) -0.006(3)
C6 0.021(3) 0.040(5) 0.041(5) 0.004(3) 0.014(3) 0.004(3)
C4 0.022(4) 0.027(4) 0.055(5) 0.000(3) 0.016(3) 0.002(3)
O5 0.031(3) 0.059(4) 0.080(4) -0.033(3) 0.036(3) -0.023(3)
O6 0.049(4) 0.045(4) 0.127(7) 0.035(4) -0.005(4) -0.020(3)
O7 0.030(3) 0.052(4) 0.227(10) -0.067(5) 0.065(5) -0.019(3)
N3 0.024(3) 0.032(4) 0.044(4) -0.002(3) 0.013(3) -0.002(2)
N2 0.021(3) 0.035(4) 0.063(4) -0.014(3) 0.019(3) 0.000(3)
C1 0.028(4) 0.030(4) 0.079(6) -0.019(4) 0.032(4) -0.012(3)
C2 0.021(3) 0.035(4) 0.051(5) -0.007(3) 0.016(3) -0.003(3)
N1 0.026(3) 0.033(4) 0.080(5) -0.024(3) 0.025(3) -0.009(3)
C5 0.025(4) 0.043(5) 0.056(5) -0.011(4) 0.017(4) -0.004(3)
C3 0.020(3) 0.030(4) 0.046(5) -0.001(3) 0.013(3) -0.002(3)
C9 0.022(3) 0.041(4) 0.036(4) 0.004(3) 0.013(3) 0.000(3)
N4 0.028(3) 0.036(4) 0.056(4) 0.019(3) 0.024(3) 0.006(3)
C8 0.025(4) 0.048(5) 0.105(8) -0.036(5) 0.031(5) -0.013(4)
C7 0.018(3) 0.043(5) 0.048(5) -0.004(4) 0.015(3) -0.001(3)
Zn3 0.0331(6) 0.0357(7) 0.0891(10) 0.0283(6) 0.0319(6) 0.0100(4)
O2W 0.093(8) 0.086(8) 0.280(17) 0.015(9) -0.042(9) 0.000(6)
O8 0.030(3) 0.049(4) 0.167(8) -0.056(4) 0.049(4) -0.015(3)
O1 0.030(3) 0.051(4) 0.082(4) 0.012(3) 0.033(3) 0.006(3)
C10 0.030(4) 0.063(6) 0.069(6) 0.034(5) 0.027(4) 0.015(4)
O9 0.052(4) 0.041(4) 0.202(9) 0.057(5) 0.079(5) 0.022(3)
O6W 0.58(5) 0.42(4) 0.52(4) -0.24(3) 0.51(4) -0.29(4)
O5W 0.65(6) 0.161(19) 0.50(5) -0.04(2) -0.40(4) -0.02(3)

_geom_special_details            
;
All esds (except the esd in the dihedral angle between two l.s. planes)
are estimated using the full covariance matrix. The cell esds are taken
into account individually in the estimation of esds in distances, angles
and torsion angles; correlations between esds in cell parameters are only
used when they are defined by crystal symmetry. An approximate (isotropic)
treatment of cell esds is used for estimating esds involving l.s. planes.
;

loop_
_geom_bond_atom_site_label_1
_geom_bond_atom_site_label_2
_geom_bond_distance
_geom_bond_site_symmetry_2
_geom_bond_publ_flag
O3W H7W 0.9127 . ?
O3W H8W 0.8499 . ?
O4W H5W 0.8552 . ?
O4W H6W 0.8404 . ?
Zn1 O6 1.932(7) . ?
Zn1 N3 2.010(6) . ?
Zn1 O5 2.016(6) . ?
Zn1 O3 2.049(5) . ?
Zn1 O7 2.219(5) . ?
Zn2 O1W 1.964(7) . ?
Zn2 O1 1.966(6) . ?
Zn2 N2 2.006(6) . ?
Zn2 O8 2.033(5) 1_455 ?
Zn2 O2 2.202(5) . ?
O3 C4 1.250(8) . ?
O2 C4 1.262(9) . ?
O4 C5 1.256(9) . ?
O4 Zn3 2.181(5) 4_565 ?
O1W H3W 0.84(2) . ?
O1W H4W 0.84(2) . ?
C6 N3 1.315(10) . ?
C6 N4 1.342(9) . ?
C6 H6 0.9300 . ?
C4 C3 1.471(10) . ?
O5 C5 1.264(9) . ?
O6 Zn3 1.933(8) . ?
O6 H1W 0.9646 . ?
O6 H2W 0.9738 . ?
O7 C8 1.261(10) . ?
N3 C7 1.379(9) . ?
N2 C1 1.331(9) . ?
N2 C3 1.361(9) . ?
C1 N1 1.329(9) . ?
C1 H1 0.9300 . ?
C2 N1 1.368(9) . ?
C2 C3 1.372(10) . ?
C2 C5 1.496(10) . ?
N1 Zn3 2.003(6) 4_565 ?
C9 N4 1.366(9) . ?
C9 C7 1.382(11) . ?
C9 C10 1.504(10) . ?
N4 Zn3 2.006(6) 3_766 ?
C8 O8 1.252(9) . ?
C8 C7 1.467(12) . ?
Zn3 N1 2.003(6) 4_666 ?
Zn3 N4 2.006(6) 3_766 ?
Zn3 O4 2.181(5) 4_666 ?
Zn3 O9 2.191(6) 3_766 ?
O2W H9W 0.8337 . ?
O2W H10W 0.8660 . ?
O8 Zn2 2.033(5) 1_655 ?
O1 C10 1.266(10) 1_455 ?
C10 O9 1.261(12) . ?
C10 O1 1.266(10) 1_655 ?
O9 Zn3 2.191(6) 3_766 ?

loop_
_geom_angle_atom_site_label_1
_geom_angle_atom_site_label_2
_geom_angle_atom_site_label_3
_geom_angle
_geom_angle_site_symmetry_1
_geom_angle_site_symmetry_3
_geom_angle_publ_flag
H7W O3W H8W 119.4 . . ?
H5W O4W H6W 124.7 . . ?
O6 Zn1 N3 126.2(3) . . ?
O6 Zn1 O5 104.7(3) . . ?
N3 Zn1 O5 126.9(3) . . ?
O6 Zn1 O3 102.8(3) . . ?
N3 Zn1 O3 88.6(2) . . ?
O5 Zn1 O3 94.5(2) . . ?
O6 Zn1 O7 93.1(4) . . ?
N3 Zn1 O7 76.6(2) . . ?
O5 Zn1 O7 87.7(2) . . ?
O3 Zn1 O7 162.8(3) . . ?
O1W Zn2 O1 106.3(3) . . ?
O1W Zn2 N2 114.5(3) . . ?
O1 Zn2 N2 135.0(3) . . ?
O1W Zn2 O8 102.1(3) . 1_455 ?
O1 Zn2 O8 97.0(3) . 1_455 ?
N2 Zn2 O8 92.2(2) . 1_455 ?
O1W Zn2 O2 92.3(2) . . ?
O1 Zn2 O2 83.9(2) . . ?
N2 Zn2 O2 76.6(2) . . ?
O8 Zn2 O2 164.5(3) 1_455 . ?
C4 O3 Zn1 131.3(5) . . ?
C4 O2 Zn2 115.1(4) . . ?
C5 O4 Zn3 113.7(4) . 4_565 ?
Zn2 O1W H3W 122(4) . . ?
Zn2 O1W H4W 119.8(18) . . ?
H3W O1W H4W 118(4) . . ?
N3 C6 N4 112.8(6) . . ?
N3 C6 H6 123.6 . . ?
N4 C6 H6 123.6 . . ?
O3 C4 O2 123.3(7) . . ?
O3 C4 C3 122.1(6) . . ?
O2 C4 C3 114.6(6) . . ?
C5 O5 Zn1 127.3(5) . . ?
Zn1 O6 Zn3 120.8(3) . . ?
Zn1 O6 H1W 107.5 . . ?
Zn3 O6 H1W 108.0 . . ?
Zn1 O6 H2W 106.5 . . ?
Zn3 O6 H2W 107.4 . . ?
H1W O6 H2W 105.7 . . ?
C8 O7 Zn1 114.8(5) . . ?
C6 N3 C7 106.6(6) . . ?
C6 N3 Zn1 136.9(5) . . ?
C7 N3 Zn1 116.5(5) . . ?
C1 N2 C3 106.3(6) . . ?
C1 N2 Zn2 136.4(5) . . ?
C3 N2 Zn2 116.6(5) . . ?
N1 C1 N2 111.9(6) . . ?
N1 C1 H1 124.0 . . ?
N2 C1 H1 124.0 . . ?
N1 C2 C3 107.7(6) . . ?
N1 C2 C5 115.6(6) . . ?
C3 C2 C5 136.5(7) . . ?
C1 N1 C2 106.2(6) . . ?
C1 N1 Zn3 137.2(5) . 4_565 ?
C2 N1 Zn3 115.7(5) . 4_565 ?
O4 C5 O5 122.5(7) . . ?
O4 C5 C2 116.3(6) . . ?
O5 C5 C2 121.2(7) . . ?
N2 C3 C2 107.9(6) . . ?
N2 C3 C4 116.7(6) . . ?
C2 C3 C4 135.5(6) . . ?
N4 C9 C7 108.5(6) . . ?
N4 C9 C10 116.1(7) . . ?
C7 C9 C10 135.3(7) . . ?
C6 N4 C9 105.3(6) . . ?
C6 N4 Zn3 138.9(5) . 3_766 ?
C9 N4 Zn3 115.7(4) . 3_766 ?
O8 C8 O7 121.9(8) . . ?
O8 C8 C7 123.0(7) . . ?
O7 C8 C7 115.1(6) . . ?
N3 C7 C9 106.7(6) . . ?
N3 C7 C8 116.7(7) . . ?
C9 C7 C8 136.5(6) . . ?
O6 Zn3 N1 111.4(3) . 4_666 ?
O6 Zn3 N4 112.2(3) . 3_766 ?
N1 Zn3 N4 135.8(3) 4_666 3_766 ?
O6 Zn3 O4 99.9(3) . 4_666 ?
N1 Zn3 O4 78.3(2) 4_666 4_666 ?
N4 Zn3 O4 101.0(2) 3_766 4_666 ?
O6 Zn3 O9 96.4(4) . 3_766 ?
N1 Zn3 O9 90.1(3) 4_666 3_766 ?
N4 Zn3 O9 78.2(2) 3_766 3_766 ?
O4 Zn3 O9 162.6(3) 4_666 3_766 ?
H9W O2W H10W 100.00 . . ?
C8 O8 Zn2 135.4(5) . 1_655 ?
C10 O1 Zn2 134.9(5) 1_455 . ?
O9 C10 O1 123.3(7) . 1_655 ?
O9 C10 C9 115.6(7) . . ?
O1 C10 C9 121.0(8) 1_655 . ?
C10 O9 Zn3 113.8(5) . 3_766 ?

_diffrn_measured_fraction_theta_max 0.970
_diffrn_reflns_theta_full        61.47
_diffrn_measured_fraction_theta_full 0.970
_refine_diff_density_max         1.465
_refine_diff_density_min         -0.931
_refine_diff_density_rms         0.207


