####################################################################### 
# 
# This file contains crystal structure data downloaded from the 
# Cambridge Structural Database (CSD) hosted by the Cambridge 
# Crystallographic Data Centre (CCDC).
# 
# Full information about CCDC data access policies and citation 
# guidelines are available at http://www.ccdc.cam.ac.uk/access/V1 
# 
# Audit and citation data items may have been added by the CCDC. 
# Please retain this information to preserve the provenance of 
# this file and to allow appropriate attribution of the data. 
# 
#######################################################################

data_ye201_0m
_audit_block_doi                 10.5517/cc13l34y
_database_code_depnum_ccdc_archive 'CCDC 1030289'
loop_
_citation_id
_citation_doi
_citation_year
1 10.1002/ejic.201500294 2015
_audit_update_record             
;
2015-05-12 deposited with the CCDC.	2024-07-11 downloaded from the CCDC.
;

_audit_creation_method           'APEX2 v2014.1-1'
_chemical_name_systematic        
;
 ?
;
_chemical_name_common            ?
_chemical_melting_point          ?
_chemical_formula_moiety         ?
_chemical_formula_sum            'C44 H24 Co N8 O1.33'
_chemical_formula_weight         744.97

loop_
_atom_type_symbol
_atom_type_description
_atom_type_scat_dispersion_real
_atom_type_scat_dispersion_imag
_atom_type_scat_source
C C 0.0033 0.0016 'International Tables Vol C Tables 4.2.6.8 and 6.1.1.4'
H H 0.0000 0.0000 'International Tables Vol C Tables 4.2.6.8 and 6.1.1.4'
N N 0.0061 0.0033 'International Tables Vol C Tables 4.2.6.8 and 6.1.1.4'
O O 0.0106 0.0060 'International Tables Vol C Tables 4.2.6.8 and 6.1.1.4'
Co Co 0.3494 0.9721 'International Tables Vol C Tables 4.2.6.8 and 6.1.1.4'

_space_group_crystal_system      trigonal
_space_group_IT_number           148
_space_group_name_H-M_alt        'R -3'
_space_group_name_Hall           '-R 3'

_shelx_space_group_comment       
;
The symmetry employed for this shelxl refinement is uniquely defined
by the following loop, which should always be used as a source of
symmetry information in preference to the above space-group names.
They are only intended as comments.
;

loop_
_space_group_symop_operation_xyz
'x, y, z'
'-y, x-y, z'
'-x+y, -x, z'
'x+2/3, y+1/3, z+1/3'
'-y+2/3, x-y+1/3, z+1/3'
'-x+y+2/3, -x+1/3, z+1/3'
'x+1/3, y+2/3, z+2/3'
'-y+1/3, x-y+2/3, z+2/3'
'-x+y+1/3, -x+2/3, z+2/3'
'-x, -y, -z'
'y, -x+y, -z'
'x-y, x, -z'
'-x+2/3, -y+1/3, -z+1/3'
'y+2/3, -x+y+1/3, -z+1/3'
'x-y+2/3, x+1/3, -z+1/3'
'-x+1/3, -y+2/3, -z+2/3'
'y+1/3, -x+y+2/3, -z+2/3'
'x-y+1/3, x+2/3, -z+2/3'

_cell_length_a                   32.8171(5)
_cell_length_b                   32.8171(5)
_cell_length_c                   9.2305(2)
_cell_angle_alpha                90
_cell_angle_beta                 90
_cell_angle_gamma                120
_cell_volume                     8609.1(3)
_cell_formula_units_Z            9
_cell_measurement_temperature    296(2)
_cell_measurement_reflns_used    9986
_cell_measurement_theta_min      2.3199
_cell_measurement_theta_max      28.3124

_exptl_crystal_description       needle
_exptl_crystal_colour            'dark green'
_exptl_crystal_density_meas      ?
_exptl_crystal_density_method    'not measured'
_exptl_crystal_density_diffrn    1.293
_exptl_crystal_F_000             3435
_exptl_transmission_factor_min   ?
_exptl_transmission_factor_max   ?
_exptl_crystal_size_max          0.280
_exptl_crystal_size_mid          0.080
_exptl_crystal_size_min          0.080
_exptl_absorpt_coefficient_mu    0.495
_shelx_estimated_absorpt_T_min   0.874
_shelx_estimated_absorpt_T_max   0.962
_exptl_absorpt_correction_type   multi-scan
_exptl_absorpt_correction_T_min  0.83
_exptl_absorpt_correction_T_max  0.96
_exptl_absorpt_process_details   'SADABS V2012/1 (Bruker AXS Inc.)'

_exptl_special_details           
;
 ?
;

_diffrn_ambient_temperature      296(2)
_diffrn_radiation_wavelength     0.71073
_diffrn_radiation_type           MoK\a
_diffrn_source                   ?
_diffrn_measurement_device_type  'Bruker APEX-II CCD'
_diffrn_measurement_method       'phi and omega scans'
_diffrn_detector_area_resol_mean 8.3333
_diffrn_reflns_number            87677
_diffrn_reflns_av_unetI/netI     0.0528
_diffrn_reflns_av_R_equivalents  0.1280
_diffrn_reflns_limit_h_min       -43
_diffrn_reflns_limit_h_max       43
_diffrn_reflns_limit_k_min       -43
_diffrn_reflns_limit_k_max       43
_diffrn_reflns_limit_l_min       -12
_diffrn_reflns_limit_l_max       12
_diffrn_reflns_theta_min         2.910
_diffrn_reflns_theta_max         28.337
_diffrn_reflns_theta_full        25.242
_diffrn_measured_fraction_theta_max 0.989
_diffrn_measured_fraction_theta_full 0.992
_diffrn_reflns_Laue_measured_fraction_max 0.989
_diffrn_reflns_Laue_measured_fraction_full 0.992
_diffrn_reflns_point_group_measured_fraction_max 0.989
_diffrn_reflns_point_group_measured_fraction_full 0.992
_reflns_number_total             4735
_reflns_number_gt                3480
_reflns_threshold_expression     'I > 2\s(I)'
_reflns_Friedel_coverage         0.000
_reflns_Friedel_fraction_max     .
_reflns_Friedel_fraction_full    .

_reflns_special_details          
;
 Reflections were merged by SHELXL according to the crystal
 class for the calculation of statistics and refinement.
 
 _reflns_Friedel_fraction is defined as the number of unique
 Friedel pairs measured divided by the number that would be
 possible theoretically, ignoring centric projections and
 systematic absences.
;

_computing_data_collection       'Bruker Instrument Service v2013.12.0.0'
_computing_cell_refinement       'SAINT V8.34A (Bruker AXS Inc., 2013)'
_computing_data_reduction        'SAINT V8.34A (Bruker AXS Inc., 2013)'
_computing_structure_solution    'SHELXS-97 (Sheldrick, 2008)'
_computing_structure_refinement  'SHELXL-2013 (Sheldrick, 2013)'
_computing_molecular_graphics    'Bruker SHELXTL'
_computing_publication_material  'Bruker SHELXTL'

_refine_special_details          
;
 ?
;
_refine_ls_structure_factor_coef Fsqd
_refine_ls_matrix_type           full
_refine_ls_weighting_scheme      calc
_refine_ls_weighting_details     
'w=1/[\s^2^(Fo^2^)+(0.0414P)^2^+19.7340P] where P=(Fo^2^+2Fc^2^)/3'
_atom_sites_solution_primary     ?
_atom_sites_solution_secondary   ?
_atom_sites_solution_hydrogens   geom
_refine_ls_hydrogen_treatment    constr
_refine_ls_extinction_method     none
_refine_ls_extinction_coef       .
_refine_ls_number_reflns         4735
_refine_ls_number_parameters     253
_refine_ls_number_restraints     0
_refine_ls_R_factor_all          0.0978
_refine_ls_R_factor_gt           0.0691
_refine_ls_wR_factor_ref         0.1288
_refine_ls_wR_factor_gt          0.1188
_refine_ls_goodness_of_fit_ref   1.123
_refine_ls_restrained_S_all      1.123
_refine_ls_shift/su_max          0.000
_refine_ls_shift/su_mean         0.000

loop_
_atom_site_label
_atom_site_type_symbol
_atom_site_fract_x
_atom_site_fract_y
_atom_site_fract_z
_atom_site_U_iso_or_equiv
_atom_site_adp_type
_atom_site_occupancy
_atom_site_site_symmetry_order
_atom_site_calc_flag
_atom_site_refinement_flags_posn
_atom_site_refinement_flags_adp
_atom_site_refinement_flags_occupancy
_atom_site_disorder_assembly
_atom_site_disorder_group
Co1 Co 0.5000 0.0000 0.0000 0.02236(14) Uani 1 2 d S . P . .
N1 N 0.53592(7) 0.00274(7) 0.1778(2) 0.0268(5) Uani 1 1 d . . . . .
N2 N 0.49861(7) 0.05665(7) 0.0706(2) 0.0257(4) Uani 1 1 d . . . . .
N3 N 0.57450(7) 0.04363(8) -0.0976(2) 0.0354(5) Uani 1 1 d . . . . .
N4 N 0.6203(2) 0.2081(2) 0.9098(6) 0.167(3) Uani 1 1 d . . . . .
C1 C 0.55666(9) -0.02415(10) 0.2045(3) 0.0318(6) Uani 1 1 d . . . . .
C2 C 0.58491(11) -0.00793(12) 0.3338(3) 0.0462(8) Uani 1 1 d . . . . .
H2 H 0.6021 -0.0205 0.3746 0.055 Uiso 1 1 calc R U . . .
C3 C 0.58174(11) 0.02854(11) 0.3843(3) 0.0448(8) Uani 1 1 d . . . . .
H3 H 0.5963 0.0461 0.4668 0.054 Uiso 1 1 calc R U . . .
C4 C 0.55154(9) 0.03551(9) 0.2873(3) 0.0299(6) Uani 1 1 d . . . . .
C5 C 0.54199(9) 0.07258(9) 0.3000(3) 0.0298(6) Uani 1 1 d . . . . .
C6 C 0.51674(9) 0.08146(9) 0.1969(3) 0.0297(6) Uani 1 1 d . . . . .
C7 C 0.50431(11) 0.11746(11) 0.2108(3) 0.0439(7) Uani 1 1 d . . . . .
H7 H 0.5128 0.1391 0.2860 0.053 Uiso 1 1 calc R U . . .
C8 C 0.47805(11) 0.11407(11) 0.0949(3) 0.0425(7) Uani 1 1 d . . . . .
H8 H 0.4648 0.1327 0.0750 0.051 Uiso 1 1 calc R U . . .
C9 C 0.47433(9) 0.07624(9) 0.0079(3) 0.0309(6) Uani 1 1 d . . . . .
C10 C 0.55189(9) -0.06093(10) 0.1187(3) 0.0320(6) Uani 1 1 d . . . . .
C11 C 0.57742(10) -0.08625(10) 0.1633(3) 0.0346(6) Uani 1 1 d . . . . .
C12 C 0.55943(11) -0.12090(11) 0.2675(3) 0.0436(7) Uani 1 1 d . . . . .
H12 H 0.5316 -0.1283 0.3154 0.052 Uiso 1 1 calc R U . . .
C13 C 0.60556(10) 0.08344(11) -0.0335(3) 0.0431(7) Uani 1 1 d . . . . .
H13 H 0.5948 0.0960 0.0371 0.052 Uiso 1 1 calc R U . . .
C14 C 0.61877(11) -0.07681(11) 0.0968(3) 0.0434(7) Uani 1 1 d . . . . .
H14 H 0.6322 -0.0536 0.0262 0.052 Uiso 1 1 calc R U . . .
C15 C 0.59096(10) 0.02650(11) -0.1972(3) 0.0412(7) Uani 1 1 d . . . . .
H15 H 0.5698 -0.0014 -0.2431 0.049 Uiso 1 1 calc R U . . .
C16 C 0.55952(10) 0.10328(10) 0.4305(3) 0.0344(6) Uani 1 1 d . . . . .
C17 C 0.54166(11) 0.08532(11) 0.5657(3) 0.0440(7) Uani 1 1 d . . . . .
H17 H 0.5189 0.0538 0.5748 0.053 Uiso 1 1 calc R U . . .
C18 C 0.55703(13) 0.11334(14) 0.6878(4) 0.0546(9) Uani 1 1 d . . . . .
H18 H 0.5444 0.1008 0.7780 0.065 Uiso 1 1 calc R U . . .
C19 C 0.59131(14) 0.16010(14) 0.6752(4) 0.0623(10) Uani 1 1 d . . . . .
C20 C 0.60938(14) 0.17867(13) 0.5418(5) 0.0669(11) Uani 1 1 d . . . . .
H20 H 0.6323 0.2102 0.5335 0.080 Uiso 1 1 calc R U . . .
C21 C 0.59361(12) 0.15059(11) 0.4192(4) 0.0523(8) Uani 1 1 d . . . . .
H21 H 0.6059 0.1634 0.3289 0.063 Uiso 1 1 calc R U . . .
C22 C 0.6079(2) 0.18783(18) 0.8055(6) 0.1025(18) Uani 1 1 d . . . . .
O1 O 0.6433(6) 0.2674(7) 0.1953(17) 0.284(9) Uani 0.5 1 d . . P . .
O2 O 0.6667 0.3333 0.033(5) 0.319(16) Uani 0.5 3 d S T P . .

loop_
_atom_site_aniso_label
_atom_site_aniso_U_11
_atom_site_aniso_U_22
_atom_site_aniso_U_33
_atom_site_aniso_U_23
_atom_site_aniso_U_13
_atom_site_aniso_U_12
Co1 0.0173(2) 0.0257(3) 0.0296(2) 0.00371(19) 0.00161(19) 0.0149(2)
N1 0.0233(11) 0.0298(12) 0.0335(11) 0.0020(9) 0.0002(9) 0.0179(10)
N2 0.0196(10) 0.0272(11) 0.0347(11) 0.0041(9) 0.0017(8) 0.0149(9)
N3 0.0212(11) 0.0394(14) 0.0416(13) 0.0051(10) 0.0043(10) 0.0123(11)
N4 0.223(7) 0.146(5) 0.118(4) -0.086(4) -0.061(4) 0.082(5)
C1 0.0307(14) 0.0369(15) 0.0368(14) 0.0024(11) -0.0039(11) 0.0237(13)
C2 0.0519(19) 0.057(2) 0.0503(18) -0.0062(15) -0.0177(15) 0.0431(17)
C3 0.0490(19) 0.0516(19) 0.0454(17) -0.0103(14) -0.0199(14) 0.0339(17)
C4 0.0262(13) 0.0310(14) 0.0356(14) -0.0005(11) -0.0051(11) 0.0166(12)
C5 0.0237(13) 0.0295(14) 0.0381(14) -0.0003(11) -0.0009(11) 0.0148(11)
C6 0.0250(13) 0.0306(14) 0.0370(14) -0.0013(11) -0.0006(11) 0.0164(12)
C7 0.0535(19) 0.0427(18) 0.0494(17) -0.0110(14) -0.0119(15) 0.0345(16)
C8 0.0504(18) 0.0442(18) 0.0515(17) -0.0067(14) -0.0092(14) 0.0376(16)
C9 0.0300(14) 0.0333(15) 0.0384(14) 0.0009(11) -0.0009(11) 0.0227(12)
C10 0.0323(14) 0.0375(15) 0.0388(14) 0.0048(12) 0.0004(11) 0.0269(13)
C11 0.0405(16) 0.0395(16) 0.0379(14) -0.0023(12) -0.0063(12) 0.0305(14)
C12 0.0413(17) 0.0529(19) 0.0507(17) 0.0095(15) 0.0051(14) 0.0340(16)
C13 0.0276(15) 0.0426(18) 0.0535(18) -0.0029(14) 0.0093(13) 0.0133(14)
C14 0.0459(18) 0.0516(19) 0.0497(17) 0.0156(14) 0.0058(14) 0.0371(16)
C15 0.0248(14) 0.0409(17) 0.0430(16) -0.0042(13) 0.0031(12) 0.0052(13)
C16 0.0317(15) 0.0345(15) 0.0431(15) -0.0040(12) -0.0078(12) 0.0211(13)
C17 0.0423(18) 0.0449(18) 0.0443(17) -0.0025(14) -0.0016(14) 0.0214(15)
C18 0.059(2) 0.073(3) 0.0433(18) -0.0099(17) -0.0060(16) 0.043(2)
C19 0.070(3) 0.064(3) 0.063(2) -0.026(2) -0.023(2) 0.042(2)
C20 0.069(3) 0.040(2) 0.081(3) -0.0145(19) -0.018(2) 0.0192(19)
C21 0.053(2) 0.0400(18) 0.057(2) -0.0014(15) -0.0071(16) 0.0186(16)
C22 0.136(5) 0.090(4) 0.087(3) -0.048(3) -0.042(3) 0.061(3)
O1 0.233(15) 0.34(2) 0.243(15) -0.131(15) -0.017(12) 0.117(15)
O2 0.26(2) 0.26(2) 0.43(5) 0.000 0.000 0.132(10)

_geom_special_details            
;
 All esds (except the esd in the dihedral angle between two l.s. planes)
 are estimated using the full covariance matrix.  The cell esds are taken
 into account individually in the estimation of esds in distances, angles
 and torsion angles; correlations between esds in cell parameters are only
 used when they are defined by crystal symmetry.  An approximate (isotropic)
 treatment of cell esds is used for estimating esds involving l.s. planes.
;

loop_
_geom_bond_atom_site_label_1
_geom_bond_atom_site_label_2
_geom_bond_distance
_geom_bond_site_symmetry_2
_geom_bond_publ_flag
Co1 N2 1.992(2) . ?
Co1 N2 1.992(2) 10_655 ?
Co1 N1 1.996(2) . ?
Co1 N1 1.996(2) 10_655 ?
Co1 N3 2.310(2) . ?
Co1 N3 2.310(2) 10_655 ?
N1 C4 1.374(3) . ?
N1 C1 1.380(3) . ?
N2 C6 1.375(3) . ?
N2 C9 1.377(3) . ?
N3 C15 1.326(4) . ?
N3 C13 1.328(4) . ?
N4 C22 1.124(6) . ?
C1 C10 1.385(4) . ?
C1 C2 1.440(4) . ?
C2 C3 1.336(4) . ?
C2 H2 0.9300 . ?
C3 C4 1.436(4) . ?
C3 H3 0.9300 . ?
C4 C5 1.405(4) . ?
C5 C6 1.385(4) . ?
C5 C16 1.490(4) . ?
C6 C7 1.435(4) . ?
C7 C8 1.343(4) . ?
C7 H7 0.9300 . ?
C8 C9 1.432(4) . ?
C8 H8 0.9300 . ?
C9 C10 1.388(4) 10_655 ?
C10 C9 1.388(4) 10_655 ?
C10 C11 1.503(3) . ?
C11 C14 1.376(4) . ?
C11 C12 1.377(4) . ?
C12 C13 1.381(4) 5_545 ?
C12 H12 0.9300 . ?
C13 C12 1.381(4) 9_654 ?
C13 H13 0.9300 . ?
C14 C15 1.380(4) 5_545 ?
C14 H14 0.9300 . ?
C15 C14 1.380(4) 9_654 ?
C15 H15 0.9300 . ?
C16 C17 1.379(4) . ?
C16 C21 1.391(4) . ?
C17 C18 1.380(4) . ?
C17 H17 0.9300 . ?
C18 C19 1.381(5) . ?
C18 H18 0.9300 . ?
C19 C20 1.370(5) . ?
C19 C22 1.440(5) . ?
C20 C21 1.386(5) . ?
C20 H20 0.9300 . ?
C21 H21 0.9300 . ?

loop_
_geom_angle_atom_site_label_1
_geom_angle_atom_site_label_2
_geom_angle_atom_site_label_3
_geom_angle
_geom_angle_site_symmetry_1
_geom_angle_site_symmetry_3
_geom_angle_publ_flag
N2 Co1 N2 180.0 . 10_655 ?
N2 Co1 N1 88.72(8) . . ?
N2 Co1 N1 91.28(8) 10_655 . ?
N2 Co1 N1 91.28(8) . 10_655 ?
N2 Co1 N1 88.72(8) 10_655 10_655 ?
N1 Co1 N1 180.0 . 10_655 ?
N2 Co1 N3 93.43(8) . . ?
N2 Co1 N3 86.56(8) 10_655 . ?
N1 Co1 N3 82.80(8) . . ?
N1 Co1 N3 97.21(8) 10_655 . ?
N2 Co1 N3 86.56(8) . 10_655 ?
N2 Co1 N3 93.44(8) 10_655 10_655 ?
N1 Co1 N3 97.21(8) . 10_655 ?
N1 Co1 N3 82.79(8) 10_655 10_655 ?
N3 Co1 N3 180.0 . 10_655 ?
C4 N1 C1 105.0(2) . . ?
C4 N1 Co1 128.36(16) . . ?
C1 N1 Co1 125.95(17) . . ?
C6 N2 C9 105.1(2) . . ?
C6 N2 Co1 128.66(16) . . ?
C9 N2 Co1 125.96(17) . . ?
C15 N3 C13 116.8(2) . . ?
C15 N3 Co1 122.47(19) . . ?
C13 N3 Co1 119.33(19) . . ?
N1 C1 C10 125.3(2) . . ?
N1 C1 C2 110.1(2) . . ?
C10 C1 C2 124.6(2) . . ?
C3 C2 C1 107.2(2) . . ?
C3 C2 H2 126.4 . . ?
C1 C2 H2 126.4 . . ?
C2 C3 C4 107.1(3) . . ?
C2 C3 H3 126.5 . . ?
C4 C3 H3 126.5 . . ?
N1 C4 C5 125.6(2) . . ?
N1 C4 C3 110.6(2) . . ?
C5 C4 C3 123.8(2) . . ?
C6 C5 C4 122.8(2) . . ?
C6 C5 C16 118.9(2) . . ?
C4 C5 C16 118.4(2) . . ?
N2 C6 C5 125.8(2) . . ?
N2 C6 C7 110.3(2) . . ?
C5 C6 C7 123.9(2) . . ?
C8 C7 C6 107.2(3) . . ?
C8 C7 H7 126.4 . . ?
C6 C7 H7 126.4 . . ?
C7 C8 C9 106.9(2) . . ?
C7 C8 H8 126.5 . . ?
C9 C8 H8 126.5 . . ?
N2 C9 C10 125.7(2) . 10_655 ?
N2 C9 C8 110.5(2) . . ?
C10 C9 C8 123.7(2) 10_655 . ?
C1 C10 C9 125.2(2) . 10_655 ?
C1 C10 C11 118.3(2) . . ?
C9 C10 C11 116.5(2) 10_655 . ?
C14 C11 C12 117.7(2) . . ?
C14 C11 C10 120.9(3) . . ?
C12 C11 C10 121.4(3) . . ?
C11 C12 C13 119.1(3) . 5_545 ?
C11 C12 H12 120.5 . . ?
C13 C12 H12 120.5 5_545 . ?
N3 C13 C12 123.6(3) . 9_654 ?
N3 C13 H13 118.2 . . ?
C12 C13 H13 118.2 9_654 . ?
C11 C14 C15 119.3(3) . 5_545 ?
C11 C14 H14 120.4 . . ?
C15 C14 H14 120.4 5_545 . ?
N3 C15 C14 123.5(3) . 9_654 ?
N3 C15 H15 118.2 . . ?
C14 C15 H15 118.2 9_654 . ?
C17 C16 C21 118.5(3) . . ?
C17 C16 C5 120.3(3) . . ?
C21 C16 C5 121.1(3) . . ?
C16 C17 C18 121.2(3) . . ?
C16 C17 H17 119.4 . . ?
C18 C17 H17 119.4 . . ?
C17 C18 C19 119.7(3) . . ?
C17 C18 H18 120.2 . . ?
C19 C18 H18 120.2 . . ?
C20 C19 C18 120.0(3) . . ?
C20 C19 C22 121.8(4) . . ?
C18 C19 C22 118.2(4) . . ?
C19 C20 C21 120.2(3) . . ?
C19 C20 H20 119.9 . . ?
C21 C20 H20 119.9 . . ?
C20 C21 C16 120.3(3) . . ?
C20 C21 H21 119.8 . . ?
C16 C21 H21 119.8 . . ?
N4 C22 C19 177.6(6) . . ?

_refine_diff_density_max         0.507
_refine_diff_density_min         -0.724
_refine_diff_density_rms         0.065

# start Validation Reply Form
_vrf_PLAT430_ye201_0m            
;
PROBLEM: Short Inter D...A Contact  O1     ..  O2      ..       2.42 Ang.  
RESPONSE: The solvent water hydrogen atoms were not refined.
;
# end Validation Reply Form

