####################################################################### 
# 
# This file contains crystal structure data downloaded from the 
# Cambridge Structural Database (CSD) hosted by the Cambridge 
# Crystallographic Data Centre (CCDC).
# 
# Full information about CCDC data access policies and citation 
# guidelines are available at http://www.ccdc.cam.ac.uk/access/V1 
# 
# Audit and citation data items may have been added by the CCDC. 
# Please retain this information to preserve the provenance of 
# this file and to allow appropriate attribution of the data. 
# 
#######################################################################

data_ye121sadr-3
_audit_block_doi                 10.5517/cc13l33x
_database_code_depnum_ccdc_archive 'CCDC 1030288'
loop_
_citation_id
_citation_doi
_citation_year
1 10.1002/ejic.201500294 2015
_audit_update_record             
;
2014-10-21 deposited with the CCDC.	2024-07-11 downloaded from the CCDC.
;

_audit_creation_method           SHELXL-97
_chemical_name_systematic        
; 
 ? 
;
_chemical_name_common            ?
_chemical_melting_point          ?
_chemical_formula_moiety         ?
_chemical_formula_sum            'C42 H24 Cl2 Co N6'
_chemical_formula_weight         742.50

loop_
_atom_type_symbol
_atom_type_description
_atom_type_scat_dispersion_real
_atom_type_scat_dispersion_imag
_atom_type_scat_source
C C 0.0033 0.0016 'International Tables Vol C Tables 4.2.6.8 and 6.1.1.4'
H H 0.0000 0.0000 'International Tables Vol C Tables 4.2.6.8 and 6.1.1.4'
N N 0.0061 0.0033 'International Tables Vol C Tables 4.2.6.8 and 6.1.1.4'
Cl Cl 0.1484 0.1585 'International Tables Vol C Tables 4.2.6.8 and 6.1.1.4'
Co Co 0.3494 0.9721 'International Tables Vol C Tables 4.2.6.8 and 6.1.1.4'

_symmetry_cell_setting           Trigonal
_symmetry_space_group_name_H-M   R-3

loop_
_symmetry_equiv_pos_as_xyz
'x, y, z'
'-y, x-y, z'
'-x+y, -x, z'
'x+2/3, y+1/3, z+1/3'
'-y+2/3, x-y+1/3, z+1/3'
'-x+y+2/3, -x+1/3, z+1/3'
'x+1/3, y+2/3, z+2/3'
'-y+1/3, x-y+2/3, z+2/3'
'-x+y+1/3, -x+2/3, z+2/3'
'-x, -y, -z'
'y, -x+y, -z'
'x-y, x, -z'
'-x+2/3, -y+1/3, -z+1/3'
'y+2/3, -x+y+1/3, -z+1/3'
'x-y+2/3, x+1/3, -z+1/3'
'-x+1/3, -y+2/3, -z+2/3'
'y+1/3, -x+y+2/3, -z+2/3'
'x-y+1/3, x+2/3, -z+2/3'

_cell_length_a                   32.872(5)
_cell_length_b                   32.872(5)
_cell_length_c                   9.3160(19)
_cell_angle_alpha                90.00
_cell_angle_beta                 90.00
_cell_angle_gamma                120.00
_cell_volume                     8718(2)
_cell_formula_units_Z            9
_cell_measurement_temperature    293(2)
_cell_measurement_reflns_used    ?
_cell_measurement_theta_min      ?
_cell_measurement_theta_max      ?

_exptl_crystal_description       needle
_exptl_crystal_colour            dark
_exptl_crystal_size_max          0.44
_exptl_crystal_size_mid          0.08
_exptl_crystal_size_min          0.08
_exptl_crystal_density_meas      ?
_exptl_crystal_density_diffrn    1.273
_exptl_crystal_density_method    'not measured'
_exptl_crystal_F_000             3411
_exptl_absorpt_coefficient_mu    0.618
_exptl_absorpt_correction_type   multi-scan
_exptl_absorpt_correction_T_min  0.7728
_exptl_absorpt_correction_T_max  0.9523
_exptl_absorpt_process_details   '(SADABS; Bruker, 1997)'

_exptl_special_details           
; 
 ? 
;

_diffrn_ambient_temperature      293(2)
_diffrn_radiation_wavelength     0.71073
_diffrn_radiation_type           MoK\a
_diffrn_radiation_source         'fine-focus sealed tube'
_diffrn_radiation_monochromator  graphite
_diffrn_measurement_device_type  'Bruker SMART APEX CCD'
_diffrn_measurement_method       '\f and \w scans'
_diffrn_detector_area_resol_mean ?
_diffrn_standards_number         ?
_diffrn_standards_interval_count ?
_diffrn_standards_interval_time  ?
_diffrn_standards_decay_%        ?
_diffrn_reflns_number            16356
_diffrn_reflns_av_R_equivalents  0.0765
_diffrn_reflns_av_sigmaI/netI    0.0803
_diffrn_reflns_limit_h_min       -40
_diffrn_reflns_limit_h_max       39
_diffrn_reflns_limit_k_min       -40
_diffrn_reflns_limit_k_max       38
_diffrn_reflns_limit_l_min       -10
_diffrn_reflns_limit_l_max       11
_diffrn_reflns_theta_min         3.38
_diffrn_reflns_theta_max         26.00
_reflns_number_total             3759
_reflns_number_gt                2390
_reflns_threshold_expression     >2sigma(I)

_computing_data_collection       'Bruker SMART'
_computing_cell_refinement       'Bruker SMART'
_computing_data_reduction        'Bruker SAINT'
_computing_structure_solution    'SHELXS-97 (Sheldrick, 1990)'
_computing_structure_refinement  'SHELXL-97 (Sheldrick, 1997)'
_computing_molecular_graphics    'Bruker SHELXTL'
_computing_publication_material  'Bruker SHELXTL'

_refine_special_details          
; 
 Refinement of F^2^ against ALL reflections.  The weighted R-factor wR and 
 goodness of fit S are based on F^2^, conventional R-factors R are based 
 on F, with F set to zero for negative F^2^. The threshold expression of 
 F^2^ > 2sigma(F^2^) is used only for calculating R-factors(gt) etc. and is 
 not relevant to the choice of reflections for refinement.  R-factors based 
 on F^2^ are statistically about twice as large as those based on F, and R- 
 factors based on ALL data will be even larger. 
;

_refine_ls_structure_factor_coef Fsqd
_refine_ls_matrix_type           full
_refine_ls_weighting_scheme      calc
_refine_ls_weighting_details     
'calc w=1/[\s^2^(Fo^2^)+(0.0723P)^2^+0.0000P] where P=(Fo^2^+2Fc^2^)/3'
_atom_sites_solution_primary     direct
_atom_sites_solution_secondary   difmap
_atom_sites_solution_hydrogens   geom
_refine_ls_hydrogen_treatment    mixed
_refine_ls_extinction_method     none
_refine_ls_extinction_coef       ?
_refine_ls_number_reflns         3759
_refine_ls_number_parameters     232
_refine_ls_number_restraints     0
_refine_ls_R_factor_all          0.0943
_refine_ls_R_factor_gt           0.0526
_refine_ls_wR_factor_ref         0.1385
_refine_ls_wR_factor_gt          0.1226
_refine_ls_goodness_of_fit_ref   0.985
_refine_ls_restrained_S_all      0.985
_refine_ls_shift/su_max          0.000
_refine_ls_shift/su_mean         0.000

loop_
_atom_site_label
_atom_site_type_symbol
_atom_site_fract_x
_atom_site_fract_y
_atom_site_fract_z
_atom_site_U_iso_or_equiv
_atom_site_adp_type
_atom_site_occupancy
_atom_site_symmetry_multiplicity
_atom_site_calc_flag
_atom_site_refinement_flags
_atom_site_disorder_assembly
_atom_site_disorder_group
C1 C 0.55611(11) -0.02516(11) 0.2028(3) 0.0356(7) Uani 1 1 d . . .
C2 C 0.58417(13) -0.00922(13) 0.3315(4) 0.0496(10) Uani 1 1 d . . .
H2 H 0.6013 -0.0219 0.3716 0.059 Uiso 1 1 calc R . .
C3 C 0.58107(12) 0.02724(13) 0.3825(4) 0.0478(9) Uani 1 1 d . . .
H3 H 0.5954 0.0444 0.4650 0.057 Uiso 1 1 calc R . .
C4 C 0.55123(10) 0.03490(11) 0.2853(3) 0.0334(7) Uani 1 1 d . . .
C5 C 0.54188(11) 0.07154(11) 0.2979(3) 0.0338(7) Uani 1 1 d . . .
C6 C 0.51669(10) 0.08075(10) 0.1972(3) 0.0328(7) Uani 1 1 d . . .
C7 C 0.50435(12) 0.11688(12) 0.2112(4) 0.0451(9) Uani 1 1 d . . .
H7 H 0.5130 0.1384 0.2859 0.054 Uiso 1 1 calc R . .
C8 C 0.47821(12) 0.11394(12) 0.0969(4) 0.0462(9) Uani 1 1 d . . .
H8 H 0.4651 0.1327 0.0781 0.055 Uiso 1 1 calc R . .
C9 C 0.47430(10) 0.07616(10) 0.0088(3) 0.0326(7) Uani 1 1 d . . .
C10 C 0.44850(11) 0.06148(11) -0.1173(3) 0.0338(7) Uani 1 1 d . . .
C11 C 0.42349(11) 0.08717(11) -0.1610(3) 0.0370(8) Uani 1 1 d . . .
C12 C 0.44111(13) 0.12158(13) -0.2641(4) 0.0498(9) Uani 1 1 d . . .
H12 H 0.4690 0.1292 -0.3111 0.060 Uiso 1 1 calc R . .
C13 C 0.41719(12) 0.14477(12) -0.2974(4) 0.0479(9) Uani 1 1 d . . .
H13 H 0.4297 0.1678 -0.3680 0.058 Uiso 1 1 calc R . .
C14 C 0.36035(12) 0.10306(12) -0.1351(4) 0.0438(9) Uani 1 1 d . . .
H14 H 0.3326 0.0965 -0.0891 0.053 Uiso 1 1 calc R . .
C15 C 0.38185(12) 0.07750(13) -0.0960(4) 0.0479(9) Uani 1 1 d . . .
H15 H 0.3683 0.0541 -0.0266 0.057 Uiso 1 1 calc R . .
C16 C 0.56005(11) 0.10305(11) 0.4272(4) 0.0385(8) Uani 1 1 d . . .
C17 C 0.59467(14) 0.14958(13) 0.4133(5) 0.0567(10) Uani 1 1 d . . .
H17 H 0.6071 0.1612 0.3229 0.068 Uiso 1 1 calc R . .
C18 C 0.61128(16) 0.17922(15) 0.5307(6) 0.0709(13) Uani 1 1 d . . .
H18 H 0.6349 0.2103 0.5199 0.085 Uiso 1 1 calc R . .
C19 C 0.59262(17) 0.16219(17) 0.6613(5) 0.0681(13) Uani 1 1 d . . .
C20 C 0.55838(15) 0.11593(17) 0.6812(5) 0.0651(12) Uani 1 1 d . . .
H20 H 0.5463 0.1047 0.7721 0.078 Uiso 1 1 calc R . .
C21 C 0.54237(13) 0.08663(14) 0.5625(4) 0.0513(9) Uani 1 1 d . . .
H21 H 0.5193 0.0553 0.5742 0.062 Uiso 1 1 calc R . .
Cl1 Cl 0.61266(6) 0.19834(6) 0.81372(18) 0.1249(6) Uani 1 1 d . . .
Co1 Co 0.5000 0.0000 0.0000 0.02628(19) Uani 1 2 d S . .
N1 N 0.53564(8) 0.00223(8) 0.1757(3) 0.0298(6) Uani 1 1 d . . .
N2 N 0.49846(8) 0.05643(8) 0.0697(3) 0.0289(6) Uani 1 1 d . . .
N3 N 0.37739(10) 0.13631(9) -0.2350(3) 0.0383(7) Uani 1 1 d . . .

loop_
_atom_site_aniso_label
_atom_site_aniso_U_11
_atom_site_aniso_U_22
_atom_site_aniso_U_33
_atom_site_aniso_U_23
_atom_site_aniso_U_13
_atom_site_aniso_U_12
C1 0.0383(18) 0.0419(19) 0.0357(19) 0.0012(15) -0.0042(15) 0.0268(16)
C2 0.059(2) 0.059(2) 0.050(2) -0.0052(18) -0.0169(18) 0.044(2)
C3 0.054(2) 0.057(2) 0.044(2) -0.0094(18) -0.0184(17) 0.037(2)
C4 0.0334(17) 0.0365(17) 0.0337(18) -0.0005(14) -0.0028(14) 0.0199(15)
C5 0.0314(17) 0.0386(18) 0.0316(18) -0.0016(14) -0.0037(14) 0.0175(15)
C6 0.0307(17) 0.0335(17) 0.0376(19) -0.0012(14) -0.0013(14) 0.0186(14)
C7 0.057(2) 0.046(2) 0.044(2) -0.0119(17) -0.0096(18) 0.0349(19)
C8 0.056(2) 0.047(2) 0.052(2) -0.0073(17) -0.0104(18) 0.0377(18)
C9 0.0352(17) 0.0352(17) 0.0361(18) 0.0031(14) 0.0032(14) 0.0241(15)
C10 0.0357(17) 0.0414(19) 0.0358(19) 0.0035(15) -0.0029(14) 0.0278(15)
C11 0.043(2) 0.0441(19) 0.0370(19) -0.0031(15) -0.0080(15) 0.0319(17)
C12 0.047(2) 0.065(2) 0.055(2) 0.0161(19) 0.0061(18) 0.0411(19)
C13 0.047(2) 0.051(2) 0.056(2) 0.0161(18) 0.0021(18) 0.0312(18)
C14 0.045(2) 0.058(2) 0.042(2) 0.0071(18) 0.0055(16) 0.0360(18)
C15 0.051(2) 0.060(2) 0.049(2) 0.0176(18) 0.0041(18) 0.0391(19)
C16 0.0344(18) 0.0387(19) 0.048(2) -0.0054(16) -0.0077(16) 0.0222(16)
C17 0.059(2) 0.051(2) 0.057(3) -0.005(2) -0.011(2) 0.025(2)
C18 0.070(3) 0.050(3) 0.085(4) -0.018(2) -0.023(3) 0.025(2)
C19 0.075(3) 0.076(3) 0.068(3) -0.034(3) -0.028(3) 0.048(3)
C20 0.070(3) 0.088(3) 0.046(2) -0.017(2) -0.011(2) 0.046(3)
C21 0.055(2) 0.057(2) 0.044(2) -0.0061(18) -0.0038(18) 0.0291(19)
Cl1 0.1573(15) 0.1214(12) 0.1073(12) -0.0777(10) -0.0574(11) 0.0782(11)
Co1 0.0252(3) 0.0300(3) 0.0288(3) 0.0036(2) 0.0010(2) 0.0176(3)
N1 0.0273(13) 0.0346(14) 0.0326(14) 0.0043(11) 0.0010(11) 0.0192(12)
N2 0.0261(13) 0.0333(14) 0.0323(14) 0.0036(11) 0.0002(11) 0.0187(11)
N3 0.0433(16) 0.0394(16) 0.0402(16) -0.0015(13) -0.0059(13) 0.0267(14)

_geom_special_details            
; 
 All esds (except the esd in the dihedral angle between two l.s. planes) 
 are estimated using the full covariance matrix.  The cell esds are taken 
 into account individually in the estimation of esds in distances, angles 
 and torsion angles; correlations between esds in cell parameters are only 
 used when they are defined by crystal symmetry.  An approximate (isotropic) 
 treatment of cell esds is used for estimating esds involving l.s. planes. 
;

loop_
_geom_bond_atom_site_label_1
_geom_bond_atom_site_label_2
_geom_bond_distance
_geom_bond_site_symmetry_2
_geom_bond_publ_flag
C1 C10 1.379(4) 10_655 ?
C1 N1 1.391(4) . ?
C1 C2 1.442(5) . ?
C2 C3 1.340(5) . ?
C2 H2 0.9300 . ?
C3 C4 1.447(4) . ?
C3 H3 0.9300 . ?
C4 N1 1.382(4) . ?
C4 C5 1.389(4) . ?
C5 C6 1.381(4) . ?
C5 C16 1.504(4) . ?
C6 N2 1.390(4) . ?
C6 C7 1.440(4) . ?
C7 C8 1.341(5) . ?
C7 H7 0.9300 . ?
C8 C9 1.440(4) . ?
C8 H8 0.9300 . ?
C9 N2 1.374(4) . ?
C9 C10 1.386(4) . ?
C10 C1 1.379(4) 10_655 ?
C10 C11 1.500(4) . ?
C11 C12 1.372(5) . ?
C11 C15 1.381(4) . ?
C12 C13 1.377(5) . ?
C12 H12 0.9300 . ?
C13 N3 1.328(4) . ?
C13 H13 0.9300 . ?
C14 N3 1.327(4) . ?
C14 C15 1.390(4) . ?
C14 H14 0.9300 . ?
C15 H15 0.9300 . ?
C16 C21 1.379(5) . ?
C16 C17 1.382(5) . ?
C17 C18 1.383(6) . ?
C17 H17 0.9300 . ?
C18 C19 1.352(6) . ?
C18 H18 0.9300 . ?
C19 C20 1.379(6) . ?
C19 Cl1 1.755(4) . ?
C20 C21 1.386(5) . ?
C20 H20 0.9300 . ?
C21 H21 0.9300 . ?
Co1 N2 1.990(2) 10_655 ?
Co1 N2 1.990(2) . ?
Co1 N1 1.992(2) 10_655 ?
Co1 N1 1.992(2) . ?
Co1 N3 2.319(2) 18_544 ?
Co1 N3 2.319(2) 6 ?
N3 Co1 2.319(2) 8_544 ?

loop_
_geom_angle_atom_site_label_1
_geom_angle_atom_site_label_2
_geom_angle_atom_site_label_3
_geom_angle
_geom_angle_site_symmetry_1
_geom_angle_site_symmetry_3
_geom_angle_publ_flag
C10 C1 N1 125.2(3) 10_655 . ?
C10 C1 C2 124.6(3) 10_655 . ?
N1 C1 C2 110.2(3) . . ?
C3 C2 C1 107.4(3) . . ?
C3 C2 H2 126.3 . . ?
C1 C2 H2 126.3 . . ?
C2 C3 C4 107.1(3) . . ?
C2 C3 H3 126.4 . . ?
C4 C3 H3 126.4 . . ?
N1 C4 C5 125.4(3) . . ?
N1 C4 C3 110.4(3) . . ?
C5 C4 C3 124.1(3) . . ?
C6 C5 C4 123.3(3) . . ?
C6 C5 C16 117.9(3) . . ?
C4 C5 C16 118.8(3) . . ?
C5 C6 N2 126.0(3) . . ?
C5 C6 C7 124.5(3) . . ?
N2 C6 C7 109.5(3) . . ?
C8 C7 C6 107.7(3) . . ?
C8 C7 H7 126.2 . . ?
C6 C7 H7 126.2 . . ?
C7 C8 C9 107.0(3) . . ?
C7 C8 H8 126.5 . . ?
C9 C8 H8 126.5 . . ?
N2 C9 C10 125.6(3) . . ?
N2 C9 C8 110.4(3) . . ?
C10 C9 C8 124.0(3) . . ?
C1 C10 C9 125.0(3) 10_655 . ?
C1 C10 C11 118.5(3) 10_655 . ?
C9 C10 C11 116.5(3) . . ?
C12 C11 C15 117.3(3) . . ?
C12 C11 C10 122.0(3) . . ?
C15 C11 C10 120.7(3) . . ?
C11 C12 C13 119.5(3) . . ?
C11 C12 H12 120.3 . . ?
C13 C12 H12 120.3 . . ?
N3 C13 C12 124.1(3) . . ?
N3 C13 H13 117.9 . . ?
C12 C13 H13 117.9 . . ?
N3 C14 C15 123.3(3) . . ?
N3 C14 H14 118.3 . . ?
C15 C14 H14 118.3 . . ?
C11 C15 C14 119.4(3) . . ?
C11 C15 H15 120.3 . . ?
C14 C15 H15 120.3 . . ?
C21 C16 C17 118.1(3) . . ?
C21 C16 C5 121.2(3) . . ?
C17 C16 C5 120.7(3) . . ?
C16 C17 C18 121.4(4) . . ?
C16 C17 H17 119.3 . . ?
C18 C17 H17 119.3 . . ?
C19 C18 C17 118.9(4) . . ?
C19 C18 H18 120.6 . . ?
C17 C18 H18 120.6 . . ?
C18 C19 C20 121.9(4) . . ?
C18 C19 Cl1 120.6(4) . . ?
C20 C19 Cl1 117.5(4) . . ?
C19 C20 C21 118.4(4) . . ?
C19 C20 H20 120.8 . . ?
C21 C20 H20 120.8 . . ?
C16 C21 C20 121.2(4) . . ?
C16 C21 H21 119.4 . . ?
C20 C21 H21 119.4 . . ?
N2 Co1 N2 180.0 10_655 . ?
N2 Co1 N1 89.21(9) 10_655 10_655 ?
N2 Co1 N1 90.79(9) . 10_655 ?
N2 Co1 N1 90.79(9) 10_655 . ?
N2 Co1 N1 89.21(9) . . ?
N1 Co1 N1 180.0 10_655 . ?
N2 Co1 N3 86.71(10) 10_655 18_544 ?
N2 Co1 N3 93.30(10) . 18_544 ?
N1 Co1 N3 96.64(10) 10_655 18_544 ?
N1 Co1 N3 83.36(9) . 18_544 ?
N2 Co1 N3 93.29(10) 10_655 6 ?
N2 Co1 N3 86.71(10) . 6 ?
N1 Co1 N3 83.37(10) 10_655 6 ?
N1 Co1 N3 96.64(10) . 6 ?
N3 Co1 N3 180.0 18_544 6 ?
C4 N1 C1 104.9(2) . . ?
C4 N1 Co1 128.22(19) . . ?
C1 N1 Co1 126.3(2) . . ?
C9 N2 C6 105.4(2) . . ?
C9 N2 Co1 126.5(2) . . ?
C6 N2 Co1 127.64(19) . . ?
C14 N3 C13 116.4(3) . . ?
C14 N3 Co1 122.3(2) . 8_544 ?
C13 N3 Co1 119.9(2) . 8_544 ?

loop_
_geom_torsion_atom_site_label_1
_geom_torsion_atom_site_label_2
_geom_torsion_atom_site_label_3
_geom_torsion_atom_site_label_4
_geom_torsion
_geom_torsion_site_symmetry_1
_geom_torsion_site_symmetry_2
_geom_torsion_site_symmetry_3
_geom_torsion_site_symmetry_4
_geom_torsion_publ_flag
C10 C1 C2 C3 178.3(3) 10_655 . . . ?
N1 C1 C2 C3 0.0(4) . . . . ?
C1 C2 C3 C4 -0.5(4) . . . . ?
C2 C3 C4 N1 0.9(4) . . . . ?
C2 C3 C4 C5 -176.1(3) . . . . ?
N1 C4 C5 C6 -2.4(5) . . . . ?
C3 C4 C5 C6 174.1(3) . . . . ?
N1 C4 C5 C16 177.7(3) . . . . ?
C3 C4 C5 C16 -5.7(5) . . . . ?
C4 C5 C6 N2 -1.8(5) . . . . ?
C16 C5 C6 N2 178.0(3) . . . . ?
C4 C5 C6 C7 176.6(3) . . . . ?
C16 C5 C6 C7 -3.6(5) . . . . ?
C5 C6 C7 C8 -177.1(3) . . . . ?
N2 C6 C7 C8 1.5(4) . . . . ?
C6 C7 C8 C9 -0.7(4) . . . . ?
C7 C8 C9 N2 -0.4(4) . . . . ?
C7 C8 C9 C10 177.9(3) . . . . ?
N2 C9 C10 C1 -1.3(5) . . . 10_655 ?
C8 C9 C10 C1 -179.4(3) . . . 10_655 ?
N2 C9 C10 C11 177.8(3) . . . . ?
C8 C9 C10 C11 -0.2(5) . . . . ?
C1 C10 C11 C12 -80.3(4) 10_655 . . . ?
C9 C10 C11 C12 100.4(4) . . . . ?
C1 C10 C11 C15 100.9(4) 10_655 . . . ?
C9 C10 C11 C15 -78.3(4) . . . . ?
C15 C11 C12 C13 0.3(5) . . . . ?
C10 C11 C12 C13 -178.4(3) . . . . ?
C11 C12 C13 N3 0.4(6) . . . . ?
C12 C11 C15 C14 -1.1(5) . . . . ?
C10 C11 C15 C14 177.7(3) . . . . ?
N3 C14 C15 C11 1.2(6) . . . . ?
C6 C5 C16 C21 111.9(4) . . . . ?
C4 C5 C16 C21 -68.2(4) . . . . ?
C6 C5 C16 C17 -67.3(4) . . . . ?
C4 C5 C16 C17 112.6(4) . . . . ?
C21 C16 C17 C18 -0.2(5) . . . . ?
C5 C16 C17 C18 179.0(3) . . . . ?
C16 C17 C18 C19 -0.9(6) . . . . ?
C17 C18 C19 C20 1.6(7) . . . . ?
C17 C18 C19 Cl1 179.8(3) . . . . ?
C18 C19 C20 C21 -1.2(6) . . . . ?
Cl1 C19 C20 C21 -179.4(3) . . . . ?
C17 C16 C21 C20 0.7(5) . . . . ?
C5 C16 C21 C20 -178.6(3) . . . . ?
C19 C20 C21 C16 0.0(6) . . . . ?
C5 C4 N1 C1 176.1(3) . . . . ?
C3 C4 N1 C1 -0.9(3) . . . . ?
C5 C4 N1 Co1 4.7(4) . . . . ?
C3 C4 N1 Co1 -172.3(2) . . . . ?
C10 C1 N1 C4 -177.7(3) 10_655 . . . ?
C2 C1 N1 C4 0.5(3) . . . . ?
C10 C1 N1 Co1 -6.1(4) 10_655 . . . ?
C2 C1 N1 Co1 172.2(2) . . . . ?
N2 Co1 N1 C4 177.5(2) 10_655 . . . ?
N2 Co1 N1 C4 -2.5(2) . . . . ?
N1 Co1 N1 C4 58(12) 10_655 . . . ?
N3 Co1 N1 C4 90.9(2) 18_544 . . . ?
N3 Co1 N1 C4 -89.1(2) 6 . . . ?
N2 Co1 N1 C1 7.8(2) 10_655 . . . ?
N2 Co1 N1 C1 -172.2(2) . . . . ?
N1 Co1 N1 C1 -112(12) 10_655 . . . ?
N3 Co1 N1 C1 -78.8(2) 18_544 . . . ?
N3 Co1 N1 C1 101.2(2) 6 . . . ?
C10 C9 N2 C6 -177.0(3) . . . . ?
C8 C9 N2 C6 1.3(3) . . . . ?
C10 C9 N2 Co1 -3.6(4) . . . . ?
C8 C9 N2 Co1 174.7(2) . . . . ?
C5 C6 N2 C9 176.9(3) . . . . ?
C7 C6 N2 C9 -1.7(3) . . . . ?
C5 C6 N2 Co1 3.6(4) . . . . ?
C7 C6 N2 Co1 -175.0(2) . . . . ?
N2 Co1 N2 C9 -56.2(15) 10_655 . . . ?
N1 Co1 N2 C9 6.7(2) 10_655 . . . ?
N1 Co1 N2 C9 -173.3(2) . . . . ?
N3 Co1 N2 C9 103.4(2) 18_544 . . . ?
N3 Co1 N2 C9 -76.6(2) 6 . . . ?
N2 Co1 N2 C6 115.7(15) 10_655 . . . ?
N1 Co1 N2 C6 178.6(2) 10_655 . . . ?
N1 Co1 N2 C6 -1.4(2) . . . . ?
N3 Co1 N2 C6 -84.7(2) 18_544 . . . ?
N3 Co1 N2 C6 95.3(2) 6 . . . ?
C15 C14 N3 C13 -0.5(5) . . . . ?
C15 C14 N3 Co1 166.2(3) . . . 8_544 ?
C12 C13 N3 C14 -0.3(5) . . . . ?
C12 C13 N3 Co1 -167.3(3) . . . 8_544 ?

_diffrn_measured_fraction_theta_max 0.987
_diffrn_reflns_theta_full        26.00
_diffrn_measured_fraction_theta_full 0.987
_refine_diff_density_max         0.446
_refine_diff_density_min         -0.254
_refine_diff_density_rms         0.066
