####################################################################### 
# 
# This file contains crystal structure data downloaded from the 
# Cambridge Structural Database (CSD) hosted by the Cambridge 
# Crystallographic Data Centre (CCDC).
# 
# Full information about CCDC data access policies and citation 
# guidelines are available at http://www.ccdc.cam.ac.uk/access/V1 
# 
# Audit and citation data items may have been added by the CCDC. 
# Please retain this information to preserve the provenance of 
# this file and to allow appropriate attribution of the data. 
# 
#######################################################################

data_1
_audit_block_doi                 10.5517/cc143df2
_database_code_depnum_ccdc_archive 'CCDC 1045953'
loop_
_citation_id
_citation_doi
_citation_year
1 10.1039/C5TA00720H 2015
2 10.1021/acs.cgd.6b00060 2016
_audit_update_record             
;
2015-01-28 deposited with the CCDC.	2024-07-11 downloaded from the CCDC.
;

_audit_creation_method           SHELXL-2013
_chemical_name_systematic        
;
 ?
;
_chemical_name_common            ?
_chemical_melting_point          ?
_chemical_formula_moiety         ?
_chemical_formula_sum            'C54 H25 N10 O20 Tb3'
_chemical_formula_weight         1610.60

loop_
_atom_type_symbol
_atom_type_description
_atom_type_scat_dispersion_real
_atom_type_scat_dispersion_imag
_atom_type_scat_source
C C 0.0181 0.0091 'International Tables Vol C Tables 4.2.6.8 and 6.1.1.4'
H H 0.0000 0.0000 'International Tables Vol C Tables 4.2.6.8 and 6.1.1.4'
N N 0.0311 0.0180 'International Tables Vol C Tables 4.2.6.8 and 6.1.1.4'
O O 0.0492 0.0322 'International Tables Vol C Tables 4.2.6.8 and 6.1.1.4'
Tb Tb -9.1472 9.1891 'International Tables Vol C Tables 4.2.6.8 and 6.1.1.4'

_space_group_crystal_system      triclinic
_space_group_IT_number           2
_space_group_name_H-M_alt        'P -1'
_space_group_name_Hall           '-P 1'

_shelx_space_group_comment       
;
The symmetry employed for this shelxl refinement is uniquely defined
by the following loop, which should always be used as a source of
symmetry information in preference to the above space-group names.
They are only intended as comments.
;

loop_
_space_group_symop_operation_xyz
'x, y, z'
'-x, -y, -z'

_cell_length_a                   15.1173(4)
_cell_length_b                   16.7483(8)
_cell_length_c                   16.9101(6)
_cell_angle_alpha                110.566(4)
_cell_angle_beta                 90.030(3)
_cell_angle_gamma                100.933(3)
_cell_volume                     3925.3(3)
_cell_formula_units_Z            2
_cell_measurement_temperature    173(2)
_cell_measurement_reflns_used    9855
_cell_measurement_theta_min      3.6900
_cell_measurement_theta_max      73.1640

_exptl_crystal_description       block
_exptl_crystal_colour            colorless
_exptl_crystal_density_meas      ?
_exptl_crystal_density_method    ?
_exptl_crystal_density_diffrn    1.363
_exptl_crystal_F_000             1548
_exptl_transmission_factor_min   ?
_exptl_transmission_factor_max   ?
_exptl_crystal_size_max          0.2
_exptl_crystal_size_mid          0.1
_exptl_crystal_size_min          0.05
_exptl_absorpt_coefficient_mu    13.593
_shelx_estimated_absorpt_T_min   ?
_shelx_estimated_absorpt_T_max   ?
_exptl_absorpt_correction_type   multi-scan
_exptl_absorpt_correction_T_min  0.31825
_exptl_absorpt_correction_T_max  1.00000
_exptl_absorpt_process_details   ?

_exptl_special_details           
;
 ?
;

_diffrn_ambient_temperature      173(2)
_diffrn_radiation_wavelength     1.54184
_diffrn_radiation_type           CuK\a
_diffrn_source                   'sealed X-ray tube'
_diffrn_measurement_device_type  'SuperNova, Dual, Cu at zero, Atlas'
_diffrn_measurement_method       '\w scans'
_diffrn_detector_area_resol_mean 10.5594
_diffrn_reflns_number            30068
_diffrn_reflns_av_unetI/netI     0.0763
_diffrn_reflns_av_R_equivalents  0.0724
_diffrn_reflns_limit_h_min       -18
_diffrn_reflns_limit_h_max       14
_diffrn_reflns_limit_k_min       -19
_diffrn_reflns_limit_k_max       20
_diffrn_reflns_limit_l_min       -21
_diffrn_reflns_limit_l_max       20
_diffrn_reflns_theta_min         3.217
_diffrn_reflns_theta_max         73.653
_diffrn_reflns_theta_full        67.684
_diffrn_measured_fraction_theta_max 0.967
_diffrn_measured_fraction_theta_full 0.999
_diffrn_reflns_Laue_measured_fraction_max 0.967
_diffrn_reflns_Laue_measured_fraction_full 0.999
_diffrn_reflns_point_group_measured_fraction_max 0.967
_diffrn_reflns_point_group_measured_fraction_full 0.999
_reflns_number_total             15327
_reflns_number_gt                11729
_reflns_threshold_expression     'I > 2\s(I)'
_reflns_Friedel_coverage         0.000
_reflns_Friedel_fraction_max     .
_reflns_Friedel_fraction_full    .

_reflns_special_details          
;
 Data were apparently pre-merged, so _diffrn_reflns_number
 etc. will have to be added later.
 
 Reflections were merged by SHELXL according to the crystal
 class for the calculation of statistics and refinement.
 
 _reflns_Friedel_fraction is defined as the number of unique
 Friedel pairs measured divided by the number that would be
 possible theoretically, ignoring centric projections and
 systematic absences.
;

_computing_data_collection       ?
_computing_cell_refinement       ?
_computing_data_reduction        ?
_computing_structure_solution    ?
_computing_structure_refinement  'SHELXL-2013 (Sheldrick, 2013)'
_computing_molecular_graphics    ?
_computing_publication_material  ?

_refine_special_details          
;
 ?
;
loop_
_platon_squeeze_void_nr
_platon_squeeze_void_average_x
_platon_squeeze_void_average_y
_platon_squeeze_void_average_z
_platon_squeeze_void_volume
_platon_squeeze_void_count_electrons
_platon_squeeze_void_content
1 -0.010 -0.005 -0.005 20799 6171 ' '
_platon_squeeze_details          ?

_refine_ls_structure_factor_coef Fsqd
_refine_ls_matrix_type           full
_refine_ls_weighting_scheme      calc
_refine_ls_weighting_details     
;
 w=1/[\s^2^(Fo^2^)+(0.1750P)^2^]
 where P=(Fo^2^+2Fc^2^)/3
;
_atom_sites_solution_primary     ?
_atom_sites_solution_secondary   ?
_atom_sites_solution_hydrogens   geom
_refine_ls_hydrogen_treatment    constr
_refine_ls_extinction_method     none
_refine_ls_extinction_coef       .
_refine_ls_number_reflns         15327
_refine_ls_number_parameters     769
_refine_ls_number_restraints     0
_refine_ls_R_factor_all          0.0922
_refine_ls_R_factor_gt           0.0813
_refine_ls_wR_factor_ref         0.2389
_refine_ls_wR_factor_gt          0.2268
_refine_ls_goodness_of_fit_ref   1.010
_refine_ls_restrained_S_all      1.010
_refine_ls_shift/su_max          0.001
_refine_ls_shift/su_mean         0.000

loop_
_atom_site_label
_atom_site_type_symbol
_atom_site_fract_x
_atom_site_fract_y
_atom_site_fract_z
_atom_site_U_iso_or_equiv
_atom_site_adp_type
_atom_site_occupancy
_atom_site_site_symmetry_order
_atom_site_calc_flag
_atom_site_refinement_flags_posn
_atom_site_refinement_flags_adp
_atom_site_refinement_flags_occupancy
_atom_site_disorder_assembly
_atom_site_disorder_group
Tb1 Tb 0.56199(3) 0.12357(3) 0.52812(3) 0.02140(14) Uani 1 1 d . . . . .
Tb2 Tb 0.52200(3) 0.36574(3) 0.64743(3) 0.02221(15) Uani 1 1 d . . . . .
Tb3 Tb 0.45351(3) 0.47118(3) 0.88233(3) 0.02358(15) Uani 1 1 d . . . . .
O1 O -0.4566(4) -0.2171(4) 0.4644(4) 0.0244(11) Uani 1 1 d . . . . .
O2 O -0.3740(5) -0.3202(4) 0.4259(4) 0.0347(14) Uani 1 1 d . . . . .
O3 O 0.3109(4) -0.0670(4) 0.5400(4) 0.0290(12) Uani 1 1 d . . . . .
O4 O 0.4213(4) 0.0361(4) 0.5322(4) 0.0267(12) Uani 1 1 d . . . . .
O5 O 0.4336(4) 0.3360(4) 0.7528(4) 0.0257(12) Uani 1 1 d . . . . .
O6 O 0.3098(5) 0.3677(4) 0.8130(4) 0.0374(15) Uani 1 1 d . . . . .
O7 O 0.6330(4) 0.2278(4) 0.4737(4) 0.0291(12) Uani 1 1 d . . . . .
O8 O 0.5897(4) 0.3549(4) 0.5259(3) 0.0274(12) Uani 1 1 d . . . . .
O9 O 0.5226(5) 0.5086(4) 0.3441(4) 0.0341(14) Uani 1 1 d . . . . .
O10 O 0.5895(4) 0.4820(4) 0.2224(4) 0.0304(13) Uani 1 1 d . . . . .
O11 O 0.4905(4) -0.0616(4) -0.3836(3) 0.0256(11) Uani 1 1 d . . . . .
O12 O 0.5611(5) 0.0767(4) -0.3579(4) 0.0370(15) Uani 1 1 d . . . . .
O13 O 0.6757(5) 0.4467(4) 0.6913(4) 0.0328(14) Uani 1 1 d . . . . .
O14 O 0.5802(4) 0.4738(4) 0.7911(4) 0.0268(12) Uani 1 1 d . . . . .
O15 O 1.3278(4) 0.5380(4) 0.9413(4) 0.0282(12) Uani 1 1 d . . . . .
O16 O 1.4226(4) 0.5347(4) 1.0389(3) 0.0260(12) Uani 1 1 d . . . . .
O17 O 1.4123(4) 0.7437(3) 1.3364(4) 0.0247(11) Uani 1 1 d . . . . .
O18 O 1.2932(4) 0.8038(4) 1.3733(4) 0.0300(13) Uani 1 1 d . . . . .
O19 O 0.4238(5) 0.3468(5) 0.9272(5) 0.0415(16) Uani 1 1 d . . . . .
O20 O 0.4820(4) 0.3799(4) 1.0604(4) 0.0298(12) Uani 1 1 d . . . . .
N1 N 0.0131(5) 0.0155(5) 0.6205(5) 0.0389(19) Uani 1 1 d . . . . .
H1 H 0.0340 -0.0301 0.5886 0.047 Uiso 1 1 calc R U . . .
N2 N -0.0821(7) 0.0996(8) 0.6860(8) 0.069(4) Uani 1 1 d . . . . .
N3 N 0.0034(6) 0.1461(7) 0.7029(9) 0.069(4) Uani 1 1 d . . . . .
N4 N 0.5989(8) 0.1669(6) 0.0743(5) 0.049(2) Uani 1 1 d . . . . .
H4 H 0.5798 0.2086 0.0631 0.059 Uiso 1 1 calc R U . . .
N5 N 0.6409(9) 0.0447(7) 0.0591(7) 0.063(3) Uani 1 1 d . . . . .
N6 N 0.6490(9) 0.0937(7) 0.1441(6) 0.061(3) Uani 1 1 d . . . . .
N7 N 1.0310(6) 0.6227(6) 1.0225(5) 0.040(2) Uani 1 1 d . . . . .
H7 H 1.0518 0.5865 0.9785 0.048 Uiso 1 1 calc R U . . .
N8 N 1.0185(7) 0.7116(9) 1.1497(7) 0.078(5) Uani 1 1 d . . . . .
N9 N 0.9384(8) 0.6969(9) 1.1038(7) 0.078(4) Uani 1 1 d . . . . .
N10 N 0.151(2) 0.480(2) 0.819(2) 0.168(11) Uiso 1 1 d . . . . .
C1 C -0.3796(6) -0.2436(6) 0.4691(5) 0.0290(17) Uani 1 1 d . . . . .
C2 C -0.3017(7) -0.1803(6) 0.5196(6) 0.0344(19) Uani 1 1 d . . . . .
C3 C -0.2135(6) -0.1948(7) 0.5047(7) 0.040(2) Uani 1 1 d . . . . .
H3 H -0.2051 -0.2496 0.4667 0.048 Uiso 1 1 calc R U . . .
C4 C -0.1395(7) -0.1311(7) 0.5441(7) 0.044(2) Uani 1 1 d . . . . .
H4A H -0.0804 -0.1420 0.5333 0.053 Uiso 1 1 calc R U . . .
C5 C -0.1508(7) -0.0512(7) 0.5995(7) 0.044(2) Uani 1 1 d . . . . .
C6 C -0.2364(7) -0.0358(7) 0.6196(7) 0.043(2) Uani 1 1 d . . . . .
H6 H -0.2440 0.0182 0.6600 0.051 Uiso 1 1 calc R U . . .
C7 C -0.3114(7) -0.1012(6) 0.5793(6) 0.035(2) Uani 1 1 d . . . . .
H7A H -0.3703 -0.0913 0.5930 0.042 Uiso 1 1 calc R U . . .
C8 C -0.0739(7) 0.0214(7) 0.6354(7) 0.045(3) Uani 1 1 d . . . . .
C9 C 0.0596(8) 0.0945(7) 0.6651(8) 0.049(3) Uani 1 1 d . . . . .
C10 C 0.1600(6) 0.1214(6) 0.6668(6) 0.033(2) Uani 1 1 d . . . . .
C11 C 0.2064(6) 0.0588(6) 0.6173(6) 0.0337(19) Uani 1 1 d . . . . .
H11 H 0.1740 0.0024 0.5839 0.040 Uiso 1 1 calc R U . . .
C12 C 0.2986(7) 0.0786(6) 0.6168(5) 0.0313(18) Uani 1 1 d . . . . .
C13 C 0.3463(6) 0.0116(5) 0.5601(5) 0.0293(18) Uani 1 1 d . . . . .
C14 C 0.3476(6) 0.1617(5) 0.6646(6) 0.0289(17) Uani 1 1 d . . . . .
H14 H 0.4116 0.1753 0.6650 0.035 Uiso 1 1 calc R U . . .
C15 C 0.2988(6) 0.2256(6) 0.7129(6) 0.0322(19) Uani 1 1 d . . . . .
C16 C 0.3509(6) 0.3151(5) 0.7621(5) 0.0272(17) Uani 1 1 d . . . . .
C17 C 0.2068(6) 0.2052(6) 0.7138(6) 0.036(2) Uani 1 1 d . . . . .
H17 H 0.1750 0.2481 0.7462 0.044 Uiso 1 1 calc R U . . .
C18 C 0.6109(6) 0.2931(5) 0.4655(4) 0.0255(16) Uani 1 1 d . . . . .
C19 C 0.6109(6) 0.3020(5) 0.3808(5) 0.0275(17) Uani 1 1 d . . . . .
C20 C 0.6225(7) 0.2318(6) 0.3084(5) 0.033(2) Uani 1 1 d . . . . .
H20 H 0.6341 0.1799 0.3133 0.040 Uiso 1 1 calc R U . . .
C21 C 0.6165(7) 0.2396(6) 0.2293(5) 0.035(2) Uani 1 1 d . . . . .
C22 C 0.6241(9) 0.1661(7) 0.1511(6) 0.046(3) Uani 1 1 d . . . . .
C23 C 0.6008(7) 0.3162(6) 0.2226(5) 0.0328(19) Uani 1 1 d . . . . .
H23 H 0.5999 0.3219 0.1687 0.039 Uiso 1 1 calc R U . . .
C24 C 0.5863(7) 0.3844(6) 0.2936(5) 0.0301(18) Uani 1 1 d . . . . .
C25 C 0.5635(6) 0.4643(5) 0.2864(5) 0.0288(17) Uani 1 1 d . . . . .
C26 C 0.5907(6) 0.3754(5) 0.3731(5) 0.0243(16) Uani 1 1 d . . . . .
H26 H 0.5794 0.4209 0.4221 0.029 Uiso 1 1 calc R U . . .
C27 C 0.6099(9) 0.0891(7) 0.0188(6) 0.045(3) Uani 1 1 d . . . . .
C28 C 0.5891(8) 0.0668(8) -0.0717(6) 0.047(3) Uani 1 1 d . . . . .
C29 C 0.5786(10) -0.0174(7) -0.1289(7) 0.053(3) Uani 1 1 d . . . . .
H29 H 0.5871 -0.0626 -0.1097 0.064 Uiso 1 1 calc R U . . .
C30 C 0.5561(9) -0.0368(6) -0.2134(6) 0.046(3) Uani 1 1 d . . . . .
H30 H 0.5435 -0.0957 -0.2511 0.055 Uiso 1 1 calc R U . . .
C31 C 0.5517(7) 0.0297(7) -0.2441(6) 0.039(2) Uani 1 1 d . . . . .
C32 C 0.5323(7) 0.0138(5) -0.3352(5) 0.0289(18) Uani 1 1 d . . . . .
C33 C 0.5644(11) 0.1136(8) -0.1870(8) 0.062(4) Uani 1 1 d . . . . .
H33 H 0.5623 0.1599 -0.2067 0.075 Uiso 1 1 calc R U . . .
C34 C 0.5800(13) 0.1319(8) -0.1016(8) 0.074(5) Uani 1 1 d . . . . .
H34 H 0.5845 0.1898 -0.0629 0.089 Uiso 1 1 calc R U . . .
C35 C 0.6619(6) 0.4837(6) 0.7662(5) 0.0269(16) Uani 1 1 d . . . . .
C36 C 0.7408(6) 0.5348(6) 0.8312(5) 0.0305(18) Uani 1 1 d . . . . .
C37 C 0.8274(7) 0.5216(7) 0.8125(6) 0.039(2) Uani 1 1 d . . . . .
H37 H 0.8391 0.4879 0.7568 0.046 Uiso 1 1 calc R U . . .
C38 C 0.8964(8) 0.5581(7) 0.8762(7) 0.043(2) Uani 1 1 d . . . . .
H38 H 0.9558 0.5488 0.8640 0.052 Uiso 1 1 calc R U . . .
C39 C 0.8798(7) 0.6087(7) 0.9582(6) 0.040(2) Uani 1 1 d . . . . .
C40 C 0.7930(7) 0.6258(6) 0.9751(6) 0.036(2) Uani 1 1 d . . . . .
H40 H 0.7819 0.6627 1.0297 0.044 Uiso 1 1 calc R U . . .
C41 C 0.7231(7) 0.5883(6) 0.9113(6) 0.0340(19) Uani 1 1 d . . . . .
H41 H 0.6641 0.5991 0.9223 0.041 Uiso 1 1 calc R U . . .
C42 C 0.9522(9) 0.6429(8) 1.0268(7) 0.051(3) Uani 1 1 d . . . . .
C43 C 1.0755(7) 0.6694(8) 1.1005(7) 0.045(3) Uani 1 1 d . . . . .
C44 C 1.1668(7) 0.6673(6) 1.1251(6) 0.035(2) Uani 1 1 d . . . . .
C45 C 1.2169(6) 0.6193(6) 1.0639(5) 0.0310(18) Uani 1 1 d . . . . .
H45 H 1.1908 0.5876 1.0079 0.037 Uiso 1 1 calc R U . . .
C46 C 1.3058(6) 0.6181(6) 1.0854(5) 0.0263(16) Uani 1 1 d . . . . .
C47 C 1.3526(6) 0.5605(6) 1.0182(5) 0.0278(17) Uani 1 1 d . . . . .
C48 C 1.3444(5) 0.6637(5) 1.1662(5) 0.0232(15) Uani 1 1 d . . . . .
H48 H 1.4056 0.6641 1.1795 0.028 Uiso 1 1 calc R U . . .
C49 C 1.2930(6) 0.7101(5) 1.2294(5) 0.0255(16) Uani 1 1 d . . . . .
C50 C 1.3336(6) 0.7563(5) 1.3173(5) 0.0283(17) Uani 1 1 d . . . . .
C51 C 1.2048(7) 0.7130(6) 1.2075(6) 0.035(2) Uani 1 1 d . . . . .
H51 H 1.1707 0.7462 1.2490 0.042 Uiso 1 1 calc R U . . .
C52 C 0.4482(7) 0.3272(6) 0.9870(6) 0.037(2) Uani 1 1 d . . . . .
H52 H 0.4411 0.2668 0.9772 0.045 Uiso 1 1 calc R U . . .
C53 C 0.1231(16) 0.4428(16) 0.7407(16) 0.104(6) Uiso 1 1 d . . . . .
C54 C 0.0888(16) 0.5069(16) 0.8818(16) 0.103(6) Uiso 1 1 d . . . . .

loop_
_atom_site_aniso_label
_atom_site_aniso_U_11
_atom_site_aniso_U_22
_atom_site_aniso_U_33
_atom_site_aniso_U_23
_atom_site_aniso_U_13
_atom_site_aniso_U_12
Tb1 0.0300(3) 0.0161(2) 0.0163(2) 0.00076(17) 0.00230(17) 0.00999(18)
Tb2 0.0303(3) 0.0190(2) 0.0157(2) 0.00050(17) 0.00344(17) 0.01203(18)
Tb3 0.0309(3) 0.0233(2) 0.0147(2) 0.00069(17) 0.00242(17) 0.01318(19)
O1 0.017(3) 0.028(3) 0.028(3) 0.003(2) 0.002(2) 0.017(2)
O2 0.045(4) 0.027(3) 0.031(3) 0.002(3) -0.006(3) 0.021(3)
O3 0.031(3) 0.021(3) 0.030(3) 0.002(2) 0.003(2) 0.007(2)
O4 0.027(3) 0.020(3) 0.033(3) 0.007(2) 0.010(2) 0.009(2)
O5 0.033(3) 0.024(3) 0.022(3) 0.007(2) 0.009(2) 0.011(2)
O6 0.046(4) 0.026(3) 0.034(3) 0.001(3) 0.008(3) 0.012(3)
O7 0.044(4) 0.023(3) 0.021(3) 0.006(2) 0.001(2) 0.012(2)
O8 0.046(4) 0.023(3) 0.014(2) 0.003(2) 0.010(2) 0.016(3)
O9 0.058(4) 0.025(3) 0.018(3) 0.000(2) 0.000(3) 0.022(3)
O10 0.039(4) 0.027(3) 0.024(3) 0.008(2) 0.000(2) 0.008(3)
O11 0.037(3) 0.020(3) 0.014(2) -0.001(2) -0.008(2) 0.005(2)
O12 0.053(4) 0.034(3) 0.020(3) 0.006(3) -0.003(3) 0.005(3)
O13 0.044(4) 0.036(3) 0.014(3) 0.001(2) 0.011(2) 0.015(3)
O14 0.028(3) 0.026(3) 0.020(3) 0.004(2) -0.003(2) 0.001(2)
O15 0.037(3) 0.026(3) 0.018(3) -0.002(2) -0.001(2) 0.018(2)
O16 0.030(3) 0.034(3) 0.016(2) 0.004(2) 0.001(2) 0.018(2)
O17 0.032(3) 0.016(2) 0.023(3) 0.000(2) -0.006(2) 0.012(2)
O18 0.032(3) 0.033(3) 0.019(3) -0.002(2) -0.004(2) 0.013(3)
O19 0.039(4) 0.040(4) 0.043(4) 0.011(3) 0.003(3) 0.008(3)
O20 0.025(3) 0.023(3) 0.035(3) 0.002(2) 0.002(2) 0.007(2)
N1 0.027(4) 0.031(4) 0.042(4) -0.008(3) 0.008(3) 0.007(3)
N2 0.046(6) 0.055(6) 0.071(7) -0.022(6) 0.007(5) 0.013(5)
N3 0.024(5) 0.045(5) 0.098(9) -0.027(6) -0.008(5) 0.012(4)
N4 0.097(8) 0.028(4) 0.021(4) 0.001(3) 0.000(4) 0.020(4)
N5 0.084(8) 0.047(5) 0.041(5) -0.014(4) -0.017(5) 0.030(5)
N6 0.104(9) 0.049(5) 0.030(4) -0.003(4) -0.007(5) 0.048(6)
N7 0.032(4) 0.045(4) 0.027(4) -0.013(3) -0.006(3) 0.023(4)
N8 0.031(5) 0.110(9) 0.043(5) -0.044(6) -0.013(4) 0.037(6)
N9 0.069(8) 0.100(9) 0.037(5) -0.030(6) -0.012(5) 0.057(7)
C1 0.039(5) 0.023(4) 0.021(4) 0.003(3) -0.001(3) 0.007(3)
C2 0.047(6) 0.031(4) 0.024(4) 0.004(4) -0.002(4) 0.015(4)
C3 0.021(4) 0.038(5) 0.051(6) 0.000(4) -0.003(4) 0.011(4)
C4 0.028(5) 0.043(5) 0.048(6) -0.006(5) -0.001(4) 0.020(4)
C5 0.029(5) 0.039(5) 0.048(6) -0.003(4) -0.002(4) 0.006(4)
C6 0.030(5) 0.037(5) 0.044(5) -0.009(4) -0.001(4) 0.015(4)
C7 0.035(5) 0.033(5) 0.032(4) 0.001(4) -0.004(4) 0.014(4)
C8 0.025(5) 0.040(5) 0.052(6) -0.007(5) -0.001(4) 0.009(4)
C9 0.040(6) 0.039(5) 0.050(6) -0.008(5) 0.012(5) 0.013(4)
C10 0.016(4) 0.026(4) 0.047(5) -0.003(4) 0.006(3) 0.008(3)
C11 0.036(5) 0.019(4) 0.036(5) -0.004(3) 0.006(4) 0.008(3)
C12 0.044(5) 0.026(4) 0.024(4) 0.005(3) 0.006(4) 0.016(4)
C13 0.041(5) 0.016(3) 0.027(4) 0.003(3) 0.008(3) 0.006(3)
C14 0.030(5) 0.02