
#######################################################################
#
#                 Cambridge Crystallographic Data Centre
#                                CCDC
#
#######################################################################
#
# If this CIF has been generated from an entry in the Cambridge
# Structural Database, then it will include bibliographic, chemical,
# crystal, experimental, refinement or atomic coordinate data resulting
# from the CCDC's data processing and validation procedures.
#
#######################################################################

data_CSD_CIF_MUQBAB
_audit_creation_date 2003-04-15
_audit_creation_method CSD-ConQuest-V1
_database_code_CSD MUQBAB
_database_code_depnum_ccdc_archive 'CCDC 1215101'
_chemical_formula_sum 'C17 H9 Mo2 N1 O11'
_chemical_formula_moiety
;
C17 H9 Mo2 N1 O11
;
_journal_coden_Cambridge 579
_journal_volume 21
_journal_year 2002
_journal_page_first 4425
_journal_name_full 'Organometallics '
loop_
_publ_author_name
"B.Fuss"
"M.Dede"
"B.Weibert"
"H.Fischer"
_chemical_name_systematic
;
(\m~2~-1-(Dimethylamino)methylidyne-2-methoxycyclopropen-3-ylidene)-decacarbon
yl-di-molybdenum
;
_chemical_name_common
;
Teaching Subset: Fundamental Chemistry
;
_chemical_melting_point 394
_cell_volume   2272.548
_exptl_crystal_colour 'yellow'
_exptl_crystal_density_diffrn 1.739
_exptl_crystal_description 'cube'
_exptl_crystal_preparation 'dichloromethane'
_diffrn_ambient_temperature 262
#These two values have been output from a single CSD field.
_refine_ls_R_factor_gt 0.0318
_refine_ls_wR_factor_gt 0.0318
_symmetry_cell_setting monoclinic
_symmetry_space_group_name_H-M 'P 21/n'
_symmetry_Int_Tables_number 14
loop_
_symmetry_equiv_pos_site_id
_symmetry_equiv_pos_as_xyz
1 x,y,z
2 1/2-x,1/2+y,1/2-z
3 -x,-y,-z
4 -1/2+x,-1/2-y,-1/2+z
_cell_length_a 7.026(4)
_cell_length_b 16.347(9)
_cell_length_c 19.801(11)
_cell_angle_alpha 90
_cell_angle_beta 92.20(9)
_cell_angle_gamma 90
_cell_formula_units_Z 4
loop_
_atom_type_symbol
_atom_type_radius_bond
C 0.68
H 0.23
Mo 1.47
N 0.68
O 0.68
loop_
_atom_site_label
_atom_site_type_symbol
_atom_site_fract_x
_atom_site_fract_y
_atom_site_fract_z
Mo1 Mo 0.5081(1) 0.3095(1) 0.0455(1)
Mo2 Mo 0.5687(1) 0.0107(1) 0.2089(1)
N1 N 0.3701(4) 0.1808(2) 0.2642(1)
C1 C 0.3098(5) -0.0381(2) 0.1774(2)
C2 C 0.5577(5) 0.2356(2) -0.0352(2)
O1 O 0.1640(4) -0.0622(2) 0.1591(1)
O2 O 0.5875(5) 0.1942(2) -0.0811(2)
C3 C 0.2507(5) 0.3448(2) 0.0020(2)
C4 C 0.6278(5) 0.0328(2) 0.1097(2)
O3 O 0.1049(4) 0.3623(2) -0.0216(2)
O4 O 0.6599(5) 0.0419(2) 0.0537(2)
O5 O 0.9594(4) 0.0991(2) 0.2537(2)
C5 C 0.4637(5) 0.3863(2) 0.1266(2)
C6 C 0.8203(5) 0.0672(2) 0.2383(2)
O6 O 0.4454(5) 0.4300(2) 0.1709(2)
C7 C 0.5235(5) -0.0251(2) 0.3079(2)
C8 C 0.7544(5) 0.2718(2) 0.0950(2)
O7 O 0.8891(4) 0.2506(2) 0.1235(2)
O8 O 0.5087(5) -0.0504(2) 0.3613(2)
C9 C 0.6414(5) 0.4039(2) -0.0014(2)
C10 C 0.6972(5) -0.0990(2) 0.2012(2)
O9 O 0.7132(5) 0.4563(2) -0.0288(2)
O10 O 0.7700(4) -0.1623(2) 0.1973(2)
C11 C 0.4090(4) 0.1301(2) 0.2150(1)
C12 C 0.3334(4) 0.1545(2) 0.1482(1)
C13 C 0.3584(4) 0.2069(2) 0.0911(1)
C14 C 0.2327(4) 0.1416(2) 0.0898(2)
O11 O 0.1036(3) 0.0956(1) 0.0582(1)
C15 C 0.0557(6) 0.1216(2) -0.0117(2)
C16 C 0.4447(6) 0.1683(2) 0.3344(2)
C17 C 0.2475(5) 0.2543(2) 0.2566(2)
H1 H -0.0244(6) 0.1692(2) -0.0110(2)
H2 H -0.0103(6) 0.0782(2) -0.0353(2)
H3 H 0.1705(6) 0.1344(2) -0.0342(2)
H4 H 0.3593(6) 0.1336(2) 0.3580(2)
H5 H 0.4553(6) 0.2202(2) 0.3570(2)
H6 H 0.5679(6) 0.1430(2) 0.3338(2)
H7 H 0.3187(5) 0.3019(2) 0.2705(2)
H8 H 0.1390(5) 0.2485(2) 0.2842(2)
H9 H 0.2055(5) 0.2600(2) 0.2102(2)
#END
