####################################################################### 
# 
# This file contains crystal structure data downloaded from the 
# Cambridge Structural Database (CSD) hosted by the Cambridge 
# Crystallographic Data Centre (CCDC).
# 
# Full information about CCDC data access policies and citation 
# guidelines are available at http://www.ccdc.cam.ac.uk/access/V1 
# 
# Audit and citation data items may have been added by the CCDC. 
# Please retain this information to preserve the provenance of 
# this file and to allow appropriate attribution of the data. 
# 
#######################################################################

data_lusucc
_audit_block_doi                 10.5517/cc6tw73
_database_code_depnum_ccdc_archive 'CCDC 203615'
loop_
_citation_id
_citation_doi
_citation_year
1 10.1524/ncrs.2002.217.1.569 2002
_audit_update_record             
;
2003-02-11 deposited with the CCDC.	2024-07-11 downloaded from the CCDC.
;

_chemical_name_systematic        
;
diaaquasuccinatelutetium(III) dihydrate,
, the first succinate of a trivalent cation
;


_chemical_name_common            Lutetiumsuccinate-Hydrate
_chemical_melting_point          'not determined'
_chemical_formula_structural     'Lu (C4 H4 O4)1.5(H2 O)2 . 2H2 O'
_chemical_formula_moiety         'Lu, 1.5 (C4 H4 O4), 4 (H2 O)'
_chemical_formula_sum            'C6 H14 Lu1 O10'
_chemical_formula_weight         421.14

loop_
_atom_type_symbol
_atom_type_description
_atom_type_scat_dispersion_real
_atom_type_scat_dispersion_imag
_atom_type_scat_source
C C 0.0033 0.0016 'International Tables Vol C Tables 4.2.6.8 and 6.1.1.4'
H H 0.0000 0.0000 'International Tables Vol C Tables 4.2.6.8 and 6.1.1.4'
O O 0.0106 0.0060 'International Tables Vol C Tables 4.2.6.8 and 6.1.1.4'
Lu Lu -0.4720 5.8584 'International Tables Vol C Tables 4.2.6.8 and 6.1.1.4'

_symmetry_cell_setting           monoclinic
_symmetry_space_group_name_H-M   P21/c

loop_
_symmetry_equiv_pos_as_xyz
'x, y, z'
'-x, y+1/2, -z+1/2'
'-x, -y, -z'
'x, -y-1/2, z-1/2'

_cell_length_a                   5.2240(10)
_cell_length_b                   26.055(5)
_cell_length_c                   8.800(2)
_cell_angle_alpha                90.00
_cell_angle_beta                 97.38(3)
_cell_angle_gamma                90.00
_cell_volume                     1187.9(4)
_cell_formula_units_Z            4
_cell_measurement_temperature    293(2)
_cell_measurement_reflns_used    7084
_cell_measurement_theta_min      4.01
_cell_measurement_theta_max      30.49

_exptl_crystal_description       needle
_exptl_crystal_colour            colourless
_exptl_crystal_size_max          0.40
_exptl_crystal_size_mid          0.08
_exptl_crystal_size_min          0.05
_exptl_crystal_density_meas      'not measured'
_exptl_crystal_density_diffrn    2.355
_exptl_crystal_density_method    'not measured'
_exptl_crystal_F_000             804
_exptl_absorpt_coefficient_mu    8.352
_exptl_absorpt_correction_type   multi-scan
_exptl_absorpt_correction_T_min  0.1350
_exptl_absorpt_correction_T_max  0.6802
_exptl_absorpt_process_details   'HKL SCALEPACK (Otwinowski & Minor, 1997)'

_exptl_special_details           
; 
The single crystal data were collected on a Nonius Kappa CCD 4-circle 
diffractometer using 735 frames with a phi-increment of 1 degrees and 
a counting time of 100 seconds per frame. The crystal to detector 
distance was 30 mm. The whole ewald sphere was measured.
;

_diffrn_ambient_temperature      293(2)
_diffrn_radiation_wavelength     0.71073
_diffrn_radiation_type           MoK\a
_diffrn_radiation_source         'fine-focus sealed tube'
_diffrn_radiation_monochromator  graphite
_diffrn_measurement_device_type  'Nonius Kappa CCD'
_diffrn_measurement_method       Phi/omega
_diffrn_detector_area_resol_mean 0.1
_diffrn_standards_number         none
_diffrn_reflns_number            7084
_diffrn_reflns_av_R_equivalents  0.0124
_diffrn_reflns_av_sigmaI/netI    0.0234
_diffrn_reflns_limit_h_min       -7
_diffrn_reflns_limit_h_max       7
_diffrn_reflns_limit_k_min       -37
_diffrn_reflns_limit_k_max       37
_diffrn_reflns_limit_l_min       -12
_diffrn_reflns_limit_l_max       12
_diffrn_reflns_theta_min         4.01
_diffrn_reflns_theta_max         30.49
_reflns_number_total             3622
_reflns_number_gt                3423
_reflns_threshold_expression     I>2sigm(I)

_computing_data_collection       'COLLECT (Nonius, 2001)'
_computing_cell_refinement       'HKL SCALEPACK (Otwinowski & Minor 1997)'
_computing_data_reduction        
'HKL DENZO, SCALEPACK (Otwinowski & Minor, 1997)'
_computing_structure_solution    'SHELXS-97 (Sheldrick, 1997)'
_computing_structure_refinement  'SHELXL-97 (Sheldrick, 1997)'
_computing_molecular_graphics    'ATOMS 5.0 (Dowty, 1999)'
_computing_publication_material  'SHELXL-97 (Sheldrick, 1997)'

_refine_special_details          
; 
Refinement of F^2^ against ALL reflections.  The weighted R-factor wR and 
goodness of fit S are based on F^2^, conventional R-factors R are based 
on F, with F set to zero for negative F^2^. The threshold expression of 
F^2^ > 2sigma(F^2^) is used only for calculating R-factors(gt) etc. and is 
not relevant to the choice of reflections for refinement.  R-factors based 
on F^2^ are statistically about twice as large as those based on F, and R- 
factors based on ALL data will be even larger. 
;

_refine_ls_structure_factor_coef Fsqd
_refine_ls_matrix_type           full
_refine_ls_weighting_scheme      calc
_refine_ls_weighting_details     
'calc w=1/[\s^2^(Fo^2^)+(0.0000P)^2^+2.4400P] where P=(Fo^2^+2Fc^2^)/3'
_atom_sites_solution_primary     direct
_atom_sites_solution_secondary   difmap
_atom_sites_solution_hydrogens   difmap
_refine_ls_hydrogen_treatment    mixed
_refine_ls_extinction_method     none
_refine_ls_number_reflns         3622
_refine_ls_number_parameters     204
_refine_ls_number_restraints     0
_refine_ls_R_factor_all          0.0206
_refine_ls_R_factor_gt           0.0189
_refine_ls_wR_factor_ref         0.0456
_refine_ls_wR_factor_gt          0.0450
_refine_ls_goodness_of_fit_ref   1.163
_refine_ls_restrained_S_all      1.163
_refine_ls_shift/su_max          0.003
_refine_ls_shift/su_mean         0.000

loop_
_atom_site_label
_atom_site_type_symbol
_atom_site_fract_x
_atom_site_fract_y
_atom_site_fract_z
_atom_site_U_iso_or_equiv
_atom_site_adp_type
_atom_site_occupancy
_atom_site_symmetry_multiplicity
_atom_site_Wyckoff_symbol
_atom_site_calc_flag
_atom_site_refinement_flags
_atom_site_disorder_assembly
_atom_site_disorder_group
Lu Lu 0.40348(2) 0.340833(4) 0.521439(12) 0.02301(18) Uani 1 4 e d . . .
O11A O 0.6000(4) 0.16646(9) 0.8076(2) 0.0346(5) Uani 1 4 e d . . .
O12A O 1.0041(4) 0.16387(10) 0.9103(3) 0.0408(6) Uani 1 4 e d . . .
C1A C 0.8350(5) 0.16850(10) 0.7954(3) 0.0250(5) Uani 1 4 e d . . .
C2A C 0.9236(6) 0.17597(12) 0.6417(3) 0.0303(6) Uani 1 4 e d . . .
H2A1 H 1.005(7) 0.1442(15) 0.620(4) 0.035(9) Uiso 1 4 e d . . .
H2A2 H 1.056(9) 0.2016(19) 0.649(5) 0.058(13) Uiso 1 4 e d . . .
C3A C 0.7100(7) 0.18985(12) 0.5159(3) 0.0328(6) Uani 1 4 e d . . .
H3A1 H 0.586(8) 0.1647(16) 0.513(5) 0.044(11) Uiso 1 4 e d . . .
H3A2 H 0.769(9) 0.1943(18) 0.421(5) 0.057(12) Uiso 1 4 e d . . .
C4A C 0.5868(5) 0.24140(10) 0.5330(3) 0.0259(5) Uani 1 4 e d . . .
O41A O 0.3731(4) 0.25162(8) 0.4539(2) 0.0328(5) Uani 1 4 e d . . .
O42A O 0.6977(4) 0.27586(7) 0.6198(2) 0.0282(4) Uani 1 4 e d . . .
O11B O 0.1887(4) 0.41599(8) 0.6099(3) 0.0348(5) Uani 1 4 e d . . .
O12B O 0.3578(5) 0.42179(9) 0.3963(3) 0.0472(6) Uani 1 4 e d . . .
C1B C 0.2197(6) 0.44039(12) 0.4895(4) 0.0401(7) Uani 1 4 e d . . .
C2B C 0.0903(10) 0.49114(17) 0.4508(6) 0.0681(14) Uani 1 4 e d . . .
H2B1 H 0.2238 0.5170 0.4500 0.050 Uiso 1 4 e calc R . .
H2B2 H 0.0005 0.4889 0.3474 0.050 Uiso 1 4 e calc R . .
O1W O 0.7134(4) 0.38393(9) 0.6794(3) 0.0343(5) Uani 1 4 e d . . .
H1W1 H 0.696(9) 0.4022(18) 0.747(5) 0.052(13) Uiso 1 4 e d . . .
H2W1 H 0.845(10) 0.3877(19) 0.660(5) 0.060(15) Uiso 1 4 e d . . .
O2W O 0.1987(4) 0.30923(8) 0.7173(2) 0.0298(4) Uani 1 4 e d . . .
H1W2 H 0.065(8) 0.2985(15) 0.690(4) 0.037(10) Uiso 1 4 e d . . .
H2W2 H 0.255(8) 0.2896(17) 0.787(5) 0.052(12) Uiso 1 4 e d . . .
O3W O 0.7512(7) 0.44595(12) 0.9379(4) 0.0555(7) Uani 1 4 e d . . .
H1W3 H 0.738(9) 0.477(2) 0.905(5) 0.061(14) Uiso 1 4 e d . . .
H2W3 H 0.914(8) 0.4390(18) 0.993(5) 0.050 Uiso 1 4 e d . . .
O4W O 0.2861(7) 0.44718(13) 0.0903(4) 0.0600(8) Uani 1 4 e d . . .
H1W4 H 0.415(9) 0.4386(19) 0.050(5) 0.050 Uiso 1 4 e d . . .
H2W4 H 0.302(10) 0.440(2) 0.187(6) 0.070(16) Uiso 1 4 e d . . .

loop_
_atom_site_aniso_label
_atom_site_aniso_U_11
_atom_site_aniso_U_22
_atom_site_aniso_U_33
_atom_site_aniso_U_23
_atom_site_aniso_U_13
_atom_site_aniso_U_12
Lu 0.02240(18) 0.02292(19) 0.02382(18) 0.00131(4) 0.00336(4) 0.00240(3)
O11A 0.0249(9) 0.0474(13) 0.0321(11) -0.0025(9) 0.0063(8) -0.0053(8)
O12A 0.0330(11) 0.0557(15) 0.0313(11) -0.0022(9) -0.0051(9) -0.0012(10)
C1A 0.0246(11) 0.0217(11) 0.0286(12) -0.0002(9) 0.0035(9) -0.0010(9)
C2A 0.0315(13) 0.0290(13) 0.0325(14) 0.0047(11) 0.0122(11) 0.0077(11)
C3A 0.0472(17) 0.0282(13) 0.0238(12) -0.0002(10) 0.0077(11) 0.0091(12)
C4A 0.0280(12) 0.0255(12) 0.0248(11) 0.0004(9) 0.0060(9) 0.0017(9)
O41A 0.0323(10) 0.0304(10) 0.0337(10) -0.0060(8) -0.0038(8) 0.0017(8)
O42A 0.0262(9) 0.0256(9) 0.0317(10) -0.0011(7) 0.0002(7) 0.0006(7)
O11B 0.0327(10) 0.0291(10) 0.0445(12) 0.0020(8) 0.0123(9) 0.0050(8)
O12B 0.0555(15) 0.0365(12) 0.0542(14) 0.0157(11) 0.0250(12) 0.0155(11)
C1B 0.0374(16) 0.0276(14) 0.057(2) 0.0096(13) 0.0144(14) 0.0068(12)
C2B 0.084(3) 0.043(2) 0.086(3) 0.027(2) 0.044(3) 0.034(2)
O1W 0.0280(10) 0.0339(11) 0.0422(12) -0.0101(9) 0.0091(9) -0.0020(8)
O2W 0.0254(10) 0.0340(11) 0.0294(10) 0.0076(8) 0.0007(8) -0.0006(8)
O3W 0.0657(19) 0.0467(16) 0.0539(16) -0.0051(13) 0.0071(14) -0.0023(14)
O4W 0.073(2) 0.0558(18) 0.0525(18) 0.0112(14) 0.0145(15) 0.0060(15)

_geom_special_details            
; 
All esds (except the esd in the dihedral angle between two l.s. planes) 
are estimated using the full covariance matrix.  The cell esds are taken 
into account individually in the estimation of esds in distances, angles 
and torsion angles; correlations between esds in cell parameters are only 
used when they are defined by crystal symmetry.  An approximate (isotropic) 
treatment of cell esds is used for estimating esds involving l.s. planes. 
;

loop_
_geom_bond_atom_site_label_1
_geom_bond_atom_site_label_2
_geom_bond_distance
_geom_bond_site_symmetry_2
_geom_bond_publ_flag
Lu O12A 2.191(2) 4_465 ?
Lu O11A 2.264(2) 4_565 ?
Lu O1W 2.288(2) . ?
Lu O2W 2.295(2) . ?
Lu O42A 2.3739(19) . ?
Lu O12B 2.377(2) . ?
Lu O41A 2.399(2) . ?
Lu O11B 2.434(2) . ?
O11A C1A 1.247(3) . ?
O12A C1A 1.260(3) . ?
C1A C2A 1.497(4) . ?
C2A C3A 1.512(4) . ?
C2A H2A1 0.96(4) . ?
C2A H2A2 0.96(5) . ?
C3A C4A 1.505(4) . ?
C3A H3A1 0.92(4) . ?
C3A H3A2 0.93(5) . ?
C4A O41A 1.265(3) . ?
C4A O42A 1.269(3) . ?
O11B C1B 1.264(4) . ?
O12B C1B 1.257(4) . ?
C1B C2B 1.504(5) . ?
C2B C2B 1.437(8) 3_566 ?
C2B H2B1 0.9700 . ?
C2B H2B2 0.9700 . ?
O1W H1W1 0.78(5) . ?
O1W H2W1 0.74(5) . ?
O2W H1W2 0.76(4) . ?
O2W H2W2 0.83(5) . ?
O3W H1W3 0.87(5) . ?
O3W H2W3 0.94(4) . ?
O4W H1W4 0.83(5) . ?
O4W H2W4 0.86(5) . ?

loop_
_geom_angle_atom_site_label_1
_geom_angle_atom_site_label_2
_geom_angle_atom_site_label_3
_geom_angle
_geom_angle_site_symmetry_1
_geom_angle_site_symmetry_3
_geom_angle_publ_flag
O12A Lu O11A 97.57(9) 4_465 4_565 ?
O12A Lu O1W 149.03(9) 4_465 . ?
O11A Lu O1W 100.66(9) 4_565 . ?
O12A Lu O2W 78.82(9) 4_465 . ?
O11A Lu O2W 154.01(8) 4_565 . ?
O1W Lu O2W 94.68(9) . . ?
O12A Lu O42A 131.12(8) 4_465 . ?
O11A Lu O42A 84.36(7) 4_565 . ?
O1W Lu O42A 75.77(8) . . ?
O2W Lu O42A 79.20(7) . . ?
O12A Lu O12B 79.03(10) 4_465 . ?
O11A Lu O12B 73.66(8) 4_565 . ?
O1W Lu O12B 82.35(10) . . ?
O2W Lu O12B 129.61(8) . . ?
O42A Lu O12B 145.43(8) . . ?
O12A Lu O41A 78.84(8) 4_465 . ?
O11A Lu O41A 74.66(8) 4_565 . ?
O1W Lu O41A 130.16(8) . . ?
O2W Lu O41A 79.40(8) . . ?
O42A Lu O41A 54.44(7) . . ?
O12B Lu O41A 138.19(9) . . ?
O12A Lu O11B 74.70(8) 4_465 . ?
O11A Lu O11B 127.61(8) 4_565 . ?
O1W Lu O11B 74.34(8) . . ?
O2W Lu O11B 76.69(8) . . ?
O42A Lu O11B 139.51(7) . . ?
O12B Lu O11B 53.95(8) . . ?
O41A Lu O11B 147.15(7) . . ?
O12A Lu C4A 105.67(9) 4_465 . ?
O11A Lu C4A 76.09(8) 4_565 . ?
O1W Lu C4A 102.90(8) . . ?
O2W Lu C4A 80.12(8) . . ?
O42A Lu C4A 27.33(7) . . ?
O12B Lu C4A 149.75(8) . . ?
O41A Lu C4A 27.27(7) . . ?
O11B Lu C4A 156.29(7) . . ?
O12A Lu C1B 73.09(10) 4_465 . ?
O11A Lu C1B 100.53(9) 4_565 . ?
O1W Lu C1B 79.09(10) . . ?
O2W Lu C1B 102.91(9) . . ?
O42A Lu C1B 154.86(9) . . ?
O12B Lu C1B 26.95(9) . . ?
O41A Lu C1B 150.67(9) . . ?
O11B Lu C1B 27.16(9) . . ?
C4A Lu C1B 176.30(9) . . ?
C1A O11A Lu 129.18(19) . 4_566 ?
C1A O12A Lu 153.2(2) . 4_666 ?
O11A C1A O12A 121.5(3) . . ?
O11A C1A C2A 120.4(2) . . ?
O12A C1A C2A 118.1(3) . . ?
C1A C2A C3A 114.1(2) . . ?
C1A C2A H2A1 105(2) . . ?
C3A C2A H2A1 111(2) . . ?
C1A C2A H2A2 110(3) . . ?
C3A C2A H2A2 110(3) . . ?
H2A1 C2A H2A2 106(4) . . ?
C4A C3A C2A 115.2(2) . . ?
C4A C3A H3A1 109(3) . . ?
C2A C3A H3A1 107(3) . . ?
C4A C3A H3A2 100(3) . . ?
C2A C3A H3A2 113(3) . . ?
H3A1 C3A H3A2 112(4) . . ?
O41A C4A O42A 119.0(2) . . ?
O41A C4A C3A 119.4(2) . . ?
O42A C4A C3A 121.6(2) . . ?
O41A C4A Lu 60.31(14) . . ?
O42A C4A Lu 59.17(13) . . ?
C3A C4A Lu 170.02(19) . . ?
C4A O41A Lu 92.42(16) . . ?
C4A O42A Lu 93.50(16) . . ?
C1B O11B Lu 91.28(18) . . ?
C1B O12B Lu 94.10(19) . . ?
O12B C1B O11B 120.0(3) . . ?
O12B C1B C2B 118.0(3) . . ?
O11B C1B C2B 122.0(3) . . ?
O12B C1B Lu 58.96(16) . . ?
O11B C1B Lu 61.55(15) . . ?
C2B C1B Lu 170.7(3) . . ?
C2B C2B C1B 117.2(4) 3_566 . ?
C2B C2B H2B1 108.0 3_566 . ?
C1B C2B H2B1 108.0 . . ?
C2B C2B H2B2 108.0 3_566 . ?
C1B C2B H2B2 108.0 . . ?
H2B1 C2B H2B2 107.3 . . ?
Lu O1W H1W1 128(3) . . ?
Lu O1W H2W1 122(4) . . ?
H1W1 O1W H2W1 108(5) . . ?
Lu O2W H1W2 113(3) . . ?
Lu O2W H2W2 129(3) . . ?
H1W2 O2W H2W2 103(4) . . ?
H1W3 O3W H2W3 112(4) . . ?
H1W4 O4W H2W4 113(5) . . ?

loop_
_geom_torsion_atom_site_label_1
_geom_torsion_atom_site_label_2
_geom_torsion_atom_site_label_3
_geom_torsion_atom_site_label_4
_geom_torsion
_geom_torsion_site_symmetry_1
_geom_torsion_site_symmetry_2
_geom_torsion_site_symmetry_3
_geom_torsion_site_symmetry_4
_geom_torsion_publ_flag
Lu O11A C1A O12A 3.7(4) 4_566 . . . ?
Lu O11A C1A C2A -176.99(19) 4_566 . . . ?
Lu O12A C1A O11A 177.5(3) 4_666 . . . ?
Lu O12A C1A C2A -1.8(6) 4_666 . . . ?
O11A C1A C2A C3A 10.3(4) . . . . ?
O12A C1A C2A C3A -170.4(3) . . . . ?
C1A C2A C3A C4A 66.2(4) . . . . ?
C2A C3A C4A O41A -164.7(3) . . . . ?
C2A C3A C4A O42A 18.6(4) . . . . ?
Lu O12B C1B O11B 8.6(4) . . . . ?
Lu O12B C1B C2B -169.9(4) . . . . ?
Lu O11B C1B O12B -8.4(4) . . . . ?
Lu O11B C1B C2B 170.0(4) . . . . ?
O12B C1B C2B C2B 172.9(6) . . . 3_566 ?
O11B C1B C2B C2B -5.6(9) . . . 3_566 ?


loop_
_geom_hbond_atom_site_label_D
_geom_hbond_atom_site_label_H
_geom_hbond_atom_site_label_A
_geom_hbond_distance_DH
_geom_hbond_distance_HA
_geom_hbond_distance_DA
_geom_hbond_angle_DHA
_geom_hbond_site_symmetry_A
O1W H1W1 O3W 0.78(5) 2.02(5) 2.777(4) 165(5) .
O1W H2W1 O11B 0.74(5) 2.04(5) 2.761(3) 166(5) 1_655
O2W H1W2 O42A 0.76(4) 2.03(4) 2.787(3) 175(4) 1_455
O2W H2W2 O41A 0.83(5) 1.86(5) 2.682(3) 176(4) 4_566
O3W H1W3 O4W 0.87(5) 1.97(5) 2.800(5) 159(4) 3_666
O3W H2W3 O4W 0.94(4) 2.03(4) 2.940(5) 162(4) 1_656
O4W H1W4 O3W 0.83(5) 2.13(5) 2.922(5) 159(5) 1_554
O4W H2W4 O12B 0.86(5) 1.89(6) 2.751(4) 175(5) .

_diffrn_measured_fraction_theta_max 0.995
_diffrn_reflns_theta_full        30.49
_diffrn_measured_fraction_theta_full 0.995
_refine_diff_density_max         0.611
_refine_diff_density_min         -0.472
_refine_diff_density_rms         0.075


