
#######################################################################
#
#                 Cambridge Crystallographic Data Centre
#                                CCDC
#
#######################################################################
#
# If this CIF has been generated from an entry in the Cambridge
# Structural Database, then it will include bibliographic, chemical,
# crystal, experimental, refinement or atomic coordinate data resulting
# from the CCDC's data processing and validation procedures.
#
#######################################################################

data_CSD_CIF_MUSIMO01
_audit_creation_date 1998-01-27
_audit_creation_method CSD-ConQuest-V1
_database_code_CSD MUSIMO01
_database_code_depnum_ccdc_archive 'CCDC 1215137'
_chemical_formula_sum 'C4 H7 N2 O2.5'
_chemical_formula_moiety
;
C4 H6 N2 O2,0.5(H2 O1)
;
_journal_coden_Cambridge 1094
_journal_volume 8
_journal_year 1997
_journal_page_first 443
_journal_name_full 'Struct.Chem. '
loop_
_publ_author_name
"L.Brehm"
"K.Frydenvang"
"L.M.Hansen"
"P.-O.Norrby"
"P.Krogsgaard-Larsen"
"T.Liljefors"
_chemical_name_systematic
;
5-Ammoniomethyl-3-isoxazolonide hemihydrate
;
_chemical_name_common
;
Muscimol hemihydrate; Teaching Subset: Drug Molecules
;
_cell_volume    561.284
_exptl_crystal_colour 'colorless'
_exptl_crystal_density_diffrn 1.457
_exptl_special_details
;
agent with inhibitory neurotransmitter activity, capable of penetrating the 
blood-brain barrier
;
_diffrn_ambient_temperature ?
_diffrn_special_details
;
The study was carried out at room temperature,in the range 283-303K

;
#These two values have been output from a single CSD field.
_refine_ls_R_factor_gt 0.0401
_refine_ls_wR_factor_gt 0.0401
_chemical_compound_source
;
Amanita muscaria
;
_symmetry_cell_setting triclinic
_symmetry_space_group_name_H-M 'P -1'
_symmetry_Int_Tables_number 2
loop_
_symmetry_equiv_pos_site_id
_symmetry_equiv_pos_as_xyz
1 x,y,z
2 -x,-y,-z
_cell_length_a 8.064(2)
_cell_length_b 9.273(2)
_cell_length_c 7.772(1)
_cell_angle_alpha 78.12(1)
_cell_angle_beta 98.69(1)
_cell_angle_gamma 94.94(2)
_cell_formula_units_Z 4
loop_
_atom_type_symbol
_atom_type_radius_bond
C 0.68
H 0.23
N 0.68
O 0.68
loop_
_atom_site_label
_atom_site_type_symbol
_atom_site_fract_x
_atom_site_fract_y
_atom_site_fract_z
O1 O 0.28602(14) 0.87515(10) 0.04269(12)
N1 N 0.2316(2) 0.89235(12) 0.20398(13)
C1 C 0.19256(13) 1.03132(12) 0.17740(13)
C2 C 0.2197(2) 1.10708(13) 0.00281(14)
C3 C 0.27602(14) 1.00625(12) -0.07107(14)
C4 C 0.3240(2) 1.0144(2) -0.2505(2)
N2 N 0.19825(12) 0.93241(11) -0.36038(12)
O2 O 0.13768(11) 1.08526(9) 0.29867(10)
H1 H 0.2013(20) 1.2081(18) -0.0503(22)
H2 H 0.4405(26) 0.9693(21) -0.2430(25)
H3 H 0.3330(22) 1.1159(20) -0.3082(23)
H4 H 0.0937(24) 0.9344(18) -0.3272(23)
H5 H 0.1914(22) 0.9732(18) -0.4799(24)
H6 H 0.2313(22) 0.8367(20) -0.3510(22)
O3 O 0.50717(12) 0.66485(10) 0.6657(2)
N3 N 0.34021(13) 0.65583(12) 0.7080(2)
C5 C 0.31010(13) 0.51936(12) 0.78964(14)
C6 C 0.45550(14) 0.43630(13) 0.8027(2)
C7 C 0.56844(14) 0.53111(12) 0.7255(2)
C8 C 0.74265(15) 0.5149(2) 0.6950(2)
N4 N 0.86692(12) 0.60540(11) 0.79570(14)
O4 O 0.1671(1) 0.4733(1) 0.84364(12)
H7 H 0.4734(23) 0.3335(20) 0.8548(23)
H8 H 0.7525(24) 0.5446(20) 0.5717(27)
H9 H 0.7677(22) 0.4138(20) 0.7291(24)
H10 H 0.9760(23) 0.5792(18) 0.7907(23)
H11 H 0.8596(21) 0.7052(20) 0.7533(22)
H12 H 0.8422(20) 0.5854(17) 0.9153(23)
O5 O -0.0279(2) 0.71604(15) 0.4112(2)
H13 H -0.0743(31) 0.6555(28) 0.3276(34)
H14 H 0.0510(33) 0.7608(27) 0.3615(33)
#END
