####################################################################### 
# 
# This file contains crystal structure data downloaded from the 
# Cambridge Structural Database (CSD) hosted by the Cambridge 
# Crystallographic Data Centre (CCDC).
# 
# Full information about CCDC data access policies and citation 
# guidelines are available at http://www.ccdc.cam.ac.uk/access/V1 
# 
# Audit and citation data items may have been added by the CCDC. 
# Please retain this information to preserve the provenance of 
# this file and to allow appropriate attribution of the data. 
# 
#######################################################################

data_p-3_[{CdL2}2(SO4)]_2H2O_(5_2H2O)
_audit_block_doi                 10.5517/cct7539
_database_code_depnum_ccdc_archive 'CCDC 751660'
loop_
_citation_id
_citation_doi
_citation_year
1 10.1016/j.ica.2010.01.006 2010
_audit_update_record             
;
2009-10-16 deposited with the CCDC.	2024-07-11 downloaded from the CCDC.
;

_audit_creation_method           SHELXL-97
_chemical_name_systematic        
;
?
;
_chemical_name_common            ?
_chemical_melting_point          ?
_chemical_formula_moiety         'C45 H56 Cd3 N9 O14 S'
_chemical_formula_sum            'C45 H56 Cd3 N9 O14 S'
_chemical_formula_weight         1316.25

loop_
_atom_type_symbol
_atom_type_description
_atom_type_scat_dispersion_real
_atom_type_scat_dispersion_imag
_atom_type_scat_source
C C 0.0033 0.0016 'International Tables Vol C Tables 4.2.6.8 and 6.1.1.4'
H H 0.0000 0.0000 'International Tables Vol C Tables 4.2.6.8 and 6.1.1.4'
N N 0.0061 0.0033 'International Tables Vol C Tables 4.2.6.8 and 6.1.1.4'
O O 0.0106 0.0060 'International Tables Vol C Tables 4.2.6.8 and 6.1.1.4'
S S 0.1246 0.1234 'International Tables Vol C Tables 4.2.6.8 and 6.1.1.4'
Cd Cd -0.8075 1.2024 'International Tables Vol C Tables 4.2.6.8 and 6.1.1.4'

_symmetry_cell_setting           Trigonal
_symmetry_space_group_name_H-M   P-3
_symmetry_space_group_name_Hall  -P3

loop_
_symmetry_equiv_pos_as_xyz
'x, y, z'
'-y, x-y, z'
'-x+y, -x, z'
'-x, -y, -z'
'y, -x+y, -z'
'x-y, x, -z'

_cell_length_a                   18.8293(10)
_cell_length_b                   18.8293(10)
_cell_length_c                   9.0789(10)
_cell_angle_alpha                90.00
_cell_angle_beta                 90.00
_cell_angle_gamma                120.00
_cell_volume                     2787.6(4)
_cell_formula_units_Z            2
_cell_measurement_temperature    90(2)
_cell_measurement_reflns_used    5478
_cell_measurement_theta_min      2.50
_cell_measurement_theta_max      28.24

_exptl_crystal_description       block
_exptl_crystal_colour            colorless
_exptl_crystal_size_max          0.30
_exptl_crystal_size_mid          0.20
_exptl_crystal_size_min          0.18
_exptl_crystal_density_meas      ?
_exptl_crystal_density_diffrn    1.568
_exptl_crystal_density_method    'not measured'
_exptl_crystal_F_000             1322
_exptl_absorpt_coefficient_mu    1.238
_exptl_absorpt_correction_type   multi-scan
_exptl_absorpt_correction_T_min  0.7077
_exptl_absorpt_correction_T_max  0.8079
_exptl_absorpt_process_details   'SADABS (Bruker, 1998)'

_exptl_special_details           
;
?
;

_diffrn_ambient_temperature      90(2)
_diffrn_radiation_wavelength     0.71073
_diffrn_radiation_type           MoK\a
_diffrn_radiation_source         'fine-focus sealed tube'
_diffrn_radiation_monochromator  graphite
_diffrn_measurement_device_type  'BrukerSMART APEX diffractometer'
_diffrn_measurement_method       '\f and \w scans'
_diffrn_detector_area_resol_mean 512
_diffrn_standards_number         0
_diffrn_standards_interval_count .
_diffrn_standards_interval_time  .
_diffrn_standards_decay_%        ?
_diffrn_reflns_number            28022
_diffrn_reflns_av_R_equivalents  0.0352
_diffrn_reflns_av_sigmaI/netI    0.0234
_diffrn_reflns_limit_h_min       -24
_diffrn_reflns_limit_h_max       25
_diffrn_reflns_limit_k_min       -25
_diffrn_reflns_limit_k_max       25
_diffrn_reflns_limit_l_min       -11
_diffrn_reflns_limit_l_max       12
_diffrn_reflns_theta_min         2.50
_diffrn_reflns_theta_max         28.24
_reflns_number_total             4600
_reflns_number_gt                4546
_reflns_threshold_expression     >2sigma(I)

_computing_data_collection       'SMART (Bruker, 1998)'
_computing_cell_refinement       'SMART '
_computing_data_reduction        'SAINT (Bruker, 1998)'
_computing_structure_solution    'SHELXS-97 (Sheldrick, 2008)'
_computing_structure_refinement  'SHELXL-97 (Sheldrick, 2008)'
_computing_molecular_graphics    'DIAMOND (Brandenburg, 1999)'
_computing_publication_material  'SHELXTL (Sheldrick, 2008)'

_refine_special_details          
;
Refinement of F^2^ against ALL reflections. The weighted R-factor wR and
goodness of fit S are based on F^2^, conventional R-factors R are based
on F, with F set to zero for negative F^2^. The threshold expression of
F^2^ > 2sigma(F^2^) is used only for calculating R-factors(gt) etc. and is
not relevant to the choice of reflections for refinement. R-factors based
on F^2^ are statistically about twice as large as those based on F, and R-
factors based on ALL data will be even larger.
;

_refine_ls_structure_factor_coef Fsqd
_refine_ls_matrix_type           full
_refine_ls_weighting_scheme      calc
_refine_ls_weighting_details     
'calc w=1/[\s^2^(Fo^2^)+(0.0225P)^2^+23.2926P] where P=(Fo^2^+2Fc^2^)/3'
_atom_sites_solution_primary     direct
_atom_sites_solution_secondary   difmap
_atom_sites_solution_hydrogens   geom
_refine_ls_hydrogen_treatment    constr
_refine_ls_extinction_method     none
_refine_ls_extinction_coef       ?
_refine_ls_number_reflns         4600
_refine_ls_number_parameters     205
_refine_ls_number_restraints     0
_refine_ls_R_factor_all          0.0629
_refine_ls_R_factor_gt           0.0622
_refine_ls_wR_factor_ref         0.1296
_refine_ls_wR_factor_gt          0.1292
_refine_ls_goodness_of_fit_ref   1.310
_refine_ls_restrained_S_all      1.310
_refine_ls_shift/su_max          0.001
_refine_ls_shift/su_mean         0.000

loop_
_atom_site_label
_atom_site_type_symbol
_atom_site_fract_x
_atom_site_fract_y
_atom_site_fract_z
_atom_site_U_iso_or_equiv
_atom_site_adp_type
_atom_site_occupancy
_atom_site_symmetry_multiplicity
_atom_site_calc_flag
_atom_site_refinement_flags
_atom_site_disorder_assembly
_atom_site_disorder_group
Cd1 Cd 0.55634(2) 0.11819(2) 0.55212(4) 0.01211(11) Uani 1 1 d . . .
S1 S 0.6667 0.3333 0.4528(2) 0.0113(4) Uani 1 3 d S . .
O1 O 0.5475(2) 0.0210(2) 0.3633(4) 0.0157(7) Uani 1 1 d . . .
O2 O 0.6577(2) 0.0828(2) 0.5041(4) 0.0202(8) Uani 1 1 d . . .
O3 O 0.6480(3) 0.2531(2) 0.5114(6) 0.0380(12) Uani 1 1 d . . .
O4 O 0.6667 0.3333 0.2983(11) 0.072(3) Uani 1 3 d S . .
N1 N 0.6048(3) 0.1358(2) 0.7979(5) 0.0162(8) Uani 1 1 d . . .
N2 N 0.4713(3) 0.1511(2) 0.7050(5) 0.0136(8) Uani 1 1 d . . .
N3 N 0.4578(3) 0.1239(3) 0.4013(5) 0.0160(8) Uani 1 1 d . . .
C1 C 0.5285(3) 0.2078(3) 0.8165(5) 0.0168(10) Uani 1 1 d . . .
H1A H 0.4967 0.2164 0.8943 0.020 Uiso 1 1 calc R . .
H1B H 0.5649 0.2615 0.7696 0.020 Uiso 1 1 calc R . .
C2 C 0.5804(3) 0.1763(3) 0.8862(6) 0.0168(10) Uani 1 1 d . . .
C3 C 0.6055(3) 0.1931(3) 1.0330(6) 0.0191(10) Uani 1 1 d . . .
H3 H 0.5884 0.2231 1.0931 0.023 Uiso 1 1 calc R . .
C4 C 0.6556(3) 0.1656(3) 1.0899(6) 0.0231(11) Uani 1 1 d . . .
H4 H 0.6730 0.1761 1.1897 0.028 Uiso 1 1 calc R . .
C5 C 0.6800(3) 0.1225(3) 0.9990(6) 0.0222(11) Uani 1 1 d . . .
H5 H 0.7138 0.1023 1.0353 0.027 Uiso 1 1 calc R . .
C6 C 0.6537(3) 0.1097(3) 0.8540(6) 0.0182(10) Uani 1 1 d . . .
H6 H 0.6712 0.0811 0.7911 0.022 Uiso 1 1 calc R . .
C7 C 0.4401(3) 0.1933(3) 0.6120(5) 0.0161(9) Uani 1 1 d . . .
H7A H 0.4829 0.2518 0.6030 0.019 Uiso 1 1 calc R . .
H7B H 0.3919 0.1909 0.6606 0.019 Uiso 1 1 calc R . .
C8 C 0.4157(3) 0.1567(3) 0.4599(5) 0.0160(9) Uani 1 1 d . . .
C9 C 0.3532(4) 0.1596(3) 0.3837(6) 0.0232(11) Uani 1 1 d . . .
H9 H 0.3244 0.1837 0.4272 0.028 Uiso 1 1 calc R . .
C10 C 0.3335(4) 0.1266(4) 0.2432(6) 0.0268(12) Uani 1 1 d . . .
H10 H 0.2910 0.1279 0.1889 0.032 Uiso 1 1 calc R . .
C11 C 0.3763(4) 0.0917(4) 0.1831(6) 0.0251(12) Uani 1 1 d . . .
H11 H 0.3633 0.0681 0.0875 0.030 Uiso 1 1 calc R . .
C12 C 0.4385(3) 0.0919(3) 0.2645(6) 0.0190(10) Uani 1 1 d . . .
H12 H 0.4686 0.0687 0.2227 0.023 Uiso 1 1 calc R . .
C13 C 0.4037(3) 0.0790(3) 0.7802(5) 0.0159(9) Uani 1 1 d . . .
H13A H 0.3712 0.0975 0.8378 0.019 Uiso 1 1 calc R . .
H13B H 0.4277 0.0567 0.8506 0.019 Uiso 1 1 calc R . .
C14 C 0.3464(3) 0.0108(3) 0.6781(5) 0.0122(9) Uani 1 1 d . . .
H14A H 0.3254 0.0343 0.6040 0.015 Uiso 1 1 calc R . .
H14B H 0.2989 -0.0297 0.7364 0.015 Uiso 1 1 calc R . .
C15 C 0.6177(3) 0.0343(3) 0.4026(5) 0.0154(9) Uani 1 1 d . . .

loop_
_atom_site_aniso_label
_atom_site_aniso_U_11
_atom_site_aniso_U_22
_atom_site_aniso_U_33
_atom_site_aniso_U_23
_atom_site_aniso_U_13
_atom_site_aniso_U_12
Cd1 0.01251(17) 0.00965(17) 0.01321(17) -0.00022(12) 0.00134(12) 0.00481(13)
S1 0.0118(5) 0.0118(5) 0.0103(9) 0.000 0.000 0.0059(3)
O1 0.0159(17) 0.0118(16) 0.0197(17) 0.0031(13) 0.0032(14) 0.0072(14)
O2 0.0166(18) 0.0165(18) 0.0242(19) -0.0039(15) 0.0022(14) 0.0058(15)
O3 0.016(2) 0.0143(19) 0.081(4) 0.013(2) 0.000(2) 0.0059(16)
O4 0.093(6) 0.093(6) 0.029(5) 0.000 0.000 0.047(3)
N1 0.017(2) 0.0092(18) 0.019(2) 0.0011(15) -0.0005(16) 0.0041(16)
N2 0.0144(19) 0.0082(18) 0.0157(19) -0.0002(15) 0.0007(15) 0.0037(16)
N3 0.019(2) 0.0133(19) 0.014(2) 0.0033(15) 0.0025(16) 0.0066(17)
C1 0.022(2) 0.013(2) 0.015(2) -0.0042(18) 0.0012(19) 0.008(2)
C2 0.016(2) 0.013(2) 0.017(2) 0.0016(18) 0.0020(18) 0.0041(19)
C3 0.015(2) 0.015(2) 0.016(2) 0.0008(18) 0.0025(18) -0.0003(19)
C4 0.020(3) 0.023(3) 0.018(2) 0.004(2) 0.000(2) 0.004(2)
C5 0.018(3) 0.018(2) 0.027(3) 0.009(2) 0.000(2) 0.006(2)
C6 0.020(2) 0.009(2) 0.021(3) 0.0034(18) 0.0013(19) 0.0042(19)
C7 0.022(2) 0.013(2) 0.015(2) 0.0015(18) 0.0019(19) 0.010(2)
C8 0.022(2) 0.009(2) 0.016(2) 0.0005(17) 0.0001(19) 0.0073(19)
C9 0.028(3) 0.021(3) 0.024(3) 0.002(2) -0.001(2) 0.015(2)
C10 0.035(3) 0.028(3) 0.021(3) 0.002(2) -0.007(2) 0.018(3)
C11 0.033(3) 0.025(3) 0.015(2) -0.001(2) -0.004(2) 0.013(2)
C12 0.024(3) 0.016(2) 0.014(2) 0.0038(18) 0.0033(19) 0.008(2)
C13 0.017(2) 0.015(2) 0.016(2) 0.0023(18) 0.0040(18) 0.0080(19)
C14 0.009(2) 0.008(2) 0.014(2) -0.0033(16) -0.0052(16) -0.0006(17)
C15 0.020(2) 0.008(2) 0.014(2) 0.0038(17) 0.0051(18) 0.0046(18)

_geom_special_details            
;
All esds (except the esd in the dihedral angle between two l.s. planes)
are estimated using the full covariance matrix. The cell esds are taken
into account individually in the estimation of esds in distances, angles
and torsion angles; correlations between esds in cell parameters are only
used when they are defined by crystal symmetry. An approximate (isotropic)
treatment of cell esds is used for estimating esds involving l.s. planes.
;

loop_
_geom_bond_atom_site_label_1
_geom_bond_atom_site_label_2
_geom_bond_distance
_geom_bond_site_symmetry_2
_geom_bond_publ_flag
Cd1 O3 2.277(4) . ?
Cd1 N3 2.351(4) . ?
Cd1 O2 2.356(4) . ?
Cd1 N1 2.371(4) . ?
Cd1 N2 2.422(4) . ?
Cd1 O1 2.452(4) . ?
Cd1 O1 2.481(3) 4_656 ?
S1 O4 1.403(10) . ?
S1 O3 1.469(4) 2_655 ?
S1 O3 1.469(4) . ?
S1 O3 1.469(4) 3_665 ?
O1 C15 1.268(6) . ?
O1 Cd1 2.481(3) 4_656 ?
O2 C15 1.250(6) . ?
N1 C2 1.338(7) . ?
N1 C6 1.340(7) . ?
N2 C7 1.469(6) . ?
N2 C1 1.474(6) . ?
N2 C13 1.484(6) . ?
N3 C8 1.335(7) . ?
N3 C12 1.349(7) . ?
C1 C2 1.512(7) . ?
C1 H1A 0.9900 . ?
C1 H1B 0.9900 . ?
C2 C3 1.397(7) . ?
C3 C4 1.382(8) . ?
C3 H3 0.9500 . ?
C4 C5 1.387(8) . ?
C4 H4 0.9500 . ?
C5 C6 1.385(8) . ?
C5 H5 0.9500 . ?
C6 H6 0.9500 . ?
C7 C8 1.508(7) . ?
C7 H7A 0.9900 . ?
C7 H7B 0.9900 . ?
C8 C9 1.390(7) . ?
C9 C10 1.385(8) . ?
C9 H9 0.9500 . ?
C10 C11 1.382(9) . ?
C10 H10 0.9500 . ?
C11 C12 1.383(8) . ?
C11 H11 0.9500 . ?
C12 H12 0.9500 . ?
C13 C14 1.512(6) . ?
C13 H13A 0.9900 . ?
C13 H13B 0.9900 . ?
C14 C15 1.513(7) 4_656 ?
C14 H14A 0.9900 . ?
C14 H14B 0.9900 . ?
C15 C14 1.513(7) 4_656 ?

loop_
_geom_angle_atom_site_label_1
_geom_angle_atom_site_label_2
_geom_angle_atom_site_label_3
_geom_angle
_geom_angle_site_symmetry_1
_geom_angle_site_symmetry_3
_geom_angle_publ_flag
O3 Cd1 N3 91.73(15) . . ?
O3 Cd1 O2 90.90(14) . . ?
N3 Cd1 O2 132.44(14) . . ?
O3 Cd1 N1 88.44(17) . . ?
N3 Cd1 N1 143.07(15) . . ?
O2 Cd1 N1 84.46(14) . . ?
O3 Cd1 N2 92.13(16) . . ?
N3 Cd1 N2 71.60(14) . . ?
O2 Cd1 N2 155.66(14) . . ?
N1 Cd1 N2 71.50(15) . . ?
O3 Cd1 O1 116.73(17) . . ?
N3 Cd1 O1 82.31(13) . . ?
O2 Cd1 O1 54.68(12) . . ?
N1 Cd1 O1 129.79(13) . . ?
N2 Cd1 O1 141.70(13) . . ?
O3 Cd1 O1 170.43(17) . 4_656 ?
N3 Cd1 O1 90.32(13) . 4_656 ?
O2 Cd1 O1 94.62(12) . 4_656 ?
N1 Cd1 O1 84.32(13) . 4_656 ?
N2 Cd1 O1 79.64(12) . 4_656 ?
O1 Cd1 O1 72.82(13) . 4_656 ?
O4 S1 O3 111.2(2) . 2_655 ?
O4 S1 O3 111.2(2) . . ?
O3 S1 O3 107.7(3) 2_655 . ?
O4 S1 O3 111.2(2) . 3_665 ?
O3 S1 O3 107.7(3) 2_655 3_665 ?
O3 S1 O3 107.7(3) . 3_665 ?
C15 O1 Cd1 88.9(3) . . ?
C15 O1 Cd1 108.3(3) . 4_656 ?
Cd1 O1 Cd1 107.19(13) . 4_656 ?
C15 O2 Cd1 93.8(3) . . ?
S1 O3 Cd1 149.8(3) . . ?
C2 N1 C6 118.5(5) . . ?
C2 N1 Cd1 115.2(3) . . ?
C6 N1 Cd1 126.4(4) . . ?
C7 N2 C1 110.3(4) . . ?
C7 N2 C13 111.5(4) . . ?
C1 N2 C13 109.2(4) . . ?
C7 N2 Cd1 107.7(3) . . ?
C1 N2 Cd1 104.0(3) . . ?
C13 N2 Cd1 113.9(3) . . ?
C8 N3 C12 119.0(5) . . ?
C8 N3 Cd1 117.0(3) . . ?
C12 N3 Cd1 123.9(4) . . ?
N2 C1 C2 112.6(4) . . ?
N2 C1 H1A 109.1 . . ?
C2 C1 H1A 109.1 . . ?
N2 C1 H1B 109.1 . . ?
C2 C1 H1B 109.1 . . ?
H1A C1 H1B 107.8 . . ?
N1 C2 C3 121.8(5) . . ?
N1 C2 C1 116.6(4) . . ?
C3 C2 C1 121.5(5) . . ?
C4 C3 C2 119.3(5) . . ?
C4 C3 H3 120.4 . . ?
C2 C3 H3 120.4 . . ?
C3 C4 C5 119.0(5) . . ?
C3 C4 H4 120.5 . . ?
C5 C4 H4 120.5 . . ?
C6 C5 C4 118.3(5) . . ?
C6 C5 H5 120.9 . . ?
C4 C5 H5 120.9 . . ?
N1 C6 C5 123.3(5) . . ?
N1 C6 H6 118.4 . . ?
C5 C6 H6 118.4 . . ?
N2 C7 C8 113.1(4) . . ?
N2 C7 H7A 109.0 . . ?
C8 C7 H7A 109.0 . . ?
N2 C7 H7B 109.0 . . ?
C8 C7 H7B 109.0 . . ?
H7A C7 H7B 107.8 . . ?
N3 C8 C9 122.0(5) . . ?
N3 C8 C7 117.5(4) . . ?
C9 C8 C7 120.5(5) . . ?
C10 C9 C8 118.9(5) . . ?
C10 C9 H9 120.5 . . ?
C8 C9 H9 120.5 . . ?
C11 C10 C9 119.2(5) . . ?
C11 C10 H10 120.4 . . ?
C9 C10 H10 120.4 . . ?
C10 C11 C12 118.9(5) . . ?
C10 C11 H11 120.6 . . ?
C12 C11 H11 120.6 . . ?
N3 C12 C11 122.1(5) . . ?
N3 C12 H12 119.0 . . ?
C11 C12 H12 119.0 . . ?
N2 C13 C14 114.6(4) . . ?
N2 C13 H13A 108.6 . . ?
C14 C13 H13A 108.6 . . ?
N2 C13 H13B 108.6 . . ?
C14 C13 H13B 108.6 . . ?
H13A C13 H13B 107.6 . . ?
C13 C14 C15 116.4(4) . 4_656 ?
C13 C14 H14A 108.2 . . ?
C15 C14 H14A 108.2 4_656 . ?
C13 C14 H14B 108.2 . . ?
C15 C14 H14B 108.2 4_656 . ?
H14A C14 H14B 107.3 . . ?
O2 C15 O1 122.7(5) . . ?
O2 C15 C14 119.5(5) . 4_656 ?
O1 C15 C14 117.8(4) . 4_656 ?

loop_
_geom_torsion_atom_site_label_1
_geom_torsion_atom_site_label_2
_geom_torsion_atom_site_label_3
_geom_torsion_atom_site_label_4
_geom_torsion
_geom_torsion_site_symmetry_1
_geom_torsion_site_symmetry_2
_geom_torsion_site_symmetry_3
_geom_torsion_site_symmetry_4
_geom_torsion_publ_flag
O3 Cd1 O1 C15 70.4(3) . . . . ?
N3 Cd1 O1 C15 158.4(3) . . . . ?
O2 Cd1 O1 C15 0.0(3) . . . . ?
N1 Cd1 O1 C15 -41.9(3) . . . . ?
N2 Cd1 O1 C15 -154.8(3) . . . . ?
O1 Cd1 O1 C15 -108.8(3) 4_656 . . . ?
O3 Cd1 O1 Cd1 179.21(14) . . . 4_656 ?
N3 Cd1 O1 Cd1 -92.73(15) . . . 4_656 ?
O2 Cd1 O1 Cd1 108.81(18) . . . 4_656 ?
N1 Cd1 O1 Cd1 66.9(2) . . . 4_656 ?
N2 Cd1 O1 Cd1 -46.0(2) . . . 4_656 ?
O1 Cd1 O1 Cd1 0.0 4_656 . . 4_656 ?
O3 Cd1 O2 C15 -122.7(3) . . . . ?
N3 Cd1 O2 C15 -29.5(4) . . . . ?
N1 Cd1 O2 C15 149.0(3) . . . . ?
N2 Cd1 O2 C15 140.1(3) . . . . ?
O1 Cd1 O2 C15 0.0(3) . . . . ?
O1 Cd1 O2 C15 65.2(3) 4_656 . . . ?
O4 S1 O3 Cd1 -71.3(7) . . . . ?
O3 S1 O3 Cd1 166.6(5) 2_655 . . . ?
O3 S1 O3 Cd1 50.8(10) 3_665 . . . ?
N3 Cd1 O3 S1 10.0(7) . . . . ?
O2 Cd1 O3 S1 142.5(7) . . . . ?
N1 Cd1 O3 S1 -133.0(7) . . . . ?
N2 Cd1 O3 S1 -61.6(7) . . . . ?
O1 Cd1 O3 S1 92.3(7) . . . . ?
O1 Cd1 O3 S1 -92.2(11) 4_656 . . . ?
O3 Cd1 N1 C2 74.5(4) . . . . ?
N3 Cd1 N1 C2 -16.3(5) . . . . ?
O2 Cd1 N1 C2 165.5(4) . . . . ?
N2 Cd1 N1 C2 -18.3(3) . . . . ?
O1 Cd1 N1 C2 -161.3(3) . . . . ?
O1 Cd1 N1 C2 -99.2(3) 4_656 . . . ?
O3 Cd1 N1 C6 -105.1(4) . . . . ?
N3 Cd1 N1 C6 164.1(4) . . . . ?
O2 Cd1 N1 C6 -14.0(4) . . . . ?
N2 Cd1 N1 C6 162.1(4) . . . . ?
O1 Cd1 N1 C6 19.2(5) . . . . ?
O1 Cd1 N1 C6 81.2(4) 4_656 . . . ?
O3 Cd1 N2 C7 63.6(3) . . . . ?
N3 Cd1 N2 C7 -27.5(3) . . . . ?
O2 Cd1 N2 C7 160.6(3) . . . . ?
N1 Cd1 N2 C7 151.3(3) . . . . ?
O1 Cd1 N2 C7 -77.0(4) . . . . ?
O1 Cd1 N2 C7 -121.3(3) 4_656 . . . ?
O3 Cd1 N2 C1 -53.5(3) . . . . ?
N3 Cd1 N2 C1 -144.6(3) . . . . ?
O2 Cd1 N2 C1 43.5(5) . . . . ?
N1 Cd1 N2 C1 34.2(3) . . . . ?
O1 Cd1 N2 C1 165.9(3) . . . . ?
O1 Cd1 N2 C1 121.6(3) 4_656 . . . ?
O3 Cd1 N2 C13 -172.2(3) . . . . ?
N3 Cd1 N2 C13 96.7(3) . . . . ?
O2 Cd1 N2 C13 -75.3(5) . . . . ?
N1 Cd1 N2 C13 -84.6(3) . . . . ?
O1 Cd1 N2 C13 47.1(4) . . . . ?
O1 Cd1 N2 C13 2.9(3) 4_656 . . . ?
O3 Cd1 N3 C8 -78.9(4) . . . . ?
O2 Cd1 N3 C8 -171.7(3) . . . . ?
N1 Cd1 N3 C8 10.8(5) . . . . ?
N2 Cd1 N3 C8 12.7(3) . . . . ?
O1 Cd1 N3 C8 164.3(4) . . . . ?
O1 Cd1 N3 C8 91.7(4) 4_656 . . . ?
O3 Cd1 N3 C12 105.2(4) . . . . ?
O2 Cd1 N3 C12 12.4(5) . . . . ?
N1 Cd1 N3 C12 -165.1(3) . . . . ?
N2 Cd1 N3 C12 -163.2(4) . . . . ?
O1 Cd1 N3 C12 -11.6(4) . . . . ?
O1 Cd1 N3 C12 -84.2(4) 4_656 . . . ?
C7 N2 C1 C2 -163.8(4) . . . . ?
C13 N2 C1 C2 73.3(5) . . . . ?
Cd1 N2 C1 C2 -48.6(4) . . . . ?
C6 N1 C2 C3 1.1(7) . . . . ?
Cd1 N1 C2 C3 -178.5(4) . . . . ?
C6 N1 C2 C1 177.3(4) . . . . ?
Cd1 N1 C2 C1 -2.3(5) . . . . ?
N2 C1 C2 N1 36.8(6) . . . . ?
N2 C1 C2 C3 -147.0(5) . . . . ?
N1 C2 C3 C4 -1.5(8) . . . . ?
C1 C2 C3 C4 -177.5(5) . . . . ?
C2 C3 C4 C5 0.4(8) . . . . ?
C3 C4 C5 C6 0.8(8) . . . . ?
C2 N1 C6 C5 0.2(7) . . . . ?
Cd1 N1 C6 C5 179.7(4) . . . . ?
C4 C5 C6 N1 -1.1(8) . . . . ?
C1 N2 C7 C8 152.9(4) . . . . ?
C13 N2 C7 C8 -85.6(5) . . . . ?
Cd1 N2 C7 C8 40.0(5) . . . . ?
C12 N3 C8 C9 -0.6(7) . . . . ?
Cd1 N3 C8 C9 -176.7(4) . . . . ?
C12 N3 C8 C7 -178.9(4) . . . . ?
Cd1 N3 C8 C7 5.0(6) . . . . ?
N2 C7 C8 N3 -32.0(6) . . . . ?
N2 C7 C8 C9 149.7(5) . . . . ?
N3 C8 C9 C10 0.6(8) . . . . ?
C7 C8 C9 C10 178.9(5) . . . . ?
C8 C9 C10 C11 0.1(9) . . . . ?
C9 C10 C11 C12 -0.9(9) . . . . ?
C8 N3 C12 C11 -0.2(8) . . . . ?
Cd1 N3 C12 C11 175.6(4) . . . . ?
C10 C11 C12 N3 0.9(8) . . . . ?
C7 N2 C13 C14 65.2(5) . . . . ?
C1 N2 C13 C14 -172.5(4) . . . . ?
Cd1 N2 C13 C14 -56.8(5) . . . . ?
N2 C13 C14 C15 67.3(6) . . . 4_656 ?
Cd1 O2 C15 O1 0.0(5) . . . . ?
Cd1 O2 C15 C14 179.7(4) . . . 4_656 ?
Cd1 O1 C15 O2 0.0(5) . . . . ?
Cd1 O1 C15 O2 -107.7(5) 4_656 . . . ?
Cd1 O1 C15 