####################################################################### 
# 
# This file contains crystal structure data downloaded from the 
# Cambridge Structural Database (CSD) hosted by the Cambridge 
# Crystallographic Data Centre (CCDC).
# 
# Full information about CCDC data access policies and citation 
# guidelines are available at http://www.ccdc.cam.ac.uk/access/V1 
# 
# Audit and citation data items may have been added by the CCDC. 
# Please retain this information to preserve the provenance of 
# this file and to allow appropriate attribution of the data. 
# 
#######################################################################

data_2
_audit_block_doi                 10.5517/ccryglq
_database_code_depnum_ccdc_archive 'CCDC 713514'
loop_
_citation_id
_citation_doi
_citation_year
1 10.1039/b917515f 2010
_audit_update_record             
;
2008-12-15 deposited with the CCDC.	2024-07-11 downloaded from the CCDC.
;
#TrackingRef '713514.cif'




_audit_creation_method           SHELXL-97
_chemical_name_systematic        
;
?
;
_chemical_name_common            ?
_chemical_melting_point          ?
_chemical_formula_moiety         ?
_chemical_formula_sum            'C9 H5 N0 O7 Y'
_chemical_formula_weight         314.04

loop_
_atom_type_symbol
_atom_type_description
_atom_type_scat_dispersion_real
_atom_type_scat_dispersion_imag
_atom_type_scat_source
C C 0.0033 0.0016 'International Tables Vol C Tables 4.2.6.8 and 6.1.1.4'
H H 0.0000 0.0000 'International Tables Vol C Tables 4.2.6.8 and 6.1.1.4'
N N 0.0061 0.0033 'International Tables Vol C Tables 4.2.6.8 and 6.1.1.4'
O O 0.0106 0.0060 'International Tables Vol C Tables 4.2.6.8 and 6.1.1.4'
Y Y -2.7962 3.5667 'International Tables Vol C Tables 4.2.6.8 and 6.1.1.4'

_symmetry_cell_setting           Monoclinic
_symmetry_space_group_name_H-M   P21/n

loop_
_symmetry_equiv_pos_as_xyz
'x, y, z'
'-x+1/2, y+1/2, -z+1/2'
'-x, -y, -z'
'x-1/2, -y-1/2, z-1/2'

_cell_length_a                   8.8326(18)
_cell_length_b                   10.159(2)
_cell_length_c                   13.979(3)
_cell_angle_alpha                90.00
_cell_angle_beta                 90.00(3)
_cell_angle_gamma                90.00
_cell_volume                     1254.3(4)
_cell_formula_units_Z            4
_cell_measurement_temperature    293(2)
_cell_measurement_reflns_used    ?
_cell_measurement_theta_min      3.06
_cell_measurement_theta_max      24.99

_exptl_crystal_description       block
_exptl_crystal_colour            colorless
_exptl_crystal_size_max          0.29
_exptl_crystal_size_mid          0.27
_exptl_crystal_size_min          0.20
_exptl_crystal_density_meas      none
_exptl_crystal_density_diffrn    1.663
_exptl_crystal_density_method    'not measured'
_exptl_crystal_F_000             616
_exptl_absorpt_coefficient_mu    4.667
_exptl_absorpt_correction_type   multi-scan
_exptl_absorpt_correction_T_min  0.281
_exptl_absorpt_correction_T_max  0.393
_exptl_absorpt_process_details   
'ABSCOR; Higashi, 1995 [Higashi, T. (1995). ABSCOR. Rigaku Corporation, Tokyo'

_exptl_special_details           
;
?
;

_diffrn_ambient_temperature      293(2)
_diffrn_radiation_wavelength     0.71073
_diffrn_radiation_type           MoK\a
_diffrn_radiation_source         'fine-focus sealed tube'
_diffrn_radiation_monochromator  graphite
_diffrn_measurement_device_type  'four-circle diffractometer'
_diffrn_measurement_method       'profile data from \q/2\q scans'
_diffrn_detector_area_resol_mean ?
_diffrn_standards_number         none
_diffrn_standards_interval_count none
_diffrn_standards_interval_time  none
_diffrn_standards_decay_%        none
_diffrn_reflns_number            9404
_diffrn_reflns_av_R_equivalents  0.0674
_diffrn_reflns_av_sigmaI/netI    0.0645
_diffrn_reflns_limit_h_min       -9
_diffrn_reflns_limit_h_max       10
_diffrn_reflns_limit_k_min       -12
_diffrn_reflns_limit_k_max       12
_diffrn_reflns_limit_l_min       -16
_diffrn_reflns_limit_l_max       16
_diffrn_reflns_theta_min         3.06
_diffrn_reflns_theta_max         24.99
_reflns_number_total             2202
_reflns_number_gt                1582
_reflns_threshold_expression     >2sigma(I)

_computing_data_collection       'Bruker XSCANS'
_computing_cell_refinement       'Bruker XSCANS'
_computing_data_reduction        'Bruker SHELXTL'
_computing_structure_solution    'SHELXS-97 (Sheldrick, 1990)'
_computing_structure_refinement  'SHELXL-97 (Sheldrick, 1997)'
_computing_molecular_graphics    'Bruker SHELXTL'
_computing_publication_material  'Bruker SHELXTL'

_refine_special_details          
;
Refinement of F^2^ against ALL reflections. The weighted R-factor wR and
goodness of fit S are based on F^2^, conventional R-factors R are based
on F, with F set to zero for negative F^2^. The threshold expression of
F^2^ > 2sigma(F^2^) is used only for calculating R-factors(gt) etc. and is
not relevant to the choice of reflections for refinement. R-factors based
on F^2^ are statistically about twice as large as those based on F, and R-
factors based on ALL data will be even larger.
;

_refine_ls_structure_factor_coef Fsqd
_refine_ls_matrix_type           full
_refine_ls_weighting_scheme      calc
_refine_ls_weighting_details     
'calc w=1/[\s^2^(Fo^2^)+(0.1186P)^2^+29.7169P] where P=(Fo^2^+2Fc^2^)/3'
_atom_sites_solution_primary     direct
_atom_sites_solution_secondary   difmap
_atom_sites_solution_hydrogens   geom
_refine_ls_hydrogen_treatment    constr
_refine_ls_extinction_method     none
_refine_ls_extinction_coef       ?
_refine_ls_number_reflns         2202
_refine_ls_number_parameters     134
_refine_ls_number_restraints     0
_refine_ls_R_factor_all          0.1155
_refine_ls_R_factor_gt           0.0932
_refine_ls_wR_factor_ref         0.2772
_refine_ls_wR_factor_gt          0.2646
_refine_ls_goodness_of_fit_ref   1.098
_refine_ls_restrained_S_all      1.098
_refine_ls_shift/su_max          0.000
_refine_ls_shift/su_mean         0.000

loop_
_atom_site_label
_atom_site_type_symbol
_atom_site_fract_x
_atom_site_fract_y
_atom_site_fract_z
_atom_site_U_iso_or_equiv
_atom_site_adp_type
_atom_site_occupancy
_atom_site_symmetry_multiplicity
_atom_site_calc_flag
_atom_site_refinement_flags
_atom_site_disorder_assembly
_atom_site_disorder_group
Y1 Y 0.25011(11) 0.50007(12) 0.11321(7) 0.0204(4) Uani 1 1 d . . .
C1 C -0.1061(12) 0.3637(12) 0.0921(9) 0.027(3) Uani 1 1 d . . .
C2 C -0.1912(13) 0.3041(12) 0.1733(8) 0.027(3) Uani 1 1 d . . .
C3 C -0.3491(14) 0.3048(14) 0.1730(10) 0.038(3) Uani 1 1 d . . .
H3A H -0.4021 0.3432 0.1228 0.045 Uiso 1 1 calc R . .
C4 C -0.4265(14) 0.2467(15) 0.2496(11) 0.044(4) Uani 1 1 d . . .
C5 C 0.6061(13) 0.6342(12) 0.0914(8) 0.026(3) Uani 1 1 d . . .
C6 C 0.6924(12) 0.6968(12) 0.1738(9) 0.026(3) Uani 1 1 d . . .
C7 C 0.6134(13) 0.7504(13) 0.2510(9) 0.029(3) Uani 1 1 d . . .
H7A H 0.5081 0.7497 0.2512 0.035 Uiso 1 1 calc R . .
C8 C 0.8498(14) 0.6938(13) 0.1732(10) 0.038(3) Uani 1 1 d . . .
H8A H 0.9023 0.6572 0.1221 0.045 Uiso 1 1 calc R . .
C9 C 0.098(2) 0.741(2) 0.2558(14) 0.066(5) Uiso 1 1 d . . .
O1 O 0.0273(9) 0.3975(10) 0.1063(6) 0.036(2) Uani 1 1 d . . .
O1W O 0.258(5) 0.500(4) 0.278(3) 0.248(18) Uiso 1 1 d . . .
O2 O 0.3343(18) 0.3255(16) 0.1918(11) 0.087(4) Uiso 1 1 d . . .
O3 O 0.4727(9) 0.6012(9) 0.1065(6) 0.034(2) Uani 1 1 d . . .
O4 O 0.1740(10) 0.6220(10) -0.0139(6) 0.043(2) Uani 1 1 d . . .
O5 O 0.3260(10) 0.3779(10) -0.0143(7) 0.042(2) Uani 1 1 d . . .
O6 O 0.1645(17) 0.6748(15) 0.1922(11) 0.084(4) Uiso 1 1 d . . .

loop_
_atom_site_aniso_label
_atom_site_aniso_U_11
_atom_site_aniso_U_22
_atom_site_aniso_U_33
_atom_site_aniso_U_23
_atom_site_aniso_U_13
_atom_site_aniso_U_12
Y1 0.0160(6) 0.0276(7) 0.0177(6) -0.0007(5) -0.0004(4) -0.0009(4)
C1 0.019(6) 0.023(6) 0.037(7) 0.011(5) 0.002(5) 0.001(5)
C2 0.026(6) 0.027(6) 0.029(6) 0.006(5) -0.001(5) -0.009(5)
C3 0.024(6) 0.040(8) 0.049(8) 0.017(7) -0.009(6) 0.003(6)
C4 0.028(6) 0.044(8) 0.060(9) 0.030(7) 0.000(6) -0.001(6)
C5 0.025(6) 0.023(6) 0.029(6) -0.008(5) -0.003(5) -0.002(5)
C6 0.019(5) 0.030(6) 0.030(6) -0.014(5) -0.001(5) -0.003(5)
C7 0.019(5) 0.033(6) 0.034(7) -0.004(5) -0.001(5) -0.001(5)
C8 0.025(6) 0.035(7) 0.053(8) -0.022(6) 0.005(6) -0.005(5)
O1 0.019(4) 0.053(6) 0.034(5) 0.010(4) -0.001(3) -0.010(4)
O3 0.019(4) 0.046(5) 0.036(5) -0.010(4) -0.002(3) -0.009(4)
O4 0.039(5) 0.054(6) 0.035(5) 0.022(5) -0.009(4) -0.014(5)
O5 0.034(5) 0.052(6) 0.039(5) -0.023(5) 0.010(4) -0.013(4)

_geom_special_details            
;
All esds (except the esd in the dihedral angle between two l.s. planes)
are estimated using the full covariance matrix. The cell esds are taken
into account individually in the estimation of esds in distances, angles
and torsion angles; correlations between esds in cell parameters are only
used when they are defined by crystal symmetry. An approximate (isotropic)
treatment of cell esds is used for estimating esds involving l.s. planes.
;

loop_
_geom_bond_atom_site_label_1
_geom_bond_atom_site_label_2
_geom_bond_distance
_geom_bond_site_symmetry_2
_geom_bond_publ_flag
Y1 O2 2.214(16) . ?
Y1 O3 2.221(8) . ?
Y1 O6 2.223(16) . ?
Y1 O1 2.229(8) . ?
Y1 O4 2.268(9) . ?
Y1 O5 2.273(9) . ?
Y1 O1W 2.31(4) . ?
C1 O1 1.243(14) . ?
C1 O4 1.255(15) 3_565 ?
C1 C2 1.490(16) . ?
C2 C7 1.375(17) 2_545 ?
C2 C3 1.394(17) . ?
C3 C4 1.400(19) . ?
C3 H3A 0.9300 . ?
C4 C8 1.383(18) 2_545 ?
C4 C9 1.52(2) 2_445 ?
C5 O5 1.239(14) 3_665 ?
C5 O3 1.243(14) . ?
C5 C6 1.520(15) . ?
C6 C8 1.391(16) . ?
C6 C7 1.395(16) . ?
C7 C2 1.375(17) 2 ?
C7 H7A 0.9300 . ?
C8 C4 1.383(18) 2 ?
C8 H8A 0.9300 . ?
C9 O6 1.26(2) . ?
C9 O2 1.27(2) 2 ?
C9 C4 1.52(2) 2_455 ?
O2 C9 1.27(2) 2_545 ?
O4 C1 1.255(15) 3_565 ?
O5 C5 1.239(14) 3_665 ?

loop_
_geom_angle_atom_site_label_1
_geom_angle_atom_site_label_2
_geom_angle_atom_site_label_3
_geom_angle
_geom_angle_site_symmetry_1
_geom_angle_site_symmetry_3
_geom_angle_publ_flag
O2 Y1 O3 95.4(5) . . ?
O2 Y1 O6 120.5(5) . . ?
O3 Y1 O6 87.3(5) . . ?
O2 Y1 O1 86.8(5) . . ?
O3 Y1 O1 175.1(3) . . ?
O6 Y1 O1 95.4(5) . . ?
O2 Y1 O4 157.7(5) . . ?
O3 Y1 O4 88.7(3) . . ?
O6 Y1 O4 81.5(5) . . ?
O1 Y1 O4 87.7(3) . . ?
O2 Y1 O5 81.5(5) . . ?
O3 Y1 O5 87.6(3) . . ?
O6 Y1 O5 157.8(5) . . ?
O1 Y1 O5 88.3(3) . . ?
O4 Y1 O5 76.7(4) . . ?
O2 Y1 O1W 59.6(10) . . ?
O3 Y1 O1W 91.0(11) . . ?
O6 Y1 O1W 60.9(10) . . ?
O1 Y1 O1W 93.9(11) . . ?
O4 Y1 O1W 142.4(10) . . ?
O5 Y1 O1W 140.8(10) . . ?
O1 C1 O4 124.0(11) . 3_565 ?
O1 C1 C2 118.0(11) . . ?
O4 C1 C2 118.0(10) 3_565 . ?
C7 C2 C3 120.3(11) 2_545 . ?
C7 C2 C1 119.7(10) 2_545 . ?
C3 C2 C1 120.0(11) . . ?
C2 C3 C4 119.0(11) . . ?
C2 C3 H3A 120.5 . . ?
C4 C3 H3A 120.5 . . ?
C8 C4 C3 121.4(11) 2_545 . ?
C8 C4 C9 120.9(13) 2_545 2_445 ?
C3 C4 C9 117.7(13) . 2_445 ?
O5 C5 O3 125.4(11) 3_665 . ?
O5 C5 C6 117.2(10) 3_665 . ?
O3 C5 C6 117.3(10) . . ?
C8 C6 C7 120.9(11) . . ?
C8 C6 C5 119.2(10) . . ?
C7 C6 C5 119.9(10) . . ?
C2 C7 C6 120.0(10) 2 . ?
C2 C7 H7A 120.0 2 . ?
C6 C7 H7A 120.0 . . ?
C4 C8 C6 118.5(12) 2 . ?
C4 C8 H8A 120.8 2 . ?
C6 C8 H8A 120.8 . . ?
O6 C9 O2 123.0(19) . 2 ?
O6 C9 C4 116.7(17) . 2_455 ?
O2 C9 C4 118.3(17) 2 2_455 ?
C1 O1 Y1 166.6(8) . . ?
C9 O2 Y1 168.4(15) 2_545 . ?
C5 O3 Y1 166.2(8) . . ?
C1 O4 Y1 152.5(9) 3_565 . ?
C5 O5 Y1 151.5(9) 3_665 . ?
C9 O6 Y1 159.4(15) . . ?

_diffrn_measured_fraction_theta_max 0.998
_diffrn_reflns_theta_full        24.99
_diffrn_measured_fraction_theta_full 0.998
_refine_diff_density_max         2.510
_refine_diff_density_min         -1.187
_refine_diff_density_rms         0.235
loop_
_platon_squeeze_void_nr
_platon_squeeze_void_average_x
_platon_squeeze_void_average_y
_platon_squeeze_void_average_z
_platon_squeeze_void_volume
_platon_squeeze_void_count_electrons
1 -0.020 0.000 0.000 192.0 -2.6
2 -0.022 0.500 0.500 192.0 -2.7
_platon_squeeze_details          
; ?
;

#===END

