####################################################################### 
# 
# This file contains crystal structure data downloaded from the 
# Cambridge Structural Database (CSD) hosted by the Cambridge 
# Crystallographic Data Centre (CCDC).
# 
# Full information about CCDC data access policies and citation 
# guidelines are available at http://www.ccdc.cam.ac.uk/access/V1 
# 
# Audit and citation data items may have been added by the CCDC. 
# Please retain this information to preserve the provenance of 
# this file and to allow appropriate attribution of the data. 
# 
#######################################################################

data_jnf
_audit_block_doi                 10.5517/cc84try
_database_code_depnum_ccdc_archive 'CCDC 242970'
loop_
_citation_id
_citation_doi
_citation_year
1 10.1002/anie.200461408 2005
_audit_update_record             
;
2004-06-25 deposited with the CCDC.	2024-07-11 downloaded from the CCDC.
;

_audit_creation_method           SHELXL-97
_chemical_name_systematic        
;
?
;
_chemical_name_common            ?
_chemical_melting_point          ?
_chemical_formula_moiety         'C41 H54 N10 Ni1.50 O9'
_chemical_formula_sum            'C41 H54 N10 Ni1.50 O9'
_chemical_formula_weight         919.01

loop_
_atom_type_symbol
_atom_type_description
_atom_type_scat_dispersion_real
_atom_type_scat_dispersion_imag
_atom_type_scat_source
Ni Ni 0.3393 1.1124 'International Tables Vol C Tables 4.2.6.8 and 6.1.1.4'
N N 0.0061 0.0033 'International Tables Vol C Tables 4.2.6.8 and 6.1.1.4'
C C 0.0033 0.0016 'International Tables Vol C Tables 4.2.6.8 and 6.1.1.4'
H H 0.0000 0.0000 'International Tables Vol C Tables 4.2.6.8 and 6.1.1.4'
O O 0.0106 0.0060 'International Tables Vol C Tables 4.2.6.8 and 6.1.1.4'

_symmetry_cell_setting           triclinic
_symmetry_space_group_name_H-M   P-1

loop_
_symmetry_equiv_pos_as_xyz
'x, y, z'
'-x, -y, -z'

_cell_length_a                   11.530(0)
_cell_length_b                   15.632(0)
_cell_length_c                   15.634(0)
_cell_angle_alpha                112.8870(10)
_cell_angle_beta                 105.5800(10)
_cell_angle_gamma                104.3350(10)
_cell_volume                     2295.4
_cell_formula_units_Z            2
_cell_measurement_temperature    293(2)
_cell_measurement_reflns_used    0
_cell_measurement_theta_min      0
_cell_measurement_theta_max      0

_exptl_crystal_description       parallelepiped
_exptl_crystal_colour            purple
_exptl_crystal_size_max          0.40
_exptl_crystal_size_mid          0.30
_exptl_crystal_size_min          0.20
_exptl_crystal_density_meas      ?
_exptl_crystal_density_diffrn    1.330
_exptl_crystal_density_method    'not measured'
_exptl_crystal_F_000             968
_exptl_absorpt_coefficient_mu    0.684
_exptl_absorpt_correction_type   none
_exptl_absorpt_correction_T_min  0.7715
_exptl_absorpt_correction_T_max  0.8754
_exptl_absorpt_process_details   ?

_exptl_special_details           
;
?
;

_diffrn_ambient_temperature      293(2)
_diffrn_radiation_wavelength     0.71073
_diffrn_radiation_type           MoK\a
_diffrn_radiation_source         'fine-focus sealed tube'
_diffrn_radiation_monochromator  graphite
_diffrn_measurement_device_type  ?
_diffrn_measurement_method       ?
_diffrn_detector_area_resol_mean ?
_diffrn_standards_number         ?
_diffrn_standards_interval_count ?
_diffrn_standards_interval_time  ?
_diffrn_standards_decay_%        ?
_diffrn_reflns_number            17023
_diffrn_reflns_av_R_equivalents  0.0356
_diffrn_reflns_av_sigmaI/netI    0.1048
_diffrn_reflns_limit_h_min       -14
_diffrn_reflns_limit_h_max       14
_diffrn_reflns_limit_k_min       -20
_diffrn_reflns_limit_k_max       20
_diffrn_reflns_limit_l_min       -19
_diffrn_reflns_limit_l_max       20
_diffrn_reflns_theta_min         1.54
_diffrn_reflns_theta_max         27.48
_reflns_number_total             10439
_reflns_number_gt                5484
_reflns_threshold_expression     >2sigma(I)

_computing_data_collection       ?
_computing_cell_refinement       ?
_computing_data_reduction        ?
_computing_structure_solution    'SHELXL-97 (Sheldrick, 1997)'
_computing_structure_refinement  'SHELXL-97 (Sheldrick, 1997)'
_computing_molecular_graphics    'Ortep-3 for Windows (Farrugia, 1997)'
_computing_publication_material  ?

_refine_special_details          
;
Refinement of F^2^ against ALL reflections. The weighted R-factor wR and
goodness of fit S are based on F^2^, conventional R-factors R are based
on F, with F set to zero for negative F^2^. The threshold expression of
F^2^ > 2sigma(F^2^) is used only for calculating R-factors(gt) etc. and is
not relevant to the choice of reflections for refinement. R-factors based
on F^2^ are statistically about twice as large as those based on F, and R-
factors based on ALL data will be even larger.
;

_refine_ls_structure_factor_coef Fsqd
_refine_ls_matrix_type           full
_refine_ls_weighting_scheme      calc
_refine_ls_weighting_details     
'calc w=1/[\s^2^(Fo^2^)+(0.1410P)^2^+0.0000P] where P=(Fo^2^+2Fc^2^)/3'
_atom_sites_solution_primary     direct
_atom_sites_solution_secondary   difmap
_atom_sites_solution_hydrogens   geom
_refine_ls_hydrogen_treatment    mixed
_refine_ls_extinction_method     none
_refine_ls_extinction_coef       ?
_refine_ls_number_reflns         10439
_refine_ls_number_parameters     562
_refine_ls_number_restraints     3
_refine_ls_R_factor_all          0.1416
_refine_ls_R_factor_gt           0.0622
_refine_ls_wR_factor_ref         0.2373
_refine_ls_wR_factor_gt          0.1864
_refine_ls_goodness_of_fit_ref   1.020
_refine_ls_restrained_S_all      1.020
_refine_ls_shift/su_max          1.344
_refine_ls_shift/su_mean         0.084

loop_
_atom_site_label
_atom_site_type_symbol
_atom_site_fract_x
_atom_site_fract_y
_atom_site_fract_z
_atom_site_U_iso_or_equiv
_atom_site_adp_type
_atom_site_occupancy
_atom_site_symmetry_multiplicity
_atom_site_calc_flag
_atom_site_refinement_flags
_atom_site_disorder_assembly
_atom_site_disorder_group
NiA Ni 0.0000 0.0000 0.0000 0.0404(2) Uani 1 2 d S . .
NiB Ni 0.5000 0.0000 0.5000 0.0434(2) Uani 1 2 d S . .
NiC Ni 0.0000 0.5000 0.5000 0.0515(3) Uani 1 2 d S . .
N1 N 0.7460(19) 0.464(2) 0.0376(12) 0.281(10) Uani 1 1 d D . .
N1A N -0.0838(8) -0.2452(4) -0.1368(5) 0.1076(19) Uani 1 1 d . . .
N1B N 0.3427(7) -0.0955(4) 0.2520(4) 0.0953(16) Uani 1 1 d . . .
N1C N -0.0235(5) 0.6808(3) 0.4450(4) 0.0988(18) Uani 1 1 d . . .
N2A N -0.1775(4) -0.1173(3) -0.1012(3) 0.0668(12) Uani 1 1 d . . .
H2A H -0.2146 -0.1382 -0.0644 0.080 Uiso 1 1 calc R . .
N2B N 0.3124(4) -0.1022(3) 0.3971(3) 0.0769(13) Uani 1 1 d . . .
H2B H 0.3117 -0.1655 0.3756 0.092 Uiso 1 1 calc R . .
N2C N -0.1135(4) 0.5827(3) 0.5172(3) 0.0745(14) Uani 1 1 d . . .
H2C H -0.1910 0.5458 0.4613 0.089 Uiso 1 1 calc R . .
N3A N -0.0949(4) 0.0941(3) -0.0111(3) 0.0726(12) Uani 1 1 d . . .
H3A H -0.0753 0.1153 -0.0540 0.087 Uiso 1 1 calc R . .
N3B N 0.4339(4) 0.0090(3) 0.6118(3) 0.0666(11) Uani 1 1 d . . .
H3B H 0.4171 0.0658 0.6327 0.080 Uiso 1 1 calc R . .
N3C N -0.0541(4) 0.4564(3) 0.5974(3) 0.0788(13) Uani 1 1 d . . .
H3C H 0.0133 0.4947 0.6601 0.095 Uiso 1 1 calc R . .
C1 C 0.794(2) 0.4170(19) 0.0771(15) 0.289(16) Uani 1 1 d D . .
H22 H 0.7380 0.3542 0.0627 0.347 Uiso 1 1 calc R . .
C1A C -0.1385(10) -0.3012(5) -0.0884(7) 0.146(3) Uani 1 1 d . . .
H1A1 H -0.1360 -0.2540 -0.0256 0.219 Uiso 1 1 calc R . .
H1A2 H -0.0871 -0.3381 -0.0753 0.219 Uiso 1 1 calc R . .
H1A3 H -0.2276 -0.3475 -0.1334 0.219 Uiso 1 1 calc R . .
C1B C 0.3378(8) -0.1977(5) 0.1912(5) 0.128(3) Uani 1 1 d . . .
H1B1 H 0.3889 -0.1942 0.1524 0.192 Uiso 1 1 calc R . .
H1B2 H 0.2485 -0.2432 0.1459 0.192 Uiso 1 1 calc R . .
H1B3 H 0.3727 -0.2217 0.2360 0.192 Uiso 1 1 calc R . .
C1C C -0.1305(7) 0.6453(5) 0.3444(5) 0.133(3) Uani 1 1 d . . .
H1C1 H -0.1925 0.6750 0.3551 0.199 Uiso 1 1 calc R . .
H1C2 H -0.1740 0.5730 0.3101 0.199 Uiso 1 1 calc R . .
H1C3 H -0.0934 0.6654 0.3037 0.199 Uiso 1 1 calc R . .
C2 C 0.895(4) 0.4454(14) 0.1262(17) 0.248(11) Uani 1 1 d D . .
H23 H 0.9202 0.4081 0.1560 0.297 Uiso 1 1 calc R . .
C2A C -0.1701(6) -0.2079(4) -0.1784(4) 0.0865(19) Uani 1 1 d . . .
H2A1 H -0.2572 -0.2615 -0.2179 0.104 Uiso 1 1 calc R . .
H2A2 H -0.1424 -0.1901 -0.2247 0.104 Uiso 1 1 calc R . .
C2B C 0.2645(6) -0.0900(5) 0.3063(5) 0.0903(19) Uani 1 1 d . . .
H2B1 H 0.1771 -0.1419 0.2611 0.108 Uiso 1 1 calc R . .
H2B2 H 0.2576 -0.0250 0.3279 0.108 Uiso 1 1 calc R . .
C2C C -0.0631(6) 0.6803(4) 0.5257(5) 0.100(2) Uani 1 1 d . . .
C3 C 0.9992(15) 0.541(2) 0.1504(9) 0.235(9) Uani 1 1 d D . .
H24 H 1.0888 0.5596 0.1827 0.282 Uiso 1 1 calc R . .
C3A C -0.2586(5) -0.0742(5) -0.1450(4) 0.0822(18) Uani 1 1 d . . .
H3A1 H -0.3504 -0.1190 -0.1756 0.099 Uiso 1 1 calc R . .
H3A2 H -0.2357 -0.0658 -0.1974 0.099 Uiso 1 1 calc R . .
C3B C 0.2321(5) -0.0898(4) 0.4585(5) 0.0856(18) Uani 1 1 d . . .
H3B1 H 0.1505 -0.1490 0.4237 0.103 Uiso 1 1 calc R . .
H3B2 H 0.2113 -0.0313 0.4672 0.103 Uiso 1 1 calc R . .
C3C C -0.1425(6) 0.5852(5) 0.6066(4) 0.093(2) Uani 1 1 d . . .
C4 C 0.944(3) 0.5988(18) 0.118(2) 0.303(12) Uani 1 1 d D . .
H25 H 1.0016 0.6613 0.1333 0.363 Uiso 1 1 calc R . .
C4A C -0.2349(5) 0.0277(5) -0.0606(5) 0.0882(19) Uani 1 1 d . . .
H4A1 H -0.2855 0.0588 -0.0887 0.106 Uiso 1 1 calc R . .
H4A2 H -0.2635 0.0182 -0.0108 0.106 Uiso 1 1 calc R . .
C4B C 0.3107(7) -0.0758(5) 0.5619(6) 0.097(2) Uani 1 1 d . . .
H4B1 H 0.2613 -0.0651 0.6036 0.116 Uiso 1 1 calc R . .
H4B2 H 0.3258 -0.1365 0.5529 0.116 Uiso 1 1 calc R . .
C4C C -0.1668(6) 0.4836(6) 0.6035(5) 0.099(2) Uani 1 1 d . . .
C5 C 0.808(3) 0.572(2) 0.0641(17) 0.263(11) Uani 1 1 d D . .
H26 H 0.7682 0.6123 0.0489 0.316 Uiso 1 1 calc R . .
C5A C -0.0558(8) 0.1839(5) 0.0863(5) 0.103(2) Uani 1 1 d . . .
H5A1 H -0.1021 0.2250 0.0748 0.124 Uiso 1 1 calc R . .
H5A2 H -0.0824 0.1624 0.1310 0.124 Uiso 1 1 calc R . .
C5B C 0.5314(7) 0.0178(5) 0.7036(4) 0.0834(17) Uani 1 1 d . . .
H5B1 H 0.4959 0.0287 0.7548 0.100 Uiso 1 1 calc R . .
H5B2 H 0.5409 -0.0461 0.6847 0.100 Uiso 1 1 calc R . .
C5C C -0.0821(6) 0.3476(4) 0.5668(5) 0.095(2) Uani 1 1 d . . .
C6A C -0.1158(4) -0.0543(3) 0.1404(3) 0.0428(9) Uani 1 1 d . . .
C6B C 0.4390(4) 0.1945(3) 0.5531(3) 0.0466(10) Uani 1 1 d . . .
C6C C -0.2586(4) 0.3556(3) 0.3046(3) 0.0469(10) Uani 1 1 d . . .
C7A C -0.0821(4) -0.0351(3) 0.2488(3) 0.0416(9) Uani 1 1 d . . .
C7B C 0.4559(4) 0.2841(3) 0.5352(3) 0.0454(10) Uani 1 1 d . . .
C7C C -0.3321(3) 0.2473(3) 0.2153(3) 0.0410(9) Uani 1 1 d . . .
C8A C 0.0187(4) 0.0503(3) 0.3304(3) 0.0502(11) Uani 1 1 d . . .
H7 H 0.0667 0.0998 0.3200 0.060 Uiso 1 1 calc R . .
C8B C 0.4665(4) 0.2812(3) 0.4488(3) 0.0513(11) Uani 1 1 d . . .
H10 H 0.4620 0.2218 0.3988 0.062 Uiso 1 1 calc R . .
C8C C -0.3077(4) 0.1685(3) 0.2185(3) 0.0475(11) Uani 1 1 d . . .
H17 H -0.2446 0.1797 0.2776 0.057 Uiso 1 1 calc R . .
C9A C 0.0507(5) 0.0644(3) 0.4286(3) 0.0536(11) Uani 1 1 d . . .
H6 H 0.1201 0.1229 0.4828 0.064 Uiso 1 1 calc R . .
C9B C 0.4838(4) 0.3647(3) 0.4345(3) 0.0542(11) Uani 1 1 d . . .
H11 H 0.4920 0.3612 0.3757 0.065 Uiso 1 1 calc R . .
C9C C -0.3738(4) 0.0704(3) 0.1359(3) 0.0479(10) Uani 1 1 d . . .
H18 H -0.3562 0.0175 0.1418 0.058 Uiso 1 1 calc R . .
C10A C -0.0189(4) -0.0068(3) 0.4467(3) 0.0416(9) Uani 1 1 d . . .
C10B C 0.4890(4) 0.4538(3) 0.5076(3) 0.0442(10) Uani 1 1 d . . .
C10C C -0.4660(3) 0.0511(3) 0.0448(3) 0.0375(9) Uani 1 1 d . . .
C11A C -0.1208(4) -0.0918(4) 0.3655(3) 0.0747(16) Uani 1 1 d . . .
H4 H -0.1686 -0.1416 0.3756 0.090 Uiso 1 1 calc R . .
C11B C 0.4808(7) 0.4561(4) 0.5932(5) 0.0875(19) Uani 1 1 d . . .
H13 H 0.4898 0.5162 0.6450 0.105 Uiso 1 1 calc R . .
C11C C -0.4873(4) 0.1344(3) 0.0424(3) 0.0685(15) Uani 1 1 d . . .
H20 H -0.5453 0.1255 -0.0177 0.082 Uiso 1 1 calc R . .
C12A C -0.1532(5) -0.1041(4) 0.2682(3) 0.0786(17) Uani 1 1 d . . .
H3 H -0.2253 -0.1609 0.2144 0.094 Uiso 1 1 calc R . .
C12B C 0.4596(7) 0.3724(4) 0.6054(5) 0.094(2) Uani 1 1 d . . .
H14 H 0.4475 0.3754 0.6628 0.112 Uiso 1 1 calc R . .
C12C C -0.4247(4) 0.2293(3) 0.1266(3) 0.0659(15) Uani 1 1 d . . .
H21 H -0.4454 0.2822 0.1235 0.079 Uiso 1 1 calc R . .
O1 O -0.0336(3) 0.0074(2) 0.12928(19) 0.0521(7) Uani 1 1 d . . .
O2 O -0.2160(3) -0.1253(3) 0.0723(2) 0.0656(9) Uani 1 1 d . . .
O3 O 0.4576(3) 0.1225(2) 0.4917(2) 0.0562(8) Uani 1 1 d . . .
O4 O 0.4119(3) 0.1961(2) 0.6249(3) 0.0673(9) Uani 1 1 d . . .
O5 O -0.1590(3) 0.3691(2) 0.3739(2) 0.0646(9) Uani 1 1 d . . .
O6 O -0.3035(3) 0.4189(2) 0.3052(2) 0.0672(10) Uani 1 1 d . . .
OW1 O 0.4197(5) 0.3440(3) 0.8107(3) 0.1054(14) Uani 1 1 d . . .
OW2 O 0.5259(4) 0.4593(3) 0.1651(3) 0.0922(12) Uani 1 1 d . . .
OW3 O 0.4045(4) 0.3056(3) 0.9657(3) 0.1057(14) Uani 1 1 d . . .

loop_
_atom_site_aniso_label
_atom_site_aniso_U_11
_atom_site_aniso_U_22
_atom_site_aniso_U_33
_atom_site_aniso_U_23
_atom_site_aniso_U_13
_atom_site_aniso_U_12
NiA 0.0469(4) 0.0481(4) 0.0284(4) 0.0215(3) 0.0164(3) 0.0159(3)
NiB 0.0580(5) 0.0351(4) 0.0557(5) 0.0305(3) 0.0304(4) 0.0246(3)
NiC 0.0490(4) 0.0267(4) 0.0447(4) 0.0014(3) -0.0006(3) 0.0114(3)
N1 0.263(17) 0.40(3) 0.231(14) 0.196(19) 0.083(12) 0.161(19)
N1A 0.169(6) 0.058(3) 0.099(4) 0.027(3) 0.086(4) 0.033(4)
N1B 0.137(5) 0.085(4) 0.066(3) 0.038(3) 0.030(3) 0.059(4)
N1C 0.083(3) 0.052(3) 0.106(4) 0.032(3) -0.008(3) 0.005(2)
N2A 0.069(2) 0.075(3) 0.0353(19) 0.0250(19) 0.0195(18) 0.003(2)
N2B 0.076(3) 0.047(2) 0.097(3) 0.038(2) 0.018(2) 0.023(2)
N2C 0.065(2) 0.046(2) 0.058(2) -0.0036(18) -0.0112(19) 0.0270(19)
N3A 0.105(3) 0.093(3) 0.080(3) 0.067(3) 0.061(3) 0.064(3)
N3B 0.101(3) 0.057(2) 0.097(3) 0.057(2) 0.071(3) 0.050(2)
N3C 0.074(3) 0.075(3) 0.052(2) 0.019(2) 0.004(2) 0.019(2)
C1 0.222(19) 0.20(2) 0.22(2) -0.006(14) 0.057(14) -0.044(15)
C1A 0.246(10) 0.100(5) 0.194(8) 0.109(6) 0.158(8) 0.087(6)
C1B 0.182(7) 0.072(4) 0.090(4) 0.015(3) 0.034(5) 0.054(5)
C1C 0.120(5) 0.084(4) 0.124(5) 0.061(4) -0.032(4) 0.006(4)
C2 0.47(3) 0.122(12) 0.196(16) 0.073(11) 0.22(2) 0.101(17)
C2A 0.108(4) 0.068(4) 0.042(3) 0.012(3) 0.031(3) -0.003(3)
C2B 0.102(4) 0.070(4) 0.085(4) 0.038(3) 0.013(4) 0.039(3)
C2C 0.105(4) 0.044(3) 0.092(4) 0.002(3) -0.002(4) 0.039(3)
C3 0.165(11) 0.36(3) 0.145(10) 0.090(14) 0.029(8) 0.147(15)
C3A 0.062(3) 0.134(5) 0.051(3) 0.053(3) 0.018(2) 0.032(3)
C3B 0.059(3) 0.075(4) 0.134(5) 0.054(4) 0.047(3) 0.029(3)
C3C 0.092(4) 0.094(4) 0.059(3) 0.010(3) 0.018(3) 0.047(3)
C4 0.26(2) 0.29(2) 0.39(3) 0.23(2) 0.14(2) 0.05(2)
C4A 0.068(3) 0.158(6) 0.101(4) 0.095(5) 0.047(3) 0.071(4)
C4B 0.109(5) 0.108(5) 0.172(7) 0.110(5) 0.102(5) 0.073(4)
C4C 0.073(4) 0.135(6) 0.083(4) 0.048(4) 0.030(3) 0.044(4)
C5 0.38(3) 0.29(3) 0.27(2) 0.22(2) 0.17(2) 0.20(3)
C5A 0.176(7) 0.090(5) 0.123(5) 0.068(4) 0.113(5) 0.088(5)
C5B 0.144(6) 0.096(4) 0.080(4) 0.073(4) 0.069(4) 0.078(4)
C5C 0.073(4) 0.058(3) 0.116(5) 0.043(3) 0.008(3) 0.003(3)
C6A 0.051(2) 0.053(2) 0.034(2) 0.0258(19) 0.0244(19) 0.021(2)
C6B 0.054(2) 0.040(2) 0.066(3) 0.035(2) 0.030(2) 0.0269(19)
C6C 0.043(2) 0.029(2) 0.045(2) 0.0050(17) 0.0098(19) 0.0100(18)
C7A 0.048(2) 0.055(2) 0.034(2) 0.0295(19) 0.0211(17) 0.0212(19)
C7B 0.055(2) 0.036(2) 0.066(3) 0.032(2) 0.033(2) 0.0292(18)
C7C 0.0387(19) 0.0283(19) 0.0335(19) 0.0031(15) 0.0078(16) 0.0070(16)
C8A 0.078(3) 0.040(2) 0.034(2) 0.0211(18) 0.025(2) 0.019(2)
C8B 0.070(3) 0.031(2) 0.054(3) 0.0219(19) 0.022(2) 0.0228(19)
C8C 0.050(2) 0.034(2) 0.0293(19) 0.0050(16) -0.0018(17) 0.0079(18)
C9A 0.080(3) 0.042(2) 0.034(2) 0.0204(18) 0.021(2) 0.016(2)
C9B 0.076(3) 0.037(2) 0.047(2) 0.0250(19) 0.015(2) 0.022(2)
C9C 0.059(2) 0.032(2) 0.039(2) 0.0144(17) 0.0134(19) 0.0108(18)
C10A 0.053(2) 0.055(2) 0.0296(18) 0.0271(18) 0.0222(17) 0.022(2)
C10B 0.054(2) 0.037(2) 0.065(3) 0.034(2) 0.033(2) 0.0299(18)
C10C 0.0321(18) 0.0300(19) 0.0347(19) 0.0067(15) 0.0101(15) 0.0077(15)
C11A 0.063(3) 0.091(4) 0.036(2) 0.037(2) 0.006(2) -0.017(3)
C11B 0.179(6) 0.053(3) 0.112(4) 0.061(3) 0.114(4) 0.076(4)
C11C 0.071(3) 0.042(2) 0.046(2) 0.003(2) -0.014(2) 0.025(2)
C12A 0.070(3) 0.081(3) 0.036(2) 0.029(2) 0.000(2) -0.022(3)
C12B 0.193(6) 0.080(4) 0.115(4) 0.079(4) 0.122(5) 0.100(4)
C12C 0.069(3) 0.032(2) 0.051(2) 0.0010(19) -0.011(2) 0.023(2)
O1 0.0645(18) 0.0584(17) 0.0321(14) 0.0240(13) 0.0217(13) 0.0169(15)
O2 0.0563(18) 0.083(2) 0.0372(15) 0.0329(16) 0.0099(14) 0.0017(17)
O3 0.082(2) 0.0403(16) 0.0673(18) 0.0351(15) 0.0383(16) 0.0333(15)
O4 0.107(2) 0.0512(18) 0.087(2) 0.0468(17) 0.068(2) 0.0441(17)
O5 0.0561(17) 0.0317(15) 0.0506(16) -0.0021(13) -0.0125(15) 0.0078(13)
O6 0.079(2) 0.0321(15) 0.0465(16) 0.0004(13) -0.0053(15) 0.0199(15)
OW1 0.173(4) 0.077(3) 0.075(2) 0.039(2) 0.061(3) 0.048(3)
OW2 0.115(3) 0.082(3) 0.067(2) 0.034(2) 0.022(2) 0.042(2)
OW3 0.124(3) 0.084(3) 0.064(2) 0.039(2) 0.016(2) -0.007(2)

_geom_special_details            
;
All esds (except the esd in the dihedral angle between two l.s. planes)
are estimated using the full covariance matrix. The cell esds are taken
into account individually in the estimation of esds in distances, angles
and torsion angles; correlations between esds in cell parameters are only
used when they are defined by crystal symmetry. An approximate (isotropic)
treatment of cell esds is used for estimating esds involving l.s. planes.
;

loop_
_geom_bond_atom_site_label_1
_geom_bond_atom_site_label_2
_geom_bond_distance
_geom_bond_site_symmetry_2
_geom_bond_publ_flag
NiA N2A 2.050(4) 2 ?
NiA N2A 2.050(4) . ?
NiA N3A 2.070(4) 