
#######################################################################
#
#                 Cambridge Crystallographic Data Centre
#                                CCDC
#
#######################################################################
#
# If this CIF has been generated from an entry in the Cambridge
# Structural Database, then it will include bibliographic, chemical,
# crystal, experimental, refinement or atomic coordinate data resulting
# from the CCDC's data processing and validation procedures.
#
#######################################################################

data_CSD_CIF_NAJVUR
_audit_creation_date 2010-11-12
_audit_creation_method CSD-ConQuest-V1
_database_code_CSD NAJVUR
_database_code_depnum_ccdc_archive 'CCDC 762564'
_chemical_formula_sum 'C17 H17 N1 O3'
_chemical_formula_moiety
;
C17 H17 N1 O3
;
_journal_coden_Cambridge 122
_journal_year 2009
_journal_page_first 535
_journal_name_full 'Khim.Get.Soedin.,SSSR(Russ.)(Chem.Heterocycl.Compd.) '
loop_
_publ_author_name
"S.Belyakov"
"M.Fleisher"
"D.Jansone"
"L.Leite"
"E.Lukevics"
_chemical_name_systematic
;
trans-4-(2-(4-Methoxyphenyl)vinyl)-6,6-dimethyl-2-oxo-5,6-dihydro-2H-pyran-3-c
arbonitrile
;
_chemical_name_common
;
Teaching Subset: Fundamental Chemistry
;
_cell_volume   1553.461
_exptl_crystal_colour 'light green'
_exptl_crystal_density_diffrn 1.211
_exptl_crystal_description 'needle'
_exptl_crystal_preparation 'ethanol'
_diffrn_ambient_temperature 295
#These two values have been output from a single CSD field.
_refine_ls_R_factor_gt 0.049
_refine_ls_wR_factor_gt 0.049
loop_
_citation_database_id_CSD
_citation_special_details
VACVEC "is a stereoisomer of this entry"
_symmetry_cell_setting orthorhombic
_symmetry_space_group_name_H-M 'P n a 21'
_symmetry_Int_Tables_number 33
loop_
_symmetry_equiv_pos_site_id
_symmetry_equiv_pos_as_xyz
1 x,y,z
2 -x,-y,1/2+z
3 1/2-x,1/2+y,1/2+z
4 1/2+x,1/2-y,z
_cell_length_a 20.820(2)
_cell_length_b 13.8366(11)
_cell_length_c 5.3925(4)
_cell_angle_alpha 90
_cell_angle_beta 90
_cell_angle_gamma 90
_cell_formula_units_Z 4
loop_
_atom_type_symbol
_atom_type_radius_bond
C 0.68
H 0.23
N 0.68
O 0.68
loop_
_atom_site_label
_atom_site_type_symbol
_atom_site_fract_x
_atom_site_fract_y
_atom_site_fract_z
O1 O 0.0061(2) 0.1530(3) 1.0677(8)
C1 C 0.1492(3) 0.1133(4) 0.5399(11)
O2 O 0.2975(3) -0.1240(4) -0.517(1)
C2 C 0.2538(3) 0.0181(4) 0.0101(10)
C3 C 0.2049(3) 0.0268(4) 0.1962(12)
O3 O 0.3495(2) 0.0004(4) -0.3646(8)
C4 C 0.1483(3) 0.1972(4) 0.6823(11)
C5 C 0.0552(3) 0.0612(5) 0.7621(13)
C6 C 0.1984(3) 0.1011(4) 0.3524(11)
C7 C 0.1008(3) 0.0453(4) 0.5857(12)
C8 C 0.3021(4) -0.0644(5) -0.3555(13)
C9 C 0.2559(3) -0.0574(4) -0.1482(12)
C10 C 0.1020(3) 0.2126(4) 0.8628(12)
C11 C 0.0079(3) 0.2317(5) 1.2414(11)
C12 C 0.0549(3) 0.1449(4) 0.9014(10)
C13 C 0.3044(3) 0.0947(4) -0.0227(12)
C14 C 0.2096(4) -0.1343(5) -0.1424(14)
C15 C 0.4055(4) 0.1408(7) -0.2459(14)
C16 C 0.3651(3) 0.0571(5) -0.1428(13)
N1 N 0.1725(4) -0.1945(5) -0.1400(17)
C17 C 0.4035(3) -0.0070(6) 0.0277(17)
H1 H 0.28789 0.14569 -0.12524
H2 H 0.31578 0.12030 0.13686
H3 H 0.17391 -0.02383 0.21706
H4 H 0.23069 0.14993 0.33221
H5 H 0.10047 -0.01322 0.49002
H6 H 0.02275 0.01332 0.79195
H7 H 0.10249 0.27074 0.95974
H8 H 0.18047 0.24579 0.65533
H9 H -0.02873 0.22973 1.34937
H10 H 0.00808 0.29167 1.15172
H11 H 0.04649 0.22671 1.33813
H12 H 0.41421 0.02741 0.17656
H13 H 0.44218 -0.02632 -0.05550
H14 H 0.37874 -0.06332 0.06903
H15 H 0.41703 0.18227 -0.11025
H16 H 0.38068 0.17666 -0.36446
H17 H 0.44376 0.11684 -0.32399
#END
