####################################################################### 
# 
# This file contains crystal structure data downloaded from the 
# Cambridge Structural Database (CSD) hosted by the Cambridge 
# Crystallographic Data Centre (CCDC).
# 
# Full information about CCDC data access policies and citation 
# guidelines are available at http://www.ccdc.cam.ac.uk/access/V1 
# 
# Audit and citation data items may have been added by the CCDC. 
# Please retain this information to preserve the provenance of 
# this file and to allow appropriate attribution of the data. 
# 
#######################################################################

data_crystalclear
_audit_block_doi                 10.5517/ccx5ssm
_database_code_depnum_ccdc_archive 'CCDC 839721'
loop_
_citation_id
_citation_doi
_citation_year
1 10.1021/ic201814g 2011
_audit_update_record             
;
2011-08-17 deposited with the CCDC.	2024-07-11 downloaded from the CCDC.
;
#TrackingRef 'web_deposit_cif_file_0_DrMawLinFoo_
#1313554156.081711_CSD_BaBTB_structure.cif'


_audit_creation_method           SHELXL-97
_chemical_name_systematic        
;
?
;
_chemical_name_common            ?
_chemical_melting_point          ?
_chemical_formula_moiety         ?
_chemical_formula_sum            'C27 H16 Ba O7'
_chemical_formula_weight         589.74

loop_
_atom_type_symbol
_atom_type_description
_atom_type_scat_dispersion_real
_atom_type_scat_dispersion_imag
_atom_type_scat_source
C C 0.0033 0.0016 'International Tables Vol C Tables 4.2.6.8 and 6.1.1.4'
O O 0.0106 0.0060 'International Tables Vol C Tables 4.2.6.8 and 6.1.1.4'
Ba Ba -0.3244 2.2819 'International Tables Vol C Tables 4.2.6.8 and 6.1.1.4'
H H 0.0000 0.0000 'International Tables Vol C Tables 4.2.6.8 and 6.1.1.4'

_symmetry_cell_setting           orthorhombic
_symmetry_space_group_name_H-M   'P n a 21'

loop_
_symmetry_equiv_pos_as_xyz
'x, y, z'
'-x, -y, z+1/2'
'-x+1/2, y+1/2, z+1/2'
'x+1/2, -y+1/2, z'

_cell_length_a                   7.3162(11)
_cell_length_b                   19.404(3)
_cell_length_c                   26.155(4)
_cell_angle_alpha                90.00
_cell_angle_beta                 90.00
_cell_angle_gamma                90.00
_cell_volume                     3713.1(10)
_cell_formula_units_Z            4
_cell_measurement_temperature    213
_cell_measurement_reflns_used    ?
_cell_measurement_theta_min      ?
_cell_measurement_theta_max      55

_exptl_crystal_description       prism
_exptl_crystal_colour            colorless
_exptl_crystal_size_max          0.20
_exptl_crystal_size_mid          0.20
_exptl_crystal_size_min          0.20
_exptl_crystal_density_meas      ?
_exptl_crystal_density_diffrn    1.055
_exptl_crystal_density_method    'not measured'
_exptl_crystal_F_000             1160
_exptl_absorpt_coefficient_mu    1.099
_exptl_absorpt_correction_type   empirical
_exptl_absorpt_correction_T_min  ?
_exptl_absorpt_correction_T_max  ?
_exptl_absorpt_process_details   ?

_exptl_special_details           
;
?
;

_diffrn_ambient_temperature      213
_diffrn_radiation_wavelength     0.71075
_diffrn_radiation_type           'Mo K\a'
_diffrn_radiation_source         'fine-focus sealed tube'
_diffrn_radiation_monochromator  graphite
_diffrn_measurement_device_type  ?
_diffrn_measurement_method       ?
_diffrn_detector_area_resol_mean ?
_diffrn_standards_number         ?
_diffrn_standards_interval_count ?
_diffrn_standards_interval_time  ?
_diffrn_standards_decay_%        ?
_diffrn_reflns_number            16142
_diffrn_reflns_av_R_equivalents  0.0213
_diffrn_reflns_av_sigmaI/netI    0.0364
_diffrn_reflns_limit_h_min       -9
_diffrn_reflns_limit_h_max       8
_diffrn_reflns_limit_k_min       -25
_diffrn_reflns_limit_k_max       22
_diffrn_reflns_limit_l_min       -33
_diffrn_reflns_limit_l_max       19
_diffrn_reflns_theta_min         3.08
_diffrn_reflns_theta_max         27.49
_reflns_number_total             6001
_reflns_number_gt                5214
_reflns_threshold_expression     >2sigma(I)

_computing_data_collection       ?
_computing_cell_refinement       ?
_computing_data_reduction        ?
_computing_structure_solution    sir97
_computing_structure_refinement  'SHELXL-97 (Sheldrick, 1997)'
_computing_molecular_graphics    ?
_computing_publication_material  ?

_refine_special_details          
;
Refinement of F^2^ against ALL reflections. The weighted R-factor wR and
goodness of fit S are based on F^2^, conventional R-factors R are based
on F, with F set to zero for negative F^2^. The threshold expression of
F^2^ > 2sigma(F^2^) is used only for calculating R-factors(gt) etc. and is
not relevant to the choice of reflections for refinement. R-factors based
on F^2^ are statistically about twice as large as those based on F, and R-
factors based on ALL data will be even larger.
;

_refine_ls_structure_factor_coef Fsqd
_refine_ls_matrix_type           full
_refine_ls_weighting_scheme      calc
_refine_ls_weighting_details     
'calc w=1/[\s^2^(Fo^2^)+(0.1074P)^2^+0.0000P] where P=(Fo^2^+2Fc^2^)/3'
_atom_sites_solution_primary     direct
_atom_sites_solution_secondary   difmap
_atom_sites_solution_hydrogens   geom
_refine_ls_hydrogen_treatment    mixed
_refine_ls_extinction_method     none
_refine_ls_extinction_coef       ?
_refine_ls_abs_structure_details 'Flack H D (1983), Acta Cryst. A39, 876-881'
_refine_ls_abs_structure_Flack   -0.01(3)
_refine_ls_number_reflns         6001
_refine_ls_number_parameters     317
_refine_ls_number_restraints     1
_refine_ls_R_factor_all          0.0513
_refine_ls_R_factor_gt           0.0470
_refine_ls_wR_factor_ref         0.1564
_refine_ls_wR_factor_gt          0.1535
_refine_ls_goodness_of_fit_ref   1.124
_refine_ls_restrained_S_all      1.124
_refine_ls_shift/su_max          0.001
_refine_ls_shift/su_mean         0.000

loop_
_atom_site_label
_atom_site_type_symbol
_atom_site_fract_x
_atom_site_fract_y
_atom_site_fract_z
_atom_site_U_iso_or_equiv
_atom_site_adp_type
_atom_site_occupancy
_atom_site_symmetry_multiplicity
_atom_site_calc_flag
_atom_site_refinement_flags
_atom_site_disorder_assembly
_atom_site_disorder_group
Ba1 Ba 0.60171(4) 0.306261(14) 0.00702(3) 0.02705(12) Uani 1 1 d . . .
O1 O 0.2503(7) 0.3169(2) 0.0483(2) 0.0361(12) Uani 1 1 d . . .
C1 C 0.0979(9) 0.3116(3) -0.3038(3) 0.0294(16) Uani 1 1 d . . .
C2 C 0.0897(8) 0.1255(3) -0.4940(5) 0.0415(14) Uani 1 1 d . . .
H2 H 0.1318 0.1251 -0.5280 0.050 Uiso 1 1 calc R . .
O2 O 0.9732(6) 0.3283(2) 0.0143(3) 0.0440(15) Uani 1 1 d . . .
C3 C 0.0921(11) 0.1866(4) -0.4656(3) 0.039(2) Uani 1 1 d . . .
H3 H 0.1292 0.2276 -0.4818 0.047 Uiso 1 1 calc R . .
O3 O 0.5609(8) 0.4481(3) 0.0199(2) 0.0507(17) Uani 1 1 d . . .
C4 C 0.1579(12) 0.3130(3) -0.2488(3) 0.0301(14) Uani 1 1 d . . .
C5 C 0.2677(10) 0.3160(3) -0.1457(3) 0.0292(14) Uani 1 1 d . . .
C6 C 0.0048(10) 0.3166(3) -0.4066(3) 0.0315(15) Uani 1 1 d . . .
H6 H -0.0202 0.3184 -0.4419 0.038 Uiso 1 1 calc R . .
C7 C 0.2496(10) 0.3716(3) -0.2288(3) 0.0355(15) Uani 1 1 d . . .
H7 H 0.2709 0.4095 -0.2504 0.043 Uiso 1 1 calc R . .
O4 O 0.6413(14) 0.3293(6) 0.1103(4) 0.096(3) Uani 1 1 d . . .
C8 C 0.1287(9) 0.2579(4) -0.2170(3) 0.0360(16) Uani 1 1 d . . .
H8 H 0.0697 0.2184 -0.2297 0.043 Uiso 1 1 calc R . .
C9 C 0.0398(9) 0.3735(3) -0.3256(3) 0.0302(13) Uani 1 1 d . . .
H9 H 0.0300 0.4134 -0.3055 0.036 Uiso 1 1 calc R . .
C10 C -0.0043(9) 0.3757(3) -0.3782(3) 0.0311(14) Uani 1 1 d . . .
C11 C 0.3073(11) 0.3744(4) -0.1799(3) 0.0404(17) Uani 1 1 d . . .
H11 H 0.3716 0.4130 -0.1678 0.048 Uiso 1 1 calc R . .
C12 C 0.0980(9) 0.2521(4) -0.3328(3) 0.0326(15) Uani 1 1 d . . .
H12 H 0.1307 0.2100 -0.3175 0.039 Uiso 1 1 calc R . .
C13 C 0.0509(9) 0.2532(3) -0.3839(2) 0.0292(13) Uani 1 1 d . . .
O5 O 0.4292(7) 0.3704(3) -0.0771(2) 0.0423(12) Uani 1 1 d . . .
O6 O 0.3069(7) 0.2668(3) -0.06387(18) 0.0390(11) Uani 1 1 d . . .
C14 C 0.0412(12) 0.1891(3) -0.4140(3) 0.0323(15) Uani 1 1 d . . .
C15 C 0.1866(10) 0.2599(3) -0.1653(2) 0.0312(13) Uani 1 1 d . . .
H15 H 0.1678 0.2211 -0.1444 0.037 Uiso 1 1 calc R . .
C16 C 0.3354(11) 0.3181(3) -0.0912(3) 0.0321(14) Uani 1 1 d . . .
C17 C 0.4862(9) 0.4996(3) 0.0013(4) 0.0416(17) Uani 1 1 d . . .
O7 O 0.4074(7) 0.4982(3) -0.0439(2) 0.0544(16) Uani 1 1 d . . .
H7A H 0.4726 0.4763 -0.0642 0.082 Uiso 1 1 calc R . .
C18 C 0.0247(9) 0.0656(3) -0.4716(3) 0.0342(15) Uani 1 1 d . . .
C19 C -0.0484(9) 0.4444(3) -0.4015(3) 0.0307(13) Uani 1 1 d . . .
C20 C -0.0254(10) 0.1277(3) -0.3928(3) 0.0362(15) Uani 1 1 d . . .
H20 H -0.0664 0.1275 -0.3587 0.043 Uiso 1 1 calc R . .
C21 C -0.1504(11) 0.4913(4) -0.3759(3) 0.0407(16) Uani 1 1 d . . .
H21 H -0.2034 0.4793 -0.3444 0.049 Uiso 1 1 calc R . .
C22 C 0.0246(10) 0.4619(3) -0.4493(3) 0.0358(15) Uani 1 1 d . . .
H22 H 0.0888 0.4287 -0.4683 0.043 Uiso 1 1 calc R . .
C23 C -0.1778(11) 0.5575(4) -0.3958(3) 0.0373(16) Uani 1 1 d . . .
H23 H -0.2498 0.5896 -0.3780 0.045 Uiso 1 1 calc R . .
C24 C -0.0322(10) 0.0678(4) -0.4208(3) 0.0393(16) Uani 1 1 d . . .
H24 H -0.0762 0.0273 -0.4053 0.047 Uiso 1 1 calc R . .
C25 C 0.0036(10) 0.5261(3) -0.4686(2) 0.0353(15) Uani 1 1 d . . .
H25 H 0.0582 0.5375 -0.5000 0.042 Uiso 1 1 calc R . .
C26 C -0.0978(8) 0.5757(4) -0.4424(3) 0.0311(15) Uani 1 1 d . . .
C27 C 0.6092(9) 0.1497(4) 0.0392(3) 0.0344(16) Uani 1 1 d . . .

loop_
_atom_site_aniso_label
_atom_site_aniso_U_11
_atom_site_aniso_U_22
_atom_site_aniso_U_33
_atom_site_aniso_U_23
_atom_site_aniso_U_13
_atom_site_aniso_U_12
Ba1 0.02696(19) 0.02286(18) 0.03132(19) -0.0014(2) -0.0012(2) 0.00036(11)
O1 0.032(3) 0.031(3) 0.044(3) -0.013(2) -0.002(2) 0.007(2)
C1 0.033(4) 0.028(4) 0.027(4) 0.004(2) -0.003(2) 0.005(2)
C2 0.060(4) 0.029(3) 0.035(3) 0.004(6) -0.005(4) -0.003(3)
O2 0.028(2) 0.030(2) 0.074(5) -0.017(3) -0.007(3) -0.004(2)
C3 0.057(6) 0.025(4) 0.036(5) -0.001(3) -0.002(3) -0.003(3)
O3 0.055(3) 0.027(3) 0.070(5) -0.013(3) -0.017(3) 0.007(2)
C4 0.036(3) 0.027(3) 0.027(3) 0.003(2) -0.006(3) -0.005(3)
C5 0.033(4) 0.026(3) 0.029(3) 0.005(2) -0.008(3) -0.007(3)
C6 0.034(4) 0.029(3) 0.032(3) 0.002(2) -0.002(3) -0.006(3)
C7 0.049(4) 0.026(3) 0.032(3) 0.008(3) -0.010(3) -0.003(3)
O4 0.098(6) 0.136(8) 0.055(5) -0.021(6) -0.015(5) 0.010(6)
C8 0.043(4) 0.027(3) 0.038(4) -0.003(3) -0.003(3) -0.009(3)
C9 0.034(3) 0.024(3) 0.032(3) 0.002(2) 0.002(3) -0.004(3)
C10 0.033(3) 0.022(3) 0.038(3) 0.003(3) -0.005(3) -0.003(3)
C11 0.060(5) 0.030(3) 0.031(3) 0.003(3) -0.011(3) 0.002(3)
C12 0.030(3) 0.026(3) 0.041(4) 0.000(3) -0.009(3) 0.002(2)
C13 0.030(3) 0.024(3) 0.033(3) 0.000(3) 0.000(3) 0.003(3)
O5 0.061(3) 0.032(3) 0.034(3) -0.004(2) -0.008(2) -0.002(2)
O6 0.047(3) 0.038(3) 0.032(2) 0.003(2) -0.007(2) -0.006(2)
C14 0.032(4) 0.024(3) 0.040(4) 0.001(3) -0.009(3) 0.000(3)
C15 0.039(4) 0.030(3) 0.025(3) 0.007(2) -0.004(3) -0.002(3)
C16 0.039(4) 0.031(3) 0.026(3) -0.003(3) 0.003(3) 0.004(3)
C17 0.040(3) 0.034(3) 0.052(5) -0.015(4) -0.003(4) -0.003(3)
O7 0.086(5) 0.034(3) 0.043(3) -0.004(3) -0.008(3) 0.010(3)
C18 0.031(3) 0.025(3) 0.046(4) -0.002(3) -0.002(3) 0.003(3)
C19 0.036(3) 0.026(3) 0.030(3) 0.004(3) -0.005(3) 0.004(3)
C20 0.040(4) 0.026(3) 0.043(4) 0.000(3) 0.005(3) -0.003(3)
C21 0.051(4) 0.031(4) 0.040(4) 0.007(3) 0.008(3) 0.006(3)
C22 0.038(4) 0.026(3) 0.043(4) 0.003(3) 0.005(3) 0.005(3)
C23 0.044(4) 0.030(4) 0.038(4) 0.004(3) 0.006(3) 0.011(3)
C24 0.039(4) 0.029(4) 0.050(4) -0.004(3) 0.000(3) -0.004(3)
C25 0.044(4) 0.031(3) 0.031(3) 0.004(3) 0.003(3) 0.002(3)
C26 0.023(3) 0.026(3) 0.044(4) 0.005(3) -0.001(2) 0.001(2)
C27 0.037(4) 0.027(3) 0.039(4) 0.003(3) 0.008(3) 0.001(3)

_geom_special_details            
;
All esds (except the esd in the dihedral angle between two l.s. planes)
are estimated using the full covariance matrix. The cell esds are taken
into account individually in the estimation of esds in distances, angles
and torsion angles; correlations between esds in cell parameters are only
used when they are defined by crystal symmetry. An approximate (isotropic)
treatment of cell esds is used for estimating esds involving l.s. planes.
;

loop_
_geom_bond_atom_site_label_1
_geom_bond_atom_site_label_2
_geom_bond_distance
_geom_bond_site_symmetry_2
_geom_bond_publ_flag
Ba1 O4 2.752(9) . ?
Ba1 O2 2.758(5) . ?
Ba1 O6 2.776(5) 4 ?
Ba1 O2 2.783(5) 4_455 ?
Ba1 O3 2.789(5) . ?
Ba1 O1 2.796(6) . ?
Ba1 O5 2.825(5) . ?
Ba1 O1 2.838(5) 4 ?
Ba1 O6 2.945(5) . ?
Ba1 C27 3.152(8) . ?
Ba1 C16 3.231(8) . ?
Ba1 Ba1 4.2601(6) 4_455 ?
O1 C27 1.241(9) 4_455 ?
O1 Ba1 2.838(5) 4_455 ?
C1 C12 1.383(10) . ?
C1 C9 1.396(9) . ?
C1 C4 1.505(10) . ?
C2 C18 1.387(10) . ?
C2 C3 1.399(11) . ?
O2 C27 1.263(9) 4 ?
O2 Ba1 2.783(5) 4 ?
C3 C14 1.402(12) . ?
O3 C17 1.239(9) . ?
C4 C8 1.370(9) . ?
C4 C7 1.419(9) . ?
C5 C15 1.342(9) . ?
C5 C11 1.473(9) . ?
C5 C16 1.510(10) . ?
C6 C10 1.369(9) . ?
C6 C13 1.408(9) . ?
C7 C11 1.349(9) . ?
C8 C15 1.418(10) . ?
C9 C10 1.412(9) . ?
C10 C19 1.500(9) . ?
C12 C13 1.378(10) . ?
C13 C14 1.474(9) . ?
O5 C16 1.279(9) . ?
O6 C16 1.242(8) . ?
O6 Ba1 2.776(5) 4_455 ?
C14 C20 1.402(9) . ?
C17 O7 1.315(11) . ?
C17 C18 1.465(9) 3 ?
C18 C24 1.392(10) . ?
C18 C17 1.465(9) 3_544 ?
C19 C21 1.354(10) . ?
C19 C22 1.403(9) . ?
C20 C24 1.376(10) . ?
C21 C23 1.401(10) . ?
C22 C25 1.352(9) . ?
C23 C26 1.397(10) . ?
C25 C26 1.393(10) . ?
C26 C27 1.518(10) 3_554 ?
C27 O1 1.241(9) 4 ?
C27 O2 1.263(9) 4_455 ?
C27 C26 1.518(10) 3_545 ?

loop_
_geom_angle_atom_site_label_1
_geom_angle_atom_site_label_2
_geom_angle_atom_site_label_3
_geom_angle
_geom_angle_site_symmetry_1
_geom_angle_site_symmetry_3
_geom_angle_publ_flag
O4 Ba1 O2 78.6(3) . . ?
O4 Ba1 O6 132.9(2) . 4 ?
O2 Ba1 O6 65.96(16) . 4 ?
O4 Ba1 O2 96.9(3) . 4_455 ?
O2 Ba1 O2 118.30(13) . 4_455 ?
O6 Ba1 O2 75.46(18) 4 4_455 ?
O4 Ba1 O3 74.5(3) . . ?
O2 Ba1 O3 86.78(15) . . ?
O6 Ba1 O3 130.00(18) 4 . ?
O2 Ba1 O3 151.88(17) 4_455 . ?
O4 Ba1 O1 72.9(3) . . ?
O2 Ba1 O1 150.22(18) . . ?
O6 Ba1 O1 142.46(15) 4 . ?
O2 Ba1 O1 74.45(14) 4_455 . ?
O3 Ba1 O1 77.43(16) . . ?
O4 Ba1 O5 137.7(2) . . ?
O2 Ba1 O5 115.19(19) . . ?
O6 Ba1 O5 86.95(14) 4 . ?
O2 Ba1 O5 108.43(17) 4_455 . ?
O3 Ba1 O5 67.11(16) . . ?
O1 Ba1 O5 81.80(16) . . ?
O4 Ba1 O1 73.9(3) . 4 ?
O2 Ba1 O1 74.17(16) . 4 ?
O6 Ba1 O1 67.46(16) 4 4 ?
O2 Ba1 O1 46.62(15) 4_455 4 ?
O3 Ba1 O1 145.68(17) . 4 ?
O1 Ba1 O1 105.50(17) . 4 ?
O5 Ba1 O1 146.96(16) . 4 ?
O4 Ba1 O6 137.5(3) . . ?
O2 Ba1 O6 143.66(19) . . ?
O6 Ba1 O6 80.96(11) 4 . ?
O2 Ba1 O6 63.38(16) 4_455 . ?
O3 Ba1 O6 104.71(16) . . ?
O1 Ba1 O6 65.72(15) . . ?
O5 Ba1 O6 45.35(14) . . ?
O1 Ba1 O6 107.53(15) 4 . ?
O4 Ba1 C27 83.8(3) . . ?
O2 Ba1 C27 96.55(16) . . ?
O6 Ba1 C27 71.12(17) 4 . ?
O2 Ba1 C27 23.53(17) 4_455 . ?
O3 Ba1 C27 157.0(2) . . ?
O1 Ba1 C27 89.08(15) . . ?
O5 Ba1 C27 129.82(18) . . ?
O1 Ba1 C27 23.16(16) 4 . ?
O6 Ba1 C27 86.02(17) . . ?
O4 Ba1 C16 146.3(2) . . ?
O2 Ba1 C16 129.6(2) . . ?
O6 Ba1 C16 80.31(16) 4 . ?
O2 Ba1 C16 85.27(19) 4_455 . ?
O3 Ba1 C16 87.77(17) . . ?
O1 Ba1 C16 75.36(18) . . ?
O5 Ba1 C16 23.16(16) . . ?
O1 Ba1 C16 126.37(17) 4 . ?
O6 Ba1 C16 22.59(15) . . ?
C27 Ba1 C16 106.93(19) . . ?
O4 Ba1 Ba1 100.0(2) . 4_455 ?
O2 Ba1 Ba1 157.79(11) . 4_455 ?
O6 Ba1 Ba1 101.69(11) 4 4_455 ?
O2 Ba1 Ba1 39.53(9) 4_455 4_455 ?
O3 Ba1 Ba1 114.45(12) . 4_455 ?
O1 Ba1 Ba1 41.25(9) . 4_455 ?
O5 Ba1 Ba1 80.93(11) . 4_455 ?
O1 Ba1 Ba1 84.11(10) 4 4_455 ?
O6 Ba1 Ba1 40.37(10) . 4_455 ?
C27 Ba1 Ba1 61.39(12) . 4_455 ?
C16 Ba1 Ba1 61.23(13) . 4_455 ?
C27 O1 Ba1 136.8(5) 4_455 . ?
C27 O1 Ba1 92.8(4) 4_455 4_455 ?
Ba1 O1 Ba1 98.24(15) . 4_455 ?
C12 C1 C9 119.6(7) . . ?
C12 C1 C4 122.7(6) . . ?
C9 C1 C4 117.7(6) . . ?
C18 C2 C3 119.4(10) . . ?
C27 O2 Ba1 149.8(5) 4 . ?
C27 O2 Ba1 94.9(4) 4 4 ?
Ba1 O2 Ba1 100.51(15) . 4 ?
C2 C3 C14 122.5(8) . . ?
C17 O3 Ba1 142.8(5) . . ?
C8 C4 C7 118.4(7) . . ?
C8 C4 C1 121.4(6) . . ?
C7 C4 C1 120.2(6) . . ?
C15 C5 C11 118.6(6) . . ?
C15 C5 C16 121.9(6) . . ?
C11 C5 C16 119.2(6) . . ?
C10 C6 C13 120.9(7) . . ?
C11 C7 C4 121.9(7) . . ?
C4 C8 C15 120.7(6) . . ?
C1 C9 C10 119.6(6) . . ?
C6 C10 C9 119.5(6) . . ?
C6 C10 C19 122.2(6) . . ?
C9 C10 C19 118.1(6) . . ?
C7 C11 C5 118.9(7) . . ?
C13 C12 C1 121.2(7) . . ?
C12 C13 C6 118.9(6) . . ?
C12 C13 C14 121.1(6) . . ?
C6 C13 C14 120.0(6) . . ?
C16 O5 Ba1 96.5(4) . . ?
C16 O6 Ba1 152.1(5) . 4_455 ?
C16 O6 Ba1 91.8(4) . . ?
Ba1 O6 Ba1 96.21(14) 4_455 . ?
C3 C14 C20 116.4(6) . . ?
C3 C14 C13 122.1(6) . . ?
C20 C14 C13 121.5(7) . . ?
C5 C15 C8 121.3(6) . . ?
O6 C16 O5 124.1(7) . . ?
O6 C16 C5 117.7(6) . . ?
O5 C16 C5 118.0(6) . . ?
O6 C16 Ba1 65.6(4) . . ?
O5 C16 Ba1 60.3(4) . . ?
C5 C16 Ba1 161.1(5) . . ?
O3 C17 O7 121.9(7) . . ?
O3 C17 C18 122.6(8) . 3 ?
O7 C17 C18 115.5(7) . 3 ?
C2 C18 C24 118.7(8) . . ?
C2 C18 C17 123.1(8) . 3_544 ?
C24 C18 C17 118.2(7) . 3_544 ?
C21 C19 C22 119.2(6) . . ?
C21 C19 C10 121.0(6) . . ?
C22 C19 C10 119.7(6) . . ?
C24 C20 C14 121.4(7) . . ?
C19 C21 C23 120.8(7) . . ?
C25 C22 C19 120.8(7) . . ?
C26 C23 C21 119.7(7) . . ?
C20 C24 C18 121.6(7) . . ?
C22 C25 C26 120.9(7) . . ?
C25 C26 C23 118.5(6) . . ?
C25 C26 C27 121.8(7) . 3_554 ?
C23 C26 C27 119.4(7) . 3_554 ?
O1 C27 O2 125.3(7) 4 4_455 ?
O1 C27 C26 118.6(6) 4 3_545 ?
O2 C27 C26 116.0(6) 4_455 3_545 ?
O1 C27 Ba1 64.1(4) 4 . ?
O2 C27 Ba1 61.6(4) 4_455 . ?
C26 C27 Ba1 174.9(5) 3_545 . ?

loop_
_geom_torsion_atom_site_label_1
_geom_torsion_atom_site_label_2
_geom_torsion_atom_site_label_3
_geom_torsion_atom_site_label_4
_geom_torsion
_geom_torsion_site_symmetry_1
_geom_torsion_site_symmetry_2
_geom_torsion_site_symmetry_3
_geom_torsion_site_symmetry_4
_geom_torsion_publ_flag
O4 Ba1 O1 C27 128.2(7) . . . 4_455 ?
O2 Ba1 O1 C27 110.4(7) . . . 4_455 ?
O6 Ba1 O1 C27 -91.4(7) 4 . . 4_455 ?
O2 Ba1 O1 C27 -129.3(7) 4_455 . . 4_455 ?
O3 Ba1 O1 C27 50.8(7) . . . 4_455 ?
O5 Ba1 O1 C27 -17.4(7) . . . 4_455 ?
O1 Ba1 O1 C27 -164.5(