
#######################################################################
#
#                 Cambridge Crystallographic Data Centre
#                                CCDC
#
#######################################################################
#
# If this CIF has been generated from an entry in the Cambridge
# Structural Database, then it will include bibliographic, chemical,
# crystal, experimental, refinement or atomic coordinate data resulting
# from the CCDC's data processing and validation procedures.
#
#######################################################################

data_CSD_CIF_NAMCIP
_audit_creation_date 2012-04-10
_audit_creation_method CSD-ConQuest-V1
_database_code_CSD NAMCIP
_database_code_depnum_ccdc_archive 'CCDC 868653'
_chemical_formula_sum 'C37.72 H42.44 Cl3.72 F6 N6 Ru1 S1 Sb1'
_chemical_formula_moiety
;
C34 H35 N6 Ru1 S1 1+,F6 Sb1 1-,1.86(C2 H4 Cl2)
;
_journal_coden_Cambridge 9
_journal_volume 50
_journal_year 2011
_journal_page_first 11938
_journal_name_full 'Inorg.Chem. '
loop_
_publ_author_name
"T.P.Brewster"
"Wendu Ding"
"N.D.Schley"
"N.Hazari"
"V.S.Batista"
"R.H.Crabtree"
_chemical_name_systematic
;
(4,4'-Di-t-butyl-2,2'-bipyridine)-(2,2':6',2''-terpyridine)-thiocyanato-ruthen
ium(ii) hexafluoroantimonate 1,2-dichloroethane solvate
;
_chemical_name_common
;
Teaching Subset: Fundamental Chemistry
;
_cell_volume   8786.710
_exptl_crystal_colour 'red'
_exptl_crystal_density_diffrn 1.633
_exptl_crystal_description 'prism'
_diffrn_ambient_temperature 93
_refine_special_details
;
Cl(2) and Cl(2') disordered over two sites with occupancies 0.80:0.20; Cl(4) 
and Cl(4') disordered over two sites with occupancies 0.50:0.50.
;
#These two values have been output from a single CSD field.
_refine_ls_R_factor_gt 0.0743
_refine_ls_wR_factor_gt 0.0743
_symmetry_cell_setting monoclinic
_symmetry_space_group_name_H-M 'I 2/a'
_symmetry_Int_Tables_number 15
loop_
_symmetry_equiv_pos_site_id
_symmetry_equiv_pos_as_xyz
1 x,y,z
2 1/2-x,y,-z
3 1/2+x,1/2+y,1/2+z
4 -x,1/2+y,1/2-z
5 -x,-y,-z
6 -1/2+x,-y,z
7 -1/2-x,-1/2-y,-1/2-z
8 x,-1/2-y,-1/2+z
_cell_length_a 26.4182(19)
_cell_length_b 13.1752(3)
_cell_length_c 27.9765(16)
_cell_angle_alpha 90
_cell_angle_beta 115.532(8)
_cell_angle_gamma 90
_cell_formula_units_Z 8
loop_
_atom_type_symbol
_atom_type_radius_bond
C 0.68
H 0.23
Cl 0.99
F 0.64
N 0.68
Ru 1.46
S 1.02
Sb 1.39
loop_
_atom_site_label
_atom_site_type_symbol
_atom_site_fract_x
_atom_site_fract_y
_atom_site_fract_z
Sb1 Sb 0.31104(3) 0.58036(5) 0.62686(2)
F1 F 0.2439(2) 0.6004(6) 0.6307(2)
F2 F 0.3327(3) 0.4876(6) 0.6830(2)
F3 F 0.3427(4) 0.6823(6) 0.6757(3)
F4 F 0.3788(2) 0.5585(5) 0.6235(2)
F5 F 0.2886(3) 0.6714(5) 0.5708(2)
F6 F 0.2790(3) 0.4778(5) 0.5788(3)
Ru1 Ru 0.50108(3) 0.76885(6) 0.56869(3)
S1 S 0.49283(14) 0.7918(2) 0.47801(13)
N1 N 0.5579(3) 0.8871(6) 0.6022(3)
N2 N 0.5100(3) 0.7687(6) 0.6452(3)
N3 N 0.4255(3) 0.8443(6) 0.5419(3)
N4 N 0.4486(3) 0.6561(6) 0.5435(2)
N5 N 0.5570(3) 0.6497(6) 0.5869(3)
N6 N 0.6011(6) 0.7672(9) 0.4851(5)
C1 C 0.5776(4) 0.9498(8) 0.5761(4)
C2 C 0.6174(5) 1.0222(8) 0.6020(4)
C3 C 0.6360(4) 1.0392(8) 0.6556(4)
C4 C 0.6130(4) 0.9776(9) 0.6812(4)
C5 C 0.5739(4) 0.9023(8) 0.6547(4)
C6 C 0.5480(4) 0.8352(7) 0.6802(4)
C7 C 0.5587(4) 0.8345(9) 0.7332(4)
C8 C 0.5312(5) 0.7716(9) 0.7533(4)
C9 C 0.4929(5) 0.7056(9) 0.7174(4)
C10 C 0.4833(5) 0.7063(8) 0.6652(5)
C11 C 0.6768(7) 1.1236(12) 0.6842(5)
C12 C 0.6993(7) 1.1759(13) 0.6479(6)
C13 C 0.7267(6) 1.0763(12) 0.7326(6)
C14 C 0.6486(6) 1.2004(10) 0.7047(5)
C15 C 0.5424(7) 0.7758(14) 0.8116(5)
C16 C 0.6034(6) 0.7685(14) 0.8472(5)
C17 C 0.5195(9) 0.880(2) 0.8202(7)
C18 C 0.5145(12) 0.687(2) 0.8262(7)
C19 C 0.4157(5) 0.9458(8) 0.5413(4)
C20 C 0.3623(6) 0.9891(9) 0.5184(5)
C21 C 0.3159(6) 0.922(1) 0.4948(5)
C22 C 0.3251(5) 0.8202(10) 0.4955(4)
C23 C 0.3803(4) 0.7823(8) 0.5189(4)
C24 C 0.3937(4) 0.6744(7) 0.5209(3)
C25 C 0.3553(4) 0.5930(9) 0.5036(4)
C26 C 0.3766(5) 0.4946(8) 0.5105(4)
C27 C 0.4328(5) 0.4782(8) 0.5335(4)
C28 C 0.4700(4) 0.5612(7) 0.5505(3)
C29 C 0.5317(4) 0.5570(8) 0.5760(3)
C30 C 0.5629(5) 0.4688(9) 0.5879(4)
C31 C 0.6208(5) 0.4733(10) 0.6106(4)
C32 C 0.6458(5) 0.5667(10) 0.6203(4)
C33 C 0.6136(4) 0.6528(10) 0.6083(4)
C34 C 0.5550(6) 0.7783(10) 0.4815(5)
H1 H 0.56360 0.94370 0.53870
H2 H 0.63240 1.06140 0.58270
H3 H 0.62430 0.98690 0.71800
H4 H 0.58630 0.87960 0.75670
H5 H 0.47310 0.65910 0.72900
H6 H 0.45630 0.66030 0.64170
H7 H 0.73400 1.14240 0.65180
H8 H 0.70700 1.24750 0.65800
H9 H 0.67130 1.17110 0.61100
H10 H 0.71820 1.07680 0.76340
H11 H 0.76070 1.11610 0.74050
H12 H 0.73260 1.00630 0.72430
H13 H 0.63040 1.25230 0.67760
H14 H 0.67680 1.23240 0.73680
H15 H 0.62050 1.16630 0.71310
H16 H 0.61390 0.69700 0.85510
H17 H 0.61150 0.80500 0.88020
H18 H 0.62490 0.79860 0.82970
H19 H 0.54940 0.93130 0.83090
H20 H 0.50640 0.87370 0.84790
H21 H 0.48820 0.90190 0.78710
H22 H 0.47690 0.70660 0.82150
H23 H 0.53720 0.66740 0.86320
H24 H 0.51150 0.62860 0.80310
H25 H 0.44700 0.98970 0.55750
H26 H 0.35720 1.06040 0.51850
H27 H 0.27870 0.94800 0.47870
H28 H 0.29430 0.77480 0.48030
H29 H 0.31600 0.60490 0.48770
H30 H 0.35160 0.43850 0.49890
H31 H 0.44700 0.41090 0.53820
H32 H 0.54450 0.40480 0.58050
H33 H 0.64270 0.41300 0.61920
H34 H 0.68550 0.57200 0.63540
H35 H 0.63170 0.71700 0.61530
Cl1 Cl 0.7550(4) 0.7968(7) 0.3239(3)
C35 C 0.740(2) 0.758(3) 0.2616(12)
Cl2 Cl 0.2321(3) 1.1440(6) 0.4388(3)
C36 C 0.2466(16) 1.253(2) 0.4711(16)
Cl3 Cl 0.6201(3) -0.0184(6) 0.2438(4)
Cl4 Cl 0.5709(9) 0.0500(16) 0.3278(9)
C37 C 0.6423(7) 0.0921(11) 0.3635(7)
C38 C 0.6383(11) 0.063(2) 0.3053(8)
Cl5? Cl 0.309(2) 1.2376(17) 0.4636(12)
Cl6? Cl 0.6958(8) 0.0043(15) 0.3803(6)
Cl1F Cl 0.7450(4) 0.7032(7) 0.1761(3)
C35F C 0.760(2) 0.742(3) 0.2384(12)
Cl2A Cl 0.2679(3) 1.1440(6) 0.5612(3)
C36A C 0.2534(16) 1.253(2) 0.5289(16)
#END
