
#######################################################################
#
#                 Cambridge Crystallographic Data Centre
#                                CCDC
#
#######################################################################
#
# If this CIF has been generated from an entry in the Cambridge
# Structural Database, then it will include bibliographic, chemical,
# crystal, experimental, refinement or atomic coordinate data resulting
# from the CCDC's data processing and validation procedures.
#
#######################################################################

data_CSD_CIF_NAMCEL
_audit_creation_date 2012-04-10
_audit_creation_method CSD-ConQuest-V1
_database_code_CSD NAMCEL
_database_code_depnum_ccdc_archive 'CCDC 868652'
_chemical_formula_sum 'C40 H47 Cl6 F6 N6 Ru1 S1 Sb1'
_chemical_formula_moiety
;
C34 H35 N6 Ru1 S1 1+,F6 Sb1 1-,3(C2 H4 Cl2)
;
_journal_coden_Cambridge 9
_journal_volume 50
_journal_year 2011
_journal_page_first 11938
_journal_name_full 'Inorg.Chem. '
loop_
_publ_author_name
"T.P.Brewster"
"Wendu Ding"
"N.D.Schley"
"N.Hazari"
"V.S.Batista"
"R.H.Crabtree"
_chemical_name_systematic
;
(4,4'-Di-t-butyl-2,2'-bipyridine)-(2,2':6',2''-terpyridine)-isothiocyanato-rut
henium(ii) hexafluoroantimonate 1,2-dichloroethane solvate
;
_chemical_name_common
;
Teaching Subset: Fundamental Chemistry
;
_cell_volume   2365.448
_exptl_crystal_colour 'red'
_exptl_crystal_density_diffrn 1.675
_exptl_crystal_description 'platelet'
_diffrn_ambient_temperature 93
#These two values have been output from a single CSD field.
_refine_ls_R_factor_gt 0.057
_refine_ls_wR_factor_gt 0.057
_symmetry_cell_setting triclinic
_symmetry_space_group_name_H-M 'P -1'
_symmetry_Int_Tables_number 2
loop_
_symmetry_equiv_pos_site_id
_symmetry_equiv_pos_as_xyz
1 x,y,z
2 -x,-y,-z
_cell_length_a 9.03868(17)
_cell_length_b 14.3405(3)
_cell_length_c 19.7694(14)
_cell_angle_alpha 109.298(8)
_cell_angle_beta 94.668(7)
_cell_angle_gamma 98.865(7)
_cell_formula_units_Z 2
loop_
_atom_type_symbol
_atom_type_radius_bond
C 0.68
H 0.23
Cl 0.99
F 0.64
N 0.68
Ru 1.46
S 1.02
Sb 1.39
loop_
_atom_site_label
_atom_site_type_symbol
_atom_site_fract_x
_atom_site_fract_y
_atom_site_fract_z
Sb1 Sb 0.85455(5) 0.22824(3) 0.81271(2)
F1 F 0.9517(5) 0.3615(2) 0.8629(2)
F2 F 0.7367(5) 0.2720(3) 0.7515(2)
F3 F 0.9997(5) 0.2147(3) 0.7497(2)
F4 F 0.7090(5) 0.2432(3) 0.8763(2)
F5 F 0.9701(5) 0.1836(3) 0.8746(2)
F6 F 0.7574(5) 0.0952(3) 0.7617(2)
Ru1 Ru 0.34725(6) 0.41840(3) 0.65576(2)
S1 S 0.0517(2) 0.23168(12) 0.42110(8)
N1 N 0.5494(6) 0.4084(3) 0.6128(2)
N2 N 0.3801(6) 0.5433(3) 0.6335(2)
N3 N 0.1618(6) 0.4777(3) 0.6933(2)
N4 N 0.4656(6) 0.4751(3) 0.7578(2)
N5 N 0.3246(6) 0.2916(3) 0.6863(2)
N6 N 0.2194(6) 0.3435(3) 0.5552(2)
C1 C 0.6330(8) 0.3366(4) 0.6044(3)
C2 C 0.7671(8) 0.3399(4) 0.5755(3)
C3 C 0.8205(8) 0.4209(4) 0.5551(3)
C4 C 0.7355(7) 0.4959(4) 0.5637(3)
C5 C 0.6019(8) 0.4882(4) 0.5926(3)
C6 C 0.5057(7) 0.5656(4) 0.6035(3)
C7 C 0.5309(8) 0.6536(4) 0.5887(3)
C8 C 0.4253(8) 0.7167(4) 0.6020(3)
C9 C 0.2987(8) 0.6919(4) 0.6325(3)
C10 C 0.2784(7) 0.6039(4) 0.6480(3)
C11 C 0.1539(8) 0.5674(4) 0.6830(3)
C12 C 0.0408(8) 0.6192(5) 0.7058(3)
C13 C -0.0688(9) 0.5813(5) 0.7406(4)
C14 C -0.0603(8) 0.4911(5) 0.7508(3)
C15 C 0.0552(8) 0.4418(4) 0.7265(3)
C16 C 0.5397(8) 0.5718(4) 0.7905(3)
C17 C 0.6250(7) 0.6047(4) 0.8572(3)
C18 C 0.6403(7) 0.5393(4) 0.8958(3)
C19 C 0.7428(7) 0.5756(4) 0.9679(3)
C20 C 0.6941(8) 0.6710(4) 1.0192(3)
C21 C 0.9062(8) 0.6039(5) 0.9552(3)
C22 C 0.7347(8) 0.4970(4) 1.0045(3)
C23 C 0.5626(7) 0.4402(4) 0.8617(3)
C24 C 0.4764(7) 0.4094(4) 0.7935(3)
C25 C 0.3933(7) 0.3055(4) 0.7538(3)
C26 C 0.3842(7) 0.2276(4) 0.7803(3)
C27 C 0.3110(7) 0.1307(4) 0.7378(3)
C28 C 0.2999(8) 0.0408(4) 0.7638(3)
C29 C 0.3612(10) 0.0716(4) 0.8426(3)
C30 C 0.3916(9) -0.0328(5) 0.7182(4)
C31 C 0.1322(9) -0.0130(5) 0.7505(4)
C32 C 0.2465(7) 0.1177(4) 0.6677(3)
C33 C 0.2529(7) 0.1987(4) 0.6447(3)
C34 C 0.1489(8) 0.2971(4) 0.5010(3)
H1 H 0.59850 0.28120 0.61900
H2 H 0.82200 0.28700 0.56960
H3 H 0.91300 0.42510 0.53560
H4 H 0.76910 0.55220 0.54980
H5 H 0.61970 0.67130 0.56950
H6 H 0.44000 0.77620 0.59020
H7 H 0.22690 0.73490 0.64250
H8 H 0.03740 0.68070 0.69780
H9 H -0.14740 0.61640 0.75680
H10 H -0.13340 0.46340 0.77440
H11 H 0.05940 0.37980 0.73360
H12 H 0.53200 0.61830 0.76620
H13 H 0.67500 0.67310 0.87800
H14 H 0.78240 0.71510 1.05280
H15 H 0.61750 0.65060 1.04650
H16 H 0.65180 0.70710 0.99030
H17 H 0.92790 0.67510 0.96000
H18 H 0.91920 0.56240 0.90640
H19 H 0.97580 0.59250 0.99100
H20 H 0.75510 0.53080 1.05720
H21 H 0.81040 0.45520 0.98880
H22 H 0.63360 0.45430 0.99110
H23 H 0.56860 0.39280 0.88540
H24 H 0.42880 0.24030 0.82850
H25 H 0.27950 0.08630 0.87180
H26 H 0.44090 0.13190 0.85630
H27 H 0.40320 0.01680 0.85110
H28 H 0.49660 -0.01580 0.74180
H29 H 0.38900 -0.02770 0.66990
H30 H 0.34730 -0.10170 0.71380
H31 H 0.11430 -0.04410 0.78710
H32 H 0.10980 -0.06500 0.70220
H33 H 0.06650 0.03630 0.75370
H34 H 0.19790 0.05250 0.63590
H35 H 0.20480 0.18830 0.59750
Cl1 Cl 0.8830(4) -0.1307(2) 0.94249(18)
Cl2 Cl 0.7433(4) -0.19013(19) 0.76709(15)
C35 C 0.8827(17) -0.0453(8) 0.8934(6)
C36 C 0.7497(18) -0.0752(7) 0.8396(5)
H36 H 0.88540 0.02340 0.92770
H37 H 0.97450 -0.04400 0.86930
H38 H 0.74510 -0.02100 0.81940
H39 H 0.65890 -0.08200 0.86370
Cl3 Cl 0.5818(2) -0.10890(13) 0.51275(9)
Cl4 Cl 0.8630(2) 0.08503(11) 0.52460(9)
C37 C 0.6817(9) -0.0135(5) 0.5942(3)
C38 C 0.8440(8) 0.0202(5) 0.5881(3)
H40 H 0.63100 0.04520 0.60590
H41 H 0.67740 -0.03990 0.63450
H42 H 0.89280 -0.03930 0.57260
H43 H 0.89720 0.06540 0.63630
Cl5 Cl 0.3741(9) 0.9087(6) 0.9978(2)
Cl6 Cl 0.3477(4) 0.78056(18) 0.82942(13)
C39 C 0.314(2) 0.7818(14) 0.9620(8)
C40 C 0.248(2) 0.7407(13) 0.8936(8)
H44 H 0.40170 0.75010 0.96700
H45 H 0.24100 0.76280 0.99240
H46 H 0.14560 0.75650 0.89060
H47 H 0.23630 0.66660 0.87900
#END
