
#######################################################################
#
#                 Cambridge Crystallographic Data Centre
#                                CCDC
#
#######################################################################
#
# If this CIF has been generated from an entry in the Cambridge
# Structural Database, then it will include bibliographic, chemical,
# crystal, experimental, refinement or atomic coordinate data resulting
# from the CCDC's data processing and validation procedures.
#
#######################################################################

data_CSD_CIF_NAMSAV
_audit_creation_date 1998-03-17
_audit_creation_method CSD-ConQuest-V1
_database_code_CSD NAMSAV
_database_code_depnum_ccdc_archive 'CCDC 100004'
_database_code_depnum_ccdc_journal 179/166
_chemical_formula_sum 'C36 H36 Co2 N10 O12'
_chemical_formula_moiety
;
(C36 H36 Co2 N10 O12)n
;
_journal_coden_Cambridge 179
_journal_volume 36
_journal_year 1997
_journal_page_first 972
_journal_name_full 'Angew.Chem.,Int.Ed. '
loop_
_publ_author_name
"T.L.Hennigar"
"D.C.MacQuarrie"
"P.Losier"
"R.D.Rogers"
"M.J.Zaworotko"
_chemical_name_systematic
;
catena-[tris(\m~2~-1,2-bis(4-Pyridyl)ethane)-tetrakis(nitrato)-di-cobalt(ii)]
;
_chemical_name_common
;
Teaching Subset: MOFs
;
_cell_volume   1967.116
_exptl_crystal_colour 'red'
_exptl_crystal_density_diffrn 1.551
_diffrn_ambient_temperature ?
_diffrn_special_details
;
The study was carried out at room temperature,in the range 283-303K

;
#These two values have been output from a single CSD field.
_refine_ls_R_factor_gt 0.033
_refine_ls_wR_factor_gt 0.033
_symmetry_cell_setting monoclinic
_symmetry_space_group_name_H-M 'P 21/n'
_symmetry_Int_Tables_number 14
loop_
_symmetry_equiv_pos_site_id
_symmetry_equiv_pos_as_xyz
1 x,y,z
2 1/2-x,1/2+y,1/2-z
3 -x,-y,-z
4 -1/2+x,-1/2-y,-1/2+z
_cell_length_a 9.3877(22)
_cell_length_b 17.312(3)
_cell_length_c 12.1175(17)
_cell_angle_alpha 90
_cell_angle_beta 92.72(2)
_cell_angle_gamma 90
_cell_formula_units_Z 2
loop_
_atom_type_symbol
_atom_type_radius_bond
C 0.68
H 0.23
Co 1.33
N 0.68
O 0.68
loop_
_atom_site_label
_atom_site_type_symbol
_atom_site_fract_x
_atom_site_fract_y
_atom_site_fract_z
O1 O 0.3371(6) 0.2941(3) 0.1419(5)
O2 O 0.5475(5) 0.2543(4) 0.1045(5)
O3 O 0.3595(6) 0.1908(3) 0.0495(5)
O4 O -0.0760(5) 0.1943(3) 0.0245(4)
O5 O 0.0901(7) 0.1394(3) -0.0540(5)
O6 O -0.1259(8) 0.1036(4) -0.0921(5)
N1 N 0.4191(7) 0.2464(5) 0.1011(6)
N2 N -0.0400(8) 0.1444(4) -0.0448(5)
N3 N 0.1417(7) 0.3108(3) -0.0617(5)
N4 N 0.0246(6) 0.3226(3) 0.1740(4)
N5 N 0.1367(6) 0.1561(3) 0.2154(5)
C1 C 0.0277(8) 0.3512(5) -0.0980(7)
C2 C 0.0171(8) 0.3920(5) -0.1960(6)
C3 C 0.1306(8) 0.3920(4) -0.2647(6)
C4 C 0.2506(7) 0.3516(4) -0.2261(6)
C5 C 0.2511(8) 0.3120(4) -0.1278(6)
C6 C 0.0935(7) 0.3731(4) 0.2408(7)
C7 C 0.0311(8) 0.4256(4) 0.3052(6)
C8 C -0.1165(8) 0.4309(4) 0.3056(5)
C9 C -0.1892(7) 0.3796(4) 0.2379(6)
C10 C -0.1192(8) 0.3261(4) 0.1752(6)
C11 C 0.1251(7) 0.4304(4) -0.3762(5)
C12 C -0.1927(8) 0.4886(4) 0.3741(6)
C13 C 0.1158(8) 0.0802(4) 0.1967(6)
C14 C 0.0985(8) 0.0271(4) 0.2799(7)
C15 C 0.1041(7) 0.0505(4) 0.3887(6)
C16 C 0.1300(8) 0.1270(4) 0.4081(6)
C17 C 0.1476(8) 0.1779(4) 0.3220(6)
C18 C 0.0764(7) -0.0039(4) 0.4822(6)
Co1 Co 0.13663(10) 0.23885(5) 0.08077(8)
H1 H -0.05800 0.35400 -0.04800
H2 H -0.07600 0.42100 -0.22200
H3 H 0.34100 0.35100 -0.27200
H4 H 0.34500 0.28400 -0.10200
H5 H 0.20500 0.37200 0.24400
H6 H 0.09300 0.46200 0.35500
H7 H -0.29800 0.38200 0.23400
H8 H -0.18100 0.28800 0.12600
H9 H 0.11200 0.06100 0.11600
H10 H 0.08200 -0.03100 0.26200
H11 H 0.13000 0.14600 0.48800
H12 H 0.17000 0.23500 0.34100
H13 H 0.17600 0.39400 -0.43700
H14 H 0.01200 0.43700 -0.40700
H15 H -0.19500 0.46700 0.46000
H16 H -0.30300 0.49500 0.34400
H17 H 0.09600 -0.06400 0.46000
H18 H 0.14900 0.00900 0.55500
C12B C 0.1927(8) 0.5114(4) -0.3741(6)
C8B C 0.1165(8) 0.5691(4) -0.3056(5)
C7B C -0.0311(8) 0.5744(4) -0.3052(6)
C6B C -0.0935(7) 0.6269(4) -0.2408(7)
N4B N -0.0246(6) 0.6774(3) -0.1740(4)
C10B C 0.1192(8) 0.6739(4) -0.1752(6)
C9B C 0.1892(7) 0.6204(4) -0.2379(6)
H7B H 0.29800 0.61800 -0.23400
H8B H 0.18100 0.71200 -0.12600
Co1B Co -0.13663(10) 0.76115(5) -0.08077(8)
O1B O -0.3371(6) 0.7059(3) -0.1419(5)
N1B N -0.4191(7) 0.7536(5) -0.1011(6)
O2B O -0.5475(5) 0.7457(4) -0.1045(5)
O3B O -0.3595(6) 0.8092(3) -0.0495(5)
O4B O 0.0760(5) 0.8057(3) -0.0245(4)
N2B N 0.0400(8) 0.8556(4) 0.0448(5)
O5B O -0.0901(7) 0.8606(3) 0.0540(5)
N3B N -0.1417(7) 0.6892(3) 0.0617(5)
C1B C -0.0277(8) 0.6488(5) 0.0980(7)
C2B C -0.0171(8) 0.6080(5) 0.1960(6)
C3B C -0.1306(8) 0.6080(4) 0.2647(6)
C4B C -0.2506(7) 0.6484(4) 0.2261(6)
C5B C -0.2511(8) 0.6880(4) 0.1278(6)
H4B H -0.34500 0.71600 0.10200
H3B H -0.34100 0.64900 0.27200
C11B C -0.1251(7) 0.5696(4) 0.3762(5)
C18B C -0.0764(7) 0.0039(4) 0.5178(6)
C15B C -0.1041(7) -0.0505(4) 0.6113(6)
C14B C -0.0985(8) -0.0271(4) 0.7201(7)
C13B C -0.1158(8) -0.0802(4) 0.8033(6)
N5B N -0.1367(6) -0.1561(3) 0.7846(5)
C17B C -0.1476(8) -0.1779(4) 0.6780(6)
C16B C -0.1300(8) -0.1270(4) 0.5919(6)
H11B H -0.13000 -0.14600 0.51200
H12B H -0.17000 -0.23500 0.65900
Co1B* Co -0.13663(10) -0.23885(5) 0.91923(8)
H9B H -0.11200 -0.06100 0.88400
H10B H -0.08200 0.03100 0.73800
H17B H -0.09600 0.06400 0.54000
H18B H -0.14900 -0.00900 0.44500
H13B H -0.17600 0.60600 0.43700
H14B H -0.01200 0.56300 0.40700
H2B H 0.07600 0.57900 0.22200
H1B H 0.05800 0.64600 0.04800
N5B* N -0.1367(6) 0.8439(3) -0.2154(5)
O6B O 0.1259(8) 0.8964(4) 0.0921(5)
H5B H -0.20500 0.62800 -0.24400
H6B H -0.09300 0.53800 -0.35500
H15B H 0.19500 0.53300 -0.46000
H16B H 0.30300 0.50500 -0.34400
#END
