
#######################################################################
#
#                 Cambridge Crystallographic Data Centre
#                                CCDC
#
#######################################################################
#
# If this CIF has been generated from an entry in the Cambridge
# Structural Database, then it will include bibliographic, chemical,
# crystal, experimental, refinement or atomic coordinate data resulting
# from the CCDC's data processing and validation procedures.
#
#######################################################################

data_CSD_CIF_NAMSEZ
_audit_creation_date 1998-03-17
_audit_creation_method CSD-ConQuest-V1
_database_code_CSD NAMSEZ
_database_code_depnum_ccdc_archive 'CCDC 120532; CCDC 100004'
_database_code_depnum_ccdc_journal 179/166
_chemical_formula_sum 'C40 H42 Co2 N12 O12'
_chemical_formula_moiety
;
(C36 H36 Co2 N10 O12)n,2n(C2 H3 N1)
;
_journal_coden_Cambridge 179
_journal_volume 36
_journal_year 1997
_journal_page_first 972
_journal_name_full 'Angew.Chem.,Int.Ed. '
loop_
_publ_author_name
"T.L.Hennigar"
"D.C.MacQuarrie"
"P.Losier"
"R.D.Rogers"
"M.J.Zaworotko"
_chemical_name_systematic
;
catena-[tris(\m~2~-1,2-bis(4-Pyridyl)ethane)-tetrakis(nitrato)-di-cobalt(ii) 
acetonitrile solvate]
;
_chemical_name_common
;
Teaching Subset: Fundamental Chemistry, Symmetry
;
_cell_volume   4560.401
_exptl_crystal_colour 'red'
_exptl_crystal_density_diffrn 1.454
_diffrn_ambient_temperature ?
_diffrn_special_details
;
The study was carried out at room temperature,in the range 283-303K

;
#These two values have been output from a single CSD field.
_refine_ls_R_factor_gt 0.062
_refine_ls_wR_factor_gt 0.062
_symmetry_cell_setting monoclinic
_symmetry_space_group_name_H-M 'C 2/c'
_symmetry_Int_Tables_number 15
loop_
_symmetry_equiv_pos_site_id
_symmetry_equiv_pos_as_xyz
1 x,y,z
2 -x,y,1/2-z
3 1/2+x,1/2+y,z
4 1/2-x,1/2+y,1/2-z
5 -x,-y,-z
6 x,-y,-1/2+z
7 -1/2-x,-1/2-y,-z
8 -1/2+x,-1/2-y,-1/2+z
_cell_length_a 25.726(8)
_cell_length_b 8.910(2)
_cell_length_c 20.0070(22)
_cell_angle_alpha 90
_cell_angle_beta 96.054(20)
_cell_angle_gamma 90
_cell_formula_units_Z 4
loop_
_atom_type_symbol
_atom_type_radius_bond
C 0.68
H 0.23
Co 1.33
N 0.68
O 0.68
loop_
_atom_site_label
_atom_site_type_symbol
_atom_site_fract_x
_atom_site_fract_y
_atom_site_fract_z
O1 O 0.0940(3) -0.6221(10) -0.1011(3)
O2 O 0.07521(18) -0.5402(6) -0.00593(25)
O3 O 0.10305(21) -0.7588(7) -0.0135(3)
O4 O 0.14862(20) -0.9886(7) 0.2093(3)
O5 O 0.12126(20) -0.9175(7) 0.1089(3)
O6 O 0.12137(17) -0.7637(6) 0.1889(3)
N1 N 0.09159(3) -0.6327(9) -0.0433(4)
N2 N 0.13096(22) -0.8941(8) 0.1699(4)
N3 N 0.07743(16) -0.4631(5) 0.14235(24)
N4 N 0.17520(17) -0.5908(6) 0.0843(3)
N5 N 0.51819(15) -0.2403(5) 0.09530(24)
C1 C 0.04237(23) -0.3699(8) 0.1132(3)
C2 C 0.02635(25) -0.2413(8) 0.1447(4)
C3 C 0.04708(23) -0.2100(7) 0.2098(3)
C4 C 0.08282(24) -0.3075(8) 0.2390(3)
C5 C 0.09801(22) -0.4330(7) 0.2043(3)
C6 C 0.02918(23) -0.0734(7) 0.2460(3)
C7 C 0.18592(25) -0.4443(9) 0.0777(4)
C8 C 0.2357(3) -0.3932(9) 0.0714(5)
C9 C 0.2757(3) -0.4876(12) 0.0704(5)
C10 C 0.2650(3) -0.6366(11) 0.0773(5)
C11 C 0.21467(23) -0.6809(8) 0.0834(4)
C12 C 0.49039(22) -0.2069(7) 0.1466(3)
C13 C 0.44025(23) -0.2528(8) 0.1497(4)
C14 C 0.41476(22) -0.3352(9) 0.0986(4)
C15 C 0.44294(22) -0.3710(8) 0.0451(4)
C16 C 0.49353(20) -0.3207(7) 0.0460(3)
C17 C 0.3600(3) -0.3945(13) 0.1053(6)
C18 C 0.3310(3) -0.4275(13) 0.0579(6)
Co1 Co 0.09660(3) -0.66263(9) 0.09129(4)
H1 H 0.02700 -0.39300 0.06500
H2 H -0.00200 -0.17400 0.11900
H3 H 0.10000 -0.29000 0.28700
H4 H 0.12700 -0.50500 0.22700
H5 H 0.05100 -0.06700 0.29700
H6 H 0.04000 0.02900 0.21900
H7 H 0.15600 -0.36800 0.07900
H8 H 0.24200 -0.27900 0.06600
H9 H 0.29500 -0.71600 0.07800
H10 H 0.20800 -0.79600 0.08900
H11 H 0.50800 -0.14100 0.18500
H12 H 0.42100 -0.22500 0.19100
H13 H 0.42600 -0.43200 0.00500
H14 H 0.51400 -0.34700 0.00600
H15 H 0.33900 -0.33600 0.14200
H16 H 0.36400 -0.51800 0.13200
H17 H 0.32600 -0.30900 0.02800
H18 H 0.35000 -0.49200 0.01800
N6 N 0.7748(11) -0.508(3) -0.8432(17)
C19 C 0.7701(10) -0.594(4) -0.8090(18)
C20 C 0.7466(11) -0.711(3) -0.7611(14)
C6A C -0.02918(23) -0.0734(7) 0.2540(3)
C3A C -0.04708(23) -0.2100(7) 0.2902(3)
C2A C -0.02635(25) -0.2413(8) 0.3553(4)
C1A C -0.04237(23) -0.3699(8) 0.3868(3)
N3A N -0.07743(16) -0.4631(5) 0.35765(24)
C5A C -0.09801(22) -0.4330(7) 0.2957(3)
C4A C -0.08282(24) -0.3075(8) 0.2610(3)
H3A H -0.10000 -0.29000 0.21300
H4A H -0.12700 -0.50500 0.27300
H1A H -0.02700 -0.39300 0.43500
H2A H 0.00200 -0.17400 0.38100
H5A H -0.05100 -0.06700 0.20300
H6A H -0.04000 0.02900 0.28100
N5B N 0.01819(15) -0.7403(5) 0.09530(24)
Co1A Co -0.09660(3) -0.66263(9) 0.40871(4)
Co1B Co 0.59660(3) -0.16263(9) 0.09129(4)
O1A O -0.0940(3) -0.6221(10) 0.6011(3)
O2A O -0.07521(18) -0.5402(6) 0.50593(25)
O3A O -0.10305(21) -0.7588(7) 0.5135(3)
N1A N -0.09159(3) -0.6327(9) 0.5433(4)
O4A O -0.14862(20) -0.9886(7) 0.2907(3)
O5A O -0.12126(20) -0.9175(7) 0.3911(3)
O6A O -0.12137(17) -0.7637(6) 0.3111(3)
N2A N -0.13096(22) -0.8941(8) 0.3301(4)
N4A N -0.17520(17) -0.5908(6) 0.4157(3)
N5A N -0.51819(15) -0.2403(5) 0.40470(24)
C7A C -0.18592(25) -0.4443(9) 0.4223(4)
C8A C -0.2357(3) -0.3932(9) 0.4286(5)
C9A C -0.2757(3) -0.4876(12) 0.4296(5)
C10A C -0.2650(3) -0.6366(11) 0.4227(5)
C11A C -0.21467(23) -0.6809(8) 0.4166(4)
C12A C -0.49039(22) -0.2069(7) 0.3534(3)
C13A C -0.44025(23) -0.2528(8) 0.3503(4)
C14A C -0.41476(22) -0.3352(9) 0.4014(4)
C15A C -0.44294(22) -0.3710(8) 0.4549(4)
C16A C -0.49353(20) -0.3207(7) 0.4540(3)
C17A C -0.3600(3) -0.3945(13) 0.3947(6)
C18A C -0.3310(3) -0.4275(13) 0.4421(6)
H7A H -0.15600 -0.36800 0.42100
H8A H -0.24200 -0.27900 0.43400
H9A H -0.29500 -0.71600 0.42200
H10A H -0.20800 -0.79600 0.41100
H11A H -0.50800 -0.14100 0.31500
H12A H -0.42100 -0.22500 0.30900
H13A H -0.42600 -0.43200 0.49500
H14A H -0.51400 -0.34700 0.49400
H15A H -0.33900 -0.33600 0.35800
H16A H -0.36400 -0.51800 0.36800
H17A H -0.32600 -0.30900 0.47200
H18A H -0.35000 -0.49200 0.48200
N5C N -0.01819(15) -0.7403(5) 0.40470(24)
Co1C Co -0.59660(3) -0.16263(9) 0.40871(4)
#END
