
#######################################################################
#
#                 Cambridge Crystallographic Data Centre
#                                CCDC
#
#######################################################################
#
# If this CIF has been generated from an entry in the Cambridge
# Structural Database, then it will include bibliographic, chemical,
# crystal, experimental, refinement or atomic coordinate data resulting
# from the CCDC's data processing and validation procedures.
#
#######################################################################

data_CSD_CIF_NAMTOK
_audit_creation_date 1998-03-17
_audit_creation_method CSD-ConQuest-V1
_database_code_CSD NAMTOK
_database_code_depnum_ccdc_archive 'CCDC 120533; CCDC 100004'
_database_code_depnum_ccdc_journal 179/166
_chemical_formula_sum 'C42 H42 Cl18 Co2 N10 O12'
_chemical_formula_moiety
;
(C36 H36 Co2 N10 O12)n,6n(C1 H1 Cl3)
;
_journal_coden_Cambridge 179
_journal_volume 36
_journal_year 1997
_journal_page_first 972
_journal_name_full 'Angew.Chem.,Int.Ed. '
loop_
_publ_author_name
"T.L.Hennigar"
"D.C.MacQuarrie"
"P.Losier"
"R.D.Rogers"
"M.J.Zaworotko"
_chemical_name_systematic
;
catena-[tris(\m~2~-1,2-bis(4-Pyridyl)ethane)-bis(nitrato-O)-bis(nitrato-O,O')-
di-cobalt(ii) chloroform solvate]
;
_chemical_name_common
;
Teaching Subset: MOFs
;
_cell_volume   1647.331
_exptl_crystal_colour 'red'
_exptl_crystal_density_diffrn 1.671
_diffrn_ambient_temperature ?
_diffrn_special_details
;
The study was carried out at room temperature,in the range 283-303K

;
_refine_special_details
;
The chloroform solvent chlorine atoms are disordered.

;
#These two values have been output from a single CSD field.
_refine_ls_R_factor_gt 0.055
_refine_ls_wR_factor_gt 0.055
_symmetry_cell_setting triclinic
_symmetry_space_group_name_H-M 'P -1'
_symmetry_Int_Tables_number 2
loop_
_symmetry_equiv_pos_site_id
_symmetry_equiv_pos_as_xyz
1 x,y,z
2 -x,-y,-z
_cell_length_a 10.2879(7)
_cell_length_b 13.4053(9)
_cell_length_c 13.9371(10)
_cell_angle_alpha 109.65(1)
_cell_angle_beta 108.79(1)
_cell_angle_gamma 97.897(10)
_cell_formula_units_Z 1
loop_
_atom_type_symbol
_atom_type_radius_bond
C 0.68
H 0.23
Cl 0.99
Co 1.33
N 0.68
O 0.68
loop_
_atom_site_label
_atom_site_type_symbol
_atom_site_fract_x
_atom_site_fract_y
_atom_site_fract_z
C1 C 0.9925(8) 0.1983(6) 0.5493(7)
Cl1 Cl 0.9364(5) 0.32286(22) 0.5637(3)
Cl2 Cl 0.9504(3) 0.12863(19) 0.40932(20)
Cl3 Cl 0.89985(23) 0.12650(17) 0.60026(18)
H1 H 1.10900 0.22000 0.59600
C2 C 0.4913(9) 0.2247(6) 0.7012(7)
Cl4 Cl 0.3664(3) 0.09722(19) 0.62480(24)
Cl5 Cl 0.6161(3) 0.25203(24) 0.6488(3)
Cl6 Cl 0.39898(22) 0.32755(19) 0.71148(21)
H2 H 0.54800 0.23100 0.78500
C3 C 0.6211(7) 0.8970(5) 0.7175(6)
Cl7 Cl 0.44113(17) 0.82215(14) 0.65115(16)
Cl8 Cl 0.69526(20) 0.90372(14) 0.85296(16)
Cl9 Cl 0.72012(19) 0.83899(18) 0.64264(17)
H3 H 0.62800 0.98000 0.72200
O1 O 0.9060(4) 0.2405(3) 1.0006(3)
O2 O 0.6773(4) 0.1921(3) 0.9197(4)
O3 O 0.8055(5) 0.1413(3) 0.8235(4)
O4 O 0.7544(4) 0.3889(3) 1.2621(4)
O5 O 0.5370(5) 0.3977(4) 1.2324(4)
O6 O 0.5895(4) 0.2954(3) 1.1000(4)
N1 N 0.7952(5) 0.1898(4) 0.9111(5)
N2 N 0.6243(5) 0.3615(4) 1.1993(5)
N3 N 0.7943(4) 0.1481(3) 1.1323(4)
N4 N 0.8108(4) -0.5545(3) 1.0832(4)
N5 N 1.0280(4) 0.3667(3) 1.2440(4)
C4 C 0.9050(5) 0.1026(4) 1.1413(5)
C5 C 0.8947(5) -0.0018(4) 1.1404(5)
C6 C 0.7664(6) -0.0645(4) 1.1288(5)
C7 C 0.6536(5) -0.0170(4) 1.1204(5)
C8 C 0.6707(5) 0.0876(4) 1.1220(5)
C9 C 0.7527(6) -0.1790(4) 1.1268(5)
C10 C 0.7783(5) -0.2575(4) 1.0307(5)
C11 C 0.7899(6) -0.3630(4) 1.0438(5)
C12 C 0.9139(5) -0.3670(4) 1.1191(5)
C13 C 0.9202(6) -0.4624(5) 1.1358(5)
C14 C 0.6939(6) -0.5502(4) 1.0081(5)
C15 C 0.6781(6) -0.4587(4) 0.9857(5)
C16 C 1.0549(6) 0.3921(5) 1.3506(5)
C17 C 1.1897(6) 0.4461(5) 1.4349(5)
C18 C 1.3046(6) 0.4764(5) 1.4083(5)
C19 C 1.2780(6) 0.4479(5) 1.2971(5)
C20 C 1.1407(6) 0.3939(4) 1.2195(5)
C21 C 1.4541(6) 0.5383(5) 1.4963(5)
Co1 Co 0.81527(7) 0.30288(6) 1.12080(7)
H4 H 0.99800 0.14600 1.14800
H5 H 0.97900 -0.03300 1.14800
H6 H 0.55900 -0.05900 1.11400
H7 H 0.58800 0.12100 1.11600
H8 H 0.82300 -0.17400 1.19900
H9 H 0.65400 -0.21000 1.12000
H10 H 0.87100 -0.22100 1.03000
H11 H 0.69900 -0.27200 0.95900
H12 H 1.00000 -0.30100 1.16000
H13 H 1.01100 -0.46300 1.19200
H14 H 0.61100 -0.61900 0.96500
H15 H 0.58600 -0.46000 0.93000
H16 H 0.97200 0.37100 1.37200
H17 H 1.20600 0.46500 1.51500
H18 H 1.35900 0.46700 1.27400
H19 H 1.12400 0.37300 1.13900
H20 H 1.45100 0.57700 1.57100
H21 H 1.50100 0.59800 1.47800
Cl10? Cl 1.0749(18) 0.3400(13) 0.6111(14)
Cl11? Cl 0.4919(21) 0.0783(16) 0.5769(18)
Cl12? Cl 0.366(6) 0.223(5) 0.658(5)
N5A N 1.9720(4) 0.6333(3) 1.7560(4)
C16A C 1.9451(6) 0.6079(5) 1.6494(5)
C17A C 1.8103(6) 0.5539(5) 1.5651(5)
C18A C 1.6954(6) 0.5236(5) 1.5917(5)
C19A C 1.7220(6) 0.5521(5) 1.7029(5)
C20A C 1.8593(6) 0.6061(4) 1.7805(5)
C21A C 1.5459(6) 0.4617(5) 1.5037(5)
H16A H 2.02800 0.62900 1.62800
H17A H 1.79400 0.53500 1.48500
H18A H 1.64100 0.53300 1.72600
H19A H 1.87600 0.62700 1.86100
H20A H 1.54900 0.42300 1.42900
H21A H 1.49900 0.40200 1.52200
O1A O 2.0940(4) 0.7595(3) 1.9994(3)
O2A O 2.3227(4) 0.8079(3) 2.0803(4)
O3A O 2.1945(5) 0.8587(3) 2.1765(4)
O4A O 2.2456(4) 0.6111(3) 1.7379(4)
O5A O 2.4630(5) 0.6023(4) 1.7676(4)
O6A O 2.4105(4) 0.7046(3) 1.9000(4)
N1A N 2.2048(5) 0.8102(4) 2.0889(5)
N2A N 2.3757(5) 0.6385(4) 1.8007(5)
N3A N 2.2057(4) 0.8519(3) 1.8677(4)
N4A N 2.1892(4) 1.5545(3) 1.9168(4)
C4A C 2.0950(5) 0.8974(4) 1.8587(5)
C5A C 2.1053(5) 1.0018(4) 1.8596(5)
C6A C 2.2336(6) 1.0645(4) 1.8712(5)
C7A C 2.3464(5) 1.0170(4) 1.8796(5)
C8A C 2.3293(5) 0.9124(4) 1.8780(5)
C9A C 2.2473(6) 1.1790(4) 1.8732(5)
C10A C 2.2217(5) 1.2575(4) 1.9693(5)
C11A C 2.2101(6) 1.3630(4) 1.9562(5)
C12A C 2.0861(5) 1.3670(4) 1.8809(5)
C13A C 2.0798(6) 1.4624(5) 1.8642(5)
C14A C 2.3061(6) 1.5502(4) 1.9919(5)
C15A C 2.3219(6) 1.4587(4) 2.0143(5)
Co1A Co 2.18473(7) 0.69712(6) 1.87920(7)
H4A H 2.00200 0.85400 1.85200
H5A H 2.02100 1.03300 1.85200
H6A H 2.44100 1.05900 1.88600
H7A H 2.41200 0.87900 1.88400
H8A H 2.17700 1.17400 1.80100
H9A H 2.34600 1.21000 1.88000
H10A H 2.12900 1.22100 1.97000
H11A H 2.30100 1.27200 2.04100
H12A H 2.00000 1.30100 1.84000
H13A H 1.98900 1.46300 1.80800
H14A H 2.38900 1.61900 2.03500
H15A H 2.41400 1.46000 2.07000
N4* N 0.8108(4) 0.4455(3) 1.0832(4)
N4A* N 2.1892(4) 0.5545(3) 1.9168(4)
Co1* Co 0.81527(7) -0.69712(6) 1.12080(7)
Co1A* Co 2.18473(7) 1.69712(6) 1.87920(7)
#END
