
#######################################################################
#
#                 Cambridge Crystallographic Data Centre
#                                CCDC
#
#######################################################################
#
# If this CIF has been generated from an entry in the Cambridge
# Structural Database, then it will include bibliographic, chemical,
# crystal, experimental, refinement or atomic coordinate data resulting
# from the CCDC's data processing and validation procedures.
#
#######################################################################

data_CSD_CIF_NARGET
_audit_creation_date 2005-09-27
_audit_creation_method CSD-ConQuest-V1
_database_code_CSD NARGET
_database_code_depnum_ccdc_archive 'CCDC 274729'
_chemical_formula_sum 'C18 H31 N3'
_chemical_formula_moiety
;
C13 H26 N3 1+,C5 H5 1-
;
_journal_coden_Cambridge 579
_journal_volume 24
_journal_year 2005
_journal_page_first 2597
_journal_name_full 'Organometallics '
loop_
_publ_author_name
"S.T.Liddle"
"P.L.Arnold"
_chemical_name_systematic
;
1-t-Butyl-3-(2-(t-butylamino)ethyl)imidazolium cyclopentadienide
;
_chemical_name_common
;
Teaching Subset: Fundamental Chemistry
;
_cell_volume   1875.760
_exptl_crystal_colour 'colorless'
_exptl_crystal_density_diffrn 1.025
_exptl_crystal_description 'block'
_diffrn_ambient_temperature 150
#These two values have been output from a single CSD field.
_refine_ls_R_factor_gt 0.0413
_refine_ls_wR_factor_gt 0.0413
_symmetry_cell_setting monoclinic
_symmetry_space_group_name_H-M 'P 21/c'
_symmetry_Int_Tables_number 14
loop_
_symmetry_equiv_pos_site_id
_symmetry_equiv_pos_as_xyz
1 x,y,z
2 -x,1/2+y,1/2-z
3 -x,-y,-z
4 x,-1/2-y,-1/2+z
_cell_length_a 14.040(4)
_cell_length_b 9.176(2)
_cell_length_c 15.583(4)
_cell_angle_alpha 90
_cell_angle_beta 110.878(4)
_cell_angle_gamma 90
_cell_formula_units_Z 4
loop_
_atom_type_symbol
_atom_type_radius_bond
C 0.68
H 0.23
N 0.68
loop_
_atom_site_label
_atom_site_type_symbol
_atom_site_fract_x
_atom_site_fract_y
_atom_site_fract_z
N1 N 0.40644(10) -0.19300(15) 0.38506(10)
H1 H 0.3748(13) -0.2065(19) 0.3270(13)
N2 N 0.20239(8) -0.11646(14) 0.37689(8)
N3 N 0.16037(9) 0.10090(14) 0.32391(8)
C1 C 0.19170(11) -0.02848(17) 0.30667(10)
H2 H 0.20440 -0.05400 0.25260
C2 C 0.17630(12) -0.0425(2) 0.44103(11)
H3 H 0.17680 -0.07940 0.49810
C3 C 0.14984(12) 0.0922(2) 0.40825(11)
H4 H 0.12770 0.16840 0.43800
C4 C 0.13870(13) 0.22957(17) 0.26047(12)
C5 C 0.04156(16) 0.1973(3) 0.18085(16)
H5 H 0.04950 0.10630 0.15120
H6 H 0.02710 0.27720 0.13630
H7 H -0.01500 0.18740 0.20340
C6 C 0.1267(2) 0.3630(2) 0.31216(18)
H8 H 0.06740 0.35080 0.33070
H9 H 0.11680 0.44880 0.27250
H10 H 0.18810 0.37610 0.36690
C7 C 0.22714(17) 0.2476(2) 0.22804(17)
H11 H 0.28980 0.26360 0.28110
H12 H 0.21470 0.33160 0.18660
H13 H 0.23430 0.15950 0.19540
C8 C 0.23928(12) -0.26667(17) 0.38529(11)
H14 H 0.21960 -0.31010 0.32320
H15 H 0.20580 -0.32380 0.42050
C9 C 0.35332(12) -0.27781(19) 0.43237(12)
H16 H 0.37270 -0.24260 0.49640
H17 H 0.37420 -0.38120 0.43440
C10 C 0.51580(13) -0.2226(2) 0.40834(13)
C11 C 0.55420(16) -0.1096(3) 0.35773(18)
H18 H 0.51980 -0.12250 0.29140
H19 H 0.62790 -0.12120 0.37370
H20 H 0.53980 -0.01190 0.37540
C12 C 0.53438(19) -0.3751(3) 0.3786(2)
H21 H 0.50740 -0.44770 0.41010
H22 H 0.60780 -0.39060 0.39460
H23 H 0.49990 -0.38510 0.31210
C13 C 0.57099(15) -0.2061(3) 0.51122(15)
H24 H 0.55660 -0.10960 0.53070
H25 H 0.64450 -0.21660 0.52580
H26 H 0.54740 -0.28140 0.54360
C14 C -0.09899(17) 0.3180(3) 0.42007(13)
H27 H -0.03060 0.34940 0.44970
C15 C -0.1854(2) 0.3930(2) 0.41770(13)
H28 H -0.18670 0.48490 0.44530
C16 C -0.26985(17) 0.3104(3) 0.36786(13)
H29 H -0.33910 0.33570 0.35530
C17 C -0.23499(15) 0.1843(2) 0.33979(12)
H30 H -0.27630 0.10770 0.30470
C18 C -0.12951(15) 0.1893(2) 0.37169(12)
H31 H -0.08580 0.11720 0.36210
#END
