
#######################################################################
#
#                 Cambridge Crystallographic Data Centre
#                                CCDC
#
#######################################################################
#
# If this CIF has been generated from an entry in the Cambridge
# Structural Database, then it will include bibliographic, chemical,
# crystal, experimental, refinement or atomic coordinate data resulting
# from the CCDC's data processing and validation procedures.
#
#######################################################################

data_CSD_CIF_NARLEY
_audit_creation_date 2005-09-27
_audit_creation_method CSD-ConQuest-V1
_database_code_CSD NARLEY
_database_code_depnum_ccdc_archive 'CCDC 267931'
_chemical_formula_sum 'C32 H27 Cl6 Ir1 N3 Sb1'
_chemical_formula_moiety
;
C30 H24 Ir1 N2 1+,Cl6 Sb1 1-,C2 H3 N1
;
_journal_coden_Cambridge 579
_journal_volume 24
_journal_year 2005
_journal_page_first 2997
_journal_name_full 'Organometallics '
loop_
_publ_author_name
"F.Lang"
"F.Breher"
"D.Stein"
"H.Grutzmacher"
_chemical_name_systematic
;
(\h^4^-(R(S))-5-(naphthyl)dibenzo(a,e)cyclooctene)-bis(acetonitrile)-iridium(i
) hexachloroantimonate acetonitrile solvate
;
_chemical_name_common
;
Teaching Subset: Fundamental Chemistry
;
_chemical_melting_point ?
_cell_volume   3075.910
_exptl_crystal_colour 'yellow'
_exptl_crystal_density_diffrn 2.117
_exptl_special_details
;
Decomposes above 458.15K

;
_exptl_crystal_description 'needle'
_exptl_crystal_preparation 'dichloromethane/hexane'
_diffrn_ambient_temperature 200
#These two values have been output from a single CSD field.
_refine_ls_R_factor_gt 0.0483
_refine_ls_wR_factor_gt 0.0483
_symmetry_cell_setting monoclinic
_symmetry_space_group_name_H-M 'P 21/c'
_symmetry_Int_Tables_number 14
loop_
_symmetry_equiv_pos_site_id
_symmetry_equiv_pos_as_xyz
1 x,y,z
2 -x,1/2+y,1/2-z
3 -x,-y,-z
4 x,-1/2-y,-1/2+z
_cell_length_a 13.904(4)
_cell_length_b 9.393(2)
_cell_length_c 23.682(6)
_cell_angle_alpha 90
_cell_angle_beta 96.004(5)
_cell_angle_gamma 90
_cell_formula_units_Z 4
loop_
_atom_type_symbol
_atom_type_radius_bond
C 0.68
H 0.23
Cl 0.99
Ir 1.32
N 0.68
Sb 1.23
loop_
_atom_site_label
_atom_site_type_symbol
_atom_site_fract_x
_atom_site_fract_y
_atom_site_fract_z
Ir1 Ir 0.334563(19) 0.16477(3) 0.390597(12)
C1 C 0.2243(5) -0.2443(8) 0.3282(3)
H1 H 0.26870 -0.28380 0.30470
C2 C 0.1384(6) -0.3144(8) 0.3344(4)
H2 H 0.12390 -0.40160 0.31510
C3 C 0.0734(5) -0.2568(8) 0.3692(3)
H3 H 0.01420 -0.30440 0.37330
C4 C 0.0950(5) -0.1298(8) 0.3977(3)
H4 H 0.05070 -0.09020 0.42130
C5 C 0.2086(4) 0.0774(7) 0.4214(3)
C6 C 0.2883(5) 0.0815(7) 0.4656(3)
H5 H 0.28150 0.15360 0.49600
C7 C 0.3436(5) -0.1045(8) 0.5381(3)
H6 H 0.30210 -0.06510 0.56340
C8 C 0.4010(6) -0.2210(9) 0.5545(4)
H7 H 0.39810 -0.26300 0.59080
C9 C 0.4633(6) -0.2765(9) 0.5173(4)
H8 H 0.50230 -0.35680 0.52840
C10 C 0.4685(6) -0.2166(9) 0.4652(4)
H9 H 0.51230 -0.25340 0.44070
C11 C 0.4142(5) -0.0287(8) 0.3926(3)
H10 H 0.47990 -0.02300 0.37910
C12 C 0.3355(5) -0.0339(8) 0.3497(3)
H11 H 0.35400 -0.03050 0.31000
C13 C 0.2460(5) -0.1155(8) 0.3565(3)
C14 C 0.1828(5) -0.0602(7) 0.3916(3)
C15 C 0.3469(5) -0.0454(8) 0.4846(3)
C16 C 0.4090(5) -0.0998(8) 0.4480(4)
C17 C 0.1277(5) 0.1821(7) 0.4229(3)
C18 C 0.0942(5) 0.2150(8) 0.4736(3)
H12 H 0.12340 0.17240 0.50760
C19 C 0.0171(6) 0.3109(9) 0.4761(4)
H13 H -0.00400 0.33370 0.51190
C20 C -0.0280(6) 0.3720(9) 0.4280(4)
H14 H -0.08050 0.43580 0.43030
C21 C -0.0404(6) 0.4003(8) 0.3237(4)
H15 H -0.09310 0.46380 0.32560
C22 C -0.0107(6) 0.3716(9) 0.2726(4)
H16 H -0.04090 0.41570 0.23920
C23 C 0.0664(6) 0.2743(9) 0.2695(3)
H17 H 0.08650 0.25110 0.23350
C24 C 0.1121(5) 0.2134(8) 0.3169(3)
H18 H 0.16470 0.15040 0.31370
C25 C 0.0822(5) 0.2427(7) 0.3714(3)
C26 C 0.0042(5) 0.3395(8) 0.3749(4)
N1 N 0.4137(5) 0.2507(7) 0.3318(3)
C27 C 0.4535(6) 0.2995(9) 0.2970(4)
C28 C 0.5050(8) 0.3591(11) 0.2524(4)
H19 H 0.57110 0.38330 0.26780
H20 H 0.47170 0.44510 0.23730
H21 H 0.50700 0.28910 0.22180
N2 N 0.3013(5) 0.3638(6) 0.4173(3)
C29 C 0.2749(5) 0.4626(8) 0.4382(3)
C30 C 0.2382(6) 0.5843(8) 0.4669(4)
H22 H 0.16740 0.58160 0.46280
H23 H 0.26010 0.67220 0.45000
H24 H 0.26240 0.58140 0.50730
Sb1 Sb 0.30192(4) 0.36719(6) 0.63523(2)
Cl1 Cl 0.3128(6) 0.3668(8) 0.5576(3)
Cl2 Cl 0.3369(7) 0.1782(8) 0.6359(4)
Cl3 Cl 0.2912(8) 0.3670(14) 0.7114(3)
Cl4 Cl 0.2645(5) 0.5557(7) 0.6315(4)
Cl5 Cl 0.4304(5) 0.4187(11) 0.6488(4)
Cl6 Cl 0.1723(4) 0.3143(8) 0.6201(4)
N3 N 0.1593(11) 0.9442(17) 0.6630(7)
C31 C 0.2582(12) 0.9066(15) 0.6869(6)
C32 C 0.3299(13) 0.8783(15) 0.7043(6)
H25 H 0.32890 0.78410 0.72210
H26 H 0.35390 0.94880 0.73290
H27 H 0.37260 0.87600 0.67390
#END
