####################################################################### 
# 
# This file contains crystal structure data downloaded from the 
# Cambridge Structural Database (CSD) hosted by the Cambridge 
# Crystallographic Data Centre (CCDC).
# 
# Full information about CCDC data access policies and citation 
# guidelines are available at http://www.ccdc.cam.ac.uk/access/V1 
# 
# Audit and citation data items may have been added by the CCDC. 
# Please retain this information to preserve the provenance of 
# this file and to allow appropriate attribution of the data. 
# 
#######################################################################

data_1
_audit_block_doi                 10.5517/ccwm7c2
_database_code_depnum_ccdc_archive 'CCDC 822844'
loop_
_citation_id
_citation_doi
_citation_year
1 10.1016/j.ica.2011.11.004 2012
_audit_update_record             
;
2011-04-21 deposited with the CCDC.	2024-07-11 downloaded from the CCDC.
;
#TrackingRef 'CIF.cif'


_audit_creation_method           SHELXL-97
_chemical_name_systematic        
;
?
;
_chemical_name_common            ?
_chemical_melting_point          ?
_chemical_formula_moiety         ?
_chemical_formula_sum            'C20 H12 N2 O4 S2 Zn'
_chemical_formula_weight         473.81

loop_
_atom_type_symbol
_atom_type_description
_atom_type_scat_dispersion_real
_atom_type_scat_dispersion_imag
_atom_type_scat_source
C C 0.0033 0.0016 'International Tables Vol C Tables 4.2.6.8 and 6.1.1.4'
H H 0.0000 0.0000 'International Tables Vol C Tables 4.2.6.8 and 6.1.1.4'
N N 0.0061 0.0033 'International Tables Vol C Tables 4.2.6.8 and 6.1.1.4'
O O 0.0106 0.0060 'International Tables Vol C Tables 4.2.6.8 and 6.1.1.4'
S S 0.1246 0.1234 'International Tables Vol C Tables 4.2.6.8 and 6.1.1.4'
Zn Zn 0.2839 1.4301 'International Tables Vol C Tables 4.2.6.8 and 6.1.1.4'

_symmetry_cell_setting           monoclinic
_symmetry_space_group_name_H-M   'P 21/c'

loop_
_symmetry_equiv_pos_as_xyz
'x, y, z'
'-x, y+1/2, -z+1/2'
'-x, -y, -z'
'x, -y-1/2, z-1/2'

_cell_length_a                   7.425(4)
_cell_length_b                   24.006(12)
_cell_length_c                   18.900(9)
_cell_angle_alpha                90.00
_cell_angle_beta                 97.744(7)
_cell_angle_gamma                90.00
_cell_volume                     3338(3)
_cell_formula_units_Z            4
_cell_measurement_temperature    291(2)
_cell_measurement_reflns_used    8906
_cell_measurement_theta_min      2.33
_cell_measurement_theta_max      27.48

_exptl_crystal_description       block
_exptl_crystal_colour            'light yellow'
_exptl_crystal_size_max          0.60
_exptl_crystal_size_mid          0.33
_exptl_crystal_size_min          0.24
_exptl_crystal_density_meas      ?
_exptl_crystal_density_diffrn    0.943
_exptl_crystal_density_method    'not measured'
_exptl_crystal_F_000             960
_exptl_absorpt_coefficient_mu    0.878
_exptl_absorpt_correction_type   multi-scan
_exptl_absorpt_correction_T_min  0.6207
_exptl_absorpt_correction_T_max  0.8168
_exptl_absorpt_process_details   
;
Sheldrick, G. M. (2004), SADABS V2004-1,
Bruker AXS Inc. Madison, WI 53711, USA.
;

_exptl_special_details           
;
?
;

_diffrn_ambient_temperature      291(2)
_diffrn_radiation_wavelength     0.71073
_diffrn_radiation_type           MoK\a
_diffrn_radiation_source         'fine-focus sealed tube'
_diffrn_radiation_monochromator  graphite
_diffrn_measurement_device_type  'Bruker APEX-II CCD'
_diffrn_measurement_method       '\f and \w scans'
_diffrn_detector_area_resol_mean '512 pixel'
_diffrn_standards_number         ?
_diffrn_standards_interval_count ?
_diffrn_standards_interval_time  ?
_diffrn_standards_decay_%        ?
_diffrn_reflns_number            18288
_diffrn_reflns_av_R_equivalents  0.0639
_diffrn_reflns_av_sigmaI/netI    0.0926
_diffrn_reflns_limit_h_min       -9
_diffrn_reflns_limit_h_max       6
_diffrn_reflns_limit_k_min       -30
_diffrn_reflns_limit_k_max       29
_diffrn_reflns_limit_l_min       -23
_diffrn_reflns_limit_l_max       22
_diffrn_reflns_theta_min         2.02
_diffrn_reflns_theta_max         26.37
_reflns_number_total             6737
_reflns_number_gt                3740
_reflns_threshold_expression     >2sigma(I)

_computing_data_collection       'Bruker APEX2'
_computing_cell_refinement       'Bruker SAINT'
_computing_data_reduction        'Bruker SAINT'
_computing_structure_solution    'SHELXS-97 (Sheldrick, 2008)'
_computing_structure_refinement  'SHELXL-97 (Sheldrick, 2008)'
_computing_molecular_graphics    ?
_computing_publication_material  ?

_refine_special_details          
;
Refinement of F^2^ against ALL reflections. The weighted R-factor wR and
goodness of fit S are based on F^2^, conventional R-factors R are based
on F, with F set to zero for negative F^2^. The threshold expression of
F^2^ > 2sigma(F^2^) is used only for calculating R-factors(gt) etc. and is
not relevant to the choice of reflections for refinement. R-factors based
on F^2^ are statistically about twice as large as those based on F, and R-
factors based on ALL data will be even larger.
;

_refine_ls_structure_factor_coef Fsqd
_refine_ls_matrix_type           full
_refine_ls_weighting_scheme      calc
_refine_ls_weighting_details     
'calc w=1/[\s^2^(Fo^2^)+(0.0864P)^2^+4.4560P] where P=(Fo^2^+2Fc^2^)/3'
_atom_sites_solution_primary     direct
_atom_sites_solution_secondary   difmap
_atom_sites_solution_hydrogens   geom
_refine_ls_hydrogen_treatment    constr
_refine_ls_extinction_method     none
_refine_ls_extinction_coef       ?
_refine_ls_number_reflns         6737
_refine_ls_number_parameters     262
_refine_ls_number_restraints     0
_refine_ls_R_factor_all          0.1173
_refine_ls_R_factor_gt           0.0668
_refine_ls_wR_factor_ref         0.2269
_refine_ls_wR_factor_gt          0.2029
_refine_ls_goodness_of_fit_ref   1.054
_refine_ls_restrained_S_all      1.054
_refine_ls_shift/su_max          0.018
_refine_ls_shift/su_mean         0.002

loop_
_atom_site_label
_atom_site_type_symbol
_atom_site_fract_x
_atom_site_fract_y
_atom_site_fract_z
_atom_site_U_iso_or_equiv
_atom_site_adp_type
_atom_site_occupancy
_atom_site_symmetry_multiplicity
_atom_site_calc_flag
_atom_site_refinement_flags
_atom_site_disorder_assembly
_atom_site_disorder_group
Zn1 Zn 0.26257(8) 0.11946(3) 0.05056(4) 0.0554(3) Uani 1 1 d . . .
S1 S 0.02251(18) 0.20773(8) 0.27868(9) 0.0671(5) Uani 1 1 d . . .
S2 S -0.47439(18) 0.25462(8) 0.36416(9) 0.0643(5) Uani 1 1 d . . .
O1 O 0.4963(5) 0.15299(18) 0.0331(2) 0.0578(10) Uani 1 1 d . . .
O2 O 0.2797(5) 0.1936(2) -0.0402(2) 0.0748(13) Uani 1 1 d . . .
O3 O 0.0446(5) 0.14389(18) 0.0891(2) 0.0583(10) Uani 1 1 d . . .
O4 O 0.2640(5) 0.1604(2) 0.1775(2) 0.0781(14) Uani 1 1 d . . .
N1 N 0.3399(6) 0.0425(2) 0.0946(3) 0.0616(13) Uani 1 1 d . . .
N2 N 0.1782(6) 0.0663(2) -0.0363(3) 0.0604(13) Uani 1 1 d . . .
C1 C -0.4141(7) 0.2894(2) 0.4442(3) 0.0530(14) Uani 1 1 d . . .
C2 C -0.2307(7) 0.2912(3) 0.4625(3) 0.0570(15) Uani 1 1 d . . .
H2 H -0.1730 0.3076 0.5041 0.068 Uiso 1 1 calc R . .
C3 C -0.1382(7) 0.2651(3) 0.4110(3) 0.0614(16) Uani 1 1 d . . .
H3 H -0.0121 0.2630 0.4152 0.074 Uiso 1 1 calc R . .
C4 C -0.2502(7) 0.2430(3) 0.3542(3) 0.0561(15) Uani 1 1 d . . .
C5 C -0.2024(7) 0.2159(3) 0.2913(3) 0.0555(15) Uani 1 1 d . . .
C6 C -0.3151(7) 0.1952(3) 0.2341(3) 0.0657(18) Uani 1 1 d . . .
H6 H -0.4411 0.1950 0.2314 0.079 Uiso 1 1 calc R . .
C7 C -0.2214(7) 0.1742(3) 0.1797(3) 0.0617(16) Uani 1 1 d . . .
H7 H -0.2794 0.1597 0.1369 0.074 Uiso 1 1 calc R . .
C8 C -0.0386(7) 0.1772(3) 0.1960(3) 0.0547(14) Uani 1 1 d . . .
C9 C 0.4160(9) 0.0335(3) 0.1615(5) 0.081(2) Uani 1 1 d . . .
H9 H 0.4388 0.0637 0.1924 0.098 Uiso 1 1 calc R . .
C10 C 0.4629(11) -0.0203(4) 0.1868(5) 0.102(3) Uani 1 1 d . . .
H10 H 0.5143 -0.0261 0.2338 0.122 Uiso 1 1 calc R . .
C11 C 0.4311(12) -0.0638(4) 0.1405(7) 0.109(3) Uani 1 1 d . . .
H11 H 0.4635 -0.0996 0.1559 0.131 Uiso 1 1 calc R . .
C12 C 0.3533(10) -0.0554(3) 0.0728(5) 0.086(2) Uani 1 1 d . . .
H12 H 0.3303 -0.0850 0.0412 0.103 Uiso 1 1 calc R . .
C13 C 0.3080(8) -0.0009(3) 0.0514(4) 0.0670(18) Uani 1 1 d . . .
C14 C 0.2192(8) 0.0122(3) -0.0229(4) 0.0662(18) Uani 1 1 d . . .
C15 C 0.1782(11) -0.0286(3) -0.0755(5) 0.087(2) Uani 1 1 d . . .
H15 H 0.2059 -0.0659 -0.0660 0.104 Uiso 1 1 calc R . .
C16 C 0.0969(12) -0.0122(5) -0.1406(6) 0.108(3) Uani 1 1 d . . .
H16 H 0.0682 -0.0385 -0.1764 0.129 Uiso 1 1 calc R . .
C17 C 0.0555(10) 0.0436(4) -0.1548(5) 0.093(2) Uani 1 1 d . . .
H17 H 0.0000 0.0553 -0.1994 0.112 Uiso 1 1 calc R . .
C18 C 0.1006(8) 0.0809(3) -0.0998(4) 0.0748(19) Uani 1 1 d . . .
H18 H 0.0745 0.1184 -0.1083 0.090 Uiso 1 1 calc R . .
C19 C 0.1007(7) 0.1603(3) 0.1521(3) 0.0555(14) Uani 1 1 d . . .
C20 C 0.4425(7) 0.1853(2) -0.0191(3) 0.0515(13) Uani 1 1 d . . .

loop_
_atom_site_aniso_label
_atom_site_aniso_U_11
_atom_site_aniso_U_22
_atom_site_aniso_U_33
_atom_site_aniso_U_23
_atom_site_aniso_U_13
_atom_site_aniso_U_12
Zn1 0.0396(4) 0.0645(5) 0.0649(5) -0.0032(4) 0.0174(3) -0.0017(3)
S1 0.0337(7) 0.1062(14) 0.0611(10) -0.0267(9) 0.0050(6) -0.0023(7)
S2 0.0327(7) 0.0975(13) 0.0625(10) -0.0255(9) 0.0052(6) -0.0033(7)
O1 0.049(2) 0.075(3) 0.050(2) 0.007(2) 0.0092(17) -0.0083(19)
O2 0.036(2) 0.096(3) 0.094(3) 0.025(3) 0.013(2) 0.005(2)
O3 0.046(2) 0.080(3) 0.049(2) -0.009(2) 0.0092(17) 0.0041(19)
O4 0.039(2) 0.116(4) 0.080(3) -0.031(3) 0.012(2) -0.002(2)
N1 0.053(3) 0.064(3) 0.071(4) 0.006(3) 0.022(3) 0.001(2)
N2 0.041(3) 0.075(4) 0.069(4) -0.012(3) 0.019(2) -0.004(2)
C1 0.038(3) 0.071(4) 0.051(3) -0.009(3) 0.009(2) -0.001(3)
C2 0.042(3) 0.078(4) 0.050(3) -0.015(3) 0.003(2) 0.001(3)
C3 0.031(3) 0.090(5) 0.063(4) -0.019(3) 0.004(3) -0.001(3)
C4 0.035(3) 0.079(4) 0.055(3) -0.015(3) 0.010(2) -0.003(3)
C5 0.035(3) 0.074(4) 0.058(4) -0.016(3) 0.008(2) -0.003(3)
C6 0.035(3) 0.096(5) 0.066(4) -0.027(4) 0.007(3) -0.003(3)
C7 0.042(3) 0.091(5) 0.052(3) -0.023(3) 0.004(2) -0.004(3)
C8 0.039(3) 0.077(4) 0.049(3) -0.012(3) 0.010(2) -0.004(3)
C9 0.068(4) 0.083(5) 0.096(6) 0.012(5) 0.020(4) 0.005(4)
C10 0.083(6) 0.115(7) 0.110(7) 0.037(6) 0.026(5) 0.025(5)
C11 0.096(7) 0.084(6) 0.157(10) 0.037(7) 0.053(7) 0.026(5)
C12 0.077(5) 0.067(5) 0.122(7) 0.006(5) 0.046(5) 0.006(4)
C13 0.047(3) 0.067(4) 0.095(5) 0.001(4) 0.040(3) 0.000(3)
C14 0.043(3) 0.071(4) 0.093(5) -0.018(4) 0.038(3) -0.011(3)
C15 0.085(5) 0.087(5) 0.099(6) -0.031(5) 0.048(5) -0.025(4)
C16 0.081(6) 0.146(9) 0.104(7) -0.053(7) 0.037(5) -0.034(6)
C17 0.069(5) 0.120(8) 0.092(6) -0.026(6) 0.016(4) -0.013(5)
C18 0.055(4) 0.101(6) 0.069(5) -0.010(4) 0.011(3) 0.001(4)
C19 0.040(3) 0.065(4) 0.063(4) -0.004(3) 0.010(3) -0.001(3)
C20 0.044(3) 0.057(3) 0.056(4) 0.001(3) 0.015(3) -0.002(3)

_geom_special_details            
;
All esds (except the esd in the dihedral angle between two l.s. planes)
are estimated using the full covariance matrix. The cell esds are taken
into account individually in the estimation of esds in distances, angles
and torsion angles; correlations between esds in cell parameters are only
used when they are defined by crystal symmetry. An approximate (isotropic)
treatment of cell esds is used for estimating esds involving l.s. planes.
;

loop_
_geom_bond_atom_site_label_1
_geom_bond_atom_site_label_2
_geom_bond_distance
_geom_bond_site_symmetry_2
_geom_bond_publ_flag
Zn1 O3 1.953(4) . ?
Zn1 O1 1.980(4) . ?
Zn1 N1 2.075(5) . ?
Zn1 N2 2.107(5) . ?
Zn1 O2 2.488(4) . ?
Zn1 C20 2.548(5) . ?
Zn1 C19 2.591(6) . ?
S1 C5 1.729(5) . ?
S1 C8 1.730(6) . ?
S2 C4 1.723(5) . ?
S2 C1 1.733(6) . ?
O1 C20 1.276(7) . ?
O2 C20 1.237(6) . ?
O3 C19 1.270(7) . ?
O4 C19 1.243(6) . ?
N1 C13 1.326(8) . ?
N1 C9 1.331(9) . ?
N2 C18 1.307(8) . ?
N2 C14 1.350(8) . ?
C1 C2 1.360(7) . ?
C1 C20 1.478(7) 4_466 ?
C2 C3 1.411(8) . ?
C2 H2 0.9300 . ?
C3 C4 1.372(8) . ?
C3 H3 0.9300 . ?
C4 C5 1.442(8) . ?
C5 C6 1.368(8) . ?
C6 C7 1.411(7) . ?
C6 H6 0.9300 . ?
C7 C8 1.353(7) . ?
C7 H7 0.9300 . ?
C8 C19 1.467(7) . ?
C9 C10 1.405(11) . ?
C9 H9 0.9300 . ?
C10 C11 1.361(13) . ?
C10 H10 0.9300 . ?
C11 C12 1.347(12) . ?
C11 H11 0.9300 . ?
C12 C13 1.396(10) . ?
C12 H12 0.9300 . ?
C13 C14 1.502(10) . ?
C14 C15 1.400(10) . ?
C15 C16 1.355(12) . ?
C15 H15 0.9300 . ?
C16 C17 1.392(12) . ?
C16 H16 0.9300 . ?
C17 C18 1.378(10) . ?
C17 H17 0.9300 . ?
C18 H18 0.9300 . ?
C20 C1 1.478(7) 4_665 ?

loop_
_geom_angle_atom_site_label_1
_geom_angle_atom_site_label_2
_geom_angle_atom_site_label_3
_geom_angle
_geom_angle_site_symmetry_1
_geom_angle_site_symmetry_3
_geom_angle_publ_flag
O3 Zn1 O1 136.81(19) . . ?
O3 Zn1 N1 108.42(18) . . ?
O1 Zn1 N1 103.15(18) . . ?
O3 Zn1 N2 107.37(17) . . ?
O1 Zn1 N2 106.94(17) . . ?
N1 Zn1 N2 79.1(2) . . ?
O3 Zn1 O2 99.47(16) . . ?
O1 Zn1 O2 57.77(14) . . ?
N1 Zn1 O2 151.25(17) . . ?
N2 Zn1 O2 86.2(2) . . ?
O3 Zn1 C20 121.68(18) . . ?
O1 Zn1 C20 29.48(16) . . ?
N1 Zn1 C20 128.59(18) . . ?
N2 Zn1 C20 95.44(19) . . ?
O2 Zn1 C20 28.41(14) . . ?
O3 Zn1 C19 28.25(16) . . ?
O1 Zn1 C19 118.30(17) . . ?
N1 Zn1 C19 99.8(2) . . ?
N2 Zn1 C19 133.44(17) . . ?
O2 Zn1 C19 108.19(18) . . ?
C20 Zn1 C19 118.42(18) . . ?
C5 S1 C8 91.8(3) . . ?
C4 S2 C1 91.9(3) . . ?
C20 O1 Zn1 100.7(3) . . ?
C20 O2 Zn1 78.5(3) . . ?
C19 O3 Zn1 105.0(3) . . ?
C13 N1 C9 118.4(6) . . ?
C13 N1 Zn1 115.8(5) . . ?
C9 N1 Zn1 125.8(5) . . ?
C18 N2 C14 119.4(6) . . ?
C18 N2 Zn1 126.9(5) . . ?
C14 N2 Zn1 113.6(5) . . ?
C2 C1 C20 128.9(5) . 4_466 ?
C2 C1 S2 111.7(4) . . ?
C20 C1 S2 119.3(4) 4_466 . ?
C1 C2 C3 112.0(5) . . ?
C1 C2 H2 124.0 . . ?
C3 C2 H2 124.0 . . ?
C4 C3 C2 114.2(5) . . ?
C4 C3 H3 122.9 . . ?
C2 C3 H3 122.9 . . ?
C3 C4 C5 129.0(5) . . ?
C3 C4 S2 110.2(4) . . ?
C5 C4 S2 120.8(4) . . ?
C6 C5 C4 128.6(5) . . ?
C6 C5 S1 110.5(4) . . ?
C4 C5 S1 121.0(4) . . ?
C5 C6 C7 113.4(5) . . ?
C5 C6 H6 123.3 . . ?
C7 C6 H6 123.3 . . ?
C8 C7 C6 113.1(5) . . ?
C8 C7 H7 123.4 . . ?
C6 C7 H7 123.4 . . ?
C7 C8 C19 128.2(5) . . ?
C7 C8 S1 111.2(4) . . ?
C19 C8 S1 120.6(4) . . ?
N1 C9 C10 121.7(8) . . ?
N1 C9 H9 119.2 . . ?
C10 C9 H9 119.2 . . ?
C11 C10 C9 118.3(9) . . ?
C11 C10 H10 120.9 . . ?
C9 C10 H10 120.9 . . ?
C12 C11 C10 120.7(9) . . ?
C12 C11 H11 119.6 . . ?
C10 C11 H11 119.7 . . ?
C11 C12 C13 118.1(9) . . ?
C11 C12 H12 121.0 . . ?
C13 C12 H12 121.0 . . ?
N1 C13 C12 122.8(8) . . ?
N1 C13 C14 115.5(6) . . ?
C12 C13 C14 121.7(7) . . ?
N2 C14 C15 121.1(8) . . ?
N2 C14 C13 115.9(6) . . ?
C15 C14 C13 122.9(7) . . ?
C16 C15 C14 118.0(9) . . ?
C16 C15 H15 121.0 . . ?
C14 C15 H15 121.0 . . ?
C15 C16 C17 121.0(9) . . ?
C15 C16 H16 119.5 . . ?
C17 C16 H16 119.5 . . ?
C18 C17 C16 117.1(9) . . ?
C18 C17 H17 121.5 . . ?
C16 C17 H17 121.5 . . ?
N2 C18 C17 123.4(8) . . ?
N2 C18 H18 118.3 . . ?
C17 C18 H18 118.3 . . ?
O4 C19 O3 122.8(5) . . ?
O4 C19 C8 120.4(5) . . ?
O3 C19 C8 116.7(5) . . ?
O4 C19 Zn1 76.2(3) . . ?
O3 C19 Zn1 46.7(2) . . ?
C8 C19 Zn1 163.0(4) . . ?
O2 C20 O1 122.5(5) . . ?
O2 C20 C1 121.1(5) . 4_665 ?
O1 C20 C1 116.3(5) . 4_665 ?
O2 C20 Zn1 73.1(3) . . ?
O1 C20 Zn1 49.8(2) . . ?
C1 C20 Zn1 163.5(4) 4_665 . ?

loop_
_geom_torsion_atom_site_label_1
_geom_torsion_atom_site_label_2
_geom_torsion_atom_site_label_3
_geom_torsion_atom_site_label_4
_geom_torsion
_geom_torsion_site_symmetry_1
_geom_torsion_site_symmetry_2
_geom_torsion_site_symmetry_3
_geom_torsion_site_symmetry_4
_geom_torsion_publ_flag
O3 Zn1 O1 C20 -71.0(4) . . . . ?
N1 Zn1 O1 C20 152.7(4) . . . . ?
N2 Zn1 O1 C20 70.3(4) . . . . ?
O2 Zn1 O1 C20 -3.8(3) . . . . ?
C19 Zn1 O1 C20 -98.4(4) . . . . ?
O3 Zn1 O2 C20 144.2(4) . . . . ?
O1 Zn1 O2 C20 3.9(3) . . . . ?
N1 Zn1 O2 C20 -49.9(6) . . . . ?
N2 Zn1 O2 C20 -108.8(4) . . . . ?
C19 Zn1 O2 C20 116.4(4) . . . . ?
O1 Zn1 O3 C19 -58.7(5) . . . . ?
N1 Zn1 O3 C19 76.1(4) . . . . ?
N2 Zn1 O3 C19 160.1(4) . . . . ?
O2 Zn1 O3 C19 -111.0(4) . . . . ?
C20 Zn1 O3 C19 -91.9(4) . . . . ?
O3 Zn1 N1 C13 106.3(4) . . . . ?
O1 Zn1 N1 C13 -103.6(4) . . . . ?
N2 Zn1 N1 C13 1.5(4) . . . . ?
O2 Zn1 N1 C13 -59.0(6) . . . . ?
C20 Zn1 N1 C13 -86.8(4) . . . . ?
C19 Zn1 N1 C13 134.1(4) . . . . ?
O3 Zn1 N1 C9 -73.1(5) . . . . ?
O1 Zn1 N1 C9 77.0(5) . . . . ?
N2 Zn1 N1 C9 -178.0(5) . . . . ?
O2 Zn1 N1 C9 121.5(5) . . . . ?
C20 Zn1 N1 C9 93.8(5) . . . . ?
C19 Zn1 N1 C9 -45.3(5) . . . . ?
O3 Zn1 N2 C18 74.6(5) . . . . ?
O1 Zn1 N2 C18 -78.7(5) . . . . ?
N1 Zn1 N2 C18 -179.3(5) . . . . ?
O2 Zn1 N2 C18 -24.1(5) . . . . ?
C20 Zn1 N2 C18 -51.0(5) . . . . ?
C19 Zn1 N2 C18 87.5(5) . . . . ?
O3 Zn1 N2 C14 -108.4(4) . . . . ?
O1 Zn1 N2 C14 98.2(4) . . . . ?
N1 Zn1 N2 C14 -2.4(4) . . . . ?
O2 Zn1 N2 C14 152.8(4) . . . . ?
C20 Zn1 N2 C14 125.9(4) . . . . ?
C19 Zn1 N2 C14 -95.6(4) . . . . ?
C4 S2 C1 C2 -0.8(5) . . . . ?
C4 S2 C1 C20 176.4(5) . . . 4_466 ?
C20 C1 C2 C3 -175.8(6) 4_466 . . . ?
S2 C1 C2 C3 1.0(7) . . . . ?
C1 C2 C3 C4 -0.7(9) . . . . ?
C2 C3 C4 C5 177.1(6) . . . . ?
C2 C3 C4 S2 0.1(8) . . . . ?
C1 S2 C4 C3 0.4(5) . . . . ?
C1 S2 C4 C5 -176.9(5) . . . . ?
C3 C4 C5 C6 -178.3(7) . . . . ?
S2 C4 C5 C6 -1.6(10) . . . . ?
C3 C4 C5 S1 -0.4(10) . . . . ?
S2 C4 C5 S1 176.3(4) . . . . ?
C8 S1 C5 C6 0.7(5) . . . . ?
C8 S1 C5 C4 -177.6(5) . . . . ?
C4 C5 C6 C7 176.5(6) . . . . ?
S1 C5 C6 C7 -1.6(8) . . . . ?
C5 C6 C7 C8 2.0(9) . . . . ?
C6 C7 C8 C19 -178.8(6) . . . . ?
C6 C7 C8 S1 -1.4(8) . . . . ?
C5 S1 C8 C7 0.4(5) . . . . ?
C5 S1 C8 C19 178.1(5) . . . . ?
C13 N1 C9 C10 0.2(9) . . . . ?
Zn1 N1 C9 C10 179.6(5) . . . . ?
N1 C9 C10 C11 1.0(11) . . . . ?
C9 C10 C11 C12 -1.3(12) . . . . ?
C10 C11 C12 C13 0.6(12) . . . . ?
C9 N1 C13 C12 -1.0(8) . . . . ?
Zn1 N1 C13 C12 179.5(4) . . . . ?
C9 N1 C13 C14 179.0(5) . . . . ?
Zn1 N1 C13 C14 -0.5(6) . . . . ?
C11 C12 C13 N1 0.6(10) . . . . ?
C11 C12 C13 C14 -179.4(6) . . . . ?
C18 N2 C14 C15 -0.7(8) . . . . ?
Zn1 N2 C14 C15 -177.9(4) . . . . ?
C18 N2 C14 C13 180.0(5) . . . . ?
Zn1 N2 C14 C13 2.8(6) . . . . ?
N1 C13 C14 