####################################################################### 
# 
# This file contains crystal structure data downloaded from the 
# Cambridge Structural Database (CSD) hosted by the Cambridge 
# Crystallographic Data Centre (CCDC).
# 
# Full information about CCDC data access policies and citation 
# guidelines are available at http://www.ccdc.cam.ac.uk/access/V1 
# 
# Audit and citation data items may have been added by the CCDC. 
# Please retain this information to preserve the provenance of 
# this file and to allow appropriate attribution of the data. 
# 
#######################################################################

data_5
_audit_block_doi                 10.5517/ccwntjv
_database_code_depnum_ccdc_archive 'CCDC 824368'
loop_
_citation_id
_citation_doi
_citation_year
1 10.1016/j.ica.2011.11.015 2012
_audit_update_record             
;
2011-05-05 deposited with the CCDC.	2024-07-11 downloaded from the CCDC.
;
#TrackingRef '5.cif'


_audit_creation_method           SHELXL-97
_chemical_name_systematic        
;
?
;
_chemical_name_common            ?
_chemical_melting_point          ?
_chemical_formula_moiety         ?
_chemical_formula_sum            'C30 H22 Co N6 O4'
_chemical_formula_weight         589.47

loop_
_atom_type_symbol
_atom_type_description
_atom_type_scat_dispersion_real
_atom_type_scat_dispersion_imag
_atom_type_scat_source
C C 0.0033 0.0016 'International Tables Vol C Tables 4.2.6.8 and 6.1.1.4'
H H 0.0000 0.0000 'International Tables Vol C Tables 4.2.6.8 and 6.1.1.4'
N N 0.0061 0.0033 'International Tables Vol C Tables 4.2.6.8 and 6.1.1.4'
O O 0.0106 0.0060 'International Tables Vol C Tables 4.2.6.8 and 6.1.1.4'
Co Co 0.3494 0.9721 'International Tables Vol C Tables 4.2.6.8 and 6.1.1.4'

_symmetry_cell_setting           Monoclinic
_symmetry_space_group_name_H-M   C2/c

loop_
_symmetry_equiv_pos_as_xyz
'x, y, z'
'-x, y, -z+1/2'
'x+1/2, y+1/2, z'
'-x+1/2, y+1/2, -z+1/2'
'-x, -y, -z'
'x, -y, z-1/2'
'-x+1/2, -y+1/2, -z'
'x+1/2, -y+1/2, z-1/2'

_cell_length_a                   24.038(3)
_cell_length_b                   12.7537(16)
_cell_length_c                   11.8640(15)
_cell_angle_alpha                90.00
_cell_angle_beta                 110.073(2)
_cell_angle_gamma                90.00
_cell_volume                     3416.3(7)
_cell_formula_units_Z            4
_cell_measurement_temperature    296(2)
_cell_measurement_reflns_used    4221
_cell_measurement_theta_min      2.36
_cell_measurement_theta_max      28.15

_exptl_crystal_description       block
_exptl_crystal_colour            red
_exptl_crystal_size_max          0.24
_exptl_crystal_size_mid          0.15
_exptl_crystal_size_min          0.12
_exptl_crystal_density_meas      ?
_exptl_crystal_density_diffrn    1.146
_exptl_crystal_density_method    'not measured'
_exptl_crystal_F_000             1212
_exptl_absorpt_coefficient_mu    0.541
_exptl_absorpt_correction_type   multi-scan
_exptl_absorpt_correction_T_min  0.8812
_exptl_absorpt_correction_T_max  0.9380
_exptl_absorpt_process_details   sadabs

_exptl_special_details           
;
?
;

_diffrn_ambient_temperature      296(2)
_diffrn_radiation_wavelength     0.71073
_diffrn_radiation_type           MoK\a
_diffrn_radiation_source         'fine-focus sealed tube'
_diffrn_radiation_monochromator  graphite
_diffrn_measurement_device_type  'Bruker APEX-II CCD'
_diffrn_measurement_method       '\f and \w scans'
_diffrn_detector_area_resol_mean ?
_diffrn_reflns_number            13039
_diffrn_reflns_av_R_equivalents  0.0498
_diffrn_reflns_av_sigmaI/netI    0.0380
_diffrn_reflns_limit_h_min       -26
_diffrn_reflns_limit_h_max       29
_diffrn_reflns_limit_k_min       -15
_diffrn_reflns_limit_k_max       15
_diffrn_reflns_limit_l_min       -14
_diffrn_reflns_limit_l_max       13
_diffrn_reflns_theta_min         2.36
_diffrn_reflns_theta_max         25.50
_reflns_number_total             3186
_reflns_number_gt                2593
_reflns_threshold_expression     >2sigma(I)

_computing_data_collection       'Bruker APEX2'
_computing_cell_refinement       'Bruker SAINT'
_computing_data_reduction        'Bruker SAINT'
_computing_structure_solution    'SHELXS-97 (Sheldrick, 2008)'
_computing_structure_refinement  'SHELXL-97 (Sheldrick, 2008)'
_computing_molecular_graphics    'Bruker SHELXTL'
_computing_publication_material  'Bruker SHELXTL'

_refine_special_details          
;
Refinement of F^2^ against ALL reflections. The weighted R-factor wR and
goodness of fit S are based on F^2^, conventional R-factors R are based
on F, with F set to zero for negative F^2^. The threshold expression of
F^2^ > 2sigma(F^2^) is used only for calculating R-factors(gt) etc. and is
not relevant to the choice of reflections for refinement. R-factors based
on F^2^ are statistically about twice as large as those based on F, and R-
factors based on ALL data will be even larger.
;

_refine_ls_structure_factor_coef Fsqd
_refine_ls_matrix_type           full
_refine_ls_weighting_scheme      calc
_refine_ls_weighting_details     
'calc w=1/[\s^2^(Fo^2^)+(0.0879P)^2^+0.9594P] where P=(Fo^2^+2Fc^2^)/3'
_atom_sites_solution_primary     direct
_atom_sites_solution_secondary   difmap
_atom_sites_solution_hydrogens   geom
_refine_ls_hydrogen_treatment    constr
_refine_ls_extinction_method     none
_refine_ls_extinction_coef       ?
_refine_ls_number_reflns         3186
_refine_ls_number_parameters     187
_refine_ls_number_restraints     0
_refine_ls_R_factor_all          0.0547
_refine_ls_R_factor_gt           0.0452
_refine_ls_wR_factor_ref         0.1354
_refine_ls_wR_factor_gt          0.1296
_refine_ls_goodness_of_fit_ref   1.078
_refine_ls_restrained_S_all      1.078
_refine_ls_shift/su_max          0.000
_refine_ls_shift/su_mean         0.000

loop_
_atom_site_label
_atom_site_type_symbol
_atom_site_fract_x
_atom_site_fract_y
_atom_site_fract_z
_atom_site_U_iso_or_equiv
_atom_site_adp_type
_atom_site_occupancy
_atom_site_symmetry_multiplicity
_atom_site_calc_flag
_atom_site_refinement_flags
_atom_site_disorder_assembly
_atom_site_disorder_group
Co1 Co 0.2500 0.2500 1.0000 0.01801(17) Uani 1 2 d S . .
O1 O 0.24513(7) -0.10057(12) 0.57896(15) 0.0256(4) Uani 1 1 d . . .
O2 O 0.18276(8) -0.11461(13) 0.68072(18) 0.0324(5) Uani 1 1 d . . .
N1 N 0.24825(10) 0.16317(16) 0.84734(19) 0.0265(5) Uani 1 1 d . . .
N2 N 0.28440(10) 0.18387(15) 0.78467(19) 0.0270(5) Uani 1 1 d . . .
H2D H 0.3073 0.2376 0.7976 0.032 Uiso 1 1 calc R . .
N3 N 0.34668(9) 0.23442(15) 1.0766(2) 0.0266(5) Uani 1 1 d . . .
C1 C 0.29532(15) 0.1212(3) 0.5013(3) 0.0479(8) Uani 1 1 d . . .
H1 H 0.2551 0.1090 0.4629 0.057 Uiso 1 1 calc R . .
C2 C 0.33124(19) 0.1367(3) 0.4347(3) 0.0657(11) Uani 1 1 d . . .
H2 H 0.3150 0.1367 0.3513 0.079 Uiso 1 1 calc R . .
C3 C 0.3901(2) 0.1520(4) 0.4893(4) 0.0765(13) Uani 1 1 d . . .
H3 H 0.4142 0.1616 0.4433 0.092 Uiso 1 1 calc R . .
C4 C 0.41451(18) 0.1535(4) 0.6124(4) 0.0712(12) Uani 1 1 d . . .
H4 H 0.4550 0.1639 0.6498 0.085 Uiso 1 1 calc R . .
C5 C 0.37836(14) 0.1394(3) 0.6804(3) 0.0500(8) Uani 1 1 d . . .
H5 H 0.3947 0.1405 0.7637 0.060 Uiso 1 1 calc R . .
C6 C 0.31854(12) 0.12373(19) 0.6254(2) 0.0307(6) Uani 1 1 d . . .
C7 C 0.28080(11) 0.11187(18) 0.7000(2) 0.0263(6) Uani 1 1 d . . .
C8 C 0.22166(11) 0.07457(18) 0.8015(2) 0.0266(6) Uani 1 1 d . . .
H8 H 0.1943 0.0407 0.8283 0.032 Uiso 1 1 calc R . .
C9 C 0.23924(11) 0.03761(17) 0.7083(2) 0.0240(5) Uani 1 1 d . . .
C10 C 0.22109(11) -0.06623(17) 0.6499(2) 0.0229(5) Uani 1 1 d . . .
C11 C 0.37294(12) 0.1456(2) 1.1274(3) 0.0412(7) Uani 1 1 d . . .
H11 H 0.3499 0.0853 1.1168 0.049 Uiso 1 1 calc R . .
C12 C 0.43221(13) 0.1382(2) 1.1945(3) 0.0431(8) Uani 1 1 d . . .
H12 H 0.4481 0.0743 1.2281 0.052 Uiso 1 1 calc R . .
C13 C 0.46811(11) 0.2259(2) 1.2122(2) 0.0305(6) Uani 1 1 d . . .
C14 C 0.44132(12) 0.3167(2) 1.1569(3) 0.0377(7) Uani 1 1 d . . .
H14 H 0.4636 0.3775 1.1639 0.045 Uiso 1 1 calc R . .
C15 C 0.38176(12) 0.3180(2) 1.0913(2) 0.0331(6) Uani 1 1 d . . .
H15 H 0.3650 0.3806 1.0552 0.040 Uiso 1 1 calc R . .

loop_
_atom_site_aniso_label
_atom_site_aniso_U_11
_atom_site_aniso_U_22
_atom_site_aniso_U_33
_atom_site_aniso_U_23
_atom_site_aniso_U_13
_atom_site_aniso_U_12
Co1 0.0161(3) 0.0169(2) 0.0196(3) -0.00134(16) 0.00426(18) -0.00037(16)
O1 0.0264(10) 0.0214(8) 0.0294(9) -0.0069(7) 0.0102(8) -0.0010(7)
O2 0.0328(11) 0.0217(8) 0.0495(12) -0.0057(8) 0.0229(9) -0.0036(7)
N1 0.0316(12) 0.0234(10) 0.0268(11) -0.0031(8) 0.0131(10) -0.0020(8)
N2 0.0316(12) 0.0204(10) 0.0307(11) -0.0063(8) 0.0128(10) -0.0062(8)
N3 0.0183(11) 0.0270(10) 0.0310(12) -0.0004(9) 0.0042(9) 0.0002(8)
C1 0.050(2) 0.0578(19) 0.0377(17) -0.0116(14) 0.0178(15) -0.0225(15)
C2 0.077(3) 0.089(3) 0.0398(19) -0.0172(18) 0.031(2) -0.036(2)
C3 0.081(3) 0.103(3) 0.067(3) -0.020(2) 0.054(3) -0.031(3)
C4 0.043(2) 0.103(3) 0.076(3) -0.009(2) 0.030(2) -0.018(2)
C5 0.0373(19) 0.074(2) 0.0416(18) -0.0039(16) 0.0166(15) -0.0060(16)
C6 0.0379(16) 0.0249(12) 0.0345(15) -0.0067(11) 0.0192(13) -0.0072(11)
C7 0.0301(14) 0.0226(11) 0.0260(13) -0.0022(10) 0.0095(11) 0.0007(10)
C8 0.0297(14) 0.0226(12) 0.0299(14) -0.0024(10) 0.0134(11) -0.0034(10)
C9 0.0252(13) 0.0183(11) 0.0259(12) -0.0010(10) 0.0057(10) 0.0000(9)
C10 0.0219(13) 0.0195(11) 0.0246(13) -0.0010(9) 0.0044(10) 0.0016(9)
C11 0.0217(15) 0.0263(13) 0.066(2) 0.0007(13) 0.0031(14) -0.0013(11)
C12 0.0227(15) 0.0256(13) 0.070(2) 0.0057(13) 0.0021(14) 0.0022(11)
C13 0.0186(14) 0.0319(13) 0.0365(15) -0.0007(11) 0.0035(12) 0.0000(10)
C14 0.0233(15) 0.0322(14) 0.0500(17) 0.0054(13) 0.0030(12) -0.0074(11)
C15 0.0234(14) 0.0294(13) 0.0390(15) 0.0074(11) 0.0010(12) -0.0004(10)

_geom_special_details            
;
All esds (except the esd in the dihedral angle between two l.s. planes)
are estimated using the full covariance matrix. The cell esds are taken
into account individually in the estimation of esds in distances, angles
and torsion angles; correlations between esds in cell parameters are only
used when they are defined by crystal symmetry. An approximate (isotropic)
treatment of cell esds is used for estimating esds involving l.s. planes.
;

loop_
_geom_bond_atom_site_label_1
_geom_bond_atom_site_label_2
_geom_bond_distance
_geom_bond_site_symmetry_2
_geom_bond_publ_flag
Co1 N1 2.111(2) . ?
Co1 N1 2.111(2) 7_557 ?
Co1 O1 2.1444(15) 6_556 ?
Co1 O1 2.1444(15) 4_556 ?
Co1 N3 2.195(2) 7_557 ?
Co1 N3 2.195(2) . ?
O1 C10 1.252(3) . ?
O1 Co1 2.1444(15) 4_546 ?
O2 C10 1.263(3) . ?
N1 C8 1.320(3) . ?
N1 N2 1.349(3) . ?
N2 C7 1.342(3) . ?
N2 H2D 0.8600 . ?
N3 C15 1.333(3) . ?
N3 C11 1.336(3) . ?
C1 C2 1.371(5) . ?
C1 C6 1.384(4) . ?
C1 H1 0.9300 . ?
C2 C3 1.354(6) . ?
C2 H2 0.9300 . ?
C3 C4 1.375(6) . ?
C3 H3 0.9300 . ?
C4 C5 1.385(5) . ?
C4 H4 0.9300 . ?
C5 C6 1.374(4) . ?
C5 H5 0.9300 . ?
C6 C7 1.477(4) . ?
C7 C9 1.404(3) . ?
C8 C9 1.394(3) . ?
C8 H8 0.9300 . ?
C9 C10 1.489(3) . ?
C11 C12 1.376(4) . ?
C11 H11 0.9300 . ?
C12 C13 1.384(4) . ?
C12 H12 0.9300 . ?
C13 C14 1.377(4) . ?
C13 C13 1.487(5) 2_657 ?
C14 C15 1.375(4) . ?
C14 H14 0.9300 . ?
C15 H15 0.9300 . ?

loop_
_geom_angle_atom_site_label_1
_geom_angle_atom_site_label_2
_geom_angle_atom_site_label_3
_geom_angle
_geom_angle_site_symmetry_1
_geom_angle_site_symmetry_3
_geom_angle_publ_flag
N1 Co1 N1 180.0 . 7_557 ?
N1 Co1 O1 85.45(7) . 6_556 ?
N1 Co1 O1 94.56(7) 7_557 6_556 ?
N1 Co1 O1 94.55(7) . 4_556 ?
N1 Co1 O1 85.44(7) 7_557 4_556 ?
O1 Co1 O1 180.0 6_556 4_556 ?
N1 Co1 N3 89.18(8) . 7_557 ?
N1 Co1 N3 90.82(8) 7_557 7_557 ?
O1 Co1 N3 93.02(7) 6_556 7_557 ?
O1 Co1 N3 86.98(7) 4_556 7_557 ?
N1 Co1 N3 90.82(8) . . ?
N1 Co1 N3 89.18(8) 7_557 . ?
O1 Co1 N3 86.98(7) 6_556 . ?
O1 Co1 N3 93.02(7) 4_556 . ?
N3 Co1 N3 180.0 7_557 . ?
C10 O1 Co1 135.35(15) . 4_546 ?
C8 N1 N2 104.63(19) . . ?
C8 N1 Co1 131.83(17) . . ?
N2 N1 Co1 122.90(15) . . ?
C7 N2 N1 113.0(2) . . ?
C7 N2 H2D 123.5 . . ?
N1 N2 H2D 123.5 . . ?
C15 N3 C11 116.1(2) . . ?
C15 N3 Co1 120.95(17) . . ?
C11 N3 Co1 122.21(17) . . ?
C2 C1 C6 120.4(3) . . ?
C2 C1 H1 119.8 . . ?
C6 C1 H1 119.8 . . ?
C3 C2 C1 120.5(3) . . ?
C3 C2 H2 119.8 . . ?
C1 C2 H2 119.8 . . ?
C2 C3 C4 120.3(3) . . ?
C2 C3 H3 119.8 . . ?
C4 C3 H3 119.8 . . ?
C3 C4 C5 119.5(4) . . ?
C3 C4 H4 120.2 . . ?
C5 C4 H4 120.2 . . ?
C6 C5 C4 120.4(3) . . ?
C6 C5 H5 119.8 . . ?
C4 C5 H5 119.8 . . ?
C5 C6 C1 118.8(3) . . ?
C5 C6 C7 119.2(3) . . ?
C1 C6 C7 121.9(3) . . ?
N2 C7 C9 105.9(2) . . ?
N2 C7 C6 118.9(2) . . ?
C9 C7 C6 135.2(2) . . ?
N1 C8 C9 112.4(2) . . ?
N1 C8 H8 123.8 . . ?
C9 C8 H8 123.8 . . ?
C8 C9 C7 104.1(2) . . ?
C8 C9 C10 123.3(2) . . ?
C7 C9 C10 132.0(2) . . ?
O1 C10 O2 125.1(2) . . ?
O1 C10 C9 119.6(2) . . ?
O2 C10 C9 115.3(2) . . ?
N3 C11 C12 123.6(3) . . ?
N3 C11 H11 118.2 . . ?
C12 C11 H11 118.2 . . ?
C11 C12 C13 120.0(3) . . ?
C11 C12 H12 120.0 . . ?
C13 C12 H12 120.0 . . ?
C14 C13 C12 116.2(2) . . ?
C14 C13 C13 120.28(17) . 2_657 ?
C12 C13 C13 123.47(18) . 2_657 ?
C15 C14 C13 120.4(2) . . ?
C15 C14 H14 119.8 . . ?
C13 C14 H14 119.8 . . ?
N3 C15 C14 123.6(2) . . ?
N3 C15 H15 118.2 . . ?
C14 C15 H15 118.2 . . ?

loop_
_geom_torsion_atom_site_label_1
_geom_torsion_atom_site_label_2
_geom_torsion_atom_site_label_3
_geom_torsion_atom_site_label_4
_geom_torsion
_geom_torsion_site_symmetry_1
_geom_torsion_site_symmetry_2
_geom_torsion_site_symmetry_3
_geom_torsion_site_symmetry_4
_geom_torsion_publ_flag
N1 Co1 N1 C8 -147(100) 7_557 . . . ?
O1 Co1 N1 C8 33.6(2) 6_556 . . . ?
O1 Co1 N1 C8 -146.4(2) 4_556 . . . ?
N3 Co1 N1 C8 -59.5(2) 7_557 . . . ?
N3 Co1 N1 C8 120.5(2) . . . . ?
N1 Co1 N1 N2 44(100) 7_557 . . . ?
O1 Co1 N1 N2 -135.76(19) 6_556 . . . ?
O1 Co1 N1 N2 44.24(19) 4_556 . . . ?
N3 Co1 N1 N2 131.14(19) 7_557 . . . ?
N3 Co1 N1 N2 -48.85(19) . . . . ?
C8 N1 N2 C7 0.8(3) . . . . ?
Co1 N1 N2 C7 172.58(17) . . . . ?
N1 Co1 N3 C15 114.0(2) . . . . ?
N1 Co1 N3 C15 -66.0(2) 7_557 . . . ?
O1 Co1 N3 C15 -160.6(2) 6_556 . . . ?
O1 Co1 N3 C15 19.4(2) 4_556 . . . ?
N3 Co1 N3 C15 16(8) 7_557 . . . ?
N1 Co1 N3 C11 -76.4(2) . . . . ?
N1 Co1 N3 C11 103.6(2) 7_557 . . . ?
O1 Co1 N3 C11 9.0(2) 6_556 . . . ?
O1 Co1 N3 C11 -171.0(2) 4_556 . . . ?
N3 Co1 N3 C11 -175(8) 7_557 . . . ?
C6 C1 C2 C3 1.7(6) . . . . ?
C1 C2 C3 C4 -0.8(7) . . . . ?
C2 C3 C4 C5 -0.1(7) . . . . ?
C3 C4 C5 C6 0.2(6) . . . . ?
C4 C5 C6 C1 0.7(5) . . . . ?
C4 C5 C6 C7 -178.3(3) . . . . ?
C2 C1 C6 C5 -1.6(5) . . . . ?
C2 C1 C6 C7 177.4(3) . . . . ?
N1 N2 C7 C9 -0.4(3) . . . . ?
N1 N2 C7 C6 -179.2(2) . . . . ?
C5 C6 C7 N2 51.2(4) . . . . ?
C1 C6 C7 N2 -127.8(3) . . . . ?
C5 C6 C7 C9 -127.2(3) . . . . ?
C1 C6 C7 C9 53.8(4) . . . . ?
N2 N1 C8 C9 -0.9(3) . . . . ?
Co1 N1 C8 C9 -171.62(18) . . . . ?
N1 C8 C9 C7 0.7(3) . . . . ?
N1 C8 C9 C10 173.2(2) . . . . ?
N2 C7 C9 C8 -0.1(3) . . . . ?
C6 C7 C9 C8 178.4(3) . . . . ?
N2 C7 C9 C10 -171.7(2) . . . . ?
C6 C7 C9 C10 6.8(5) . . . . ?
Co1 O1 C10 O2 -12.3(4) 4_546 . . . ?
Co1 O1 C10 C9 165.26(16) 4_546 . . . ?
C8 C9 C10 O1 -169.9(2) . . . . ?
C7 C9 C10 O1 0.3(4) . . . . ?
C8 C9 C10 O2 7.9(4) . . . . ?
C7 C9 C10 O2 178.1(3) . . . . ?
C15 N3 C11 C12 1.9(5) . . . . ?
Co1 N3 C11 C12 -168.1(3) . . . . ?
N3 C11 C12 C13 -0.2(5) . . . . ?
C11 C12 C13 C14 -1.6(5) . . . . ?
C11 C12 C13 C13 177.2(3) . . . 2_657 ?
C12 C13 C14 C15 1.8(4) . . . . ?
C13 C13 C14 C15 -177.1(3) 2_657 . . . ?
C11 N3 C15 C14 -1.7(4) . . . . ?
Co1 N3 C15 C14 168.4(2) . . . . ?
C13 C14 C15 N3 -0.1(5) . . . . ?

loop_
_geom_hbond_atom_site_label_D
_geom_hbond_atom_site_label_H
_geom_hbond_atom_site_label_A
_geom_hbond_distance_DH
_geom_hbond_distance_HA
_geom_hbond_distance_DA
_geom_hbond_angle_DHA
_geom_hbond_site_symmetry_A
N2 H2D O2 0.86 1.91 2.679(3) 148.8 4_556

_diffrn_measured_fraction_theta_max 0.999
_diffrn_reflns_theta_full        25.50
_diffrn_measured_fraction_theta_full 0.999
_refine_diff_density_max         0.811
_refine_diff_density_min         -0.402
_refine_diff_density_rms         0.087

loop_
_platon_squeeze_void_nr
_platon_squeeze_void_average_x
_platon_squeeze_void_average_y
_platon_squeeze_void_average_z
_platon_squeeze_void_volume
_platon_squeeze_void_count_electrons
_platon_squeeze_void_content
1 0.000 -0.009 -0.024 515 86 ' '
2 0.500 0.032 -0.023 515 86 ' '
_platon_squeeze_details          
;
;




