####################################################################### 
# 
# This file contains crystal structure data downloaded from the 
# Cambridge Structural Database (CSD) hosted by the Cambridge 
# Crystallographic Data Centre (CCDC).
# 
# Full information about CCDC data access policies and citation 
# guidelines are available at http://www.ccdc.cam.ac.uk/access/V1 
# 
# Audit and citation data items may have been added by the CCDC. 
# Please retain this information to preserve the provenance of 
# this file and to allow appropriate attribution of the data. 
# 
#######################################################################

data_1
_audit_block_doi                 10.5517/ccvzt5s
_database_code_depnum_ccdc_archive 'CCDC 804176'
loop_
_citation_id
_citation_doi
_citation_year
1 10.1016/j.inoche.2011.09.004 2011
_audit_update_record             
;
2010-12-08 deposited with the CCDC.	2024-07-11 downloaded from the CCDC.
;
#TrackingRef '1.cif'


_audit_creation_method           SHELXL-97
_chemical_name_systematic        
;
?
;
_chemical_name_common            ?
_chemical_melting_point          ?
_chemical_formula_moiety         ?
_chemical_formula_sum            'C7 H Co N0 Na O8'
_chemical_formula_weight         295.00

loop_
_atom_type_symbol
_atom_type_description
_atom_type_scat_dispersion_real
_atom_type_scat_dispersion_imag
_atom_type_scat_source
C C 0.0033 0.0016 'International Tables Vol C Tables 4.2.6.8 and 6.1.1.4'
H H 0.0000 0.0000 'International Tables Vol C Tables 4.2.6.8 and 6.1.1.4'
Co Co 0.3494 0.9721 'International Tables Vol C Tables 4.2.6.8 and 6.1.1.4'
N N 0.0061 0.0033 'International Tables Vol C Tables 4.2.6.8 and 6.1.1.4'
Na Na 0.0362 0.0249 'International Tables Vol C Tables 4.2.6.8 and 6.1.1.4'
O O 0.0106 0.0060 'International Tables Vol C Tables 4.2.6.8 and 6.1.1.4'

_symmetry_cell_setting           ?
_symmetry_space_group_name_H-M   ?

loop_
_symmetry_equiv_pos_as_xyz
'x, y, z'
'-x, y, -z'
'x+1/2, y+1/2, z'
'-x+1/2, y+1/2, -z'
'-x, -y, -z'
'x, -y, z'
'-x+1/2, -y+1/2, -z'
'x+1/2, -y+1/2, z'

_cell_length_a                   9.678(4)
_cell_length_b                   21.742(8)
_cell_length_c                   7.707(3)
_cell_angle_alpha                90.00
_cell_angle_beta                 127.400(4)
_cell_angle_gamma                90.00
_cell_volume                     1288.3(9)
_cell_formula_units_Z            4
_cell_measurement_temperature    293(2)
_cell_measurement_reflns_used    ?
_cell_measurement_theta_min      ?
_cell_measurement_theta_max      ?

_exptl_crystal_description       ?
_exptl_crystal_colour            ?
_exptl_crystal_size_max          0.22
_exptl_crystal_size_mid          0.21
_exptl_crystal_size_min          0.20
_exptl_crystal_density_meas      ?
_exptl_crystal_density_diffrn    1.521
_exptl_crystal_density_method    'not measured'
_exptl_crystal_F_000             580
_exptl_absorpt_coefficient_mu    1.387
_exptl_absorpt_correction_type   ?
_exptl_absorpt_correction_T_min  0.7501
_exptl_absorpt_correction_T_max  0.7689
_exptl_absorpt_process_details   ?

_exptl_special_details           
;
?
;

_diffrn_ambient_temperature      293(2)
_diffrn_radiation_wavelength     0.71073
_diffrn_radiation_type           MoK\a
_diffrn_radiation_source         'fine-focus sealed tube'
_diffrn_radiation_monochromator  graphite
_diffrn_measurement_device_type  ?
_diffrn_measurement_method       ?
_diffrn_detector_area_resol_mean ?
_diffrn_standards_number         ?
_diffrn_standards_interval_count ?
_diffrn_standards_interval_time  ?
_diffrn_standards_decay_%        ?
_diffrn_reflns_number            3470
_diffrn_reflns_av_R_equivalents  0.0259
_diffrn_reflns_av_sigmaI/netI    0.0278
_diffrn_reflns_limit_h_min       -6
_diffrn_reflns_limit_h_max       11
_diffrn_reflns_limit_k_min       -25
_diffrn_reflns_limit_k_max       25
_diffrn_reflns_limit_l_min       -9
_diffrn_reflns_limit_l_max       7
_diffrn_reflns_theta_min         1.87
_diffrn_reflns_theta_max         25.01
_reflns_number_total             1179
_reflns_number_gt                1114
_reflns_threshold_expression     >2sigma(I)

_computing_data_collection       ?
_computing_cell_refinement       ?
_computing_data_reduction        ?
_computing_structure_solution    'SHELXS-97 (Sheldrick, 1990)'
_computing_structure_refinement  'SHELXL-97 (Sheldrick, 1997)'
_computing_molecular_graphics    ?
_computing_publication_material  ?

_refine_special_details          
;
Refinement of F^2^ against ALL reflections. The weighted R-factor wR and
goodness of fit S are based on F^2^, conventional R-factors R are based
on F, with F set to zero for negative F^2^. The threshold expression of
F^2^ > 2sigma(F^2^) is used only for calculating R-factors(gt) etc. and is
not relevant to the choice of reflections for refinement. R-factors based
on F^2^ are statistically about twice as large as those based on F, and R-
factors based on ALL data will be even larger.
;

_refine_ls_structure_factor_coef Fsqd
_refine_ls_matrix_type           full
_refine_ls_weighting_scheme      calc
_refine_ls_weighting_details     
'calc w=1/[\s^2^(Fo^2^)+(0.0361P)^2^+1.6601P] where P=(Fo^2^+2Fc^2^)/3'
_atom_sites_solution_primary     direct
_atom_sites_solution_secondary   difmap
_atom_sites_solution_hydrogens   geom
_refine_ls_hydrogen_treatment    mixed
_refine_ls_extinction_method     none
_refine_ls_extinction_coef       ?
_refine_ls_number_reflns         1179
_refine_ls_number_parameters     81
_refine_ls_number_restraints     0
_refine_ls_R_factor_all          0.0277
_refine_ls_R_factor_gt           0.0263
_refine_ls_wR_factor_ref         0.0714
_refine_ls_wR_factor_gt          0.0706
_refine_ls_goodness_of_fit_ref   1.092
_refine_ls_restrained_S_all      1.092
_refine_ls_shift/su_max          0.000
_refine_ls_shift/su_mean         0.000

loop_
_atom_site_label
_atom_site_type_symbol
_atom_site_fract_x
_atom_site_fract_y
_atom_site_fract_z
_atom_site_U_iso_or_equiv
_atom_site_adp_type
_atom_site_occupancy
_atom_site_symmetry_multiplicity
_atom_site_calc_flag
_atom_site_refinement_flags
_atom_site_disorder_assembly
_atom_site_disorder_group
Co1 Co 0.5000 0.191157(15) 0.0000 0.01550(15) Uani 1 2 d S . .
Na Na 0.2500 0.2500 -0.5000 0.0289(3) Uani 1 2 d S . .
O1 O 0.52550(18) 0.25891(7) -0.1793(2) 0.0242(3) Uani 1 1 d . . .
O2 O 0.72803(18) 0.29252(7) -0.2088(2) 0.0229(3) Uani 1 1 d . . .
O3 O 0.4765(2) 0.12290(7) 0.1606(3) 0.0319(4) Uani 1 1 d . . .
O4 O 0.6722(3) 0.15005(8) 0.5089(3) 0.0539(6) Uani 1 1 d . . .
C4 C 0.6790(2) 0.26474(9) -0.1126(3) 0.0185(4) Uani 1 1 d . . .
C1 C 0.5614(3) 0.11501(9) 0.3645(4) 0.0256(5) Uani 1 1 d . . .
C2 C 0.5242(3) 0.05566(9) 0.4309(3) 0.0202(4) Uani 1 1 d . . .
C3 C 0.5466(4) 0.0000 0.3625(5) 0.0228(6) Uani 1 2 d S . .
H3 H 0.5772 0.0000 0.2691 0.027 Uiso 1 2 calc SR . .

loop_
_atom_site_aniso_label
_atom_site_aniso_U_11
_atom_site_aniso_U_22
_atom_site_aniso_U_33
_atom_site_aniso_U_23
_atom_site_aniso_U_13
_atom_site_aniso_U_12
Co1 0.0192(2) 0.0130(2) 0.0200(2) 0.000 0.01493(19) 0.000
Na 0.0317(7) 0.0232(6) 0.0229(6) 0.0006(5) 0.0120(5) 0.0094(5)
O1 0.0194(7) 0.0272(8) 0.0285(8) 0.0052(6) 0.0158(7) 0.0006(6)
O2 0.0249(8) 0.0240(7) 0.0266(8) 0.0025(6) 0.0191(7) -0.0024(6)
O3 0.0499(10) 0.0224(8) 0.0276(9) 0.0007(6) 0.0258(8) -0.0102(7)
O4 0.0679(13) 0.0298(9) 0.0352(10) 0.0026(8) 0.0163(10) -0.0257(9)
C4 0.0211(10) 0.0164(9) 0.0242(11) -0.0031(8) 0.0169(9) -0.0030(8)
C1 0.0346(12) 0.0159(10) 0.0301(12) 0.0016(8) 0.0216(10) -0.0024(9)
C2 0.0273(11) 0.0141(10) 0.0218(10) 0.0007(7) 0.0162(9) -0.0016(8)
C3 0.0338(16) 0.0191(14) 0.0264(15) 0.000 0.0239(14) 0.000

_geom_special_details            
;
All esds (except the esd in the dihedral angle between two l.s. planes)
are estimated using the full covariance matrix. The cell esds are taken
into account individually in the estimation of esds in distances, angles
and torsion angles; correlations between esds in cell parameters are only
used when they are defined by crystal symmetry. An approximate (isotropic)
treatment of cell esds is used for estimating esds involving l.s. planes.
;

loop_
_geom_bond_atom_site_label_1
_geom_bond_atom_site_label_2
_geom_bond_distance
_geom_bond_site_symmetry_2
_geom_bond_publ_flag
Co1 O3 2.0315(15) 2_655 ?
Co1 O3 2.0315(15) . ?
Co1 O2 2.1209(17) 7_655 ?
Co1 O2 2.1209(17) 8_455 ?
Co1 O1 2.1340(15) 2_655 ?
Co1 O1 2.1340(15) . ?
Co1 Na 3.3188(11) 2_655 ?
Co1 Na 3.3188(11) . ?
Na O1 2.2914(16) 7_554 ?
Na O1 2.2914(16) . ?
Na O4 2.3146(19) 8_454 ?
Na O4 2.3146(19) 2_655 ?
Na O2 2.5528(17) 8_455 ?
Na O2 2.5528(17) 2_654 ?
Na Co1 3.3188(11) 7_554 ?
O1 C4 1.249(3) . ?
O2 C4 1.251(2) . ?
O2 Co1 2.1209(17) 7_655 ?
O2 Na 2.5528(17) 2_654 ?
O3 C1 1.268(3) . ?
O4 C1 1.232(3) . ?
O4 Na 2.3146(19) 2_655 ?
C4 C4 1.554(4) 7_655 ?
C1 C2 1.510(3) . ?
C2 C3 1.389(2) . ?
C2 C2 1.399(4) 2_656 ?
C3 C2 1.389(2) 6 ?
C3 H3 0.9300 . ?

loop_
_geom_angle_atom_site_label_1
_geom_angle_atom_site_label_2
_geom_angle_atom_site_label_3
_geom_angle
_geom_angle_site_symmetry_1
_geom_angle_site_symmetry_3
_geom_angle_publ_flag
O3 Co1 O3 86.15(10) 2_655 . ?
O3 Co1 O2 92.18(7) 2_655 7_655 ?
O3 Co1 O2 101.92(6) . 7_655 ?
O3 Co1 O2 101.92(6) 2_655 8_455 ?
O3 Co1 O2 92.18(7) . 8_455 ?
O2 Co1 O2 160.73(8) 7_655 8_455 ?
O3 Co1 O1 176.72(6) 2_655 2_655 ?
O3 Co1 O1 90.58(7) . 2_655 ?
O2 Co1 O1 88.37(6) 7_655 2_655 ?
O2 Co1 O1 78.31(6) 8_455 2_655 ?
O3 Co1 O1 90.58(7) 2_655 . ?
O3 Co1 O1 176.72(6) . . ?
O2 Co1 O1 78.31(6) 7_655 . ?
O2 Co1 O1 88.37(6) 8_455 . ?
O1 Co1 O1 92.70(9) 2_655 . ?
O3 Co1 Na 135.77(5) 2_655 2_655 ?
O3 Co1 Na 81.18(5) . 2_655 ?
O2 Co1 Na 50.28(4) 7_655 2_655 ?
O2 Co1 Na 120.66(4) 8_455 2_655 ?
O1 Co1 Na 43.24(4) 2_655 2_655 ?
O1 Co1 Na 101.32(5) . 2_655 ?
O3 Co1 Na 81.18(5) 2_655 . ?
O3 Co1 Na 135.77(5) . . ?
O2 Co1 Na 120.66(4) 7_655 . ?
O2 Co1 Na 50.28(4) 8_455 . ?
O1 Co1 Na 101.32(5) 2_655 . ?
O1 Co1 Na 43.24(4) . . ?
Na Co1 Na 134.65(2) 2_655 . ?
O1 Na O1 180.0 7_554 . ?
O1 Na O4 85.70(6) 7_554 8_454 ?
O1 Na O4 94.30(6) . 8_454 ?
O1 Na O4 94.30(6) 7_554 2_655 ?
O1 Na O4 85.70(6) . 2_655 ?
O4 Na O4 180.00(12) 8_454 2_655 ?
O1 Na O2 104.72(6) 7_554 8_455 ?
O1 Na O2 75.28(6) . 8_455 ?
O4 Na O2 96.41(7) 8_454 8_455 ?
O4 Na O2 83.59(7) 2_655 8_455 ?
O1 Na O2 75.28(6) 7_554 2_654 ?
O1 Na O2 104.72(6) . 2_654 ?
O4 Na O2 83.59(7) 8_454 2_654 ?
O4 Na O2 96.41(7) 2_655 2_654 ?
O2 Na O2 180.00(9) 8_455 2_654 ?
O1 Na Co1 140.35(4) 7_554 . ?
O1 Na Co1 39.65(4) . . ?
O4 Na Co1 110.39(5) 8_454 . ?
O4 Na Co1 69.61(5) 2_655 . ?
O2 Na Co1 39.72(4) 8_455 . ?
O2 Na Co1 140.28(4) 2_654 . ?
O1 Na Co1 39.65(4) 7_554 7_554 ?
O1 Na Co1 140.35(4) . 7_554 ?
O4 Na Co1 69.61(5) 8_454 7_554 ?
O4 Na Co1 110.39(5) 2_655 7_554 ?
O2 Na Co1 140.28(4) 8_455 7_554 ?
O2 Na Co1 39.72(4) 2_654 7_554 ?
Co1 Na Co1 180.000(11) . 7_554 ?
C4 O1 Co1 112.35(13) . . ?
C4 O1 Na 140.02(13) . . ?
Co1 O1 Na 97.11(6) . . ?
C4 O2 Co1 111.94(13) . 7_655 ?
C4 O2 Na 127.58(13) . 2_654 ?
Co1 O2 Na 90.00(6) 7_655 2_654 ?
C1 O3 Co1 128.78(14) . . ?
C1 O4 Na 132.37(16) . 2_655 ?
O1 C4 O2 126.13(19) . . ?
O1 C4 C4 116.2(2) . 7_655 ?
O2 C4 C4 117.7(2) . 7_655 ?
O4 C1 O3 126.1(2) . . ?
O4 C1 C2 118.6(2) . . ?
O3 C1 C2 115.31(18) . . ?
C3 C2 C2 119.40(13) . 2_656 ?
C3 C2 C1 119.42(19) . . ?
C2 C2 C1 121.11(11) 2_656 . ?
C2 C3 C2 121.2(3) . 6 ?
C2 C3 H3 119.4 . . ?
C2 C3 H3 119.4 6 . ?

loop_
_geom_torsion_atom_site_label_1
_geom_torsion_atom_site_label_2
_geom_torsion_atom_site_label_3
_geom_torsion_atom_site_label_4
_geom_torsion
_geom_torsion_site_symmetry_1
_geom_torsion_site_symmetry_2
_geom_torsion_site_symmetry_3
_geom_torsion_site_symmetry_4
_geom_torsion_publ_flag
O3 Co1 Na O1 79.64(8) 2_655 . . 7_554 ?
O3 Co1 Na O1 4.52(9) . . . 7_554 ?
O2 Co1 Na O1 166.93(8) 7_655 . . 7_554 ?
O2 Co1 Na O1 -33.98(8) 8_455 . . 7_554 ?
O1 Co1 Na O1 -98.20(10) 2_655 . . 7_554 ?
O1 Co1 Na O1 180.0 . . . 7_554 ?
Na Co1 Na O1 -130.37(6) 2_655 . . 7_554 ?
O3 Co1 Na O1 -100.36(8) 2_655 . . . ?
O3 Co1 Na O1 -175.48(9) . . . . ?
O2 Co1 Na O1 -13.07(8) 7_655 . . . ?
O2 Co1 Na O1 146.02(8) 8_455 . . . ?
O1 Co1 Na O1 81.80(10) 2_655 . . . ?
Na Co1 Na O1 49.63(6) 2_655 . . . ?
O3 Co1 Na O4 -171.52(8) 2_655 . . 8_454 ?
O3 Co1 Na O4 113.37(10) . . . 8_454 ?
O2 Co1 Na O4 -84.23(8) 7_655 . . 8_454 ?
O2 Co1 Na O4 74.87(8) 8_455 . . 8_454 ?
O1 Co1 Na O4 10.64(8) 2_655 . . 8_454 ?
O1 Co1 Na O4 -71.15(9) . . . 8_454 ?
Na Co1 Na O4 -21.52(7) 2_655 . . 8_454 ?
O3 Co1 Na O4 8.48(8) 2_655 . . 2_655 ?
O3 Co1 Na O4 -66.63(10) . . . 2_655 ?
O2 Co1 Na O4 95.77(8) 7_655 . . 2_655 ?
O2 Co1 Na O4 -105.13(8) 8_455 . . 2_655 ?
O1 Co1 Na O4 -169.36(8) 2_655 . . 2_655 ?
O1 Co1 Na O4 108.85(9) . . . 2_655 ?
Na Co1 Na O4 158.48(7) 2_655 . . 2_655 ?
O3 Co1 Na O2 113.61(7) 2_655 . . 8_455 ?
O3 Co1 Na O2 38.50(9) . . . 8_455 ?
O2 Co1 Na O2 -159.10(9) 7_655 . . 8_455 ?
O1 Co1 Na O2 -64.23(7) 2_655 . . 8_455 ?
O1 Co1 Na O2 -146.02(8) . . . 8_455 ?
Na Co1 Na O2 -96.39(5) 2_655 . . 8_455 ?
O3 Co1 Na O2 -66.39(7) 2_655 . . 2_654 ?
O3 Co1 Na O2 -141.50(9) . . . 2_654 ?
O2 Co1 Na O2 20.90(9) 7_655 . . 2_654 ?
O2 Co1 Na O2 180.0 8_455 . . 2_654 ?
O1 Co1 Na O2 115.77(7) 2_655 . . 2_654 ?
O1 Co1 Na O2 33.98(8) . . . 2_654 ?
Na Co1 Na O2 83.61(5) 2_655 . . 2_654 ?
O3 Co1 Na Co1 -122(100) 2_655 . . 7_554 ?
O3 Co1 Na Co1 163(100) . . . 7_554 ?
O2 Co1 Na Co1 -34(100) 7_655 . . 7_554 ?
O2 Co1 Na Co1 125(100) 8_455 . . 7_554 ?
O1 Co1 Na Co1 60(100) 2_655 . . 7_554 ?
O1 Co1 Na Co1 -21(100) . . . 7_554 ?
Na Co1 Na Co1 28(100) 2_655 . . 7_554 ?
O3 Co1 O1 C4 -75.96(14) 2_655 . . . ?
O3 Co1 O1 C4 -78.2(10) . . . . ?
O2 Co1 O1 C4 16.14(13) 7_655 . . . ?
O2 Co1 O1 C4 -177.87(14) 8_455 . . . ?
O1 Co1 O1 C4 103.92(14) 2_655 . . . ?
Na Co1 O1 C4 61.16(14) 2_655 . . . ?
Na Co1 O1 C4 -152.39(16) . . . . ?
O3 Co1 O1 Na 76.43(7) 2_655 . . . ?
O3 Co1 O1 Na 74.2(10) . . . . ?
O2 Co1 O1 Na 168.54(7) 7_655 . . . ?
O2 Co1 O1 Na -25.47(6) 8_455 . . . ?
O1 Co1 O1 Na -103.69(7) 2_655 . . . ?
Na Co1 O1 Na -146.44(4) 2_655 . . . ?
O1 Na O1 C4 -18(100) 7_554 . . . ?
O4 Na O1 C4 -104.7(2) 8_454 . . . ?
O4 Na O1 C4 75.3(2) 2_655 . . . ?
O2 Na O1 C4 159.8(2) 8_455 . . . ?
O2 Na O1 C4 -20.2(2) 2_654 . . . ?
Co1 Na O1 C4 138.2(2) . . . . ?
Co1 Na O1 C4 -41.8(2) 7_554 . . . ?
O1 Na O1 Co1 -156(100) 7_554 . . . ?
O4 Na O1 Co1 117.18(8) 8_454 . . . ?
O4 Na O1 Co1 -62.82(8) 2_655 . . . ?
O2 Na O1 Co1 21.67(5) 8_455 . . . ?
O2 Na O1 Co1 -158.33(5) 2_654 . . . ?
Co1 Na O1 Co1 180.0 7_554 . . . ?
O3 Co1 O3 C1 127.2(2) 2_655 . . . ?
O2 Co1 O3 C1 35.8(2) 7_655 . . . ?
O2 Co1 O3 C1 -130.95(19) 8_455 . . . ?
O1 Co1 O3 C1 -52.6(2) 2_655 . . . ?
O1 Co1 O3 C1 129.5(10) . . . . ?
Na Co1 O3 C1 -10.25(19) 2_655 . . . ?
Na Co1 O3 C1 -159.58(16) . . . . ?
Co1 O1 C4 O2 166.65(16) . . . . ?
Na O1 C4 O2 32.3(3) . . . . ?
Co1 O1 C4 C4 -14.3(3) . . . 7_655 ?
Na O1 C4 C4 -148.59(17) . . . 7_655 ?
Co1 O2 C4 O1 165.92(16) 7_655 . . . ?
Na O2 C4 O1 -86.0(2) 2_654 . . . ?
Co1 O2 C4 C4 -13.1(3) 7_655 . . 7_655 ?
Na O2 C4 C4 94.9(2) 2_654 . . 7_655 ?
Na O4 C1 O3 12.2(4) 2_655 . . . ?
Na O4 C1 C2 -169.97(17) 2_655 . . . ?
Co1 O3 C1 O4 3.9(4) . . . . ?
Co1 O3 C1 C2 -173.93(13) . . . . ?
O4 C1 C2 C3 -121.1(3) . . . . ?
O3 C1 C2 C3 56.9(3) . . . . ?
O4 C1 C2 C2 55.6(4) . . . 2_656 ?
O3 C1 C2 C2 -126.3(3) . . . 2_656 ?
C2 C2 C3 C2 -0.8(5) 2_656 . . 6 ?
C1 C2 C3 C2 175.99(18) . . . 6 ?

_diffrn_measured_fraction_theta_max 0.999
_diffrn_reflns_theta_full        25.01
_diffrn_measured_fraction_theta_full 0.999
_refine_diff_density_max         0.733
_refine_diff_density_min         -0.339
_refine_diff_density_rms         0.062
