
#######################################################################
#
#                 Cambridge Crystallographic Data Centre
#                                CCDC
#
#######################################################################
#
# If this CIF has been generated from an entry in the Cambridge
# Structural Database, then it will include bibliographic, chemical,
# crystal, experimental, refinement or atomic coordinate data resulting
# from the CCDC's data processing and validation procedures.
#
#######################################################################

data_CSD_CIF_NASLOI
_audit_creation_date 1998-03-31
_audit_creation_method CSD-ConQuest-V1
_database_code_CSD NASLOI
_database_code_depnum_ccdc_archive 'CCDC 1217141'
_database_code_depnum_ccdc_fiz 'CSD 404820'
_chemical_formula_sum 'C20 H24 I3 O6 Sm1'
_chemical_formula_moiety
;
C20 H24 I3 O6 Sm1
;
_journal_coden_Cambridge 29
_journal_volume 623
_journal_year 1997
_journal_page_first 981
_journal_name_full 'Z.Anorg.Allg.Chem. '
loop_
_publ_author_name
"C.Runschke"
"G.Meyer"
_chemical_name_systematic
;
(Dibenzo-18-crown-6)-tri-iodo-samarium(iii)
;
_chemical_name_common
;
Teaching Subset: Fundamental Chemistry, Symmetry
;
_cell_volume   2493.069
_exptl_crystal_colour 'red'
_exptl_crystal_density_diffrn 2.375
_diffrn_ambient_temperature ?
_diffrn_special_details
;
The study was carried out at room temperature,in the range 283-303K

;
#These two values have been output from a single CSD field.
_refine_ls_R_factor_gt 0.0408
_refine_ls_wR_factor_gt 0.0408
_symmetry_cell_setting tetragonal
_symmetry_space_group_name_H-M 'P 43 21 2'
_symmetry_Int_Tables_number 96
loop_
_symmetry_equiv_pos_site_id
_symmetry_equiv_pos_as_xyz
1 x,y,z
2 1/2-y,1/2+x,3/4+z
3 1/2+x,1/2-y,1/4-z
4 -x,-y,1/2+z
5 y,x,-z
6 1/2+y,1/2-x,1/4+z
7 1/2-x,1/2+y,3/4-z
8 -y,-x,1/2-z
_cell_length_a 9.627(1)
_cell_length_b 9.627(1)
_cell_length_c 26.900(3)
_cell_angle_alpha 90
_cell_angle_beta 90
_cell_angle_gamma 90
_cell_formula_units_Z 4
loop_
_atom_type_symbol
_atom_type_radius_bond
C 0.68
H 0.23
I 1.40
O 0.68
Sm 1.80
loop_
_atom_site_label
_atom_site_type_symbol
_atom_site_fract_x
_atom_site_fract_y
_atom_site_fract_z
Sm1 Sm 0.84102(6) 0.84102(6) 0.00000
I1 I 0.60559(9) 0.60559(9) 0.00000
I2 I 1.15863(9) 0.89869(9) 0.02439(3)
O1 O 0.6329(7) 0.9922(7) 0.0366(2)
O2 O 0.9243(8) 0.6497(8) 0.0585(2)
O3 O 0.8135(8) 0.8794(8) 0.0927(2)
C1 C 0.6672(11) 1.0692(11) 0.0792(4)
C2 C 0.5352(12) 1.0550(14) 0.0034(4)
H1 H 0.5711(12) 1.1424(14) -0.0091(4)
H2 H 0.4481(12) 1.0727(14) 0.0204(4)
C3 C 0.8767(15) 0.6477(14) 0.1085(4)
H3 H 0.9341(15) 0.5861(14) 0.1282(4)
H4 H 0.7816(15) 0.6144(14) 0.1098(4)
C4 C 0.7639(13) 1.0075(14) 0.1100(4)
C5 C 0.8077(14) 1.0676(15) 0.1525(5)
H5 H 0.8746(14) 1.0259(15) 0.1725(5)
C6 C 0.8847(13) 0.7923(12) 0.1284(4)
H6 H 0.8398(13) 0.7980(12) 0.1606(4)
H7 H 0.9807(13) 0.8211(12) 0.1320(4)
C7 C 0.9538(15) 0.5132(12) 0.0388(4)
H8 H 0.8693(15) 0.4696(12) 0.0268(4)
H9 H 0.9945(15) 0.4545(12) 0.0642(4)
C8 C 0.6505(15) 1.2603(16) 0.1356(5)
H10 H 0.6099(15) 1.3437(16) 0.1453(5)
C9 C 0.6139(14) 1.1979(14) 0.0906(5)
H11 H 0.5542(14) 1.2428(14) 0.0686(5)
C10 C 0.7475(14) 1.1964(15) 0.1654(6)
H12 H 0.7742(14) 1.2393(15) 0.1949(6)
I2D I 0.89869(9) 1.15863(9) -0.02439(3)
O1D O 0.9922(7) 0.6329(7) -0.0366(2)
C1D C 1.0692(11) 0.6672(11) -0.0792(4)
C4D C 1.0075(13) 0.7639(14) -0.1100(4)
O3D O 0.8794(8) 0.8135(8) -0.0927(2)
C2D C 1.0550(12) 0.5352(14) -0.0034(4)
H1D H 1.1424(12) 0.5711(14) 0.0091(4)
H2D H 1.0727(12) 0.4481(14) -0.0204(4)
O2D O 0.6497(8) 0.9243(8) -0.0585(2)
C3D C 0.6477(15) 0.8767(14) -0.1085(4)
H3D H 0.5861(15) 0.9341(14) -0.1282(4)
H4D H 0.6144(15) 0.7816(14) -0.1098(4)
C6D C 0.7923(13) 0.8847(12) -0.1284(4)
H6D H 0.7980(13) 0.8398(12) -0.1606(4)
H7D H 0.8211(13) 0.9807(12) -0.1320(4)
C7D C 0.5132(15) 0.9538(12) -0.0388(4)
H8D H 0.4696(15) 0.8693(12) -0.0268(4)
H9D H 0.4545(15) 0.9945(12) -0.0642(4)
C5D C 1.0676(14) 0.8077(15) -0.1525(5)
H5D H 1.0259(14) 0.8746(15) -0.1725(5)
C10D C 1.1964(14) 0.7475(15) -0.1654(6)
C8D C 1.2603(15) 0.6505(16) -0.1356(5)
H10D H 1.3437(15) 0.6099(16) -0.1453(5)
C9D C 1.1979(14) 0.6139(14) -0.0906(5)
H11D H 1.2428(14) 0.5542(14) -0.0686(5)
H12D H 1.2393(14) 0.7742(15) -0.1949(6)
#END
