####################################################################### 
# 
# This file contains crystal structure data downloaded from the 
# Cambridge Structural Database (CSD) hosted by the Cambridge 
# Crystallographic Data Centre (CCDC).
# 
# Full information about CCDC data access policies and citation 
# guidelines are available at http://www.ccdc.cam.ac.uk/access/V1 
# 
# Audit and citation data items may have been added by the CCDC. 
# Please retain this information to preserve the provenance of 
# this file and to allow appropriate attribution of the data. 
# 
#######################################################################

data_dbsdsuni-sr
_audit_block_doi                 10.5517/ccy14hl
_database_code_depnum_ccdc_archive 'CCDC 865039'
loop_
_citation_id
_citation_doi
_citation_year
1 10.1039/c2dt30184a 2012
_audit_update_record             
;
2012-01-26 deposited with the CCDC.	2024-07-11 downloaded from the CCDC.
;
#TrackingRef '- Structure1_Ni new.cif'

_audit_creation_date             2012-02-16
_audit_creation_method           
;
Olex2 1.1
(compiled Nov 1 2011 20:42:30, GUI svn.r3906)
;
_chemical_name_common            ?
_chemical_name_systematic        
;
?
;
_chemical_formula_moiety         
'C96 H52 Cd2 N8 Ni1.12 O18, 3(C5 H11 N1 O1), (H2 O1), (C5, H11, N1)'
_chemical_formula_sum            'C105.50 H76 Cd2 N10 Ni2 O20.50'
_chemical_formula_weight         2153.98
_chemical_melting_point          ?
loop_
_atom_type_symbol
_atom_type_description
_atom_type_scat_dispersion_real
_atom_type_scat_dispersion_imag
_atom_type_scat_source
C C 0.0181 0.0091 'International Tables Vol C Tables 4.2.6.8 and 6.1.1.4'
H H 0.0000 0.0000 'International Tables Vol C Tables 4.2.6.8 and 6.1.1.4'
Cd Cd 0.1185 4.6533 'International Tables Vol C Tables 4.2.6.8 and 6.1.1.4'
N N 0.0311 0.0180 'International Tables Vol C Tables 4.2.6.8 and 6.1.1.4'
Ni Ni -3.0029 0.5091 'International Tables Vol C Tables 4.2.6.8 and 6.1.1.4'
O O 0.0492 0.0322 'International Tables Vol C Tables 4.2.6.8 and 6.1.1.4'

_space_group_crystal_system      orthorhombic
_space_group_IT_number           61
_space_group_name_H-M_alt        'P b c a'
_space_group_name_Hall           '-P 2ac 2ab'
loop_
_space_group_symop_id
_space_group_symop_operation_xyz
1 'x, y, z'
2 '-x+1/2, -y, z+1/2'
3 '-x, y+1/2, -z+1/2'
4 'x+1/2, -y+1/2, -z'
5 '-x, -y, -z'
6 'x-1/2, y, -z-1/2'
7 'x, -y-1/2, z-1/2'
8 '-x-1/2, y-1/2, z'

_cell_length_a                   59.431(2)
_cell_length_b                   9.3517(4)
_cell_length_c                   41.7871(17)
_cell_angle_alpha                90.00
_cell_angle_beta                 90.00
_cell_angle_gamma                90.00
_cell_volume                     23224.5(16)
_cell_formula_units_Z            8
_cell_measurement_reflns_used    9816
_cell_measurement_temperature    100(2)
_cell_measurement_theta_max      122.32
_cell_measurement_theta_min      2.98
_exptl_absorpt_coefficient_mu    3.790
_exptl_absorpt_correction_T_max  0.5753
_exptl_absorpt_correction_T_min  0.4461
_exptl_absorpt_correction_type   multi-scan
_exptl_absorpt_process_details   SADABS
_exptl_crystal_colour            purple-red
_exptl_crystal_density_diffrn    1.232
_exptl_crystal_density_meas      'not measured'
_exptl_crystal_density_method    'not measured'
_exptl_crystal_description       'irregular blocks'
_exptl_crystal_F_000             8760
_exptl_crystal_size_max          0.25
_exptl_crystal_size_mid          0.20
_exptl_crystal_size_min          0.16
_exptl_special_details           
;
?
;
_diffrn_reflns_av_R_equivalents  0.0740
_diffrn_reflns_av_unetI/netI     0.0560
_diffrn_reflns_limit_h_max       67
_diffrn_reflns_limit_h_min       -66
_diffrn_reflns_limit_k_max       10
_diffrn_reflns_limit_k_min       -9
_diffrn_reflns_limit_l_max       47
_diffrn_reflns_limit_l_min       -47
_diffrn_reflns_number            95677
_diffrn_reflns_theta_full        61.16
_diffrn_reflns_theta_max         61.16
_diffrn_reflns_theta_min         1.49
_diffrn_ambient_temperature      100.0
_diffrn_detector_area_resol_mean ?
_diffrn_measured_fraction_theta_full 0.960
_diffrn_measured_fraction_theta_max 0.960
_diffrn_measurement_device_type  'Bruker Smart 6K CCD'
_diffrn_measurement_method       '\f and \w scans'
_diffrn_radiation_monochromator  graphite
_diffrn_radiation_type           'CU K\a'
_diffrn_radiation_wavelength     1.54184
_diffrn_source                   'fine-focus sealed tube'
_diffrn_source_current           20.0
_diffrn_source_power             0.9
_diffrn_source_voltage           45.0
_reflns_number_gt                12550
_reflns_number_total             17152
_reflns_threshold_expression     >2sigma(I)
_computing_cell_refinement       'Bruker APEX2'
_computing_data_collection       'Bruker SAINT'
_computing_data_reduction        'Bruker SAINT'
_computing_molecular_graphics    
;
O. V. Dolomanov, L. J. Bourhis, R. J. Gildea, J. A. K. Howard and H. Puschmann,
OLEX2: a complete structure solution, refinement and analysis program.
J. Appl. Cryst. (2009). 42, 339-341.
;
_computing_publication_material  
;
O. V. Dolomanov, L. J. Bourhis, R. J. Gildea, J. A. K. Howard and H. Puschmann,
OLEX2: a complete structure solution, refinement and analysis program.
J. Appl. Cryst. (2009). 42, 339-341.
;
_computing_structure_refinement  
;
XL, G.M. Sheldrick, Acta Cryst.
(2008). A64, 112-122
;
_computing_structure_solution    'SHELXS-97 (Sheldrick, 2008)'
_refine_diff_density_max         2.718
_refine_diff_density_min         -1.463
_refine_diff_density_rms         0.197
_refine_ls_extinction_coef       ?
_refine_ls_extinction_method     none
_refine_ls_goodness_of_fit_ref   1.524
_refine_ls_hydrogen_treatment    constr
_refine_ls_matrix_type           full
_refine_ls_number_parameters     1103
_refine_ls_number_reflns         17152
_refine_ls_number_restraints     24
_refine_ls_R_factor_all          0.1582
_refine_ls_R_factor_gt           0.1341
_refine_ls_restrained_S_all      1.530
_refine_ls_shift/su_max          0.001
_refine_ls_shift/su_mean         0.000
_refine_ls_structure_factor_coef Fsqd
_refine_ls_weighting_details     
'calc w=1/[\s^2^(Fo^2^)+(0.0757P)^2^+109.1495P] where P=(Fo^2^+2Fc^2^)/3'
_refine_ls_weighting_scheme      calc
_refine_ls_wR_factor_gt          0.3052
_refine_ls_wR_factor_ref         0.3175
_refine_special_details          
;
'CHEMW03_ALERT_2_A-added in atoms found using SQUEEZE'
'PLAT043_ALERT_1_A-added atoms found using SQUEEZE'
'PLAT602_ALERT-A_2-Large void typical of MOFs, treated
with SQUEEZE'
'the following constraints were used to better model disorder,
AFIX 66, ISOR, and HFIX to determine Hydrogen atoms'
loop_
_platon_squeeze_void_nr
_platon_squeeze_void_average_x
_platon_squeeze_void_average_y
_platon_squeeze_void_average_z
_platon_squeeze_void_volume
_platon_squeeze_void_count_electrons
_platon_squeeze_void_content
1 0.125 0.438 0.001 2484 896 '12[HCON(C2H5)2]4(C2H5)2NH 4H2'
2 0.375 0.073 0.002 2484 897 '12[HCON(C2H5)2]4(C2H5)2NH 4H2O'
3 0.625 1.028 -0.005 2484 898 '12[HCON(C2H5)2]4(C2H5)2NH 4H2O'
4 0.875 0.398 -0.005 2484 892 '12[HCON(C2H5)2]4(C2H5)2NH 4H2O'
_platon_squeeze_details
'SQUEEZE was performed using PLATON to account for disordered
solvent molecules and counter cations. The electron density
found in each cavity correlates to a final count of 3 molecules
of HCON(C2H5)2, 2 H2Os, and 1 (C2H5)2NH+'
Refinement of F^2^ against ALL reflections. The weighted R-factor wR and
goodness of fit S are based on F^2^, conventional R-factors R are based
on F, with F set to zero for negative F^2^. The threshold expression of
F^2^ > 2sigma(F^2^) is used only for calculating R-factors(gt) etc. and is
not relevant to the choice of reflections for refinement. R-factors based
on F^2^ are statistically about twice as large as those based on F, and R-
factors based on ALL data will be even larger.
;
_atom_sites_solution_hydrogens   geom
_atom_sites_solution_primary     direct
_atom_sites_solution_secondary   difmap
loop_
_atom_site_label
_atom_site_type_symbol
_atom_site_fract_x
_atom_site_fract_y
_atom_site_fract_z
_atom_site_U_iso_or_equiv
_atom_site_adp_type
_atom_site_occupancy
_atom_site_symmetry_multiplicity
_atom_site_calc_flag
_atom_site_refinement_flags
_atom_site_disorder_assembly
_atom_site_disorder_group
C1 C 0.01799(18) 1.4600(11) 0.4356(2) 0.048(3) Uani 1 1 d . . .
C2 C 0.03874(17) 1.4086(10) 0.4455(2) 0.042(2) Uani 1 1 d . . .
C3 C 0.06052(18) 1.4250(11) 0.4293(2) 0.051(3) Uani 1 1 d . . .
H3 H 0.0628 1.4647 0.4087 0.061 Uiso 1 1 calc R . .
C4 C 0.07673(19) 1.3736(12) 0.4490(3) 0.063(3) Uani 1 1 d . . .
H4 H 0.0924 1.3697 0.4448 0.075 Uiso 1 1 calc R . .
C5 C 0.06530(18) 1.3254(10) 0.4779(3) 0.049(2) Uani 1 1 d . . .
C6 C 0.0776(2) 1.2763(12) 0.5042(2) 0.060(3) Uani 1 1 d . . .
C7 C 0.06493(19) 1.2087(11) 0.5303(3) 0.053(3) Uani 1 1 d . . .
C8 C 0.07656(18) 1.1673(11) 0.5607(3) 0.055(3) Uani 1 1 d . . .
H8 H 0.0918 1.1849 0.5664 0.066 Uiso 1 1 calc R . .
C9 C 0.06089(18) 1.1004(11) 0.5779(2) 0.052(3) Uani 1 1 d . . .
H9 H 0.0632 1.0593 0.5984 0.062 Uiso 1 1 calc R . .
C10 C 0.03946(17) 1.0999(10) 0.5601(2) 0.044(2) Uani 1 1 d . . .
C11 C 0.01957(17) 1.0345(11) 0.5690(2) 0.045(2) Uani 1 1 d . . .
C12 C -0.00119(17) 1.0519(10) 0.55279(19) 0.042(2) Uani 1 1 d . . .
C13 C -0.02148(17) 0.9799(10) 0.5595(2) 0.044(2) Uani 1 1 d . . .
H13 H -0.0231 0.9056 0.5748 0.053 Uiso 1 1 calc R . .
C14 C -0.03798(17) 1.0310(10) 0.5413(2) 0.044(2) Uani 1 1 d . . .
H14 H -0.0533 1.0030 0.5411 0.053 Uiso 1 1 calc R . .
C15 C -0.02719(16) 1.1389(11) 0.5220(2) 0.046(2) Uani 1 1 d . . .
C16 C -0.0398(2) 1.2302(11) 0.50145(19) 0.051(3) Uani 1 1 d . . .
C17 C -0.02825(17) 1.3304(11) 0.4813(2) 0.047(2) Uani 1 1 d . . .
C18 C -0.03958(17) 1.4356(11) 0.4606(2) 0.046(2) Uani 1 1 d . . .
H18 H -0.0552 1.4580 0.4601 0.055 Uiso 1 1 calc R . .
C19 C -0.02327(17) 1.4932(9) 0.44248(19) 0.039(2) Uani 1 1 d . . .
H19 H -0.0256 1.5650 0.4267 0.046 Uiso 1 1 calc R . .
C20 C -0.00262(17) 1.4330(9) 0.44999(18) 0.038(2) Uani 1 1 d . . .
C25 C 0.13891(11) 1.1782(6) 0.5049(2) 0.083(4) Uani 1 1 d G . .
H25 H 0.1482 1.0956 0.5044 0.099 Uiso 1 1 calc R . .
C24 C 0.14858(9) 1.3135(8) 0.5057(2) 0.059(3) Uani 1 1 d G . .
C23 C 0.13497(12) 1.4344(6) 0.5064(2) 0.081(4) Uani 1 1 d GU . .
H23 H 0.1416 1.5268 0.5070 0.097 Uiso 1 1 calc R . .
C22 C 0.11169(11) 1.4199(6) 0.5064(2) 0.092(5) Uani 1 1 d G . .
H22 H 0.1024 1.5025 0.5069 0.110 Uiso 1 1 calc R . .
C21 C 0.10202(9) 1.2846(7) 0.5056(2) 0.051(3) Uani 1 1 d G . .
C26 C 0.11563(12) 1.1638(5) 0.5048(2) 0.076(4) Uani 1 1 d G . .
H26 H 0.1090 1.0713 0.5043 0.092 Uiso 1 1 calc R . .
C27 C 0.17389(18) 1.3262(11) 0.5054(3) 0.052(3) Uani 1 1 d . . .
C28 C 0.01977(16) 0.9504(10) 0.5996(2) 0.040(2) Uani 1 1 d . . .
C29 C 0.03366(17) 0.8330(10) 0.60381(19) 0.043(2) Uani 1 1 d . . .
H29 H 0.0425 0.8003 0.5864 0.051 Uiso 1 1 calc R . .
C30 C 0.03487(17) 0.7630(9) 0.6326(2) 0.041(2) Uani 1 1 d . . .
H30 H 0.0444 0.6818 0.6348 0.049 Uiso 1 1 calc R . .
C31 C 0.02244(15) 0.8093(10) 0.6585(2) 0.036(2) Uani 1 1 d . . .
C32 C 0.00880(19) 0.9228(12) 0.6541(2) 0.057(3) Uani 1 1 d . . .
H32 H 0.0001 0.9549 0.6718 0.068 Uiso 1 1 calc R . .
C33 C 0.00670(19) 0.9945(12) 0.6258(2) 0.056(3) Uani 1 1 d . . .
H33 H -0.0034 1.0727 0.6239 0.067 Uiso 1 1 calc R . .
C34 C 0.02464(16) 0.7345(10) 0.6904(2) 0.038(2) Uani 1 1 d . . .
C36 C -0.07693(11) 1.2481(8) 0.52890(11) 0.054(3) Uani 1 1 d G . .
H36 H -0.0693 1.2671 0.5484 0.065 Uiso 1 1 calc R . .
C37 C -0.10029(11) 1.2406(8) 0.52839(14) 0.069(3) Uani 1 1 d G . .
H37 H -0.1086 1.2545 0.5475 0.082 Uiso 1 1 calc R . .
C38 C -0.11146(8) 1.2127(8) 0.49984(17) 0.053(3) Uani 1 1 d G . .
C39 C -0.09929(11) 1.1922(8) 0.47181(13) 0.063(3) Uani 1 1 d G . .
H39 H -0.1069 1.1732 0.4523 0.076 Uiso 1 1 calc R . .
C40 C -0.07593(10) 1.1997(8) 0.47233(11) 0.049(2) Uani 1 1 d G . .
H40 H -0.0676 1.1858 0.4532 0.059 Uiso 1 1 calc R . .
C35 C -0.06475(8) 1.2276(7) 0.50087(14) 0.040(2) Uani 1 1 d G . .
C41 C -0.1361(3) 1.2014(13) 0.4993(4) 0.083(4) Uani 1 1 d . . .
C42 C 0.23181(17) 0.9524(10) 0.6868(2) 0.044(2) Uani 1 1 d . . .
C43 C 0.21065(17) 0.8905(10) 0.6964(3) 0.049(3) Uani 1 1 d . . .
C44 C 0.19020(19) 0.8968(11) 0.6774(3) 0.055(3) Uani 1 1 d . . .
H44 H 0.1885 0.9343 0.6564 0.066 Uiso 1 1 calc R . .
C45 C 0.1740(2) 0.8370(11) 0.6963(3) 0.066(3) Uani 1 1 d . . .
H45 H 0.1585 0.8276 0.6910 0.079 Uiso 1 1 calc R . .
C46 C 0.18453(19) 0.7905(11) 0.7257(3) 0.055(3) Uani 1 1 d . . .
C47 C 0.17392(19) 0.7275(9) 0.7520(3) 0.049(3) Uani 1 1 d . . .
C48 C 0.1845(2) 0.6724(10) 0.7787(3) 0.059(3) Uani 1 1 d . . .
C49 C 0.1730(2) 0.6234(12) 0.8075(3) 0.063(3) Uani 1 1 d . . .
H49 H 0.1573 0.6267 0.8115 0.075 Uiso 1 1 calc R . .
C50 C 0.18942(18) 0.5711(12) 0.8277(3) 0.060(3) Uani 1 1 d . . .
H50 H 0.1874 0.5340 0.8487 0.072 Uiso 1 1 calc R . .
C51 C 0.21039(18) 0.5845(11) 0.8103(2) 0.050(2) Uani 1 1 d . . .
C52 C 0.23083(16) 0.5265(9) 0.8210(2) 0.042(2) Uani 1 1 d . . .
C53 C 0.25146(18) 0.5461(11) 0.8055(2) 0.050(3) Uani 1 1 d . . .
C54 C 0.27216(18) 0.4745(11) 0.8142(2) 0.051(3) Uani 1 1 d . . .
H54 H 0.2742 0.4032 0.8301 0.062 Uiso 1 1 calc R . .
C55 C 0.28827(19) 0.5321(11) 0.7944(3) 0.057(3) Uani 1 1 d . . .
H55 H 0.3037 0.5053 0.7939 0.069 Uiso 1 1 calc R . .
C56 C 0.27783(17) 0.6411(11) 0.7742(2) 0.049(3) Uani 1 1 d . . .
C57 C 0.28937(19) 0.7353(10) 0.7542(2) 0.043(2) Uani 1 1 d . . .
C58 C 0.27824(18) 0.8313(11) 0.7339(2) 0.051(3) Uani 1 1 d . . .
C59 C 0.28942(19) 0.9355(11) 0.7142(2) 0.050(3) Uani 1 1 d . . .
H59 H 0.3050 0.9575 0.7144 0.061 Uiso 1 1 calc R . .
C60 C 0.27318(19) 0.9983(11) 0.6947(3) 0.057(3) Uani 1 1 d . . .
H60 H 0.2754 1.0715 0.6793 0.068 Uiso 1 1 calc R . .
C61 C 0.2519(2) 0.9278(11) 0.7030(2) 0.055(3) Uani 1 1 d . . .
C62 C 0.23123(17) 1.0359(10) 0.6571(2) 0.047(2) Uani 1 1 d . . .
C63 C 0.21781(18) 1.1575(10) 0.6534(2) 0.049(3) Uani 1 1 d . . .
H63 H 0.2094 1.1918 0.6711 0.059 Uiso 1 1 calc R . .
C64 C 0.21659(16) 1.2274(11) 0.6250(2) 0.044(2) Uani 1 1 d . . .
H64 H 0.2072 1.3093 0.6235 0.053 Uiso 1 1 calc R . .
C65 C 0.22840(19) 1.1848(12) 0.5981(2) 0.054(3) Uani 1 1 d . . .
C66 C 0.2425(2) 1.0655(14) 0.6018(3) 0.070(4) Uani 1 1 d . . .
H66 H 0.2511 1.0326 0.5841 0.084 Uiso 1 1 calc R . .
C67 C 0.2442(2) 0.9952(13) 0.6307(3) 0.066(3) Uani 1 1 d . . .
H67 H 0.2544 0.9174 0.6328 0.079 Uiso 1 1 calc R . .
C68 C 0.22655(19) 1.2577(12) 0.5673(2) 0.051(3) Uani 1 1 d . . .
C69 C 0.14832(8) 0.7143(7) 0.75078(18) 0.053(3) Uani 1 1 d G . .
C70 C 0.13509(11) 0.8369(5) 0.75101(19) 0.058(3) Uani 1 1 d G . .
H70 H 0.1420 0.9286 0.7511 0.070 Uiso 1 1 calc R . .
C71 C 0.11178(10) 0.8254(5) 0.75107(19) 0.064(3) Uani 1 1 d G . .
H71 H 0.1027 0.9092 0.7512 0.076 Uiso 1 1 calc R . .
C72 C 0.10169(8) 0.6913(6) 0.75091(17) 0.044(2) Uani 1 1 d G . .
C73 C 0.11492(11) 0.5687(5) 0.7507(2) 0.079(4) Uani 1 1 d G . .
H73 H 0.1080 0.4771 0.7506 0.095 Uiso 1 1 calc R . .
C74 C 0.13823(11) 0.5802(5) 0.7506(2) 0.083(5) Uani 1 1 d G . .
H74 H 0.1473 0.4965 0.7505 0.100 Uiso 1 1 calc R . .
C75 C 0.0767(2) 0.6804(11) 0.7521(2) 0.052(3) Uani 1 1 d . . .
C76 C 0.23145(18) 0.4454(11) 0.8512(2) 0.051(3) Uani 1 1 d . . .
C77 C 0.21837(18) 0.3203(9) 0.8558(3) 0.052(3) Uani 1 1 d . . .
H77 H 0.2103 0.2812 0.8382 0.063 Uiso 1 1 calc R . .
C78 C 0.21703(19) 0.2534(11) 0.8854(2) 0.052(3) Uani 1 1 d . . .
H78 H 0.2078 0.1712 0.8876 0.062 Uiso 1 1 calc R . .
C79 C 0.22880(17) 0.3032(10) 0.9118(2) 0.045(2) Uani 1 1 d . . .
C80 C 0.2415(2) 0.4207(14) 0.9075(3) 0.068(3) Uani 1 1 d . . .
H80 H 0.2493 0.4586 0.9254 0.081 Uiso 1 1 calc R . .
C81 C 0.2437(2) 0.4907(13) 0.8778(2) 0.061(3) Uani 1 1 d . . .
H81 H 0.2536 0.5697 0.8759 0.073 Uiso 1 1 calc R . .
C82 C 0.3141(2) 0.7291(11) 0.7539(2) 0.048(3) Uani 1 1 d . . .
C83 C 0.3267(2) 0.7495(12) 0.7826(2) 0.057(3) Uani 1 1 d . . .
H83 H 0.3190 0.7715 0.8020 0.069 Uiso 1 1 calc R . .
C84 C 0.3500(2) 0.7377(13) 0.7828(3) 0.063(3) Uani 1 1 d . . .
H84 H 0.3579 0.7492 0.8024 0.076 Uiso 1 1 calc R . .
C85 C 0.3621(2) 0.7089(11) 0.7544(3) 0.052(3) Uani 1 1 d . . .
C86 C 0.3498(2) 0.6963(12) 0.7257(3) 0.064(3) Uani 1 1 d . . .
H86 H 0.3576 0.6808 0.7062 0.077 Uiso 1 1 calc R . .
C87 C 0.3263(2) 0.7058(13) 0.7253(3) 0.064(3) Uani 1 1 d . . .
H87 H 0.3185 0.6966 0.7056 0.077 Uiso 1 1 calc R . .
C88 C 0.3868(3) 0.7014(14) 0.7534(3) 0.067(3) Uani 1 1 d U . .
C89 C 0.2270(2) 1.2680(16) 0.4428(2) 0.063(4) Uani 1 1 d . . .
C90 C 0.02333(17) 0.7453(10) 0.8129(2) 0.040(2) Uani 1 1 d . . .
C91 C 0.01777(17) 1.5443(10) 0.40466(19) 0.042(2) Uani 1 1 d . . .
C92 C 0.00606(19) 1.4912(12) 0.3778(2) 0.058(3) Uani 1 1 d . . .
H92 H -0.0030 1.4078 0.3796 0.070 Uiso 1 1 calc R . .
C93 C 0.00782(18) 1.5608(12) 0.3492(2) 0.054(3) Uani 1 1 d . . .
H93 H -0.0001 1.5243 0.3313 0.065 Uiso 1 1 calc R . .
C94 C 0.02039(17) 1.6792(10) 0.34555(19) 0.044(2) Uani 1 1 d . . .
C95 C 0.03223(17) 1.7361(9) 0.3726(2) 0.041(2) Uani 1 1 d . . .
H95 H 0.0412 1.8197 0.3708 0.049 Uiso 1 1 calc R . .
C96 C 0.03011(16) 1.6659(9) 0.40121(18) 0.040(2) Uani 1 1 d . . .
H96 H 0.0376 1.7037 0.4194 0.048 Uiso 1 1 calc R . .
Cd1 Cd 0.218770(14) 1.34783(8) 0.50515(2) 0.0573(3) Uani 1 1 d . . .
Cd2 Cd 0.031272(13) 0.65387(7) 0.752591(15) 0.0453(2) Uani 1 1 d . . .
N1 N -0.00473(13) 1.1490(8) 0.52868(15) 0.0376(18) Uani 1 1 d . . .
N2 N 0.04307(14) 1.