####################################################################### 
# 
# This file contains crystal structure data downloaded from the 
# Cambridge Structural Database (CSD) hosted by the Cambridge 
# Crystallographic Data Centre (CCDC).
# 
# Full information about CCDC data access policies and citation 
# guidelines are available at http://www.ccdc.cam.ac.uk/access/V1 
# 
# Audit and citation data items may have been added by the CCDC. 
# Please retain this information to preserve the provenance of 
# this file and to allow appropriate attribution of the data. 
# 
#######################################################################

data_c:\docume~1\liuwei\\\times\`A\~A
_audit_block_doi                 10.5517/ccph3w4
_database_code_depnum_ccdc_archive 'CCDC 640146'
loop_
_citation_id
_citation_doi
_citation_year
1 10.1080/15533174.2011.609851 2012
_audit_update_record             
;
2007-03-13 deposited with the CCDC.	2024-07-11 downloaded from the CCDC.
;
#TrackingRef 'web_deposit_cif_file_0_XiaLi_1293417995.cif'


_audit_creation_method           SHELXL-97
_chemical_name_systematic        
;
?
;
_chemical_name_common            ?
_chemical_melting_point          ?
_chemical_formula_moiety         ?
_chemical_formula_sum            'C26 H30 Mn2 N8 O14'
_chemical_formula_weight         788.46

loop_
_atom_type_symbol
_atom_type_description
_atom_type_scat_dispersion_real
_atom_type_scat_dispersion_imag
_atom_type_scat_source
C C 0.0033 0.0016 'International Tables Vol C Tables 4.2.6.8 and 6.1.1.4'
H H 0.0000 0.0000 'International Tables Vol C Tables 4.2.6.8 and 6.1.1.4'
N N 0.0061 0.0033 'International Tables Vol C Tables 4.2.6.8 and 6.1.1.4'
O O 0.0106 0.0060 'International Tables Vol C Tables 4.2.6.8 and 6.1.1.4'
Mn Mn 0.3368 0.7283 'International Tables Vol C Tables 4.2.6.8 and 6.1.1.4'

_symmetry_cell_setting           ?
_symmetry_space_group_name_H-M   ?

loop_
_symmetry_equiv_pos_as_xyz
'x, y, z'
'-x, -y, -z'

_cell_length_a                   12.497(6)
_cell_length_b                   13.554(6)
_cell_length_c                   13.746(6)
_cell_angle_alpha                107.963(6)
_cell_angle_beta                 96.472(6)
_cell_angle_gamma                97.298(6)
_cell_volume                     2168.3(17)
_cell_formula_units_Z            2
_cell_measurement_temperature    291(2)
_cell_measurement_reflns_used    ?
_cell_measurement_theta_min      ?
_cell_measurement_theta_max      ?

_exptl_crystal_description       ?
_exptl_crystal_colour            ?
_exptl_crystal_size_max          0.22
_exptl_crystal_size_mid          0.20
_exptl_crystal_size_min          0.14
_exptl_crystal_density_meas      ?
_exptl_crystal_density_diffrn    1.208
_exptl_crystal_density_method    'not measured'
_exptl_crystal_F_000             808
_exptl_absorpt_coefficient_mu    0.643
_exptl_absorpt_correction_type   ?
_exptl_absorpt_correction_T_min  0.8715
_exptl_absorpt_correction_T_max  0.9154
_exptl_absorpt_process_details   ?

_exptl_special_details           
;
?
;

_diffrn_ambient_temperature      291(2)
_diffrn_radiation_wavelength     0.71073
_diffrn_radiation_type           MoK\a
_diffrn_radiation_source         'fine-focus sealed tube'
_diffrn_radiation_monochromator  graphite
_diffrn_measurement_device_type  ?
_diffrn_measurement_method       ?
_diffrn_detector_area_resol_mean ?
_diffrn_standards_number         ?
_diffrn_standards_interval_count ?
_diffrn_standards_interval_time  ?
_diffrn_standards_decay_%        ?
_diffrn_reflns_number            14861
_diffrn_reflns_av_R_equivalents  0.0712
_diffrn_reflns_av_sigmaI/netI    0.1224
_diffrn_reflns_limit_h_min       -14
_diffrn_reflns_limit_h_max       14
_diffrn_reflns_limit_k_min       -16
_diffrn_reflns_limit_k_max       16
_diffrn_reflns_limit_l_min       -16
_diffrn_reflns_limit_l_max       16
_diffrn_reflns_theta_min         2.47
_diffrn_reflns_theta_max         25.10
_reflns_number_total             7377
_reflns_number_gt                3783
_reflns_threshold_expression     >2sigma(I)

_computing_data_collection       ?
_computing_cell_refinement       ?
_computing_data_reduction        ?
_computing_structure_solution    'SHELXS-97 (Sheldrick, 1990)'
_computing_structure_refinement  'SHELXL-97 (Sheldrick, 1997)'
_computing_molecular_graphics    ?
_computing_publication_material  ?

_refine_special_details          
;
Refinement of F^2^ against ALL reflections. The weighted R-factor wR and
goodness of fit S are based on F^2^, conventional R-factors R are based
on F, with F set to zero for negative F^2^. The threshold expression of
F^2^ > 2sigma(F^2^) is used only for calculating R-factors(gt) etc. and is
not relevant to the choice of reflections for refinement. R-factors based
on F^2^ are statistically about twice as large as those based on F, and R-
factors based on ALL data will be even larger.
;

_refine_ls_structure_factor_coef Fsqd
_refine_ls_matrix_type           full
_refine_ls_weighting_scheme      calc
_refine_ls_weighting_details     
'calc w=1/[\s^2^(Fo^2^)+(0.1520P)^2^+0.0000P] where P=(Fo^2^+2Fc^2^)/3'
_atom_sites_solution_primary     direct
_atom_sites_solution_secondary   difmap
_atom_sites_solution_hydrogens   geom
_refine_ls_hydrogen_treatment    mixed
_refine_ls_extinction_method     SHELXL
_refine_ls_extinction_coef       0.0000(16)
_refine_ls_extinction_expression Fc^*^=kFc[1+0.001xFc^2^\l^3^/sin(2\q)]^-1/4^
_refine_ls_number_reflns         7377
_refine_ls_number_parameters     485
_refine_ls_number_restraints     49
_refine_ls_R_factor_all          0.1610
_refine_ls_R_factor_gt           0.0885
_refine_ls_wR_factor_ref         0.2662
_refine_ls_wR_factor_gt          0.2131
_refine_ls_goodness_of_fit_ref   0.942
_refine_ls_restrained_S_all      0.948
_refine_ls_shift/su_max          1.602
_refine_ls_shift/su_mean         0.003

loop_
_atom_site_label
_atom_site_type_symbol
_atom_site_fract_x
_atom_site_fract_y
_atom_site_fract_z
_atom_site_U_iso_or_equiv
_atom_site_adp_type
_atom_site_occupancy
_atom_site_symmetry_multiplicity
_atom_site_calc_flag
_atom_site_refinement_flags
_atom_site_disorder_assembly
_atom_site_disorder_group
Mn1 Mn 0.75007(7) 0.71545(8) 0.78325(8) 0.0450(4) Uani 1 1 d . . .
Mn2 Mn 0.25139(8) 0.80139(8) 0.70118(8) 0.0496(4) Uani 1 1 d . . .
O1 O 0.2132(4) 1.0576(4) 0.8477(5) 0.0845(18) Uani 1 1 d . . .
O2 O 0.0689(4) 1.1061(4) 0.9168(4) 0.0676(15) Uani 1 1 d . . .
O3 O -0.1224(4) 1.0414(4) 0.9119(4) 0.0670(14) Uani 1 1 d . . .
O4 O -0.2354(4) 0.8892(4) 0.8486(4) 0.0577(13) Uani 1 1 d . . .
O5 O 0.7373(4) 0.6531(4) 0.6131(4) 0.0593(13) Uani 1 1 d . . .
O6 O 0.6266(4) 0.5917(4) 0.4623(4) 0.0635(14) Uani 1 1 d . . .
O7 O 0.4362(4) 0.5857(4) 0.3995(4) 0.0636(14) Uani 1 1 d . . .
O8 O 0.2920(4) 0.6555(5) 0.4514(4) 0.0789(17) Uani 1 1 d . . .
O9 O 0.3340(4) 0.9584(4) 0.7158(4) 0.0762(16) Uani 1 1 d . . .
H1W H 0.2948 1.0043 0.7279 0.114 Uiso 1 1 d R . .
H2W H 0.3913 0.9800 0.6971 0.114 Uiso 1 1 d R . .
O10 O 0.1719(5) 0.7851(5) 0.5457(4) 0.0836(17) Uani 1 1 d D . .
H3W H 0.1472 0.8169 0.5174 0.125 Uiso 1 1 d RD . .
H4W H 0.2122 0.7421 0.5145 0.125 Uiso 1 1 d R . .
O11 O 0.7868(4) 0.7233(4) 0.9441(4) 0.0648(14) Uani 1 1 d . . .
H5W H 0.7541 0.6869 0.9737 0.097 Uiso 1 1 d R . .
H6W H 0.8273 0.7760 0.9870 0.097 Uiso 1 1 d R . .
O12 O 0.7125(3) 0.5513(3) 0.7702(3) 0.0644(14) Uani 1 1 d . . .
H7W H 0.6691 0.5108 0.7188 0.097 Uiso 1 1 d R . .
H8W H 0.7408 0.5181 0.8047 0.097 Uiso 1 1 d R . .
O13 O 0.6086(3) 0.9952(3) 0.4499(3) 0.142(6) Uani 0.50 1 d PRU . .
N7 N 0.6345(3) 1.0421(3) 0.6214(3) 0.114(7) Uani 0.50 1 d PR . .
O15 O 0.7038(3) 0.6029(3) 1.0502(3) 0.152(9) Uani 0.50 1 d PR . .
N9 N 0.5871(3) 0.5713(3) 1.1433(3) 0.140(9) Uani 0.50 1 d PR . .
C21 C 0.6222(3) 0.9602(3) 0.6533(3) 0.105(7) Uani 0.50 1 d PR . .
H21A H 0.6892 0.9587 0.6941 0.158 Uiso 0.50 1 calc PR . .
H21B H 0.6035 0.8970 0.5944 0.158 Uiso 0.50 1 calc PR . .
H21C H 0.5649 0.9649 0.6946 0.158 Uiso 0.50 1 calc PR . .
C23 C 0.6433(3) 1.0542(3) 0.5260(3) 0.083(5) Uani 0.50 1 d PRU . .
H23 H 0.6816 1.1178 0.5261 0.100 Uiso 0.50 1 calc PR . .
C27 C 0.5859(3) 0.4863(3) 1.1733(3) 0.141(10) Uani 0.50 1 d PR . .
H27A H 0.5677 0.5023 1.2418 0.212 Uiso 0.50 1 calc PR . .
H27B H 0.6568 0.4660 1.1734 0.212 Uiso 0.50 1 calc PR . .
H27C H 0.5325 0.4295 1.1262 0.212 Uiso 0.50 1 calc PR . .
C29 C 0.6479(3) 0.6133(3) 1.0844(3) 0.21(2) Uani 0.50 1 d PR . .
H29 H 0.6218 0.6726 1.0780 0.248 Uiso 0.50 1 calc PR . .
C22 C 0.6954(3) 1.1220(3) 0.7046(3) 0.22(2) Uani 0.50 1 d PR . .
H22A H 0.7185 1.0944 0.7584 0.326 Uiso 0.50 1 calc PR . .
H22B H 0.6518 1.1750 0.7301 0.326 Uiso 0.50 1 calc PR . .
H22C H 0.7584 1.1526 0.6833 0.326 Uiso 0.50 1 calc PR . .
C28 C 0.5024(3) 0.6380(3) 1.1822(3) 0.230(18) Uani 0.50 1 d PRU . .
H28A H 0.4471 0.5975 1.2041 0.346 Uiso 0.50 1 calc PR . .
H28B H 0.4695 0.6600 1.1276 0.346 Uiso 0.50 1 calc PR . .
H28C H 0.5370 0.6989 1.2397 0.346 Uiso 0.50 1 calc PR . .
N8 N 0.9139(3) 0.3617(3) 0.9313(3) 0.099(5) Uani 0.50 1 d PR . .
C26 C 0.8380(3) 0.3973(3) 0.8847(3) 0.171(12) Uani 0.50 1 d PRU . .
H26 H 0.8380 0.3704 0.8137 0.206 Uiso 0.50 1 calc PR . .
C25 C 0.9276(3) 0.3374(3) 1.0333(3) 0.128(8) Uani 0.50 1 d PR . .
H25A H 0.9463 0.4021 1.0904 0.192 Uiso 0.50 1 calc PR . .
H25B H 0.9848 0.2964 1.0341 0.192 Uiso 0.50 1 calc PR . .
H25C H 0.8604 0.2985 1.0393 0.192 Uiso 0.50 1 calc PR . .
O14 O 0.7842(3) 0.4391(3) 0.8952(3) 0.189(9) Uani 0.50 1 d PRU . .
C24 C 0.9895(3) 0.3180(3) 0.8604(3) 0.206(16) Uani 0.50 1 d PRU . .
H24A H 0.9497 0.2601 0.8027 0.309 Uiso 0.50 1 calc PR . .
H24B H 1.0453 0.2939 0.8968 0.309 Uiso 0.50 1 calc PR . .
H24C H 1.0227 0.3716 0.8358 0.309 Uiso 0.50 1 calc PR . .
N10 N 0.1403(3) 0.1388(3) 0.5560(3) 0.219(18) Uani 0.50 1 d PR . .
O16 O 0.0969(3) -0.0399(3) 0.4921(3) 0.195(9) Uani 0.50 1 d PRU . .
C31 C 0.1126(3) 0.1389(3) 0.4481(3) 0.122(8) Uani 0.50 1 d PR . .
H31A H 0.0617 0.1860 0.4460 0.184 Uiso 0.50 1 calc PR . .
H31B H 0.0802 0.0691 0.4038 0.184 Uiso 0.50 1 calc PR . .
H31C H 0.1778 0.1617 0.4246 0.184 Uiso 0.50 1 calc PR . .
C30 C 0.2087(3) 0.2177(3) 0.6303(3) 0.194(15) Uiso 0.50 1 d PR . .
H30A H 0.1852 0.2258 0.6960 0.291 Uiso 0.50 1 calc PR . .
H30B H 0.2082 0.2820 0.6146 0.291 Uiso 0.50 1 calc PR . .
H30C H 0.2813 0.2016 0.6331 0.291 Uiso 0.50 1 calc PR . .
C32 C 0.1488(3) 0.0332(3) 0.5615(3) 0.116(7) Uani 0.50 1 d PRU . .
H32 H 0.1923 0.0239 0.6164 0.139 Uiso 0.50 1 calc PR . .
N1 N 0.1021(4) 0.8396(4) 0.7716(4) 0.0434(13) Uani 1 1 d . . .
N2 N -0.0727(4) 0.7802(4) 0.7804(4) 0.0452(13) Uani 1 1 d . . .
N3 N 0.1437(4) 0.6450(4) 0.6751(4) 0.0514(14) Uani 1 1 d . . .
N4 N 0.4006(4) 0.7294(4) 0.6611(4) 0.0471(13) Uani 1 1 d . . .
N5 N 0.5744(4) 0.7187(4) 0.7209(4) 0.0451(13) Uani 1 1 d . . .
N6 N 0.3580(4) 0.8259(5) 0.8554(4) 0.0523(14) Uani 1 1 d . . .
C1 C 0.0556(5) 0.9268(5) 0.8219(5) 0.0419(15) Uani 1 1 d . . .
C2 C -0.0511(5) 0.8881(5) 0.8258(5) 0.0428(15) Uani 1 1 d . . .
C3 C 0.1176(6) 1.0346(6) 0.8619(5) 0.0547(18) Uani 1 1 d . . .
C4 C -0.1441(6) 0.9419(5) 0.8649(5) 0.0473(16) Uani 1 1 d . . .
C5 C 0.0229(5) 0.7567(5) 0.7507(5) 0.0410(15) Uani 1 1 d . . .
C6 C 0.0426(5) 0.6502(6) 0.6989(5) 0.0471(16) Uani 1 1 d . . .
C7 C -0.0363(6) 0.5597(6) 0.6730(6) 0.063(2) Uani 1 1 d . . .
H7A H -0.1065 0.5643 0.6883 0.076 Uiso 1 1 calc R . .
C8 C -0.0088(7) 0.4647(7) 0.6249(7) 0.076(2) Uani 1 1 d . . .
H8 H -0.0603 0.4038 0.6087 0.091 Uiso 1 1 calc R . .
C9 C 0.0931(7) 0.4574(6) 0.6001(7) 0.072(2) Uani 1 1 d . . .
H9A H 0.1118 0.3925 0.5669 0.087 Uiso 1 1 calc R . .
C10 C 0.1671(7) 0.5482(6) 0.6255(6) 0.069(2) Uani 1 1 d . . .
H10A H 0.2366 0.5439 0.6083 0.083 Uiso 1 1 calc R . .
C11 C 0.5552(5) 0.6751(5) 0.6145(5) 0.0418(15) Uani 1 1 d . . .
C12 C 0.4469(5) 0.6811(5) 0.5779(5) 0.0415(15) Uani 1 1 d . . .
C13 C 0.6449(6) 0.6379(6) 0.5606(6) 0.0509(17) Uani 1 1 d . . .
C14 C 0.3845(6) 0.6399(6) 0.4706(6) 0.0546(18) Uani 1 1 d . . .
C15 C 0.4801(4) 0.7503(4) 0.7452(5) 0.0382(14) Uani 1 1 d . . .
C16 C 0.4578(5) 0.8006(5) 0.8515(5) 0.0447(16) Uani 1 1 d . . .
C17 C 0.5343(6) 0.8231(6) 0.9386(5) 0.0595(19) Uani 1 1 d . . .
H17 H 0.6027 0.8036 0.9336 0.071 Uiso 1 1 calc R . .
C18 C 0.5082(7) 0.8744(7) 1.0320(6) 0.076(2) Uani 1 1 d . . .
H18 H 0.5600 0.8924 1.0916 0.092 Uiso 1 1 calc R . .
C19 C 0.4053(6) 0.9000(7) 1.0391(6) 0.071(2) Uani 1 1 d . . .
H19 H 0.3856 0.9331 1.1029 0.086 Uiso 1 1 calc R . .
C20 C 0.3348(6) 0.8756(7) 0.9510(6) 0.064(2) Uani 1 1 d . . .
H20 H 0.2657 0.8936 0.9553 0.077 Uiso 1 1 calc R . .

loop_
_atom_site_aniso_label
_atom_site_aniso_U_11
_atom_site_aniso_U_22
_atom_site_aniso_U_33
_atom_site_aniso_U_23
_atom_site_aniso_U_13
_atom_site_aniso_U_12
Mn1 0.0329(6) 0.0521(6) 0.0518(6) 0.0123(5) 0.0146(4) 0.0182(4)
Mn2 0.0337(6) 0.0576(7) 0.0598(7) 0.0142(5) 0.0169(5) 0.0209(5)
O1 0.055(3) 0.066(4) 0.119(5) 0.005(3) 0.038(3) 0.006(3)
O2 0.060(3) 0.050(3) 0.084(4) 0.000(3) 0.028(3) 0.017(2)
O3 0.059(3) 0.054(3) 0.087(4) 0.007(3) 0.033(3) 0.028(3)
O4 0.032(3) 0.061(3) 0.081(3) 0.015(3) 0.021(2) 0.022(2)
O5 0.035(3) 0.082(4) 0.060(3) 0.011(3) 0.020(2) 0.023(2)
O6 0.058(3) 0.084(4) 0.048(3) 0.007(3) 0.022(2) 0.033(3)
O7 0.056(3) 0.076(3) 0.053(3) 0.006(3) 0.013(2) 0.023(3)
O8 0.047(3) 0.109(5) 0.067(3) 0.007(3) -0.004(3) 0.031(3)
O9 0.076(4) 0.063(3) 0.097(4) 0.025(3) 0.038(3) 0.021(3)
O10 0.091(4) 0.094(4) 0.071(4) 0.024(3) 0.016(3) 0.037(3)
O11 0.071(3) 0.068(3) 0.049(3) 0.012(3) 0.012(2) 0.003(3)
O12 0.073(3) 0.054(3) 0.061(3) 0.016(3) -0.005(3) 0.011(3)
O13 0.151(10) 0.160(10) 0.128(9) 0.070(8) 0.048(8) -0.002(7)
N7 0.101(13) 0.131(16) 0.153(17) 0.120(14) 0.017(12) -0.005(11)
O15 0.170(17) 0.173(17) 0.085(10) 0.053(11) 0.008(11) -0.088(14)
N9 0.089(12) 0.27(3) 0.119(14) 0.139(18) 0.048(11) 0.014(14)
C21 0.099(15) 0.139(19) 0.122(17) 0.102(16) 0.012(13) 0.033(13)
C23 0.094(9) 0.088(9) 0.067(8) 0.029(7) 0.018(7) 0.000(7)
C27 0.107(19) 0.23(3) 0.117(19) 0.09(2) 0.034(15) 0.04(2)
C29 0.092(19) 0.44(7) 0.16(3) 0.17(4) 0.083(18) 0.08(3)
C22 0.37(6) 0.18(4) 0.10(2) 0.06(2) 0.02(3) 0.02(4)
C28 0.23(2) 0.23(2) 0.23(2) 0.080(11) 0.044(10) 0.036(10)
N8 0.080(11) 0.074(10) 0.140(15) 0.037(10) -0.020(10) 0.030(8)
C26 0.146(14) 0.166(15) 0.188(15) 0.033(10) 0.031(10) 0.034(10)
C25 0.12(2) 0.100(17) 0.16(2) 0.043(17) 0.013(17) 0.019(15)
O14 0.206(12) 0.158(11) 0.208(12) 0.071(9) -0.001(9) 0.050(9)
C24 0.202(18) 0.210(18) 0.209(18) 0.069(11) 0.041(10) 0.037(10)
N10 0.129(18) 0.25(3) 0.34(4) 0.27(3) -0.09(2) -0.059(19)
O16 0.217(13) 0.197(12) 0.197(12) 0.107(9) 0.023(9) 0.029(9)
C31 0.16(2) 0.115(18) 0.130(19) 0.079(16) 0.053(17) 0.027(16)
C32 0.112(11) 0.120(11) 0.120(11) 0.048(9) 0.015(8) 0.017(8)
N1 0.031(3) 0.046(3) 0.050(3) 0.007(3) 0.011(2) 0.016(2)
N2 0.034(3) 0.046(3) 0.055(3) 0.009(3) 0.014(2) 0.018(2)
N3 0.040(3) 0.047(3) 0.069(4) 0.012(3) 0.021(3) 0.022(3)
N4 0.036(3) 0.052(3) 0.047(3) 0.004(3) 0.013(3) 0.008(2)
N5 0.039(3) 0.051(3) 0.046(3) 0.009(3) 0.017(2) 0.020(3)
N6 0.040(3) 0.068(4) 0.051(3) 0.011(3) 0.023(3) 0.026(3)
C1 0.032(3) 0.047(4) 0.043(4) 0.005(3) 0.010(3) 0.012(3)
C2 0.037(3) 0.052(4) 0.040(3) 0.009(3) 0.014(3) 0.021(3)
C3 0.046(4) 0.061(5) 0.058(4) 0.012(4) 0.018(3) 0.024(4)
C4 0.046(4) 0.046(4) 0.050(4) 0.006(3) 0.020(3) 0.020(3)
C5 0.033(3) 0.040(3) 0.050(4) 0.006(3) 0.016(3) 0.018(3)
C6 0.031(3) 0.061(4) 0.056(4) 0.017(3) 0.016(3) 0.025(3)
C7 0.046(4) 0.060(5) 0.087(6) 0.019(4) 0.027(4) 0.020(4)
C8 0.062(5) 0.060(5) 0.102(7) 0.013(5) 0.029(5) 0.020(4)
C9 0.065(5) 0.049(5) 0.102(6) 0.009(4) 0.035(5) 0.031(4)
C10 0.063(5) 0.061(5) 0.084(6) 0.010(4) 0.031(4) 0.038(4)
C11 0.035(3) 0.043(4) 0.049(4) 0.010(3) 0.014(3) 0.019(3)
C12 0.035(3) 0.037(3) 0.048(4) 0.003(3) 0.011(3) 0.015(3)
C13 0.046(4) 0.052(4) 0.055(4) 0.012(4) 0.019(3) 0.016(3)
C14 0.044(4) 0.054(4) 0.060(4) 0.008(4) 0.012(3) 0.010(3)
C15 0.024(3) 0.042(3) 0.050(4) 0.011(3) 0.016(3) 0.014(3)
C16 0.037(3) 0.044(4) 0.046(4) 0.003(3) 0.016(3) 0.007(3)
C17 0.048(4) 0.083(5) 0.046(4) 0.012(4) 0.013(3) 0.024(4)
C18 0.063(5) 0.104(7) 0.048(4) -0.001(4) 0.005(4) 0.030(5)
C19 0.060(5) 0.106(7) 0.045(4) 0.008(4) 0.023(4) 0.032(5)
C20 0.046(4) 0.088(6) 0.057(5) 0.011(4) 0.025(4) 0.024(4)

_geom_special_details            
;
All esds (except the esd in the dihedral angle between two l.s. planes)
are estimated using the full covariance matrix. The cell esds are taken
into account individually in the estimation of esds in distances, angles
and torsion angles; correlations between esds in cell parameters are only
used when they are defined by crystal symmetry. An approximate (isotropic)
treatment of cell esds is used for estimating esds involving l.s. planes.
;

loop_
_geom_bond_atom_site_label_1
_geom_bond_atom_site_label_2
_geom_bond_distance
_geom_bond_site_symmetry_2
_geom_bond_publ_flag
Mn1 O12 2.161(4) . ?
Mn1 O11 2.173(5) . ?
Mn1 O5 2.207(5) . ?
Mn1 O4 2.222(5) 1_655 ?
Mn1 N5 2.276(5) . ?
Mn1 N2 2.285(5) 1_655 ?
Mn2 O9 2.184(5) . ?
Mn2 O10 2.186(6) . ?
Mn2 N1 2.243(5) . ?
Mn2 N4 2.257(5) . ?
Mn2 N3 2.266(6) . ?
Mn2 N6 2.279(6) . ?
O1 C3 1.248(8) . ?
O2 C3 1.297(8) . ?
O3 C4 1.280(8) . ?
O4 C4 1.224(8) . ?
O4 Mn1 2.222(5) 1_455 ?
O5 C13 1.247(8) . ?
O6 C13 1.282(8) . ?
O7 C14 1.316(8) . ?
O8 C14 1.216(8) . ?
O9 H1W 0.8290 . ?
O9 H2W 0.8355 . ?
O1