
#######################################################################
#
#                 Cambridge Crystallographic Data Centre
#                                CCDC
#
#######################################################################
#
# If this CIF has been generated from an entry in the Cambridge
# Structural Database, then it will include bibliographic, chemical,
# crystal, experimental, refinement or atomic coordinate data resulting
# from the CCDC's data processing and validation procedures.
#
#######################################################################

data_CSD_CIF_NECTIY04
_audit_creation_date 1999-06-22
_audit_creation_method CSD-ConQuest-V1
_database_code_CSD NECTIY04
_database_code_depnum_ccdc_archive 'CCDC 118302'
_chemical_formula_sum 'C6 H16 N10 Ni1 O6'
_chemical_formula_moiety
;
C6 H16 N10 Ni1 O6
;
_journal_coden_Cambridge 4
_journal_volume 121
_journal_year 1999
_journal_page_first 2808
_journal_name_full 'J.Am.Chem.Soc. '
loop_
_publ_author_name
"L.R.Falvello"
"M.A.Hitchman"
"F.Palacio"
"I.Pascual"
"A.J.Schultz"
"H.Stratemeier"
"M.Tomas"
"E.P.Urriolabeitia"
"D.M.Young"
_chemical_name_systematic
;
trans-Tetra-ammine-bis(cyanurato-N)-nickel(ii)
;
_chemical_name_common
;
Teaching Subset: Symmetry
;
_cell_volume   1411.499
_exptl_crystal_colour 'violet'
_exptl_crystal_density_diffrn 1.802
_exptl_crystal_description 'regular block'
_exptl_crystal_preparation 'aqueous ammonia'
_diffrn_ambient_temperature ?
_diffrn_special_details
;
The study was carried out at room temperature,in the range 283-303K
crystal 2 before cooling
;
#These two values have been output from a single CSD field.
_refine_ls_R_factor_gt 0.0382
_refine_ls_wR_factor_gt 0.0382
_symmetry_cell_setting orthorhombic
_symmetry_space_group_name_H-M 'F m m m'
_symmetry_Int_Tables_number 69
loop_
_symmetry_equiv_pos_site_id
_symmetry_equiv_pos_as_xyz
1 x,y,z
2 x,1/2+y,1/2+z
3 1/2+x,y,1/2+z
4 1/2+x,1/2+y,z
5 -x,-y,z
6 x,-y,-z
7 -x,y,-z
8 -x,1/2-y,1/2+z
9 x,1/2-y,1/2-z
10 -x,1/2+y,1/2-z
11 1/2-x,-y,1/2+z
12 1/2+x,-y,1/2-z
13 1/2-x,y,1/2-z
14 1/2-x,1/2-y,z
15 1/2+x,1/2-y,-z
16 1/2-x,1/2+y,-z
17 -x,-y,-z
18 -x,-1/2-y,-1/2-z
19 -1/2-x,-y,-1/2-z
20 -1/2-x,-1/2-y,-z
21 x,y,-z
22 -x,y,z
23 x,-y,z
24 x,-1/2+y,-1/2-z
25 -x,-1/2+y,-1/2+z
26 x,-1/2-y,-1/2+z
27 -1/2+x,y,-1/2-z
28 -1/2-x,y,-1/2+z
29 -1/2+x,-y,-1/2+z
30 -1/2+x,-1/2+y,-z
31 -1/2-x,-1/2+y,z
32 -1/2+x,-1/2-y,z
_cell_length_a 12.0551(6)
_cell_length_b 7.2825(6)
_cell_length_c 16.0779(7)
_cell_angle_alpha 90
_cell_angle_beta 90
_cell_angle_gamma 90
_cell_formula_units_Z 4
loop_
_atom_type_symbol
_atom_type_radius_bond
C 0.68
H 0.23
N 0.68
Ni 1.50
O 0.68
loop_
_atom_site_label
_atom_site_type_symbol
_atom_site_fract_x
_atom_site_fract_y
_atom_site_fract_z
Ni1 Ni 0.00000 0.00000 0.00000
N1 N 0.1194(2) 0.2039(5) 0.00000
H1 H 0.1014(53) 0.3012(89) 0.00000
H2 H 0.1618(30) 0.1894(58) -0.0409(23)
N2 N 0.00000 0.00000 -0.1426(2)
C1 C -0.0970(2) 0.00000 -0.1859(2)
O1 O -0.1890(2) 0.00000 -0.15186(13)
N3 N -0.0944(2) 0.00000 -0.27159(14)
H3 H -0.1581(29) 0.00000 -0.2960(21)
C2 C 0.00000 0.00000 -0.3178(2)
O2 O 0.00000 0.00000 -0.3935(2)
H2T H 0.1618(30) 0.1894(58) 0.0409(23)
N1U N -0.1194(2) 0.2039(5) 0.00000
H1U H -0.1014(53) 0.3012(89) 0.00000
H2U H -0.1618(30) 0.1894(58) -0.0409(23)
H2F H -0.1618(30) 0.1894(58) 0.0409(23)
N1V N 0.1194(2) -0.2039(5) 0.00000
H1V H 0.1014(53) -0.3012(89) 0.00000
H2V H 0.1618(30) -0.1894(58) -0.0409(23)
H2E H 0.1618(30) -0.1894(58) 0.0409(23)
N1P N -0.1194(2) -0.2039(5) 0.00000
H1P H -0.1014(53) -0.3012(89) 0.00000
H2P H -0.1618(30) -0.1894(58) 0.0409(23)
H2D H -0.1618(30) -0.1894(58) -0.0409(23)
N3U N 0.0944(2) 0.00000 -0.27159(14)
C1U C 0.0970(2) 0.00000 -0.1859(2)
O1U O 0.1890(2) 0.00000 -0.15186(13)
H3U H 0.1581(29) 0.00000 -0.2960(21)
N2T N 0.00000 0.00000 0.1426(2)
C1T C -0.0970(2) 0.00000 0.1859(2)
O1T O -0.1890(2) 0.00000 0.15186(13)
N3T N -0.0944(2) 0.00000 0.27159(14)
H3T H -0.1581(29) 0.00000 0.2960(21)
C2T C 0.00000 0.00000 0.3178(2)
N3F N 0.0944(2) 0.00000 0.27159(14)
C1F C 0.0970(2) 0.00000 0.1859(2)
O1F O 0.1890(2) 0.00000 0.15186(13)
H3F H 0.1581(29) 0.00000 0.2960(21)
O2T O 0.00000 0.00000 0.3935(2)
#END
