
#######################################################################
#
#                 Cambridge Crystallographic Data Centre
#                                CCDC
#
#######################################################################
#
# If this CIF has been generated from an entry in the Cambridge
# Structural Database, then it will include bibliographic, chemical,
# crystal, experimental, refinement or atomic coordinate data resulting
# from the CCDC's data processing and validation procedures.
#
#######################################################################

data_CSD_CIF_NEDMIS
_audit_creation_date 1998-04-14
_audit_creation_method CSD-ConQuest-V1
_database_code_CSD NEDMIS
_database_code_depnum_ccdc_archive 'CCDC 129511'
_chemical_formula_sum 'C11 H16 Cl1 N1 O2'
_chemical_formula_moiety
;
C11 H16 N1 O2 1+,Cl1 1-
;
_journal_coeditor_code "IUCr BK1318"
_journal_coden_Cambridge 591
_journal_volume 54
_journal_year 1998
_journal_page_first 229
_journal_name_full 'Acta Crystallogr.,Sect.C:Cryst.Struct.Commun. '
loop_
_publ_author_name
"B.H.Morimoto"
"S.Lovell"
"B.Kahr"
_chemical_name_systematic
;
N-Methyl-1-(3,4-(methylenedioxy)phenyl)-2-aminopropane hydrochloride
;
_chemical_name_common
;
Ecstasy; 3,4-Methylenedioxymethamphetamine hydrochloride; Teaching Subset: 
Fundamental Chemistry, Drug Molecules
;
_chemical_melting_point 423
_cell_volume   1192.258
_exptl_crystal_colour 'colorless'
_exptl_crystal_density_diffrn 1.28
_exptl_special_details
;
Melting point range 423-425K
agent with hallucinogenic activity

;
_exptl_crystal_description 'plate'
_exptl_crystal_preparation '2-propanol/diethyl ether'
_diffrn_ambient_temperature 161
#These two values have been output from a single CSD field.
_refine_ls_R_factor_gt 0.0355
_refine_ls_wR_factor_gt 0.0355
loop_
_citation_database_id_CSD
_citation_special_details
BEQRUN "is a stereoisomer of this entry"
BEQWUS "is a stereoisomer of this entry"
_symmetry_cell_setting orthorhombic
_symmetry_space_group_name_H-M 'P c a 21'
_symmetry_Int_Tables_number 29
loop_
_symmetry_equiv_pos_site_id
_symmetry_equiv_pos_as_xyz
1 x,y,z
2 -x,-y,1/2+z
3 1/2+x,-y,z
4 1/2-x,y,1/2+z
_cell_length_a 9.3482(2)
_cell_length_b 7.0493(3)
_cell_length_c 18.0924(7)
_cell_angle_alpha 90
_cell_angle_beta 90
_cell_angle_gamma 90
_cell_formula_units_Z 4
loop_
_atom_type_symbol
_atom_type_radius_bond
C 0.68
H 0.23
Cl 0.99
N 0.68
O 0.68
loop_
_atom_site_label
_atom_site_type_symbol
_atom_site_fract_x
_atom_site_fract_y
_atom_site_fract_z
C1 C 0.4717(3) 0.4028(4) 0.2797(1)
C2 C 0.5261(3) 0.5802(4) 0.2901(1)
H1 H 0.58350 0.66320 0.25300
C3 C 0.5007(3) 0.6635(4) 0.3596(1)
H2 H 0.52850 0.81220 0.37110
C4 C 0.4256(2) 0.5692(3) 0.4149(1)
C5 C 0.3718(3) 0.3863(3) 0.4024(1)
H3 H 0.32530 0.32620 0.44120
C6 C 0.3964(3) 0.3075(3) 0.3341(1)
C7 C 0.4117(4) 0.1158(4) 0.2361(1)
H4 H 0.49330 0.01230 0.23460
H5 H 0.31890 0.10030 0.20560
C8 C 0.3959(3) 0.6602(4) 0.4887(1)
H6 H 0.41770 0.57480 0.53500
H7 H 0.45650 0.77990 0.49590
C9 C 0.2372(3) 0.7125(4) 0.4964(1)
H8 H 0.17600 0.59670 0.49750
C10 C 0.1902(3) 0.8674(4) 0.4435(1)
H9 H 0.25590 0.98820 0.45370
H10 H 0.20950 0.83090 0.38710
H11 H 0.08780 0.89560 0.44450
C11 C 0.2220(3) 0.6318(4) 0.6321(1)
H12 H 0.16850 0.51980 0.62000
H13 H 0.32640 0.57490 0.63550
H14 H 0.17810 0.65740 0.68680
O1 O 0.4788(3) 0.2912(3) 0.2168(1)
O2 O 0.3523(3) 0.1337(3) 0.3085(1)
N1 N 0.2061(2) 0.7785(3) 0.5734(1)
H15 H 0.26750 0.89580 0.59050
H16 H 0.10470 0.80800 0.57770
Cl1 Cl 0.38309(6) 0.15165(7) 0.59700(3)
#END
