####################################################################### 
# 
# This file contains crystal structure data downloaded from the 
# Cambridge Structural Database (CSD) hosted by the Cambridge 
# Crystallographic Data Centre (CCDC).
# 
# Full information about CCDC data access policies and citation 
# guidelines are available at http://www.ccdc.cam.ac.uk/access/V1 
# 
# Audit and citation data items may have been added by the CCDC. 
# Please retain this information to preserve the provenance of 
# this file and to allow appropriate attribution of the data. 
# 
#######################################################################

data_1
_audit_block_doi                 10.5517/cc9gynb
_database_code_depnum_ccdc_archive 'CCDC 282492'
loop_
_citation_id
_citation_doi
_citation_year
1 10.1016/j.micromeso.2005.11.048 2006
_audit_update_record             
;
2005-08-29 deposited with the CCDC.	2024-07-11 downloaded from the CCDC.
;

_audit_creation_method           SHELXL-97
_chemical_name_systematic        
;
?
;
_chemical_name_common            ?
_chemical_melting_point          ?
_chemical_formula_moiety         ?
_chemical_formula_sum            'C12 H18.50 N4 O8.25 Zn'
_chemical_formula_weight         416.18

loop_
_atom_type_symbol
_atom_type_description
_atom_type_scat_dispersion_real
_atom_type_scat_dispersion_imag
_atom_type_scat_source
Zn Zn 0.2839 1.4301 'International Tables Vol C Tables 4.2.6.8 and 6.1.1.4'
C C 0.0033 0.0016 'International Tables Vol C Tables 4.2.6.8 and 6.1.1.4'
H H 0.0000 0.0000 'International Tables Vol C Tables 4.2.6.8 and 6.1.1.4'
N N 0.0061 0.0033 'International Tables Vol C Tables 4.2.6.8 and 6.1.1.4'
O O 0.0106 0.0060 'International Tables Vol C Tables 4.2.6.8 and 6.1.1.4'

_symmetry_cell_setting           Tetragonal
_symmetry_space_group_name_H-M   I4(1)/a

loop_
_symmetry_equiv_pos_as_xyz
'x, y, z'
'-x+1/2, -y, z+1/2'
'-y+3/4, x+1/4, z+1/4'
'y+3/4, -x+3/4, z+3/4'
'x+1/2, y+1/2, z+1/2'
'-x+1, -y+1/2, z+1'
'-y+5/4, x+3/4, z+3/4'
'y+5/4, -x+5/4, z+5/4'
'-x, -y, -z'
'x-1/2, y, -z-1/2'
'y-3/4, -x-1/4, -z-1/4'
'-y-3/4, x-3/4, -z-3/4'
'-x+1/2, -y+1/2, -z+1/2'
'x, y+1/2, -z'
'y-1/4, -x+1/4, -z+1/4'
'-y-1/4, x-1/4, -z-1/4'

_cell_length_a                   18.3113(9)
_cell_length_b                   18.3113(9)
_cell_length_c                   22.398(2)
_cell_angle_alpha                90.00
_cell_angle_beta                 90.00
_cell_angle_gamma                90.00
_cell_volume                     7510.2(9)
_cell_formula_units_Z            16
_cell_measurement_temperature    273(2)
_cell_measurement_reflns_used    1616
_cell_measurement_theta_min      2.90
_cell_measurement_theta_max      22.89

_exptl_crystal_description       BLOCK
_exptl_crystal_colour            COLORLESS
_exptl_crystal_size_max          0.22
_exptl_crystal_size_mid          0.20
_exptl_crystal_size_min          0.18
_exptl_crystal_density_meas      NONE
_exptl_crystal_density_diffrn    1.472
_exptl_crystal_density_method    'not measured'
_exptl_crystal_F_000             3432
_exptl_absorpt_coefficient_mu    1.354
_exptl_absorpt_correction_type   MULTI-SCAN
_exptl_absorpt_correction_T_min  0.804112
_exptl_absorpt_correction_T_max  1.000000
_exptl_absorpt_process_details   SADABS

_exptl_special_details           
;
?
;

_diffrn_ambient_temperature      273(2)
_diffrn_radiation_wavelength     0.71073
_diffrn_radiation_type           MoK\a
_diffrn_radiation_source         'fine-focus sealed tube'
_diffrn_radiation_monochromator  graphite
_diffrn_measurement_device_type  'bruker ccd-area detectors'
_diffrn_measurement_method       '/f and /w scans'
_diffrn_detector_area_resol_mean ?
_diffrn_standards_number         ?
_diffrn_standards_interval_count ?
_diffrn_standards_interval_time  ?
_diffrn_standards_decay_%        ?
_diffrn_reflns_number            22268
_diffrn_reflns_av_R_equivalents  0.0657
_diffrn_reflns_av_sigmaI/netI    0.0607
_diffrn_reflns_limit_h_min       -23
_diffrn_reflns_limit_h_max       24
_diffrn_reflns_limit_k_min       -23
_diffrn_reflns_limit_k_max       23
_diffrn_reflns_limit_l_min       -20
_diffrn_reflns_limit_l_max       28
_diffrn_reflns_theta_min         2.22
_diffrn_reflns_theta_max         28.22
_reflns_number_total             4390
_reflns_number_gt                2619
_reflns_threshold_expression     >2sigma(I)

_computing_data_collection       'Bruker smart, 1998'
_computing_cell_refinement       Smart
_computing_data_reduction        'Bruker Saint'
_computing_structure_solution    'SHELXS-97 (Sheldrick, 1997a)'
_computing_structure_refinement  'SHELXL-97 (Sheldrick, 1997a)'
_computing_molecular_graphics    'Shelxtl, (Sheldrick, 1997b)'
_computing_publication_material  Shelxtl

_refine_special_details          
;
Refinement of F^2^ against ALL reflections. The weighted R-factor wR and
goodness of fit S are based on F^2^, conventional R-factors R are based
on F, with F set to zero for negative F^2^. The threshold expression of
F^2^ > 2sigma(F^2^) is used only for calculating R-factors(gt) etc. and is
not relevant to the choice of reflections for refinement. R-factors based
on F^2^ are statistically about twice as large as those based on F, and R-
factors based on ALL data will be even larger.
;

_refine_ls_structure_factor_coef Fsqd
_refine_ls_matrix_type           full
_refine_ls_weighting_scheme      calc
_refine_ls_weighting_details     
'calc w=1/[\s^2^(Fo^2^)+(0.0825P)^2^+12.9015P] where P=(Fo^2^+2Fc^2^)/3'
_atom_sites_solution_primary     direct
_atom_sites_solution_secondary   difmap
_atom_sites_solution_hydrogens   geom
_refine_ls_hydrogen_treatment    mixed
_refine_ls_extinction_method     none
_refine_ls_extinction_coef       ?
_refine_ls_number_reflns         4390
_refine_ls_number_parameters     238
_refine_ls_number_restraints     0
_refine_ls_R_factor_all          0.1049
_refine_ls_R_factor_gt           0.0514
_refine_ls_wR_factor_ref         0.1631
_refine_ls_wR_factor_gt          0.1303
_refine_ls_goodness_of_fit_ref   1.040
_refine_ls_restrained_S_all      1.040
_refine_ls_shift/su_max          0.000
_refine_ls_shift/su_mean         0.000

loop_
_atom_site_label
_atom_site_type_symbol
_atom_site_fract_x
_atom_site_fract_y
_atom_site_fract_z
_atom_site_U_iso_or_equiv
_atom_site_adp_type
_atom_site_occupancy
_atom_site_symmetry_multiplicity
_atom_site_calc_flag
_atom_site_refinement_flags
_atom_site_disorder_assembly
_atom_site_disorder_group
Zn1 Zn 0.27719(2) 0.33832(2) 0.12519(2) 0.02775(17) Uani 1 1 d . . .
C1 C 0.3453(2) 0.3650(2) 0.24373(17) 0.0335(9) Uani 1 1 d . . .
H1 H 0.3006 0.3754 0.2615 0.038(12) Uiso 1 1 calc R . .
C2 C 0.4277(2) 0.3386(2) 0.17912(19) 0.0378(10) Uani 1 1 d . . .
H2 H 0.4503 0.3273 0.1431 0.051(14) Uiso 1 1 calc R . .
C3 C 0.4631(2) 0.3476(2) 0.23204(18) 0.0326(9) Uani 1 1 d . . .
C4 C 0.5389(2) 0.3409(2) 0.24722(19) 0.0368(10) Uani 1 1 d . . .
H4 H 0.5709 0.3327 0.2157 0.051(14) Uiso 1 1 calc R . .
C5 C 0.5682(2) 0.3451(2) 0.30087(18) 0.0324(9) Uani 1 1 d . . .
H5 H 0.5381 0.3521 0.3338 0.050(14) Uiso 1 1 calc R . .
C6 C 0.6477(2) 0.3390(2) 0.30968(17) 0.0302(9) Uani 1 1 d . . .
C7 C 0.2895(2) 0.1768(2) 0.12542(19) 0.0366(10) Uani 1 1 d . . .
H7 H 0.2914 0.1767 0.1669 0.046(13) Uiso 1 1 calc R . .
C8 C 0.2867(2) 0.2123(2) 0.03436(18) 0.0346(9) Uani 1 1 d . . .
H8 H 0.2860 0.2422 0.0008 0.044(13) Uiso 1 1 calc R . .
C9 C 0.2849(2) 0.1382(2) 0.03325(18) 0.0333(9) Uani 1 1 d . . .
C10 C 0.2821(2) 0.0883(2) -0.01663(19) 0.0362(10) Uani 1 1 d . . .
H10 H 0.2769 0.1082 -0.0546 0.048(14) Uiso 1 1 calc R . .
C11 C 0.2865(3) 0.0162(2) -0.01236(19) 0.0392(10) Uani 1 1 d . . .
H11 H 0.2919 -0.0043 0.0254 0.041(13) Uiso 1 1 calc R . .
C12 C 0.2833(2) -0.0333(2) -0.06477(18) 0.0325(9) Uani 1 1 d . . .
N1 N 0.35394(18) 0.34856(18) 0.18656(15) 0.0323(8) Uani 1 1 d . . .
N2 N 0.40893(18) 0.36454(18) 0.27248(15) 0.0321(8) Uani 1 1 d . . .
H2A H 0.4152 0.3733 0.3099 0.049(14) Uiso 1 1 calc R . .
N3 N 0.28960(18) 0.23652(18) 0.09255(15) 0.0329(8) Uani 1 1 d . . .
N4 N 0.2864(2) 0.11715(19) 0.09235(15) 0.0373(8) Uani 1 1 d . . .
H4A H 0.2854 0.0730 0.1054 0.054(16) Uiso 1 1 calc R . .
O1 O 0.67066(15) 0.34443(17) 0.36414(12) 0.0352(7) Uani 1 1 d . . .
O2 O 0.68972(17) 0.3278(2) 0.26852(14) 0.0611(11) Uani 1 1 d . . .
O3 O 0.29282(17) -0.10080(16) -0.05332(13) 0.0402(7) Uani 1 1 d . . .
O4 O 0.27187(16) -0.00911(17) -0.11575(12) 0.0376(7) Uani 1 1 d . . .
O1W O 0.2426(7) 0.2183(6) 0.8613(5) 0.241(5) Uani 1 1 d . . .
O2W O 0.4335(7) 0.3649(8) 0.9340(8) 0.353(9) Uani 1 1 d . . .
O3W O 0.5127(9) 0.8549(16) 0.9560(6) 0.64(2) Uani 1 1 d . . .
O4W O 0.2866(3) 0.3483(3) 0.9278(3) 0.129(2) Uani 1 1 d . . .
O5W O 0.5000 0.2500 0.8750 0.44(2) Uani 1 4 d S . .

loop_
_atom_site_aniso_label
_atom_site_aniso_U_11
_atom_site_aniso_U_22
_atom_site_aniso_U_33
_atom_site_aniso_U_23
_atom_site_aniso_U_13
_atom_site_aniso_U_12
Zn1 0.0294(3) 0.0351(3) 0.0187(2) -0.00108(19) -0.00174(19) -0.0003(2)
C1 0.033(2) 0.044(2) 0.023(2) -0.0054(18) -0.0026(17) 0.0045(19)
C2 0.036(2) 0.054(3) 0.024(2) -0.0056(19) -0.0020(18) 0.001(2)
C3 0.034(2) 0.042(2) 0.022(2) -0.0010(17) -0.0007(17) 0.0011(18)
C4 0.034(2) 0.051(3) 0.025(2) -0.004(2) -0.0001(18) 0.001(2)
C5 0.030(2) 0.041(2) 0.026(2) -0.0012(18) 0.0011(17) -0.0002(18)
C6 0.031(2) 0.039(2) 0.021(2) 0.0002(17) -0.0014(16) -0.0003(18)
C7 0.048(3) 0.040(2) 0.022(2) -0.0002(19) 0.0007(19) -0.0026(19)
C8 0.047(2) 0.036(2) 0.021(2) 0.0018(18) -0.0016(18) 0.001(2)
C9 0.041(2) 0.038(2) 0.021(2) -0.0007(17) -0.0045(17) 0.0002(19)
C10 0.043(2) 0.044(2) 0.022(2) 0.0009(18) -0.0006(18) 0.000(2)
C11 0.055(3) 0.043(2) 0.019(2) -0.0025(18) -0.0014(19) -0.002(2)
C12 0.034(2) 0.042(2) 0.021(2) -0.0029(18) 0.0002(17) -0.0015(18)
N1 0.0323(18) 0.0386(19) 0.0259(17) -0.0031(15) -0.0037(15) 0.0023(15)
N2 0.0341(18) 0.041(2) 0.0215(17) -0.0048(15) -0.0026(14) 0.0022(16)
N3 0.0383(19) 0.0374(19) 0.0229(18) -0.0026(15) -0.0001(15) -0.0002(15)
N4 0.057(2) 0.0320(19) 0.0231(18) 0.0031(15) 0.0015(17) -0.0023(17)
O1 0.0286(14) 0.0561(19) 0.0210(15) -0.0016(13) -0.0001(11) 0.0007(14)
O2 0.0369(18) 0.121(3) 0.0253(18) -0.0130(19) 0.0031(14) 0.0015(19)
O3 0.0561(19) 0.0382(17) 0.0265(16) -0.0031(13) -0.0062(14) 0.0014(15)
O4 0.0425(17) 0.0466(17) 0.0236(16) -0.0036(13) -0.0026(13) 0.0043(14)
O1W 0.320(13) 0.183(9) 0.219(12) 0.025(8) 0.054(10) 0.054(9)
O2W 0.234(13) 0.39(2) 0.44(2) 0.066(18) -0.071(14) 0.059(12)
O3W 0.282(16) 1.50(7) 0.124(9) 0.10(2) -0.056(11) 0.25(3)
O4W 0.146(5) 0.128(5) 0.114(5) 0.056(4) 0.020(4) 0.029(4)
O5W 0.42(3) 0.42(3) 0.48(7) 0.000 0.000 0.000

_geom_special_details            
;
All esds (except the esd in the dihedral angle between two l.s. planes)
are estimated using the full covariance matrix. The cell esds are taken
into account individually in the estimation of esds in distances, angles
and torsion angles; correlations between esds in cell parameters are only
used when they are defined by crystal symmetry. An approximate (isotropic)
treatment of cell esds is used for estimating esds involving l.s. planes.
;

loop_
_geom_bond_atom_site_label_1
_geom_bond_atom_site_label_2
_geom_bond_distance
_geom_bond_site_symmetry_2
_geom_bond_publ_flag
Zn1 O1 1.968(3) 10_556 ?
Zn1 N1 1.975(3) . ?
Zn1 O3 1.979(3) 14 ?
Zn1 N3 2.015(3) . ?
C1 N1 1.325(5) . ?
C1 N2 1.331(5) . ?
C1 H1 0.9300 . ?
C2 C3 1.361(6) . ?
C2 N1 1.374(5) . ?
C2 H2 0.9300 . ?
C3 N2 1.379(5) . ?
C3 C4 1.433(6) . ?
C4 C5 1.318(6) . ?
C4 H4 0.9300 . ?
C5 C6 1.474(5) . ?
C5 H5 0.9300 . ?
C6 O2 1.217(5) . ?
C6 O1 1.294(5) . ?
C7 N3 1.318(5) . ?
C7 N4 1.321(5) . ?
C7 H7 0.9300 . ?
C8 C9 1.357(6) . ?
C8 N3 1.378(5) . ?
C8 H8 0.9300 . ?
C9 N4 1.379(5) . ?
C9 C10 1.444(6) . ?
C10 C11 1.325(6) . ?
C10 H10 0.9300 . ?
C11 C12 1.485(6) . ?
C11 H11 0.9300 . ?
C12 O4 1.243(5) . ?
C12 O3 1.274(5) . ?
N2 H2A 0.8600 . ?
N4 H4A 0.8600 . ?
O1 Zn1 1.968(3) 10_656 ?
O3 Zn1 1.979(3) 14_545 ?

loop_
_geom_angle_atom_site_label_1
_geom_angle_atom_site_label_2
_geom_angle_atom_site_label_3
_geom_angle
_geom_angle_site_symmetry_1
_geom_angle_site_symmetry_3
_geom_angle_publ_flag
O1 Zn1 N1 127.98(13) 10_556 . ?
O1 Zn1 O3 102.13(13) 10_556 14 ?
N1 Zn1 O3 114.19(14) . 14 ?
O1 Zn1 N3 102.03(13) 10_556 . ?
N1 Zn1 N3 105.08(14) . . ?
O3 Zn1 N3 102.10(13) 14 . ?
N1 C1 N2 111.2(4) . . ?
N1 C1 H1 124.4 . . ?
N2 C1 H1 124.4 . . ?
C3 C2 N1 110.3(4) . . ?
C3 C2 H2 124.9 . . ?
N1 C2 H2 124.9 . . ?
C2 C3 N2 104.9(4) . . ?
C2 C3 C4 131.1(4) . . ?
N2 C3 C4 124.1(4) . . ?
C5 C4 C3 127.2(4) . . ?
C5 C4 H4 116.4 . . ?
C3 C4 H4 116.4 . . ?
C4 C5 C6 121.3(4) . . ?
C4 C5 H5 119.3 . . ?
C6 C5 H5 119.3 . . ?
O2 C6 O1 121.5(4) . . ?
O2 C6 C5 122.3(4) . . ?
O1 C6 C5 116.2(3) . . ?
N3 C7 N4 111.9(4) . . ?
N3 C7 H7 124.1 . . ?
N4 C7 H7 124.1 . . ?
C9 C8 N3 109.9(4) . . ?
C9 C8 H8 125.1 . . ?
N3 C8 H8 125.1 . . ?
C8 C9 N4 105.1(4) . . ?
C8 C9 C10 130.3(4) . . ?
N4 C9 C10 124.5(4) . . ?
C11 C10 C9 124.9(4) . . ?
C11 C10 H10 117.6 . . ?
C9 C10 H10 117.6 . . ?
C10 C11 C12 123.3(4) . . ?
C10 C11 H11 118.4 . . ?
C12 C11 H11 118.4 . . ?
O4 C12 O3 123.6(4) . . ?
O4 C12 C11 121.0(4) . . ?
O3 C12 C11 115.4(4) . . ?
C1 N1 C2 105.4(3) . . ?
C1 N1 Zn1 127.5(3) . . ?
C2 N1 Zn1 127.1(3) . . ?
C1 N2 C3 108.3(3) . . ?
C1 N2 H2A 125.9 . . ?
C3 N2 H2A 125.9 . . ?
C7 N3 C8 105.1(3) . . ?
C7 N3 Zn1 124.4(3) . . ?
C8 N3 Zn1 129.5(3) . . ?
C7 N4 C9 107.9(4) . . ?
C7 N4 H4A 126.0 . . ?
C9 N4 H4A 126.0 . . ?
C6 O1 Zn1 115.6(2) . 10_656 ?
C12 O3 Zn1 111.3(3) . 14_545 ?

loop_
_geom_torsion_atom_site_label_1
_geom_torsion_atom_site_label_2
_geom_torsion_atom_site_label_3
_geom_torsion_atom_site_label_4
_geom_torsion
_geom_torsion_site_symmetry_1
_geom_torsion_site_symmetry_2
_geom_torsion_site_symmetry_3
_geom_torsion_site_symmetry_4
_geom_torsion_publ_flag
N1 C2 C3 N2 -0.8(5) . . . . ?
N1 C2 C3 C4 178.0(4) . . . . ?
C2 C3 C4 C5 -174.3(5) . . . . ?
N2 C3 C4 C5 4.4(7) . . . . ?
C3 C4 C5 C6 -178.4(4) . . . . ?
C4 C5 C6 O2 -2.0(7) . . . . ?
C4 C5 C6 O1 179.5(4) . . . . ?
N3 C8 C9 N4 0.3(5) . . . . ?
N3 C8 C9 C10 -179.6(4) . . . . ?
C8 C9 C10 C11 174.2(5) . . . . ?
N4 C9 C10 C11 -5.6(7) . . . . ?
C9 C10 C11 C12 179.9(4) . . . . ?
C10 C11 C12 O4 -4.3(7) . . . . ?
C10 C11 C12 O3 175.9(4) . . . . ?
N2 C1 N1 C2 -1.1(5) . . . . ?
N2 C1 N1 Zn1 177.7(3) . . . . ?
C3 C2 N1 C1 1.2(5) . . . . ?
C3 C2 N1 Zn1 -177.6(3) . . . . ?
O1 Zn1 N1 C1 -3.9(4) 10_556 . . . ?
O3 Zn1 N1 C1 126.1(4) 14 . . . ?
N3 Zn1 N1 C1 -122.9(4) . . . . ?
O1 Zn1 N1 C2 174.6(3) 10_556 . . . ?
O3 Zn1 N1 C2 -55.4(4) 14 . . . ?
N3 Zn1 N1 C2 55.6(4) . . . . ?
N1 C1 N2 C3 0.6(5) . . . . ?
C2 C3 N2 C1 0.1(5) . . . . ?
C4 C3 N2 C1 -178.8(4) . . . . ?
N4 C7 N3 C8 -0.3(5) . . . . ?
N4 C7 N3 Zn1 169.4(3) . . . . ?
C9 C8 N3 C7 0.0(5) . . . . ?
C9 C8 N3 Zn1 -169.0(3) . . . . ?
O1 Zn1 N3 C7 -80.1(4) 10_556 . . . ?
N1 Zn1 N3 C7 55.1(4) . . . . ?
O3 Zn1 N3 C7 174.6(3) 14 . . . ?
O1 Zn1 N3 C8 87.1(4) 10_556 . . . ?
N1 Zn1 N3 C8 -137.8(4) . . . . ?
O3 Zn1 N3 C8 -18.3(4) 14 . . . ?
N3 C7 N4 C9 0.5(5) . . . . ?
C8 C9 N4 C7 -0.5(5) . . . . ?
C10 C9 N4 C7 179.4(4) . . . . ?
O2 C6 O1 Zn1 2.8(6) . . . 10_656 ?
C5 C6 O1 Zn1 -178.7(3) . . . 10_656 ?
O4 C12 O3 Zn1 -5.7(5) . . . 14_545 ?
C11 C12 O3 Zn1 174.1(3) . . . 14_545 ?

_diffrn_measured_fraction_theta_max 0.949
_diffrn_reflns_theta_full        28.22
_diffrn_measured_fraction_theta_full 0.949
_refine_diff_density_max         0.813
_refine_diff_density_min         -0.505
_refine_diff_density_rms         0.110
