####################################################################### 
# 
# This file contains crystal structure data downloaded from the 
# Cambridge Structural Database (CSD) hosted by the Cambridge 
# Crystallographic Data Centre (CCDC).
# 
# Full information about CCDC data access policies and citation 
# guidelines are available at http://www.ccdc.cam.ac.uk/access/V1 
# 
# Audit and citation data items may have been added by the CCDC. 
# Please retain this information to preserve the provenance of 
# this file and to allow appropriate attribution of the data. 
# 
#######################################################################

data_NEJBAF
#This CIF has been generated from an entry in the Cambridge Structural Database
_database_code_depnum_ccdc_archive 'CCDC 1218392'
_database_code_CSD               NEJBAF
loop_
_citation_id
_citation_doi
_citation_year
1 10.1021/ja970562r 1997
_audit_creation_method           'Created from the CSD'
_audit_update_record             
;
2024-07-11 downloaded from the CCDC.
;
_database_code_NBS               684086
_chemical_formula_moiety         '(C18 H22 N2 O8 Zn2)n'
_chemical_name_systematic        
catena-(bis(\m~2~-Acetato-O,O')-bis(acetato-O,O')-bis(pyridine)-di-zinc(ii))
_chemical_absolute_configuration unk
_diffrn_ambient_temperature      295
_exptl_crystal_density_diffrn    1.599
#These two values have been output from a single CSD field.
_refine_ls_R_factor_gt           0.0542
_refine_ls_wR_factor_gt          0.0542
_diffrn_radiation_probe          x-ray
_symmetry_cell_setting           triclinic
_symmetry_space_group_name_H-M   'P -1'
_symmetry_Int_Tables_number      2
_space_group_name_Hall           '-P 1'
loop_
_symmetry_equiv_pos_site_id
_symmetry_equiv_pos_as_xyz
1 x,y,z
2 -x,-y,-z
_cell_length_a                   8.626(2)
_cell_length_b                   8.868(3)
_cell_length_c                   28.871(8)
_cell_angle_alpha                90.17(2)
_cell_angle_beta                 90.02(2)
_cell_angle_gamma                99.02(2)
_cell_volume                     2181.18
_exptl_crystal_colour            colorless
_exptl_crystal_description       'rectangular block'
_cell_formula_units_Z            4
loop_
_atom_site_label
_atom_site_type_symbol
_atom_site_fract_x
_atom_site_fract_y
_atom_site_fract_z
Zn3 Zn 0.1236(1) 0.0550(1) 0.3955(1)
O1 O 0.0975(7) 0.1729(7) 0.4544(2)
O2 O 0.3434(8) 0.1776(8) 0.4408(3)
O5 O 0.2222(6) 0.1191(5) 0.3355(2)
O7 O 0.1532(6) -0.1617(6) 0.3977(2)
N1 N -0.1132(7) 0.0184(7) 0.3802(2)
C1 C 0.2404(10) 0.2226(9) 0.4638(3)
C5 C 0.2253(8) 0.2574(8) 0.3250(3)
C7 C 0.2057(8) -0.2504(8) 0.4253(2)
C9 C -0.1728(9) 0.0304(10) 0.3373(3)
C13 C -0.2164(9) -0.0137(9) 0.4155(3)
C2 C 0.2700(13) 0.3388(11) 0.5005(4)
O6 O 0.1633(6) 0.3470(6) 0.3497(2)
C6 C 0.3041(12) 0.3104(11) 0.2804(3)
O8 O 0.2218(6) -0.3835(6) 0.4140(2)
C8 C 0.2474(11) -0.2008(10) 0.4734(3)
C10 C -0.3308(10) 0.0132(11) 0.3294(3)
C12 C -0.3756(10) -0.0296(12) 0.4086(4)
Zn4 Zn 0.1356(1) 0.5652(1) 0.3507(1)
Zn4 Zn 0.1356(1) -0.4348(1) 0.3507(1)
C11 C -0.4340(10) -0.0172(12) 0.3651(4)
O3 O 0.1037(7) 0.6782(8) 0.2878(2)
O4 O 0.3383(8) 0.6940(8) 0.3106(3)
N2 N -0.1009(7) 0.5254(6) 0.3668(2)
O8 O 0.2218(6) 0.6165(6) 0.4140(2)
C3 C 0.2429(10) 0.7352(9) 0.2840(2)
C14 C -0.1989(8) 0.6104(8) 0.3476(3)
C18 C -0.1622(9) 0.4170(8) 0.3961(3)
C4 C 0.2941(13) 0.8527(11) 0.2465(3)
C15 C -0.3594(10) 0.5892(10) 0.3565(3)
C17 C -0.3141(9) 0.3832(10) 0.4069(3)
C16 C -0.4193(10) 0.4749(11) 0.3858(3)
Zn1 Zn 0.6232(1) 0.5548(1) 0.1046(1)
Zn2 Zn 0.6353(1) 1.0650(10) 0.1493(1)
O9 O 0.5972(7) 0.6732(7) 0.0453(2)
O10 O 0.8438(9) 0.6750(8) 0.0583(3)
C19 C 0.7355(10) 0.7240(9) 0.0363(3)
C20 C 0.7678(13) 0.8430(10) -0.0001(3)
O11 O 0.6037(7) 1.1792(8) 0.2121(2)
O12 O 0.8358(9) 1.1926(8) 0.1896(3)
C21 C 0.7384(9) 1.2355(9) 0.2170(3)
C22 C 0.7895(13) 1.3520(10) 0.2512(3)
O13 O 0.7207(6) 0.6195(6) 0.1648(2)
O14 O 0.6619(6) 0.8453(5) 0.1505(2)
C23 C 0.7228(8) 0.7563(8) 0.1756(3)
C24 C 0.8008(13) 0.8113(11) 0.2202(3)
O15 O 0.6524(6) 0.3373(5) 0.1024(2)
O16 O 0.7214(6) 0.1179(6) 0.0861(2)
C25 C 0.7041(8) 0.2498(9) 0.0748(3)
C26 C 0.7422(11) 0.3011(10) 0.0257(3)
N3 N 0.3878(7) 0.5195(7) 0.1201(2)
C27 C 0.2844(10) 0.4906(10) 0.0853(3)
C28 C 0.1269(11) 0.4713(12) 0.0917(4)
C29 C 0.0667(10) 0.4841(11) 0.1353(4)
C30 C 0.1716(9) 0.5134(10) 0.1718(3)
C31 C 0.3299(9) 0.5332(10) 0.1629(3)
N4 N 0.4001(6) 1.0277(6) 0.1334(2)
C32 C 0.3392(9) 0.9150(8) 0.1043(3)
C33 C 0.1842(9) 0.8863(10) 0.0939(3)
C34 C 0.0830(10) 0.9778(11) 0.1142(3)
C35 C 0.1443(10) 1.0864(11) 0.1440(3)
C36 C 0.3013(9) 1.1126(9) 0.1527(3)
O16 O 0.7214(6) 1.1179(6) 0.0861(2)
Zn2 Zn 0.6353(1) 0.0650(10) 0.1493(1)

#END
