####################################################################### 
# 
# This file contains crystal structure data downloaded from the 
# Cambridge Structural Database (CSD) hosted by the Cambridge 
# Crystallographic Data Centre (CCDC).
# 
# Full information about CCDC data access policies and citation 
# guidelines are available at http://www.ccdc.cam.ac.uk/access/V1 
# 
# Audit and citation data items may have been added by the CCDC. 
# Please retain this information to preserve the provenance of 
# this file and to allow appropriate attribution of the data. 
# 
#######################################################################

data_mo_20110518b_0m
_audit_block_doi                 10.5517/cczksz8
_database_code_depnum_ccdc_archive 'CCDC 910841'
loop_
_citation_id
_citation_doi
_citation_year
1 10.1007/s11243-013-9761-1 2013
_audit_update_record             
;
2012-11-14 deposited with the CCDC.	2024-07-11 downloaded from the CCDC.
;
#TrackingRef '3.cif'


_audit_creation_method           SHELXL-97
_chemical_name_systematic        
;
?
;
_chemical_name_common            ?
_chemical_melting_point          ?
_chemical_formula_moiety         ?
_chemical_formula_sum            'C68 H82 Ag4 N8 O23 S2'
_chemical_formula_weight         1875.02

loop_
_atom_type_symbol
_atom_type_description
_atom_type_scat_dispersion_real
_atom_type_scat_dispersion_imag
_atom_type_scat_source
C C 0.0033 0.0016 'International Tables Vol C Tables 4.2.6.8 and 6.1.1.4'
H H 0.0000 0.0000 'International Tables Vol C Tables 4.2.6.8 and 6.1.1.4'
N N 0.0061 0.0033 'International Tables Vol C Tables 4.2.6.8 and 6.1.1.4'
O O 0.0106 0.0060 'International Tables Vol C Tables 4.2.6.8 and 6.1.1.4'
S S 0.1246 0.1234 'International Tables Vol C Tables 4.2.6.8 and 6.1.1.4'
Ag Ag -0.8971 1.1015 'International Tables Vol C Tables 4.2.6.8 and 6.1.1.4'

_symmetry_cell_setting           Triclinic
_symmetry_space_group_name_H-M   'P -1'
_symmetry_space_group_name_Hall  '-P 1'

loop_
_symmetry_equiv_pos_as_xyz
'x, y, z'
'-x, -y, -z'

_cell_length_a                   9.4575(11)
_cell_length_b                   14.5504(16)
_cell_length_c                   15.6961(16)
_cell_angle_alpha                106.655(3)
_cell_angle_beta                 94.615(3)
_cell_angle_gamma                98.566(3)
_cell_volume                     2028.9(4)
_cell_formula_units_Z            1
_cell_measurement_temperature    299(2)
_cell_measurement_reflns_used    4536
_cell_measurement_theta_min      1.89
_cell_measurement_theta_max      27.51

_exptl_crystal_description       Prism
_exptl_crystal_colour            Colorless
_exptl_crystal_size_max          0.22
_exptl_crystal_size_mid          0.18
_exptl_crystal_size_min          0.15
_exptl_crystal_density_meas      ?
_exptl_crystal_density_diffrn    1.535
_exptl_crystal_density_method    'not measured'
_exptl_crystal_F_000             950
_exptl_absorpt_coefficient_mu    1.077
_exptl_absorpt_correction_type   Multi-scan
_exptl_absorpt_correction_T_min  0.7976
_exptl_absorpt_correction_T_max  0.8552
_exptl_absorpt_process_details   'SADABS (Bruker, 2002)'

_diffrn_ambient_temperature      298(2)
_diffrn_radiation_wavelength     0.71073
_diffrn_radiation_type           MoK\a
_diffrn_radiation_source         'fine-focus sealed tube'
_diffrn_radiation_monochromator  graphite
_diffrn_measurement_device_type  'Bruker APEX II area-detector diffractometer'
_diffrn_measurement_method       '\f and \w scans'
_diffrn_detector_area_resol_mean ?
_diffrn_standards_number         ?
_diffrn_standards_interval_count ?
_diffrn_standards_interval_time  ?
_diffrn_standards_decay_%        ?
_diffrn_reflns_number            16248
_diffrn_reflns_av_R_equivalents  0.0539
_diffrn_reflns_av_sigmaI/netI    0.0789
_diffrn_reflns_limit_h_min       -11
_diffrn_reflns_limit_h_max       11
_diffrn_reflns_limit_k_min       -17
_diffrn_reflns_limit_k_max       17
_diffrn_reflns_limit_l_min       -18
_diffrn_reflns_limit_l_max       18
_diffrn_reflns_theta_min         1.69
_diffrn_reflns_theta_max         25.10
_reflns_number_total             7037
_reflns_number_gt                4002
_reflns_threshold_expression     I>2\s(I)

_computing_data_collection       'SMART (Bruker, 2002)'
_computing_cell_refinement       'SAINT (Bruker, 2002)'
_computing_data_reduction        SAINT
_computing_structure_solution    'SHELXS-97 (Sheldrick, 1997)'
_computing_structure_refinement  'SHELXL-97 (Sheldrick, 1997)'
_computing_molecular_graphics    'XP (Bruker, 2002)'
_computing_publication_material  'SHELXL-97 (Bruker, 2002)'

_refine_special_details          
;
Refinement of F^2^ against ALL reflections. The weighted R-factor wR and
goodness of fit S are based on F^2^, conventional R-factors R are based
on F, with F set to zero for negative F^2^. The threshold expression of
F^2^ > 2sigma(F^2^) is used only for calculating R-factors(gt) etc. and is
not relevant to the choice of reflections for refinement. R-factors based
on F^2^ are statistically about twice as large as those based on F, and R-
factors based on ALL data will be even larger.
;

_refine_ls_structure_factor_coef Fsqd
_refine_ls_matrix_type           full
_refine_ls_weighting_scheme      calc
_refine_ls_weighting_details     
'calc w=1/[\s^2^(Fo^2^)+(0.1513P)^2^+0.0000P] where P=(Fo^2^+2Fc^2^)/3'
_atom_sites_solution_primary     direct
_atom_sites_solution_secondary   difmap
_atom_sites_solution_hydrogens   geom
_refine_ls_hydrogen_treatment    constr
_refine_ls_extinction_method     none
_refine_ls_extinction_coef       ?
_refine_ls_number_reflns         7037
_refine_ls_number_parameters     497
_refine_ls_number_restraints     12
_refine_ls_R_factor_all          0.1297
_refine_ls_R_factor_gt           0.0774
_refine_ls_wR_factor_ref         0.2477
_refine_ls_wR_factor_gt          0.2150
_refine_ls_goodness_of_fit_ref   0.987
_refine_ls_restrained_S_all      0.987
_refine_ls_shift/su_max          0.001
_refine_ls_shift/su_mean         0.000

loop_
_atom_site_label
_atom_site_type_symbol
_atom_site_fract_x
_atom_site_fract_y
_atom_site_fract_z
_atom_site_U_iso_or_equiv
_atom_site_adp_type
_atom_site_occupancy
_atom_site_symmetry_multiplicity
_atom_site_calc_flag
_atom_site_refinement_flags
_atom_site_disorder_assembly
_atom_site_disorder_group
Ag1 Ag 0.61694(7) 0.09613(5) 1.00899(5) 0.0697(3) Uani 1 1 d . . .
Ag2 Ag 0.89873(9) 0.52990(8) 0.43478(6) 0.0916(4) Uani 1 1 d . . .
S1 S 0.4758(2) 0.17699(13) 0.22663(12) 0.0447(5) Uani 1 1 d . . .
O1 O 0.7498(5) 0.2919(4) 0.1276(3) 0.0519(13) Uani 1 1 d . . .
O2 O 0.7752(6) 0.4013(5) 0.2620(4) 0.0713(18) Uani 1 1 d . . .
O3 O 0.4638(7) 0.1000(4) 0.1440(4) 0.0659(16) Uani 1 1 d . . .
O4 O 0.6203(6) 0.2050(5) 0.2728(4) 0.0736(18) Uani 1 1 d . . .
O5 O 0.3678(7) 0.1579(5) 0.2808(5) 0.0774(18) Uani 1 1 d . . .
O6 O 0.0109(5) 0.3009(5) 0.1491(4) 0.0651(16) Uani 1 1 d . . .
H6 H 0.0306 0.3163 0.2037 0.098 Uiso 1 1 calc R . .
O7 O 0.0565(6) 0.4091(5) 0.0759(4) 0.0683(16) Uani 1 1 d . . .
O8 O 0.9534(11) 0.3010(8) 0.3542(7) 0.134(3) Uani 1 1 d . . .
H8D H 0.8935 0.2670 0.3088 0.201 Uiso 1 1 d R . .
H8E H 0.9530 0.3611 0.3617 0.201 Uiso 1 1 d R . .
O9 O 0.7983(9) 0.4908(10) 0.0429(8) 0.151(5) Uani 1 1 d . . .
H9A H 0.8811 0.4849 0.0269 0.226 Uiso 1 1 d R . .
H9B H 0.7336 0.4561 0.0004 0.226 Uiso 1 1 d R . .
O10 O 0.1712(10) 0.2152(8) 0.4034(6) 0.127(3) Uani 1 1 d . . .
H10D H 0.2529 0.2504 0.4070 0.190 Uiso 1 1 d R . .
H10A H 0.1333 0.1930 0.3489 0.190 Uiso 1 1 d R . .
O11 O 0.501(2) 0.0304(12) 0.4714(12) 0.123(7) Uani 0.50 1 d P . .
H11E H 0.5439 0.0844 0.4674 0.185 Uiso 0.50 1 d PR . .
H11C H 0.5173 0.0289 0.5250 0.185 Uiso 0.50 1 d PR . .
O12 O 0.242(4) 0.881(2) 0.6113(13) 0.27(2) Uani 0.50 1 d P . .
H12D H 0.2528 0.8304 0.6263 0.404 Uiso 0.50 1 d PR . .
H12B H 0.2644 0.8743 0.5589 0.404 Uiso 0.50 1 d PR . .
N1 N 0.4987(8) 0.1537(5) 0.9181(5) 0.0603(18) Uani 1 1 d . . .
N2 N 0.7407(8) 0.4705(6) 0.5021(5) 0.0637(19) Uani 1 1 d . . .
N3 N 0.7793(7) 0.0318(5) 1.0632(5) 0.0541(16) Uani 1 1 d . . .
N4 N 1.0294(9) -0.3886(6) 1.3675(6) 0.072(2) Uani 1 1 d . . .
C1 C 0.4319(10) 0.1021(6) 0.8400(6) 0.057(2) Uani 1 1 d . . .
H1 H 0.4291 0.0351 0.8236 0.068 Uiso 1 1 calc R . .
C2 C 0.3656(10) 0.1385(6) 0.7801(6) 0.065(2) Uani 1 1 d . . .
H2 H 0.3215 0.0978 0.7242 0.078 Uiso 1 1 calc R . .
C3 C 0.3654(9) 0.2392(6) 0.8048(6) 0.054(2) Uani 1 1 d . . .
C4 C 0.4342(13) 0.2921(7) 0.8855(6) 0.080(3) Uani 1 1 d . . .
H4 H 0.4370 0.3592 0.9041 0.096 Uiso 1 1 calc R . .
C5 C 0.5004(14) 0.2505(7) 0.9415(6) 0.087(3) Uani 1 1 d . . .
H5 H 0.5478 0.2899 0.9971 0.105 Uiso 1 1 calc R . .
C6 C 0.3068(11) 0.2843(8) 0.7357(6) 0.073(3) Uani 1 1 d . . .
H6A H 0.2295 0.2377 0.6943 0.087 Uiso 1 1 calc R . .
H6B H 0.2681 0.3414 0.7657 0.087 Uiso 1 1 calc R . .
C7 C 0.4266(10) 0.3131(7) 0.6844(6) 0.064(2) Uani 1 1 d . . .
H7A H 0.5072 0.3542 0.7271 0.077 Uiso 1 1 calc R . .
H7B H 0.4593 0.2546 0.6513 0.077 Uiso 1 1 calc R . .
C8 C 0.3840(10) 0.3658(7) 0.6206(6) 0.065(2) Uani 1 1 d . . .
H8A H 0.3412 0.4203 0.6521 0.078 Uiso 1 1 calc R . .
H8B H 0.3114 0.3222 0.5734 0.078 Uiso 1 1 calc R . .
C9 C 0.5100(9) 0.4031(6) 0.5789(5) 0.059(2) Uani 1 1 d . . .
C10 C 0.5404(11) 0.3484(8) 0.4949(6) 0.073(3) Uani 1 1 d . . .
H10 H 0.4844 0.2879 0.4643 0.088 Uiso 1 1 calc R . .
C11 C 0.6532(12) 0.3861(8) 0.4600(6) 0.076(3) Uani 1 1 d . . .
H11A H 0.6705 0.3510 0.4034 0.091 Uiso 1 1 calc R . .
C12 C 0.7130(12) 0.5197(7) 0.5827(7) 0.074(3) Uani 1 1 d . . .
H12 H 0.7736 0.5784 0.6134 0.089 Uiso 1 1 calc R . .
C13 C 0.6022(11) 0.4887(7) 0.6220(6) 0.075(3) Uani 1 1 d . . .
H13 H 0.5881 0.5257 0.6787 0.090 Uiso 1 1 calc R . .
C14 C 0.8113(10) -0.0548(6) 1.0165(6) 0.064(2) Uani 1 1 d . . .
H14 H 0.7576 -0.0874 0.9609 0.076 Uiso 1 1 calc R . .
C15 C 0.9151(11) -0.0966(8) 1.0450(7) 0.079(3) Uani 1 1 d . . .
H15 H 0.9283 -0.1578 1.0109 0.095 Uiso 1 1 calc R . .
C16 C 1.0033(10) -0.0480(8) 1.1262(8) 0.082(3) Uani 1 1 d . . .
C17 C 0.9669(11) 0.0412(7) 1.1762(7) 0.077(3) Uani 1 1 d . . .
H17 H 1.0182 0.0757 1.2322 0.092 Uiso 1 1 calc R . .
C18 C 0.8582(10) 0.0759(7) 1.1425(6) 0.066(2) Uani 1 1 d . . .
H18 H 0.8368 0.1344 1.1770 0.080 Uiso 1 1 calc R . .
C19 C 1.1302(14) -0.0833(9) 1.1590(10) 0.105(4) Uani 1 1 d . . .
H19A H 1.1802 -0.1113 1.1090 0.126 Uiso 1 1 calc R . .
H19B H 1.1965 -0.0288 1.2010 0.126 Uiso 1 1 calc R . .
C20 C 1.0885(13) -0.1514(10) 1.2001(9) 0.101(4) Uani 1 1 d . . .
H20A H 1.0133 -0.2017 1.1605 0.121 Uiso 1 1 calc R . .
H20B H 1.0486 -0.1211 1.2540 0.121 Uiso 1 1 calc R . .
C21 C 1.2227(13) -0.2018(10) 1.2267(10) 0.116(5) Uani 1 1 d . . .
H21A H 1.2581 -0.2382 1.1732 0.139 Uiso 1 1 calc R . .
H21B H 1.3014 -0.1525 1.2639 0.139 Uiso 1 1 calc R . .
C22 C 1.1623(9) -0.2677(8) 1.2765(9) 0.076(3) Uani 1 1 d . . .
C23 C 1.0975(12) -0.3646(8) 1.2359(8) 0.080(3) Uani 1 1 d . . .
H23 H 1.1008 -0.3925 1.1750 0.096 Uiso 1 1 calc R . .
C24 C 1.0306(11) -0.4190(8) 1.2818(7) 0.074(3) Uani 1 1 d . . .
H24 H 0.9827 -0.4817 1.2504 0.089 Uiso 1 1 calc R . .
C25 C 1.0984(14) -0.2991(11) 1.4099(7) 0.096(4) Uani 1 1 d . . .
H25 H 1.1049 -0.2779 1.4721 0.116 Uiso 1 1 calc R . .
C26 C 1.1617(14) -0.2346(10) 1.3682(9) 0.100(4) Uani 1 1 d . . .
H26 H 1.2027 -0.1708 1.4010 0.120 Uiso 1 1 calc R . .
C27 C 0.7026(7) 0.3474(5) 0.1935(5) 0.0454(17) Uani 1 1 d . . .
C28 C 0.5421(6) 0.3475(5) 0.1791(4) 0.0353(15) Uani 1 1 d . . .
C29 C 0.4375(7) 0.2785(5) 0.1937(4) 0.0361(15) Uani 1 1 d . . .
C30 C 0.2914(7) 0.2837(5) 0.1750(5) 0.0398(16) Uani 1 1 d . . .
H30 H 0.2206 0.2384 0.1859 0.048 Uiso 1 1 calc R . .
C31 C 0.2512(7) 0.3546(5) 0.1408(5) 0.0389(15) Uani 1 1 d . . .
C32 C 0.3581(7) 0.4242(5) 0.1267(5) 0.0455(17) Uani 1 1 d . . .
H32 H 0.3314 0.4729 0.1047 0.055 Uiso 1 1 calc R . .
C33 C 0.5008(8) 0.4219(5) 0.1448(5) 0.0445(17) Uani 1 1 d . . .
H33 H 0.5708 0.4685 0.1349 0.053 Uiso 1 1 calc R . .
C34 C 0.0940(7) 0.3575(6) 0.1186(5) 0.0464(18) Uani 1 1 d . . .
O13 O 0.955(4) 0.007(3) 0.406(2) 0.123(11) Uani 0.25 1 d PU . .
H13A H 1.0267 -0.0224 0.4035 0.184 Uiso 0.25 1 d PR . .
H13C H 0.9807 0.0625 0.3991 0.184 Uiso 0.25 1 d PR . .
O14 O 0.264(5) 0.043(3) 0.499(3) 0.142(14) Uani 0.25 1 d PU . .
H14D H 0.3004 0.0488 0.5519 0.212 Uiso 0.25 1 d PR . .
H14B H 0.1733 0.0422 0.4979 0.212 Uiso 0.25 1 d PR . .

loop_
_atom_site_aniso_label
_atom_site_aniso_U_11
_atom_site_aniso_U_22
_atom_site_aniso_U_33
_atom_site_aniso_U_23
_atom_site_aniso_U_13
_atom_site_aniso_U_12
Ag1 0.0593(5) 0.0810(5) 0.0888(6) 0.0496(4) 0.0130(4) 0.0254(4)
Ag2 0.0677(5) 0.1322(8) 0.1015(7) 0.0722(6) 0.0247(4) 0.0198(5)
S1 0.0449(10) 0.0417(10) 0.0508(11) 0.0163(8) 0.0036(8) 0.0151(8)
O1 0.026(2) 0.071(3) 0.053(3) 0.007(3) 0.011(2) 0.015(2)
O2 0.033(3) 0.092(4) 0.060(4) -0.008(3) -0.015(3) -0.005(3)
O3 0.094(5) 0.043(3) 0.058(3) 0.008(3) 0.002(3) 0.026(3)
O4 0.056(4) 0.083(4) 0.085(4) 0.028(4) -0.012(3) 0.027(3)
O5 0.081(4) 0.082(4) 0.095(5) 0.052(4) 0.032(4) 0.036(4)
O6 0.024(3) 0.087(4) 0.101(5) 0.050(4) 0.012(3) 0.013(3)
O7 0.042(3) 0.092(4) 0.094(4) 0.056(4) 0.008(3) 0.025(3)
O8 0.139(8) 0.135(8) 0.151(8) 0.062(7) 0.018(7) 0.056(7)
O9 0.063(5) 0.259(13) 0.220(11) 0.184(11) 0.050(6) 0.067(6)
O10 0.115(7) 0.158(9) 0.099(6) 0.032(6) 0.002(5) 0.023(6)
O11 0.158(16) 0.084(12) 0.108(13) 0.009(9) -0.039(12) 0.031(11)
O12 0.36(4) 0.34(4) 0.085(13) -0.053(18) -0.092(19) 0.27(4)
N1 0.075(5) 0.066(5) 0.056(4) 0.033(4) 0.018(4) 0.032(4)
N2 0.063(5) 0.082(5) 0.063(5) 0.040(4) 0.018(4) 0.027(4)
N3 0.049(4) 0.051(4) 0.066(4) 0.020(3) 0.006(3) 0.017(3)
N4 0.063(5) 0.081(6) 0.073(5) 0.030(5) 0.002(4) 0.006(4)
C1 0.076(6) 0.040(4) 0.067(6) 0.032(4) 0.016(5) 0.013(4)
C2 0.068(6) 0.054(5) 0.070(6) 0.018(4) 0.000(4) 0.006(4)
C3 0.054(5) 0.065(5) 0.057(5) 0.037(4) 0.015(4) 0.011(4)
C4 0.136(9) 0.054(5) 0.063(6) 0.028(5) 0.006(6) 0.041(6)
C5 0.158(11) 0.065(6) 0.040(5) 0.012(4) 0.006(6) 0.034(7)
C6 0.086(7) 0.078(6) 0.070(6) 0.043(5) 0.008(5) 0.023(5)
C7 0.064(5) 0.073(6) 0.072(6) 0.044(5) 0.014(4) 0.016(4)
C8 0.057(5) 0.076(6) 0.078(6) 0.045(5) 0.007(4) 0.022(4)
C9 0.064(5) 0.064(5) 0.052(5) 0.025(4) 0.001(4) 0.014(4)
C10 0.070(6) 0.079(6) 0.058(5) 0.007(5) 0.016(5) -0.003(5)
C11 0.087(7) 0.082(7) 0.051(5) 0.003(5) 0.023(5) 0.014(6)
C12 0.084(7) 0.061(6) 0.065(6) 0.005(5) 0.006(5) 0.000(5)
C13 0.085(7) 0.071(6) 0.060(6) 0.002(5) 0.018(5) 0.012(5)
C14 0.061(5) 0.059(5) 0.057(5) -0.004(4) -0.002(4) 0.017(4)
C15 0.069(6) 0.072(6) 0.082(7) -0.009(5) 0.001(5) 0.034(5)
C16 0.053(5) 0.078(7) 0.111(8) 0.024(6) -0.007(5) 0.024(5)
C17 0.074(6) 0.075(6) 0.068(6) 0.005(5) -0.012(5) 0.018(5)
C18 0.064(6) 0.065(6) 0.073(6) 0.021(5) 0.012(5) 0.019(5)
C19 0.098(9) 0.081(8) 0.133(11) 0.024(8) -0.011(8) 0.037(7)
C20 0.079(8) 0.111(9) 0.119(10) 0.056(8) 0.004(7) -0.001(7)
C21 0.084(8) 0.121(10) 0.191(14) 0.126(11) 0.003(8) 0.019(7)
C22 0.040(5) 0.080(7) 0.136(10) 0.072(7) 0.014(5) 0.019(4)
C23 0.087(7) 0.075(7) 0.093(7) 0.039(6) 0.041(6) 0.016(6)
C24 0.080(7) 0.072(6) 0.070(7) 0.020(5) 0.017(5) 0.009(5)
C25 0.100(9) 0.117(10) 0.058(6) 0.011(7) 0.003(6) 0.012(8)
C26 0.101(9) 0.098(9) 0.090(9) 0.034(7) -0.020(7) -0.008(7)
C27 0.027(4) 0.049(4) 0.058(5) 0.015(4) 0.010(3) 0.000(3)
C28 0.023(3) 0.037(4) 0.041(4) 0.004(3) 0.005(3) 0.005(3)
C29 0.026(3) 0.035(3) 0.044(4) 0.007(3) 0.003(3) 0.007(3)
C30 0.023(3) 0.039(4) 0.056(4) 0.011(3) 0.006(3) 0.005(3)
C31 0.025(3) 0.044(4) 0.048(4) 0.010(3) 0.003(3) 0.014(3)
C32 0.032(4) 0.042(4) 0.064(5) 0.017(4) 0.004(3) 0.009(3)
C33 0.039(4) 0.028(3) 0.064(5) 0.011(3) 0.013(3) 0.000(3)
C34 0.029(4) 0.056(4) 0.057(5) 0.015(4) 0.014(3) 0.015(3)
O13 0.123(12) 0.123(12) 0.122(12) 0.037(4) 0.017(3) 0.022(3)
O14 0.141(14) 0.141(14) 0.141(14) 0.042(5) 0.018(3) 0.026(3)

_geom_special_details            
;
All esds (except the esd in the dihedral angle between two l.s. planes)
are estimated using the full covariance matrix. The cell esds are taken
into account individually in the estimation of esds in distances, angles
and torsion angles; correlations between esds in cell parameters are only
used when they are defined by crystal symmetry. An approximate (isotropic)
treatment of cell esds is used for estimating esds involving l.s. planes.
;

loop_
_geom_bond_atom_site_label_1
_geom_bond_atom_site_label_2
_geom_bond_distance
_geom_bond_site_symmetry_2
_geom_bond_publ_flag
Ag1 N3 2.152(6) . ?
Ag1 N1 2.167(7) . ?
Ag1 Ag1 3.2252(15) 2_657 ?
Ag2 N2 2.119(7) . ?
Ag2 N4 2.131(8) 1_564 ?
Ag2 Ag2 3.0829(17) 2_766 ?
S1 O5 1.425(6) . ?
S1 O3 1.435(6) . ?
S1 O4 1.437(6) . ?
S1 C29 1.774(7) . ?
O1 C27 1.274(9) . ?
O2 C27 1.216(9) . ?
O6 C34 1.271(9) . ?
O6 H6 0.8200 . ?
O7 C34 1.212(9) . ?
O8 H8D 0.8500 . ?
O8 H8E 0.8501 . ?
O9 H9A 0.8501 . ?
O9 H9B 0.8500 . ?
O10 H10D 0.8500 . ?
O10 H10A 0.8500 . ?
O11 O11 1.43(3) 2_656 ?
O11 H11E 0.8500 . ?
O11 H11C 0.8499 . ?
O12 H12D 0.8499 . ?
O12 H12B 0.8500 . ?
N1 C1 1.293(11) . ?
N1 C5 1.347(12) . ?
N2 C12 1.332(12) . ?
N2 C11 1.332(12) . ?
N3 C18 1.330(11) . ?
N3 C14 1.355(10) . ?
N4 C24 