####################################################################### 
# 
# This file contains crystal structure data downloaded from the 
# Cambridge Structural Database (CSD) hosted by the Cambridge 
# Crystallographic Data Centre (CCDC).
# 
# Full information about CCDC data access policies and citation 
# guidelines are available at http://www.ccdc.cam.ac.uk/access/V1 
# 
# Audit and citation data items may have been added by the CCDC. 
# Please retain this information to preserve the provenance of 
# this file and to allow appropriate attribution of the data. 
# 
#######################################################################

data_multiscan
_audit_block_doi                 10.5517/cc9z7t9
_database_code_depnum_ccdc_archive 'CCDC 297191'
loop_
_citation_id
_citation_doi
_citation_year
1 10.1021/ic060241t 2006
_audit_update_record             
;
2006-02-02 deposited with the CCDC.	2024-07-11 downloaded from the CCDC.
;

_audit_creation_method           SHELXL-97
_chemical_name_systematic        
;
?
;
_chemical_name_common            ?
_chemical_melting_point          ?
_chemical_formula_moiety         ?
_chemical_formula_sum            'C24 H28 Er2 O20'
_chemical_formula_weight         970.98

loop_
_atom_type_symbol
_atom_type_description
_atom_type_scat_dispersion_real
_atom_type_scat_dispersion_imag
_atom_type_scat_source
C C 0.0033 0.0016 'International Tables Vol C Tables 4.2.6.8 and 6.1.1.4'
H H 0.0000 0.0000 'International Tables Vol C Tables 4.2.6.8 and 6.1.1.4'
O O 0.0106 0.0060 'International Tables Vol C Tables 4.2.6.8 and 6.1.1.4'
Er Er -0.2586 4.9576 'International Tables Vol C Tables 4.2.6.8 and 6.1.1.4'

_symmetry_cell_setting           ?
_symmetry_space_group_name_H-M   ?

loop_
_symmetry_equiv_pos_as_xyz
'x, y, z'
'-x, y, -z+1/2'
'x+1/2, y+1/2, z'
'-x+1/2, y+1/2, -z+1/2'
'-x, -y, -z'
'x, -y, z-1/2'
'-x+1/2, -y+1/2, -z'
'x+1/2, -y+1/2, z-1/2'

_cell_length_a                   38.5123(13)
_cell_length_b                   11.1241(4)
_cell_length_c                   7.0122(2)
_cell_angle_alpha                90.00
_cell_angle_beta                 98.634(2)
_cell_angle_gamma                90.00
_cell_volume                     2970.08(17)
_cell_formula_units_Z            4
_cell_measurement_temperature    298(2)
_cell_measurement_reflns_used    ?
_cell_measurement_theta_min      ?
_cell_measurement_theta_max      ?

_exptl_crystal_description       ?
_exptl_crystal_colour            ?
_exptl_crystal_size_max          ?
_exptl_crystal_size_mid          ?
_exptl_crystal_size_min          ?
_exptl_crystal_density_meas      ?
_exptl_crystal_density_diffrn    2.171
_exptl_crystal_density_method    'not measured'
_exptl_crystal_F_000             1872
_exptl_absorpt_coefficient_mu    5.703
_exptl_absorpt_correction_type   ?
_exptl_absorpt_correction_T_min  ?
_exptl_absorpt_correction_T_max  ?
_exptl_absorpt_process_details   ?

_exptl_special_details           
;
?
;

_diffrn_ambient_temperature      298(2)
_diffrn_radiation_wavelength     0.71069
_diffrn_radiation_type           MoK\a
_diffrn_radiation_source         'fine-focus sealed tube'
_diffrn_radiation_monochromator  graphite
_diffrn_measurement_device_type  ?
_diffrn_measurement_method       ?
_diffrn_detector_area_resol_mean ?
_diffrn_standards_number         ?
_diffrn_standards_interval_count ?
_diffrn_standards_interval_time  ?
_diffrn_standards_decay_%        ?
_diffrn_reflns_number            17458
_diffrn_reflns_av_R_equivalents  0.1401
_diffrn_reflns_av_sigmaI/netI    0.0836
_diffrn_reflns_limit_h_min       -49
_diffrn_reflns_limit_h_max       49
_diffrn_reflns_limit_k_min       -14
_diffrn_reflns_limit_k_max       13
_diffrn_reflns_limit_l_min       -8
_diffrn_reflns_limit_l_max       8
_diffrn_reflns_theta_min         2.14
_diffrn_reflns_theta_max         27.13
_reflns_number_total             3275
_reflns_number_gt                2441
_reflns_threshold_expression     >2sigma(I)

_computing_data_collection       ?
_computing_cell_refinement       ?
_computing_data_reduction        ?
_computing_structure_solution    'SHELXS-97 (Sheldrick, 1990)'
_computing_structure_refinement  'SHELXL-97 (Sheldrick, 1997)'
_computing_molecular_graphics    ?
_computing_publication_material  ?

_refine_special_details          
;
Refinement of F^2^ against ALL reflections. The weighted R-factor wR and
goodness of fit S are based on F^2^, conventional R-factors R are based
on F, with F set to zero for negative F^2^. The threshold expression of
F^2^ > 2sigma(F^2^) is used only for calculating R-factors(gt) etc. and is
not relevant to the choice of reflections for refinement. R-factors based
on F^2^ are statistically about twice as large as those based on F, and R-
factors based on ALL data will be even larger.
;

_refine_ls_structure_factor_coef Fsqd
_refine_ls_matrix_type           full
_refine_ls_weighting_scheme      calc
_refine_ls_weighting_details     
'calc w=1/[\s^2^(Fo^2^)+(0.1042P)^2^+13.1899P] where P=(Fo^2^+2Fc^2^)/3'
_atom_sites_solution_primary     direct
_atom_sites_solution_secondary   difmap
_atom_sites_solution_hydrogens   geom
_refine_ls_hydrogen_treatment    mixed
_refine_ls_extinction_method     none
_refine_ls_extinction_coef       ?
_refine_ls_number_reflns         3275
_refine_ls_number_parameters     208
_refine_ls_number_restraints     0
_refine_ls_R_factor_all          0.0885
_refine_ls_R_factor_gt           0.0645
_refine_ls_wR_factor_ref         0.1822
_refine_ls_wR_factor_gt          0.1649
_refine_ls_goodness_of_fit_ref   1.120
_refine_ls_restrained_S_all      1.120
_refine_ls_shift/su_max          0.002
_refine_ls_shift/su_mean         0.000

loop_
_atom_site_label
_atom_site_type_symbol
_atom_site_fract_x
_atom_site_fract_y
_atom_site_fract_z
_atom_site_U_iso_or_equiv
_atom_site_adp_type
_atom_site_occupancy
_atom_site_symmetry_multiplicity
_atom_site_calc_flag
_atom_site_refinement_flags
_atom_site_disorder_assembly
_atom_site_disorder_group
Er1 Er 0.629685(12) 0.70014(4) 0.85334(6) 0.0251(2) Uani 1 1 d . . .
O1 O 0.5874(2) 0.5463(8) 0.7860(11) 0.0334(18) Uani 1 1 d . . .
O2 O 0.5723(3) 0.7159(9) 0.6454(16) 0.050(3) Uani 1 1 d . . .
O3 O 0.6480(2) 0.6367(8) 0.5778(11) 0.0323(18) Uani 1 1 d . . .
O4 O 0.6638(2) 0.5329(7) 0.9428(12) 0.0324(17) Uani 1 1 d . . .
O5 O 0.6748(2) 0.7818(8) 1.0561(12) 0.0356(19) Uani 1 1 d . . .
O6 O 0.6580(2) 0.8866(9) 1.2981(12) 0.039(2) Uani 1 1 d . . .
O7 O 0.6144(3) 0.6592(9) 1.1633(12) 0.039(2) Uani 1 1 d . . .
O8 O 0.6422(3) 0.8740(8) 0.6744(13) 0.040(2) Uani 1 1 d . . .
O9 O 0.6000(3) 0.8717(9) 0.9645(15) 0.052(3) Uani 1 1 d . . .
OW O 0.5696(5) 0.1065(16) 0.824(2) 0.092(5) Uani 1 1 d . . .
C1 C 0.5655(3) 0.6079(12) 0.6725(17) 0.033(2) Uani 1 1 d . . .
C2 C 0.5316(3) 0.5523(11) 0.5836(16) 0.031(2) Uani 1 1 d . . .
C3 C 0.5029(4) 0.6249(12) 0.5005(18) 0.037(3) Uani 1 1 d . . .
H3 H 0.5049 0.7082 0.5024 0.045 Uiso 1 1 calc R . .
C4 C 0.5273(3) 0.4272(12) 0.5808(17) 0.034(3) Uani 1 1 d . . .
H4 H 0.5457 0.3788 0.6366 0.040 Uiso 1 1 calc R . .
C5 C 0.6713(3) 0.5634(10) 0.5330(15) 0.029(2) Uani 1 1 d . . .
C6 C 0.7090(3) 0.5936(11) 0.5853(13) 0.026(2) Uani 1 1 d . . .
C7 C 0.7655(3) 0.9855(11) 1.4565(15) 0.030(2) Uani 1 1 d . . .
H7 H 0.7724 1.0543 1.5276 0.036 Uiso 1 1 calc R . .
C8 C 0.7294(3) 0.9648(10) 1.3942(15) 0.026(2) Uani 1 1 d . . .
H8 H 0.7127 1.0193 1.4237 0.032 Uiso 1 1 calc R . .
C9 C 0.7193(3) 0.8626(10) 1.2891(14) 0.024(2) Uani 1 1 d . . .
C10 C 0.7553(3) 0.7197(10) 0.7455(16) 0.029(2) Uani 1 1 d . . .
H10 H 0.7623 0.7895 0.8137 0.035 Uiso 1 1 calc R . .
C11 C 0.7198(3) 0.7017(10) 0.6821(14) 0.025(2) Uani 1 1 d . . .
H11 H 0.7034 0.7597 0.7029 0.030 Uiso 1 1 calc R . .
C12 C 0.6813(3) 0.8423(10) 1.2118(16) 0.027(2) Uani 1 1 d . . .

loop_
_atom_site_aniso_label
_atom_site_aniso_U_11
_atom_site_aniso_U_22
_atom_site_aniso_U_33
_atom_site_aniso_U_23
_atom_site_aniso_U_13
_atom_site_aniso_U_12
Er1 0.0168(3) 0.0288(3) 0.0282(3) -0.00105(19) -0.00099(17) -0.0006(2)
O1 0.020(4) 0.043(5) 0.034(4) -0.003(3) -0.004(3) -0.005(3)
O2 0.027(5) 0.047(6) 0.070(7) 0.005(5) -0.014(4) -0.010(4)
O3 0.023(4) 0.040(5) 0.032(4) -0.003(3) -0.001(3) 0.001(3)
O4 0.028(5) 0.029(4) 0.041(4) 0.006(3) 0.005(3) 0.005(3)
O5 0.034(5) 0.038(5) 0.034(4) -0.007(3) -0.001(3) -0.008(4)
O6 0.018(4) 0.060(6) 0.041(4) -0.008(4) 0.008(3) 0.002(4)
O7 0.044(6) 0.044(5) 0.030(4) 0.000(4) 0.009(4) -0.005(4)
O8 0.040(5) 0.036(5) 0.044(5) 0.004(4) 0.008(4) -0.006(4)
O9 0.064(8) 0.034(5) 0.059(6) 0.000(4) 0.014(5) 0.022(5)
OW 0.098(13) 0.106(12) 0.074(8) -0.014(8) 0.019(8) -0.027(10)
C1 0.014(5) 0.044(7) 0.041(6) -0.002(5) 0.004(4) 0.001(5)
C2 0.022(6) 0.041(6) 0.029(5) 0.000(4) 0.007(4) -0.005(5)
C3 0.029(7) 0.043(7) 0.038(6) -0.004(5) -0.002(5) -0.008(5)
C4 0.009(5) 0.052(8) 0.038(6) 0.000(5) -0.003(4) -0.003(5)
C5 0.028(6) 0.033(6) 0.026(5) 0.002(4) 0.005(4) -0.002(4)
C6 0.020(5) 0.040(6) 0.019(4) 0.003(4) -0.001(4) 0.000(5)
C7 0.030(6) 0.033(6) 0.027(5) -0.009(4) 0.005(4) -0.001(5)
C8 0.023(6) 0.028(5) 0.029(5) 0.001(4) 0.005(4) 0.005(4)
C9 0.022(6) 0.026(5) 0.023(5) 0.005(4) -0.001(4) -0.007(4)
C10 0.028(6) 0.034(6) 0.026(5) -0.004(4) 0.004(4) -0.001(5)
C11 0.026(6) 0.029(5) 0.019(4) -0.002(4) 0.000(4) -0.003(4)
C12 0.023(6) 0.022(5) 0.034(6) 0.005(4) 0.003(4) 0.000(4)

_geom_special_details            
;
All esds (except the esd in the dihedral angle between two l.s. planes)
are estimated using the full covariance matrix. The cell esds are taken
into account individually in the estimation of esds in distances, angles
and torsion angles; correlations between esds in cell parameters are only
used when they are defined by crystal symmetry. An approximate (isotropic)
treatment of cell esds is used for estimating esds involving l.s. planes.
;

loop_
_geom_bond_atom_site_label_1
_geom_bond_atom_site_label_2
_geom_bond_distance
_geom_bond_site_symmetry_2
_geom_bond_publ_flag
Er1 O5 2.263(9) . ?
Er1 O3 2.267(8) . ?
Er1 O4 2.310(8) . ?
Er1 O1 2.359(8) . ?
Er1 O7 2.379(8) . ?
Er1 O8 2.393(9) . ?
Er1 O9 2.414(9) . ?
Er1 O2 2.466(10) . ?
Er1 C1 2.799(12) . ?
O1 C1 1.271(15) . ?
O2 C1 1.249(16) . ?
O3 C5 1.286(14) . ?
O4 C5 1.255(14) 6_566 ?
O5 C12 1.275(14) . ?
O6 C12 1.255(14) . ?
C1 C2 1.494(16) . ?
C2 C4 1.402(18) . ?
C2 C3 1.422(19) . ?
C3 C4 1.344(17) 5_666 ?
C4 C3 1.344(17) 5_666 ?
C5 O4 1.255(14) 6_565 ?
C5 C6 1.483(16) . ?
C6 C7 1.381(16) 7_667 ?
C6 C11 1.412(15) . ?
C7 C6 1.381(16) 7_667 ?
C7 C8 1.414(16) . ?
C8 C9 1.378(15) . ?
C9 C10 1.390(16) 7_667 ?
C9 C12 1.498(15) . ?
C10 C9 1.390(16) 7_667 ?
C10 C11 1.387(16) . ?

loop_
_geom_angle_atom_site_label_1
_geom_angle_atom_site_label_2
_geom_angle_atom_site_label_3
_geom_angle
_geom_angle_site_symmetry_1
_geom_angle_site_symmetry_3
_geom_angle_publ_flag
O5 Er1 O3 110.6(3) . . ?
O5 Er1 O4 78.5(3) . . ?
O3 Er1 O4 75.1(3) . . ?
O5 Er1 O1 149.1(3) . . ?
O3 Er1 O1 84.1(3) . . ?
O4 Er1 O1 79.5(3) . . ?
O5 Er1 O7 76.9(3) . . ?
O3 Er1 O7 150.5(3) . . ?
O4 Er1 O7 78.8(3) . . ?
O1 Er1 O7 77.7(3) . . ?
O5 Er1 O8 79.0(3) . . ?
O3 Er1 O8 72.0(3) . . ?
O4 Er1 O8 130.0(3) . . ?
O1 Er1 O8 131.9(3) . . ?
O7 Er1 O8 136.9(3) . . ?
O5 Er1 O9 80.6(4) . . ?
O3 Er1 O9 138.1(3) . . ?
O4 Er1 O9 145.8(3) . . ?
O1 Er1 O9 107.0(4) . . ?
O7 Er1 O9 70.2(3) . . ?
O8 Er1 O9 70.9(4) . . ?
O5 Er1 O2 151.5(3) . . ?
O3 Er1 O2 83.4(4) . . ?
O4 Er1 O2 129.9(3) . . ?
O1 Er1 O2 53.3(3) . . ?
O7 Er1 O2 103.4(4) . . ?
O8 Er1 O2 82.3(3) . . ?
O9 Er1 O2 73.0(4) . . ?
O5 Er1 C1 167.0(3) . . ?
O3 Er1 C1 82.4(3) . . ?
O4 Er1 C1 104.8(4) . . ?
O1 Er1 C1 26.8(3) . . ?
O7 Er1 C1 91.2(3) . . ?
O8 Er1 C1 107.0(3) . . ?
O9 Er1 C1 90.4(4) . . ?
O2 Er1 C1 26.5(3) . . ?
C1 O1 Er1 96.2(8) . . ?
C1 O2 Er1 91.8(7) . . ?
C5 O3 Er1 136.4(7) . . ?
C5 O4 Er1 154.5(8) 6_566 . ?
C12 O5 Er1 141.6(8) . . ?
O2 C1 O1 118.6(11) . . ?
O2 C1 C2 121.6(11) . . ?
O1 C1 C2 119.7(12) . . ?
O2 C1 Er1 61.7(7) . . ?
O1 C1 Er1 56.9(6) . . ?
C2 C1 Er1 176.6(9) . . ?
C4 C2 C3 118.4(11) . . ?
C4 C2 C1 120.8(11) . . ?
C3 C2 C1 120.9(11) . . ?
C4 C3 C2 119.9(12) 5_666 . ?
C3 C4 C2 121.8(12) 5_666 . ?
O4 C5 O3 123.2(11) 6_565 . ?
O4 C5 C6 117.5(10) 6_565 . ?
O3 C5 C6 119.3(10) . . ?
C7 C6 C11 118.6(10) 7_667 . ?
C7 C6 C5 120.2(11) 7_667 . ?
C11 C6 C5 121.2(10) . . ?
C6 C7 C8 121.8(11) 7_667 . ?
C9 C8 C7 119.1(10) . . ?
C8 C9 C10 119.1(10) . 7_667 ?
C8 C9 C12 120.0(10) . . ?
C10 C9 C12 120.9(10) 7_667 . ?
C9 C10 C11 122.4(11) 7_667 . ?
C10 C11 C6 118.8(10) . . ?
O6 C12 O5 123.9(11) . . ?
O6 C12 C9 119.6(10) . . ?
O5 C12 C9 116.5(10) . . ?

_diffrn_measured_fraction_theta_max 0.999
_diffrn_reflns_theta_full        27.13
_diffrn_measured_fraction_theta_full 0.999
_refine_diff_density_max         3.956
_refine_diff_density_min         -2.181
_refine_diff_density_rms         0.341
