
#######################################################################
#
#                 Cambridge Crystallographic Data Centre
#                                CCDC
#
#######################################################################
#
# If this CIF has been generated from an entry in the Cambridge
# Structural Database, then it will include bibliographic, chemical,
# crystal, experimental, refinement or atomic coordinate data resulting
# from the CCDC's data processing and validation procedures.
#
#######################################################################

data_CSD_CIF_NESCAQ
_audit_creation_date 2007-03-09
_audit_creation_method CSD-ConQuest-V1
_database_code_CSD NESCAQ
_database_code_depnum_ccdc_archive 'CCDC 630513'
_chemical_formula_sum 'C10 H12 O3'
_chemical_formula_moiety
;
C10 H12 O3
;
_journal_coeditor_code "IUCr XU2144"
_journal_coden_Cambridge 1370
_journal_volume 62
_journal_year 2006
_journal_page_first o5656
_journal_name_full 'Acta Crystallogr.,Sect.E:Struct.Rep.Online '
loop_
_publ_author_name
"Long He"
"Hai-Lan Yang"
"Tai-Ran Kang"
_chemical_name_systematic
;
1,4-Dihydroxy-4-phenylbutan-2-one
;
_chemical_name_common
;
Teaching Subset: Fundamental Chemistry
;
_cell_volume    453.826
_exptl_crystal_colour 'colorless'
_exptl_crystal_density_diffrn 1.319
_exptl_crystal_description 'block'
_exptl_crystal_preparation 'ethanol'
_diffrn_ambient_temperature 293
#These two values have been output from a single CSD field.
_refine_ls_R_factor_gt 0.045
_refine_ls_wR_factor_gt 0.045
_symmetry_cell_setting monoclinic
_symmetry_space_group_name_H-M 'P 21'
_symmetry_Int_Tables_number 4
loop_
_symmetry_equiv_pos_site_id
_symmetry_equiv_pos_as_xyz
1 x,y,z
2 -x,1/2+y,-z
_cell_length_a 7.9573(13)
_cell_length_b 5.4679(15)
_cell_length_c 11.043(3)
_cell_angle_alpha 90
_cell_angle_beta 109.173(16)
_cell_angle_gamma 90
_cell_formula_units_Z 2
loop_
_atom_type_symbol
_atom_type_radius_bond
C 0.68
H 0.23
O 0.68
loop_
_atom_site_label
_atom_site_type_symbol
_atom_site_fract_x
_atom_site_fract_y
_atom_site_fract_z
O1 O 0.2213(3) 0.9969(5) 0.5885(2)
H1 H 0.12140 1.02660 0.59080
O2 O 0.5841(4) 1.2761(6) 0.6274(3)
O3 O 0.8883(3) 1.1251(7) 0.5935(3)
H2 H 0.82830 1.21630 0.53680
C1 C 0.2801(4) 0.8563(6) 0.8080(3)
C2 C 0.3173(5) 0.9392(7) 0.9331(3)
H3 H 0.38400 1.08090 0.95930
C3 C 0.2561(5) 0.8126(9) 1.0192(4)
H4 H 0.28310 0.86850 1.10300
C4 C 0.1553(5) 0.6043(8) 0.9806(4)
H5 H 0.11150 0.52140 1.03750
C5 C 0.1201(5) 0.5200(8) 0.8577(4)
H6 H 0.05390 0.37770 0.83200
C6 C 0.1811(5) 0.6428(7) 0.7724(3)
H7 H 0.15600 0.58270 0.68960
C7 C 0.3454(4) 0.9979(7) 0.7156(3)
H8 H 0.36580 1.16760 0.74530
C8 C 0.5187(4) 0.8945(7) 0.7077(3)
H9 H 0.59420 0.85100 0.79350
H10 H 0.49250 0.74540 0.65740
C9 C 0.6201(4) 1.0629(7) 0.6502(3)
C10 C 0.7768(4) 0.9520(8) 0.6235(4)
H11 H 0.84620 0.85950 0.69810
H12 H 0.73380 0.83850 0.55250
#END
