####################################################################### 
# 
# This file contains crystal structure data downloaded from the 
# Cambridge Structural Database (CSD) hosted by the Cambridge 
# Crystallographic Data Centre (CCDC).
# 
# Full information about CCDC data access policies and citation 
# guidelines are available at http://www.ccdc.cam.ac.uk/access/V1 
# 
# Audit and citation data items may have been added by the CCDC. 
# Please retain this information to preserve the provenance of 
# this file and to allow appropriate attribution of the data. 
# 
#######################################################################

data_1-sqz
_audit_block_doi                 10.5517/ccx57dp
_database_code_depnum_ccdc_archive 'CCDC 839182'
loop_
_citation_id
_citation_doi
_citation_year
1 10.1016/j.jssc.2012.09.008 2013
_audit_update_record             
;
2011-08-15 deposited with the CCDC.	2024-07-11 downloaded from the CCDC.
;
#TrackingRef '- MOFs.cif'


_audit_creation_method           SHELXL-97
_chemical_name_systematic        
;
;
_chemical_name_common            ?
_chemical_melting_point          ?
_chemical_formula_moiety         
;

Co2(C14H8O4)2 (C14H14N4). 3(C3H7NO)'
;
_chemical_formula_sum            'C51 H51 Co2 N7 O11'
_chemical_formula_weight         1055.86

loop_
_atom_type_symbol
_atom_type_description
_atom_type_scat_dispersion_real
_atom_type_scat_dispersion_imag
_atom_type_scat_source
C C 0.0033 0.0016 'International Tables Vol C Tables 4.2.6.8 and 6.1.1.4'
H H 0.0000 0.0000 'International Tables Vol C Tables 4.2.6.8 and 6.1.1.4'
N N 0.0061 0.0033 'International Tables Vol C Tables 4.2.6.8 and 6.1.1.4'
O O 0.0106 0.0060 'International Tables Vol C Tables 4.2.6.8 and 6.1.1.4'
Co Co 0.3494 0.9721 'International Tables Vol C Tables 4.2.6.8 and 6.1.1.4'

_symmetry_cell_setting           Monoclinic
_symmetry_space_group_name_H-M   'C 2/c'

loop_
_symmetry_equiv_pos_as_xyz
'x, y, z'
'-x, y, -z+1/2'
'x+1/2, y+1/2, z'
'-x+1/2, y+1/2, -z+1/2'
'-x, -y, -z'
'x, -y, z-1/2'
'-x+1/2, -y+1/2, -z'
'x+1/2, -y+1/2, z-1/2'

_cell_length_a                   19.420(5)
_cell_length_b                   23.558(5)
_cell_length_c                   14.760(5)
_cell_angle_alpha                90.000(5)
_cell_angle_beta                 127.075(5)
_cell_angle_gamma                90.000(5)
_cell_volume                     5388(3)
_cell_formula_units_Z            2
_cell_measurement_temperature    293(2)
_cell_measurement_reflns_used    2586
_cell_measurement_theta_min      3.52
_cell_measurement_theta_max      24.85

_exptl_crystal_description       block
_exptl_crystal_colour            purple
_exptl_crystal_size_max          0.23
_exptl_crystal_size_mid          0.14
_exptl_crystal_size_min          0.14
_exptl_crystal_density_meas      ?
_exptl_crystal_density_diffrn    1.167
_exptl_crystal_density_method    'not measured'
_exptl_crystal_F_000             1952
_exptl_absorpt_coefficient_mu    0.668
_exptl_absorpt_correction_type   multi-scan
_exptl_absorpt_correction_T_min  0.8615
_exptl_absorpt_correction_T_max  0.9123
_exptl_absorpt_process_details   '(SADABS; Bruker, 2004)'

_exptl_special_details           
;
;

_diffrn_ambient_temperature      293(2)
_diffrn_radiation_wavelength     0.71069
_diffrn_radiation_type           MoK\a
_diffrn_radiation_source         'fine-focus sealed tube'
_diffrn_radiation_monochromator  graphite
_diffrn_measurement_device_type  'Bruker Smart Apex2 CCD'
_diffrn_measurement_method       'phi and omega scans'
_diffrn_detector_area_resol_mean ?
_diffrn_standards_number         ?
_diffrn_standards_interval_count ?
_diffrn_standards_interval_time  ?
_diffrn_standards_decay_%        0
_diffrn_reflns_number            13343
_diffrn_reflns_av_R_equivalents  0.0329
_diffrn_reflns_av_sigmaI/netI    0.0375
_diffrn_reflns_limit_h_min       -15
_diffrn_reflns_limit_h_max       23
_diffrn_reflns_limit_k_min       -27
_diffrn_reflns_limit_k_max       28
_diffrn_reflns_limit_l_min       -17
_diffrn_reflns_limit_l_max       11
_diffrn_reflns_theta_min         1.57
_diffrn_reflns_theta_max         25.00
_reflns_number_total             4749
_reflns_number_gt                3767
_reflns_threshold_expression     >2\s(I)

_computing_data_collection       'APEX2 (Bruker, 2004)'
_computing_cell_refinement       'SAINT (Bruker, 2004)'
_computing_data_reduction        SAINT
_computing_structure_solution    'SHELXTL (Sheldrick, 2001)'
_computing_structure_refinement  SHELXTL
_computing_molecular_graphics    SHELXTL
_computing_publication_material  'SHELXTL and local programs'

_refine_special_details          
;
Refinement of F^2^ against ALL reflections. The weighted R-factor wR and
goodness of fit S are based on F^2^, conventional R-factors R are based
on F, with F set to zero for negative F^2^. The threshold expression of
F^2^ > 2\s(F^2^) is used only for calculating R-factors(gt) etc. and is
not relevant to the choice of reflections for refinement. R-factors based
on F^2^ are statistically about twice as large as those based on F, and R-
factors based on ALL data will be even larger.
;

_refine_ls_structure_factor_coef Fsqd
_refine_ls_matrix_type           full
_refine_ls_weighting_scheme      calc
_refine_ls_weighting_details     
'calc w=1/[\s^2^(Fo^2^)+(0.0454P)^2^+0.0000P] where P=(Fo^2^+2Fc^2^)/3'
_atom_sites_solution_primary     direct
_atom_sites_solution_secondary   difmap
_atom_sites_solution_hydrogens   geom

_refine_ls_hydrogen_treatment    constr
_refine_ls_extinction_method     none
_refine_ls_extinction_coef       ?
_refine_ls_number_reflns         4749
_refine_ls_number_parameters     254
_refine_ls_number_restraints     504
_refine_ls_R_factor_all          0.0426
_refine_ls_R_factor_gt           0.0326
_refine_ls_wR_factor_ref         0.0884
_refine_ls_wR_factor_gt          0.0854
_refine_ls_goodness_of_fit_ref   1.077
_refine_ls_restrained_S_all      1.024
_refine_ls_shift/su_max          0.001
_refine_ls_shift/su_mean         0.000

loop_
_atom_site_label
_atom_site_type_symbol
_atom_site_fract_x
_atom_site_fract_y
_atom_site_fract_z
_atom_site_U_iso_or_equiv
_atom_site_adp_type
_atom_site_occupancy
_atom_site_symmetry_multiplicity
_atom_site_calc_flag
_atom_site_refinement_flags
_atom_site_disorder_assembly
_atom_site_disorder_group
C1 C 0.08716(12) 0.14209(8) 0.74307(17) 0.0313(4) Uani 1 1 d U . .
C2 C 0.13326(13) 0.09171(8) 0.74123(17) 0.0343(5) Uani 1 1 d U . .
C3 C 0.20841(14) 0.07121(9) 0.84041(18) 0.0479(6) Uani 1 1 d U . .
H3 H 0.2315 0.0899 0.9086 0.058 Uiso 1 1 calc R . .
C4 C 0.24888(14) 0.02417(10) 0.83948(18) 0.0526(6) Uani 1 1 d U . .
H4 H 0.2995 0.0119 0.9072 0.063 Uiso 1 1 calc R . .
C5 C 0.21663(13) -0.00613(8) 0.73996(17) 0.0390(5) Uani 1 1 d U . .
C6 C 0.14141(15) 0.01454(10) 0.64193(19) 0.0614(7) Uani 1 1 d U . .
H6 H 0.1172 -0.0046 0.5738 0.074 Uiso 1 1 calc R . .
C7 C 0.10147(15) 0.06258(10) 0.64259(19) 0.0569(7) Uani 1 1 d U . .
H7 H 0.0518 0.0757 0.5747 0.068 Uiso 1 1 calc R . .
C8 C 0.26128(13) -0.05704(9) 0.73989(17) 0.0410(5) Uani 1 1 d U . .
C9 C 0.32184(16) -0.08639(10) 0.83984(19) 0.0577(7) Uani 1 1 d U . .
H9 H 0.3320 -0.0750 0.9073 0.069 Uiso 1 1 calc R . .
C10 C 0.36688(15) -0.13181(10) 0.84116(18) 0.0545(7) Uani 1 1 d U . .
H10 H 0.4072 -0.1503 0.9093 0.065 Uiso 1 1 calc R . .
C11 C 0.35310(12) -0.15040(8) 0.74284(16) 0.0337(5) Uani 1 1 d U . .
C12 C 0.28892(16) -0.12401(10) 0.64262(18) 0.0551(7) Uani 1 1 d U . .
H12 H 0.2751 -0.1376 0.5743 0.066 Uiso 1 1 calc R . .
C13 C 0.24520(16) -0.07824(10) 0.64177(18) 0.0605(8) Uani 1 1 d U . .
H13 H 0.2034 -0.0609 0.5729 0.073 Uiso 1 1 calc R . .
C14 C 0.40401(12) -0.19809(8) 0.74403(16) 0.0304(4) Uani 1 1 d U . .
C15 C -0.10061(14) 0.20883(10) 0.39943(17) 0.0475(6) Uani 1 1 d U . .
H15 H -0.0516 0.1861 0.4384 0.057 Uiso 1 1 calc R . .
C16 C -0.14296(15) 0.21725(11) 0.28480(18) 0.0541(7) Uani 1 1 d U . .
H16 H -0.1219 0.2009 0.2486 0.065 Uiso 1 1 calc R . .
C17 C -0.21646(13) 0.24999(10) 0.22424(15) 0.0379(5) Uani 1 1 d U . .
C18 C -0.24353(14) 0.27295(9) 0.28325(17) 0.0441(6) Uani 1 1 d U . .
H18 H -0.2933 0.2950 0.2455 0.053 Uiso 1 1 calc R . .
C19 C -0.19724(13) 0.26353(9) 0.39846(16) 0.0391(5) Uani 1 1 d U . .
H19 H -0.2165 0.2802 0.4365 0.047 Uiso 1 1 calc R . .
C20 C -0.26542(14) 0.25924(11) 0.09936(17) 0.0472(6) Uani 1 1 d U . .
C21 C -0.35448(16) 0.28269(14) 0.0355(2) 0.0838(11) Uani 1 1 d U . .
H21A H -0.3811 0.2822 -0.0444 0.126 Uiso 1 1 calc R . .
H21B H -0.3519 0.3210 0.0594 0.126 Uiso 1 1 calc R . .
H21C H -0.3878 0.2600 0.0502 0.126 Uiso 1 1 calc R . .
N1 N -0.12636(10) 0.23171(6) 0.45760(12) 0.0284(4) Uani 1 1 d U . .
N2 N -0.22661(13) 0.24498(11) 0.05817(14) 0.0681(7) Uani 1 1 d U . .
O1 O 0.02206(9) 0.15930(6) 0.64855(12) 0.0403(3) Uani 1 1 d U . .
O2 O 0.11607(9) 0.16374(6) 0.83794(12) 0.0393(3) Uani 1 1 d U . .
O3 O 0.46246(9) -0.22013(5) 0.83806(11) 0.0388(3) Uani 1 1 d U . .
O4 O 0.38478(9) -0.21389(5) 0.64955(11) 0.0380(3) Uani 1 1 d U . .
Co1 Co -0.054804(15) 0.223092(9) 0.631209(19) 0.02236(9) Uani 1 1 d U . .

loop_
_atom_site_aniso_label
_atom_site_aniso_U_11
_atom_site_aniso_U_22
_atom_site_aniso_U_33
_atom_site_aniso_U_23
_atom_site_aniso_U_13
_atom_site_aniso_U_12
C1 0.0385(11) 0.0239(10) 0.0439(12) 0.0014(9) 0.0314(10) 0.0016(8)
C2 0.0375(11) 0.0288(11) 0.0406(11) 0.0004(9) 0.0256(10) 0.0085(9)
C3 0.0517(13) 0.0448(13) 0.0393(12) -0.0083(10) 0.0232(11) 0.0148(11)
C4 0.0504(14) 0.0499(14) 0.0396(13) -0.0009(11) 0.0177(11) 0.0250(11)
C5 0.0442(12) 0.0343(12) 0.0361(11) -0.0022(9) 0.0229(10) 0.0134(10)
C6 0.0657(15) 0.0551(15) 0.0403(13) -0.0073(11) 0.0197(12) 0.0322(13)
C7 0.0532(14) 0.0540(15) 0.0403(13) -0.0022(11) 0.0159(11) 0.0291(12)
C8 0.0471(12) 0.0394(12) 0.0355(11) 0.0008(9) 0.0244(10) 0.0179(10)
C9 0.0756(17) 0.0548(15) 0.0358(12) -0.0001(11) 0.0299(12) 0.0335(13)
C10 0.0653(15) 0.0521(15) 0.0331(12) 0.0051(10) 0.0228(11) 0.0333(12)
C11 0.0402(11) 0.0294(11) 0.0322(10) 0.0020(8) 0.0223(9) 0.0111(9)
C12 0.0815(17) 0.0506(14) 0.0326(12) 0.0066(10) 0.0341(12) 0.0353(13)
C13 0.0782(17) 0.0573(16) 0.0326(12) 0.0104(11) 0.0263(12) 0.0438(14)
C14 0.0362(11) 0.0246(10) 0.0359(11) 0.0001(9) 0.0247(9) 0.0044(9)
C15 0.0438(13) 0.0716(16) 0.0273(11) 0.0060(10) 0.0215(10) 0.0250(11)
C16 0.0515(14) 0.0859(19) 0.0297(11) 0.0037(11) 0.0271(11) 0.0258(13)
C17 0.0355(11) 0.0544(13) 0.0233(10) 0.0035(9) 0.0175(9) 0.0058(10)
C18 0.0405(12) 0.0614(15) 0.0321(11) 0.0074(10) 0.0228(10) 0.0188(11)
C19 0.0383(12) 0.0547(14) 0.0282(11) 0.0039(9) 0.0221(10) 0.0142(10)
C20 0.0437(13) 0.0687(16) 0.0275(11) 0.0063(10) 0.0206(10) 0.0120(11)
C21 0.0581(17) 0.152(3) 0.0375(14) 0.0270(16) 0.0268(13) 0.0447(18)
N1 0.0295(8) 0.0318(9) 0.0261(8) -0.0009(7) 0.0179(7) 0.0004(7)
N2 0.0542(13) 0.1287(19) 0.0234(10) 0.0146(11) 0.0244(10) 0.0355(13)
O1 0.0426(8) 0.0331(8) 0.0459(9) 0.0023(6) 0.0270(7) 0.0134(6)
O2 0.0478(8) 0.0321(8) 0.0470(9) -0.0016(6) 0.0333(7) 0.0087(6)
O3 0.0418(8) 0.0379(8) 0.0350(8) 0.0045(6) 0.0222(7) 0.0167(7)
O4 0.0504(9) 0.0346(8) 0.0365(8) 0.0022(6) 0.0302(7) 0.0143(6)
Co1 0.02702(15) 0.01960(14) 0.02347(14) 0.00051(10) 0.01681(12) 0.00099(10)

_geom_special_details            
;
All s.u.'s (except the s.u. in the dihedral angle between two l.s. planes)
are estimated using the full covariance matrix. The cell s.u.'s are taken
into account individually in the estimation of s.u.'s in distances, angles
and torsion angles; correlations between s.u.'s in cell parameters are only
used when they are defined by crystal symmetry. An approximate (isotropic)
treatment of cell s.u.'s is used for estimating s.u.'s involving l.s. planes.
;

loop_
_geom_bond_atom_site_label_1
_geom_bond_atom_site_label_2
_geom_bond_distance
_geom_bond_site_symmetry_2
_geom_bond_publ_flag
C1 O1 1.258(2) . ?
C1 O2 1.260(2) . ?
C1 C2 1.497(3) . ?
C2 C7 1.374(3) . ?
C2 C3 1.389(3) . ?
C3 C4 1.363(3) . ?
C3 H3 0.9300 . ?
C4 C5 1.397(3) . ?
C4 H4 0.9300 . ?
C5 C6 1.384(3) . ?
C5 C8 1.480(3) . ?
C6 C7 1.375(3) . ?
C6 H6 0.9300 . ?
C7 H7 0.9300 . ?
C8 C13 1.378(3) . ?
C8 C9 1.395(3) . ?
C9 C10 1.375(3) . ?
C9 H9 0.9300 . ?
C10 C11 1.379(3) . ?
C10 H10 0.9300 . ?
C11 C12 1.380(3) . ?
C11 C14 1.490(2) . ?
C12 C13 1.368(3) . ?
C12 H12 0.9300 . ?
C13 H13 0.9300 . ?
C14 O3 1.259(2) . ?
C14 O4 1.263(2) . ?
C15 N1 1.340(2) . ?
C15 C16 1.379(3) . ?
C15 H15 0.9300 . ?
C16 C17 1.376(3) . ?
C16 H16 0.9300 . ?
C17 C18 1.371(3) . ?
C17 C20 1.495(3) . ?
C18 C19 1.381(3) . ?
C18 H18 0.9300 . ?
C19 N1 1.330(2) . ?
C19 H19 0.9300 . ?
C20 N2 1.266(3) . ?
C20 C21 1.490(3) . ?
C21 H21A 0.9600 . ?
C21 H21B 0.9600 . ?
C21 H21C 0.9600 . ?
N1 Co1 2.0604(17) . ?
N2 N2 1.396(3) 7_455 ?
O1 Co1 2.0227(13) . ?
O2 Co1 2.0571(13) 2_556 ?
O3 Co1 2.0566(13) 4_546 ?
O4 Co1 2.0091(13) 3_545 ?
Co1 O4 2.0091(13) 3_455 ?
Co1 O3 2.0567(14) 4_556 ?
Co1 O2 2.0571(13) 2_556 ?
Co1 Co1 2.7979(11) 2_556 ?

loop_
_geom_angle_atom_site_label_1
_geom_angle_atom_site_label_2
_geom_angle_atom_site_label_3
_geom_angle
_geom_angle_site_symmetry_1
_geom_angle_site_symmetry_3
_geom_angle_publ_flag
O1 C1 O2 125.35(17) . . ?
O1 C1 C2 116.59(17) . . ?
O2 C1 C2 118.06(17) . . ?
C7 C2 C3 117.28(18) . . ?
C7 C2 C1 121.58(18) . . ?
C3 C2 C1 121.09(18) . . ?
C4 C3 C2 121.2(2) . . ?
C4 C3 H3 119.4 . . ?
C2 C3 H3 119.4 . . ?
C3 C4 C5 122.02(19) . . ?
C3 C4 H4 119.0 . . ?
C5 C4 H4 119.0 . . ?
C6 C5 C4 116.18(18) . . ?
C6 C5 C8 122.26(19) . . ?
C4 C5 C8 121.56(18) . . ?
C7 C6 C5 121.8(2) . . ?
C7 C6 H6 119.1 . . ?
C5 C6 H6 119.1 . . ?
C2 C7 C6 121.6(2) . . ?
C2 C7 H7 119.2 . . ?
C6 C7 H7 119.2 . . ?
C13 C8 C9 116.37(18) . . ?
C13 C8 C5 122.19(19) . . ?
C9 C8 C5 121.44(19) . . ?
C10 C9 C8 121.6(2) . . ?
C10 C9 H9 119.2 . . ?
C8 C9 H9 119.2 . . ?
C9 C10 C11 120.9(2) . . ?
C9 C10 H10 119.5 . . ?
C11 C10 H10 119.5 . . ?
C10 C11 C12 117.50(18) . . ?
C10 C11 C14 121.38(17) . . ?
C12 C11 C14 121.10(17) . . ?
C13 C12 C11 121.30(19) . . ?
C13 C12 H12 119.4 . . ?
C11 C12 H12 119.4 . . ?
C12 C13 C8 122.0(2) . . ?
C12 C13 H13 119.0 . . ?
C8 C13 H13 119.0 . . ?
O3 C14 O4 124.45(17) . . ?
O3 C14 C11 118.36(17) . . ?
O4 C14 C11 117.19(16) . . ?
N1 C15 C16 123.47(19) . . ?
N1 C15 H15 118.3 . . ?
C16 C15 H15 118.3 . . ?
C17 C16 C15 119.7(2) . . ?
C17 C16 H16 120.1 . . ?
C15 C16 H16 120.1 . . ?
C18 C17 C16 116.96(18) . . ?
C18 C17 C20 121.55(19) . . ?
C16 C17 C20 121.48(19) . . ?
C17 C18 C19 120.32(19) . . ?
C17 C18 H18 119.8 . . ?
C19 C18 H18 119.8 . . ?
N1 C19 C18 123.13(18) . . ?
N1 C19 H19 118.4 . . ?
C18 C19 H19 118.4 . . ?
N2 C20 C21 126.5(2) . . ?
N2 C20 C17 115.67(19) . . ?
C21 C20 C17 117.84(19) . . ?
C20 C21 H21A 109.5 . . ?
C20 C21 H21B 109.5 . . ?
H21A C21 H21B 109.5 . . ?
C20 C21 H21C 109.5 . . ?
H21A C21 H21C 109.5 . . ?
H21B C21 H21C 109.5 . . ?
C19 N1 C15 116.38(16) . . ?
C19 N1 Co1 121.80(13) . . ?
C15 N1 Co1 121.66(13) . . ?
C20 N2 N2 114.3(2) . 7_455 ?
C1 O1 Co1 123.46(13) . . ?
C1 O2 Co1 126.25(12) . 2_556 ?
C14 O3 Co1 126.74(12) . 4_546 ?
C14 O4 Co1 123.96(12) . 3_545 ?
O4 Co1 O1 168.03(6) 3_455 . ?
O4 Co1 O3 89.55(6) 3_455 4_556 ?
O1 Co1 O3 88.65(6) . 4_556 ?
O4 Co1 O2 90.56(6) 3_455 2_556 ?
O1 Co1 O2 87.03(6) . 2_556 ?
O3 Co1 O2 159.56(6) 4_556 2_556 ?
O4 Co1 N1 94.81(6) 3_455 . ?
O1 Co1 N1 97.10(6) . . ?
O3 Co1 N1 93.14(6) 4_556 . ?
O2 Co1 N1 107.21(6) 2_556 . ?
O4 Co1 Co1 84.03(4) 3_455 2_556 ?
O1 Co1 Co1 84.01(4) . 2_556 ?
O3 Co1 Co1 79.64(4) 4_556 2_556 ?
O2 Co1 Co1 80.04(4) 2_556 2_556 ?
N1 Co1 Co1 172.69(4) . 2_556 ?

loop_
_geom_torsion_atom_site_label_1
_geom_torsion_atom_site_label_2
_geom_torsion_atom_site_label_3
_geom_torsion_atom_site_label_4
_geom_torsion
_geom_torsion_site_symmetry_1
_geom_torsion_site_symmetry_2
_geom_torsion_site_symmetry_3
_geom_torsion_site_symmetry_4
_geom_torsion_publ_flag
O1 C1 C2 C7 -5.9(3) . . . . ?
O2 C1 C2 C7 174.0(2) . . . . ?
O1 C1 C2 C3 176.63(19) . . . . ?
O2 C1 C2 C3 -3.4(3) . . . . ?
C7 C2 C3 C4 0.2(4) . . . . ?
C1 C2 C3 C4 177.7(2) . . . . ?
C2 C3 C4 C5 -0.9(4) . . . . ?
C3 C4 C5 C6 0.4(4) . . . . ?
C3 C4 C5 C8 179.8(2) . . . . ?
C4 C5 C6 C7 0.8(4) . . . . ?
C8 C5 C6 C7 -178.6(2) . . . . ?
C3 C2 C7 C6 1.0(4) . . . . ?
C1 C2 C7 C6 -176.5(2) . . . . ?
C5 C6 C7 C2 -1.5(4) . . . . ?
C6 C5 C8 C13 17.4(4) . . . . ?
C4 C5 C8 C13 -161.9(2) . . . . ?
C6 C5 C8 C9 -162.2(2) . . . . ?
C4 C5 C8 C9 18.4(4) . . . . ?
C13 C8 C9 C10 4.0(4) . . . . ?
C5 C8 C9 C10 -176.4(2) . . . . ?
C8 C9 C10 C11 -0.6(4) . . . . ?
C9 C10 C11 C12 -3.9(4) . . . . ?
C9 C10 C11 C14 177.5(2) . . . . ?
C10 C11 C12 C13 5.0(4) . . . . ?
C14 C11 C12 C13 -176.4(2) . . . . ?
C11 C12 C13 C8 -1.6(4) . . . . ?
C9 C8 C13 C12 -2.9(4) . . . . ?
C5 C8 C13 C12 177.5(2) . . . . ?
C10 C11 C14 O3 -2.3(3) . . . . ?
C12 C11 C14 O3 179.2(2) . . . . ?
C10 C11 C14 O4 177.2(2) . . . . ?
C12 C11 C14 O4 -1.3(3) . . . . ?
N1 C15 C16 C17 -1.0(4) . . . . ?
C15 C16 C17 C18 0.2(4) . . . . ?
C15 C16 C17 C20 -178.7(2) . . . . ?
C16 C17 C18 C19 0.8(3) . . . . ?
C20 C17 C18 C19 179.7(2) . . . . ?
C17 C18 C19 N1 -1.2(4) . . . . ?
C18 C17 C20 N2 167.7(2) . . . . ?
C16 C17 C20 N2 -13.4(4) . . . . ?
C18 C17 C20 C21 -13.7(4) . . . . ?
C16 C17 C20 C21 165.2(2) . . . . ?
C18 C19 N1 C15 0.4(3) . . . . ?
C18 C19 N1 Co1 175.89(17) . . . . ?
C16 C15 N1 C19 0.6(3) . . . . ?
C16 C15 N1 Co1 -174.80(19) . . . . ?
C21 C20 N2 N2 2.5(5) . . . 7_455 ?
C17 C20 N2 N2 -179.0(3) . . . 7_455 ?
O2 C1 O1 Co1 -4.3(3) . . . . ?
C2 C1 O1 Co1 175.69(12) . . . . ?
O1 C1 O2 Co1 11.6(3) . . . 2_556 ?
C2 C1 O2 Co1 -168.37(13) . . . 2_556 ?
O4 C14 O3 Co1 11.1(3) . . . 4_546 ?
C11 C14 O3 Co1 -169.43(12) . . . 4_546 ?
O3 C14 O4 Co1 -0.9(3) . . . 3_545 ?
C11 C14 O4 Co1 179.65(12) . . . 3_545 ?
C1 O1 Co1 O4 -4.0(4) . . . 3_455 ?
C1 O1 Co1 O3 77.42(15) . . . 4_556 ?
C1 O1 Co1 O2 -82.60(1