####################################################################### 
# 
# This file contains crystal structure data downloaded from the 
# Cambridge Structural Database (CSD) hosted by the Cambridge 
# Crystallographic Data Centre (CCDC).
# 
# Full information about CCDC data access policies and citation 
# guidelines are available at http://www.ccdc.cam.ac.uk/access/V1 
# 
# Audit and citation data items may have been added by the CCDC. 
# Please retain this information to preserve the provenance of 
# this file and to allow appropriate attribution of the data. 
# 
#######################################################################

data_3-sqz
_audit_block_doi                 10.5517/ccx57gr
_database_code_depnum_ccdc_archive 'CCDC 839184'
loop_
_citation_id
_citation_doi
_citation_year
1 10.1016/j.jssc.2012.09.008 2013
_audit_update_record             
;
2011-08-15 deposited with the CCDC.	2024-07-11 downloaded from the CCDC.
;
#TrackingRef '- MOFs.cif'


_audit_creation_method           SHELXL-97
_chemical_name_systematic        
;
;
_chemical_name_common            ?
_chemical_melting_point          ?
_chemical_formula_moiety         'Ni2 (C8H4O4)2 (C14H14N4)2 (H2O). 2(C3H7NO)'
_chemical_formula_sum            'C50 H52 N10 Ni2 O11'
_chemical_formula_weight         1086.44

loop_
_atom_type_symbol
_atom_type_description
_atom_type_scat_dispersion_real
_atom_type_scat_dispersion_imag
_atom_type_scat_source
C C 0.0033 0.0016 'International Tables Vol C Tables 4.2.6.8 and 6.1.1.4'
H H 0.0000 0.0000 'International Tables Vol C Tables 4.2.6.8 and 6.1.1.4'
N N 0.0061 0.0033 'International Tables Vol C Tables 4.2.6.8 and 6.1.1.4'
O O 0.0106 0.0060 'International Tables Vol C Tables 4.2.6.8 and 6.1.1.4'
Ni Ni 0.3393 1.1124 'International Tables Vol C Tables 4.2.6.8 and 6.1.1.4'

_symmetry_cell_setting           Monoclinic
_symmetry_space_group_name_H-M   'C 2/c'

loop_
_symmetry_equiv_pos_as_xyz
'x, y, z'
'-x, y, -z+1/2'
'x+1/2, y+1/2, z'
'-x+1/2, y+1/2, -z+1/2'
'-x, -y, -z'
'x, -y, z-1/2'
'-x+1/2, -y+1/2, -z'
'x+1/2, -y+1/2, z-1/2'

_cell_length_a                   14.786(5)
_cell_length_b                   26.371(5)
_cell_length_c                   17.835(5)
_cell_angle_alpha                90.000(5)
_cell_angle_beta                 97.791(5)
_cell_angle_gamma                90.000(5)
_cell_volume                     6890(3)
_cell_formula_units_Z            2
_cell_measurement_temperature    293(2)
_cell_measurement_reflns_used    2586
_cell_measurement_theta_min      3.52
_cell_measurement_theta_max      24.85

_exptl_crystal_description       block
_exptl_crystal_colour            purple
_exptl_crystal_size_max          0.23
_exptl_crystal_size_mid          0.22
_exptl_crystal_size_min          0.20
_exptl_crystal_density_meas      ?
_exptl_crystal_density_diffrn    1.047
_exptl_crystal_density_method    'not measured'
_exptl_crystal_F_000             2264
_exptl_absorpt_coefficient_mu    0.598
_exptl_absorpt_correction_type   multi-scan
_exptl_absorpt_correction_T_min  0.8747
_exptl_absorpt_correction_T_max  0.8898
_exptl_absorpt_process_details   '(SADABS; Bruker, 2004)'

_exptl_special_details           
;
;

_diffrn_ambient_temperature      293(2)
_diffrn_radiation_wavelength     0.71069
_diffrn_radiation_type           MoK\a
_diffrn_radiation_source         'fine-focus sealed tube'
_diffrn_radiation_monochromator  graphite
_diffrn_measurement_device_type  'Bruker Smart Apex2 CCD'
_diffrn_measurement_method       'phi and omega scans'
_diffrn_detector_area_resol_mean ?
_diffrn_standards_number         ?
_diffrn_standards_interval_count ?
_diffrn_standards_interval_time  ?
_diffrn_standards_decay_%        0
_diffrn_reflns_number            17215
_diffrn_reflns_av_R_equivalents  0.0361
_diffrn_reflns_av_sigmaI/netI    0.0427
_diffrn_reflns_limit_h_min       -17
_diffrn_reflns_limit_h_max       17
_diffrn_reflns_limit_k_min       -30
_diffrn_reflns_limit_k_max       31
_diffrn_reflns_limit_l_min       -15
_diffrn_reflns_limit_l_max       21
_diffrn_reflns_theta_min         1.54
_diffrn_reflns_theta_max         25.00
_reflns_number_total             6071
_reflns_number_gt                4850
_reflns_threshold_expression     >2\s(I)

_computing_data_collection       'APEX2 (Bruker, 2004)'
_computing_cell_refinement       'SAINT (Bruker, 2004)'
_computing_data_reduction        SAINT
_computing_structure_solution    'SHELXTL (Sheldrick, 2001)'
_computing_structure_refinement  SHELXTL
_computing_molecular_graphics    SHELXTL
_computing_publication_material  'SHELXTL and local programs'

_refine_special_details          
;
Refinement of F^2^ against ALL reflections. The weighted R-factor wR and
goodness of fit S are based on F^2^, conventional R-factors R are based
on F, with F set to zero for negative F^2^. The threshold expression of
F^2^ > 2\s(F^2^) is used only for calculating R-factors(gt) etc. and is
not relevant to the choice of reflections for refinement. R-factors based
on F^2^ are statistically about twice as large as those based on F, and R-
factors based on ALL data will be even larger.
;

_refine_ls_structure_factor_coef Fsqd
_refine_ls_matrix_type           full
_refine_ls_weighting_scheme      calc
_refine_ls_weighting_details     
'calc w=1/[\s^2^(Fo^2^)+(0.0636P)^2^+0.0000P] where P=(Fo^2^+2Fc^2^)/3'
_atom_sites_solution_primary     direct
_atom_sites_solution_secondary   difmap
_atom_sites_solution_hydrogens   geom

_refine_ls_hydrogen_treatment    constr
_refine_ls_extinction_method     none
_refine_ls_extinction_coef       ?
_refine_ls_number_reflns         6071
_refine_ls_number_parameters     287
_refine_ls_number_restraints     0
_refine_ls_R_factor_all          0.0469
_refine_ls_R_factor_gt           0.0374
_refine_ls_wR_factor_ref         0.1081
_refine_ls_wR_factor_gt          0.1041
_refine_ls_goodness_of_fit_ref   1.052
_refine_ls_restrained_S_all      1.052
_refine_ls_shift/su_max          0.002
_refine_ls_shift/su_mean         0.000

loop_
_atom_site_label
_atom_site_type_symbol
_atom_site_fract_x
_atom_site_fract_y
_atom_site_fract_z
_atom_site_U_iso_or_equiv
_atom_site_adp_type
_atom_site_occupancy
_atom_site_symmetry_multiplicity
_atom_site_calc_flag
_atom_site_refinement_flags
_atom_site_disorder_assembly
_atom_site_disorder_group
Ni1 Ni 0.378423(15) 0.112280(9) 0.736453(13) 0.02735(11) Uani 1 1 d . . .
O1 O 0.32106(10) 0.15980(6) 0.65187(9) 0.0474(4) Uani 1 1 d . . .
O2 O 0.44307(12) 0.20386(8) 0.63045(12) 0.0787(7) Uani 1 1 d . . .
O3 O 0.42191(10) 0.06685(6) 0.82473(9) 0.0498(4) Uani 1 1 d . . .
O4 O 0.57448(10) 0.06890(6) 0.84336(8) 0.0449(4) Uani 1 1 d . . .
O5W O 0.5000 0.15405(7) 0.7500 0.0308(4) Uani 1 2 d S . .
H5W H 0.5170 0.1761 0.7871 0.075(9) Uiso 1 1 d R . .
N1 N 0.25868(11) 0.06728(7) 0.71575(10) 0.0382(4) Uani 1 1 d . . .
N2 N 0.31784(13) 0.15751(9) 0.81409(12) 0.0587(6) Uani 1 1 d . . .
N3 N 0.02041(16) 0.00216(11) 0.53794(12) 0.0836(9) Uani 1 1 d . . .
N4 N 0.04827(19) 0.18562(16) 0.7603(3) 0.1283(14) Uani 1 1 d . . .
C1 C 0.36041(15) 0.19266(9) 0.61728(14) 0.0467(6) Uani 1 1 d . . .
C2 C 0.30273(15) 0.22219(9) 0.55599(13) 0.0470(6) Uani 1 1 d . . .
C3 C 0.21005(17) 0.21521(11) 0.54234(16) 0.0659(8) Uani 1 1 d . . .
H3 H 0.1824 0.1919 0.5710 0.079 Uiso 1 1 calc R . .
C4 C 0.15746(17) 0.24249(11) 0.48646(16) 0.0681(9) Uani 1 1 d . . .
H4 H 0.0948 0.2371 0.4773 0.082 Uiso 1 1 calc R . .
C5 C 0.49890(14) 0.05684(8) 0.86056(11) 0.0335(5) Uani 1 1 d . . .
C6 C 0.49900(14) 0.02678(8) 0.93231(11) 0.0382(5) Uani 1 1 d . . .
C7 C 0.57887(16) 0.00687(12) 0.96918(14) 0.0641(8) Uani 1 1 d . . .
H7 H 0.6331 0.0113 0.9489 0.077 Uiso 1 1 calc R . .
C8 C 0.57923(16) -0.01964(12) 1.03612(15) 0.0682(9) Uani 1 1 d . . .
H8 H 0.6339 -0.0329 1.0602 0.082 Uiso 1 1 calc R . .
C9 C 0.21585(15) 0.06171(9) 0.64504(13) 0.0453(6) Uani 1 1 d . . .
H9 H 0.2389 0.0789 0.6063 0.054 Uiso 1 1 calc R . .
C10 C 0.13904(17) 0.03167(11) 0.62650(14) 0.0594(7) Uani 1 1 d . . .
C11 C 0.1069(2) 0.00621(14) 0.68469(17) 0.0924(12) Uani 1 1 d . . .
H11 H 0.0563 -0.0149 0.6749 0.111 Uiso 1 1 calc R . .
C12 C 0.1497(2) 0.01208(16) 0.75717(16) 0.1043(15) Uani 1 1 d . . .
H12 H 0.1283 -0.0048 0.7970 0.125 Uiso 1 1 calc R . .
C13 C 0.22470(18) 0.04319(12) 0.77032(15) 0.0680(9) Uani 1 1 d . . .
H13 H 0.2527 0.0474 0.8199 0.082 Uiso 1 1 calc R . .
C14 C 0.09453(19) 0.02631(13) 0.54711(16) 0.0742(9) Uani 1 1 d . . .
C15 C 0.1371(3) 0.0496(2) 0.48559(19) 0.166(3) Uani 1 1 d . . .
H15A H 0.1888 0.0297 0.4763 0.249 Uiso 1 1 calc R . .
H15B H 0.1566 0.0834 0.4999 0.249 Uiso 1 1 calc R . .
H15C H 0.0935 0.0509 0.4405 0.249 Uiso 1 1 calc R . .
C16 C 0.2306(2) 0.17056(14) 0.7960(2) 0.0900(12) Uani 1 1 d . . .
H16 H 0.2029 0.1645 0.7468 0.108 Uiso 1 1 calc R . .
C17 C 0.1788(3) 0.1926(3) 0.8462(3) 0.181(3) Uani 1 1 d . . .
C18 C 0.2220(3) 0.2029(4) 0.9172(4) 0.288(6) Uani 1 1 d . . .
H18 H 0.1901 0.2187 0.9522 0.345 Uiso 1 1 calc R . .
C19 C 0.3137(3) 0.1902(3) 0.9376(3) 0.220(4) Uani 1 1 d . . .
H19 H 0.3438 0.1974 0.9856 0.264 Uiso 1 1 calc R . .
C20 C 0.3578(2) 0.16661(16) 0.8846(2) 0.1020(14) Uani 1 1 d . . .
H20 H 0.4180 0.1565 0.8982 0.122 Uiso 1 1 calc R . .
C21 C 0.0791(3) 0.1971(3) 0.8273(4) 0.230(5) Uani 1 1 d . . .
C22 C 0.0215(4) 0.2138(7) 0.8843(6) 0.599(18) Uani 1 1 d . . .
H22A H -0.0414 0.2163 0.8713 0.718 Uiso 1 1 calc R . .
H22B H 0.0482 0.2217 0.9331 0.718 Uiso 1 1 calc R . .

loop_
_atom_site_aniso_label
_atom_site_aniso_U_11
_atom_site_aniso_U_22
_atom_site_aniso_U_33
_atom_site_aniso_U_23
_atom_site_aniso_U_13
_atom_site_aniso_U_12
Ni1 0.02142(15) 0.03658(17) 0.02192(15) 0.00053(11) -0.00474(10) 0.00032(10)
O1 0.0379(9) 0.0493(9) 0.0492(10) 0.0196(8) -0.0152(7) -0.0037(7)
O2 0.0357(10) 0.1018(15) 0.0898(15) 0.0626(12) -0.0232(10) -0.0124(10)
O3 0.0327(8) 0.0748(11) 0.0383(9) 0.0260(8) -0.0084(7) -0.0070(8)
O4 0.0318(8) 0.0631(10) 0.0390(9) 0.0213(8) 0.0020(7) 0.0026(7)
O5W 0.0236(10) 0.0349(11) 0.0304(11) 0.000 -0.0092(8) 0.000
N1 0.0285(9) 0.0531(11) 0.0305(9) 0.0002(8) -0.0051(8) -0.0060(8)
N2 0.0355(11) 0.0810(15) 0.0594(14) -0.0298(12) 0.0058(10) -0.0041(10)
N3 0.0631(16) 0.128(2) 0.0510(14) 0.0055(14) -0.0228(12) -0.0532(15)
N4 0.0389(16) 0.169(3) 0.180(4) -0.019(3) 0.026(2) 0.0057(18)
C1 0.0360(13) 0.0517(14) 0.0472(14) 0.0170(12) -0.0132(11) 0.0007(11)
C2 0.0357(13) 0.0494(14) 0.0502(14) 0.0182(11) -0.0147(11) -0.0017(10)
C3 0.0401(14) 0.0747(18) 0.077(2) 0.0447(16) -0.0142(14) -0.0083(13)
C4 0.0334(13) 0.0824(19) 0.081(2) 0.0438(17) -0.0203(13) -0.0066(13)
C5 0.0313(11) 0.0429(12) 0.0245(10) 0.0053(9) -0.0030(9) -0.0004(9)
C6 0.0339(11) 0.0511(13) 0.0277(11) 0.0118(9) -0.0023(9) -0.0007(10)
C7 0.0323(13) 0.111(2) 0.0486(15) 0.0440(15) 0.0038(11) 0.0064(14)
C8 0.0331(13) 0.115(2) 0.0545(16) 0.0471(16) -0.0015(12) 0.0084(14)
C9 0.0349(12) 0.0595(15) 0.0374(13) 0.0021(11) -0.0099(10) -0.0111(11)
C10 0.0428(14) 0.0864(19) 0.0442(14) 0.0013(14) -0.0108(12) -0.0252(14)
C11 0.0635(19) 0.145(3) 0.0615(19) 0.020(2) -0.0172(16) -0.067(2)
C12 0.079(2) 0.178(4) 0.0503(18) 0.027(2) -0.0103(16) -0.080(3)
C13 0.0501(16) 0.111(2) 0.0383(14) 0.0121(15) -0.0093(12) -0.0372(16)
C14 0.0574(18) 0.110(2) 0.0481(16) 0.0050(16) -0.0187(14) -0.0416(17)
C15 0.127(4) 0.310(7) 0.052(2) 0.013(3) -0.021(2) -0.134(4)
C16 0.0456(17) 0.120(3) 0.103(3) -0.055(2) 0.0056(17) 0.0155(17)
C17 0.055(2) 0.303(7) 0.185(5) -0.162(5) 0.010(3) 0.021(3)
C18 0.076(3) 0.539(14) 0.246(7) -0.300(9) 0.015(4) 0.021(5)
C19 0.073(3) 0.434(10) 0.151(5) -0.203(6) 0.012(3) -0.005(4)
C20 0.0512(19) 0.166(4) 0.089(2) -0.076(3) 0.0097(18) -0.012(2)
C21 0.062(3) 0.393(11) 0.228(7) -0.186(8) 0.001(4) 0.045(5)
C22 0.088(5) 1.28(5) 0.427(15) -0.52(2) 0.031(7) 0.130(12)

_geom_special_details            
;
All s.u.'s (except the s.u. in the dihedral angle between two l.s. planes)
are estimated using the full covariance matrix. The cell s.u.'s are taken
into account individually in the estimation of s.u.'s in distances, angles
and torsion angles; correlations between s.u.'s in cell parameters are only
used when they are defined by crystal symmetry. An approximate (isotropic)
treatment of cell s.u.'s is used for estimating s.u.'s involving l.s. planes.
;

loop_
_geom_bond_atom_site_label_1
_geom_bond_atom_site_label_2
_geom_bond_distance
_geom_bond_site_symmetry_2
_geom_bond_publ_flag
Ni1 O3 2.0133(15) . ?
Ni1 O4 2.0220(15) 2_656 ?
Ni1 O1 2.0539(15) . ?
Ni1 O5W 2.0941(11) . ?
Ni1 N2 2.116(2) . ?
Ni1 N1 2.1219(18) . ?
O1 C1 1.252(3) . ?
O2 C1 1.248(3) . ?
O3 C5 1.256(2) . ?
O4 C5 1.240(2) . ?
O4 Ni1 2.0220(15) 2_656 ?
O5W Ni1 2.0941(11) 2_656 ?
O5W H5W 0.8912 . ?
N1 C13 1.317(3) . ?
N1 C9 1.340(3) . ?
N2 C16 1.332(3) . ?
N2 C20 1.337(4) . ?
N3 C14 1.259(3) . ?
N3 N3 1.410(4) 5_556 ?
N4 C21 1.257(6) . ?
N4 N4 1.425(6) 2_556 ?
C1 C2 1.509(3) . ?
C2 C3 1.371(3) . ?
C2 C4 1.381(3) 7_556 ?
C3 C4 1.381(3) . ?
C3 H3 0.9300 . ?
C4 C2 1.381(3) 7_556 ?
C4 H4 0.9300 . ?
C5 C6 1.505(3) . ?
C6 C8 1.366(3) 5_657 ?
C6 C7 1.376(3) . ?
C7 C8 1.383(3) . ?
C7 H7 0.9300 . ?
C8 C6 1.366(3) 5_657 ?
C8 H8 0.9300 . ?
C9 C10 1.387(3) . ?
C9 H9 0.9300 . ?
C10 C11 1.374(4) . ?
C10 C14 1.485(3) . ?
C11 C12 1.369(4) . ?
C11 H11 0.9300 . ?
C12 C13 1.373(4) . ?
C12 H12 0.9300 . ?
C13 H13 0.9300 . ?
C14 C15 1.471(4) . ?
C15 H15A 0.9600 . ?
C15 H15B 0.9600 . ?
C15 H15C 0.9600 . ?
C16 C17 1.383(5) . ?
C16 H16 0.9300 . ?
C17 C18 1.365(7) . ?
C17 C21 1.472(6) . ?
C18 C19 1.396(7) . ?
C18 H18 0.9300 . ?
C19 C20 1.367(5) . ?
C19 H19 0.9300 . ?
C20 H20 0.9300 . ?
C21 C22 1.479(8) . ?
C22 H22A 0.9300 . ?
C22 H22B 0.9300 . ?

loop_
_geom_angle_atom_site_label_1
_geom_angle_atom_site_label_2
_geom_angle_atom_site_label_3
_geom_angle
_geom_angle_site_symmetry_1
_geom_angle_site_symmetry_3
_geom_angle_publ_flag
O3 Ni1 O4 96.31(7) . 2_656 ?
O3 Ni1 O1 173.61(7) . . ?
O4 Ni1 O1 88.59(7) 2_656 . ?
O3 Ni1 O5W 92.56(5) . . ?
O4 Ni1 O5W 90.38(5) 2_656 . ?
O1 Ni1 O5W 91.51(5) . . ?
O3 Ni1 N2 86.70(8) . . ?
O4 Ni1 N2 174.99(7) 2_656 . ?
O1 Ni1 N2 88.13(8) . . ?
O5W Ni1 N2 93.49(7) . . ?
O3 Ni1 N1 88.50(6) . . ?
O4 Ni1 N1 85.41(7) 2_656 . ?
O1 Ni1 N1 87.80(7) . . ?
O5W Ni1 N1 175.75(6) . . ?
N2 Ni1 N1 90.68(8) . . ?
C1 O1 Ni1 127.66(14) . . ?
C5 O3 Ni1 133.99(14) . . ?
C5 O4 Ni1 136.65(13) . 2_656 ?
Ni1 O5W Ni1 116.53(9) . 2_656 ?
Ni1 O5W H5W 125.5 . . ?
Ni1 O5W H5W 96.1 2_656 . ?
C13 N1 C9 117.6(2) . . ?
C13 N1 Ni1 122.27(15) . . ?
C9 N1 Ni1 120.11(15) . . ?
C16 N2 C20 118.2(3) . . ?
C16 N2 Ni1 117.95(19) . . ?
C20 N2 Ni1 123.0(2) . . ?
C14 N3 N3 114.7(3) . 5_556 ?
C21 N4 N4 117.8(5) . 2_556 ?
O2 C1 O1 125.4(2) . . ?
O2 C1 C2 117.2(2) . . ?
O1 C1 C2 117.4(2) . . ?
C3 C2 C4 118.9(2) . 7_556 ?
C3 C2 C1 120.8(2) . . ?
C4 C2 C1 120.3(2) 7_556 . ?
C2 C3 C4 120.6(2) . . ?
C2 C3 H3 119.7 . . ?
C4 C3 H3 119.7 . . ?
C3 C4 C2 120.5(2) . 7_556 ?
C3 C4 H4 119.8 . . ?
C2 C4 H4 119.8 7_556 . ?
O4 C5 O3 127.28(19) . . ?
O4 C5 C6 116.64(18) . . ?
O3 C5 C6 116.08(18) . . ?
C8 C6 C7 118.1(2) 5_657 . ?
C8 C6 C5 121.31(19) 5_657 . ?
C7 C6 C5 120.6(2) . . ?
C6 C7 C8 120.5(2) . . ?
C6 C7 H7 119.7 . . ?
C8 C7 H7 119.7 . . ?
C6 C8 C7 121.4(2) 5_657 . ?
C6 C8 H8 119.3 5_657 . ?
C7 C8 H8 119.3 . . ?
N1 C9 C10 123.6(2) . . ?
N1 C9 H9 118.2 . . ?
C10 C9 H9 118.2 . . ?
C11 C10 C9 117.1(2) . . ?
C11 C10 C14 121.3(2) . . ?
C9 C10 C14 121.6(2) . . ?
C12 C11 C10 119.7(2) . . ?
C12 C11 H11 120.2 . . ?
C10 C11 H11 120.2 . . ?
C11 C12 C13 119.2(3) . . ?
C11 C12 H12 120.4 . . ?
C13 C12 H12 120.4 . . ?
N1 C13 C12 122.8(2) . . ?
N1 C13 H13 118.6 . . ?
C12 C13 H13 118.6 . . ?
N3 C14 C15 124.5(3) . . ?
N3 C14 C10 115.9(3) . . ?
C15 C14 C10 119.5(2) . . ?
C14 C15 H15A 109.5 . . ?
C14 C15 H15B 109.5 . . ?
H15A C15 H15B 109.5 . . ?
C14 C15 H15C 109.5 . . ?
H15A C15 H15C 109.5 . . ?
H15B C15 H15C 109.5 . . ?
N2 C16 C17 123.6(3) . . ?
N2 C16 H16 118.2 . . ?
C17 C16 H16 118.2 . . ?
C18 C17 C16 117.0(4) . . ?
C18 C17 C21 121.6(5) . . ?
C16 C17 C21 120.7(4) . . ?
C17 C18 C19 120.6(4) . . ?
C17 C18 H18 119.7 . . ?
C19 C18 H18 119.7 . . ?
C20 C19 C18 117.8(4) . . ?
C20 C19 H19 121.1 . . ?
C18 C19 H19 121.1 . . ?
N2 C20 C19 122.7(4) . . ?
N2 C20 H20 118.6 . . ?
C19 C20 H20 118.6 . . ?
N4 C21 C17 114.9(5) . . ?
N4 C21 C22 123.8(5) . . ?
C17 C21 C22 121.3(6) . . ?
C21 C22 H22A 120.0 . . ?
C21 C22 H22B 120.0 . . ?
H22A C22 H22B 120.0 . . ?

loop_
_geom_torsion_atom_site_label_1
_geom_torsion_atom_site_label_2
_geom_torsion_atom_site_label_3
_geom_torsion_atom_site_label_4
_geom_torsion
_geom_torsion_site_symmetry_1
_geom_torsion_site_symmetry_2
_geom_torsion_site_symmetry_3
_geom_torsion_site_symmetry_4
_geom_torsion_publ_flag
O3 Ni1 O1 C1 142.1(5) . . . . ?
O4 Ni1 O1 C1 -77.8(2) 2_656 . . . ?
O5W Ni1 O1 C1 12.6(2) . . . . ?
N2 Ni1 O1 C1 106.0(2) . . . . ?
N1 Ni1 O1 C1 -163.2(2) . . . . ?
O4 Ni1 O3 C5 72.8(2) 2_656 . . . ?
O1 Ni1 O3 C5 -147.4(5) . . . . ?
O5W Ni1 O3 C5 -17.9(2) . . . . ?
N2 Ni1 O3 C5 -111.3(2) . . . . ?
N1 Ni1 O3 C5 158.0(2) . . . . ?
O3 Ni1 O5W Ni1 47.72(5) . . . 2_656 ?
O4 Ni1 O5W Ni1 -48.61(5) 2_656 . . 2_656 ?
O1 Ni1 O5W Ni1 -137.22(5) . . . 2_656 ?
N2 Ni1 O5W Ni1 134.56(7) . . . 2_656 ?
N1 Ni1 O5W Ni1 -56.5(8) . . . 2_656 ?
O3 Ni1 N1 C13 29.3(2) . . . . ?
O4 Ni1 N1 C13 125.7(2) 2_656 . . 