####################################################################### 
# 
# This file contains crystal structure data downloaded from the 
# Cambridge Structural Database (CSD) hosted by the Cambridge 
# Crystallographic Data Centre (CCDC).
# 
# Full information about CCDC data access policies and citation 
# guidelines are available at http://www.ccdc.cam.ac.uk/access/V1 
# 
# Audit and citation data items may have been added by the CCDC. 
# Please retain this information to preserve the provenance of 
# this file and to allow appropriate attribution of the data. 
# 
#######################################################################

data_3
_audit_block_doi                 10.5517/ccyj0p4
_database_code_depnum_ccdc_archive 'CCDC 879336'
_audit_update_record             
;
2012-04-28 deposited with the CCDC.	2024-07-11 downloaded from the CCDC.
;
#TrackingRef '120040.cif'

_audit_creation_date             2010-08-04
_audit_creation_method           SHELXL-97
_chemical_name_systematic        
;
[Cu(L5)2](ClO4)2-9(DMF)-2(H2O)
;
_chemical_name_common            ?
_chemical_melting_point          ?
_chemical_formula_moiety         'C61 H91 Cl2 Cu N19 O22'
_chemical_formula_sum            'C61 H91 Cl2 Cu N19 O22'
_chemical_formula_weight         1576.97

loop_
_atom_type_symbol
_atom_type_description
_atom_type_scat_dispersion_real
_atom_type_scat_dispersion_imag
_atom_type_scat_source
C C 0.0033 0.0016 'International Tables Vol C Tables 4.2.6.8 and 6.1.1.4'
H H 0.0000 0.0000 'International Tables Vol C Tables 4.2.6.8 and 6.1.1.4'
Cl Cl 0.1484 0.1585 'International Tables Vol C Tables 4.2.6.8 and 6.1.1.4'
Cu Cu 0.3201 1.2651 'International Tables Vol C Tables 4.2.6.8 and 6.1.1.4'
N N 0.0061 0.0033 'International Tables Vol C Tables 4.2.6.8 and 6.1.1.4'
O O 0.0106 0.0060 'International Tables Vol C Tables 4.2.6.8 and 6.1.1.4'

_symmetry_cell_setting           trigonal
_symmetry_space_group_name_H-M   'P 32 2 1'
_symmetry_space_group_name_Hall  'P 32 2"'
_symmetry_Int_Tables_number      154

loop_
_symmetry_equiv_pos_as_xyz
'x, y, z'
'-y, x-y, z+2/3'
'-x+y, -x, z+1/3'
'y, x, -z'
'x-y, -y, -z+1/3'
'-x, -x+y, -z+2/3'

_cell_length_a                   14.518(2)
_cell_length_b                   14.518(2)
_cell_length_c                   33.429(6)
_cell_angle_alpha                90.00
_cell_angle_beta                 90.00
_cell_angle_gamma                120.00
_cell_volume                     6101.7(16)
_cell_formula_units_Z            3
_cell_measurement_temperature    200
_cell_measurement_reflns_used    36978
_cell_measurement_theta_min      3.0
_cell_measurement_theta_max      27.6

_exptl_crystal_description       block
_exptl_crystal_colour            blue
_exptl_crystal_size_max          0.25
_exptl_crystal_size_mid          0.25
_exptl_crystal_size_min          0.10
_exptl_crystal_density_meas      ?
_exptl_crystal_density_diffrn    1.287
_exptl_crystal_density_method    'not measured'
_exptl_crystal_F_000             2487
_exptl_absorpt_coefficient_mu    0.412
_exptl_absorpt_correction_type   multi-scan
_exptl_absorpt_correction_T_min  0.9040
_exptl_absorpt_correction_T_max  0.9600
_exptl_absorpt_process_details   
;
Higashi, T. (1995). Program for Absorption Correction.
Rigaku Corporation, Tokyo, Japan.
;
_exptl_special_details           
;
?
;

_diffrn_ambient_temperature      200
_diffrn_radiation_wavelength     0.71075
_diffrn_radiation_type           MoK\a
_diffrn_radiation_source         
;
MicroMax-007HF microfocus rotating anode X-ray generator
;
_diffrn_measurement_device_type  'Rigaku RAXIS-RAPID II'
_diffrn_measurement_method       \w
_diffrn_detector_area_resol_mean 10.00
_diffrn_reflns_number            44709
_diffrn_reflns_av_R_equivalents  0.0820
_diffrn_reflns_av_sigmaI/netI    0.0501
_diffrn_reflns_limit_h_min       -17
_diffrn_reflns_limit_h_max       17
_diffrn_reflns_limit_k_min       -17
_diffrn_reflns_limit_k_max       14
_diffrn_reflns_limit_l_min       -39
_diffrn_reflns_limit_l_max       39
_diffrn_reflns_theta_min         3.06
_diffrn_reflns_theta_max         24.98
_reflns_number_total             7155
_reflns_number_gt                5550
_reflns_threshold_expression     I>2\s(I)

_computing_data_collection       ?
_computing_cell_refinement       ?
_computing_data_reduction        ?
_computing_structure_solution    'SIR92 (Altomare et al., 1994)'
_computing_structure_refinement  'SHELXL-97 (Sheldrick, 1997)'
_computing_molecular_graphics    ?
_computing_publication_material  ?

_refine_special_details          
;
Refinement of F^2^ against ALL reflections. The weighted R-factor wR and
goodness of fit S are based on F^2^, conventional R-factors R are based
on F, with F set to zero for negative F^2^. The threshold expression of
F^2^ > 2sigma(F^2^) is used only for calculating R-factors(gt) etc. and is
not relevant to the choice of reflections for refinement. R-factors based
on F^2^ are statistically about twice as large as those based on F, and R-
factors based on ALL data will be even larger.
;

_refine_ls_structure_factor_coef Fsqd
_refine_ls_matrix_type           full
_refine_ls_weighting_scheme      calc
_refine_ls_weighting_details     
'calc w=1/[\s^2^(Fo^2^)+(0.1452P)^2^+0.0000P] where P=(Fo^2^+2Fc^2^)/3'
_atom_sites_solution_primary     direct
_atom_sites_solution_secondary   difmap
_atom_sites_solution_hydrogens   geom
_refine_ls_hydrogen_treatment    mixed
_refine_ls_extinction_method     none
_refine_ls_extinction_coef       ?
_refine_ls_abs_structure_details 'Flack H D (1983), Acta Cryst. A39, 876-881'
_refine_ls_abs_structure_Flack   0.04(2)
_refine_ls_number_reflns         7155
_refine_ls_number_parameters     534
_refine_ls_number_restraints     22
_refine_ls_R_factor_all          0.0867
_refine_ls_R_factor_gt           0.0707
_refine_ls_wR_factor_ref         0.2033
_refine_ls_wR_factor_gt          0.1869
_refine_ls_goodness_of_fit_ref   1.004
_refine_ls_restrained_S_all      1.014
_refine_ls_shift/su_max          0.001
_refine_ls_shift/su_mean         0.000

loop_
_atom_site_label
_atom_site_type_symbol
_atom_site_fract_x
_atom_site_fract_y
_atom_site_fract_z
_atom_site_U_iso_or_equiv
_atom_site_adp_type
_atom_site_occupancy
_atom_site_symmetry_multiplicity
_atom_site_calc_flag
_atom_site_refinement_flags
_atom_site_disorder_assembly
_atom_site_disorder_group
Cu1 Cu 1.0000 0.53591(4) 0.3333 0.05743(18) Uani 1 2 d S . .
Cl1 Cl 0.7227(3) 0.8120(3) 0.77792(11) 0.0819(10) Uani 0.604(8) 1 d P . .
Cl1B Cl 0.7331(6) 0.8182(8) 0.7738(3) 0.146(4) Uani 0.396(8) 1 d P . .
O3 O 0.5321(2) 0.5736(2) 0.35407(13) 0.0890(11) Uani 1 1 d . . .
O5 O 0.5941(3) 1.0559(2) 0.42490(10) 0.0763(9) Uani 1 1 d . . .
O11 O 0.7966(4) 0.7819(5) 0.79003(19) 0.1487(18) Uani 1 1 d . . .
O12 O 0.7599(6) 0.9205(4) 0.7814(3) 0.191(3) Uani 1 1 d . . .
O13 O 0.6500(10) 0.7486(10) 0.7552(5) 0.218(6) Uani 0.604(8) 1 d P . .
O13B O 0.729(2) 0.811(2) 0.7346(4) 0.236(11) Uani 0.396(8) 1 d P . .
O14 O 0.6685(14) 0.7999(19) 0.8132(6) 0.268(9) Uani 0.604(8) 1 d P . .
O14B O 0.6311(11) 0.7461(14) 0.7974(9) 0.162(9) Uani 0.396(8) 1 d P . .
O21 O 0.9514(2) 0.5034(2) 0.26291(9) 0.0712(8) Uani 1 1 d . . .
O22 O -0.1049(3) 0.8209(3) 0.57811(13) 0.0990(12) Uani 1 1 d . . .
O23 O 0.3082(4) 0.2630(4) 0.36823(17) 0.1406(17) Uani 1 1 d . . .
O24 O 0.7241(7) 0.4201(6) 0.4484(2) 0.181(3) Uani 1 1 d . . .
O25 O 0.1682(14) 1.0049(17) 0.6852(5) 0.211(8) Uani 0.50 1 d P . .
O31 O 0.3728(16) 0.3728(16) 0.5000 0.348(10) Uani 1 2 d SD . .
H49 H 0.381(3) 0.324(4) 0.491(5) 0.418 Uiso 1 1 d D . .
N1 N 0.3838(3) 0.7293(3) 0.40413(12) 0.0727(10) Uani 1 1 d . . .
N3 N 0.6928(2) 0.7004(2) 0.37860(11) 0.0620(9) Uani 1 1 d . . .
H1 H 0.7241 0.7610 0.3917 0.074 Uiso 1 1 calc R . .
N5 N 0.6717(2) 1.0609(3) 0.36439(10) 0.0609(8) Uani 1 1 d . . .
H2 H 0.6697 1.0194 0.3448 0.073 Uiso 1 1 calc R . .
N21 N 0.8679(3) 0.4359(4) 0.20378(13) 0.0825(12) Uani 1 1 d . . .
N22 N 0.0646(4) 0.9456(4) 0.56191(15) 0.0987(14) Uani 1 1 d . . .
N23 N 0.4424(4) 0.2420(4) 0.39101(17) 0.1034(16) Uani 1 1 d . . .
N24 N 0.8103(5) 0.5734(5) 0.48468(18) 0.1152(18) Uani 1 1 d D . .
N25 N 0.0246(6) 1.0000 0.6667 0.110(2) Uani 1 2 d S . .
N31 N 0.8942(2) 0.5824(2) 0.34833(10) 0.0556(8) Uani 1 1 d . . .
N51 N 0.8887(3) 1.3817(3) 0.34412(11) 0.0612(9) Uani 1 1 d . . .
C2 C 0.4342(3) 0.6775(3) 0.39319(16) 0.0726(12) Uani 1 1 d . . .
H3 H 0.3940 0.6020 0.3923 0.087 Uiso 1 1 calc R . .
C3 C 0.5422(3) 0.7268(3) 0.38296(14) 0.0654(11) Uani 1 1 d . . .
C4 C 0.5988(3) 0.8356(3) 0.38271(14) 0.0639(10) Uani 1 1 d . . .
H4 H 0.6713 0.8722 0.3747 0.077 Uiso 1 1 calc R . .
C5 C 0.5486(3) 0.8925(3) 0.39435(13) 0.0598(10) Uani 1 1 d . . .
C6 C 0.4429(3) 0.8358(3) 0.40510(14) 0.0671(11) Uani 1 1 d . . .
H5 H 0.4098 0.8745 0.4138 0.080 Uiso 1 1 calc R . .
C11 C 0.9306(6) 0.3887(6) 0.1923(2) 0.121(2) Uani 1 1 d . . .
H15 H 0.9965 0.4208 0.2079 0.146 Uiso 1 1 calc R . .
H16 H 0.9476 0.4012 0.1638 0.146 Uiso 1 1 calc R . .
H17 H 0.8902 0.3120 0.1975 0.146 Uiso 1 1 calc R . .
C12 C 0.7842(5) 0.4228(6) 0.17655(17) 0.109(2) Uani 1 1 d . . .
H18 H 0.7422 0.4509 0.1890 0.131 Uiso 1 1 calc R . .
H19 H 0.7380 0.3471 0.1706 0.131 Uiso 1 1 calc R . .
H20 H 0.8160 0.4616 0.1517 0.131 Uiso 1 1 calc R . .
C13 C 0.1088(8) 0.8798(8) 0.5628(4) 0.177(4) Uani 1 1 d . . .
H22 H 0.1762 0.9152 0.5775 0.212 Uiso 1 1 calc R . .
H23 H 0.1217 0.8650 0.5354 0.212 Uiso 1 1 calc R . .
H24 H 0.0596 0.8129 0.5762 0.212 Uiso 1 1 calc R . .
C14 C 0.1383(6) 1.0568(6) 0.5502(2) 0.121(2) Uani 1 1 d . . .
H25 H 0.1694 1.0581 0.5240 0.145 Uiso 1 1 calc R . .
H26 H 0.1950 1.0905 0.5701 0.145 Uiso 1 1 calc R . .
H27 H 0.0993 1.0957 0.5485 0.145 Uiso 1 1 calc R . .
C15 C 0.5277(6) 0.3428(5) 0.3779(3) 0.123(2) Uani 1 1 d . . .
H29 H 0.4984 0.3839 0.3656 0.147 Uiso 1 1 calc R . .
H30 H 0.5712 0.3314 0.3583 0.147 Uiso 1 1 calc R . .
H31 H 0.5719 0.3819 0.4009 0.147 Uiso 1 1 calc R . .
C16 C 0.4727(7) 0.1683(6) 0.4062(3) 0.142(3) Uani 1 1 d . . .
H32 H 0.4149 0.0954 0.4016 0.171 Uiso 1 1 calc R . .
H33 H 0.4868 0.1800 0.4350 0.171 Uiso 1 1 calc R . .
H34 H 0.5370 0.1793 0.3924 0.171 Uiso 1 1 calc R . .
C17 C 0.9080(9) 0.5796(15) 0.4885(5) 0.253(7) Uani 1 1 d DU . .
H36 H 0.8975 0.5094 0.4953 0.303 Uiso 1 1 calc R . .
H37 H 0.9490 0.6304 0.5096 0.303 Uiso 1 1 calc R . .
H38 H 0.9467 0.6035 0.4631 0.303 Uiso 1 1 calc R . .
C18 C 0.8160(17) 0.6651(11) 0.4974(4) 0.296(10) Uani 1 1 d D . .
H41 H 0.8827 0.7080 0.5120 0.355 Uiso 1 1 calc R . .
H39 H 0.7558 0.6482 0.5152 0.355 Uiso 1 1 calc R . .
H40 H 0.8135 0.7053 0.4743 0.355 Uiso 1 1 calc R . .
C19 C -0.0353(16) 0.8825(19) 0.6708(5) 0.165(8) Uani 0.50 1 d PU . .
H45 H -0.0890 0.8622 0.6919 0.198 Uiso 0.50 1 calc PR . .
H43 H 0.0140 0.8574 0.6779 0.198 Uiso 0.50 1 calc PR . .
H44 H -0.0703 0.8503 0.6454 0.198 Uiso 0.50 1 calc PR . .
C20 C -0.0093(15) 1.0714(11) 0.6518(5) 0.119(5) Uani 0.50 1 d P . .
H48 H -0.0663 1.0670 0.6688 0.143 Uiso 0.50 1 calc PR . .
H46 H -0.0356 1.0515 0.6243 0.143 Uiso 0.50 1 calc PR . .
H47 H 0.0509 1.1444 0.6521 0.143 Uiso 0.50 1 calc PR . .
C21 C 0.8815(4) 0.4887(4) 0.23773(13) 0.0679(11) Uani 1 1 d . . .
H14 H 0.8360 0.5168 0.2432 0.081 Uiso 1 1 calc R . .
C22 C -0.0377(5) 0.9129(6) 0.5672(2) 0.111(2) Uani 1 1 d . . .
H21 H -0.0613 0.9622 0.5624 0.133 Uiso 1 1 calc R . .
C23 C 0.3430(5) 0.2135(6) 0.3856(2) 0.119(2) Uani 1 1 d . . .
H28 H 0.2920 0.1466 0.3963 0.143 Uiso 1 1 calc R . .
C24 C 0.7379(11) 0.4950(12) 0.4627(4) 0.219(6) Uani 1 1 d DU . .
H35 H 0.6797 0.5059 0.4577 0.263 Uiso 1 1 calc R . .
C25 C 0.1404(15) 1.0538(14) 0.6623(11) 0.181(11) Uani 0.50 1 d P . .
H42 H 0.1844 1.1128 0.6457 0.217 Uiso 0.50 1 calc PR . .
C31 C 0.5864(3) 0.6582(3) 0.36994(15) 0.0664(11) Uani 1 1 d . . .
C32 C 0.7981(3) 0.5403(3) 0.33244(11) 0.0572(10) Uani 1 1 d . . .
H6 H 0.7769 0.4839 0.3138 0.069 Uiso 1 1 calc R . .
C33 C 0.7263(3) 0.5742(3) 0.34169(13) 0.0597(10) Uani 1 1 d . . .
H7 H 0.6579 0.5415 0.3296 0.072 Uiso 1 1 calc R . .
C34 C 0.7559(3) 0.6557(3) 0.36851(13) 0.0587(10) Uani 1 1 d . . .
C35 C 0.8564(3) 0.6993(3) 0.38561(13) 0.0621(10) Uani 1 1 d . . .
H8 H 0.8791 0.7550 0.4047 0.075 Uiso 1 1 calc R . .
C36 C 0.9216(3) 0.6623(3) 0.37504(13) 0.0618(10) Uani 1 1 d . . .
H9 H 0.9902 0.6937 0.3869 0.074 Uiso 1 1 calc R . .
C51 C 0.6059(3) 1.0112(3) 0.39666(14) 0.0615(11) Uani 1 1 d . . .
C52 C 0.8676(3) 1.3062(3) 0.31694(14) 0.0662(11) Uani 1 1 d . . .
H10 H 0.9049 1.3266 0.2922 0.079 Uiso 1 1 calc R . .
C53 C 0.7960(4) 1.2024(3) 0.32280(14) 0.0670(11) Uani 1 1 d . . .
H11 H 0.7828 1.1518 0.3024 0.080 Uiso 1 1 calc R . .
C54 C 0.7409(3) 1.1697(3) 0.35936(13) 0.0589(10) Uani 1 1 d . . .
C55 C 0.7611(3) 1.2467(3) 0.38743(14) 0.0618(10) Uani 1 1 d . . .
H12 H 0.7253 1.2287 0.4124 0.074 Uiso 1 1 calc R . .
C56 C 0.8348(3) 1.3511(3) 0.37842(14) 0.0609(10) Uani 1 1 d . . .
H13 H 0.8478 1.4041 0.3978 0.073 Uiso 1 1 calc R . .

loop_
_atom_site_aniso_label
_atom_site_aniso_U_11
_atom_site_aniso_U_22
_atom_site_aniso_U_33
_atom_site_aniso_U_23
_atom_site_aniso_U_13
_atom_site_aniso_U_12
Cu1 0.0482(4) 0.0407(2) 0.0859(4) 0.00319(16) 0.0064(3) 0.02412(18)
Cl1 0.0728(15) 0.0757(15) 0.104(2) 0.0000(14) -0.0055(15) 0.0425(12)
Cl1B 0.087(3) 0.154(6) 0.209(8) -0.083(5) -0.068(4) 0.069(4)
O3 0.0524(15) 0.0507(15) 0.166(3) -0.0190(18) -0.0144(18) 0.0274(13)
O5 0.0830(19) 0.0514(15) 0.095(2) -0.0010(14) 0.0119(16) 0.0339(14)
O11 0.133(3) 0.173(4) 0.186(5) -0.042(3) -0.060(3) 0.111(3)
O12 0.189(6) 0.082(3) 0.296(8) 0.009(4) -0.045(6) 0.063(4)
O13 0.175(8) 0.132(7) 0.344(17) -0.094(9) -0.177(10) 0.073(7)
O13B 0.33(3) 0.38(3) 0.080(8) -0.056(12) -0.071(12) 0.24(2)
O14 0.224(14) 0.37(2) 0.241(15) 0.115(15) 0.118(12) 0.176(15)
O14B 0.063(7) 0.109(10) 0.29(3) 0.058(13) -0.020(10) 0.022(7)
O21 0.0683(16) 0.0661(16) 0.0828(19) -0.0051(14) -0.0069(14) 0.0362(14)
O22 0.088(2) 0.079(2) 0.130(3) 0.011(2) 0.029(2) 0.041(2)
O23 0.129(3) 0.156(3) 0.179(4) 0.084(3) 0.033(3) 0.103(3)
O24 0.218(7) 0.128(5) 0.182(6) -0.006(4) 0.022(5) 0.074(5)
O25 0.172(13) 0.187(15) 0.244(19) -0.027(16) 0.058(12) 0.069(14)
O31 0.311(11) 0.311(11) 0.50(3) -0.051(9) 0.051(9) 0.209(13)
N1 0.0419(16) 0.0459(17) 0.122(3) 0.0017(18) 0.0108(17) 0.0157(14)
N3 0.0463(15) 0.0468(16) 0.097(2) -0.0078(16) -0.0006(16) 0.0264(13)
N5 0.0538(16) 0.0393(15) 0.086(2) -0.0011(15) 0.0032(16) 0.0209(13)
N21 0.073(2) 0.083(3) 0.083(3) -0.012(2) -0.002(2) 0.032(2)
N22 0.090(3) 0.111(3) 0.115(3) 0.039(3) 0.037(2) 0.065(2)
N23 0.069(2) 0.095(3) 0.152(4) 0.048(3) 0.011(3) 0.046(2)
N24 0.112(4) 0.117(4) 0.113(4) 0.004(3) 0.014(3) 0.055(3)
N25 0.087(3) 0.099(5) 0.150(6) 0.023(5) 0.011(2) 0.049(3)
N31 0.0444(15) 0.0405(15) 0.078(2) -0.0016(14) 0.0010(14) 0.0182(12)
N51 0.0538(16) 0.0474(16) 0.085(2) 0.0013(16) 0.0031(16) 0.0273(14)
C2 0.051(2) 0.044(2) 0.119(3) 0.003(2) 0.002(2) 0.0208(18)
C3 0.0475(19) 0.051(2) 0.104(3) 0.001(2) 0.003(2) 0.0296(16)
C4 0.0442(18) 0.053(2) 0.099(3) 0.004(2) 0.0035(19) 0.0273(17)
C5 0.0461(18) 0.0458(19) 0.088(3) 0.0008(18) -0.0012(19) 0.0234(16)
C6 0.056(2) 0.060(2) 0.094(3) 0.008(2) 0.006(2) 0.0358(18)
C11 0.148(5) 0.118(4) 0.126(5) -0.039(4) -0.012(4) 0.086(4)
C12 0.083(3) 0.137(5) 0.086(4) -0.002(4) -0.014(3) 0.039(4)
C13 0.163(6) 0.163(6) 0.258(11) 0.094(7) 0.072(7) 0.123(5)
C14 0.112(5) 0.101(4) 0.143(5) 0.023(4) 0.036(4) 0.049(4)
C15 0.120(5) 0.095(4) 0.144(6) 0.029(4) 0.007(4) 0.046(4)
C16 0.129(5) 0.124(5) 0.188(7) 0.067(5) 0.030(5) 0.075(4)
C17 0.200(10) 0.361(15) 0.213(10) 0.065(10) 0.004(9) 0.153(10)
C18 0.53(3) 0.215(13) 0.160(9) -0.036(9) 0.052(13) 0.201(17)
C19 0.117(11) 0.170(14) 0.108(9) -0.006(9) 0.021(9) -0.003(10)
C20 0.168(13) 0.072(7) 0.121(10) -0.007(7) -0.004(10) 0.063(8)
C21 0.060(2) 0.063(2) 0.072(3) 0.005(2) 0.008(2) 0.025(2)
C22 0.101(4) 0.107(5) 0.140(5) 0.011(4) 0.032(4) 0.062(4)
C23 0.080(3) 0.122(5) 0.159(5) 0.066(4) 0.018(4) 0.053(3)
C24 0.268(13) 0.153(9) 0.186(9) -0.026(8) 0.021(9) 0.067(9)
C25 0.114(11) 0.092(9) 0.36(3) 0.052(14) 0.023(15) 0.072(8)
C31 0.051(2) 0.0453(19) 0.106(3) -0.003(2) -0.002(2) 0.0269(17)
C32 0.0465(19) 0.0451(19) 0.074(2) -0.0061(17) 0.0000(18) 0.0182(16)
C33 0.0483(18) 0.050(2) 0.083(3) -0.0049(17) 0.0008(18) 0.0258(16)
C34 0.0486(19) 0.0419(18) 0.085(3) 0.0040(18) 0.0086(18) 0.0220(16)
C35 0.057(2) 0.0492(19) 0.083(3) -0.0138(18) -0.0046(19) 0.0284(17)
C36 0.0510(19) 0.0483(19) 0.087(3) -0.0029(18) -0.0109(19) 0.0254(16)
C51 0.0446(18) 0.0469(19) 0.095(3) -0.003(2) 0.0014(19) 0.0243(15)
C52 0.067(2) 0.054(2) 0.077(3) -0.0023(19) 0.008(2) 0.0306(19)
C53 0.076(3) 0.0452(19) 0.079(3) -0.0060(18) 0.008(2) 0.0293(19)
C54 0.0484(19) 0.0463(19) 0.085(3) 0.0010(18) 0.0006(19) 0.0259(15)
C55 0.059(2) 0.044(2) 0.076(3) -0.0035(18) 0.0002(19) 0.0214(17)
C56 0.056(2) 0.0424(19) 0.081(3) -0.0048(18) 0.0026(19) 0.0219(17)

_geom_special_details            
;
All esds (except t