####################################################################### 
# 
# This file contains crystal structure data downloaded from the 
# Cambridge Structural Database (CSD) hosted by the Cambridge 
# Crystallographic Data Centre (CCDC).
# 
# Full information about CCDC data access policies and citation 
# guidelines are available at http://www.ccdc.cam.ac.uk/access/V1 
# 
# Audit and citation data items may have been added by the CCDC. 
# Please retain this information to preserve the provenance of 
# this file and to allow appropriate attribution of the data. 
# 
#######################################################################

data_pw0343
_audit_block_doi                 10.5517/ccnb065
_database_code_depnum_ccdc_archive 'CCDC 605436'
loop_
_citation_id
_citation_doi
_citation_year
1 10.1002/anie.200601627 2007
_audit_update_record             
;
2006-04-22 deposited with the CCDC.	2024-07-11 downloaded from the CCDC.
;


_audit_creation_method           SHELXL-97
_chemical_name_systematic        
;
?
;
_chemical_name_common            'dehydrated CUK-1'
_chemical_melting_point          ?
_chemical_formula_moiety         'C14 H8 Co3 N2 O10'
_chemical_formula_sum            'C14 H8 Co3 N2 O10'
_chemical_formula_weight         541.01

loop_
_atom_type_symbol
_atom_type_description
_atom_type_scat_dispersion_real
_atom_type_scat_dispersion_imag
_atom_type_scat_source
C C 0.0033 0.0016 'International Tables Vol C Tables 4.2.6.8 and 6.1.1.4'
H H 0.0000 0.0000 'International Tables Vol C Tables 4.2.6.8 and 6.1.1.4'
N N 0.0061 0.0033 'International Tables Vol C Tables 4.2.6.8 and 6.1.1.4'
O O 0.0106 0.0060 'International Tables Vol C Tables 4.2.6.8 and 6.1.1.4'
Co Co 0.3494 0.9721 'International Tables Vol C Tables 4.2.6.8 and 6.1.1.4'

_symmetry_cell_setting           monoclinic
_symmetry_space_group_name_H-M   C2/c

loop_
_symmetry_equiv_pos_as_xyz
'x, y, z'
'-x, y, -z+1/2'
'x+1/2, y+1/2, z'
'-x+1/2, y+1/2, -z+1/2'
'-x, -y, -z'
'x, -y, z-1/2'
'-x+1/2, -y+1/2, -z'
'x+1/2, -y+1/2, z-1/2'

_cell_length_a                   18.1020(7)
_cell_length_b                   12.7694(5)
_cell_length_c                   10.9701(5)
_cell_angle_alpha                90.00
_cell_angle_beta                 103.4004(16)
_cell_angle_gamma                90.00
_cell_volume                     2466.72(18)
_cell_formula_units_Z            4
_cell_measurement_temperature    375(2)
_cell_measurement_reflns_used    7457
_cell_measurement_theta_min      1.02
_cell_measurement_theta_max      27.48

_exptl_crystal_description       prism
_exptl_crystal_colour            'cherry red'
_exptl_crystal_size_max          0.12
_exptl_crystal_size_mid          0.12
_exptl_crystal_size_min          0.12
_exptl_crystal_density_meas      ?
_exptl_crystal_density_diffrn    1.457
_exptl_crystal_density_method    'not measured'
_exptl_crystal_F_000             1068
_exptl_absorpt_coefficient_mu    2.037
_exptl_absorpt_correction_type   multi-scan
_exptl_absorpt_correction_T_min  0.750
_exptl_absorpt_correction_T_max  0.784
_exptl_absorpt_process_details   
;
multi-scan from symmetry-related measurements
Sortav (Blessing 1995)
;


_exptl_special_details           
;
?
;

_diffrn_ambient_temperature      375(2)
_diffrn_radiation_wavelength     0.71073
_diffrn_radiation_type           MoK\a
_diffrn_radiation_source         'fine-focus sealed tube'
_diffrn_measurement_device_type  'Nonius Kappa CCD'
_diffrn_measurement_method       'Thin slice \w and \f scans'
_diffrn_reflns_number            7431
_diffrn_reflns_av_R_equivalents  0.0357
_diffrn_reflns_av_sigmaI/netI    0.0443
_diffrn_reflns_limit_h_min       -23
_diffrn_reflns_limit_h_max       22
_diffrn_reflns_limit_k_min       -16
_diffrn_reflns_limit_k_max       16
_diffrn_reflns_limit_l_min       -14
_diffrn_reflns_limit_l_max       14
_diffrn_reflns_theta_min         3.72
_diffrn_reflns_theta_max         27.54
_reflns_number_total             2818
_reflns_number_gt                2276
_reflns_threshold_expression     >2sigma(I)

_computing_data_collection       'Collect (Nonius B.V. 1998)'
_computing_cell_refinement       'HKL Scalepack (Otwinowski & Minor 1997)'
_computing_data_reduction        
;
HKL Denzo and Scalepack (Otwinowski & Minor 1997)
;
_computing_structure_solution    'SIR-92 (Altomare et al. 1994)'
_computing_structure_refinement  'SHELXL-97 (Sheldrick 1997)'
_computing_publication_material  'SHELXL-97 (Sheldrick 1997)'


_refine_special_details          
;
Refinement of F^2^ against ALL reflections. The weighted R-factor wR
and
goodness of fit S are based on F^2^, conventional R-factors R are
based
on F, with F set to zero for negative F^2^. The threshold expression
of
F^2^ > 2sigma(F^2^) is used only for calculating R-factors(gt) etc.
and is
not relevant to the choice of reflections for refinement. R-factors
based
on F^2^ are statistically about twice as large as those based on F,
and R-
factors based on ALL data will be even larger.
;

_refine_ls_structure_factor_coef Fsqd
_refine_ls_matrix_type           full
_refine_ls_weighting_scheme      calc
_refine_ls_weighting_details     
'calc w=1/[\s^2^(Fo^2^)+(0.0148P)^2^+4.1964P] where P=(Fo^2^+2Fc^2^)/3'
_atom_sites_solution_primary     direct
_atom_sites_solution_secondary   difmap
_atom_sites_solution_hydrogens   geom
_refine_ls_hydrogen_treatment    mixed
_refine_ls_extinction_method     none
_refine_ls_extinction_coef       ?
_refine_ls_number_reflns         2818
_refine_ls_number_parameters     148
_refine_ls_number_restraints     0
_refine_ls_R_factor_all          0.0471
_refine_ls_R_factor_gt           0.0328
_refine_ls_wR_factor_ref         0.0695
_refine_ls_wR_factor_gt          0.0638
_refine_ls_goodness_of_fit_ref   1.051
_refine_ls_restrained_S_all      1.051
_refine_ls_shift/su_max          0.001
_refine_ls_shift/su_mean         0.000

loop_
_atom_site_label
_atom_site_type_symbol
_atom_site_fract_x
_atom_site_fract_y
_atom_site_fract_z
_atom_site_U_iso_or_equiv
_atom_site_adp_type
_atom_site_occupancy
_atom_site_symmetry_multiplicity
_atom_site_calc_flag
_atom_site_refinement_flags
_atom_site_disorder_assembly
_atom_site_disorder_group
Co1 Co 0.087999(16) 0.53295(2) 0.04450(3) 0.02003(10) Uani 1 1 d . . .
Co2 Co 0.0000 0.59863(3) 0.2500 0.01878(12) Uani 1 2 d S . .
N1 N 0.18470(11) 0.43269(16) 0.11278(18) 0.0250(4) Uani 1 1 d . . .
O1 O 0.07548(9) 0.48081(13) 0.22217(15) 0.0266(4) Uani 1 1 d . . .
O2 O 0.13438(10) 0.40694(14) 0.40230(15) 0.0325(4) Uani 1 1 d . . .
O3 O 0.35188(10) 0.16194(15) 0.36347(17) 0.0382(5) Uani 1 1 d . . .
O4 O 0.41681(10) 0.21131(14) 0.22289(18) 0.0367(5) Uani 1 1 d . . .
O5 O -0.02039(9) 0.58800(14) 0.05280(15) 0.0218(4) Uani 1 1 d . . .
H5A H -0.0331(17) 0.638(2) 0.026(3) 0.034(9) Uiso 1 1 d . . .
C2 C 0.18868(13) 0.39084(18) 0.2264(2) 0.0229(5) Uani 1 1 d . . .
C3 C 0.24497(14) 0.3213(2) 0.2829(2) 0.0274(5) Uani 1 1 d . . .
H3 H 0.2458(14) 0.2943(19) 0.362(3) 0.027(7) Uiso 1 1 d . . .
C4 C 0.30116(14) 0.2954(2) 0.2206(2) 0.0280(5) Uani 1 1 d . . .
C5 C 0.29865(16) 0.3413(2) 0.1058(3) 0.0389(7) Uani 1 1 d . . .
H5 H 0.3366(17) 0.328(2) 0.060(3) 0.050(9) Uiso 1 1 d . . .
C6 C 0.23959(16) 0.4083(2) 0.0545(3) 0.0379(7) Uani 1 1 d . . .
H6 H 0.2363(16) 0.437(2) -0.032(3) 0.039(8) Uiso 1 1 d . . .
C7 C 0.12775(13) 0.42810(18) 0.2904(2) 0.0210(5) Uani 1 1 d . . .
C8 C 0.36227(14) 0.21611(19) 0.2744(2) 0.0274(5) Uani 1 1 d . . .

loop_
_atom_site_aniso_label
_atom_site_aniso_U_11
_atom_site_aniso_U_22
_atom_site_aniso_U_33
_atom_site_aniso_U_23
_atom_site_aniso_U_13
_atom_site_aniso_U_12
Co1 0.01602(16) 0.02749(18) 0.01755(17) 0.00016(12) 0.00586(12) -0.00081(13)
Co2 0.0149(2) 0.0229(2) 0.0199(2) 0.000 0.00685(17) 0.000
N1 0.0231(10) 0.0330(11) 0.0210(10) 0.0046(8) 0.0092(8) 0.0087(9)
O1 0.0217(8) 0.0395(10) 0.0210(9) 0.0067(7) 0.0097(7) 0.0123(8)
O2 0.0367(10) 0.0440(11) 0.0203(9) 0.0052(8) 0.0136(8) 0.0173(9)
O3 0.0369(10) 0.0482(11) 0.0345(11) 0.0182(9) 0.0182(9) 0.0228(9)
O4 0.0309(10) 0.0417(11) 0.0440(11) 0.0149(9) 0.0220(9) 0.0158(9)
O5 0.0215(9) 0.0225(9) 0.0213(9) 0.0027(7) 0.0046(7) 0.0026(8)
C2 0.0219(12) 0.0307(13) 0.0174(11) 0.0024(9) 0.0072(9) 0.0043(10)
C3 0.0295(13) 0.0341(14) 0.0212(13) 0.0073(10) 0.0114(11) 0.0100(11)
C4 0.0259(12) 0.0333(14) 0.0275(13) 0.0032(11) 0.0115(11) 0.0101(11)
C5 0.0349(15) 0.0521(18) 0.0365(16) 0.0151(13) 0.0223(13) 0.0199(14)
C6 0.0367(15) 0.0545(18) 0.0273(14) 0.0140(13) 0.0172(12) 0.0220(14)
C7 0.0186(11) 0.0239(12) 0.0210(12) -0.0011(9) 0.0058(9) 0.0023(10)
C8 0.0263(13) 0.0319(13) 0.0249(13) 0.0023(10) 0.0078(10) 0.0088(11)

_geom_special_details            
;
All esds (except the esd in the dihedral angle between two l.s.
planes)
are estimated using the full covariance matrix. The cell esds are
taken
into account individually in the estimation of esds in distances,
angles
and torsion angles; correlations between esds in cell parameters are
only
used when they are defined by crystal symmetry. An approximate
(isotropic)
treatment of cell esds is used for estimating esds involving l.s.
planes.
;

loop_
_geom_bond_atom_site_label_1
_geom_bond_atom_site_label_2
_geom_bond_distance
_geom_bond_site_symmetry_2
_geom_bond_publ_flag
Co1 O2 2.0820(16) 6_565 ?
Co1 O3 2.0994(17) 4 ?
Co1 O5 2.1017(17) 5_565 ?
Co1 O5 2.1060(17) . ?
Co1 O1 2.1208(16) . ?
Co1 N1 2.1579(19) . ?
Co2 O4 2.0540(17) 4 ?
Co2 O4 2.0540(17) 3_455 ?
Co2 O1 2.1016(16) 2 ?
Co2 O1 2.1016(16) . ?
Co2 O5 2.1129(16) . ?
Co2 O5 2.1129(16) 2 ?
N1 C6 1.337(3) . ?
N1 C2 1.343(3) . ?
O1 C7 1.257(3) . ?
O2 C7 1.236(3) . ?
O2 Co1 2.0820(16) 6_566 ?
O3 C8 1.247(3) . ?
O3 Co1 2.0994(17) 4_545 ?
O4 C8 1.248(3) . ?
O4 Co2 2.0540(17) 3_545 ?
O5 Co1 2.1017(17) 5_565 ?
C2 C3 1.385(3) . ?
C2 C7 1.515(3) . ?
C3 C4 1.390(3) . ?
C4 C5 1.380(4) . ?
C4 C8 1.515(3) . ?
C5 C6 1.383(4) . ?

loop_
_geom_angle_atom_site_label_1
_geom_angle_atom_site_label_2
_geom_angle_atom_site_label_3
_geom_angle
_geom_angle_site_symmetry_1
_geom_angle_site_symmetry_3
_geom_angle_publ_flag
O2 Co1 O3 79.45(7) 6_565 4 ?
O2 Co1 O5 100.30(7) 6_565 5_565 ?
O3 Co1 O5 175.38(8) 4 5_565 ?
O2 Co1 O5 116.80(7) 6_565 . ?
O3 Co1 O5 95.83(7) 4 . ?
O5 Co1 O5 80.13(7) 5_565 . ?
O2 Co1 O1 162.14(7) 6_565 . ?
O3 Co1 O1 87.61(7) 4 . ?
O5 Co1 O1 93.58(7) 5_565 . ?
O5 Co1 O1 76.47(6) . . ?
O2 Co1 N1 92.48(7) 6_565 . ?
O3 Co1 N1 90.58(8) 4 . ?
O5 Co1 N1 94.03(7) 5_565 . ?
O5 Co1 N1 150.69(7) . . ?
O1 Co1 N1 75.26(7) . . ?
O4 Co2 O4 91.06(11) 4 3_455 ?
O4 Co2 O1 163.73(7) 4 2 ?
O4 Co2 O1 92.47(7) 3_455 2 ?
O4 Co2 O1 92.47(7) 4 . ?
O4 Co2 O1 163.73(7) 3_455 . ?
O1 Co2 O1 88.57(9) 2 . ?
O4 Co2 O5 98.14(7) 4 . ?
O4 Co2 O5 87.05(7) 3_455 . ?
O1 Co2 O5 97.91(6) 2 . ?
O1 Co2 O5 76.73(6) . . ?
O4 Co2 O5 87.05(7) 4 2 ?
O4 Co2 O5 98.14(7) 3_455 2 ?
O1 Co2 O5 76.73(6) 2 2 ?
O1 Co2 O5 97.91(6) . 2 ?
O5 Co2 O5 172.64(10) . 2 ?
C6 N1 C2 117.7(2) . . ?
C6 N1 Co1 127.25(17) . . ?
C2 N1 Co1 115.02(15) . . ?
C7 O1 Co2 136.21(15) . . ?
C7 O1 Co1 119.28(14) . . ?
Co2 O1 Co1 96.91(6) . . ?
C7 O2 Co1 134.49(15) . 6_566 ?
C8 O3 Co1 131.05(16) . 4_545 ?
C8 O4 Co2 126.83(16) . 3_545 ?
Co1 O5 Co1 99.87(7) 5_565 . ?
Co1 O5 Co2 120.68(8) 5_565 . ?
Co1 O5 Co2 97.02(7) . . ?
N1 C2 C3 123.1(2) . . ?
N1 C2 C7 114.64(19) . . ?
C3 C2 C7 122.2(2) . . ?
C2 C3 C4 118.6(2) . . ?
C5 C4 C3 118.3(2) . . ?
C5 C4 C8 120.4(2) . . ?
C3 C4 C8 121.3(2) . . ?
C4 C5 C6 119.5(2) . . ?
N1 C6 C5 122.7(2) . . ?
O2 C7 O1 126.5(2) . . ?
O2 C7 C2 118.6(2) . . ?
O1 C7 C2 114.9(2) . . ?
O3 C8 O4 127.4(2) . . ?
O3 C8 C4 116.6(2) . . ?
O4 C8 C4 116.1(2) . . ?

_diffrn_measured_fraction_theta_max 0.988
_diffrn_reflns_theta_full        27.54
_diffrn_measured_fraction_theta_full 0.988
_refine_diff_density_max         0.402
_refine_diff_density_min         -0.335
_refine_diff_density_rms         0.079
