####################################################################### 
# 
# This file contains crystal structure data downloaded from the 
# Cambridge Structural Database (CSD) hosted by the Cambridge 
# Crystallographic Data Centre (CCDC).
# 
# Full information about CCDC data access policies and citation 
# guidelines are available at http://www.ccdc.cam.ac.uk/access/V1 
# 
# Audit and citation data items may have been added by the CCDC. 
# Please retain this information to preserve the provenance of 
# this file and to allow appropriate attribution of the data. 
# 
#######################################################################

data_111201-Co-pydc-H2O-270K-2
_audit_block_doi                 10.5517/cc10m773
_database_code_depnum_ccdc_archive 'CCDC 942004'
loop_
_citation_id
_citation_doi
_citation_year
1 10.1246/cl.130514 2013
_audit_update_record             
;
2013-05-30 deposited with the CCDC.	2024-07-11 downloaded from the CCDC.
;

#==============================================================================
# CHEMICAL DATA

_chemical_formula_sum            'C14 H26 Co3 N2 O19'
_chemical_formula_moiety         'C14 H26 Co3 N2 O19'
_chemical_formula_weight         703.16
_chemical_melting_point          ?

#==============================================================================
# CRYSTAL DATA
_symmetry_cell_setting           monoclinic
_symmetry_space_group_name_H-M   'C 1 2/c 1'
_symmetry_space_group_name_Hall  '-C 2yc'
_symmetry_Int_Tables_number      15
loop_
_symmetry_equiv_pos_site_id
_symmetry_equiv_pos_as_xyz
1 +X,+Y,+Z
2 -X,+Y,1/2-Z
3 -X,-Y,-Z
4 +X,-Y,1/2+Z
5 1/2+X,1/2+Y,+Z
6 1/2-X,1/2+Y,1/2-Z
7 1/2-X,1/2-Y,-Z
8 1/2+X,1/2-Y,1/2+Z
#------------------------------------------------------------------------------
_cell_length_a                   17.452(4)
_cell_length_b                   13.881(3)
_cell_length_c                   10.825(2)
_cell_angle_alpha                90.0000
_cell_angle_beta                 105.777(3)
_cell_angle_gamma                90.0000
_cell_volume                     2523.6(9)
_cell_formula_units_Z            4
_cell_measurement_reflns_used    4192
_cell_measurement_theta_min      5.10
_cell_measurement_theta_max      27.48
_cell_measurement_temperature    270
#------------------------------------------------------------------------------
_exptl_crystal_description       block
_exptl_crystal_colour            violet
_exptl_crystal_size_max          0.200
_exptl_crystal_size_mid          0.200
_exptl_crystal_size_min          0.200
_exptl_crystal_density_diffrn    1.851
_exptl_crystal_density_meas      ?
_exptl_crystal_density_method    'not measured'
_exptl_crystal_F_000             1428.00
_exptl_absorpt_coefficient_mu    2.040
_exptl_absorpt_correction_type   none

#==============================================================================
# EXPERIMENTAL DATA

_diffrn_ambient_temperature      270
_diffrn_radiation_type           'Mo K\a'
_diffrn_radiation_wavelength     0.71070
_diffrn_measurement_device_type  'Rigaku Saturn724'
_diffrn_measurement_method       \w
_diffrn_detector_area_resol_mean 7.111
_diffrn_reflns_number            19689
_diffrn_reflns_av_R_equivalents  0.0500
_diffrn_reflns_theta_max         27.48
_diffrn_reflns_theta_full        27.48
_diffrn_measured_fraction_theta_max 0.982
_diffrn_measured_fraction_theta_full 0.982
_diffrn_reflns_limit_h_min       -22
_diffrn_reflns_limit_h_max       22
_diffrn_reflns_limit_k_min       -18
_diffrn_reflns_limit_k_max       18
_diffrn_reflns_limit_l_min       -14
_diffrn_reflns_limit_l_max       14
_diffrn_standards_number         0
_diffrn_standards_interval_count .
_diffrn_standards_decay_%        ?

#==============================================================================
# REFINEMENT DATA

_refine_special_details          
;
    Refinement was performed using all reflections. The weighted 
    R-factor (wR) and goodness of fit (S) are based on F^2^.
    R-factor (gt) are based on F. The threshold expression of
    F^2^ > 2.0 sigma(F^2^) is used only for calculating R-factor (gt).
;
_reflns_number_total             2847
_reflns_number_gt                2476
_reflns_threshold_expression     F^2^>2.0\s(F^2^)
_refine_ls_structure_factor_coef Fsqd
_refine_ls_R_factor_gt           0.0367
_refine_ls_wR_factor_ref         0.1064
_refine_ls_number_restraints     1
_refine_ls_hydrogen_treatment    constr
_refine_ls_number_reflns         2847
_refine_ls_number_parameters     195
_refine_ls_goodness_of_fit_ref   1.088
_refine_ls_weighting_scheme      calc
_refine_ls_weighting_details     
'w = 1/[\s^2^(Fo^2^)+(0.0737P)^2^+2.4965P] where P=(Fo^2^+2Fc^2^)/3'
_atom_sites_solution_hydrogens   geom
_atom_sites_solution_primary     direct
_atom_sites_solution_secondary   difmap
_refine_ls_shift/su_max          0.000
_refine_diff_density_max         1.020
_refine_diff_density_min         -0.940
_refine_ls_extinction_method     none
_refine_ls_extinction_coef       ?

loop_
_atom_type_symbol
_atom_type_description
_atom_type_scat_dispersion_real
_atom_type_scat_dispersion_imag
_atom_type_scat_source
C C 0.0033 0.0016
;
International Tables for Crystallography
(1992, Vol. C, Tables 4.2.6.8 and 6.1.1.4)
;
H H 0.0000 0.0000
;
International Tables for Crystallography
(1992, Vol. C, Table 6.1.1.4)
;
Co Co 0.3494 0.9721
;
International Tables for Crystallography
(1992, Vol. C, Tables 4.2.6.8 and 6.1.1.4)
;
N N 0.0061 0.0033
;
International Tables for Crystallography
(1992, Vol. C, Tables 4.2.6.8 and 6.1.1.4)
;
O O 0.0106 0.0060
;
International Tables for Crystallography
(1992, Vol. C, Tables 4.2.6.8 and 6.1.1.4)
;

#==============================================================================
# ATOMIC COORDINATES AND THERMAL PARAMETERS

loop_
_atom_site_label
_atom_site_type_symbol
_atom_site_fract_x
_atom_site_fract_y
_atom_site_fract_z
_atom_site_U_iso_or_equiv
_atom_site_adp_type
_atom_site_occupancy
_atom_site_symmetry_multiplicity
_atom_site_calc_flag
_atom_site_refinement_flags
_atom_site_disorder_assembly
_atom_site_disorder_group
Co1 Co 0.090985(16) 0.03011(2) 0.05012(3) 0.01207(13) Uani 1.0 8 d . . .
Co2 Co 0.0000 0.09516(3) 0.2500 0.01093(14) Uani 1.0 4 d . . .
O1 O 0.41824(10) 0.48799(13) 0.26758(16) 0.0186(4) Uani 1.0 8 d . . .
O2 O 0.36053(12) 0.40866(13) 0.08789(17) 0.0238(4) Uani 1.0 8 d . . .
O3 O 0.15890(11) 0.15095(14) 0.15064(18) 0.0259(4) Uani 1.0 8 d . . .
O4 O 0.08332(11) 0.20463(13) 0.27303(19) 0.0247(4) Uani 1.0 8 d . . .
O5 O -0.02083(9) 0.08266(11) 0.05185(15) 0.0134(4) Uani 1.0 8 d . . .
O6 O 0.4410(3) 0.2377(3) 0.4107(6) 0.1161(19) Uani 1.0 8 d . . .
O7 O 0.3997(4) 0.1969(5) 0.0702(8) 0.161(3) Uani 1.0 8 d . . .
O8 O 0.3271(3) 0.1063(4) 0.2355(11) 0.200(5) Uani 1.0 8 d . . .
O9 O 0.3968(7) 0.0190(7) 0.9360(12) 0.232(9) Uani 0.94(3) 8 d . . .
O10 O 0.4907(5) 0.1021(6) 0.6557(13) 0.181(8) Uani 0.67(2) 8 d . . .
N1 N 0.31137(11) 0.43217(15) 0.38129(18) 0.0158(4) Uani 1.0 8 d . . .
C1 C 0.30744(13) 0.39262(16) 0.2662(3) 0.0144(5) Uani 1.0 8 d . . .
C2 C 0.25347(14) 0.32099(17) 0.2124(3) 0.0177(5) Uani 1.0 8 d . . .
C3 C 0.20063(13) 0.28900(17) 0.2795(3) 0.0169(5) Uani 1.0 8 d . . .
C4 C 0.20247(16) 0.3325(2) 0.3956(3) 0.0246(6) Uani 1.0 8 d . . .
C5 C 0.25921(16) 0.40282(19) 0.4437(3) 0.0237(6) Uani 1.0 8 d . . .
C6 C 0.36668(13) 0.43188(16) 0.2006(2) 0.0131(4) Uani 1.0 8 d . . .
C7 C 0.14211(14) 0.20815(16) 0.2293(3) 0.0163(5) Uani 1.0 8 d . . .
H1 H 0.2546 0.2952 0.1343 0.0176 Uiso 1.0 8 calc R . .
H2 H 0.1696 0.3147 0.4542 0.0397 Uiso 1.0 8 calc R . .
H3 H 0.2611 0.4242 0.5220 0.0370 Uiso 1.0 8 calc R . .
H4 H -0.0348 0.1330 0.0202 0.0983 Uani 1.0 8 calc R . .


loop_
_atom_site_aniso_label
_atom_site_aniso_U_11
_atom_site_aniso_U_22
_atom_site_aniso_U_33
_atom_site_aniso_U_12
_atom_site_aniso_U_13
_atom_site_aniso_U_23
Co1 0.01000(19) 0.01539(19) 0.01175(19) 0.00042(10) 0.00455(13) 0.00068(10)
Co2 0.0087(3) 0.0118(3) 0.0136(3) 0.0000 0.00520(16) 0.0000
O1 0.0178(9) 0.0236(9) 0.0167(8) -0.0116(7) 0.0089(7) -0.0062(7)
O2 0.0297(10) 0.0297(10) 0.0150(9) -0.0152(8) 0.0113(8) -0.0057(7)
O3 0.0248(10) 0.0302(10) 0.0279(10) -0.0143(8) 0.0161(8) -0.0140(8)
O4 0.0200(9) 0.0237(9) 0.0358(11) -0.0114(7) 0.0169(8) -0.0095(8)
O5 0.0116(8) 0.0138(8) 0.0147(8) 0.0018(6) 0.0034(6) 0.0015(6)
O6 0.084(3) 0.077(3) 0.168(5) 0.009(3) 0.002(3) -0.052(3)
O7 0.126(5) 0.162(6) 0.217(8) 0.049(4) 0.085(5) 0.087(5)
O8 0.053(3) 0.072(3) 0.464(14) 0.000(3) 0.049(5) -0.039(5)
O9 0.228(13) 0.172(10) 0.234(14) 0.107(8) -0.041(9) 0.002(7)
O10 0.087(7) 0.076(6) 0.34(2) 0.000(4) -0.007(9) 0.014(6)
N1 0.0140(9) 0.0199(10) 0.0143(9) -0.0050(8) 0.0053(8) -0.0020(8)
C1 0.0119(11) 0.0169(11) 0.0154(11) -0.0024(8) 0.0053(9) 0.0008(8)
C2 0.0181(12) 0.0209(11) 0.0156(11) -0.0055(9) 0.0070(9) -0.0034(9)
C3 0.0141(11) 0.0181(11) 0.0188(11) -0.0063(9) 0.0052(9) -0.0029(9)
C4 0.0250(13) 0.0298(14) 0.0250(13) -0.0133(11) 0.0170(11) -0.0065(11)
C5 0.0259(14) 0.0294(14) 0.0202(12) -0.0131(10) 0.0134(11) -0.0092(10)
C6 0.0128(10) 0.0143(10) 0.0132(10) -0.0030(8) 0.0050(8) 0.0006(8)
C7 0.0157(11) 0.0177(11) 0.0157(11) -0.0061(8) 0.0046(9) -0.0002(8)
H4 0.08(3) 0.13(4) 0.07(3) -0.01(3) 0.002(19) -0.06(3)

#==============================================================================
_computing_data_collection       'CrystalClear (Rigaku/MSC Inc., 2006)'
_computing_cell_refinement       CrystalClear
_computing_data_reduction        CrystalClear
_computing_structure_solution    'SIR92 (Altomare, et al., 1994)'
_computing_structure_refinement  'SHELXL97 (Sheldrick, 2008)'
_computing_publication_material  'CrystalStructure 4.0 (Rigaku, 2010)'
_computing_molecular_graphics    'CrystalStructure 4.0'

#==============================================================================
# MOLECULAR GEOMETRY

_geom_special_details            
;
    ENTER SPECIAL DETAILS OF THE MOLECULAR GEOMETRY
;

loop_
_geom_bond_atom_site_label_1
_geom_bond_atom_site_label_2
_geom_bond_distance
_geom_bond_publ_flag
_geom_bond_site_symmetry_1
_geom_bond_site_symmetry_2
Co1 O1 2.1060(19) yes . 6_545
Co1 O2 2.088(3) yes . 7_555
Co1 O3 2.1682(19) yes . .
Co1 O5 2.0881(17) yes . .
Co1 O5 2.1054(15) yes . 3_555
Co1 N1 2.148(2) yes . 6_545
Co2 O1 2.1054(19) yes . 5_445
Co2 O1 2.1054(19) yes . 6_545
Co2 O4 2.0708(19) yes . .
Co2 O4 2.0708(19) yes . 2_555
Co2 O5 2.0831(17) yes . .
Co2 O5 2.0831(17) yes . 2_555
O1 C6 1.260(3) yes . .
O2 C6 1.238(3) yes . .
O3 C7 1.256(4) yes . .
O4 C7 1.242(4) yes . .
N1 C1 1.347(4) yes . .
N1 C5 1.336(4) yes . .
C1 C2 1.384(3) yes . .
C1 C6 1.506(4) yes . .
C2 C3 1.393(4) yes . .
C3 C4 1.387(4) yes . .
C3 C7 1.515(4) yes . .
C4 C5 1.387(4) yes . .
O5 H4 0.787 no . .
C2 H1 0.923 no . .
C4 H2 0.996 no . .
C5 H3 0.891 no . .

loop_
_geom_angle_atom_site_label_1
_geom_angle_atom_site_label_2
_geom_angle_atom_site_label_3
_geom_angle
_geom_angle_publ_flag
_geom_angle_site_symmetry_1
_geom_angle_site_symmetry_2
_geom_angle_site_symmetry_3
O1 Co1 O2 158.88(7) yes 6_545 . 7_555
O1 Co1 O3 85.13(8) yes 6_545 . .
O1 Co1 O5 77.22(7) yes 6_545 . .
O1 Co1 O5 95.92(7) yes 6_545 . 3_555
O1 Co1 N1 75.88(8) yes 6_545 . 6_545
O2 Co1 O3 76.80(8) yes 7_555 . .
O2 Co1 O5 115.20(7) yes 7_555 . .
O2 Co1 O5 102.62(7) yes 7_555 . 3_555
O2 Co1 N1 93.85(8) yes 7_555 . 6_545
O3 Co1 O5 96.31(7) yes . . .
O3 Co1 O5 177.31(7) yes . . 3_555
O3 Co1 N1 92.41(8) yes . . 6_545
O5 Co1 O5 81.53(7) yes . . 3_555
O5 Co1 N1 150.85(8) yes . . 6_545
O5 Co1 N1 90.24(7) yes 3_555 . 6_545
O1 Co2 O1 90.09(8) yes 5_445 . 6_545
O1 Co2 O4 168.10(8) yes 5_445 . .
O1 Co2 O4 93.35(8) yes 5_445 . 2_555
O1 Co2 O5 95.82(7) yes 5_445 . .
O1 Co2 O5 77.34(7) yes 5_445 . 2_555
O1 Co2 O4 93.35(8) yes 6_545 . .
O1 Co2 O4 168.10(8) yes 6_545 . 2_555
O1 Co2 O5 77.34(7) yes 6_545 . .
O1 Co2 O5 95.82(7) yes 6_545 . 2_555
O4 Co2 O4 85.59(8) yes . . 2_555
O4 Co2 O5 96.05(8) yes . . .
O4 Co2 O5 90.97(7) yes . . 2_555
O4 Co2 O5 90.97(7) yes 2_555 . .
O4 Co2 O5 96.05(8) yes 2_555 . 2_555
O5 Co2 O5 170.44(7) yes . . 2_555
Co1 O1 Co2 96.60(7) yes 6_555 . 5_555
Co1 O1 C6 119.12(17) yes 6_555 . .
Co2 O1 C6 141.27(17) yes 5_555 . .
Co1 O2 C6 130.98(17) yes 7_555 . .
Co1 O3 C7 129.26(18) yes . . .
Co2 O4 C7 127.50(17) yes . . .
Co1 O5 Co1 98.47(7) yes . . 3_555
Co1 O5 Co2 97.84(6) yes . . .
Co1 O5 Co2 121.04(9) yes 3_555 . .
Co1 N1 C1 114.45(17) yes 6_555 . .
Co1 N1 C5 127.13(17) yes 6_555 . .
C1 N1 C5 118.3(2) yes . . .
N1 C1 C2 122.6(3) yes . . .
N1 C1 C6 114.84(19) yes . . .
C2 C1 C6 122.5(3) yes . . .
C1 C2 C3 118.8(3) yes . . .
C2 C3 C4 118.6(3) yes . . .
C2 C3 C7 121.8(3) yes . . .
C4 C3 C7 119.6(3) yes . . .
C3 C4 C5 119.0(3) yes . . .
N1 C5 C4 122.7(3) yes . . .
O1 C6 O2 125.8(3) yes . . .
O1 C6 C1 115.2(2) yes . . .
O2 C6 C1 118.9(2) yes . . .
O3 C7 O4 127.1(3) yes . . .
O3 C7 C3 116.9(3) yes . . .
O4 C7 C3 116.0(3) yes . . .
Co1 O5 H4 119.068 no . . .
Co1 O5 H4 111.404 no 3_555 . .
Co2 O5 H4 108.696 no . . .
C1 C2 H1 118.857 no . . .
C3 C2 H1 122.356 no . . .
C3 C4 H2 126.443 no . . .
C5 C4 H2 114.353 no . . .
N1 C5 H3 121.748 no . . .
C4 C5 H3 115.414 no . . .

loop_
_geom_torsion_atom_site_label_1
_geom_torsion_atom_site_label_2
_geom_torsion_atom_site_label_3
_geom_torsion_atom_site_label_4
_geom_torsion
_geom_torsion_publ_flag
_geom_torsion_site_symmetry_1
_geom_torsion_site_symmetry_2
_geom_torsion_site_symmetry_3
_geom_torsion_site_symmetry_4
O1 Co1 O2 C6 148.18(17) no 6_545 . 7_555 7_555
O2 Co1 O1 Co2 104.0(2) no 7_555 . 6_545 .
O2 Co1 O1 C6 -60.5(3) no 7_555 . 6_545 6_545
O1 Co1 O3 C7 -49.82(16) no 6_545 . . .
O3 Co1 O1 Co2 72.91(8) no . . 6_545 .
O3 Co1 O1 C6 -91.53(13) no . . 6_545 6_545
O1 Co1 O5 Co1 -98.09(8) no 6_545 . . 3_555
O1 Co1 O5 Co2 25.05(7) no 6_545 . . .
O5 Co1 O1 Co2 -24.70(6) no . . 6_545 .
O5 Co1 O1 C6 170.86(14) no . . 6_545 6_545
O1 Co1 O5 Co1 76.10(8) no 6_545 . 3_555 3_555
O1 Co1 O5 Co2 -179.39(9) no 6_545 . 3_555 3_555
O5 Co1 O1 Co2 -104.60(7) no 3_555 . 6_545 .
O5 Co1 O1 C6 90.96(13) no 3_555 . 6_545 6_545
O1 Co1 N1 C1 2.49(11) no 6_545 . 6_545 6_545
O1 Co1 N1 C5 177.73(17) no 6_545 . 6_545 6_545
N1 Co1 O1 Co2 166.64(9) no 6_545 . 6_545 .
N1 Co1 O1 C6 2.20(12) no 6_545 . 6_545 6_545
O2 Co1 O3 C7 141.18(17) no 7_555 . . .
O3 Co1 O2 C6 -179.96(19) no . . 7_555 7_555
O2 Co1 O5 Co1 100.03(8) no 7_555 . . 3_555
O2 Co1 O5 Co2 -136.83(7) no 7_555 . . .
O5 Co1 O2 C6 -89.14(18) no . . 7_555 7_555
O2 Co1 O5 Co1 -114.07(8) no 7_555 . 3_555 3_555
O2 Co1 O5 Co2 -9.56(10) no 7_555 . 3_555 3_555
O5 Co1 O2 C6 -2.65(18) no 3_555 . 7_555 7_555
O2 Co1 N1 C1 163.78(12) no 7_555 . 6_545 6_545
O2 Co1 N1 C5 -20.99(16) no 7_555 . 6_545 6_545
N1 Co1 O2 C6 88.46(17) no 6_545 . 7_555 7_555
O3 Co1 O5 Co1 178.38(7) no . . . 3_555
O3 Co1 O5 Co2 -58.48(8) no . . . .
O5 Co1 O3 C7 26.72(16) no . . . .
O3 Co1 N1 C1 86.86(13) no . . 6_545 6_545
O3 Co1 N1 C5 -97.91(16) no . . 6_545 6_545
N1 Co1 O3 C7 -125.42(16) no 6_545 . . .
O5 Co1 O5 Co1 0.00(7) no . . 3_555 3_555
O5 Co1 O5 Co2 104.51(9) no . . 3_555 3_555
O5 Co1 O5 Co1 0.00(7) no 3_555 . . 3_555
O5 Co1 O5 Co2 123.14(7) no 3_555 . . .
O5 Co1 N1 C1 -20.7(3) no . . 6_545 6_545
O5 Co1 N1 C5 154.55(12) no . . 6_545 6_545
N1 Co1 O5 Co1 -75.05(15) no 6_545 . . 3_555
N1 Co1 O5 Co2 48.09(16) no 6_545 . . .
O5 Co1 N1 C1 -93.55(13) no 3_555 . 6_545 6_545
O5 Co1 N1 C5 81.68(16) no 3_555 . 6_545 6_545
N1 Co1 O5 Co1 151.93(8) no 6_545 . 3_555 3_555
N1 Co1 O5 Co2 -103.56(10) no 6_545 . 3_555 3_555
O1 Co2 O1 Co1 120.69(7) no 5_445 . 6_545 .
O1 Co2 O1 C6 -81.3(2) no 5_445 . 6_545 6_545
O1 Co2 O1 Co1 120.69(7) no 6_545 . 5_445 2_555
O1 Co2 O1 C6 -81.3(2) no 6_545 . 5_445 5_445
O1 Co2 O4 C7 29.04(16) no 5_445 . 2_555 2_555
O4 Co2 O1 Co1 -70.70(8) no 2_555 . 5_445 2_555
O4 Co2 O1 C6 87.3(2) no 2_555 . 5_445 5_445
O1 Co2 O5 Co1 -113.82(7) no 5_445 . . .
O1 Co2 O5 Co1 -8.97(10) no 5_445 . . 3_555
O5 Co2 O1 Co1 -162.02(7) no . . 5_445 2_555
O5 Co2 O1 C6 -4.0(2) no . . 5_445 5_445
O1 Co2 O5 Co1 -25.05(7) no 5_445 . 2_555 2_555
O1 Co2 O5 Co1 79.81(9) no 5_445 . 2_555 4_555
O5 Co2 O1 Co1 24.75(6) no 2_555 . 5_445 2_555
O5 Co2 O1 C6 -177.3(2) no 2_555 . 5_445 5_445
O1 Co2 O4 C7 29.04(16) no 6_545 . . .
O4 Co2 O1 Co1 -70.70(8) no . . 6_545 .
O4 Co2 O1 C6 87.3(2) no . . 6_545 6_545
O1 Co2 O5 Co1 -25.05(7) no 6_545 . . .
O1 Co2 O5 Co1 79.81(9) no 6_545 . . 3_555
O5 Co2 O1 Co1 24.75(6) no . . 6_545 .
O5 Co2 O1 C6 -177.3(2) no . . 6_545 6_545
O1 Co2 O5 Co1 -113.82(7) no 6_545 . 2_555 2_555
O1 Co2 O5 Co1 -8.97(10) no 6_545 . 2_555 4_555
O5 Co2 O1 Co1 -162.02(7) no 2_555 . 6_545 .
O5 Co2 O1 C6 -4.0(2) no 2_555 . 6_545 6_545
O4 Co2 O4 C7 -139.09(16) no . . 2_555 2_555
O4 Co2 O4 C7 -139.09(16) no 2_555 . . .
O4 Co2 O5 Co1 67.04(8) no . . . .
O4 Co2 O5 Co1 171.89(9) no . . . 3_555
O5 Co2 O4 C7 -48.58(15) no . . . .
O4 Co2 O5 Co1 152.71(8) no . . 2_555 2_555
O4 Co2 O5 Co1 -102.44(10) no . . 2_555 4_555
O5 Co2 O4 C7 124.92(15) no 2_555 . . .
O4 Co2 O5 Co1 152.71(8) no 2_555 . . .
O4 Co2 O5 Co1 -102.44(10) no 2_555 . . 3_555
O5 Co2 O4 C7 124.92(15) no . . 2_555 2_555
O4 Co2 O5 Co1 67.04(8) no 2_555 . 2_555 2_555
O4 Co2 O5 Co1 171.89(9) no 2_555 . 2_555 4_555
O5 Co2 O4 C7 -48.58(15) no 2_555 . 2_555 2_555
Co1 O1 C6 O2 172.77(15) no 6_555 . . .
Co1 O1 C6 C1 -6.0(3) no 6_555 . . .
Co2 O1 C6 O2 18.0(4) no 5_555 . . .
Co2 O1 C6 C1 -160.80(16) no 5_555 . . .
Co1 O2 C6 O1 -16.0(4) no 7_555 . . .
Co1 O2 C6 C1 162.79(13) no 7_555 . . .
Co1 O3 C7 O4 4.3(4) no . . . .
Co1 O3 C7 C3 -177.37(11) no . . . .
Co2 O4 C7 O3 8.2(4) no . . . .
Co2 O4 C7 C3 -170.11(11) no . . . .
Co1 N1 C1 C2 173.53(13) no 6_555 . . .
Co1 N1 C1 C6 -6.1(3) no 6_555 . . .
Co1 N1 C5 C4 -173.96(14) no 6_555 . . .
C1 N1 C5 C4 1.1(4) no . . . .
C5 N1 C1 C2 -2.2(3) no . . . .
C5 N1 C1 C6 178.21(18) no . . . .
N1 C1 C2 C3 0.5(4) no . . . .
N1 C1 C6 O1 8.0(3) no . . . .
N1 C1 C6 O2 -170.83(18) no . . . .
C2 C1 C6 O1 -171.59(19) no . . . .
C2 C1 C6 O2 9.5(3) no . . . .
C6 C1 C2 C3 -179.86(17) no . . . .
C1 C2 C3 C4 2.1(3) no . . . .
C1 C2 C3 C7 -177.53(18) no . . . .
C2 C3 C4 C5 -3.1(4) no . . . .
C2 C3 C7 O3 22.6(3) no . . . .
C2 C3 C7 O4 -158.9(2) no . . . .
C4 C3 C7 O3 -157.1(2) no . . . .
C4 C3 C7 O4 21.4(3) no . . . .
C7 C3 C4 C5 176.57(18) no . . . .
C3 C4 C5 N1 1.5(4) no . . . .

loop_
_geom_contact_atom_site_label_1
_geom_contact_atom_site_label_2
_geom_contact_distance
_geom_contact_publ_flag
_geom_contact_site_symmetry_1
_geom_contact_site_symmetry_2
Co1 O1 3.408(2) no . 7_555
Co1 O4 3.447(2) no . .
Co2 O3 3.327(3) no . .
Co2 O3 3.327(3) no . 2_555
Co2 C6 3.187(3) no . 6_545
Co2 C7 2.994(3) no . 2_555
O1 C7 3.236(3) no . 6_555
O2 N1 3.523(3) no . .
O2 C2 2.856(4) no . .
O3 C2 2.853(3) no . .
O3 C4 3.587(4) no . .
O3 C6 3.526(3) no . 6_545
O4 C2 3.594(4) no . .
O4 C4 2.781(4) no . .
O5 C6 3.542(3) no . 5_445
O5 C7 3.441(3) no . .
N1 C3 2.782(3) no . .
C1 C4 2.723(4) no . .
C2 C5 2.726(4) no . .
O1 O1 2.980(3) no . 2_655
O1 O5 3.128(3) no . 8_555
O2 O7 3.036(8) no . .
O2 N1 3.095(3) no . 4_564
O2 C5 3.303(4) no . 4_564
O3 O7 3.145(8) no . 7_555
O3 O8 2.894(5) no . .
O4 O10 3.162(10) no . 7_556
O4 O10 3.210(9) no . 8_454
O5 O1 3.128(3) no . 8_454
O5 O6 2.906(5) no . 8_454
O5 N1 3.014(3) no . 8_454
O6 O5 2.906(5) no . 8_555
O6 O7 2.791(9) no . 2_655
O6 O8 2.971(8) no . .
O6 O10 3.174(13) no . .
O6 N1 3.480(5) no . .
O6 C1 3.244(5) no . .
O6 C2 3.582(5) no . .
O6 C6 3.538(6) no . .
O7 O2 3.036(8) no . .
O7 O3 