####################################################################### 
# 
# This file contains crystal structure data downloaded from the 
# Cambridge Structural Database (CSD) hosted by the Cambridge 
# Crystallographic Data Centre (CCDC).
# 
# Full information about CCDC data access policies and citation 
# guidelines are available at http://www.ccdc.cam.ac.uk/access/V1 
# 
# Audit and citation data items may have been added by the CCDC. 
# Please retain this information to preserve the provenance of 
# this file and to allow appropriate attribution of the data. 
# 
#######################################################################

data_111202-Co-pydc-H2O-150K-1
_audit_block_doi                 10.5517/cc10m762
_database_code_depnum_ccdc_archive 'CCDC 942003'
loop_
_citation_id
_citation_doi
_citation_year
1 10.1246/cl.130514 2013
_audit_update_record             
;
2013-05-30 deposited with the CCDC.	2024-07-11 downloaded from the CCDC.
;

#==============================================================================
# CHEMICAL DATA

_chemical_formula_sum            'C14 H26 Co3 N2 O19'
_chemical_formula_moiety         'C14 H26 Co3 N2 O19'
_chemical_formula_weight         703.16
_chemical_melting_point          ?

#==============================================================================
# CRYSTAL DATA
_symmetry_cell_setting           monoclinic
_symmetry_space_group_name_H-M   'P 1 21/n 1'
_symmetry_space_group_name_Hall  '-P 2yn'
_symmetry_Int_Tables_number      14
loop_
_symmetry_equiv_pos_site_id
_symmetry_equiv_pos_as_xyz
1 +X,+Y,+Z
2 1/2-X,1/2+Y,1/2-Z
3 -X,-Y,-Z
4 1/2+X,1/2-Y,1/2+Z
#------------------------------------------------------------------------------
_cell_length_a                   10.767(3)
_cell_length_b                   14.345(3)
_cell_length_c                   17.049(4)
_cell_angle_alpha                90.0000
_cell_angle_beta                 106.518(6)
_cell_angle_gamma                90.0000
_cell_volume                     2524.6(11)
_cell_formula_units_Z            4
_cell_measurement_reflns_used    9381
_cell_measurement_theta_min      3.46
_cell_measurement_theta_max      27.48
_cell_measurement_temperature    150
#------------------------------------------------------------------------------
_exptl_crystal_description       block
_exptl_crystal_colour            violet
_exptl_crystal_size_max          0.200
_exptl_crystal_size_mid          0.200
_exptl_crystal_size_min          0.200
_exptl_crystal_density_diffrn    1.850
_exptl_crystal_density_meas      ?
_exptl_crystal_density_method    'not measured'
_exptl_crystal_F_000             1428.00
_exptl_absorpt_coefficient_mu    2.039
_exptl_absorpt_correction_type   none

#==============================================================================
# EXPERIMENTAL DATA

_diffrn_ambient_temperature      150
_diffrn_radiation_type           'Mo K\a'
_diffrn_radiation_wavelength     0.71070
_diffrn_measurement_device_type  'Rigaku Mercury70'
_diffrn_measurement_method       \w
_diffrn_detector_area_resol_mean 7.314
_diffrn_reflns_number            53268
_diffrn_reflns_av_R_equivalents  0.0588
_diffrn_reflns_theta_max         27.48
_diffrn_reflns_theta_full        27.49
_diffrn_measured_fraction_theta_max 0.987
_diffrn_measured_fraction_theta_full 0.987
_diffrn_reflns_limit_h_min       -13
_diffrn_reflns_limit_h_max       13
_diffrn_reflns_limit_k_min       -18
_diffrn_reflns_limit_k_max       18
_diffrn_reflns_limit_l_min       -22
_diffrn_reflns_limit_l_max       22
_diffrn_standards_number         0
_diffrn_standards_interval_count .
_diffrn_standards_decay_%        ?

#==============================================================================
# REFINEMENT DATA

_refine_special_details          
;
    Refinement was performed using all reflections. The weighted 
    R-factor (wR) and goodness of fit (S) are based on F^2^.
    R-factor (gt) are based on F. The threshold expression of
    F^2^ > 2.0 sigma(F^2^) is used only for calculating R-factor (gt).
;
_reflns_number_total             5716
_reflns_number_gt                4768
_reflns_threshold_expression     F^2^>2.0\s(F^2^)
_refine_ls_structure_factor_coef Fsqd
_refine_ls_R_factor_gt           0.0436
_refine_ls_wR_factor_ref         0.1315
_refine_ls_number_restraints     0
_refine_ls_hydrogen_treatment    noref
_refine_ls_number_reflns         5716
_refine_ls_number_parameters     343
_refine_ls_goodness_of_fit_ref   1.074
_refine_ls_weighting_scheme      calc
_refine_ls_weighting_details     
'w = 1/[\s^2^(Fo^2^)+(0.0773P)^2^+1.0047P] where P=(Fo^2^+2Fc^2^)/3'
_atom_sites_solution_hydrogens   geom
_atom_sites_solution_primary     direct
_atom_sites_solution_secondary   difmap
_refine_ls_shift/su_max          0.002
_refine_diff_density_max         1.310
_refine_diff_density_min         -0.810
_refine_ls_extinction_method     none
_refine_ls_extinction_coef       ?

loop_
_atom_type_symbol
_atom_type_description
_atom_type_scat_dispersion_real
_atom_type_scat_dispersion_imag
_atom_type_scat_source
C C 0.0033 0.0016
;
International Tables for Crystallography
(1992, Vol. C, Tables 4.2.6.8 and 6.1.1.4)
;
H H 0.0000 0.0000
;
International Tables for Crystallography
(1992, Vol. C, Table 6.1.1.4)
;
Co Co 0.3494 0.9721
;
International Tables for Crystallography
(1992, Vol. C, Tables 4.2.6.8 and 6.1.1.4)
;
N N 0.0061 0.0033
;
International Tables for Crystallography
(1992, Vol. C, Tables 4.2.6.8 and 6.1.1.4)
;
O O 0.0106 0.0060
;
International Tables for Crystallography
(1992, Vol. C, Tables 4.2.6.8 and 6.1.1.4)
;

#==============================================================================
# ATOMIC COORDINATES AND THERMAL PARAMETERS

loop_
_atom_site_label
_atom_site_type_symbol
_atom_site_fract_x
_atom_site_fract_y
_atom_site_fract_z
_atom_site_U_iso_or_equiv
_atom_site_adp_type
_atom_site_occupancy
_atom_site_symmetry_multiplicity
_atom_site_calc_flag
_atom_site_refinement_flags
_atom_site_disorder_assembly
_atom_site_disorder_group
Co1 Co 0.44691(3) 0.473481(19) 0.405502(16) 0.01034(11) Uani 1.0 4 d . . .
Co2 Co 0.25086(2) 0.40868(2) 0.500744(13) 0.01008(11) Uani 1.0 4 d . . .
Co3 Co 0.05183(3) 0.471584(19) 0.592992(16) 0.01055(11) Uani 1.0 4 d . . .
O1 O 0.23413(14) 0.01110(11) 0.08429(9) 0.0150(3) Uani 1.0 4 d . . .
O2 O 0.41524(15) 0.09059(11) 0.14037(10) 0.0180(4) Uani 1.0 4 d . . .
O3 O 0.34754(15) 0.35337(11) 0.33672(10) 0.0170(4) Uani 1.0 4 d . . .
O4 O 0.23413(15) 0.29946(10) 0.41941(9) 0.0162(4) Uani 1.0 4 d . . .
O5 O 0.26453(15) 0.01263(11) 0.91543(9) 0.0147(3) Uani 1.0 4 d . . .
O6 O 0.07877(14) 0.08160(11) 0.84986(10) 0.0167(4) Uani 1.0 4 d . . .
O7 O 0.15616(15) 0.35589(11) 0.66550(10) 0.0163(4) Uani 1.0 4 d . . .
O8 O 0.27904(15) 0.30556(10) 0.58678(9) 0.0174(4) Uani 1.0 4 d . . .
O9 O 0.45299(14) 0.41870(10) 0.52097(9) 0.0116(3) Uani 1.0 4 d . . .
O10 O 0.05211(14) 0.41967(10) 0.47915(9) 0.0120(3) Uani 1.0 4 d . . .
O11 O -0.08029(18) 0.24564(13) 0.44305(12) 0.0347(5) Uani 1.0 4 d . . .
O12 O 0.04940(18) -0.09814(13) 0.43913(11) 0.0368(5) Uani 1.0 4 d . . .
O13 O 0.34470(17) 0.12700(11) 0.49975(11) 0.0310(4) Uani 1.0 4 d . . .
O14 O 0.19039(18) 0.01482(12) 0.57024(11) 0.0350(5) Uani 1.0 4 d . . .
O15 O 0.57888(18) 0.22149(14) 0.56484(11) 0.0303(5) Uani 1.0 4 d . . .
O16 O 0.5916(2) -0.01344(13) 0.61993(12) 0.0403(5) Uani 1.0 4 d . . .
O17 O 0.78911(19) 0.11166(13) 0.66515(10) 0.0325(4) Uani 1.0 4 d . . .
O18 O 0.63739(17) 0.24132(11) 0.42119(10) 0.0309(4) Uani 1.0 4 d . . .
O19 O 0.61752(18) 0.09088(12) 0.32217(10) 0.0313(4) Uani 1.0 4 d . . .
N1 N 0.12389(17) 0.06841(12) 0.19418(11) 0.0129(4) Uani 1.0 4 d . . .
N2 N 0.38146(17) 0.07012(12) 0.80843(11) 0.0129(4) Uani 1.0 4 d . . .
C1 C 0.2365(2) 0.10928(15) 0.19412(12) 0.0133(4) Uani 1.0 4 d . . .
C2 C 0.2894(2) 0.18318(15) 0.24565(13) 0.0138(4) Uani 1.0 4 d . . .
C3 C 0.2247(2) 0.21409(15) 0.30049(13) 0.0142(4) Uani 1.0 4 d . . .
C4 C 0.1120(2) 0.16915(16) 0.30383(13) 0.0166(5) Uani 1.0 4 d . . .
C5 C 0.0638(2) 0.09705(15) 0.24873(13) 0.0162(5) Uani 1.0 4 d . . .
C6 C 0.3020(2) 0.06847(14) 0.13481(13) 0.0124(4) Uani 1.0 4 d . . .
C7 C 0.2736(2) 0.29591(15) 0.35707(13) 0.0139(4) Uani 1.0 4 d . . .
C8 C 0.2636(2) 0.10619(15) 0.80329(12) 0.0131(4) Uani 1.0 4 d . . .
C9 C 0.2104(2) 0.18012(15) 0.75157(13) 0.0135(4) Uani 1.0 4 d . . .
C10 C 0.2820(2) 0.21760(15) 0.70294(13) 0.0144(4) Uani 1.0 4 d . . .
C11 C 0.4017(2) 0.17865(15) 0.70609(13) 0.0159(5) Uani 1.0 4 d . . .
C12 C 0.4480(2) 0.10537(15) 0.76022(13) 0.0149(5) Uani 1.0 4 d . . .
C13 C 0.1959(2) 0.06373(14) 0.86052(12) 0.0116(4) Uani 1.0 4 d . . .
C14 C 0.2339(2) 0.30052(15) 0.64701(13) 0.0142(4) Uani 1.0 4 d . . .
H1 H 0.3670 0.2105 0.2435 0.0174 Uiso 1.0 4 d . . .
H2 H 0.0700 0.1871 0.3428 0.0210 Uiso 1.0 4 d . . .
H3 H -0.0141 0.0681 0.2485 0.0197 Uiso 1.0 4 d . . .
H4 H 0.1300 0.2048 0.7483 0.0170 Uiso 1.0 4 d . . .
H5 H 0.4504 0.2014 0.6727 0.0194 Uiso 1.0 4 d . . .
H6 H 0.5294 0.0802 0.7633 0.0175 Uiso 1.0 4 d . . .
H7 H 0.4848 0.3668 0.5325 0.0184 Uiso 1.0 4 d . . .
H8 H 0.0230 0.3679 0.4687 0.0193 Uiso 1.0 4 d . . .
H9 H -0.1594 0.2487 0.4376 0.0513 Uiso 1.0 4 d . . .
H10 H -0.0533 0.2097 0.4822 0.0526 Uiso 1.0 4 d . . .
H11 H -0.0218 -0.0716 0.4220 0.0552 Uiso 1.0 4 d . . .
H12 H 0.0859 -0.1037 0.4025 0.0554 Uiso 1.0 4 d . . .
H13 H 0.3028 0.1759 0.4885 0.0466 Uiso 1.0 4 d . . .
H14 H 0.2967 0.0939 0.5187 0.0463 Uiso 1.0 4 d . . .
H15 H 0.1549 -0.0197 0.5306 0.0543 Uiso 1.0 4 d . . .
H16 H 0.2415 -0.0156 0.6038 0.0517 Uiso 1.0 4 d . . .
H17 H 0.5138 0.1896 0.5514 0.0455 Uiso 1.0 4 d . . .
H18 H 0.6418 0.1941 0.5942 0.0456 Uiso 1.0 4 d . . .
H19 H 0.5310 -0.0296 0.6362 0.0606 Uiso 1.0 4 d . . .
H20 H 0.5940 -0.0537 0.5854 0.0606 Uiso 1.0 4 d . . .
H21 H 0.7371 0.0697 0.6552 0.0471 Uiso 1.0 4 d . . .
H22 H 0.8117 0.1207 0.7109 0.0458 Uiso 1.0 4 d . . .
H23 H 0.6203 0.2299 0.4645 0.0473 Uiso 1.0 4 d . . .
H24 H 0.5940 0.2864 0.3989 0.0467 Uiso 1.0 4 d . . .
H25 H 0.6183 0.1112 0.2660 0.0500 Uiso 1.0 4 d . . .
H26 H 0.6118 0.1387 0.3470 0.0477 Uiso 1.0 4 d . . .


loop_
_atom_site_aniso_label
_atom_site_aniso_U_11
_atom_site_aniso_U_22
_atom_site_aniso_U_33
_atom_site_aniso_U_12
_atom_site_aniso_U_13
_atom_site_aniso_U_23
Co1 0.00976(18) 0.01253(18) 0.00946(18) 0.00027(9) 0.00389(13) -0.00001(9)
Co2 0.01059(19) 0.01106(19) 0.00952(19) 0.00002(8) 0.00438(14) 0.00014(8)
Co3 0.00972(18) 0.01287(19) 0.00983(18) -0.00023(9) 0.00403(13) -0.00004(9)
O1 0.0124(8) 0.0183(8) 0.0154(8) -0.0033(6) 0.0056(6) -0.0054(6)
O2 0.0127(8) 0.0213(8) 0.0226(8) -0.0030(6) 0.0091(6) -0.0085(6)
O3 0.0189(8) 0.0173(8) 0.0172(8) -0.0061(6) 0.0092(7) -0.0056(6)
O4 0.0222(8) 0.0150(8) 0.0135(7) -0.0018(6) 0.0083(6) -0.0030(6)
O5 0.0123(8) 0.0176(8) 0.0156(8) 0.0030(6) 0.0062(6) 0.0045(6)
O6 0.0122(8) 0.0195(8) 0.0209(8) 0.0020(6) 0.0087(6) 0.0068(6)
O7 0.0167(8) 0.0176(8) 0.0171(8) 0.0060(6) 0.0091(6) 0.0055(6)
O8 0.0211(8) 0.0181(8) 0.0157(8) 0.0039(6) 0.0097(7) 0.0055(6)
O9 0.0121(7) 0.0122(7) 0.0108(7) 0.0019(6) 0.0035(6) 0.0005(6)
O10 0.0126(8) 0.0123(7) 0.0109(7) -0.0012(6) 0.0030(6) -0.0006(6)
O11 0.0296(10) 0.0319(11) 0.0405(11) -0.0045(8) 0.0067(8) 0.0094(9)
O12 0.0359(11) 0.0424(11) 0.0340(10) 0.0063(8) 0.0128(8) 0.0007(8)
O13 0.0349(10) 0.0257(9) 0.0351(10) 0.0035(7) 0.0142(8) 0.0021(7)
O14 0.0346(10) 0.0332(10) 0.0352(10) 0.0021(8) 0.0068(8) 0.0020(8)
O15 0.0265(9) 0.0364(11) 0.0290(10) 0.0005(8) 0.0093(8) 0.0007(8)
O16 0.0442(12) 0.0364(11) 0.0444(12) -0.0037(9) 0.0190(10) -0.0045(9)
O17 0.0424(11) 0.0323(10) 0.0233(9) -0.0043(8) 0.0103(8) -0.0017(7)
O18 0.0414(11) 0.0268(9) 0.0298(9) 0.0023(8) 0.0188(8) 0.0033(7)
O19 0.0428(11) 0.0278(9) 0.0242(9) 0.0014(8) 0.0107(8) -0.0019(7)
N1 0.0118(9) 0.0141(9) 0.0137(9) 0.0005(7) 0.0049(7) -0.0020(7)
N2 0.0135(9) 0.0136(9) 0.0130(9) -0.0006(7) 0.0059(7) 0.0008(7)
C1 0.0123(10) 0.0152(10) 0.0123(10) 0.0006(8) 0.0034(8) -0.0014(8)
C2 0.0129(10) 0.0150(10) 0.0144(10) 0.0003(8) 0.0051(8) 0.0011(8)
C3 0.0154(10) 0.0153(10) 0.0126(10) -0.0004(8) 0.0052(8) -0.0014(8)
C4 0.0182(11) 0.0179(10) 0.0159(10) -0.0005(9) 0.0083(9) -0.0036(8)
C5 0.0144(10) 0.0185(11) 0.0175(11) -0.0025(8) 0.0072(9) -0.0049(8)
C6 0.0122(10) 0.0104(10) 0.0140(10) 0.0015(8) 0.0027(8) 0.0006(8)
C7 0.0127(10) 0.0150(10) 0.0135(10) 0.0002(8) 0.0030(8) -0.0024(8)
C8 0.0131(10) 0.0143(10) 0.0115(10) 0.0001(8) 0.0030(8) 0.0010(8)
C9 0.0141(10) 0.0135(10) 0.0140(10) 0.0010(8) 0.0059(8) 0.0007(8)
C10 0.0154(10) 0.0152(10) 0.0128(10) -0.0001(8) 0.0045(8) 0.0025(8)
C11 0.0186(11) 0.0165(10) 0.0158(10) 0.0005(8) 0.0099(9) 0.0037(8)
C12 0.0123(10) 0.0170(10) 0.0169(10) 0.0023(8) 0.0069(8) 0.0030(8)
C13 0.0125(10) 0.0096(10) 0.0118(10) -0.0006(8) 0.0019(8) -0.0003(7)
C14 0.0120(10) 0.0157(10) 0.0151(10) -0.0004(8) 0.0041(8) 0.0032(8)

#==============================================================================
_computing_data_collection       'CrystalClear (Rigaku/MSC Inc., 2006)'
_computing_cell_refinement       CrystalClear
_computing_data_reduction        CrystalClear
_computing_structure_solution    'SIR92 (Altomare, et al., 1994)'
_computing_structure_refinement  'SHELXL97 (Sheldrick, 2008)'
_computing_publication_material  'CrystalStructure 4.0 (Rigaku, 2010)'
_computing_molecular_graphics    'CrystalStructure 4.0'

#==============================================================================
# MOLECULAR GEOMETRY

_geom_special_details            
;
    ENTER SPECIAL DETAILS OF THE MOLECULAR GEOMETRY
;

loop_
_geom_bond_atom_site_label_1
_geom_bond_atom_site_label_2
_geom_bond_distance
_geom_bond_publ_flag
_geom_bond_site_symmetry_1
_geom_bond_site_symmetry_2
Co1 O1 2.0770(18) yes . 2_555
Co1 O3 2.1852(16) yes . .
Co1 O6 2.0750(19) yes . 4_554
Co1 O9 2.1033(17) yes . .
Co1 O9 2.0873(15) yes . 3_666
Co1 N1 2.1417(18) yes . 2_555
Co2 O1 2.1023(17) yes . 2_555
Co2 O4 2.0659(16) yes . .
Co2 O5 2.1043(17) yes . 2_556
Co2 O8 2.0442(16) yes . .
Co2 O9 2.1093(17) yes . .
Co2 O10 2.0717(17) yes . .
Co3 O2 2.0703(19) yes . 4_455
Co3 O5 2.1067(18) yes . 2_556
Co3 O7 2.1805(16) yes . .
Co3 O10 2.0797(17) yes . .
Co3 O10 2.1014(15) yes . 3_566
Co3 N2 2.1569(18) yes . 2_556
O1 C6 1.263(3) yes . .
O2 C6 1.237(3) yes . .
O3 C7 1.262(3) yes . .
O4 C7 1.253(3) yes . .
O5 C13 1.251(3) yes . .
O6 C13 1.249(3) yes . .
O7 C14 1.258(3) yes . .
O8 C14 1.257(3) yes . .
N1 C1 1.347(3) yes . .
N1 C5 1.339(4) yes . .
N2 C8 1.350(3) yes . .
N2 C12 1.334(4) yes . .
C1 C2 1.391(3) yes . .
C1 C6 1.506(4) yes . .
C2 C3 1.388(4) yes . .
C3 C4 1.389(4) yes . .
C3 C7 1.515(3) yes . .
C4 C5 1.394(3) yes . .
C8 C9 1.394(3) yes . .
C8 C13 1.502(4) yes . .
C9 C10 1.391(4) yes . .
C10 C11 1.391(4) yes . .
C10 C14 1.520(3) yes . .
C11 C12 1.394(3) yes . .
O9 H7 0.8197(15) no . .
O10 H8 0.8061(15) no . .
O11 H9 0.831(2) no . .
O11 H10 0.8279(19) no . .
O12 H11 0.8310(19) no . .
O12 H12 0.831(3) no . .
O13 H13 0.8265(17) no . .
O13 H14 0.832(2) no . .
O14 H15 0.8373(17) no . .
O14 H16 0.8010(17) no . .
O15 H17 0.8133(19) no . .
O15 H18 0.8192(18) no . .
O16 H19 0.812(3) no . .
O16 H20 0.830(2) no . .
O17 H21 0.8066(19) no . .
O17 H22 0.7593(17) no . .
O18 H23 0.8265(19) no . .
O18 H24 0.8246(16) no . .
O19 H25 1.0033(18) no . .
O19 H26 0.8176(18) no . .
C2 H1 0.933(3) no . .
C4 H2 0.940(3) no . .
C5 H3 0.935(3) no . .
C9 H4 0.922(3) no . .
C11 H5 0.936(3) no . .
C12 H6 0.936(3) no . .

loop_
_geom_angle_atom_site_label_1
_geom_angle_atom_site_label_2
_geom_angle_atom_site_label_3
_geom_angle
_geom_angle_publ_flag
_geom_angle_site_symmetry_1
_geom_angle_site_symmetry_2
_geom_angle_site_symmetry_3
O1 Co1 O3 85.52(7) yes 2_555 . .
O1 Co1 O6 156.58(6) yes 2_555 . 4_554
O1 Co1 O9 78.40(6) yes 2_555 . .
O1 Co1 O9 95.38(7) yes 2_555 . 3_666
O1 Co1 N1 76.73(7) yes 2_555 . 2_555
O3 Co1 O6 75.44(7) yes . . 4_554
O3 Co1 O9 95.04(7) yes . . .
O3 Co1 O9 175.53(6) yes . . 3_666
O3 Co1 N1 93.78(7) yes . . 2_555
O6 Co1 O9 116.25(7) yes 4_554 . .
O6 Co1 O9 104.66(7) yes 4_554 . 3_666
O6 Co1 N1 90.85(8) yes 4_554 . 2_555
O9 Co1 O9 80.87(6) yes . . 3_666
O9 Co1 N1 152.82(7) yes . . 2_555
O9 Co1 N1 90.68(7) yes 3_666 . 2_555
O1 Co2 O4 94.37(7) yes 2_555 . .
O1 Co2 O5 90.54(7) yes 2_555 . 2_556
O1 Co2 O8 167.35(7) yes 2_555 . .
O1 Co2 O9 77.71(6) yes 2_555 . .
O1 Co2 O10 95.87(6) yes 2_555 . .
O4 Co2 O5 169.93(7) yes . . 2_556
O4 Co2 O8 84.24(7) yes . . .
O4 Co2 O9 92.89(7) yes . . .
O4 Co2 O10 92.86(6) yes . . .
O5 Co2 O8 92.85(7) yes 2_556 . .
O5 Co2 O9 96.75(6) yes 2_556 . .
O5 Co2 O10 77.87(6) yes 2_556 . .
O8 Co2 O9 89.79(6) yes . . .
O8 Co2 O10 96.76(7) yes . . .
O9 Co2 O10 171.69(6) yes . . .
O2 Co3 O5 158.68(6) yes 4_455 . 2_556
O2 Co3 O7 76.09(7) yes 4_455 . .
O2 Co3 O10 113.55(7) yes 4_455 . .
O2 Co3 O10 103.24(7) yes 4_455 . 3_566
O2 Co3 N2 95.42(8) yes 4_455 . 2_556
O5 Co3 O7 84.79(7) yes 2_556 . .
O5 Co3 O10 77.65(6) yes 2_556 . .
O5 Co3 O10 96.12(7) yes 2_556 . 3_566
O5 Co3 N2 76.05(7) yes 2_556 . 2_556
O7 Co3 O10 96.85(7) yes . . .
O7 Co3 O10 178.37(6) yes . . 3_566
O7 Co3 N2 93.05(7) yes . . 2_556
O10 Co3 O10 82.03(6) yes . . 3_566
O10 Co3 N2 150.85(7) yes . . 2_556
O10 Co3 N2 88.48(7) yes 3_566 . 2_556
Co1 O1 Co2 97.71(7) yes 2_545 . 2_545
Co1 O1 C6 119.15(16) yes 2_545 . .
Co2 O1 C6 141.49(16) yes 2_545 . .
Co3 O2 C6 130.81(15) yes 4_554 . .
Co1 O3 C7 128.22(16) yes . . .
Co2 O4 C7 127.91(14) yes . . .
Co2 O5 Co3 96.02(7) yes 2_546 . 2_546
Co2 O5 C13 141.21(16) yes 2_546 . .
Co3 O5 C13 118.58(16) yes 2_546 . .
Co1 O6 C13 130.50(15) yes 4_455 . .
Co3 O7 C14 127.66(16) yes . . .
Co2 O8 C14 127.95(14) yes . . .
Co1 O9 Co1 99.13(7) yes . . 3_666
Co1 O9 Co2 96.68(6) yes . . .
Co1 O9 Co2 118.77(8) yes 3_666 . .
Co2 O10 Co3 97.87(6) yes . . .
Co2 O10 Co3 120.78(8) yes . . 3_566
Co3 O10 Co3 97.97(7) yes . . 3_566
Co1 N1 C1 113.18(16) yes 2_545 . .
Co1 N1 C5 127.80(15) yes 2_545 . .
C1 N1 C5 118.64(18) yes . . .
Co3 N2 C8 113.60(16) yes 2_546 . .
Co3 N2 C12 127.63(14) yes 2_546 . .
C8 N2 C12 118.30(18) yes . . .
N1 C1 C2 122.6(3) yes . . .
N1 C1 C6 115.15(18) yes . . .
C2 C1 C6 122.3(2) yes . . .
C1 C2 C3 118.3(2) yes . . .
C2 C3 C4 119.4(2) yes . . .
C2 C3 C7 121.8(2) yes . . .
C4 C3 C7 118.8(3) yes . . .
C3 C4 C5 118.6(3) yes . . .
N1 C5 C4 122.3(3) yes . . .
O1 C6 O2 125.