####################################################################### 
# 
# This file contains crystal structure data downloaded from the 
# Cambridge Structural Database (CSD) hosted by the Cambridge 
# Crystallographic Data Centre (CCDC).
# 
# Full information about CCDC data access policies and citation 
# guidelines are available at http://www.ccdc.cam.ac.uk/access/V1 
# 
# Audit and citation data items may have been added by the CCDC. 
# Please retain this information to preserve the provenance of 
# this file and to allow appropriate attribution of the data. 
# 
#######################################################################

data_pw0214
_audit_block_doi                 10.5517/ccnb043
_database_code_depnum_ccdc_archive 'CCDC 605434'
loop_
_citation_id
_citation_doi
_citation_year
1 10.1002/ange.200601627 2006
2 10.1002/anie.200601627 2007
_audit_update_record             
;
2006-04-22 deposited with the CCDC.	2024-07-11 downloaded from the CCDC.
;

_audit_creation_method           SHELXL-97
_chemical_name_systematic        
;
?
;
_chemical_name_common            CUK-1
_chemical_melting_point          ?
_chemical_formula_moiety         'C14 H8 Co3 N2 O10, 9(H2 O)'
_chemical_formula_sum            'C14 H26 Co3 N2 O19'
_chemical_formula_weight         685.01

loop_
_atom_type_symbol
_atom_type_description
_atom_type_scat_dispersion_real
_atom_type_scat_dispersion_imag
_atom_type_scat_source
C C 0.0033 0.0016 'International Tables Vol C Tables 4.2.6.8 and 6.1.1.4'
H H 0.0000 0.0000 'International Tables Vol C Tables 4.2.6.8 and 6.1.1.4'
N N 0.0061 0.0033 'International Tables Vol C Tables 4.2.6.8 and 6.1.1.4'
O O 0.0106 0.0060 'International Tables Vol C Tables 4.2.6.8 and 6.1.1.4'
Co Co 0.3494 0.9721 'International Tables Vol C Tables 4.2.6.8 and 6.1.1.4'

_symmetry_cell_setting           monoclinic
_symmetry_space_group_name_H-M   C2/c

loop_
_symmetry_equiv_pos_as_xyz
'x, y, z'
'-x, y, -z+1/2'
'x+1/2, y+1/2, z'
'-x+1/2, y+1/2, -z+1/2'
'-x, -y, -z'
'x, -y, z-1/2'
'-x+1/2, -y+1/2, -z'
'x+1/2, -y+1/2, z-1/2'

_cell_length_a                   17.0783(5)
_cell_length_b                   14.3338(4)
_cell_length_c                   10.7738(4)
_cell_angle_alpha                90.00
_cell_angle_beta                 106.3970(11)
_cell_angle_gamma                90.00
_cell_volume                     2530.13(14)
_cell_formula_units_Z            4
_cell_measurement_temperature    180(2)
_cell_measurement_reflns_used    5102
_cell_measurement_theta_min      1.00
_cell_measurement_theta_max      27.48

_exptl_crystal_description       prism
_exptl_crystal_colour            'cherry red'
_exptl_crystal_size_max          0.10
_exptl_crystal_size_mid          0.10
_exptl_crystal_size_min          0.07
_exptl_crystal_density_meas      ?
_exptl_crystal_density_diffrn    1.798
_exptl_crystal_density_method    'not measured'
_exptl_crystal_F_000             1356
_exptl_absorpt_coefficient_mu    2.032
_exptl_absorpt_correction_type   multi-scan
_exptl_absorpt_correction_T_min  0.848
_exptl_absorpt_correction_T_max  0.899
_exptl_absorpt_process_details   
;
multi-scan from symmetry-related measurements
Sortav (Blessing 1995)
;


_exptl_special_details           
;
?
;

_diffrn_ambient_temperature      180(2)
_diffrn_radiation_wavelength     0.71073
_diffrn_radiation_type           MoK\a
_diffrn_radiation_source         'fine-focus sealed tube'
_diffrn_measurement_device_type  'Nonius Kappa CCD'
_diffrn_measurement_method       'Thin slice \w and \f scans'
_diffrn_reflns_number            8890
_diffrn_reflns_av_R_equivalents  0.0424
_diffrn_reflns_av_sigmaI/netI    0.0488
_diffrn_reflns_limit_h_min       -22
_diffrn_reflns_limit_h_max       20
_diffrn_reflns_limit_k_min       -17
_diffrn_reflns_limit_k_max       18
_diffrn_reflns_limit_l_min       -10
_diffrn_reflns_limit_l_max       13
_diffrn_reflns_theta_min         3.78
_diffrn_reflns_theta_max         27.48
_reflns_number_total             2889
_reflns_number_gt                2382
_reflns_threshold_expression     >2sigma(I)

_computing_cell_refinement       'HKL Scalepack (Otwinowski & Minor 1997)'
_computing_data_reduction        
;
HKL Denzo and Scalepack (Otwinowski & Minor 1997)
;
_computing_structure_solution    'SIR-92 (Altomare et al. 1994)'
_computing_structure_refinement  'SHELXL-97 (Sheldrick 1997)'
_computing_publication_material  'SHELXL-97 (Sheldrick 1997)'


_refine_special_details          
;
Refinement of F^2^ against ALL reflections. The weighted R-factor wR
and
goodness of fit S are based on F^2^, conventional R-factors R are
based
on F, with F set to zero for negative F^2^. The threshold expression
of
F^2^ > 2sigma(F^2^) is used only for calculating R-factors(gt) etc.
and is
not relevant to the choice of reflections for refinement. R-factors
based
on F^2^ are statistically about twice as large as those based on F,
and R-
factors based on ALL data will be even larger.
;

_refine_ls_structure_factor_coef Fsqd
_refine_ls_matrix_type           full
_refine_ls_weighting_scheme      calc
_refine_ls_weighting_details     
'calc w=1/[\s^2^(Fo^2^)+(0.0383P)^2^+4.7001P] where P=(Fo^2^+2Fc^2^)/3'
_atom_sites_solution_primary     direct
_atom_sites_solution_secondary   difmap
_atom_sites_solution_hydrogens   geom
_refine_ls_hydrogen_treatment    mixed
_refine_ls_extinction_method     none
_refine_ls_extinction_coef       ?
_refine_ls_number_reflns         2889
_refine_ls_number_parameters     217
_refine_ls_number_restraints     0
_refine_ls_R_factor_all          0.0495
_refine_ls_R_factor_gt           0.0355
_refine_ls_wR_factor_ref         0.0877
_refine_ls_wR_factor_gt          0.0814
_refine_ls_goodness_of_fit_ref   1.039
_refine_ls_restrained_S_all      1.039
_refine_ls_shift/su_max          0.001
_refine_ls_shift/su_mean         0.000

loop_
_atom_site_label
_atom_site_type_symbol
_atom_site_fract_x
_atom_site_fract_y
_atom_site_fract_z
_atom_site_U_iso_or_equiv
_atom_site_adp_type
_atom_site_occupancy
_atom_site_symmetry_multiplicity
_atom_site_calc_flag
_atom_site_refinement_flags
_atom_site_disorder_assembly
_atom_site_disorder_group
Co1 Co 0.906407(19) 0.02748(2) 0.94759(3) 0.01128(12) Uani 1 1 d . . .
Co2 Co 1.0000 0.09148(3) 0.7500 0.01059(13) Uani 1 2 d S . .
N1 N 0.80734(13) -0.06929(15) 0.8785(2) 0.0137(4) Uani 1 1 d . . .
O1 O 0.91577(11) -0.01198(13) 0.76527(17) 0.0157(4) Uani 1 1 d . . .
O2 O 0.85461(12) -0.08559(13) 0.58187(18) 0.0217(4) Uani 1 1 d . . .
O3 O 0.66410(11) -0.35413(13) 0.65444(18) 0.0190(4) Uani 1 1 d . . .
O4 O 0.58372(11) -0.30218(13) 0.77230(19) 0.0203(4) Uani 1 1 d . . .
O5 O 1.02076(10) 0.08061(13) 0.94983(17) 0.0119(4) Uani 1 1 d . . .
H5A H 1.034(2) 0.132(2) 0.981(3) 0.027(9) Uiso 1 1 d . . .
O6 O 1.0785(3) 0.2593(3) 0.3646(5) 0.0425(12) Uani 0.50 1 d P . .
O7 O 0.9989(3) 0.3731(3) 0.6561(5) 0.0394(12) Uani 0.50 1 d P . .
O8 O 1.0630(3) 0.4040(4) 0.4514(6) 0.0516(14) Uani 0.50 1 d P . .
O9 O 0.93911(17) 0.2667(2) 0.4194(3) 0.0573(8) Uani 1 1 d . . .
O10 O 1.1185(4) 0.4857(4) 0.5882(6) 0.0538(15) Uani 0.50 1 d P . .
O11 O 1.0697(3) 0.4866(4) 0.6900(5) 0.0438(13) Uani 0.50 1 d P . .
O12 O 1.1778(3) 0.4075(4) 0.3806(6) 0.0406(12) Uani 0.50 1 d P . .
O13 O 1.1659(3) 0.3886(3) 0.2868(6) 0.0376(12) Uani 0.50 1 d P . .
C2 C 0.80432(15) -0.10761(17) 0.7633(2) 0.0127(5) Uani 1 1 d . . .
C3 C 0.75296(16) -0.18118(19) 0.7106(3) 0.0150(5) Uani 1 1 d . . .
H3 H 0.7538(19) -0.206(2) 0.639(3) 0.023 Uiso 1 1 d . . .
C4 C 0.70146(15) -0.21578(18) 0.7788(3) 0.0150(5) Uani 1 1 d . . .
C5 C 0.70177(18) -0.1736(2) 0.8948(3) 0.0220(6) Uani 1 1 d . . .
H5 H 0.668(2) -0.195(2) 0.939(3) 0.033 Uiso 1 1 d . . .
C6 C 0.75601(17) -0.1014(2) 0.9417(3) 0.0212(6) Uani 1 1 d . . .
H6 H 0.756(2) -0.070(2) 1.021(3) 0.032 Uiso 1 1 d . . .
C7 C 0.86272(15) -0.06611(18) 0.6970(2) 0.0131(5) Uani 1 1 d . . .
C8 C 0.64473(16) -0.29764(18) 0.7302(3) 0.0160(5) Uani 1 1 d . . .

loop_
_atom_site_aniso_label
_atom_site_aniso_U_11
_atom_site_aniso_U_22
_atom_site_aniso_U_33
_atom_site_aniso_U_23
_atom_site_aniso_U_13
_atom_site_aniso_U_12
Co1 0.01110(19) 0.0131(2) 0.01021(19) -0.00047(13) 0.00393(13) -0.00001(12)
Co2 0.0104(2) 0.0106(2) 0.0117(2) 0.000 0.00440(18) 0.000
N1 0.0144(10) 0.0146(11) 0.0124(11) -0.0012(8) 0.0046(8) -0.0026(8)
O1 0.0162(9) 0.0207(10) 0.0123(9) -0.0043(7) 0.0073(7) -0.0083(7)
O2 0.0287(11) 0.0263(11) 0.0128(9) -0.0041(8) 0.0104(8) -0.0141(8)
O3 0.0189(9) 0.0203(10) 0.0204(10) -0.0083(8) 0.0098(8) -0.0065(8)
O4 0.0188(9) 0.0198(10) 0.0274(11) -0.0080(8) 0.0147(8) -0.0080(8)
O5 0.0130(9) 0.0109(9) 0.0119(9) -0.0009(7) 0.0036(7) -0.0010(7)
O6 0.041(3) 0.031(3) 0.061(3) 0.005(2) 0.023(2) 0.000(2)
O7 0.041(3) 0.029(3) 0.048(3) 0.002(2) 0.012(2) 0.002(2)
O8 0.048(3) 0.055(3) 0.054(3) -0.011(3) 0.018(3) 0.001(3)
O9 0.0524(17) 0.071(2) 0.0468(17) 0.0076(14) 0.0111(14) -0.0162(15)
O10 0.052(3) 0.050(3) 0.061(4) -0.001(3) 0.019(3) 0.003(3)
O11 0.048(3) 0.042(3) 0.040(3) 0.003(2) 0.010(2) -0.002(2)
O12 0.027(3) 0.035(3) 0.059(4) 0.000(3) 0.011(3) -0.005(2)
O13 0.024(2) 0.034(3) 0.054(3) -0.005(3) 0.009(2) -0.001(2)
C2 0.0126(12) 0.0136(12) 0.0118(12) 0.0009(10) 0.0034(10) -0.0006(10)
C3 0.0176(13) 0.0168(13) 0.0123(13) -0.0034(10) 0.0070(10) -0.0023(10)
C4 0.0129(12) 0.0169(13) 0.0156(13) -0.0002(10) 0.0047(10) -0.0021(10)
C5 0.0258(15) 0.0243(15) 0.0214(15) -0.0060(12) 0.0157(12) -0.0108(12)
C6 0.0229(14) 0.0241(15) 0.0204(15) -0.0075(12) 0.0124(12) -0.0078(12)
C7 0.0143(12) 0.0120(12) 0.0125(13) 0.0018(10) 0.0030(10) 0.0008(10)
C8 0.0173(13) 0.0147(13) 0.0158(13) -0.0009(10) 0.0046(10) -0.0047(10)

_geom_special_details            
;
All esds (except the esd in the dihedral angle between two l.s.
planes)
are estimated using the full covariance matrix. The cell esds are
taken
into account individually in the estimation of esds in distances,
angles
and torsion angles; correlations between esds in cell parameters are
only
used when they are defined by crystal symmetry. An approximate
(isotropic)
treatment of cell esds is used for estimating esds involving l.s.
planes.
;

loop_
_geom_bond_atom_site_label_1
_geom_bond_atom_site_label_2
_geom_bond_distance
_geom_bond_site_symmetry_2
_geom_bond_publ_flag
Co1 O2 2.0717(19) 6_556 ?
Co1 O5 2.0900(18) . ?
Co1 O1 2.0931(18) . ?
Co1 O5 2.0960(17) 5_757 ?
Co1 N1 2.152(2) . ?
Co1 O3 2.1888(18) 4_656 ?
Co2 O4 2.0570(18) 3 ?
Co2 O4 2.0570(18) 4_656 ?
Co2 O5 2.0866(18) 2_756 ?
Co2 O5 2.0866(18) . ?
Co2 O1 2.1045(18) . ?
Co2 O1 2.1045(18) 2_756 ?
N1 C6 1.335(4) . ?
N1 C2 1.345(3) . ?
O1 C7 1.260(3) . ?
O2 C7 1.241(3) . ?
O2 Co1 2.0717(19) 6 ?
O3 C8 1.258(3) . ?
O3 Co1 2.1888(18) 4_646 ?
O4 C8 1.250(3) . ?
O4 Co2 2.0570(18) 3_445 ?
O5 Co1 2.0960(17) 5_757 ?
O5 H5A 0.82(3) . ?
O10 O11 1.553(8) . ?
O12 O13 1.010(7) . ?
C2 C3 1.387(4) . ?
C2 C7 1.503(4) . ?
C3 C4 1.388(4) . ?
C3 H3 0.85(3) . ?
C4 C5 1.386(4) . ?
C4 C8 1.518(3) . ?
C5 C6 1.386(4) . ?
C5 H5 0.89(4) . ?
C6 H6 0.96(4) . ?

loop_
_geom_angle_atom_site_label_1
_geom_angle_atom_site_label_2
_geom_angle_atom_site_label_3
_geom_angle
_geom_angle_site_symmetry_1
_geom_angle_site_symmetry_3
_geom_angle_publ_flag
O2 Co1 O5 115.29(8) 6_556 . ?
O2 Co1 O1 157.64(7) 6_556 . ?
O5 Co1 O1 77.91(7) . . ?
O2 Co1 O5 103.64(7) 6_556 5_757 ?
O5 Co1 O5 81.36(8) . 5_757 ?
O1 Co1 O5 95.97(7) . 5_757 ?
O2 Co1 N1 92.97(8) 6_556 . ?
O5 Co1 N1 151.62(8) . . ?
O1 Co1 N1 76.23(8) . . ?
O5 Co1 N1 89.86(8) 5_757 . ?
O2 Co1 O3 75.89(7) 6_556 4_656 ?
O5 Co1 O3 95.92(7) . 4_656 ?
O1 Co1 O3 85.13(7) . 4_656 ?
O5 Co1 O3 176.76(7) 5_757 4_656 ?
N1 Co1 O3 93.36(8) . 4_656 ?
O4 Co2 O4 84.37(11) 3 4_656 ?
O4 Co2 O5 94.93(7) 3 2_756 ?
O4 Co2 O5 91.42(7) 4_656 2_756 ?
O4 Co2 O5 91.42(7) 3 . ?
O4 Co2 O5 94.93(7) 4_656 . ?
O5 Co2 O5 171.44(10) 2_756 . ?
O4 Co2 O1 168.78(7) 3 . ?
O4 Co2 O1 93.63(7) 4_656 . ?
O5 Co2 O1 96.16(7) 2_756 . ?
O5 Co2 O1 77.74(7) . . ?
O4 Co2 O1 93.63(7) 3 2_756 ?
O4 Co2 O1 168.78(7) 4_656 2_756 ?
O5 Co2 O1 77.74(7) 2_756 2_756 ?
O5 Co2 O1 96.16(7) . 2_756 ?
O1 Co2 O1 90.40(10) . 2_756 ?
C6 N1 C2 118.1(2) . . ?
C6 N1 Co1 127.70(18) . . ?
C2 N1 Co1 113.83(17) . . ?
C7 O1 Co1 118.77(17) . . ?
C7 O1 Co2 141.54(17) . . ?
Co1 O1 Co2 96.77(7) . . ?
C7 O2 Co1 131.20(17) . 6 ?
C8 O3 Co1 128.06(17) . 4_646 ?
C8 O4 Co2 128.27(17) . 3_445 ?
Co2 O5 Co1 97.42(7) . . ?
Co2 O5 Co1 120.13(9) . 5_757 ?
Co1 O5 Co1 98.64(8) . 5_757 ?
Co2 O5 H5A 107(2) . . ?
Co1 O5 H5A 119(2) . . ?
Co1 O5 H5A 113(2) 5_757 . ?
N1 C2 C3 122.9(2) . . ?
N1 C2 C7 114.8(2) . . ?
C3 C2 C7 122.3(2) . . ?
C2 C3 C4 118.5(2) . . ?
C2 C3 H3 121(2) . . ?
C4 C3 H3 121(2) . . ?
C5 C4 C3 118.7(2) . . ?
C5 C4 C8 119.2(2) . . ?
C3 C4 C8 122.1(2) . . ?
C6 C5 C4 119.1(3) . . ?
C6 C5 H5 122(2) . . ?
C4 C5 H5 119(2) . . ?
N1 C6 C5 122.6(3) . . ?
N1 C6 H6 117(2) . . ?
C5 C6 H6 120(2) . . ?
O2 C7 O1 125.5(2) . . ?
O2 C7 C2 119.0(2) . . ?
O1 C7 C2 115.5(2) . . ?
O4 C8 O3 126.9(2) . . ?
O4 C8 C4 115.5(2) . . ?
O3 C8 C4 117.5(2) . . ?

loop_
_geom_torsion_atom_site_label_1
_geom_torsion_atom_site_label_2
_geom_torsion_atom_site_label_3
_geom_torsion_atom_site_label_4
_geom_torsion
_geom_torsion_site_symmetry_1
_geom_torsion_site_symmetry_2
_geom_torsion_site_symmetry_3
_geom_torsion_site_symmetry_4
_geom_torsion_publ_flag
C3 C4 C8 O3 24.8(4) . . . . ?
C5 C4 C8 O4 23.4(4) . . . . ?
C7 O1 Co2 O5 -177.9(3) . . . . ?

_diffrn_measured_fraction_theta_max 0.995
_diffrn_reflns_theta_full        27.48
_diffrn_measured_fraction_theta_full 0.995
_refine_diff_density_max         0.735
_refine_diff_density_min         -0.502
_refine_diff_density_rms         0.120
