####################################################################### 
# 
# This file contains crystal structure data downloaded from the 
# Cambridge Structural Database (CSD) hosted by the Cambridge 
# Crystallographic Data Centre (CCDC).
# 
# Full information about CCDC data access policies and citation 
# guidelines are available at http://www.ccdc.cam.ac.uk/access/V1 
# 
# Audit and citation data items may have been added by the CCDC. 
# Please retain this information to preserve the provenance of 
# this file and to allow appropriate attribution of the data. 
# 
#######################################################################

data_111129-Co-pydc-dry-120K-1
_audit_block_doi                 10.5517/cc10m784
_database_code_depnum_ccdc_archive 'CCDC 942005'
loop_
_citation_id
_citation_doi
_citation_year
1 10.1246/cl.130514 2013
_audit_update_record             
;
2013-05-30 deposited with the CCDC.	2024-07-11 downloaded from the CCDC.
;

#==============================================================================
# CHEMICAL DATA

_chemical_formula_sum            'C14 H8 Co3 N2 O10'
_chemical_formula_moiety         'C14 H8 Co3 N2 O10'
_chemical_formula_weight         541.02
_chemical_melting_point          ?

#==============================================================================
# CRYSTAL DATA
_symmetry_cell_setting           monoclinic
_symmetry_space_group_name_H-M   'C 1 2/c 1'
_symmetry_space_group_name_Hall  '-C 2yc'
_symmetry_Int_Tables_number      15
loop_
_symmetry_equiv_pos_site_id
_symmetry_equiv_pos_as_xyz
1 +X,+Y,+Z
2 -X,+Y,1/2-Z
3 -X,-Y,-Z
4 +X,-Y,1/2+Z
5 1/2+X,1/2+Y,+Z
6 1/2-X,1/2+Y,1/2-Z
7 1/2-X,1/2-Y,-Z
8 1/2+X,1/2-Y,1/2+Z
#------------------------------------------------------------------------------
_cell_length_a                   18.217(13)
_cell_length_b                   12.610(9)
_cell_length_c                   10.976(8)
_cell_angle_alpha                90.0000
_cell_angle_beta                 103.195(10)
_cell_angle_gamma                90.0000
_cell_volume                     2455(3)
_cell_formula_units_Z            4
_cell_measurement_reflns_used    3895
_cell_measurement_theta_min      3.75
_cell_measurement_theta_max      27.48
_cell_measurement_temperature    125
#------------------------------------------------------------------------------
_exptl_crystal_description       block
_exptl_crystal_colour            violet
_exptl_crystal_size_max          0.200
_exptl_crystal_size_mid          0.200
_exptl_crystal_size_min          0.200
_exptl_crystal_density_diffrn    1.464
_exptl_crystal_density_meas      ?
_exptl_crystal_density_method    'not measured'
_exptl_crystal_F_000             1068.00
_exptl_absorpt_coefficient_mu    2.048
_exptl_absorpt_correction_type   multi-scan
_exptl_absorpt_process_details   'REQAB (Rigaku, 1998)'
_exptl_absorpt_correction_T_min  0.579
_exptl_absorpt_correction_T_max  0.664

#==============================================================================
# EXPERIMENTAL DATA

_diffrn_ambient_temperature      125
_diffrn_radiation_type           'Mo K\a'
_diffrn_radiation_wavelength     0.71070
_diffrn_measurement_device_type  'Rigaku Saturn724'
_diffrn_measurement_method       \w
_diffrn_detector_area_resol_mean 7.111
_diffrn_reflns_number            18950
_diffrn_reflns_av_R_equivalents  0.0419
_diffrn_reflns_theta_max         27.50
_diffrn_reflns_theta_full        27.50
_diffrn_measured_fraction_theta_max 0.988
_diffrn_measured_fraction_theta_full 0.988
_diffrn_reflns_limit_h_min       -23
_diffrn_reflns_limit_h_max       23
_diffrn_reflns_limit_k_min       -16
_diffrn_reflns_limit_k_max       16
_diffrn_reflns_limit_l_min       -14
_diffrn_reflns_limit_l_max       14
_diffrn_standards_number         0
_diffrn_standards_interval_count .
_diffrn_standards_decay_%        ?

#==============================================================================
# REFINEMENT DATA

_refine_special_details          
;
    Refinement was performed using all reflections. The weighted 
    R-factor (wR) and goodness of fit (S) are based on F^2^.
    R-factor (gt) are based on F. The threshold expression of
    F^2^ > 2.0 sigma(F^2^) is used only for calculating R-factor (gt).
;
_reflns_number_total             2794
_reflns_number_gt                2456
_reflns_threshold_expression     F^2^>2.0\s(F^2^)
_refine_ls_structure_factor_coef Fsqd
_refine_ls_R_factor_gt           0.0338
_refine_ls_wR_factor_ref         0.0810
_refine_ls_number_restraints     1
_refine_ls_hydrogen_treatment    constr
_refine_ls_number_reflns         2794
_refine_ls_number_parameters     148
_refine_ls_goodness_of_fit_ref   1.175
_refine_ls_weighting_scheme      calc
_refine_ls_weighting_details     
'w = 1/[\s^2^(Fo^2^)+(0.0432P)^2^+0.0000P] where P=(Fo^2^+2Fc^2^)/3'
_atom_sites_solution_hydrogens   geom
_atom_sites_solution_primary     direct
_atom_sites_solution_secondary   difmap
_refine_ls_shift/su_max          0.000
_refine_diff_density_max         1.080
_refine_diff_density_min         -0.590
_refine_ls_extinction_method     none
_refine_ls_extinction_coef       ?

loop_
_atom_type_symbol
_atom_type_description
_atom_type_scat_dispersion_real
_atom_type_scat_dispersion_imag
_atom_type_scat_source
C C 0.0033 0.0016
;
International Tables for Crystallography
(1992, Vol. C, Tables 4.2.6.8 and 6.1.1.4)
;
H H 0.0000 0.0000
;
International Tables for Crystallography
(1992, Vol. C, Table 6.1.1.4)
;
Co Co 0.3494 0.9721
;
International Tables for Crystallography
(1992, Vol. C, Tables 4.2.6.8 and 6.1.1.4)
;
N N 0.0061 0.0033
;
International Tables for Crystallography
(1992, Vol. C, Tables 4.2.6.8 and 6.1.1.4)
;
O O 0.0106 0.0060
;
International Tables for Crystallography
(1992, Vol. C, Tables 4.2.6.8 and 6.1.1.4)
;

#==============================================================================
# ATOMIC COORDINATES AND THERMAL PARAMETERS

loop_
_atom_site_label
_atom_site_type_symbol
_atom_site_fract_x
_atom_site_fract_y
_atom_site_fract_z
_atom_site_U_iso_or_equiv
_atom_site_adp_type
_atom_site_occupancy
_atom_site_symmetry_multiplicity
_atom_site_calc_flag
_atom_site_refinement_flags
_atom_site_disorder_assembly
_atom_site_disorder_group
Co1 Co 0.087485(14) 0.03230(2) 0.04392(2) 0.01135(10) Uani 1.0 8 d . . .
Co2 Co 0.0000 0.09888(3) 0.2500 0.01095(11) Uani 1.0 4 d . . .
O1 O 0.42530(8) 0.47968(11) 0.27886(13) 0.0149(3) Uani 1.0 8 d . . .
O2 O 0.36597(8) 0.40566(11) 0.09799(13) 0.0165(3) Uani 1.0 8 d . . .
O3 O 0.14820(8) 0.16098(12) 0.13713(13) 0.0187(4) Uani 1.0 8 d . . .
O4 O 0.08265(8) 0.21320(11) 0.27794(14) 0.0183(4) Uani 1.0 8 d . . .
O5 O -0.02037(8) 0.08912(11) 0.05309(13) 0.0128(3) Uani 1.0 8 d . . .
N1 N 0.31636(9) 0.43147(14) 0.39006(16) 0.0143(4) Uani 1.0 8 d . . .
C1 C 0.31193(11) 0.38994(16) 0.27483(18) 0.0135(4) Uani 1.0 8 d . . .
C2 C 0.25529(12) 0.32089(16) 0.21838(19) 0.0155(4) Uani 1.0 8 d . . .
C3 C 0.19926(11) 0.29521(16) 0.28099(19) 0.0156(5) Uani 1.0 8 d . . .
C4 C 0.20193(12) 0.34119(17) 0.3972(2) 0.0187(5) Uani 1.0 8 d . . .
C5 C 0.26138(12) 0.40773(17) 0.4487(2) 0.0191(5) Uani 1.0 8 d . . .
C6 C 0.37289(11) 0.42720(15) 0.21051(19) 0.0122(4) Uani 1.0 8 d . . .
C7 C 0.13763(11) 0.21640(16) 0.22662(19) 0.0146(4) Uani 1.0 8 d . . .
H1 H 0.2531 0.2915 0.1392 0.0110 Uiso 1.0 8 calc R . .
H2 H 0.1672 0.3221 0.4456 0.0166 Uiso 1.0 8 calc R . .
H3 H 0.2680 0.4362 0.5313 0.0256 Uiso 1.0 8 calc R . .
H4 H -0.0368 0.1490 0.0302 0.0450 Uiso 1.0 8 calc R . .


loop_
_atom_site_aniso_label
_atom_site_aniso_U_11
_atom_site_aniso_U_22
_atom_site_aniso_U_33
_atom_site_aniso_U_12
_atom_site_aniso_U_13
_atom_site_aniso_U_23
Co1 0.00991(16) 0.01412(16) 0.01062(16) -0.00036(9) 0.00357(11) -0.00002(10)
Co2 0.00939(19) 0.01242(19) 0.0118(2) 0.0000 0.00396(14) 0.0000
O1 0.0134(7) 0.0188(8) 0.0133(7) -0.0049(6) 0.0046(6) -0.0039(6)
O2 0.0172(8) 0.0207(8) 0.0126(7) -0.0068(6) 0.0055(6) -0.0020(6)
O3 0.0184(8) 0.0230(8) 0.0166(8) -0.0085(6) 0.0077(6) -0.0068(7)
O4 0.0145(8) 0.0208(8) 0.0214(8) -0.0063(6) 0.0079(6) -0.0049(7)
O5 0.0124(7) 0.0128(7) 0.0132(7) 0.0008(6) 0.0026(6) 0.0001(6)
N1 0.0136(9) 0.0182(9) 0.0115(9) -0.0021(7) 0.0037(7) -0.0003(7)
C1 0.0128(10) 0.0165(10) 0.0120(10) -0.0005(8) 0.0043(8) 0.0003(8)
C2 0.0179(10) 0.0171(10) 0.0126(10) -0.0026(8) 0.0060(8) -0.0016(8)
C3 0.0152(10) 0.0159(10) 0.0165(11) -0.0038(8) 0.0052(8) -0.0015(8)
C4 0.0177(11) 0.0230(11) 0.0186(11) -0.0078(9) 0.0105(9) -0.0026(9)
C5 0.0211(12) 0.0234(11) 0.0151(11) -0.0059(9) 0.0091(9) -0.0039(9)
C6 0.0115(10) 0.0116(9) 0.0132(10) 0.0006(7) 0.0024(8) 0.0021(8)
C7 0.0135(10) 0.0164(10) 0.0141(10) -0.0036(8) 0.0036(8) 0.0001(8)

#==============================================================================
_computing_data_collection       'CrystalClear (Rigaku/MSC Inc., 2006)'
_computing_cell_refinement       CrystalClear
_computing_data_reduction        CrystalClear
_computing_structure_solution    'SHELXS97 (Sheldrick, 2008)'
_computing_structure_refinement  'SHELXL97 (Sheldrick, 2008)'
_computing_publication_material  'CrystalStructure 4.0 (Rigaku, 2010)'
_computing_molecular_graphics    'CrystalStructure 4.0'

#==============================================================================
# MOLECULAR GEOMETRY

_geom_special_details            
;
    ENTER SPECIAL DETAILS OF THE MOLECULAR GEOMETRY
;

loop_
_geom_bond_atom_site_label_1
_geom_bond_atom_site_label_2
_geom_bond_distance
_geom_bond_publ_flag
_geom_bond_site_symmetry_1
_geom_bond_site_symmetry_2
Co1 O1 2.118(2) yes . 6_545
Co1 O2 2.0880(19) yes . 7_555
Co1 O3 2.0943(17) yes . .
Co1 O5 2.115(2) yes . .
Co1 O5 2.0925(17) yes . 3_555
Co1 N1 2.152(2) yes . 6_545
Co2 O1 2.0995(18) yes . 5_445
Co2 O1 2.0995(18) yes . 6_545
Co2 O4 2.0562(18) yes . .
Co2 O4 2.0562(18) yes . 2_555
Co2 O5 2.111(2) yes . .
Co2 O5 2.111(2) yes . 2_555
O1 C6 1.259(3) yes . .
O2 C6 1.243(3) yes . .
O3 C7 1.256(3) yes . .
O4 C7 1.257(3) yes . .
N1 C1 1.354(3) yes . .
N1 C5 1.342(3) yes . .
C1 C2 1.384(3) yes . .
C1 C6 1.520(4) yes . .
C2 C3 1.393(4) yes . .
C3 C4 1.392(4) yes . .
C3 C7 1.516(3) yes . .
C4 C5 1.384(3) yes . .
O5 H4 0.830 no . .
C2 H1 0.937 no . .
C4 H2 0.945 no . .
C5 H3 0.957 no . .

loop_
_geom_angle_atom_site_label_1
_geom_angle_atom_site_label_2
_geom_angle_atom_site_label_3
_geom_angle
_geom_angle_publ_flag
_geom_angle_site_symmetry_1
_geom_angle_site_symmetry_2
_geom_angle_site_symmetry_3
O1 Co1 O2 162.00(6) yes 6_545 . 7_555
O1 Co1 O3 87.17(7) yes 6_545 . .
O1 Co1 O5 76.37(6) yes 6_545 . .
O1 Co1 O5 93.68(7) yes 6_545 . 3_555
O1 Co1 N1 75.95(7) yes 6_545 . 6_545
O2 Co1 O3 79.34(7) yes 7_555 . .
O2 Co1 O5 116.64(6) yes 7_555 . .
O2 Co1 O5 100.61(7) yes 7_555 . 3_555
O2 Co1 N1 91.99(8) yes 7_555 . 6_545
O3 Co1 O5 96.14(7) yes . . .
O3 Co1 O5 175.99(6) yes . . 3_555
O3 Co1 N1 89.70(8) yes . . 6_545
O5 Co1 O5 80.26(7) yes . . 3_555
O5 Co1 N1 151.36(7) yes . . 6_545
O5 Co1 N1 94.31(8) yes 3_555 . 6_545
O1 Co2 O1 88.56(8) yes 5_445 . 6_545
O1 Co2 O4 163.16(6) yes 5_445 . .
O1 Co2 O4 92.68(8) yes 5_445 . 2_555
O1 Co2 O5 98.29(6) yes 5_445 . .
O1 Co2 O5 76.84(6) yes 5_445 . 2_555
O1 Co2 O4 92.68(8) yes 6_545 . .
O1 Co2 O4 163.16(6) yes 6_545 . 2_555
O1 Co2 O5 76.84(6) yes 6_545 . .
O1 Co2 O5 98.29(6) yes 6_545 . 2_555
O4 Co2 O4 90.98(8) yes . . 2_555
O4 Co2 O5 98.35(6) yes . . .
O4 Co2 O5 86.36(6) yes . . 2_555
O4 Co2 O5 86.36(6) yes 2_555 . .
O4 Co2 O5 98.35(6) yes 2_555 . 2_555
O5 Co2 O5 173.32(6) yes . . 2_555
Co1 O1 Co2 97.19(6) yes 6_555 . 5_555
Co1 O1 C6 118.98(15) yes 6_555 . .
Co2 O1 C6 135.71(14) yes 5_555 . .
Co1 O2 C6 133.88(14) yes 7_555 . .
Co1 O3 C7 130.93(15) yes . . .
Co2 O4 C7 125.94(14) yes . . .
Co1 O5 Co1 99.74(8) yes . . 3_555
Co1 O5 Co2 96.91(6) yes . . .
Co1 O5 Co2 120.62(8) yes 3_555 . .
Co1 N1 C1 114.42(14) yes 6_555 . .
Co1 N1 C5 127.56(15) yes 6_555 . .
C1 N1 C5 118.01(18) yes . . .
N1 C1 C2 122.7(2) yes . . .
N1 C1 C6 114.85(17) yes . . .
C2 C1 C6 122.39(19) yes . . .
C1 C2 C3 118.7(2) yes . . .
C2 C3 C4 118.64(19) yes . . .
C2 C3 C7 121.23(19) yes . . .
C4 C3 C7 120.1(2) yes . . .
C3 C4 C5 119.1(3) yes . . .
N1 C5 C4 122.7(2) yes . . .
O1 C6 O2 126.7(2) yes . . .
O1 C6 C1 114.88(19) yes . . .
O2 C6 C1 118.36(17) yes . . .
O3 C7 O4 127.80(19) yes . . .
O3 C7 C3 116.2(2) yes . . .
O4 C7 C3 116.04(19) yes . . .
Co1 O5 H4 124.667 no . . .
Co1 O5 H4 112.553 no 3_555 . .
Co2 O5 H4 102.907 no . . .
C1 C2 H1 122.242 no . . .
C3 C2 H1 119.005 no . . .
C3 C4 H2 121.348 no . . .
C5 C4 H2 119.174 no . . .
N1 C5 H3 115.160 no . . .
C4 C5 H3 122.056 no . . .

loop_
_geom_torsion_atom_site_label_1
_geom_torsion_atom_site_label_2
_geom_torsion_atom_site_label_3
_geom_torsion_atom_site_label_4
_geom_torsion
_geom_torsion_publ_flag
_geom_torsion_site_symmetry_1
_geom_torsion_site_symmetry_2
_geom_torsion_site_symmetry_3
_geom_torsion_site_symmetry_4
O1 Co1 O3 C7 -39.72(13) no 6_545 . . .
O3 Co1 O1 Co2 70.30(8) no . . 6_545 .
O3 Co1 O1 C6 -83.16(11) no . . 6_545 6_545
O1 Co1 O5 Co1 -96.23(8) no 6_545 . . 3_555
O1 Co1 O5 Co2 26.54(6) no 6_545 . . .
O5 Co1 O1 Co2 -26.72(6) no . . 6_545 .
O5 Co1 O1 C6 179.81(11) no . . 6_545 6_545
O1 Co1 O5 Co1 75.48(7) no 6_545 . 3_555 3_555
O1 Co1 O5 Co2 179.57(8) no 6_545 . 3_555 3_555
O5 Co1 O1 Co2 -105.77(8) no 3_555 . 6_545 .
O5 Co1 O1 C6 100.76(11) no 3_555 . 6_545 6_545
O1 Co1 N1 C1 -1.36(10) no 6_545 . 6_545 6_545
O1 Co1 N1 C5 179.84(14) no 6_545 . 6_545 6_545
N1 Co1 O1 Co2 160.70(7) no 6_545 . 6_545 .
N1 Co1 O1 C6 7.23(10) no 6_545 . 6_545 6_545
O2 Co1 O3 C7 152.25(13) no 7_555 . . .
O3 Co1 O2 C6 -174.97(14) no . . 7_555 7_555
O2 Co1 O5 Co1 97.06(8) no 7_555 . . 3_555
O2 Co1 O5 Co2 -140.16(6) no 7_555 . . .
O5 Co1 O2 C6 -83.40(15) no . . 7_555 7_555
O2 Co1 O5 Co1 -115.51(7) no 7_555 . 3_555 3_555
O2 Co1 O5 Co2 -11.42(9) no 7_555 . 3_555 3_555
O5 Co1 O2 C6 0.95(14) no 3_555 . 7_555 7_555
O2 Co1 N1 C1 165.12(11) no 7_555 . 6_545 6_545
O2 Co1 N1 C5 -13.68(13) no 7_555 . 6_545 6_545
N1 Co1 O2 C6 95.71(14) no 6_545 . 7_555 7_555
O3 Co1 O5 Co1 178.20(6) no . . . 3_555
O3 Co1 O5 Co2 -59.03(7) no . . . .
O5 Co1 O3 C7 36.24(13) no . . . .
O3 Co1 N1 C1 85.80(12) no . . 6_545 6_545
O3 Co1 N1 C5 -93.00(14) no . . 6_545 6_545
N1 Co1 O3 C7 -115.67(14) no 6_545 . . .
O5 Co1 O5 Co1 0.00(6) no . . 3_555 3_555
O5 Co1 O5 Co2 104.09(9) no . . 3_555 3_555
O5 Co1 O5 Co1 0.00(6) no 3_555 . . 3_555
O5 Co1 O5 Co2 122.77(7) no 3_555 . . .
O5 Co1 N1 C1 -16.5(2) no . . 6_545 6_545
O5 Co1 N1 C5 164.66(10) no . . 6_545 6_545
N1 Co1 O5 Co1 -81.08(14) no 6_545 . . 3_555
N1 Co1 O5 Co2 41.70(15) no 6_545 . . .
O5 Co1 N1 C1 -94.08(12) no 3_555 . 6_545 6_545
O5 Co1 N1 C5 87.12(14) no 3_555 . 6_545 6_545
N1 Co1 O5 Co1 151.65(7) no 6_545 . 3_555 3_555
N1 Co1 O5 Co2 -104.26(9) no 6_545 . 3_555 3_555
O1 Co2 O1 Co1 125.57(6) no 5_445 . 6_545 .
O1 Co2 O1 C6 -88.46(15) no 5_445 . 6_545 6_545
O1 Co2 O1 Co1 125.57(6) no 6_545 . 5_445 2_555
O1 Co2 O1 C6 -88.46(15) no 6_545 . 5_445 5_445
O1 Co2 O4 C7 32.48(12) no 5_445 . 2_555 2_555
O4 Co2 O1 Co1 -71.23(7) no 2_555 . 5_445 2_555
O4 Co2 O1 C6 74.74(15) no 2_555 . 5_445 5_445
O1 Co2 O5 Co1 -113.29(8) no 5_445 . . .
O1 Co2 O5 Co1 -7.64(9) no 5_445 . . 3_555
O5 Co2 O1 Co1 -157.95(6) no . . 5_445 2_555
O5 Co2 O1 C6 -11.98(15) no . . 5_445 5_445
O1 Co2 O5 Co1 -26.73(6) no 5_445 . 2_555 2_555
O1 Co2 O5 Co1 78.91(10) no 5_445 . 2_555 4_555
O5 Co2 O1 Co1 26.71(6) no 2_555 . 5_445 2_555
O5 Co2 O1 C6 172.69(16) no 2_555 . 5_445 5_445
O1 Co2 O4 C7 32.48(12) no 6_545 . . .
O4 Co2 O1 Co1 -71.23(7) no . . 6_545 .
O4 Co2 O1 C6 74.74(15) no . . 6_545 6_545
O1 Co2 O5 Co1 -26.73(6) no 6_545 . . .
O1 Co2 O5 Co1 78.91(10) no 6_545 . . 3_555
O5 Co2 O1 Co1 26.71(6) no . . 6_545 .
O5 Co2 O1 C6 172.69(16) no . . 6_545 6_545
O1 Co2 O5 Co1 -113.29(8) no 6_545 . 2_555 2_555
O1 Co2 O5 Co1 -7.64(9) no 6_545 . 2_555 4_555
O5 Co2 O1 Co1 -157.95(6) no 2_555 . 6_545 .
O5 Co2 O1 C6 -11.98(15) no 2_555 . 6_545 6_545
O4 Co2 O4 C7 -131.08(12) no . . 2_555 2_555
O4 Co2 O4 C7 -131.08(12) no 2_555 . . .
O4 Co2 O5 Co1 64.08(8) no . . . .
O4 Co2 O5 Co1 169.72(8) no . . . 3_555
O5 Co2 O4 C7 -44.61(12) no . . . .
O4 Co2 O5 Co1 154.53(7) no . . 2_555 2_555
O4 Co2 O5 Co1 -99.82(10) no . . 2_555 4_555
O5 Co2 O4 C7 130.62(12) no 2_555 . . .
O4 Co2 O5 Co1 154.53(7) no 2_555 . . .
O4 Co2 O5 Co1 -99.82(10) no 2_555 . . 3_555
O5 Co2 O4 C7 130.62(12) no . . 2_555 2_555
O4 Co2 O5 Co1 64.08(8) no 2_555 . 2_555 2_555
O4 Co2 O5 Co1 169.72(8) no 2_555 . 2_555 4_555
O5 Co2 O4 C7 -44.61(12) no 2_555 . 2_555 2_555
Co1 O1 C6 O2 167.40(14) no 6_555 . . .
Co1 O1 C6 C1 -11.1(2) no 6_555 . . .
Co2 O1 C6 O2 26.8(3) no 5_555 . . .
Co2 O1 C6 C1 -151.67(13) no 5_555 . . .
Co1 O2 C6 O1 -18.1(3) no 7_555 . . .
Co1 O2 C6 C1 160.31(11) no 7_555 . . .
Co1 O3 C7 O4 -6.1(3) no . . . .
Co1 O3 C7 C3 172.57(9) no . . . .
Co2 O4 C7 O3 10.6(3) no . . . .
Co2 O4 C7 C3 -168.12(9) no . . . .
Co1 N1 C1 C2 178.09(12) no 6_555 . . .
Co1 N1 C1 C6 -3.4(2) no 6_555 . . .
Co1 N1 C5 C4 -179.78(12) no 6_555 . . .
C1 N1 C5 C4 1.5(3) no . . . .
C5 N1 C1 C2 -3.0(3) no . . . .
C5 N1 C1 C6 175.51(16) no . . . .
N1 C1 C2 C3 1.8(3) no . . . .
N1 C1 C6 O1 9.5(3) no . . . .
N1 C1 C6 O2 -169.12(16) no . . . .
C2 C1 C6 O1 -172.02(17) no . . . .
C2 C1 C6 O2 9.4(3) no . . . .
C6 C1 C2 C3 -176.54(16) no . . . .
C1 C2 C3 C4 0.8(3) no . . . .
C1 C2 C3 C7 -177.32(16) no . . . .
C2 C3 C4 C5 -2.3(3) no . . . .
C2 C3 C7 O3 13.7(3) no . . . .
C2 C3 C7 O4 -167.44(17) no . . . .
C4 C3 C7 O3 -164.46(17) no . . . .
C4 C3 C7 O4 14.4(3) no . . . .
C7 C3 C4 C5 175.92(16) no . . . .
C3 C4 C5 N1 1.1(3) no . . . .

loop_
_geom_contact_atom_site_label_1
_geom_contact_atom_site_label_2
_geom_contact_distance
_geom_contact_publ_flag
_geom_contact_site_symmetry_1
_geom_contact_site_symmetry_2
Co1 O1 3.500(3) no . 7_555
Co1 O4 3.451(3) no . .
Co2 O2 3.581(2) no . 5_445
Co2 O2 3.581(2) no . 6_545
Co2 O3 3.311(3) no . .
Co2 O3 3.311(3) no . 2_555
Co2 C6 3.127(3) no . 6_545
Co2 C7 2.973(3) no . 2_555
O1 C7 3.193(3) no . 6_555
O2 N1 3.539(4) no . .
O2 C2 2.858(3) no . .
O3 C1 3.581(4) no . 6_545
O3 C2 2.806(3) no . .
O3 C6 3.454(3) no . 6_545
O4 C4 2.782(3) no . .
O5 C6 3.531(3) no . 5_445
O5 C7 3.462(3) no . .
N1 C3 2.787(3) no . .
C1 C4 2.725(4) no . .
C2 C5 2.734(4) no . .
O1 O1 2.932(3) no . 2_655
O1 O5 3.071(3) no . 8_555
O2 N1 3.050(3) no . 4_564
O2 C5 3.229(3) no . 4_564
O5 O1 3.071(3) no . 8_454
O5 N1 3.112(3) no . 8_454
N1 O2 3.050(3) no . 4_565
N1 O5 3.112(3) no . 8_555
C4 C4 3.412(4) no . 7_556
C4 C5 3.556(4) no . 7_556
C5 O2 3.229(3) no . 4_565
C5 C4 3.556(4) no . 7_556
Co1 H3 3.1747 no . 6_545
Co2 H4 2.4349 no . 2_555
O1 H4 3.3364 no . 6_555
O2 H1 2.6322 no . .
O3 H1 2.5183 no . .
O3 H4 3.3093 no . .
O4 H2 2.5194 no . .
O4 H4 3.1750 no . .
O4 H4 2.5668 no . 2_555
O5 H4 3.3722 no . 3_555
N1 H1 3.2518 no . .
N1 H2 3.2270 no . .
C1 H3 3.1523 no . .
C2 H2 3.2588 no . .
C3 H3 3.2720 no . .
C4 H1 3.2384 no . .
C6 H1 2.7426 no . .
C7 H1 2.6765 no . .
C7 H2 2.6924 no . .
C7 H4 3.5126 no . .
H1 H1 3.2079 no . 7_555
H2 H3 2.3531 no . .
H2 H4 3.2808 no . 2_555
O1 H4 3.1389 no . 8_555
O2 H3 2.6654 no . 4_564
O4 H3 3.5689 no . 7_556
N1 H4 2.9450 no . 8_555
C1 H3 3.4080 no . 4_564
C1 H4 3.4881 no . 8_555
C3 H3 3.5430 no . 7_556
C4 H2 3.3199 no . 7_556
C4 H3 3.5991 no . 7_556
C5 H2 3.2784 no . 7_556
C6 H3 2.9620 no . 4_564
C7 H3 3.4107 no . 7_556
H2 C4 3.3199 no . 7_556
H2 C5 3.2784 no . 7_556
H2 H2 3.4912 no . 7_556
H2 H3 3.4538 no . 7_556
H3 O2 2.6654 no . 4_565
H3 O4 3.5689 no . 7_556
H3 C1 3.4080 no . 4_565
H3 C3 3.5430 no . 7_556
H3 C4 3.5991 no . 7_556
H3 C6 2.9620 no . 4_565
H3 C7 3.4107 no . 7_556
H3 H2 3.4538 no . 7_556
H4 O1 3.1389 no . 8_454
H4 N1 2.9450 no . 8_454
H4 C1 3.4881 no . 8_454

#==============================================================================

#==============================================================================
# Additional structures and associated data_? identifiers
# should be added at this point if there is more than one 
# structure analysis in the CIF.

#==============================================================================
#     End of CIF
#==============================================================================
