####################################################################### 
# 
# This file contains crystal structure data downloaded from the 
# Cambridge Structural Database (CSD) hosted by the Cambridge 
# Crystallographic Data Centre (CCDC).
# 
# Full information about CCDC data access policies and citation 
# guidelines are available at http://www.ccdc.cam.ac.uk/access/V1 
# 
# Audit and citation data items may have been added by the CCDC. 
# Please retain this information to preserve the provenance of 
# this file and to allow appropriate attribution of the data. 
# 
#######################################################################

data_sqzp
_audit_block_doi                 10.5517/ccydzv4
_database_code_depnum_ccdc_archive 'CCDC 876427'
loop_
_citation_id
_citation_doi
_citation_year
1 10.1016/j.poly.2012.10.038 2013
_audit_update_record             
;
2012-04-16 deposited with the CCDC.	2024-07-11 downloaded from the CCDC.
;
#TrackingRef 'web_deposit_cif_file_1_BiswarupChakraborty_1334589685.complex2.cif'


_audit_creation_method           SHELXL-97
_chemical_name_systematic        
;
?
;
_chemical_name_common            ?
_chemical_melting_point          ?
_chemical_formula_moiety         C22H26AgN4,ClO4
_chemical_formula_sum            'C22 H26 Ag Cl N4 O4'
_chemical_formula_weight         553.79

loop_
_atom_type_symbol
_atom_type_description
_atom_type_scat_dispersion_real
_atom_type_scat_dispersion_imag
_atom_type_scat_source
C C 0.0033 0.0016 'International Tables Vol C Tables 4.2.6.8 and 6.1.1.4'
H H 0.0000 0.0000 'International Tables Vol C Tables 4.2.6.8 and 6.1.1.4'
N N 0.0061 0.0033 'International Tables Vol C Tables 4.2.6.8 and 6.1.1.4'
O O 0.0106 0.0060 'International Tables Vol C Tables 4.2.6.8 and 6.1.1.4'
Cl Cl 0.1484 0.1585 'International Tables Vol C Tables 4.2.6.8 and 6.1.1.4'
Ag Ag -0.8971 1.1015 'International Tables Vol C Tables 4.2.6.8 and 6.1.1.4'

_symmetry_cell_setting           Tetragonal
_symmetry_space_group_name_H-M   'I-42d '

loop_
_symmetry_equiv_pos_as_xyz
'x, y, z'
'-x, -y, z'
'y, -x, -z'
'-y, x, -z'
'-x+1/2, y, -z+3/4'
'x+1/2, -y, -z+3/4'
'-y+1/2, -x, z+3/4'
'y+1/2, x, z+3/4'
'x+1/2, y+1/2, z+1/2'
'-x+1/2, -y+1/2, z+1/2'
'y+1/2, -x+1/2, -z+1/2'
'-y+1/2, x+1/2, -z+1/2'
'-x+1, y+1/2, -z+5/4'
'x+1, -y+1/2, -z+5/4'
'-y+1, -x+1/2, z+5/4'
'y+1, x+1/2, z+5/4'

_cell_length_a                   14.3358(7)
_cell_length_b                   14.3358(7)
_cell_length_c                   27.646(3)
_cell_angle_alpha                90.00
_cell_angle_beta                 90.00
_cell_angle_gamma                90.00
_cell_volume                     5681.6(7)
_cell_formula_units_Z            8
_cell_measurement_temperature    120(2)
_cell_measurement_reflns_used    6949
_cell_measurement_theta_min      2.49
_cell_measurement_theta_max      22.18

_exptl_crystal_description       Block
_exptl_crystal_colour            Yellow
_exptl_crystal_size_max          0.30
_exptl_crystal_size_mid          0.17
_exptl_crystal_size_min          0.17
_exptl_crystal_density_meas      ?
_exptl_crystal_density_diffrn    1.295
_exptl_crystal_density_method    'not measured'
_exptl_crystal_F_000             2256
_exptl_absorpt_coefficient_mu    0.833
_exptl_absorpt_correction_type   Multi-Scan
_exptl_absorpt_correction_T_min  0.7882
_exptl_absorpt_correction_T_max  0.8714
_exptl_absorpt_process_details   Sadbs

_exptl_special_details           
;
?
;

_diffrn_ambient_temperature      120(2)
_diffrn_radiation_wavelength     0.71073
_diffrn_radiation_type           MoK\a
_diffrn_radiation_source         'fine-focus sealed tube'
_diffrn_radiation_monochromator  graphite
_diffrn_measurement_device_type  'CCD area detector'
_diffrn_measurement_method       'phi and omega scans'
_diffrn_detector_area_resol_mean ?
_diffrn_standards_number         ?
_diffrn_standards_interval_count ?
_diffrn_standards_interval_time  ?
_diffrn_standards_decay_%        ?
_diffrn_reflns_number            22242
_diffrn_reflns_av_R_equivalents  0.0614
_diffrn_reflns_av_sigmaI/netI    0.0248
_diffrn_reflns_limit_h_min       -15
_diffrn_reflns_limit_h_max       16
_diffrn_reflns_limit_k_min       -16
_diffrn_reflns_limit_k_max       16
_diffrn_reflns_limit_l_min       -30
_diffrn_reflns_limit_l_max       30
_diffrn_reflns_theta_min         1.60
_diffrn_reflns_theta_max         23.47
_reflns_number_total             2098
_reflns_number_gt                1637
_reflns_threshold_expression     >2sigma(I)

_computing_data_collection       'Bruker SMART'
_computing_cell_refinement       'Bruker SMART'
_computing_data_reduction        'Bruker SAINT'
_computing_structure_solution    'SHELXS-97 (Sheldrick, 1990)'
_computing_structure_refinement  'SHELXL-97 (Sheldrick, 1997)'
_computing_molecular_graphics    'Bruker SHELXTL'
_computing_publication_material  'Mercury 2.3'

_refine_special_details          
;
Refinement of F^2^ against ALL reflections. The weighted R-factor wR and
goodness of fit S are based on F^2^, conventional R-factors R are based
on F, with F set to zero for negative F^2^. The threshold expression of
F^2^ > 2sigma(F^2^) is used only for calculating R-factors(gt) etc. and is
not relevant to the choice of reflections for refinement. R-factors based
on F^2^ are statistically about twice as large as those based on F, and R-
factors based on ALL data will be even larger.
;

loop_
_platon_squeeze_void_nr
_platon_squeeze_void_average_x
_platon_squeeze_void_average_y
_platon_squeeze_void_average_z
_platon_squeeze_void_volume
_platon_squeeze_void_count_electrons
1 -0.050 -0.012 -0.004 1218.0 286.2
_platon_squeeze_details          
;
The unit cell contains nine acetonitrile
molecules which have been treated as a diffuse
contribution to the overall scattering without
specific atom positions by SQUEEZE/PLATON.
;
_refine_ls_structure_factor_coef Fsqd
_refine_ls_matrix_type           full
_refine_ls_weighting_scheme      calc
_refine_ls_weighting_details     
'calc w=1/[\s^2^(Fo^2^)+(0.1213P)^2^+3.3942P] where P=(Fo^2^+2Fc^2^)/3'
_atom_sites_solution_primary     direct
_atom_sites_solution_secondary   difmap
_atom_sites_solution_hydrogens   geom
_refine_ls_hydrogen_treatment    constr
_refine_ls_extinction_method     none
_refine_ls_extinction_coef       ?
_refine_ls_abs_structure_details 'Flack H D (1983), Acta Cryst. A39, 876-881'
_refine_ls_abs_structure_Flack   0.24(10)
_refine_ls_number_reflns         2098
_refine_ls_number_parameters     144
_refine_ls_number_restraints     2
_refine_ls_R_factor_all          0.0685
_refine_ls_R_factor_gt           0.0588
_refine_ls_wR_factor_ref         0.1872
_refine_ls_wR_factor_gt          0.1771
_refine_ls_goodness_of_fit_ref   1.139
_refine_ls_restrained_S_all      1.138
_refine_ls_shift/su_max          0.004
_refine_ls_shift/su_mean         0.000

loop_
_atom_site_label
_atom_site_type_symbol
_atom_site_fract_x
_atom_site_fract_y
_atom_site_fract_z
_atom_site_U_iso_or_equiv
_atom_site_adp_type
_atom_site_occupancy
_atom_site_symmetry_multiplicity
_atom_site_calc_flag
_atom_site_refinement_flags
_atom_site_disorder_assembly
_atom_site_disorder_group
Ag1 Ag 0.5000 0.5000 0.10745(3) 0.0775(4) Uani 1 2 d S . .
C1 C 0.5643(8) 0.3366(5) 0.0312(3) 0.087(3) Uani 1 1 d . . .
H1 H 0.5007 0.3340 0.0246 0.104 Uiso 1 1 calc R . .
C2 C 0.6174(12) 0.2794(6) 0.0058(4) 0.114(4) Uani 1 1 d . . .
H2 H 0.5922 0.2366 -0.0159 0.137 Uiso 1 1 calc R . .
C3 C 0.7150(14) 0.2866(7) 0.0134(5) 0.139(7) Uani 1 1 d . . .
H3 H 0.7573 0.2511 -0.0043 0.166 Uiso 1 1 calc R . .
C4 C 0.7437(9) 0.3486(6) 0.0480(4) 0.104(3) Uani 1 1 d . . .
H4 H 0.8069 0.3528 0.0552 0.125 Uiso 1 1 calc R . .
C5 C 0.6812(7) 0.4052(5) 0.0726(3) 0.077(2) Uani 1 1 d . . .
C6 C 0.2849(6) 0.5229(5) 0.1095(3) 0.086(2) Uani 1 1 d . . .
H6A H 0.2266 0.5442 0.1236 0.104 Uiso 1 1 calc R . .
H6B H 0.2729 0.4643 0.0931 0.104 Uiso 1 1 calc R . .
C7 C 0.3533(8) 0.5918(6) 0.1780(3) 0.092(3) Uani 1 1 d . . .
H7A H 0.3546 0.6461 0.1577 0.138 Uiso 1 1 calc R . .
H7B H 0.4075 0.5914 0.1984 0.138 Uiso 1 1 calc R . .
H7C H 0.2981 0.5930 0.1977 0.138 Uiso 1 1 calc R . .
C8 C 0.3251(9) 0.4250(6) 0.1780(3) 0.103(3) Uani 1 1 d . . .
H8A H 0.2637 0.4362 0.1915 0.123 Uiso 1 1 calc R . .
H8B H 0.3685 0.4190 0.2047 0.123 Uiso 1 1 calc R . .
C9 C 0.3232(6) 0.3337(5) 0.1501(3) 0.071(2) Uani 1 1 d . . .
C10 C 0.4014(6) 0.2912(5) 0.1371(4) 0.085(2) Uani 1 1 d . . .
H10 H 0.4582 0.3188 0.1448 0.103 Uiso 1 1 calc R . .
C11 C 0.2422(8) 0.2938(6) 0.1377(4) 0.103(3) Uani 1 1 d . . .
H11 H 0.1860 0.3227 0.1455 0.124 Uiso 1 1 calc R . .
N1 N 0.5896(5) 0.3963(4) 0.0643(2) 0.0715(16) Uani 1 1 d . . .
N2 N 0.3528(4) 0.5078(4) 0.14791(18) 0.0696(14) Uani 1 1 d . . .
Cl1 Cl 1.0000 0.5000 0.06235(17) 0.1337(13) Uiso 1 2 d SD . .
O1A O 0.9200(12) 0.4947(16) 0.0315(5) 0.146(5) Uiso 0.52 1 d P . .
O1B O 0.960(4) 0.590(2) 0.056(2) 0.31(3) Uiso 0.48 1 d PD . .
O2 O 0.989(3) 0.4012(8) 0.0644(18) 0.26(2) Uiso 0.50 1 d PD . .
O3A O 0.9431(15) 0.5313(14) 0.1030(7) 0.116(6) Uiso 0.38 1 d P . .
O3B O 1.0000 0.5000 0.1147(13) 0.103(9) Uiso 0.25 2 d SP . .

loop_
_atom_site_aniso_label
_atom_site_aniso_U_11
_atom_site_aniso_U_22
_atom_site_aniso_U_33
_atom_site_aniso_U_23
_atom_site_aniso_U_13
_atom_site_aniso_U_12
Ag1 0.0803(5) 0.0489(5) 0.1035(6) 0.000 0.000 0.0102(4)
C1 0.146(8) 0.057(5) 0.057(4) 0.005(4) -0.017(5) 0.023(5)
C2 0.225(14) 0.041(4) 0.077(6) 0.003(4) 0.021(8) 0.011(7)
C3 0.231(18) 0.058(6) 0.127(12) 0.027(6) 0.100(13) 0.024(9)
C4 0.118(8) 0.073(6) 0.121(7) 0.021(6) 0.033(6) 0.014(5)
C5 0.108(7) 0.044(4) 0.080(5) 0.014(4) 0.015(5) 0.009(4)
C6 0.088(5) 0.065(5) 0.106(6) -0.002(4) -0.010(5) 0.000(3)
C7 0.124(8) 0.066(5) 0.086(6) -0.027(5) 0.025(6) -0.011(5)
C8 0.183(11) 0.058(4) 0.067(5) -0.006(4) 0.030(6) -0.027(6)
C9 0.093(6) 0.061(4) 0.059(4) -0.002(3) -0.006(4) -0.014(4)
C10 0.069(5) 0.056(4) 0.131(7) 0.029(5) 0.006(5) -0.007(3)
C11 0.102(7) 0.074(5) 0.133(9) -0.038(5) 0.035(7) -0.019(5)
N1 0.085(5) 0.064(4) 0.065(3) 0.000(3) 0.000(3) 0.014(3)
N2 0.089(4) 0.048(3) 0.072(3) 0.005(3) 0.013(3) -0.010(3)

_geom_special_details            
;
All esds (except the esd in the dihedral angle between two l.s. planes)
are estimated using the full covariance matrix. The cell esds are taken
into account individually in the estimation of esds in distances, angles
and torsion angles; correlations between esds in cell parameters are only
used when they are defined by crystal symmetry. An approximate (isotropic)
treatment of cell esds is used for estimating esds involving l.s. planes.
;

loop_
_geom_bond_atom_site_label_1
_geom_bond_atom_site_label_2
_geom_bond_distance
_geom_bond_site_symmetry_2
_geom_bond_publ_flag
Ag1 N1 2.299(6) 2_665 ?
Ag1 N1 2.299(6) . ?
Ag1 N2 2.391(5) . ?
Ag1 N2 2.391(5) 2_665 ?
C1 N1 1.305(10) . ?
C1 C2 1.321(15) . ?
C1 H1 0.9300 . ?
C2 C3 1.418(17) . ?
C2 H2 0.9300 . ?
C3 C4 1.369(18) . ?
C3 H3 0.9300 . ?
C4 C5 1.387(12) . ?
C4 H4 0.9300 . ?
C5 N1 1.340(11) . ?
C5 C6 1.528(11) 2_665 ?
C6 N2 1.458(10) . ?
C6 C5 1.528(11) 2_665 ?
C6 H6A 0.9700 . ?
C6 H6B 0.9700 . ?
C7 N2 1.464(10) . ?
C7 H7A 0.9600 . ?
C7 H7B 0.9600 . ?
C7 H7C 0.9600 . ?
C8 N2 1.503(10) . ?
C8 C9 1.519(11) . ?
C8 H8A 0.9700 . ?
C8 H8B 0.9700 . ?
C9 C10 1.326(10) . ?
C9 C11 1.340(12) . ?
C10 C10 1.357(17) 14_454 ?
C10 H10 0.9300 . ?
C11 C11 1.439(18) 14_454 ?
C11 H11 0.9300 . ?
Cl1 O1B 1.417(10) . ?
Cl1 O1B 1.417(10) 2_765 ?
Cl1 O1A 1.431(17) 2_765 ?
Cl1 O1A 1.431(17) . ?
Cl1 O2 1.426(10) 2_765 ?
Cl1 O2 1.426(10) . ?
Cl1 O3A 1.46(2) . ?
Cl1 O3A 1.46(2) 2_765 ?
Cl1 O3B 1.45(4) . ?
O1A O1B 1.62(6) . ?
O1B O2 0.78(7) 2_765 ?
O1B O3A 1.57(6) . ?
O2 O1B 0.78(7) 2_765 ?
O2 O3A 1.74(4) 2_765 ?
O3A O3B 0.99(2) . ?
O3A O2 1.74(4) 2_765 ?
O3B O3A 0.99(2) 2_765 ?

loop_
_geom_angle_atom_site_label_1
_geom_angle_atom_site_label_2
_geom_angle_atom_site_label_3
_geom_angle
_geom_angle_site_symmetry_1
_geom_angle_site_symmetry_3
_geom_angle_publ_flag
N1 Ag1 N1 117.5(3) 2_665 . ?
N1 Ag1 N2 73.7(2) 2_665 . ?
N1 Ag1 N2 140.0(2) . . ?
N1 Ag1 N2 140.0(2) 2_665 2_665 ?
N1 Ag1 N2 73.7(2) . 2_665 ?
N2 Ag1 N2 124.2(3) . 2_665 ?
N1 C1 C2 128.3(11) . . ?
N1 C1 H1 115.9 . . ?
C2 C1 H1 115.9 . . ?
C1 C2 C3 116.4(11) . . ?
C1 C2 H2 121.8 . . ?
C3 C2 H2 121.8 . . ?
C4 C3 C2 116.6(11) . . ?
C4 C3 H3 121.7 . . ?
C2 C3 H3 121.7 . . ?
C3 C4 C5 122.0(13) . . ?
C3 C4 H4 119.0 . . ?
C5 C4 H4 119.0 . . ?
N1 C5 C4 119.5(9) . . ?
N1 C5 C6 119.4(7) . 2_665 ?
C4 C5 C6 121.1(10) . 2_665 ?
N2 C6 C5 111.9(6) . 2_665 ?
N2 C6 H6A 109.2 . . ?
C5 C6 H6A 109.2 2_665 . ?
N2 C6 H6B 109.2 . . ?
C5 C6 H6B 109.2 2_665 . ?
H6A C6 H6B 107.9 . . ?
N2 C7 H7A 109.5 . . ?
N2 C7 H7B 109.5 . . ?
H7A C7 H7B 109.5 . . ?
N2 C7 H7C 109.5 . . ?
H7A C7 H7C 109.5 . . ?
H7B C7 H7C 109.5 . . ?
N2 C8 C9 113.9(7) . . ?
N2 C8 H8A 108.8 . . ?
C9 C8 H8A 108.8 . . ?
N2 C8 H8B 108.8 . . ?
C9 C8 H8B 108.8 . . ?
H8A C8 H8B 107.7 . . ?
C10 C9 C11 117.8(8) . . ?
C10 C9 C8 121.3(8) . . ?
C11 C9 C8 120.9(9) . . ?
C9 C10 C10 122.3(5) . 14_454 ?
C9 C10 H10 118.9 . . ?
C10 C10 H10 118.9 14_454 . ?
C9 C11 C11 119.9(6) . 14_454 ?
C9 C11 H11 120.1 . . ?
C11 C11 H11 120.1 14_454 . ?
C1 N1 C5 117.2(7) . . ?
C1 N1 Ag1 129.3(6) . . ?
C5 N1 Ag1 113.4(5) . . ?
C7 N2 C6 107.2(6) . . ?
C7 N2 C8 109.6(6) . . ?
C6 N2 C8 110.1(6) . . ?
C7 N2 Ag1 107.5(5) . . ?
C6 N2 Ag1 104.8(4) . . ?
C8 N2 Ag1 117.1(6) . . ?
O1B Cl1 O1B 165(6) . 2_765 ?
O1B Cl1 O1A 101(2) . 2_765 ?
O1B Cl1 O1A 69(3) 2_765 2_765 ?
O1B Cl1 O1A 69(3) . . ?
O1B Cl1 O1A 101(2) 2_765 . ?
O1A Cl1 O1A 106.8(13) 2_765 . ?
O1B Cl1 O2 32(3) . 2_765 ?
O1B Cl1 O2 149(3) 2_765 2_765 ?
O1A Cl1 O2 83(2) 2_765 2_765 ?
O1A Cl1 O2 100(2) . 2_765 ?
O1B Cl1 O2 149(3) . . ?
O1B Cl1 O2 32(3) 2_765 . ?
O1A Cl1 O2 100(2) 2_765 . ?
O1A Cl1 O2 83(2) . . ?
O2 Cl1 O2 175(4) 2_765 . ?
O1B Cl1 O3A 66(3) . . ?
O1B Cl1 O3A 127(3) 2_765 . ?
O1A Cl1 O3A 153.0(12) 2_765 . ?
O1A Cl1 O3A 91.5(10) . . ?
O2 Cl1 O3A 74(2) 2_765 . ?
O2 Cl1 O3A 102(2) . . ?
O1B Cl1 O3A 127(3) . 2_765 ?
O1B Cl1 O3A 66(3) 2_765 2_765 ?
O1A Cl1 O3A 91.5(10) 2_765 2_765 ?
O1A Cl1 O3A 153.0(12) . 2_765 ?
O2 Cl1 O3A 102(2) 2_765 2_765 ?
O2 Cl1 O3A 74(2) . 2_765 ?
O3A Cl1 O3A 79.4(17) . 2_765 ?
O1B Cl1 O3B 98(3) . . ?
O1B Cl1 O3B 98(3) 2_765 . ?
O1A Cl1 O3B 126.6(6) 2_765 . ?
O1A Cl1 O3B 126.6(6) . . ?
O2 Cl1 O3B 88(2) 2_765 . ?
O2 Cl1 O3B 88(2) . . ?
O3A Cl1 O3B 39.7(8) . . ?
O3A Cl1 O3B 39.7(8) 2_765 . ?
Cl1 O1A O1B 54.9(16) . . ?
O2 O1B Cl1 74.7(19) 2_765 . ?
O2 O1B O3A 89(7) 2_765 . ?
Cl1 O1B O3A 58.2(17) . . ?
O2 O1B O1A 127(3) 2_765 . ?
Cl1 O1B O1A 55.7(17) . . ?
O3A O1B O1A 81(2) . . ?
O1B O2 Cl1 73.4(18) 2_765 . ?
O1B O2 O3A 65(6) 2_765 2_765 ?
Cl1 O2 O3A 53.8(12) . 2_765 ?
O3B O3A Cl1 70(3) . . ?
O3B O3A O1B 113(3) . . ?
Cl1 O3A O1B 55.6(14) . . ?
O3B O3A O2 89(3) . 2_765 ?
Cl1 O3A O2 52.1(11) . 2_765 ?
O1B O3A O2 27(3) . 2_765 ?
O3A O3B O3A 142(5) 2_765 . ?
O3A O3B Cl1 71(3) 2_765 . ?
O3A O3B Cl1 71(3) . . ?

_diffrn_measured_fraction_theta_max 1.000
_diffrn_reflns_theta_full        23.47
_diffrn_measured_fraction_theta_full 1.000
_refine_diff_density_max         0.376
_refine_diff_density_min         -0.894
_refine_diff_density_rms         0.089
