####################################################################### 
# 
# This file contains crystal structure data downloaded from the 
# Cambridge Structural Database (CSD) hosted by the Cambridge 
# Crystallographic Data Centre (CCDC).
# 
# Full information about CCDC data access policies and citation 
# guidelines are available at http://www.ccdc.cam.ac.uk/access/V1 
# 
# Audit and citation data items may have been added by the CCDC. 
# Please retain this information to preserve the provenance of 
# this file and to allow appropriate attribution of the data. 
# 
#######################################################################

data_d:\determination\solution\422\kh422
_audit_block_doi                 10.5517/ccycvgl
_database_code_depnum_ccdc_archive 'CCDC 875330'
loop_
_citation_id
_citation_doi
_citation_year
1 10.1021/cg300587b 2012
_audit_update_record             
;
2012-04-06 deposited with the CCDC.	2024-07-11 downloaded from the CCDC.
;
#TrackingRef 'Compound 1-corrected.cif'


_audit_creation_method           SHELXL-97
_chemical_name_systematic        
;
?
;
_chemical_name_common            ?
_chemical_melting_point          ?
_chemical_formula_moiety         ?
_chemical_formula_sum            'C16 H18 Cl2 Hg1 N3 O2'
_chemical_formula_weight         555.82

loop_
_atom_type_symbol
_atom_type_description
_atom_type_scat_dispersion_real
_atom_type_scat_dispersion_imag
_atom_type_scat_source
C C 0.0033 0.0016 'International Tables Vol C Tables 4.2.6.8 and 6.1.1.4'
H H 0.0000 0.0000 'International Tables Vol C Tables 4.2.6.8 and 6.1.1.4'
N N 0.0061 0.0033 'International Tables Vol C Tables 4.2.6.8 and 6.1.1.4'
O O 0.0106 0.0060 'International Tables Vol C Tables 4.2.6.8 and 6.1.1.4'
Hg Hg -2.3894 9.2266 'International Tables Vol C Tables 4.2.6.8 and 6.1.1.4'
Cl Cl 0.1484 0.1585 'International Tables Vol C Tables 4.2.6.8 and 6.1.1.4'

_symmetry_cell_setting           Triclinic
_symmetry_space_group_name_H-M   P-1

loop_
_symmetry_equiv_pos_as_xyz
'x, y, z'
'-x, -y, -z'

_cell_length_a                   9.8707(8)
_cell_length_b                   10.2064(8)
_cell_length_c                   11.1344(9)
_cell_angle_alpha                72.266(6)
_cell_angle_beta                 87.909(7)
_cell_angle_gamma                62.061(6)
_cell_volume                     936.34(13)
_cell_formula_units_Z            2
_cell_measurement_temperature    298(2)
_cell_measurement_reflns_used    5002
_cell_measurement_theta_min      1.94
_cell_measurement_theta_max      29.21

_exptl_crystal_description       Block
_exptl_crystal_colour            Colorless
_exptl_crystal_size_max          0.40
_exptl_crystal_size_mid          0.35
_exptl_crystal_size_min          0.33
_exptl_crystal_density_meas      ?
_exptl_crystal_density_diffrn    1.972
_exptl_crystal_density_method    'not measured'
_exptl_crystal_F_000             530
_exptl_absorpt_coefficient_mu    8.517
_exptl_absorpt_correction_type   numerical
_exptl_absorpt_correction_T_min  0.0520
_exptl_absorpt_correction_T_max  0.0692
_exptl_absorpt_process_details   'shape of crystal determined optically'

_exptl_special_details           
;
?
;

_diffrn_ambient_temperature      298(2)
_diffrn_radiation_wavelength     0.71073
_diffrn_radiation_type           MoK\a
_diffrn_radiation_source         'fine-focus sealed tube'
_diffrn_radiation_monochromator  graphite
_diffrn_measurement_device_type  'STOE IPDS II'
_diffrn_measurement_method       'rotation method'
_diffrn_detector_area_resol_mean '0.15 mm'
_diffrn_standards_number         0
_diffrn_standards_interval_count ?
_diffrn_standards_interval_time  ?
_diffrn_standards_decay_%        ?
_diffrn_reflns_number            5002
_diffrn_reflns_av_R_equivalents  0.0986
_diffrn_reflns_av_sigmaI/netI    0.0145
_diffrn_reflns_limit_h_min       -13
_diffrn_reflns_limit_h_max       13
_diffrn_reflns_limit_k_min       -13
_diffrn_reflns_limit_k_max       13
_diffrn_reflns_limit_l_min       0
_diffrn_reflns_limit_l_max       15
_diffrn_reflns_theta_min         1.94
_diffrn_reflns_theta_max         29.21
_reflns_number_total             5002
_reflns_number_gt                4529
_reflns_threshold_expression     >2sigma(I)

_computing_data_collection       'X-Area 1.31 (Stoe & Cie GmbH, 2005)'
_computing_cell_refinement       'X-Area 1.31 (Stoe & Cie GmbH, 2005)'
_computing_data_reduction        'X-Area 1.31 (Stoe & Cie GmbH, 2005)'
_computing_structure_solution    'SHELXS-97 (Sheldrick, 1990)'
_computing_structure_refinement  'SHELXL-97 (Sheldrick, 1997)'
_computing_molecular_graphics    'ORTEP-3 for Windows (Farrugia, 1997)'
_computing_publication_material  'WinGX (Farrugia, 1999)'

_refine_special_details          
;
Refinement of F^2^ against ALL reflections. The weighted R-factor wR and
goodness of fit S are based on F^2^, conventional R-factors R are based
on F, with F set to zero for negative F^2^. The threshold expression of
F^2^ > 2sigma(F^2^) is used only for calculating R-factors(gt) etc. and is
not relevant to the choice of reflections for refinement. R-factors based
on F^2^ are statistically about twice as large as those based on F, and R-
factors based on ALL data will be even larger.
;

_refine_ls_structure_factor_coef Fsqd
_refine_ls_matrix_type           full
_refine_ls_weighting_scheme      calc
_refine_ls_weighting_details     
'calc w=1/[\s^2^(Fo^2^)+(0.0822P)^2^+0.2270P] where P=(Fo^2^+2Fc^2^)/3'
_atom_sites_solution_primary     direct
_atom_sites_solution_secondary   difmap
_atom_sites_solution_hydrogens   geom
_refine_ls_hydrogen_treatment    constr
_refine_ls_extinction_method     none
_refine_ls_extinction_coef       ?
_refine_ls_number_reflns         5002
_refine_ls_number_parameters     219
_refine_ls_number_restraints     0
_refine_ls_R_factor_all          0.0511
_refine_ls_R_factor_gt           0.0466
_refine_ls_wR_factor_ref         0.1135
_refine_ls_wR_factor_gt          0.1108
_refine_ls_goodness_of_fit_ref   1.097
_refine_ls_restrained_S_all      1.097
_refine_ls_shift/su_max          0.014
_refine_ls_shift/su_mean         0.001

loop_
_atom_site_label
_atom_site_type_symbol
_atom_site_fract_x
_atom_site_fract_y
_atom_site_fract_z
_atom_site_U_iso_or_equiv
_atom_site_adp_type
_atom_site_occupancy
_atom_site_symmetry_multiplicity
_atom_site_calc_flag
_atom_site_refinement_flags
_atom_site_disorder_assembly
_atom_site_disorder_group
C1 C 0.5181(6) 0.5433(6) 0.3185(5) 0.0449(10) Uani 1 1 d . . .
H1 H 0.5240 0.4620 0.2934 0.054 Uiso 1 1 calc R . .
C2 C 0.6339(6) 0.5170(6) 0.4030(6) 0.0485(11) Uani 1 1 d . . .
H2 H 0.7197 0.4176 0.4317 0.058 Uiso 1 1 calc R . .
C3 C 0.5073(7) 0.7715(7) 0.4013(6) 0.0508(12) Uani 1 1 d . . .
H3 H 0.5040 0.8493 0.4300 0.061 Uiso 1 1 calc R . .
C4 C 0.3869(7) 0.8098(6) 0.3150(6) 0.0496(12) Uani 1 1 d . . .
H4 H 0.3040 0.9111 0.2865 0.060 Uiso 1 1 calc R . .
C5 C 0.3930(6) 0.6922(6) 0.2717(4) 0.0401(9) Uani 1 1 d . . .
C6 C 0.2649(6) 0.7220(6) 0.1802(4) 0.0390(9) Uani 1 1 d . . .
C7 C 0.0594(5) 0.9139(5) 0.0058(4) 0.0369(8) Uani 1 1 d . . .
H7 H 0.0114 0.8479 0.0416 0.044 Uiso 1 1 calc R . .
C8 C 0.1059(6) 0.8957(6) -0.1221(5) 0.0412(9) Uani 1 1 d . . .
C9 C 0.2153(7) 0.9326(8) -0.1776(6) 0.0526(12) Uani 1 1 d . . .
H9 H 0.2652 0.9662 -0.1347 0.063 Uiso 1 1 calc R . .
C10 C 0.2533(9) 0.9208(9) -0.2965(7) 0.0625(15) Uani 1 1 d . . .
H10 H 0.3292 0.9444 -0.3320 0.075 Uiso 1 1 calc R . .
C11 C 0.1777(9) 0.8739(9) -0.3614(7) 0.0631(16) Uani 1 1 d . . .
H11 H 0.2019 0.8672 -0.4416 0.076 Uiso 1 1 calc R . .
C12 C 0.0680(9) 0.8372(9) -0.3094(7) 0.0611(16) Uani 1 1 d . . .
H12 H 0.0172 0.8060 -0.3539 0.073 Uiso 1 1 calc R . .
C13 C 0.0321(7) 0.8467(7) -0.1890(6) 0.0485(11) Uani 1 1 d . . .
H13 H -0.0418 0.8201 -0.1530 0.058 Uiso 1 1 calc R . .
N2 N 0.1908(5) 0.8651(5) 0.0958(4) 0.0403(8) Uani 1 1 d . . .
H2B H 0.2217 0.9316 0.0943 0.048 Uiso 1 1 calc R . .
O2 O 0.2976(8) 1.0870(8) 0.0215(6) 0.0798(16) Uani 1 1 d . . .
C15 C 0.3557(16) 1.4113(13) -0.0023(10) 0.094(3) Uani 1 1 d . . .
H15A H 0.4442 1.3453 0.0613 0.113 Uiso 1 1 calc R . .
H15B H 0.2778 1.4902 0.0281 0.113 Uiso 1 1 calc R . .
H15C H 0.3855 1.4607 -0.0786 0.113 Uiso 1 1 calc R . .
N1 N 0.6275(5) 0.6284(6) 0.4451(4) 0.0467(9) Uani 1 1 d . . .
N3 N 0.2954(9) 1.3183(8) -0.0289(6) 0.0655(14) Uani 1 1 d . . .
O1 O 0.2347(5) 0.6166(5) 0.1857(4) 0.0506(9) Uani 1 1 d . . .
Hg1 Hg 0.83008(2) 0.56219(2) 0.608465(19) 0.04699(9) Uani 1 1 d . . .
Cl1 Cl 1.0026(2) 0.31549(19) 0.59388(19) 0.0669(4) Uani 1 1 d . . .
Cl2 Cl 0.7122(2) 0.7880(2) 0.6649(2) 0.0679(4) Uani 1 1 d . . .
C14 C 0.3480(9) 1.1713(9) 0.0335(7) 0.0607(15) Uani 1 1 d . . .
H14 H 0.4335 1.1248 0.0942 0.073 Uiso 1 1 calc R . .
C16 C 0.1569(17) 1.3993(18) -0.1228(12) 0.116(4) Uani 1 1 d . . .
H16A H 0.0678 1.4125 -0.0795 0.139 Uiso 1 1 calc R . .
H16B H 0.1688 1.3380 -0.1768 0.139 Uiso 1 1 calc R . .
H16C H 0.1438 1.5002 -0.1733 0.139 Uiso 1 1 calc R . .

loop_
_atom_site_aniso_label
_atom_site_aniso_U_11
_atom_site_aniso_U_22
_atom_site_aniso_U_33
_atom_site_aniso_U_23
_atom_site_aniso_U_13
_atom_site_aniso_U_12
C1 0.045(2) 0.037(2) 0.046(2) -0.0155(19) -0.001(2) -0.012(2)
C2 0.040(2) 0.039(2) 0.054(3) -0.016(2) -0.008(2) -0.0076(19)
C3 0.051(3) 0.041(3) 0.052(3) -0.018(2) -0.013(2) -0.012(2)
C4 0.047(3) 0.037(2) 0.051(3) -0.017(2) -0.014(2) -0.007(2)
C5 0.043(2) 0.037(2) 0.0336(19) -0.0120(17) -0.0034(17) -0.0132(19)
C6 0.039(2) 0.039(2) 0.037(2) -0.0145(17) 0.0016(17) -0.0156(18)
C7 0.0310(19) 0.036(2) 0.041(2) -0.0117(17) -0.0055(16) -0.0144(16)
C8 0.037(2) 0.038(2) 0.044(2) -0.0150(18) -0.0022(17) -0.0128(18)
C9 0.050(3) 0.059(3) 0.056(3) -0.021(3) 0.007(2) -0.030(3)
C10 0.058(4) 0.064(4) 0.068(4) -0.024(3) 0.019(3) -0.029(3)
C11 0.071(4) 0.056(4) 0.051(3) -0.024(3) 0.009(3) -0.018(3)
C12 0.066(4) 0.060(4) 0.059(3) -0.032(3) -0.005(3) -0.023(3)
C13 0.047(3) 0.046(3) 0.055(3) -0.023(2) -0.002(2) -0.020(2)
N2 0.0387(19) 0.0346(18) 0.043(2) -0.0101(15) -0.0091(16) -0.0149(16)
O2 0.100(4) 0.077(4) 0.089(4) -0.026(3) 0.008(3) -0.064(4)
C15 0.147(10) 0.090(7) 0.094(6) -0.051(6) 0.039(7) -0.084(7)
N1 0.042(2) 0.043(2) 0.046(2) -0.0146(18) -0.0062(17) -0.0128(18)
N3 0.083(4) 0.067(4) 0.064(3) -0.026(3) 0.016(3) -0.047(3)
O1 0.062(2) 0.0409(19) 0.0472(19) -0.0106(15) -0.0067(17) -0.0251(18)
Hg1 0.04024(12) 0.04335(12) 0.05044(13) -0.01545(8) -0.00418(8) -0.01387(8)
Cl1 0.0566(8) 0.0435(7) 0.0769(10) -0.0129(7) 0.0089(7) -0.0097(6)
Cl2 0.0725(10) 0.0596(9) 0.0793(11) -0.0382(8) 0.0129(8) -0.0287(8)
C14 0.062(4) 0.066(4) 0.068(4) -0.031(3) 0.006(3) -0.035(3)
C16 0.122(10) 0.114(9) 0.097(8) 0.004(7) -0.018(7) -0.066(9)

_geom_special_details            
;
All esds (except the esd in the dihedral angle between two l.s. planes)
are estimated using the full covariance matrix. The cell esds are taken
into account individually in the estimation of esds in distances, angles
and torsion angles; correlations between esds in cell parameters are only
used when they are defined by crystal symmetry. An approximate (isotropic)
treatment of cell esds is used for estimating esds involving l.s. planes.
;

loop_
_geom_bond_atom_site_label_1
_geom_bond_atom_site_label_2
_geom_bond_distance
_geom_bond_site_symmetry_2
_geom_bond_publ_flag
C1 C2 1.379(7) . ?
C1 C5 1.383(7) . ?
C1 H1 0.9300 . ?
C2 N1 1.331(7) . ?
C2 H2 0.9300 . ?
C3 N1 1.327(7) . ?
C3 C4 1.381(7) . ?
C3 H3 0.9300 . ?
C4 C5 1.401(7) . ?
C4 H4 0.9300 . ?
C5 C6 1.508(7) . ?
C6 O1 1.228(6) . ?
C6 N2 1.329(6) . ?
C7 N2 1.456(6) . ?
C7 C8 1.518(7) . ?
C7 C7 1.557(9) 2_575 ?
C7 H7 0.9800 . ?
C8 C9 1.372(8) . ?
C8 C13 1.394(7) . ?
C9 C10 1.387(9) . ?
C9 H9 0.9300 . ?
C10 C11 1.375(11) . ?
C10 H10 0.9300 . ?
C11 C12 1.361(11) . ?
C11 H11 0.9300 . ?
C12 C13 1.394(9) . ?
C12 H12 0.9300 . ?
C13 H13 0.9300 . ?
N2 H2B 0.8600 . ?
O2 C14 1.217(8) . ?
C15 N3 1.434(10) . ?
C15 H15A 0.9600 . ?
C15 H15B 0.9600 . ?
C15 H15C 0.9600 . ?
N1 Hg1 2.453(4) . ?
N3 C14 1.291(10) . ?
N3 C16 1.471(15) . ?
Hg1 Cl2 2.3185(16) . ?
Hg1 Cl1 2.3402(17) . ?
C14 H14 0.9300 . ?
C16 H16A 0.9600 . ?
C16 H16B 0.9600 . ?
C16 H16C 0.9600 . ?

loop_
_geom_angle_atom_site_label_1
_geom_angle_atom_site_label_2
_geom_angle_atom_site_label_3
_geom_angle
_geom_angle_site_symmetry_1
_geom_angle_site_symmetry_3
_geom_angle_publ_flag
C2 C1 C5 119.1(5) . . ?
C2 C1 H1 120.4 . . ?
C5 C1 H1 120.4 . . ?
N1 C2 C1 122.4(5) . . ?
N1 C2 H2 118.8 . . ?
C1 C2 H2 118.8 . . ?
N1 C3 C4 123.0(5) . . ?
N1 C3 H3 118.5 . . ?
C4 C3 H3 118.5 . . ?
C3 C4 C5 118.2(5) . . ?
C3 C4 H4 120.9 . . ?
C5 C4 H4 120.9 . . ?
C1 C5 C4 118.4(5) . . ?
C1 C5 C6 119.6(4) . . ?
C4 C5 C6 122.0(4) . . ?
O1 C6 N2 123.7(5) . . ?
O1 C6 C5 120.1(5) . . ?
N2 C6 C5 116.2(4) . . ?
N2 C7 C8 112.7(4) . . ?
N2 C7 C7 107.4(4) . 2_575 ?
C8 C7 C7 112.3(5) . 2_575 ?
N2 C7 H7 108.1 . . ?
C8 C7 H7 108.1 . . ?
C7 C7 H7 108.1 2_575 . ?
C9 C8 C13 118.1(5) . . ?
C9 C8 C7 121.8(5) . . ?
C13 C8 C7 120.1(5) . . ?
C8 C9 C10 121.5(6) . . ?
C8 C9 H9 119.3 . . ?
C10 C9 H9 119.3 . . ?
C11 C10 C9 119.4(6) . . ?
C11 C10 H10 120.3 . . ?
C9 C10 H10 120.3 . . ?
C12 C11 C10 120.6(6) . . ?
C12 C11 H11 119.7 . . ?
C10 C11 H11 119.7 . . ?
C11 C12 C13 119.7(6) . . ?
C11 C12 H12 120.1 . . ?
C13 C12 H12 120.1 . . ?
C12 C13 C8 120.7(6) . . ?
C12 C13 H13 119.7 . . ?
C8 C13 H13 119.7 . . ?
C6 N2 C7 122.5(4) . . ?
C6 N2 H2B 118.7 . . ?
C7 N2 H2B 118.7 . . ?
N3 C15 H15A 109.5 . . ?
N3 C15 H15B 109.5 . . ?
H15A C15 H15B 109.5 . . ?
N3 C15 H15C 109.5 . . ?
H15A C15 H15C 109.5 . . ?
H15B C15 H15C 109.5 . . ?
C3 N1 C2 118.8(5) . . ?
C3 N1 Hg1 121.6(4) . . ?
C2 N1 Hg1 119.5(3) . . ?
C14 N3 C15 123.1(8) . . ?
C14 N3 C16 118.9(8) . . ?
C15 N3 C16 117.7(10) . . ?
Cl2 Hg1 Cl1 164.35(8) . . ?
Cl2 Hg1 N1 99.12(12) . . ?
Cl1 Hg1 N1 96.53(12) . . ?
O2 C14 N3 126.9(8) . . ?
O2 C14 H14 116.5 . . ?
N3 C14 H14 116.5 . . ?
N3 C16 H16A 109.5 . . ?
N3 C16 H16B 109.5 . . ?
H16A C16 H16B 109.5 . . ?
N3 C16 H16C 109.5 . . ?
H16A C16 H16C 109.5 . . ?
H16B C16 H16C 109.5 . . ?

loop_
_geom_torsion_atom_site_label_1
_geom_torsion_atom_site_label_2
_geom_torsion_atom_site_label_3
_geom_torsion_atom_site_label_4
_geom_torsion
_geom_torsion_site_symmetry_1
_geom_torsion_site_symmetry_2
_geom_torsion_site_symmetry_3
_geom_torsion_site_symmetry_4
_geom_torsion_publ_flag
C5 C1 C2 N1 2.4(9) . . . . ?
N1 C3 C4 C5 -0.3(10) . . . . ?
C2 C1 C5 C4 -1.8(9) . . . . ?
C2 C1 C5 C6 -179.4(5) . . . . ?
C3 C4 C5 C1 0.8(9) . . . . ?
C3 C4 C5 C6 178.4(6) . . . . ?
C1 C5 C6 O1 30.0(8) . . . . ?
C4 C5 C6 O1 -147.6(6) . . . . ?
C1 C5 C6 N2 -149.6(5) . . . . ?
C4 C5 C6 N2 32.9(7) . . . . ?
N2 C7 C8 C9 -40.3(7) . . . . ?
C7 C7 C8 C9 81.1(7) 2_575 . . . ?
N2 C7 C8 C13 142.5(5) . . . . ?
C7 C7 C8 C13 -96.1(6) 2_575 . . . ?
C13 C8 C9 C10 -0.5(9) . . . . ?
C7 C8 C9 C10 -177.7(6) . . . . ?
C8 C9 C10 C11 1.2(11) . . . . ?
C9 C10 C11 C12 -0.9(11) . . . . ?
C10 C11 C12 C13 -0.2(11) . . . . ?
C11 C12 C13 C8 1.0(10) . . . . ?
C9 C8 C13 C12 -0.6(9) . . . . ?
C7 C8 C13 C12 176.7(5) . . . . ?
O1 C6 N2 C7 3.8(8) . . . . ?
C5 C6 N2 C7 -176.7(4) . . . . ?
C8 C7 N2 C6 -94.9(6) . . . . ?
C7 C7 N2 C6 141.0(5) 2_575 . . . ?
C4 C3 N1 C2 0.9(10) . . . . ?
C4 C3 N1 Hg1 -176.0(5) . . . . ?
C1 C2 N1 C3 -2.0(9) . . . . ?
C1 C2 N1 Hg1 175.0(5) . . . . ?
C3 N1 Hg1 Cl2 9.9(5) . . . . ?
C2 N1 Hg1 Cl2 -167.0(4) . . . . ?
C3 N1 Hg1 Cl1 -170.1(5) . . . . ?
C2 N1 Hg1 Cl1 13.0(5) . . . . ?
C15 N3 C14 O2 175.6(9) . . . . ?
C16 N3 C14 O2 2.2(14) . . . . ?

_diffrn_measured_fraction_theta_max 0.985
_diffrn_reflns_theta_full        29.21
_diffrn_measured_fraction_theta_full 0.985
_refine_diff_density_max         1.758
_refine_diff_density_min         -1.662
_refine_diff_density_rms         0.201


