####################################################################### 
# 
# This file contains crystal structure data downloaded from the 
# Cambridge Structural Database (CSD) hosted by the Cambridge 
# Crystallographic Data Centre (CCDC).
# 
# Full information about CCDC data access policies and citation 
# guidelines are available at http://www.ccdc.cam.ac.uk/access/V1 
# 
# Audit and citation data items may have been added by the CCDC. 
# Please retain this information to preserve the provenance of 
# this file and to allow appropriate attribution of the data. 
# 
#######################################################################

data_13
_audit_block_doi                 10.5517/ccyctvy
_database_code_depnum_ccdc_archive 'CCDC 875311'
loop_
_citation_id
_citation_doi
_citation_year
1 10.1021/ic302145j 2013
_audit_update_record             
;
2012-04-10 deposited with the CCDC.	2024-07-11 downloaded from the CCDC.
;
#TrackingRef 'submit-13.cif'


_audit_creation_method           SHELXL-97
_chemical_name_systematic        
;
?
;
_chemical_name_common            ?
_chemical_melting_point          ?
_chemical_formula_moiety         'C42 H42 N28 O24 Yb2, CdCl4, 4Cl, 39(H2 O)'
_chemical_formula_sum            'C42 H140 Cd Cl8 N28 O63 Yb2'
_chemical_formula_weight         2787.90

loop_
_atom_type_symbol
_atom_type_description
_atom_type_scat_dispersion_real
_atom_type_scat_dispersion_imag
_atom_type_scat_source
C C 0.0033 0.0016 'International Tables Vol C Tables 4.2.6.8 and 6.1.1.4'
H H 0.0000 0.0000 'International Tables Vol C Tables 4.2.6.8 and 6.1.1.4'
N N 0.0061 0.0033 'International Tables Vol C Tables 4.2.6.8 and 6.1.1.4'
O O 0.0106 0.0060 'International Tables Vol C Tables 4.2.6.8 and 6.1.1.4'
Cl Cl 0.1484 0.1585 'International Tables Vol C Tables 4.2.6.8 and 6.1.1.4'
Cd Cd -0.8075 1.2024 'International Tables Vol C Tables 4.2.6.8 and 6.1.1.4'
Yb Yb -0.3850 5.5486 'International Tables Vol C Tables 4.2.6.8 and 6.1.1.4'

_symmetry_cell_setting           triclinic
_symmetry_space_group_name_H-M   'P -1'
_symmetry_space_group_name_Hall  '-P 1'

loop_
_symmetry_equiv_pos_as_xyz
'x, y, z'
'-x, -y, -z'

_cell_length_a                   17.025(2)
_cell_length_b                   17.226(2)
_cell_length_c                   20.206(4)
_cell_angle_alpha                113.958(6)
_cell_angle_beta                 97.300(6)
_cell_angle_gamma                111.598(4)
_cell_volume                     4761.0(12)
_cell_formula_units_Z            2
_cell_measurement_temperature    223(2)
_cell_measurement_reflns_used    ?
_cell_measurement_theta_min      ?
_cell_measurement_theta_max      ?

_exptl_crystal_description       block
_exptl_crystal_colour            colorless
_exptl_crystal_size_max          0.27
_exptl_crystal_size_mid          0.21
_exptl_crystal_size_min          0.19
_exptl_crystal_density_meas      ?
_exptl_crystal_density_diffrn    1.945
_exptl_crystal_density_method    'not measured'
_exptl_crystal_F_000             2832
_exptl_absorpt_coefficient_mu    2.519
_exptl_absorpt_correction_type   multi-scan
_exptl_absorpt_correction_T_min  0.5495
_exptl_absorpt_correction_T_max  0.6461
_exptl_absorpt_process_details   'SADABS (Bruker, 2008)'

_exptl_special_details           
;
?
;

_diffrn_ambient_temperature      223(2)
_diffrn_radiation_wavelength     0.71073
_diffrn_radiation_type           MoK\a
_diffrn_radiation_source         'fine-focus sealed tube'
_diffrn_radiation_monochromator  graphite
_diffrn_measurement_device_type  'Bruker CCD Area Detector'
_diffrn_measurement_method       '\f and \w scan'
_diffrn_detector_area_resol_mean ?
_diffrn_standards_number         ?
_diffrn_standards_interval_count ?
_diffrn_standards_interval_time  ?
_diffrn_standards_decay_%        ?
_diffrn_reflns_number            50748
_diffrn_reflns_av_R_equivalents  0.0852
_diffrn_reflns_av_sigmaI/netI    0.0956
_diffrn_reflns_limit_h_min       -20
_diffrn_reflns_limit_h_max       20
_diffrn_reflns_limit_k_min       -21
_diffrn_reflns_limit_k_max       21
_diffrn_reflns_limit_l_min       -24
_diffrn_reflns_limit_l_max       24
_diffrn_reflns_theta_min         1.35
_diffrn_reflns_theta_max         26.00
_reflns_number_total             18040
_reflns_number_gt                13707
_reflns_threshold_expression     >2sigma(I)

_computing_data_collection       ?
_computing_cell_refinement       ?
_computing_data_reduction        ?
_computing_structure_solution    ?
_computing_structure_refinement  'SHELXL-97 (Sheldrick, 1997)'
_computing_molecular_graphics    ?
_computing_publication_material  ?

_refine_special_details          
;
Refinement of F^2^ against ALL reflections. The weighted R-factor wR and
goodness of fit S are based on F^2^, conventional R-factors R are based
on F, with F set to zero for negative F^2^. The threshold expression of
F^2^ > 2sigma(F^2^) is used only for calculating R-factors(gt) etc. and is
not relevant to the choice of reflections for refinement. R-factors based
on F^2^ are statistically about twice as large as those based on F, and R-
factors based on ALL data will be even larger.
;

_refine_ls_structure_factor_coef Fsqd
_refine_ls_matrix_type           full
_refine_ls_weighting_scheme      calc
_refine_ls_weighting_details     
'calc w=1/[\s^2^(Fo^2^)+(0.1464P)^2^+0.0000P] where P=(Fo^2^+2Fc^2^)/3'
_atom_sites_solution_primary     direct
_atom_sites_solution_secondary   difmap
_atom_sites_solution_hydrogens   geom
_refine_ls_hydrogen_treatment    constr
_refine_ls_extinction_method     none
_refine_ls_extinction_coef       ?
_refine_ls_number_reflns         18040
_refine_ls_number_parameters     934
_refine_ls_number_restraints     4
_refine_ls_R_factor_all          0.0918
_refine_ls_R_factor_gt           0.0786
_refine_ls_wR_factor_ref         0.2227
_refine_ls_wR_factor_gt          0.2112
_refine_ls_goodness_of_fit_ref   1.054
_refine_ls_restrained_S_all      1.054
_refine_ls_shift/su_max          0.001
_refine_ls_shift/su_mean         0.000

loop_
_atom_site_label
_atom_site_type_symbol
_atom_site_fract_x
_atom_site_fract_y
_atom_site_fract_z
_atom_site_U_iso_or_equiv
_atom_site_adp_type
_atom_site_occupancy
_atom_site_symmetry_multiplicity
_atom_site_calc_flag
_atom_site_refinement_flags
_atom_site_disorder_assembly
_atom_site_disorder_group
Cl5 Cl 0.5738(2) 0.0891(2) -0.10867(18) 0.0598(8) Uani 1 1 d . . .
Cl6 Cl 0.0000 0.5000 0.0000 0.095(2) Uani 1 2 d S . .
Cl7 Cl 0.4371(7) 0.5685(7) 0.1513(5) 0.089(3) Uani 0.50 1 d P A 1
Cl8 Cl 0.3733(7) 0.4922(10) 0.2045(6) 0.114(4) Uani 0.50 1 d P B 2
Cl9 Cl 0.6249(9) 0.5803(9) 0.4061(8) 0.131(4) Uani 0.50 1 d P . .
Cl10 Cl 0.0736(4) 0.8846(4) 0.4961(4) 0.0601(16) Uani 0.50 1 d P . .
Cl11 Cl 0.0968(4) 0.6311(4) 0.3681(4) 0.0618(16) Uani 0.50 1 d P . .
O1W O 0.2769(5) 0.4256(4) -0.0921(3) 0.0357(15) Uani 1 1 d . . .
O2W O 0.2703(4) 0.6995(4) 0.0205(3) 0.0288(13) Uani 1 1 d . . .
O3W O 0.4343(4) 0.6754(5) 0.0226(3) 0.0353(15) Uani 1 1 d . . .
O4W O 0.3456(4) 0.5772(5) 0.4691(3) 0.0361(16) Uani 1 1 d . . .
O5W O 0.1432(4) 0.5155(5) -0.0801(3) 0.0356(15) Uani 1 1 d . . .
O6W O 0.3951(4) 0.5530(5) -0.1281(4) 0.0379(16) Uani 1 1 d . . .
O7W O 0.0993(4) 0.3028(5) 0.3647(4) 0.0388(16) Uani 1 1 d . . .
O8W O 0.2833(5) 0.3256(5) 0.3855(4) 0.0409(17) Uani 1 1 d . . .
O9W O 0.3515(4) 0.4485(5) 0.3317(4) 0.0373(16) Uani 1 1 d . . .
O10W O 0.1364(5) 0.4920(6) 0.4135(4) 0.0485(19) Uani 1 1 d . . .
Yb1 Yb 0.29411(2) 0.57377(2) -0.063228(18) 0.01950(13) Uani 1 1 d . . .
Yb2 Yb 0.23334(2) 0.42881(3) 0.380500(18) 0.02192(13) Uani 1 1 d . . .
Cl1 Cl 0.93742(17) 0.07079(18) 0.07220(18) 0.0533(7) Uani 1 1 d . . .
Cl2 Cl 0.69391(17) 0.0563(2) 0.08442(16) 0.0501(7) Uani 1 1 d . . .
Cl3 Cl 0.91793(17) 0.2552(2) 0.25428(15) 0.0492(7) Uani 1 1 d . . .
Cl4 Cl 0.87198(17) 0.2542(2) 0.04920(17) 0.0518(7) Uani 1 1 d . . .
Cd1 Cd 0.85294(5) 0.15847(5) 0.11453(4) 0.0402(2) Uani 1 1 d . . .
C1 C 0.2571(5) 0.5645(6) 0.0982(4) 0.0198(8) Uani 1 1 d . . .
C2 C 0.1506(5) 0.5263(6) 0.1566(4) 0.0198(8) Uani 1 1 d . . .
H2 H 0.0916 0.5233 0.1406 0.024 Uiso 1 1 calc R . .
C3 C 0.2241(5) 0.6303(6) 0.2101(4) 0.0214(16) Uani 1 1 d . . .
H3 H 0.1993 0.6763 0.2222 0.026 Uiso 1 1 calc R . .
C4 C 0.2179(5) 0.5425(6) 0.2738(4) 0.0198(8) Uani 1 1 d . . .
C5 C 0.3555(5) 0.7361(6) 0.1883(5) 0.0250(18) Uani 1 1 d . . .
H5A H 0.3347 0.7847 0.2072 0.030 Uiso 1 1 calc R . .
H5B H 0.3712 0.7346 0.1429 0.030 Uiso 1 1 calc R . .
C6 C 0.3188(5) 0.7144(6) 0.3507(4) 0.0246(18) Uani 1 1 d . . .
H6A H 0.2996 0.7632 0.3565 0.030 Uiso 1 1 calc R . .
H6B H 0.3109 0.7001 0.3923 0.030 Uiso 1 1 calc R . .
C7 C 0.5105(5) 0.7639(6) 0.2294(5) 0.0263(18) Uani 1 1 d . . .
C8 C 0.4504(5) 0.8145(6) 0.3271(4) 0.0228(17) Uani 1 1 d . . .
H8 H 0.4339 0.8672 0.3416 0.027 Uiso 1 1 calc R . .
C9 C 0.5531(5) 0.8534(6) 0.3629(4) 0.0245(18) Uani 1 1 d . . .
H9 H 0.5852 0.9243 0.3901 0.029 Uiso 1 1 calc R . .
C10 C 0.4764(6) 0.7597(6) 0.4133(4) 0.0273(19) Uani 1 1 d . . .
C11 C 0.6721(5) 0.8498(7) 0.3005(5) 0.0288(11) Uani 1 1 d . . .
H11A H 0.6735 0.8314 0.2481 0.035 Uiso 1 1 calc R . .
H11B H 0.7013 0.9200 0.3299 0.035 Uiso 1 1 calc R . .
C12 C 0.6376(6) 0.8521(7) 0.4755(5) 0.033(2) Uani 1 1 d . . .
H12A H 0.6686 0.9222 0.5007 0.039 Uiso 1 1 calc R . .
H12B H 0.6208 0.8343 0.5138 0.039 Uiso 1 1 calc R . .
C13 C 0.7547(6) 0.7592(6) 0.2927(5) 0.029(2) Uani 1 1 d . . .
C14 C 0.7608(5) 0.8551(6) 0.4146(4) 0.0224(17) Uani 1 1 d . . .
H14 H 0.7906 0.9260 0.4416 0.027 Uiso 1 1 calc R . .
C15 C 0.8269(6) 0.8169(6) 0.4207(4) 0.0247(18) Uani 1 1 d . . .
H15 H 0.8893 0.8687 0.4469 0.030 Uiso 1 1 calc R . .
C16 C 0.7228(6) 0.7679(6) 0.4796(5) 0.029(2) Uani 1 1 d . . .
C17 C 0.8710(6) 0.7120(6) 0.3168(5) 0.0240(18) Uani 1 1 d . . .
H17A H 0.8657 0.6961 0.2635 0.029 Uiso 1 1 calc R . .
H17B H 0.9329 0.7601 0.3485 0.029 Uiso 1 1 calc R . .
C18 C 0.8526(6) 0.7357(6) 0.4973(4) 0.0249(18) Uani 1 1 d . . .
H18A H 0.9157 0.7823 0.5146 0.030 Uiso 1 1 calc R . .
H18B H 0.8374 0.7358 0.5425 0.030 Uiso 1 1 calc R . .
C19 C 0.8203(5) 0.5406(6) 0.2600(4) 0.0198(8) Uani 1 1 d . . .
C20 C 0.8896(5) 0.6288(5) 0.3920(4) 0.0197(16) Uani 1 1 d . . .
H20 H 0.9542 0.6741 0.4164 0.024 Uiso 1 1 calc R . .
C21 C 0.8707(5) 0.5218(6) 0.3620(4) 0.0185(16) Uani 1 1 d . . .
H21 H 0.9257 0.5162 0.3752 0.022 Uiso 1 1 calc R . .
C22 C 0.7979(5) 0.5615(6) 0.4513(4) 0.0178(16) Uani 1 1 d . . .
C23 C 0.8192(4) 0.3859(4) 0.2277(4) 0.0288(11) Uani 1 1 d D . .
H23A H 0.8316 0.3864 0.1818 0.035 Uiso 1 1 calc R . .
H23B H 0.8627 0.3725 0.2517 0.035 Uiso 1 1 calc R . .
C24 C 0.7734(5) 0.3949(6) 0.3909(4) 0.0221(17) Uani 1 1 d . . .
H24A H 0.8212 0.3762 0.3897 0.027 Uiso 1 1 calc R . .
H24B H 0.7555 0.3956 0.4353 0.027 Uiso 1 1 calc R . .
C25 C 0.6622(5) 0.2794(5) 0.1434(4) 0.0192(16) Uani 1 1 d . . .
C26 C 0.7029(5) 0.2642(6) 0.2510(5) 0.0202(16) Uani 1 1 d . . .
H26 H 0.7388 0.2322 0.2574 0.024 Uiso 1 1 calc R . .
C27 C 0.6039(5) 0.1907(6) 0.2017(4) 0.0212(16) Uani 1 1 d . . .
H27 H 0.5931 0.1240 0.1846 0.025 Uiso 1 1 calc R . .
C28 C 0.6116(5) 0.2948(6) 0.3225(4) 0.0242(18) Uani 1 1 d . . .
C29 C 0.5123(5) 0.1430(6) 0.0688(4) 0.0223(17) Uani 1 1 d . . .
H29A H 0.4987 0.0767 0.0543 0.027 Uiso 1 1 calc R . .
H29B H 0.5267 0.1542 0.0269 0.027 Uiso 1 1 calc R . .
C30 C 0.4642(5) 0.1545(6) 0.2425(5) 0.0248(18) Uani 1 1 d . . .
H30A H 0.4560 0.0888 0.2214 0.030 Uiso 1 1 calc R . .
H30B H 0.4547 0.1732 0.2923 0.030 Uiso 1 1 calc R . .
C31 C 0.3942(5) 0.1835(6) 0.0361(5) 0.0261(18) Uani 1 1 d . . .
C32 C 0.3725(5) 0.1045(6) 0.1083(4) 0.0231(17) Uani 1 1 d . . .
H32 H 0.3636 0.0381 0.0888 0.028 Uiso 1 1 calc R . .
C33 C 0.2874(5) 0.1072(5) 0.0814(4) 0.0199(16) Uani 1 1 d . . .
H33 H 0.2377 0.0420 0.0465 0.024 Uiso 1 1 calc R . .
C34 C 0.3343(6) 0.1799(6) 0.2144(5) 0.0246(18) Uani 1 1 d . . .
C35 C 0.2438(5) 0.1620(6) -0.0114(4) 0.0196(16) Uani 1 1 d . . .
H35A H 0.2720 0.1840 -0.0441 0.023 Uiso 1 1 calc R . .
H35B H 0.1966 0.0959 -0.0445 0.023 Uiso 1 1 calc R . .
C36 C 0.1838(5) 0.1481(6) 0.1523(5) 0.0246(17) Uani 1 1 d . . .
H36A H 0.1792 0.1604 0.2031 0.030 Uiso 1 1 calc R . .
H36B H 0.1380 0.0826 0.1151 0.030 Uiso 1 1 calc R . .
C37 C 0.2139(5) 0.3005(6) 0.0169(4) 0.0222(17) Uani 1 1 d . . .
C38 C 0.1346(5) 0.1953(5) 0.0564(4) 0.0193(16) Uani 1 1 d . . .
H38 H 0.0882 0.1281 0.0221 0.023 Uiso 1 1 calc R . .
C39 C 0.0956(5) 0.2668(6) 0.0656(5) 0.0212(17) Uani 1 1 d . . .
H39 H 0.0321 0.2341 0.0339 0.025 Uiso 1 1 calc R . .
C40 C 0.1497(5) 0.2838(6) 0.1857(5) 0.0243(18) Uani 1 1 d . . .
C41 C 0.1370(6) 0.3980(6) 0.0288(4) 0.0241(18) Uani 1 1 d . . .
H41A H 0.1549 0.3993 -0.0151 0.029 Uiso 1 1 calc R . .
H41B H 0.0726 0.3772 0.0152 0.029 Uiso 1 1 calc R . .
C42 C 0.0844(4) 0.3878(4) 0.1852(5) 0.0288(11) Uani 1 1 d D . .
H42A H 0.0278 0.3731 0.1520 0.035 Uiso 1 1 calc R . .
H42B H 0.0753 0.3893 0.2325 0.035 Uiso 1 1 calc R . .
N1 N 0.1818(5) 0.4922(5) 0.0918(4) 0.0236(11) Uani 1 1 d . . .
N2 N 0.2831(5) 0.6440(5) 0.1659(4) 0.0246(15) Uani 1 1 d . . .
N3 N 0.1517(4) 0.4813(4) 0.2036(4) 0.0236(11) Uani 1 1 d D . .
N4 N 0.2615(4) 0.6283(5) 0.2785(3) 0.0190(14) Uani 1 1 d . . .
N5 N 0.4346(4) 0.7648(5) 0.2465(4) 0.0263(16) Uani 1 1 d . . .
N6 N 0.5795(4) 0.8133(5) 0.2983(4) 0.0246(15) Uani 1 1 d . . .
N7 N 0.4108(5) 0.7531(5) 0.3587(4) 0.0267(16) Uani 1 1 d . . .
N8 N 0.5561(4) 0.8167(5) 0.4146(4) 0.0239(15) Uani 1 1 d . . .
N9 N 0.7220(5) 0.8156(5) 0.3338(4) 0.0278(16) Uani 1 1 d . . .
N10 N 0.8113(5) 0.7532(5) 0.3407(4) 0.0286(16) Uani 1 1 d . . .
N11 N 0.6975(5) 0.8168(5) 0.4500(4) 0.0269(16) Uani 1 1 d . . .
N12 N 0.7986(5) 0.7655(5) 0.4625(4) 0.0269(16) Uani 1 1 d . . .
N13 N 0.8518(4) 0.6275(5) 0.3232(3) 0.0200(14) Uani 1 1 d . . .
N14 N 0.8308(4) 0.4796(4) 0.2806(3) 0.0181(13) Uani 1 1 d D . .
N15 N 0.8409(4) 0.6422(5) 0.4464(4) 0.0205(14) Uani 1 1 d . . .
N16 N 0.8085(4) 0.4913(5) 0.4012(4) 0.0208(14) Uani 1 1 d . . .
N17 N 0.7302(3) 0.3098(4) 0.2052(3) 0.0196(14) Uani 1 1 d D . .
N18 N 0.5895(4) 0.2075(5) 0.1377(4) 0.0227(14) Uani 1 1 d . . .
N19 N 0.6975(4) 0.3231(5) 0.3218(4) 0.0239(15) Uani 1 1 d . . .
N20 N 0.5555(4) 0.2183(5) 0.2533(4) 0.0218(14) Uani 1 1 d . . .
N21 N 0.4334(4) 0.1557(5) 0.0786(4) 0.0222(14) Uani 1 1 d . . .
N22 N 0.3106(4) 0.1629(5) 0.0424(4) 0.0220(14) Uani 1 1 d . . .
N23 N 0.3994(4) 0.1573(5) 0.1924(4) 0.0253(15) Uani 1 1 d . . .
N24 N 0.2698(4) 0.1547(5) 0.1517(4) 0.0237(15) Uani 1 1 d . . .
N25 N 0.2036(5) 0.2214(5) 0.0252(4) 0.0246(15) Uani 1 1 d . . .
N26 N 0.1536(5) 0.3281(5) 0.0414(4) 0.0227(15) Uani 1 1 d . . .
N27 N 0.1657(5) 0.2135(5) 0.1344(4) 0.0270(16) Uani 1 1 d . . .
N28 N 0.1084(4) 0.3125(4) 0.1472(4) 0.0198(14) Uani 1 1 d D . .
O1 O 0.2921(4) 0.5578(4) 0.0480(3) 0.0239(12) Uani 1 1 d . . .
O2 O 0.5177(4) 0.7291(5) 0.1667(3) 0.0402(17) Uani 1 1 d . . .
O3 O 0.7355(5) 0.7200(5) 0.2222(3) 0.0404(16) Uani 1 1 d . . .
O4 O 0.7884(4) 0.5209(4) 0.1942(3) 0.0256(13) Uani 1 1 d . . .
O5 O 0.6695(4) 0.3100(4) 0.0969(3) 0.0294(14) Uani 1 1 d . . .
O6 O 0.4248(4) 0.2179(5) -0.0019(4) 0.0363(15) Uani 1 1 d . . .
O7 O 0.2666(4) 0.3349(5) -0.0103(4) 0.0334(14) Uani 1 1 d . . .
O8 O 0.2340(4) 0.5232(4) 0.3231(3) 0.0245(12) Uani 1 1 d . . .
O9 O 0.4599(4) 0.7224(5) 0.4520(4) 0.0402(17) Uani 1 1 d . . .
O10 O 0.6864(4) 0.7355(6) 0.5160(4) 0.0425(17) Uani 1 1 d . . .
O11 O 0.7555(4) 0.5556(4) 0.4960(3) 0.0235(12) Uani 1 1 d . . .
O12 O 0.5884(4) 0.3294(5) 0.3773(3) 0.0319(14) Uani 1 1 d . . .
O13 O 0.3337(4) 0.2149(5) 0.2811(3) 0.0355(15) Uani 1 1 d . . .
O14 O 0.1669(4) 0.3101(4) 0.2535(3) 0.0288(13) Uani 1 1 d . . .

loop_
_atom_site_aniso_label
_atom_site_aniso_U_11
_atom_site_aniso_U_22
_atom_site_aniso_U_33
_atom_site_aniso_U_23
_atom_site_aniso_U_13
_atom_site_aniso_U_12
Cl5 0.0742(19) 0.0380(16) 0.0619(18) 0.0202(14) 0.0240(15) 0.0251(14)
Cl6 0.103(4) 0.181(7) 0.099(4) 0.107(5) 0.067(3) 0.105(5)
Cl7 0.120(7) 0.113(7) 0.110(6) 0.076(6) 0.090(6) 0.085(6)
Cl8 0.136(7) 0.234(12) 0.126(7) 0.148(9) 0.104(6) 0.149(9)
Cl9 0.141(9) 0.128(9) 0.175(11) 0.090(9) 0.115(9) 0.071(8)
Cl10 0.037(3) 0.040(3) 0.086(4) 0.023(3) 0.020(3) 0.010(2)
Cl11 0.063(4) 0.050(4) 0.087(4) 0.035(3) 0.046(3) 0.032(3)
O1W 0.067(4) 0.025(3) 0.026(3) 0.014(3) 0.022(3) 0.028(3)
O2W 0.045(3) 0.033(4) 0.025(3) 0.020(3) 0.018(3) 0.025(3)
O3W 0.028(3) 0.043(4) 0.026(3) 0.020(3) 0.007(2) 0.004(3)
O4W 0.039(3) 0.036(4) 0.025(3) 0.020(3) 0.012(3) 0.003(3)
O5W 0.022(3) 0.050(4) 0.034(3) 0.021(3) 0.016(3) 0.014(3)
O6W 0.043(4) 0.050(4) 0.037(4) 0.024(3) 0.028(3) 0.029(3)
O7W 0.030(3) 0.059(5) 0.037(4) 0.035(3) 0.018(3) 0.015(3)
O8W 0.066(4) 0.064(5) 0.032(3) 0.036(4) 0.032(3) 0.049(4)
O9W 0.044(4) 0.054(4) 0.038(4) 0.033(3) 0.029(3) 0.029(3)
O10W 0.064(5) 0.073(5) 0.051(4) 0.048(4) 0.036(4) 0.048(4)
Yb1 0.0238(2) 0.0227(2) 0.0195(2) 0.01503(16) 0.01163(14) 0.01129(15)
Yb2 0.0253(2) 0.0289(2) 0.0213(2) 0.01839(17) 0.01261(14) 0.01352(16)
Cl1 0.0378(13) 0.0298(14) 0.084(2) 0.0204(14) 0.0308(13) 0.0120(11)
Cl2 0.0368(13) 0.0401(15) 0.0496(15) 0.0091(12) 0.0140(11) 0.0093(11)
Cl3 0.0462(14) 0.0514(16) 0.0463(14) 0.0207(13) 0.0033(11) 0.0266(12)
Cl4 0.0421(13) 0.0585(18) 0.0605(17) 0.0337(14) 0.0085(12) 0.0264(13)
Cd1 0.0329(4) 0.0297(4) 0.0499(4) 0.0140(3) 0.0133(3) 0.0128(3)
C1 0.0234(19) 0.028(2) 0.022(2) 0.0188(18) 0.0161(16) 0.0165(17)
C2 0.0234(19) 0.028(2) 0.022(2) 0.0188(18) 0.0161(16) 0.0165(17)
C3 0.029(4) 0.024(4) 0.021(4) 0.013(4) 0.016(3) 0.017(4)
C4 0.0234(19) 0.028(2) 0.022(2) 0.0188(18) 0.0161(16) 0.0165(17)
C5 0.034(4) 0.021(4) 0.022(4) 0.016(4) 0.006(3) 0.009(4)
C6 0.027(4) 0.021(4) 0.022(4) 0.010(4) 0.011(3) 0.007(3)
C7 0.027(4) 0.031(5) 0.030(5) 0.020(4) 0.012(3) 0.015(4)
C8 0.022(4) 0.023(4) 0.027(4) 0.015(4) 0.009(3) 0.010(3)
C9 0.035(4) 0.020(4) 0.022(4) 0.014(4) 0.007(3) 0.013(4)
C10 0.040(5) 0.018(4) 0.018(4) 0.011(4) 0.008(3) 0.006(4)
C11 0.026(2) 0.036(3) 0.042(3) 0.025(3) 0.023(2) 0.020(2)
C12 0.042(5) 0.037(5) 0.018(4) 0.012(4) 0.005(4) 0.021(4)
C13 0.041(5) 0.026(5) 0.025(5) 0.017(4) 0.014(4) 0.012(4)
C14 0.030(4) 0.015(4) 0.018(4) 0.010(3) 0.003(3) 0.006(3)
C15 0.034(4) 0.02