####################################################################### 
# 
# This file contains crystal structure data downloaded from the 
# Cambridge Structural Database (CSD) hosted by the Cambridge 
# Crystallographic Data Centre (CCDC).
# 
# Full information about CCDC data access policies and citation 
# guidelines are available at http://www.ccdc.cam.ac.uk/access/V1 
# 
# Audit and citation data items may have been added by the CCDC. 
# Please retain this information to preserve the provenance of 
# this file and to allow appropriate attribution of the data. 
# 
#######################################################################

data_pw0361
_audit_block_doi                 10.5517/ccnb076
_database_code_depnum_ccdc_archive 'CCDC 605437'
loop_
_citation_id
_citation_doi
_citation_year
1 10.1002/anie.200601627 2007
_audit_update_record             
;
2006-04-22 deposited with the CCDC.	2024-07-11 downloaded from the CCDC.
;


_audit_creation_method           SHELXL-97
_chemical_name_systematic        
;
?
;
_chemical_name_common            'dehydrated CUK-2'
_chemical_melting_point          ?
_chemical_formula_moiety         'C12 H6 Co2 N2 O4 S2'
_chemical_formula_sum            'C12 H6 Co2 N2 O4 S2'
_chemical_formula_weight         424.17

loop_
_atom_type_symbol
_atom_type_description
_atom_type_scat_dispersion_real
_atom_type_scat_dispersion_imag
_atom_type_scat_source
C C 0.0033 0.0016 'International Tables Vol C Tables 4.2.6.8 and 6.1.1.4'
H H 0.0000 0.0000 'International Tables Vol C Tables 4.2.6.8 and 6.1.1.4'
N N 0.0061 0.0033 'International Tables Vol C Tables 4.2.6.8 and 6.1.1.4'
O O 0.0106 0.0060 'International Tables Vol C Tables 4.2.6.8 and 6.1.1.4'
S S 0.1246 0.1234 'International Tables Vol C Tables 4.2.6.8 and 6.1.1.4'
Co Co 0.3494 0.9721 'International Tables Vol C Tables 4.2.6.8 and 6.1.1.4'

_symmetry_cell_setting           orthorhombic
_symmetry_space_group_name_H-M   C222(1)

loop_
_symmetry_equiv_pos_as_xyz
'x, y, z'
'-x, -y, z+1/2'
'-x, y, -z+1/2'
'x, -y, -z'
'x+1/2, y+1/2, z'
'-x+1/2, -y+1/2, z+1/2'
'-x+1/2, y+1/2, -z+1/2'
'x+1/2, -y+1/2, -z'

_cell_length_a                   11.1223(3)
_cell_length_b                   13.5606(4)
_cell_length_c                   12.1518(3)
_cell_angle_alpha                90.00
_cell_angle_beta                 90.00
_cell_angle_gamma                90.00
_cell_volume                     1832.80(9)
_cell_formula_units_Z            4
_cell_measurement_temperature    375(2)
_cell_measurement_reflns_used    4765
_cell_measurement_theta_min      1.00
_cell_measurement_theta_max      27.48

_exptl_crystal_description       block
_exptl_crystal_colour            'deep blue-black'
_exptl_crystal_size_max          0.30
_exptl_crystal_size_mid          0.28
_exptl_crystal_size_min          0.14
_exptl_crystal_density_meas      ?
_exptl_crystal_density_diffrn    1.537
_exptl_crystal_density_method    'not measured'
_exptl_crystal_F_000             840
_exptl_absorpt_coefficient_mu    2.050
_exptl_absorpt_correction_type   multi-scan
_exptl_absorpt_correction_T_min  0.523
_exptl_absorpt_correction_T_max  0.758
_exptl_absorpt_process_details   
;
multi-scan from symmetry-related measurements
Sortav (Blessing 1995)
;

_exptl_special_details           
;
?
;

_diffrn_ambient_temperature      375(2)
_diffrn_radiation_wavelength     0.71073
_diffrn_radiation_type           MoK\a
_diffrn_radiation_source         'fine-focus sealed tube'
_diffrn_measurement_device_type  'Nonius Kappa CCD'
_diffrn_measurement_method       'Thin slice \w and \f scans'
_diffrn_reflns_number            6040
_diffrn_reflns_av_R_equivalents  0.0367
_diffrn_reflns_av_sigmaI/netI    0.0286
_diffrn_reflns_limit_h_min       -13
_diffrn_reflns_limit_h_max       12
_diffrn_reflns_limit_k_min       -13
_diffrn_reflns_limit_k_max       16
_diffrn_reflns_limit_l_min       -14
_diffrn_reflns_limit_l_max       14
_diffrn_reflns_theta_min         3.66
_diffrn_reflns_theta_max         25.00
_reflns_number_total             1613
_reflns_number_gt                1564
_reflns_threshold_expression     >2sigma(I)

_computing_cell_refinement       'HKL Scalepack (Otwinowski & Minor 1997)'
_computing_data_reduction        
;
HKL Denzo and Scalepack (Otwinowski & Minor 1997)
;
_computing_structure_solution    'SIR-92 (Altomare et al. 1994)'
_computing_structure_refinement  'SHELXL-97 (Sheldrick 1997)'
_computing_publication_material  'SHELXL-97 (Sheldrick 1997)'


_refine_special_details          
;
Refinement of F^2^ against ALL reflections. The weighted R-factor wR
and
goodness of fit S are based on F^2^, conventional R-factors R are
based
on F, with F set to zero for negative F^2^. The threshold expression
of
F^2^ > 2sigma(F^2^) is used only for calculating R-factors(gt) etc.
and is
not relevant to the choice of reflections for refinement. R-factors
based
on F^2^ are statistically about twice as large as those based on F,
and R-
factors based on ALL data will be even larger.
;

_refine_ls_structure_factor_coef Fsqd
_refine_ls_matrix_type           full
_refine_ls_weighting_scheme      calc
_refine_ls_weighting_details     
'calc w=1/[\s^2^(Fo^2^)+(0.0131P)^2^+1.1859P] where P=(Fo^2^+2Fc^2^)/3'
_atom_sites_solution_primary     direct
_atom_sites_solution_secondary   difmap
_atom_sites_solution_hydrogens   geom
_refine_ls_hydrogen_treatment    mixed
_refine_ls_extinction_method     none
_refine_ls_extinction_coef       ?
_refine_ls_abs_structure_details 'Flack H D (1983), Acta Cryst. A39, 876-881'
_refine_ls_abs_structure_Flack   0.011(15)
_refine_ls_number_reflns         1613
_refine_ls_number_parameters     113
_refine_ls_number_restraints     0
_refine_ls_R_factor_all          0.0210
_refine_ls_R_factor_gt           0.0198
_refine_ls_wR_factor_ref         0.0454
_refine_ls_wR_factor_gt          0.0448
_refine_ls_goodness_of_fit_ref   1.069
_refine_ls_restrained_S_all      1.069
_refine_ls_shift/su_max          0.001
_refine_ls_shift/su_mean         0.000

loop_
_atom_site_label
_atom_site_type_symbol
_atom_site_fract_x
_atom_site_fract_y
_atom_site_fract_z
_atom_site_U_iso_or_equiv
_atom_site_adp_type
_atom_site_occupancy
_atom_site_symmetry_multiplicity
_atom_site_calc_flag
_atom_site_refinement_flags
_atom_site_disorder_assembly
_atom_site_disorder_group
Co1 Co 0.88122(3) 0.5000 0.5000 0.02486(11) Uani 1 2 d S . .
Co2 Co 1.0000 0.60654(3) 0.7500 0.02938(12) Uani 1 2 d S . .
S1 S 0.83450(5) 0.51127(5) 0.70762(5) 0.03231(14) Uani 1 1 d . . .
N1 N 0.75045(16) 0.60709(15) 0.53940(14) 0.0296(4) Uani 1 1 d . . .
O1 O 0.50698(17) 0.89207(12) 0.52156(14) 0.0447(4) Uani 1 1 d . . .
O2 O 0.54582(17) 0.80593(13) 0.36868(13) 0.0464(5) Uani 1 1 d . . .
C2 C 0.74867(19) 0.60794(18) 0.65021(19) 0.0293(5) Uani 1 1 d . . .
C3 C 0.6865(3) 0.6794(2) 0.7085(2) 0.0468(7) Uani 1 1 d . . .
H3 H 0.690(3) 0.680(2) 0.796(2) 0.047(8) Uiso 1 1 d . . .
C4 C 0.6246(2) 0.7506(2) 0.6502(2) 0.0450(7) Uani 1 1 d . . .
H4 H 0.582(2) 0.800(2) 0.684(2) 0.046(8) Uiso 1 1 d . . .
C5 C 0.6224(2) 0.74747(17) 0.53593(19) 0.0321(5) Uani 1 1 d . . .
C6 C 0.6870(2) 0.67489(16) 0.4841(2) 0.0331(5) Uani 1 1 d . . .
H6 H 0.686(2) 0.6705(19) 0.402(2) 0.049(8) Uiso 1 1 d . . .
C7 C 0.5522(2) 0.82236(17) 0.47085(19) 0.0332(6) Uani 1 1 d . . .

loop_
_atom_site_aniso_label
_atom_site_aniso_U_11
_atom_site_aniso_U_22
_atom_site_aniso_U_33
_atom_site_aniso_U_23
_atom_site_aniso_U_13
_atom_site_aniso_U_12
Co1 0.02538(19) 0.0151(2) 0.0341(2) -0.00101(19) 0.000 0.000
Co2 0.0363(2) 0.0247(2) 0.0272(2) 0.000 -0.0012(2) 0.000
S1 0.0340(3) 0.0271(3) 0.0359(3) 0.0069(3) -0.0050(2) 0.0018(3)
N1 0.0344(10) 0.0259(10) 0.0284(10) 0.0013(8) 0.0019(8) 0.0070(10)
O1 0.0495(9) 0.0342(9) 0.0504(10) -0.0061(8) -0.0110(10) 0.0219(10)
O2 0.0698(12) 0.0344(10) 0.0350(9) 0.0050(8) -0.0018(9) 0.0212(9)
C2 0.0291(11) 0.0268(12) 0.0321(12) 0.0023(10) 0.0006(10) 0.0046(10)
C3 0.0558(17) 0.0579(18) 0.0266(12) 0.0003(12) 0.0017(12) 0.0221(15)
C4 0.0539(16) 0.0458(18) 0.0354(15) -0.0059(12) 0.0049(12) 0.0245(16)
C5 0.0350(11) 0.0276(12) 0.0337(13) 0.0008(10) 0.0015(9) 0.0090(11)
C6 0.0421(12) 0.0285(12) 0.0286(13) 0.0015(11) 0.0023(12) 0.0106(10)
C7 0.0315(11) 0.0254(12) 0.0428(15) 0.0035(11) 0.0004(10) 0.0046(10)

_geom_special_details            
;
All esds (except the esd in the dihedral angle between two l.s.
planes)
are estimated using the full covariance matrix. The cell esds are
taken
into account individually in the estimation of esds in distances,
angles
and torsion angles; correlations between esds in cell parameters are
only
used when they are defined by crystal symmetry. An approximate
(isotropic)
treatment of cell esds is used for estimating esds involving l.s.
planes.
;

loop_
_geom_bond_atom_site_label_1
_geom_bond_atom_site_label_2
_geom_bond_distance
_geom_bond_site_symmetry_2
_geom_bond_publ_flag
Co1 O1 2.0414(17) 8_566 ?
Co1 O1 2.0414(17) 5_545 ?
Co1 N1 2.1103(19) 4_566 ?
Co1 N1 2.1103(19) . ?
Co1 S1 2.5804(6) 4_566 ?
Co1 S1 2.5804(6) . ?
Co2 O2 1.9361(17) 6_665 ?
Co2 O2 1.9361(17) 8_566 ?
Co2 S1 2.3071(6) . ?
Co2 S1 2.3071(6) 3_756 ?
S1 C2 1.765(2) . ?
N1 C6 1.340(3) . ?
N1 C2 1.347(3) . ?
O1 C7 1.235(3) . ?
O1 Co1 2.0414(17) 5_455 ?
O2 C7 1.263(3) . ?
O2 Co2 1.9361(17) 6_664 ?
C2 C3 1.385(4) . ?
C3 C4 1.381(4) . ?
C4 C5 1.390(3) . ?
C5 C6 1.372(3) . ?
C5 C7 1.506(3) . ?

loop_
_geom_angle_atom_site_label_1
_geom_angle_atom_site_label_2
_geom_angle_atom_site_label_3
_geom_angle
_geom_angle_site_symmetry_1
_geom_angle_site_symmetry_3
_geom_angle_publ_flag
O1 Co1 O1 93.50(11) 8_566 5_545 ?
O1 Co1 N1 159.47(7) 8_566 4_566 ?
O1 Co1 N1 90.46(7) 5_545 4_566 ?
O1 Co1 N1 90.46(7) 8_566 . ?
O1 Co1 N1 159.47(7) 5_545 . ?
N1 Co1 N1 92.86(11) 4_566 . ?
O1 Co1 S1 93.15(5) 8_566 4_566 ?
O1 Co1 S1 102.77(5) 5_545 4_566 ?
N1 Co1 S1 66.34(5) 4_566 4_566 ?
N1 Co1 S1 97.11(5) . 4_566 ?
O1 Co1 S1 102.77(5) 8_566 . ?
O1 Co1 S1 93.15(5) 5_545 . ?
N1 Co1 S1 97.11(5) 4_566 . ?
N1 Co1 S1 66.34(5) . . ?
S1 Co1 S1 156.76(3) 4_566 . ?
O2 Co2 O2 104.38(11) 6_665 8_566 ?
O2 Co2 S1 107.43(6) 6_665 . ?
O2 Co2 S1 112.77(5) 8_566 . ?
O2 Co2 S1 112.77(5) 6_665 3_756 ?
O2 Co2 S1 107.43(6) 8_566 3_756 ?
S1 Co2 S1 111.89(3) . 3_756 ?
C2 S1 Co2 95.96(8) . . ?
C2 S1 Co1 76.50(8) . . ?
Co2 S1 Co1 95.21(2) . . ?
C6 N1 C2 119.2(2) . . ?
C6 N1 Co1 136.18(16) . . ?
C2 N1 Co1 104.05(14) . . ?
C7 O1 Co1 139.77(16) . 5_455 ?
C7 O2 Co2 129.70(17) . 6_664 ?
N1 C2 C3 121.7(2) . . ?
N1 C2 S1 112.38(17) . . ?
C3 C2 S1 125.96(19) . . ?
C4 C3 C2 118.4(2) . . ?
C3 C4 C5 120.0(2) . . ?
C6 C5 C4 118.1(2) . . ?
C6 C5 C7 121.0(2) . . ?
C4 C5 C7 120.9(2) . . ?
N1 C6 C5 122.6(2) . . ?
O1 C7 O2 127.0(2) . . ?
O1 C7 C5 117.7(2) . . ?
O2 C7 C5 115.2(2) . . ?

_diffrn_measured_fraction_theta_max 0.995
_diffrn_reflns_theta_full        25.00
_diffrn_measured_fraction_theta_full 0.995
_refine_diff_density_max         0.178
_refine_diff_density_min         -0.253
_refine_diff_density_rms         0.050


