
#######################################################################
#
#                 Cambridge Crystallographic Data Centre
#                                CCDC
#
#######################################################################
#
# If this CIF has been generated from an entry in the Cambridge
# Structural Database, then it will include bibliographic, chemical,
# crystal, experimental, refinement or atomic coordinate data resulting
# from the CCDC's data processing and validation procedures.
#
#######################################################################

data_CSD_CIF_NIBHUC
_audit_creation_date 2007-06-20
_audit_creation_method CSD-ConQuest-V1
_database_code_CSD NIBHUC
_database_code_depnum_ccdc_archive 'CCDC 643189'
_chemical_formula_sum 'C248 H240 Cu12 N64 O92'
_chemical_formula_moiety
;
(C216 H120 Cu12 N56 O60)n,24(H2 O1),8(C4 H9 N1 O1)
;
_journal_coden_Cambridge 4
_journal_volume 129
_journal_year 2007
_journal_page_first 1858
_journal_name_full 'J.Am.Chem.Soc. '
loop_
_publ_author_name
"Shengqian Ma"
"Daofeng Sun"
"M.Ambrogio"
"J.A.Fillinger"
"S.Parkin"
"Hong-Cai Zhou"
_chemical_name_systematic
;
catena-[octakis(\m~6~-s-Heptazine-2,5,8-triyltribenzoato)-dodecaaqua-dodeca-co
pper octakis(dimethylacetamide) hydrate clathrate]
;
_chemical_name_common
;
MOF-HTB; Teaching Subset: MOFs
;
_cell_volume 110988.107
_exptl_crystal_colour 'turquoise'
_exptl_special_details
;
isostructural with the (4,4',4''-s-triazine-2,4,6-triyltribenzoato) analogue

;
_exptl_crystal_description 'block'
_diffrn_ambient_temperature 258
_refine_special_details
;
Disordered solvent molecules were removed using SQUEEZE/PLATON.

;
#These two values have been output from a single CSD field.
_refine_ls_R_factor_gt 0.108
_refine_ls_wR_factor_gt 0.108
_symmetry_cell_setting rhombohedral
_symmetry_space_group_name_H-M 'R -3 m'
_symmetry_Int_Tables_number 166
loop_
_symmetry_equiv_pos_site_id
_symmetry_equiv_pos_as_xyz
1 x,y,z
2 -y,x-y,z
3 -x+y,-x,z
4 y,x,-z
5 2/3+x,1/3+y,1/3+z
6 2/3-y,1/3+x-y,1/3+z
7 2/3-x+y,1/3-x,1/3+z
8 2/3+y,1/3+x,1/3-z
9 1/3+x,2/3+y,2/3+z
10 1/3+y,2/3+x,2/3-z
11 -x,-x+y,-z
12 x-y,-y,-z
13 1/3-y,2/3+x-y,2/3+z
14 1/3-x+y,2/3-x,2/3+z
15 1/3-x,2/3-x+y,2/3-z
16 1/3+x-y,2/3-y,2/3-z
17 2/3-x,1/3-x+y,1/3-z
18 2/3+x-y,1/3-y,1/3-z
19 -x,-y,-z
20 y,-x+y,-z
21 x-y,x,-z
22 -y,-x,z
23 -2/3-x,-1/3-y,-1/3-z
24 -2/3+y,-1/3-x+y,-1/3-z
25 -2/3+x-y,-1/3+x,-1/3-z
26 -2/3-y,-1/3-x,-1/3+z
27 -1/3-x,-2/3-y,-2/3-z
28 -1/3-y,-2/3-x,-2/3+z
29 x,x-y,z
30 -x+y,y,z
31 -1/3+y,-2/3-x+y,-2/3-z
32 -1/3+x-y,-2/3+x,-2/3-z
33 -1/3+x,-2/3+x-y,-2/3+z
34 -1/3-x+y,-2/3+y,-2/3+z
35 -2/3+x,-1/3+x-y,-1/3+z
36 -2/3-x+y,-1/3+y,-1/3+z
_cell_length_a 37.291(2)
_cell_length_b 37.291(2)
_cell_length_c 92.159(3)
_cell_angle_alpha 90
_cell_angle_beta 90
_cell_angle_gamma 120
_cell_formula_units_Z 6
loop_
_atom_type_symbol
_atom_type_radius_bond
C 0.68
H 0.23
Cu 1.48
N 0.68
O 0.68
loop_
_atom_site_label
_atom_site_type_symbol
_atom_site_fract_x
_atom_site_fract_y
_atom_site_fract_z
Cu1 Cu 0.31000(16) 0.15500(8) 0.06333(6)
Cu2 Cu 0.35841(14) 0.17921(7) 0.08628(5)
O1 O 0.2788(6) 0.1763(6) 0.0734(2)
O2 O 0.3197(6) 0.1968(5) 0.09384(19)
O3 O 0.3876(5) 0.1573(5) 0.0753(2)
O4 O 0.3469(7) 0.1366(6) 0.0559(2)
O5 O 0.2701(7) 0.1350(3) 0.0440(2)
O6 O 0.4031(6) 0.2016(3) 0.1042(2)
Cu3 Cu 0.53528(14) -0.00004(16) -0.09199(4)
O7 O 0.5335(6) 0.0084(7) -0.0708(2)
O8 O 0.5042(8) -0.0540(8) -0.0888(2)
O9 O 0.1953(6) 0.3278(7) 0.2198(3)
O10 O 0.5580(7) 0.0587(7) -0.0946(2)
O11 O 0.6036(6) 0.0033(6) -0.0870(2)
C1 C 0.2868(10) 0.1898(6) 0.0851(4)
C2 C 0.2631(12) 0.2026(11) 0.0937(5)
C3 C 0.2285(11) 0.1988(10) 0.0867(3)
H1 H 0.22270 0.18910 0.07720
C4 C 0.2007(10) 0.2105(11) 0.0944(4)
H2 H 0.17710 0.20630 0.08950
C5 C 0.2066(14) 0.2266(11) 0.1079(5)
C6 C 0.2420(11) 0.2303(10) 0.1137(3)
H3 H 0.24990 0.24280 0.12270
C7 C 0.2681(10) 0.2172(10) 0.1073(4)
H4 H 0.28970 0.21870 0.11290
C8 C 0.1788(17) 0.2364(11) 0.1126(6)
N1 N 0.1449(13) 0.2298(7) 0.1066(3)
C9 C 0.1178(6) 0.2357(12) 0.1141(9)
N2 N 0.1238(6) 0.2476(13) 0.1283(6)
C10 C 0.1621(13) 0.2534(10) 0.1333(5)
N3 N 0.1920(9) 0.251(1) 0.1260(4)
C11 C 0.3773(11) 0.1419(6) 0.0633(4)
C12 C 0.4061(11) 0.1258(9) 0.0562(4)
C13 C 0.398(1) 0.1118(10) 0.0421(4)
H5 H 0.37680 0.11200 0.03690
C14 C 0.4223(10) 0.0972(9) 0.0361(3)
H6 H 0.41730 0.08680 0.02670
C15 C 0.4530(12) 0.0985(10) 0.0439(5)
C16 C 0.4661(10) 0.1188(10) 0.0581(4)
H7 H 0.49030 0.12330 0.06260
C17 C 0.441(1) 0.1302(9) 0.0639(3)
H8 H 0.44630 0.14130 0.07320
C18 C 0.4787(14) 0.0880(9) 0.0362(6)
N4 N 0.4749(9) 0.0747(7) 0.0220(4)
C19 C 0.5041(14) 0.0689(7) 0.0171(5)
N5 N 0.5371(7) 0.0743(14) 0.0226(7)
C20 C 0.5426(8) 0.0851(16) 0.0371(9)
N6 N 0.5157(12) 0.0941(6) 0.0434(2)
N7 N 0.4958(7) 0.0546(7) 0.0029(3)
C21 C 0.5241(7) 0.0482(13) -0.0032(7)
C22 C 0.5199(6) 0.0399(12) -0.0201(7)
C23 C 0.4851(9) 0.0361(7) -0.0269(3)
H9 H 0.46550 0.03960 -0.02190
C24 C 0.4812(9) 0.0271(7) -0.0413(3)
H10 H 0.45850 0.02360 -0.04670
C25 C 0.5119(6) 0.0237(12) -0.0472(6)
C26 C 0.5044(7) 0.0088(15) -0.0646(6)
C27 C 0.4589(11) -0.082(2) -0.0869(6)
C28 C 0.4368(13) -0.126(3) -0.0853(7)
C29 C 0.4613(12) -0.1415(11) -0.0871(3)
H11 H 0.48990 -0.12590 -0.08830
C30 C 0.4392(11) -0.1829(12) -0.0870(4)
H12 H 0.45320 -0.19750 -0.08830
C31 C 0.3976(11) -0.205(2) -0.0851(6)
C32 C 0.3721(10) -0.256(2) -0.0843(5)
N8 N 0.3962(10) -0.2732(8) -0.0841(3)
C33 C 0.3753(16) -0.3123(8) -0.0841(4)
N9 N 0.33330 -0.33330 -0.0842(7)
C34 C 0.1554(8) 0.3108(16) 0.2188(7)
C35 C 0.1578(7) 0.3156(14) 0.1999(7)
C36 C 0.1851(11) 0.3072(9) 0.1918(4)
H13 H 0.20970 0.31290 0.19630
C37 C 0.1785(10) 0.2895(10) 0.1760(4)
H14 H 0.19740 0.28460 0.17110
C38 C 0.1411(8) 0.2821(15) 0.1702(7)
C39 C 0.1383(9) 0.2765(19) 0.1562(7)
N10 N 0.1671(9) 0.2708(10) 0.1487(3)
C40 C 0.5410(11) 0.082(2) -0.0962(7)
C41 C 0.5626(12) 0.125(2) -0.0982(5)
C42 C 0.6031(10) 0.1395(11) -0.0976(2)
H15 H 0.61590 0.12360 -0.09680
C43 C 0.6221(13) 0.1810(11) -0.0985(2)
H16 H 0.65090 0.19480 -0.09850
C44 C 0.6035(11) 0.207(2) -0.0996(4)
C45 C 0.623(3) 0.246(5) -0.1016(7)
N11 N 0.6613(16) 0.2688(14) -0.1008(3)
C46 C 0.6888(9) 0.3112(9) -0.1013(5)
N12 N 0.66670 0.33330 -0.1017(4)
O1CA O -0.1025(6) 0.1763(6) 0.0734(2)
O2CA O -0.1229(6) 0.1968(5) 0.09384(19)
O9CA O 0.1325(6) 0.3278(7) 0.2198(3)
C1CA C -0.097(1) 0.1898(6) 0.0851(4)
C2CA C -0.0605(12) 0.2026(11) 0.0937(5)
C3CA C -0.0297(11) 0.1988(10) 0.0867(3)
H1CA H -0.03360 0.18910 0.07720
C4CA C 0.0098(10) 0.2105(11) 0.0944(4)
H2CA H 0.02920 0.20630 0.08950
C5CA C 0.0200(14) 0.2266(11) 0.1079(5)
C6CA C -0.0117(11) 0.2303(10) 0.1137(3)
H3CA H -0.00710 0.24280 0.12270
C7CA C -0.0509(10) 0.2172(10) 0.1073(4)
H4CA H -0.07100 0.21870 0.11290
C8CA C 0.0576(17) 0.2364(11) 0.1126(6)
N1CA N 0.0849(13) 0.2298(7) 0.1066(3)
C10CA C 0.0913(13) 0.2534(10) 0.1333(5)
N3CA N 0.0590(9) 0.251(1) 0.1260(4)
C36CA C 0.1221(11) 0.3072(9) 0.1918(4)
H13CA H 0.10320 0.31290 0.19630
C37CA C 0.111(1) 0.2895(10) 0.1760(4)
H14CA H 0.08720 0.28460 0.17110
N10CA N 0.1037(9) 0.2708(10) 0.1487(3)
O3CA O 0.7697(5) 0.1573(5) 0.0753(2)
O4CA O 0.7897(7) 0.1366(6) 0.0559(2)
O7CA O 0.4749(6) 0.0084(7) -0.0708(2)
C11CA C 0.7646(11) 0.1419(6) 0.0633(4)
C12CA C 0.7197(11) 0.1258(9) 0.0562(4)
C13CA C 0.7138(10) 0.1118(10) 0.0421(4)
H5CA H 0.73520 0.11200 0.03690
C14CA C 0.6749(10) 0.0972(9) 0.0361(3)
H6CA H 0.66950 0.08680 0.02670
C15CA C 0.6455(12) 0.0985(10) 0.0439(5)
C16CA C 0.6527(10) 0.1188(10) 0.0581(4)
H7CA H 0.63300 0.12330 0.06260
C17CA C 0.6892(10) 0.1302(9) 0.0639(3)
H8CA H 0.69500 0.14130 0.07320
C18CA C 0.6093(14) 0.0880(9) 0.0362(6)
N4CA N 0.5998(9) 0.0747(7) 0.0220(4)
C19CA C 0.5648(14) 0.0689(7) 0.0171(5)
N6CA N 0.5784(12) 0.0941(6) 0.0434(2)
N7CA N 0.5588(7) 0.0546(7) 0.0029(3)
C23CA C 0.5510(9) 0.0361(7) -0.0269(3)
H9CA H 0.57410 0.03960 -0.02190
C24CA C 0.5459(9) 0.0271(7) -0.0413(3)
H10CA H 0.56510 0.02360 -0.04670
O8A O 0.0540(8) -0.4418(8) -0.0888(2)
C27A C 0.0820(11) -0.4591(20) -0.0869(6)
C28A C 0.1260(13) -0.4372(30) -0.0853(7)
C29A C 0.1415(12) -0.3972(11) -0.0871(3)
H11A H 0.12590 -0.38420 -0.08830
C30A C 0.1829(11) -0.3779(12) -0.0870(4)
H12A H 0.19750 -0.34930 -0.08830
C31A C 0.2050(11) -0.3974(20) -0.0851(6)
C32A C 0.256(1) -0.3719(20) -0.0843(5)
N8A N 0.2732(10) -0.3306(8) -0.0841(3)
C33A C 0.3123(16) -0.3124(8) -0.0841(4)
O8B O 0.4418(8) -0.5042(8) -0.0888(2)
C27B C 0.4591(11) -0.4589(20) -0.0869(6)
C28B C 0.4372(13) -0.4368(30) -0.0853(7)
C29B C 0.3972(12) -0.4613(11) -0.0871(3)
H11B H 0.38420 -0.48990 -0.08830
C30B C 0.3779(11) -0.4392(12) -0.0870(4)
H12B H 0.34930 -0.45320 -0.08830
C31B C 0.3974(11) -0.3976(20) -0.0851(6)
C32B C 0.3719(10) -0.3721(20) -0.0843(5)
N8B N 0.3306(10) -0.3962(8) -0.0841(3)
C33B C 0.3124(16) -0.3753(8) -0.0841(4)
O8U O 0.0540(8) -0.5042(8) -0.0888(2)
C29U C 0.1415(12) -0.4613(11) -0.0871(3)
H11U H 0.12590 -0.48990 -0.08830
C30U C 0.1829(11) -0.4392(12) -0.0870(4)
H12U H 0.19750 -0.45320 -0.08830
N8U N 0.2732(10) -0.3962(8) -0.0841(3)
O8BA O 0.5042(8) -0.4418(8) -0.0888(2)
C29BA C 0.4613(12) -0.3972(11) -0.0871(3)
H11BA H 0.48990 -0.38420 -0.08830
C30BA C 0.4392(11) -0.3779(12) -0.0870(4)
H12BA H 0.45320 -0.34930 -0.08830
N8BA N 0.3962(10) -0.3306(8) -0.0841(3)
O8CA O 0.4418(8) -0.0540(8) -0.0888(2)
C29CA C 0.3972(12) -0.1415(11) -0.0871(3)
H11CA H 0.38420 -0.12590 -0.08830
C30CA C 0.3779(11) -0.1829(12) -0.0870(4)
H12CA H 0.34930 -0.19750 -0.08830
N8CA N 0.3306(10) -0.2732(8) -0.0841(3)
O10A O 0.9413(7) 0.4993(7) -0.0946(2)
C40A C 0.9180(11) 0.459(2) -0.0962(7)
C41A C 0.8750(12) 0.4376(20) -0.0982(5)
C42A C 0.8605(10) 0.4636(11) -0.0976(2)
H15A H 0.87640 0.49230 -0.09680
C43A C 0.8190(13) 0.4411(11) -0.0985(2)
H16A H 0.80520 0.45610 -0.09850
C44A C 0.7930(11) 0.3965(20) -0.0996(4)
C45A C 0.754(3) 0.377(5) -0.1016(7)
N11A N 0.7312(16) 0.3925(14) -0.1008(3)
C46A C 0.6888(9) 0.3776(9) -0.1013(5)
O10B O 0.5007(7) 0.4420(7) -0.0946(2)
C40B C 0.5410(11) 0.459(2) -0.0962(7)
C41B C 0.5624(12) 0.4374(20) -0.0982(5)
C42B C 0.5364(10) 0.3969(11) -0.0976(2)
H15B H 0.50770 0.38410 -0.09680
C43B C 0.5589(13) 0.3779(11) -0.0985(2)
H16B H 0.54390 0.34910 -0.09850
C44B C 0.6035(11) 0.3965(20) -0.0996(4)
C45B C 0.623(3) 0.377(5) -0.1016(7)
N11B N 0.6075(16) 0.3387(14) -0.1008(3)
C46B C 0.6224(9) 0.3112(9) -0.1013(5)
O10U O 0.9413(7) 0.4420(7) -0.0946(2)
C42U C 0.8605(10) 0.3969(11) -0.0976(2)
H15U H 0.87640 0.38410 -0.09680
C43U C 0.8190(13) 0.3779(11) -0.0985(2)
H16U H 0.80520 0.34910 -0.09850
N11U N 0.7312(16) 0.3387(14) -0.1008(3)
O10BA O 0.5580(7) 0.4993(7) -0.0946(2)
C42BA C 0.6031(10) 0.4636(11) -0.0976(2)
H15BA H 0.61590 0.49230 -0.09680
C43BA C 0.6221(13) 0.4411(11) -0.0985(2)
H16BA H 0.65090 0.45610 -0.09850
N11BA N 0.6613(16) 0.3925(14) -0.1008(3)
O10CA O 0.5007(7) 0.0587(7) -0.0946(2)
C42CA C 0.5364(10) 0.1395(11) -0.0976(2)
H15CA H 0.50770 0.12360 -0.09680
C43CA C 0.5589(13) 0.1810(11) -0.0985(2)
H16CA H 0.54390 0.19480 -0.09850
N11CA N 0.6075(16) 0.2688(14) -0.1008(3)
O3A O -0.1573(5) -0.7697(5) 0.0753(2)
O4A O -0.1366(7) -0.7897(6) 0.0559(2)
Cu3A Cu 0.00004(14) -0.46468(16) -0.09199(4)
O7A O -0.0084(6) -0.4749(7) -0.0708(2)
O11A O -0.0033(6) -0.3997(6) -0.0870(2)
C11A C -0.1419(11) -0.7646(6) 0.0633(4)
C12A C -0.1258(11) -0.7197(9) 0.0562(4)
C13A C -0.1118(10) -0.7138(10) 0.0421(4)
H5A H -0.11200 -0.73520 0.03690
C14A C -0.0972(10) -0.6749(9) 0.0361(3)
H6A H -0.08680 -0.66950 0.02670
C15A C -0.0985(12) -0.6455(10) 0.0439(5)
C16A C -0.1188(10) -0.6527(10) 0.0581(4)
H7A H -0.12330 -0.63300 0.06260
C17A C -0.1302(10) -0.6892(9) 0.0639(3)
H8A H -0.14130 -0.69500 0.07320
C18A C -0.0880(14) -0.6093(9) 0.0362(6)
N4A N -0.0747(9) -0.5998(7) 0.0220(4)
C19A C -0.0689(14) -0.5648(7) 0.0171(5)
N5A N -0.0743(7) -0.5372(14) 0.0226(7)
C20A C -0.0851(8) -0.5425(16) 0.0371(9)
N6A N -0.0941(12) -0.5784(6) 0.0434(2)
N7A N -0.0546(7) -0.5588(7) 0.0029(3)
C21A C -0.0482(7) -0.5241(13) -0.0032(7)
C22A C -0.0399(6) -0.5200(12) -0.0201(7)
C23A C -0.0361(9) -0.5510(7) -0.0269(3)
H9A H -0.03960 -0.57410 -0.02190
C24A C -0.0271(9) -0.5459(7) -0.0413(3)
H10A H -0.02360 -0.56510 -0.04670
C25A C -0.0237(6) -0.5118(12) -0.0472(6)
C26A C -0.0088(7) -0.5044(15) -0.0646(6)
O3U O -0.1573(5) -0.3876(5) 0.0753(2)
O4U O -0.1366(7) -0.3469(6) 0.0559(2)
O7U O -0.0084(6) -0.5335(7) -0.0708(2)
C11U C -0.1419(11) -0.3773(6) 0.0633(4)
C12U C -0.1258(11) -0.4061(9) 0.0562(4)
C13U C -0.1118(10) -0.398(1) 0.0421(4)
H5U H -0.11200 -0.37680 0.03690
C14U C -0.0972(10) -0.4223(9) 0.0361(3)
H6U H -0.08680 -0.41730 0.02670
C15U C -0.0985(12) -0.453(1) 0.0439(5)
C16U C -0.1188(10) -0.4661(10) 0.0581(4)
H7U H -0.12330 -0.49030 0.06260
C17U C -0.1302(10) -0.4410(9) 0.0639(3)
H8U H -0.14130 -0.44630 0.07320
C18U C -0.0880(14) -0.4787(9) 0.0362(6)
N4U N -0.0747(9) -0.4749(7) 0.0220(4)
C19U C -0.0689(14) -0.5041(7) 0.0171(5)
N6U N -0.0941(12) -0.5157(6) 0.0434(2)
N7U N -0.0546(7) -0.4958(7) 0.0029(3)
C23U C -0.0361(9) -0.4851(7) -0.0269(3)
H9U H -0.03960 -0.46550 -0.02190
C24U C -0.0271(9) -0.4812(7) -0.0413(3)
H10U H -0.02360 -0.45850 -0.04670
Cu1A Cu -0.15500(16) 0.15500(8) 0.06333(6)
Cu2A Cu -0.17921(14) 0.17920(7) 0.08628(5)
O1A O -0.1763(6) 0.1025(6) 0.0734(2)
O2A O -0.1968(6) 0.1229(5) 0.09384(19)
O5A O -0.1350(7) 0.1351(3) 0.0440(2)
O6A O -0.2016(6) 0.2015(3) 0.1042(2)
O9A O -0.3278(6) -0.1325(7) 0.2198(3)
C1A C -0.1898(10) 0.0970(6) 0.0851(4)
C2A C -0.2026(12) 0.0605(11) 0.0937(5)
C3A C -0.1988(11) 0.0297(10) 0.0867(3)
H1A H -0.18910 0.03360 0.07720
C4A C -0.2105(10) -0.0098(11) 0.0944(4)
H2A H -0.20630 -0.02920 0.08950
C5A C -0.2266(14) -0.0200(11) 0.1079(5)
C6A C -0.2303(11) 0.0117(10) 0.1137(3)
H3A H -0.24280 0.00710 0.12270
C7A C -0.2172(10) 0.0509(10) 0.1073(4)
H4A H -0.21870 0.07100 0.11290
C8A C -0.2364(17) -0.0576(11) 0.1126(6)
N1A N -0.2298(13) -0.0849(7) 0.1066(3)
C9A C -0.2357(6) -0.1179(12) 0.1141(9)
N2A N -0.2476(6) -0.1238(13) 0.1283(6)
C10A C -0.2534(13) -0.0913(10) 0.1333(5)
N3A N -0.2510(9) -0.059(1) 0.1260(4)
C34A C -0.3108(8) -0.1554(16) 0.2188(7)
C35A C -0.3156(7) -0.1578(14) 0.1999(7)
C36A C -0.3072(11) -0.1221(9) 0.1918(4)
H13A H -0.31290 -0.10320 0.19630
C37A C -0.2895(10) -0.111(1) 0.1760(4)
H14A H -0.28460 -0.08720 0.17110
C38A C -0.2821(8) -0.1410(15) 0.1702(7)
C39A C -0.2765(9) -0.1382(19) 0.1562(7)
N10A N -0.2708(9) -0.1037(10) 0.1487(3)
O1U O -0.1763(6) -0.2788(6) 0.0734(2)
O2U O -0.1968(6) -0.3197(5) 0.09384(19)
O9U O -0.3278(6) -0.1953(7) 0.2198(3)
C1U C -0.1898(10) -0.2868(6) 0.0851(4)
C2U C -0.2026(12) -0.2631(11) 0.0937(5)
C3U C -0.1988(11) -0.2285(10) 0.0867(3)
H1U H -0.18910 -0.22270 0.07720
C4U C -0.2105(10) -0.2007(11) 0.0944(4)
H2U H -0.20630 -0.17710 0.08950
C5U C -0.2266(14) -0.2066(11) 0.1079(5)
C6U C -0.2303(11) -0.242(1) 0.1137(3)
H3U H -0.24280 -0.24990 0.12270
C7U C -0.2172(10) -0.2681(10) 0.1073(4)
H4U H -0.21870 -0.28970 0.11290
C8U C -0.2364(17) -0.1788(11) 0.1126(6)
N1U N -0.2298(13) -0.1449(7) 0.1066(3)
C10U C -0.2534(13) -0.1621(10) 0.1333(5)
N3U N -0.2510(9) -0.192(1) 0.1260(4)
C36U C -0.3072(11) -0.1851(9) 0.1918(4)
H13U H -0.31290 -0.20970 0.19630
C37U C -0.2895(10) -0.1785(10) 0.1760(4)
H14U H -0.28460 -0.19740 0.17110
N10U N -0.2708(9) -0.1671(10) 0.1487(3)
Cu1A* Cu 0.84500(16) 0.15500(8) 0.06333(6)
Cu2A* Cu 0.82079(14) 0.17920(7) 0.08628(5)
O3A* O 0.8427(5) 0.2303(5) 0.0753(2)
O4A* O 0.8634(7) 0.2103(6) 0.0559(2)
O5A* O 0.8650(7) 0.1351(3) 0.0440(2)
O6A* O 0.7984(6) 0.2015(3) 0.1042(2)
Cu3A* Cu 1.00004(14) 0.53532(16) -0.09199(4)
O7A* O 0.9916(6) 0.5251(7) -0.0708(2)
O11A* O 0.9967(6) 0.6003(6) -0.0870(2)
C11A* C 0.8581(11) 0.2354(6) 0.0633(4)
C12A* C 0.8742(11) 0.2803(9) 0.0562(4)
C13A* C 0.8882(10) 0.2862(10) 0.0421(4)
H5A* H 0.88800 0.26480 0.03690
C14A* C 0.9028(10) 0.3251(9) 0.0361(3)
H6A* H 0.91320 0.33050 0.02670
C15A* C 0.9015(12) 0.3545(10) 0.0439(5)
C16A* C 0.8812(10) 0.3473(10) 0.0581(4)
H7A* H 0.87670 0.36700 0.06260
C17A* C 0.8698(10) 0.3108(9) 0.0639(3)
H8A* H 0.85870 0.30500 0.07320
C18A* C 0.9120(14) 0.3907(9) 0.0362(6)
N4A* N 0.9253(9) 0.4002(7) 0.0220(4)
C19A* C 0.9311(14) 0.4352(7) 0.0171(5)
N5A* N 0.9257(7) 0.4628(14) 0.0226(7)
C20A* C 0.9149(8) 0.4575(16) 0.0371(9)
N6A* N 0.9059(12) 0.4216(6) 0.0434(2)
N7A* N 0.9454(7) 0.4412(7) 0.0029(3)
C21A* C 0.9518(7) 0.4759(13) -0.0032(7)
C22A* C 0.9601(6) 0.4800(12) -0.0201(7)
C23A* C 0.9639(9) 0.4490(7) -0.0269(3)
H9A* H 0.96040 0.42590 -0.02190
C24A* C 0.9729(9) 0.4541(7) -0.0413(3)
H10A* H 0.97640 0.43490 -0.04670
C25A* C 0.9763(6) 0.4882(12) -0.0472(6)
C26A* C 0.9912(7) 0.4956(15) -0.0646(6)
O3U* O 0.8427(5) 0.6124(5) 0.0753(2)
O4U* O 0.8634(7) 0.6531(6) 0.0559(2)
O7U* O 0.9916(6) 0.4665(7) -0.0708(2)
C11U* C 0.8581(11) 0.6227(6) 0.0633(4)
C12U* C 0.8742(11) 0.5939(9) 0.0562(4)
C13U* C 0.8882(10) 0.602(1) 0.0421(4)
H5U* H 0.88800 0.62320 0.03690
C14U* C 0.9028(10) 0.5777(9) 0.0361(3)
H6U* H 0.91320 0.58270 0.02670
C15U* C 0.9015(12) 0.547(1) 0.0439(5)
C16U* C 0.8812(10) 0.5339(10) 0.0581(4)
H7U* H 0.87670 0.50970 0.06260
C17U* C 0.8698(10) 0.5590(9) 0.0639(3)
H8U* H 0.85870 0.55370 0.07320
C18U* C 0.9120(14) 0.5213(9) 0.0362(6)
N4U* N 0.9253(9) 0.5251(7) 0.0220(4)
C19U* C 0.9311(14) 0.4959(7) 0.0171(5)
N6U* N 0.9059(12) 0.4843(6) 0.0434(2)
N7U* N 0.9454(7) 0.5042(7) 0.0029(3)
C23U* C 0.9639(9) 0.5149(7) -0.0269(3)
H9U* H 0.96040 0.53450 -0.02190
C24U* C 0.9729(9) 0.5188(7) -0.0413(3)
H10U* H 0.97640 0.54150 -0.04670
O1BA O 0.2788(6) 0.1025(6) 0.0734(2)
O2BA O 0.3197(6) 0.1229(5) 0.09384(19)
O9BA O 0.1953(6) -0.1325(7) 0.2198(3)
C1BA C 0.2868(10) 0.0970(6) 0.0851(4)
C2BA C 0.2631(12) 0.0605(11) 0.0937(5)
C3BA C 0.2285(11) 0.0297(10) 0.0867(3)
H1BA H 0.22270 0.03360 0.07720
C4BA C 0.2007(10) -0.0098(11) 0.0944(4)
H2BA H 0.17710 -0.02920 0.08950
C5BA C 0.2066(14) -0.0200(11) 0.1079(5)
C6BA C 0.2420(11) 0.0117(10) 0.1137(3)
H3BA H 0.24990 0.00710 0.12270
C7BA C 0.2681(10) 0.0509(10) 0.1073(4)
H4BA H 0.28970 0.07100 0.11290
C8BA C 0.1788(17) -0.0576(11) 0.1126(6)
N1BA N 0.1449(13) -0.0849(7) 0.1066(3)
C9B C 0.1179(6) -0.1178(12) 0.1141(9)
N2B N 0.1238(6) -0.1238(13) 0.1283(6)
C10BA C 0.1621(13) -0.0913(10) 0.1333(5)
N3BA N 0.1920(9) -0.059(1) 0.1260(4)
C34B C 0.1554(8) -0.1554(16) 0.2188(7)
C35B C 0.1578(7) -0.1578(14) 0.1999(7)
C36BA C 0.1851(11) -0.1221(9) 0.1918(4)
H13BA H 0.20970 -0.10320 0.19630
C37BA C 0.1785(10) -0.111(1) 0.1760(4)
H14BA H 0.19740 -0.08720 0.17110
C38B C 0.1410(8) -0.1411(15) 0.1702(7)
C39B C 0.1382(9) -0.1383(19) 0.1562(7)
N10BA N 0.1671(9) -0.1037(10) 0.1487(3)
O1B O -0.1025(6) -0.2788(6) 0.0734(2)
O2B O -0.1229(6) -0.3197(5) 0.09384(19)
O9B O 0.1325(6) -0.1953(7) 0.2198(3)
C1B C -0.097(1) -0.2868(6) 0.0851(4)
C2B C -0.0605(12) -0.2631(11) 0.0937(5)
C3B C -0.0297(11) -0.2285(10) 0.0867(3)
H1B H -0.03360 -0.22270 0.07720
C4B C 0.0098(10) -0.2007(11) 0.0944(4)
H2B H 0.02920 -0.17710 0.08950
C5B C 0.0200(14) -0.2066(11) 0.1079(5)
C6B C -0.0117(11) -0.242(1) 0.1137(3)
H3B H -0.00710 -0.24990 0.12270
C7B C -0.0509(10) -0.2681(10) 0.1073(4)
H4B H -0.07100 -0.28970 0.11290
C8B C 0.0576(17) -0.1788(11) 0.1126(6)
N1B N 0.0849(13) -0.1449(7) 0.1066(3)
C10B C 0.0913(13) -0.1621(10) 0.1333(5)
N3B N 0.0590(9) -0.192(1) 0.1260(4)
C36B C 0.1221(11) -0.1851(9) 0.1918(4)
H13B H 0.10320 -0.20970 0.19630
C37B C 0.111(1) -0.1785(10) 0.1760(4)
H14B H 0.08720 -0.19740 0.17110
N10B N 0.1037(9) -0.1671(10) 0.1487(3)
Cu3CA Cu 0.46468(14) -0.00004(16) -0.09199(4)
O11CA O 0.3997(6) 0.0033(6) -0.0870(2)
Cu3D Cu 0.201947(140) 0.333293(160) 0.241343(40)
O11D O 0.270267(600) 0.336633(600) 0.246333(200)
Cu3GA Cu 0.131347(140) 0.333293(160) 0.241343(40)
O11GA O 0.066367(600) 0.336633(600) 0.246333(200)
Cu1A** Cu -0.15500(16) -0.84500(8) 0.06333(6)
Cu1B Cu -0.15500(16) -0.31000(8) 0.06333(6)
Cu1B* Cu 0.84500(16) 0.69000(8) 0.06333(6)
Cu2A** Cu -0.17921(14) -0.82080(7) 0.08628(5)
Cu2B Cu -0.17920(14) -0.35841(7) 0.08628(5)
Cu2B* Cu 0.82080(14) 0.64159(7) 0.08628(5)
O1A* O 0.8237(6) 0.1025(6) 0.0734(2)
O1CA* O 0.8975(6) 0.1763(6) 0.0734(2)
O2A* O 0.8032(6) 0.1229(5) 0.09384(19)
O2CA* O 0.8771(6) 0.1968(5) 0.09384(19)
O3A** O -0.1573(5) 0.2303(5) 0.0753(2)
O3BA O 0.3876(5) 0.2303(5) 0.0753(2)
O3CA* O -0.2303(5) 0.1573(5) 0.0753(2)
O4A** O -0.1366(7) 0.2103(6) 0.0559(2)
O4BA O 0.3469(7) 0.2103(6) 0.0559(2)
O4CA* O -0.2103(7) 0.1366(6) 0.0559(2)
Cu3B Cu 0.46468(14) -0.53528(16) -0.09199(4)
Cu3B* Cu 0.46468(14) 0.46472(16) -0.09199(4)
Cu3E Cu -0.333293(140) -0.131347(160) 0.241343(40)
Cu3F Cu 0.131347(140) -0.201947(160) 0.241343(40)
Cu3U Cu 0.00004(14) -0.53528(16) -0.09199(4)
Cu3U* Cu 1.00004(14) 0.46472(16) -0.09199(4)
Cu3AA Cu -0.333293(140) -0.201947(160) 0.241343(40)
Cu3BA Cu 0.53528(14) -0.46468(16) -0.09199(4)
Cu3BA* Cu 0.53528(14) 0.53532(16) -0.09199(4)
Cu3FA Cu 0.201947(140) -0.131347(160) 0.241343(40)
O7D O 0.200167(600) 0.341733(700) 0.262533(200)
O7GA O 0.141567(600) 0.341733(700) 0.262533(200)
O8A* O 1.0540(8) 0.5582(8) -0.0888(2)
O8D O 0.170867(800) 0.279333(800) 0.244533(200)
O8GA O 0.108467(800) 0.279333(800) 0.244533(200)
O9H O 0.528633(600) -0.005533(700) -0.113533(300)
O9L O 0.005533(600) -0.465833(700) -0.113533(300)
O9L* O 1.005533(600) 0.534167(700) -0.113533(300)
O9IA O 0.465833(600) -0.005533(700) -0.113533(300)
O10A* O -0.0587(7) -0.5007(7) -0.0946(2)
O10D O 0.224667(700) 0.392033(700) 0.238733(200)
O10GA O 0.167367(700) 0.392033(700) 0.238733(200)
#END
