
#######################################################################
#
#                 Cambridge Crystallographic Data Centre
#                                CCDC
#
#######################################################################
#
# If this CIF has been generated from an entry in the Cambridge
# Structural Database, then it will include bibliographic, chemical,
# crystal, experimental, refinement or atomic coordinate data resulting
# from the CCDC's data processing and validation procedures.
#
#######################################################################

data_CSD_CIF_NIBJAK
_audit_creation_date 2007-06-20
_audit_creation_method CSD-ConQuest-V1
_database_code_CSD NIBJAK
_database_code_depnum_ccdc_archive 'CCDC 643190'
_chemical_formula_sum 'C116 H86 Cu6 N30 O36'
_chemical_formula_moiety
;
(C108 H60 Cu6 N28 O30)n,4n(H2 O1),2n(C4 H9 N1 O1)
;
_journal_coden_Cambridge 4
_journal_volume 129
_journal_year 2007
_journal_page_first 1858
_journal_name_full 'J.Am.Chem.Soc. '
loop_
_publ_author_name
"Shengqian Ma"
"Daofeng Sun"
"M.Ambrogio"
"J.A.Fillinger"
"S.Parkin"
"Hong-Cai Zhou"
_chemical_name_systematic
;
catena-[tetrakis(\m~6~-s-Heptazine-2,5,8-triyltribenzoato)-hexaaqua-hexa-coppe
r bis(dimethylacetamide) tetrahydrate clathrate]
;
_chemical_name_common
;
MOF-HTB'; Teaching Subset: MOFs
;
_cell_volume 148818.019
_exptl_crystal_density_diffrn 0.232
_exptl_special_details
;
isostructural with the (benzene-1,3,5-tricarboxylato), 
(4,4',4''-s-triazine-2,4,6-triyltri(p-aminobenzoato)) and the 
(4,4',4''-s-triazine-2,4,6-triyltribenzoato) analogues
;
_diffrn_ambient_temperature 295
_refine_special_details
;
Disordered solvent molecules were removed using SQUEEZE/PLATON.

;
#These two values have been output from a single CSD field.
_refine_ls_R_factor_gt 0.0417
_refine_ls_wR_factor_gt 0.0417
_symmetry_cell_setting cubic
_symmetry_space_group_name_H-M 'F m -3 m'
_symmetry_Int_Tables_number 225
loop_
_symmetry_equiv_pos_site_id
_symmetry_equiv_pos_as_xyz
1 x,y,z
2 z,x,y
3 y,z,x
4 y,x,-z
5 y,-x,z
6 -y,x,z
7 x,z,-y
8 -x,z,y
9 x,-z,y
10 z,y,-x
11 z,-y,x
12 -z,y,x
13 x,1/2+y,1/2+z
14 z,1/2+x,1/2+y
15 y,1/2+z,1/2+x
16 y,1/2+x,1/2-z
17 y,1/2-x,1/2+z
18 -y,1/2+x,1/2+z
19 x,1/2+z,1/2-y
20 -x,1/2+z,1/2+y
21 x,1/2-z,1/2+y
22 z,1/2+y,1/2-x
23 z,1/2-y,1/2+x
24 -z,1/2+y,1/2+x
25 1/2+x,y,1/2+z
26 1/2+z,x,1/2+y
27 1/2+y,z,1/2+x
28 1/2+y,x,1/2-z
29 1/2+y,-x,1/2+z
30 1/2-y,x,1/2+z
31 1/2+x,z,1/2-y
32 1/2-x,z,1/2+y
33 1/2+x,-z,1/2+y
34 1/2+z,y,1/2-x
35 1/2+z,-y,1/2+x
36 1/2-z,y,1/2+x
37 1/2+x,1/2+y,z
38 1/2+z,1/2+x,y
39 1/2+y,1/2+z,x
40 1/2+y,1/2+x,-z
41 1/2+y,1/2-x,z
42 1/2-y,1/2+x,z
43 1/2+x,1/2+z,-y
44 1/2-x,1/2+z,y
45 1/2+x,1/2-z,y
46 1/2+z,1/2+y,-x
47 1/2+z,1/2-y,x
48 1/2-z,1/2+y,x
49 -x,-y,z
50 -x,y,-z
51 x,-y,-z
52 z,-x,-y
53 -z,-x,y
54 -z,x,-y
55 -y,z,-x
56 y,-z,-x
57 -y,-z,x
58 -y,-x,-z
59 -x,-z,-y
60 -z,-y,-x
61 -x,1/2-y,1/2+z
62 -x,1/2+y,1/2-z
63 x,1/2-y,1/2-z
64 z,1/2-x,1/2-y
65 -z,1/2-x,1/2+y
66 -z,1/2+x,1/2-y
67 -y,1/2+z,1/2-x
68 y,1/2-z,1/2-x
69 -y,1/2-z,1/2+x
70 -y,1/2-x,1/2-z
71 -x,1/2-z,1/2-y
72 -z,1/2-y,1/2-x
73 1/2-x,-y,1/2+z
74 1/2-x,y,1/2-z
75 1/2+x,-y,1/2-z
76 1/2+z,-x,1/2-y
77 1/2-z,-x,1/2+y
78 1/2-z,x,1/2-y
79 1/2-y,z,1/2-x
80 1/2+y,-z,1/2-x
81 1/2-y,-z,1/2+x
82 1/2-y,-x,1/2-z
83 1/2-x,-z,1/2-y
84 1/2-z,-y,1/2-x
85 1/2-x,1/2-y,z
86 1/2-x,1/2+y,-z
87 1/2+x,1/2-y,-z
88 1/2+z,1/2-x,-y
89 1/2-z,1/2-x,y
90 1/2-z,1/2+x,-y
91 1/2-y,1/2+z,-x
92 1/2+y,1/2-z,-x
93 1/2-y,1/2-z,x
94 1/2-y,1/2-x,-z
95 1/2-x,1/2-z,-y
96 1/2-z,1/2-y,-x
97 -x,-y,-z
98 -z,-x,-y
99 -y,-z,-x
100 -y,-x,z
101 -y,x,-z
102 y,-x,-z
103 -x,-z,y
104 x,-z,-y
105 -x,z,-y
106 -z,-y,x
107 -z,y,-x
108 z,-y,-x
109 -x,-1/2-y,-1/2-z
110 -z,-1/2-x,-1/2-y
111 -y,-1/2-z,-1/2-x
112 -y,-1/2-x,-1/2+z
113 -y,-1/2+x,-1/2-z
114 y,-1/2-x,-1/2-z
115 -x,-1/2-z,-1/2+y
116 x,-1/2-z,-1/2-y
117 -x,-1/2+z,-1/2-y
118 -z,-1/2-y,-1/2+x
119 -z,-1/2+y,-1/2-x
120 z,-1/2-y,-1/2-x
121 -1/2-x,-y,-1/2-z
122 -1/2-z,-x,-1/2-y
123 -1/2-y,-z,-1/2-x
124 -1/2-y,-x,-1/2+z
125 -1/2-y,x,-1/2-z
126 -1/2+y,-x,-1/2-z
127 -1/2-x,-z,-1/2+y
128 -1/2+x,-z,-1/2-y
129 -1/2-x,z,-1/2-y
130 -1/2-z,-y,-1/2+x
131 -1/2-z,y,-1/2-x
132 -1/2+z,-y,-1/2-x
133 -1/2-x,-1/2-y,-z
134 -1/2-z,-1/2-x,-y
135 -1/2-y,-1/2-z,-x
136 -1/2-y,-1/2-x,z
137 -1/2-y,-1/2+x,-z
138 -1/2+y,-1/2-x,-z
139 -1/2-x,-1/2-z,y
140 -1/2+x,-1/2-z,-y
141 -1/2-x,-1/2+z,-y
142 -1/2-z,-1/2-y,x
143 -1/2-z,-1/2+y,-x
144 -1/2+z,-1/2-y,-x
145 x,y,-z
146 x,-y,z
147 -x,y,z
148 -z,x,y
149 z,x,-y
150 z,-x,y
151 y,-z,x
152 -y,z,x
153 y,z,-x
154 y,x,z
155 x,z,y
156 z,y,x
157 x,-1/2+y,-1/2-z
158 x,-1/2-y,-1/2+z
159 -x,-1/2+y,-1/2+z
160 -z,-1/2+x,-1/2+y
161 z,-1/2+x,-1/2-y
162 z,-1/2-x,-1/2+y
163 y,-1/2-z,-1/2+x
164 -y,-1/2+z,-1/2+x
165 y,-1/2+z,-1/2-x
166 y,-1/2+x,-1/2+z
167 x,-1/2+z,-1/2+y
168 z,-1/2+y,-1/2+x
169 -1/2+x,y,-1/2-z
170 -1/2+x,-y,-1/2+z
171 -1/2-x,y,-1/2+z
172 -1/2-z,x,-1/2+y
173 -1/2+z,x,-1/2-y
174 -1/2+z,-x,-1/2+y
175 -1/2+y,-z,-1/2+x
176 -1/2-y,z,-1/2+x
177 -1/2+y,z,-1/2-x
178 -1/2+y,x,-1/2+z
179 -1/2+x,z,-1/2+y
180 -1/2+z,y,-1/2+x
181 -1/2+x,-1/2+y,-z
182 -1/2+x,-1/2-y,z
183 -1/2-x,-1/2+y,z
184 -1/2-z,-1/2+x,y
185 -1/2+z,-1/2+x,-y
186 -1/2+z,-1/2-x,y
187 -1/2+y,-1/2-z,x
188 -1/2-y,-1/2+z,x
189 -1/2+y,-1/2+z,-x
190 -1/2+y,-1/2+x,z
191 -1/2+x,-1/2+z,y
192 -1/2+z,-1/2+y,x
_cell_length_a 52.993(6)
_cell_length_b 52.993(6)
_cell_length_c 52.993(6)
_cell_angle_alpha 90
_cell_angle_beta 90
_cell_angle_gamma 90
_cell_formula_units_Z 8
loop_
_atom_type_symbol
_atom_type_radius_bond
C 0.68
H 0.23
Cu 1.52
N 0.68
O 0.68
loop_
_atom_site_label
_atom_site_type_symbol
_atom_site_fract_x
_atom_site_fract_y
_atom_site_fract_z
Cu1 Cu 0.00000 0.267747(5) 0.232253(5)
O1 O -0.026017(18) 0.283394(19) 0.25379(2)
O2 O 0.00000 0.29671(3) 0.20329(3)
C1 C -0.03336(4) 0.27314(3) 0.27314(3)
C2 C -0.05451(4) 0.28750(3) 0.28750(3)
C3 C -0.06415(3) 0.30905(3) 0.27820(3)
H1 H -0.05710 0.31590 0.26370
C4 C -0.08421(3) 0.32147(3) 0.28947(3)
H2 H -0.09080 0.33610 0.28240
C5 C -0.09426(4) 0.31163(3) 0.31163(3)
C6 C -0.11502(4) 0.32397(3) 0.32397(3)
N1 N -0.12460(3) 0.31258(2) 0.34461(3)
C7 C -0.14469(3) 0.32307(4) 0.35531(3)
N2 N -0.15522(4) 0.34478(4) 0.34478(4)
Cu1G Cu 0.00000 0.232253(5) 0.267747(5)
Cu1Z Cu -0.23225 0.232253(5) 0.500000(5)
Cu1GA Cu -0.26775 0.267747(5) 0.500000(5)
Cu1KA Cu -0.26775 0.500000(5) 0.267747(5)
Cu1NA Cu -0.23225 0.500000(5) 0.232253(5)
Cu1E Cu -0.26775 0.000000(5) 0.232253(5)
Cu1AA Cu -0.23225 0.000000(5) 0.267747(5)
Cu1V Cu 0.23225 0.232253(5) 0.500000(5)
Cu1D Cu 0.26775 0.000000(5) 0.232253(5)
Cu1A Cu 0.23225 0.000000(5) 0.267747(5)
Cu1B Cu 0.26775 0.232253(5) 0.000000(5)
Cu1I Cu 0.23225 0.267747(5) 0.000000(5)
Cu1IA Cu 0.26775 0.267747(5) 0.500000(5)
Cu1OA Cu 0.23225 0.500000(5) 0.232253(5)
Cu1O Cu 0.26775 0.500000(5) 0.267747(5)
Cu1TA Cu -0.26775 0.232253(5) 0.000000(5)
Cu1K Cu -0.23225 0.267747(5) 0.000000(5)
O1PE O 0.026017(18) 0.283394(19) 0.25379(2)
O1KD O -0.026017(18) 0.246210(19) 0.216606(20)
O1RB O 0.026017(18) 0.246210(19) 0.216606(20)
O1XE O -0.026017(18) 0.253790(19) 0.283394(20)
O1G O 0.026017(18) 0.253790(19) 0.283394(20)
O1DD O 0.026017(18) 0.216606(19) 0.24621(2)
O1JB O -0.026017(18) 0.216606(19) 0.24621(2)
O1Z O -0.216606(18) 0.253790(19) 0.473983(20)
O1WF O -0.246210(18) 0.283394(19) 0.473983(20)
O1KA O -0.246210(18) 0.473983(19) 0.283394(20)
O1GG O -0.216606(18) 0.473983(19) 0.25379(2)
O1TF O -0.216606(18) 0.253790(19) 0.526017(20)
O1MD O -0.253790(18) 0.216606(19) 0.473983(20)
O1SB O -0.253790(18) 0.216606(19) 0.526017(20)
O1GA O -0.246210(18) 0.283394(19) 0.526017(20)
O1FD O -0.283394(18) 0.246210(19) 0.526017(20)
O1PB O -0.283394(18) 0.246210(19) 0.473983(20)
O1UD O -0.216606(18) 0.026017(19) 0.24621(2)
O1WB O -0.246210(18) 0.026017(19) 0.216606(20)
O1DE O 0.216606(18) 0.246210(19) 0.026017(20)
O1QC O 0.246210(18) 0.216606(19) 0.026017(20)
O1QD O 0.246210(18) 0.026017(19) 0.216606(20)
O1CC O 0.216606(18) 0.026017(19) 0.24621(2)
O1IA O 0.246210(18) 0.283394(19) 0.473983(20)
O1SF O 0.216606(18) 0.253790(19) 0.473983(20)
O1ME O -0.246210(18) 0.216606(19) 0.026017(20)
O1MC O -0.216606(18) 0.246210(19) 0.026017(20)
O1OA O 0.216606(18) 0.473983(19) 0.25379(2)
O1AG O 0.246210(18) 0.473983(19) 0.283394(20)
O1K O -0.253790(18) 0.283394(19) -0.026017(20)
O1DG O -0.216606(18) 0.246210(19) -0.026017(20)
O1BD O -0.253790(18) 0.283394(19) 0.026017(20)
O1TA O -0.246210(18) 0.216606(19) -0.026017(20)
O1UE O -0.283394(18) 0.253790(19) -0.026017(20)
O1BB O -0.283394(18) 0.253790(19) 0.026017(20)
O2G O 0.00000 0.20329(3) 0.29671(3)
O2Z O -0.20329 0.20329(3) 0.50000(3)
O2GA O -0.29671 0.29671(3) 0.50000(3)
O2K O -0.20329 0.29671(3) 0.00000(3)
O2TA O -0.29671 0.20329(3) 0.00000(3)
C1G C 0.03336(4) 0.27314(3) 0.27314(3)
C1KD C -0.03336(4) 0.22686(3) 0.22686(3)
C1DD C 0.03336(4) 0.22686(3) 0.22686(3)
C1Z C -0.22686(4) 0.27314(3) 0.46664(3)
C1KA C -0.22686(4) 0.46664(3) 0.27314(3)
C1DE C 0.22686(4) 0.22686(3) 0.03336(3)
C1QD C 0.22686(4) 0.03336(3) 0.22686(3)
C1OA C 0.22686(4) 0.46664(3) 0.27314(3)
C1IA C 0.22686(4) 0.27314(3) 0.46664(3)
C1UD C -0.22686(4) 0.03336(3) 0.22686(3)
C1ME C -0.22686(4) 0.22686(3) 0.03336(3)
C2G C 0.05451(4) 0.28750(3) 0.28750(3)
C2KD C -0.05451(4) 0.21250(3) 0.21250(3)
C2DD C 0.05451(4) 0.21250(3) 0.21250(3)
C2Z C -0.21250(4) 0.28750(3) 0.44549(3)
C2KA C -0.21250(4) 0.44549(3) 0.28750(3)
C2UD C -0.21250(4) 0.05451(3) 0.21250(3)
C2QD C 0.21250(4) 0.05451(3) 0.21250(3)
C2DE C 0.21250(4) 0.21250(3) 0.05451(3)
C2IA C 0.21250(4) 0.28750(3) 0.44549(3)
C2OA C 0.21250(4) 0.44549(3) 0.28750(3)
C2ME C -0.21250(4) 0.21250(3) 0.05451(3)
C3XE C -0.06415(3) 0.27820(3) 0.30905(3)
C3G C 0.06415(3) 0.27820(3) 0.30905(3)
C3PE C 0.06415(3) 0.30905(3) 0.27820(3)
C3KD C -0.06415(3) 0.22180(3) 0.19095(3)
C3JB C -0.06415(3) 0.19095(3) 0.22180(3)
C3DD C 0.06415(3) 0.19095(3) 0.22180(3)
C3RB C 0.06415(3) 0.22180(3) 0.19095(3)
C3Z C -0.19095(3) 0.27820(3) 0.43585(3)
C3WF C -0.22180(3) 0.30905(3) 0.43585(3)
C3KA C -0.22180(3) 0.43585(3) 0.30905(3)
C3GG C -0.19095(3) 0.43585(3) 0.27820(3)
C3WB C -0.22180(3) 0.06415(3) 0.19095(3)
C3UD C -0.19095(3) 0.06415(3) 0.22180(3)
C3QD C 0.22180(3) 0.06415(3) 0.19095(3)
C3CC C 0.19095(3) 0.06415(3) 0.22180(3)
C3QC C 0.22180(3) 0.19095(3) 0.06415(3)
C3DE C 0.19095(3) 0.22180(3) 0.06415(3)
C3SF C 0.19095(3) 0.27820(3) 0.43585(3)
C3IA C 0.22180(3) 0.30905(3) 0.43585(3)
C3AG C 0.22180(3) 0.43585(3) 0.30905(3)
C3OA C 0.19095(3) 0.43585(3) 0.27820(3)
C3ME C -0.22180(3) 0.19095(3) 0.06415(3)
C3MC C -0.19095(3) 0.22180(3) 0.06415(3)
H1XE H -0.05710 0.26370 0.31590
H1G H 0.05710 0.26370 0.31590
H1PE H 0.05710 0.31590 0.26370
H1KD H -0.05710 0.23630 0.18410
H1JB H -0.05710 0.18410 0.23630
H1DD H 0.05710 0.18410 0.23630
H1RB H 0.05710 0.23630 0.18410
H1Z H -0.18410 0.26370 0.44290
H1WF H -0.23630 0.31590 0.44290
H1KA H -0.23630 0.44290 0.31590
H1GG H -0.18410 0.44290 0.26370
H1WB H -0.23630 0.05710 0.18410
H1UD H -0.18410 0.05710 0.23630
H1QD H 0.23630 0.05710 0.18410
H1CC H 0.18410 0.05710 0.23630
H1QC H 0.23630 0.18410 0.05710
H1DE H 0.18410 0.23630 0.05710
H1SF H 0.18410 0.26370 0.44290
H1IA H 0.23630 0.31590 0.44290
H1OA H 0.18410 0.44290 0.26370
H1AG H 0.23630 0.44290 0.31590
H1ME H -0.23630 0.18410 0.05710
H1MC H -0.18410 0.23630 0.05710
C4XE C -0.08421(3) 0.28947(3) 0.32147(3)
C4Z C -0.17853(3) 0.28947(3) 0.41579(3)
C4WF C -0.21053(3) 0.32147(3) 0.41579(3)
C4G C 0.08421(3) 0.28947(3) 0.32147(3)
C4PE C 0.08421(3) 0.32147(3) 0.28947(3)
C4KD C -0.08421(3) 0.21053(3) 0.17853(3)
C4JB C -0.08421(3) 0.17853(3) 0.21053(3)
C4DD C 0.08421(3) 0.17853(3) 0.21053(3)
C4RB C 0.08421(3) 0.21053(3) 0.17853(3)
C4KA C -0.21053(3) 0.41579(3) 0.32147(3)
C4GG C -0.17853(3) 0.41579(3) 0.28947(3)
C4QD C 0.21053(3) 0.08421(3) 0.17853(3)
C4CC C 0.17853(3) 0.08421(3) 0.21053(3)
C4DE C 0.17853(3) 0.21053(3) 0.08421(3)
C4QC C 0.21053(3) 0.17853(3) 0.08421(3)
C4IA C 0.21053(3) 0.32147(3) 0.41579(3)
C4SF C 0.17853(3) 0.28947(3) 0.41579(3)
C4OA C 0.17853(3) 0.41579(3) 0.28947(3)
C4AG C 0.21053(3) 0.41579(3) 0.32147(3)
C4UD C -0.17853(3) 0.08421(3) 0.21053(3)
C4WB C -0.21053(3) 0.08421(3) 0.17853(3)
C4ME C -0.21053(3) 0.17853(3) 0.08421(3)
C4MC C -0.17853(3) 0.21053(3) 0.08421(3)
H2XE H -0.09080 0.28240 0.33610
H2Z H -0.16390 0.28240 0.40920
H2WF H -0.21760 0.33610 0.40920
H2G H 0.09080 0.28240 0.33610
H2PE H 0.09080 0.33610 0.28240
H2KD H -0.09080 0.21760 0.16390
H2JB H -0.09080 0.16390 0.21760
H2DD H 0.09080 0.16390 0.21760
H2RB H 0.09080 0.21760 0.16390
H2KA H -0.21760 0.40920 0.33610
H2GG H -0.16390 0.40920 0.28240
H2WB H -0.21760 0.09080 0.16390
H2UD H -0.16390 0.09080 0.21760
H2QD H 0.21760 0.09080 0.16390
H2CC H 0.16390 0.09080 0.21760
H2QC H 0.21760 0.16390 0.09080
H2DE H 0.16390 0.21760 0.09080
H2SF H 0.16390 0.28240 0.40920
H2IA H 0.21760 0.33610 0.40920
H2AG H 0.21760 0.40920 0.33610
H2OA H 0.16390 0.40920 0.28240
H2ME H -0.21760 0.16390 0.09080
H2MC H -0.16390 0.21760 0.09080
C5Z C -0.18837(4) 0.31163(3) 0.40574(3)
C5KA C -0.18837(4) 0.40574(3) 0.31163(3)
C5G C 0.09426(4) 0.31163(3) 0.31163(3)
C5KD C -0.09426(4) 0.18837(3) 0.18837(3)
C5DD C 0.09426(4) 0.18837(3) 0.18837(3)
C5UD C -0.18837(4) 0.09426(3) 0.18837(3)
C5QD C 0.18837(4) 0.09426(3) 0.18837(3)
C5DE C 0.18837(4) 0.18837(3) 0.09426(3)
C5IA C 0.18837(4) 0.31163(3) 0.40574(3)
C5OA C 0.18837(4) 0.40574(3) 0.31163(3)
C5ME C -0.18837(4) 0.18837(3) 0.09426(3)
C6Z C -0.17603(4) 0.32397(3) 0.38498(3)
C6KA C -0.17603(4) 0.38498(3) 0.32397(3)
C6G C 0.11502(4) 0.32397(3) 0.32397(3)
C6KD C -0.11502(4) 0.17603(3) 0.17603(3)
C6DD C 0.11502(4) 0.17603(3) 0.17603(3)
C6UD C -0.17603(4) 0.11502(3) 0.17603(3)
C6IA C 0.17603(4) 0.32397(3) 0.38498(3)
C6OA C 0.17603(4) 0.38498(3) 0.32397(3)
C6QD C 0.17603(4) 0.11502(3) 0.17603(3)
C6DE C 0.17603(4) 0.17603(3) 0.11502(3)
C6ME C -0.17603(4) 0.17603(3) 0.11502(3)
N1XE N -0.12460(3) 0.34461(2) 0.31258(3)
N1WF N -0.15539(3) 0.31258(2) 0.37540(3)
N1KA N -0.15539(3) 0.37540(2) 0.31258(3)
N1Z N -0.18742(3) 0.34461(2) 0.37540(3)
N1GG N -0.18742(3) 0.37540(2) 0.34461(3)
N1G N 0.12460(3) 0.34461(2) 0.31258(3)
N1PE N 0.12460(3) 0.31258(2) 0.34461(3)
N1KD N -0.12460(3) 0.15539(2) 0.18742(3)
N1JB N -0.12460(3) 0.18742(2) 0.15539(3)
N1DD N 0.12460(3) 0.18742(2) 0.15539(3)
N1RB N 0.12460(3) 0.15539(2) 0.18742(3)
N1IA N 0.15539(3) 0.31258(2) 0.37540(3)
N1AG N 0.15539(3) 0.37540(2) 0.31258(3)
N1QD N 0.15539(3) 0.12460(2) 0.18742(3)
N1QC N 0.15539(3) 0.18742(2) 0.12460(3)
N1WB N -0.15539(3) 0.12460(2) 0.18742(3)
N1ME N -0.15539(3) 0.18742(2) 0.12460(3)
N1UD N -0.18742(3) 0.12460(2) 0.15539(3)
N1CC N 0.18742(3) 0.12460(2) 0.15539(3)
N1DE N 0.18742(3) 0.15539(2) 0.12460(3)
N1SF N 0.18742(3) 0.34461(2) 0.37540(3)
N1OA N 0.18742(3) 0.37540(2) 0.34461(3)
N1MC N -0.18742(3) 0.15539(2) 0.12460(3)
C7KA C -0.14469(3) 0.35531(4) 0.32307(3)
C7Z C -0.17693(3) 0.35531(4) 0.35531(3)
C7G C 0.14469(3) 0.35531(4) 0.32307(3)
C7IA C 0.14469(3) 0.32307(4) 0.35531(3)
C7KD C -0.14469(3) 0.14469(4) 0.17693(3)
C7ME C -0.14469(3) 0.17693(4) 0.14469(3)
C7DD C 0.14469(3) 0.17693(4) 0.14469(3)
C7QD C 0.14469(3) 0.14469(4) 0.17693(3)
C7DE C 0.17693(3) 0.14469(4) 0.14469(3)
C7OA C 0.17693(3) 0.35531(4) 0.35531(3)
C7UD C -0.17693(3) 0.14469(4) 0.14469(3)
N2G N 0.15522(4) 0.34478(4) 0.34478(4)
N2DD N 0.15522(4) 0.15522(4) 0.15522(4)
N2KD N -0.15522(4) 0.15522(4) 0.15522(4)
#END
