
#######################################################################
#
#                 Cambridge Crystallographic Data Centre
#                                CCDC
#
#######################################################################
#
# If this CIF has been generated from an entry in the Cambridge
# Structural Database, then it will include bibliographic, chemical,
# crystal, experimental, refinement or atomic coordinate data resulting
# from the CCDC's data processing and validation procedures.
#
#######################################################################

data_CSD_CIF_NICOAC02
_audit_creation_date 1983-07-20
_audit_creation_method CSD-ConQuest-V1
_database_code_CSD NICOAC02
_database_code_depnum_ccdc_archive 'CCDC 1219541'
_chemical_formula_sum 'C6 H5 N1 O2'
_chemical_formula_moiety
;
C6 H5 N1 O2
;
_journal_coeditor_code "IUCr A22294"
_journal_coden_Cambridge 591
_journal_volume 39
_journal_year 1983
_journal_page_first 232
_journal_name_full 'Acta Crystallogr.,Sect.C:Cryst.Struct.Commun. '
loop_
_publ_author_name
"A.Kutoglu"
"C.Scheringer"
_chemical_name_systematic
;
3-Pyridinecarboxylic acid
;
_chemical_name_common
;
Nicotinic acid; Niacin; Vitamin B!3$; DrugBank: DB00627; Teaching Subset: 
Drug Molecules, Essential Nutrients
;
_cell_volume    556.748
_exptl_special_details
;
vasodilator, toxic, lowers VLDL levels, increases HDL levels

;
_diffrn_ambient_temperature ?
_diffrn_special_details
;
The study was carried out at room temperature,in the range 283-303K

;
#These two values have been output from a single CSD field.
_refine_ls_R_factor_gt 0.051
_refine_ls_wR_factor_gt 0.051
_symmetry_cell_setting monoclinic
_symmetry_space_group_name_H-M 'P 21/c'
_symmetry_Int_Tables_number 14
loop_
_symmetry_equiv_pos_site_id
_symmetry_equiv_pos_as_xyz
1 x,y,z
2 -x,1/2+y,1/2-z
3 -x,-y,-z
4 x,-1/2-y,-1/2+z
_cell_length_a 7.186(2)
_cell_length_b 11.688(3)
_cell_length_c 7.231(2)
_cell_angle_alpha 90
_cell_angle_beta 113.55(6)
_cell_angle_gamma 90
_cell_formula_units_Z 4
loop_
_atom_type_symbol
_atom_type_radius_bond
C 0.68
H 0.23
N 0.68
O 0.68
loop_
_atom_site_label
_atom_site_type_symbol
_atom_site_fract_x
_atom_site_fract_y
_atom_site_fract_z
C1 C 0.35170 0.20840 0.21930
C2 C 0.26020 0.31620 0.19160
C3 C 0.05100 0.32340 0.14480
C4 C -0.05700 0.22350 0.13070
C5 C 0.04540 0.11950 0.16160
C6 C 0.37700 0.42410 0.21100
N1 N 0.24470 0.11160 0.20400
O1 O 0.56800 0.41040 0.24310
O2 O 0.29900 0.51710 0.19990
H1 H 0.49000 0.19900 0.24700
H2 H -0.01300 0.40000 0.12400
H3 H -0.21500 0.22900 0.10200
H4 H -0.03200 0.04900 0.15100
H5 H 0.64800 0.46600 0.25700
#END
