####################################################################### 
# 
# This file contains crystal structure data downloaded from the 
# Cambridge Structural Database (CSD) hosted by the Cambridge 
# Crystallographic Data Centre (CCDC).
# 
# Full information about CCDC data access policies and citation 
# guidelines are available at http://www.ccdc.cam.ac.uk/access/V1 
# 
# Audit and citation data items may have been added by the CCDC. 
# Please retain this information to preserve the provenance of 
# this file and to allow appropriate attribution of the data. 
# 
#######################################################################

data_2
_audit_block_doi                 10.5517/ccy3n2r
_database_code_depnum_ccdc_archive 'CCDC 867444'
_audit_update_record             
;
2012-02-17 deposited with the CCDC.	2024-07-11 downloaded from the CCDC.
;
#TrackingRef '2.cif'


_audit_creation_method           SHELXL-97
_chemical_name_systematic        
;
?
;
_chemical_name_common            ?
_chemical_melting_point          ?
_chemical_formula_moiety         'C72 H40 Co4 O17'
_chemical_formula_sum            'C72 H40 Co4 O17'
_chemical_formula_weight         1412.76

loop_
_atom_type_symbol
_atom_type_description
_atom_type_scat_dispersion_real
_atom_type_scat_dispersion_imag
_atom_type_scat_source
C C 0.0033 0.0016 'International Tables Vol C Tables 4.2.6.8 and 6.1.1.4'
H H 0.0000 0.0000 'International Tables Vol C Tables 4.2.6.8 and 6.1.1.4'
O O 0.0106 0.0060 'International Tables Vol C Tables 4.2.6.8 and 6.1.1.4'
Co Co 0.3494 0.9721 'International Tables Vol C Tables 4.2.6.8 and 6.1.1.4'

_symmetry_cell_setting           cubic
_symmetry_space_group_name_H-M   Im-3m
_symmetry_space_group_name_Hall  '-I 4 2 3'

loop_
_symmetry_equiv_pos_as_xyz
'x, y, z'
'-x, -y, z'
'-x, y, -z'
'x, -y, -z'
'z, x, y'
'z, -x, -y'
'-z, -x, y'
'-z, x, -y'
'y, z, x'
'-y, z, -x'
'y, -z, -x'
'-y, -z, x'
'y, x, -z'
'-y, -x, -z'
'y, -x, z'
'-y, x, z'
'x, z, -y'
'-x, z, y'
'-x, -z, -y'
'x, -z, y'
'z, y, -x'
'z, -y, x'
'-z, y, x'
'-z, -y, -x'
'x+1/2, y+1/2, z+1/2'
'-x+1/2, -y+1/2, z+1/2'
'-x+1/2, y+1/2, -z+1/2'
'x+1/2, -y+1/2, -z+1/2'
'z+1/2, x+1/2, y+1/2'
'z+1/2, -x+1/2, -y+1/2'
'-z+1/2, -x+1/2, y+1/2'
'-z+1/2, x+1/2, -y+1/2'
'y+1/2, z+1/2, x+1/2'
'-y+1/2, z+1/2, -x+1/2'
'y+1/2, -z+1/2, -x+1/2'
'-y+1/2, -z+1/2, x+1/2'
'y+1/2, x+1/2, -z+1/2'
'-y+1/2, -x+1/2, -z+1/2'
'y+1/2, -x+1/2, z+1/2'
'-y+1/2, x+1/2, z+1/2'
'x+1/2, z+1/2, -y+1/2'
'-x+1/2, z+1/2, y+1/2'
'-x+1/2, -z+1/2, -y+1/2'
'x+1/2, -z+1/2, y+1/2'
'z+1/2, y+1/2, -x+1/2'
'z+1/2, -y+1/2, x+1/2'
'-z+1/2, y+1/2, x+1/2'
'-z+1/2, -y+1/2, -x+1/2'
'-x, -y, -z'
'x, y, -z'
'x, -y, z'
'-x, y, z'
'-z, -x, -y'
'-z, x, y'
'z, x, -y'
'z, -x, y'
'-y, -z, -x'
'y, -z, x'
'-y, z, x'
'y, z, -x'
'-y, -x, z'
'y, x, z'
'-y, x, -z'
'y, -x, -z'
'-x, -z, y'
'x, -z, -y'
'x, z, y'
'-x, z, -y'
'-z, -y, x'
'-z, y, -x'
'z, -y, -x'
'z, y, x'
'-x+1/2, -y+1/2, -z+1/2'
'x+1/2, y+1/2, -z+1/2'
'x+1/2, -y+1/2, z+1/2'
'-x+1/2, y+1/2, z+1/2'
'-z+1/2, -x+1/2, -y+1/2'
'-z+1/2, x+1/2, y+1/2'
'z+1/2, x+1/2, -y+1/2'
'z+1/2, -x+1/2, y+1/2'
'-y+1/2, -z+1/2, -x+1/2'
'y+1/2, -z+1/2, x+1/2'
'-y+1/2, z+1/2, x+1/2'
'y+1/2, z+1/2, -x+1/2'
'-y+1/2, -x+1/2, z+1/2'
'y+1/2, x+1/2, z+1/2'
'-y+1/2, x+1/2, -z+1/2'
'y+1/2, -x+1/2, -z+1/2'
'-x+1/2, -z+1/2, y+1/2'
'x+1/2, -z+1/2, -y+1/2'
'x+1/2, z+1/2, y+1/2'
'-x+1/2, z+1/2, -y+1/2'
'-z+1/2, -y+1/2, x+1/2'
'-z+1/2, y+1/2, -x+1/2'
'z+1/2, -y+1/2, -x+1/2'
'z+1/2, y+1/2, x+1/2'

_cell_length_a                   25.6339(6)
_cell_length_b                   25.6339(6)
_cell_length_c                   25.6339(6)
_cell_angle_alpha                90.00
_cell_angle_beta                 90.00
_cell_angle_gamma                90.00
_cell_volume                     16844.0(7)
_cell_formula_units_Z            6
_cell_measurement_temperature    291(2)
_cell_measurement_reflns_used    9614
_cell_measurement_theta_min      2.246
_cell_measurement_theta_max      23.390

_exptl_crystal_description       'truncated cubic'
_exptl_crystal_colour            'dark violet'
_exptl_crystal_size_max          0.29
_exptl_crystal_size_mid          0.28
_exptl_crystal_size_min          0.28
_exptl_crystal_density_meas      ?
_exptl_crystal_density_diffrn    0.836
_exptl_crystal_density_method    'not measured'
_exptl_crystal_F_000             4296
_exptl_absorpt_coefficient_mu    0.621
_exptl_absorpt_correction_type   multi-scan
_exptl_absorpt_correction_T_min  0.8403
_exptl_absorpt_correction_T_max  0.8452
_exptl_absorpt_process_details   'SADABS; Bruker, 2000'

_exptl_special_details           
;
?
;

_diffrn_ambient_temperature      291(2)
_diffrn_radiation_wavelength     0.71073
_diffrn_radiation_type           MoK\a
_diffrn_radiation_source         'fine-focus sealed tube'
_diffrn_radiation_monochromator  graphite
_diffrn_measurement_device_type  'Bruker Smart Apex II CCD'
_diffrn_measurement_method       'phi and omega scans'
_diffrn_detector_area_resol_mean ?
_diffrn_standards_number         ?
_diffrn_standards_interval_count ?
_diffrn_standards_interval_time  ?
_diffrn_standards_decay_%        ?
_diffrn_reflns_number            46568
_diffrn_reflns_av_R_equivalents  0.0749
_diffrn_reflns_av_sigmaI/netI    0.0215
_diffrn_reflns_limit_h_min       -30
_diffrn_reflns_limit_h_max       31
_diffrn_reflns_limit_k_min       -31
_diffrn_reflns_limit_k_max       31
_diffrn_reflns_limit_l_min       -21
_diffrn_reflns_limit_l_max       31
_diffrn_reflns_theta_min         1.95
_diffrn_reflns_theta_max         25.97
_reflns_number_total             1629
_reflns_number_gt                1391
_reflns_threshold_expression     >2sigma(I)

_computing_data_collection       'Bruker SMART'
_computing_cell_refinement       'Bruker SMART'
_computing_data_reduction        'Bruker SAINT'
_computing_structure_solution    'SHELXS-97 (Sheldrick, 1990)'
_computing_structure_refinement  'SHELXL-97 (Sheldrick, 1997)'
_computing_molecular_graphics    'Bruker SHELXTL'
_computing_publication_material  'Bruker SHELXTL'

_refine_special_details          
;
Refinement of F^2^ against ALL reflections. The weighted R-factor wR and
goodness of fit S are based on F^2^, conventional R-factors R are based
on F, with F set to zero for negative F^2^. The threshold expression of
F^2^ > 2sigma(F^2^) is used only for calculating R-factors(gt) etc. and is
not relevant to the choice of reflections for refinement. R-factors based
on F^2^ are statistically about twice as large as those based on F, and R-
factors based on ALL data will be even larger.
;

_refine_ls_structure_factor_coef Fsqd
_refine_ls_matrix_type           full
_refine_ls_weighting_scheme      calc
_refine_ls_weighting_details     
'calc w=1/[\s^2^(Fo^2^)+(0.0900P)^2^+1.9900P] where P=(Fo^2^+2Fc^2^)/3'
_atom_sites_solution_primary     direct
_atom_sites_solution_secondary   difmap
_atom_sites_solution_hydrogens   geom
_refine_ls_hydrogen_treatment    constr
_refine_ls_extinction_method     none
_refine_ls_extinction_coef       ?
_refine_ls_number_reflns         1629
_refine_ls_number_parameters     64
_refine_ls_number_restraints     0
_refine_ls_R_factor_all          0.0534
_refine_ls_R_factor_gt           0.0435
_refine_ls_wR_factor_ref         0.1407
_refine_ls_wR_factor_gt          0.1372
_refine_ls_goodness_of_fit_ref   1.118
_refine_ls_restrained_S_all      1.118
_refine_ls_shift/su_max          0.000
_refine_ls_shift/su_mean         0.000

loop_
_atom_site_label
_atom_site_type_symbol
_atom_site_fract_x
_atom_site_fract_y
_atom_site_fract_z
_atom_site_U_iso_or_equiv
_atom_site_adp_type
_atom_site_occupancy
_atom_site_symmetry_multiplicity
_atom_site_calc_flag
_atom_site_refinement_flags
_atom_site_disorder_assembly
_atom_site_disorder_group
C1 C 0.22870(10) 0.22870(10) 0.16541(13) 0.0466(7) Uani 1 2 d S . .
H1 H 0.2430 0.2430 0.1353 0.056 Uiso 1 2 calc SR . .
C2 C 0.25405(14) 0.18491(10) 0.18491(10) 0.0506(8) Uani 1 2 d S . .
C3 C 0.30051(14) 0.16175(10) 0.16175(10) 0.0534(8) Uani 1 2 d S . .
C4 C 0.32097(10) 0.17656(10) 0.11370(9) 0.0542(6) Uani 1 1 d . . .
H4 H 0.3024 0.2006 0.0938 0.065 Uiso 1 1 calc R . .
C5 C 0.36727(9) 0.15748(9) 0.09399(9) 0.0497(6) Uani 1 1 d . . .
H5 H 0.3848 0.1747 0.0673 0.060 Uiso 1 1 calc R . .
C6 C 0.38581(11) 0.11416(8) 0.11416(8) 0.0427(7) Uani 1 2 d S . .
C7 C 0.43098(12) 0.09241(9) 0.09241(9) 0.0453(7) Uani 1 2 d S . .
Co1 Co 0.5000 0.0000 0.08358(2) 0.0438(2) Uani 1 4 d S . .
O1 O 0.45110(6) 0.05218(6) 0.11583(6) 0.0457(4) Uani 1 1 d . . .
O2 O 0.5000 0.0000 0.0000 0.0519(15) Uani 1 16 d S . .

loop_
_atom_site_aniso_label
_atom_site_aniso_U_11
_atom_site_aniso_U_22
_atom_site_aniso_U_33
_atom_site_aniso_U_23
_atom_site_aniso_U_13
_atom_site_aniso_U_12
C1 0.0414(10) 0.0414(10) 0.0570(18) 0.0088(10) 0.0088(10) 0.0149(12)
C2 0.0565(19) 0.0476(11) 0.0476(11) 0.0094(13) 0.0165(11) 0.0165(11)
C3 0.063(2) 0.0486(11) 0.0486(11) 0.0133(13) 0.0210(11) 0.0210(11)
C4 0.0526(13) 0.0599(14) 0.0500(13) 0.0109(11) 0.0256(10) 0.0139(11)
C5 0.0472(12) 0.0458(12) 0.0561(13) 0.0099(9) 0.0099(10) 0.0139(9)
C6 0.0414(15) 0.0434(10) 0.0434(10) 0.0064(12) 0.0093(8) 0.0093(8)
C7 0.0418(15) 0.0470(10) 0.0470(10) 0.0031(12) 0.0098(9) 0.0098(9)
Co1 0.0399(3) 0.0449(4) 0.0465(4) 0.000 0.000 0.000
O1 0.0442(8) 0.0461(8) 0.0468(9) 0.0060(6) 0.0030(6) 0.0074(6)
O2 0.052(3) 0.052(2) 0.052(2) 0.000 0.000 0.000

_geom_special_details            
;
All esds (except the esd in the dihedral angle between two l.s. planes)
are estimated using the full covariance matrix. The cell esds are taken
into account individually in the estimation of esds in distances, angles
and torsion angles; correlations between esds in cell parameters are only
used when they are defined by crystal symmetry. An approximate (isotropic)
treatment of cell esds is used for estimating esds involving l.s. planes.
;

loop_
_geom_bond_atom_site_label_1
_geom_bond_atom_site_label_2
_geom_bond_distance
_geom_bond_site_symmetry_2
_geom_bond_publ_flag
C1 C2 1.390(2) . ?
C1 C2 1.390(2) 5 ?
C1 H1 0.9300 . ?
C2 C1 1.390(2) 9 ?
C2 C3 1.457(4) . ?
C3 C4 1.391(3) 67 ?
C3 C4 1.391(3) . ?
C4 C5 1.380(3) . ?
C4 H4 0.9300 . ?
C5 C6 1.314(2) . ?
C5 H5 0.9300 . ?
C6 C5 1.314(2) 67 ?
C6 C7 1.401(4) . ?
C7 O1 1.300(2) . ?
C7 O1 1.300(2) 67 ?
Co1 O1 2.0110(15) . ?
Co1 O1 2.0110(15) 51 ?
Co1 O1 2.0111(15) 52_655 ?
Co1 O1 2.0111(15) 2_655 ?
Co1 O2 2.1424(6) . ?
O2 Co1 2.1423(6) 65_655 ?
O2 Co1 2.1423(6) 17 ?
O2 Co1 2.1423(6) 49_655 ?

loop_
_geom_angle_atom_site_label_1
_geom_angle_atom_site_label_2
_geom_angle_atom_site_label_3
_geom_angle
_geom_angle_site_symmetry_1
_geom_angle_site_symmetry_3
_geom_angle_publ_flag
C2 C1 C2 128.7(3) . 5 ?
C2 C1 H1 115.6 . . ?
C2 C1 H1 115.6 5 . ?
C1 C2 C1 111.2(3) 9 . ?
C1 C2 C3 124.38(16) 9 . ?
C1 C2 C3 124.38(16) . . ?
C4 C3 C4 109.9(3) 67 . ?
C4 C3 C2 123.89(15) 67 . ?
C4 C3 C2 123.88(15) . . ?
C5 C4 C3 123.5(2) . . ?
C5 C4 H4 118.3 . . ?
C3 C4 H4 118.3 . . ?
C6 C5 C4 117.8(2) . . ?
C6 C5 H5 121.1 . . ?
C4 C5 H5 121.1 . . ?
C5 C6 C5 122.3(3) . 67 ?
C5 C6 C7 118.60(14) . . ?
C5 C6 C7 118.60(14) 67 . ?
O1 C7 O1 125.1(3) . 67 ?
O1 C7 C6 117.37(13) . . ?
O1 C7 C6 117.37(13) 67 . ?
O1 Co1 O1 83.38(9) . 51 ?
O1 Co1 O1 77.12(9) . 52_655 ?
O1 Co1 O1 131.44(9) 51 52_655 ?
O1 Co1 O1 131.44(9) . 2_655 ?
O1 Co1 O1 77.12(9) 51 2_655 ?
O1 Co1 O1 83.38(9) 52_655 2_655 ?
O1 Co1 O2 114.28(5) . . ?
O1 Co1 O2 114.28(5) 51 . ?
O1 Co1 O2 114.28(5) 52_655 . ?
O1 Co1 O2 114.28(5) 2_655 . ?
C7 O1 Co1 125.80(15) . . ?
Co1 O2 Co1 180.0 65_655 17 ?
Co1 O2 Co1 90.0 65_655 49_655 ?
Co1 O2 Co1 90.0 17 49_655 ?
Co1 O2 Co1 90.0 65_655 . ?
Co1 O2 Co1 90.0 17 . ?
Co1 O2 Co1 180.0 49_655 . ?

loop_
_geom_torsion_atom_site_label_1
_geom_torsion_atom_site_label_2
_geom_torsion_atom_site_label_3
_geom_torsion_atom_site_label_4
_geom_torsion
_geom_torsion_site_symmetry_1
_geom_torsion_site_symmetry_2
_geom_torsion_site_symmetry_3
_geom_torsion_site_symmetry_4
_geom_torsion_publ_flag
C2 C1 C2 C1 2.3(8) 5 . . 9 ?
C2 C1 C2 C3 -179.0(3) 5 . . . ?
C1 C2 C3 C4 8.7(6) 9 . . 67 ?
C1 C2 C3 C4 -169.8(4) . . . 67 ?
C1 C2 C3 C4 169.8(4) 9 . . . ?
C1 C2 C3 C4 -8.8(6) . . . . ?
C4 C3 C4 C5 -22.1(5) 67 . . . ?
C2 C3 C4 C5 174.5(3) . . . . ?
C3 C4 C5 C6 18.4(5) . . . . ?
C4 C5 C6 C5 -12.3(5) . . . 67 ?
C4 C5 C6 C7 176.0(3) . . . . ?
C5 C6 C7 O1 174.1(3) . . . . ?
C5 C6 C7 O1 2.0(5) 67 . . . ?
C5 C6 C7 O1 -2.0(5) . . . 67 ?
C5 C6 C7 O1 -174.1(3) 67 . . 67 ?
O1 C7 O1 Co1 -24.7(5) 67 . . . ?
C6 C7 O1 Co1 159.5(2) . . . . ?
O1 Co1 O1 C7 -131.9(2) 51 . . . ?
O1 Co1 O1 C7 92.9(2) 52_655 . . . ?
O1 Co1 O1 C7 161.8(2) 2_655 . . . ?
O2 Co1 O1 C7 -18.2(2) . . . . ?
O1 Co1 O2 Co1 -136.86(5) . . . 65_655 ?
O1 Co1 O2 Co1 -43.15(5) 51 . . 65_655 ?
O1 Co1 O2 Co1 136.85(5) 52_655 . . 65_655 ?
O1 Co1 O2 Co1 43.15(5) 2_655 . . 65_655 ?
O1 Co1 O2 Co1 43.14(5) . . . 17 ?
O1 Co1 O2 Co1 136.86(5) 51 . . 17 ?
O1 Co1 O2 Co1 -43.15(5) 52_655 . . 17 ?
O1 Co1 O2 Co1 -136.85(5) 2_655 . . 17 ?
O1 Co1 O2 Co1 133.1(3) . . . 49_655 ?
O1 Co1 O2 Co1 -133.1(3) 51 . . 49_655 ?
O1 Co1 O2 Co1 46.9(3) 52_655 . . 49_655 ?
O1 Co1 O2 Co1 -46.9(3) 2_655 . . 49_655 ?

_diffrn_measured_fraction_theta_max 0.998
_diffrn_reflns_theta_full        25.97
_diffrn_measured_fraction_theta_full 0.998
_refine_diff_density_max         0.218
_refine_diff_density_min         -0.402
_refine_diff_density_rms         0.037
