
#######################################################################
#
#                 Cambridge Crystallographic Data Centre
#                                CCDC
#
#######################################################################
#
# If this CIF has been generated from an entry in the Cambridge
# Structural Database, then it will include bibliographic, chemical,
# crystal, experimental, refinement or atomic coordinate data resulting
# from the CCDC's data processing and validation procedures.
#
#######################################################################

data_CSD_CIF_NIGTOM
_audit_creation_date 1998-05-22
_audit_creation_method CSD-ConQuest-V1
_database_code_CSD NIGTOM
_database_code_depnum_ccdc_archive 'CCDC 1219831'
_database_code_depnum_ccdc_journal 186/576
_chemical_formula_sum 'C24 H48 Cl7 Gd1 O6 Sn1'
_chemical_formula_moiety
;
C20 H40 Cl2 Gd1 O5 1+,C4 H8 Cl5 O1 Sn1 1-
;
_journal_coden_Cambridge 186
_journal_year 1997
_journal_page_first 2677
_journal_name_full 'J.Chem.Soc.,Dalton Trans. '
loop_
_publ_author_name
"G.R.Willey"
"T.J.Woodman"
"D.J.Carpenter"
"W.Errington"
_chemical_name_systematic
;
trans-Dichloro-pentakis(tetrahydrofuran)-gadolinium(iii) 
pentachloro-tetrahydrofuran-tin(iv)
;
_chemical_name_common
;
Teaching Subset: Fundamental Chemistry, Symmetry
;
_cell_volume   1818.005
_exptl_crystal_colour 'colorless'
_exptl_crystal_density_diffrn 1.748
_exptl_special_details
;
isomorphous with cerium and ytterbium analogues

;
_exptl_crystal_description 'cuboid'
_diffrn_ambient_temperature 200
#These two values have been output from a single CSD field.
_refine_ls_R_factor_gt 0.041
_refine_ls_wR_factor_gt 0.041
_symmetry_cell_setting monoclinic
_symmetry_space_group_name_H-M 'P 2/c'
_symmetry_Int_Tables_number 13
loop_
_symmetry_equiv_pos_site_id
_symmetry_equiv_pos_as_xyz
1 x,y,z
2 -x,y,1/2-z
3 -x,-y,-z
4 x,-y,-1/2+z
_cell_length_a 12.2924(6)
_cell_length_b 11.1255(5)
_cell_length_c 13.7155(7)
_cell_angle_alpha 90
_cell_angle_beta 104.25
_cell_angle_gamma 90
_cell_formula_units_Z 2
loop_
_atom_type_symbol
_atom_type_radius_bond
C 0.68
H 0.23
Cl 0.99
Gd 1.79
O 0.68
Sn 1.46
loop_
_atom_site_label
_atom_site_type_symbol
_atom_site_fract_x
_atom_site_fract_y
_atom_site_fract_z
Gd1 Gd 0.50000 0.67915(3) 0.25000
Cl1 Cl 0.60719(13) 0.68505(14) 0.10798(11)
O1 O 0.50000 0.4634(5) 0.25000
C1 C 0.5098(8) 0.3893(6) 0.1664(6)
C2 C 0.4863(10) 0.2643(7) 0.1954(7)
O2 O 0.3266(3) 0.6111(3) 0.1387(3)
C3 C 0.2378(5) 0.5430(7) 0.1659(5)
C4 C 0.1500(7) 0.5220(9) 0.0703(6)
C5 C 0.2106(6) 0.5325(7) -0.0089(6)
C6 C 0.2991(6) 0.6236(8) 0.0301(5)
O3 O 0.4019(3) 0.8541(3) 0.1672(3)
C7 C 0.2950(7) 0.8973(8) 0.1788(6)
C8 C 0.2516(7) 0.9803(7) 0.0972(7)
C9 C 0.3368(7) 0.9964(7) 0.0402(6)
C10 C 0.4363(7) 0.9373(7) 0.0998(7)
H1 H 0.58630 0.39500 0.15530
H2 H 0.45480 0.41420 0.10410
H3 H 0.40630 0.24360 0.16760
H4 H 0.53340 0.20560 0.17020
H5 H 0.20610 0.58880 0.21430
H6 H 0.26710 0.46550 0.19710
H7 H 0.11640 0.44110 0.06990
H8 H 0.08980 0.58310 0.06150
H9 H 0.15980 0.55960 -0.07280
H10 H 0.24430 0.45450 -0.02030
H11 H 0.36590 0.60830 0.00380
H12 H 0.27080 0.70550 0.00990
H13 H 0.30450 0.93850 0.24440
H14 H 0.24230 0.82930 0.17610
H15 H 0.23430 1.05850 0.12430
H16 H 0.18180 0.94800 0.05280
H17 H 0.31250 0.95890 -0.02710
H18 H 0.35140 1.08280 0.03180
H19 H 0.47520 0.89380 0.05530
H20 H 0.48860 0.99760 0.13870
Sn1 Sn 0.00000 0.20671(5) 0.25000
Cl2 Cl 0.00606(15) 0.19212(14) 0.07719(12)
Cl3 Cl -0.20160(14) 0.18963(16) 0.20014(13)
Cl4 Cl 0.00000 0.4211(2) 0.25000
O4 O 0.00000 0.0012(5) 0.25000
C11 C -0.0599(6) -0.0727(6) 0.1678(5)
C12 C -0.0297(8) -0.1989(6) 0.1963(6)
H21 H -0.03780 -0.05190 0.10520
H22 H -0.14180 -0.06070 0.15660
H23 H -0.09820 -0.24910 0.18530
H24 H 0.01930 -0.23170 0.15530
Cl1A Cl 0.39281(13) 0.68505(14) 0.39202(11)
C2A C 0.5137(10) 0.2643(7) 0.3046(7)
C1A C 0.4902(8) 0.3893(6) 0.3336(6)
H1A H 0.41370 0.39500 0.34470
H2A H 0.54520 0.41420 0.39590
H3A H 0.59370 0.24360 0.33240
H4A H 0.46660 0.20560 0.32980
O2A O 0.6734(3) 0.6111(3) 0.3613(3)
C3A C 0.7622(5) 0.5430(7) 0.3341(5)
C4A C 0.8500(7) 0.5220(9) 0.4297(6)
C5A C 0.7894(6) 0.5325(7) 0.5089(6)
C6A C 0.7009(6) 0.6236(8) 0.4699(5)
H11A H 0.63410 0.60830 0.49620
H12A H 0.72920 0.70550 0.49010
H9A H 0.84020 0.55960 0.57280
H10A H 0.75570 0.45450 0.52030
H7A H 0.88360 0.44110 0.43010
H8A H 0.91020 0.58310 0.43850
H5A H 0.79390 0.58880 0.28570
H6A H 0.73290 0.46550 0.30290
O3A O 0.5981(3) 0.8541(3) 0.3328(3)
C7A C 0.7050(7) 0.8973(8) 0.3212(6)
C8A C 0.7484(7) 0.9803(7) 0.4028(7)
C9A C 0.6632(7) 0.9964(7) 0.4598(6)
C10A C 0.5637(7) 0.9373(7) 0.4002(7)
H19A H 0.52480 0.89380 0.44470
H20A H 0.51140 0.99760 0.36130
H17A H 0.68750 0.95890 0.52710
H18A H 0.64860 1.08280 0.46820
H15A H 0.76570 1.05850 0.37570
H16A H 0.81820 0.94800 0.44720
H13A H 0.69550 0.93850 0.25560
H14A H 0.75770 0.82930 0.32390
Cl2A Cl -0.00606(15) 0.19212(14) 0.42281(12)
Cl3A Cl 0.20160(14) 0.18963(16) 0.29986(13)
C12A C 0.0297(8) -0.1989(6) 0.3037(6)
C11A C 0.0599(6) -0.0727(6) 0.3322(5)
H21A H 0.03780 -0.05190 0.39480
H22A H 0.14180 -0.06070 0.34340
H23A H 0.09820 -0.24910 0.31470
H24A H -0.01930 -0.23170 0.34470
#END
