####################################################################### 
# 
# This file contains crystal structure data downloaded from the 
# Cambridge Structural Database (CSD) hosted by the Cambridge 
# Crystallographic Data Centre (CCDC).
# 
# Full information about CCDC data access policies and citation 
# guidelines are available at http://www.ccdc.cam.ac.uk/access/V1 
# 
# Audit and citation data items may have been added by the CCDC. 
# Please retain this information to preserve the provenance of 
# this file and to allow appropriate attribution of the data. 
# 
#######################################################################

data_6-Benzene-at-180K
_audit_block_doi                 10.5517/ccnnnc9
_database_code_depnum_ccdc_archive 'CCDC 615671'
loop_
_citation_id
_citation_doi
_citation_year
1 10.1002/adfm.200600676 2007
_audit_update_record             
;
2006-07-21 deposited with the CCDC.	2024-07-11 downloaded from the CCDC.
;

_audit_creation_method           SHELXL-97
_chemical_name_systematic        
;
?
;
_chemical_name_common            ?
_chemical_melting_point          ?
_chemical_formula_moiety         ?
_chemical_formula_sum            'C12 H12 Fe3 O12'
_chemical_formula_weight         515.77

loop_
_atom_type_symbol
_atom_type_description
_atom_type_scat_dispersion_real
_atom_type_scat_dispersion_imag
_atom_type_scat_source
C C 0.0033 0.0016 'International Tables Vol C Tables 4.2.6.8 and 6.1.1.4'
H H 0.0000 0.0000 'International Tables Vol C Tables 4.2.6.8 and 6.1.1.4'
O O 0.0106 0.0060 'International Tables Vol C Tables 4.2.6.8 and 6.1.1.4'
Fe Fe 0.3463 0.8444 'International Tables Vol C Tables 4.2.6.8 and 6.1.1.4'

_symmetry_cell_setting           Monoclinic
_symmetry_space_group_name_H-M   'P 2(1)/c'

loop_
_symmetry_equiv_pos_as_xyz
'x, y, z'
'-x, y+1/2, -z+1/2'
'-x, -y, -z'
'x, -y-1/2, z-1/2'

_cell_length_a                   11.4667(2)
_cell_length_b                   10.0705(2)
_cell_length_c                   18.9071(5)
_cell_angle_alpha                90.00
_cell_angle_beta                 126.4390(10)
_cell_angle_gamma                90.00
_cell_volume                     1756.44(7)
_cell_formula_units_Z            4
_cell_measurement_temperature    180
_cell_measurement_reflns_used    18943
_cell_measurement_theta_min      3.395
_cell_measurement_theta_max      27.485

_exptl_crystal_description       plate
_exptl_crystal_colour            'yellow green'
_exptl_crystal_size_max          0.18
_exptl_crystal_size_mid          0.10
_exptl_crystal_size_min          0.08
_exptl_crystal_density_meas      ?
_exptl_crystal_density_diffrn    1.950
_exptl_crystal_density_method    'not measured'
_exptl_crystal_F_000             1032
_exptl_absorpt_coefficient_mu    2.506
_exptl_absorpt_correction_type   multi-scan
_exptl_absorpt_correction_T_min  0.751
_exptl_absorpt_correction_T_max  0.823
_exptl_absorpt_process_details   
;
multi-scan from symmetry-related measurements
Sortav (Blessing 1995, 1997)
;

_exptl_special_details           
;
?
;

_diffrn_ambient_temperature      180
_diffrn_radiation_wavelength     0.71073
_diffrn_radiation_type           MoK\a
_diffrn_radiation_source         'fine-focus sealed tube'
_diffrn_radiation_monochromator  graphite
_diffrn_measurement_device_type  'NONIUS KappaCCD Diffractometer'
_diffrn_measurement_method       CCD
_diffrn_detector_area_resol_mean 0.76
_diffrn_standards_number         ?
_diffrn_standards_interval_count ?
_diffrn_standards_interval_time  ?
_diffrn_standards_decay_%        None
_diffrn_reflns_number            34355
_diffrn_reflns_av_R_equivalents  0.0816
_diffrn_reflns_av_sigmaI/netI    0.0615
_diffrn_reflns_limit_h_min       -14
_diffrn_reflns_limit_h_max       14
_diffrn_reflns_limit_k_min       -13
_diffrn_reflns_limit_k_max       13
_diffrn_reflns_limit_l_min       -24
_diffrn_reflns_limit_l_max       24
_diffrn_reflns_theta_min         3.55
_diffrn_reflns_theta_max         27.50
_reflns_number_total             4022
_reflns_number_gt                2770
_reflns_threshold_expression     >2sigma(I)

_computing_data_collection       'KappaCCD (Nonius B. V., 1998)'
_computing_cell_refinement       'HKL Scalepack (Otwinowski & Minor, 1997)'
_computing_data_reduction        
'HKL Denzo (Otwinowski & Minor, 1997) & maXus (Mackay et al., 1998)'
_computing_structure_solution    'SHELXS-97 (Sheldrick, 1997)'
_computing_structure_refinement  'SHELXL-97 (Sheldrick, 1997)'
_computing_molecular_graphics    'Bruker SHELXTL V5.1 (Sheldrick, 1998)'
_computing_publication_material  'SHELXL-97 (Sheldrick, 1997)'

_refine_special_details          
;
Refinement of F^2^ against ALL reflections. The weighted R-factor wR and
goodness of fit S are based on F^2^, conventional R-factors R are based
on F, with F set to zero for negative F^2^. The threshold expression of
F^2^ > 2sigma(F^2^) is used only for calculating R-factors(gt) etc. and is
not relevant to the choice of reflections for refinement. R-factors based
on F^2^ are statistically about twice as large as those based on F, and R-
factors based on ALL data will be even larger.
;

_refine_ls_structure_factor_coef Fsqd
_refine_ls_matrix_type           full
_refine_ls_weighting_scheme      calc
_refine_ls_weighting_details     
'calc w=1/[\s^2^(Fo^2^)+(0.0245P)^2^+0.0000P] where P=(Fo^2^+2Fc^2^)/3'
_atom_sites_solution_primary     direct
_atom_sites_solution_secondary   difmap
_atom_sites_solution_hydrogens   difmap
_refine_ls_hydrogen_treatment    mixed
_refine_ls_extinction_method     SHELXL
_refine_ls_extinction_coef       0.0024(3)
_refine_ls_extinction_expression Fc^*^=kFc[1+0.001xFc^2^\l^3^/sin(2\q)]^-1/4^
_refine_ls_number_reflns         4022
_refine_ls_number_parameters     272
_refine_ls_number_restraints     0
_refine_ls_R_factor_all          0.0564
_refine_ls_R_factor_gt           0.0283
_refine_ls_wR_factor_ref         0.0563
_refine_ls_wR_factor_gt          0.0526
_refine_ls_goodness_of_fit_ref   0.930
_refine_ls_restrained_S_all      0.930
_refine_ls_shift/su_max          0.001
_refine_ls_shift/su_mean         0.000

loop_
_atom_site_label
_atom_site_type_symbol
_atom_site_fract_x
_atom_site_fract_y
_atom_site_fract_z
_atom_site_U_iso_or_equiv
_atom_site_adp_type
_atom_site_occupancy
_atom_site_symmetry_multiplicity
_atom_site_calc_flag
_atom_site_refinement_flags
_atom_site_disorder_assembly
_atom_site_disorder_group
Fe1 Fe 0.38012(3) 0.07174(3) 0.13433(2) 0.01788(10) Uani 1 1 d . . .
Fe2 Fe 0.56185(3) -0.12418(3) 0.30237(2) 0.01957(10) Uani 1 1 d . . .
Fe3 Fe 0.5000 0.0000 0.0000 0.02023(12) Uani 1 2 d S . .
Fe4 Fe 0.0000 0.0000 0.0000 0.02070(13) Uani 1 2 d S . .
O1 O 0.44315(16) 0.18568(15) 0.24937(10) 0.0208(4) Uani 1 1 d . . .
O2 O 0.55152(18) 0.04285(16) 0.36208(10) 0.0273(4) Uani 1 1 d . . .
O3 O 0.58575(16) -0.01838(15) 0.21357(10) 0.0224(4) Uani 1 1 d . . .
O4 O 0.67095(18) -0.03030(17) 0.13410(11) 0.0306(4) Uani 1 1 d . . .
O5 O 0.46906(16) 0.24769(15) 0.11919(10) 0.0220(4) Uani 1 1 d . . .
O6 O 0.51273(18) 0.20489(16) 0.02062(11) 0.0289(4) Uani 1 1 d . . .
O7 O 0.34210(16) -0.09532(15) 0.18904(10) 0.0227(4) Uani 1 1 d . . .
O8 O 0.10305(17) -0.13179(17) 0.10767(11) 0.0300(4) Uani 1 1 d . . .
O9 O 0.33432(16) -0.01881(15) 0.02060(10) 0.0221(4) Uani 1 1 d . . .
O10 O 0.10585(17) -0.09013(16) -0.04577(11) 0.0283(4) Uani 1 1 d . . .
O11 O 0.16987(15) 0.14745(15) 0.06980(10) 0.0214(4) Uani 1 1 d . . .
O12 O 0.21341(16) 0.36366(16) 0.10705(10) 0.0249(4) Uani 1 1 d . . .
C1 C 0.5044(3) 0.1539(2) 0.32913(17) 0.0246(6) Uani 1 1 d . . .
C2 C 0.6840(3) -0.0391(3) 0.20335(18) 0.0270(6) Uani 1 1 d . . .
C3 C 0.5083(3) 0.2801(3) 0.07083(17) 0.0277(6) Uani 1 1 d . . .
C4 C 0.2289(3) -0.1564(3) 0.16923(18) 0.0277(6) Uani 1 1 d . . .
C5 C 0.2196(3) -0.0819(3) -0.03872(18) 0.0282(6) Uani 1 1 d . . .
C6 C 0.1326(3) 0.2682(3) 0.06695(17) 0.0256(6) Uani 1 1 d . . .
C7 C 0.1795(4) 0.4007(4) -0.0900(3) 0.0869(15) Uani 1 1 d . . .
H7 H 0.2134 0.3402 -0.0429 0.104 Uiso 1 1 calc R . .
C8 C 0.1280(4) 0.5219(5) -0.0884(2) 0.0814(14) Uani 1 1 d . . .
H8 H 0.1285 0.5464 -0.0397 0.098 Uiso 1 1 calc R . .
C9 C 0.0755(3) 0.6086(3) -0.1573(2) 0.0518(9) Uani 1 1 d . . .
H9 H 0.0394 0.6931 -0.1564 0.062 Uiso 1 1 calc R . .
C10 C 0.0752(3) 0.5730(3) -0.2268(2) 0.0530(9) Uani 1 1 d . . .
H10 H 0.0374 0.6317 -0.2752 0.064 Uiso 1 1 calc R . .
C11 C 0.1301(4) 0.4513(3) -0.2267(2) 0.0541(9) Uani 1 1 d . . .
H11 H 0.1313 0.4269 -0.2748 0.065 Uiso 1 1 calc R . .
C12 C 0.1826(4) 0.3657(3) -0.1584(2) 0.0559(9) Uani 1 1 d . . .
H12 H 0.2212 0.2822 -0.1584 0.067 Uiso 1 1 calc R . .
H1 H 0.518(2) 0.226(2) 0.3682(14) 0.016(6) Uiso 1 1 d . . .
H2 H 0.778(3) -0.059(3) 0.2540(19) 0.049(9) Uiso 1 1 d . . .
H3 H 0.543(3) 0.377(3) 0.0776(17) 0.048(8) Uiso 1 1 d . . .
H4 H 0.243(3) -0.228(3) 0.2066(18) 0.046(8) Uiso 1 1 d . . .
H5 H 0.219(2) -0.129(2) -0.0846(15) 0.021(6) Uiso 1 1 d . . .
H6 H 0.037(3) 0.283(2) 0.0311(15) 0.018(6) Uiso 1 1 d . . .

loop_
_atom_site_aniso_label
_atom_site_aniso_U_11
_atom_site_aniso_U_22
_atom_site_aniso_U_33
_atom_site_aniso_U_23
_atom_site_aniso_U_13
_atom_site_aniso_U_12
Fe1 0.01741(18) 0.01824(19) 0.01803(19) -0.00040(14) 0.01055(15) -0.00004(14)
Fe2 0.02018(19) 0.01907(19) 0.0191(2) 0.00137(14) 0.01148(16) 0.00060(14)
Fe3 0.0197(3) 0.0232(3) 0.0210(3) -0.0023(2) 0.0138(2) -0.0007(2)
Fe4 0.0159(3) 0.0244(3) 0.0212(3) -0.0028(2) 0.0107(2) -0.0020(2)
O1 0.0237(9) 0.0189(8) 0.0178(9) -0.0002(7) 0.0113(8) 0.0000(7)
O2 0.0344(10) 0.0228(10) 0.0223(10) 0.0014(7) 0.0156(9) 0.0048(8)
O3 0.0202(9) 0.0271(9) 0.0226(9) 0.0043(7) 0.0140(8) 0.0035(7)
O4 0.0258(10) 0.0466(11) 0.0233(10) 0.0020(8) 0.0167(9) 0.0038(8)
O5 0.0279(9) 0.0193(8) 0.0257(9) -0.0018(7) 0.0197(8) -0.0021(7)
O6 0.0393(11) 0.0252(10) 0.0364(11) -0.0032(8) 0.0302(10) -0.0009(8)
O7 0.0189(9) 0.0233(9) 0.0241(10) 0.0008(7) 0.0117(8) -0.0014(7)
O8 0.0205(10) 0.0374(11) 0.0258(10) 0.0042(8) 0.0103(9) -0.0045(8)
O9 0.0184(9) 0.0270(9) 0.0229(9) -0.0061(7) 0.0133(8) -0.0049(7)
O10 0.0205(9) 0.0356(11) 0.0331(11) -0.0092(8) 0.0182(9) -0.0048(7)
O11 0.0180(9) 0.0197(9) 0.0232(10) -0.0029(7) 0.0104(8) -0.0016(7)
O12 0.0216(9) 0.0221(9) 0.0243(10) -0.0026(8) 0.0101(8) -0.0010(8)
C1 0.0280(14) 0.0205(14) 0.0266(16) -0.0046(12) 0.0169(13) -0.0021(11)
C2 0.0207(14) 0.0308(15) 0.0253(16) 0.0022(12) 0.0113(13) 0.0031(11)
C3 0.0340(16) 0.0215(15) 0.0367(16) -0.0012(12) 0.0260(14) -0.0003(11)
C4 0.0272(16) 0.0267(15) 0.0275(16) 0.0044(12) 0.0154(14) -0.0019(12)
C5 0.0287(15) 0.0356(16) 0.0287(15) -0.0078(12) 0.0216(13) -0.0017(12)
C6 0.0174(14) 0.0318(16) 0.0239(14) 0.0009(12) 0.0104(13) 0.0027(12)
C7 0.092(3) 0.127(4) 0.061(3) 0.050(3) 0.056(3) 0.067(3)
C8 0.067(3) 0.138(4) 0.035(2) 0.006(2) 0.028(2) 0.047(3)
C9 0.0370(18) 0.054(2) 0.058(2) -0.0165(17) 0.0245(18) -0.0020(15)
C10 0.057(2) 0.051(2) 0.063(2) 0.0155(17) 0.043(2) 0.0074(16)
C11 0.069(2) 0.059(2) 0.0409(19) 0.0010(16) 0.0360(18) 0.0116(18)
C12 0.067(2) 0.052(2) 0.056(2) 0.0164(18) 0.040(2) 0.0241(18)

_geom_special_details            
;
All esds (except the esd in the dihedral angle between two l.s. planes)
are estimated using the full covariance matrix. The cell esds are taken
into account individually in the estimation of esds in distances, angles
and torsion angles; correlations between esds in cell parameters are only
used when they are defined by crystal symmetry. An approximate (isotropic)
treatment of cell esds is used for estimating esds involving l.s. planes.
;

loop_
_geom_bond_atom_site_label_1
_geom_bond_atom_site_label_2
_geom_bond_distance
_geom_bond_site_symmetry_2
_geom_bond_publ_flag
Fe1 O11 2.0947(15) . ?
Fe1 O9 2.0952(16) . ?
Fe1 O3 2.1051(15) . ?
Fe1 O5 2.1468(15) . ?
Fe1 O7 2.1508(15) . ?
Fe1 O1 2.1685(15) . ?
Fe2 O2 2.0681(16) . ?
Fe2 O12 2.0847(16) 2_645 ?
Fe2 O1 2.1355(15) 2_645 ?
Fe2 O3 2.1390(15) . ?
Fe2 O7 2.1474(16) . ?
Fe2 O5 2.1482(15) 2_645 ?
Fe3 O6 2.0888(16) 3_655 ?
Fe3 O6 2.0888(16) . ?
Fe3 O4 2.1119(17) . ?
Fe3 O4 2.1119(17) 3_655 ?
Fe3 O9 2.1624(15) . ?
Fe3 O9 2.1624(15) 3_655 ?
Fe4 O10 2.0721(16) 3 ?
Fe4 O10 2.0721(16) . ?
Fe4 O8 2.1081(17) . ?
Fe4 O8 2.1081(17) 3 ?
Fe4 O11 2.1650(14) . ?
Fe4 O11 2.1650(14) 3 ?
O1 C1 1.269(3) . ?
O1 Fe2 2.1355(15) 2_655 ?
O2 C1 1.237(3) . ?
O3 C2 1.269(3) . ?
O4 C2 1.229(3) . ?
O5 C3 1.278(3) . ?
O5 Fe2 2.1482(15) 2_655 ?
O6 C3 1.238(3) . ?
O7 C4 1.275(3) . ?
O8 C4 1.226(3) . ?
O9 C5 1.281(3) . ?
O10 C5 1.232(3) . ?
O11 C6 1.279(3) . ?
O12 C6 1.235(3) . ?
O12 Fe2 2.0847(16) 2_655 ?
C1 H1 0.98(2) . ?
C2 H2 0.94(3) . ?
C3 H3 1.03(3) . ?
C4 H4 0.96(3) . ?
C5 H5 0.99(2) . ?
C6 H6 0.89(2) . ?
C7 C12 1.362(5) . ?
C7 C8 1.363(5) . ?
C7 H7 0.9500 . ?
C8 C9 1.375(5) . ?
C8 H8 0.9500 . ?
C9 C10 1.361(4) . ?
C9 H9 0.9500 . ?
C10 C11 1.377(4) . ?
C10 H10 0.9500 . ?
C11 C12 1.359(4) . ?
C11 H11 0.9500 . ?
C12 H12 0.9500 . ?

loop_
_geom_angle_atom_site_label_1
_geom_angle_atom_site_label_2
_geom_angle_atom_site_label_3
_geom_angle
_geom_angle_site_symmetry_1
_geom_angle_site_symmetry_3
_geom_angle_publ_flag
O11 Fe1 O9 93.46(6) . . ?
O11 Fe1 O3 170.60(6) . . ?
O9 Fe1 O3 91.99(6) . . ?
O11 Fe1 O5 95.48(6) . . ?
O9 Fe1 O5 94.11(6) . . ?
O3 Fe1 O5 91.76(6) . . ?
O11 Fe1 O7 94.18(6) . . ?
O9 Fe1 O7 98.88(6) . . ?
O3 Fe1 O7 77.40(6) . . ?
O5 Fe1 O7 163.30(6) . . ?
O11 Fe1 O1 88.52(6) . . ?
O9 Fe1 O1 172.21(6) . . ?
O3 Fe1 O1 87.09(6) . . ?
O5 Fe1 O1 78.19(6) . . ?
O7 Fe1 O1 88.48(6) . . ?
O2 Fe2 O12 92.46(6) . 2_645 ?
O2 Fe2 O1 169.98(6) . 2_645 ?
O12 Fe2 O1 90.42(6) 2_645 2_645 ?
O2 Fe2 O3 95.68(6) . . ?
O12 Fe2 O3 90.11(6) 2_645 . ?
O1 Fe2 O3 93.91(6) 2_645 . ?
O2 Fe2 O7 91.20(6) . . ?
O12 Fe2 O7 166.66(6) 2_645 . ?
O1 Fe2 O7 88.16(6) 2_645 . ?
O3 Fe2 O7 76.75(6) . . ?
O2 Fe2 O5 91.44(6) . 2_645 ?
O12 Fe2 O5 91.60(6) 2_645 2_645 ?
O1 Fe2 O5 78.88(6) 2_645 2_645 ?
O3 Fe2 O5 172.60(6) . 2_645 ?
O7 Fe2 O5 101.14(6) . 2_645 ?
O6 Fe3 O6 180.00(10) 3_655 . ?
O6 Fe3 O4 89.63(7) 3_655 . ?
O6 Fe3 O4 90.37(7) . . ?
O6 Fe3 O4 90.37(7) 3_655 3_655 ?
O6 Fe3 O4 89.63(7) . 3_655 ?
O4 Fe3 O4 180.00(13) . 3_655 ?
O6 Fe3 O9 88.60(6) 3_655 . ?
O6 Fe3 O9 91.40(6) . . ?
O4 Fe3 O9 93.40(6) . . ?
O4 Fe3 O9 86.60(6) 3_655 . ?
O6 Fe3 O9 91.40(6) 3_655 3_655 ?
O6 Fe3 O9 88.60(6) . 3_655 ?
O4 Fe3 O9 86.60(6) . 3_655 ?
O4 Fe3 O9 93.40(6) 3_655 3_655 ?
O9 Fe3 O9 180.00(7) . 3_655 ?
O10 Fe4 O10 180.00(6) 3 . ?
O10 Fe4 O8 90.22(7) 3 . ?
O10 Fe4 O8 89.78(7) . . ?
O10 Fe4 O8 89.78(7) 3 3 ?
O10 Fe4 O8 90.22(7) . 3 ?
O8 Fe4 O8 180.00(11) . 3 ?
O10 Fe4 O11 89.03(6) 3 . ?
O10 Fe4 O11 90.97(6) . . ?
O8 Fe4 O11 93.32(6) . . ?
O8 Fe4 O11 86.68(6) 3 . ?
O10 Fe4 O11 90.97(6) 3 3 ?
O10 Fe4 O11 89.03(6) . 3 ?
O8 Fe4 O11 86.68(6) . 3 ?
O8 Fe4 O11 93.32(6) 3 3 ?
O11 Fe4 O11 180.00(17) . 3 ?
C1 O1 Fe2 127.99(15) . 2_655 ?
C1 O1 Fe1 132.67(15) . . ?
Fe2 O1 Fe1 96.47(6) 2_655 . ?
C1 O2 Fe2 127.57(16) . . ?
C2 O3 Fe1 133.11(16) . . ?
C2 O3 Fe2 125.24(16) . . ?
Fe1 O3 Fe2 99.31(6) . . ?
C2 O4 Fe3 136.73(17) . . ?
C3 O5 Fe1 134.66(15) . . ?
C3 O5 Fe2 127.83(15) . 2_655 ?
Fe1 O5 Fe2 96.75(6) . 2_655 ?
C3 O6 Fe3 135.78(16) . . ?
C4 O7 Fe2 127.90(16) . . ?
C4 O7 Fe1 134.26(16) . . ?
Fe2 O7 Fe1 97.63(6) . . ?
C4 O8 Fe4 135.44(16) . . ?
C5 O9 Fe1 128.00(15) . . ?
C5 O9 Fe3 116.18(15) . . ?
Fe1 O9 Fe3 115.80(7) . . ?
C5 O10 Fe4 140.37(17) . . ?
C6 O11 Fe1 127.64(15) . . ?
C6 O11 Fe4 117.97(15) . . ?
Fe1 O11 Fe4 114.39(7) . . ?
C6 O12 Fe2 131.38(16) . 2_655 ?
O2 C1 O1 126.4(2) . . ?
O2 C1 H1 117.5(13) . . ?
O1 C1 H1 116.0(13) . . ?
O4 C2 O3 126.4(2) . . ?
O4 C2 H2 116.1(17) . . ?
O3 C2 H2 117.5(17) . . ?
O6 C3 O5 125.8(2) . . ?
O6 C3 H3 119.2(15) . . ?
O5 C3 H3 115.0(15) . . ?
O8 C4 O7 126.9(2) . . ?
O8 C4 H4 116.2(17) . . ?
O7 C4 H4 116.9(17) . . ?
O10 C5 O9 126.8(2) . . ?
O10 C5 H5 115.0(13) . . ?
O9 C5 H5 118.2(12) . . ?
O12 C6 O11 127.2(2) . . ?
O12 C6 H6 117.8(14) . . ?
O11 C6 H6 115.1(14) . . ?
C12 C7 C8 120.5(3) . . ?
C12 C7 H7 119.7 . . ?
C8 C7 H7 119.7 . . ?
C7 C8 C9 120.0(3) . . ?
C7 C8 H8 120.0 . . ?
C9 C8 H8 120.0 . . ?
C10 C9 C8 119.7(3) . . ?
C10 C9 H9 120.1 . . ?
C8 C9 H9 120.1 . . ?
C9 C10 C11 119.6(3) . . ?
C9 C10 H10 120.2 . . ?
C11 C10 H10 120.2 . . ?
C12 C11 C10 120.7(3) . . ?
C12 C11 H11 119.7 . . ?
C10 C11 H11 119.7 . . ?
C11 C12 C7 119.4(3) . . ?
C11 C12 H12 120.3 . . ?
C7 C12 H12 120.3 . . ?

loop_
_geom_hbond_atom_site_label_D
_geom_hbond_atom_site_label_H
_geom_hbond_atom_site_label_A
_geom_hbond_distance_DH
_geom_hbond_distance_HA
_geom_hbond_distance_DA
_geom_hbond_angle_DHA
_geom_hbond_site_symmetry_A
C1 H1 O3 0.98(2) 2.87(2) 3.409(3) 115.3(15) 2_655
C1 H1 O6 0.98(2) 3.00(2) 3.838(3) 144.5(16) 4_566
C1 H1 O9 0.98(2) 3.11(2) 4.014(3) 154.1(15) 2_655
C2 H2 O12 0.94(3) 2.68(3) 3.191(3) 114(2) 2_645
C3 H3 O2 1.03(3) 2.59(3) 3.181(3) 115.9(18) 2_655
C4 H4 O5 0.96(3) 2.98(3) 3.532(3) 118(2) 2_645
C5 H5 O4 0.99(2) 2.53(2) 2.966(3) 106.2(15) 3_655
C5 H5 O6 0.99(2) 2.66(2) 3.135(3) 109.8(15) 3_655
C6 H6 O8 0.89(2) 2.61(2) 3.081(3) 114.1(17) 3
C6 H6 O10 0.89(2) 2.66(2) 3.090(3) 110.3(17) 3

_diffrn_measured_fraction_theta_max 0.998
_diffrn_reflns_theta_full        27.50
_diffrn_measured_fraction_theta_full 0.998
_refine_diff_density_max         0.336
_refine_diff_density_min         -0.343
_refine_diff_density_rms         0.084
