####################################################################### 
# 
# This file contains crystal structure data downloaded from the 
# Cambridge Structural Database (CSD) hosted by the Cambridge 
# Crystallographic Data Centre (CCDC).
# 
# Full information about CCDC data access policies and citation 
# guidelines are available at http://www.ccdc.cam.ac.uk/access/V1 
# 
# Audit and citation data items may have been added by the CCDC. 
# Please retain this information to preserve the provenance of 
# this file and to allow appropriate attribution of the data. 
# 
#######################################################################

data_compound_8
_audit_block_doi                 10.5517/ccn8849
_database_code_depnum_ccdc_archive 'CCDC 603760'
loop_
_citation_id
_citation_doi
_citation_year
1 10.1002/marc.200600246 2006
_audit_update_record             
;
2006-04-05 deposited with the CCDC.	2024-07-11 downloaded from the CCDC.
;
# data_nm1

_audit_creation_method           SHELXL-97
_chemical_name_systematic        
;
?
;
_chemical_name_common            ?
_chemical_melting_point          ?
_chemical_formula_moiety         ?
_chemical_formula_sum            'C15 H21 Ag N2 O5'
_chemical_formula_weight         417.21

loop_
_atom_type_symbol
_atom_type_description
_atom_type_scat_dispersion_real
_atom_type_scat_dispersion_imag
_atom_type_scat_source
C C 0.0033 0.0016 'International Tables Vol C Tables 4.2.6.8 and 6.1.1.4'
H H 0.0000 0.0000 'International Tables Vol C Tables 4.2.6.8 and 6.1.1.4'
N N 0.0061 0.0033 'International Tables Vol C Tables 4.2.6.8 and 6.1.1.4'
O O 0.0106 0.0060 'International Tables Vol C Tables 4.2.6.8 and 6.1.1.4'
Ag Ag -0.8971 1.1015 'International Tables Vol C Tables 4.2.6.8 and 6.1.1.4'

_symmetry_cell_setting           Triclinic
_symmetry_space_group_name_H-M   P-1

loop_
_symmetry_equiv_pos_as_xyz
'x, y, z'
'-x, -y, -z'

_cell_length_a                   9.4533(7)
_cell_length_b                   9.5506(7)
_cell_length_c                   10.9121(8)
_cell_angle_alpha                94.267(2)
_cell_angle_beta                 115.4140(10)
_cell_angle_gamma                93.176(2)
_cell_volume                     883.21(11)
_cell_formula_units_Z            2
_cell_measurement_temperature    223(2)
_cell_measurement_reflns_used    2992
_cell_measurement_theta_min      2.39
_cell_measurement_theta_max      29.31

_exptl_crystal_description       plate
_exptl_crystal_colour            cream
_exptl_crystal_size_max          0.47
_exptl_crystal_size_mid          0.15
_exptl_crystal_size_min          0.08
_exptl_crystal_density_meas      0
_exptl_crystal_density_diffrn    1.569
_exptl_crystal_density_method    'not measured'
_exptl_crystal_F_000             424
_exptl_absorpt_coefficient_mu    1.166
_exptl_absorpt_correction_type   none
_exptl_absorpt_correction_T_min  0.7781
_exptl_absorpt_correction_T_max  1.0000
_exptl_absorpt_process_details   ?

_exptl_special_details           
;
?
;

_diffrn_ambient_temperature      223(2)
_diffrn_radiation_wavelength     0.71073
_diffrn_radiation_type           MoK\a
_diffrn_radiation_source         'fine-focus sealed tube'
_diffrn_radiation_monochromator  graphite
_diffrn_measurement_device_type  'CCD area detector'
_diffrn_measurement_method       'phi and omega scans'
_diffrn_detector_area_resol_mean ?
_diffrn_standards_number         ?
_diffrn_standards_interval_count ?
_diffrn_standards_interval_time  ?
_diffrn_standards_decay_%        ?
_diffrn_reflns_number            5661
_diffrn_reflns_av_R_equivalents  0.0206
_diffrn_reflns_av_sigmaI/netI    0.0332
_diffrn_reflns_limit_h_min       -11
_diffrn_reflns_limit_h_max       11
_diffrn_reflns_limit_k_min       -8
_diffrn_reflns_limit_k_max       11
_diffrn_reflns_limit_l_min       -12
_diffrn_reflns_limit_l_max       12
_diffrn_reflns_theta_min         2.08
_diffrn_reflns_theta_max         25.00
_reflns_number_total             3115
_reflns_number_gt                2861
_reflns_threshold_expression     >2sigma(I)

_computing_data_collection       'Bruker SMART'
_computing_cell_refinement       'Bruker SMART'
_computing_data_reduction        'Bruker SAINT'
_computing_structure_solution    'SHELXS-97 (Sheldrick, 1990)'
_computing_structure_refinement  'SHELXL-97 (Sheldrick, 1997)'
_computing_molecular_graphics    'Bruker SHELXTL'
_computing_publication_material  'Bruker SHELXTL'

_refine_special_details          
;
Refinement of F^2^ against ALL reflections. The weighted R-factor wR and
goodness of fit S are based on F^2^, conventional R-factors R are based
on F, with F set to zero for negative F^2^. The threshold expression of
F^2^ > 2sigma(F^2^) is used only for calculating R-factors(gt) etc. and is
not relevant to the choice of reflections for refinement. R-factors based
on F^2^ are statistically about twice as large as those based on F, and R-
factors based on ALL data will be even larger.
;

_refine_ls_structure_factor_coef Fsqd
_refine_ls_matrix_type           full
_refine_ls_weighting_scheme      calc
_refine_ls_weighting_details     
'calc w=1/[\s^2^(Fo^2^)+(0.0628P)^2^+1.4437P] where P=(Fo^2^+2Fc^2^)/3'
_atom_sites_solution_primary     direct
_atom_sites_solution_secondary   difmap
_atom_sites_solution_hydrogens   geom
_refine_ls_hydrogen_treatment    mixed
_refine_ls_extinction_method     none
_refine_ls_extinction_coef       ?
_refine_ls_number_reflns         3115
_refine_ls_number_parameters     236
_refine_ls_number_restraints     0
_refine_ls_R_factor_all          0.0437
_refine_ls_R_factor_gt           0.0401
_refine_ls_wR_factor_ref         0.1107
_refine_ls_wR_factor_gt          0.1085
_refine_ls_goodness_of_fit_ref   1.058
_refine_ls_restrained_S_all      1.058
_refine_ls_shift/su_max          0.002
_refine_ls_shift/su_mean         0.000

loop_
_atom_site_label
_atom_site_type_symbol
_atom_site_fract_x
_atom_site_fract_y
_atom_site_fract_z
_atom_site_U_iso_or_equiv
_atom_site_adp_type
_atom_site_occupancy
_atom_site_symmetry_multiplicity
_atom_site_calc_flag
_atom_site_refinement_flags
_atom_site_disorder_assembly
_atom_site_disorder_group
Ag1 Ag 0.26255(4) 0.60173(3) 0.51105(3) 0.03648(15) Uani 1 1 d . . .
O1 O 0.3765(4) 0.8547(4) 0.5884(4) 0.0479(8) Uani 1 1 d . . .
O2 O 0.1487(4) 0.8453(4) 0.4108(4) 0.0529(9) Uani 1 1 d . . .
N1 N 0.1780(4) 0.5786(4) 0.6676(3) 0.0307(8) Uani 1 1 d . . .
C1 C 0.1142(5) 0.4572(5) 0.6854(4) 0.0324(9) Uani 1 1 d . . .
H1 H 0.1047 0.3761 0.6271 0.039 Uiso 1 1 calc R . .
C2 C 0.0622(5) 0.4451(4) 0.7840(4) 0.0313(9) Uani 1 1 d . . .
H2 H 0.0191 0.3572 0.7923 0.038 Uiso 1 1 calc R . .
C3 C 0.0733(4) 0.5630(4) 0.8720(4) 0.0271(8) Uani 1 1 d . . .
C4 C 0.1387(5) 0.6882(5) 0.8530(5) 0.0350(10) Uani 1 1 d . . .
H4 H 0.1494 0.7712 0.9095 0.042 Uiso 1 1 calc R . .
C5 C 0.1885(5) 0.6912(5) 0.7508(4) 0.0360(10) Uani 1 1 d . . .
H5 H 0.2320 0.7776 0.7398 0.043 Uiso 1 1 calc R . .
N2 N 0.3393(4) 0.5437(4) 0.3522(3) 0.0301(7) Uani 1 1 d . . .
C6 C 0.3753(5) 0.6477(4) 0.2914(4) 0.0312(9) Uani 1 1 d . . .
H6 H 0.3682 0.7411 0.3205 0.037 Uiso 1 1 calc R . .
C7 C 0.4219(5) 0.6254(5) 0.1893(4) 0.0306(9) Uani 1 1 d . . .
H7 H 0.4464 0.7023 0.1506 0.037 Uiso 1 1 calc R . .
C8 C 0.4330(4) 0.4885(4) 0.1431(4) 0.0269(8) Uani 1 1 d . . .
C9 C 0.3968(5) 0.3809(5) 0.2066(4) 0.0345(10) Uani 1 1 d . . .
H9 H 0.4027 0.2864 0.1795 0.041 Uiso 1 1 calc R . .
C10 C 0.3523(5) 0.4127(5) 0.3091(5) 0.0362(10) Uani 1 1 d . . .
H10 H 0.3297 0.3379 0.3513 0.043 Uiso 1 1 calc R . .
C11 C 0.0222(5) 0.5587(4) 0.9809(4) 0.0282(8) Uani 1 1 d . . .
H11 H 0.0206 0.6451 1.0272 0.034 Uiso 1 1 calc R . .
C12 C 0.4793(5) 0.4538(4) 0.0339(4) 0.0294(9) Uani 1 1 d . . .
H12 H 0.4802 0.3577 0.0089 0.035 Uiso 1 1 calc R . .
C13 C 0.2692(5) 0.9127(5) 0.5007(5) 0.0357(10) Uani 1 1 d . . .
C14 C 0.2912(6) 1.0728(5) 0.5063(6) 0.0521(13) Uani 1 1 d . . .
H14A H 0.3488 1.1114 0.6023 0.062 Uiso 1 1 calc R . .
H14B H 0.3580 1.0957 0.4610 0.062 Uiso 1 1 calc R . .
C15 C 0.1473(7) 1.1466(6) 0.4445(7) 0.0605(15) Uani 1 1 d . . .
H15A H 0.0988 1.1236 0.3462 0.091 Uiso 1 1 calc R . .
H15B H 0.1748 1.2477 0.4665 0.091 Uiso 1 1 calc R . .
H15C H 0.0739 1.1170 0.4803 0.091 Uiso 1 1 calc R . .
O1S O -0.4155(5) 0.0050(5) -0.1785(4) 0.0708(12) Uani 1 1 d . . .
O2S O 0.4192(10) 0.0940(9) -0.0540(8) 0.065(2) Uani 0.50 1 d P . .
O3S O 0.2366(13) 0.0990(10) -0.1602(10) 0.081(3) Uani 0.50 1 d P . .
O4S O 0.0714(9) 0.0965(10) -0.1767(8) 0.069(3) Uani 0.50 1 d P . .
O5S O -0.1168(14) 0.0985(13) -0.1402(14) 0.039(3) Uani 0.25 1 d P . .
O6S O -0.0986(18) 0.019(3) -0.0649(16) 0.099(9) Uani 0.25 1 d P . .

loop_
_atom_site_aniso_label
_atom_site_aniso_U_11
_atom_site_aniso_U_22
_atom_site_aniso_U_33
_atom_site_aniso_U_23
_atom_site_aniso_U_13
_atom_site_aniso_U_12
Ag1 0.0502(2) 0.0405(2) 0.0342(2) 0.00566(14) 0.03273(18) 0.00310(15)
O1 0.051(2) 0.0377(18) 0.054(2) 0.0109(16) 0.0206(17) 0.0030(15)
O2 0.045(2) 0.042(2) 0.058(2) 0.0007(17) 0.0123(18) -0.0027(16)
N1 0.0330(18) 0.040(2) 0.0262(17) 0.0062(15) 0.0195(15) 0.0024(15)
C1 0.040(2) 0.035(2) 0.028(2) -0.0002(17) 0.0208(19) -0.0001(18)
C2 0.038(2) 0.030(2) 0.033(2) 0.0030(17) 0.0223(19) -0.0041(18)
C3 0.026(2) 0.035(2) 0.025(2) 0.0056(16) 0.0150(17) 0.0032(16)
C4 0.049(3) 0.030(2) 0.037(2) 0.0024(18) 0.030(2) 0.0018(19)
C5 0.051(3) 0.033(2) 0.036(2) 0.0053(18) 0.030(2) -0.0012(19)
N2 0.0332(18) 0.0374(19) 0.0273(17) 0.0042(14) 0.0202(15) 0.0042(15)
C6 0.038(2) 0.029(2) 0.031(2) -0.0004(17) 0.0204(19) -0.0021(17)
C7 0.036(2) 0.032(2) 0.031(2) 0.0040(17) 0.0227(19) -0.0020(17)
C8 0.027(2) 0.034(2) 0.0245(19) 0.0037(16) 0.0155(17) 0.0022(16)
C9 0.051(3) 0.028(2) 0.037(2) 0.0064(18) 0.030(2) 0.0094(19)
C10 0.050(3) 0.033(2) 0.041(2) 0.0121(19) 0.033(2) 0.006(2)
C11 0.030(2) 0.036(2) 0.024(2) 0.0004(16) 0.0166(17) 0.0030(17)
C12 0.031(2) 0.034(2) 0.026(2) 0.0004(16) 0.0159(18) 0.0037(17)
C13 0.040(3) 0.034(2) 0.043(3) 0.005(2) 0.028(2) 0.000(2)
C14 0.052(3) 0.039(3) 0.068(4) 0.012(2) 0.028(3) -0.002(2)
C15 0.073(4) 0.041(3) 0.086(4) 0.009(3) 0.052(4) 0.005(3)
O1S 0.060(3) 0.082(3) 0.061(3) 0.009(2) 0.017(2) 0.008(2)
O2S 0.071(5) 0.069(5) 0.061(5) 0.012(4) 0.034(4) 0.012(4)
O3S 0.113(8) 0.058(5) 0.094(7) 0.027(5) 0.061(6) 0.021(5)
O4S 0.050(4) 0.086(6) 0.047(4) 0.029(4) -0.002(4) -0.020(4)
O5S 0.031(6) 0.033(6) 0.045(8) -0.018(6) 0.013(6) -0.007(5)
O6S 0.034(8) 0.24(3) 0.043(9) 0.061(14) 0.023(7) 0.057(13)

_geom_special_details            
;
All esds (except the esd in the dihedral angle between two l.s. planes)
are estimated using the full covariance matrix. The cell esds are taken
into account individually in the estimation of esds in distances, angles
and torsion angles; correlations between esds in cell parameters are only
used when they are defined by crystal symmetry. An approximate (isotropic)
treatment of cell esds is used for estimating esds involving l.s. planes.
;

loop_
_geom_bond_atom_site_label_1
_geom_bond_atom_site_label_2
_geom_bond_distance
_geom_bond_site_symmetry_2
_geom_bond_publ_flag
Ag1 N1 2.194(3) . ?
Ag1 N2 2.195(3) . ?
Ag1 O1 2.517(3) . ?
O1 C13 1.249(5) . ?
O2 C13 1.241(6) . ?
N1 C5 1.324(6) . ?
N1 C1 1.343(6) . ?
C1 C2 1.371(6) . ?
C2 C3 1.393(6) . ?
C3 C4 1.386(6) . ?
C3 C11 1.464(5) . ?
C4 C5 1.386(6) . ?
N2 C10 1.335(6) . ?
N2 C6 1.340(5) . ?
C6 C7 1.371(6) . ?
C7 C8 1.391(6) . ?
C8 C9 1.387(6) . ?
C8 C12 1.460(5) . ?
C9 C10 1.375(6) . ?
C11 C11 1.332(8) 2_567 ?
C12 C12 1.335(8) 2_665 ?
C13 C14 1.525(7) . ?
C14 C15 1.481(8) . ?
O2S O3S 1.620(13) . ?
O3S O4S 1.492(13) . ?
O5S O6S 1.13(2) . ?

loop_
_geom_angle_atom_site_label_1
_geom_angle_atom_site_label_2
_geom_angle_atom_site_label_3
_geom_angle
_geom_angle_site_symmetry_1
_geom_angle_site_symmetry_3
_geom_angle_publ_flag
N1 Ag1 N2 159.75(14) . . ?
N1 Ag1 O1 96.50(13) . . ?
N2 Ag1 O1 102.53(13) . . ?
C13 O1 Ag1 98.9(3) . . ?
C5 N1 C1 116.7(4) . . ?
C5 N1 Ag1 118.8(3) . . ?
C1 N1 Ag1 124.5(3) . . ?
N1 C1 C2 123.6(4) . . ?
C1 C2 C3 120.0(4) . . ?
C4 C3 C2 116.2(4) . . ?
C4 C3 C11 120.4(4) . . ?
C2 C3 C11 123.4(4) . . ?
C3 C4 C5 120.1(4) . . ?
N1 C5 C4 123.4(4) . . ?
C10 N2 C6 116.4(3) . . ?
C10 N2 Ag1 125.7(3) . . ?
C6 N2 Ag1 117.9(3) . . ?
N2 C6 C7 123.7(4) . . ?
C6 C7 C8 119.8(4) . . ?
C9 C8 C7 116.6(4) . . ?
C9 C8 C12 119.4(4) . . ?
C7 C8 C12 123.9(4) . . ?
C10 C9 C8 119.8(4) . . ?
N2 C10 C9 123.7(4) . . ?
C11 C11 C3 124.9(5) 2_567 . ?
C12 C12 C8 126.0(5) 2_665 . ?
O2 C13 O1 122.7(4) . . ?
O2 C13 C14 120.0(4) . . ?
O1 C13 C14 117.4(4) . . ?
C15 C14 C13 117.2(5) . . ?
O4S O3S O2S 145.6(8) . . ?

_diffrn_measured_fraction_theta_max 0.999
_diffrn_reflns_theta_full        25.00
_diffrn_measured_fraction_theta_full 0.999
_refine_diff_density_max         1.222
_refine_diff_density_min         -0.321
_refine_diff_density_rms         0.115


#=====#END




