####################################################################### 
# 
# This file contains crystal structure data downloaded from the 
# Cambridge Structural Database (CSD) hosted by the Cambridge 
# Crystallographic Data Centre (CCDC).
# 
# Full information about CCDC data access policies and citation 
# guidelines are available at http://www.ccdc.cam.ac.uk/access/V1 
# 
# Audit and citation data items may have been added by the CCDC. 
# Please retain this information to preserve the provenance of 
# this file and to allow appropriate attribution of the data. 
# 
#######################################################################

data_NIKDAM
#This CIF has been generated from an entry in the Cambridge Structural Database
_database_code_depnum_ccdc_archive 'CCDC 1220076'
_database_code_CSD               NIKDAM
loop_
_citation_id
_citation_doi
_citation_year
1 10.1021/ic960934h 1997
_audit_creation_method           'Created from the CSD'
_audit_update_record             
;
2024-07-11 downloaded from the CCDC.
;
_database_code_NBS               685743
_chemical_formula_moiety         '(C22 H41 Ce1 N4 O10)n,10n(H2 O1)'
_chemical_name_systematic        
"catena-((\m~3~-3,3'-[4,11-bis(2-carboxylatoethyl)-1,4,8,11-tetra-azacyclotetradecane-4,11-di-ium-1,8-diyl]dipropanoate)-aqua-hydroxy-cerium(iii) decahydrate)"
_chemical_absolute_configuration unk
_diffrn_ambient_temperature      295
_exptl_crystal_density_diffrn    1.2874
#These two values have been output from a single CSD field.
_refine_ls_R_factor_gt           0.057
_refine_ls_wR_factor_gt          0.057
_diffrn_radiation_probe          x-ray
_symmetry_cell_setting           monoclinic
_symmetry_space_group_name_H-M   'C 2/c'
_symmetry_Int_Tables_number      15
_space_group_name_Hall           '-C 2yc'
loop_
_symmetry_equiv_pos_site_id
_symmetry_equiv_pos_as_xyz
1 x,y,z
2 -x,y,1/2-z
3 1/2+x,1/2+y,z
4 1/2-x,1/2+y,1/2-z
5 -x,-y,-z
6 x,-y,1/2+z
7 1/2-x,1/2-y,-z
8 1/2+x,1/2-y,1/2+z
_cell_length_a                   29.523(4)
_cell_length_b                   17.492(3)
_cell_length_c                   8.509(1)
_cell_angle_alpha                90
_cell_angle_beta                 98.72(1)
_cell_angle_gamma                90
_cell_volume                     4343.39
_exptl_crystal_colour            colorless
_cell_formula_units_Z            4
loop_
_atom_site_label
_atom_site_type_symbol
_atom_site_fract_x
_atom_site_fract_y
_atom_site_fract_z
Ce1 Ce 0.5000 0.49093(4) 0.7500
O1 O 0.5420(2) 0.4674(3) 1.0149(7)
O5 O 0.5447(3) 0.3774(4) 0.6822(9)
O5 O 0.4553(3) 0.3774(4) 0.8178(9)
O1 O 0.4580(2) 0.4674(3) 0.4851(7)
O1 O 0.4580(2) 0.5326(3) 0.9851(7)
O1 O 0.5420(2) 0.5326(3) 0.5149(7)
O2 O 0.4164(2) 0.5415(4) 0.7502(7)
O2 O 0.5836(2) 0.5415(4) 0.7498(7)
C8 C 0.5797(3) 0.4483(5) 1.1039(9)
Ce1 Ce 0.5000 0.50907(4) 1.2500
O2 O 0.5836(2) 0.4585(4) 1.2498(7)
C7 C 0.6156(3) 0.4110(5) 1.024(1)
C6 C 0.6607(3) 0.4072(5) 1.134(1)
H14 H 0.6174 0.4340 0.9254
H15 H 0.6062 0.3539 0.9883
N1 N 0.6984(2) 0.3731(4) 1.0541(9)
H12 H 0.6707 0.4630 1.1712
H13 H 0.6564 0.3730 1.2378
C1 C 0.7110(3) 0.4260(5) 0.928(1)
H1 H 0.7270 0.3765 1.1303
C5 C 0.6885(3) 0.2936(5) 0.996(1)
C2 C 0.7552(3) 0.4013(5) 0.872(1)
H2 H 0.7231 0.4730 0.9552
H3 H 0.6883 0.4368 0.8430
C4 C 0.6821(3) 0.2390(5) 1.130(1)
H10 H 0.6607 0.2975 0.9261
H11 H 0.7136 0.2795 0.9351
N2 N 0.7905(2) 0.3771(4) 0.9990(9)
H4 H 0.7631 0.4416 0.8136
H5 H 0.7478 0.3552 0.7882
C3 C 0.6710(3) 0.1596(5) 1.068(1)
H8 H 0.7032 0.2430 1.2068
H9 H 0.6587 0.2565 1.1740
C9 C 0.8078(3) 0.4404(5) 1.105(1)
C3 C 0.8290(3) 0.3404(5) 0.932(1)
H6 H 0.6484 0.1599 0.9749
H7 H 0.6626 0.1248 1.1651
N2 N 0.7095(2) 0.1229(4) 1.0010(9)
C10 C 0.8305(3) 0.4121(6) 1.268(1)
H16 H 0.7899 0.4905 1.1155
H17 H 0.8333 0.4710 1.0463
C4 C 0.8179(3) 0.2610(5) 0.870(1)
H6 H 0.8516 0.3401 1.0251
H7 H 0.8374 0.3752 0.8349
C2 C 0.7448(3) 0.0987(5) 1.128(1)
C9 C 0.6922(3) 0.0596(5) 0.895(1)
C11 C 0.7983(3) 0.3747(6) 1.366(1)
H18 H 0.8509 0.3720 1.2114
H19 H 0.8458 0.4618 1.3311
C5 C 0.8115(3) 0.2064(5) 1.004(1)
H8 H 0.7968 0.2570 0.7932
H9 H 0.8413 0.2435 0.8260
C1 C 0.7890(3) 0.0740(5) 1.072(1)
H4 H 0.7369 0.0584 1.1864
H5 H 0.7522 0.1448 1.2118
C10 C 0.6695(3) 0.0879(6) 0.732(1)
H16 H 0.7101 0.0095 0.8845
H17 H 0.6667 0.0290 0.9537
O3 O 0.7559(2) 0.3839(4) 1.3299(8)
O4 O 0.8162(3) 0.3375(6) 1.486(1)
N1 N 0.8016(2) 0.1269(4) 0.9459(9)
H10 H 0.8393 0.2025 1.0739
H11 H 0.7864 0.2205 1.0649
H2 H 0.7769 0.0270 1.0448
H3 H 0.8117 0.0632 1.1570
C11 C 0.7017(3) 0.1253(6) 0.634(1)
H18 H 0.6491 0.1280 0.7886
H19 H 0.6542 0.0382 0.6689
C6 C 0.8393(3) 0.0928(5) 0.866(1)
H1 H 0.7730 0.1235 0.8697
O3 O 0.7441(2) 0.1161(4) 0.6701(8)
O4 O 0.6838(3) 0.1625(6) 0.514(1)
C7 C 0.8844(3) 0.0890(5) 0.976(1)
H12 H 0.8293 0.0370 0.8288
H13 H 0.8436 0.1270 0.7622
C8 C 0.9203(3) 0.0517(5) 0.8961(9)
H14 H 0.8826 0.0660 1.0746
H15 H 0.8938 0.1461 1.0117
O1 O 0.9580(2) 0.0326(3) 0.9851(7)
O2 O 0.9164(2) 0.0415(4) 0.7502(7)
Ce1 Ce 1.0000 -0.00907(4) 0.7500
Ce1 Ce 1.0000 0.00907(4) 1.2500
O6 O 0.7007(3) 0.3183(5) 0.539(1)
H20 H 0.7196 0.3288 0.4931
H21 H 0.6975 0.2596 0.5581
O7 O 0.6235(3) 0.4004(5) 0.5525(9)
H22 H 0.6167 0.4062 0.4445
H23 H 0.6487 0.3618 0.5423
O8 O 0.5622(6) 0.7313(8) 0.667(3)
O9 O 0.4063(5) 0.831(1) 0.583(3)
O10 O 0.528(1) 0.228(1) 0.592(5)
H24? H 0.3784 0.8420 0.6182

#END
