####################################################################### 
# 
# This file contains crystal structure data downloaded from the 
# Cambridge Structural Database (CSD) hosted by the Cambridge 
# Crystallographic Data Centre (CCDC).
# 
# Full information about CCDC data access policies and citation 
# guidelines are available at http://www.ccdc.cam.ac.uk/access/V1 
# 
# Audit and citation data items may have been added by the CCDC. 
# Please retain this information to preserve the provenance of 
# this file and to allow appropriate attribution of the data. 
# 
#######################################################################

data_sqcoscn44ss
_audit_block_doi                 10.5517/ccpb88j
_database_code_depnum_ccdc_archive 'CCDC 635477'
loop_
_citation_id
_citation_doi
_citation_year
1 10.1002/zaac.200700123 2007
_audit_update_record             
;
2007-02-01 deposited with the CCDC.	2024-07-11 downloaded from the CCDC.
;

_audit_creation_method           SHELXL-97
_chemical_name_systematic        
;
?
;
_chemical_name_common            ?
_chemical_melting_point          ?
_chemical_formula_moiety         ?
_chemical_formula_sum            'C22 H16 Co N6 O0 S6'
_chemical_formula_weight         615.70

loop_
_atom_type_symbol
_atom_type_description
_atom_type_scat_dispersion_real
_atom_type_scat_dispersion_imag
_atom_type_scat_source
C C 0.0033 0.0016 'International Tables Vol C Tables 4.2.6.8 and 6.1.1.4'
H H 0.0000 0.0000 'International Tables Vol C Tables 4.2.6.8 and 6.1.1.4'
N N 0.0061 0.0033 'International Tables Vol C Tables 4.2.6.8 and 6.1.1.4'
S S 0.1246 0.1234 'International Tables Vol C Tables 4.2.6.8 and 6.1.1.4'
O O 0.0106 0.0060 'International Tables Vol C Tables 4.2.6.8 and 6.1.1.4'
Co Co 0.3494 0.9721 'International Tables Vol C Tables 4.2.6.8 and 6.1.1.4'

_symmetry_cell_setting           Orthorhombic
_symmetry_space_group_name_H-M   Ccc2

loop_
_symmetry_equiv_pos_as_xyz
'x, y, z'
'-x, -y, z'
'x, -y, z+1/2'
'-x, y, z+1/2'
'x+1/2, y+1/2, z'
'-x+1/2, -y+1/2, z'
'x+1/2, -y+1/2, z+1/2'
'-x+1/2, y+1/2, z+1/2'

_cell_length_a                   14.311(5)
_cell_length_b                   20.398(7)
_cell_length_c                   10.832(4)
_cell_angle_alpha                90.00
_cell_angle_beta                 90.00
_cell_angle_gamma                90.00
_cell_volume                     3162.0(18)
_cell_formula_units_Z            4
_cell_measurement_temperature    293(2)
_cell_measurement_reflns_used    ?
_cell_measurement_theta_min      ?
_cell_measurement_theta_max      ?

_exptl_crystal_description       prism
_exptl_crystal_colour            pink
_exptl_crystal_size_max          0.10
_exptl_crystal_size_mid          0.18
_exptl_crystal_size_min          0.31
_exptl_crystal_density_meas      ?
_exptl_crystal_density_diffrn    1.293
_exptl_crystal_density_method    'not measured'
_exptl_crystal_F_000             1252
_exptl_absorpt_coefficient_mu    0.959
_exptl_absorpt_correction_type   multiscan
_exptl_absorpt_correction_T_min  0.6136
_exptl_absorpt_correction_T_max  1.0000
_exptl_absorpt_process_details   ?

_exptl_special_details           
;
?
;

_diffrn_ambient_temperature      293(2)
_diffrn_radiation_wavelength     0.71073
_diffrn_radiation_type           MoK\a
_diffrn_radiation_source         'fine-focus sealed tube'
_diffrn_radiation_monochromator  graphite
_diffrn_measurement_device_type  'CCD area detector'
_diffrn_measurement_method       'phi and omega scans'
_diffrn_detector_area_resol_mean ?
_diffrn_standards_number         ?
_diffrn_standards_interval_count ?
_diffrn_standards_interval_time  ?
_diffrn_standards_decay_%        ?
_diffrn_reflns_number            10074
_diffrn_reflns_av_R_equivalents  0.1336
_diffrn_reflns_av_sigmaI/netI    0.2591
_diffrn_reflns_limit_h_min       -18
_diffrn_reflns_limit_h_max       15
_diffrn_reflns_limit_k_min       -26
_diffrn_reflns_limit_k_max       23
_diffrn_reflns_limit_l_min       -14
_diffrn_reflns_limit_l_max       13
_diffrn_reflns_theta_min         1.74
_diffrn_reflns_theta_max         28.03
_reflns_number_total             3632
_reflns_number_gt                1093
_reflns_threshold_expression     >2sigma(I)

_computing_data_collection       'Bruker SMART'
_computing_cell_refinement       'Bruker SMART'
_computing_data_reduction        'Bruker SHELXTL'
_computing_structure_solution    'SHELXS-97 (Sheldrick, 1990)'
_computing_structure_refinement  'SHELXL-97 (Sheldrick, 1997)'
_computing_molecular_graphics    'Bruker SHELXTL'
_computing_publication_material  'Bruker SHELXTL'

_refine_special_details          
;
Refinement of F^2^ against ALL reflections. The weighted R-factor wR and
goodness of fit S are based on F^2^, conventional R-factors R are based
on F, with F set to zero for negative F^2^. The threshold expression of
F^2^ > 2sigma(F^2^) is used only for calculating R-factors(gt) etc. and is
not relevant to the choice of reflections for refinement. R-factors based
on F^2^ are statistically about twice as large as those based on F, and R-
factors based on ALL data will be even larger.
;

_refine_ls_structure_factor_coef Fsqd
_refine_ls_matrix_type           full
_refine_ls_weighting_scheme      calc
_refine_ls_weighting_details     
'calc w=1/[\s^2^(Fo^2^)+(0.0791P)^2^+0.0000P] where P=(Fo^2^+2Fc^2^)/3'
_atom_sites_solution_primary     direct
_atom_sites_solution_secondary   difmap
_atom_sites_solution_hydrogens   geom
_refine_ls_hydrogen_treatment    mixed
_refine_ls_extinction_method     none
_refine_ls_extinction_coef       ?
_refine_ls_abs_structure_details 'Flack H D (1983), Acta Cryst. A39, 876-881'
_refine_ls_abs_structure_Flack   0.07(5)
_refine_ls_number_reflns         3632
_refine_ls_number_parameters     160
_refine_ls_number_restraints     1
_refine_ls_R_factor_all          0.1878
_refine_ls_R_factor_gt           0.0597
_refine_ls_wR_factor_ref         0.1739
_refine_ls_wR_factor_gt          0.1512
_refine_ls_goodness_of_fit_ref   0.728
_refine_ls_restrained_S_all      0.728
_refine_ls_shift/su_max          0.000
_refine_ls_shift/su_mean         0.000

loop_
_atom_site_label
_atom_site_type_symbol
_atom_site_fract_x
_atom_site_fract_y
_atom_site_fract_z
_atom_site_U_iso_or_equiv
_atom_site_adp_type
_atom_site_occupancy
_atom_site_symmetry_multiplicity
_atom_site_calc_flag
_atom_site_refinement_flags
_atom_site_disorder_assembly
_atom_site_disorder_group
Co Co 0.2500 0.2500 0.50743(16) 0.0689(5) Uani 1 2 d S . .
S1 S 0.2034(2) 0.02366(10) 0.9476(3) 0.1075(9) Uani 1 1 d . . .
S2 S 0.09951(19) 0.04814(11) 1.0603(2) 0.1047(9) Uani 1 1 d . . .
N1 N 0.2220(5) 0.1769(4) 0.6478(7) 0.077(2) Uani 1 1 d . . .
N2 N 0.2069(5) 0.1789(3) 0.3695(7) 0.0641(19) Uani 1 1 d . . .
C1 C 0.1688(6) 0.1877(4) 0.7528(9) 0.078(3) Uani 1 1 d . . .
H1 H 0.1361 0.2269 0.7596 0.094 Uiso 1 1 calc R . .
C2 C 0.1621(6) 0.1430(5) 0.8472(8) 0.085(3) Uani 1 1 d . . .
H2 H 0.1284 0.1530 0.9181 0.102 Uiso 1 1 calc R . .
C3 C 0.2041(7) 0.0856(4) 0.8364(10) 0.083(3) Uani 1 1 d . . .
C4 C 0.2589(7) 0.0706(4) 0.7261(9) 0.086(3) Uani 1 1 d . . .
H4 H 0.2880 0.0301 0.7166 0.104 Uiso 1 1 calc R . .
C5 C 0.2659(7) 0.1176(4) 0.6382(9) 0.084(3) Uani 1 1 d . . .
H5 H 0.3019 0.1092 0.5686 0.101 Uiso 1 1 calc R . .
C6 C 0.2652(6) 0.1650(4) 0.2731(9) 0.076(2) Uani 1 1 d . . .
H6 H 0.3250 0.1828 0.2724 0.091 Uiso 1 1 calc R . .
C7 C 0.2379(6) 0.1253(4) 1.1771(9) 0.083(3) Uani 1 1 d . . .
H7 H 0.2782 0.1156 1.1123 0.099 Uiso 1 1 calc R . .
C8 C 0.1451(7) 0.0994(4) 1.1809(9) 0.077(3) Uani 1 1 d . . .
C9 C 0.0916(6) 0.1145(4) 1.2812(11) 0.082(3) Uani 1 1 d . . .
H9 H 0.0313 0.0980 1.2889 0.098 Uiso 1 1 calc R . .
C10 C 0.1268(7) 0.1527(4) 0.3664(8) 0.070(2) Uani 1 1 d . . .
H10 H 0.0880 0.1617 0.4331 0.085 Uiso 1 1 calc R . .
S11 S 0.07727(18) 0.28334(16) 1.0354(5) 0.1682(17) Uani 1 1 d . . .
N11 N 0.1139(5) 0.2820(3) 0.5143(9) 0.091(2) Uani 1 1 d . . .
C11 C 0.0354(6) 0.2830(3) 0.5265(10) 0.081(2) Uani 1 1 d . . .

loop_
_atom_site_aniso_label
_atom_site_aniso_U_11
_atom_site_aniso_U_22
_atom_site_aniso_U_33
_atom_site_aniso_U_23
_atom_site_aniso_U_13
_atom_site_aniso_U_12
Co 0.0579(9) 0.0746(9) 0.0741(10) 0.000 0.000 0.0068(8)
S1 0.172(3) 0.0649(13) 0.0851(18) 0.0092(14) -0.0171(19) -0.0205(16)
S2 0.115(2) 0.1055(17) 0.0939(18) 0.0123(16) -0.0219(15) -0.0574(15)
N1 0.073(5) 0.077(5) 0.082(6) -0.003(4) -0.009(4) -0.003(4)
N2 0.047(4) 0.058(4) 0.087(6) 0.019(4) -0.021(5) -0.009(4)
C1 0.074(6) 0.072(6) 0.088(8) -0.024(6) 0.001(6) 0.001(5)
C2 0.092(7) 0.105(8) 0.058(6) 0.028(6) -0.006(5) -0.030(6)
C3 0.098(7) 0.053(6) 0.097(9) -0.001(6) -0.060(7) -0.005(6)
C4 0.122(8) 0.065(6) 0.072(7) -0.017(6) -0.020(6) 0.002(5)
C5 0.106(8) 0.064(6) 0.081(7) -0.004(5) -0.003(6) 0.004(5)
C6 0.062(6) 0.087(6) 0.079(7) -0.003(6) -0.001(6) -0.018(5)
C7 0.084(7) 0.102(7) 0.062(6) 0.007(6) 0.007(5) -0.038(6)
C8 0.084(7) 0.070(6) 0.077(7) 0.037(5) -0.014(6) -0.036(5)
C9 0.055(6) 0.079(6) 0.112(8) 0.039(6) 0.015(6) -0.013(5)
C10 0.068(7) 0.060(5) 0.084(7) -0.013(5) 0.001(6) -0.013(5)
S11 0.0642(17) 0.186(3) 0.254(5) -0.070(3) -0.041(2) 0.0126(16)
N11 0.069(5) 0.101(5) 0.104(5) 0.018(5) 0.012(6) 0.016(4)
C11 0.072(6) 0.070(5) 0.101(7) 0.004(6) 0.016(6) 0.007(4)

_geom_special_details            
;
All esds (except the esd in the dihedral angle between two l.s. planes)
are estimated using the full covariance matrix. The cell esds are taken
into account individually in the estimation of esds in distances, angles
and torsion angles; correlations between esds in cell parameters are only
used when they are defined by crystal symmetry. An approximate (isotropic)
treatment of cell esds is used for estimating esds involving l.s. planes.
;

loop_
_geom_bond_atom_site_label_1
_geom_bond_atom_site_label_2
_geom_bond_distance
_geom_bond_site_symmetry_2
_geom_bond_publ_flag
Co N11 2.055(7) 6 ?
Co N11 2.055(7) . ?
Co N1 2.167(8) 6 ?
Co N1 2.167(8) . ?
Co N2 2.171(7) . ?
Co N2 2.171(7) 6 ?
S1 C3 1.745(10) . ?
S1 S2 1.988(4) . ?
S2 C8 1.796(9) . ?
S2 S2 3.460(4) 2 ?
N1 C5 1.368(10) . ?
N1 C1 1.386(11) . ?
N2 C10 1.265(9) . ?
N2 C6 1.368(11) . ?
C1 C2 1.374(11) . ?
C2 C3 1.321(12) . ?
C2 S11 3.719(12) . ?
C3 C4 1.461(13) . ?
C4 C5 1.355(11) . ?
C6 C7 1.374(11) 1_554 ?
C6 S11 3.580(11) 6_554 ?
C7 C6 1.374(11) 1_556 ?
C7 C8 1.430(10) . ?
C7 S11 3.581(9) 6 ?
C8 C9 1.364(12) . ?
C9 C10 1.308(12) 1_556 ?
C10 C9 1.308(12) 1_554 ?
S11 C11 1.616(9) 4 ?
N11 C11 1.131(9) . ?
C11 S11 1.616(9) 4_554 ?

loop_
_geom_angle_atom_site_label_1
_geom_angle_atom_site_label_2
_geom_angle_atom_site_label_3
_geom_angle
_geom_angle_site_symmetry_1
_geom_angle_site_symmetry_3
_geom_angle_publ_flag
N11 Co N11 175.8(5) 6 . ?
N11 Co N1 91.0(3) 6 6 ?
N11 Co N1 86.1(3) . 6 ?
N11 Co N1 86.1(3) 6 . ?
N11 Co N1 91.0(3) . . ?
N1 Co N1 90.8(4) 6 . ?
N11 Co N2 94.7(3) 6 . ?
N11 Co N2 88.2(3) . . ?
N1 Co N2 174.2(3) 6 . ?
N1 Co N2 88.3(2) . . ?
N11 Co N2 88.2(3) 6 6 ?
N11 Co N2 94.7(3) . 6 ?
N1 Co N2 88.3(2) 6 6 ?
N1 Co N2 174.2(3) . 6 ?
N2 Co N2 93.1(4) . 6 ?
C3 S1 S2 104.3(4) . . ?
C8 S2 S1 108.7(4) . . ?
C8 S2 S2 129.0(3) . 2 ?
S1 S2 S2 118.25(13) . 2 ?
C5 N1 C1 117.0(8) . . ?
C5 N1 Co 118.1(7) . . ?
C1 N1 Co 124.7(6) . . ?
C10 N2 C6 116.4(8) . . ?
C10 N2 Co 123.9(7) . . ?
C6 N2 Co 119.4(6) . . ?
C2 C1 N1 123.0(8) . . ?
C3 C2 C1 119.4(10) . . ?
C3 C2 S11 151.6(7) . . ?
C1 C2 S11 85.4(6) . . ?
C2 C3 C4 120.1(9) . . ?
C2 C3 S1 125.3(10) . . ?
C4 C3 S1 114.6(8) . . ?
C5 C4 C3 117.8(8) . . ?
C4 C5 N1 122.6(9) . . ?
N2 C6 C7 121.8(8) . 1_554 ?
N2 C6 S11 150.7(6) . 6_554 ?
C7 C6 S11 79.0(6) 1_554 6_554 ?
C6 C7 C8 117.4(9) 1_556 . ?
C6 C7 S11 78.9(5) 1_556 6 ?
C8 C7 S11 152.9(6) . 6 ?
C9 C8 C7 117.4(9) . . ?
C9 C8 S2 120.5(8) . . ?
C7 C8 S2 122.1(9) . . ?
C10 C9 C8 118.7(8) 1_556 . ?
N2 C10 C9 128.3(9) . 1_554 ?
C11 S11 C2 106.8(4) 4 . ?
C11 N11 Co 162.0(7) . . ?
N11 C11 S11 176.7(11) . 4_554 ?

loop_
_geom_torsion_atom_site_label_1
_geom_torsion_atom_site_label_2
_geom_torsion_atom_site_label_3
_geom_torsion_atom_site_label_4
_geom_torsion
_geom_torsion_site_symmetry_1
_geom_torsion_site_symmetry_2
_geom_torsion_site_symmetry_3
_geom_torsion_site_symmetry_4
_geom_torsion_publ_flag
C3 S1 S2 C8 -90.0(4) . . . . ?

_diffrn_measured_fraction_theta_max 0.997
_diffrn_reflns_theta_full        28.03
_diffrn_measured_fraction_theta_full 0.997
_refine_diff_density_max         0.290
_refine_diff_density_min         -0.335
_refine_diff_density_rms         0.074
