
#######################################################################
#
#                 Cambridge Crystallographic Data Centre
#                                CCDC
#
#######################################################################
#
# If this CIF has been generated from an entry in the Cambridge
# Structural Database, then it will include bibliographic, chemical,
# crystal, experimental, refinement or atomic coordinate data resulting
# from the CCDC's data processing and validation procedures.
#
#######################################################################

data_CSD_CIF_NIMGLO10
_audit_creation_date 1971-12-31
_audit_creation_method CSD-ConQuest-V1
_database_code_CSD NIMGLO10
_database_code_depnum_ccdc_archive 'CCDC 1220200'
_chemical_formula_sum 'C8 H14 N4 Ni1 O4'
_chemical_formula_moiety
;
C8 H14 N4 Ni1 O4
;
_journal_coden_Cambridge 4
_journal_volume 81
_journal_year 1959
_journal_page_first 755
_journal_name_full 'J.Am.Chem.Soc. '
loop_
_publ_author_name
"D.E.Williams"
"G.Wohlauer"
"R.E.Rundle"
_chemical_name_systematic
;
Nickel dimethylglyoxime
;
_chemical_name_common
;
bis(hydrogen butane-2,3-dione dioximate)-nickel(ii); Teaching Subset: 
Fundamental Chemistry, Symmetry
;
_cell_volume   1130.163
_exptl_crystal_density_diffrn 1.698
_diffrn_ambient_temperature ?
_diffrn_special_details
;
The study was carried out at room temperature,in the range 283-303K

;
#These two values have been output from a single CSD field.
_refine_ls_R_factor_gt 0.124
_refine_ls_wR_factor_gt 0.124
_symmetry_cell_setting orthorhombic
_symmetry_space_group_name_H-M 'I b a m'
_symmetry_Int_Tables_number 72
loop_
_symmetry_equiv_pos_site_id
_symmetry_equiv_pos_as_xyz
1 x,y,z
2 1/2+x,1/2+y,1/2+z
3 -x,-y,z
4 1/2-x,1/2-y,1/2+z
5 1/2+x,1/2-y,-z
6 x,-y,1/2-z
7 1/2-x,1/2+y,-z
8 -x,y,1/2-z
9 -x,-y,-z
10 -1/2-x,-1/2-y,-1/2-z
11 x,y,-z
12 -1/2+x,-1/2+y,-1/2-z
13 -1/2-x,-1/2+y,z
14 -x,y,-1/2+z
15 -1/2+x,-1/2-y,z
16 x,-y,-1/2+z
_cell_length_a 16.68
_cell_length_b 10.44
_cell_length_c 6.49
_cell_angle_alpha 90
_cell_angle_beta 90
_cell_angle_gamma 90
_cell_formula_units_Z 4
loop_
_atom_type_symbol
_atom_type_radius_bond
C 0.68
N 0.68
Ni 1.40
O 0.68
loop_
_atom_site_label
_atom_site_type_symbol
_atom_site_fract_x
_atom_site_fract_y
_atom_site_fract_z
Ni1 Ni 0.00000 0.00000 0.00000
O1 O 0.15770 0.09910 0.00000
O2 O 0.05430 0.25890 0.00000
N1 N 0.11110 -0.00690 0.00000
N2 N -0.00910 0.17650 0.00000
C1 C -0.08080 0.22590 0.00000
C2 C 0.14400 -0.11870 0.00000
C3 C -0.09880 0.36660 0.00000
C4 C 0.23480 -0.14250 0.00000
N1H N -0.11110 0.00690 0.00000
N2H N 0.00910 -0.17650 0.00000
C2H C -0.14400 0.11870 0.00000
C1H C 0.08080 -0.22590 0.00000
O1H O -0.15770 -0.09910 0.00000
O2H O -0.05430 -0.25890 0.00000
C4H C -0.23480 0.14250 0.00000
C3H C 0.09880 -0.36660 0.00000
#END
