####################################################################### 
# 
# This file contains crystal structure data downloaded from the 
# Cambridge Structural Database (CSD) hosted by the Cambridge 
# Crystallographic Data Centre (CCDC).
# 
# Full information about CCDC data access policies and citation 
# guidelines are available at http://www.ccdc.cam.ac.uk/access/V1 
# 
# Audit and citation data items may have been added by the CCDC. 
# Please retain this information to preserve the provenance of 
# this file and to allow appropriate attribution of the data. 
# 
#######################################################################

data_NIPVOX
#This CIF has been generated from an entry in the Cambridge Structural Database
_database_code_depnum_ccdc_archive 'CCDC 1220526'
_database_code_CSD               NIPVOX
loop_
_citation_id
_citation_doi
_citation_year
1 10.1016/S0277-5387(97)00100-9 1997
_audit_creation_method           'Created from the CSD'
_audit_update_record             
;
2024-07-11 downloaded from the CCDC.
;
_database_code_NBS               686219
_chemical_formula_moiety         '(C16 H12 Cu1 N2 O6)n,6n(H2 O1)'
_chemical_name_systematic        
'catena((\m~2~-L-Tartrato)-(1,10-phenanthroline)-copper(ii) hexahydrate)'
_chemical_absolute_configuration unk
_diffrn_ambient_temperature      153
_exptl_crystal_density_diffrn    1.637
#These two values have been output from a single CSD field.
_refine_ls_R_factor_gt           0.0351
_refine_ls_wR_factor_gt          0.0351
_diffrn_radiation_probe          x-ray
_symmetry_cell_setting           orthorhombic
_symmetry_space_group_name_H-M   'P 21 21 21'
_symmetry_Int_Tables_number      19
_space_group_name_Hall           'P 2ac 2ab'
loop_
_symmetry_equiv_pos_site_id
_symmetry_equiv_pos_as_xyz
1 x,y,z
2 1/2-x,-y,1/2+z
3 1/2+x,1/2-y,-z
4 -x,1/2+y,1/2-z
_cell_length_a                   6.6640(10)
_cell_length_b                   15.3030(10)
_cell_length_c                   19.885(2)
_cell_angle_alpha                90
_cell_angle_beta                 90
_cell_angle_gamma                90
_cell_volume                     2027.86
_exptl_crystal_colour            green
_exptl_crystal_description       needle
_cell_formula_units_Z            4
loop_
_atom_site_label
_atom_site_type_symbol
_atom_site_fract_x
_atom_site_fract_y
_atom_site_fract_z
N1 N 1.0185(8) 0.4304(2) 0.9319(2)
C1 C 1.0307(9) 0.5107(3) 0.9565(2)
C2 C 1.0230(11) 0.5274(3) 1.0260(2)
C3 C 1.0028(12) 0.4609(3) 1.0698(2)
C4 C 0.9954(11) 0.3736(3) 1.0456(2)
C5 C 0.9830(11) 0.2969(3) 1.0877(2)
C6 C 0.9827(10) 0.2160(3) 1.0600(2)
C7 C 0.9843(10) 0.2037(3) 0.9888(2)
C8 C 0.9820(10) 0.1213(3) 0.9564(2)
C9 C 0.9782(10) 0.1174(3) 0.8882(2)
C10 C 0.9753(9) 0.1944(3) 0.8504(2)
N2 N 0.9810(9) 0.2729(2) 0.8786(2)
C11 C 0.9859(11) 0.2770(3) 0.9471(2)
C12 C 0.9974(12) 0.3626(3) 0.9759(2)
O1 O 0.8841(5) 0.3508(2) 0.7475(2)
O2 O 0.6801(5) 0.3810(2) 0.6617(2)
C13 C 0.7333(8) 0.3901(3) 0.7214(2)
C14 C 0.6100(9) 0.4529(4) 0.7646(3)
O3 O 0.6701(5) 0.4443(2) 0.8333(2)
C15 C 0.3849(9) 0.4373(3) 0.7566(3)
O4 O 0.3159(5) 0.3647(2) 0.7942(2)
C16 C 0.2564(8) 0.5182(3) 0.7758(2)
O5 O 0.3219(6) 0.5917(2) 0.7614(2)
O6 O 0.0873(5) 0.5058(2) 0.8019(2)
H1 H 1.0448(9) 0.5574(3) 0.9270(2)
H2 H 1.0319(11) 0.5845(3) 1.0417(2)
H3 H 0.9937(12) 0.4720(3) 1.1157(2)
H4 H 0.9752(11) 0.3031(3) 1.1342(2)
H5 H 0.9814(10) 0.1673(3) 1.0880(2)
H6 H 0.9831(10) 0.0702(3) 0.9817(2)
H7 H 0.9776(10) 0.0635(3) 0.8667(2)
H8 H 0.9691(9) 0.1904(3) 0.8037(2)
H9 H 0.6396(9) 0.5127(4) 0.7500(3)
H10 H 0.3596(9) 0.4247(3) 0.7090(3)
H11 H 0.6329 0.4977 0.8578
H12 H 0.3600 0.3148 0.7822
Cu1 Cu 0.9976(1) 0.3913(1) 0.8350(1)
Cu1 Cu -0.0024(1) 0.3913(1) 0.8350(1)
O4 O 1.3159(5) 0.3647(2) 0.7942(2)
O6 O 1.0873(5) 0.5058(2) 0.8019(2)
H12 H 1.3600 0.3148 0.7822
O7 O 0.9991(7) 0.1991(2) 0.6731(2)
H13 H 0.9230 0.2435 0.6985
H14 H 0.8813 0.1633 0.6780
O8 O 0.4191(7) 0.7406(2) 0.9208(2)
H15 H 0.3831 0.7600 0.9619
H16 H 0.3974 0.7928 0.9016
O9 O 0.5274(8) 0.5648(2) 0.9173(2)
H17 H 0.5585 0.5617 0.9587
H18 H 0.4739 0.6192 0.9012
O10 O 0.9654(7) 0.4125(2) 0.5573(2)
H19 H 0.8821 0.3913 0.5980
H20 H 1.0310 0.3589 0.5611
O11 O 1.1766(6) 0.2532(2) 0.5552(2)
H21 H 1.1195 0.2241 0.6020
H22 H 1.3144 0.2544 0.5623
O12 O 0.3698(7) 0.2111(2) 0.7362(2)
H23 H 0.4838 0.1751 0.7200
H24 H 0.2762 0.1811 0.7026

#END
