####################################################################### 
# 
# This file contains crystal structure data downloaded from the 
# Cambridge Structural Database (CSD) hosted by the Cambridge 
# Crystallographic Data Centre (CCDC).
# 
# Full information about CCDC data access policies and citation 
# guidelines are available at http://www.ccdc.cam.ac.uk/access/V1 
# 
# Audit and citation data items may have been added by the CCDC. 
# Please retain this information to preserve the provenance of 
# this file and to allow appropriate attribution of the data. 
# 
#######################################################################

data_4
_audit_block_doi                 10.5517/cc10jcsp
_database_code_depnum_ccdc_archive 'CCDC 939262'
loop_
_citation_id
_citation_doi
_citation_year
1 10.1039/C3CE41186A 2013
_audit_update_record             
;
2013-08-11 deposited with the CCDC.	2024-07-11 downloaded from the CCDC.
;

# start Validation Reply Form

_vrf_CHEMW03_4                   
;
PROBLEM: ALERT: The ratio of given/expected molecular weight as
RESPONSE:The formula weight differs from that calculated due to unlocated
solvent moieties - SQUEEZE used - see _platon_squeeze_details.
;
# end Validation Reply Form

_audit_creation_method           SHELXL-97
_chemical_name_systematic        
; 
 ? 
;
_chemical_name_common            ?
_chemical_melting_point          ?
_chemical_formula_moiety         ?
_chemical_formula_sum            'C78 H94 N4 O28 Zn3'
_chemical_formula_weight         1726.39

loop_
_atom_type_symbol
_atom_type_description
_atom_type_scat_dispersion_real
_atom_type_scat_dispersion_imag
_atom_type_scat_source
C C 0.0033 0.0016 'International Tables Vol C Tables 4.2.6.8 and 6.1.1.4'
H H 0.0000 0.0000 'International Tables Vol C Tables 4.2.6.8 and 6.1.1.4'
O O 0.0106 0.0060 'International Tables Vol C Tables 4.2.6.8 and 6.1.1.4'
Zn Zn 0.2839 1.4301 'International Tables Vol C Tables 4.2.6.8 and 6.1.1.4'
N N 0.0061 0.0033 'International Tables Vol C Tables 4.2.6.8 and 6.1.1.4'

_symmetry_cell_setting           Triclinic
_symmetry_space_group_name_H-M   'P-1   '

loop_
_symmetry_equiv_pos_as_xyz
'x, y, z'
'-x, -y, -z'

_cell_length_a                   14.692(2)
_cell_length_b                   18.436(3)
_cell_length_c                   19.8419(16)
_cell_angle_alpha                115.514(2)
_cell_angle_beta                 96.834(3)
_cell_angle_gamma                108.036(2)
_cell_volume                     4407.8(9)
_cell_formula_units_Z            2
_cell_measurement_temperature    291(2)
_cell_measurement_reflns_used    9910
_cell_measurement_theta_min      2.33
_cell_measurement_theta_max      27.51

_exptl_crystal_description       Block
_exptl_crystal_colour            Colorless
_exptl_crystal_size_max          0.25
_exptl_crystal_size_mid          0.23
_exptl_crystal_size_min          0.21
_exptl_crystal_density_meas      ?
_exptl_crystal_density_diffrn    1.301
_exptl_crystal_density_method    'not measured'
_exptl_crystal_F_000             1808
_exptl_absorpt_coefficient_mu    0.886
_exptl_absorpt_correction_type   multi-scan
_exptl_absorpt_correction_T_min  0.8113
_exptl_absorpt_correction_T_max  0.8379
_exptl_absorpt_process_details   SADABS;Bruker,2000

_exptl_special_details           
; 
 ? 
;

_diffrn_ambient_temperature      291(2)
_diffrn_radiation_wavelength     0.71073
_diffrn_radiation_type           MoK\a
_diffrn_radiation_source         'fine-focus sealed tube'
_diffrn_radiation_monochromator  graphite
_diffrn_measurement_device_type  ?
_diffrn_measurement_method       ?
_diffrn_detector_area_resol_mean ?
_diffrn_standards_number         ?
_diffrn_standards_interval_count ?
_diffrn_standards_interval_time  ?
_diffrn_standards_decay_%        ?
_diffrn_reflns_number            35408
_diffrn_reflns_av_R_equivalents  0.0171
_diffrn_reflns_av_sigmaI/netI    0.0620
_diffrn_reflns_limit_h_min       -16
_diffrn_reflns_limit_h_max       18
_diffrn_reflns_limit_k_min       -22
_diffrn_reflns_limit_k_max       22
_diffrn_reflns_limit_l_min       -24
_diffrn_reflns_limit_l_max       23
_diffrn_reflns_theta_min         1.34
_diffrn_reflns_theta_max         26.00
_reflns_number_total             17137
_reflns_number_gt                12773
_reflns_threshold_expression     >2sigma(I)

_computing_data_collection       'Bruker XSCANS'
_computing_cell_refinement       'Bruker XSCANS'
_computing_data_reduction        'Bruker SHELXTL'
_computing_structure_solution    'SHELXS-97 (Sheldrick, 2008)'
_computing_structure_refinement  'SHELXL-97 (Sheldrick, 2008)'
_computing_molecular_graphics    'Bruker SHELXTL'
_computing_publication_material  'Bruker SHELXTL'

_refine_special_details          
; 
 Refinement of F^2^ against ALL reflections.  The weighted R-factor wR and 
 goodness of fit S are based on F^2^, conventional R-factors R are based 
 on F, with F set to zero for negative F^2^. The threshold expression of 
 F^2^ > 2sigma(F^2^) is used only for calculating R-factors(gt) etc. and is 
 not relevant to the choice of reflections for refinement.  R-factors based 
 on F^2^ are statistically about twice as large as those based on F, and R- 
 factors based on ALL data will be even larger. 

 The hydrogen atoms on coordinated water cannot be located in the Fourier
 difference map and thus were not added in the final cycles of refinement.
 Those hydrogens are, however, included in the reported chemical formula
 and derived values (reported crystal-data formula, formula weight,Dx,
 Mu and F(000)).
;

# SQUEEZE RESULTS (APPEND TO CIF)
# Note: Data are Listed for all Voids in the P1 Unit Cell
# i.e. Centre of Gravity, Solvent Accessible Volume,
# Recovered number of Electrons in the Void and
# Details about the Squeezed Material
loop_
_platon_squeeze_void_nr
_platon_squeeze_void_average_x
_platon_squeeze_void_average_y
_platon_squeeze_void_average_z
_platon_squeeze_void_volume
_platon_squeeze_void_count_electrons
_platon_squeeze_void_content
1 0.160 0.362 0.000 1212 59 ' '
2 0.042 0.990 0.521 7 0 ' '
3 0.952 0.012 0.476 6 0 ' '
_platon_squeeze_details          
;
 Because of the highly disordered solvent molecules, the PLATON/SQUEEZE
 route was employed to calculate the diffraction contribution from the
 solvent molecules, and thereby to produce a set of solvent-free
 diffraction intensities used for refinement. The unit cell was found
 to contain a void of 1225 A^3 (28.8% of the unit cell volume), holding
 59 electrons. These might correspond with the removal of ~6 H2O
 molecules from the unit cell, i.e. 3 H2O per asymmetric unit. Based
 on the elemental analysis and TG analysis, additional 2 DMF might be
 adsorbed in the sample and were thus included in the final molecular
 formula. Those solvents are included in the reported chemical formula
 and derived values (reported crystal-data formula, formula weight,
 Dx, Mu and F(000)).
;

_refine_ls_structure_factor_coef Fsqd
_refine_ls_matrix_type           full
_refine_ls_weighting_scheme      calc
_refine_ls_weighting_details     
'calc w=1/[\s^2^(Fo^2^)+(0.0600P)^2^+1.9900P] where P=(Fo^2^+2Fc^2^)/3'
_atom_sites_solution_primary     direct
_atom_sites_solution_secondary   difmap
_atom_sites_solution_hydrogens   geom
_refine_ls_hydrogen_treatment    constr
_refine_ls_extinction_method     none
_refine_ls_extinction_coef       ?
_refine_ls_number_reflns         17137
_refine_ls_number_parameters     911
_refine_ls_number_restraints     0
_refine_ls_R_factor_all          0.0584
_refine_ls_R_factor_gt           0.0546
_refine_ls_wR_factor_ref         0.1383
_refine_ls_wR_factor_gt          0.1376
_refine_ls_goodness_of_fit_ref   1.075
_refine_ls_restrained_S_all      1.075
_refine_ls_shift/su_max          0.000
_refine_ls_shift/su_mean         0.000

loop_
_atom_site_label
_atom_site_type_symbol
_atom_site_fract_x
_atom_site_fract_y
_atom_site_fract_z
_atom_site_U_iso_or_equiv
_atom_site_adp_type
_atom_site_occupancy
_atom_site_symmetry_multiplicity
_atom_site_calc_flag
_atom_site_refinement_flags
_atom_site_disorder_assembly
_atom_site_disorder_group
C1 C 0.3604(2) 0.10805(19) 0.21751(18) 0.0442(7) Uani 1 1 d . . .
C2 C 0.4112(2) 0.20607(19) 0.25449(17) 0.0436(7) Uani 1 1 d . . .
C3 C 0.4975(2) 0.25102(19) 0.31800(17) 0.0445(7) Uani 1 1 d . . .
H3 H 0.5219 0.2197 0.3361 0.053 Uiso 1 1 calc R . .
C4 C 0.5468(2) 0.34066(19) 0.35413(18) 0.0462(8) Uani 1 1 d . . .
H4 H 0.6044 0.3692 0.3961 0.055 Uiso 1 1 calc R . .
C5 C 0.5121(2) 0.38916(19) 0.32894(17) 0.0425(7) Uani 1 1 d . . .
C6 C 0.4265(2) 0.34426(19) 0.26381(17) 0.0423(7) Uani 1 1 d . . .
H6 H 0.4031 0.3753 0.2448 0.051 Uiso 1 1 calc R . .
C7 C 0.3772(2) 0.25391(18) 0.22808(17) 0.0431(7) Uani 1 1 d . . .
H7 H 0.3202 0.2249 0.1855 0.052 Uiso 1 1 calc R . .
C8 C 0.6514(2) 0.52116(18) 0.41610(17) 0.0412(7) Uani 1 1 d . . .
H8A H 0.6956 0.4999 0.3881 0.049 Uiso 1 1 calc R . .
H8B H 0.6509 0.5063 0.4574 0.049 Uiso 1 1 calc R . .
C9 C 0.6904(2) 0.61917(19) 0.45134(17) 0.0431(7) Uani 1 1 d . . .
C10 C 0.7170(2) 0.65761(19) 0.40576(17) 0.0420(7) Uani 1 1 d . . .
C11 C 0.6954(2) 0.59971(19) 0.31927(16) 0.0451(7) Uani 1 1 d . . .
H11A H 0.6821 0.5406 0.3079 0.068 Uiso 1 1 calc R . .
H11B H 0.7523 0.6208 0.3031 0.068 Uiso 1 1 calc R . .
H11C H 0.6380 0.6008 0.2916 0.068 Uiso 1 1 calc R . .
C12 C 0.7652(2) 0.74908(18) 0.44068(17) 0.0413(7) Uani 1 1 d . . .
C13 C 0.7988(2) 0.78921(19) 0.39242(18) 0.0441(7) Uani 1 1 d . . .
H13A H 0.7600 0.7501 0.3379 0.053 Uiso 1 1 calc R . .
H13B H 0.7913 0.8444 0.4101 0.053 Uiso 1 1 calc R . .
C14 C 0.7911(2) 0.80140(19) 0.52243(17) 0.0417(7) Uani 1 1 d . . .
C15 C 0.8505(2) 0.89959(18) 0.56211(18) 0.0450(7) Uani 1 1 d . . .
H15A H 0.8795 0.9142 0.5264 0.068 Uiso 1 1 calc R . .
H15B H 0.9028 0.9178 0.6072 0.068 Uiso 1 1 calc R . .
H15C H 0.8069 0.9291 0.5779 0.068 Uiso 1 1 calc R . .
C16 C 0.7640(2) 0.76234(19) 0.56800(17) 0.0425(7) Uani 1 1 d . . .
C17 C 0.8070(2) 0.81748(19) 0.65682(17) 0.0439(7) Uani 1 1 d . . .
H17A H 0.8048 0.8748 0.6757 0.053 Uiso 1 1 calc R . .
H17B H 0.7703 0.7883 0.6819 0.053 Uiso 1 1 calc R . .
C18 C 0.7100(2) 0.67067(19) 0.53236(17) 0.0431(7) Uani 1 1 d . . .
C19 C 0.6731(2) 0.62859(19) 0.57997(17) 0.0456(7) Uani 1 1 d . . .
H19A H 0.7220 0.6105 0.5965 0.068 Uiso 1 1 calc R . .
H19B H 0.6111 0.5783 0.5487 0.068 Uiso 1 1 calc R . .
H19C H 0.6629 0.6702 0.6250 0.068 Uiso 1 1 calc R . .
C20 C 0.9593(2) 0.84508(19) 0.74348(17) 0.0440(7) Uani 1 1 d . . .
C21 C 0.9260(2) 0.87313(19) 0.80961(17) 0.0451(7) Uani 1 1 d . . .
H21 H 0.8663 0.8809 0.8069 0.054 Uiso 1 1 calc R . .
C22 C 0.9835(2) 0.88931(19) 0.87953(17) 0.0433(7) Uani 1 1 d . . .
H22 H 0.9620 0.9086 0.9239 0.052 Uiso 1 1 calc R . .
C23 C 1.0718(2) 0.87728(19) 0.88432(17) 0.0444(7) Uani 1 1 d . . .
C24 C 1.1039(2) 0.84921(19) 0.81769(17) 0.0446(7) Uani 1 1 d . . .
H24 H 1.1630 0.8404 0.8202 0.054 Uiso 1 1 calc R . .
C25 C 1.0492(2) 0.83445(19) 0.74828(17) 0.0441(7) Uani 1 1 d . . .
H25 H 1.0722 0.8174 0.7046 0.053 Uiso 1 1 calc R . .
C26 C 1.1315(2) 0.89088(19) 0.95819(17) 0.0436(7) Uani 1 1 d . . .
C27 C 0.9517(2) 0.83270(19) 0.35877(17) 0.0431(7) Uani 1 1 d . . .
C28 C 1.0518(2) 0.84780(19) 0.37321(18) 0.0446(7) Uani 1 1 d . . .
H28 H 1.0821 0.8391 0.4113 0.054 Uiso 1 1 calc R . .
C29 C 1.1068(2) 0.87582(19) 0.33111(17) 0.0450(7) Uani 1 1 d . . .
H29 H 1.1744 0.8862 0.3408 0.054 Uiso 1 1 calc R . .
C30 C 1.0609(2) 0.88867(19) 0.27360(17) 0.0441(7) Uani 1 1 d . . .
C31 C 0.9615(2) 0.87475(19) 0.26066(17) 0.0447(7) Uani 1 1 d . . .
H31 H 0.9314 0.8842 0.2231 0.054 Uiso 1 1 calc R . .
C32 C 0.9054(2) 0.84670(19) 0.30306(17) 0.0446(7) Uani 1 1 d . . .
H32 H 0.8382 0.8375 0.2943 0.054 Uiso 1 1 calc R . .
C33 C 1.1212(2) 0.91847(19) 0.22806(18) 0.0437(7) Uani 1 1 d . . .
C34 C 0.4510(2) 0.7249(2) 0.31002(17) 0.0447(7) Uani 1 1 d . . .
C35 C 0.4003(2) 0.68340(19) 0.35313(17) 0.0439(7) Uani 1 1 d . . .
C36 C 0.3160(2) 0.69645(19) 0.37234(17) 0.0435(7) Uani 1 1 d . . .
H36 H 0.2926 0.7310 0.3584 0.052 Uiso 1 1 calc R . .
C37 C 0.2664(2) 0.65812(18) 0.41221(17) 0.0435(7) Uani 1 1 d . . .
H37 H 0.2095 0.6662 0.4235 0.052 Uiso 1 1 calc R . .
C38 C 0.3017(2) 0.60836(18) 0.43483(17) 0.0424(7) Uani 1 1 d . . .
C39 C 0.3870(2) 0.59545(19) 0.41568(18) 0.0444(7) Uani 1 1 d . . .
H39 H 0.4109 0.5614 0.4300 0.053 Uiso 1 1 calc R . .
C40 C 0.4352(2) 0.63299(19) 0.37590(17) 0.0437(7) Uani 1 1 d . . .
H40 H 0.4918 0.6245 0.3642 0.052 Uiso 1 1 calc R . .
C41 C 0.1688(2) 0.57532(19) 0.49076(18) 0.0438(7) Uani 1 1 d . . .
H41A H 0.1163 0.5481 0.4423 0.053 Uiso 1 1 calc R . .
H41B H 0.1793 0.6365 0.5208 0.053 Uiso 1 1 calc R . .
C42 C 0.1392(2) 0.52948(19) 0.53599(17) 0.0429(7) Uani 1 1 d . . .
C43 C 0.0921(2) 0.43818(19) 0.49719(17) 0.0425(7) Uani 1 1 d . . .
C44 C 0.0722(2) 0.38559(19) 0.41054(17) 0.0440(7) Uani 1 1 d . . .
H44A H 0.0014 0.3587 0.3854 0.066 Uiso 1 1 calc R . .
H44B H 0.0977 0.3409 0.3991 0.066 Uiso 1 1 calc R . .
H44C H 0.1048 0.4236 0.3916 0.066 Uiso 1 1 calc R . .
C45 C 0.0628(2) 0.39437(19) 0.53946(17) 0.0435(7) Uani 1 1 d . . .
C46 C 0.0171(2) 0.29552(18) 0.49850(18) 0.0430(7) Uani 1 1 d . . .
H46A H 0.0399 0.2717 0.4530 0.052 Uiso 1 1 calc R . .
H46B H 0.0365 0.2753 0.5334 0.052 Uiso 1 1 calc R . .
C47 C 0.0776(2) 0.44274(19) 0.62004(17) 0.0424(7) Uani 1 1 d . . .
C48 C 0.0392(2) 0.39519(19) 0.66378(17) 0.0447(7) Uani 1 1 d . . .
H48A H 0.0949 0.3994 0.6981 0.067 Uiso 1 1 calc R . .
H48B H -0.0019 0.3345 0.6271 0.067 Uiso 1 1 calc R . .
H48C H 0.0003 0.4216 0.6938 0.067 Uiso 1 1 calc R . .
C49 C 0.1272(2) 0.53436(19) 0.65911(17) 0.0428(7) Uani 1 1 d . . .
C50 C 0.1524(2) 0.5857(2) 0.74619(17) 0.0442(7) Uani 1 1 d . . .
H50A H 0.1479 0.6419 0.7624 0.053 Uiso 1 1 calc R . .
H50B H 0.1069 0.5537 0.7650 0.053 Uiso 1 1 calc R . .
C51 C 0.1601(2) 0.57832(19) 0.61844(17) 0.0425(7) Uani 1 1 d . . .
C52 C 0.2168(2) 0.67655(19) 0.66063(17) 0.0443(7) Uani 1 1 d . . .
H52A H 0.1704 0.7042 0.6695 0.066 Uiso 1 1 calc R . .
H52B H 0.2546 0.6929 0.6294 0.066 Uiso 1 1 calc R . .
H52C H 0.2615 0.6952 0.7098 0.066 Uiso 1 1 calc R . .
C53 C 0.2909(2) 0.62543(19) 0.85315(17) 0.0450(7) Uani 1 1 d . . .
C54 C 0.3855(2) 0.62765(19) 0.87476(18) 0.0447(7) Uani 1 1 d . . .
H54 H 0.4192 0.6116 0.8377 0.054 Uiso 1 1 calc R . .
C55 C 0.4295(2) 0.65373(19) 0.95148(17) 0.0445(7) Uani 1 1 d . . .
H55 H 0.4929 0.6550 0.9656 0.053 Uiso 1 1 calc R . .
C56 C 0.3804(2) 0.67806(19) 1.00795(17) 0.0432(7) Uani 1 1 d . . .
C57 C 0.2860(2) 0.67602(19) 0.98500(17) 0.0445(7) Uani 1 1 d . . .
H57 H 0.2519 0.6916 1.0219 0.053 Uiso 1 1 calc R . .
C58 C 0.2415(2) 0.65153(19) 0.90887(17) 0.0442(7) Uani 1 1 d . . .
H58 H 0.1793 0.6525 0.8951 0.053 Uiso 1 1 calc R . .
C59 C 0.4274(2) 0.70651(19) 1.09088(17) 0.0440(7) Uani 1 1 d . . .
C60 C -0.1480(2) 0.17928(19) 0.43251(17) 0.0444(7) Uani 1 1 d . . .
C61 C -0.2500(2) 0.15571(19) 0.40317(17) 0.0443(7) Uani 1 1 d . . .
H61 H -0.2754 0.1987 0.4156 0.053 Uiso 1 1 calc R . .
C62 C -0.3130(2) 0.06814(18) 0.35555(17) 0.0440(7) Uani 1 1 d . . .
H62 H -0.3806 0.0525 0.3343 0.053 Uiso 1 1 calc R . .
C63 C -0.2763(2) 0.00323(19) 0.33910(17) 0.0423(7) Uani 1 1 d . . .
C64 C -0.1764(2) 0.02740(19) 0.37051(17) 0.0431(7) Uani 1 1 d . . .
H64 H -0.1519 -0.0159 0.3604 0.052 Uiso 1 1 calc R . .
C65 C -0.1112(2) 0.11462(18) 0.41682(17) 0.0425(7) Uani 1 1 d . . .
H65 H -0.0435 0.1298 0.4372 0.051 Uiso 1 1 calc R . .
C66 C -0.3470(2) -0.09016(19) 0.28794(17) 0.0423(7) Uani 1 1 d . . .
C67 C 0.4082(2) 0.9663(2) 0.39815(17) 0.0454(7) Uani 1 1 d . . .
H67 H 0.3837 0.9156 0.4018 0.054 Uiso 1 1 calc R . .
C68 C 0.4354(2) 1.11751(19) 0.44600(18) 0.0480(8) Uani 1 1 d . . .
H68A H 0.4964 1.1598 0.4870 0.072 Uiso 1 1 calc R . .
H68B H 0.3849 1.1408 0.4518 0.072 Uiso 1 1 calc R . .
H68C H 0.4468 1.1050 0.3963 0.072 Uiso 1 1 calc R . .
C69 C 0.3646(2) 1.0398(2) 0.51547(18) 0.0480(8) Uani 1 1 d . . .
H69A H 0.3361 0.9814 0.5078 0.072 Uiso 1 1 calc R . .
H69B H 0.3142 1.0631 0.5185 0.072 Uiso 1 1 calc R . .
H69C H 0.4187 1.0765 0.5632 0.072 Uiso 1 1 calc R . .
C70 C 0.7151(2) 0.6803(2) 0.14119(19) 0.0504(8) Uani 1 1 d . . .
H70 H 0.7091 0.7177 0.1228 0.061 Uiso 1 1 calc R . .
C71 C 0.8628(2) 0.6735(2) 0.08939(19) 0.0521(8) Uani 1 1 d . . .
H71A H 0.9277 0.6898 0.1218 0.078 Uiso 1 1 calc R . .
H71B H 0.8595 0.7235 0.0869 0.078 Uiso 1 1 calc R . .
H71C H 0.8517 0.6275 0.0377 0.078 Uiso 1 1 calc R . .
C72 C 0.7885(2) 0.5793(2) 0.14072(18) 0.0482(8) Uani 1 1 d . . .
H72A H 0.7863 0.5972 0.1934 0.072 Uiso 1 1 calc R . .
H72B H 0.8494 0.5715 0.1357 0.072 Uiso 1 1 calc R . .
H72C H 0.7322 0.5249 0.1056 0.072 Uiso 1 1 calc R . .
N1 N 0.40212(19) 1.03743(16) 0.45038(14) 0.0464(6) Uani 1 1 d . . .
N2 N 0.7850(2) 0.64209(17) 0.12294(15) 0.0506(7) Uani 1 1 d . . .
O1 O 0.44514(15) 0.96303(13) 0.34376(12) 0.0453(5) Uani 1 1 d . . .
O2 O 0.40423(15) 0.06892(13) 0.23404(12) 0.0451(5) Uani 1 1 d . . .
O3 O 0.27259(15) 0.07344(13) 0.16993(11) 0.0443(5) Uani 1 1 d . . .
O4 O 0.55227(15) 0.47902(13) 0.36367(12) 0.0454(5) Uani 1 1 d . . .
O5 O 1.20184(15) 0.86491(13) 0.95515(12) 0.0467(5) Uani 1 1 d . . .
O6 O 1.10586(15) 0.92634(13) 1.01938(12) 0.0451(5) Uani 1 1 d . . .
O7 O 0.90906(15) 0.82522(13) 0.67147(12) 0.0454(5) Uani 1 1 d . . .
O8 O 1.21147(15) 0.93146(13) 0.24051(12) 0.0444(5) Uani 1 1 d . . .
O9 O 1.07816(15) 0.93045(13) 0.17614(12) 0.0449(5) Uani 1 1 d . . .
O10 O 0.90259(14) 0.80337(13) 0.40231(11) 0.0428(5) Uani 1 1 d . . .
O11 O 0.50643(15) 0.69118(13) 0.27400(12) 0.0450(5) Uani 1 1 d . . .
O12 O 0.43899(15) 0.78973(13) 0.31285