
#######################################################################
#
#                 Cambridge Crystallographic Data Centre
#                                CCDC
#
#######################################################################
#
# If this CIF has been generated from an entry in the Cambridge
# Structural Database, then it will include bibliographic, chemical,
# crystal, experimental, refinement or atomic coordinate data resulting
# from the CCDC's data processing and validation procedures.
#
#######################################################################

data_CSD_CIF_NITOLU
_audit_creation_date 1971-12-31
_audit_creation_method CSD-ConQuest-V1
_database_code_CSD NITOLU
_database_code_depnum_ccdc_archive 'CCDC 1220870'
_chemical_formula_sum 'C7 H7 N1 O2'
_chemical_formula_moiety
;
C7 H7 N1 O2
;
_journal_coeditor_code "IUCr A08207"
_journal_coden_Cambridge 107
_journal_volume 27
_journal_year 1971
_journal_page_first 1158
_journal_name_full 'Acta Crystallogr.,Sect.B:Struct.Crystallogr.Cryst.Chem. '
loop_
_publ_author_name
"J.V.Barve"
"L.M.Pant"
_chemical_name_systematic
;
p-Nitrotoluene
;
_chemical_name_common
;
1-methyl-4-nitrobenzene; Teaching Subset: Fundamental Chemistry, Symmetry
;
_cell_volume   1416.762
_exptl_crystal_density_diffrn 1.287
_diffrn_ambient_temperature ?
_diffrn_special_details
;
The study was carried out at room temperature,in the range 283-303K

;
#These two values have been output from a single CSD field.
_refine_ls_R_factor_gt 0.107
_refine_ls_wR_factor_gt 0.107
_symmetry_cell_setting orthorhombic
_symmetry_space_group_name_H-M 'P c a b'
_symmetry_Int_Tables_number 61
loop_
_symmetry_equiv_pos_site_id
_symmetry_equiv_pos_as_xyz
1 x,y,z
2 -x,1/2-y,1/2+z
3 1/2+x,-y,1/2-z
4 1/2-x,1/2+y,-z
5 -x,-y,-z
6 x,-1/2+y,-1/2-z
7 -1/2-x,y,-1/2+z
8 -1/2+x,-1/2-y,z
_cell_length_a 6.43
_cell_length_b 14.07
_cell_length_c 15.66
_cell_angle_alpha 90
_cell_angle_beta 90
_cell_angle_gamma 90
_cell_formula_units_Z 8
loop_
_atom_type_symbol
_atom_type_radius_bond
C 0.68
H 0.20
N 0.68
O 0.68
loop_
_atom_site_label
_atom_site_type_symbol
_atom_site_fract_x
_atom_site_fract_y
_atom_site_fract_z
C1 C 0.12040 0.11440 -0.02320
C2 C -0.08170 0.15260 -0.02800
C3 C -0.18990 0.16060 0.04790
C4 C -0.10640 0.13380 0.12600
C5 C 0.09640 0.09680 0.12610
C6 C 0.20900 0.08790 0.05130
C7 C -0.22720 0.14380 0.20760
H1 H -0.14600 0.17700 -0.08300
H2 H -0.32800 0.18400 0.05100
H3 H 0.13300 0.07300 0.17700
H4 H 0.34800 0.06300 0.05300
H5 H -0.20100 0.12100 0.25900
H6 H -0.25800 0.18500 0.22800
H7 H -0.27800 0.10400 0.20900
N1 N 0.24200 0.10900 -0.10310
O1 O 0.41480 0.07410 -0.10040
O2 O 0.15890 0.13220 -0.16930
#END
