
#######################################################################
#
#                 Cambridge Crystallographic Data Centre
#                                CCDC
#
#######################################################################
#
# If this CIF has been generated from an entry in the Cambridge
# Structural Database, then it will include bibliographic, chemical,
# crystal, experimental, refinement or atomic coordinate data resulting
# from the CCDC's data processing and validation procedures.
#
#######################################################################

data_CSD_CIF_NIVBIO
_audit_creation_date 1975-08-29
_audit_creation_method CSD-ConQuest-V1
_database_code_CSD NIVBIO
_database_code_depnum_ccdc_archive 'CCDC 1220944'
_chemical_formula_sum 'C31 H38 N2 O12'
_chemical_formula_moiety
;
C31 H36 N2 O11,H2 O1
;
_journal_coeditor_code "IUCr A12167"
_journal_coden_Cambridge 107
_journal_volume 31
_journal_year 1975
_journal_page_first 1400
_journal_name_full 'Acta Crystallogr.,Sect.B:Struct.Crystallogr.Cryst.Chem. '
loop_
_publ_author_name
"M.O.Boles"
"D.J.Taylor"
_chemical_name_systematic
;
Novobiocin monohydrate
;
_chemical_name_common
;
PDB Chemical Component code: NOV; Teaching Subset: Drug Molecules, 'Bound' 
Drugs
;
_cell_volume   3076.731
_exptl_crystal_density_diffrn 1.36
_exptl_special_details
;
antibiotic agent

;
_diffrn_ambient_temperature ?
_diffrn_special_details
;
The study was carried out at room temperature,in the range 283-303K

;
_refine_special_details
;
The structure contains Ca ions with an occupancy factor of about 0.03.

;
#These two values have been output from a single CSD field.
_refine_ls_R_factor_gt 0.14
_refine_ls_wR_factor_gt 0.14
_symmetry_cell_setting orthorhombic
_symmetry_space_group_name_H-M 'P 21 21 21'
_symmetry_Int_Tables_number 19
loop_
_symmetry_equiv_pos_site_id
_symmetry_equiv_pos_as_xyz
1 x,y,z
2 1/2+x,1/2-y,-z
3 -x,1/2+y,1/2-z
4 1/2-x,-y,1/2+z
_cell_length_a 8.577(17)
_cell_length_b 13.610(27)
_cell_length_c 26.357(52)
_cell_angle_alpha 90
_cell_angle_beta 90
_cell_angle_gamma 90
_cell_formula_units_Z 4
loop_
_atom_type_symbol
_atom_type_radius_bond
C 0.68
N 0.68
O 0.68
loop_
_atom_site_label
_atom_site_type_symbol
_atom_site_fract_x
_atom_site_fract_y
_atom_site_fract_z
C1 C -0.39940 0.48300 -0.10680
C2 C -0.55650 0.67650 -0.37590
C3 C -0.79090 0.61100 -0.32920
C4 C -0.73050 0.67070 -0.36530
C5 C -0.83810 0.72370 -0.39420
C6 C -0.87250 0.83280 -0.46320
C7 C -1.03090 0.83740 -0.45520
C8 C -1.09660 0.78130 -0.41690
C9 C -0.99320 0.72330 -0.38500
C10 C -1.05300 0.66700 -0.34490
C11 C -0.95140 0.60830 -0.31740
C12 C -0.21350 0.43970 -0.22510
C13 C -1.26000 0.91560 -0.49790
C14 C -1.30640 0.98760 -0.53590
C15 C -1.46570 0.99410 -0.54740
C16 C -1.51760 1.06530 -0.58100
C17 C -1.41210 1.12210 -0.60490
C18 C -1.25260 1.12290 -0.59580
C19 C -1.20230 1.05090 -0.55960
C20 C -1.70110 1.06240 -0.59550
C21 C -1.78780 1.15540 -0.58430
C22 C -1.83900 1.18400 -0.53860
C23 C -0.67650 0.65780 -0.20240
C24 C -1.91580 1.28180 -0.53850
C25 C -1.82750 1.13770 -0.49400
C26 C -0.81690 0.54670 -0.14220
C27 C -0.56670 0.48580 -0.17990
C28 C -0.49050 0.46150 -0.22890
C29 C -0.60230 0.40850 -0.26370
C30 C -0.73840 0.47090 -0.27380
C31 C -0.71630 0.54970 -0.18750
N1 N -0.10460 0.37360 -0.21470
N2 N -1.10690 0.90130 -0.48800
O1 O -0.46620 0.54160 -0.14780
O2 O -1.36400 0.86240 -0.47660
O3 O -1.46800 1.19140 -0.64130
O4 O -0.19410 0.52200 -0.23970
O5 O -0.35800 0.39870 -0.21930
O6 O -0.64890 0.31950 -0.24030
O7 O -0.81290 0.50280 -0.22690
O8 O -0.68640 0.55170 -0.30270
O9 O -1.24520 0.78350 -0.40270
O10 O -0.77740 0.78040 -0.43240
O11 O -0.80440 0.87990 -0.49810
O12 O -0.25320 -0.31390 -0.18460
#END
