
#######################################################################
#
#                 Cambridge Crystallographic Data Centre
#                                CCDC
#
#######################################################################
#
# If this CIF has been generated from an entry in the Cambridge
# Structural Database, then it will include bibliographic, chemical,
# crystal, experimental, refinement or atomic coordinate data resulting
# from the CCDC's data processing and validation procedures.
#
#######################################################################

data_CSD_CIF_NIWQAL01
_audit_creation_date 2008-11-20
_audit_creation_method CSD-ConQuest-V1
_database_code_CSD NIWQAL01
_database_code_depnum_ccdc_archive 'CCDC 694949'
_chemical_formula_sum 'C24 H21 N3 O3'
_chemical_formula_moiety
;
C24 H21 N3 O3
;
_journal_coden_Cambridge 9
_journal_volume 47
_journal_year 2008
_journal_page_first 5503
_journal_name_full 'Inorg.Chem. '
loop_
_publ_author_name
"Yunjun Wu"
"Shaowu Wang"
"Xiancui Zhu"
"Gaosheng Yang"
"Yun Wei"
"Lijun Zhang"
"Hai-bin Song"
_chemical_name_systematic
;
1,3,5-Tribenzyl-1,3,5-triazine-2,4,6-(1H,3H,5H)-trione
;
_chemical_name_common
;
Teaching Subset: Fundamental Chemistry, Symmetry
;
_chemical_melting_point 433
_cell_volume    988.038
_exptl_crystal_colour 'colorless'
_exptl_crystal_density_diffrn 1.343
_exptl_special_details
;
Melting point range 433-433.5K

;
_exptl_crystal_preparation 'tetrahydrofuran'
_diffrn_ambient_temperature 293
#These two values have been output from a single CSD field.
_refine_ls_R_factor_gt 0.0287
_refine_ls_wR_factor_gt 0.0287
_symmetry_cell_setting monoclinic
_symmetry_space_group_name_H-M 'P n'
_symmetry_Int_Tables_number 7
loop_
_symmetry_equiv_pos_site_id
_symmetry_equiv_pos_as_xyz
1 x,y,z
2 1/2+x,-y,1/2+z
_cell_length_a 11.4057(9)
_cell_length_b 4.5668(4)
_cell_length_c 18.9688(14)
_cell_angle_alpha 90
_cell_angle_beta 90.010(1)
_cell_angle_gamma 90
_cell_formula_units_Z 2
loop_
_atom_type_symbol
_atom_type_radius_bond
C 0.68
H 0.23
N 0.68
O 0.68
loop_
_atom_site_label
_atom_site_type_symbol
_atom_site_fract_x
_atom_site_fract_y
_atom_site_fract_z
N1 N 0.16918(9) 0.2849(2) 0.32383(6)
N2 N 0.03520(8) 0.5758(2) 0.26210(5)
N3 N 0.03512(8) 0.5759(2) 0.38558(5)
O1 O 0.16597(9) 0.2910(3) 0.20430(5)
O2 O 0.16596(9) 0.2908(3) 0.44333(5)
O3 O -0.09101(10) 0.8621(2) 0.32391(7)
C1 C -0.01285(11) 0.6843(3) 0.32390(7)
C2 C -0.00996(12) 0.6834(3) 0.45401(7)
H1 H -0.05210 0.86520 0.44640
H2 H 0.05580 0.72510 0.48490
C3 C -0.01022(12) 0.6833(3) 0.19376(7)
H3 H 0.05540 0.72580 0.16290
H4 H -0.05250 0.86460 0.20150
C4 C 0.12597(10) 0.3768(3) 0.25945(7)
C5 C 0.12592(10) 0.3769(3) 0.38832(7)
C6 C 0.38433(10) 0.3078(3) 0.32385(8)
C7 C 0.43275(12) 0.4035(4) 0.38686(9)
H5 H 0.40130 0.34080 0.42950
C8 C 0.57564(13) 0.6843(4) 0.32381(11)
H6 H 0.64020 0.80870 0.32380
C9 C 0.52776(13) 0.5918(4) 0.26136(10)
H7 H 0.55950 0.65620 0.21890
C10 C 0.27904(12) 0.1100(3) 0.32375(9)
H8 H 0.28100 -0.01430 0.28230
H9 H 0.28100 -0.01490 0.36510
C11 C 0.52765(13) 0.5918(4) 0.38637(10)
H10 H 0.55930 0.65650 0.42880
C12 C -0.09002(11) 0.4688(3) 0.15778(7)
C13 C -0.09017(11) 0.4681(3) 0.48991(7)
C14 C -0.19165(13) 0.3715(3) 0.18997(8)
H11 H -0.20990 0.43460 0.23530
C15 C -0.19146(13) 0.3713(3) 0.45778(8)
H12 H -0.20960 0.43420 0.41240
C16 C -0.24074(19) 0.0861(4) 0.08878(11)
H13 H -0.29130 -0.04170 0.06570
C17 C -0.24094(18) 0.0862(4) 0.55902(10)
H14 H -0.29150 -0.04150 0.58210
C18 C -0.26637(15) 0.1817(4) 0.49241(11)
H15 H -0.33460 0.11850 0.47020
C19 C -0.26628(16) 0.1814(4) 0.15542(11)
H16 H -0.33440 0.11780 0.17760
C20 C -0.06513(17) 0.3706(4) 0.09070(8)
H17 H 0.00290 0.43300 0.06830
C21 C -0.06525(16) 0.3706(3) 0.55718(8)
H18 H 0.00270 0.43350 0.57970
C22 C -0.1404(2) 0.1801(4) 0.05637(10)
H19 H -0.12270 0.11570 0.01110
C23 C -0.1405(2) 0.1802(4) 0.59139(10)
H20 H -0.12270 0.11570 0.63660
C24 C 0.43271(12) 0.4037(3) 0.26081(8)
H21 H 0.40120 0.34140 0.21820
#END
