####################################################################### 
# 
# This file contains crystal structure data downloaded from the 
# Cambridge Structural Database (CSD) hosted by the Cambridge 
# Crystallographic Data Centre (CCDC).
# 
# Full information about CCDC data access policies and citation 
# guidelines are available at http://www.ccdc.cam.ac.uk/access/V1 
# 
# Audit and citation data items may have been added by the CCDC. 
# Please retain this information to preserve the provenance of 
# this file and to allow appropriate attribution of the data. 
# 
#######################################################################

data_n
_audit_block_doi                 10.5517/cc122sgd
_database_code_depnum_ccdc_archive 'CCDC 985783'
loop_
_citation_id
_citation_doi
_citation_year
1 10.1021/ic402692p 2014
_audit_update_record             
;
2014-02-07 deposited with the CCDC.	2024-07-11 downloaded from the CCDC.
;

_audit_creation_method           SHELXL-97
_chemical_name_systematic        
; 
 ? 
;
_chemical_name_common            ?
_chemical_melting_point          ?
_chemical_formula_moiety         ?
_chemical_formula_sum            'C54 H18 N0 O38 Zn9'
_chemical_formula_weight         1863.01

loop_
_atom_type_symbol
_atom_type_description
_atom_type_scat_dispersion_real
_atom_type_scat_dispersion_imag
_atom_type_scat_source
C C 0.0033 0.0016 'International Tables Vol C Tables 4.2.6.8 and 6.1.1.4'
H H 0.0000 0.0000 'International Tables Vol C Tables 4.2.6.8 and 6.1.1.4'
N N 0.0061 0.0033 'International Tables Vol C Tables 4.2.6.8 and 6.1.1.4'
O O 0.0106 0.0060 'International Tables Vol C Tables 4.2.6.8 and 6.1.1.4'
Zn Zn 0.2839 1.4301 'International Tables Vol C Tables 4.2.6.8 and 6.1.1.4'

_symmetry_cell_setting           Orthorhombic
_symmetry_space_group_name_H-M   FDD2

loop_
_symmetry_equiv_pos_as_xyz
'x, y, z'
'-x, -y, z'
'-x+1/4, y+1/4, z+1/4'
'x+3/4, -y+3/4, z+1/4'
'x, y+1/2, z+1/2'
'-x, -y+1/2, z+1/2'
'-x+1/4, y+3/4, z+3/4'
'x+3/4, -y+5/4, z+3/4'
'x+1/2, y, z+1/2'
'-x+1/2, -y, z+1/2'
'-x+3/4, y+1/4, z+3/4'
'x+5/4, -y+3/4, z+3/4'
'x+1/2, y+1/2, z'
'-x+1/2, -y+1/2, z'
'-x+3/4, y+3/4, z+1/4'
'x+5/4, -y+5/4, z+1/4'

_cell_length_a                   29.928(10)
_cell_length_b                   43.631(9)
_cell_length_c                   16.789(3)
_cell_angle_alpha                90.00
_cell_angle_beta                 90.00
_cell_angle_gamma                90.00
_cell_volume                     21923(9)
_cell_formula_units_Z            8
_cell_measurement_temperature    293(2)
_cell_measurement_reflns_used    ?
_cell_measurement_theta_min      ?
_cell_measurement_theta_max      ?

_exptl_crystal_description       plate
_exptl_crystal_colour            colorless
_exptl_crystal_size_max          0.12
_exptl_crystal_size_mid          0.09
_exptl_crystal_size_min          0.04
_exptl_crystal_density_meas      ?
_exptl_crystal_density_diffrn    1.129
_exptl_crystal_density_method    'not measured'
_exptl_crystal_F_000             7328
_exptl_absorpt_coefficient_mu    1.993
_exptl_absorpt_correction_type   ?
_exptl_absorpt_correction_T_min  ?
_exptl_absorpt_correction_T_max  ?
_exptl_absorpt_process_details   ?

_exptl_special_details           
; 
 ? 
;

_diffrn_ambient_temperature      293(2)
_diffrn_radiation_wavelength     0.71073
_diffrn_radiation_type           MoK\a
_diffrn_radiation_source         'fine-focus sealed tube'
_diffrn_radiation_monochromator  graphite
_diffrn_measurement_device_type  'Bruker APEX-II CCD'
_diffrn_measurement_method       '\f and \w scans'
_diffrn_detector_area_resol_mean ?
_diffrn_reflns_number            48965
_diffrn_reflns_av_R_equivalents  0.1837
_diffrn_reflns_av_sigmaI/netI    0.1693
_diffrn_reflns_limit_h_min       -38
_diffrn_reflns_limit_h_max       38
_diffrn_reflns_limit_k_min       -56
_diffrn_reflns_limit_k_max       56
_diffrn_reflns_limit_l_min       -21
_diffrn_reflns_limit_l_max       21
_diffrn_reflns_theta_min         3.11
_diffrn_reflns_theta_max         27.48
_reflns_number_total             11953
_reflns_number_gt                7904
_reflns_threshold_expression     >2sigma(I)

_computing_data_collection       'Bruker APEX2'
_computing_cell_refinement       'Bruker SAINT'
_computing_data_reduction        'Bruker SAINT'
_computing_structure_solution    'SHELXS-97 (Sheldrick, 2008)'
_computing_structure_refinement  'SHELXL-97 (Sheldrick, 2008)'
_computing_molecular_graphics    'Bruker SHELXTL'
_computing_publication_material  'Bruker SHELXTL'

_refine_special_details          
; 
loop_
  _platon_squeeze_void_nr
  _platon_squeeze_void_average_x
  _platon_squeeze_void_average_y
  _platon_squeeze_void_average_z
  _platon_squeeze_void_volume
  _platon_squeeze_void_count_electrons
  _platon_squeeze_void_content
   1 -0.012 -0.002  0.036     12517      2656 ' '

_platon_squeeze_details

 The unit cell contains 4 protonated triethylamine molecules, which have 
 been treated as a diffuse contribution to the overall 
 scattering without specific atom positions by SQUEEZE/PLATON.

 Refinement of F^2^ against ALL reflections.  The weighted R-factor wR and 
 goodness of fit S are based on F^2^, conventional R-factors R are based 
 on F, with F set to zero for negative F^2^. The threshold expression of 
 F^2^ > 2sigma(F^2^) is used only for calculating R-factors(gt) etc. and is 
 not relevant to the choice of reflections for refinement.  R-factors based 
 on F^2^ are statistically about twice as large as those based on F, and R- 
 factors based on ALL data will be even larger. 
;



_refine_ls_structure_factor_coef Fsqd
_refine_ls_matrix_type           full
_refine_ls_weighting_scheme      calc
_refine_ls_weighting_details     
'calc w=1/[\s^2^(Fo^2^)+(0.0924P)^2^+0.0000P] where P=(Fo^2^+2Fc^2^)/3'
_atom_sites_solution_primary     direct
_atom_sites_solution_secondary   difmap
_atom_sites_solution_hydrogens   geom
_refine_ls_hydrogen_treatment    mixed
_refine_ls_extinction_method     none
_refine_ls_extinction_coef       ?
_refine_ls_abs_structure_details 'Flack H D (1983), Acta Cryst. A39, 876-881'
_refine_ls_abs_structure_Flack   0.00
_refine_ls_number_reflns         11953
_refine_ls_number_parameters     456
_refine_ls_number_restraints     8
_refine_ls_R_factor_all          0.1153
_refine_ls_R_factor_gt           0.0884
_refine_ls_wR_factor_ref         0.2198
_refine_ls_wR_factor_gt          0.1998
_refine_ls_goodness_of_fit_ref   0.998
_refine_ls_restrained_S_all      1.001
_refine_ls_shift/su_max          0.001
_refine_ls_shift/su_mean         0.000

loop_
_atom_site_label
_atom_site_type_symbol
_atom_site_fract_x
_atom_site_fract_y
_atom_site_fract_z
_atom_site_U_iso_or_equiv
_atom_site_adp_type
_atom_site_occupancy
_atom_site_symmetry_multiplicity
_atom_site_calc_flag
_atom_site_refinement_flags
_atom_site_disorder_assembly
_atom_site_disorder_group
Zn1 Zn 0.09637(4) 0.27808(2) 0.06356(6) 0.0291(2) Uani 1 1 d . . .
Zn3 Zn 0.04557(4) 0.30414(2) 0.21899(6) 0.0306(3) Uani 1 1 d . . .
Zn4 Zn 0.14652(4) 0.28638(2) 0.22714(6) 0.0296(2) Uani 1 1 d . . .
Zn6 Zn 0.11259(4) 0.34488(2) 0.13018(7) 0.0332(3) Uani 1 1 d . . .
Zn8 Zn 0.2500 0.2500 -0.34659(9) 0.0341(4) Uani 1 2 d S . .
O1 O 0.1014(2) 0.30225(15) 0.1592(4) 0.0315(15) Uani 1 1 d . . .
O2 O 0.1299(3) 0.29682(15) -0.0245(4) 0.0445(18) Uani 1 1 d . . .
O3 O 0.0359(2) 0.26763(16) 0.0315(4) 0.0386(16) Uani 1 1 d . . .
O4 O 0.1238(2) 0.23582(15) 0.0773(5) 0.0430(18) Uani 1 1 d . . .
O9 O -0.0526(2) 0.21978(15) -0.1787(4) 0.0332(15) Uani 1 1 d . . .
O10 O 0.1745(3) 0.09541(16) 0.0374(4) 0.049(2) Uani 1 1 d . . .
O11 O 0.0089(3) 0.27084(17) 0.1571(4) 0.0440(18) Uani 1 1 d . . .
O12 O 0.2457(3) 0.41600(17) -0.0478(5) 0.049(2) Uani 1 1 d . . .
O13 O 0.2992(2) 0.18929(15) 0.2290(4) 0.0395(17) Uani 1 1 d . . .
O14 O -0.1270(3) 0.22103(18) -0.1640(4) 0.0453(18) Uani 1 1 d . . .
O15 O 0.1657(3) 0.24649(17) 0.1859(5) 0.053(2) Uani 1 1 d . . .
O20 O 0.1485(2) 0.12983(16) -0.0503(4) 0.0422(18) Uani 1 1 d . . .
O21 O 0.3181(2) 0.15136(17) 0.1432(5) 0.0436(18) Uani 1 1 d . . .
O22 O 0.1221(3) 0.34551(18) 0.0131(5) 0.0484(19) Uani 1 1 d . . .
O23 O 0.2879(3) 0.4062(2) -0.1511(4) 0.065(3) Uani 1 1 d . . .
O27 O -0.1976(2) 0.25159(19) 0.0827(4) 0.0454(19) Uani 1 1 d . . .
O29 O 0.2340(4) 0.2807(2) -0.2726(6) 0.080(3) Uani 1 1 d . . .
O91 O 0.2318(7) 0.3216(3) -0.3450(7) 0.148(7) Uani 1 1 d . . .
O92 O -0.1563(3) 0.2594(3) 0.1889(5) 0.078(3) Uani 1 1 d U . .
C11 C -0.0875(3) 0.2248(2) -0.1401(6) 0.029(2) Uani 1 1 d . . .
C17 C -0.0830(3) 0.2377(2) -0.0572(6) 0.034(2) Uani 1 1 d . . .
C18 C 0.0053(3) 0.2655(2) 0.0859(6) 0.035(2) Uani 1 1 d . . .
C24 C 0.2263(3) 0.1463(2) 0.0998(6) 0.034(2) Uani 1 1 d . . .
H24A H 0.2427 0.1284 0.0931 0.041 Uiso 1 1 calc R . .
C26 C 0.1611(3) 0.1771(2) 0.0715(6) 0.034(2) Uani 1 1 d . . .
H26A H 0.1344 0.1799 0.0441 0.040 Uiso 1 1 calc R . .
C32 C 0.1852(4) 0.3173(2) -0.1547(6) 0.045(3) Uani 1 1 d . . .
H32A H 0.1720 0.2983 -0.1627 0.054 Uiso 1 1 calc R . .
C33 C 0.1402(4) 0.3250(3) -0.0293(6) 0.042(2) Uani 1 1 d . . .
C34 C -0.0432(3) 0.2454(2) -0.0276(6) 0.033(2) Uani 1 1 d . . .
H34A H -0.0175 0.2435 -0.0585 0.040 Uiso 1 1 calc R . .
C37 C 0.2286(3) 0.3719(2) -0.1282(6) 0.038(2) Uani 1 1 d . . .
C38 C 0.1785(3) 0.1999(2) 0.1182(5) 0.031(2) Uani 1 1 d . . .
C41 C -0.1185(3) 0.2522(2) 0.0670(6) 0.035(2) Uani 1 1 d . . .
C42 C 0.1684(4) 0.1223(2) 0.0151(6) 0.045(3) Uani 1 1 d D . .
C44 C 0.1853(4) 0.14888(19) 0.0664(6) 0.037(2) Uani 1 1 d D . .
C48 C 0.1530(3) 0.2306(2) 0.1267(7) 0.038(2) Uani 1 1 d . . .
C51 C 0.2901(4) 0.1705(3) 0.1726(6) 0.044(3) Uani 1 1 d . . .
C52 C 0.2377(4) 0.3554(3) -0.1933(6) 0.044(3) Uani 1 1 d . . .
H52A H 0.2592 0.3621 -0.2293 0.053 Uiso 1 1 calc R . .
C53 C 0.2291(5) 0.3091(3) -0.2810(9) 0.065(4) Uani 1 1 d . . .
C56 C 0.2440(3) 0.1708(2) 0.1451(6) 0.033(2) Uani 1 1 d . . .
C59 C 0.1741(4) 0.3352(3) -0.0871(6) 0.042(3) Uani 1 1 d . . .
C61 C 0.2153(4) 0.3283(2) -0.2071(7) 0.044(3) Uani 1 1 d . . .
C62 C -0.0404(3) 0.2565(2) 0.0502(6) 0.032(2) Uani 1 1 d . . .
C68 C -0.0785(4) 0.2592(3) 0.0986(6) 0.043(3) Uani 1 1 d . . .
H68A H -0.0761 0.2657 0.1512 0.051 Uiso 1 1 calc R . .
C71 C -0.1604(4) 0.2557(3) 0.1170(7) 0.053(3) Uani 1 1 d . . .
C77 C 0.1950(4) 0.3621(2) -0.0755(6) 0.041(3) Uani 1 1 d . . .
H10B H 0.1872 0.3743 -0.0322 0.049 Uiso 1 1 calc R . .
C86 C 0.2183(4) 0.1969(2) 0.1517(7) 0.042(3) Uani 1 1 d . . .
H10A H 0.2295 0.2133 0.1811 0.050 Uiso 1 1 calc R . .
C96 C 0.2573(4) 0.3998(3) -0.1085(8) 0.051(3) Uani 1 1 d . . .
C99 C -0.1227(3) 0.2405(3) -0.0106(6) 0.041(3) Uani 1 1 d . . .
H14A H -0.1504 0.2348 -0.0309 0.049 Uiso 1 1 calc R . .

loop_
_atom_site_aniso_label
_atom_site_aniso_U_11
_atom_site_aniso_U_22
_atom_site_aniso_U_33
_atom_site_aniso_U_23
_atom_site_aniso_U_13
_atom_site_aniso_U_12
Zn1 0.0375(6) 0.0271(5) 0.0228(5) -0.0029(5) 0.0007(4) -0.0027(4)
Zn3 0.0372(6) 0.0319(5) 0.0227(5) 0.0015(5) 0.0026(5) 0.0013(4)
Zn4 0.0384(6) 0.0275(5) 0.0228(5) 0.0007(5) 0.0006(4) -0.0009(4)
Zn6 0.0470(7) 0.0252(5) 0.0273(6) -0.0015(5) 0.0062(5) 0.0012(5)
Zn8 0.0422(9) 0.0391(9) 0.0211(7) 0.000 0.000 0.0032(7)
O1 0.026(3) 0.036(4) 0.033(4) 0.003(3) 0.012(3) 0.007(3)
O2 0.078(5) 0.025(3) 0.031(4) -0.003(3) 0.018(4) -0.017(3)
O3 0.041(4) 0.040(4) 0.035(4) -0.008(3) -0.006(3) -0.003(3)
O4 0.053(4) 0.024(3) 0.052(5) -0.008(4) -0.020(4) 0.007(3)
O9 0.035(4) 0.035(4) 0.030(3) 0.000(3) 0.004(3) -0.004(3)
O10 0.088(6) 0.023(4) 0.036(4) -0.011(3) -0.008(4) 0.000(4)
O11 0.070(5) 0.049(4) 0.012(3) 0.002(3) -0.008(3) -0.011(4)
O12 0.063(5) 0.037(4) 0.047(5) -0.013(4) 0.002(4) -0.006(3)
O13 0.047(4) 0.034(4) 0.037(4) -0.016(4) -0.007(3) -0.003(3)
O14 0.057(5) 0.052(4) 0.027(4) -0.005(4) 0.002(3) -0.003(4)
O15 0.074(6) 0.033(4) 0.051(5) -0.025(4) -0.022(4) 0.016(4)
O20 0.056(5) 0.037(4) 0.034(4) -0.010(3) -0.019(3) 0.002(3)
O21 0.034(4) 0.048(4) 0.049(5) -0.017(4) -0.004(3) 0.000(3)
O22 0.066(5) 0.044(4) 0.035(4) -0.002(4) 0.008(4) 0.018(4)
O23 0.056(5) 0.112(8) 0.028(4) -0.005(5) 0.003(4) -0.025(5)
O27 0.029(4) 0.074(5) 0.033(4) -0.013(4) 0.003(3) -0.011(3)
O29 0.123(9) 0.073(7) 0.044(5) -0.018(6) 0.006(6) 0.032(6)
O91 0.31(2) 0.096(10) 0.039(6) -0.019(7) 0.058(10) 0.015(11)
O92 0.074(6) 0.140(7) 0.021(4) -0.026(5) 0.004(4) -0.001(5)
C11 0.026(5) 0.025(4) 0.035(5) 0.008(4) -0.009(4) -0.013(4)
C17 0.042(6) 0.038(5) 0.022(5) 0.003(4) 0.014(4) 0.001(4)
C18 0.029(5) 0.038(5) 0.040(6) 0.000(5) 0.010(4) -0.002(4)
C24 0.025(5) 0.031(5) 0.046(6) -0.011(5) -0.001(4) 0.001(4)
C26 0.037(5) 0.034(5) 0.031(5) -0.007(5) 0.000(4) 0.011(4)
C32 0.069(8) 0.031(5) 0.035(6) -0.024(5) 0.013(5) -0.003(5)
C33 0.064(7) 0.047(6) 0.014(4) 0.005(5) -0.001(4) -0.013(5)
C34 0.033(5) 0.048(6) 0.020(4) -0.003(5) 0.006(4) -0.002(4)
C37 0.041(6) 0.034(5) 0.038(6) 0.003(5) 0.008(5) -0.001(4)
C38 0.048(6) 0.023(4) 0.020(5) -0.006(4) -0.006(4) 0.000(4)
C41 0.037(5) 0.052(6) 0.017(4) -0.019(5) 0.009(4) 0.002(4)
C42 0.060(7) 0.040(6) 0.034(6) 0.005(5) 0.000(5) -0.015(5)
C44 0.060(7) 0.019(4) 0.031(5) -0.006(4) -0.005(5) 0.006(4)
C48 0.027(5) 0.038(5) 0.050(6) -0.003(5) -0.012(5) -0.001(4)
C51 0.037(6) 0.058(7) 0.035(6) 0.022(6) -0.003(4) -0.018(5)
C52 0.055(7) 0.051(6) 0.027(5) 0.000(5) 0.007(5) -0.020(5)
C53 0.082(9) 0.059(8) 0.054(8) 0.007(8) 0.030(8) -0.032(7)
C56 0.040(6) 0.027(4) 0.031(5) -0.010(4) 0.002(4) -0.010(4)
C59 0.051(6) 0.050(6) 0.025(5) -0.017(5) 0.011(4) -0.013(5)
C61 0.058(7) 0.038(6) 0.036(6) -0.007(5) 0.012(5) -0.011(5)
C62 0.032(5) 0.042(5) 0.022(5) -0.002(4) -0.006(4) 0.003(4)
C68 0.054(7) 0.048(6) 0.026(5) -0.006(5) -0.004(5) -0.016(5)
C71 0.048(7) 0.075(9) 0.036(6) -0.010(6) 0.019(5) -0.006(6)
C77 0.054(7) 0.033(5) 0.037(6) -0.002(5) 0.002(5) -0.017(5)
C86 0.063(7) 0.024(5) 0.038(6) -0.011(5) -0.006(5) -0.007(4)
C96 0.046(7) 0.050(7) 0.055(8) 0.016(6) -0.011(6) -0.015(5)
C99 0.032(5) 0.062(7) 0.029(5) -0.019(5) -0.004(4) -0.011(5)

_geom_special_details            
; 
 All esds (except the esd in the dihedral angle between two l.s. planes) 
 are estimated using the full covariance matrix.  The cell esds are taken 
 into account individually in the estimation of esds in distances, angles 
 and torsion angles; correlations between esds in cell parameters are only 
 used when they are defined by crystal symmetry.  An approximate (isotropic) 
 treatment of cell esds is used for estimating esds involving l.s. planes. 
;

loop_
_geom_bond_atom_site_label_1
_geom_bond_atom_site_label_2
_geom_bond_distance
_geom_bond_site_symmetry_2
_geom_bond_publ_flag
Zn1 O1 1.927(7) . ?
Zn1 O3 1.941(7) . ?
Zn1 O2 1.966(7) . ?
Zn1 O4 2.032(7) . ?
Zn1 Zn4 3.1507(16) . ?
Zn1 Zn6 3.1595(16) . ?
Zn3 O1 1.951(6) . ?
Zn3 O12 2.001(8) 4_455 ?
Zn3 O9 2.021(7) 6 ?
Zn3 O11 2.097(7) . ?
Zn3 O10 2.315(7) 3 ?
Zn3 Zn6 3.0670(16) . ?
Zn3 Zn4 3.1222(18) . ?
Zn4 O1 1.898(7) . ?
Zn4 O13 1.940(7) 14 ?
Zn4 O14 1.947(7) 6 ?
Zn4 O15 1.959(7) . ?
Zn6 O20 1.949(7) 3 ?
Zn6 O1 1.952(7) . ?
Zn6 O22 1.986(8) . ?
Zn6 O21 2.092(7) 14 ?
Zn6 O23 2.298(9) 4_455 ?
Zn8 O29 1.888(9) 14 ?
Zn8 O29 1.888(9) . ?
Zn8 O27 1.968(7) 9_554 ?
Zn8 O27 1.968(7) 6_554 ?
O2 C33 1.268(12) . ?
O3 C18 1.298(11) . ?
O4 C48 1.225(12) . ?
O9 C11 1.251(11) . ?
O9 Zn3 2.021(7) 6_554 ?
O10 C42 1.245(12) . ?
O10 Zn3 2.315(7) 7_544 ?
O11 C18 1.223(12) . ?
O12 C96 1.287(15) . ?
O12 Zn3 2.001(8) 12_454 ?
O13 C51 1.281(13) . ?
O13 Zn4 1.940(7) 14 ?
O14 C11 1.257(11) . ?
O14 Zn4 1.947(7) 6_554 ?
O15 C48 1.271(12) . ?
O20 C42 1.291(12) . ?
O20 Zn6 1.949(7) 7_544 ?
O21 C51 1.282(14) . ?
O21 Zn6 2.092(7) 14 ?
O22 C33 1.267(13) . ?
O23 C96 1.193(14) . ?
O23 Zn6 2.298(9) 12_454 ?
O27 C71 1.267(14) . ?
O27 Zn8 1.968(7) 9_455 ?
O29 C53 1.257(15) . ?
O91 C53 1.209(17) . ?
O92 C71 1.225(13) . ?
C11 C17 1.506(13) . ?
C17 C34 1.336(14) . ?
C17 C99 1.427(13) . ?
C18 C62 1.542(13) . ?
C24 C44 1.352(14) . ?
C24 C56 1.418(12) . ?
C24 H24A 0.9300 . ?
C26 C38 1.371(13) . ?
C26 C44 1.431(12) . ?
C26 H26A 0.9300 . ?
C32 C61 1.346(15) . ?
C32 C59 1.419(13) . ?
C32 H32A 0.9300 . ?
C33 C59 1.473(14) . ?
C34 C62 1.396(13) . ?
C34 H34A 0.9300 . ?
C37 C52 1.339(15) . ?
C37 C77 1.407(14) . ?
C37 C96 1.527(14) . ?
C38 C86 1.322(14) . ?
C38 C48 1.546(13) . ?
C41 C68 1.345(14) . ?
C41 C99 1.406(13) . ?
C41 C71 1.515(14) . ?
C42 C44 1.530(8) . ?
C51 C56 1.454(14) . ?
C52 C61 1.379(15) . ?
C52 H52A 0.9300 . ?
C53 C61 1.552(17) . ?
C56 C86 1.380(14) . ?
C59 C77 1.343(14) . ?
C62 C68 1.404(14) . ?
C68 H68A 0.9300 . ?
C77 H10B 0.9300 . ?
C86 H10A 0.9300 . ?
C99 H14A 0.9300 . ?

loop_
_geom_angle_atom_site_label_1
_geom_angle_atom_site_label_2
_geom_angle_atom_site_label_3
_geom_angle
_geom_angle_site_symmetry_1
_geom_angle_site_symmetry_3
_geom_angle_publ_flag
O1 Zn1 O3 115.6(3) . . ?
O1 Zn1 O2 111.1(3) . . ?
O3 Zn1 O2 111.4(3) . . ?
O1 Zn1 O4 111.7(3) . . ?
O3 Zn1 O4 101.2(3) . . ?
O2 Zn1 O4 104.9(3) . . ?
O1 Zn1 Zn4 34.26(18) . . ?
O3 Zn1 Zn4 135.4(2) . . ?
O2 Zn1 Zn4 111.4(2) . . ?
O4 Zn1 Zn4 79.2(2) . . ?
O1 Zn1 Zn6 35.72(19) . . ?
O3 Zn1 Zn6 117.2(2) . . ?
O2 Zn1 Zn6 78.7(2) . . ?
O4 Zn1 Zn6 137.3(2) . . ?
Zn4 Zn1 Zn6 60.80(3) . . ?
O1 Zn3 O12 126.4(3) . 4_455 ?
O1 Zn3 O9 109.1(3) . 6 ?
O12 Zn3 O9 122.2(3) 4_455 6 ?
O1 Zn3 O11 99.5(3) . . ?
O12 Zn3 O11 89.5(3) 4_455 . ?
O9 Zn3 O11 96.8(3) 6 . ?
O1 Zn3 O10 87.5(3) . 3 ?
O12 Zn3 O10 81.5(3) 4_455 3 ?
O9 Zn3 O10 86.6(3) 6 3 ?
O11 Zn3 O10 170.8(3) . 3 ?
O1 Zn3 Zn6 38.21(19) . . ?
O12 Zn3 Zn6 9