
#######################################################################
#
#                 Cambridge Crystallographic Data Centre
#                                CCDC
#
#######################################################################
#
# If this CIF has been generated from an entry in the Cambridge
# Structural Database, then it will include bibliographic, chemical,
# crystal, experimental, refinement or atomic coordinate data resulting
# from the CCDC's data processing and validation procedures.
#
#######################################################################

data_CSD_CIF_NIYQUH
_audit_creation_date 1998-06-18
_audit_creation_method CSD-ConQuest-V1
_database_code_CSD NIYQUH
_database_code_depnum_ccdc_archive 'CCDC 122651'
_database_code_depnum_ccdc_journal 188/83
_chemical_formula_sum 'C16 H18 O2'
_chemical_formula_moiety
;
C16 H18 O2
;
_journal_coden_Cambridge 188
_journal_year 1997
_journal_page_first 1877
_journal_name_full 'J.Chem.Soc.,Perkin Trans.2 '
loop_
_publ_author_name
"F.Toda"
"K.Tanaka"
"H.Miyamoto"
"H.Koshima"
"I.Miyahara"
"K.Hirotsu"
_chemical_name_systematic
;
(+)-2,2'-Dihydroxy-4,4',6,6'-tetramethylbiphenyl
;
_chemical_name_common
;
Teaching Subset: Fundamental Chemistry, Symmetry
;
_cell_volume   1365.446
_exptl_crystal_colour 'colorless'
_exptl_crystal_density_diffrn 1.179
_exptl_crystal_description 'prismatic'
_exptl_crystal_preparation 'toluene'
_diffrn_ambient_temperature ?
_diffrn_special_details
;
The study was carried out at room temperature,in the range 283-303K

;
#These two values have been output from a single CSD field.
_refine_ls_R_factor_gt 0.0415
_refine_ls_wR_factor_gt 0.0415
loop_
_citation_database_id_CSD
_citation_special_details
NIYRAO "is a stereoisomer of this entry"
_symmetry_cell_setting orthorhombic
_symmetry_space_group_name_H-M 'P 21 21 21'
_symmetry_Int_Tables_number 19
loop_
_symmetry_equiv_pos_site_id
_symmetry_equiv_pos_as_xyz
1 x,y,z
2 1/2-x,-y,1/2+z
3 1/2+x,1/2-y,-z
4 -x,1/2+y,1/2-z
_cell_length_a 8.905(1)
_cell_length_b 20.546(2)
_cell_length_c 7.463(1)
_cell_angle_alpha 90
_cell_angle_beta 90
_cell_angle_gamma 90
_cell_formula_units_Z 4
loop_
_atom_type_symbol
_atom_type_radius_bond
C 0.68
H 0.23
O 0.68
loop_
_atom_site_label
_atom_site_type_symbol
_atom_site_fract_x
_atom_site_fract_y
_atom_site_fract_z
O1 O 0.7163(2) 0.5062(1) 0.6938(4)
O2 O 0.9690(3) 0.3965(2) 1.0170(4)
C1 C 0.6927(4) 0.3992(2) 0.8256(5)
C2 C 0.6418(3) 0.4626(2) 0.8034(5)
C3 C 0.5162(4) 0.4855(2) 0.8922(5)
C4 C 0.4380(4) 0.4452(2) 1.0080(5)
C5 C 0.4860(4) 0.3812(2) 1.0265(5)
C6 C 0.6109(4) 0.3574(2) 0.9365(5)
C7 C 0.6578(5) 0.2875(2) 0.9600(7)
C8 C 0.8359(4) 0.3783(1) 0.7390(4)
C9 C 0.8443(4) 0.3581(2) 0.5591(5)
C10 C 0.9823(5) 0.3399(2) 0.4889(6)
C11 C 1.1119(4) 0.3415(2) 0.5875(6)
C12 C 1.1046(4) 0.3608(2) 0.7662(5)
C13 C 0.9677(4) 0.3784(2) 0.8392(5)
C14 C 0.7031(5) 0.3556(2) 0.4466(6)
C15 C 0.3064(5) 0.4699(2) 1.1129(6)
C16 C 1.2631(5) 0.3250(2) 0.5070(8)
H1 H 0.70810 0.32010 0.36560
H2 H 0.73730 0.28470 1.03940
H3 H 0.57310 0.26310 1.00350
H4 H 0.48160 0.52890 0.87140
H5 H 0.43030 0.35310 1.10580
H6 H 0.68480 0.27020 0.84520
H7 H 0.69100 0.39490 0.38380
H8 H 0.61820 0.34920 0.52460
H9 H 1.20090 0.36090 0.86270
H10 H 0.98590 0.32380 0.34170
H11 H 0.81690 0.48550 0.65620
H12 H 0.87100 0.42250 1.03570
H13 H 0.33770 0.50310 1.19780
H14 H 0.23260 0.48970 1.03620
H15 H 0.25900 0.43610 1.17930
H16 H 1.31410 0.29280 0.57990
H17 H 1.25300 0.30760 0.38960
H18 H 1.32640 0.36260 0.50210
#END
