
#######################################################################
#
#                 Cambridge Crystallographic Data Centre
#                                CCDC
#
#######################################################################
#
# If this CIF has been generated from an entry in the Cambridge
# Structural Database, then it will include bibliographic, chemical,
# crystal, experimental, refinement or atomic coordinate data resulting
# from the CCDC's data processing and validation procedures.
#
#######################################################################

data_CSD_CIF_NIYRAO
_audit_creation_date 1998-06-18
_audit_creation_method CSD-ConQuest-V1
_database_code_CSD NIYRAO
_database_code_depnum_ccdc_archive 'CCDC 122652'
_database_code_depnum_ccdc_journal 188/83
_chemical_formula_sum 'C16 H18 O2'
_chemical_formula_moiety
;
C16 H18 O2
;
_journal_coden_Cambridge 188
_journal_year 1997
_journal_page_first 1877
_journal_name_full 'J.Chem.Soc.,Perkin Trans.2 '
loop_
_publ_author_name
"F.Toda"
"K.Tanaka"
"H.Miyamoto"
"H.Koshima"
"I.Miyahara"
"K.Hirotsu"
_chemical_name_systematic
;
(+-)-2,2'-Dihydroxy-4,4',6,6'-tetramethylbiphenyl
;
_chemical_name_common
;
Teaching Subset: Fundamental Chemistry
;
_cell_volume   1361.431
_exptl_crystal_colour 'colorless'
_exptl_crystal_density_diffrn 1.182
_exptl_crystal_description 'prismatic'
_exptl_crystal_preparation 'toluene'
_diffrn_ambient_temperature ?
_diffrn_special_details
;
The study was carried out at room temperature,in the range 283-303K

;
#These two values have been output from a single CSD field.
_refine_ls_R_factor_gt 0.0468
_refine_ls_wR_factor_gt 0.0468
loop_
_citation_database_id_CSD
_citation_special_details
NIYQUH "is a stereoisomer of this entry"
_symmetry_cell_setting monoclinic
_symmetry_space_group_name_H-M 'P 21/c'
_symmetry_Int_Tables_number 14
loop_
_symmetry_equiv_pos_site_id
_symmetry_equiv_pos_as_xyz
1 x,y,z
2 -x,1/2+y,1/2-z
3 -x,-y,-z
4 x,-1/2-y,-1/2+z
_cell_length_a 11.181(3)
_cell_length_b 7.652(3)
_cell_length_c 16.590(2)
_cell_angle_alpha 90
_cell_angle_beta 106.43(1)
_cell_angle_gamma 90
_cell_formula_units_Z 4
loop_
_atom_type_symbol
_atom_type_radius_bond
C 0.68
H 0.23
O 0.68
loop_
_atom_site_label
_atom_site_type_symbol
_atom_site_fract_x
_atom_site_fract_y
_atom_site_fract_z
O1 O 0.5259(1) 0.0950(2) 0.26337(10)
O2 O 0.2824(2) -0.2130(3) 0.1171(1)
C1 C 0.3345(2) -0.0344(3) 0.2756(1)
C2 C 0.4629(2) -0.0086(3) 0.3061(1)
C3 C 0.5333(2) -0.0836(3) 0.3801(1)
C4 C 0.4760(2) -0.1868(3) 0.4270(1)
C5 C 0.3481(2) -0.2127(3) 0.3979(1)
C6 C 0.2769(2) -0.1398(3) 0.3232(1)
C7 C 0.5519(2) -0.2654(3) 0.5093(1)
C8 C 0.1381(2) -0.1708(4) 0.2931(2)
C9 C 0.2632(2) 0.0481(3) 0.1946(1)
C10 C 0.2417(2) -0.0449(3) 0.1197(1)
C11 C 0.1769(2) 0.0286(4) 0.0437(1)
C12 C 0.1318(2) 0.1967(4) 0.0403(2)
C13 C 0.1521(2) 0.2910(3) 0.1147(2)
C14 C 0.2167(2) 0.2186(3) 0.1916(1)
C15 C 0.0653(3) 0.2779(5) -0.0440(2)
C16 C 0.2366(3) 0.3247(4) 0.2707(2)
H1 H 0.46790 0.15570 0.21570
H2 H 0.34000 -0.25120 0.17600
H3 H 0.62600 -0.05440 0.40090
H4 H 0.30610 -0.29370 0.43760
H5 H 0.60100 -0.36080 0.50300
H6 H 0.49550 -0.30400 0.54560
H7 H 0.61250 -0.17350 0.54650
H8 H 0.16310 -0.04460 -0.00970
H9 H 0.11350 0.43220 0.11450
H10 H 0.11160 -0.24690 0.33690
H11 H 0.10720 -0.22530 0.23880
H12 H 0.09360 -0.06160 0.28600
H13 H 0.10500 0.41270 -0.04420
H14 H -0.00430 0.33380 -0.04020
H15 H 0.07740 0.20810 -0.09210
H16 H 0.19610 0.44610 0.25810
H17 H 0.33920 0.33790 0.29770
H18 H 0.21030 0.24490 0.32110
#END
