####################################################################### 
# 
# This file contains crystal structure data downloaded from the 
# Cambridge Structural Database (CSD) hosted by the Cambridge 
# Crystallographic Data Centre (CCDC).
# 
# Full information about CCDC data access policies and citation 
# guidelines are available at http://www.ccdc.cam.ac.uk/access/V1 
# 
# Audit and citation data items may have been added by the CCDC. 
# Please retain this information to preserve the provenance of 
# this file and to allow appropriate attribution of the data. 
# 
#######################################################################

data_1_hex
_audit_block_doi                 10.5517/ccq5w1s
_database_code_depnum_ccdc_archive 'CCDC 661045'
loop_
_citation_id
_citation_doi
_citation_year
1 10.1021/ja7111564 2008
_audit_update_record             
;
2007-09-14 deposited with the CCDC.	2024-07-11 downloaded from the CCDC.
;
_audit_creation_method           SHELXL-97
_chemical_name_systematic        
;
?
;
_chemical_name_common            ?
_chemical_melting_point          ?
_chemical_formula_moiety         ?
_chemical_formula_sum            'C64.20 H47 I6 N13 O0.70 Zn3'
_chemical_formula_weight         1969.26

loop_
_atom_type_symbol
_atom_type_description
_atom_type_scat_dispersion_real
_atom_type_scat_dispersion_imag
_atom_type_scat_source
C C 0.0033 0.0016 'International Tables Vol C Tables 4.2.6.8 and 6.1.1.4'
H H 0.0000 0.0000 'International Tables Vol C Tables 4.2.6.8 and 6.1.1.4'
N N 0.0061 0.0033 'International Tables Vol C Tables 4.2.6.8 and 6.1.1.4'
O O 0.0106 0.0060 'International Tables Vol C Tables 4.2.6.8 and 6.1.1.4'
Zn Zn 0.2839 1.4301 'International Tables Vol C Tables 4.2.6.8 and 6.1.1.4'
I I -0.4742 1.8119 'International Tables Vol C Tables 4.2.6.8 and 6.1.1.4'

_symmetry_cell_setting           Orthorhombic
_symmetry_space_group_name_H-M   Pbca

loop_
_symmetry_equiv_pos_as_xyz
'x, y, z'
'-x+1/2, -y, z+1/2'
'-x, y+1/2, -z+1/2'
'x+1/2, -y+1/2, -z'
'-x, -y, -z'
'x-1/2, y, -z-1/2'
'x, -y-1/2, z-1/2'
'-x-1/2, y-1/2, z'

_cell_length_a                   28.40(1)
_cell_length_b                   13.872(6)
_cell_length_c                   44.18(2)
_cell_angle_alpha                90.00
_cell_angle_beta                 90.00
_cell_angle_gamma                90.00
_cell_volume                     17405(13)
_cell_formula_units_Z            8
_cell_measurement_temperature    80(2)
_cell_measurement_reflns_used    9108
_cell_measurement_theta_min      2.333
_cell_measurement_theta_max      25.129

_exptl_crystal_description       needle
_exptl_crystal_colour            yellow
_exptl_crystal_size_max          0.12
_exptl_crystal_size_mid          0.06
_exptl_crystal_size_min          0.06
_exptl_crystal_density_meas      ?
_exptl_crystal_density_diffrn    1.503
_exptl_crystal_density_method    'not measured'
_exptl_crystal_F_000             7494
_exptl_absorpt_coefficient_mu    2.988
_exptl_absorpt_correction_type   empirical
_exptl_absorpt_correction_T_min  0.7157
_exptl_absorpt_correction_T_max  0.8411
_exptl_absorpt_process_details   SADABS

_exptl_special_details           
;
?
;

_diffrn_ambient_temperature      80(2)
_diffrn_radiation_wavelength     0.71073
_diffrn_radiation_type           MoK\a
_diffrn_radiation_source         'fine-focus rotating anode'
_diffrn_radiation_monochromator  'focusing mirror'
_diffrn_measurement_device_type  'Bruker SMART CCD area detector system'
_diffrn_measurement_method       omega_scan
_diffrn_detector_area_resol_mean ?
_diffrn_standards_number         ?
_diffrn_standards_interval_count ?
_diffrn_standards_interval_time  ?
_diffrn_standards_decay_%        ?
_diffrn_reflns_number            147657
_diffrn_reflns_av_R_equivalents  0.0610
_diffrn_reflns_av_sigmaI/netI    0.0439
_diffrn_reflns_limit_h_min       -38
_diffrn_reflns_limit_h_max       36
_diffrn_reflns_limit_k_min       -18
_diffrn_reflns_limit_k_max       18
_diffrn_reflns_limit_l_min       -58
_diffrn_reflns_limit_l_max       58
_diffrn_reflns_theta_min         1.70
_diffrn_reflns_theta_max         29.02
_reflns_number_total             21965
_reflns_number_gt                15325
_reflns_threshold_expression     >2sigma(I)

_computing_data_collection       'Bruker SMART'
_computing_cell_refinement       'Bruker SMART'
_computing_data_reduction        'Bruker SHELXTL'
_computing_structure_solution    'SHELXS-97 (Sheldrick, 1990)'
_computing_structure_refinement  'SHELXL-97 (Sheldrick, 1997)'
_computing_molecular_graphics    'Bruker XSHELL'
_computing_publication_material  'Bruker SHELXTL'

_refine_special_details          
;
Refinement of F^2^ against ALL reflections. The weighted R-factor wR and
goodness of fit S are based on F^2^, conventional R-factors R are based
on F, with F set to zero for negative F^2^. The threshold expression of
F^2^ > 2sigma(F^2^) is used only for calculating R-factors(gt) etc. and is
not relevant to the choice of reflections for refinement. R-factors based
on F^2^ are statistically about twice as large as those based on F, and R-
factors based on ALL data will be even larger.
The occupancy factors of the disordered molecules converged as follows:
1-imine, 50%(C101 to C126) and 50%(C201 to C226); hexanal, 70%(O1A to C7A).
Several restraints and constraints were applied to disordered hexanal
molecules (O1A to C7A) and triphenylene moleucles (C101 to C126 and
C201 to C226) on a basis of chemical symmetry of the molecules.
;

_refine_ls_structure_factor_coef Fsqd
_refine_ls_matrix_type           full
_refine_ls_weighting_scheme      calc
_refine_ls_weighting_details     
'calc w=1/[\s^2^(Fo^2^)+(0.0921P)^2^+68.4565P] where P=(Fo^2^+2Fc^2^)/3'
_atom_sites_solution_primary     direct
_atom_sites_solution_secondary   difmap
_atom_sites_solution_hydrogens   geom
_refine_ls_hydrogen_treatment    constr
_refine_ls_extinction_method     none
_refine_ls_extinction_coef       ?
_refine_ls_number_reflns         21965
_refine_ls_number_parameters     994
_refine_ls_number_restraints     970
_refine_ls_R_factor_all          0.0915
_refine_ls_R_factor_gt           0.0573
_refine_ls_wR_factor_ref         0.1896
_refine_ls_wR_factor_gt          0.1679
_refine_ls_goodness_of_fit_ref   1.110
_refine_ls_restrained_S_all      1.100
_refine_ls_shift/su_max          0.012
_refine_ls_shift/su_mean         0.000

loop_
_atom_site_label
_atom_site_type_symbol
_atom_site_fract_x
_atom_site_fract_y
_atom_site_fract_z
_atom_site_U_iso_or_equiv
_atom_site_adp_type
_atom_site_occupancy
_atom_site_symmetry_multiplicity
_atom_site_calc_flag
_atom_site_refinement_flags
_atom_site_disorder_assembly
_atom_site_disorder_group
I1 I 1.06774(2) -0.19905(4) 0.873493(15) 0.05929(17) Uani 1 1 d . . .
I2 I 1.002972(17) -0.19328(3) 0.965145(12) 0.04618(13) Uani 1 1 d . . .
I3 I 0.558071(18) -0.31963(3) 0.917152(14) 0.05084(15) Uani 1 1 d . . .
I4 I 0.487981(16) -0.05184(4) 0.883005(12) 0.04784(14) Uani 1 1 d . . .
I5 I 0.694875(18) -0.34287(3) 1.186498(12) 0.04383(13) Uani 1 1 d . . .
I6 I 0.822753(18) -0.17921(4) 1.165447(13) 0.05272(15) Uani 1 1 d . . .
Zn1 Zn 1.01995(2) -0.11592(5) 0.913883(18) 0.03209(17) Uani 1 1 d . . .
Zn2 Zn 0.55070(3) -0.13849(5) 0.913178(17) 0.03168(17) Uani 1 1 d . . .
Zn3 Zn 0.73643(3) -0.18164(5) 1.180279(17) 0.03073(16) Uani 1 1 d . . .
C1 C 0.9539(2) -0.0646(5) 0.86484(16) 0.0383(15) Uani 1 1 d . . .
H1 H 0.9824 -0.0606 0.8537 0.046 Uiso 1 1 calc R . .
C2 C 0.9118(2) -0.0506(5) 0.84954(16) 0.0364(14) Uani 1 1 d . . .
H2 H 0.9117 -0.0376 0.8284 0.044 Uiso 1 1 calc R . .
C3 C 0.8703(2) -0.0557(4) 0.86537(14) 0.0286(12) Uani 1 1 d . . .
C4 C 0.8728(2) -0.0733(5) 0.89598(15) 0.0334(14) Uani 1 1 d . . .
H4 H 0.8448 -0.0765 0.9077 0.040 Uiso 1 1 calc R . .
C5 C 0.9162(2) -0.0863(5) 0.90956(15) 0.0357(14) Uani 1 1 d . . .
H5 H 0.9173 -0.0976 0.9308 0.043 Uiso 1 1 calc R . .
C6 C 0.8241(2) -0.0429(4) 0.85005(14) 0.0260(12) Uani 1 1 d . . .
C7 C 0.7828(2) -0.0045(4) 0.80886(14) 0.0278(12) Uani 1 1 d . . .
C8 C 0.7455(2) -0.0434(4) 0.85183(13) 0.0233(11) Uani 1 1 d . . .
C9 C 0.8128(2) 0.1078(6) 0.73419(17) 0.0443(18) Uani 1 1 d . . .
H9 H 0.8391 0.1358 0.7243 0.053 Uiso 1 1 calc R . .
C10 C 0.8190(2) 0.0690(6) 0.76321(16) 0.0399(16) Uani 1 1 d . . .
H10 H 0.8489 0.0694 0.7728 0.048 Uiso 1 1 calc R . .
C11 C 0.7800(2) 0.0302(4) 0.77736(14) 0.0271(12) Uani 1 1 d . . .
C12 C 0.7370(2) 0.0283(4) 0.76218(15) 0.0323(13) Uani 1 1 d . . .
H12 H 0.7099 0.0014 0.7716 0.039 Uiso 1 1 calc R . .
C13 C 0.7342(2) 0.0662(4) 0.73332(15) 0.0321(13) Uani 1 1 d . . .
H13 H 0.7051 0.0631 0.7228 0.038 Uiso 1 1 calc R . .
C14 C 0.6164(2) -0.0583(5) 0.86796(15) 0.0337(14) Uani 1 1 d . . .
H14 H 0.5877 -0.0451 0.8577 0.040 Uiso 1 1 calc R . .
C15 C 0.6584(2) -0.0408(4) 0.85316(15) 0.0309(13) Uani 1 1 d . . .
H15 H 0.6584 -0.0168 0.8330 0.037 Uiso 1 1 calc R . .
C16 C 0.7002(2) -0.0584(4) 0.86788(13) 0.0254(12) Uani 1 1 d . . .
C17 C 0.6990(2) -0.0898(5) 0.89747(14) 0.0317(13) Uani 1 1 d . . .
H17 H 0.7272 -0.1000 0.9085 0.038 Uiso 1 1 calc R . .
C18 C 0.6553(2) -0.1063(5) 0.91076(15) 0.0338(14) Uani 1 1 d . . .
H18 H 0.6542 -0.1280 0.9311 0.041 Uiso 1 1 calc R . .
C19 C 0.5689(3) -0.1302(5) 0.97973(16) 0.0390(15) Uani 1 1 d . . .
H19 H 0.5732 -0.1978 0.9777 0.047 Uiso 1 1 calc R . .
C20 C 0.5788(3) -0.0894(5) 1.00701(16) 0.0395(15) Uani 1 1 d . . .
H20 H 0.5890 -0.1280 1.0235 0.047 Uiso 1 1 calc R . .
C21 C 0.5736(2) 0.0092(4) 1.01034(14) 0.0281(12) Uani 1 1 d . . .
C22 C 0.5559(2) 0.0614(5) 0.98621(15) 0.0340(14) Uani 1 1 d . . .
H22 H 0.5507 0.1289 0.9879 0.041 Uiso 1 1 calc R . .
C23 C 0.5457(2) 0.0135(5) 0.95970(15) 0.0328(13) Uani 1 1 d . . .
H23 H 0.5325 0.0490 0.9434 0.039 Uiso 1 1 calc R . .
C24 C 0.5880(2) 0.0599(5) 1.03825(14) 0.0307(13) Uani 1 1 d . . .
C25 C 0.6255(2) 0.0589(4) 1.08283(14) 0.0293(12) Uani 1 1 d . . .
C26 C 0.5935(2) 0.1954(4) 1.06528(15) 0.0297(13) Uani 1 1 d . . .
C27 C 0.6725(3) -0.1433(5) 1.12956(17) 0.0427(17) Uani 1 1 d . . .
H27 H 0.6707 -0.2117 1.1298 0.051 Uiso 1 1 calc R . .
C28 C 0.6486(3) -0.0943(5) 1.10737(18) 0.0467(19) Uani 1 1 d . . .
H28 H 0.6309 -0.1279 1.0925 0.056 Uiso 1 1 calc R . .
C29 C 0.6510(2) 0.0046(4) 1.10713(14) 0.0305(13) Uani 1 1 d . . .
C30 C 0.6757(3) 0.0512(5) 1.12924(15) 0.0384(15) Uani 1 1 d . . .
H30 H 0.6768 0.1196 1.1301 0.046 Uiso 1 1 calc R . .
C31 C 0.6988(3) -0.0045(5) 1.15007(16) 0.0400(16) Uani 1 1 d . . .
H31 H 0.7168 0.0273 1.1652 0.048 Uiso 1 1 calc R . .
C32 C 0.5466(2) 0.4406(5) 1.05121(15) 0.0342(14) Uani 1 1 d . . .
H32 H 0.5332 0.4756 1.0349 0.041 Uiso 1 1 calc R . .
C33 C 0.5609(2) 0.3493(5) 1.04615(15) 0.0347(14) Uani 1 1 d . . .
H33 H 0.5576 0.3212 1.0266 0.042 Uiso 1 1 calc R . .
C34 C 0.5803(2) 0.2971(4) 1.06975(14) 0.0300(13) Uani 1 1 d . . .
C35 C 0.5855(3) 0.3417(5) 1.09724(16) 0.0382(15) Uani 1 1 d . . .
H35 H 0.5993 0.3083 1.1138 0.046 Uiso 1 1 calc R . .
C36 C 0.5706(2) 0.4346(5) 1.10059(16) 0.0385(15) Uani 1 1 d . . .
H36 H 0.5747 0.4653 1.1196 0.046 Uiso 1 1 calc R . .
N1 N 0.95645(18) -0.0835(4) 0.89420(12) 0.0299(11) Uani 1 1 d . . .
N2 N 0.82525(17) -0.0166(4) 0.82107(11) 0.0282(10) Uani 1 1 d . . .
N3 N 0.78583(17) -0.0573(4) 0.86667(11) 0.0276(10) Uani 1 1 d . . .
N4 N 0.74211(17) -0.0170(3) 0.82297(11) 0.0257(10) Uani 1 1 d . . .
N5 N 0.77135(19) 0.1071(4) 0.71982(11) 0.0303(11) Uani 1 1 d . . .
N6 N 0.61458(17) -0.0928(4) 0.89602(12) 0.0278(10) Uani 1 1 d . . .
N7 N 0.55367(18) -0.0813(4) 0.95590(12) 0.0302(11) Uani 1 1 d . . .
N8 N 0.61109(17) 0.0084(4) 1.05901(12) 0.0291(11) Uani 1 1 d . . .
N9 N 0.57728(18) 0.1525(4) 1.04056(12) 0.0305(11) Uani 1 1 d . . .
N10 N 0.61914(18) 0.1528(4) 1.08713(12) 0.0289(11) Uani 1 1 d . . .
N11 N 0.69767(19) -0.1002(4) 1.15040(12) 0.0311(11) Uani 1 1 d . . .
N12 N 0.55028(17) 0.4842(4) 1.07809(12) 0.0309(11) Uani 1 1 d . . .
C101 C 0.6494(6) 0.2088(8) 0.8459(4) 0.054(4) Uani 0.50 1 d PDU A 1
C102 C 0.6003(6) 0.2036(10) 0.8507(4) 0.064(5) Uani 0.50 1 d PDU A 1
C103 C 0.5818(7) 0.1801(11) 0.8785(4) 0.061(5) Uani 0.50 1 d PDU A 1
H103 H 0.5488 0.1713 0.8809 0.073 Uiso 0.50 1 calc PR A 1
C104 C 0.6119(8) 0.169(3) 0.9032(5) 0.077(6) Uani 0.50 1 d PDU A 1
H104 H 0.5992 0.1591 0.9228 0.092 Uiso 0.50 1 calc PR A 1
C105 C 0.6604(8) 0.174(3) 0.8994(5) 0.073(6) Uani 0.50 1 d PDU A 1
H105 H 0.6807 0.1636 0.9161 0.087 Uiso 0.50 1 calc PR A 1
C106 C 0.6791(6) 0.193(3) 0.8708(5) 0.056(4) Uani 0.50 1 d PDU A 1
C107 C 0.7287(6) 0.193(3) 0.8680(5) 0.059(4) Uani 0.50 1 d PDU A 1
C108 C 0.7590(8) 0.170(2) 0.8927(5) 0.069(5) Uani 0.50 1 d PDU A 1
H108 H 0.7458 0.1546 0.9118 0.083 Uiso 0.50 1 calc PR A 1
C109 C 0.8072(8) 0.171(2) 0.8892(6) 0.077(5) Uani 0.50 1 d PDU A 1
H109 H 0.8270 0.1529 0.9056 0.092 Uiso 0.50 1 calc PR A 1
C110 C 0.8269(7) 0.197(3) 0.8615(6) 0.085(6) Uani 0.50 1 d PDU A 1
H110 H 0.8601 0.2020 0.8593 0.102 Uiso 0.50 1 calc PR A 1
C111 C 0.7978(7) 0.217(2) 0.8373(6) 0.081(6) Uani 0.50 1 d PDU A 1
H111 H 0.8114 0.2303 0.8181 0.097 Uiso 0.50 1 calc PR A 1
C112 C 0.7490(6) 0.218(3) 0.8403(5) 0.058(4) Uani 0.50 1 d PDU A 1
C113 C 0.7196(7) 0.239(2) 0.8149(5) 0.052(4) Uani 0.50 1 d PDU A 1
C114 C 0.7389(7) 0.271(2) 0.7873(5) 0.063(5) Uani 0.50 1 d PDU A 1
H114 H 0.7718 0.2817 0.7860 0.076 Uiso 0.50 1 calc PR A 1
C115 C 0.7113(8) 0.2865(17) 0.7622(5) 0.064(6) Uani 0.50 1 d PDU A 1
H115 H 0.7252 0.3041 0.7434 0.077 Uiso 0.50 1 calc PR A 1
C116 C 0.6624(8) 0.276(2) 0.7646(5) 0.080(7) Uani 0.50 1 d PDU A 1
H116 H 0.6428 0.2891 0.7477 0.095 Uiso 0.50 1 calc PR A 1
C117 C 0.6431(7) 0.248(3) 0.7914(6) 0.073(5) Uani 0.50 1 d PDU A 1
H117 H 0.6100 0.2387 0.7927 0.087 Uiso 0.50 1 calc PR A 1
C118 C 0.6711(7) 0.231(3) 0.8174(5) 0.058(4) Uani 0.50 1 d PDU A 1
N101 N 0.5689(7) 0.212(2) 0.8252(5) 0.142(8) Uani 0.50 1 d PDU A 1
C121 C 0.5276(9) 0.174(3) 0.8214(8) 0.171(12) Uani 0.50 1 d PDU A 1
H121 H 0.5170 0.1370 0.8381 0.206 Uiso 0.50 1 calc PR A 1
C122 C 0.4938(9) 0.178(3) 0.7958(6) 0.197(13) Uani 0.50 1 d PDU A 1
H12A H 0.4912 0.2474 0.7902 0.236 Uiso 0.50 1 calc PR A 1
H12B H 0.5097 0.1462 0.7786 0.236 Uiso 0.50 1 calc PR A 1
C123 C 0.4460(9) 0.141(3) 0.7962(8) 0.203(13) Uani 0.50 1 d PDU A 1
H12C H 0.4364 0.1340 0.7748 0.243 Uiso 0.50 1 calc PR A 1
H12D H 0.4261 0.1931 0.8048 0.243 Uiso 0.50 1 calc PR A 1
C124 C 0.4319(13) 0.052(3) 0.8115(8) 0.250(16) Uani 0.50 1 d PDU A 1
H12E H 0.4610 0.0254 0.8205 0.300 Uiso 0.50 1 calc PR A 1
H12F H 0.4117 0.0724 0.8286 0.300 Uiso 0.50 1 calc PR A 1
C125 C 0.4082(14) -0.028(3) 0.7975(10) 0.251(17) Uani 0.50 1 d PDU A 1
H12G H 0.4016 -0.0069 0.7765 0.302 Uiso 0.50 1 calc PR A 1
H12H H 0.3772 -0.0320 0.8077 0.302 Uiso 0.50 1 calc PR A 1
C126 C 0.4251(18) -0.125(3) 0.7952(13) 0.27(2) Uani 0.50 1 d PDU A 1
H12I H 0.4012 -0.1652 0.7853 0.398 Uiso 0.50 1 calc PR A 1
H12J H 0.4314 -0.1504 0.8155 0.398 Uiso 0.50 1 calc PR A 1
H12K H 0.4541 -0.1263 0.7833 0.398 Uiso 0.50 1 calc PR A 1
C201 C 0.7522(6) 0.216(3) 0.8451(5) 0.060(4) Uani 0.50 1 d PDU B 2
C202 C 0.8013(7) 0.212(2) 0.8449(5) 0.081(5) Uani 0.50 1 d PDU B 2
C203 C 0.8252(8) 0.184(2) 0.8708(6) 0.095(6) Uani 0.50 1 d PDU B 2
H203 H 0.8585 0.1783 0.8704 0.114 Uiso 0.50 1 calc PR B 2
C204 C 0.8007(9) 0.165(3) 0.8972(6) 0.095(7) Uani 0.50 1 d PDU B 2
H204 H 0.8176 0.1493 0.9151 0.114 Uiso 0.50 1 calc PR B 2
C205 C 0.7521(9) 0.169(3) 0.8980(5) 0.085(6) Uani 0.50 1 d PDU B 2
H205 H 0.7356 0.1556 0.9162 0.103 Uiso 0.50 1 calc PR B 2
C206 C 0.7271(6) 0.194(3) 0.8712(5) 0.056(4) Uani 0.50 1 d PDU B 2
C207 C 0.6770(6) 0.195(3) 0.8702(5) 0.054(4) Uani 0.50 1 d PDU B 2
C208 C 0.6502(9) 0.181(2) 0.8969(5) 0.070(5) Uani 0.50 1 d PDU B 2
H208 H 0.6657 0.1759 0.9159 0.084 Uiso 0.50 1 calc PR B 2
C209 C 0.6018(9) 0.176(3) 0.8953(6) 0.087(6) Uani 0.50 1 d PDU B 2
H209 H 0.5842 0.1672 0.9133 0.104 Uiso 0.50 1 calc PR B 2
C210 C 0.5786(8) 0.185(2) 0.8681(6) 0.088(7) Uani 0.50 1 d PDU B 2
H210 H 0.5452 0.1821 0.8674 0.105 Uiso 0.50 1 calc PR B 2
C211 C 0.6044(7) 0.1970(18) 0.8416(5) 0.075(5) Uani 0.50 1 d PDU B 2
H211 H 0.5887 0.1983 0.8226 0.090 Uiso 0.50 1 calc PR B 2
C212 C 0.6537(6) 0.2076(14) 0.8427(5) 0.054(4) Uani 0.50 1 d PDU B 2
C213 C 0.6802(7) 0.230(3) 0.8159(4) 0.055(4) Uani 0.50 1 d PDU B 2
C214 C 0.6572(7) 0.252(2) 0.7882(6) 0.074(5) Uani 0.50 1 d PDU B 2
H214 H 0.6240 0.2462 0.7870 0.088 Uiso 0.50 1 calc PR B 2
C215 C 0.6821(9) 0.280(2) 0.7632(5) 0.082(7) Uani 0.50 1 d PDU B 2
H215 H 0.6662 0.2940 0.7448 0.099 Uiso 0.50 1 calc PR B 2
C216 C 0.7309(9) 0.287(2) 0.7649(6) 0.083(7) Uani 0.50 1 d PDU B 2
H216 H 0.7483 0.3081 0.7478 0.100 Uiso 0.50 1 calc PR B 2
C217 C 0.7544(8) 0.264(2) 0.7915(6) 0.081(6) Uani 0.50 1 d PDU B 2
H217 H 0.7878 0.2649 0.7921 0.097 Uiso 0.50 1 calc PR B 2
C218 C 0.7289(7) 0.238(3) 0.8177(5) 0.057(4) Uani 0.50 1 d PDU B 2
N201 N 0.8263(9) 0.230(2) 0.8174(6) 0.183(9) Uani 0.50 1 d PDU B 2
C221 C 0.8191(15) 0.309(3) 0.8033(9) 0.269(15) Uani 0.50 1 d PDU B 2
H221 H 0.7973 0.3543 0.8113 0.323 Uiso 0.50 1 calc PR B 2
C222 C 0.8439(17) 0.332(3) 0.7746(7) 0.267(16) Uani 0.50 1 d PDU B 2
H22A H 0.8500 0.2701 0.7643 0.321 Uiso 0.50 1 calc PR B 2
H22B H 0.8214 0.3681 0.7618 0.321 Uiso 0.50 1 calc PR B 2
C223 C 0.8879(12) 0.386(3) 0.7742(9) 0.246(16) Uani 0.50 1 d PDU B 2
H22C H 0.9114 0.3453 0.7635 0.295 Uiso 0.50 1 calc PR B 2
H22D H 0.8986 0.3918 0.7954 0.295 Uiso 0.50 1 calc PR B 2
C224 C 0.8899(14) 0.485(3) 0.7603(10) 0.226(15) Uani 0.50 1 d PDU B 2
H22E H 0.8573 0.5096 0.7589 0.272 Uiso 0.50 1 calc PR B 2
H22F H 0.9073 0.5273 0.7743 0.272 Uiso 0.50 1 calc PR B 2
C225 C 0.9114(16) 0.493(3) 0.7304(8) 0.209(15) Uani 0.50 1 d PDU B 2
H22G H 0.9354 0.4416 0.7293 0.251 Uiso 0.50 1 calc PR B 2
H22H H 0.8865 0.4753 0.7157 0.251 Uiso 0.50 1 calc PR B 2
C226 C 0.9338(14) 0.578(3) 0.7180(9) 0.23(2) Uani 0.50 1 d PDU B 2
H22I H 0.9437 0.5657 0.6971 0.340 Uiso 0.50 1 calc PR B 2
H22J H 0.9614 0.5951 0.7303 0.340 Uiso 0.50 1 calc PR B 2
H22K H 0.9114 0.6323 0.7182 0.340 Uiso 0.50 1 calc PR B 2
O1A O 0.6436(13) 0.639(2) 0.9982(9) 0.335(19) Uiso 0.70 1 d PDU . .
C2A C 0.6213(11) 0.544(3) 0.9899(11) 0.252(18) Uiso 0.70 1 d PDU . .
C3A C 0.6555(13) 0.470(2) 0.9792(8) 0.225(15) Uiso 0.70 1 d PDU . .
C4A C 0.6479(13) 0.369(2) 0.9862(12) 0.29(2) Uiso 0.70 1 d PDU . .
C5A C 0.6878(13) 0.297(2) 0.9866(16) 0.34(2) Uiso 0.70 1 d PDU . .
C6