
#######################################################################
#
#                 Cambridge Crystallographic Data Centre
#                                CCDC
#
#######################################################################
#
# If this CIF has been generated from an entry in the Cambridge
# Structural Database, then it will include bibliographic, chemical,
# crystal, experimental, refinement or atomic coordinate data resulting
# from the CCDC's data processing and validation procedures.
#
#######################################################################

data_CSD_CIF_NOBHUH01
_audit_creation_date 1998-06-26
_audit_creation_method CSD-ConQuest-V1
_database_code_CSD NOBHUH01
_database_code_depnum_ccdc_archive 'CCDC 1221463'
_chemical_formula_sum 'C36 H49 In1'
_chemical_formula_moiety
;
C36 H49 In1
;
_journal_coden_Cambridge 4
_journal_volume 120
_journal_year 1998
_journal_page_first 2202
_journal_name_full 'J.Am.Chem.Soc. '
loop_
_publ_author_name
"S.T.Haubrich"
"P.P.Power"
_chemical_name_systematic
;
(2,6-bis(2,4,6-Tri-isopropylphenyl)phenyl)-indium
;
_chemical_name_common
;
Teaching Subset: Fundamental Chemistry
;
_chemical_melting_point 489
_cell_volume   3307.423
_exptl_crystal_colour 'bright orange'
_exptl_special_details
;
Melting point range 489-493K
very air-sensitive

;
_exptl_crystal_description 'parallelepiped'
_diffrn_ambient_temperature 130
_refine_special_details
;
The indium atom and H1 are disordered with occupancies of 0.814:0.186.

;
#These two values have been output from a single CSD field.
_refine_ls_R_factor_gt 0.052
_refine_ls_wR_factor_gt 0.052
loop_
_citation_database_id_CSD
_citation_special_details
NOBHUH02 "is a reinterpretation of this cif"
_symmetry_cell_setting orthorhombic
_symmetry_space_group_name_H-M 'P n a 21'
_symmetry_Int_Tables_number 33
loop_
_symmetry_equiv_pos_site_id
_symmetry_equiv_pos_as_xyz
1 x,y,z
2 -x,-y,1/2+z
3 1/2+x,1/2-y,z
4 1/2-x,1/2+y,1/2+z
_cell_length_a 7.944(2)
_cell_length_b 16.238(3)
_cell_length_c 25.640(5)
_cell_angle_alpha 90
_cell_angle_beta 90
_cell_angle_gamma 90
_cell_formula_units_Z 4
loop_
_atom_type_symbol
_atom_type_radius_bond
C 0.68
H 0.23
In 1.63
loop_
_atom_site_label
_atom_site_type_symbol
_atom_site_fract_x
_atom_site_fract_y
_atom_site_fract_z
In1 In 0.28032(7) 0.92334(3) 0.3313(2)
C1 C 0.0659(6) 1.0144(3) 0.3318(5)
C2 C 0.0018(18) 1.0473(8) 0.2853(4)
C3 C -0.1147(18) 1.1110(8) 0.2837(5)
H1 H -0.1512(18) 1.1340(8) 0.2516(5)
C4 C -0.1755(6) 1.1396(3) 0.3310(6)
H2 H -0.2565(6) 1.1826(3) 0.3315(6)
C5 C -0.1198(20) 1.1062(9) 0.3774(6)
H3 H -0.1664(20) 1.1258(9) 0.4092(6)
C6 C 0.0024(14) 1.0448(7) 0.3791(4)
C7 C 0.0646(16) 1.0114(7) 0.2346(4)
C8 C 0.2044(16) 1.0479(7) 0.2095(4)
C9 C 0.2708(18) 1.0143(7) 0.1639(5)
H4 H 0.3585(18) 1.0423(7) 0.1460(5)
C10 C 0.2103(17) 0.9405(7) 0.1445(4)
C11 C 0.0722(19) 0.9049(9) 0.1687(5)
H5 H 0.0213(19) 0.8580(9) 0.1531(5)
C12 C 0.0050(19) 0.9356(8) 0.2155(5)
C13 C 0.0728(15) 1.0087(7) 0.4290(4)
C14 C 0.2011(17) 1.0498(8) 0.4569(5)
C15 C 0.2667(17) 1.0083(8) 0.5001(5)
H6 H 0.3588(17) 1.0330(8) 0.5178(5)
C16 C 0.2076(22) 0.9338(9) 0.5192(6)
C17 C 0.0779(16) 0.8973(9) 0.4911(4)
H7 H 0.0385(16) 0.8447(9) 0.5017(4)
C18 C 0.0031(20) 0.9346(7) 0.4478(5)
C19 C 0.2541(16) 1.1992(9) 0.1876(6)
H8 H 0.3068(59) 1.1835(16) 0.1545(8)
H9 H 0.3076(60) 1.2493(12) 0.2009(10)
H10 H 0.1339(16) 1.2094(24) 0.1820(17)
C20 C 0.2759(16) 1.1302(8) 0.2268(5)
H11 H 0.2130(16) 1.1468(8) 0.2589(5)
C21 C 0.4604(15) 1.1252(13) 0.2416(6)
H12 H 0.4946(24) 1.1766(18) 0.2586(21)
H13 H 0.5283(17) 1.1166(39) 0.2102(7)
H14 H 0.4776(20) 1.0790(24) 0.2657(19)
C22 C 0.1578(19) 0.9054(10) 0.0493(4)
H15 H 0.0447(52) 0.8835(76) 0.0557(20)
H16 H 0.2082(92) 0.8769(69) 0.0195(13)
H17 H 0.151(14) 0.9645(11) 0.0419(31)
C23 C 0.2638(18) 0.8921(8) 0.0962(4)
H18 H 0.3609(18) 0.9277(8) 0.0857(4)
C24 C 0.3585(16) 0.8146(8) 0.1042(6)
H19 H 0.403(14) 0.7954(43) 0.0707(10)
H20 H 0.2832(44) 0.7726(25) 0.1187(48)
H21 H 0.452(10) 0.8243(20) 0.1284(40)
C25 C -0.1251(31) 0.8061(10) 0.2551(8)
H22 H -0.2214(93) 0.7872(25) 0.2758(46)
H23 H -0.022(10) 0.8001(16) 0.2756(47)
H24 H -0.116(17) 0.7730(15) 0.2233(8)
C26 C -0.1496(18) 0.8958(8) 0.2407(6)
H25 H -0.1749(18) 0.9267(8) 0.2735(6)
C27 C -0.3024(23) 0.9024(17) 0.2054(8)
H26 H -0.3178(60) 0.9599(19) 0.1948(25)
H27 H -0.4026(30) 0.8836(49) 0.2242(14)
H28 H -0.2854(52) 0.8682(43) 0.1744(18)
C28 C -0.1064(24) 0.8033(7) 0.4071(6)
H29 H -0.0116(75) 0.8020(8) 0.3827(27)
H30 H -0.2055(44) 0.7784(17) 0.3907(30)
H31 H -0.077(11) 0.7722(15) 0.4386(8)
C29 C -0.1451(16) 0.8917(8) 0.4217(4)
H32 H -0.1684(16) 0.9219(8) 0.3885(4)
C30 C -0.3030(22) 0.8973(15) 0.4547(10)
H33 H -0.2792(37) 0.8766(50) 0.4898(14)
H34 H -0.3922(41) 0.8640(46) 0.4388(21)
H35 H -0.3396(63) 0.9548(17) 0.4568(28)
C31 C 0.2621(26) 1.193(1) 0.4824(6)
H36 H 0.1542(44) 1.1868(35) 0.5005(20)
H37 H 0.272(11) 1.2492(10) 0.4689(7)
H38 H 0.3544(59) 1.1822(33) 0.5068(17)
C32 C 0.2709(20) 1.1321(7) 0.4375(5)
H39 H 0.1945(20) 1.1525(7) 0.4093(5)
C33 C 0.4443(22) 1.1212(16) 0.4140(8)
H40 H 0.4341(23) 1.0947(58) 0.3798(19)
H41 H 0.5129(46) 1.0866(57) 0.4370(21)
H42 H 0.4981(58) 1.1751(17) 0.4100(39)
C34 C 0.3629(24) 0.8215(9) 0.5594(6)
H43 H 0.445(17) 0.8086(47) 0.5869(41)
H44 H 0.419(20) 0.8202(33) 0.5254(32)
H45 H 0.2719(39) 0.7807(16) 0.560(7)
C35 C 0.2920(15) 0.9047(7) 0.5686(5)
H46 H 0.3869(15) 0.9431(7) 0.5767(5)
C36 C 0.1723(23) 0.9071(12) 0.6120(5)
H47 H 0.080(14) 0.8689(98) 0.6051(40)
H48 H 0.128(21) 0.9631(31) 0.6157(54)
H49 H 0.2295(71) 0.891(13) 0.6443(16)
H50? H 0.15170 0.97330 0.33000
#END
