####################################################################### 
# 
# This file contains crystal structure data downloaded from the 
# Cambridge Structural Database (CSD) hosted by the Cambridge 
# Crystallographic Data Centre (CCDC).
# 
# Full information about CCDC data access policies and citation 
# guidelines are available at http://www.ccdc.cam.ac.uk/access/V1 
# 
# Audit and citation data items may have been added by the CCDC. 
# Please retain this information to preserve the provenance of 
# this file and to allow appropriate attribution of the data. 
# 
#######################################################################

data_jml1
_audit_block_doi                 10.5517/cc3ctx5
_database_code_depnum_ccdc_archive 'CCDC 100747'
loop_
_citation_id
_citation_doi
_citation_year
1 10.1002/(SICI)1521-3773(19980420)37:7<920::AID-ANIE920>3.0.CO;2-O 1998
_audit_update_record             
;
1997-10-03 deposited with the CCDC.	2024-07-11 downloaded from the CCDC.
;

_audit_creation_date             97-05-30
_audit_creation_method           from_xtal_archive_file_using_CIFIO

_chemical_compound_source        ? #ActaC
_chemical_name_systematic        ? #ActaC
_chemical_name_common            ? #ActaC
_chemical_formula_analytical     'C48 H36 Ag F6 N4 P 11/4CH3CN' #ActaC
_chemical_formula_moiety         ? #ActaC
_chemical_formula_structural     ? #ActaC
_chemical_formula_sum            'C48 H36 Ag F6 N4 P. C5.5 H8.25 N2.75' #ActaC
_chemical_formula_weight         1034.57 #ActaC
_chemical_melting_point          desolvates #ActaC

_computing_data_collection       'Siemens Smart CCD' #ActaC
_computing_cell_refinement       'Siemens SAINT' #ActaC
_computing_data_reduction        'Siemens SAINT' #ActaC
_computing_structure_solution    xtal #ActaC
_computing_structure_refinement  xtal_CRYLSQ #ActaC
_computing_molecular_graphics    xtal #ActaC
_computing_publication_material  xtal_BONDLA_CIFIO #ActaC

_cell_length_a                   17.7806(9) #ActaC
_cell_length_b                   34.5293(17) #ActaC
_cell_length_c                   38.715(2) #ActaC
_cell_angle_alpha                90.00000 #ActaC
_cell_angle_beta                 91.915(5) #ActaC
_cell_angle_gamma                90.00000 #ActaC
_cell_volume                     23756(2) #ActaC
_cell_formula_units_Z            16 #ActaC
_cell_measurement_temperature    293 #ActaC
_cell_measurement_reflns_used    'all with I>10sigma(I)' #ActaC
_cell_measurement_theta_min      1.29 #ActaC
_cell_measurement_theta_max      26.31 #ActaC
_cell_special_details            #ActaC
;
?
;

_symmetry_cell_setting           monoclinic #ActaC
_symmetry_space_group_name_H-M   c_1_2/c_1 #ActaC
_symmetry_space_group_name_Hall  -c_2yc #ActaC
loop_
_symmetry_equiv_pos_as_xyz #ActaC
+x,+y,+z
-x,+y,1/2-z
-x,-y,-z
+x,-y,1/2+z
1/2+x,1/2+y,+z
1/2-x,1/2+y,1/2-z
1/2-x,1/2-y,-z
1/2+x,1/2-y,1/2+z

_exptl_crystal_description       prism #ActaC
_exptl_crystal_preparation       'see text'
_exptl_crystal_colour            colourless #ActaC
_exptl_crystal_size_max          0.12 #ActaC
_exptl_crystal_size_mid          0.10 #ActaC
_exptl_crystal_size_min          0.05 #ActaC
_exptl_crystal_density_diffrn    1.157 #ActaC
_exptl_crystal_density_meas      ? #ActaC
_exptl_crystal_density_method    ? #ActaC
_exptl_crystal_F_000             8456 #ActaC

_exptl_absorpt_process_details   'Siemens SADABS'
_exptl_absorpt_coefficient_mu    .42 #ActaC
_exptl_absorpt_correction_type   multi_scan #ActaC
_exptl_absorpt_correction_T_min  0.35 #ActaC
_exptl_absorpt_correction_T_max  0.86 #ActaC
_exptl_special_details           #ActaC
;
mounted in a capillary
;

_diffrn_special_details          
;
?
;
_diffrn_ambient_temperature      293 #ActaC
_diffrn_radiation_wavelength     .71073 #ActaC
_diffrn_radiation_type           Mo-K #ActaC
_diffrn_radiation_source         'Xray tube' #ActaC

_diffrn_radiation_monochromator  graphite #ActaC
_diffrn_radiation_detector       'CCD area detector' #ActaC
_diffrn_measurement_device       diffractometer #ActaC
_diffrn_measurement_method       'area detector' #ActaC

_diffrn_standards_number         ? #ActaC
_diffrn_standards_interval_count ? #ActaC
_diffrn_standards_interval_time  ? #ActaC
_diffrn_standards_decay_%        0 #ActaC

loop_
_diffrn_standard_refln_index_h #ActaC
_diffrn_standard_refln_index_k #ActaC
_diffrn_standard_refln_index_l #ActaC
? ? ?

loop_
_diffrn_attenuator_code
_diffrn_attenuator_scale
? ?

_diffrn_reflns_number            .276830+05 #ActaC
_diffrn_reflns_av_R_equivalents  .1 #ActaC
_diffrn_reflns_av_sigmaI/netI    .3 #ActaC
_diffrn_reflns_limit_h_min       -21 #ActaC
_diffrn_reflns_limit_h_max       18 #ActaC
_diffrn_reflns_limit_k_min       -38 #ActaC
_diffrn_reflns_limit_k_max       38 #ActaC
_diffrn_reflns_limit_l_min       -48 #ActaC
_diffrn_reflns_limit_l_max       22 #ActaC
_diffrn_reflns_theta_min         1.29 #ActaC
_diffrn_reflns_theta_max         26.31 #ActaC
_diffrn_reflns_reduction_process ? #ActaC

loop_
_atom_type_symbol #ActaC
_atom_type_description #ActaC
_atom_type_oxidation_number
_atom_type_number_in_cell
_atom_type_scat_dispersion_real #ActaC
_atom_type_scat_dispersion_imag #ActaC
_atom_type_scat_source #ActaC
C ? 0 856 .002 .002 Int._Tables_Vol_IV_Tables_2.2B_and_2.3.1
H ? 0 708 0 0 Int._Tables_Vol_IV_Tables_2.2B_and_2.3.1
N ? 0 108 .004 .003 Int._Tables_Vol_IV_Tables_2.2B_and_2.3.1
O ? 0 0 .008 .006 Int._Tables_Vol_IV_Tables_2.2B_and_2.3.1
Ag ? 0 16 -1.085 1.101 Int._Tables_Vol_IV_Tables_2.2B_and_2.3.1
P ? 0 16 .09 .095 Int._Tables_Vol_IV_Tables_2.2B_and_2.3.1
F ? 0 104 .014 .01 Int._Tables_Vol_IV_Tables_2.2B_and_2.3.1

loop_
_atom_site_label #ActaC
_atom_site_fract_x #ActaC
_atom_site_fract_y #ActaC
_atom_site_fract_z #ActaC
_atom_site_U_iso_or_equiv #ActaC
_atom_site_thermal_displace_type #ActaC
_atom_site_calc_flag #ActaC
_atom_site_calc_attached_atom #ActaC
Ag1 .84045(13) .27353(5) .41177(5) .1346(18) Uani ? ?
Ag2 1.00000 .42978(7) .25000 .093(2) Uani ? ?
Ag3 .50000 .13528(7) .25000 .107(2) Uani ? ?
C111 .691(3) .3003(7) .3555(4) .127(9) Uiso ? ?
C112 .7353(8) .2716(14) .3409(5) .144(10) Uiso ? ?
C113 .702(2) .2372(9) .3289(4) .187(12) Uiso ? ?
C114 .625(3) .2315(7) .3314(4) .175(11) Uiso ? ?
C115 .5801(8) .2602(14) .3460(5) .207(13) Uiso ? ?
C116 .613(2) .2946(9) .3580(4) .182(12) Uiso ? ?
N121 .7932(13) .3323(4) .3880(4) .100(6) Uiso ? ?
C122 .8249(6) .3648(8) .4044(3) .103(7) Uiso ? ?
C123 .7895(13) .4009(5) .4008(3) .096(7) Uiso ? ?
C124 .7226(13) .4044(4) .3809(4) .098(7) Uiso ? ?
C125 .6909(6) .3719(8) .3647(3) .112(8) Uiso ? ?
C126 .7262(13) .3358(5) .3681(3) .110(8) Uiso ? ?
N131 .925(2) .3236(10) .4316(4) .100(18) Uani ? ?
C132 .9070(10) .3618(14) .4222(4) .10(2) Uani ? ?
C133 .961(3) .3910(5) .4270(4) .13(3) Uani ? ?
C134 1.032(2) .3821(10) .4412(4) .12(3) Uani ? ?
C135 1.0498(10) .3439(14) .4506(4) .16(3) Uani ? ?
C136 .996(3) .3147(5) .4458(4) .14(3) Uani ? ?
C141 1.013(5) .2777(8) .4570(6) .14(3) Uani ? ?
C142 .9593(17) .251(2) .4679(6) .13(2) Uani ? ?
C143 .980(4) .2130(19) .4755(6) .16(3) Uani ? ?
C144 1.055(5) .2011(8) .4722(6) .24(5) Uani ? ?
C145 1.1086(17) .228(2) .4613(6) .27(5) Uani ? ?
C146 1.088(4) .2658(19) .4536(6) .24(4) Uani ? ?
C151 .8162(18) .4795(5) .2419(3) .10(2) Uani ? ?
C152 .8705(9) .4943(5) .2201(8) .091(19) Uani ? ?
C153 .8514(14) .5027(4) .1855(7) .11(2) Uani ? ?
C154 .7779(18) .4962(5) .1728(3) .13(3) Uani ? ?
C155 .7235(9) .4814(5) .1945(8) .13(3) Uani ? ?
C156 .7428(14) .4730(4) .2291(7) .13(3) Uani ? ?
N161 .9109(9) .4562(4) .2878(4) .075(14) Uani ? ?
C162 .9308(7) .4488(3) .3225(5) .076(16) Uani ? ?
C163 .8793(12) .4558(4) .3482(3) .09(2) Uani ? ?
C164 .8076(10) .4702(4) .3394(4) .086(19) Uani ? ?
C165 .7876(7) .4776(3) .3047(5) .090(18) Uani ? ?
C166 .8392(11) .4706(4) .2790(3) .084(18) Uani ? ?
N171 1.0417(10) .4122(5) .3052(3) .078(14) Uani ? ?
C172 1.0067(7) .4326(4) .3315(5) .067(15) Uani ? ?
C173 1.0402(11) .4340(4) .3648(4) .080(18) Uani ? ?
C174 1.1086(11) .4149(5) .3717(3) .09(2) Uani ? ?
C175 1.1436(7) .3946(4) .3454(5) .093(19) Uani ? ?
C176 1.1101(11) .3933(3) .3122(4) .076(18) Uani ? ?
C181 1.1542(17) .3757(6) .2854(5) .075(18) Uani ? ?
C182 1.1131(8) .3560(7) .2594(7) .13(2) Uani ? ?
C183 1.1505(17) .3383(5) .2324(5) .15(3) Uani ? ?
C184 1.2291(17) .3403(6) .2313(5) .17(3) Uani ? ?
C185 1.2701(8) .3600(7) .2574(7) .15(3) Uani ? ?
C186 1.2327(17) .3776(5) .2844(5) .11(2) Uani ? ?
C11 .6858(12) .4444(6) .3720(5) .12(2) Uani ? ?
C12 .7445(13) .4778(6) .3672(5) .12(2) Uani ? ?
C13 1.0866(11) .4166(6) .4410(5) .103(17) Uani ? ?
C14 1.1410(12) .4155(5) .4112(5) .112(19) Uani ? ?
C211 .681(3) .2949(5) .4590(7) .11(2) Uani ? ?
C212 .744(2) .3056(13) .4793(8) .14(3) Uani ? ?
C213 .7515(15) .3440(16) .4908(4) .15(3) Uani ? ?
C214 .696(3) .3715(5) .4819(7) .17(4) Uani ? ?
C215 .633(2) .3606(13) .4615(7) .16(4) Uani ? ?
C216 .6256(15) .3224(16) .4500(4) .14(3) Uani ? ?
N221 .7349(12) .2378(11) .4312(4) .105(18) Uani ? ?
C222 .7275(15) .1997(10) .4194(4) .09(2) Uani ? ?
C223 .659(2) .1801(4) .4223(4) .11(2) Uani ? ?
C224 .5979(13) .1988(11) .4370(5) .12(2) Uani ? ?
C225 .6052(14) .2369(11) .4489(4) .13(3) Uani ? ?
C226 .674(2) .2564(4) .4460(4) .12(2) Uani ? ?
N231 .8514(18) .2117(4) .3903(5) .109(18) Uani ? ?
C232 .7958(11) .1866(10) .4019(4) .09(2) Uani ? ?
C233 .7960(12) .1477(8) .3921(5) .11(2) Uani ? ?
C234 .852(2) .1337(4) .3705(5) .11(2) Uani ? ?
C235 .9074(11) .1589(10) .3590(4) .11(2) Uani ? ?
C236 .9072(12) .1979(9) .3689(5) .11(2) Uani ? ?
C241 .974(6) .228(3) .3646(8) .124(17) Uiso ? ?
C242 .958(3) .266(4) .3559(8) .096(14) Uiso ? ?
C243 1.016(8) .2923(12) .3498(7) .131(18) Uiso ? ?
C244 1.091(5) .280(3) .3522(8) .22(3) Uiso ? ?
C245 1.108(3) .242(4) .3609(8) .23(3) Uiso ? ?
C246 1.049(8) .2154(11) .3670(7) .15(2) Uiso ? ?
H242 .907(4) .274(7) .3541(12) .15500 Uiso ? ?
H243 1.004(13) .3185(17) .3441(11) .15300 Uiso ? ?
H244 1.130(9) .298(5) .3480(12) .22000 Uiso ? ?
H245 1.158(4) .233(7) .3627(11) .35000 Uiso ? ?
H246 1.061(13) .1892(16) .3727(11) .22000 Uiso ? ?
C241' .9652(17) .2264(9) .3526(12) .110(15) Uiso ? ?
C242' 1.008(2) .2494(11) .3758(7) .15(2) Uiso ? ?
C243' 1.0605(19) .2756(9) .3635(10) .19(2) Uiso ? ?
C244' 1.0706(16) .2789(8) .3280(11) .18(2) Uiso ? ?
C245' 1.028(2) .2560(11) .3047(7) .21(3) Uiso ? ?
C246' .9754(19) .2298(9) .3171(10) .16(2) Uiso ? ?
H242' 1.001(3) .2471(17) .4000(7) .21000 Uiso ? ?
H243' 1.089(3) .2911(13) .3793(14) .28000 Uiso ? ?
H244' 1.106(2) .2967(12) .3196(17) .21000 Uiso ? ?
H245' 1.035(3) .2584(17) .2805(7) .20000 Uiso ? ?
H246' .946(3) .2142(13) .3013(15) .21000 Uiso ? ?
C251 .395(2) .1907(8) .3064(7) .11(2) Uani ? ?
C252 .319(3) .1890(7) .3141(5) .16(3) Uani ? ?
C253 .2666(11) .2123(12) .2959(8) .21(4) Uani ? ?
C254 .291(2) .2374(8) .2702(7) .21(4) Uani ? ?
C255 .367(3) .2391(7) .2624(5) .22(4) Uani ? ?
C256 .4191(11) .2157(12) .2806(8) .16(3) Uani ? ?
N261 .5089(13) .1505(5) .3088(3) .091(16) Uani ? ?
C262 .5657(9) .1294(4) .3261(6) .09(2) Uani ? ?
C263 .5648(9) .1250(4) .3620(6) .10(2) Uani ? ?
C264 .5071(13) .1419(5) .3806(3) .10(2) Uani ? ?
C265 .4504(9) .1631(5) .3634(6) .11(2) Uani ? ?
C266 .4513(9) .1675(4) .3274(6) .10(2) Uani ? ?
N271 .6170(8) .1048(5) .2729(7) .098(16) Uani ? ?
C272 .6331(12) .1132(4) .3078(6) .10(2) Uani ? ?
C273 .7057(16) .1070(5) .3219(3) .12(2) Uani ? ?
C274 .7622(8) .0926(5) .3011(7) .11(2) Uani ? ?
C275 .7461(12) .0842(4) .2663(6) .11(2) Uani ? ?
C276 .6735(16) .0902(5) .2522(3) .11(2) Uani ? ?
C281 .6544(18) .0795(5) .2150(4) .11(2) Uani ? ?
C282 .5844(14) .0642(6) .2047(7) .12(3) Uani ? ?
C283 .5691(10) .0555(5) .1698(8) .12(2) Uani ? ?
C284 .6237(18) .0622(5) .1453(4) .17(3) Uani ? ?
C285 .6937(14) .0777(6) .1557(7) .15(3) Uani ? ?
C286 .7090(10) .0863(5) .1906(8) .14(3) Uani ? ?
C21 .5174(15) .1765(7) .4388(5) .14(2) Uani ? ?
C22 .5079(15) .1375(6) .4200(6) .15(2) Uani ? ?
C23 .8562(12) .0916(5) .3568(6) .13(2) Uani ? ?
C24 .8408(13) .0867(6) .3166(6) .13(2) Uani ? ?
P1 .6851(6) .0403(2) .4394(2) .188(9) Uani ? ?
F11 .6917(13) .0693(6) .4136(7) .36(3) Uani ? ?
F12 .6728(18) .0089(6) .4621(6) .37(3) Uani ? ?
F13 .7287(15) .0149(7) .4182(6) .34(3) Uani ? ?
F14 .6492(16) .0661(8) .4621(8) .43(4) Uani ? ?
F15 .7624(14) .0503(7) .4583(8) .39(3) Uani ? ?
F16 .6105(15) .0286(8) .4232(7) .39(3) Uani ? ?
P2 .2875(13) .1365(7) .4618(6) .593(17) Uiso ? ?
F21 .305(3) .0966(15) .4359(13) .76(2) Uiso ? ?
F22 .384(3) .1387(15) .4768(13) .76(2) Uiso ? ?
F23 .275(3) .1740(14) .4892(13) .76(2) Uiso ? ?
F24 .218(3) .1335(14) .4487(12) .76(2) Uiso ? ?
F25 .263(3) .1049(15) .4951(13) .76(2) Uiso ? ?
F26 .306(3) .1669(14) .4307(14) .76(2) Uiso ? ?
N101 .9126(14) .4878(6) .4317(6) .20(2) Uani ? ?
C101 .9232(14) .5115(7) .4520(6) .16(2) Uani ? ?
C102 .938(2) .5405(8) .4773(7) .23(3) Uani ? ?
N201 .512(3) .3357(12) .2702(14) .29(8) Uani ? ?
C201 .508(3) .3702(13) .2722(10) .28(9) Uani ? ?
C202 .502(3) .4086(15) .2722(13) .24(7) Uani ? ?
N301 .348(5) .2714(18) .4318(15) .40(4) Uiso ? ?
C301 .344(10) .2872(18) .3971(15) .69(12) Uiso ? ?
C302 .338(3) .3039(15) .3568(13) .20(3) Uiso ? ?
N401 .960(3) .0287(13) .1657(15) .27(3) Uiso ? ?
C401 .934(2) .0627(13) .168(2) .28(4) Uiso ? ?
C402 .906(3) .1082(15) .1711(18) .25(3) Uiso ? ?
N501 .936(3) .1561(15) .2435(17) .32(3) Uiso ? ?
C501 .943(3) .1910(17) .254(3) .41(6) Uiso ? ?
C502 .953(4) .232(2) .267(2) .38(5) Uiso ? ?
N601 .546(3) .405(2) .5509(14) .39(4) Uiso ? ?
C601 .516(3) .412(3) .5285(12) .36(5) Uiso ? ?
C602 .477(4) .421(3) .5005(17) .38(5) Uiso ? ?
N701 .886(4) .1272(17) .129(2) .39(4) Uiso ? ?
C701 .907(3) .0892(13) .1234(18) .25(3) Uiso ? ?
C702 .928(4) .0486(16) .118(2) .30(4) Uiso ? ?
N801 .930(4) -.0083(17) .197(2) .38(4) Uiso ? ?
C801 .9432(18) .0322(10) .1976(10) .115(15) Uiso ? ?
C802 .948(3) .0743(14) .1983(16) .21(3) Uiso ? ?
N901 1.012(3) .015(2) .2162(14) .33(4) Uiso ? ?
C901 .944(3) .026(3) .2112(12) .49(8) Uiso ? ?
C902 .866(4) .038(3) .204(2) .45(7) Uiso ? ?
N1001 .723(4) .524(2) .479(2) .45(5) Uiso ? ?
C1001 .672(3) .5041(16) .4690(15) .25(3) Uiso ? ?
C1002 .608(3) .480(2) .4581(19) .29(4) Uiso ? ?
H112 .78712 .27630 .33974 .19000 Uiso ? ?
H113 .73359 .21778 .32013 .22000 Uiso ? ?
H114 .60353 .20730 .32398 .21000 Uiso ? ?
H115 .52710 .25523 .34784 .24000 Uiso ? ?
H116 .58064 .31376 .36745 .22000 Uiso ? ?
H123 .81254 .42361 .41110 .12000 Uiso ? ?
H125 .64718 .37284 .35177 .14000 Uiso ? ?
H133 .93805 .41621 .41887 .13000 Uiso ? ?
H135 1.09751 .34255 .45842 .14000 Uiso ? ?
H142 .90995 .26106 .47023 .16000 Uiso ? ?
H143 .94289 .19631 .48202 .20000 Uiso ? ?
H144 1.06759 .17555 .47558 .27000 Uiso ? ?
H145 1.15923 .21956 .45766 .32000 Uiso ? ?
H146 1.12602 .28409 .44548 .28000 Uiso ? ?
H152 .92381 .49885 .22908 .11500 Uiso ? ?
H153 .89045 .51270 .17116 .14000 Uiso ? ?
H154 .76654 .50200 .15038 .17000 Uiso ? ?
H155 .67603 .47761 .18740 .17000 Uiso ? ?
H156 .70944 .46386 .24541 .15000 Uiso ? ?
H163 .89344 .45136 .37213 .12000 Uiso ? ?
H165 .73971 .48731 .29878 .12000 Uiso ? ?
H173 1.01204 .44817 .38205 .10000 Uiso ? ?
H175 1.18727 .38201 .35149 .10500 Uiso ? ?
H182 1.05594 .35465 .26059 .17000 Uiso ? ?
H183 1.11646 .32558 .21425 .22000 Uiso ? ?
H184 1.24821 .32886 .21117 .22500 Uiso ? ?
H185 1.31921 .36110 .25477 .18500 Uiso ? ?
H186 1.25861 .38991 .30118 .13000 Uiso ? ?
H11a .66007 .44174 .35036 .21000 Uiso ? ?
H11b .65566 .45132 .38939 .21000 Uiso ? ?
H12a .72584 .50085 .36248 .20000 Uiso ? ?
H12b .77813 .47942 .38905 .20000 Uiso ? ?
H13a 1.05771 .44037 .43904 .14000 Uiso ? ?
H13b 1.11248 .41446 .46084 .14000 Uiso ? ?
H14a 1.16983 .43854 .41173 .17000 Uiso ? ?
H14b 1.17026 .39362 .41233 .17000 Uiso ? ?
H212 .78310 .28626 .48615 .17000 Uiso ? ?
H213 .79376 .35103 .50440 .17000 Uiso ? ?
H214 .69974 .39610 .48834 .25000 Uiso ? ?
H215 .59501 .37620 .45421 .25000 Uiso ? ?
H216 .58455 .31161 .43584 .20000 Uiso ? ?
H223 .65487 .15369 .41370 .13000 Uiso ? ?
H225 .56365 .24896 .45815 .16000 Uiso ? ?
H233 .75947 .13044 .40093 .13000 Uiso ? ?
H235 .94476 .15007 .34451 .13000 Uiso ? ?
H252 .30253 .17156 .33348 .19000 Uiso ? ?
H253 .21385 .20960 .30254 .26000 Uiso ? ?
H254 .25300 .25088 .25836 .28000 Uiso ? ?
H255 .38065 .25367 .24474 .23000 Uiso ? ?
H256 .46935 .21535 .27557 .17000 Uiso ? ?
H263 .60400 .11062 .37496 .12000 Uiso ? ?
H265 .41211 .17487 .37522 .15000 Uiso ? ?
H273 .71642 .11208 .34457 .13000 Uiso ? ?
H275 .78258 .07445 .25070 .15000 Uiso ? ?
H282 .54798 .05958 .22169 .14000 Uiso ? ?
H283 .52068 .04527 .16323 .15000 Uiso ? ?
H284 .61128 .05654 .12167 .18000 Uiso ? ?
H285 .72918 .08247 .13844 .18000 Uiso ? ?
H286 .75646 .09676 .19690 .16000 Uiso ? ?
H21a .51066 .17071 .46259 .21000 Uiso ? ?
H21b .47993 .19358 .43064 .21000 Uiso ? ?
H22a .54893 .12138 .42529 .20000 Uiso ? ?
H22b .46223 .12656 .42473 .20000 Uiso ? ?
H23a .90290 .08212 .36410 .20000 Uiso ? ?
H23b .81733 .07810 .36985 .20000 Uiso ? ?
H24a .87146 .10501 .30608 .19500 Uiso ? ?
H24b .85459 .06141 .31164 .19500 Uiso ? ?

loop_
_atom_site_