
#######################################################################
#
#                 Cambridge Crystallographic Data Centre
#                                CCDC
#
#######################################################################
#
# If this CIF has been generated from an entry in the Cambridge
# Structural Database, then it will include bibliographic, chemical,
# crystal, experimental, refinement or atomic coordinate data resulting
# from the CCDC's data processing and validation procedures.
#
#######################################################################

data_CSD_CIF_NOBTIH
_audit_creation_date 1998-06-26
_audit_creation_method CSD-ConQuest-V1
_database_code_CSD NOBTIH
_database_code_depnum_ccdc_archive 'CCDC 1221499'
_chemical_formula_sum 'C21 H20 O4 S1'
_chemical_formula_moiety
;
C18 H14 O4 S1,0.5(C6 H12)
;
_journal_coden_Cambridge 1090
_journal_volume 8
_journal_year 1997
_journal_page_first 2403
_journal_name_full 'Tetrahedron:Asymm. '
loop_
_publ_author_name
"D.Szabo"
"S.Szendeffy"
"I.Kapovits"
"A.Kucsman"
"G.Argay"
"A.Kalman"
"L.Parkanyi"
_chemical_name_systematic
;
(S)-(+)-2-((8-Hydroxymethyl-1-naphthyl)sulfinyl)-benzoic acid cyclohexane 
solvate
;
_chemical_name_common
;
Teaching Subset: Fundamental Chemistry
;
_chemical_melting_point 451
_cell_volume   2740.836
_exptl_crystal_colour 'colorless'
_exptl_crystal_density_diffrn 1.339
_exptl_special_details
;
Melting point range 451-454K
Absolute configuration

;
_exptl_crystal_description 'block'
_diffrn_ambient_temperature ?
_diffrn_special_details
;
The study was carried out at room temperature,in the range 283-303K

;
#These two values have been output from a single CSD field.
_refine_ls_R_factor_gt 0.039
_refine_ls_wR_factor_gt 0.039
_symmetry_cell_setting hexagonal
_symmetry_space_group_name_H-M 'P 32 2 1'
_symmetry_Int_Tables_number 154
loop_
_symmetry_equiv_pos_site_id
_symmetry_equiv_pos_as_xyz
1 x,y,z
2 -y,x-y,2/3+z
3 -x+y,-x,1/3+z
4 y,x,-z
5 -x,-x+y,2/3-z
6 x-y,-y,1/3-z
_cell_length_a 9.787(1)
_cell_length_b 9.787(1)
_cell_length_c 33.041(7)
_cell_angle_alpha 90
_cell_angle_beta 90
_cell_angle_gamma 120
_cell_formula_units_Z 6
loop_
_atom_type_symbol
_atom_type_radius_bond
C 0.68
H 0.23
O 0.68
S 1.02
loop_
_atom_site_label
_atom_site_type_symbol
_atom_site_fract_x
_atom_site_fract_y
_atom_site_fract_z
S1 S -0.24406(6) -0.81650(5) -0.128494(14)
O1 O -0.6759(2) -0.9274(2) -0.19047(5)
H1 H -0.6882(23) -0.8509(12) -0.1932(6)
O2 O -0.2131(2) -0.9519(2) -0.12924(7)
O3 O -0.2866(2) -0.5623(2) -0.12766(5)
O4 O -0.1039(2) -0.3095(2) -0.12246(7)
H2 H -0.1780(13) -0.2970(3) -0.1288(13)
C1 C -0.3568(3) -0.8454(2) -0.08260(6)
C2 C -0.2762(3) -0.8339(4) -0.04739(7)
H3 H -0.1706(3) -0.8067(4) -0.04867(7)
C3 C -0.3508(4) -0.8623(5) -0.00988(8)
H4 H -0.2958(4) -0.8554(5) 0.01370(8)
C4 C -0.5024(4) -0.8997(4) -0.00812(8)
H5 H -0.5510(4) -0.9167(4) 0.01703(8)
C5 C -0.7508(4) -0.9550(3) -0.03958(9)
H6 H -0.7961(4) -0.9701(3) -0.01404(9)
C6 C -0.8390(3) -0.9725(3) -0.07297(10)
H7 H -0.9439(3) -0.9988(3) -0.0702(1)
C7 C -0.7723(3) -0.9509(3) -0.11147(9)
H8 H -0.8353(3) -0.9652(3) -0.13395(9)
C8 C -0.6173(3) -0.9095(2) -0.11747(7)
C9 C -0.5185(3) -0.8879(2) -0.08260(6)
C10 C -0.5906(3) -0.9140(3) -0.04327(7)
C11 C -0.5597(3) -0.8938(2) -0.16059(6)
H9 H -0.4735(3) -0.7870(2) -0.16465(6)
H10 H -0.5182(3) -0.9645(2) -0.16442(6)
C12 C -0.0555(2) -0.6517(2) -0.11400(5)
C13 C -0.0239(2) -0.4955(2) -0.11273(5)
C14 C 0.1291(3) -0.3757(3) -0.10459(6)
H11 H 0.1514(3) -0.2716(3) -0.10374(6)
C15 C 0.2484(3) -0.4095(3) -0.09773(7)
H12 H 0.3498(3) -0.3285(3) -0.09175(7)
C16 C 0.2176(3) -0.5618(4) -0.09975(7)
H13 H 0.2983(3) -0.5841(4) -0.09538(7)
C17 C 0.0654(3) -0.6838(3) -0.10834(6)
H14 H 0.0454(3) -0.7870(3) -0.11027(6)
C18 C -0.1511(3) -0.4600(2) -0.12155(6)
C19 C -0.1878(23) -0.1878(23) 0.00000
H15 H -0.1263(23) -0.1367(23) -0.02400
H16 H -0.1367(23) -0.1263(23) 0.02400
C20 C -0.3631(26) -0.2333(19) -0.0037(9)
H17 H -0.3777(26) -0.1430(19) -0.0004(9)
H18 H -0.4093(26) -0.2860(19) -0.0291(9)
C21 C -0.4236(24) -0.3401(24) 0.0305(3)
H19 H -0.5074(24) -0.3356(24) 0.0450(3)
H20 H -0.3424(24) -0.3312(24) 0.0489(3)
C22 C -0.4846(11) -0.4846(11) 0.00000
H21 H -0.5037(11) -0.5801(11) 0.01380
H22 H -0.5801(11) -0.5038(11) -0.01380
C21C C -0.3401(24) -0.4236(24) -0.0305(3)
C20C C -0.2333(26) -0.3631(19) 0.0037(9)
H17C H -0.1430(26) -0.3777(19) 0.0004(9)
H18C H -0.2860(26) -0.4093(19) 0.0291(9)
H19C H -0.3356(24) -0.5074(24) -0.0450(3)
H20C H -0.3312(24) -0.3424(24) -0.0489(3)
#END
