
#######################################################################
#
#                 Cambridge Crystallographic Data Centre
#                                CCDC
#
#######################################################################
#
# If this CIF has been generated from an entry in the Cambridge
# Structural Database, then it will include bibliographic, chemical,
# crystal, experimental, refinement or atomic coordinate data resulting
# from the CCDC's data processing and validation procedures.
#
#######################################################################

data_CSD_CIF_NOCHUI
_audit_creation_date 1998-06-26
_audit_creation_method CSD-ConQuest-V1
_database_code_CSD NOCHUI
_database_code_depnum_ccdc_archive 'CCDC 1221544'
_database_code_depnum_ccdc_journal 182/818
_chemical_formula_sum 'C21 H30 Cl9 Sb1'
_chemical_formula_moiety
;
C20 H28 Cl1 1+,Cl6 Sb1 1-,C1 H2 Cl2
;
_journal_coden_Cambridge 182
_journal_year 1998
_journal_page_first 927
_journal_name_full 'Chem.Commun. '
loop_
_publ_author_name
"T.Mori"
"R.Rathore"
"S.V.Lindeman"
"J.K.Kochi"
_chemical_name_systematic
;
2,2'-Bi(adamant-2-yl)chloronium hexachloroantimonate dichloromethane solvate
;
_chemical_name_common
;
Teaching Subset: Fundamental Chemistry, Symmetry
;
_cell_volume   2664.002
_exptl_crystal_colour 'colorless'
_exptl_crystal_density_diffrn 1.803
_exptl_special_details
;
Absolute configuration

;
_exptl_crystal_description 'flat prism'
_diffrn_ambient_temperature 123
_refine_special_details
;
The solvent molecule is disordered; atoms Cl9 and C21 have two sets of 
positions with occupancy 0.797:0.203.
;
#These two values have been output from a single CSD field.
_refine_ls_R_factor_gt 0.0537
_refine_ls_wR_factor_gt 0.0537
_symmetry_cell_setting orthorhombic
_symmetry_space_group_name_H-M 'P 21 21 21'
_symmetry_Int_Tables_number 19
loop_
_symmetry_equiv_pos_site_id
_symmetry_equiv_pos_as_xyz
1 x,y,z
2 1/2-x,-y,1/2+z
3 -x,1/2+y,1/2-z
4 1/2+x,1/2-y,-z
_cell_length_a 10.3394(1)
_cell_length_b 16.0104(1)
_cell_length_c 16.0930(1)
_cell_angle_alpha 90
_cell_angle_beta 90
_cell_angle_gamma 90
_cell_formula_units_Z 4
loop_
_atom_type_symbol
_atom_type_radius_bond
C 0.68
H 0.23
Cl 1.00
Sb 1.46
loop_
_atom_site_label
_atom_site_type_symbol
_atom_site_fract_x
_atom_site_fract_y
_atom_site_fract_z
Sb1 Sb 0.68896(3) -0.45546(2) 0.44704(2)
Cl1 Cl 0.52180(11) -0.35640(7) 0.46231(8)
Cl2 Cl 0.85688(11) -0.55454(7) 0.43301(8)
Cl3 Cl 0.53282(11) -0.56283(7) 0.43480(8)
Cl4 Cl 0.84146(10) -0.34695(7) 0.46076(7)
Cl5 Cl 0.69004(13) -0.47730(6) 0.59218(6)
Cl6 Cl 0.68647(15) -0.43601(8) 0.30182(7)
Cl7 Cl 1.12079(13) -0.49639(8) 0.31062(7)
C1 C 1.2466(4) -0.4926(3) 0.2102(2)
C2 C 1.3762(4) -0.5283(3) 0.2296(3)
H1 H 1.4156(4) -0.4989(3) 0.2782(3)
C3 C 1.3687(6) -0.6216(3) 0.2459(3)
H2 H 1.3163(6) -0.6321(3) 0.2963(3)
H3 H 1.4567(6) -0.6440(3) 0.2555(3)
C4 C 1.3074(6) -0.6654(3) 0.1713(3)
H4 H 1.3011(6) -0.7267(3) 0.1828(3)
C5 C 1.1726(5) -0.6299(3) 0.1577(3)
H5 H 1.1191(5) -0.6399(3) 0.2078(3)
H6 H 1.1310(5) -0.6588(3) 0.1103(3)
C6 C 1.1792(5) -0.5360(3) 0.1400(2)
H7 H 1.0905(5) -0.5125(3) 0.1317(2)
C7 C 1.4583(4) -0.5127(3) 0.1494(3)
H8 H 1.4625(4) -0.4520(3) 0.1377(3)
H9 H 1.5476(4) -0.5332(3) 0.1580(3)
C8 C 1.3896(5) -0.6512(3) 0.0950(3)
H10 H 1.3513(5) -0.6809(3) 0.0469(3)
H11 H 1.4776(5) -0.6737(3) 0.1044(3)
C9 C 1.2636(4) -0.5217(3) 0.0620(3)
H12 H 1.2231(4) -0.5490(3) 0.0133(3)
H13 H 1.2704(4) -0.4611(3) 0.0504(3)
C10 C 1.3974(5) -0.5578(3) 0.0762(3)
H14 H 1.4515(5) -0.5487(3) 0.0255(3)
C11 C 1.2032(4) -0.4113(3) 0.2449(2)
C12 C 1.2904(4) -0.3613(3) 0.3015(3)
H15 H 1.3492(4) -0.3996(3) 0.3329(3)
C13 C 1.2104(5) -0.3090(3) 0.3621(3)
H16 H 1.1593(5) -0.3463(3) 0.3985(3)
H17 H 1.2688(5) -0.2754(3) 0.3976(3)
C14 C 1.1196(6) -0.2512(3) 0.3144(3)
H18 H 1.0676(6) -0.2173(3) 0.3545(3)
C15 C 1.0297(5) -0.3043(4) 0.2615(3)
H19 H 0.9693(5) -0.2676(4) 0.2308(3)
H20 H 0.9780(5) -0.3413(4) 0.2979(3)
C16 C 1.1072(5) -0.3571(3) 0.2000(3)
H21 H 1.0481(5) -0.3919(3) 0.1650(3)
C17 C 1.3696(5) -0.3033(3) 0.2463(3)
H22 H 1.4221(5) -0.3367(3) 0.2070(3)
H23 H 1.4292(5) -0.2696(3) 0.2810(3)
C18 C 1.2001(7) -0.1929(3) 0.2589(3)
H24 H 1.1421(7) -0.1547(3) 0.2280(3)
H25 H 1.2588(7) -0.1587(3) 0.2936(3)
C19 C 1.1886(6) -0.2985(3) 0.1451(3)
H26 H 1.2401(6) -0.3320(3) 0.1054(3)
H27 H 1.1304(6) -0.2617(3) 0.1127(3)
C20 C 1.2788(6) -0.2453(3) 0.1979(3)
H28 H 1.3307(6) -0.2077(3) 0.1612(3)
Cl8 Cl 1.1373(2) -0.69514(11) 0.43312(10)
Cl9 Cl 1.3883(2) -0.77426(14) 0.41475(15)
C21 C 1.2182(9) -0.7872(6) 0.4316(7)
H29 H 1.1821(9) -0.8229(6) 0.3871(7)
H30 H 1.2045(9) -0.8163(6) 0.4852(7)
Cl10? Cl 1.3041(12) -0.8080(6) 0.3580(6)
C22? C 1.2427(33) -0.7947(20) 0.3971(20)
H31? H 1.2848(33) -0.812(2) 0.4496(20)
H32? H 1.1753(33) -0.8375(20) 0.387(2)
#END
