
#######################################################################
#
#                 Cambridge Crystallographic Data Centre
#                                CCDC
#
#######################################################################
#
# If this CIF has been generated from an entry in the Cambridge
# Structural Database, then it will include bibliographic, chemical,
# crystal, experimental, refinement or atomic coordinate data resulting
# from the CCDC's data processing and validation procedures.
#
#######################################################################

data_CSD_CIF_NOFPON
_audit_creation_date 1998-06-26
_audit_creation_method CSD-ConQuest-V1
_database_code_CSD NOFPON
_database_code_depnum_ccdc_archive 'CCDC 129946'
_chemical_formula_sum 'C9 H6 O3 W1'
_chemical_formula_moiety
;
C9 H6 O3 W1
;
_journal_coeditor_code "IUCr FR1065"
_journal_coden_Cambridge 591
_journal_volume 54
_journal_year 1998
_journal_page_first 581
_journal_name_full 'Acta Crystallogr.,Sect.C:Cryst.Struct.Commun. '
loop_
_publ_author_name
"J.M.Oh"
"S.J.Geib"
"N.J.Cooper"
_chemical_name_systematic
;
(\h^6^-Benzene)-tricarbonyl-tungsten
;
_chemical_name_common
;
Teaching Subset: Fundamental Chemistry, Symmetry
;
_cell_volume    446.942
_exptl_crystal_colour 'yellow'
_exptl_crystal_density_diffrn 2.571
_exptl_crystal_description 'plate'
_diffrn_ambient_temperature 208
#These two values have been output from a single CSD field.
_refine_ls_R_factor_gt 0.0257
_refine_ls_wR_factor_gt 0.0257
_symmetry_cell_setting monoclinic
_symmetry_space_group_name_H-M 'P 21/m'
_symmetry_Int_Tables_number 11
loop_
_symmetry_equiv_pos_site_id
_symmetry_equiv_pos_as_xyz
1 x,y,z
2 -x,1/2+y,-z
3 -x,-y,-z
4 x,-1/2-y,z
_cell_length_a 6.1119(12)
_cell_length_b 11.047(2)
_cell_length_c 6.7488(13)
_cell_angle_alpha 90
_cell_angle_beta 101.23(3)
_cell_angle_gamma 90
_cell_formula_units_Z 2
loop_
_atom_type_symbol
_atom_type_radius_bond
C 0.68
H 0.23
O 0.68
W 1.37
loop_
_atom_site_label
_atom_site_type_symbol
_atom_site_fract_x
_atom_site_fract_y
_atom_site_fract_z
W1 W 0.33299(3) 0.25000 0.03069(3)
O1 O 0.7062(12) 0.25000 0.4146(11)
O2 O 0.0733(10) 0.0592(4) 0.2339(8)
C1 C 0.5642(12) 0.25000 0.2760(11)
C2 C 0.1713(9) 0.1302(5) 0.1579(8)
C3 C 0.5933(9) 0.1860(6) -0.1624(8)
C4 C 0.3950(11) 0.1220(5) -0.2340(8)
C5 C 0.1939(8) 0.1875(5) -0.3071(7)
H1 H 0.7509(74) 0.1425(46) -0.1138(68)
H2 H 0.406(15) 0.0476(84) -0.226(12)
H3 H 0.0776(91) 0.1286(55) -0.3573(80)
C2C C 0.1713(9) 0.3698(5) 0.1579(8)
O2C O 0.0733(10) 0.4408(4) 0.2339(8)
C3C C 0.5933(9) 0.3140(6) -0.1624(8)
C4C C 0.3950(11) 0.3780(5) -0.2340(8)
H1C H 0.7509(74) 0.3575(46) -0.1138(68)
C5C C 0.1939(8) 0.3125(5) -0.3071(7)
H3C H 0.0776(91) 0.3714(55) -0.3573(80)
H2C H 0.406(15) 0.4524(84) -0.226(12)
#END
