####################################################################### 
# 
# This file contains crystal structure data downloaded from the 
# Cambridge Structural Database (CSD) hosted by the Cambridge 
# Crystallographic Data Centre (CCDC).
# 
# Full information about CCDC data access policies and citation 
# guidelines are available at http://www.ccdc.cam.ac.uk/access/V1 
# 
# Audit and citation data items may have been added by the CCDC. 
# Please retain this information to preserve the provenance of 
# this file and to allow appropriate attribution of the data. 
# 
#######################################################################

data_compound-3
_audit_block_doi                 10.5517/cc11k4c3
_database_code_depnum_ccdc_archive 'CCDC 969784'
loop_
_citation_id
_citation_doi
_citation_year
1 10.1080/00958972.2014.923847 2014
_audit_update_record             
;
2013-11-01 deposited with the CCDC.	2024-07-11 downloaded from the CCDC.
;
_audit_creation_method           SHELXL-97
_chemical_name_systematic        
; 
 ? 
;
_chemical_name_common            ?
_chemical_melting_point          ?
_chemical_formula_moiety         ?
_chemical_formula_sum            'C120 H72 K3 N36 O120 P3 S12 W36 Zn4'
_chemical_formula_weight         11413.15

loop_
_atom_type_symbol
_atom_type_description
_atom_type_scat_dispersion_real
_atom_type_scat_dispersion_imag
_atom_type_scat_source
C C 0.0033 0.0016 'International Tables Vol C Tables 4.2.6.8 and 6.1.1.4'
H H 0.0000 0.0000 'International Tables Vol C Tables 4.2.6.8 and 6.1.1.4'
N N 0.0061 0.0033 'International Tables Vol C Tables 4.2.6.8 and 6.1.1.4'
O O 0.0106 0.0060 'International Tables Vol C Tables 4.2.6.8 and 6.1.1.4'
P P 0.1023 0.0942 'International Tables Vol C Tables 4.2.6.8 and 6.1.1.4'
S S 0.1246 0.1234 'International Tables Vol C Tables 4.2.6.8 and 6.1.1.4'
W W -0.8490 6.8722 'International Tables Vol C Tables 4.2.6.8 and 6.1.1.4'
Zn Zn 0.2839 1.4301 'International Tables Vol C Tables 4.2.6.8 and 6.1.1.4'
K K 0.2009 0.2494 'International Tables Vol C Tables 4.2.6.8 and 6.1.1.4'

_symmetry_cell_setting           tetragonal
_symmetry_space_group_name_H-M   P4cc

loop_
_symmetry_equiv_pos_as_xyz
'x, y, z'
'-y, x, z'
'-x, -y, z'
'y, -x, z'
'-x, y, z+1/2'
'-y, -x, z+1/2'
'x, -y, z+1/2'
'y, x, z+1/2'

_cell_length_a                   23.5124(9)
_cell_length_b                   23.5124(9)
_cell_length_c                   19.7886(11)
_cell_angle_alpha                90.00
_cell_angle_beta                 90.00
_cell_angle_gamma                90.00
_cell_volume                     10939.8(8)
_cell_formula_units_Z            2
_cell_measurement_temperature    298(2)
_cell_measurement_reflns_used    ?
_cell_measurement_theta_min      ?
_cell_measurement_theta_max      ?

_exptl_crystal_description       block
_exptl_crystal_colour            yellow
_exptl_crystal_size_max          0.18
_exptl_crystal_size_mid          0.15
_exptl_crystal_size_min          0.13
_exptl_crystal_density_meas      ?
_exptl_crystal_density_diffrn    3.465
_exptl_crystal_density_method    'not measured'
_exptl_crystal_F_000             10164
_exptl_absorpt_coefficient_mu    19.559
_exptl_absorpt_correction_type   multi-scan
_exptl_absorpt_correction_T_min  0.041
_exptl_absorpt_correction_T_max  0.079
_exptl_absorpt_process_details   'SADABS, Sheldrick, 1996'

_exptl_special_details           
; 
 ? 
;

_diffrn_ambient_temperature      298(2)
_diffrn_radiation_wavelength     0.71073
_diffrn_radiation_type           MoK\a
_diffrn_radiation_source         'fine-focus sealed tube'
_diffrn_radiation_monochromator  graphite
_diffrn_measurement_device_type  ?
_diffrn_measurement_method       ?
_diffrn_detector_area_resol_mean ?
_diffrn_standards_number         ?
_diffrn_standards_interval_count ?
_diffrn_standards_interval_time  ?
_diffrn_standards_decay_%        ?
_diffrn_reflns_number            59768
_diffrn_reflns_av_R_equivalents  0.1129
_diffrn_reflns_av_sigmaI/netI    0.0849
_diffrn_reflns_limit_h_min       -29
_diffrn_reflns_limit_h_max       28
_diffrn_reflns_limit_k_min       -29
_diffrn_reflns_limit_k_max       22
_diffrn_reflns_limit_l_min       -23
_diffrn_reflns_limit_l_max       24
_diffrn_reflns_theta_min         0.87
_diffrn_reflns_theta_max         26.34
_reflns_number_total             11014
_reflns_number_gt                7571
_reflns_threshold_expression     >2sigma(I)

_computing_data_collection       'Bruker APEX2'
_computing_cell_refinement       'Bruker SAINT'
_computing_data_reduction        'Bruker SAINT'
_computing_structure_solution    'SHELXS-97 (Sheldrick, 1990)'
_computing_structure_refinement  'SHELXL-97 (Sheldrick, 1997)'
_computing_molecular_graphics    'Bruker SHELXTL'
_computing_publication_material  'Bruker SHELXTL'

_refine_special_details          
; 
 Refinement of F^2^ against ALL reflections.  The weighted R-factor wR and 
 goodness of fit S are based on F^2^, conventional R-factors R are based 
 on F, with F set to zero for negative F^2^. The threshold expression of 
 F^2^ > 2sigma(F^2^) is used only for calculating R-factors(gt) etc. and is 
 not relevant to the choice of reflections for refinement.  R-factors based 
 on F^2^ are statistically about twice as large as those based on F, and R- 
 factors based on ALL data will be even larger. 
;

_refine_ls_structure_factor_coef Fsqd
_refine_ls_matrix_type           full
_refine_ls_weighting_scheme      calc
_refine_ls_weighting_details     
'calc w=1/[\s^2^(Fo^2^)+(0.1000P)^2^+0.0000P] where P=(Fo^2^+2Fc^2^)/3'
_atom_sites_solution_primary     direct
_atom_sites_solution_secondary   difmap
_atom_sites_solution_hydrogens   geom
_refine_ls_hydrogen_treatment    constr
_refine_ls_extinction_method     none
_refine_ls_extinction_coef       ?
_refine_ls_abs_structure_details 'Flack H D (1983), Acta Cryst. A39, 876-881'
_refine_ls_abs_structure_Flack   0.08(2)
_refine_ls_number_reflns         11014
_refine_ls_number_parameters     764
_refine_ls_number_restraints     91
_refine_ls_R_factor_all          0.0920
_refine_ls_R_factor_gt           0.0472
_refine_ls_wR_factor_ref         0.1465
_refine_ls_wR_factor_gt          0.1142
_refine_ls_goodness_of_fit_ref   0.856
_refine_ls_restrained_S_all      0.853
_refine_ls_shift/su_max          0.001
_refine_ls_shift/su_mean         0.000

loop_
_atom_site_label
_atom_site_type_symbol
_atom_site_fract_x
_atom_site_fract_y
_atom_site_fract_z
_atom_site_U_iso_or_equiv
_atom_site_adp_type
_atom_site_occupancy
_atom_site_symmetry_multiplicity
_atom_site_calc_flag
_atom_site_refinement_flags
_atom_site_disorder_assembly
_atom_site_disorder_group
W1 W -0.05095(4) -0.14262(4) 0.44459(7) 0.0321(2) Uani 1 1 d . . .
W3 W 0.04570(5) -0.09721(5) 0.57147(6) 0.0373(3) Uani 1 1 d . . .
W9 W -0.09699(4) -0.04552(4) 0.31658(5) 0.0260(2) Uani 1 1 d . . .
W13 W -0.02310(4) -0.60613(4) 0.01937(5) 0.0213(2) Uani 1 1 d . . .
W14 W -0.10166(4) -0.46990(4) 0.01896(5) 0.0202(2) Uani 1 1 d . . .
W16 W 0.13106(4) -0.42349(4) 0.15213(6) 0.0229(2) Uani 1 1 d . . .
W17 W 0.03074(4) -0.39692(4) 0.27316(5) 0.0249(3) Uani 1 1 d . . .
W21 W -0.07761(4) -0.36974(4) 0.14083(6) 0.0225(2) Uani 1 1 d . . .
W22 W 0.10490(4) -0.52294(5) 0.27413(5) 0.0250(3) Uani 1 1 d . . .
P1 P 0.0000 0.0000 0.4440(6) 0.0158(19) Uani 1 4 d SU . .
O1 O 0.0656(10) -0.1432(10) 0.6308(10) 0.057(6) Uani 1 1 d . . .
O2 O -0.0756(8) -0.2095(7) 0.4433(13) 0.057(5) Uani 1 1 d . . .
O4 O -0.1425(7) -0.0683(9) 0.2568(11) 0.046(5) Uani 1 1 d . . .
O9 O -0.0271(9) -0.0756(10) 0.2833(11) 0.055(6) Uani 1 1 d . . .
O11 O -0.0171(14) -0.0501(13) 0.4878(17) 0.026(8) Uani 0.50 1 d PU . .
O12 O -0.0989(9) -0.1080(12) 0.5111(13) 0.077(8) Uani 1 1 d . . .
O13 O -0.0954(8) -0.1071(10) 0.3785(11) 0.056(6) Uani 1 1 d . . .
O14 O 0.0066(9) -0.1451(10) 0.5093(12) 0.069(8) Uani 1 1 d . . .
O20 O -0.0257(8) -0.0733(13) 0.6036(12) 0.078(9) Uani 1 1 d . . .
O21 O 0.0071(9) -0.1457(11) 0.3780(12) 0.074(8) Uani 1 1 d . . .
O45 O 0.0463(7) -0.4723(6) 0.1905(7) 0.020(4) Uani 1 1 d . . .
O46 O 0.1919(7) -0.3867(6) 0.1359(10) 0.030(4) Uani 1 1 d . . .
O47 O 0.0326(8) -0.3443(8) 0.3280(9) 0.032(5) Uani 1 1 d . . .
O48 O -0.0270(6) -0.4547(6) 0.1018(7) 0.017(3) Uani 1 1 d . . .
O49 O 0.1511(7) -0.5492(8) 0.3327(9) 0.034(5) Uani 1 1 d U . .
O50 O -0.0348(7) -0.4393(7) 0.2969(8) 0.025(4) Uani 1 1 d . . .
O51 O -0.1211(7) -0.4035(7) 0.0697(9) 0.026(4) Uani 1 1 d . . .
O52 O -0.1140(7) -0.3088(6) 0.1521(11) 0.033(4) Uani 1 1 d . . .
O54 O 0.1547(7) -0.4746(7) 0.2216(9) 0.026(4) Uani 1 1 d . . .
O55 O -0.0589(6) -0.5363(6) -0.0045(8) 0.016(3) Uani 1 1 d U . .
O56 O -0.0451(6) -0.4227(7) -0.0229(8) 0.022(4) Uani 1 1 d . . .
O57 O -0.0148(7) -0.3655(7) 0.2041(9) 0.032(5) Uani 1 1 d . . .
O58 O 0.0773(7) -0.4549(6) 0.3147(8) 0.024(4) Uani 1 1 d U . .
O59 O 0.0238(7) -0.6529(8) 0.0708(9) 0.030(5) Uani 1 1 d . . .
O61 O -0.1104(7) -0.4212(7) 0.2042(9) 0.026(4) Uani 1 1 d . . .
O63 O 0.0965(7) -0.3782(7) 0.2216(9) 0.025(4) Uani 1 1 d . . .
O65 O -0.0497(7) -0.6497(7) -0.0416(10) 0.032(5) Uani 1 1 d . . .
O67 O -0.1342(6) -0.5153(6) 0.0887(8) 0.023(4) Uani 1 1 d . . .
O68 O -0.0788(7) -0.6095(7) 0.0883(8) 0.025(4) Uani 1 1 d . . .
O73 O -0.1530(7) -0.4692(7) -0.0423(9) 0.029(4) Uani 1 1 d . . .
Zn1 Zn -0.25550(12) -0.23862(12) 0.26316(16) 0.0295(7) Uani 1 1 d . . .
S1 S -0.0569(3) -0.2219(3) 0.2551(4) 0.049(2) Uani 1 1 d . . .
S2 S -0.2590(3) -0.1078(4) 0.4482(5) 0.059(2) Uani 1 1 d . . .
S3 S -0.2459(4) -0.0776(4) 0.1161(5) 0.060(2) Uani 1 1 d . . .
N1 N -0.2560(8) -0.1662(8) 0.1896(11) 0.030(5) Uani 1 1 d . . .
N2 N -0.2635(10) -0.2730(11) 0.0565(12) 0.046(6) Uani 1 1 d . . .
N3 N -0.4134(9) -0.2137(9) 0.3593(11) 0.037(5) Uani 1 1 d . . .
N4 N -0.2629(9) -0.1750(8) 0.3502(11) 0.031(5) Uani 1 1 d . . .
N5 N -0.1620(9) -0.2305(9) 0.2667(11) 0.033(5) Uani 1 1 d . . .
N6 N -0.1655(11) -0.3385(11) 0.4053(13) 0.043(6) Uani 1 1 d . . .
N7 N -0.3436(8) -0.2397(8) 0.2865(10) 0.027(5) Uani 1 1 d . . .
N8 N -0.2328(9) -0.3040(9) 0.3367(11) 0.040(6) Uani 1 1 d . . .
N9 N -0.2545(9) -0.2799(8) 0.1705(11) 0.033(5) Uani 1 1 d . . .
K1 K 0.0000 -0.5000 -0.1038(7) 0.066(2) Uani 1 2 d S . .
C1 C -0.2526(12) -0.3854(13) 0.1730(16) 0.046(7) Uani 1 1 d U . .
H1A H -0.2485 -0.3886 0.2196 0.056 Uiso 1 1 calc R . .
P2 P 0.0000 -0.5000 0.1462(6) 0.0158(12) Uani 1 2 d S . .
C2 C -0.2576(10) -0.3354(11) 0.1460(14) 0.033(6) Uani 1 1 d . . .
K2 K 0.0000 0.0000 0.1944(7) 0.056(3) Uani 1 4 d S . .
C3 C -0.1400(10) -0.2690(10) 0.3106(13) 0.028(5) Uani 1 1 d . . .
C4 C -0.4348(11) -0.2564(11) 0.3130(12) 0.031(6) Uani 1 1 d . . .
C5 C -0.2610(11) -0.3326(14) 0.0702(14) 0.043(7) Uani 1 1 d . . .
C6 C -0.0811(10) -0.2689(11) 0.3094(12) 0.029(6) Uani 1 1 d U . .
H6A H -0.0583 -0.2923 0.3359 0.035 Uiso 1 1 calc R . .
C7 C -0.2275(13) -0.3997(13) 0.4780(14) 0.046(7) Uani 1 1 d U . .
H7A H -0.1990 -0.4151 0.5048 0.055 Uiso 1 1 calc R . .
C8 C -0.2157(12) -0.3612(9) 0.4260(14) 0.040(7) Uani 1 1 d . . .
C9 C -0.2534(14) -0.4344(15) 0.1335(19) 0.066(10) Uani 1 1 d U . .
H9A H -0.2499 -0.4699 0.1537 0.079 Uiso 1 1 calc R . .
C10 C -0.2550(10) -0.1860(10) 0.1243(11) 0.025(5) Uani 1 1 d . . .
C11 C -0.3995(11) -0.3153(10) 0.2245(14) 0.037(6) Uani 1 1 d . . .
H11A H -0.3715 -0.3268 0.1942 0.045 Uiso 1 1 calc R . .
C12 C -0.3897(10) -0.2704(10) 0.2712(14) 0.034(6) Uani 1 1 d . . .
C13 C -0.3569(9) -0.2069(10) 0.3382(10) 0.024(5) Uani 1 1 d . . .
C14 C -0.2506(10) -0.1115(11) 0.1956(16) 0.041(7) Uani 1 1 d . . .
H14A H -0.2493 -0.0925 0.2368 0.049 Uiso 1 1 calc R . .
C15 C -0.4885(11) -0.2812(11) 0.3150(16) 0.047(7) Uani 1 1 d . . .
H15A H -0.5168 -0.2696 0.3448 0.056 Uiso 1 1 calc R . .
C16 C -0.4959(13) -0.3243(14) 0.2692(17) 0.058(9) Uani 1 1 d . . .
H16A H -0.5310 -0.3424 0.2675 0.070 Uiso 1 1 calc R . .
C17 C -0.3255(14) -0.3911(13) 0.450(2) 0.064(9) Uani 1 1 d U . .
H17A H -0.3631 -0.4001 0.4604 0.077 Uiso 1 1 calc R . .
C18 C -0.3182(11) -0.1735(10) 0.3736(12) 0.032(6) Uani 1 1 d . . .
C19 C -0.2296(12) -0.1433(12) 0.3826(15) 0.048(8) Uani 1 1 d . . .
H19A H -0.1914 -0.1397 0.3714 0.058 Uiso 1 1 calc R . .
C20 C -0.3229(12) -0.1392(11) 0.4271(15) 0.045(7) Uani 1 1 d U . .
H20A H -0.3567 -0.1330 0.4503 0.054 Uiso 1 1 calc R . .
C21 C -0.1797(10) -0.3062(10) 0.3509(13) 0.028(5) Uani 1 1 d U . .
C22 C -0.2576(10) -0.3416(12) 0.3818(12) 0.035(6) Uani 1 1 d . . .
C23 C -0.2577(12) -0.2451(13) 0.1195(15) 0.045(8) Uani 1 1 d . . .
C24 C -0.2594(13) -0.4299(14) 0.0621(17) 0.054(8) Uani 1 1 d U . .
H24A H -0.2610 -0.4633 0.0371 0.065 Uiso 1 1 calc R . .
C25 C -0.2853(17) -0.4135(17) 0.487(2) 0.082(12) Uani 1 1 d U . .
H25A H -0.2951 -0.4395 0.5207 0.099 Uiso 1 1 calc R . .
C26 C -0.2530(12) -0.1406(12) 0.0769(17) 0.048(8) Uani 1 1 d . . .
H26A H -0.2552 -0.1452 0.0303 0.057 Uiso 1 1 calc R . .
C27 C -0.1240(11) -0.2041(11) 0.2354(13) 0.036(6) Uani 1 1 d . . .
H27A H -0.1324 -0.1765 0.2033 0.043 Uiso 1 1 calc R . .
C28 C -0.4539(14) -0.3420(13) 0.2258(17) 0.061(9) Uani 1 1 d . . .
H28A H -0.4612 -0.3721 0.1965 0.073 Uiso 1 1 calc R . .
C29 C -0.3149(14) -0.3544(12) 0.3966(15) 0.056(8) Uani 1 1 d . . .
H29A H -0.3445 -0.3388 0.3715 0.067 Uiso 1 1 calc R . .
C30 C -0.2629(13) -0.3799(13) 0.0287(16) 0.053(8) Uani 1 1 d U . .
H30A H -0.2663 -0.3775 -0.0181 0.063 Uiso 1 1 calc R . .
O3 O -0.0476(12) 0.0177(14) 0.3988(18) 0.029(8) Uani 0.50 1 d P . .

loop_
_atom_site_aniso_label
_atom_site_aniso_U_11
_atom_site_aniso_U_22
_atom_site_aniso_U_33
_atom_site_aniso_U_23
_atom_site_aniso_U_13
_atom_site_aniso_U_12
W1 0.0323(5) 0.0219(5) 0.0421(6) 0.0054(5) 0.0019(6) -0.0054(4)
W3 0.0455(7) 0.0394(7) 0.0271(6) 0.0103(5) -0.0038(5) 0.0063(5)
W9 0.0193(5) 0.0293(5) 0.0292(6) -0.0028(5) -0.0024(4) -0.0048(4)
W13 0.0219(5) 0.0179(5) 0.0241(6) -0.0049(4) -0.0001(5) 0.0012(4)
W14 0.0203(5) 0.0198(5) 0.0206(6) 0.0003(4) -0.0051(5) 0.0025(4)
W16 0.0214(5) 0.0220(5) 0.0254(6) -0.0009(5) -0.0012(5) -0.0018(4)
W17 0.0255(6) 0.0267(6) 0.0226(6) -0.0062(5) -0.0031(5) 0.0033(4)
W21 0.0241(5) 0.0176(5) 0.0258(6) -0.0031(5) -0.0010(5) 0.0056(4)
W22 0.0253(6) 0.0272(6) 0.0225(6) 0.0019(5) -0.0046(5) 0.0037(4)
P1 0.018(3) 0.018(3) 0.011(4) 0.000 0.000 0.000
O1 0.076(15) 0.074(15) 0.022(11) 0.020(10) 0.001(10) 0.026(13)
O2 0.064(12) 0.035(10) 0.073(14) -0.010(13) 0.012(14) -0.020(9)
O4 0.020(10) 0.057(13) 0.062(14) 0.005(11) 0.004(9) -0.017(9)
O9 0.054(14) 0.068(15) 0.044(13) 0.029(11) 0.029(10) 0.005(11)
O11 0.026(11) 0.028(11) 0.025(11) 0.004(8) 0.003(8) -0.003(8)
O12 0.037(13) 0.12(2) 0.074(17) -0.048(16) -0.011(12) 0.013(14)
O13 0.024(10) 0.091(18) 0.055(14) 0.019(12) 0.011(10) 0.005(11)
O14 0.044(13) 0.090(18) 0.073(17) -0.047(15) -0.007(12) 0.031(13)
O20 0.029(12) 0.14(2) 0.061(16) -0.035(16) -0.017(11) 0.040(14)
O21 0.044(13) 0.097(19) 0.083(18) 0.057(15) 0.011(13) 0.038(13)
O45 0.031(10) 0.018(8) 0.012(9) -0.001(6) -0.006(7) 0.002(7)
O46 0.025(9) 0.024(9) 0.041(12) -0.003(8) -0.004(9) -0.006(7)
O47 0.032(10) 0.031(11) 0.033(12) -0.014(8) 0.001(8) -0.002(8)
O48 0.020(8) 0.018(8) 0.014(8) -0.008(7) -0.002(6) -0.004(7)
O49 0.030(8) 0.045(8) 0.027(8) -0.001(7) -0.016(6) -0.004(7)
O50 0.022(9) 0.031(9) 0.021(9) -0.009(7) -0.006(7) -0.007(7)
O51 0.027(10) 0.019(9) 0.031(11) 0.003(8) -0.004(8) 0.005(7)
O52 0.030(9) 0.019(9) 0.049(12) -0.010(9) 0.003(9) 0.014(7)
O54 0.009(8) 0.028(10) 0.042(11) 0.005(8) -0.009(7) -0.003(7)
O55 0.015(5) 0.015(5) 0.019(5) -0.003(4) -0.001(4) 0.007(4)
O56 0.013(8) 0.031(9) 0.023(9) 0.016(7) -0.003(7) -0.003(7)
O57 0.035(12) 0.038(11) 0.022(10) -0.002(8) 0.001(8) -0.005(9)
O58 0.028(7) 0.020(7) 0.025(7) -0.003(6) 0.002(6) 0.010(6)
O59 0.020(9) 0.046(12) 0.024(10) 0.002(9) 0.009(8) 0.002(8)
O61 0.020(10) 0.032(11) 0.025(10) -0.002(8) -0.006(7) 0.010(8)
O63 0.031(10) 0.024(10) 0.021(10) 0.002(8) 0.000(8) 0.008(8)
O65 0.027(9) 0.030(9) 0.041(12) -0.017(8) -0.005(8) -0.007(7)
O67 0.013(8) 0.016(9) 0.039(11) 0.000(7) -0.010(8) -0.008(7)
O68 0.029(10) 0.023(10) 0.023(10) -0.003(7) 0.003(8) -0.008(7)
O73 0.038(10) 0.027(9) 0.021(10) -0.001(7) 0.010(8) 0.011(8)
Zn1 0.0235(15) 0.0351(17) 0.0300(16) 0.0029(13) 0.0067(13) 0.0041(13)
S1 0.027(4) 0.050(5) 0.071(6) -0.025(4) 0.012(3) -0.010(3)
S2 0.049(4) 0.068(5) 0.061(5) -0.034(5) 0.002(5) -0.009(4)
S3 0.052(5) 0.048(5) 0.078(6) 0.034(5) -0.004(4) -0.007(4)
N1 0.029(12) 0.029(12) 0.032(12) 0.006(9) 0.010(10) -0.005(9)
N2 0.054(16) 0.056(16) 0.029(14) 0.001(12) -0.006(11) 0.016(12)
N3 0.039(13) 0.039(13) 0.033(13) 0.002(10) 0.000(10) 0.011(10)
N4 0.042(13) 0.011(10) 0.039(12) -0.006(9) 0.009(10) 0.009(9)
N5 0.031(12) 0.040(13) 0.029(12) 0.003(10) 0.012(10) 0.007(10)
N6 0.042(15) 0.046(15) 0.041(15) -0.015(11) -0.001(11) 0.024(10)
N7 0.023(11) 0.026(11) 0.031(12) 0.013(9) 0.007(9) 0.004(9)
N8 0.039(13) 0.036(13) 0.045(14) 0.013(10) 0.010(11) 0.008(10)
N9 0.046(14) 0.018(11) 0.035(12) 0.019(9) 0.003(10) -0.003(10)
K1 0.070(7) 0.090(8) 0.037(4) 0.000 0.000 0.007(5)
C1 0.036(10) 0.050(11) 0.053(11) -0.008(9) -0.005(8) -0.002(8)
P2 0.016(4) 0.018(4) 0.013(3) 0.000 0.000 0.005(4)
C2 0.028(13) 0.046(16) 0.025(14) 0.008(13) -0.004(12) 0.004(11)
K2 0.072(5) 0.072(5) 0.024(6) 0.000 0.000 0.000
C3 0.028(13) 0.025(13) 0.032(14) 0.002(11) 0.001(11) 0.006(10)
C4 0.040(15) 0.036(14) 0.019(12) 0.007(11) -0.017(11) 0.004(11)
C5 0.024(14) 0.07(2) 0.033(16) -0.015(15) -0.008(12) 0.013(13)
C6 0.027(9) 0.036(9) 0.023(9) -0.008(8) -0.003(8) -0.003(8)
C7 0.050(11) 0.050(11) 0.036(10) 0.008(8) 0.004(8) 0.011(9)
C8 0.063(19) 0.008(11) 0.050(19) 0.007(11) -0.002(14) 0.008(12)
C9 0.062(12) 0.062(12) 0.073(13) -0.005(9) 0.000(9) -0.003(9)
C10 0.028(13) 0.027(13) 0.020(12) 0.010(10) 0.006(10) 0.001(11)
C