####################################################################### 
# 
# This file contains crystal structure data downloaded from the 
# Cambridge Structural Database (CSD) hosted by the Cambridge 
# Crystallographic Data Centre (CCDC).
# 
# Full information about CCDC data access policies and citation 
# guidelines are available at http://www.ccdc.cam.ac.uk/access/V1 
# 
# Audit and citation data items may have been added by the CCDC. 
# Please retain this information to preserve the provenance of 
# this file and to allow appropriate attribution of the data. 
# 
#######################################################################

data_compound6
_audit_block_doi                 10.5517/cc11xzqn
_database_code_depnum_ccdc_archive 'CCDC 981172'
loop_
_citation_id
_citation_doi
_citation_year
1 10.1039/C4QI00043A 2014
_audit_update_record             
;
2014-01-13 deposited with the CCDC.	2024-07-11 downloaded from the CCDC.
;

_audit_creation_method           SHELXL-97
_chemical_name_systematic        
; 
 ? 
;
_chemical_name_common            ?
_chemical_melting_point          ?
_chemical_formula_moiety         ?
_chemical_formula_sum            'C8 H18 N2 O11 Pb'
_chemical_formula_weight         525.43

loop_
_atom_type_symbol
_atom_type_description
_atom_type_scat_dispersion_real
_atom_type_scat_dispersion_imag
_atom_type_scat_source
C C 0.0033 0.0016 'International Tables Vol C Tables 4.2.6.8 and 6.1.1.4'
H H 0.0000 0.0000 'International Tables Vol C Tables 4.2.6.8 and 6.1.1.4'
N N 0.0061 0.0033 'International Tables Vol C Tables 4.2.6.8 and 6.1.1.4'
O O 0.0106 0.0060 'International Tables Vol C Tables 4.2.6.8 and 6.1.1.4'
Pb Pb -3.3944 10.1111 'International Tables Vol C Tables 4.2.6.8 and 6.1.1.4'

_symmetry_cell_setting           Triclinic
_symmetry_space_group_name_H-M   'P-1   '

loop_
_symmetry_equiv_pos_as_xyz
'x, y, z'
'-x, -y, -z'

_cell_length_a                   6.9587(3)
_cell_length_b                   10.0635(5)
_cell_length_c                   11.2625(5)
_cell_angle_alpha                79.014(4)
_cell_angle_beta                 84.469(4)
_cell_angle_gamma                88.510(4)
_cell_volume                     770.62(6)
_cell_formula_units_Z            2
_cell_measurement_temperature    293(2)
_cell_measurement_reflns_used    ?
_cell_measurement_theta_min      ?
_cell_measurement_theta_max      ?

_exptl_crystal_description       ?
_exptl_crystal_colour            ?
_exptl_crystal_size_max          0.30
_exptl_crystal_size_mid          0.25
_exptl_crystal_size_min          0.20
_exptl_crystal_density_meas      ?
_exptl_crystal_density_diffrn    2.264
_exptl_crystal_density_method    'not measured'
_exptl_crystal_F_000             500
_exptl_absorpt_coefficient_mu    11.004
_exptl_absorpt_correction_type   multi-scan
_exptl_absorpt_correction_T_min  0.1369
_exptl_absorpt_correction_T_max  0.2169
_exptl_absorpt_process_details   ?

_exptl_special_details           
; 
CrysAlisPro, Agilent Technologies,
Version 1.171.35.19 (release 27-10-2011 CrysAlis171 .NET)
(compiled Oct 27 2011,15:02:11)
Empirical absorption correction using spherical harmonics,
 implemented in SCALE3 ABSPACK scaling algorithm.
;

_diffrn_ambient_temperature      293(2)
_diffrn_radiation_wavelength     0.71073
_diffrn_radiation_type           MoK\a
_diffrn_radiation_source         'fine-focus sealed tube'
_diffrn_radiation_monochromator  graphite
_diffrn_measurement_device_type  ?
_diffrn_measurement_method       ?
_diffrn_detector_area_resol_mean ?
_diffrn_standards_number         ?
_diffrn_standards_interval_count ?
_diffrn_standards_interval_time  ?
_diffrn_standards_decay_%        ?
_diffrn_reflns_number            5810
_diffrn_reflns_av_R_equivalents  0.0251
_diffrn_reflns_av_sigmaI/netI    0.0305
_diffrn_reflns_limit_h_min       -8
_diffrn_reflns_limit_h_max       8
_diffrn_reflns_limit_k_min       -9
_diffrn_reflns_limit_k_max       12
_diffrn_reflns_limit_l_min       -13
_diffrn_reflns_limit_l_max       13
_diffrn_reflns_theta_min         3.02
_diffrn_reflns_theta_max         26.00
_reflns_number_total             3029
_reflns_number_gt                2880
_reflns_threshold_expression     >2sigma(I)

_computing_data_collection       CrysAlisPro
_computing_cell_refinement       CrysAlisPro
_computing_data_reduction        CrysAlisPro
_computing_structure_solution    'SHELXS-97 (Sheldrick, 1990)'
_computing_structure_refinement  'SHELXL-97 (Sheldrick, 1997)'
_computing_molecular_graphics    'SHELXL-97 (Sheldrick, 1997)'
_computing_publication_material  'SHELXL-97 (Sheldrick, 1997)'

_refine_special_details          
; 
 Refinement of F^2^ against ALL reflections.  The weighted R-factor wR and 
 goodness of fit S are based on F^2^, conventional R-factors R are based 
 on F, with F set to zero for negative F^2^. The threshold expression of 
 F^2^ > 2sigma(F^2^) is used only for calculating R-factors(gt) etc. and is 
 not relevant to the choice of reflections for refinement.  R-factors based 
 on F^2^ are statistically about twice as large as those based on F, and R- 
 factors based on ALL data will be even larger. 
;

_refine_ls_structure_factor_coef Fsqd
_refine_ls_matrix_type           full
_refine_ls_weighting_scheme      calc
_refine_ls_weighting_details     
'calc w=1/[\s^2^(Fo^2^)+(0.0334P)^2^+1.6956P] where P=(Fo^2^+2Fc^2^)/3'
_atom_sites_solution_primary     direct
_atom_sites_solution_secondary   difmap
_atom_sites_solution_hydrogens   geom
_refine_ls_hydrogen_treatment    mixed
_refine_ls_extinction_method     none
_refine_ls_extinction_coef       ?
_refine_ls_number_reflns         3029
_refine_ls_number_parameters     199
_refine_ls_number_restraints     0
_refine_ls_R_factor_all          0.0255
_refine_ls_R_factor_gt           0.0238
_refine_ls_wR_factor_ref         0.0601
_refine_ls_wR_factor_gt          0.0592
_refine_ls_goodness_of_fit_ref   1.032
_refine_ls_restrained_S_all      1.032
_refine_ls_shift/su_max          0.003
_refine_ls_shift/su_mean         0.000

loop_
_atom_site_label
_atom_site_type_symbol
_atom_site_fract_x
_atom_site_fract_y
_atom_site_fract_z
_atom_site_U_iso_or_equiv
_atom_site_adp_type
_atom_site_occupancy
_atom_site_symmetry_multiplicity
_atom_site_calc_flag
_atom_site_refinement_flags
_atom_site_disorder_assembly
_atom_site_disorder_group
Pb1 Pb 0.720531(16) 0.569373(12) 0.599992(10) 0.02042(3) Uani 1 1 d . . .
O1 O 1.1688(4) 0.1832(3) 0.3187(2) 0.0380(7) Uani 1 1 d . . .
O5W O 1.6249(7) 0.9172(5) 0.8705(4) 0.1002(16) Uani 1 1 d . . .
O2 O 0.9121(3) 0.3561(3) 0.5323(2) 0.0292(6) Uani 1 1 d . . .
O2W O 0.7913(6) 0.1696(4) 0.8612(3) 0.0634(11) Uani 1 1 d . . .
O3 O 0.6449(3) 0.4298(2) 0.4507(2) 0.0247(6) Uani 1 1 d . . .
O3W O 1.1255(6) 0.0485(4) 0.7642(4) 0.0768(12) Uani 1 1 d . . .
O4 O 0.9680(4) 0.4939(3) 0.7663(2) 0.0348(7) Uani 1 1 d . . .
O4W O 1.2754(7) 0.7794(5) 0.9043(4) 0.0812(13) Uani 1 1 d . . .
O5 O 1.4477(4) 0.5544(3) 0.8122(2) 0.0327(6) Uani 1 1 d . . .
O1W O 0.6279(5) 0.7844(3) 0.4086(3) 0.0484(8) Uani 1 1 d . . .
O6 O 1.5508(3) 0.3759(3) 0.7349(2) 0.0282(6) Uani 1 1 d . . .
N1 N 0.9039(4) 0.1165(3) 0.4467(3) 0.0256(7) Uani 1 1 d . . .
N2 N 1.1223(4) 0.4239(3) 0.9324(2) 0.0227(7) Uani 1 1 d . . .
C1 C 1.1933(6) -0.0238(4) 0.4527(4) 0.0338(10) Uani 1 1 d . . .
H1A H 1.2288 -0.0730 0.3876 0.041 Uiso 1 1 calc R . .
H1B H 1.3122 0.0042 0.4789 0.041 Uiso 1 1 calc R . .
C2 C 1.0851(5) 0.1003(3) 0.4019(3) 0.0259(8) Uani 1 1 d . . .
C3 C 0.7900(5) 0.2327(4) 0.3938(3) 0.0270(8) Uani 1 1 d . . .
H3A H 0.6593 0.2036 0.3900 0.032 Uiso 1 1 calc R . .
H3B H 0.8445 0.2668 0.3114 0.032 Uiso 1 1 calc R . .
C4 C 0.7836(4) 0.3459(3) 0.4654(3) 0.0200(7) Uani 1 1 d . . .
C5 C 0.8473(5) 0.5767(4) 0.9414(3) 0.0328(10) Uani 1 1 d . . .
H5A H 0.8528 0.6697 0.8979 0.039 Uiso 1 1 calc R . .
H5B H 0.7178 0.5444 0.9391 0.039 Uiso 1 1 calc R . .
C6 C 0.9853(5) 0.4944(4) 0.8744(3) 0.0228(8) Uani 1 1 d . . .
C7 C 1.2621(5) 0.3496(4) 0.8657(3) 0.0273(8) Uani 1 1 d . . .
H7A H 1.1980 0.3138 0.8059 0.033 Uiso 1 1 calc R . .
H7B H 1.3109 0.2736 0.9216 0.033 Uiso 1 1 calc R . .
C8 C 1.4315(5) 0.4362(4) 0.8014(3) 0.0239(8) Uani 1 1 d . . .

loop_
_atom_site_aniso_label
_atom_site_aniso_U_11
_atom_site_aniso_U_22
_atom_site_aniso_U_33
_atom_site_aniso_U_23
_atom_site_aniso_U_13
_atom_site_aniso_U_12
Pb1 0.02134(6) 0.01918(6) 0.02130(6) -0.00545(5) -0.00160(4) 0.00028(5)
O1 0.0434(15) 0.0245(14) 0.0401(14) 0.0026(12) 0.0092(12) 0.0004(12)
O5W 0.115(3) 0.084(3) 0.100(3) -0.039(2) 0.048(3) -0.027(3)
O2 0.0265(11) 0.0284(13) 0.0354(12) -0.0096(11) -0.0102(10) 0.0037(10)
O2W 0.084(2) 0.0436(19) 0.061(2) -0.0076(17) -0.0084(19) 0.0175(18)
O3 0.0220(11) 0.0232(12) 0.0309(11) -0.0094(10) -0.0056(9) 0.0077(9)
O3W 0.079(2) 0.070(2) 0.082(3) -0.024(2) 0.014(2) -0.021(2)
O4 0.0404(14) 0.0478(16) 0.0176(11) -0.0075(11) -0.0084(10) 0.0025(13)
O4W 0.092(3) 0.089(3) 0.068(2) -0.033(2) 0.003(2) 0.004(2)
O5 0.0332(13) 0.0297(14) 0.0354(13) -0.0079(11) 0.0006(11) -0.0059(11)
O1W 0.0534(17) 0.0534(19) 0.0389(15) -0.0117(14) 0.0010(13) -0.0080(15)
O6 0.0249(11) 0.0282(13) 0.0288(12) -0.0032(10) 0.0059(10) 0.0027(10)
N1 0.0294(14) 0.0168(14) 0.0295(14) -0.0040(12) 0.0001(12) 0.0044(12)
N2 0.0213(13) 0.0286(15) 0.0175(12) -0.0037(11) -0.0003(10) 0.0015(12)
C1 0.0297(17) 0.0254(19) 0.041(2) 0.0019(17) 0.0061(15) 0.0051(16)
C2 0.0278(16) 0.0194(16) 0.0315(16) -0.0094(14) 0.0016(14) 0.0002(14)
C3 0.0320(17) 0.0230(17) 0.0271(16) -0.0064(14) -0.0078(14) 0.0090(15)
C4 0.0207(15) 0.0165(15) 0.0208(14) -0.0011(13) 0.0032(12) 0.0011(13)
C5 0.0308(17) 0.050(2) 0.0180(15) -0.0071(16) -0.0062(13) 0.0128(17)
C6 0.0222(15) 0.0272(18) 0.0179(14) -0.0007(13) -0.0024(12) -0.0031(14)
C7 0.0233(16) 0.0319(19) 0.0257(16) -0.0066(15) 0.0046(13) 0.0016(15)
C8 0.0214(15) 0.0319(19) 0.0174(14) -0.0003(14) -0.0047(12) 0.0003(14)

_geom_special_details            
; 
 All esds (except the esd in the dihedral angle between two l.s. planes) 
 are estimated using the full covariance matrix.  The cell esds are taken 
 into account individually in the estimation of esds in distances, angles 
 and torsion angles; correlations between esds in cell parameters are only 
 used when they are defined by crystal symmetry.  An approximate (isotropic) 
 treatment of cell esds is used for estimating esds involving l.s. planes. 
;

loop_
_geom_bond_atom_site_label_1
_geom_bond_atom_site_label_2
_geom_bond_distance
_geom_bond_site_symmetry_2
_geom_bond_publ_flag
Pb1 O6 2.478(2) 1_455 ?
Pb1 O3 2.487(2) . ?
Pb1 O4 2.657(3) . ?
Pb1 O3 2.659(2) 2_666 ?
Pb1 O2 2.691(3) . ?
O1 C2 1.239(4) . ?
O2 C4 1.241(4) . ?
O3 C4 1.268(4) . ?
O3 Pb1 2.659(2) 2_666 ?
O4 C6 1.236(4) . ?
O5 C8 1.227(5) . ?
O6 C8 1.283(4) . ?
O6 Pb1 2.478(2) 1_655 ?
N1 C2 1.330(4) . ?
N1 C1 1.447(5) 2_756 ?
N1 C3 1.459(4) . ?
N2 C6 1.322(4) . ?
N2 C7 1.451(4) . ?
N2 C5 1.455(4) 2_767 ?
C1 N1 1.447(5) 2_756 ?
C1 C2 1.488(5) . ?
C3 C4 1.513(5) . ?
C5 N2 1.455(4) 2_767 ?
C5 C6 1.495(5) . ?
C7 C8 1.524(5) . ?

loop_
_geom_angle_atom_site_label_1
_geom_angle_atom_site_label_2
_geom_angle_atom_site_label_3
_geom_angle
_geom_angle_site_symmetry_1
_geom_angle_site_symmetry_3
_geom_angle_publ_flag
O6 Pb1 O3 78.73(8) 1_455 . ?
O6 Pb1 O4 78.17(8) 1_455 . ?
O3 Pb1 O4 123.77(8) . . ?
O6 Pb1 O3 70.91(8) 1_455 2_666 ?
O3 Pb1 O3 63.29(9) . 2_666 ?
O4 Pb1 O3 146.22(7) . 2_666 ?
O6 Pb1 O2 77.99(8) 1_455 . ?
O3 Pb1 O2 50.15(7) . . ?
O4 Pb1 O2 75.15(8) . . ?
O3 Pb1 O2 110.31(7) 2_666 . ?
C4 O2 Pb1 89.00(19) . . ?
C4 O3 Pb1 98.0(2) . . ?
C4 O3 Pb1 137.9(2) . 2_666 ?
Pb1 O3 Pb1 116.71(9) . 2_666 ?
C6 O4 Pb1 140.4(2) . . ?
C8 O6 Pb1 101.8(2) . 1_655 ?
C2 N1 C1 124.0(3) . 2_756 ?
C2 N1 C3 120.2(3) . . ?
C1 N1 C3 115.8(3) 2_756 . ?
C6 N2 C7 119.0(3) . . ?
C6 N2 C5 124.2(3) . 2_767 ?
C7 N2 C5 116.6(3) . 2_767 ?
N1 C1 C2 117.1(3) 2_756 . ?
O1 C2 N1 123.2(3) . . ?
O1 C2 C1 117.9(3) . . ?
N1 C2 C1 118.8(3) . . ?
N1 C3 C4 112.8(3) . . ?
O2 C4 O3 122.7(3) . . ?
O2 C4 C3 120.6(3) . . ?
O3 C4 C3 116.7(3) . . ?
N2 C5 C6 116.7(3) 2_767 . ?
O4 C6 N2 121.8(3) . . ?
O4 C6 C5 119.1(3) . . ?
N2 C6 C5 119.1(3) . . ?
N2 C7 C8 113.0(3) . . ?
O5 C8 O6 123.9(3) . . ?
O5 C8 C7 121.7(3) . . ?
O6 C8 C7 114.4(3) . . ?

_diffrn_measured_fraction_theta_max 0.998
_diffrn_reflns_theta_full        26.00
_diffrn_measured_fraction_theta_full 0.998
_refine_diff_density_max         1.598
_refine_diff_density_min         -1.970
_refine_diff_density_rms         0.145
