####################################################################### 
# 
# This file contains crystal structure data downloaded from the 
# Cambridge Structural Database (CSD) hosted by the Cambridge 
# Crystallographic Data Centre (CCDC).
# 
# Full information about CCDC data access policies and citation 
# guidelines are available at http://www.ccdc.cam.ac.uk/access/V1 
# 
# Audit and citation data items may have been added by the CCDC. 
# Please retain this information to preserve the provenance of 
# this file and to allow appropriate attribution of the data. 
# 
#######################################################################

data_1
_audit_block_doi                 10.5517/ccrg4r2
_database_code_depnum_ccdc_archive 'CCDC 698794'
loop_
_citation_id
_citation_doi
_citation_year
1 10.1016/j.inoche.2008.09.005 2008
_audit_update_record             
;
2008-08-14 deposited with the CCDC.	2024-07-11 downloaded from the CCDC.
;

_audit_creation_method           SHELXL-97
_chemical_name_systematic        
;
?
;
_chemical_name_common            ?
_chemical_melting_point          ?
_chemical_formula_moiety         'C40 H26 Cu F8 N8 O4, 2(C3 H7 N O), 2.5(H4 O2)'
_chemical_formula_sum            'C46 H50 Cu F8 N10 O11'
_chemical_formula_weight         1134.50

loop_
_atom_type_symbol
_atom_type_description
_atom_type_scat_dispersion_real
_atom_type_scat_dispersion_imag
_atom_type_scat_source
C C 0.0033 0.0016 'International Tables Vol C Tables 4.2.6.8 and 6.1.1.4'
H H 0.0000 0.0000 'International Tables Vol C Tables 4.2.6.8 and 6.1.1.4'
N N 0.0061 0.0033 'International Tables Vol C Tables 4.2.6.8 and 6.1.1.4'
O O 0.0106 0.0060 'International Tables Vol C Tables 4.2.6.8 and 6.1.1.4'
F F 0.0171 0.0103 'International Tables Vol C Tables 4.2.6.8 and 6.1.1.4'
Cu Cu 0.3201 1.2651 'International Tables Vol C Tables 4.2.6.8 and 6.1.1.4'

_symmetry_cell_setting           Triclinic
_symmetry_space_group_name_H-M   'P-1 '
_symmetry_space_group_name_Hall  '-P 1'

loop_
_symmetry_equiv_pos_as_xyz
'x, y, z'
'-x, -y, -z'

_cell_length_a                   9.1033(17)
_cell_length_b                   11.595(2)
_cell_length_c                   15.349(3)
_cell_angle_alpha                78.346(4)
_cell_angle_beta                 72.755(2)
_cell_angle_gamma                73.765(2)
_cell_volume                     1473.1(5)
_cell_formula_units_Z            1
_cell_measurement_temperature    291(2)
_cell_measurement_reflns_used    1725
_cell_measurement_theta_min      2.46
_cell_measurement_theta_max      23.35

_exptl_crystal_description       block
_exptl_crystal_colour            blue
_exptl_crystal_size_max          0.32
_exptl_crystal_size_mid          0.26
_exptl_crystal_size_min          0.24
_exptl_crystal_density_meas      ?
_exptl_crystal_density_diffrn    1.279
_exptl_crystal_density_method    'not measured'
_exptl_crystal_F_000             585
_exptl_absorpt_coefficient_mu    0.455
_exptl_absorpt_correction_type   multi-scan
_exptl_absorpt_correction_T_min  0.8831
_exptl_absorpt_correction_T_max  0.9065
_exptl_absorpt_process_details   'SADABS, Bruker(2000)'

_exptl_special_details           
;
?
;

_diffrn_ambient_temperature      291(2)
_diffrn_radiation_wavelength     0.71073
_diffrn_radiation_type           MoK\a
_diffrn_radiation_source         'fine-focus sealed tube'
_diffrn_radiation_monochromator  graphite
_diffrn_measurement_device_type  'Bruker Smart Apex CCD'
_diffrn_measurement_method       'phi and omega scans'
_diffrn_detector_area_resol_mean ?
_diffrn_standards_number         ?
_diffrn_standards_interval_count ?
_diffrn_standards_interval_time  ?
_diffrn_standards_decay_%        ?
_diffrn_reflns_number            10785
_diffrn_reflns_av_R_equivalents  0.0299
_diffrn_reflns_av_sigmaI/netI    0.0555
_diffrn_reflns_limit_h_min       -9
_diffrn_reflns_limit_h_max       9
_diffrn_reflns_limit_k_min       -13
_diffrn_reflns_limit_k_max       13
_diffrn_reflns_limit_l_min       -18
_diffrn_reflns_limit_l_max       18
_diffrn_reflns_theta_min         2.46
_diffrn_reflns_theta_max         25.05
_reflns_number_total             5079
_reflns_number_gt                3946
_reflns_threshold_expression     >2sigma(I)

_computing_data_collection       'SMART (Bruker, 2000)'
_computing_cell_refinement       SMART
_computing_data_reduction        'SAINT (Bruker, 2000)'
_computing_structure_solution    'SHELXTL (Bruker, 2000)'
_computing_structure_refinement  SHELXTL
_computing_molecular_graphics    SHELXTL
_computing_publication_material  SHELXTL

_refine_special_details          
;
Refinement of F^2^ against ALL reflections. The weighted R-factor wR and
goodness of fit S are based on F^2^, conventional R-factors R are based
on F, with F set to zero for negative F^2^. The threshold expression of
F^2^ > 2sigma(F^2^) is used only for calculating R-factors(gt) etc. and is
not relevant to the choice of reflections for refinement. R-factors based
on F^2^ are statistically about twice as large as those based on F, and R-
factors based on ALL data will be even larger.
;

_refine_ls_structure_factor_coef Fsqd
_refine_ls_matrix_type           full
_refine_ls_weighting_scheme      calc
_refine_ls_weighting_details     
'calc w=1/[\s^2^(Fo^2^)+(0.0500P)^2^+0.9900P] where P=(Fo^2^+2Fc^2^)/3'
_atom_sites_solution_primary     direct
_atom_sites_solution_secondary   difmap
_atom_sites_solution_hydrogens   geom
_refine_ls_hydrogen_treatment    mixed
_refine_ls_extinction_method     none
_refine_ls_extinction_coef       ?
_refine_ls_number_reflns         5079
_refine_ls_number_parameters     402
_refine_ls_number_restraints     0
_refine_ls_R_factor_all          0.0777
_refine_ls_R_factor_gt           0.0558
_refine_ls_wR_factor_ref         0.1235
_refine_ls_wR_factor_gt          0.1173
_refine_ls_goodness_of_fit_ref   1.051
_refine_ls_restrained_S_all      1.051
_refine_ls_shift/su_max          0.000
_refine_ls_shift/su_mean         0.000

loop_
_atom_site_label
_atom_site_type_symbol
_atom_site_fract_x
_atom_site_fract_y
_atom_site_fract_z
_atom_site_U_iso_or_equiv
_atom_site_adp_type
_atom_site_occupancy
_atom_site_symmetry_multiplicity
_atom_site_calc_flag
_atom_site_refinement_flags
_atom_site_disorder_assembly
_atom_site_disorder_group
C1 C -0.1792(4) 0.1624(3) 0.3729(2) 0.0452(8) Uani 1 1 d . . .
H1 H -0.2422 0.1066 0.3936 0.054 Uiso 1 1 calc R . .
C2 C -0.2123(4) 0.2569(3) 0.3061(2) 0.0388(8) Uani 1 1 d . . .
H2 H -0.2938 0.2624 0.2794 0.047 Uiso 1 1 calc R . .
C3 C -0.1244(4) 0.3439(3) 0.2784(2) 0.0360(7) Uani 1 1 d . . .
C4 C 0.0078(4) 0.3271(3) 0.3119(2) 0.0426(8) Uani 1 1 d . . .
H4 H 0.0738 0.3806 0.2888 0.051 Uiso 1 1 calc R . .
C5 C 0.0416(4) 0.2324(3) 0.3786(2) 0.0438(8) Uani 1 1 d . . .
H5 H 0.1269 0.2235 0.4030 0.053 Uiso 1 1 calc R . .
C6 C -0.1764(4) 0.4575(3) 0.2204(2) 0.0410(8) Uani 1 1 d . . .
C7 C -0.2681(4) 0.5341(3) 0.0780(2) 0.0425(8) Uani 1 1 d . . .
H7C H -0.1737 0.5326 0.0276 0.051 Uiso 1 1 calc R . .
H7D H -0.2996 0.6132 0.0988 0.051 Uiso 1 1 calc R . .
C8 C -0.3929(4) 0.5189(3) 0.0441(2) 0.0383(8) Uani 1 1 d . . .
F1 F -0.1908(2) 0.43823(16) -0.08341(13) 0.0454(5) Uani 1 1 d . . .
C9 C -0.3398(4) 0.4694(3) -0.0397(2) 0.0416(8) Uani 1 1 d . . .
C10 C -0.5566(4) 0.5576(3) 0.0792(2) 0.0420(8) Uani 1 1 d . . .
C11 C 0.2306(4) -0.1176(3) 0.3447(2) 0.0433(8) Uani 1 1 d . . .
H11 H 0.1426 -0.1437 0.3452 0.052 Uiso 1 1 calc R . .
C12 C 0.3728(4) -0.1515(3) 0.2788(2) 0.0410(8) Uani 1 1 d . . .
H12 H 0.3788 -0.2004 0.2361 0.049 Uiso 1 1 calc R . .
C13 C 0.5074(4) -0.1119(3) 0.2767(2) 0.0427(8) Uani 1 1 d . . .
C14 C 0.4927(4) -0.0367(3) 0.3414(2) 0.0442(8) Uani 1 1 d . . .
H14 H 0.5773 -0.0067 0.3415 0.053 Uiso 1 1 calc R . .
C15 C 0.3504(4) -0.0090(3) 0.4041(2) 0.0478(9) Uani 1 1 d . . .
H15 H 0.3428 0.0398 0.4472 0.057 Uiso 1 1 calc R . .
C16 C 0.6519(3) -0.1416(3) 0.2029(2) 0.0306(7) Uani 1 1 d . . .
C17 C 0.9428(4) -0.1809(3) 0.1571(2) 0.0364(7) Uani 1 1 d . . .
H17C H 1.0273 -0.1988 0.1876 0.044 Uiso 1 1 calc R . .
H17D H 0.9457 -0.2547 0.1355 0.044 Uiso 1 1 calc R . .
C18 C 0.9745(4) -0.0922(3) 0.0789(2) 0.0392(8) Uani 1 1 d . . .
C19 C 0.9973(4) 0.0201(3) 0.0862(2) 0.0368(7) Uani 1 1 d . . .
C20 C 0.9847(4) -0.1093(3) -0.0138(2) 0.0419(8) Uani 1 1 d . . .
C21 C 0.3166(4) 0.1711(3) 0.1268(2) 0.0435(8) Uani 1 1 d . . .
H21A H 0.2737 0.1747 0.1916 0.065 Uiso 1 1 calc R . .
H21B H 0.3113 0.0957 0.1125 0.065 Uiso 1 1 calc R . .
H21C H 0.2566 0.2371 0.0934 0.065 Uiso 1 1 calc R . .
C22 C 0.5884(4) 0.1290(3) 0.0118(2) 0.0407(8) Uani 1 1 d . . .
H22A H 0.6587 0.1806 -0.0207 0.061 Uiso 1 1 calc R . .
H22B H 0.5235 0.1255 -0.0263 0.061 Uiso 1 1 calc R . .
H22C H 0.6490 0.0490 0.0270 0.061 Uiso 1 1 calc R . .
C23 C 0.5302(4) 0.2335(3) 0.1485(3) 0.0441(8) Uani 1 1 d . . .
H23A H 0.4636 0.2866 0.1895 0.053 Uiso 1 1 calc R . .
Cu1 Cu 0.0000 0.0000 0.5000 0.03914(18) Uani 1 2 d S . .
F2 F -0.6168(2) 0.61189(18) 0.15117(13) 0.0489(5) Uani 1 1 d . . .
F3 F 0.9937(2) 0.04023(18) 0.16885(13) 0.0456(5) Uani 1 1 d . . .
F4 F 0.9628(2) -0.21380(17) -0.02981(12) 0.0435(5) Uani 1 1 d . . .
N1 N -0.0551(3) 0.1496(3) 0.40899(19) 0.0454(7) Uani 1 1 d . . .
N2 N -0.2305(3) 0.4447(3) 0.15119(19) 0.0401(7) Uani 1 1 d . . .
H2A H -0.242(4) 0.376(4) 0.151(3) 0.048 Uiso 1 1 d . . .
N3 N 0.2194(3) -0.0459(2) 0.40923(18) 0.0384(7) Uani 1 1 d . . .
N4 N 0.7915(3) -0.1472(2) 0.22506(18) 0.0400(7) Uani 1 1 d . . .
N5 N 0.4826(3) 0.1799(3) 0.10062(19) 0.0432(7) Uani 1 1 d . . .
O1 O -0.1453(3) 0.5515(2) 0.22254(16) 0.0488(6) Uani 1 1 d . . .
O2 O 0.6445(2) -0.1623(2) 0.13266(15) 0.0372(5) Uani 1 1 d . . .
O3 O 0.6699(3) 0.2066(2) 0.13389(16) 0.0460(6) Uani 1 1 d . . .
O4 O 0.4310(7) 0.2589(6) 0.3674(4) 0.0622(15) Uani 0.50 1 d P . .
H4B H 0.340(11) 0.294(9) 0.359(6) 0.075 Uiso 0.50 1 d P . .
H4A H 0.425(11) 0.241(8) 0.425(7) 0.075 Uiso 0.50 1 d P . .
O5 O 0.7509(8) 0.4612(7) 0.6601(5) 0.0734(19) Uani 0.50 1 d P . .
H5A H 0.759(12) 0.503(9) 0.698(7) 0.088 Uiso 0.50 1 d P . .
H5B H 0.714(13) 0.401(10) 0.690(7) 0.088 Uiso 0.50 1 d P . .
O6 O 0.8675(7) 0.8591(6) 0.4140(4) 0.0623(16) Uani 0.50 1 d P . .
H6A H 0.782(11) 0.835(9) 0.431(7) 0.075 Uiso 0.50 1 d P . .
H6B H 0.892(11) 0.877(8) 0.356(7) 0.075 Uiso 0.50 1 d P . .
O7 O 0.8501(8) 0.5005(6) 0.4838(4) 0.0661(17) Uani 0.50 1 d P . .
H7A H 0.919(11) 0.463(9) 0.513(7) 0.079 Uiso 0.50 1 d P . .
H7B H 0.759(12) 0.494(9) 0.517(7) 0.079 Uiso 0.50 1 d P . .
O8 O 0.5598(7) 0.4786(6) 0.6298(5) 0.0693(18) Uani 0.50 1 d P . .
H8A H 0.503(12) 0.484(9) 0.685(7) 0.083 Uiso 0.50 1 d P . .
H8B H 0.509(11) 0.525(9) 0.593(7) 0.083 Uiso 0.50 1 d P . .

loop_
_atom_site_aniso_label
_atom_site_aniso_U_11
_atom_site_aniso_U_22
_atom_site_aniso_U_33
_atom_site_aniso_U_23
_atom_site_aniso_U_13
_atom_site_aniso_U_12
C1 0.047(2) 0.0404(19) 0.044(2) 0.0124(15) -0.0153(16) -0.0130(16)
C2 0.0383(18) 0.0356(18) 0.0449(19) -0.0063(14) -0.0207(15) -0.0009(14)
C3 0.0388(18) 0.0375(18) 0.0331(17) -0.0030(13) -0.0158(14) -0.0050(14)
C4 0.044(2) 0.0431(19) 0.0390(18) 0.0137(15) -0.0149(15) -0.0171(15)
C5 0.046(2) 0.0361(18) 0.0443(19) 0.0037(15) -0.0177(16) -0.0007(15)
C6 0.0378(18) 0.0342(18) 0.0445(19) 0.0170(14) -0.0128(15) -0.0115(14)
C7 0.052(2) 0.0358(18) 0.0420(19) 0.0143(15) -0.0215(16) -0.0175(16)
C8 0.047(2) 0.0384(18) 0.0391(18) -0.0178(14) -0.0182(15) -0.0085(15)
F1 0.0433(11) 0.0357(10) 0.0483(11) 0.0109(8) -0.0092(9) -0.0093(8)
C9 0.0344(18) 0.0412(19) 0.0441(19) -0.0235(15) -0.0166(15) 0.0186(14)
C10 0.046(2) 0.0418(19) 0.0349(18) -0.0083(15) -0.0196(15) 0.0065(15)
C11 0.0341(18) 0.049(2) 0.0427(19) -0.0184(16) 0.0027(15) -0.0083(15)
C12 0.0369(18) 0.0440(19) 0.0392(18) -0.0184(15) -0.0082(14) 0.0027(14)
C13 0.0387(19) 0.046(2) 0.0365(18) 0.0025(15) -0.0017(14) -0.0126(15)
C14 0.046(2) 0.0367(18) 0.046(2) 0.0109(15) -0.0128(16) -0.0131(15)
C15 0.040(2) 0.050(2) 0.047(2) -0.0174(17) -0.0065(16) 0.0015(16)
C16 0.0307(17) 0.0317(16) 0.0306(16) -0.0013(12) -0.0083(13) -0.0108(13)
C17 0.0414(18) 0.0363(18) 0.0343(17) -0.0019(13) -0.0097(14) -0.0151(14)
C18 0.0400(18) 0.0298(17) 0.0448(19) -0.0045(14) -0.0081(15) -0.0064(14)
C19 0.0343(17) 0.0449(19) 0.0324(17) -0.0074(14) 0.0017(13) -0.0203(14)
C20 0.0412(19) 0.044(2) 0.0435(19) -0.0089(15) -0.0182(15) -0.0044(15)
C21 0.0387(19) 0.049(2) 0.0414(19) 0.0048(15) -0.0135(15) -0.0122(15)
C22 0.047(2) 0.0447(19) 0.0386(18) -0.0058(15) -0.0221(15) -0.0123(15)
C23 0.039(2) 0.0361(19) 0.057(2) 0.0020(16) -0.0157(17) -0.0096(16)
Cu1 0.0318(3) 0.0371(3) 0.0332(3) 0.0000(2) -0.0006(2) 0.0047(2)
F2 0.0540(12) 0.0490(12) 0.0407(11) -0.0058(9) -0.0081(9) -0.0115(9)
F3 0.0488(12) 0.0499(12) 0.0442(11) -0.0100(9) -0.0166(9) -0.0134(9)
F4 0.0504(12) 0.0411(11) 0.0376(10) -0.0118(8) -0.0018(8) -0.0139(9)
N1 0.0335(15) 0.0426(17) 0.0410(16) 0.0134(13) -0.0039(12) 0.0018(12)
N2 0.0368(15) 0.0393(16) 0.0402(16) 0.0119(13) -0.0148(12) -0.0093(13)
N3 0.0316(15) 0.0358(15) 0.0351(15) -0.0066(12) 0.0009(11) 0.0037(11)
N4 0.0326(15) 0.0441(16) 0.0388(15) 0.0031(12) -0.0049(12) -0.0124(12)
N5 0.0401(16) 0.0402(16) 0.0419(16) 0.0156(13) -0.0162(13) -0.0063(13)
O1 0.0498(15) 0.0522(16) 0.0453(14) 0.0176(11) -0.0195(11) -0.0224(12)
O2 0.0258(11) 0.0443(13) 0.0426(13) -0.0168(10) -0.0166(9) 0.0065(9)
O3 0.0465(16) 0.0506(15) 0.0465(14) -0.0131(11) -0.0168(11) -0.0100(11)
O4 0.061(4) 0.074(4) 0.057(3) -0.016(3) -0.012(3) -0.020(3)
O5 0.055(4) 0.088(5) 0.085(5) -0.026(4) -0.024(3) -0.011(3)
O6 0.059(4) 0.059(4) 0.055(3) -0.001(3) -0.011(3) -0.001(3)
O7 0.064(4) 0.069(4) 0.059(4) 0.012(3) -0.005(3) -0.031(3)
O8 0.062(4) 0.061(4) 0.070(4) 0.025(3) -0.021(3) -0.010(3)

_geom_special_details            
;
All esds (except the esd in the dihedral angle between two l.s. planes)
are estimated using the full covariance matrix. The cell esds are taken
into account individually in the estimation of esds in distances, angles
and torsion angles; correlations between esds in cell parameters are only
used when they are defined by crystal symmetry. An approximate (isotropic)
treatment of cell esds is used for estimating esds involving l.s. planes.
;

loop_
_geom_bond_atom_site_label_1
_geom_bond_atom_site_label_2
_geom_bond_distance
_geom_bond_site_symmetry_2
_geom_bond_publ_flag
C1 N1 1.360(4) . ?
C1 C2 1.375(4) . ?
C1 H1 0.9300 . ?
C2 C3 1.384(5) . ?
C2 H2 0.9300 . ?
C3 C4 1.395(5) . ?
C3 C6 1.476(4) . ?
C4 C5 1.376(4) . ?
C4 H4 0.9300 . ?
C5 N1 1.400(5) . ?
C5 H5 0.9300 . ?
C6 O1 1.210(4) . ?
C6 N2 1.344(5) . ?
C7 N2 1.419(4) . ?
C7 C8 1.447(5) . ?
C7 H7C 0.9700 . ?
C7 H7D 0.9700 . ?
C8 C10 1.400(5) . ?
C8 C9 1.412(4) . ?
F1 C9 1.306(4) . ?
C9 C10 1.391(5) 2_465 ?
C10 F2 1.283(4) . ?
C10 C9 1.391(5) 2_465 ?
C11 N3 1.381(4) . ?
C11 C12 1.397(4) . ?
C11 H11 0.9300 . ?
C12 C13 1.414(5) . ?
C12 H12 0.9300 . ?
C13 C14 1.403(5) . ?
C13 C16 1.467(4) . ?
C14 C15 1.364(5) . ?
C14 H14 0.9300 . ?
C15 N3 1.352(5) . ?
C15 H15 0.9300 . ?
C16 O2 1.175(3) . ?
C16 N4 1.392(4) . ?
C17 C18 1.429(4) . ?
C17 N4 1.466(4) . ?
C17 H17C 0.9700 . ?
C17 H17D 0.9700 . ?
C18 C19 1.405(4) . ?
C18 C20 1.449(5) . ?
C19 F3 1.325(4) . ?
C19 C20 1.361(5) 2_755 ?
C20 F4 1.361(4) . ?
C20 C19 1.361(5) 2_755 ?
C21 N5 1.471(4) . ?
C21 H21A 0.9600 . ?
C21 H21B 0.9600 . ?
C21 H21C 0.9600 . ?
C22 N5 1.537(4) . ?
C22 H22A 0.9600 . ?
C22 H22B 0.9600 . ?
C22 H22C 0.9600 . ?
C23 O3 1.184(4) . ?
C23 N5 1.279(5) . ?
C23 H23A 0.9300 . ?
Cu1 N1 2.040(3) 2_556 ?
Cu1 N1 2.040(3) . ?
Cu1 N3 2.066(2) 2_556 ?
Cu1 N3 2.066(2) . ?
N2 H2A 0.84(4) . ?
O4 H4B 0.85(9) . ?
O4 H4A 0.85(9) . ?
O5 H5A 0.85(10) . ?
O5 H5B 0.85(10) . ?
O6 H6A 0.85(9) . ?
O6 H6B 0.85(9) . ?
O7 H7A 0.85(10) . ?
O7 H7B 0.85(10) . ?
O8 H8A 0.85(10) . ?
O8 H8B 0.85(10) . ?

loop_
_geom_angle_atom_site_label_1
_geom_angle_atom_site_label_2
_geom_angle_atom_site_label_3
_geom_angle
_geom_angle_site_symmetry_1
_geom_angle_site_symmetry_3
_geom_angle_publ_flag
N1 C1 C2 120.6(3) . . ?
N1 C1 H1 119.7 . . ?
C2 C1 H1 119.7 . . ?
C1 C2 C3 120.0(3) . . ?
C1 C2 H2 120.0 . . ?
C3 C2 H2 120.0 . . ?
C2 C3 C4 119.0(3) . . ?
C2 C3 C6 120.7(3) . . ?
C4 C3 C6 120.1(3) . . ?
C5 C4 C3 120.8(3) . . ?
C5 C4 H4 119.6 . . ?
C3 C4 H4 119.6 . . ?
C4 C5 N1 118.6(3) . . ?
C4 C5 H5 120.7 . . ?
N1 C5 H5 120.7 . . ?
O1 C6 N2 120.6(3) . . ?
O1 C6 C3 122.7(3) . . ?
N2 C6 C3 115.2(3) . . ?
N2 C7 C8 114.2(3) . . ?
N2 C7 H7C 108.7 . . ?
C8 C7 H7C 108.7 . . ?
N2 C7 H7D 108.7 . . ?
C8 C7 H7D 108.7 . . ?
H7C C7 H7D 107.6 . . ?
C10 C8 C9 117.2(3) . . ?
C10 C8 C7 128.0(3) . . ?
C9 C8 C7 114.5(3) . . ?
F1 C9 C10 114.5(3) . 2_465 ?
F1 C9 C8 123.5(3) . . ?
C10 C9 C8 121.9(3) 2_465 . ?
F2 C10 C9 117.6(3) . 2_465 ?
F2 C10 C8 122.1(3) . . ?
C9 C10 C8 120.2(3) 2_465 . ?
N3 C11 C12 120.8(3) . . ?
N3 C11 H11 119.6 . . ?
C12 C11 H11 119.6 . . ?
C11 C12 C13 120.3(3) . . ?
C11 C12 H12 119.8 . . ?
C13 C12 H12 119.8 . . ?
C14 C13 C12 118.1(3) . . ?
C14 C13 C16 122.4(3) . . ?
C12 C13 C16 119.3(3) . . ?
C15 C14 C13 117.9(3) . . ?
C15 C14 H14 121.0 . . ?
C13 C14 H14 121.0 . . ?
N3 C15 C14 126.0(3) . . ?
N3 C15 H15 117.0 . . ?
C14 C15 H15 117.0 . . ?
O2 C16 N4 125.0(3) . . ?
O2 C16 C13 120.1(3) . . ?
N4 C16 C13 114.9(3) . . ?
C18 C17 N4 115.8(3) . . ?
C18 C17 H17C 108.3 . . ?
N4 C17 H17C 108.3 . . ?
C18 C17 H17D 108.3 . . ?
N4 C17 H17D 108.3 . . ?
H17C C17 H17D 107.4 . . ?
C19 C18 C17 122.3(3) . . ?
C19 C18 C20 114.3(3) . . ?
C17 C18 C20 123.4(3) . . ?
F3 C19 C20 119.4(3) . 2_755 ?
F3 C19 C18 117.4(3) . . ?
C20 C19 C18 123.1(3) 2_755 . ?
F4 C20 C19 117.4(3) . 2_755 ?
F4 C20 C18 120.0(3) . . ?
C19 C20 C18 122.4(3) 2_755 . ?
N5 C21 H21A 109.5 . . ?
N5 C21 H21B 109.5 . . ?
H21A C21 H21B 109.5 . . ?
N5 C21 H21C 109.5 . . ?
H21A C21 H21C 109.5 . . ?
H21B C21 H21C 109.5 . . ?
N5 C22 H22A 109.5 . . ?
N5 C22 H22B 109.5 . . ?
H22A C22 H22B 109.5 . . ?
N5 C22 H22C 109.5 . . ?
H22A C22 H22C 109.5 . . ?
H22B C22 H22C 109.5 . . ?
O3 C23 N5 111.3(3) . . ?
O3 C23 H23A 124.4 . . ?
N5 C23 H23A 124.4 . . ?
N1 Cu1 N1 180.00(13) 2_556 . ?
N1 Cu1 N3 88.55(10) 2_556 2_556 ?
N1 Cu1 N3 91.45(10) . 2_556 ?
N1 Cu1 N3 91.45(10) 2_556 . ?
N1 Cu1 N3 88.55(10) . . ?
N3 Cu1 N3 180.00(13) 2_556 . ?
C1 N1 C5 120.6(3) . . ?
C1 N1 Cu1 118.9(2) . . ?
C5 N1 Cu1 120.2(2) . . ?
C6 N2 C7 127.5(3) . . ?
C6 N2 H2A 116(3) . . ?
C7 N2 H2A 116(3) . . ?
C15 N3 C11 116.9(3) . . ?
C15 N3 Cu1 126.8(2) . . ?
C11 N3 Cu1 116.2(2) . . ?
C16 N4 C17 119.0(3) . . ?
C23 N5 C21 120.0(3) . . ?
C23 N5 C22 123.3(3) . . ?
C21 N5 C22 116.7(3) . . ?
H4B O4 H4A 109(9) . . ?
H5A O5 H5B 109(10) . . ?
H6A O6 H6B 110(9) . . ?
H7A O7 H7B 109(9) . . ?
H8A O8 H8B 109(9) . . ?

loop_
_geom_hbond_atom_site_label_D
_geom_hbond_atom_site_label_H
_geom_hbond_atom_site_label_A
_geom_hbond_distance_DH
_geom_hbond_distance_HA
_geom_hbond_distance_DA
_geom_hbond_angle_DHA
_geom_hbond_site_symmetry_A
N2 H2A O3 0.84(4) 2.40(4) 3.218(4) 165(3) 1_455
O5 H5B F2 0.85(10) 2.33(10) 2.844(8) 120(9) 2_566
O6 H6B N4 0.85(9) 2.53(9) 3.192(7) 136(8) 1_565
O7 H7A O7 0.85(10) 2.27(9) 2.912(14) 132(8) 2_766
O7 H7B O8 0.85(10) 2.12(10) 2.950(9) 164(9) .
O7 H7B O5 0.85(10) 2.13(10) 2.575(10) 112(8) .

_diffrn_measured_fraction_theta_max 0.975
_diffrn_reflns_theta_full        25.05
_diffrn_measured_fraction_theta_full 0.975
_refine_diff_density_max         0.207
_refine_diff_density_min         -0.301
_refine_diff_density_rms         0.055
