####################################################################### 
# 
# This file contains crystal structure data downloaded from the 
# Cambridge Structural Database (CSD) hosted by the Cambridge 
# Crystallographic Data Centre (CCDC).
# 
# Full information about CCDC data access policies and citation 
# guidelines are available at http://www.ccdc.cam.ac.uk/access/V1 
# 
# Audit and citation data items may have been added by the CCDC. 
# Please retain this information to preserve the provenance of 
# this file and to allow appropriate attribution of the data. 
# 
#######################################################################

data_p21c
_audit_block_doi                 10.5517/cczrm1c
_database_code_depnum_ccdc_archive 'CCDC 916423'
loop_
_citation_id
_citation_doi
_citation_year
1 10.1016/j.inoche.2014.06.023 2014
_audit_update_record             
;
2014-07-17 deposited with the CCDC.	2024-07-11 downloaded from the CCDC.
;

_audit_creation_method           SHELXL-97
_chemical_name_systematic        
; 
 ? 
;
_chemical_name_common            ?
_chemical_melting_point          ?
_chemical_formula_moiety         ?
_chemical_formula_sum            'C36 H28 Mn3 N2 O17'
_chemical_formula_weight         925.42

loop_
_atom_type_symbol
_atom_type_description
_atom_type_scat_dispersion_real
_atom_type_scat_dispersion_imag
_atom_type_scat_source
C C 0.0033 0.0016 'International Tables Vol C Tables 4.2.6.8 and 6.1.1.4'
H H 0.0000 0.0000 'International Tables Vol C Tables 4.2.6.8 and 6.1.1.4'
N N 0.0061 0.0033 'International Tables Vol C Tables 4.2.6.8 and 6.1.1.4'
O O 0.0106 0.0060 'International Tables Vol C Tables 4.2.6.8 and 6.1.1.4'
Mn Mn 0.3368 0.7283 'International Tables Vol C Tables 4.2.6.8 and 6.1.1.4'

_symmetry_cell_setting           ?
_symmetry_space_group_name_H-M   P21/C

loop_
_symmetry_equiv_pos_as_xyz
'x, y, z'
'-x, y+1/2, -z+1/2'
'-x, -y, -z'
'x, -y-1/2, z-1/2'

_cell_length_a                   19.7020(18)
_cell_length_b                   18.1181(15)
_cell_length_c                   14.3185(12)
_cell_angle_alpha                90.00
_cell_angle_beta                 97.583(2)
_cell_angle_gamma                90.00
_cell_volume                     5066.5(8)
_cell_formula_units_Z            4
_cell_measurement_temperature    296(2)
_cell_measurement_reflns_used    ?
_cell_measurement_theta_min      ?
_cell_measurement_theta_max      ?

_exptl_crystal_description       block
_exptl_crystal_colour            colourless
_exptl_crystal_size_max          0.3
_exptl_crystal_size_mid          0.3
_exptl_crystal_size_min          0.1
_exptl_crystal_density_meas      ?
_exptl_crystal_density_diffrn    1.213
_exptl_crystal_density_method    'not measured'
_exptl_crystal_F_000             1876
_exptl_absorpt_coefficient_mu    0.796
_exptl_absorpt_correction_type   ?
_exptl_absorpt_correction_T_min  ?
_exptl_absorpt_correction_T_max  ?
_exptl_absorpt_process_details   ?

_exptl_special_details           
;
loop_
  _platon_squeeze_void_nr
  _platon_squeeze_void_average_x
  _platon_squeeze_void_average_y
  _platon_squeeze_void_average_z
  _platon_squeeze_void_volume
  _platon_squeeze_void_count_electrons
  _platon_squeeze_void_content
   1  0.500  0.002 -0.020      1538       356 ' '
   2  0.560  0.622  0.189         6         1 ' '
   3  0.440  0.122  0.311         7         1 ' '
   4  0.560  0.878  0.689         7         1 ' '
   5  0.440  0.378  0.811         8         1 ' '
_platon_squeeze_details
;

_diffrn_ambient_temperature      296(2)
_diffrn_radiation_wavelength     0.71073
_diffrn_radiation_type           MoK\a
_diffrn_radiation_source         'fine-focus sealed tube'
_diffrn_radiation_monochromator  graphite
_diffrn_measurement_device_type  ?
_diffrn_measurement_method       ?
_diffrn_detector_area_resol_mean ?
_diffrn_standards_number         ?
_diffrn_standards_interval_count ?
_diffrn_standards_interval_time  ?
_diffrn_standards_decay_%        ?
_diffrn_reflns_number            31517
_diffrn_reflns_av_R_equivalents  0.0428
_diffrn_reflns_av_sigmaI/netI    0.0662
_diffrn_reflns_limit_h_min       -21
_diffrn_reflns_limit_h_max       25
_diffrn_reflns_limit_k_min       -24
_diffrn_reflns_limit_k_max       20
_diffrn_reflns_limit_l_min       -18
_diffrn_reflns_limit_l_max       12
_diffrn_reflns_theta_min         1.53
_diffrn_reflns_theta_max         28.51
_reflns_number_total             12329
_reflns_number_gt                6559
_reflns_threshold_expression     >2sigma(I)

_computing_data_collection       ?
_computing_cell_refinement       ?
_computing_data_reduction        ?
_computing_structure_solution    'SHELXS-97 (Sheldrick, 1990)'
_computing_structure_refinement  'SHELXL-97 (Sheldrick, 1997)'
_computing_molecular_graphics    ?
_computing_publication_material  ?

_refine_special_details          
; 
 Refinement of F^2^ against ALL reflections.  The weighted R-factor wR and 
 goodness of fit S are based on F^2^, conventional R-factors R are based 
 on F, with F set to zero for negative F^2^. The threshold expression of 
 F^2^ > 2sigma(F^2^) is used only for calculating R-factors(gt) etc. and is 
 not relevant to the choice of reflections for refinement.  R-factors based 
 on F^2^ are statistically about twice as large as those based on F, and R- 
 factors based on ALL data will be even larger. 
;

_refine_ls_structure_factor_coef Fsqd
_refine_ls_matrix_type           full
_refine_ls_weighting_scheme      calc
_refine_ls_weighting_details     
'calc w=1/[\s^2^(Fo^2^)+(0.2000P)^2^+0.0000P] where P=(Fo^2^+2Fc^2^)/3'
_atom_sites_solution_primary     direct
_atom_sites_solution_secondary   difmap
_atom_sites_solution_hydrogens   geom
_refine_ls_hydrogen_treatment    mixed
_refine_ls_extinction_method     none
_refine_ls_extinction_coef       ?
_refine_ls_number_reflns         12329
_refine_ls_number_parameters     527
_refine_ls_number_restraints     62
_refine_ls_R_factor_all          0.1532
_refine_ls_R_factor_gt           0.0920
_refine_ls_wR_factor_ref         0.3545
_refine_ls_wR_factor_gt          0.3089
_refine_ls_goodness_of_fit_ref   1.160
_refine_ls_restrained_S_all      1.186
_refine_ls_shift/su_max          0.008
_refine_ls_shift/su_mean         0.001

loop_
_atom_site_label
_atom_site_type_symbol
_atom_site_fract_x
_atom_site_fract_y
_atom_site_fract_z
_atom_site_U_iso_or_equiv
_atom_site_adp_type
_atom_site_occupancy
_atom_site_symmetry_multiplicity
_atom_site_calc_flag
_atom_site_refinement_flags
_atom_site_disorder_assembly
_atom_site_disorder_group
Mn1 Mn 0.24780(4) 0.85554(5) 0.05781(6) 0.0359(3) Uani 1 1 d . . .
Mn2 Mn 0.29284(4) 0.85659(5) 0.39312(6) 0.0359(3) Uani 1 1 d . . .
Mn3 Mn 0.27325(5) 0.99025(5) 0.22796(6) 0.0433(3) Uani 1 1 d . . .
C1 C 0.1740(3) 1.0194(3) 0.0889(4) 0.0475(15) Uani 1 1 d . . .
C2 C 0.1160(3) 1.0380(3) 0.0142(4) 0.0451(15) Uani 1 1 d . . .
C3 C 0.0928(3) 0.9869(4) -0.0537(5) 0.0543(17) Uani 1 1 d . . .
H3 H 0.1142 0.9413 -0.0551 0.065 Uiso 1 1 calc R . .
C4 C 0.0837(4) 1.1061(4) 0.0153(5) 0.0596(19) Uani 1 1 d . . .
H4 H 0.0982 1.1404 0.0619 0.072 Uiso 1 1 calc R . .
C5 C 0.0368(3) 1.0040(4) -0.1204(5) 0.0582(19) Uani 1 1 d . . .
H5 H 0.0202 0.9694 -0.1656 0.070 Uiso 1 1 calc R . .
C6 C 0.0297(4) 1.1221(4) -0.0536(5) 0.063(2) Uani 1 1 d . . .
H6 H 0.0090 1.1683 -0.0550 0.075 Uiso 1 1 calc R . .
C7 C 0.0070(3) 1.0705(4) -0.1192(5) 0.0502(16) Uani 1 1 d . . .
C8 C 0.0487(3) 0.8601(4) 0.2479(5) 0.0564(18) Uani 1 1 d . . .
C9 C -0.0116(4) 0.8413(5) 0.2821(6) 0.083(3) Uani 1 1 d . . .
H9 H -0.0525 0.8649 0.2602 0.099 Uiso 1 1 calc R . .
C10 C 0.1111(3) 0.8272(3) 0.2818(4) 0.0409(14) Uani 1 1 d . . .
C11 C 0.1733(3) 0.8517(3) 0.2369(4) 0.0332(12) Uani 1 1 d . . .
C12 C -0.0093(4) 0.7861(5) 0.3503(6) 0.085(3) Uani 1 1 d . . .
H12 H -0.0494 0.7712 0.3726 0.102 Uiso 1 1 calc R . .
C13 C 0.1118(3) 0.7743(4) 0.3521(4) 0.0438(14) Uani 1 1 d . . .
C14 C 0.1772(3) 0.7367(3) 0.3935(4) 0.0393(13) Uani 1 1 d . . .
C15 C 0.0515(3) 0.7541(5) 0.3843(5) 0.070(2) Uani 1 1 d . . .
H15 H 0.0523 0.7177 0.4303 0.084 Uiso 1 1 calc R . .
C16 C 0.3343(4) 1.0274(4) 0.4000(5) 0.0547(18) Uani 1 1 d . . .
C17 C 0.6217(3) 0.9555(3) 0.5121(4) 0.0477(15) Uani 1 1 d . . .
C18 C 0.5806(3) 1.0083(3) 0.4651(4) 0.0472(15) Uani 1 1 d . . .
H18 H 0.5818 1.0563 0.4883 0.057 Uiso 1 1 calc R . .
C19 C 0.6191(4) 0.8831(4) 0.4750(5) 0.063(2) Uani 1 1 d . . .
H19 H 0.6477 0.8466 0.5040 0.076 Uiso 1 1 calc R . .
C20 C 0.5378(3) 0.9917(3) 0.3845(4) 0.0480(15) Uani 1 1 d . . .
H20 H 0.5106 1.0284 0.3535 0.058 Uiso 1 1 calc R . .
C21 C 0.5735(4) 0.8665(4) 0.3944(5) 0.063(2) Uani 1 1 d . . .
H21 H 0.5697 0.8183 0.3718 0.075 Uiso 1 1 calc R . .
C22 C 0.5348(3) 0.9212(4) 0.3492(4) 0.0481(15) Uani 1 1 d . . .
C23 C 0.4916(3) 0.8525(4) 0.2099(5) 0.0525(17) Uani 1 1 d . . .
C24 C 0.5519(3) 0.8321(5) 0.1782(6) 0.082(3) Uani 1 1 d . . .
H24 H 0.5931 0.8542 0.2024 0.098 Uiso 1 1 calc R . .
C25 C 0.4290(3) 0.8220(3) 0.1732(4) 0.0378(13) Uani 1 1 d . . .
C26 C 0.3667(3) 0.8471(3) 0.2148(4) 0.0325(12) Uani 1 1 d . . .
C27 C 0.5501(4) 0.7784(5) 0.1100(6) 0.087(3) Uani 1 1 d U . .
H27 H 0.5905 0.7637 0.0886 0.104 Uiso 1 1 calc R . .
C28 C 0.4289(3) 0.7686(3) 0.1019(4) 0.0424(14) Uani 1 1 d . . .
C29 C 0.3628(3) 0.7338(3) 0.0573(4) 0.0353(12) Uani 1 1 d . . .
C30 C 0.4897(3) 0.7461(5) 0.0733(5) 0.068(2) Uani 1 1 d . . .
H30 H 0.4896 0.7088 0.0287 0.081 Uiso 1 1 calc R . .
C31 C 0.3360(5) 0.8733(6) -0.1023(7) 0.085(3) Uani 1 1 d U . .
H31 H 0.3300 0.8225 -0.1067 0.102 Uiso 1 1 calc R . .
C32 C 0.4116(8) 0.8614(7) -0.2215(10) 0.140(5) Uani 1 1 d U . .
H32A H 0.4039 0.8823 -0.2836 0.210 Uiso 1 1 calc R . .
H32B H 0.3979 0.8105 -0.2240 0.210 Uiso 1 1 calc R . .
H32C H 0.4594 0.8649 -0.1975 0.210 Uiso 1 1 calc R . .
C33 C 0.3694(13) 0.9790(12) -0.1779(18) 0.255(10) Uani 1 1 d U . .
H33A H 0.3293 0.9903 -0.2212 0.382 Uiso 1 1 calc R . .
H33B H 0.4095 0.9938 -0.2045 0.382 Uiso 1 1 calc R . .
H33C H 0.3676 1.0050 -0.1198 0.382 Uiso 1 1 calc R . .
C34 C 0.2031(4) 0.8758(5) 0.5541(6) 0.069(2) Uani 1 1 d U . .
H34 H 0.2174 0.8288 0.5739 0.082 Uiso 1 1 calc R . .
C35 C 0.1223(8) 0.8715(8) 0.6677(10) 0.151(5) Uani 1 1 d DU . .
H35A H 0.0795 0.8502 0.6411 0.227 Uiso 1 1 calc R . .
H35B H 0.1142 0.9084 0.7131 0.227 Uiso 1 1 calc R . .
H35C H 0.1514 0.8336 0.6981 0.227 Uiso 1 1 calc R . .
C36 C 0.1412(14) 0.9768(10) 0.5604(18) 0.283(12) Uani 1 1 d DU . .
H36A H 0.1786 0.9941 0.5294 0.425 Uiso 1 1 calc R . .
H36B H 0.1356 1.0088 0.6123 0.425 Uiso 1 1 calc R . .
H36C H 0.0999 0.9767 0.5165 0.425 Uiso 1 1 calc R . .
N1 N 0.3720(6) 0.9014(5) -0.1602(8) 0.130(3) Uani 1 1 d U . .
N2 N 0.1552(5) 0.9051(5) 0.5938(7) 0.112(3) Uani 1 1 d DU . .
O1 O 0.2110(2) 0.9649(2) 0.0761(3) 0.0523(12) Uani 1 1 d . . .
O2 O 0.1862(3) 1.0581(3) 0.1617(3) 0.0686(15) Uani 1 1 d . . .
O3 O 0.0513(2) 0.9166(3) 0.1833(3) 0.0649(14) Uani 1 1 d . . .
O4 O 0.1823(2) 0.8224(2) 0.1618(3) 0.0443(10) Uani 1 1 d . . .
O5 O 0.20918(19) 0.9030(2) 0.2797(3) 0.0400(9) Uani 1 1 d . . .
O6 O 0.23355(19) 0.7600(2) 0.3694(3) 0.0420(10) Uani 1 1 d . . .
O7 O 0.1718(2) 0.8144(2) -0.0479(3) 0.0498(11) Uani 1 1 d . . .
O8 O 0.2968(3) 1.0735(3) 0.3555(4) 0.097(2) Uani 1 1 d U . .
O9 O 0.3353(2) 0.9625(2) 0.3668(3) 0.0469(10) Uani 1 1 d . . .
O10 O 0.4872(2) 0.9116(3) 0.2709(3) 0.0622(13) Uani 1 1 d . . .
O11 O 0.35656(19) 0.8192(2) 0.2893(3) 0.0409(9) Uani 1 1 d . . .
O12 O 0.33151(19) 0.8988(2) 0.1714(3) 0.0406(9) Uani 1 1 d . . .
O13 O 0.30703(19) 0.7578(2) 0.0802(3) 0.0412(9) Uani 1 1 d . . .
O14 O 0.3681(2) 0.8159(2) 0.4985(3) 0.0479(11) Uani 1 1 d . . .
O15 O 0.3420(4) 1.0611(4) 0.1603(6) 0.138(3) Uani 1 1 d . . .
O16 O 0.3090(3) 0.9029(3) -0.0434(4) 0.0776(16) Uani 1 1 d . . .
O17 O 0.2318(3) 0.9041(3) 0.4927(3) 0.0672(14) Uani 1 1 d . . .

loop_
_atom_site_aniso_label
_atom_site_aniso_U_11
_atom_site_aniso_U_22
_atom_site_aniso_U_33
_atom_site_aniso_U_23
_atom_site_aniso_U_13
_atom_site_aniso_U_12
Mn1 0.0361(5) 0.0416(5) 0.0267(5) -0.0034(4) -0.0082(3) -0.0019(3)
Mn2 0.0364(5) 0.0424(5) 0.0257(5) 0.0028(4) -0.0075(3) 0.0033(3)
Mn3 0.0519(6) 0.0384(5) 0.0334(5) 0.0009(4) -0.0173(4) 0.0005(4)
C1 0.049(3) 0.049(4) 0.041(3) 0.009(3) -0.010(3) 0.005(3)
C2 0.051(3) 0.043(3) 0.037(3) 0.010(3) -0.010(3) 0.014(3)
C3 0.054(4) 0.052(4) 0.050(4) 0.001(3) -0.020(3) 0.012(3)
C4 0.078(5) 0.050(4) 0.046(4) -0.001(3) -0.009(3) 0.022(3)
C5 0.049(4) 0.066(4) 0.052(4) -0.001(3) -0.022(3) 0.008(3)
C6 0.061(4) 0.055(4) 0.069(5) 0.015(4) -0.002(4) 0.030(3)
C7 0.035(3) 0.063(4) 0.050(4) 0.020(3) -0.006(3) 0.009(3)
C8 0.031(3) 0.083(5) 0.053(4) 0.029(4) -0.005(3) 0.008(3)
C9 0.034(4) 0.131(8) 0.082(6) 0.050(5) 0.005(3) 0.020(4)
C10 0.031(3) 0.057(3) 0.031(3) 0.012(3) -0.009(2) 0.004(2)
C11 0.030(3) 0.041(3) 0.025(3) 0.010(2) -0.007(2) 0.003(2)
C12 0.041(4) 0.134(8) 0.082(6) 0.058(6) 0.012(4) 0.004(4)
C13 0.033(3) 0.062(4) 0.033(3) 0.013(3) -0.006(2) 0.002(3)
C14 0.040(3) 0.045(3) 0.028(3) 0.006(2) -0.014(2) 0.003(3)
C15 0.045(4) 0.106(6) 0.058(5) 0.045(4) 0.006(3) 0.006(4)
C16 0.067(4) 0.049(4) 0.041(4) -0.002(3) -0.021(3) 0.003(3)
C17 0.055(4) 0.043(3) 0.041(3) -0.006(3) -0.010(3) -0.006(3)
C18 0.054(4) 0.038(3) 0.044(4) -0.010(3) -0.012(3) -0.006(3)
C19 0.081(5) 0.042(3) 0.060(4) -0.008(3) -0.019(4) 0.001(3)
C20 0.048(3) 0.052(4) 0.041(3) -0.006(3) -0.008(3) -0.006(3)
C21 0.065(4) 0.048(4) 0.069(5) -0.024(4) -0.013(4) -0.004(3)
C22 0.039(3) 0.060(4) 0.043(3) -0.017(3) -0.004(3) -0.015(3)
C23 0.044(3) 0.069(4) 0.043(4) -0.025(3) -0.001(3) -0.018(3)
C24 0.032(3) 0.118(7) 0.095(6) -0.063(6) 0.007(4) -0.024(4)
C25 0.033(3) 0.047(3) 0.030(3) -0.008(2) -0.007(2) -0.004(2)
C26 0.031(3) 0.040(3) 0.023(3) -0.002(2) -0.010(2) -0.004(2)
C27 0.047(4) 0.127(6) 0.089(6) -0.045(5) 0.018(4) -0.012(4)
C28 0.035(3) 0.058(4) 0.031(3) -0.009(3) -0.007(2) -0.007(3)
C29 0.035(3) 0.043(3) 0.024(3) -0.004(2) -0.008(2) 0.000(2)
C30 0.044(4) 0.098(6) 0.061(5) -0.043(4) 0.010(3) -0.006(4)
C31 0.102(6) 0.086(5) 0.068(5) 0.004(5) 0.019(5) -0.022(5)
C32 0.182(9) 0.136(8) 0.113(7) -0.012(6) 0.061(7) -0.001(7)
C33 0.261(13) 0.231(13) 0.276(13) -0.008(9) 0.050(9) -0.015(9)
C34 0.077(5) 0.071(4) 0.061(4) 0.005(4) 0.019(4) 0.030(4)
C35 0.172(9) 0.145(8) 0.140(9) 0.028(7) 0.035(7) 0.014(7)
C36 0.290(15) 0.275(14) 0.289(15) 0.015(10) 0.054(10) 0.000(10)
N1 0.176(8) 0.089(5) 0.142(7) 0.013(5) 0.078(6) -0.008(5)
N2 0.136(6) 0.093(5) 0.118(6) 0.023(4) 0.055(5) 0.042(4)
O1 0.053(3) 0.042(2) 0.055(3) 0.008(2) -0.019(2) 0.0120(19)
O2 0.084(4) 0.063(3) 0.049(3) -0.006(2) -0.029(3) 0.015(3)
O3 0.040(2) 0.078(3) 0.071(3) 0.040(3) -0.015(2) 0.009(2)
O4 0.044(2) 0.055(2) 0.032(2) -0.0015(19) -0.0047(17) -0.0066(19)
O5 0.0348(19) 0.047(2) 0.034(2) 0.0046(17) -0.0093(16) 0.0006(17)
O6 0.035(2) 0.044(2) 0.044(2) 0.0089(18) -0.0065(17) 0.0005(17)
O7 0.046(2) 0.058(3) 0.041(2) -0.020(2) -0.0140(18) 0.0075(19)
O8 0.118(4) 0.076(4) 0.081(4) -0.011(3) -0.048(3) 0.032(3)
O9 0.053(2) 0.050(2) 0.033(2) -0.0041(19) -0.0119(18) -0.0112(19)
O10 0.043(2) 0.080(3) 0.058(3) -0.035(3) -0.012(2) -0.006(2)
O11 0.040(2) 0.047(2) 0.035(2) 0.0024(18) -0.0005(17) 0.0067(17)
O12 0.039(2) 0.046(2) 0.031(2) -0.0021(17) -0.0146(16) 0.0003(17)
O13 0.037(2) 0.046(2) 0.038(2) -0.0098(18) -0.0052(17) -0.0014(17)
O14 0.046(2) 0.052(2) 0.040(2) 0.017(2) -0.0181(18) -0.0088(19)
O15 0.115(6) 0.125(6) 0.164(7) 0.054(5) -0.017(5) -0.053(5)
O16 0.085(4) 0.100(4) 0.052(3) -0.005(3) 0.022(3) -0.019(3)
O17 0.078(4) 0.078(4) 0.047(3) 0.000(3) 0.013(3) 0.016(3)

_geom_special_details            
; 
 All esds (except the esd in the dihedral angle between two l.s. planes) 
 are estimated using the full covariance matrix.  The cell esds are taken 
 into account individually in the estimation of esds in distances, angles 
 and torsion angles; correlations between esds in cell parameters are only 
 used when they are defined by crystal symmetry.  An approximate (isotropic) 
 treatment of cell esds is used for estimating esds involving l.s. planes. 
;

loop_
_geom_bond_atom_site_label_1
_geom_bond_atom_site_label_2
_geom_bond_distance
_geom_bond_site_symmetry_2
_geom_bond_publ_flag
Mn1 O7 2.119(4) . ?
Mn1 O13 2.122(4) . ?
Mn1 O1 2.138(4) . ?
Mn1 O16 2.180(5) . ?
Mn1 O4 2.179(4) . ?
Mn1 O12 2.296(3) . ?
Mn2 O14 2.105(4) . ?
Mn2 O6 2.107(4) . ?
Mn2 O9 2.147(4) . ?
Mn2 O17 2.162(5) . ?
Mn2 O11 2.177(4) . ?
Mn2 O5 2.314(3) . ?
Mn3 O15 2.184(7) . ?
Mn3 O5 2.211(4) . ?
Mn3 O2 2.219(4) . ?
Mn3 O12 2.228(4) . ?
Mn3 O9 2.249(4) . ?
Mn3 O8 2.366(6) . ?
Mn3 O1 2.396(4) . ?
C1 O2 1.253(7) . ?
C1 O1 1.255(7) . ?
C1 C2 1.497(7) . ?
C2 C3 1.376(8) . ?
C2 C4 1.389(8) . ?
C3 C5 1.395(7) . ?
C4 C6 1.382(9) . ?
C5 C7 1.341(9) . ?
C6 C7 1.359(10) . ?
C7 O3 1.391(6) 3_575 ?
C8 O3 1.384(7) . ?
C8 C9 1.387(10) . ?
C8 C10 1.393(8) . ?
C9 C12 1.393(10) . ?
C10 C13 1.389(8) . ?
C10 C11 1.523(8) . ?
C11 O4 1.233(7) . ?
C11 O5 1.274(6) . ?
C12 C15 1.362(10) . ?
C13 C15 1.380(9) . ?
C13 C14 1.509(7) . ?
C14 O7 1.264(6) 4_576 ?
C14 O6 1.276(7) . ?
C16 O8 1.235(7) . ?
C16 O9 1.269(7) . ?
C16 C17 1.465(8) 3_676 ?
C17 C18 1.372(8) . ?
C17 C19 1.413(8) . ?
C17 C16 1.465(8) 3_676 ?
C18 C20 1.369(7) . ?
C19 C21 1.399(9) . ?
C20 C22 1.371(8) . ?
C21 C22 1.362(9) . ?
C22 O10 1.374(7) . ?
C23 C24 1.379(9) . ?
C23 C25 1.390(7) . ?
C23 O10 1.392(7) . ?
C24 C27 1.375(10) . ?
C25 C28 1.407(8) . ?
C25 C26 1.504(8) . ?
C26 O11 1.221(6) . ?
C26 O12 