####################################################################### 
# 
# This file contains crystal structure data downloaded from the 
# Cambridge Structural Database (CSD) hosted by the Cambridge 
# Crystallographic Data Centre (CCDC).
# 
# Full information about CCDC data access policies and citation 
# guidelines are available at http://www.ccdc.cam.ac.uk/access/V1 
# 
# Audit and citation data items may have been added by the CCDC. 
# Please retain this information to preserve the provenance of 
# this file and to allow appropriate attribution of the data. 
# 
#######################################################################

data_2
_audit_block_doi                 10.5517/cc12t265
_database_code_depnum_ccdc_archive 'CCDC 1007196'
loop_
_citation_id
_citation_doi
_citation_year
1 10.1016/j.poly.2014.09.022 2015
_audit_update_record             
;
2014-08-31 deposited with the CCDC.	2024-07-11 downloaded from the CCDC.
;
_audit_creation_date             2014-08-30
_audit_creation_method           
;
  Olex2 1.1
  (compiled 2011.08.18 svn.r1932, GUI svn.r3819)
;
_chemical_name_common            ?
_chemical_name_systematic        
;
 ? 
;
_chemical_formula_moiety         'C19 H14 Br Cu N6'
_chemical_formula_sum            'C19 H14 Br Cu N6'
_chemical_formula_weight         469.81
_chemical_melting_point          ?
loop_
_atom_type_symbol
_atom_type_description
_atom_type_scat_dispersion_real
_atom_type_scat_dispersion_imag
_atom_type_scat_source
C C 0.0181 0.0091 'International Tables Vol C Tables 4.2.6.8 and 6.1.1.4'
H H 0.0000 0.0000 'International Tables Vol C Tables 4.2.6.8 and 6.1.1.4'
Br Br -0.6763 1.2805 'International Tables Vol C Tables 4.2.6.8 and 6.1.1.4'
Cu Cu -1.9646 0.5888 'International Tables Vol C Tables 4.2.6.8 and 6.1.1.4'
N N 0.0311 0.0180 'International Tables Vol C Tables 4.2.6.8 and 6.1.1.4'

_space_group_crystal_system      triclinic
_space_group_IT_number           2
_space_group_name_H-M_alt        'P -1'
_space_group_name_Hall           '-P 1'
loop_
_space_group_symop_id
_space_group_symop_operation_xyz
1 'x, y, z'
2 '-x, -y, -z'

_cell_length_a                   9.3072(7)
_cell_length_b                   9.6668(7)
_cell_length_c                   15.5198(11)
_cell_angle_alpha                98.919(6)
_cell_angle_beta                 106.103(6)
_cell_angle_gamma                98.562(6)
_cell_volume                     1297.96(16)
_cell_formula_units_Z            2
_cell_measurement_reflns_used    ?
_cell_measurement_temperature    100(2)
_cell_measurement_theta_max      ?
_cell_measurement_theta_min      ?
_exptl_absorpt_coefficient_mu    3.086
_exptl_absorpt_correction_T_max  0.8130
_exptl_absorpt_correction_T_min  0.7084
_exptl_absorpt_correction_type   ?
_exptl_absorpt_process_details   ?
_exptl_crystal_colour            ?
_exptl_crystal_density_diffrn    1.202
_exptl_crystal_density_meas      ?
_exptl_crystal_density_method    'not measured'
_exptl_crystal_description       rod
_exptl_crystal_F_000             468
_exptl_crystal_size_max          0.12
_exptl_crystal_size_mid          0.09
_exptl_crystal_size_min          0.07
_exptl_special_details           
;
 ? 
;
_diffrn_reflns_av_R_equivalents  0.0000
_diffrn_reflns_av_unetI/netI     0.0799
_diffrn_reflns_limit_h_max       10
_diffrn_reflns_limit_h_min       -11
_diffrn_reflns_limit_k_max       11
_diffrn_reflns_limit_k_min       -11
_diffrn_reflns_limit_l_max       18
_diffrn_reflns_limit_l_min       0
_diffrn_reflns_number            4656
_diffrn_reflns_theta_full        67.40
_diffrn_reflns_theta_max         67.40
_diffrn_reflns_theta_min         3.03
_diffrn_ambient_temperature      100.15
_diffrn_detector_area_resol_mean ?
_diffrn_measured_fraction_theta_full 0.995
_diffrn_measured_fraction_theta_max 0.995
_diffrn_measurement_device_type  ?
_diffrn_measurement_method       ?
_diffrn_radiation_monochromator  graphite
_diffrn_radiation_type           'CU K\a'
_diffrn_radiation_wavelength     1.54184
_diffrn_source                   'fine-focus sealed tube'
_diffrn_source_current           n/a
_diffrn_source_voltage           n/a
_diffrn_standards_decay_%        ?
_diffrn_standards_interval_count ?
_diffrn_standards_interval_time  ?
_diffrn_standards_number         ?
_reflns_number_gt                3620
_reflns_number_total             4656
_reflns_threshold_expression     >2sigma(I)
_computing_cell_refinement       ?
_computing_data_collection       ?
_computing_data_reduction        ?
_computing_molecular_graphics    
;
O. V. Dolomanov, L. J. Bourhis, R. J. Gildea, J. A. K. Howard and H. Puschmann,
OLEX2: a complete structure solution, refinement and analysis program.
J. Appl. Cryst. (2009). 42, 339-341.
;
_computing_publication_material  
;
O. V. Dolomanov, L. J. Bourhis, R. J. Gildea, J. A. K. Howard and H. Puschmann,
OLEX2: a complete structure solution, refinement and analysis program.
J. Appl. Cryst. (2009). 42, 339-341.
;
_computing_structure_refinement  
;
XL, G.M. Sheldrick, Acta Cryst.
(2008). A64, 112-122
;
_computing_structure_solution    'SHELXS-97 (Sheldrick, 1990)'
_refine_diff_density_max         1.015
_refine_diff_density_min         -0.964
_refine_diff_density_rms         0.146
_refine_ls_extinction_coef       ?
_refine_ls_extinction_method     none
_refine_ls_goodness_of_fit_ref   1.070
_refine_ls_hydrogen_treatment    mixed
_refine_ls_matrix_type           full
_refine_ls_number_parameters     244
_refine_ls_number_reflns         4656
_refine_ls_number_restraints     0
_refine_ls_R_factor_all          0.0808
_refine_ls_R_factor_gt           0.0687
_refine_ls_restrained_S_all      1.070
_refine_ls_shift/su_max          0.000
_refine_ls_shift/su_mean         0.000
_refine_ls_structure_factor_coef Fsqd
_refine_ls_weighting_details     
'calc w=1/[\s^2^(Fo^2^)+(0.0852P)^2^+5.8827P] where P=(Fo^2^+2Fc^2^)/3'
_refine_ls_weighting_scheme      calc
_refine_ls_wR_factor_gt          0.1815
_refine_ls_wR_factor_ref         0.1880
_refine_special_details          
;
 Refinement of F^2^ against ALL reflections.  The weighted R-factor wR and 
 goodness of fit S are based on F^2^, conventional R-factors R are based 
 on F, with F set to zero for negative F^2^. The threshold expression of 
 F^2^ > 2sigma(F^2^) is used only for calculating R-factors(gt) etc. and is 
 not relevant to the choice of reflections for refinement.  R-factors based 
 on F^2^ are statistically about twice as large as those based on F, and R- 
 factors based on ALL data will be even larger. 
;
_atom_sites_solution_hydrogens   geom
_atom_sites_solution_primary     direct
_atom_sites_solution_secondary   difmap
loop_
_atom_site_label
_atom_site_type_symbol
_atom_site_fract_x
_atom_site_fract_y
_atom_site_fract_z
_atom_site_U_iso_or_equiv
_atom_site_adp_type
_atom_site_occupancy
_atom_site_symmetry_multiplicity
_atom_site_calc_flag
_atom_site_refinement_flags
_atom_site_disorder_assembly
_atom_site_disorder_group
Cu1 Cu 0.76438(10) 0.24727(9) 0.11725(6) 0.0229(2) Uani 1 1 d . . .
N3 N 0.0810(6) 0.1374(6) -0.1413(3) 0.0224(11) Uani 1 1 d . . .
N1 N 0.5342(6) 0.1723(5) 0.0910(3) 0.0228(10) Uani 1 1 d . . .
N4 N -0.0285(6) 0.3160(6) -0.0759(3) 0.0235(11) Uani 1 1 d . . .
N6 N -0.1701(6) 0.3018(6) 0.0117(3) 0.0248(11) Uani 1 1 d . . .
N5 N -0.0477(6) 0.2647(6) -0.0044(3) 0.0243(11) Uani 1 1 d . . .
N2 N 0.1278(6) -0.0844(6) -0.1491(4) 0.0250(11) Uani 1 1 d . . .
C6 C 0.1646(7) 0.0457(6) -0.0998(4) 0.0196(11) Uani 1 1 d . . .
C2 C 0.3366(7) 0.1114(7) 0.1571(4) 0.0246(13) Uani 1 1 d . . .
H2 H 0.3072 0.1039 0.2104 0.030 Uiso 1 1 calc R . .
C7 C 0.0139(8) -0.0786(7) -0.2287(4) 0.0271(13) Uani 1 1 d . . .
C1 C 0.4835(7) 0.1556(7) 0.1631(4) 0.0245(13) Uani 1 1 d . . .
H1 H 0.5570 0.1766 0.2221 0.029 Uiso 1 1 calc R . .
C19 C -0.2316(7) 0.3770(6) -0.0534(4) 0.0233(12) Uani 1 1 d . . .
C12 C -0.0182(7) 0.0557(7) -0.2257(4) 0.0232(12) Uani 1 1 d . . .
C11 C -0.1294(8) 0.0908(7) -0.2938(4) 0.0289(14) Uani 1 1 d . . .
H11 H -0.1493 0.1847 -0.2909 0.035 Uiso 1 1 calc R . .
C4 C 0.2733(7) 0.0881(7) -0.0057(4) 0.0252(13) Uani 1 1 d . . .
C5 C 0.4302(8) 0.1388(6) 0.0089(4) 0.0255(13) Uani 1 1 d . . .
H5 H 0.4631 0.1495 -0.0429 0.031 Uiso 1 1 calc R . .
C3 C 0.2271(7) 0.0766(7) 0.0694(5) 0.0300(14) Uani 1 1 d . . .
H3 H 0.1222 0.0453 0.0627 0.036 Uiso 1 1 calc R . .
C14 C -0.1406(7) 0.3885(6) -0.1108(4) 0.0245(13) Uani 1 1 d . . .
C13 C 0.0987(7) 0.2887(6) -0.1089(4) 0.0227(12) Uani 1 1 d . . .
H13A H 0.1017 0.3394 -0.1593 0.027 Uiso 1 1 calc R . .
H13B H 0.1960 0.3249 -0.0587 0.027 Uiso 1 1 calc R . .
C18 C -0.3623(7) 0.4381(7) -0.0670(4) 0.0261(13) Uani 1 1 d . . .
H18 H -0.4249 0.4318 -0.0282 0.031 Uiso 1 1 calc R . .
C10 C -0.2099(8) -0.0214(8) -0.3669(4) 0.0322(15) Uani 1 1 d . . .
H10 H -0.2860 -0.0028 -0.4164 0.039 Uiso 1 1 calc R . .
C17 C -0.3955(7) 0.5073(7) -0.1390(5) 0.0286(14) Uani 1 1 d . . .
H17 H -0.4850 0.5464 -0.1509 0.034 Uiso 1 1 calc R . .
C9 C -0.1837(8) -0.1600(7) -0.3706(4) 0.0290(14) Uani 1 1 d . . .
H9 H -0.2459 -0.2337 -0.4207 0.035 Uiso 1 1 calc R . .
C8 C -0.0710(8) -0.1925(8) -0.3044(5) 0.0311(15) Uani 1 1 d . . .
H8 H -0.0499 -0.2860 -0.3084 0.037 Uiso 1 1 calc R . .
C15 C -0.1717(7) 0.4629(7) -0.1824(4) 0.0268(13) Uani 1 1 d . . .
H15 H -0.1073 0.4725 -0.2200 0.032 Uiso 1 1 calc R . .
C16 C -0.3021(8) 0.5222(7) -0.1956(5) 0.0336(15) Uani 1 1 d . . .
H16 H -0.3280 0.5733 -0.2434 0.040 Uiso 1 1 calc R . .
Br1 Br 0.80856(7) 0.45548(7) 0.24200(4) 0.0240(2) Uani 1 1 d . . .

loop_
_atom_site_aniso_label
_atom_site_aniso_U_11
_atom_site_aniso_U_22
_atom_site_aniso_U_33
_atom_site_aniso_U_23
_atom_site_aniso_U_13
_atom_site_aniso_U_12
Cu1 0.0217(5) 0.0231(5) 0.0234(5) 0.0055(3) 0.0072(4) 0.0014(3)
N3 0.019(3) 0.027(3) 0.023(2) 0.016(2) 0.002(2) 0.008(2)
N1 0.026(3) 0.017(2) 0.020(2) -0.0043(19) 0.005(2) 0.0000(19)
N4 0.017(2) 0.032(3) 0.019(2) 0.006(2) 0.003(2) 0.001(2)
N6 0.028(3) 0.026(3) 0.020(2) 0.001(2) 0.008(2) 0.003(2)
N5 0.024(3) 0.026(3) 0.024(2) 0.006(2) 0.009(2) 0.004(2)
N2 0.022(3) 0.024(3) 0.029(3) 0.004(2) 0.009(2) 0.002(2)
C6 0.020(3) 0.020(3) 0.019(3) 0.003(2) 0.008(2) 0.003(2)
C2 0.024(3) 0.028(3) 0.023(3) 0.012(2) 0.007(2) 0.006(2)
C7 0.029(3) 0.030(3) 0.020(3) -0.005(2) 0.015(3) -0.003(3)
C1 0.029(3) 0.029(3) 0.016(3) 0.009(2) 0.007(2) 0.005(3)
C19 0.022(3) 0.021(3) 0.024(3) 0.000(2) 0.007(2) 0.001(2)
C12 0.029(3) 0.026(3) 0.016(3) 0.003(2) 0.012(2) -0.001(2)
C11 0.029(3) 0.025(3) 0.026(3) 0.004(3) 0.002(3) 0.002(3)
C4 0.024(3) 0.030(3) 0.030(3) 0.020(3) 0.010(3) 0.013(3)
C5 0.031(3) 0.019(3) 0.024(3) 0.003(2) 0.009(3) 0.000(2)
C3 0.020(3) 0.034(4) 0.029(3) 0.006(3) 0.002(3) -0.004(3)
C14 0.023(3) 0.021(3) 0.026(3) 0.007(2) 0.005(2) -0.002(2)
C13 0.021(3) 0.024(3) 0.024(3) 0.009(2) 0.008(2) 0.001(2)
C18 0.028(3) 0.025(3) 0.019(3) -0.002(2) 0.005(2) -0.002(2)
C10 0.036(4) 0.041(4) 0.022(3) 0.005(3) 0.009(3) 0.014(3)
C17 0.020(3) 0.030(3) 0.036(3) 0.015(3) 0.004(3) 0.008(3)
C9 0.030(3) 0.028(3) 0.021(3) 0.003(2) 0.002(3) -0.001(3)
C8 0.030(4) 0.032(3) 0.029(3) 0.014(3) 0.006(3) -0.003(3)
C15 0.025(3) 0.027(3) 0.031(3) 0.010(3) 0.010(3) 0.005(3)
C16 0.034(4) 0.019(3) 0.044(4) 0.002(3) 0.009(3) 0.003(3)
Br1 0.0253(4) 0.0235(3) 0.0223(3) 0.0054(2) 0.0075(2) 0.0016(2)

_geom_special_details            
;
 All esds (except the esd in the dihedral angle between two l.s. planes) 
 are estimated using the full covariance matrix.  The cell esds are taken 
 into account individually in the estimation of esds in distances, angles 
 and torsion angles; correlations between esds in cell parameters are only 
 used when they are defined by crystal symmetry.  An approximate (isotropic) 
 treatment of cell esds is used for estimating esds involving l.s. planes. 
;
loop_
_geom_bond_atom_site_label_1
_geom_bond_atom_site_label_2
_geom_bond_distance
_geom_bond_site_symmetry_2
_geom_bond_publ_flag
Cu1 N1 2.060(5) . ?
Cu1 N6 2.015(5) 1_655 ?
Cu1 N2 2.041(6) 2_655 ?
Cu1 Br1 2.4642(11) . ?
N3 C6 1.383(8) . ?
N3 C12 1.408(8) . ?
N3 C13 1.439(8) . ?
N1 C1 1.351(8) . ?
N1 C5 1.326(8) . ?
N4 N5 1.328(7) . ?
N4 C14 1.376(8) . ?
N4 C13 1.457(8) . ?
N6 Cu1 2.015(5) 1_455 ?
N6 N5 1.319(8) . ?
N6 C19 1.381(8) . ?
N2 Cu1 2.041(6) 2_655 ?
N2 C6 1.309(8) . ?
N2 C7 1.401(9) . ?
C6 C4 1.482(8) . ?
C2 H2 0.9500 . ?
C2 C1 1.343(9) . ?
C2 C3 1.411(9) . ?
C7 C12 1.372(10) . ?
C7 C8 1.429(9) . ?
C1 H1 0.9500 . ?
C19 C14 1.395(9) . ?
C19 C18 1.408(9) . ?
C12 C11 1.383(9) . ?
C11 H11 0.9500 . ?
C11 C10 1.389(10) . ?
C4 C5 1.412(9) . ?
C4 C3 1.363(9) . ?
C5 H5 0.9500 . ?
C3 H3 0.9500 . ?
C14 C15 1.403(9) . ?
C13 H13A 0.9900 . ?
C13 H13B 0.9900 . ?
C18 H18 0.9500 . ?
C18 C17 1.376(9) . ?
C10 H10 0.9500 . ?
C10 C9 1.392(10) . ?
C17 H17 0.9500 . ?
C17 C16 1.404(11) . ?
C9 H9 0.9500 . ?
C9 C8 1.362(10) . ?
C8 H8 0.9500 . ?
C15 H15 0.9500 . ?
C15 C16 1.396(10) . ?
C16 H16 0.9500 . ?

loop_
_geom_angle_atom_site_label_1
_geom_angle_atom_site_label_2
_geom_angle_atom_site_label_3
_geom_angle
_geom_angle_site_symmetry_1
_geom_angle_site_symmetry_3
_geom_angle_publ_flag
N1 Cu1 Br1 100.23(14) . . ?
N6 Cu1 N1 116.3(2) 1_655 . ?
N6 Cu1 N2 104.5(2) 1_655 2_655 ?
N6 Cu1 Br1 112.04(15) 1_655 . ?
N2 Cu1 N1 107.2(2) 2_655 . ?
N2 Cu1 Br1 116.95(15) 2_655 . ?
C6 N3 C12 106.3(5) . . ?
C6 N3 C13 127.4(5) . . ?
C12 N3 C13 126.2(5) . . ?
C1 N1 Cu1 117.7(4) . . ?
C5 N1 Cu1 125.6(4) . . ?
C5 N1 C1 116.7(6) . . ?
N5 N4 C14 112.1(5) . . ?
N5 N4 C13 119.5(5) . . ?
C14 N4 C13 128.3(5) . . ?
N5 N6 Cu1 120.5(4) . 1_455 ?
N5 N6 C19 108.0(5) . . ?
C19 N6 Cu1 131.5(4) . 1_455 ?
N6 N5 N4 108.3(5) . . ?
C6 N2 Cu1 125.1(4) . 2_655 ?
C6 N2 C7 104.7(5) . . ?
C7 N2 Cu1 129.9(4) . 2_655 ?
N3 C6 C4 123.0(5) . . ?
N2 C6 N3 112.9(5) . . ?
N2 C6 C4 123.9(5) . . ?
C1 C2 H2 121.0 . . ?
C1 C2 C3 118.1(6) . . ?
C3 C2 H2 121.0 . . ?
N2 C7 C8 128.4(6) . . ?
C12 C7 N2 111.3(5) . . ?
C12 C7 C8 120.2(6) . . ?
N1 C1 H1 117.7 . . ?
C2 C1 N1 124.6(6) . . ?
C2 C1 H1 117.7 . . ?
N6 C19 C14 109.0(5) . . ?
N6 C19 C18 130.6(6) . . ?
C14 C19 C18 120.5(6) . . ?
C7 C12 N3 104.8(5) . . ?
C7 C12 C11 123.7(6) . . ?
C11 C12 N3 131.5(6) . . ?
C12 C11 H11 122.4 . . ?
C12 C11 C10 115.1(6) . . ?
C10 C11 H11 122.4 . . ?
C5 C4 C6 120.6(5) . . ?
C3 C4 C6 121.7(6) . . ?
C3 C4 C5 117.6(6) . . ?
N1 C5 C4 123.5(6) . . ?
N1 C5 H5 118.2 . . ?
C4 C5 H5 118.2 . . ?
C2 C3 H3 120.3 . . ?
C4 C3 C2 119.4(6) . . ?
C4 C3 H3 120.3 . . ?
N4 C14 C19 102.6(5) . . ?
N4 C14 C15 135.0(6) . . ?
C19 C14 C15 122.3(6) . . ?
N3 C13 N4 109.6(5) . . ?
N3 C13 H13A 109.7 . . ?
N3 C13 H13B 109.7 . . ?
N4 C13 H13A 109.7 . . ?
N4 C13 H13B 109.7 . . ?
H13A C13 H13B 108.2 . . ?
C19 C18 H18 121.4 . . ?
C17 C18 C19 117.2(6) . . ?
C17 C18 H18 121.4 . . ?
C11 C10 H10 118.7 . . ?
C11 C10 C9 122.7(6) . . ?
C9 C10 H10 118.7 . . ?
C18 C17 H17 118.7 . . ?
C18 C17 C16 122.6(6) . . ?
C16 C17 H17 118.7 . . ?
C10 C9 H9 119.2 . . ?
C8 C9 C10 121.7(6) . . ?
C8 C9 H9 119.2 . . ?
C7 C8 H8 121.7 . . ?
C9 C8 C7 116.6(7) . . ?
C9 C8 H8 121.7 . . ?
C14 C15 H15 121.7 . . ?
C16 C15 C14 116.6(6) . . ?
C16 C15 H15 121.7 . . ?
C17 C16 H16 119.6 . . ?
C15 C16 C17 120.8(7) . . ?
C15 C16 H16 119.6 . . ?

loop_
_geom_torsion_atom_site_label_1
_geom_torsion_atom_site_label_2
_geom_torsion_atom_site_label_3
_geom_torsion_atom_site_label_4
_geom_torsion
_geom_torsion_site_symmetry_1
_geom_torsion_site_symmetry_2
_geom_torsion_site_symmetry_3
_geom_torsion_site_symmetry_4
_geom_torsion_publ_flag
Cu1 N1 C1 C2 178.2(5) . . . . ?
Cu1 N1 C5 C4 -179.8(5) . . . . ?
Cu1 N6 N5 N4 -178.7(4) 1_455 . . . ?
Cu1 N6 C19 C14 178.7(4) 1_455 . . . ?
Cu1 N6 C19 C18 -1.0(10) 1_455 . . . ?
Cu1 N2 C6 N3 174.8(4) 2_655 . . . ?
Cu1 N2 C6 C4 -10.7(8) 2_655 . . . ?
Cu1 N2 C7 C12 -174.6(4) 2_655 . . . ?
Cu1 N2 C7 C8 8.9(10) 2_655 . . . ?
N3 C6 C4 C5 -94.7(7) . . . . ?
N3 C6 C4 C3 87.0(8) . . . . ?
N3 C12 C11 C10 -177.4(6) . . . . ?
N4 C14 C15 C16 179.7(7) . . . . ?
N6 Cu1 N1 C1 -170.1(4) 1_655 . . . ?
N6 Cu1 N1 C5 9.8(6) 1_655 . . . ?
N6 C19 C14 N4 0.7(6) . . . . ?
N6 C19 C14 C15 -178.2(6) . . . . ?
N6 C19 C18 C17 -179.8(6) . . . . ?
N5 N4 C14 C19 0.0(7) . . . . ?
N5 N4 C14 C15 178.7(7) . . . . ?
N5 N4 C13 N3 63.4(7) . . . . ?
N5 N6 C19 C14 -1.1(7) . . . . ?
N5 N6 C19 C18 179.2(6) . . . . ?
N2 Cu1 N1 C1 73.4(5) 2_655 . . . ?
N2 Cu1 N1 C5 -106.7(5) 2_655 . . . ?
N2 C6 C4 C5 91.4(8) . . . . ?
N2 C6 C4 C3 -87.0(8) . . . . ?
N2 C7 C12 N3 0.7(7) . . . . ?
N2 C7 C12 C11 -177.8(6) . . . . ?
N2 C7 C8 C9 175.4(6) . . . . ?
C6 N3 C12 C7 -0.3(6) . . . . ?
C6 N3 C12 C11 178.1(7) . . . . ?
C6 N3 C13 N4 -107.6(6) . . . . ?
C6 N2 C7 C12 -0.8(7) . . . . ?
C6 N2 C7 C8 -177.4(6) . . . . ?
C6 C4 C5 N1 -176.8(6) . . . . ?
C6 C4 C3 C2 176.7(6) . . . . ?
C7 N2 C6 N3 0.6(7) . . . . ?
C7 N2 C6 C4 175.1(5) . . . . ?
C7 C12 C11 C10 0.7(10) . . . . ?
C1 N1 C5 C4 0.1(9) . . . . ?
C1 C2 C3 C4 0.2(10) . . . . ?
C19 N6 N5 N4 1.1(6) . . . . ?
C19 C14 C15 C16 -1.9(9) . . . . ?
C19 C18 C17 C16 -2.2(10) . . . . ?
C12 N3 C6 N2 -0.2(7) . . . . ?
C12 N3 C6 C4 -174.7(5) . . . . ?
C12 N3 C13 N4 77.6(7) . . . . ?
C12 C7 C8 C9 -0.9(9) . . . . ?
C12 C11 C10 C9 1.5(10) . . . . ?
C11 C10 C9 C8 -3.5(11) . . . . ?
C5 N1 C1 C2 -1.7(9) . . . . ?
C5 C4 C3 C2 -1.7(10) . . . . ?
C3 C2 C1 N1 1.6(10) . . . . ?
C3 C4 C5 N1 1.6(10) . . . . ?
C14 N4 N5 N6 -0.7(7) . . . . ?
C14 N4 C13 N3 -114.9(6) . . . . ?
C14 C19 C18 C17 0.5(9) . . . . ?
C14 C15 C16 C17 0.2(10) . . . . ?
C13 N3 C6 N2 -175.8(5) . . . . ?
C13 N3 C6 C4 9.7(9) . . . . ?
C13 N3 C12 C7 175.4(5) . . . . ?
C13 N3 C12 C11 -6.2(10) . . . . ?
C13 N4 N5 N6 -179.3(5) . . . . ?
C13 N4 C14 C19 178.5(6) . . . . ?
C13 N4 C14 C15 -2.9(11) . . . . ?
C18 C19 C14 N4 -179.6(5) . . . . ?
C18 C19 C14 C15 1.5(9) . . . . ?
C18 C17 C16 C15 1.9(11) . . . . ?
C10 C9 C8 C7 3.0(10) . . . . ?
C8 C7 C12 N3 177.5(5) . . . . ?
C8 C7 C12 C11 -1.0(10) . . . . ?
Br1 Cu1 N1 C1 -49.1(5) . . . . ?
Br1 Cu1 N1 C5 130.8(5) . . . . ?

loop_
_platon_squeeze_void_nr
_platon_squeeze_void_average_x
_platon_squeeze_void_average_y
_platon_squeeze_void_average_z
_platon_squeeze_void_volume
_platon_squeeze_void_count_electrons
_platon_squeeze_void_content
1 -0.018 -0.005 0.500 510 379 ' '

