
#######################################################################
#
#                 Cambridge Crystallographic Data Centre
#                                CCDC
#
#######################################################################
#
# If this CIF has been generated from an entry in the Cambridge
# Structural Database, then it will include bibliographic, chemical,
# crystal, experimental, refinement or atomic coordinate data resulting
# from the CCDC's data processing and validation procedures.
#
#######################################################################

data_CSD_CIF_NORLIP
_audit_creation_date 1998-07-29
_audit_creation_method CSD-ConQuest-V1
_database_code_CSD NORLIP
_database_code_depnum_ccdc_archive 'CCDC 1222634'
_chemical_formula_sum 'C40 H49 Fe1 Ga1 O4'
_chemical_formula_moiety
;
C40 H49 Fe1 Ga1 O4
;
_journal_coden_Cambridge 579
_journal_volume 16
_journal_year 1997
_journal_page_first 4511
_journal_name_full 'Organometallics '
loop_
_publ_author_name
"Jianrui Su"
"Xiao-Wang Li"
"R.C.Crittendon"
"C.F.Campana"
"G.H.Robinson"
_chemical_name_systematic
;
Tetracarbonyl-(2,6-bis(2,4,6-tri-isopropylphenyl)phenyl)-gallium-iron
;
_chemical_name_common
;
Teaching Subset: Fundamental Chemistry, Symmetry
;
_chemical_melting_point 497.3
_cell_volume   1962.575
_exptl_crystal_colour 'pale yellow'
_exptl_crystal_density_diffrn 1.217
_exptl_crystal_description 'prism'
_diffrn_ambient_temperature ?
_diffrn_special_details
;
The study was carried out at room temperature,in the range 283-303K
non-merohedral twin
;
_refine_special_details
;
The isopropyl groups, C14-22, and associated hydrogen atoms are disordered.

;
#These two values have been output from a single CSD field.
_refine_ls_R_factor_gt 0.0681
_refine_ls_wR_factor_gt 0.0681
_symmetry_cell_setting monoclinic
_symmetry_space_group_name_H-M 'P 21/m'
_symmetry_Int_Tables_number 11
loop_
_symmetry_equiv_pos_site_id
_symmetry_equiv_pos_as_xyz
1 x,y,z
2 -x,1/2+y,-z
3 -x,-y,-z
4 x,-1/2-y,z
_cell_length_a 8.8708(4)
_cell_length_b 24.3484(11)
_cell_length_c 9.4858(4)
_cell_angle_alpha 90
_cell_angle_beta 106.685(1)
_cell_angle_gamma 90
_cell_formula_units_Z 2
loop_
_atom_type_symbol
_atom_type_radius_bond
C 0.68
H 0.23
Fe 1.34
Ga 1.22
O 0.68
loop_
_atom_site_label
_atom_site_type_symbol
_atom_site_fract_x
_atom_site_fract_y
_atom_site_fract_z
Ga1 Ga 0.3491(1) 0.75000 0.1901(1)
Fe1 Fe 0.2342(1) 0.75000 0.3700(1)
C1 C 0.0573(8) 0.75000 0.2264(6)
O1 O -0.0649(5) 0.75000 0.1380(4)
C2 C 0.3319(5) 0.6877(1) 0.4329(4)
O2 O 0.3946(4) 0.6473(1) 0.4820(3)
C3 C 0.1389(6) 0.75000 0.5110(5)
O3 O 0.0752(4) 0.75000 0.6002(4)
C4 C 0.4467(4) 0.75000 0.0311(4)
C5 C 0.4802(3) 0.6998(1) -0.0252(3)
C6 C 0.5492(3) 0.7008(1) -0.1377(3)
C7 C 0.5833(5) 0.75000 -0.1939(5)
C8 C 0.4376(3) 0.6473(1) 0.0401(3)
C9 C 0.2892(4) 0.6234(1) -0.0209(3)
C10 C 0.2521(4) 0.5769(1) 0.0460(4)
C11 C 0.3531(5) 0.5527(1) 0.1675(4)
C12 C 0.4980(5) 0.5766(1) 0.2227(4)
C13 C 0.5448(4) 0.6235(1) 0.1624(3)
C14 C 0.1730(4) 0.6452(1) -0.1597(4)
C15 C 0.1475(19) 0.5995(6) -0.2739(17)
C16 C 0.0153(14) 0.6626(7) -0.1454(19)
C17 C 0.3029(8) 0.5017(2) 0.2360(6)
C18 C 0.4030(15) 0.4562(4) 0.2577(15)
C19 C 0.2473(18) 0.5158(7) 0.3610(17)
C20 C 0.7089(5) 0.6455(2) 0.2258(5)
C21 C 0.8397(22) 0.6079(7) 0.2284(21)
C22 C 0.7363(15) 0.6754(8) 0.3696(16)
H1 H 0.5731(3) 0.6679(1) -0.1764(3)
H2 H 0.6297(5) 0.75000 -0.2702(5)
H3 H 0.1534(4) 0.5612(1) 0.0065(4)
H4 H 0.5686(5) 0.5607(1) 0.3045(4)
H5 H 0.2209(4) 0.6767(1) -0.1951(4)
H6 H 0.2463(20) 0.590(1) -0.2900(27)
H7 H 0.0757(31) 0.6118(8) -0.3646(20)
H8 H 0.1045(38) 0.5678(8) -0.2389(23)
H9 H 0.0271(14) 0.6957(10) -0.0884(33)
H10 H -0.0262(25) 0.6341(9) -0.0971(43)
H11 H -0.0557(17) 0.6690(15) -0.2414(18)
H12 H 0.2079(8) 0.4893(2) 0.1614(6)
H13 H 0.3598(23) 0.4271(6) 0.3023(32)
H14 H 0.5046(19) 0.4663(6) 0.3210(28)
H15 H 0.4133(29) 0.4441(8) 0.1646(15)
H16 H 0.1965(36) 0.4845(8) 0.3888(27)
H17 H 0.1736(26) 0.5456(10) 0.3348(17)
H18 H 0.3348(18) 0.5267(12) 0.4421(17)
H19 H 0.7179(5) 0.6742(2) 0.1564(5)
H20 H 0.8140(32) 0.5867(14) 0.1393(27)
H21 H 0.8567(31) 0.5837(11) 0.3114(31)
H22 H 0.9335(26) 0.6288(7) 0.2361(45)
H23 H 0.6484(15) 0.6990(8) 0.3652(16)
H24 H 0.8304(15) 0.6970(8) 0.3878(16)
H25 H 0.7474(15) 0.6493(8) 0.4478(16)
C23? C 0.1730(4) 0.6452(1) -0.1597(4)
C24? C 0.1608(17) 0.6133(7) -0.2944(15)
C25? C 0.0169(17) 0.6543(8) -0.1328(23)
C26? C 0.3029(8) 0.5017(2) 0.2360(6)
C27? C 0.3265(23) 0.4535(6) 0.1726(21)
C28? C 0.2076(20) 0.5085(6) 0.3227(21)
C29? C 0.7089(5) 0.6455(2) 0.2258(5)
C30? C 0.8255(20) 0.6077(7) 0.1978(18)
C31? C 0.7445(15) 0.6534(6) 0.3913(11)
H26? H 0.2115(17) 0.6816(7) -0.1767(15)
H27? H 0.2625(20) 0.6110(14) -0.3108(26)
H28? H 0.0885(38) 0.631(1) -0.3768(16)
H29? H 0.1235(37) 0.5770(8) -0.2833(20)
H30? H -0.0426(24) 0.6208(7) -0.1507(41)
H31? H -0.0395(25) 0.6824(11) -0.1979(39)
H32? H 0.0326(17) 0.6656(18) -0.0327(27)
H33? H 0.3999(23) 0.4993(6) 0.3176(21)
H34? H 0.3031(42) 0.4233(6) 0.2280(31)
H35? H 0.4342(25) 0.4512(7) 0.1716(34)
H36? H 0.2587(34) 0.4520(8) 0.0735(25)
H37? H 0.2013(40) 0.4748(7) 0.3730(38)
H38? H 0.1044(20) 0.5188(14) 0.2634(20)
H39? H 0.2492(25) 0.5369(11) 0.3936(28)
H40? H 0.7175(20) 0.6810(7) 0.1801(18)
H41? H 0.8272(38) 0.6115(10) 0.0975(19)
H42? H 0.7982(32) 0.5707(7) 0.2149(41)
H43? H 0.9276(22) 0.6163(12) 0.2626(27)
H44? H 0.6690(21) 0.6782(11) 0.4112(11)
H45? H 0.8483(17) 0.6684(12) 0.4298(11)
H46? H 0.7387(38) 0.6186(7) 0.4372(12)
C2C C 0.3319(5) 0.8123(1) 0.4329(4)
O2C O 0.3946(4) 0.8527(1) 0.4820(3)
C6C C 0.5492(3) 0.7992(1) -0.1377(3)
C5C C 0.4802(3) 0.8002(1) -0.0252(3)
C8C C 0.4376(3) 0.8527(1) 0.0401(3)
C9C C 0.2892(4) 0.8766(1) -0.0209(3)
C10C C 0.2521(4) 0.9231(1) 0.0460(4)
C11C C 0.3531(5) 0.9473(1) 0.1675(4)
C12C C 0.4980(5) 0.9234(1) 0.2227(4)
C13C C 0.5448(4) 0.8765(1) 0.1624(3)
C20C C 0.7089(5) 0.8545(2) 0.2258(5)
C21C C 0.8397(22) 0.8921(7) 0.2284(21)
H20C H 0.8140(32) 0.9133(14) 0.1393(27)
H21C H 0.8567(31) 0.9163(11) 0.3114(31)
H22C H 0.9335(26) 0.8712(7) 0.2361(45)
C22C C 0.7363(15) 0.8246(8) 0.3696(16)
H23C H 0.6484(15) 0.8010(8) 0.3652(16)
H24C H 0.8304(15) 0.8030(8) 0.3878(16)
H25C H 0.7474(15) 0.8507(8) 0.4478(16)
H19C H 0.7179(5) 0.8258(2) 0.1564(5)
H4C H 0.5686(5) 0.9393(1) 0.3045(4)
C17C C 0.3029(8) 0.9983(2) 0.2360(6)
C18C C 0.4030(15) 1.0438(4) 0.2577(15)
H13C H 0.3598(23) 1.0729(6) 0.3023(32)
H14C H 0.5046(19) 1.0337(6) 0.3210(28)
H15C H 0.4133(29) 1.0559(8) 0.1646(15)
C19C C 0.2473(18) 0.9842(7) 0.3610(17)
H16C H 0.1965(36) 1.0155(8) 0.3888(27)
H17C H 0.1736(26) 0.9544(10) 0.3348(17)
H18C H 0.3348(18) 0.9733(12) 0.4421(17)
H12C H 0.2079(8) 1.0107(2) 0.1614(6)
H3C H 0.1534(4) 0.9388(1) 0.0065(4)
C14C C 0.1730(4) 0.8548(1) -0.1597(4)
C15C C 0.1475(19) 0.9005(6) -0.2739(17)
H6C H 0.2463(20) 0.910(1) -0.2900(27)
H7C H 0.0757(31) 0.8882(8) -0.3646(20)
H8C H 0.1045(38) 0.9322(8) -0.2389(23)
C16C C 0.0153(14) 0.8374(7) -0.1454(19)
H9C H 0.0271(14) 0.8043(10) -0.0884(33)
H10C H -0.0262(25) 0.8659(9) -0.0971(43)
H11C H -0.0557(17) 0.8310(15) -0.2414(18)
H5C H 0.2209(4) 0.8233(1) -0.1951(4)
H1C H 0.5731(3) 0.8321(1) -0.1764(3)
#END
