####################################################################### 
# 
# This file contains crystal structure data downloaded from the 
# Cambridge Structural Database (CSD) hosted by the Cambridge 
# Crystallographic Data Centre (CCDC).
# 
# Full information about CCDC data access policies and citation 
# guidelines are available at http://www.ccdc.cam.ac.uk/access/V1 
# 
# Audit and citation data items may have been added by the CCDC. 
# Please retain this information to preserve the provenance of 
# this file and to allow appropriate attribution of the data. 
# 
#######################################################################

data_(PO4)2L3-2
_audit_block_doi                 10.5517/ccz8mb5
_database_code_depnum_ccdc_archive 'CCDC 902017'
loop_
_citation_id
_citation_doi
_citation_year
1 10.1002/chem.201405235 2015
_audit_update_record             
;
2012-09-19 deposited with the CCDC.	2024-07-11 downloaded from the CCDC.
;
#TrackingRef 'A2L3.cif'


_audit_creation_method           SHELXL-97
_chemical_name_systematic        
;
?
;
_chemical_name_common            ?
_chemical_melting_point          ?
_chemical_formula_moiety         ?
_chemical_formula_sum            'C180 H246 K6 N30 O71 P2'
_chemical_formula_weight         4262.61

loop_
_atom_type_symbol
_atom_type_description
_atom_type_scat_dispersion_real
_atom_type_scat_dispersion_imag
_atom_type_scat_source
C C 0.0181 0.0091 'International Tables Vol C Tables 4.2.6.8 and 6.1.1.4'
H H 0.0000 0.0000 'International Tables Vol C Tables 4.2.6.8 and 6.1.1.4'
N N 0.0311 0.0180 'International Tables Vol C Tables 4.2.6.8 and 6.1.1.4'
O O 0.0492 0.0322 'International Tables Vol C Tables 4.2.6.8 and 6.1.1.4'
P P 0.2955 0.4335 'International Tables Vol C Tables 4.2.6.8 and 6.1.1.4'
K K 0.3868 1.0657 'International Tables Vol C Tables 4.2.6.8 and 6.1.1.4'

_symmetry_cell_setting           hexagonal
_symmetry_space_group_name_H-M   P-62c

loop_
_symmetry_equiv_pos_as_xyz
'x, y, z'
'-y, x-y, z'
'-x+y, -x, z'
'x, y, -z+1/2'
'-y, x-y, -z+1/2'
'-x+y, -x, -z+1/2'
'y, x, -z'
'x-y, -y, -z'
'-x, -x+y, -z'
'y, x, z+1/2'
'x-y, -y, z+1/2'
'-x, -x+y, z+1/2'

_cell_length_a                   19.9865(2)
_cell_length_b                   19.9865(2)
_cell_length_c                   40.9787(3)
_cell_angle_alpha                90.00
_cell_angle_beta                 90.00
_cell_angle_gamma                120.00
_cell_volume                     14176.3(2)
_cell_formula_units_Z            2
_cell_measurement_temperature    173(2)
_cell_measurement_reflns_used    9961
_cell_measurement_theta_min      3.34
_cell_measurement_theta_max      66.05

_exptl_crystal_description       Flake
_exptl_crystal_colour            yellow
_exptl_crystal_size_max          0.15
_exptl_crystal_size_mid          0.10
_exptl_crystal_size_min          0.05
_exptl_crystal_density_meas      ?
_exptl_crystal_density_diffrn    0.999
_exptl_crystal_density_method    'not measured'
_exptl_crystal_F_000             4496
_exptl_absorpt_coefficient_mu    1.513
_exptl_absorpt_correction_type   Multi-scan
_exptl_absorpt_correction_T_min  0.8048
_exptl_absorpt_correction_T_max  0.9282
_exptl_absorpt_process_details   SADABS

_exptl_special_details           
;
?
;

_diffrn_ambient_temperature      173(2)
_diffrn_radiation_wavelength     1.54178
_diffrn_radiation_type           CuK\a
_diffrn_radiation_source         'fine-focus sealed tube'
_diffrn_radiation_monochromator  graphite
_diffrn_measurement_device_type  'Bruker APEX-II CCD'
_diffrn_measurement_method       '\f and \w scans'
_diffrn_detector_area_resol_mean ?
_diffrn_reflns_number            19060
_diffrn_reflns_av_R_equivalents  0.0585
_diffrn_reflns_av_sigmaI/netI    0.0502
_diffrn_reflns_limit_h_min       -23
_diffrn_reflns_limit_h_max       23
_diffrn_reflns_limit_k_min       -23
_diffrn_reflns_limit_k_max       23
_diffrn_reflns_limit_l_min       -33
_diffrn_reflns_limit_l_max       48
_diffrn_reflns_theta_min         3.34
_diffrn_reflns_theta_max         66.42
_reflns_number_total             8158
_reflns_number_gt                7596
_reflns_threshold_expression     >2sigma(I)

_computing_data_collection       'Bruker APEX2'
_computing_cell_refinement       'Bruker SAINT'
_computing_data_reduction        'Bruker SAINT'
_computing_structure_solution    'SHELXS-97 (Sheldrick, 2008)'
_computing_structure_refinement  'SHELXL-97 (Sheldrick, 2008)'
_computing_molecular_graphics    'Bruker SHELXTL'
_computing_publication_material  'Bruker SHELXTL'

_refine_special_details          
;
Refinement of F^2^ against ALL reflections. The weighted R-factor wR and
goodness of fit S are based on F^2^, conventional R-factors R are based
on F, with F set to zero for negative F^2^. The threshold expression of
F^2^ > 2sigma(F^2^) is used only for calculating R-factors(gt) etc. and is
not relevant to the choice of reflections for refinement. R-factors based
on F^2^ are statistically about twice as large as those based on F, and R-
factors based on ALL data will be even larger.
;
# SQUEEZE RESULTS (APPEND TO CIF)
# Note: Data are Listed for all Voids in the P1 Unit Cell
# i.e. Centre of Gravity, Solvent Accessible Volume,
# Recovered number of Electrons in the Void and
# Details about the Squeezed Material
loop_
_platon_squeeze_void_nr
_platon_squeeze_void_average_x
_platon_squeeze_void_average_y
_platon_squeeze_void_average_z
_platon_squeeze_void_volume
_platon_squeeze_void_count_electrons
_platon_squeeze_void_content
1 0.000 0.000 -0.004 4744 679 ' '
2 0.333 0.667 0.750 17 0 ' '
3 0.333 0.667 0.608 21 5 ' '
4 0.333 0.667 0.892 21 5 ' '
5 0.667 0.333 0.108 21 5 ' '
6 0.667 0.333 0.250 17 0 ' '
7 0.666 0.333 0.392 21 5 ' '
_platon_squeeze_details          
;
;
_refine_ls_structure_factor_coef Fsqd
_refine_ls_matrix_type           full
_refine_ls_weighting_scheme      calc
_refine_ls_weighting_details     
'calc w=1/[\s^2^(Fo^2^)+(0.0927P)^2^+0.8325P] where P=(Fo^2^+2Fc^2^)/3'
_atom_sites_solution_primary     direct
_atom_sites_solution_secondary   difmap
_atom_sites_solution_hydrogens   geom
_refine_ls_hydrogen_treatment    mixed
_refine_ls_extinction_method     none
_refine_ls_extinction_coef       ?
_refine_ls_abs_structure_details 'Flack H D (1983), Acta Cryst. A39, 876-881'
_refine_ls_abs_structure_Flack   0.036(9)
_refine_ls_number_reflns         8158
_refine_ls_number_parameters     442
_refine_ls_number_restraints     1
_refine_ls_R_factor_all          0.0499
_refine_ls_R_factor_gt           0.0438
_refine_ls_wR_factor_ref         0.1243
_refine_ls_wR_factor_gt          0.1215
_refine_ls_goodness_of_fit_ref   0.995
_refine_ls_restrained_S_all      0.995
_refine_ls_shift/su_max          0.003
_refine_ls_shift/su_mean         0.000

loop_
_atom_site_label
_atom_site_type_symbol
_atom_site_fract_x
_atom_site_fract_y
_atom_site_fract_z
_atom_site_U_iso_or_equiv
_atom_site_adp_type
_atom_site_occupancy
_atom_site_symmetry_multiplicity
_atom_site_calc_flag
_atom_site_refinement_flags
_atom_site_disorder_assembly
_atom_site_disorder_group
P P 0.3333 0.6667 0.392558(15) 0.03137(17) Uani 1 3 d S . .
K K 0.04325(3) 0.51596(3) 0.633067(10) 0.04902(14) Uani 1 1 d . . .
O1 O 0.3333 0.6667 0.43011(5) 0.0434(5) Uani 1 3 d S . .
O2 O 0.30295(9) 0.58443(8) 0.37932(3) 0.0431(3) Uani 1 1 d . . .
O3 O 0.17150(17) 0.59872(18) 0.59081(5) 0.0957(9) Uani 1 1 d . . .
O4 O 0.15314(13) 0.69375(16) 0.60023(4) 0.0798(7) Uani 1 1 d . . .
O5 O 0.23918(12) 0.86014(11) 0.44865(4) 0.0580(4) Uani 1 1 d . . .
O6 O 0.45323(10) 0.93522(9) 0.31399(3) 0.0480(4) Uani 1 1 d . . .
O7 O 0.00233(10) 0.62802(10) 0.64599(4) 0.0514(4) Uani 1 1 d . . .
O8 O -0.03465(10) 0.55397(12) 0.58493(4) 0.0586(4) Uani 1 1 d . . .
O9 O -0.00900(12) 0.42978(13) 0.57458(5) 0.0710(5) Uani 1 1 d . . .
O10 O 0.10925(12) 0.42758(14) 0.61027(6) 0.0770(6) Uani 1 1 d . . .
O11 O 0.15312(12) 0.50520(14) 0.67148(6) 0.0711(5) Uani 1 1 d . . .
O12 O 0.12434(10) 0.63016(11) 0.68068(4) 0.0551(4) Uani 1 1 d . . .
O13 O 0.4726(3) 0.99346(16) 0.2500 0.0921(14) Uani 1 2 d SD . .
N1 N 0.17272(13) 0.65708(17) 0.58230(5) 0.0645(6) Uani 1 1 d . . .
N2 N 0.26305(11) 0.75920(11) 0.45371(4) 0.0415(4) Uani 1 1 d . . .
H2A H 0.2837 0.7352 0.4435 0.050 Uiso 1 1 calc R . .
N3 N 0.26943(11) 0.81122(11) 0.40400(4) 0.0423(4) Uani 1 1 d . . .
H3A H 0.2842 0.7783 0.3980 0.051 Uiso 1 1 calc R . .
N4 N 0.36506(12) 0.85068(11) 0.35114(4) 0.0425(4) Uani 1 1 d . . .
H4 H 0.3581 0.8150 0.3655 0.051 Uiso 1 1 calc R . .
N5 N 0.46038(11) 0.83079(10) 0.33140(4) 0.0397(4) Uani 1 1 d . . .
H5A H 0.4401 0.7900 0.3442 0.048 Uiso 1 1 calc R . .
C1 C 0.19636(13) 0.68566(15) 0.54910(5) 0.0490(5) Uani 1 1 d . . .
C2 C 0.20179(16) 0.75371(17) 0.53977(5) 0.0587(7) Uani 1 1 d . . .
H2 H 0.1905 0.7826 0.5550 0.070 Uiso 1 1 calc R . .
C3 C 0.22387(16) 0.78126(16) 0.50800(5) 0.0507(5) Uani 1 1 d . . .
H3 H 0.2273 0.8284 0.5013 0.061 Uiso 1 1 calc R . .
C4 C 0.24082(12) 0.73793(13) 0.48621(4) 0.0401(4) Uani 1 1 d . . .
C5 C 0.23486(13) 0.66865(14) 0.49648(5) 0.0444(5) Uani 1 1 d . . .
H5 H 0.2460 0.6392 0.4815 0.053 Uiso 1 1 calc R . .
C6 C 0.21320(14) 0.64192(15) 0.52793(5) 0.0503(5) Uani 1 1 d . . .
H6 H 0.2099 0.5950 0.5349 0.060 Uiso 1 1 calc R . .
C7 C 0.25558(14) 0.81438(13) 0.43621(5) 0.0434(5) Uani 1 1 d . . .
C8 C 0.26205(14) 0.85627(13) 0.37934(5) 0.0452(5) Uani 1 1 d . . .
C9 C 0.20571(16) 0.87663(16) 0.38015(7) 0.0581(6) Uani 1 1 d . . .
H9 H 0.1720 0.8623 0.3984 0.070 Uiso 1 1 calc R . .
C10 C 0.19734(19) 0.91773(19) 0.35476(8) 0.0709(8) Uani 1 1 d . . .
H10 H 0.1589 0.9323 0.3558 0.085 Uiso 1 1 calc R . .
C11 C 0.2452(2) 0.9371(2) 0.32813(8) 0.0756(9) Uani 1 1 d . . .
H11 H 0.2395 0.9653 0.3107 0.091 Uiso 1 1 calc R . .
C12 C 0.30152(19) 0.91632(17) 0.32614(6) 0.0605(7) Uani 1 1 d . . .
H12 H 0.3336 0.9297 0.3074 0.073 Uiso 1 1 calc R . .
C13 C 0.31123(14) 0.87549(13) 0.35181(5) 0.0446(5) Uani 1 1 d . . .
C14 C 0.42847(13) 0.87534(11) 0.33060(4) 0.0386(4) Uani 1 1 d . . .
C15 C 0.52797(13) 0.84728(13) 0.31175(4) 0.0415(5) Uani 1 1 d . . .
H15A H 0.5611 0.8328 0.3243 0.050 Uiso 1 1 calc R . .
H15B H 0.5583 0.9035 0.3075 0.050 Uiso 1 1 calc R . .
C16 C 0.50687(11) 0.80449(12) 0.27952(4) 0.0337(4) Uani 1 1 d . . .
C17 C 0.52727(15) 0.84384(16) 0.2500 0.0323(5) Uani 1 2 d S . .
H17 H 0.5557 0.8987 0.2500 0.039 Uiso 1 2 calc SR . .
C18 C 0.46589(12) 0.72418(12) 0.27923(4) 0.0404(4) Uani 1 1 d . . .
H18 H 0.4518 0.6965 0.2993 0.049 Uiso 1 1 calc R . .
C19 C 0.44555(19) 0.68430(17) 0.2500 0.0419(6) Uani 1 2 d S . .
H19 H 0.4176 0.6294 0.2500 0.050 Uiso 1 2 calc SR . .
C20 C -0.02257(17) 0.65546(18) 0.61932(6) 0.0612(7) Uani 1 1 d . . .
H20A H 0.0226 0.6927 0.6064 0.073 Uiso 1 1 calc R . .
H20B H -0.0495 0.6823 0.6275 0.073 Uiso 1 1 calc R . .
C21 C -0.07602(15) 0.58869(19) 0.59834(6) 0.0600(7) Uani 1 1 d . . .
H21A H -0.1201 0.5503 0.6115 0.072 Uiso 1 1 calc R . .
H21B H -0.0966 0.6068 0.5805 0.072 Uiso 1 1 calc R . .
C22 C -0.08303(17) 0.4895(2) 0.56482(7) 0.0714(8) Uani 1 1 d . . .
H22A H -0.1069 0.5054 0.5476 0.086 Uiso 1 1 calc R . .
H22B H -0.1249 0.4486 0.5781 0.086 Uiso 1 1 calc R . .
C23 C -0.0357(2) 0.4597(2) 0.54987(7) 0.0772(9) Uani 1 1 d . . .
H23A H -0.0671 0.4186 0.5339 0.093 Uiso 1 1 calc R . .
H23B H 0.0087 0.5019 0.5382 0.093 Uiso 1 1 calc R . .
C24 C 0.0356(2) 0.3988(2) 0.56156(10) 0.0866(11) Uani 1 1 d . . .
H24A H 0.0820 0.4397 0.5504 0.104 Uiso 1 1 calc R . .
H24B H 0.0048 0.3576 0.5456 0.104 Uiso 1 1 calc R . .
C25 C 0.0593(2) 0.3660(2) 0.59005(12) 0.0908(12) Uani 1 1 d . . .
H25A H 0.0130 0.3288 0.6025 0.109 Uiso 1 1 calc R . .
H25B H 0.0857 0.3386 0.5818 0.109 Uiso 1 1 calc R . .
C26 C 0.1386(2) 0.4039(2) 0.63687(12) 0.0946(12) Uani 1 1 d . . .
H26A H 0.1647 0.3763 0.6286 0.114 Uiso 1 1 calc R . .
H26B H 0.0957 0.3686 0.6513 0.114 Uiso 1 1 calc R . .
C27 C 0.1939(2) 0.4732(3) 0.65508(11) 0.0882(10) Uani 1 1 d . . .
H27A H 0.2219 0.4594 0.6712 0.106 Uiso 1 1 calc R . .
H27B H 0.2322 0.5119 0.6399 0.106 Uiso 1 1 calc R . .
C28 C 0.20372(17) 0.5753(2) 0.68796(7) 0.0703(8) Uani 1 1 d . . .
H28A H 0.2391 0.6143 0.6721 0.084 Uiso 1 1 calc R . .
H28B H 0.2352 0.5662 0.7041 0.084 Uiso 1 1 calc R . .
C29 C 0.15769(16) 0.60396(19) 0.70463(6) 0.0666(8) Uani 1 1 d . . .
H29A H 0.1165 0.5620 0.7178 0.080 Uiso 1 1 calc R . .
H29B H 0.1911 0.6469 0.7195 0.080 Uiso 1 1 calc R . .
C30 C 0.07656(15) 0.65610(18) 0.69452(6) 0.0590(6) Uani 1 1 d . . .
H30A H 0.1060 0.6968 0.7109 0.071 Uiso 1 1 calc R . .
H30B H 0.0319 0.6127 0.7056 0.071 Uiso 1 1 calc R . .
C31 C 0.04908(16) 0.68745(17) 0.66815(7) 0.0617(6) Uani 1 1 d . . .
H31A H 0.0190 0.7097 0.6777 0.074 Uiso 1 1 calc R . .
H31B H 0.0939 0.7291 0.6565 0.074 Uiso 1 1 calc R . .
H131 H 0.473(7) 1.036(3) 0.2500 0.19(4) Uiso 1 2 d SD . .

loop_
_atom_site_aniso_label
_atom_site_aniso_U_11
_atom_site_aniso_U_22
_atom_site_aniso_U_33
_atom_site_aniso_U_23
_atom_site_aniso_U_13
_atom_site_aniso_U_12
P 0.0365(3) 0.0365(3) 0.0210(3) 0.000 0.000 0.01827(13)
K 0.0428(2) 0.0664(3) 0.0388(2) 0.0070(2) 0.00627(16) 0.0280(2)
O1 0.0541(9) 0.0541(9) 0.0220(9) 0.000 0.000 0.0271(4)
O2 0.0540(9) 0.0390(7) 0.0340(6) 0.0010(5) 0.0104(6) 0.0215(7)
O3 0.120(2) 0.111(2) 0.0539(10) 0.0373(12) 0.0391(12) 0.0562(18)
O4 0.0712(13) 0.1183(19) 0.0368(8) -0.0031(10) 0.0179(8) 0.0376(13)
O5 0.0827(13) 0.0595(10) 0.0447(8) -0.0018(7) 0.0097(8) 0.0451(10)
O6 0.0595(10) 0.0384(7) 0.0321(6) 0.0062(5) -0.0028(6) 0.0139(7)
O7 0.0448(8) 0.0603(10) 0.0448(7) 0.0076(7) 0.0064(7) 0.0231(8)
O8 0.0468(9) 0.0786(13) 0.0463(8) 0.0045(8) -0.0029(7) 0.0283(9)
O9 0.0504(10) 0.0827(14) 0.0722(11) -0.0136(10) 0.0018(9) 0.0277(10)
O10 0.0543(11) 0.0704(13) 0.1099(16) -0.0060(12) -0.0013(11) 0.0338(11)
O11 0.0487(10) 0.0835(15) 0.0847(13) 0.0129(11) -0.0006(9) 0.0357(10)
O12 0.0453(9) 0.0725(12) 0.0375(7) 0.0057(7) 0.0047(6) 0.0219(9)
O13 0.172(4) 0.0424(14) 0.0358(11) 0.000 0.000 0.0341(19)
N1 0.0524(12) 0.0886(18) 0.0364(10) 0.0030(11) 0.0128(9) 0.0231(12)
N2 0.0513(11) 0.0491(10) 0.0272(7) -0.0023(7) 0.0060(7) 0.0274(9)
N3 0.0524(11) 0.0419(9) 0.0318(7) -0.0016(7) 0.0042(7) 0.0229(8)
N4 0.0621(12) 0.0419(9) 0.0253(7) 0.0050(7) 0.0055(7) 0.0275(9)
N5 0.0504(10) 0.0374(9) 0.0227(7) 0.0025(6) 0.0039(6) 0.0154(8)
C1 0.0393(11) 0.0652(15) 0.0278(9) 0.0007(9) 0.0061(8) 0.0152(10)
C2 0.0623(16) 0.0678(16) 0.0370(10) -0.0099(10) 0.0128(10) 0.0259(13)
C3 0.0623(15) 0.0526(13) 0.0338(9) -0.0057(10) 0.0085(10) 0.0260(11)
C4 0.0373(10) 0.0491(12) 0.0289(8) -0.0061(8) 0.0001(7) 0.0179(9)
C5 0.0494(12) 0.0570(13) 0.0306(9) 0.0001(9) 0.0044(8) 0.0295(11)
C6 0.0482(12) 0.0592(14) 0.0373(10) 0.0031(9) 0.0032(9) 0.0222(11)
C7 0.0497(12) 0.0437(11) 0.0361(9) -0.0023(8) 0.0042(8) 0.0227(10)
C8 0.0532(13) 0.0406(11) 0.0374(10) -0.0011(8) -0.0028(9) 0.0202(10)
C9 0.0555(14) 0.0578(15) 0.0614(14) 0.0029(11) 0.0007(11) 0.0287(12)
C10 0.0719(19) 0.0765(19) 0.0785(18) 0.0109(15) -0.0067(14) 0.0478(16)
C11 0.088(2) 0.082(2) 0.0673(16) 0.0182(15) -0.0101(15) 0.0503(19)
C12 0.0772(18) 0.0656(16) 0.0435(11) 0.0124(11) 0.0006(11) 0.0392(15)
C13 0.0576(13) 0.0406(11) 0.0326(9) 0.0010(8) -0.0012(9) 0.0222(10)
C14 0.0498(12) 0.0339(9) 0.0200(7) -0.0039(6) -0.0030(7) 0.0117(9)
C15 0.0439(11) 0.0442(11) 0.0244(8) -0.0011(8) -0.0027(7) 0.0129(9)
C16 0.0326(9) 0.0371(10) 0.0270(8) -0.0022(7) -0.0039(7) 0.0142(8)
C17 0.0326(13) 0.0295(12) 0.0299(12) 0.000 0.000 0.0118(11)
C18 0.0465(11) 0.0372(11) 0.0327(8) 0.0071(8) -0.0021(7) 0.0173(9)
C19 0.0530(17) 0.0297(14) 0.0394(13) 0.000 0.000 0.0180(13)
C20 0.0562(15) 0.0729(18) 0.0606(13) 0.0171(13) 0.0099(11) 0.0369(14)
C21 0.0476(13) 0.0828(19) 0.0535(12) 0.0185(13) 0.0048(11) 0.0356(13)
C22 0.0511(15) 0.090(2) 0.0576(14) 0.0006(14) -0.0133(12) 0.0235(15)
C23 0.0637(17) 0.096(2) 0.0558(14) -0.0186(15) -0.0093(13) 0.0280(16)
C24 0.0571(17) 0.090(2) 0.099(2) -0.035(2) 0.0105(16) 0.0261(17)
C25 0.0580(18) 0.0628(19) 0.146(4) -0.021(2) 0.008(2) 0.0260(16)
C26 0.070(2) 0.084(2) 0.148(3) 0.001(2) -0.003(2) 0.052(2)
C27 0.0648(19) 0.106(3) 0.113(3) -0.003(2) -0.0100(18) 0.056(2)
C28 0.0467(14) 0.084(2) 0.0728(16) 0.0110(14) -0.0084(12) 0.0269(14)
C29 0.0516(14) 0.0818(19) 0.0458(11) 0.0108(12) -0.0033(10) 0.0178(14)
C30 0.0437(12) 0.0751(17) 0.0465(10) -0.0080(12) 0.0041(10) 0.0209(12)
C31 0.0535(15) 0.0622(16) 0.0654(14) -0.0011(12) 0.0118(12) 0.0260(13)

_geom_special_details            
;
All esds (except the esd in the dihedral angle between two l.s. planes)
are estimated using the full covariance matrix. The cell esds are taken
into account individually in the estimation of esds in distances, angles
and torsion angles; correlations between esds in cell parameters are only
used when they are defined by crystal symmetry. An approximate (isotropic)
treatment of cell esds is used for estimating esds involving l.s. planes.
;

loop_
_geom_bond_atom_site_label_1
_geom_bond_atom_site_label_2
_geom_bond_distance
_geom_bond_