####################################################################### 
# 
# This file contains crystal structure data downloaded from the 
# Cambridge Structural Database (CSD) hosted by the Cambridge 
# Crystallographic Data Centre (CCDC).
# 
# Full information about CCDC data access policies and citation 
# guidelines are available at http://www.ccdc.cam.ac.uk/access/V1 
# 
# Audit and citation data items may have been added by the CCDC. 
# Please retain this information to preserve the provenance of 
# this file and to allow appropriate attribution of the data. 
# 
#######################################################################

data_CSD_CIF_NOWHIQ
_audit_block_doi                 10.5517/ccs8qk9
_database_code_depnum_ccdc_archive 'CCDC 723371'
loop_
_citation_id
_citation_doi
_citation_year
1 10.1039/a704485b 1997
_audit_update_record             
;
2009-03-10 deposited with the CCDC.	2024-07-11 downloaded from the CCDC.
;
_audit_creation_date             1998-08-03
_audit_creation_method           CSD-ConQuest-V1
_database_code_CSD               NOWHIQ
_database_code_depnum_ccdc_journal 186/644
_chemical_formula_sum            'C14 H26 Cd1 Cl1 N1 O6 S1'
_chemical_formula_moiety         
;
(C12 H18 Cd1 Cl1 N1 O4)n,n(C2 H6 O1 S1),n(H2 O1)
;
_chemical_name_systematic        
;
catena-(Aqua-chloro-(\m~2~-N-(2-hydroxy-1(R)-methyl-2(R)-phenylethyl)-N-methyl
glycine)-cadmium(ii) dimethylsulfoxide solvate monohydrate)
;
_chemical_name_common            
;
catena-(Aqua-chloro-(mu!2$-N-carboxymethylpseudoephedrine)-cadmium(ii)
dimethylsulfoxide solvate monohydrate)
;
_cell_volume                     2022.150
_exptl_crystal_colour            colorless
_exptl_crystal_density_diffrn    1.591
_exptl_special_details           
;
Absolute configuration

;
_exptl_crystal_description       needles
_diffrn_ambient_temperature      ?
_diffrn_special_details          
;
The study was carried out at room temperature,in the range 283-303K

;
#These two values have been output from a single CSD field.
_refine_ls_R_factor_gt           0.046
_refine_ls_wR_factor_gt          0.046
_symmetry_cell_setting           orthorhombic
_symmetry_space_group_name_H-M   'P 21 21 21'
_symmetry_Int_Tables_number      19
loop_
_symmetry_equiv_pos_site_id
_symmetry_equiv_pos_as_xyz
1 x,y,z
2 1/2-x,-y,1/2+z
3 1/2+x,1/2-y,-z
4 -x,1/2+y,1/2-z
_cell_length_a                   8.194(1)
_cell_length_b                   12.467(1)
_cell_length_c                   19.795(3)
_cell_angle_alpha                90
_cell_angle_beta                 90
_cell_angle_gamma                90
_cell_formula_units_Z            4
loop_
_atom_type_symbol
_atom_type_radius_bond
C 0.68
H 0.23
Cd 1.69
Cl 0.99
N 0.68
O 0.68
S 1.02
loop_
_atom_site_label
_atom_site_type_symbol
_atom_site_fract_x
_atom_site_fract_y
_atom_site_fract_z
Cd1 Cd 0.9689(1) 0.2143(1) 0.9573(1)
Cl1 Cl 0.8343(5) 0.3471(3) 0.8766(2)
C1 C 1.3369(21) 0.1661(11) 0.9361(8)
C2 C 1.2565(19) 0.0840(14) 0.8921(9)
C3 C 0.9933(17) 0.0204(12) 0.8484(8)
C4 C 0.8136(19) 0.0579(13) 0.8507(8)
C5 C 1.0376(23) -0.0360(15) 0.7839(9)
C6 C 1.1215(22) 0.1869(13) 0.8073(9)
C7 C 0.6945(20) -0.0256(12) 0.8236(8)
C8 C 0.6547(21) -0.1136(14) 0.8593(9)
C9 C 0.5527(27) -0.1888(18) 0.8346(11)
C10 C 0.4800(25) -0.1714(21) 0.7746(14)
C11 C 0.5100(26) -0.0873(18) 0.7365(10)
C12 C 0.6221(23) -0.0105(16) 0.7614(9)
N1 N 1.0999(15) 0.1167(9) 0.8654(6)
O1 O 1.0441(13) 0.0819(7) 1.0348(5)
O2 O 0.9844(11) 0.3439(8) 1.0474(6)
O3 O 1.2489(11) 0.2433(7) 0.9594(5)
O4 O 0.7806(11) 0.0852(8) 0.9183(5)
S1 S 0.8807(8) 0.1369(5) 0.6016(3)
C13 C 1.0808(31) 0.1243(23) 0.5678(13)
C14 C 0.8096(27) 0.0061(16) 0.5844(11)
O5 O 0.7929(18) 0.2065(11) 0.5448(7)
O6 O 0.9756(18) 0.3636(11) 1.4876(6)
H1 H 1.24090 0.02010 0.91840
H2 H 1.32830 0.06690 0.85530
H3 H 1.00560 -0.03080 0.88430
H4 H 0.80310 0.12170 0.82390
H5 H 1.14930 -0.05930 0.78480
H6 H 0.96750 -0.09690 0.77810
H7 H 1.02210 0.01300 0.74700
H8 H 1.17370 0.14870 0.77120
H9 H 1.01650 0.21170 0.79260
H10 H 1.18760 0.24720 0.82010
H11 H 0.69860 -0.12260 0.90390
H12 H 0.52770 -0.25300 0.85940
H13 H 0.41040 -0.22570 0.75570
H14 H 0.45140 -0.07450 0.69520
H15 H 0.65280 0.05070 0.73480
H16 H 1.13650 0.19140 0.57350
H17 H 1.13770 0.06920 0.59220
H18 H 1.07750 0.10610 0.52070
H19 H 0.69840 -0.00050 0.59910
H20 H 0.81590 -0.00780 0.53680
H21 H 0.87610 -0.04470 0.60830
O2B O 1.4844(11) 0.1561(8) 0.9526(6)
Cd1B Cd 1.4689(1) 0.2857(1) 1.0427(1)
O3B O 0.7489(11) 0.2567(7) 1.0406(5)
#END
