
#######################################################################
#
#                 Cambridge Crystallographic Data Centre
#                                CCDC
#
#######################################################################
#
# If this CIF has been generated from an entry in the Cambridge
# Structural Database, then it will include bibliographic, chemical,
# crystal, experimental, refinement or atomic coordinate data resulting
# from the CCDC's data processing and validation procedures.
#
#######################################################################

data_CSD_CIF_NPHDZA
_audit_creation_date 1981-08-11
_audit_creation_method CSD-ConQuest-V1
_database_code_CSD NPHDZA
_database_code_depnum_ccdc_archive 'CCDC 1223303'
_chemical_formula_sum 'C10 H13 N3 O2'
_chemical_formula_moiety
;
C10 H13 N3 O2
;
_journal_coden_Cambridge 188
_journal_year 1981
_journal_page_first 155
_journal_name_full 'J.Chem.Soc.,Perkin Trans.2 '
loop_
_publ_author_name
"B.Vickery"
"G.R.Willey"
"M.G.B.Drew"
_chemical_name_systematic
;
Butan-2-one p-nitrophenylhydrazone
;
_chemical_name_common
;
1-(butan-2-ylidene)-2-(4-nitrophenyl)hydrazine; Teaching Subset: Fundamental 
Chemistry
;
_cell_volume   1088.571
_exptl_crystal_density_diffrn 1.26
_diffrn_ambient_temperature ?
_diffrn_special_details
;
The study was carried out at room temperature,in the range 283-303K

;
#These two values have been output from a single CSD field.
_refine_ls_R_factor_gt 0.103
_refine_ls_wR_factor_gt 0.103
_symmetry_cell_setting monoclinic
_symmetry_space_group_name_H-M 'P 21/c'
_symmetry_Int_Tables_number 14
loop_
_symmetry_equiv_pos_site_id
_symmetry_equiv_pos_as_xyz
1 x,y,z
2 -x,1/2+y,1/2-z
3 -x,-y,-z
4 x,-1/2-y,-1/2+z
_cell_length_a 4.119(11)
_cell_length_b 18.992(12)
_cell_length_c 13.992(10)
_cell_angle_alpha 90
_cell_angle_beta 96.0(1)
_cell_angle_gamma 90
_cell_formula_units_Z 4
loop_
_atom_type_symbol
_atom_type_radius_bond
C 0.68
H 0.23
N 0.68
O 0.68
loop_
_atom_site_label
_atom_site_type_symbol
_atom_site_fract_x
_atom_site_fract_y
_atom_site_fract_z
N1 N 0.12360 0.31080 0.02750
O1 O 0.01450 0.36620 0.06170
O2 O 0.06130 0.29920 -0.06030
C1 C 0.30560 0.26080 0.08550
C2 C 0.41610 0.19950 0.04420
C3 C 0.59680 0.15040 0.10140
C4 C 0.67870 0.16230 0.20180
C5 C 0.54830 0.22550 0.23960
C6 C 0.38000 0.27230 0.18410
N2 N 0.86520 0.11700 0.26130
N3 N 0.95050 0.05750 0.21530
C7 C 1.13750 0.01960 0.27080
C8 C 1.25350 0.02690 0.37660
C9 C 1.25230 -0.05130 0.23510
C10 C 1.14230 -0.06480 0.13010
H1 H 0.29800 0.32000 0.21600
H2 H 0.59600 0.23600 0.31500
H3 H 0.68200 0.10300 0.07000
H4 H 0.36200 0.18900 -0.03200
H5 H 0.92300 0.10800 0.33200
H6 H 1.40200 -0.01800 0.39900
H7 H 1.04600 0.02900 0.41900
H8 H 1.39400 0.07400 0.38800
H9 H 1.51500 -0.05000 0.24300
H10 H 1.16800 -0.09400 0.27800
H11 H 1.24800 -0.11500 0.10800
H12 H 1.22600 -0.02300 0.08600
H13 H 0.88000 -0.06700 0.12100
#END
