
#######################################################################
#
#                 Cambridge Crystallographic Data Centre
#                                CCDC
#
#######################################################################
#
# If this CIF has been generated from an entry in the Cambridge
# Structural Database, then it will include bibliographic, chemical,
# crystal, experimental, refinement or atomic coordinate data resulting
# from the CCDC's data processing and validation procedures.
#
#######################################################################

data_CSD_CIF_NTROMA05
_audit_creation_date 1986-07-24
_audit_creation_method CSD-ConQuest-V1
_database_code_CSD NTROMA05
_database_code_depnum_ccdc_archive 'CCDC 1223560'
_chemical_formula_sum 'C1 H3 N1 O2'
_chemical_formula_moiety
;
C1 H3 N1 O2
;
_journal_coden_Cambridge 37
_journal_volume 89
_journal_year 1985
_journal_page_first 2315
_journal_name_full 'J.Phys.Chem. '
loop_
_publ_author_name
"D.T.Cromer"
"R.R.Ryan"
"D.Schiferl"
_chemical_name_systematic
;
Nitromethane
;
_chemical_name_common
;
Teaching Subset: Fundamental Chemistry
;
_cell_volume    263.445
_exptl_special_details
;
explosive

;
_diffrn_ambient_temperature ?
_diffrn_ambient_pressure 1000000.0
_diffrn_special_details
;
The study was carried out at room temperature,in the range 283-303K

;
#These two values have been output from a single CSD field.
_refine_ls_R_factor_gt 0.021
_refine_ls_wR_factor_gt 0.021
_symmetry_cell_setting orthorhombic
_symmetry_space_group_name_H-M 'P 21 21 21'
_symmetry_Int_Tables_number 19
loop_
_symmetry_equiv_pos_site_id
_symmetry_equiv_pos_as_xyz
1 x,y,z
2 1/2+x,1/2-y,-z
3 -x,1/2+y,1/2-z
4 1/2-x,-y,1/2+z
_cell_length_a 5.090(2)
_cell_length_b 6.115(8)
_cell_length_c 8.464(6)
_cell_angle_alpha 90
_cell_angle_beta 90
_cell_angle_gamma 90
_cell_formula_units_Z 4
loop_
_atom_type_symbol
_atom_type_radius_bond
C 0.68
N 0.68
O 0.68
loop_
_atom_site_label
_atom_site_type_symbol
_atom_site_fract_x
_atom_site_fract_y
_atom_site_fract_z
C1 C 0.120(3) 1.055(3) 0.381(2)
N1 N 0.362(2) 0.917(2) 0.384(2)
O1 O 0.515(2) 0.938(2) 0.490(1)
O2 O 0.387(2) 0.790(2) 0.272(1)
#END
