####################################################################### 
# 
# This file contains crystal structure data downloaded from the 
# Cambridge Structural Database (CSD) hosted by the Cambridge 
# Crystallographic Data Centre (CCDC).
# 
# Full information about CCDC data access policies and citation 
# guidelines are available at http://www.ccdc.cam.ac.uk/access/V1 
# 
# Audit and citation data items may have been added by the CCDC. 
# Please retain this information to preserve the provenance of 
# this file and to allow appropriate attribution of the data. 
# 
#######################################################################

data_55cry100
_audit_block_doi                 10.5517/cc13xtsm
_database_code_depnum_ccdc_archive 'CCDC 1040601'
loop_
_citation_id
_citation_doi
_citation_year
1 10.1039/C5DT00011D 2015
_audit_update_record             
;
2015-03-12 deposited with the CCDC.	2024-07-11 downloaded from the CCDC.
;
_audit_creation_date             2014-12-29
_audit_creation_method           
;
Olex2 1.2
(compiled 2014.08.28 svn.r2986 for OlexSys, GUI svn.r4874)
;
_shelxl_version_number           2014-3
_chemical_name_common            ?
_chemical_name_systematic        ?
_chemical_formula_moiety         '4(C12 H11 N2 O2 Zn0.5), 0.5(H2 O), 2(C H4 O)'
_chemical_formula_sum            'C50 H53 N8 O10.50 Zn2'
_chemical_formula_weight         1064.74
_chemical_absolute_configuration ?
_chemical_melting_point          ?
_chemical_properties_physical    'Loses solvent immediately'
loop_
_atom_type_symbol
_atom_type_description
_atom_type_scat_dispersion_real
_atom_type_scat_dispersion_imag
_atom_type_scat_source
C C 0.0181 0.0091 'International Tables Vol C Tables 4.2.6.8 and 6.1.1.4'
H H 0.0000 0.0000 'International Tables Vol C Tables 4.2.6.8 and 6.1.1.4'
N N 0.0311 0.0180 'International Tables Vol C Tables 4.2.6.8 and 6.1.1.4'
O O 0.0492 0.0322 'International Tables Vol C Tables 4.2.6.8 and 6.1.1.4'
Zn Zn -1.5491 0.6778 'International Tables Vol C Tables 4.2.6.8 and 6.1.1.4'

_shelx_space_group_comment       
;
The symmetry employed for this shelxl refinement is uniquely defined
by the following loop, which should always be used as a source of
symmetry information in preference to the above space-group names.
They are only intended as comments.
;
_space_group_crystal_system      orthorhombic
_space_group_IT_number           43
_space_group_name_H-M_alt        'F d d 2'
_space_group_name_Hall           'F 2 -2d'
loop_
_space_group_symop_operation_xyz
'x, y, z'
'-x, -y, z'
'-x+1/4, y+1/4, z+1/4'
'x+1/4, -y+1/4, z+1/4'
'x, y+1/2, z+1/2'
'-x, -y+1/2, z+1/2'
'-x+1/4, y+3/4, z+3/4'
'x+1/4, -y+3/4, z+3/4'
'x+1/2, y, z+1/2'
'-x+1/2, -y, z+1/2'
'-x+3/4, y+1/4, z+3/4'
'x+3/4, -y+1/4, z+3/4'
'x+1/2, y+1/2, z'
'-x+1/2, -y+1/2, z'
'-x+3/4, y+3/4, z+1/4'
'x+3/4, -y+3/4, z+1/4'

_symmetry_int_tables_number      43
_cell_length_a                   22.3458(7)
_cell_length_b                   29.7691(11)
_cell_length_c                   33.3734(11)
_cell_angle_alpha                90
_cell_angle_beta                 90
_cell_angle_gamma                90
_cell_volume                     22200.5(13)
_cell_formula_units_Z            16
_cell_measurement_reflns_used    6228
_cell_measurement_temperature    100.00(10)
_cell_measurement_theta_max      73.1560
_cell_measurement_theta_min      3.8910
_shelx_estimated_absorpt_T_max   ?
_shelx_estimated_absorpt_T_min   ?
_exptl_absorpt_coefficient_mu    1.563
_exptl_absorpt_correction_T_max  1.00000
_exptl_absorpt_correction_T_min  0.77309
_exptl_absorpt_correction_type   multi-scan
_exptl_absorpt_process_details   
;
CrysAlisPro, Agilent Technologies,
Version 1.171.36.28 (release 01-02-2013 CrysAlis171 .NET)
(compiled Feb  1 2013,16:14:44)
Empirical absorption correction using spherical harmonics,
 implemented in SCALE3 ABSPACK scaling algorithm.
;
_exptl_crystal_colour            colourless
_exptl_crystal_colour_primary    colourless
_exptl_crystal_density_diffrn    1.274
_exptl_crystal_density_meas      ?
_exptl_crystal_density_method    'not measured'
_exptl_crystal_description       block
_exptl_crystal_F_000             8848
_exptl_crystal_size_max          0.31
_exptl_crystal_size_mid          0.25
_exptl_crystal_size_min          0.24
_exptl_special_details           
;
 ?
;
_exptl_transmission_factor_max   ?
_exptl_transmission_factor_min   ?
_diffrn_reflns_av_R_equivalents  0.0357
_diffrn_reflns_av_unetI/netI     0.0441
_diffrn_reflns_Laue_measured_fraction_full 0.997
_diffrn_reflns_Laue_measured_fraction_max 0.976
_diffrn_reflns_limit_h_max       27
_diffrn_reflns_limit_h_min       -25
_diffrn_reflns_limit_k_max       37
_diffrn_reflns_limit_k_min       -33
_diffrn_reflns_limit_l_max       37
_diffrn_reflns_limit_l_min       -41
_diffrn_reflns_number            17046
_diffrn_reflns_point_group_measured_fraction_full 0.803
_diffrn_reflns_point_group_measured_fraction_max 0.770
_diffrn_reflns_theta_full        67.684
_diffrn_reflns_theta_max         73.789
_diffrn_reflns_theta_min         2.805
_diffrn_ambient_temperature      100.00(10)
_diffrn_detector_area_resol_mean 10.6501
_diffrn_measured_fraction_theta_full 0.997
_diffrn_measured_fraction_theta_max 0.976
_diffrn_measurement_details      
;
#__ type_ start__ end____ width___ exp.time_
  1 omega  -79.00  -42.00   1.0000   10.0000
omega____ theta____ kappa____ phi______ frames
    -      -39.7813  125.0000    0.0000 37

#__ type_ start__ end____ width___ exp.time_
  2 omega  -53.00   -3.00   1.0000   10.0000
omega____ theta____ kappa____ phi______ frames
    -      -39.7813  125.0000   60.0000 50

#__ type_ start__ end____ width___ exp.time_
  3 omega -126.00  -92.00   1.0000   40.0000
omega____ theta____ kappa____ phi______ frames
    -      -61.5000 -125.0000 -180.0000 34

#__ type_ start__ end____ width___ exp.time_
  4 omega -122.00  -75.00   1.0000   40.0000
omega____ theta____ kappa____ phi______ frames
    -      -61.5000 -125.0000   90.0000 47

#__ type_ start__ end____ width___ exp.time_
  5 omega   50.00   98.00   1.0000   40.0000
omega____ theta____ kappa____ phi______ frames
    -      107.7801  -45.0000  150.0000 48

#__ type_ start__ end____ width___ exp.time_
  6 omega   42.00   88.00   1.0000   40.0000
omega____ theta____ kappa____ phi______ frames
    -      107.7801  -45.0000 -120.0000 46

#__ type_ start__ end____ width___ exp.time_
  7 omega   32.00   85.00   1.0000   40.0000
omega____ theta____ kappa____ phi______ frames
    -      107.7801  -30.0000  -30.0000 53

#__ type_ start__ end____ width___ exp.time_
  8 omega   61.00   99.00   1.0000   40.0000
omega____ theta____ kappa____ phi______ frames
    -      107.7801  -45.0000   90.0000 38

#__ type_ start__ end____ width___ exp.time_
  9 omega   78.00  155.00   1.0000   40.0000
omega____ theta____ kappa____ phi______ frames
    -      107.7801   61.0000   90.0000 77

#__ type_ start__ end____ width___ exp.time_
 10 omega -114.00  -10.00   1.0000   10.0000
omega____ theta____ kappa____ phi______ frames
    -      -39.7813  -57.0000 -180.0000 104

#__ type_ start__ end____ width___ exp.time_
 11 omega   77.00  104.00   1.0000   40.0000
omega____ theta____ kappa____ phi______ frames
    -      107.7801   61.0000  -90.0000 27
;
_diffrn_measurement_device_type  'SuperNova, Dual, Cu at zero, Atlas'
_diffrn_measurement_method       '\w scans'
_diffrn_orient_matrix_UB_11      0.0202062000
_diffrn_orient_matrix_UB_12      -0.0086272000
_diffrn_orient_matrix_UB_13      0.0434484000
_diffrn_orient_matrix_UB_21      -0.0394400000
_diffrn_orient_matrix_UB_22      -0.0424070000
_diffrn_orient_matrix_UB_23      0.0015125000
_diffrn_orient_matrix_UB_31      0.0527736000
_diffrn_orient_matrix_UB_32      -0.0284155000
_diffrn_orient_matrix_UB_33      -0.0155250000
_diffrn_radiation_monochromator  mirror
_diffrn_radiation_probe          x-ray
_diffrn_radiation_type           CuK\a
_diffrn_radiation_wavelength     1.54184
_diffrn_source                   'SuperNova (Cu) X-ray Source'
_reflns_Friedel_coverage         0.550
_reflns_Friedel_fraction_full    0.602
_reflns_Friedel_fraction_max     0.557
_reflns_number_gt                7876
_reflns_number_total             8656
_reflns_odcompleteness_completeness 97.48
_reflns_odcompleteness_iscentric 1
_reflns_odcompleteness_theta     73.63
_reflns_special_details          
;
 Reflections were merged by SHELXL according to the crystal
 class for the calculation of statistics and refinement.
 
 _reflns_Friedel_fraction is defined as the number of unique
 Friedel pairs measured divided by the number that would be
 possible theoretically, ignoring centric projections and
 systematic absences.
;
_reflns_threshold_expression     'I > 2\s(I)'
_computing_cell_refinement       
;
CrysAlisPro, Agilent Technologies,
Version 1.171.36.28 (release 01-02-2013 CrysAlis171 .NET)
(compiled Feb  1 2013,16:14:44)
;
_computing_data_collection       
;
CrysAlisPro, Agilent Technologies,
Version 1.171.36.28 (release 01-02-2013 CrysAlis171 .NET)
(compiled Feb  1 2013,16:14:44)
;
_computing_data_reduction        
;
CrysAlisPro, Agilent Technologies,
Version 1.171.36.28 (release 01-02-2013 CrysAlis171 .NET)
(compiled Feb  1 2013,16:14:44)
;
_computing_molecular_graphics    'Olex2 (Dolomanov et al., 2009)'
_computing_publication_material  'Olex2 (Dolomanov et al., 2009)'
_computing_structure_refinement  'ShelXL (Sheldrick, 2008)'
_computing_structure_solution    'ShelXS (Sheldrick, 2008)'
_refine_diff_density_max         1.586
_refine_diff_density_min         -1.120
_refine_diff_density_rms         0.142
_refine_ls_abs_structure_details 
;
 Flack x determined using 2607 quotients [(I+)-(I-)]/[(I+)+(I-)]
 (Parsons, Flack and Wagner, Acta Cryst. B69 (2013) 249-259).
;
_refine_ls_abs_structure_Flack   0.01(2)
_refine_ls_extinction_coef       .
_refine_ls_extinction_method     none
_refine_ls_goodness_of_fit_ref   1.039
_refine_ls_hydrogen_treatment    constr
_refine_ls_matrix_type           full
_refine_ls_number_parameters     685
_refine_ls_number_reflns         8656
_refine_ls_number_restraints     1
_refine_ls_R_factor_all          0.0824
_refine_ls_R_factor_gt           0.0763
_refine_ls_restrained_S_all      1.039
_refine_ls_shift/su_max          0.000
_refine_ls_shift/su_mean         0.000
_refine_ls_structure_factor_coef Fsqd
_refine_ls_weighting_details     
'w=1/[\s^2^(Fo^2^)+(0.1647P)^2^+137.7684P] where P=(Fo^2^+2Fc^2^)/3'
_refine_ls_weighting_scheme      calc
_refine_ls_wR_factor_gt          0.2192
_refine_ls_wR_factor_ref         0.2287
_refine_special_details          
;
 ?
;
_olex2_refinement_description    
;
1. Fixed Uiso
 At 1.2 times of:
  All C(H) groups, All N(H) groups
 At 1.5 times of:
  All C(H,H,H) groups, All O(H) groups, All O(H,H) groups
2. Others
 Fixed Sof: O18(0.5) H18A(0.5) H18B(0.5) O17(0.5) H17(0.5) C16(0.5) H16A(0.5)
 H16B(0.5) H16C(0.5) O15(0.5) H15(0.5) C14(0.5) H14A(0.5) H14B(0.5) H14C(0.5)
 O11(0.5) H11(0.5) C10(0.5) H10A(0.5) H10B(0.5) H10C(0.5) O13(0.5) H13(0.5)
 C12(0.5) H12A(0.5) H12B(0.5) H12C(0.5)
3.a Riding coordinates:
 O17(H17), C16(H16A,H16B,H16C), C14(H14A,H14B,H14C), C10(H10A,H10B,H10C),
 C12(H12A,H12B,H12C)
3.b Free rotating group:
 O18(H18A,H18B)
3.c Aromatic/amide H refined with riding coordinates:
 N1C(H1C), C2C(H2C), C3C(H3C), C5C(H5C), C6C(H6C), N1D(H1D), C2D(H2D),
 C3D(H3D), C5D(H5D), C6D(H6D), N1A(H1A), N1B(H1B), C2A(H2A), C2B(H2B), C3A(H3A),
  C3B(H3B), C5A(H5A), C5B(H5B), C6A(H6A), C6B(H6B)
3.d Tetrahedral OH refined with riding coordinates:
 O15(H15), O11(H11), O13(H13)
3.e Idealised Me refined as rotating group:
 C31C(H31G,H31H,H31I), C51C(H51G,H51H,H51I), C31D(H31J,H31K,H31L), C51D(H51J,
 H51K,H51L), C31A(H31A,H31B,H31C), C31B(H31D,H31E,H31F), C51A(H51A,H51B,H51C),
 C51B(H51D,H51E,H51F)
;
_atom_sites_solution_hydrogens   mixed
_atom_sites_solution_primary     direct
_atom_sites_solution_secondary   ?
loop_
_atom_site_label
_atom_site_type_symbol
_atom_site_fract_x
_atom_site_fract_y
_atom_site_fract_z
_atom_site_U_iso_or_equiv
_atom_site_adp_type
_atom_site_occupancy
_atom_site_site_symmetry_order
_atom_site_calc_flag
_atom_site_refinement_flags_posn
_atom_site_refinement_flags_adp
_atom_site_refinement_flags_occupancy
_atom_site_disorder_assembly
_atom_site_disorder_group
Zn1 Zn 1.0000 0.5000 0.38346(5) 0.0304(4) Uani 1 2 d S T P . .
O1C O 0.8571(3) 0.3223(2) 0.6375(2) 0.0490(16) Uani 1 1 d . . . . .
O2C O 0.7902(3) 0.2909(2) 0.59717(19) 0.0393(14) Uani 1 1 d . . . . .
N1C N 0.9015(3) 0.5025(2) 0.4404(2) 0.0359(16) Uani 1 1 d . . . . .
H1C H 0.8953 0.5292 0.4317 0.043 Uiso 1 1 calc R . . . .
N2C N 0.9407(3) 0.4728(3) 0.4233(2) 0.0371(16) Uani 1 1 d . . . . .
C1C C 0.8508(4) 0.3491(3) 0.5709(3) 0.0336(17) Uani 1 1 d . . . . .
C2C C 0.8350(4) 0.3398(3) 0.5317(3) 0.0408(19) Uani 1 1 d . . . . .
H2C H 0.8134 0.3140 0.5256 0.049 Uiso 1 1 calc R . . . .
C3'C C 0.9389(4) 0.4362(3) 0.4464(3) 0.0362(18) Uani 1 1 d . . . . .
C3C C 0.8518(4) 0.3697(3) 0.5011(3) 0.043(2) Uani 1 1 d . . . . .
H3C H 0.8423 0.3629 0.4747 0.051 Uiso 1 1 calc R . . . .
C4'C C 0.8981(4) 0.4414(3) 0.4771(3) 0.0334(17) Uani 1 1 d . . . . .
C4C C 0.8824(4) 0.4092(3) 0.5097(3) 0.0355(18) Uani 1 1 d . . . . .
C5'C C 0.8744(4) 0.4850(3) 0.4719(3) 0.0401(19) Uani 1 1 d . . . . .
C5C C 0.8978(4) 0.4181(3) 0.5494(3) 0.0384(19) Uani 1 1 d . . . . .
H5C H 0.9180 0.4445 0.5558 0.046 Uiso 1 1 calc R . . . .
C6C C 0.8833(4) 0.3881(3) 0.5790(3) 0.0404(19) Uani 1 1 d . . . . .
H6C H 0.8954 0.3938 0.6052 0.049 Uiso 1 1 calc R . . . .
C7C C 0.8322(4) 0.3185(3) 0.6050(3) 0.0381(19) Uani 1 1 d . . . . .
C31C C 0.9781(4) 0.3965(3) 0.4382(3) 0.043(2) Uani 1 1 d . . . . .
H31G H 0.9784 0.3905 0.4099 0.065 Uiso 1 1 calc GR . . . .
H31H H 0.9628 0.3708 0.4522 0.065 Uiso 1 1 calc GR . . . .
H31I H 1.0180 0.4028 0.4471 0.065 Uiso 1 1 calc GR . . . .
C51C C 0.8282(5) 0.5101(4) 0.4953(3) 0.046(2) Uani 1 1 d . . . . .
H51G H 0.8472 0.5330 0.5109 0.069 Uiso 1 1 calc GR . . . .
H51H H 0.8075 0.4897 0.5127 0.069 Uiso 1 1 calc GR . . . .
H51I H 0.8002 0.5237 0.4771 0.069 Uiso 1 1 calc GR . . . .
Zn2 Zn 0.5000 0.5000 0.50050(5) 0.0316(4) Uani 1 2 d S T P . .
O1D O 0.2939(3) 0.7088(3) 0.2853(2) 0.0481(17) Uani 1 1 d . . . . .
O2D O 0.3852(3) 0.7385(3) 0.2903(2) 0.0492(17) Uani 1 1 d . . . . .
N1D N 0.3862(3) 0.5400(3) 0.4779(2) 0.0385(16) Uani 1 1 d . . . . .
H1D H 0.3701 0.5253 0.4973 0.046 Uiso 1 1 calc R . . . .
N2D N 0.4449(3) 0.5369(2) 0.4679(2) 0.0325(15) Uani 1 1 d . . . . .
C1D C 0.3604(4) 0.6771(3) 0.3319(3) 0.0332(17) Uani 1 1 d . . . . .
C2D C 0.3243(4) 0.6400(3) 0.3380(3) 0.044(2) Uani 1 1 d . . . . .
H2D H 0.2916 0.6352 0.3214 0.053 Uiso 1 1 calc R . . . .
C3'D C 0.4523(4) 0.5648(3) 0.4371(3) 0.0356(17) Uani 1 1 d . . . . .
C3D C 0.3364(4) 0.6099(4) 0.3686(3) 0.045(2) Uani 1 1 d . . . . .
H3D H 0.3114 0.5853 0.3725 0.054 Uiso 1 1 calc R . . . .
C4'D C 0.3981(4) 0.5850(3) 0.4265(3) 0.0376(19) Uani 1 1 d . . . . .
C4D C 0.3857(4) 0.6163(3) 0.3936(3) 0.0343(17) Uani 1 1 d . . . . .
C5'D C 0.3562(4) 0.5685(3) 0.4544(3) 0.0394(19) Uani 1 1 d . . . . .
C5D C 0.4224(4) 0.6527(3) 0.3862(3) 0.0369(18) Uani 1 1 d . . . . .
H5D H 0.4558 0.6572 0.4023 0.044 Uiso 1 1 calc R . . . .
C6D C 0.4109(4) 0.6824(3) 0.3557(3) 0.0371(18) Uani 1 1 d . . . . .
H6D H 0.4370 0.7061 0.3509 0.044 Uiso 1 1 calc R . . . .
C7D C 0.3463(4) 0.7111(3) 0.3003(3) 0.0367(18) Uani 1 1 d . . . . .
C31D C 0.5123(4) 0.5703(4) 0.4176(3) 0.051(3) Uani 1 1 d . . . . .
H31J H 0.5173 0.6009 0.4093 0.076 Uiso 1 1 calc GR . . . .
H31K H 0.5149 0.5508 0.3948 0.076 Uiso 1 1 calc GR . . . .
H31L H 0.5432 0.5626 0.4365 0.076 Uiso 1 1 calc GR . . . .
C51D C 0.2919(4) 0.5793(4) 0.4604(4) 0.057(3) Uani 1 1 d . . . . .
H51J H 0.2680 0.5607 0.4432 0.086 Uiso 1 1 calc GR . . . .
H51K H 0.2850 0.6103 0.4541 0.086 Uiso 1 1 calc GR . . . .
H51L H 0.2811 0.5737 0.4878 0.086 Uiso 1 1 calc GR . . . .
Zn3 Zn 0.75206(5) 0.50489(4) 0.68707(3) 0.0315(3) Uani 1 1 d . . . . .
O1A O 0.9496(3) 0.2900(2) 0.90002(18) 0.0359(13) Uani 1 1 d . . . . .
O1B O 0.6244(3) 0.2651(3) 0.4815(2) 0.0501(17) Uani 1 1 d . . . . .
O2A O 0.8674(3) 0.2488(2) 0.8861(2) 0.0467(17) Uani 1 1 d . . . . .
O2B O 0.5349(3) 0.2982(2) 0.47273(19) 0.0391(14) Uani 1 1 d . . . . .
N1A N 0.8546(4) 0.4467(3) 0.6987(3) 0.0471(19) Uani 1 1 d . . . . .
H1A H 0.8679 0.4567 0.6762 0.056 Uiso 1 1 calc R . . . .
N1B N 0.6351(3) 0.4676(3) 0.6657(2) 0.0390(16) Uani 1 1 d . . . . .
H1B H 0.6203 0.4809 0.6863 0.047 Uiso 1 1 calc R . . . .
N2A N 0.8043(3) 0.4617(3) 0.7167(2) 0.0376(16) Uani 1 1 d . . . . .
N2B N 0.6938(3) 0.4708(3) 0.6539(2) 0.0367(16) Uani 1 1 d . . . . .
C1A C 0.8861(4) 0.3148(3) 0.8487(3) 0.0358(18) Uani 1 1 d . . . . .
C1B C 0.6018(4) 0.3308(3) 0.5188(3) 0.0346(18) Uani 1 1 d . . . . .
C2A C 0.9289(4) 0.3459(3) 0.8353(3) 0.0388(19) Uani 1 1 d . . . . .
H2A H 0.9668 0.3461 0.8468 0.047 Uiso 1 1 calc R . . . .
C2B C 0.5654(4) 0.3672(3) 0.5263(3) 0.0369(18) Uani 1 1 d . . . . .
H2B H 0.5308 0.3706 0.5111 0.044 Uiso 1 1 calc R . . . .
C3'A C 0.7983(4) 0.4373(3) 0.7503(3) 0.0374(19) Uani 1 1 d . . . . .
C3'B C 0.6988(4) 0.4454(3) 0.6214(3) 0.041(2) Uani 1 1 d . . . . .
C3A C 0.9155(4) 0.3761(3) 0.8054(3) 0.042(2) Uani 1 1 d . . . . .
H3A H 0.9439 0.3971 0.7976 0.050 Uiso 1 1 calc R . . . .
C3B C 0.5782(4) 0.3986(3) 0.5552(3) 0.0360(18) Uani 1 1 d . . . . .
H3B H 0.5526 0.4228 0.5591 0.043 Uiso 1 1 calc R . . . .
C4'A C 0.8455(4) 0.4075(3) 0.7532(3) 0.043(2) Uani 1 1 d . . . . .
C4'B C 0.6423(4) 0.4253(3) 0.6111(3) 0.0390(19) Uani 1 1 d . . . . .
C4A C 0.8597(4) 0.3755(3) 0.7866(3) 0.0382(19) Uani 1 1 d . . . . .
C4B C 0.6304(4) 0.3941(3) 0.5793(3) 0.0382(19) Uani 1 1 d . . . . .
C5'A C 0.8812(4) 0.4144(4) 0.7199(3) 0.046(2) Uani 1 1 d . . . . .
C5'B C 0.6035(4) 0.4409(3) 0.6410(3) 0.0404(19) Uani 1 1 d . . . . .
C5A C 0.8173(4) 0.3444(4) 0.7996(3) 0.045(2) Uani 1 1 d . . . . .
H5A H 0.7798 0.3436 0.7875 0.054 Uiso 1 1 calc R . . . .
C5B C 0.6677(5) 0.3579(4) 0.5714(3) 0.047(2) Uani 1 1 d . . . . .
H5B H 0.7027 0.3548 0.5862 0.057 Uiso 1 1 calc R . . . .
C6A C 0.8305(4) 0.3147(3) 0.8303(3) 0.041(2) Uani 1 1 d . . . . .
H6A H 0.8015 0.2944 0.8388 0.050 Uiso 1 1 calc R . . . .
C6B C 0.6547(4) 0.3260(3) 0.5422(3) 0.044(2) Uani 1 1 d . . . . .
H6B H 0.6803 0.3018 0.5380 0.053 Uiso 1 1 calc R . . . .
C7A C 0.9011(4) 0.2821(3) 0.8806(3) 0.0362(18) Uani 1 1 d . . . . .
C7B C 0.5865(4) 0.2956(3) 0.4888(3) 0.0393(19) Uani 1 1 d . . . . .
C31A C 0.7466(4) 0.4440(4) 0.7781(3) 0.043(2) Uani 1 1 d . . . . .
H31A H 0.7612 0.4527 0.8040 0.064 Uiso 1 1 calc GR . . . .
H31B H 0.7245 0.4165 0.7804 0.064 Uiso 1 1 calc GR . . . .
H31C H 0.7210 0.4672 0.7678 0.064 Uiso 1 1 calc GR . . . .
C31B C 0.7557(5) 0.4433(5) 0.5992(4) 0.059(3) Uani 1 1 d . . . . .
H31D H 0.7827 0.4233 0.6126 0.089 Uiso 1 1 calc GR . . . .
H31E H 0.7731 0.4728 0.5979 0.089 Uiso 1 1 calc GR . . . .
H31F H 0.7483 0.4326 0.5725 0.089 Uiso 1 1 calc GR . . . .
C51A C 0.9371(5) 0.3913(5) 0.7049(4) 0.061(3) Uani 1 1 d . . . . .
H51A H 0.9684 0.4131 0.