####################################################################### 
# 
# This file contains crystal structure data downloaded from the 
# Cambridge Structural Database (CSD) hosted by the Cambridge 
# Crystallographic Data Centre (CCDC).
# 
# Full information about CCDC data access policies and citation 
# guidelines are available at http://www.ccdc.cam.ac.uk/access/V1 
# 
# Audit and citation data items may have been added by the CCDC. 
# Please retain this information to preserve the provenance of 
# this file and to allow appropriate attribution of the data. 
# 
#######################################################################

data_c2m-sr
_audit_block_doi                 10.5517/cc13xtwq
_database_code_depnum_ccdc_archive 'CCDC 1040604'
loop_
_citation_id
_citation_doi
_citation_year
1 10.1039/C5DT00011D 2015
_audit_update_record             
;
2015-03-12 deposited with the CCDC.	2024-07-11 downloaded from the CCDC.
;
_audit_creation_date             2014-12-29
_audit_creation_method           
;
Olex2 1.2
(compiled 2014.08.28 svn.r2986 for OlexSys, GUI svn.r4874)
;
_chemical_name_common            ?
_chemical_name_systematic        ?
_chemical_formula_moiety         'C24 H26 Cu2 N4 O10 S'
_chemical_formula_sum            'C24 H26 Cu2 N4 O10 S'
_chemical_formula_weight         689.63
_chemical_absolute_configuration ?
_chemical_melting_point          ?
loop_
_atom_type_symbol
_atom_type_description
_atom_type_scat_dispersion_real
_atom_type_scat_dispersion_imag
_atom_type_scat_source
C C 0.0033 0.0016 'International Tables Vol C Tables 4.2.6.8 and 6.1.1.4'
H H 0.0000 0.0000 'International Tables Vol C Tables 4.2.6.8 and 6.1.1.4'
Cu Cu 0.3280 1.2590 'International Tables Vol C Tables 4.2.6.8 and 6.1.1.4'
N N 0.0061 0.0033 'International Tables Vol C Tables 4.2.6.8 and 6.1.1.4'
O O 0.0106 0.0060 'International Tables Vol C Tables 4.2.6.8 and 6.1.1.4'
S S 0.1246 0.1234 'International Tables Vol C Tables 4.2.6.8 and 6.1.1.4'

_space_group_crystal_system      monoclinic
_space_group_IT_number           12
_space_group_name_H-M_alt        'C 1 2/m 1'
_space_group_name_Hall           '-C 2y'
loop_
_space_group_symop_id
_space_group_symop_operation_xyz
1 'x, y, z'
2 '-x, y, -z'
3 'x+1/2, y+1/2, z'
4 '-x+1/2, y+1/2, -z'
5 '-x, -y, -z'
6 'x, -y, z'
7 '-x+1/2, -y+1/2, -z'
8 'x+1/2, -y+1/2, z'

_symmetry_int_tables_number      12
_cell_length_a                   32.685(7)
_cell_length_b                   29.520(6)
_cell_length_c                   9.7350(19)
_cell_angle_alpha                90.00
_cell_angle_beta                 103.71(3)
_cell_angle_gamma                90.00
_cell_volume                     9125(3)
_cell_formula_units_Z            8
_cell_measurement_reflns_used    ?
_cell_measurement_temperature    100(2)
_cell_measurement_theta_max      ?
_cell_measurement_theta_min      ?
_exptl_absorpt_coefficient_mu    1.016
_exptl_absorpt_correction_T_max  ?
_exptl_absorpt_correction_T_min  ?
_exptl_absorpt_correction_type   multi-scan
_exptl_absorpt_process_details   'XScale within XDS'
_exptl_crystal_colour            Green
_exptl_crystal_density_diffrn    1.004
_exptl_crystal_density_meas      ?
_exptl_crystal_density_method    'not measured'
_exptl_crystal_description       Plate
_exptl_crystal_F_000             2816
_exptl_crystal_size_max          0.08
_exptl_crystal_size_mid          0.06
_exptl_crystal_size_min          0.01
_exptl_special_details           
;
 Crystals were collected using a single 360 degree phi scan on the 
Australian Synchrotron MX1 beamline. The crystals were extremely 
weakly diffracting and as a result, reflections were only observed 
to a theta value of 22.48 degrees. 
;
_diffrn_reflns_av_R_equivalents  0.1489
_diffrn_reflns_av_unetI/netI     0.0873
_diffrn_reflns_limit_h_max       34
_diffrn_reflns_limit_h_min       -35
_diffrn_reflns_limit_k_max       30
_diffrn_reflns_limit_k_min       -30
_diffrn_reflns_limit_l_max       10
_diffrn_reflns_limit_l_min       -10
_diffrn_reflns_number            42241
_diffrn_reflns_theta_full        22.48
_diffrn_reflns_theta_max         22.48
_diffrn_reflns_theta_min         1.28
_diffrn_ambient_temperature      100(2)
_diffrn_detector_area_resol_mean ?
_diffrn_measured_fraction_theta_full 0.962
_diffrn_measured_fraction_theta_max 0.962
_diffrn_measurement_device_type  'ADSC Quantum 210r'
_diffrn_measurement_method       'Phi Scan'
_diffrn_radiation_monochromator  'Silicon Double Crystal'
_diffrn_radiation_probe          x-ray
_diffrn_radiation_type           synchrotron
_diffrn_radiation_wavelength     0.71083
_diffrn_source                   'Australian Synchrotron'
_diffrn_standards_number         0
_reflns_number_gt                3883
_reflns_number_total             5882
_reflns_threshold_expression     >2sigma(I)
_computing_cell_refinement       'XDS (Kabsch, 1993)'
_computing_data_collection       'BluIce (McPhillips, 2002)'
_computing_data_reduction        'XDS (Kabsch, 1993)'
_computing_molecular_graphics    'Olex2 (Dolomanov et al., 2009)'
_computing_publication_material  'Olex2 (Dolomanov et al., 2009)'
_computing_structure_refinement  'XLMP (Sheldrick, 2008)'
_computing_structure_solution    'SHELXS-97 (Sheldrick, 1997)'
_refine_diff_density_max         2.430
_refine_diff_density_min         -0.994
_refine_diff_density_rms         0.129
_refine_ls_extinction_coef       ?
_refine_ls_extinction_method     none
_refine_ls_goodness_of_fit_ref   1.011
_refine_ls_hydrogen_treatment    mixed
_refine_ls_matrix_type           full
_refine_ls_number_parameters     389
_refine_ls_number_reflns         5882
_refine_ls_number_restraints     19
_refine_ls_R_factor_all          0.1337
_refine_ls_R_factor_gt           0.1023
_refine_ls_restrained_S_all      1.015
_refine_ls_shift/su_max          0.001
_refine_ls_shift/su_mean         0.000
_refine_ls_structure_factor_coef Fsqd
_refine_ls_weighting_details     
'calc w=1/[\s^2^(Fo^2^)+(0.2000P)^2^+0.0000P] where P=(Fo^2^+2Fc^2^)/3'
_refine_ls_weighting_scheme      calc
_refine_ls_wR_factor_gt          0.2701
_refine_ls_wR_factor_ref         0.2914
_refine_special_details          SQUEEZE
_olex2_refinement_description    
;
1. Others
 Fixed U12: Cu2(0) Cu3(0) O8(0) O9(0)
 Fixed U23: Cu2(0) Cu3(0) O8(0) O9(0)
 Fixed Uiso: H7A(0.163) H7B(0.163) H8A(0.16) H8B(0.16) H9A(0.183) H9B(0.183)
 H1(0.069) H1A(0.072) H2(0.101) H2A(0.082) H3(0.086) H3A(0.092) H5(0.094)
 H5A(0.071) H6(0.102) H6A(0.065) H31A(0.116) H31B(0.116) H31C(0.116)
 H31D(0.134) H31E(0.134) H31F(0.134) H51A(0.085) H51B(0.085) H51C(0.085)
 H51D(0.134) H51E(0.134) H51F(0.134)
 Fixed X: H7A(0.166) H7B(0.2074) H1(0.2762) H1A(0.1531) H2(0.4449) H2A(0.0098)
 H3(0.3967) H3A(0.0462) H5(0.346) H5A(0.1504) H6(0.394) H6A(0.1146)
 H31A(0.2825) H31B(0.3289) H31C(0.2891) H31D(0.2104) H31E(0.1711) H31F(0.2055)
 H51A(0.3205) H51B(0.3672) H51C(0.3372) H51D(0.0895) H51E(0.0784) H51F(0.0574)
 Fixed Y: Cu2(0) Cu3(0) H7A(0.1737) H7B(0.1581) O8(0) H8A(0) H8B(0) O9(0)
 H9A(0) H9B(0) H1(0.257) H1A(0.255) H2(0.0809) H2A(0.1064) H3(0.1338)
 H3A(0.1519) H5(0.1556) H5A(0.1359) H6(0.1114) H6A(0.0885) H31A(0.1204)
 H31B(0.1069) H31C(0.0966) H31D(0.1174) H31E(0.0946) H31F(0.1219) H51A(0.2521)
 H51B(0.2456) H51C(0.2841) H51D(0.2812) H51E(0.2542) H51F(0.2395)
 Fixed Z: H7A(-0.2995) H7B(-0.3396) H1(-0.2718) H1A(-0.0796) H2(-0.1698)
 H2A(0.1508) H3(-0.1091) H3A(0.0171) H5(-0.5188) H5A(0.335) H6(-0.5864)
 H6A(0.4491) H31A(-0.0587) H31B(-0.0717) H31C(-0.1996) H31D(0.0329)
 H31E(0.0776) H31F(0.192) H51A(-0.4975) H51B(-0.4017) H51C(-0.3632) H51D(-
 0.0127) H51E(0.1162) H51F(-0.0432)
;
_atom_sites_solution_hydrogens   geom
_atom_sites_solution_primary     direct
_atom_sites_solution_secondary   difmap
loop_
_atom_site_label
_atom_site_type_symbol
_atom_site_fract_x
_atom_site_fract_y
_atom_site_fract_z
_atom_site_U_iso_or_equiv
_atom_site_adp_type
_atom_site_occupancy
_atom_site_calc_flag
_atom_site_disorder_assembly
_atom_site_disorder_group
_atom_site_site_symmetry_order
_atom_site_refinement_flags_posn
_atom_site_refinement_flags_adp
_atom_site_refinement_flags_occupancy
Cu1 Cu 0.23027(4) 0.20022(4) -0.09435(13) 0.0557(5) Uani 1 d . . 1 . . .
Cu2 Cu 0.47657(5) 0.0000 -0.6304(2) 0.0613(6) Uani 1 d . . 2 S T P
Cu3 Cu 0.03260(5) 0.0000 0.61085(17) 0.0492(5) Uani 1 d . . 2 S T P
S1 S 0.20818(8) 0.30800(8) -0.2139(3) 0.0622(8) Uani 1 d . . 1 . . .
O1 O 0.4845(3) 0.0464(2) -0.3344(9) 0.079(2) Uani 1 d . . 1 . . .
O1A O 0.0003(2) 0.0464(2) 0.3179(8) 0.071(2) Uani 1 d . . 1 . . .
O2 O 0.4439(3) 0.0459(3) -0.5543(11) 0.096(3) Uani 1 d . . 1 . . .
O2A O 0.0563(2) 0.0456(2) 0.5032(8) 0.0664(19) Uani 1 d . . 1 . . .
O3 O 0.2303(2) 0.2787(3) -0.0991(9) 0.084(2) Uani 1 d . . 1 . . .
O4 O 0.2249(2) 0.2976(2) -0.3362(8) 0.075(2) Uani 1 d . . 1 . . .
O5 O 0.2142(3) 0.3543(3) -0.1732(12) 0.108(3) Uani 1 d . . 1 . . .
O6 O 0.1641(2) 0.2944(3) -0.2356(10) 0.092(3) Uani 1 d . . 1 . . .
O7 O 0.1970(3) 0.1740(3) -0.2657(11) 0.108(3) Uani 1 d . . 1 . . .
H7A H 0.1660 0.1737 -0.2995 0.163 Uiso 1 d . . 1 DGR . .
H7B H 0.2074 0.1581 -0.3396 0.163 Uiso 1 d . . 1 DGR . .
O8 O 0.4418(4) 0.0000 -0.8448(16) 0.107(4) Uani 1 d . . 2 DS TU P
H8A H 0.459(5) 0.0000 -0.900(16) 0.160 Uiso 1 d . . 2 DRS T P
H8B H 0.4155(12) 0.0000 -0.882(18) 0.160 Uiso 1 d . . 2 DRS T P
O9 O 0.0865(4) 0.0000 0.7973(18) 0.122(5) Uani 1 d . . 2 DS TU P
H9A H 0.094(3) 0.0000 0.888(3) 0.183 Uiso 1 d . . 2 DRS T P
H9B H 0.103(3) 0.0000 0.741(8) 0.183 Uiso 1 d . . 2 DRS T P
N1 N 0.2895(2) 0.2308(2) -0.2582(8) 0.057(2) Uani 1 d . . 1 . . .
H1 H 0.2762 0.2570 -0.2718 0.069 Uiso 1 calc . . 1 R . .
N1A N 0.1511(2) 0.2296(2) -0.0344(9) 0.060(2) Uani 1 d . . 1 . . .
H1A H 0.1531 0.2550 -0.0796 0.072 Uiso 1 calc . . 1 R . .
N2 N 0.2792(2) 0.1969(2) -0.1822(8) 0.054(2) Uani 1 d . . 1 . . .
N2A N 0.1804(3) 0.1962(2) -0.0162(9) 0.056(2) Uani 1 d . . 1 . . .
C1 C 0.4246(4) 0.0910(4) -0.3863(13) 0.073(3) Uani 1 d . . 1 . . .
C1A C 0.0607(3) 0.0918(3) 0.3120(11) 0.059(2) Uani 1 d . . 1 . . .
C2 C 0.4253(4) 0.0968(4) -0.2412(14) 0.084(4) Uani 1 d . . 1 . . .
H2 H 0.4449 0.0809 -0.1698 0.101 Uiso 1 calc . . 1 R . .
C2A C 0.0392(3) 0.1118(3) 0.1847(12) 0.069(3) Uani 1 d . . 1 . . .
H2A H 0.0098 0.1064 0.1508 0.082 Uiso 1 calc . . 1 R . .
C3 C 0.3954(3) 0.1278(4) -0.2059(13) 0.072(3) Uani 1 d . . 1 . . .
H3 H 0.3967 0.1338 -0.1091 0.086 Uiso 1 calc . . 1 R . .
C3' C 0.3061(3) 0.1643(3) -0.1866(12) 0.067(3) Uani 1 d . . 1 . . .
C3A C 0.0603(3) 0.1396(4) 0.1059(13) 0.077(3) Uani 1 d . . 1 . . .
H3A H 0.0462 0.1519 0.0171 0.092 Uiso 1 calc . . 1 R . .
C3A' C 0.1653(3) 0.1636(3) 0.0534(12) 0.067(3) Uani 1 d . . 1 . . .
C4 C 0.3655(4) 0.1484(3) -0.3054(13) 0.071(3) Uani 1 d . . 1 . . .
C4' C 0.3326(3) 0.1775(3) -0.2692(10) 0.055(2) Uani 1 d . . 1 . . .
C4A C 0.1030(3) 0.1484(3) 0.1644(12) 0.064(3) Uani 1 d . . 1 . . .
C4A' C 0.1285(3) 0.1764(3) 0.0854(10) 0.051(2) Uani 1 d . . 1 . . .
C5 C 0.3666(4) 0.1409(4) -0.4476(12) 0.078(3) Uani 1 d . . 1 . . .
H5 H 0.3460 0.1556 -0.5188 0.094 Uiso 1 calc . . 1 R . .
C5' C 0.3219(3) 0.2205(3) -0.3100(10) 0.050(2) Uani 1 d . . 1 . . .
C5A C 0.1217(3) 0.1293(3) 0.2932(11) 0.059(3) Uani 1 d . . 1 . . .
H5A H 0.1504 0.1359 0.3350 0.071 Uiso 1 calc . . 1 R . .
C5A' C 0.1187(3) 0.2199(3) 0.0232(12) 0.065(3) Uani 1 d . . 1 . . .
C6 C 0.3945(4) 0.1144(4) -0.4889(13) 0.085(4) Uani 1 d . . 1 . . .
H6 H 0.3940 0.1114 -0.5864 0.102 Uiso 1 calc . . 1 R . .
C6A C 0.1002(3) 0.1015(3) 0.3616(10) 0.054(2) Uani 1 d . . 1 . . .
H6A H 0.1146 0.0885 0.4491 0.065 Uiso 1 calc . . 1 R . .
C7 C 0.4530(4) 0.0580(4) -0.4291(14) 0.068(3) Uani 1 d . . 1 . . .
C7A C 0.0373(3) 0.0585(3) 0.3902(13) 0.057(2) Uani 1 d . . 1 . . .
C31 C 0.3012(4) 0.1179(3) -0.1235(13) 0.077(3) Uani 1 d . . 1 . . .
H31A H 0.2825 0.1204 -0.0587 0.116 Uiso 1 calc . . 1 GR . .
H31B H 0.3289 0.1069 -0.0717 0.116 Uiso 1 calc . . 1 GR . .
H31C H 0.2891 0.0966 -0.1996 0.116 Uiso 1 calc . . 1 GR . .
C31A C 0.1903(4) 0.1206(3) 0.0924(15) 0.089(4) Uani 1 d . . 1 . . .
H31D H 0.2104 0.1174 0.0329 0.134 Uiso 1 calc . . 1 GR . .
H31E H 0.1711 0.0946 0.0776 0.134 Uiso 1 calc . . 1 GR . .
H31F H 0.2055 0.1219 0.1920 0.134 Uiso 1 calc . . 1 GR . .
C51 C 0.3381(3) 0.2534(3) -0.4009(11) 0.057(2) Uani 1 d . . 1 . . .
H51A H 0.3205 0.2521 -0.4975 0.085 Uiso 1 calc . . 1 GR . .
H51B H 0.3672 0.2456 -0.4017 0.085 Uiso 1 calc . . 1 GR . .
H51C H 0.3372 0.2841 -0.3632 0.085 Uiso 1 calc . . 1 GR . .
C51A C 0.0830(4) 0.2514(4) 0.0207(17) 0.090(4) Uani 1 d . . 1 . . .
H51D H 0.0895 0.2812 -0.0127 0.134 Uiso 1 calc . . 1 GR . .
H51E H 0.0784 0.2542 0.1162 0.134 Uiso 1 calc . . 1 GR . .
H51F H 0.0574 0.2395 -0.0432 0.134 Uiso 1 calc . . 1 GR . .

loop_
_atom_site_aniso_label
_atom_site_aniso_U_11
_atom_site_aniso_U_22
_atom_site_aniso_U_33
_atom_site_aniso_U_23
_atom_site_aniso_U_13
_atom_site_aniso_U_12
Cu1 0.0679(8) 0.0378(7) 0.0818(9) 0.0061(5) 0.0586(7) 0.0030(5)
Cu2 0.0658(11) 0.0346(9) 0.1065(15) 0.000 0.0659(11) 0.000
Cu3 0.0523(9) 0.0411(9) 0.0718(11) 0.000 0.0499(8) 0.000
S1 0.0765(18) 0.0379(15) 0.089(2) 0.0099(12) 0.0525(16) 0.0087(11)
O1 0.105(6) 0.057(5) 0.094(6) -0.005(4) 0.058(5) 0.021(4)
O1A 0.079(5) 0.069(5) 0.080(5) 0.015(4) 0.051(4) -0.027(4)
O2 0.107(6) 0.077(5) 0.119(8) -0.008(5) 0.058(6) 0.030(5)
O2A 0.067(4) 0.073(5) 0.064(5) 0.021(4) 0.025(4) -0.011(3)
O3 0.089(5) 0.075(5) 0.115(7) 0.017(4) 0.077(5) 0.003(4)
O4 0.107(6) 0.052(4) 0.092(5) 0.006(3) 0.077(5) 0.018(4)
O5 0.141(8) 0.057(5) 0.156(8) -0.007(5) 0.093(7) -0.010(5)
O6 0.070(5) 0.094(6) 0.129(7) 0.029(5) 0.055(5) -0.008(4)
O7 0.081(5) 0.120(7) 0.146(8) 0.035(6) 0.070(6) 0.007(5)
O8 0.108(9) 0.073(7) 0.157(11) 0.000 0.065(8) 0.000
O9 0.117(9) 0.086(8) 0.195(13) 0.000 0.103(9) 0.000
N1 0.072(5) 0.041(4) 0.083(6) 0.007(4) 0.068(5) 0.000(4)
N1A 0.068(5) 0.037(4) 0.095(6) 0.006(4) 0.061(5) 0.001(4)
N2 0.066(5) 0.042(4) 0.074(5) -0.004(4) 0.056(4) 0.010(4)
N2A 0.082(5) 0.032(4) 0.077(5) 0.008(3) 0.064(5) 0.000(4)
C1 0.087(8) 0.060(7) 0.096(8) 0.001(6) 0.069(7) 0.008(6)
C1A 0.061(7) 0.064(6) 0.061(7) 0.006(5) 0.033(5) 0.005(5)
C2 0.098(9) 0.067(7) 0.105(10) 0.002(6) 0.058(8) 0.033(6)
C2A 0.060(6) 0.070(7) 0.086(8) 0.003(6) 0.036(6) -0.023(5)
C3 0.077(7) 0.065(7) 0.089(8) 0.000(6) 0.052(7) 0.011(6)
C3' 0.078(7) 0.048(6) 0.094(8) 0.011(5) 0.060(6) 0.010(5)
C3A 0.058(7) 0.087(8) 0.090(8) 0.023(6) 0.028(6) -0.009(6)
C3A' 0.083(7) 0.043(6) 0.094(8) 0.011(5) 0.057(6) -0.005(5)
C4 0.077(7) 0.061(7) 0.094(8) 0.014(6) 0.057(7) 0.017(5)
C4' 0.050(5) 0.056(7) 0.067(6) -0.007(5) 0.035(5) -0.014(4)
C4A 0.084(8) 0.051(6) 0.074(8) -0.007(5) 0.054(6) -0.002(5)
C4A' 0.052(5) 0.048(6) 0.060(6) 0.007(4) 0.030(5) 0.005(4)
C5 0.110(9) 0.069(7) 0.072(7) 0.008(5) 0.053(7) 0.037(6)
C5' 0.063(6) 0.037(6) 0.062(6) -0.015(4) 0.037(5) -0.001(4)
C5A 0.052(6) 0.066(6) 0.067(7) 0.002(5) 0.031(5) 0.001(5)
C5A' 0.079(7) 0.040(6) 0.097(8) -0.011(5) 0.060(6) -0.013(5)
C6 0.122(10) 0.072(8) 0.075(8) 0.000(6) 0.052(8) 0.032(7)
C6A 0.054(6) 0.056(6) 0.057(6) 0.009(4) 0.023(5) -0.012(4)
C7 0.086(8) 0.053(7) 0.074(8) 0.005(6) 0.041(7) 0.009(6)
C7A 0.042(6) 0.063(6) 0.075(8) -0.004(6) 0.034(6) -0.001(5)
C31 0.114(9) 0.038(6) 0.104(9) 0.012(5) 0.074(7) 0.018(5)
C31A 0.115(9) 0.046(6) 0.142(11) 0.028(6) 0.101(9) 0.012(6)
C51 0.060(6) 0.057(6) 0.069(6) 0.004(5) 0.049(5) 0.007(4)
C51A 0.077(8) 0.059(7) 0.153(12) 0.021(7) 0.068(8) 0.010(5)

_geom_special_details            
;
 All esds (except the esd in the dihedral angle between two l.s. planes)
 are estimated using the full covariance matrix.  The cell esds are taken
 into account individually in the estimation of esds in distances, angles
 and torsion angles; correlations between esds in cell parameters are only
 used when they are defined by crystal symmetry.  An approximate (isotropic)
 treatment of cell esds is used for estimating esds involving l.s. planes.
;
loop_
_geom_bond_atom_site_label_1
_geom_bond_atom_site_label_2
_geom_bond_distance
_geom_bond_site_symmetry_2
_geom_bond_publ_flag
Cu1 O3 2.108(9) 7 ?
Cu1 O3 2.316(8) . ?
Cu1 O7 1.924(11) . ?
Cu1 N2 1.987(7) . ?
Cu1 N2A 1.958(7) . ?
Cu2 Cu2 2.637(4) 5_654 ?
Cu2 O1 1.956(7) 5_654 ?
Cu2 O1 1.956(7) 2_654 ?
Cu2 O2 1.974(8) 6 ?
Cu2 O2 1.974(8) . ?
Cu2 O8 2.127(15) . ?
Cu3 Cu3 2.649(3) 5_556 ?
Cu3 O1A 1.967(6) 5_556 ?
Cu3 O1A 1.967(6) 2_556 ?
Cu3 O2A 1.972(6) . ?
Cu3 O2A 1.972(6) 6 ?
Cu3 O9 2.