####################################################################### 
# 
# This file contains crystal structure data downloaded from the 
# Cambridge Structural Database (CSD) hosted by the Cambridge 
# Crystallographic Data Centre (CCDC).
# 
# Full information about CCDC data access policies and citation 
# guidelines are available at http://www.ccdc.cam.ac.uk/access/V1 
# 
# Audit and citation data items may have been added by the CCDC. 
# Please retain this information to preserve the provenance of 
# this file and to allow appropriate attribution of the data. 
# 
#######################################################################

data_cuk1mg
_audit_block_doi                 10.5517/cc13d95z
_database_code_depnum_ccdc_archive 'CCDC 1024710'
loop_
_citation_id
_citation_doi
_citation_year
1 10.1002/anie.201411862 2015
_audit_update_record             
;
2014-09-16 deposited with the CCDC.	2024-07-11 downloaded from the CCDC.
;

loop_
_publ_author_names
'Beau Saccoccia'
'Nolan W. Waggoner'
'Alisha M. Bohnsack'
'Vincent M. Lynch'
'Jong-San Chang'
'Simon M. Humphrey'


_audit_creation_method           SHELXL-2013
_chemical_name_systematic        
;
 ?
;
_chemical_name_common            ?
_chemical_melting_point          ?
_chemical_formula_moiety         'C14 H8 Mg3 N2 O10, 9(H2 O)'
_chemical_formula_sum            'C14 H26 Mg3 N2 O19'
_chemical_formula_weight         599.30

loop_
_atom_type_symbol
_atom_type_description
_atom_type_scat_dispersion_real
_atom_type_scat_dispersion_imag
_atom_type_scat_source
C C 0.0033 0.0016 'International Tables Vol C Tables 4.2.6.8 and 6.1.1.4'
H H 0.0000 0.0000 'International Tables Vol C Tables 4.2.6.8 and 6.1.1.4'
N N 0.0061 0.0033 'International Tables Vol C Tables 4.2.6.8 and 6.1.1.4'
O O 0.0106 0.0060 'International Tables Vol C Tables 4.2.6.8 and 6.1.1.4'
Mg Mg 0.0486 0.0363 'International Tables Vol C Tables 4.2.6.8 and 6.1.1.4'

_space_group_crystal_system      monoclinic
_space_group_IT_number           14
_space_group_name_H-M_alt        'P 21/n'
_space_group_name_Hall           '-P 2yn'

_shelx_space_group_comment       
;
The symmetry employed for this shelxl refinement is uniquely defined
by the following loop, which should always be used as a source of
symmetry information in preference to the above space-group names.
They are only intended as comments.
;

loop_
_space_group_symop_operation_xyz
'x, y, z'
'-x+1/2, y+1/2, -z+1/2'
'-x, -y, -z'
'x-1/2, -y-1/2, z-1/2'

_cell_length_a                   10.8609(7)
_cell_length_b                   14.3088(9)
_cell_length_c                   17.0198(12)
_cell_angle_alpha                90
_cell_angle_beta                 105.940(2)
_cell_angle_gamma                90
_cell_volume                     2543.3(3)
_cell_formula_units_Z            4
_cell_measurement_temperature    153(2)
_cell_measurement_reflns_used    29458
_cell_measurement_theta_min      2.42
_cell_measurement_theta_max      27.48

_exptl_crystal_description       rod
_exptl_crystal_colour            colorless
_exptl_crystal_density_meas      ?
_exptl_crystal_density_method    ?
_exptl_crystal_density_diffrn    1.565
_exptl_crystal_F_000             1248
_exptl_transmission_factor_min   ?
_exptl_transmission_factor_max   ?
_exptl_crystal_size_max          0.302
_exptl_crystal_size_mid          0.133
_exptl_crystal_size_min          0.110
_exptl_absorpt_coefficient_mu    0.209
_shelx_estimated_absorpt_T_min   0.940
_shelx_estimated_absorpt_T_max   0.977
_exptl_absorpt_correction_type   multi-scan
_exptl_absorpt_correction_T_min  0
_exptl_absorpt_correction_T_max  0.824
_exptl_absorpt_process_details   ?

_exptl_special_details           
;
 ?
;

_diffrn_ambient_temperature      153(2)
_diffrn_radiation_type           MoK\a
_diffrn_radiation_wavelength     0.71073
_diffrn_radiation_source         'sealed tube'
_diffrn_radiation_monochromator  graphite
_diffrn_measurement_device_type  'Bruker P4'
_diffrn_measurement_method       '\w scans'
_diffrn_reflns_number            28396
_diffrn_reflns_av_unetI/netI     0.0514
_diffrn_reflns_av_R_equivalents  0.0597
_diffrn_reflns_limit_h_min       -13
_diffrn_reflns_limit_h_max       13
_diffrn_reflns_limit_k_min       -18
_diffrn_reflns_limit_k_max       18
_diffrn_reflns_limit_l_min       -22
_diffrn_reflns_limit_l_max       21
_diffrn_reflns_theta_min         3.709
_diffrn_reflns_theta_max         27.482
_diffrn_reflns_theta_full        25.242
_diffrn_measured_fraction_theta_max 0.991
_diffrn_measured_fraction_theta_full 0.995
_diffrn_reflns_Laue_measured_fraction_max 0.991
_diffrn_reflns_Laue_measured_fraction_full 0.995
_diffrn_reflns_point_group_measured_fraction_max 0.991
_diffrn_reflns_point_group_measured_fraction_full 0.995
_reflns_number_total             5789
_reflns_number_gt                3756
_reflns_threshold_expression     'I > 2\s(I)'
_reflns_Friedel_coverage         0.000
_reflns_Friedel_fraction_max     .
_reflns_Friedel_fraction_full    .

_reflns_special_details          
;
 Reflections were merged by SHELXL according to the crystal
 class for the calculation of statistics and refinement.
 
 _reflns_Friedel_fraction is defined as the number of unique
 Friedel pairs measured divided by the number that would be
 possible theoretically, ignoring centric projections and
 systematic absences.
;

_computing_data_collection       'Bruker XSCANS'
_computing_cell_refinement       'Bruker XSCANS'
_computing_data_reduction        'Bruker SHELXTL'
_computing_structure_solution    'Bruker SHELXTL'
_computing_structure_refinement  'Bruker SHELXTL'
_computing_molecular_graphics    'Bruker SHELXTL'
_computing_publication_material  'Bruker SHELXTL'

_refine_special_details          
;
 ?
;
_refine_ls_structure_factor_coef Fsqd
_refine_ls_matrix_type           full
_refine_ls_weighting_scheme      calc
_refine_ls_weighting_details     
'w=1/[\s^2^(Fo^2^)+(0.0451P)^2^+0.6994P] where P=(Fo^2^+2Fc^2^)/3'
_atom_sites_solution_primary     ?
_atom_sites_solution_secondary   ?
_atom_sites_solution_hydrogens   difmap
_refine_ls_hydrogen_treatment    refxyz
_refine_ls_extinction_method     none
_refine_ls_extinction_coef       .
_refine_ls_number_reflns         5789
_refine_ls_number_parameters     423
_refine_ls_number_restraints     26
_refine_ls_R_factor_all          0.0761
_refine_ls_R_factor_gt           0.0396
_refine_ls_wR_factor_ref         0.1009
_refine_ls_wR_factor_gt          0.0860
_refine_ls_goodness_of_fit_ref   1.003
_refine_ls_restrained_S_all      1.002
_refine_ls_shift/su_max          0.001
_refine_ls_shift/su_mean         0.000

loop_
_atom_site_label
_atom_site_type_symbol
_atom_site_fract_x
_atom_site_fract_y
_atom_site_fract_z
_atom_site_U_iso_or_equiv
_atom_site_adp_type
_atom_site_occupancy
_atom_site_site_symmetry_order
_atom_site_calc_flag
_atom_site_refinement_flags_posn
_atom_site_refinement_flags_adp
_atom_site_refinement_flags_occupancy
_atom_site_disorder_assembly
_atom_site_disorder_group
Mg1 Mg -0.05038(6) 0.47079(4) -0.09147(4) 0.00369(15) Uani 1 1 d . . . . .
Mg2 Mg 0.24975(6) 0.59083(4) -0.00049(4) 0.00333(14) Uani 1 1 d . . . . .
Mg3 Mg 0.45195(6) 0.53112(4) -0.09010(4) 0.00366(15) Uani 1 1 d . . . . .
N1 N -0.12482(15) 0.56741(10) -0.19594(10) 0.0057(3) Uani 1 1 d . . . . .
O1 O -0.23063(12) 0.50952(9) -0.08347(8) 0.0060(3) Uani 1 1 d . . . . .
O2 O -0.41213(13) 0.58620(9) -0.13935(8) 0.0095(3) Uani 1 1 d . . . . .
O3 O -0.35440(12) 0.85168(9) -0.33840(8) 0.0088(3) Uani 1 1 d . . . . .
O4 O -0.23486(12) 0.80290(9) -0.41869(8) 0.0077(3) Uani 1 1 d . . . . .
C2 C -0.23634(17) 0.60801(12) -0.19505(11) 0.0045(4) Uani 1 1 d . . . . .
C3 C -0.29028(18) 0.68201(13) -0.24561(12) 0.0061(4) Uani 1 1 d . . . . .
H3 H -0.369(2) 0.7091(14) -0.2414(12) 0.007 Uiso 1 1 d . U . . .
C4 C -0.22722(18) 0.71441(12) -0.30126(11) 0.0059(4) Uani 1 1 d . . . . .
C5 C -0.11467(18) 0.67038(13) -0.30519(12) 0.0072(4) Uani 1 1 d . . . . .
H5 H -0.072(2) 0.6882(14) -0.3427(13) 0.009 Uiso 1 1 d . U . . .
C6 C -0.06674(19) 0.59794(13) -0.25110(12) 0.0072(4) Uani 1 1 d . . . . .
H6 H 0.009(2) 0.5671(14) -0.2506(12) 0.009 Uiso 1 1 d . U . . .
C7 C -0.29950(18) 0.56561(12) -0.13444(11) 0.0043(4) Uani 1 1 d . . . . .
C8 C -0.27654(17) 0.79626(12) -0.35703(11) 0.0051(4) Uani 1 1 d . . . . .
O5 O 0.44690(12) 0.57922(9) 0.02175(8) 0.0043(3) Uani 1 1 d . . . . .
H5A H 0.476(2) 0.6258(15) 0.0351(13) 0.005 Uiso 1 1 d . U . . .
O6 O 0.04918(12) 0.58022(9) -0.02136(8) 0.0044(3) Uani 1 1 d . . . . .
H6A H 0.021(2) 0.6278(15) -0.0363(13) 0.005 Uiso 1 1 d . U . . .
N10 N 0.37992(15) 0.42958(10) -0.19272(9) 0.0048(3) Uani 1 1 d . . . . .
O10 O 0.26764(12) 0.49036(9) -0.08473(8) 0.0061(3) Uani 1 1 d . . . . .
O20 O 0.08323(12) 0.42057(9) -0.14566(8) 0.0082(3) Uani 1 1 d . . . . .
O30 O 0.14802(12) 0.14553(9) -0.33631(8) 0.0085(3) Uani 1 1 d . . . . .
O40 O 0.27577(13) 0.19111(9) -0.41253(8) 0.0093(3) Uani 1 1 d . . . . .
C20 C 0.26324(17) 0.39413(12) -0.19703(11) 0.0054(4) Uani 1 1 d . . . . .
C30 C 0.20849(19) 0.32060(13) -0.24822(12) 0.0065(4) Uani 1 1 d . . . . .
H30 H 0.125(2) 0.2980(14) -0.2484(12) 0.008 Uiso 1 1 d . U . . .
C40 C 0.27800(18) 0.28161(13) -0.29733(11) 0.0056(4) Uani 1 1 d . . . . .
C50 C 0.39720(19) 0.31907(13) -0.29494(12) 0.0074(4) Uani 1 1 d . . . . .
H50 H 0.442(2) 0.2967(14) -0.3294(13) 0.009 Uiso 1 1 d . U . . .
C60 C 0.44407(19) 0.39267(13) -0.24177(12) 0.0068(4) Uani 1 1 d . . . . .
H60 H 0.525(2) 0.4199(14) -0.2369(12) 0.008 Uiso 1 1 d . U . . .
C70 C 0.19817(18) 0.43822(12) -0.13838(11) 0.0044(4) Uani 1 1 d . . . . .
C80 C 0.22850(18) 0.19895(12) -0.35329(11) 0.0054(4) Uani 1 1 d . . . . .
O50 O 0.30883(17) -0.01516(11) -0.07066(11) 0.0264(4) Uani 1 1 d D . . . .
H50A H 0.256(2) 0.0197(19) -0.1118(15) 0.040 Uiso 1 1 d D U . . .
H50B H 0.347(2) 0.0242(16) -0.0356(14) 0.040 Uiso 1 1 d D U . . .
O51 O -0.15496(15) 0.12809(11) 0.00031(10) 0.0215(4) Uani 1 1 d D . . . .
H51A H -0.198(2) 0.0912(14) 0.0239(15) 0.032 Uiso 1 1 d D U . . .
H51B H -0.200(2) 0.1777(13) -0.0119(15) 0.032 Uiso 1 1 d D U . . .
O52 O 0.14208(16) 0.24017(11) -0.07714(10) 0.0233(4) Uani 1 1 d D . . . .
H52A H 0.124(2) 0.2315(17) -0.0310(12) 0.035 Uiso 1 1 d D U . . .
H52B H 0.095(2) 0.2867(15) -0.1010(14) 0.035 Uiso 1 1 d D U . . .
O53 O 0.45048(17) 0.09643(13) 0.06055(11) 0.0290(4) Uani 1 1 d D . . . .
H53A H 0.411(2) 0.1027(19) 0.0963(14) 0.044 Uiso 1 1 d D U . . .
H53B H 0.5246(18) 0.075(2) 0.0790(16) 0.044 Uiso 1 1 d D U . . .
O54 O 0.09193(18) -0.01270(12) 0.11986(12) 0.0305(4) Uani 1 1 d D . . . .
H54A H 0.035(2) -0.0330(18) 0.1426(16) 0.046 Uiso 1 1 d D U . . .
H54B H 0.096(3) -0.0533(17) 0.0845(15) 0.046 Uiso 1 1 d D U . . .
O55 O 0.29013(17) 0.11174(11) 0.16553(10) 0.0229(4) Uani 1 1 d D . . . .
H55A H 0.323(2) 0.1179(17) 0.2171(11) 0.034 Uiso 1 1 d D U . . .
H55B H 0.234(2) 0.0684(15) 0.1567(14) 0.034 Uiso 1 1 d D U . . .
O56 O -0.11593(17) -0.08990(11) 0.17702(10) 0.0231(4) Uani 1 1 d D . . . .
H56A H -0.123(2) -0.1389(14) 0.1467(13) 0.035 Uiso 1 1 d D U . . .
H56B H -0.116(2) -0.1071(17) 0.2251(11) 0.035 Uiso 1 1 d D U . . .
O57 O 0.07925(16) 0.22025(11) 0.06577(10) 0.0226(4) Uani 1 1 d D . . . .
H57A H 0.1426(18) 0.1935(17) 0.0961(14) 0.034 Uiso 1 1 d D U . . .
H57B H 0.0162(18) 0.1803(16) 0.0506(15) 0.034 Uiso 1 1 d D U . . .
O58 O 0.42068(17) 0.24292(12) -0.05941(11) 0.0284(4) Uani 1 1 d D . . . .
H58A H 0.451(2) 0.2060(17) -0.0166(14) 0.043 Uiso 1 1 d D U . . .
H58B H 0.3392(17) 0.2444(18) -0.0647(16) 0.043 Uiso 1 1 d D U . . .

loop_
_atom_site_aniso_label
_atom_site_aniso_U_11
_atom_site_aniso_U_22
_atom_site_aniso_U_33
_atom_site_aniso_U_23
_atom_site_aniso_U_13
_atom_site_aniso_U_12
Mg1 0.0026(3) 0.0048(3) 0.0046(3) -0.0004(2) 0.0024(3) -0.0001(2)
Mg2 0.0036(3) 0.0037(3) 0.0033(3) -0.0002(3) 0.0020(2) 0.0002(3)
Mg3 0.0023(3) 0.0054(3) 0.0038(3) -0.0001(2) 0.0018(3) -0.0003(2)
N1 0.0038(8) 0.0054(8) 0.0083(9) -0.0001(6) 0.0022(7) -0.0001(6)
O1 0.0050(7) 0.0074(6) 0.0064(7) 0.0031(5) 0.0029(5) 0.0019(5)
O2 0.0061(7) 0.0121(7) 0.0117(7) 0.0064(6) 0.0050(6) 0.0030(6)
O3 0.0089(7) 0.0100(7) 0.0089(7) 0.0041(5) 0.0047(6) 0.0047(6)
O4 0.0100(7) 0.0076(7) 0.0075(7) 0.0043(5) 0.0058(6) 0.0027(6)
C2 0.0043(10) 0.0052(9) 0.0040(9) -0.0001(7) 0.0013(7) -0.0012(7)
C3 0.0027(10) 0.0077(9) 0.0085(10) 0.0001(8) 0.0024(8) -0.0001(8)
C4 0.0059(10) 0.0042(9) 0.0067(10) -0.0002(8) 0.0001(8) -0.0006(7)
C5 0.0066(10) 0.0094(10) 0.0078(10) 0.0012(8) 0.0058(8) 0.0001(8)
C6 0.0048(10) 0.0097(10) 0.0093(10) 0.0002(8) 0.0054(8) 0.0023(8)
C7 0.0055(10) 0.0037(9) 0.0036(9) -0.0010(7) 0.0013(8) -0.0001(7)
C8 0.0029(10) 0.0059(9) 0.0068(10) 0.0014(8) 0.0016(8) -0.0015(8)
O5 0.0048(7) 0.0025(6) 0.0055(7) -0.0006(5) 0.0013(5) -0.0011(5)
O6 0.0054(7) 0.0026(6) 0.0051(7) 0.0017(5) 0.0013(5) 0.0015(5)
N10 0.0043(8) 0.0052(8) 0.0055(8) -0.0005(6) 0.0022(7) -0.0004(6)
O10 0.0065(7) 0.0068(6) 0.0057(7) -0.0030(5) 0.0032(6) -0.0014(5)
O20 0.0040(7) 0.0108(7) 0.0109(7) -0.0057(6) 0.0039(6) -0.0015(5)
O30 0.0075(7) 0.0101(7) 0.0094(7) -0.0038(5) 0.0051(6) -0.0048(6)
O40 0.0119(7) 0.0082(7) 0.0098(7) -0.0044(6) 0.0064(6) -0.0036(6)
C20 0.0040(10) 0.0064(9) 0.0057(10) 0.0005(8) 0.0013(8) 0.0002(8)
C30 0.0043(10) 0.0082(9) 0.0075(10) 0.0004(8) 0.0022(8) -0.0007(8)
C40 0.0059(10) 0.0067(9) 0.0043(9) 0.0007(7) 0.0013(8) 0.0011(8)
C50 0.0072(10) 0.0088(10) 0.0082(10) -0.0018(8) 0.0052(8) 0.0023(8)
C60 0.0041(10) 0.0094(10) 0.0074(10) -0.0009(8) 0.0025(8) -0.0024(8)
C70 0.0055(10) 0.0030(9) 0.0058(10) 0.0018(7) 0.0033(8) 0.0016(7)
C80 0.0044(10) 0.0064(9) 0.0052(10) -0.0006(8) 0.0010(8) 0.0016(8)
O50 0.0276(10) 0.0233(9) 0.0260(10) -0.0016(8) 0.0034(8) 0.0011(8)
O51 0.0273(10) 0.0142(8) 0.0238(9) 0.0035(7) 0.0082(7) 0.0037(7)
O52 0.0344(11) 0.0179(8) 0.0226(10) 0.0041(7) 0.0165(8) 0.0037(7)
O53 0.0264(10) 0.0357(10) 0.0270(10) 0.0006(8) 0.0106(8) 0.0077(8)
O54 0.0358(11) 0.0261(10) 0.0318(11) -0.0057(8) 0.0131(9) -0.0017(8)
O55 0.0325(10) 0.0214(9) 0.0139(9) -0.0010(7) 0.0049(8) -0.0022(7)
O56 0.0367(11) 0.0192(8) 0.0143(9) -0.0023(7) 0.0084(8) -0.0015(8)
O57 0.0211(9) 0.0260(9) 0.0209(10) 0.0031(7) 0.0058(8) 0.0008(7)
O58 0.0242(10) 0.0230(9) 0.0363(11) 0.0065(8) 0.0052(8) -0.0055(8)

_geom_special_details            
;
 All esds (except the esd in the dihedral angle between two l.s. planes)
 are estimated using the full covariance matrix.  The cell esds are taken
 into account individually in the estimation of esds in distances, angles
 and torsion angles; correlations between esds in cell parameters are only
 used when they are defined by crystal symmetry.  An approximate (isotropic)
 treatment of cell esds is used for estimating esds involving l.s. planes.
;

loop_
_geom_bond_atom_site_label_1
_geom_bond_atom_site_label_2
_geom_bond_distance
_geom_bond_site_symmetry_2
_geom_bond_publ_flag
Mg1 O6 2.0510(14) 3_565 ?
Mg1 O20 2.0514(14) . ?
Mg1 O1 2.0747(14) . ?
Mg1 O6 2.0823(14) . ?
Mg1 O3 2.1728(14) 2_444 ?
Mg1 N1 2.2220(17) . ?
Mg1 Mg1 3.1176(12) 3_565 ?
Mg1 Mg2 3.1269(8) 3_565 ?
Mg1 Mg2 3.6333(9) . ?
Mg2 O40 2.0253(14) 2_554 ?
Mg2 O4 2.0373(14) 4_676 ?
Mg2 O1 2.0760(14) 3_565 ?
Mg2 O5 2.0762(14) . ?
Mg2 O10 2.0768(14) . ?
Mg2 O6 2.1142(14) . ?
Mg2 Mg3 3.1175(8) . ?
Mg2 Mg1 3.1268(8) 3_565 ?
Mg2 Mg3 3.6297(9) 3_665 ?
Mg2 H5A 2.42(2) . ?
Mg3 O5 2.0391(14) . ?
Mg3 O2 2.0452(14) 1_655 ?
Mg3 O5 2.0858(14) 3_665 ?
Mg3 O10 2.1110(14) . ?
Mg3 O30 2.1634(14) 2_554 ?
Mg3 N10 2.2413(16) . ?
Mg3 Mg3 3.0872(12) 3_665 ?
Mg3 Mg2 3.6296(9) 3_665 ?
N1 C6 1.340(2) . ?
N1 C2 1.347(2) . ?
O1 C7 1.265(2) . ?
O1 Mg2 2.0760(14) 3_565 ?
O2 C7 1.239(2) . ?
O2 Mg3 2.0451(14) 1_455 ?
O3 C8 1.262(2) . ?
O3 Mg1 2.1728(14) 2_454 ?
O4 C8 1.256(2) . ?
O4 Mg2 2.0373(14) 4_575 ?
C2 C3 1.388(3) . ?
C2 C7 1.514(2) . ?
C3 C4 1.392(3) . ?
C3 H3 0.96(2) . ?
C4 C5 1.393(3) . ?
C4 C8 1.510(3) . ?
C5 C6 1.389(3) . ?
C5 H5 0.92(2) . ?
C6 H6 0.93(2) . ?
O5 Mg3 2.0859(14) 3_665 ?
O5 H5A 0.75(2) . ?
O6 Mg1 2.0511(14) 3_565 ?
O6 H6A 0.76(2) . ?
N10 C60 1.334(2) . ?
N10 C20 1.348(2) . ?
O10 C70 1.257(2) . ?
O20 C70 1.246(2) . ?
O30 C80 1.253(2) . ?
O30 Mg3 2.1633(14) 2_544 ?
O40 C80 1.256(2) . ?
O40 Mg2 2.0253(14) 2_544 ?
C20 C30 1.391(3) . ?
C20 C70 1.510(2) . ?
C30 C40 1.388(3) . ?
C30 H30 0.96(2) . ?
C40 C50 1.392(3) . ?
C