####################################################################### 
# 
# This file contains crystal structure data downloaded from the 
# Cambridge Structural Database (CSD) hosted by the Cambridge 
# Crystallographic Data Centre (CCDC).
# 
# Full information about CCDC data access policies and citation 
# guidelines are available at http://www.ccdc.cam.ac.uk/access/V1 
# 
# Audit and citation data items may have been added by the CCDC. 
# Please retain this information to preserve the provenance of 
# this file and to allow appropriate attribution of the data. 
# 
#######################################################################

data_mgcuk1lt2
_audit_block_doi                 10.5517/cc13d971
_database_code_depnum_ccdc_archive 'CCDC 1024712'
loop_
_citation_id
_citation_doi
_citation_year
1 10.1002/anie.201411862 2015
_audit_update_record             
;
2014-09-16 deposited with the CCDC.	2024-07-11 downloaded from the CCDC.
;

loop_
_publ_author_names
'Beau Saccoccia'
'Nolan W. Waggoner'
'Alisha M. Bohnsack'
'Vincent M. Lynch'
'Jong-San Chang'
'Simon M. Humphrey'

_audit_creation_method           SHELXL-2013
_chemical_name_systematic        
;
 ?
;
_chemical_name_common            ?
_chemical_melting_point          ?
_chemical_formula_moiety         'C14 H8 Mg3 N2 O10'
_chemical_formula_sum            'C14 H8 Mg3 N2 O10'
_chemical_formula_weight         437.15

loop_
_atom_type_symbol
_atom_type_description
_atom_type_scat_dispersion_real
_atom_type_scat_dispersion_imag
_atom_type_scat_source
C C 0.0033 0.0016 'International Tables Vol C Tables 4.2.6.8 and 6.1.1.4'
H H 0.0000 0.0000 'International Tables Vol C Tables 4.2.6.8 and 6.1.1.4'
O O 0.0106 0.0060 'International Tables Vol C Tables 4.2.6.8 and 6.1.1.4'
Mg Mg 0.0486 0.0363 'International Tables Vol C Tables 4.2.6.8 and 6.1.1.4'
N N 0.0061 0.0033 'International Tables Vol C Tables 4.2.6.8 and 6.1.1.4'

_space_group_crystal_system      monoclinic
_space_group_IT_number           15
_space_group_name_H-M_alt        'C 2/c'
_space_group_name_Hall           '-C 2yc'

_shelx_space_group_comment       
;
The symmetry employed for this shelxl refinement is uniquely defined
by the following loop, which should always be used as a source of
symmetry information in preference to the above space-group names.
They are only intended as comments.
;

loop_
_space_group_symop_operation_xyz
'x, y, z'
'-x, y, -z+1/2'
'x+1/2, y+1/2, z'
'-x+1/2, y+1/2, -z+1/2'
'-x, -y, -z'
'x, -y, z-1/2'
'-x+1/2, -y+1/2, -z'
'x+1/2, -y+1/2, z-1/2'

_cell_length_a                   18.293(2)
_cell_length_b                   12.3340(14)
_cell_length_c                   11.0237(12)
_cell_angle_alpha                90
_cell_angle_beta                 102.488(5)
_cell_angle_gamma                90
_cell_volume                     2428.4(5)
_cell_formula_units_Z            4
_cell_measurement_temperature    153(2)
_cell_measurement_reflns_used    14367
_cell_measurement_theta_min      2.0
_cell_measurement_theta_max      25.11

_exptl_crystal_description       Rod
_exptl_crystal_colour            Colorless
_exptl_crystal_density_meas      ?
_exptl_crystal_density_method    ?
_exptl_crystal_density_diffrn    1.196
_exptl_crystal_F_000             888
_exptl_transmission_factor_min   ?
_exptl_transmission_factor_max   ?
_exptl_crystal_size_max          ?
_exptl_crystal_size_mid          ?
_exptl_crystal_size_min          ?
_exptl_absorpt_coefficient_mu    0.169
_shelx_estimated_absorpt_T_min   ?
_shelx_estimated_absorpt_T_max   ?
_exptl_absorpt_correction_type   Multi-Scan
_exptl_absorpt_correction_T_min  0.560
_exptl_absorpt_correction_T_max  0.840
_exptl_absorpt_process_details   ?

_exptl_special_details           
;
 ?
;

_diffrn_ambient_temperature      153(2)
_diffrn_radiation_type           MoK\a
_diffrn_radiation_wavelength     0.71073
_diffrn_radiation_source         'sealed tube'
_diffrn_radiation_monochromator  graphite
_diffrn_measurement_device_type  'Bruker P4'
_diffrn_measurement_method       '\w scans'
_diffrn_reflns_number            13924
_diffrn_reflns_av_unetI/netI     0.0494
_diffrn_reflns_av_R_equivalents  0.0714
_diffrn_reflns_limit_h_min       -21
_diffrn_reflns_limit_h_max       21
_diffrn_reflns_limit_k_min       -14
_diffrn_reflns_limit_k_max       14
_diffrn_reflns_limit_l_min       -13
_diffrn_reflns_limit_l_max       13
_diffrn_reflns_theta_min         3.786
_diffrn_reflns_theta_max         25.065
_diffrn_reflns_theta_full        25.242
_diffrn_measured_fraction_theta_max 0.996
_diffrn_measured_fraction_theta_full 0.975
_diffrn_reflns_Laue_measured_fraction_max 0.996
_diffrn_reflns_Laue_measured_fraction_full 0.975
_diffrn_reflns_point_group_measured_fraction_max 0.996
_diffrn_reflns_point_group_measured_fraction_full 0.975
_reflns_number_total             2149
_reflns_number_gt                1667
_reflns_threshold_expression     'I > 2\s(I)'
_reflns_Friedel_coverage         0.000
_reflns_Friedel_fraction_max     .
_reflns_Friedel_fraction_full    .

_reflns_special_details          
;
 Reflections were merged by SHELXL according to the crystal
 class for the calculation of statistics and refinement.
 
 _reflns_Friedel_fraction is defined as the number of unique
 Friedel pairs measured divided by the number that would be
 possible theoretically, ignoring centric projections and
 systematic absences.
;

_computing_data_collection       'Bruker XSCANS'
_computing_cell_refinement       'Bruker XSCANS'
_computing_data_reduction        'Bruker SHELXTL'
_computing_structure_solution    'Bruker SHELXTL'
_computing_structure_refinement  'Bruker SHELXTL'
_computing_molecular_graphics    'Bruker SHELXTL'
_computing_publication_material  'Bruker SHELXTL'

_refine_special_details          
;
 ?
;
_refine_ls_structure_factor_coef Fsqd
_refine_ls_matrix_type           full
_refine_ls_weighting_scheme      calc
_refine_ls_weighting_details     
'w=1/[\s^2^(Fo^2^)+(0.0662P)^2^+0.3838P] where P=(Fo^2^+2Fc^2^)/3'
_atom_sites_solution_primary     ?
_atom_sites_solution_secondary   ?
_atom_sites_solution_hydrogens   difmap
_refine_ls_hydrogen_treatment    refall
_refine_ls_extinction_method     none
_refine_ls_extinction_coef       .
_refine_ls_number_reflns         2149
_refine_ls_number_parameters     148
_refine_ls_number_restraints     0
_refine_ls_R_factor_all          0.0604
_refine_ls_R_factor_gt           0.0412
_refine_ls_wR_factor_ref         0.1138
_refine_ls_wR_factor_gt          0.1022
_refine_ls_goodness_of_fit_ref   1.058
_refine_ls_restrained_S_all      1.058
_refine_ls_shift/su_max          0.000
_refine_ls_shift/su_mean         0.000

loop_
_atom_site_label
_atom_site_type_symbol
_atom_site_fract_x
_atom_site_fract_y
_atom_site_fract_z
_atom_site_U_iso_or_equiv
_atom_site_adp_type
_atom_site_occupancy
_atom_site_site_symmetry_order
_atom_site_calc_flag
_atom_site_refinement_flags_posn
_atom_site_refinement_flags_adp
_atom_site_refinement_flags_occupancy
_atom_site_disorder_assembly
_atom_site_disorder_group
Mg1 Mg 0.0000 0.89952(8) 0.2500 0.0092(3) Uani 1 2 d S T P . .
Mg2 Mg 0.08363(4) 0.96206(6) 0.03915(7) 0.0093(2) Uani 1 1 d . . . . .
O1 O 0.07480(8) 1.01664(13) 0.21787(13) 0.0113(4) Uani 1 1 d . . . . .
O2 O 0.13136(9) 1.09158(13) 0.39792(14) 0.0144(4) Uani 1 1 d . . . . .
O3 O 0.35699(9) 1.33009(13) 0.37266(14) 0.0152(4) Uani 1 1 d . . . . .
O4 O 0.41775(9) 1.28566(13) 0.22361(14) 0.0145(4) Uani 1 1 d . . . . .
O5 O -0.02116(9) 0.91099(14) 0.05417(14) 0.0106(4) Uani 1 1 d . . . . .
H5A H -0.0384(17) 0.854(2) 0.032(3) 0.032(10) Uiso 1 1 d . . . . .
N1 N 0.18421(11) 1.06571(16) 0.10975(17) 0.0126(4) Uani 1 1 d . . . . .
C2 C 0.18864(13) 1.10687(18) 0.2249(2) 0.0112(5) Uani 1 1 d . . . . .
C3 C 0.24546(13) 1.1744(2) 0.2833(2) 0.0136(5) Uani 1 1 d . . . . .
H3 H 0.2455(16) 1.202(2) 0.358(3) 0.026(8) Uiso 1 1 d . . . . .
C4 C 0.30230(13) 1.20078(19) 0.2221(2) 0.0125(5) Uani 1 1 d . . . . .
C5 C 0.29954(14) 1.1558(2) 0.1063(2) 0.0174(6) Uani 1 1 d . . . . .
H5 H 0.3378(15) 1.171(2) 0.065(2) 0.021(7) Uiso 1 1 d . . . . .
C6 C 0.23984(14) 1.0903(2) 0.0535(2) 0.0170(6) Uani 1 1 d . . . . .
H6 H 0.2341(13) 1.0598(19) -0.027(2) 0.008(6) Uiso 1 1 d . . . . .
C7 C 0.12621(13) 1.06946(18) 0.2863(2) 0.0104(5) Uani 1 1 d . . . . .
C8 C 0.36422(13) 1.27819(19) 0.2785(2) 0.0135(5) Uani 1 1 d . . . . .

loop_
_atom_site_aniso_label
_atom_site_aniso_U_11
_atom_site_aniso_U_22
_atom_site_aniso_U_33
_atom_site_aniso_U_23
_atom_site_aniso_U_13
_atom_site_aniso_U_12
Mg1 0.0070(5) 0.0159(6) 0.0066(6) 0.000 0.0051(4) 0.000
Mg2 0.0071(4) 0.0165(4) 0.0060(4) 0.0004(3) 0.0048(3) 0.0006(3)
O1 0.0087(8) 0.0191(9) 0.0076(8) -0.0025(7) 0.0048(6) -0.0027(7)
O2 0.0149(9) 0.0229(10) 0.0073(9) -0.0022(7) 0.0065(7) -0.0047(7)
O3 0.0159(9) 0.0218(9) 0.0108(9) -0.0059(7) 0.0092(7) -0.0075(7)
O4 0.0109(8) 0.0234(9) 0.0124(9) -0.0035(7) 0.0094(7) -0.0047(7)
O5 0.0090(8) 0.0149(10) 0.0086(9) -0.0009(7) 0.0035(7) -0.0009(7)
N1 0.0118(10) 0.0199(11) 0.0082(10) -0.0015(8) 0.0068(8) -0.0025(8)
C2 0.0105(11) 0.0162(12) 0.0081(12) 0.0021(9) 0.0047(9) 0.0001(9)
C3 0.0150(12) 0.0198(13) 0.0077(12) -0.0023(10) 0.0063(10) -0.0013(10)
C4 0.0122(12) 0.0165(13) 0.0103(12) 0.0002(10) 0.0058(9) 0.0003(10)
C5 0.0143(12) 0.0266(14) 0.0154(13) -0.0031(11) 0.0126(10) -0.0057(11)
C6 0.0165(13) 0.0283(15) 0.0089(13) -0.0060(11) 0.0089(10) -0.0063(11)
C7 0.0113(12) 0.0136(12) 0.0068(12) 0.0017(9) 0.0033(10) 0.0015(10)
C8 0.0116(12) 0.0192(13) 0.0101(12) 0.0029(10) 0.0034(9) -0.0026(10)

_geom_special_details            
;
 All esds (except the esd in the dihedral angle between two l.s. planes)
 are estimated using the full covariance matrix.  The cell esds are taken
 into account individually in the estimation of esds in distances, angles
 and torsion angles; correlations between esds in cell parameters are only
 used when they are defined by crystal symmetry.  An approximate (isotropic)
 treatment of cell esds is used for estimating esds involving l.s. planes.
;

loop_
_geom_bond_atom_site_label_1
_geom_bond_atom_site_label_2
_geom_bond_distance
_geom_bond_site_symmetry_2
_geom_bond_publ_flag
Mg1 O4 2.0326(17) 3_445 ?
Mg1 O4 2.0326(17) 4_545 ?
Mg1 O1 2.0722(17) 2 ?
Mg1 O1 2.0723(17) . ?
Mg1 O5 2.1139(16) . ?
Mg1 O5 2.1140(16) 2 ?
Mg1 Mg2 3.1425(8) 2 ?
Mg1 Mg2 3.1426(8) . ?
Mg1 Mg2 3.6478(9) 6_576 ?
Mg1 Mg2 3.6478(9) 5_575 ?
Mg2 O2 2.0522(17) 6_575 ?
Mg2 O5 2.0582(18) . ?
Mg2 O5 2.0754(18) 5_575 ?
Mg2 O3 2.0779(17) 4_545 ?
Mg2 O1 2.1209(16) . ?
Mg2 N1 2.237(2) . ?
Mg2 Mg2 3.1369(15) 5_575 ?
Mg2 Mg1 3.6478(9) 5_575 ?
O1 C7 1.253(3) . ?
O2 C7 1.244(3) . ?
O2 Mg2 2.0523(17) 6_576 ?
O3 C8 1.251(3) . ?
O3 Mg2 2.0779(17) 4 ?
O4 C8 1.261(3) . ?
O4 Mg1 2.0326(17) 3 ?
O5 Mg2 2.0754(18) 5_575 ?
O5 H5A 0.78(3) . ?
N1 C6 1.336(3) . ?
N1 C2 1.354(3) . ?
C2 C3 1.378(3) . ?
C2 C7 1.519(3) . ?
C3 C4 1.395(3) . ?
C3 H3 0.90(3) . ?
C4 C5 1.382(3) . ?
C4 C8 1.509(3) . ?
C5 C6 1.382(3) . ?
C5 H5 0.93(3) . ?
C6 H6 0.95(2) . ?

loop_
_geom_angle_atom_site_label_1
_geom_angle_atom_site_label_2
_geom_angle_atom_site_label_3
_geom_angle
_geom_angle_site_symmetry_1
_geom_angle_site_symmetry_3
_geom_angle_publ_flag
O4 Mg1 O4 92.60(10) 3_445 4_545 ?
O4 Mg1 O1 90.60(6) 3_445 2 ?
O4 Mg1 O1 162.35(6) 4_545 2 ?
O4 Mg1 O1 162.35(6) 3_445 . ?
O4 Mg1 O1 90.59(6) 4_545 . ?
O1 Mg1 O1 91.61(9) 2 . ?
O4 Mg1 O5 86.20(7) 3_445 . ?
O4 Mg1 O5 99.14(6) 4_545 . ?
O1 Mg1 O5 98.39(6) 2 . ?
O1 Mg1 O5 76.15(6) . . ?
O4 Mg1 O5 99.14(6) 3_445 2 ?
O4 Mg1 O5 86.20(7) 4_545 2 ?
O1 Mg1 O5 76.15(6) 2 2 ?
O1 Mg1 O5 98.39(6) . 2 ?
O5 Mg1 O5 172.32(11) . 2 ?
O4 Mg1 Mg2 79.15(4) 3_445 2 ?
O4 Mg1 Mg2 121.83(5) 4_545 2 ?
O1 Mg1 Mg2 42.05(4) 2 2 ?
O1 Mg1 Mg2 113.60(5) . 2 ?
O5 Mg1 Mg2 136.71(5) . 2 ?
O5 Mg1 Mg2 40.46(5) 2 2 ?
O4 Mg1 Mg2 121.83(5) 3_445 . ?
O4 Mg1 Mg2 79.15(4) 4_545 . ?
O1 Mg1 Mg2 113.60(5) 2 . ?
O1 Mg1 Mg2 42.05(4) . . ?
O5 Mg1 Mg2 40.46(5) . . ?
O5 Mg1 Mg2 136.71(5) 2 . ?
Mg2 Mg1 Mg2 151.58(5) 2 . ?
O4 Mg1 Mg2 127.30(5) 3_445 6_576 ?
O4 Mg1 Mg2 92.33(5) 4_545 6_576 ?
O1 Mg1 Mg2 72.06(5) 2 6_576 ?
O1 Mg1 Mg2 69.84(4) . 6_576 ?
O5 Mg1 Mg2 144.15(6) . 6_576 ?
O5 Mg1 Mg2 29.16(5) 2 6_576 ?
Mg2 Mg1 Mg2 54.41(2) 2 6_576 ?
Mg2 Mg1 Mg2 110.62(3) . 6_576 ?
O4 Mg1 Mg2 92.33(5) 3_445 5_575 ?
O4 Mg1 Mg2 127.30(5) 4_545 5_575 ?
O1 Mg1 Mg2 69.84(4) 2 5_575 ?
O1 Mg1 Mg2 72.06(5) . 5_575 ?
O5 Mg1 Mg2 29.16(5) . 5_575 ?
O5 Mg1 Mg2 144.15(6) 2 5_575 ?
Mg2 Mg1 Mg2 110.62(3) 2 5_575 ?
Mg2 Mg1 Mg2 54.41(2) . 5_575 ?
Mg2 Mg1 Mg2 124.19(4) 6_576 5_575 ?
O2 Mg2 O5 121.25(7) 6_575 . ?
O2 Mg2 O5 98.40(7) 6_575 5_575 ?
O5 Mg2 O5 81.27(7) . 5_575 ?
O2 Mg2 O3 80.64(6) 6_575 4_545 ?
O5 Mg2 O3 97.14(7) . 4_545 ?
O5 Mg2 O3 177.41(8) 5_575 4_545 ?
O2 Mg2 O1 159.61(7) 6_575 . ?
O5 Mg2 O1 76.30(7) . . ?
O5 Mg2 O1 94.40(7) 5_575 . ?
O3 Mg2 O1 87.20(7) 4_545 . ?
O2 Mg2 N1 89.73(7) 6_575 . ?
O5 Mg2 N1 148.98(8) . . ?
O5 Mg2 N1 93.70(7) 5_575 . ?
O3 Mg2 N1 88.71(8) 4_545 . ?
O1 Mg2 N1 73.59(7) . . ?
O2 Mg2 Mg2 115.92(6) 6_575 5_575 ?
O5 Mg2 Mg2 40.84(5) . 5_575 ?
O5 Mg2 Mg2 40.43(5) 5_575 5_575 ?
O3 Mg2 Mg2 137.95(6) 4_545 5_575 ?
O1 Mg2 Mg2 83.99(5) . 5_575 ?
N1 Mg2 Mg2 127.23(6) . 5_575 ?
O2 Mg2 Mg1 146.82(6) 6_575 . ?
O5 Mg2 Mg1 41.80(5) . . ?
O5 Mg2 Mg1 104.35(5) 5_575 . ?
O3 Mg2 Mg1 75.55(5) 4_545 . ?
O1 Mg2 Mg1 40.87(5) . . ?
N1 Mg2 Mg1 112.22(6) . . ?
Mg2 Mg2 Mg1 71.03(3) 5_575 . ?
O2 Mg2 Mg1 69.81(5) 6_575 5_575 ?
O5 Mg2 Mg1 89.52(5) . 5_575 ?
O5 Mg2 Mg1 29.76(5) 5_575 5_575 ?
O3 Mg2 Mg1 148.59(5) 4_545 5_575 ?
O1 Mg2 Mg1 124.15(5) . 5_575 ?
N1 Mg2 Mg1 101.21(6) . 5_575 ?
Mg2 Mg2 Mg1 54.56(2) 5_575 5_575 ?
Mg1 Mg2 Mg1 125.59(2) . 5_575 ?
C7 O1 Mg1 134.16(14) . . ?
C7 O1 Mg2 121.74(14) . . ?
Mg1 O1 Mg2 97.08(7) . . ?
C7 O2 Mg2 136.57(15) . 6_576 ?
C8 O3 Mg2 130.61(15) . 4 ?
C8 O4 Mg1 127.55(15) . 3 ?
Mg2 O5 Mg2 98.73(7) . 5_575 ?
Mg2 O5 Mg1 97.73(7) . . ?
Mg2 O5 Mg1 121.09(8) 5_575 . ?
Mg2 O5 H5A 124(2) . . ?
Mg2 O5 H5A 112(2) 5_575 . ?
Mg1 O5 H5A 103(2) . . ?
C6 N1 C2 117.0(2) . . ?
C6 N1 Mg2 128.29(16) . . ?
C2 N1 Mg2 114.74(15) . . ?
N1 C2 C3 123.4(2) . . ?
N1 C2 C7 113.9(2) . . ?
C3 C2 C7 122.6(2) . . ?
C2 C3 C4 118.8(2) . . ?
C2 C3 H3 120.9(18) . . ?
C4 C3 H3 120.4(18) . . ?
C5 C4 C3 118.1(2) . . ?
C5 C4 C8 120.6(2) . . ?
C3 C4 C8 121.3(2) . . ?
C6 C5 C4 119.5(2) . . ?
C6 C5 H5 121.4(16) . . ?
C4 C5 H5 119.1(16) . . ?
N1 C6 C5 123.3(2) . . ?
N1 C6 H6 113.7(14) . . ?
C5 C6 H6 123.0(14) . . ?
O2 C7 O1 126.6(2) . . ?
O2 C7 C2 118.1(2) . . ?
O1 C7 C2 115.36(19) . . ?
O3 C8 O4 126.4(2) . . ?
O3 C8 C4 117.5(2) . . ?
O4 C8 C4 116.1(2) . . ?

_refine_diff_density_max         0.480
_refine_diff_density_min         -0.300
_refine_diff_density_rms         0.074

_shelxl_version_number           2013-4

_shelx_res_file                  
;
TITL mgcuk1lt2 in C2/c

CELL 0.71073  18.293  12.3340  11.0237     90 102.488  90
ZERR       4   0.002   0.0014   0.0012      0   0.005   0

LATT  7
SYMM -X, Y, 0.5-Z

SFAC      C     H    O    MG   N
UNIT      56    32   40   12   8

TEMP 133
ACTA

L.S. 12
BOND $H
FMAP 2
PLAN -10
SHEL 5.8 0

OMIT   -4   0   2
OMIT   -9   1   3
OMIT   -8   0   4

WGHT    0.066200    0.383800
FVAR       0.11117
MG1   4    0.000000    0.899517    0.250000    10.50000    0.00695    0.01587 =
         0.00657    0.00000    0.00513    0.00000
MG2   4    0.083628    0.962060    0.039150    11.00000    0.00710    0.01648 =
         0.00596    0.00043    0.00477    0.00064
O1    3    0.074802    1.016639    0.217871    11.00000    0.00866    0.01906 =
         0.00760   -0.00247    0.00480   -0.00271
O2    3    0.131357    1.091576    0.397922    11.00000    0.01492    0.02289 =
         0.00733   -0.00215    0.00653   -0.00473
O3    3    0.356995    1.330093    0.372656    11.00000    0.01592    0.02185 =
         0.01081   -0.00594    0.00923   -0.00749
O4    3    0.417746    1.285659    0.223607    11.00000    0.01092    0.02340 =
         0.01237   -0.00354    0.00942   -0.00469
O5    3   -0.021162    0.910992    0.054172    11.00000    0.00897    0.01493 =
         0.00862   -0.00087    0.00354   -0.00092
H5A   2   -0.038388    0.854248    0.031871    11.00000    0.03208
N1    5    0.184205    1.065712    0.109749    11.00000    0.01181    0.01994 =
         0.00820