####################################################################### 
# 
# This file contains crystal structure data downloaded from the 
# Cambridge Structural Database (CSD) hosted by the Cambridge 
# Crystallographic Data Centre (CCDC).
# 
# Full information about CCDC data access policies and citation 
# guidelines are available at http://www.ccdc.cam.ac.uk/access/V1 
# 
# Audit and citation data items may have been added by the CCDC. 
# Please retain this information to preserve the provenance of 
# this file and to allow appropriate attribution of the data. 
# 
#######################################################################

data_MgCUK1HT
_audit_block_doi                 10.5517/cc13d960
_database_code_depnum_ccdc_archive 'CCDC 1024711'
loop_
_citation_id
_citation_doi
_citation_year
1 10.1002/anie.201411862 2015
_audit_update_record             
;
2014-09-16 deposited with the CCDC.	2024-07-11 downloaded from the CCDC.
;

loop_
_publ_author_names
'Beau Saccoccia'
'Nolan W. Waggoner'
'Alisha M. Bohnsack'
'Vincent M. Lynch'
'Jong-San Chang'
'Simon M. Humphrey'

_audit_creation_method           SHELXL-2013
_chemical_name_systematic        
;
 ?
;
_chemical_name_common            ?
_chemical_melting_point          ?
_chemical_formula_moiety         'C14 H8 Mg3 N2 O10'
_chemical_formula_sum            'C14 H8 Mg3 N2 O10'
_chemical_formula_weight         437.15

loop_
_atom_type_symbol
_atom_type_description
_atom_type_scat_dispersion_real
_atom_type_scat_dispersion_imag
_atom_type_scat_source
C C 0.0033 0.0016 'International Tables Vol C Tables 4.2.6.8 and 6.1.1.4'
H H 0.0000 0.0000 'International Tables Vol C Tables 4.2.6.8 and 6.1.1.4'
N N 0.0061 0.0033 'International Tables Vol C Tables 4.2.6.8 and 6.1.1.4'
O O 0.0106 0.0060 'International Tables Vol C Tables 4.2.6.8 and 6.1.1.4'
Mg Mg 0.0486 0.0363 'International Tables Vol C Tables 4.2.6.8 and 6.1.1.4'

_space_group_crystal_system      monoclinic
_space_group_IT_number           15
_space_group_name_H-M_alt        'C 2/c'
_space_group_name_Hall           '-C 2yc'

_shelx_space_group_comment       
;
The symmetry employed for this shelxl refinement is uniquely defined
by the following loop, which should always be used as a source of
symmetry information in preference to the above space-group names.
They are only intended as comments.
;

loop_
_space_group_symop_operation_xyz
'x, y, z'
'-x, y, -z+1/2'
'x+1/2, y+1/2, z'
'-x+1/2, y+1/2, -z+1/2'
'-x, -y, -z'
'x, -y, z-1/2'
'-x+1/2, -y+1/2, -z'
'x+1/2, -y+1/2, z-1/2'

_cell_length_a                   18.180(10)
_cell_length_b                   12.464(8)
_cell_length_c                   11.005(6)
_cell_angle_alpha                90
_cell_angle_beta                 102.778(16)
_cell_angle_gamma                90
_cell_volume                     2432(2)
_cell_formula_units_Z            4
_cell_measurement_temperature    375(2)
_cell_measurement_reflns_used    14367
_cell_measurement_theta_min      2.28
_cell_measurement_theta_max      24.33

_exptl_crystal_description       Rod
_exptl_crystal_colour            Colorless
_exptl_crystal_density_meas      ?
_exptl_crystal_density_method    ?
_exptl_crystal_density_diffrn    1.194
_exptl_crystal_F_000             888
_exptl_transmission_factor_min   ?
_exptl_transmission_factor_max   ?
_exptl_crystal_size_max          0.302
_exptl_crystal_size_mid          0.133
_exptl_crystal_size_min          0.110
_exptl_absorpt_coefficient_mu    0.169
_shelx_estimated_absorpt_T_min   0.951
_shelx_estimated_absorpt_T_max   0.982
_exptl_absorpt_correction_type   Multi-scan
_exptl_absorpt_correction_T_min  0.550
_exptl_absorpt_correction_T_max  0.839
_exptl_absorpt_process_details   ?

_exptl_special_details           
;
 ?
;

_diffrn_ambient_temperature      375(2)
_diffrn_radiation_type           MoK\a
_diffrn_radiation_wavelength     0.71073
_diffrn_radiation_source         'sealed tube'
_diffrn_radiation_monochromator  graphite
_diffrn_measurement_device_type  'Bruker P4'
_diffrn_measurement_method       '\w scans'
_diffrn_reflns_number            4302
_diffrn_reflns_av_unetI/netI     0.0463
_diffrn_reflns_av_R_equivalents  0.0435
_diffrn_reflns_limit_h_min       -18
_diffrn_reflns_limit_h_max       17
_diffrn_reflns_limit_k_min       -12
_diffrn_reflns_limit_k_max       11
_diffrn_reflns_limit_l_min       -9
_diffrn_reflns_limit_l_max       11
_diffrn_reflns_theta_min         3.781
_diffrn_reflns_theta_max         21.006
_diffrn_reflns_theta_full        25.242
_diffrn_measured_fraction_theta_max 0.982
_diffrn_measured_fraction_theta_full 0.584
_diffrn_reflns_Laue_measured_fraction_max 0.982
_diffrn_reflns_Laue_measured_fraction_full 0.584
_diffrn_reflns_point_group_measured_fraction_max 0.982
_diffrn_reflns_point_group_measured_fraction_full 0.584
_reflns_number_total             1284
_reflns_number_gt                1023
_reflns_threshold_expression     'I > 2\s(I)'
_reflns_Friedel_coverage         0.000
_reflns_Friedel_fraction_max     .
_reflns_Friedel_fraction_full    .

_reflns_special_details          
;
 Reflections were merged by SHELXL according to the crystal
 class for the calculation of statistics and refinement.
 
 _reflns_Friedel_fraction is defined as the number of unique
 Friedel pairs measured divided by the number that would be
 possible theoretically, ignoring centric projections and
 systematic absences.
;

_computing_data_collection       'Bruker XSCANS'
_computing_cell_refinement       'Bruker XSCANS'
_computing_data_reduction        'Bruker SHELXTL'
_computing_structure_solution    'Bruker SHELXTL'
_computing_structure_refinement  'Bruker SHELXTL'
_computing_molecular_graphics    'Bruker SHELXTL'
_computing_publication_material  'Bruker SHELXTL'

_refine_special_details          
;
 ?
;
_refine_ls_structure_factor_coef Fsqd
_refine_ls_matrix_type           full
_refine_ls_weighting_scheme      calc
_refine_ls_weighting_details     
'w=1/[\s^2^(Fo^2^)+(0.0451P)^2^+0.7711P] where P=(Fo^2^+2Fc^2^)/3'
_atom_sites_solution_primary     ?
_atom_sites_solution_secondary   ?
_atom_sites_solution_hydrogens   difmap
_refine_ls_hydrogen_treatment    refall
_refine_ls_extinction_method     none
_refine_ls_extinction_coef       .
_refine_ls_number_reflns         1284
_refine_ls_number_parameters     148
_refine_ls_number_restraints     0
_refine_ls_R_factor_all          0.0489
_refine_ls_R_factor_gt           0.0345
_refine_ls_wR_factor_ref         0.0865
_refine_ls_wR_factor_gt          0.0803
_refine_ls_goodness_of_fit_ref   1.059
_refine_ls_restrained_S_all      1.059
_refine_ls_shift/su_max          0.000
_refine_ls_shift/su_mean         0.000

loop_
_atom_site_label
_atom_site_type_symbol
_atom_site_fract_x
_atom_site_fract_y
_atom_site_fract_z
_atom_site_U_iso_or_equiv
_atom_site_adp_type
_atom_site_occupancy
_atom_site_site_symmetry_order
_atom_site_calc_flag
_atom_site_refinement_flags_posn
_atom_site_refinement_flags_adp
_atom_site_refinement_flags_occupancy
_atom_site_disorder_assembly
_atom_site_disorder_group
Mg1 Mg 0.08423(5) 0.03809(8) 0.03950(8) 0.0167(3) Uani 1 1 d . . . . .
Mg2 Mg 0.0000 0.10018(11) 0.2500 0.0155(4) Uani 1 2 d S T P . .
N1 N 0.18539(14) -0.0652(2) 0.1120(2) 0.0232(7) Uani 1 1 d . . . . .
O1 O 0.07554(10) -0.01594(16) 0.21881(16) 0.0197(6) Uani 1 1 d . . . . .
O2 O 0.13157(11) -0.09032(16) 0.39798(18) 0.0269(6) Uani 1 1 d . . . . .
O3 O 0.35669(11) -0.33011(18) 0.37286(19) 0.0326(6) Uani 1 1 d . . . . .
O4 O 0.41744(11) -0.28694(17) 0.22527(18) 0.0301(6) Uani 1 1 d . . . . .
O5 O -0.02131(13) 0.0877(2) 0.05428(19) 0.0193(6) Uani 1 1 d . . . . .
H5A H -0.0365(16) 0.135(2) 0.029(3) 0.003(10) Uiso 1 1 d . . . . .
C2 C 0.18930(16) -0.1064(2) 0.2263(2) 0.0181(8) Uani 1 1 d . . . . .
C3 C 0.24541(17) -0.1738(3) 0.2837(3) 0.0224(8) Uani 1 1 d . . . . .
H3 H 0.2427(14) -0.201(2) 0.360(3) 0.017(8) Uiso 1 1 d . . . . .
C4 C 0.30252(16) -0.2014(2) 0.2242(2) 0.0216(8) Uani 1 1 d . . . . .
C5 C 0.3002(2) -0.1551(3) 0.1097(3) 0.0359(10) Uani 1 1 d . . . . .
H5 H 0.3364(17) -0.171(2) 0.073(3) 0.028(9) Uiso 1 1 d . . . . .
C6 C 0.24118(19) -0.0905(3) 0.0562(3) 0.0345(10) Uani 1 1 d . . . . .
H6 H 0.2368(18) -0.056(3) -0.028(3) 0.051(10) Uiso 1 1 d . . . . .
C7 C 0.12679(17) -0.0690(2) 0.2866(3) 0.0170(8) Uani 1 1 d . . . . .
C8 C 0.36412(17) -0.2789(3) 0.2793(3) 0.0229(8) Uani 1 1 d . . . . .

loop_
_atom_site_aniso_label
_atom_site_aniso_U_11
_atom_site_aniso_U_22
_atom_site_aniso_U_33
_atom_site_aniso_U_23
_atom_site_aniso_U_13
_atom_site_aniso_U_12
Mg1 0.0106(6) 0.0278(7) 0.0130(6) -0.0001(4) 0.0050(4) -0.0004(5)
Mg2 0.0082(8) 0.0241(9) 0.0156(8) 0.000 0.0056(6) 0.000
N1 0.0198(16) 0.0358(18) 0.0170(15) 0.0051(12) 0.0106(12) 0.0093(13)
O1 0.0133(12) 0.0314(14) 0.0156(11) 0.0047(10) 0.0059(9) 0.0099(11)
O2 0.0285(14) 0.0414(15) 0.0130(13) 0.0060(10) 0.0095(10) 0.0169(11)
O3 0.0302(14) 0.0459(16) 0.0264(13) 0.0175(12) 0.0163(11) 0.0203(11)
O4 0.0213(14) 0.0414(16) 0.0337(13) 0.0114(11) 0.0188(11) 0.0161(11)
O5 0.0162(14) 0.0224(17) 0.0187(13) 0.0059(11) 0.0028(10) 0.0037(12)
C2 0.0161(19) 0.027(2) 0.0123(18) 0.0019(15) 0.0067(15) 0.0064(16)
C3 0.024(2) 0.034(2) 0.0123(19) 0.0070(15) 0.0098(16) 0.0084(17)
C4 0.019(2) 0.032(2) 0.0150(18) 0.0065(15) 0.0065(15) 0.0104(16)
C5 0.030(2) 0.053(3) 0.032(2) 0.0108(19) 0.0230(19) 0.026(2)
C6 0.030(2) 0.055(3) 0.023(2) 0.0174(18) 0.0137(18) 0.023(2)
C7 0.014(2) 0.021(2) 0.016(2) 0.0002(15) 0.0046(16) -0.0003(16)
C8 0.021(2) 0.029(2) 0.0189(19) 0.0019(16) 0.0047(16) 0.0088(17)

_geom_special_details            
;
 All esds (except the esd in the dihedral angle between two l.s. planes)
 are estimated using the full covariance matrix.  The cell esds are taken
 into account individually in the estimation of esds in distances, angles
 and torsion angles; correlations between esds in cell parameters are only
 used when they are defined by crystal symmetry.  An approximate (isotropic)
 treatment of cell esds is used for estimating esds involving l.s. planes.
;

loop_
_geom_bond_atom_site_label_1
_geom_bond_atom_site_label_2
_geom_bond_distance
_geom_bond_site_symmetry_2
_geom_bond_publ_flag
Mg1 O2 2.045(2) 6 ?
Mg1 O5 2.056(3) . ?
Mg1 O5 2.076(3) 5 ?
Mg1 O3 2.079(2) 4 ?
Mg1 O1 2.124(2) . ?
Mg1 N1 2.242(3) . ?
Mg1 Mg1 3.140(2) 5 ?
Mg1 Mg2 3.1433(15) . ?
Mg1 Mg2 3.6479(18) 5 ?
Mg2 O4 2.031(2) 4 ?
Mg2 O4 2.031(2) 3_455 ?
Mg2 O1 2.075(2) 2 ?
Mg2 O1 2.075(2) . ?
Mg2 O5 2.108(2) 2 ?
Mg2 O5 2.108(2) . ?
Mg2 Mg1 3.1432(15) 2 ?
Mg2 Mg1 3.6480(18) 5 ?
Mg2 Mg1 3.6480(18) 6_556 ?
Mg2 H5A 2.41(3) . ?
N1 C6 1.335(4) . ?
N1 C2 1.346(4) . ?
O1 C7 1.247(3) . ?
O2 C7 1.238(3) . ?
O2 Mg1 2.045(2) 6_556 ?
O3 C8 1.244(3) . ?
O3 Mg1 2.079(2) 4_545 ?
O4 C8 1.248(3) . ?
O4 Mg2 2.031(2) 3_545 ?
O5 Mg1 2.076(3) 5 ?
O5 H5A 0.68(3) . ?
C2 C3 1.364(4) . ?
C2 C7 1.511(4) . ?
C3 C4 1.387(4) . ?
C3 H3 0.91(3) . ?
C4 C5 1.378(4) . ?
C4 C8 1.502(4) . ?
C5 C6 1.366(5) . ?
C5 H5 0.87(3) . ?
C6 H6 1.01(3) . ?

loop_
_geom_angle_atom_site_label_1
_geom_angle_atom_site_label_2
_geom_angle_atom_site_label_3
_geom_angle
_geom_angle_site_symmetry_1
_geom_angle_site_symmetry_3
_geom_angle_publ_flag
O2 Mg1 O5 121.44(10) 6 . ?
O2 Mg1 O5 98.06(9) 6 5 ?
O5 Mg1 O5 81.11(11) . 5 ?
O2 Mg1 O3 80.83(9) 6 4 ?
O5 Mg1 O3 96.94(10) . 4 ?
O5 Mg1 O3 176.87(11) 5 4 ?
O2 Mg1 O1 159.85(9) 6 . ?
O5 Mg1 O1 76.08(9) . . ?
O5 Mg1 O1 94.38(9) 5 . ?
O3 Mg1 O1 87.50(9) 4 . ?
O2 Mg1 N1 90.22(9) 6 . ?
O5 Mg1 N1 148.29(10) . . ?
O5 Mg1 N1 93.53(11) 5 . ?
O3 Mg1 N1 89.42(10) 4 . ?
O1 Mg1 N1 73.19(8) . . ?
O2 Mg1 Mg1 115.74(8) 6 5 ?
O5 Mg1 Mg1 40.79(7) . 5 ?
O5 Mg1 Mg1 40.32(7) 5 5 ?
O3 Mg1 Mg1 137.68(8) 4 5 ?
O1 Mg1 Mg1 83.85(7) . 5 ?
N1 Mg1 Mg1 126.71(9) . 5 ?
O2 Mg1 Mg2 146.98(8) 6 . ?
O5 Mg1 Mg2 41.62(6) . . ?
O5 Mg1 Mg2 104.34(7) 5 . ?
O3 Mg1 Mg2 75.49(7) 4 . ?
O1 Mg1 Mg2 40.95(6) . . ?
N1 Mg1 Mg2 111.96(7) . . ?
Mg1 Mg1 Mg2 70.99(4) 5 . ?
O2 Mg1 Mg2 69.59(7) 6 5 ?
O5 Mg1 Mg2 89.57(7) . 5 ?
O5 Mg1 Mg2 29.58(6) 5 5 ?
O3 Mg1 Mg2 148.46(7) 4 5 ?
O1 Mg1 Mg2 123.96(7) . 5 ?
N1 Mg1 Mg2 101.09(8) . 5 ?
Mg1 Mg1 Mg2 54.55(3) 5 5 ?
Mg2 Mg1 Mg2 125.54(4) . 5 ?
O4 Mg2 O4 92.32(14) 4 3_455 ?
O4 Mg2 O1 163.20(7) 4 2 ?
O4 Mg2 O1 90.50(9) 3_455 2 ?
O4 Mg2 O1 90.50(9) 4 . ?
O4 Mg2 O1 163.20(7) 3_455 . ?
O1 Mg2 O1 91.56(13) 2 . ?
O4 Mg2 O5 87.18(9) 4 2 ?
O4 Mg2 O5 98.70(9) 3_455 2 ?
O1 Mg2 O5 76.02(9) 2 2 ?
O1 Mg2 O5 97.98(9) . 2 ?
O4 Mg2 O5 98.70(9) 4 . ?
O4 Mg2 O5 87.18(9) 3_455 . ?
O1 Mg2 O5 97.98(9) 2 . ?
O1 Mg2 O5 76.02(9) . . ?
O5 Mg2 O5 171.55(16) 2 . ?
O4 Mg2 Mg1 122.53(6) 4 2 ?
O4 Mg2 Mg1 78.65(6) 3_455 2 ?
O1 Mg2 Mg1 42.13(5) 2 2 ?
O1 Mg2 Mg1 113.47(7) . 2 ?
O5 Mg2 Mg1 40.38(7) 2 2 ?
O5 Mg2 Mg1 136.51(7) . 2 ?
O4 Mg2 Mg1 78.65(6) 4 . ?
O4 Mg2 Mg1 122.53(6) 3_455 . ?
O1 Mg2 Mg1 113.47(7) 2 . ?
O1 Mg2 Mg1 42.13(5) . . ?
O5 Mg2 Mg1 136.51(7) 2 . ?
O5 Mg2 Mg1 40.38(7) . . ?
Mg1 Mg2 Mg1 151.49(6) 2 . ?
O4 Mg2 Mg1 126.82(6) 4 5 ?
O4 Mg2 Mg1 93.16(7) 3_455 5 ?
O1 Mg2 Mg1 69.49(6) 2 5 ?
O1 Mg2 Mg1 72.02(6) . 5 ?
O5 Mg2 Mg1 143.54(9) 2 5 ?
O5 Mg2 Mg1 29.09(7) . 5 ?
Mg1 Mg2 Mg1 110.40(5) 2 5 ?
Mg1 Mg2 Mg1 54.46(4) . 5 ?
O4 Mg2 Mg1 93.16(7) 4 6_556 ?
O4 Mg2 Mg1 126.82(6) 3_455 6_556 ?
O1 Mg2 Mg1 72.02(6) 2 6_556 ?
O1 Mg2 Mg1 69.49(6) . 6_556 ?
O5 Mg2 Mg1 29.09(7) 2 6_556 ?
O5 Mg2 Mg1 143.54(9) . 6_556 ?
Mg1 Mg2 Mg1 54.46(4) 2 6_556 ?
Mg1 Mg2 Mg1 110.40(5) . 6_556 ?
Mg1 Mg2 Mg1 123.62(6) 5 6_556 ?
O4 Mg2 H5A 92.3(7) 4 . ?
O4 Mg2 H5A 73.1(7) 3_455 . ?
O1 Mg2 H5A 104.4(7) 2 . ?
O1 Mg2 H5A 90.3(7) . . ?
O5 Mg2 H5A 171.7(7) 2 . ?
O5 Mg2 H5A 15.6(7) . . ?
Mg1 Mg2 H5A 135.8(7) 2 . ?
Mg1 Mg2 H5A 51.2(7) . . ?
Mg1 Mg2 H5A 40.3(7) 5 . ?
Mg1 Mg2 H5A 159.1(7) 6_556 . ?
C6 N1 C2 116.9(3) . . ?
C6 N1 Mg1 128.2(2) . . ?
C2 N1 Mg1 114.91(18) . . ?
C7 O1 Mg2 134.84(17) . . ?
C7 O1 Mg1 121.66(17) . . ?
Mg2 O1 Mg1 96.92(9) . . ?
C7 O2 Mg1 137.4(2) . 6_556 ?
C8 O3 Mg1 130.51(19) . 4_545 ?
C8 O4 Mg2 128.33(19) . 3_545 ?
Mg1 O5 Mg1 98.89(11) . 5 ?
Mg1 O5 Mg2 98.00(10) . . ?
Mg1 O5 Mg2 121.33(12) 5 . ?
Mg1 O5 H5A 122(3) . . ?
Mg1 O5 H5A 109(3) 5 . ?
Mg2 O5 H5A 108(2) . . ?
N1 C2 C3 123.1(3) . . ?
N1 C2 C7 113.8(3) . . ?
C3 C2 C7 123.0(3) . . ?
C2 C3 C4 119.7(3) . . ?
C2 C3 H3 117.7(16) . . ?
C4 C3 H3 122.5(17) . . ?
C5 C4 C3 116.9(3) . . ?
C5 C4 C8 120.5(3) . . ?
C3 C4 C8 122.6(3) . . ?
C6 C5 C4 120.2(3) . . ?
C6 C5 H5 123(2) . . ?
C4 C5 H5 117(2) . . ?
N1 C6 C5 123.0(3) . . ?
N1 C6 H6 114.2(19) . . ?
C5 C6 H6 122.7(19) . . ?
O2 C7 O1 125.8(3) . . ?
O2 C7 C2 118.3(3) . . ?
O1 C7 C2 115.9(3) . . ?
O3 C8 O4 126.3(3) . . ?
O3 C8 C4 117.1(3) . . ?
O4 C8 C4 116.6(3) . . ?

_refine_diff_density_max         0.219
_refine_diff_density_min         -0.211
_refine_diff_density_rms         0.048

_shelxl_version_number           2013-4

_shelx_res_file                  
;
TITL MgCUK1HT_0m in C2/c

CELL 0.71073    18.1796  12.4635  11.0054  90 102.778  90
ZERR       4     0.0096   0.0077   0.0055   0   0.016   0

LATT  7
SYMM -X, Y, 0.5-Z

SFAC    C   H    N   O    MG
UNIT    56  32   8   40   12

TEMP 375
SIZE 0.302 0.133 0.110
ACTA

L.S. 12
BOND $H
FMAP 2
PLAN -5
SHEL 5.8 0

OMIT    7   3   4
OMIT   -3   1   2
OMIT    5   3   7
OMIT    7   9   0
OMIT   -3   3   4
OMIT   -2   2  10
OMIT  -11   5   4

WGHT    0.045100    0.771100
FVAR       0.11590
MG1   5    0.084231    0.038090    0.039496    11.00000    0.01055    0.02780 =
         0.01296   -0.00010    0.00500   -0.00039
MG2   5    0.000000    0.100185    0.250000    10.50000    0.00821    0.02412 =
         0.01560    0.00000    0.00558    0.00000
N1    3    0.185391   -0.065247    0.112027    11.00000    0.01976    0.03581 =
         0.01703    0.00512    0.01055    0.00926
O1    4    0.075539   -0.015940    0.218810    11.00000    0.01331    0.03136 =
         0.01563    0.00466    0.00586    0.00990
O2    4    0.131566   -0.090318    0.397984    11.00000    0.02850    0.04137 =
         0.01302    0.00596    0.00953    0.01689
O3    4    0.356690   -0.330109   