####################################################################### 
# 
# This file contains crystal structure data downloaded from the 
# Cambridge Structural Database (CSD) hosted by the Cambridge 
# Crystallographic Data Centre (CCDC).
# 
# Full information about CCDC data access policies and citation 
# guidelines are available at http://www.ccdc.cam.ac.uk/access/V1 
# 
# Audit and citation data items may have been added by the CCDC. 
# Please retain this information to preserve the provenance of 
# this file and to allow appropriate attribution of the data. 
# 
#######################################################################

data_pxylene
_audit_block_doi                 10.5517/cc13d9d6
_database_code_depnum_ccdc_archive 'CCDC 1024717'
loop_
_citation_id
_citation_doi
_citation_year
1 10.1002/anie.201411862 2015
_audit_update_record             
;
2014-09-16 deposited with the CCDC.	2024-07-11 downloaded from the CCDC.
;

loop_
_publ_author_names
'Beau Saccoccia'
'Nolan W. Waggoner'
'Alisha M. Bohnsack'
'Vincent M. Lynch'
'Jong-San Chang'
'Simon M. Humphrey'


_audit_creation_method           SHELXL-2014
_chemical_name_systematic        
;
 ?
;
_chemical_name_common            ?
_chemical_melting_point          ?
_chemical_formula_moiety         'C14 H8 Mg3 N2 O10, 0.5(C8 H10)'
_chemical_formula_sum            'C18 H13 Mg3 N2 O10'
_chemical_formula_weight         490.23

loop_
_atom_type_symbol
_atom_type_description
_atom_type_scat_dispersion_real
_atom_type_scat_dispersion_imag
_atom_type_scat_source
C C 0.0033 0.0016 'International Tables Vol C Tables 4.2.6.8 and 6.1.1.4'
H H 0.0000 0.0000 'International Tables Vol C Tables 4.2.6.8 and 6.1.1.4'
N N 0.0061 0.0033 'International Tables Vol C Tables 4.2.6.8 and 6.1.1.4'
O O 0.0106 0.0060 'International Tables Vol C Tables 4.2.6.8 and 6.1.1.4'
Mg Mg 0.0486 0.0363 'International Tables Vol C Tables 4.2.6.8 and 6.1.1.4'

_space_group_crystal_system      monoclinic
_space_group_IT_number           15
_space_group_name_H-M_alt        'C 2/c'
_space_group_name_Hall           '-C 2yc'

_shelx_space_group_comment       
;
The symmetry employed for this shelxl refinement is uniquely defined
by the following loop, which should always be used as a source of
symmetry information in preference to the above space-group names.
They are only intended as comments.
;

loop_
_space_group_symop_operation_xyz
'x, y, z'
'-x, y, -z+1/2'
'x+1/2, y+1/2, z'
'-x+1/2, y+1/2, -z+1/2'
'-x, -y, -z'
'x, -y, z-1/2'
'-x+1/2, -y+1/2, -z'
'x+1/2, -y+1/2, z-1/2'

_cell_length_a                   18.1667(9)
_cell_length_b                   12.5175(7)
_cell_length_c                   11.0210(6)
_cell_angle_alpha                90
_cell_angle_beta                 102.672(3)
_cell_angle_gamma                90
_cell_volume                     2445.1(2)
_cell_formula_units_Z            4
_cell_measurement_temperature    133(2)
_cell_measurement_reflns_used    35823
_cell_measurement_theta_min      2.0
_cell_measurement_theta_max      27.53

_exptl_crystal_description       Rod
_exptl_crystal_colour            Colorless
_exptl_crystal_density_meas      ?
_exptl_crystal_density_method    ?
_exptl_crystal_density_diffrn    1.332
_exptl_crystal_F_000             1004
_exptl_transmission_factor_min   ?
_exptl_transmission_factor_max   ?
_exptl_crystal_size_max          0.160
_exptl_crystal_size_mid          0.140
_exptl_crystal_size_min          0.130
_exptl_absorpt_coefficient_mu    0.176
_shelx_estimated_absorpt_T_min   0.972
_shelx_estimated_absorpt_T_max   0.978
_exptl_absorpt_correction_type   Multi-scan
_exptl_absorpt_correction_T_min  0
_exptl_absorpt_correction_T_max  0.875
_exptl_absorpt_process_details   ?

_exptl_special_details           
;
 ?
;

_diffrn_ambient_temperature      133(2)
_diffrn_radiation_type           MoK\a
_diffrn_radiation_wavelength     0.71073
_diffrn_radiation_source         'sealed tube'
_diffrn_radiation_monochromator  graphite
_diffrn_measurement_device_type  'Bruker P4'
_diffrn_measurement_method       '\w scans'
_diffrn_reflns_number            28854
_diffrn_reflns_av_unetI/netI     0.0310
_diffrn_reflns_av_R_equivalents  0.0702
_diffrn_reflns_limit_h_min       -21
_diffrn_reflns_limit_h_max       21
_diffrn_reflns_limit_k_min       -14
_diffrn_reflns_limit_k_max       14
_diffrn_reflns_limit_l_min       -13
_diffrn_reflns_limit_l_max       13
_diffrn_reflns_theta_min         3.790
_diffrn_reflns_theta_max         24.999
_diffrn_reflns_theta_full        25.242
_diffrn_measured_fraction_theta_max 0.995
_diffrn_measured_fraction_theta_full 0.967
_diffrn_reflns_Laue_measured_fraction_max 0.995
_diffrn_reflns_Laue_measured_fraction_full 0.967
_diffrn_reflns_point_group_measured_fraction_max 0.995
_diffrn_reflns_point_group_measured_fraction_full 0.967
_reflns_number_total             2139
_reflns_number_gt                1774
_reflns_threshold_expression     'I > 2\s(I)'
_reflns_Friedel_coverage         0.000
_reflns_Friedel_fraction_max     .
_reflns_Friedel_fraction_full    .

_reflns_special_details          
;
 Reflections were merged by SHELXL according to the crystal
 class for the calculation of statistics and refinement.
 
 _reflns_Friedel_fraction is defined as the number of unique
 Friedel pairs measured divided by the number that would be
 possible theoretically, ignoring centric projections and
 systematic absences.
;

_computing_data_collection       'Bruker XSCANS'
_computing_cell_refinement       'Bruker XSCANS'
_computing_data_reduction        'Bruker SHELXTL'
_computing_structure_solution    'Bruker SHELXTL'
_computing_structure_refinement  'Bruker SHELXTL'
_computing_molecular_graphics    'Bruker SHELXTL'
_computing_publication_material  'Bruker SHELXTL'

_refine_special_details          
;
 ?
;
_refine_ls_structure_factor_coef Fsqd
_refine_ls_matrix_type           full
_refine_ls_weighting_scheme      calc
_refine_ls_weighting_details     
'w=1/[\s^2^(Fo^2^)+(0.0577P)^2^+4.8643P] where P=(Fo^2^+2Fc^2^)/3'
_atom_sites_solution_primary     ?
_atom_sites_solution_secondary   ?
_atom_sites_solution_hydrogens   mixed
_refine_ls_hydrogen_treatment    mixed
_refine_ls_extinction_method     none
_refine_ls_extinction_coef       .
_refine_ls_number_reflns         2139
_refine_ls_number_parameters     185
_refine_ls_number_restraints     0
_refine_ls_R_factor_all          0.0542
_refine_ls_R_factor_gt           0.0403
_refine_ls_wR_factor_ref         0.1123
_refine_ls_wR_factor_gt          0.1069
_refine_ls_goodness_of_fit_ref   1.092
_refine_ls_restrained_S_all      1.092
_refine_ls_shift/su_max          0.000
_refine_ls_shift/su_mean         0.000

loop_
_atom_site_label
_atom_site_type_symbol
_atom_site_fract_x
_atom_site_fract_y
_atom_site_fract_z
_atom_site_U_iso_or_equiv
_atom_site_adp_type
_atom_site_occupancy
_atom_site_site_symmetry_order
_atom_site_calc_flag
_atom_site_refinement_flags_posn
_atom_site_refinement_flags_adp
_atom_site_refinement_flags_occupancy
_atom_site_disorder_assembly
_atom_site_disorder_group
Mg1 Mg 0.0000 0.09915(9) 0.2500 0.0083(3) Uani 1 2 d S T P . .
Mg2 Mg 0.08427(4) 0.03632(6) 0.04019(7) 0.0087(2) Uani 1 1 d . . . . .
N1 N 0.18411(11) -0.06813(16) 0.11037(18) 0.0115(5) Uani 1 1 d . . . . .
O1 O 0.07527(9) -0.01632(13) 0.21889(14) 0.0104(4) Uani 1 1 d . . . . .
O2 O 0.13210(9) -0.09005(13) 0.39936(14) 0.0133(4) Uani 1 1 d . . . . .
O3 O 0.35482(9) -0.33397(14) 0.37018(15) 0.0147(4) Uani 1 1 d . . . . .
O4 O 0.41692(9) -0.28861(13) 0.22404(15) 0.0139(4) Uani 1 1 d . . . . .
O5 O -0.02081(9) 0.08840(14) 0.05421(15) 0.0093(4) Uani 1 1 d . . . . .
H5A H -0.0379(18) 0.149(3) 0.028(3) 0.032(9) Uiso 1 1 d . . . . .
C2 C 0.18875(13) -0.10799(19) 0.2261(2) 0.0110(5) Uani 1 1 d . . . . .
C3 C 0.24513(13) -0.1755(2) 0.2838(2) 0.0123(5) Uani 1 1 d . . . . .
H3 H 0.2461(15) -0.198(2) 0.355(3) 0.013(7) Uiso 1 1 d . . . . .
C4 C 0.30073(13) -0.20453(19) 0.2218(2) 0.0126(5) Uani 1 1 d . . . . .
C5 C 0.29761(14) -0.1618(2) 0.1046(2) 0.0165(6) Uani 1 1 d . . . . .
H5 H 0.3335(16) -0.179(2) 0.061(3) 0.018(7) Uiso 1 1 d . . . . .
C6 C 0.23857(14) -0.0952(2) 0.0524(2) 0.0168(6) Uani 1 1 d . . . . .
H6 H 0.2322(15) -0.068(2) -0.029(3) 0.019(7) Uiso 1 1 d . . . . .
C7 C 0.12693(13) -0.06951(19) 0.2876(2) 0.0099(5) Uani 1 1 d . . . . .
C8 C 0.36331(13) -0.28235(19) 0.2775(2) 0.0114(5) Uani 1 1 d . . . . .
C50 C 0.0488(4) 0.4480(5) -0.0660(6) 0.0383(16) Uani 0.5 1 d . . P . .
C51 C 0.0180(4) 0.3955(5) 0.0236(6) 0.0377(18) Uani 0.5 1 d . . P . .
H51A H 0.0303 0.3225 0.0402 0.045 Uiso 0.5 1 calc R U P . .
C52 C -0.0279(4) 0.4432(5) 0.0870(7) 0.0393(18) Uani 0.5 1 d . . P . .
H52A H -0.0467 0.4035 0.1471 0.047 Uiso 0.5 1 calc R U P . .
C53 C 0.1000(5) 0.3920(7) -0.1370(9) 0.061(2) Uani 0.5 1 d . . P . .
H53A H 0.1090 0.3186 -0.1066 0.091 Uiso 0.5 1 calc R U P . .
H53B H 0.1482 0.4302 -0.1246 0.091 Uiso 0.5 1 calc R U P . .
H53C H 0.0760 0.3910 -0.2258 0.091 Uiso 0.5 1 calc R U P . .

loop_
_atom_site_aniso_label
_atom_site_aniso_U_11
_atom_site_aniso_U_22
_atom_site_aniso_U_33
_atom_site_aniso_U_23
_atom_site_aniso_U_13
_atom_site_aniso_U_12
Mg1 0.0062(5) 0.0125(6) 0.0070(5) 0.000 0.0033(4) 0.000
Mg2 0.0066(4) 0.0134(4) 0.0067(4) -0.0006(3) 0.0029(3) -0.0004(3)
N1 0.0105(11) 0.0174(11) 0.0077(10) 0.0004(8) 0.0042(8) 0.0016(8)
O1 0.0078(8) 0.0154(9) 0.0084(8) 0.0018(7) 0.0026(6) 0.0031(7)
O2 0.0143(9) 0.0193(9) 0.0073(9) 0.0024(7) 0.0045(7) 0.0057(7)
O3 0.0143(9) 0.0202(9) 0.0114(9) 0.0051(7) 0.0067(7) 0.0063(7)
O4 0.0111(9) 0.0181(9) 0.0148(9) 0.0046(7) 0.0076(7) 0.0054(7)
O5 0.0075(8) 0.0116(9) 0.0089(8) 0.0013(7) 0.0022(7) 0.0011(7)
C2 0.0109(12) 0.0140(12) 0.0084(12) -0.0014(9) 0.0030(9) -0.0007(9)
C3 0.0119(12) 0.0183(13) 0.0077(12) 0.0019(10) 0.0042(10) 0.0015(10)
C4 0.0114(12) 0.0145(12) 0.0117(12) 0.0011(10) 0.0020(10) -0.0001(10)
C5 0.0144(13) 0.0239(14) 0.0143(13) 0.0036(11) 0.0097(11) 0.0059(11)
C6 0.0181(14) 0.0245(15) 0.0102(13) 0.0063(11) 0.0082(11) 0.0063(11)
C7 0.0104(12) 0.0115(12) 0.0083(12) 0.0001(9) 0.0032(10) -0.0019(9)
C8 0.0108(12) 0.0148(12) 0.0086(12) -0.0005(10) 0.0020(10) 0.0006(10)
C50 0.029(4) 0.032(3) 0.043(4) 0.005(3) -0.016(3) -0.009(3)
C51 0.035(4) 0.016(3) 0.048(4) 0.024(3) -0.021(3) -0.011(3)
C52 0.031(4) 0.030(3) 0.047(4) 0.028(3) -0.012(3) -0.016(3)
C53 0.042(4) 0.060(5) 0.075(6) -0.006(5) 0.002(4) -0.005(4)

_geom_special_details            
;
 All esds (except the esd in the dihedral angle between two l.s. planes)
 are estimated using the full covariance matrix.  The cell esds are taken
 into account individually in the estimation of esds in distances, angles
 and torsion angles; correlations between esds in cell parameters are only
 used when they are defined by crystal symmetry.  An approximate (isotropic)
 treatment of cell esds is used for estimating esds involving l.s. planes.
;

loop_
_geom_bond_atom_site_label_1
_geom_bond_atom_site_label_2
_geom_bond_distance
_geom_bond_site_symmetry_2
_geom_bond_publ_flag
Mg1 O4 2.0358(18) 4 ?
Mg1 O4 2.0358(18) 3_455 ?
Mg1 O1 2.0694(18) 2 ?
Mg1 O1 2.0694(18) . ?
Mg1 O5 2.1117(16) 2 ?
Mg1 O5 2.1117(16) . ?
Mg1 Mg2 3.1404(8) . ?
Mg1 Mg2 3.1404(8) 2 ?
Mg1 Mg2 3.6469(9) 5 ?
Mg1 Mg2 3.6469(9) 6_556 ?
Mg2 O2 2.0514(17) 6 ?
Mg2 O5 2.0549(17) . ?
Mg2 O5 2.0791(18) 5 ?
Mg2 O3 2.0872(18) 4 ?
Mg2 O1 2.1168(17) . ?
Mg2 N1 2.232(2) . ?
Mg2 Mg2 3.1300(15) 5 ?
Mg2 Mg1 3.6469(9) 5 ?
N1 C6 1.334(3) . ?
N1 C2 1.355(3) . ?
O1 C7 1.259(3) . ?
O2 C7 1.242(3) . ?
O2 Mg2 2.0514(17) 6_556 ?
O3 C8 1.246(3) . ?
O3 Mg2 2.0873(18) 4_545 ?
O4 C8 1.247(3) . ?
O4 Mg1 2.0357(18) 3_545 ?
O5 Mg2 2.0791(18) 5 ?
O5 H5A 0.84(4) . ?
C2 C3 1.372(3) . ?
C2 C7 1.512(3) . ?
C3 C4 1.386(3) . ?
C3 H3 0.83(3) . ?
C4 C5 1.388(3) . ?
C4 C8 1.521(3) . ?
C5 C6 1.380(4) . ?
C5 H5 0.92(3) . ?
C6 H6 0.95(3) . ?
C50 C51 1.400(10) . ?
C50 C52 1.419(9) 5_565 ?
C50 C53 1.512(11) . ?
C51 C52 1.340(10) . ?
C51 H51A 0.9500 . ?
C52 C50 1.419(9) 5_565 ?
C52 H52A 0.9500 . ?
C53 H53A 0.9800 . ?
C53 H53B 0.9800 . ?
C53 H53C 0.9800 . ?

loop_
_geom_angle_atom_site_label_1
_geom_angle_atom_site_label_2
_geom_angle_atom_site_label_3
_geom_angle
_geom_angle_site_symmetry_1
_geom_angle_site_symmetry_3
_geom_angle_publ_flag
O4 Mg1 O4 92.72(10) 4 3_455 ?
O4 Mg1 O1 162.79(6) 4 2 ?
O4 Mg1 O1 90.51(6) 3_455 2 ?
O4 Mg1 O1 90.51(6) 4 . ?
O4 Mg1 O1 162.79(6) 3_455 . ?
O1 Mg1 O1 91.39(10) 2 . ?
O4 Mg1 O5 86.52(7) 4 2 ?
O4 Mg1 O5 98.55(7) 3_455 2 ?
O1 Mg1 O5 76.29(6) 2 2 ?
O1 Mg1 O5 98.51(7) . 2 ?
O4 Mg1 O5 98.55(7) 4 . ?
O4 Mg1 O5 86.52(7) 3_455 . ?
O1 Mg1 O5 98.52(7) 2 . ?
O1 Mg1 O5 76.28(6) . . ?
O5 Mg1 O5 172.69(11) 2 . ?
O4 Mg1 Mg2 79.05(5) 4 . ?
O4 Mg1 Mg2 122.38(5) 3_455 . ?
O1 Mg1 Mg2 113.18(6) 2 . ?
O1 Mg1 Mg2 41.97(4) . . ?
O5 Mg1 Mg2 136.84(5) 2 . ?
O5 Mg1 Mg2 40.41(5) . . ?
O4 Mg1 Mg2 122.38(5) 4 2 ?
O4 Mg1 Mg2 79.05(5) 3_455 2 ?
O1 Mg1 Mg2 41.97(4) 2 2 ?
O1 Mg1 Mg2 113.18(6) . 2 ?
O5 Mg1 Mg2 40.41(5) 2 2 ?
O5 Mg1 Mg2 136.84(5) . 2 ?
Mg2 Mg1 Mg2 150.99(5) . 2 ?
O4 Mg1 Mg2 126.86(5) 4 5 ?
O4 Mg1 Mg2 92.40(5) 3_455 5 ?
O1 Mg1 Mg2 69.82(5) 2 5 ?
O1 Mg1 Mg2 72.27(5) . 5 ?
O5 Mg1 Mg2 144.40(6) 2 5 ?
O5 Mg1 Mg2 29.26(5) . 5 ?
Mg2 Mg1 Mg2 54.30(2) . 5 ?
Mg2 Mg1 Mg2 110.52(3) 2 5 ?
O4 Mg1 Mg2 92.40(5) 4 6_556 ?
O4 Mg1 Mg2 126.86(5) 3_455 6_556 ?
O1 Mg1 Mg2 72.27(5) 2 6_556 ?
O1 Mg1 Mg2 69.82(5) . 6_556 ?
O5 Mg1 Mg2 29.26(5) 2 6_556 ?
O5 Mg1 Mg2 144.40(6) . 6_556 ?
Mg2 Mg1 Mg2 110.52(3) . 6_556 ?
Mg2 Mg1 Mg2 54.30(2) 2 6_556 ?
Mg2 Mg1 Mg2 124.58(4) 5 6_556 ?
O2 Mg2 O5 120.50(7) 6 . ?
O2 Mg2 O5 98.51(7) 6 5 ?
O5 Mg2 O5 81.58(7) . 5 ?
O2 Mg2 O3 80.47(7) 6 4 ?
O5 Mg2 O3 97.03(7) . 4 ?
O5 Mg2 O3 177.59(8) 5 4 ?
O2 Mg2 O1 159.72(7) 6 . ?
O5 Mg2 O1 76.48(7) . . ?
O5 Mg2 O1 94.84(7) 5 . ?
O3 Mg2 O1 86.73(7) 4 . ?
O2 Mg2 N1 90.42(7) 6 . ?
O5 Mg2 N1 149.03(8) . . ?
O5 Mg2 N1 93.02(8) 5 . ?
O3 Mg2 N1 89.17(8) 4 . ?
O1 Mg2 N1 73.62(7) . . ?
O2 Mg2 Mg2 115.56(6) 6 5 ?
O5 Mg2 Mg2 41.08(5) . 5 ?
O5 Mg2 Mg2 40.50(5) 5 5 ?
O3 Mg2 Mg2 138.08(6) 4 5 ?
O1 Mg2 Mg2 84.40(5) . 5 ?
N1 Mg2 Mg2 126.73(7) . 5 ?
O2 Mg2 Mg1 146.19(6) 6 . ?
O5 Mg2 Mg1 41.77(5) . . ?
O5 Mg2 Mg1 104.49(5) 5 . ?
O3 Mg2 Mg1 75.53(5) 4 . ?
O1 Mg2 Mg1 40.83(5) . . ?
N1 Mg2 Mg1 112.45(6) . . ?
Mg2 Mg2 Mg1 71.13(3) 5 . ?
O2 Mg2 Mg1 69.81(5) 6 5 ?
O5 Mg2 Mg1 89.73(5) . 5 ?
O5 Mg2 Mg1 29.77(5) 5 5 ?
O3 Mg2 Mg1 148.62(6) 4 5 ?
O1 Mg2 Mg1 124.60(5) . 5 ?
N1 Mg2 Mg1 100.62(6) . 5 ?
Mg2 Mg2 Mg1 54.57(2) 5 5 ?
Mg1 Mg2 Mg1 125.70(2) . 5 ?
C6 N1 C2 117.2(2) . . ?
C6 N1 Mg2 127.93(17) . . ?
C2 N1 Mg2 114.83(15) . . ?
C7 O1 Mg1 134.60(15) . . ?
C7 O1 Mg2 121.63(14) . . ?
Mg1 O1 Mg2 97.20(7) . . ?
C7 O2 Mg2 136.92(16) . 6_556 ?
C8 O3 Mg2 130.02(15) . 4_545 ?
C8 O4 Mg1 127.52(15) . 3_545 ?
Mg2 O5 Mg2 98.42(7) . 5 ?
Mg2 O5 Mg1 97.81(7) . . ?
Mg2 O5 Mg1 120.97(8) 5 . ?
Mg2 O5 H5A 122(2) . . ?
Mg2 O5 H5A 112(2) 5 . ?
Mg1 O5 H5A 105(2) . . ?
N1 C2 C3 123.3(2) . . ?
N1 C2 C7 113.9(2) . . ?
C3 C2 C7 122.8(2) . . ?
C2 C3 C4 118.9(2) . . ?
C2 C3 H3 120.2(19) . . ?
C4 C3 H3 120.9(19) . . ?
C3 C4 C5 118.2(2) . . ?
C3 C4 C8 122.0(2) . . ?
C5 C4 C8 119.8(2) . . ?
C6 C5 C4 119.3(2) . . ?
C6 C5 H5 119.8(17) . . ?
C4 C5 H5 120.9(17) . . ?
N1 C6 C5 123.0(2) . . ?
N1 C6 H6 114.5(17) . . ?
C5 C6 H6 122.5(17) . . ?
O2 C7 O1 126.2(2) . . ?
O2 C7 C2 118.5(2) . . ?
O1 C7 C2 115.3(2) . . ?
O3 C8 O4 127.2(2) . . ?
O3 C8 C4 116.6(2) . . ?
O4 C8 C4 116.2(2) . . ?
C51 C50 C52 115.5(7) . 5_565 ?
C51 C50 C53 122.2(7) . . ?
C52 C50 C53 122.3(7) 5_565 . ?
C52 C51 C50 123.3(6) . . ?
C52 C51 H51A 118.3 . . ?
C50 C51 H51A 118.3 . . ?
C51 C52 C50 121.2(6) . 5_565 ?
C51 C52 H52A 119.4 . . ?
C50 C52 H52A 119.4 5_565 . ?
C50 C53 H53A 109.5 . . ?
C50 C53 H53B 109.5 . . ?
H53A C53 H53B 109.5 . . ?
C50 C53 H53C 109.5 . . ?
H53A C53 H53C 109.5 . . ?
H53B C53 H53C 109.5 . . ?

_refine_diff_density_max         0.486
_refine_diff_density_min         -0.304
_refine_diff_density_rms         0.069

_shelxl_version_number           2014-1

_shelx_res_file                  
;
TITL pxylene in C2/c

CELL 0.71073    18.1667  12.5175  11.0210     90  10