####################################################################### 
# 
# This file contains crystal structure data downloaded from the 
# Cambridge Structural Database (CSD) hosted by the Cambridge 
# Crystallographic Data Centre (CCDC).
# 
# Full information about CCDC data access policies and citation 
# guidelines are available at http://www.ccdc.cam.ac.uk/access/V1 
# 
# Audit and citation data items may have been added by the CCDC. 
# Please retain this information to preserve the provenance of 
# this file and to allow appropriate attribution of the data. 
# 
#######################################################################

data_sh14024
_audit_block_doi                 10.5517/cc13d9f7
_database_code_depnum_ccdc_archive 'CCDC 1024718'
loop_
_citation_id
_citation_doi
_citation_year
1 10.1002/anie.201411862 2015
_audit_update_record             
;
2014-09-16 deposited with the CCDC.	2024-07-11 downloaded from the CCDC.
;

loop_
_publ_author_names
'Beau Saccoccia'
'Nolan W. Waggoner'
'Alisha M. Bohnsack'
'Vincent M. Lynch'
'Jong-San Chang'
'Simon M. Humphrey'

_audit_creation_method           SHELXL-2013
_chemical_name_systematic        
;
 ?
;
_chemical_name_common            ?
_chemical_melting_point          ?
_chemical_formula_moiety         'C14 H8 Mg3 N2 O10, 0.5(C8 H10)'
_chemical_formula_sum            'C18 H13 Mg3 N2 O10'
_chemical_formula_weight         490.23

loop_
_atom_type_symbol
_atom_type_description
_atom_type_scat_dispersion_real
_atom_type_scat_dispersion_imag
_atom_type_scat_source
C C 0.0033 0.0016 'International Tables Vol C Tables 4.2.6.8 and 6.1.1.4'
H H 0.0000 0.0000 'International Tables Vol C Tables 4.2.6.8 and 6.1.1.4'
N N 0.0061 0.0033 'International Tables Vol C Tables 4.2.6.8 and 6.1.1.4'
O O 0.0106 0.0060 'International Tables Vol C Tables 4.2.6.8 and 6.1.1.4'
Mg Mg 0.0486 0.0363 'International Tables Vol C Tables 4.2.6.8 and 6.1.1.4'

_space_group_crystal_system      monoclinic
_space_group_IT_number           15
_space_group_name_H-M_alt        'C 2/c'
_space_group_name_Hall           '-C 2yc'

_shelx_space_group_comment       
;
The symmetry employed for this shelxl refinement is uniquely defined
by the following loop, which should always be used as a source of
symmetry information in preference to the above space-group names.
They are only intended as comments.
;

loop_
_space_group_symop_operation_xyz
'x, y, z'
'-x, y, -z+1/2'
'x+1/2, y+1/2, z'
'-x+1/2, y+1/2, -z+1/2'
'-x, -y, -z'
'x, -y, z-1/2'
'-x+1/2, -y+1/2, -z'
'x+1/2, -y+1/2, z-1/2'

_cell_length_a                   17.979(4)
_cell_length_b                   12.814(2)
_cell_length_c                   11.017(2)
_cell_angle_alpha                90
_cell_angle_beta                 103.296(5)
_cell_angle_gamma                90
_cell_volume                     2470.2(8)
_cell_formula_units_Z            4
_cell_measurement_temperature    120(2)
_cell_measurement_reflns_used    10955
_cell_measurement_theta_min      2.0
_cell_measurement_theta_max      23.34

_exptl_crystal_description       Rod
_exptl_crystal_colour            Colorless
_exptl_crystal_density_meas      ?
_exptl_crystal_density_method    ?
_exptl_crystal_density_diffrn    1.318
_exptl_crystal_F_000             1004
_exptl_transmission_factor_min   ?
_exptl_transmission_factor_max   ?
_exptl_crystal_size_max          0.369
_exptl_crystal_size_mid          0.155
_exptl_crystal_size_min          0.141
_exptl_absorpt_coefficient_mu    0.174
_shelx_estimated_absorpt_T_min   0.939
_shelx_estimated_absorpt_T_max   0.976
_exptl_absorpt_correction_type   Multi-scan
_exptl_absorpt_correction_T_min  0
_exptl_absorpt_correction_T_max  0.885
_exptl_absorpt_process_details   ?

_exptl_special_details           
;
 ?
;

_diffrn_ambient_temperature      120(2)
_diffrn_radiation_type           MoK\a
_diffrn_radiation_wavelength     0.71073
_diffrn_radiation_source         'sealed tube'
_diffrn_radiation_monochromator  graphite
_diffrn_measurement_device_type  'Bruker P4'
_diffrn_measurement_method       '\w scans'
_diffrn_reflns_number            10385
_diffrn_reflns_av_unetI/netI     0.0714
_diffrn_reflns_av_R_equivalents  0.0803
_diffrn_reflns_limit_h_min       -19
_diffrn_reflns_limit_h_max       20
_diffrn_reflns_limit_k_min       -14
_diffrn_reflns_limit_k_max       14
_diffrn_reflns_limit_l_min       -12
_diffrn_reflns_limit_l_max       12
_diffrn_reflns_theta_min         3.801
_diffrn_reflns_theta_max         23.341
_diffrn_reflns_theta_full        25.242
_diffrn_measured_fraction_theta_max 0.989
_diffrn_measured_fraction_theta_full 0.794
_diffrn_reflns_Laue_measured_fraction_max 0.989
_diffrn_reflns_Laue_measured_fraction_full 0.794
_diffrn_reflns_point_group_measured_fraction_max 0.989
_diffrn_reflns_point_group_measured_fraction_full 0.794
_reflns_number_total             1780
_reflns_number_gt                1261
_reflns_threshold_expression     'I > 2\s(I)'
_reflns_Friedel_coverage         0.000
_reflns_Friedel_fraction_max     .
_reflns_Friedel_fraction_full    .

_reflns_special_details          
;
 Reflections were merged by SHELXL according to the crystal
 class for the calculation of statistics and refinement.
 
 _reflns_Friedel_fraction is defined as the number of unique
 Friedel pairs measured divided by the number that would be
 possible theoretically, ignoring centric projections and
 systematic absences.
;

_computing_data_collection       'Bruker XSCANS'
_computing_cell_refinement       'Bruker XSCANS'
_computing_data_reduction        'Bruker SHELXTL'
_computing_structure_solution    'Bruker SHELXTL'
_computing_structure_refinement  'Bruker SHELXTL'
_computing_molecular_graphics    'Bruker SHELXTL'
_computing_publication_material  'Bruker SHELXTL'

_refine_special_details          
;
 ?
;
_refine_ls_structure_factor_coef Fsqd
_refine_ls_matrix_type           full
_refine_ls_weighting_scheme      calc
_refine_ls_weighting_details     
'w=1/[\s^2^(Fo^2^)+(0.1208P)^2^+7.5404P] where P=(Fo^2^+2Fc^2^)/3'
_atom_sites_solution_primary     ?
_atom_sites_solution_secondary   ?
_atom_sites_solution_hydrogens   mixed
_refine_ls_hydrogen_treatment    mixed
_refine_ls_extinction_method     none
_refine_ls_extinction_coef       .
_refine_ls_number_reflns         1780
_refine_ls_number_parameters     194
_refine_ls_number_restraints     122
_refine_ls_R_factor_all          0.1025
_refine_ls_R_factor_gt           0.0697
_refine_ls_wR_factor_ref         0.2018
_refine_ls_wR_factor_gt          0.1893
_refine_ls_goodness_of_fit_ref   1.071
_refine_ls_restrained_S_all      1.033
_refine_ls_shift/su_max          0.000
_refine_ls_shift/su_mean         0.000

loop_
_atom_site_label
_atom_site_type_symbol
_atom_site_fract_x
_atom_site_fract_y
_atom_site_fract_z
_atom_site_U_iso_or_equiv
_atom_site_adp_type
_atom_site_occupancy
_atom_site_site_symmetry_order
_atom_site_calc_flag
_atom_site_refinement_flags_posn
_atom_site_refinement_flags_adp
_atom_site_refinement_flags_occupancy
_atom_site_disorder_assembly
_atom_site_disorder_group
Mg1 Mg 0.0000 0.40303(18) 0.2500 0.0124(6) Uani 1 2 d S T P . .
Mg2 Mg 0.08534(9) 0.46438(13) 0.04154(14) 0.0131(5) Uani 1 1 d . . . . .
O1 O 0.07657(19) 0.5155(3) 0.2208(3) 0.0148(9) Uani 1 1 d . . . . .
O2 O 0.1336(2) 0.5886(3) 0.4011(3) 0.0183(10) Uani 1 1 d . . . . .
O3 O 0.3534(2) 0.8369(3) 0.3687(3) 0.0185(9) Uani 1 1 d . . . . .
O4 O 0.4162(2) 0.7931(3) 0.2232(3) 0.0190(9) Uani 1 1 d . . . . .
O5 O -0.0210(2) 0.4140(3) 0.0539(3) 0.0133(9) Uani 1 1 d . . . . .
H5A H -0.041(3) 0.356(5) 0.029(5) 0.016 Uiso 1 1 d . U . . .
N1 N 0.1855(2) 0.5676(3) 0.1131(4) 0.0145(11) Uani 1 1 d . . . . .
C2 C 0.1899(3) 0.6073(4) 0.2276(4) 0.0122(12) Uani 1 1 d . . . . .
C3 C 0.2460(3) 0.6765(4) 0.2848(5) 0.0145(13) Uani 1 1 d . . . . .
H3 H 0.251(3) 0.700(4) 0.355(5) 0.017 Uiso 1 1 d . U . . .
C4 C 0.3013(3) 0.7072(4) 0.2232(4) 0.0140(12) Uani 1 1 d . . . . .
C5 C 0.2983(3) 0.6632(5) 0.1063(5) 0.0213(13) Uani 1 1 d . . . . .
H5 H 0.337(3) 0.681(4) 0.063(5) 0.026 Uiso 1 1 d . U . . .
C6 C 0.2401(3) 0.5956(4) 0.0542(5) 0.0201(14) Uani 1 1 d . . . . .
H6 H 0.242(3) 0.569(4) -0.024(5) 0.024 Uiso 1 1 d . U . . .
C7 C 0.1289(3) 0.5686(4) 0.2897(5) 0.0132(12) Uani 1 1 d . . . . .
C8 C 0.3620(3) 0.7850(4) 0.2772(4) 0.0152(12) Uani 1 1 d . . . . .
C50 C 0.1118(15) 0.116(2) -0.145(2) 0.034(3) Uiso 0.154(3) 1 d D U P A -1
H50A H 0.1275 0.0693 -0.2019 0.052 Uiso 0.154(3) 1 calc R U P A -1
H50B H 0.1560 0.1403 -0.0846 0.052 Uiso 0.154(3) 1 calc R U P A -1
H50C H 0.0859 0.1750 -0.1898 0.052 Uiso 0.154(3) 1 calc R U P A -1
C51 C 0.0547(12) 0.057(2) -0.0738(19) 0.034(3) Uiso 0.154(3) 1 d D U P A -1
C52 C 0.0245(14) 0.110(2) 0.015(2) 0.034(3) Uiso 0.154(3) 1 d D U P A -1
H52A H 0.0372 0.1791 0.0331 0.041 Uiso 0.154(3) 1 calc R U P A -1
C53 C -0.0246(15) 0.058(2) 0.076(2) 0.034(3) Uiso 0.154(3) 1 d D U P A -1
H53A H -0.0445 0.0938 0.1355 0.041 Uiso 0.154(3) 1 calc R U P A -1
C51A C -0.0441(13) -0.046(2) 0.049(2) 0.034(3) Uiso 0.154(3) 1 d D U P A -1
C52A C -0.0138(15) -0.099(2) -0.039(2) 0.034(3) Uiso 0.154(3) 1 d D U P A -1
H52B H -0.0264 -0.1688 -0.0573 0.041 Uiso 0.154(3) 1 calc R U P A -1
C53A C 0.0353(14) -0.048(2) -0.101(2) 0.034(3) Uiso 0.154(3) 1 d D U P A -1
H53B H 0.0551 -0.0833 -0.1601 0.041 Uiso 0.154(3) 1 calc R U P A -1
C50A C -0.1013(18) -0.106(2) 0.120(3) 0.034(3) Uiso 0.154(3) 1 d D U P A -1
H50D H -0.1075 -0.1770 0.0921 0.052 Uiso 0.154(3) 1 calc R U P A -1
H50E H -0.1500 -0.0717 0.1020 0.052 Uiso 0.154(3) 1 calc R U P A -1
H50F H -0.0801 -0.1047 0.2085 0.052 Uiso 0.154(3) 1 calc R U P A -1
C100 C -0.0576(15) 0.038(2) -0.071(2) 0.034(3) Uiso 0.096(3) 1 d D U P A -2
C101 C -0.0329(16) -0.063(3) -0.090(2) 0.034(3) Uiso 0.096(3) 1 d D U P A -2
H10A H -0.0537 -0.0986 -0.1643 0.041 Uiso 0.096(3) 1 calc R U P A -2
C102 C 0.0228(16) -0.111(2) 0.002(3) 0.034(3) Uiso 0.096(3) 1 d D U P A -2
H10B H 0.0390 -0.1786 -0.0107 0.041 Uiso 0.096(3) 1 calc R U P A -2
C103 C 0.0542(16) -0.059(2) 0.113(2) 0.034(3) Uiso 0.096(3) 1 d D U P A -2
C104 C 0.030(2) 0.042(3) 0.132(3) 0.034(3) Uiso 0.096(3) 1 d D U P A -2
H10C H 0.0502 0.0770 0.2060 0.041 Uiso 0.096(3) 1 calc R U P A -2
C105 C -0.026(2) 0.090(2) 0.040(3) 0.034(3) Uiso 0.096(3) 1 d D U P A -2
H10D H -0.0422 0.1574 0.0523 0.041 Uiso 0.096(3) 1 calc R U P A -2
C106 C -0.122(2) 0.093(3) -0.178(3) 0.034(3) Uiso 0.096(3) 1 d D U P A -2
H10E H -0.1315 0.1627 -0.1522 0.052 Uiso 0.096(3) 1 calc R U P A -2
H10F H -0.1686 0.0536 -0.1922 0.052 Uiso 0.096(3) 1 calc R U P A -2
H10G H -0.1048 0.0970 -0.2545 0.052 Uiso 0.096(3) 1 calc R U P A -2
C107 C 0.119(2) -0.115(3) 0.220(3) 0.034(3) Uiso 0.096(3) 1 d D U P A -2
H10H H 0.1281 -0.1841 0.1940 0.052 Uiso 0.096(3) 1 calc R U P A -2
H10I H 0.1012 -0.1186 0.2961 0.052 Uiso 0.096(3) 1 calc R U P A -2
H10J H 0.1651 -0.0750 0.2344 0.052 Uiso 0.096(3) 1 calc R U P A -2

loop_
_atom_site_aniso_label
_atom_site_aniso_U_11
_atom_site_aniso_U_22
_atom_site_aniso_U_33
_atom_site_aniso_U_23
_atom_site_aniso_U_13
_atom_site_aniso_U_12
Mg1 0.0122(13) 0.0194(14) 0.0080(12) 0.000 0.0075(10) 0.000
Mg2 0.0122(10) 0.0228(11) 0.0065(9) -0.0007(7) 0.0068(7) 0.0008(8)
O1 0.016(2) 0.021(2) 0.0089(18) -0.0010(16) 0.0079(15) -0.0029(17)
O2 0.020(2) 0.032(2) 0.0050(19) -0.0043(16) 0.0073(16) -0.0055(17)
O3 0.022(2) 0.026(2) 0.0121(19) -0.0052(17) 0.0119(16) -0.0073(17)
O4 0.021(2) 0.024(2) 0.0162(19) -0.0036(17) 0.0140(17) -0.0072(17)
O5 0.014(2) 0.019(2) 0.0092(18) -0.0022(16) 0.0065(15) -0.0022(16)
N1 0.019(3) 0.019(3) 0.008(2) 0.0002(19) 0.0081(19) -0.0011(19)
C2 0.012(3) 0.019(3) 0.007(3) 0.003(2) 0.006(2) 0.007(2)
C3 0.017(3) 0.023(3) 0.005(3) 0.001(2) 0.006(2) 0.000(2)
C4 0.013(3) 0.020(3) 0.009(3) 0.006(2) 0.004(2) 0.002(2)
C5 0.020(3) 0.031(4) 0.019(3) -0.001(3) 0.016(3) -0.004(3)
C6 0.024(3) 0.025(4) 0.015(3) -0.004(3) 0.013(3) -0.008(3)
C7 0.010(3) 0.019(3) 0.012(3) 0.000(2) 0.005(2) 0.004(2)
C8 0.019(3) 0.022(3) 0.007(3) 0.002(2) 0.007(2) -0.001(2)

_geom_special_details            
;
 All esds (except the esd in the dihedral angle between two l.s. planes)
 are estimated using the full covariance matrix.  The cell esds are taken
 into account individually in the estimation of esds in distances, angles
 and torsion angles; correlations between esds in cell parameters are only
 used when they are defined by crystal symmetry.  An approximate (isotropic)
 treatment of cell esds is used for estimating esds involving l.s. planes.
;

loop_
_geom_bond_atom_site_label_1
_geom_bond_atom_site_label_2
_geom_bond_distance
_geom_bond_site_symmetry_2
_geom_bond_publ_flag
Mg1 O4 2.034(4) 3_445 ?
Mg1 O4 2.034(4) 4_545 ?
Mg1 O1 2.069(4) . ?
Mg1 O1 2.069(4) 2 ?
Mg1 O5 2.111(3) . ?
Mg1 O5 2.111(3) 2 ?
Mg1 Mg2 3.1413(17) . ?
Mg1 Mg2 3.1413(17) 2 ?
Mg1 Mg2 3.646(2) 6_566 ?
Mg1 Mg2 3.646(2) 5_565 ?
Mg2 O5 2.052(4) . ?
Mg2 O2 2.055(4) 6_565 ?
Mg2 O5 2.077(4) 5_565 ?
Mg2 O3 2.087(4) 4_545 ?
Mg2 O1 2.121(3) . ?
Mg2 N1 2.227(5) . ?
Mg2 Mg2 3.130(3) 5_565 ?
Mg2 Mg1 3.646(2) 5_565 ?
O1 C7 1.263(6) . ?
O2 C7 1.238(6) . ?
O2 Mg2 2.055(4) 6_566 ?
O3 C8 1.246(6) . ?
O3 Mg2 2.087(4) 4 ?
O4 C8 1.258(6) . ?
O4 Mg1 2.034(4) 3 ?
O5 Mg2 2.077(4) 5_565 ?
O5 H5A 0.84(6) . ?
N1 C6 1.345(7) . ?
N1 C2 1.345(6) . ?
C2 C3 1.382(7) . ?
C2 C7 1.504(7) . ?
C3 C4 1.383(7) . ?
C3 H3 0.81(6) . ?
C4 C5 1.395(7) . ?
C4 C8 1.496(7) . ?
C5 C6 1.378(8) . ?
C5 H5 0.95(6) . ?
C6 H6 0.94(6) . ?
C50 C51 1.62(2) . ?
C50 H50A 0.9600 . ?
C50 H50B 0.9600 . ?
C50 H50C 0.9600 . ?
C51 C53A 1.398(8) . ?
C51 C52 1.400(8) . ?
C52 C53 1.393(8) . ?
C52 H52A 0.9300 . ?
C53 C51A 1.399(8) . ?
C53 H53A 0.9300 . ?
C51A C52A 1.400(8) . ?
C51A C50A 1.62(2) . ?
C52A C53A 1.394(8) . ?
C52A H52B 0.9300 . ?
C53A H53B 0.9300 . ?
C50A H50D 0.9600 . ?
C50A H50E 0.9600 . ?
C50A H50F 0.9600 . ?
C100 C105 1.397(9) . ?
C100 C101 1.403(9) . ?
C100 C106 1.62(2) . ?
C101 C102 1.395(8) . ?
C101 H10A 0.9300 . ?
C102 C103 1.395(9) . ?
C102 H10B 0.9300 . ?
C103 C104 1.402(9) . ?
C103 C107 1.62(2) . ?
C104 C105 1.395(8) . ?
C104 H10C 0.9300 . ?
C105 H10D 0.9300 . ?
C106 H10E 0.9600 . ?
C106 H10F 0.9600 . ?
C106 H10G 0.9600 . ?
C107 H10H 0.9600 . ?
C107 H10I 0.9600 . ?
C107 H10J 0.9600 . ?

loop_
_geom_angle_atom_site_label_1
_geom_angle_atom_site_label_2
_geom_angle_atom_site_label_3
_geom_angle
_geom_angle_site_symmetry_1
_geom_angle_site_symmetry_3
_geom_angle_publ_flag
O4 Mg1 O4 92.3(2) 3_445 4_545 ?
O4 Mg1 O1 163.19(13) 3_445 . ?
O4 Mg1 O1 90.45(14) 4_545 . ?
O4 Mg1 O1 90.45(14) 3_445 2 ?
O4 Mg1 O1 163.19(13) 4_545 2 ?
O1 Mg1 O1 91.7(2) . 2 ?
O4 Mg1 O5 86.86(14) 3_445 . ?
O4 Mg1 O5 98.43(14) 4_545 . ?
O1 Mg1 O5 76.33(14) . . ?
O1 Mg1 O5 98.28(14) 2 . ?
O4 Mg1 O5 98.43(14) 3_445 2 ?
O4 Mg1 O5 86.86(14) 4_545 2 ?
O1 Mg1 O5 98.28(14) . 2 ?
O1 Mg1 O5 76.33(14) 2 2 ?
O5 Mg1 O5 172.4(2) . 2 ?
O4 Mg1 Mg2 122.51(10) 3_445 . ?
O4 Mg1 Mg2 79.00(10) 4_545 . ?
O1 Mg1 Mg2 42.07(9) . . ?
O1 Mg1 Mg2 113.18(12) 2 . ?
O5 Mg1 Mg2 40.32(10) . . ?
O5 Mg1 Mg2 136.83(11) 2 . ?
O4 Mg1 Mg2 79.00(10) 3_445 2 ?
O4 Mg1 Mg2 122.51(10) 4_545 2 ?
O1 Mg1 Mg2 113.18(12) . 2 ?
O1 Mg1 Mg2 42.07(9) 2 2 ?
O5 Mg1 Mg2 136.82(11) . 2 ?
O5 Mg1 Mg2 40.32(10) 2 2 ?
Mg2 Mg1 Mg2 151.02(11) . 2 ?
O4 Mg1 Mg2 126.74(10) 3_445 6_566 ?
O4 Mg1 Mg2 92.72(10) 4_545 6_566 ?
O1 Mg1 Mg2 69.63(10) . 6_566 ?
O1 Mg1 Mg2 72.47(10) 2 6_566 ?
O5 Mg1 Mg2 144.19(14) . 6_566 ?
O5 Mg1 Mg2 29.22(10) 2 6_566 ?
Mg2 Mg1 Mg2 110.50(6) . 6_566 ?
Mg2 Mg1 Mg2 54.31(5) 2 6_566 ?
O4 Mg1 Mg2 92.72(10) 3_445 5_565 ?
O4 Mg1 Mg2 126.74(10) 4_545 5_565 ?
O1 Mg1 Mg2 72.47(10) . 5_565 ?
O1 Mg1 Mg2 69.63(10) 2 5_565 ?
O5 Mg1 Mg2 29.22(10) . 5_565 ?
O5 Mg1 Mg2 144.19(14) 2 5_565 ?
Mg2 Mg1 Mg2 54.31(5) . 5_565 ?
Mg2 Mg1 Mg2 110.50(6) 2 5_565 ?
Mg2 Mg1 Mg2 124.45(8) 6_566 5_565 ?
O5 Mg2 O2 120.44(16) . 6_565 ?
O5 Mg2 O5 81.43(16) . 5_565 ?
O2 Mg2 O5 98.59(14) 6_565 5_565 ?
O5 Mg2 O3 96.90(15) . 4_545 ?
O2 Mg2 O3 80.24(14) 6_565 4_545 ?
O5 Mg2 O3 177.15(17) 5_565 4_545 ?
O5 Mg2 O1 76.45(14) . . ?
O2 Mg2 O1 159.67(16) 6_565 . ?
O5 Mg2 O1 95.02(15) 5_565 . ?
O3 Mg2 O1 86.81(14) 4_545 . ?
O5 Mg2 N1 148.55(17) . . ?
O2 Mg2 N1 90.94(16) 6_565 . ?
O5 Mg2 N1 92.52(16) 5_565 . ?
O3 Mg2 N1 90.10(16) 4_545 . ?
O1 Mg2 N1 73.37(15) . . ?
O5 Mg2 Mg2 41.01(11) . 5_565 ?
O2 Mg2 Mg2 115.55(13) 6_565 5_565 ?
O5 Mg2 Mg2 40.42(11) 5_565 5_565 ?
O3 Mg2 Mg2 137.86(14) 4_545 5_565 ?
O1 Mg2 Mg2 84.51(11) . 5_565 ?
N1 Mg2 Mg2 126.05(15) . 5_565 ?
O5 Mg2 Mg1 41.72(10) . . ?
O2 Mg2 Mg1 146.02(13) 6_565 . ?
O5 Mg2 Mg1 104.42(11) 5_565 . ?
O3 Mg2 Mg1 75.56(11) 4_545 . ?
O1 Mg2 Mg1 40.80(10) . . ?
N1 Mg2 Mg1 112.37(12) . . ?
Mg2 Mg2 Mg1 71.09(6) 5_565 . ?
O5 Mg2 Mg1 89.73(11) . 5_565 ?
O2 Mg2 Mg1 69.86(10) 6_565 5_565 ?
O5 Mg2 Mg1 29.74(10) 5_565 5_565 ?
O3 Mg2 Mg1 148.37(11) 4_545 5_565 ?
O1 Mg2 Mg1 124.76(11) . 5_565 ?
N1 Mg2 Mg1 100.22(12) . 5_565 ?
Mg2 Mg2 Mg1 54.60(5) 5_565 5_565 ?
Mg1 Mg2 Mg1 125.69(5) . 5_565 ?
C7 O1 Mg1 135.4(3) . . ?
C7 O1 Mg2 121.4(3) . . ?
Mg1 O1 Mg2 97.13(15) . . ?
C7 O2 Mg2 137.2(3) . 6_566 ?
C8 O3 Mg2 130.7(3) . 4 ?
C8 O4 Mg1 128.1(3) . 3 ?
Mg2 O5 Mg2 98.57(16) . 5_565 ?
Mg2 O5 Mg1 97.96(15) . . ?
Mg2 O5 Mg1 121.04(18) 5_565 . ?
Mg2 O5 H5A 126(4) . . ?
Mg2 O5 H5A 110(4) 5_565 . ?
Mg1 O5 H5A 104(4) . . ?
C6 N1 C2 117.4(4) . . ?
C6 N1 Mg2 127.4(3) . . ?
C2 N1 Mg2 115.2(3) . . ?
N1 C2 C3 123.3(5) . . ?
N1 C2 C7 114.2(4) . . ?
C3 C2 C7 122.5(4) . . ?
C2 C3 C4 119.4(5) . . ?
C2 C3 H3 125(4) . . ?
C4 C3 H3 115(4) . . ?
C3 C4 C5 117.3(5) . . ?
C3 C4 C8 122.3(4) . . ?
C5 C4 C8 120.4