####################################################################### 
# 
# This file contains crystal structure data downloaded from the 
# Cambridge Structural Database (CSD) hosted by the Cambridge 
# Crystallographic Data Centre (CCDC).
# 
# Full information about CCDC data access policies and citation 
# guidelines are available at http://www.ccdc.cam.ac.uk/access/V1 
# 
# Audit and citation data items may have been added by the CCDC. 
# Please retain this information to preserve the provenance of 
# this file and to allow appropriate attribution of the data. 
# 
#######################################################################

data_3
_audit_block_doi                 10.5517/ccq99pz
_database_code_depnum_ccdc_archive 'CCDC 664351'
loop_
_citation_id
_citation_doi
_citation_year
1 10.1016/j.ica.2009.05.021 2009
_audit_update_record             
;
2007-10-16 deposited with the CCDC.	2024-07-11 downloaded from the CCDC.
;

_audit_creation_method           SHELXL-97
_chemical_name_systematic        
;
?
;
_chemical_name_common            ?
_chemical_melting_point          ?
_chemical_formula_moiety         'C18 H26 Cu2 I2 N2 S2, 3(C2 H3 N)'
_chemical_formula_sum            'C24 H35 Cu2 I2 N5 S2'
_chemical_formula_weight         838.57

loop_
_atom_type_symbol
_atom_type_description
_atom_type_scat_dispersion_real
_atom_type_scat_dispersion_imag
_atom_type_scat_source
C C 0.0033 0.0016 'International Tables Vol C Tables 4.2.6.8 and 6.1.1.4'
H H 0.0000 0.0000 'International Tables Vol C Tables 4.2.6.8 and 6.1.1.4'
N N 0.0061 0.0033 'International Tables Vol C Tables 4.2.6.8 and 6.1.1.4'
O O 0.0106 0.0060 'International Tables Vol C Tables 4.2.6.8 and 6.1.1.4'
S S 0.1246 0.1234 'International Tables Vol C Tables 4.2.6.8 and 6.1.1.4'
Cu Cu 0.3201 1.2651 'International Tables Vol C Tables 4.2.6.8 and 6.1.1.4'
I I -0.4742 1.8119 'International Tables Vol C Tables 4.2.6.8 and 6.1.1.4'

_symmetry_cell_setting           Monoclinic
_symmetry_space_group_name_H-M   P2(1)

loop_
_symmetry_equiv_pos_as_xyz
'x, y, z'
'-x, y+1/2, -z'

_cell_length_a                   9.7299(19)
_cell_length_b                   17.515(4)
_cell_length_c                   10.252(2)
_cell_angle_alpha                90.00
_cell_angle_beta                 117.77(3)
_cell_angle_gamma                90.00
_cell_volume                     1546.0(5)
_cell_formula_units_Z            2
_cell_measurement_temperature    113(2)
_cell_measurement_reflns_used    5681
_cell_measurement_theta_min      2.3255
_cell_measurement_theta_max      27.8684

_exptl_crystal_description       block
_exptl_crystal_colour            red
_exptl_crystal_size_max          0.10
_exptl_crystal_size_mid          0.08
_exptl_crystal_size_min          0.08
_exptl_crystal_density_meas      ?
_exptl_crystal_density_diffrn    1.802
_exptl_crystal_density_method    'not measured'
_exptl_crystal_F_000             820
_exptl_absorpt_coefficient_mu    3.529
_exptl_absorpt_correction_type   multi-scan
_exptl_absorpt_correction_T_min  0.7192
_exptl_absorpt_correction_T_max  0.7655
_exptl_absorpt_process_details   sadabs

_exptl_special_details           
;
?
;

_diffrn_ambient_temperature      113(2)
_diffrn_radiation_wavelength     0.71073
_diffrn_radiation_type           MoK\a
_diffrn_radiation_source         'fine-focus sealed tube'
_diffrn_radiation_monochromator  graphite
_diffrn_measurement_device_type  'Bruker P4'
_diffrn_measurement_method       '\w scans'
_diffrn_detector_area_resol_mean 0
_diffrn_standards_number         0
_diffrn_standards_interval_count 0
_diffrn_standards_interval_time  0
_diffrn_standards_decay_%        ?
_diffrn_reflns_number            19490
_diffrn_reflns_av_R_equivalents  0.0450
_diffrn_reflns_av_sigmaI/netI    0.0557
_diffrn_reflns_limit_h_min       -12
_diffrn_reflns_limit_h_max       12
_diffrn_reflns_limit_k_min       -23
_diffrn_reflns_limit_k_max       23
_diffrn_reflns_limit_l_min       -13
_diffrn_reflns_limit_l_max       13
_diffrn_reflns_theta_min         2.25
_diffrn_reflns_theta_max         27.85
_reflns_number_total             7258
_reflns_number_gt                6359
_reflns_threshold_expression     >2sigma(I)

_computing_data_collection       'Bruker XSCANS'
_computing_cell_refinement       'Bruker XSCANS'
_computing_data_reduction        'Bruker SHELXTL'
_computing_structure_solution    'SHELXS-97 (Sheldrick, 1990)'
_computing_structure_refinement  'SHELXL-97 (Sheldrick, 1997)'
_computing_molecular_graphics    'Bruker SHELXTL'
_computing_publication_material  'Bruker SHELXTL'

_refine_special_details          
;
Refinement of F^2^ against ALL reflections. The weighted R-factor wR and
goodness of fit S are based on F^2^, conventional R-factors R are based
on F, with F set to zero for negative F^2^. The threshold expression of
F^2^ > 2sigma(F^2^) is used only for calculating R-factors(gt) etc. and is
not relevant to the choice of reflections for refinement. R-factors based
on F^2^ are statistically about twice as large as those based on F, and R-
factors based on ALL data will be even larger.
;

_refine_ls_structure_factor_coef Fsqd
_refine_ls_matrix_type           full
_refine_ls_weighting_scheme      calc
_refine_ls_weighting_details     
'calc w=1/[\s^2^(Fo^2^)+(0.0163P)^2^+0.0000P] where P=(Fo^2^+2Fc^2^)/3'
_atom_sites_solution_primary     direct
_atom_sites_solution_secondary   difmap
_atom_sites_solution_hydrogens   geom
_refine_ls_hydrogen_treatment    constr
_refine_ls_extinction_method     SHELXL
_refine_ls_extinction_coef       0.00626(18)
_refine_ls_extinction_expression Fc^*^=kFc[1+0.001xFc^2^\l^3^/sin(2\q)]^-1/4^
_refine_ls_abs_structure_details 
'Flack H D (1983), 3459 Friedel pairs, Acta Cryst. A39, 876-881'
_refine_ls_abs_structure_Flack   0.316(13)
_refine_ls_number_reflns         7258
_refine_ls_number_parameters     320
_refine_ls_number_restraints     1
_refine_ls_R_factor_all          0.0303
_refine_ls_R_factor_gt           0.0258
_refine_ls_wR_factor_ref         0.0551
_refine_ls_wR_factor_gt          0.0535
_refine_ls_goodness_of_fit_ref   0.994
_refine_ls_restrained_S_all      0.994
_refine_ls_shift/su_max          0.002
_refine_ls_shift/su_mean         0.000

loop_
_atom_site_label
_atom_site_type_symbol
_atom_site_fract_x
_atom_site_fract_y
_atom_site_fract_z
_atom_site_U_iso_or_equiv
_atom_site_adp_type
_atom_site_occupancy
_atom_site_symmetry_multiplicity
_atom_site_calc_flag
_atom_site_refinement_flags
_atom_site_disorder_assembly
_atom_site_disorder_group
C1 C 0.6353(5) 1.0776(2) 0.1415(4) 0.0155(9) Uani 1 1 d . . .
H1A H 0.6211 1.0927 0.0460 0.023 Uiso 1 1 calc R . .
H1B H 0.5489 1.0951 0.1544 0.023 Uiso 1 1 calc R . .
H1C H 0.6417 1.0230 0.1493 0.023 Uiso 1 1 calc R . .
C2 C 0.9252(5) 1.0897(2) 0.2385(5) 0.0176(9) Uani 1 1 d . . .
H2A H 0.9077 1.1050 0.1420 0.026 Uiso 1 1 calc R . .
H2B H 0.9389 1.0354 0.2482 0.026 Uiso 1 1 calc R . .
H2C H 1.0168 1.1145 0.3116 0.026 Uiso 1 1 calc R . .
C3 C 0.7727(5) 1.1992(2) 0.2622(5) 0.0201(9) Uani 1 1 d . . .
H3A H 0.7570 1.2195 0.1693 0.030 Uiso 1 1 calc R . .
H3B H 0.8669 1.2197 0.3398 0.030 Uiso 1 1 calc R . .
H3C H 0.6867 1.2130 0.2788 0.030 Uiso 1 1 calc R . .
C4 C 0.7849(5) 1.1126(2) 0.2602(4) 0.0132(8) Uani 1 1 d . . .
C5 C 0.8073(5) 0.9805(2) 0.4372(4) 0.0128(8) Uani 1 1 d . . .
H5A H 0.8182 0.9648 0.3518 0.015 Uiso 1 1 calc R . .
H5B H 0.8961 0.9606 0.5236 0.015 Uiso 1 1 calc R . .
C6 C 0.6632(4) 0.9431(2) 0.4278(4) 0.0096(8) Uani 1 1 d . . .
C7 C 0.4343(4) 0.9469(2) 0.4443(4) 0.0097(8) Uani 1 1 d . . .
C8 C 0.3268(5) 0.9878(2) 0.4706(4) 0.0136(8) Uani 1 1 d . . .
H8A H 0.3365 1.0404 0.4830 0.016 Uiso 1 1 calc R . .
C9 C 0.2055(5) 0.9502(2) 0.4783(5) 0.0168(9) Uani 1 1 d . . .
H9A H 0.1350 0.9775 0.4975 0.020 Uiso 1 1 calc R . .
C10 C 0.1892(5) 0.8709(2) 0.4571(5) 0.0202(9) Uani 1 1 d . . .
H10A H 0.1065 0.8461 0.4606 0.024 Uiso 1 1 calc R . .
C11 C 0.2930(5) 0.8301(2) 0.4314(5) 0.0187(9) Uani 1 1 d . . .
H11A H 0.2803 0.7776 0.4169 0.022 Uiso 1 1 calc R . .
C12 C 0.4196(4) 0.8665(2) 0.4265(4) 0.0106(8) Uani 1 1 d . . .
C13 C 0.6483(4) 0.8610(2) 0.4116(4) 0.0089(8) Uani 1 1 d . . .
C14 C 0.7811(5) 0.8170(2) 0.4086(4) 0.0121(8) Uani 1 1 d . . .
H14A H 0.8763 0.8311 0.4951 0.014 Uiso 1 1 calc R . .
H14B H 0.7909 0.8334 0.3229 0.014 Uiso 1 1 calc R . .
C15 C 0.7369(4) 0.6898(2) 0.2161(4) 0.0129(8) Uani 1 1 d . . .
C16 C 0.7137(5) 0.6027(2) 0.2081(5) 0.0185(9) Uani 1 1 d . . .
H16A H 0.6972 0.5846 0.1135 0.028 Uiso 1 1 calc R . .
H16B H 0.6250 0.5905 0.2216 0.028 Uiso 1 1 calc R . .
H16C H 0.8044 0.5788 0.2841 0.028 Uiso 1 1 calc R . .
C17 C 0.8833(5) 0.7098(2) 0.2034(5) 0.0181(9) Uani 1 1 d . . .
H17A H 0.8677 0.6973 0.1062 0.027 Uiso 1 1 calc R . .
H17B H 0.9696 0.6811 0.2750 0.027 Uiso 1 1 calc R . .
H17C H 0.9043 0.7634 0.2209 0.027 Uiso 1 1 calc R . .
C18 C 0.5935(5) 0.7304(2) 0.1001(4) 0.0163(9) Uani 1 1 d . . .
H18A H 0.5795 0.7176 0.0037 0.024 Uiso 1 1 calc R . .
H18B H 0.6067 0.7846 0.1144 0.024 Uiso 1 1 calc R . .
H18C H 0.5038 0.7147 0.1092 0.024 Uiso 1 1 calc R . .
C19 C -0.0044(6) 0.8384(3) 0.8483(5) 0.0333(12) Uani 1 1 d . . .
C20 C 0.0531(6) 0.7885(3) 0.9746(5) 0.0284(11) Uani 1 1 d . . .
H20A H 0.1638 0.7837 1.0156 0.043 Uiso 1 1 calc R . .
H20B H 0.0059 0.7391 0.9450 0.043 Uiso 1 1 calc R . .
H20C H 0.0280 0.8095 1.0474 0.043 Uiso 1 1 calc R . .
C21 C 0.2734(6) 0.9555(3) 0.0652(5) 0.0303(12) Uani 1 1 d . . .
C22 C 0.1421(6) 1.0001(3) 0.0580(6) 0.0392(14) Uani 1 1 d . . .
H22A H 0.1805 1.0452 0.1175 0.059 Uiso 1 1 calc R . .
H22B H 0.0849 0.9698 0.0942 0.059 Uiso 1 1 calc R . .
H22C H 0.0752 1.0146 -0.0423 0.059 Uiso 1 1 calc R . .
C23 C 0.7137(7) 0.9046(3) 0.9808(6) 0.0250(12) Uani 1 1 d . . .
C24 C 0.5709(7) 0.9067(3) 0.8414(5) 0.0419(15) Uani 1 1 d . . .
H24A H 0.5585 0.8592 0.7903 0.063 Uiso 1 1 calc R . .
H24B H 0.5762 0.9478 0.7819 0.063 Uiso 1 1 calc R . .
H24C H 0.4840 0.9144 0.8601 0.063 Uiso 1 1 calc R . .
Cu1 Cu 0.59340(6) 1.10232(2) 0.47359(5) 0.01302(11) Uani 1 1 d . . .
Cu2 Cu 0.46403(6) 1.20497(2) 0.58043(5) 0.01344(11) Uani 1 1 d . . .
I1 I 0.69647(3) 1.124122(13) 0.75957(3) 0.01481(7) Uani 1 1 d . . .
I2 I 0.36549(3) 1.186697(13) 0.29154(3) 0.01480(7) Uani 1 1 d . . .
N1 N 0.5588(4) 0.98384(17) 0.4429(3) 0.0100(7) Uani 1 1 d . . .
N2 N 0.5305(4) 0.82459(18) 0.4109(4) 0.0124(7) Uani 1 1 d . . .
N3 N -0.0485(7) 0.8789(3) 0.7499(5) 0.0649(18) Uani 1 1 d . . .
N4 N 0.3739(5) 0.9212(2) 0.0688(5) 0.0388(11) Uani 1 1 d . . .
N5 N 0.8222(6) 0.9023(2) 1.0918(5) 0.0336(11) Uani 1 1 d . . .
S1 S 0.81647(12) 1.08366(5) 0.44692(11) 0.0118(2) Uani 1 1 d . . .
S2 S 0.76596(12) 0.71368(5) 0.40346(11) 0.0114(2) Uani 1 1 d . . .

loop_
_atom_site_aniso_label
_atom_site_aniso_U_11
_atom_site_aniso_U_22
_atom_site_aniso_U_33
_atom_site_aniso_U_23
_atom_site_aniso_U_13
_atom_site_aniso_U_12
C1 0.011(2) 0.021(2) 0.012(2) -0.0019(16) 0.0042(18) 0.0007(17)
C2 0.017(2) 0.022(2) 0.017(2) 0.0037(17) 0.0100(19) 0.0019(17)
C3 0.025(2) 0.018(2) 0.023(2) 0.0065(17) 0.016(2) 0.0053(18)
C4 0.014(2) 0.010(2) 0.017(2) 0.0028(15) 0.0080(18) 0.0011(16)
C5 0.010(2) 0.0139(19) 0.013(2) 0.0015(15) 0.0045(17) 0.0017(16)
C6 0.007(2) 0.0131(18) 0.0092(19) -0.0023(14) 0.0044(17) 0.0016(15)
C7 0.009(2) 0.0112(17) 0.0091(19) 0.0005(14) 0.0045(17) -0.0010(14)
C8 0.014(2) 0.0110(19) 0.016(2) -0.0004(15) 0.0068(18) 0.0021(16)
C9 0.010(2) 0.019(2) 0.025(2) -0.0008(17) 0.0114(19) 0.0016(16)
C10 0.014(2) 0.021(2) 0.030(3) 0.0012(18) 0.015(2) 0.0006(18)
C11 0.017(2) 0.014(2) 0.029(3) 0.0004(17) 0.014(2) -0.0031(17)
C12 0.008(2) 0.0119(18) 0.0121(19) -0.0001(15) 0.0047(17) -0.0001(15)
C13 0.010(2) 0.0099(17) 0.0056(18) 0.0008(13) 0.0024(16) 0.0025(15)
C14 0.013(2) 0.0098(18) 0.015(2) -0.0002(15) 0.0076(18) -0.0012(15)
C15 0.012(2) 0.018(2) 0.0092(19) 0.0017(17) 0.0055(16) 0.0046(18)
C16 0.023(2) 0.015(2) 0.022(2) -0.0058(16) 0.013(2) -0.0014(17)
C17 0.017(2) 0.023(2) 0.021(2) 0.0024(17) 0.014(2) 0.0011(17)
C18 0.017(2) 0.020(2) 0.012(2) -0.0011(17) 0.0074(19) -0.0025(18)
C19 0.047(3) 0.024(2) 0.023(3) -0.008(2) 0.012(2) -0.003(2)
C20 0.033(3) 0.030(3) 0.026(3) 0.008(2) 0.016(2) 0.004(2)
C21 0.041(3) 0.027(3) 0.023(3) -0.006(2) 0.016(2) -0.018(2)
C22 0.038(3) 0.040(3) 0.050(4) -0.015(3) 0.029(3) -0.018(3)
C23 0.036(4) 0.0138(19) 0.032(3) 0.0001(18) 0.022(3) 0.0000(19)
C24 0.055(5) 0.036(3) 0.023(4) -0.001(2) 0.009(3) 0.006(3)
Cu1 0.0149(3) 0.0116(2) 0.0145(3) -0.00060(18) 0.0086(2) 0.00015(19)
Cu2 0.0154(3) 0.0116(3) 0.0162(3) 0.00010(18) 0.0098(2) 0.00123(19)
I1 0.01527(14) 0.01783(13) 0.01161(13) 0.00069(10) 0.00652(11) 0.00235(11)
I2 0.01606(14) 0.01692(13) 0.01223(14) 0.00154(10) 0.00726(12) 0.00308(10)
N1 0.0097(17) 0.0118(16) 0.0070(16) 0.0012(12) 0.0027(14) 0.0008(13)
N2 0.0109(18) 0.0110(17) 0.0150(18) 0.0018(13) 0.0056(15) 0.0028(13)
N3 0.110(5) 0.037(3) 0.021(3) 0.001(2) 0.007(3) -0.005(3)
N4 0.037(3) 0.037(3) 0.044(3) 0.004(2) 0.020(3) -0.001(2)
N5 0.042(3) 0.0224(19) 0.040(3) -0.0021(18) 0.022(3) -0.0012(18)
S1 0.0134(5) 0.0117(4) 0.0116(5) 0.0000(4) 0.0068(4) -0.0020(4)
S2 0.0136(5) 0.0112(4) 0.0112(5) 0.0005(3) 0.0073(4) 0.0027(4)

_geom_special_details            
;
All esds (except the esd in the dihedral angle between two l.s. planes)
are estimated using the full covariance matrix. The cell esds are taken
into account individually in the estimation of esds in distances, angles
and torsion angles; correlations between esds in cell parameters are only
used when they are defined by crystal symmetry. An approximate (isotropic)
treatment of cell esds is used for estimating esds involving l.s. planes.
;

loop_
_geom_bond_atom_site_label_1
_geom_bond_atom_site_label_2
_geom_bond_distance
_geom_bond_site_symmetry_2
_geom_bond_publ_flag
C1 C4 1.525(5) . ?
C1 H1A 0.9600 . ?
C1 H1B 0.9600 . ?
C1 H1C 0.9600 . ?
C2 C4 1.536(5) . ?
C2 H2A 0.9600 . ?
C2 H2B 0.9600 . ?
C2 H2C 0.9600 . ?
C3 C4 1.521(5) . ?
C3 H3A 0.9600 . ?
C3 H3B 0.9600 . ?
C3 H3C 0.9600 . ?
C4 S1 1.863(4) . ?
C5 C6 1.509(5) . ?
C5 S1 1.809(4) . ?
C5 H5A 0.9700 . ?
C5 H5B 0.9700 . ?
C6 N1 1.308(5) . ?
C6 C13 1.448(4) . ?
C7 N1 1.379(5) . ?
C7 C8 1.394(5) . ?
C7 C12 1.418(4) . ?
C8 C9 1.385(6) . ?
C8 H8A 0.9300 . ?
C9 C10 1.403(5) . ?
C9 H9A 0.9300 . ?
C10 C11 1.361(6) . ?
C10 H10A 0.9300 . ?
C11 C12 1.409(5) . ?
C11 H11A 0.9300 . ?
C12 N2 1.375(5) . ?
C13 N2 1.308(5) . ?
C13 C14 1.517(5) . ?
C14 S2 1.814(4) . ?
C14 H14A 0.9700 . ?
C14 H14B 0.9700 . ?
C15 C18 1.524(5) . ?
C15 C17 1.530(5) . ?
C15 C16 1.539(6) . ?
C15 S2 1.854(4) . ?
C16 H16A 0.9600 . ?
C16 H16B 0.9600 . ?
C16 H16C 0.9600 . ?
C17 H17A 0.9600 . ?
C17 H17B 0.9600 . ?
C17 H17C 0.9600 . ?
C18 H18A 0.9600 . ?
C18 H18B 0.9600 . ?
C18 H18C 0.9600 . ?
C19 N3 1.140(6) . ?
C19 C20 1.442(6) . ?
C20 H20A 0.9600 . ?
C20 H20B 0.9600 . ?
C20 H20C 0.9600 . ?
C21 N4 1.133(6) . ?
C21 C22 1.469(7) . ?
C22 H22A 0.9600 . ?
C22 H22B 0.9600 . ?
C22 H22C 0.9600 . ?
C23 N5 1.136(6) . ?
C23 C24 1.458(8) . ?
C24 H24A 0.9600 . ?
C24 H24B 0.9600 . ?
C24 H24C 0.9600 . ?
Cu1 N1 2.102(3) . ?
Cu1 S1 2.3335(12) . ?
Cu1 I2 2.5940(10) . ?
Cu1 I1 2.6472(9) . ?
Cu1 Cu2 2.7020(7) . ?
Cu2 N2 2.097(3) 2_656 ?
Cu2 S2 2.3243(12) 2_656 ?
Cu2 I1 2.5735(10) . ?
Cu2 I2 2.6735(9) . ?
N2 Cu2 2.097(3) 2_646 ?
S2 Cu2 2.3243(12) 2_646 ?

loop_
_geom_angle_atom_site_label_1
_geom_angle_atom_site_label_2
_geom_angle_atom_site_label_3
_geom_angle
_geom_angle_site_symmetry_1
_geom_angle_site_symmetry_3
_geom_angle_publ_flag
C4 C1 H1A 109.5 . . ?
C4 C1 H1B 109.5 . . ?
H1A C1 H1B 109.5 . . ?
C4 C1 H1C 109.5 . . ?
H1A C1 H1C 109.5 . . ?
H1B C1 H1C 109.5 . . ?
C4 C2 H2A 109.5 . . ?
C4 C2 H2B 109.5 . . ?
H2A C2 H2B 109.5 . . ?
C4 C2 H2C 109.5 . . ?
H2A C2 H2C 109.5 . . ?
H2B C2 H2C 109.5 . . ?
C4 C3 H3A 109.5 . . ?
C4 C3 H3B 109.5 . . ?
H3A C3 H3B 109.5 . . ?
C4 C3 H3C 109.5 . . ?
H3A C3 H3C 109.5 . . ?
H3B C3 H3C 109.5 . . ?
C3 C4 C1 111.1(3) . . ?
C3 C4 C2 110.0(3) . . ?
C1 C4 C2 111.2(3) . . ?
C3 C4 S1 103.5(3) . . ?
C1 C4 S1 110.5(3) . . ?
C2 C4 S1 110.2(3) . . ?
C6 C5 S1 117.2(3) . . ?
C6 C5 H5A 108.0 . . ?
S1 C5 H5A 108.0 . . ?
C6 C5 H5B 108.0 . . ?
S1 C5 H5B 108.0 . . ?
H5A C5 H5B 107.2 . . ?
N1 C6 C13 120.9(4) . . ?
N1 C6 C5 120.3(3) . . ?
C13 C6 C5 118.6(3) . . ?
N1 C7 C8 120.2(3) . . ?
N1 C7 C12 120.1(4) . . ?
C8 C7 C12 119.6(4) . . ?
C9 C8 C7 120.2(4) . . ?
C9 C8 H8A 119.9 . . ?
C7 C8 H8A 119.9 . . ?
C8 C9 C10 119.9(4) . . ?
C8 C9 H9A 120.0 . . ?
C10 C9 H9A 120.0 . . ?
C11 C10 C9 120.7(4) . . ?
C11 C10 H10A 119.7 . . ?
C9 C10 H10A 119.7 . . ?
C10 C11 C12 120.6(4) . . ?
C10 C11 H11A 119.7 . . ?
C12 C11 H11A 119.7 . . ?
N2 C12 C11 120.6(3) . . ?
N2 C12 C7 120.5(3) . . ?
C11 C12 C7 118.9(4) . . ?
N2 C13 C6 121.7(3) . . ?
N2 C13 C14 120.3(3) . . ?
C6 C13 C14 117.8(3) . . ?
C13 C14 S2 116.6(3) . . ?
C13 C14 H14A 108.1 . . ?
S2 C14 H14A 108.1 . . ?
C13 C14 H14B 108.1 . . ?
S2 C14 H14B 108.1 . . ?
H14A C14 H14B 107.3 . . ?
C18 C15 C17 112.2(3) . . ?
C18 C15 C16 111.3(3) . . ?
C17 C15 C16 109.9(3) . . ?
C18 C15 S2 110.2(3) . . ?
C17 C15 S2 109.8(3) . . ?
C16 C15 S2 103.1(3) . . ?
C15 C16 H16A 109.5 . . ?
C15 C16 H16B 109.5 . . ?
H16A C16 H16B 109.5 . . ?
C15 C16 H16C 109.5 . . ?
H16A C16 H16C 109.5 . . ?
H16B C16 H16C 109.5 . . ?
C15 C17 H17A 109.5 . . ?
C15 C17 H17B 109.5 . . ?
H17A C17 H17B 109.5 . . ?
C15 C17 H17C 109.5 . . ?
H17A C17 H17C 109.5 . . ?
H17B C17 H17C 109.5 . . ?
C15 C18 H18A 109.5 . . ?
C15 C18 H18B 109.5 . . ?
H18A C18 H18B 109.5 . . ?
C15 C18 H18C 109.5 . . ?
H18A C18 H18C 109.5 . . ?
H18B C18 H18C 109.5 . . ?
N3 C19 C20 178.8(6) . . ?
C19 C20 H20A 109.5 . . ?
C19 C20 H20B 109.5 . . ?
H20A C20 H20B 109.5 . . ?
C19 C20 H20C 109.5 . . ?
H20A C20 H20C 109.5 . . ?
H20B C20 H20C 109.5 . . ?
N4 C21 C22 179.1(6) . . ?
C21 C22 H22A 109.5 . . ?
C21 C22 H22B 109.5 . . ?
H22A C22 H22B 109.5 . . ?
C21 C22 H22C 109.5 . . ?
H22A C22 H22C 109.5 . . ?
H22B C22 H22C 109.5 . . ?
N5 C23 C24 177.7(5) . . ?
C23 C24 H24A 109.5 . . ?
C23 C24 H24B 109.5 . . ?
H24A C24 H24B 109.5 . . ?
C23 C24 H24C 109.5 . . ?
H24A C24 H24C 109.5 . . ?
H24B C24 H24C 109.5 . . ?
N1 Cu1 S1 86.39(9) . . ?
N1 Cu1 I2 115.53(9) . . ?
S1 Cu1 I2 121.70(3) . . ?
N1 Cu1 I1 105.07(9) . . ?
S1 Cu1 I1 104.88(4) . . ?
I2 Cu1 I1 118.07(3) . . ?
N1 Cu1 Cu2 130.18(9) . . ?
S1 Cu1 Cu2 140.81(3) . . ?
I2 Cu1 Cu2 6