####################################################################### 
# 
# This file contains crystal structure data downloaded from the 
# Cambridge Structural Database (CSD) hosted by the Cambridge 
# Crystallographic Data Centre (CCDC).
# 
# Full information about CCDC data access policies and citation 
# guidelines are available at http://www.ccdc.cam.ac.uk/access/V1 
# 
# Audit and citation data items may have been added by the CCDC. 
# Please retain this information to preserve the provenance of 
# this file and to allow appropriate attribution of the data. 
# 
#######################################################################

data_zn2-ibdc
_audit_block_doi                 10.5517/ccrzqm1
_database_code_depnum_ccdc_archive 'CCDC 714724'
loop_
_citation_id
_citation_doi
_citation_year
1 10.1016/j.ica.2009.05.038 2009
_audit_update_record             
;
2008-12-25 deposited with the CCDC.	2024-07-11 downloaded from the CCDC.
;

_audit_creation_method           SHELXL-97
_chemical_name_systematic        
;
?
;
_chemical_name_common            ?
_chemical_melting_point          ?
_chemical_formula_moiety         ?
_chemical_formula_sum            'C36 H26 I6 N6 O11 Zn2'
_chemical_formula_weight         1610.77

loop_
_atom_type_symbol
_atom_type_description
_atom_type_scat_dispersion_real
_atom_type_scat_dispersion_imag
_atom_type_scat_source
C C 0.0033 0.0016 'International Tables Vol C Tables 4.2.6.8 and 6.1.1.4'
H H 0.0000 0.0000 'International Tables Vol C Tables 4.2.6.8 and 6.1.1.4'
N N 0.0061 0.0033 'International Tables Vol C Tables 4.2.6.8 and 6.1.1.4'
O O 0.0106 0.0060 'International Tables Vol C Tables 4.2.6.8 and 6.1.1.4'
Zn Zn 0.2839 1.4301 'International Tables Vol C Tables 4.2.6.8 and 6.1.1.4'
I I -0.4742 1.8119 'International Tables Vol C Tables 4.2.6.8 and 6.1.1.4'

_symmetry_cell_setting           triclinic
_symmetry_space_group_name_H-M   P-1

loop_
_symmetry_equiv_pos_as_xyz
'x, y, z'
'-x, -y, -z'

_cell_length_a                   8.5532(8)
_cell_length_b                   18.2032(18)
_cell_length_c                   19.583(3)
_cell_angle_alpha                113.997(2)
_cell_angle_beta                 95.211(3)
_cell_angle_gamma                99.150(2)
_cell_volume                     2708.8(5)
_cell_formula_units_Z            2
_cell_measurement_temperature    273(2)
_cell_measurement_reflns_used    3013
_cell_measurement_theta_min      2.27
_cell_measurement_theta_max      22.85

_exptl_crystal_description       block
_exptl_crystal_colour            brown
_exptl_crystal_size_max          0.20
_exptl_crystal_size_mid          0.10
_exptl_crystal_size_min          0.05
_exptl_crystal_density_meas      ?
_exptl_crystal_density_diffrn    1.975
_exptl_crystal_density_method    'not measured'
_exptl_crystal_F_000             1500
_exptl_absorpt_coefficient_mu    4.357
_exptl_absorpt_correction_type   multi-scan
_exptl_absorpt_correction_T_min  0.4762
_exptl_absorpt_correction_T_max  0.8116
_exptl_absorpt_process_details   ?

_exptl_special_details           
;
?
;

_diffrn_ambient_temperature      273(2)
_diffrn_radiation_wavelength     0.71073
_diffrn_radiation_type           MoK\a
_diffrn_radiation_source         'fine-focus sealed tube'
_diffrn_radiation_monochromator  graphite
_diffrn_measurement_device_type  ?
_diffrn_measurement_method       ?
_diffrn_detector_area_resol_mean ?
_diffrn_standards_number         ?
_diffrn_standards_interval_count ?
_diffrn_standards_interval_time  ?
_diffrn_standards_decay_%        ?
_diffrn_reflns_number            15068
_diffrn_reflns_av_R_equivalents  0.0293
_diffrn_reflns_av_sigmaI/netI    0.0745
_diffrn_reflns_limit_h_min       -10
_diffrn_reflns_limit_h_max       9
_diffrn_reflns_limit_k_min       -22
_diffrn_reflns_limit_k_max       22
_diffrn_reflns_limit_l_min       -24
_diffrn_reflns_limit_l_max       24
_diffrn_reflns_theta_min         1.16
_diffrn_reflns_theta_max         26.36
_reflns_number_total             10836
_reflns_number_gt                6324
_reflns_threshold_expression     >2sigma(I)

_computing_data_collection       ?
_computing_cell_refinement       ?
_computing_data_reduction        ?
_computing_structure_solution    ?
_computing_structure_refinement  'SHELXL-97 (Sheldrick, 1997)'
_computing_molecular_graphics    ?
_computing_publication_material  ?

_refine_special_details          
;
Refinement of F^2^ against ALL reflections. The weighted R-factor wR and
goodness of fit S are based on F^2^, conventional R-factors R are based
on F, with F set to zero for negative F^2^. The threshold expression of
F^2^ > 2sigma(F^2^) is used only for calculating R-factors(gt) etc. and is
not relevant to the choice of reflections for refinement. R-factors based
on F^2^ are statistically about twice as large as those based on F, and R-
factors based on ALL data will be even larger.
;

_refine_ls_structure_factor_coef Fsqd
_refine_ls_matrix_type           full
_refine_ls_weighting_scheme      calc
_refine_ls_weighting_details     
'calc w=1/[\s^2^(Fo^2^)+(0.1177P)^2^+0.0000P] where P=(Fo^2^+2Fc^2^)/3'
_atom_sites_solution_primary     direct
_atom_sites_solution_secondary   difmap
_atom_sites_solution_hydrogens   geom
_refine_ls_hydrogen_treatment    ?
_refine_ls_extinction_method     none
_refine_ls_extinction_coef       ?
_refine_ls_number_reflns         10836
_refine_ls_number_parameters     550
_refine_ls_number_restraints     0
_refine_ls_R_factor_all          0.1056
_refine_ls_R_factor_gt           0.0551
_refine_ls_wR_factor_ref         0.2063
_refine_ls_wR_factor_gt          0.1621
_refine_ls_goodness_of_fit_ref   0.989
_refine_ls_restrained_S_all      0.989
_refine_ls_shift/su_max          0.001
_refine_ls_shift/su_mean         0.000

loop_
_atom_site_label
_atom_site_type_symbol
_atom_site_fract_x
_atom_site_fract_y
_atom_site_fract_z
_atom_site_U_iso_or_equiv
_atom_site_adp_type
_atom_site_occupancy
_atom_site_symmetry_multiplicity
_atom_site_calc_flag
_atom_site_refinement_flags
_atom_site_disorder_assembly
_atom_site_disorder_group
I1 I 0.59655(8) 0.66664(5) 0.47289(4) 0.0478(2) Uani 1 1 d . . .
I2 I 1.27204(9) 0.87262(5) 0.54344(4) 0.0506(2) Uani 1 1 d . . .
I3 I 0.96420(9) 0.64897(6) 0.21885(4) 0.0626(3) Uani 1 1 d . . .
I4 I 0.14621(13) 0.87151(7) 0.16758(5) 0.0836(3) Uani 1 1 d . . .
I5 I 0.15590(13) 0.69610(7) -0.16730(5) 0.0839(3) Uani 1 1 d . . .
I6 I 0.67264(10) 0.69085(6) 0.06049(5) 0.0700(3) Uani 1 1 d . . .
Zn1 Zn 0.46350(15) 0.47549(8) 0.20506(7) 0.0503(3) Uani 1 1 d . . .
Zn2 Zn 0.50102(13) 0.75027(7) 0.29697(6) 0.0398(3) Uani 1 1 d . . .
O1 O 0.6604(8) 0.5416(4) 0.2828(4) 0.0458(17) Uani 1 1 d . . .
O01 O 0.4518(13) 0.9837(6) 0.3509(6) 0.095(3) Uani 1 1 d . . .
O2 O 0.5649(8) 0.6415(4) 0.2719(4) 0.0420(17) Uani 1 1 d . . .
O02 O 0.756(2) 0.7988(14) 0.8842(14) 0.230(10) Uani 1 1 d . . .
O3 O 1.3260(8) 0.7278(5) 0.3474(4) 0.0480(18) Uani 1 1 d . . .
O4 O 1.2640(10) 0.8422(6) 0.3568(5) 0.067(2) Uani 1 1 d . . .
O03 O 0.870(4) 0.0193(14) 0.216(3) 0.46(3) Uani 1 1 d . . .
O5 O 0.4254(10) 0.7381(5) 0.1968(4) 0.057(2) Uani 1 1 d . . .
O6 O 0.5457(11) 0.8647(5) 0.2152(5) 0.070(2) Uani 1 1 d . . .
O7 O 0.3909(11) 0.5620(6) -0.1149(5) 0.071(2) Uani 1 1 d . . .
O8 O 0.5406(12) 0.6534(6) -0.1401(5) 0.078(3) Uani 1 1 d . . .
N1 N 0.9258(11) 0.7974(6) 0.5671(5) 0.051(2) Uani 1 1 d . . .
N2 N 0.0481(14) 0.8075(8) -0.0102(7) 0.081(4) Uani 1 1 d . . .
N3 N 0.3107(11) 0.4632(6) 0.2776(5) 0.051(2) Uani 1 1 d . . .
N4 N -0.3179(14) 0.3945(7) 0.4677(6) 0.068(3) Uani 1 1 d . . .
N5 N 0.2949(11) 0.4924(6) 0.1345(5) 0.053(2) Uani 1 1 d . . .
N6 N 0.6814(9) 0.8432(5) 0.3702(5) 0.040(2) Uani 1 1 d . . .
C1 C 0.6667(11) 0.6151(6) 0.2997(5) 0.035(2) Uani 1 1 d . . .
C2 C 0.8117(11) 0.6745(6) 0.3579(5) 0.034(2) Uani 1 1 d . . .
C3 C 0.8046(10) 0.7057(6) 0.4352(5) 0.036(2) Uani 1 1 d . . .
C4 C 0.9332(12) 0.7651(6) 0.4908(5) 0.039(2) Uani 1 1 d . . .
C5 C 1.0728(12) 0.7866(6) 0.4630(5) 0.039(2) Uani 1 1 d . . .
C6 C 1.0865(11) 0.7537(6) 0.3878(5) 0.038(2) Uani 1 1 d . . .
C7 C 1.2379(11) 0.7779(7) 0.3622(6) 0.040(2) Uani 1 1 d . . .
C8 C 0.9533(11) 0.6977(6) 0.3346(5) 0.036(2) Uani 1 1 d . . .
C9 C 0.4607(14) 0.7956(8) 0.1759(6) 0.052(3) Uani 1 1 d . . .
C10 C 0.3907(13) 0.7744(7) 0.0952(6) 0.047(3) Uani 1 1 d . . .
C11 C 0.2524(13) 0.8005(7) 0.0796(6) 0.049(3) Uani 1 1 d . . .
C12 C 0.1830(14) 0.7801(7) 0.0045(6) 0.052(3) Uani 1 1 d . . .
C13 C 0.2571(15) 0.7282(8) -0.0535(6) 0.056(3) Uani 1 1 d . . .
C14 C 0.3920(14) 0.7014(7) -0.0396(6) 0.049(3) Uani 1 1 d . . .
C15 C 0.4437(15) 0.6355(9) -0.1018(7) 0.059(3) Uani 1 1 d . . .
C16 C 0.4580(13) 0.7268(7) 0.0367(6) 0.048(3) Uani 1 1 d . . .
C17 C 0.2824(14) 0.3959(8) 0.2913(7) 0.055(3) Uani 1 1 d . . .
H17 H 0.3447 0.3569 0.2731 0.066 Uiso 1 1 calc R . .
C18 C 0.1650(14) 0.3825(8) 0.3311(6) 0.054(3) Uani 1 1 d . . .
H18 H 0.1505 0.3357 0.3402 0.065 Uiso 1 1 calc R . .
C19 C 0.0695(12) 0.4383(7) 0.3573(6) 0.042(2) Uani 1 1 d . . .
C20 C 0.0999(14) 0.5078(7) 0.3438(6) 0.051(3) Uani 1 1 d . . .
H20 H 0.0369 0.5469 0.3600 0.061 Uiso 1 1 calc R . .
C21 C 0.2247(15) 0.5190(8) 0.3062(6) 0.057(3) Uani 1 1 d . . .
H21 H 0.2486 0.5678 0.3008 0.069 Uiso 1 1 calc R . .
C22 C -0.0689(13) 0.4238(7) 0.3959(6) 0.046(3) Uani 1 1 d . . .
C23 C -0.0621(15) 0.3782(7) 0.4362(7) 0.055(3) Uani 1 1 d . . .
H23 H 0.0267 0.3555 0.4396 0.066 Uiso 1 1 calc R . .
C24 C -0.1861(17) 0.3665(8) 0.4712(8) 0.068(4) Uani 1 1 d . . .
H24 H -0.1778 0.3366 0.4997 0.081 Uiso 1 1 calc R . .
C25 C -0.3182(15) 0.4420(9) 0.4323(8) 0.067(4) Uani 1 1 d . . .
H25 H -0.4048 0.4673 0.4333 0.081 Uiso 1 1 calc R . .
C26 C -0.2021(14) 0.4570(8) 0.3944(7) 0.059(3) Uani 1 1 d . . .
H26 H -0.2120 0.4889 0.3680 0.071 Uiso 1 1 calc R . .
C27 C 0.3262(15) 0.5425(8) 0.1022(8) 0.072(4) Uani 1 1 d . . .
H27 H 0.4283 0.5763 0.1159 0.086 Uiso 1 1 calc R . .
C28 C 0.2184(15) 0.5479(8) 0.0502(9) 0.076(4) Uani 1 1 d . . .
H28 H 0.2476 0.5847 0.0295 0.091 Uiso 1 1 calc R . .
C29 C 0.0613(12) 0.4975(7) 0.0273(6) 0.045(3) Uani 1 1 d . . .
C30 C 0.0286(16) 0.4476(9) 0.0630(8) 0.078(4) Uani 1 1 d . . .
H30 H -0.0742 0.4155 0.0533 0.093 Uiso 1 1 calc R . .
C31 C 0.1514(16) 0.4448(10) 0.1147(8) 0.083(5) Uani 1 1 d . . .
H31 H 0.1292 0.4075 0.1357 0.100 Uiso 1 1 calc R . .
C32 C 0.6700(13) 0.8802(7) 0.4426(6) 0.051(3) Uani 1 1 d . . .
H32 H 0.5767 0.8649 0.4589 0.061 Uiso 1 1 calc R . .
C33 C 0.7910(14) 0.9397(7) 0.4932(6) 0.055(3) Uani 1 1 d . . .
H33 H 0.7802 0.9630 0.5440 0.066 Uiso 1 1 calc R . .
C34 C 0.9314(11) 0.9677(5) 0.4725(5) 0.035(2) Uani 1 1 d . . .
C35 C 0.9399(12) 0.9285(7) 0.3960(6) 0.049(3) Uani 1 1 d . . .
H35 H 1.0311 0.9427 0.3778 0.059 Uiso 1 1 calc R . .
C36 C 0.8112(13) 0.8682(7) 0.3475(6) 0.048(3) Uani 1 1 d . . .
H36 H 0.8164 0.8439 0.2960 0.057 Uiso 1 1 calc R . .

loop_
_atom_site_aniso_label
_atom_site_aniso_U_11
_atom_site_aniso_U_22
_atom_site_aniso_U_33
_atom_site_aniso_U_23
_atom_site_aniso_U_13
_atom_site_aniso_U_12
I1 0.0390(4) 0.0616(5) 0.0443(4) 0.0233(4) 0.0147(3) 0.0088(3)
I2 0.0435(4) 0.0472(4) 0.0449(4) 0.0085(3) -0.0022(3) 0.0018(3)
I3 0.0423(4) 0.0948(7) 0.0343(4) 0.0143(4) 0.0099(3) 0.0046(4)
I4 0.0799(7) 0.0967(8) 0.0621(6) 0.0168(5) 0.0137(5) 0.0323(6)
I5 0.0814(7) 0.1135(9) 0.0480(5) 0.0364(5) -0.0084(5) 0.0031(6)
I6 0.0527(5) 0.0907(7) 0.0594(5) 0.0251(5) 0.0050(4) 0.0178(5)
Zn1 0.0418(7) 0.0596(9) 0.0391(7) 0.0173(6) 0.0039(5) -0.0053(6)
Zn2 0.0308(6) 0.0421(7) 0.0374(6) 0.0119(5) 0.0011(5) -0.0005(5)
O1 0.046(4) 0.042(5) 0.039(4) 0.010(3) -0.001(3) 0.005(3)
O01 0.102(8) 0.064(6) 0.080(7) 0.007(5) 0.001(6) -0.015(5)
O2 0.032(4) 0.044(4) 0.043(4) 0.012(3) 0.000(3) 0.011(3)
O02 0.137(15) 0.22(2) 0.32(3) 0.14(2) -0.032(16) -0.026(14)
O3 0.030(4) 0.060(5) 0.048(4) 0.017(4) 0.006(3) 0.012(4)
O4 0.052(5) 0.069(6) 0.087(6) 0.040(5) 0.021(5) 0.008(4)
O03 0.34(4) 0.141(19) 0.93(8) 0.19(3) 0.40(5) 0.10(2)
O5 0.062(5) 0.049(5) 0.047(4) 0.015(4) -0.003(4) 0.000(4)
O6 0.075(6) 0.056(5) 0.053(5) 0.014(4) -0.012(4) -0.018(4)
O7 0.070(6) 0.055(6) 0.062(5) 0.005(4) 0.008(5) -0.002(5)
O8 0.086(7) 0.088(7) 0.065(6) 0.037(5) 0.026(5) 0.017(5)
N1 0.046(5) 0.062(6) 0.033(5) 0.009(4) 0.005(4) 0.006(4)
N2 0.070(8) 0.087(9) 0.087(8) 0.043(7) -0.010(6) 0.019(7)
N3 0.042(5) 0.062(6) 0.039(5) 0.017(5) 0.003(4) -0.003(5)
N4 0.076(8) 0.075(8) 0.068(7) 0.049(6) 0.020(6) 0.001(6)
N5 0.048(6) 0.059(6) 0.040(5) 0.021(5) -0.002(4) -0.013(5)
N6 0.033(4) 0.038(5) 0.042(5) 0.015(4) -0.005(4) -0.002(4)
C1 0.033(5) 0.030(6) 0.034(5) 0.006(4) 0.007(4) 0.005(4)
C2 0.032(5) 0.029(5) 0.035(5) 0.009(4) 0.005(4) 0.007(4)
C3 0.024(5) 0.045(6) 0.039(5) 0.017(5) 0.006(4) 0.007(4)
C4 0.040(5) 0.048(6) 0.028(5) 0.014(5) 0.007(4) 0.015(5)
C5 0.040(5) 0.035(6) 0.036(5) 0.012(4) -0.005(4) 0.011(4)
C6 0.035(5) 0.039(6) 0.042(6) 0.019(5) 0.003(4) 0.008(4)
C7 0.029(5) 0.049(7) 0.042(6) 0.022(5) 0.007(4) 0.001(5)
C8 0.032(5) 0.050(6) 0.028(5) 0.016(4) 0.009(4) 0.011(4)
C9 0.056(7) 0.058(8) 0.041(6) 0.019(6) 0.010(5) 0.016(6)
C10 0.046(6) 0.048(7) 0.042(6) 0.020(5) -0.001(5) -0.002(5)
C11 0.043(6) 0.054(7) 0.044(6) 0.018(5) -0.002(5) 0.004(5)
C12 0.047(7) 0.049(7) 0.052(7) 0.018(6) -0.002(5) 0.003(5)
C13 0.063(8) 0.061(8) 0.032(6) 0.018(5) 0.001(5) -0.012(6)
C14 0.054(7) 0.052(7) 0.035(6) 0.017(5) -0.001(5) 0.003(5)
C15 0.052(7) 0.077(10) 0.047(7) 0.028(7) 0.008(6) 0.005(7)
C16 0.042(6) 0.049(7) 0.046(6) 0.018(5) 0.000(5) -0.002(5)
C17 0.049(7) 0.068(8) 0.063(8) 0.038(7) 0.017(6) 0.021(6)
C18 0.061(7) 0.059(8) 0.048(7) 0.030(6) 0.007(6) 0.010(6)
C19 0.038(6) 0.046(6) 0.043(6) 0.023(5) 0.001(5) 0.002(5)
C20 0.060(7) 0.047(7) 0.050(6) 0.025(6) 0.016(6) 0.009(5)
C21 0.067(8) 0.062(8) 0.049(7) 0.031(6) 0.014(6) 0.007(6)
C22 0.043(6) 0.058(7) 0.040(6) 0.028(5) 0.006(5) -0.001(5)
C23 0.060(7) 0.055(7) 0.065(8) 0.037(6) 0.023(6) 0.014(6)
C24 0.080(10) 0.063(9) 0.086(10) 0.051(8) 0.031(8) 0.023(7)
C25 0.048(7) 0.084(10) 0.082(9) 0.049(8) 0.011(7) 0.013(7)
C26 0.051(7) 0.084(9) 0.068(8) 0.056(7) 0.013(6) 0.018(6)
C27 0.043(7) 0.075(9) 0.093(10) 0.049(8) -0.013(7) -0.019(6)
C28 0.053(8) 0.067(9) 0.107(11) 0.055(8) -0.011(7) -0.024(6)
C29 0.040(6) 0.048(7) 0.044(6) 0.019(5) 0.002(5) 0.006(5)
C30 0.057(8) 0.094(11) 0.079(9) 0.054(9) -0.005(7) -0.028(7)
C31 0.061(8) 0.112(12) 0.083(10) 0.073(9) -0.025(7) -0.031(8)
C32 0.047(6) 0.053(7) 0.036(6) 0.010(5) 0.005(5) -0.007(5)
C33 0.059(7) 0.050(7) 0.044(6) 0.013(5) 0.011(6) -0.003(6)
C34 0.035(5) 0.022(5) 0.040(5) 0.008(4) 0.000(4) 0.002(4)
C35 0.035(6) 0.047(7) 0.055(7) 0.013(5) 0.012(5) 0.001(5)
C36 0.048(6) 0.042(6) 0.045(6) 0.013(5) 0.009(5) 0.006(5)

_geom_special_details            
;
All esds (except the esd in the dihedral angle between two l.s. planes)
are estimated using the full covariance matrix. The cell esds are taken
into account individually in the estimation of esds in distances, angles
and torsion angles; correlations between esds in cell parameters are only
used when they are defined by crystal symmetry. An approximate (isotropic)
treatment of cell esds is used for estimating esds involving l.s. planes.
;

loop_
_geom_bond_atom_site_label_1
_geom_bond_atom_site_label_2
_geom_bond_distance
_geom_bond_site_symmetry_2
_geom_bond_publ_flag
I1 C3 2.116(9) . ?
I2 C5 2.120(10) . ?
I3 C8 2.088(9) . ?
I4 C11 2.076(11) . ?
I5 C13 2.119(10) . ?
I6 C16 2.118(11) . ?
Zn1 O1 2.000(7) . ?
Zn1 N5 2.052(9) . ?
Zn1 N3 2.069(9) . ?
Zn1 O8 2.159(10) 2_665 ?
Zn1 O7 2.196(9) 2_665 ?
Zn1 C15 2.505(13) 2_665 ?
Zn2 O5 1.920(8) . ?
Zn2 O3 1.945(7) 1_455 ?
Zn2 O2 2.016(7) . ?
Zn2 N6 2.023(8) . ?
O1 C1 1.232(11) . ?
O2 C1 1.243(11) . ?
O3 C7 1.236(12) . ?
O3 Zn2 1.945(7) 1_655 ?
O4 C7 1.206(13) . ?
O5 C9 1.274(14) . ?
O6 C9 1.234(14) . ?
O7 C15 1.251(15) . ?
O7 Zn1 2.196(9) 2_665 ?
O8 C15 1.257(14) . ?
O8 Zn1 2.159(10) 2_665 ?
N1 C4 1.379(12) . ?
N2 C12 1.379(15) . ?
N3 C21 1.318(15) . ?
N3 C17 1.348(15) . ?
N4 C25 1.312(16) . ?
N4 C24 1.317(16) . ?
N5 C31 1.308(15) . ?
N5 C27 1.312(15) . ?
N6 C36 1.316(13) . ?
N6 C32 1.320(13) . ?
C1 C2 1.523(13) . ?
C2 C3 1.395(13) . ?
C2 C8 1.396(13) . ?
C3 C4 1.417(13) . ?
C4 C5 1.420(14) . ?
C5 C6 1.371(13) . ?
C6 C8 1.405(13) . ?
C6 C7 1.496(13) . ?
C9 C10 1.505(15) . ?
C10 C16 1.366(15) . ?
C10 C11 1.396(15) . ?
C11 C12 1.407(15) . ?
C12 C13 1.426(16) . ?
C13 C14 1.368(17) . ?
C14 C16 1.403(14) . ?
C14 C15 1.482(17) . ?
C15 Zn1 2.505(13) 2_665 ?
C17 C18 1.376(16) . ?
C17 H17 0.9300 . ?
C18 C19 1.371(15) . ?
C18 H18 0.9300 . ?
C19 C20 1.385(15) . ?
C19 C22 1.506(14) . ?
C20 C21 1.386(16) . ?
C20 H20 0.9300 . ?
C21 H21 0.9300 . ?
C22 C23 1.362(15) . ?
C22 C26 1.375(15) . ?
C23 C24 1.347(17) . ?
C23 H23 0.9300 . ?
C24 H24 0.9300 . ?
C25 C26 1.349(17) . ?
C25 H25 0.9300 . ?
C26 H26 0.9300 . ?
C27 C28 1.355(17) . ?
C27 H27 0.9300 . ?
C28 C29 1.418(15) . ?
C28 H28 0.9300 . ?
C29 C30 1.366(16) . ?
C29 C29 1.467(19) 2_565 ?
C30 C31 1.414(17) . ?
C30 H30 0.9300 . ?
C31 H31 0.9300 . ?
C32 C33 1.345(15) . ?
C32 H32 0.9300 . ?
C33 C34 1.387(15) . ?
C33 H33 0.9300 . ?
C34 C35 1.388(14) . ?
C34 C34 1.491(18) 2_776 ?
C35 C36 1.377(14) . ?
C35 H35 0.9300 . ?
C36 H36 0.9300 . ?

loop_
_geom_angle_atom_site_label_1
_geom_angle_atom_site_label_2
_geom_angle_atom_site_label_3
_geom_angle
_geom_angle_site_symmetry_1
_geom_angle_site_symmetry_3
_geom_angle_publ_flag
O1 Zn1 N5 138.5(3) . . ?
O1 Zn1 N3 98.2(3) . . ?
N5 Zn1 N3 95.7(4) . . ?
O1 Zn1 O8 116.2(3) . 2_665 ?
N5 Zn1 O8 100.1(4) . 2_665 ?
N3 Zn1 O8 98.1(4) . 2_665 ?
O1 Zn1 O7 9