####################################################################### 
# 
# This file contains crystal structure data downloaded from the 
# Cambridge Structural Database (CSD) hosted by the Cambridge 
# Crystallographic Data Centre (CCDC).
# 
# Full information about CCDC data access policies and citation 
# guidelines are available at http://www.ccdc.cam.ac.uk/access/V1 
# 
# Audit and citation data items may have been added by the CCDC. 
# Please retain this information to preserve the provenance of 
# this file and to allow appropriate attribution of the data. 
# 
#######################################################################

data_ag
_audit_block_doi                 10.5517/ccsnl55
_database_code_depnum_ccdc_archive 'CCDC 734767'
loop_
_citation_id
_citation_doi
_citation_year
1 10.1039/b910988a 2010
_audit_update_record             
;
2009-06-03 deposited with the CCDC.	2024-07-11 downloaded from the CCDC.
;

_audit_creation_method           SHELXL-97
_chemical_name_systematic        
;
?
;
_chemical_name_common            ?
_chemical_melting_point          ?
_chemical_formula_moiety         ?
_chemical_formula_sum            'C50 H60 Ag2.50 Cl2.50 N10 O15 Si2.50'
_chemical_formula_weight         1469.60

loop_
_atom_type_symbol
_atom_type_description
_atom_type_scat_dispersion_real
_atom_type_scat_dispersion_imag
_atom_type_scat_source
C C 0.0033 0.0016 'International Tables Vol C Tables 4.2.6.8 and 6.1.1.4'
H H 0.0000 0.0000 'International Tables Vol C Tables 4.2.6.8 and 6.1.1.4'
N N 0.0061 0.0033 'International Tables Vol C Tables 4.2.6.8 and 6.1.1.4'
O O 0.0106 0.0060 'International Tables Vol C Tables 4.2.6.8 and 6.1.1.4'
Si Si 0.0817 0.0704 'International Tables Vol C Tables 4.2.6.8 and 6.1.1.4'
Cl Cl 0.1484 0.1585 'International Tables Vol C Tables 4.2.6.8 and 6.1.1.4'
Ag Ag -0.8971 1.1015 'International Tables Vol C Tables 4.2.6.8 and 6.1.1.4'

_symmetry_cell_setting           Orthorhombic
_symmetry_space_group_name_H-M   Pnna

loop_
_symmetry_equiv_pos_as_xyz
'x, y, z'
'-x+1/2, -y, z'
'-x+1/2, y+1/2, -z+1/2'
'x, -y+1/2, -z+1/2'
'-x, -y, -z'
'x-1/2, y, -z'
'x-1/2, -y-1/2, z-1/2'
'-x, y-1/2, z-1/2'

_cell_length_a                   24.328(5)
_cell_length_b                   31.067(6)
_cell_length_c                   16.658(4)
_cell_angle_alpha                90.00
_cell_angle_beta                 90.00
_cell_angle_gamma                90.00
_cell_volume                     12590(4)
_cell_formula_units_Z            8
_cell_measurement_temperature    298(2)
_cell_measurement_reflns_used    3503
_cell_measurement_theta_min      2.17
_cell_measurement_theta_max      15.71

_exptl_crystal_description       block
_exptl_crystal_colour            colorless
_exptl_crystal_size_max          0.20
_exptl_crystal_size_mid          0.10
_exptl_crystal_size_min          0.10
_exptl_crystal_density_meas      ?
_exptl_crystal_density_diffrn    1.551
_exptl_crystal_density_method    'not measured'
_exptl_crystal_F_000             5960
_exptl_absorpt_coefficient_mu    0.995
_exptl_absorpt_correction_type   multi-scan
_exptl_absorpt_correction_T_min  0.8257
_exptl_absorpt_correction_T_max  0.9070
_exptl_absorpt_process_details   ?

_exptl_special_details           
;
?
;

_diffrn_ambient_temperature      298(2)
_diffrn_radiation_wavelength     0.71073
_diffrn_radiation_type           MoK\a
_diffrn_radiation_source         'fine-focus sealed tube'
_diffrn_radiation_monochromator  graphite
_diffrn_measurement_device_type  ?
_diffrn_measurement_method       ?
_diffrn_detector_area_resol_mean ?
_diffrn_standards_number         ?
_diffrn_standards_interval_count ?
_diffrn_standards_interval_time  ?
_diffrn_standards_decay_%        ?
_diffrn_reflns_number            40172
_diffrn_reflns_av_R_equivalents  0.0930
_diffrn_reflns_av_sigmaI/netI    0.0785
_diffrn_reflns_limit_h_min       -24
_diffrn_reflns_limit_h_max       24
_diffrn_reflns_limit_k_min       -30
_diffrn_reflns_limit_k_max       29
_diffrn_reflns_limit_l_min       -16
_diffrn_reflns_limit_l_max       12
_diffrn_reflns_theta_min         1.31
_diffrn_reflns_theta_max         20.86
_reflns_number_total             6620
_reflns_number_gt                3291
_reflns_threshold_expression     >2sigma(I)

_computing_data_collection       ?
_computing_cell_refinement       ?
_computing_data_reduction        ?
_computing_structure_solution    'SHELXS-97 (Sheldrick, 1990)'
_computing_structure_refinement  'SHELXL-97 (Sheldrick, 1997)'
_computing_molecular_graphics    ?
_computing_publication_material  ?

_refine_special_details          
;
Refinement of F^2^ against ALL reflections. The weighted R-factor wR and
goodness of fit S are based on F^2^, conventional R-factors R are based
on F, with F set to zero for negative F^2^. The threshold expression of
F^2^ > 2sigma(F^2^) is used only for calculating R-factors(gt) etc. and is
not relevant to the choice of reflections for refinement. R-factors based
on F^2^ are statistically about twice as large as those based on F, and R-
factors based on ALL data will be even larger.
;

_refine_ls_structure_factor_coef Fsqd
_refine_ls_matrix_type           full
_refine_ls_weighting_scheme      calc
_refine_ls_weighting_details     
'calc w=1/[\s^2^(Fo^2^)+(0.1371P)^2^+0.0000P] where P=(Fo^2^+2Fc^2^)/3'
_atom_sites_solution_primary     direct
_atom_sites_solution_secondary   difmap
_atom_sites_solution_hydrogens   geom
_refine_ls_hydrogen_treatment    constr
_refine_ls_extinction_method     none
_refine_ls_extinction_coef       ?
_refine_ls_number_reflns         6620
_refine_ls_number_parameters     704
_refine_ls_number_restraints     0
_refine_ls_R_factor_all          0.1376
_refine_ls_R_factor_gt           0.0768
_refine_ls_wR_factor_ref         0.2443
_refine_ls_wR_factor_gt          0.2095
_refine_ls_goodness_of_fit_ref   1.008
_refine_ls_restrained_S_all      1.008
_refine_ls_shift/su_max          0.067
_refine_ls_shift/su_mean         0.003

loop_
_atom_site_label
_atom_site_type_symbol
_atom_site_fract_x
_atom_site_fract_y
_atom_site_fract_z
_atom_site_U_iso_or_equiv
_atom_site_adp_type
_atom_site_occupancy
_atom_site_symmetry_multiplicity
_atom_site_calc_flag
_atom_site_refinement_flags
_atom_site_disorder_assembly
_atom_site_disorder_group
O1 O 0.1802(7) 0.3192(4) 0.4567(15) 0.284(11) Uani 1 1 d . . .
O01 O 0.1315(15) 0.3658(12) 0.245(2) 0.130(12) Uiso 0.25 1 d P . .
O2 O 0.1564(14) 0.2766(10) 0.5519(18) 0.35(2) Uani 1 1 d . . .
O3 O 0.2336(7) 0.2655(5) 0.5087(14) 0.274(11) Uani 1 1 d . . .
O4 O 0.1559(7) 0.2493(4) 0.4367(10) 0.227(7) Uani 1 1 d . . .
O5 O 0.0603(15) 0.5146(11) 0.7016(14) 0.43(2) Uani 1 1 d . . .
O6 O -0.0017(6) 0.5656(5) 0.7097(12) 0.242(8) Uani 1 1 d . . .
O7 O -0.0110(13) 0.4990(10) 0.7690(19) 0.41(2) Uani 1 1 d . . .
O8 O 0.0451(9) 0.5438(6) 0.8199(11) 0.287(11) Uani 1 1 d . . .
O9 O 0.2172(11) 0.4758(6) 0.7314(16) 0.326(13) Uani 1 1 d . . .
O10 O 0.2191(10) 0.5274(6) 0.8243(14) 0.331(13) Uani 1 1 d . . .
Ag1 Ag 0.17233(4) 0.38233(3) 0.61738(7) 0.1121(5) Uani 1 1 d . . .
Ag2 Ag -0.25524(5) 0.56943(5) 0.00443(10) 0.1510(7) Uani 1 1 d . . .
Ag3 Ag 0.2500 0.5000 0.54854(12) 0.1218(7) Uani 1 2 d S . .
Si1 Si 0.02034(17) 0.65969(12) 0.4128(3) 0.1063(13) Uani 1 1 d . . .
Si2 Si -0.5595(3) 0.36118(18) 0.0725(4) 0.163(2) Uani 1 1 d . . .
Si3 Si 0.0286(2) 0.7500 0.7500 0.120(2) Uani 1 2 d S . .
N1 N 0.1324(4) 0.4215(4) 0.5356(8) 0.101(3) Uani 1 1 d . . .
N2 N 0.1008(4) 0.4783(4) 0.4738(8) 0.094(3) Uani 1 1 d . . .
N3 N -0.1315(5) 0.6364(4) 0.1288(8) 0.091(3) Uani 1 1 d . . .
N4 N -0.1926(5) 0.6105(5) 0.0450(10) 0.115(4) Uani 1 1 d . . .
N5 N -0.3154(7) 0.5294(5) -0.0416(15) 0.171(8) Uani 1 1 d . . .
N6 N -0.3821(7) 0.4834(5) -0.0401(12) 0.130(4) Uani 1 1 d . . .
N7 N -0.7255(4) 0.3394(4) -0.1923(7) 0.078(3) Uani 1 1 d . . .
N8 N -0.7792(4) 0.3519(4) -0.2935(7) 0.087(3) Uani 1 1 d . . .
N9 N 0.2139(6) 0.5609(4) 0.5431(11) 0.109(4) Uani 1 1 d . . .
N10 N 0.1716(5) 0.6220(4) 0.5733(8) 0.092(3) Uani 1 1 d . . .
C1 C 0.1166(5) 0.4617(5) 0.5427(9) 0.095(4) Uani 1 1 d . . .
H1 H 0.1165 0.4768 0.5909 0.114 Uiso 1 1 calc R . .
C2 C 0.1278(5) 0.4123(5) 0.4531(14) 0.117(5) Uani 1 1 d . . .
H2 H 0.1363 0.3861 0.4289 0.141 Uiso 1 1 calc R . .
C3 C 0.1091(6) 0.4477(6) 0.4151(10) 0.116(5) Uani 1 1 d . . .
H3 H 0.1030 0.4509 0.3603 0.139 Uiso 1 1 calc R . .
C4 C 0.0814(6) 0.5216(5) 0.4656(10) 0.082(4) Uani 1 1 d . . .
C5 C 0.0457(6) 0.5399(5) 0.5169(8) 0.089(4) Uani 1 1 d . . .
H5 H 0.0322 0.5245 0.5605 0.107 Uiso 1 1 calc R . .
C6 C 0.0298(5) 0.5812(5) 0.5039(9) 0.094(4) Uani 1 1 d . . .
H6 H 0.0067 0.5942 0.5412 0.113 Uiso 1 1 calc R . .
C7 C 0.0463(6) 0.6046(4) 0.4381(9) 0.087(4) Uani 1 1 d . . .
C8 C 0.0838(6) 0.5853(5) 0.3869(9) 0.114(5) Uani 1 1 d . . .
H8 H 0.0973 0.6004 0.3431 0.136 Uiso 1 1 calc R . .
C9 C 0.1015(6) 0.5428(5) 0.4009(10) 0.122(5) Uani 1 1 d . . .
H9 H 0.1264 0.5295 0.3665 0.146 Uiso 1 1 calc R . .
C10 C 0.0759(6) 0.6950(4) 0.3804(10) 0.146(6) Uani 1 1 d . . .
H10A H 0.0947 0.6822 0.3358 0.219 Uiso 1 1 calc R . .
H10B H 0.1012 0.6992 0.4239 0.219 Uiso 1 1 calc R . .
H10C H 0.0609 0.7223 0.3644 0.219 Uiso 1 1 calc R . .
C11 C -0.0146(7) 0.6849(5) 0.4965(8) 0.136(6) Uani 1 1 d . . .
H11A H 0.0107 0.6885 0.5402 0.203 Uiso 1 1 calc R . .
H11B H -0.0447 0.6671 0.5133 0.203 Uiso 1 1 calc R . .
H11C H -0.0284 0.7125 0.4802 0.203 Uiso 1 1 calc R . .
C12 C -0.0281(5) 0.6528(5) 0.3285(8) 0.087(4) Uani 1 1 d . . .
C13 C -0.0523(5) 0.6856(4) 0.2891(10) 0.098(4) Uani 1 1 d . . .
H13 H -0.0451 0.7132 0.3079 0.117 Uiso 1 1 calc R . .
C14 C -0.0853(6) 0.6822(4) 0.2259(9) 0.090(4) Uani 1 1 d . . .
H14 H -0.0999 0.7065 0.2011 0.108 Uiso 1 1 calc R . .
C15 C -0.0971(5) 0.6412(5) 0.1984(8) 0.084(4) Uani 1 1 d . . .
C16 C -0.0740(5) 0.6068(4) 0.2352(10) 0.090(4) Uani 1 1 d . . .
H16 H -0.0814 0.5792 0.2165 0.108 Uiso 1 1 calc R . .
C17 C -0.0395(6) 0.6124(4) 0.3002(9) 0.096(4) Uani 1 1 d . . .
H17 H -0.0238 0.5885 0.3250 0.115 Uiso 1 1 calc R . .
C18 C -0.1655(7) 0.6041(5) 0.1094(11) 0.097(4) Uani 1 1 d . . .
H18 H -0.1689 0.5792 0.1401 0.116 Uiso 1 1 calc R . .
C19 C -0.1400(6) 0.6658(5) 0.0680(13) 0.113(5) Uani 1 1 d . . .
H19 H -0.1233 0.6926 0.0639 0.136 Uiso 1 1 calc R . .
C20 C -0.1766(7) 0.6494(6) 0.0153(12) 0.124(6) Uani 1 1 d . . .
H20 H -0.1885 0.6621 -0.0321 0.149 Uiso 1 1 calc R . .
C21 C -0.3483(9) 0.5093(6) 0.0007(11) 0.132(6) Uani 1 1 d . . .
H21 H -0.3495 0.5120 0.0563 0.158 Uiso 1 1 calc R . .
C22 C -0.3275(12) 0.5136(10) -0.1170(13) 0.213(12) Uani 1 1 d . . .
H22 H -0.3092 0.5218 -0.1635 0.255 Uiso 1 1 calc R . .
C23 C -0.3681(10) 0.4855(8) -0.1158(18) 0.205(11) Uani 1 1 d . . .
H23 H -0.3832 0.4705 -0.1588 0.246 Uiso 1 1 calc R . .
C24 C -0.4261(10) 0.4571(6) -0.0112(15) 0.127(7) Uani 1 1 d . . .
C25 C -0.4318(8) 0.4187(9) -0.0513(12) 0.151(7) Uani 1 1 d . . .
H25 H -0.4095 0.4116 -0.0946 0.182 Uiso 1 1 calc R . .
C26 C -0.4732(10) 0.3905(6) -0.0236(15) 0.136(6) Uani 1 1 d . . .
H26 H -0.4783 0.3647 -0.0507 0.163 Uiso 1 1 calc R . .
C27 C -0.5065(7) 0.3993(7) 0.0416(13) 0.122(6) Uani 1 1 d . . .
C28 C -0.4986(7) 0.4387(6) 0.0745(11) 0.125(6) Uani 1 1 d . . .
H28 H -0.5215 0.4468 0.1166 0.150 Uiso 1 1 calc R . .
C29 C -0.4600(9) 0.4667(6) 0.0504(12) 0.124(6) Uani 1 1 d . . .
H29 H -0.4565 0.4930 0.0764 0.149 Uiso 1 1 calc R . .
C30 C -0.5891(11) 0.3772(9) 0.1638(12) 0.299(19) Uani 1 1 d . . .
H30A H -0.6169 0.3568 0.1792 0.449 Uiso 1 1 calc R . .
H30B H -0.6055 0.4051 0.1577 0.449 Uiso 1 1 calc R . .
H30C H -0.5613 0.3784 0.2046 0.449 Uiso 1 1 calc R . .
C31 C -0.5252(9) 0.3055(6) 0.0824(15) 0.238(13) Uani 1 1 d . . .
H31A H -0.5089 0.2976 0.0321 0.357 Uiso 1 1 calc R . .
H31B H -0.5523 0.2845 0.0971 0.357 Uiso 1 1 calc R . .
H31C H -0.4972 0.3066 0.1231 0.357 Uiso 1 1 calc R . .
C32 C -0.6124(6) 0.3582(5) -0.0085(10) 0.112(4) Uani 1 1 d . . .
C33 C -0.6133(7) 0.3827(4) -0.0791(11) 0.116(5) Uani 1 1 d . . .
H33 H -0.5865 0.4038 -0.0861 0.139 Uiso 1 1 calc R . .
C34 C -0.6507(6) 0.3773(4) -0.1368(9) 0.095(4) Uani 1 1 d . . .
H34 H -0.6510 0.3953 -0.1814 0.114 Uiso 1 1 calc R . .
C35 C -0.6881(5) 0.3457(4) -0.1298(8) 0.081(3) Uani 1 1 d . . .
C36 C -0.6904(5) 0.3198(4) -0.0618(9) 0.089(4) Uani 1 1 d . . .
H36 H -0.7173 0.2988 -0.0561 0.106 Uiso 1 1 calc R . .
C37 C -0.6529(6) 0.3262(5) -0.0053(9) 0.118(5) Uani 1 1 d . . .
H37 H -0.6535 0.3083 0.0394 0.142 Uiso 1 1 calc R . .
C38 C -0.7451(5) 0.3683(5) -0.2436(9) 0.083(4) Uani 1 1 d . . .
H38 H -0.7351 0.3972 -0.2433 0.099 Uiso 1 1 calc R . .
C39 C -0.7809(6) 0.3083(5) -0.2765(10) 0.107(4) Uani 1 1 d . . .
H39 H -0.8012 0.2874 -0.3034 0.129 Uiso 1 1 calc R . .
C40 C -0.7465(6) 0.3018(5) -0.2120(9) 0.100(4) Uani 1 1 d . . .
H40 H -0.7394 0.2756 -0.1870 0.120 Uiso 1 1 calc R . .
C41 C 0.1798(6) 0.5817(7) 0.5917(10) 0.105(5) Uani 1 1 d . . .
H41 H 0.1630 0.5686 0.6355 0.126 Uiso 1 1 calc R . .
C42 C 0.2270(6) 0.5896(8) 0.4893(13) 0.132(6) Uani 1 1 d . . .
H42 H 0.2495 0.5843 0.4453 0.159 Uiso 1 1 calc R . .
C43 C 0.2026(7) 0.6294(5) 0.5066(12) 0.106(4) Uani 1 1 d . . .
H43 H 0.2067 0.6552 0.4787 0.127 Uiso 1 1 calc R . .
C44 C 0.1385(6) 0.6521(5) 0.6160(9) 0.089(4) Uani 1 1 d . . .
C45 C 0.1518(6) 0.6946(6) 0.6107(9) 0.106(5) Uani 1 1 d . . .
H45 H 0.1821 0.7036 0.5811 0.127 Uiso 1 1 calc R . .
C46 C 0.1215(6) 0.7221(5) 0.6475(10) 0.109(5) Uani 1 1 d . . .
H46 H 0.1301 0.7511 0.6422 0.131 Uiso 1 1 calc R . .
C47 C 0.0764(7) 0.7112(5) 0.6950(9) 0.108(5) Uani 1 1 d . . .
C48 C 0.0646(5) 0.6659(6) 0.7009(8) 0.104(4) Uani 1 1 d . . .
H48 H 0.0356 0.6561 0.7324 0.125 Uiso 1 1 calc R . .
C49 C 0.0967(7) 0.6375(4) 0.6594(9) 0.098(4) Uani 1 1 d . . .
H49 H 0.0893 0.6081 0.6616 0.118 Uiso 1 1 calc R . .
C50 C -0.0142(7) 0.7224(5) 0.8310(12) 0.176(8) Uani 1 1 d . . .
H50A H -0.0393 0.7025 0.8063 0.265 Uiso 1 1 calc R . .
H50B H -0.0346 0.7436 0.8604 0.265 Uiso 1 1 calc R . .
H50C H 0.0096 0.7071 0.8670 0.265 Uiso 1 1 calc R . .
Cl1 Cl 0.1824(3) 0.2771(2) 0.4860(5) 0.180(3) Uani 1 1 d . . .
Cl2 Cl 0.0233(3) 0.53124(19) 0.7505(3) 0.1543(18) Uani 1 1 d . . .
Cl3 Cl 0.2500 0.5000 0.7785(5) 0.155(3) Uani 1 2 d S . .

loop_
_atom_site_aniso_label
_atom_site_aniso_U_11
_atom_site_aniso_U_22
_atom_site_aniso_U_33
_atom_site_aniso_U_23
_atom_site_aniso_U_13
_atom_site_aniso_U_12
O1 0.263(17) 0.084(9) 0.51(3) 0.066(13) -0.121(19) 0.028(9)
O2 0.38(4) 0.34(3) 0.32(3) -0.15(3) -0.17(3) 0.05(3)
O3 0.190(13) 0.162(12) 0.47(3) -0.003(14) -0.135(17) 0.075(11)
O4 0.292(17) 0.160(11) 0.228(16) -0.039(11) -0.122(14) -0.048(11)
O5 0.60(5) 0.50(4) 0.20(2) 0.04(2) 0.12(3) 0.30(4)
O6 0.212(15) 0.192(14) 0.32(2) 0.078(14) -0.075(14) 0.009(11)
O7 0.43(4) 0.38(3) 0.43(4) 0.08(3) -0.08(3) -0.25(3)
O8 0.46(3) 0.245(17) 0.158(14) -0.033(13) -0.122(17) -0.038(17)
O9 0.39(3) 0.203(18) 0.39(3) -0.009(18) -0.15(2) -0.057(17)
O10 0.40(3) 0.239(18) 0.35(3) -0.134(18) 0.20(2) 0.010(17)
Ag1 0.0986(8) 0.1181(9) 0.1194(10) 0.0323(7) -0.0124(7) 0.0176(6)
Ag2 0.1294(11) 0.1685(13) 0.1550(14) -0.0234(10) -0.0289(9) -0.0262(9)
Ag3 0.1073(12) 0.1010(12) 0.1571(17) 0.000 0.000 0.0191(9)
Si1 0.128(3) 0.080(2) 0.110(3) -0.012(2) -0.026(3) 0.011(2)
Si2 0.202(5) 0.160(4) 0.127(5) 0.057(4) -0.068(4) -0.056(4)
Si3 0.101(4) 0.114(4) 0.147(6) -0.040(4) 0.000 0.000
N1 0.099(8) 0.114(11) 0.091(10) 0.006(8) -0.016(7) 0.013(7)
N2 0.096(8) 0.103(9) 0.084(9) 0.018(8) -0.018(7) 0.030(7)
N3 0.097(9) 0.078(8) 0.099(10) 0.006(8) 0.024(8) 0.009(8)
N4 0.089(8) 0.168(15) 0.088(10) -0.013(9) -0.016(8) 0.002(8)
N5 0.150(13) 0.145(13) 0.22(2) 0.025(14) 0.010(14) -0.050(10)
N6 0.145(13) 0.142(12) 0.104(13) 0.010(10) -0.013(11) -0.024(11)
N7 0.095(7) 0.056(7) 0.082(8) 0.014(7) 0.002(7) -0.007(6)
N8 0.071(7) 0.088(9) 0.101(9) 0.014(7) 0.006(7) 0.011(6)
N9 0.120(11) 0.088(9) 0.118(12) 0.008(9) -0.026(9) 0.005(8)
N10 0.091(8) 0.075(10) 0.112(11) 0.010(8) -0.024(8) 0.003(7)
C1 0.106(10) 0.078(10) 0.102(13) 0.013(9) -0.021(9) 0.013(8)
C2 0.096(10) 0.076(10) 0.18(2) 0.025(12) -0.014(11) 0.022(8)
C3 0.140(13) 0.116(12) 0.092(12) -0.018(11) -0.012(10) 0.021(10)
C4 0.090(9) 0.089(11) 0.068(10) 0.002(9) -0.029(8) -0.002(9)
C5 0.113(11) 0.088(11) 0.065(9) 0.000(8) 0.008(8) 0.005(8)
C6 0.107(10) 0.097(12) 0.078(11) -0.009(9) -0.012(8) 0.009(9)
C7 0.102(10) 0.080(9) 0.080(10) -0.002(9) -0.018(8) 0.019(8)
C8 0.129(12) 0.106(12) 0.107(12) 0.021(10) 0.003(10) 0.027(9)
C9 0.146(13) 0.121(13) 0.099(13) 0.012(11) 0.012(11) 0.056(10)
C10 0.150(14) 0.111(11) 0.177(17) 0.018(11) -0.016(12) -0.011(10)
C11 0.196(16) 0.109(11) 0.102(12) -0.026(9) -0.031(11) 0.026(10)
C12 0.102(9) 0.067(9) 0.092(10) 0.009(8) -0.003(8) 0.010(8)
C13 0.097(10) 0.072(10) 0.125(13) -0.016(9) -0.035(9) 0.016(8)
C14 0.103(10) 0.058(9) 0.111(12) -0.011(8) -0.006(9) 0.019(7)
C15 0.064(8) 0.121(13) 0.066(10) -0.011(9) -0.006(7) -0.004(8)
C16 0.088(9) 0.072(9) 0.108(12) 0.002(9) 0.004(9) 0.024(7)
C17 0.119(11) 0.081(11) 0.088(11) 0.006(8) -0.015(9) 0.002(8)
C18 0.097(11) 0.088(11) 0.105(14) -0.012(9) 0.013(10) 0.003(9)
C19 0.086(11) 0.116(13) 0.137(15) -0.016(13) -0.004(10) -0.003(9)
C20 0.103(12) 0.121(13) 0.149(17) 0.038(13) 0.002(12) -0.005(10)
C21 0.156(16) 0.135(14) 0.105(14) -0.025(12) -0.075(14) -0.040(12)
C22 0.21(2) 0.35(4) 0.085(15) -0.067(19) 0.025(16) -0.07(2)
C23 0.168(19) 0.31(3) 0.14(2) -0.016(19) -0.034(17) -0.139(19)
C24 0.17(2) 0.081(12) 0.128(18) -0.023(12) -0.070(16) -0.017(12)
C25 0.108(14) 0.21(2) 0.133(16) 0.014(18) -0.040(12) -0.007(15)
C26 0.125(16) 0.111(14) 0.17(2) -0.010(13) -0.037(14) 0.007(13)
C27 0.104(13) 0.129(16) 0.133(16) 0.031(12) -0.049(12) -0.037(11)
C28 0.126(13) 0.100(13) 0.148(16) 0.008(12) -0.024(12) -0.037(10)
C29 0.153(16) 0.128(17) 0.091(14) -0.022(12) -0.031(12) 0.041(15)
C30 0.38(4) 0.44(4) 0.080(15) 0.059(