####################################################################### 
# 
# This file contains crystal structure data downloaded from the 
# Cambridge Structural Database (CSD) hosted by the Cambridge 
# Crystallographic Data Centre (CCDC).
# 
# Full information about CCDC data access policies and citation 
# guidelines are available at http://www.ccdc.cam.ac.uk/access/V1 
# 
# Audit and citation data items may have been added by the CCDC. 
# Please retain this information to preserve the provenance of 
# this file and to allow appropriate attribution of the data. 
# 
#######################################################################

data_2
_audit_block_doi                 10.5517/cc12qd5c
_database_code_depnum_ccdc_archive 'CCDC 1004622'
loop_
_citation_id
_citation_doi
_citation_year
1 10.1039/C4SC01505C 2014
_audit_update_record             
;
2015-09-28 deposited with the CCDC.	2024-07-11 downloaded from the CCDC.
;

_audit_creation_method           SHELXL-97
_chemical_name_systematic        
; 
 ? 
;
_chemical_name_common            ?
_chemical_melting_point          ?
_chemical_formula_moiety         ?
_chemical_formula_sum            'C50 H54 N8 O11 Zn2'
_chemical_formula_weight         1073.75

loop_
_atom_type_symbol
_atom_type_description
_atom_type_scat_dispersion_real
_atom_type_scat_dispersion_imag
_atom_type_scat_source
C C 0.0033 0.0016 'International Tables Vol C Tables 4.2.6.8 and 6.1.1.4'
H H 0.0000 0.0000 'International Tables Vol C Tables 4.2.6.8 and 6.1.1.4'
N N 0.0061 0.0033 'International Tables Vol C Tables 4.2.6.8 and 6.1.1.4'
O O 0.0106 0.0060 'International Tables Vol C Tables 4.2.6.8 and 6.1.1.4'
Zn Zn 0.2839 1.4301 'International Tables Vol C Tables 4.2.6.8 and 6.1.1.4'

_symmetry_cell_setting           orthorhombic
_symmetry_space_group_name_H-M   Fdd2

loop_
_symmetry_equiv_pos_as_xyz
'x, y, z'
'-x, -y, z'
'x+1/4, -y+1/4, z+1/4'
'-x+1/4, y+1/4, z+1/4'
'x, y+1/2, z+1/2'
'-x, -y+1/2, z+1/2'
'x+1/4, -y+3/4, z+3/4'
'-x+1/4, y+3/4, z+3/4'
'x+1/2, y, z+1/2'
'-x+1/2, -y, z+1/2'
'x+3/4, -y+1/4, z+3/4'
'-x+3/4, y+1/4, z+3/4'
'x+1/2, y+1/2, z'
'-x+1/2, -y+1/2, z'
'x+3/4, -y+3/4, z+1/4'
'-x+3/4, y+3/4, z+1/4'

_cell_length_a                   22.694(2)
_cell_length_b                   29.694(3)
_cell_length_c                   33.408(3)
_cell_angle_alpha                90.00
_cell_angle_beta                 90.00
_cell_angle_gamma                90.00
_cell_volume                     22514(4)
_cell_formula_units_Z            16
_cell_measurement_temperature    123(2)
_cell_measurement_reflns_used    ?
_cell_measurement_theta_min      ?
_cell_measurement_theta_max      ?

_exptl_crystal_description       block
_exptl_crystal_colour            colorless
_exptl_crystal_size_max          0.15
_exptl_crystal_size_mid          0.15
_exptl_crystal_size_min          0.15
_exptl_crystal_density_meas      ?
_exptl_crystal_density_diffrn    1.267
_exptl_crystal_density_method    'not measured'
_exptl_crystal_F_000             8928
_exptl_absorpt_coefficient_mu    0.913
_exptl_absorpt_correction_type   multi-scan
_exptl_absorpt_correction_T_min  0.8752
_exptl_absorpt_correction_T_max  0.8752
_exptl_absorpt_process_details   SADABS

_exptl_special_details           
; 
 ? 
;

_diffrn_ambient_temperature      123(2)
_diffrn_radiation_wavelength     0.71073
_diffrn_radiation_type           MoK\a
_diffrn_radiation_source         'fine-focus sealed tube'
_diffrn_radiation_monochromator  graphite
_diffrn_measurement_device_type  CCD
_diffrn_measurement_method       '/w scan'
_diffrn_detector_area_resol_mean ?
_diffrn_standards_number         ?
_diffrn_standards_interval_count ?
_diffrn_standards_interval_time  ?
_diffrn_standards_decay_%        ?
_diffrn_reflns_number            21424
_diffrn_reflns_av_R_equivalents  0.0915
_diffrn_reflns_av_sigmaI/netI    0.1390
_diffrn_reflns_limit_h_min       -27
_diffrn_reflns_limit_h_max       27
_diffrn_reflns_limit_k_min       -36
_diffrn_reflns_limit_k_max       15
_diffrn_reflns_limit_l_min       -37
_diffrn_reflns_limit_l_max       38
_diffrn_reflns_theta_min         1.28
_diffrn_reflns_theta_max         26.00
_reflns_number_total             9823
_reflns_number_gt                5718
_reflns_threshold_expression     >2sigma(I)

_computing_data_collection       ?
_computing_cell_refinement       ?
_computing_data_reduction        ?
_computing_structure_solution    'SHELXS-97 (Sheldrick, 1990)'
_computing_structure_refinement  'SHELXL-97 (Sheldrick, 1997)'
_computing_molecular_graphics    ?
_computing_publication_material  ?

_refine_special_details          
; 
 Refinement of F^2^ against ALL reflections.  The weighted R-factor wR and 
 goodness of fit S are based on F^2^, conventional R-factors R are based 
 on F, with F set to zero for negative F^2^. The threshold expression of 
 F^2^ > 2sigma(F^2^) is used only for calculating R-factors(gt) etc. and is 
 not relevant to the choice of reflections for refinement.  R-factors based 
 on F^2^ are statistically about twice as large as those based on F, and R- 
 factors based on ALL data will be even larger. 
;

_refine_ls_structure_factor_coef Fsqd
_refine_ls_matrix_type           full
_refine_ls_weighting_scheme      calc
_refine_ls_weighting_details     
'calc w=1/[\s^2^(Fo^2^)+(0.1181P)^2^+0.0000P] where P=(Fo^2^+2Fc^2^)/3'
_atom_sites_solution_primary     direct
_atom_sites_solution_secondary   difmap
_atom_sites_solution_hydrogens   geom
_refine_ls_hydrogen_treatment    mixed
_refine_ls_extinction_method     none
_refine_ls_extinction_coef       ?
_refine_ls_abs_structure_details 'Flack H D (1983), Acta Cryst. A39, 876-881'
_refine_ls_abs_structure_Flack   0.07(3)
_refine_ls_number_reflns         9823
_refine_ls_number_parameters     646
_refine_ls_number_restraints     11
_refine_ls_R_factor_all          0.1414
_refine_ls_R_factor_gt           0.0825
_refine_ls_wR_factor_ref         0.2396
_refine_ls_wR_factor_gt          0.1963
_refine_ls_goodness_of_fit_ref   1.000
_refine_ls_restrained_S_all      0.999
_refine_ls_shift/su_max          0.001
_refine_ls_shift/su_mean         0.000

loop_
_atom_site_label
_atom_site_type_symbol
_atom_site_fract_x
_atom_site_fract_y
_atom_site_fract_z
_atom_site_U_iso_or_equiv
_atom_site_adp_type
_atom_site_occupancy
_atom_site_symmetry_multiplicity
_atom_site_calc_flag
_atom_site_refinement_flags
_atom_site_disorder_assembly
_atom_site_disorder_group
Zn1 Zn 0.5000 0.0000 0.76288(5) 0.0326(4) Uani 1 2 d S . .
Zn2 Zn 0.49759(5) 0.25455(3) 0.71821(4) 0.0329(3) Uani 1 1 d . . .
Zn3 Zn 0.7500 0.2500 0.54552(6) 0.0427(5) Uani 1 2 d S . .
O1 O 0.5392(3) 0.0403(2) 0.7994(2) 0.0365(17) Uani 1 1 d . . .
O2 O 0.6072(4) 0.0712(3) 0.7586(2) 0.055(2) Uani 1 1 d . . .
O3 O 0.5374(3) 0.2935(2) 0.7556(2) 0.044(2) Uani 1 1 d . . .
O4 O 0.6187(4) 0.2530(3) 0.7677(3) 0.070(3) Uani 1 1 d . . .
O5 O 0.4565(3) 0.2952(2) 0.6814(2) 0.0399(18) Uani 1 1 d . . .
O6 O 0.3714(3) 0.2606(3) 0.6699(2) 0.053(2) Uani 1 1 d . . .
O7 O 0.7875(4) 0.2053(4) 0.5783(3) 0.077(3) Uani 1 1 d . . .
O8 O 0.8724(4) 0.2390(4) 0.5885(3) 0.092(4) Uani 1 1 d . . .
N1 N 0.6927(4) 0.2217(3) 0.9732(3) 0.035(2) Uani 1 1 d . . .
N2 N 0.6536(4) 0.2501(3) 0.9554(3) 0.047(2) Uani 1 1 d . . .
H2A H 0.6461 0.2773 0.9645 0.056 Uiso 1 1 calc R . .
N3 N 0.6504(4) 0.4471(3) 0.9542(3) 0.050(3) Uani 1 1 d . . .
H3B H 0.6376 0.4552 0.9780 0.060 Uiso 1 1 calc R . .
N4 N 0.6994(3) 0.4639(3) 0.9369(3) 0.034(2) Uani 1 1 d . . .
N5 N 0.3672(4) 0.4630(3) 0.4864(3) 0.046(2) Uani 1 1 d . . .
H5A H 0.3819 0.4774 0.4656 0.055 Uiso 1 1 calc R . .
N6 N 0.3094(4) 0.4677(3) 0.4987(3) 0.039(2) Uani 1 1 d . . .
N7 N 0.8857(4) 0.0372(3) 0.7730(3) 0.044(2) Uani 1 1 d . . .
H7B H 0.8705 0.0218 0.7930 0.053 Uiso 1 1 calc R . .
N8 N 0.9435(3) 0.0355(3) 0.7624(3) 0.040(2) Uani 1 1 d . . .
C1 C 0.5827(5) 0.0669(4) 0.7913(4) 0.049(3) Uani 1 1 d . . .
C2 C 0.6026(4) 0.0972(3) 0.8261(3) 0.034(3) Uani 1 1 d . . .
C3 C 0.6365(4) 0.1345(4) 0.8175(3) 0.039(3) Uani 1 1 d U . .
H3A H 0.6499 0.1393 0.7909 0.047 Uiso 1 1 calc R . .
C4 C 0.6513(4) 0.1649(4) 0.8469(3) 0.042(3) Uani 1 1 d . . .
H4A H 0.6724 0.1914 0.8399 0.051 Uiso 1 1 calc R . .
C5 C 0.6358(4) 0.1576(3) 0.8863(3) 0.037(2) Uani 1 1 d . . .
C6 C 0.6043(5) 0.1194(3) 0.8948(4) 0.045(3) Uani 1 1 d . . .
H6A H 0.5944 0.1125 0.9217 0.053 Uiso 1 1 calc R . .
C7 C 0.5863(5) 0.0903(4) 0.8639(3) 0.041(3) Uani 1 1 d . . .
H7A H 0.5621 0.0651 0.8701 0.050 Uiso 1 1 calc R . .
C8 C 0.6501(4) 0.1906(4) 0.9193(4) 0.041(3) Uani 1 1 d . . .
C9 C 0.6911(5) 0.1847(3) 0.9494(3) 0.038(3) Uani 1 1 d . . .
C10 C 0.6281(5) 0.2334(3) 0.9234(3) 0.040(3) Uani 1 1 d . . .
C11 C 0.7282(5) 0.1454(3) 0.9594(4) 0.050(3) Uani 1 1 d . . .
H11A H 0.7499 0.1515 0.9842 0.074 Uiso 1 1 calc R . .
H11B H 0.7561 0.1399 0.9376 0.074 Uiso 1 1 calc R . .
H11C H 0.7031 0.1189 0.9631 0.074 Uiso 1 1 calc R . .
C12 C 0.5819(7) 0.2593(4) 0.8992(5) 0.081(5) Uani 1 1 d . . .
H12A H 0.5927 0.2913 0.8983 0.122 Uiso 1 1 calc R . .
H12B H 0.5433 0.2561 0.9120 0.122 Uiso 1 1 calc R . .
H12C H 0.5802 0.2473 0.8720 0.122 Uiso 1 1 calc R . .
C13 C 0.5869(6) 0.2870(4) 0.7729(3) 0.049(3) Uani 1 1 d . . .
C14 C 0.6070(5) 0.3218(4) 0.8028(3) 0.047(3) Uani 1 1 d . . .
C15 C 0.5708(5) 0.3570(3) 0.8144(3) 0.043(3) Uani 1 1 d . . .
H15A H 0.5336 0.3605 0.8016 0.052 Uiso 1 1 calc R . .
C16 C 0.5867(4) 0.3866(4) 0.8434(3) 0.039(3) Uani 1 1 d . . .
H16A H 0.5605 0.4101 0.8508 0.047 Uiso 1 1 calc R . .
C17 C 0.6417(5) 0.3828(4) 0.8623(4) 0.047(3) Uani 1 1 d . . .
C18 C 0.6800(5) 0.3475(4) 0.8508(4) 0.049(3) Uani 1 1 d . . .
H18A H 0.7171 0.3441 0.8635 0.059 Uiso 1 1 calc R . .
C19 C 0.6627(5) 0.3174(4) 0.8201(4) 0.054(3) Uani 1 1 d . . .
H19A H 0.6888 0.2944 0.8114 0.064 Uiso 1 1 calc R . .
C20 C 0.6548(5) 0.4128(4) 0.8969(3) 0.042(3) Uani 1 1 d . . .
C21 C 0.7043(4) 0.4424(3) 0.9016(4) 0.038(3) Uani 1 1 d . . .
C22 C 0.6233(5) 0.4165(4) 0.9307(4) 0.051(3) Uani 1 1 d . . .
C23 C 0.7543(4) 0.4502(4) 0.8739(4) 0.049(3) Uani 1 1 d . . .
H23A H 0.7899 0.4571 0.8894 0.074 Uiso 1 1 calc R . .
H23B H 0.7451 0.4756 0.8562 0.074 Uiso 1 1 calc R . .
H23C H 0.7611 0.4231 0.8578 0.074 Uiso 1 1 calc R . .
C24 C 0.5697(6) 0.3926(6) 0.9449(4) 0.081(5) Uani 1 1 d . . .
H24A H 0.5541 0.3738 0.9232 0.121 Uiso 1 1 calc R . .
H24B H 0.5399 0.4147 0.9529 0.121 Uiso 1 1 calc R . .
H24C H 0.5798 0.3736 0.9678 0.121 Uiso 1 1 calc R . .
C25 C 0.4076(5) 0.2904(4) 0.6641(4) 0.044(3) Uani 1 1 d . . .
C26 C 0.3968(5) 0.3235(4) 0.6312(3) 0.044(3) Uani 1 1 d . . .
C27 C 0.4366(5) 0.3584(4) 0.6234(3) 0.047(3) Uani 1 1 d . . .
H27A H 0.4722 0.3604 0.6383 0.056 Uiso 1 1 calc R . .
C28 C 0.4243(5) 0.3902(4) 0.5938(3) 0.049(3) Uani 1 1 d . . .
H28A H 0.4515 0.4138 0.5888 0.059 Uiso 1 1 calc R . .
C29 C 0.3716(5) 0.3877(4) 0.5711(4) 0.049(3) Uani 1 1 d . . .
C30 C 0.3323(5) 0.3507(4) 0.5793(4) 0.069(4) Uani 1 1 d . . .
H30A H 0.2975 0.3472 0.5638 0.083 Uiso 1 1 calc R . .
C31 C 0.3442(6) 0.3212(4) 0.6086(4) 0.055(3) Uani 1 1 d . . .
H31A H 0.3166 0.2981 0.6144 0.066 Uiso 1 1 calc R . .
C32 C 0.3599(5) 0.4197(4) 0.5392(4) 0.047(3) Uani 1 1 d . . .
C33 C 0.3057(5) 0.4412(4) 0.5307(4) 0.043(3) Uani 1 1 d . . .
C34 C 0.3985(5) 0.4348(4) 0.5086(4) 0.050(3) Uani 1 1 d . . .
C35 C 0.2493(5) 0.4371(5) 0.5534(5) 0.081(5) Uani 1 1 d . . .
H35A H 0.2291 0.4662 0.5536 0.121 Uiso 1 1 calc R . .
H35B H 0.2578 0.4278 0.5809 0.121 Uiso 1 1 calc R . .
H35C H 0.2241 0.4145 0.5405 0.121 Uiso 1 1 calc R . .
C36 C 0.4603(6) 0.4258(6) 0.5009(4) 0.089(5) Uani 1 1 d . . .
H36A H 0.4694 0.4330 0.4730 0.133 Uiso 1 1 calc R . .
H36B H 0.4684 0.3938 0.5058 0.133 Uiso 1 1 calc R . .
H36C H 0.4846 0.4442 0.5187 0.133 Uiso 1 1 calc R . .
C37 C 0.8374(6) 0.2089(4) 0.5955(4) 0.060(3) Uani 1 1 d . . .
C38 C 0.8515(5) 0.1745(4) 0.6272(3) 0.042(3) Uani 1 1 d . . .
C39 C 0.8152(5) 0.1366(5) 0.6349(4) 0.065(4) Uani 1 1 d . . .
H39A H 0.7804 0.1326 0.6196 0.078 Uiso 1 1 calc R . .
C40 C 0.8295(5) 0.1054(5) 0.6642(4) 0.066(4) Uani 1 1 d . . .
H40A H 0.8061 0.0791 0.6679 0.079 Uiso 1 1 calc R . .
C41 C 0.8794(5) 0.1134(4) 0.6886(4) 0.048(3) Uani 1 1 d . . .
C42 C 0.9178(6) 0.1476(4) 0.6804(4) 0.062(4) Uani 1 1 d . . .
H42A H 0.9533 0.1508 0.6952 0.074 Uiso 1 1 calc R . .
C43 C 0.9034(5) 0.1783(4) 0.6493(4) 0.057(3) Uani 1 1 d . . .
H43A H 0.9299 0.2021 0.6434 0.069 Uiso 1 1 calc R . .
C44 C 0.8935(5) 0.0812(4) 0.7208(4) 0.046(3) Uani 1 1 d . . .
C45 C 0.9485(5) 0.0613(5) 0.7314(4) 0.055(4) Uani 1 1 d . . .
C46 C 0.8557(5) 0.0639(4) 0.7507(3) 0.043(3) Uani 1 1 d . . .
C47 C 1.0072(5) 0.0667(6) 0.7096(4) 0.079(5) Uani 1 1 d . . .
H47A H 1.0377 0.0492 0.7234 0.119 Uiso 1 1 calc R . .
H47B H 1.0185 0.0986 0.7093 0.119 Uiso 1 1 calc R . .
H47C H 1.0033 0.0559 0.6820 0.119 Uiso 1 1 calc R . .
C48 C 0.7898(5) 0.0729(5) 0.7566(4) 0.065(4) Uani 1 1 d . . .
H48A H 0.7813 0.0759 0.7852 0.098 Uiso 1 1 calc R . .
H48B H 0.7671 0.0478 0.7455 0.098 Uiso 1 1 calc R . .
H48C H 0.7789 0.1008 0.7428 0.098 Uiso 1 1 calc R . .
O1W O 0.8228(10) -0.0441(8) 0.6813(8) 0.160(9) Uiso 0.60 1 d P . .
H1W H 0.8256 -0.0601 0.7024 0.192 Uiso 0.60 1 d PR . .
H1W' H 0.8396 -0.0275 0.6640 0.192 Uiso 0.60 1 d PR . .
O4W O 0.2500 0.2500 0.6814(15) 0.133(17) Uiso 0.40 2 d SP . .
H4W H 0.2869 0.2532 0.6781 0.160 Uiso 0.40 1 d PR . .
O5W O 0.880(2) 0.0104(16) 0.6257(16) 0.119(17) Uiso 0.25 1 d P A 1
H5W H 0.9141 0.0078 0.6150 0.142 Uiso 0.25 1 d PR A 1
H5W' H 0.8625 -0.0060 0.6427 0.142 Uiso 0.25 1 d PR A 1
O3W O 0.8779(14) 0.0992(11) 0.5250(10) 0.179(13) Uiso 0.50 1 d PD B 2
H3WA H 0.8458 0.0977 0.5126 0.269 Uiso 0.50 1 calc PR B 2
C1W C 0.8814(18) 0.0626(14) 0.5539(12) 0.144(16) Uiso 0.50 1 d PD B 2
H1WA H 0.8740 0.0373 0.5353 0.173 Uiso 0.50 1 calc PR B 2
H1WB H 0.8429 0.0674 0.5671 0.173 Uiso 0.50 1 calc PR B 2
C2W C 0.911(2) 0.0362(16) 0.5872(13) 0.17(2) Uiso 0.50 1 d PD B 2
H2WA H 0.8856 0.0116 0.5960 0.255 Uiso 0.50 1 calc PR B 2
H2WB H 0.9194 0.0563 0.6099 0.255 Uiso 0.50 1 calc PR B 2
H2WC H 0.9486 0.0237 0.5773 0.255 Uiso 0.50 1 calc PR B 2
C4W C 0.8041(18) -0.0576(14) 0.7671(12) 0.158(18) Uiso 0.50 1 d PD . .
H4WA H 0.8085 -0.0283 0.7533 0.190 Uiso 0.50 1 calc PR . .
H4WB H 0.8358 -0.0574 0.7875 0.190 Uiso 0.50 1 calc PR . .
C3W C 0.7519(15) -0.0463(17) 0.7940(12) 0.152(18) Uiso 0.50 1 d PD . .
H3WB H 0.7596 -0.0180 0.8081 0.228 Uiso 0.50 1 calc PR . .
H3WC H 0.7462 -0.0706 0.8135 0.228 Uiso 0.50 1 calc PR . .
H3WD H 0.7163 -0.0432 0.7776 0.228 Uiso 0.50 1 calc PR . .
O2W O 0.8317(11) -0.0868(9) 0.7374(8) 0.125(9) Uiso 0.50 1 d PD . .
H2WD H 0.8638 -0.0754 0.7300 0.187 Uiso 0.50 1 calc PR . .
O6W O 0.7353(11) 0.2177(8) 0.7506(7) 0.181(9) Uiso 0.70 1 d P C 1
H6W H 0.7010 0.2278 0.7553 0.217 Uiso 0.70 1 d PR C 1
H6W' H 0.7711 0.2248 0.7546 0.217 Uiso 0.70 1 d PR C 1
O7W O 0.7500 0.2500 0.704(2) 0.15(3) Uiso 0.30 2 d SP D 2
H7W H 0.7185 0.2507 0.7173 0.176 Uiso 0.30 1 d PR D 2
O8W O 1.0000 0.0000 0.588(3) 0.13(3) Uiso 0.20 2 d SP . .
H8W H 0.9661 0.0029 0.5983 0.157 Uiso 0.20 1 d PR . .

loop_
_atom_site_aniso_label
_atom_site_aniso_U_11
_atom_site_aniso_U_22
_atom_site_aniso_U_33
_atom_site_aniso_U_23
_atom_site_aniso_U_13
_atom_site_aniso_U_12
Zn1 0.0421(9) 0.0302(9) 0.0256(11) 0.000 0.000 -0.0014(8)
Zn2 0.0438(6) 0.0312(6) 0.0236(7) 0.0031(6) -0.0023(5) 0.0040(6)
Zn3 0.0380(9) 0.0545(11) 0.0355(13) 0.000 0.000 -0.0049(9)
O1 0.048(4) 0.031(4) 0.030(5) -0.003(3) -0.003(3) 0.000(3)
O2 0.085(6) 0.045(5) 0.034(6) -0.019(4) 0.004(4) -0.008(4)
O3 0.066(5) 0.044(4) 0.024(5) -0.007(4) -0.014(4) 0.000(4)
O4 0.092(6) 0.052(5) 0.067(7) -0.017(5) -0.033(5) 0.019(5)
O5 0.045(4) 0.040(4) 0.035(5) 0.013(4) -0.009(4) 0.001(3)
O6 0.063(5) 0.052(5) 0.045(6) 0.025(4) -0.014(4) -0.015(4)
O7 0.054(5) 0.116(8) 0.060(7) 0.039(6) -0.019(5) -0.025(5)
O8 0.081(6) 0.102(8) 0.094(8) 0.057(6) -0.030(6) -0.050(6)
N1 0.044(5) 0.030(5) 0.032(6) -0.006(4) -0.003(4) -0.002(4)
N2 0.060(6) 0.042(5) 0.037(7) -0.010(5) -0.006(4) 0.005(5)
N3 0.052(6) 0.060(6) 0.039(7) -0.018(5) 0.015(4) -0.015(5)
N4 0.044(5) 0.032(5) 0.027(6) 0.002(4) 0.003(4) -0.014(4)
N5 0.066(6) 0.047(6) 0.026(6) 0.018(4) -0.003(4) -0.005(5)
N6 0.052(5) 0.039(5) 0.027(6) 0.009(4) 0.004(4) -0.006(4)
N7 0.042(5) 0.059(6) 0.031(6) 0.012(5) 0.005(4) 0.012(4)
N8 0.032(5) 0.062(6) 0.027(6) 0.009(5) -0.001(4) 0.002(4)
C1 0.058(7) 0.043(7) 0.046(9) 0.004(6) -0.013(6) 0.016(6)
C2 0.045(6) 0.018(5) 0.038(8) 0.006(5) -0.005(5) 0.008(4)
C3 0.055(6) 0.054(6) 0.008(6) -0.006(5) -0.002(4) -0.005(5)
C4 0.049(6) 0.040(6) 0.038(8) -0.006(5) -0.006(5) -0.011(5)
C5 0.050(6) 0.033(5) 0.026(7) 0.000(5) -0.001(5) 0.002(5)
C6 0.066(7) 0.038(6) 0.029(8) 0.012(5) -0.001(6) -0.002(5)
C7 0.074(7) 0.034(6) 0.016(7) 0.005(5) -0.004(5) 0.001(5)
C8 0.048(6) 0.035(6) 0.042(8) -0.007(5) -0.010(5) 0.000(5)
C9 0.053(6) 0.036(6) 0.025(7) 0.005(5) -0.003(5) -0.017(5)
C10 0.060(7) 0.039(6) 0.022(7) -0.007(5) -0.007(5) 0.009(5)
C11 0.060(7) 0.034(6) 0.054(9) -0.007(6) -0.025(6) 0.006(5)
C12 0.111(11) 0.058(9) 0.075(12) -0.015(8) -0.030(9) 0.019(8)
C13 0.084(9) 0.035(6) 0.029(7) -0.012(5) 0.007(6) 0.009(6)
C14 0.059(7) 0.055(8) 0.028(7) 0.005(6) -0.005(6) -0.002(6)
C15 0.060(7) 0.035(6) 0.035(7) -0.006(5) -0.004(5) -0.004(5)
C16 0.048(6) 0.050(7) 0.020(7) 0.004(5) -0.011(5) 0.009(5)
C17 0.066(7) 0.038(6) 0.036(8) -0.002(5) -0.008(6) -0.005(5)
C18 0.047(7) 0.058(8) 0.043(8) 0.003(6) -0.012(6) -0.014(6)
C19 0.067(7) 0.055(8) 0.039(8) -0.008(6) -0.007(6) 0.011(6)
C20 0.052(7) 0.049(7) 0.026(7) -0.009(5) -0.005(5) -0.008(5)
C21 0.038(5) 0.027(5) 0.048(8) 0.001(5) -0.004(5) 0.001(4)
C22 0.053(7) 0.060(8) 0.041(8) -0.006(6) -0.009(6) -0.016(6)
C23 0.056(7) 0.044(6) 0.047(8) -0.011(5) 0.006(6) -0.021(5)
C24 0.062(8) 0.108(12) 0.072(11) 0.008(9) 0.003(7) -0.032(8)
C25 0.053(7) 0.040(7) 0.038(8) 0.001(5) 0.007(6) 0.007(6)
C26 0.049(7) 0.056(7) 0.027(7) 0.024(6) -0.008(5) 0.005(6)
C27 0.051(7) 0.060(8) 0.029(7) 0.003(6) -0.006(5) -0.016(6)
C28 0.060(7) 0.047(7) 0.040(8) 0.021(6) -0.013(6) -0.020(6)
C29 0.051(7) 0.0