####################################################################### 
# 
# This file contains crystal structure data downloaded from the 
# Cambridge Structural Database (CSD) hosted by the Cambridge 
# Crystallographic Data Centre (CCDC).
# 
# Full information about CCDC data access policies and citation 
# guidelines are available at http://www.ccdc.cam.ac.uk/access/V1 
# 
# Audit and citation data items may have been added by the CCDC. 
# Please retain this information to preserve the provenance of 
# this file and to allow appropriate attribution of the data. 
# 
#######################################################################

data_cuno3-m
_audit_block_doi                 10.5517/ccs57gm
_database_code_depnum_ccdc_archive 'CCDC 720020'
loop_
_citation_id
_citation_doi
_citation_year
1 10.5012/bkcs.2009.30.5.1113 2009
_audit_update_record             
;
2009-02-10 deposited with the CCDC.	2024-07-11 downloaded from the CCDC.
;

_audit_creation_method           SHELXL-97
_chemical_name_systematic        
;
?
;
_chemical_name_common            ?
_chemical_melting_point          ?
_chemical_formula_moiety         ?
_chemical_formula_sum            'C8 H15 Cu N3 O6'
_chemical_formula_weight         312.77

loop_
_atom_type_symbol
_atom_type_description
_atom_type_scat_dispersion_real
_atom_type_scat_dispersion_imag
_atom_type_scat_source
C C 0.0033 0.0016 'International Tables Vol C Tables 4.2.6.8 and 6.1.1.4'
H H 0.0000 0.0000 'International Tables Vol C Tables 4.2.6.8 and 6.1.1.4'
N N 0.0061 0.0033 'International Tables Vol C Tables 4.2.6.8 and 6.1.1.4'
O O 0.0106 0.0060 'International Tables Vol C Tables 4.2.6.8 and 6.1.1.4'
Cu Cu 0.3201 1.2651 'International Tables Vol C Tables 4.2.6.8 and 6.1.1.4'

_symmetry_cell_setting           ?
_symmetry_space_group_name_H-M   ?

loop_
_symmetry_equiv_pos_as_xyz
'x, y, z'
'-x, y, -z+1/2'
'x+1/2, y+1/2, z'
'-x+1/2, y+1/2, -z+1/2'
'-x, -y, -z'
'x, -y, z-1/2'
'-x+1/2, -y+1/2, -z'
'x+1/2, -y+1/2, z-1/2'

_cell_length_a                   15.0906(16)
_cell_length_b                   13.9216(14)
_cell_length_c                   13.7673(14)
_cell_angle_alpha                90.00
_cell_angle_beta                 121.300(2)
_cell_angle_gamma                90.00
_cell_volume                     2471.4(4)
_cell_formula_units_Z            8
_cell_measurement_temperature    293(2)
_cell_measurement_reflns_used    ?
_cell_measurement_theta_min      ?
_cell_measurement_theta_max      ?

_exptl_crystal_description       ?
_exptl_crystal_colour            ?
_exptl_crystal_size_max          ?
_exptl_crystal_size_mid          ?
_exptl_crystal_size_min          ?
_exptl_crystal_density_meas      ?
_exptl_crystal_density_diffrn    1.681
_exptl_crystal_density_method    'not measured'
_exptl_crystal_F_000             1288
_exptl_absorpt_coefficient_mu    1.792
_exptl_absorpt_correction_type   ?
_exptl_absorpt_correction_T_min  ?
_exptl_absorpt_correction_T_max  ?
_exptl_absorpt_process_details   ?

_exptl_special_details           
;
SQUEEZE (PLATON, A.Spek) was used to treat for unresolved H2O
and anion contributions - found 236 e/unit cell which was
associated with H2O and NO3 units. The intensive properties
(density, F(000), etc.) reflect these contributions.
;

_diffrn_ambient_temperature      293(2)
_diffrn_radiation_wavelength     0.71073
_diffrn_radiation_type           MoK\a
_diffrn_radiation_source         'fine-focus sealed tube'
_diffrn_radiation_monochromator  graphite
_diffrn_measurement_device_type  ?
_diffrn_measurement_method       ?
_diffrn_detector_area_resol_mean ?
_diffrn_standards_number         ?
_diffrn_standards_interval_count ?
_diffrn_standards_interval_time  ?
_diffrn_standards_decay_%        ?
_diffrn_reflns_number            9048
_diffrn_reflns_av_R_equivalents  0.0671
_diffrn_reflns_av_sigmaI/netI    0.0766
_diffrn_reflns_limit_h_min       -20
_diffrn_reflns_limit_h_max       17
_diffrn_reflns_limit_k_min       -15
_diffrn_reflns_limit_k_max       18
_diffrn_reflns_limit_l_min       -18
_diffrn_reflns_limit_l_max       17
_diffrn_reflns_theta_min         2.15
_diffrn_reflns_theta_max         28.28
_reflns_number_total             3067
_reflns_number_gt                1759
_reflns_threshold_expression     >2sigma(I)

_computing_data_collection       ?
_computing_cell_refinement       ?
_computing_data_reduction        ?
_computing_structure_solution    ?
_computing_structure_refinement  'SHELXL-97 (Sheldrick, 1997)'
_computing_molecular_graphics    ?
_computing_publication_material  ?

_refine_special_details          
;
Refinement of F^2^ against ALL reflections. The weighted R-factor wR and
goodness of fit S are based on F^2^, conventional R-factors R are based
on F, with F set to zero for negative F^2^. The threshold expression of
F^2^ > 2sigma(F^2^) is used only for calculating R-factors(gt) etc. and is
not relevant to the choice of reflections for refinement. R-factors based
on F^2^ are statistically about twice as large as those based on F, and R-
factors based on ALL data will be even larger.
;

_refine_ls_structure_factor_coef Fsqd
_refine_ls_matrix_type           full
_refine_ls_weighting_scheme      calc
_refine_ls_weighting_details     
'calc w=1/[\s^2^(Fo^2^)+(0.1363P)^2^+0.0000P] where P=(Fo^2^+2Fc^2^)/3'
_atom_sites_solution_primary     direct
_atom_sites_solution_secondary   difmap
_atom_sites_solution_hydrogens   geom
_refine_ls_hydrogen_treatment    mixed
_refine_ls_extinction_method     SHELXL
_refine_ls_extinction_coef       0.0004(5)
_refine_ls_extinction_expression Fc^*^=kFc[1+0.001xFc^2^\l^3^/sin(2\q)]^-1/4^
_refine_ls_number_reflns         3067
_refine_ls_number_parameters     123
_refine_ls_number_restraints     0
_refine_ls_R_factor_all          0.1172
_refine_ls_R_factor_gt           0.0779
_refine_ls_wR_factor_ref         0.2625
_refine_ls_wR_factor_gt          0.2080
_refine_ls_goodness_of_fit_ref   1.124
_refine_ls_restrained_S_all      1.124
_refine_ls_shift/su_max          0.000
_refine_ls_shift/su_mean         0.000

loop_
_atom_site_label
_atom_site_type_symbol
_atom_site_fract_x
_atom_site_fract_y
_atom_site_fract_z
_atom_site_U_iso_or_equiv
_atom_site_adp_type
_atom_site_occupancy
_atom_site_symmetry_multiplicity
_atom_site_calc_flag
_atom_site_refinement_flags
_atom_site_disorder_assembly
_atom_site_disorder_group
Cu1 Cu 0.49313(5) 0.09895(5) 0.95707(7) 0.0479(4) Uani 1 1 d . . .
N1 N 0.3579(4) 0.1743(3) 0.8783(4) 0.0471(12) Uani 1 1 d . . .
H1 H 0.3723 0.2382 0.8907 0.057 Uiso 1 1 calc R . .
N2 N 0.5745(4) 0.1812(3) 0.9103(4) 0.0446(12) Uani 1 1 d . . .
O1 O 0.4190(4) 0.0143(4) 0.9993(5) 0.0813(17) Uani 1 1 d . . .
C1 C 0.3124(4) 0.0348(4) 0.9503(7) 0.0540(17) Uani 1 1 d . . .
H1A H 0.2882 0.0135 0.9997 0.065 Uiso 1 1 calc R . .
H1B H 0.2717 0.0032 0.8772 0.065 Uiso 1 1 calc R . .
C2 C 0.3043(5) 0.1433(5) 0.9366(6) 0.0518(15) Uani 1 1 d . . .
H2A H 0.2319 0.1622 0.8926 0.062 Uiso 1 1 calc R . .
H2B H 0.3356 0.1737 1.0106 0.062 Uiso 1 1 calc R . .
C3 C 0.2902(5) 0.1565(4) 0.7522(5) 0.0469(14) Uani 1 1 d . . .
H3A H 0.2823 0.0879 0.7383 0.056 Uiso 1 1 calc R . .
H3B H 0.2220 0.1834 0.7250 0.056 Uiso 1 1 calc R . .
C4 C 0.6650(4) 0.2005(4) 0.8130(5) 0.0423(13) Uani 1 1 d . . .
C5 C 0.6735(5) 0.2988(4) 0.8375(5) 0.0488(15) Uani 1 1 d . . .
H5 H 0.7082 0.3389 0.8140 0.059 Uiso 1 1 calc R . .
C6 C 0.6306(5) 0.3358(5) 0.8961(5) 0.0544(16) Uani 1 1 d . . .
H6 H 0.6340 0.4013 0.9105 0.065 Uiso 1 1 calc R . .
C7 C 0.5822(4) 0.2748(4) 0.9338(5) 0.0436(14) Uani 1 1 d . . .
H7 H 0.5548 0.2993 0.9756 0.052 Uiso 1 1 calc R . .
C8 C 0.6139(5) 0.1459(4) 0.8525(5) 0.0446(13) Uani 1 1 d . . .
H8 H 0.6070 0.0804 0.8372 0.054 Uiso 1 1 calc R . .
O2 O 0.5718(5) 0.1796(5) 1.1319(6) 0.0886(18) Uiso 1 1 d . . .
N3 N 0.588(2) 0.1341(17) 1.2183(19) 0.365(16) Uani 1 1 d . . .

loop_
_atom_site_aniso_label
_atom_site_aniso_U_11
_atom_site_aniso_U_22
_atom_site_aniso_U_33
_atom_site_aniso_U_23
_atom_site_aniso_U_13
_atom_site_aniso_U_12
Cu1 0.0356(5) 0.0392(5) 0.0606(6) 0.0143(3) 0.0192(4) 0.0001(3)
N1 0.047(3) 0.034(2) 0.054(3) 0.000(2) 0.021(2) -0.002(2)
N2 0.035(3) 0.042(3) 0.049(3) 0.007(2) 0.016(2) -0.001(2)
O1 0.048(3) 0.062(3) 0.131(5) 0.048(3) 0.044(3) 0.015(2)
C1 0.024(3) 0.047(3) 0.094(5) 0.014(3) 0.033(3) 0.003(2)
C2 0.051(4) 0.047(4) 0.064(4) 0.005(3) 0.034(3) 0.006(3)
C3 0.029(3) 0.047(3) 0.046(3) 0.001(3) 0.006(2) 0.004(2)
C4 0.032(3) 0.039(3) 0.047(3) -0.001(2) 0.014(2) -0.004(2)
C5 0.044(3) 0.040(3) 0.056(4) -0.003(3) 0.021(3) -0.014(3)
C6 0.059(4) 0.039(3) 0.053(4) -0.002(3) 0.020(3) -0.007(3)
C7 0.035(3) 0.031(3) 0.054(3) 0.001(2) 0.015(3) -0.011(2)
C8 0.039(3) 0.037(3) 0.046(3) 0.002(3) 0.014(3) -0.002(2)
N3 0.36(3) 0.39(3) 0.28(2) 0.22(2) 0.12(2) -0.05(3)

_geom_special_details            
;
All esds (except the esd in the dihedral angle between two l.s. planes)
are estimated using the full covariance matrix. The cell esds are taken
into account individually in the estimation of esds in distances, angles
and torsion angles; correlations between esds in cell parameters are only
used when they are defined by crystal symmetry. An approximate (isotropic)
treatment of cell esds is used for estimating esds involving l.s. planes.
;

loop_
_geom_bond_atom_site_label_1
_geom_bond_atom_site_label_2
_geom_bond_distance
_geom_bond_site_symmetry_2
_geom_bond_publ_flag
Cu1 O1 1.912(5) . ?
Cu1 O1 1.944(5) 5_657 ?
Cu1 N2 2.014(5) . ?
Cu1 N1 2.035(5) . ?
Cu1 O2 2.344(6) . ?
Cu1 Cu1 2.9623(13) 5_657 ?
N1 C2 1.471(8) . ?
N1 C3 1.508(8) . ?
N1 H1 0.9100 . ?
N2 C8 1.312(8) . ?
N2 C7 1.333(7) . ?
O1 C1 1.412(7) . ?
O1 Cu1 1.944(5) 5_657 ?
C1 C2 1.520(9) . ?
C1 H1A 0.9700 . ?
C1 H1B 0.9700 . ?
C2 H2A 0.9700 . ?
C2 H2B 0.9700 . ?
C3 C4 1.505(9) 2_656 ?
C3 H3A 0.9700 . ?
C3 H3B 0.9700 . ?
C4 C8 1.379(8) . ?
C4 C5 1.399(8) . ?
C4 C3 1.505(8) 2_656 ?
C5 C6 1.371(9) . ?
C5 H5 0.9300 . ?
C6 C7 1.385(8) . ?
C6 H6 0.9300 . ?
C7 H7 0.9300 . ?
C8 H8 0.9300 . ?
O2 N3 1.255(15) . ?

loop_
_geom_angle_atom_site_label_1
_geom_angle_atom_site_label_2
_geom_angle_atom_site_label_3
_geom_angle
_geom_angle_site_symmetry_1
_geom_angle_site_symmetry_3
_geom_angle_publ_flag
O1 Cu1 O1 79.6(2) . 5_657 ?
O1 Cu1 N2 176.6(2) . . ?
O1 Cu1 N2 97.4(2) 5_657 . ?
O1 Cu1 N1 84.1(2) . . ?
O1 Cu1 N1 156.5(2) 5_657 . ?
N2 Cu1 N1 98.4(2) . . ?
O1 Cu1 O2 92.7(3) . . ?
O1 Cu1 O2 99.8(3) 5_657 . ?
N2 Cu1 O2 89.3(2) . . ?
N1 Cu1 O2 97.7(2) . . ?
O1 Cu1 Cu1 40.20(15) . 5_657 ?
O1 Cu1 Cu1 39.41(14) 5_657 5_657 ?
N2 Cu1 Cu1 136.76(15) . 5_657 ?
N1 Cu1 Cu1 122.36(15) . 5_657 ?
O2 Cu1 Cu1 98.20(17) . 5_657 ?
C2 N1 C3 110.1(5) . . ?
C2 N1 Cu1 104.0(4) . . ?
C3 N1 Cu1 114.9(4) . . ?
C2 N1 H1 109.2 . . ?
C3 N1 H1 109.2 . . ?
Cu1 N1 H1 109.2 . . ?
C8 N2 C7 120.2(5) . . ?
C8 N2 Cu1 121.7(4) . . ?
C7 N2 Cu1 118.0(4) . . ?
C1 O1 Cu1 115.6(4) . . ?
C1 O1 Cu1 137.4(4) . 5_657 ?
Cu1 O1 Cu1 100.4(2) . 5_657 ?
O1 C1 C2 105.0(5) . . ?
O1 C1 H1A 110.7 . . ?
C2 C1 H1A 110.7 . . ?
O1 C1 H1B 110.7 . . ?
C2 C1 H1B 110.7 . . ?
H1A C1 H1B 108.8 . . ?
N1 C2 C1 109.1(5) . . ?
N1 C2 H2A 109.9 . . ?
C1 C2 H2A 109.9 . . ?
N1 C2 H2B 109.9 . . ?
C1 C2 H2B 109.9 . . ?
H2A C2 H2B 108.3 . . ?
C4 C3 N1 111.9(5) 2_656 . ?
C4 C3 H3A 109.2 2_656 . ?
N1 C3 H3A 109.2 . . ?
C4 C3 H3B 109.2 2_656 . ?
N1 C3 H3B 109.2 . . ?
H3A C3 H3B 107.9 . . ?
C8 C4 C5 116.4(6) . . ?
C8 C4 C3 121.8(5) . 2_656 ?
C5 C4 C3 121.8(5) . 2_656 ?
C6 C5 C4 119.8(6) . . ?
C6 C5 H5 120.1 . . ?
C4 C5 H5 120.1 . . ?
C5 C6 C7 119.6(6) . . ?
C5 C6 H6 120.2 . . ?
C7 C6 H6 120.2 . . ?
N2 C7 C6 120.3(6) . . ?
N2 C7 H7 119.9 . . ?
C6 C7 H7 119.9 . . ?
N2 C8 C4 123.8(5) . . ?
N2 C8 H8 118.1 . . ?
C4 C8 H8 118.1 . . ?
N3 O2 Cu1 118.5(14) . . ?

loop_
_geom_torsion_atom_site_label_1
_geom_torsion_atom_site_label_2
_geom_torsion_atom_site_label_3
_geom_torsion_atom_site_label_4
_geom_torsion
_geom_torsion_site_symmetry_1
_geom_torsion_site_symmetry_2
_geom_torsion_site_symmetry_3
_geom_torsion_site_symmetry_4
_geom_torsion_publ_flag
O1 Cu1 N1 C2 21.6(4) . . . . ?
O1 Cu1 N1 C2 67.6(7) 5_657 . . . ?
N2 Cu1 N1 C2 -160.8(4) . . . . ?
O2 Cu1 N1 C2 -70.3(4) . . . . ?
Cu1 Cu1 N1 C2 34.5(4) 5_657 . . . ?
O1 Cu1 N1 C3 -98.8(4) . . . . ?
O1 Cu1 N1 C3 -52.8(7) 5_657 . . . ?
N2 Cu1 N1 C3 78.8(4) . . . . ?
O2 Cu1 N1 C3 169.2(4) . . . . ?
Cu1 Cu1 N1 C3 -86.0(4) 5_657 . . . ?
O1 Cu1 N2 C8 14(4) . . . . ?
O1 Cu1 N2 C8 41.2(5) 5_657 . . . ?
N1 Cu1 N2 C8 -121.3(5) . . . . ?
O2 Cu1 N2 C8 141.0(5) . . . . ?
Cu1 Cu1 N2 C8 39.8(6) 5_657 . . . ?
O1 Cu1 N2 C7 -170(4) . . . . ?
O1 Cu1 N2 C7 -142.9(4) 5_657 . . . ?
N1 Cu1 N2 C7 54.6(4) . . . . ?
O2 Cu1 N2 C7 -43.1(4) . . . . ?
Cu1 Cu1 N2 C7 -144.3(3) 5_657 . . . ?
O1 Cu1 O1 C1 -156.6(7) 5_657 . . . ?
N2 Cu1 O1 C1 -130(4) . . . . ?
N1 Cu1 O1 C1 6.5(5) . . . . ?
O2 Cu1 O1 C1 103.9(5) . . . . ?
Cu1 Cu1 O1 C1 -156.6(7) 5_657 . . . ?
O1 Cu1 O1 Cu1 0.0 5_657 . . 5_657 ?
N2 Cu1 O1 Cu1 27(4) . . . 5_657 ?
N1 Cu1 O1 Cu1 163.1(3) . . . 5_657 ?
O2 Cu1 O1 Cu1 -99.5(3) . . . 5_657 ?
Cu1 O1 C1 C2 -31.9(7) . . . . ?
Cu1 O1 C1 C2 -176.6(5) 5_657 . . . ?
C3 N1 C2 C1 79.0(6) . . . . ?
Cu1 N1 C2 C1 -44.7(5) . . . . ?
O1 C1 C2 N1 50.7(7) . . . . ?
C2 N1 C3 C4 171.5(5) . . . 2_656 ?
Cu1 N1 C3 C4 -71.5(5) . . . 2_656 ?
C8 C4 C5 C6 -1.1(9) . . . . ?
C3 C4 C5 C6 179.4(6) 2_656 . . . ?
C4 C5 C6 C7 2.1(9) . . . . ?
C8 N2 C7 C6 0.8(8) . . . . ?
Cu1 N2 C7 C6 -175.2(4) . . . . ?
C5 C6 C7 N2 -2.0(9) . . . . ?
C7 N2 C8 C4 0.3(9) . . . . ?
Cu1 N2 C8 C4 176.1(4) . . . . ?
C5 C4 C8 N2 -0.1(9) . . . . ?
C3 C4 C8 N2 179.4(5) 2_656 . . . ?
O1 Cu1 O2 N3 29.2(17) . . . . ?
O1 Cu1 O2 N3 -50.7(17) 5_657 . . . ?
N2 Cu1 O2 N3 -148.1(17) . . . . ?
N1 Cu1 O2 N3 113.6(17) . . . . ?
Cu1 Cu1 O2 N3 -10.8(17) 5_657 . . . ?

_diffrn_measured_fraction_theta_max 0.998
_diffrn_reflns_theta_full        28.28
_diffrn_measured_fraction_theta_full 0.998
_refine_diff_density_max         1.282
_refine_diff_density_min         -1.095
_refine_diff_density_rms         0.138


