####################################################################### 
# 
# This file contains crystal structure data downloaded from the 
# Cambridge Structural Database (CSD) hosted by the Cambridge 
# Crystallographic Data Centre (CCDC).
# 
# Full information about CCDC data access policies and citation 
# guidelines are available at http://www.ccdc.cam.ac.uk/access/V1 
# 
# Audit and citation data items may have been added by the CCDC. 
# Please retain this information to preserve the provenance of 
# this file and to allow appropriate attribution of the data. 
# 
#######################################################################

data_OBEDAA
#This CIF has been generated from an entry in the Cambridge Structural Database
_database_code_depnum_ccdc_archive 'CCDC 1225323'
_database_code_CSD               OBEDAA
loop_
_citation_id
_citation_doi
_citation_year
1 10.1021/cm981153c 1999
_audit_creation_method           'Created from the CSD'
_audit_update_record             
;
2024-07-11 downloaded from the CCDC.
;
_database_code_NBS               762166
_chemical_formula_moiety         '(C46 H24 Ag2 N8 2+)n,2n(B1 F4 1-),3n(C6 H6)'
_chemical_name_systematic        
'catena-(bis(\m~4~-cyanotris(4-cyanophenyl)methane)-tri-silver(i) bis(tetrafluoroborate) benzene solvate)'
_chemical_absolute_configuration unk
_diffrn_ambient_temperature      295
_exptl_crystal_density_diffrn    1.425
#These two values have been output from a single CSD field.
_refine_ls_R_factor_gt           0.066
_refine_ls_wR_factor_gt          0.066
_diffrn_radiation_probe          x-ray
_symmetry_cell_setting           monoclinic
_symmetry_space_group_name_H-M   'C 2/c'
_symmetry_Int_Tables_number      15
_space_group_name_Hall           '-C 2yc'
loop_
_symmetry_equiv_pos_site_id
_symmetry_equiv_pos_as_xyz
1 x,y,z
2 -x,y,1/2-z
3 1/2+x,1/2+y,z
4 1/2-x,1/2+y,1/2-z
5 -x,-y,-z
6 x,-y,1/2+z
7 1/2-x,1/2-y,-z
8 1/2+x,1/2-y,1/2+z
_cell_length_a                   18.0187(4)
_cell_length_b                   14.9717(3)
_cell_length_c                   23.5469(5)
_cell_angle_alpha                90
_cell_angle_beta                 105.5641(8)
_cell_angle_gamma                90
_cell_volume                     6119.33
_exptl_crystal_colour            colorless
_exptl_crystal_description       needlelike
_cell_formula_units_Z            4
loop_
_atom_site_label
_atom_site_type_symbol
_atom_site_fract_x
_atom_site_fract_y
_atom_site_fract_z
Ag1 Ag 0.89889(2) 0.01136(3) 0.27392(2)
C1 C 1.1940(3) -0.4864(3) 0.3764(2)
C2 C 1.1510(3) -0.3961(3) 0.3644(2)
C3 C 1.1438(3) -0.3517(3) 0.3115(2)
C4 C 1.1023(3) -0.2721(4) 0.2999(3)
C5 C 1.0665(3) -0.2393(3) 0.3414(2)
C6 C 1.0732(3) -0.2839(3) 0.3941(2)
C7 C 1.1163(3) -0.3618(3) 0.4053(2)
C8 C 1.0203(3) -0.1603(3) 0.3273(2)
C9 C 1.2557(3) -0.4862(3) 0.3450(2)
C10 C 1.1406(3) -0.5660(3) 0.3527(2)
C11 C 1.0607(3) -0.5574(3) 0.3435(2)
C12 C 1.0153(3) -0.6335(3) 0.3304(2)
C13 C 1.0478(3) -0.7160(4) 0.3259(2)
C14 C 1.1268(3) -0.7240(4) 0.3324(2)
C15 C 1.1721(3) -0.6478(3) 0.3457(2)
C16 C 0.9991(3) -0.7946(4) 0.3152(2)
C17 C 1.2334(3) -0.4973(3) 0.4428(2)
C18 C 1.2107(3) -0.5618(4) 0.4765(2)
C19 C 1.2446(3) -0.5675(4) 0.5371(3)
C20 C 1.3026(3) -0.5073(4) 0.5629(2)
C21 C 1.3257(3) -0.4420(4) 0.5295(3)
C22 C 1.2921(3) -0.4380(4) 0.4698(2)
C23 C 1.3355(3) -0.5120(4) 0.6258(2)
H1 H 1.1666(3) -0.3751(3) 0.2837(2)
H2 H 1.0984(3) -0.2412(4) 0.2649(3)
H3 H 1.0492(3) -0.2618(3) 0.4216(2)
H4 H 1.1218(3) -0.3914(3) 0.4409(2)
H5 H 1.0386(3) -0.5019(3) 0.3462(2)
H6 H 0.9623(3) -0.6289(3) 0.3245(2)
H7 H 1.1485(3) -0.7790(4) 0.3279(2)
H8 H 1.2248(3) -0.6520(3) 0.3500(2)
H9 H 1.1722(3) -0.6020(4) 0.4586(2)
H10 H 1.2288(3) -0.6106(4) 0.5597(3)
H11 H 1.3638(3) -0.4012(4) 0.5474(3)
H12 H 1.3086(3) -0.3954(4) 0.4471(2)
N1 N 0.9822(3) -0.0980(3) 0.3144(2)
N2 N 0.9610(3) -0.8559(3) 0.3064(2)
N3 N 1.3612(2) -0.5147(3) 0.6756(2)
N4 N 1.3015(2) -0.4863(3) 0.3201(2)
C1 C 1.1940(3) 0.5136(3) 0.3764(2)
C2 C 1.1510(3) 0.6039(3) 0.3644(2)
C3 C 1.1438(3) 0.6483(3) 0.3115(2)
C4 C 1.1023(3) 0.7279(4) 0.2999(3)
C5 C 1.0665(3) 0.7607(3) 0.3414(2)
C6 C 1.0732(3) 0.7161(3) 0.3941(2)
C7 C 1.1163(3) 0.6382(3) 0.4053(2)
C8 C 1.0203(3) 0.8397(3) 0.3273(2)
C9 C 1.2557(3) 0.5138(3) 0.3450(2)
C10 C 1.1406(3) 0.4340(3) 0.3527(2)
C11 C 1.0607(3) 0.4426(3) 0.3435(2)
C12 C 1.0153(3) 0.3665(3) 0.3304(2)
C13 C 1.0478(3) 0.2840(4) 0.3259(2)
C14 C 1.1268(3) 0.2760(4) 0.3324(2)
C15 C 1.1721(3) 0.3522(3) 0.3457(2)
C16 C 0.9991(3) 0.2054(4) 0.3152(2)
C17 C 1.2334(3) 0.5027(3) 0.4428(2)
C18 C 1.2107(3) 0.4382(4) 0.4765(2)
C19 C 1.2446(3) 0.4325(4) 0.5371(3)
C20 C 1.3026(3) 0.4927(4) 0.5629(2)
C21 C 1.3257(3) 0.5580(4) 0.5295(3)
C22 C 1.2921(3) 0.5620(4) 0.4698(2)
C23 C 1.3355(3) 0.4880(4) 0.6258(2)
H1 H 1.1666(3) 0.6249(3) 0.2837(2)
H2 H 1.0984(3) 0.7588(4) 0.2649(3)
H3 H 1.0492(3) 0.7382(3) 0.4216(2)
H4 H 1.1218(3) 0.6086(3) 0.4409(2)
H5 H 1.0386(3) 0.4981(3) 0.3462(2)
H6 H 0.9623(3) 0.3711(3) 0.3245(2)
H7 H 1.1485(3) 0.2210(4) 0.3279(2)
H8 H 1.2248(3) 0.3480(3) 0.3500(2)
H9 H 1.1722(3) 0.3980(4) 0.4586(2)
H10 H 1.2288(3) 0.3894(4) 0.5597(3)
H11 H 1.3638(3) 0.5988(4) 0.5474(3)
H12 H 1.3086(3) 0.6046(4) 0.4471(2)
N1 N 0.9822(3) 0.9020(3) 0.3144(2)
N2 N 0.9610(3) 0.1441(3) 0.3064(2)
N3 N 1.3612(2) 0.4853(3) 0.6756(2)
N4 N 1.3015(2) 0.5137(3) 0.3201(2)
Ag1 Ag 0.89889(2) 1.01136(3) 0.27392(2)
N3G N 0.8612(2) 0.0147(3) 0.1756(2)
N4B N 0.8015(2) 0.0137(3) 0.3201(2)
Ag1 Ag 0.89889(2) -0.98864(3) 0.27392(2)
Ag1G Ag 1.39889(2) -0.51136(3) 0.77392(2)
Ag1B Ag 1.39889(2) -0.48864(3) 0.27392(2)
Ag1G Ag 1.39889(2) 0.48864(3) 0.77392(2)
Ag1B Ag 1.39889(2) 0.51136(3) 0.27392(2)
N1G N 1.4822(3) -0.4020(3) 0.8144(2)
N2G N 1.4610(3) -0.6441(3) 0.8064(2)
N4E N 1.3015(2) -0.5137(3) 0.8201(2)
N1G N 1.4822(3) 0.5980(3) 0.8144(2)
N2G N 1.4610(3) 0.3559(3) 0.8064(2)
N4E N 1.3015(2) 0.4863(3) 0.8201(2)
B1 B 0.8526(6) -0.2941(6) 0.3547(5)
F1 F 0.9007(2) -0.3416(3) 0.3317(2)
F2 F 0.7830(2) -0.3347(3) 0.3463(2)
F3 F 0.8853(4) -0.2953(5) 0.4159(3)
F4 F 0.8461(3) -0.2101(3) 0.3321(3)
C24 C 0.8913(5) -0.7054(6) 0.4209(4)
C26 C 0.8382(5) -0.7160(6) 0.3715(4)
C28 C 0.8068(5) -0.6409(6) 0.3322(4)
C30 C 0.8353(5) -0.5591(6) 0.3567(4)
C31 C 0.8873(5) -0.5516(6) 0.4063(4)
C32 C 0.9206(3) -0.6239(4) 0.4410(3)
H13 H 0.9100(5) -0.7556(6) 0.4434(4)
H15 H 0.8195(5) -0.7732(6) 0.3607(4)
H17 H 0.7720(5) -0.6473(6) 0.2953(4)
H19 H 0.8160(5) -0.5073(6) 0.3363(4)
H20 H 0.9035(5) -0.4945(6) 0.4197(4)
H21 H 0.9600(3) -0.6172(4) 0.4755(3)
C25 C 0.9819(3) 0.0301(4) 0.4442(3)
C27 C 1.0243(4) 0.0849(6) 0.4895(4)
C29 C 0.9579(5) -0.0517(6) 0.4531(4)
H14 H 0.9698(3) 0.0519(4) 0.4058(3)
H16 H 1.0701(4) 0.1416(6) 0.4816(4)
H18 H 0.9298(5) -0.0859(6) 0.4216(4)
C29D C 1.0421(5) 0.0517(6) 0.5469(4)
C25D C 1.0181(3) -0.0301(4) 0.5558(3)
C27D C 0.9757(4) -0.0849(6) 0.5105(4)
H16D H 0.9299(4) -0.1416(6) 0.5184(4)
H14D H 1.0302(3) -0.0519(4) 0.5942(3)
H18D H 1.0702(5) 0.0859(6) 0.5784(4)

#END
