####################################################################### 
# 
# This file contains crystal structure data downloaded from the 
# Cambridge Structural Database (CSD) hosted by the Cambridge 
# Crystallographic Data Centre (CCDC).
# 
# Full information about CCDC data access policies and citation 
# guidelines are available at http://www.ccdc.cam.ac.uk/access/V1 
# 
# Audit and citation data items may have been added by the CCDC. 
# Please retain this information to preserve the provenance of 
# this file and to allow appropriate attribution of the data. 
# 
#######################################################################

data_compound_5
_audit_block_doi                 10.5517/cc7xb9r
_database_code_depnum_ccdc_archive 'CCDC 235764'
loop_
_citation_id
_citation_doi
_citation_year
1 10.1039/b405323k 2004
_audit_update_record             
;
2004-04-07 deposited with the CCDC.	2024-07-11 downloaded from the CCDC.
;

_audit_creation_method           SHELXL-97
_chemical_name_systematic        
;
?
;
_chemical_name_common            ?
_chemical_melting_point          ?
_chemical_formula_moiety         "[zn2(oh)l(4,4'-bipy)]n.2.5nh2o"
_chemical_formula_sum            'C16 H17 N2 O9.50 Zn2'
_chemical_formula_weight         520.06

loop_
_atom_type_symbol
_atom_type_description
_atom_type_scat_dispersion_real
_atom_type_scat_dispersion_imag
_atom_type_scat_source
C C 0.0033 0.0016 'International Tables Vol C Tables 4.2.6.8 and 6.1.1.4'
H H 0.0000 0.0000 'International Tables Vol C Tables 4.2.6.8 and 6.1.1.4'
N N 0.0061 0.0033 'International Tables Vol C Tables 4.2.6.8 and 6.1.1.4'
O O 0.0106 0.0060 'International Tables Vol C Tables 4.2.6.8 and 6.1.1.4'
Zn Zn 0.2839 1.4301 'International Tables Vol C Tables 4.2.6.8 and 6.1.1.4'

_symmetry_cell_setting           Monoclinic
_symmetry_space_group_name_H-M   C2/c

loop_
_symmetry_equiv_pos_as_xyz
'x, y, z'
'-x, y, -z+1/2'
'x+1/2, y+1/2, z'
'-x+1/2, y+1/2, -z+1/2'
'-x, -y, -z'
'x, -y, z-1/2'
'-x+1/2, -y+1/2, -z'
'x+1/2, -y+1/2, z-1/2'

_cell_length_a                   8.5416(11)
_cell_length_b                   25.969(3)
_cell_length_c                   18.225(2)
_cell_angle_alpha                90.00
_cell_angle_beta                 95.544(14)
_cell_angle_gamma                90.00
_cell_volume                     4023.7(8)
_cell_formula_units_Z            8
_cell_measurement_temperature    293(2)
_cell_measurement_reflns_used    4357
_cell_measurement_theta_min      3.14
_cell_measurement_theta_max      25.03

_exptl_crystal_description       prism
_exptl_crystal_colour            Colorless
_exptl_crystal_size_max          0.2200
_exptl_crystal_size_mid          0.1600
_exptl_crystal_size_min          0.1500
_exptl_crystal_density_meas      ?
_exptl_crystal_density_diffrn    1.717
_exptl_crystal_density_method    'not measured'
_exptl_crystal_F_000             2104
_exptl_absorpt_coefficient_mu    2.438
_exptl_absorpt_correction_type   Multi-scan
_exptl_absorpt_correction_T_max  1.0000
_exptl_absorpt_correction_T_min  0.7702
_exptl_absorpt_process_details   'Sphere (Rigaku CrystalClear)'

_exptl_special_details           
;
?
;

_diffrn_ambient_temperature      293(2)
_diffrn_radiation_wavelength     0.71073
_diffrn_radiation_type           MoK\a
_diffrn_radiation_source         'rotating-anode generator'
_diffrn_radiation_monochromator  graphite
_diffrn_measurement_device_type  'Rigaku Mercury CCD'
_diffrn_measurement_method       \w
_diffrn_detector_area_resol_mean ?
_diffrn_standards_number         ?
_diffrn_standards_interval_count ?
_diffrn_standards_interval_time  ?
_diffrn_standards_decay_%        ?
_diffrn_reflns_number            12848
_diffrn_reflns_av_R_equivalents  0.0641
_diffrn_reflns_av_sigmaI/netI    0.1139
_diffrn_reflns_limit_h_min       -10
_diffrn_reflns_limit_h_max       10
_diffrn_reflns_limit_k_min       -30
_diffrn_reflns_limit_k_max       24
_diffrn_reflns_limit_l_min       -21
_diffrn_reflns_limit_l_max       21
_diffrn_reflns_theta_min         3.14
_diffrn_reflns_theta_max         25.03
_reflns_number_total             3532
_reflns_number_gt                2267
_reflns_threshold_expression     >2sigma(I)

_computing_data_collection       'CrystalClear (Rigaku Corp., 2002)'
_computing_cell_refinement       'CrystalClear (Rigaku Corp., 2002)'
_computing_data_reduction        'CrystalClear (Rigaku Corp., 2002)'
_computing_structure_solution    'Siemens SHELXTL^TM^ 5'
_computing_structure_refinement  'Siemens SHELXTL^TM^ 5'
_computing_molecular_graphics    ?
_computing_publication_material  'Siemens SHELXTL^TM^ 5'

_refine_special_details          
;
Refinement of F^2^ against ALL reflections.  The weighted R-factor wR and
goodness of fit S are based on F^2^, conventional R-factors R are based
on F, with F set to zero for negative F^2^. The threshold expression of
F^2^ > 2sigma(F^2^) is used only for calculating R-factors(gt) etc. and is
not relevant to the choice of reflections for refinement.  R-factors based
on F^2^ are statistically about twice as large as those based on F, and R-
factors based on ALL data will be even larger.
;

_refine_ls_structure_factor_coef Fsqd
_refine_ls_matrix_type           full
_refine_ls_weighting_details     
'calc w=1/[\s^2^(Fo^2^)+(0.1000P)^2^+0.0000P] where P=(Fo^2^+2Fc^2^)/3'
_atom_sites_solution_primary     direct
_atom_sites_solution_secondary   difmap
_atom_sites_solution_hydrogens   geom
_refine_ls_hydrogen_treatment    constr
_refine_ls_extinction_method     none
_refine_ls_extinction_coef       ?
_refine_ls_number_reflns         3532
_refine_ls_number_parameters     280
_refine_ls_number_restraints     12
_refine_ls_R_factor_all          0.1177
_refine_ls_R_factor_gt           0.0702
_refine_ls_wR_factor_ref         0.2018
_refine_ls_wR_factor_gt          0.1693
_refine_ls_goodness_of_fit_ref   1.000
_refine_ls_restrained_S_all      1.001
_refine_ls_shift/su_max          0.002
_refine_ls_shift/su_mean         0.000

loop_
_atom_site_label
_atom_site_type_symbol
_atom_site_fract_x
_atom_site_fract_y
_atom_site_fract_z
_atom_site_U_iso_or_equiv
_atom_site_adp_type
_atom_site_occupancy
_atom_site_symmetry_multiplicity
_atom_site_calc_flag
_atom_site_refinement_flags
_atom_site_disorder_assembly
_atom_site_disorder_group
Zn1 Zn 0.39961(2) 0.223319(7) 0.471134(12) 0.02869(6) Uani 1 1 d . . .
Zn2 Zn 0.47229(3) 0.337802(8) 0.508355(12) 0.03523(7) Uani 1 1 d . . .
C11 C 0.7550(3) 0.25682(13) 0.81885(15) 0.0929(11) Uani 1 1 d . . .
C12 C 0.6895(3) 0.27603(10) 0.74237(16) 0.0836(11) Uani 1 1 d . . .
H12A H 0.6407 0.3081 0.7407 0.100 Uiso 1 1 calc R . .
C13 C 0.6943(2) 0.25334(7) 0.68191(10) 0.0361(6) Uani 1 1 d . . .
C14 C 0.5922(2) 0.27272(7) 0.61382(10) 0.0346(6) Uani 1 1 d . . .
C15 C 0.7745(2) 0.20179(8) 0.67038(11) 0.0418(6) Uani 1 1 d . . .
H15A H 0.6958 0.1748 0.6634 0.050 Uiso 1 1 calc R . .
H15B H 0.8449 0.1934 0.7137 0.050 Uiso 1 1 calc R . .
C16 C 0.8676(2) 0.20472(7) 0.60263(10) 0.0355(6) Uani 1 1 d . . .
C20 C 0.2698(3) 0.48020(8) 0.56449(13) 0.0646(8) Uani 1 1 d . . .
H20A H 0.2333 0.4939 0.6068 0.078 Uiso 1 1 calc R . .
C21 C 0.3428(3) 0.43405(8) 0.56757(12) 0.0614(8) Uani 1 1 d . . .
H21A H 0.3576 0.4172 0.6127 0.074 Uiso 1 1 calc R . .
C22 C 0.3728(3) 0.43660(7) 0.44671(12) 0.0573(8) Uani 1 1 d . . .
H22A H 0.4077 0.4216 0.4049 0.069 Uiso 1 1 calc R . .
C23 C 0.3014(3) 0.48357(7) 0.43999(13) 0.0518(7) Uani 1 1 d . . .
H23A H 0.2885 0.4997 0.3942 0.062 Uiso 1 1 calc R . .
C24 C 0.2490(2) 0.50711(6) 0.49966(11) 0.0351(6) Uani 1 1 d . . .
C25 C 0.1673(2) 0.55686(7) 0.49394(10) 0.0330(6) Uani 1 1 d . . .
C26 C 0.0843(2) 0.57666(7) 0.54813(10) 0.0367(6) Uani 1 1 d . . .
H26A H 0.0811 0.5585 0.5919 0.044 Uiso 1 1 calc R . .
C27 C 0.0058(2) 0.62260(7) 0.53931(11) 0.0380(6) Uani 1 1 d . . .
H27A H -0.0532 0.6339 0.5765 0.046 Uiso 1 1 calc R . .
C28 C 0.0928(2) 0.63421(7) 0.42908(12) 0.0438(7) Uani 1 1 d . . .
H28A H 0.0994 0.6544 0.3873 0.053 Uiso 1 1 calc R . .
C29 C 0.1711(3) 0.58756(7) 0.43356(12) 0.0518(7) Uani 1 1 d . . .
H29A H 0.2269 0.5770 0.3949 0.062 Uiso 1 1 calc R . .
N21 N 0.39427(19) 0.41164(6) 0.50910(9) 0.0369(5) Uani 1 1 d . . .
N22 N 0.01109(18) 0.65124(5) 0.47995(8) 0.0325(5) Uani 1 1 d . . .
O11 O 0.7541(2) 0.20566(6) 0.82822(8) 0.0776(7) Uani 1 1 d . . .
O12 O 0.79268(18) 0.29441(5) 0.86589(7) 0.0480(5) Uani 1 1 d . . .
O13 O 0.57316(17) 0.32098(5) 0.60537(7) 0.0434(4) Uani 1 1 d . . .
O14 O 0.53469(16) 0.23949(5) 0.57316(7) 0.0415(4) Uani 1 1 d . . .
O15 O 0.90960(15) 0.24610(5) 0.58071(8) 0.0440(4) Uani 1 1 d . . .
O16 O 0.89616(16) 0.16178(4) 0.57330(8) 0.0417(4) Uani 1 1 d . . .
O21 O 0.29229(13) 0.29667(4) 0.47435(6) 0.0266(4) Uani 1 1 d . . .
O1W O 0.6491(3) 0.11883(9) 0.79153(12) 0.1275(10) Uani 1 1 d . . .
O2W O 0.8624(5) 0.38525(14) 0.7860(2) 0.0936(12) Uani 0.50 1 d PU . .
O3W O 0.6075(7) 0.4037(2) 0.7129(3) 0.172(3) Uani 0.50 1 d P . .
O4W O 0.8633(7) 0.07462(18) 0.6954(3) 0.1463(14) Uani 0.50 1 d PU . .

loop_
_atom_site_aniso_label
_atom_site_aniso_U_11
_atom_site_aniso_U_22
_atom_site_aniso_U_33
_atom_site_aniso_U_23
_atom_site_aniso_U_13
_atom_site_aniso_U_12
Zn1 0.03099(10) 0.02041(10) 0.03522(11) -0.00068(9) 0.00595(9) 0.00582(9)
Zn2 0.03999(12) 0.02316(11) 0.04224(13) -0.00177(10) 0.00239(11) 0.00508(10)
C11 0.0644(17) 0.166(3) 0.0490(15) 0.0299(17) 0.0085(13) 0.0282(18)
C12 0.0725(17) 0.0871(19) 0.092(2) 0.0220(16) 0.0123(16) 0.0218(15)
C13 0.0443(11) 0.0428(11) 0.0220(9) -0.0117(9) 0.0078(8) 0.0001(9)
C14 0.0246(9) 0.0492(11) 0.0314(10) 0.0056(9) 0.0099(8) 0.0049(9)
C15 0.0441(11) 0.0485(12) 0.0327(11) -0.0027(10) 0.0033(9) -0.0017(10)
C16 0.0275(9) 0.0494(11) 0.0298(10) 0.0030(9) 0.0032(8) 0.0057(9)
C20 0.1040(18) 0.0471(12) 0.0437(13) 0.0028(11) 0.0120(13) 0.0398(12)
C21 0.1030(18) 0.0416(12) 0.0387(12) 0.0061(10) 0.0029(13) 0.0296(12)
C22 0.0841(15) 0.0456(12) 0.0463(12) 0.0186(10) 0.0268(11) 0.0330(11)
C23 0.0746(15) 0.0326(11) 0.0504(13) 0.0056(10) 0.0173(12) 0.0156(11)
C24 0.0372(10) 0.0243(10) 0.0432(11) 0.0006(9) 0.0008(9) 0.0080(8)
C25 0.0376(10) 0.0232(10) 0.0383(11) 0.0022(8) 0.0035(9) 0.0058(8)
C26 0.0559(12) 0.0277(10) 0.0262(10) 0.0114(8) 0.0027(9) 0.0131(9)
C27 0.0426(11) 0.0340(10) 0.0382(11) 0.0008(9) 0.0084(9) 0.0064(9)
C28 0.0563(12) 0.0284(10) 0.0480(12) 0.0093(9) 0.0115(10) 0.0151(9)
C29 0.0658(14) 0.0467(12) 0.0457(12) -0.0096(10) 0.0200(11) 0.0161(10)
N21 0.0403(9) 0.0260(8) 0.0441(10) 0.0004(7) 0.0035(8) 0.0034(7)
N22 0.0404(9) 0.0188(7) 0.0390(9) -0.0010(7) 0.0068(7) 0.0085(7)
O11 0.1267(15) 0.0792(11) 0.0282(8) 0.0201(8) 0.0136(9) 0.0271(10)
O12 0.0683(10) 0.0450(8) 0.0290(7) 0.0044(6) -0.0041(7) -0.0068(7)
O13 0.0619(9) 0.0333(7) 0.0336(7) 0.0013(6) -0.0034(7) 0.0069(7)
O14 0.0520(8) 0.0312(7) 0.0371(7) -0.0047(6) -0.0167(7) 0.0079(6)
O15 0.0498(8) 0.0263(7) 0.0608(8) 0.0071(6) 0.0301(6) 0.0056(6)
O16 0.0459(8) 0.0265(7) 0.0534(8) -0.0088(6) 0.0079(7) 0.0051(6)
O21 0.0260(6) 0.0188(6) 0.0352(7) 0.0014(5) 0.0036(5) 0.0051(5)
O1W 0.157(2) 0.1468(18) 0.0853(15) -0.0185(14) 0.0444(14) -0.0186(17)
O2W 0.101(2) 0.0866(19) 0.090(2) 0.0099(16) -0.0050(17) -0.0080(17)
O3W 0.166(5) 0.217(5) 0.140(4) -0.049(4) 0.049(4) -0.020(4)
O4W 0.144(2) 0.145(2) 0.150(2) -0.038(2) 0.013(2) 0.007(2)

_geom_special_details            
;
All esds (except the esd in the dihedral angle between two l.s. planes)
are estimated using the full covariance matrix.  The cell esds are taken
into account individually in the estimation of esds in distances, angles
and torsion angles; correlations between esds in cell parameters are only
used when they are defined by crystal symmetry.  An approximate (isotropic)
treatment of cell esds is used for estimating esds involving l.s. planes.
;

loop_
_geom_bond_atom_site_label_1
_geom_bond_atom_site_label_2
_geom_bond_distance
_geom_bond_site_symmetry_2
_geom_bond_publ_flag
Zn1 O21 2.0634(12) 7_556 ?
Zn1 O12 2.0944(13) 8_455 ?
Zn1 N22 2.0993(14) 3_545 ?
Zn1 O15 2.1159(14) 7_656 ?
Zn1 O21 2.1172(11) . ?
Zn1 O14 2.1332(13) . ?
Zn1 Zn2 3.0989(4) . ?
Zn2 O21 1.9248(11) . ?
Zn2 O13 1.9403(13) . ?
Zn2 O16 1.9494(15) 7_656 ?
Zn2 N21 2.0306(15) . ?
C11 O12 1.318(3) . ?
C11 O11 1.340(4) . ?
C11 C12 1.534(4) . ?
C12 C13 1.254(3) . ?
C13 C15 1.527(3) . ?
C13 C14 1.531(3) . ?
C14 O14 1.210(2) . ?
C14 O13 1.271(2) . ?
C15 C16 1.534(3) . ?
C16 O15 1.212(2) . ?
C16 O16 1.270(2) . ?
C20 C21 1.350(3) . ?
C20 C24 1.370(3) . ?
C21 N21 1.326(3) . ?
C22 N21 1.306(3) . ?
C22 C23 1.364(3) . ?
C23 C24 1.361(3) . ?
C24 C25 1.467(2) . ?
C25 C29 1.362(3) . ?
C25 C26 1.370(3) . ?
C26 C27 1.370(3) . ?
C27 N22 1.317(2) . ?
C28 N22 1.291(3) . ?
C28 C29 1.382(3) . ?
N22 Zn1 2.0993(14) 3_455 ?
O12 Zn1 2.0944(13) 8_556 ?
O15 Zn1 2.1159(14) 7_656 ?
O16 Zn2 1.9494(15) 7_656 ?
O21 Zn1 2.0634(12) 7_556 ?

loop_
_geom_angle_atom_site_label_1
_geom_angle_atom_site_label_2
_geom_angle_atom_site_label_3
_geom_angle
_geom_angle_site_symmetry_1
_geom_angle_site_symmetry_3
_geom_angle_publ_flag
O21 Zn1 O12 95.12(5) 7_556 8_455 ?
O21 Zn1 N22 96.57(5) 7_556 3_545 ?
O12 Zn1 N22 91.63(6) 8_455 3_545 ?
O21 Zn1 O15 172.46(5) 7_556 7_656 ?
O12 Zn1 O15 87.72(6) 8_455 7_656 ?
N22 Zn1 O15 90.32(5) 3_545 7_656 ?
O21 Zn1 O21 81.19(5) 7_556 . ?
O12 Zn1 O21 94.10(5) 8_455 . ?
N22 Zn1 O21 174.01(5) 3_545 . ?
O15 Zn1 O21 91.65(5) 7_656 . ?
O21 Zn1 O14 91.02(5) 7_556 . ?
O12 Zn1 O14 173.13(6) 8_455 . ?
N22 Zn1 O14 84.59(5) 3_545 . ?
O15 Zn1 O14 86.58(5) 7_656 . ?
O21 Zn1 O14 89.88(5) . . ?
O21 Zn1 Zn2 106.71(3) 7_556 . ?
O12 Zn1 Zn2 118.15(4) 8_455 . ?
N22 Zn1 Zn2 139.37(4) 3_545 . ?
O15 Zn1 Zn2 65.86(3) 7_656 . ?
O21 Zn1 Zn2 37.71(3) . . ?
O14 Zn1 Zn2 62.63(3) . . ?
O21 Zn2 O13 116.04(5) . . ?
O21 Zn2 O16 104.99(5) . 7_656 ?
O13 Zn2 O16 117.31(6) . 7_656 ?
O21 Zn2 N21 105.89(6) . . ?
O13 Zn2 N21 108.89(6) . . ?
O16 Zn2 N21 102.33(6) 7_656 . ?
O21 Zn2 Zn1 42.29(3) . . ?
O13 Zn2 Zn1 92.60(4) . . ?
O16 Zn2 Zn1 87.49(3) 7_656 . ?
N21 Zn2 Zn1 148.05(5) . . ?
O12 C11 O11 131.0(2) . . ?
O12 C11 C12 113.2(2) . . ?
O11 C11 C12 115.6(2) . . ?
C13 C12 C11 127.3(2) . . ?
C12 C13 C15 125.9(2) . . ?
C12 C13 C14 119.6(2) . . ?
C15 C13 C14 113.85(15) . . ?
O14 C14 O13 126.09(17) . . ?
O14 C14 C13 115.31(16) . . ?
O13 C14 C13 118.59(16) . . ?
C13 C15 C16 109.97(16) . . ?
O15 C16 O16 124.37(18) . . ?
O15 C16 C15 120.13(17) . . ?
O16 C16 C15 115.50(16) . . ?
C21 C20 C24 120.7(2) . . ?
N21 C21 C20 123.0(2) . . ?
N21 C22 C23 123.1(2) . . ?
C24 C23 C22 120.6(2) . . ?
C23 C24 C20 115.78(18) . . ?
C23 C24 C25 122.00(18) . . ?
C20 C24 C25 122.13(19) . . ?
C29 C25 C26 114.64(17) . . ?
C29 C25 C24 121.65(18) . . ?
C26 C25 C24 123.71(17) . . ?
C25 C26 C27 121.57(18) . . ?
N22 C27 C26 122.18(18) . . ?
N22 C28 C29 123.34(19) . . ?
C25 C29 C28 120.8(2) . . ?
C22 N21 C21 116.88(17) . . ?
C22 N21 Zn2 118.78(14) . . ?
C21 N21 Zn2 123.67(13) . . ?
C28 N22 C27 117.40(16) . . ?
C28 N22 Zn1 121.54(13) . 3_455 ?
C27 N22 Zn1 120.99(13) . 3_455 ?
C11 O12 Zn1 119.35(15) . 8_556 ?
C14 O13 Zn2 111.89(11) . . ?
C14 O14 Zn1 145.83(12) . . ?
C16 O15 Zn1 138.13(13) . 7_656 ?
C16 O16 Zn2 117.67(12) . 7_656 ?
Zn2 O21 Zn1 129.16(6) . 7_556 ?
Zn2 O21 Zn1 100.00(5) . . ?
Zn1 O21 Zn1 98.81(5) 7_556 . ?

_diffrn_measured_fraction_theta_max 0.992
_diffrn_reflns_theta_full        25.03
_diffrn_measured_fraction_theta_full 0.992
_refine_diff_density_max         1.269
_refine_diff_density_min         -0.604
_refine_diff_density_rms         0.136
