
#######################################################################
#
#                 Cambridge Crystallographic Data Centre
#                                CCDC
#
#######################################################################
#
# If this CIF has been generated from an entry in the Cambridge
# Structural Database, then it will include bibliographic, chemical,
# crystal, experimental, refinement or atomic coordinate data resulting
# from the CCDC's data processing and validation procedures.
#
#######################################################################

data_CSD_CIF_OCHTET21
_audit_creation_date 2011-08-15
_audit_creation_method CSD-ConQuest-V1
_database_code_CSD OCHTET21
_database_code_depnum_ccdc_archive 'CCDC 792934'
_chemical_formula_sum 'C4 H8 N8 O8'
_chemical_formula_moiety
;
C4 H8 N8 O8
;
_journal_coden_Cambridge 1003
_journal_volume 41
_journal_year 2011
_journal_page_first 966
_journal_name_full 'J.Chem.Cryst. '
loop_
_publ_author_name
"J.R.Deschamps"
"M.Frisch"
"D.Parrish"
_chemical_name_systematic
;
1,3,5,7-Tetranitro-1,3,5,7-tetra-azacyclo-octane
;
_chemical_name_common
;
Teaching Subset: Symmetry
;
_cell_volume    505.970
_exptl_crystal_colour 'colorless'
_exptl_crystal_density_diffrn 1.944
_exptl_special_details
;
beta-phase
for isomer see [OCHTET]
beta polymorph
explosive

;
_exptl_crystal_description 'prism'
_diffrn_ambient_temperature 123
#These two values have been output from a single CSD field.
_refine_ls_R_factor_gt 0.0273
_refine_ls_wR_factor_gt 0.0273
_symmetry_cell_setting monoclinic
_symmetry_space_group_name_H-M 'P 21/n'
_symmetry_Int_Tables_number 14
loop_
_symmetry_equiv_pos_site_id
_symmetry_equiv_pos_as_xyz
1 x,y,z
2 1/2-x,1/2+y,1/2-z
3 -x,-y,-z
4 -1/2+x,-1/2-y,-1/2+z
_cell_length_a 6.5250(8)
_cell_length_b 10.8400(13)
_cell_length_c 7.3207(9)
_cell_angle_alpha 90
_cell_angle_beta 102.271(2)
_cell_angle_gamma 90
_cell_formula_units_Z 2
loop_
_atom_type_symbol
_atom_type_radius_bond
C 0.68
H 0.23
N 0.68
O 0.68
loop_
_atom_site_label
_atom_site_type_symbol
_atom_site_fract_x
_atom_site_fract_y
_atom_site_fract_z
N1 N 0.98131(12) 0.62363(7) 0.45913(11)
O1 O 1.27356(11) 0.72074(7) 0.43411(10)
N2 N 1.14125(13) 0.70413(7) 0.52909(12)
N3 N 0.85667(12) 0.52708(7) 0.70741(11)
O2 O 0.72403(12) 0.42932(7) 0.9242(1)
N4 N 0.69509(13) 0.50284(8) 0.79373(11)
O3 O 1.14225(12) 0.74933(7) 0.68245(10)
C1 C 0.80788(14) 0.61698(8) 0.55187(13)
H1 H 0.67960 0.59100 0.46180
H2 H 0.78200 0.69930 0.60110
O4 O 0.53179(11) 0.56181(7) 0.73640(11)
C2 C 0.97809(14) 0.56493(8) 0.27926(12)
H3 H 0.8418(8) 0.5261(9) 0.2404(14)
H4 H 0.9948(15) 0.6239(9) 0.1839(11)
N1B N 1.01869(12) 0.37637(7) 0.54087(11)
O1B O 0.72644(11) 0.27926(7) 0.56589(10)
N2B N 0.85875(13) 0.29587(7) 0.47091(12)
N3B N 1.14333(12) 0.47292(7) 0.29259(11)
O2B O 1.27597(12) 0.57068(7) 0.0758(1)
N4B N 1.30491(13) 0.49716(8) 0.20627(11)
O3B O 0.85775(12) 0.25067(7) 0.31755(10)
C1B C 1.19212(14) 0.38302(8) 0.44813(13)
H1B H 1.32040 0.40900 0.53820
H2B H 1.21800 0.30070 0.39890
O4B O 1.46821(11) 0.43819(7) 0.26360(11)
C2B C 1.02191(14) 0.43507(8) 0.72074(12)
H3B H 1.1582(8) 0.4739(9) 0.7596(14)
H4B H 1.0052(15) 0.3761(9) 0.8161(11)
#END
