
#######################################################################
#
#                 Cambridge Crystallographic Data Centre
#                                CCDC
#
#######################################################################
#
# If this CIF has been generated from an entry in the Cambridge
# Structural Database, then it will include bibliographic, chemical,
# crystal, experimental, refinement or atomic coordinate data resulting
# from the CCDC's data processing and validation procedures.
#
#######################################################################

data_CSD_CIF_OCOPEC
_audit_creation_date 2006-07-13
_audit_creation_method CSD-ConQuest-V1
_database_code_CSD OCOPEC
_database_code_depnum_ccdc_archive 'CCDC 274702'
_chemical_formula_sum 'C29 H11 B1 Br2 F15 Ti1'
_chemical_formula_moiety
;
C28 H9 B1 Br1 F15 Ti1,0.5(C2 H4 Br2)
;
_journal_coden_Cambridge 36
_journal_volume 691
_journal_year 2006
_journal_page_first 557
_journal_name_full 'J.Organomet.Chem. '
loop_
_publ_author_name
"L.I.Strunkina"
"M.Kh.Minacheva"
"K.A.Lyssenko"
"V.V.Burlakov"
"W.Baumann"
"P.Arndt"
"B.N.Strunin"
"V.B.Shur"
_chemical_name_systematic
;
(\h^5^-tris(Pentafluorophenyl)cyclopentadienylborate)-(\h^5^-cyclopentadienyl)
-bromo-titanium(iv) 1,2-dibromoethane solvate
;
_chemical_name_common
;
Teaching Subset: Fundamental Chemistry
;
_chemical_melting_point 465
_cell_volume   2825.626
_exptl_crystal_colour 'red'
_exptl_crystal_density_diffrn 2.028
_exptl_special_details
;
Melting point range 465-467K
isomorphous with the tetrachloromethane solvate

;
_exptl_crystal_description 'prism'
_diffrn_ambient_temperature 110
_refine_special_details
;
A cyclopentadienyl ring was refined over two sites at occupancy 0.67:0.33 
(paper quotes occupancy factors as 0.8:0.2). The Br atoms of the solvent was 
refined over two sites at half occupancy.
;
#These two values have been output from a single CSD field.
_refine_ls_R_factor_gt 0.0483
_refine_ls_wR_factor_gt 0.0483
_symmetry_cell_setting monoclinic
_symmetry_space_group_name_H-M 'P 21/c'
_symmetry_Int_Tables_number 14
loop_
_symmetry_equiv_pos_site_id
_symmetry_equiv_pos_as_xyz
1 x,y,z
2 -x,1/2+y,1/2-z
3 -x,-y,-z
4 x,-1/2-y,-1/2+z
_cell_length_a 10.7144(12)
_cell_length_b 14.2545(16)
_cell_length_c 18.547(2)
_cell_angle_alpha 90
_cell_angle_beta 94.037(3)
_cell_angle_gamma 90
_cell_formula_units_Z 4
loop_
_atom_type_symbol
_atom_type_radius_bond
C 0.68
H 0.23
B 0.83
Br 1.21
F 0.64
Ti 1.47
loop_
_atom_site_label
_atom_site_type_symbol
_atom_site_fract_x
_atom_site_fract_y
_atom_site_fract_z
Br1 Br 0.60041(4) 0.68518(3) 0.18583(2)
Ti1 Ti 0.47017(7) 0.56045(5) 0.23320(4)
C1 C 0.3976(4) 0.4471(3) 0.14456(19)
C2 C 0.5103(4) 0.4881(3) 0.1243(2)
H1 H 0.52060 0.52080 0.07860
C3 C 0.6087(4) 0.4652(3) 0.1764(2)
H2 H 0.69780 0.47790 0.17220
C4 C 0.5583(4) 0.4127(3) 0.2306(2)
H3 H 0.60560 0.38150 0.27100
C5 C 0.4293(4) 0.4032(2) 0.21224(19)
H4 H 0.37200 0.36510 0.23890
H5 H 0.52570 0.72300 0.33830
C6 C 0.5348(9) 0.5463(10) 0.3557(3)
H6 H 0.60920 0.51280 0.37580
C7 C 0.4106(13) 0.5093(6) 0.3469(4)
H7 H 0.38570 0.44530 0.35880
C8 C 0.3337(7) 0.5778(10) 0.3240(3)
H8 H 0.24240 0.57260 0.31750
C9 C 0.4020(9) 0.6622(5) 0.3216(3)
H9 H 0.36710 0.72510 0.31340
C10 C 0.5266(8) 0.6404(6) 0.3419(4)
C11 C 0.2514(4) 0.3646(2) 0.03824(19)
F1 F 0.0353(2) 0.39576(15) 0.01663(12)
C12 C 0.1355(4) 0.3417(3) 0.0049(2)
F2 F -0.0013(2) 0.24772(15) -0.07031(12)
C13 C 0.1143(4) 0.2669(3) -0.0410(2)
F3 F 0.1921(2) 0.13519(16) -0.09969(13)
C14 C 0.2109(4) 0.2092(3) -0.0549(2)
F4 F 0.4260(2) 0.17216(16) -0.03728(13)
C15 C 0.3293(4) 0.2277(3) -0.0238(2)
F5 F 0.4647(2) 0.31799(15) 0.04801(12)
C16 C 0.3460(3) 0.3051(3) 0.02127(19)
C17 C 0.1492(3) 0.4338(3) 0.15412(19)
F6 F 0.0561(2) 0.58531(14) 0.14456(11)
C18 C 0.0598(3) 0.4978(3) 0.17253(19)
F7 F -0.1172(2) 0.54471(16) 0.23290(12)
C19 C -0.0323(4) 0.4794(3) 0.2189(2)
C20 C -0.0390(4) 0.3911(3) 0.2488(2)
F8 F -0.1304(2) 0.37166(18) 0.29291(13)
F9 F 0.0387(2) 0.23813(16) 0.25989(13)
C21 C 0.0446(4) 0.3237(3) 0.2323(2)
F10 F 0.2144(2) 0.27571(15) 0.17126(11)
C22 C 0.1362(4) 0.3465(3) 0.1861(2)
C23 C 0.2561(3) 0.5555(3) 0.05944(19)
F11 F 0.1970(2) 0.50955(15) -0.06157(11)
C24 C 0.2321(3) 0.5776(3) -0.01441(19)
F12 F 0.2111(2) 0.68183(15) -0.11242(11)
C25 C 0.2386(4) 0.6667(3) -0.0415(2)
F13 F 0.2782(2) 0.82779(15) -0.02375(12)
C26 C 0.2708(4) 0.7413(3) 0.0029(2)
F14 F 0.3237(2) 0.79668(15) 0.12053(11)
C27 C 0.2951(3) 0.7245(3) 0.0759(2)
F15 F 0.3086(2) 0.62355(14) 0.17486(10)
C28 C 0.2872(3) 0.6343(3) 0.09928(19)
B1 B 0.2618(4) 0.4510(3) 0.0984(2)
C29 C 0.0450(5) 0.5357(4) 0.4917(3)
H10 H 0.05760 0.57840 0.53160
H11 H 0.12190 0.50360 0.48430
Br2 Br -0.02047(12) 0.59992(14) 0.40232(11)
C30? C 0.5421(4) 0.5743(2) 0.35485(19)
H12? H 0.62870 0.56560 0.37440
C31? C 0.4483(4) 0.5038(2) 0.34894(19)
H13? H 0.45900 0.43830 0.36440
C32? C 0.3331(4) 0.5473(2) 0.32602(19)
H14? H 0.25100 0.51680 0.32210
C33? C 0.3557(4) 0.6448(2) 0.31776(19)
H15? H 0.29210 0.69280 0.30590
C34? C 0.4848(4) 0.6614(2) 0.33558(19)
H16? H 0.59500 0.68580 0.34930
Br3? Br -0.0744(7) 0.5870(6) 0.4033(4)
C29B C -0.0450(5) 0.4643(4) 0.5083(3)
H10B H -0.05760 0.42160 0.46840
H11B H -0.12190 0.49640 0.51570
Br2B Br 0.02047(12) 0.40008(14) 0.59768(11)
#END
