####################################################################### 
# 
# This file contains crystal structure data downloaded from the 
# Cambridge Structural Database (CSD) hosted by the Cambridge 
# Crystallographic Data Centre (CCDC).
# 
# Full information about CCDC data access policies and citation 
# guidelines are available at http://www.ccdc.cam.ac.uk/access/V1 
# 
# Audit and citation data items may have been added by the CCDC. 
# Please retain this information to preserve the provenance of 
# this file and to allow appropriate attribution of the data. 
# 
#######################################################################

data_5
_audit_block_doi                 10.5517/cc5pckr
_database_code_depnum_ccdc_archive 'CCDC 169494'
loop_
_citation_id
_citation_doi
_citation_year
1 10.1002/1521-3773(20020215)41:4<583::AID-ANIE583>3.0.CO;2-I 2002
_audit_update_record             
;
2001-08-24 deposited with the CCDC.	2024-07-11 downloaded from the CCDC.
;

_audit_creation_method           SHELXL-97
_chemical_name_systematic        
; 
? 
;
_chemical_name_common            ?
_chemical_melting_point          ?
_chemical_formula_moiety         
; 
[Cu(C30H24N2)4/2(H2O)(NO3)2] (solvent)x 
;
_chemical_formula_sum            'C62 H50 Cu N5 O4'
_chemical_formula_weight         992.61

loop_
_atom_type_symbol
_atom_type_description
_atom_type_scat_dispersion_real
_atom_type_scat_dispersion_imag
_atom_type_scat_source
C C 0.0033 0.0016 'International Tables Vol C Tables 4.2.6.8 and 6.1.1.4'
H H 0.0000 0.0000 'International Tables Vol C Tables 4.2.6.8 and 6.1.1.4'
N N 0.0061 0.0033 'International Tables Vol C Tables 4.2.6.8 and 6.1.1.4'
O O 0.0106 0.0060 'International Tables Vol C Tables 4.2.6.8 and 6.1.1.4'
Cu Cu 0.3201 1.2651 'International Tables Vol C Tables 4.2.6.8 and 6.1.1.4'

_symmetry_cell_setting           monoclinic
_symmetry_space_group_name_H-M   'P 21/c'

loop_
_symmetry_equiv_pos_as_xyz
'x, y, z'
'-x, y+1/2, -z+1/2'
'-x, -y, -z'
'x, -y-1/2, z-1/2'

_cell_length_a                   33.373(3)
_cell_length_b                   33.578(3)
_cell_length_c                   8.5066(9)
_cell_angle_alpha                90.00
_cell_angle_beta                 97.029(3)
_cell_angle_gamma                90.00
_cell_volume                     9461.0(17)
_cell_formula_units_Z            4
_cell_measurement_temperature    293(2)
_cell_measurement_reflns_used    6892
_cell_measurement_theta_min      2.208
_cell_measurement_theta_max      22.89

_exptl_crystal_description       'rectangular bar'
_exptl_crystal_colour            green
_exptl_crystal_size_max          0.40
_exptl_crystal_size_mid          0.20
_exptl_crystal_size_min          0.18
_exptl_crystal_density_meas      ?
_exptl_crystal_density_diffrn    0.697
_exptl_crystal_density_method    'not measured'
_exptl_crystal_F_000             2072
_exptl_absorpt_coefficient_mu    0.260
_exptl_absorpt_correction_type   multi-scan
_exptl_absorpt_correction_T_min  0.8556
_exptl_absorpt_correction_T_max  0.9802
_exptl_absorpt_process_details   '(SADABS, Bruker, 1997)'

_exptl_special_details           
; 
? 
;

_diffrn_ambient_temperature      293(2)
_diffrn_radiation_wavelength     0.71073
_diffrn_radiation_type           MoK\a
_diffrn_radiation_source         'sealed tube'
_diffrn_radiation_monochromator  graphite
_diffrn_measurement_device_type  'Bruker SMART APEX CCD diffractometer'
_diffrn_measurement_method       'omega scans'
_diffrn_detector_area_resol_mean ?
_diffrn_standards_number         ?
_diffrn_standards_interval_count ?
_diffrn_standards_interval_time  ?
_diffrn_standards_decay_%        none
_diffrn_reflns_number            55524
_diffrn_reflns_av_R_equivalents  0.0724
_diffrn_reflns_av_sigmaI/netI    0.1044
_diffrn_reflns_limit_h_min       -35
_diffrn_reflns_limit_h_max       39
_diffrn_reflns_limit_k_min       -39
_diffrn_reflns_limit_k_max       39
_diffrn_reflns_limit_l_min       -10
_diffrn_reflns_limit_l_max       10
_diffrn_reflns_theta_min         0.86
_diffrn_reflns_theta_max         25.07
_reflns_number_total             16730
_reflns_number_gt                6324
_reflns_threshold_expression     >2sigma(I)

_computing_data_collection       'SMART NT V5.619 (Bruker, 2000)'
_computing_cell_refinement       'SAINT+ NT V6.02a (Bruker, 1998)'
_computing_data_reduction        'SAINT+ NT V6.02a'
_computing_structure_solution    'SHELXS-97 (Sheldrick, 1990)'
_computing_structure_refinement  'SHELXL-97 (Sheldrick, 1997)'
_computing_molecular_graphics    'SHELXTL V5.1 (Sheldrick, 1997)'
_computing_publication_material  'SHELXTL V5.1'

_refine_special_details          
; 
Refinement of F^2^ against ALL reflections.  The weighted R-factor wR and 
goodness of fit S are based on F^2^, conventional R-factors R are based 
on F, with F set to zero for negative F^2^. The threshold expression of 
F^2^ > 2sigma(F^2^) is used only for calculating R-factors(gt) etc. and is 
not relevant to the choice of reflections for refinement.  R-factors based 
on F^2^ are statistically about twice as large as those based on F, and R- 
factors based on ALL data will be even larger. 
;

_refine_ls_structure_factor_coef Fsqd
_refine_ls_matrix_type           full
_refine_ls_weighting_scheme      calc
_refine_ls_weighting_details     
; calc 
[0.00000+1.00000exp(3.50(sin\q/\l)^2^)]/ 
[\s^2^(Fo^2^)+0.0000+0.0000*P+(0.0705P)^2^+0.0000sin\q/\l] 
where P = 0.33333Fo^2^ + 0.66667Fc^2^ 
;
_atom_sites_solution_primary     direct
_atom_sites_solution_secondary   difmap
_atom_sites_solution_hydrogens   geom
_refine_ls_hydrogen_treatment    mixed
_refine_ls_extinction_method     none
_refine_ls_extinction_coef       ?
_refine_ls_number_reflns         16730
_refine_ls_number_parameters     633
_refine_ls_number_restraints     7
_refine_ls_R_factor_all          0.1242
_refine_ls_R_factor_gt           0.0541
_refine_ls_wR_factor_ref         0.1512
_refine_ls_wR_factor_gt          0.1338
_refine_ls_goodness_of_fit_ref   0.964
_refine_ls_restrained_S_all      0.967
_refine_ls_shift/su_max          0.002
_refine_ls_shift/su_mean         0.000

loop_
_atom_site_label
_atom_site_type_symbol
_atom_site_fract_x
_atom_site_fract_y
_atom_site_fract_z
_atom_site_U_iso_or_equiv
_atom_site_adp_type
_atom_site_occupancy
_atom_site_symmetry_multiplicity
_atom_site_calc_flag
_atom_site_refinement_flags
_atom_site_disorder_assembly
_atom_site_disorder_group
Cu Cu 0.749520(11) 0.091262(9) 0.99218(6) 0.06834(15) Uani 1 1 d . . .
C1 C 0.80952(9) 0.13054(9) 0.8188(4) 0.0730(10) Uani 1 1 d . . .
H1 H 0.8075 0.1069 0.7617 0.088 Uiso 1 1 calc R . .
C2 C 0.83465(9) 0.16032(10) 0.7734(5) 0.0826(11) Uani 1 1 d . . .
H2 H 0.8488 0.1566 0.6869 0.099 Uiso 1 1 calc R . .
C3 C 0.83835(9) 0.19508(10) 0.8574(5) 0.0726(10) Uani 1 1 d . . .
C4 C 0.81677(10) 0.19859(9) 0.9848(5) 0.0815(11) Uani 1 1 d . . .
H4 H 0.8186 0.2217 1.0455 0.098 Uiso 1 1 calc R . .
C5 C 0.79255(9) 0.16773(9) 1.0215(5) 0.0782(11) Uani 1 1 d . . .
H5 H 0.7784 0.1705 1.1085 0.094 Uiso 1 1 calc R . .
C6 C 0.86337(10) 0.22738(10) 0.8160(5) 0.0855(12) Uani 1 1 d . . .
C7 C 0.88325(10) 0.25540(11) 0.7867(5) 0.0929(13) Uani 1 1 d . . .
C8 C 0.90605(10) 0.29003(11) 0.7563(5) 0.0845(12) Uani 1 1 d . . .
C9 C 0.94004(10) 0.28607(10) 0.6753(5) 0.0851(12) Uani 1 1 d . . .
H9 H 0.9474 0.2614 0.6389 0.102 Uiso 1 1 calc R . .
C10 C 0.96246(9) 0.32009(10) 0.6507(5) 0.0784(11) Uani 1 1 d . . .
C11 C 0.95002(10) 0.35684(10) 0.6976(5) 0.0790(11) Uani 1 1 d . . .
C12 C 0.91558(10) 0.36088(10) 0.7732(5) 0.0951(13) Uani 1 1 d . . .
H12 H 0.9068 0.3858 0.8020 0.114 Uiso 1 1 calc R . .
C13 C 0.89466(11) 0.32632(12) 0.8043(5) 0.1006(13) Uani 1 1 d . . .
H13 H 0.8723 0.3283 0.8594 0.121 Uiso 1 1 calc R . .
C14 C 1.00152(11) 0.32291(10) 0.5761(6) 0.0937(13) Uani 1 1 d . . .
C15 C 1.03604(13) 0.29897(12) 0.6839(9) 0.147(3) Uani 1 1 d . . .
H15A H 1.0298 0.2708 0.6733 0.176 Uiso 1 1 calc R . .
H15B H 1.0612 0.3032 0.6404 0.176 Uiso 1 1 calc R . .
C16 C 1.04303(17) 0.30827(18) 0.8548(8) 0.166(3) Uani 1 1 d . . .
H16A H 1.0509 0.3356 0.8689 0.249 Uiso 1 1 calc R . .
H16B H 1.0640 0.2914 0.9052 0.249 Uiso 1 1 calc R . .
H16C H 1.0186 0.3038 0.9014 0.249 Uiso 1 1 calc R . .
C17 C 0.99633(17) 0.30983(14) 0.4036(8) 0.1323(19) Uani 1 1 d . . .
H17A H 1.0222 0.3128 0.3636 0.159 Uiso 1 1 calc R . .
H17B H 0.9898 0.2817 0.4004 0.159 Uiso 1 1 calc R . .
C18 C 0.9651(2) 0.33104(16) 0.2920(7) 0.169(2) Uani 1 1 d . . .
H18A H 0.9396 0.3302 0.3333 0.254 Uiso 1 1 calc R . .
H18B H 0.9626 0.3182 0.1904 0.254 Uiso 1 1 calc R . .
H18C H 0.9730 0.3583 0.2810 0.254 Uiso 1 1 calc R . .
C19 C 0.97932(10) 0.38703(10) 0.6606(5) 0.0807(11) Uani 1 1 d . . .
C20 C 1.00989(11) 0.36787(10) 0.5936(5) 0.0895(12) Uani 1 1 d . . .
C21 C 1.04255(10) 0.38943(11) 0.5509(5) 0.0941(13) Uani 1 1 d . . .
H21 H 1.0630 0.3767 0.5051 0.113 Uiso 1 1 calc R . .
C22 C 1.04392(11) 0.43005(11) 0.5779(5) 0.0908(12) Uani 1 1 d . . .
C23 C 1.01260(12) 0.44886(11) 0.6400(5) 0.0962(13) Uani 1 1 d . . .
H23 H 1.0134 0.4764 0.6532 0.115 Uiso 1 1 calc R . .
C24 C 0.98047(10) 0.42812(10) 0.6826(5) 0.0938(13) Uani 1 1 d . . .
H24 H 0.9598 0.4412 0.7256 0.113 Uiso 1 1 calc R . .
C25 C 1.07853(11) 0.45299(11) 0.5465(5) 0.1025(14) Uani 1 1 d . . .
C26 C 1.10700(11) 0.47274(11) 0.5304(6) 0.1062(15) Uani 1 1 d . . .
C27 C 1.14121(11) 0.49845(11) 0.5127(5) 0.0870(12) Uani 1 1 d . . .
C28 C 1.17847(12) 0.49063(11) 0.5929(6) 0.1199(17) Uani 1 1 d . . .
H28 H 1.1825 0.4675 0.6527 0.144 Uiso 1 1 calc R . .
C29 C 1.21026(10) 0.51685(10) 0.5861(6) 0.1092(16) Uani 1 1 d . . .
H29 H 1.2353 0.5111 0.6419 0.131 Uiso 1 1 calc R . .
C30 C 1.16962(10) 0.55699(10) 0.4199(5) 0.0832(11) Uani 1 1 d . . .
H30 H 1.1661 0.5800 0.3592 0.100 Uiso 1 1 calc R . .
C31 C 1.13734(10) 0.53174(11) 0.4208(5) 0.0970(13) Uani 1 1 d . . .
H31 H 1.1130 0.5373 0.3591 0.116 Uiso 1 1 calc R . .
C32 C 0.68955(10) 0.14080(10) 1.1287(5) 0.0788(11) Uani 1 1 d . . .
H32 H 0.6962 0.1244 1.2160 0.095 Uiso 1 1 calc R . .
C33 C 0.66272(9) 0.17175(10) 1.1422(5) 0.0778(11) Uani 1 1 d . . .
H33 H 0.6517 0.1755 1.2365 0.093 Uiso 1 1 calc R . .
C34 C 0.65253(8) 0.19644(9) 1.0187(5) 0.0621(9) Uani 1 1 d . . .
C35 C 0.66898(9) 0.18864(9) 0.8806(4) 0.0704(9) Uani 1 1 d . . .
H35 H 0.6623 0.2044 0.7914 0.084 Uiso 1 1 calc R . .
C36 C 0.69558(9) 0.15700(9) 0.8763(5) 0.0734(10) Uani 1 1 d . . .
H36 H 0.7065 0.1522 0.7826 0.088 Uiso 1 1 calc R . .
C37 C 0.62542(9) 0.22938(9) 1.0275(4) 0.0700(9) Uani 1 1 d . . .
C38 C 0.60180(9) 0.25581(9) 1.0325(4) 0.0660(9) Uani 1 1 d . . .
C39 C 0.57159(9) 0.28630(9) 1.0331(5) 0.0673(9) Uani 1 1 d . . .
C40 C 0.55869(10) 0.29705(9) 1.1758(5) 0.0745(10) Uani 1 1 d . . .
H40 H 0.5700 0.2852 1.2696 0.089 Uiso 1 1 calc R . .
C41 C 0.52869(10) 0.32562(10) 1.1779(5) 0.0775(10) Uani 1 1 d . . .
C42 C 0.51197(10) 0.34277(10) 1.0374(5) 0.0793(11) Uani 1 1 d . . .
C43 C 0.52512(11) 0.33311(11) 0.8975(5) 0.0974(13) Uani 1 1 d . . .
H43 H 0.5145 0.3457 0.8041 0.117 Uiso 1 1 calc R . .
C44 C 0.55485(11) 0.30400(11) 0.8968(5) 0.0889(12) Uani 1 1 d . . .
H44 H 0.5634 0.2965 0.8011 0.107 Uiso 1 1 calc R . .
C45 C 0.50991(12) 0.34089(12) 1.3231(5) 0.0891(12) Uani 1 1 d . . .
C46 C 0.48848(16) 0.30753(15) 1.4011(6) 0.1318(19) Uani 1 1 d . . .
H46A H 0.5089 0.2894 1.4504 0.158 Uiso 1 1 calc R . .
H46B H 0.4751 0.3191 1.4850 0.158 Uiso 1 1 calc R . .
C47 C 0.45810(18) 0.28371(17) 1.2974(9) 0.185(3) Uani 1 1 d . . .
H47A H 0.4343 0.2995 1.2691 0.277 Uiso 1 1 calc R . .
H47B H 0.4512 0.2603 1.3533 0.277 Uiso 1 1 calc R . .
H47C H 0.4693 0.2760 1.2032 0.277 Uiso 1 1 calc R . .
C48 C 0.54170(14) 0.36202(15) 1.4417(6) 0.1201(16) Uani 1 1 d . . .
H48A H 0.5279 0.3740 1.5237 0.144 Uiso 1 1 calc R . .
H48B H 0.5598 0.3419 1.4921 0.144 Uiso 1 1 calc R . .
C49 C 0.56676(16) 0.39367(16) 1.3755(7) 0.151(2) Uani 1 1 d . . .
H49A H 0.5797 0.3827 1.2906 0.226 Uiso 1 1 calc R . .
H49B H 0.5869 0.4031 1.4574 0.226 Uiso 1 1 calc R . .
H49C H 0.5497 0.4154 1.3364 0.226 Uiso 1 1 calc R . .
C50 C 0.48106(12) 0.37141(11) 1.0753(6) 0.0943(13) Uani 1 1 d . . .
C51 C 0.47963(10) 0.37076(10) 1.2358(6) 0.0889(12) Uani 1 1 d . . .
C52 C 0.45220(12) 0.39557(12) 1.3020(6) 0.1087(15) Uani 1 1 d . . .
H52 H 0.4515 0.3953 1.4109 0.130 Uiso 1 1 calc R . .
C53 C 0.42703(14) 0.41974(14) 1.2109(7) 0.1229(18) Uani 1 1 d . . .
C54 C 0.42902(15) 0.41959(16) 1.0533(8) 0.157(2) Uani 1 1 d . . .
H54 H 0.4119 0.4366 0.9902 0.188 Uiso 1 1 calc R . .
C55 C 0.45562(15) 0.39506(14) 0.9781(6) 0.145(2) Uani 1 1 d . . .
H55 H 0.4557 0.3951 0.8688 0.174 Uiso 1 1 calc R . .
C56 C 0.39865(14) 0.44573(13) 1.2693(7) 0.143(2) Uani 1 1 d . . .
C57 C 0.37462(12) 0.46834(12) 1.3094(6) 0.1254(17) Uani 1 1 d . . .
C58 C 0.34593(12) 0.49533(11) 1.3637(7) 0.0988(14) Uani 1 1 d . . .
C59 C 0.35377(11) 0.51740(13) 1.4999(6) 0.1084(15) Uani 1 1 d . . .
H59 H 0.3778 0.5141 1.5665 0.130 Uiso 1 1 calc R . .
C60 C 0.32517(11) 0.54457(10) 1.5358(6) 0.0973(14) Uani 1 1 d . . .
H60 H 0.3311 0.5600 1.6264 0.117 Uiso 1 1 calc R . .
C61 C 0.28234(11) 0.52894(11) 1.3197(6) 0.1020(14) Uani 1 1 d . . .
H61 H 0.2578 0.5331 1.2573 0.122 Uiso 1 1 calc R . .
C62 C 0.30929(14) 0.50038(12) 1.2691(7) 0.1238(17) Uani 1 1 d . . .
H62 H 0.3028 0.4857 1.1769 0.149 Uiso 1 1 calc R . .
N1 N 0.78844(6) 0.13427(7) 0.9387(3) 0.0611(7) Uani 1 1 d . . .
N2 N 1.20551(7) 0.55033(7) 0.5007(4) 0.0743(9) Uani 1 1 d . . .
N3 N 0.70621(7) 0.13335(7) 0.9991(4) 0.0621(7) Uani 1 1 d . . .
N4 N 0.29022(8) 0.54991(7) 1.4502(4) 0.0703(8) Uani 1 1 d . . .
O1W O 0.72980(7) 0.07892(8) 0.7099(4) 0.1157(10) Uani 1 1 d . . .
H1WA H 0.7041 0.0820 0.6725 0.174 Uiso 1 1 d . . .
H1WB H 0.7312 0.0540 0.6746 0.174 Uiso 1 1 d . . .
N1N N 0.7945(3) 0.1031(3) 1.4012(11) 0.320(4) Uiso 1 1 d D . .
O1N O 0.77148(8) 0.10663(8) 1.2863(4) 0.1146(9) Uiso 1 1 d D . .
O2N O 0.8255(2) 0.1239(3) 1.4311(10) 0.429(6) Uiso 1 1 d D . .
O3N O 0.7986(3) 0.0675(2) 1.4736(10) 0.442(6) Uiso 1 1 d D . .

loop_
_atom_site_aniso_label
_atom_site_aniso_U_11
_atom_site_aniso_U_22
_atom_site_aniso_U_33
_atom_site_aniso_U_23
_atom_site_aniso_U_13
_atom_site_aniso_U_12
Cu 0.04230(17) 0.03681(17) 0.1321(4) 0.0089(2) 0.03580(19) 0.00249(17)
C1 0.060(2) 0.058(2) 0.107(3) -0.0035(19) 0.033(2) -0.0138(14)
C2 0.070(2) 0.068(2) 0.119(3) 0.005(2) 0.045(2) -0.0129(17)
C3 0.0564(19) 0.059(2) 0.104(3) 0.023(2) 0.014(2) -0.0121(15)
C4 0.079(2) 0.054(2) 0.114(3) -0.003(2) 0.024(2) -0.0168(16)
C5 0.070(2) 0.050(2) 0.120(3) -0.003(2) 0.036(2) -0.0082(15)
C6 0.063(2) 0.074(2) 0.120(4) 0.024(2) 0.010(2) -0.0163(17)
C7 0.065(2) 0.084(3) 0.128(4) 0.033(2) 0.007(2) -0.0261(18)
C8 0.060(2) 0.070(2) 0.124(4) 0.025(2) 0.011(2) -0.0251(17)
C9 0.069(2) 0.059(2) 0.128(4) 0.009(2) 0.013(2) -0.0179(16)
C10 0.060(2) 0.060(2) 0.117(3) 0.005(2) 0.017(2) -0.0212(15)
C11 0.064(2) 0.058(2) 0.116(3) 0.015(2) 0.019(2) -0.0219(16)
C12 0.078(2) 0.065(2) 0.147(4) 0.002(2) 0.030(2) -0.0204(17)
C13 0.077(2) 0.084(3) 0.148(4) 0.017(3) 0.040(2) -0.024(2)
C14 0.076(2) 0.064(2) 0.148(4) -0.001(3) 0.041(3) -0.0293(18)
C15 0.070(3) 0.072(3) 0.307(8) 0.047(4) 0.058(4) 0.000(2)
C16 0.156(5) 0.152(5) 0.174(6) 0.043(5) -0.040(5) -0.019(4)
C17 0.159(5) 0.079(3) 0.170(6) -0.025(4) 0.064(4) -0.042(3)
C18 0.236(7) 0.126(5) 0.144(6) -0.007(4) 0.015(5) -0.070(5)
C19 0.068(2) 0.061(2) 0.115(3) 0.006(2) 0.018(2) -0.0234(17)
C20 0.077(2) 0.063(2) 0.129(4) 0.003(2) 0.017(2) -0.0277(18)
C21 0.071(2) 0.080(3) 0.137(4) 0.001(2) 0.038(2) -0.0309(19)
C22 0.079(3) 0.075(3) 0.121(4) 0.007(2) 0.022(2) -0.042(2)
C23 0.088(3) 0.068(2) 0.134(4) -0.001(2) 0.021(3) -0.035(2)
C24 0.075(2) 0.065(2) 0.144(4) 0.005(2) 0.020(2) -0.0212(18)
C25 0.087(3) 0.086(3) 0.137(4) 0.009(2) 0.027(3) -0.040(2)
C26 0.082(3) 0.070(2) 0.171(5) -0.003(3) 0.034(3) -0.037(2)
C27 0.073(2) 0.068(2) 0.124(4) -0.006(2) 0.028(2) -0.0307(18)
C28 0.083(3) 0.064(2) 0.213(6) 0.051(3) 0.017(3) -0.0173(19)
C29 0.060(2) 0.056(2) 0.212(5) 0.037(3) 0.016(3) -0.0091(16)
C30 0.061(2) 0.063(2) 0.127(4) 0.009(2) 0.016(2) -0.0134(16)
C31 0.060(2) 0.084(3) 0.146(4) 0.029(3) 0.011(2) -0.0314(18)
C32 0.066(2) 0.072(2) 0.103(3) 0.019(2) 0.028(2) 0.0186(17)
C33 0.065(2) 0.076(2) 0.099(3) 0.005(2) 0.033(2) 0.0249(17)
C34 0.0441(17) 0.0524(18) 0.091(3) -0.0086(19) 0.0117(18) 0.0094(13)
C35 0.066(2) 0.065(2) 0.082(3) 0.0055(18) 0.0127(19) 0.0202(15)
C36 0.065(2) 0.063(2) 0.099(3) 0.002(2) 0.037(2) 0.0164(16)
C37 0.0600(19) 0.062(2) 0.089(3) -0.0167(18) 0.0115(18) 0.0085(15)
C38 0.0584(18) 0.0583(19) 0.083(3) -0.0167(17) 0.0152(18) 0.0118(15)
C39 0.066(2) 0.062(2) 0.075(3) -0.0089(19) 0.0113(19) 0.0234(15)
C40 0.077(2) 0.059(2) 0.087(3) -0.0085(19) 0.010(2) 0.0213(16)
C41 0.076(2) 0.073(2) 0.088(3) -0.008(2) 0.028(2) 0.0264(17)
C42 0.079(2) 0.085(2) 0.075(3) 0.001(2) 0.010(2) 0.0452(19)
C43 0.112(3) 0.103(3) 0.079(3) 0.015(2) 0.022(2) 0.060(2)
C44 0.102(3) 0.092(3) 0.077(3) -0.005(2) 0.027(2) 0.044(2)
C45 0.088(3) 0.091(3) 0.093(3) -0.001(2) 0.031(2) 0.041(2)
C46 0.145(4) 0.121(4) 0.146(5) 0.033(4) 0.085(4) 0.045(3)
C47 0.169(6) 0.133(5) 0.269(9) -0.012(5) 0.094(6) -0.034(4)
C48 0.124(4) 0.134(4) 0.102(4) -0.034(3) 0.014(3) 0.050(3)
C49 0.158(5) 0.135(5) 0.162(6) -0.031(4) 0.030(4) -0.021(4)
C50 0.101(3) 0.094(3) 0.092(3) 0.001(2) 0.026(3) 0.050(2)
C51 0.077(2) 0.084(3) 0.109(4) -0.005(2) 0.028(2) 0.0398(19)
C52 0.101(3) 0.110(3) 0.124(4) -0.015(3) 0.051(3) 0.0