####################################################################### 
# 
# This file contains crystal structure data downloaded from the 
# Cambridge Structural Database (CSD) hosted by the Cambridge 
# Crystallographic Data Centre (CCDC).
# 
# Full information about CCDC data access policies and citation 
# guidelines are available at http://www.ccdc.cam.ac.uk/access/V1 
# 
# Audit and citation data items may have been added by the CCDC. 
# Please retain this information to preserve the provenance of 
# this file and to allow appropriate attribution of the data. 
# 
#######################################################################

data_ax119m
_audit_block_doi                 10.5517/cc5qk8p
_database_code_depnum_ccdc_archive 'CCDC 170632'
loop_
_citation_id
_citation_doi
_citation_year
1 10.1002/1521-3773(20020301)41:5<764::AID-ANIE764>3.0.CO;2-N 2002
_audit_update_record             
;
2001-09-12 deposited with the CCDC.	2024-07-11 downloaded from the CCDC.
;

_audit_creation_method           SHELXL-97
_chemical_name_systematic        
; 
? 
;
_chemical_name_common            ?
_chemical_melting_point          ?
_chemical_formula_moiety         ?
_chemical_formula_sum            'C130 H99 Ag4 F12 O12 P9 S4'
_chemical_formula_weight         2919.54

loop_
_atom_type_symbol
_atom_type_description
_atom_type_scat_dispersion_real
_atom_type_scat_dispersion_imag
_atom_type_scat_source
C C 0.0033 0.0016 'International Tables Vol C Tables 4.2.6.8 and 6.1.1.4'
H H 0.0000 0.0000 'International Tables Vol C Tables 4.2.6.8 and 6.1.1.4'
O O 0.0106 0.0060 'International Tables Vol C Tables 4.2.6.8 and 6.1.1.4'
F F 0.0171 0.0103 'International Tables Vol C Tables 4.2.6.8 and 6.1.1.4'
P P 0.1023 0.0942 'International Tables Vol C Tables 4.2.6.8 and 6.1.1.4'
S S 0.1246 0.1234 'International Tables Vol C Tables 4.2.6.8 and 6.1.1.4'
Ag Ag -0.8971 1.1015 'International Tables Vol C Tables 4.2.6.8 and 6.1.1.4'

_symmetry_cell_setting           Trigonal
_symmetry_space_group_name_H-M   P-3c1

loop_
_symmetry_equiv_pos_as_xyz
'x, y, z'
'-y, x-y, z'
'-x+y, -x, z'
'y, x, -z+1/2'
'x-y, -y, -z+1/2'
'-x, -x+y, -z+1/2'
'-x, -y, -z'
'y, -x+y, -z'
'x-y, x, -z'
'-y, -x, z-1/2'
'-x+y, y, z-1/2'
'x, x-y, z-1/2'

_cell_length_a                   29.949(8)
_cell_length_b                   29.949(8)
_cell_length_c                   25.929(10)
_cell_angle_alpha                90.00
_cell_angle_beta                 90.00
_cell_angle_gamma                120.00
_cell_volume                     20141(11)
_cell_formula_units_Z            4
_cell_measurement_temperature    153(2)
_cell_measurement_reflns_used    3016
_cell_measurement_theta_min      4.5
_cell_measurement_theta_max      40

_exptl_crystal_description       'hexagonal plate'
_exptl_crystal_colour            colourless
_exptl_crystal_size_max          0.28
_exptl_crystal_size_mid          0.26
_exptl_crystal_size_min          0.08
_exptl_crystal_density_meas      not_measured
_exptl_crystal_density_diffrn    0.963
_exptl_crystal_density_method    'not measured'
_exptl_crystal_F_000             5880
_exptl_absorpt_coefficient_mu    0.545
_exptl_absorpt_correction_type   Empirical
_exptl_absorpt_correction_T_min  1.000
_exptl_absorpt_correction_T_max  0.728
_exptl_absorpt_process_details   SADABS

_exptl_special_details           
; 
? 
;

_diffrn_ambient_temperature      153(2)
_diffrn_radiation_wavelength     0.71073
_diffrn_radiation_type           MoK\a
_diffrn_radiation_source         'fine-focus sealed tube'
_diffrn_radiation_monochromator  graphite
_diffrn_measurement_device_type  'CCD area detector'
_diffrn_measurement_method       'phi and omega scans'
_diffrn_detector_area_resol_mean ?
_diffrn_standards_number         ?
_diffrn_standards_interval_count ?
_diffrn_standards_interval_time  ?
_diffrn_standards_decay_%        ?
_diffrn_reflns_number            39337
_diffrn_reflns_av_R_equivalents  0.1757
_diffrn_reflns_av_sigmaI/netI    0.2007
_diffrn_reflns_limit_h_min       -19
_diffrn_reflns_limit_h_max       27
_diffrn_reflns_limit_k_min       -27
_diffrn_reflns_limit_k_max       31
_diffrn_reflns_limit_l_min       -27
_diffrn_reflns_limit_l_max       19
_diffrn_reflns_theta_min         0.79
_diffrn_reflns_theta_max         22.49
_reflns_number_total             8797
_reflns_number_gt                3451
_reflns_threshold_expression     >2sigma(I)

_computing_data_collection       'Bruker SMART'
_computing_cell_refinement       'Bruker SMART'
_computing_data_reduction        'Bruker SHELXTL'
_computing_structure_solution    'SHELXS-97 (Sheldrick, 1990)'
_computing_structure_refinement  'SHELXL-97 (Sheldrick, 1997)'
_computing_molecular_graphics    'Bruker SHELXTL'
_computing_publication_material  'Bruker SHELXTL'

_refine_special_details          
; 
Refinement of F^2^ against ALL reflections.  The weighted R-factor wR and 
goodness of fit S are based on F^2^, conventional R-factors R are based 
on F, with F set to zero for negative F^2^. The threshold expression of 
F^2^ > 2sigma(F^2^) is used only for calculating R-factors(gt) etc. and is 
not relevant to the choice of reflections for refinement.  R-factors based 
on F^2^ are statistically about twice as large as those based on F, and R- 
factors based on ALL data will be even larger. 
;

_refine_ls_structure_factor_coef Fsqd
_refine_ls_matrix_type           full
_refine_ls_weighting_scheme      calc
_refine_ls_weighting_details     
'calc w=1/[\s^2^(Fo^2^)+(0.1000P)^2^+0.0000P] where P=(Fo^2^+2Fc^2^)/3'
_atom_sites_solution_primary     direct
_atom_sites_solution_secondary   difmap
_atom_sites_solution_hydrogens   geom
_refine_ls_hydrogen_treatment    mixed
_refine_ls_extinction_method     none
_refine_ls_extinction_coef       ?
_refine_ls_number_reflns         8797
_refine_ls_number_parameters     514
_refine_ls_number_restraints     0
_refine_ls_R_factor_all          0.2279
_refine_ls_R_factor_gt           0.0906
_refine_ls_wR_factor_ref         0.3001
_refine_ls_wR_factor_gt          0.2429
_refine_ls_goodness_of_fit_ref   1.248
_refine_ls_restrained_S_all      1.248
_refine_ls_shift/su_max          0.251
_refine_ls_shift/su_mean         0.011

loop_
_atom_site_label
_atom_site_type_symbol
_atom_site_fract_x
_atom_site_fract_y
_atom_site_fract_z
_atom_site_U_iso_or_equiv
_atom_site_adp_type
_atom_site_occupancy
_atom_site_symmetry_multiplicity
_atom_site_calc_flag
_atom_site_refinement_flags
_atom_site_disorder_assembly
_atom_site_disorder_group
Ag1 Ag 0.49849(5) 1.02708(5) 0.58564(4) 0.0540(5) Uani 1 1 d . . .
Ag2 Ag 0.6667 1.3333 0.43461(8) 0.0754(9) Uani 1 3 d S . .
P1 P 0.54504(16) 1.11903(15) 0.56992(13) 0.0400(12) Uani 1 1 d . . .
P3 P 0.52227(17) 1.05234(16) 0.37020(13) 0.0464(12) Uani 1 1 d . . .
P5 P 0.68156(17) 1.25481(16) 0.41943(14) 0.0461(13) Uani 1 1 d . . .
C1 C 0.5675(6) 1.1361(6) 0.5036(5) 0.032(4) Uani 1 1 d . . .
C2 C 0.5400(5) 1.0968(6) 0.4666(5) 0.039(4) Uani 1 1 d . . .
H2 H 0.5114 1.0647 0.4766 0.046 Uiso 1 1 calc R . .
C3 C 0.5561(6) 1.1065(5) 0.4146(4) 0.032(4) Uani 1 1 d . . .
C4 C 0.5997(6) 1.1535(6) 0.4003(5) 0.038(4) Uani 1 1 d . . .
H4 H 0.6111 1.1591 0.3656 0.046 Uiso 1 1 calc R . .
C5 C 0.6263(5) 1.1923(5) 0.4374(5) 0.030(4) Uani 1 1 d . . .
C6 C 0.6107(6) 1.1824(5) 0.4892(5) 0.032(4) Uani 1 1 d . . .
H6 H 0.6298 1.2075 0.5147 0.038 Uiso 1 1 calc R . .
C11A C 0.6024(6) 1.1442(6) 0.6105(5) 0.046(5) Uani 1 1 d . . .
C12A C 0.6395(7) 1.1296(6) 0.5989(6) 0.051(5) Uani 1 1 d . . .
H12A H 0.6375 1.1129 0.5671 0.061 Uiso 1 1 calc R . .
C13A C 0.6773(7) 1.1391(6) 0.6323(7) 0.060(5) Uani 1 1 d . . .
H13A H 0.7013 1.1281 0.6239 0.072 Uiso 1 1 calc R . .
C14A C 0.6826(7) 1.1635(7) 0.6771(7) 0.066(6) Uani 1 1 d . . .
H14A H 0.7102 1.1701 0.6997 0.079 Uiso 1 1 calc R . .
C15A C 0.6473(8) 1.1793(8) 0.6905(6) 0.077(6) Uani 1 1 d . . .
H15A H 0.6507 1.1959 0.7226 0.092 Uiso 1 1 calc R . .
C16A C 0.6059(7) 1.1706(6) 0.6561(6) 0.061(5) Uani 1 1 d . . .
H16A H 0.5823 1.1821 0.6640 0.073 Uiso 1 1 calc R . .
C11B C 0.5108(6) 1.1526(6) 0.5856(5) 0.034(4) Uani 1 1 d . . .
C12B C 0.5329(6) 1.2049(7) 0.5814(5) 0.044(4) Uani 1 1 d . . .
H12B H 0.5675 1.2243 0.5697 0.053 Uiso 1 1 calc R . .
C13B C 0.5067(7) 1.2308(7) 0.5936(6) 0.062(5) Uani 1 1 d . . .
H13B H 0.5232 1.2672 0.5905 0.075 Uiso 1 1 calc R . .
C14B C 0.4558(8) 1.2024(8) 0.6105(6) 0.065(6) Uani 1 1 d . . .
H14B H 0.4372 1.2193 0.6192 0.078 Uiso 1 1 calc R . .
C15B C 0.4328(7) 1.1496(8) 0.6144(6) 0.068(5) Uani 1 1 d . . .
H15B H 0.3980 1.1299 0.6255 0.081 Uiso 1 1 calc R . .
C16B C 0.4613(7) 1.1244(6) 0.6016(5) 0.046(4) Uani 1 1 d . . .
H16B H 0.4455 1.0880 0.6044 0.055 Uiso 1 1 calc R . .
C31A C 0.4706(7) 1.0582(8) 0.3467(6) 0.052(5) Uani 1 1 d . . .
C32A C 0.4738(8) 1.1050(9) 0.3384(7) 0.076(6) Uani 1 1 d . . .
H32A H 0.5054 1.1354 0.3459 0.092 Uiso 1 1 calc R . .
C33A C 0.4329(11) 1.1103(10) 0.3193(8) 0.106(8) Uani 1 1 d . . .
H33A H 0.4349 1.1424 0.3122 0.127 Uiso 1 1 calc R . .
C34A C 0.3851(10) 1.0582(18) 0.3117(9) 0.165(16) Uani 1 1 d . . .
H34A H 0.3534 1.0551 0.3009 0.198 Uiso 1 1 calc R . .
C35A C 0.3901(19) 1.0126(12) 0.3217(13) 0.20(2) Uani 1 1 d . . .
H35A H 0.3612 0.9802 0.3130 0.240 Uiso 1 1 calc R . .
C36A C 0.4267(10) 1.0118(15) 0.3397(10) 0.144(15) Uani 1 1 d . . .
H36A H 0.4252 0.9803 0.3487 0.172 Uiso 1 1 calc R . .
C31B C 0.5657(7) 1.0660(6) 0.3149(6) 0.052(5) Uani 1 1 d . . .
C32B C 0.6124(8) 1.0658(8) 0.3241(7) 0.082(6) Uani 1 1 d . . .
H32B H 0.6207 1.0608 0.3582 0.098 Uiso 1 1 calc R . .
C33B C 0.6455(9) 1.0728(8) 0.2844(8) 0.106(8) Uani 1 1 d . . .
H33B H 0.6773 1.0737 0.2903 0.127 Uiso 1 1 calc R . .
C34B C 0.6303(10) 1.0786(8) 0.2342(7) 0.091(7) Uani 1 1 d . . .
H34B H 0.6519 1.0823 0.2058 0.109 Uiso 1 1 calc R . .
C35B C 0.5854(8) 1.0791(7) 0.2253(6) 0.069(6) Uani 1 1 d . . .
H35B H 0.5766 1.0837 0.1913 0.083 Uiso 1 1 calc R . .
C36B C 0.5537(7) 1.0730(6) 0.2656(6) 0.069(6) Uani 1 1 d . . .
H36B H 0.5227 1.0735 0.2595 0.083 Uiso 1 1 calc R . .
C51A C 0.7349(7) 1.2517(7) 0.4455(5) 0.045(4) Uani 1 1 d . . .
C52A C 0.7833(8) 1.2954(7) 0.4446(6) 0.052(5) Uani 1 1 d . . .
H52A H 0.7862 1.3267 0.4327 0.062 Uiso 1 1 calc R . .
C53A C 0.8258(9) 1.2959(7) 0.4595(7) 0.070(6) Uani 1 1 d . . .
H53A H 0.8579 1.3272 0.4582 0.084 Uiso 1 1 calc R . .
C54A C 0.8238(7) 1.2511(9) 0.4771(6) 0.067(6) Uani 1 1 d . . .
H54A H 0.8538 1.2501 0.4872 0.080 Uiso 1 1 calc R . .
C55A C 0.7742(10) 1.2074(8) 0.4789(7) 0.086(7) Uani 1 1 d . . .
H55A H 0.7708 1.1761 0.4916 0.103 Uiso 1 1 calc R . .
C56A C 0.7304(7) 1.2074(8) 0.4632(6) 0.063(6) Uani 1 1 d . . .
H56A H 0.6977 1.1768 0.4648 0.076 Uiso 1 1 calc R . .
C51B C 0.6884(7) 1.2467(5) 0.3505(6) 0.046(5) Uani 1 1 d . . .
C52B C 0.7195(7) 1.2306(7) 0.3303(6) 0.065(5) Uani 1 1 d . . .
H52B H 0.7406 1.2236 0.3523 0.078 Uiso 1 1 calc R . .
C53B C 0.7209(7) 1.2242(7) 0.2763(7) 0.075(6) Uani 1 1 d . . .
H53B H 0.7418 1.2115 0.2624 0.090 Uiso 1 1 calc R . .
C54B C 0.6907(8) 1.2368(7) 0.2425(6) 0.065(6) Uani 1 1 d . . .
H54B H 0.6918 1.2336 0.2062 0.078 Uiso 1 1 calc R . .
C55B C 0.6607(7) 1.2534(6) 0.2643(6) 0.055(5) Uani 1 1 d . . .
H55B H 0.6404 1.2617 0.2427 0.066 Uiso 1 1 calc R . .
C56B C 0.6585(6) 1.2585(6) 0.3166(6) 0.051(5) Uani 1 1 d . . .
H56B H 0.6367 1.2702 0.3303 0.061 Uiso 1 1 calc R . .
O11 O 0.6513(4) 1.0822(4) 0.4802(4) 0.062(3) Uani 1 1 d . . .
O12 O 0.5701(4) 1.0160(4) 0.5170(5) 0.079(4) Uani 1 1 d . . .
O13 O 0.6014(5) 1.0014(5) 0.4364(4) 0.087(4) Uani 1 1 d . . .
S1 S 0.61372(19) 1.02877(18) 0.48382(17) 0.0538(13) Uani 1 1 d . . .
C1S C 0.6442(11) 1.0046(10) 0.5207(11) 0.108(8) Uani 1 1 d . . .
F11 F 0.6868(6) 1.0080(6) 0.4931(6) 0.146(6) Uani 1 1 d . . .
F12 F 0.6627(6) 1.0263(6) 0.5654(5) 0.135(6) Uani 1 1 d . . .
F13 F 0.6157(6) 0.9528(6) 0.5293(6) 0.153(6) Uani 1 1 d . . .
O21 O 0.3828(4) 0.6718(4) 0.4507(4) 0.067(3) Uani 1 1 d . . .
S2 S 0.3333 0.6667 0.4385(2) 0.0393(19) Uani 1 3 d S . .
F21 F 0.3726(5) 0.7059(5) 0.3495(4) 0.136(5) Uani 1 1 d . . .
C2S C 0.3333 0.6667 0.3694(9) 0.071(11) Uani 1 3 d S . .

loop_
_atom_site_aniso_label
_atom_site_aniso_U_11
_atom_site_aniso_U_22
_atom_site_aniso_U_33
_atom_site_aniso_U_23
_atom_site_aniso_U_13
_atom_site_aniso_U_12
Ag1 0.0778(11) 0.0385(9) 0.0274(7) 0.0017(6) 0.0058(6) 0.0154(8)
Ag2 0.1013(14) 0.1013(14) 0.0238(12) 0.000 0.000 0.0506(7)
P1 0.054(3) 0.039(3) 0.017(2) -0.0001(18) 0.0035(19) 0.016(2)
P3 0.065(3) 0.045(3) 0.017(2) -0.0016(19) 0.001(2) 0.017(3)
P5 0.058(3) 0.045(3) 0.019(2) 0.0061(19) -0.003(2) 0.013(3)
C1 0.050(11) 0.035(10) 0.013(7) 0.006(7) 0.004(7) 0.023(9)
C2 0.041(10) 0.047(11) 0.025(8) 0.005(8) 0.002(7) 0.019(9)
C3 0.058(11) 0.026(9) 0.008(7) -0.006(6) -0.005(7) 0.018(9)
C4 0.063(12) 0.037(10) 0.013(8) 0.005(7) -0.001(8) 0.023(10)
C5 0.040(10) 0.018(9) 0.023(8) 0.000(7) -0.004(7) 0.009(8)
C6 0.052(11) 0.027(9) 0.013(7) -0.004(6) -0.004(7) 0.018(9)
C11A 0.058(12) 0.044(11) 0.015(8) 0.011(7) 0.001(8) 0.010(10)
C12A 0.062(13) 0.048(12) 0.039(10) -0.005(8) -0.005(10) 0.026(11)
C13A 0.059(14) 0.057(13) 0.067(14) -0.013(11) -0.017(11) 0.033(11)
C14A 0.062(15) 0.074(15) 0.048(12) 0.014(11) -0.013(10) 0.024(12)
C15A 0.085(16) 0.100(17) 0.033(11) -0.027(10) -0.015(11) 0.037(14)
C16A 0.083(15) 0.072(13) 0.030(10) -0.013(9) -0.008(10) 0.040(12)
C11B 0.045(12) 0.023(10) 0.028(9) -0.005(7) -0.003(8) 0.014(9)
C12B 0.050(12) 0.061(14) 0.027(9) -0.006(8) 0.017(8) 0.032(11)
C13B 0.052(14) 0.066(14) 0.042(11) 0.005(10) -0.001(9) 0.010(13)
C14B 0.096(18) 0.045(14) 0.057(12) -0.005(10) 0.000(11) 0.038(13)
C15B 0.057(14) 0.081(17) 0.056(12) 0.006(11) 0.009(10) 0.028(14)
C16B 0.061(14) 0.044(12) 0.034(9) 0.000(8) 0.004(9) 0.028(11)
C31A 0.035(13) 0.053(13) 0.046(10) -0.006(9) -0.004(9) 0.005(11)
C32A 0.076(16) 0.11(2) 0.065(13) -0.010(12) -0.024(11) 0.060(15)
C33A 0.11(2) 0.16(3) 0.070(15) -0.003(15) -0.011(15) 0.09(2)
C34A 0.052(18) 0.34(5) 0.070(17) 0.02(3) -0.021(14) 0.08(3)
C35A 0.32(6) 0.10(3) 0.14(3) 0.04(2) 0.01(3) 0.07(3)
C36A 0.09(2) 0.25(4) 0.085(19) 0.05(2) -0.027(15) 0.08(3)
C31B 0.058(13) 0.034(11) 0.034(10) -0.006(8) 0.013(9) 0.000(10)
C32B 0.091(17) 0.109(18) 0.053(13) 0.025(11) 0.035(12) 0.057(15)
C33B 0.14(2) 0.15(2) 0.059(15) 0.021(14) 0.043(15) 0.100(19)
C34B 0.13(2) 0.105(18) 0.037(12) 0.013(11) 0.053(13) 0.063(17)
C35B 0.081(16) 0.081(15) 0.036(11) 0.011(10) 0.014(11) 0.034(14)
C36B 0.097(16) 0.067(13) 0.020(9) 0.006(9) 0.009(10) 0.023(12)
C51A 0.054(13) 0.037(11) 0.034(9) 0.013(8) 0.000(8) 0.015(11)
C52A 0.047(13) 0.059(14) 0.040(10) 0.005(9) -0.002(9) 0.019(13)
C53A 0.093(19) 0.045(14) 0.049(12) 0.012(10) 0.015(12) 0.017(13)
C54A 0.041(13) 0.104(18) 0.048(12) -0.006(12) -0.005(9) 0.031(14)
C55A 0.14(2) 0.065(16) 0.051(12) 0.006(11) 0.016(14) 0.047(18)
C56A 0.046(13) 0.089(18) 0.047(11) -0.007(11) -0.025(9) 0.028(12)
C51B 0.070(13) 0.022(10) 0.027(9) 0.001(7) 0.001(9) 0.009(10)
C52B 0.095(16) 0.077(15) 0.030(10) -0.012(9) -0.005(10) 0.049(13)
C53B 0.084(16) 0.082(16) 0.057(13) -0.012(11) 0.017(11) 0.039(13)
C54B 0.094(16) 0.068(14) 0.029(10) 0.007(9) 0.006(10) 0.037(13)
C55B 0.079(14) 0.068(13) 0.024(10) -0.011(8) -0.015(9) 0.040(12)
C56B 0.051(12) 0.049(12) 0.034(10) 0.002(8) 0.009(8) 0.012(10)
O11 0.050(8) 0.034(8) 0.081(9) 0.003(6) 0.005(6) 0.005(7)
O12 0.065(9) 0.056(9) 0.111(11) 0.020(7) 0.042(8) 0.026(7)
O13 0.117(11) 0.084(10) 0.060(8) -0.020(7) -0.035(8) 0.049(9)
S1 0.063(4) 0.048(3) 0.049(3) -0.003(2) -0.011(3) 0.027(3)
C1S 0.14(3) 0.08(2) 0.11(2) 0.025(17) 0.045(19) 0.055(19)
F11 0.135(13) 0.167(15) 0.184(16) 0.016(11) -0.004(11) 0.111(12)
F12 0.173(14) 0.158(14) 0.079(9) -0.004(9) -0.047(9) 0.086(12)
F13 0.195(16) 0.100(12) 0.192(16) 0.049(11) 0.001(12) 0.094(12)
O21 0.059(8) 0.072(9) 0.071(8) 0.017(6) -0.021(6) 0.033(7)
S2 0.051(3) 0.051(3) 0.016(3) 0.000 0.000 0.0253(15)
F21 0.166(15) 0.147(13) 0.038(6) 0.048(7) 0.031(7) 0.036(10)
C2S 0.106(18) 0.106(18) 0.000(14) 0.000 0.000 0.053(9)

_geom_special_details            
; 
All esds (except the esd in the dihedral angle between two l.s. planes) 
are estimated using the full covariance matrix.  The cell esds are taken 
into account individually in the estimation of esds in distances, angles 
and torsion angles; correlations between esds in cell parameters are only 
used when they are defined by crystal symmetry.  An approximate (isotropic) 
treatment of cell esds is used for estimating esds involving l.s. planes. 
;

loop_
_geom_bond_atom_site_label_1
_geom_bond_atom_site_label_2
_geom_bond_distance
_geom_bond_site_symmetry_2
_geom_bond_publ_flag
Ag1 P1 2.419(4) . ?
Ag1 P3 2.424(4) 7_676 ?
Ag2 P5 2.633(5) . ?
Ag2 P5 2.633(5) 2_775 ?
Ag2 P5 2.633(5) 3_575 ?
P1 C11B 1.806(15) . ?
P1 C1 1.825(12) . ?
P1 C11A 1.826(16) . ?
P3 C31A 1.752(19) . ?
P3 C3 1.827(13) . ?
P3 C31B 1.838(16) . ?
P3 Ag1 2.424(4) 7_676 ?
P5 C51A 1.780(17) . ?
P5 C51B 1.829(15) . ?
P5 C5 1.834(14) . ?
C1 C6 1.394(18) . ?
C1 C2 1.418(18) . ?
C2 C3 1.412(17) . ?
C3 C4 1.409(18) . ?
C4 C5 1.408(17) . ?
C5 C6 1.404(17) . ?
C11A C16A 1.40(2) . ?
C11A C12A 1.41(2) . ?
C12A C13A 1.34(2) . ?
C13A C14A 1.34(2) . ?
C14A C15A 1.40(2) . ?
C15A C16A 1.44(2) . ?
C11B C16B 1.354(19) . ?
C11B C12B 1.367(19) . ?
C12B C13B 1.38(2) . ?
C13B C14B 1.39(2) . ?
C14B C15B 1.38(2) . ?
C15B C16B 1.43(2) . ?
C31A C36A 1.37(3) . ?
C31A C32A 1.37(2) . ?
C32A C33A 1.40(3) . ?
C33A C34A 1.51(4) . ?
C34A C35A 1.47(4) . ?
C35A C36A 1.20(5) . ?
C31B C36B 1.37(2) . ?
C31B C32B 1.42(2) . ?
C32B C33B 1.37(2) . ?
C33B C34B 