####################################################################### 
# 
# This file contains crystal structure data downloaded from the 
# Cambridge Structural Database (CSD) hosted by the Cambridge 
# Crystallographic Data Centre (CCDC).
# 
# Full information about CCDC data access policies and citation 
# guidelines are available at http://www.ccdc.cam.ac.uk/access/V1 
# 
# Audit and citation data items may have been added by the CCDC. 
# Please retain this information to preserve the provenance of 
# this file and to allow appropriate attribution of the data. 
# 
#######################################################################

data_ax1452bm
_audit_block_doi                 10.5517/cc5y1jn
_database_code_depnum_ccdc_archive 'CCDC 176871'
loop_
_citation_id
_citation_doi
_citation_year
1 10.1002/1521-3773(20020301)41:5<764::AID-ANIE764>3.0.CO;2-N 2002
_audit_update_record             
;
2002-01-03 deposited with the CCDC.	2024-07-11 downloaded from the CCDC.
;
_audit_creation_method           SHELXL-97
_chemical_name_systematic        
;     
?     
;
_chemical_name_common            ?
_chemical_melting_point          ?
_chemical_formula_moiety         ?
_chemical_formula_sum            'C86.67 H66 Ag2.67 F8 O8 P6 S2.67'
_chemical_formula_weight         1946.36

loop_
_atom_type_symbol
_atom_type_description
_atom_type_scat_dispersion_real
_atom_type_scat_dispersion_imag
_atom_type_scat_source
C C 0.0033 0.0016 'International Tables Vol C Tables 4.2.6.8 and 6.1.1.4'
H H 0.0000 0.0000 'International Tables Vol C Tables 4.2.6.8 and 6.1.1.4'
O O 0.0106 0.0060 'International Tables Vol C Tables 4.2.6.8 and 6.1.1.4'
F F 0.0171 0.0103 'International Tables Vol C Tables 4.2.6.8 and 6.1.1.4'
P P 0.1023 0.0942 'International Tables Vol C Tables 4.2.6.8 and 6.1.1.4'
S S 0.1246 0.1234 'International Tables Vol C Tables 4.2.6.8 and 6.1.1.4'
Ag Ag -0.8971 1.1015 'International Tables Vol C Tables 4.2.6.8 and 6.1.1.4'

_symmetry_cell_setting           Trigonal
_symmetry_space_group_name_H-M   P-3c1

loop_
_symmetry_equiv_pos_as_xyz
'x, y, z'
'-y, x-y, z'
'-x+y, -x, z'
'y, x, -z+1/2'
'x-y, -y, -z+1/2'
'-x, -x+y, -z+1/2'
'-x, -y, -z'
'y, -x+y, -z'
'x-y, x, -z'
'-y, -x, z-1/2'
'-x+y, y, z-1/2'
'x, x-y, z-1/2'

_cell_length_a                   30.0763(14)
_cell_length_b                   30.0763(14)
_cell_length_c                   25.7916(16)
_cell_angle_alpha                90.00
_cell_angle_beta                 90.00
_cell_angle_gamma                120.00
_cell_volume                     20204.9(18)
_cell_formula_units_Z            6
_cell_measurement_temperature    153(2)
_cell_measurement_reflns_used    5414
_cell_measurement_theta_min      2
_cell_measurement_theta_max      21

_exptl_crystal_description       block
_exptl_crystal_colour            colourless
_exptl_crystal_size_max          ?
_exptl_crystal_size_mid          ?
_exptl_crystal_size_min          ?
_exptl_crystal_density_meas      not_measured
_exptl_crystal_density_diffrn    0.960
_exptl_crystal_density_method    'not measured'
_exptl_crystal_F_000             5880
_exptl_absorpt_coefficient_mu    0.543
_exptl_absorpt_correction_type   empirical
_exptl_absorpt_correction_T_min  0.764
_exptl_absorpt_correction_T_max  0.895
_exptl_absorpt_process_details   SADABS

_exptl_special_details           
;     
?     
;

_diffrn_ambient_temperature      153(2)
_diffrn_radiation_wavelength     0.71073
_diffrn_radiation_type           MoK\a
_diffrn_radiation_source         'fine-focus sealed tube'
_diffrn_radiation_monochromator  graphite
_diffrn_measurement_device_type  'CCD area detector'
_diffrn_measurement_method       'phi and omega scans'
_diffrn_detector_area_resol_mean ?
_diffrn_standards_number         ?
_diffrn_standards_interval_count ?
_diffrn_standards_interval_time  ?
_diffrn_standards_decay_%        ?
_diffrn_reflns_number            110608
_diffrn_reflns_av_R_equivalents  0.1154
_diffrn_reflns_av_sigmaI/netI    0.0735
_diffrn_reflns_limit_h_min       -34
_diffrn_reflns_limit_h_max       34
_diffrn_reflns_limit_k_min       -34
_diffrn_reflns_limit_k_max       34
_diffrn_reflns_limit_l_min       -32
_diffrn_reflns_limit_l_max       34
_diffrn_reflns_theta_min         0.78
_diffrn_reflns_theta_max         28.60
_reflns_number_total             7986
_reflns_number_gt                4240
_reflns_threshold_expression     >2sigma(I)

_computing_data_collection       'Bruker SMART'
_computing_cell_refinement       'Bruker SMART'
_computing_data_reduction        'Bruker SHELXTL'
_computing_structure_solution    'SHELXS-97 (Sheldrick, 1990)'
_computing_structure_refinement  'SHELXL-97 (Sheldrick, 1997)'
_computing_molecular_graphics    'Bruker SHELXTL'
_computing_publication_material  'Bruker SHELXTL'

_refine_special_details          
;     
Refinement of F^2^ against ALL reflections.  The weighted R-factor wR and     
goodness of fit S are based on F^2^, conventional R-factors R are based     
on F, with F set to zero for negative F^2^. The threshold expression of     
F^2^ > 2sigma(F^2^) is used only for calculating R-factors(gt) etc. and is     
not relevant to the choice of reflections for refinement.  R-factors based     
on F^2^ are statistically about twice as large as those based on F, and R-     
factors based on ALL data will be even larger.     
;

_refine_ls_structure_factor_coef Fsqd
_refine_ls_matrix_type           full
_refine_ls_weighting_scheme      calc
_refine_ls_weighting_details     
'calc w=1/[\s^2^(Fo^2^)+(0.1183P)^2^+33.7261P] where P=(Fo^2^+2Fc^2^)/3'
_atom_sites_solution_primary     direct
_atom_sites_solution_secondary   difmap
_atom_sites_solution_hydrogens   geom
_refine_ls_hydrogen_treatment    mixed
_refine_ls_extinction_method     none
_refine_ls_extinction_coef       ?
_refine_ls_number_reflns         7986
_refine_ls_number_parameters     514
_refine_ls_number_restraints     6
_refine_ls_R_factor_all          0.1469
_refine_ls_R_factor_gt           0.0636
_refine_ls_wR_factor_ref         0.2256
_refine_ls_wR_factor_gt          0.1633
_refine_ls_goodness_of_fit_ref   0.997
_refine_ls_restrained_S_all      0.997
_refine_ls_shift/su_max          0.011
_refine_ls_shift/su_mean         0.001

loop_
_atom_site_label
_atom_site_type_symbol
_atom_site_fract_x
_atom_site_fract_y
_atom_site_fract_z
_atom_site_U_iso_or_equiv
_atom_site_adp_type
_atom_site_occupancy
_atom_site_symmetry_multiplicity
_atom_site_calc_flag
_atom_site_refinement_flags
_atom_site_disorder_assembly
_atom_site_disorder_group
Ag1 Ag -0.49731(3) -0.02615(2) 0.41253(2) 0.0590(3) Uani 1 1 d . . .
C1 C -0.5735(7) -0.1349(2) 0.4927(2) 0.026(4) Uani 1 1 d U . .
C2 C -0.5392(5) -0.0970(3) 0.5306(3) 0.043(4) Uani 1 1 d . . .
H2 H -0.5110 -0.0654 0.5192 0.052 Uiso 1 1 calc R . .
C3 C -0.5478(14) -0.1071(2) 0.5824(3) 0.032(6) Uani 1 1 d . . .
C4 C -0.5953(3) -0.1538(3) 0.5971(3) 0.0393(18) Uani 1 1 d . . .
H4 H -0.6076 -0.1583 0.6317 0.047 Uiso 1 1 calc R . .
C5 C -0.6223(3) -0.1917(3) 0.5594(3) 0.0355(17) Uani 1 1 d . . .
C6 C -0.6076(3) -0.1817(3) 0.5076(3) 0.0357(17) Uani 1 1 d . . .
H6 H -0.6221 -0.2088 0.4830 0.043 Uiso 1 1 calc R . .
P1 P -0.54441(7) -0.11728(7) 0.42615(8) 0.0397(6) Uani 1 1 d . . .
C11A C -0.5116(6) -0.1510(5) 0.4096(6) 0.046(3) Uani 1 1 d . . .
C12A C -0.4606(5) -0.1223(4) 0.3956(5) 0.049(2) Uani 1 1 d . . .
H12A H -0.4442 -0.0859 0.3946 0.058 Uiso 1 1 calc R . .
C13A C -0.4330(4) -0.1471(4) 0.3827(5) 0.066(3) Uani 1 1 d . . .
H13A H -0.3983 -0.1274 0.3716 0.080 Uiso 1 1 calc R . .
C14A C -0.4557(4) -0.1996(4) 0.3859(4) 0.064(3) Uani 1 1 d . . .
H14A H -0.4369 -0.2162 0.3773 0.077 Uiso 1 1 calc R . .
C15A C -0.5069(4) -0.2285(4) 0.4020(4) 0.055(2) Uani 1 1 d . . .
H15A H -0.5229 -0.2648 0.4042 0.066 Uiso 1 1 calc R . .
C16A C -0.5336(3) -0.2045(3) 0.4144(3) 0.046(2) Uani 1 1 d . . .
H16A H -0.5678 -0.2244 0.4266 0.055 Uiso 1 1 calc R . .
C11B C -0.6017(3) -0.1434(3) 0.3871(3) 0.0407(18) Uani 1 1 d . . .
C12B C -0.6082(4) -0.1704(4) 0.3413(3) 0.056(2) Uani 1 1 d . . .
H12B H -0.5846 -0.1816 0.3327 0.067 Uiso 1 1 calc R . .
C13B C -0.6486(4) -0.1813(4) 0.3080(4) 0.071(3) Uani 1 1 d . . .
H13B H -0.6526 -0.1997 0.2769 0.085 Uiso 1 1 calc R . .
C14B C -0.6834(4) -0.1649(4) 0.3206(4) 0.066(3) Uani 1 1 d . . .
H14B H -0.7103 -0.1710 0.2973 0.079 Uiso 1 1 calc R . .
C15B C -0.6784(5) -0.1398(5) 0.3672(5) 0.063(3) Uani 1 1 d . . .
H15B H -0.7024 -0.1292 0.3762 0.076 Uiso 1 1 calc R . .
C16B C -0.6392(7) -0.1304(7) 0.4002(7) 0.060(4) Uani 1 1 d . . .
H16B H -0.6372 -0.1146 0.4328 0.071 Uiso 1 1 calc R . .
P3 P -0.5207(5) -0.05503(8) 0.62842(8) 0.068(3) Uani 1 1 d . . .
C31A C -0.5905(7) -0.0595(7) 0.6549(6) 0.070(4) Uani 1 1 d . . .
C32A C -0.6370(8) -0.1106(10) 0.6597(6) 0.119(6) Uani 1 1 d . . .
H32A H -0.6344 -0.1397 0.6499 0.142 Uiso 1 1 calc R . .
C33A C -0.6857(9) -0.1193(11) 0.6782(7) 0.159(9) Uani 1 1 d . . .
H33A H -0.7158 -0.1521 0.6797 0.191 Uiso 1 1 calc R . .
C34A C -0.6838(12) -0.0744(15) 0.6934(12) 0.214(15) Uani 1 1 d . . .
H34A H -0.7128 -0.0766 0.7107 0.256 Uiso 1 1 calc R . .
C35A C -0.6373(15) -0.0214(14) 0.6839(14) 0.253(19) Uani 1 1 d . . .
H35A H -0.6385 0.0089 0.6911 0.304 Uiso 1 1 calc R . .
C36A C -0.5935(9) -0.0191(9) 0.6644(8) 0.160(9) Uani 1 1 d . . .
H36A H -0.5644 0.0137 0.6577 0.192 Uiso 1 1 calc R . .
C31B C -0.5037(4) -0.0673(3) 0.6813(4) 0.059(3) Uani 1 1 d . . .
C32B C -0.5205(5) -0.0742(4) 0.7323(4) 0.077(4) Uani 1 1 d . . .
H32B H -0.5518 -0.0754 0.7407 0.092 Uiso 1 1 calc R . .
C33B C -0.4918(6) -0.0794(6) 0.7709(5) 0.107(5) Uani 1 1 d . . .
H33B H -0.5035 -0.0838 0.8057 0.128 Uiso 1 1 calc R . .
C34B C -0.4474(6) -0.0782(6) 0.7603(6) 0.104(5) Uani 1 1 d . . .
H34B H -0.4285 -0.0826 0.7874 0.124 Uiso 1 1 calc R . .
C35B C -0.4302(6) -0.0710(7) 0.7119(6) 0.114(5) Uani 1 1 d . . .
H35B H -0.3970 -0.0662 0.7052 0.137 Uiso 1 1 calc R . .
C36B C -0.4591(9) -0.0703(9) 0.6717(9) 0.093(7) Uani 1 1 d . . .
H36B H -0.4493 -0.0719 0.6371 0.112 Uiso 1 1 calc R . .
P5 P -0.67671(8) -0.25439(8) 0.57671(8) 0.0388(5) Uani 1 1 d . . .
C51A C -0.7304(3) -0.2508(4) 0.5501(3) 0.036(4) Uani 1 1 d . . .
C52A C -0.7787(4) -0.2958(4) 0.5502(4) 0.049(3) Uani 1 1 d . . .
H52A H -0.7814 -0.3274 0.5605 0.059 Uiso 1 1 calc R . .
C53A C -0.8215(5) -0.2948(5) 0.5358(5) 0.061(3) Uani 1 1 d . . .
H53A H -0.8538 -0.3256 0.5362 0.073 Uiso 1 1 calc R . .
C54A C -0.8187(5) -0.2499(6) 0.5206(7) 0.065(5) Uani 1 1 d . . .
H54A H -0.8491 -0.2498 0.5107 0.078 Uiso 1 1 calc R . .
C55A C -0.7722(4) -0.2047(5) 0.5195(7) 0.058(7) Uani 1 1 d . . .
H55A H -0.7703 -0.1736 0.5086 0.069 Uiso 1 1 calc R . .
C56A C -0.7276(4) -0.2053(5) 0.5346(4) 0.052(3) Uani 1 1 d . . .
H56A H -0.6954 -0.1744 0.5343 0.062 Uiso 1 1 calc R . .
C51B C -0.6830(3) -0.2476(3) 0.6463(3) 0.0388(17) Uani 1 1 d . . .
C52B C -0.7149(4) -0.2301(4) 0.6669(4) 0.060(3) Uani 1 1 d . . .
H52B H -0.7345 -0.2216 0.6444 0.072 Uiso 1 1 calc R . .
C53B C -0.7176(4) -0.2252(4) 0.7197(4) 0.071(3) Uani 1 1 d . . .
H53B H -0.7394 -0.2138 0.7335 0.085 Uiso 1 1 calc R . .
C54B C -0.6886(4) -0.2370(4) 0.7531(4) 0.061(3) Uani 1 1 d . . .
H54B H -0.6905 -0.2334 0.7895 0.073 Uiso 1 1 calc R . .
C55B C -0.6572(4) -0.2537(4) 0.7330(4) 0.056(2) Uani 1 1 d . . .
H55B H -0.6371 -0.2617 0.7555 0.067 Uiso 1 1 calc R . .
C56B C -0.6549(3) -0.2590(3) 0.6798(3) 0.048(2) Uani 1 1 d . . .
H56B H -0.6333 -0.2709 0.6663 0.058 Uiso 1 1 calc R . .
O11 O -0.4460(3) -0.0150(3) 0.4784(5) 0.113(4) Uani 1 1 d . . .
O12 O -0.4070(5) 0.0002(4) 0.5604(4) 0.117(4) Uani 1 1 d . . .
O13 O -0.4323(4) -0.0782(3) 0.5182(4) 0.080(2) Uani 1 1 d . . .
S1 S -0.41728(15) -0.02693(13) 0.51361(13) 0.0810(9) Uani 1 1 d . . .
C1S C -0.3638(10) 0.0006(12) 0.4862(6) 0.130(9) Uani 1 1 d . . .
F11 F -0.3578(5) -0.0193(5) 0.4398(5) 0.167(5) Uani 1 1 d . . .
F12 F -0.3370(4) 0.0525(5) 0.4758(6) 0.177(5) Uani 1 1 d . . .
F13 F -0.3210(8) -0.0016(17) 0.505(3) 0.217(9) Uani 1 1 d . . .
Ag2 Ag -0.6667 -0.3333 0.56285(3) 0.0453(2) Uani 1 3 d S . .
O21 O -0.6715(2) -0.3818(2) 0.4489(3) 0.0677(19) Uani 1 1 d . . .
S2 S -0.6667 -0.3333 0.43654(10) 0.0416(6) Uani 1 3 d S . .
C2S C -0.6667 -0.3333 0.3672(4) 0.054(3) Uani 1 3 d S . .
F21 F -0.7071(3) -0.3342(3) 0.3482(2) 0.110(3) Uani 1 1 d . . .

loop_
_atom_site_aniso_label
_atom_site_aniso_U_11
_atom_site_aniso_U_22
_atom_site_aniso_U_33
_atom_site_aniso_U_23
_atom_site_aniso_U_13
_atom_site_aniso_U_12
Ag1 0.0872(7) 0.0296(3) 0.0416(4) -0.0002(2) 0.0033(3) 0.0152(3)
C1 0.015(8) 0.033(3) 0.035(3) 0.000(2) 0.002(3) 0.016(3)
C2 0.049(10) 0.030(3) 0.042(4) 0.000(3) -0.002(4) 0.014(4)
C3 0.023(14) 0.034(3) 0.039(3) 0.001(2) -0.003(4) 0.014(4)
C4 0.046(4) 0.032(4) 0.031(4) 0.004(3) -0.003(3) 0.013(3)
C5 0.038(4) 0.029(4) 0.036(4) 0.002(3) -0.003(3) 0.015(3)
C6 0.042(4) 0.028(4) 0.039(4) -0.001(3) -0.002(3) 0.019(3)
P1 0.0483(14) 0.0287(9) 0.0354(10) -0.0004(8) -0.0007(8) 0.0141(8)
C11A 0.045(9) 0.042(8) 0.047(6) -0.007(5) -0.001(6) 0.018(6)
C12A 0.048(7) 0.041(6) 0.053(7) 0.000(5) 0.004(6) 0.020(6)
C13A 0.047(6) 0.065(7) 0.083(8) 0.006(6) 0.012(5) 0.025(5)
C14A 0.063(7) 0.058(6) 0.078(7) 0.002(5) 0.007(5) 0.035(5)
C15A 0.058(6) 0.049(5) 0.066(6) 0.002(4) 0.003(5) 0.033(5)
C16A 0.054(5) 0.040(5) 0.043(5) 0.003(4) -0.002(4) 0.024(4)
C11B 0.048(5) 0.030(4) 0.039(4) -0.002(3) 0.001(4) 0.016(4)
C12B 0.060(6) 0.060(6) 0.048(5) -0.006(4) -0.004(4) 0.030(5)
C13B 0.075(7) 0.086(8) 0.048(6) -0.026(5) -0.016(5) 0.037(6)
C14B 0.063(6) 0.072(7) 0.057(6) 0.000(5) -0.013(5) 0.030(6)
C15B 0.056(8) 0.062(7) 0.077(9) 0.000(6) 0.000(7) 0.034(6)
C16B 0.054(8) 0.075(13) 0.063(10) -0.026(8) -0.016(7) 0.042(10)
P3 0.082(4) 0.0390(10) 0.0318(9) -0.0007(8) -0.0105(19) -0.009(3)
C31A 0.093(12) 0.070(10) 0.052(8) 0.006(7) 0.013(7) 0.045(9)
C32A 0.124(15) 0.177(19) 0.085(11) -0.006(12) 0.036(10) 0.098(15)
C33A 0.150(18) 0.27(3) 0.101(13) 0.002(16) 0.035(13) 0.14(2)
C34A 0.23(3) 0.35(5) 0.19(2) 0.02(3) 0.08(2) 0.25(3)
C35A 0.31(5) 0.29(4) 0.28(4) 0.06(3) 0.14(4) 0.24(4)
C36A 0.20(2) 0.162(19) 0.175(19) 0.016(16) 0.082(17) 0.138(18)
C31B 0.085(7) 0.038(5) 0.037(5) 0.005(4) 0.012(5) 0.018(5)
C32B 0.097(9) 0.088(7) 0.038(5) 0.014(5) 0.011(5) 0.040(6)
C33B 0.108(11) 0.125(12) 0.049(7) 0.027(7) -0.004(7) 0.029(9)
C34B 0.077(9) 0.115(12) 0.088(11) 0.014(9) -0.009(8) 0.025(9)
C35B 0.075(10) 0.141(15) 0.082(11) 0.014(10) -0.004(8) 0.021(10)
C36B 0.102(15) 0.111(15) 0.090(16) 0.059(12) 0.044(13) 0.070(13)
P5 0.0386(11) 0.0324(10) 0.0399(11) 0.0004(8) -0.0035(9) 0.0136(9)
C51A 0.026(10) 0.026(9) 0.042(4) -0.004(3) -0.006(3) 0.003(10)
C52A 0.045(6) 0.033(6) 0.061(6) -0.003(5) -0.004(5) 0.012(6)
C53A 0.043(6) 0.045(7) 0.088(8) -0.011(6) -0.009(6) 0.017(5)
C54A 0.054(12) 0.063(14) 0.077(8) -0.010(9) -0.013(8) 0.029(11)
C55A 0.043(17) 0.053(18) 0.076(7) 0.005(7) -0.015(7) 0.024(17)
C56A 0.043(6) 0.039(6) 0.064(6) -0.002(5) -0.011(5) 0.014(6)
C51B 0.040(4) 0.028(4) 0.047(5) 0.000(3) 0.003(3) 0.016(3)
C52B 0.060(6) 0.077(7) 0.051(6) 0.008(5) 0.005(4) 0.040(5)
C53B 0.075(7) 0.095(8) 0.053(6) -0.004(5) 0.012(5) 0.050(6)
C54B 0.072(7) 0.061(6) 0.043(5) 0.006(4) 0.007(5) 0.027(5)
C55B 0.062(6) 0.065(6) 0.045(5) -0.003(4) -0.011(4) 0.035(5)
C56B 0.054(5) 0.035(4) 0.049(5) -0.002(4) -0.002(4) 0.019(4)
O11 0.081(6) 0.046(5) 0.213(14) 0.017(6) 0.046(7) 0.032(5)
O12 0.142(9) 0.098(7) 0.092(7) -0.040(6) 0.008(6) 0.044(7)
O13 0.075(5) 0.058(5) 0.102(6) -0.002(4) -0.004(5) 0.030(4)
S1 0.088(2) 0.067(2) 0.074(2) -0.0095(16) 0.0019(17) 0.0282(19)
C1S 0.19(2) 0.058(8) 0.10(2) 0.001(18) -0.066(17) 0.03(2)
F11 0.163(11) 0.188(12) 0.136(10) -0.009(9) 0.033(8) 0.077(9)
F12 0.105(8) 0.116(9) 0.237(14) 0.055(9) 0.034(8) 0.000(7)
F13 0.088(12) 0.171(13) 0.35(2) -0.009(14) -0.05(2) 0.030(13)
Ag2 0.0463(3) 0.0463(3) 0.0432(5) 0.000 0.000 0.02314(16)
O21 0.070(4) 0.055(4) 0.079(5) 0.019(3) -0.015(3) 0.032(3)
S2 0.0447(9) 0.0447(9) 0.0354(13) 0.000 0.000 0.0223(4)
C2S 0.065(5) 0.065(5) 0.032(6) 0.000 0.000 0.033(2)
F21 0.109(5) 0.183(9) 0.058(3) -0.021(3) -0.041(3) 0.087(5)

_geom_special_details            
;     
All esds (except the esd in the dihedral angle between two l.s. planes)     
are estimated using the full covariance matrix.  The cell esds are taken     
into account individually in the estimation of esds in distances, angles     
and torsion angles; correlations between esds in cell parameters are only     
used when they are defined by crystal symmetry.  An approximate (isotropic)     
treatment of cell esds is used for estimating esds involving l.s. planes.     
;

loop_
_geom_bond_atom_site_label_1
_geom_bond_atom_site_label_2
_geom_bond_distance
_geom_bond_site_symmetry_2
_geom_bond_publ_flag
Ag1 O11 2.205(13) . ?
Ag1 P1 2.400(2) . ?
Ag1 P3 2.459(5) 7_456 ?
C1 C6 1.320(10) . ?
C1 C2 1.464(12) . ?
C1 P1 1.878(9) . ?
C2 C3 1.366(10) . ?
C3 C4 1.47(2) . ?
C3 P3 1.802(7) . ?
C4 C5 1.405(10) . ?
C5 C6 1.392(10) . ?
C5 P5 1.830(8) . ?
P1 C11A 1.784(18) . ?
P1 C11B 1.803(8) . ?
C11A C12A 1.379(16) . ?
C11A C16A 1.409(15) . ?
C12A C13A 1.406(17) . ?
C13A C14A 1.375(14) . ?
C14A C15A 1.398(13) . ?
C15A C16A 1.359(12) . ?
C11B C12B 1.391(11) . ?
C11B C16B 1.408(18) . ?
C12B C13B 1.385(13) . ?
C13B C14B 1.399(15) . ?
C14B C15B 1.388(17) . ?
C15B C16B 1.36(2) . ?
P3 C31B 1.563(12) . ?
P3 C31A 2.15(2) . ?
P3 Ag1 2.459(5) 7_456 ?
C31A C36A 1.29(3) . ?
C31A C32A 1.48(3) . ?
C32A C33A 1.43(2) . ?
C33A C