####################################################################### 
# 
# This file contains crystal structure data downloaded from the 
# Cambridge Structural Database (CSD) hosted by the Cambridge 
# Crystallographic Data Centre (CCDC).
# 
# Full information about CCDC data access policies and citation 
# guidelines are available at http://www.ccdc.cam.ac.uk/access/V1 
# 
# Audit and citation data items may have been added by the CCDC. 
# Please retain this information to preserve the provenance of 
# this file and to allow appropriate attribution of the data. 
# 
#######################################################################

data_5
_audit_block_doi                 10.5517/ccpxl5b
_database_code_depnum_ccdc_archive 'CCDC 653082'
loop_
_citation_id
_citation_doi
_citation_year
1 10.1021/cg060814c 2007
_audit_update_record             
;
2007-07-05 deposited with the CCDC.	2024-07-11 downloaded from the CCDC.
;
_audit_creation_date             'Wed Feb 28 13:24:19 2007'
_audit_creation_method           SHELXL-97
_chemical_name_systematic        
;
[Hg3I6(timpt)2]-4(H2O)
;
_chemical_name_common            ?
_chemical_melting_point          ?
_chemical_formula_moiety         'C66 H62 I6 Hg3 N18 O4 '
_chemical_formula_sum            'C66 H62 Hg3 I6 N18 O4'
_chemical_formula_weight         2534.51

loop_
_atom_type_symbol
_atom_type_description
_atom_type_scat_dispersion_real
_atom_type_scat_dispersion_imag
_atom_type_scat_source
Hg Hg -2.3894 9.2266 'International Tables Vol C Tables 4.2.6.8 and 6.1.1.4'
I I -0.4742 1.8119 'International Tables Vol C Tables 4.2.6.8 and 6.1.1.4'
N N 0.0061 0.0033 'International Tables Vol C Tables 4.2.6.8 and 6.1.1.4'
C C 0.0033 0.0016 'International Tables Vol C Tables 4.2.6.8 and 6.1.1.4'
H H 0.0000 0.0000 'International Tables Vol C Tables 4.2.6.8 and 6.1.1.4'
O O 0.0106 0.0060 'International Tables Vol C Tables 4.2.6.8 and 6.1.1.4'

_symmetry_cell_setting           triclinic
_symmetry_space_group_name_H-M   'P -1'
_symmetry_space_group_name_Hall  '-P 1'
_symmetry_Int_Tables_number      2
loop_
_symmetry_equiv_pos_as_xyz
'x, y, z'
'-x, -y, -z'

_cell_length_a                   8.913(3)
_cell_length_b                   13.306(5)
_cell_length_c                   37.689(11)
_cell_angle_alpha                80.808(12)
_cell_angle_beta                 87.933(12)
_cell_angle_gamma                72.027(13)
_cell_volume                     4197(3)
_cell_formula_units_Z            2
_cell_measurement_temperature    200
_cell_measurement_reflns_used    14740
_cell_measurement_theta_min      3.1
_cell_measurement_theta_max      27.5

_exptl_crystal_description       platelet
_exptl_crystal_colour            pale-yellow
_exptl_crystal_size_max          0.200
_exptl_crystal_size_mid          0.200
_exptl_crystal_size_min          0.020
_exptl_crystal_density_meas      ?
_exptl_crystal_density_diffrn    2.006
_exptl_crystal_density_method    'not measured'
_exptl_crystal_F_000             2348
_exptl_absorpt_coefficient_mu    7.733
_exptl_absorpt_correction_type   multi-scan
_exptl_absorpt_correction_T_min  0.238
_exptl_absorpt_correction_T_max  0.856
_exptl_absorpt_process_details   '(Higashi, 1995)'

_exptl_special_details           
;
?
;

_diffrn_ambient_temperature      200
_diffrn_radiation_wavelength     0.71075
_diffrn_radiation_type           MoK\a
_diffrn_radiation_source         'fine-focus sealed tube'
_diffrn_radiation_monochromator  graphite
_diffrn_measurement_device_type  'Rigaku RAXIS-RAPID Imaging Plate'
_diffrn_measurement_method       \w
_diffrn_detector_area_resol_mean 10.00
_diffrn_reflns_number            32813
_diffrn_reflns_av_R_equivalents  0.0912
_diffrn_reflns_av_sigmaI/netI    0.1107
_diffrn_reflns_limit_h_min       -10
_diffrn_reflns_limit_h_max       10
_diffrn_reflns_limit_k_min       -15
_diffrn_reflns_limit_k_max       15
_diffrn_reflns_limit_l_min       -44
_diffrn_reflns_limit_l_max       44
_diffrn_reflns_theta_min         3.07
_diffrn_reflns_theta_max         25.00
_reflns_number_total             14756
_reflns_number_gt                8347
_reflns_threshold_expression     I>2\s(I)

_computing_data_collection       ?
_computing_cell_refinement       ?
_computing_data_reduction        ?
_computing_structure_solution    'SHELXS-97 (Sheldrick, 1997)'
_computing_structure_refinement  'SHELXL-97 (Sheldrick, 1997)'
_computing_molecular_graphics    ?
_computing_publication_material  ?

_refine_special_details          
;
Refinement of F^2^ against ALL reflections. The weighted R-factor wR and
goodness of fit S are based on F^2^, conventional R-factors R are based
on F, with F set to zero for negative F^2^. The threshold expression of
F^2^ > 2sigma(F^2^) is used only for calculating R-factors(gt) etc. and is
not relevant to the choice of reflections for refinement. R-factors based
on F^2^ are statistically about twice as large as those based on F, and R-
factors based on ALL data will be even larger.
;

_refine_ls_structure_factor_coef Fsqd
_refine_ls_matrix_type           full
_refine_ls_weighting_scheme      calc
_refine_ls_weighting_details     
'calc w=1/[\s^2^(Fo^2^)+(0.1047P)^2^+6.3216P] where P=(Fo^2^+2Fc^2^)/3'
_atom_sites_solution_primary     direct
_atom_sites_solution_secondary   difmap
_atom_sites_solution_hydrogens   geom
_refine_ls_hydrogen_treatment    constr
_refine_ls_extinction_method     none
_refine_ls_extinction_coef       ?
_refine_ls_number_reflns         14756
_refine_ls_number_parameters     930
_refine_ls_number_restraints     140
_refine_ls_R_factor_all          0.1319
_refine_ls_R_factor_gt           0.0765
_refine_ls_wR_factor_ref         0.2273
_refine_ls_wR_factor_gt          0.1991
_refine_ls_goodness_of_fit_ref   1.037
_refine_ls_restrained_S_all      1.054
_refine_ls_shift/su_max          0.001
_refine_ls_shift/su_mean         0.000

loop_
_atom_site_label
_atom_site_type_symbol
_atom_site_fract_x
_atom_site_fract_y
_atom_site_fract_z
_atom_site_U_iso_or_equiv
_atom_site_adp_type
_atom_site_occupancy
_atom_site_symmetry_multiplicity
_atom_site_calc_flag
_atom_site_refinement_flags
_atom_site_disorder_assembly
_atom_site_disorder_group
Hg1 Hg 1.09479(7) 0.92333(5) 0.111236(16) 0.0716(2) Uani 1 1 d . . .
Hg2 Hg 0.45334(7) 0.54428(5) 0.380372(17) 0.0720(2) Uani 1 1 d . . .
Hg3 Hg 0.6975(6) 0.1982(5) 0.25827(11) 0.1382(16) Uani 0.482(10) 1 d PDU . .
Hg4 Hg 0.6956(5) 0.1453(7) 0.24722(17) 0.173(3) Uani 0.518(10) 1 d PDU . .
I1 I 0.93504(16) 1.12808(9) 0.11137(3) 0.0934(4) Uani 1 1 d . . .
I2 I 1.38957(15) 0.79646(15) 0.11434(4) 0.1238(6) Uani 1 1 d . . .
I3 I 0.14262(13) 0.59959(13) 0.37529(4) 0.1082(5) Uani 1 1 d . . .
I4 I 0.71179(14) 0.38440(9) 0.37233(3) 0.0867(4) Uani 1 1 d . . .
I5 I 0.8511(13) 0.3363(10) 0.2405(2) 0.206(5) Uani 0.482(10) 1 d PU . .
I6 I 0.8298(7) -0.0081(5) 0.28558(16) 0.150(2) Uani 0.482(10) 1 d PU . .
I7 I 0.8813(9) 0.2719(9) 0.2345(2) 0.192(4) Uani 0.518(10) 1 d PU . .
I8 I 0.7928(13) -0.0623(9) 0.2698(3) 0.279(6) Uani 0.518(10) 1 d PU . .
N1 N 0.3564(11) 0.6140(8) 0.0162(3) 0.049(2) Uani 1 1 d . . .
N2 N 0.3570(11) 0.6334(8) -0.0471(3) 0.051(2) Uani 1 1 d . . .
N3 N 0.2445(12) 0.5126(8) -0.0128(3) 0.051(2) Uani 1 1 d . . .
N11 N 0.8697(11) 0.9184(8) 0.0068(3) 0.050(3) Uani 1 1 d . . .
N12 N 1.0027(13) 0.8989(9) 0.0560(3) 0.060(3) Uani 1 1 d . . .
N21 N 0.1376(18) 0.3037(12) -0.1658(3) 0.077(4) Uani 1 1 d . . .
N22 N 0.0453(18) 0.1699(13) -0.1478(3) 0.084(4) Uani 1 1 d . . .
N31 N 0.328(2) 0.2501(12) 0.1695(4) 0.112(6) Uani 1 1 d D . .
N32 N 0.5276(18) 0.1810(18) 0.2002(4) 0.189(10) Uani 1 1 d DU . .
N101 N 0.7631(12) 0.9959(9) 0.5153(3) 0.060(3) Uani 1 1 d . . .
N102 N 0.8230(12) 1.1406(8) 0.4793(3) 0.055(3) Uani 1 1 d . . .
N103 N 0.8969(12) 1.0949(10) 0.5408(3) 0.068(3) Uani 1 1 d . . .
N111 N 0.5553(14) 0.8530(9) 0.3580(3) 0.068(3) Uani 1 1 d . . .
N112 N 0.5369(14) 0.6928(11) 0.3605(3) 0.075(3) Uani 1 1 d . . .
N121 N 1.3763(13) 1.4255(9) 0.5130(3) 0.065(3) Uani 1 1 d . . .
N122 N 1.5021(14) 1.4264(10) 0.5599(3) 0.068(3) Uani 1 1 d . . .
N131 N 0.749(2) 0.7248(13) 0.6904(4) 0.112(6) Uani 1 1 d D . .
N132 N 0.5263(14) 0.7416(12) 0.7118(4) 0.133(8) Uani 1 1 d D . .
C1 C 0.3871(14) 0.6598(10) -0.0161(4) 0.055(3) Uani 1 1 d . . .
C2 C 0.2857(14) 0.5571(10) -0.0438(3) 0.050(3) Uani 1 1 d . . .
C3 C 0.2821(14) 0.5425(10) 0.0169(3) 0.052(3) Uani 1 1 d . . .
C11 C 0.4683(14) 0.7450(10) -0.0187(4) 0.053(3) Uani 1 1 d . . .
C12 C 0.5340(15) 0.7564(10) 0.0134(4) 0.057(3) Uani 1 1 d . . .
H1 H 0.5149 0.7172 0.0356 0.068 Uiso 1 1 calc R . .
C13 C 0.6211(15) 0.8203(10) 0.0133(3) 0.056(3) Uani 1 1 d . . .
H2 H 0.6678 0.8243 0.0350 0.067 Uiso 1 1 calc R . .
C14 C 0.6462(14) 0.8839(10) -0.0195(3) 0.054(3) Uani 1 1 d . . .
C15 C 0.5794(14) 0.8718(10) -0.0502(3) 0.053(3) Uani 1 1 d . . .
H3 H 0.5953 0.9114 -0.0725 0.064 Uiso 1 1 calc R . .
C16 C 0.4890(16) 0.8031(10) -0.0493(3) 0.058(3) Uani 1 1 d . . .
H4 H 0.4418 0.7977 -0.0708 0.069 Uiso 1 1 calc R . .
C17 C 0.7472(16) 0.9541(11) -0.0212(4) 0.064(4) Uani 1 1 d . . .
H5 H 0.7976 0.9571 -0.0450 0.076 Uiso 1 1 calc R . .
H6 H 0.6802 1.0274 -0.0189 0.076 Uiso 1 1 calc R . .
C18 C 0.8797(16) 0.9553(10) 0.0376(4) 0.056(3) Uani 1 1 d . . .
H7 H 0.8041 1.0162 0.0447 0.067 Uiso 1 1 calc R . .
C19 C 1.0770(17) 0.8178(11) 0.0373(4) 0.064(4) Uani 1 1 d . . .
H8 H 1.1705 0.7611 0.0447 0.077 Uiso 1 1 calc R . .
C20 C 0.9942(18) 0.8318(12) 0.0062(4) 0.066(4) Uani 1 1 d . . .
H9 H 1.0201 0.7885 -0.0123 0.079 Uiso 1 1 calc R . .
C21 C 0.2570(14) 0.5202(9) -0.0766(3) 0.046(3) Uani 1 1 d . . .
C22 C 0.2867(18) 0.5647(11) -0.1108(4) 0.067(4) Uani 1 1 d . . .
H10 H 0.3282 0.6232 -0.1135 0.080 Uiso 1 1 calc R . .
C23 C 0.2586(18) 0.5278(13) -0.1405(4) 0.076(4) Uani 1 1 d . . .
H11 H 0.2824 0.5595 -0.1635 0.092 Uiso 1 1 calc R . .
C24 C 0.1940(19) 0.4420(11) -0.1374(4) 0.071(4) Uani 1 1 d . . .
C25 C 0.1649(17) 0.3970(12) -0.1050(4) 0.068(4) Uani 1 1 d . . .
H12 H 0.1229 0.3388 -0.1027 0.081 Uiso 1 1 calc R . .
C26 C 0.1957(15) 0.4345(10) -0.0735(4) 0.057(3) Uani 1 1 d . . .
H13 H 0.1746 0.4013 -0.0504 0.068 Uiso 1 1 calc R . .
C27 C 0.155(2) 0.4091(13) -0.1716(4) 0.095(6) Uani 1 1 d . . .
H14 H 0.0564 0.4615 -0.1821 0.114 Uiso 1 1 calc R . .
H15 H 0.2407 0.4108 -0.1890 0.114 Uiso 1 1 calc R . .
C28 C 0.0144(17) 0.2767(14) -0.1542(4) 0.080(5) Uani 1 1 d D . .
H16 H -0.0854 0.3263 -0.1506 0.096 Uiso 1 1 calc R . .
C29 C 0.202(2) 0.1276(13) -0.1531(5) 0.100(6) Uani 1 1 d D . .
H17 H 0.2603 0.0536 -0.1493 0.120 Uiso 1 1 calc R . .
C30 C 0.262(2) 0.2083(18) -0.1646(5) 0.106(6) Uani 1 1 d D . .
H18 H 0.3690 0.2018 -0.1707 0.127 Uiso 1 1 calc R . .
C31 C 0.2478(13) 0.4872(10) 0.0517(3) 0.049(3) Uani 1 1 d . . .
C32 C 0.1748(15) 0.4084(10) 0.0541(3) 0.056(3) Uani 1 1 d . . .
H19 H 0.1430 0.3897 0.0329 0.067 Uiso 1 1 calc R . .
C33 C 0.1488(16) 0.3575(11) 0.0871(4) 0.064(4) Uani 1 1 d . . .
H20 H 0.0986 0.3036 0.0884 0.077 Uiso 1 1 calc R . .
C34 C 0.1929(17) 0.3813(11) 0.1188(4) 0.063(4) Uani 1 1 d . . .
C35 C 0.2640(17) 0.4572(13) 0.1155(4) 0.072(4) Uani 1 1 d . . .
H21 H 0.2984 0.4724 0.1370 0.086 Uiso 1 1 calc R . .
C36 C 0.2919(16) 0.5153(11) 0.0838(3) 0.059(3) Uani 1 1 d . . .
H22 H 0.3380 0.5710 0.0834 0.071 Uiso 1 1 calc R . .
C37 C 0.1680(19) 0.3262(13) 0.1539(4) 0.081(5) Uani 1 1 d . . .
H23 H 0.0946 0.2848 0.1517 0.097 Uiso 1 1 calc R . .
H24 H 0.1207 0.3788 0.1701 0.097 Uiso 1 1 calc R . .
C38 C 0.3957(19) 0.2630(17) 0.1991(5) 0.135(9) Uani 1 1 d D . .
H25 H 0.3599 0.3151 0.2146 0.161 Uiso 1 1 calc R . .
C39 C 0.507(5) 0.104(3) 0.1860(16) 0.20(2) Uani 0.482(10) 1 d PDU . .
H26 H 0.5700 0.0311 0.1894 0.235 Uiso 0.482(10) 1 calc PR . .
C39B C 0.578(3) 0.163(4) 0.1687(6) 0.20(2) Uani 0.518(10) 1 d PDU . .
H27 H 0.6823 0.1390 0.1600 0.240 Uiso 0.518(10) 1 calc PR . .
C40 C 0.376(5) 0.151(2) 0.1650(10) 0.133(16) Uani 0.482(10) 1 d PDU . .
H28 H 0.3288 0.1174 0.1501 0.159 Uiso 0.482(10) 1 calc PR . .
C40B C 0.436(3) 0.188(3) 0.1518(7) 0.103(12) Uani 0.518(10) 1 d PDU . .
H29 H 0.4182 0.1648 0.1303 0.123 Uiso 0.518(10) 1 calc PR . .
C101 C 0.7619(14) 1.0596(11) 0.4842(3) 0.054(3) Uani 1 1 d . . .
C102 C 0.8922(15) 1.1548(12) 0.5076(4) 0.061(4) Uani 1 1 d . . .
C103 C 0.8322(15) 1.0171(12) 0.5427(4) 0.063(4) Uani 1 1 d . . .
C111 C 0.6879(15) 1.0394(10) 0.4526(4) 0.053(3) Uani 1 1 d . . .
C112 C 0.6300(15) 0.9552(10) 0.4558(4) 0.060(4) Uani 1 1 d . . .
H30 H 0.6257 0.9141 0.4786 0.072 Uiso 1 1 calc R . .
C113 C 0.5764(15) 0.9295(11) 0.4246(4) 0.058(3) Uani 1 1 d . . .
H31 H 0.5421 0.8681 0.4262 0.070 Uiso 1 1 calc R . .
C114 C 0.5735(15) 0.9919(11) 0.3922(3) 0.057(3) Uani 1 1 d . . .
C115 C 0.6318(18) 1.0765(12) 0.3893(4) 0.074(4) Uani 1 1 d . . .
H32 H 0.6364 1.1177 0.3665 0.089 Uiso 1 1 calc R . .
C116 C 0.6844(16) 1.1015(11) 0.4201(4) 0.064(4) Uani 1 1 d . . .
H33 H 0.7185 1.1631 0.4183 0.077 Uiso 1 1 calc R . .
C117 C 0.5163(18) 0.9646(11) 0.3587(4) 0.073(4) Uani 1 1 d . . .
H34 H 0.4003 0.9965 0.3567 0.087 Uiso 1 1 calc R . .
H35 H 0.5625 0.9976 0.3374 0.087 Uiso 1 1 calc R . .
C118 C 0.4577(19) 0.7983(12) 0.3587(4) 0.069(4) Uani 1 1 d . . .
H36 H 0.3461 0.8279 0.3580 0.083 Uiso 1 1 calc R . .
C119 C 0.6912(19) 0.6862(13) 0.3599(5) 0.082(5) Uani 1 1 d . . .
H37 H 0.7760 0.6217 0.3607 0.098 Uiso 1 1 calc R . .
C120 C 0.7071(19) 0.7819(13) 0.3581(5) 0.089(5) Uani 1 1 d . . .
H38 H 0.8032 0.7990 0.3571 0.106 Uiso 1 1 calc R . .
C121 C 0.9688(15) 1.2376(12) 0.5036(4) 0.065(4) Uani 1 1 d . . .
C122 C 0.9817(16) 1.2929(10) 0.4690(4) 0.061(4) Uani 1 1 d . . .
H39 H 0.9283 1.2827 0.4491 0.073 Uiso 1 1 calc R . .
C123 C 1.0719(16) 1.3621(12) 0.4638(4) 0.070(4) Uani 1 1 d . . .
H40 H 1.0816 1.3986 0.4405 0.084 Uiso 1 1 calc R . .
C124 C 1.1482(15) 1.3776(11) 0.4931(4) 0.063(4) Uani 1 1 d . . .
C125 C 1.1298(16) 1.3252(12) 0.5278(4) 0.070(4) Uani 1 1 d . . .
H41 H 1.1788 1.3387 0.5477 0.084 Uiso 1 1 calc R . .
C126 C 1.0435(17) 1.2561(11) 0.5334(4) 0.065(4) Uani 1 1 d . . .
H42 H 1.0333 1.2207 0.5569 0.078 Uiso 1 1 calc R . .
C127 C 1.2479(17) 1.4526(12) 0.4861(5) 0.077(4) Uani 1 1 d . . .
H43 H 1.2940 1.4490 0.4618 0.092 Uiso 1 1 calc R . .
H44 H 1.1798 1.5269 0.4865 0.092 Uiso 1 1 calc R . .
C128 C 1.3804(16) 1.4721(11) 0.5417(4) 0.066(4) Uani 1 1 d . . .
H45 H 1.2998 1.5329 0.5473 0.079 Uiso 1 1 calc R . .
C129 C 1.5880(18) 1.3377(13) 0.5442(5) 0.079(4) Uani 1 1 d . . .
H46 H 1.6856 1.2871 0.5527 0.095 Uiso 1 1 calc R . .
C130 C 1.5057(18) 1.3375(12) 0.5145(4) 0.072(4) Uani 1 1 d . . .
H47 H 1.5326 1.2869 0.4984 0.087 Uiso 1 1 calc R . .
C131 C 0.8403(16) 0.9468(14) 0.5776(4) 0.068(4) Uani 1 1 d . . .
C132 C 0.9229(19) 0.9581(16) 0.6059(5) 0.093(5) Uani 1 1 d . . .
H48 H 0.9709 1.0134 0.6034 0.112 Uiso 1 1 calc R . .
C133 C 0.937(2) 0.887(2) 0.6393(5) 0.104(7) Uani 1 1 d . . .
H49 H 0.9916 0.8954 0.6593 0.125 Uiso 1 1 calc R . .
C134 C 0.870(2) 0.808(2) 0.6412(5) 0.103(7) Uani 1 1 d . . .
C135 C 0.7857(19) 0.7939(13) 0.6134(5) 0.083(5) Uani 1 1 d . . .
H50 H 0.7385 0.7383 0.6155 0.099 Uiso 1 1 calc R . .
C136 C 0.7745(18) 0.8687(14) 0.5815(4) 0.073(4) Uani 1 1 d . . .
H51 H 0.7164 0.8627 0.5617 0.087 Uiso 1 1 calc R . .
C137 C 0.893(2) 0.728(2) 0.6760(6) 0.169(14) Uani 1 1 d . . .
H52 H 0.9549 0.6563 0.6712 0.203 Uiso 1 1 calc R . .
H53 H 0.9523 0.7495 0.6936 0.203 Uiso 1 1 calc R . .
C138 C 0.6386(17) 0.7894(16) 0.7085(5) 0.104(6) Uani 1 1 d D . .
H54 H 0.6399 0.8528 0.7169 0.125 Uiso 1 1 calc R . .
C139 C 0.569(3) 0.6511(17) 0.7004(8) 0.215(17) Uani 1 1 d DU . .
H55 H 0.5139 0.6000 0.7026 0.258 Uiso 1 1 calc R . .
C140 C 0.710(3) 0.644(2) 0.6845(8) 0.200(16) Uani 1 1 d DU . .
H56 H 0.7682 0.5889 0.6715 0.240 Uiso 1 1 calc R . .
O1 O 0.720(3) 1.002(2) 0.7120(7) 0.235(11) Uani 1 1 d . . .
O2 O 0.236(3) 0.5072(17) 0.2118(5) 0.230(12) Uani 1 1 d . . .
O3 O 0.756(4) 1.041(3) 0.7722(11) 0.38(2) Uani 1 1 d . . .
O4 O -0.230(7) 0.642(5) 0.2695(11) 0.23(3) Uani 0.46(4) 1 d PU . .
O4B O 0.012(7) 0.605(4) 0.2589(12) 0.28(3) Uani 0.54(4) 1 d PU . .

loop_
_atom_site_aniso_label
_atom_site_aniso_U_11
_atom_site_aniso_U_22
_atom_site_aniso_U_33
_atom_site_aniso_U_23
_atom_site_aniso_U_13
_atom_site_aniso_U_12
Hg1 0.0738(4) 0.0767(4) 0.0739(4) -0.0152(3) -0.0020(3) -0.0349(3)
Hg2 0.0580(4) 0.0698(4) 0.0953(5) -0.0215(3) 0.0007(3) -0.0255(3)
Hg3 0.112(2) 0.231(4) 0.0902(18) 0.013(2) -0.0044(14) -0.098(3)
Hg4 0.0830(18) 0.235(5) 0.130(3) 0.069(3) 0.0135(17) 0.002(2)
I1 0.1095(9) 0.0697(7) 0.1135(9) -0.0241(6) 0.0041(7) -0.0410(7)
I2 0.0732(8) 0.1856(16) 0.0953(9) -0.0313(9) -0.0134(7) -0.0084(9)
I3 0.0568(7) 0.1434(12) 0.1300(10) -0.0404(9) -0.0041(7) -0.0289(7)
I4 0.0787(7) 0.0665(7) 0.1092(8) -0.0167(6) 0.0076(6) -0.0130(6)
I5 0.233(8) 0.318(10) 0.108(4) 0.095(5) -0.075(5) -0.200(8)
I6 0.141(3) 0.170(4) 0.149(4) -0.029(3) 0.035(3) -0.066(3)
I7 0.116(3) 0.313(10) 0.116(3) 0.051(5) 0.022(3) -0.062(5)
I8 0.278(8) 0.221(8) 0.196(7) 0.053(6) 0.063(6) 0.080(6)
N1 0.044(6) 0.052(6) 0.054(6) -0.013(5) 0.014(5) -0.018(5)
N2 0.043(6) 0.048(6) 0.067(7) -0.015(5) 0.002(5) -0.019(5)
N3 0.046(6) 0.049(6) 0.060(7) -0.008(5) 0.005(5) -0.021(5)
N11 0.032(5) 0.033(5) 0.083(8) 0.001(5) 0.000(5) -0.014(5)
N12 0.052(7) 0.055(7) 0.076(7) -0.014(6) -0.007(6) -0.016(6)
N21 0.081(10) 0.096(10) 0.072(