####################################################################### 
# 
# This file contains crystal structure data downloaded from the 
# Cambridge Structural Database (CSD) hosted by the Cambridge 
# Crystallographic Data Centre (CCDC).
# 
# Full information about CCDC data access policies and citation 
# guidelines are available at http://www.ccdc.cam.ac.uk/access/V1 
# 
# Audit and citation data items may have been added by the CCDC. 
# Please retain this information to preserve the provenance of 
# this file and to allow appropriate attribution of the data. 
# 
#######################################################################

data_aaa_sq
_audit_block_doi                 10.5517/cc10mm9k
_database_code_depnum_ccdc_archive 'CCDC 942378'
loop_
_citation_id
_citation_doi
_citation_year
1 10.1039/C3CE41105B 2013
_audit_update_record             
;
2013-05-31 deposited with the CCDC.	2024-07-11 downloaded from the CCDC.
;

_audit_creation_method           SHELXL-97
_chemical_name_systematic        
; 
 ? 
;
_chemical_name_common            ?
_chemical_melting_point          ?
_chemical_formula_moiety         '[Cd3 (C28 H16 O8 Si)2][Cd O4]'
_chemical_formula_sum            'C56 H32 Cd4 O20 Si2'
_chemical_formula_weight         1530.60

loop_
_atom_type_symbol
_atom_type_description
_atom_type_scat_dispersion_real
_atom_type_scat_dispersion_imag
_atom_type_scat_source
C C 0.0033 0.0016 'International Tables Vol C Tables 4.2.6.8 and 6.1.1.4'
H H 0.0000 0.0000 'International Tables Vol C Tables 4.2.6.8 and 6.1.1.4'
O O 0.0106 0.0060 'International Tables Vol C Tables 4.2.6.8 and 6.1.1.4'
Si Si 0.0817 0.0704 'International Tables Vol C Tables 4.2.6.8 and 6.1.1.4'
Cd Cd -0.8075 1.2024 'International Tables Vol C Tables 4.2.6.8 and 6.1.1.4'

_symmetry_cell_setting           Triclinic
_symmetry_space_group_name_H-M   P-1

loop_
_symmetry_equiv_pos_as_xyz
'x, y, z'
'-x, -y, -z'

_cell_length_a                   13.775(4)
_cell_length_b                   14.507(4)
_cell_length_c                   24.244(7)
_cell_angle_alpha                83.217(3)
_cell_angle_beta                 81.797(3)
_cell_angle_gamma                65.572(3)
_cell_volume                     4357(2)
_cell_formula_units_Z            2
_cell_measurement_temperature    110(2)
_cell_measurement_reflns_used    8348
_cell_measurement_theta_min      2.2218
_cell_measurement_theta_max      25.6414

_exptl_crystal_description       Blocky
_exptl_crystal_colour            Colorless
_exptl_crystal_size_max          0.30
_exptl_crystal_size_mid          0.25
_exptl_crystal_size_min          0.20
_exptl_crystal_density_meas      'not measured'
_exptl_crystal_density_diffrn    1.167
_exptl_crystal_density_method    'not measured'
_exptl_crystal_F_000             1496
_exptl_absorpt_coefficient_mu    1.040
_exptl_absorpt_correction_type   multi-scan
_exptl_absorpt_correction_T_min  0.7455
_exptl_absorpt_correction_T_max  0.8190
_exptl_absorpt_process_details   'SADABS (Sheldrick, 2008)'

_exptl_special_details           
; 
 ? 
;

_diffrn_ambient_temperature      110(2)
_diffrn_radiation_wavelength     0.71073
_diffrn_radiation_type           MoK\a
_diffrn_radiation_source         'fine-focus sealed tube'
_diffrn_radiation_monochromator  graphite
_diffrn_measurement_device_type  'Bruker SMART APEX II CCD area detector'
_diffrn_measurement_method       'phi and omega scans'
_diffrn_detector_area_resol_mean ?
_diffrn_reflns_number            45816
_diffrn_reflns_av_R_equivalents  0.0405
_diffrn_reflns_av_sigmaI/netI    0.0559
_diffrn_reflns_limit_h_min       -16
_diffrn_reflns_limit_h_max       16
_diffrn_reflns_limit_k_min       -17
_diffrn_reflns_limit_k_max       17
_diffrn_reflns_limit_l_min       -29
_diffrn_reflns_limit_l_max       29
_diffrn_reflns_theta_min         1.63
_diffrn_reflns_theta_max         26.00
_reflns_number_total             17024
_reflns_number_gt                11389
_reflns_threshold_expression     >2sigma(I)

_computing_data_collection       'APEX2  (Bruker, 2008)'
_computing_cell_refinement       'SAINT+ ver. (Bruker, 2001)'
_computing_data_reduction        'SAINT+ ver. (Bruker, 2001)'
_computing_structure_solution    'SHELXS-97 (Sheldrick, 2008)'
_computing_structure_refinement  'SHELXL-97 (Sheldrick, 2008)'
_computing_molecular_graphics    'SHELXTL (Sheldrick, 2008)'
_computing_publication_material  'SHELXTL (Sheldrick, 2008)'

_refine_special_details          
; 
 Refinement of F^2^ against ALL reflections.  The weighted R-factor wR and 
 goodness of fit S are based on F^2^, conventional R-factors R are based 
 on F, with F set to zero for negative F^2^. The threshold expression of 
 F^2^ > 2sigma(F^2^) is used only for calculating R-factors(gt) etc. and is 
 not relevant to the choice of reflections for refinement.  R-factors based 
 on F^2^ are statistically about twice as large as those based on F, and R- 
 factors based on ALL data will be even larger. 
;

_refine_ls_structure_factor_coef Fsqd
_refine_ls_matrix_type           full
_refine_ls_weighting_scheme      calc
_refine_ls_weighting_details     
'calc w=1/[\s^2^(Fo^2^)+(0.0389P)^2^+174.0000P] where P=(Fo^2^+2Fc^2^)/3'
_atom_sites_solution_primary     direct
_atom_sites_solution_secondary   difmap
_atom_sites_solution_hydrogens   geom
_refine_ls_hydrogen_treatment    constr
_refine_ls_extinction_method     SHELXL
_refine_ls_extinction_coef       0.00195(17)
_refine_ls_extinction_expression Fc^*^=kFc[1+0.001xFc^2^\l^3^/sin(2\q)]^-1/4^
_refine_ls_number_reflns         17024
_refine_ls_number_parameters     480
_refine_ls_number_restraints     154
_refine_ls_R_factor_all          0.1520
_refine_ls_R_factor_gt           0.1254
_refine_ls_wR_factor_ref         0.2893
_refine_ls_wR_factor_gt          0.2771
_refine_ls_goodness_of_fit_ref   1.008
_refine_ls_restrained_S_all      1.003
_refine_ls_shift/su_max          0.001
_refine_ls_shift/su_mean         0.000

loop_
_atom_site_label
_atom_site_type_symbol
_atom_site_fract_x
_atom_site_fract_y
_atom_site_fract_z
_atom_site_U_iso_or_equiv
_atom_site_adp_type
_atom_site_occupancy
_atom_site_symmetry_multiplicity
_atom_site_calc_flag
_atom_site_refinement_flags
_atom_site_disorder_assembly
_atom_site_disorder_group
Cd1 Cd -0.25255(5) 0.77374(5) -0.39938(3) 0.0163(2) Uani 1 1 d . . .
Cd2 Cd -0.24926(7) 0.74967(6) -0.25021(4) 0.0272(2) Uani 1 1 d . . .
Cd3 Cd 0.2716(3) 0.2598(4) 0.1036(2) 0.0629(12) Uani 0.50 1 d P . 1
O4 O 0.3610(9) 0.3003(12) 0.0271(5) 0.0548(12) Uani 0.50 1 d PD . 1
Cd3' Cd 0.2262(3) 0.2859(3) 0.09812(18) 0.0469(9) Uani 0.50 1 d P . 2
O4' O 0.3106(14) 0.3691(14) 0.0202(6) 0.0548(12) Uani 0.50 1 d PD . 2
Si1 Si 0.36915(19) 0.39464(19) -0.26376(11) 0.0161(5) Uani 1 1 d . . .
Si2 Si 0.1289(7) 1.1054(6) -0.2353(2) 0.104(3) Uani 1 1 d D . .
O1 O -0.1316(6) 0.7265(6) -0.3301(3) 0.0296(7) Uani 1 1 d . B .
O2 O -0.0862(6) 0.6285(6) -0.4004(3) 0.0296(7) Uani 1 1 d . B .
O3 O 0.2172(8) 0.2802(8) 0.0096(4) 0.0548(12) Uani 1 1 d D . .
O5 O 0.6290(7) -0.1183(6) -0.3073(4) 0.0379(9) Uani 1 1 d . . .
O6 O 0.6519(7) -0.0656(6) -0.3819(4) 0.0379(9) Uani 1 1 d . . .
O7 O 0.6502(10) 0.6837(10) -0.3708(4) 0.068(4) Uani 1 1 d . . .
O8 O 0.6792(10) 0.6628(11) -0.2840(4) 0.068(4) Uani 1 1 d . . .
O11 O 0.2844(6) 1.2093(7) -0.5096(3) 0.037(2) Uani 1 1 d . . .
O12 O 0.1578(7) 1.1625(8) -0.5225(4) 0.042(2) Uani 1 1 d . . .
O14 O -0.1485(15) 1.5961(11) -0.2104(5) 0.094(2) Uani 1 1 d . . .
O15 O 0.6310(14) 0.7686(11) -0.1689(6) 0.104(3) Uani 1 1 d . . .
O16 O 0.5894(14) 0.8717(11) -0.1001(6) 0.104(3) Uani 1 1 d . . .
O13 O -0.1021(15) 1.5662(11) -0.1222(5) 0.094(2) Uani 1 1 d . . .
C1 C -0.0663(5) 0.6519(8) -0.3553(5) 0.0296(7) Uani 1 1 d D . .
C2 C 0.0405(4) 0.5868(5) -0.3341(3) 0.0296(7) Uani 1 1 d D B .
C3 C 0.1104(5) 0.4998(5) -0.3603(3) 0.0296(7) Uani 1 1 d D . .
H3A H 0.0913 0.4813 -0.3922 0.036 Uiso 1 1 calc R B .
C4 C 0.2082(4) 0.4400(4) -0.3400(3) 0.0296(7) Uani 1 1 d D B .
H4A H 0.2559 0.3806 -0.3579 0.036 Uiso 1 1 calc R . .
C5 C 0.2361(4) 0.4672(5) -0.2934(3) 0.0296(7) Uani 1 1 d D . .
C6 C 0.1662(5) 0.5541(5) -0.2672(3) 0.0296(7) Uani 1 1 d D B .
H6A H 0.1853 0.5727 -0.2354 0.036 Uiso 1 1 calc R . .
C7 C 0.0684(5) 0.6139(4) -0.2875(3) 0.0296(7) Uani 1 1 d D . .
H7A H 0.0206 0.6733 -0.2696 0.036 Uiso 1 1 calc R B .
C8 C 0.3014(9) 0.3080(5) -0.0096(2) 0.0548(12) Uani 1 1 d D . .
C9 C 0.3061(7) 0.3423(5) -0.0708(2) 0.0548(12) Uani 1 1 d D . .
C10 C 0.3888(7) 0.3716(7) -0.0923(3) 0.0548(12) Uani 1 1 d D . .
H10A H 0.4325 0.3796 -0.0678 0.066 Uiso 1 1 calc R . .
C11 C 0.4077(7) 0.3894(8) -0.1496(3) 0.0548(12) Uani 1 1 d D . .
H11A H 0.4643 0.4095 -0.1643 0.066 Uiso 1 1 calc R . .
C12 C 0.3438(8) 0.3778(8) -0.1854(2) 0.0548(12) Uani 1 1 d D . .
C13 C 0.2610(8) 0.3484(9) -0.1639(3) 0.0548(12) Uani 1 1 d D . .
H13A H 0.2174 0.3405 -0.1884 0.066 Uiso 1 1 calc R . .
C14 C 0.2422(7) 0.3307(7) -0.1066(3) 0.0548(12) Uani 1 1 d D . .
H14A H 0.1856 0.3106 -0.0919 0.066 Uiso 1 1 calc R . .
C15 C 0.6267(9) -0.0448(5) -0.3348(6) 0.0379(9) Uani 1 1 d D . .
C16 C 0.5635(4) 0.0628(4) -0.3186(3) 0.0379(9) Uani 1 1 d D B .
C17 C 0.5378(5) 0.1425(5) -0.3594(2) 0.0379(9) Uani 1 1 d D . .
H17A H 0.5611 0.1293 -0.3975 0.046 Uiso 1 1 calc R . .
C18 C 0.4781(6) 0.2415(4) -0.3444(3) 0.0379(9) Uani 1 1 d D B .
H18A H 0.4606 0.2959 -0.3723 0.046 Uiso 1 1 calc R . .
C19 C 0.4439(6) 0.2610(4) -0.2885(3) 0.0379(9) Uani 1 1 d D . .
C20 C 0.4695(7) 0.1813(5) -0.2477(2) 0.0379(9) Uani 1 1 d D B .
H20A H 0.4462 0.1945 -0.2095 0.046 Uiso 1 1 calc R . .
C21 C 0.5293(6) 0.0823(4) -0.2627(3) 0.0379(9) Uani 1 1 d D . .
H21A H 0.5468 0.0279 -0.2348 0.046 Uiso 1 1 calc R B .
C22 C 0.6402(7) 0.6504(7) -0.3224(5) 0.0259(10) Uani 1 1 d D A .
C23 C 0.5752(4) 0.5870(4) -0.3113(3) 0.0259(10) Uani 1 1 d D . .
C26 C 0.4548(5) 0.4712(5) -0.2844(3) 0.0259(10) Uani 1 1 d D . .
C24 C 0.4786(6) 0.6159(5) -0.3336(4) 0.0259(10) Uani 0.50 1 d PD A 1
H24A H 0.4536 0.6752 -0.3580 0.031 Uiso 0.50 1 calc PR A 1
C25 C 0.4183(5) 0.5581(6) -0.3202(4) 0.0259(10) Uani 0.50 1 d PD A 1
H25A H 0.3523 0.5778 -0.3355 0.031 Uiso 0.50 1 calc PR A 1
C27 C 0.5514(6) 0.4423(5) -0.2621(4) 0.0259(10) Uani 0.50 1 d PD A 1
H27A H 0.5764 0.3830 -0.2377 0.031 Uiso 0.50 1 calc PR A 1
C28 C 0.6116(5) 0.5002(6) -0.2755(4) 0.0259(10) Uani 0.50 1 d PD A 1
H28A H 0.6776 0.4805 -0.2602 0.031 Uiso 0.50 1 calc PR A 1
C25' C 0.4371(10) 0.5513(7) -0.2525(5) 0.0259(10) Uani 0.50 1 d PD A 2
H25B H 0.3838 0.5664 -0.2214 0.031 Uiso 0.50 1 calc PR A 2
C24' C 0.4972(7) 0.6092(10) -0.2658(4) 0.0259(10) Uani 0.50 1 d PD A 2
H24B H 0.4850 0.6639 -0.2439 0.031 Uiso 0.50 1 calc PR A 2
C28' C 0.5927(10) 0.5070(7) -0.3431(5) 0.0259(10) Uani 0.50 1 d PD A 2
H28B H 0.6460 0.4919 -0.3742 0.031 Uiso 0.50 1 calc PR A 2
C27' C 0.5327(7) 0.4489(11) -0.3299(4) 0.0259(10) Uani 0.50 1 d PD A 2
H27B H 0.5449 0.3942 -0.3518 0.031 Uiso 0.50 1 calc PR A 2
O10 O -0.1556(8) 0.8192(7) -0.1289(4) 0.0460(13) Uani 1 1 d . . .
O9 O -0.1171(15) 0.7847(14) -0.2131(8) 0.0460(13) Uani 0.50 1 d P B 1
C31 C -0.1024(7) 0.8231(9) -0.1700(10) 0.0460(13) Uani 0.50 1 d PD B 1
C32 C -0.0392(7) 0.8876(8) -0.1854(5) 0.0460(13) Uani 0.50 1 d PD B 1
C33 C 0.0379(10) 0.8674(9) -0.2313(5) 0.0460(13) Uani 0.50 1 d PD B 1
H33A H 0.0511 0.8126 -0.2533 0.055 Uiso 0.50 1 calc PR B 1
C34 C 0.0957(10) 0.9275(10) -0.2450(6) 0.0460(13) Uani 0.50 1 d PD B 1
H34A H 0.1483 0.9137 -0.2764 0.055 Uiso 0.50 1 calc PR B 1
C35 C 0.0764(10) 1.0077(9) -0.2129(7) 0.0460(13) Uani 0.50 1 d PD B 1
C36 C -0.0007(12) 1.0279(10) -0.1670(7) 0.0460(13) Uani 0.50 1 d PD B 1
H36A H -0.0139 1.0827 -0.1450 0.055 Uiso 0.50 1 calc PR B 1
C37 C -0.0584(10) 0.9678(11) -0.1533(5) 0.0460(13) Uani 0.50 1 d PD B 1
H37A H -0.1111 0.9816 -0.1219 0.055 Uiso 0.50 1 calc PR B 1
O9' O -0.2312(15) 0.8778(14) -0.2178(8) 0.0460(13) Uani 0.50 1 d P B 2
C31' C -0.1657(17) 0.8771(15) -0.1789(13) 0.0460(13) Uani 0.50 1 d PD B 2
C32' C -0.1048(8) 0.9442(7) -0.1905(6) 0.0460(13) Uani 0.50 1 d PD B 2
C33' C -0.0108(9) 0.9142(8) -0.1654(6) 0.0460(13) Uani 0.50 1 d PD B 2
H33B H 0.0099 0.8562 -0.1398 0.055 Uiso 0.50 1 calc PR B 2
C34' C 0.0529(8) 0.9688(10) -0.1777(7) 0.0460(13) Uani 0.50 1 d PD B 2
H34B H 0.1171 0.9482 -0.1605 0.055 Uiso 0.50 1 calc PR B 2
C35' C 0.0227(9) 1.0536(10) -0.2152(7) 0.0460(13) Uani 0.50 1 d PD B 2
C36' C -0.0713(10) 1.0837(9) -0.2404(7) 0.0460(13) Uani 0.50 1 d PD B 2
H36B H -0.0920 1.1417 -0.2660 0.055 Uiso 0.50 1 calc PR B 2
C37' C -0.1349(8) 1.0290(9) -0.2280(6) 0.0460(13) Uani 0.50 1 d PD B 2
H37B H -0.1991 1.0496 -0.2452 0.055 Uiso 0.50 1 calc PR B 2
C38 C 0.2154(12) 1.1791(13) -0.4923(4) 0.0498(13) Uani 1 1 d D . .
C39 C 0.1983(7) 1.1544(5) -0.4304(4) 0.0498(13) Uani 1 1 d D . .
C40 C 0.1137(7) 1.1295(7) -0.4063(3) 0.0498(13) Uani 1 1 d D B .
H40A H 0.0645 1.1282 -0.4296 0.060 Uiso 1 1 calc R . .
C41 C 0.0988(7) 1.1065(8) -0.3493(3) 0.0498(13) Uani 1 1 d D . .
H41A H 0.0402 1.0898 -0.3343 0.060 Uiso 1 1 calc R B .
C42 C 0.1697(8) 1.1079(8) -0.3143(4) 0.0498(13) Uani 1 1 d D B .
C43 C 0.2545(9) 1.1327(9) -0.3381(4) 0.0498(13) Uani 1 1 d D . .
H43A H 0.3038 1.1341 -0.3148 0.060 Uiso 1 1 calc R B .
C44 C 0.2689(8) 1.1557(8) -0.3952(4) 0.0498(13) Uani 1 1 d D B .
H44A H 0.3275 1.1724 -0.4102 0.060 Uiso 1 1 calc R . .
C45 C -0.1224(16) 1.5424(8) -0.1704(8) 0.094(2) Uani 1 1 d D . .
C46 C -0.0497(5) 1.4344(7) -0.1828(4) 0.094(2) Uani 1 1 d D . .
C47 C -0.0162(8) 1.4133(7) -0.2385(4) 0.094(2) Uani 1 1 d D B .
H47A H -0.0326 1.4670 -0.2668 0.113 Uiso 1 1 calc R . .
C48 C 0.0412(11) 1.3135(8) -0.2527(3) 0.094(2) Uani 1 1 d D . .
H48A H 0.0640 1.2992 -0.2908 0.113 Uiso 1 1 calc R B .
C49 C 0.0652(12) 1.2348(6) -0.2113(5) 0.094(2) Uani 1 1 d D B .
C50 C 0.0319(13) 1.2557(8) -0.1556(4) 0.094(2) Uani 1 1 d D . .
H50A H 0.0482 1.2020 -0.1273 0.113 Uiso 1 1 calc R B .
C51 C -0.0256(10) 1.3555(9) -0.1415(4) 0.094(2) Uani 1 1 d D B .
H51A H -0.0484 1.3699 -0.1034 0.113 Uiso 1 1 calc R . .
C52 C 0.5666(9) 0.8534(14) -0.1414(7) 0.104(3) Uani 1 1 d D . .
C53 C 0.4612(6) 0.9138(9) -0.1651(4) 0.104(3) Uani 1 1 d D . .
C54 C 0.4348(8) 0.8857(7) -0.2118(4) 0.104(3) Uani 1 1 d D B .
H54A H 0.4834 0.8265 -0.2296 0.124 Uiso 1 1 calc R . .
C55 C 0.3371(9) 0.9444(9) -0.2326(4) 0.104(3) Uani 1 1 d D . .
H55A H 0.3190 0.9251 -0.2645 0.124 Uiso 1 1 calc R B .
C56 C 0.2658(7) 1.0311(8) -0.2066(5) 0.104(3) Uani 1 1 d D B .
C57 C 0.2923(8) 1.0592(7) -0.1599(5) 0.104(3) Uani 1 1 d D . .
H57A H 0.2436 1.1185 -0.1421 0.124 Uiso 1 1 calc R B .
C58 C 0.3900(9) 1.0006(9) -0.1391(4) 0.104(3) Uani 1 1 d D B .
H58A H 0.4081 1.0198 -0.1072 0.124 Uiso 1 1 calc R . .
Cd4 Cd 0.3538(4) 0.4804(4) 0.0559(2) 0.0564(12) Uani 0.25 1 d PD . .
Cd5 Cd 0.2351(3) 0.7367(3) 0.0139(2) 0.0480(10) Uani 0.25 1 d PD . .
O41S O 0.233(3) 0.6388(19) 0.087(2) 0.092(8) Uani 0.25 1 d PD . .
O42S O 0.510(2) 0.373(4) 0.097(2) 0.092(8) Uani 0.25 1 d PD . .
O52S O 0.410(2) 0.728(5) 0.011(2) 0.092(8) Uani 0.25 1 d PD . .
O51S O 0.0478(6) 0.826(4) 0.023(2) 0.092(8) Uani 0.25 1 d PD . .
O53S O 0.191(5) 0.734(5) -0.0757(10) 0.092(8) Uani 0.25 1 d PD . .
O54S O 0.224(5) 0.584(2) -0.001(2) 0.092(8) Uani 0.25 1 d PD . .
Cd6 Cd 0.1783(3) 1.0042(4) -0.55162(19) 0.0510(11) Uani 0.25 1 d PD C 1
O62S O 0.098(2) 1.042(3) -0.6355(7) 0.041(3) Uani 0.25 1 d PD C 1
O61S O 0.3132(19) 0.920(2) -0.4918(11) 0.041(3) Uani 0.25 1 d PD C 1
O63S O 0.304(2) 1.051(3) -0.6100(14) 0.041(3) Uani 0.25 1 d PD . 1
O64S O 0.072(3) 0.950(3) -0.4823(11) 0.041(3) Uani 0.25 1 d PD C 1
Cd7 Cd 0.2301(3) 0.7816(3) -0.51810(19) 0.0470(10) Uani 0.25 1 d PD D 2
O71S O 0.212(3) 0.6393(16) -0.4685(13) 0.041(3) Uani 0.25 1 d PD D 2
O72S O 0.195(3) 0.714(3) -0.5928(9) 0.041(3) Uani 0.25 1 d PD D 2
O73S O 0.208(3) 0.9191(17) -0.5841(11) 0.041(3) Uani 0.25 1 d PD D 2
O74S O 0.288(3) 0.861(3) -0.4587(11) 0.041(3) Uani 0.25 1 d PD D 2
O76S O 0.4141(7) 0.679(2) -0.5337(15) 0.041(3) Uani 0.25 1 d PD D 2
O75S O 0.0489(9) 0.876(2) -0.4884(15) 0.041(3) Uani 0.25 1 d PD D 2

loop_
_atom_site_aniso_label
_atom_site_aniso_U_11
_atom_site_aniso_U_22
_atom_site_aniso_U_33
_atom_site_aniso_U_23
_atom_site_aniso_U_13
_atom_site_aniso_U_12
Cd1 0.0109(3) 0.0165(3) 0.0161(3) 0.0011(2) -0.0023(2) -0.0003(3)
Cd2 0.0311(4) 0.0257(4) 0.0249(4) -0.0016(3) -0.0013(3) -0.0121(3)
Cd3 0.082(3) 0.060(2) 0.0395(16) 0.0022(15) 0.002(2) -0.026(2)
O4 0.068(3) 0.069(3) 0.040(3) -0.005(2) 0.000(2) -0.042(3)
Cd3' 0.073(2) 0.0429(19) 0.0367(16) -0.0119(14) 0.0096(17) -0.0375(18)
O4' 0.068(3) 0.069(3) 0.040(3) -0.005(2) 0.000(2) -0.042(3)
Si1 0.0073(11) 0.0143(12) 0.0221(13) -0.0027(10) 0.0007(9) -0.0001(9)
Si2 0.228(9) 0.121(5) 0.030(2) -0.001(3) -0.002(4) -0.140(6)
O1 0.0197(16) 0.0272(17) 0.0337(18) 0.0045(14) -0.0141(13) 0.0005(13)
O2 0.0197(16) 0.0272(17) 0.0337(18) 0.0045(14) -0.0141(13) 0.0005(13)
O3 0.068(3) 0.069(3) 0.040(3) -0.005(2) 0.000(2) -0.042(3)
O5 0.035(2) 0.0237(18) 0.049(2) -0.0067(16) -0.0042(17) -0.0044(16)
O6 0.035(2) 0.0237(18) 0.049(2) -0.0067(16) -0.0042(17) -0.0044(16)
O7 0.086(8) 0.115(10) 0.047(6) 0.028(6) -0.032(6) -0.084(8)
O8 0.094(9) 0.129(11) 0.033(5) -0.006(6) -0.005(5) -0.097(9)
O11 0.028(4) 0.055(6) 0.024(4) 0.009(4) -0.007(3) -0.014(4)
O12 0.035(5) 0.068(6) 0.025(4) 0.006(4) -0.007(4) -0.022(4)
O14 0.168(7) 0.093(4) 0.051(3) 0.025(3) -0.029(4) -0.083(5)
O15 0.141(6) 0.091(5) 0.090(5) -0.061(4) 0.077(5) -0.072(5)
O16 0.141(6) 0.091(5) 0.090(5) -0.061(4) 0.077(5) -0.072(5)
O13 0.168(7) 0.093(4) 0.051(3) 0.025(3) -0.029(4) -0.083(5)
C1 0.0197(16) 0.0272(17) 0.0337(18) 0.0045(14) -0.0141(13) 0.0005(13)
C2 0.0197(16) 0.0272(17) 0.0337(18) 0.0045(14) -0.0141(13) 0.0005(13)
C3 0.0197(16) 0.0272(17) 0.0337(18) 0.0045(14) -0.0141(13) 0.0005(13)
C4 0.0197(16) 0.0272(17) 0.0337(18) 0.0045(14) -0.0141(13) 0.0005(13)
C5 0.0197(16) 0.0272(17) 0.0337(18) 0.0045(14) -0.0141(13) 0.0005(13)
C6 0.0197(16) 0.0272(17) 0.0337(18) 0.0045(14) -0.0141(13) 0.0005(13)
C7 0.0197(16) 0.0272(17) 0.0337(18) 0.0045(14) -0.0141(13) 0.0005(13)
C8 0.068(3) 0.069(3) 0.040(3) -0.005(2) 0.000(2) -0.042(3)
C9 0.068(3) 0.069(3) 0.040(3) -0.005(2) 0.000(2) -0.042(3)
C10 0.068(3) 0.069(3) 0.040(3) -0.005(2) 0.000(2) -0.042(3)
C11 0.068(3) 0.069(3) 0.040(3) -0.005(2) 0.000(2) -0.042(3)
C12 0.068(3) 0.069(3) 0.040(3) -0.005(2) 0.000(2) -0.042(3)
C13 0.068(3) 0.069(3) 0.040(3) -0.005(2) 0.000(2) -0.042(3)
C14 0.068(3) 0.069(3) 0.040(3) -0.005(2) 0.000(2) -0.042(3)
C15 0.035(2) 0.0237(18) 0.049(2) -0.0067(16) -0.0042(17) -0.0044(16)
C16 0.035(2) 0.0237(18) 0.049(2) -0.0067(16) -0.0042(17) -0.0044(16)
C17 0.035(2) 0.0237(18) 0.049(2) -0.0067(16) -0.0042(17) -0.0044(16)
C18 0.035(2) 0.0237(18) 0.049(2) -0.0067(16) -0.0042(17) -0.0044(16)
C19 0.035(2) 0.0237(18) 0.049(2) -0.0067(16) -0.0042(17) -0.0044(16)
C20 0.035(2) 0.0237(18) 0.049(2) -0.0067(16) -0.0042(17) -0.0044(16)
C21 0.035(2) 0.0237(18) 0.049(2) -0.0067(16) -0.0042(17) -0.0044(16)
C22 0.021(2) 0.024(2) 0.033(3) -0.003(2) -0.001(2) -0.0091(19)
C23 0.021(2) 0.024(2) 0.033(3) -0.003(2) -0.001(2) -0.0091(19)
C26 0.021(2) 0.024(2) 0.033(3) -0.003(2) -0.001(2) -0.0091(19)
C24 0.021(2) 0.024(2) 0.033(3) -0.003(2) -0.001(2) -0.0091(19)
C25 0.021(2) 0.024(2) 0.033(3) -0.003(2) -0.001(2) -0.0091(19)
C27 0.021(2) 0.024(2) 0.033(3) -0.003(2) -0.001(2) -0.0091(19)
C28 0.021(2) 0.024(2) 0.033(3) -0.003(2) -0.001(2) -0.0091(19)
C25' 0.021(2) 0.024(2) 0.033(3) -0.003(2) -0.001(2) -0.0091(19)
C24' 0.021(2) 0.024(2) 0.033(3) -0.003(2) -0.001(2) -0.0091(19)
C28' 0.021(2) 0.024(2) 0.033(3) -0.003(2) -0.001(2) -0.0091(19)
C27' 0.021(2) 0.024(2) 0.033(3) -0.003(2) -0.001(2) -0.0091(19)
O10 0.044(3) 0.035(3) 0.052(3) -0.006(2) 0.005(3) -0.0