####################################################################### 
# 
# This file contains crystal structure data downloaded from the 
# Cambridge Structural Database (CSD) hosted by the Cambridge 
# Crystallographic Data Centre (CCDC).
# 
# Full information about CCDC data access policies and citation 
# guidelines are available at http://www.ccdc.cam.ac.uk/access/V1 
# 
# Audit and citation data items may have been added by the CCDC. 
# Please retain this information to preserve the provenance of 
# this file and to allow appropriate attribution of the data. 
# 
#######################################################################

data_p21c_sq
_audit_block_doi                 10.5517/cc10mm7h
_database_code_depnum_ccdc_archive 'CCDC 942376'
loop_
_citation_id
_citation_doi
_citation_year
1 10.1039/C3CE41105B 2013
_audit_update_record             
;
2013-07-30 deposited with the CCDC.	2024-07-11 downloaded from the CCDC.
;

_audit_creation_method           SHELXL-97
_chemical_name_systematic        
; 
 ? 
;
_chemical_name_common            ?
_chemical_melting_point          ?
_chemical_formula_moiety         
'Zn4O2 Zn3O4 Zn2O (C28 H16 O8 Si)2 (C28 H17 O8 Si)2'
_chemical_formula_sum            'C112 H66 O39 Si4 Zn9'
_chemical_formula_weight         2736.34

loop_
_atom_type_symbol
_atom_type_description
_atom_type_scat_dispersion_real
_atom_type_scat_dispersion_imag
_atom_type_scat_source
C C 0.0033 0.0016 'International Tables Vol C Tables 4.2.6.8 and 6.1.1.4'
H H 0.0000 0.0000 'International Tables Vol C Tables 4.2.6.8 and 6.1.1.4'
O O 0.0106 0.0060 'International Tables Vol C Tables 4.2.6.8 and 6.1.1.4'
Si Si 0.0817 0.0704 'International Tables Vol C Tables 4.2.6.8 and 6.1.1.4'
Zn Zn 0.2839 1.4301 'International Tables Vol C Tables 4.2.6.8 and 6.1.1.4'

_symmetry_cell_setting           Monoclinic
_symmetry_space_group_name_H-M   P2(1)/c

loop_
_symmetry_equiv_pos_as_xyz
'x, y, z'
'-x, y+1/2, -z+1/2'
'-x, -y, -z'
'x, -y-1/2, z-1/2'

_cell_length_a                   38.22(2)
_cell_length_b                   29.788(19)
_cell_length_c                   25.377(16)
_cell_angle_alpha                90.00
_cell_angle_beta                 99.005(8)
_cell_angle_gamma                90.00
_cell_volume                     28536(30)
_cell_formula_units_Z            4
_cell_measurement_temperature    173(2)
_cell_measurement_reflns_used    9890
_cell_measurement_theta_min      2.1948
_cell_measurement_theta_max      16.3619

_exptl_crystal_description       Blocky
_exptl_crystal_colour            Colorless
_exptl_crystal_size_max          0.30
_exptl_crystal_size_mid          0.20
_exptl_crystal_size_min          0.20
_exptl_crystal_density_meas      'not measured'
_exptl_crystal_density_diffrn    0.637
_exptl_crystal_density_method    'not measured'
_exptl_crystal_F_000             5504
_exptl_absorpt_coefficient_mu    0.793
_exptl_absorpt_correction_type   multi-scan
_exptl_absorpt_correction_T_min  0.7968
_exptl_absorpt_correction_T_max  0.8575
_exptl_absorpt_process_details   'SADABS (Sheldrick, 2008)'

_exptl_special_details           
; 
 ? 
;

_diffrn_ambient_temperature      173(2)
_diffrn_radiation_wavelength     0.71073
_diffrn_radiation_type           MoK\a
_diffrn_radiation_source         'fine-focus sealed tube'
_diffrn_radiation_monochromator  graphite
_diffrn_measurement_device_type  'Bruker SMART APEX II CCD area detector'
_diffrn_measurement_method       'phi and omega scans'
_diffrn_detector_area_resol_mean ?
_diffrn_reflns_number            346308
_diffrn_reflns_av_R_equivalents  0.1245
_diffrn_reflns_av_sigmaI/netI    0.2692
_diffrn_reflns_limit_h_min       -51
_diffrn_reflns_limit_h_max       51
_diffrn_reflns_limit_k_min       -39
_diffrn_reflns_limit_k_max       39
_diffrn_reflns_limit_l_min       -34
_diffrn_reflns_limit_l_max       33
_diffrn_reflns_theta_min         1.59
_diffrn_reflns_theta_max         28.56
_reflns_number_total             72070
_reflns_number_gt                16081
_reflns_threshold_expression     >2sigma(I)

_computing_data_collection       'APEX2  (Bruker, 2008)'
_computing_cell_refinement       'SAINT+ ver. (Bruker, 2001)'
_computing_data_reduction        'SAINT+ ver. (Bruker, 2001)'
_computing_structure_solution    'SHELXS-97 (Sheldrick, 2008)'
_computing_structure_refinement  'SHELXL-97 (Sheldrick, 2008)'
_computing_molecular_graphics    'SHELXTL (Sheldrick, 2008)'
_computing_publication_material  'SHELXTL (Sheldrick, 2008)'

_refine_special_details          
; 
 Refinement of F^2^ against ALL reflections.  The weighted R-factor wR and 
 goodness of fit S are based on F^2^, conventional R-factors R are based 
 on F, with F set to zero for negative F^2^. The threshold expression of 
 F^2^ > 2sigma(F^2^) is used only for calculating R-factors(gt) etc. and is 
 not relevant to the choice of reflections for refinement.  R-factors based 
 on F^2^ are statistically about twice as large as those based on F, and R- 
 factors based on ALL data will be even larger. 
;

_refine_ls_structure_factor_coef Fsqd
_refine_ls_matrix_type           full
_refine_ls_weighting_scheme      calc
_refine_ls_weighting_details     
'calc w=1/[\s^2^(Fo^2^)+(0.0380P)^2^+0.5000P] where P=(Fo^2^+2Fc^2^)/3'
_atom_sites_solution_primary     direct
_atom_sites_solution_secondary   difmap
_atom_sites_solution_hydrogens   geom
_refine_ls_hydrogen_treatment    constr
_refine_ls_extinction_method     none
_refine_ls_extinction_coef       ?
_refine_ls_number_reflns         72070
_refine_ls_number_parameters     613
_refine_ls_number_restraints     17
_refine_ls_R_factor_all          0.2487
_refine_ls_R_factor_gt           0.0803
_refine_ls_wR_factor_ref         0.1895
_refine_ls_wR_factor_gt          0.1782
_refine_ls_goodness_of_fit_ref   1.001
_refine_ls_restrained_S_all      1.002
_refine_ls_shift/su_max          0.001
_refine_ls_shift/su_mean         0.000

loop_
_atom_site_label
_atom_site_type_symbol
_atom_site_fract_x
_atom_site_fract_y
_atom_site_fract_z
_atom_site_U_iso_or_equiv
_atom_site_adp_type
_atom_site_occupancy
_atom_site_symmetry_multiplicity
_atom_site_calc_flag
_atom_site_refinement_flags
_atom_site_disorder_assembly
_atom_site_disorder_group
Zn1 Zn 0.450049(15) 0.445127(17) 0.75668(2) 0.06380(18) Uani 1 1 d . . .
Zn2 Zn 0.521194(15) 0.392759(18) 0.74051(2) 0.06872(19) Uani 1 1 d . . .
Zn3 Zn 0.841248(19) 0.60239(2) 0.91065(3) 0.1062(3) Uani 1 1 d . . .
Zn4 Zn 0.840079(18) 0.54059(2) 1.01952(3) 0.0970(2) Uani 1 1 d . . .
Zn5 Zn 0.446954(15) 0.393535(18) 0.64905(2) 0.06572(18) Uani 1 1 d . . .
Zn6 Zn 0.451211(16) 0.344799(18) 0.75959(2) 0.07070(19) Uani 1 1 d . . .
Zn7 Zn 0.140418(19) 0.14935(2) 0.46960(3) 0.1050(3) Uani 1 1 d . . .
Zn8 Zn 0.16750(2) 0.63330(3) 0.52557(4) 0.1259(3) Uani 1 1 d . . .
Zn9 Zn 0.91676(2) 0.40719(3) 0.47150(4) 0.1513(4) Uani 1 1 d . . .
Si1 Si 0.61742(4) 0.61419(4) 0.93473(5) 0.0618(4) Uani 1 1 d . . .
Si2 Si 0.21946(4) 0.37708(6) 0.67181(7) 0.0926(5) Uani 1 1 d . . .
Si3 Si 0.92190(5) 0.34521(7) 0.80892(8) 0.1257(7) Uani 1 1 d . . .
Si4 Si 0.39302(4) 0.67376(5) 0.54746(6) 0.0823(5) Uani 1 1 d . . .
O1S O 0.46989(7) 0.39325(8) 0.72514(12) 0.0649(9) Uani 1 1 d . . .
O1 O 0.54358(8) 0.44880(10) 0.76794(13) 0.0852(11) Uani 1 1 d . . .
O2 O 0.49495(9) 0.47607(10) 0.79489(12) 0.0747(5) Uani 1 1 d . . .
O2S O 0.86313(9) 0.59453(11) 0.99111(13) 0.0967(12) Uani 1 1 d . . .
O3 O 0.56094(8) 0.56734(10) 1.17310(12) 0.0744(5) Uani 1 1 d . . .
O3S O 0.82097(15) 0.61573(17) 0.8232(2) 0.1952(10) Uani 1 1 d . . .
O4 O 0.57339(10) 0.64205(11) 1.18124(14) 0.1014(12) Uani 1 1 d . . .
O4S O 0.88651(15) 0.64146(17) 0.9044(2) 0.1952(10) Uani 1 1 d . . .
O5 O 0.55406(9) 0.82256(10) 0.85736(12) 0.0810(10) Uani 1 1 d . . .
O5S O 0.84475(15) 0.48264(17) 1.0650(2) 0.1952(10) Uani 1 1 d . . .
O6 O 0.57592(9) 0.79977(10) 0.78536(13) 0.0829(6) Uani 1 1 d . . .
O7S O 0.45953(15) 0.39288(17) 0.5753(2) 0.1952(10) Uani 1 1 d . . .
O7 O 0.78904(8) 0.54920(12) 0.99709(13) 0.1017(12) Uani 1 1 d D . .
O8 O 0.79263(9) 0.58215(15) 0.91735(15) 0.1286(15) Uani 1 1 d D . .
O9 O 0.16061(10) 0.42927(13) 0.90357(14) 0.1045(7) Uani 1 1 d . . .
O10 O 0.17581(10) 0.35841(14) 0.92046(17) 0.1212(14) Uani 1 1 d . . .
O11 O 0.39511(8) 0.39165(10) 0.65034(15) 0.0936(11) Uani 1 1 d . . .
O12 O 0.39544(9) 0.42167(14) 0.72820(15) 0.1089(7) Uani 1 1 d . . .
O13 O 0.18285(14) 0.16585(14) 0.57392(19) 0.182(2) Uani 1 1 d D . .
O14 O 0.15133(11) 0.20561(12) 0.50609(15) 0.1204(14) Uani 1 1 d D . .
O15 O 0.11641(15) 0.54404(18) 0.5543(2) 0.160(2) Uani 1 1 d . . .
O16 O 0.16660(16) 0.56915(18) 0.5433(2) 0.157(2) Uani 1 1 d . . .
O17 O 0.85854(10) 0.54238(14) 0.89007(15) 0.1173(14) Uani 1 1 d . . .
O18 O 0.85253(11) 0.49905(13) 0.95957(17) 0.1218(8) Uani 1 1 d . . .
O19 O 0.85985(15) 0.35434(17) 0.54508(19) 0.171(2) Uani 1 1 d . . .
O20 O 0.90823(14) 0.3900(2) 0.5436(2) 0.174(2) Uani 1 1 d . . .
O21 O 0.90642(14) 0.14744(17) 0.9396(2) 0.1703(19) Uani 1 1 d . . .
O22 O 0.84950(14) 0.16720(17) 0.9177(2) 0.1722(7) Uani 1 1 d . . .
O23 O 1.09500(13) 0.34275(17) 0.9220(2) 0.1722(7) Uani 1 1 d D . .
O24 O 1.07512(12) 0.34423(16) 0.99331(18) 0.1722(7) Uani 1 1 d D . .
H24B H 1.0930 0.3595 1.0058 0.258 Uiso 1 1 calc R . .
O25 O 0.44584(9) 0.46426(11) 0.63936(13) 0.0852(6) Uani 1 1 d . . .
O26 O 0.43766(10) 0.49825(10) 0.71438(15) 0.1096(13) Uani 1 1 d . . .
O27 O 0.21668(11) 0.64116(15) 0.5324(2) 0.1497(8) Uani 1 1 d . . .
O28 O 0.21446(11) 0.71087(15) 0.5056(2) 0.1497(8) Uani 1 1 d . . .
O29 O 0.50865(13) 0.80774(15) 0.70133(19) 0.1480(7) Uani 1 1 d . . .
O30 O 0.46303(9) 0.85132(13) 0.70109(15) 0.1057(13) Uani 1 1 d . . .
O31 O 0.40429(11) 0.63204(14) 0.28288(17) 0.1480(7) Uani 1 1 d D . .
H31A H 0.4127 0.6346 0.2544 0.222 Uiso 1 1 calc R . .
O32 O 0.46130(12) 0.62733(14) 0.32286(18) 0.1480(7) Uani 1 1 d D . .
O6S O 0.96952(15) 0.41695(17) 0.4840(2) 0.1952(10) Uani 1 1 d . . .
C1 C 0.52728(15) 0.47527(17) 0.7957(2) 0.0747(5) Uani 1 1 d . . .
C2 C 0.55016(8) 0.51030(9) 0.82494(11) 0.0747(5) Uani 1 1 d G . .
C3 C 0.58685(8) 0.50644(9) 0.83397(12) 0.0747(5) Uani 1 1 d G . .
H3A H 0.5980 0.4825 0.8182 0.090 Uiso 1 1 calc R . .
C4 C 0.60724(6) 0.53758(10) 0.86606(12) 0.0747(5) Uani 1 1 d G . .
H4A H 0.6323 0.5349 0.8722 0.090 Uiso 1 1 calc R . .
C5 C 0.59093(8) 0.57258(9) 0.88912(11) 0.0747(5) Uani 1 1 d G . .
C6 C 0.55424(8) 0.57644(9) 0.88009(12) 0.0747(5) Uani 1 1 d G . .
H6A H 0.5431 0.6004 0.8959 0.090 Uiso 1 1 calc R . .
C7 C 0.53385(6) 0.54530(10) 0.84800(12) 0.0747(5) Uani 1 1 d G . .
H7A H 0.5088 0.5479 0.8418 0.090 Uiso 1 1 calc R . .
C11 C 0.57178(13) 0.60376(19) 1.1563(2) 0.0744(5) Uani 1 1 d . . .
C12 C 0.58613(8) 0.60494(11) 1.10455(10) 0.0744(5) Uani 1 1 d G . .
C13 C 0.57511(7) 0.57182(9) 1.06702(13) 0.0744(5) Uani 1 1 d G . .
H13A H 0.5609 0.5477 1.0758 0.089 Uiso 1 1 calc R . .
C14 C 0.58492(8) 0.57407(9) 1.01661(11) 0.0744(5) Uani 1 1 d G . .
H14A H 0.5774 0.5514 0.9910 0.089 Uiso 1 1 calc R . .
C15 C 0.60575(8) 0.60943(10) 1.00372(10) 0.0744(5) Uani 1 1 d G . .
C16 C 0.61678(8) 0.64255(9) 1.04125(13) 0.0744(5) Uani 1 1 d G . .
H16A H 0.6310 0.6667 1.0324 0.089 Uiso 1 1 calc R . .
C17 C 0.60696(8) 0.64030(9) 1.09167(11) 0.0744(5) Uani 1 1 d G . .
H17A H 0.6145 0.6629 1.1173 0.089 Uiso 1 1 calc R . .
C21 C 0.56913(15) 0.79651(17) 0.8323(2) 0.0829(6) Uani 1 1 d . . .
C22 C 0.58267(9) 0.75260(8) 0.85785(12) 0.0829(6) Uani 1 1 d G . .
C23 C 0.57808(9) 0.74411(9) 0.91019(12) 0.0829(6) Uani 1 1 d G . .
H23A H 0.5674 0.7661 0.9297 0.099 Uiso 1 1 calc R . .
C24 C 0.58908(9) 0.70343(10) 0.93405(10) 0.0829(6) Uani 1 1 d G . .
H24A H 0.5859 0.6976 0.9698 0.099 Uiso 1 1 calc R . .
C25 C 0.60468(9) 0.67124(8) 0.90556(12) 0.0829(6) Uani 1 1 d G . .
C26 C 0.60927(9) 0.67973(9) 0.85322(12) 0.0829(6) Uani 1 1 d G . .
H26A H 0.6199 0.6577 0.8337 0.099 Uiso 1 1 calc R . .
C27 C 0.59826(9) 0.72041(10) 0.82936(10) 0.0829(6) Uani 1 1 d G . .
H27A H 0.6014 0.7262 0.7936 0.099 Uiso 1 1 calc R . .
C31 C 0.77547(7) 0.56791(14) 0.95327(15) 0.0952(7) Uani 1 1 d D . .
C32 C 0.73697(6) 0.58120(10) 0.94623(13) 0.0952(7) Uani 1 1 d GD . .
C33 C 0.72194(9) 0.61203(11) 0.90817(12) 0.0952(7) Uani 1 1 d GD . .
H33A H 0.7361 0.6258 0.8851 0.114 Uiso 1 1 calc R . .
C34 C 0.68620(9) 0.62272(10) 0.90389(12) 0.0952(7) Uani 1 1 d GD . .
H34A H 0.6759 0.6438 0.8779 0.114 Uiso 1 1 calc R . .
C35 C 0.66551(6) 0.60260(11) 0.93767(14) 0.0952(7) Uani 1 1 d GD . .
C36 C 0.68054(9) 0.57178(11) 0.97572(13) 0.0952(7) Uani 1 1 d GD . .
H36A H 0.6664 0.5580 0.9988 0.114 Uiso 1 1 calc R . .
C37 C 0.71627(9) 0.56108(10) 0.98000(12) 0.0952(7) Uani 1 1 d GD . .
H37A H 0.7266 0.5400 1.0060 0.114 Uiso 1 1 calc R . .
C41 C 0.17326(16) 0.3921(3) 0.8911(3) 0.1045(7) Uani 1 1 d . . .
C42 C 0.18448(10) 0.38847(14) 0.84089(12) 0.1045(7) Uani 1 1 d G . .
C43 C 0.18057(9) 0.42501(10) 0.80641(16) 0.1045(7) Uani 1 1 d G . .
H43A H 0.1707 0.4522 0.8169 0.125 Uiso 1 1 calc R . .
C44 C 0.19113(10) 0.42174(11) 0.75656(14) 0.1045(7) Uani 1 1 d G . .
H44A H 0.1885 0.4467 0.7330 0.125 Uiso 1 1 calc R . .
C45 C 0.20561(10) 0.38192(14) 0.74121(12) 0.1045(7) Uani 1 1 d G . .
C46 C 0.20953(9) 0.34538(10) 0.77569(16) 0.1045(7) Uani 1 1 d G . .
H46A H 0.2194 0.3182 0.7652 0.125 Uiso 1 1 calc R . .
C47 C 0.19896(9) 0.34865(11) 0.82554(14) 0.1045(7) Uani 1 1 d G . .
H47A H 0.2016 0.3237 0.8491 0.125 Uiso 1 1 calc R . .
C51 C 0.37896(16) 0.4019(2) 0.6896(3) 0.1089(7) Uani 1 1 d . . .
C52 C 0.34187(7) 0.39522(13) 0.68545(16) 0.1089(7) Uani 1 1 d G . .
C53 C 0.32292(9) 0.37361(13) 0.64146(13) 0.1089(7) Uani 1 1 d G . .
H53A H 0.3348 0.3632 0.6136 0.131 Uiso 1 1 calc R . .
C54 C 0.28663(9) 0.36715(13) 0.63831(13) 0.1089(7) Uani 1 1 d G . .
H54A H 0.2737 0.3524 0.6082 0.131 Uiso 1 1 calc R . .
C55 C 0.26929(7) 0.38231(13) 0.67915(16) 0.1089(7) Uani 1 1 d G . .
C56 C 0.28824(9) 0.40393(13) 0.72314(13) 0.1089(7) Uani 1 1 d G . .
H56A H 0.2764 0.4143 0.7511 0.131 Uiso 1 1 calc R . .
C57 C 0.32453(9) 0.41038(12) 0.72629(13) 0.1089(7) Uani 1 1 d G . .
H57A H 0.3375 0.4252 0.7564 0.131 Uiso 1 1 calc R . .
C61 C 0.17079(17) 0.20216(11) 0.5514(2) 0.1248(9) Uani 1 1 d D . .
C62 C 0.18280(11) 0.24461(11) 0.58118(17) 0.1248(9) Uani 1 1 d GD . .
C63 C 0.20190(11) 0.24293(10) 0.63248(17) 0.1248(9) Uani 1 1 d G . .
H63A H 0.2075 0.2148 0.6492 0.150 Uiso 1 1 calc R . .
C64 C 0.21278(10) 0.28246(14) 0.65923(13) 0.1248(9) Uani 1 1 d G . .
H64A H 0.2258 0.2813 0.6943 0.150 Uiso 1 1 calc R . .
C65 C 0.20456(10) 0.32367(11) 0.63469(16) 0.1248(9) Uani 1 1 d G . .
C66 C 0.18547(11) 0.32535(11) 0.58340(16) 0.1248(9) Uani 1 1 d G . .
H66A H 0.1799 0.3535 0.5666 0.150 Uiso 1 1 calc R . .
C67 C 0.17459(10) 0.28582(15) 0.55664(12) 0.1248(9) Uani 1 1 d G . .
H67A H 0.1615 0.2870 0.5216 0.150 Uiso 1 1 calc R . .
C71 C 0.1473(3) 0.5378(4) 0.5600(5) 0.170(4) Uani 1 1 d . . .
C72 C 0.1647(2) 0.49839(19) 0.57991(17) 0.109(2) Uani 1 1 d G . .
C73 C 0.20141(19) 0.49440(18) 0.58838(19) 0.132(3) Uani 1 1 d G . .
H73A H 0.2156 0.5173 0.5764 0.158 Uiso 1 1 calc R . .
C74 C 0.21740(10) 0.4569(2) 0.6144(2) 0.114(2) Uani 1 1 d G . .
H74A H 0.2425 0.4542 0.6202 0.137 Uiso 1 1 calc R . .
C75 C 0.1967(2) 0.42339(16) 0.63202(17) 0.099(2) Uani 1 1 d G . .
C76 C 0.16001(19) 0.4274(2) 0.6236(2) 0.149(3) Uani 1 1 d G . .
H76A H 0.1459 0.4045 0.6356 0.179 Uiso 1 1 calc R . .
C77 C 0.14403(10) 0.4649(3) 0.5975(2) 0.137(3) Uani 1 1 d G . .
H77A H 0.1190 0.4676 0.5917 0.165 Uiso 1 1 calc R . .
C81 C 0.85669(18) 0.5052(3) 0.9141(3) 0.1218(8) Uani 1 1 d . . .
C82 C 0.87081(10) 0.46454(13) 0.88675(17) 0.1218(8) Uani 1 1 d G . .
C83 C 0.88093(10) 0.46894(11) 0.83673(17) 0.1218(8) Uani 1 1 d G . .
H83A H 0.8793 0.4973 0.8194 0.146 Uiso 1 1 calc R . .
C84 C 0.89347(10) 0.43188(16) 0.81213(12) 0.1218(8) Uani 1 1 d G . .
H84A H 0.9004 0.4349 0.7779 0.146 Uiso 1 1 calc R . .
C85 C 0.89589(10) 0.39041(12) 0.83754(17) 0.1218(8) Uani 1 1 d G . .
C86 C 0.88576(10) 0.38600(11) 0.88757(17) 0.1218(8) Uani 1 1 d G . .
H86A H 0.8874 0.3577 0.9049 0.146 Uiso 1 1 calc R . .
C87 C 0.87322(10) 0.42306(16) 0.91217(12) 0.1218(8) Uani 1 1 d G . .
H87A H 0.8663 0.4201 0.9464 0.146 Uiso 1 1 calc R . .
C91 C 0.8894(3) 0.3688(4) 0.5694(4) 0.1722(7) Uani 1 1 d . . .
C92 C 0.89765(16) 0.36058(18) 0.62451(16) 0.1722(7) Uani 1 1 d G . .
C93 C 0.92772(13) 0.37992(15) 0.6536(2) 0.1722(7) Uani 1 1 d G . .
H93A H 0.9433 0.3971 0.6359 0.207 Uiso 1 1 calc R . .
C94 C 0.93497(11) 0.37419(16) 0.7086(2) 0.1722(7) Uani 1 1 d G . .
H94A H 0.9555 0.3874 0.7284 0.207 Uiso 1 1 calc R . .
C95 C 0.91213(16) 0.34912(18) 0.73449(16) 0.1722(7) Uani 1 1 d G . .
C96 C 0.88206(13) 0.32977(15) 0.7054(2) 0.1722(7) Uani 1 1 d G . .
H96A H 0.8665 0.3126 0.7231 0.207 Uiso 1 1 calc R . .
C97 C 0.87481(11) 0.33550(16) 0.6504(2) 0.1722(7) Uani 1 1 d G . .
H97A H 0.8543 0.3223 0.6306 0.207 Uiso 1 1 calc R . .
C101 C 0.8822(3) 0.1722(2) 0.9151(3) 0.1722(7) Uani 1 1 d D . .
C102 C 0.88942(17) 0.21230(15) 0.88207(19) 0.1722(7) Uani 1 1 d GD . .
C103 C 0.86318(10) 0.2429(2) 0.8621(2) 0.1722(7) Uani 1 1 d G . .
H10A H 0.8391 0.2368 0.8649 0.207 Uiso 1 1 calc R . .
C104 C 0.87212(14) 0.28226(17) 0.83805(19) 0.1722(7) Uani 1 1 d G . .
H10B H 0.8542 0.3031 0.8244 0.207 Uiso 1 1 calc R . .
C105 C 0.90730(17) 0.29109(15) 0.83394(19) 0.1722(7) Uani 1 1 d G . .
C106 C 0.93354(10) 0.2605(2) 0.8539(2) 0.1722(7) Uani 1 1 d G . .
H10C H 0.9576 0.2666 0.8511 0.207 Uiso 1 1 calc R . .
C107 C 0.92460(14) 0.22114(17) 0.87796(19) 0.1722(7) Uani 1 1 d G . .
H10D H 0.9425 0.2003 0.8916 0.207 Uiso 1 1 calc R . .
C111 C 1.06740(12) 0.3514(3) 0.94282(18) 0.1722(7) Uani 1 1 d D . .
C112 C 1.03576(11) 0.34960(17) 0.8990(2) 0.1722(7) Uani 1 1 d GD . .
C113 C 1.00701(17) 0.36608(16) 0.92049(16) 0.1722(7) Uani 1 1 d G . .
H11A H 1.0102 0.3768 0.9562 0.207 Uiso 1 1 calc R . .
C114 C 0.97356(13) 0.36689(16) 0.8897(2) 0.1722(7) Uani 1 1 d G . .
H11B H 0.9539 0.3782 0.9044 0.