####################################################################### 
# 
# This file contains crystal structure data downloaded from the 
# Cambridge Structural Database (CSD) hosted by the Cambridge 
# Crystallographic Data Centre (CCDC).
# 
# Full information about CCDC data access policies and citation 
# guidelines are available at http://www.ccdc.cam.ac.uk/access/V1 
# 
# Audit and citation data items may have been added by the CCDC. 
# Please retain this information to preserve the provenance of 
# this file and to allow appropriate attribution of the data. 
# 
#######################################################################

data_pcn513_alertkiller_sq
_audit_block_doi                 10.5517/cc10mm4d
_database_code_depnum_ccdc_archive 'CCDC 942373'
loop_
_citation_id
_citation_doi
_citation_year
1 10.1039/C3CE41105B 2013
_audit_update_record             
;
2013-07-30 deposited with the CCDC.	2024-07-11 downloaded from the CCDC.
;

_audit_creation_method           SHELXL-97
_chemical_name_systematic        
; 
 ? 
;
_chemical_name_common            ?
_chemical_melting_point          ?
_chemical_formula_moiety         'Zn5O2H (C28 H16 O8 Si)2 (C5H9NO)4 (C3H7NO)2'
_chemical_formula_sum            'C82 H84 N6 O24 Si2 Zn5'
_chemical_formula_weight         1920.58

loop_
_atom_type_symbol
_atom_type_description
_atom_type_scat_dispersion_real
_atom_type_scat_dispersion_imag
_atom_type_scat_source
C C 0.0033 0.0016 'International Tables Vol C Tables 4.2.6.8 and 6.1.1.4'
H H 0.0000 0.0000 'International Tables Vol C Tables 4.2.6.8 and 6.1.1.4'
O O 0.0106 0.0060 'International Tables Vol C Tables 4.2.6.8 and 6.1.1.4'
Si Si 0.0817 0.0704 'International Tables Vol C Tables 4.2.6.8 and 6.1.1.4'
Zn Zn 0.2839 1.4301 'International Tables Vol C Tables 4.2.6.8 and 6.1.1.4'
N N 0.0061 0.0033 'International Tables Vol C Tables 4.2.6.8 and 6.1.1.4'

_symmetry_cell_setting           Triclinic
_symmetry_space_group_name_H-M   P-1

loop_
_symmetry_equiv_pos_as_xyz
'x, y, z'
'-x, -y, -z'

_cell_length_a                   13.9350(16)
_cell_length_b                   14.196(3)
_cell_length_c                   14.6708(17)
_cell_angle_alpha                107.988(2)
_cell_angle_beta                 113.7350(10)
_cell_angle_gamma                100.298(2)
_cell_volume                     2368.9(6)
_cell_formula_units_Z            1
_cell_measurement_temperature    110(2)
_cell_measurement_reflns_used    7012
_cell_measurement_theta_min      2.2655
_cell_measurement_theta_max      26.3067

_exptl_crystal_description       Blocky
_exptl_crystal_colour            Colorless
_exptl_crystal_size_max          0.40
_exptl_crystal_size_mid          0.30
_exptl_crystal_size_min          0.30
_exptl_crystal_density_meas      'not measured'
_exptl_crystal_density_diffrn    1.346
_exptl_crystal_density_method    'not measured'
_exptl_crystal_F_000             988
_exptl_absorpt_coefficient_mu    1.343
_exptl_absorpt_correction_type   multi-scan
_exptl_absorpt_correction_T_min  0.6157
_exptl_absorpt_correction_T_max  0.6888
_exptl_absorpt_process_details   'SADABS (Sheldrick, 2008)'

_exptl_special_details           
; 
 ? 
;

_diffrn_ambient_temperature      110(2)
_diffrn_radiation_wavelength     0.71073
_diffrn_radiation_type           MoK\a
_diffrn_radiation_source         'fine-focus sealed tube'
_diffrn_radiation_monochromator  graphite
_diffrn_measurement_device_type  'Bruker SMART APEX II CCD area detector'
_diffrn_measurement_method       'phi and omega scans'
_diffrn_detector_area_resol_mean ?
_diffrn_reflns_number            24912
_diffrn_reflns_av_R_equivalents  0.0481
_diffrn_reflns_av_sigmaI/netI    0.0639
_diffrn_reflns_limit_h_min       -17
_diffrn_reflns_limit_h_max       17
_diffrn_reflns_limit_k_min       -17
_diffrn_reflns_limit_k_max       17
_diffrn_reflns_limit_l_min       -18
_diffrn_reflns_limit_l_max       18
_diffrn_reflns_theta_min         1.67
_diffrn_reflns_theta_max         26.00
_reflns_number_total             9284
_reflns_number_gt                6544
_reflns_threshold_expression     >2sigma(I)

_computing_data_collection       'APEX2  (Bruker, 2008)'
_computing_cell_refinement       'SAINT+ ver. (Bruker, 2001)'
_computing_data_reduction        'SAINT+ ver. (Bruker, 2001)'
_computing_structure_solution    'SHELXS-97 (Sheldrick, 2008)'
_computing_structure_refinement  'SHELXL-97 (Sheldrick, 2008)'
_computing_molecular_graphics    'SHELXTL (Sheldrick, 2008)'
_computing_publication_material  'SHELXTL (Sheldrick, 2008)'

_refine_special_details          
; 
 Refinement of F^2^ against ALL reflections.  The weighted R-factor wR and 
 goodness of fit S are based on F^2^, conventional R-factors R are based 
 on F, with F set to zero for negative F^2^. The threshold expression of 
 F^2^ > 2sigma(F^2^) is used only for calculating R-factors(gt) etc. and is 
 not relevant to the choice of reflections for refinement.  R-factors based 
 on F^2^ are statistically about twice as large as those based on F, and R- 
 factors based on ALL data will be even larger. 
;

_refine_ls_structure_factor_coef Fsqd
_refine_ls_matrix_type           full
_refine_ls_weighting_scheme      calc
_refine_ls_weighting_details     
'calc w=1/[\s^2^(Fo^2^)+(0.2000P)^2^+0.0000P] where P=(Fo^2^+2Fc^2^)/3'
_atom_sites_solution_primary     direct
_atom_sites_solution_secondary   difmap
_atom_sites_solution_hydrogens   geom
_refine_ls_hydrogen_treatment    mixed
_refine_ls_extinction_method     none
_refine_ls_extinction_coef       ?
_refine_ls_number_reflns         9284
_refine_ls_number_parameters     470
_refine_ls_number_restraints     26
_refine_ls_R_factor_all          0.0963
_refine_ls_R_factor_gt           0.0777
_refine_ls_wR_factor_ref         0.2693
_refine_ls_wR_factor_gt          0.2562
_refine_ls_goodness_of_fit_ref   1.000
_refine_ls_restrained_S_all      0.999
_refine_ls_shift/su_max          0.000
_refine_ls_shift/su_mean         0.000

loop_
_atom_site_label
_atom_site_type_symbol
_atom_site_fract_x
_atom_site_fract_y
_atom_site_fract_z
_atom_site_U_iso_or_equiv
_atom_site_adp_type
_atom_site_occupancy
_atom_site_symmetry_multiplicity
_atom_site_calc_flag
_atom_site_refinement_flags
_atom_site_disorder_assembly
_atom_site_disorder_group
Zn1 Zn 0.5000 1.0000 0.5000 0.0243(2) Uani 1 2 d S . .
Zn2 Zn 0.52875(6) 1.20329(6) 0.44345(6) 0.0358(2) Uani 1 1 d . . .
Zn3 Zn 0.30330(7) 0.99584(5) 0.26420(7) 0.0406(3) Uani 1 1 d . . .
Si1 Si 0.23617(12) 1.36569(12) 0.88000(12) 0.0244(3) Uani 1 1 d . . .
O1 O -0.3143(4) 1.2195(4) 0.5134(4) 0.0441(11) Uani 1 1 d . . .
O2 O -0.3362(3) 1.1227(3) 0.6050(4) 0.0371(10) Uani 1 1 d . . .
O3 O 0.3123(4) 1.1105(4) 1.2139(4) 0.0510(13) Uani 1 1 d . . .
O4 O 0.4751(3) 1.2443(3) 1.3211(4) 0.0371(10) Uani 1 1 d . . .
O5 O 0.2704(3) 1.8642(3) 1.1488(3) 0.0354(10) Uani 1 1 d . . .
O6 O 0.4477(3) 1.9072(3) 1.1778(4) 0.0384(10) Uani 1 1 d . . .
O7 O 0.4651(3) 1.2434(3) 0.5395(3) 0.0323(9) Uani 1 1 d . . .
O8 O 0.4270(3) 1.0951(3) 0.5626(3) 0.0334(9) Uani 1 1 d . . .
C1 C -0.2775(5) 1.1843(5) 0.5872(5) 0.0348(14) Uani 1 1 d . . .
C2 C -0.1540(5) 1.2242(5) 0.6572(5) 0.0374(14) Uani 1 1 d . . .
C3 C -0.0832(5) 1.2505(6) 0.6158(5) 0.0452(17) Uani 1 1 d . . .
H3A H -0.1143 1.2412 0.5415 0.054 Uiso 1 1 calc R . .
C4 C 0.0325(5) 1.2902(6) 0.6830(5) 0.0406(16) Uani 1 1 d . . .
H4A H 0.0792 1.3085 0.6540 0.049 Uiso 1 1 calc R . .
C5 C 0.0806(4) 1.3036(4) 0.7912(4) 0.0255(11) Uani 1 1 d . . .
C6 C 0.0088(5) 1.2796(4) 0.8337(5) 0.0307(13) Uani 1 1 d . . .
H6A H 0.0398 1.2923 0.9089 0.037 Uiso 1 1 calc R . .
C7 C -0.1051(5) 1.2382(5) 0.7668(5) 0.0317(13) Uani 1 1 d . . .
H7A H -0.1517 1.2186 0.7954 0.038 Uiso 1 1 calc R . .
C8 C 0.3839(5) 1.1938(5) 1.2355(5) 0.0319(13) Uani 1 1 d . . .
C9 C 0.3511(5) 1.2370(5) 1.1497(5) 0.0292(12) Uani 1 1 d . . .
C10 C 0.4095(5) 1.3402(5) 1.1743(5) 0.0344(13) Uani 1 1 d . . .
H10A H 0.4733 1.3836 1.2443 0.041 Uiso 1 1 calc R . .
C11 C 0.3731(5) 1.3782(5) 1.0950(5) 0.0302(13) Uani 1 1 d . . .
H11A H 0.4109 1.4493 1.1127 0.036 Uiso 1 1 calc R . .
C12 C 0.2821(5) 1.3150(5) 0.9893(5) 0.0314(13) Uani 1 1 d . . .
C13 C 0.2272(5) 1.2123(5) 0.9675(5) 0.0346(14) Uani 1 1 d . . .
H13A H 0.1662 1.1672 0.8962 0.042 Uiso 1 1 calc R . .
C14 C 0.2590(6) 1.1742(5) 1.0469(5) 0.0415(15) Uani 1 1 d . . .
H14A H 0.2178 1.1048 1.0310 0.050 Uiso 1 1 calc R . .
C15 C 0.3518(5) 1.8424(5) 1.1353(5) 0.0312(13) Uani 1 1 d . . .
C16 C 0.3235(5) 1.7295(5) 1.0656(5) 0.0301(12) Uani 1 1 d . . .
C17 C 0.4057(5) 1.6933(5) 1.0523(5) 0.0301(13) Uani 1 1 d . . .
H17A H 0.4785 1.7419 1.0822 0.036 Uiso 1 1 calc R . .
C18 C 0.3809(5) 1.5850(5) 0.9947(5) 0.0304(13) Uani 1 1 d . . .
H18A H 0.4383 1.5607 0.9888 0.036 Uiso 1 1 calc R . .
C19 C 0.2725(5) 1.5117(4) 0.9455(4) 0.0268(12) Uani 1 1 d . . .
C20 C 0.1909(5) 1.5504(5) 0.9554(5) 0.0338(14) Uani 1 1 d . . .
H20A H 0.1164 1.5030 0.9207 0.041 Uiso 1 1 calc R . .
C21 C 0.2163(5) 1.6579(5) 1.0154(5) 0.0338(14) Uani 1 1 d . . .
H21A H 0.1591 1.6822 1.0219 0.041 Uiso 1 1 calc R . .
C22 C 0.4293(5) 1.1880(5) 0.5788(5) 0.0303(13) Uani 1 1 d . . .
C23 C 0.3828(5) 1.2350(5) 0.6510(5) 0.0291(12) Uani 1 1 d . . .
C24 C 0.3934(5) 1.3414(4) 0.6860(5) 0.0296(12) Uani 1 1 d . . .
H24A H 0.4291 1.3853 0.6631 0.036 Uiso 1 1 calc R . .
C25 C 0.3512(5) 1.3832(5) 0.7550(5) 0.0309(13) Uani 1 1 d . . .
H25A H 0.3579 1.4555 0.7779 0.037 Uiso 1 1 calc R . .
C26 C 0.2995(4) 1.3207(4) 0.7909(5) 0.0266(12) Uani 1 1 d . . .
C27 C 0.2899(5) 1.2135(5) 0.7535(5) 0.0348(14) Uani 1 1 d . . .
H27A H 0.2546 1.1689 0.7761 0.042 Uiso 1 1 calc R . .
C28 C 0.3305(5) 1.1724(5) 0.6853(5) 0.0344(14) Uani 1 1 d . . .
H28A H 0.3226 1.0998 0.6612 0.041 Uiso 1 1 calc R . .
O1S O 0.4642(3) 1.0449(3) 0.3744(3) 0.0309(9) Uani 1 1 d . . .
O41S O 0.2048(5) 1.0199(6) 0.3236(6) 0.0747(19) Uani 1 1 d . . .
O51S O -0.0206(8) 1.3599(8) 0.4723(10) 0.162(2) Uani 1 1 d D . .
N41S N 0.1129(6) 1.0977(7) 0.3951(6) 0.076(2) Uani 1 1 d . . .
C41S C 0.1856(8) 1.0958(8) 0.3541(7) 0.069(2) Uani 1 1 d . . .
H41A H 0.2207 1.1576 0.3508 0.082 Uiso 1 1 calc R . .
C42S C 0.1013(10) 1.1982(8) 0.4305(9) 0.087(3) Uani 1 1 d . . .
H42A H 0.1454 1.2462 0.4145 0.131 Uiso 1 1 calc R . .
H42B H 0.1281 1.2271 0.5097 0.131 Uiso 1 1 calc R . .
H42C H 0.0224 1.1905 0.3915 0.131 Uiso 1 1 calc R . .
C43S C 0.0523(10) 1.0173(11) 0.4172(17) 0.162(8) Uani 1 1 d . . .
H43A H 0.0027 1.0439 0.4418 0.243 Uiso 1 1 calc R . .
H43B H 0.1066 1.0035 0.4745 0.243 Uiso 1 1 calc R . .
H43C H 0.0080 0.9517 0.3498 0.243 Uiso 1 1 calc R . .
N51S N -0.1325(6) 1.3942(6) 0.3407(8) 0.162(2) Uani 1 1 d D . .
C53S C -0.2505(8) 1.4543(9) 0.3913(10) 0.162(2) Uani 1 1 d D . .
H53A H -0.2424 1.5299 0.4205 0.194 Uiso 1 1 calc R . .
H53B H -0.3291 1.4108 0.3618 0.194 Uiso 1 1 calc R . .
C51S C -0.0983(7) 1.3909(6) 0.4379(8) 0.162(2) Uani 1 1 d D . .
C52S C -0.1726(10) 1.4300(9) 0.4792(8) 0.162(2) Uani 1 1 d D . .
H52A H -0.2148 1.3750 0.4908 0.194 Uiso 1 1 calc R . .
H52B H -0.1281 1.4941 0.5495 0.194 Uiso 1 1 calc R . .
C54S C -0.2171(8) 1.4281(8) 0.3039(8) 0.162(2) Uani 1 1 d D . .
H54A H -0.2803 1.3725 0.2336 0.194 Uiso 1 1 calc R . .
H54B H -0.1935 1.4915 0.2923 0.194 Uiso 1 1 calc R . .
C55S C -0.0825(11) 1.3628(10) 0.2719(10) 0.162(2) Uani 1 1 d D . .
H55A H -0.1211 1.3715 0.2042 0.243 Uiso 1 1 calc R . .
H55B H -0.0891 1.2886 0.2535 0.243 Uiso 1 1 calc R . .
H55C H -0.0033 1.4070 0.3115 0.243 Uiso 1 1 calc R . .
C61S C -0.3330(7) 1.1049(5) 0.1693(9) 0.190(3) Uani 1 1 d D . .
N61S N -0.2600(7) 1.0863(6) 0.1356(8) 0.190(3) Uani 1 1 d D . .
C62S C -0.2942(10) 1.0929(9) 0.2749(9) 0.190(3) Uani 1 1 d D . .
H62A H -0.3521 1.0359 0.2689 0.228 Uiso 1 1 calc R . .
H62B H -0.2770 1.1595 0.3361 0.228 Uiso 1 1 calc R . .
C63S C -0.1909(10) 1.0655(10) 0.2933(10) 0.190(3) Uani 1 1 d D . .
H63A H -0.2006 0.9957 0.2959 0.228 Uiso 1 1 calc R . .
H63B H -0.1254 1.1193 0.3630 0.228 Uiso 1 1 calc R . .
C64S C -0.1758(8) 1.0632(8) 0.1971(10) 0.190(3) Uani 1 1 d D . .
H64A H -0.1031 1.1159 0.2221 0.228 Uiso 1 1 calc R . .
H64B H -0.1783 0.9924 0.1550 0.228 Uiso 1 1 calc R . .
C65S C -0.2671(12) 1.0900(11) 0.0355(10) 0.190(3) Uani 1 1 d D . .
H65A H -0.3327 1.1078 -0.0014 0.285 Uiso 1 1 calc R . .
H65B H -0.2742 1.0208 -0.0133 0.285 Uiso 1 1 calc R . .
H65C H -0.1994 1.1437 0.0535 0.285 Uiso 1 1 calc R . .
O61S O -0.4165(11) 1.1276(8) 0.1202(11) 0.190(3) Uani 1 1 d D . .
H1S H 0.481(5) 1.013(5) 0.317(6) 0.037(18) Uiso 1 1 d . . .

loop_
_atom_site_aniso_label
_atom_site_aniso_U_11
_atom_site_aniso_U_22
_atom_site_aniso_U_33
_atom_site_aniso_U_23
_atom_site_aniso_U_13
_atom_site_aniso_U_12
Zn1 0.0269(5) 0.0234(5) 0.0268(5) 0.0107(4) 0.0152(4) 0.0125(4)
Zn2 0.0379(4) 0.0542(5) 0.0391(4) 0.0304(4) 0.0260(4) 0.0301(4)
Zn3 0.0503(5) 0.0238(4) 0.0535(5) 0.0098(3) 0.0363(4) 0.0108(3)
Si1 0.0211(7) 0.0258(8) 0.0221(7) 0.0061(6) 0.0098(6) 0.0085(6)
O1 0.027(2) 0.055(3) 0.036(2) 0.011(2) 0.013(2) 0.001(2)
O2 0.024(2) 0.030(2) 0.043(2) 0.0084(19) 0.0114(19) 0.0041(17)
O3 0.040(3) 0.047(3) 0.057(3) 0.035(3) 0.008(2) 0.013(2)
O4 0.032(2) 0.042(3) 0.036(2) 0.020(2) 0.013(2) 0.0109(19)
O5 0.033(2) 0.029(2) 0.036(2) 0.0053(18) 0.0178(19) 0.0055(18)
O6 0.031(2) 0.031(2) 0.043(3) 0.0041(19) 0.021(2) 0.0038(18)
O7 0.044(2) 0.030(2) 0.033(2) 0.0128(18) 0.024(2) 0.0197(19)
O8 0.039(2) 0.036(2) 0.034(2) 0.0155(19) 0.0208(19) 0.0227(19)
C1 0.029(3) 0.035(3) 0.030(3) 0.001(3) 0.016(3) 0.007(3)
C2 0.037(3) 0.034(3) 0.040(4) 0.008(3) 0.024(3) 0.010(3)
C3 0.024(3) 0.066(5) 0.032(3) 0.015(3) 0.012(3) 0.003(3)
C4 0.029(3) 0.058(4) 0.030(3) 0.014(3) 0.016(3) 0.007(3)
C5 0.022(3) 0.021(3) 0.025(3) 0.004(2) 0.010(2) 0.003(2)
C6 0.033(3) 0.029(3) 0.025(3) 0.006(2) 0.014(2) 0.009(2)
C7 0.033(3) 0.027(3) 0.034(3) 0.007(3) 0.022(3) 0.008(2)
C8 0.026(3) 0.031(3) 0.037(3) 0.013(3) 0.014(3) 0.010(2)
C9 0.032(3) 0.035(3) 0.024(3) 0.012(2) 0.015(2) 0.016(3)
C10 0.033(3) 0.039(3) 0.033(3) 0.017(3) 0.016(3) 0.012(3)
C11 0.025(3) 0.037(3) 0.027(3) 0.013(3) 0.011(2) 0.009(2)
C12 0.032(3) 0.034(3) 0.034(3) 0.013(3) 0.019(3) 0.017(3)
C13 0.034(3) 0.027(3) 0.026(3) 0.005(2) 0.004(3) 0.011(3)
C14 0.047(4) 0.027(3) 0.038(4) 0.010(3) 0.013(3) 0.009(3)
C15 0.031(3) 0.036(3) 0.032(3) 0.015(3) 0.020(3) 0.011(3)
C16 0.028(3) 0.032(3) 0.026(3) 0.007(2) 0.014(2) 0.008(2)
C17 0.021(3) 0.029(3) 0.028(3) 0.003(2) 0.010(2) 0.004(2)
C18 0.024(3) 0.036(3) 0.025(3) 0.007(2) 0.011(2) 0.010(2)
C19 0.027(3) 0.029(3) 0.024(3) 0.009(2) 0.013(2) 0.012(2)
C20 0.020(3) 0.034(3) 0.036(3) 0.004(3) 0.013(2) 0.004(2)
C21 0.027(3) 0.033(3) 0.041(3) 0.006(3) 0.024(3) 0.009(2)
C22 0.028(3) 0.035(3) 0.023(3) 0.009(3) 0.008(2) 0.020(3)
C23 0.028(3) 0.032(3) 0.025(3) 0.011(2) 0.009(2) 0.016(2)
C24 0.033(3) 0.027(3) 0.033(3) 0.010(2) 0.021(3) 0.014(2)
C25 0.030(3) 0.030(3) 0.029(3) 0.010(2) 0.012(3) 0.013(2)
C26 0.022(3) 0.031(3) 0.026(3) 0.010(2) 0.012(2) 0.010(2)
C27 0.034(3) 0.036(3) 0.034(3) 0.008(3) 0.019(3) 0.015(3)
C28 0.043(3) 0.032(3) 0.031(3) 0.007(3) 0.021(3) 0.019(3)
O1S 0.037(2) 0.036(2) 0.034(2) 0.0187(19) 0.0234(19) 0.0221(19)
O41S 0.079(4) 0.122(6) 0.090(5) 0.069(4) 0.065(4) 0.076(4)
O51S 0.167(6) 0.169(6) 0.191(6) 0.101(5) 0.092(5) 0.090(5)
N41S 0.056(4) 0.083(6) 0.066(5) -0.006(4) 0.037(4) 0.026(4)
C41S 0.069(6) 0.058(5) 0.055(5) 0.014(4) 0.020(4) 0.015(5)
C42S 0.100(8) 0.065(6) 0.081(7) 0.015(5) 0.046(6) 0.019(6)
C43S 0.074(8) 0.097(10) 0.33(3) 0.113(14) 0.097(13) 0.031(7)
N51S 0.167(6) 0.169(6) 0.191(6) 0.101(5) 0.092(5) 0.090(5)
C53S 0.167(6) 0.169(6) 0.191(6) 0.101(5) 0.092(5) 0.090(5)
C51S 0.167(6) 0.169(6) 0.191(6) 0.101(5) 0.092(5) 0.090(5)
C52S 0.167(6) 0.169(6) 0.191(6) 0.101(5) 0.092(5) 0.090(5)
C54S 0.167(6) 0.169(6) 0.191(6) 0.101(5) 0.092(5) 0.090(5)
C55S 0.167(6) 0.169(6) 0.191(6) 0.101(5) 0.092(5) 0.090(5)
C61S 0.176(7) 0.176(6) 0.188(7) 0.098(6) 0.049(6) 0.053(5)
N61S 0.176(7) 0.176(6) 0.188(7) 0.098(6) 0.049(6) 0.053(5)
C62S 0.176(7) 0.176(6) 0.188(7) 0.098(6) 0.049(6) 0.053(5)
C63S 0.176(7) 0.176(6) 0.188(7) 0.098(6) 0.049(6) 0.053(5)
C64S 0.176(7) 0.176(6) 0.188(7) 0.098(6) 0.049(6) 0.053(5)
C65S 0.176(7) 0.176(6) 0.188(7) 0.098(6) 0.049(6) 0.053(5)
O61S 0.176(7) 0.176(6) 0.188(7) 0.098(6) 0.049(6) 0.053(5)

_geom_special_details            
; 
 All esds (except the esd in the dihedral angle between two l.s. planes) 
 are estimated using the full covariance matrix.  The cell esds are taken 
 into account individually in the estimation of esds in distances, angles 
 and torsion angles; correlations between esds in cell parameters are only 
 used when they are defined by crystal symmetry.  An approximate (isotropic) 
 treatment of cell esds is used for estimating esds involving l.s. planes. 
;

loop_
_geom_bond_atom_site_label_1
_geom_bond_atom_site_label_2
_geom_bond_distance
_geom_bond_site_symmetry_2
_geom_bond_publ_flag
Zn1 O1S 2.037(4) . ?
Zn1 O1S 2.037(4) 2_676 ?
Zn1 O8 2.044(4) . ?
Zn1 O8 2.044(4) 2_676 ?
Zn1 O2 2.170(4) 1_655 ?
Zn1 O2 2.170(4) 2_576 ?
Zn2 O1 1.939(4) 1_655 ?
Zn2 O7 1.946(4) . ?
Zn2 O4 1.960(4) 1_554 ?
Zn2 O1S 2.007(4) . ?
Zn3 O5 1.919(4) 1_544 ?
Zn3 O41S 1.925(5) . ?
Zn3 O1S 1.989(4) . ?
Zn3 O3 1.988(5) 1_554 ?
Si1 C19 1.865(6) . ?
Si1 C5 1.873(5) . ?
Si1 C26 1.874(6) . ?
Si1 C12 1.884(6) . ?
O1 C1 1.289(8) . ?
O1 Zn2 1.939(4) 1_455 ?
O2 C1 1.248(7) . ?
O2 Zn1 2.170(4) 1_455 ?
O3 C8 1.260(7) . ?
O3 Zn3 1.988(5) 1_556 ?
O4 C8 1.241(7) . ?
O4 Zn2 1.960(4) 1_556 ?
O5 C15 1.300(7) . ?
O5 Zn3 1.919(4) 1_566 ?
O6 C15 1.247(7) . ?
O7 C22 1.254(7) . ?
O8 C22 1.258(7) . ?
C1 C2 1.486(9) . ?
C2 C7 1.400(9) . ?
C2 C3 1.406(9) . ?
C3 C4 1.393(9) . ?
C3 H3A 0.9500 . ?
C4 C5 1.385(8) . ?
C4 H4A 0.9500 . ?
C5 C6 1.420(8) . ?
C6 C7 1.373(8) . ?
C6 H6A 0.9500 . ?
C7 H7A 0.9500 . ?
C8 C9 1.511(8) . ?
C9 C14 1.385(9) . ?
C9 C10 1.397(9) . ?
C10 C11 1.383(8) . ?
C10 H10A 0.9500 . ?
C11 C12 1.403(8) . ?
C11 H11A 0.9500 . ?
C12 C13 1.389(9) . ?
C13 C14 1.381(9) . ?
C13 H13A 0.9500 . ?
C14 H14A 0.9500 . ?
C15 C16 1.485(8) . ?
C16 C21 1.384(8) . ?
C16 C17 1.394(8) . ?
C17 C18 1.403(8) . ?
C17 H17A 0.9500 . ?
C18 C19 1.407(8) . ?
C18 H18A 0.9500 . ?
C19 C20 1.388(8) . ?
C20 C21 1.399(8) 