####################################################################### 
# 
# This file contains crystal structure data downloaded from the 
# Cambridge Structural Database (CSD) hosted by the Cambridge 
# Crystallographic Data Centre (CCDC).
# 
# Full information about CCDC data access policies and citation 
# guidelines are available at http://www.ccdc.cam.ac.uk/access/V1 
# 
# Audit and citation data items may have been added by the CCDC. 
# Please retain this information to preserve the provenance of 
# this file and to allow appropriate attribution of the data. 
# 
#######################################################################

data_complex7
_audit_block_doi                 10.5517/cc109gxp
_database_code_depnum_ccdc_archive 'CCDC 932632'
loop_
_citation_id
_citation_doi
_citation_year
1 10.1002/ejic.201300696 2013
_audit_update_record             
;
2013-04-05 deposited with the CCDC.	2024-07-11 downloaded from the CCDC.
;
#TrackingRef 'Combine.CIF'


_audit_creation_method           SHELXL-97
_chemical_name_systematic        
;
?
;
_chemical_name_common            ?
_chemical_melting_point          ?
_chemical_formula_moiety         ?
_chemical_formula_sum            'C25 H27 Cu2 N3 O12'
_chemical_formula_weight         688.54

loop_
_atom_type_symbol
_atom_type_description
_atom_type_scat_dispersion_real
_atom_type_scat_dispersion_imag
_atom_type_scat_source
C C 0.0033 0.0016 'International Tables Vol C Tables 4.2.6.8 and 6.1.1.4'
H H 0.0000 0.0000 'International Tables Vol C Tables 4.2.6.8 and 6.1.1.4'
N N 0.0061 0.0033 'International Tables Vol C Tables 4.2.6.8 and 6.1.1.4'
O O 0.0106 0.0060 'International Tables Vol C Tables 4.2.6.8 and 6.1.1.4'
Cu Cu 0.3201 1.2651 'International Tables Vol C Tables 4.2.6.8 and 6.1.1.4'

_symmetry_cell_setting           Monoclinic
_symmetry_space_group_name_H-M   C2/c

loop_
_symmetry_equiv_pos_as_xyz
'x, y, z'
'-x, y, -z+1/2'
'x+1/2, y+1/2, z'
'-x+1/2, y+1/2, -z+1/2'
'-x, -y, -z'
'x, -y, z-1/2'
'-x+1/2, -y+1/2, -z'
'x+1/2, -y+1/2, z-1/2'

_cell_length_a                   17.713(4)
_cell_length_b                   22.890(5)
_cell_length_c                   9.4705(18)
_cell_angle_alpha                90.00
_cell_angle_beta                 114.930(4)
_cell_angle_gamma                90.00
_cell_volume                     3482.0(12)
_cell_formula_units_Z            4
_cell_measurement_temperature    293(2)
_cell_measurement_reflns_used    ?
_cell_measurement_theta_min      ?
_cell_measurement_theta_max      ?

_exptl_crystal_description       block
_exptl_crystal_colour            blue
_exptl_crystal_size_max          0.44
_exptl_crystal_size_mid          0.33
_exptl_crystal_size_min          0.25
_exptl_crystal_density_meas      ?
_exptl_crystal_density_diffrn    1.306
_exptl_crystal_density_method    'not measured'
_exptl_crystal_F_000             1392
_exptl_absorpt_coefficient_mu    1.276
_exptl_absorpt_correction_type   ?
_exptl_absorpt_correction_T_min  ?
_exptl_absorpt_correction_T_max  ?
_exptl_absorpt_process_details   ?

_exptl_special_details           
;
?
;

_diffrn_ambient_temperature      293(2)
_diffrn_radiation_wavelength     0.71073
_diffrn_radiation_type           MoK\a
_diffrn_radiation_source         'fine-focus sealed tube'
_diffrn_radiation_monochromator  graphite
_diffrn_measurement_device_type  ?
_diffrn_measurement_method       ?
_diffrn_detector_area_resol_mean ?
_diffrn_standards_number         ?
_diffrn_standards_interval_count ?
_diffrn_standards_interval_time  ?
_diffrn_standards_decay_%        ?
_diffrn_reflns_number            12061
_diffrn_reflns_av_R_equivalents  0.0366
_diffrn_reflns_av_sigmaI/netI    0.0475
_diffrn_reflns_limit_h_min       -21
_diffrn_reflns_limit_h_max       23
_diffrn_reflns_limit_k_min       -30
_diffrn_reflns_limit_k_max       30
_diffrn_reflns_limit_l_min       -11
_diffrn_reflns_limit_l_max       12
_diffrn_reflns_theta_min         1.55
_diffrn_reflns_theta_max         28.30
_reflns_number_total             4341
_reflns_number_gt                2785
_reflns_threshold_expression     >2sigma(I)

_computing_data_collection       ?
_computing_cell_refinement       ?
_computing_data_reduction        ?
_computing_structure_solution    'SHELXS-97 (Sheldrick, 1990)'
_computing_structure_refinement  'SHELXL-97 (Sheldrick, 1997)'
_computing_molecular_graphics    ?
_computing_publication_material  ?

_refine_special_details          
;
Refinement of F^2^ against ALL reflections. The weighted R-factor wR and
goodness of fit S are based on F^2^, conventional R-factors R are based
on F, with F set to zero for negative F^2^. The threshold expression of
F^2^ > 2sigma(F^2^) is used only for calculating R-factors(gt) etc. and is
not relevant to the choice of reflections for refinement. R-factors based
on F^2^ are statistically about twice as large as those based on F, and R-
factors based on ALL data will be even larger.
;

_refine_ls_structure_factor_coef Fsqd
_refine_ls_matrix_type           full
_refine_ls_weighting_scheme      calc
_refine_ls_weighting_details     
'calc w=1/[\s^2^(Fo^2^)+(0.0917P)^2^+3.1148P] where P=(Fo^2^+2Fc^2^)/3'
_atom_sites_solution_primary     direct
_atom_sites_solution_secondary   difmap
_atom_sites_solution_hydrogens   geom
_refine_ls_hydrogen_treatment    constr
_refine_ls_extinction_method     SHELXL
_refine_ls_extinction_coef       0.0004(2)
_refine_ls_extinction_expression Fc^*^=kFc[1+0.001xFc^2^\l^3^/sin(2\q)]^-1/4^
_refine_ls_number_reflns         4341
_refine_ls_number_parameters     201
_refine_ls_number_restraints     0
_refine_ls_R_factor_all          0.0882
_refine_ls_R_factor_gt           0.0476
_refine_ls_wR_factor_ref         0.1714
_refine_ls_wR_factor_gt          0.1369
_refine_ls_goodness_of_fit_ref   1.043
_refine_ls_restrained_S_all      1.043
_refine_ls_shift/su_max          8.450
_refine_ls_shift/su_mean         0.285

loop_
_atom_site_label
_atom_site_type_symbol
_atom_site_fract_x
_atom_site_fract_y
_atom_site_fract_z
_atom_site_U_iso_or_equiv
_atom_site_adp_type
_atom_site_occupancy
_atom_site_symmetry_multiplicity
_atom_site_calc_flag
_atom_site_refinement_flags
_atom_site_disorder_assembly
_atom_site_disorder_group
Cu1 Cu 0.72152(3) 0.279940(18) 0.87000(5) 0.04083(19) Uani 1 1 d . . .
O1 O 0.6483(2) 0.50398(12) 0.6330(3) 0.0626(8) Uani 1 1 d . . .
N1 N 0.67922(18) 0.32690(13) 0.6492(3) 0.0417(7) Uani 1 1 d . . .
C1 C 0.6722(2) 0.29985(17) 0.5189(4) 0.0469(9) Uani 1 1 d . . .
H1A H 0.6837 0.2601 0.5236 0.056 Uiso 1 1 calc R . .
C2 C 0.6490(3) 0.32790(18) 0.3789(5) 0.0559(11) Uani 1 1 d . . .
H2A H 0.6477 0.3079 0.2925 0.067 Uiso 1 1 calc R . .
C3 C 0.6275(3) 0.38603(17) 0.3676(4) 0.0499(9) Uani 1 1 d . . .
H3A H 0.6095 0.4055 0.2729 0.060 Uiso 1 1 calc R . .
C4 C 0.6332(2) 0.41515(15) 0.5008(4) 0.0363(7) Uani 1 1 d . . .
C5 C 0.6615(2) 0.38370(15) 0.6390(4) 0.0395(8) Uani 1 1 d . . .
H5A H 0.6684 0.4034 0.7295 0.047 Uiso 1 1 calc R . .
C6 C 0.6154(2) 0.47850(15) 0.5098(4) 0.0410(8) Uani 1 1 d . . .
N2 N 0.5000 0.48092(16) 0.2500 0.0379(9) Uani 1 2 d S . .
C7 C 0.5550(2) 0.51115(14) 0.3695(4) 0.0378(7) Uani 1 1 d . . .
C8 C 0.5573(2) 0.57218(15) 0.3739(4) 0.0449(9) Uani 1 1 d . . .
H8A H 0.5967 0.5918 0.4589 0.054 Uiso 1 1 calc R . .
C9 C 0.5000 0.6026(2) 0.2500 0.0492(13) Uani 1 2 d S . .
H9A H 0.5000 0.6432 0.2500 0.059 Uiso 1 2 calc SR . .
C10 C 0.8188(4) 0.4005(2) 1.2448(7) 0.0921(18) Uani 1 1 d . . .
H10A H 0.8038 0.4334 1.1755 0.138 Uiso 1 1 calc R . .
H10B H 0.8782 0.3993 1.3027 0.138 Uiso 1 1 calc R . .
H10C H 0.7929 0.4041 1.3154 0.138 Uiso 1 1 calc R . .
C11 C 0.7893(2) 0.34459(17) 1.1508(5) 0.0495(9) Uani 1 1 d . . .
O2 O 0.7544(2) 0.34881(12) 1.0063(4) 0.0615(8) Uani 1 1 d . . .
O3 O 0.8040(2) 0.29809(13) 1.2265(3) 0.0611(8) Uani 1 1 d . . .
C12 C 0.8938(2) 0.24773(19) 1.0025(5) 0.0506(10) Uani 1 1 d . . .
C13 C 0.9795(3) 0.2474(3) 1.0060(6) 0.0827(17) Uani 1 1 d . . .
H13A H 1.0172 0.2272 1.0974 0.124 Uiso 1 1 calc R . .
H13B H 0.9983 0.2869 1.0079 0.124 Uiso 1 1 calc R . .
H13C H 0.9778 0.2279 0.9149 0.124 Uiso 1 1 calc R . .
O4 O 0.83659(18) 0.27278(13) 0.8901(3) 0.0572(8) Uani 1 1 d . . .
O5 O 0.88491(18) 0.22203(12) 1.1113(3) 0.0573(8) Uani 1 1 d . . .
O1W' O 1.1074(11) 0.4238(7) 0.706(2) 0.356(9) Uani 0.60 1 d P . .
O1W O 1.0102(16) 0.4186(9) 0.691(2) 0.211(8) Uani 0.40 1 d P . .

loop_
_atom_site_aniso_label
_atom_site_aniso_U_11
_atom_site_aniso_U_22
_atom_site_aniso_U_33
_atom_site_aniso_U_23
_atom_site_aniso_U_13
_atom_site_aniso_U_12
Cu1 0.0412(3) 0.0419(3) 0.0334(3) 0.00654(17) 0.00987(19) 0.01050(18)
O1 0.078(2) 0.0479(15) 0.0412(15) -0.0083(12) 0.0048(14) -0.0002(14)
N1 0.0411(16) 0.0445(16) 0.0355(15) 0.0079(13) 0.0122(13) 0.0107(13)
C1 0.052(2) 0.0432(19) 0.046(2) 0.0057(16) 0.0207(18) 0.0161(17)
C2 0.074(3) 0.056(2) 0.040(2) 0.0001(17) 0.026(2) 0.019(2)
C3 0.064(3) 0.053(2) 0.0326(18) 0.0085(16) 0.0203(18) 0.0144(19)
C4 0.0362(17) 0.0382(17) 0.0325(16) 0.0032(13) 0.0124(14) 0.0052(14)
C5 0.0380(18) 0.0459(19) 0.0308(16) 0.0022(14) 0.0107(14) 0.0039(15)
C6 0.0431(19) 0.0377(17) 0.0387(18) 0.0000(14) 0.0138(15) -0.0016(15)
N2 0.044(2) 0.0292(19) 0.038(2) 0.000 0.0139(18) 0.000
C7 0.0407(18) 0.0324(16) 0.0376(17) -0.0006(13) 0.0138(15) 0.0006(14)
C8 0.047(2) 0.0342(17) 0.048(2) -0.0077(15) 0.0150(17) -0.0060(15)
C9 0.056(3) 0.027(2) 0.054(3) 0.000 0.012(3) 0.000
C10 0.106(5) 0.063(3) 0.085(4) -0.020(3) 0.018(4) 0.000(3)
C11 0.049(2) 0.040(2) 0.055(3) -0.0055(18) 0.0175(19) 0.0078(17)
O2 0.073(2) 0.0451(17) 0.0539(18) 0.0017(13) 0.0148(15) 0.0072(14)
O3 0.077(2) 0.0475(15) 0.0458(16) -0.0044(13) 0.0136(15) 0.0046(15)
C12 0.041(2) 0.061(3) 0.045(2) 0.0026(19) 0.0145(17) 0.0119(19)
C13 0.048(3) 0.134(5) 0.064(3) 0.022(3) 0.022(2) 0.020(3)
O4 0.0427(15) 0.080(2) 0.0467(16) 0.0183(14) 0.0165(13) 0.0152(14)
O5 0.0446(15) 0.074(2) 0.0505(16) 0.0199(14) 0.0170(13) 0.0169(13)
O1W' 0.205(16) 0.243(15) 0.57(3) -0.116(16) 0.120(17) 0.018(12)
O1W 0.25(2) 0.210(18) 0.15(2) -0.003(14) 0.063(18) 0.023(17)

_geom_special_details            
;
All esds (except the esd in the dihedral angle between two l.s. planes)
are estimated using the full covariance matrix. The cell esds are taken
into account individually in the estimation of esds in distances, angles
and torsion angles; correlations between esds in cell parameters are only
used when they are defined by crystal symmetry. An approximate (isotropic)
treatment of cell esds is used for estimating esds involving l.s. planes.
;

loop_
_geom_bond_atom_site_label_1
_geom_bond_atom_site_label_2
_geom_bond_distance
_geom_bond_site_symmetry_2
_geom_bond_publ_flag
Cu1 O2 1.964(3) . ?
Cu1 O5 1.967(3) 7_657 ?
Cu1 O3 1.970(3) 7_657 ?
Cu1 O4 1.973(3) . ?
Cu1 N1 2.184(3) . ?
Cu1 Cu1 2.6201(9) 7_657 ?
O1 C6 1.212(4) . ?
N1 C5 1.331(4) . ?
N1 C1 1.339(5) . ?
C1 C2 1.371(5) . ?
C1 H1A 0.9300 . ?
C2 C3 1.376(5) . ?
C2 H2A 0.9300 . ?
C3 C4 1.392(5) . ?
C3 H3A 0.9300 . ?
C4 C5 1.389(5) . ?
C4 C6 1.494(5) . ?
C5 H5A 0.9300 . ?
C6 C7 1.507(5) . ?
N2 C7 1.334(4) . ?
N2 C7 1.334(4) 2_655 ?
C7 C8 1.398(5) . ?
C8 C9 1.374(4) . ?
C8 H8A 0.9300 . ?
C9 C8 1.374(4) 2_655 ?
C9 H9A 0.9300 . ?
C10 C11 1.520(6) . ?
C10 H10A 0.9600 . ?
C10 H10B 0.9600 . ?
C10 H10C 0.9600 . ?
C11 O2 1.246(5) . ?
C11 O3 1.248(5) . ?
O3 Cu1 1.970(3) 7_657 ?
C12 O5 1.253(5) . ?
C12 O4 1.257(5) . ?
C12 C13 1.504(6) . ?
C13 H13A 0.9600 . ?
C13 H13B 0.9600 . ?
C13 H13C 0.9600 . ?
O5 Cu1 1.967(3) 7_657 ?
O1W' O1W 1.67(3) . ?
O1W O1W 1.32(3) 2_756 ?

loop_
_geom_angle_atom_site_label_1
_geom_angle_atom_site_label_2
_geom_angle_atom_site_label_3
_geom_angle
_geom_angle_site_symmetry_1
_geom_angle_site_symmetry_3
_geom_angle_publ_flag
O2 Cu1 O5 89.37(13) . 7_657 ?
O2 Cu1 O3 168.29(12) . 7_657 ?
O5 Cu1 O3 88.85(13) 7_657 7_657 ?
O2 Cu1 O4 89.74(14) . . ?
O5 Cu1 O4 168.55(11) 7_657 . ?
O3 Cu1 O4 89.71(13) 7_657 . ?
O2 Cu1 N1 96.95(11) . . ?
O5 Cu1 N1 98.20(11) 7_657 . ?
O3 Cu1 N1 94.76(12) 7_657 . ?
O4 Cu1 N1 93.24(11) . . ?
O2 Cu1 Cu1 84.97(9) . 7_657 ?
O5 Cu1 Cu1 84.69(8) 7_657 7_657 ?
O3 Cu1 Cu1 83.34(9) 7_657 7_657 ?
O4 Cu1 Cu1 83.86(8) . 7_657 ?
N1 Cu1 Cu1 176.53(8) . 7_657 ?
C5 N1 C1 117.2(3) . . ?
C5 N1 Cu1 121.7(2) . . ?
C1 N1 Cu1 121.1(2) . . ?
N1 C1 C2 123.3(4) . . ?
N1 C1 H1A 118.3 . . ?
C2 C1 H1A 118.4 . . ?
C1 C2 C3 119.2(4) . . ?
C1 C2 H2A 120.3 . . ?
C3 C2 H2A 120.5 . . ?
C2 C3 C4 118.8(3) . . ?
C2 C3 H3A 120.6 . . ?
C4 C3 H3A 120.6 . . ?
C3 C4 C5 117.7(3) . . ?
C3 C4 C6 125.5(3) . . ?
C5 C4 C6 116.8(3) . . ?
N1 C5 C4 123.7(3) . . ?
N1 C5 H5A 118.1 . . ?
C4 C5 H5A 118.2 . . ?
O1 C6 C4 119.7(3) . . ?
O1 C6 C7 119.0(3) . . ?
C4 C6 C7 121.3(3) . . ?
C7 N2 C7 117.5(4) . 2_655 ?
N2 C7 C8 123.0(3) . . ?
N2 C7 C6 118.9(3) . . ?
C8 C7 C6 118.0(3) . . ?
C9 C8 C7 118.7(4) . . ?
C9 C8 H8A 120.6 . . ?
C7 C8 H8A 120.7 . . ?
C8 C9 C8 119.1(5) 2_655 . ?
C8 C9 H9A 120.5 2_655 . ?
C8 C9 H9A 120.5 . . ?
C11 C10 H10A 109.6 . . ?
C11 C10 H10B 109.5 . . ?
H10A C10 H10B 109.5 . . ?
C11 C10 H10C 109.3 . . ?
H10A C10 H10C 109.5 . . ?
H10B C10 H10C 109.5 . . ?
O2 C11 O3 125.8(4) . . ?
O2 C11 C10 117.8(4) . . ?
O3 C11 C10 116.4(4) . . ?
C11 O2 Cu1 122.1(3) . . ?
C11 O3 Cu1 123.7(3) . 7_657 ?
O5 C12 O4 125.0(4) . . ?
O5 C12 C13 117.1(4) . . ?
O4 C12 C13 117.8(4) . . ?
C12 C13 H13A 109.5 . . ?
C12 C13 H13B 109.5 . . ?
H13A C13 H13B 109.5 . . ?
C12 C13 H13C 109.4 . . ?
H13A C13 H13C 109.5 . . ?
H13B C13 H13C 109.5 . . ?
C12 O4 Cu1 123.4(3) . . ?
C12 O5 Cu1 122.9(3) . 7_657 ?
O1W O1W O1W' 125(3) 2_756 . ?

loop_
_geom_torsion_atom_site_label_1
_geom_torsion_atom_site_label_2
_geom_torsion_atom_site_label_3
_geom_torsion_atom_site_label_4
_geom_torsion
_geom_torsion_site_symmetry_1
_geom_torsion_site_symmetry_2
_geom_torsion_site_symmetry_3
_geom_torsion_site_symmetry_4
_geom_torsion_publ_flag
O2 Cu1 N1 C5 -17.8(3) . . . . ?
O5 Cu1 N1 C5 72.6(3) 7_657 . . . ?
O3 Cu1 N1 C5 162.1(3) 7_657 . . . ?
O4 Cu1 N1 C5 -107.9(3) . . . . ?
Cu1 Cu1 N1 C5 -141.3(13) 7_657 . . . ?
O2 Cu1 N1 C1 160.4(3) . . . . ?
O5 Cu1 N1 C1 -109.2(3) 7_657 . . . ?
O3 Cu1 N1 C1 -19.7(3) 7_657 . . . ?
O4 Cu1 N1 C1 70.3(3) . . . . ?
Cu1 Cu1 N1 C1 36.9(16) 7_657 . . . ?
C5 N1 C1 C2 0.8(6) . . . . ?
Cu1 N1 C1 C2 -177.5(3) . . . . ?
N1 C1 C2 C3 -3.4(7) . . . . ?
C1 C2 C3 C4 2.4(7) . . . . ?
C2 C3 C4 C5 0.8(6) . . . . ?
C2 C3 C4 C6 177.5(4) . . . . ?
C1 N1 C5 C4 2.8(5) . . . . ?
Cu1 N1 C5 C4 -179.0(3) . . . . ?
C3 C4 C5 N1 -3.6(5) . . . . ?
C6 C4 C5 N1 179.4(3) . . . . ?
C3 C4 C6 O1 -154.2(4) . . . . ?
C5 C4 C6 O1 22.5(5) . . . . ?
C3 C4 C6 C7 27.8(6) . . . . ?
C5 C4 C6 C7 -155.5(3) . . . . ?
C7 N2 C7 C8 -0.2(3) 2_655 . . . ?
C7 N2 C7 C6 177.1(4) 2_655 . . . ?
O1 C6 C7 N2 -159.1(3) . . . . ?
C4 C6 C7 N2 18.9(5) . . . . ?
O1 C6 C7 C8 18.3(5) . . . . ?
C4 C6 C7 C8 -163.7(3) . . . . ?
N2 C7 C8 C9 0.3(5) . . . . ?
C6 C7 C8 C9 -176.9(3) . . . . ?
C7 C8 C9 C8 -0.2(2) . . . 2_655 ?
O3 C11 O2 Cu1 -3.6(6) . . . . ?
C10 C11 O2 Cu1 174.8(3) . . . . ?
O5 Cu1 O2 C11 87.0(3) 7_657 . . . ?
O3 Cu1 O2 C11 5.8(9) 7_657 . . . ?
O4 Cu1 O2 C11 -81.6(3) . . . . ?
N1 Cu1 O2 C11 -174.8(3) . . . . ?
Cu1 Cu1 O2 C11 2.3(3) 7_657 . . . ?
O2 C11 O3 Cu1 2.7(6) . . . 7_657 ?
C10 C11 O3 Cu1 -175.8(3) . . . 7_657 ?
O5 C12 O4 Cu1 3.5(6) . . . . ?
C13 C12 O4 Cu1 -177.8(4) . . . . ?
O2 Cu1 O4 C12 83.3(3) . . . . ?
O5 Cu1 O4 C12 -2.3(9) 7_657 . . . ?
O3 Cu1 O4 C12 -85.0(3) 7_657 . . . ?
N1 Cu1 O4 C12 -179.8(3) . . . . ?
Cu1 Cu1 O4 C12 -1.7(3) 7_657 . . . ?
O4 C12 O5 Cu1 -3.3(6) . . . 7_657 ?
C13 C12 O5 Cu1 177.9(4) . . . 7_657 ?

_diffrn_measured_fraction_theta_max 0.999
_diffrn_reflns_theta_full        28.30
_diffrn_measured_fraction_theta_full 0.999
_refine_diff_density_max         0.597
_refine_diff_density_min         -0.320
_refine_diff_density_rms         0.105

###############END################################

