####################################################################### 
# 
# This file contains crystal structure data downloaded from the 
# Cambridge Structural Database (CSD) hosted by the Cambridge 
# Crystallographic Data Centre (CCDC).
# 
# Full information about CCDC data access policies and citation 
# guidelines are available at http://www.ccdc.cam.ac.uk/access/V1 
# 
# Audit and citation data items may have been added by the CCDC. 
# Please retain this information to preserve the provenance of 
# this file and to allow appropriate attribution of the data. 
# 
#######################################################################

data_complex-6
_audit_block_doi                 10.5517/ccpg4y6
_database_code_depnum_ccdc_archive 'CCDC 639218'
loop_
_citation_id
_citation_doi
_citation_year
1 10.1016/j.poly.2008.05.005 2008
_audit_update_record             
;
2007-02-27 deposited with the CCDC.	2024-07-11 downloaded from the CCDC.
;

_audit_creation_method           SHELXL-97
_chemical_name_systematic        
;
?
;
_chemical_name_common            ?
_chemical_melting_point          ?
_chemical_formula_moiety         '(C26 H22 Cd Cl2 Cu N4 O2), 0.5(C H2 Cl2)'
_chemical_formula_sum            'C26.50 H23 Cd Cl3 Cu N4 O2'
_chemical_formula_weight         711.78

loop_
_atom_type_symbol
_atom_type_description
_atom_type_scat_dispersion_real
_atom_type_scat_dispersion_imag
_atom_type_scat_source
C C 0.0033 0.0016 'International Tables Vol C Tables 4.2.6.8 and 6.1.1.4'
H H 0.0000 0.0000 'International Tables Vol C Tables 4.2.6.8 and 6.1.1.4'
N N 0.0061 0.0033 'International Tables Vol C Tables 4.2.6.8 and 6.1.1.4'
O O 0.0106 0.0060 'International Tables Vol C Tables 4.2.6.8 and 6.1.1.4'
Cl Cl 0.1484 0.1585 'International Tables Vol C Tables 4.2.6.8 and 6.1.1.4'
Cu Cu 0.3201 1.2651 'International Tables Vol C Tables 4.2.6.8 and 6.1.1.4'
Cd Cd -0.8075 1.2024 'International Tables Vol C Tables 4.2.6.8 and 6.1.1.4'

_symmetry_cell_setting           monoclinic
_symmetry_space_group_name_H-M   'C 2/c'
_symmetry_space_group_name_Hall  '-C 2yc'

loop_
_symmetry_equiv_pos_as_xyz
'x, y, z'
'-x, y, -z+1/2'
'x+1/2, y+1/2, z'
'-x+1/2, y+1/2, -z+1/2'
'-x, -y, -z'
'x, -y, z-1/2'
'-x+1/2, -y+1/2, -z'
'x+1/2, -y+1/2, z-1/2'

_cell_length_a                   27.620(2)
_cell_length_b                   14.4643(13)
_cell_length_c                   7.2112(6)
_cell_angle_alpha                90.00
_cell_angle_beta                 98.941(2)
_cell_angle_gamma                90.00
_cell_volume                     2845.9(4)
_cell_formula_units_Z            4
_cell_measurement_temperature    292(2)
_cell_measurement_reflns_used    ?
_cell_measurement_theta_min      2.645
_cell_measurement_theta_max      24.23

_exptl_crystal_description       block
_exptl_crystal_colour            green
_exptl_crystal_size_max          0.36
_exptl_crystal_size_mid          0.20
_exptl_crystal_size_min          0.10
_exptl_crystal_density_meas      ?
_exptl_crystal_density_diffrn    1.661
_exptl_crystal_density_method    'not measured'
_exptl_crystal_F_000             1416
_exptl_absorpt_coefficient_mu    1.807
_exptl_absorpt_correction_type   multi-scan
_exptl_absorpt_correction_T_min  0.655
_exptl_absorpt_correction_T_max  0.835
_exptl_absorpt_process_details   '(SADABS; Sheldrick, 1998)'

_exptl_special_details           
;
?
;

_diffrn_ambient_temperature      292(2)
_diffrn_radiation_wavelength     0.71073
_diffrn_radiation_type           MoK\a
_diffrn_radiation_source         'fine-focus sealed tube'
_diffrn_radiation_monochromator  graphite
_diffrn_measurement_device_type  'Bruker SMART CCD area-detector'
_diffrn_measurement_method       '\w scans'
_diffrn_detector_area_resol_mean ?
_diffrn_standards_number         ?
_diffrn_standards_interval_count ?
_diffrn_standards_interval_time  ?
_diffrn_standards_decay_%        ?
_diffrn_reflns_number            16589
_diffrn_reflns_av_R_equivalents  0.0985
_diffrn_reflns_av_sigmaI/netI    0.0750
_diffrn_reflns_limit_h_min       -35
_diffrn_reflns_limit_h_max       36
_diffrn_reflns_limit_k_min       -18
_diffrn_reflns_limit_k_max       19
_diffrn_reflns_limit_l_min       -9
_diffrn_reflns_limit_l_max       9
_diffrn_reflns_theta_min         1.49
_diffrn_reflns_theta_max         28.29
_reflns_number_total             3463
_reflns_number_gt                2642
_reflns_threshold_expression     >2\s(I)

_computing_data_collection       'SMART (Bruker, 1998)'
_computing_cell_refinement       'SAINT (Bruker, 1998)'
_computing_data_reduction        SAINT
_computing_structure_solution    'SHELXS-97 (Sheldrick, 1990)'
_computing_structure_refinement  'SHELXL-97 (Sheldrick, 1997)'
_computing_molecular_graphics    'SHELXTL97 (Sheldrick, 1997)'
_computing_publication_material  'SHELXTL97 (Sheldrick, 1997)'

_refine_special_details          
;
Refinement of F^2^ against ALL reflections. The weighted R-factor wR and
goodness of fit S are based on F^2^, conventional R-factors R are based
on F, with F set to zero for negative F^2^. The threshold expression of
F^2^ > 2sigma(F^2^) is used only for calculating R-factors(gt) etc. and is
not relevant to the choice of reflections for refinement. R-factors based
on F^2^ are statistically about twice as large as those based on F, and R-
factors based on ALL data will be even larger.
;

_refine_ls_structure_factor_coef Fsqd
_refine_ls_matrix_type           full
_refine_ls_weighting_scheme      calc
_refine_ls_weighting_details     
'calc w=1/[\s^2^(Fo^2^)+(0.0641P)^2^+0.3590P] where P=(Fo^2^+2Fc^2^)/3'
_atom_sites_solution_primary     direct
_atom_sites_solution_secondary   difmap
_atom_sites_solution_hydrogens   geom
_refine_ls_hydrogen_treatment    constr
_refine_ls_extinction_method     none
_refine_ls_extinction_coef       ?
_refine_ls_number_reflns         3463
_refine_ls_number_parameters     171
_refine_ls_number_restraints     0
_refine_ls_R_factor_all          0.0662
_refine_ls_R_factor_gt           0.0487
_refine_ls_wR_factor_ref         0.1348
_refine_ls_wR_factor_gt          0.1283
_refine_ls_goodness_of_fit_ref   1.075
_refine_ls_restrained_S_all      1.075
_refine_ls_shift/su_max          0.001
_refine_ls_shift/su_mean         0.000

loop_
_atom_site_label
_atom_site_type_symbol
_atom_site_fract_x
_atom_site_fract_y
_atom_site_fract_z
_atom_site_U_iso_or_equiv
_atom_site_adp_type
_atom_site_occupancy
_atom_site_symmetry_multiplicity
_atom_site_calc_flag
_atom_site_refinement_flags
_atom_site_disorder_assembly
_atom_site_disorder_group
Cd1 Cd 0.5000 0.55975(3) -0.2500 0.02615(16) Uani 1 2 d S . .
Cu1 Cu 0.7500 0.7500 -0.5000 0.0310(2) Uani 1 2 d S . .
Cl1 Cl 0.44705(4) 0.44371(8) -0.09531(16) 0.0382(3) Uani 1 1 d . . .
O1 O 0.78111(11) 0.6346(2) -0.5159(5) 0.0412(8) Uani 1 1 d . . .
N1 N 0.68444(13) 0.6961(3) -0.6018(5) 0.0311(9) Uani 1 1 d . . .
N2 N 0.55303(13) 0.6829(3) -0.3037(5) 0.0326(9) Uani 1 1 d . . .
C1 C 0.76286(18) 0.5518(3) -0.5463(7) 0.0357(11) Uani 1 1 d . . .
C2 C 0.7937(2) 0.4730(4) -0.5224(8) 0.0460(13) Uani 1 1 d . . .
H2A H 0.8272 0.4811 -0.4843 0.055 Uiso 1 1 calc R . .
C3 C 0.7756(2) 0.3851(4) -0.5537(8) 0.0478(13) Uani 1 1 d . . .
H3A H 0.7970 0.3352 -0.5366 0.057 Uiso 1 1 calc R . .
C4 C 0.7268(2) 0.3692(4) -0.6093(8) 0.0488(13) Uani 1 1 d . . .
H4A H 0.7150 0.3090 -0.6271 0.059 Uiso 1 1 calc R . .
C5 C 0.6949(2) 0.4436(4) -0.6391(8) 0.0485(14) Uani 1 1 d . . .
H5A H 0.6618 0.4329 -0.6801 0.058 Uiso 1 1 calc R . .
C6 C 0.71177(18) 0.5358(3) -0.6085(7) 0.0347(11) Uani 1 1 d . . .
C7 C 0.67702(17) 0.6082(3) -0.6365(7) 0.0362(11) Uani 1 1 d . . .
H7A H 0.6451 0.5912 -0.6853 0.043 Uiso 1 1 calc R . .
C8 C 0.63911(16) 0.7525(3) -0.6371(6) 0.0321(10) Uani 1 1 d . . .
H8A H 0.6175 0.7277 -0.7445 0.039 Uiso 1 1 calc R . .
H8B H 0.6474 0.8154 -0.6666 0.039 Uiso 1 1 calc R . .
C9 C 0.61290(16) 0.7530(3) -0.4687(7) 0.0312(10) Uani 1 1 d . . .
C10 C 0.62483(18) 0.8148(4) -0.3245(8) 0.0441(13) Uani 1 1 d . . .
H10A H 0.6490 0.8590 -0.3295 0.053 Uiso 1 1 calc R . .
C11 C 0.60019(19) 0.8102(4) -0.1711(8) 0.0477(14) Uani 1 1 d . . .
H11A H 0.6078 0.8514 -0.0718 0.057 Uiso 1 1 calc R . .
C12 C 0.56461(18) 0.7447(3) -0.1673(7) 0.0385(12) Uani 1 1 d . . .
H12A H 0.5478 0.7432 -0.0650 0.046 Uiso 1 1 calc R . .
C13 C 0.57681(16) 0.6882(3) -0.4530(7) 0.0344(11) Uani 1 1 d . . .
H13A H 0.5686 0.6462 -0.5505 0.041 Uiso 1 1 calc R . .
Cl2 Cl 0.5480(5) 0.9427(8) 0.2209(19) 0.249(5) Uiso 0.50 1 d P . .
C14 C 0.5000 0.844(3) 0.2500 0.166(14) Uiso 0.50 2 d SP . .
H14A H 0.5105 0.8069 0.3588 0.200 Uiso 0.50 1 d PR . .

loop_
_atom_site_aniso_label
_atom_site_aniso_U_11
_atom_site_aniso_U_22
_atom_site_aniso_U_33
_atom_site_aniso_U_23
_atom_site_aniso_U_13
_atom_site_aniso_U_12
Cd1 0.0240(2) 0.0271(3) 0.0275(3) 0.000 0.00470(17) 0.000
Cu1 0.0238(4) 0.0327(5) 0.0365(5) 0.0007(3) 0.0049(3) -0.0048(3)
Cl1 0.0361(6) 0.0445(7) 0.0317(6) 0.0041(5) -0.0022(5) -0.0150(5)
O1 0.0277(17) 0.0323(18) 0.064(2) 0.0014(17) 0.0083(16) -0.0051(15)
N1 0.0234(19) 0.038(2) 0.032(2) -0.0005(17) 0.0056(15) -0.0050(16)
N2 0.030(2) 0.035(2) 0.034(2) -0.0015(17) 0.0064(16) -0.0034(17)
C1 0.037(3) 0.037(3) 0.033(3) 0.002(2) 0.008(2) -0.006(2)
C2 0.036(3) 0.045(3) 0.056(3) 0.004(3) 0.004(2) 0.001(2)
C3 0.055(4) 0.039(3) 0.049(3) 0.005(2) 0.005(3) 0.005(3)
C4 0.062(4) 0.032(3) 0.053(3) -0.004(2) 0.009(3) -0.013(3)
C5 0.047(3) 0.050(3) 0.049(3) -0.010(3) 0.006(3) -0.019(3)
C6 0.034(3) 0.036(3) 0.035(3) -0.001(2) 0.008(2) -0.008(2)
C7 0.029(2) 0.043(3) 0.037(3) -0.005(2) 0.003(2) -0.009(2)
C8 0.026(2) 0.038(3) 0.032(3) 0.004(2) 0.0025(19) -0.0043(19)
C9 0.023(2) 0.034(3) 0.035(3) 0.0018(19) 0.0004(19) -0.0010(18)
C10 0.035(3) 0.047(3) 0.053(3) -0.006(3) 0.014(2) -0.013(2)
C11 0.049(3) 0.050(3) 0.045(3) -0.016(3) 0.012(3) -0.015(3)
C12 0.037(3) 0.038(3) 0.042(3) -0.004(2) 0.011(2) -0.007(2)
C13 0.028(2) 0.041(3) 0.034(3) -0.003(2) 0.0052(19) -0.004(2)

_geom_special_details            
;
All esds (except the esd in the dihedral angle between two l.s. planes)
are estimated using the full covariance matrix. The cell esds are taken
into account individually in the estimation of esds in distances, angles
and torsion angles; correlations between esds in cell parameters are only
used when they are defined by crystal symmetry. An approximate (isotropic)
treatment of cell esds is used for estimating esds involving l.s. planes.
;

loop_
_geom_bond_atom_site_label_1
_geom_bond_atom_site_label_2
_geom_bond_distance
_geom_bond_site_symmetry_2
_geom_bond_publ_flag
Cd1 N2 2.376(4) . ?
Cd1 N2 2.376(4) 2_654 ?
Cd1 Cl1 2.5899(12) 2_654 ?
Cd1 Cl1 2.5899(12) . ?
Cd1 Cl1 2.6851(11) 5_665 ?
Cd1 Cl1 2.6851(11) 6_565 ?
Cu1 O1 1.889(3) . ?
Cu1 O1 1.889(3) 7_664 ?
Cu1 N1 2.003(4) 7_664 ?
Cu1 N1 2.003(4) . ?
Cl1 Cd1 2.6851(11) 5_665 ?
O1 C1 1.305(5) . ?
N1 C7 1.306(6) . ?
N1 C8 1.483(5) . ?
N2 C12 1.330(6) . ?
N2 C13 1.348(6) . ?
C1 C2 1.418(7) . ?
C1 C6 1.431(7) . ?
C2 C3 1.373(7) . ?
C2 H2A 0.9300 . ?
C3 C4 1.364(7) . ?
C3 H3A 0.9300 . ?
C4 C5 1.386(8) . ?
C4 H4A 0.9300 . ?
C5 C6 1.418(7) . ?
C5 H5A 0.9300 . ?
C6 C7 1.414(7) . ?
C7 H7A 0.9300 . ?
C8 C9 1.507(6) . ?
C8 H8A 0.9700 . ?
C8 H8B 0.9700 . ?
C9 C10 1.372(7) . ?
C9 C13 1.386(6) . ?
C10 C11 1.387(7) . ?
C10 H10A 0.9300 . ?
C11 C12 1.370(7) . ?
C11 H11A 0.9300 . ?
C12 H12A 0.9300 . ?
C13 H13A 0.9300 . ?
Cl2 C14 1.98(3) . ?
C14 Cl2 1.98(3) 2_655 ?
C14 H14A 0.9599 . ?

loop_
_geom_angle_atom_site_label_1
_geom_angle_atom_site_label_2
_geom_angle_atom_site_label_3
_geom_angle
_geom_angle_site_symmetry_1
_geom_angle_site_symmetry_3
_geom_angle_publ_flag
N2 Cd1 N2 82.86(18) . 2_654 ?
N2 Cd1 Cl1 90.69(10) . 2_654 ?
N2 Cd1 Cl1 163.69(10) 2_654 2_654 ?
N2 Cd1 Cl1 163.69(10) . . ?
N2 Cd1 Cl1 90.69(10) 2_654 . ?
Cl1 Cd1 Cl1 99.21(6) 2_654 . ?
N2 Cd1 Cl1 84.51(9) . 5_665 ?
N2 Cd1 Cl1 97.10(10) 2_654 5_665 ?
Cl1 Cd1 Cl1 97.16(4) 2_654 5_665 ?
Cl1 Cd1 Cl1 81.44(4) . 5_665 ?
N2 Cd1 Cl1 97.10(10) . 6_565 ?
N2 Cd1 Cl1 84.51(9) 2_654 6_565 ?
Cl1 Cd1 Cl1 81.44(4) 2_654 6_565 ?
Cl1 Cd1 Cl1 97.16(4) . 6_565 ?
Cl1 Cd1 Cl1 177.87(6) 5_665 6_565 ?
O1 Cu1 O1 180.00(17) . 7_664 ?
O1 Cu1 N1 88.43(15) . 7_664 ?
O1 Cu1 N1 91.57(15) 7_664 7_664 ?
O1 Cu1 N1 91.57(15) . . ?
O1 Cu1 N1 88.43(15) 7_664 . ?
N1 Cu1 N1 180.00(11) 7_664 . ?
Cd1 Cl1 Cd1 98.56(4) . 5_665 ?
C1 O1 Cu1 130.8(3) . . ?
C7 N1 C8 113.6(4) . . ?
C7 N1 Cu1 123.7(3) . . ?
C8 N1 Cu1 122.6(3) . . ?
C12 N2 C13 117.5(4) . . ?
C12 N2 Cd1 117.8(3) . . ?
C13 N2 Cd1 124.2(3) . . ?
O1 C1 C2 120.5(5) . . ?
O1 C1 C6 122.5(4) . . ?
C2 C1 C6 116.9(4) . . ?
C3 C2 C1 121.8(5) . . ?
C3 C2 H2A 119.1 . . ?
C1 C2 H2A 119.1 . . ?
C4 C3 C2 121.6(5) . . ?
C4 C3 H3A 119.2 . . ?
C2 C3 H3A 119.2 . . ?
C3 C4 C5 119.3(5) . . ?
C3 C4 H4A 120.4 . . ?
C5 C4 H4A 120.4 . . ?
C4 C5 C6 121.4(5) . . ?
C4 C5 H5A 119.3 . . ?
C6 C5 H5A 119.3 . . ?
C7 C6 C5 118.4(5) . . ?
C7 C6 C1 122.6(4) . . ?
C5 C6 C1 119.0(5) . . ?
N1 C7 C6 127.7(4) . . ?
N1 C7 H7A 116.2 . . ?
C6 C7 H7A 116.2 . . ?
N1 C8 C9 111.2(4) . . ?
N1 C8 H8A 109.4 . . ?
C9 C8 H8A 109.4 . . ?
N1 C8 H8B 109.4 . . ?
C9 C8 H8B 109.4 . . ?
H8A C8 H8B 108.0 . . ?
C10 C9 C13 118.0(5) . . ?
C10 C9 C8 121.7(4) . . ?
C13 C9 C8 120.3(4) . . ?
C9 C10 C11 118.9(5) . . ?
C9 C10 H10A 120.5 . . ?
C11 C10 H10A 120.5 . . ?
C12 C11 C10 119.4(5) . . ?
C12 C11 H11A 120.3 . . ?
C10 C11 H11A 120.3 . . ?
N2 C12 C11 122.8(5) . . ?
N2 C12 H12A 118.6 . . ?
C11 C12 H12A 118.6 . . ?
N2 C13 C9 123.3(4) . . ?
N2 C13 H13A 118.3 . . ?
C9 C13 H13A 118.3 . . ?
Cl2 C14 Cl2 87.9(16) . 2_655 ?
Cl2 C14 H14A 111.8 . . ?
Cl2 C14 H14A 116.2 2_655 . ?

_diffrn_measured_fraction_theta_max 0.978
_diffrn_reflns_theta_full        28.29
_diffrn_measured_fraction_theta_full 0.978
_refine_diff_density_max         0.945
_refine_diff_density_min         -0.686
_refine_diff_density_rms         0.157


