####################################################################### 
# 
# This file contains crystal structure data downloaded from the 
# Cambridge Structural Database (CSD) hosted by the Cambridge 
# Crystallographic Data Centre (CCDC).
# 
# Full information about CCDC data access policies and citation 
# guidelines are available at http://www.ccdc.cam.ac.uk/access/V1 
# 
# Audit and citation data items may have been added by the CCDC. 
# Please retain this information to preserve the provenance of 
# this file and to allow appropriate attribution of the data. 
# 
#######################################################################

data_1
_audit_block_doi                 10.5517/cctfr43
_database_code_depnum_ccdc_archive 'CCDC 757985'
_audit_update_record             
;
2009-12-14 deposited with the CCDC.	2024-07-11 downloaded from the CCDC.
;


_audit_creation_method           SHELXL-97
_chemical_name_systematic        
;
?
;
_chemical_name_common            ?
_chemical_melting_point          ?
_chemical_formula_moiety         ?
_chemical_formula_sum            'C14 H22 Cu N2 O11'
_chemical_formula_weight         457.88

loop_
_atom_type_symbol
_atom_type_description
_atom_type_scat_dispersion_real
_atom_type_scat_dispersion_imag
_atom_type_scat_source
C C 0.0033 0.0016 'International Tables Vol C Tables 4.2.6.8 and 6.1.1.4'
H H 0.0000 0.0000 'International Tables Vol C Tables 4.2.6.8 and 6.1.1.4'
O O 0.0106 0.0060 'International Tables Vol C Tables 4.2.6.8 and 6.1.1.4'
Cu Cu 0.3201 1.2651 'International Tables Vol C Tables 4.2.6.8 and 6.1.1.4'
N N 0.0061 0.0033 'International Tables Vol C Tables 4.2.6.8 and 6.1.1.4'

_symmetry_cell_setting           orthorhombic
_symmetry_space_group_name_H-M   P212121

loop_
_symmetry_equiv_pos_as_xyz
'x, y, z'
'-x+1/2, -y, z+1/2'
'-x, y+1/2, -z+1/2'
'x+1/2, -y+1/2, -z'

_cell_length_a                   6.6525(3)
_cell_length_b                   14.2585(10)
_cell_length_c                   18.8653(10)
_cell_angle_alpha                90.00
_cell_angle_beta                 90.00
_cell_angle_gamma                90.00
_cell_volume                     1789.46(18)
_cell_formula_units_Z            4
_cell_measurement_temperature    150(2)
_cell_measurement_reflns_used    ?
_cell_measurement_theta_min      ?
_cell_measurement_theta_max      ?

_exptl_crystal_description       needle
_exptl_crystal_colour            black
_exptl_crystal_size_max          0.30
_exptl_crystal_size_mid          0.05
_exptl_crystal_size_min          0.05
_exptl_crystal_density_meas      ?
_exptl_crystal_density_diffrn    1.700
_exptl_crystal_density_method    'not measured'
_exptl_crystal_F_000             948
_exptl_absorpt_coefficient_mu    1.286
_exptl_absorpt_correction_type   empirical
_exptl_absorpt_process_details   'ABSPACK, Oxford Diffraction Ltd'

_exptl_absorpt_correction_T_min  0.798
_exptl_absorpt_correction_T_max  1.000

_exptl_special_details           
;
?
;

_diffrn_ambient_temperature      150(2)
_diffrn_radiation_wavelength     0.71073
_diffrn_radiation_type           MoK\a
_diffrn_radiation_source         'fine-focus sealed tube'
_diffrn_radiation_monochromator  graphite
_diffrn_standards_number         ?
_diffrn_measurement_device       'Oxford Diffaction X-Calibur System'
_diffrn_measurement_method       '321 frames, counting time 10 s.'
_diffrn_standards_interval_count ?
_diffrn_standards_interval_time  ?
_diffrn_standards_decay_%        ?
_diffrn_reflns_number            9343
_diffrn_reflns_av_R_equivalents  0.0296
_diffrn_reflns_av_sigmaI/netI    0.0428
_diffrn_reflns_limit_h_min       -4
_diffrn_reflns_limit_h_max       9
_diffrn_reflns_limit_k_min       -16
_diffrn_reflns_limit_k_max       17
_diffrn_reflns_limit_l_min       -25
_diffrn_reflns_limit_l_max       26
_diffrn_reflns_theta_min         2.59
_diffrn_reflns_theta_max         30.00
_reflns_number_total             4537
_reflns_number_gt                4013
_reflns_threshold_expression     >2sigma(I)


_computing_data_collection       'Crysalis, Oxford Diffraction'
_computing_cell_refinement       'Crysalis, Oxford Diffraction'
_computing_data_reduction        'Crysalis, Oxford Diffraction'
_computing_structure_solution    'SHELXS-97 (Sheldrick, 1997)'
_computing_structure_refinement  'SHELXL-97 (Sheldrick, 1997)'
_computing_molecular_graphics    PLATON(Spek,2004)


_refine_special_details          
;
Refinement of F^2^ against ALL reflections. The weighted R-factor wR and
goodness of fit S are based on F^2^, conventional R-factors R are based
on F, with F set to zero for negative F^2^. The threshold expression of
F^2^ > 2sigma(F^2^) is used only for calculating R-factors(gt) etc. and is
not relevant to the choice of reflections for refinement. R-factors based
on F^2^ are statistically about twice as large as those based on F, and R-
factors based on ALL data will be even larger.
;

_refine_ls_structure_factor_coef Fsqd
_refine_ls_matrix_type           full
_refine_ls_weighting_scheme      calc
_refine_ls_weighting_details     
;
_refine_ls_weighting_details
w=1/[\s^2^(Fo^2^)+(0.0343P)^2^+1.1574P] where P=(Fo^2^+2Fc^2^)/3
;
_atom_sites_solution_primary     direct
_atom_sites_solution_secondary   difmap
_atom_sites_solution_hydrogens   geom
_refine_ls_hydrogen_treatment    mixed
_refine_ls_extinction_method     none
_refine_ls_extinction_coef       ?
_refine_ls_abs_structure_details 'Flack H D (1983), Acta Cryst. A39, 876-881'
_refine_ls_abs_structure_Flack   0.034(13)
_refine_ls_number_reflns         4537
_refine_ls_number_parameters     289
_refine_ls_number_restraints     12
_refine_ls_R_factor_all          0.0495
_refine_ls_R_factor_gt           0.0400
_refine_ls_wR_factor_ref         0.0794
_refine_ls_wR_factor_gt          0.0744
_refine_ls_goodness_of_fit_ref   1.061
_refine_ls_restrained_S_all      1.061
_refine_ls_shift/su_max          0.001
_refine_ls_shift/su_mean         0.000

loop_
_atom_site_label
_atom_site_type_symbol
_atom_site_fract_x
_atom_site_fract_y
_atom_site_fract_z
_atom_site_U_iso_or_equiv
_atom_site_adp_type
_atom_site_occupancy
_atom_site_symmetry_multiplicity
_atom_site_calc_flag
_atom_site_refinement_flags
_atom_site_disorder_assembly
_atom_site_disorder_group
C32 C 0.2531(4) 0.5250(2) 0.67508(14) 0.0106(6) Uani 1 1 d . . .
C33 C 0.3766(4) 0.4498(2) 0.71461(17) 0.0107(6) Uani 1 1 d . . .
H33 H 0.3482 0.4558 0.7654 0.013 Uiso 1 1 calc R . .
C35 C 0.6033(4) 0.4622(2) 0.70385(15) 0.0095(6) Uani 1 1 d . . .
H35 H 0.6367 0.5282 0.7126 0.011 Uiso 1 1 calc R . .
C36 C 0.7185(4) 0.4019(2) 0.75802(14) 0.0091(5) Uani 1 1 d . . .
O31 O 0.0868(3) 0.50065(15) 0.64751(12) 0.0139(4) Uani 1 1 d . . .
O32 O 0.3129(3) 0.60773(15) 0.67613(12) 0.0186(5) Uani 1 1 d . . .
O34 O 0.3133(3) 0.35939(16) 0.69254(11) 0.0122(4) Uani 1 1 d D . .
H34 H 0.336(5) 0.321(2) 0.7254(13) 0.015 Uiso 1 1 d D . .
O37 O 0.6519(3) 0.39813(17) 0.81895(11) 0.0169(5) Uani 1 1 d . . .
O38 O 0.8824(3) 0.36248(16) 0.73882(10) 0.0131(4) Uani 1 1 d . . .
O35 O 0.6634(3) 0.43976(15) 0.63412(10) 0.0111(4) Uani 1 1 d D . .
H351 H 0.658(5) 0.4898(14) 0.6106(16) 0.013 Uiso 1 1 d D . .
O4W O 0.0200(3) 0.74365(16) 0.63996(12) 0.0197(4) Uani 1 1 d D . .
H1 H 0.065(5) 0.783(2) 0.6694(16) 0.024 Uiso 1 1 d D . .
H2 H 0.100(5) 0.698(2) 0.641(2) 0.024 Uiso 1 1 d D . .
O3W O 0.3406(3) 0.67143(18) 0.47624(13) 0.0211(5) Uani 1 1 d D . .
H3 H 0.216(3) 0.668(3) 0.472(2) 0.025 Uiso 1 1 d D . .
H4 H 0.382(5) 0.705(2) 0.4420(15) 0.025 Uiso 1 1 d D . .
O2W O 0.4265(3) 0.83608(18) 0.54711(12) 0.0192(5) Uani 1 1 d D . .
H5 H 0.384(5) 0.847(3) 0.5881(12) 0.023 Uiso 1 1 d D . .
H6 H 0.403(5) 0.7817(15) 0.536(2) 0.023 Uiso 1 1 d D . .
O1W O 0.6567(3) 0.59445(19) 0.55701(14) 0.0269(6) Uani 1 1 d D . .
H7 H 0.549(4) 0.610(3) 0.5370(19) 0.032 Uiso 1 1 d D . .
H8 H 0.747(4) 0.611(3) 0.5282(17) 0.032 Uiso 1 1 d D . .
O104 O 0.3481(3) 0.21669(19) 0.78482(13) 0.0236(5) Uani 1 1 d D . .
H9 H 0.253(4) 0.219(3) 0.8127(17) 0.028 Uiso 1 1 d D . .
H10 H 0.447(4) 0.187(2) 0.7986(19) 0.028 Uiso 1 1 d D . .
C12 C -0.0245(4) 0.1666(2) 0.67815(15) 0.0143(6) Uani 1 1 d . . .
H12 H -0.0402 0.1859 0.7249 0.017 Uiso 1 1 calc R . .
C13 C -0.0053(5) 0.07183(19) 0.66408(14) 0.0152(5) Uani 1 1 d . . .
H13 H -0.0055 0.0282 0.7007 0.018 Uiso 1 1 calc R . .
C14 C 0.0141(5) 0.0433(2) 0.59454(16) 0.0164(6) Uani 1 1 d . . .
H14 H 0.0273 -0.0201 0.5838 0.020 Uiso 1 1 calc R . .
C15 C 0.0138(4) 0.1092(2) 0.54092(14) 0.0148(6) Uani 1 1 d . . .
H15 H 0.0242 0.0908 0.4938 0.018 Uiso 1 1 calc R . .
C16 C -0.0022(5) 0.20360(18) 0.55864(12) 0.0098(5) Uani 1 1 d . . .
C17 C 0.0056(5) 0.28074(19) 0.50681(13) 0.0111(5) Uani 1 1 d . . .
C18 C -0.0035(5) 0.2688(2) 0.43374(13) 0.0145(5) Uani 1 1 d . . .
H18 H -0.0123 0.2091 0.4141 0.017 Uiso 1 1 calc R . .
C19 C 0.0007(5) 0.3473(2) 0.39093(13) 0.0175(6) Uani 1 1 d . . .
H19 H -0.0075 0.3411 0.3419 0.021 Uiso 1 1 calc R . .
C20 C 0.0170(5) 0.4349(2) 0.42118(14) 0.0166(6) Uani 1 1 d . . .
H20 H 0.0209 0.4884 0.3930 0.020 Uiso 1 1 calc R . .
C21 C 0.0275(4) 0.4420(2) 0.49437(16) 0.0148(6) Uani 1 1 d . . .
H21 H 0.0404 0.5011 0.5148 0.018 Uiso 1 1 calc R . .
Cu1 Cu -0.00643(5) 0.37034(2) 0.642209(15) 0.00999(8) Uani 1 1 d . . .
N11 N -0.0211(4) 0.23135(17) 0.62707(11) 0.0112(5) Uani 1 1 d . . .
N22 N 0.0197(3) 0.36708(18) 0.53651(11) 0.0115(4) Uani 1 1 d . . .

loop_
_atom_site_aniso_label
_atom_site_aniso_U_11
_atom_site_aniso_U_22
_atom_site_aniso_U_33
_atom_site_aniso_U_23
_atom_site_aniso_U_13
_atom_site_aniso_U_12
C32 0.0099(11) 0.0130(18) 0.0088(12) -0.0030(11) 0.0033(9) 0.0002(10)
C33 0.0094(12) 0.0126(19) 0.0102(13) -0.0027(13) -0.0010(10) 0.0015(11)
C35 0.0124(12) 0.0087(19) 0.0074(13) -0.0010(12) -0.0012(10) 0.0024(11)
C36 0.0110(11) 0.0071(16) 0.0090(12) -0.0024(11) -0.0009(9) -0.0011(10)
O31 0.0121(8) 0.0104(12) 0.0191(10) -0.0019(9) -0.0049(8) 0.0013(7)
O32 0.0144(9) 0.0082(14) 0.0331(13) 0.0010(10) -0.0034(9) -0.0007(8)
O34 0.0125(8) 0.0077(12) 0.0164(10) 0.0015(9) -0.0009(7) -0.0010(8)
O37 0.0187(10) 0.0235(14) 0.0086(10) 0.0008(9) 0.0009(8) 0.0023(9)
O38 0.0145(8) 0.0138(12) 0.0111(9) -0.0003(9) -0.0002(7) 0.0034(8)
O35 0.0131(8) 0.0110(12) 0.0092(10) 0.0019(8) 0.0011(7) 0.0008(7)
O4W 0.0209(10) 0.0161(12) 0.0221(10) -0.0042(9) -0.0081(12) 0.0009(10)
O3W 0.0226(11) 0.0198(15) 0.0209(12) 0.0016(10) 0.0008(9) 0.0002(10)
O2W 0.0261(10) 0.0186(15) 0.0129(11) -0.0040(10) 0.0005(8) -0.0012(9)
O1W 0.0239(11) 0.0292(16) 0.0276(14) 0.0167(12) 0.0059(10) 0.0045(11)
O104 0.0195(10) 0.0232(15) 0.0281(13) 0.0114(11) 0.0010(9) 0.0039(10)
C12 0.0117(13) 0.0193(16) 0.0119(12) 0.0019(11) -0.0006(11) -0.0017(12)
C13 0.0146(11) 0.0092(15) 0.0219(13) 0.0047(10) 0.0007(15) -0.0014(15)
C14 0.0151(12) 0.0079(15) 0.0263(14) -0.0025(11) 0.0001(14) 0.0025(14)
C15 0.0134(11) 0.0153(17) 0.0157(11) -0.0055(10) 0.0023(12) -0.0012(13)
C16 0.0064(9) 0.0128(14) 0.0103(10) -0.0015(9) 0.0000(12) -0.0014(14)
C17 0.0067(9) 0.0123(15) 0.0144(11) 0.0008(9) -0.0007(13) -0.0011(14)
C18 0.0124(10) 0.0175(15) 0.0135(11) -0.0045(10) 0.0000(14) -0.0006(16)
C19 0.0135(10) 0.0271(18) 0.0119(11) 0.0006(10) 0.0000(14) 0.0027(16)
C20 0.0151(13) 0.0206(17) 0.0141(12) 0.0075(11) 0.0021(13) 0.0035(14)
C21 0.0120(14) 0.0123(16) 0.0202(13) 0.0023(11) 0.0028(11) 0.0013(11)
Cu1 0.01182(12) 0.00878(16) 0.00938(12) -0.00107(13) 0.00056(16) -0.00033(17)
N11 0.0115(10) 0.0114(13) 0.0106(10) -0.0019(8) -0.0003(9) 0.0010(10)
N22 0.0102(9) 0.0140(12) 0.0104(9) 0.0035(9) 0.0007(9) 0.0013(12)

_geom_special_details            
;
All esds (except the esd in the dihedral angle between two l.s. planes)
are estimated using the full covariance matrix. The cell esds are taken
into account individually in the estimation of esds in distances, angles
and torsion angles; correlations between esds in cell parameters are only
used when they are defined by crystal symmetry. An approximate (isotropic)
treatment of cell esds is used for estimating esds involving l.s. planes.
;

loop_
_geom_bond_atom_site_label_1
_geom_bond_atom_site_label_2
_geom_bond_distance
_geom_bond_site_symmetry_2
_geom_bond_publ_flag
C32 O32 1.245(4) . ?
C32 O31 1.271(3) . ?
C32 C33 1.543(4) . ?
C33 O34 1.419(4) . ?
C33 C35 1.532(4) . ?
C33 H33 0.9800 . ?
C35 O35 1.412(3) . ?
C35 C36 1.540(4) . ?
C35 H35 0.9800 . ?
C36 O37 1.233(3) . ?
C36 O38 1.279(3) . ?
O31 Cu1 1.961(2) . ?
O34 Cu1 2.3346(19) . ?
O34 H34 0.843(10) . ?
O38 Cu1 1.9701(19) 1_655 ?
O35 Cu1 2.4140(19) 1_655 ?
O35 H351 0.841(10) . ?
O4W H1 0.846(18) . ?
O4W H2 0.839(18) . ?
O3W H3 0.834(18) . ?
O3W H4 0.847(19) . ?
O2W H5 0.839(18) . ?
O2W H6 0.819(18) . ?
O1W H7 0.841(18) . ?
O1W H8 0.843(19) . ?
O5W H9 0.823(18) . ?
O5W H10 0.827(18) . ?
C12 N11 1.335(4) . ?
C12 C13 1.383(4) . ?
C12 H12 0.9300 . ?
C13 C14 1.380(4) . ?
C13 H13 0.9300 . ?
C14 C15 1.381(4) . ?
C14 H14 0.9300 . ?
C15 C16 1.391(4) . ?
C15 H15 0.9300 . ?
C16 N11 1.356(3) . ?
C16 C17 1.473(4) . ?
C17 N22 1.356(4) . ?
C17 C18 1.390(3) . ?
C18 C19 1.380(4) . ?
C18 H18 0.9300 . ?
C19 C20 1.378(4) . ?
C19 H19 0.9300 . ?
C20 C21 1.386(4) . ?
C20 H20 0.9300 . ?
C21 N22 1.332(4) . ?
C21 H21 0.9300 . ?
Cu1 O38 1.9701(19) 1_455 ?
Cu1 N22 2.002(2) . ?
Cu1 N11 2.005(2) . ?
Cu1 O35 2.4141(19) 1_455 ?

loop_
_geom_angle_atom_site_label_1
_geom_angle_atom_site_label_2
_geom_angle_atom_site_label_3
_geom_angle
_geom_angle_site_symmetry_1
_geom_angle_site_symmetry_3
_geom_angle_publ_flag
O32 C32 O31 122.9(3) . . ?
O32 C32 C33 118.8(2) . . ?
O31 C32 C33 118.1(3) . . ?
O34 C33 C35 111.0(3) . . ?
O34 C33 C32 109.4(2) . . ?
C35 C33 C32 112.3(3) . . ?
O34 C33 H33 108.0 . . ?
C35 C33 H33 108.0 . . ?
C32 C33 H33 108.0 . . ?
O35 C35 C33 112.1(3) . . ?
O35 C35 C36 110.5(2) . . ?
C33 C35 C36 109.7(3) . . ?
O35 C35 H35 108.1 . . ?
C33 C35 H35 108.1 . . ?
C36 C35 H35 108.1 . . ?
O37 C36 O38 123.5(3) . . ?
O37 C36 C35 117.6(2) . . ?
O38 C36 C35 118.8(2) . . ?
C32 O31 Cu1 123.7(2) . . ?
C33 O34 Cu1 109.21(17) . . ?
C33 O34 H34 109(2) . . ?
Cu1 O34 H34 120(2) . . ?
C36 O38 Cu1 123.86(18) . 1_655 ?
C35 O35 Cu1 106.95(16) . 1_655 ?
C35 O35 H351 107(2) . . ?
Cu1 O35 H351 115(2) 1_655 . ?
H1 O4W H2 106(4) . . ?
H3 O3W H4 107(4) . . ?
H5 O2W H6 111(4) . . ?
H7 O1W H8 104(4) . . ?
H9 O5W H10 115(4) . . ?
N11 C12 C13 122.4(3) . . ?
N11 C12 H12 118.8 . . ?
C13 C12 H12 118.8 . . ?
C14 C13 C12 118.6(3) . . ?
C14 C13 H13 120.7 . . ?
C12 C13 H13 120.7 . . ?
C13 C14 C15 119.7(3) . . ?
C13 C14 H14 120.1 . . ?
C15 C14 H14 120.1 . . ?
C14 C15 C16 118.9(2) . . ?
C14 C15 H15 120.6 . . ?
C16 C15 H15 120.6 . . ?
N11 C16 C15 121.2(2) . . ?
N11 C16 C17 114.7(2) . . ?
C15 C16 C17 124.1(2) . . ?
N22 C17 C18 121.6(2) . . ?
N22 C17 C16 114.0(2) . . ?
C18 C17 C16 124.4(2) . . ?
C19 C18 C17 118.7(3) . . ?
C19 C18 H18 120.7 . . ?
C17 C18 H18 120.7 . . ?
C20 C19 C18 119.6(2) . . ?
C20 C19 H19 120.2 . . ?
C18 C19 H19 120.2 . . ?
C19 C20 C21 118.9(3) . . ?
C19 C20 H20 120.6 . . ?
C21 C20 H20 120.6 . . ?
N22 C21 C20 122.3(3) . . ?
N22 C21 H21 118.9 . . ?
C20 C21 H21 118.9 . . ?
O31 Cu1 O38 97.21(9) . 1_455 ?
O31 Cu1 N22 92.60(10) . . ?
O38 Cu1 N22 162.31(9) 1_455 . ?
O31 Cu1 N11 163.57(9) . . ?
O38 Cu1 N11 93.28(9) 1_455 . ?
N22 Cu1 N11 80.76(10) . . ?
O31 Cu1 O34 75.78(8) . . ?
O38 Cu1 O34 87.82(7) 1_455 . ?
N22 Cu1 O34 108.92(8) . . ?
N11 Cu1 O34 92.08(9) . . ?
O31 Cu1 O35 84.42(7) . 1_455 ?
O38 Cu1 O35 74.95(7) 1_455 1_455 ?
N22 Cu1 O35 91.47(8) . 1_455 ?
N11 Cu1 O35 110.61(9) . 1_455 ?
O34 Cu1 O35 151.90(7) . 1_455 ?
C12 N11 C16 119.1(2) . . ?
C12 N11 Cu1 125.58(19) . . ?
C16 N11 Cu1 114.80(18) . . ?
C21 N22 C17 118.9(2) . . ?
C21 N22 Cu1 125.4(2) . . ?
C17 N22 Cu1 115.26(17) . . ?

_diffrn_measured_fraction_theta_max 0.911
_diffrn_reflns_theta_full        30.00
_diffrn_measured_fraction_theta_full 0.911
_refine_diff_density_max         0.488
_refine_diff_density_min         -0.454
_refine_diff_density_rms         0.078
