####################################################################### 
# 
# This file contains crystal structure data downloaded from the 
# Cambridge Structural Database (CSD) hosted by the Cambridge 
# Crystallographic Data Centre (CCDC).
# 
# Full information about CCDC data access policies and citation 
# guidelines are available at http://www.ccdc.cam.ac.uk/access/V1 
# 
# Audit and citation data items may have been added by the CCDC. 
# Please retain this information to preserve the provenance of 
# this file and to allow appropriate attribution of the data. 
# 
#######################################################################

data_x
_audit_block_doi                 10.5517/ccqbwqm
_database_code_depnum_ccdc_archive 'CCDC 665871'
loop_
_citation_id
_citation_doi
_citation_year
1 10.1080/00958970802074571 2008
_audit_update_record             
;
2007-11-01 deposited with the CCDC.	2024-07-11 downloaded from the CCDC.
;

_audit_creation_method           SHELXL-97
_chemical_name_systematic        
;
?
;
_chemical_name_common            ?
_chemical_melting_point          ?
_chemical_formula_moiety         ?
_chemical_formula_sum            'C14 H22 Cu N2 O11'
_chemical_formula_weight         457.88

loop_
_atom_type_symbol
_atom_type_description
_atom_type_scat_dispersion_real
_atom_type_scat_dispersion_imag
_atom_type_scat_source
C C 0.0033 0.0016 'International Tables Vol C Tables 4.2.6.8 and 6.1.1.4'
H H 0.0000 0.0000 'International Tables Vol C Tables 4.2.6.8 and 6.1.1.4'
N N 0.0061 0.0033 'International Tables Vol C Tables 4.2.6.8 and 6.1.1.4'
O O 0.0106 0.0060 'International Tables Vol C Tables 4.2.6.8 and 6.1.1.4'
Cu Cu 0.3201 1.2651 'International Tables Vol C Tables 4.2.6.8 and 6.1.1.4'

_symmetry_cell_setting           orthorhombic
_symmetry_space_group_name_H-M   P2(1)2(1)2(1)

loop_
_symmetry_equiv_pos_as_xyz
'x, y, z'
'-x+1/2, -y, z+1/2'
'x+1/2, -y+1/2, -z'
'-x, y+1/2, -z+1/2'

_cell_length_a                   6.685(2)
_cell_length_b                   14.344(6)
_cell_length_c                   18.95(3)
_cell_angle_alpha                90.00
_cell_angle_beta                 90.00
_cell_angle_gamma                90.00
_cell_volume                     1817(3)
_cell_formula_units_Z            4
_cell_measurement_temperature    173(2)
_cell_measurement_reflns_used    124
_cell_measurement_theta_min      3.0357
_cell_measurement_theta_max      27.4835

_exptl_crystal_description       Prism
_exptl_crystal_colour            Blue
_exptl_crystal_size_max          0.5000
_exptl_crystal_size_mid          0.1500
_exptl_crystal_size_min          0.1000
_exptl_crystal_density_meas      ?
_exptl_crystal_density_diffrn    1.674
_exptl_crystal_density_method    'not measured'
_exptl_crystal_F_000             948
_exptl_absorpt_coefficient_mu    1.266
_exptl_absorpt_correction_type   Multi-scan
_exptl_absorpt_correction_T_min  0.1472
_exptl_absorpt_correction_T_max  1.0000
_exptl_absorpt_process_details   'CrystalClear (Rigaku Corp., 2000)'

_exptl_special_details           
;
????
;

_diffrn_ambient_temperature      173(2)
_diffrn_radiation_wavelength     0.71073
_diffrn_radiation_type           MoK\a
_diffrn_radiation_source         'fine-focus sealed tube'
_diffrn_radiation_monochromator  graphite
_diffrn_measurement_device_type  ?
_diffrn_measurement_method       CCD_Profile_fitting
_diffrn_detector_area_resol_mean 14.6306
_diffrn_standards_number         ?
_diffrn_standards_interval_count ?
_diffrn_standards_interval_time  ?
_diffrn_standards_decay_%        ?
_diffrn_reflns_number            11756
_diffrn_reflns_av_R_equivalents  0.0540
_diffrn_reflns_av_sigmaI/netI    0.0520
_diffrn_reflns_limit_h_min       -7
_diffrn_reflns_limit_h_max       7
_diffrn_reflns_limit_k_min       -17
_diffrn_reflns_limit_k_max       16
_diffrn_reflns_limit_l_min       -22
_diffrn_reflns_limit_l_max       21
_diffrn_reflns_theta_min         3.04
_diffrn_reflns_theta_max         25.01
_reflns_number_total             3144
_reflns_number_gt                2794
_reflns_threshold_expression     >2sigma(I)

_computing_data_collection       'CrystalClear (Rigaku Corp., 2000)'
_computing_cell_refinement       'CrystalClear (Rigaku Corp., 2000)'
_computing_data_reduction        'CrystalClear (Rigaku Corp., 2000)'
_computing_structure_solution    'SHELXS-97 (Sheldrick, 1990)'
_computing_structure_refinement  'SHELXL-97 (Sheldrick, 1997)'
_computing_molecular_graphics    ?
_computing_publication_material  ?

_refine_special_details          
;
Refinement of F^2^ against ALL reflections. The weighted R-factor wR and
goodness of fit S are based on F^2^, conventional R-factors R are based
on F, with F set to zero for negative F^2^. The threshold expression of
F^2^ > 2sigma(F^2^) is used only for calculating R-factors(gt) etc. and is
not relevant to the choice of reflections for refinement. R-factors based
on F^2^ are statistically about twice as large as those based on F, and R-
factors based on ALL data will be even larger.
;

_refine_ls_structure_factor_coef Fsqd
_refine_ls_matrix_type           full
_refine_ls_weighting_scheme      calc
_refine_ls_weighting_details     
'calc w=1/[\s^2^(Fo^2^)+(0.0029P)^2^+3.5006P] where P=(Fo^2^+2Fc^2^)/3'
_atom_sites_solution_primary     direct
_atom_sites_solution_secondary   difmap
_atom_sites_solution_hydrogens   geom
_refine_ls_hydrogen_treatment    mixed
_refine_ls_extinction_method     none
_refine_ls_extinction_coef       ?
_refine_ls_abs_structure_details 'Flack H D (1983), Acta Cryst. A39, 876-881'
_refine_ls_abs_structure_Flack   0.04(2)
_chemical_absolute_configuration_info_given ad
_refine_ls_number_reflns         3144
_refine_ls_number_parameters     257
_refine_ls_number_restraints     2
_refine_ls_R_factor_all          0.0472
_refine_ls_R_factor_gt           0.0393
_refine_ls_wR_factor_ref         0.0808
_refine_ls_wR_factor_gt          0.0771
_refine_ls_goodness_of_fit_ref   1.002
_refine_ls_restrained_S_all      1.002
_refine_ls_shift/su_max          0.001
_refine_ls_shift/su_mean         0.000

loop_
_atom_site_label
_atom_site_type_symbol
_atom_site_fract_x
_atom_site_fract_y
_atom_site_fract_z
_atom_site_U_iso_or_equiv
_atom_site_adp_type
_atom_site_occupancy
_atom_site_symmetry_multiplicity
_atom_site_calc_flag
_atom_site_refinement_flags
_atom_site_disorder_assembly
_atom_site_disorder_group
Cu1 Cu 2.00260(9) 0.37112(3) 0.64177(2) 0.02409(13) Uani 1 1 d . . .
N2 N 1.9797(6) 0.3679(2) 0.53666(16) 0.0243(7) Uani 1 1 d . . .
C5 C 1.9980(8) 0.2052(2) 0.55893(19) 0.0232(8) Uani 1 1 d . . .
C6 C 1.9939(8) 0.2825(3) 0.50655(19) 0.0240(8) Uani 1 1 d . . .
C7 C 1.9999(9) 0.2701(3) 0.4346(2) 0.0298(9) Uani 1 1 d . . .
H7A H 2.0075 0.2093 0.4149 0.036 Uiso 1 1 calc R . .
O1 O 1.9060(5) 0.49983(19) 0.64729(18) 0.0332(7) Uani 1 1 d . . .
C1 C 2.0223(9) 0.1685(3) 0.6772(2) 0.0282(10) Uani 1 1 d . . .
H1A H 2.0386 0.1881 0.7247 0.034 Uiso 1 1 calc R . .
N1 N 2.0177(6) 0.2329(2) 0.62648(16) 0.0241(7) Uani 1 1 d . . .
C2 C 2.0044(10) 0.0746(3) 0.6632(2) 0.0340(10) Uani 1 1 d . . .
H2A H 2.0041 0.0303 0.7005 0.041 Uiso 1 1 calc R . .
C13 C 1.3934(7) 0.4611(3) 0.7046(2) 0.0215(10) Uani 1 1 d . . .
H13A H 1.3609 0.5281 0.7137 0.026 Uiso 1 1 calc R . .
O3 O 1.6808(4) 0.3587(2) 0.69179(16) 0.0272(7) Uani 1 1 d D . .
C12 C 1.6184(8) 0.4486(3) 0.7144(3) 0.0255(11) Uani 1 1 d . . .
H12A H 1.6475 0.4535 0.7661 0.031 Uiso 1 1 calc R . .
C9 C 1.9822(9) 0.4353(3) 0.4219(2) 0.0353(11) Uani 1 1 d . . .
H9A H 1.9817 0.4897 0.3933 0.042 Uiso 1 1 calc R . .
C8 C 1.9945(9) 0.3484(3) 0.3915(2) 0.0352(10) Uani 1 1 d . . .
H8A H 1.9993 0.3420 0.3416 0.042 Uiso 1 1 calc R . .
C10 C 1.9707(8) 0.4428(3) 0.4942(2) 0.0291(11) Uani 1 1 d . . .
H10A H 1.9560 0.5028 0.5147 0.035 Uiso 1 1 calc R . .
C3 C 1.9872(10) 0.0466(3) 0.5944(2) 0.0373(11) Uani 1 1 d . . .
H3A H 1.9768 -0.0179 0.5835 0.045 Uiso 1 1 calc R . .
C4 C 1.9848(8) 0.1122(3) 0.5407(2) 0.0302(9) Uani 1 1 d . . .
H4A H 1.9743 0.0937 0.4927 0.036 Uiso 1 1 calc R . .
O6 O 1.1139(5) 0.3635(2) 0.73777(16) 0.0318(7) Uani 1 1 d . . .
O2 O 1.6833(5) 0.6055(2) 0.67771(19) 0.0419(9) Uani 1 1 d . . .
C14 C 1.2763(7) 0.4024(3) 0.7575(2) 0.0247(10) Uani 1 1 d . . .
O4 O 1.3334(4) 0.43992(19) 0.63424(15) 0.0263(7) Uani 1 1 d D . .
H4B H 1.3359 0.4887 0.6098 0.039 Uiso 1 1 calc RD . .
O5 O 1.3399(5) 0.3973(2) 0.81830(17) 0.0392(8) Uani 1 1 d . . .
C11 C 1.7432(7) 0.5239(3) 0.6764(2) 0.0263(10) Uani 1 1 d . . .
O5W O 1.9724(6) 0.7420(2) 0.64035(17) 0.0428(8) Uani 1 1 d . . .
O4W O 1.6525(6) 0.2169(2) 0.7869(2) 0.0518(10) Uani 1 1 d . . .
O3W O 2.1577(6) -0.1716(2) 0.52493(19) 0.0490(10) Uani 1 1 d . . .
O2W O 1.4282(5) 0.3350(2) 0.95141(18) 0.0450(10) Uani 1 1 d . . .
O1W O 1.3414(6) 0.5942(3) 0.5561(2) 0.0575(11) Uani 1 1 d . . .
H3B H 1.663(7) 0.322(2) 0.7261(14) 0.016(12) Uiso 1 1 d D . .

loop_
_atom_site_aniso_label
_atom_site_aniso_U_11
_atom_site_aniso_U_22
_atom_site_aniso_U_33
_atom_site_aniso_U_23
_atom_site_aniso_U_13
_atom_site_aniso_U_12
Cu1 0.0252(3) 0.0206(2) 0.0264(2) -0.00206(19) -0.0003(3) -0.0003(3)
N2 0.0226(19) 0.0219(15) 0.0284(16) -0.0021(14) -0.0014(19) -0.001(2)
C5 0.0123(18) 0.0239(18) 0.033(2) -0.0025(15) 0.001(3) 0.000(3)
C6 0.0138(19) 0.031(2) 0.0271(19) 0.0003(15) -0.002(3) -0.002(3)
C7 0.021(2) 0.041(2) 0.028(2) -0.0079(17) 0.001(3) -0.002(3)
O1 0.0296(17) 0.0223(15) 0.048(2) -0.0016(15) 0.0062(16) -0.0002(13)
C1 0.024(3) 0.030(2) 0.030(2) 0.0009(17) 0.000(2) 0.001(2)
N1 0.0179(19) 0.0264(16) 0.0281(18) 0.0003(13) -0.001(2) 0.0012(19)
C2 0.026(2) 0.028(2) 0.048(3) 0.0072(18) -0.003(3) -0.001(3)
C13 0.019(2) 0.019(2) 0.027(2) -0.005(2) -0.003(2) -0.003(2)
O3 0.0244(17) 0.0200(16) 0.0371(18) 0.0045(14) 0.0039(14) 0.0009(14)
C12 0.024(3) 0.024(2) 0.029(3) -0.007(2) -0.003(2) -0.001(2)
C9 0.028(3) 0.042(2) 0.036(2) 0.0109(19) -0.004(3) -0.004(3)
C8 0.025(2) 0.056(3) 0.025(2) 0.0022(18) 0.001(3) -0.004(3)
C10 0.025(3) 0.026(2) 0.037(2) 0.0060(17) -0.001(2) -0.001(2)
C3 0.029(3) 0.026(2) 0.057(3) -0.003(2) -0.004(3) -0.002(3)
C4 0.025(2) 0.030(2) 0.036(2) -0.0091(17) -0.005(3) -0.001(3)
O6 0.0284(18) 0.0341(17) 0.0330(17) 0.0027(15) 0.0018(14) -0.0091(16)
O2 0.0297(19) 0.0196(18) 0.076(3) -0.0016(16) 0.0075(18) 0.0020(15)
C14 0.023(3) 0.023(2) 0.029(3) -0.0059(18) 0.0016(19) 0.0012(19)
O4 0.0233(16) 0.0288(15) 0.0268(16) 0.0030(13) -0.0022(14) -0.0017(13)
O5 0.038(2) 0.050(2) 0.0299(19) 0.0010(15) -0.0027(16) -0.0066(18)
C11 0.019(3) 0.026(3) 0.034(3) -0.0055(19) -0.0021(19) -0.004(2)
O5W 0.049(2) 0.0356(16) 0.0432(18) -0.0004(15) 0.009(2) -0.0003(18)
O4W 0.048(2) 0.045(2) 0.062(3) 0.022(2) 0.004(2) 0.0000(19)
O3W 0.051(2) 0.048(2) 0.048(2) 0.0002(18) -0.0023(19) 0.0063(19)
O2W 0.056(3) 0.0392(19) 0.040(2) 0.0022(15) -0.0037(16) -0.0027(16)
O1W 0.057(3) 0.048(2) 0.067(3) 0.027(2) -0.011(2) -0.011(2)

_geom_special_details            
;
All esds (except the esd in the dihedral angle between two l.s. planes)
are estimated using the full covariance matrix. The cell esds are taken
into account individually in the estimation of esds in distances, angles
and torsion angles; correlations between esds in cell parameters are only
used when they are defined by crystal symmetry. An approximate (isotropic)
treatment of cell esds is used for estimating esds involving l.s. planes.
;

loop_
_geom_bond_atom_site_label_1
_geom_bond_atom_site_label_2
_geom_bond_distance
_geom_bond_site_symmetry_2
_geom_bond_publ_flag
Cu1 O1 1.959(3) . ?
Cu1 O6 1.968(4) 1_655 ?
Cu1 N2 1.998(5) . ?
Cu1 N1 2.006(3) . ?
Cu1 O3 2.358(3) . ?
Cu1 O4 2.426(3) 1_655 ?
N2 C10 1.344(5) . ?
N2 C6 1.355(5) . ?
C5 N1 1.347(5) . ?
C5 C4 1.381(5) . ?
C5 C6 1.488(5) . ?
C6 C7 1.375(6) . ?
C7 C8 1.390(6) . ?
C7 H7A 0.9500 . ?
O1 C11 1.268(5) . ?
C1 N1 1.334(5) . ?
C1 C2 1.377(5) . ?
C1 H1A 0.9500 . ?
C2 C3 1.369(6) . ?
C2 H2A 0.9500 . ?
C13 O4 1.425(6) . ?
C13 C12 1.527(6) . ?
C13 C14 1.525(6) . ?
C13 H13A 1.0000 . ?
O3 C12 1.421(5) . ?
O3 H3B 0.843(10) . ?
C12 C11 1.544(6) . ?
C12 H12A 1.0000 . ?
C9 C10 1.376(6) . ?
C9 C8 1.376(6) . ?
C9 H9A 0.9500 . ?
C8 H8A 0.9500 . ?
C10 H10A 0.9500 . ?
C3 C4 1.387(6) . ?
C3 H3A 0.9500 . ?
C4 H4A 0.9500 . ?
O6 C14 1.277(5) . ?
O6 Cu1 1.968(4) 1_455 ?
O2 C11 1.237(5) . ?
C14 O5 1.230(5) . ?
O4 Cu1 2.426(3) 1_455 ?
O4 H4B 0.8400 . ?

loop_
_geom_angle_atom_site_label_1
_geom_angle_atom_site_label_2
_geom_angle_atom_site_label_3
_geom_angle
_geom_angle_site_symmetry_1
_geom_angle_site_symmetry_3
_geom_angle_publ_flag
O1 Cu1 O6 97.34(14) . 1_655 ?
O1 Cu1 N2 92.85(14) . . ?
O6 Cu1 N2 161.59(15) 1_655 . ?
O1 Cu1 N1 162.90(16) . . ?
O6 Cu1 N1 93.42(13) 1_655 . ?
N2 Cu1 N1 80.61(13) . . ?
O1 Cu1 O3 75.45(11) . . ?
O6 Cu1 O3 88.25(14) 1_655 . ?
N2 Cu1 O3 109.20(15) . . ?
N1 Cu1 O3 91.69(14) . . ?
O1 Cu1 O4 85.43(11) . 1_655 ?
O6 Cu1 O4 74.47(12) 1_655 1_655 ?
N2 Cu1 O4 91.19(13) . 1_655 ?
N1 Cu1 O4 110.34(14) . 1_655 ?
O3 Cu1 O4 152.41(10) . 1_655 ?
C10 N2 C6 118.3(3) . . ?
C10 N2 Cu1 125.6(3) . . ?
C6 N2 Cu1 115.8(2) . . ?
N1 C5 C4 121.9(3) . . ?
N1 C5 C6 114.6(3) . . ?
C4 C5 C6 123.5(4) . . ?
N2 C6 C7 122.4(3) . . ?
N2 C6 C5 113.2(3) . . ?
C7 C6 C5 124.3(3) . . ?
C6 C7 C8 118.5(4) . . ?
C6 C7 H7A 120.7 . . ?
C8 C7 H7A 120.7 . . ?
C11 O1 Cu1 124.3(3) . . ?
N1 C1 C2 122.6(4) . . ?
N1 C1 H1A 118.7 . . ?
C2 C1 H1A 118.7 . . ?
C1 N1 C5 118.8(3) . . ?
C1 N1 Cu1 125.6(3) . . ?
C5 N1 Cu1 115.1(2) . . ?
C3 C2 C1 118.5(4) . . ?
C3 C2 H2A 120.8 . . ?
C1 C2 H2A 120.8 . . ?
O4 C13 C12 111.5(4) . . ?
O4 C13 C14 110.7(4) . . ?
C12 C13 C14 111.1(4) . . ?
O4 C13 H13A 107.8 . . ?
C12 C13 H13A 107.8 . . ?
C14 C13 H13A 107.8 . . ?
C12 O3 Cu1 108.7(3) . . ?
C12 O3 H3B 107(3) . . ?
Cu1 O3 H3B 119(3) . . ?
O3 C12 C13 111.0(4) . . ?
O3 C12 C11 109.6(4) . . ?
C13 C12 C11 113.1(4) . . ?
O3 C12 H12A 107.6 . . ?
C13 C12 H12A 107.6 . . ?
C11 C12 H12A 107.6 . . ?
C10 C9 C8 119.4(4) . . ?
C10 C9 H9A 120.3 . . ?
C8 C9 H9A 120.3 . . ?
C9 C8 C7 119.1(4) . . ?
C9 C8 H8A 120.4 . . ?
C7 C8 H8A 120.4 . . ?
N2 C10 C9 122.1(4) . . ?
N2 C10 H10A 118.9 . . ?
C9 C10 H10A 118.9 . . ?
C2 C3 C4 120.0(4) . . ?
C2 C3 H3A 120.0 . . ?
C4 C3 H3A 120.0 . . ?
C5 C4 C3 118.2(4) . . ?
C5 C4 H4A 120.9 . . ?
C3 C4 H4A 120.9 . . ?
C14 O6 Cu1 124.6(3) . 1_455 ?
O5 C14 O6 122.8(4) . . ?
O5 C14 C13 118.1(4) . . ?
O6 C14 C13 119.0(4) . . ?
C13 O4 Cu1 106.7(3) . 1_455 ?
C13 O4 H4B 109.5 . . ?
Cu1 O4 H4B 112.9 1_455 . ?
O2 C11 O1 123.0(4) . . ?
O2 C11 C12 118.5(4) . . ?
O1 C11 C12 118.4(4) . . ?

loop_
_geom_torsion_atom_site_label_1
_geom_torsion_atom_site_label_2
_geom_torsion_atom_site_label_3
_geom_torsion_atom_site_label_4
_geom_torsion
_geom_torsion_site_symmetry_1
_geom_torsion_site_symmetry_2
_geom_torsion_site_symmetry_3
_geom_torsion_site_symmetry_4
_geom_torsion_publ_flag
O1 Cu1 N2 C10 19.6(4) . . . . ?
O6 Cu1 N2 C10 -104.1(5) 1_655 . . . ?
N1 Cu1 N2 C10 -176.3(4) . . . . ?
O3 Cu1 N2 C10 95.2(4) . . . . ?
O4 Cu1 N2 C10 -65.9(4) 1_655 . . . ?
O1 Cu1 N2 C6 -167.1(4) . . . . ?
O6 Cu1 N2 C6 69.2(6) 1_655 . . . ?
N1 Cu1 N2 C6 -3.0(4) . . . . ?
O3 Cu1 N2 C6 -91.5(4) . . . . ?
O4 Cu1 N2 C6 107.4(4) 1_655 . . . ?
C10 N2 C6 C7 0.1(8) . . . . ?
Cu1 N2 C6 C7 -173.7(5) . . . . ?
C10 N2 C6 C5 -178.7(5) . . . . ?
Cu1 N2 C6 C5 7.5(6) . . . . ?
N1 C5 C6 N2 -9.7(7) . . . . ?
C4 C5 C6 N2 171.0(5) . . . . ?
N1 C5 C6 C7 171.6(6) . . . . ?
C4 C5 C6 C7 -7.8(9) . . . . ?
N2 C6 C7 C8 1.2(9) . . . . ?
C5 C6 C7 C8 179.8(5) . . . . ?
O6 Cu1 O1 C11 -80.6(4) 1_655 . . . ?
N2 Cu1 O1 C11 114.8(4) . . . . ?
N1 Cu1 O1 C11 47.9(7) . . . . ?
O3 Cu1 O1 C11 5.7(3) . . . . ?
O4 Cu1 O1 C11 -154.3(4) 1_655 . . . ?
C2 C1 N1 C5 -1.1(9) . . . . ?
C2 C1 N1 Cu1 170.6(5) . . . . ?
C4 C5 N1 C1 -0.8(8) . . . . ?
C6 C5 N1 C1 179.8(5) . . . . ?
C4 C5 N1 Cu1 -173.3(4) . . . . ?
C6 C5 N1 Cu1 7.3(6) . . . . ?
O1 Cu1 N1 C1 -106.1(6) . . . . ?
O6 Cu1 N1 C1 22.9(5) 1_655 . . . ?
N2 Cu1 N1 C1 -174.6(5) . . . . ?
O3 Cu1 N1 C1 -65.4(5) . . . . ?
O4 Cu1 N1 C1 97.6(5) 1_655 . . . ?
O1 Cu1 N1 C5 65.9(7) . . . . ?
O6 Cu1 N1 C5 -165.1(4) 1_655 . . . ?
N2 Cu1 N1 C5 -2.6(4) . . . . ?
O3 Cu1 N1 C5 106.5(4) . . . . ?
O4 Cu1 N1 C5 -90.4(4) 1_655 . . . ?
N1 C1 C2 C3 2.0(11) . . . . ?
O1 Cu1 O3 C12 -14.6(3) . . . . ?
O6 Cu1 O3 C12 83.5(3) 1_655 . . . ?
N2 Cu1 O3 C12 -102.5(3) . . . . ?
N1 Cu1 O3 C12 176.8(3) . . . . ?
O4 Cu1 O3 C12 33.0(4) 1_655 . . . ?
Cu1 O3 C12 C13 145.2(3) . . . . ?
Cu1 O3 C12 C11 19.5(4) . . . . ?
O4 C13 C12 O3 -52.8(5) . . . . ?
C14 C13 C12 O3 71.2(5) . . . . ?
O4 C13 C12 C11 70.9(5) . . . . ?
C14 C13 C12 C11 -165.1(3) . . . . ?
C10 C9 C8 C7 -1.5(9) . . . . ?
C6 C7 C8 C9 -0.4(9) . . . . ?
C6 N2 C10 C9 -2.2(7) . . . . ?
Cu1 N2 C10 C9 171.0(4) . . . . ?
C8 C9 C10 N2 2.9(9) . . . . ?
C1 C2 C3 C4 -1.0(11) . . . . ?
N1 C5 C4 C3 1.6(9) . . . . ?
C6 C5 C4 C3 -179.0(5) . . . . ?
C2 C3 C4 C5 -0.7(10) . . . . ?
Cu1 O6 C14 O5 178.9(3) 1_455 . . . ?
Cu1 O6 C14 C13 1.4(5) 1_455 . . . ?
O4 C13 C14 O5 164.3(4) . . . . ?
C12 C13 C14 O5 39.8(6) . . . . ?
O4 C13 C14 O6 -18.1(5) . . . . ?
C12 C13 C14 O6 -142.5(4) . . . . ?
C12 C13 O4 Cu1 145.9(3) . . . 1_455 ?
C14 C13 O4 Cu1 21.7(4) . . . 1_455 ?
Cu1 O1 C11 O2 -178.3(3) . . . . ?
Cu1 O1 C11 C12 4.3(6) . . . . ?
O3 C12 C11 O2 164.9(4) . . . . ?
C13 C12 C11 O2 40.4(6) . . . . ?
O3 C12 C11 O1 -17.6(6) . . . . ?
C13 C12 C11 O1 -142.1(4) . . . . ?

_diffrn_measured_fraction_theta_max 0.990
_diffrn_reflns_theta_full        25.01
_diffrn_measured_fraction_theta_full 0.990
_refine_diff_density_max         0.502
_refine_diff_density_min         -0.348
_refine_diff_density_rms         0.066


