####################################################################### 
# 
# This file contains crystal structure data downloaded from the 
# Cambridge Structural Database (CSD) hosted by the Cambridge 
# Crystallographic Data Centre (CCDC).
# 
# Full information about CCDC data access policies and citation 
# guidelines are available at http://www.ccdc.cam.ac.uk/access/V1 
# 
# Audit and citation data items may have been added by the CCDC. 
# Please retain this information to preserve the provenance of 
# this file and to allow appropriate attribution of the data. 
# 
#######################################################################

data_3
_audit_block_doi                 10.5517/ccp6n0j
_database_code_depnum_ccdc_archive 'CCDC 631997'
loop_
_citation_id
_citation_doi
_citation_year
1 10.1016/j.ica.2007.11.036 2008
_audit_update_record             
;
2006-12-25 deposited with the CCDC.	2024-07-11 downloaded from the CCDC.
;

_audit_creation_method           SHELXL-97
_chemical_name_systematic        
;
?
;
_chemical_name_common            ?
_chemical_melting_point          ?
_chemical_formula_moiety         ?
_chemical_formula_sum            'C14 H10 Cu N2 O11'
_chemical_formula_weight         445.78

loop_
_atom_type_symbol
_atom_type_description
_atom_type_scat_dispersion_real
_atom_type_scat_dispersion_imag
_atom_type_scat_source
C C 0.0033 0.0016 'International Tables Vol C Tables 4.2.6.8 and 6.1.1.4'
H H 0.0000 0.0000 'International Tables Vol C Tables 4.2.6.8 and 6.1.1.4'
N N 0.0061 0.0033 'International Tables Vol C Tables 4.2.6.8 and 6.1.1.4'
O O 0.0106 0.0060 'International Tables Vol C Tables 4.2.6.8 and 6.1.1.4'
Cu Cu 0.3201 1.2651 'International Tables Vol C Tables 4.2.6.8 and 6.1.1.4'

_symmetry_cell_setting           ?
_symmetry_space_group_name_H-M   ?

loop_
_symmetry_equiv_pos_as_xyz
'x, y, z'
'-x+1/2, -y, z+1/2'
'-x, y+1/2, -z+1/2'
'x+1/2, -y+1/2, -z'

_cell_length_a                   6.6556(8)
_cell_length_b                   14.3048(16)
_cell_length_c                   19.047(2)
_cell_angle_alpha                90.00
_cell_angle_beta                 90.00
_cell_angle_gamma                90.00
_cell_volume                     1813.4(4)
_cell_formula_units_Z            4
_cell_measurement_temperature    273(2)
_cell_measurement_reflns_used    ?
_cell_measurement_theta_min      ?
_cell_measurement_theta_max      ?

_exptl_crystal_description       ?
_exptl_crystal_colour            ?
_exptl_crystal_size_max          0.19
_exptl_crystal_size_mid          0.09
_exptl_crystal_size_min          0.07
_exptl_crystal_density_meas      ?
_exptl_crystal_density_diffrn    1.633
_exptl_crystal_density_method    'not measured'
_exptl_crystal_F_000             900
_exptl_absorpt_coefficient_mu    1.267
_exptl_absorpt_correction_type   ?
_exptl_absorpt_correction_T_min  0.7948
_exptl_absorpt_correction_T_max  0.9210
_exptl_absorpt_process_details   ?

_exptl_special_details           
;
?
;

_diffrn_ambient_temperature      273(2)
_diffrn_radiation_wavelength     0.71073
_diffrn_radiation_type           MoK\a
_diffrn_radiation_source         'fine-focus sealed tube'
_diffrn_radiation_monochromator  graphite
_diffrn_measurement_device_type  ?
_diffrn_measurement_method       ?
_diffrn_detector_area_resol_mean ?
_diffrn_standards_number         ?
_diffrn_standards_interval_count ?
_diffrn_standards_interval_time  ?
_diffrn_standards_decay_%        ?
_diffrn_reflns_number            10475
_diffrn_reflns_av_R_equivalents  0.0850
_diffrn_reflns_av_sigmaI/netI    0.0986
_diffrn_reflns_limit_h_min       -7
_diffrn_reflns_limit_h_max       7
_diffrn_reflns_limit_k_min       -16
_diffrn_reflns_limit_k_max       16
_diffrn_reflns_limit_l_min       -22
_diffrn_reflns_limit_l_max       21
_diffrn_reflns_theta_min         1.78
_diffrn_reflns_theta_max         24.50
_reflns_number_total             2992
_reflns_number_gt                1820
_reflns_threshold_expression     >2sigma(I)

_computing_data_collection       ?
_computing_cell_refinement       ?
_computing_data_reduction        ?
_computing_structure_solution    'SHELXS-97 (Sheldrick, 1990)'
_computing_structure_refinement  'SHELXL-97 (Sheldrick, 1997)'
_computing_molecular_graphics    ?
_computing_publication_material  ?

_refine_special_details          
;
Refinement of F^2^ against ALL reflections. The weighted R-factor wR and
goodness of fit S are based on F^2^, conventional R-factors R are based
on F, with F set to zero for negative F^2^. The threshold expression of
F^2^ > 2sigma(F^2^) is used only for calculating R-factors(gt) etc. and is
not relevant to the choice of reflections for refinement. R-factors based
on F^2^ are statistically about twice as large as those based on F, and R-
factors based on ALL data will be even larger.
;

_refine_ls_structure_factor_coef Fsqd
_refine_ls_matrix_type           full
_refine_ls_weighting_scheme      calc
_refine_ls_weighting_details     
'calc w=1/[\s^2^(Fo^2^)+(0.1427P)^2^+0.0000P] where P=(Fo^2^+2Fc^2^)/3'
_atom_sites_solution_primary     direct
_atom_sites_solution_secondary   difmap
_atom_sites_solution_hydrogens   geom
_refine_ls_hydrogen_treatment    mixed
_refine_ls_extinction_method     none
_refine_ls_extinction_coef       ?
_refine_ls_abs_structure_details 'Flack H D (1983), Acta Cryst. A39, 876-881'
_refine_ls_abs_structure_Flack   -0.02(8)
_refine_ls_number_reflns         2992
_refine_ls_number_parameters     223
_refine_ls_number_restraints     242
_refine_ls_R_factor_all          0.1307
_refine_ls_R_factor_gt           0.0851
_refine_ls_wR_factor_ref         0.2469
_refine_ls_wR_factor_gt          0.2255
_refine_ls_goodness_of_fit_ref   1.093
_refine_ls_restrained_S_all      1.493
_refine_ls_shift/su_max          0.000
_refine_ls_shift/su_mean         0.000

loop_
_atom_site_label
_atom_site_type_symbol
_atom_site_fract_x
_atom_site_fract_y
_atom_site_fract_z
_atom_site_U_iso_or_equiv
_atom_site_adp_type
_atom_site_occupancy
_atom_site_symmetry_multiplicity
_atom_site_calc_flag
_atom_site_refinement_flags
_atom_site_disorder_assembly
_atom_site_disorder_group
N2 N 0.5014(14) 0.2390(3) 0.1246(2) 0.046(3) Uani 1 1 d G . .
C6 C 0.4928(8) 0.2101(3) 0.0550(2) 0.042(2) Uani 1 1 d GU . .
C7 C 0.4916(14) 0.1153(3) 0.0390(3) 0.044(3) Uani 1 1 d GU . .
H7 H 0.4859 0.0959 -0.0076 0.053 Uiso 1 1 calc R . .
C8 C 0.4990(15) 0.0494(3) 0.0926(3) 0.048(3) Uani 1 1 d GU . .
H8 H 0.4982 -0.0140 0.0819 0.057 Uiso 1 1 calc R . .
C9 C 0.5076(14) 0.0784(4) 0.1622(3) 0.046(3) Uani 1 1 d GU . .
H9 H 0.5126 0.0343 0.1980 0.056 Uiso 1 1 calc R . .
C10 C 0.5088(17) 0.1732(4) 0.1782(2) 0.048(3) Uani 1 1 d GU . .
H10 H 0.5146 0.1925 0.2248 0.057 Uiso 1 1 calc R . .
N1 N 0.4887(12) 0.3628(3) 0.0400(3) 0.042(3) Uani 1 1 d GD . .
C1 C 0.4857(14) 0.4438(3) -0.0077(3) 0.048(3) Uani 1 1 d GDU . .
H1 H 0.4990 0.5033 0.0114 0.058 Uiso 1 1 calc R . .
C2 C 0.4662(12) 0.4361(4) -0.0726(3) 0.044(3) Uani 1 1 d GDU . .
H2 H 0.4291 0.4872 -0.0998 0.053 Uiso 1 1 calc R . .
C3 C 0.5007(15) 0.3500(4) -0.1031(2) 0.046(3) Uani 1 1 d GDU . .
H3 H 0.5359 0.3460 -0.1503 0.056 Uiso 1 1 calc R . .
C4 C 0.4820(14) 0.2672(4) -0.0617(2) 0.043(3) Uani 1 1 d GDU . .
H4 H 0.4643 0.2076 -0.0802 0.051 Uiso 1 1 calc R . .
C5 C 0.4936(7) 0.2869(3) 0.0091(2) 0.039(2) Uani 1 1 d GDU . .
Cu1 Cu 0.5034(3) 0.37430(11) 0.14329(8) 0.0360(6) Uani 1 1 d . . .
O1 O 0.1856(15) 0.3607(6) 0.1889(5) 0.036(3) Uani 1 1 d . . .
H1A H 0.1122 0.3055 0.1919 0.043 Uiso 1 1 calc R . .
O2 O 0.4062(18) 0.5048(7) 0.1478(6) 0.048(3) Uani 1 1 d . . .
C11 C 0.118(3) 0.4509(11) 0.2120(9) 0.036(3) Uani 1 1 d U . .
H11 H 0.1475 0.4552 0.2623 0.043 Uiso 1 1 calc R . .
C12 C 0.245(2) 0.5263(11) 0.1750(8) 0.035(3) Uani 1 1 d U . .
O3 O 0.1793(18) 0.6094(7) 0.1781(6) 0.052(3) Uani 1 1 d . . .
C13 C -0.106(3) 0.4608(12) 0.2038(8) 0.037(3) Uani 1 1 d U . .
H13 H -0.1410 0.5268 0.2103 0.044 Uiso 1 1 calc R . .
C14 C -0.225(3) 0.4025(11) 0.2585(8) 0.034(3) Uani 1 1 d U . .
O4 O -0.1507(18) 0.3971(9) 0.3174(5) 0.055(3) Uani 1 1 d . . .
O5 O -0.1783(16) 0.4323(6) 0.1389(5) 0.043(3) Uani 1 1 d D . .
O6 O -0.3849(19) 0.3657(7) 0.2403(5) 0.046(3) Uani 1 1 d . . .
O10W O 0.481(2) 0.7453(6) 0.1396(5) 0.057(3) Uani 1 1 d D . .
O7W O 0.6781(13) 0.8284(9) 0.0240(4) 0.070(4) Uani 1 1 d D . .
O8W O 0.8455(19) 0.7225(5) 0.2168(4) 0.069(4) Uani 1 1 d D . .
O9W O 0.9164(18) 0.3356(7) 0.4521(5) 0.059(4) Uani 1 1 d D . .
O11W O 0.8386(13) 0.5929(5) 0.0535(4) 0.073(4) Uani 1 1 d D . .
H6W H 1.0160 0.3174 0.4286 0.110 Uiso 1 1 d RD . .
H5W H 0.8851 0.3837 0.4249 0.110 Uiso 1 1 d RD . .
H7W H 0.4816 0.7075 0.1722 0.110 Uiso 1 1 d RD . .
H3W H 0.9066 0.7572 0.2461 0.110 Uiso 1 1 d RD . .
H4W H 0.8103 0.7639 0.1871 0.110 Uiso 1 1 d RD . .
H8W H 0.5353 0.7927 0.1600 0.110 Uiso 1 1 d RD . .
H9W H 0.9665 0.5987 0.0541 0.110 Uiso 1 1 d RD . .
H10W H 0.8211 0.5975 0.0094 0.110 Uiso 1 1 d RD . .
H1W H 0.7386 0.8076 -0.0122 0.110 Uiso 1 1 d RD . .
H2W H 0.7600 0.8404 0.0570 0.110 Uiso 1 1 d RD . .
H5A H -0.1507 0.4751 0.1127 0.110 Uiso 1 1 d RD . .

loop_
_atom_site_aniso_label
_atom_site_aniso_U_11
_atom_site_aniso_U_22
_atom_site_aniso_U_33
_atom_site_aniso_U_23
_atom_site_aniso_U_13
_atom_site_aniso_U_12
N2 0.051(8) 0.040(6) 0.046(7) 0.004(5) 0.024(10) -0.002(10)
C6 0.039(5) 0.041(5) 0.044(5) -0.006(4) 0.007(6) -0.002(6)
C7 0.044(6) 0.041(5) 0.048(5) -0.004(4) 0.010(6) 0.004(6)
C8 0.048(6) 0.041(5) 0.055(5) -0.002(5) 0.007(7) -0.001(7)
C9 0.049(6) 0.042(6) 0.048(6) 0.004(5) 0.008(7) 0.005(7)
C10 0.051(6) 0.044(5) 0.048(5) -0.004(5) 0.010(6) 0.005(7)
N1 0.045(8) 0.043(7) 0.039(6) -0.012(5) -0.006(8) -0.005(11)
C1 0.046(6) 0.051(5) 0.047(5) -0.004(5) -0.009(6) -0.003(6)
C2 0.033(7) 0.057(6) 0.042(6) 0.001(5) -0.005(6) 0.001(6)
C3 0.039(6) 0.058(6) 0.042(5) -0.006(5) 0.006(6) -0.004(7)
C4 0.041(6) 0.049(5) 0.038(5) -0.005(5) -0.001(6) 0.004(6)
C5 0.036(5) 0.043(5) 0.038(4) -0.006(4) 0.003(6) 0.001(6)
Cu1 0.0350(10) 0.0364(9) 0.0365(9) 0.0007(8) -0.0001(12) 0.0014(14)
O1 0.032(6) 0.025(6) 0.050(6) -0.005(5) -0.005(5) 0.006(5)
O2 0.052(7) 0.039(6) 0.053(7) 0.004(6) 0.013(6) 0.005(5)
C11 0.037(7) 0.037(6) 0.032(6) -0.008(6) -0.003(6) -0.003(6)
C12 0.033(8) 0.037(7) 0.035(7) -0.001(6) 0.001(6) 0.002(7)
O3 0.055(8) 0.035(7) 0.067(8) -0.001(6) 0.001(6) -0.002(6)
C13 0.039(7) 0.033(6) 0.038(6) -0.008(6) -0.005(6) -0.003(6)
C14 0.028(8) 0.035(7) 0.038(7) -0.001(6) 0.000(6) -0.005(6)
O4 0.047(8) 0.086(10) 0.034(7) 0.001(6) -0.003(5) 0.005(7)
O5 0.050(7) 0.051(7) 0.029(6) -0.006(5) -0.005(5) 0.003(5)
O6 0.056(8) 0.043(7) 0.040(6) -0.002(5) -0.001(5) -0.016(6)
O10W 0.067(8) 0.049(6) 0.055(7) -0.004(5) 0.002(9) -0.007(8)
O7W 0.082(11) 0.069(9) 0.059(8) -0.011(7) -0.006(8) 0.016(8)
O8W 0.072(11) 0.071(9) 0.063(9) -0.019(7) 0.001(7) -0.011(8)
O9W 0.080(10) 0.059(7) 0.038(7) 0.003(6) 0.000(6) 0.001(7)
O11W 0.073(10) 0.082(10) 0.065(9) 0.020(8) -0.012(7) -0.013(8)

_geom_special_details            
;
All esds (except the esd in the dihedral angle between two l.s. planes)
are estimated using the full covariance matrix. The cell esds are taken
into account individually in the estimation of esds in distances, angles
and torsion angles; correlations between esds in cell parameters are only
used when they are defined by crystal symmetry. An approximate (isotropic)
treatment of cell esds is used for estimating esds involving l.s. planes.
;

loop_
_geom_bond_atom_site_label_1
_geom_bond_atom_site_label_2
_geom_bond_distance
_geom_bond_site_symmetry_2
_geom_bond_publ_flag
N2 C6 1.3900 . ?
N2 C10 1.3900 . ?
N2 Cu1 1.968(5) . ?
C6 C7 1.3900 . ?
C6 C5 1.4043 . ?
C7 C8 1.3900 . ?
C7 H7 0.9300 . ?
C8 C9 1.3900 . ?
C8 H8 0.9300 . ?
C9 C10 1.3900 . ?
C9 H9 0.9300 . ?
C10 H10 0.9300 . ?
N1 C5 1.2342 . ?
N1 C1 1.4722 . ?
N1 Cu1 1.978(5) . ?
C1 C2 1.2479 . ?
C1 H1 0.9300 . ?
C2 C3 1.3811 . ?
C2 H2 0.9300 . ?
C3 C4 1.4277 . ?
C3 H3 0.9300 . ?
C4 C5 1.3808 . ?
C4 H4 0.9300 . ?
Cu1 O2 1.978(11) . ?
Cu1 O6 1.996(10) 1_655 ?
Cu1 O5 2.276(10) 1_655 ?
Cu1 O1 2.295(10) . ?
O1 C11 1.436(18) . ?
O1 H1A 0.9300 . ?
O2 C12 1.230(18) . ?
C11 C13 1.51(2) . ?
C11 C12 1.54(2) . ?
C11 H11 0.9800 . ?
C12 O3 1.268(18) . ?
C13 O5 1.388(18) . ?
C13 C14 1.55(2) . ?
C13 H13 0.9800 . ?
C14 O4 1.229(18) . ?
C14 O6 1.238(19) . ?
O5 Cu1 2.276(10) 1_455 ?
O5 H5A 0.8109 . ?
O6 Cu1 1.996(10) 1_455 ?
O10W H7W 0.8235 . ?
O10W H8W 0.8609 . ?
O7W H1W 0.8511 . ?
O7W H2W 0.8505 . ?
O8W H3W 0.8503 . ?
O8W H4W 0.8507 . ?
O9W H6W 0.8404 . ?
O9W H5W 0.8865 . ?
O11W H9W 0.8551 . ?
O11W H10W 0.8512 . ?

loop_
_geom_angle_atom_site_label_1
_geom_angle_atom_site_label_2
_geom_angle_atom_site_label_3
_geom_angle
_geom_angle_site_symmetry_1
_geom_angle_site_symmetry_3
_geom_angle_publ_flag
C6 N2 C10 120.0 . . ?
C6 N2 Cu1 117.74(16) . . ?
C10 N2 Cu1 122.26(16) . . ?
C7 C6 N2 120.0 . . ?
C7 C6 C5 128.8 . . ?
N2 C6 C5 111.2 . . ?
C6 C7 C8 120.0 . . ?
C6 C7 H7 120.0 . . ?
C8 C7 H7 120.0 . . ?
C9 C8 C7 120.0 . . ?
C9 C8 H8 120.0 . . ?
C7 C8 H8 120.0 . . ?
C8 C9 C10 120.0 . . ?
C8 C9 H9 120.0 . . ?
C10 C9 H9 120.0 . . ?
C9 C10 N2 120.0 . . ?
C9 C10 H10 120.0 . . ?
N2 C10 H10 120.0 . . ?
C5 N1 C1 113.5 . . ?
C5 N1 Cu1 123.09(16) . . ?
C1 N1 Cu1 123.23(16) . . ?
C2 C1 N1 122.8 . . ?
C2 C1 H1 118.6 . . ?
N1 C1 H1 118.6 . . ?
C1 C2 C3 118.6 . . ?
C1 C2 H2 120.7 . . ?
C3 C2 H2 120.7 . . ?
C2 C3 C4 119.5 . . ?
C2 C3 H3 120.2 . . ?
C4 C3 H3 120.2 . . ?
C5 C4 C3 111.4 . . ?
C5 C4 H4 124.3 . . ?
C3 C4 H4 124.3 . . ?
N1 C5 C4 130.0 . . ?
N1 C5 C6 113.0 . . ?
C4 C5 C6 116.7 . . ?
N2 Cu1 N1 74.79(15) . . ?
N2 Cu1 O2 159.1(4) . . ?
N1 Cu1 O2 96.1(4) . . ?
N2 Cu1 O6 96.3(3) . 1_655 ?
N1 Cu1 O6 159.2(4) . 1_655 ?
O2 Cu1 O6 98.0(5) . 1_655 ?
N2 Cu1 O5 111.0(4) . 1_655 ?
N1 Cu1 O5 92.3(3) . 1_655 ?
O2 Cu1 O5 87.8(4) . 1_655 ?
O6 Cu1 O5 73.1(4) 1_655 1_655 ?
N2 Cu1 O1 88.8(3) . . ?
N1 Cu1 O1 108.9(3) . . ?
O2 Cu1 O1 76.2(4) . . ?
O6 Cu1 O1 89.3(4) 1_655 . ?
O5 Cu1 O1 154.5(4) 1_655 . ?
C11 O1 Cu1 109.2(9) . . ?
C11 O1 H1A 125.4 . . ?
Cu1 O1 H1A 125.4 . . ?
C12 O2 Cu1 122.6(11) . . ?
O1 C11 C13 111.3(15) . . ?
O1 C11 C12 108.5(13) . . ?
C13 C11 C12 115.5(15) . . ?
O1 C11 H11 107.0 . . ?
C13 C11 H11 107.0 . . ?
C12 C11 H11 107.0 . . ?
O2 C12 O3 123.6(15) . . ?
O2 C12 C11 119.8(14) . . ?
O3 C12 C11 116.5(14) . . ?
O5 C13 C11 114.0(16) . . ?
O5 C13 C14 105.3(12) . . ?
C11 C13 C14 112.6(15) . . ?
O5 C13 H13 108.2 . . ?
C11 C13 H13 108.2 . . ?
C14 C13 H13 108.2 . . ?
O4 C14 O6 125.1(15) . . ?
O4 C14 C13 116.3(15) . . ?
O6 C14 C13 118.7(13) . . ?
C13 O5 Cu1 113.4(9) . 1_455 ?
C13 O5 H5A 104.4 . . ?
Cu1 O5 H5A 120.5 1_455 . ?
C14 O6 Cu1 123.6(10) . 1_455 ?
H7W O10W H8W 100.0 . . ?
H1W O7W H2W 111.5 . . ?
H3W O8W H4W 99.2 . . ?
H6W O9W H5W 96.6 . . ?
H9W O11W H10W 98.2 . . ?

loop_
_geom_hbond_atom_site_label_D
_geom_hbond_atom_site_label_H
_geom_hbond_atom_site_label_A
_geom_hbond_distance_DH
_geom_hbond_distance_HA
_geom_hbond_distance_DA
_geom_hbond_angle_DHA
_geom_hbond_site_symmetry_A
O8W H3W O4 0.85 2.85 3.285(15) 113.9 3_655
O8W H3W O1 0.85 2.03 2.680(13) 133.1 3_655
O10W H8W O8W 0.86 2.54 2.854(15) 102.8 .
O9W H5W O4 0.89 2.07 2.748(14) 132.6 1_655

_diffrn_measured_fraction_theta_max 0.994
_diffrn_reflns_theta_full        24.50
_diffrn_measured_fraction_theta_full 0.994
_refine_diff_density_max         1.075
_refine_diff_density_min         -1.209
_refine_diff_density_rms         0.142
