####################################################################### 
# 
# This file contains crystal structure data downloaded from the 
# Cambridge Structural Database (CSD) hosted by the Cambridge 
# Crystallographic Data Centre (CCDC).
# 
# Full information about CCDC data access policies and citation 
# guidelines are available at http://www.ccdc.cam.ac.uk/access/V1 
# 
# Audit and citation data items may have been added by the CCDC. 
# Please retain this information to preserve the provenance of 
# this file and to allow appropriate attribution of the data. 
# 
#######################################################################

data_dd
_audit_block_doi                 10.5517/cc105dg1
_database_code_depnum_ccdc_archive 'CCDC 928712'
loop_
_citation_id
_citation_doi
_citation_year
1 10.1039/C3CC45587D 2013
_audit_update_record             
;
2013-03-11 deposited with the CCDC.	2024-07-11 downloaded from the CCDC.
;
#TrackingRef '02-2CH3CN.cif'


_audit_creation_method           SHELXL-97
_chemical_name_systematic        
;
?
;
_chemical_name_common            ?
_chemical_melting_point          ?
_chemical_formula_moiety         ?
_chemical_formula_sum            'C152 H138 Cl22 Cu3 N18 O58'
_chemical_formula_weight         4115.32

loop_
_atom_type_symbol
_atom_type_description
_atom_type_scat_dispersion_real
_atom_type_scat_dispersion_imag
_atom_type_scat_source
C C 0.0033 0.0016 'International Tables Vol C Tables 4.2.6.8 and 6.1.1.4'
H H 0.0000 0.0000 'International Tables Vol C Tables 4.2.6.8 and 6.1.1.4'
N N 0.0061 0.0033 'International Tables Vol C Tables 4.2.6.8 and 6.1.1.4'
O O 0.0106 0.0060 'International Tables Vol C Tables 4.2.6.8 and 6.1.1.4'
Cl Cl 0.1484 0.1585 'International Tables Vol C Tables 4.2.6.8 and 6.1.1.4'
Cu Cu 0.3201 1.2651 'International Tables Vol C Tables 4.2.6.8 and 6.1.1.4'

_symmetry_cell_setting           Monoclinic
_symmetry_space_group_name_H-M   C2/c

loop_
_symmetry_equiv_pos_as_xyz
'x, y, z'
'-x, y, -z+1/2'
'x+1/2, y+1/2, z'
'-x+1/2, y+1/2, -z+1/2'
'-x, -y, -z'
'x, -y, z-1/2'
'-x+1/2, -y+1/2, -z'
'x+1/2, -y+1/2, z-1/2'

_cell_length_a                   38.9150(7)
_cell_length_b                   22.2085(3)
_cell_length_c                   21.7493(3)
_cell_angle_alpha                90.00
_cell_angle_beta                 98.683(2)
_cell_angle_gamma                90.00
_cell_volume                     18581.3(5)
_cell_formula_units_Z            4
_cell_measurement_temperature    173(2)
_cell_measurement_reflns_used    8197
_cell_measurement_theta_min      2.24
_cell_measurement_theta_max      20.32

_exptl_crystal_description       block
_exptl_crystal_colour            blue
_exptl_crystal_size_max          0.35
_exptl_crystal_size_mid          0.26
_exptl_crystal_size_min          0.23
_exptl_crystal_density_meas      ?
_exptl_crystal_density_diffrn    1.471
_exptl_crystal_density_method    'not measured'
_exptl_crystal_F_000             8404
_exptl_absorpt_coefficient_mu    0.743
_exptl_absorpt_correction_type   multi-scan
_exptl_absorpt_correction_T_min  0.7809
_exptl_absorpt_correction_T_max  0.8476
_exptl_absorpt_process_details   sadabs

_exptl_special_details           
;
?
;

_diffrn_ambient_temperature      173(2)
_diffrn_radiation_wavelength     0.71073
_diffrn_radiation_type           MoK\a
_diffrn_radiation_source         'fine-focus sealed tube'
_diffrn_radiation_monochromator  graphite
_diffrn_measurement_device_type  'Bruker Breeze CCD'
_diffrn_measurement_method       '\f and \w scans'
_diffrn_detector_area_resol_mean ?
_diffrn_standards_number         0
_diffrn_standards_interval_count ?
_diffrn_standards_interval_time  ?
_diffrn_standards_decay_%        ?
_diffrn_reflns_number            146146
_diffrn_reflns_av_R_equivalents  0.0892
_diffrn_reflns_av_sigmaI/netI    0.0727
_diffrn_reflns_limit_h_min       -48
_diffrn_reflns_limit_h_max       48
_diffrn_reflns_limit_k_min       -27
_diffrn_reflns_limit_k_max       27
_diffrn_reflns_limit_l_min       -26
_diffrn_reflns_limit_l_max       26
_diffrn_reflns_theta_min         1.06
_diffrn_reflns_theta_max         26.00
_reflns_number_total             18265
_reflns_number_gt                9794
_reflns_threshold_expression     >2sigma(I)

_computing_data_collection       'Bruker APEX2'
_computing_cell_refinement       'Bruker APEX2'
_computing_data_reduction        'Bruker APEX2'
_computing_structure_solution    'SHELXS-97 (Sheldrick, 1990)'
_computing_structure_refinement  'SHELXL-97 (Sheldrick, 1997)'
_computing_molecular_graphics    'Bruker SHELXTL'
_computing_publication_material  'Bruker SHELXTL'

_refine_special_details          
;
Refinement of F^2^ against ALL reflections. The weighted R-factor wR and
goodness of fit S are based on F^2^, conventional R-factors R are based
on F, with F set to zero for negative F^2^. The threshold expression of
F^2^ > 2sigma(F^2^) is used only for calculating R-factors(gt) etc. and is
not relevant to the choice of reflections for refinement. R-factors based
on F^2^ are statistically about twice as large as those based on F, and R-
factors based on ALL data will be even larger.
;

_refine_ls_structure_factor_coef Fsqd
_refine_ls_matrix_type           full
_refine_ls_weighting_scheme      calc
_refine_ls_weighting_details     
'calc w=1/[\s^2^(Fo^2^)+(0.1886P)^2^+143.1234P] where P=(Fo^2^+2Fc^2^)/3'
_atom_sites_solution_primary     direct
_atom_sites_solution_secondary   difmap
_atom_sites_solution_hydrogens   geom
_refine_ls_hydrogen_treatment    constr
_refine_ls_extinction_method     none
_refine_ls_extinction_coef       ?
_refine_ls_number_reflns         18265
_refine_ls_number_parameters     1143
_refine_ls_number_restraints     23
_refine_ls_R_factor_all          0.1889
_refine_ls_R_factor_gt           0.1148
_refine_ls_wR_factor_ref         0.3728
_refine_ls_wR_factor_gt          0.3114
_refine_ls_goodness_of_fit_ref   1.035
_refine_ls_restrained_S_all      1.040
_refine_ls_shift/su_max          0.001
_refine_ls_shift/su_mean         0.000

loop_
_atom_site_label
_atom_site_type_symbol
_atom_site_fract_x
_atom_site_fract_y
_atom_site_fract_z
_atom_site_U_iso_or_equiv
_atom_site_adp_type
_atom_site_occupancy
_atom_site_symmetry_multiplicity
_atom_site_calc_flag
_atom_site_refinement_flags
_atom_site_disorder_assembly
_atom_site_disorder_group
Cu1 Cu 0.24820(3) 0.28717(4) 0.74918(4) 0.0467(3) Uani 1 1 d . . .
Cu2 Cu 0.0000 0.48034(6) 0.2500 0.0465(4) Uani 1 2 d S . .
Cl1 Cl 0.09392(9) 0.3246(2) 0.72273(15) 0.1071(12) Uani 1 1 d . . .
Cl2 Cl 0.21087(8) 0.02834(10) 0.72879(11) 0.0723(7) Uani 1 1 d . . .
Cl3 Cl 0.10384(14) 0.7162(3) 0.72713(17) 0.160(2) Uani 1 1 d D . .
Cl4 Cl 0.31738(16) 0.3030(2) -0.0412(2) 0.1588(19) Uani 1 1 d . . .
Cl5 Cl 0.29183(14) 0.2146(2) 0.0378(2) 0.1517(18) Uani 1 1 d . . .
Cl6 Cl 0.3087(4) 0.3277(6) 0.4392(7) 0.376(9) Uani 1 1 d . . .
Cl7 Cl 0.2635(5) 0.3076(15) 0.5040(16) 0.93(4) Uani 1 1 d . . .
Cl8 Cl 0.05431(13) 0.4128(3) 0.4826(2) 0.1535(17) Uani 1 1 d . . .
Cl9 Cl -0.00152(10) 0.4311(3) 0.5506(2) 0.162(2) Uani 1 1 d . . .
Cl10 Cl 0.1673(2) 0.5120(5) 0.6499(8) 0.372(9) Uani 1 1 d . . .
Cl11 Cl 0.1515(4) 0.5591(15) 0.7486(9) 0.64(3) Uani 1 1 d . . .
O1 O 0.18363(19) 0.1385(3) 0.8924(3) 0.0715(18) Uani 1 1 d . . .
O2 O 0.22202(15) 0.0675(2) 0.9344(2) 0.0517(13) Uani 1 1 d . . .
O3 O 0.26153(16) 0.0013(3) 1.0455(3) 0.0625(16) Uani 1 1 d . . .
O4 O 0.21800(15) 0.0637(2) 1.0588(2) 0.0499(13) Uani 1 1 d . . .
O5 O 0.34582(17) 0.2961(3) 0.5949(3) 0.0664(17) Uani 1 1 d . . .
O6 O 0.36039(15) 0.2009(2) 0.5746(3) 0.0542(14) Uani 1 1 d . . .
O7 O 0.3548(2) 0.1044(3) 0.4890(3) 0.083(2) Uani 1 1 d . . .
O8 O 0.35044(16) 0.1968(3) 0.4469(3) 0.0618(15) Uani 1 1 d . . .
O9 O 0.02915(17) 0.3300(3) 0.0680(3) 0.0697(17) Uani 1 1 d . . .
O10 O 0.07996(16) 0.3592(3) 0.0389(3) 0.0638(16) Uani 1 1 d . . .
O11 O 0.12555(15) 0.4076(3) -0.0471(3) 0.0692(17) Uani 1 1 d . . .
O12 O 0.07273(15) 0.3727(3) -0.0870(3) 0.0547(14) Uani 1 1 d . . .
O13 O 0.0883(2) 0.3631(4) 0.7711(3) 0.108(3) Uani 1 1 d . . .
O14 O 0.1004(5) 0.2711(6) 0.7466(7) 0.221(9) Uani 1 1 d . . .
O15 O 0.1211(2) 0.3422(6) 0.6920(4) 0.134(4) Uani 1 1 d . . .
O16 O 0.0630(2) 0.3315(5) 0.6753(4) 0.123(3) Uani 1 1 d . . .
O17 O 0.1983(4) 0.0683(5) 0.6796(5) 0.153(4) Uani 1 1 d . . .
O18 O 0.2346(4) -0.0069(5) 0.7051(5) 0.153(5) Uani 1 1 d . . .
O19 O 0.1875(3) -0.0068(5) 0.7546(8) 0.168(6) Uani 1 1 d . . .
O20 O 0.2265(4) 0.0669(5) 0.7753(5) 0.149(4) Uani 1 1 d . . .
O21 O 0.0904(5) 0.6675(6) 0.7002(8) 0.327(16) Uani 1 1 d D . .
O22 O 0.1001(6) 0.7619(6) 0.6874(7) 0.52(3) Uani 1 1 d D . .
O23 O 0.1373(2) 0.7087(11) 0.7486(11) 0.60(5) Uani 1 1 d D . .
O24 O 0.0874(5) 0.7302(11) 0.7752(7) 0.54(3) Uani 1 1 d D . .
O25 O -0.0230(5) 0.8606(7) 0.2891(8) 0.233(8) Uani 1 1 d . . .
H25B H -0.0034 0.8730 0.2832 0.280 Uiso 1 1 d R . .
H25C H -0.0377 0.8884 0.2812 0.280 Uiso 1 1 d R . .
O26 O 0.0898(9) 0.0281(18) 0.7370(18) 0.51(3) Uani 1 1 d . . .
H26A H 0.0744 0.0495 0.7495 0.614 Uiso 1 1 d R . .
H26B H 0.0819 0.0133 0.7022 0.614 Uiso 1 1 d R . .
O27 O 0.0053(13) 0.000(3) 0.557(3) 0.65(6) Uani 1 1 d . . .
H27B H 0.0045 -0.0296 0.5802 0.782 Uiso 1 1 d R . .
H27C H -0.0146 0.0160 0.5491 0.782 Uiso 1 1 d R . .
O28 O 0.0488(10) 0.044(3) 0.133(3) 0.79(7) Uani 1 1 d . . .
H28A H 0.0480 0.0326 0.0959 0.954 Uiso 1 1 d R . .
H28B H 0.0365 0.0204 0.1512 0.954 Uiso 1 1 d R . .
O29 O -0.0253(11) 0.086(2) 0.227(2) 0.57(3) Uani 1 1 d U . .
H29A H -0.0432 0.0647 0.2220 0.690 Uiso 1 1 d R . .
H29B H -0.0127 0.0765 0.2002 0.690 Uiso 1 1 d R . .
N1 N 0.26233(19) 0.2264(3) 0.8185(3) 0.0478(16) Uani 1 1 d . . .
N2 N 0.27603(18) 0.1587(3) 1.1945(3) 0.0483(16) Uani 1 1 d . . .
N3 N 0.26939(16) 0.2313(3) 0.6908(3) 0.0409(14) Uani 1 1 d . . .
N4 N 0.26687(17) 0.1550(3) 0.3227(3) 0.0456(15) Uani 1 1 d . . .
N5 N 0.3034(2) 0.3363(3) 0.7777(3) 0.0537(17) Uani 1 1 d . . .
N6 N 0.1894(2) 0.2253(3) 0.7202(3) 0.0571(19) Uani 1 1 d . . .
N7 N 0.03062(17) 0.4782(3) 0.1832(3) 0.0476(15) Uani 1 1 d . . .
N8 N 0.04463(17) 0.5223(3) -0.1858(3) 0.0465(15) Uani 1 1 d . . .
N9 N 0.0000 0.5896(5) 0.2500 0.054(2) Uani 1 2 d S . .
N10 N 0.0000 0.3646(5) 0.2500 0.071(3) Uani 1 2 d SD . .
C1 C 0.2373(2) 0.1988(3) 0.8442(3) 0.0485(19) Uani 1 1 d . . .
H1A H 0.2141 0.2136 0.8352 0.058 Uiso 1 1 calc R . .
C2 C 0.2440(2) 0.1493(3) 0.8836(3) 0.0487(19) Uani 1 1 d . . .
C3 C 0.2773(2) 0.1299(4) 0.8991(4) 0.054(2) Uani 1 1 d . . .
H3A H 0.2826 0.0968 0.9267 0.065 Uiso 1 1 calc R . .
C4 C 0.3033(3) 0.1591(4) 0.8738(4) 0.062(2) Uani 1 1 d . . .
H4A H 0.3268 0.1466 0.8840 0.074 Uiso 1 1 calc R . .
C5 C 0.2947(2) 0.2065(4) 0.8339(4) 0.057(2) Uani 1 1 d . . .
H5A H 0.3128 0.2259 0.8164 0.069 Uiso 1 1 calc R . .
C6 C 0.2131(3) 0.1198(4) 0.9032(4) 0.052(2) Uani 1 1 d . . .
C7 C 0.1951(2) 0.0347(3) 0.9539(4) 0.054(2) Uani 1 1 d . . .
C8 C 0.1719(3) 0.0043(4) 0.9125(5) 0.073(3) Uani 1 1 d . . .
H8A H 0.1736 0.0045 0.8693 0.088 Uiso 1 1 calc R . .
C9 C 0.1443(3) -0.0288(4) 0.9361(6) 0.077(3) Uani 1 1 d . . .
C10 C 0.1175(3) -0.0588(5) 0.8953(8) 0.108(5) Uani 1 1 d . . .
H10A H 0.1168 -0.0568 0.8515 0.129 Uiso 1 1 calc R . .
C11 C 0.0931(4) -0.0898(6) 0.9197(11) 0.124(6) Uani 1 1 d . . .
H11A H 0.0760 -0.1112 0.8924 0.148 Uiso 1 1 calc R . .
C12 C 0.0919(5) -0.0918(7) 0.9801(12) 0.136(7) Uani 1 1 d . . .
H12A H 0.0735 -0.1127 0.9950 0.163 Uiso 1 1 calc R . .
C13 C 0.1166(3) -0.0645(6) 1.0209(9) 0.113(5) Uani 1 1 d . . .
H13A H 0.1157 -0.0676 1.0642 0.135 Uiso 1 1 calc R . .
C14 C 0.1438(3) -0.0315(4) 1.0005(6) 0.079(3) Uani 1 1 d . . .
C15 C 0.1693(2) -0.0020(4) 1.0399(5) 0.065(2) Uani 1 1 d . . .
H15A H 0.1696 -0.0046 1.0835 0.078 Uiso 1 1 calc R . .
C16 C 0.1939(2) 0.0305(3) 1.0178(4) 0.054(2) Uani 1 1 d . . .
C17 C 0.2508(2) 0.0444(3) 1.0695(4) 0.0479(19) Uani 1 1 d . . .
C18 C 0.2574(2) 0.1258(3) 1.1500(4) 0.0449(18) Uani 1 1 d . . .
H18A H 0.2330 0.1312 1.1420 0.054 Uiso 1 1 calc R . .
C19 C 0.2725(2) 0.0845(3) 1.1157(4) 0.0477(19) Uani 1 1 d . . .
C20 C 0.3081(3) 0.0780(5) 1.1264(5) 0.082(3) Uani 1 1 d . . .
H20A H 0.3192 0.0496 1.1033 0.099 Uiso 1 1 calc R . .
C21 C 0.3271(3) 0.1130(6) 1.1706(6) 0.095(4) Uani 1 1 d . . .
H21A H 0.3518 0.1102 1.1779 0.115 Uiso 1 1 calc R . .
C22 C 0.3102(2) 0.1521(5) 1.2042(5) 0.072(3) Uani 1 1 d . . .
H22A H 0.3235 0.1755 1.2358 0.087 Uiso 1 1 calc R . .
C23 C 0.2605(2) 0.1730(3) 0.6844(4) 0.0508(19) Uani 1 1 d . . .
H23A H 0.2425 0.1579 0.7052 0.061 Uiso 1 1 calc R . .
C24 C 0.2768(2) 0.1341(4) 0.6483(4) 0.053(2) Uani 1 1 d . . .
H24A H 0.2697 0.0933 0.6437 0.063 Uiso 1 1 calc R . .
C25 C 0.3031(2) 0.1546(4) 0.6194(4) 0.055(2) Uani 1 1 d . . .
H25A H 0.3149 0.1283 0.5953 0.065 Uiso 1 1 calc R . .
C26 C 0.3123(2) 0.2150(3) 0.6260(3) 0.0457(18) Uani 1 1 d . . .
C27 C 0.2946(2) 0.2517(3) 0.6615(3) 0.0483(19) Uani 1 1 d . . .
H27A H 0.3005 0.2932 0.6650 0.058 Uiso 1 1 calc R . .
C28 C 0.3410(2) 0.2434(4) 0.5983(4) 0.0493(19) Uani 1 1 d . . .
C29 C 0.3871(2) 0.2213(4) 0.5434(4) 0.053(2) Uani 1 1 d . . .
C30 C 0.4171(2) 0.2452(4) 0.5752(5) 0.065(2) Uani 1 1 d . . .
H30A H 0.4201 0.2488 0.6192 0.078 Uiso 1 1 calc R . .
C31 C 0.4434(3) 0.2642(4) 0.5422(6) 0.077(3) Uani 1 1 d . . .
C32 C 0.4744(3) 0.2915(6) 0.5700(7) 0.097(4) Uani 1 1 d . . .
H32A H 0.4788 0.2946 0.6141 0.116 Uiso 1 1 calc R . .
C33 C 0.4982(3) 0.3135(7) 0.5370(10) 0.129(6) Uani 1 1 d . . .
H33A H 0.5186 0.3327 0.5575 0.154 Uiso 1 1 calc R . .
C34 C 0.4925(4) 0.3077(8) 0.4721(9) 0.124(5) Uani 1 1 d . . .
H34A H 0.5092 0.3227 0.4484 0.149 Uiso 1 1 calc R . .
C35 C 0.4640(3) 0.2813(6) 0.4440(7) 0.101(4) Uani 1 1 d . . .
H35A H 0.4610 0.2766 0.4001 0.122 Uiso 1 1 calc R . .
C36 C 0.4385(3) 0.2606(5) 0.4757(5) 0.071(3) Uani 1 1 d . . .
C37 C 0.4072(3) 0.2353(5) 0.4461(5) 0.073(3) Uani 1 1 d . . .
H37A H 0.4035 0.2311 0.4021 0.088 Uiso 1 1 calc R . .
C38 C 0.3824(2) 0.2169(4) 0.4787(4) 0.058(2) Uani 1 1 d . . .
C39 C 0.3400(3) 0.1397(4) 0.4550(4) 0.060(2) Uani 1 1 d . . .
C40 C 0.2947(2) 0.1667(3) 0.3644(4) 0.0463(18) Uani 1 1 d . . .
H40A H 0.3071 0.2030 0.3609 0.056 Uiso 1 1 calc R . .
C41 C 0.3061(2) 0.1280(3) 0.4122(4) 0.055(2) Uani 1 1 d . . .
C42 C 0.2882(3) 0.0755(4) 0.4181(5) 0.079(3) Uani 1 1 d . . .
H42A H 0.2958 0.0483 0.4510 0.094 Uiso 1 1 calc R . .
C43 C 0.2593(3) 0.0628(4) 0.3765(6) 0.085(3) Uani 1 1 d . . .
H43A H 0.2463 0.0272 0.3802 0.102 Uiso 1 1 calc R . .
C44 C 0.2494(3) 0.1036(4) 0.3282(5) 0.067(3) Uani 1 1 d . . .
H44A H 0.2297 0.0948 0.2983 0.081 Uiso 1 1 calc R . .
C45 C 0.3289(3) 0.3579(4) 0.7908(5) 0.068(3) Uani 1 1 d . . .
C46 C 0.3625(4) 0.3862(7) 0.8110(12) 0.199(12) Uani 1 1 d . . .
H46A H 0.3613 0.4289 0.7994 0.239 Uiso 1 1 calc R . .
H46B H 0.3803 0.3662 0.7908 0.239 Uiso 1 1 calc R . .
H46C H 0.3685 0.3825 0.8562 0.239 Uiso 1 1 calc R . .
C47 C 0.1680(4) 0.1952(6) 0.7149(7) 0.105(4) Uani 1 1 d . . .
C48 C 0.1368(4) 0.1513(9) 0.7096(19) 0.34(3) Uani 1 1 d . . .
H48A H 0.1450 0.1114 0.7242 0.404 Uiso 1 1 calc R . .
H48B H 0.1258 0.1487 0.6661 0.404 Uiso 1 1 calc R . .
H48C H 0.1199 0.1661 0.7351 0.404 Uiso 1 1 calc R . .
C49 C 0.0550(2) 0.5196(4) 0.1807(4) 0.054(2) Uani 1 1 d . . .
H49A H 0.0556 0.5536 0.2074 0.064 Uiso 1 1 calc R . .
C50 C 0.0793(2) 0.5155(5) 0.1413(4) 0.063(2) Uani 1 1 d . . .
H50A H 0.0959 0.5466 0.1398 0.075 Uiso 1 1 calc R . .
C51 C 0.0792(2) 0.4656(4) 0.1039(4) 0.060(2) Uani 1 1 d . . .
H51A H 0.0961 0.4613 0.0770 0.072 Uiso 1 1 calc R . .
C52 C 0.0545(2) 0.4222(4) 0.1060(4) 0.052(2) Uani 1 1 d . . .
C53 C 0.0305(2) 0.4305(4) 0.1462(4) 0.0509(19) Uani 1 1 d . . .
H53A H 0.0131 0.4007 0.1474 0.061 Uiso 1 1 calc R . .
C54 C 0.0519(2) 0.3659(5) 0.0696(4) 0.057(2) Uani 1 1 d . . .
C55 C 0.0817(2) 0.3085(4) 0.0034(4) 0.062(2) Uani 1 1 d . . .
C56 C 0.0843(3) 0.2513(5) 0.0279(5) 0.069(3) Uani 1 1 d . . .
H56A H 0.0851 0.2453 0.0713 0.083 Uiso 1 1 calc R . .
C57 C 0.0856(3) 0.2017(5) -0.0117(6) 0.082(3) Uani 1 1 d . . .
C58 C 0.0880(3) 0.1403(6) 0.0131(8) 0.106(4) Uani 1 1 d . . .
H58A H 0.0890 0.1325 0.0562 0.127 Uiso 1 1 calc R . .
C59 C 0.0887(4) 0.0941(6) -0.0296(11) 0.131(6) Uani 1 1 d . . .
H59A H 0.0909 0.0540 -0.0145 0.157 Uiso 1 1 calc R . .
C60 C 0.0862(5) 0.1038(7) -0.0938(10) 0.136(6) Uani 1 1 d . . .
H60A H 0.0859 0.0703 -0.1212 0.163 Uiso 1 1 calc R . .
C61 C 0.0845(4) 0.1587(6) -0.1165(8) 0.116(5) Uani 1 1 d . . .
H61A H 0.0831 0.1647 -0.1601 0.139 Uiso 1 1 calc R . .
C62 C 0.0847(3) 0.2098(5) -0.0760(6) 0.077(3) Uani 1 1 d . . .
C63 C 0.0816(3) 0.2686(5) -0.0990(5) 0.070(3) Uani 1 1 d . . .
H63A H 0.0810 0.2751 -0.1423 0.084 Uiso 1 1 calc R . .
C64 C 0.0796(2) 0.3157(4) -0.0619(4) 0.055(2) Uani 1 1 d . . .
C65 C 0.0978(2) 0.4157(4) -0.0778(4) 0.053(2) Uani 1 1 d . . .
C66 C 0.0545(2) 0.4749(4) -0.1513(4) 0.0490(19) Uani 1 1 d . . .
H66A H 0.0393 0.4411 -0.1539 0.059 Uiso 1 1 calc R . .
C67 C 0.0862(2) 0.4713(4) -0.1110(4) 0.0480(19) Uani 1 1 d . . .
C68 C 0.1074(2) 0.5217(4) -0.1050(5) 0.067(3) Uani 1 1 d . . .
H68A H 0.1286 0.5221 -0.0769 0.080 Uiso 1 1 calc R . .
C69 C 0.0967(3) 0.5718(4) -0.1411(5) 0.075(3) Uani 1 1 d . . .
H69A H 0.1109 0.6068 -0.1386 0.090 Uiso 1 1 calc R . .
C70 C 0.0661(2) 0.5707(4) -0.1801(4) 0.061(2) Uani 1 1 d . . .
H70A H 0.0593 0.6054 -0.2045 0.073 Uiso 1 1 calc R . .
C71 C 0.0000 0.6402(6) 0.2500 0.075(4) Uani 1 2 d S . .
C72 C 0.0000 0.7058(7) 0.2500 0.162(13) Uani 1 2 d S . .
H72A H -0.0220 0.7206 0.2271 0.195 Uiso 0.50 1 calc PR . .
H72B H 0.0193 0.7206 0.2300 0.195 Uiso 0.50 1 calc PR . .
H72C H 0.0027 0.7206 0.2929 0.195 Uiso 0.50 1 calc PR . .
C73 C 0.0000 0.3149(5) 0.2500 0.096(5) Uani 1 2 d SD . .
C74 C 0.0000 0.2459(5) 0.2500 0.30(3) Uani 1 2 d SD . .
H74A H -0.0220 0.2312 0.2271 0.364 Uiso 0.50 1 calc PR . .
H74B H 0.0027 0.2312 0.2929 0.364 Uiso 0.50 1 calc PR . .
H74C H 0.0193 0.2312 0.2300 0.364 Uiso 0.50 1 calc PR . .
C75 C 0.3278(3) 0.2486(6) 0.0190(6) 0.099(4) Uani 1 1 d . . .
H75A H 0.3434 0.2177 0.0052 0.119 Uiso 1 1 calc R . .
H75B H 0.3405 0.2685 0.0564 0.119 Uiso 1 1 calc R . .
C76 C 0.287