####################################################################### 
# 
# This file contains crystal structure data downloaded from the 
# Cambridge Structural Database (CSD) hosted by the Cambridge 
# Crystallographic Data Centre (CCDC).
# 
# Full information about CCDC data access policies and citation 
# guidelines are available at http://www.ccdc.cam.ac.uk/access/V1 
# 
# Audit and citation data items may have been added by the CCDC. 
# Please retain this information to preserve the provenance of 
# this file and to allow appropriate attribution of the data. 
# 
#######################################################################

data_p312
_audit_block_doi                 10.5517/ccz97wc
_database_code_depnum_ccdc_archive 'CCDC 902623'
loop_
_citation_id
_citation_doi
_citation_year
1 10.1039/C3CE40568K 2013
_audit_update_record             
;
2012-09-22 deposited with the CCDC.	2024-07-11 downloaded from the CCDC.
;
#TrackingRef 'submit-312.cif'


_audit_creation_method           SHELXL-97
_chemical_name_systematic        
;
?
;
_chemical_name_common            ?
_chemical_melting_point          ?
_chemical_formula_moiety         ?
_chemical_formula_sum            'C36 H92 Cl5 Er N24 O40 Zn'
_chemical_formula_weight         1911.22

loop_
_atom_type_symbol
_atom_type_description
_atom_type_scat_dispersion_real
_atom_type_scat_dispersion_imag
_atom_type_scat_source
C C 0.0033 0.0016 'International Tables Vol C Tables 4.2.6.8 and 6.1.1.4'
H H 0.0000 0.0000 'International Tables Vol C Tables 4.2.6.8 and 6.1.1.4'
N N 0.0061 0.0033 'International Tables Vol C Tables 4.2.6.8 and 6.1.1.4'
O O 0.0106 0.0060 'International Tables Vol C Tables 4.2.6.8 and 6.1.1.4'
Cl Cl 0.1484 0.1585 'International Tables Vol C Tables 4.2.6.8 and 6.1.1.4'
Zn Zn 0.2839 1.4301 'International Tables Vol C Tables 4.2.6.8 and 6.1.1.4'
Er Er -0.2586 4.9576 'International Tables Vol C Tables 4.2.6.8 and 6.1.1.4'

_symmetry_cell_setting           triclinic
_symmetry_space_group_name_H-M   'P -1'
_symmetry_space_group_name_Hall  '-P 1'

loop_
_symmetry_equiv_pos_as_xyz
'x, y, z'
'-x, -y, -z'

_cell_length_a                   15.142(2)
_cell_length_b                   15.540(2)
_cell_length_c                   16.992(2)
_cell_angle_alpha                63.894(5)
_cell_angle_beta                 80.645(5)
_cell_angle_gamma                81.604(5)
_cell_volume                     3530.0(9)
_cell_formula_units_Z            2
_cell_measurement_temperature    223(2)
_cell_measurement_reflns_used    ?
_cell_measurement_theta_min      ?
_cell_measurement_theta_max      ?

_exptl_crystal_description       prism
_exptl_crystal_colour            colorless
_exptl_crystal_size_max          0.26
_exptl_crystal_size_mid          0.23
_exptl_crystal_size_min          0.21
_exptl_crystal_density_meas      ?
_exptl_crystal_density_diffrn    1.798
_exptl_crystal_density_method    'not measured'
_exptl_crystal_F_000             1958
_exptl_absorpt_coefficient_mu    1.824
_exptl_absorpt_correction_type   multi-scan
_exptl_absorpt_correction_T_min  0.6485
_exptl_absorpt_correction_T_max  0.7006
_exptl_absorpt_process_details   'SADABS (Bruker, 2008)'

_exptl_special_details           
;
?
;

_diffrn_ambient_temperature      223(2)
_diffrn_radiation_wavelength     0.71073
_diffrn_radiation_type           MoK\a
_diffrn_radiation_source         'fine-focus sealed tube'
_diffrn_radiation_monochromator  graphite
_diffrn_measurement_device_type  'Bruker CCD Area Detector'
_diffrn_measurement_method       '\f and \w scan'
_diffrn_detector_area_resol_mean ?
_diffrn_standards_number         ?
_diffrn_standards_interval_count ?
_diffrn_standards_interval_time  ?
_diffrn_standards_decay_%        ?
_diffrn_reflns_number            36305
_diffrn_reflns_av_R_equivalents  0.0555
_diffrn_reflns_av_sigmaI/netI    0.0633
_diffrn_reflns_limit_h_min       -18
_diffrn_reflns_limit_h_max       18
_diffrn_reflns_limit_k_min       -17
_diffrn_reflns_limit_k_max       18
_diffrn_reflns_limit_l_min       -20
_diffrn_reflns_limit_l_max       20
_diffrn_reflns_theta_min         1.34
_diffrn_reflns_theta_max         25.00
_reflns_number_total             12259
_reflns_number_gt                10017
_reflns_threshold_expression     >2sigma(I)

_computing_data_collection       ?
_computing_cell_refinement       ?
_computing_data_reduction        ?
_computing_structure_solution    ?
_computing_structure_refinement  'SHELXL-97 (Sheldrick, 1997)'
_computing_molecular_graphics    ?
_computing_publication_material  ?

_refine_special_details          
;
Refinement of F^2^ against ALL reflections. The weighted R-factor wR and
goodness of fit S are based on F^2^, conventional R-factors R are based
on F, with F set to zero for negative F^2^. The threshold expression of
F^2^ > 2sigma(F^2^) is used only for calculating R-factors(gt) etc. and is
not relevant to the choice of reflections for refinement. R-factors based
on F^2^ are statistically about twice as large as those based on F, and R-
factors based on ALL data will be even larger.
;

_refine_ls_structure_factor_coef Fsqd
_refine_ls_matrix_type           full
_refine_ls_weighting_scheme      calc
_refine_ls_weighting_details     
'calc w=1/[\s^2^(Fo^2^)+(0.0953P)^2^+0.0000P] where P=(Fo^2^+2Fc^2^)/3'
_atom_sites_solution_primary     direct
_atom_sites_solution_secondary   difmap
_atom_sites_solution_hydrogens   geom
_refine_ls_hydrogen_treatment    constr
_refine_ls_extinction_method     none
_refine_ls_extinction_coef       ?
_refine_ls_number_reflns         12259
_refine_ls_number_parameters     748
_refine_ls_number_restraints     0
_refine_ls_R_factor_all          0.0624
_refine_ls_R_factor_gt           0.0536
_refine_ls_wR_factor_ref         0.1484
_refine_ls_wR_factor_gt          0.1420
_refine_ls_goodness_of_fit_ref   1.037
_refine_ls_restrained_S_all      1.037
_refine_ls_shift/su_max          0.001
_refine_ls_shift/su_mean         0.000

loop_
_atom_site_label
_atom_site_type_symbol
_atom_site_fract_x
_atom_site_fract_y
_atom_site_fract_z
_atom_site_U_iso_or_equiv
_atom_site_adp_type
_atom_site_occupancy
_atom_site_symmetry_multiplicity
_atom_site_calc_flag
_atom_site_refinement_flags
_atom_site_disorder_assembly
_atom_site_disorder_group
Cl5 Cl -0.01118(13) 0.79640(17) 0.55089(15) 0.0827(6) Uani 1 1 d . . .
O1W O 0.0677(2) 1.1355(3) 0.6400(3) 0.0479(10) Uani 1 1 d . . .
O2W O 0.2606(3) 1.2411(3) 0.6073(3) 0.0500(10) Uani 1 1 d . . .
O3W O 0.1062(3) 0.9856(3) 0.8012(3) 0.0519(10) Uani 1 1 d . . .
O4W O 0.3675(2) 1.0682(3) 0.6622(3) 0.0515(10) Uani 1 1 d . . .
Er1 Er 0.209295(14) 1.088299(18) 0.690808(15) 0.03530(11) Uani 1 1 d . . .
Cl1 Cl 0.48715(12) 0.75705(17) 1.15429(19) 0.0932(7) Uani 1 1 d . . .
Cl2 Cl 0.64017(13) 0.54737(18) 1.1631(2) 0.1195(11) Uani 1 1 d . . .
Cl3 Cl 0.39054(14) 0.53962(16) 1.1911(2) 0.1130(10) Uani 1 1 d . . .
Cl4 Cl 0.5122(4) 0.6823(4) 0.9758(2) 0.227(3) Uani 1 1 d . . .
Zn1 Zn 0.50699(6) 0.62928(6) 1.12063(6) 0.0728(3) Uani 1 1 d . . .
C1 C 0.1289(3) 1.2450(4) 0.7868(3) 0.0378(12) Uani 1 1 d . . .
C2 C 0.0633(4) 1.3514(4) 0.8470(4) 0.0416(13) Uani 1 1 d . . .
H2 H 0.0528 1.4217 0.8121 0.050 Uiso 1 1 calc R . .
C3 C 0.1618(4) 1.3209(4) 0.8698(4) 0.0383(12) Uani 1 1 d . . .
H3 H 0.1971 1.3773 0.8486 0.046 Uiso 1 1 calc R . .
C4 C 0.0656(4) 1.2731(4) 1.0001(4) 0.0470(14) Uani 1 1 d . . .
C5 C 0.2843(3) 1.2169(4) 0.8214(3) 0.0388(12) Uani 1 1 d . . .
H5A H 0.3254 1.2590 0.8233 0.047 Uiso 1 1 calc R . .
H5B H 0.2995 1.2124 0.7650 0.047 Uiso 1 1 calc R . .
C6 C 0.2268(4) 1.2338(5) 1.0156(4) 0.0488(14) Uani 1 1 d . . .
H6A H 0.2085 1.2374 1.0721 0.059 Uiso 1 1 calc R . .
H6B H 0.2762 1.2750 0.9851 0.059 Uiso 1 1 calc R . .
C7 C 0.2888(3) 1.0406(4) 0.8880(3) 0.0342(11) Uani 1 1 d . . .
C8 C 0.3270(3) 1.1050(4) 0.9766(3) 0.0375(12) Uani 1 1 d . . .
H8 H 0.3850 1.1315 0.9688 0.045 Uiso 1 1 calc R . .
C9 C 0.3348(3) 0.9956(4) 1.0254(3) 0.0384(12) Uani 1 1 d . . .
H9 H 0.3973 0.9700 1.0380 0.046 Uiso 1 1 calc R . .
C10 C 0.2342(4) 1.0584(4) 1.1098(4) 0.0398(13) Uani 1 1 d . . .
C11 C 0.3194(3) 0.8687(4) 0.9731(4) 0.0427(13) Uani 1 1 d . . .
H11A H 0.3767 0.8394 0.9969 0.051 Uiso 1 1 calc R . .
H11B H 0.3237 0.8705 0.9143 0.051 Uiso 1 1 calc R . .
C12 C 0.2674(4) 0.8848(4) 1.1785(3) 0.0411(13) Uani 1 1 d . . .
H12A H 0.2436 0.8934 1.2319 0.049 Uiso 1 1 calc R . .
H12B H 0.3275 0.8513 1.1873 0.049 Uiso 1 1 calc R . .
C13 C 0.1883(3) 0.7804(4) 0.9957(4) 0.0379(12) Uani 1 1 d . . .
C14 C 0.2425(3) 0.7629(4) 1.1246(3) 0.0377(12) Uani 1 1 d . . .
H14 H 0.2993 0.7253 1.1455 0.045 Uiso 1 1 calc R . .
C15 C 0.1650(3) 0.6971(4) 1.1495(4) 0.0391(12) Uani 1 1 d . . .
H15 H 0.1854 0.6287 1.1836 0.047 Uiso 1 1 calc R . .
C16 C 0.1281(3) 0.8042(4) 1.2152(3) 0.0379(12) Uani 1 1 d . . .
C17 C 0.0812(4) 0.6554(5) 1.0533(4) 0.0475(14) Uani 1 1 d . . .
H17A H 0.0953 0.6605 0.9931 0.057 Uiso 1 1 calc R . .
H17B H 0.0946 0.5881 1.0939 0.057 Uiso 1 1 calc R . .
C18 C 0.0221(3) 0.6830(4) 1.2533(3) 0.0375(12) Uani 1 1 d . . .
H18A H 0.0022 0.7019 1.3017 0.045 Uiso 1 1 calc R . .
H18B H 0.0393 0.6136 1.2794 0.045 Uiso 1 1 calc R . .
C19 C 0.2156(3) 1.0967(4) 0.4812(3) 0.0354(12) Uani 1 1 d . . .
C20 C 0.2229(3) 1.1156(4) 0.3369(3) 0.0399(13) Uani 1 1 d . . .
H20 H 0.1814 1.1601 0.2943 0.048 Uiso 1 1 calc R . .
C21 C 0.1808(3) 1.0208(4) 0.4008(3) 0.0406(13) Uani 1 1 d . . .
H21 H 0.1193 1.0202 0.3884 0.049 Uiso 1 1 calc R . .
C22 C 0.3124(4) 0.9872(5) 0.3208(4) 0.0436(14) Uani 1 1 d . . .
C23 C 0.1405(3) 0.9484(4) 0.5689(3) 0.0400(12) Uani 1 1 d . . .
H23A H 0.1147 0.9801 0.6072 0.048 Uiso 1 1 calc R . .
H23B H 0.0913 0.9236 0.5563 0.048 Uiso 1 1 calc R . .
C24 C 0.2323(4) 0.8474(5) 0.4306(4) 0.0504(15) Uani 1 1 d . . .
H24A H 0.2604 0.8167 0.3921 0.060 Uiso 1 1 calc R . .
H24B H 0.1682 0.8374 0.4423 0.060 Uiso 1 1 calc R . .
C25 C 0.2509(3) 0.8699(4) 0.6748(3) 0.0396(13) Uani 1 1 d . . .
C26 C 0.2213(4) 0.7847(4) 0.5992(4) 0.0433(13) Uani 1 1 d . . .
H26 H 0.1674 0.7501 0.6104 0.052 Uiso 1 1 calc R . .
C27 C 0.2907(4) 0.7249(4) 0.6646(4) 0.0405(13) Uani 1 1 d . . .
H27 H 0.2679 0.6636 0.7095 0.049 Uiso 1 1 calc R . .
C28 C 0.3533(4) 0.7505(5) 0.5219(4) 0.0468(14) Uani 1 1 d . . .
C29 C 0.3526(3) 0.7570(4) 0.7802(3) 0.0402(12) Uani 1 1 d . . .
H29A H 0.3287 0.7960 0.8125 0.048 Uiso 1 1 calc R . .
H29B H 0.3416 0.6900 0.8196 0.048 Uiso 1 1 calc R . .
C30 C 0.4467(4) 0.6475(4) 0.6394(4) 0.0424(13) Uani 1 1 d . . .
H30A H 0.4756 0.6259 0.5945 0.051 Uiso 1 1 calc R . .
H30B H 0.4281 0.5904 0.6922 0.051 Uiso 1 1 calc R . .
C31 C 0.4895(3) 0.8304(4) 0.7671(3) 0.0385(12) Uani 1 1 d . . .
C32 C 0.5086(3) 0.6902(4) 0.7464(3) 0.0393(12) Uani 1 1 d . . .
H32 H 0.4983 0.6259 0.7948 0.047 Uiso 1 1 calc R . .
C33 C 0.6020(3) 0.7208(4) 0.7451(3) 0.0407(12) Uani 1 1 d . . .
H33 H 0.6351 0.6710 0.7931 0.049 Uiso 1 1 calc R . .
C34 C 0.5917(4) 0.7127(4) 0.6119(4) 0.0426(13) Uani 1 1 d . . .
C35 C 0.6453(4) 0.8504(5) 0.7809(4) 0.0481(14) Uani 1 1 d . . .
H35A H 0.6132 0.8852 0.8145 0.058 Uiso 1 1 calc R . .
H35B H 0.6855 0.7990 0.8191 0.058 Uiso 1 1 calc R . .
C36 C 0.2609(3) 1.2508(4) 0.3673(4) 0.0433(13) Uani 1 1 d . . .
H36A H 0.2401 1.2701 0.4154 0.052 Uiso 1 1 calc R . .
H36B H 0.2265 1.2922 0.3178 0.052 Uiso 1 1 calc R . .
N1 N 0.0530(3) 1.2980(3) 0.7976(3) 0.0377(10) Uani 1 1 d . . .
N2 N 0.1954(3) 1.2599(3) 0.8245(3) 0.0383(10) Uani 1 1 d . . .
N3 N 0.0131(3) 1.3192(4) 0.9324(3) 0.0446(11) Uani 1 1 d . . .
N4 N 0.1528(3) 1.2707(4) 0.9639(3) 0.0458(11) Uani 1 1 d . . .
N5 N 0.2987(3) 1.1231(3) 0.8913(3) 0.0388(10) Uani 1 1 d . . .
N6 N 0.3056(3) 0.9646(3) 0.9654(3) 0.0385(10) Uani 1 1 d . . .
N7 N 0.2597(3) 1.1354(4) 1.0326(3) 0.0450(11) Uani 1 1 d . . .
N8 N 0.2751(3) 0.9773(4) 1.1062(3) 0.0402(11) Uani 1 1 d . . .
N9 N 0.2483(3) 0.8087(3) 1.0297(3) 0.0402(10) Uani 1 1 d . . .
N10 N 0.1391(3) 0.7135(4) 1.0653(3) 0.0434(11) Uani 1 1 d . . .
N11 N 0.2103(3) 0.8243(4) 1.1677(3) 0.0406(10) Uani 1 1 d . . .
N12 N 0.1000(3) 0.7326(4) 1.2025(3) 0.0422(11) Uani 1 1 d . . .
N13 N 0.2415(3) 1.1546(3) 0.3959(3) 0.0382(10) Uani 1 1 d . . .
N14 N 0.1810(3) 1.0190(4) 0.4870(3) 0.0423(11) Uani 1 1 d . . .
N15 N 0.3021(3) 1.0850(4) 0.2940(3) 0.0418(11) Uani 1 1 d . . .
N16 N 0.2421(3) 0.9483(4) 0.3851(3) 0.0462(12) Uani 1 1 d . . .
N17 N 0.2003(3) 0.8715(3) 0.6141(3) 0.0400(10) Uani 1 1 d . . .
N18 N 0.3035(3) 0.7882(3) 0.7040(3) 0.0384(10) Uani 1 1 d . . .
N19 N 0.2721(3) 0.8002(4) 0.5141(3) 0.0471(12) Uani 1 1 d . . .
N20 N 0.3688(3) 0.7087(4) 0.6080(3) 0.0454(11) Uani 1 1 d . . .
N21 N 0.4469(3) 0.7639(3) 0.7594(3) 0.0396(10) Uani 1 1 d . . .
N22 N 0.5801(3) 0.8073(4) 0.7570(3) 0.0415(11) Uani 1 1 d . . .
N23 N 0.5117(3) 0.6896(4) 0.6607(3) 0.0424(11) Uani 1 1 d . . .
N24 N 0.6457(3) 0.7320(3) 0.6599(3) 0.0414(10) Uani 1 1 d . . .
O1 O 0.1371(2) 1.1915(3) 0.7490(2) 0.0417(9) Uani 1 1 d . . .
O2 O 0.2689(2) 1.0333(3) 0.8238(2) 0.0450(9) Uani 1 1 d . . .
O3 O 0.1827(3) 0.8046(3) 0.9184(3) 0.0504(10) Uani 1 1 d . . .
O4 O 0.0399(3) 1.2453(4) 1.0775(3) 0.0605(12) Uani 1 1 d . . .
O5 O 0.1852(3) 1.0639(3) 1.1726(3) 0.0492(10) Uani 1 1 d . . .
O6 O 0.0893(2) 0.8418(3) 1.2618(3) 0.0492(10) Uani 1 1 d . . .
O7 O 0.2224(2) 1.1143(3) 0.5447(2) 0.0415(9) Uani 1 1 d . . .
O8 O 0.2459(2) 0.9348(3) 0.6990(2) 0.0430(9) Uani 1 1 d . . .
O9 O 0.4524(2) 0.8988(3) 0.7823(3) 0.0445(9) Uani 1 1 d . . .
O10 O 0.3703(3) 0.9443(4) 0.2920(3) 0.0565(11) Uani 1 1 d . . .
O11 O 0.4051(3) 0.7414(4) 0.4627(3) 0.0712(14) Uani 1 1 d . . .
O12 O 0.6151(3) 0.7116(3) 0.5403(3) 0.0539(11) Uani 1 1 d . . .

loop_
_atom_site_aniso_label
_atom_site_aniso_U_11
_atom_site_aniso_U_22
_atom_site_aniso_U_33
_atom_site_aniso_U_23
_atom_site_aniso_U_13
_atom_site_aniso_U_12
Cl5 0.0635(10) 0.0867(15) 0.0949(15) -0.0326(12) -0.0224(10) -0.0024(10)
O1W 0.0398(19) 0.069(3) 0.039(2) -0.030(2) -0.0013(16) 0.0032(18)
O2W 0.057(2) 0.048(3) 0.042(2) -0.020(2) 0.0066(18) -0.0036(19)
O3W 0.048(2) 0.056(3) 0.047(2) -0.021(2) 0.0100(18) -0.0103(19)
O4W 0.043(2) 0.061(3) 0.042(2) -0.018(2) 0.0053(17) -0.0023(19)
Er1 0.03497(14) 0.04452(17) 0.02903(15) -0.02043(12) 0.00080(9) -0.00033(10)
Cl1 0.0529(10) 0.0840(15) 0.144(2) -0.0489(15) -0.0106(11) -0.0105(9)
Cl2 0.0512(10) 0.0761(15) 0.149(2) 0.0197(14) 0.0055(12) -0.0013(10)
Cl3 0.0611(11) 0.0546(13) 0.199(3) -0.0370(15) -0.0021(14) -0.0037(9)
Cl4 0.313(6) 0.217(5) 0.0622(18) -0.021(2) -0.023(3) 0.118(5)
Zn1 0.0616(5) 0.0561(5) 0.0685(6) -0.0028(4) 0.0008(4) 0.0041(4)
C1 0.035(3) 0.040(3) 0.031(3) -0.009(2) 0.001(2) -0.008(2)
C2 0.050(3) 0.037(3) 0.040(3) -0.022(3) 0.005(2) -0.009(2)
C3 0.049(3) 0.028(3) 0.037(3) -0.013(2) -0.003(2) -0.004(2)
C4 0.059(3) 0.037(3) 0.051(4) -0.027(3) 0.001(3) -0.006(3)
C5 0.036(3) 0.047(3) 0.030(3) -0.014(3) 0.003(2) -0.009(2)
C6 0.063(3) 0.052(4) 0.043(3) -0.030(3) -0.010(3) -0.002(3)
C7 0.027(2) 0.048(3) 0.028(3) -0.017(2) -0.002(2) -0.001(2)
C8 0.032(2) 0.050(3) 0.032(3) -0.018(3) -0.006(2) -0.005(2)
C9 0.028(2) 0.056(4) 0.032(3) -0.018(3) -0.003(2) -0.006(2)
C10 0.045(3) 0.044(3) 0.035(3) -0.018(3) -0.011(2) -0.007(2)
C11 0.038(3) 0.049(4) 0.040(3) -0.024(3) 0.011(2) -0.002(2)
C12 0.044(3) 0.054(4) 0.030(3) -0.021(3) -0.007(2) -0.005(3)
C13 0.043(3) 0.037(3) 0.035(3) -0.021(3) 0.004(2) 0.001(2)
C14 0.036(3) 0.043(3) 0.031(3) -0.017(2) 0.000(2) 0.001(2)
C15 0.043(3) 0.033(3) 0.037(3) -0.013(2) -0.006(2) 0.006(2)
C16 0.038(3) 0.042(3) 0.031(3) -0.015(3) -0.003(2) 0.003(2)
C17 0.053(3) 0.051(4) 0.051(4) -0.038(3) 0.003(3) 0.001(3)
C18 0.040(3) 0.042(3) 0.029(3) -0.014(2) 0.003(2) -0.009(2)
C19 0.027(2) 0.048(3) 0.028(3) -0.016(2) 0.001(2) 0.000(2)
C20 0.033(2) 0.058(4) 0.028(3) -0.019(3) -0.008(2) 0.000(2)
C21 0.034(3) 0.062(4) 0.030(3) -0.022(3) -0.005(2) -0.009(2)
C22 0.040(3) 0.068(4) 0.031(3) -0.028(3) -0.003(2) -0.009(3)
C23 0.035(3) 0.053(4) 0.034(3) -0.022(3) 0.001(2) -0.005(2)
C24 0.057(3) 0.064(4) 0.042(3) -0.034(3) -0.001(3) -0.011(3)
C25 0.037(3) 0.052(4) 0.027(3) -0.016(3) 0.009(2) -0.011(3)
C26 0.041(3) 0.051(4) 0.044(3) -0.027(3) 0.004(2) -0.006(2)
C27 0.047(3) 0.039(3) 0.039(3) -0.022(3) 0.012(2) -0.016(2)
C28 0.051(3) 0.055(4) 0.041(3) -0.030(3) 0.007(3) -0.007(3)
C29 0.040(3) 0.048(3) 0.030(3) -0.017(3) 0.006(2) -0.007(2)
C30 0.046(3) 0.043(3) 0.038(3) -0.020(3) 0.005(2) -0.003(2)
C31 0.043(3) 0.049(4) 0.020(2) -0.013(2) 0.002(2) -0.003(2)
C32 0.044(3) 0.036(3) 0.029(3) -0.008(2) 0.001(2) 0.000(2)
C33 0.041(3) 0.042(3) 0.029(3) -0.008(2) -0.004(2) 0.002(2)
C34 0.048(3) 0.037(3) 0.040(3) -0.016(3) -0.001(3) -0.001(2)
C35 0.049(3) 0.071(4) 0.029(3) -0.026(3) -0.003(2) -0.007(3)
C36 0.035(3) 0.055(4) 0.036(3) -0.021(3) -0.002(2) 0.011(2)
N1 0.041(2) 0.039(3) 0.036(2) -0.020(2) -0.0050(19) 0.0034(19)
N2 0.038(2) 0.044(3) 0.037(2) -0.022(2) 0.0019(19) -0.0047(19)
N3 0.047(2) 0.055(3) 0.037(3) -0.025(2) 0.003(2) -0.009(2)
N4 0.049(3) 0.052(3) 0.041(3) -0.025(2) 0.000(2) -0.005(2)
N5 0.043(2) 0.047(3) 0.027(2) -0.017(2) 0.0007(19) -0.008(2)
N6 0.042(2) 0.043(3) 0.034(2) -0.020(2) 0.0012(19) -0.008(2)
N7 0.051(3) 0.050(3) 0.037(3) -0.022(2) -0.002(2) -0.006(2)
N8 0.042(2) 0.051(3) 0.033(2) -0.025(2) 0.0002(19) -0.005(2)
N9 0.041(2) 0.050(3) 0.031(2) -0.019(2) 0.0015(19) -0.007(2)
N10 0.046(2) 0.054(3) 0.035(2) -0.025(2) 0.005(2) -0.010(2)
N11 0.038(2) 0.051(3) 0.036(2) -0.024(2) 0.0031(19) -0.006(2)
N12 0.039(2) 0.049(3) 0.042(3) -0.026(2) 0.004(2) -0.003(2)
N13 0.037(2) 0.047(3) 0.033(2) -0.021(2) 0.0001(18) -0.0008(19)
N14 0.042(2) 0.057(3) 0.030(2) -0.023(2) 0.0032(19) -0.002(2)
N15 0.039(2) 0.056(3) 0.034(2) -0.024(2) 0.0026(19) -0.006(2)
N16 0.044(2) 0.060(3) 0.045(3) -0.033(3) 0.001(2) -0.009(2)
N17 0.043(2) 0.045(3) 0.035(2) -0.020(2) -0.001(2) -0.006(2)
N18 0.037(2) 0.043(3) 0.032(2) -0.016(2) 0.0009(19) -0.002(2)
N19 0.049(3) 0.056(3) 0.036(3) -0.021(2) -0.004(2) 0.000(2)
N20 0.044(2) 0.053(3) 0.046(3) -0.030(3) 0.005(2) -0.006(2)
N21 0.041(2) 0.040(3) 0.037(2) -0.017(2) -0.0026(19) -0.001(2)
N22 0.039(2) 0.051(3) 0.035(2) -0.019(2) -0.0043(19) -0.005(2)
N23 0.044(2) 0.049(3) 0.037(3) -0.024(2) 0.008(2) -0.006(2)
N24 0.044(2) 0.047(3) 0.032(2) -0.019(2) 0.0053(19) -0.006(2)
O1 0.0414(19) 0.053(2) 0.041(2) -0.034(2) 0.0018(16) 0.00