####################################################################### 
# 
# This file contains crystal structure data downloaded from the 
# Cambridge Structural Database (CSD) hosted by the Cambridge 
# Crystallographic Data Centre (CCDC).
# 
# Full information about CCDC data access policies and citation 
# guidelines are available at http://www.ccdc.cam.ac.uk/access/V1 
# 
# Audit and citation data items may have been added by the CCDC. 
# Please retain this information to preserve the provenance of 
# this file and to allow appropriate attribution of the data. 
# 
#######################################################################

data_p214
_audit_block_doi                 10.5517/ccz97l2
_database_code_depnum_ccdc_archive 'CCDC 902614'
loop_
_citation_id
_citation_doi
_citation_year
1 10.1039/C3CE40568K 2013
_audit_update_record             
;
2012-09-22 deposited with the CCDC.	2024-07-11 downloaded from the CCDC.
;
#TrackingRef 'submit-214.cif'


_audit_creation_method           SHELXL-97
_chemical_name_systematic        
;
?
;
_chemical_name_common            ?
_chemical_melting_point          ?
_chemical_formula_moiety         ?
_chemical_formula_sum            'C36 H112 Cd Cl5 N24 O50 Yb'
_chemical_formula_weight         2144.19

loop_
_atom_type_symbol
_atom_type_description
_atom_type_scat_dispersion_real
_atom_type_scat_dispersion_imag
_atom_type_scat_source
C C 0.0033 0.0016 'International Tables Vol C Tables 4.2.6.8 and 6.1.1.4'
H H 0.0000 0.0000 'International Tables Vol C Tables 4.2.6.8 and 6.1.1.4'
N N 0.0061 0.0033 'International Tables Vol C Tables 4.2.6.8 and 6.1.1.4'
O O 0.0106 0.0060 'International Tables Vol C Tables 4.2.6.8 and 6.1.1.4'
Cl Cl 0.1484 0.1585 'International Tables Vol C Tables 4.2.6.8 and 6.1.1.4'
Cd Cd -0.8075 1.2024 'International Tables Vol C Tables 4.2.6.8 and 6.1.1.4'
Yb Yb -0.3850 5.5486 'International Tables Vol C Tables 4.2.6.8 and 6.1.1.4'

_symmetry_cell_setting           triclinic
_symmetry_space_group_name_H-M   'P -1'
_symmetry_space_group_name_Hall  '-P 1'

loop_
_symmetry_equiv_pos_as_xyz
'x, y, z'
'-x, -y, -z'

_cell_length_a                   15.076(3)
_cell_length_b                   15.570(3)
_cell_length_c                   17.006(4)
_cell_angle_alpha                64.892(7)
_cell_angle_beta                 80.960(7)
_cell_angle_gamma                81.779(7)
_cell_volume                     3556.7(13)
_cell_formula_units_Z            2
_cell_measurement_temperature    223(2)
_cell_measurement_reflns_used    ?
_cell_measurement_theta_min      ?
_cell_measurement_theta_max      ?

_exptl_crystal_description       prism
_exptl_crystal_colour            colorless
_exptl_crystal_size_max          0.22
_exptl_crystal_size_mid          0.18
_exptl_crystal_size_min          0.15
_exptl_crystal_density_meas      ?
_exptl_crystal_density_diffrn    2.002
_exptl_crystal_density_method    'not measured'
_exptl_crystal_F_000             2198
_exptl_absorpt_coefficient_mu    1.926
_exptl_absorpt_correction_type   multi-scan
_exptl_absorpt_correction_T_min  0.6767
_exptl_absorpt_correction_T_max  0.7610
_exptl_absorpt_process_details   'SADABS (Bruker, 2008)'

_exptl_special_details           
;
?
;

_diffrn_ambient_temperature      223(2)
_diffrn_radiation_wavelength     0.71073
_diffrn_radiation_type           MoK\a
_diffrn_radiation_source         'fine-focus sealed tube'
_diffrn_radiation_monochromator  graphite
_diffrn_measurement_device_type  'Bruker CCD Area Detector'
_diffrn_measurement_method       '\f and \w scan'
_diffrn_detector_area_resol_mean ?
_diffrn_standards_number         ?
_diffrn_standards_interval_count ?
_diffrn_standards_interval_time  ?
_diffrn_standards_decay_%        ?
_diffrn_reflns_number            32642
_diffrn_reflns_av_R_equivalents  0.0990
_diffrn_reflns_av_sigmaI/netI    0.1084
_diffrn_reflns_limit_h_min       -17
_diffrn_reflns_limit_h_max       17
_diffrn_reflns_limit_k_min       -16
_diffrn_reflns_limit_k_max       18
_diffrn_reflns_limit_l_min       -20
_diffrn_reflns_limit_l_max       20
_diffrn_reflns_theta_min         1.33
_diffrn_reflns_theta_max         25.00
_reflns_number_total             11947
_reflns_number_gt                8493
_reflns_threshold_expression     >2sigma(I)

_computing_data_collection       ?
_computing_cell_refinement       ?
_computing_data_reduction        ?
_computing_structure_solution    ?
_computing_structure_refinement  'SHELXL-97 (Sheldrick, 1997)'
_computing_molecular_graphics    ?
_computing_publication_material  ?

_refine_special_details          
;
Refinement of F^2^ against ALL reflections. The weighted R-factor wR and
goodness of fit S are based on F^2^, conventional R-factors R are based
on F, with F set to zero for negative F^2^. The threshold expression of
F^2^ > 2sigma(F^2^) is used only for calculating R-factors(gt) etc. and is
not relevant to the choice of reflections for refinement. R-factors based
on F^2^ are statistically about twice as large as those based on F, and R-
factors based on ALL data will be even larger.
;

_refine_ls_structure_factor_coef Fsqd
_refine_ls_matrix_type           full
_refine_ls_weighting_scheme      calc
_refine_ls_weighting_details     
'calc w=1/[\s^2^(Fo^2^)+(0.1610P)^2^+0.0000P] where P=(Fo^2^+2Fc^2^)/3'
_atom_sites_solution_primary     direct
_atom_sites_solution_secondary   difmap
_atom_sites_solution_hydrogens   geom
_refine_ls_hydrogen_treatment    constr
_refine_ls_extinction_method     none
_refine_ls_extinction_coef       ?
_refine_ls_number_reflns         11947
_refine_ls_number_parameters     748
_refine_ls_number_restraints     0
_refine_ls_R_factor_all          0.1082
_refine_ls_R_factor_gt           0.0896
_refine_ls_wR_factor_ref         0.2432
_refine_ls_wR_factor_gt          0.2242
_refine_ls_goodness_of_fit_ref   0.990
_refine_ls_restrained_S_all      0.990
_refine_ls_shift/su_max          0.001
_refine_ls_shift/su_mean         0.000

loop_
_atom_site_label
_atom_site_type_symbol
_atom_site_fract_x
_atom_site_fract_y
_atom_site_fract_z
_atom_site_U_iso_or_equiv
_atom_site_adp_type
_atom_site_occupancy
_atom_site_symmetry_multiplicity
_atom_site_calc_flag
_atom_site_refinement_flags
_atom_site_disorder_assembly
_atom_site_disorder_group
Cl5 Cl 0.01236(19) 1.1989(3) 0.4564(2) 0.0725(9) Uani 1 1 d . . .
O1W O -0.0665(4) 0.8695(5) 0.3542(5) 0.0469(17) Uani 1 1 d . . .
O2W O -0.1059(4) 1.0160(5) 0.1985(4) 0.0429(16) Uani 1 1 d . . .
O3W O -0.2588(5) 0.7642(4) 0.3873(4) 0.0468(17) Uani 1 1 d . . .
O4W O -0.3667(4) 0.9362(5) 0.3358(4) 0.0513(19) Uani 1 1 d . . .
Yb1 Yb -0.20867(2) 0.91598(3) 0.30634(2) 0.03415(17) Uani 1 1 d . . .
Cl1 Cl 0.3752(2) 0.5293(3) 0.1985(4) 0.1129(18) Uani 1 1 d . . .
Cl2 Cl 0.4883(2) 0.7587(3) 0.1503(3) 0.0990(14) Uani 1 1 d . . .
Cl3 Cl 0.6485(2) 0.5287(3) 0.1608(4) 0.135(2) Uani 1 1 d . . .
Cl4 Cl 0.5018(8) 0.6678(7) -0.0392(4) 0.272(7) Uani 1 1 d . . .
Cd1 Cd 0.50527(6) 0.61637(7) 0.11423(7) 0.0795(4) Uani 1 1 d . . .
C1 C -0.1306(6) 0.7616(6) 0.2084(6) 0.036(2) Uani 1 1 d . . .
C2 C -0.1673(6) 0.6861(7) 0.1284(6) 0.044(2) Uani 1 1 d . . .
H2 H -0.2037 0.6309 0.1496 0.053 Uiso 1 1 calc R . .
C3 C -0.0677(6) 0.6540(6) 0.1507(6) 0.036(2) Uani 1 1 d . . .
H3 H -0.0580 0.5844 0.1846 0.043 Uiso 1 1 calc R . .
C4 C -0.0669(6) 0.7305(7) -0.0025(7) 0.045(2) Uani 1 1 d . . .
C5 C 0.0208(6) 0.6857(6) 0.2483(6) 0.040(2) Uani 1 1 d . . .
H5A H 0.0018 0.7025 0.2982 0.048 Uiso 1 1 calc R . .
H5B H 0.0378 0.6170 0.2716 0.048 Uiso 1 1 calc R . .
C6 C 0.0793(6) 0.6589(7) 0.0525(7) 0.045(2) Uani 1 1 d . . .
H6A H 0.0914 0.5931 0.0945 0.054 Uiso 1 1 calc R . .
H6B H 0.0939 0.6602 -0.0062 0.054 Uiso 1 1 calc R . .
C7 C 0.1282(6) 0.8062(7) 0.2115(6) 0.040(2) Uani 1 1 d . . .
C8 C 0.1634(6) 0.6984(7) 0.1441(6) 0.039(2) Uani 1 1 d . . .
H8 H 0.1838 0.6306 0.1764 0.047 Uiso 1 1 calc R . .
C9 C 0.2404(6) 0.7624(6) 0.1213(6) 0.038(2) Uani 1 1 d . . .
H9 H 0.2966 0.7240 0.1432 0.046 Uiso 1 1 calc R . .
C10 C 0.1886(6) 0.7780(6) -0.0052(7) 0.043(2) Uani 1 1 d . . .
C11 C 0.2678(7) 0.8836(7) 0.1777(6) 0.043(2) Uani 1 1 d . . .
H11A H 0.2427 0.8927 0.2306 0.051 Uiso 1 1 calc R . .
H11B H 0.3277 0.8494 0.1878 0.051 Uiso 1 1 calc R . .
C12 C 0.3186(6) 0.8641(7) -0.0279(6) 0.039(2) Uani 1 1 d . . .
H12A H 0.3233 0.8644 -0.0862 0.047 Uiso 1 1 calc R . .
H12B H 0.3760 0.8354 -0.0041 0.047 Uiso 1 1 calc R . .
C13 C 0.2369(6) 1.0571(7) 0.1074(6) 0.038(2) Uani 1 1 d . . .
C14 C 0.3374(6) 0.9927(7) 0.0236(6) 0.038(2) Uani 1 1 d . . .
H14 H 0.4004 0.9671 0.0349 0.046 Uiso 1 1 calc R . .
C15 C 0.3289(6) 1.1031(7) -0.0233(6) 0.038(2) Uani 1 1 d . . .
H15 H 0.3867 1.1306 -0.0315 0.046 Uiso 1 1 calc R . .
C16 C 0.2897(5) 1.0349(6) -0.1121(5) 0.0274(17) Uani 1 1 d . . .
C17 C -0.2325(7) 0.7715(9) -0.0174(7) 0.054(3) Uani 1 1 d . . .
H17A H -0.2151 0.7666 -0.0734 0.065 Uiso 1 1 calc R . .
H17B H -0.2837 0.7332 0.0125 0.065 Uiso 1 1 calc R . .
C18 C -0.2852(6) 0.7888(7) 0.1766(6) 0.048(3) Uani 1 1 d . . .
H18A H -0.3008 0.7939 0.2327 0.057 Uiso 1 1 calc R . .
H18B H -0.3269 0.7476 0.1737 0.057 Uiso 1 1 calc R . .
C19 C -0.2488(6) 1.1303(6) 0.3260(6) 0.036(2) Uani 1 1 d . . .
C20 C -0.2906(6) 1.2734(6) 0.3380(6) 0.036(2) Uani 1 1 d . . .
H20 H -0.2675 1.3336 0.2935 0.044 Uiso 1 1 calc R . .
C21 C -0.2220(6) 1.2157(7) 0.4025(6) 0.041(2) Uani 1 1 d . . .
H21 H -0.1683 1.2505 0.3921 0.050 Uiso 1 1 calc R . .
C22 C -0.3529(6) 1.2480(7) 0.4829(7) 0.044(2) Uani 1 1 d . . .
C23 C -0.1383(6) 1.0533(7) 0.4306(6) 0.044(2) Uani 1 1 d . . .
H23A H -0.0888 1.0770 0.4447 0.053 Uiso 1 1 calc R . .
H23B H -0.1125 1.0228 0.3912 0.053 Uiso 1 1 calc R . .
C24 C -0.2338(7) 1.1546(7) 0.5695(6) 0.045(2) Uani 1 1 d . . .
H24A H -0.1700 1.1665 0.5585 0.054 Uiso 1 1 calc R . .
H24B H -0.2636 1.1852 0.6076 0.054 Uiso 1 1 calc R . .
C25 C -0.2136(5) 0.9089(6) 0.5147(6) 0.035(2) Uani 1 1 d . . .
C26 C -0.1801(6) 0.9831(7) 0.5965(6) 0.035(2) Uani 1 1 d . . .
H26 H -0.1182 0.9827 0.6094 0.043 Uiso 1 1 calc R . .
C27 C -0.2214(6) 0.8887(6) 0.6570(6) 0.037(2) Uani 1 1 d . . .
H27 H -0.1793 0.8444 0.6986 0.044 Uiso 1 1 calc R . .
C28 C -0.3086(6) 1.0142(7) 0.6779(6) 0.040(2) Uani 1 1 d . . .
C29 C -0.2596(6) 0.7535(7) 0.6234(6) 0.041(2) Uani 1 1 d . . .
H29A H -0.2412 0.7382 0.5726 0.049 Uiso 1 1 calc R . .
H29B H -0.2227 0.7109 0.6697 0.049 Uiso 1 1 calc R . .
C30 C -0.3528(7) 0.8513(8) 0.7750(6) 0.049(3) Uani 1 1 d . . .
H30A H -0.3120 0.7995 0.8109 0.059 Uiso 1 1 calc R . .
H30B H -0.3838 0.8844 0.8108 0.059 Uiso 1 1 calc R . .
C31 C -0.4049(6) 0.7148(7) 0.6063(6) 0.042(2) Uani 1 1 d . . .
C32 C -0.3934(5) 0.7250(6) 0.7380(5) 0.038(2) Uani 1 1 d . . .
H32 H -0.3597 0.6760 0.7850 0.045 Uiso 1 1 calc R . .
C33 C -0.4887(6) 0.6949(6) 0.7380(6) 0.038(2) Uani 1 1 d . . .
H33 H -0.4991 0.6314 0.7854 0.046 Uiso 1 1 calc R . .
C34 C -0.5072(6) 0.8314(6) 0.7619(5) 0.038(2) Uani 1 1 d . . .
C35 C -0.4479(6) 1.3514(6) 0.3664(6) 0.040(2) Uani 1 1 d . . .
H35A H -0.4307 1.4084 0.3146 0.048 Uiso 1 1 calc R . .
H35B H -0.4760 1.3718 0.4124 0.048 Uiso 1 1 calc R . .
C36 C -0.3544(6) 1.2392(7) 0.2253(6) 0.037(2) Uani 1 1 d . . .
H36A H -0.3309 1.1989 0.1941 0.045 Uiso 1 1 calc R . .
H36B H -0.3438 1.3051 0.1854 0.045 Uiso 1 1 calc R . .
N1 N -0.1966(5) 0.7446(5) 0.1747(5) 0.0379(17) Uani 1 1 d . . .
N2 N -0.0547(5) 0.7062(5) 0.1990(5) 0.0376(17) Uani 1 1 d . . .
N3 N -0.1575(5) 0.7326(6) 0.0354(5) 0.047(2) Uani 1 1 d . . .
N4 N -0.0149(5) 0.6862(6) 0.0644(5) 0.051(2) Uani 1 1 d . . .
N5 N 0.0985(5) 0.7343(6) 0.1999(5) 0.0388(18) Uani 1 1 d . . .
N6 N 0.2106(5) 0.8252(6) 0.1635(5) 0.0385(17) Uani 1 1 d . . .
N7 N 0.1362(5) 0.7151(6) 0.0623(5) 0.047(2) Uani 1 1 d . . .
N8 N 0.2492(5) 0.8047(6) 0.0264(5) 0.0393(18) Uani 1 1 d . . .
N9 N 0.2776(5) 0.9759(6) 0.1059(5) 0.0389(18) Uani 1 1 d . . .
N10 N 0.2603(5) 1.1318(6) 0.0335(5) 0.0422(19) Uani 1 1 d . . .
N11 N 0.3060(5) 0.9632(5) -0.0373(5) 0.0372(17) Uani 1 1 d . . .
N12 N 0.2991(5) 1.1165(6) -0.1065(5) 0.0419(19) Uani 1 1 d . . .
N13 N -0.3048(5) 1.2115(5) 0.2993(5) 0.0371(17) Uani 1 1 d . . .
N14 N -0.1999(5) 1.1320(6) 0.3865(5) 0.0382(18) Uani 1 1 d . . .
N15 N -0.3695(5) 1.2913(6) 0.3946(5) 0.0415(18) Uani 1 1 d . . .
N16 N -0.2722(5) 1.1996(6) 0.4875(5) 0.0419(19) Uani 1 1 d . . .
N17 N -0.1796(5) 0.9833(6) 0.5098(5) 0.045(2) Uani 1 1 d . . .
N18 N -0.2409(5) 0.8513(5) 0.5995(5) 0.0386(18) Uani 1 1 d . . .
N19 N -0.2402(5) 1.0537(6) 0.6156(5) 0.046(2) Uani 1 1 d . . .
N20 N -0.3000(5) 0.9176(6) 0.7006(5) 0.046(2) Uani 1 1 d . . .
N21 N -0.3529(5) 0.7347(5) 0.6531(5) 0.0421(19) Uani 1 1 d . . .
N22 N -0.4863(5) 0.6934(6) 0.6547(5) 0.0414(18) Uani 1 1 d . . .
N23 N -0.4180(5) 0.8115(6) 0.7513(5) 0.0404(18) Uani 1 1 d . . .
N24 N -0.5495(5) 0.7677(5) 0.7526(5) 0.0336(16) Uani 1 1 d . . .
O1 O -0.1364(4) 0.8141(5) 0.2457(4) 0.0391(14) Uani 1 1 d . . .
O2 O 0.0893(5) 0.8456(5) 0.2582(4) 0.0489(17) Uani 1 1 d . . .
O3 O 0.1888(5) 1.0615(5) 0.1726(4) 0.0490(17) Uani 1 1 d . . .
O4 O -0.0435(5) 0.7576(6) -0.0782(4) 0.059(2) Uani 1 1 d . . .
O5 O 0.1811(4) 0.8029(5) -0.0823(4) 0.0479(17) Uani 1 1 d . . .
O6 O 0.2686(4) 1.0294(5) -0.1755(4) 0.0442(16) Uani 1 1 d . . .
O7 O -0.2455(4) 1.0695(5) 0.2984(5) 0.0494(17) Uani 1 1 d . . .
O8 O -0.2213(4) 0.8915(5) 0.4504(4) 0.0428(15) Uani 1 1 d . . .
O9 O -0.3812(5) 0.7133(5) 0.5334(5) 0.0540(18) Uani 1 1 d . . .
O10 O -0.4056(5) 1.2565(6) 0.5416(5) 0.061(2) Uani 1 1 d . . .
O11 O -0.3687(5) 1.0578(6) 0.7073(5) 0.0534(18) Uani 1 1 d . . .
O12 O -0.5441(4) 0.8992(5) 0.7785(4) 0.0426(15) Uani 1 1 d . . .

loop_
_atom_site_aniso_label
_atom_site_aniso_U_11
_atom_site_aniso_U_22
_atom_site_aniso_U_33
_atom_site_aniso_U_23
_atom_site_aniso_U_13
_atom_site_aniso_U_12
Cl5 0.0537(14) 0.077(2) 0.078(2) -0.0179(17) -0.0256(14) -0.0023(14)
O1W 0.035(3) 0.052(4) 0.055(4) -0.023(3) -0.009(3) 0.000(3)
O2W 0.050(3) 0.039(4) 0.032(3) -0.012(3) 0.015(3) -0.007(3)
O3W 0.060(4) 0.021(3) 0.050(4) -0.005(3) 0.007(3) -0.017(3)
O4W 0.029(3) 0.052(4) 0.051(4) -0.002(3) -0.006(3) 0.005(3)
Yb1 0.0351(2) 0.0298(3) 0.0320(3) -0.00811(18) -0.00399(16) 0.00029(16)
Cl1 0.0645(19) 0.051(2) 0.192(5) -0.027(2) 0.006(2) -0.0037(16)
Cl2 0.0547(16) 0.079(2) 0.146(4) -0.022(2) -0.024(2) -0.0125(17)
Cl3 0.0509(16) 0.084(3) 0.165(4) 0.044(3) -0.005(2) 0.0014(17)
Cl4 0.360(13) 0.248(10) 0.069(3) 0.017(5) -0.020(5) 0.137(10)
Cd1 0.0634(5) 0.0542(6) 0.0740(6) 0.0153(5) -0.0050(5) 0.0031(4)
C1 0.038(4) 0.013(4) 0.038(5) 0.004(4) -0.001(4) -0.001(3)
C2 0.040(5) 0.032(5) 0.044(5) 0.003(4) -0.011(4) -0.004(4)
C3 0.046(5) 0.025(5) 0.032(5) -0.009(4) -0.003(4) 0.000(4)
C4 0.046(5) 0.035(5) 0.049(6) -0.013(5) -0.007(4) -0.001(4)
C5 0.053(5) 0.025(5) 0.037(5) -0.008(4) -0.007(4) -0.009(4)
C6 0.042(5) 0.033(5) 0.057(6) -0.019(5) -0.004(4) 0.003(4)
C7 0.038(4) 0.030(5) 0.044(5) -0.010(4) 0.001(4) 0.000(4)
C8 0.039(4) 0.031(5) 0.041(5) -0.015(4) -0.003(4) 0.011(4)
C9 0.041(4) 0.030(5) 0.032(5) -0.001(4) -0.009(4) 0.003(4)
C10 0.046(5) 0.018(4) 0.045(6) 0.000(4) 0.002(4) 0.013(4)
C11 0.050(5) 0.046(6) 0.031(5) -0.010(4) -0.005(4) -0.017(4)
C12 0.039(4) 0.037(5) 0.037(5) -0.015(4) -0.001(4) 0.001(4)
C13 0.032(4) 0.040(5) 0.040(5) -0.012(4) -0.014(4) 0.002(4)
C14 0.032(4) 0.033(5) 0.036(5) -0.003(4) -0.004(4) 0.002(4)
C15 0.037(4) 0.046(6) 0.034(5) -0.013(4) -0.010(4) -0.012(4)
C16 0.031(4) 0.027(4) 0.028(4) -0.016(4) -0.008(3) 0.004(3)
C17 0.051(5) 0.073(8) 0.054(6) -0.039(6) -0.011(5) -0.005(5)
C18 0.045(5) 0.042(6) 0.042(5) 0.000(4) -0.005(4) -0.017(4)
C19 0.037(4) 0.015(4) 0.048(5) 0.000(4) -0.014(4) -0.009(3)
C20 0.035(4) 0.029(5) 0.040(5) -0.007(4) -0.002(4) -0.011(4)
C21 0.041(5) 0.050(6) 0.032(5) -0.014(4) -0.001(4) -0.010(4)
C22 0.046(5) 0.035(5) 0.048(6) -0.017(5) 0.002(4) -0.003(4)
C23 0.030(4) 0.030(5) 0.052(6) 0.001(4) -0.001(4) 0.002(4)
C24 0.054(5) 0.040(6) 0.042(5) -0.016(5) -0.006(4) -0.006(4)
C25 0.022(3) 0.030(5) 0.044(5) -0.008(4) -0.009(3) 0.006(3)
C26 0.039(4) 0.039(5) 0.034(5) -0.017(4) -0.008(4) -0.012(4)
C27 0.042(4) 0.031(5) 0.033(5) -0.010(4) -0.006(4) 0.001(4)
C28 0.043(5) 0.039(5) 0.032(5) -0.008(4) -0.004(4) -0.004(4)
C29 0.038(4) 0.036(5) 0.046(5) -0.016(4) -0.006(4) 0.006(4)
C30 0.047(5) 0.057(7) 0.031(5) -0.009(5) 0.002(4) -0.006(5)
C31 0.042(5) 0.035(5) 0.037(5) -0.002(4) -0.002(4) -0.008(4)
C32 0.038(4) 0.031(5) 0.024(4) 0.005(4) -0.007(3) 0.010(4)
C33 0.047(5) 0.023(4) 0.032(5) -0.001(4) -0.005(4) -0.001(4)
C34 0.045(5) 0.026(5) 0.026(4) 0.005(4) -0.002(4) -0.001(4)
C35 0.045(5) 0.020(4) 0.048(5) -0.007(4) -0.007(4) 0.000(4)
C36 0.040(4) 0.030(5) 0.038(5) -0.007(4) -0.014(4) -0.001(4)
N1 0.038(4) 0.035(4) 0.044(4) -0.016(4) -0.008(3) -0.011(3)
N2 0.043(4) 0.028(4) 0.039(4) -0.012(3) -0.002(3) -0.005(3)
N3 0.048(4) 0.052(5) 0.042(5) -0.021(4) -0.012(4) 0.010(4)
N4 0.051(5) 0.052(5) 0.038(4) -0.008(4) -0.003(4) -0.003(4)
N5 0.037(4) 0.040(5) 0.035(4) -0.014(4) -0.005(3) 0.007(3)
N6 0.040(4) 0.042(5) 0.036(4) -0.019(4) 0.001(3) -0.008(3)
N7 0.050(4) 0.037(5) 0.045(5) -0.011(4) -0.001(4) 0.002(4)
N8 0.038(4) 0.037(4) 0.034(4) -0.003(3) -0.012(3) -0.003(3)
N9 0.044(4) 0.037(4) 0.030(4) -0.008(3) -0.007(3) -0.002(3)
N10 0.042(4) 0.037(5) 0.043(4) -0.011(4) -0.013(3) -0.001(3)
N11 0.035(3) 0.034(4) 0.035(4) -0.006(3) -0.008(3) 0.003(3)
N12 0.042(4) 0.038(5) 0.037(4) -0.002(4) -0.017(3) -0.002(3)
N13 0.039(4) 0.033(4) 0.042(4) -0.017(3) -0.006(3) -0.001(3)
N14 0.047(4) 0.035(4) 0.028(4) -0.010(3) 0.000(3) -0.007(3)
N15 0.043(4) 0.044(5) 0.043(4) -0.025(4) 0.005(3) -0.007(4)
N16 0.042(4) 0.045(5) 0.042(4) -0.020(4) -0.008(3) -0.003(4)
N17 0.041(4) 0.042(5) 0.041(4) -0.004(4) -0.007(3) -0.010(4)
N18 0.036(4) 0.035(4) 0.030(4) 0.002(3) -0.006(3) 0.000(3)
N19 0.048(4) 0.044(5) 0.047(5) -0.022(4) -0.002(4) -0.005(4)
N20 0.038(4) 0.048(5) 0.045(5) -0.013(4) -0.002(3) -0.006(4)
N21 0.047(4) 0.030(4) 0.043(4) -0.011(4) -0.004(3) -0.003(3)
N22 0.046(4) 0.033(4) 0.043(4) -0.015(4) 0.003(3) -0.003(3)
N23 0.044(4) 0.034(4) 0.035(4) -0.005(3) -0.002(3) -0.008(3)
N24 0.037(4) 0.025(4) 0.033(4) -0.007(3) -0.002(3) 0.000(3)
O1 0.040(3) 0.041(4) 0.045(4) -0.026(3) -0.015(3) 0.007(3)
O2 0.055(4) 0.055(4) 0.043(4) -0.026(4) 0.001(3) -0.011(3)
O3 0.054(4) 0.055(4) 0.041(4) -0.025(3) -0.008(3) 0.004(3)
O4 0.074(5) 0.066(5) 0.031(4) -0.013(4) -0.0