####################################################################### 
# 
# This file contains crystal structure data downloaded from the 
# Cambridge Structural Database (CSD) hosted by the Cambridge 
# Crystallographic Data Centre (CCDC).
# 
# Full information about CCDC data access policies and citation 
# guidelines are available at http://www.ccdc.cam.ac.uk/access/V1 
# 
# Audit and citation data items may have been added by the CCDC. 
# Please retain this information to preserve the provenance of 
# this file and to allow appropriate attribution of the data. 
# 
#######################################################################

data_p210
_audit_block_doi                 10.5517/ccz97gy
_database_code_depnum_ccdc_archive 'CCDC 902610'
loop_
_citation_id
_citation_doi
_citation_year
1 10.1039/C3CE40568K 2013
_audit_update_record             
;
2012-09-22 deposited with the CCDC.	2024-07-11 downloaded from the CCDC.
;
#TrackingRef 'submit-210.cif'


_audit_creation_method           SHELXL-97
_chemical_name_systematic        
;
?
;
_chemical_name_common            ?
_chemical_melting_point          ?
_chemical_formula_moiety         ?
_chemical_formula_sum            'C36 H96 Cd Cl5 Dy N24 O42'
_chemical_formula_weight         1989.52

loop_
_atom_type_symbol
_atom_type_description
_atom_type_scat_dispersion_real
_atom_type_scat_dispersion_imag
_atom_type_scat_source
C C 0.0033 0.0016 'International Tables Vol C Tables 4.2.6.8 and 6.1.1.4'
H H 0.0000 0.0000 'International Tables Vol C Tables 4.2.6.8 and 6.1.1.4'
N N 0.0061 0.0033 'International Tables Vol C Tables 4.2.6.8 and 6.1.1.4'
O O 0.0106 0.0060 'International Tables Vol C Tables 4.2.6.8 and 6.1.1.4'
Cl Cl 0.1484 0.1585 'International Tables Vol C Tables 4.2.6.8 and 6.1.1.4'
Cd Cd -0.8075 1.2024 'International Tables Vol C Tables 4.2.6.8 and 6.1.1.4'
Dy Dy -0.1892 4.4098 'International Tables Vol C Tables 4.2.6.8 and 6.1.1.4'

_symmetry_cell_setting           triclinic
_symmetry_space_group_name_H-M   'P -1'
_symmetry_space_group_name_Hall  '-P 1'

loop_
_symmetry_equiv_pos_as_xyz
'x, y, z'
'-x, -y, -z'

_cell_length_a                   15.1428(19)
_cell_length_b                   15.569(2)
_cell_length_c                   17.119(2)
_cell_angle_alpha                64.842(4)
_cell_angle_beta                 80.884(5)
_cell_angle_gamma                81.789(4)
_cell_volume                     3594.2(8)
_cell_formula_units_Z            2
_cell_measurement_temperature    223(2)
_cell_measurement_reflns_used    ?
_cell_measurement_theta_min      ?
_cell_measurement_theta_max      ?

_exptl_crystal_description       prism
_exptl_crystal_colour            colorless
_exptl_crystal_size_max          0.26
_exptl_crystal_size_mid          0.21
_exptl_crystal_size_min          0.18
_exptl_crystal_density_meas      ?
_exptl_crystal_density_diffrn    1.838
_exptl_crystal_density_method    'not measured'
_exptl_crystal_F_000             2030
_exptl_absorpt_coefficient_mu    1.629
_exptl_absorpt_correction_type   multi-scan
_exptl_absorpt_correction_T_min  0.6767
_exptl_absorpt_correction_T_max  0.7580
_exptl_absorpt_process_details   'SADABS (Bruker, 2008)'

_exptl_special_details           
;
?
;

_diffrn_ambient_temperature      223(2)
_diffrn_radiation_wavelength     0.71073
_diffrn_radiation_type           MoK\a
_diffrn_radiation_source         'fine-focus sealed tube'
_diffrn_radiation_monochromator  graphite
_diffrn_measurement_device_type  'Bruker CCD Area Detector'
_diffrn_measurement_method       '\f and \w scan'
_diffrn_detector_area_resol_mean ?
_diffrn_standards_number         ?
_diffrn_standards_interval_count ?
_diffrn_standards_interval_time  ?
_diffrn_standards_decay_%        ?
_diffrn_reflns_number            39996
_diffrn_reflns_av_R_equivalents  0.0447
_diffrn_reflns_av_sigmaI/netI    0.0462
_diffrn_reflns_limit_h_min       -18
_diffrn_reflns_limit_h_max       15
_diffrn_reflns_limit_k_min       -18
_diffrn_reflns_limit_k_max       18
_diffrn_reflns_limit_l_min       -20
_diffrn_reflns_limit_l_max       20
_diffrn_reflns_theta_min         1.32
_diffrn_reflns_theta_max         25.10
_reflns_number_total             12679
_reflns_number_gt                10956
_reflns_threshold_expression     >2sigma(I)

_computing_data_collection       ?
_computing_cell_refinement       ?
_computing_data_reduction        ?
_computing_structure_solution    ?
_computing_structure_refinement  'SHELXL-97 (Sheldrick, 1997)'
_computing_molecular_graphics    ?
_computing_publication_material  ?

_refine_special_details          
;
Refinement of F^2^ against ALL reflections. The weighted R-factor wR and
goodness of fit S are based on F^2^, conventional R-factors R are based
on F, with F set to zero for negative F^2^. The threshold expression of
F^2^ > 2sigma(F^2^) is used only for calculating R-factors(gt) etc. and is
not relevant to the choice of reflections for refinement. R-factors based
on F^2^ are statistically about twice as large as those based on F, and R-
factors based on ALL data will be even larger.
;

_refine_ls_structure_factor_coef Fsqd
_refine_ls_matrix_type           full
_refine_ls_weighting_scheme      calc
_refine_ls_weighting_details     
'calc w=1/[\s^2^(Fo^2^)+(0.0729P)^2^+0.8943P] where P=(Fo^2^+2Fc^2^)/3'
_atom_sites_solution_primary     direct
_atom_sites_solution_secondary   difmap
_atom_sites_solution_hydrogens   geom
_refine_ls_hydrogen_treatment    constr
_refine_ls_extinction_method     none
_refine_ls_extinction_coef       ?
_refine_ls_number_reflns         12679
_refine_ls_number_parameters     748
_refine_ls_number_restraints     0
_refine_ls_R_factor_all          0.0476
_refine_ls_R_factor_gt           0.0415
_refine_ls_wR_factor_ref         0.1180
_refine_ls_wR_factor_gt          0.1135
_refine_ls_goodness_of_fit_ref   1.047
_refine_ls_restrained_S_all      1.047
_refine_ls_shift/su_max          0.005
_refine_ls_shift/su_mean         0.000

loop_
_atom_site_label
_atom_site_type_symbol
_atom_site_fract_x
_atom_site_fract_y
_atom_site_fract_z
_atom_site_U_iso_or_equiv
_atom_site_adp_type
_atom_site_occupancy
_atom_site_symmetry_multiplicity
_atom_site_calc_flag
_atom_site_refinement_flags
_atom_site_disorder_assembly
_atom_site_disorder_group
Cl5 Cl 0.48825(9) 0.30148(12) 1.04399(10) 0.0709(4) Uani 1 1 d . . .
O1W O 0.5652(2) 0.6341(2) 1.14283(18) 0.0460(7) Uani 1 1 d . . .
O2W O 0.7610(2) 0.7383(2) 1.1122(2) 0.0468(7) Uani 1 1 d . . .
O3W O 0.6048(2) 0.4833(2) 1.30242(19) 0.0465(7) Uani 1 1 d . . .
O4W O 0.8693(2) 0.5662(2) 1.1640(2) 0.0500(8) Uani 1 1 d . . .
Dy1 Dy 0.709024(12) 0.585647(13) 1.193489(11) 0.03187(8) Uani 1 1 d . . .
Cl1 Cl 0.98775(10) 0.25940(14) 1.65078(14) 0.0925(5) Uani 1 1 d . . .
Cl2 Cl 0.87581(12) 0.02997(12) 1.69640(18) 0.1152(8) Uani 1 1 d . . .
Cl3 Cl 1.14843(12) 0.03281(15) 1.66253(17) 0.1309(10) Uani 1 1 d . . .
Cl4 Cl 1.0079(4) 0.1765(4) 1.46139(17) 0.281(3) Uani 1 1 d . . .
Cd1 Cd 1.00526(3) 0.11898(3) 1.61519(3) 0.07675(15) Uani 1 1 d . . .
C1 C 0.7151(3) 0.5931(3) 0.9838(2) 0.0330(8) Uani 1 1 d . . .
C2 C 0.7214(3) 0.6121(3) 0.8416(3) 0.0379(9) Uani 1 1 d . . .
H2 H 0.6793 0.6555 0.8002 0.045 Uiso 1 1 calc R . .
C3 C 0.6811(3) 0.5171(3) 0.9032(2) 0.0383(9) Uani 1 1 d . . .
H3 H 0.6196 0.5159 0.8909 0.046 Uiso 1 1 calc R . .
C4 C 0.8109(3) 0.4848(3) 0.8234(3) 0.0407(10) Uani 1 1 d . . .
C5 C 0.6389(3) 0.4460(3) 1.0682(3) 0.0362(9) Uani 1 1 d . . .
H5A H 0.6122 0.4774 1.1064 0.043 Uiso 1 1 calc R . .
H5B H 0.5905 0.4210 1.0545 0.043 Uiso 1 1 calc R . .
C6 C 0.7337(3) 0.3454(3) 0.9293(3) 0.0439(10) Uani 1 1 d . . .
H6A H 0.7632 0.3152 0.8910 0.053 Uiso 1 1 calc R . .
H6B H 0.6699 0.3346 0.9397 0.053 Uiso 1 1 calc R . .
C7 C 0.7507(3) 0.3681(3) 1.1736(2) 0.0345(9) Uani 1 1 d . . .
C8 C 0.7232(3) 0.2832(3) 1.0966(3) 0.0370(9) Uani 1 1 d . . .
H8 H 0.6696 0.2484 1.1072 0.044 Uiso 1 1 calc R . .
C9 C 0.7917(3) 0.2246(3) 1.1601(3) 0.0365(9) Uani 1 1 d . . .
H9 H 0.7693 0.1637 1.2036 0.044 Uiso 1 1 calc R . .
C10 C 0.8546(3) 0.2503(3) 1.0193(3) 0.0439(10) Uani 1 1 d . . .
C11 C 0.8534(3) 0.2569(3) 1.2756(2) 0.0368(9) Uani 1 1 d . . .
H11A H 0.8436 0.1902 1.3131 0.044 Uiso 1 1 calc R . .
H11B H 0.8290 0.2949 1.3085 0.044 Uiso 1 1 calc R . .
C12 C 0.9483(3) 0.1476(3) 1.1340(3) 0.0411(10) Uani 1 1 d . . .
H12A H 0.9767 0.1269 1.0886 0.049 Uiso 1 1 calc R . .
H12B H 0.9302 0.0908 1.1852 0.049 Uiso 1 1 calc R . .
C13 C 0.9907(3) 0.3316(3) 1.2629(2) 0.0351(9) Uani 1 1 d . . .
C14 C 1.0108(3) 0.1918(3) 1.2404(2) 0.0349(9) Uani 1 1 d . . .
H14 H 1.0002 0.1285 1.2877 0.042 Uiso 1 1 calc R . .
C15 C 1.1037(3) 0.2226(3) 1.2398(2) 0.0372(9) Uani 1 1 d . . .
H15 H 1.1379 0.1738 1.2862 0.045 Uiso 1 1 calc R . .
C16 C 1.0951(3) 0.2141(3) 1.1073(2) 0.0355(9) Uani 1 1 d . . .
C17 C 1.1461(3) 0.3526(4) 1.2755(3) 0.0426(10) Uani 1 1 d . . .
H17A H 1.1142 0.3863 1.3101 0.051 Uiso 1 1 calc R . .
H17B H 1.1866 0.3015 1.3122 0.051 Uiso 1 1 calc R . .
C18 C 0.7588(3) 0.7481(3) 0.8725(3) 0.0387(9) Uani 1 1 d . . .
H18A H 0.7376 0.7677 0.9201 0.046 Uiso 1 1 calc R . .
H18B H 0.7251 0.7888 0.8234 0.046 Uiso 1 1 calc R . .
C19 C 0.6288(3) 0.7430(3) 1.2914(2) 0.0323(8) Uani 1 1 d . . .
C20 C 0.5651(3) 0.8489(3) 1.3526(3) 0.0377(9) Uani 1 1 d . . .
H20 H 0.5555 0.9186 1.3188 0.045 Uiso 1 1 calc R . .
C21 C 0.6629(3) 0.8180(3) 1.3740(3) 0.0381(9) Uani 1 1 d . . .
H21 H 0.6991 0.8733 1.3538 0.046 Uiso 1 1 calc R . .
C22 C 0.5656(3) 0.7729(3) 1.5031(3) 0.0424(10) Uani 1 1 d . . .
C23 C 0.7846(3) 0.7139(3) 1.3263(3) 0.0363(9) Uani 1 1 d . . .
H23A H 0.8255 0.7560 1.3286 0.044 Uiso 1 1 calc R . .
H23B H 0.8004 0.7082 1.2708 0.044 Uiso 1 1 calc R . .
C24 C 0.7275(3) 0.7303(3) 1.5205(3) 0.0482(11) Uani 1 1 d . . .
H24A H 0.7773 0.7706 1.4917 0.058 Uiso 1 1 calc R . .
H24B H 0.7088 0.7335 1.5767 0.058 Uiso 1 1 calc R . .
C25 C 0.7886(3) 0.5389(3) 1.3903(2) 0.0332(8) Uani 1 1 d . . .
C26 C 0.8263(3) 0.6049(3) 1.4779(3) 0.0389(9) Uani 1 1 d . . .
H26 H 0.8840 0.6322 1.4698 0.047 Uiso 1 1 calc R . .
C27 C 0.8357(3) 0.4950(3) 1.5259(2) 0.0343(9) Uani 1 1 d . . .
H27 H 0.8984 0.4700 1.5379 0.041 Uiso 1 1 calc R . .
C28 C 0.7349(3) 0.5582(3) 1.6101(3) 0.0391(9) Uani 1 1 d . . .
C29 C 0.8209(3) 0.3673(3) 1.4739(3) 0.0377(9) Uani 1 1 d . . .
H29A H 0.8774 0.3390 1.4990 0.045 Uiso 1 1 calc R . .
H29B H 0.8273 0.3679 1.4158 0.045 Uiso 1 1 calc R . .
C30 C 0.7679(3) 0.3849(3) 1.6770(3) 0.0409(10) Uani 1 1 d . . .
H30A H 0.7440 0.3938 1.7300 0.049 Uiso 1 1 calc R . .
H30B H 0.8279 0.3515 1.6856 0.049 Uiso 1 1 calc R . .
C31 C 0.6895(3) 0.2797(3) 1.4939(3) 0.0365(9) Uani 1 1 d . . .
C32 C 0.7433(3) 0.2625(3) 1.6211(2) 0.0332(8) Uani 1 1 d . . .
H32 H 0.7999 0.2251 1.6420 0.040 Uiso 1 1 calc R . .
C33 C 0.6654(3) 0.1983(3) 1.6451(3) 0.0371(9) Uani 1 1 d . . .
H33 H 0.6853 0.1303 1.6771 0.045 Uiso 1 1 calc R . .
C34 C 0.6294(3) 0.3051(3) 1.7121(2) 0.0378(9) Uani 1 1 d . . .
C35 C 0.4187(3) 0.8429(3) 1.4504(3) 0.0413(10) Uani 1 1 d . . .
H35A H 0.4050 0.9091 1.4102 0.050 Uiso 1 1 calc R . .
H35B H 0.4043 0.8393 1.5096 0.050 Uiso 1 1 calc R . .
C36 C 0.4791(3) 0.8154(3) 1.2523(2) 0.0375(9) Uani 1 1 d . . .
H36A H 0.4989 0.7968 1.2039 0.045 Uiso 1 1 calc R . .
H36B H 0.4625 0.8842 1.2277 0.045 Uiso 1 1 calc R . .
N1 N 0.7396(2) 0.6511(3) 0.9000(2) 0.0359(7) Uani 1 1 d . . .
N2 N 0.6807(2) 0.5159(2) 0.9885(2) 0.0367(8) Uani 1 1 d . . .
N3 N 0.8014(2) 0.5821(3) 0.7978(2) 0.0388(8) Uani 1 1 d . . .
N4 N 0.7423(2) 0.4463(3) 0.8856(2) 0.0418(8) Uani 1 1 d . . .
N5 N 0.7010(2) 0.3679(2) 1.1138(2) 0.0371(8) Uani 1 1 d . . .
N6 N 0.8051(2) 0.2875(2) 1.2004(2) 0.0354(7) Uani 1 1 d . . .
N7 N 0.7721(3) 0.2994(3) 1.0121(2) 0.0432(8) Uani 1 1 d . . .
N8 N 0.8695(2) 0.2094(3) 1.1042(2) 0.0403(8) Uani 1 1 d . . .
N9 N 0.9494(2) 0.2661(2) 1.2531(2) 0.0358(7) Uani 1 1 d . . .
N10 N 1.0815(2) 0.3107(3) 1.2515(2) 0.0371(8) Uani 1 1 d . . .
N11 N 1.0143(2) 0.1908(2) 1.1561(2) 0.0362(8) Uani 1 1 d . . .
N12 N 1.1467(2) 0.2364(2) 1.1530(2) 0.0375(8) Uani 1 1 d . . .
N13 N 0.5531(2) 0.7957(2) 1.3025(2) 0.0355(7) Uani 1 1 d . . .
N14 N 0.6950(2) 0.7568(2) 1.3287(2) 0.0365(8) Uani 1 1 d . . .
N15 N 0.5135(2) 0.8181(3) 1.4367(2) 0.0408(8) Uani 1 1 d . . .
N16 N 0.6528(3) 0.7683(3) 1.4679(2) 0.0451(9) Uani 1 1 d . . .
N17 N 0.7982(2) 0.6207(2) 1.3963(2) 0.0358(7) Uani 1 1 d . . .
N18 N 0.8053(2) 0.4635(2) 1.4662(2) 0.0349(7) Uani 1 1 d . . .
N19 N 0.7587(3) 0.6344(3) 1.5351(2) 0.0414(8) Uani 1 1 d . . .
N20 N 0.7756(2) 0.4772(3) 1.6055(2) 0.0384(8) Uani 1 1 d . . .
N21 N 0.7497(2) 0.3087(2) 1.5272(2) 0.0380(8) Uani 1 1 d . . .
N22 N 0.6383(2) 0.2166(3) 1.5614(2) 0.0384(8) Uani 1 1 d . . .
N23 N 0.7103(2) 0.3258(3) 1.6643(2) 0.0381(8) Uani 1 1 d . . .
N24 N 0.6000(2) 0.2334(2) 1.6985(2) 0.0366(8) Uani 1 1 d . . .
O1 O 0.72185(19) 0.6107(2) 1.04725(17) 0.0383(6) Uani 1 1 d . . .
O2 O 0.7456(2) 0.4313(2) 1.19925(18) 0.0415(7) Uani 1 1 d . . .
O3 O 0.9545(2) 0.3983(2) 1.27944(19) 0.0421(7) Uani 1 1 d . . .
O4 O 0.8700(2) 0.4415(2) 0.7938(2) 0.0516(8) Uani 1 1 d . . .
O5 O 0.9059(2) 0.2423(3) 0.9591(2) 0.0621(10) Uani 1 1 d . . .
O6 O 1.1171(2) 0.2135(2) 1.0352(2) 0.0502(8) Uani 1 1 d . . .
O7 O 0.63594(19) 0.6899(2) 1.25374(18) 0.0397(7) Uani 1 1 d . . .
O8 O 0.7691(2) 0.5315(2) 1.32607(18) 0.0408(7) Uani 1 1 d . . .
O9 O 0.6836(2) 0.3039(2) 1.41660(18) 0.0467(7) Uani 1 1 d . . .
O10 O 0.5400(3) 0.7426(3) 1.5804(2) 0.0597(9) Uani 1 1 d . . .
O11 O 0.6868(2) 0.5642(3) 1.6725(2) 0.0509(8) Uani 1 1 d . . .
O12 O 0.5902(2) 0.3433(2) 1.7581(2) 0.0502(8) Uani 1 1 d . . .

loop_
_atom_site_aniso_label
_atom_site_aniso_U_11
_atom_site_aniso_U_22
_atom_site_aniso_U_33
_atom_site_aniso_U_23
_atom_site_aniso_U_13
_atom_site_aniso_U_12
Cl5 0.0517(8) 0.0882(10) 0.0749(9) -0.0312(8) -0.0218(7) -0.0038(7)
O1W 0.0364(16) 0.068(2) 0.0352(15) -0.0256(15) -0.0050(12) 0.0045(14)
O2W 0.0526(19) 0.0427(17) 0.0450(16) -0.0217(14) 0.0088(14) -0.0075(14)
O3W 0.0393(17) 0.0515(18) 0.0413(16) -0.0154(14) 0.0056(13) -0.0046(13)
O4W 0.0332(16) 0.065(2) 0.0451(17) -0.0201(15) 0.0030(13) -0.0003(14)
Dy1 0.03041(12) 0.04210(12) 0.02719(11) -0.01998(8) -0.00144(7) 0.00094(8)
Cl1 0.0464(8) 0.0930(12) 0.1368(16) -0.0437(11) -0.0140(9) -0.0089(8)
Cl2 0.0563(9) 0.0606(9) 0.202(2) -0.0375(12) 0.0094(12) -0.0009(7)
Cl3 0.0496(9) 0.0896(13) 0.161(2) 0.0299(12) 0.0035(10) 0.0015(8)
Cl4 0.395(7) 0.264(5) 0.0595(14) -0.007(2) -0.020(2) 0.154(5)
Cd1 0.0597(3) 0.0638(3) 0.0715(3) 0.0013(2) -0.0014(2) 0.0031(2)
C1 0.0267(19) 0.043(2) 0.0310(19) -0.0188(17) -0.0040(16) 0.0045(16)
C2 0.029(2) 0.059(3) 0.033(2) -0.0253(19) -0.0091(17) 0.0003(18)
C3 0.032(2) 0.058(3) 0.0314(19) -0.0231(19) -0.0092(17) 0.0001(18)
C4 0.036(2) 0.064(3) 0.032(2) -0.028(2) -0.0104(18) -0.003(2)
C5 0.029(2) 0.048(2) 0.035(2) -0.0227(18) -0.0002(16) 0.0007(17)
C6 0.048(3) 0.056(3) 0.042(2) -0.032(2) -0.009(2) -0.006(2)
C7 0.029(2) 0.045(2) 0.0302(19) -0.0170(17) 0.0038(16) -0.0056(17)
C8 0.035(2) 0.042(2) 0.039(2) -0.0208(18) 0.0009(17) -0.0107(17)
C9 0.036(2) 0.040(2) 0.039(2) -0.0220(18) 0.0031(17) -0.0085(17)
C10 0.042(3) 0.051(3) 0.045(2) -0.027(2) -0.004(2) -0.004(2)
C11 0.034(2) 0.046(2) 0.0313(19) -0.0191(17) 0.0008(16) -0.0017(17)
C12 0.043(2) 0.035(2) 0.051(2) -0.0252(19) -0.002(2) -0.0009(18)
C13 0.039(2) 0.043(2) 0.0238(18) -0.0140(17) -0.0043(16) -0.0033(18)
C14 0.037(2) 0.033(2) 0.0290(18) -0.0105(16) 0.0015(16) 0.0013(16)
C15 0.037(2) 0.045(2) 0.0274(18) -0.0158(17) -0.0032(16) 0.0042(18)
C16 0.039(2) 0.035(2) 0.0306(19) -0.0136(16) -0.0013(17) -0.0013(17)
C17 0.038(2) 0.069(3) 0.030(2) -0.031(2) -0.0035(17) -0.003(2)
C18 0.034(2) 0.044(2) 0.040(2) -0.0223(19) -0.0035(18) 0.0076(17)
C19 0.031(2) 0.038(2) 0.0295(18) -0.0159(17) 0.0013(16) -0.0038(16)
C20 0.045(2) 0.034(2) 0.038(2) -0.0173(17) -0.0023(18) -0.0075(17)
C21 0.046(2) 0.031(2) 0.041(2) -0.0170(17) -0.0037(19) -0.0090(17)
C22 0.049(3) 0.046(2) 0.042(2) -0.029(2) -0.001(2) -0.002(2)
C23 0.033(2) 0.040(2) 0.034(2) -0.0145(17) 0.0016(17) -0.0055(17)
C24 0.053(3) 0.059(3) 0.051(3) -0.038(2) -0.013(2) -0.007(2)
C25 0.0240(19) 0.044(2) 0.0321(19) -0.0161(17) -0.0036(15) -0.0013(16)
C26 0.030(2) 0.056(3) 0.035(2) -0.0221(19) -0.0028(17) -0.0106(18)
C27 0.027(2) 0.049(2) 0.0310(19) -0.0203(18) -0.0024(16) -0.0043(17)
C28 0.035(2) 0.055(3) 0.036(2) -0.025(2) -0.0066(18) -0.0057(19)
C29 0.031(2) 0.052(2) 0.0315(19) -0.0213(18) 0.0027(16) -0.0004(18)
C30 0.040(2) 0.059(3) 0.0287(19) -0.0207(19) -0.0056(17) -0.006(2)
C31 0.037(2) 0.039(2) 0.036(2) -0.0210(18) -0.0046(17) 0.0077(17)
C32 0.030(2) 0.039(2) 0.0290(18) -0.0147(16) -0.0063(16) 0.0066(16)
C33 0.034(2) 0.040(2) 0.037(2) -0.0187(18) -0.0012(17) 0.0051(17)
C34 0.033(2) 0.051(2) 0.0303(19) -0.0193(18) -0.0020(17) -0.0007(18)
C35 0.040(2) 0.048(2) 0.047(2) -0.033(2) 0.0027(19) -0.0028(19)
C36 0.042(2) 0.036(2) 0.0305(19) -0.0117(17) -0.0011(17) -0.0028(17)
N1 0.0310(18) 0.050(2) 0.0285(16) -0.0198(15) -0.0020(13) -0.0002(15)
N2 0.0353(18) 0.047(2) 0.0298(16) -0.0180(15) -0.0046(14) -0.0014(15)
N3 0.0334(18) 0.057(2) 0.0334(17) -0.0266(16) -0.0009(14) -0.0054(16)
N4 0.037(2) 0.058(2) 0.0402(18) -0.0312(17) -0.0002(15) -0.0027(16)
N5 0.0388(19) 0.0398(18) 0.0368(17) -0.0207(15) -0.0015(15) -0.0033(15)
N6 0.0367(19) 0.0372(18) 0.0364(17) -0.0201(15) -0.0028(14) -0.0011(14)
N7 0.041(2) 0.060(2) 0.0375(18) -0.0301(17) -0.0037(16) -0.0008(17)
N8 0.0375(19) 0.049(2) 0.0409(19) -0.0269(17) 0.0033(15) -0.0060(16)
N9 0.0351(18) 0.0376(18) 0.0363(17) -0.0186(15) -0.0008(14) -0.0004(14)
N10 0.0325(18) 0.049(2) 0.0337(17) -0.0217(15) -0.0020(14) -0.0029(15)
N11 0.0335(18) 0.0398(18) 0.0386(17) -0.0213(15) 0.0004(15) -0.0019(14)
N12 0.0366(19) 0.0425(19) 0.0307(16) -0.0149(15) 0.0025(14) -0.0029(15)
N13 0.0352(18) 0.0422(19) 0.0362(17) -0.0241(15) -0.0015(1