####################################################################### 
# 
# This file contains crystal structure data downloaded from the 
# Cambridge Structural Database (CSD) hosted by the Cambridge 
# Crystallographic Data Centre (CCDC).
# 
# Full information about CCDC data access policies and citation 
# guidelines are available at http://www.ccdc.cam.ac.uk/access/V1 
# 
# Audit and citation data items may have been added by the CCDC. 
# Please retain this information to preserve the provenance of 
# this file and to allow appropriate attribution of the data. 
# 
#######################################################################

data_p211
_audit_block_doi                 10.5517/ccz97hz
_database_code_depnum_ccdc_archive 'CCDC 902611'
loop_
_citation_id
_citation_doi
_citation_year
1 10.1039/C3CE40568K 2013
_audit_update_record             
;
2012-09-22 deposited with the CCDC.	2024-07-11 downloaded from the CCDC.
;
#TrackingRef 'submit-211.cif'


_audit_creation_method           SHELXL-97
_chemical_name_systematic        
;
?
;
_chemical_name_common            ?
_chemical_melting_point          ?
_chemical_formula_moiety         ?
_chemical_formula_sum            'C36 H138 Cd Cl5 Ho N24 O63'
_chemical_formula_weight         2370.28

loop_
_atom_type_symbol
_atom_type_description
_atom_type_scat_dispersion_real
_atom_type_scat_dispersion_imag
_atom_type_scat_source
C C 0.0033 0.0016 'International Tables Vol C Tables 4.2.6.8 and 6.1.1.4'
H H 0.0000 0.0000 'International Tables Vol C Tables 4.2.6.8 and 6.1.1.4'
N N 0.0061 0.0033 'International Tables Vol C Tables 4.2.6.8 and 6.1.1.4'
O O 0.0106 0.0060 'International Tables Vol C Tables 4.2.6.8 and 6.1.1.4'
Cl Cl 0.1484 0.1585 'International Tables Vol C Tables 4.2.6.8 and 6.1.1.4'
Cd Cd -0.8075 1.2024 'International Tables Vol C Tables 4.2.6.8 and 6.1.1.4'
Ho Ho -0.2175 4.6783 'International Tables Vol C Tables 4.2.6.8 and 6.1.1.4'

_symmetry_cell_setting           triclinic
_symmetry_space_group_name_H-M   'P -1'
_symmetry_space_group_name_Hall  '-P 1'

loop_
_symmetry_equiv_pos_as_xyz
'x, y, z'
'-x, -y, -z'

_cell_length_a                   15.135(3)
_cell_length_b                   15.617(3)
_cell_length_c                   17.079(4)
_cell_angle_alpha                64.870(8)
_cell_angle_beta                 80.916(8)
_cell_angle_gamma                81.719(8)
_cell_volume                     3595.4(13)
_cell_formula_units_Z            2
_cell_measurement_temperature    223(2)
_cell_measurement_reflns_used    ?
_cell_measurement_theta_min      ?
_cell_measurement_theta_max      ?

_exptl_crystal_description       block
_exptl_crystal_colour            colorless
_exptl_crystal_size_max          0.17
_exptl_crystal_size_mid          0.14
_exptl_crystal_size_min          0.13
_exptl_crystal_density_meas      ?
_exptl_crystal_density_diffrn    2.189
_exptl_crystal_density_method    'not measured'
_exptl_crystal_F_000             2452
_exptl_absorpt_coefficient_mu    1.729
_exptl_absorpt_correction_type   multi-scan
_exptl_absorpt_correction_T_min  0.7576
_exptl_absorpt_correction_T_max  0.8064
_exptl_absorpt_process_details   'SADABS (Bruker, 2008)'

_exptl_special_details           
;
?
;

_diffrn_ambient_temperature      223(2)
_diffrn_radiation_wavelength     0.71073
_diffrn_radiation_type           MoK\a
_diffrn_radiation_source         'fine-focus sealed tube'
_diffrn_radiation_monochromator  graphite
_diffrn_measurement_device_type  'Bruker CCD Area Detector'
_diffrn_measurement_method       '\f and \w scan'
_diffrn_detector_area_resol_mean ?
_diffrn_standards_number         ?
_diffrn_standards_interval_count ?
_diffrn_standards_interval_time  ?
_diffrn_standards_decay_%        ?
_diffrn_reflns_number            42765
_diffrn_reflns_av_R_equivalents  0.0539
_diffrn_reflns_av_sigmaI/netI    0.0695
_diffrn_reflns_limit_h_min       -18
_diffrn_reflns_limit_h_max       18
_diffrn_reflns_limit_k_min       -18
_diffrn_reflns_limit_k_max       19
_diffrn_reflns_limit_l_min       -20
_diffrn_reflns_limit_l_max       21
_diffrn_reflns_theta_min         1.32
_diffrn_reflns_theta_max         26.00
_reflns_number_total             13863
_reflns_number_gt                9346
_reflns_threshold_expression     >2sigma(I)

_computing_data_collection       ?
_computing_cell_refinement       ?
_computing_data_reduction        ?
_computing_structure_solution    ?
_computing_structure_refinement  'SHELXL-97 (Sheldrick, 1997)'
_computing_molecular_graphics    ?
_computing_publication_material  ?

_refine_special_details          
;
Refinement of F^2^ against ALL reflections. The weighted R-factor wR and
goodness of fit S are based on F^2^, conventional R-factors R are based
on F, with F set to zero for negative F^2^. The threshold expression of
F^2^ > 2sigma(F^2^) is used only for calculating R-factors(gt) etc. and is
not relevant to the choice of reflections for refinement. R-factors based
on F^2^ are statistically about twice as large as those based on F, and R-
factors based on ALL data will be even larger.
;

_refine_ls_structure_factor_coef Fsqd
_refine_ls_matrix_type           full
_refine_ls_weighting_scheme      calc
_refine_ls_weighting_details     
'calc w=1/[\s^2^(Fo^2^)+(0.2000P)^2^+0.0000P] where P=(Fo^2^+2Fc^2^)/3'
_atom_sites_solution_primary     direct
_atom_sites_solution_secondary   difmap
_atom_sites_solution_hydrogens   geom
_refine_ls_hydrogen_treatment    constr
_refine_ls_extinction_method     none
_refine_ls_extinction_coef       ?
_refine_ls_number_reflns         13863
_refine_ls_number_parameters     750
_refine_ls_number_restraints     0
_refine_ls_R_factor_all          0.1497
_refine_ls_R_factor_gt           0.1247
_refine_ls_wR_factor_ref         0.3823
_refine_ls_wR_factor_gt          0.3566
_refine_ls_goodness_of_fit_ref   1.436
_refine_ls_restrained_S_all      1.436
_refine_ls_shift/su_max          0.001
_refine_ls_shift/su_mean         0.000

loop_
_atom_site_label
_atom_site_type_symbol
_atom_site_fract_x
_atom_site_fract_y
_atom_site_fract_z
_atom_site_U_iso_or_equiv
_atom_site_adp_type
_atom_site_occupancy
_atom_site_symmetry_multiplicity
_atom_site_calc_flag
_atom_site_refinement_flags
_atom_site_disorder_assembly
_atom_site_disorder_group
Cl5 Cl 1.01248(18) 0.1972(2) 0.9559(2) 0.0444(8) Uani 1 1 d . . .
Cl1 Cl 1.4877(2) -0.2408(3) 0.6507(3) 0.0663(11) Uani 1 1 d . . .
Cl2 Cl 1.3757(2) -0.4686(3) 0.6953(4) 0.0804(15) Uani 1 1 d . . .
Cl3 Cl 1.6481(2) -0.4698(4) 0.6627(4) 0.100(2) Uani 1 1 d . . .
Cl4 Cl 1.5103(10) -0.3290(8) 0.4606(4) 0.235(8) Uani 1 1 d . . .
Cd1 Cd 1.50566(6) -0.38116(7) 0.61544(6) 0.0520(3) Uani 1 1 d . . .
O1W O 0.7396(4) -0.2351(5) 0.8867(4) 0.0225(14) Uani 1 1 d . . .
O2W O 0.9330(4) -0.1341(5) 0.8562(4) 0.0228(15) Uani 1 1 d . . .
O3W O 0.8954(4) 0.0165(5) 0.6974(4) 0.0232(15) Uani 1 1 d . . .
O4W O 0.6324(4) -0.0655(5) 0.8363(4) 0.0270(16) Uani 1 1 d . . .
Ho1 Ho 0.79115(5) -0.08430(5) 0.80612(4) 0.0550(3) Uani 1 1 d . . .
C1 C 0.7496(5) 0.1314(7) 0.8260(5) 0.0146(18) Uani 1 1 d . . .
C2 C 0.7076(5) 0.2764(6) 0.8397(6) 0.0124(17) Uani 1 1 d . . .
H2 H 0.7292 0.3373 0.7959 0.015 Uiso 1 1 calc R . .
C3 C 0.7775(5) 0.2179(6) 0.9033(5) 0.0123(17) Uani 1 1 d . . .
H3 H 0.8313 0.2518 0.8937 0.015 Uiso 1 1 calc R . .
C4 C 0.6448(7) 0.2476(7) 0.9810(6) 0.023(2) Uani 1 1 d . . .
C5 C 0.8621(5) 0.0527(6) 0.9306(5) 0.0137(17) Uani 1 1 d . . .
H5A H 0.9108 0.0775 0.9442 0.016 Uiso 1 1 calc R . .
H5B H 0.8882 0.0213 0.8923 0.016 Uiso 1 1 calc R . .
C6 C 0.7676(7) 0.1553(7) 1.0696(6) 0.023(2) Uani 1 1 d . . .
H6A H 0.8313 0.1666 1.0576 0.028 Uiso 1 1 calc R . .
H6B H 0.7389 0.1857 1.1081 0.028 Uiso 1 1 calc R . .
C7 C 0.7851(5) -0.0925(6) 1.0156(5) 0.0110(17) Uani 1 1 d . . .
C8 C 0.8204(6) -0.0167(7) 1.0962(5) 0.0164(18) Uani 1 1 d . . .
H8 H 0.8822 -0.0156 1.1077 0.020 Uiso 1 1 calc R . .
C9 C 0.7798(5) -0.1120(7) 1.1581(5) 0.0146(18) Uani 1 1 d . . .
H9 H 0.8216 -0.1561 1.1997 0.017 Uiso 1 1 calc R . .
C10 C 0.6880(5) 0.0133(8) 1.1777(6) 0.020(2) Uani 1 1 d . . .
C11 C 0.7417(5) -0.2471(7) 1.1242(5) 0.0157(18) Uani 1 1 d . . .
H11A H 0.7776 -0.2879 1.1718 0.019 Uiso 1 1 calc R . .
H11B H 0.7610 -0.2654 1.0754 0.019 Uiso 1 1 calc R . .
C12 C 0.6470(6) -0.1437(8) 1.2748(5) 0.020(2) Uani 1 1 d . . .
H12A H 0.6134 -0.1087 1.3076 0.024 Uiso 1 1 calc R . .
H12B H 0.6879 -0.1927 1.3129 0.024 Uiso 1 1 calc R . .
C13 C 0.5961(6) -0.2840(6) 1.1050(6) 0.0147(17) Uani 1 1 d . . .
C14 C 0.6022(6) -0.2749(7) 1.2382(5) 0.0174(19) Uani 1 1 d . . .
H14 H 0.6359 -0.3238 1.2850 0.021 Uiso 1 1 calc R . .
C15 C 0.5124(6) -0.3073(6) 1.2399(5) 0.0132(17) Uani 1 1 d . . .
H15 H 0.5035 -0.3707 1.2875 0.016 Uiso 1 1 calc R . .
C16 C 0.4927(5) -0.1686(7) 1.2623(5) 0.0140(18) Uani 1 1 d . . .
C17 C 0.4489(6) -0.3507(7) 1.1341(6) 0.0180(19) Uani 1 1 d . . .
H17A H 0.4772 -0.3709 1.0883 0.022 Uiso 1 1 calc R . .
H17B H 0.4314 -0.4076 1.1853 0.022 Uiso 1 1 calc R . .
C18 C 0.3549(5) -0.2410(7) 1.2757(5) 0.0146(17) Uani 1 1 d . . .
H18A H 0.3312 -0.2016 1.3075 0.018 Uiso 1 1 calc R . .
H18B H 0.3444 -0.3069 1.3147 0.018 Uiso 1 1 calc R . .
C19 C 0.7111(5) -0.0375(6) 0.6106(5) 0.0100(16) Uani 1 1 d . . .
C20 C 0.6637(5) 0.0056(7) 0.4754(5) 0.017(2) Uani 1 1 d . . .
H20 H 0.6013 0.0314 0.4632 0.020 Uiso 1 1 calc R . .
C21 C 0.6711(5) -0.1029(7) 0.5222(5) 0.0144(18) Uani 1 1 d . . .
H21 H 0.6133 -0.1295 0.5293 0.017 Uiso 1 1 calc R . .
C22 C 0.7646(6) -0.0566(7) 0.3910(6) 0.019(2) Uani 1 1 d . . .
C23 C 0.7136(6) -0.2105(7) 0.6748(6) 0.0180(19) Uani 1 1 d . . .
H23A H 0.6723 -0.2524 0.6731 0.022 Uiso 1 1 calc R . .
H23B H 0.6983 -0.2041 0.7302 0.022 Uiso 1 1 calc R . .
C24 C 0.7708(6) -0.2305(7) 0.4808(6) 0.021(2) Uani 1 1 d . . .
H24A H 0.7206 -0.2701 0.5091 0.025 Uiso 1 1 calc R . .
H24B H 0.7902 -0.2341 0.4246 0.025 Uiso 1 1 calc R . .
C25 C 0.8720(6) -0.2407(6) 0.7073(5) 0.0152(18) Uani 1 1 d . . .
C26 C 0.8362(6) -0.3164(7) 0.6258(6) 0.021(2) Uani 1 1 d . . .
H26 H 0.8001 -0.3714 0.6460 0.025 Uiso 1 1 calc R . .
C27 C 0.9342(6) -0.3471(6) 0.6486(5) 0.0121(17) Uani 1 1 d . . .
H27 H 0.9442 -0.4164 0.6827 0.014 Uiso 1 1 calc R . .
C28 C 0.9327(6) -0.2697(7) 0.4966(6) 0.021(2) Uani 1 1 d . . .
C29 C 1.0209(5) -0.3140(7) 0.7488(5) 0.0145(18) Uani 1 1 d . . .
H29A H 1.0016 -0.2955 0.7974 0.017 Uiso 1 1 calc R . .
H29B H 1.0373 -0.3826 0.7733 0.017 Uiso 1 1 calc R . .
C30 C 1.0806(6) -0.3414(7) 0.5499(6) 0.0204(19) Uani 1 1 d . . .
H30A H 1.0938 -0.4074 0.5903 0.025 Uiso 1 1 calc R . .
H30B H 1.0956 -0.3378 0.4907 0.025 Uiso 1 1 calc R . .
C31 C 1.1287(5) -0.1945(8) 0.7118(6) 0.019(2) Uani 1 1 d . . .
C32 C 1.1668(6) -0.3009(7) 0.6458(5) 0.0163(18) Uani 1 1 d . . .
H32 H 1.1868 -0.3687 0.6782 0.020 Uiso 1 1 calc R . .
C33 C 1.2435(5) -0.2384(6) 0.6210(5) 0.0133(17) Uani 1 1 d . . .
H33 H 1.3004 -0.2759 0.6413 0.016 Uiso 1 1 calc R . .
C34 C 1.1885(6) -0.2211(6) 0.4945(5) 0.0154(18) Uani 1 1 d . . .
C35 C 1.2673(6) -0.1168(7) 0.6782(5) 0.0162(18) Uani 1 1 d . . .
H35A H 1.3269 -0.1509 0.6885 0.019 Uiso 1 1 calc R . .
H35B H 1.2420 -0.1070 0.7306 0.019 Uiso 1 1 calc R . .
C36 C 0.6803(5) 0.1332(6) 0.5268(5) 0.0126(17) Uani 1 1 d . . .
H36A H 0.6751 0.1320 0.5852 0.015 Uiso 1 1 calc R . .
H36B H 0.6233 0.1621 0.5027 0.015 Uiso 1 1 calc R . .
N1 N 0.6949(5) 0.2119(5) 0.7994(4) 0.0126(14) Uani 1 1 d . . .
N2 N 0.7983(5) 0.1299(5) 0.8868(5) 0.0146(15) Uani 1 1 d . . .
N3 N 0.6298(5) 0.2903(6) 0.8948(5) 0.0209(17) Uani 1 1 d . . .
N4 N 0.7267(5) 0.1990(6) 0.9881(5) 0.0226(18) Uani 1 1 d . . .
N5 N 0.8184(5) -0.0159(5) 1.0108(4) 0.0136(15) Uani 1 1 d . . .
N6 N 0.7594(4) -0.1498(6) 1.0974(4) 0.0135(15) Uani 1 1 d . . .
N7 N 0.7594(5) 0.0538(6) 1.1141(5) 0.0221(17) Uani 1 1 d . . .
N8 N 0.6984(4) -0.0801(6) 1.2016(4) 0.0138(15) Uani 1 1 d . . .
N9 N 0.6483(4) -0.2636(6) 1.1527(4) 0.0147(15) Uani 1 1 d . . .
N10 N 0.5139(5) -0.3086(6) 1.1559(5) 0.0181(16) Uani 1 1 d . . .
N11 N 0.5827(5) -0.1905(6) 1.2517(5) 0.0162(16) Uani 1 1 d . . .
N12 N 0.4500(5) -0.2339(5) 1.2542(4) 0.0124(14) Uani 1 1 d . . .
N13 N 0.6940(5) 0.0376(5) 0.5341(4) 0.0129(15) Uani 1 1 d . . .
N14 N 0.7000(5) -0.1194(5) 0.6056(4) 0.0144(15) Uani 1 1 d . . .
N15 N 0.7236(5) 0.0245(6) 0.3953(4) 0.0153(16) Uani 1 1 d . . .
N16 N 0.7400(5) -0.1320(6) 0.4658(5) 0.0188(16) Uani 1 1 d . . .
N17 N 0.8048(5) -0.2552(5) 0.6727(5) 0.0125(14) Uani 1 1 d . . .
N18 N 0.9459(4) -0.2935(5) 0.6980(4) 0.0119(14) Uani 1 1 d . . .
N19 N 0.8451(5) -0.2677(6) 0.5350(5) 0.0219(17) Uani 1 1 d . . .
N20 N 0.9857(5) -0.3158(6) 0.5626(5) 0.0182(16) Uani 1 1 d . . .
N21 N 1.0990(5) -0.2660(5) 0.6994(4) 0.0140(15) Uani 1 1 d . . .
N22 N 1.2119(5) -0.1725(5) 0.6638(5) 0.0153(15) Uani 1 1 d . . .
N23 N 1.1367(5) -0.2839(6) 0.5622(5) 0.0174(16) Uani 1 1 d . . .
N24 N 1.2491(5) -0.1920(5) 0.5270(4) 0.0136(15) Uani 1 1 d . . .
O1 O 0.7546(4) 0.0682(4) 0.8001(4) 0.0180(13) Uani 1 1 d . . .
O2 O 0.7777(4) -0.1080(5) 0.9507(4) 0.0158(13) Uani 1 1 d . . .
O3 O 0.6167(4) -0.2834(6) 1.0343(4) 0.0290(17) Uani 1 1 d . . .
O4 O 0.5925(5) 0.2574(6) 1.0408(5) 0.0344(18) Uani 1 1 d . . .
O5 O 0.6303(4) 0.0576(6) 1.2067(5) 0.0276(16) Uani 1 1 d . . .
O6 O 0.4549(4) -0.1006(5) 1.2793(4) 0.0191(13) Uani 1 1 d . . .
O7 O 0.7318(4) -0.0285(5) 0.6745(4) 0.0205(14) Uani 1 1 d . . .
O8 O 0.8631(4) -0.1863(4) 0.7467(4) 0.0141(12) Uani 1 1 d . . .
O9 O 1.0910(4) -0.1538(6) 0.7573(5) 0.0278(16) Uani 1 1 d . . .
O10 O 0.8142(5) -0.0657(6) 0.3288(4) 0.0277(16) Uani 1 1 d . . .
O11 O 0.9583(5) -0.2440(6) 0.4215(4) 0.0331(17) Uani 1 1 d . . .
O12 O 1.1827(5) -0.1962(6) 0.4159(4) 0.0261(16) Uani 1 1 d . . .

loop_
_atom_site_aniso_label
_atom_site_aniso_U_11
_atom_site_aniso_U_22
_atom_site_aniso_U_33
_atom_site_aniso_U_23
_atom_site_aniso_U_13
_atom_site_aniso_U_12
Cl5 0.0293(13) 0.055(2) 0.0524(18) -0.0225(15) -0.0174(12) 0.0012(13)
Cl1 0.0312(16) 0.060(2) 0.103(3) -0.025(2) -0.0105(17) -0.0106(15)
Cl2 0.0390(18) 0.036(2) 0.148(4) -0.027(2) 0.009(2) -0.0026(15)
Cl3 0.0294(17) 0.071(3) 0.119(4) 0.033(3) 0.002(2) 0.0032(17)
Cl4 0.369(17) 0.208(10) 0.033(3) -0.009(4) -0.021(5) 0.136(11)
Cd1 0.0391(5) 0.0385(6) 0.0438(6) 0.0114(4) 0.0010(4) 0.0056(4)
O1W 0.032(4) 0.015(3) 0.022(3) -0.012(3) 0.012(3) -0.006(3)
O2W 0.010(3) 0.048(5) 0.014(3) -0.019(3) 0.003(2) 0.003(3)
O3W 0.018(3) 0.031(4) 0.016(3) -0.009(3) 0.008(2) 0.000(3)
O4W 0.020(3) 0.036(4) 0.015(3) -0.005(3) 0.010(3) 0.000(3)
Ho1 0.0566(5) 0.0615(5) 0.0488(5) -0.0261(4) -0.0046(3) -0.0011(3)
C1 0.013(4) 0.023(5) 0.004(4) -0.002(4) 0.001(3) -0.001(3)
C2 0.014(4) 0.007(4) 0.017(4) -0.006(3) -0.002(3) 0.000(3)
C3 0.014(4) 0.013(4) 0.011(4) -0.007(3) 0.001(3) -0.001(3)
C4 0.029(5) 0.026(6) 0.017(5) -0.014(4) 0.001(4) 0.001(4)
C5 0.012(4) 0.018(5) 0.012(4) -0.008(4) 0.001(3) 0.000(3)
C6 0.039(5) 0.025(5) 0.013(4) -0.013(4) -0.020(4) 0.008(4)
C7 0.001(3) 0.023(5) 0.010(4) -0.010(4) -0.005(3) 0.010(3)
C8 0.021(4) 0.026(5) 0.007(4) -0.010(4) -0.004(3) -0.003(4)
C9 0.009(4) 0.032(5) 0.010(4) -0.017(4) -0.002(3) 0.003(3)
C10 0.008(4) 0.051(7) 0.014(4) -0.026(5) 0.002(3) -0.007(4)
C11 0.014(4) 0.024(5) 0.011(4) -0.011(4) -0.005(3) 0.007(3)
C12 0.013(4) 0.045(6) 0.004(4) -0.011(4) -0.004(3) -0.006(4)
C13 0.018(4) 0.013(5) 0.014(4) -0.008(4) 0.005(3) -0.004(3)
C14 0.016(4) 0.023(5) 0.006(4) -0.003(4) 0.002(3) 0.004(4)
C15 0.021(4) 0.008(4) 0.007(4) -0.001(3) 0.001(3) 0.002(3)
C16 0.013(4) 0.025(5) 0.004(4) -0.008(4) -0.006(3) 0.007(3)
C17 0.016(4) 0.018(5) 0.025(5) -0.015(4) -0.004(4) 0.005(3)
C18 0.016(4) 0.017(5) 0.009(4) -0.005(3) 0.006(3) -0.001(3)
C19 0.004(3) 0.018(5) 0.006(4) -0.005(3) 0.001(3) 0.004(3)
C20 0.008(4) 0.046(6) 0.004(4) -0.017(4) -0.003(3) -0.003(4)
C21 0.014(4) 0.027(5) 0.010(4) -0.014(4) -0.006(3) -0.001(3)
C22 0.016(4) 0.029(6) 0.012(4) -0.007(4) -0.004(3) -0.008(4)
C23 0.013(4) 0.025(5) 0.014(4) -0.007(4) -0.002(3) -0.002(4)
C24 0.031(5) 0.017(5) 0.021(5) -0.010(4) -0.014(4) 0.001(4)
C25 0.023(4) 0.013(5) 0.007(4) -0.003(3) 0.005(3) -0.008(4)
C26 0.026(5) 0.019(5) 0.024(5) -0.018(4) 0.007(4) -0.003(4)
C27 0.023(4) 0.008(4) 0.008(4) -0.007(3) 0.007(3) -0.008(3)
C28 0.028(5) 0.024(5) 0.023(5) -0.025(4) 0.002(4) 0.006(4)
C29 0.012(4) 0.024(5) 0.009(4) -0.010(4) 0.004(3) -0.001(3)
C30 0.027(5) 0.022(5) 0.016(4) -0.015(4) 0.006(4) 0.003(4)
C31 0.010(4) 0.039(6) 0.010(4) -0.016(4) 0.002(3) 0.004(4)
C32 0.024(4) 0.019(5) 0.007(4) -0.011(4) 0.002(3) 0.011(4)
C33 0.013(4) 0.016(5) 0.006(4) -0.005(3) 0.002(3) 0.010(3)
C34 0.022(4) 0.012(4) 0.011(4) -0.005(3) 0.000(3) 0.003(3)
C35 0.023(4) 0.020(5) 0.005(4) -0.004(4) -0.005(3) -0.002(4)
C36 0.011(4) 0.015(5) 0.008(4) -0.003(3) 0.005(3) 0.000(3)
N1 0.016(3) 0.014(4) 0.013(3) -0.008(3) -0.003(3) -0.005(3)
N2 0.020(4) 0.016(4) 0.013(3) -0.013(3) 0.001(3) 0.004(3)
N3 0.030(4) 0.024(5) 0.012(4) -0.013(3) 0.006(3) -0.004(3)
N4 0.026(4) 0.034(5) 0.014(4) -0.017(4) -0.007(3) 0.008(4)
N5 0.023(4) 0.020(4) 0.002(3) -0.009(3) 0.005(3) -0.005(3)
N6 0.014(3) 0.024(4) 0.003(3) -0.009(3) 0.001(3) 0.006(3)
N7 0.026(4) 0.023(5) 0.018(4) -0.011(3) 0.007(3) -0.007(3)
N8 0.013(3) 0.024(4) 0.009(3) -0.012(3) 0.005(3) -0.007(3)
N9 0.010(3) 0.023(4) 0.009(3) -0.009(3) 0.008(3) 0.000(3)
N10 0.015(3) 0.025(4) 0.016(4) -0.011(3) 0.006(3) -0.006(3)
N11 0.013(3) 0.030(5) 0.012(3) -0.016(3) 0.004(3) -0.006(3)
N12 0.017(3) 0.011(4) 0.007(3) -0.003(3) -0.001(3) -0.002(3)
N13 0.019(3) 0.014(4) 0.011(3) -0.010(3) -0.005(3) 0.003(3)
N14 0.021(4) 0.016(4) 0.004(3) -0.002(3) -0.005(3) 0.001(3)
N15 0.016(3) 0.025(4) 0.005(3) -0.007(3) 0.006(3) -0.007(3)
N16 0.017(4) 0.028(5) 0.016(4) -0.015(4) 0.000(3) 0.001(3)
N17 0.017(3) 0.014(4) 0.014(3) -0.014(3) -0.004(3) 0.004(3)
N18 0.015(3) 0.017(4) 0.011(3) -0.015(3) 0.002(3) 0.002(3)
N19 0.026(4) 0.025(5) 0.019(4) -0.013(4) -0.011(3) 0.008(3)
N20 0.022(4) 0.025(4) 0.013(4) -0.014(3) 0.005(3) -0.005(3)
N21 0.015(3) 0.018(4) 0.011(3) -0.012(3) 0.007(3) 0.001(3)
N22 0.022(4) 0.016(4) 0.014(4) -0.013(3) 0.009(3) -0.008(3)
N23 0.026(4) 0.025(4) 0.009(3) -0.014(3) 0.004(3) -0.008(3)
N24 0.018(3) 0.016(4) 0.007(3) -0.008(3) 0.003(3) 0.001(3)
O1 0.031(3) 0.014(3) 0.012(3) -0.009(3) -0.002(2) 0.004(3)
O2 0.025(3) 0.021(3) 0.009(3) -0.015(3) 0.005(2) -0.004(3)
O3 0.025(3) 0.047(5) 0.022(4) -0.024(3) 0.015(3) -0.012(3)
O4 0.031(4) 0.055(5) 0.018(4) -0.023(4) 0.007(3) 0.010(3)
O5 0.023(3) 0.038(4) 0.034(4) -0.029(4) 0.006(3) -0.005(3)