####################################################################### 
# 
# This file contains crystal structure data downloaded from the 
# Cambridge Structural Database (CSD) hosted by the Cambridge 
# Crystallographic Data Centre (CCDC).
# 
# Full information about CCDC data access policies and citation 
# guidelines are available at http://www.ccdc.cam.ac.uk/access/V1 
# 
# Audit and citation data items may have been added by the CCDC. 
# Please retain this information to preserve the provenance of 
# this file and to allow appropriate attribution of the data. 
# 
#######################################################################

data_p212
_audit_block_doi                 10.5517/ccz97j0
_database_code_depnum_ccdc_archive 'CCDC 902612'
loop_
_citation_id
_citation_doi
_citation_year
1 10.1039/C3CE40568K 2013
_audit_update_record             
;
2012-09-22 deposited with the CCDC.	2024-07-11 downloaded from the CCDC.
;
#TrackingRef 'submit-212.cif'


_audit_creation_method           SHELXL-97
_chemical_name_systematic        
;
?
;
_chemical_name_common            ?
_chemical_melting_point          ?
_chemical_formula_moiety         ?
_chemical_formula_sum            'C36 H92 Cd Cl5 Er N24 O40'
_chemical_formula_weight         1958.25

loop_
_atom_type_symbol
_atom_type_description
_atom_type_scat_dispersion_real
_atom_type_scat_dispersion_imag
_atom_type_scat_source
C C 0.0033 0.0016 'International Tables Vol C Tables 4.2.6.8 and 6.1.1.4'
H H 0.0000 0.0000 'International Tables Vol C Tables 4.2.6.8 and 6.1.1.4'
N N 0.0061 0.0033 'International Tables Vol C Tables 4.2.6.8 and 6.1.1.4'
O O 0.0106 0.0060 'International Tables Vol C Tables 4.2.6.8 and 6.1.1.4'
Cl Cl 0.1484 0.1585 'International Tables Vol C Tables 4.2.6.8 and 6.1.1.4'
Cd Cd -0.8075 1.2024 'International Tables Vol C Tables 4.2.6.8 and 6.1.1.4'
Er Er -0.2586 4.9576 'International Tables Vol C Tables 4.2.6.8 and 6.1.1.4'

_symmetry_cell_setting           triclinic
_symmetry_space_group_name_H-M   'P -1'
_symmetry_space_group_name_Hall  '-P 1'

loop_
_symmetry_equiv_pos_as_xyz
'x, y, z'
'-x, -y, -z'

_cell_length_a                   15.0779(8)
_cell_length_b                   15.6080(8)
_cell_length_c                   17.0335(9)
_cell_angle_alpha                65.006(2)
_cell_angle_beta                 81.067(2)
_cell_angle_gamma                81.602(2)
_cell_volume                     3574.6(3)
_cell_formula_units_Z            2
_cell_measurement_temperature    223(2)
_cell_measurement_reflns_used    ?
_cell_measurement_theta_min      ?
_cell_measurement_theta_max      ?

_exptl_crystal_description       block
_exptl_crystal_colour            colorless
_exptl_crystal_size_max          0.24
_exptl_crystal_size_mid          0.21
_exptl_crystal_size_min          0.19
_exptl_crystal_density_meas      ?
_exptl_crystal_density_diffrn    1.819
_exptl_crystal_density_method    'not measured'
_exptl_crystal_F_000             1994
_exptl_absorpt_coefficient_mu    1.763
_exptl_absorpt_correction_type   multi-scan
_exptl_absorpt_correction_T_min  0.6770
_exptl_absorpt_correction_T_max  0.7306
_exptl_absorpt_process_details   'SADABS (Bruker, 2008)'

_exptl_special_details           
;
?
;

_diffrn_ambient_temperature      223(2)
_diffrn_radiation_wavelength     0.71073
_diffrn_radiation_type           MoK\a
_diffrn_radiation_source         'fine-focus sealed tube'
_diffrn_radiation_monochromator  graphite
_diffrn_measurement_device_type  'Bruker CCD Area Detector'
_diffrn_measurement_method       '\f and \w scan'
_diffrn_detector_area_resol_mean ?
_diffrn_standards_number         ?
_diffrn_standards_interval_count ?
_diffrn_standards_interval_time  ?
_diffrn_standards_decay_%        ?
_diffrn_reflns_number            41068
_diffrn_reflns_av_R_equivalents  0.0457
_diffrn_reflns_av_sigmaI/netI    0.0513
_diffrn_reflns_limit_h_min       -18
_diffrn_reflns_limit_h_max       18
_diffrn_reflns_limit_k_min       -19
_diffrn_reflns_limit_k_max       19
_diffrn_reflns_limit_l_min       -17
_diffrn_reflns_limit_l_max       21
_diffrn_reflns_theta_min         1.33
_diffrn_reflns_theta_max         26.00
_reflns_number_total             13768
_reflns_number_gt                11659
_reflns_threshold_expression     >2sigma(I)

_computing_data_collection       ?
_computing_cell_refinement       ?
_computing_data_reduction        ?
_computing_structure_solution    ?
_computing_structure_refinement  'SHELXL-97 (Sheldrick, 1997)'
_computing_molecular_graphics    ?
_computing_publication_material  ?

_refine_special_details          
;
Refinement of F^2^ against ALL reflections. The weighted R-factor wR and
goodness of fit S are based on F^2^, conventional R-factors R are based
on F, with F set to zero for negative F^2^. The threshold expression of
F^2^ > 2sigma(F^2^) is used only for calculating R-factors(gt) etc. and is
not relevant to the choice of reflections for refinement. R-factors based
on F^2^ are statistically about twice as large as those based on F, and R-
factors based on ALL data will be even larger.
;

_refine_ls_structure_factor_coef Fsqd
_refine_ls_matrix_type           full
_refine_ls_weighting_scheme      calc
_refine_ls_weighting_details     
'calc w=1/[\s^2^(Fo^2^)+(0.0674P)^2^+0.0000P] where P=(Fo^2^+2Fc^2^)/3'
_atom_sites_solution_primary     direct
_atom_sites_solution_secondary   difmap
_atom_sites_solution_hydrogens   geom
_refine_ls_hydrogen_treatment    constr
_refine_ls_extinction_method     none
_refine_ls_extinction_coef       ?
_refine_ls_number_reflns         13768
_refine_ls_number_parameters     749
_refine_ls_number_restraints     0
_refine_ls_R_factor_all          0.0470
_refine_ls_R_factor_gt           0.0404
_refine_ls_wR_factor_ref         0.1133
_refine_ls_wR_factor_gt          0.1086
_refine_ls_goodness_of_fit_ref   1.028
_refine_ls_restrained_S_all      1.028
_refine_ls_shift/su_max          0.004
_refine_ls_shift/su_mean         0.000

loop_
_atom_site_label
_atom_site_type_symbol
_atom_site_fract_x
_atom_site_fract_y
_atom_site_fract_z
_atom_site_U_iso_or_equiv
_atom_site_adp_type
_atom_site_occupancy
_atom_site_symmetry_multiplicity
_atom_site_calc_flag
_atom_site_refinement_flags
_atom_site_disorder_assembly
_atom_site_disorder_group
Cl5 Cl -0.01277(8) 0.80072(10) 0.54475(9) 0.0598(3) Uani 1 1 d . . .
O1W O 0.06515(18) 1.1315(2) 0.64412(18) 0.0377(7) Uani 1 1 d . . .
O2W O 0.2596(2) 1.2324(2) 0.61535(19) 0.0403(7) Uani 1 1 d . . .
O3W O 0.10363(19) 0.9819(2) 0.80254(18) 0.0394(7) Uani 1 1 d . . .
O4W O 0.36654(18) 1.0610(2) 0.66416(19) 0.0405(7) Uani 1 1 d . . .
Er1 Er 0.207406(11) 1.082301(12) 0.694511(10) 0.02727(7) Uani 1 1 d . . .
Cl1 Cl 0.62328(10) 0.47054(11) 0.80222(14) 0.0864(5) Uani 1 1 d . . .
Cl2 Cl 0.50968(10) 0.24412(12) 0.85127(13) 0.0847(5) Uani 1 1 d . . .
Cl3 Cl 0.4956(3) 0.3297(3) 1.04032(16) 0.261(3) Uani 1 1 d . . .
Cl4 Cl 0.35077(11) 0.47168(15) 0.83416(17) 0.1442(12) Uani 1 1 d . . .
Cd1 Cd 0.49271(3) 0.38536(3) 0.88651(3) 0.07149(15) Uani 1 1 d . . .
C1 C 0.1291(2) 1.2389(3) 0.7925(2) 0.0274(8) Uani 1 1 d . . .
C2 C 0.0673(3) 1.3460(3) 0.8518(2) 0.0317(8) Uani 1 1 d . . .
H2 H 0.0579 1.4154 0.8175 0.038 Uiso 1 1 calc R . .
C3 C 0.1658(3) 1.3139(3) 0.8733(3) 0.0326(8) Uani 1 1 d . . .
H3 H 0.2028 1.3682 0.8526 0.039 Uiso 1 1 calc R . .
C4 C 0.0683(3) 1.2704(3) 1.0033(3) 0.0380(10) Uani 1 1 d . . .
C5 C 0.2870(2) 1.2075(3) 0.8244(2) 0.0307(8) Uani 1 1 d . . .
H5A H 0.3014 1.2008 0.7690 0.037 Uiso 1 1 calc R . .
H5B H 0.3291 1.2489 0.8258 0.037 Uiso 1 1 calc R . .
C6 C 0.2321(3) 1.2266(3) 1.0190(3) 0.0419(10) Uani 1 1 d . . .
H6A H 0.2825 1.2658 0.9897 0.050 Uiso 1 1 calc R . .
H6B H 0.2143 1.2306 1.0753 0.050 Uiso 1 1 calc R . .
C7 C 0.2889(2) 1.0340(3) 0.8894(2) 0.0276(8) Uani 1 1 d . . .
C8 C 0.3289(3) 1.0995(3) 0.9779(2) 0.0317(8) Uani 1 1 d . . .
H8 H 0.3871 1.1259 0.9701 0.038 Uiso 1 1 calc R . .
C9 C 0.3376(3) 0.9909(3) 1.0247(3) 0.0325(9) Uani 1 1 d . . .
H9 H 0.4006 0.9654 1.0365 0.039 Uiso 1 1 calc R . .
C10 C 0.2379(3) 1.0549(3) 1.1096(3) 0.0356(9) Uani 1 1 d . . .
C11 C 0.3201(3) 0.8628(3) 0.9733(3) 0.0317(8) Uani 1 1 d . . .
H11A H 0.3254 0.8630 0.9152 0.038 Uiso 1 1 calc R . .
H11B H 0.3772 0.8337 0.9980 0.038 Uiso 1 1 calc R . .
C12 C 0.2700(3) 0.8814(3) 1.1760(2) 0.0354(9) Uani 1 1 d . . .
H12A H 0.3300 0.8470 1.1842 0.042 Uiso 1 1 calc R . .
H12B H 0.2471 0.8901 1.2295 0.042 Uiso 1 1 calc R . .
C13 C 0.1877(3) 0.7779(3) 0.9939(3) 0.0317(8) Uani 1 1 d . . .
C14 C 0.2427(3) 0.7610(3) 1.1210(2) 0.0303(8) Uani 1 1 d . . .
H14 H 0.2994 0.7230 1.1421 0.036 Uiso 1 1 calc R . .
C15 C 0.1643(3) 0.6978(3) 1.1453(3) 0.0323(9) Uani 1 1 d . . .
H15 H 0.1839 0.6299 1.1774 0.039 Uiso 1 1 calc R . .
C16 C 0.1298(3) 0.8049(3) 1.2110(2) 0.0308(8) Uani 1 1 d . . .
C17 C 0.0785(3) 0.6573(3) 1.0504(3) 0.0355(9) Uani 1 1 d . . .
H17A H 0.0925 0.6599 0.9913 0.043 Uiso 1 1 calc R . .
H17B H 0.0919 0.5915 1.0913 0.043 Uiso 1 1 calc R . .
C18 C 0.0204(3) 0.6872(3) 1.2474(2) 0.0317(8) Uani 1 1 d . . .
H18A H 0.0014 0.7060 1.2960 0.038 Uiso 1 1 calc R . .
H18B H 0.0364 0.6185 1.2721 0.038 Uiso 1 1 calc R . .
C19 C 0.2139(2) 1.0910(3) 0.4860(2) 0.0275(8) Uani 1 1 d . . .
C20 C 0.2203(2) 1.1112(3) 0.3431(2) 0.0324(9) Uani 1 1 d . . .
H20 H 0.1779 1.1556 0.3019 0.039 Uiso 1 1 calc R . .
C21 C 0.1791(3) 1.0174(3) 0.4034(2) 0.0294(8) Uani 1 1 d . . .
H21 H 0.1174 1.0169 0.3907 0.035 Uiso 1 1 calc R . .
C22 C 0.3104(3) 0.9857(3) 0.3228(3) 0.0336(9) Uani 1 1 d . . .
C23 C 0.1381(2) 0.9459(3) 0.5684(2) 0.0287(8) Uani 1 1 d . . .
H23A H 0.1116 0.9772 0.6069 0.034 Uiso 1 1 calc R . .
H23B H 0.0891 0.9216 0.5543 0.034 Uiso 1 1 calc R . .
C24 C 0.2339(3) 0.8457(3) 0.4284(3) 0.0378(9) Uani 1 1 d . . .
H24A H 0.2636 0.8160 0.3896 0.045 Uiso 1 1 calc R . .
H24B H 0.1699 0.8346 0.4389 0.045 Uiso 1 1 calc R . .
C25 C 0.2507(3) 0.8671(3) 0.6735(2) 0.0295(8) Uani 1 1 d . . .
C26 C 0.2231(3) 0.7840(3) 0.5951(3) 0.0331(9) Uani 1 1 d . . .
H26 H 0.1696 0.7492 0.6052 0.040 Uiso 1 1 calc R . .
C27 C 0.2922(2) 0.7256(3) 0.6590(3) 0.0306(8) Uani 1 1 d . . .
H27 H 0.2700 0.6651 0.7028 0.037 Uiso 1 1 calc R . .
C28 C 0.3548(3) 0.7515(3) 0.5173(3) 0.0376(9) Uani 1 1 d . . .
C29 C 0.3551(2) 0.7581(3) 0.7737(2) 0.0311(8) Uani 1 1 d . . .
H29A H 0.3303 0.7960 0.8069 0.037 Uiso 1 1 calc R . .
H29B H 0.3459 0.6916 0.8114 0.037 Uiso 1 1 calc R . .
C30 C 0.4511(3) 0.6493(3) 0.6315(3) 0.0341(9) Uani 1 1 d . . .
H30A H 0.4340 0.5923 0.6827 0.041 Uiso 1 1 calc R . .
H30B H 0.4798 0.6291 0.5856 0.041 Uiso 1 1 calc R . .
C31 C 0.4921(3) 0.8314(3) 0.7628(2) 0.0295(8) Uani 1 1 d . . .
C32 C 0.5126(2) 0.6923(3) 0.7380(2) 0.0301(8) Uani 1 1 d . . .
H32 H 0.5027 0.6289 0.7851 0.036 Uiso 1 1 calc R . .
C33 C 0.6058(3) 0.7241(3) 0.7372(2) 0.0306(8) Uani 1 1 d . . .
H33 H 0.6409 0.6753 0.7832 0.037 Uiso 1 1 calc R . .
C34 C 0.5959(3) 0.7171(3) 0.6042(2) 0.0310(8) Uani 1 1 d . . .
C35 C 0.6479(3) 0.8537(3) 0.7745(3) 0.0360(9) Uani 1 1 d . . .
H35A H 0.6156 0.8877 0.8089 0.043 Uiso 1 1 calc R . .
H35B H 0.6888 0.8031 0.8115 0.043 Uiso 1 1 calc R . .
C36 C 0.7418(3) 0.7547(3) 0.6239(3) 0.0327(9) Uani 1 1 d . . .
H36A H 0.7623 0.7363 0.5753 0.039 Uiso 1 1 calc R . .
H36B H 0.7769 0.7135 0.6724 0.039 Uiso 1 1 calc R . .
N1 N 0.0543(2) 1.2921(2) 0.8026(2) 0.0308(7) Uani 1 1 d . . .
N2 N 0.1956(2) 1.2522(2) 0.8280(2) 0.0305(7) Uani 1 1 d . . .
N3 N 0.0163(2) 1.3161(2) 0.9362(2) 0.0350(8) Uani 1 1 d . . .
N4 N 0.1565(2) 1.2653(3) 0.9664(2) 0.0387(8) Uani 1 1 d . . .
N5 N 0.2997(2) 1.1161(2) 0.8944(2) 0.0320(7) Uani 1 1 d . . .
N6 N 0.3063(2) 0.9598(2) 0.9650(2) 0.0311(7) Uani 1 1 d . . .
N7 N 0.2625(2) 1.1290(2) 1.0342(2) 0.0359(8) Uani 1 1 d . . .
N8 N 0.2783(2) 0.9736(2) 1.1049(2) 0.0335(7) Uani 1 1 d . . .
N9 N 0.2492(2) 0.8059(2) 1.0270(2) 0.0317(7) Uani 1 1 d . . .
N10 N 0.1367(2) 0.7167(2) 1.0615(2) 0.0338(7) Uani 1 1 d . . .
N11 N 0.2116(2) 0.8249(2) 1.1632(2) 0.0336(7) Uani 1 1 d . . .
N12 N 0.0992(2) 0.7339(2) 1.1988(2) 0.0309(7) Uani 1 1 d . . .
N13 N 0.2393(2) 1.1481(2) 0.40241(19) 0.0298(7) Uani 1 1 d . . .
N14 N 0.1799(2) 1.0155(2) 0.4886(2) 0.0332(7) Uani 1 1 d . . .
N15 N 0.3000(2) 1.0819(2) 0.2983(2) 0.0337(7) Uani 1 1 d . . .
N16 N 0.2417(2) 0.9464(2) 0.3854(2) 0.0344(7) Uani 1 1 d . . .
N17 N 0.2002(2) 0.8678(2) 0.6135(2) 0.0324(7) Uani 1 1 d . . .
N18 N 0.3064(2) 0.7879(2) 0.6989(2) 0.0290(7) Uani 1 1 d . . .
N19 N 0.2729(2) 0.8002(3) 0.5105(2) 0.0378(8) Uani 1 1 d . . .
N20 N 0.3709(2) 0.7099(2) 0.6023(2) 0.0346(7) Uani 1 1 d . . .
N21 N 0.4504(2) 0.7674(2) 0.7519(2) 0.0303(7) Uani 1 1 d . . .
N22 N 0.5832(2) 0.8112(2) 0.7508(2) 0.0313(7) Uani 1 1 d . . .
N23 N 0.5156(2) 0.6928(2) 0.6533(2) 0.0334(7) Uani 1 1 d . . .
N24 N 0.6486(2) 0.7386(2) 0.6503(2) 0.0319(7) Uani 1 1 d . . .
O1 O 0.13503(17) 1.18441(19) 0.75538(17) 0.0332(6) Uani 1 1 d . . .
O2 O 0.26849(19) 1.0270(2) 0.82557(17) 0.0359(6) Uani 1 1 d . . .
O3 O 0.1822(2) 0.8024(2) 0.91596(18) 0.0417(7) Uani 1 1 d . . .
O4 O 0.0434(2) 1.2420(3) 1.0799(2) 0.0527(8) Uani 1 1 d . . .
O5 O 0.1895(2) 1.0612(2) 1.17191(19) 0.0437(7) Uani 1 1 d . . .
O6 O 0.0910(2) 0.8437(2) 1.2583(2) 0.0438(7) Uani 1 1 d . . .
O7 O 0.22076(18) 1.1071(2) 0.54948(16) 0.0333(6) Uani 1 1 d . . .
O8 O 0.2443(2) 0.93017(19) 0.69998(17) 0.0364(6) Uani 1 1 d . . .
O9 O 0.45476(19) 0.8976(2) 0.77981(18) 0.0364(6) Uani 1 1 d . . .
O10 O 0.3698(2) 0.9422(2) 0.2924(2) 0.0446(7) Uani 1 1 d . . .
O11 O 0.4059(2) 0.7425(3) 0.4569(2) 0.0524(8) Uani 1 1 d . . .
O12 O 0.6175(2) 0.7176(2) 0.53135(19) 0.0429(7) Uani 1 1 d . . .

loop_
_atom_site_aniso_label
_atom_site_aniso_U_11
_atom_site_aniso_U_22
_atom_site_aniso_U_33
_atom_site_aniso_U_23
_atom_site_aniso_U_13
_atom_site_aniso_U_12
Cl5 0.0436(6) 0.0746(8) 0.0620(8) -0.0248(7) -0.0190(6) -0.0033(6)
O1W 0.0266(14) 0.0567(18) 0.0324(15) -0.0222(14) -0.0057(12) 0.0039(12)
O2W 0.0443(17) 0.0391(16) 0.0362(16) -0.0162(13) 0.0076(13) -0.0101(13)
O3W 0.0337(15) 0.0467(17) 0.0351(16) -0.0158(13) 0.0033(12) -0.0055(13)
O4W 0.0283(14) 0.0528(18) 0.0355(16) -0.0146(14) 0.0009(12) -0.0038(13)
Er1 0.02614(10) 0.03480(11) 0.02242(10) -0.01398(7) -0.00189(7) -0.00094(7)
Cl1 0.0476(8) 0.0532(8) 0.1422(16) -0.0301(9) 0.0053(9) -0.0025(6)
Cl2 0.0429(7) 0.0770(10) 0.1239(15) -0.0254(10) -0.0176(8) -0.0137(7)
Cl3 0.355(6) 0.244(4) 0.0502(13) 0.0077(18) -0.007(2) 0.154(4)
Cl4 0.0399(8) 0.0982(14) 0.170(2) 0.0554(14) 0.0082(10) 0.0028(8)
Cd1 0.0531(2) 0.0620(3) 0.0607(3) 0.0091(2) -0.00185(19) 0.00016(19)
C1 0.0260(18) 0.0332(19) 0.0215(18) -0.0103(15) 0.0029(15) -0.0064(15)
C2 0.034(2) 0.033(2) 0.029(2) -0.0136(16) -0.0029(16) -0.0028(16)
C3 0.032(2) 0.034(2) 0.034(2) -0.0151(17) -0.0001(17) -0.0088(16)
C4 0.045(2) 0.038(2) 0.039(2) -0.0230(19) -0.004(2) -0.0031(18)
C5 0.0282(19) 0.041(2) 0.0251(19) -0.0140(17) 0.0021(15) -0.0125(16)
C6 0.044(2) 0.054(3) 0.041(2) -0.028(2) -0.010(2) -0.009(2)
C7 0.0211(17) 0.035(2) 0.0262(19) -0.0131(16) -0.0024(15) -0.0010(15)
C8 0.0242(19) 0.047(2) 0.026(2) -0.0130(17) -0.0077(15) -0.0102(16)
C9 0.0253(19) 0.049(2) 0.029(2) -0.0194(18) -0.0052(16) -0.0052(17)
C10 0.026(2) 0.055(3) 0.032(2) -0.024(2) -0.0094(17) -0.0004(18)
C11 0.0274(19) 0.037(2) 0.030(2) -0.0130(17) -0.0003(16) -0.0040(16)
C12 0.038(2) 0.046(2) 0.0219(19) -0.0118(17) -0.0057(17) -0.0082(18)
C13 0.0284(19) 0.034(2) 0.032(2) -0.0144(17) 0.0016(16) -0.0024(16)
C14 0.0251(19) 0.039(2) 0.0251(19) -0.0121(16) -0.0038(15) 0.0017(16)
C15 0.032(2) 0.0312(19) 0.031(2) -0.0122(16) -0.0027(16) 0.0035(16)
C16 0.0270(19) 0.040(2) 0.0233(19) -0.0106(16) -0.0009(15) -0.0049(16)
C17 0.034(2) 0.040(2) 0.039(2) -0.0243(19) 0.0039(18) -0.0072(17)
C18 0.035(2) 0.035(2) 0.0239(19) -0.0118(16) -0.0051(16) -0.0007(16)
C19 0.0194(17) 0.0330(19) 0.031(2) -0.0139(16) -0.0030(15) -0.0022(14)
C20 0.0240(19) 0.047(2) 0.028(2) -0.0164(18) -0.0055(16) 0.0007(16)
C21 0.0261(19) 0.038(2) 0.0266(19) -0.0130(16) -0.0055(15) -0.0063(16)
C22 0.031(2) 0.049(2) 0.031(2) -0.0231(19) -0.0078(17) -0.0048(18)
C23 0.0218(18) 0.0325(19) 0.031(2) -0.0129(16) 0.0022(15) -0.0054(15)
C24 0.041(2) 0.046(2) 0.034(2) -0.0215(19) -0.0068(18) -0.0104(19)
C25 0.0292(19) 0.0319(19) 0.0250(19) -0.0093(16) 0.0007(16) -0.0067(15)
C26 0.032(2) 0.041(2) 0.028(2) -0.0168(17) 0.0028(16) -0.0084(17)
C27 0.0246(19) 0.038(2) 0.032(2) -0.0173(17) -0.0007(16) -0.0025(16)
C28 0.036(2) 0.043(2) 0.040(2) -0.023(2) -0.0009(19) -0.0034(18)
C29 0.0273(19) 0.038(2) 0.029(2) -0.0153(17) 0.0033(16) -0.0065(16)
C30 0.034(2) 0.032(2) 0.038(2) -0.0177(18) 0.0020(17) -0.0020(16)
C31 0.030(2) 0.037(2) 0.0169(17) -0.0059(15) -0.0062(15) -0.0016(16)
C32 0.0277(19) 0.0287(19) 0.0255(19) -0.0048(15) -0.0009(15) 0.0010(15)
C33 0.0292(19) 0.034(2) 0.0226(19) -0.0066(16) -0.0022(15) -0.0012(16)
C34 0.0278(19) 0.033(2) 0.028(2) -0.0098(16) -0.0004(16) -0.0023(15)
C35 0.031(2) 0.057(3) 0.025(2) -0.0208(19) -0.0029(16) -0.0068(18)
C36 0.0255(19) 0.039(2) 0.033(2) -0.0162(18) -0.0017(16) 0.0023(16)
N1 0.0309(17) 0.0343(17) 0.0300(17) -0.0167(14) -0.0038(14) 0.0003(14)
N2 0.0299(17) 0.0355(17) 0.0291(17) -0.0156(14) -0.0012(14) -0.0066(13)
N3 0.0347(18) 0.0437(19) 0.0294(18) -0.0184(15) 0.0012(14) -0.0061(15)
N4 0.038(2) 0.049(2) 0.0327(19) -0.0205(16) -0.0066(15) -0.0020(16)
N5 0.0308(17) 0.0398(18) 0.0263(17) -0.0130(14) -0.0072(14) -0.0025(14)
N6 0.0342(18) 0.0375(18) 0.0248(16) -0.0149(14) -0.0074(14) -0.0015(14)
N7 0.0376(19) 0.0415(19) 0.0330(19) -0.0185(16) -0.0038(15) -0.0065(15)
N8 0.0345(18) 0.0393(18) 0.0272(17) -0.0136(14) 0.0001(14) -0.0081(14)
N9 0.0343(18) 0.0358(17) 0.0244(16) -0.0112(14) -0.0004(14) -0.0074(14)
N10 0.0384(19) 0.0380(18) 0.0271(17) -0.0157(15) -0.0016(14) -0.0043(15)
N11 0.0299(17) 0.0442(19) 0.0293(17) -0.0181(15) -0.0017(14) -0.0031(14)
N12 0.0271(16) 0.0382(18) 0.0286(17) -0.0158(14) -0.0003(13) -0.0029(13)
N