####################################################################### 
# 
# This file contains crystal structure data downloaded from the 
# Cambridge Structural Database (CSD) hosted by the Cambridge 
# Crystallographic Data Centre (CCDC).
# 
# Full information about CCDC data access policies and citation 
# guidelines are available at http://www.ccdc.cam.ac.uk/access/V1 
# 
# Audit and citation data items may have been added by the CCDC. 
# Please retain this information to preserve the provenance of 
# this file and to allow appropriate attribution of the data. 
# 
#######################################################################

data_p200
_audit_block_doi                 10.5517/ccz979s
_database_code_depnum_ccdc_archive 'CCDC 902605'
loop_
_citation_id
_citation_doi
_citation_year
1 10.1039/C3CE40568K 2013
_audit_update_record             
;
2012-09-22 deposited with the CCDC.	2024-07-11 downloaded from the CCDC.
;
#TrackingRef 'submit-200.cif'


_audit_creation_method           SHELXL-97
_chemical_name_systematic        
;
?
;
_chemical_name_common            ?
_chemical_melting_point          ?
_chemical_formula_moiety         ?
_chemical_formula_sum            'C36 H92 Cd Cl5 N24 O40 Y'
_chemical_formula_weight         1879.90

loop_
_atom_type_symbol
_atom_type_description
_atom_type_scat_dispersion_real
_atom_type_scat_dispersion_imag
_atom_type_scat_source
C C 0.0033 0.0016 'International Tables Vol C Tables 4.2.6.8 and 6.1.1.4'
H H 0.0000 0.0000 'International Tables Vol C Tables 4.2.6.8 and 6.1.1.4'
N N 0.0061 0.0033 'International Tables Vol C Tables 4.2.6.8 and 6.1.1.4'
O O 0.0106 0.0060 'International Tables Vol C Tables 4.2.6.8 and 6.1.1.4'
Cl Cl 0.1484 0.1585 'International Tables Vol C Tables 4.2.6.8 and 6.1.1.4'
Cd Cd -0.8075 1.2024 'International Tables Vol C Tables 4.2.6.8 and 6.1.1.4'
Y Y -2.7962 3.5667 'International Tables Vol C Tables 4.2.6.8 and 6.1.1.4'

_symmetry_cell_setting           triclinic
_symmetry_space_group_name_H-M   'P -1'
_symmetry_space_group_name_Hall  '-P 1'

loop_
_symmetry_equiv_pos_as_xyz
'x, y, z'
'-x, -y, -z'

_cell_length_a                   15.1118(8)
_cell_length_b                   15.5851(8)
_cell_length_c                   17.0616(12)
_cell_angle_alpha                64.897(2)
_cell_angle_beta                 80.888(2)
_cell_angle_gamma                81.7570(10)
_cell_volume                     3579.8(4)
_cell_formula_units_Z            2
_cell_measurement_temperature    223(2)
_cell_measurement_reflns_used    ?
_cell_measurement_theta_min      ?
_cell_measurement_theta_max      ?

_exptl_crystal_description       prism
_exptl_crystal_colour            colorless
_exptl_crystal_size_max          0.26
_exptl_crystal_size_mid          0.21
_exptl_crystal_size_min          0.18
_exptl_crystal_density_meas      ?
_exptl_crystal_density_diffrn    1.744
_exptl_crystal_density_method    'not measured'
_exptl_crystal_F_000             1936
_exptl_absorpt_coefficient_mu    1.403
_exptl_absorpt_correction_type   multi-scan
_exptl_absorpt_correction_T_min  0.7118
_exptl_absorpt_correction_T_max  0.7863
_exptl_absorpt_process_details   'SADABS (Bruker, 2008)'

_exptl_special_details           
;
?
;

_diffrn_ambient_temperature      223(2)
_diffrn_radiation_wavelength     0.71073
_diffrn_radiation_type           MoK\a
_diffrn_radiation_source         'fine-focus sealed tube'
_diffrn_radiation_monochromator  graphite
_diffrn_measurement_device_type  'Bruker CCD Area Detector'
_diffrn_measurement_method       '\f and \w scan'
_diffrn_detector_area_resol_mean ?
_diffrn_standards_number         ?
_diffrn_standards_interval_count ?
_diffrn_standards_interval_time  ?
_diffrn_standards_decay_%        ?
_diffrn_reflns_number            42892
_diffrn_reflns_av_R_equivalents  0.0562
_diffrn_reflns_av_sigmaI/netI    0.0763
_diffrn_reflns_limit_h_min       -18
_diffrn_reflns_limit_h_max       18
_diffrn_reflns_limit_k_min       -19
_diffrn_reflns_limit_k_max       19
_diffrn_reflns_limit_l_min       -17
_diffrn_reflns_limit_l_max       21
_diffrn_reflns_theta_min         1.33
_diffrn_reflns_theta_max         26.00
_reflns_number_total             13809
_reflns_number_gt                9103
_reflns_threshold_expression     >2sigma(I)

_computing_data_collection       'APEX2 (Bruker, 2005)'
_computing_cell_refinement       'SAINT (Bruker, 2005)'
_computing_data_reduction        SAINT
_computing_structure_solution    'SHELXS97 (Sheldrick, 2008)'
_computing_structure_refinement  'SHELXL97 (Sheldrick, 2008)'
_computing_molecular_graphics    'Ortep-3 for Windows (Farrugia, 1997)'
_computing_publication_material  'WinGX (Farrugia, 1999)'

_refine_special_details          
;
Refinement of F^2^ against ALL reflections. The weighted R-factor wR and
goodness of fit S are based on F^2^, conventional R-factors R are based
on F, with F set to zero for negative F^2^. The threshold expression of
F^2^ > 2sigma(F^2^) is used only for calculating R-factors(gt) etc. and is
not relevant to the choice of reflections for refinement. R-factors based
on F^2^ are statistically about twice as large as those based on F, and R-
factors based on ALL data will be even larger.
;

_refine_ls_structure_factor_coef Fsqd
_refine_ls_matrix_type           full
_refine_ls_weighting_scheme      calc
_refine_ls_weighting_details     
'calc w=1/[\s^2^(Fo^2^)+(0.0821P)^2^+0.0000P] where P=(Fo^2^+2Fc^2^)/3'
_atom_sites_solution_primary     direct
_atom_sites_solution_secondary   difmap
_atom_sites_solution_hydrogens   geom
_refine_ls_hydrogen_treatment    constr
_refine_ls_extinction_method     none
_refine_ls_extinction_coef       ?
_refine_ls_number_reflns         13809
_refine_ls_number_parameters     748
_refine_ls_number_restraints     0
_refine_ls_R_factor_all          0.0769
_refine_ls_R_factor_gt           0.0529
_refine_ls_wR_factor_ref         0.1499
_refine_ls_wR_factor_gt          0.1393
_refine_ls_goodness_of_fit_ref   0.964
_refine_ls_restrained_S_all      0.964
_refine_ls_shift/su_max          0.002
_refine_ls_shift/su_mean         0.000

loop_
_atom_site_label
_atom_site_type_symbol
_atom_site_fract_x
_atom_site_fract_y
_atom_site_fract_z
_atom_site_U_iso_or_equiv
_atom_site_adp_type
_atom_site_occupancy
_atom_site_symmetry_multiplicity
_atom_site_calc_flag
_atom_site_refinement_flags
_atom_site_disorder_assembly
_atom_site_disorder_group
Cl5 Cl 0.98764(8) -0.19800(10) 0.54416(9) 0.0695(4) Uani 1 1 d . . .
O1W O 1.36828(19) 0.0647(2) 0.66403(18) 0.0500(7) Uani 1 1 d . . .
O2W O 1.25998(19) 0.23603(19) 0.61283(18) 0.0466(7) Uani 1 1 d . . .
O3W O 1.06635(18) 0.1327(2) 0.64330(17) 0.0456(7) Uani 1 1 d . . .
O4W O 1.10498(18) -0.0174(2) 0.80194(18) 0.0478(7) Uani 1 1 d . . .
Y2 Y 1.20876(2) 0.08445(3) 0.69372(2) 0.03113(11) Uani 1 1 d . . .
Cl1 Cl 1.51227(10) -0.75854(12) 0.84861(13) 0.0952(5) Uani 1 1 d . . .
Cl2 Cl 1.62507(10) -0.53066(11) 0.80542(16) 0.1126(7) Uani 1 1 d . . .
Cl3 Cl 1.35230(10) -0.53187(14) 0.83539(15) 0.1344(9) Uani 1 1 d . . .
Cl4 Cl 1.4898(3) -0.6756(3) 1.03896(15) 0.274(3) Uani 1 1 d . . .
Cd1 Cd 1.49461(3) -0.61890(3) 0.88433(3) 0.07840(17) Uani 1 1 d . . .
C1 C 1.1283(2) 0.2401(3) 0.7922(2) 0.0326(8) Uani 1 1 d . . .
C2 C 1.0662(3) 0.3480(3) 0.8509(2) 0.0354(9) Uani 1 1 d . . .
H2 H 1.0566 0.4175 0.8170 0.042 Uiso 1 1 calc R . .
C3 C 1.1640(3) 0.3157(3) 0.8730(2) 0.0383(9) Uani 1 1 d . . .
H3 H 1.2004 0.3707 0.8524 0.046 Uiso 1 1 calc R . .
C4 C 1.0666(3) 0.2723(3) 1.0024(3) 0.0422(10) Uani 1 1 d . . .
C5 C 1.2853(2) 0.2112(3) 0.8248(2) 0.0356(9) Uani 1 1 d . . .
H5A H 1.2997 0.2048 0.7694 0.043 Uiso 1 1 calc R . .
H5B H 1.3273 0.2530 0.8259 0.043 Uiso 1 1 calc R . .
C6 C 1.2293(3) 0.2303(3) 1.0182(3) 0.0452(10) Uani 1 1 d . . .
H6A H 1.2797 0.2696 0.9887 0.054 Uiso 1 1 calc R . .
H6B H 1.2113 0.2345 1.0743 0.054 Uiso 1 1 calc R . .
C7 C 1.2886(2) 0.0375(3) 0.8894(2) 0.0337(9) Uani 1 1 d . . .
C8 C 1.3271(3) 0.1032(3) 0.9776(2) 0.0367(9) Uani 1 1 d . . .
H8 H 1.3852 0.1295 0.9705 0.044 Uiso 1 1 calc R . .
C9 C 1.3351(2) -0.0060(3) 1.0251(2) 0.0366(9) Uani 1 1 d . . .
H9 H 1.3977 -0.0312 1.0371 0.044 Uiso 1 1 calc R . .
C10 C 1.2344(3) 0.0576(3) 1.1095(3) 0.0377(9) Uani 1 1 d . . .
C11 C 1.3204(3) -0.1346(3) 0.9744(2) 0.0355(9) Uani 1 1 d . . .
H11A H 1.3272 -0.1350 0.9165 0.043 Uiso 1 1 calc R . .
H11B H 1.3767 -0.1632 1.0002 0.043 Uiso 1 1 calc R . .
C12 C 1.2678(3) -0.1154(3) 1.1767(2) 0.0419(10) Uani 1 1 d . . .
H12A H 1.3277 -0.1493 1.1857 0.050 Uiso 1 1 calc R . .
H12B H 1.2437 -0.1061 1.2296 0.050 Uiso 1 1 calc R . .
C13 C 1.1891(3) -0.2201(3) 0.9945(3) 0.0384(9) Uani 1 1 d . . .
C14 C 1.2425(3) -0.2376(3) 1.1210(2) 0.0368(9) Uani 1 1 d . . .
H14 H 1.2992 -0.2752 1.1418 0.044 Uiso 1 1 calc R . .
C15 C 1.1659(2) -0.3003(3) 1.1459(2) 0.0374(9) Uani 1 1 d . . .
H15 H 1.1857 -0.3681 1.1784 0.045 Uiso 1 1 calc R . .
C16 C 1.1288(3) -0.1951(3) 1.2113(2) 0.0374(9) Uani 1 1 d . . .
C17 C 1.0803(3) -0.3424(3) 1.0510(3) 0.0442(10) Uani 1 1 d . . .
H17A H 1.0951 -0.3408 0.9924 0.053 Uiso 1 1 calc R . .
H17B H 1.0931 -0.4081 1.0927 0.053 Uiso 1 1 calc R . .
C18 C 1.0204(3) -0.3142(3) 1.2481(2) 0.0372(9) Uani 1 1 d . . .
H18A H 1.0372 -0.3828 1.2720 0.045 Uiso 1 1 calc R . .
H18B H 1.0009 -0.2965 1.2972 0.045 Uiso 1 1 calc R . .
C19 C 1.2142(2) 0.0930(3) 0.4851(2) 0.0336(9) Uani 1 1 d . . .
C20 C 1.2216(3) 0.1117(3) 0.3427(2) 0.0382(9) Uani 1 1 d . . .
H20 H 1.1800 0.1561 0.3009 0.046 Uiso 1 1 calc R . .
C21 C 1.1798(3) 0.0175(3) 0.4033(2) 0.0380(9) Uani 1 1 d . . .
H21 H 1.1181 0.0171 0.3908 0.046 Uiso 1 1 calc R . .
C22 C 1.3115(3) -0.0144(3) 0.3230(3) 0.0401(9) Uani 1 1 d . . .
C23 C 1.1389(2) -0.0533(3) 0.5685(2) 0.0363(9) Uani 1 1 d . . .
H23A H 1.1119 -0.0222 0.6069 0.044 Uiso 1 1 calc R . .
H23B H 1.0906 -0.0783 0.5544 0.044 Uiso 1 1 calc R . .
C24 C 1.2334(3) -0.1547(3) 0.4295(3) 0.0442(10) Uani 1 1 d . . .
H24A H 1.2631 -0.1846 0.3909 0.053 Uiso 1 1 calc R . .
H24B H 1.1696 -0.1662 0.4405 0.053 Uiso 1 1 calc R . .
C25 C 1.2507(3) -0.1324(3) 0.6738(2) 0.0346(9) Uani 1 1 d . . .
C26 C 1.2218(3) -0.2165(3) 0.5964(2) 0.0392(9) Uani 1 1 d . . .
H26 H 1.1679 -0.2509 0.6067 0.047 Uiso 1 1 calc R . .
C27 C 1.2919(3) -0.2743(3) 0.6595(2) 0.0369(9) Uani 1 1 d . . .
H27 H 1.2697 -0.3351 0.7034 0.044 Uiso 1 1 calc R . .
C28 C 1.3554(3) -0.2488(3) 0.5198(3) 0.0438(10) Uani 1 1 d . . .
C29 C 1.3539(2) -0.2428(3) 0.7761(2) 0.0398(9) Uani 1 1 d . . .
H29A H 1.3439 -0.3093 0.8140 0.048 Uiso 1 1 calc R . .
H29B H 1.3295 -0.2044 0.8089 0.048 Uiso 1 1 calc R . .
C30 C 1.4496(3) -0.3517(3) 0.6337(3) 0.0407(9) Uani 1 1 d . . .
H30A H 1.4320 -0.4084 0.6853 0.049 Uiso 1 1 calc R . .
H30B H 1.4780 -0.3725 0.5882 0.049 Uiso 1 1 calc R . .
C31 C 1.4921(3) -0.1693(3) 0.7630(2) 0.0372(9) Uani 1 1 d . . .
C32 C 1.5113(2) -0.3084(3) 0.7404(2) 0.0357(9) Uani 1 1 d . . .
H32 H 1.5014 -0.3716 0.7882 0.043 Uiso 1 1 calc R . .
C33 C 1.6044(2) -0.2760(3) 0.7380(2) 0.0347(9) Uani 1 1 d . . .
H33 H 1.6389 -0.3247 0.7843 0.042 Uiso 1 1 calc R . .
C34 C 1.5956(3) -0.2839(3) 0.6063(3) 0.0397(9) Uani 1 1 d . . .
C35 C 1.6470(3) -0.1453(3) 0.7746(2) 0.0409(9) Uani 1 1 d . . .
H35A H 1.6144 -0.1106 0.8082 0.049 Uiso 1 1 calc R . .
H35B H 1.6879 -0.1952 0.8122 0.049 Uiso 1 1 calc R . .
C36 C 1.7409(3) -0.2473(3) 0.6253(3) 0.0394(9) Uani 1 1 d . . .
H36A H 1.7609 -0.2659 0.5768 0.047 Uiso 1 1 calc R . .
H36B H 1.7761 -0.2882 0.6734 0.047 Uiso 1 1 calc R . .
N1 N 1.0536(2) 0.2938(2) 0.80205(19) 0.0338(7) Uani 1 1 d . . .
N2 N 1.1959(2) 0.2554(2) 0.8280(2) 0.0359(7) Uani 1 1 d . . .
N3 N 1.0144(2) 0.3157(2) 0.9367(2) 0.0395(8) Uani 1 1 d . . .
N4 N 1.1547(2) 0.2679(2) 0.9660(2) 0.0446(8) Uani 1 1 d . . .
N5 N 1.2993(2) 0.1204(2) 0.8936(2) 0.0398(8) Uani 1 1 d . . .
N6 N 1.3058(2) -0.0363(2) 0.9649(2) 0.0352(7) Uani 1 1 d . . .
N7 N 1.2591(2) 0.1334(2) 1.0337(2) 0.0426(8) Uani 1 1 d . . .
N8 N 1.2763(2) -0.0235(2) 1.1046(2) 0.0385(8) Uani 1 1 d . . .
N9 N 1.2492(2) -0.1920(2) 1.02730(19) 0.0370(7) Uani 1 1 d . . .
N10 N 1.1379(2) -0.2823(2) 1.0615(2) 0.0384(8) Uani 1 1 d . . .
N11 N 1.2109(2) -0.1730(2) 1.1641(2) 0.0361(7) Uani 1 1 d . . .
N12 N 1.0996(2) -0.2647(2) 1.1986(2) 0.0352(7) Uani 1 1 d . . .
N13 N 1.2402(2) 0.1493(2) 0.40184(19) 0.0356(7) Uani 1 1 d . . .
N14 N 1.1807(2) 0.0165(2) 0.48900(19) 0.0364(7) Uani 1 1 d . . .
N15 N 1.3004(2) 0.0806(2) 0.2994(2) 0.0394(8) Uani 1 1 d . . .
N16 N 1.2412(2) -0.0539(2) 0.3862(2) 0.0431(8) Uani 1 1 d . . .
N17 N 1.2018(2) -0.1316(2) 0.6142(2) 0.0368(7) Uani 1 1 d . . .
N18 N 1.3058(2) -0.2124(2) 0.7003(2) 0.0348(7) Uani 1 1 d . . .
N19 N 1.2728(2) -0.1994(3) 0.5118(2) 0.0450(8) Uani 1 1 d . . .
N20 N 1.3695(2) -0.2904(2) 0.6040(2) 0.0407(8) Uani 1 1 d . . .
N21 N 1.4509(2) -0.2338(2) 0.7533(2) 0.0351(7) Uani 1 1 d . . .
N22 N 1.5820(2) -0.1904(2) 0.7519(2) 0.0380(8) Uani 1 1 d . . .
N23 N 1.5140(2) -0.3092(2) 0.6549(2) 0.0373(8) Uani 1 1 d . . .
N24 N 1.6474(2) -0.2636(2) 0.6528(2) 0.0351(7) Uani 1 1 d . . .
O1 O 1.13634(17) 0.18777(18) 0.75354(16) 0.0372(6) Uani 1 1 d . . .
O2 O 1.26803(19) 0.02937(19) 0.82551(17) 0.0427(7) Uani 1 1 d . . .
O3 O 1.1832(2) -0.1952(2) 0.91639(18) 0.0479(7) Uani 1 1 d . . .
O4 O 1.0414(2) 0.2433(2) 1.0793(2) 0.0598(9) Uani 1 1 d . . .
O5 O 1.1869(2) 0.0651(2) 1.17089(18) 0.0500(7) Uani 1 1 d . . .
O6 O 1.09020(19) -0.1544(2) 1.25780(19) 0.0492(7) Uani 1 1 d . . .
O7 O 1.22241(17) 0.10945(18) 0.54833(16) 0.0376(6) Uani 1 1 d . . .
O8 O 1.24546(19) -0.06851(18) 0.70003(17) 0.0423(7) Uani 1 1 d . . .
O9 O 1.45479(18) -0.10027(19) 0.77863(17) 0.0407(6) Uani 1 1 d . . .
O10 O 1.36987(19) -0.0574(2) 0.2935(2) 0.0505(7) Uani 1 1 d . . .
O11 O 1.4056(2) -0.2579(3) 0.4591(2) 0.0644(9) Uani 1 1 d . . .
O12 O 1.6163(2) -0.2827(2) 0.53329(19) 0.0541(8) Uani 1 1 d . . .

loop_
_atom_site_aniso_label
_atom_site_aniso_U_11
_atom_site_aniso_U_22
_atom_site_aniso_U_33
_atom_site_aniso_U_23
_atom_site_aniso_U_13
_atom_site_aniso_U_12
Cl5 0.0495(7) 0.0853(9) 0.0762(9) -0.0306(7) -0.0228(6) -0.0044(6)
O1W 0.0366(16) 0.0586(18) 0.0442(17) -0.0139(14) 0.0005(13) 0.0000(13)
O2W 0.0513(18) 0.0431(16) 0.0484(17) -0.0232(14) 0.0041(14) -0.0095(13)
O3W 0.0344(15) 0.0698(19) 0.0361(15) -0.0271(14) -0.0056(12) 0.0043(13)
O4W 0.0405(16) 0.0510(17) 0.0428(16) -0.0144(14) 0.0104(13) -0.0082(13)
Y2 0.0302(2) 0.0396(2) 0.02614(19) -0.01719(15) -0.00142(14) -0.00071(15)
Cl1 0.0477(8) 0.0916(11) 0.1379(15) -0.0359(10) -0.0150(9) -0.0105(7)
Cl2 0.0553(8) 0.0572(8) 0.198(2) -0.0339(11) 0.0106(10) -0.0056(7)
Cl3 0.0467(8) 0.1014(13) 0.1568(18) 0.0342(12) 0.0002(10) 0.0030(8)
Cl4 0.389(6) 0.250(4) 0.0562(13) 0.0001(17) -0.010(2) 0.141(4)
Cd1 0.0589(3) 0.0659(3) 0.0710(3) 0.0054(2) -0.0017(2) 0.00204(19)
C1 0.035(2) 0.0327(19) 0.0285(19) -0.0112(16) 0.0024(16) -0.0085(16)
C2 0.044(2) 0.0288(19) 0.034(2) -0.0120(16) 0.0009(17) -0.0113(16)
C3 0.046(2) 0.033(2) 0.035(2) -0.0119(17) 0.0003(18) -0.0123(17)
C4 0.048(3) 0.047(2) 0.039(2) -0.026(2) 0.003(2) -0.012(2)
C5 0.0265(19) 0.047(2) 0.037(2) -0.0173(18) -0.0026(16) -0.0131(17)
C6 0.046(2) 0.053(2) 0.047(2) -0.026(2) -0.012(2) -0.010(2)
C7 0.0261(19) 0.043(2) 0.034(2) -0.0178(18) -0.0037(16) -0.0008(16)
C8 0.028(2) 0.058(2) 0.032(2) -0.0228(19) -0.0062(16) -0.0090(17)
C9 0.0253(19) 0.055(2) 0.032(2) -0.0197(18) -0.0071(16) -0.0022(17)
C10 0.032(2) 0.057(3) 0.034(2) -0.026(2) -0.0063(18) -0.0079(18)
C11 0.032(2) 0.043(2) 0.032(2) -0.0182(17) -0.0014(16) 0.0022(17)
C12 0.038(2) 0.064(3) 0.026(2) -0.0193(19) -0.0086(17) -0.002(2)
C13 0.036(2) 0.051(2) 0.030(2) -0.0213(19) -0.0031(17) 0.0062(18)
C14 0.036(2) 0.043(2) 0.031(2) -0.0164(17) -0.0059(17) 0.0054(17)
C15 0.033(2) 0.039(2) 0.037(2) -0.0155(17) -0.0048(17) 0.0074(17)
C16 0.030(2) 0.052(2) 0.031(2) -0.0178(18) -0.0046(17) -0.0004(17)
C17 0.051(3) 0.047(2) 0.043(2) -0.030(2) 0.004(2) -0.003(2)
C18 0.037(2) 0.039(2) 0.035(2) -0.0163(17) 0.0009(17) -0.0036(17)
C19 0.0273(19) 0.043(2) 0.030(2) -0.0170(17) -0.0062(16) 0.0058(16)
C20 0.031(2) 0.057(2) 0.031(2) -0.0213(19) -0.0088(16) 0.0007(18)
C21 0.036(2) 0.052(2) 0.031(2) -0.0207(18) -0.0046(17) -0.0093(18)
C22 0.037(2) 0.059(3) 0.036(2) -0.029(2) -0.0043(18) -0.011(2)
C23 0.0277(19) 0.045(2) 0.035(2) -0.0164(17) 0.0035(16) -0.0057(16)
C24 0.051(3) 0.050(2) 0.042(2) -0.027(2) -0.008(2) -0.008(2)
C25 0.037(2) 0.037(2) 0.030(2) -0.0155(17) 0.0049(17) -0.0082(17)
C26 0.040(2) 0.042(2) 0.036(2) -0.0179(18) 0.0022(18) -0.0070(18)
C27 0.036(2) 0.041(2) 0.035(2) -0.0183(17) 0.0021(17) -0.0050(17)
C28 0.038(2) 0.049(2) 0.049(3) -0.026(2) 0.003(2) -0.0091(19)
C29 0.033(2) 0.053(2) 0.032(2) -0.0182(18) 0.0030(17) -0.0055(18)
C30 0.041(2) 0.039(2) 0.046(2) -0.0220(19) -0.0017(19) -0.0031(18)
C31 0.037(2) 0.049(2) 0.0227(19) -0.0115(17) -0.0076(16) -0.0024(19)
C32 0.034(2) 0.042(2) 0.027(2) -0.0108(16) -0.0012(16) -0.0041(17)
C33 0.032(2) 0.037(2) 0.028(2) -0.0074(16) -0.0040(16) 0.0005(16)
C34 0.046(2) 0.034(2) 0.037(2) -0.0143(17) -0.0027(19) 0.0010(17)
C35 0.037(2) 0.061(3) 0.030(2) -0.0224(19) -0.0021(17) -0.0093(19)
C36 0.034(2) 0.046(2) 0.037(2) -0.0188(18) -0.0063(17) 0.0072(17)
N1 0.0345(17) 0.0399(17) 0.0325(17) -0.0201(14) -0.0045(14) -0.0028(14)
N2 0.0321(17) 0.0437(18) 0.0389(18) -0.0237(15) -0.0050(14) -0.0021(14)
N3 0.0382(19) 0.0497(19) 0.0371(19) -0.0255(16) -0.0001(15) -0.0037(15)
N4 0.050(2) 0.050(2) 0.0360(19) -0.0203(16) -0.0091(16) 0.0018(16)
N5 0.0400(19) 0.049(2) 0.0322(18) -0.0160(15) -0.0076(15) -0.0065(15)
N6 0.0377(18) 0.0387(17) 0.0318(17) -0.0159(14) -0.0091(14) -0.0007(14)
N7 0.043(2) 0.049(2) 0.0405(19) -0.0226(16) -0.0040(16) -0.0038(16)
N8 0.0358(18) 0.050(2) 0.0291(17) -0.0143(15) -0.0041(14) -0.0063(15)
N9 0.0406(19) 0.0438(18) 0.0276(17) -0.0150(14) -0.0033(14) -0.0059(15)
N10 0.0442(19) 0.0435(18) 0.0300(17) -0.0170(15) -0.00