####################################################################### 
# 
# This file contains crystal structure data downloaded from the 
# Cambridge Structural Database (CSD) hosted by the Cambridge 
# Crystallographic Data Centre (CCDC).
# 
# Full information about CCDC data access policies and citation 
# guidelines are available at http://www.ccdc.cam.ac.uk/access/V1 
# 
# Audit and citation data items may have been added by the CCDC. 
# Please retain this information to preserve the provenance of 
# this file and to allow appropriate attribution of the data. 
# 
#######################################################################

data_p208
_audit_block_doi                 10.5517/ccz97dw
_database_code_depnum_ccdc_archive 'CCDC 902608'
loop_
_citation_id
_citation_doi
_citation_year
1 10.1039/C3CE40568K 2013
_audit_update_record             
;
2012-09-22 deposited with the CCDC.	2024-07-11 downloaded from the CCDC.
;
#TrackingRef 'submit-208.cif'


_audit_creation_method           SHELXL-97
_chemical_name_systematic        
;
?
;
_chemical_name_common            ?
_chemical_melting_point          ?
_chemical_formula_moiety         ?
_chemical_formula_sum            'C36 H102 Cd Cl5 Gd N24 O45'
_chemical_formula_weight         2038.32

loop_
_atom_type_symbol
_atom_type_description
_atom_type_scat_dispersion_real
_atom_type_scat_dispersion_imag
_atom_type_scat_source
C C 0.0033 0.0016 'International Tables Vol C Tables 4.2.6.8 and 6.1.1.4'
H H 0.0000 0.0000 'International Tables Vol C Tables 4.2.6.8 and 6.1.1.4'
N N 0.0061 0.0033 'International Tables Vol C Tables 4.2.6.8 and 6.1.1.4'
O O 0.0106 0.0060 'International Tables Vol C Tables 4.2.6.8 and 6.1.1.4'
Cl Cl 0.1484 0.1585 'International Tables Vol C Tables 4.2.6.8 and 6.1.1.4'
Cd Cd -0.8075 1.2024 'International Tables Vol C Tables 4.2.6.8 and 6.1.1.4'
Gd Gd -0.1653 3.9035 'International Tables Vol C Tables 4.2.6.8 and 6.1.1.4'

_symmetry_cell_setting           triclinic
_symmetry_space_group_name_H-M   'P -1'
_symmetry_space_group_name_Hall  '-P 1'

loop_
_symmetry_equiv_pos_as_xyz
'x, y, z'
'-x, -y, -z'

_cell_length_a                   15.136(3)
_cell_length_b                   15.719(3)
_cell_length_c                   17.189(3)
_cell_angle_alpha                64.678(6)
_cell_angle_beta                 80.911(6)
_cell_angle_gamma                81.763(6)
_cell_volume                     3637.0(10)
_cell_formula_units_Z            2
_cell_measurement_temperature    223(2)
_cell_measurement_reflns_used    ?
_cell_measurement_theta_min      ?
_cell_measurement_theta_max      ?

_exptl_crystal_description       prism
_exptl_crystal_colour            colorless
_exptl_crystal_size_max          0.25
_exptl_crystal_size_mid          0.21
_exptl_crystal_size_min          0.18
_exptl_crystal_density_meas      ?
_exptl_crystal_density_diffrn    1.861
_exptl_crystal_density_method    'not measured'
_exptl_crystal_F_000             2086
_exptl_absorpt_coefficient_mu    1.500
_exptl_absorpt_correction_type   multi-scan
_exptl_absorpt_correction_T_min  0.7055
_exptl_absorpt_correction_T_max  0.7740
_exptl_absorpt_process_details   'SADABS (Bruker, 2008)'

_exptl_special_details           
;
?
;

_diffrn_ambient_temperature      223(2)
_diffrn_radiation_wavelength     0.71073
_diffrn_radiation_type           MoK\a
_diffrn_radiation_source         'fine-focus sealed tube'
_diffrn_radiation_monochromator  graphite
_diffrn_measurement_device_type  'Bruker CCD Area Detector'
_diffrn_measurement_method       '\f and \w scan'
_diffrn_detector_area_resol_mean ?
_diffrn_standards_number         ?
_diffrn_standards_interval_count ?
_diffrn_standards_interval_time  ?
_diffrn_standards_decay_%        ?
_diffrn_reflns_number            40460
_diffrn_reflns_av_R_equivalents  0.0364
_diffrn_reflns_av_sigmaI/netI    0.0387
_diffrn_reflns_limit_h_min       -17
_diffrn_reflns_limit_h_max       17
_diffrn_reflns_limit_k_min       -15
_diffrn_reflns_limit_k_max       18
_diffrn_reflns_limit_l_min       -20
_diffrn_reflns_limit_l_max       20
_diffrn_reflns_theta_min         1.32
_diffrn_reflns_theta_max         25.00
_reflns_number_total             12691
_reflns_number_gt                11129
_reflns_threshold_expression     >2sigma(I)

_computing_data_collection       'APEX2 (Bruker, 2005)'
_computing_cell_refinement       'SAINT (Bruker, 2005)'
_computing_data_reduction        SAINT
_computing_structure_solution    'SHELXS97 (Sheldrick, 2008)'
_computing_structure_refinement  'SHELXL97 (Sheldrick, 2008)'
_computing_molecular_graphics    'Ortep-3 for Windows (Farrugia, 1997)'
_computing_publication_material  'WinGX (Farrugia, 1999)'

_refine_special_details          
;
Refinement of F^2^ against ALL reflections. The weighted R-factor wR and
goodness of fit S are based on F^2^, conventional R-factors R are based
on F, with F set to zero for negative F^2^. The threshold expression of
F^2^ > 2sigma(F^2^) is used only for calculating R-factors(gt) etc. and is
not relevant to the choice of reflections for refinement. R-factors based
on F^2^ are statistically about twice as large as those based on F, and R-
factors based on ALL data will be even larger.
;

_refine_ls_structure_factor_coef Fsqd
_refine_ls_matrix_type           full
_refine_ls_weighting_scheme      calc
_refine_ls_weighting_details     
'calc w=1/[\s^2^(Fo^2^)+(0.0618P)^2^+0.1628P] where P=(Fo^2^+2Fc^2^)/3'
_atom_sites_solution_primary     direct
_atom_sites_solution_secondary   difmap
_atom_sites_solution_hydrogens   geom
_refine_ls_hydrogen_treatment    constr
_refine_ls_extinction_method     none
_refine_ls_extinction_coef       ?
_refine_ls_number_reflns         12691
_refine_ls_number_parameters     759
_refine_ls_number_restraints     0
_refine_ls_R_factor_all          0.0411
_refine_ls_R_factor_gt           0.0365
_refine_ls_wR_factor_ref         0.1009
_refine_ls_wR_factor_gt          0.0980
_refine_ls_goodness_of_fit_ref   1.053
_refine_ls_restrained_S_all      1.053
_refine_ls_shift/su_max          0.001
_refine_ls_shift/su_mean         0.000

loop_
_atom_site_label
_atom_site_type_symbol
_atom_site_fract_x
_atom_site_fract_y
_atom_site_fract_z
_atom_site_U_iso_or_equiv
_atom_site_adp_type
_atom_site_occupancy
_atom_site_symmetry_multiplicity
_atom_site_calc_flag
_atom_site_refinement_flags
_atom_site_disorder_assembly
_atom_site_disorder_group
Cl5 Cl 0.51207(8) 0.19725(10) -0.04448(8) 0.0725(3) Uani 1 1 d . . .
Cl4' Cl 0.0425(6) -0.2950(10) -0.5341(6) 0.126(4) Uani 0.37(3) 1 d P . .
O1W O 0.43618(16) -0.1329(2) -0.14293(15) 0.0478(6) Uani 1 1 d . . .
O2W O 0.23853(18) -0.23790(19) -0.11164(16) 0.0498(6) Uani 1 1 d . . .
O3W O 0.39666(16) 0.02015(19) -0.30341(16) 0.0479(6) Uani 1 1 d . . .
O4W O 0.12945(16) -0.0649(2) -0.16502(16) 0.0509(6) Uani 1 1 d . . .
Gd1 Gd 0.291285(10) -0.084063(11) -0.194112(9) 0.03206(7) Uani 1 1 d . . .
Cl1 Cl -0.12173(10) -0.46764(11) -0.30579(15) 0.1167(7) Uani 1 1 d . . .
Cl2 Cl -0.01139(9) -0.23998(12) -0.34765(12) 0.0989(5) Uani 1 1 d . . .
Cl3 Cl 0.14942(10) -0.46509(13) -0.33154(14) 0.1449(10) Uani 1 1 d . . .
Cl4 Cl -0.0045(16) -0.3334(10) -0.5374(3) 0.195(8) Uani 0.63(3) 1 d P . .
Cd1 Cd 0.00774(3) -0.37872(3) -0.38309(3) 0.08244(14) Uani 1 1 d . . .
C1 C 0.2117(2) -0.0370(3) -0.39178(19) 0.0348(7) Uani 1 1 d . . .
C2 C 0.1642(2) 0.0048(3) -0.5265(2) 0.0388(8) Uani 1 1 d . . .
H2 H 0.1014 0.0294 -0.5380 0.047 Uiso 1 1 calc R . .
C3 C 0.1731(2) -0.1032(3) -0.4791(2) 0.0385(8) Uani 1 1 d . . .
H3 H 0.1156 -0.1305 -0.4712 0.046 Uiso 1 1 calc R . .
C4 C 0.2651(2) -0.0566(3) -0.6104(2) 0.0397(8) Uani 1 1 d . . .
C5 C 0.2158(2) -0.2113(2) -0.3266(2) 0.0365(7) Uani 1 1 d . . .
H5A H 0.2005 -0.2057 -0.2713 0.044 Uiso 1 1 calc R . .
H5B H 0.1748 -0.2531 -0.3285 0.044 Uiso 1 1 calc R . .
C6 C 0.2730(3) -0.2279(3) -0.5202(2) 0.0478(9) Uani 1 1 d . . .
H6A H 0.2919 -0.2307 -0.5763 0.057 Uiso 1 1 calc R . .
H6B H 0.2232 -0.2681 -0.4918 0.057 Uiso 1 1 calc R . .
C7 C 0.3717(2) -0.2402(2) -0.29228(19) 0.0329(7) Uani 1 1 d . . .
C8 C 0.3377(2) -0.3145(2) -0.3747(2) 0.0376(7) Uani 1 1 d . . .
H8 H 0.3015 -0.3692 -0.3544 0.045 Uiso 1 1 calc R . .
C9 C 0.4350(2) -0.3454(2) -0.3527(2) 0.0376(7) Uani 1 1 d . . .
H9 H 0.4444 -0.4145 -0.3189 0.045 Uiso 1 1 calc R . .
C10 C 0.4350(2) -0.2699(3) -0.5028(2) 0.0418(8) Uani 1 1 d . . .
C11 C 0.5214(2) -0.3136(2) -0.25216(19) 0.0360(7) Uani 1 1 d . . .
H11A H 0.5017 -0.2950 -0.2041 0.043 Uiso 1 1 calc R . .
H11B H 0.5378 -0.3819 -0.2274 0.043 Uiso 1 1 calc R . .
C12 C 0.5811(2) -0.3414(3) -0.4495(2) 0.0440(8) Uani 1 1 d . . .
H12A H 0.5955 -0.3385 -0.5081 0.053 Uiso 1 1 calc R . .
H12B H 0.5939 -0.4071 -0.4087 0.053 Uiso 1 1 calc R . .
C13 C 0.6296(2) -0.1939(3) -0.2889(2) 0.0402(8) Uani 1 1 d . . .
C14 C 0.6650(2) -0.2999(3) -0.3540(2) 0.0370(7) Uani 1 1 d . . .
H14 H 0.6848 -0.3673 -0.3216 0.044 Uiso 1 1 calc R . .
C15 C 0.7436(2) -0.2362(2) -0.3786(2) 0.0363(7) Uani 1 1 d . . .
H15 H 0.8000 -0.2738 -0.3573 0.044 Uiso 1 1 calc R . .
C16 C 0.6898(2) -0.2200(2) -0.5051(2) 0.0374(8) Uani 1 1 d . . .
C17 C 0.7684(2) -0.1158(3) -0.3230(2) 0.0416(8) Uani 1 1 d . . .
H17A H 0.8282 -0.1495 -0.3142 0.050 Uiso 1 1 calc R . .
H17B H 0.7445 -0.1076 -0.2700 0.050 Uiso 1 1 calc R . .
C18 C 0.8207(2) -0.1338(3) -0.5247(2) 0.0382(8) Uani 1 1 d . . .
H18A H 0.8270 -0.1332 -0.5826 0.046 Uiso 1 1 calc R . .
H18B H 0.8774 -0.1618 -0.4999 0.046 Uiso 1 1 calc R . .
C19 C 0.2478(2) 0.1326(2) -0.1734(2) 0.0357(7) Uani 1 1 d . . .
C20 C 0.2066(2) 0.2742(2) -0.1600(2) 0.0375(7) Uani 1 1 d . . .
H20 H 0.2291 0.3347 -0.2033 0.045 Uiso 1 1 calc R . .
C21 C 0.2749(2) 0.2156(2) -0.0961(2) 0.0365(7) Uani 1 1 d . . .
H21 H 0.3285 0.2501 -0.1066 0.044 Uiso 1 1 calc R . .
C22 C 0.1438(2) 0.2487(3) -0.0194(2) 0.0429(8) Uani 1 1 d . . .
C23 C 0.3592(2) 0.0557(3) -0.0692(2) 0.0377(8) Uani 1 1 d . . .
H23A H 0.4076 0.0808 -0.0558 0.045 Uiso 1 1 calc R . .
H23B H 0.3860 0.0250 -0.1075 0.045 Uiso 1 1 calc R . .
C24 C 0.2642(3) 0.1550(3) 0.0698(2) 0.0473(9) Uani 1 1 d . . .
H24A H 0.2335 0.1842 0.1081 0.057 Uiso 1 1 calc R . .
H24B H 0.3277 0.1671 0.0596 0.057 Uiso 1 1 calc R . .
C25 C 0.2847(2) -0.0916(3) 0.0159(2) 0.0357(7) Uani 1 1 d . . .
C26 C 0.3201(2) -0.0164(3) 0.0961(2) 0.0374(8) Uani 1 1 d . . .
H26 H 0.3816 -0.0152 0.1082 0.045 Uiso 1 1 calc R . .
C27 C 0.2784(2) -0.1102(3) 0.1571(2) 0.0369(8) Uani 1 1 d . . .
H27 H 0.3208 -0.1538 0.1980 0.044 Uiso 1 1 calc R . .
C28 C 0.1891(2) 0.0141(3) 0.1763(2) 0.0405(8) Uani 1 1 d . . .
C29 C 0.2419(2) -0.2455(2) 0.1257(2) 0.0389(8) Uani 1 1 d . . .
H29A H 0.2619 -0.2636 0.0774 0.047 Uiso 1 1 calc R . .
H29B H 0.2771 -0.2862 0.1736 0.047 Uiso 1 1 calc R . .
C30 C 0.1474(2) -0.1462(3) 0.2748(2) 0.0450(9) Uani 1 1 d . . .
H30A H 0.1150 -0.1123 0.3085 0.054 Uiso 1 1 calc R . .
H30B H 0.1880 -0.1963 0.3119 0.054 Uiso 1 1 calc R . .
C31 C 0.0970(2) -0.2837(2) 0.1074(2) 0.0372(7) Uani 1 1 d . . .
C32 C 0.1053(2) -0.2763(2) 0.23899(19) 0.0363(7) Uani 1 1 d . . .
H32 H 0.1398 -0.3247 0.2850 0.044 Uiso 1 1 calc R . .
C33 C 0.0129(2) -0.3077(2) 0.2403(2) 0.0374(8) Uani 1 1 d . . .
H33 H 0.0031 -0.3710 0.2873 0.045 Uiso 1 1 calc R . .
C34 C -0.0069(2) -0.1698(3) 0.26339(19) 0.0369(8) Uani 1 1 d . . .
C35 C -0.0492(2) -0.3502(3) 0.1334(2) 0.0422(8) Uani 1 1 d . . .
H35A H -0.0204 -0.3697 0.0876 0.051 Uiso 1 1 calc R . .
H35B H -0.0670 -0.4072 0.1840 0.051 Uiso 1 1 calc R . .
C36 C -0.1443(2) -0.2425(3) 0.2756(2) 0.0381(8) Uani 1 1 d . . .
H36A H -0.1686 -0.2041 0.3077 0.046 Uiso 1 1 calc R . .
H36B H -0.1546 -0.3084 0.3138 0.046 Uiso 1 1 calc R . .
N1 N 0.19464(18) 0.0364(2) -0.46683(16) 0.0358(6) Uani 1 1 d . . .
N2 N 0.20174(19) -0.1182(2) -0.39689(17) 0.0390(7) Uani 1 1 d . . .
N3 N 0.22295(19) 0.0234(2) -0.60609(17) 0.0410(7) Uani 1 1 d . . .
N4 N 0.2410(2) -0.1317(2) -0.53469(18) 0.0421(7) Uani 1 1 d . . .
N5 N 0.30561(19) -0.2538(2) -0.32953(17) 0.0372(6) Uani 1 1 d . . .
N6 N 0.44674(19) -0.2933(2) -0.30333(17) 0.0361(6) Uani 1 1 d . . .
N7 N 0.3474(2) -0.2657(2) -0.46753(19) 0.0455(7) Uani 1 1 d . . .
N8 N 0.48701(19) -0.3148(2) -0.43653(18) 0.0419(7) Uani 1 1 d . . .
N9 N 0.60012(18) -0.2655(2) -0.30145(17) 0.0375(6) Uani 1 1 d . . .
N10 N 0.71145(19) -0.1730(2) -0.33584(17) 0.0395(7) Uani 1 1 d . . .
N11 N 0.63898(19) -0.2824(2) -0.43802(17) 0.0400(7) Uani 1 1 d . . .
N12 N 0.75062(19) -0.1921(2) -0.47189(16) 0.0377(6) Uani 1 1 d . . .
N13 N 0.19269(19) 0.2125(2) -0.19991(17) 0.0359(6) Uani 1 1 d . . .
N14 N 0.29755(19) 0.1315(2) -0.11358(17) 0.0377(6) Uani 1 1 d . . .
N15 N 0.12842(19) 0.2890(2) -0.10411(18) 0.0407(7) Uani 1 1 d . . .
N16 N 0.2262(2) 0.1991(2) -0.01175(18) 0.0425(7) Uani 1 1 d . . .
N17 N 0.31847(18) -0.0152(2) 0.01116(16) 0.0363(6) Uani 1 1 d . . .
N18 N 0.26014(18) -0.1485(2) 0.09900(16) 0.0361(6) Uani 1 1 d . . .
N19 N 0.2573(2) 0.0536(2) 0.11317(18) 0.0414(7) Uani 1 1 d . . .
N20 N 0.19958(19) -0.0821(2) 0.20197(17) 0.0398(7) Uani 1 1 d . . .
N21 N 0.14839(19) -0.2620(2) 0.15308(17) 0.0399(7) Uani 1 1 d . . .
N22 N 0.01590(18) -0.3075(2) 0.15627(17) 0.0386(6) Uani 1 1 d . . .
N23 N 0.08323(18) -0.1890(2) 0.25130(17) 0.0383(6) Uani 1 1 d . . .
N24 N -0.04907(18) -0.2343(2) 0.25388(17) 0.0369(6) Uani 1 1 d . . .
O1 O 0.23099(16) -0.02899(18) -0.32778(14) 0.0417(6) Uani 1 1 d . . .
O2 O 0.36412(15) -0.18942(18) -0.25381(14) 0.0400(5) Uani 1 1 d . . .
O3 O 0.59090(18) -0.1560(2) -0.24268(16) 0.0514(7) Uani 1 1 d . . .
O4 O 0.31299(18) -0.0611(2) -0.67317(16) 0.0541(7) Uani 1 1 d . . .
O5 O 0.4613(2) -0.2414(2) -0.57920(17) 0.0609(8) Uani 1 1 d . . .
O6 O 0.68501(18) -0.19577(19) -0.58179(15) 0.0483(6) Uani 1 1 d . . .
O7 O 0.25302(17) 0.07066(17) -0.20018(15) 0.0427(6) Uani 1 1 d . . .
O8 O 0.27844(16) -0.10910(18) -0.04746(14) 0.0410(6) Uani 1 1 d . . .
O9 O 0.11799(17) -0.2833(2) 0.03534(16) 0.0504(6) Uani 1 1 d . . .
O10 O 0.0923(2) 0.2577(2) 0.03961(18) 0.0630(8) Uani 1 1 d . . .
O11 O 0.12998(18) 0.0577(2) 0.20583(17) 0.0525(7) Uani 1 1 d . . .
O12 O -0.04447(17) -0.10261(18) 0.27961(15) 0.0433(6) Uani 1 1 d . . .

loop_
_atom_site_aniso_label
_atom_site_aniso_U_11
_atom_site_aniso_U_22
_atom_site_aniso_U_33
_atom_site_aniso_U_23
_atom_site_aniso_U_13
_atom_site_aniso_U_12
Cl5 0.0545(6) 0.0889(9) 0.0786(7) -0.0335(6) -0.0262(5) -0.0029(6)
Cl4' 0.107(6) 0.162(7) 0.058(3) 0.004(3) 0.002(2) -0.033(4)
O1W 0.0362(13) 0.0700(18) 0.0402(13) -0.0280(12) -0.0092(10) 0.0085(12)
O2W 0.0550(16) 0.0496(16) 0.0456(13) -0.0233(12) 0.0091(11) -0.0113(13)
O3W 0.0382(14) 0.0547(16) 0.0465(13) -0.0183(12) 0.0029(11) -0.0075(12)
O4W 0.0356(13) 0.0577(17) 0.0511(14) -0.0168(13) 0.0003(11) -0.0031(12)
Gd1 0.03116(10) 0.03956(11) 0.02846(9) -0.01798(7) -0.00344(6) 0.00067(7)
Cl1 0.0599(8) 0.0616(9) 0.2035(19) -0.0395(10) 0.0057(10) -0.0007(7)
Cl2 0.0476(7) 0.0999(11) 0.1453(13) -0.0435(10) -0.0176(7) -0.0100(7)
Cl3 0.0486(8) 0.1021(12) 0.1740(17) 0.0400(12) 0.0019(9) 0.0009(7)
Cl4 0.266(16) 0.185(8) 0.070(2) -0.007(3) -0.036(4) 0.045(9)
Cd1 0.0616(2) 0.0663(3) 0.0772(2) 0.00553(19) -0.00246(18) 0.00404(18)
C1 0.0256(16) 0.048(2) 0.0321(16) -0.0183(15) -0.0059(12) 0.0008(14)
C2 0.0323(17) 0.053(2) 0.0333(16) -0.0185(15) -0.0077(13) -0.0033(15)
C3 0.0329(18) 0.050(2) 0.0372(17) -0.0192(15) -0.0078(13) -0.0087(15)
C4 0.0339(18) 0.053(2) 0.0422(18) -0.0268(17) -0.0114(15) -0.0035(16)
C5 0.0307(17) 0.046(2) 0.0322(16) -0.0146(15) -0.0021(13) -0.0087(15)
C6 0.050(2) 0.058(2) 0.051(2) -0.0332(19) -0.0174(17) -0.0027(18)
C7 0.0348(17) 0.0314(18) 0.0280(14) -0.0085(13) 0.0008(12) -0.0062(14)
C8 0.045(2) 0.0276(18) 0.0417(17) -0.0149(14) -0.0026(14) -0.0070(15)
C9 0.0436(19) 0.0336(19) 0.0372(17) -0.0170(14) -0.0006(14) -0.0045(15)
C10 0.048(2) 0.042(2) 0.045(2) -0.0286(17) -0.0057(16) -0.0012(17)
C11 0.0369(18) 0.0370(19) 0.0296(15) -0.0108(14) -0.0065(13) 0.0039(14)
C12 0.050(2) 0.045(2) 0.0477(19) -0.0310(17) -0.0004(16) -0.0027(17)
C13 0.0314(17) 0.058(2) 0.0312(16) -0.0184(16) -0.0030(13) -0.0034(16)
C14 0.0393(18) 0.0364(19) 0.0336(16) -0.0143(14) -0.0047(13) 0.0026(15)
C15 0.0355(18) 0.0378(19) 0.0323(16) -0.0132(14) -0.0059(13) 0.0048(14)
C16 0.0400(19) 0.0350(19) 0.0377(18) -0.0192(15) -0.0031(14) 0.0078(15)
C17 0.043(2) 0.055(2) 0.0283(15) -0.0163(15) -0.0099(14) -0.0076(17)
C18 0.0313(17) 0.050(2) 0.0358(16) -0.0222(15) 0.0002(13) -0.0011(15)
C19 0.0334(17) 0.039(2) 0.0339(16) -0.0149(14) 0.0020(13) -0.0068(15)
C20 0.0408(19) 0.0332(19) 0.0418(17) -0.0187(15) -0.0019(14) -0.0063(15)
C21 0.0349(18) 0.039(2) 0.0361(16) -0.0157(14) 0.0009(13) -0.0103(15)
C22 0.045(2) 0.048(2) 0.0435(19) -0.0265(17) 0.0001(16) -0.0081(17)
C23 0.0292(17) 0.047(2) 0.0359(16) -0.0172(15) 0.0005(13) -0.0032(15)
C24 0.049(2) 0.059(3) 0.047(2) -0.0316(18) -0.0112(16) -0.0101(18)
C25 0.0270(16) 0.045(2) 0.0369(17) -0.0203(15) -0.0039(13) 0.0034(14)
C26 0.0309(17) 0.050(2) 0.0372(17) -0.0217(15) -0.0096(13) -0.0025(15)
C27 0.0297(17) 0.051(2) 0.0334(16) -0.0195(15) -0.0129(13) 0.0037(15)
C28 0.0326(18) 0.064(3) 0.0350(16) -0.0293(17) -0.0080(14) -0.0030(17)
C29 0.0343(18) 0.039(2) 0.0409(17) -0.0156(15) -0.0056(14) 0.0047(15)
C30 0.044(2) 0.068(3) 0.0283(16) -0.0238(17) -0.0073(14) -0.0045(18)
C31 0.0421(19) 0.0325(18) 0.0321(16) -0.0100(14) -0.0051(14) 0.0020(15)
C32 0.0372(18) 0.0336(19) 0.0299(15) -0.0069(13) -0.0055(13) 0.0040(14)
C33 0.0386(18) 0.0359(19) 0.0316(16) -0.0091(14) -0.0039(13) -0.0004(15)
C34 0.0393(19) 0.042(2) 0.0247(14) -0.0090(14) -0.0066(13) -0.0022(16)
C35 0.043(2) 0.035(2) 0.055(2) -0.0261(16) -0.0014(16) -0.0018(16)
C36 0.0338(18) 0.047(2) 0.0327(16) -0.0163(14) 0.0027(13) -0.0076(15)
N1 0.0352(15) 0.0389(16) 0.0340(13) -0.0147(12) -0.0093(11) -0.0003(12)
N2 0.0383(16) 0.0468(18) 0.0364(14) -0.0188(13) -0.0111(12) -0.0048(13)
