
#######################################################################
#
#                 Cambridge Crystallographic Data Centre
#                                CCDC
#
#######################################################################
#
# If this CIF has been generated from an entry in the Cambridge
# Structural Database, then it will include bibliographic, chemical,
# crystal, experimental, refinement or atomic coordinate data resulting
# from the CCDC's data processing and validation procedures.
#
#######################################################################

data_CSD_CIF_OGAZAX
_audit_creation_date 2002-09-17
_audit_creation_method CSD-ConQuest-V1
_database_code_CSD OGAZAX
_database_code_depnum_ccdc_archive 'CCDC 167916'
_chemical_formula_sum 'C12 H9 Mo1 N6 O3'
_chemical_formula_moiety
;
C12 H9 Mo1 N6 O3
;
_journal_coden_Cambridge 36
_journal_volume 649
_journal_year 2002
_journal_page_first 173
_journal_name_full 'J.Organomet.Chem. '
loop_
_publ_author_name
"G.A.Ardizzoia"
"S.Brenna"
"G.LaMonica"
"A.Maspero"
"N.Masciocchi"
_chemical_name_systematic
;
fac-Tricarbonyl-tris(pyrazolyl)-molybdenum(0)
;
_chemical_name_common
;
Teaching Subset: Fundamental Chemistry, Symmetry
;
_cell_volume   2309.452
_exptl_crystal_colour 'pale yellow'
_exptl_special_details
;
powder data
air-sensitive

;
_diffrn_ambient_temperature ?
_diffrn_special_details
;
The study was carried out at room temperature,in the range 283-303K

;
#These two values have been output from a single CSD field.
_refine_ls_R_factor_gt 0.0848
_refine_ls_wR_factor_gt 0.0848
_symmetry_cell_setting rhombohedral
_symmetry_space_group_name_H-M 'R -3'
_symmetry_Int_Tables_number 148
loop_
_symmetry_equiv_pos_site_id
_symmetry_equiv_pos_as_xyz
1 x,y,z
2 -y,x-y,z
3 -x+y,-x,z
4 1/3+x,2/3+y,2/3+z
5 2/3+x,1/3+y,1/3+z
6 2/3-y,1/3+x-y,1/3+z
7 2/3-x+y,1/3-x,1/3+z
8 1/3-y,2/3+x-y,2/3+z
9 1/3-x+y,2/3-x,2/3+z
10 -x,-y,-z
11 y,-x+y,-z
12 x-y,x,-z
13 -1/3-x,-2/3-y,-2/3-z
14 -2/3-x,-1/3-y,-1/3-z
15 -2/3+y,-1/3-x+y,-1/3-z
16 -2/3+x-y,-1/3+x,-1/3-z
17 -1/3+y,-2/3-x+y,-2/3-z
18 -1/3+x-y,-2/3+x,-2/3-z
_cell_length_a 12.69817(26)
_cell_length_b 12.69817(26)
_cell_length_c 16.5385(7)
_cell_angle_alpha 90
_cell_angle_beta 90
_cell_angle_gamma 120
_cell_formula_units_Z 6
loop_
_atom_type_symbol
_atom_type_radius_bond
C 0.68
Mo 1.47
N 0.68
O 0.68
loop_
_atom_site_label
_atom_site_type_symbol
_atom_site_fract_x
_atom_site_fract_y
_atom_site_fract_z
Mo1 Mo 0.00000 0.00000 0.26710(15)
C1 C 0.1077(5) 0.1327(11) 0.3437(8)
O1 O 0.1575(7) 0.2076(7) 0.3916(6)
N1 N -0.1238(13) -0.1524(10) 0.1775(9)
N2 N -0.2480(15) -0.2075(14) 0.1878(8)
C2 C -0.1021(12) -0.1830(15) 0.1018(11)
C3 C -0.2127(21) -0.2661(14) 0.0687(7)
C4 C -0.3028(9) -0.2721(11) 0.1184(12)
C1A C -0.1327(5) -0.0250(11) 0.3437(8)
O1A O -0.2076(7) -0.0501(7) 0.3916(6)
C1B C 0.0250(5) -0.1077(11) 0.3437(8)
O1B O 0.0501(7) -0.1575(7) 0.3916(6)
N1A N 0.1524(13) 0.0286(10) 0.1775(9)
N2A N 0.2075(15) -0.0405(14) 0.1878(8)
C4A C 0.2721(9) -0.0307(11) 0.1184(12)
C3A C 0.2661(21) 0.0534(14) 0.0687(7)
C2A C 0.1830(12) 0.0809(15) 0.1018(11)
N1B N -0.0286(13) 0.1238(10) 0.1775(9)
N2B N 0.0405(15) 0.2480(14) 0.1878(8)
C4B C 0.0307(9) 0.3028(11) 0.1184(12)
C3B C -0.0534(21) 0.2127(14) 0.0687(7)
C2B C -0.0809(12) 0.1021(15) 0.1018(11)
#END
