####################################################################### 
# 
# This file contains crystal structure data downloaded from the 
# Cambridge Structural Database (CSD) hosted by the Cambridge 
# Crystallographic Data Centre (CCDC).
# 
# Full information about CCDC data access policies and citation 
# guidelines are available at http://www.ccdc.cam.ac.uk/access/V1 
# 
# Audit and citation data items may have been added by the CCDC. 
# Please retain this information to preserve the provenance of 
# this file and to allow appropriate attribution of the data. 
# 
#######################################################################

data_a
_audit_block_doi                 10.5517/cc132cq8
_database_code_depnum_ccdc_archive 'CCDC 1015179'
_audit_update_record             
;
2014-07-21 deposited with the CCDC.	2024-07-12 downloaded from the CCDC.
;

_audit_creation_method           SHELXL-97
_chemical_name_systematic        
; 
 ? 
;
_chemical_name_common            ?
_chemical_melting_point          ?
_chemical_formula_moiety         ?
_chemical_formula_sum            'C20 H4 Cl0 N0 O17 Zn2'
_chemical_formula_weight         646.97

loop_
_atom_type_symbol
_atom_type_description
_atom_type_scat_dispersion_real
_atom_type_scat_dispersion_imag
_atom_type_scat_source
C C 0.0033 0.0016 'International Tables Vol C Tables 4.2.6.8 and 6.1.1.4'
H H 0.0000 0.0000 'International Tables Vol C Tables 4.2.6.8 and 6.1.1.4'
N N 0.0061 0.0033 'International Tables Vol C Tables 4.2.6.8 and 6.1.1.4'
O O 0.0106 0.0060 'International Tables Vol C Tables 4.2.6.8 and 6.1.1.4'
Cl Cl 0.1484 0.1585 'International Tables Vol C Tables 4.2.6.8 and 6.1.1.4'
Zn Zn 0.2839 1.4301 'International Tables Vol C Tables 4.2.6.8 and 6.1.1.4'

_symmetry_cell_setting           Monoclinic
_symmetry_space_group_name_H-M   'P2(1)/c  '

loop_
_symmetry_equiv_pos_as_xyz
'x, y, z'
'-x, y+1/2, -z+1/2'
'-x, -y, -z'
'x, -y-1/2, z-1/2'

_cell_length_a                   9.5741(3)
_cell_length_b                   14.5044(4)
_cell_length_c                   13.7329(5)
_cell_angle_alpha                90.00
_cell_angle_beta                 100.582(4)
_cell_angle_gamma                90.00
_cell_volume                     1874.61(10)
_cell_formula_units_Z            2
_cell_measurement_temperature    293(2)
_cell_measurement_reflns_used    2776
_cell_measurement_theta_min      2.3952
_cell_measurement_theta_max      29.1019

_exptl_crystal_description       block
_exptl_crystal_colour            colourless
_exptl_crystal_size_max          0.18
_exptl_crystal_size_mid          0.16
_exptl_crystal_size_min          0.13
_exptl_crystal_density_meas      'not measured'
_exptl_crystal_density_diffrn    1.146
_exptl_crystal_density_method    'not measured'
_exptl_crystal_F_000             640
_exptl_absorpt_coefficient_mu    1.334
_exptl_absorpt_correction_type   multi-scan
_exptl_absorpt_correction_T_min  0.76834
_exptl_absorpt_correction_T_max  1.00000
_exptl_absorpt_process_details   'SADABS (Sheldrick, 1996)'

_exptl_special_details           
;
?
;

_diffrn_ambient_temperature      293(2)
_diffrn_radiation_wavelength     0.71073
_diffrn_radiation_type           MoK\a
_diffrn_radiation_source         'fine-focus sealed tube'
_diffrn_radiation_monochromator  graphite
_diffrn_measurement_device_type  'multiwire proportional'
_diffrn_measurement_method       'phi and omega scans'
_diffrn_detector_area_resol_mean none
_diffrn_standards_number         none
_diffrn_standards_interval_count none
_diffrn_standards_interval_time  none
_diffrn_standards_decay_%        none
_diffrn_reflns_number            6924
_diffrn_reflns_av_R_equivalents  0.0243
_diffrn_reflns_av_sigmaI/netI    0.0373
_diffrn_reflns_limit_h_min       -11
_diffrn_reflns_limit_h_max       11
_diffrn_reflns_limit_k_min       -11
_diffrn_reflns_limit_k_max       17
_diffrn_reflns_limit_l_min       -16
_diffrn_reflns_limit_l_max       12
_diffrn_reflns_theta_min         2.78
_diffrn_reflns_theta_max         25.00
_reflns_number_total             3301
_reflns_number_gt                2779
_reflns_threshold_expression     >2sigma(I)

_computing_data_collection       'Bruker FRAMBO'
_computing_cell_refinement       'Bruker FRAMBO'
_computing_data_reduction        'Bruker SHELXTL'
_computing_structure_solution    'SHELXS-97 (Sheldrick, 1990)'
_computing_structure_refinement  'SHELXL-97 (Sheldrick, 1997)'
_computing_molecular_graphics    'Bruker SHELXTL'
_computing_publication_material  'Bruker SHELXTL'

_refine_special_details          
; 
 Refinement of F^2^ against ALL reflections.  The weighted R-factor wR and 
 goodness of fit S are based on F^2^, conventional R-factors R are based 
 on F, with F set to zero for negative F^2^. The threshold expression of 
 F^2^ > 2sigma(F^2^) is used only for calculating R-factors(gt) etc. and is 
 not relevant to the choice of reflections for refinement.  R-factors based 
 on F^2^ are statistically about twice as large as those based on F, and R- 
 factors based on ALL data will be even larger. 
;

_refine_ls_structure_factor_coef Fsqd
_refine_ls_matrix_type           full
_refine_ls_weighting_scheme      calc
_refine_ls_weighting_details     
'calc w=1/[\s^2^(Fo^2^)+(0.0600P)^2^+4.1255P] where P=(Fo^2^+2Fc^2^)/3'
_atom_sites_solution_primary     direct
_atom_sites_solution_secondary   difmap
_atom_sites_solution_hydrogens   geom
_refine_ls_hydrogen_treatment    mixed
_refine_ls_extinction_method     none
_refine_ls_extinction_coef       ?
_refine_ls_number_reflns         3301
_refine_ls_number_parameters     181
_refine_ls_number_restraints     0
_refine_ls_R_factor_all          0.0494
_refine_ls_R_factor_gt           0.0420
_refine_ls_wR_factor_ref         0.1316
_refine_ls_wR_factor_gt          0.1253
_refine_ls_goodness_of_fit_ref   1.095
_refine_ls_restrained_S_all      1.095
_refine_ls_shift/su_max          0.000
_refine_ls_shift/su_mean         0.000

loop_
_atom_site_label
_atom_site_type_symbol
_atom_site_fract_x
_atom_site_fract_y
_atom_site_fract_z
_atom_site_U_iso_or_equiv
_atom_site_adp_type
_atom_site_occupancy
_atom_site_symmetry_multiplicity
_atom_site_calc_flag
_atom_site_refinement_flags
_atom_site_disorder_assembly
_atom_site_disorder_group
Zn1 Zn -0.53768(4) 0.64207(3) 0.36047(3) 0.01923(17) Uani 1 1 d . . .
O7 O -0.5413(3) 0.77785(19) 0.3740(2) 0.0331(7) Uani 1 1 d . . .
O6 O -0.4318(3) 1.1197(2) 0.2827(2) 0.0358(7) Uani 1 1 d . . .
O1 O -0.6680(3) 0.5604(2) 0.4167(2) 0.0338(7) Uani 1 1 d . . .
C2 C -0.8981(4) 0.5436(3) 0.4545(3) 0.0233(8) Uani 1 1 d . . .
C1 C -0.7935(4) 0.5922(3) 0.4019(3) 0.0307(9) Uani 1 1 d . . .
C3 C -1.0427(4) 0.5564(3) 0.4200(3) 0.0270(9) Uani 1 1 d . . .
H3A H -1.0717 0.5955 0.3664 0.032 Uiso 1 1 calc R . .
O2 O -0.8323(4) 0.6571(3) 0.3471(3) 0.0696(13) Uani 1 1 d . . .
O4 O -1.3505(3) 0.6050(2) 0.4379(2) 0.0309(7) Uani 1 1 d . . .
O5 O -0.6569(4) 1.1495(2) 0.2943(3) 0.0520(9) Uani 1 1 d . . .
C5 C -1.2978(4) 0.5287(3) 0.4170(3) 0.0268(9) Uani 1 1 d . . .
C7 C -0.5136(5) 0.9041(3) 0.4849(3) 0.0262(9) Uani 1 1 d . . .
C6 C -0.5281(5) 0.8028(3) 0.4664(3) 0.0271(9) Uani 1 1 d . . .
C10 C -0.5390(5) 1.1173(3) 0.3251(3) 0.0300(10) Uani 1 1 d . . .
C8 C -0.5302(5) 0.9649(3) 0.4045(3) 0.0288(9) Uani 1 1 d . . .
H8A H -0.5521 0.9417 0.3404 0.035 Uiso 1 1 calc R . .
O3 O -1.3638(3) 0.4703(2) 0.3582(2) 0.0409(8) Uani 1 1 d . . .
O8 O -0.5279(4) 0.7489(2) 0.5355(2) 0.0476(9) Uani 1 1 d . . .
C4 C -1.1450(4) 0.5128(3) 0.4630(3) 0.0247(8) Uani 1 1 d . . .
C9 C -0.5143(5) 1.0604(3) 0.4193(3) 0.0275(9) Uani 1 1 d . . .
O1W O -1.5378(8) 0.4036(6) 0.4173(5) 0.058(2) Uani 0.50 1 d P . .

loop_
_atom_site_aniso_label
_atom_site_aniso_U_11
_atom_site_aniso_U_22
_atom_site_aniso_U_33
_atom_site_aniso_U_23
_atom_site_aniso_U_13
_atom_site_aniso_U_12
Zn1 0.0232(3) 0.0155(3) 0.0199(3) -0.00099(16) 0.00637(17) -0.00067(17)
O7 0.0510(19) 0.0179(14) 0.0312(16) -0.0068(12) 0.0098(14) -0.0005(13)
O6 0.054(2) 0.0344(17) 0.0194(14) 0.0043(12) 0.0079(14) -0.0100(14)
O1 0.0240(15) 0.0342(17) 0.0464(18) 0.0094(14) 0.0152(13) -0.0050(13)
C2 0.0195(18) 0.024(2) 0.027(2) 0.0031(16) 0.0050(15) -0.0011(16)
C1 0.027(2) 0.031(2) 0.035(2) 0.0041(19) 0.0067(18) -0.0037(18)
C3 0.0234(19) 0.033(2) 0.023(2) 0.0068(17) 0.0021(16) -0.0002(17)
O2 0.038(2) 0.080(3) 0.094(3) 0.061(3) 0.021(2) 0.0112(19)
O4 0.0235(14) 0.0341(16) 0.0343(16) 0.0032(13) 0.0033(12) 0.0044(12)
O5 0.066(3) 0.050(2) 0.041(2) 0.0142(16) 0.0115(18) 0.0174(19)
C5 0.025(2) 0.033(2) 0.025(2) 0.0059(18) 0.0107(17) -0.0027(18)
C7 0.046(2) 0.018(2) 0.0172(19) -0.0003(15) 0.0136(17) -0.0019(18)
C6 0.042(2) 0.019(2) 0.022(2) -0.0027(16) 0.0098(17) -0.0018(17)
C10 0.052(3) 0.018(2) 0.021(2) -0.0020(16) 0.0097(19) -0.0017(19)
C8 0.049(3) 0.023(2) 0.0146(18) -0.0036(16) 0.0065(17) 0.0034(19)
O3 0.0294(16) 0.0458(19) 0.0418(18) -0.0077(15) -0.0081(14) -0.0011(14)
O8 0.096(3) 0.0168(15) 0.0327(17) 0.0006(13) 0.0199(17) -0.0047(17)
C4 0.0212(18) 0.025(2) 0.029(2) -0.0023(17) 0.0063(16) -0.0011(16)
C9 0.045(2) 0.018(2) 0.022(2) -0.0010(16) 0.0133(18) -0.0004(18)
O1W 0.051(4) 0.069(5) 0.047(4) -0.004(4) -0.008(3) -0.025(4)

_geom_special_details            
; 
 All esds (except the esd in the dihedral angle between two l.s. planes) 
 are estimated using the full covariance matrix.  The cell esds are taken 
 into account individually in the estimation of esds in distances, angles 
 and torsion angles; correlations between esds in cell parameters are only 
 used when they are defined by crystal symmetry.  An approximate (isotropic) 
 treatment of cell esds is used for estimating esds involving l.s. planes. 
;

loop_
_geom_bond_atom_site_label_1
_geom_bond_atom_site_label_2
_geom_bond_distance
_geom_bond_site_symmetry_2
_geom_bond_publ_flag
Zn1 O6 1.961(3) 2_445 ?
Zn1 O1 1.978(3) . ?
Zn1 O7 1.979(3) . ?
Zn1 O4 1.983(3) 1_655 ?
O7 C6 1.304(5) . ?
O6 C10 1.270(5) . ?
O6 Zn1 1.961(3) 2_455 ?
O1 C1 1.268(5) . ?
C2 C3 1.391(5) . ?
C2 C4 1.398(5) 3_366 ?
C2 C1 1.512(5) . ?
C1 O2 1.219(5) . ?
C3 C4 1.386(5) . ?
C3 H3A 0.9300 . ?
O4 C5 1.271(5) . ?
O4 Zn1 1.983(3) 1_455 ?
O5 C10 1.223(6) . ?
C5 O3 1.257(5) . ?
C5 C4 1.500(5) . ?
C7 C9 1.392(5) 3_476 ?
C7 C8 1.398(5) . ?
C7 C6 1.493(5) . ?
C6 O8 1.230(5) . ?
C10 C9 1.516(6) . ?
C8 C9 1.405(6) . ?
C8 H8A 0.9300 . ?
C4 C2 1.398(5) 3_366 ?
C9 C7 1.392(5) 3_476 ?

loop_
_geom_angle_atom_site_label_1
_geom_angle_atom_site_label_2
_geom_angle_atom_site_label_3
_geom_angle
_geom_angle_site_symmetry_1
_geom_angle_site_symmetry_3
_geom_angle_publ_flag
O6 Zn1 O1 107.70(14) 2_445 . ?
O6 Zn1 O7 104.86(12) 2_445 . ?
O1 Zn1 O7 122.44(12) . . ?
O6 Zn1 O4 116.54(13) 2_445 1_655 ?
O1 Zn1 O4 101.58(12) . 1_655 ?
O7 Zn1 O4 104.44(12) . 1_655 ?
C6 O7 Zn1 111.6(2) . . ?
C10 O6 Zn1 118.7(3) . 2_455 ?
C1 O1 Zn1 111.5(3) . . ?
C3 C2 C4 118.8(3) . 3_366 ?
C3 C2 C1 118.7(3) . . ?
C4 C2 C1 122.5(3) 3_366 . ?
O2 C1 O1 123.5(4) . . ?
O2 C1 C2 120.0(4) . . ?
O1 C1 C2 116.4(4) . . ?
C4 C3 C2 122.1(4) . . ?
C4 C3 H3A 119.0 . . ?
C2 C3 H3A 119.0 . . ?
C5 O4 Zn1 118.2(3) . 1_455 ?
O3 C5 O4 123.9(4) . . ?
O3 C5 C4 120.2(4) . . ?
O4 C5 C4 115.8(4) . . ?
C9 C7 C8 119.2(4) 3_476 . ?
C9 C7 C6 121.3(3) 3_476 . ?
C8 C7 C6 119.5(3) . . ?
O8 C6 O7 124.1(4) . . ?
O8 C6 C7 120.5(3) . . ?
O7 C6 C7 115.4(3) . . ?
O5 C10 O6 127.1(4) . . ?
O5 C10 C9 119.4(4) . . ?
O6 C10 C9 113.2(4) . . ?
C7 C8 C9 120.9(4) . . ?
C7 C8 H8A 119.5 . . ?
C9 C8 H8A 119.5 . . ?
C3 C4 C2 119.1(4) . 3_366 ?
C3 C4 C5 117.4(3) . . ?
C2 C4 C5 123.5(3) 3_366 . ?
C7 C9 C8 119.8(4) 3_476 . ?
C7 C9 C10 125.3(4) 3_476 . ?
C8 C9 C10 114.7(3) . . ?

loop_
_geom_torsion_atom_site_label_1
_geom_torsion_atom_site_label_2
_geom_torsion_atom_site_label_3
_geom_torsion_atom_site_label_4
_geom_torsion
_geom_torsion_site_symmetry_1
_geom_torsion_site_symmetry_2
_geom_torsion_site_symmetry_3
_geom_torsion_site_symmetry_4
_geom_torsion_publ_flag
O6 Zn1 O7 C6 177.3(3) 2_445 . . . ?
O1 Zn1 O7 C6 54.5(3) . . . . ?
O4 Zn1 O7 C6 -59.6(3) 1_655 . . . ?
O6 Zn1 O1 C1 -78.6(3) 2_445 . . . ?
O7 Zn1 O1 C1 42.8(3) . . . . ?
O4 Zn1 O1 C1 158.4(3) 1_655 . . . ?
Zn1 O1 C1 O2 10.3(6) . . . . ?
Zn1 O1 C1 C2 -171.1(3) . . . . ?
C3 C2 C1 O2 17.3(7) . . . . ?
C4 C2 C1 O2 -162.1(5) 3_366 . . . ?
C3 C2 C1 O1 -161.3(4) . . . . ?
C4 C2 C1 O1 19.3(6) 3_366 . . . ?
C4 C2 C3 C4 -2.0(7) 3_366 . . . ?
C1 C2 C3 C4 178.7(4) . . . . ?
Zn1 O4 C5 O3 -8.6(5) 1_455 . . . ?
Zn1 O4 C5 C4 168.2(2) 1_455 . . . ?
Zn1 O7 C6 O8 -6.8(6) . . . . ?
Zn1 O7 C6 C7 173.6(3) . . . . ?
C9 C7 C6 O8 6.4(7) 3_476 . . . ?
C8 C7 C6 O8 -172.8(4) . . . . ?
C9 C7 C6 O7 -174.0(4) 3_476 . . . ?
C8 C7 C6 O7 6.8(6) . . . . ?
Zn1 O6 C10 O5 -19.9(6) 2_455 . . . ?
Zn1 O6 C10 C9 154.5(3) 2_455 . . . ?
C9 C7 C8 C9 2.2(7) 3_476 . . . ?
C6 C7 C8 C9 -178.6(4) . . . . ?
C2 C3 C4 C2 2.0(7) . . . 3_366 ?
C2 C3 C4 C5 -177.5(4) . . . . ?
O3 C5 C4 C3 98.5(5) . . . . ?
O4 C5 C4 C3 -78.5(5) . . . . ?
O3 C5 C4 C2 -81.0(5) . . . 3_366 ?
O4 C5 C4 C2 102.1(5) . . . 3_366 ?
C7 C8 C9 C7 -2.2(7) . . . 3_476 ?
C7 C8 C9 C10 -178.6(4) . . . . ?
O5 C10 C9 C7 -82.4(6) . . . 3_476 ?
O6 C10 C9 C7 102.7(5) . . . 3_476 ?
O5 C10 C9 C8 93.8(5) . . . . ?
O6 C10 C9 C8 -81.1(5) . . . . ?

_diffrn_measured_fraction_theta_max 0.999
_diffrn_reflns_theta_full        25.00
_diffrn_measured_fraction_theta_full 0.999
_refine_diff_density_max         0.405
_refine_diff_density_min         -0.678
_refine_diff_density_rms         0.087

# SQUEEZE RESULTS (APPEND TO CIF)
loop_
_platon_squeeze_void_nr
_platon_squeeze_void_average_x
_platon_squeeze_void_average_y
_platon_squeeze_void_average_z
_platon_squeeze_void_volume
_platon_squeeze_void_count_electrons
1 0.000 0.345 -0.061 943.0 150.7
_platon_squeeze_details          
;
;

