####################################################################### 
# 
# This file contains crystal structure data downloaded from the 
# Cambridge Structural Database (CSD) hosted by the Cambridge 
# Crystallographic Data Centre (CCDC).
# 
# Full information about CCDC data access policies and citation 
# guidelines are available at http://www.ccdc.cam.ac.uk/access/V1 
# 
# Audit and citation data items may have been added by the CCDC. 
# Please retain this information to preserve the provenance of 
# this file and to allow appropriate attribution of the data. 
# 
#######################################################################

data_3
_audit_block_doi                 10.5517/cc69l24
_database_code_depnum_ccdc_archive 'CCDC 187955'
loop_
_citation_id
_citation_doi
_citation_year
1 10.1002/1521-3773(20020916)41:18<3395::AID-ANIE3395>3.0.CO;2-D 2002
_audit_update_record             
;
2002-06-17 deposited with the CCDC.	2024-07-12 downloaded from the CCDC.
;

_audit_creation_method           SHELXL-97
_chemical_name_systematic        
; 
? 
;
_chemical_name_common            ?
_chemical_melting_point          ?
_chemical_formula_moiety         ?
_chemical_formula_sum            'C44 H32 N6 Ni O6'
_chemical_formula_weight         799.47

loop_
_atom_type_symbol
_atom_type_description
_atom_type_scat_dispersion_real
_atom_type_scat_dispersion_imag
_atom_type_scat_source
C C 0.0033 0.0016 'International Tables Vol C Tables 4.2.6.8 and 6.1.1.4'
H H 0.0000 0.0000 'International Tables Vol C Tables 4.2.6.8 and 6.1.1.4'
N N 0.0061 0.0033 'International Tables Vol C Tables 4.2.6.8 and 6.1.1.4'
O O 0.0106 0.0060 'International Tables Vol C Tables 4.2.6.8 and 6.1.1.4'
Ni Ni 0.3393 1.1124 'International Tables Vol C Tables 4.2.6.8 and 6.1.1.4'

_symmetry_cell_setting           ?
_symmetry_space_group_name_H-M   ?

loop_
_symmetry_equiv_pos_as_xyz
'x, y, z'
'-x, y, -z+1/2'
'-x, -y, -z'
'x, -y, z-1/2'

_cell_length_a                   13.071(3)
_cell_length_b                   19.853(4)
_cell_length_c                   12.082(3)
_cell_angle_alpha                90.00
_cell_angle_beta                 103.149(4)
_cell_angle_gamma                90.00
_cell_volume                     3053.1(11)
_cell_formula_units_Z            2
_cell_measurement_temperature    193(2)
_cell_measurement_reflns_used    ?
_cell_measurement_theta_min      ?
_cell_measurement_theta_max      ?

_exptl_crystal_description       ?
_exptl_crystal_colour            ?
_exptl_crystal_size_max          0.15
_exptl_crystal_size_mid          0.15
_exptl_crystal_size_min          0.10
_exptl_crystal_density_meas      ?
_exptl_crystal_density_diffrn    0.870
_exptl_crystal_density_method    'not measured'
_exptl_crystal_F_000             828
_exptl_absorpt_coefficient_mu    0.354
_exptl_absorpt_correction_type   ?
_exptl_absorpt_correction_T_min  0.9488
_exptl_absorpt_correction_T_max  0.9654
_exptl_absorpt_process_details   ?

_exptl_special_details           
; 
? 
;

_diffrn_ambient_temperature      193(2)
_diffrn_radiation_wavelength     0.71073
_diffrn_radiation_type           MoK\a
_diffrn_radiation_source         'fine-focus sealed tube'
_diffrn_radiation_monochromator  graphite
_diffrn_measurement_device_type  ?
_diffrn_measurement_method       ?
_diffrn_detector_area_resol_mean ?
_diffrn_standards_number         ?
_diffrn_standards_interval_count ?
_diffrn_standards_interval_time  ?
_diffrn_standards_decay_%        ?
_diffrn_reflns_number            19111
_diffrn_reflns_av_R_equivalents  0.0649
_diffrn_reflns_av_sigmaI/netI    0.0752
_diffrn_reflns_limit_h_min       -14
_diffrn_reflns_limit_h_max       16
_diffrn_reflns_limit_k_min       -26
_diffrn_reflns_limit_k_max       18
_diffrn_reflns_limit_l_min       -15
_diffrn_reflns_limit_l_max       15
_diffrn_reflns_theta_min         1.90
_diffrn_reflns_theta_max         27.94
_reflns_number_total             7099
_reflns_number_gt                4527
_reflns_threshold_expression     >2sigma(I)

_computing_data_collection       ?
_computing_cell_refinement       ?
_computing_data_reduction        ?
_computing_structure_solution    'SHELXS-97 (Sheldrick, 1990)'
_computing_structure_refinement  'SHELXL-97 (Sheldrick, 1997)'
_computing_molecular_graphics    ?
_computing_publication_material  ?

_refine_special_details          
; 
Refinement of F^2^ against ALL reflections.  The weighted R-factor wR and 
goodness of fit S are based on F^2^, conventional R-factors R are based 
on F, with F set to zero for negative F^2^. The threshold expression of 
F^2^ > 2sigma(F^2^) is used only for calculating R-factors(gt) etc. and is 
not relevant to the choice of reflections for refinement.  R-factors based 
on F^2^ are statistically about twice as large as those based on F, and R- 
factors based on ALL data will be even larger. 
;

_refine_ls_structure_factor_coef Fsqd
_refine_ls_matrix_type           full
_refine_ls_weighting_scheme      calc
_refine_ls_weighting_details     
'calc w=1/[\s^2^(Fo^2^)+(0.1340P)^2^+3.7245P] where P=(Fo^2^+2Fc^2^)/3'
_atom_sites_solution_primary     direct
_atom_sites_solution_secondary   difmap
_atom_sites_solution_hydrogens   geom
_refine_ls_hydrogen_treatment    mixed
_refine_ls_extinction_method     none
_refine_ls_extinction_coef       ?
_refine_ls_number_reflns         7099
_refine_ls_number_parameters     390
_refine_ls_number_restraints     0
_refine_ls_R_factor_all          0.1397
_refine_ls_R_factor_gt           0.0871
_refine_ls_wR_factor_ref         0.2566
_refine_ls_wR_factor_gt          0.2219
_refine_ls_goodness_of_fit_ref   1.044
_refine_ls_restrained_S_all      1.044
_refine_ls_shift/su_max          1.201
_refine_ls_shift/su_mean         0.062

loop_
_atom_site_label
_atom_site_type_symbol
_atom_site_fract_x
_atom_site_fract_y
_atom_site_fract_z
_atom_site_U_iso_or_equiv
_atom_site_adp_type
_atom_site_occupancy
_atom_site_symmetry_multiplicity
_atom_site_calc_flag
_atom_site_refinement_flags
_atom_site_disorder_assembly
_atom_site_disorder_group
Ni1 Ni 0.0000 0.13117(3) 2.7500 0.0259(2) Uani 1 2 d S . .
O1A O 0.2421(4) 0.1617(3) 2.9854(6) 0.131(3) Uani 1 1 d . . .
O1B O 0.2063(3) 0.0590(2) 2.9740(4) 0.0785(13) Uani 1 1 d . . .
O3A O 0.0834(2) 0.13389(15) 2.9202(2) 0.0381(7) Uani 1 1 d . . .
N1A N 0.1799(3) 0.1180(2) 2.9602(3) 0.0440(9) Uani 1 1 d . . .
N11A N 0.0000 0.2372(2) 2.7500 0.0386(12) Uani 1 2 d S . .
N41A N 0.0000 1.0269(2) 2.7500 0.0252(9) Uani 1 2 d S . .
C11A C -0.0778(4) 0.2719(2) 2.6839(6) 0.0675(17) Uani 1 1 d . . .
H11A H -0.1347 0.2478 2.6380 0.081 Uiso 1 1 calc R . .
C12A C -0.0792(5) 0.3411(3) 2.6793(9) 0.116(4) Uani 1 1 d . . .
H12A H -0.1342 0.3637 2.6279 0.139 Uiso 1 1 calc R . .
C13A C 0.0000 0.3778(4) 2.7500 0.136(7) Uani 1 2 d S . .
C21A C 0.0000 0.4530(5) 2.7500 0.185(10) Uani 1 2 d S . .
C22A C -0.0973(14) 0.4903(7) 2.8020(14) 0.054(4) Uani 0.33 1 d P . 1
H22A H -0.1485 0.4657 2.8299 0.065 Uiso 0.33 1 calc PR . 1
C23A C 0.0940(14) 0.5592(6) 2.7006(15) 0.053(4) Uani 0.33 1 d P . 1
H23A H 0.1444 0.5856 2.6747 0.064 Uiso 0.33 1 calc PR . 1
C24A C -0.0079(17) 0.5581(8) 2.6490(13) 0.059(4) Uani 0.33 1 d P . 2
H24A H -0.0112 0.5817 2.5799 0.071 Uiso 0.33 1 calc PR . 2
C25A C -0.0111(15) 0.4886(7) 2.6478(13) 0.055(4) Uani 0.33 1 d P . 2
H25A H -0.0207 0.4649 2.5779 0.066 Uiso 0.33 1 calc PR . 2
C26A C -0.0867(14) 0.4890(7) 2.6964(14) 0.052(4) Uani 0.33 1 d P . 3
H26A H -0.1475 0.4654 2.6575 0.062 Uiso 0.33 1 calc PR . 3
C27A C -0.0880(14) 0.5594(6) 2.6974(13) 0.049(4) Uani 0.33 1 d P . 3
H27A H -0.1499 0.5830 2.6615 0.058 Uiso 0.33 1 calc PR . 3
C28A C 0.0000 0.5947(4) 2.7500 0.155(8) Uani 1 2 d S . .
C31A C 0.0000 0.6704(4) 2.7500 0.107(5) Uani 1 2 d S . .
C32A C 0.0562(6) 0.7057(3) 2.6828(7) 0.091(2) Uani 1 1 d . . .
H32A H 0.0940 0.6819 2.6367 0.109 Uiso 1 1 calc R . .
C33A C 0.0563(5) 0.7751(2) 2.6840(5) 0.0608(15) Uani 1 1 d . . .
H33A H 0.0953 0.7989 2.6392 0.073 Uiso 1 1 calc R . .
C34A C 0.0000 0.8109(3) 2.7500 0.0409(14) Uani 1 2 d S . .
C41A C 0.0105(3) 0.99138(19) 2.6587(3) 0.0289(8) Uani 1 1 d . . .
H41A H 0.0169 1.0153 2.5926 0.035 Uiso 1 1 calc R . .
C42A C 0.0124(3) 0.92222(19) 2.6559(3) 0.0301(8) Uani 1 1 d . . .
H42A H 0.0222 0.8996 2.5898 0.036 Uiso 1 1 calc R . .
C43A C 0.0000 0.8852(3) 2.7500 0.0281(11) Uani 1 2 d S . .
N11B N -0.1346(3) 0.13103(16) 2.8211(3) 0.0313(7) Uani 1 1 d . . .
C11B C -0.1318(3) 0.1710(2) 2.9116(4) 0.0347(9) Uani 1 1 d . . .
H11B H -0.0806 0.2058 2.9266 0.042 Uiso 1 1 calc R . .
C12B C -0.1984(3) 0.1644(2) 2.9834(4) 0.0398(10) Uani 1 1 d . . .
H12B H -0.1925 0.1940 3.0463 0.048 Uiso 1 1 calc R . .
C13B C -0.2748(3) 0.1143(2) 2.9642(4) 0.0371(10) Uani 1 1 d . . .
C14B C -0.2817(3) 0.0749(2) 2.8678(4) 0.0399(10) Uani 1 1 d . . .
H14B H -0.3345 0.0413 2.8488 0.048 Uiso 1 1 calc R . .
C15B C -0.2114(3) 0.0849(2) 2.7995(4) 0.0356(9) Uani 1 1 d . . .
H15B H -0.2179 0.0576 2.7337 0.043 Uiso 1 1 calc R . .
C21B C -0.3413(3) 0.1028(2) 3.0471(4) 0.0402(10) Uani 1 1 d . . .
C22B C -0.4475(4) 0.0861(3) 3.0137(4) 0.0481(12) Uani 1 1 d . . .
H22B H -0.4781 0.0782 2.9357 0.058 Uiso 1 1 calc R . .
C23B C -0.5082(3) 0.0811(3) 3.0921(4) 0.0479(12) Uani 1 1 d . . .
H23B H -0.5806 0.0706 3.0668 0.058 Uiso 1 1 calc R . .
C24B C -0.4669(3) 0.0909(3) 3.2078(4) 0.0414(10) Uani 1 1 d . . .
C25B C -0.3600(4) 0.1049(3) 3.2408(4) 0.0521(13) Uani 1 1 d . . .
H25B H -0.3286 0.1105 3.3193 0.063 Uiso 1 1 calc R . .
C26B C -0.2984(4) 0.1110(3) 3.1628(4) 0.0536(13) Uani 1 1 d . . .
H26B H -0.2258 0.1209 3.1883 0.064 Uiso 1 1 calc R . .
C101 C 0.403(3) 0.237(2) 1.854(2) 0.32(3) Uiso 0.99(8) 1 d P . .
C102 C 0.378(3) 0.532(2) 1.822(3) 0.43(4) Uiso 0.94(8) 1 d P . .
C103 C 0.346(3) 0.3345(18) 2.230(3) 0.24(3) Uiso 0.62(6) 1 d P . .
C104 C 0.471(4) 0.275(3) 2.384(6) 0.46(5) Uiso 0.92(11) 1 d P . .
C105 C 0.391(2) 0.308(2) 1.872(3) 0.15(2) Uiso 0.43(5) 1 d P . .
C106 C 0.356(4) 0.317(2) 2.503(4) 0.12(2) Uiso 0.27(5) 1 d P . .
C107 C 0.389(2) 0.448(2) 1.854(2) 0.309(13) Uiso 0.94 1 d P . .
C108 C 0.302(4) 0.387(3) 2.113(6) 0.30(2) Uiso 0.51 1 d P . .
C109 C 0.333(4) 0.409(3) 2.006(5) 0.29(2) Uiso 0.50 1 d P . .
C110 C 0.353(5) 0.318(3) 2.016(5) 0.56(6) Uiso 1.00(11) 1 d . . .
C111 C 0.343(3) 0.2901(18) 1.710(3) 0.127(17) Uiso 0.31(3) 1 d P . .
C112 C 0.395(3) 0.367(2) 1.861(3) 0.103(19) Uiso 0.23(4) 1 d P . .
C113 C 0.466(3) 0.282(2) 2.522(5) 0.32(3) Uiso 0.80(9) 1 d P . .
C114 C 0.508(4) 0.248(2) 1.883(5) 0.12(3) Uiso 0.24(5) 1 d P . .
C115 C 0.324(3) 0.320(2) 1.581(4) 0.14(2) Uiso 0.34(5) 1 d P . .
C116 C 0.449(4) 0.241(2) 1.704(6) 0.25(4) Uiso 0.40(5) 1 d P . .
C117 C 0.209(3) 0.3559(13) 2.566(3) 0.26(2) Uiso 0.83(8) 1 d P . .
C118 C 0.287(7) 0.357(4) 2.495(7) 0.44(6) Uiso 0.81(13) 1 d P . .
C119 C 0.338(4) 0.322(2) 2.384(5) 0.40(4) Uiso 1.00(11) 1 d . . .

loop_
_atom_site_aniso_label
_atom_site_aniso_U_11
_atom_site_aniso_U_22
_atom_site_aniso_U_33
_atom_site_aniso_U_23
_atom_site_aniso_U_13
_atom_site_aniso_U_12
Ni1 0.0357(4) 0.0182(3) 0.0238(3) 0.000 0.0066(3) 0.000
O1A 0.066(3) 0.084(4) 0.203(7) 0.049(4) -0.051(4) -0.024(3)
O1B 0.072(3) 0.073(3) 0.080(3) -0.011(2) -0.004(2) 0.033(2)
O3A 0.0374(15) 0.0532(18) 0.0215(13) -0.0067(13) 0.0021(11) 0.0107(14)
N1A 0.044(2) 0.061(3) 0.0242(17) 0.0059(16) 0.0020(15) 0.0011(19)
N11A 0.035(3) 0.025(2) 0.052(3) 0.000 0.003(2) 0.000
N41A 0.036(2) 0.024(2) 0.0174(19) 0.000 0.0103(17) 0.000
C11A 0.048(3) 0.028(2) 0.110(5) 0.010(3) -0.017(3) -0.002(2)
C12A 0.066(4) 0.026(3) 0.221(10) 0.013(4) -0.039(5) 0.000(3)
C13A 0.063(6) 0.021(4) 0.29(2) 0.000 -0.032(8) 0.000
C21A 0.069(7) 0.019(4) 0.42(3) 0.000 -0.045(11) 0.000
C22A 0.074(11) 0.033(7) 0.060(10) -0.009(7) 0.025(8) -0.001(7)
C23A 0.070(11) 0.018(6) 0.074(11) 0.011(6) 0.020(9) -0.008(7)
C24A 0.104(15) 0.030(8) 0.043(8) 0.010(6) 0.017(9) 0.007(8)
C25A 0.092(13) 0.025(7) 0.045(8) -0.021(6) 0.008(8) 0.001(8)
C26A 0.074(11) 0.021(6) 0.055(9) -0.001(6) 0.005(8) 0.001(7)
C27A 0.072(10) 0.020(6) 0.047(8) 0.004(6) 0.000(8) -0.002(6)
C28A 0.080(7) 0.014(4) 0.33(2) 0.000 -0.034(10) 0.000
C31A 0.079(7) 0.019(4) 0.200(13) 0.000 -0.018(7) 0.000
C32A 0.084(5) 0.032(3) 0.145(7) -0.026(4) 0.003(5) 0.009(3)
C33A 0.069(3) 0.030(2) 0.081(4) -0.014(2) 0.012(3) 0.007(2)
C34A 0.044(3) 0.025(3) 0.051(4) 0.000 0.004(3) 0.000
C41A 0.044(2) 0.0261(19) 0.0190(17) 0.0008(14) 0.0131(15) -0.0032(16)
C42A 0.038(2) 0.030(2) 0.0247(18) -0.0066(15) 0.0130(16) -0.0035(16)
C43A 0.032(3) 0.023(3) 0.030(3) 0.000 0.006(2) 0.000
N11B 0.0370(17) 0.0271(16) 0.0304(16) 0.0015(14) 0.0087(14) 0.0048(14)
C11B 0.037(2) 0.029(2) 0.039(2) -0.0058(17) 0.0111(18) 0.0021(17)
C12B 0.041(2) 0.041(2) 0.039(2) -0.0067(19) 0.0130(19) 0.0089(19)
C13B 0.031(2) 0.046(3) 0.034(2) 0.0007(17) 0.0079(17) 0.0102(18)
C14B 0.037(2) 0.046(3) 0.038(2) -0.0031(19) 0.0112(18) -0.0013(19)
C15B 0.040(2) 0.034(2) 0.032(2) -0.0033(16) 0.0067(17) 0.0001(18)
C21B 0.033(2) 0.053(3) 0.037(2) 0.000(2) 0.0119(18) 0.0057(19)
C22B 0.039(2) 0.071(3) 0.034(2) -0.009(2) 0.0099(19) 0.003(2)
C23B 0.029(2) 0.075(3) 0.039(2) -0.007(2) 0.0077(18) -0.001(2)
C24B 0.032(2) 0.058(3) 0.036(2) 0.001(2) 0.0106(18) 0.004(2)
C25B 0.031(2) 0.095(4) 0.030(2) 0.003(2) 0.0062(18) 0.000(2)
C26B 0.029(2) 0.097(4) 0.035(2) 0.002(2) 0.0072(18) -0.001(2)

_geom_special_details            
; 
All esds (except the esd in the dihedral angle between two l.s. planes) 
are estimated using the full covariance matrix.  The cell esds are taken 
into account individually in the estimation of esds in distances, angles 
and torsion angles; correlations between esds in cell parameters are only 
used when they are defined by crystal symmetry.  An approximate (isotropic) 
treatment of cell esds is used for estimating esds involving l.s. planes. 
;

loop_
_geom_bond_atom_site_label_1
_geom_bond_atom_site_label_2
_geom_bond_distance
_geom_bond_site_symmetry_2
_geom_bond_publ_flag
Ni1 N41A 2.069(4) 1_545 ?
Ni1 O3A 2.097(3) . ?
Ni1 O3A 2.097(3) 2_55: ?
Ni1 N11A 2.105(5) . ?
Ni1 N11B 2.126(3) 2_55: ?
Ni1 N11B 2.126(3) . ?
O1A N1A 1.180(6) . ?
O1B N1A 1.222(6) . ?
O3A N1A 1.284(5) . ?
N11A C11A 1.333(6) 2_55: ?
N11A C11A 1.333(6) . ?
N41A C41A 1.342(4) . ?
N41A C41A 1.342(4) 2_55: ?
N41A Ni1 2.069(4) 1_565 ?
C11A C12A 1.375(8) . ?
C12A C13A 1.389(8) . ?
C13A C12A 1.389(8) 2_55: ?
C13A C21A 1.493(12) . ?
C21A C26A 1.371(17) 2_55: ?
C21A C26A 1.371(16) . ?
C21A C25A 1.401(17) . ?
C21A C25A 1.401(17) 2_55: ?
C21A C22A 1.709(17) 2_55: ?
C21A C22A 1.709(17) . ?
C22A C23A 1.369(19) 2_55: ?
C23A C22A 1.369(19) 2_55: ?
C23A C28A 1.642(17) . ?
C24A C25A 1.38(2) . ?
C24A C28A 1.403(16) . ?
C26A C27A 1.399(18) . ?
C27A C28A 1.372(16) . ?
C28A C27A 1.372(16) 2_55: ?
C28A C24A 1.403(16) 2_55: ?
C28A C31A 1.504(11) . ?
C28A C23A 1.642(17) 2_55: ?
C31A C32A 1.400(9) . ?
C31A C32A 1.400(9) 2_55: ?
C32A C33A 1.377(8) . ?
C33A C34A 1.397(6) . ?
C34A C33A 1.397(6) 2_55: ?
C34A C43A 1.475(8) . ?
C41A C42A 1.374(5) . ?
C42A C43A 1.393(5) . ?
C43A C42A 1.393(5) 2_55: ?
N11B C11B 1.345(5) . ?
N11B C15B 1.340(5) . ?
C11B C12B 1.367(6) . ?
C12B C13B 1.391(6) . ?
C13B C14B 1.389(6) . ?
C13B C21B 1.485(6) . ?
C14B C15B 1.382(6) . ?
C21B C22B 1.394(6) . ?
C21B C26B 1.393(6) . ?
C22B C23B 1.371(6) . ?
C23B C24B 1.392(6) . ?
C24B C25B 1.392(6) . ?
C24B C24B 1.480(8) 2_45; ?
C25B C26B 1.376(6) . ?
C101 C114 1.36(5) . ?
C101 C105 1.44(4) . ?
C101 C111 2.03(4) . ?
C102 C107 1.71(4) . ?
C103 C108 1.75(7) . ?
C103 C119 1.91(6) . ?
C104 C113 1.69(6) . ?
C105 C112 1.18(5) . ?
C105 C110 1.93(6) . ?
C105 C114 1.92(7) . ?
C105 C111 1.94(5) . ?
C106 C115 1.12(5) 1_556 ?
C106 C118 1.19(8) . ?
C106 C119 1.40(6) . ?
C106 C113 1.56(6) . ?
C107 C112 1.62(6) . ?
C107 C109 2.26(6) . ?
C108 C109 1.51(6) . ?
C108 C110 2.01(7) . ?
C109 C112 2.24(7) . ?
C111 C115 1.63(6) . ?
C111 C116 1.71(6) . ?
C113 C114 1.31(6) 2_659 ?
C114 C116 1.31(8) 2_658 ?
C114 C113 1.31(6) 2_659 ?
C115 C106 1.12(5) 1_554 ?
C115 C118 1.28(7) 1_554 ?
C115 C117 1.64(5) 1_554 ?
C116 C114 1.31(8) 2_658 ?
C116 C116 1.54(9) 2_658 ?
C117 C118 1.47(9) . ?
C117 C115 1.64(5) 1_556 ?
C118 C115 1.28(7) 1_556 ?
C118 C119 1.76(10) . ?

loop_
_geom_angle_atom_site_label_1
_geom_angle_atom_site_label_2
_geom_angle_atom_site_label_3
_geom_angle
_geom_angle_site_symmetry_1
_geom_angle_site_symmetry_3
_geom_angle_publ_flag
N41A Ni1 O3A 91.47(9) 1_545 . ?
N41A Ni1 O3A 91.47(9) 1_545 2_55: ?
O3A Ni1 O3A 177.05(17) . 2_55: ?
N41A Ni1 N11A 180.000(2) 1_545 . ?
O3A Ni1 N11A 88.53(9) . . ?
O3A Ni1 N11A 88.53(9) 2_55: . ?
N41A Ni1 N11B 89.92(9) 1_545 2_55: ?
O3A Ni1 N11B 95.91(12) . 2_55: ?
O3A Ni1 N11B 84.09(12) 2_55: 2_55: ?
N11A Ni1 N11B 90.08(9) . 2_55: ?
N41A Ni1 N11B 89.92(9) 1_545 . ?
O3A Ni1 N11B 84.09(12) . . ?
O3A Ni1 N11B 95.91(12) 2_55: . ?
N11A Ni1 N11B 90.08(9) . . ?
N11B Ni1 N11B 179.85(18) 2_55: . ?
N1A O3A Ni1 127.6(2) . . ?
O1A N1A O1B 120.9(5) . . ?
O1A N1A O3A 118.5(5) . . ?
O1B N1A O3A 120.6(4) . . ?
C11A N11A C11A 117.8(6) 2_55: . ?
C11A N11A Ni1 121.1(3) 2_55: . ?
C11A N11A Ni1 121.1(3) . . ?
C41A N41A C41A 116.5(4) . 2_55: ?
C41A N41A Ni1 121.7(2) . 1_565 ?
C41A N41A Ni1 121.7(2) 2_55: 1_565 ?
N11A C11A C12A 122.8(5) . . ?
C11A C12A C13A 119.9(6) . . ?
C12A C13A C12A 116.7(8) 2_55: . ?
C12A C13A C21A 121.7(4) 2_55: . ?
C12A C13A C21A 121.7(4) . . ?
C26A C21A C26A 117.2(14) 2_55: . ?
C26A C21A C25A 93.6(10) 2_55: . ?
C26A C21A C25A 54.0(10) . . ?
C26A C21A C25A 54.0(10) 2_55: 2_55: ?
C26A C21A C25A 93.6(10) . 2_55: ?
C25A C21A C25A 119.4(12) . 2_55: ?
C26A C21A C13A 121.4(7) 2_55: . ?
C26A C21A C13A 121.4(7) . . ?
C25A C21A C13A 120.3(6) . . ?
C25A C21A C13A 120.3(6) 2_55: . ?
C26A C21A C22A 49.0(9) 2_55: 2_55: ?
C26A C21A C