####################################################################### 
# 
# This file contains crystal structure data downloaded from the 
# Cambridge Structural Database (CSD) hosted by the Cambridge 
# Crystallographic Data Centre (CCDC).
# 
# Full information about CCDC data access policies and citation 
# guidelines are available at http://www.ccdc.cam.ac.uk/access/V1 
# 
# Audit and citation data items may have been added by the CCDC. 
# Please retain this information to preserve the provenance of 
# this file and to allow appropriate attribution of the data. 
# 
#######################################################################

data_nk005
_audit_block_doi                 10.5517/cc4qyf6
_database_code_depnum_ccdc_archive 'CCDC 141218'
loop_
_citation_id
_citation_doi
_citation_year
1 10.1002/1521-3773(20001103)39:21<3843::AID-ANIE3843>3.0.CO;2-# 2000
2 10.1002/1521-3773(20020916)41:18<3395::AID-ANIE3395>3.0.CO;2-D 2002
_audit_update_record             
;
2000-02-29 deposited with the CCDC.	2024-07-12 downloaded from the CCDC.
;

_audit_creation_method           SHELXL-97
_chemical_name_systematic        
; 
Ni[bis-(4-pyridyl)biphenyl)(NO3)]2.4(o-xylene)  
;
_chemical_name_common            ?
_chemical_melting_point          ?
_chemical_formula_moiety         ?
_chemical_formula_sum            'C76 H72 N6 Ni O6'
_chemical_formula_weight         1224.11

loop_
_atom_type_symbol
_atom_type_description
_atom_type_scat_dispersion_real
_atom_type_scat_dispersion_imag
_atom_type_scat_source
C C 0.0033 0.0016 'International Tables Vol C Tables 4.2.6.8 and 6.1.1.4'
H H 0.0000 0.0000 'International Tables Vol C Tables 4.2.6.8 and 6.1.1.4'
N N 0.0061 0.0033 'International Tables Vol C Tables 4.2.6.8 and 6.1.1.4'
O O 0.0106 0.0060 'International Tables Vol C Tables 4.2.6.8 and 6.1.1.4'
Ni Ni 0.3393 1.1124 'International Tables Vol C Tables 4.2.6.8 and 6.1.1.4'

_symmetry_cell_setting           Monoclinic
_symmetry_space_group_name_H-M   C2/c

loop_
_symmetry_equiv_pos_as_xyz
'x, y, z'
'-x, y, -z+1/2'
'x+1/2, y+1/2, z'
'-x+1/2, y+1/2, -z+1/2'
'-x, -y, -z'
'x, -y, z-1/2'
'-x+1/2, -y+1/2, -z'
'x+1/2, -y+1/2, z-1/2'

_cell_length_a                   27.187(3)
_cell_length_b                   19.962(2)
_cell_length_c                   12.6845(14)
_cell_angle_alpha                90.00
_cell_angle_beta                 106.923(2)
_cell_angle_gamma                90.00
_cell_volume                     6585.9(12)
_cell_formula_units_Z            4
_cell_measurement_temperature    193(2)
_cell_measurement_reflns_used    ?
_cell_measurement_theta_min      ?
_cell_measurement_theta_max      ?

_exptl_crystal_description       ?
_exptl_crystal_colour            ?
_exptl_crystal_size_max          0.20
_exptl_crystal_size_mid          0.20
_exptl_crystal_size_min          0.15
_exptl_crystal_density_meas      ?
_exptl_crystal_density_diffrn    1.235
_exptl_crystal_density_method    'not measured'
_exptl_crystal_F_000             2584
_exptl_absorpt_coefficient_mu    0.352
_exptl_absorpt_correction_type   ?
_exptl_absorpt_correction_T_min  0.9329
_exptl_absorpt_correction_T_max  0.9490
_exptl_absorpt_process_details   ?

_exptl_special_details           
; 
? 
;

_diffrn_ambient_temperature      193(2)
_diffrn_radiation_wavelength     0.71073
_diffrn_radiation_type           MoK\a
_diffrn_radiation_source         'fine-focus sealed tube'
_diffrn_radiation_monochromator  graphite
_diffrn_measurement_device_type  ?
_diffrn_measurement_method       ?
_diffrn_detector_area_resol_mean ?
_diffrn_standards_number         ?
_diffrn_standards_interval_count ?
_diffrn_standards_interval_time  ?
_diffrn_standards_decay_%        ?
_diffrn_reflns_number            21160
_diffrn_reflns_av_R_equivalents  0.0345
_diffrn_reflns_av_sigmaI/netI    0.0413
_diffrn_reflns_limit_h_min       -31
_diffrn_reflns_limit_h_max       35
_diffrn_reflns_limit_k_min       -18
_diffrn_reflns_limit_k_max       26
_diffrn_reflns_limit_l_min       -16
_diffrn_reflns_limit_l_max       12
_diffrn_reflns_theta_min         1.29
_diffrn_reflns_theta_max         27.98
_reflns_number_total             7770
_reflns_number_gt                5932
_reflns_threshold_expression     >2sigma(I)

_computing_data_collection       ?
_computing_cell_refinement       ?
_computing_data_reduction        ?
_computing_structure_solution    'SHELXS-97 (Sheldrick, 1990)'
_computing_structure_refinement  'SHELXL-97 (Sheldrick, 1997)'
_computing_molecular_graphics    ?
_computing_publication_material  ?

_refine_special_details          
; 
Refinement of F^2^ against ALL reflections.  The weighted R-factor wR and 
goodness of fit S are based on F^2^, conventional R-factors R are based 
on F, with F set to zero for negative F^2^. The threshold expression of 
F^2^ > 2sigma(F^2^) is used only for calculating R-factors(gt) etc. and is 
not relevant to the choice of reflections for refinement.  R-factors based 
on F^2^ are statistically about twice as large as those based on F, and R- 
factors based on ALL data will be even larger. 
;

_refine_ls_structure_factor_coef Fsqd
_refine_ls_matrix_type           full
_refine_ls_weighting_scheme      calc
_refine_ls_weighting_details     
'calc w=1/[\s^2^(Fo^2^)+(0.1000P)^2^+0.0000P] where P=(Fo^2^+2Fc^2^)/3'
_atom_sites_solution_primary     direct
_atom_sites_solution_secondary   difmap
_atom_sites_solution_hydrogens   geom
_refine_ls_hydrogen_treatment    mixed
_refine_ls_extinction_method     none
_refine_ls_extinction_coef       ?
_refine_ls_number_reflns         7770
_refine_ls_number_parameters     406
_refine_ls_number_restraints     0
_refine_ls_R_factor_all          0.0903
_refine_ls_R_factor_gt           0.0671
_refine_ls_wR_factor_ref         0.2054
_refine_ls_wR_factor_gt          0.1916
_refine_ls_goodness_of_fit_ref   1.428
_refine_ls_restrained_S_all      1.428
_refine_ls_shift/su_max          0.294
_refine_ls_shift/su_mean         0.010

loop_
_atom_site_label
_atom_site_type_symbol
_atom_site_fract_x
_atom_site_fract_y
_atom_site_fract_z
_atom_site_U_iso_or_equiv
_atom_site_adp_type
_atom_site_occupancy
_atom_site_symmetry_multiplicity
_atom_site_calc_flag
_atom_site_refinement_flags
_atom_site_disorder_assembly
_atom_site_disorder_group
Ni1 Ni 0.5000 0.73923(2) 0.7500 0.01821(16) Uani 1 2 d S . .
N1A N 0.59543(11) 0.71799(16) 0.6617(2) 0.0437(7) Uani 1 1 d . . .
O1A O 0.6131(2) 0.7194(4) 0.5887(4) 0.167(3) Uani 1 1 d . . .
O2A O 0.62839(14) 0.7090(2) 0.7494(4) 0.0982(13) Uani 1 1 d . . .
O3A O 0.55340(8) 0.74263(10) 0.6583(2) 0.0351(5) Uani 1 1 d . . .
N11A N 0.5000 1.63383(15) 0.7500 0.0236(7) Uani 1 2 d S . .
C11A C 0.45641(11) 1.59856(13) 0.7101(2) 0.0276(6) Uani 1 1 d . . .
H11A H 0.4251 1.6225 0.6821 0.033 Uiso 1 1 calc R . .
C12A C 0.45472(11) 1.52957(13) 0.7078(3) 0.0302(6) Uani 1 1 d . . .
H12A H 0.4230 1.5069 0.6778 0.036 Uiso 1 1 calc R . .
C13A C 0.5000 1.49330(18) 0.7500 0.0264(8) Uani 1 2 d S . .
C21A C 0.5000 1.41872(18) 0.7500 0.0270(8) Uani 1 2 d S . .
C22A C 0.47122(11) 1.38338(13) 0.6581(2) 0.0280(6) Uani 1 1 d . . .
H22A H 0.4512 1.4070 0.5952 0.034 Uiso 1 1 calc R . .
C23A C 0.47165(10) 1.31367(13) 0.6578(2) 0.0261(6) Uani 1 1 d . . .
H23A H 0.4524 1.2901 0.5940 0.031 Uiso 1 1 calc R . .
C24A C 0.5000 1.27805(17) 0.7500 0.0242(8) Uani 1 2 d S . .
C31A C 0.5000 1.20316(17) 0.7500 0.0269(8) Uani 1 2 d S . .
C32A C 0.50085(12) 1.16741(13) 0.6564(3) 0.0324(6) Uani 1 1 d . . .
H32A H 0.5008 1.1909 0.5913 0.039 Uiso 1 1 calc R . .
C33A C 0.50176(13) 1.09802(14) 0.6569(3) 0.0332(7) Uani 1 1 d . . .
H33A H 0.5036 1.0747 0.5928 0.040 Uiso 1 1 calc R . .
C34A C 0.5000 1.06155(18) 0.7500 0.0271(8) Uani 1 2 d S . .
N41A N 0.5000 0.84608(14) 0.7500 0.0215(6) Uani 1 2 d S . .
C41A C 0.47822(11) 0.88128(14) 0.8139(3) 0.0299(6) Uani 1 1 d . . .
H41A H 0.4628 0.8574 0.8608 0.036 Uiso 1 1 calc R . .
C42A C 0.47686(12) 0.95069(14) 0.8157(3) 0.0330(7) Uani 1 1 d . . .
H42A H 0.4601 0.9730 0.8617 0.040 Uiso 1 1 calc R . .
C43A C 0.5000 0.98771(18) 0.7500 0.0257(8) Uani 1 2 d S . .
N11B N 0.44372(8) 0.74146(10) 0.59611(19) 0.0218(4) Uani 1 1 d . . .
C11B C 0.40122(11) 0.77973(14) 0.5772(2) 0.0280(6) Uani 1 1 d . . .
H11B H 0.3962 0.8054 0.6363 0.034 Uiso 1 1 calc R . .
C12B C 0.36451(11) 0.78325(15) 0.4756(2) 0.0306(6) Uani 1 1 d . . .
H12B H 0.3348 0.8102 0.4665 0.037 Uiso 1 1 calc R . .
C13B C 0.37111(11) 0.74717(13) 0.3863(2) 0.0264(6) Uani 1 1 d . . .
C14B C 0.41481(11) 0.70737(14) 0.4077(2) 0.0272(6) Uani 1 1 d . . .
H14B H 0.4208 0.6810 0.3504 0.033 Uiso 1 1 calc R . .
C15B C 0.44974(10) 0.70568(13) 0.5122(2) 0.0246(6) Uani 1 1 d . . .
H15B H 0.4792 0.6778 0.5243 0.030 Uiso 1 1 calc R . .
C21B C 0.33484(11) 0.75075(14) 0.2747(2) 0.0293(6) Uani 1 1 d . . .
C22B C 0.28171(12) 0.75635(18) 0.2545(3) 0.0400(8) Uani 1 1 d . . .
H22B H 0.2679 0.7601 0.3149 0.048 Uiso 1 1 calc R . .
C23B C 0.24915(12) 0.75650(19) 0.1491(3) 0.0413(8) Uani 1 1 d . . .
H23B H 0.2132 0.7601 0.1382 0.050 Uiso 1 1 calc R . .
C24B C 0.26747(11) 0.75151(14) 0.0573(2) 0.0294(6) Uani 1 1 d . . .
C25B C 0.32072(12) 0.7495(2) 0.0779(3) 0.0437(9) Uani 1 1 d . . .
H25B H 0.3349 0.7488 0.0176 0.052 Uiso 1 1 calc R . .
C26B C 0.35311(12) 0.74843(19) 0.1835(3) 0.0435(9) Uani 1 1 d . . .
H26B H 0.3891 0.7461 0.1944 0.052 Uiso 1 1 calc R . .
C101 C 0.33552(16) 0.9391(2) 0.7841(5) 0.0648(12) Uani 1 1 d . . .
C102 C 0.33734(18) 1.0068(2) 0.7807(5) 0.0648(12) Uani 1 1 d . . .
C103 C 0.3635(3) 1.0410(4) 0.8739(8) 0.115(3) Uani 1 1 d . . .
H103 H 0.3665 1.0883 0.8723 0.139 Uiso 1 1 calc R . .
C104 C 0.3855(3) 1.0059(9) 0.9708(10) 0.190(9) Uani 1 1 d . . .
H104 H 0.4020 1.0296 1.0365 0.228 Uiso 1 1 calc R . .
C105 C 0.3836(4) 0.9391(11) 0.9723(10) 0.238(12) Uani 1 1 d . . .
H105 H 0.4004 0.9154 1.0378 0.285 Uiso 1 1 calc R . .
C106 C 0.3590(2) 0.9068(4) 0.8853(8) 0.120(3) Uani 1 1 d . . .
H106 H 0.3566 0.8594 0.8892 0.144 Uiso 1 1 calc R . .
C107 C 0.3070(2) 0.8981(4) 0.6850(7) 0.115(3) Uani 1 1 d . . .
H10A H 0.3103 0.8504 0.7041 0.173 Uiso 1 1 calc R . .
H10B H 0.3217 0.9066 0.6243 0.173 Uiso 1 1 calc R . .
H10C H 0.2706 0.9108 0.6625 0.173 Uiso 1 1 calc R . .
C108 C 0.3104(3) 1.0455(4) 0.6793(7) 0.128(3) Uani 1 1 d . . .
H10D H 0.3163 1.0935 0.6935 0.191 Uiso 1 1 calc R . .
H10E H 0.2734 1.0362 0.6593 0.191 Uiso 1 1 calc R . .
H10F H 0.3238 1.0321 0.6186 0.191 Uiso 1 1 calc R . .
C201 C 0.31097(15) 0.4527(2) 0.0549(4) 0.0607(11) Uani 1 1 d . . .
C202 C 0.30957(16) 0.5231(2) 0.0592(4) 0.0589(11) Uani 1 1 d . . .
C203 C 0.33485(17) 0.5591(2) -0.0031(4) 0.0675(13) Uani 1 1 d . . .
H203 H 0.3343 0.6067 -0.0011 0.081 Uiso 1 1 calc R . .
C204 C 0.36074(18) 0.5275(3) -0.0675(4) 0.0711(13) Uani 1 1 d . . .
H204 H 0.3773 0.5530 -0.1106 0.085 Uiso 1 1 calc R . .
C205 C 0.3622(2) 0.4579(3) -0.0687(5) 0.0799(16) Uani 1 1 d . . .
H205 H 0.3805 0.4355 -0.1117 0.096 Uiso 1 1 calc R . .
C206 C 0.33761(18) 0.4220(3) -0.0084(5) 0.0692(13) Uani 1 1 d . . .
H206 H 0.3389 0.3745 -0.0101 0.083 Uiso 1 1 calc R . .
C207 C 0.2844(2) 0.4115(3) 0.1211(6) 0.0911(18) Uani 1 1 d . . .
H20A H 0.2670 0.4413 0.1602 0.137 Uiso 1 1 calc R . .
H20B H 0.3098 0.3843 0.1746 0.137 Uiso 1 1 calc R . .
H20C H 0.2591 0.3821 0.0718 0.137 Uiso 1 1 calc R . .
C208 C 0.2812(2) 0.5591(3) 0.1265(5) 0.0864(16) Uani 1 1 d . . .
H20D H 0.2655 0.5265 0.1646 0.130 Uiso 1 1 calc R . .
H20E H 0.2542 0.5870 0.0782 0.130 Uiso 1 1 calc R . .
H20F H 0.3051 0.5876 0.1809 0.130 Uiso 1 1 calc R . .

loop_
_atom_site_aniso_label
_atom_site_aniso_U_11
_atom_site_aniso_U_22
_atom_site_aniso_U_33
_atom_site_aniso_U_23
_atom_site_aniso_U_13
_atom_site_aniso_U_12
Ni1 0.0229(2) 0.0150(2) 0.0155(2) 0.000 0.00362(17) 0.000
N1A 0.0427(16) 0.0634(19) 0.0304(16) 0.0086(13) 0.0191(13) 0.0169(13)
O1A 0.090(3) 0.344(9) 0.078(4) 0.002(4) 0.043(3) 0.068(4)
O2A 0.061(2) 0.121(3) 0.092(3) -0.007(2) -0.010(2) 0.034(2)
O3A 0.0349(11) 0.0342(11) 0.0425(14) 0.0106(9) 0.0210(10) 0.0101(8)
N11A 0.0276(16) 0.0205(15) 0.0203(17) 0.000 0.0036(13) 0.000
C11A 0.0294(14) 0.0198(12) 0.0300(15) 0.0003(11) 0.0032(12) 0.0014(10)
C12A 0.0297(14) 0.0209(13) 0.0346(17) -0.0023(11) 0.0007(12) -0.0029(10)
C13A 0.033(2) 0.0177(17) 0.026(2) 0.000 0.0043(16) 0.000
C21A 0.0298(19) 0.0164(17) 0.034(2) 0.000 0.0086(17) 0.000
C22A 0.0326(15) 0.0198(13) 0.0286(16) 0.0039(11) 0.0043(12) 0.0018(10)
C23A 0.0296(14) 0.0188(12) 0.0298(16) -0.0040(10) 0.0086(12) -0.0042(10)
C24A 0.0286(18) 0.0151(16) 0.032(2) 0.000 0.0131(16) 0.000
C31A 0.0297(19) 0.0155(17) 0.035(2) 0.000 0.0084(17) 0.000
C32A 0.0502(18) 0.0192(13) 0.0314(17) 0.0018(11) 0.0174(14) -0.0019(12)
C33A 0.0528(19) 0.0201(13) 0.0288(16) -0.0017(11) 0.0154(14) -0.0019(12)
C34A 0.034(2) 0.0182(18) 0.031(2) 0.000 0.0108(17) 0.000
N41A 0.0253(15) 0.0166(14) 0.0214(16) 0.000 0.0049(12) 0.000
C41A 0.0410(16) 0.0187(13) 0.0353(17) -0.0006(11) 0.0195(13) -0.0019(11)
C42A 0.0477(18) 0.0191(13) 0.0396(18) -0.0020(12) 0.0243(15) 0.0024(11)
C43A 0.0287(19) 0.0168(17) 0.030(2) 0.000 0.0052(16) 0.000
N11B 0.0252(11) 0.0210(10) 0.0177(11) 0.0005(8) 0.0040(9) -0.0006(8)
C11B 0.0322(14) 0.0286(13) 0.0210(14) -0.0012(11) 0.0044(11) 0.0064(11)
C12B 0.0298(14) 0.0364(15) 0.0225(15) 0.0012(12) 0.0025(11) 0.0092(11)
C13B 0.0238(13) 0.0310(15) 0.0218(14) 0.0042(10) 0.0027(10) -0.0014(10)
C14B 0.0315(14) 0.0314(15) 0.0176(14) -0.0013(10) 0.0052(11) 0.0000(11)
C15B 0.0263(13) 0.0257(13) 0.0193(14) 0.0001(10) 0.0024(11) 0.0037(10)
C21B 0.0271(14) 0.0388(17) 0.0191(14) 0.0027(11) 0.0021(11) 0.0013(10)
C22B 0.0270(15) 0.072(2) 0.0202(15) -0.0038(14) 0.0057(12) 0.0009(14)
C23B 0.0211(14) 0.077(2) 0.0232(15) -0.0013(15) 0.0030(12) 0.0025(13)
C24B 0.0240(13) 0.0432(17) 0.0183(15) 0.0022(11) 0.0022(11) -0.0002(11)
C25B 0.0275(15) 0.084(3) 0.0182(15) 0.0048(15) 0.0044(12) 0.0026(14)
C26B 0.0199(14) 0.084(3) 0.0234(16) 0.0056(16) 0.0014(12) 0.0017(14)
C101 0.045(2) 0.074(3) 0.083(4) 0.005(3) 0.030(2) 0.010(2)
C102 0.054(2) 0.067(3) 0.080(3) -0.004(2) 0.030(2) 0.011(2)
C103 0.075(4) 0.142(6) 0.138(7) -0.081(6) 0.044(4) -0.004(4)
C104 0.040(4) 0.42(2) 0.104(8) -0.135(13) 0.008(4) 0.023(8)
C105 0.078(7) 0.57(3) 0.074(7) 0.073(13) 0.034(5) 0.128(14)
C106 0.062(4) 0.165(7) 0.156(8) 0.090(6) 0.065(5) 0.039(4)
C107 0.080(4) 0.119(5) 0.150(7) -0.061(5) 0.040(4) -0.010(4)
C108 0.147(7) 0.140(6) 0.121(7) 0.057(5) 0.079(6) 0.063(5)
C201 0.039(2) 0.063(3) 0.068(3) -0.003(2) -0.0034(19) 0.0064(17)
C202 0.047(2) 0.062(3) 0.060(3) -0.008(2) 0.004(2) 0.0114(18)
C203 0.058(3) 0.060(3) 0.076(3) -0.007(2) 0.006(2) 0.006(2)
C204 0.055(3) 0.092(4) 0.063(3) -0.003(3) 0.011(2) 0.000(2)
C205 0.061(3) 0.097(4) 0.072(4) -0.026(3) 0.003(3) 0.016(3)
C206 0.060(3) 0.065(3) 0.073(3) -0.015(2) 0.004(2) 0.010(2)
C207 0.075(4) 0.090(4) 0.103(5) 0.018(3) 0.016(3) 0.000(3)
C208 0.085(4) 0.082(4) 0.098(5) -0.009(3) 0.036(3) 0.019(3)

_geom_special_details            
; 
All esds (except the esd in the dihedral angle between two l.s. planes) 
are estimated using the full covariance matrix.  The cell esds are taken 
into account individually in the estimation of esds in distances, angles 
and torsion angles; correlations between esds in cell parameters are only 
used when they are defined by crystal symmetry.  An approximate (isotropic) 
treatment of cell esds is used for estimating esds involving l.s. planes. 
;

loop_
_geom_bond_atom_site_label_1
_geom_bond_atom_site_label_2
_geom_bond_distance
_geom_bond_site_symmetry_2
_geom_bond_publ_flag
Ni1 N11B 2.101(2) 2_656 ?
Ni1 N11B 2.101(2) . ?
Ni1 N11A 2.104(3) 1_545 ?
Ni1 O3A 2.109(2) . ?
Ni1 O3A 2.109(2) 2_656 ?
Ni1 N41A 2.133(3) . ?
N1A O1A 1.162(5) . ?
N1A O2A 1.221(5) . ?
N1A O3A 1.233(3) . ?
N11A C11A 1.344(3) 2_656 ?
N11A C11A 1.344(3) . ?
N11A Ni1 2.104(3) 1_565 ?
C11A C12A 1.378(4) . ?
C12A C13A 1.394(3) . ?
C13A C12A 1.394(3) 2_656 ?
C13A C21A 1.489(5) . ?
C21A C22A 1.392(3) . ?
C21A C22A 1.392(3) 2_656 ?
C22A C23A 1.392(4) . ?
C23A C24A 1.394(3) . ?
C24A C23A 1.394(3) 2_656 ?
C24A C31A 1.495(5) . ?
C31A C32A 1.391(3) . ?
C31A C32A 1.391(3) 2_656 ?
C32A C33A 1.385(4) . ?
C33A C34A 1.400(4) . ?
C34A C33A 1.400(4) 2_656 ?
C34A C43A 1.474(5) . ?
N41A C41A 1.334(3) 2_656 ?
N41A C41A 1.334(3) . ?
C41A C42A 1.386(4) . ?
C42A C43A 1.393(3) . ?
C43A C42A 1.393(3) 2_656 ?
N11B C15B 1.331(4) . ?
N11B C11B 1.347(3) . ?
C11B C12B 1.384(4) . ?
C12B C13B 1.397(4) . ?
C13B C14B 1.389(4) . ?
C13B C21B 1.473(4) . ?
C14B C15B 1.387(4) . ?
C21B C26B 1.386(5) . ?
C21B C22B 1.396(4) . ?
C22B C23B 1.372(4) . ?
C23B C24B 1.397(4) . ?
C24B C25B 1.395(4) . ?
C24B C24B 1.488(5) 7_565 ?
C25B C26B 1.372(4) . ?
C101 C102 1.353(7) . ?
C101 C106 1.412(9) . ?
C101 C107 1.511(8) . ?
C102 C103 1.371(9) . ?
C102 C108 1.496(8) . ?
C103 C104 1.390(16) . ?
C104 C105 1.33(2) . ?
C105 C106 1.285(17) . ?
C201 C206 1.372(7) . ?
C201 C202 1.408(6) . ?
C201 C207 1.502(7) . ?
C202 C203 1.389(7) . ?
C202 C208 1.493(7) . ?
C203 C204 1.377(7) . ?
C204 C205 1.391(7) . ?
C205 C206 1.359(8) . ?

loop_
_geom_angle_atom_site_label_1
_geom_angle_atom_site_label_2
_geom_angle_atom_site_label_3
_geom_angle
_geom_angle_site_symmetry_1
_geom_angle_site_symmetry_3
_geom_angle_publ_flag
N11B Ni1 N11B 177.57(12) 2_656 . ?
N11B Ni1 N11A 91.21(6) 2_656 1_545 ?
N11B Ni1 N11A 91.22(6) . 1_545 ?
N11B Ni1 O3A 94.57(9) 2_656 . ?
N11B Ni1 O3A 85.35(9) . . ?
N11A Ni1 O3A 91.85(6) 1_545 . ?
N11B Ni1 O3A 85.35(9) 2_656 2_656 ?
N11B Ni1 O3A 