####################################################################### 
# 
# This file contains crystal structure data downloaded from the 
# Cambridge Structural Database (CSD) hosted by the Cambridge 
# Crystallographic Data Centre (CCDC).
# 
# Full information about CCDC data access policies and citation 
# guidelines are available at http://www.ccdc.cam.ac.uk/access/V1 
# 
# Audit and citation data items may have been added by the CCDC. 
# Please retain this information to preserve the provenance of 
# this file and to allow appropriate attribution of the data. 
# 
#######################################################################

data_I
_audit_block_doi                 10.5517/cc13p0tm
_database_code_depnum_ccdc_archive 'CCDC 1033100'
loop_
_citation_id
_citation_doi
_citation_year
1 10.1002/cplu.201500104 2015
_audit_update_record             
;
2014-11-07 deposited with the CCDC.	2024-07-12 downloaded from the CCDC.
;
_chemical_name_systematic        ?
_chemical_name_common            ?
_chemical_formula_moiety         ?
_chemical_formula_sum            'C50 H22 Cu3 O15'
_chemical_formula_iupac          ?
_chemical_formula_weight         1053.29

_chemical_melting_point          ?

_space_group_crystal_system      tetragonal
_space_group_name_H-M_alt        'I 4/m'
_space_group_name_Hall           '-I 4'
loop_
_space_group_symop_operation_xyz
'x, y, z'
'-x, -y, z'
'-y, x, z'
'y, -x, z'
'x+1/2, y+1/2, z+1/2'
'-x+1/2, -y+1/2, z+1/2'
'-y+1/2, x+1/2, z+1/2'
'y+1/2, -x+1/2, z+1/2'
'-x, -y, -z'
'x, y, -z'
'y, -x, -z'
'-y, x, -z'
'-x+1/2, -y+1/2, -z+1/2'
'x+1/2, y+1/2, -z+1/2'
'y+1/2, -x+1/2, -z+1/2'
'-y+1/2, x+1/2, -z+1/2'

_cell_length_a                   31.369(4)
_cell_length_b                   31.369(4)
_cell_length_c                   19.806(3)
_cell_angle_alpha                90
_cell_angle_beta                 90
_cell_angle_gamma                90
_cell_volume                     19489.(6)
_cell_formula_units_Z            4
_cell_measurement_reflns_used    9886
_cell_measurement_theta_min      2.4323
_cell_measurement_theta_max      25.6769
_cell_measurement_temperature    103.(2)

_exptl_crystal_description       block
_exptl_crystal_colour            blue
_exptl_crystal_size_max          0.240
_exptl_crystal_size_mid          0.200
_exptl_crystal_size_min          0.200
_exptl_crystal_density_diffrn    0.359
_exptl_crystal_density_meas      ?
_exptl_crystal_density_method    'not measured'
_exptl_crystal_F_000             2116

_exptl_absorpt_coefficient_mu    0.341
_exptl_absorpt_correction_type   multi-scan
_exptl_absorpt_process_details   'SADABS V2012/1 (Bruker AXS Inc.)'
_exptl_absorpt_correction_T_min  0.72
_exptl_absorpt_correction_T_max  0.94

_exptl_special_details           
;
;

_diffrn_ambient_temperature      103.(2)

_diffrn_source                   'fine-focus sealed tube'
_diffrn_source_type              ?

_diffrn_radiation_type           MoK\a
_diffrn_radiation_wavelength     0.71073
_diffrn_radiation_monochromator  graphite
_diffrn_measurement_device_type  'CCD area detector'
_diffrn_measurement_method       'phi and omega scans'
_diffrn_detector_area_resol_mean 8.3333
_diffrn_reflns_number            89394
_diffrn_reflns_av_R_equivalents  0.1517
_diffrn_reflns_av_unetI/netI     0.1139
_diffrn_reflns_theta_min         1.78
_diffrn_reflns_theta_max         25.84
_diffrn_reflns_theta_full        25.84
_diffrn_measured_fraction_theta_max 0.989
_diffrn_measured_fraction_theta_full 0.989
_diffrn_reflns_limit_h_min       -38
_diffrn_reflns_limit_h_max       38
_diffrn_reflns_limit_k_min       -36
_diffrn_reflns_limit_k_max       38
_diffrn_reflns_limit_l_min       -20
_diffrn_reflns_limit_l_max       24

_refine_special_details          SQUEEZE

_reflns_number_total             9606
_reflns_number_gt                4051
_reflns_threshold_expression     'I > 2\s(I)'

_refine_ls_structure_factor_coef Fsqd
_refine_ls_matrix_type           full
_refine_ls_R_factor_all          0.1714
_refine_ls_R_factor_gt           0.0874
_refine_ls_wR_factor_gt          0.2978
_refine_ls_wR_factor_ref         0.3673
_refine_ls_goodness_of_fit_ref   1.059
_refine_ls_restrained_S_all      1.059
_refine_ls_number_reflns         9606
_refine_ls_number_parameters     317
_refine_ls_number_restraints     0
_refine_ls_number_constraints    ?
_refine_ls_hydrogen_treatment    constr
_refine_ls_weighting_scheme      calc
_refine_ls_weighting_details     
'w=1/[\s^2^(Fo^2^)+(0.2000P)^2^] where P=(Fo^2^+2Fc^2^)/3'

_atom_sites_solution_hydrogens   geom
_atom_sites_solution_primary     ?
_atom_sites_solution_secondary   ?

_refine_ls_shift/su_max          0.001
_refine_ls_shift/su_mean         0.000
_refine_diff_density_max         0.203
_refine_diff_density_min         -0.378
_refine_ls_extinction_method     none
_refine_ls_extinction_coef       ?

loop_
_atom_type_symbol
_atom_type_description
_atom_type_scat_dispersion_real
_atom_type_scat_dispersion_imag
_atom_type_scat_source
C C 0.0033 0.0016 'International Tables Vol C Tables 4.2.6.8 and 6.1.1.4'
H H 0.0000 0.0000 'International Tables Vol C Tables 4.2.6.8 and 6.1.1.4'
O O 0.0106 0.0060 'International Tables Vol C Tables 4.2.6.8 and 6.1.1.4'
Cu Cu 0.3201 1.2651 'International Tables Vol C Tables 4.2.6.8 and 6.1.1.4'

_computing_data_collection       'APEX2 (Bruker AXS Inc., 2014)'
_computing_cell_refinement       'SAINT V8.34A (Bruker AXS Inc., 2013)'
_computing_data_reduction        'SAINT V8.34A (Bruker AXS Inc., 2013)'
_computing_structure_solution    ?
_computing_structure_refinement  'SHELXL-2014/6 (Sheldrick, 2014)'
_computing_molecular_graphics    'XP (Bruker AXS Inc., 2014)'
_computing_publication_material  'APEX2 (Bruker AXS Inc., 2014)'

loop_
_atom_site_type_symbol
_atom_site_label
_atom_site_fract_x
_atom_site_fract_y
_atom_site_fract_z
_atom_site_U_iso_or_equiv
_atom_site_adp_type
_atom_site_calc_flag
_atom_site_refinement_flags_adp
_atom_site_refinement_flags_occupancy
_atom_site_refinement_flags_posn
_atom_site_occupancy
_atom_site_disorder_assembly
_atom_site_disorder_group
C C1 0.6856(3) 0.2150(3) 0.5859(5) 0.084(2) Uani d . P . 0.5 . .
C C2 0.7211(3) 0.2082(3) 0.6327(5) 0.091(3) Uani d . P . 0.5 . .
C C3 0.7503(2) 0.2395(3) 0.6440(5) 0.088(2) Uani d . P . 0.5 . .
H H3 0.7475 0.2662 0.6219 0.106 Uiso calc U P R 0.5 . .
C C4 0.7856(3) 0.2324(3) 0.6895(5) 0.097(3) Uani d . P . 0.5 . .
C C5 0.7879(3) 0.1925(4) 0.7210(6) 0.131(4) Uani d . P . 0.5 . .
H H5 0.8108 0.1868 0.751 0.157 Uiso calc U P R 0.5 . .
C C6 0.7584(4) 0.1618(3) 0.7100(6) 0.117(3) Uani d . P . 0.5 . .
C C7 0.7262(3) 0.1693(3) 0.6655(5) 0.106(3) Uani d . P . 0.5 . .
H H7 0.7064 0.1471 0.6565 0.128 Uiso calc U P R 0.5 . .
C C8 0.8158(3) 0.2647(4) 0.6997(5) 0.106(3) Uani d . P . 0.5 . .
C C9 0.8407(3) 0.2945(3) 0.7087(5) 0.105(3) Uani d . P . 0.5 . .
C C10 0.8675(3) 0.3298(3) 0.7189(5) 0.104(3) Uani d . P . 0.5 . .
C C11 0.8851(3) 0.3401(4) 0.7803(5) 0.116(4) Uani d . P . 0.5 . .
H H11 0.8788 0.3227 0.8182 0.14 Uiso calc U P R 0.5 . .
C C12 0.9107(3) 0.3734(4) 0.7887(5) 0.105(3) Uani d . P . 0.5 . .
H H12 0.923 0.3786 0.8317 0.126 Uiso calc U P R 0.5 . .
C C13 0.9195(3) 0.4008(3) 0.7356(5) 0.101(3) Uani d . P . 0.5 . .
C C14 0.9488(3) 0.4369(3) 0.7432(5) 0.091(3) Uani d . P . 0.5 . .
C C15 0.8996(4) 0.3905(4) 0.6730(6) 0.140(4) Uani d . P . 0.5 . .
H H15 0.9047 0.4088 0.6357 0.168 Uiso calc U P R 0.5 . .
C C16 0.8749(4) 0.3579(4) 0.6634(6) 0.136(4) Uani d . P . 0.5 . .
H H16 0.8622 0.3529 0.6207 0.163 Uiso calc U P R 0.5 . .
C C17 0.7596(4) 0.1212(4) 0.7472(7) 0.143(5) Uani d . P . 0.5 . .
C C18 0.7575(4) 0.0868(4) 0.7714(7) 0.147(5) Uani d . P . 0.5 . .
C C19 0.7536(3) 0.0478(3) 0.8056(6) 0.121(4) Uani d . P . 0.5 . .
C C20 0.7142(4) 0.0351(4) 0.8199(8) 0.188(7) Uani d . P . 0.5 . .
H H20 0.691 0.0522 0.8052 0.226 Uiso calc U P R 0.5 . .
C C21 0.7059(3) -0.0012(4) 0.8549(8) 0.166(5) Uani d . P . 0.5 . .
H H21 0.6774 -0.0086 0.8662 0.2 Uiso calc U P R 0.5 . .
C C22 0.7409(3) -0.0284(2) 0.8749(5) 0.098(3) Uani d . P . 0.5 . .
C C23 0.7320(3) -0.0678(3) 0.9161(5) 0.090(3) Uani d . P . 0.5 . .
C C24 0.7790(3) -0.0138(3) 0.8614(6) 0.114(4) Uani d . P . 0.5 . .
H H24 0.8032 -0.0302 0.8739 0.137 Uiso calc U P R 0.5 . .
C C25 0.7851(3) 0.0251(3) 0.8294(6) 0.133(4) Uani d . P . 0.5 . .
H H25 0.8134 0.0356 0.8245 0.159 Uiso calc U P R 0.5 . .
Cu Cu1 0.61944(4) 0.18258(4) 0.5 0.0808(5) Uani d T P S 0.5 . .
Cu Cu2 0.63452(4) 0.26616(4) 0.5 0.0649(4) Uani d T P S 0.5 . .
Cu Cu3 1.0 0.5 0.68294(7) 0.0859(5) Uani d T P S 0.5 . .
O O1 0.67861(15) 0.25333(16) 0.5679(3) 0.0799(15) Uani d . P . 0.5 . .
O O2 0.66324(18) 0.18348(16) 0.5689(3) 0.0883(16) Uani d . P . 0.5 . .
O O3 0.9614(2) 0.4532(2) 0.6862(3) 0.107(2) Uani d . P . 0.5 . .
O O4 0.9607(2) 0.4494(2) 0.7997(3) 0.1021(19) Uani d . P . 0.5 . .
O O5 0.69446(16) -0.07603(17) 0.9323(3) 0.0887(16) Uani d . P . 0.5 . .
O O6 0.76560(17) -0.08980(16) 0.9303(3) 0.0872(16) Uani d . P . 0.5 . .
O O7 0.6145(5) 0.1121(4) 0.510(2) 0.201(12) Uani d . P . 0.25 . .
O O8 0.6432(2) 0.3333(2) 0.5 0.0764(19) Uani d T P S 0.5 . .
O O9 1.0 0.5 0.5752(5) 0.251(10) Uani d T P S 0.5 . .

loop_
_atom_site_aniso_label
_atom_site_aniso_U_11
_atom_site_aniso_U_22
_atom_site_aniso_U_33
_atom_site_aniso_U_12
_atom_site_aniso_U_13
_atom_site_aniso_U_23
C1 0.088(6) 0.073(6) 0.091(6) 0.013(5) 0.006(5) 0.030(5)
C2 0.087(6) 0.083(6) 0.104(7) 0.008(5) -0.011(5) 0.039(5)
C3 0.072(5) 0.099(6) 0.094(7) -0.008(5) -0.002(5) 0.021(5)
C4 0.075(6) 0.106(7) 0.109(8) -0.006(5) -0.015(5) 0.036(6)
C5 0.084(7) 0.164(11) 0.145(10) -0.005(7) -0.028(7) 0.083(9)
C6 0.115(8) 0.109(8) 0.127(9) 0.007(6) -0.041(7) 0.048(7)
C7 0.092(6) 0.087(6) 0.140(9) -0.003(5) -0.023(6) 0.004(6)
C8 0.085(6) 0.135(9) 0.098(7) 0.010(6) -0.028(5) 0.052(6)
C9 0.082(6) 0.112(8) 0.121(8) -0.009(6) -0.024(6) 0.034(6)
C10 0.077(6) 0.139(9) 0.096(7) 0.001(6) -0.014(5) 0.038(7)
C11 0.094(7) 0.169(10) 0.086(7) -0.037(7) -0.026(6) 0.062(7)
C12 0.072(6) 0.165(9) 0.079(7) -0.010(6) -0.014(5) 0.030(7)
C13 0.109(7) 0.104(7) 0.090(8) -0.002(6) 0.005(6) 0.033(6)
C14 0.088(6) 0.109(7) 0.076(7) 0.008(5) 0.008(5) 0.005(6)
C15 0.199(12) 0.115(9) 0.106(9) -0.056(8) -0.034(8) 0.049(7)
C16 0.159(10) 0.154(10) 0.093(8) -0.063(8) -0.032(7) 0.042(7)
C17 0.133(9) 0.131(10) 0.167(12) -0.024(7) -0.048(8) 0.062(9)
C18 0.132(9) 0.136(10) 0.175(12) -0.002(7) -0.056(8) 0.083(9)
C19 0.090(7) 0.117(8) 0.157(10) -0.020(6) -0.035(7) 0.058(7)
C20 0.147(12) 0.143(10) 0.275(19) 0.005(9) -0.041(11) 0.146(12)
C21 0.085(7) 0.197(13) 0.217(15) 0.008(8) -0.032(8) 0.060(12)
C22 0.094(6) 0.069(5) 0.131(8) 0.001(5) -0.043(6) 0.034(5)
C23 0.091(7) 0.091(6) 0.088(6) -0.002(5) -0.029(5) 0.012(5)
C24 0.074(6) 0.108(7) 0.161(10) -0.017(5) -0.020(6) 0.056(7)
C25 0.109(8) 0.094(7) 0.195(12) -0.009(6) -0.038(7) 0.071(8)
Cu1 0.0801(9) 0.0546(8) 0.1078(12) 0.0031(6) 0 0
Cu2 0.0601(8) 0.0581(7) 0.0766(9) 0.0038(5) 0 0
Cu3 0.1095(11) 0.0936(10) 0.0546(9) -0.0092(8) 0 0
O1 0.076(3) 0.075(3) 0.089(4) -0.002(3) -0.002(3) 0.012(3)
O2 0.102(4) 0.058(3) 0.105(5) -0.002(3) -0.003(3) 0.024(3)
O3 0.122(5) 0.114(5) 0.085(5) -0.028(4) 0.013(4) -0.003(4)
O4 0.113(5) 0.115(5) 0.079(4) -0.018(4) 0.002(4) 0.011(4)
O5 0.061(3) 0.096(4) 0.110(5) 0.000(3) -0.014(3) 0.020(3)
O6 0.077(3) 0.074(3) 0.110(5) 0.007(3) -0.008(3) 0.025(3)
O7 0.181(13) 0.084(8) 0.34(3) -0.038(7) 0.15(2) -0.094(17)
O8 0.078(4) 0.061(4) 0.090(5) 0.004(3) 0 0
O9 0.54(3) 0.161(11) 0.055(7) -0.091(14) 0 0

_geom_special_details            
;
All esds (except the esd in the dihedral angle between two l.s. planes)
are estimated using the full covariance matrix.  The cell esds are taken
into account individually in the estimation of esds in distances, angles
and torsion angles; correlations between esds in cell parameters are only
used when they are defined by crystal symmetry.  An approximate (isotropic)
treatment of cell esds is used for estimating esds involving l.s. planes.
;

loop_
_geom_bond_atom_site_label_1
_geom_bond_atom_site_label_2
_geom_bond_site_symmetry_2
_geom_bond_distance
_geom_bond_publ_flag
C1 O2 . 1.257(9) ?
C1 O1 . 1.273(8) ?
C1 C2 . 1.465(11) ?
C2 C3 . 1.362(11) ?
C2 C7 . 1.393(11) ?
C3 C4 . 1.442(11) ?
C4 C5 . 1.401(12) ?
C4 C8 . 1.403(14) ?
C5 C6 . 1.353(13) ?
C6 C7 . 1.360(12) ?
C6 C17 . 1.472(14) ?
C8 C9 . 1.231(13) ?
C9 C10 . 1.404(14) ?
C10 C11 . 1.374(13) ?
C10 C16 . 1.428(13) ?
C11 C12 . 1.327(13) ?
C12 C13 . 1.385(12) ?
C13 C15 . 1.427(13) ?
C13 C14 . 1.465(13) ?
C14 O4 . 1.243(10) ?
C14 O3 . 1.301(10) ?
C15 C16 . 1.296(12) ?
C17 C18 . 1.181(14) ?
C18 C19 . 1.405(14) ?
C19 C25 . 1.306(12) ?
C19 C20 . 1.328(15) ?
C20 C21 . 1.359(14) ?
C21 C22 . 1.443(13) ?
C22 C24 . 1.309(11) ?
C22 C23 . 1.507(11) ?
C23 O5 . 1.249(10) ?
C23 O6 . 1.291(9) ?
C24 C25 . 1.386(12) ?
Cu1 O2 . 1.936(6) ?
Cu1 O2 10_556 1.936(6) ?
Cu1 O5 7_544 1.947(5) ?
Cu1 O5 16_546 1.947(5) ?
Cu1 O7 . 2.225(13) ?
Cu1 O7 10_556 2.225(13) ?
Cu1 Cu2 . 2.6639(17) ?
Cu2 O6 7_544 1.968(5) ?
Cu2 O6 16_546 1.968(5) ?
Cu2 O1 . 1.971(5) ?
Cu2 O1 10_556 1.971(5) ?
Cu2 O8 . 2.125(6) ?
Cu3 O3 . 1.904(6) ?
Cu3 O3 2_765 1.904(6) ?
Cu3 O4 16_646 2.040(6) ?
Cu3 O4 15_566 2.040(6) ?
Cu3 O9 . 2.135(11) ?
Cu3 Cu3 15_566 2.656(3) ?
O4 Cu3 15_566 2.040(6) ?
O5 Cu1 15_556 1.947(5) ?
O6 Cu2 15_556 1.968(5) ?
O7 O7 10_556 0.41(8) ?

loop_
_geom_angle_atom_site_label_1
_geom_angle_atom_site_label_2
_geom_angle_atom_site_label_3
_geom_angle_site_symmetry_1
_geom_angle_site_symmetry_3
_geom_angle
_geom_angle_publ_flag
O2 C1 O1 . . 124.9(8) ?
O2 C1 C2 . . 118.7(7) ?
O1 C1 C2 . . 116.3(8) ?
C3 C2 C7 . . 118.5(8) ?
C3 C2 C1 . . 120.9(7) ?
C7 C2 C1 . . 120.6(8) ?
C2 C3 C4 . . 120.5(8) ?
C5 C4 C8 . . 123.1(9) ?
C5 C4 C3 . . 117.2(9) ?
C8 C4 C3 . . 119.8(8) ?
C6 C5 C4 . . 121.9(9) ?
C5 C6 C7 . . 119.2(9) ?
C5 C6 C17 . . 121.2(9) ?
C7 C6 C17 . . 119.6(10) ?
C6 C7 C2 . . 122.6(9) ?
C9 C8 C4 . . 176.7(10) ?
C8 C9 C10 . . 177.5(11) ?
C11 C10 C9 . . 123.7(9) ?
C11 C10 C16 . . 118.0(10) ?
C9 C10 C16 . . 118.2(10) ?
C12 C11 C10 . . 122.7(9) ?
C11 C12 C13 . . 120.9(9) ?
C12 C13 C15 . . 115.6(9) ?
C12 C13 C14 . . 121.8(10) ?
C15 C13 C14 . . 122.6(9) ?
O4 C14 O3 . . 124.5(9) ?
O4 C14 C13 . . 121.6(9) ?
O3 C14 C13 . . 113.9(9) ?
C16 C15 C13 . . 124.6(10) ?
C15 C16 C10 . . 118.2(10) ?
C18 C17 C6 . . 172.3(14) ?
C17 C18 C19 . . 174.9(17) ?
C25 C19 C20 . . 117.7(10) ?
C25 C19 C18 . . 125.8(10) ?
C20 C19 C18 . . 116.3(10) ?
C19 C20 C21 . . 122.5(11) ?
C20 C21 C22 . . 119.3(11) ?
C24 C22 C21 . . 115.5(9) ?
C24 C22 C23 . . 124.5(8) ?
C21 C22 C23 . . 119.5(9) ?
O5 C23 O6 . . 127.1(8) ?
O5 C23 C22 . . 118.9(8) ?
O6 C23 C22 . . 114.0(8) ?
C22 C24 C25 . . 121.8(9) ?
C19 C25 C24 . . 122.6(9) ?
O2 Cu1 O2 . 10_556 89.6(3) ?
O2 Cu1 O5 . 7_544 168.1(2) ?
O2 Cu1 O5 10_556 7_544 90.5(2) ?
O2 Cu1 O5 . 16_546 90.5(2) ?
O2 Cu1 O5 10_556 16_546 168.1(2) ?
O5 Cu1 O5 7_544 16_546 87.1(3) ?
O2 Cu1 O7 . . 90.0(9) ?
O2 Cu1 O7 10_556 . 97.4(6) ?
O5 Cu1 O7 7_544 . 101.8(9) ?
O5 Cu1 O7 16_546 . 94.5(6) ?
O2 Cu1 O7 . 10_556 97.4(6) ?
O2 Cu1 O7 10_556 10_556 90.0(9) ?
O5 Cu1 O7 7_544 10_556 94.5(6) ?
O5 Cu1 O7 16_546 10_556 101.8(9) ?
O7 Cu1 O7 . 10_556 10.(2) ?
O2 Cu1 Cu2 . . 81.93(16) ?
O2 Cu1 Cu2 10_556 . 81.93(16) ?
O5 Cu1 Cu2 7_544 . 86.32(16) ?
O5 Cu1 Cu2 16_546 . 86.32(16) ?
O7 Cu1 Cu2 . . 171.9(8) ?
O7 Cu1 Cu2 10_556 . 171.9(8) ?
O6 Cu2 O6 7_544 16_546 89.1(3) ?
O6 Cu2 O1 7_544 . 167.7(2) ?
O6 Cu2 O1 16_546 . 91.1(2) ?
O6 Cu2 O1 7_544 10_556 91.1(2) ?
O6 Cu2 O1 16_546 10_556 167.7(2) ?
O1 Cu2 O1 . 10_556 86.1(3) ?
O6 Cu2 O8 7_544 . 95.8(2) ?
O6 Cu2 O8 16_546 . 95.8(2) ?
O1 Cu2 O8 . . 96.44(19) ?
O1 Cu2 O8 10_556 . 96.44(19) ?
O6 Cu2 Cu1 7_544 . 82.22(16) ?
O6 Cu2 Cu1 16_546 . 82.22(16) ?
O1 Cu2 Cu1 . . 85.62(15) ?
O1 Cu2 Cu1 10_556 . 85.62(15) ?
O8 Cu2 Cu1 . . 177.17(18) ?
O3 Cu3 O3 . 2_765 176.1(4) ?
O3 Cu3 O4 . 16_646 91.3(3) ?
O3 Cu3 O4 2_765 16_646 88.0(3) ?
O3 Cu3 O4 . 15_566 88.0(3) ?
O3 Cu3 O4 2_765 15_566 91.3(3) ?
O4 Cu3 O4 16_646 15_566 160.6(4) ?
O3 Cu3 O9 . . 91.93(19) ?
O3 Cu3 O9 2_765 . 91.93(19) ?
O4 Cu3 O9 16_646 . 99.72(18) ?
O4 Cu3 O9 15_566 . 99.72(18) ?
O3 Cu3 Cu3 . 15_566 88.07(19) ?
O3 Cu3 Cu3 2_765 15_566 88.07(19) ?
O4 Cu3 Cu3 16_646 15_566 80.28(18) ?
O4 Cu3 Cu3 15_566 15_566 80.28(18) ?
O9 Cu3 Cu3 . 15_566 180.0 ?
C1 O1 Cu2 . . 120.3(5) ?
C1 O2 Cu1 . . 126.6(5) ?
C14 O3 Cu3 . . 121.7(6) ?
C14 O4 Cu3 . 15_566 125.4(6) ?
C23 O5 Cu1 . 15_556 120.2(5) ?
C23 O6 Cu2 . 15_556 122.8(5) ?
O7 O7 Cu1 10_556 . 84.8(10) ?

_shelx_res_file                  
;
TITL zhao42r in I4/m
CELL 0.71073  31.36890  31.36890  19.80570  90.0000  90.0000  90.0000
ZERR   4.0  0.00440   0.00440   0.00290   0.0000   0.0000   0.0000
LATT 2
SYMM -X, -Y, Z
SYMM -Y, X, Z
SYMM Y, -X, Z
SFAC C  H  O  Cu
UNIT 200  