####################################################################### 
# 
# This file contains crystal structure data downloaded from the 
# Cambridge Structural Database (CSD) hosted by the Cambridge 
# Crystallographic Data Centre (CCDC).
# 
# Full information about CCDC data access policies and citation 
# guidelines are available at http://www.ccdc.cam.ac.uk/access/V1 
# 
# Audit and citation data items may have been added by the CCDC. 
# Please retain this information to preserve the provenance of 
# this file and to allow appropriate attribution of the data. 
# 
#######################################################################

data_compound2
_audit_block_doi                 10.5517/ccrmxs1
_database_code_depnum_ccdc_archive 'CCDC 704344'
loop_
_citation_id
_citation_doi
_citation_year
1 10.1039/b905190m 2009
_audit_update_record             
;
2008-10-02 deposited with the CCDC.	2024-07-12 downloaded from the CCDC.
;

_audit_creation_method           SHELXL-97
_chemical_name_systematic        
;
?
;
_chemical_name_common            ?
_chemical_melting_point          'not measured'
_chemical_formula_moiety         'C47 H41 N3 O10 Zn2'
_chemical_formula_sum            'C47 H41 N3 O10 Zn2'
_chemical_formula_weight         938.57

loop_
_atom_type_symbol
_atom_type_description
_atom_type_scat_dispersion_real
_atom_type_scat_dispersion_imag
_atom_type_scat_source
C C 0.0033 0.0016 'International Tables Vol C Tables 4.2.6.8 and 6.1.1.4'
H H 0.0000 0.0000 'International Tables Vol C Tables 4.2.6.8 and 6.1.1.4'
N N 0.0061 0.0033 'International Tables Vol C Tables 4.2.6.8 and 6.1.1.4'
O O 0.0106 0.0060 'International Tables Vol C Tables 4.2.6.8 and 6.1.1.4'
Zn Zn 0.2839 1.4301 'International Tables Vol C Tables 4.2.6.8 and 6.1.1.4'

_symmetry_cell_setting           Monoclinic
_symmetry_space_group_name_H-M   C2/c
_symmetry_space_group_name_Hall  'C -2yc'

loop_
_symmetry_equiv_pos_as_xyz
'x, y, z'
'-x, y, -z+1/2'
'x+1/2, y+1/2, z'
'-x+1/2, y+1/2, -z+1/2'
'-x, -y, -z'
'x, -y, z-1/2'
'-x+1/2, -y+1/2, -z'
'x+1/2, -y+1/2, z-1/2'

_cell_length_a                   33.894(5)
_cell_length_b                   21.734(5)
_cell_length_c                   20.420(5)
_cell_angle_alpha                90.000
_cell_angle_beta                 124.565(5)
_cell_angle_gamma                90.000
_cell_volume                     12387(5)
_cell_formula_units_Z            8
_cell_measurement_temperature    293(2)
_cell_measurement_reflns_used    12247
_cell_measurement_theta_min      1.20
_cell_measurement_theta_max      26.02

_exptl_crystal_description       block
_exptl_crystal_colour            colourless
_exptl_crystal_size_max          0.30
_exptl_crystal_size_mid          0.26
_exptl_crystal_size_min          0.21
_exptl_crystal_density_meas      none
_exptl_crystal_density_diffrn    0.926
_exptl_crystal_density_method    'not measured'
_exptl_crystal_F_000             3536
_exptl_absorpt_coefficient_mu    0.812
_exptl_absorpt_correction_type   empirical
_exptl_absorpt_correction_T_min  0.784
_exptl_absorpt_correction_T_max  0.843
_exptl_absorpt_process_details   SADABS

_exptl_special_details           
;
?
;

_diffrn_ambient_temperature      293(2)
_diffrn_radiation_wavelength     0.71069
_diffrn_radiation_type           MoK\a
_diffrn_radiation_source         'fine-focus sealed tube'
_diffrn_radiation_monochromator  graphite
_diffrn_measurement_device_type  'CCD area detector'
_diffrn_measurement_method       'phi and omega scans'
_diffrn_detector_area_resol_mean 9.00cm
_diffrn_standards_number         none
_diffrn_standards_interval_count none
_diffrn_standards_interval_time  none
_diffrn_standards_decay_%        none
_diffrn_reflns_number            34589
_diffrn_reflns_av_R_equivalents  0.0574
_diffrn_reflns_av_sigmaI/netI    0.0730
_diffrn_reflns_limit_h_min       -41
_diffrn_reflns_limit_h_max       40
_diffrn_reflns_limit_k_min       -26
_diffrn_reflns_limit_k_max       23
_diffrn_reflns_limit_l_min       -25
_diffrn_reflns_limit_l_max       22
_diffrn_reflns_theta_min         1.37
_diffrn_reflns_theta_max         26.14
_reflns_number_total             12247
_reflns_number_gt                7212
_reflns_threshold_expression     >2sigma(I)

_computing_data_collection       'Bruker SMART'
_computing_cell_refinement       'Bruker SMART'
_computing_data_reduction        'Bruker SAINT'
_computing_structure_solution    'SHELXS-97 (Sheldrick, 1990)'
_computing_structure_refinement  'SHELXL-97 (Sheldrick, 1997)'
_computing_molecular_graphics    SHELXP-97
_computing_publication_material  SHELXTL

_refine_special_details          
;
Refinement of F^2^ against ALL reflections. The weighted R-factor wR and
goodness of fit S are based on F^2^, conventional R-factors R are based
on F, with F set to zero for negative F^2^. The threshold expression of
F^2^ > 2sigma(F^2^) is used only for calculating R-factors(gt) etc. and is
not relevant to the choice of reflections for refinement. R-factors based
on F^2^ are statistically about twice as large as those based on F, and R-
factors based on ALL data will be even larger.
After caculation by elemental microanalysis, TGA and single crystal X-ray
diffraction studies, there is really one DMF molecule in the asymmetric unit.
;

_refine_ls_structure_factor_coef Fsqd
_refine_ls_matrix_type           full
_refine_ls_weighting_scheme      calc
_refine_ls_weighting_details     
'calc w=1/[\s^2^(Fo^2^)+(0.1744P)^2^+47.4506P] where P=(Fo^2^+2Fc^2^)/3'
_atom_sites_solution_primary     direct
_atom_sites_solution_secondary   difmap
_atom_sites_solution_hydrogens   geom
_refine_ls_hydrogen_treatment    constr
_refine_ls_extinction_method     none
_refine_ls_extinction_coef       ?
_refine_ls_number_reflns         12247
_refine_ls_number_parameters     479
_refine_ls_number_restraints     0
_refine_ls_R_factor_all          0.1297
_refine_ls_R_factor_gt           0.0821
_refine_ls_wR_factor_ref         0.3086
_refine_ls_wR_factor_gt          0.2704
_refine_ls_goodness_of_fit_ref   1.056
_refine_ls_restrained_S_all      1.056
_refine_ls_shift/su_max          0.000
_refine_ls_shift/su_mean         0.000

loop_
_atom_site_label
_atom_site_type_symbol
_atom_site_fract_x
_atom_site_fract_y
_atom_site_fract_z
_atom_site_U_iso_or_equiv
_atom_site_adp_type
_atom_site_occupancy
_atom_site_symmetry_multiplicity
_atom_site_calc_flag
_atom_site_refinement_flags
_atom_site_disorder_assembly
_atom_site_disorder_group
C1 C 0.3806(2) 0.0816(4) -0.1769(4) 0.053(2) Uani 1 1 d . . .
H1 H 0.4122 0.0938 -0.1408 0.064 Uiso 1 1 calc R . .
C2 C 0.3429(2) 0.1108(3) -0.1781(4) 0.0474(17) Uani 1 1 d . . .
C3 C 0.2965(3) 0.0910(4) -0.2301(5) 0.059(2) Uani 1 1 d . . .
H3 H 0.2720 0.1104 -0.2300 0.070 Uiso 1 1 calc R . .
C4 C 0.2855(3) 0.0437(4) -0.2815(5) 0.062(2) Uani 1 1 d . . .
H4 H 0.2540 0.0303 -0.3153 0.074 Uiso 1 1 calc R . .
C5 C 0.2831(2) -0.0687(3) -0.3915(4) 0.0493(18) Uani 1 1 d . . .
H5 H 0.2520 -0.0621 -0.4061 0.059 Uiso 1 1 calc R . .
C6 C 0.2931(2) -0.1138(3) -0.4284(4) 0.0456(17) Uani 1 1 d . . .
H6 H 0.2681 -0.1376 -0.4683 0.055 Uiso 1 1 calc R . .
C7 C 0.3393(2) -0.1242(3) -0.4072(4) 0.0423(16) Uani 1 1 d . . .
C8 C 0.3771(2) -0.0898(3) -0.3461(4) 0.0516(19) Uani 1 1 d . . .
H8 H 0.4083 -0.0971 -0.3306 0.062 Uiso 1 1 calc R . .
C9 C 0.4037(3) -0.0028(4) -0.2397(6) 0.074(3) Uani 1 1 d . . .
C10 C 0.3697(2) 0.0349(4) -0.2298(5) 0.055(2) Uani 1 1 d . . .
C11 C 0.3219(3) 0.0154(3) -0.2831(4) 0.0505(19) Uani 1 1 d . . .
C12 C 0.3208(2) -0.0339(3) -0.3326(4) 0.0475(18) Uani 1 1 d . . .
C13 C 0.3681(2) -0.0456(4) -0.3092(4) 0.0512(19) Uani 1 1 d . . .
C14 C 0.4301(4) 0.0380(5) -0.2641(8) 0.130(6) Uani 1 1 d . . .
H14A H 0.4512 0.0131 -0.2703 0.196 Uiso 1 1 calc R . .
H14B H 0.4485 0.0685 -0.2238 0.196 Uiso 1 1 calc R . .
H14C H 0.4073 0.0580 -0.3136 0.196 Uiso 1 1 calc R . .
C15 C 0.4380(3) -0.0410(5) -0.1645(6) 0.111(5) Uani 1 1 d . . .
H15A H 0.4591 -0.0644 -0.1721 0.167 Uiso 1 1 calc R . .
H15B H 0.4197 -0.0684 -0.1546 0.167 Uiso 1 1 calc R . .
H15C H 0.4565 -0.0139 -0.1198 0.167 Uiso 1 1 calc R . .
C16 C 0.3534(3) 0.1620(3) -0.1217(4) 0.0428(16) Uani 1 1 d . . .
C17 C 0.3484(2) -0.1722(3) -0.4494(4) 0.0368(14) Uani 1 1 d . . .
C18 C 0.3403(2) 0.4087(3) -0.2251(4) 0.0491(18) Uani 1 1 d . . .
H18 H 0.3087 0.4000 -0.2436 0.059 Uiso 1 1 calc R . .
C19 C 0.3780(3) 0.3772(3) -0.1589(4) 0.0529(19) Uani 1 1 d . . .
C20 C 0.4246(3) 0.3914(4) -0.1306(5) 0.083(3) Uani 1 1 d . . .
H20 H 0.4494 0.3702 -0.0868 0.100 Uiso 1 1 calc R . .
C21 C 0.4353(3) 0.4353(5) -0.1648(6) 0.099(4) Uani 1 1 d . . .
H21 H 0.4671 0.4443 -0.1445 0.119 Uiso 1 1 calc R . .
C22 C 0.4364(3) 0.5490(5) -0.2702(5) 0.082(3) Uani 1 1 d . . .
H22 H 0.4678 0.5390 -0.2298 0.098 Uiso 1 1 calc R . .
C23 C 0.4275(3) 0.5953(4) -0.3221(5) 0.065(2) Uani 1 1 d . . .
H23 H 0.4528 0.6170 -0.3166 0.078 Uiso 1 1 calc R . .
C24 C 0.3803(2) 0.6104(3) -0.3837(4) 0.0424(16) Uani 1 1 d . . .
C25 C 0.3425(2) 0.5769(3) -0.3912(4) 0.0430(16) Uani 1 1 d . . .
H25 H 0.3110 0.5860 -0.4321 0.052 Uiso 1 1 calc R . .
C26 C 0.3164(2) 0.4913(4) -0.3346(4) 0.054(2) Uani 1 1 d . . .
C27 C 0.3502(2) 0.4519(4) -0.2619(4) 0.053(2) Uani 1 1 d . . .
C28 C 0.3984(3) 0.4671(4) -0.2309(5) 0.069(3) Uani 1 1 d . . .
C29 C 0.3990(2) 0.5169(4) -0.2774(5) 0.059(2) Uani 1 1 d . . .
C30 C 0.3518(2) 0.5312(3) -0.3385(4) 0.0470(17) Uani 1 1 d . . .
C31 C 0.2841(3) 0.5301(5) -0.3204(7) 0.090(4) Uani 1 1 d . . .
H31A H 0.2622 0.5036 -0.3183 0.136 Uiso 1 1 calc R . .
H31B H 0.2664 0.5590 -0.3631 0.136 Uiso 1 1 calc R . .
H31C H 0.3035 0.5519 -0.2710 0.136 Uiso 1 1 calc R . .
C32 C 0.2870(4) 0.4524(5) -0.4091(5) 0.094(4) Uani 1 1 d . . .
H32A H 0.2649 0.4277 -0.4055 0.141 Uiso 1 1 calc R . .
H32B H 0.3080 0.4262 -0.4141 0.141 Uiso 1 1 calc R . .
H32C H 0.2697 0.4788 -0.4547 0.141 Uiso 1 1 calc R . .
C33 C 0.3672(3) 0.3296(3) -0.1174(4) 0.0438(16) Uani 1 1 d . . .
C34 C 0.3707(2) 0.6619(3) -0.4394(4) 0.0375(15) Uani 1 1 d . . .
C35 C 0.2083(2) 0.2360(4) -0.1406(5) 0.060(2) Uani 1 1 d . . .
H35 H 0.2232 0.2119 -0.0949 0.073 Uiso 1 1 calc R . .
C36 C 0.1590(3) 0.2356(4) -0.1903(5) 0.064(2) Uani 1 1 d . . .
H36 H 0.1415 0.2110 -0.1783 0.077 Uiso 1 1 calc R . .
C37 C 0.1361(2) 0.2711(3) -0.2565(4) 0.0432(17) Uani 1 1 d . . .
C38 C 0.1643(2) 0.3058(5) -0.2699(5) 0.074(3) Uani 1 1 d . . .
H38 H 0.1502 0.3316 -0.3139 0.088 Uiso 1 1 calc R . .
C39 C 0.2133(2) 0.3029(4) -0.2189(4) 0.062(2) Uani 1 1 d . . .
H39 H 0.2316 0.3262 -0.2305 0.074 Uiso 1 1 calc R . .
C40 C 0.0834(3) 0.2720(3) -0.3093(4) 0.0438(16) Uiso 1 1 d . . .
C41 C 0.0554(4) 0.2648(4) -0.2823(6) 0.074(3) Uiso 1 1 d . . .
H41 H 0.0694 0.2600 -0.2281 0.089 Uiso 1 1 calc R . .
C42 C 0.0061(4) 0.2646(4) -0.3347(6) 0.074(3) Uiso 1 1 d . . .
H42 H -0.0121 0.2592 -0.3142 0.089 Uiso 1 1 calc R . .
C43 C 0.0100(3) 0.2836(4) -0.4373(6) 0.075(3) Uiso 1 1 d . . .
H43 H -0.0053 0.2939 -0.4907 0.090 Uiso 1 1 calc R . .
C44 C 0.0599(4) 0.2820(5) -0.3897(6) 0.082(3) Uiso 1 1 d . . .
H44 H 0.0772 0.2877 -0.4120 0.098 Uiso 1 1 calc R . .
N1 N 0.23544(17) 0.2688(2) -0.1547(3) 0.0344(12) Uani 1 1 d . . .
N2 N -0.01622(19) 0.2715(2) -0.4110(3) 0.0365(12) Uiso 1 1 d . . .
O1 O 0.39679(18) 0.1711(2) -0.0657(3) 0.0567(14) Uani 1 1 d . . .
O2 O 0.31879(17) 0.1915(2) -0.1327(3) 0.0543(13) Uani 1 1 d . . .
O3 O 0.31319(16) -0.2035(2) -0.5012(3) 0.0456(11) Uani 1 1 d . . .
O4 O 0.39018(17) -0.1774(2) -0.4308(3) 0.0517(13) Uani 1 1 d . . .
O5 O 0.32493(17) 0.3208(2) -0.1411(3) 0.0502(12) Uani 1 1 d . . .
O6 O 0.40275(17) 0.3011(2) -0.0619(3) 0.0577(14) Uani 1 1 d . . .
O7 O 0.32876(16) 0.6685(2) -0.4990(3) 0.0461(12) Uani 1 1 d . . .
O8 O 0.40571(17) 0.6953(2) -0.4207(3) 0.0529(13) Uani 1 1 d . . .
OW1 O 0.3878(10) -0.0183(11) -0.0116(15) 0.400(13) Uiso 1 1 d . . .
Zn1 Zn 0.41102(2) 0.23565(3) 0.01605(4) 0.0267(2) Uani 1 1 d . . .
Zn2 Zn 0.30824(2) 0.26428(3) -0.08144(4) 0.0265(2) Uani 1 1 d . . .

loop_
_atom_site_aniso_label
_atom_site_aniso_U_11
_atom_site_aniso_U_22
_atom_site_aniso_U_33
_atom_site_aniso_U_23
_atom_site_aniso_U_13
_atom_site_aniso_U_12
C1 0.035(4) 0.062(5) 0.052(4) -0.028(4) 0.019(3) -0.006(3)
C2 0.043(4) 0.049(4) 0.047(4) -0.019(3) 0.024(3) -0.005(3)
C3 0.043(4) 0.070(5) 0.062(5) -0.028(4) 0.030(4) 0.003(4)
C4 0.034(4) 0.074(6) 0.067(5) -0.035(4) 0.022(4) -0.008(4)
C5 0.032(3) 0.058(5) 0.048(4) -0.022(4) 0.016(3) -0.003(3)
C6 0.035(4) 0.051(4) 0.040(4) -0.014(3) 0.016(3) -0.002(3)
C7 0.043(4) 0.046(4) 0.038(4) -0.007(3) 0.022(3) 0.002(3)
C8 0.032(4) 0.058(5) 0.059(5) -0.028(4) 0.023(3) -0.007(3)
C9 0.042(4) 0.085(7) 0.088(7) -0.052(6) 0.033(5) -0.012(4)
C10 0.036(4) 0.061(5) 0.063(5) -0.028(4) 0.026(4) -0.002(3)
C11 0.044(4) 0.048(4) 0.055(4) -0.023(4) 0.025(4) -0.001(3)
C12 0.039(4) 0.050(4) 0.048(4) -0.021(3) 0.021(3) 0.001(3)
C13 0.034(4) 0.059(5) 0.059(5) -0.029(4) 0.025(3) -0.007(3)
C14 0.108(8) 0.130(10) 0.214(14) -0.124(10) 0.127(10) -0.074(8)
C15 0.058(6) 0.129(10) 0.082(7) -0.055(7) 0.002(5) 0.027(6)
C16 0.055(4) 0.036(4) 0.045(4) -0.013(3) 0.032(4) -0.005(3)
C17 0.038(4) 0.037(4) 0.034(3) -0.005(3) 0.019(3) 0.001(3)
C18 0.033(4) 0.057(5) 0.046(4) 0.017(4) 0.016(3) -0.005(3)
C19 0.044(4) 0.053(5) 0.058(5) 0.027(4) 0.027(4) 0.001(3)
C20 0.040(4) 0.098(7) 0.087(6) 0.069(6) 0.021(4) 0.010(4)
C21 0.037(4) 0.122(9) 0.110(8) 0.083(7) 0.024(5) 0.007(5)
C22 0.030(4) 0.112(8) 0.083(6) 0.065(6) 0.020(4) 0.004(4)
C23 0.033(4) 0.080(6) 0.068(5) 0.038(5) 0.021(4) 0.001(4)
C24 0.039(4) 0.047(4) 0.045(4) 0.015(3) 0.026(3) 0.006(3)
C25 0.035(3) 0.045(4) 0.041(4) 0.012(3) 0.017(3) 0.001(3)
C26 0.037(4) 0.063(5) 0.047(4) 0.028(4) 0.014(3) 0.000(3)
C27 0.034(4) 0.064(5) 0.050(4) 0.025(4) 0.017(3) 0.002(3)
C28 0.036(4) 0.094(7) 0.068(5) 0.049(5) 0.025(4) 0.006(4)
C29 0.037(4) 0.069(5) 0.065(5) 0.037(4) 0.025(4) 0.005(4)
C30 0.036(3) 0.057(5) 0.047(4) 0.019(3) 0.023(3) 0.001(3)
C31 0.061(5) 0.097(7) 0.136(9) 0.061(7) 0.069(6) 0.030(5)
C32 0.085(7) 0.088(7) 0.068(6) 0.021(6) 0.020(5) -0.032(6)
C33 0.050(4) 0.045(4) 0.037(4) 0.012(3) 0.025(3) -0.002(3)
C34 0.046(4) 0.035(4) 0.039(4) 0.007(3) 0.028(3) 0.005(3)
C35 0.025(3) 0.079(6) 0.060(5) 0.033(4) 0.014(3) 0.005(4)
C36 0.028(4) 0.089(6) 0.062(5) 0.023(5) 0.017(4) -0.010(4)
C37 0.021(3) 0.061(5) 0.038(4) 0.006(3) 0.011(3) 0.000(3)
C38 0.030(4) 0.114(8) 0.056(5) 0.048(5) 0.012(4) 0.002(4)
C39 0.026(3) 0.100(7) 0.048(4) 0.031(4) 0.013(3) -0.002(4)
N1 0.025(3) 0.035(3) 0.038(3) 0.003(2) 0.015(2) 0.000(2)
O1 0.053(3) 0.055(3) 0.052(3) -0.023(3) 0.023(3) 0.000(3)
O2 0.051(3) 0.053(3) 0.057(3) -0.021(3) 0.030(3) 0.002(2)
O3 0.041(3) 0.050(3) 0.041(3) -0.016(2) 0.021(2) -0.003(2)
O4 0.047(3) 0.049(3) 0.063(3) -0.026(3) 0.033(3) -0.005(2)
O5 0.044(3) 0.063(3) 0.046(3) 0.019(2) 0.027(2) -0.002(2)
O6 0.049(3) 0.062(3) 0.053(3) 0.028(3) 0.023(3) -0.001(3)
O7 0.043(3) 0.044(3) 0.038(3) 0.015(2) 0.016(2) 0.001(2)
O8 0.046(3) 0.053(3) 0.054(3) 0.020(2) 0.025(2) -0.004(2)
Zn1 0.0206(4) 0.0298(4) 0.0248(4) 0.0002(3) 0.0100(3) 0.0001(3)
Zn2 0.0214(4) 0.0292(4) 0.0247(4) 0.0004(3) 0.0105(3) 0.0001(3)

_geom_special_details            
;
All esds (except the esd in the dihedral angle between two l.s. planes)
are estimated using the full covariance matrix. The cell esds are taken
into account individually in the estimation of esds in distances, angles
and torsion angles; correlations between esds in cell parameters are only
used when they are defined by crystal symmetry. An approximate (isotropic)
treatment of cell esds is used for estimating esds involving l.s. planes.
;

loop_
_geom_bond_atom_site_label_1
_geom_bond_atom_site_label_2
_geom_bond_distance
_geom_bond_site_symmetry_2
_geom_bond_publ_flag
C1 C10 1.372(9) . ?
C1 C2 1.412(9) . ?
C1 H1 0.9300 . ?
C2 C3 1.376(10) . ?
C2 C16 1.491(9) . ?
C3 C4 1.364(10) . ?
C3 H3 0.9300 . ?
C4 C11 1.395(9) . ?
C4 H4 0.9300 . ?
C5 C12 1.381(9) . ?
C5 C6 1.389(9) . ?
C5 H5 0.9300 . ?
C6 C7 1.389(9) . ?
C6 H6 0.9300 . ?
C7 C8 1.393(9) . ?
C7 C17 1.492(8) . ?
C8 C13 1.359(9) . ?
C8 H8 0.9300 . ?
C9 C10 1.520(10) . ?
C9 C14 1.530(14) . ?
C9 C15 1.541(14) . ?
C9 C13 1.547(10) . ?
C10 C11 1.409(10) . ?
C11 C12 1.458(9) . ?
C12 C13 1.412(9) . ?
C14 H14A 0.9600 . ?
C14 H14B 0.9600 . ?
C14 H14C 0.9600 . ?
C15 H15A 0.9600 . ?
C15 H15B 0.9600 . ?
C15 H15C 0.9600 . ?
C16 O2 1.242(8) . ?
C16 O1 1.265(8) . ?
C17 O4 1.246(7) . ?
C17 O3 1.254(7) . ?
C18 C27 1.360(9) . ?
C18 C19 1.403(9) . ?
C18 H18 0.9300 . ?
C19 C20 1.374(10) . ?
C19 C33 1.508(9) . ?
C20 C21 1.348(11) . ?
C20 H20 0.9300 . ?
C21 C28 1.397(10) . ?
C21 H21 0.9300 . ?
C22 C23 1.366(10) . ?
C22 C29 1.380(10) . ?
C22 H22 0.9300 . ?
C23 C24 1.401(9) . ?
C23 H23 0.9300 . ?
C24 C25 1.405(9) . ?
C24 C34 1.495(8) . ?
C25 C30 1.363(9) . ?
C25 H25 0.9300 . ?
C26 C32 1.516(12) . ?
C26 C30 1.518(9) . ?
C26 C27 1.523(9) . ?
C26 C31 1.535(12) . ?
C27 C28 1.415(10) . ?
C28 C29 1.446(10) . ?
C29 C30 1.395(9) . ?
C31 H31A 0.9600 . ?
C31 H31B 0.9600 . ?
C31 H31C 0.9600 . ?
C32 H32A 0.9600 . ?
C32 H32B 0.9600 . ?
C32 H32C 0.9600 . ?
C33 O5 1.239(8) . ?
C33 O6 1.254(8) . ?
C34 O7 1.248(8) . ?
C34 O8 1.252(8) . ?
C35 N1 1.317(9) . ?
C35 C36 1.378(10) . ?
C35 H35 0.9300 . ?
C36 C37 1.354(10) . ?
C36 H36 0.9300 . ?
C37 C38 1.360(10) . ?
C37 C40 1.474(10) . ?
C38 C39 1.372(9) . ?
C38 H38 0.9300 . ?
C39 N1 1.309(8) . ?
C39 H39 0.9300 . ?
C40 C41 1.350(11) . ?
C40 C44 1.376(12) . ?
C41 C42 1.380(13) . ?
C41 H41 0.9300 . ?
C42 N2 1.297(11) . ?
C42 H42 0.9300 . ?
C43 N2 1.301(10) . ?
C43 C44 1.393(13) . ?
C43 H43 0.9300 . ?
C44 H44 0.9300 . ?
N1 Zn2 2.037(5) . ?
N2 