####################################################################### 
# 
# This file contains crystal structure data downloaded from the 
# Cambridge Structural Database (CSD) hosted by the Cambridge 
# Crystallographic Data Centre (CCDC).
# 
# Full information about CCDC data access policies and citation 
# guidelines are available at http://www.ccdc.cam.ac.uk/access/V1 
# 
# Audit and citation data items may have been added by the CCDC. 
# Please retain this information to preserve the provenance of 
# this file and to allow appropriate attribution of the data. 
# 
#######################################################################

data_Cpx3
_audit_block_doi                 10.5517/cc12b5xh
_database_code_depnum_ccdc_archive 'CCDC 992896'
loop_
_citation_id
_citation_doi
_citation_year
1 10.1002/cjoc.201400412 2014

_audit_update_record             
;
2014-03-21 deposited with the CCDC.	2024-07-12 downloaded from the CCDC.
;

_audit_creation_method           SHELXL-97
_chemical_name_systematic        ?
_chemical_name_common            ?
_chemical_melting_point          ?
_chemical_formula_moiety         '2(C29 H36 B Cu4 N11 O S3 W), 4(C H1.50 N0.50)'
_chemical_formula_sum            'C64 H81 B2 Cu8 N25 O2 S6 W2'
_chemical_formula_weight         2322.54

loop_
_atom_type_symbol
_atom_type_description
_atom_type_scat_dispersion_real
_atom_type_scat_dispersion_imag
_atom_type_scat_source
C C 0.0033 0.0016 'International Tables Vol C Tables 4.2.6.8 and 6.1.1.4'
H H 0.0000 0.0000 'International Tables Vol C Tables 4.2.6.8 and 6.1.1.4'
B B 0.0013 0.0007 'International Tables Vol C Tables 4.2.6.8 and 6.1.1.4'
N N 0.0061 0.0033 'International Tables Vol C Tables 4.2.6.8 and 6.1.1.4'
O O 0.0106 0.0060 'International Tables Vol C Tables 4.2.6.8 and 6.1.1.4'
S S 0.1246 0.1234 'International Tables Vol C Tables 4.2.6.8 and 6.1.1.4'
Cu Cu 0.3201 1.2651 'International Tables Vol C Tables 4.2.6.8 and 6.1.1.4'
W W -0.8490 6.8722 'International Tables Vol C Tables 4.2.6.8 and 6.1.1.4'

_symmetry_cell_setting           monoclinic
_symmetry_space_group_name_H-M   P2(1)/n
_symmetry_space_group_name_Hall  '-P 2yn'

loop_
_symmetry_equiv_pos_as_xyz
'x, y, z'
'-x+1/2, y+1/2, -z+1/2'
'-x, -y, -z'
'x-1/2, -y-1/2, z-1/2'

_cell_length_a                   10.512(2)
_cell_length_b                   22.807(5)
_cell_length_c                   19.020(4)
_cell_angle_alpha                90.00
_cell_angle_beta                 94.36(3)
_cell_angle_gamma                90.00
_cell_volume                     4546.9(16)
_cell_formula_units_Z            2
_cell_measurement_temperature    223(2)
_cell_measurement_reflns_used    17964
_cell_measurement_theta_min      3.1346
_cell_measurement_theta_max      27.4739

_exptl_crystal_description       Prism
_exptl_crystal_colour            black
_exptl_crystal_size_max          0.40
_exptl_crystal_size_mid          0.35
_exptl_crystal_size_min          0.08
_exptl_crystal_density_meas      ?
_exptl_crystal_density_diffrn    1.696
_exptl_crystal_density_method    'not measured'
_exptl_crystal_F_000             2284
_exptl_absorpt_coefficient_mu    4.539
_exptl_absorpt_correction_type   multi-scan
_exptl_absorpt_correction_T_min  0.2640
_exptl_absorpt_correction_T_max  0.7128
_exptl_absorpt_process_details   'SADABS, (Sheldrick 2008)'

_exptl_special_details           ?

_diffrn_ambient_temperature      223(2)
_diffrn_radiation_wavelength     0.71073
_diffrn_radiation_type           MoK\a
_diffrn_radiation_source         'fine-focus sealed tube'
_diffrn_radiation_monochromator  graphite
_diffrn_measurement_device_type  'Rigaku Mercury'
_diffrn_detector_area_resol_mean 28.5714
_diffrn_measurement_method       dtprofit.ref
_diffrn_reflns_number            23378
_diffrn_reflns_av_R_equivalents  0.0555
_diffrn_reflns_av_sigmaI/netI    0.0761
_diffrn_reflns_limit_h_min       -12
_diffrn_reflns_limit_h_max       11
_diffrn_reflns_limit_k_min       -27
_diffrn_reflns_limit_k_max       27
_diffrn_reflns_limit_l_min       -23
_diffrn_reflns_limit_l_max       21
_diffrn_reflns_theta_min         3.13
_diffrn_reflns_theta_max         25.68
_reflns_number_total             8571
_reflns_number_gt                7119
_reflns_threshold_expression     >2sigma(I)

_computing_data_collection       'CrystalClear (Rigaku Inc., 2007)'
_computing_cell_refinement       'CrystalClear (Rigaku Inc., 2007)'
_computing_data_reduction        'CrystalClear (Rigaku Inc., 2007)'
_computing_structure_solution    'SHELXS-97 (Sheldrick, 2008)'
_computing_structure_refinement  'SHELXL-97 (Sheldrick, 2008)'
_computing_molecular_graphics    ?
_computing_publication_material  ?

_refine_special_details          
; 
 Refinement of F^2^ against ALL reflections.  The weighted R-factor wR and 
 goodness of fit S are based on F^2^, conventional R-factors R are based 
 on F, with F set to zero for negative F^2^. The threshold expression of 
 F^2^ > 2sigma(F^2^) is used only for calculating R-factors(gt) etc. and is 
 not relevant to the choice of reflections for refinement.  R-factors based 
 on F^2^ are statistically about twice as large as those based on F, and R- 
 factors based on ALL data will be even larger. 
;

_refine_ls_structure_factor_coef Fsqd
_refine_ls_matrix_type           full
_refine_ls_weighting_scheme      calc
_refine_ls_weighting_details     
'calc w=1/[\s^2^(Fo^2^)+(0.0397P)^2^+16.6620P] where P=(Fo^2^+2Fc^2^)/3'
_atom_sites_solution_primary     direct
_atom_sites_solution_secondary   difmap
_atom_sites_solution_hydrogens   geom
_refine_ls_hydrogen_treatment    mixed
_refine_ls_extinction_method     none
_refine_ls_extinction_coef       ?
_refine_ls_number_reflns         8571
_refine_ls_number_parameters     494
_refine_ls_number_restraints     0
_refine_ls_R_factor_all          0.0839
_refine_ls_R_factor_gt           0.0671
_refine_ls_wR_factor_ref         0.1296
_refine_ls_wR_factor_gt          0.1215
_refine_ls_goodness_of_fit_ref   1.158
_refine_ls_restrained_S_all      1.158
_refine_ls_shift/su_max          0.002
_refine_ls_shift/su_mean         0.000

loop_
_atom_site_label
_atom_site_type_symbol
_atom_site_fract_x
_atom_site_fract_y
_atom_site_fract_z
_atom_site_U_iso_or_equiv
_atom_site_adp_type
_atom_site_occupancy
_atom_site_symmetry_multiplicity
_atom_site_calc_flag
_atom_site_refinement_flags
_atom_site_disorder_assembly
_atom_site_disorder_group
W1 W -0.23668(3) -0.168413(15) 0.701662(18) 0.02618(12) Uani 1 1 d . . .
Cu1 Cu -0.22187(10) -0.12366(5) 0.57409(5) 0.0343(3) Uani 1 1 d . . .
Cu2 Cu -0.37749(10) -0.07211(5) 0.68178(6) 0.0369(3) Uani 1 1 d . . .
Cu3 Cu -0.09860(11) -0.07037(5) 0.70352(6) 0.0363(3) Uani 1 1 d . . .
Cu4 Cu 0.25774(10) 0.07105(5) 0.68395(6) 0.0336(3) Uani 1 1 d . . .
S1 S -0.4009(2) -0.15284(10) 0.61622(12) 0.0330(5) Uani 1 1 d . . .
S2 S -0.2478(2) -0.08942(10) 0.77698(12) 0.0327(5) Uani 1 1 d . . .
S3 S -0.0549(2) -0.15101(10) 0.64423(11) 0.0315(5) Uani 1 1 d . . .
O1 O -0.2252(7) -0.0126(3) 0.6155(4) 0.0473(17) Uani 1 1 d . . .
N1 N -0.2174(8) -0.1000(4) 0.4751(6) 0.059(3) Uani 1 1 d . . .
N2 N -0.5885(8) 0.0189(3) 0.6834(4) 0.0391(19) Uani 1 1 d . . .
N3 N 0.1118(8) 0.0200(3) 0.7074(4) 0.042(2) Uani 1 1 d . . .
N4 N 0.2912(9) 0.1401(5) 0.7404(5) 0.066(3) Uani 1 1 d . . .
N5 N -0.1248(7) -0.2669(3) 0.8106(4) 0.0313(17) Uani 1 1 d . . .
N6 N -0.1028(7) -0.2100(3) 0.7884(3) 0.0328(17) Uani 1 1 d . . .
N7 N -0.3608(7) -0.2644(3) 0.7975(4) 0.0367(18) Uani 1 1 d . . .
N8 N -0.3863(7) -0.2103(3) 0.7653(4) 0.0338(17) Uani 1 1 d . . .
N9 N -0.2404(9) -0.3095(3) 0.7048(4) 0.044(2) Uani 1 1 d . . .
N10 N -0.2292(7) -0.2632(3) 0.6597(4) 0.0357(18) Uani 1 1 d . . .
N11 N -0.2280(8) 0.0453(4) 0.5172(4) 0.045(2) Uani 1 1 d . . .
C1 C -0.2239(8) -0.0874(4) 0.4176(4) 0.0239(18) Uani 1 1 d . . .
C2 C -0.5050(8) -0.0130(4) 0.6813(5) 0.035(2) Uani 1 1 d . . .
C3 C 0.0293(8) -0.0120(4) 0.7114(5) 0.031(2) Uani 1 1 d . . .
C4 C 0.3133(10) 0.1807(4) 0.7746(5) 0.041(3) Uani 1 1 d . . .
C5 C 0.3449(16) 0.2302(6) 0.8155(6) 0.091(5) Uani 1 1 d . . .
H5A H 0.3044 0.2649 0.7932 0.109 Uiso 1 1 calc R . .
H5B H 0.4375 0.2361 0.8183 0.109 Uiso 1 1 calc R . .
C6 C 0.3018(14) 0.2232(6) 0.8883(7) 0.069(4) Uani 1 1 d . . .
C7 C 0.1863(18) 0.2411(8) 0.9062(8) 0.117(7) Uani 1 1 d . . .
H7 H 0.1307 0.2588 0.8715 0.141 Uiso 1 1 calc R . .
C8 C 0.1462(18) 0.2345(9) 0.9724(9) 0.131(8) Uani 1 1 d . . .
H8 H 0.0652 0.2481 0.9825 0.157 Uiso 1 1 calc R . .
C9 C 0.2243(19) 0.2080(8) 1.0238(9) 0.118(7) Uani 1 1 d . . .
H9 H 0.1972 0.2043 1.0696 0.142 Uiso 1 1 calc R . .
C10 C 0.3390(16) 0.1874(7) 1.0096(8) 0.098(5) Uani 1 1 d . . .
H10 H 0.3922 0.1679 1.0441 0.117 Uiso 1 1 calc R . .
C11 C 0.3773(13) 0.1963(7) 0.9391(9) 0.089(5) Uani 1 1 d . . .
H11 H 0.4579 0.1829 0.9281 0.107 Uiso 1 1 calc R . .
C12 C -0.0299(11) -0.3421(5) 0.8941(6) 0.060(3) Uani 1 1 d . . .
H12A H -0.1135 -0.3502 0.9100 0.090 Uiso 1 1 calc R . .
H12B H 0.0329 -0.3417 0.9342 0.090 Uiso 1 1 calc R . .
H12C H -0.0079 -0.3722 0.8611 0.090 Uiso 1 1 calc R . .
C13 C -0.0315(10) -0.2834(5) 0.8583(5) 0.042(2) Uani 1 1 d . . .
C14 C 0.0519(10) -0.2370(5) 0.8682(5) 0.046(3) Uani 1 1 d . . .
H14 H 0.1264 -0.2362 0.8988 0.055 Uiso 1 1 calc R . .
C15 C 0.0055(8) -0.1915(4) 0.8245(4) 0.035(2) Uani 1 1 d . . .
C16 C 0.0663(9) -0.1343(5) 0.8204(5) 0.050(3) Uani 1 1 d . . .
H16A H 0.0989 -0.1296 0.7744 0.075 Uiso 1 1 calc R . .
H16B H 0.1362 -0.1314 0.8566 0.075 Uiso 1 1 calc R . .
H16C H 0.0043 -0.1037 0.8275 0.075 Uiso 1 1 calc R . .
C17 C -0.4586(12) -0.3339(5) 0.8800(7) 0.077(4) Uani 1 1 d . . .
H17A H -0.5375 -0.3365 0.9031 0.116 Uiso 1 1 calc R . .
H17B H -0.3869 -0.3335 0.9153 0.116 Uiso 1 1 calc R . .
H17C H -0.4514 -0.3676 0.8494 0.116 Uiso 1 1 calc R . .
C18 C -0.4583(10) -0.2795(5) 0.8377(6) 0.049(3) Uani 1 1 d . . .
C19 C -0.5477(9) -0.2365(5) 0.8291(5) 0.050(3) Uani 1 1 d . . .
H19 H -0.6262 -0.2355 0.8496 0.060 Uiso 1 1 calc R . .
C20 C -0.5027(9) -0.1943(5) 0.7847(5) 0.044(2) Uani 1 1 d . . .
C21 C -0.5704(10) -0.1397(5) 0.7625(6) 0.058(3) Uani 1 1 d . . .
H21A H -0.5151 -0.1063 0.7733 0.088 Uiso 1 1 calc R . .
H21B H -0.6470 -0.1360 0.7875 0.088 Uiso 1 1 calc R . .
H21C H -0.5934 -0.1411 0.7122 0.088 Uiso 1 1 calc R . .
C22 C -0.2492(16) -0.4192(5) 0.7043(7) 0.095(5) Uani 1 1 d . . .
H22A H -0.1854 -0.4215 0.7438 0.143 Uiso 1 1 calc R . .
H22B H -0.2347 -0.4502 0.6709 0.143 Uiso 1 1 calc R . .
H22C H -0.3334 -0.4237 0.7211 0.143 Uiso 1 1 calc R . .
C23 C -0.2400(12) -0.3598(5) 0.6681(6) 0.061(3) Uani 1 1 d . . .
C24 C -0.2255(12) -0.3466(4) 0.5999(5) 0.056(3) Uani 1 1 d . . .
H24 H -0.2196 -0.3736 0.5629 0.067 Uiso 1 1 calc R . .
C25 C -0.2208(9) -0.2863(4) 0.5945(5) 0.037(2) Uani 1 1 d . . .
C26 C -0.2055(11) -0.2528(4) 0.5289(5) 0.049(3) Uani 1 1 d . . .
H26A H -0.2789 -0.2276 0.5191 0.074 Uiso 1 1 calc R . .
H26B H -0.1985 -0.2798 0.4900 0.074 Uiso 1 1 calc R . .
H26C H -0.1288 -0.2290 0.5349 0.074 Uiso 1 1 calc R . .
B1 B -0.2454(11) -0.3008(5) 0.7836(5) 0.036(3) Uani 1 1 d . . .
H1 H -0.232(9) -0.340(4) 0.809(5) 0.054 Uiso 1 1 d . . .
C27 C -0.164(2) 0.0764(7) 0.4670(7) 0.130(8) Uani 1 1 d . . .
H27A H -0.2079 0.1130 0.4561 0.195 Uiso 1 1 calc R . .
H27B H -0.1618 0.0531 0.4244 0.195 Uiso 1 1 calc R . .
H27C H -0.0772 0.0845 0.4858 0.195 Uiso 1 1 calc R . .
C28 C -0.3634(13) 0.0342(6) 0.5045(8) 0.083(4) Uani 1 1 d . . .
H28A H -0.3770 0.0027 0.4704 0.125 Uiso 1 1 calc R . .
H28B H -0.4057 0.0694 0.4862 0.125 Uiso 1 1 calc R . .
H28C H -0.3983 0.0230 0.5483 0.125 Uiso 1 1 calc R . .
C29 C -0.1720(16) 0.0186(5) 0.5742(6) 0.076(4) Uani 1 1 d . . .
H29 H -0.0838 0.0243 0.5834 0.092 Uiso 1 1 calc R . .
N12 N 0.369(3) -0.1005(10) 0.9382(9) 0.185(7) Uani 1 1 d . . .
C30 C 0.444(3) 0.0022(11) 0.8892(10) 0.185(7) Uani 1 1 d . . .
H30A H 0.5266 0.0127 0.9122 0.278 Uiso 1 1 calc R . .
H30B H 0.3829 0.0328 0.8972 0.278 Uiso 1 1 calc R . .
H30C H 0.4517 -0.0022 0.8389 0.278 Uiso 1 1 calc R . .
C31 C 0.403(3) -0.0508(14) 0.9170(11) 0.185(7) Uani 1 1 d . . .
N13 N 0.197(4) 0.0231(16) 1.030(2) 0.167(10) Uani 0.50 1 d P . .
C32 C 0.083(4) 0.0684(18) 0.916(2) 0.167(10) Uani 0.50 1 d P . .
H32A H 0.1578 0.0721 0.8895 0.250 Uiso 0.50 1 calc PR . .
H32B H 0.0410 0.1061 0.9182 0.250 Uiso 0.50 1 calc PR . .
H32C H 0.0249 0.0400 0.8937 0.250 Uiso 0.50 1 calc PR . .
C33 C 0.126(5) 0.047(2) 0.995(3) 0.167(10) Uani 0.50 1 d P . .

loop_
_atom_site_aniso_label
_atom_site_aniso_U_11
_atom_site_aniso_U_22
_atom_site_aniso_U_33
_atom_site_aniso_U_23
_atom_site_aniso_U_13
_atom_site_aniso_U_12
W1 0.02655(19) 0.0270(2) 0.02532(19) 0.00340(15) 0.00391(14) -0.00039(15)
Cu1 0.0368(6) 0.0391(6) 0.0274(6) 0.0075(5) 0.0044(5) 0.0012(5)
Cu2 0.0342(6) 0.0362(6) 0.0399(6) -0.0011(5) 0.0003(5) 0.0088(5)
Cu3 0.0358(6) 0.0337(6) 0.0399(6) 0.0000(5) 0.0067(5) -0.0080(5)
Cu4 0.0339(6) 0.0355(6) 0.0319(6) 0.0000(5) 0.0050(5) 0.0008(5)
S1 0.0284(11) 0.0391(13) 0.0310(12) 0.0010(10) 0.0001(10) 0.0009(10)
S2 0.0346(12) 0.0325(12) 0.0314(12) -0.0012(10) 0.0044(10) 0.0008(10)
S3 0.0285(11) 0.0362(12) 0.0301(11) 0.0041(10) 0.0047(9) 0.0002(10)
O1 0.055(4) 0.042(4) 0.046(4) 0.014(3) 0.009(3) -0.004(3)
N1 0.036(5) 0.041(5) 0.100(8) -0.013(5) 0.013(5) 0.002(4)
N2 0.044(5) 0.039(5) 0.035(4) 0.001(4) 0.006(4) 0.004(4)
N3 0.055(5) 0.037(5) 0.036(4) 0.002(4) 0.005(4) -0.002(4)
N4 0.050(6) 0.095(8) 0.056(6) 0.023(6) 0.020(5) 0.013(6)
N5 0.039(4) 0.026(4) 0.030(4) 0.008(3) 0.009(3) 0.011(3)
N6 0.041(4) 0.034(4) 0.023(4) 0.005(3) 0.003(3) 0.004(4)
N7 0.034(4) 0.035(4) 0.042(4) 0.006(4) 0.010(4) -0.007(3)
N8 0.039(4) 0.030(4) 0.032(4) 0.007(3) 0.005(3) -0.010(3)
N9 0.080(6) 0.018(4) 0.035(4) 0.000(3) 0.008(4) -0.008(4)
N10 0.043(5) 0.026(4) 0.037(4) 0.003(3) -0.002(4) 0.002(3)
N11 0.051(5) 0.044(5) 0.041(5) 0.004(4) 0.002(4) -0.007(4)
C1 0.036(5) 0.029(5) 0.007(4) 0.008(3) 0.010(4) 0.001(4)
C2 0.027(5) 0.042(5) 0.035(5) 0.000(4) 0.000(4) 0.006(4)
C3 0.034(5) 0.021(4) 0.038(5) 0.005(4) 0.004(4) -0.010(4)
C4 0.059(7) 0.031(5) 0.034(5) -0.024(4) 0.009(5) -0.023(5)
C5 0.142(14) 0.069(9) 0.065(8) -0.030(7) 0.038(9) -0.040(9)
C6 0.079(10) 0.069(8) 0.058(8) -0.024(7) 0.002(7) -0.014(7)
C7 0.143(16) 0.146(16) 0.066(10) 0.011(10) 0.029(10) 0.064(13)
C8 0.130(16) 0.177(19) 0.091(12) 0.014(13) 0.042(12) 0.095(15)
C9 0.132(16) 0.155(17) 0.071(10) -0.021(11) 0.031(11) 0.058(14)
C10 0.100(12) 0.113(13) 0.076(10) -0.006(9) -0.023(9) 0.011(10)
C11 0.056(9) 0.116(13) 0.098(12) -0.042(10) 0.017(9) -0.020(8)
C12 0.061(7) 0.071(8) 0.047(6) 0.028(6) 0.006(6) 0.024(6)
C13 0.049(6) 0.053(6) 0.026(5) 0.007(5) 0.009(5) 0.018(5)
C14 0.040(6) 0.062(7) 0.037(5) 0.003(5) 0.006(5) 0.017(5)
C15 0.028(5) 0.050(6) 0.026(5) 0.009(4) -0.005(4) -0.001(4)
C16 0.034(5) 0.068(7) 0.046(6) 0.008(5) -0.008(5) -0.001(5)
C17 0.077(9) 0.079(9) 0.077(9) 0.035(7) 0.010(7) -0.026(7)
C18 0.040(6) 0.047(6) 0.061(7) 0.012(5) 0.004(5) -0.014(5)
C19 0.026(5) 0.077(8) 0.049(6) 0.019(6) 0.016(5) -0.021(5)
C20 0.034(5) 0.051(6) 0.045(6) 0.004(5) 0.005(5) -0.008(5)
C21 0.052(7) 0.063(7) 0.064(7) 0.021(6) 0.027(6) 0.012(6)
C22 0.183(17) 0.032(6) 0.074(9) -0.006(6) 0.027(10) -0.006(8)
C23 0.090(9) 0.034(6) 0.060(7) 0.000(5) 0.012(7) -0.004(6)
C24 0.095(9) 0.032(6) 0.040(6) -0.006(5) 0.006(6) 0.001(6)
C25 0.043(5) 0.038(5) 0.030(5) -0.009(4) 0.000(4) 0.007(5)
C26 0.074(8) 0.044(6) 0.029(5) 0.003(5) 0.005(5) 0.008(6)
B1 0.050(7) 0.028(5) 0.031(6) 0.009(5) 0.006(5) -0.001(5)
C27 0.24(2) 0.086(11) 0.068(10) 0.004(8) 0.066(13) -0.042(13)
C28 0.080(10) 0.073(9) 0.096(11) -0.013(8) 0.003(8) 0.024(8)
C29 0.133(13) 0.047(7) 0.049(7) -0.013(6) 0.001(8) 0.013(8)
N12 0.280(18) 0.201(19) 0.073(9) -0.037(11) 0.002(10) 0.030(19)
C30 0.280(18) 0.201(19) 0.073(9) -0.037(11) 0.002(10) 0.030(19)
C31 0.280(18) 0.201(19) 0.073(9) -0.037(11) 0.002(10) 0.030(19)
N13 0.22(3) 0.13(2) 0.14(2) 0.025(16) -0.051(19) -0.06(2)
C32 0.22(3) 0.13(2) 0.14(2) 0.025(16) -0.051(19) -0.06(2)
C33 0.22(3) 0.13(2) 0.14(2) 0.025(16) -0.051(19) -0.06(2)

_geom_special_details            
; 
 All esds (except the esd in the dihedral angle between two l.s. planes) 
 are estimated using the full covariance matrix.  The cell esds are taken 
 into account individually in the estimation of esds in distances, angles 
 and torsion angles; correlations between esds in cell parameters are only 
 used when they are defined by crystal symmetry.  An approximate (isotropic) 
 treatment of cell esds is used for estimating esds involving l.s. planes. 
;

loop_
_geom_bond_atom_site_label_1
_geom_bond_atom_site_label_2
_geom_bond_distance
_geom_bond_site_symmetry_2
_geom_bond_publ_flag
W1 N8 2.267(7) . ?
W1 N6 2.291(7) . ?
W1 S1 2.306(2) . ?
W1 S3 2.307(2) . ?
W1 N10 2.306(7) . ?
W1 S2 2.310(2) . ?
W1 Cu1 2.6477(12) . ?
W1 Cu2 2.6595(12) . ?
W1 Cu3 2.6647(12) . ?
Cu1 N1 1.963(11) . ?
Cu1 S1 2.203(2) . ?
Cu1 S3 2.212(3) . ?
Cu1 Cu3 2.9549(17) . ?
Cu1 Cu2 2.9604(17) . ?
Cu2 C2 1.900(9) . ?
Cu2 S2 2.218(3) . ?
Cu2 S1 2.227(3) . ?
Cu2 Cu3 2.9298(17) . ?
Cu3 C3 1.890(9) . ?
Cu3 S2 2.221(2) . ?
Cu3 S3 2.224(3) . ?
Cu4 N4 1.922(12) . ?
Cu4 C1 1.973(8) 3_556 ?
Cu4 N3 2.003(8) . ?
Cu4 N2 2.007(8) 1_655 ?
O1 C29 1.226(14) . ?
N1 C1 1.127(11) . ?
N2 C2 1.143(11) . ?
N2 Cu4 2.007(8) 1_455 ?
N3 C3 1.140(10) . ?
N4 C4 1.147(12) . ?
N5 C13 1.338(11) . ?
N5 N6 1.389(9) . ?
N5 B1 1.540(13) . ?
N6 C15 1.352(11) . ?
N7 C18 1.368(12) . ?
N7 N8 1.394(10) . ?
N7 B1 1.509(13) . ?
N