####################################################################### 
# 
# This file contains crystal structure data downloaded from the 
# Cambridge Structural Database (CSD) hosted by the Cambridge 
# Crystallographic Data Centre (CCDC).
# 
# Full information about CCDC data access policies and citation 
# guidelines are available at http://www.ccdc.cam.ac.uk/access/V1 
# 
# Audit and citation data items may have been added by the CCDC. 
# Please retain this information to preserve the provenance of 
# this file and to allow appropriate attribution of the data. 
# 
#######################################################################

data_1?2DMF
_audit_block_doi                 10.5517/ccthm96
_database_code_depnum_ccdc_archive 'CCDC 759788'
loop_
_citation_id
_citation_doi
_citation_year
1 10.1021/cg900504m 2009
_audit_update_record             
;
2009-12-29 deposited with the CCDC.	2024-07-12 downloaded from the CCDC.
;
_audit_creation_method           SHELXL-97
_chemical_name_systematic        
;
?
;
_chemical_name_common            ?
_chemical_melting_point          ?
_chemical_formula_moiety         'C26 H28 Cd N6 O6'
_chemical_formula_sum            'C26 H28 Cd N6 O6'
_chemical_formula_weight         632.94
loop_
_atom_type_symbol
_atom_type_description
_atom_type_scat_dispersion_real
_atom_type_scat_dispersion_imag
_atom_type_scat_source
C C 0.0033 0.0016 'International Tables Vol C Tables 4.2.6.8 and 6.1.1.4'
H H 0.0000 0.0000 'International Tables Vol C Tables 4.2.6.8 and 6.1.1.4'
N N 0.0061 0.0033 'International Tables Vol C Tables 4.2.6.8 and 6.1.1.4'
O O 0.0106 0.0060 'International Tables Vol C Tables 4.2.6.8 and 6.1.1.4'
Cd Cd -0.8075 1.2024 'International Tables Vol C Tables 4.2.6.8 and 6.1.1.4'
_symmetry_cell_setting           Orthorhombic
_symmetry_space_group_name_H-M   Pbc21
loop_
_symmetry_equiv_pos_as_xyz
'x, y, z'
'-x, -y, z+1/2'
'-x, y+1/2, z'
'x, -y+1/2, z+1/2'
_cell_length_a                   8.254(3)
_cell_length_b                   18.896(5)
_cell_length_c                   18.006(7)
_cell_angle_alpha                90.000
_cell_angle_beta                 90.000
_cell_angle_gamma                90.000
_cell_volume                     2808(2)
_cell_formula_units_Z            4
_cell_measurement_temperature    100(2)
_cell_measurement_reflns_used    999
_cell_measurement_theta_min      2.2
_cell_measurement_theta_max      25.6
_exptl_crystal_description       block
_exptl_crystal_colour            colorless
_exptl_crystal_size_max          0.12
_exptl_crystal_size_mid          0.10
_exptl_crystal_size_min          0.08
_exptl_crystal_density_meas      ?
_exptl_crystal_density_diffrn    1.497
_exptl_crystal_density_method    'not measured'
_exptl_crystal_F_000             1288
_exptl_absorpt_coefficient_mu    0.827
_exptl_absorpt_correction_type   empirical
_exptl_absorpt_correction_T_min  0.9072
_exptl_absorpt_correction_T_max  0.9368
_exptl_absorpt_process_details   SADABS
_exptl_special_details           
;
?
;
_diffrn_ambient_temperature      100(2)
_diffrn_radiation_wavelength     0.71069
_diffrn_radiation_type           MoK\a
_diffrn_radiation_source         'fine-focus sealed tube'
_diffrn_radiation_monochromator  graphite
_diffrn_measurement_device_type  'BRUKER SMART APEX'
_diffrn_measurement_method       /w-scans
_diffrn_detector_area_resol_mean ?
_diffrn_standards_number         ?
_diffrn_standards_interval_count ?
_diffrn_standards_interval_time  ?
_diffrn_standards_decay_%        ?
_diffrn_reflns_number            33411
_diffrn_reflns_av_R_equivalents  0.0646
_diffrn_reflns_av_sigmaI/netI    0.0497
_diffrn_reflns_limit_h_min       -10
_diffrn_reflns_limit_h_max       9
_diffrn_reflns_limit_k_min       -19
_diffrn_reflns_limit_k_max       23
_diffrn_reflns_limit_l_min       -21
_diffrn_reflns_limit_l_max       21
_diffrn_reflns_theta_min         2.16
_diffrn_reflns_theta_max         25.64
_reflns_number_total             5193
_reflns_number_gt                4307
_reflns_threshold_expression     >2sigma(I)
_computing_data_collection       'SMART 5.628 (Bruker, 2003)'
_computing_cell_refinement       'SAINT 6.45 ( Bruker, 2003)'
_computing_data_reduction        'SAINT 6.45 ( Bruker, 2003)'
_computing_structure_solution    SIR-97
_computing_structure_refinement  'SHELXL-97 (Sheldrick, 1997)'
_computing_molecular_graphics    'DIAMOND 2.1e'
_computing_publication_material  ?
_refine_special_details          
;
Refinement of F^2^ against ALL reflections. The weighted R-factor wR and
goodness of fit S are based on F^2^, conventional R-factors R are based
on F, with F set to zero for negative F^2^. The threshold expression of
F^2^ > 2sigma(F^2^) is used only for calculating R-factors(gt) etc. and is
not relevant to the choice of reflections for refinement. R-factors based
on F^2^ are statistically about twice as large as those based on F, and Rfactors
based on ALL data will be even larger.
;
_refine_ls_structure_factor_coef Fsqd
_refine_ls_matrix_type           full
_refine_ls_weighting_scheme      calc
_refine_ls_weighting_details     
'calc w=1/[\s^2^(Fo^2^)+(0.0294P)^2^+10.6466P] where P=(Fo^2^+2Fc^2^)/3'
_atom_sites_solution_primary     direct
_atom_sites_solution_secondary   difmap
_atom_sites_solution_hydrogens   geom
_refine_ls_hydrogen_treatment    refU
_refine_ls_extinction_method     none
_refine_ls_extinction_coef       ?
_refine_ls_abs_structure_details 'Flack H D (1983), Acta Cryst. A39, 876-881'
_refine_ls_abs_structure_Flack   0.22(4)
_refine_ls_number_reflns         5193
_refine_ls_number_parameters     352
_refine_ls_number_restraints     2
_refine_ls_R_factor_all          0.0623
_refine_ls_R_factor_gt           0.0436
_refine_ls_wR_factor_ref         0.0994
_refine_ls_wR_factor_gt          0.0921
_refine_ls_goodness_of_fit_ref   1.079
_refine_ls_restrained_S_all      1.137
_refine_ls_shift/su_max          0.000
_refine_ls_shift/su_mean         0.000
loop_
_atom_site_label
_atom_site_type_symbol
_atom_site_fract_x
_atom_site_fract_y
_atom_site_fract_z
_atom_site_U_iso_or_equiv
_atom_site_adp_type
_atom_site_occupancy
_atom_site_symmetry_multiplicity
_atom_site_calc_flag
_atom_site_refinement_flags
_atom_site_disorder_assembly
_atom_site_disorder_group
Cd1 Cd 0.51269(4) 0.97273(2) 0.90663(4) 0.01437(11) Uani 1 1 d . . .
O1 O 1.3732(5) 1.3639(2) 0.9388(3) 0.0189(10) Uani 1 1 d . . .
O2 O 1.2148(5) 1.4426(2) 0.8823(2) 0.0208(11) Uani 1 1 d . . .
O3 O -0.2417(5) 1.0016(2) 0.4339(2) 0.0223(11) Uani 1 1 d . . .
O4 O -0.4132(6) 1.0110(3) 0.5280(3) 0.0239(11) Uani 1 1 d . . .
O5 O 0.0647(8) 1.1172(3) 0.7783(3) 0.0448(15) Uani 1 1 d . . .
O6 O 0.6672(8) 1.2456(3) 0.5802(3) 0.0499(17) Uani 1 1 d . . .
N1 N 0.5751(6) 1.0889(3) 0.8990(4) 0.0202(12) Uani 1 1 d . . .
N2 N 0.7068(5) 1.1889(2) 0.9128(4) 0.0152(11) Uani 1 1 d . . .
N3 N 0.4184(6) 0.9412(3) 0.7940(3) 0.0148(12) Uani 1 1 d . . .
N4 N 0.2549(6) 0.9374(3) 0.6968(3) 0.0146(11) Uani 1 1 d . . .
N5 N 0.0737(10) 1.2005(4) 0.6862(4) 0.0408(18) Uani 1 1 d . . .
N6 N 0.5655(8) 1.1639(3) 0.6611(3) 0.0293(14) Uani 1 1 d . . .
C1 C 0.4627(6) 1.1419(3) 0.9121(6) 0.0229(15) Uani 1 1 d . . .
H1 H 0.3511 1.1359 0.9151 0.027 Uiso 1 1 calc R . .
C2 C 0.5439(7) 1.2051(3) 0.9198(5) 0.026(2) Uani 1 1 d . . .
H2 H 0.4987 1.2495 0.9281 0.031 Uiso 1 1 calc R . .
C3 C 0.7191(7) 1.1185(3) 0.8994(5) 0.0149(13) Uani 1 1 d . . .
H3 H 0.8160 1.0946 0.8915 0.018 Uiso 1 1 calc R . .
C4 C 0.8385(7) 1.2375(3) 0.9142(5) 0.0163(14) Uani 1 1 d . . .
C5 C 0.9868(8) 1.2168(3) 0.9451(3) 0.0183(13) Uani 1 1 d . . .
H5 H 0.9985 1.1720 0.9658 0.022 Uiso 1 1 calc R . .
C6 C 1.1158(7) 1.2636(3) 0.9445(4) 0.0155(13) Uani 1 1 d . . .
H6 H 1.2158 1.2494 0.9630 0.019 Uiso 1 1 calc R . .
C7 C 1.0975(7) 1.3319(3) 0.9163(4) 0.0126(14) Uani 1 1 d . . .
C8 C 0.9468(8) 1.3525(3) 0.8877(3) 0.0193(17) Uani 1 1 d . . .
H8 H 0.9336 1.3978 0.8685 0.023 Uiso 1 1 calc R . .
C9 C 0.8167(7) 1.3056(3) 0.8878(3) 0.0185(16) Uani 1 1 d . . .
H9 H 0.7159 1.3199 0.8702 0.022 Uiso 1 1 calc R . .
C10 C 1.2370(6) 1.3828(3) 0.9118(5) 0.0176(13) Uani 1 1 d . . .
C11 C 0.4854(9) 0.8947(4) 0.7421(3) 0.0246(15) Uani 1 1 d . . .
H11 H 0.5820 0.8699 0.7475 0.029 Uiso 1 1 calc R . .
C12 C 0.3846(8) 0.8920(4) 0.6819(4) 0.0248(16) Uani 1 1 d . . .
H12 H 0.3995 0.8651 0.6392 0.030 Uiso 1 1 calc R . .
C13 C 0.2826(7) 0.9648(3) 0.7655(4) 0.0162(13) Uani 1 1 d . . .
H13 H 0.2137 0.9964 0.7893 0.019 Uiso 1 1 calc R . .
C14 C 0.1220(8) 0.9522(3) 0.6489(4) 0.0177(14) Uani 1 1 d . . .
C15 C 0.1529(8) 0.9639(4) 0.5741(4) 0.0207(15) Uani 1 1 d . . .
H15 H 0.2580 0.9613 0.5556 0.025 Uiso 1 1 calc R . .
C16 C 0.0234(8) 0.9797(3) 0.5269(4) 0.0204(14) Uani 1 1 d . . .
H16 H 0.0424 0.9874 0.4767 0.024 Uiso 1 1 calc R . .
C17 C -0.1340(8) 0.9839(3) 0.5545(4) 0.0169(14) Uani 1 1 d . . .
C18 C -0.1612(8) 0.9729(4) 0.6301(4) 0.0207(14) Uani 1 1 d . . .
H18 H -0.2661 0.9760 0.6487 0.025 Uiso 1 1 calc R . .
C19 C -0.0339(8) 0.9572(3) 0.6783(4) 0.0197(14) Uani 1 1 d . . .
H19 H -0.0524 0.9502 0.7287 0.024 Uiso 1 1 calc R . .
C20 C -0.2725(8) 0.9998(3) 0.5027(4) 0.0209(15) Uani 1 1 d . . .
C21 C 0.0276(14) 1.1527(4) 0.6245(5) 0.061(3) Uani 1 1 d . . .
H21A H 0.0258 1.1788 0.5788 0.091 Uiso 1 1 calc R . .
H21B H -0.0780 1.1334 0.6339 0.091 Uiso 1 1 calc R . .
H21C H 0.1050 1.1149 0.6208 0.091 Uiso 1 1 calc RD . .
C22 C 0.0891(17) 1.2749(5) 0.6661(6) 0.069(3) Uani 1 1 d . . .
H22A H 0.0790 1.2799 0.6132 0.104 Uiso 1 1 calc R . .
H22B H 0.1930 1.2922 0.6816 0.104 Uiso 1 1 calc R . .
H22C H 0.0053 1.3016 0.6902 0.104 Uiso 1 1 calc R . .
C23 C 0.0809(11) 1.1784(5) 0.7574(5) 0.040(2) Uani 1 1 d . . .
H23 H 0.0998 1.2125 0.7936 0.048 Uiso 1 1 calc R . .
C24 C 0.4815(11) 1.0994(5) 0.6765(6) 0.058(3) Uani 1 1 d . . .
H24A H 0.4864 1.0896 0.7288 0.086 Uiso 1 1 calc R . .
H24B H 0.5314 1.0613 0.6496 0.086 Uiso 1 1 calc R . .
H24C H 0.3704 1.1038 0.6615 0.086 Uiso 1 1 calc RD . .
C25 C 0.6452(13) 1.1941(6) 0.7253(5) 0.061(3) Uani 1 1 d . . .
H25A H 0.6182 1.1669 0.7687 0.091 Uiso 1 1 calc R . .
H25B H 0.6100 1.2421 0.7320 0.091 Uiso 1 1 calc R . .
H25C H 0.7604 1.1932 0.7180 0.091 Uiso 1 1 calc R . .
C26 C 0.5844(10) 1.1930(4) 0.5938(4) 0.0364(19) Uani 1 1 d . . .
H26 H 0.5307 1.1718 0.5543 0.044 Uiso 1 1 calc R . .
loop_
_atom_site_aniso_label
_atom_site_aniso_U_11
_atom_site_aniso_U_22
_atom_site_aniso_U_33
_atom_site_aniso_U_23
_atom_site_aniso_U_13
_atom_site_aniso_U_12
Cd1 0.01612(17) 0.00892(17) 0.01809(17) 0.0006(3) -0.0007(3) -0.00005(18)
O1 0.017(2) 0.009(2) 0.030(2) 0.003(2) -0.0079(19) -0.0016(19)
O2 0.019(2) 0.007(2) 0.036(3) 0.0065(19) 0.0019(18) 0.0002(18)
O3 0.023(2) 0.024(3) 0.020(2) 0.006(2) -0.0044(17) -0.003(2)
O4 0.019(3) 0.020(3) 0.033(3) -0.006(2) 0.003(2) 0.008(2)
O5 0.066(4) 0.028(3) 0.041(3) 0.008(3) 0.007(3) 0.006(3)
O6 0.085(5) 0.031(4) 0.033(3) 0.008(3) 0.006(3) -0.009(4)
N1 0.013(2) 0.015(2) 0.033(4) -0.003(3) 0.000(3) -0.0004(19)
N2 0.015(2) 0.008(2) 0.023(3) -0.005(3) 0.001(3) -0.0015(17)
N3 0.018(3) 0.011(3) 0.015(3) 0.002(2) 0.000(2) 0.001(2)
N4 0.019(3) 0.008(3) 0.017(3) -0.004(2) 0.001(2) -0.001(2)
N5 0.077(5) 0.018(4) 0.027(4) 0.000(3) 0.001(4) 0.000(4)
N6 0.043(4) 0.020(3) 0.025(3) -0.002(3) 0.002(3) -0.005(3)
C1 0.011(3) 0.016(3) 0.041(4) -0.002(5) -0.005(4) -0.001(2)
C2 0.015(3) 0.011(3) 0.052(7) 0.000(4) 0.004(3) 0.002(2)
C3 0.019(3) 0.008(3) 0.017(3) 0.001(3) -0.002(3) 0.006(2)
C4 0.021(3) 0.009(3) 0.019(4) -0.004(3) -0.005(3) -0.003(2)
C5 0.022(3) 0.008(3) 0.025(3) 0.003(3) -0.001(3) 0.004(3)
C6 0.016(3) 0.009(3) 0.021(3) -0.006(3) 0.000(3) 0.002(3)
C7 0.019(3) 0.007(3) 0.012(4) -0.002(3) 0.001(3) 0.002(2)
C8 0.025(3) 0.006(3) 0.027(5) 0.003(3) -0.002(2) -0.001(2)
C9 0.019(3) 0.011(3) 0.026(5) -0.005(3) -0.005(2) 0.000(2)
C10 0.017(3) 0.015(3) 0.020(3) -0.002(4) 0.009(4) -0.003(2)
C11 0.027(4) 0.027(4) 0.020(3) -0.002(3) 0.000(3) 0.013(3)
C12 0.027(4) 0.023(4) 0.025(4) -0.003(3) -0.003(3) 0.011(3)
C13 0.024(3) 0.004(3) 0.021(3) -0.001(3) 0.001(3) 0.000(3)
C14 0.023(3) 0.007(3) 0.023(3) -0.006(3) -0.002(3) -0.001(3)
C15 0.021(3) 0.018(4) 0.024(4) -0.008(3) -0.002(3) 0.002(3)
C16 0.025(3) 0.015(3) 0.021(3) 0.000(3) 0.000(3) -0.002(3)
C17 0.022(3) 0.006(4) 0.022(3) -0.001(3) -0.002(2) -0.004(3)
C18 0.019(3) 0.012(3) 0.031(4) 0.000(3) 0.000(3) 0.002(3)
C19 0.023(3) 0.018(4) 0.018(3) -0.001(3) -0.002(3) -0.004(3)
C20 0.026(4) 0.004(3) 0.032(4) -0.002(3) -0.004(3) -0.004(3)
C21 0.125(10) 0.014(4) 0.042(5) -0.007(4) -0.002(6) -0.004(5)
C22 0.130(10) 0.022(5) 0.055(6) 0.003(5) 0.015(7) -0.005(6)
C23 0.054(5) 0.030(5) 0.036(5) -0.001(4) 0.005(4) 0.006(4)
C24 0.061(6) 0.037(5) 0.075(7) -0.010(5) 0.030(6) -0.007(5)
C25 0.085(8) 0.064(8) 0.033(5) 0.009(5) -0.009(5) -0.023(6)
C26 0.049(5) 0.030(5) 0.030(4) -0.010(4) -0.004(4) 0.004(4)
_geom_special_details            
;
All esds (except the esd in the dihedral angle between two l.s. planes)
are estimated using the full covariance matrix. The cell esds are taken
into account individually in the estimation of esds in distances, angles
and torsion angles; correlations between esds in cell parameters are only
used when they are defined by crystal symmetry. An approximate (isotropic)
treatment of cell esds is used for estimating esds involving l.s. planes.
;
loop_
_geom_bond_atom_site_label_1
_geom_bond_atom_site_label_2
_geom_bond_distance
_geom_bond_site_symmetry_2
_geom_bond_publ_flag
Cd1 N3 2.252(5) . ?
Cd1 N1 2.260(5) . ?
Cd1 O1 2.335(4) 3_745 ?
Cd1 O3 2.341(5) 2_575 ?
Cd1 O4 2.355(5) 2_575 ?
Cd1 O2 2.361(5) 3_745 ?
Cd1 C10 2.677(5) 3_745 ?
Cd1 C20 2.682(7) 2_575 ?
O1 C10 1.277(7) . ?
O1 Cd1 2.335(4) 3_755 ?
O2 C10 1.262(8) . ?
O2 Cd1 2.361(4) 3_755 ?
O3 C20 1.265(8) . ?
O3 Cd1 2.341(5) 2_574 ?
O4 C20 1.265(8) . ?
O4 Cd1 2.355(5) 2_574 ?
O5 C23 1.222(10) . ?
O6 C26 1.230(10) . ?
N1 C3 1.314(7) . ?
N1 C1 1.385(7) . ?
N2 C3 1.356(7) . ?
N2 C2 1.384(7) . ?
N2 C4 1.423(7) . ?
N3 C13 1.311(8) . ?
N3 C11 1.397(8) . ?
N4 C13 1.360(8) . ?
N4 C12 1.397(8) . ?
N4 C14 1.423(8) . ?
N5 C23 1.351(10) . ?
N5 C22 1.458(11) . ?
N5 C21 1.481(10) . ?
N6 C26 1.340(10) . ?
N6 C24 1.430(11) . ?
N6 C25 1.447(11) . ?
C1 C2 1.376(8) . ?
C4 C9 1.383(9) . ?
C4 C5 1.400(9) . ?
C5 C6 1.385(9) . ?
C6 C7 1.394(9) . ?
C7 C8 1.401(8) . ?
C7 C10 1.503(8) . ?
C8 C9 1.393(9) . ?
C10 Cd1 2.677(5) 3_755 ?
C11 C12 1.367(9) . ?
C14 C15 1.389(9) . ?
C14 C19 1.395(9) . ?
C15 C16 1.397(9) . ?
C16 C17 1.393(9) . ?
C17 C18 1.395(9) . ?
C17 C20 1.506(9) . ?
C18 C19 1.394(9) . ?
C20 Cd1 2.682(7) 2_574 ?
loop_
_geom_angle_atom_site_label_1
_geom_angle_atom_site_label_2
_geom_angle_atom_site_label_3
_geom_angle
_geom_angle_site_symmetry_1
_geom_angle_site_symmetry_3
_geom_angle_publ_flag
N3 Cd1 N1 106.4(2) . . ?
N3 Cd1 O1 97.44(18) . 3_745 ?
N1 Cd1 O1 141.19(18) . 3_745 ?
N3 Cd1 O3 85.03(17) . 2_575 ?
N1 Cd1 O3 91.69(17) . 2_575 ?
O1 Cd1 O3 121.02(16) 3_745 2_575 ?
N3 Cd1 O4 138.54(17) . 2_575 ?
N1 Cd1 O4 90.5(2) . 2_575 ?
O1 Cd1 O4 91.47(16) 3_745 2_575 ?
O3 Cd1 O4 56.28(15) 2_575 2_575 ?
N3 Cd1 O2 95.66(18) . 3_745 ?
N1 Cd1 O2 90.35(16) . 3_745 ?
O1 Cd1 O2 56.60(15) 3_745 3_745 ?
O3 Cd1 O2 177.58(16) 2_575 3_745 ?
O4 Cd1 O2 122.40(16) 2_575 3_745 ?
N3 Cd1 C10 97.5(2) . 3_745 ?
N1 Cd1 C10 116.31(17) . 3_745 ?
O1 Cd1 C10 28.49(17) 3_745 3_745 ?
O3 Cd1 C10 149.51(19) 2_575 3_745 ?
O4 Cd1 C10 108.7(2) 2_575 3_745 ?
O2 Cd1 C10 28.11(17) 3_745 3_745 ?
N3 Cd1 C20 112.1(2) . 2_575 ?
N1 Cd1 C20 91.1(2) . 2_575 ?
O1 Cd1 C20 107.95(18) 3_745 2_575 ?
O3 Cd1 C20 28.14(18) 2_575 2_575 ?
O4 Cd1 C20 28.14(19) 2_575 2_575 ?
O2 Cd1 C20 150.51(19) 3_745 2_575 ?
C10 Cd1 C20 132.2(2) 3_745 2_575 ?
C10 O1 Cd1 90.8(3) . 3_755 ?
C10 O2 Cd1 90.0(3) . 3_755 ?
C20 O3 Cd1 91.1(4) . 2_574 ?
C20 O4 Cd1 90.5(4) . 2_574 ?
C3 N1 C1 107.3(5) . . ?
C3 N1 Cd1 128.3(4) . . ?
C1 N1 Cd1 122.7(4) . . ?
C3 N2 C2 107.8(5) . . ?
C3 N2 C4 125.3(5) . . ?
C2 N2 C4 126.8(5) . . ?
C13 N3 C11 106.8(5) . . ?
C13 N3 Cd1 123.9(4) . . ?
C11 N3 Cd1 129.2(4) . . ?
C13 N4 C12 106.2(5) . . ?
C13 N4 C14 127.3(5) . . ?
C12 N4 C14 126.5(5) . . ?
C23 N5 C22 122.0(8) . . ?
C23 N5 C21 122.4(7) . . ?
C22 N5 C21 115.1(8) . . ?
C26 N6 C24 125.6(7) . . ?
C26 N6 C25 120.5(7) . . ?
C24 N6 C25 113.6(7) . . ?
C2 C1 N1 108.5(5) . . ?
C1 C2 N2 105.8(5) . . ?
N1 C3 N2 110.5(5) . . ?
C9 C4 C5 120.7(5) . . ?
C9 C4 N2 119.6(5) . . ?
C5 C4 N2 119.6(6) . . ?
C6 C5 C4 119.4(6) . . ?
C5 C6 C7 120.7(6) . . ?
C6 C7 C8 119.2(5) . . ?
C6 C7 C10 121.9(6) . . ?
C8 C7 C10 118.8(5) . . ?
C9 C8 C7 120.5(6) . . ?
C4 C9 C8 119.5(6) . . ?
O2 C10 O1 122.6(5) . . ?
O2 C10 C7 119.1(5) . . ?
O1 C10 C7 118.3(5) . . ?
O2 C10 Cd1 61.9(3) . 3_755 ?
O1 C10 Cd1 60.7(3) . 3_755 ?
C7 C10 Cd1 178.8(6) . 3_755 ?
C12 C11 N3 108.2(6) . . ?
C11 C12 N4 107.0(6) . . ?
N3 C13 N4 111.8(6) . . ?
C15 C14 C19 121.8(6) . . ?
C15 C14 N4 118.6(6) . . ?
C19 C14 N4 119.6(6) . . ?
C14 C15 C16 118.8(6) . . ?
C17 C16 C15 120.6(6) . . ?
C16 C17 C18 119.3(6) . . ?
C16 C17 C20 119.9(6) . . ?
C18 C17 C20 120.8(6) . . ?
C19 C18 C17 121.1(6) . . ?
C14 C19 C18 118.3(6) . . ?
O3 C20 O4 122.2(6) . . ?
O3 C20 C17 117.4(6) . . ?
O4 C20 C17 120.5(6) . . ?
O3 C20 Cd1 60.8(3) . 2_574 ?
O4 C20 Cd1 61.4(3) . 2_574 ?
C17 C20 Cd1 178.1(5) . 2_574 ?
O5 C23 N5 125.5(8) . . ?
O6 C26 N6 125.2(8) . . ?
loop_
_geom_torsion_atom_site_label_1
_geom_torsion_atom_site_label_2
_geom_torsion_atom_site_label_3
_geom_torsion_atom_site_label_4
_geom_torsion
_geom_torsion_site_symmetry_1
_geom_torsion_site_symmetry_2
_geom_torsion_site_symmetry_3
_geom_torsion_site_symmetry_4
_geom_torsion_publ_flag
N3 Cd1 N1 C3 -109.8(8) . . . . ?
O1 Cd1 N1 C3 15.7(10) 3_745 . . . ?
O3 Cd1 N1 C3 164.9(8) 2_575 . . . ?
O4 Cd1 N1 C3 108.6(8) 2_575 . . . ?
O2 Cd1 N1 C3 -13.8(8) 3_745 . . . ?
C10 Cd1 N1 C3 -2.6(9) 3_745 . . . ?
C20 Cd1 N1 C3 136.7(8) 2_575 . . . ?
N3 Cd1 N1 C1 87.2(8) . . . . ?
O1 Cd1 N1 C1 -147.3(6) 3_745 . . . ?
O3 Cd1 N1 C1 1.9(8) 2_575 . . . ?
O4 Cd1 N1 C1 -54.4(8) 2_575 . . . ?
O2 Cd1 N1 C1 -176.8(8) 3_745 . . . ?
C10 Cd1 N1 C