####################################################################### 
# 
# This file contains crystal structure data downloaded from the 
# Cambridge Structural Database (CSD) hosted by the Cambridge 
# Crystallographic Data Centre (CCDC).
# 
# Full information about CCDC data access policies and citation 
# guidelines are available at http://www.ccdc.cam.ac.uk/access/V1 
# 
# Audit and citation data items may have been added by the CCDC. 
# Please retain this information to preserve the provenance of 
# this file and to allow appropriate attribution of the data. 
# 
#######################################################################

data_PT0530_cif
_audit_block_doi                 10.5517/cc1j8f07
_database_code_depnum_ccdc_archive 'CCDC 1408268'
_audit_update_record             
;
2015-06-23 deposited with the CCDC.	2024-07-12 downloaded from the CCDC.
;
_audit_creation_date             06-03-01
_audit_creation_method           CRYSTALS_ver_12.80

_oxford_structure_analysis_title 'pt0530 in Pna21'
_chemical_name_systematic        ?
_chemical_melting_point          ?

_cell_length_a                   26.318(5)
_cell_length_b                   22.685(4)
_cell_length_c                   13.388(3)
_cell_angle_alpha                90
_cell_angle_beta                 90
_cell_angle_gamma                90
_cell_volume                     7993(3)

_symmetry_cell_setting           Orthorhombic
_symmetry_space_group_name_H-M   'P n a 21 '
_symmetry_space_group_name_Hall  'P 2c -2n'
loop_
_symmetry_equiv_pos_as_xyz
x,y,z
-x+1/2,y+1/2,z+1/2
x+1/2,-y+1/2,z
-x,-y,z+1/2

loop_
_atom_type_symbol
_atom_type_scat_dispersion_real
_atom_type_scat_dispersion_imag
_atom_type_scat_Cromer_Mann_a1
_atom_type_scat_Cromer_Mann_b1
_atom_type_scat_Cromer_Mann_a2
_atom_type_scat_Cromer_Mann_b2
_atom_type_scat_Cromer_Mann_a3
_atom_type_scat_Cromer_Mann_b3
_atom_type_scat_Cromer_Mann_a4
_atom_type_scat_Cromer_Mann_b4
_atom_type_scat_Cromer_Mann_c
_atom_type_scat_source
C 0.0033 0.0016 2.3100 20.8439 1.0200 10.2075 1.5886 0.5687 0.8650 51.6512
0.2156 'International Tables Vol C 4.2.6.8 and 6.1.1.4'
H 0.0000 0.0000 0.4930 10.5109 0.3229 26.1257 0.1402 3.1424 0.0408 57.7998
0.0030 'International Tables Vol C 4.2.6.8 and 6.1.1.4'
Cu 0.3201 1.2651 13.3380 3.5828 7.1676 0.2470 5.6158 11.3966 1.6735 64.8126
1.1910 'International Tables Vol C 4.2.6.8 and 6.1.1.4'
N 0.0061 0.0033 12.2126 0.0057 3.1322 9.8933 2.0125 28.9975 1.1663 0.5826
-11.5290 'International Tables Vol C 4.2.6.8 and 6.1.1.4'
O 0.0106 0.0060 3.0485 13.2771 2.2868 5.7011 1.5463 0.3239 0.8670 32.9089
0.2508 'International Tables Vol C 4.2.6.8 and 6.1.1.4'
Cl 0.1484 0.1585 11.4604 0.0104 7.1964 1.1662 6.2556 18.5194 1.6455 47.7784
-9.5574 'International Tables Vol C 4.2.6.8 and 6.1.1.4'


_cell_formula_units_Z            4

# Given Formula = C68 H104 Cl5 Cu2 N8 O10 
# Dc =      1.24 Fooo =   3164.00 Mu =      7.55 M =   1497.98
# Found Formula = C64 H96 Cu2 N8 O8 
# Dc =      1.02 FOOO =   2632.00 Mu =      5.79 M =   1232.61

_chemical_formula_sum            'C69 H104 Cl5 Cu2 N8 O10'
_chemical_formula_moiety         
'C64 H96 Cu2 N8 O8, C2 H4 Cl2, C2 H3 O2, C H Cl3'
_chemical_compound_source        ?
_chemical_formula_weight         1497.98


_cell_measurement_reflns_used    8551
_cell_measurement_theta_min      2
_cell_measurement_theta_max      23
_cell_measurement_temperature    150

_exptl_crystal_description       plate
_exptl_crystal_colour            green
_exptl_crystal_size_min          0.07
_exptl_crystal_size_mid          0.40
_exptl_crystal_size_max          0.56

_exptl_crystal_density_diffrn    1.240
_exptl_crystal_density_meas      ?
# Non-dispersive F(000): 
_exptl_crystal_F_000             3164
_exptl_absorpt_coefficient_mu    0.755

# Sheldrick geometric approximatio 0.79 0.96 
_exptl_absorpt_correction_type   multi-scan
_exptl_absorpt_process_details   'SADABS (Siemens, 1996)'
_exptl_absorpt_correction_T_min  0.56
_exptl_absorpt_correction_T_max  0.95
_diffrn_measurement_device_type  'Bruker SMART'
_diffrn_radiation_monochromator  graphite
_diffrn_radiation_type           'Mo K\a'
_diffrn_radiation_wavelength     0.71073
_diffrn_measurement_method       '\f & \w scans'

_computing_data_collection       'SMART (Siemens, 1993)'
_computing_data_reduction        'SAINT (Siemens ,1995)'
_computing_cell_refinement       'SAINT (Siemens ,1995)'
_computing_structure_solution    'SHELXS 86 (Sheldrick, 1986)'
_computing_structure_refinement  'CRYSTALS (Betteridge et al., 2003)'
_computing_publication_material  'CRYSTALS (Betteridge et al., 2003)'
_computing_molecular_graphics    'CAMERON (Watkin et al., 1996)'

_diffrn_standards_interval_time  ?
_diffrn_standards_interval_count ?
_diffrn_standards_number         0
_diffrn_standards_decay_%        ?

_diffrn_ambient_temperature      150
_diffrn_reflns_number            10621
_reflns_number_total             10621
_diffrn_reflns_av_R_equivalents  0.065
# Number of reflections with Friedels Law is 273 
# Number of reflections without Friedels Law is 10621 
# Theoretical number of reflections is about 5340 


_diffrn_reflns_theta_min         1.185
_diffrn_reflns_theta_max         22.671
_diffrn_measured_fraction_theta_max 0.996

_diffrn_reflns_theta_full        22.671
_diffrn_measured_fraction_theta_full 0.996


_diffrn_reflns_limit_h_min       0
_diffrn_reflns_limit_h_max       28
_diffrn_reflns_limit_k_min       0
_diffrn_reflns_limit_k_max       24
_diffrn_reflns_limit_l_min       -14
_diffrn_reflns_limit_l_max       14
_reflns_limit_h_min              0
_reflns_limit_h_max              28
_reflns_limit_k_min              0
_reflns_limit_k_max              24
_reflns_limit_l_min              -14
_reflns_limit_l_max              14

_oxford_diffrn_Wilson_B_factor   1.25
_oxford_diffrn_Wilson_scale      0.42

_atom_sites_solution_primary     direct #heavy,direct,difmap,geom
# _atom_sites_solution_secondary  difmap
_atom_sites_solution_hydrogens   geom

_refine_diff_density_min         -0.65
_refine_diff_density_max         -0.65


_refine_ls_number_reflns         9133
_refine_ls_number_restraints     802
_refine_ls_number_parameters     740

#_refine_ls_R_factor_ref 0.0692 
_refine_ls_wR_factor_ref         0.0669
_refine_ls_goodness_of_fit_ref   1.0990

#_reflns_number_all 10620 
_refine_ls_R_factor_all          0.0777
_refine_ls_wR_factor_all         0.0687

# The I/u(I) cutoff below was used for refinement as 
# well as the _gt R-factors:
_reflns_threshold_expression     I>2.00u(I)
_reflns_number_gt                9133
_refine_ls_R_factor_gt           0.0692
_refine_ls_wR_factor_gt          0.0669

_refine_ls_shift/su_max          0.005463

_refine_ls_abs_structure_Flack   0.001(2)
_refine_ls_abs_structure_details 'Flack, 10348 Friedel-pairs'
# choose from: rm (reference molecule of known chirality), 
# ad (anomolous dispersion - Flack), rmad (rm and ad), 
# syn (from synthesis), unk (unknown) or . (not applicable). 
_chemical_absolute_configuration ad


_refine_ls_structure_factor_coef F
_refine_ls_matrix_type           full
_refine_ls_hydrogen_treatment    constr # none, undef, noref, refall,
# refxyz, refU, constr or mixed
_refine_ls_weighting_scheme      calc
_refine_ls_weighting_details     
;
 Method, part 1, Chebychev polynomial, (Watkin, 1994, Prince, 1982) 
 [weight] = 1.0/[A~0~*T~0~(x)+A~1~*T~1~(x) ... +A~n-1~]*T~n-1~(x)] 
 where A~i~ are the Chebychev coefficients listed below and x= Fcalc/Fmax 
 Method = Robust Weighting (Prince, 1982) 
 W = [weight] * [1-(deltaF/6*sigmaF)^2^]^2^ 
 A~i~ are: 
 1.71 0.630 1.29 
;

_refine_special_details          
;

          >>> The Following ALERTS were generated <<<
          -------------------------------------------
     Format: alert-number_ALERT_alert-type_alert-level text
 
023_ALERT_3_A Resolution (too) Low [sin(th)/Lambda < 0.6].....      22.67 Deg.
027_ALERT_3_A _diffrn_reflns_theta_full (too) Low ............      22.67 Deg.
341_ALERT_3_C Low Bond Precision on C-C bonds (x 1000) Ang ...          8

The crystal did not diffract at higher than approx 45 deg in 2TH. For this 
reason the data were only integrated to this resolution. This lack of high
resolution data has therefore affected the C-C bond precision.

043_ALERT_1_A Check Reported Molecular Weight ................    1497.98
044_ALERT_1_A Calculated and Reported Dx Differ ..............          ?
051_ALERT_1_A Mu(calc) and Mu(CIF) Ratio Differs from 1.0 by .      23.29 Perc.
041_ALERT_1_C Calc. and Rep. SumFormula Strings    Differ ....          ?
068_ALERT_1_C Reported F000 Differs from Calcd (or Missing)...          ?
602_ALERT_4_C VERY LARGE Solvent Accessible VOID(S) in Structure        !
602_ALERT_4_C VERY LARGE Solvent Accessible VOID(S) in Structure        !

The solvent region was treated using the Spek and van der Sluis method.
The solvent was however not identifiable but is likely to contain one of
each of CH3COO-, CHCl3 and 1,2-dichloroethane (total 139e) in the assymetric
unit based on the squeeze output of 565 e per cell or approximately 141 e per assym unit.




220_ALERT_2_A Large Non-Solvent    C     Ueq(max)/Ueq(min) ...       8.11 Ratio
222_ALERT_3_A Large Non-Solvent    H     Ueq(max)/Ueq(min) ...       8.24 Ratio
242_ALERT_2_A Check Low       Ueq as Compared to Neighbors for       C414
732_ALERT_1_A Angle   Calc    109.1(6), Rep   109.11(6) ......       9.90 su-Rat
              C421 -C411 -C431    1.555   1.555   1.555
732_ALERT_1_A Angle   Calc    109.1(6), Rep   109.09(6) ......       9.90 su-Rat
              C421 -C411 -C441    1.555   1.555   1.555
732_ALERT_1_A Angle   Calc    109.1(6), Rep   109.08(6) ......       9.90 su-Rat
              C431 -C411 -C441    1.555   1.555   1.555
213_ALERT_2_B Atom C424    has ADP max/min Ratio .............       4.20 prolat
213_ALERT_2_B Atom C431    has ADP max/min Ratio .............       4.10 prolat
213_ALERT_2_B Atom C444    has ADP max/min Ratio .............       4.90 prolat
242_ALERT_2_B Check Low       Ueq as Compared to Neighbors for       C411
732_ALERT_1_B Angle   Calc    109.9(4), Rep   109.86(6) ......       6.67 su-Rat
              C41  -C411 -C421    1.555   1.555   1.555
732_ALERT_1_B Angle   Calc    109.8(4), Rep   109.84(6) ......       6.67 su-Rat
              C41  -C411 -C431    1.555   1.555   1.555
732_ALERT_1_B Angle   Calc    109.9(4), Rep   109.84(6) ......       6.67 su-Rat
              C41  -C411 -C441    1.555   1.555   1.555
213_ALERT_2_C Atom C421    has ADP max/min Ratio .............       3.90 prolat
213_ALERT_2_C Atom C433    has ADP max/min Ratio .............       3.50 prolat
213_ALERT_2_C Atom C434    has ADP max/min Ratio .............       3.70 prolat
213_ALERT_2_C Atom C441    has ADP max/min Ratio .............       3.30 prolat
242_ALERT_2_C Check Low       Ueq as Compared to Neighbors for       C412
250_ALERT_2_C Large U3/U1 Ratio for Average U(i,j) Tensor ....       2.17

The tBu groups present in the structure were badly behaved if left unrestrained
Similarity restraints were applied to ensure sensible bond lengths and angles.
The rotational nature of these tBu groups has however lead to large ADP's which
are often prolate.



213_ALERT_2_B Atom O24     has ADP max/min Ratio .............       4.40 prolat
213_ALERT_2_C Atom N224    has ADP max/min Ratio .............       3.30 prolat

Noted, these are not too unreasonable given the quality of the data.

241_ALERT_2_C Check High      Ueq as Compared to Neighbors for        O14
241_ALERT_2_C Check High      Ueq as Compared to Neighbors for        O24
213_ALERT_2_B Atom C11     has ADP max/min Ratio .............       4.70 oblate
732_ALERT_1_B Angle   Calc    120.4(4), Rep   120.44(9) ......       4.44 su-Rat
              C11  -C21  -C31     1.555   1.555   1.555
732_ALERT_1_B Angle   Calc    122.2(4), Rep   122.22(9) ......       4.44 su-Rat
              C21  -C31  -C41     1.555   1.555   1.555
732_ALERT_1_B Angle   Calc    116.6(4), Rep   116.56(9) ......       4.44 su-Rat
              C31  -C41  -C51     1.555   1.555   1.555
732_ALERT_1_B Angle   Calc    120.7(4), Rep   120.65(9) ......       4.44 su-Rat
              C51  -C61  -C11     1.555   1.555   1.555
732_ALERT_1_B Angle   Calc    120.4(4), Rep   120.45(9) ......       4.44 su-Rat
              C12  -C22  -C32     1.555   1.555   1.555
732_ALERT_1_B Angle   Calc    122.2(4), Rep   122.23(9) ......       4.44 su-Rat
              C22  -C32  -C42     1.555   1.555   1.555
732_ALERT_1_B Angle   Calc    116.6(4), Rep   116.56(9) ......       4.44 su-Rat
              C32  -C42  -C52     1.555   1.555   1.555
732_ALERT_1_B Angle   Calc    123.2(4), Rep   123.20(9) ......       4.44 su-Rat
              O13  -C13  -C23     1.555   1.555   1.555
732_ALERT_1_B Angle   Calc    120.5(4), Rep   120.49(9) ......       4.44 su-Rat
              C13  -C23  -C33     1.555   1.555   1.555
732_ALERT_1_B Angle   Calc    122.2(4), Rep   122.20(9) ......       4.44 su-Rat
              C23  -C33  -C43     1.555   1.555   1.555
732_ALERT_1_B Angle   Calc    116.6(4), Rep   116.55(9) ......       4.44 su-Rat
              C33  -C43  -C53     1.555   1.555   1.555
732_ALERT_1_B Angle   Calc    120.5(4), Rep   120.49(9) ......       4.44 su-Rat
              C14  -C24  -C34     1.555   1.555   1.555
732_ALERT_1_B Angle   Calc    122.2(4), Rep   122.18(9) ......       4.44 su-Rat
              C24  -C34  -C44     1.555   1.555   1.555
732_ALERT_1_B Angle   Calc    116.5(4), Rep   116.54(9) ......       4.44 su-Rat
              C34  -C44  -C54     1.555   1.555   1.555
732_ALERT_1_C Angle   Calc    123.2(3), Rep   123.26(9) ......       3.33 su-Rat
              O11  -C11  -C21     1.555   1.555   1.555
732_ALERT_1_C Angle   Calc    123.2(3), Rep   123.22(9) ......       3.33 su-Rat
              O12  -C12  -C22     1.555   1.555   1.555
732_ALERT_1_C Angle   Calc    120.7(4), Rep  120.66(10) ......       4.00 su-Rat
              C12  -C62  -C52     1.555   1.555   1.555
732_ALERT_1_C Angle   Calc    120.6(4), Rep  120.63(10) ......       4.00 su-Rat
              C53  -C63  -C13     1.555   1.555   1.555
732_ALERT_1_C Angle   Calc    123.2(3), Rep   123.21(9) ......       3.33 su-Rat
              O14  -C14  -C24     1.555   1.555   1.555
732_ALERT_1_C Angle   Calc    120.6(4), Rep  120.63(10) ......       4.00 su-Rat
              C14  -C64  -C54     1.555   1.555   1.555

These are the aromatic rings in the structure. They were refined as rigid bodies
with TLS refinement. 


911_ALERT_3_B # Missing FCF Refl Between THmin & STh/l=  0.542         24
913_ALERT_3_C # Missing Very Strong Reflections in FCF .......          3
A data collection strategy aimed at collecting fully complete data to 54deg in
2TH was employed. Please refer to the completeness statistics below.

Resolution & Completeness Statistics         (Cumulative)
#================================================================================
Theta sin(th)/Lambda Complete  Expected Measured  Missing
#--------------------------------------------------------------------------------
 20.82     0.500     0.999         4424     4421        3
 22.67     0.542     0.996         5623     5599       24
 

061_ALERT_3_C Tmax/Tmin Range Test RR' too Large .............       0.85

The crystal is a plate and this test often fails for plates as a high 
range is expected anyway.




720_ALERT_4_C Number of Unusual/Non-Standard Label(s) ........         84
795_ALERT_4_C C-Atom in CIF Coordinate List out of Sequence ..        C12
796_ALERT_4_C O-Atom in CIF Coordinate List out of Sequence ..        O12
797_ALERT_4_C N-Atom in CIF Coordinate List out of Sequence ..       N222

No action taken

;

loop_
_platon_squeeze_void_nr
_platon_squeeze_void_average_x
_platon_squeeze_void_average_y
_platon_squeeze_void_average_z
_platon_squeeze_void_volume
_platon_squeeze_void_count_electrons
1 0.250 0.235 0.038 1006.4 283.4
2 0.750 0.258 0.045 1006.4 281.5
_platon_squeeze_details          
; ?
;

# Uequiv = arithmetic mean of Ui i.e. Ueqiv = (U1+U2+U3)/3

# Replace last . with number of unfound hydrogen atomsattached to an atom.

# ..._refinement_flags_... 
# . no refinement constraints           S special position constraint on site
# G rigid group refinement of site      R riding atom
# D distance or angle restraint on site T thermal displacement constraints
# U Uiso or Uij restraint (rigid bond)  P partial occupancy constraint


loop_
_atom_site_label
_atom_site_type_symbol
_atom_site_fract_x
_atom_site_fract_y
_atom_site_fract_z
_atom_site_U_iso_or_equiv
_atom_site_occupancy
_atom_site_adp_type
_atom_site_refinement_flags_posn
_atom_site_refinement_flags_adp
_atom_site_refinement_flags_occupancy
_atom_site_disorder_assembly
_atom_site_disorder_group
_atom_site_attached_hydrogens
Cu1 Cu 0.50679(2) 0.22660(3) 0.08632(8) 0.0193 1.0000 Uani . . . . . .
O11 O 0.48725(16) 0.28588(16) -0.0091(2) 0.0236 1.0000 Uani D U . . . .
C11 C 0.5014(2) 0.34082(18) -0.0114(2) 0.0179 1.0000 Uani D U . . . .
C21 C 0.51809(19) 0.37202(18) 0.0742(3) 0.0186 1.0000 Uani D U . . . .
O21 O 0.54386(18) 0.27055(19) 0.2795(3) 0.0314 1.0000 Uani D U . . . .
C31 C 0.5279(2) 0.43245(19) 0.0689(3) 0.0246 1.0000 Uani D U . . . .
C41 C 0.5208(2) 0.46425(15) -0.0172(3) 0.0338 1.0000 Uani D U . . . .
C51 C 0.5073(2) 0.4323(2) -0.1024(4) 0.0298 1.0000 Uani D U . . . .
C61 C 0.4975(2) 0.3721(2) -0.0999(3) 0.0232 1.0000 Uani D U . . . .
C211 C 0.5299(3) 0.3433(3) 0.1688(4) 0.0248 1.0000 Uani D U . . . .
N221 N 0.5286(2) 0.2875(2) 0.1843(3) 0.0213 1.0000 Uani D U . . . .
C411 C 0.5250(2) 0.53270(16) -0.0150(3) 0.0649 1.0000 Uani D U . . . .
C421 C 0.5197(4) 0.5566(3) -0.1178(5) 0.0952 1.0000 Uani D U . . . .
C431 C 0.5749(3) 0.5502(3) 0.0257(7) 0.1339 1.0000 Uani D U . . . .
C441 C 0.4841(4) 0.5578(3) 0.0492(7) 0.1203 1.0000 Uani D U . . . .
C611 C 0.4808(3) 0.3399(3) -0.1938(4) 0.0269 1.0000 Uani D U . . . .
N621 N 0.5126(2) 0.2899(2) -0.2199(4) 0.0364 1.0000 Uani D U . . . .
C631 C 0.4906(4) 0.2609(3) -0.3076(5) 0.0480 1.0000 Uani D U . . . .
C641 C 0.5645(3) 0.3052(3) -0.2346(5) 0.0434 1.0000 Uani D U . . . .
C651 C 0.5974(4) 0.2486(4) -0.2449(7) 0.0632 1.0000 Uani D U . . . .
C661 C 0.6533(4) 0.2618(4) -0.2443(8) 0.0725 1.0000 Uani D U . . . .
O12 O 0.51992(16) 0.16916(17) 0.1829(3) 0.0241 1.0000 Uani D U . . . .
C12 C 0.5348(2) 0.11336(18) 0.1725(2) 0.0196 1.0000 Uani D U . . . .
C22 C 0.5372(2) 0.08438(18) 0.07