####################################################################### 
# 
# This file contains crystal structure data downloaded from the 
# Cambridge Structural Database (CSD) hosted by the Cambridge 
# Crystallographic Data Centre (CCDC).
# 
# Full information about CCDC data access policies and citation 
# guidelines are available at http://www.ccdc.cam.ac.uk/access/V1 
# 
# Audit and citation data items may have been added by the CCDC. 
# Please retain this information to preserve the provenance of 
# this file and to allow appropriate attribution of the data. 
# 
#######################################################################

data_konstantin1a
_audit_block_doi                 10.5517/cc6kc58
_database_code_depnum_ccdc_archive 'CCDC 195429'
loop_
_citation_id
_citation_doi
_citation_year
1 10.1002/anie.200250534 2003
_audit_update_record             
;
2002-10-15 deposited with the CCDC.	2024-07-12 downloaded from the CCDC.
;

_audit_creation_method           SHELXL
_chemical_name_systematic        
;
Cobalt(II) Dithionate 1:2 Complex with
3,3',5,5'-Tetramethyl-4,4'-bipyrazolyl Hydrate
;
_chemical_name_common            ?
_chemical_formula_moiety         ?
_chemical_formula_structural     ?
_chemical_formula_analytical     ?
_chemical_formula_sum            'C20 H30 Co N8 O7 S2'
_chemical_formula_weight         617.57
_chemical_melting_point          ?
_chemical_compound_source        ?

loop_
_atom_type_symbol
_atom_type_description
_atom_type_scat_dispersion_real
_atom_type_scat_dispersion_imag
_atom_type_scat_source
C C 0.0033 0.0016 'International Tables Vol C Tables 4.2.6.8 and 6.1.1.4'
H H 0.0000 0.0000 'International Tables Vol C Tables 4.2.6.8 and 6.1.1.4'
N N 0.0061 0.0033 'International Tables Vol C Tables 4.2.6.8 and 6.1.1.4'
O O 0.0106 0.0060 'International Tables Vol C Tables 4.2.6.8 and 6.1.1.4'
S S 0.1246 0.1234 'International Tables Vol C Tables 4.2.6.8 and 6.1.1.4'
Co Co 0.3494 0.9721 'International Tables Vol C Tables 4.2.6.8 and 6.1.1.4'

_symmetry_cell_setting           Trigonal
_symmetry_space_group_name_H-M   P32(1)

loop_
_symmetry_equiv_pos_as_xyz
'x, y, z'
'-y, x-y, z'
'y, x, -z'
'-x+y, -x, z'
'-x, -x+y, -z'
'x-y, -y, -z'

_cell_length_a                   19.311(3)
_cell_length_b                   19.311(3)
_cell_length_c                   7.772(2)
_cell_angle_alpha                90.00
_cell_angle_beta                 90.00
_cell_angle_gamma                120.00
_cell_volume                     2510.0(8)
_cell_formula_units_Z            3
_cell_measurement_temperature    153(2)
_cell_measurement_reflns_used    ?
_cell_measurement_theta_min      ?
_cell_measurement_theta_max      ?

_exptl_crystal_description       'hexagonal prism'
_exptl_crystal_colour            pink-red
_exptl_crystal_size_max          0.25
_exptl_crystal_size_mid          0.15
_exptl_crystal_size_min          0.15
_exptl_crystal_density_meas      ?
_exptl_crystal_density_diffrn    1.226
_exptl_crystal_density_method    ?
_exptl_crystal_F_000             963
_exptl_absorpt_coefficient_mu    0.682
_exptl_absorpt_correction_type   ?
_exptl_absorpt_correction_T_min  ?
_exptl_absorpt_correction_T_max  ?

_exptl_special_details           
;
Image plate distance 70 mm, scans 0-188 deg, delta phi 1 deg
;

_diffrn_ambient_temperature      153(2)
_diffrn_radiation_wavelength     0.71073
_diffrn_radiation_type           MoK\a
_diffrn_radiation_source         'fine-focus sealed tube'
_diffrn_radiation_monochromator  graphite
_diffrn_measurement_device       'Stoe IPDS'
_diffrn_measurement_method       'phi oscillation scans'
_diffrn_standards_number         ?
_diffrn_standards_interval_count ?
_diffrn_standards_interval_time  ?
_diffrn_standards_decay_%        ?
_diffrn_reflns_number            4339
_diffrn_reflns_av_R_equivalents  0.0511
_diffrn_reflns_av_sigmaI/netI    0.1069
_diffrn_reflns_limit_h_min       -14
_diffrn_reflns_limit_h_max       23
_diffrn_reflns_limit_k_min       -21
_diffrn_reflns_limit_k_max       23
_diffrn_reflns_limit_l_min       -9
_diffrn_reflns_limit_l_max       8
_diffrn_reflns_theta_min         2.89
_diffrn_reflns_theta_max         25.90
_reflns_number_total             2624
_reflns_number_observed          1853
_reflns_observed_criterion       >2sigma(I)

_computing_data_collection       ?
_computing_cell_refinement       ?
_computing_data_reduction        ?
_computing_structure_solution    'SHELXS-86 (Sheldrick, 1990)'
_computing_structure_refinement  'SHELXL-93 (Sheldrick, 1993)'
_computing_molecular_graphics    ?
_computing_publication_material  ?

_refine_special_details          
;
Refinement on F^2^ for ALL reflections except for 80 with very negative F^2^
or flagged by the user for potential systematic errors.  Weighted R-factors
wR and all goodnesses of fit S are based on F^2^, conventional R-factors R
are based on F, with F set to zero for negative F^2^. The observed criterion
of F^2^ > 2sigma(F^2^) is used only for calculating _R_factor_obs etc. and is
not relevant to the choice of reflections for refinement.  R-factors based
on F^2^ are statistically about twice as large as those based on F, and R-
factors based on ALL data will be even larger.
;

_refine_ls_structure_factor_coef Fsqd
_refine_ls_matrix_type           full
_refine_ls_weighting_scheme      
'calc w=1/[\s^2^(Fo^2^)+(0.0261P)^2^+0.0000P] where P=(Fo^2^+2Fc^2^)/3'
_atom_sites_solution_primary     direct
_atom_sites_solution_secondary   difmap
_atom_sites_solution_hydrogens   geom
_refine_ls_hydrogen_treatment    ?
_refine_ls_extinction_method     none
_refine_ls_extinction_coef       ?
_refine_ls_abs_structure_details 'Flack H D (1983), Acta Cryst. A39, 876-881'
_refine_ls_abs_structure_Flack   0.02(2)
_refine_ls_number_reflns         2544
_refine_ls_number_parameters     180
_refine_ls_number_restraints     0
_refine_ls_R_factor_all          0.0616
_refine_ls_R_factor_obs          0.0364
_refine_ls_wR_factor_all         0.0775
_refine_ls_wR_factor_obs         0.0698
_refine_ls_goodness_of_fit_all   0.852
_refine_ls_goodness_of_fit_obs   0.952
_refine_ls_restrained_S_all      0.877
_refine_ls_restrained_S_obs      0.952
_refine_ls_shift/esd_max         -0.001
_refine_ls_shift/esd_mean        0.000

loop_
_atom_site_label
_atom_site_type_symbol
_atom_site_fract_x
_atom_site_fract_y
_atom_site_fract_z
_atom_site_U_iso_or_equiv
_atom_site_thermal_displace_type
_atom_site_occupancy
_atom_site_calc_flag
_atom_site_refinement_flags
_atom_site_disorder_group
Co1 Co 0.45427(4) 1.0000 0.5000 0.0132(2) Uani 1 d S .
S1 S 0.37337(6) 0.94876(7) 0.91368(11) 0.0163(2) Uani 1 d . .
O1 O 0.3005(2) 0.9427(2) 0.8502(3) 0.0204(7) Uani 1 d . .
O2 O 0.3616(2) 0.8815(2) 1.0184(3) 0.0210(7) Uani 1 d . .
O3 O 0.4353(2) 0.9710(2) 0.7824(3) 0.0180(6) Uani 1 d . .
N1 N 0.3330(2) 0.9086(2) 0.4647(4) 0.0155(8) Uani 1 d . .
N2 N 0.2827(2) 0.9209(2) 0.3615(4) 0.0164(8) Uani 1 d . .
H2N H 0.2899(23) 0.9618(25) 0.3270(40) 0.001(11) Uiso 1 d . .
N3 N 0.1191(2) 0.5845(2) 0.2710(4) 0.0184(8) Uani 1 d . .
H3N H 0.1147(36) 0.5435(35) 0.1984(61) 0.058(18) Uiso 1 d . .
N4 N 0.0818(2) 0.5736(2) 0.4275(4) 0.0159(8) Uani 1 d . .
C1 C 0.2168(3) 0.8520(2) 0.3183(5) 0.0195(10) Uani 1 d . .
C2 C 0.2218(3) 0.7914(3) 0.4024(4) 0.0174(9) Uani 1 d . .
C3 C 0.2946(3) 0.8288(2) 0.4905(4) 0.0158(9) Uani 1 d . .
C4 C 0.3273(3) 0.7878(3) 0.5971(5) 0.0230(10) Uani 1 d . .
H4A H 0.3781(3) 0.8268(3) 0.6437(5) 0.034 Uiso 1 calc R .
H4B H 0.3339(3) 0.7506(3) 0.5271(5) 0.034 Uiso 1 calc R .
H4C H 0.2909(3) 0.7597(3) 0.6894(5) 0.034 Uiso 1 calc R .
C5 C 0.1556(3) 0.8506(3) 0.1977(5) 0.0377(13) Uani 1 d . .
H5A H 0.1713(3) 0.9042(3) 0.1636(5) 0.057 Uiso 1 calc R .
H5B H 0.1047(3) 0.8271(3) 0.2545(5) 0.057 Uiso 1 calc R .
H5C H 0.1517(3) 0.8196(3) 0.0978(5) 0.057 Uiso 1 calc R .
C6 C 0.1707(3) 0.6607(3) 0.2402(5) 0.0172(9) Uani 1 d . .
C7 C 0.1688(2) 0.7041(3) 0.3808(4) 0.0177(10) Uani 1 d . .
C8 C 0.1123(2) 0.6467(2) 0.4941(4) 0.0140(10) Uani 1 d . .
C9 C 0.0874(3) 0.6615(3) 0.6664(5) 0.0264(11) Uani 1 d . .
H9A H 0.0480(3) 0.6116(3) 0.7155(5) 0.040 Uiso 1 calc R .
H9B H 0.0652(3) 0.6959(3) 0.6531(5) 0.040 Uiso 1 calc R .
H9C H 0.1331(3) 0.6865(3) 0.7409(5) 0.040 Uiso 1 calc R .
C10 C 0.2204(3) 0.6880(3) 0.0774(5) 0.0339(13) Uani 1 d . .
H10A H 0.2071(3) 0.6425(3) 0.0057(5) 0.051 Uiso 1 calc R .
H10B H 0.2761(3) 0.7139(3) 0.1067(5) 0.051 Uiso 1 calc R .
H10C H 0.2095(3) 0.7248(3) 0.0166(5) 0.051 Uiso 1 calc R .
O10 O 0.1139(11) 0.8893(12) 0.6808(17) 0.202(8) Uiso 0.50 d P .
H104 H 0.1444(11) 0.9395(12) 0.6628(17) 0.050 Uiso 0.50 d PR .
H105 H 0.0873(11) 0.8659(12) 0.7475(17) 0.050 Uiso 0.50 d PR .

loop_
_atom_site_aniso_label
_atom_site_aniso_U_11
_atom_site_aniso_U_22
_atom_site_aniso_U_33
_atom_site_aniso_U_23
_atom_site_aniso_U_13
_atom_site_aniso_U_12
Co1 0.0127(3) 0.0100(5) 0.0160(3) -0.0007(3) -0.0003(2) 0.0050(2)
S1 0.0165(6) 0.0151(6) 0.0154(4) 0.0014(4) 0.0003(4) 0.0065(5)
O1 0.013(2) 0.021(2) 0.0214(13) 0.0017(12) -0.0024(11) 0.0046(14)
O2 0.025(2) 0.013(2) 0.0217(14) 0.0054(12) -0.0012(12) 0.0066(14)
O3 0.017(2) 0.018(2) 0.0164(11) -0.0007(10) 0.0013(11) 0.0070(14)
N1 0.014(2) 0.017(2) 0.0135(14) 0.0006(13) -0.0028(13) 0.006(2)
N2 0.016(2) 0.012(2) 0.022(2) 0.004(2) -0.0002(15) 0.007(2)
N3 0.019(2) 0.013(2) 0.018(2) 0.001(2) 0.006(2) 0.005(2)
N4 0.010(2) 0.017(2) 0.019(2) 0.0010(14) 0.0032(14) 0.006(2)
C1 0.019(3) 0.014(2) 0.022(2) 0.000(2) -0.001(2) 0.005(2)
C2 0.020(3) 0.013(2) 0.016(2) 0.002(2) 0.003(2) 0.005(2)
C3 0.017(2) 0.012(2) 0.015(2) -0.001(2) 0.002(2) 0.004(2)
C4 0.020(3) 0.013(2) 0.032(2) -0.003(2) -0.004(2) 0.004(2)
C5 0.028(3) 0.033(3) 0.045(3) 0.007(3) -0.013(2) 0.010(3)
C6 0.014(2) 0.013(2) 0.018(2) 0.002(2) 0.003(2) 0.002(2)
C7 0.011(2) 0.018(3) 0.020(2) 0.000(2) -0.005(2) 0.004(2)
C8 0.009(2) 0.009(2) 0.019(2) -0.001(2) -0.002(2) 0.001(2)
C9 0.028(3) 0.024(3) 0.025(2) -0.005(2) 0.003(2) 0.012(2)
C10 0.037(3) 0.021(3) 0.024(2) 0.001(2) 0.009(2) 0.000(2)

_geom_special_details            
;
All esds (except the esd in the dihedral angle between two l.s. planes)
are estimated using the full covariance matrix.  The cell esds are taken
into account individually in the estimation of esds in distances, angles
and torsion angles; correlations between esds in cell parameters are only
used when they are defined by crystal symmetry.  An approximate (isotropic)
treatment of cell esds is used for estimating esds involving l.s. planes.
;

loop_
_geom_bond_atom_site_label_1
_geom_bond_atom_site_label_2
_geom_bond_distance
_geom_bond_site_symmetry_2
_geom_bond_publ_flag
Co1 N4 2.117(4) 3_566 ?
Co1 N4 2.117(4) 4_565 ?
Co1 N1 2.131(3) . ?
Co1 N1 2.131(3) 6_676 ?
Co1 O3 2.249(2) 6_676 ?
Co1 O3 2.249(2) . ?
S1 O1 1.440(3) . ?
S1 O2 1.451(3) . ?
S1 O3 1.464(3) . ?
S1 S1 2.177(2) 6_677 ?
N1 C3 1.349(5) . ?
N1 N2 1.370(5) . ?
N2 C1 1.346(5) . ?
N3 C6 1.323(5) . ?
N3 N4 1.374(4) . ?
N4 C8 1.334(5) . ?
N4 Co1 2.117(4) 2_665 ?
C1 C2 1.386(6) . ?
C1 C5 1.497(6) . ?
C2 C3 1.397(6) . ?
C2 C7 1.481(6) . ?
C3 C4 1.486(6) . ?
C6 C7 1.388(5) . ?
C6 C10 1.515(6) . ?
C7 C8 1.409(5) . ?
C8 C9 1.497(5) . ?

loop_
_geom_angle_atom_site_label_1
_geom_angle_atom_site_label_2
_geom_angle_atom_site_label_3
_geom_angle
_geom_angle_site_symmetry_1
_geom_angle_site_symmetry_3
_geom_angle_publ_flag
N4 Co1 N4 88.7(2) 3_566 4_565 ?
N4 Co1 N1 170.93(12) 3_566 . ?
N4 Co1 N1 89.48(13) 4_565 . ?
N4 Co1 N1 89.48(13) 3_566 6_676 ?
N4 Co1 N1 170.93(12) 4_565 6_676 ?
N1 Co1 N1 93.6(2) . 6_676 ?
N4 Co1 O3 98.48(11) 3_566 6_676 ?
N4 Co1 O3 84.66(11) 4_565 6_676 ?
N1 Co1 O3 90.20(11) . 6_676 ?
N1 Co1 O3 86.82(10) 6_676 6_676 ?
N4 Co1 O3 84.66(11) 3_566 . ?
N4 Co1 O3 98.48(11) 4_565 . ?
N1 Co1 O3 86.82(10) . . ?
N1 Co1 O3 90.20(11) 6_676 . ?
O3 Co1 O3 175.6(2) 6_676 . ?
O1 S1 O2 114.2(2) . . ?
O1 S1 O3 114.0(2) . . ?
O2 S1 O3 113.1(2) . . ?
O1 S1 S1 105.47(12) . 6_677 ?
O2 S1 S1 105.33(12) . 6_677 ?
O3 S1 S1 103.30(12) . 6_677 ?
S1 O3 Co1 139.5(2) . . ?
C3 N1 N2 104.7(3) . . ?
C3 N1 Co1 132.5(3) . . ?
N2 N1 Co1 120.8(3) . . ?
C1 N2 N1 112.1(4) . . ?
C6 N3 N4 112.1(3) . . ?
C8 N4 N3 105.1(3) . . ?
C8 N4 Co1 138.0(3) . 2_665 ?
N3 N4 Co1 116.8(2) . 2_665 ?
N2 C1 C2 106.7(4) . . ?
N2 C1 C5 121.5(4) . . ?
C2 C1 C5 131.9(4) . . ?
C1 C2 C3 105.8(4) . . ?
C1 C2 C7 127.4(4) . . ?
C3 C2 C7 126.0(4) . . ?
N1 C3 C2 110.7(3) . . ?
N1 C3 C4 123.6(4) . . ?
C2 C3 C4 125.7(4) . . ?
N3 C6 C7 107.2(3) . . ?
N3 C6 C10 122.2(4) . . ?
C7 C6 C10 130.6(4) . . ?
C6 C7 C8 105.1(4) . . ?
C6 C7 C2 124.4(3) . . ?
C8 C7 C2 130.3(4) . . ?
N4 C8 C7 110.4(3) . . ?
N4 C8 C9 122.4(3) . . ?
C7 C8 C9 127.3(4) . . ?

_refine_diff_density_max         0.329
_refine_diff_density_min         -0.353
_refine_diff_density_rms         0.066
