####################################################################### 
# 
# This file contains crystal structure data downloaded from the 
# Cambridge Structural Database (CSD) hosted by the Cambridge 
# Crystallographic Data Centre (CCDC).
# 
# Full information about CCDC data access policies and citation 
# guidelines are available at http://www.ccdc.cam.ac.uk/access/V1 
# 
# Audit and citation data items may have been added by the CCDC. 
# Please retain this information to preserve the provenance of 
# this file and to allow appropriate attribution of the data. 
# 
#######################################################################

data_konst_zns2o6
_audit_block_doi                 10.5517/cc6kc69
_database_code_depnum_ccdc_archive 'CCDC 195430'
loop_
_citation_id
_citation_doi
_citation_year
1 10.1002/anie.200250534 2003
_audit_update_record             
;
2002-10-15 deposited with the CCDC.	2024-07-12 downloaded from the CCDC.
;

_audit_creation_method           SHELXL
_chemical_name_systematic        
;
Zinc(II) Dithionate 1:2 Complex with
3,3',5,5'-Tetramethyl-4,4'-bipyrazolyl
;
_chemical_name_common            ?
_chemical_formula_moiety         ?
_chemical_formula_structural     ?
_chemical_formula_analytical     ?
_chemical_formula_sum            'C20 H26 N8 O6 S2 Zn'
_chemical_formula_weight         603.98
_chemical_melting_point          ?
_chemical_compound_source        ?

loop_
_atom_type_symbol
_atom_type_description
_atom_type_scat_dispersion_real
_atom_type_scat_dispersion_imag
_atom_type_scat_source
C C 0.0033 0.0016 'International Tables Vol C Tables 4.2.6.8 and 6.1.1.4'
H H 0.0000 0.0000 'International Tables Vol C Tables 4.2.6.8 and 6.1.1.4'
S S 0.1246 0.1234 'International Tables Vol C Tables 4.2.6.8 and 6.1.1.4'
O O 0.0106 0.0060 'International Tables Vol C Tables 4.2.6.8 and 6.1.1.4'
Zn Zn 0.2839 1.4301 'International Tables Vol C Tables 4.2.6.8 and 6.1.1.4'
N N 0.0061 0.0033 'International Tables Vol C Tables 4.2.6.8 and 6.1.1.4'

_symmetry_cell_setting           Trigonal
_symmetry_space_group_name_H-M   P32(1)

loop_
_symmetry_equiv_pos_as_xyz
'x, y, z'
'-y, x-y, z'
'y, x, -z'
'-x+y, -x, z'
'-x, -x+y, -z'
'x-y, -y, -z'

_cell_length_a                   19.298(4)
_cell_length_b                   19.298(4)
_cell_length_c                   7.967(2)
_cell_angle_alpha                90.00
_cell_angle_beta                 90.00
_cell_angle_gamma                120.00
_cell_volume                     2569.5(10)
_cell_formula_units_Z            3
_cell_measurement_temperature    153(2)
_cell_measurement_reflns_used    ?
_cell_measurement_theta_min      ?
_cell_measurement_theta_max      ?

_exptl_crystal_description       'hexagonal prism'
_exptl_crystal_colour            colorless
_exptl_crystal_size_max          0.30
_exptl_crystal_size_mid          0.20
_exptl_crystal_size_min          0.14
_exptl_crystal_density_meas      ?
_exptl_crystal_density_diffrn    1.171
_exptl_crystal_density_method    ?
_exptl_crystal_F_000             936
_exptl_absorpt_coefficient_mu    0.878
_exptl_absorpt_correction_type   ?
_exptl_absorpt_correction_T_min  ?
_exptl_absorpt_correction_T_max  ?

_exptl_special_details           
;
Image plate distance 70 mm, scans 0-188 deg, delta phi 1 deg
;

_diffrn_ambient_temperature      153(2)
_diffrn_radiation_wavelength     0.71073
_diffrn_radiation_type           MoK\a
_diffrn_radiation_source         'fine-focus sealed tube'
_diffrn_radiation_monochromator  graphite
_diffrn_measurement_device       'Stoe IPDS'
_diffrn_measurement_method       'phi oscillation scans'
_diffrn_standards_number         ?
_diffrn_standards_interval_count ?
_diffrn_standards_interval_time  ?
_diffrn_standards_decay_%        ?
_diffrn_reflns_number            3660
_diffrn_reflns_av_R_equivalents  0.1054
_diffrn_reflns_av_sigmaI/netI    0.1768
_diffrn_reflns_limit_h_min       -18
_diffrn_reflns_limit_h_max       23
_diffrn_reflns_limit_k_min       -23
_diffrn_reflns_limit_k_max       11
_diffrn_reflns_limit_l_min       -5
_diffrn_reflns_limit_l_max       9
_diffrn_reflns_theta_min         2.11
_diffrn_reflns_theta_max         25.88
_reflns_number_total             2025
_reflns_number_observed          1400
_reflns_observed_criterion       >2sigma(I)

_computing_data_collection       ?
_computing_cell_refinement       ?
_computing_data_reduction        ?
_computing_structure_solution    'SHELXS-86 (Sheldrick, 1990)'
_computing_structure_refinement  'SHELXL-93 (Sheldrick, 1993)'
_computing_molecular_graphics    ?
_computing_publication_material  ?

_refine_special_details          
;
Refinement on F^2^ for ALL reflections except for 34 with very negative F^2^
or flagged by the user for potential systematic errors.  Weighted R-factors
wR and all goodnesses of fit S are based on F^2^, conventional R-factors R
are based on F, with F set to zero for negative F^2^. The observed criterion
of F^2^ > 2sigma(F^2^) is used only for calculating _R_factor_obs etc. and is
not relevant to the choice of reflections for refinement.  R-factors based
on F^2^ are statistically about twice as large as those based on F, and R-
factors based on ALL data will be even larger.
;

_refine_ls_structure_factor_coef Fsqd
_refine_ls_matrix_type           full
_refine_ls_weighting_scheme      
'calc w=1/[\s^2^(Fo^2^)+(0.0000P)^2^+0.0000P] where P=(Fo^2^+2Fc^2^)/3'
_atom_sites_solution_primary     direct
_atom_sites_solution_secondary   difmap
_atom_sites_solution_hydrogens   geom
_refine_ls_hydrogen_treatment    ?
_refine_ls_extinction_method     none
_refine_ls_extinction_coef       ?
_refine_ls_abs_structure_details 'Flack H D (1983), Acta Cryst. A39, 876-881'
_refine_ls_abs_structure_Flack   0.18(3)
_refine_ls_number_reflns         1991
_refine_ls_number_parameters     172
_refine_ls_number_restraints     0
_refine_ls_R_factor_all          0.0833
_refine_ls_R_factor_obs          0.0547
_refine_ls_wR_factor_all         0.2395
_refine_ls_wR_factor_obs         0.0735
_refine_ls_goodness_of_fit_all   0.805
_refine_ls_goodness_of_fit_obs   0.886
_refine_ls_restrained_S_all      2.427
_refine_ls_restrained_S_obs      0.886
_refine_ls_shift/esd_max         -0.001
_refine_ls_shift/esd_mean        0.000

loop_
_atom_site_label
_atom_site_type_symbol
_atom_site_fract_x
_atom_site_fract_y
_atom_site_fract_z
_atom_site_U_iso_or_equiv
_atom_site_thermal_displace_type
_atom_site_occupancy
_atom_site_calc_flag
_atom_site_refinement_flags
_atom_site_disorder_group
Zn1 Zn -0.53840(6) 0.0000 -0.5000 0.0299(4) Uani 1 d S .
S1 S -0.56829(12) 0.05122(11) -0.0834(3) 0.0284(5) Uani 1 d . .
O1 O -0.5290(2) 0.0294(2) -0.2109(7) 0.0285(13) Uani 1 d . .
O2 O -0.6348(3) 0.0572(3) -0.1467(7) 0.036(2) Uani 1 d . .
O3 O -0.5138(3) 0.1171(3) 0.0207(8) 0.039(2) Uani 1 d . .
N1 N -0.5695(3) 0.0902(3) -0.5293(9) 0.025(2) Uani 1 d . .
N2 N -0.6327(4) 0.0754(4) -0.6354(9) 0.030(2) Uani 1 d . .
H11 H -0.6720(52) 0.0244(54) -0.7151(128) 0.086(32) Uiso 1 d . .
N3 N -0.4713(4) 0.4112(4) -0.7302(10) 0.032(2) Uani 1 d . .
N4 N -0.4967(3) 0.4214(3) -0.5778(11) 0.031(2) Uani 1 d . .
C1 C -0.5307(4) 0.1696(4) -0.5085(12) 0.030(2) Uani 1 d . .
C2 C -0.5665(4) 0.2053(4) -0.5967(11) 0.029(2) Uani 1 d . .
C3 C -0.6314(4) 0.1428(4) -0.6810(12) 0.034(2) Uani 1 d . .
C4 C -0.4588(5) 0.2105(4) -0.3981(13) 0.051(3) Uani 1 d . .
H4A H -0.4468(5) 0.1716(4) -0.3526(13) 0.076 Uiso 1 calc R .
H4B H -0.4692(5) 0.2371(4) -0.3083(13) 0.076 Uiso 1 calc R .
H4C H -0.4140(5) 0.2490(4) -0.4627(13) 0.076 Uiso 1 calc R .
C5 C -0.6918(5) 0.1411(5) -0.7991(13) 0.061(3) Uani 1 d . .
H5A H -0.7279(5) 0.0869(5) -0.8324(13) 0.091 Uiso 1 calc R .
H5B H -0.6652(5) 0.1726(5) -0.8965(13) 0.091 Uiso 1 calc R .
H5C H -0.7212(5) 0.1628(5) -0.7449(13) 0.091 Uiso 1 calc R .
C6 C -0.4925(5) 0.3344(4) -0.7600(12) 0.033(2) Uani 1 d . .
C7 C -0.5359(5) 0.2918(4) -0.6194(12) 0.028(2) Uani 1 d . .
C8 C -0.5372(4) 0.3468(4) -0.5083(13) 0.034(3) Uani 1 d . .
C9 C -0.4706(5) 0.3088(4) -0.9198(14) 0.056(3) Uani 1 d . .
H9A H -0.4398(5) 0.3548(4) -0.9896(14) 0.084 Uiso 1 calc R .
H9B H -0.5184(5) 0.2714(4) -0.9779(14) 0.084 Uiso 1 calc R .
H9C H -0.4394(5) 0.2840(4) -0.8941(14) 0.084 Uiso 1 calc R .
C10 C -0.5764(5) 0.3316(4) -0.3382(13) 0.056(3) Uani 1 d . .
H10A H -0.5672(5) 0.3813(4) -0.2909(13) 0.084 Uiso 1 calc R .
H10B H -0.5542(5) 0.3080(4) -0.2656(13) 0.084 Uiso 1 calc R .
H10C H -0.6330(5) 0.2958(4) -0.3497(13) 0.084 Uiso 1 calc R .

loop_
_atom_site_aniso_label
_atom_site_aniso_U_11
_atom_site_aniso_U_22
_atom_site_aniso_U_33
_atom_site_aniso_U_23
_atom_site_aniso_U_13
_atom_site_aniso_U_12
Zn1 0.0240(5) 0.0173(7) 0.0460(11) 0.0045(7) 0.0022(4) 0.0087(4)
S1 0.0326(12) 0.0244(12) 0.029(2) -0.0019(11) -0.0018(11) 0.0152(10)
O1 0.033(3) 0.031(3) 0.028(4) 0.003(2) 0.000(3) 0.021(3)
O2 0.039(3) 0.037(3) 0.040(5) -0.004(3) 0.000(3) 0.026(3)
O3 0.054(4) 0.018(3) 0.035(5) -0.001(3) -0.010(3) 0.010(3)
N1 0.027(3) 0.014(3) 0.036(6) -0.001(3) 0.001(3) 0.011(3)
N2 0.031(4) 0.022(4) 0.039(6) -0.012(4) -0.001(4) 0.013(3)
N3 0.047(4) 0.033(4) 0.027(6) -0.005(4) 0.001(4) 0.029(3)
N4 0.033(4) 0.018(3) 0.044(6) 0.005(3) 0.007(3) 0.014(3)
C1 0.023(4) 0.022(4) 0.043(7) -0.002(4) 0.007(4) 0.010(4)
C2 0.029(4) 0.018(4) 0.036(7) -0.005(4) 0.006(4) 0.008(4)
C3 0.032(4) 0.031(5) 0.050(8) -0.004(5) 0.002(4) 0.023(4)
C4 0.048(5) 0.020(4) 0.079(10) -0.008(5) -0.020(5) 0.013(4)
C5 0.046(6) 0.043(5) 0.088(10) 0.001(6) -0.031(6) 0.018(4)
C6 0.050(5) 0.033(5) 0.022(7) 0.003(4) -0.002(5) 0.026(4)
C7 0.040(5) 0.019(4) 0.029(7) -0.001(4) -0.008(5) 0.017(4)
C8 0.037(5) 0.023(4) 0.051(8) 0.006(5) 0.013(4) 0.021(4)
C9 0.081(7) 0.030(5) 0.058(10) 0.003(5) 0.021(6) 0.027(5)
C10 0.064(7) 0.039(5) 0.062(8) 0.006(5) 0.020(6) 0.024(5)

_geom_special_details            
;
All esds (except the esd in the dihedral angle between two l.s. planes)
are estimated using the full covariance matrix.  The cell esds are taken
into account individually in the estimation of esds in distances, angles
and torsion angles; correlations between esds in cell parameters are only
used when they are defined by crystal symmetry.  An approximate (isotropic)
treatment of cell esds is used for estimating esds involving l.s. planes.
;

loop_
_geom_bond_atom_site_label_1
_geom_bond_atom_site_label_2
_geom_bond_distance
_geom_bond_site_symmetry_2
_geom_bond_publ_flag
Zn1 N4 2.101(6) 2_565 ?
Zn1 N4 2.101(6) 5_444 ?
Zn1 N1 2.118(5) 6_554 ?
Zn1 N1 2.118(5) . ?
Zn1 O1 2.357(5) . ?
Zn1 O1 2.357(5) 6_554 ?
S1 O2 1.436(5) . ?
S1 O3 1.440(5) . ?
S1 O1 1.451(5) . ?
S1 S1 2.167(4) 6 ?
N1 C1 1.337(8) . ?
N1 N2 1.391(8) . ?
N2 C3 1.340(9) . ?
N3 C6 1.347(8) . ?
N3 N4 1.360(9) . ?
N4 C8 1.365(9) . ?
N4 Zn1 2.101(6) 4_455 ?
C1 C2 1.386(10) . ?
C1 C4 1.493(10) . ?
C2 C3 1.401(10) . ?
C2 C7 1.477(9) . ?
C3 C5 1.486(10) . ?
C6 C7 1.395(11) . ?
C6 C9 1.500(13) . ?
C7 C8 1.392(11) . ?
C8 C10 1.508(12) . ?

loop_
_geom_angle_atom_site_label_1
_geom_angle_atom_site_label_2
_geom_angle_atom_site_label_3
_geom_angle
_geom_angle_site_symmetry_1
_geom_angle_site_symmetry_3
_geom_angle_publ_flag
N4 Zn1 N4 91.4(3) 2_565 5_444 ?
N4 Zn1 N1 168.8(3) 2_565 6_554 ?
N4 Zn1 N1 89.3(2) 5_444 6_554 ?
N4 Zn1 N1 89.3(2) 2_565 . ?
N4 Zn1 N1 168.8(3) 5_444 . ?
N1 Zn1 N1 92.1(3) 6_554 . ?
N4 Zn1 O1 100.5(2) 2_565 . ?
N4 Zn1 O1 83.0(2) 5_444 . ?
N1 Zn1 O1 90.6(2) 6_554 . ?
N1 Zn1 O1 86.0(2) . . ?
N4 Zn1 O1 83.0(2) 2_565 6_554 ?
N4 Zn1 O1 100.5(2) 5_444 6_554 ?
N1 Zn1 O1 86.0(2) 6_554 6_554 ?
N1 Zn1 O1 90.6(2) . 6_554 ?
O1 Zn1 O1 175.1(2) . 6_554 ?
O2 S1 O3 114.8(3) . . ?
O2 S1 O1 113.3(3) . . ?
O3 S1 O1 113.7(3) . . ?
O2 S1 S1 105.7(2) . 6 ?
O3 S1 S1 104.5(3) . 6 ?
O1 S1 S1 103.3(2) . 6 ?
S1 O1 Zn1 139.9(3) . . ?
C1 N1 N2 103.9(6) . . ?
C1 N1 Zn1 134.6(5) . . ?
N2 N1 Zn1 118.5(4) . . ?
C3 N2 N1 112.1(6) . . ?
C6 N3 N4 112.6(7) . . ?
N3 N4 C8 105.5(6) . . ?
N3 N4 Zn1 118.2(4) . 4_455 ?
C8 N4 Zn1 136.1(6) . 4_455 ?
N1 C1 C2 112.0(7) . . ?
N1 C1 C4 121.2(7) . . ?
C2 C1 C4 126.8(6) . . ?
C1 C2 C3 105.6(6) . . ?
C1 C2 C7 127.4(7) . . ?
C3 C2 C7 126.4(7) . . ?
N2 C3 C2 106.3(7) . . ?
N2 C3 C5 121.1(7) . . ?
C2 C3 C5 132.6(7) . . ?
N3 C6 C7 105.6(8) . . ?
N3 C6 C9 122.1(7) . . ?
C7 C6 C9 132.3(7) . . ?
C8 C7 C6 107.2(7) . . ?
C8 C7 C2 129.4(8) . . ?
C6 C7 C2 123.2(8) . . ?
N4 C8 C7 109.1(8) . . ?
N4 C8 C10 122.5(7) . . ?
C7 C8 C10 128.4(7) . . ?

loop_
_geom_torsion_atom_site_label_1
_geom_torsion_atom_site_label_2
_geom_torsion_atom_site_label_3
_geom_torsion_atom_site_label_4
_geom_torsion
_geom_torsion_site_symmetry_1
_geom_torsion_site_symmetry_2
_geom_torsion_site_symmetry_3
_geom_torsion_site_symmetry_4
_geom_torsion_publ_flag
O2 S1 O1 Zn1 0.5(5) . . . . ?
O3 S1 O1 Zn1 -133.0(3) . . . . ?
S1 S1 O1 Zn1 114.3(3) 6 . . . ?
N4 Zn1 O1 S1 125.8(4) 2_565 . . . ?
N4 Zn1 O1 S1 -144.2(4) 5_444 . . . ?
N1 Zn1 O1 S1 -54.9(4) 6_554 . . . ?
N1 Zn1 O1 S1 37.2(4) . . . . ?
O1 Zn1 O1 S1 -8.9(3) 6_554 . . . ?
N4 Zn1 N1 C1 -33.8(8) 2_565 . . . ?
N4 Zn1 N1 C1 59.9(16) 5_444 . . . ?
N1 Zn1 N1 C1 157.3(9) 6_554 . . . ?
O1 Zn1 N1 C1 66.8(8) . . . . ?
O1 Zn1 N1 C1 -116.7(8) 6_554 . . . ?
N4 Zn1 N1 N2 123.4(5) 2_565 . . . ?
N4 Zn1 N1 N2 -143.0(11) 5_444 . . . ?
N1 Zn1 N1 N2 -45.6(4) 6_554 . . . ?
O1 Zn1 N1 N2 -136.0(5) . . . . ?
O1 Zn1 N1 N2 40.4(5) 6_554 . . . ?
C1 N1 N2 C3 1.6(8) . . . . ?
Zn1 N1 N2 C3 -161.8(5) . . . . ?
C6 N3 N4 C8 -0.9(8) . . . . ?
C6 N3 N4 Zn1 175.2(5) . . . 4_455 ?
N2 N1 C1 C2 -0.2(9) . . . . ?
Zn1 N1 C1 C2 159.2(6) . . . . ?
N2 N1 C1 C4 178.7(8) . . . . ?
Zn1 N1 C1 C4 -21.9(12) . . . . ?
N1 C1 C2 C3 -1.2(10) . . . . ?
C4 C1 C2 C3 180.0(9) . . . . ?
N1 C1 C2 C7 -172.6(7) . . . . ?
C4 C1 C2 C7 8.6(15) . . . . ?
N1 N2 C3 C2 -2.4(9) . . . . ?
N1 N2 C3 C5 177.7(7) . . . . ?
C1 C2 C3 N2 2.1(9) . . . . ?
C7 C2 C3 N2 173.6(8) . . . . ?
C1 C2 C3 C5 -178.0(9) . . . . ?
C7 C2 C3 C5 -6.5(15) . . . . ?
N4 N3 C6 C7 1.3(9) . . . . ?
N4 N3 C6 C9 -179.6(8) . . . . ?
N3 C6 C7 C8 -1.2(9) . . . . ?
C9 C6 C7 C8 179.9(9) . . . . ?
N3 C6 C7 C2 -176.3(7) . . . . ?
C9 C6 C7 C2 4.8(14) . . . . ?
C1 C2 C7 C8 -78.2(12) . . . . ?
C3 C2 C7 C8 112.1(11) . . . . ?
C1 C2 C7 C6 95.8(11) . . . . ?
C3 C2 C7 C6 -73.9(11) . . . . ?
N3 N4 C8 C7 0.1(8) . . . . ?
Zn1 N4 C8 C7 -174.9(5) 4_455 . . . ?
N3 N4 C8 C10 -179.1(7) . . . . ?
Zn1 N4 C8 C10 5.9(12) 4_455 . . . ?
C6 C7 C8 N4 0.7(9) . . . . ?
C2 C7 C8 N4 175.4(7) . . . . ?
C6 C7 C8 C10 179.8(8) . . . . ?
C2 C7 C8 C10 -5.4(13) . . . . ?

_refine_diff_density_max         0.525
_refine_diff_density_min         -0.322
_refine_diff_density_rms         0.071
#==============================================================================

