####################################################################### 
# 
# This file contains crystal structure data downloaded from the 
# Cambridge Structural Database (CSD) hosted by the Cambridge 
# Crystallographic Data Centre (CCDC).
# 
# Full information about CCDC data access policies and citation 
# guidelines are available at http://www.ccdc.cam.ac.uk/access/V1 
# 
# Audit and citation data items may have been added by the CCDC. 
# Please retain this information to preserve the provenance of 
# this file and to allow appropriate attribution of the data. 
# 
#######################################################################

data_1
_audit_block_doi                 10.5517/ccsvv1h
_database_code_depnum_ccdc_archive 'CCDC 740777'
loop_
_citation_id
_citation_doi
_citation_year
1 10.1002/ejic.200900733 2009
_audit_update_record             
;
2009-07-17 deposited with the CCDC.	2024-07-12 downloaded from the CCDC.
;

_audit_creation_method           SHELXL-97
_chemical_name_systematic        
;
?
;
_chemical_name_common            ?
_chemical_melting_point          ?
_chemical_formula_moiety         '[Zn(2,7-ndc)]'
_chemical_formula_sum            'C12 H6 N0 O4 Zn'
_chemical_formula_weight         279.54

loop_
_atom_type_symbol
_atom_type_description
_atom_type_scat_dispersion_real
_atom_type_scat_dispersion_imag
_atom_type_scat_source
C C 0.0033 0.0016 'International Tables Vol C Tables 4.2.6.8 and 6.1.1.4'
H H 0.0000 0.0000 'International Tables Vol C Tables 4.2.6.8 and 6.1.1.4'
N N 0.0061 0.0033 'International Tables Vol C Tables 4.2.6.8 and 6.1.1.4'
O O 0.0106 0.0060 'International Tables Vol C Tables 4.2.6.8 and 6.1.1.4'
Zn Zn 0.2839 1.4301 'International Tables Vol C Tables 4.2.6.8 and 6.1.1.4'

_symmetry_cell_setting           Monoclinic
_symmetry_space_group_name_H-M   C2/c

loop_
_symmetry_equiv_pos_as_xyz
'x, y, z'
'-x, y, -z+1/2'
'x+1/2, y+1/2, z'
'-x+1/2, y+1/2, -z+1/2'
'-x, -y, -z'
'x, -y, z-1/2'
'-x+1/2, -y+1/2, -z'
'x+1/2, -y+1/2, z-1/2'

_cell_length_a                   18.000(3)
_cell_length_b                   16.177(3)
_cell_length_c                   10.673(2)
_cell_angle_alpha                90.00
_cell_angle_beta                 109.770(3)
_cell_angle_gamma                90.00
_cell_volume                     2924.6(9)
_cell_formula_units_Z            8
_cell_measurement_temperature    203(2)
_cell_measurement_reflns_used    ?
_cell_measurement_theta_min      ?
_cell_measurement_theta_max      ?

_exptl_crystal_description       oval
_exptl_crystal_colour            colorless
_exptl_crystal_size_max          0.60
_exptl_crystal_size_mid          0.15
_exptl_crystal_size_min          0.15
_exptl_crystal_density_meas      ?
_exptl_crystal_density_diffrn    1.270
_exptl_crystal_density_method    'not measured'
_exptl_crystal_F_000             1120
_exptl_absorpt_coefficient_mu    1.677
_exptl_absorpt_correction_type   Empirical
_exptl_absorpt_correction_T_min  0.4327
_exptl_absorpt_correction_T_max  0.7870
_exptl_absorpt_process_details   'Bruker SADABS'

_exptl_special_details           
;
?
;

_diffrn_ambient_temperature      203(2)
_diffrn_radiation_wavelength     0.71073
_diffrn_radiation_type           MoK\a
_diffrn_radiation_source         'fine-focus sealed tube'
_diffrn_radiation_monochromator  graphite
_diffrn_measurement_device_type  'SMART CCD'
_diffrn_measurement_method       'omega scan'
_diffrn_detector_area_resol_mean ?
_diffrn_standards_number         ?
_diffrn_standards_interval_count ?
_diffrn_standards_interval_time  ?
_diffrn_standards_decay_%        ?
_diffrn_reflns_number            7725
_diffrn_reflns_av_R_equivalents  0.0297
_diffrn_reflns_av_sigmaI/netI    0.0383
_diffrn_reflns_limit_h_min       -22
_diffrn_reflns_limit_h_max       20
_diffrn_reflns_limit_k_min       -18
_diffrn_reflns_limit_k_max       19
_diffrn_reflns_limit_l_min       -13
_diffrn_reflns_limit_l_max       12
_diffrn_reflns_theta_min         1.74
_diffrn_reflns_theta_max         25.98
_reflns_number_total             2842
_reflns_number_gt                2313
_reflns_threshold_expression     >2sigma(I)

_computing_data_collection       'Bruker SMART'
_computing_cell_refinement       'Bruker SAINT'
_computing_data_reduction        'Bruker SAINT'
_computing_structure_solution    'SHELXS-97 (Sheldrick, 1990)'
_computing_structure_refinement  'SHELXL-97 (Sheldrick, 1997)'
_computing_molecular_graphics    'Materials Studio'
_computing_publication_material  WORD

_refine_special_details          
;
Refinement of F^2^ against ALL reflections. The weighted R-factor wR and
goodness of fit S are based on F^2^, conventional R-factors R are based
on F, with F set to zero for negative F^2^. The threshold expression of
F^2^ > 2sigma(F^2^) is used only for calculating R-factors(gt) etc. and is
not relevant to the choice of reflections for refinement. R-factors based
on F^2^ are statistically about twice as large as those based on F, and R-
factors based on ALL data will be even larger.
;

_refine_ls_structure_factor_coef Fsqd
_refine_ls_matrix_type           full
_refine_ls_weighting_scheme      calc
_refine_ls_weighting_details     
'calc w=1/[\s^2^(Fo^2^)+(0.1327P)^2^+14.8482P] where P=(Fo^2^+2Fc^2^)/3'
_atom_sites_solution_primary     direct
_atom_sites_solution_secondary   difmap
_atom_sites_solution_hydrogens   geom
_refine_ls_hydrogen_treatment    constrained
_refine_ls_extinction_method     none
_refine_ls_extinction_coef       ?
_refine_ls_number_reflns         2842
_refine_ls_number_parameters     156
_refine_ls_number_restraints     0
_refine_ls_R_factor_all          0.0794
_refine_ls_R_factor_gt           0.0691
_refine_ls_wR_factor_ref         0.2156
_refine_ls_wR_factor_gt          0.2041
_refine_ls_goodness_of_fit_ref   1.127
_refine_ls_restrained_S_all      1.127
_refine_ls_shift/su_max          0.000
_refine_ls_shift/su_mean         0.000

loop_
_atom_site_label
_atom_site_type_symbol
_atom_site_fract_x
_atom_site_fract_y
_atom_site_fract_z
_atom_site_U_iso_or_equiv
_atom_site_adp_type
_atom_site_occupancy
_atom_site_symmetry_multiplicity
_atom_site_calc_flag
_atom_site_refinement_flags
_atom_site_disorder_assembly
_atom_site_disorder_group
Zn1 Zn 0.0000 0.11388(5) 0.7500 0.0158(3) Uani 1 2 d S . .
Zn2 Zn 0.0000 0.0000 1.0000 0.0337(4) Uani 1 2 d S . .
O1 O 0.0763(2) 0.0398(3) 0.8797(5) 0.0334(10) Uani 1 1 d . . .
O2 O 0.0666(3) 0.1876(3) 0.6878(6) 0.0459(13) Uani 1 1 d . . .
O3 O -0.0313(3) 0.1217(4) 1.0076(6) 0.067(2) Uani 1 1 d . . .
O4 O 0.0924(2) 0.0175(3) 1.1993(5) 0.0418(12) Uani 1 1 d . . .
C1 C 0.1122(3) -0.0083(4) 0.8206(7) 0.0317(15) Uani 1 1 d . . .
C2 C 0.1839(3) -0.0524(4) 0.9113(6) 0.0311(13) Uani 1 1 d . . .
C3 C 0.2102(4) -0.0395(4) 1.0533(7) 0.0397(16) Uani 1 1 d . . .
H3 H 0.1847 -0.0001 1.0892 0.048 Uiso 1 1 calc R . .
C4 C 0.2704(4) -0.0828(5) 1.1340(7) 0.0495(19) Uani 1 1 d . . .
H4 H 0.2861 -0.0741 1.2264 0.059 Uiso 1 1 calc R . .
C5 C 0.3113(4) -0.1417(5) 1.0829(7) 0.0434(17) Uani 1 1 d . . .
C6 C 0.2892(3) -0.1528(4) 0.9449(6) 0.0310(13) Uani 1 1 d . . .
C7 C 0.2234(4) -0.1069(4) 0.8605(7) 0.0328(14) Uani 1 1 d . . .
H7 H 0.2073 -0.1146 0.7678 0.039 Uiso 1 1 calc R . .
C8 C 0.3306(4) -0.2111(4) 0.8943(7) 0.0337(14) Uani 1 1 d . . .
H8 H 0.3169 -0.2178 0.8018 0.040 Uiso 1 1 calc R . .
C9 C -0.0667(4) 0.1787(4) 0.9271(8) 0.0412(17) Uani 1 1 d . . .
C10 C -0.1106(4) 0.2426(4) 0.9770(7) 0.0427(17) Uani 1 1 d . . .
C11 C -0.0929(5) 0.2490(5) 1.1160(8) 0.063(3) Uani 1 1 d . . .
H11 H -0.0557 0.2128 1.1729 0.076 Uiso 1 1 calc R . .
C12 C -0.1288(5) 0.3069(5) 1.1693(8) 0.063(3) Uani 1 1 d . . .
H12 H -0.1141 0.3128 1.2621 0.076 Uiso 1 1 calc R . .

loop_
_atom_site_aniso_label
_atom_site_aniso_U_11
_atom_site_aniso_U_22
_atom_site_aniso_U_33
_atom_site_aniso_U_23
_atom_site_aniso_U_13
_atom_site_aniso_U_12
Zn1 0.0192(4) 0.0122(4) 0.0195(5) 0.000 0.0111(3) 0.000
Zn2 0.0332(6) 0.0337(6) 0.0367(6) 0.0023(4) 0.0152(5) 0.0040(4)
O1 0.0125(18) 0.026(2) 0.064(3) 0.0135(19) 0.0153(18) 0.0082(15)
O2 0.035(2) 0.037(3) 0.075(4) 0.016(2) 0.031(2) -0.003(2)
O3 0.053(3) 0.062(4) 0.063(4) -0.032(3) -0.011(3) 0.042(3)
O4 0.023(2) 0.057(3) 0.048(3) -0.032(2) 0.015(2) -0.016(2)
C1 0.017(3) 0.023(3) 0.060(5) 0.019(3) 0.019(3) 0.006(2)
C2 0.022(3) 0.035(3) 0.043(3) 0.017(3) 0.018(3) 0.012(2)
C3 0.045(4) 0.039(4) 0.046(4) 0.003(3) 0.030(3) 0.024(3)
C4 0.057(4) 0.057(5) 0.037(4) -0.008(3) 0.019(3) 0.026(4)
C5 0.034(3) 0.046(4) 0.046(4) -0.010(3) 0.008(3) 0.028(3)
C6 0.022(3) 0.035(3) 0.035(3) -0.005(3) 0.009(2) 0.009(2)
C7 0.027(3) 0.039(4) 0.035(3) 0.007(3) 0.015(3) 0.009(2)
C8 0.031(3) 0.034(3) 0.039(3) -0.011(3) 0.016(3) 0.009(2)
C9 0.022(3) 0.041(4) 0.057(4) -0.031(3) 0.008(3) 0.005(3)
C10 0.026(3) 0.048(4) 0.046(4) -0.021(3) 0.002(3) 0.020(3)
C11 0.050(4) 0.062(5) 0.053(5) -0.022(4) -0.013(4) 0.040(4)
C12 0.072(5) 0.065(5) 0.037(4) -0.017(4) -0.002(4) 0.046(4)

_geom_special_details            
;
All esds (except the esd in the dihedral angle between two l.s. planes)
are estimated using the full covariance matrix. The cell esds are taken
into account individually in the estimation of esds in distances, angles
and torsion angles; correlations between esds in cell parameters are only
used when they are defined by crystal symmetry. An approximate (isotropic)
treatment of cell esds is used for estimating esds involving l.s. planes.
;

loop_
_geom_bond_atom_site_label_1
_geom_bond_atom_site_label_2
_geom_bond_distance
_geom_bond_site_symmetry_2
_geom_bond_publ_flag
Zn1 O2 1.960(4) . ?
Zn1 O2 1.960(4) 2_556 ?
Zn1 O1 1.988(4) . ?
Zn1 O1 1.988(4) 2_556 ?
Zn2 O3 2.058(5) . ?
Zn2 O3 2.058(5) 5_557 ?
Zn2 O4 2.232(5) 5_557 ?
Zn2 O4 2.232(5) . ?
Zn2 O1 2.268(4) 5_557 ?
Zn2 O1 2.268(4) . ?
O1 C1 1.302(8) . ?
O2 C9 1.236(9) 2_556 ?
O3 C9 1.273(10) . ?
O4 C1 1.230(8) 6_556 ?
C1 O4 1.230(8) 6 ?
C1 C2 1.506(8) . ?
C2 C7 1.356(8) . ?
C2 C3 1.442(9) . ?
C3 C4 1.332(10) . ?
C4 C5 1.422(9) . ?
C5 C6 1.401(9) . ?
C5 C12 1.425(9) 3_545 ?
C6 C8 1.418(8) . ?
C6 C7 1.429(8) . ?
C8 C10 1.351(9) 3_545 ?
C9 O2 1.236(9) 2_556 ?
C9 C10 1.504(8) . ?
C10 C8 1.351(9) 3_455 ?
C10 C11 1.412(11) . ?
C11 C12 1.367(10) . ?
C12 C5 1.425(9) 3_455 ?

loop_
_geom_angle_atom_site_label_1
_geom_angle_atom_site_label_2
_geom_angle_atom_site_label_3
_geom_angle
_geom_angle_site_symmetry_1
_geom_angle_site_symmetry_3
_geom_angle_publ_flag
O2 Zn1 O2 105.0(3) . 2_556 ?
O2 Zn1 O1 104.16(18) . . ?
O2 Zn1 O1 119.3(2) 2_556 . ?
O2 Zn1 O1 119.3(2) . 2_556 ?
O2 Zn1 O1 104.16(18) 2_556 2_556 ?
O1 Zn1 O1 105.9(3) . 2_556 ?
O3 Zn2 O3 179.999(1) . 5_557 ?
O3 Zn2 O4 91.9(2) . 5_557 ?
O3 Zn2 O4 88.1(2) 5_557 5_557 ?
O3 Zn2 O4 88.1(2) . . ?
O3 Zn2 O4 91.9(2) 5_557 . ?
O4 Zn2 O4 180.0(3) 5_557 . ?
O3 Zn2 O1 91.3(2) . 5_557 ?
O3 Zn2 O1 88.7(2) 5_557 5_557 ?
O4 Zn2 O1 96.00(16) 5_557 5_557 ?
O4 Zn2 O1 84.00(16) . 5_557 ?
O3 Zn2 O1 88.7(2) . . ?
O3 Zn2 O1 91.3(2) 5_557 . ?
O4 Zn2 O1 84.00(16) 5_557 . ?
O4 Zn2 O1 96.00(16) . . ?
O1 Zn2 O1 180.00(16) 5_557 . ?
C1 O1 Zn1 111.2(4) . . ?
C1 O1 Zn2 126.7(3) . . ?
Zn1 O1 Zn2 99.02(14) . . ?
C9 O2 Zn1 118.2(5) 2_556 . ?
C9 O3 Zn2 138.3(5) . . ?
C1 O4 Zn2 147.6(4) 6_556 . ?
O4 C1 O1 124.6(5) 6 . ?
O4 C1 C2 119.9(5) 6 . ?
O1 C1 C2 115.5(6) . . ?
C7 C2 C3 119.0(5) . . ?
C7 C2 C1 120.2(6) . . ?
C3 C2 C1 120.8(5) . . ?
C4 C3 C2 120.7(5) . . ?
C3 C4 C5 121.2(7) . . ?
C6 C5 C4 119.3(6) . . ?
C6 C5 C12 119.3(6) . 3_545 ?
C4 C5 C12 121.3(7) . 3_545 ?
C5 C6 C8 119.1(5) . . ?
C5 C6 C7 118.5(5) . . ?
C8 C6 C7 122.4(6) . . ?
C2 C7 C6 121.3(6) . . ?
C10 C8 C6 121.1(6) 3_545 . ?
O2 C9 O3 125.8(6) 2_556 . ?
O2 C9 C10 116.6(7) 2_556 . ?
O3 C9 C10 117.5(7) . . ?
C8 C10 C11 119.7(6) 3_455 . ?
C8 C10 C9 122.6(6) 3_455 . ?
C11 C10 C9 117.6(6) . . ?
C12 C11 C10 121.1(7) . . ?
C11 C12 C5 119.4(7) . 3_455 ?

_diffrn_measured_fraction_theta_max 0.992
_diffrn_reflns_theta_full        25.98
_diffrn_measured_fraction_theta_full 0.992
_refine_diff_density_max         1.504
_refine_diff_density_min         -1.854
_refine_diff_density_rms         0.183

# SQUEEZE RESULTS (APPEND TO CIF)
loop_
_platon_squeeze_void_nr
_platon_squeeze_void_average_x
_platon_squeeze_void_average_y
_platon_squeeze_void_average_z
_platon_squeeze_void_volume
_platon_squeeze_void_count_electrons
1 0.413 0.039 -0.043 1150.7 272.5
_platon_squeeze_details          
; ?
;

