####################################################################### 
# 
# This file contains crystal structure data downloaded from the 
# Cambridge Structural Database (CSD) hosted by the Cambridge 
# Crystallographic Data Centre (CCDC).
# 
# Full information about CCDC data access policies and citation 
# guidelines are available at http://www.ccdc.cam.ac.uk/access/V1 
# 
# Audit and citation data items may have been added by the CCDC. 
# Please retain this information to preserve the provenance of 
# this file and to allow appropriate attribution of the data. 
# 
#######################################################################

data_vnv165q(SQZ)
_audit_block_doi                 10.5517/ccvdtmn
_database_code_depnum_ccdc_archive 'CCDC 786892'
loop_
_citation_id
_citation_doi
_citation_year
1 10.1002/chem.201002542 2010
_audit_update_record             
;
2010-07-28 deposited with the CCDC.	2024-07-12 downloaded from the CCDC.
;
#TrackingRef 'MORF-3.cif'


_audit_creation_method           SHELXL-97
_chemical_name_systematic        
;
?
;
_chemical_name_common            ?
_chemical_melting_point          ?
_chemical_formula_moiety         ?
_chemical_formula_sum            'C140 H250 N48 O128 S6 Zn3'
_chemical_formula_weight         5042.35

loop_
_atom_type_symbol
_atom_type_description
_atom_type_scat_dispersion_real
_atom_type_scat_dispersion_imag
_atom_type_scat_source
C C 0.0033 0.0016 'International Tables Vol C Tables 4.2.6.8 and 6.1.1.4'
H H 0.0000 0.0000 'International Tables Vol C Tables 4.2.6.8 and 6.1.1.4'
N N 0.0061 0.0033 'International Tables Vol C Tables 4.2.6.8 and 6.1.1.4'
O O 0.0106 0.0060 'International Tables Vol C Tables 4.2.6.8 and 6.1.1.4'
S S 0.1246 0.1234 'International Tables Vol C Tables 4.2.6.8 and 6.1.1.4'
Zn Zn 0.2839 1.4301 'International Tables Vol C Tables 4.2.6.8 and 6.1.1.4'

_symmetry_cell_setting           orthorhombic
_symmetry_space_group_name_H-M   Cmc2(1)

loop_
_symmetry_equiv_pos_as_xyz
'x, y, z'
'-x, -y, z+1/2'
'x, -y, z+1/2'
'-x, y, z'
'x+1/2, y+1/2, z'
'-x+1/2, -y+1/2, z+1/2'
'x+1/2, -y+1/2, z+1/2'
'-x+1/2, y+1/2, z'

_cell_length_a                   35.882(6)
_cell_length_b                   24.607(4)
_cell_length_c                   21.956(4)
_cell_angle_alpha                90.00
_cell_angle_beta                 90.00
_cell_angle_gamma                90.00
_cell_volume                     19386(5)
_cell_formula_units_Z            4
_cell_measurement_temperature    173(2)
_cell_measurement_reflns_used    ?
_cell_measurement_theta_min      ?
_cell_measurement_theta_max      ?

_exptl_crystal_description       prism
_exptl_crystal_colour            colorless
_exptl_crystal_size_max          0.38
_exptl_crystal_size_mid          0.14
_exptl_crystal_size_min          0.12
_exptl_crystal_density_meas      'not measured'
_exptl_crystal_density_diffrn    1.728
_exptl_crystal_density_method    'not measured'
_exptl_crystal_F_000             10544
_exptl_absorpt_coefficient_mu    0.570
_exptl_absorpt_correction_type   empirical
_exptl_absorpt_correction_T_min  0.4312
_exptl_absorpt_correction_T_max  0.7448
_exptl_absorpt_process_details   sadabs

_exptl_special_details           
;
?
;

_diffrn_ambient_temperature      173(2)
_diffrn_radiation_wavelength     0.71073
_diffrn_radiation_type           MoK\a
_diffrn_radiation_source         'fine-focus sealed tube'
_diffrn_radiation_monochromator  graphite
_diffrn_measurement_device_type  ?
_diffrn_measurement_method       ?
_diffrn_detector_area_resol_mean ?
_diffrn_reflns_number            61667
_diffrn_reflns_av_R_equivalents  0.1675
_diffrn_reflns_av_sigmaI/netI    0.1507
_diffrn_reflns_limit_h_min       -35
_diffrn_reflns_limit_h_max       35
_diffrn_reflns_limit_k_min       -24
_diffrn_reflns_limit_k_max       24
_diffrn_reflns_limit_l_min       -21
_diffrn_reflns_limit_l_max       21
_diffrn_reflns_theta_min         2.17
_diffrn_reflns_theta_max         20.81
_reflns_number_total             10311
_reflns_number_gt                5434
_reflns_threshold_expression     >2sigma(I)

_computing_data_collection       'Bruker SMART'
_computing_cell_refinement       'Bruker SAINT'
_computing_data_reduction        'Bruker SHELXTL XPREP'
_computing_structure_solution    'SHELXS-97 (Sheldrick, 1997)'
_computing_structure_refinement  'SHELXL-97 (Sheldrick, 1997)'
_computing_molecular_graphics    'Bruker SHELXTL XP'
_computing_publication_material  'Bruker SHELXTL XCIF'

loop_
_platon_squeeze_void_nr
_platon_squeeze_void_average_x
_platon_squeeze_void_average_y
_platon_squeeze_void_average_z
_platon_squeeze_void_volume
_platon_squeeze_void_count_electrons
_platon_squeeze_void_content
1 0.000 0.500 0.002 5366 2936 ' '
2 0.500 0.000 -0.015 5366 2936 ' '
_platon_squeeze_details          
; ''
The unit cell contains 178 molecules of nitromethane which have been treated as
a diffuse contribution to the overall scattering without specific atom
positions by SQUEEZE/PLATON.

Refinement of F^2^ against ALL reflections. The weighted R-factor wR and
goodness of fit S are based on F^2^, conventional R-factors R are based
on F, with F set to zero for negative F^2^. The threshold expression of
F^2^ > 2sigma(F^2^) is used only for calculating R-factors(gt) etc. and is
not relevant to the choice of reflections for refinement. R-factors based
on F^2^ are statistically about twice as large as those based on F, and R-
factors based on ALL data will be even larger.

Due to the poor quality of the diffraction data and the need to employ SQUEEZE
to obtain a successful refinement
a number of geometric restraints were required.
SO3 groups were restrained using DFIX for the C-S
distance and SADI for the O...O
distances. DFIX and SIMU restraints were used
to achieve a sensible model for the
polyether chain of the crown ether. Ten atoms required an ISOR restraint in the
final cycles of refinement.
;

_refine_ls_structure_factor_coef Fsqd
_refine_ls_matrix_type           full
_refine_ls_weighting_scheme      calc
_refine_ls_weighting_details     
'calc w=1/[\s^2^(Fo^2^)+(0.1181P)^2^+0.0000P] where P=(Fo^2^+2Fc^2^)/3'
_atom_sites_solution_primary     direct
_atom_sites_solution_secondary   difmap
_atom_sites_solution_hydrogens   geom
_refine_ls_hydrogen_treatment    mixed
_refine_ls_extinction_method     none
_refine_ls_extinction_coef       ?
_refine_ls_abs_structure_details 'Flack H D (1983), Acta Cryst. A39, 876-881'
_refine_ls_abs_structure_Flack   0.41(3)
_refine_ls_number_reflns         10311
_refine_ls_number_parameters     694
_refine_ls_number_restraints     506
_refine_ls_R_factor_all          0.1376
_refine_ls_R_factor_gt           0.0853
_refine_ls_wR_factor_ref         0.2304
_refine_ls_wR_factor_gt          0.2037
_refine_ls_goodness_of_fit_ref   0.962
_refine_ls_restrained_S_all      0.959
_refine_ls_shift/su_max          0.026
_refine_ls_shift/su_mean         0.002

loop_
_atom_site_label
_atom_site_type_symbol
_atom_site_fract_x
_atom_site_fract_y
_atom_site_fract_z
_atom_site_U_iso_or_equiv
_atom_site_adp_type
_atom_site_occupancy
_atom_site_symmetry_multiplicity
_atom_site_calc_flag
_atom_site_refinement_flags
_atom_site_disorder_assembly
_atom_site_disorder_group
Zn1 Zn 1.5000 0.52140(6) 1.7431(2) 0.0333(5) Uani 1 2 d SU . .
Zn2 Zn 1.57329(3) 0.50051(13) 1.9950(3) 0.0623(5) Uani 1 1 d U . .
S1 S 1.5000 0.5054(3) 1.9063(4) 0.0435(17) Uani 1 2 d SU . .
S2 S 1.5000 0.4916(2) 2.0846(3) 0.0216(13) Uani 1 2 d SU . .
O1 O 1.5000 0.5231(5) 1.8393(6) 0.031(3) Uani 1 2 d SU . .
O2 O 1.5363(3) 0.5315(5) 1.9347(5) 0.076(3) Uani 1 1 d U . .
O3 O 1.5000 0.4467(6) 1.9098(6) 0.049(3) Uani 1 2 d SU . .
O4 O 1.5316(2) 0.4702(3) 2.0550(4) 0.031(2) Uani 1 1 d U . .
O5 O 1.5000 0.5474(4) 2.0783(5) 0.019(3) Uani 1 2 d SU . .
O6 O 1.5000 0.4733(5) 2.1452(6) 0.035(3) Uani 1 2 d SU . .
O1M O 1.6152(3) 0.4661(6) 2.0551(5) 0.091(5) Uani 1 1 d D . .
H1ME H 1.6289 0.4465 2.0322 0.109 Uiso 1 1 d R . .
C1M C 1.6439(6) 0.4984(10) 2.0822(13) 0.189(13) Uani 1 1 d D . .
H1MA H 1.6605 0.4750 2.1061 0.283 Uiso 1 1 calc R . .
H1MB H 1.6326 0.5257 2.1090 0.283 Uiso 1 1 calc R . .
H1MC H 1.6582 0.5166 2.0502 0.283 Uiso 1 1 calc R . .
O2M O 1.6168(3) 0.5282(6) 1.9450(6) 0.107(5) Uani 1 1 d D . .
H2MD H 1.6070 0.5520 1.9219 0.128 Uiso 1 1 d R . .
C2M C 1.6326(8) 0.5035(11) 1.8920(8) 0.229(16) Uani 1 1 d D . .
H2MA H 1.6503 0.5288 1.8730 0.344 Uiso 1 1 calc R . .
H2MB H 1.6128 0.4947 1.8630 0.344 Uiso 1 1 calc R . .
H2MC H 1.6457 0.4702 1.9037 0.344 Uiso 1 1 calc R . .
O1W O 1.5713(3) 0.4243(5) 1.9427(5) 0.091(4) Uani 1 1 d . . .
H1WA H 1.5452 0.4176 1.9315 0.136 Uiso 1 1 d R . .
H1WC H 1.5804 0.3944 1.9681 0.136 Uiso 1 1 d R . .
O2W O 1.5710(2) 0.5675(4) 2.0438(5) 0.048(3) Uani 1 1 d U . .
H2WA H 1.5959 0.5841 2.0441 0.071 Uiso 1 1 d R . .
H2WC H 1.5637 0.5583 2.0856 0.071 Uiso 1 1 d R . .
N1 N 1.5429(2) 0.5822(3) 1.7477(8) 0.046(2) Uani 1 1 d U . .
C1 C 1.5566(5) 0.6050(8) 1.7950(8) 0.072(5) Uani 1 1 d . . .
H1A H 1.5449 0.5971 1.8328 0.086 Uiso 1 1 calc R . .
C2 C 1.5857(6) 0.6387(9) 1.7966(8) 0.117(8) Uani 1 1 d . . .
H2A H 1.5928 0.6550 1.8341 0.140 Uiso 1 1 calc R . .
C3 C 1.6063(3) 0.6504(4) 1.7435(10) 0.054(3) Uani 1 1 d U . .
C4 C 1.5930(6) 0.6304(7) 1.6893(9) 0.098(7) Uani 1 1 d . . .
H4A H 1.6040 0.6410 1.6517 0.118 Uiso 1 1 calc R . .
C5 C 1.5634(6) 0.5945(8) 1.6904(10) 0.104(7) Uani 1 1 d . . .
H5A H 1.5560 0.5772 1.6537 0.125 Uiso 1 1 calc R . .
C6 C 1.6414(3) 0.6842(5) 1.7401(10) 0.066(4) Uani 1 1 d . . .
C7 C 1.6570(4) 0.7057(6) 1.8004(6) 0.048(4) Uani 1 1 d . . .
H7A H 1.6448 0.6995 1.8383 0.057 Uiso 1 1 calc R . .
C8 C 1.6894(5) 0.7342(8) 1.7964(11) 0.110(8) Uani 1 1 d . . .
H8A H 1.7008 0.7462 1.8330 0.132 Uiso 1 1 calc R . .
N2 N 1.7054(3) 0.7457(4) 1.7458(10) 0.081(3) Uani 1 1 d . . .
C9 C 1.6878(7) 0.7268(9) 1.6885(11) 0.103(7) Uani 1 1 d . . .
H9A H 1.6986 0.7347 1.6500 0.124 Uiso 1 1 calc R . .
C10 C 1.6557(7) 0.6980(9) 1.6928(13) 0.156(12) Uani 1 1 d . . .
H10A H 1.6436 0.6879 1.6559 0.188 Uiso 1 1 calc R . .
C11 C 1.7399(3) 0.7748(5) 1.7401(9) 0.066(3) Uani 1 1 d . . .
H11A H 1.7430 0.7991 1.7757 0.079 Uiso 1 1 calc R . .
H11B H 1.7391 0.7977 1.7030 0.079 Uiso 1 1 calc R . .
C12 C 1.7744(4) 0.7347(5) 1.7361(9) 0.086(5) Uani 1 1 d . . .
H12A H 1.7740 0.7087 1.7704 0.103 Uiso 1 1 calc R . .
H12B H 1.7738 0.7140 1.6974 0.103 Uiso 1 1 calc R . .
C13 C 1.8100(3) 0.7709(5) 1.7390(10) 0.059(3) Uani 1 1 d . . .
C14 C 1.8298(5) 0.7830(7) 1.7980(8) 0.070(5) Uani 1 1 d . . .
H14A H 1.8217 0.7679 1.8356 0.084 Uiso 1 1 calc R . .
C15 C 1.8584(5) 0.8151(7) 1.7947(10) 0.085(6) Uani 1 1 d U . .
H15A H 1.8717 0.8211 1.8315 0.102 Uiso 1 1 calc R . .
C16 C 1.8711(3) 0.8406(4) 1.7456(10) 0.051(3) Uani 1 1 d U . .
C17 C 1.8540(3) 0.8247(6) 1.6903(6) 0.052(4) Uani 1 1 d . . .
H17A H 1.8634 0.8381 1.6528 0.062 Uiso 1 1 calc R . .
C18 C 1.8234(5) 0.7898(7) 1.6904(9) 0.072(6) Uani 1 1 d . . .
H18A H 1.8124 0.7798 1.6526 0.087 Uiso 1 1 calc R . .
C19 C 1.9008(3) 0.8837(5) 1.7473(9) 0.059(4) Uani 1 1 d . . .
C20 C 1.9265(5) 0.8826(7) 1.7861(10) 0.113(7) Uani 1 1 d . . .
H20A H 1.9275 0.8542 1.8153 0.135 Uiso 1 1 calc R . .
C21 C 1.9538(3) 0.9237(6) 1.7861(6) 0.063(4) Uani 1 1 d . . .
H21A H 1.9702 0.9251 1.8200 0.075 Uiso 1 1 calc R . .
N3 N 1.95829(19) 0.9602(3) 1.7428(7) 0.0368(19) Uani 1 1 d U . .
C22 C 1.9328(5) 0.9550(7) 1.6976(7) 0.078(5) Uani 1 1 d . . .
H22A H 1.9335 0.9796 1.6642 0.094 Uiso 1 1 calc R . .
C23 C 1.9061(5) 0.9157(7) 1.6988(8) 0.098(7) Uani 1 1 d . . .
H23A H 1.8908 0.9108 1.6639 0.118 Uiso 1 1 calc R . .
S3 S 1.63533(17) 0.3249(3) 2.0068(4) 0.111(2) Uani 1 1 d DU . .
S4 S 1.63077(16) 0.3171(3) 1.4804(4) 0.113(2) Uani 1 1 d DU . .
O7 O 1.7533(3) 0.1960(3) 1.8912(6) 0.123(4) Uani 1 1 d DU . .
O8 O 1.7823(3) 0.1268(4) 1.7944(3) 0.160(5) Uani 1 1 d DU . .
O9 O 1.7471(3) 0.1313(4) 1.6675(3) 0.131(4) Uani 1 1 d DU . .
O10 O 1.7478(4) 0.2250(4) 1.5827(6) 0.142(5) Uani 1 1 d DU . .
O11 O 1.7784(3) 0.3204(4) 1.5961(6) 0.117(4) Uani 1 1 d DU . .
O12 O 1.8254(2) 0.3591(7) 1.6953(3) 0.195(6) Uani 1 1 d DU . .
O13 O 1.8155(3) 0.3597(7) 1.8209(4) 0.203(7) Uani 1 1 d DU . .
O14 O 1.7684(3) 0.2982(4) 1.8984(6) 0.133(5) Uani 1 1 d DU . .
O15 O 1.6514(4) 0.3707(6) 2.0358(9) 0.227(11) Uani 1 1 d D . .
O16 O 1.6199(5) 0.2845(8) 2.0447(7) 0.217(10) Uani 1 1 d DU . .
O17 O 1.6105(3) 0.3403(4) 1.9558(5) 0.073(3) Uani 1 1 d DU . .
O18 O 1.6039(3) 0.3273(5) 1.5267(6) 0.103(4) Uani 1 1 d DU . .
O19 O 1.6320(4) 0.3574(5) 1.4362(6) 0.136(5) Uani 1 1 d DU . .
O20 O 1.6263(4) 0.2631(5) 1.4560(7) 0.151(6) Uani 1 1 d DU . .
C24 C 1.7341(3) 0.2799(4) 1.9280(6) 0.100(5) Uani 1 1 d GDU . .
C25 C 1.7066(4) 0.3127(3) 1.9531(6) 0.131(6) Uani 1 1 d GU . .
H25A H 1.7103 0.3509 1.9559 0.158 Uiso 1 1 calc R . .
C26 C 1.6736(3) 0.2898(6) 1.9742(5) 0.102(6) Uani 1 1 d GDU . .
C27 C 1.6681(2) 0.2339(6) 1.9701(5) 0.131(6) Uani 1 1 d GU . .
H27A H 1.6456 0.2182 1.9844 0.157 Uiso 1 1 calc R . .
C28 C 1.6957(3) 0.2011(4) 1.9449(5) 0.112(5) Uani 1 1 d GU . .
H28A H 1.6919 0.1630 1.9421 0.135 Uiso 1 1 calc R . .
C29 C 1.7286(3) 0.2241(4) 1.9239(5) 0.092(5) Uani 1 1 d GDU . .
C30 C 1.7509(3) 0.1385(3) 1.8891(5) 0.104(5) Uani 1 1 d DU . .
H30A H 1.7282 0.1274 1.8665 0.124 Uiso 1 1 calc R . .
H30B H 1.7492 0.1237 1.9309 0.124 Uiso 1 1 calc R . .
C31 C 1.7848(3) 0.1163(5) 1.8579(3) 0.151(6) Uani 1 1 d DU . .
H31A H 1.8075 0.1337 1.8747 0.182 Uiso 1 1 calc R . .
H31B H 1.7867 0.0767 1.8650 0.182 Uiso 1 1 calc R . .
C32 C 1.7606(4) 0.0882(5) 1.7620(3) 0.155(7) Uani 1 1 d DU . .
H32A H 1.7337 0.0959 1.7680 0.186 Uiso 1 1 calc R . .
H32B H 1.7658 0.0512 1.7775 0.186 Uiso 1 1 calc R . .
C33 C 1.7700(4) 0.0915(5) 1.6956(3) 0.155(7) Uani 1 1 d DU . .
H33A H 1.7966 0.1013 1.6906 0.185 Uiso 1 1 calc R . .
H33B H 1.7659 0.0557 1.6761 0.185 Uiso 1 1 calc R . .
C34 C 1.7482(5) 0.1300(4) 1.6028(3) 0.139(6) Uani 1 1 d DU . .
H34A H 1.7375 0.0953 1.5879 0.167 Uiso 1 1 calc R . .
H34B H 1.7743 0.1324 1.5885 0.167 Uiso 1 1 calc R . .
C35 C 1.7261(3) 0.1769(3) 1.5782(4) 0.122(6) Uani 1 1 d DU . .
H35A H 1.7195 0.1700 1.5352 0.147 Uiso 1 1 calc R . .
H35B H 1.7028 0.1811 1.6018 0.147 Uiso 1 1 calc R . .
C36 C 1.7265(2) 0.2720(3) 1.5585(5) 0.070(4) Uani 1 1 d GDU . .
C37 C 1.6919(2) 0.2732(3) 1.5300(5) 0.077(4) Uani 1 1 d GU . .
H37A H 1.6790 0.2403 1.5219 0.092 Uiso 1 1 calc R . .
C38 C 1.6762(2) 0.3227(5) 1.5132(5) 0.080(4) Uani 1 1 d GDU . .
C39 C 1.6951(3) 0.3709(3) 1.5250(5) 0.096(5) Uani 1 1 d GU . .
H39A H 1.6843 0.4046 1.5136 0.115 Uiso 1 1 calc R . .
C40 C 1.7296(3) 0.3696(3) 1.5536(5) 0.106(5) Uani 1 1 d GU . .
H40A H 1.7425 0.4026 1.5616 0.128 Uiso 1 1 calc R . .
C41 C 1.7453(2) 0.3202(4) 1.5703(5) 0.102(5) Uani 1 1 d GDU . .
C42 C 1.8012(3) 0.3677(4) 1.5948(5) 0.119(6) Uani 1 1 d DU . .
H42A H 1.7871 0.3991 1.6111 0.142 Uiso 1 1 calc R . .
H42B H 1.8084 0.3760 1.5523 0.142 Uiso 1 1 calc R . .
C43 C 1.8353(2) 0.3580(7) 1.6327(3) 0.170(7) Uani 1 1 d DU . .
H43A H 1.8463 0.3223 1.6223 0.204 Uiso 1 1 calc R . .
H43B H 1.8541 0.3865 1.6242 0.204 Uiso 1 1 calc R . .
C44 C 1.8563(3) 0.3580(9) 1.7355(3) 0.276(10) Uani 1 1 d DU . .
H44A H 1.8779 0.3761 1.7163 0.331 Uiso 1 1 calc R . .
H44B H 1.8633 0.3199 1.7444 0.331 Uiso 1 1 calc R . .
C45 C 1.8462(5) 0.3866(8) 1.7934(3) 0.252(10) Uani 1 1 d DU . .
H45A H 1.8677 0.3866 1.8216 0.303 Uiso 1 1 calc R . .
H45B H 1.8395 0.4249 1.7846 0.303 Uiso 1 1 calc R . .
C46 C 1.8116(3) 0.3704(7) 1.8841(3) 0.190(8) Uani 1 1 d DU . .
H46A H 1.8161 0.4095 1.8922 0.228 Uiso 1 1 calc R . .
H46B H 1.8302 0.3491 1.9074 0.228 Uiso 1 1 calc R . .
C47 C 1.7730(3) 0.3552(4) 1.9040(5) 0.177(8) Uani 1 1 d DU . .
H47A H 1.7691 0.3664 1.9469 0.213 Uiso 1 1 calc R . .
H47B H 1.7544 0.3743 1.8784 0.213 Uiso 1 1 calc R . .

loop_
_atom_site_aniso_label
_atom_site_aniso_U_11
_atom_site_aniso_U_22
_atom_site_aniso_U_33
_atom_site_aniso_U_23
_atom_site_aniso_U_13
_atom_site_aniso_U_12
Zn1 0.0205(8) 0.0730(12) 0.0065(8) 0.0125(17) 0.000 0.000
Zn2 0.0290(6) 0.1401(13) 0.0178(6) -0.0067(6) -0.0004(12) 0.0101(16)
S1 0.036(3) 0.070(5) 0.025(3) 0.014(3) 0.000 0.000
S2 0.027(3) 0.022(3) 0.016(3) -0.011(2) 0.000 0.000
O1 0.033(5) 0.042(5) 0.019(4) -0.001(4) 0.000 0.000
O2 0.068(7) 0.122(7) 0.039(5) 0.013(5) -0.034(5) -0.020(5)
O3 0.052(7) 0.063(6) 0.031(6) 0.022(5) 0.000 0.000
O4 0.030(4) 0.029(4) 0.033(4) -0.012(3) -0.001(3) 0.015(3)
O5 0.024(4) 0.012(4) 0.020(4) -0.009(3) 0.000 0.000
O6 0.027(6) 0.060(7) 0.019(5) 0.003(5) 0.000 0.000
O1M 0.058(8) 0.184(14) 0.031(7) 0.015(8) 0.007(6) 0.037(8)
C1M 0.18(3) 0.19(3) 0.20(3) -0.03(2) -0.06(2) 0.02(2)
O2M 0.066(9) 0.188(14) 0.067(9) -0.020(8) 0.047(6) -0.005(8)
C2M 0.14(2) 0.44(5) 0.11(2) 0.07(2) 0.060(18) 0.03(3)
O1W 0.044(7) 0.177(12) 0.052(7) -0.006(7) 0.001(5) 0.059(7)
O2W 0.048(5) 0.060(4) 0.035(4) -0.004(4) 0.009(3) -0.002(4)
N1 0.048(5) 0.070(6) 0.021(5) 0.005(8) -0.011(8) 0.000(4)
C1 0.055(11) 0.143(17) 0.018(10) 0.006(11) 0.024(9) -0.021(11)
C2 0.101(15) 0.21(2) 0.035(12) 0.041(13) -0.001(11) -0.088(16)
C3 0.055(5) 0.063(5) 0.044(4) 0.003(5) 0.003(5) -0.005(4)
C4 0.120(16) 0.092(14) 0.083(16) -0.001(12) 0.055(13) -0.075(12)
C5 0.136(19) 0.107(16) 0.070(15) 0.016(12) 0.023(13) -0.035(14)
C6 0.073(9) 0.082(9) 0.042(8) -0.007(13) -0.031(13) -0.045(7)
C