####################################################################### 
# 
# This file contains crystal structure data downloaded from the 
# Cambridge Structural Database (CSD) hosted by the Cambridge 
# Crystallographic Data Centre (CCDC).
# 
# Full information about CCDC data access policies and citation 
# guidelines are available at http://www.ccdc.cam.ac.uk/access/V1 
# 
# Audit and citation data items may have been added by the CCDC. 
# Please retain this information to preserve the provenance of 
# this file and to allow appropriate attribution of the data. 
# 
#######################################################################

data_complex1
_audit_block_doi                 10.5517/ccttrgt
_database_code_depnum_ccdc_archive 'CCDC 769527'
loop_
_citation_id
_citation_doi
_citation_year
1 10.1002/chem.201000926 2010
_audit_update_record             
;
2010-03-12 deposited with the CCDC.	2024-07-12 downloaded from the CCDC.
;
## Code SCABDC #7062

_refine_special_details          
;
The contribution from diffuse solvents were estimated by SQUEEZE.
Considering elemental analysis results, 409 electrons were assigned to
one chloride, four DMF and three water molecules per unit cell.
;

# SQUEEZE RESULTS
loop_
_platon_squeeze_void_nr
_platon_squeeze_void_average_x
_platon_squeeze_void_average_y
_platon_squeeze_void_average_z
_platon_squeeze_void_volume
_platon_squeeze_void_count_electrons
1 -0.016 -0.011 -0.002 1991.1 409
_platon_squeeze_details          
;
See above.
;


_audit_creation_method           'enCIFer editing of SHELXL97 CIF output'
_chemical_name_systematic        
;
?
;
_chemical_name_common            ?
_chemical_melting_point          ?
_chemical_formula_structural     '[Sc3O(C8H4O4)3(H2O)3] Cl (C3H7NO)4 (H2O)3'
_chemical_formula_moiety         
'C24 H18 O16 Sc3 +, Cl -, 4(C3 H7 N O), 3(H2 O)'
_chemical_formula_sum            'C36 H52 Cl N4 O23 Sc3'
_chemical_formula_weight         1079.15

loop_
_atom_type_symbol
_atom_type_description
_atom_type_scat_dispersion_real
_atom_type_scat_dispersion_imag
_atom_type_scat_source
C C 0.0033 0.0016 'International Tables Vol C Tables 4.2.6.8 and 6.1.1.4'
H H 0.0000 0.0000 'International Tables Vol C Tables 4.2.6.8 and 6.1.1.4'
O O 0.0106 0.0060 'International Tables Vol C Tables 4.2.6.8 and 6.1.1.4'
Sc Sc 0.2519 0.3716 'International Tables Vol C Tables 4.2.6.8 and 6.1.1.4'
N N 0.0061 0.0033 'International Tables Vol C Tables 4.2.6.8 and 6.1.1.4'
Cl Cl 0.1484 0.1585 'International Tables Vol C Tables 4.2.6.8 and 6.1.1.4'

_symmetry_cell_setting           hexagonal
_symmetry_space_group_name_H-M   'P 63/m m c'

loop_
_symmetry_equiv_pos_as_xyz
'x, y, z'
'x-y, x, z+1/2'
'-y, x-y, z'
'-x, -y, z+1/2'
'-x+y, -x, z'
'y, -x+y, z+1/2'
'-y, -x, -z+1/2'
'x-y, -y, -z'
'x, x-y, -z+1/2'
'y, x, -z'
'-x+y, y, -z+1/2'
'-x, -x+y, -z'
'-x, -y, -z'
'-x+y, -x, -z-1/2'
'y, -x+y, -z'
'x, y, -z-1/2'
'x-y, x, -z'
'-y, x-y, -z-1/2'
'y, x, z-1/2'
'-x+y, y, z'
'-x, -x+y, z-1/2'
'-y, -x, z'
'x-y, -y, z-1/2'
'x, x-y, z'

_cell_length_a                   14.056(1)
_cell_length_b                   14.056(1)
_cell_length_c                   18.099(3)
_cell_angle_alpha                90.00
_cell_angle_beta                 90.00
_cell_angle_gamma                120.00
_cell_volume                     3096.7(13)
_cell_formula_units_Z            2
_cell_measurement_temperature    150(2)
_cell_measurement_reflns_used    1366
_cell_measurement_theta_min      2.9
_cell_measurement_theta_max      21.9

_exptl_crystal_description       column
_exptl_crystal_colour            colourless
_exptl_crystal_size_max          0.18
_exptl_crystal_size_mid          0.06
_exptl_crystal_size_min          0.05
_exptl_crystal_density_meas      ?
_exptl_crystal_density_diffrn    1.157
_exptl_crystal_density_method    'not measured'
_exptl_crystal_F_000             1120
_exptl_absorpt_coefficient_mu    0.428
_exptl_absorpt_correction_type   multi-scan
_exptl_absorpt_correction_T_min  0.536
_exptl_absorpt_correction_T_max  1.000
_exptl_absorpt_process_details   '(SADABS version 2.05; Bruker, 2003)'


_exptl_special_details           
;
?
;

_diffrn_ambient_temperature      150(2)
_diffrn_radiation_wavelength     0.71073
_diffrn_radiation_type           MoK\a
_diffrn_radiation_source         'sealed tube'
_diffrn_radiation_monochromator  graphite
_diffrn_measurement_device_type  'Bruker SMART APEX CCD area detector'
_diffrn_measurement_method       omega
_diffrn_detector_area_resol_mean ?
_diffrn_standards_number         0
_diffrn_standards_interval_count .
_diffrn_standards_interval_time  ?
_diffrn_standards_decay_%        0
_diffrn_reflns_number            18126
_diffrn_reflns_av_R_equivalents  0.117
_diffrn_reflns_av_sigmaI/netI    0.045
_diffrn_reflns_limit_h_min       -18
_diffrn_reflns_limit_h_max       18
_diffrn_reflns_limit_k_min       -15
_diffrn_reflns_limit_k_max       18
_diffrn_reflns_limit_l_min       -23
_diffrn_reflns_limit_l_max       22
_diffrn_reflns_theta_min         2.02
_diffrn_reflns_theta_max         27.55
_reflns_number_total             1473
_reflns_number_gt                1084
_reflns_threshold_expression     I>2\s(I)


_computing_data_collection       'Bruker SMART version 5.625 (Bruker,2001)'
_computing_cell_refinement       'Bruker SAINT version 6.36A (Bruker,2000)'
_computing_data_reduction        'Bruker SAINT; SHELXTL (Sheldrick,2008)'
_computing_structure_solution    'SHELXS97 (Sheldrick, 2008)'
_computing_structure_refinement  'SHELXL97 (Sheldrick, 2008)'
_computing_molecular_graphics    ?
_computing_publication_material  
'enCIFer (Allen et al., 2004); PLATON (Spek, 2009)'

_refine_ls_structure_factor_coef Fsqd
_refine_ls_matrix_type           full
_refine_ls_weighting_scheme      calc
_refine_ls_weighting_details     
'calc w=1/[\s^2^(Fo^2^)+(0.109P)^2^] where P=(Fo^2^+2Fc^2^)/3'
_atom_sites_solution_primary     direct
_atom_sites_solution_secondary   difmap
_atom_sites_solution_hydrogens   
;
Gemometrically placed H-atoms on phenyl rings.
H-atoms on water molecules are located on differential E-map.
;
_refine_ls_hydrogen_treatment    
;
Riding model for H-atoms on phenyl rings.
Distance of O-H fixed at 0.84 Angstrom.
;
_refine_ls_extinction_method     none
_refine_ls_extinction_coef       ?
_refine_ls_number_reflns         1382
_refine_ls_number_parameters     44
_refine_ls_number_restraints     1
_refine_ls_R_factor_all          0.0723
_refine_ls_R_factor_gt           0.0592
_refine_ls_wR_factor_ref         0.158
_refine_ls_wR_factor_gt          0.152
_refine_ls_goodness_of_fit_ref   0.964
_refine_ls_restrained_S_all      0.965
_refine_ls_shift/su_max          0.000
_refine_ls_shift/su_mean         0.000

loop_
_atom_site_label
_atom_site_type_symbol
_atom_site_fract_x
_atom_site_fract_y
_atom_site_fract_z
_atom_site_U_iso_or_equiv
_atom_site_adp_type
_atom_site_occupancy
_atom_site_symmetry_multiplicity
_atom_site_calc_flag
_atom_site_refinement_flags
_atom_site_disorder_assembly
_atom_site_disorder_group
Sc1 Sc 0.25014(3) 0.74986(3) 0.2500 0.0141(3) Uani 1 4 d S . .
O1 O 0.3333 0.6667 0.2500 0.0174(11) Uani 1 12 d S . .
O2 O 0.16380(14) 0.83620(14) 0.2500 0.0358(9) Uani 1 4 d SD . .
O3 O 0.34937(14) 0.85867(14) 0.16659(9) 0.0289(4) Uani 1 1 d . . .
C1 C 0.44181(13) 0.8836(3) 0.13882(18) 0.0240(7) Uani 1 2 d S . .
C3 C 0.5717(2) 0.9724(2) 0.03362(14) 0.0394(7) Uani 1 1 d . . .
H3 H 0.6209 0.9538 0.0567 0.047 Uiso 1 1 calc R . .
C2 C 0.47231(15) 0.9446(3) 0.06706(19) 0.0273(8) Uani 1 2 d S . .
H1 H 0.1409(14) 0.8591(14) 0.2135(17) 0.062(14) Uiso 1 2 d SD . .

loop_
_atom_site_aniso_label
_atom_site_aniso_U_11
_atom_site_aniso_U_22
_atom_site_aniso_U_33
_atom_site_aniso_U_23
_atom_site_aniso_U_13
_atom_site_aniso_U_12
Sc1 0.0163(3) 0.0163(3) 0.0099(4) 0.000 0.000 0.0083(3)
O1 0.0193(16) 0.0193(16) 0.014(2) 0.000 0.000 0.0096(8)
O2 0.0437(17) 0.0437(17) 0.036(2) 0.000 0.000 0.0338(19)
O3 0.0346(9) 0.0318(9) 0.0235(9) 0.0125(7) 0.0101(7) 0.0190(8)
C1 0.0286(13) 0.0216(16) 0.0194(16) 0.0068(13) 0.0034(6) 0.0108(8)
C3 0.0364(14) 0.0582(19) 0.0346(15) 0.0244(13) 0.0095(11) 0.0319(14)
C2 0.0300(13) 0.0341(19) 0.0194(16) 0.0136(14) 0.0068(7) 0.0170(9)

_geom_special_details            
;
All esds (except the esd in the dihedral angle between two l.s. planes)

are estimated using the full covariance matrix. The cell esds are
taken
into account individually in the estimation of esds in distances,
angles
and torsion angles; correlations between esds in cell parameters are
only
used when they are defined by crystal symmetry. An approximate
(isotropic)
treatment of cell esds is used for estimating esds involving l.s.
planes.
;

loop_
_geom_bond_atom_site_label_1
_geom_bond_atom_site_label_2
_geom_bond_distance
_geom_bond_site_symmetry_2
_geom_bond_publ_flag
Sc1 O1 2.0254(8) . ?
Sc1 O2 2.102(4) . ?
Sc1 O3 2.1048(16) . ?
Sc1 Sc1 3.5081(14) 3_665 ?
O2 H1 0.865(10) . ?
O3 C1 1.268(2) . ?
C1 C2 1.496(4) . ?
C3 C2 1.387(3) . ?
C3 C3 1.390(5) 8_675 ?
C3 H3 0.9500 . ?

loop_
_geom_angle_atom_site_label_1
_geom_angle_atom_site_label_2
_geom_angle_atom_site_label_3
_geom_angle
_geom_angle_site_symmetry_1
_geom_angle_site_symmetry_3
_geom_angle_publ_flag
O1 Sc1 O2 180.00(2) . . ?
O1 Sc1 O3 93.17(5) . . ?
O2 Sc1 O3 86.83(5) . . ?
O3 Sc1 O3 88.00(10) 22_665 . ?
O3 Sc1 O3 91.65(10) 16_556 . ?
O3 Sc1 O3 173.65(9) . 7_665 ?
O3 Sc1 Sc1 72.58(5) . 14_566 ?
O1 Sc1 Sc1 30.0 . 3_665 ?
O2 Sc1 Sc1 150.0 . 3_665 ?
O3 Sc1 Sc1 113.28(5) . 3_665 ?
Sc1 Sc1 Sc1 60.0 14_566 3_665 ?
Sc1 O1 Sc1 120.0 . 3_665 ?
C1 O3 Sc1 134.46(16) . . ?
O3 C1 O3 124.8(3) 20 . ?
O3 C1 C2 117.58(14) . . ?
C3 C2 C3 120.0(3) 20 . ?
C3 C2 C1 119.99(15) . . ?

_diffrn_measured_fraction_theta_max 0.997
_diffrn_reflns_theta_full        27.55
_diffrn_measured_fraction_theta_full 0.997

_refine_diff_density_max         0.75
_refine_diff_density_min         -0.92
_refine_diff_density_rms         0.08
