####################################################################### 
# 
# This file contains crystal structure data downloaded from the 
# Cambridge Structural Database (CSD) hosted by the Cambridge 
# Crystallographic Data Centre (CCDC).
# 
# Full information about CCDC data access policies and citation 
# guidelines are available at http://www.ccdc.cam.ac.uk/access/V1 
# 
# Audit and citation data items may have been added by the CCDC. 
# Please retain this information to preserve the provenance of 
# this file and to allow appropriate attribution of the data. 
# 
#######################################################################

data_vnv168a(SQZ)
_audit_block_doi                 10.5517/ccvdtlm
_database_code_depnum_ccdc_archive 'CCDC 786891'
loop_
_citation_id
_citation_doi
_citation_year
1 10.1002/chem.201002542 2010
_audit_update_record             
;
2010-07-28 deposited with the CCDC.	2024-07-12 downloaded from the CCDC.
;
#TrackingRef 'MORF-2.cif'


_audit_creation_method           SHELXL-97
_chemical_name_systematic        
;
?
;
_chemical_name_common            ?
_chemical_melting_point          ?
_chemical_formula_moiety         ?
_chemical_formula_sum            'C115 H169 N27 O74 S4 Zn'
_chemical_formula_weight         3307.38

loop_
_atom_type_symbol
_atom_type_description
_atom_type_scat_dispersion_real
_atom_type_scat_dispersion_imag
_atom_type_scat_source
C C 0.0033 0.0016 'International Tables Vol C Tables 4.2.6.8 and 6.1.1.4'
H H 0.0000 0.0000 'International Tables Vol C Tables 4.2.6.8 and 6.1.1.4'
N N 0.0061 0.0033 'International Tables Vol C Tables 4.2.6.8 and 6.1.1.4'
O O 0.0106 0.0060 'International Tables Vol C Tables 4.2.6.8 and 6.1.1.4'
S S 0.1246 0.1234 'International Tables Vol C Tables 4.2.6.8 and 6.1.1.4'
Zn Zn 0.2839 1.4301 'International Tables Vol C Tables 4.2.6.8 and 6.1.1.4'

_symmetry_cell_setting           monoclinic
_symmetry_space_group_name_H-M   C2/c

loop_
_symmetry_equiv_pos_as_xyz
'x, y, z'
'-x, y, -z+1/2'
'x+1/2, y+1/2, z'
'-x+1/2, y+1/2, -z+1/2'
'-x, -y, -z'
'x, -y, z-1/2'
'-x+1/2, -y+1/2, -z'
'x+1/2, -y+1/2, z-1/2'

_cell_length_a                   28.756(3)
_cell_length_b                   33.394(4)
_cell_length_c                   15.5720(18)
_cell_angle_alpha                90.00
_cell_angle_beta                 98.303(2)
_cell_angle_gamma                90.00
_cell_volume                     14796(3)
_cell_formula_units_Z            4
_cell_measurement_temperature    173(2)
_cell_measurement_reflns_used    ?
_cell_measurement_theta_min      ?
_cell_measurement_theta_max      ?

_exptl_crystal_description       prism
_exptl_crystal_colour            pale-yellow
_exptl_crystal_size_max          0.34
_exptl_crystal_size_mid          0.30
_exptl_crystal_size_min          0.22
_exptl_crystal_density_meas      'not measured'
_exptl_crystal_density_diffrn    1.485
_exptl_crystal_density_method    'not measured'
_exptl_crystal_F_000             6936
_exptl_absorpt_coefficient_mu    0.334
_exptl_absorpt_correction_type   empirical
_exptl_absorpt_correction_T_min  0.6430
_exptl_absorpt_correction_T_max  0.8621
_exptl_absorpt_process_details   sadabs

_exptl_special_details           
;
?
;

_diffrn_ambient_temperature      173(2)
_diffrn_radiation_wavelength     0.71073
_diffrn_radiation_type           MoK\a
_diffrn_radiation_source         'fine-focus sealed tube'
_diffrn_radiation_monochromator  graphite
_diffrn_measurement_device_type  ?
_diffrn_measurement_method       ?
_diffrn_detector_area_resol_mean ?
_diffrn_reflns_number            67226
_diffrn_reflns_av_R_equivalents  0.0965
_diffrn_reflns_av_sigmaI/netI    0.0833
_diffrn_reflns_limit_h_min       -34
_diffrn_reflns_limit_h_max       34
_diffrn_reflns_limit_k_min       -39
_diffrn_reflns_limit_k_max       39
_diffrn_reflns_limit_l_min       -18
_diffrn_reflns_limit_l_max       18
_diffrn_reflns_theta_min         0.94
_diffrn_reflns_theta_max         25.00
_reflns_number_total             13029
_reflns_number_gt                7831
_reflns_threshold_expression     >2sigma(I)

_computing_data_collection       'Bruker SMART'
_computing_cell_refinement       'Bruker SAINT'
_computing_data_reduction        'Bruker SHELXTL XPREP'
_computing_structure_solution    'SHELXS-97 (Sheldrick, 1997)'
_computing_structure_refinement  'SHELXL-97 (Sheldrick, 1997)'
_computing_molecular_graphics    'Bruker SHELXTL XP'
_computing_publication_material  'Bruker SHELXTL XCIF'
loop_
_platon_squeeze_void_nr
_platon_squeeze_void_average_x
_platon_squeeze_void_average_y
_platon_squeeze_void_average_z
_platon_squeeze_void_volume
_platon_squeeze_void_count_electrons
_platon_squeeze_void_content
1 0.000 0.500 0.741 3077 1351 ' '
2 0.500 0.000 1.091 3077 1351 ' '
_platon_squeeze_details          
;
The unit cell contains 84 molecules of nitromethane which have been treated as
a diffuse contribution to the overall scattering without specific atom
positions by SQUEEZE/PLATON.

Refinement of F^2^ against ALL reflections. The weighted R-factor wR and
goodness of fit S are based on F^2^, conventional R-factors R are based
on F, with F set to zero for negative F^2^. The threshold expression of
F^2^ > 2sigma(F^2^) is used only for calculating R-factors(gt) etc. and is
not relevant to the choice of reflections for refinement. R-factors based
on F^2^ are statistically about twice as large as those based on F, and R-
factors based on ALL data will be even larger.

One of the SO3 groups is disordered so SAME, DELU and SIMU restraints were
was used to obtain a chemically reasonable geometry.
;

_refine_ls_structure_factor_coef Fsqd
_refine_ls_matrix_type           full
_refine_ls_weighting_scheme      calc
_refine_ls_weighting_details     
'calc w=1/[\s^2^(Fo^2^)+(0.1159P)^2^+0.0000P] where P=(Fo^2^+2Fc^2^)/3'
_atom_sites_solution_primary     direct
_atom_sites_solution_secondary   difmap
_atom_sites_solution_hydrogens   geom
_refine_ls_hydrogen_treatment    constrained
_refine_ls_extinction_method     none
_refine_ls_extinction_coef       ?
_refine_ls_number_reflns         13029
_refine_ls_number_parameters     654
_refine_ls_number_restraints     104
_refine_ls_R_factor_all          0.1133
_refine_ls_R_factor_gt           0.0736
_refine_ls_wR_factor_ref         0.2044
_refine_ls_wR_factor_gt          0.1850
_refine_ls_goodness_of_fit_ref   0.944
_refine_ls_restrained_S_all      0.985
_refine_ls_shift/su_max          0.001
_refine_ls_shift/su_mean         0.000

loop_
_atom_site_label
_atom_site_type_symbol
_atom_site_fract_x
_atom_site_fract_y
_atom_site_fract_z
_atom_site_U_iso_or_equiv
_atom_site_adp_type
_atom_site_occupancy
_atom_site_symmetry_multiplicity
_atom_site_calc_flag
_atom_site_refinement_flags
_atom_site_disorder_assembly
_atom_site_disorder_group
Zn1 Zn 0.0000 -0.010287(17) 2.2500 0.02803(18) Uani 1 2 d S . .
O1W O -0.01134(9) -0.01117(8) 2.10943(16) 0.0363(6) Uani 1 1 d . . .
H1WA H -0.0353 -0.0313 2.0893 0.055 Uiso 1 1 d R . .
H1WB H 0.0182 -0.0180 2.0883 0.055 Uiso 1 1 d R . .
N1 N 0.05165(11) 0.03671(9) 2.2516(2) 0.0334(7) Uani 1 1 d . . .
N2 N 0.19381(13) 0.20519(11) 2.2175(2) 0.0453(9) Uani 1 1 d . . .
N3 N 0.44743(10) 0.44519(8) 2.25270(19) 0.0285(7) Uani 1 1 d . . .
C1 C 0.08105(13) 0.03839(11) 2.1928(3) 0.0363(9) Uani 1 1 d . . .
H1A H 0.0824 0.0163 2.1547 0.044 Uiso 1 1 calc R . .
C2 C 0.10959(15) 0.07095(12) 2.1853(3) 0.0419(10) Uani 1 1 d . . .
H2A H 0.1305 0.0708 2.1434 0.050 Uiso 1 1 calc R . .
C3 C 0.10793(14) 0.10392(11) 2.2385(3) 0.0370(9) Uani 1 1 d . . .
C4 C 0.07723(14) 0.10181(12) 2.2997(3) 0.0409(10) Uani 1 1 d . . .
H4A H 0.0749 0.1235 2.3384 0.049 Uiso 1 1 calc R . .
C5 C 0.05038(14) 0.06824(11) 2.3037(2) 0.0370(9) Uani 1 1 d . . .
H5A H 0.0297 0.0673 2.3460 0.044 Uiso 1 1 calc R . .
C6 C 0.13775(14) 0.13941(11) 2.2328(2) 0.0366(9) Uani 1 1 d . . .
C7 C 0.18040(16) 0.13525(13) 2.2042(3) 0.0485(11) Uani 1 1 d . . .
H7A H 0.1910 0.1096 2.1893 0.058 Uiso 1 1 calc R . .
C8 C 0.20826(16) 0.16919(14) 2.1968(3) 0.0486(11) Uani 1 1 d . . .
H8A H 0.2378 0.1664 2.1769 0.058 Uiso 1 1 calc R . .
C9 C 0.15290(16) 0.20992(13) 2.2480(3) 0.0470(11) Uani 1 1 d . . .
H9A H 0.1436 0.2358 2.2644 0.056 Uiso 1 1 calc R . .
C10 C 0.12379(15) 0.17713(13) 2.2559(3) 0.0446(10) Uani 1 1 d . . .
H10A H 0.0946 0.1806 2.2769 0.054 Uiso 1 1 calc R . .
C11 C 0.22322(17) 0.24110(13) 2.2042(3) 0.0540(12) Uani 1 1 d . . .
H11A H 0.2029 0.2627 2.1761 0.065 Uiso 1 1 calc R . .
H11B H 0.2463 0.2340 2.1653 0.065 Uiso 1 1 calc R . .
C12 C 0.24908(17) 0.25600(14) 2.2909(3) 0.0515(12) Uani 1 1 d . . .
H12A H 0.2260 0.2657 2.3276 0.062 Uiso 1 1 calc R . .
H12B H 0.2670 0.2337 2.3217 0.062 Uiso 1 1 calc R . .
C13 C 0.28208(15) 0.28930(13) 2.2766(3) 0.0461(11) Uani 1 1 d . . .
C14 C 0.32956(16) 0.28196(12) 2.2797(3) 0.0501(11) Uani 1 1 d . . .
H14A H 0.3407 0.2553 2.2878 0.060 Uiso 1 1 calc R . .
C15 C 0.36135(15) 0.31235(12) 2.2713(3) 0.0446(10) Uani 1 1 d . . .
H15A H 0.3938 0.3063 2.2745 0.054 Uiso 1 1 calc R . .
C16 C 0.34595(14) 0.35155(11) 2.2584(2) 0.0349(9) Uani 1 1 d . . .
C17 C 0.29828(14) 0.35926(12) 2.2515(3) 0.0416(10) Uani 1 1 d . . .
H17A H 0.2869 0.3857 2.2399 0.050 Uiso 1 1 calc R . .
C18 C 0.26686(16) 0.32836(13) 2.2615(3) 0.0494(11) Uani 1 1 d . . .
H18A H 0.2343 0.3342 2.2578 0.059 Uiso 1 1 calc R . .
C19 C 0.38030(12) 0.38443(11) 2.2545(2) 0.0315(8) Uani 1 1 d . . .
C20 C 0.42410(13) 0.38285(11) 2.3070(2) 0.0335(9) Uani 1 1 d . . .
H20A H 0.4317 0.3607 2.3446 0.040 Uiso 1 1 calc R . .
C21 C 0.45571(13) 0.41282(11) 2.3044(2) 0.0324(8) Uani 1 1 d . . .
H21A H 0.4851 0.4109 2.3407 0.039 Uiso 1 1 calc R . .
C22 C 0.40540(13) 0.44682(11) 2.2015(2) 0.0336(9) Uani 1 1 d . . .
H22A H 0.3987 0.4690 2.1636 0.040 Uiso 1 1 calc R . .
C23 C 0.37171(13) 0.41728(11) 2.2023(2) 0.0327(8) Uani 1 1 d . . .
H23A H 0.3423 0.4199 2.1662 0.039 Uiso 1 1 calc R . .
O1 O 0.17749(11) 0.20435(9) 2.0138(2) 0.0551(8) Uani 1 1 d . . .
O2 O 0.27655(12) 0.18070(12) 2.0657(2) 0.0688(10) Uani 1 1 d . . .
O3 O 0.31971(15) 0.18101(11) 2.2385(3) 0.0813(12) Uani 1 1 d . . .
O4 O 0.26435(17) 0.15918(11) 2.3800(3) 0.0810(12) Uani 1 1 d . . .
O5 O 0.20192(15) 0.20184(14) 2.4466(2) 0.0830(13) Uani 1 1 d . . .
O6 O 0.15283(14) 0.27870(15) 2.3897(3) 0.0859(13) Uani 1 1 d . . .
O7 O 0.14677(12) 0.31448(10) 2.2244(3) 0.0695(10) Uani 1 1 d . . .
O8 O 0.12359(10) 0.25625(9) 2.0777(2) 0.0509(8) Uani 1 1 d . . .
S1 S -0.02206(4) 0.16426(3) 2.02739(7) 0.0500(3) Uani 1 1 d D . .
O9 O -0.04749(12) 0.18598(9) 1.9554(2) 0.0608(9) Uani 1 1 d D . .
O10 O -0.03219(12) 0.17941(11) 2.1111(2) 0.0670(10) Uani 1 1 d D . .
O11 O -0.02751(12) 0.12147(9) 2.0186(2) 0.0596(9) Uani 1 1 d D . .
S2A S 0.17816(12) 0.03061(9) 2.4670(3) 0.0749(12) Uani 0.50 1 d PDU A 1
O12A O 0.1589(2) 0.01983(18) 2.3754(6) 0.096(3) Uani 0.50 1 d PDU A 1
O13A O 0.1511(5) 0.0240(7) 2.5509(10) 0.155(7) Uani 0.50 1 d PDU A 1
O14A O 0.2237(3) 0.0106(3) 2.4832(8) 0.085(3) Uani 0.50 1 d PDU A 1
S2B S 0.1853(5) 0.0247(4) 2.4695(9) 0.289(6) Uani 0.50 1 d PDU A 2
O12B O 0.2098(2) 0.01604(14) 2.3991(3) 0.0366(13) Uani 0.50 1 d PDU A 2
O13B O 0.1425(5) 0.0184(7) 2.5162(12) 0.149(6) Uani 0.50 1 d PDU A 2
O14B O 0.2282(6) 0.0168(7) 2.5324(13) 0.199(8) Uani 0.50 1 d PDU A 2
C24 C 0.10294(16) 0.22113(13) 2.0486(3) 0.0461(11) Uani 1 1 d . . .
C25 C 0.05572(16) 0.21106(13) 2.0514(3) 0.0472(11) Uani 1 1 d . . .
H25A H 0.0356 0.2300 2.0729 0.057 Uiso 1 1 calc R . .
C26 C 0.03832(17) 0.17419(13) 2.0235(3) 0.0487(11) Uani 1 1 d . . .
C27 C 0.06641(18) 0.14709(15) 1.9902(3) 0.0587(13) Uani 1 1 d . . .
H27A H 0.0542 0.1218 1.9704 0.070 Uiso 1 1 calc R . .
C28 C 0.11304(17) 0.15671(14) 1.9854(3) 0.0539(12) Uani 1 1 d . . .
H28A H 0.1322 0.1378 1.9614 0.065 Uiso 1 1 calc R . .
C29 C 0.13216(16) 0.19272(13) 2.0142(3) 0.0469(11) Uani 1 1 d . . .
C30 C 0.20579(17) 0.17849(16) 1.9688(3) 0.0618(13) Uani 1 1 d . . .
H30A H 0.1932 0.1783 1.9062 0.074 Uiso 1 1 calc R . .
H30B H 0.2043 0.1508 1.9911 0.074 Uiso 1 1 calc R . .
C31 C 0.25573(18) 0.19228(16) 1.9810(3) 0.0607(13) Uani 1 1 d . . .
H31A H 0.2727 0.1798 1.9369 0.073 Uiso 1 1 calc R . .
H31B H 0.2571 0.2217 1.9746 0.073 Uiso 1 1 calc R . .
C32 C 0.32396(19) 0.1894(3) 2.0869(4) 0.098(2) Uani 1 1 d . . .
H32A H 0.3283 0.2187 2.0945 0.118 Uiso 1 1 calc R . .
H32B H 0.3411 0.1807 2.0395 0.118 Uiso 1 1 calc R . .
C33 C 0.3428(2) 0.1686(3) 2.1681(5) 0.102(2) Uani 1 1 d . . .
H33A H 0.3388 0.1394 2.1597 0.122 Uiso 1 1 calc R . .
H33B H 0.3769 0.1742 2.1822 0.122 Uiso 1 1 calc R . .
C34 C 0.3366(2) 0.1626(2) 2.3212(4) 0.092(2) Uani 1 1 d . . .
H34A H 0.3457 0.1838 2.3648 0.111 Uiso 1 1 calc R . .
H34B H 0.3650 0.1466 2.3157 0.111 Uiso 1 1 calc R . .
C35 C 0.3004(3) 0.13571(19) 2.3530(4) 0.097(2) Uani 1 1 d . . .
H35A H 0.2869 0.1175 2.3058 0.117 Uiso 1 1 calc R . .
H35B H 0.3155 0.1192 2.4021 0.117 Uiso 1 1 calc R . .
C36 C 0.2279(3) 0.13988(18) 2.4203(4) 0.083(2) Uani 1 1 d . . .
C37 C 0.2257(3) 0.0977(2) 2.4186(5) 0.141(4) Uani 1 1 d . A .
H37A H 0.2469 0.0809 2.3937 0.169 Uiso 1 1 calc R . .
C38 C 0.1850(2) 0.08274(18) 2.4619(4) 0.0796(19) Uani 1 1 d D . .
C39 C 0.1580(3) 0.1075(3) 2.5065(5) 0.112(3) Uani 1 1 d . A .
H39A H 0.1367 0.0974 2.5426 0.135 Uiso 1 1 calc R . .
C40 C 0.1636(2) 0.1436(3) 2.4956(5) 0.132(4) Uani 1 1 d . . .
H40A H 0.1419 0.1603 2.5192 0.158 Uiso 1 1 calc R A .
C41 C 0.1961(3) 0.1640(3) 2.4552(4) 0.096(2) Uani 1 1 d . A .
C42 C 0.1677(2) 0.2257(3) 2.4880(4) 0.108(3) Uani 1 1 d . . .
H42A H 0.1353 0.2179 2.4637 0.130 Uiso 1 1 calc R . .
H42B H 0.1722 0.2204 2.5512 0.130 Uiso 1 1 calc R . .
C43 C 0.1748(3) 0.2687(3) 2.4723(4) 0.107(3) Uani 1 1 d . . .
H43A H 0.1615 0.2849 2.5162 0.128 Uiso 1 1 calc R . .
H43B H 0.2088 0.2746 2.4774 0.128 Uiso 1 1 calc R . .
C44 C 0.1514(2) 0.3212(2) 2.3769(5) 0.096(2) Uani 1 1 d . . .
H44A H 0.1836 0.3318 2.3779 0.115 Uiso 1 1 calc R . .
H44B H 0.1370 0.3344 2.4235 0.115 Uiso 1 1 calc R . .
C45 C 0.1231(2) 0.32860(19) 2.2920(4) 0.088(2) Uani 1 1 d . . .
H45A H 0.0925 0.3149 2.2893 0.105 Uiso 1 1 calc R . .
H45B H 0.1172 0.3577 2.2847 0.105 Uiso 1 1 calc R . .
C46 C 0.1224(2) 0.32126(15) 2.1403(4) 0.0683(15) Uani 1 1 d . . .
H46A H 0.1454 0.3273 2.1005 0.082 Uiso 1 1 calc R . .
H46B H 0.1019 0.3450 2.1417 0.082 Uiso 1 1 calc R . .
C47 C 0.09295(16) 0.28596(14) 2.1057(3) 0.0574(12) Uani 1 1 d . . .
H47A H 0.0762 0.2748 2.1515 0.069 Uiso 1 1 calc R . .
H47B H 0.0693 0.2944 2.0563 0.069 Uiso 1 1 calc R . .
O1S O 0.05414(10) -0.04193(8) 2.01328(17) 0.0430(7) Uani 1 1 d . . .

loop_
_atom_site_aniso_label
_atom_site_aniso_U_11
_atom_site_aniso_U_22
_atom_site_aniso_U_33
_atom_site_aniso_U_23
_atom_site_aniso_U_13
_atom_site_aniso_U_12
Zn1 0.0298(3) 0.0180(3) 0.0366(3) 0.000 0.0058(3) 0.000
O1W 0.0415(15) 0.0338(14) 0.0350(14) -0.0029(12) 0.0099(12) 0.0012(12)
N1 0.0343(17) 0.0274(17) 0.0374(18) 0.0031(14) 0.0020(15) -0.0036(14)
N2 0.049(2) 0.042(2) 0.045(2) 0.0017(16) 0.0063(17) -0.0260(18)
N3 0.0308(16) 0.0199(15) 0.0345(17) -0.0032(13) 0.0034(14) -0.0001(13)
C1 0.039(2) 0.030(2) 0.039(2) -0.0020(17) 0.0040(18) -0.0055(17)
C2 0.042(2) 0.041(2) 0.044(2) 0.0024(19) 0.0103(19) -0.0040(19)
C3 0.038(2) 0.032(2) 0.040(2) 0.0060(17) 0.0011(18) -0.0045(17)
C4 0.052(2) 0.030(2) 0.038(2) -0.0022(17) -0.004(2) -0.0072(19)
C5 0.048(2) 0.033(2) 0.030(2) 0.0027(17) 0.0045(18) -0.0061(18)
C6 0.042(2) 0.030(2) 0.037(2) 0.0043(17) -0.0012(18) -0.0126(17)
C7 0.059(3) 0.039(2) 0.045(2) 0.0029(19) 0.000(2) -0.012(2)
C8 0.044(3) 0.051(3) 0.051(3) 0.003(2) 0.009(2) -0.009(2)
C9 0.060(3) 0.033(2) 0.046(3) -0.0008(19) 0.002(2) -0.015(2)
C10 0.043(2) 0.045(3) 0.046(2) 0.003(2) 0.005(2) -0.016(2)
C11 0.068(3) 0.044(3) 0.051(3) 0.003(2) 0.014(2) -0.027(2)
C12 0.058(3) 0.045(3) 0.052(3) -0.004(2) 0.009(2) -0.020(2)
C13 0.050(3) 0.041(3) 0.047(3) 0.005(2) 0.007(2) -0.018(2)
C14 0.061(3) 0.025(2) 0.061(3) 0.0036(19) -0.001(2) -0.013(2)
C15 0.040(2) 0.036(2) 0.057(3) 0.005(2) 0.003(2) -0.0129(19)
C16 0.037(2) 0.034(2) 0.033(2) -0.0024(16) 0.0029(17) -0.0102(17)
C17 0.038(2) 0.033(2) 0.054(3) -0.0027(19) 0.008(2) -0.0100(18)
C18 0.041(2) 0.048(3) 0.061(3) -0.002(2) 0.013(2) -0.011(2)
C19 0.0289(19) 0.029(2) 0.037(2) 0.0001(16) 0.0056(16) -0.0063(16)
C20 0.038(2) 0.029(2) 0.031(2) 0.0075(16) -0.0029(17) -0.0077(16)
C21 0.033(2) 0.032(2) 0.033(2) -0.0026(16) 0.0047(17) -0.0030(16)
C22 0.035(2) 0.0223(19) 0.042(2) 0.0036(16) -0.0004(18) 0.0017(16)
C23 0.0266(19) 0.031(2) 0.038(2) 0.0015(17) -0.0024(16) 0.0020(16)
O1 0.0562(19) 0.057(2) 0.0538(19) -0.0116(15) 0.0119(16) 0.0026(16)
O2 0.057(2) 0.095(3) 0.056(2) 0.0105(19) 0.0160(17) -0.006(2)
O3 0.099(3) 0.066(2) 0.073(3) 0.004(2) -0.006(2) 0.020(2)
O4 0.117(3) 0.047(2) 0.073(3) 0.0071(19) -0.007(2) -0.018(2)
O5 0.088(3) 0.103(3) 0.054(2) 0.017(2) -0.003(2) -0.052(3)
O6 0.072(2) 0.122(4) 0.066(3) -0.035(2) 0.016(2) -0.029(2)
O7 0.056(2) 0.064(2) 0.092(3) -0.037(2) 0.024(2) -0.0181(18)
O8 0.0501(18) 0.0398(17) 0.064(2) -0.0095(14) 0.0113(15) -0.0088(14)
S1 0.0559(7) 0.0455(7) 0.0467(6) -0.0085(5) 0.0016(5) -0.0112(5)
O9 0.066(2) 0.054(2) 0.056(2) -0.0015(16) -0.0126(17) -0.0018(17)
O10 0.076(2) 0.075(2) 0.052(2) -0.0210(17) 0.0157(17) -0.0289(19)
O11 0.074(2) 0.0418(18) 0.061(2) -0.0071(15) 0.0018(17) -0.0166(16)
S2A 0.0297(14) 0.0401(14) 0.150(4) 0.0472(18) -0.0035(19) -0.0125(11)
O12A 0.059(4) 0.029(3) 0.173(8) 0.029(4) -0.078(5) -0.0