####################################################################### 
# 
# This file contains crystal structure data downloaded from the 
# Cambridge Structural Database (CSD) hosted by the Cambridge 
# Crystallographic Data Centre (CCDC).
# 
# Full information about CCDC data access policies and citation 
# guidelines are available at http://www.ccdc.cam.ac.uk/access/V1 
# 
# Audit and citation data items may have been added by the CCDC. 
# Please retain this information to preserve the provenance of 
# this file and to allow appropriate attribution of the data. 
# 
#######################################################################

data_Zn_tp_NDI_DMF
_audit_block_doi                 10.5517/ccsz3hb
_database_code_depnum_ccdc_archive 'CCDC 743922'
loop_
_citation_id
_citation_doi
_citation_year
1 10.1038/ncomms1170 2011
_audit_update_record             
;
2009-08-13 deposited with the CCDC.	2024-07-12 downloaded from the CCDC.
;
#TrackingRef '3372_web_deposit_cif_file_0_MioKONDO_1291716087.cif'


_audit_creation_date             2010-12-06T15:11:17-00:00
_audit_creation_method           'WinGX routine CIF_UPDATE'

#----------------------------------------------------------------------------#
# CHEMICAL INFORMATION #
#----------------------------------------------------------------------------#

_chemical_name_systematic        
;
Zn_tp_NDI_DMF
;
_chemical_formula_sum            'C52 H44 N8 O16 Zn2'
_chemical_formula_moiety         'C40 H20 N4 O12 Zn2, 4(C3 H6 N O)'
_chemical_formula_weight         1167.73


#----------------------------------------------------------------------------#
# UNIT CELL INFORMATION #
#----------------------------------------------------------------------------#

_symmetry_cell_setting           monoclinic
_symmetry_space_group_name_H-M   'C 1 2/c 1'
_symmetry_space_group_name_Hall  '-C 2yc'
_symmetry_Int_Tables_number      15
loop_
_symmetry_equiv_pos_as_xyz
'x, y, z'
'-x, y, -z+1/2'
'x+1/2, y+1/2, z'
'-x+1/2, y+1/2, -z+1/2'
'-x, -y, -z'
'x, -y, z-1/2'
'-x+1/2, -y+1/2, -z'
'x+1/2, -y+1/2, z-1/2'

_cell_length_a                   46.7870(13)
_cell_length_b                   15.282(4)
_cell_length_c                   15.436(4)
_cell_angle_alpha                90
_cell_angle_beta                 107.468(4)
_cell_angle_gamma                90
_cell_volume                     10528(4)
_cell_formula_units_Z            8
_cell_measurement_temperature    123(2)
_cell_measurement_reflns_used    10670
_cell_measurement_theta_min      3.0036
_cell_measurement_theta_max      27.4855

#----------------------------------------------------------------------------#
# CRYSTAL INFORMATION #
#----------------------------------------------------------------------------#
_exptl_crystal_description       Platelet
_exptl_crystal_colour            Colorless
_exptl_crystal_size_max          0.3000
_exptl_crystal_size_mid          0.2000
_exptl_crystal_size_min          0.0200
_exptl_crystal_density_diffrn    1.473
_exptl_crystal_density_method    'not measured'
_exptl_crystal_F_000             4800
_exptl_special_details           
;
?
;

#----------------------------------------------------------------------------#
# ABSORPTION CORRECTION #
#----------------------------------------------------------------------------#

_exptl_absorpt_coefficient_mu    0.99
_exptl_absorpt_correction_T_max  1.0000
_exptl_absorpt_correction_T_min  0.8800
_exptl_absorpt_correction_type   multi-scan
_exptl_absorpt_process_details   'Jacobson, R. (1998) Private communication'

#----------------------------------------------------------------------------#
# DATA COLLECTION #
#----------------------------------------------------------------------------#

_diffrn_ambient_temperature      123(2)
_diffrn_radiation_type           'Mo K\a'
_diffrn_radiation_wavelength     0.71075
_diffrn_measurement_device_type  'Rigaku Saturn'
_diffrn_measurement_method       \w
_diffrn_detector_area_resol_mean 7.31
_diffrn_radiation_monochromator  confocal
_diffrn_reflns_av_R_equivalents  0.0705
_diffrn_reflns_av_unetI/netI     0.0773
_diffrn_reflns_number            41989
_diffrn_reflns_limit_h_min       -58
_diffrn_reflns_limit_h_max       60
_diffrn_reflns_limit_k_min       -18
_diffrn_reflns_limit_k_max       19
_diffrn_reflns_limit_l_min       -20
_diffrn_reflns_limit_l_max       18
_diffrn_reflns_theta_min         3
_diffrn_reflns_theta_max         27.54
_diffrn_reflns_theta_full        27.54
_diffrn_measured_fraction_theta_full 0.984
_diffrn_measured_fraction_theta_max 0.984
_reflns_number_total             11935
_reflns_number_gt                8478
_reflns_threshold_expression     >2\s(I)

#----------------------------------------------------------------------------#
# COMPUTER PROGRAMS USED #
#----------------------------------------------------------------------------#

_computing_structure_refinement  'SHELXL-97 (Sheldrick, 2008)'

#----------------------------------------------------------------------------#
# STRUCTURE SOLUTION
#----------------------------------------------------------------------------#

_atom_sites_solution_primary     direct
_atom_sites_solution_secondary   difmap
_atom_sites_solution_hydrogens   geom

#----------------------------------------------------------------------------#
# REFINEMENT INFORMATION #
#----------------------------------------------------------------------------#

_refine_special_details          
;
Refinement of F^2^ against ALL reflections. The weighted R-factor wR and
goodness of fit S are based on F^2^, conventional R-factors R are based
on F, with F set to zero for negative F^2^. The threshold expression of
F^2^ > 2\s(F^2^) is used only for calculating R-factors(gt) etc. and is
not relevant to the choice of reflections for refinement. R-factors based
on F^2^ are statistically about twice as large as those based on F, and R-
factors based on ALL data will be even larger.
;
_refine_ls_structure_factor_coef Fsqd
_refine_ls_matrix_type           full
_refine_ls_weighting_scheme      calc
_refine_ls_weighting_details     
'calc w=1/[\s^2^(Fo^2^)+(0.0895P)^2^+14.8394P] where P=(Fo^2^+2Fc^2^)/3'
_refine_ls_hydrogen_treatment    constr
_refine_ls_extinction_method     none
_refine_ls_number_reflns         11935
_refine_ls_number_parameters     807
_refine_ls_number_restraints     72
_refine_ls_R_factor_all          0.1129
_refine_ls_R_factor_gt           0.0803
_refine_ls_wR_factor_ref         0.2096
_refine_ls_wR_factor_gt          0.1884
_refine_ls_goodness_of_fit_ref   1.141
_refine_ls_restrained_S_all      1.144
_refine_ls_shift/su_max          0.006
_refine_ls_shift/su_mean         0
_refine_diff_density_max         1.548
_refine_diff_density_min         -0.916
_refine_diff_density_rms         0.116

#----------------------------------------------------------------------------#
# ATOMIC TYPES, COORDINATES AND THERMAL PARAMETERS #
#----------------------------------------------------------------------------#

loop_
_atom_type_symbol
_atom_type_description
_atom_type_scat_dispersion_real
_atom_type_scat_dispersion_imag
_atom_type_scat_source
C C 0.0033 0.0016 'International Tables Vol C Tables 4.2.6.8 and 6.1.1.4'
H H 0 0 'International Tables Vol C Tables 4.2.6.8 and 6.1.1.4'
N N 0.0061 0.0033 'International Tables Vol C Tables 4.2.6.8 and 6.1.1.4'
O O 0.0106 0.006 'International Tables Vol C Tables 4.2.6.8 and 6.1.1.4'
Zn Zn 0.2839 1.4301 'International Tables Vol C Tables 4.2.6.8 and 6.1.1.4'

loop_
_atom_site_label
_atom_site_type_symbol
_atom_site_fract_x
_atom_site_fract_y
_atom_site_fract_z
_atom_site_U_iso_or_equiv
_atom_site_adp_type
_atom_site_occupancy
_atom_site_symmetry_multiplicity
_atom_site_calc_flag
_atom_site_refinement_flags
_atom_site_disorder_assembly
_atom_site_disorder_group
C1 C 0.63777(10) 0.1476(3) -0.0237(3) 0.0211(9) Uani 1 1 d . . .
C2 C 0.63850(10) 0.0809(3) -0.0939(3) 0.0190(9) Uani 1 1 d . . .
C3 C 0.61154(10) 0.0515(3) -0.1538(3) 0.0220(9) Uani 1 1 d . . .
H3 H 0.593 0.0745 -0.1506 0.026 Uiso 1 1 calc R . .
C4 C 0.61192(10) -0.0115(3) -0.2178(3) 0.0250(10) Uani 1 1 d . . .
H4 H 0.5936 -0.0313 -0.2586 0.03 Uiso 1 1 calc R . .
C5 C 0.63892(10) -0.0463(3) -0.2232(3) 0.0209(9) Uani 1 1 d . . .
C6 C 0.66574(10) -0.0157(3) -0.1639(3) 0.0243(10) Uani 1 1 d . . .
H6 H 0.6843 -0.038 -0.168 0.029 Uiso 1 1 calc R . .
C7 C 0.66559(10) 0.0465(3) -0.0996(3) 0.0232(10) Uani 1 1 d . . .
H7 H 0.684 0.0662 -0.0589 0.028 Uiso 1 1 calc R . .
C8 C 0.63852(9) -0.1172(3) -0.2902(3) 0.0188(9) Uani 1 1 d . . .
C9 C 0.62610(10) 0.3466(3) 0.2335(3) 0.0226(9) Uani 1 1 d . . .
C10 C 0.62672(10) 0.4090(3) 0.3085(3) 0.0225(9) Uani 1 1 d . . .
C11 C 0.65383(10) 0.4428(3) 0.3602(3) 0.0252(10) Uani 1 1 d . . .
H11 H 0.6718 0.4224 0.3507 0.03 Uiso 1 1 calc R . .
C12 C 0.65521(10) 0.5054(3) 0.4254(3) 0.0240(10) Uani 1 1 d . . .
H12 H 0.674 0.5275 0.4611 0.029 Uiso 1 1 calc R . .
C13 C 0.62843(10) 0.5367(3) 0.4389(3) 0.0224(9) Uani 1 1 d . . .
C14 C 0.60117(10) 0.5007(3) 0.3884(3) 0.0252(10) Uani 1 1 d . . .
H14 H 0.5831 0.5199 0.3984 0.03 Uiso 1 1 calc R . .
C15 C 0.60021(10) 0.4370(3) 0.3237(3) 0.0261(10) Uani 1 1 d . . .
H15 H 0.5816 0.4125 0.2898 0.031 Uiso 1 1 calc R . .
C16 C 0.62947(10) 0.6120(3) 0.5032(3) 0.0219(9) Uani 1 1 d . . .
C17 C 0.53474(10) 0.2710(3) 0.0538(3) 0.0307(11) Uani 1 1 d U . .
H17 H 0.5425 0.3042 0.1077 0.037 Uiso 1 1 calc R . .
C18 C 0.50414(11) 0.2621(3) 0.0195(3) 0.0322(11) Uani 1 1 d U . .
H18 H 0.4912 0.2875 0.0496 0.039 Uiso 1 1 calc R . .
C19 C 0.49274(10) 0.2154(3) -0.0599(3) 0.0256(10) Uani 1 1 d . . .
C20 C 0.51201(10) 0.1803(3) -0.1033(3) 0.0256(10) Uani 1 1 d U . .
H20 H 0.5046 0.1494 -0.159 0.031 Uiso 1 1 calc R . .
C21 C 0.54273(10) 0.1919(3) -0.0623(3) 0.0249(10) Uani 1 1 d U . .
H21 H 0.5562 0.1676 -0.0912 0.03 Uiso 1 1 calc R . .
C22 C 0.44680(10) 0.1474(3) -0.0506(3) 0.0238(10) Uani 1 1 d . . .
C23 C 0.41382(10) 0.1385(3) -0.0876(3) 0.0231(9) Uani 1 1 d . . .
C24 C 0.39840(11) 0.0855(3) -0.0456(3) 0.0319(11) Uani 1 1 d . . .
H24 H 0.4092 0.0509 0.0047 0.038 Uiso 1 1 calc R . .
C25 C 0.36701(11) 0.0814(3) -0.0756(4) 0.0310(11) Uani 1 1 d . . .
H25 H 0.3566 0.044 -0.0461 0.037 Uiso 1 1 calc R . .
C26 C 0.35131(10) 0.1319(3) -0.1485(3) 0.0226(9) Uani 1 1 d . . .
C27 C 0.31834(10) 0.1305(3) -0.1775(3) 0.0259(10) Uani 1 1 d . . .
C28 C 0.31788(11) 0.2375(3) -0.3007(3) 0.0305(11) Uani 1 1 d . . .
C29 C 0.35108(10) 0.2356(3) -0.2711(3) 0.0227(9) Uani 1 1 d . . .
C30 C 0.36624(10) 0.2821(3) -0.3176(3) 0.0257(10) Uani 1 1 d . . .
H30 H 0.3555 0.314 -0.3701 0.031 Uiso 1 1 calc R . .
C31 C 0.39797(11) 0.2837(3) -0.2887(3) 0.0259(10) Uani 1 1 d . . .
H31 H 0.4083 0.3157 -0.3226 0.031 Uiso 1 1 calc R . .
C32 C 0.41376(10) 0.2396(3) -0.2125(3) 0.0221(9) Uani 1 1 d . . .
C33 C 0.44679(10) 0.2479(3) -0.1787(3) 0.0249(10) Uani 1 1 d . . .
C34 C 0.39826(9) 0.1874(3) -0.1640(3) 0.0203(9) Uani 1 1 d . . .
C35 C 0.36664(10) 0.1844(3) -0.1951(3) 0.0214(9) Uani 1 1 d . . .
C36 C 0.72353(10) 0.3113(3) 0.1126(3) 0.0248(10) Uani 1 1 d U . .
H36 H 0.7115 0.3223 0.0521 0.03 Uiso 1 1 calc R . .
C37 C 0.75379(10) 0.3273(3) 0.1346(3) 0.0263(10) Uani 1 1 d U . .
H37 H 0.7624 0.3499 0.0907 0.032 Uiso 1 1 calc R . .
C38 C 0.77154(10) 0.3095(3) 0.2226(3) 0.0295(11) Uani 1 1 d . . .
C39 C 0.75813(13) 0.2811(6) 0.2851(4) 0.070(2) Uani 1 1 d U . .
H39 H 0.7696 0.2717 0.3465 0.084 Uiso 1 1 calc R . .
C40 C 0.72749(13) 0.2662(5) 0.2572(4) 0.062(2) Uani 1 1 d U . .
H40 H 0.7184 0.2445 0.3003 0.074 Uiso 1 1 calc R . .
C41 C 0.75705(18) 0.4343(5) 0.8877(5) 0.070(2) Uani 1 1 d . . .
H41A H 0.7771 0.4084 0.9035 0.105 Uiso 1 1 calc R . .
H41B H 0.7432 0.3932 0.9029 0.105 Uiso 1 1 calc R . .
H41C H 0.7578 0.4887 0.9219 0.105 Uiso 1 1 calc R . .
C42 C 0.71611(15) 0.4814(4) 0.7511(6) 0.068(2) Uani 1 1 d . . .
H42A H 0.7122 0.5331 0.7834 0.102 Uiso 1 1 calc R . .
H42B H 0.7024 0.4342 0.7554 0.102 Uiso 1 1 calc R . .
H42C H 0.713 0.4962 0.6871 0.102 Uiso 1 1 calc R . .
C43 C 0.76609(15) 0.4455(4) 0.7436(5) 0.0542(16) Uani 1 1 d . . .
C44 C 0.53359(12) 0.0583(3) 0.1336(3) 0.0335(12) Uani 1 1 d . . .
H44A H 0.5515 0.08 0.1201 0.05 Uiso 1 1 calc R . .
H44B H 0.5159 0.0894 0.0959 0.05 Uiso 1 1 calc R . .
H44C H 0.5313 -0.0045 0.1206 0.05 Uiso 1 1 calc R . .
C45 C 0.54165(15) 0.1620(4) 0.2629(4) 0.0501(16) Uani 1 1 d . . .
H45A H 0.5452 0.1619 0.3288 0.075 Uiso 1 1 calc R . .
H45B H 0.524 0.1978 0.2339 0.075 Uiso 1 1 calc R . .
H45C H 0.5592 0.1864 0.249 0.075 Uiso 1 1 calc R . .
C46 C 0.53841(10) 0.0056(4) 0.2846(3) 0.0314(11) Uani 1 1 d . . .
C47 C 0.6215(3) 0.5678(9) 0.1365(9) 0.053(3) Uani 0.595(11) 1 d PU A 1
H47A H 0.6358 0.6014 0.1149 0.08 Uiso 0.595(11) 1 calc PR A 1
H47B H 0.6254 0.5052 0.1326 0.08 Uiso 0.595(11) 1 calc PR A 1
H47C H 0.6237 0.5834 0.1998 0.08 Uiso 0.595(11) 1 calc PR A 1
C48 C 0.5657(4) 0.5408(11) 0.0920(14) 0.053(4) Uani 0.595(11) 1 d PU A 1
H48A H 0.5633 0.5558 0.1512 0.079 Uiso 0.595(11) 1 calc PR A 1
H48B H 0.5694 0.4778 0.0898 0.079 Uiso 0.595(11) 1 calc PR A 1
H48C H 0.5474 0.5562 0.0438 0.079 Uiso 0.595(11) 1 calc PR A 1
C49 C 0.5868(3) 0.6505(9) 0.0123(8) 0.041(3) Uani 0.595(11) 1 d P A 1
N8 N 0.5904(3) 0.5883(6) 0.0793(6) 0.039(2) Uani 0.595(11) 1 d P A 1
O15 O 0.5614(2) 0.6703(8) -0.0364(8) 0.048(2) Uani 0.595(11) 1 d PU A 1
C50 C 0.5536(4) 0.4881(11) 0.0752(14) 0.062(4) Uani 0.405(11) 1 d PU A 2
H50A H 0.5447 0.4993 0.1241 0.093 Uiso 0.405(11) 1 calc PR A 2
H50B H 0.5657 0.4347 0.0888 0.093 Uiso 0.405(11) 1 calc PR A 2
H50C H 0.5376 0.4806 0.0178 0.093 Uiso 0.405(11) 1 calc PR A 2
C51 C 0.6031(5) 0.5621(13) 0.1262(13) 0.051(4) Uani 0.405(11) 1 d PU A 2
H51A H 0.6036 0.5535 0.1896 0.077 Uiso 0.405(11) 1 calc PR A 2
H51B H 0.6121 0.6188 0.12 0.077 Uiso 0.405(11) 1 calc PR A 2
H51C H 0.6145 0.5153 0.1082 0.077 Uiso 0.405(11) 1 calc PR A 2
C52 C 0.5608(4) 0.6210(11) 0.0024(11) 0.041(4) Uani 0.405(11) 1 d P A 2
N9 N 0.5721(4) 0.5602(12) 0.0678(14) 0.042(4) Uani 0.405(11) 1 d P A 2
O16 O 0.5754(3) 0.6867(12) -0.0084(11) 0.046(3) Uani 0.405(11) 1 d PU A 2
C53 C 0.6247(3) 0.2116(9) 0.4031(9) 0.031(3) Uani 0.373(7) 1 d P B 3
H53A H 0.623 0.2245 0.3396 0.046 Uiso 0.373(7) 1 calc PR B 3
H53B H 0.6082 0.2398 0.4193 0.046 Uiso 0.373(7) 1 calc PR B 3
H53C H 0.6238 0.1482 0.4112 0.046 Uiso 0.373(7) 1 calc PR B 3
C54 C 0.6884(12) 0.204(4) 0.450(5) 0.051(6) Uani 0.373(7) 1 d PU B 3
H54A H 0.6945 0.1519 0.4879 0.076 Uiso 0.373(7) 1 calc PR B 3
H54B H 0.7038 0.2496 0.4705 0.076 Uiso 0.373(7) 1 calc PR B 3
H54C H 0.6859 0.1896 0.3867 0.076 Uiso 0.373(7) 1 calc PR B 3
C55 C 0.6538(3) 0.3016(7) 0.5275(8) 0.024(3) Uani 0.373(7) 1 d P B 3
N10 N 0.6530(3) 0.2446(7) 0.4611(7) 0.027(3) Uani 0.373(7) 1 d P B 3
O17 O 0.6780(9) 0.329(2) 0.581(3) 0.045(5) Uani 0.373(7) 1 d PU B 3
C56 C 0.6820(7) 0.220(2) 0.446(3) 0.050(4) Uani 0.627(7) 1 d PU B 4
H56A H 0.6915 0.1633 0.4652 0.074 Uiso 0.627(7) 1 calc PR B 4
H56B H 0.6787 0.2279 0.3809 0.074 Uiso 0.627(7) 1 calc PR B 4
H56C H 0.6626 0.222 0.4587 0.074 Uiso 0.627(7) 1 calc PR B 4
C57 C 0.7269(3) 0.3524(10) 0.4878(10) 0.092(4) Uani 0.627(7) 1 d PU B 4
H57A H 0.729 0.4028 0.5285 0.138 Uiso 0.627(7) 1 calc PR B 4
H57B H 0.7219 0.3729 0.4248 0.138 Uiso 0.627(7) 1 calc PR B 4
H57C H 0.7458 0.3199 0.5033 0.138 Uiso 0.627(7) 1 calc PR B 4
C58 C 0.6928(3) 0.3297(8) 0.5631(7) 0.050(3) Uani 0.627(7) 1 d P B 4
N11 N 0.7021(2) 0.2929(6) 0.4983(6) 0.053(2) Uani 0.627(7) 1 d P B 4
O18 O 0.6724(6) 0.3070(15) 0.5905(18) 0.052(4) Uani 0.627(7) 1 d PU B 4
N1 N 0.55415(8) 0.2356(2) 0.0157(3) 0.0204(8) Uani 1 1 d . . .
N2 N 0.71013(8) 0.2810(3) 0.1721(2) 0.0240(8) Uani 1 1 d . . .
N3 N 0.46091(8) 0.2029(3) -0.0979(2) 0.0241(8) Uani 1 1 d . . .
N4 N 0.30357(8) 0.1826(3) -0.2527(3) 0.0273(9) Uani 1 1 d . . .
N5 N 0.74682(11) 0.4530(3) 0.7916(4) 0.0525(14) Uani 1 1 d . . .
N6 N 0.53660(9) 0.0732(3) 0.2289(3) 0.0315(9) Uani 1 1 d . . .
O1 O 0.61236(7) 0.1738(2) -0.0207(2) 0.0254(7) Uani 1 1 d . . .
O2 O 0.66267(7) 0.1739(2) 0.0274(2) 0.0296(8) Uani 1 1 d . . .
O3 O 0.61351(7) -0.1432(2) -0.3401(2) 0.0263(7) Uani 1 1 d . . .
O4 O 0.66350(7) -0.1489(2) -0.2902(2) 0.0284(7) Uani 1 1 d . . .
O5 O 0.60051(7) 0.3214(2) 0.1829(2) 0.0284(7) Uani 1 1 d . . .
O6 O 0.65075(7) 0.3257(2) 0.2227(2) 0.0266(7) Uani 1 1 d . . .
O7 O 0.60480(7) 0.6416(2) 0.5063(2) 0.0268(7) Uani 1 1 d . . .
O8 O 0.65505(7) 0.6406(2) 0.5454(2) 0.0278(7) Uani 1 1 d . . .
O9 O 0.46174(7) 0.1090(2) 0.0170(2) 0.0306(8) Uani 1 1 d . . .
O10 O 0.46092(7) 0.2925(2) -0.2149(2) 0.0327(8) Uani 1 1 d . . .
O11 O 0.30379(7) 0.0878(2) -0.1387(2) 0.0339(8) Uani 1 1 d . . .
O12 O 0.30359(7) 0.2829(2) -0.3625(2) 0.0357(8) Uani 1 1 d . . .
O13 O 0.75943(11) 0.4609(3) 0.6595(4) 0.0673(13) Uani 1 1 d . . .
O14 O 0.53740(8) -0.0716(2) 0.2627(3) 0.0370(9) Uani 1 1 d . . .
Zn1 Zn 0.599400(11) 0.24614(3) 0.07209(3) 0.01873(15) Uani 1 1 d . . .
Zn2 Zn 0.665680(10) 0.25575(3) 0.13281(3) 0.01855(15) Uani 1 1 d . . .

loop_
_atom_site_aniso_label
_atom_site_aniso_U_11
_atom_site_aniso_U_22
_atom_site_aniso_U_33
_atom_site_aniso_U_23
_atom_site_aniso_U_13
_atom_site_aniso_U_12
C1 0.029(2) 0.021(2) 0.015(2) 0.0021(18) 0.0088(18) -0.0006(18)
C2 0.023(2) 0.017(2) 0.020(2) 0.0008(17) 0.0107(17) -0.0010(17)
C3 0.021(2) 0.023(2) 0.023(2) 0.0000(19) 0.0094(18) -0.0036(18)
C4 0.028(2) 0.024(2) 0.021(2) -0.0010(19) 0.0046(19) -0.0049(19)
C5 0.024(2) 0.015(2) 0.025(2) 0.0000(18) 0.0093(18) -0.0012(17)
C6 0.022(2) 0.026(2) 0.025(2) 0.001(2) 0.0069(18) 0.0012(18)
C7 0.018(2) 0.028(2) 0.024(2) 0.0038(19) 0.0076(18) -0.0009(18)
C8 0.021(2) 0.021(2) 0.017(2) 0.0021(17) 0.0088(17) -0.0035(17)
C9 0.029(2) 0.023(2) 0.017(2) 0.0029(18) 0.0095(18) -0.0003(18)
C10 0.026(2) 0.025(2) 0.020(2) 0.0050(19) 0.0116(18) -0.0011(18)
C11 0.023(2) 0.031(3) 0.026(2) -0.007(2) 0.0133(19) -0.0015(19)
C12 0.021(2) 0.028(3) 0.023(2) -0.004(2) 0.0066(18) 0.0014(18)
C13 0.023(2) 0.026(2) 0.021(2) 0.0026(19) 0.0108(18) 0.0021(18)
C14 0.024(2) 0.034(3) 0.022(2) 0.005(2) 0.0135(19) 0.0007(19)
C15 0.026(2) 0.034(3) 0.020(2) -0.001(2) 0.0094(19) -0.004(2)
C16 0.028(2) 0.026(2) 0.015(2) 0.0068(18) 0.0102(18) 0.0035(19)
C17 0.021(2) 0.046(3) 0.026(2) -0.003(2) 0.0078(19) -0.003(2)
C18 0.024(2) 0.047(3) 0.027(3) -0.006(2) 0.009(2) -0.004(2)
C19 0.018(2) 0.036(3) 0.020(2) 0.003(2) 0.0021(17) -0.0038(19)
C20 0.025(2) 0.030(3) 0.022(2) -0.002(2) 0.0074(18) -0.0040(19)
C21 0.021(2) 0.032(3) 0.021(2) 0.001(2) 0.0053(18) -0.0038(19)
C22 0.019(2) 0.030(3) 0.022(2) 0.000(2) 0.0056(18) -0.0002(18)
C23 0.022(2) 0.022(2) 0.025(2) 0.0041(19) 0.0067(18) 0.0029(18)
C24 0.024(2) 0.035(3) 0.035(3) 0.012(2) 0.005(2) 0.001(2)
C25 0.025(2) 0.029(3) 0.044(3) 0.009(2) 0.017(2) -0.0004(19)
C26 0.023(2) 0.021(2) 0.025(2) -0.0040(19) 0.0090(18) 0.0012(17)
C27 0.025(2) 0.028(3) 0.027(2) -0.002(2) 0.0111(19) 0.0014(19)
C28 0.021(2) 0.044(3) 0.025(2) -0.005(2) 0.0039(19) 0.002(2)
C29 0.023(2) 0.024(2) 0.021(2) -0.0024(19) 0.0072(18) 0.0029(18)
C30 0.027(2) 0.031(3) 0.020(2) 0.001(2) 0.0082(19) 0.0059(19)
C31 0.034(3) 0.022(2) 0.023(2) 0.0049(19) 0.011(2) 0.002(2)
C32 0.021(2) 0.025(2) 0.021(2) -0.0019(1