####################################################################### 
# 
# This file contains crystal structure data downloaded from the 
# Cambridge Structural Database (CSD) hosted by the Cambridge 
# Crystallographic Data Centre (CCDC).
# 
# Full information about CCDC data access policies and citation 
# guidelines are available at http://www.ccdc.cam.ac.uk/access/V1 
# 
# Audit and citation data items may have been added by the CCDC. 
# Please retain this information to preserve the provenance of 
# this file and to allow appropriate attribution of the data. 
# 
#######################################################################

data_import
_audit_block_doi                 10.5517/cc6q2gf
_database_code_depnum_ccdc_archive 'CCDC 199964'
loop_
_citation_id
_citation_doi
_citation_year
1 10.1016/S1631-0748(03)00057-2 2003
2 10.1021/cg9011668 2010
_audit_update_record             
;
2002-12-16 deposited with the CCDC.	2024-07-12 downloaded from the CCDC.
;

_audit_creation_method           SHELXL-97
_chemical_name_systematic        
; 
? 
;
_chemical_name_common            ?
_chemical_melting_point          ?
_chemical_formula_moiety         ?
_chemical_formula_sum            'C4.50 H27 Er1.50 O22.50'
_chemical_formula_weight         692.15

loop_
_atom_type_symbol
_atom_type_description
_atom_type_scat_dispersion_real
_atom_type_scat_dispersion_imag
_atom_type_scat_source
C C 0.0033 0.0016 'International Tables Vol C Tables 4.2.6.8 and 6.1.1.4'
H H 0.0000 0.0000 'International Tables Vol C Tables 4.2.6.8 and 6.1.1.4'
O O 0.0106 0.0060 'International Tables Vol C Tables 4.2.6.8 and 6.1.1.4'
Er Er -0.2586 4.9576 'International Tables Vol C Tables 4.2.6.8 and 6.1.1.4'

_symmetry_cell_setting           ?
_symmetry_space_group_name_H-M   ?

loop_
_symmetry_equiv_pos_as_xyz
'x, y, z'
'-y, x-y, z'
'-x+y, -x, z'
'x+2/3, y+1/3, z+1/3'
'-y+2/3, x-y+1/3, z+1/3'
'-x+y+2/3, -x+1/3, z+1/3'
'x+1/3, y+2/3, z+2/3'
'-y+1/3, x-y+2/3, z+2/3'
'-x+y+1/3, -x+2/3, z+2/3'
'-x, -y, -z'
'y, -x+y, -z'
'x-y, x, -z'
'-x+2/3, -y+1/3, -z+1/3'
'y+2/3, -x+y+1/3, -z+1/3'
'x-y+2/3, x+1/3, -z+1/3'
'-x+1/3, -y+2/3, -z+2/3'
'y+1/3, -x+y+2/3, -z+2/3'
'x-y+1/3, x+2/3, -z+2/3'

_cell_length_a                   30.8690(10)
_cell_length_b                   30.8690(10)
_cell_length_c                   7.2307(2)
_cell_angle_alpha                90.00
_cell_angle_beta                 90.00
_cell_angle_gamma                120.00
_cell_volume                     5967.0(3)
_cell_formula_units_Z            12
_cell_measurement_temperature    293(2)
_cell_measurement_reflns_used    ?
_cell_measurement_theta_min      ?
_cell_measurement_theta_max      ?

_exptl_crystal_description       ?
_exptl_crystal_colour            ?
_exptl_crystal_size_max          ?
_exptl_crystal_size_mid          ?
_exptl_crystal_size_min          ?
_exptl_crystal_density_meas      ?
_exptl_crystal_density_diffrn    2.311
_exptl_crystal_density_method    'not measured'
_exptl_crystal_F_000             4032
_exptl_absorpt_coefficient_mu    6.405
_exptl_absorpt_correction_type   ?
_exptl_absorpt_correction_T_min  ?
_exptl_absorpt_correction_T_max  ?
_exptl_absorpt_process_details   ?

_exptl_special_details           
; 
? 
;

_diffrn_ambient_temperature      293(2)
_diffrn_radiation_wavelength     0.71073
_diffrn_radiation_type           MoK\a
_diffrn_radiation_source         'fine-focus sealed tube'
_diffrn_radiation_monochromator  graphite
_diffrn_measurement_device_type  ?
_diffrn_measurement_method       ?
_diffrn_detector_area_resol_mean ?
_diffrn_standards_number         ?
_diffrn_standards_interval_count ?
_diffrn_standards_interval_time  ?
_diffrn_standards_decay_%        ?
_diffrn_reflns_number            25809
_diffrn_reflns_av_R_equivalents  0.0711
_diffrn_reflns_av_sigmaI/netI    0.0364
_diffrn_reflns_limit_h_min       -38
_diffrn_reflns_limit_h_max       40
_diffrn_reflns_limit_k_min       -40
_diffrn_reflns_limit_k_max       38
_diffrn_reflns_limit_l_min       -9
_diffrn_reflns_limit_l_max       9
_diffrn_reflns_theta_min         1.32
_diffrn_reflns_theta_max         27.46
_reflns_number_total             3036
_reflns_number_gt                2419
_reflns_threshold_expression     >2sigma(I)

_computing_data_collection       ?
_computing_cell_refinement       ?
_computing_data_reduction        ?
_computing_structure_solution    'SHELXS-97 (Sheldrick, 1990)'
_computing_structure_refinement  'SHELXL-97 (Sheldrick, 1997)'
_computing_molecular_graphics    ?
_computing_publication_material  ?

_refine_special_details          
; 
Refinement of F^2^ against ALL reflections.  The weighted R-factor wR and 
goodness of fit S are based on F^2^, conventional R-factors R are based 
on F, with F set to zero for negative F^2^. The threshold expression of 
F^2^ > 2sigma(F^2^) is used only for calculating R-factors(gt) etc. and is 
not relevant to the choice of reflections for refinement.  R-factors based 
on F^2^ are statistically about twice as large as those based on F, and R- 
factors based on ALL data will be even larger. 
;

_refine_ls_structure_factor_coef Fsqd
_refine_ls_matrix_type           full
_refine_ls_weighting_scheme      calc
_refine_ls_weighting_details     
'calc w=1/[\s^2^(Fo^2^)+(0.0650P)^2^+42.0485P] where P=(Fo^2^+2Fc^2^)/3'
_atom_sites_solution_primary     direct
_atom_sites_solution_secondary   difmap
_atom_sites_solution_hydrogens   geom
_refine_ls_hydrogen_treatment    mixed
_refine_ls_extinction_method     none
_refine_ls_extinction_coef       ?
_refine_ls_number_reflns         3036
_refine_ls_number_parameters     172
_refine_ls_number_restraints     0
_refine_ls_R_factor_all          0.0576
_refine_ls_R_factor_gt           0.0424
_refine_ls_wR_factor_ref         0.1208
_refine_ls_wR_factor_gt          0.1118
_refine_ls_goodness_of_fit_ref   1.164
_refine_ls_restrained_S_all      1.164
_refine_ls_shift/su_max          0.000
_refine_ls_shift/su_mean         0.000

loop_
_atom_site_label
_atom_site_type_symbol
_atom_site_fract_x
_atom_site_fract_y
_atom_site_fract_z
_atom_site_U_iso_or_equiv
_atom_site_adp_type
_atom_site_occupancy
_atom_site_symmetry_multiplicity
_atom_site_calc_flag
_atom_site_refinement_flags
_atom_site_disorder_assembly
_atom_site_disorder_group
Er01 Er 0.220822(11) 0.110153(11) 0.32744(4) 0.02432(13) Uani 1 1 d . . .
O002 O 0.10747(17) 0.16010(18) 0.4483(7) 0.0267(10) Uani 1 1 d . . .
O003 O 0.18690(17) 0.21246(17) 0.6588(7) 0.0264(10) Uani 1 1 d . . .
O004 O 0.28281(17) 0.10711(17) 0.1256(7) 0.0268(10) Uani 1 1 d . . .
O005 O 0.36036(17) 0.14583(17) 0.0051(7) 0.0273(10) Uani 1 1 d . . .
O006 O 0.14376(17) 0.11962(17) 0.3250(7) 0.0261(10) Uani 1 1 d . . .
O007 O 0.22310(17) 0.17184(18) 0.5375(7) 0.0267(10) Uani 1 1 d . . .
O008 O 0.27101(18) 0.11114(19) 0.5877(7) 0.0308(11) Uani 1 1 d . . .
O009 O 0.2427(2) 0.0336(2) 0.8398(8) 0.0388(13) Uani 1 1 d . . .
O010 O 0.1668(2) 0.0562(2) 0.0882(7) 0.0338(12) Uani 1 1 d . . .
O011 O 0.2238(2) 0.16297(19) 0.0734(7) 0.0335(12) Uani 1 1 d . . .
O012 O 0.3653(2) 0.1266(2) 0.5184(8) 0.0381(13) Uani 1 1 d . . .
O013 O 0.0357(2) 0.1219(3) 0.1773(9) 0.0534(17) Uani 1 1 d . . .
C015 C 0.3265(2) 0.1434(2) 0.1070(9) 0.0212(13) Uani 1 1 d . . .
O016 O 0.2839(2) 0.2855(2) 0.7399(10) 0.0517(16) Uani 1 1 d . . .
C018 C 0.1420(2) 0.1506(2) 0.4312(9) 0.0232(13) Uani 1 1 d . . .
O019 O 0.3622(3) 0.0566(2) -0.0091(10) 0.0552(18) Uani 1 1 d . . .
C020 C 0.1883(2) 0.1813(2) 0.5547(9) 0.0211(13) Uani 1 1 d . . .
O30 O 0.0549(6) 0.0331(6) 0.251(6) 0.33(2) Uani 1 1 d . . .

loop_
_atom_site_aniso_label
_atom_site_aniso_U_11
_atom_site_aniso_U_22
_atom_site_aniso_U_33
_atom_site_aniso_U_23
_atom_site_aniso_U_13
_atom_site_aniso_U_12
Er01 0.02322(19) 0.01970(18) 0.0304(2) 0.00135(11) 0.00324(12) 0.01096(13)
O002 0.022(2) 0.028(2) 0.037(3) -0.010(2) -0.006(2) 0.017(2)
O003 0.020(2) 0.024(2) 0.037(3) -0.009(2) -0.0034(19) 0.012(2)
O004 0.022(2) 0.017(2) 0.037(3) -0.0018(19) 0.005(2) 0.0069(19)
O005 0.022(2) 0.019(2) 0.038(3) -0.002(2) 0.009(2) 0.0087(19)
O006 0.024(2) 0.024(2) 0.032(3) -0.009(2) -0.0039(19) 0.014(2)
O007 0.018(2) 0.026(2) 0.039(3) -0.009(2) -0.005(2) 0.013(2)
O008 0.025(2) 0.029(3) 0.034(3) 0.007(2) -0.004(2) 0.011(2)
O009 0.039(3) 0.030(3) 0.039(3) -0.001(2) -0.004(2) 0.011(2)
O010 0.040(3) 0.030(3) 0.033(3) -0.004(2) -0.006(2) 0.018(2)
O011 0.037(3) 0.031(3) 0.037(3) 0.015(2) 0.008(2) 0.020(2)
O012 0.029(3) 0.047(3) 0.034(3) -0.004(2) -0.004(2) 0.016(3)
O013 0.036(3) 0.081(5) 0.044(4) -0.009(3) -0.009(3) 0.030(3)
C015 0.020(3) 0.017(3) 0.028(3) 0.002(3) 0.000(3) 0.011(3)
O016 0.030(3) 0.045(4) 0.071(4) -0.011(3) 0.001(3) 0.012(3)
C018 0.021(3) 0.022(3) 0.026(3) -0.001(3) -0.002(2) 0.011(3)
O019 0.067(4) 0.031(3) 0.071(5) 0.007(3) 0.020(4) 0.026(3)
C020 0.018(3) 0.022(3) 0.025(3) 0.000(3) -0.001(2) 0.012(3)
O30 0.111(12) 0.096(12) 0.76(6) -0.07(2) -0.13(2) 0.029(9)

_geom_special_details            
; 
All esds (except the esd in the dihedral angle between two l.s. planes) 
are estimated using the full covariance matrix.  The cell esds are taken 
into account individually in the estimation of esds in distances, angles 
and torsion angles; correlations between esds in cell parameters are only 
used when they are defined by crystal symmetry.  An approximate (isotropic) 
treatment of cell esds is used for estimating esds involving l.s. planes. 
;

loop_
_geom_bond_atom_site_label_1
_geom_bond_atom_site_label_2
_geom_bond_distance
_geom_bond_site_symmetry_2
_geom_bond_publ_flag
Er01 O010 2.402(5) . ?
Er01 O007 2.409(5) . ?
Er01 O011 2.427(5) . ?
Er01 O008 2.428(5) . ?
Er01 O004 2.445(5) . ?
Er01 O002 2.443(5) 11_556 ?
Er01 O003 2.494(4) 11_556 ?
Er01 O005 2.523(5) 13 ?
Er01 O006 2.537(5) . ?
O002 C018 1.247(8) . ?
O002 Er01 2.443(5) 12_556 ?
O003 C020 1.240(8) . ?
O003 Er01 2.494(4) 12_556 ?
O004 C015 1.257(8) . ?
O005 C015 1.251(8) . ?
O005 Er01 2.523(5) 13 ?
O006 C018 1.248(8) . ?
O007 C020 1.252(8) . ?
C015 C015 1.542(12) 13 ?
C018 C020 1.543(9) . ?

loop_
_geom_angle_atom_site_label_1
_geom_angle_atom_site_label_2
_geom_angle_atom_site_label_3
_geom_angle
_geom_angle_site_symmetry_1
_geom_angle_site_symmetry_3
_geom_angle_publ_flag
O010 Er01 O007 137.56(17) . . ?
O010 Er01 O011 72.57(19) . . ?
O007 Er01 O011 88.26(17) . . ?
O010 Er01 O008 141.65(18) . . ?
O007 Er01 O008 74.64(17) . . ?
O011 Er01 O008 140.25(18) . . ?
O010 Er01 O004 80.14(17) . . ?
O007 Er01 O004 133.82(15) . . ?
O011 Er01 O004 78.88(17) . . ?
O008 Er01 O004 87.51(17) . . ?
O010 Er01 O002 87.69(17) . 11_556 ?
O007 Er01 O002 82.22(16) . 11_556 ?
O011 Er01 O002 138.40(17) . 11_556 ?
O008 Er01 O002 75.37(17) . 11_556 ?
O004 Er01 O002 134.34(15) . 11_556 ?
O010 Er01 O003 68.30(17) . 11_556 ?
O007 Er01 O003 138.52(17) . 11_556 ?
O011 Er01 O003 133.07(18) . 11_556 ?
O008 Er01 O003 73.36(17) . 11_556 ?
O004 Er01 O003 69.94(15) . 11_556 ?
O002 Er01 O003 64.68(15) 11_556 11_556 ?
O010 Er01 O005 133.85(18) . 13 ?
O007 Er01 O005 69.34(15) . 13 ?
O011 Er01 O005 72.29(18) . 13 ?
O008 Er01 O005 68.14(17) . 13 ?
O004 Er01 O005 64.49(15) . 13 ?
O002 Er01 O005 138.24(17) 11_556 13 ?
O003 Er01 O005 120.17(15) 11_556 13 ?
O010 Er01 O006 73.09(17) . . ?
O007 Er01 O006 64.66(15) . . ?
O011 Er01 O006 68.88(17) . . ?
O008 Er01 O006 129.27(17) . . ?
O004 Er01 O006 142.83(16) . . ?
O002 Er01 O006 70.46(16) 11_556 . ?
O003 Er01 O006 120.57(15) 11_556 . ?
O005 Er01 O006 119.22(15) 13 . ?
C018 O002 Er01 122.4(4) . 12_556 ?
C020 O003 Er01 120.4(4) . 12_556 ?
C015 O004 Er01 122.7(4) . . ?
C015 O005 Er01 120.2(4) . 13 ?
C018 O006 Er01 119.0(4) . . ?
C020 O007 Er01 123.9(4) . . ?
O005 C015 O004 127.4(6) . . ?
O005 C015 C015 116.2(7) . 13 ?
O004 C015 C015 116.3(7) . 13 ?
O002 C018 O006 127.7(6) . . ?
O002 C018 C020 115.8(6) . . ?
O006 C018 C020 116.5(6) . . ?
O003 C020 O007 127.4(6) . . ?
O003 C020 C018 116.6(5) . . ?
O007 C020 C018 116.0(6) . . ?

_diffrn_measured_fraction_theta_max 1.000
_diffrn_reflns_theta_full        27.46
_diffrn_measured_fraction_theta_full 1.000
_refine_diff_density_max         5.613
_refine_diff_density_min         -1.809
_refine_diff_density_rms         0.236




