
#######################################################################
#
#                 Cambridge Crystallographic Data Centre
#                                CCDC
#
#######################################################################
#
# If this CIF has been generated from an entry in the Cambridge
# Structural Database, then it will include bibliographic, chemical,
# crystal, experimental, refinement or atomic coordinate data resulting
# from the CCDC's data processing and validation procedures.
#
#######################################################################

data_CSD_CIF_OJUZIC
_audit_creation_date 2003-12-12
_audit_creation_method CSD-ConQuest-V1
_database_code_CSD OJUZIC
_database_code_depnum_ccdc_archive 'CCDC 188836'
_chemical_formula_sum 'C88 H122 N14 O14'
_chemical_formula_moiety
;
C32 H28 N4 O4,C56 H94 N10 O10
;
_journal_coden_Cambridge 179
_journal_volume 42
_journal_year 2003
_journal_page_first 3379
_journal_name_full 'Angew.Chem.,Int.Ed. '
loop_
_publ_author_name
"T.J.Kidd"
"T.J.A.Loontjens"
"D.A.Leigh"
"J.K.Y.Wong"
_chemical_name_systematic
;
(2)-(2,8,10,16-Tetraoxo-3,7,11,15-tetra-aza-1,9(1,3),5,13(1,4)-tetrabenzenacyc
lohexadecaphane)-(N,N,N',N'-tetrakis(6-((2-oxoazepan-1-yl)carbonylamino)hexyl)
but-2-enediamide)-rotaxane
;
_chemical_name_common
;
Teaching Subset: Fundamental Chemistry, Symmetry
;
_chemical_melting_point 437.4
_cell_volume   2121.962
_exptl_crystal_colour 'colorless'
_exptl_crystal_density_diffrn 1.246
_exptl_special_details
;
Melting point range 437.4-439.7K
Two N atoms have been refined as C atoms in the supplementary data, the atom 
labels have been changed to N atoms and the authors have confirmed this 
change
;
_exptl_crystal_description 'block'
_exptl_crystal_preparation 'diethyl ether/chloroform'
_diffrn_ambient_temperature 180
#These two values have been output from a single CSD field.
_refine_ls_R_factor_gt 0.0607
_refine_ls_wR_factor_gt 0.0607
_symmetry_cell_setting triclinic
_symmetry_space_group_name_H-M 'P -1'
_symmetry_Int_Tables_number 2
loop_
_symmetry_equiv_pos_site_id
_symmetry_equiv_pos_as_xyz
1 x,y,z
2 -x,-y,-z
_cell_length_a 10.9198(2)
_cell_length_b 14.0083(2)
_cell_length_c 14.8010(1)
_cell_angle_alpha 83.35
_cell_angle_beta 88.44
_cell_angle_gamma 70.673(1)
_cell_formula_units_Z 1
loop_
_atom_type_symbol
_atom_type_radius_bond
C 0.68
H 0.23
N 0.68
O 0.68
loop_
_atom_site_label
_atom_site_type_symbol
_atom_site_fract_x
_atom_site_fract_y
_atom_site_fract_z
N1 N 0.39885(17) 0.89977(13) 0.36420(11)
C1 C 0.4721(2) 0.95269(14) 0.38838(13)
O1 O 0.53624(14) 0.98889(11) 0.33173(10)
C2 C 0.4776(2) 0.96621(15) 0.48607(14)
H1 H 0.44740 0.92430 0.52990
C3 C 0.3100(2) 0.86392(17) 0.42482(14)
H2 H 0.22960 0.87310 0.39040
H3 H 0.28580 0.90690 0.47540
C4 C 0.3657(2) 0.75409(18) 0.46421(16)
H4 H 0.43250 0.74740 0.51060
H5 H 0.40830 0.71230 0.41540
C5 C 0.2607(2) 0.71377(18) 0.50796(17)
H6 H 0.22180 0.75320 0.55900
H7 H 0.19110 0.72480 0.46250
C6 C 0.3121(3) 0.6020(2) 0.54307(19)
H8 H 0.36790 0.59340 0.59710
H9 H 0.36740 0.56470 0.49580
C7 C 0.2076(3) 0.55354(19) 0.56918(16)
H10 H 0.15240 0.56130 0.51510
H11 H 0.25030 0.47970 0.58700
C8 C 0.1227(3) 0.59820(17) 0.64529(17)
H12 H 0.17750 0.60170 0.69620
H13 H 0.06660 0.66830 0.62410
N2 N 0.04263(19) 0.53692(14) 0.67687(13)
H14 H 0.006(3) 0.501(2) 0.646(2)
C9 C 0.0048(2) 0.52858(17) 0.76337(16)
O2 O 0.03423(19) 0.56863(14) 0.82448(12)
N3 N -0.07409(18) 0.46469(13) 0.78509(13)
C10 C -0.1189(3) 0.46265(19) 0.88171(17)
H15 H -0.21240 0.47030 0.88220
H16 H -0.10930 0.52170 0.90790
C11 C -0.0450(3) 0.3652(2) 0.94235(17)
H17 H 0.04870 0.34730 0.92880
H18 H -0.05640 0.37900 1.00670
C12 C -0.0875(3) 0.2739(2) 0.93107(18)
H19 H -0.03190 0.21400 0.97040
H20 H -0.17790 0.28820 0.95220
C13 C -0.0802(3) 0.2480(2) 0.83413(18)
H21 H -0.10370 0.18570 0.83330
H22 H 0.01070 0.23250 0.81360
C14 C -0.1671(3) 0.3310(2) 0.76699(18)
H23 H -0.19110 0.29920 0.71700
H24 H -0.24790 0.36680 0.79810
C15 C -0.1064(2) 0.40786(18) 0.72696(16)
O3 O -0.08027(19) 0.41384(14) 0.64482(11)
C16 C 0.4020(2) 0.87812(16) 0.26913(13)
H25 H 0.39190 0.81060 0.26790
H26 H 0.48810 0.87430 0.24380
C17 C 0.2980(2) 0.95635(16) 0.20863(14)
H27 H 0.30960 1.02370 0.20710
H28 H 0.21150 0.96190 0.23420
C18 C 0.3043(2) 0.92712(16) 0.11235(14)
H29 H 0.30350 0.85640 0.11530
H30 H 0.38760 0.92860 0.08520
C19 C 0.1937(2) 0.99609(17) 0.05044(15)
H31 H 0.18470 1.06790 0.05550
H32 H 0.11180 0.98550 0.07120
C20 C 0.2144(2) 0.97668(19) -0.04932(15)
H33 H 0.23140 0.90340 -0.05330
H34 H 0.13330 1.01500 -0.08380
C21 C 0.3252(2) 1.00662(17) -0.09430(15)
H35 H 0.40330 0.97710 -0.05470
H36 H 0.34530 0.97670 -0.15260
N4 N 0.2975(2) 1.11678(15) -0.11215(13)
H37 H 0.258(2) 1.1663(18) -0.1783(17)
C22 C 0.3310(2) 1.16953(17) -0.05330(15)
O4 O 0.37056(17) 1.13633(13) 0.02447(11)
N5 N 0.31900(18) 1.27299(14) -0.08578(12)
C23 C 0.3049(2) 1.31425(18) -0.17546(16)
O5 O 0.27459(18) 1.27135(14) -0.23556(11)
C24 C 0.3361(3) 1.40992(18) -0.20041(17)
H38 H 0.27540 1.46460 -0.16850
H39 H 0.32090 1.43010 -0.26660
C25 C 0.4740(3) 1.40247(18) -0.17787(17)
H40 H 0.53300 1.33440 -0.18970
H41 H 0.49820 1.45370 -0.21960
C26 C 0.4961(3) 1.41842(18) -0.08107(17)
H42 H 0.43950 1.48740 -0.06990
H43 H 0.58720 1.41570 -0.07440
C27 C 0.4698(3) 1.34129(18) -0.00866(16)
H44 H 0.53440 1.27340 -0.01440
H45 H 0.48210 1.36000 0.05210
C28 C 0.3352(3) 1.33394(19) -0.01429(16)
H46 H 0.31440 1.30330 0.04530
H47 H 0.27190 1.40360 -0.02600
C29 C 0.2823(2) 1.25565(19) 0.25403(16)
H48 H 0.24810 1.21970 0.21250
H49 H 0.24760 1.32950 0.23330
N6 N 0.42313(19) 1.22136(15) 0.24951(13)
H50 H 0.463(3) 1.156(2) 0.2599(18)
C30 C 0.4919(2) 1.28515(16) 0.23861(15)
O6 O 0.4414(2) 1.37876(12) 0.22694(13)
C31 C 0.6367(2) 1.23612(16) 0.23781(14)
C32 C 0.6988(2) 1.13875(16) 0.27982(13)
H51 H 0.64920 1.10270 0.31330
C33 C 0.8323(2) 1.09303(17) 0.27374(14)
C34 C 0.9039(2) 1.14739(19) 0.22681(15)
H52 H 0.99530 1.11700 0.22250
C35 C 0.8440(3) 1.2455(2) 0.18604(16)
H53 H 0.89420 1.28230 0.15430
C36 C 0.7110(3) 1.28983(18) 0.19159(15)
H54 H 0.67000 1.35730 0.16380
C37 C 0.9021(2) 0.98574(18) 0.31439(15)
O7 O 1.02025(17) 0.95535(16) 0.32391(15)
N7 N 0.83021(19) 0.92550(14) 0.33665(13)
H55 H 0.742(3) 0.950(2) 0.3306(18)
C38 C 0.8866(2) 0.81957(16) 0.37554(15)
H56 H 0.98240 0.80050 0.37560
H57 H 0.86250 0.77540 0.33680
C39 C 0.8420(2) 0.80088(15) 0.47159(14)
C40 C 0.7817(2) 0.72893(17) 0.49373(16)
H58 H 0.76740 0.69130 0.44800
C41 C 0.7420(2) 0.71109(18) 0.58162(17)
H59 H 0.69930 0.66220 0.59560
C42 C 0.2361(2) 1.23588(16) 0.35045(15)
C43 C 0.1767(2) 1.16381(17) 0.37213(15)
H60 H 0.16250 1.12640 0.32620
C44 C 0.8628(2) 0.85479(16) 0.53979(15)
H61 H 0.90420 0.90450 0.52580
C2A C 0.5224(2) 1.03379(15) 0.51393(14)
C1A C 0.5279(2) 1.04731(14) 0.61162(13)
N1A N 0.60115(17) 1.10023(13) 0.63580(11)
C3A C 0.6900(2) 1.13608(17) 0.57518(14)
H2A H 0.77040 1.12690 0.60960
H3A H 0.71420 1.09310 0.52460
C4A C 0.6343(2) 1.24591(18) 0.53579(16)
H4A H 0.56750 1.25260 0.48940
H5A H 0.59170 1.28770 0.58460
C5A C 0.7393(2) 1.28623(18) 0.49204(17)
H6A H 0.77820 1.24680 0.44100
H7A H 0.80890 1.27520 0.53750
C6A C 0.6879(3) 1.3980(2) 0.45693(19)
H8A H 0.63210 1.40660 0.40290
H9A H 0.63260 1.43530 0.50420
C7A C 0.7924(3) 1.44646(19) 0.43082(16)
H10A H 0.84760 1.43870 0.48490
H11A H 0.74970 1.52030 0.41300
C8A C 0.8773(3) 1.40180(17) 0.35471(17)
H12A H 0.82250 1.39830 0.30380
H13A H 0.93340 1.33170 0.37590
N2A N 0.95737(19) 1.46308(14) 0.32313(13)
H14A H 0.994(3) 1.499(2) 0.354(2)
C9A C 0.9952(2) 1.47142(17) 0.23663(16)
O2A O 0.96577(19) 1.43137(14) 0.17552(12)
N3A N 1.07409(18) 1.53531(13) 0.21491(13)
C10A C 1.1189(3) 1.53735(19) 0.11829(17)
H15A H 1.21240 1.52970 0.11780
H16A H 1.10930 1.47830 0.09210
C11A C 1.0450(3) 1.6348(2) 0.05765(17)
H17A H 0.95130 1.65270 0.07120
H18A H 1.05640 1.62100 -0.00670
C12A C 1.0875(3) 1.7261(2) 0.06893(18)
H19A H 1.03190 1.78600 0.02960
H20A H 1.17790 1.71180 0.04780
C13A C 1.0802(3) 1.7520(2) 0.16587(18)
H21A H 1.10370 1.81430 0.16670
H22A H 0.98930 1.76750 0.18640
C14A C 1.1671(3) 1.6690(2) 0.23301(18)
H23A H 1.19110 1.70080 0.28300
H24A H 1.24790 1.63320 0.20190
C15A C 1.1064(2) 1.59214(18) 0.27304(16)
O3A O 1.08027(19) 1.58616(14) 0.35518(11)
C16A C 0.5980(2) 1.12188(16) 0.73087(13)
H25A H 0.60810 1.18940 0.73210
H26A H 0.51190 1.12570 0.75620
C17A C 0.7020(2) 1.04365(16) 0.79137(14)
H27A H 0.69040 0.97630 0.79290
H28A H 0.78850 1.03810 0.76580
C18A C 0.6957(2) 1.07288(16) 0.88765(14)
H29A H 0.69650 1.14360 0.88470
H30A H 0.61240 1.07140 0.91480
C19A C 0.8063(2) 1.00391(17) 0.94956(15)
H31A H 0.81530 0.93210 0.94450
H32A H 0.88820 1.01450 0.92880
C20A C 0.7856(2) 1.02332(19) 1.04932(15)
H33A H 0.76860 1.09660 1.05330
H34A H 0.86670 0.98500 1.08380
C21A C 0.6748(2) 0.99338(17) 1.09430(15)
H35A H 0.59670 1.02290 1.05470
H36A H 0.65470 1.02330 1.15260
N4A N 0.7025(2) 0.88322(15) 1.11215(13)
H37A H 0.742(2) 0.8337(18) 1.1783(17)
C22A C 0.6690(2) 0.83047(17) 1.05330(15)
O4A O 0.62944(17) 0.86367(13) 0.97553(11)
N5A N 0.68100(18) 0.72701(14) 1.08578(12)
C23A C 0.6951(2) 0.68575(18) 1.17546(16)
O5A O 0.72541(18) 0.72865(14) 1.23556(11)
C24A C 0.6639(3) 0.59008(18) 1.20041(17)
H38A H 0.72460 0.53540 1.16850
H39A H 0.67910 0.56990 1.26660
C25A C 0.5260(3) 0.59753(18) 1.17787(17)
H40A H 0.46700 0.66560 1.18970
H41A H 0.50180 0.54630 1.21960
C26A C 0.5039(3) 0.58158(18) 1.08107(17)
H42A H 0.56050 0.51260 1.06990
H43A H 0.41280 0.58430 1.07440
C27A C 0.5302(3) 0.65871(18) 1.00866(16)
H44A H 0.46560 0.72660 1.01440
H45A H 0.51790 0.64000 0.94790
C28A C 0.6648(3) 0.66606(19) 1.01429(16)
H46A H 0.68560 0.69670 0.95470
H47A H 0.72810 0.59640 1.02600
O1A O 0.46376(14) 1.01111(11) 0.66827(10)
H1A H 0.55260 1.07570 0.47010
C42A C 0.7639(2) 0.76412(16) 0.64955(15)
C29A C 0.7177(2) 0.74435(19) 0.74597(16)
H48A H 0.75190 0.78030 0.78750
H49A H 0.75240 0.67050 0.76670
N6A N 0.57687(19) 0.77864(15) 0.75049(13)
H50A H 0.537(3) 0.844(2) 0.7401(18)
C30A C 0.5081(2) 0.71485(16) 0.76139(15)
O6A O 0.5586(2) 0.62124(12) 0.77306(13)
C31A C 0.3633(2) 0.76388(16) 0.76219(14)
C32A C 0.3012(2) 0.86125(16) 0.72018(13)
H51A H 0.35080 0.89730 0.68670
C33A C 0.1677(2) 0.90697(17) 0.72626(14)
C34A C 0.0961(2) 0.85261(19) 0.77319(15)
H52A H 0.00470 0.88300 0.77750
C35A C 0.1560(3) 0.7545(2) 0.81396(16)
H53A H 0.10580 0.71770 0.84570
C36A C 0.2890(3) 0.71017(18) 0.80841(15)
H54A H 0.33000 0.64270 0.83620
C37A C 0.0979(2) 1.01426(18) 0.68561(15)
O7A O -0.02025(17) 1.04465(16) 0.67609(15)
N7A N 0.16979(19) 1.07450(14) 0.66335(13)
H55A H 0.258(3) 1.050(2) 0.6694(18)
C38A C 0.1134(2) 1.18043(16) 0.62446(15)
H56A H 0.01760 1.19950 0.62440
H57A H 0.13750 1.22460 0.66320
C39A C 0.1580(2) 1.19912(15) 0.52841(14)
C40A C 0.2183(2) 1.27107(17) 0.50627(16)
H58A H 0.23260 1.30870 0.55200
C41A C 0.2580(2) 1.28891(18) 0.41838(17)
H59A H 0.30070 1.33780 0.40440
C44A C 0.1372(2) 1.14521(16) 0.46021(15)
H61A H 0.09580 1.09550 0.47420
C43A C 0.8233(2) 0.83619(17) 0.62787(15)
H60A H 0.83750 0.87360 0.67380
#END
