
#######################################################################
#
#                 Cambridge Crystallographic Data Centre
#                                CCDC
#
#######################################################################
#
# If this CIF has been generated from an entry in the Cambridge
# Structural Database, then it will include bibliographic, chemical,
# crystal, experimental, refinement or atomic coordinate data resulting
# from the CCDC's data processing and validation procedures.
#
#######################################################################

data_CSD_CIF_OKAJOZ
_audit_creation_date 2003-12-12
_audit_creation_method CSD-ConQuest-V1
_database_code_CSD OKAJOZ
_database_code_depnum_ccdc_archive 'CCDC 172010'
_chemical_formula_sum 'C19 H16 Au1 Cl3 Hg1.5 P1'
_chemical_formula_moiety
;
C19 H16 Au1 Cl2 Hg1 P1,0.5(Cl2 Hg1)
;
_journal_coden_Cambridge 155
_journal_volume 352
_journal_year 2003
_journal_page_first 19
_journal_name_full 'Inorg.Chim.Acta '
loop_
_publ_author_name
"S.K.Bhargava"
"F.Mohr"
"A.C.Willis"
_chemical_name_systematic
;
(\m~2~-6-Methyl-2-diphenylphosphinophenyl)-dichloro-gold(i)-mercury(ii) 
hemikis(dichloro-mercury(ii))
;
_chemical_name_common
;
Teaching Subset: Fundamental Chemistry
;
_chemical_melting_point 543
_cell_volume   4402.667
_exptl_crystal_colour 'colorless'
_exptl_crystal_density_diffrn 2.654
_exptl_crystal_description 'block'
_exptl_crystal_preparation 'hexane'
_diffrn_ambient_temperature 296.2
#These two values have been output from a single CSD field.
_refine_ls_R_factor_gt 0.033
_refine_ls_wR_factor_gt 0.033
_symmetry_cell_setting monoclinic
_symmetry_space_group_name_H-M 'C 2/c'
_symmetry_Int_Tables_number 15
loop_
_symmetry_equiv_pos_site_id
_symmetry_equiv_pos_as_xyz
1 x,y,z
2 1/2+x,1/2+y,z
3 -x,y,1/2-z
4 1/2-x,1/2+y,1/2-z
5 -x,-y,-z
6 -1/2-x,-1/2-y,-z
7 x,-y,-1/2+z
8 -1/2+x,-1/2-y,-1/2+z
_cell_length_a 27.277(3)
_cell_length_b 11.133(3)
_cell_length_c 17.882(4)
_cell_angle_alpha 90
_cell_angle_beta 125.83(1)
_cell_angle_gamma 90
_cell_formula_units_Z 8
loop_
_atom_type_symbol
_atom_type_radius_bond
C 0.68
H 0.23
Au 1.46
Cl 0.99
Hg 1.43
P 1.05
loop_
_atom_site_label
_atom_site_type_symbol
_atom_site_fract_x
_atom_site_fract_y
_atom_site_fract_z
Hg1 Hg 0.05747(3) 0.01024(7) 0.13893(4)
Au1 Au 0.17293(3) 0.17264(6) 0.29966(4)
Cl1 Cl 0.1403(2) 0.3284(4) 0.3428(3)
Cl2 Cl -0.0024(2) 0.1727(5) 0.0520(3)
P1 P 0.2062(2) 0.0133(4) 0.2657(3)
C1 C 0.1736(7) -0.121(1) 0.276(1)
C2 C 0.1095(7) -0.132(1) 0.222(1)
C3 C 0.0827(7) -0.236(1) 0.225(1)
C4 C 0.1196(8) -0.326(2) 0.287(1)
C5 C 0.1819(9) -0.315(2) 0.342(1)
C6 C 0.2102(7) -0.212(2) 0.340(1)
C7 C 0.0147(8) -0.251(2) 0.163(1)
C8 C 0.1831(6) 0.011(2) 0.148(1)
C9 C 0.1636(7) 0.117(2) 0.096(1)
C10 C 0.1485(8) 0.110(2) 0.010(1)
C11 C 0.1501(9) 0.009(3) -0.030(1)
C12 C 0.1709(9) -0.095(2) 0.020(1)
C13 C 0.1858(7) -0.094(2) 0.108(1)
C14 C 0.2884(7) 0.000(1) 0.343(1)
C15 C 0.3168(8) 0.028(2) 0.433(1)
C16 C 0.3800(8) 0.017(2) 0.498(1)
C17 C 0.4132(7) -0.017(2) 0.467(1)
C18 C 0.3844(8) -0.045(2) 0.375(1)
C19 C 0.3213(7) -0.038(2) 0.311(1)
H1 H 0.10170 -0.39610 0.29200
H2 H 0.20600 -0.37900 0.38270
H3 H 0.25290 -0.20380 0.37950
H4 H 0.16110 0.19010 0.12120
H5 H 0.13580 0.18200 -0.02570
H6 H 0.13690 0.00970 -0.09270
H7 H 0.17510 -0.16600 -0.00520
H8 H 0.19810 -0.16630 0.14290
H9 H 0.29340 0.05510 0.45310
H10 H 0.39890 0.03240 0.56130
H11 H 0.45600 -0.02100 0.50850
H12 H 0.40810 -0.06960 0.35500
H13 H 0.30210 -0.05940 0.24770
H14 H 0.00210 -0.28090 0.10490
H15 H 0.00300 -0.30510 0.19110
H16 H -0.00380 -0.17480 0.15540
Hg2 Hg 0.00000 0.25880(9) 0.25000
Cl3 Cl 0.00000 0.4614(6) 0.25000
Cl4 Cl 0.00000 0.0549(5) 0.25000
#END
