####################################################################### 
# 
# This file contains crystal structure data downloaded from the 
# Cambridge Structural Database (CSD) hosted by the Cambridge 
# Crystallographic Data Centre (CCDC).
# 
# Full information about CCDC data access policies and citation 
# guidelines are available at http://www.ccdc.cam.ac.uk/access/V1 
# 
# Audit and citation data items may have been added by the CCDC. 
# Please retain this information to preserve the provenance of 
# this file and to allow appropriate attribution of the data. 
# 
#######################################################################

data_070324
_audit_block_doi                 10.5517/ccvj95t
_database_code_depnum_ccdc_archive 'CCDC 790226'
loop_
_citation_id
_citation_doi
_citation_year
1 10.1246/cl.2011.22 2011
_audit_update_record             
;
2010-08-23 deposited with the CCDC.	2024-07-12 downloaded from the CCDC.
;
#TrackingRef 'DMBIN-CuPF6.cif'


#==============================================================================

# CHEMICAL DATA

_chemical_formula_sum            'C19 H34 Cl4 Cu F6 N4 O2 P '
_chemical_formula_moiety         'C19 H34 Cl4 Cu F6 N4 O2 P '
_chemical_formula_weight         700.83
_chemical_melting_point          ?
_chemical_absolute_configuration 'CHOOSE rm ad rmad syn or unk'

#==============================================================================

# CRYSTAL DATA
_symmetry_cell_setting           tetragonal
_symmetry_space_group_name_H-M   'I -4 2 d'
_symmetry_space_group_name_Hall  'I -4 2bw'
_symmetry_Int_Tables_number      122
loop_
_symmetry_equiv_pos_site_id
_symmetry_equiv_pos_as_xyz
1 +X,+Y,+Z
2 +Y,-X,-Z
3 -X,-Y,+Z
4 -Y,+X,-Z
5 1/2-X,+Y,3/4-Z
6 1/2-Y,-X,3/4+Z
7 1/2+X,-Y,3/4-Z
8 1/2+Y,+X,3/4+Z
9 1/2+X,1/2+Y,1/2+Z
10 1/2+Y,1/2-X,1/2-Z
11 1/2-X,1/2-Y,1/2+Z
12 1/2-Y,1/2+X,1/2-Z
13 -X,1/2+Y,1/4-Z
14 -Y,1/2-X,1/4+Z
15 +X,1/2-Y,1/4-Z
16 +Y,1/2+X,1/4+Z

#------------------------------------------------------------------------------

_cell_length_a                   11.789(6)
_cell_length_b                   11.789(6)
_cell_length_c                   42.57(2)
_cell_angle_alpha                90.0000
_cell_angle_beta                 90.0000
_cell_angle_gamma                90.0000
_cell_volume                     5917(5)
_cell_formula_units_Z            8
_cell_measurement_reflns_used    17622
_cell_measurement_theta_min      3.1
_cell_measurement_theta_max      27.4
_cell_measurement_temperature    171.1

#------------------------------------------------------------------------------

_exptl_crystal_description       prism
_exptl_crystal_colour            black
_exptl_crystal_size_max          0.22
_exptl_crystal_size_mid          0.20
_exptl_crystal_size_min          0.13
_exptl_crystal_density_diffrn    1.573
_exptl_crystal_density_meas      ?
_exptl_crystal_density_method    'not measured'
_exptl_crystal_F_000             2864.00
_exptl_absorpt_coefficient_mu    1.216
_exptl_absorpt_correction_type   multi-scan
_exptl_absorpt_process_details   
;
Higashi, T. (1995). Program for Absorption Correction.
Rigaku Corporation, Tokyo, Japan.
;
_exptl_absorpt_correction_T_min  0.619
_exptl_absorpt_correction_T_max  0.854

#==============================================================================

# EXPERIMENTAL DATA

_diffrn_radiation_type           'Mo K\a'
_diffrn_radiation_wavelength     0.71075
_diffrn_measurement_device_type  'Rigaku RAXIS-RAPID'
_diffrn_measurement_method       \w
_diffrn_detector_area_resol_mean 10.00
_diffrn_reflns_number            28931
_diffrn_reflns_av_R_equivalents  0.051
_diffrn_reflns_theta_max         27.44
_diffrn_measured_fraction_theta_max 0.983
_diffrn_reflns_theta_full        27.44
_diffrn_measured_fraction_theta_full 0.983
_diffrn_reflns_limit_h_min       -15
_diffrn_reflns_limit_h_max       15
_diffrn_reflns_limit_k_min       -15
_diffrn_reflns_limit_k_max       15
_diffrn_reflns_limit_l_min       -54
_diffrn_reflns_limit_l_max       55
_diffrn_ambient_temperature      171.1

#==============================================================================

# REFINEMENT DATA

_refine_special_details          
;
Refinement was performed using reflections with F^2^ > 0.5 sigma(F^2^).
The weighted R-factor(wR), goodness of fit (S) and R-factor (gt) are
based on F, with F set to zero for negative F. The threshold expression of
F^2^ > 2.0 sigma(F^2^) is used only for calculating R-factor (gt).
;
_reflns_number_total             3362
_reflns_number_gt                1380
_reflns_threshold_expression     F^2^>2.0\s(F^2^)
_refine_ls_structure_factor_coef F
_refine_ls_R_factor_gt           0.0572
_refine_ls_wR_factor_ref         0.0689
_refine_ls_hydrogen_treatment    refall
_refine_ls_number_reflns         2423
_refine_ls_number_parameters     184
_refine_ls_goodness_of_fit_ref   1.006
_refine_ls_weighting_scheme      calc
_refine_ls_weighting_details     'w = 1/[0.0008Fo^2^ + 1.0000\s(Fo^2^)]'
_refine_ls_shift/su_max          0.0000
_refine_diff_density_max         1.93
_refine_diff_density_min         -1.68
_refine_ls_extinction_method     none
_refine_ls_extinction_coef       ?
_refine_ls_abs_structure_details 
'Flack, H. D. (1983), Acta Cryst. A39, 876-881. 1505 Friedel Pairs'
_refine_ls_abs_structure_Flack   0.02(3)

loop_
_atom_type_symbol
_atom_type_description
_atom_type_scat_dispersion_real
_atom_type_scat_dispersion_imag
_atom_type_scat_source
C C 0.003 0.002
;
International Tables for Crystallography
(1992, Vol. C, Tables 4.2.6.8 and 6.1.1.4)
;
H H 0.000 0.000
;
International Tables for Crystallography
(1992, Vol. C, Table 6.1.1.4)
;
O O 0.011 0.006
;
International Tables for Crystallography
(1992, Vol. C, Tables 4.2.6.8 and 6.1.1.4)
;
N N 0.006 0.003
;
International Tables for Crystallography
(1992, Vol. C, Tables 4.2.6.8 and 6.1.1.4)
;
Cu Cu 0.320 1.265
;
International Tables for Crystallography
(1992, Vol. C, Tables 4.2.6.8 and 6.1.1.4)
;
P P 0.102 0.094
;
International Tables for Crystallography
(1992, Vol. C, Tables 4.2.6.8 and 6.1.1.4)
;
F F 0.017 0.010
;
International Tables for Crystallography
(1992, Vol. C, Tables 4.2.6.8 and 6.1.1.4)
;
Cl Cl 0.148 0.159
;
International Tables for Crystallography
(1992, Vol. C, Tables 4.2.6.8 and 6.1.1.4)
;

#==============================================================================

# ATOMIC COORDINATES AND THERMAL PARAMETERS

loop_
_atom_site_label
_atom_site_type_symbol
_atom_site_fract_x
_atom_site_fract_y
_atom_site_fract_z
_atom_site_U_iso_or_equiv
_atom_site_adp_type
_atom_site_occupancy
_atom_site_symmetry_multiplicity
_atom_site_calc_flag
_atom_site_refinement_flags
_atom_site_disorder_assembly
_atom_site_disorder_group
Cu(1) Cu 0.5000 0.0000 0.16426(2) 0.0289(3) Uani 1.00 2 d S . .
Cl(1) Cl 0.8305(6) 0.1568(8) 0.11168(16) 0.122(3) Uani 0.55 1 d P . .
Cl(2) Cl 0.9294(10) 0.0706(10) 0.0977(3) 0.174(5) Uani 0.45 1 d P . .
Cl(3) Cl 0.8381(5) 0.2013(4) 0.04650(14) 0.163(2) Uiso 1.00 1 d . . .
P(1) P 0.5000 0.5000 0.22851(5) 0.0356(8) Uani 1.00 2 d S . .
F(1) F 0.5481(4) 0.3739(3) 0.22802(12) 0.0575(17) Uani 1.00 1 d . . .
F(2) F 0.4120(4) 0.4663(4) 0.20212(11) 0.0628(18) Uani 1.00 1 d . . .
F(3) F 0.4112(5) 0.4671(4) 0.25461(12) 0.080(2) Uani 1.00 1 d . . .
O(1) O 0.2429(4) 0.3530(4) 0.14894(13) 0.0348(17) Uani 1.00 1 d . . .
N(1) N 0.3851(5) 0.1105(4) 0.16721(14) 0.0237(17) Uani 1.00 1 d . . .
N(2) N 0.2757(5) 0.2599(5) 0.16085(14) 0.0286(18) Uani 1.00 1 d . . .
C(1) C 0.4460(8) 0.2500 0.1250 0.019(2) Uani 1.00 2 d S . .
C(2) C 0.5185(6) 0.3398(6) 0.14048(16) 0.032(2) Uani 1.00 1 d . . .
C(3) C 0.3701(6) 0.1984(5) 0.15068(16) 0.020(2) Uani 1.00 1 d . . .
C(4) C 0.3037(6) 0.1041(7) 0.19453(18) 0.034(2) Uani 1.00 1 d . . .
C(5) C 0.2105(6) 0.1948(6) 0.18528(16) 0.032(2) Uani 1.00 1 d . . .
C(6) C 0.3675(7) 0.1359(7) 0.22261(16) 0.042(2) Uani 1.00 1 d . . .
C(7) C 0.2604(6) -0.0149(8) 0.19592(19) 0.047(2) Uani 1.00 1 d . . .
C(8) C 0.1711(8) 0.2745(8) 0.2095(2) 0.062(3) Uani 1.00 1 d . . .
C(9) C 0.1081(7) 0.1443(7) 0.1679(2) 0.048(2) Uani 1.00 1 d . . .
C(10) C 0.8198(12) 0.0891(12) 0.0726(3) 0.104(4) Uiso 1.00 1 d . . .
H(1) H 0.4809 0.4111 0.1398 0.038 Uiso 1.00 1 c R . .
H(2) H 0.5885 0.3450 0.1295 0.038 Uiso 1.00 1 c R . .
H(3) H 0.5324 0.3193 0.1617 0.038 Uiso 1.00 1 c R . .
H(4) H 0.4018 0.0711 0.2319 0.050 Uiso 1.00 1 c R . .
H(5) H 0.3172 0.1701 0.2373 0.050 Uiso 1.00 1 c R . .
H(6) H 0.4247 0.1888 0.2169 0.050 Uiso 1.00 1 c R . .
H(7) H 0.1948 -0.0232 0.1832 0.056 Uiso 1.00 1 c R . .
H(8) H 0.2417 -0.0317 0.2171 0.056 Uiso 1.00 1 c R . .
H(9) H 0.3177 -0.0655 0.1889 0.056 Uiso 1.00 1 c R . .
H(10) H 0.2273 0.2762 0.2255 0.075 Uiso 1.00 1 c R . .
H(11) H 0.1016 0.2482 0.2181 0.075 Uiso 1.00 1 c R . .
H(12) H 0.1609 0.3488 0.2013 0.075 Uiso 1.00 1 c R . .
H(13) H 0.0459 0.1955 0.1690 0.057 Uiso 1.00 1 c R . .
H(14) H 0.0874 0.0742 0.1773 0.057 Uiso 1.00 1 c R . .
H(15) H 0.1278 0.1319 0.1465 0.057 Uiso 1.00 1 c R . .


loop_
_atom_site_aniso_label
_atom_site_aniso_U_11
_atom_site_aniso_U_22
_atom_site_aniso_U_33
_atom_site_aniso_U_12
_atom_site_aniso_U_13
_atom_site_aniso_U_23
Cu(1) 0.0348(8) 0.0289(8) 0.0231(5) 0.0082(9) 0.0000 0.0000
Cl(1) 0.089(5) 0.175(7) 0.101(5) -0.048(5) -0.004(4) -0.018(5)
Cl(2) 0.151(10) 0.168(11) 0.203(10) -0.066(7) -0.044(8) 0.069(8)
P(1) 0.0496(19) 0.0332(17) 0.0240(12) 0.002(2) 0.0000 0.0000
F(1) 0.074(4) 0.034(3) 0.064(3) 0.011(2) 0.014(2) 0.002(2)
F(2) 0.058(3) 0.071(4) 0.060(3) 0.002(2) -0.022(2) -0.034(2)
F(3) 0.109(4) 0.073(4) 0.057(3) 0.021(3) 0.047(3) 0.020(3)
O(1) 0.052(4) 0.024(3) 0.028(3) 0.004(2) -0.002(2) -0.003(2)
N(1) 0.028(3) 0.020(3) 0.022(3) -0.003(2) 0.001(2) -0.001(2)
N(2) 0.033(4) 0.027(4) 0.025(3) 0.004(3) 0.000(3) -0.000(3)
C(1) 0.031(6) 0.012(5) 0.012(5) 0.0000 0.0000 0.005(4)
C(2) 0.030(5) 0.038(4) 0.027(3) -0.007(4) -0.011(3) 0.020(3)
C(3) 0.027(4) 0.019(4) 0.013(3) 0.004(3) -0.001(3) 0.002(3)
C(4) 0.039(5) 0.042(5) 0.022(4) 0.002(4) 0.018(3) 0.004(3)
C(5) 0.031(5) 0.043(5) 0.022(3) 0.009(3) 0.007(3) 0.009(4)
C(6) 0.057(6) 0.045(5) 0.023(4) 0.003(4) -0.008(4) 0.005(4)
C(7) 0.048(5) 0.053(6) 0.039(4) -0.012(5) 0.021(3) 0.005(5)
C(8) 0.036(5) 0.086(8) 0.064(6) -0.011(5) -0.018(5) -0.031(6)
C(9) 0.036(5) 0.051(6) 0.056(5) 0.003(4) 0.007(4) 0.015(4)

#==============================================================================

_computing_data_collection       PROCESS-AUTO
_computing_cell_refinement       PROCESS-AUTO
_computing_data_reduction        CrystalStructure
_computing_structure_solution    SIR92
_computing_structure_refinement  CRYSTALS
_computing_publication_material  'CrystalStructure 3.8'
_computing_molecular_graphics    ?

#==============================================================================

# MOLECULAR GEOMETRY

_geom_special_details            
;
ENTER SPECIAL DETAILS OF THE MOLECULAR GEOMETRY
;

loop_
_geom_bond_atom_site_label_1
_geom_bond_atom_site_label_2
_geom_bond_distance
_geom_bond_publ_flag
_geom_bond_site_symmetry_1
_geom_bond_site_symmetry_2
Cu(1) N(1) 1.883(5) yes . .
Cu(1) N(1) 1.883(5) yes . 3_655
Cl(1) Cl(2) 1.658(15) yes . .
Cl(1) C(10) 1.851(15) yes . .
Cl(2) Cl(2) 2.354(17) yes . 3_755
Cl(2) C(10) 1.691(18) yes . .
Cl(3) C(10) 1.740(15) yes . .
P(1) F(1) 1.591(4) yes . .
P(1) F(1) 1.591(4) yes . 3_665
P(1) F(2) 1.580(4) yes . .
P(1) F(2) 1.580(4) yes . 3_665
P(1) F(3) 1.575(5) yes . .
P(1) F(3) 1.575(5) yes . 3_665
O(1) N(2) 1.268(8) yes . .
N(1) C(3) 1.266(8) yes . .
N(1) C(4) 1.510(9) yes . .
N(2) C(3) 1.397(9) yes . .
N(2) C(5) 1.504(9) yes . .
C(1) C(2) 1.512(9) yes . .
C(1) C(2) 1.512(9) yes . 15_555
C(1) C(3) 1.538(9) yes . .
C(1) C(3) 1.538(9) yes . 15_555
C(4) C(5) 1.583(11) yes . .
C(4) C(6) 1.461(10) yes . .
C(4) C(7) 1.494(12) yes . .
C(5) C(8) 1.472(12) yes . .
C(5) C(9) 1.537(11) yes . .
C(2) H(1) 0.950 no . .
C(2) H(2) 0.950 no . .
C(2) H(3) 0.950 no . .
C(6) H(4) 0.950 no . .
C(6) H(5) 0.950 no . .
C(6) H(6) 0.950 no . .
C(7) H(7) 0.950 no . .
C(7) H(8) 0.950 no . .
C(7) H(9) 0.950 no . .
C(8) H(10) 0.950 no . .
C(8) H(11) 0.950 no . .
C(8) H(12) 0.950 no . .
C(9) H(13) 0.950 no . .
C(9) H(14) 0.950 no . .
C(9) H(15) 0.950 no . .

loop_
_geom_angle_atom_site_label_1
_geom_angle_atom_site_label_2
_geom_angle_atom_site_label_3
_geom_angle
_geom_angle_publ_flag
_geom_angle_site_symmetry_1
_geom_angle_site_symmetry_2
_geom_angle_site_symmetry_3
N(1) Cu(1) N(1) 172.4(2) yes . . 3_655
Cl(2) Cl(1) C(10) 57.3(6) yes . . .
Cl(1) Cl(2) Cl(2) 158.6(8) yes . . 3_755
Cl(1) Cl(2) C(10) 67.1(7) yes . . .
Cl(2) Cl(2) C(10) 129.2(8) yes 3_755 . .
F(1) P(1) F(1) 178.5(3) yes . . 3_665
F(1) P(1) F(2) 89.4(2) yes . . .
F(1) P(1) F(2) 89.5(2) yes . . 3_665
F(1) P(1) F(3) 90.9(2) yes . . .
F(1) P(1) F(3) 90.1(2) yes . . 3_665
F(1) P(1) F(2) 89.5(2) yes 3_665 . .
F(1) P(1) F(2) 89.4(2) yes 3_665 . 3_665
F(1) P(1) F(3) 90.1(2) yes 3_665 . .
F(1) P(1) F(3) 90.9(2) yes 3_665 . 3_665
F(2) P(1) F(2) 89.3(2) yes . . 3_665
F(2) P(1) F(3) 90.2(2) yes . . .
F(2) P(1) F(3) 179.3(2) yes . . 3_665
F(2) P(1) F(3) 179.3(2) yes 3_665 . .
F(2) P(1) F(3) 90.2(2) yes 3_665 . 3_665
F(3) P(1) F(3) 90.3(3) yes . . 3_665
Cu(1) N(1) C(3) 129.1(5) yes . . .
Cu(1) N(1) C(4) 118.3(4) yes . . .
C(3) N(1) C(4) 112.3(6) yes . . .
O(1) N(2) C(3) 124.6(6) yes . . .
O(1) N(2) C(5) 124.2(6) yes . . .
C(3) N(2) C(5) 110.9(5) yes . . .
C(2) C(1) C(2) 111.1(7) yes . . 15_555
C(2) C(1) C(3) 107.2(3) yes . . .
C(2) C(1) C(3) 111.2(3) yes . . 15_555
C(2) C(1) C(3) 111.2(3) yes 15_555 . .
C(2) C(1) C(3) 107.2(3) yes 15_555 . 15_555
C(3) C(1) C(3) 108.8(7) yes . . 15_555
N(1) C(3) N(2) 111.4(6) yes . . .
N(1) C(3) C(1) 129.6(6) yes . . .
N(2) C(3) C(1) 118.6(5) yes . . .
N(1) C(4) C(5) 102.5(5) yes . . .
N(1) C(4) C(6) 106.9(6) yes . . .
N(1) C(4) C(7) 107.1(6) yes . . .
C(5) C(4) C(6) 112.8(6) yes . . .
C(5) C(4) C(7) 114.0(6) yes . . .
C(6) C(4) C(7) 112.6(6) yes . . .
N(2) C(5) C(4) 99.3(5) yes . . .
N(2) C(5) C(8) 108.6(6) yes . . .
N(2) C(5) C(9) 105.4(5) yes . . .
C(4) C(5) C(8) 118.4(6) yes . . .
C(4) C(5) C(9) 113.9(6) yes . . .
C(8) C(5) C(9) 109.8(7) yes . . .
Cl(1) C(10) Cl(2) 55.6(6) yes . . .
Cl(1) C(10) Cl(3) 103.7(7) yes . . .
Cl(2) C(10) Cl(3) 114.0(9) yes . . .
C(1) C(2) H(1) 110.0 no . . .
C(1) C(2) H(2) 108.8 no . . .
C(1) C(2) H(3) 109.5 no . . .
H(1) C(2) H(2) 109.5 no . . .
H(1) C(2) H(3) 109.5 no . . .
H(2) C(2) H(3) 109.5 no . . .
C(4) C(6) H(4) 110.7 no . . .
C(4) C(6) H(5) 108.9 no . . .
C(4) C(6) H(6) 108.8 no . . .
H(4) C(6) H(5) 109.5 no . . .
H(4) C(6) H(6) 109.5 no . . .
H(5) C(6) H(6) 109.5 no . . .
C(4) C(7) H(7) 110.7 no . . .
C(4) C(7) H(8) 108.2 no . . .
C(4) C(7) H(9) 109.5 no . . .
H(7) C(7) H(8) 109.5 no . . .
H(7) C(7) H(9) 109.5 no . . .
H(8) C(7) H(9) 109.5 no . . .
C(5) C(8) H(10) 107.2 no . . .
C(5) C(8) H(11) 109.4 no . . .
C(5) C(8) H(12) 111.8 no . . .
H(10) C(8) H(11) 109.5 no . . .
H(10) C(8) H(12) 109.5 no . . .
H(11) C(8) H(12) 109.5 no . . .
C(5) C(9) H(13) 109.6 no . . .
C(5) C(9) H(14) 109.5 no . . .
C(5) C(9) H(15) 109.3 no . . .
H(13) C(9) H(14) 109.5 no . . .
H(13) C(9) H(15) 109.5 no . . .
H(14) C(9) H(15) 109.5 no . . .

loop_
_geom_torsion_atom_site_label_1
_geom_torsion_atom_site_label_2
_geom_torsion_atom_site_label_3
_geom_torsion_atom_site_label_4
_geom_torsion
_geom_torsion_publ_flag
_geom_torsion_site_symmetry_1
_geom_torsion_site_symmetry_2
_geom_torsion_site_symmetry_3
_geom_torsion_site_symmetry_4
N(1) Cu(1) N(1) C(3) 140.5(17) ? . . 3_655 3_655
N(1) Cu(1) N(1) C(4) -33(2) ? . . 3_655 3_655
N(1) Cu(1) N(1) C(3) 140.5(17) ? 3_655 . . .
N(1) Cu(1) N(1) C(4) -33(2) ? 3_655 . . .
Cl(2) Cl(1) C(10) Cl(3) -109.9(9) ? . . . .
C(10) Cl(1) Cl(2) Cl(2) -143(2) ? . . . 3_755
Cl(1) Cl(2) Cl(2) Cl(1) -20(4) ? . . 3_755 3_755
Cl(1) Cl(2) Cl(2) C(10) -155(2) ? . . 3_755 3_755
Cl(1) Cl(2) C(10) Cl(3) 90.5(9) ? . . . .
Cl(2) Cl(2) C(10) Cl(1) 163.6(11) ? 3_755 . . .
Cl(2) Cl(2) C(10) Cl(3) -105.8(11) ? 3_755 . . .
C(10) Cl(2) Cl(2) Cl(1) -155(2) ? . . 3_755 3_755
C(10) Cl(2) Cl(2) C(10) 70.7(15) ? . . 3_755 3_755
Cu(1) N(1) C(3) N(2) -178.8(4) ? . . . .
Cu(1) N(1) C(3) C(1) -6.5(11) ? . . . .
Cu(1) N(1) C(4) C(5) -170.3(4) ? . . . .
Cu(1) N(1) C(4) C(6) 70.9(7) ? . . . .
Cu(1) N(1) C(4) C(7) -50.0(7) ? . . . .
C(3) N(1) C(4) C(5) 15.3(7) ? . . . .
C(3) N(1) C(4) C(6) -103.5(7) ? . . . .
C(3) N(1) C(4) C(7) 135.6(6) ? . . . .
C(4) N(1) C(3) N(2) -5.2(8) ? . . . .
C(4) N(1) C(3) C(1) 167.2(6) ? . . . .
O(1) N(2) C(3) N(1) 178.2(6) ? . . . .
O(1) N(2) C(3) C(1) 5.0(9) ? . . . .
O(1) N(2) C(5) C(4) -170.0(6) ? . . . .
O(1) N(2) C(5) C(8) -45.6(9) ? . . . .
O(1) N(2) C(5) C(9) 72.0(8) ? . . . .
C(3) N(2) C(5) C(4) 16.5(7) ? . . . .
C(3) N(2) C(5) C(8) 140.8(6) ? . . . .
C(3) N(2) C(5) C(9) -101.6(6) ? . . . .
C(5) N(2) C(3) N(1) -8.2(8) ? . . . .
C(5) N(2) C(3) C(1) 178.5(5) ? . . . .
C(2) C(1) C(3) N(1) -94.9(7) ? . . . .
C(2) C(1) C(3) N(2) 76.9(8) ? . . . .
C(2) C(1) C(3) N(1) 26.7(10) ? . . 15_555 15_555
C(2) C(1) C(3) N(2) -161.4(6) ? . . 15_555 15_555
C(2) C(1) C(3) N(1) 26.7(10) ? 15_555 . . .
C(2) C(1) C(3) N(2) -161.4(6) ? 15_555 . . .
C(2) C(1) C(3) N(1) -94.9(8) ? 15_555 . 15_555 15_555
C(2) C(1) C(3) N(2) 76.9(8) ? 15_555 . 15_555 15_555
C(3) C(1) C(3) N(1) 144.7(7) ? . . 15_555 15_555
C(3) C(1) C(3) N(2) -43.5(6) ? . . 15_555 15_555
C(3) C(1) C(3) N(1) 144.7(7) ? 15_555 . . .
C(3) C(1) C(3) N(2) -43.5(6) ? 15_555 . . .
N(1) C(4) C(5) N(2) -17.7(6) ? . . . .
N(1) C(4) C(5) C(8) -134.9(7) ? . . . .
N(1) C(4) C(5) C(9) 93.8(7) ? . . . .
C(6) C(4) C(5) N(2) 96.9(7) ? . . . .
C(6) C(4) C(5) C(8) -20.4(10) ? . . . .
C(6) C(4) C(5) C(9) -151.6(6) ? . . . .
C(7) C(4) C(5) N(2) -133.1(6) ? . . . .
C(7) C(4) C(5) C(8) 109.7(8) ? . . . .
C(7) C(4) C(5) C(9) -21.6(9) ? . . . .

loop_
_geom_contact_atom_site_label_1
_geom_contact_atom_site_label_2
_geom_contact_distance
_geom_contact_publ_flag
_geom_contact_site_symmetry_1
_geom_contact_site_symmetry_2
Cu(1) C(2) 3.007(7) ? . 13_645
Cl(1) Cl(1) 2.472(12) ? . 15_555
Cl(2) O(1) 3.275(13) ? . 13_645
Cl(3) F(3) 3.408(7) ? . 8_554
Cl(3) C(7) 3.556(11) ? . 13_655
F(1) C(6) 3.530(9) ? . .
F(2) O(1) 3.299(7) ? . .
F(2) N(2) 3.404(7) ? . .
F(2) C(2) 3.269(8) ? . .
F(2) C(2) 3.575(8) ? . 3_665
F(2) C(10) 3.267(14) ? . 13_655
F(3) Cl(3) 3.408(8) ? . 16_545
F(3) C(7) 3.519(10) ? . 10_555
F(3) C(8) 3.593(11) ? . 12_555
O(1) Cl(2) 3.275(13) ? . 13_655
O(1) F(2) 3.299(7) ? . .
O(1) C(10) 3.125(15) ? . 13_655
N(2) F(2) 3.404(7) ? . .
C(1) Cu(1) 3.4475(19) ? . 13_655
C(2) Cu(1) 3.007(7) ? . 13_655
C(2) F(2) 3.269(8) ? . .
C(2) F(2) 3.575(8) ? . 3_665
C(6) F(1) 3.530(9) ? . .
C(7) Cl(3) 3.556(11) ? . 13_645
C(7) F(3) 3.519(9) ? . 12_545
C(8) F(3) 3.593(11) ? . 10_455
C(10) F(2) 3.267(14) ? . 13_645
C(10) O(1) 3.125(15) ? . 13_645
Cu(1) H(1) 2.540 ? . 13_645
Cu(1) H(2) 2.811 ? . 13_645
Cl(1) H(2) 2.877 ? . 15_555
Cl(1) H(7) 3.439 ? . 3_655
Cl(1) H(13) 3.551 ? . 1_655
Cl(1) H(13) 3.345 ? . 15_655
Cl(2) H(12) 3.510 ? . 13_645
Cl(2) H(12) 3.564 ? . 15_655
Cl(2) H(13) 3.162 ? . 15_655
Cl(2) H(15) 3.211 ? . 1_655
Cl(2) H(15) 3.236 ? . 3_655
Cl(3) H(5) 3.486 ? . 8_554
Cl(3) H(7) 3.383 ? . 13_655
Cl(3) H(8) 3.336 ? . 13_655
Cl(3) H(9) 3.364 ? . 13_655
Cl(3) H(10) 3.123 ? . 8_554
Cl(3) H(11) 3.223 ? . 15_655
Cl(3) H(13) 3.106 ? . 15_655
P(1) H(3) 3.573 ? . .
P(1) H(3) 3.573 ? . 3_665
F(1) H(3) 2.901 ? . .
F(1) H(5) 3.054 ? . 10_555
F(1) H(6) 2.666 ? . .
F(1) H(8) 2.863 ? . 10_555
F(1) H(10) 3.544 ? . 10_555
F(1) H(11) 3.302 ? . 10_555
F(2) H(1) 2.849 ? . .
F(2) H(1) 3.274 ? . 3_665
F(2) H(3) 2.824 ? . .
F(2) H(3) 3.126 ? . 3_665
F(2) H(6) 3.334 ? . .
F(2) H(10) 3.280 ? . .
F(2) H(12) 3.269 ? . .
F(3) H(7) 3.356 ? . 10_555
F(3) H(8) 2.822 ? . 10_555
F(3) H(10) 3.361 ? . .
F(3) H(11) 2.718 ? . 12_555
F(3) H(14) 3.538 ? . 10_555
F(3) H(14) 3.232 ? . 12_555
C(2) H(1) 2.937 ? . 3_665
C(6) H(4) 3.116 ? . 10_555
C(6) H(4) 3.449 ? . 12_545
C(6) H(8) 3.175 ? . 10_555
C(7) H(5) 3.561 ? . 12_545
C(9) H(14) 3.480 ? . 3_555
C(10) H(2) 3.493 ? . 15_555
C(10) H(12) 3.019 ? . 13_645
H(1) Cu(1) 2.540 ? . 13_655
H(1) F(2) 2.849 ? . .
H(1) F(2) 3.274 ? . 3_665
H(1) C(2) 2.937 ? . 3_665
H(1) H(1) 2.145 ? . 3_665
H(1) H(2) 3.022 ? . 3_665
H(1) H(3) 3.316 ? . 3_665
H(2) Cu(1) 2.811 ? . 13_655
H(2) Cl(1) 2.877 ? . 15_555
H(2) C(10) 3.493 ? . 15_555
H(2) H(1) 3.022 ? . 3_665
H(2) H(9) 3.289 ? . 13_655
H(3) P(1) 3.573 ? . .
H(3) F(1) 2.901 ? . .
H(3) F(2) 2.824 ? . .
H(3) F(2) 3.126 ? . 3_665
H(3) H(1) 3.316 ? . 3_665
H(4) C(6) 3.449 ? . 10_555
H(4) C(6) 3.116 ? . 12_545
H(4) H(4) 2.543 ? . 10_555
H(4) H(4) 2.543 ? . 12_545
H(4) H(5) 3.377 ? . 12_545
H(4) H(6) 2.980 ? . 12_545
H(4) H(8) 3.193 ? . 10_555
H(5) Cl(3) 3.486 ? . 16_545
H(5) F(1) 3.054 ? . 12_545
H(5) C(7) 3.5