
#######################################################################
#
#                 Cambridge Crystallographic Data Centre
#                                CCDC
#
#######################################################################
#
# If this CIF has been generated from an entry in the Cambridge
# Structural Database, then it will include bibliographic, chemical,
# crystal, experimental, refinement or atomic coordinate data resulting
# from the CCDC's data processing and validation procedures.
#
#######################################################################

data_CSD_CIF_OKUSES
_audit_creation_date 2004-02-04
_audit_creation_method CSD-ConQuest-V1
_database_code_CSD OKUSES
_database_code_depnum_ccdc_archive 'CCDC 206250'
_chemical_formula_sum 'C11 H25 Br1 Mg1 O4'
_chemical_formula_moiety
;
C11 H25 Br1 Mg1 O4
;
_journal_coden_Cambridge 36
_journal_volume 681
_journal_year 2003
_journal_page_first 215
_journal_name_full 'J.Organomet.Chem. '
loop_
_publ_author_name
"M.Vestergren"
"J.Eriksson"
"M.Hakansson"
_chemical_name_systematic
;
cis-Allyl-bromo-bis(dimethoxyethane)-magnesium
;
_chemical_name_common
;
Teaching Subset: Fundamental Chemistry
;
_cell_volume   3205.180
_exptl_crystal_colour 'yellow'
_exptl_crystal_density_diffrn 1.349
_exptl_crystal_description 'irregular'
_diffrn_ambient_temperature 153
#These two values have been output from a single CSD field.
_refine_ls_R_factor_gt 0.0444
_refine_ls_wR_factor_gt 0.0444
_symmetry_cell_setting orthorhombic
_symmetry_space_group_name_H-M 'P b c a'
_symmetry_Int_Tables_number 61
loop_
_symmetry_equiv_pos_site_id
_symmetry_equiv_pos_as_xyz
1 x,y,z
2 1/2+x,1/2-y,-z
3 -x,1/2+y,1/2-z
4 1/2-x,-y,1/2+z
5 -x,-y,-z
6 -1/2-x,-1/2+y,z
7 x,-1/2-y,-1/2+z
8 -1/2+x,y,-1/2-z
_cell_length_a 20.625(4)
_cell_length_b 12.919(4)
_cell_length_c 12.029(6)
_cell_angle_alpha 90
_cell_angle_beta 90
_cell_angle_gamma 90
_cell_formula_units_Z 8
loop_
_atom_type_symbol
_atom_type_radius_bond
C 0.68
H 0.23
Br 1.21
Mg 1.20
O 0.68
loop_
_atom_site_label
_atom_site_type_symbol
_atom_site_fract_x
_atom_site_fract_y
_atom_site_fract_z
Mg1 Mg 0.62041(14) 0.0758(2) 0.2802(2)
Br1 Br 0.55326(4) 0.21181(7) 0.39542(7)
O1 O 0.5791(3) -0.0577(4) 0.3632(5)
O2 O 0.5277(3) 0.0417(4) 0.1936(4)
O3 O 0.6433(3) 0.1863(5) 0.1530(5)
O4 O 0.6587(3) -0.0159(5) 0.1390(5)
C1 C 0.6092(5) -0.1221(8) 0.4467(7)
H1 H 0.64770 -0.08890 0.47380
H2 H 0.62040 -0.18780 0.41460
H3 H 0.57950 -0.13260 0.50710
C2 C 0.5213(5) -0.0997(7) 0.3196(7)
H4 H 0.49530 -0.12840 0.37920
H5 H 0.53150 -0.15490 0.26780
C3 C 0.4849(4) -0.0176(6) 0.2622(8)
H6 H 0.45110 -0.04820 0.21680
H7 H 0.46450 0.02730 0.31660
C4 C 0.4930(4) 0.1169(6) 0.1300(7)
H8 H 0.52280 0.15500 0.08430
H9 H 0.47100 0.16370 0.17940
H10 H 0.46170 0.08260 0.08370
C5 C 0.6583(4) 0.2929(7) 0.1742(7)
H11 H 0.63370 0.31660 0.23710
H12 H 0.64740 0.33370 0.11020
H13 H 0.70370 0.29970 0.18970
C6 C 0.6787(4) 0.1475(7) 0.0596(7)
H14 H 0.72470 0.14520 0.07630
H15 H 0.67210 0.19180 -0.00450
C7 C 0.6538(4) 0.0414(7) 0.0366(7)
H16 H 0.60910 0.04440 0.01200
H17 H 0.67950 0.00850 -0.02100
C8 C 0.6488(5) -0.1237(7) 0.1253(9)
H18 H 0.65260 -0.15760 0.19600
H19 H 0.68080 -0.15090 0.07520
H20 H 0.60630 -0.13570 0.09530
C9 C 0.7140(4) 0.0655(7) 0.3689(6)
H21 H 0.70670 0.08240 0.44650
H22 H 0.72900 -0.00560 0.36580
C10 C 0.7627(5) 0.1284(7) 0.3291(7)
H23 H 0.76160 0.19640 0.35450
C11 C 0.8115(5) 0.1061(8) 0.2587(9)
H24 H 0.81560 0.03970 0.22990
H25 H 0.84120 0.15720 0.23900
#END
