####################################################################### 
# 
# This file contains crystal structure data downloaded from the 
# Cambridge Structural Database (CSD) hosted by the Cambridge 
# Crystallographic Data Centre (CCDC).
# 
# Full information about CCDC data access policies and citation 
# guidelines are available at http://www.ccdc.cam.ac.uk/access/V1 
# 
# Audit and citation data items may have been added by the CCDC. 
# Please retain this information to preserve the provenance of 
# this file and to allow appropriate attribution of the data. 
# 
#######################################################################

data_2
_audit_block_doi                 10.5517/ccv8x44
_database_code_depnum_ccdc_archive 'CCDC 783126'
loop_
_citation_id
_citation_doi
_citation_year
1 10.1016/j.molstruc.2010.11.059 2011
_audit_update_record             
;
2010-07-02 deposited with the CCDC.	2024-07-12 downloaded from the CCDC.
;
#TrackingRef 'compound 2.CIF'


_audit_creation_method           SHELXL-97
_chemical_name_systematic        
;
?
;
_chemical_name_common            ?
_chemical_melting_point          ?
_chemical_formula_moiety         ?
_chemical_formula_sum            'C6 H7 As O7.50 Pb1.50 S'
_chemical_formula_weight         616.88

loop_
_atom_type_symbol
_atom_type_description
_atom_type_scat_dispersion_real
_atom_type_scat_dispersion_imag
_atom_type_scat_source
C C 0.0033 0.0016 'International Tables Vol C Tables 4.2.6.8 and 6.1.1.4'
H H 0.0000 0.0000 'International Tables Vol C Tables 4.2.6.8 and 6.1.1.4'
O O 0.0106 0.0060 'International Tables Vol C Tables 4.2.6.8 and 6.1.1.4'
S S 0.1246 0.1234 'International Tables Vol C Tables 4.2.6.8 and 6.1.1.4'
As As 0.0499 2.0058 'International Tables Vol C Tables 4.2.6.8 and 6.1.1.4'
Pb Pb -3.3944 10.1111 'International Tables Vol C Tables 4.2.6.8 and 6.1.1.4'

_symmetry_cell_setting           monoclinic
_symmetry_space_group_name_H-M   C2/c

loop_
_symmetry_equiv_pos_as_xyz
'x, y, z'
'-x, y, -z+1/2'
'x+1/2, y+1/2, z'
'-x+1/2, y+1/2, -z+1/2'
'-x, -y, -z'
'x, -y, z-1/2'
'-x+1/2, -y+1/2, -z'
'x+1/2, -y+1/2, z-1/2'

_cell_length_a                   19.2559(8)
_cell_length_b                   15.4069(8)
_cell_length_c                   10.7376(7)
_cell_angle_alpha                90.00
_cell_angle_beta                 103.3470(9)
_cell_angle_gamma                90.00
_cell_volume                     3099.5(3)
_cell_formula_units_Z            8
_cell_measurement_temperature    293(2)
_cell_measurement_reflns_used    2576
_cell_measurement_theta_min      2.1739
_cell_measurement_theta_max      27.4835

_exptl_crystal_description       prism
_exptl_crystal_colour            colorless
_exptl_crystal_size_max          0.11
_exptl_crystal_size_mid          0.02
_exptl_crystal_size_min          0.02
_exptl_crystal_density_meas      ?
_exptl_crystal_density_diffrn    2.644
_exptl_crystal_density_method    'not measured'
_exptl_crystal_F_000             2200
_exptl_absorpt_coefficient_mu    18.563
_exptl_absorpt_correction_type   Multi-scan
_exptl_absorpt_correction_T_min  0.772
_exptl_absorpt_correction_T_max  1
_exptl_absorpt_process_details   ?

_exptl_special_details           
;
?
;

_diffrn_ambient_temperature      293(2)
_diffrn_radiation_wavelength     0.71073
_diffrn_radiation_type           MoK\a
_diffrn_radiation_source         'fine-focus sealed tube'
_diffrn_radiation_monochromator  graphite
_diffrn_measurement_device_type  'Saturn70 (4x4 bin mode)'
_diffrn_measurement_method       CCD_Profile_fitting
_diffrn_detector_area_resol_mean 28.5714
_diffrn_standards_number         ?
_diffrn_standards_interval_count ?
_diffrn_standards_interval_time  ?
_diffrn_standards_decay_%        ?
_diffrn_reflns_number            12078
_diffrn_reflns_av_R_equivalents  0.1054
_diffrn_reflns_av_sigmaI/netI    0.1083
_diffrn_reflns_limit_h_min       -20
_diffrn_reflns_limit_h_max       24
_diffrn_reflns_limit_k_min       -19
_diffrn_reflns_limit_k_max       19
_diffrn_reflns_limit_l_min       -13
_diffrn_reflns_limit_l_max       13
_diffrn_reflns_theta_min         3.42
_diffrn_reflns_theta_max         27.44
_reflns_number_total             3513
_reflns_number_gt                2109
_reflns_threshold_expression     >2sigma(I)

_computing_data_collection       'CrystalClear (Rigaku/MSC Inc., 2005)'
_computing_cell_refinement       'CrystalClear (Rigaku/MSC Inc., 2005)'
_computing_data_reduction        'CrystalClear (Rigaku/MSC Inc., 2005)'
_computing_structure_solution    'SHELXS-97 (Sheldrick, 1990)'
_computing_structure_refinement  'SHELXL-97 (Sheldrick, 1997)'
_computing_molecular_graphics    ?
_computing_publication_material  ?

_refine_special_details          
;
Refinement of F^2^ against ALL reflections. The weighted R-factor wR and
goodness of fit S are based on F^2^, conventional R-factors R are based
on F, with F set to zero for negative F^2^. The threshold expression of
F^2^ > 2sigma(F^2^) is used only for calculating R-factors(gt) etc. and is
not relevant to the choice of reflections for refinement. R-factors based
on F^2^ are statistically about twice as large as those based on F, and R-
factors based on ALL data will be even larger.
;

_refine_ls_structure_factor_coef Fsqd
_refine_ls_matrix_type           full
_refine_ls_weighting_scheme      calc
_refine_ls_weighting_details     
'calc w=1/[\s^2^(Fo^2^)+(0.0585P)^2^+36.4900P] where P=(Fo^2^+2Fc^2^)/3'
_atom_sites_solution_primary     direct
_atom_sites_solution_secondary   difmap
_atom_sites_solution_hydrogens   geom
_refine_ls_hydrogen_treatment    constr
_refine_ls_extinction_method     shelxtl
_refine_ls_extinction_coef       ?
_refine_ls_number_reflns         3513
_refine_ls_number_parameters     165
_refine_ls_number_restraints     0
_refine_ls_R_factor_all          0.1282
_refine_ls_R_factor_gt           0.0707
_refine_ls_wR_factor_ref         0.1622
_refine_ls_wR_factor_gt          0.1392
_refine_ls_goodness_of_fit_ref   1.067
_refine_ls_restrained_S_all      1.067
_refine_ls_shift/su_max          0.001
_refine_ls_shift/su_mean         0.000

loop_
_atom_site_label
_atom_site_type_symbol
_atom_site_fract_x
_atom_site_fract_y
_atom_site_fract_z
_atom_site_U_iso_or_equiv
_atom_site_adp_type
_atom_site_occupancy
_atom_site_symmetry_multiplicity
_atom_site_calc_flag
_atom_site_refinement_flags
_atom_site_disorder_assembly
_atom_site_disorder_group
Pb1 Pb 0.63388(3) 0.91315(5) 0.44029(6) 0.0282(2) Uani 1 1 d . . .
Pb2 Pb 0.5000 0.91650(7) 0.7500 0.0233(2) Uani 1 2 d S . .
As1 As 0.44259(8) 0.89955(11) 0.41125(16) 0.0192(4) Uani 1 1 d . . .
S1 S 0.2091(3) 0.5939(4) 0.2682(5) 0.0341(11) Uani 1 1 d . . .
C1 C 0.3748(9) 0.8102(12) 0.3700(18) 0.026(4) Uani 1 1 d . . .
C2 C 0.3016(10) 0.8241(15) 0.368(3) 0.074(10) Uani 1 1 d . . .
H2A H 0.2863 0.8786 0.3875 0.089 Uiso 1 1 calc R . .
C3 C 0.2535(10) 0.7580(15) 0.337(3) 0.057(7) Uani 1 1 d . . .
H3A H 0.2058 0.7680 0.3365 0.068 Uiso 1 1 calc R . .
C4 C 0.2740(9) 0.6786(12) 0.3077(16) 0.024(4) Uani 1 1 d . . .
C5 C 0.3409(10) 0.6633(15) 0.310(3) 0.065(8) Uani 1 1 d . . .
H5A H 0.3543 0.6073 0.2931 0.078 Uiso 1 1 calc R . .
C6 C 0.3930(11) 0.7281(19) 0.336(3) 0.085(11) Uani 1 1 d . . .
H6A H 0.4395 0.7162 0.3300 0.103 Uiso 1 1 calc R . .
O1 O 0.4284(6) 0.9607(8) 0.5352(11) 0.026(3) Uani 1 1 d . . .
O2 O 0.4299(6) 0.9637(8) 0.2806(10) 0.024(3) Uani 1 1 d . . .
O3 O 0.5222(6) 0.8530(8) 0.4538(12) 0.030(3) Uani 1 1 d . . .
O4 O 0.2169(7) 0.5419(8) 0.3832(13) 0.038(3) Uani 1 1 d . . .
O5 O 0.2265(9) 0.5463(10) 0.1641(14) 0.055(4) Uani 1 1 d . . .
O6 O 0.1412(7) 0.6348(11) 0.2274(16) 0.062(5) Uani 1 1 d . . .
O1W O 0.7500 0.7500 0.5000 0.103(11) Uani 1 2 d S . .
O2W O 0.710(2) 0.660(5) 0.542(5) 0.15(3) Uani 0.50 1 d P . .
O2W' O 0.648(2) 0.733(3) 0.480(4) 0.096(15) Uani 0.50 1 d P . .

loop_
_atom_site_aniso_label
_atom_site_aniso_U_11
_atom_site_aniso_U_22
_atom_site_aniso_U_33
_atom_site_aniso_U_23
_atom_site_aniso_U_13
_atom_site_aniso_U_12
Pb1 0.0248(4) 0.0302(4) 0.0273(4) 0.0017(3) 0.0012(3) 0.0035(3)
Pb2 0.0255(5) 0.0196(5) 0.0239(5) 0.000 0.0034(4) 0.000
As1 0.0200(8) 0.0179(9) 0.0181(9) 0.0025(7) 0.0010(6) -0.0047(7)
S1 0.036(3) 0.031(3) 0.030(3) 0.004(2) -0.005(2) -0.014(2)
C1 0.021(9) 0.020(10) 0.041(12) 0.012(8) 0.012(8) 0.002(7)
C2 0.020(10) 0.033(14) 0.16(3) -0.042(16) 0.009(14) -0.008(9)
C3 0.014(9) 0.038(14) 0.12(2) -0.023(14) 0.022(12) -0.008(9)
C4 0.022(8) 0.033(11) 0.020(9) 0.000(8) 0.009(7) -0.013(8)
C5 0.022(10) 0.033(14) 0.14(3) -0.042(15) 0.026(13) -0.016(9)
C6 0.017(11) 0.07(2) 0.17(3) -0.05(2) 0.023(15) -0.009(11)
O1 0.034(7) 0.030(8) 0.013(6) -0.001(5) 0.001(5) -0.007(6)
O2 0.018(6) 0.037(8) 0.016(6) 0.002(5) -0.002(5) -0.006(5)
O3 0.024(6) 0.025(8) 0.034(8) 0.006(6) -0.005(5) -0.006(5)
O4 0.039(8) 0.029(8) 0.043(9) 0.013(6) 0.004(6) -0.019(6)
O5 0.082(11) 0.042(10) 0.041(10) -0.017(7) 0.015(8) -0.032(9)
O6 0.018(7) 0.060(11) 0.091(13) 0.030(9) -0.018(7) -0.028(7)
O1W 0.12(3) 0.10(3) 0.07(2) -0.010(18) -0.025(19) 0.04(2)
O2W 0.05(2) 0.30(8) 0.12(4) -0.12(5) 0.06(3) -0.01(4)
O2W' 0.14(4) 0.08(3) 0.07(3) 0.00(2) 0.02(3) 0.04(3)

_geom_special_details            
;
All esds (except the esd in the dihedral angle between two l.s. planes)
are estimated using the full covariance matrix. The cell esds are taken
into account individually in the estimation of esds in distances, angles
and torsion angles; correlations between esds in cell parameters are only
used when they are defined by crystal symmetry. An approximate (isotropic)
treatment of cell esds is used for estimating esds involving l.s. planes.
;

loop_
_geom_bond_atom_site_label_1
_geom_bond_atom_site_label_2
_geom_bond_distance
_geom_bond_site_symmetry_2
_geom_bond_publ_flag
Pb1 O1 2.330(12) 5_676 ?
Pb1 O3 2.377(11) . ?
Pb1 O2 2.528(11) 2_655 ?
Pb1 O4 2.706(11) 3 ?
Pb1 O5 2.714(17) 8_566 ?
Pb2 O2 2.355(11) 6_576 ?
Pb2 O2 2.355(11) 5_676 ?
Pb2 O1 2.494(11) 2_656 ?
Pb2 O1 2.494(11) . ?
As1 O3 1.658(12) . ?
As1 O2 1.687(11) . ?
As1 O1 1.704(12) . ?
As1 C1 1.878(18) . ?
S1 O6 1.426(15) . ?
S1 O5 1.439(15) . ?
S1 O4 1.450(13) . ?
S1 C4 1.789(17) . ?
C1 C6 1.38(3) . ?
C1 C2 1.42(3) . ?
C2 C3 1.37(3) . ?
C3 C4 1.34(3) . ?
C4 C5 1.30(3) . ?
C5 C6 1.40(3) . ?
O1 Pb1 2.330(12) 5_676 ?
O2 Pb2 2.355(11) 5_676 ?
O2 Pb1 2.528(11) 2_655 ?
O4 Pb1 2.706(11) 3_445 ?
O5 Pb1 2.714(17) 8_465 ?
O1W O2W 1.70(7) . ?
O1W O2W 1.70(7) 7_666 ?
O2W O2W' 1.67(7) . ?

loop_
_geom_angle_atom_site_label_1
_geom_angle_atom_site_label_2
_geom_angle_atom_site_label_3
_geom_angle
_geom_angle_site_symmetry_1
_geom_angle_site_symmetry_3
_geom_angle_publ_flag
O1 Pb1 O3 79.8(4) 5_676 . ?
O1 Pb1 O2 72.4(4) 5_676 2_655 ?
O3 Pb1 O2 85.8(4) . 2_655 ?
O1 Pb1 O4 76.1(4) 5_676 3 ?
O3 Pb1 O4 152.9(4) . 3 ?
O2 Pb1 O4 75.3(4) 2_655 3 ?
O1 Pb1 O5 87.6(4) 5_676 8_566 ?
O3 Pb1 O5 117.0(4) . 8_566 ?
O2 Pb1 O5 146.8(4) 2_655 8_566 ?
O4 Pb1 O5 74.3(4) 3 8_566 ?
O2 Pb2 O2 76.7(6) 6_576 5_676 ?
O2 Pb2 O1 82.5(4) 6_576 2_656 ?
O2 Pb2 O1 72.7(4) 5_676 2_656 ?
O2 Pb2 O1 72.7(4) 6_576 . ?
O2 Pb2 O1 82.5(4) 5_676 . ?
O1 Pb2 O1 148.3(6) 2_656 . ?
O3 As1 O2 115.5(6) . . ?
O3 As1 O1 109.2(6) . . ?
O2 As1 O1 107.9(6) . . ?
O3 As1 C1 107.2(7) . . ?
O2 As1 C1 105.9(7) . . ?
O1 As1 C1 111.2(7) . . ?
O6 S1 O5 110.4(11) . . ?
O6 S1 O4 114.4(9) . . ?
O5 S1 O4 112.6(9) . . ?
O6 S1 C4 106.9(9) . . ?
O5 S1 C4 106.3(8) . . ?
O4 S1 C4 105.7(8) . . ?
C6 C1 C2 116.4(18) . . ?
C6 C1 As1 121.9(14) . . ?
C2 C1 As1 121.7(15) . . ?
C3 C2 C1 120(2) . . ?
C4 C3 C2 121.1(18) . . ?
C5 C4 C3 120.1(17) . . ?
C5 C4 S1 120.4(16) . . ?
C3 C4 S1 119.5(13) . . ?
C4 C5 C6 122(2) . . ?
C1 C6 C5 119.4(19) . . ?
As1 O1 Pb1 136.8(6) . 5_676 ?
As1 O1 Pb2 114.7(6) . . ?
Pb1 O1 Pb2 108.2(4) 5_676 . ?
As1 O2 Pb2 126.7(6) . 5_676 ?
As1 O2 Pb1 123.1(6) . 2_655 ?
Pb2 O2 Pb1 106.3(4) 5_676 2_655 ?
As1 O3 Pb1 127.3(7) . . ?
S1 O4 Pb1 130.3(7) . 3_445 ?
S1 O5 Pb1 110.3(9) . 8_465 ?
O2W O1W O2W 180.000(12) . 7_666 ?
O2W' O2W O1W 71(4) . . ?

_diffrn_measured_fraction_theta_max 0.994
_diffrn_reflns_theta_full        27.44
_diffrn_measured_fraction_theta_full 0.994
_refine_diff_density_max         1.972
_refine_diff_density_min         -1.672
_refine_diff_density_rms         0.337
