####################################################################### 
# 
# This file contains crystal structure data downloaded from the 
# Cambridge Structural Database (CSD) hosted by the Cambridge 
# Crystallographic Data Centre (CCDC).
# 
# Full information about CCDC data access policies and citation 
# guidelines are available at http://www.ccdc.cam.ac.uk/access/V1 
# 
# Audit and citation data items may have been added by the CCDC. 
# Please retain this information to preserve the provenance of 
# this file and to allow appropriate attribution of the data. 
# 
#######################################################################

data_aa
_audit_block_doi                 10.5517/ccvp7sj
_database_code_depnum_ccdc_archive 'CCDC 794988'
loop_
_citation_id
_citation_doi
_citation_year
1 10.1039/c0cc04146g 2011
_audit_update_record             
;
2010-09-28 deposited with the CCDC.	2024-07-12 downloaded from the CCDC.
;
#TrackingRef '- NJU-Bai2.cif'


_audit_creation_method           SHELXL-97
_chemical_name_systematic        
;
?
;
_chemical_name_common            ?
_chemical_melting_point          ?
_chemical_formula_moiety         ?
_chemical_formula_sum            'C51 H38 N5 O18 Zn4'
_chemical_formula_weight         1270.34

loop_
_atom_type_symbol
_atom_type_description
_atom_type_scat_dispersion_real
_atom_type_scat_dispersion_imag
_atom_type_scat_source
C C 0.0033 0.0016 'International Tables Vol C Tables 4.2.6.8 and 6.1.1.4'
H H 0.0000 0.0000 'International Tables Vol C Tables 4.2.6.8 and 6.1.1.4'
N N 0.0061 0.0033 'International Tables Vol C Tables 4.2.6.8 and 6.1.1.4'
O O 0.0106 0.0060 'International Tables Vol C Tables 4.2.6.8 and 6.1.1.4'
Zn Zn 0.2839 1.4301 'International Tables Vol C Tables 4.2.6.8 and 6.1.1.4'

_symmetry_cell_setting           Monoclinic
_symmetry_space_group_name_H-M   'P 21/c'
_symmetry_space_group_name_Hall  '-P 2ybc'

loop_
_symmetry_equiv_pos_as_xyz
'x, y, z'
'-x, y+1/2, -z+1/2'
'-x, -y, -z'
'x, -y-1/2, z-1/2'

_cell_length_a                   19.0893(15)
_cell_length_b                   26.952(2)
_cell_length_c                   31.7133(18)
_cell_angle_alpha                90.00
_cell_angle_beta                 119.592(3)
_cell_angle_gamma                90.00
_cell_volume                     14188.1(17)
_cell_formula_units_Z            4
_cell_measurement_temperature    291(2)
_cell_measurement_reflns_used    122768
_cell_measurement_theta_min      1.1
_cell_measurement_theta_max      26

_exptl_crystal_description       block
_exptl_crystal_colour            colourless
_exptl_crystal_size_max          0.18
_exptl_crystal_size_mid          0.16
_exptl_crystal_size_min          0.14
_exptl_crystal_density_meas      ?
_exptl_crystal_density_diffrn    0.595
_exptl_crystal_density_method    'not measured'
_exptl_crystal_F_000             2572
_exptl_absorpt_coefficient_mu    0.697
_exptl_absorpt_correction_type   multi-scan
_exptl_absorpt_correction_T_min  0.8848
_exptl_absorpt_correction_T_max  0.9087
_exptl_absorpt_process_details   'SADABS; Bruker, 2000'

_exptl_special_details           
;
?
;

_diffrn_ambient_temperature      291(2)
_diffrn_radiation_wavelength     0.71073
_diffrn_radiation_type           MoK\a
_diffrn_radiation_source         'fine-focus sealed tube'
_diffrn_radiation_monochromator  graphite
_diffrn_measurement_device_type  'Bruker Smart Aepex CCD'
_diffrn_measurement_method       'phi and omega scans'
_diffrn_detector_area_resol_mean ?
_diffrn_standards_number         ?
_diffrn_standards_interval_count ?
_diffrn_standards_interval_time  ?
_diffrn_standards_decay_%        ?
_diffrn_reflns_number            95416
_diffrn_reflns_av_R_equivalents  0.0669
_diffrn_reflns_av_sigmaI/netI    0.0681
_diffrn_reflns_limit_h_min       -23
_diffrn_reflns_limit_h_max       20
_diffrn_reflns_limit_k_min       -33
_diffrn_reflns_limit_k_max       33
_diffrn_reflns_limit_l_min       -33
_diffrn_reflns_limit_l_max       39
_diffrn_reflns_theta_min         1.06
_diffrn_reflns_theta_max         26.00
_reflns_number_total             27890
_reflns_number_gt                18198
_reflns_threshold_expression     >2sigma(I)

_computing_data_collection       'SMART, (Bruker, 2000)'
_computing_cell_refinement       SMART
_computing_data_reduction        'SAINT (Bruker, 2000)'
_computing_structure_solution    'SHELXTL (Bruker, 2000)'
_computing_structure_refinement  SHELXTL
_computing_molecular_graphics    SHELXTL
_computing_publication_material  SHELXTL

_refine_special_details          
;
Refinement of F^2^ against ALL reflections. The weighted R-factor wR and
goodness of fit S are based on F^2^, conventional R-factors R are based
on F, with F set to zero for negative F^2^. The threshold expression of
F^2^ > 2sigma(F^2^) is used only for calculating R-factors(gt) etc. and is
not relevant to the choice of reflections for refinement. R-factors based
on F^2^ are statistically about twice as large as those based on F, and R-
factors based on ALL data will be even larger.
;

_refine_ls_structure_factor_coef Fsqd
_refine_ls_matrix_type           full
_refine_ls_weighting_scheme      calc
_refine_ls_weighting_details     
'calc w=1/[\s^2^(Fo^2^)+(0.0600P)^2^+1.8800P] where P=(Fo^2^+2Fc^2^)/3'
_atom_sites_solution_primary     direct
_atom_sites_solution_secondary   difmap
_atom_sites_solution_hydrogens   geom
_refine_ls_hydrogen_treatment    constr
_refine_ls_extinction_method     none
_refine_ls_extinction_coef       ?
_refine_ls_number_reflns         27890
_refine_ls_number_parameters     707
_refine_ls_number_restraints     0
_refine_ls_R_factor_all          0.0886
_refine_ls_R_factor_gt           0.0614
_refine_ls_wR_factor_ref         0.1428
_refine_ls_wR_factor_gt          0.1359
_refine_ls_goodness_of_fit_ref   1.074
_refine_ls_restrained_S_all      1.074
_refine_ls_shift/su_max          0.000
_refine_ls_shift/su_mean         0.000

loop_
_atom_site_label
_atom_site_type_symbol
_atom_site_fract_x
_atom_site_fract_y
_atom_site_fract_z
_atom_site_U_iso_or_equiv
_atom_site_adp_type
_atom_site_occupancy
_atom_site_symmetry_multiplicity
_atom_site_calc_flag
_atom_site_refinement_flags
_atom_site_disorder_assembly
_atom_site_disorder_group
C1 C 0.41782(18) 0.58932(11) 0.45930(11) 0.0439(7) Uani 1 1 d . . .
C2 C 0.49471(19) 0.59058(11) 0.45739(10) 0.0429(7) Uani 1 1 d . . .
C3 C 0.51357(19) 0.63409(11) 0.44130(11) 0.0438(7) Uani 1 1 d . . .
H3 H 0.4776 0.6606 0.4306 0.053 Uiso 1 1 calc R . .
C4 C 0.58579(18) 0.63775(11) 0.44127(11) 0.0441(7) Uani 1 1 d . . .
H4 H 0.5980 0.6666 0.4301 0.053 Uiso 1 1 calc R . .
C5 C 0.64019(18) 0.59863(10) 0.45781(11) 0.0421(7) Uani 1 1 d . . .
C6 C 0.62131(18) 0.55564(11) 0.47409(11) 0.0469(8) Uani 1 1 d . . .
H6 H 0.6576 0.5293 0.4852 0.056 Uiso 1 1 calc R . .
C7 C 0.54864(18) 0.55167(12) 0.47386(11) 0.0476(8) Uani 1 1 d . . .
H7 H 0.5363 0.5227 0.4848 0.057 Uiso 1 1 calc R . .
C8 C 0.71762(18) 0.60239(11) 0.45745(11) 0.0432(7) Uani 1 1 d . . .
C9 C 0.86638(18) 0.60879(10) 0.50121(11) 0.0426(7) Uani 1 1 d . . .
C10 C 0.91377(17) 0.65135(11) 0.51565(11) 0.0436(7) Uani 1 1 d . . .
H10 H 0.8965 0.6794 0.5250 0.052 Uiso 1 1 calc R . .
C11 C 0.98705(18) 0.65203(10) 0.51614(10) 0.0409(7) Uani 1 1 d . . .
H11 H 1.0189 0.6804 0.5262 0.049 Uiso 1 1 calc R . .
C12 C 1.01272(19) 0.61068(11) 0.50175(10) 0.0430(7) Uani 1 1 d . . .
C13 C 0.96499(18) 0.56765(11) 0.48707(11) 0.0441(7) Uani 1 1 d . . .
H13 H 0.9822 0.5397 0.4775 0.053 Uiso 1 1 calc R . .
C14 C 0.89241(18) 0.56677(11) 0.48691(11) 0.0448(7) Uani 1 1 d . . .
H14 H 0.8609 0.5382 0.4773 0.054 Uiso 1 1 calc R . .
C15 C 1.09003(19) 0.61324(11) 0.50112(11) 0.0463(7) Uani 1 1 d . . .
C16 C 0.34835(19) 0.51170(11) 0.58528(11) 0.0471(8) Uani 1 1 d . . .
C17 C 0.38861(18) 0.47073(11) 0.62062(11) 0.0469(8) Uani 1 1 d . . .
C18 C 0.38853(19) 0.47145(12) 0.66455(11) 0.0513(8) Uani 1 1 d . . .
H18 H 0.3635 0.4974 0.6714 0.062 Uiso 1 1 calc R . .
C19 C 0.42548(19) 0.43373(12) 0.69815(12) 0.0504(8) Uani 1 1 d . . .
H19 H 0.4254 0.4343 0.7274 0.060 Uiso 1 1 calc R . .
C20 C 0.46265(18) 0.39497(10) 0.68772(10) 0.0421(7) Uani 1 1 d . . .
C21 C 0.4635(2) 0.39387(12) 0.64422(11) 0.0501(8) Uani 1 1 d . . .
H21 H 0.4889 0.3681 0.6376 0.060 Uiso 1 1 calc R . .
C22 C 0.4261(2) 0.43138(11) 0.61087(11) 0.0498(8) Uani 1 1 d . . .
H22 H 0.4260 0.4305 0.5815 0.060 Uiso 1 1 calc R . .
C23 C 0.50408(18) 0.85133(12) 0.73613(11) 0.0456(7) Uani 1 1 d . . .
C24 C 0.46471(19) 0.81083(11) 0.69878(11) 0.0444(7) Uani 1 1 d . . .
C25 C 0.38567(19) 0.81657(11) 0.66117(10) 0.0449(7) Uani 1 1 d . . .
H25 H 0.3585 0.8462 0.6581 0.054 Uiso 1 1 calc R . .
C26 C 0.34711(18) 0.77834(11) 0.62812(10) 0.0413(7) Uani 1 1 d . . .
H26 H 0.2939 0.7819 0.6036 0.050 Uiso 1 1 calc R . .
C27 C 0.38935(18) 0.73474(11) 0.63232(10) 0.0432(7) Uani 1 1 d . . .
C28 C 0.46895(17) 0.72907(11) 0.66969(10) 0.0425(7) Uani 1 1 d . . .
H28 H 0.4969 0.6998 0.6725 0.051 Uiso 1 1 calc R . .
C29 C 0.50588(18) 0.76757(11) 0.70251(11) 0.0503(9) Uani 1 1 d . . .
H29 H 0.5589 0.7641 0.7272 0.060 Uiso 1 1 calc R . .
C30 C 0.34962(18) 0.69667(11) 0.59473(10) 0.0416(7) Uani 1 1 d . . .
C31 C 0.17548(18) 0.51368(12) 0.40938(11) 0.0437(7) Uani 1 1 d . . .
C32 C 0.13262(17) 0.47507(11) 0.37276(10) 0.0416(7) Uani 1 1 d . . .
C33 C 0.10902(17) 0.43183(11) 0.38573(11) 0.0430(7) Uani 1 1 d . . .
H33 H 0.1184 0.4277 0.4172 0.052 Uiso 1 1 calc R . .
C34 C 0.07125(18) 0.39455(11) 0.35151(10) 0.0434(7) Uani 1 1 d . . .
H34 H 0.0554 0.3654 0.3600 0.052 Uiso 1 1 calc R . .
C35 C 0.05743(19) 0.40103(10) 0.30496(11) 0.0428(7) Uani 1 1 d . . .
C36 C 0.08083(18) 0.44406(11) 0.29143(11) 0.0426(7) Uani 1 1 d . . .
H36 H 0.0712 0.4480 0.2599 0.051 Uiso 1 1 calc R . .
C37 C 0.11898(18) 0.48154(11) 0.32571(10) 0.0443(7) Uani 1 1 d . . .
H37 H 0.1352 0.5106 0.3172 0.053 Uiso 1 1 calc R . .
C38 C 0.02004(18) 0.35903(11) 0.27086(11) 0.0455(7) Uani 1 1 d . . .
C39 C 0.06312(18) 0.82535(11) 0.30837(11) 0.0459(7) Uani 1 1 d . . .
C40 C 0.08485(18) 0.78347(11) 0.29306(11) 0.0431(7) Uani 1 1 d . . .
H40 H 0.0752 0.7815 0.2614 0.052 Uiso 1 1 calc R . .
C41 C 0.12148(18) 0.74357(11) 0.32494(10) 0.0441(7) Uani 1 1 d . . .
H41 H 0.1373 0.7155 0.3148 0.053 Uiso 1 1 calc R . .
C42 C 0.13396(18) 0.74661(11) 0.37236(10) 0.0434(7) Uani 1 1 d . . .
C43 C 0.11086(18) 0.78818(11) 0.38727(12) 0.0461(7) Uani 1 1 d . . .
H43 H 0.1186 0.7896 0.4186 0.055 Uiso 1 1 calc R . .
C44 C 0.07553(19) 0.82878(12) 0.35563(11) 0.0483(8) Uani 1 1 d . . .
H44 H 0.0608 0.8572 0.3659 0.058 Uiso 1 1 calc R . .
C45 C 0.17358(17) 0.70328(11) 0.40579(11) 0.0434(7) Uani 1 1 d . . .
C46 C 0.54806(16) 0.57261(11) 0.59435(10) 0.0406(7) Uani 1 1 d . . .
H46 H 0.5205 0.5426 0.5863 0.049 Uiso 1 1 calc R . .
C47 C 0.68170(18) 0.52411(11) 0.62854(11) 0.0464(8) Uani 1 1 d . . .
H47A H 0.6907 0.5109 0.6589 0.070 Uiso 1 1 calc R . .
H47B H 0.7326 0.5296 0.6301 0.070 Uiso 1 1 calc R . .
H47C H 0.6506 0.5009 0.6031 0.070 Uiso 1 1 calc R . .
C48 C 0.68522(18) 0.62003(10) 0.62965(11) 0.0432(7) Uani 1 1 d . . .
H48A H 0.6654 0.6394 0.6006 0.065 Uiso 1 1 calc R . .
H48B H 0.7410 0.6124 0.6417 0.065 Uiso 1 1 calc R . .
H48C H 0.6796 0.6385 0.6537 0.065 Uiso 1 1 calc R . .
C49 C 0.45184(17) 0.70220(10) 0.52444(11) 0.0424(7) Uani 1 1 d . . .
H49 H 0.4966 0.6964 0.5547 0.051 Uiso 1 1 calc R . .
C50 C 0.53517(17) 0.76377(11) 0.50495(11) 0.0428(7) Uani 1 1 d . . .
H50A H 0.5413 0.7960 0.5193 0.064 Uiso 1 1 calc R . .
H50B H 0.5375 0.7667 0.4755 0.064 Uiso 1 1 calc R . .
H50C H 0.5777 0.7424 0.5271 0.064 Uiso 1 1 calc R . .
C51 C 0.37799(18) 0.75890(10) 0.44972(11) 0.0439(7) Uani 1 1 d . . .
H51A H 0.3507 0.7308 0.4298 0.066 Uiso 1 1 calc R . .
H51B H 0.3908 0.7820 0.4315 0.066 Uiso 1 1 calc R . .
H51C H 0.3437 0.7747 0.4599 0.066 Uiso 1 1 calc R . .
N1 N 0.78770(15) 0.60560(9) 0.49946(9) 0.0451(6) Uani 1 1 d . . .
N2 N -0.01978(15) 0.36573(9) 0.22639(9) 0.0440(6) Uani 1 1 d . . .
N3 N 0.50252(15) 0.85211(9) 0.77681(9) 0.0428(6) Uani 1 1 d . . .
N4 N 0.63709(14) 0.57201(8) 0.61854(8) 0.0403(6) Uani 1 1 d . . .
N5 N 0.45463(14) 0.74200(8) 0.49374(8) 0.0401(6) Uani 1 1 d . . .
O1 O 0.27413(12) 0.61011(7) 0.49826(7) 0.0402(5) Uani 1 1 d . . .
O2 O 0.35842(12) 0.61148(7) 0.42729(7) 0.0429(5) Uani 1 1 d . . .
O4 O 0.71826(12) 0.60140(7) 0.41816(7) 0.0430(5) Uani 1 1 d . . .
O5 O 1.12271(12) 0.65277(7) 0.50498(7) 0.0436(5) Uani 1 1 d . . .
O6 O 1.12315(12) 0.57331(7) 0.49985(7) 0.0406(5) Uani 1 1 d . . .
O7 O 0.39279(12) 0.54573(7) 0.58495(7) 0.0394(5) Uani 1 1 d . . .
O8 O 0.27629(12) 0.50732(7) 0.55778(7) 0.0432(5) Uani 1 1 d . . .
O9 O 0.53916(12) 0.88550(7) 0.72623(7) 0.0401(5) Uani 1 1 d . . .
O10 O 0.28108(12) 0.70906(7) 0.56134(7) 0.0417(5) Uani 1 1 d . . .
O12 O 0.19755(12) 0.55302(7) 0.39707(7) 0.0406(5) Uani 1 1 d . . .
O13 O 0.18717(12) 0.50476(7) 0.45123(7) 0.0395(5) Uani 1 1 d . . .
O14 O 0.01946(12) 0.31191(7) 0.27575(7) 0.0413(5) Uani 1 1 d . . .
O15 O 0.18414(12) 0.70537(7) 0.44779(7) 0.0412(5) Uani 1 1 d . . .
O17 O 0.50929(12) 0.61121(7) 0.58453(7) 0.0427(5) Uani 1 1 d . . .
O18 O 0.39269(12) 0.67696(7) 0.51112(7) 0.0422(5) Uani 1 1 d . . .
Zn1 Zn 0.26501(2) 0.609406(12) 0.434883(12) 0.04186(9) Uani 1 1 d . . .
O16 O 0.19845(11) 0.66818(7) 0.39237(7) 0.0406(5) Uani 1 1 d . . .
Zn2 Zn 0.21945(2) 0.553006(12) 0.503833(12) 0.04124(9) Uani 1 1 d . . .
O3 O 0.41226(12) 0.56477(7) 0.49014(7) 0.0419(5) Uani 1 1 d . . .
Zn3 Zn 0.38863(2) 0.611770(12) 0.549624(12) 0.04213(9) Uani 1 1 d . . .
O11 O 0.38456(12) 0.65720(7) 0.60003(7) 0.0409(5) Uani 1 1 d . . .
Zn4 Zn 0.22157(2) 0.668665(12) 0.503853(12) 0.04273(10) Uani 1 1 d . . .

loop_
_atom_site_aniso_label
_atom_site_aniso_U_11
_atom_site_aniso_U_22
_atom_site_aniso_U_33
_atom_site_aniso_U_23
_atom_site_aniso_U_13
_atom_site_aniso_U_12
C1 0.0410(17) 0.0384(16) 0.0383(16) -0.0096(13) 0.0091(13) -0.0016(13)
C2 0.0480(17) 0.0396(15) 0.0291(14) 0.0043(12) 0.0099(13) 0.0113(13)
C3 0.0448(17) 0.0389(16) 0.0379(15) -0.0020(12) 0.0130(13) 0.0105(13)
C4 0.0399(16) 0.0358(15) 0.0432(16) -0.0005(12) 0.0101(13) 0.0111(12)
C5 0.0352(15) 0.0343(15) 0.0450(16) 0.0130(12) 0.0106(13) 0.0107(12)
C6 0.0322(15) 0.0408(16) 0.0492(18) 0.0129(13) 0.0059(13) -0.0072(12)
C7 0.0407(17) 0.0456(17) 0.0482(18) 0.0136(14) 0.0156(14) 0.0083(13)
C8 0.0362(15) 0.0414(16) 0.0392(16) 0.0079(13) 0.0087(13) -0.0073(12)
C9 0.0399(16) 0.0339(15) 0.0444(16) -0.0062(12) 0.0135(13) 0.0026(12)
C10 0.0326(15) 0.0368(15) 0.0440(16) 0.0173(13) 0.0056(12) 0.0096(12)
C11 0.0439(16) 0.0330(15) 0.0398(15) 0.0140(12) 0.0161(13) 0.0014(12)
C12 0.0455(17) 0.0358(15) 0.0367(15) 0.0050(12) 0.0120(13) 0.0045(13)
C13 0.0388(16) 0.0410(16) 0.0439(16) -0.0086(13) 0.0138(13) -0.0021(13)
C14 0.0438(17) 0.0412(16) 0.0399(16) -0.0156(13) 0.0133(13) -0.0045(13)
C15 0.0401(16) 0.0387(17) 0.0431(16) -0.0120(13) 0.0076(13) -0.0061(13)
C16 0.0416(17) 0.0419(17) 0.0407(16) -0.0137(13) 0.0074(14) -0.0052(13)
C17 0.0355(15) 0.0426(17) 0.0410(16) -0.0126(13) 0.0024(13) -0.0093(13)
C18 0.0415(17) 0.0458(18) 0.0440(17) -0.0121(14) 0.0038(14) -0.0044(14)
C19 0.0407(17) 0.0440(17) 0.0474(18) -0.0040(14) 0.0072(14) -0.0032(13)
C20 0.0383(15) 0.0377(15) 0.0362(15) -0.0075(12) 0.0075(12) -0.0085(12)
C21 0.0512(19) 0.0474(18) 0.0425(17) -0.0096(14) 0.0162(14) -0.0089(15)
C22 0.0503(19) 0.0410(17) 0.0411(17) -0.0044(13) 0.0097(14) -0.0055(14)
C23 0.0360(16) 0.0463(17) 0.0388(16) -0.0085(13) 0.0065(13) 0.0005(13)
C24 0.0469(17) 0.0407(16) 0.0373(15) -0.0031(13) 0.0145(13) -0.0081(13)
C25 0.0455(17) 0.0418(16) 0.0326(15) 0.0068(12) 0.0078(13) 0.0078(13)
C26 0.0402(16) 0.0405(16) 0.0307(14) 0.0086(12) 0.0079(12) 0.0007(12)
C27 0.0347(15) 0.0382(15) 0.0358(15) -0.0017(12) 0.0013(12) -0.0018(12)
C28 0.0340(15) 0.0400(16) 0.0387(15) -0.0129(12) 0.0067(12) -0.0092(12)
C29 0.0344(15) 0.0379(16) 0.0414(16) -0.0089(13) -0.0097(13) -0.0046(12)
C30 0.0414(16) 0.0352(15) 0.0384(15) -0.0069(12) 0.0123(13) -0.0071(12)
C31 0.0351(15) 0.0478(17) 0.0377(16) 0.0080(13) 0.0099(13) -0.0017(13)
C32 0.0344(15) 0.0374(15) 0.0387(15) 0.0104(12) 0.0072(12) 0.0069(12)
C33 0.0344(15) 0.0389(15) 0.0381(15) 0.0107(12) 0.0045(12) 0.0093(12)
C34 0.0378(15) 0.0370(15) 0.0393(15) 0.0098(12) 0.0067(12) 0.0080(12)
C35 0.0447(17) 0.0314(14) 0.0378(15) 0.0073(12) 0.0093(13) 0.0108(12)
C36 0.0420(16) 0.0421(16) 0.0346(15) 0.0084(12) 0.0118(13) 0.0082(13)
C37 0.0432(17) 0.0422(16) 0.0353(15) 0.0104(13) 0.0099(13) 0.0154(13)
C38 0.0398(16) 0.0424(17) 0.0383(16) 0.0099(13) 0.0070(13) 0.0088(13)
C39 0.0359(16) 0.0450(17) 0.0469(17) 0.0035(14) 0.0128(13) 0.0044(13)
C40 0.0382(16) 0.0427(16) 0.0345(14) -0.0065(12) 0.0074(12) -0.0072(12)
C41 0.0412(17) 0.0424(16) 0.0326(15) -0.0050(12) 0.0058(13) -0.0069(13)
C42 0.0413(16) 0.0461(17) 0.0358(15) 0.0101(13) 0.0136(13) 0.0080(13)
C43 0.0428(17) 0.0391(16) 0.0461(17) 0.0073(13) 0.0141(14) 0.0120(13)
C44 0.0438(17) 0.0513(18) 0.0394(16) 0.0107(14) 0.0127(14) 0.0131(14)
C45 0.0326(15) 0.0415(16) 0.0375(16) 0.0031(13) 0.0030(12) 0.0050(12)
C46 0.0299(14) 0.0368(15) 0.0370(15) 0.0164(12) 0.0027(11) -0.0032(11)
C47 0.0375(16) 0.0390(16) 0.0441(16) 0.0074(13) 0.0057(13) 0.0031(12)
C48 0.0429(16) 0.0356(15) 0.0375(15) -0.0100(12) 0.0095(13) -0.0175(12)
C49 0.0319(15) 0.0353(15) 0.0413(16) -0.0110(12) 0.0039(12) 0.0076(12)
C50 0.0347(15) 0.0404(16) 0.0399(15) -0.0061(12) 0.0082(12) 0.0084(12)
C51 0.0385(16) 0.0342(15) 0.0405(16) -0.0159(12) 0.0053(13) 0.0053(12)
N1 0.0387(13) 0.0386(13) 0.0439(14) -0.0170(11) 0.0096(11) -0.0087(11)
N2 0.0452(14) 0.0352(13) 0.0390(14) 0.0047(10) 0.0112(11) 0.0082(11)
N3 0.0368(13) 0.0385(13) 0.0409(14) -0.0034(11) 0.0099(11) -0.0034(10)
N4 0.0314(12) 0.0337(12) 0.0402(13) 0.0122(10) 0.0056(10) -0.0076(10)
N5 0.0377(13) 0.0318(12) 0.0378(13) -0.0122(10) 0.0085(10) 0.0063(10)
O1 0.0356(10) 0.0352(10) 0.0402(10) -0.0016(8) 0.0112(8) 0.0033(8)
O2 0.0412(11) 0.0382(10) 0.0352(10) -0.0105(