####################################################################### 
# 
# This file contains crystal structure data downloaded from the 
# Cambridge Structural Database (CSD) hosted by the Cambridge 
# Crystallographic Data Centre (CCDC).
# 
# Full information about CCDC data access policies and citation 
# guidelines are available at http://www.ccdc.cam.ac.uk/access/V1 
# 
# Audit and citation data items may have been added by the CCDC. 
# Please retain this information to preserve the provenance of 
# this file and to allow appropriate attribution of the data. 
# 
#######################################################################

data_1
_audit_block_doi                 10.5517/cc737fz
_database_code_depnum_ccdc_archive 'CCDC 211650'
loop_
_citation_id
_citation_doi
_citation_year
1 10.1021/ic034846q 2003
_audit_update_record             
;
2003-05-29 deposited with the CCDC.	2024-07-12 downloaded from the CCDC.
;


_audit_creation_method           SHELXL-97
_chemical_name_systematic        
;
?
;
_chemical_name_common            ?
_chemical_melting_point          ?
_chemical_formula_moiety         ?
_chemical_formula_sum            'C18 H30 Cu N4 O10'
_chemical_formula_weight         526.00

loop_
_atom_type_symbol
_atom_type_description
_atom_type_scat_dispersion_real
_atom_type_scat_dispersion_imag
_atom_type_scat_source
C C 0.0033 0.0016 'International Tables Vol C Tables 4.2.6.8 and 6.1.1.4'
H H 0.0000 0.0000 'International Tables Vol C Tables 4.2.6.8 and 6.1.1.4'
N N 0.0061 0.0033 'International Tables Vol C Tables 4.2.6.8 and 6.1.1.4'
O O 0.0106 0.0060 'International Tables Vol C Tables 4.2.6.8 and 6.1.1.4'
Cu Cu 0.3201 1.2651 'International Tables Vol C Tables 4.2.6.8 and 6.1.1.4'

_symmetry_cell_setting           orthorhombic
_symmetry_space_group_name_H-M   Pna21

loop_
_symmetry_equiv_pos_as_xyz
'x, y, z'
'-x, -y, z+1/2'
'-x+1/2, y+1/2, z+1/2'
'x+1/2, -y+1/2, z'

_cell_length_a                   15.401(3)
_cell_length_b                   17.141(3)
_cell_length_c                   9.0521(18)
_cell_angle_alpha                90.00
_cell_angle_beta                 90.00
_cell_angle_gamma                90.00
_cell_volume                     2389.7(8)
_cell_formula_units_Z            4
_cell_measurement_temperature    293(2)
_cell_measurement_reflns_used    Total
_cell_measurement_theta_min      1.78
_cell_measurement_theta_max      27.48

_exptl_crystal_description       needle
_exptl_crystal_colour            blue
_exptl_crystal_size_max          0.523
_exptl_crystal_size_mid          0.147
_exptl_crystal_size_min          0.125
_exptl_crystal_density_meas      ?
_exptl_crystal_density_diffrn    1.462
_exptl_crystal_density_method    'not measured'
_exptl_crystal_F_000             1100
_exptl_absorpt_coefficient_mu    0.972
_exptl_absorpt_correction_type   multi-scan
_exptl_absorpt_correction_T_min  0.7463
_exptl_absorpt_correction_T_max  1.1195
_exptl_absorpt_process_details   
;
Higashi, T (1995) Program for absorption correction.
Rigaku Corporation, Tokyo, Japan.
;
_exptl_special_details           
;
?
;

_diffrn_ambient_temperature      293(2)
_diffrn_radiation_wavelength     0.71073
_diffrn_radiation_type           MoK\a
_diffrn_radiation_source         'rotor target'
_diffrn_radiation_monochromator  graphite
_diffrn_measurement_device_type  'Rigaku RAXIS-RAPID'
_diffrn_measurement_method       '\w scan'
_diffrn_detector_area_resol_mean 10.0
_diffrn_standards_number         ?
_diffrn_standards_interval_count ?
_diffrn_standards_interval_time  ?
_diffrn_standards_decay_%        ?
_diffrn_reflns_number            19960
_diffrn_reflns_av_R_equivalents  0.0618
_diffrn_reflns_av_sigmaI/netI    0.0800
_diffrn_reflns_limit_h_min       0
_diffrn_reflns_limit_h_max       19
_diffrn_reflns_limit_k_min       0
_diffrn_reflns_limit_k_max       22
_diffrn_reflns_limit_l_min       0
_diffrn_reflns_limit_l_max       11
_diffrn_reflns_theta_min         1.78
_diffrn_reflns_theta_max         27.48
_reflns_number_total             2903
_reflns_number_gt                2133
_reflns_threshold_expression     >2sigma(I)

_computing_data_collection       PROCESS-AUTO
_computing_cell_refinement       PROCESS-AUTO
_computing_data_reduction        PROCESS-AUTO
_computing_structure_solution    'SHELXS-97 (Sheldrick, 1997)'
_computing_structure_refinement  'SHELXL-97 (Sheldrick, 1997)'
_computing_molecular_graphics    SHELXTL-PLUS
_computing_publication_material  ?

_refine_special_details          
;
Refinement of F^2^ against ALL reflections.  The weighted R-factor wR and
goodness of fit S are based on F^2^, conventional R-factors R are based
on F, with F set to zero for negative F^2^. The threshold expression of
F^2^ > 2sigma(F^2^) is used only for calculating R-factors(gt) etc. and is
not relevant to the choice of reflections for refinement.  R-factors based
on F^2^ are statistically about twice as large as those based on F, and R-
factors based on ALL data will be even larger.
;

_refine_ls_structure_factor_coef Fsqd
_refine_ls_matrix_type           full
_refine_ls_weighting_scheme      calc
_refine_ls_weighting_details     
'calc w=1/[\s^2^(Fo^2^)+(0.0673P)^2^+0.0000P] where P=(Fo^2^+2Fc^2^)/3'
_atom_sites_solution_primary     direct
_atom_sites_solution_secondary   difmap
_atom_sites_solution_hydrogens   geom
_refine_ls_hydrogen_treatment    mixed
_refine_ls_extinction_method     none
_refine_ls_extinction_coef       ?
_refine_ls_abs_structure_details 'Flack H D (1983), Acta Cryst. A39, 876-881'
_refine_ls_abs_structure_Flack   0.07(3)
_refine_ls_number_reflns         2903
_refine_ls_number_parameters     337
_refine_ls_number_restraints     8
_refine_ls_R_factor_all          0.0580
_refine_ls_R_factor_gt           0.0439
_refine_ls_wR_factor_ref         0.1245
_refine_ls_wR_factor_gt          0.1070
_refine_ls_goodness_of_fit_ref   0.953
_refine_ls_restrained_S_all      0.953
_refine_ls_shift/su_max          0.000
_refine_ls_shift/su_mean         0.000

loop_
_atom_site_label
_atom_site_type_symbol
_atom_site_fract_x
_atom_site_fract_y
_atom_site_fract_z
_atom_site_U_iso_or_equiv
_atom_site_adp_type
_atom_site_occupancy
_atom_site_symmetry_multiplicity
_atom_site_calc_flag
_atom_site_refinement_flags
_atom_site_disorder_assembly
_atom_site_disorder_group
C1 C 0.7971(4) 0.2212(4) 0.7349(7) 0.0292(13) Uani 1 1 d . . .
H1 H 0.8086 0.1679 0.7349 0.035 Uiso 1 1 calc R . .
C2 C 0.7558(5) 0.3344(4) 0.6662(8) 0.0367(16) Uani 1 1 d . . .
H2 H 0.7330 0.3745 0.6089 0.044 Uiso 1 1 calc R . .
C3 C 0.7885(4) 0.3420(5) 0.8053(9) 0.0404(16) Uani 1 1 d . . .
H3 H 0.7925 0.3877 0.8604 0.048 Uiso 1 1 calc R . .
C4 C 0.8577(4) 0.2485(5) 0.9866(8) 0.0420(18) Uani 1 1 d . . .
H4A H 0.8330 0.2003 1.0240 0.050 Uiso 1 1 calc R . .
H4B H 0.8462 0.2890 1.0588 0.050 Uiso 1 1 calc R . .
C5 C 0.9543(4) 0.2386(4) 0.9705(7) 0.0393(17) Uani 1 1 d . . .
H5A H 0.9658 0.1886 0.9245 0.047 Uiso 1 1 calc R . .
H5B H 0.9802 0.2378 1.0682 0.047 Uiso 1 1 calc R . .
C6 C 0.9979(4) 0.3020(4) 0.8800(8) 0.0391(16) Uani 1 1 d . . .
H6A H 0.9846 0.3524 0.9233 0.047 Uiso 1 1 calc R . .
H6B H 0.9743 0.3013 0.7807 0.047 Uiso 1 1 calc R . .
C7 C 1.0976(4) 0.2925(4) 0.8715(8) 0.0365(16) Uani 1 1 d . . .
H7A H 1.1116 0.2379 0.8561 0.044 Uiso 1 1 calc R . .
H7B H 1.1195 0.3217 0.7877 0.044 Uiso 1 1 calc R . .
C8 C 1.1542(4) 0.2782(4) 1.1308(7) 0.0301(13) Uani 1 1 d . . .
H8 H 1.1389 0.2261 1.1431 0.036 Uiso 1 1 calc R . .
C9 C 1.1719(4) 0.3928(4) 1.0310(8) 0.0387(16) Uani 1 1 d . . .
H9 H 1.1717 0.4341 0.9645 0.046 Uiso 1 1 calc R . .
C10 C 1.2039(4) 0.3939(4) 1.1703(8) 0.0338(15) Uani 1 1 d . . .
H10 H 1.2295 0.4365 1.2166 0.041 Uiso 1 1 calc R . .
C11 C 0.8929(4) 0.3928(3) 0.2811(7) 0.0241(12) Uani 1 1 d . . .
C12 C 0.8372(4) 0.4403(3) 0.2033(7) 0.0253(12) Uani 1 1 d . . .
H12 H 0.7795 0.4257 0.1917 0.030 Uiso 1 1 calc R . .
C13 C 0.8663(4) 0.5097(3) 0.1421(7) 0.0240(12) Uani 1 1 d . . .
C14 C 0.9522(4) 0.5323(3) 0.1642(7) 0.0280(13) Uani 1 1 d . . .
H14 H 0.9721 0.5789 0.1241 0.034 Uiso 1 1 calc R . .
C15 C 1.0074(4) 0.4864(4) 0.2444(8) 0.0314(15) Uani 1 1 d . . .
H15 H 1.0639 0.5030 0.2625 0.038 Uiso 1 1 calc R . .
C16 C 0.9794(4) 0.4148(4) 0.2989(7) 0.0287(13) Uani 1 1 d . . .
H16 H 1.0181 0.3819 0.3469 0.034 Uiso 1 1 calc R . .
C17 C 0.8614(4) 0.3169(4) 0.3438(7) 0.0285(13) Uani 1 1 d . . .
C18 C 0.8056(4) 0.5622(4) 0.0539(8) 0.0316(14) Uani 1 1 d . . .
N1 N 0.7621(3) 0.2586(3) 0.6253(6) 0.0285(12) Uani 1 1 d . . .
N2 N 0.8144(3) 0.2689(3) 0.8476(6) 0.0337(13) Uani 1 1 d . . .
N3 N 1.1403(3) 0.3199(3) 1.0067(6) 0.0293(11) Uani 1 1 d . . .
N4 N 1.1922(3) 0.3210(3) 1.2319(6) 0.0277(11) Uani 1 1 d . . .
O1 O 0.7800(3) 0.3065(3) 0.3390(5) 0.0292(10) Uani 1 1 d . . .
O2 O 0.9149(3) 0.2693(2) 0.3919(6) 0.0422(15) Uani 1 1 d . . .
O3 O 0.8341(3) 0.6289(2) 0.0256(5) 0.0312(10) Uani 1 1 d . . .
O4 O 0.7344(3) 0.5360(3) 0.0137(8) 0.0583(16) Uani 1 1 d . . .
OW1 O 0.5898(3) 0.2834(3) 0.4538(9) 0.0469(15) Uani 1 1 d D . .
Cu1 Cu 0.72173(4) 0.21815(4) 0.42936(10) 0.02302(17) Uani 1 1 d . . .
OW2 O 0.8989(4) 0.1115(3) 0.3806(10) 0.078(3) Uani 1 1 d D . .
OW3 O 0.6168(6) 0.4096(4) -0.0072(13) 0.102(3) Uani 1 1 d D . .
OW4 O 0.8757(7) 0.0491(6) 0.8110(16) 0.140(4) Uani 1 1 d D . .
OW5 O 0.5430(9) 0.3955(6) -0.3045(15) 0.144(4) Uani 1 1 d D . .
OW6 O 0.9430(10) 0.0517(8) 0.117(2) 0.064(4) Uani 0.40 1 d P . .
OW7 O 1.0627(14) 0.0611(11) 0.475(3) 0.076(8) Uani 0.30 1 d P . .
OW8 O 1.0614(11) 0.0899(13) 0.271(2) 0.054(5) Uani 0.30 1 d P . .
H2C H 0.878(6) 0.155(3) 0.343(11) 0.080 Uiso 1 1 d D . .
H3C H 0.618(7) 0.434(6) 0.085(6) 0.080 Uiso 1 1 d D . .
H2D H 0.849(3) 0.088(4) 0.404(12) 0.080 Uiso 1 1 d D . .
H1C H 0.586(6) 0.331(3) 0.493(10) 0.080 Uiso 1 1 d D . .
H4C H 0.914(5) 0.038(6) 0.888(8) 0.080 Uiso 1 1 d D . .
H1D H 0.539(3) 0.269(5) 0.488(11) 0.080 Uiso 1 1 d D . .
H5C H 0.536(7) 0.4490(17) -0.291(13) 0.080 Uiso 1 1 d D . .

loop_
_atom_site_aniso_label
_atom_site_aniso_U_11
_atom_site_aniso_U_22
_atom_site_aniso_U_33
_atom_site_aniso_U_23
_atom_site_aniso_U_13
_atom_site_aniso_U_12
C1 0.025(3) 0.041(3) 0.022(3) 0.000(3) 0.002(3) -0.005(3)
C2 0.038(3) 0.036(4) 0.037(4) 0.000(3) -0.004(3) 0.000(3)
C3 0.037(4) 0.044(4) 0.041(4) -0.007(4) -0.004(3) -0.003(3)
C4 0.034(4) 0.074(5) 0.019(3) 0.001(4) 0.002(3) -0.013(4)
C5 0.033(3) 0.056(4) 0.029(4) 0.007(3) -0.005(3) -0.007(3)
C6 0.031(3) 0.057(4) 0.029(3) 0.010(3) -0.005(3) -0.001(3)
C7 0.034(4) 0.053(4) 0.022(3) 0.006(3) -0.003(3) -0.002(3)
C8 0.026(3) 0.042(3) 0.023(3) 0.001(3) 0.001(3) 0.003(3)
C9 0.039(4) 0.043(4) 0.033(4) 0.009(3) 0.001(3) 0.002(3)
C10 0.040(4) 0.033(3) 0.028(3) 0.000(3) -0.004(3) 0.005(3)
C11 0.030(3) 0.024(3) 0.019(3) 0.000(2) 0.001(3) -0.004(2)
C12 0.025(3) 0.029(3) 0.022(3) 0.000(3) 0.001(3) -0.001(2)
C13 0.027(3) 0.023(3) 0.023(3) 0.003(3) -0.002(3) 0.004(2)
C14 0.031(3) 0.022(3) 0.031(3) 0.004(3) 0.000(3) -0.004(2)
C15 0.020(3) 0.031(4) 0.044(4) 0.003(3) -0.002(3) -0.004(3)
C16 0.029(3) 0.028(3) 0.029(3) 0.002(3) -0.004(3) 0.001(3)
C17 0.035(3) 0.028(3) 0.022(3) 0.001(3) 0.002(3) -0.001(3)
C18 0.033(3) 0.034(3) 0.029(3) 0.001(3) 0.001(3) 0.003(3)
N1 0.027(3) 0.036(3) 0.023(3) -0.001(2) -0.002(2) -0.007(2)
N2 0.024(3) 0.053(4) 0.024(3) -0.006(3) 0.001(2) -0.008(3)
N3 0.029(3) 0.042(3) 0.017(2) 0.002(2) -0.002(2) 0.000(2)
N4 0.027(2) 0.035(3) 0.021(2) -0.006(2) -0.001(2) 0.001(2)
O1 0.030(2) 0.029(2) 0.029(2) 0.0064(19) -0.002(2) -0.0087(18)
O2 0.034(2) 0.033(2) 0.060(4) 0.020(2) 0.003(2) 0.0078(18)
O3 0.036(2) 0.028(2) 0.029(2) 0.006(2) -0.001(2) 0.0034(19)
O4 0.040(3) 0.048(3) 0.087(4) 0.029(3) -0.027(3) -0.010(2)
OW1 0.032(2) 0.044(2) 0.064(5) -0.003(3) -0.005(3) 0.003(2)
Cu1 0.0247(3) 0.0258(3) 0.0185(3) 0.0037(4) -0.0023(4) -0.0024(3)
OW2 0.053(3) 0.038(3) 0.142(8) 0.006(4) 0.041(4) -0.004(2)
OW3 0.098(5) 0.072(5) 0.137(9) -0.015(5) 0.014(6) -0.008(4)
OW4 0.130(8) 0.114(7) 0.175(12) 0.021(8) -0.044(8) 0.026(6)
OW5 0.197(11) 0.078(6) 0.158(11) -0.004(7) 0.041(9) 0.019(7)
OW6 0.073(10) 0.043(8) 0.076(11) 0.011(8) 0.014(10) 0.006(7)
OW7 0.082(14) 0.044(10) 0.10(2) 0.007(12) 0.003(14) 0.011(10)
OW8 0.028(9) 0.074(13) 0.058(12) -0.022(11) 0.003(9) -0.008(9)

_geom_special_details            
;
All esds (except the esd in the dihedral angle between two l.s. planes)
are estimated using the full covariance matrix.  The cell esds are taken
into account individually in the estimation of esds in distances, angles
and torsion angles; correlations between esds in cell parameters are only
used when they are defined by crystal symmetry.  An approximate (isotropic)
treatment of cell esds is used for estimating esds involving l.s. planes.
;

loop_
_geom_bond_atom_site_label_1
_geom_bond_atom_site_label_2
_geom_bond_distance
_geom_bond_site_symmetry_2
_geom_bond_publ_flag
C1 N1 1.299(8) . ?
C1 N2 1.335(8) . ?
C2 N1 1.355(8) . ?
C2 C3 1.363(11) . ?
C3 N2 1.370(9) . ?
C4 N2 1.466(9) . ?
C4 C5 1.505(9) . ?
C5 C6 1.518(9) . ?
C6 C7 1.545(9) . ?
C7 N3 1.467(8) . ?
C8 N4 1.310(8) . ?
C8 N3 1.349(8) . ?
C9 C10 1.354(10) . ?
C9 N3 1.358(9) . ?
C10 N4 1.379(8) . ?
C11 C12 1.377(8) . ?
C11 C16 1.393(8) . ?
C11 C17 1.501(8) . ?
C12 C13 1.386(8) . ?
C13 C14 1.393(8) . ?
C13 C18 1.525(8) . ?
C14 C15 1.367(9) . ?
C15 C16 1.390(9) . ?
C17 O2 1.238(7) . ?
C17 O1 1.267(7) . ?
C18 O4 1.239(8) . ?
C18 O3 1.251(7) . ?
N1 Cu1 2.003(5) . ?
N4 Cu1 1.963(5) 4_556 ?
O1 Cu1 1.942(4) . ?
O3 Cu1 1.960(4) 3_654 ?
OW1 Cu1 2.329(4) . ?
Cu1 O3 1.960(4) 3_645 ?
Cu1 N4 1.963(5) 4_454 ?

loop_
_geom_angle_atom_site_label_1
_geom_angle_atom_site_label_2
_geom_angle_atom_site_label_3
_geom_angle
_geom_angle_site_symmetry_1
_geom_angle_site_symmetry_3
_geom_angle_publ_flag
N1 C1 N2 111.3(6) . . ?
N1 C2 C3 108.6(7) . . ?
C2 C3 N2 106.2(7) . . ?
N2 C4 C5 113.1(5) . . ?
C4 C5 C6 114.2(6) . . ?
C5 C6 C7 113.0(6) . . ?
N3 C7 C6 111.7(6) . . ?
N4 C8 N3 110.8(6) . . ?
C10 C9 N3 107.1(6) . . ?
C9 C10 N4 108.4(6) . . ?
C12 C11 C16 119.6(5) . . ?
C12 C11 C17 120.3(5) . . ?
C16 C11 C17 120.0(5) . . ?
C11 C12 C13 120.7(5) . . ?
C12 C13 C14 119.2(5) . . ?
C12 C13 C18 121.2(5) . . ?
C14 C13 C18 119.6(5) . . ?
C15 C14 C13 120.4(6) . . ?
C14 C15 C16 120.2(6) . . ?
C15 C16 C11 119.7(6) . . ?
O2 C17 O1 125.3(6) . . ?
O2 C17 C11 119.3(5) . . ?
O1 C17 C11 115.3(5) . . ?
O4 C18 O3 125.6(6) . . ?
O4 C18 C13 118.8(6) . . ?
O3 C18 C13 115.5(5) . . ?
C1 N1 C2 107.1(6) . . ?
C1 N1 Cu1 129.4(4) . . ?
C2 N1 Cu1 123.5(5) . . ?
C1 N2 C3 106.8(6) . . ?
C1 N2 C4 126.9(6) . . ?
C3 N2 C4 126.2(6) . . ?
C8 N3 C9 107.2(6) . . ?
C8 N3 C7 126.6(6) . . ?
C9 N3 C7 126.2(6) . . ?
C8 N4 C10 106.4(6) . . ?
C8 N4 Cu1 123.2(4) . 4_556 ?
C10 N4 Cu1 130.3(4) . 4_556 ?
C17 O1 Cu1 123.5(4) . . ?
C18 O3 Cu1 130.6(4) . 3_654 ?
O1 Cu1 O3 178.08(19) . 3_645 ?
O1 Cu1 N4 89.4(2) . 4_454 ?
O3 Cu1 N4 92.1(2) 3_645 4_454 ?
O1 Cu1 N1 87.7(2) . . ?
O3 Cu1 N1 90.7(2) 3_645 . ?
N4 Cu1 N1 175.2(2) 4_454 . ?
O1 Cu1 OW1 93.93(19) . . ?
O3 Cu1 OW1 87.15(19) 3_645 . ?
N4 Cu1 OW1 92.8(2) 4_454 . ?
N1 Cu1 OW1 91.2(2) . . ?

loop_
_geom_torsion_atom_site_label_1
_geom_torsion_atom_site_label_2
_geom_torsion_atom_site_label_3
_geom_torsion_atom_site_label_4
_geom_torsion
_geom_torsion_site_symmetry_1
_geom_torsion_site_symmetry_2
_geom_torsion_site_symmetry_3
_geom_torsion_site_symmetry_4
_geom_torsion_publ_flag
N1 C2 C3 N2 -0.2(8) . . . . ?
N2 C4 C5 C6 44.9(9) . . . . ?
C4 C5 C6 C7 177.3(6) . . . . ?
C5 C6 C7 N3 -78.8(8) . . . . ?
N3 C9 C10 N4 0.3(8) . . . . ?
C16 C11 C12 C13 0.3(9) . . . . ?
C17 C11 C12 C13 -178.5(5) . . . . ?
C11 C12 C13 C14 -2.1(9) . . . . ?
C11 C12 C13 C18 179.1(6) . . . . ?
C12 C13 C14 C15 0.5(10) . . . . ?
C18 C13 C14 C15 179.3(6) . . . . ?
C13 C14 C15 C16 3.0(11) . . . . ?
C14 C15 C16 C11 -4.9(10) . . . . ?
C12 C11 C16 C15 3.2(9) . . . . ?
C17 C11 C16 C15 -178.0(6) . . . . ?
C12 C11 C17 O2 168.3(6) . . . . ?
C16 C11 C17 O2 -10.5(9) . . . . ?
C12 C11 C17 O1 -10.0(8) . . . . ?
C16 C11 C17 O1 171.2(6) . . . . ?
C12 C13 C18 O4 -13.3(10) . . . . ?
C14 C13 C18 O4 167.9(7) . . . . ?
C12 C13 C18 O3 168.2(6) . . . . ?
C14 C13 C18 O3 -10.6(9) . . . . ?
N2 C1 N1 C2 0.1(7) . . . . ?
N2 C1 N1 Cu1 -179.5(4) . . . . ?
C3 C2 N1 C1 0.1(8) . . . . ?
C3 C2 N1 Cu1 179.7(4) . . . . ?
N1 C1 N2 C3 -0.2(7) . . . . ?
N1 C1 N2 C4 -176.8(5) . . . . ?
C2 C3 N2 C1 0.3(7) . . . . ?
C2 C3 N2 C4 176.9(6) . . . . ?
C5 C4 N2 C1 75.8(9) . . . . ?
C5 C4 N2 C3 -100.2(8) . . . . ?
N4 C8 N3 C9 0.4(7) . . . . ?
N4 C8 N3 C7 -178.5(5) . . . . ?
C10 C9 N3 C8 -0.4(7) . . . . ?
C10 C9 N3 C7 178.5(6) . . . . ?
C6 C7 N3 C8 86.3(8) . . . . ?
C6 C7 N3 C9 -92.4(7) . . . . ?
N3 C8 N4 C10 -0.2(7) . . . . ?
N3 C8 N4 Cu1 179.0(4) . . . 4_556 ?
C9 C10 N4 C8 0.0(7) . . . . ?
C9 C10 N4 Cu1 -179.2(5) . . . 4_556 ?
O2 C17 O1 Cu1 7.8(9) . . . . ?
C11 C17 O1 Cu1 -173.9(4) . . . . ?
O4 C18 O3 Cu1 6.4(11) . . . 3_654 ?
C13 C18 O3 Cu1 -175.2(4) . . . 3_654 ?
C17 O1 Cu1 O3 31(6) . . . 3_645 ?
C17 O1 Cu1 N4 -112.1(5) . . . 4_454 ?
C17 O1 Cu1 N1 64.2(5) . . . . ?
C17 O1 Cu1 OW1 155.2(5) . . . . ?
C1 N1 Cu1 O1 -134.5(5) . . . . ?
C2 N1 Cu1 O1 46.1(5) . . . . ?
C1 N1 Cu1 O3 44.5(5) . . . 3_645 ?
C2 N1 Cu1 O3 -135.0(5) . . . 3_645 ?
C1 N1 Cu1 N4 -82(3) . . . 4_454 ?
C2 N1 Cu1 N4 99(3) . . . 4_454 ?
C1 N1 Cu1 OW1 131.6(5) . . . . ?
C2 N1 Cu1 OW1 -47.8(5) . . . . ?

_diffrn_measured_fraction_theta_max 0.999
_diffrn_reflns_theta_full        27.48
_diffrn_measured_fraction_theta_full 0.999
_refine_diff_density_max         0.822
_refine_diff_density_min         -0.389
_refine_diff_density_rms         0.106

