####################################################################### 
# 
# This file contains crystal structure data downloaded from the 
# Cambridge Structural Database (CSD) hosted by the Cambridge 
# Crystallographic Data Centre (CCDC).
# 
# Full information about CCDC data access policies and citation 
# guidelines are available at http://www.ccdc.cam.ac.uk/access/V1 
# 
# Audit and citation data items may have been added by the CCDC. 
# Please retain this information to preserve the provenance of 
# this file and to allow appropriate attribution of the data. 
# 
#######################################################################

data_41230c
_audit_block_doi                 10.5517/ccv9j6v
_database_code_depnum_ccdc_archive 'CCDC 783717'
loop_
_citation_id
_citation_doi
_citation_year
1 10.1002/zaac.201000312 2011
_audit_update_record             
;
2010-07-08 deposited with the CCDC.	2024-07-12 downloaded from the CCDC.
;
#TrackingRef '41230C.cif'


_audit_creation_method           SHELXL-97
_chemical_name_systematic        
;
?
;
_chemical_name_common            ?
_chemical_melting_point          ?
_chemical_formula_moiety         ?
_chemical_formula_sum            'C24 H20 Co N2 O6'
_chemical_formula_weight         491.35

loop_
_atom_type_symbol
_atom_type_description
_atom_type_scat_dispersion_real
_atom_type_scat_dispersion_imag
_atom_type_scat_source
C C 0.0033 0.0016 'International Tables Vol C Tables 4.2.6.8 and 6.1.1.4'
H H 0.0000 0.0000 'International Tables Vol C Tables 4.2.6.8 and 6.1.1.4'
N N 0.0061 0.0033 'International Tables Vol C Tables 4.2.6.8 and 6.1.1.4'
O O 0.0106 0.0060 'International Tables Vol C Tables 4.2.6.8 and 6.1.1.4'
Co Co 0.3494 0.9721 'International Tables Vol C Tables 4.2.6.8 and 6.1.1.4'

_symmetry_cell_setting           Triclinic
_symmetry_space_group_name_H-M   P-1

loop_
_symmetry_equiv_pos_as_xyz
'x, y, z'
'-x, -y, -z'

_cell_length_a                   9.6827(15)
_cell_length_b                   10.9009(17)
_cell_length_c                   14.134(2)
_cell_angle_alpha                67.564(2)
_cell_angle_beta                 75.093(2)
_cell_angle_gamma                67.708(2)
_cell_volume                     1264.7(3)
_cell_formula_units_Z            2
_cell_measurement_temperature    293(2)
_cell_measurement_reflns_used    1345
_cell_measurement_theta_min      2.21
_cell_measurement_theta_max      20.95

_exptl_crystal_description       ?
_exptl_crystal_colour            ?
_exptl_crystal_size_max          0.22
_exptl_crystal_size_mid          0.18
_exptl_crystal_size_min          0.16
_exptl_crystal_density_meas      ?
_exptl_crystal_density_diffrn    1.290
_exptl_crystal_density_method    'not measured'
_exptl_crystal_F_000             506
_exptl_absorpt_coefficient_mu    0.717
_exptl_absorpt_correction_type   multi-scan
_exptl_absorpt_correction_T_min  0.840
_exptl_absorpt_correction_T_max  0.892
_exptl_absorpt_process_details   sadabs

_exptl_special_details           
;
?
;

_diffrn_ambient_temperature      293(2)
_diffrn_radiation_wavelength     0.71073
_diffrn_radiation_type           MoK\a
_diffrn_radiation_source         'fine-focus sealed tube'
_diffrn_radiation_monochromator  graphite
_diffrn_measurement_device_type  'CCD area detector'
_diffrn_measurement_method       'phi and omega scans'
_diffrn_detector_area_resol_mean ?
_diffrn_standards_number         ?
_diffrn_standards_interval_count ?
_diffrn_standards_interval_time  ?
_diffrn_standards_decay_%        ?
_diffrn_reflns_number            6896
_diffrn_reflns_av_R_equivalents  0.0226
_diffrn_reflns_av_sigmaI/netI    0.0558
_diffrn_reflns_limit_h_min       -11
_diffrn_reflns_limit_h_max       11
_diffrn_reflns_limit_k_min       -12
_diffrn_reflns_limit_k_max       12
_diffrn_reflns_limit_l_min       -9
_diffrn_reflns_limit_l_max       16
_diffrn_reflns_theta_min         2.13
_diffrn_reflns_theta_max         25.00
_reflns_number_total             4394
_reflns_number_gt                3257
_reflns_threshold_expression     >2sigma(I)

_computing_data_collection       'Bruker SMART'
_computing_cell_refinement       'Bruker SMART'
_computing_data_reduction        'Bruker SAINT'
_computing_structure_solution    'SHELXS-97 (Sheldrick, 1990)'
_computing_structure_refinement  'SHELXL-97 (Sheldrick, 1997)'
_computing_molecular_graphics    'Bruker SHELXTL'
_computing_publication_material  'Bruker SHELXTL'

_refine_special_details          
;
Refinement of F^2^ against ALL reflections. The weighted R-factor wR and
goodness of fit S are based on F^2^, conventional R-factors R are based
on F, with F set to zero for negative F^2^. The threshold expression of
F^2^ > 2sigma(F^2^) is used only for calculating R-factors(gt) etc. and is
not relevant to the choice of reflections for refinement. R-factors based
on F^2^ are statistically about twice as large as those based on F, and R-
factors based on ALL data will be even larger.
;

_refine_ls_structure_factor_coef Fsqd
_refine_ls_matrix_type           full
_refine_ls_weighting_scheme      calc
_refine_ls_weighting_details     
'calc w=1/[\s^2^(Fo^2^)+(0.1154P)^2^+0.1733P] where P=(Fo^2^+2Fc^2^)/3'
_atom_sites_solution_primary     direct
_atom_sites_solution_secondary   difmap
_atom_sites_solution_hydrogens   geom
_refine_ls_hydrogen_treatment    mixed
_refine_ls_extinction_method     none
_refine_ls_extinction_coef       ?
_refine_ls_number_reflns         4394
_refine_ls_number_parameters     359
_refine_ls_number_restraints     52
_refine_ls_R_factor_all          0.0795
_refine_ls_R_factor_gt           0.0560
_refine_ls_wR_factor_ref         0.1795
_refine_ls_wR_factor_gt          0.1657
_refine_ls_goodness_of_fit_ref   1.061
_refine_ls_restrained_S_all      1.067
_refine_ls_shift/su_max          0.001
_refine_ls_shift/su_mean         0.000

loop_
_atom_site_label
_atom_site_type_symbol
_atom_site_fract_x
_atom_site_fract_y
_atom_site_fract_z
_atom_site_U_iso_or_equiv
_atom_site_adp_type
_atom_site_occupancy
_atom_site_symmetry_multiplicity
_atom_site_calc_flag
_atom_site_refinement_flags
_atom_site_disorder_assembly
_atom_site_disorder_group
Co1 Co 0.28049(6) 0.32284(5) 0.44277(4) 0.0354(2) Uani 1 1 d . . .
O1 O 0.3365(3) 0.2394(3) 0.3268(2) 0.0456(8) Uani 1 1 d . A .
O2 O 0.1131(7) 0.270(2) 0.2935(14) 0.066(4) Uani 0.64(4) 1 d PDU A 1
O2' O 0.130(3) 0.337(3) 0.251(2) 0.076(7) Uani 0.36(4) 1 d PDU A 2
O3 O 0.1887(3) 0.3509(3) 0.5993(2) 0.0441(7) Uani 1 1 d . . .
O4 O 0.2433(3) 0.1534(3) 0.5699(2) 0.0511(8) Uani 1 1 d . . .
O5 O 0.0523(3) 0.4044(4) 0.4197(3) 0.0526(8) Uani 1 1 d D . .
H5A H 0.057(6) 0.380(6) 0.369(3) 0.079 Uiso 1 1 d D . .
H5B H -0.011(5) 0.473(4) 0.438(4) 0.079 Uiso 1 1 d D . .
N1 N 0.5114(4) 0.2579(4) 0.4619(3) 0.0405(8) Uani 1 1 d . . .
N2 N 0.3359(4) 0.5074(4) 0.3716(3) 0.0432(9) Uani 1 1 d . . .
C1 C 0.2540(5) 0.2401(5) 0.2712(4) 0.0563(13) Uani 1 1 d D . .
C2 C 0.3279(5) 0.1685(5) 0.1912(4) 0.0474(11) Uani 1 1 d . A .
C3 C 0.2439(6) 0.1412(8) 0.1417(5) 0.093(2) Uani 1 1 d . . .
H3 H 0.1398 0.1670 0.1584 0.112 Uiso 1 1 calc R A .
C4 C 0.3106(6) 0.0770(7) 0.0686(5) 0.091(2) Uani 1 1 d . A .
H4 H 0.2501 0.0603 0.0364 0.109 Uiso 1 1 calc R . .
C5 C 0.4638(5) 0.0357(4) 0.0400(3) 0.0408(10) Uani 1 1 d . . .
C6 C 0.5467(5) 0.0551(6) 0.0962(4) 0.0587(14) Uani 1 1 d . A .
H6 H 0.6512 0.0230 0.0834 0.070 Uiso 1 1 calc R . .
C7 C 0.4808(5) 0.1195(6) 0.1696(4) 0.0579(13) Uani 1 1 d . . .
H7 H 0.5410 0.1303 0.2057 0.069 Uiso 1 1 calc R A .
C8 C 0.1913(4) 0.2242(4) 0.6296(3) 0.0394(10) Uani 1 1 d . . .
C9 C 0.1335(4) 0.1596(4) 0.7392(3) 0.0395(10) Uani 1 1 d . . .
C10 C 0.0788(5) 0.2330(4) 0.8090(3) 0.0453(11) Uani 1 1 d . . .
H10 H 0.0785 0.3250 0.7880 0.054 Uiso 1 1 calc R . .
C11 C 0.0247(5) 0.1715(5) 0.9096(3) 0.0471(11) Uani 1 1 d . . .
H11 H -0.0134 0.2235 0.9549 0.057 Uiso 1 1 calc R . .
C12 C 0.0260(4) 0.0337(4) 0.9447(3) 0.0383(9) Uani 1 1 d . . .
C13 C 0.0816(5) -0.0394(5) 0.8738(3) 0.0506(12) Uani 1 1 d . . .
H13 H 0.0839 -0.1320 0.8952 0.061 Uiso 1 1 calc R . .
C14 C 0.1333(5) 0.0217(5) 0.7727(3) 0.0469(11) Uani 1 1 d . . .
H14 H 0.1682 -0.0291 0.7267 0.056 Uiso 1 1 calc R . .
C15 C 0.5949(5) 0.1274(5) 0.5082(4) 0.0561(13) Uani 1 1 d . . .
H15 H 0.5493 0.0577 0.5370 0.067 Uiso 1 1 calc R . .
C16 C 0.7460(6) 0.0918(6) 0.5152(5) 0.0774(18) Uani 1 1 d . . .
H16 H 0.8023 -0.0002 0.5456 0.093 Uiso 1 1 calc R . .
C17 C 0.8101(6) 0.1974(6) 0.4754(6) 0.090(2) Uani 1 1 d . . .
H17 H 0.9107 0.1778 0.4802 0.107 Uiso 1 1 calc R . .
C18 C 0.7256(6) 0.3310(6) 0.4290(5) 0.0716(16) Uani 1 1 d . . .
H18 H 0.7684 0.4027 0.4020 0.086 Uiso 1 1 calc R . .
C19 C 0.5764(5) 0.3587(4) 0.4226(3) 0.0429(10) Uani 1 1 d . . .
C20 C 0.4772(5) 0.4997(5) 0.3720(3) 0.0438(10) Uani 1 1 d . . .
C21 C 0.5234(6) 0.6162(5) 0.3291(4) 0.0626(14) Uani 1 1 d . . .
H21 H 0.6207 0.6100 0.3323 0.075 Uiso 1 1 calc R . .
C22 C 0.4238(7) 0.7424(6) 0.2814(5) 0.0800(18) Uani 1 1 d . . .
H22 H 0.4547 0.8215 0.2498 0.096 Uiso 1 1 calc R . .
C23 C 0.2801(7) 0.7510(6) 0.2805(6) 0.095(2) Uani 1 1 d . . .
H23 H 0.2108 0.8353 0.2492 0.113 Uiso 1 1 calc R . .
C24 C 0.2413(6) 0.6298(5) 0.3279(5) 0.0713(16) Uani 1 1 d . . .
H24 H 0.1428 0.6348 0.3291 0.086 Uiso 1 1 calc R . .
O6 O 0.945(3) 0.478(2) 0.128(2) 0.125(7) Uani 0.25 1 d PU . .
O7 O 0.834(4) 0.427(3) 0.022(2) 0.107(9) Uani 0.18 1 d PU . .
O8 O 0.904(4) 0.385(4) 0.116(3) 0.116(10) Uani 0.18 1 d PU . .
O9 O 0.788(4) 0.464(4) 0.119(3) 0.112(11) Uani 0.15 1 d PU . .
O10 O 0.643(5) 0.458(5) 0.091(4) 0.118(15) Uani 0.13 1 d PU . .
O11 O 0.701(6) 0.469(5) 0.034(4) 0.125(16) Uani 0.13 1 d PU . .

loop_
_atom_site_aniso_label
_atom_site_aniso_U_11
_atom_site_aniso_U_22
_atom_site_aniso_U_33
_atom_site_aniso_U_23
_atom_site_aniso_U_13
_atom_site_aniso_U_12
Co1 0.0364(3) 0.0405(4) 0.0355(4) -0.0180(3) 0.0010(2) -0.0164(2)
O1 0.0388(16) 0.0618(19) 0.0465(18) -0.0327(16) -0.0018(14) -0.0137(14)
O2 0.048(4) 0.099(8) 0.079(7) -0.065(6) 0.006(3) -0.024(3)
O2' 0.067(9) 0.088(10) 0.070(9) -0.048(8) -0.028(6) 0.014(6)
O3 0.0472(17) 0.0453(17) 0.0415(17) -0.0163(14) 0.0005(14) -0.0180(14)
O4 0.062(2) 0.0499(18) 0.0415(18) -0.0204(16) 0.0075(16) -0.0212(16)
O5 0.0374(17) 0.065(2) 0.067(2) -0.0424(19) -0.0046(16) -0.0085(15)
N1 0.0381(19) 0.0419(19) 0.047(2) -0.0220(17) -0.0022(17) -0.0125(16)
N2 0.0395(19) 0.0421(19) 0.048(2) -0.0082(17) -0.0106(17) -0.0156(16)
C1 0.038(3) 0.076(3) 0.068(3) -0.049(3) -0.005(2) -0.007(2)
C2 0.038(2) 0.062(3) 0.052(3) -0.036(2) -0.005(2) -0.008(2)
C3 0.036(3) 0.168(7) 0.118(5) -0.121(5) -0.011(3) -0.001(3)
C4 0.050(3) 0.148(6) 0.111(5) -0.101(5) -0.025(3) -0.001(4)
C5 0.041(2) 0.049(2) 0.038(2) -0.021(2) -0.009(2) -0.010(2)
C6 0.034(2) 0.092(4) 0.073(4) -0.060(3) 0.001(2) -0.015(2)
C7 0.042(3) 0.091(4) 0.066(3) -0.052(3) -0.002(2) -0.023(3)
C8 0.034(2) 0.045(2) 0.040(2) -0.016(2) -0.0003(19) -0.0133(18)
C9 0.031(2) 0.047(2) 0.038(2) -0.012(2) -0.0046(18) -0.0104(18)
C10 0.049(3) 0.039(2) 0.045(3) -0.015(2) -0.005(2) -0.010(2)
C11 0.050(3) 0.048(2) 0.038(3) -0.015(2) -0.003(2) -0.011(2)
C12 0.035(2) 0.048(2) 0.032(2) -0.0103(19) -0.0061(18) -0.0135(18)
C13 0.065(3) 0.052(3) 0.039(3) -0.014(2) 0.002(2) -0.029(2)
C14 0.054(3) 0.054(3) 0.037(2) -0.021(2) 0.004(2) -0.023(2)
C15 0.045(3) 0.046(3) 0.078(4) -0.023(3) -0.007(3) -0.013(2)
C16 0.045(3) 0.053(3) 0.119(5) -0.022(3) -0.017(3) -0.001(2)
C17 0.038(3) 0.076(4) 0.137(6) -0.012(4) -0.022(3) -0.015(3)
C18 0.046(3) 0.064(3) 0.098(5) -0.006(3) -0.015(3) -0.026(3)
C19 0.038(2) 0.049(2) 0.047(3) -0.017(2) -0.001(2) -0.020(2)
C20 0.048(3) 0.048(2) 0.041(2) -0.015(2) -0.002(2) -0.024(2)
C21 0.060(3) 0.063(3) 0.070(4) -0.009(3) -0.013(3) -0.035(3)
C22 0.084(4) 0.055(3) 0.100(5) 0.005(3) -0.026(4) -0.041(3)
C23 0.084(4) 0.058(3) 0.127(6) 0.017(4) -0.048(4) -0.031(3)
C24 0.053(3) 0.055(3) 0.095(5) 0.003(3) -0.028(3) -0.020(3)
O6 0.127(11) 0.113(10) 0.131(11) -0.038(8) -0.031(8) -0.023(8)
O7 0.121(13) 0.101(11) 0.108(12) -0.055(9) -0.010(9) -0.025(9)
O8 0.112(13) 0.116(13) 0.124(13) -0.050(9) -0.021(9) -0.025(9)
O9 0.109(14) 0.107(13) 0.112(14) -0.044(10) -0.001(9) -0.027(9)
O10 0.123(18) 0.120(17) 0.113(17) -0.047(11) -0.008(10) -0.034(10)
O11 0.123(19) 0.122(18) 0.121(19) -0.032(11) -0.013(10) -0.036(11)

_geom_special_details            
;
All esds (except the esd in the dihedral angle between two l.s. planes)
are estimated using the full covariance matrix. The cell esds are taken
into account individually in the estimation of esds in distances, angles
and torsion angles; correlations between esds in cell parameters are only
used when they are defined by crystal symmetry. An approximate (isotropic)
treatment of cell esds is used for estimating esds involving l.s. planes.
;

loop_
_geom_bond_atom_site_label_1
_geom_bond_atom_site_label_2
_geom_bond_distance
_geom_bond_site_symmetry_2
_geom_bond_publ_flag
Co1 O1 2.028(3) . ?
Co1 N2 2.084(3) . ?
Co1 O4 2.100(3) . ?
Co1 O5 2.107(3) . ?
Co1 N1 2.130(3) . ?
Co1 O3 2.253(3) . ?
Co1 C8 2.498(4) . ?
O1 C1 1.253(5) . ?
O2 C1 1.259(6) . ?
O2' C1 1.276(8) . ?
O3 C8 1.273(5) . ?
O4 C8 1.243(5) . ?
O5 H5A 0.843(10) . ?
O5 H5B 0.846(10) . ?
N1 C19 1.339(5) . ?
N1 C15 1.339(6) . ?
N2 C24 1.317(6) . ?
N2 C20 1.340(5) . ?
C1 C2 1.495(6) . ?
C2 C7 1.365(6) . ?
C2 C3 1.369(6) . ?
C3 C4 1.356(7) . ?
C3 H3 0.9300 . ?
C4 C5 1.375(6) . ?
C4 H4 0.9300 . ?
C5 C6 1.380(6) . ?
C5 C5 1.492(8) 2_655 ?
C6 C7 1.361(6) . ?
C6 H6 0.9300 . ?
C7 H7 0.9300 . ?
C8 C9 1.493(6) . ?
C9 C10 1.381(6) . ?
C9 C14 1.393(6) . ?
C10 C11 1.379(6) . ?
C10 H10 0.9300 . ?
C11 C12 1.386(6) . ?
C11 H11 0.9300 . ?
C12 C13 1.391(6) . ?
C12 C12 1.496(8) 2_557 ?
C13 C14 1.375(6) . ?
C13 H13 0.9300 . ?
C14 H14 0.9300 . ?
C15 C16 1.384(7) . ?
C15 H15 0.9300 . ?
C16 C17 1.376(8) . ?
C16 H16 0.9300 . ?
C17 C18 1.365(8) . ?
C17 H17 0.9300 . ?
C18 C19 1.379(6) . ?
C18 H18 0.9300 . ?
C19 C20 1.480(6) . ?
C20 C21 1.373(6) . ?
C21 C22 1.377(7) . ?
C21 H21 0.9300 . ?
C22 C23 1.361(7) . ?
C22 H22 0.9300 . ?
C23 C24 1.382(7) . ?
C23 H23 0.9300 . ?
C24 H24 0.9300 . ?
O6 O8 1.30(4) . ?
O6 O9 1.62(4) . ?
O7 O11 1.19(5) . ?
O7 O8 1.49(4) . ?
O7 O9 1.49(4) . ?
O8 O9 1.12(4) . ?
O9 O10 1.58(6) . ?
O9 O11 1.61(6) . ?
O10 O11 0.85(6) . ?

loop_
_geom_angle_atom_site_label_1
_geom_angle_atom_site_label_2
_geom_angle_atom_site_label_3
_geom_angle
_geom_angle_site_symmetry_1
_geom_angle_site_symmetry_3
_geom_angle_publ_flag
O1 Co1 N2 102.81(14) . . ?
O1 Co1 O4 100.60(12) . . ?
N2 Co1 O4 154.12(14) . . ?
O1 Co1 O5 91.14(12) . . ?
N2 Co1 O5 98.36(14) . . ?
O4 Co1 O5 92.03(13) . . ?
O1 Co1 N1 90.81(12) . . ?
N2 Co1 N1 76.94(13) . . ?
O4 Co1 N1 91.90(13) . . ?
O5 Co1 N1 175.22(13) . . ?
O1 Co1 O3 159.93(12) . . ?
N2 Co1 O3 97.18(13) . . ?
O4 Co1 O3 60.26(11) . . ?
O5 Co1 O3 84.08(12) . . ?
N1 Co1 O3 95.52(12) . . ?
O1 Co1 C8 129.95(13) . . ?
N2 Co1 C8 127.00(14) . . ?
O4 Co1 C8 29.78(11) . . ?
O5 Co1 C8 86.68(14) . . ?
N1 Co1 C8 95.40(13) . . ?
O3 Co1 C8 30.52(11) . . ?
C1 O1 Co1 129.6(3) . . ?
C8 O3 Co1 85.5(2) . . ?
C8 O4 Co1 93.2(2) . . ?
Co1 O5 H5A 101(4) . . ?
Co1 O5 H5B 124(4) . . ?
H5A O5 H5B 129(5) . . ?
C19 N1 C15 118.5(4) . . ?
C19 N1 Co1 115.5(3) . . ?
C15 N1 Co1 126.0(3) . . ?
C24 N2 C20 118.6(4) . . ?
C24 N2 Co1 124.4(3) . . ?
C20 N2 Co1 117.0(3) . . ?
O1 C1 O2 122.9(6) . . ?
O1 C1 O2' 122.6(10) . . ?
O2 C1 O2' 36.2(12) . . ?
O1 C1 C2 117.6(4) . . ?
O2 C1 C2 117.7(5) . . ?
O2' C1 C2 114.4(8) . . ?
C7 C2 C3 117.4(4) . . ?
C7 C2 C1 121.7(4) . . ?
C3 C2 C1 120.7(4) . . ?
C4 C3 C2 120.9(5) . . ?
C4 C3 H3 119.6 . . ?
C2 C3 H3 119.6 . . ?
C3 C4 C5 122.8(5) . . ?
C3 C4 H4 118.6 . . ?
C5 C4 H4 118.6 . . ?
C4 C5 C6 115.2(4) . . ?
C4 C5 C5 122.4(5) . 2_655 ?
C6 C5 C5 122.2(5) . 2_655 ?
C7 C6 C5 122.3(4) . . ?
C7 C6 H6 118.8 . . ?
C5 C6 H6 118.8 . . ?
C6 C7 C2 121.1(4) . . ?
C6 C7 H7 119.4 . . ?
C2 C7 H7 119.4 . . ?
O4 C8 O3 121.0(4) . . ?
O4 C8 C9 119.8(4) . . ?
O3 C8 C9 119.2(4) . . ?
O4 C8 Co1 57.1(2) . . ?
O3 C8 Co1 64.0(2) . . ?
C9 C8 Co1 176.1(3) . . ?
C10 C9 C14 118.5(4) . . ?
C10 C9 C8 121.8(4) . . ?
C14 C9 C8 119.6(4) . . ?
C11 C10 C9 120.8(4) . . ?
C11 C10 H10 119.6 . . ?
C9 C10 H10 119.6 . . ?
C10 C11 C12 121.4(4) . . ?
C10 C11 H11 119.3 . . ?
C12 C11 H11 119.3 . . ?
C11 C12 C13 117.3(4) . . ?
C11 C12 C12 120.8(5) . 2_557 ?
C13 C12 C12 121.9(5) . 2_557 ?
C14 C13 C12 121.8(4) . . ?
C14 C13 H13 119.1 . . ?
C12 C13 H13 119.1 . . ?
C13 C14 C9 120.2(4) . . ?
C13 C14 H14 119.9 . . ?
C9 C14 H14 119.9 . . ?
N1 C15 C16 122.9(4) . . ?
N1 C15 H15 118.5 . . ?
C16 C15 H15 118.5 . . ?
C17 C16 C15 117.6(5) . . ?
C17 C16 H16 121.2 . . ?
C15 C16 H16 121.2 . . ?
C18 C17 C16 119.9(5) . . ?
C18 C17 H17 120.0 . . ?
C16 C17 H17 120.0 . . ?
C17 C18 C19 119.5(5) . . ?
C17 C18 H18 120.3 . . ?
C19 C18 H18 120.3 . . ?
N1 C19 C18 121.6(4) . . ?
N1 C19 C20 115.2(3) . . ?
C18 C19 C20 123.2(4) . . ?
N2 C20 C21 121.3(4) . . ?
N2 C20 C19 115.3(3) . . ?
C21 C20 C19 123.4(4) . . ?
C20 C21 C22 119.2(5) . . ?
C20 C21 H21 120.4 . . ?
C22 C21 H21 120.4 . . ?
C23 C22 C21 119.8(5) . . ?
C23 C22 H22 120.1 . . ?
C21 C22 H22 120.1 . . ?
C22 C23 C24 117.5(5) . . ?
C22 C23 H23 121.3 . . ?
C24 C23 H23 121.3 . . ?
N2 C24 C23 123.6(5) . . ?
N2 C24 H24 118.2 . . ?
C23 C24 H24 118.2 . . ?
O8 O6 O9 43.5(18) . . ?
O11 O7 O8 114(4) . . ?
O11 O7 O9 73(3) . . ?
O8 O7 O9 44.3(18) . . ?
O9 O8 O6 84(3) . . ?
O9 O8 O7 68(3) . . ?
O6 O8 O7 117(3) . . ?
O8 O9 O7 68(3) . . ?
O8 O9 O