####################################################################### 
# 
# This file contains crystal structure data downloaded from the 
# Cambridge Structural Database (CSD) hosted by the Cambridge 
# Crystallographic Data Centre (CCDC).
# 
# Full information about CCDC data access policies and citation 
# guidelines are available at http://www.ccdc.cam.ac.uk/access/V1 
# 
# Audit and citation data items may have been added by the CCDC. 
# Please retain this information to preserve the provenance of 
# this file and to allow appropriate attribution of the data. 
# 
#######################################################################

data_50423b
_audit_block_doi                 10.5517/ccv9j7w
_database_code_depnum_ccdc_archive 'CCDC 783718'
loop_
_citation_id
_citation_doi
_citation_year
1 10.1002/zaac.201000312 2011
_audit_update_record             
;
2010-07-08 deposited with the CCDC.	2024-07-12 downloaded from the CCDC.
;
#TrackingRef '50423B.cif'


_audit_creation_method           SHELXL-97
_chemical_name_systematic        
;
?
;
_chemical_name_common            ?
_chemical_melting_point          ?
_chemical_formula_moiety         ?
_chemical_formula_sum            'C25.50 H25 N2.50 O7 Zn'
_chemical_formula_weight         543.85

loop_
_atom_type_symbol
_atom_type_description
_atom_type_scat_dispersion_real
_atom_type_scat_dispersion_imag
_atom_type_scat_source
C C 0.0033 0.0016 'International Tables Vol C Tables 4.2.6.8 and 6.1.1.4'
H H 0.0000 0.0000 'International Tables Vol C Tables 4.2.6.8 and 6.1.1.4'
N N 0.0061 0.0033 'International Tables Vol C Tables 4.2.6.8 and 6.1.1.4'
O O 0.0106 0.0060 'International Tables Vol C Tables 4.2.6.8 and 6.1.1.4'
Zn Zn 0.2839 1.4301 'International Tables Vol C Tables 4.2.6.8 and 6.1.1.4'

_symmetry_cell_setting           Triclinic
_symmetry_space_group_name_H-M   P-1

loop_
_symmetry_equiv_pos_as_xyz
'x, y, z'
'-x, -y, -z'

_cell_length_a                   9.750(2)
_cell_length_b                   10.916(2)
_cell_length_c                   14.277(3)
_cell_angle_alpha                68.120(3)
_cell_angle_beta                 74.156(4)
_cell_angle_gamma                67.459(4)
_cell_volume                     1287.3(5)
_cell_formula_units_Z            2
_cell_measurement_temperature    293(2)
_cell_measurement_reflns_used    2589
_cell_measurement_theta_min      0.00
_cell_measurement_theta_max      0.00

_exptl_crystal_description       ?
_exptl_crystal_colour            ?
_exptl_crystal_size_max          0.22
_exptl_crystal_size_mid          0.20
_exptl_crystal_size_min          0.20
_exptl_crystal_density_meas      NONE
_exptl_crystal_density_diffrn    1.403
_exptl_crystal_density_method    'not measured'
_exptl_crystal_F_000             563
_exptl_absorpt_coefficient_mu    1.001
_exptl_absorpt_correction_type   MULTI-SCAN
_exptl_absorpt_correction_T_min  0.723133
_exptl_absorpt_correction_T_max  1.000000
_exptl_absorpt_process_details   SADABS

_exptl_special_details           
;
?
;

_diffrn_ambient_temperature      293(2)
_diffrn_radiation_wavelength     0.71073
_diffrn_radiation_type           MoK\a
_diffrn_radiation_source         'fine-focus sealed tube'
_diffrn_radiation_monochromator  graphite
_diffrn_measurement_device_type  'CCD area detector'
_diffrn_measurement_method       'phi and omega scans'
_diffrn_detector_area_resol_mean ?
_diffrn_standards_number         ?
_diffrn_standards_interval_count ?
_diffrn_standards_interval_time  ?
_diffrn_standards_decay_%        ?
_diffrn_reflns_number            6554
_diffrn_reflns_av_R_equivalents  0.0206
_diffrn_reflns_av_sigmaI/netI    0.0461
_diffrn_reflns_limit_h_min       -11
_diffrn_reflns_limit_h_max       6
_diffrn_reflns_limit_k_min       -12
_diffrn_reflns_limit_k_max       12
_diffrn_reflns_limit_l_min       -16
_diffrn_reflns_limit_l_max       16
_diffrn_reflns_theta_min         1.56
_diffrn_reflns_theta_max         25.01
_reflns_number_total             4493
_reflns_number_gt                3479
_reflns_threshold_expression     >2sigma(I)

_computing_data_collection       'Bruker SMART'
_computing_cell_refinement       'Bruker SMART'
_computing_data_reduction        'Bruker SAINT'
_computing_structure_solution    'SHELXS-97 (Sheldrick, 1990)'
_computing_structure_refinement  'SHELXL-97 (Sheldrick, 1997)'
_computing_molecular_graphics    'Bruker SHELXTL'
_computing_publication_material  'Bruker SHELXTL'

_refine_special_details          
;
Refinement of F^2^ against ALL reflections. The weighted R-factor wR and
goodness of fit S are based on F^2^, conventional R-factors R are based
on F, with F set to zero for negative F^2^. The threshold expression of
F^2^ > 2sigma(F^2^) is used only for calculating R-factors(gt) etc. and is
not relevant to the choice of reflections for refinement. R-factors based
on F^2^ are statistically about twice as large as those based on F, and R-
factors based on ALL data will be even larger.
;

_refine_ls_structure_factor_coef Fsqd
_refine_ls_matrix_type           full
_refine_ls_weighting_scheme      calc
_refine_ls_weighting_details     
'calc w=1/[\s^2^(Fo^2^)+(0.0732P)^2^+2.1129P] where P=(Fo^2^+2Fc^2^)/3'
_atom_sites_solution_primary     direct
_atom_sites_solution_secondary   difmap
_atom_sites_solution_hydrogens   geom
_refine_ls_hydrogen_treatment    mixed
_refine_ls_extinction_method     none
_refine_ls_extinction_coef       ?
_refine_ls_number_reflns         4493
_refine_ls_number_parameters     384
_refine_ls_number_restraints     148
_refine_ls_R_factor_all          0.0759
_refine_ls_R_factor_gt           0.0533
_refine_ls_wR_factor_ref         0.1508
_refine_ls_wR_factor_gt          0.1333
_refine_ls_goodness_of_fit_ref   1.050
_refine_ls_restrained_S_all      1.040
_refine_ls_shift/su_max          0.002
_refine_ls_shift/su_mean         0.000

loop_
_atom_site_label
_atom_site_type_symbol
_atom_site_fract_x
_atom_site_fract_y
_atom_site_fract_z
_atom_site_U_iso_or_equiv
_atom_site_adp_type
_atom_site_occupancy
_atom_site_symmetry_multiplicity
_atom_site_calc_flag
_atom_site_refinement_flags
_atom_site_disorder_assembly
_atom_site_disorder_group
Zn1 Zn 0.28618(5) 0.31582(5) 0.44306(4) 0.03347(19) Uani 1 1 d . . .
O1 O 0.2425(4) 0.1593(3) 0.5720(2) 0.0490(8) Uani 1 1 d . . .
O2 O 0.1871(3) 0.3551(3) 0.6071(2) 0.0450(8) Uani 1 1 d . . .
O3 O 0.1146(4) 0.2565(6) 0.3049(4) 0.0962(17) Uani 1 1 d . . .
O4 O 0.3386(3) 0.2282(3) 0.3321(2) 0.0419(7) Uani 1 1 d . . .
O5 O 0.0547(4) 0.4026(4) 0.4256(3) 0.0516(10) Uani 1 1 d . . .
H5A H -0.015(7) 0.488(6) 0.414(4) 0.065(18) Uiso 1 1 d . . .
H5B H 0.050(8) 0.389(7) 0.387(5) 0.08(3) Uiso 1 1 d . . .
N1 N 0.3371(4) 0.5031(4) 0.3721(3) 0.0416(9) Uani 1 1 d . . .
N2 N 0.5163(4) 0.2557(4) 0.4619(3) 0.0359(8) Uani 1 1 d . . .
C1 C 0.1916(5) 0.2302(5) 0.6339(3) 0.0402(10) Uani 1 1 d . . .
C2 C 0.1348(5) 0.1610(5) 0.7422(3) 0.0371(10) Uani 1 1 d . . .
C3 C 0.1340(6) 0.0250(5) 0.7730(3) 0.0478(12) Uani 1 1 d . . .
H3 H 0.1686 -0.0247 0.7260 0.057 Uiso 1 1 calc R . .
C4 C 0.0819(6) -0.0370(5) 0.8732(3) 0.0478(12) Uani 1 1 d . . .
H4 H 0.0834 -0.1288 0.8926 0.057 Uiso 1 1 calc R . .
C5 C 0.0271(5) 0.0339(5) 0.9459(3) 0.0374(10) Uani 1 1 d . . .
C6 C 0.0263(6) 0.1704(5) 0.9126(3) 0.0497(12) Uani 1 1 d . . .
H6 H -0.0115 0.2217 0.9586 0.060 Uiso 1 1 calc R . .
C7 C 0.0803(5) 0.2331(5) 0.8125(3) 0.0481(12) Uani 1 1 d . . .
H7 H 0.0796 0.3247 0.7929 0.058 Uiso 1 1 calc R . .
C8 C 0.2542(5) 0.2201(6) 0.2848(4) 0.0518(13) Uani 1 1 d . . .
C9 C 0.3276(5) 0.1549(5) 0.2001(4) 0.0462(11) Uani 1 1 d . . .
C10 C 0.2432(6) 0.1237(7) 0.1540(5) 0.079(2) Uani 1 1 d . . .
H10 H 0.1402 0.1430 0.1754 0.095 Uiso 1 1 calc R . .
C11 C 0.3111(6) 0.0638(7) 0.0762(5) 0.078(2) Uani 1 1 d . . .
H11 H 0.2522 0.0438 0.0460 0.094 Uiso 1 1 calc R . .
C12 C 0.4644(5) 0.0326(5) 0.0415(3) 0.0415(11) Uani 1 1 d . . .
C13 C 0.5463(5) 0.0548(6) 0.0952(4) 0.0582(15) Uani 1 1 d . . .
H13 H 0.6504 0.0284 0.0784 0.070 Uiso 1 1 calc R . .
C14 C 0.4798(5) 0.1143(6) 0.1727(4) 0.0536(13) Uani 1 1 d . . .
H14 H 0.5394 0.1271 0.2069 0.064 Uiso 1 1 calc R . .
C15 C 0.2412(6) 0.6251(6) 0.3289(5) 0.0727(18) Uani 1 1 d . . .
H15 H 0.1432 0.6294 0.3314 0.087 Uiso 1 1 calc R . .
C16 C 0.2797(8) 0.7443(6) 0.2812(6) 0.095(3) Uani 1 1 d . . .
H16 H 0.2109 0.8271 0.2499 0.114 Uiso 1 1 calc R . .
C17 C 0.4234(7) 0.7379(6) 0.2811(6) 0.084(2) Uani 1 1 d . . .
H17 H 0.4524 0.8176 0.2505 0.101 Uiso 1 1 calc R . .
C18 C 0.5239(6) 0.6142(5) 0.3260(4) 0.0572(14) Uani 1 1 d . . .
H18 H 0.6211 0.6091 0.3267 0.069 Uiso 1 1 calc R . .
C19 C 0.4782(5) 0.4968(4) 0.3704(3) 0.0385(10) Uani 1 1 d . . .
C20 C 0.5785(5) 0.3582(5) 0.4201(3) 0.0384(10) Uani 1 1 d . . .
C21 C 0.7268(6) 0.3333(6) 0.4237(5) 0.0715(18) Uani 1 1 d . . .
H21 H 0.7677 0.4058 0.3959 0.086 Uiso 1 1 calc R . .
C22 C 0.8138(7) 0.2009(7) 0.4686(6) 0.098(3) Uani 1 1 d . . .
H22 H 0.9144 0.1822 0.4709 0.118 Uiso 1 1 calc R . .
C23 C 0.7491(6) 0.0961(6) 0.5101(6) 0.081(2) Uani 1 1 d . . .
H23 H 0.8057 0.0052 0.5400 0.098 Uiso 1 1 calc R . .
C24 C 0.6006(6) 0.1284(5) 0.5064(4) 0.0535(13) Uani 1 1 d . . .
H24 H 0.5564 0.0581 0.5364 0.064 Uiso 1 1 calc R . .
O6 O 0.467(2) 0.484(2) 0.9203(14) 0.195(7) Uani 0.50 1 d PDU A 1
N3 N 0.2025(16) 0.5085(15) 0.9999(12) 0.113(4) Uani 0.50 1 d PDU A 1
C25 C 0.3524(16) 0.5154(18) 0.9848(15) 0.103(5) Uani 0.50 1 d PDU A 1
C26 C 0.067(2) 0.486(2) 1.0665(16) 0.145(7) Uani 0.50 1 d PDU A 1
C27 C 0.161(3) 0.538(2) 0.8983(14) 0.154(8) Uani 0.50 1 d PDU A 1
O7 O 0.0353(17) 0.5358(15) 0.8983(11) 0.137(4) Uani 0.50 1 d PU B 2
O8 O 0.314(3) 0.509(3) 0.926(2) 0.141(8) Uani 0.25 1 d PU C 2
O9 O 0.622(2) 0.4765(19) 0.9192(14) 0.188(6) Uani 0.50 1 d PU D 3
O10 O 0.759(4) 0.503(3) 0.919(2) 0.153(9) Uani 0.25 1 d PU E 4
O11 O 0.5000 0.5000 1.0000 0.216(9) Uani 0.50 2 d SPU F 5

loop_
_atom_site_aniso_label
_atom_site_aniso_U_11
_atom_site_aniso_U_22
_atom_site_aniso_U_33
_atom_site_aniso_U_23
_atom_site_aniso_U_13
_atom_site_aniso_U_12
Zn1 0.0386(3) 0.0370(3) 0.0305(3) -0.0125(2) 0.0006(2) -0.0196(2)
O1 0.055(2) 0.050(2) 0.0351(17) -0.0105(15) 0.0086(15) -0.0232(16)
O2 0.0475(19) 0.0427(19) 0.0388(17) -0.0029(14) -0.0033(14) -0.0192(15)
O3 0.043(2) 0.172(5) 0.124(4) -0.120(4) 0.010(2) -0.029(3)
O4 0.0391(17) 0.0548(19) 0.0409(17) -0.0282(15) 0.0001(14) -0.0150(15)
O5 0.040(2) 0.058(3) 0.068(3) -0.037(2) -0.0096(18) -0.0096(18)
N1 0.043(2) 0.038(2) 0.044(2) -0.0057(17) -0.0103(17) -0.0176(18)
N2 0.038(2) 0.037(2) 0.0369(19) -0.0123(16) -0.0025(16) -0.0168(16)
C1 0.027(2) 0.051(3) 0.036(2) -0.010(2) 0.0004(19) -0.012(2)
C2 0.030(2) 0.045(3) 0.033(2) -0.0065(19) -0.0041(18) -0.0132(19)
C3 0.059(3) 0.056(3) 0.034(2) -0.015(2) 0.002(2) -0.029(3)
C4 0.065(3) 0.051(3) 0.033(2) -0.010(2) 0.000(2) -0.033(3)
C5 0.031(2) 0.049(3) 0.030(2) -0.0078(19) -0.0036(18) -0.014(2)
C6 0.060(3) 0.041(3) 0.035(2) -0.011(2) 0.003(2) -0.009(2)
C7 0.055(3) 0.039(3) 0.037(3) -0.008(2) 0.003(2) -0.011(2)
C8 0.041(3) 0.074(4) 0.055(3) -0.040(3) 0.002(2) -0.020(3)
C9 0.040(3) 0.062(3) 0.051(3) -0.035(2) -0.006(2) -0.014(2)
C10 0.034(3) 0.134(6) 0.100(5) -0.090(5) -0.004(3) -0.010(3)
C11 0.045(3) 0.129(6) 0.092(5) -0.083(4) -0.014(3) -0.011(3)
C12 0.038(2) 0.055(3) 0.041(3) -0.027(2) -0.003(2) -0.014(2)
C13 0.033(3) 0.093(4) 0.072(4) -0.059(3) 0.006(2) -0.021(3)
C14 0.040(3) 0.082(4) 0.061(3) -0.048(3) -0.003(2) -0.021(3)
C15 0.051(3) 0.051(3) 0.104(5) 0.006(3) -0.027(3) -0.022(3)
C16 0.078(5) 0.048(4) 0.139(7) 0.020(4) -0.043(4) -0.028(3)
C17 0.079(4) 0.048(3) 0.116(6) 0.014(3) -0.028(4) -0.037(3)
C18 0.053(3) 0.053(3) 0.066(3) -0.001(3) -0.013(3) -0.032(3)
C19 0.045(3) 0.041(2) 0.035(2) -0.0100(19) -0.004(2) -0.023(2)
C20 0.038(2) 0.042(2) 0.039(2) -0.011(2) -0.0017(19) -0.020(2)
C21 0.041(3) 0.058(3) 0.102(5) 0.000(3) -0.009(3) -0.026(3)
C22 0.039(3) 0.068(4) 0.159(7) 0.006(4) -0.025(4) -0.019(3)
C23 0.050(3) 0.047(3) 0.119(6) 0.006(3) -0.024(4) -0.009(3)
C24 0.046(3) 0.037(3) 0.072(4) -0.010(2) -0.008(3) -0.014(2)
O6 0.195(7) 0.195(7) 0.195(7) -0.059(2) -0.0297(14) -0.062(2)
N3 0.114(4) 0.113(4) 0.113(4) -0.0345(16) -0.0176(12) -0.0349(16)
C25 0.104(5) 0.103(5) 0.103(5) -0.0316(17) -0.0158(12) -0.0322(17)
C26 0.145(7) 0.145(7) 0.145(7) -0.044(2) -0.0217(15) -0.046(2)
C27 0.154(8) 0.154(8) 0.154(8) -0.047(2) -0.0234(15) -0.049(3)
O7 0.137(5) 0.137(4) 0.138(5) -0.0414(16) -0.0210(12) -0.0432(17)
O8 0.141(8) 0.141(8) 0.141(8) -0.042(3) -0.0215(15) -0.045(3)
O9 0.189(6) 0.188(6) 0.188(6) -0.057(2) -0.0285(14) -0.059(2)
O10 0.153(9) 0.153(9) 0.153(9) -0.046(3) -0.0230(17) -0.048(3)
O11 0.216(9) 0.215(9) 0.216(9) -0.065(3) -0.0326(17) -0.068(3)

_geom_special_details            
;
All esds (except the esd in the dihedral angle between two l.s. planes)
are estimated using the full covariance matrix. The cell esds are taken
into account individually in the estimation of esds in distances, angles
and torsion angles; correlations between esds in cell parameters are only
used when they are defined by crystal symmetry. An approximate (isotropic)
treatment of cell esds is used for estimating esds involving l.s. planes.
;

loop_
_geom_bond_atom_site_label_1
_geom_bond_atom_site_label_2
_geom_bond_distance
_geom_bond_site_symmetry_2
_geom_bond_publ_flag
Zn1 O4 1.999(3) . ?
Zn1 O1 2.067(3) . ?
Zn1 N1 2.101(4) . ?
Zn1 O5 2.132(4) . ?
Zn1 N2 2.146(4) . ?
Zn1 O2 2.408(3) . ?
Zn1 C1 2.557(4) . ?
O1 C1 1.265(5) . ?
O2 C1 1.259(5) . ?
O3 C8 1.245(6) . ?
O4 C8 1.242(5) . ?
O5 H5A 0.90(6) . ?
O5 H5B 0.63(6) . ?
N1 C15 1.333(6) . ?
N1 C19 1.345(5) . ?
N2 C24 1.328(6) . ?
N2 C20 1.342(5) . ?
C1 C2 1.500(6) . ?
C2 C7 1.374(6) . ?
C2 C3 1.385(6) . ?
C3 C4 1.381(6) . ?
C3 H3 0.9300 . ?
C4 C5 1.393(6) . ?
C4 H4 0.9300 . ?
C5 C6 1.383(7) . ?
C5 C5 1.489(8) 2_557 ?
C6 C7 1.386(6) . ?
C6 H6 0.9300 . ?
C7 H7 0.9300 . ?
C8 C9 1.503(6) . ?
C9 C14 1.364(6) . ?
C9 C10 1.381(7) . ?
C10 C11 1.380(7) . ?
C10 H10 0.9300 . ?
C11 C12 1.388(7) . ?
C11 H11 0.9300 . ?
C12 C13 1.380(6) . ?
C12 C12 1.482(8) 2_655 ?
C13 C14 1.373(6) . ?
C13 H13 0.9300 . ?
C14 H14 0.9300 . ?
C15 C16 1.369(8) . ?
C15 H15 0.9300 . ?
C16 C17 1.375(8) . ?
C16 H16 0.9300 . ?
C17 C18 1.370(8) . ?
C17 H17 0.9300 . ?
C18 C19 1.386(6) . ?
C18 H18 0.9300 . ?
C19 C20 1.481(6) . ?
C20 C21 1.376(7) . ?
C21 C22 1.373(8) . ?
C21 H21 0.9300 . ?
C22 C23 1.378(8) . ?
C22 H22 0.9300 . ?
C23 C24 1.364(7) . ?
C23 H23 0.9300 . ?
C24 H24 0.9300 . ?
O6 C25 1.259(15) . ?
N3 C25 1.445(9) . ?
N3 C26 1.450(10) . ?
N3 C27 1.496(10) . ?

loop_
_geom_angle_atom_site_label_1
_geom_angle_atom_site_label_2
_geom_angle_atom_site_label_3
_geom_angle
_geom_angle_site_symmetry_1
_geom_angle_site_symmetry_3
_geom_angle_publ_flag
O4 Zn1 O1 102.36(13) . . ?
O4 Zn1 N1 104.89(14) . . ?
O1 Zn1 N1 151.41(14) . . ?
O4 Zn1 O5 92.43(15) . . ?
O1 Zn1 O5 91.17(15) . . ?
N1 Zn1 O5 96.11(15) . . ?
O4 Zn1 N2 93.28(12) . . ?
O1 Zn1 N2 92.92(13) . . ?
N1 Zn1 N2 77.16(14) . . ?
O5 Zn1 N2 172.12(15) . . ?
O4 Zn1 O2 159.83(12) . . ?
O1 Zn1 O2 58.55(12) . . ?
N1 Zn1 O2 95.04(13) . . ?
O5 Zn1 O2 82.28(14) . . ?
N2 Zn1 O2 94.12(12) . . ?
O4 Zn1 C1 131.35(14) . . ?
O1 Zn1 C1 29.39(14) . . ?
N1 Zn1 C1 123.68(15) . . ?
O5 Zn1 C1 85.54(15) . . ?
N2 Zn1 C1 94.75(13) . . ?
O2 Zn1 C1 29.17(12) . . ?
C1 O1 Zn1 97.3(3) . . ?
C1 O2 Zn1 82.0(3) . . ?
C8 O4 Zn1 129.3(3) . . ?
Zn1 O5 H5A 137(4) . . ?
Zn1 O5 H5B 106(6) . . ?
H5A O5 H5B 96(7) . . ?
C15 N1 C19 118.6(4) . . ?
C15 N1 Zn1 125.0(3) . . ?
C19 N1 Zn1 116.4(3) . . ?
C24 N2 C20 118.9(4) . . ?
C24 N2 Zn1 126.1(3) . . ?
C20 N2 Zn1 114.9(3) . . ?
O2 C1 O1 122.1(4) . . ?
O2 C1 C2 119.9(4) . . ?
O1 C1 C2 118.0(4) . . ?
O2 C1 Zn1 68.8(2) . . ?
O1 C1 Zn1 53.3(2) . . ?
C2 C1 Zn1 171.0(3) . . ?
C7 C2 C3 118.7(4) . . ?
C7 C2 C1 120.2(4) . . ?
C3 C2 C1 121.1(4) . . ?
C4 C3 C2 120.3(4) . . ?
C4 C3 H3 119.9 . . ?
C2 C3 H3 119.9 . . ?
C3 C4 C5 121.9(4) . . ?
C3 C4 H4 119.0 . . ?
C5 C4 H4 119.0 . . ?
C6 C5 C4 116.6(4) . . ?
C6 C5 C5 121.5(5) . 2_557 ?
C4 C5 C5 121.8(5) . 2_557 ?
C5 C6 C7 121.9(4) . . ?
C5 C6 H6 119.1 . . ?
C7 C6 H6 119.1 . . ?
C2 C7 C6 120.6(5) . . ?
C2 C7 H7 119.7 . . ?
C6 C7 H7 119.7 . . ?
O4 C8 O3 125.1(4) . . ?
O4 C8 C9 117.1(4) . . ?
O3 C8 C9 117.8(4) . . ?
C14 C9 C10 118.0(4) . . ?
C14 C9 C8 121.2(4) . . ?
C10 C9 C8 120.5(4) . . ?
C11 C10 C9 120.3(5) . . ?
C11 C10 H10 119.8 . . ?
C9 C10 H10 119.8 . . ?
C10 C11 C12 122.2(5) . . ?
C10 C11 H11 118.9 . . ?
C12 C11 H11 118.9 . . ?
C13 C12 C11 115.6(4) . . ?
C13 C12 C12 122.7(5) . 2_655 ?
C11 C12 C12 121.4(5) . 2_655 ?
C14 C13 C12 122.4(4) . . ?
C14 C13 H13 118.8 . . ?
C12 C13 H13 118.8 . . ?
C9 C14 C13 121.0(4) . . ?
C9 C14 H14 119.5 . . ?
C13 C14 H14 119.5 . . ?
N1 C15 C16 123.2(5) . . ?
N1 C15 H15 118.4 . . ?
C16 C15 H15 118.4 . . ?
C15 C16 C17 117.9(6) . . ?
C15 C16 H16 121.0 . . ?
C17 C16 H16 121.0 . . ?
C18 C17 C16 120.0(5) . . ?
C18 C17 H17 120.0 . . ?
C16 C17 H17 120.0 . . ?
C17 C18 C19 118.9(5) . . ?
C17 C18 H18 120.6 . . ?
C19 C18 H18 120.6 . . ?
N1 C19 C18 121.3(4) . . ?
N1 C19 C20 115.7(4) . . ?
C18 C19 C20 123.0(4) . . ?
N2 C20 C21 121.1(4) . . ?
N2 C20 C19 115.8(4) . . ?
C21 C20 C19 123.1(4) . . ?
C22 C21 C20 119.6(5) . . ?
C22 C21 H21 120.2 . . ?
C20 C21 H21 120.2 . . ?
C21 C22 C23 118.7(5) . . ?
C21 C22 H22 120.6 . . ?
C23 C22 H22 120.6 . . ?
C24 C23 C22 118.8(5) . . ?
C24 C23 H23 120.6 . . ?
C22 C23 H23 120.6 . . ?
N2 C24 C23 122.8(5) . . ?
N2 C24 H24 118.6 . . ?
C23 C24 H24 118.6 . . ?
C25 N3 C26 150.7(17) . . ?
C25 N3 C27 1