####################################################################### 
# 
# This file contains crystal structure data downloaded from the 
# Cambridge Structural Database (CSD) hosted by the Cambridge 
# Crystallographic Data Centre (CCDC).
# 
# Full information about CCDC data access policies and citation 
# guidelines are available at http://www.ccdc.cam.ac.uk/access/V1 
# 
# Audit and citation data items may have been added by the CCDC. 
# Please retain this information to preserve the provenance of 
# this file and to allow appropriate attribution of the data. 
# 
#######################################################################

data_gl2
_audit_block_doi                 10.5517/ccspp6b
_database_code_depnum_ccdc_archive 'CCDC 735822'
loop_
_citation_id
_citation_doi
_citation_year
1 10.1002/chem.201002568 2011
_audit_update_record             
;
2009-06-12 deposited with the CCDC.	2024-07-12 downloaded from the CCDC.
;

_audit_creation_method           SHELXL-97
_chemical_name_systematic        
;
?
;
_chemical_name_common            'Zn3(ChirBTB-2)2 (DEF)2'
_chemical_melting_point          ?
_chemical_formula_moiety         ?
_chemical_formula_sum            'C122 H84 N8 O26 Zn3'
_chemical_formula_weight         2274.15

loop_
_atom_type_symbol
_atom_type_description
_atom_type_scat_dispersion_real
_atom_type_scat_dispersion_imag
_atom_type_scat_source
C C 0.0033 0.0016 'International Tables Vol C Tables 4.2.6.8 and 6.1.1.4'
H H 0.0000 0.0000 'International Tables Vol C Tables 4.2.6.8 and 6.1.1.4'
N N 0.0061 0.0033 'International Tables Vol C Tables 4.2.6.8 and 6.1.1.4'
O O 0.0106 0.0060 'International Tables Vol C Tables 4.2.6.8 and 6.1.1.4'
Zn Zn 0.2839 1.4301 'International Tables Vol C Tables 4.2.6.8 and 6.1.1.4'

_symmetry_cell_setting           tetragonal
_symmetry_space_group_name_H-M   'P 43212'
_symmetry_space_group_name_Hall  'P 4nw 2abw '

loop_
_symmetry_equiv_pos_as_xyz
'x, y, z'
'-x, -y, z+1/2'
'-y+1/2, x+1/2, z+3/4'
'y+1/2, -x+1/2, z+1/4'
'-x+1/2, y+1/2, -z+3/4'
'x+1/2, -y+1/2, -z+1/4'
'y, x, -z'
'-y, -x, -z+1/2'

_cell_length_a                   28.3927(4)
_cell_length_b                   28.3927(4)
_cell_length_c                   20.3756(3)
_cell_angle_alpha                90.00
_cell_angle_beta                 90.00
_cell_angle_gamma                90.00
_cell_volume                     16425.7(4)
_cell_formula_units_Z            4
_cell_measurement_temperature    298(2)
_cell_measurement_reflns_used    ?
_cell_measurement_theta_min      ?
_cell_measurement_theta_max      ?

_exptl_crystal_description       Block
_exptl_crystal_colour            Colourless
_exptl_crystal_preparation       DEF
_exptl_crystal_size_max          0.41
_exptl_crystal_size_mid          0.35
_exptl_crystal_size_min          0.33
_exptl_crystal_density_meas      ?
_exptl_crystal_density_diffrn    0.920
_exptl_crystal_density_method    'not measured'
_exptl_crystal_F_000             4432
_exptl_absorpt_coefficient_mu    0.485
_exptl_absorpt_correction_type   ?
_exptl_absorpt_correction_T_min  ?
_exptl_absorpt_correction_T_max  ?
_exptl_absorpt_process_details   ?
_chemical_absolute_configuration rm
_exptl_special_details           
;
The displacement parameters of phenyl groups
of 4-benzyl-2-oxooxazolidin-3-yl substituent
are treated using restrains.
Due to the low residual electron density it
was impossible to locate not bonded
DEF molecules in both compounds. Only a part
the solvent molecul which occupies
the end sites of the triatomic
Zn cluster could be positioned.
;

_diffrn_ambient_temperature      293(2)
_diffrn_radiation_wavelength     0.88561
_diffrn_radiation_type           x-ray
_diffrn_radiation_source         synhrotron
_diffrn_radiation_monochromator  'Si-111 crystal'
_diffrn_measurement_device_type  'MX-225 CCD'
_diffrn_measurement_method       \f
_diffrn_detector_area_resol_mean ?
_diffrn_standards_number         ?
_diffrn_standards_interval_count ?
_diffrn_standards_interval_time  ?
_diffrn_standards_decay_%        ?
_diffrn_reflns_number            38101
_diffrn_reflns_av_R_equivalents  0.0561
_diffrn_reflns_av_sigmaI/netI    0.0583
_diffrn_reflns_limit_h_min       -30
_diffrn_reflns_limit_h_max       23
_diffrn_reflns_limit_k_min       -26
_diffrn_reflns_limit_k_max       30
_diffrn_reflns_limit_l_min       -21
_diffrn_reflns_limit_l_max       20
_diffrn_reflns_theta_min         1.77
_diffrn_reflns_theta_max         28.41
_reflns_number_total             10603
_reflns_number_gt                7873
_reflns_threshold_expression     >2sigma(I)

_computing_data_collection       'marCCD 1994-2002'
_computing_cell_refinement       HKL2000
_computing_data_reduction        HKL2000
_computing_structure_solution    'SHELXS-97 (Sheldrick, 1997)'
_computing_structure_refinement  'SHELXL-97 (Sheldrick, 1997)'
_computing_molecular_graphics    'Diamond 3.1'
_computing_publication_material  WinGX

_refine_special_details          
;
Refinement of F^2^ against ALL reflections. The weighted R-factor wR and
goodness of fit S are based on F^2^, conventional R-factors R are based
on F, with F set to zero for negative F^2^. The threshold expression of
F^2^ > 2sigma(F^2^) is used only for calculating R-factors(gt) etc. and is
not relevant to the choice of reflections for refinement. R-factors based
on F^2^ are statistically about twice as large as those based on F, and R-
factors based on ALL data will be even larger.
;

_refine_ls_structure_factor_coef Fsqd
_refine_ls_matrix_type           full
_refine_ls_weighting_scheme      calc
_refine_ls_weighting_details     
'calc w=1/[\s^2^(Fo^2^)+(0.2P)^2^] where P=(Fo^2^+2Fc^2^)/3'
_atom_sites_solution_primary     direct
_atom_sites_solution_secondary   difmap
_atom_sites_solution_hydrogens   geom
_refine_ls_hydrogen_treatment    constr
_refine_ls_extinction_method     none
_refine_ls_extinction_coef       ?
_refine_ls_abs_structure_details 'Flack H D (1983), Acta Cryst. A39, 876-881'
_refine_ls_abs_structure_Flack   -0.09(2)
_refine_ls_number_reflns         10603
_refine_ls_number_parameters     611
_refine_ls_number_restraints     252
_refine_ls_R_factor_all          0.1213
_refine_ls_R_factor_gt           0.0963
_refine_ls_wR_factor_ref         0.2814
_refine_ls_wR_factor_gt          0.2580
_refine_ls_goodness_of_fit_ref   1.111
_refine_ls_restrained_S_all      1.110
_refine_ls_shift/su_max          0.085
_refine_ls_shift/su_mean         0.011

loop_
_atom_site_label
_atom_site_type_symbol
_atom_site_fract_x
_atom_site_fract_y
_atom_site_fract_z
_atom_site_U_iso_or_equiv
_atom_site_adp_type
_atom_site_occupancy
_atom_site_symmetry_multiplicity
_atom_site_calc_flag
_atom_site_refinement_flags
_atom_site_disorder_assembly
_atom_site_disorder_group
Zn1 Zn 0.28122(3) 0.41649(3) 0.10830(5) 0.0867(4) Uani 1 1 d . . .
Zn2 Zn 0.35203(3) 0.35203(3) 0.0000 0.0786(4) Uani 1 2 d S . .
A110 N 0.8170(2) 0.3408(2) 0.3611(5) 0.0918(19) Uani 1 1 d . . .
A111 C 0.7946(6) 0.3338(4) 0.4185(8) 0.131(4) Uani 1 1 d . . .
A112 O 0.7527(4) 0.3231(4) 0.4257(5) 0.170(4) Uani 1 1 d . . .
A113 O 0.8214(4) 0.3468(3) 0.4700(4) 0.159(3) Uani 1 1 d . . .
A114 C 0.8656(5) 0.3602(6) 0.4451(8) 0.152(5) Uani 1 1 d . . .
H11A H 0.8895 0.3388 0.4611 0.182 Uiso 1 1 calc R . .
H11B H 0.8733 0.3916 0.4604 0.182 Uiso 1 1 calc R . .
A115 C 0.8652(3) 0.3596(3) 0.3711(6) 0.115(3) Uani 1 1 d . . .
H115 H 0.8887 0.3373 0.3545 0.138 Uiso 1 1 calc R . .
A116 C 0.8709(4) 0.4088(4) 0.3362(8) 0.145(5) Uani 1 1 d . . .
H11C H 0.8661 0.4053 0.2893 0.174 Uiso 1 1 calc R . .
H11D H 0.8476 0.4307 0.3528 0.174 Uiso 1 1 calc R . .
A117 C 0.9201(6) 0.4275(5) 0.3495(9) 0.162(5) Uani 1 1 d U . .
A118 C 0.9591(5) 0.4072(7) 0.3198(11) 0.196(6) Uani 1 1 d U . .
H118 H 0.9547 0.3803 0.2947 0.235 Uiso 1 1 calc R . .
A119 C 1.0020(7) 0.4241(9) 0.3252(15) 0.255(9) Uani 1 1 d U . .
H119 H 1.0266 0.4096 0.3028 0.306 Uiso 1 1 calc R . .
A120 C 1.0106(8) 0.4609(9) 0.3616(16) 0.261(9) Uani 1 1 d U . .
H120 H 1.0403 0.4747 0.3620 0.314 Uiso 1 1 calc R . .
A121 C 0.9726(8) 0.4796(9) 0.4015(17) 0.270(9) Uani 1 1 d U . .
H121 H 0.9779 0.5017 0.4344 0.324 Uiso 1 1 calc R . .
A122 C 0.9277(7) 0.4625(6) 0.3873(13) 0.232(8) Uani 1 1 d U . .
H122 H 0.9019 0.4774 0.4064 0.278 Uiso 1 1 calc R . .
A210 N 0.5487(2) 0.2707(3) 0.0147(4) 0.100(2) Uani 1 1 d . . .
A211 C 0.5390(4) 0.2328(4) 0.0521(9) 0.122(4) Uani 1 1 d . . .
A212 O 0.5314(4) 0.2303(3) 0.1095(6) 0.163(4) Uani 1 1 d . . .
A213 O 0.5407(4) 0.1941(3) 0.0107(8) 0.162(4) Uani 1 1 d . . .
A214 C 0.5463(5) 0.2051(5) -0.0503(9) 0.148(5) Uani 1 1 d . . .
H21A H 0.5174 0.1998 -0.0744 0.178 Uiso 1 1 calc R . .
H21B H 0.5709 0.1860 -0.0697 0.178 Uiso 1 1 calc R . .
A215 C 0.5608(4) 0.2607(4) -0.0532(6) 0.124(4) Uani 1 1 d . . .
H215 H 0.5396 0.2778 -0.0829 0.149 Uiso 1 1 calc R . .
A216 C 0.61138(7) 0.27317(7) -0.06777(12) 0.154(5) Uani 1 1 d . . .
H21C H 0.6308 0.2624 -0.0316 0.185 Uiso 1 1 calc R . .
H21D H 0.6141 0.3072 -0.0699 0.185 Uiso 1 1 calc R . .
A217 C 0.63168(7) 0.25133(7) -0.13443(12) 0.343(13) Uani 1 1 d RU . .
A218 C 0.65668(7) 0.22055(7) -0.17443(12) 0.390(14) Uani 1 1 d RU . .
H218 H 0.6707 0.1939 -0.1565 0.469 Uiso 1 1 calc R . .
A219 C 0.66067(7) 0.22957(7) -0.24124(12) 0.402(15) Uani 1 1 d RU . .
H219 H 0.6774 0.2090 -0.2680 0.483 Uiso 1 1 calc R . .
A220 C 0.63966(7) 0.26938(7) -0.26806(12) 0.394(15) Uani 1 1 d RU . .
H220 H 0.6423 0.2754 -0.3128 0.473 Uiso 1 1 calc R . .
A221 C 0.61466(7) 0.30017(7) -0.22806(12) 0.408(15) Uani 1 1 d RU . .
H221 H 0.6006 0.3268 -0.2460 0.489 Uiso 1 1 calc R . .
A222 C 0.61066(7) 0.29114(7) -0.16125(12) 0.369(14) Uani 1 1 d RU . .
H222 H 0.5939 0.3117 -0.1345 0.442 Uiso 1 1 calc R . .
A310 N 0.59458(7) 0.54997(7) -0.26601(12) 0.225(9) Uani 1 1 d RU . .
A311 C 0.58440(7) 0.51338(7) -0.30346(12) 0.46(3) Uani 1 1 d RU . .
A312 O 0.57690(7) 0.50871(7) -0.36310(12) 0.55(3) Uani 1 1 d RU . .
A313 O 0.61175(7) 0.47489(7) -0.27451(12) 0.55(3) Uani 1 1 d RU . .
A314 C 0.63803(7) 0.49392(7) -0.22980(12) 0.33(2) Uani 1 1 d RU . .
H31A H 0.6343 0.4779 -0.1880 0.393 Uiso 1 1 calc R . .
H31B H 0.6710 0.4931 -0.2424 0.393 Uiso 1 1 calc R . .
A315 C 0.53576(7) 0.62313(7) 0.22660(12) 0.254(15) Uani 1 1 d RU . .
H315 H 0.5298 0.6003 0.1915 0.305 Uiso 1 1 calc R . .
A316 C 0.65244(7) 0.57538(7) -0.18713(12) 0.33(2) Uani 1 1 d R . .
H31C H 0.6434 0.6051 -0.2071 0.497 Uiso 1 1 calc R . .
H31D H 0.6851 0.5703 -0.1994 0.497 Uiso 1 1 calc R . .
A317 C 0.08246(7) 0.87269(7) 0.20509(12) 0.78(4) Uani 1 1 d RU . .
H317 H 0.0707 0.9032 0.2031 0.938 Uiso 1 1 calc R . .
A318 C 0.08672(7) 0.84619(7) 0.14804(12) 0.78(4) Uani 1 1 d RU . .
A319 C 0.10432(7) 0.80055(7) 0.15098(12) 0.78(3) Uani 1 1 d RU . .
H319 H 0.1072 0.7828 0.1128 0.933 Uiso 1 1 calc R . .
A320 C 0.11764(7) 0.78142(7) 0.21097(12) 0.79(4) Uani 1 1 d RU . .
H320 H 0.1294 0.7509 0.2129 0.945 Uiso 1 1 calc R . .
A321 C 0.11337(7) 0.80793(7) 0.26801(12) 0.79(4) Uani 1 1 d RU . .
H321 H 0.1223 0.7951 0.3081 0.945 Uiso 1 1 calc R . .
A322 C 0.09578(7) 0.85356(7) 0.26507(12) 0.79(4) Uani 1 1 d RU . .
H322 H 0.0929 0.8713 0.3032 0.947 Uiso 1 1 calc R . .
O1 O 0.24106(7) 0.36381(7) 0.08655(12) 0.0963(17) Uani 1 1 d R . .
O2 O 0.34910(7) 0.27869(7) 0.00449(12) 0.0936(15) Uani 1 1 d R . .
O3 O 0.42541(7) 0.35525(7) -0.00209(12) 0.1043(18) Uani 1 1 d R . .
O4 O 0.23785(7) 0.45597(7) 0.17199(12) 0.119(2) Uani 1 1 d R . .
O5 O 0.29232(7) 0.46282(7) 0.04168(12) 0.1030(18) Uani 1 1 d R . .
O6 O 0.35436(7) 0.34874(7) 0.10309(12) 0.1027(16) Uani 1 1 d R . .
O7 O 0.33718(7) 0.41034(7) 0.16323(12) 0.129(3) Uani 1 1 d R . .
BZ1 C 0.61525(7) 0.44039(7) 0.17830(12) 0.102(3) Uani 1 1 d R . .
HZ1 H 0.5881 0.4581 0.1718 0.123 Uiso 1 1 calc R . .
BZ2 C 0.6198(3) 0.3960(3) 0.1488(4) 0.095(2) Uani 1 1 d . . .
BZ3 C 0.6598(3) 0.3689(3) 0.1639(5) 0.094(2) Uani 1 1 d . . .
HZ3 H 0.6624 0.3389 0.1459 0.113 Uiso 1 1 calc R . .
BZ4 C 0.6951(3) 0.3848(3) 0.2044(5) 0.090(2) Uani 1 1 d . . .
BZ5 C 0.6916(4) 0.4298(3) 0.2314(5) 0.104(3) Uani 1 1 d . . .
HZ5 H 0.7154 0.4411 0.2585 0.125 Uiso 1 1 calc R . .
BZ6 C 0.6523(4) 0.4582(3) 0.2182(5) 0.105(3) Uani 1 1 d . . .
BA1 C 0.7344(3) 0.3531(3) 0.2232(5) 0.088(2) Uani 1 1 d . . .
BA2 C 0.7476(3) 0.3152(3) 0.1837(5) 0.092(2) Uani 1 1 d . . .
HA2 H 0.7325 0.3095 0.1440 0.110 Uiso 1 1 calc R . .
BA3 C 0.7851(3) 0.2852(3) 0.2058(5) 0.091(2) Uani 1 1 d . . .
HA3 H 0.7942 0.2603 0.1792 0.109 Uiso 1 1 calc R . .
BA4 C 0.8077(2) 0.2917(2) 0.2637(4) 0.0725(18) Uani 1 1 d . . .
BA5 C 0.7963(3) 0.3302(3) 0.3012(4) 0.082(2) Uani 1 1 d . . .
BA6 C 0.7586(3) 0.3606(3) 0.2794(4) 0.088(2) Uani 1 1 d . . .
HA6 H 0.7507 0.3865 0.3051 0.105 Uiso 1 1 calc R . .
BB1 C 0.5816(3) 0.3782(3) 0.1077(5) 0.093(2) Uani 1 1 d . . .
BB2 C 0.5386(4) 0.4049(3) 0.0962(6) 0.122(4) Uani 1 1 d . . .
HB2 H 0.5362 0.4349 0.1140 0.146 Uiso 1 1 calc R . .
BB3 C 0.5036(3) 0.3890(3) 0.0624(6) 0.109(3) Uani 1 1 d . . .
HB3 H 0.4770 0.4078 0.0580 0.131 Uiso 1 1 calc R . .
BB4 C 0.5037(2) 0.3438(3) 0.0316(4) 0.085(2) Uani 1 1 d . . .
BB5 C 0.5435(3) 0.3176(3) 0.0415(4) 0.084(2) Uani 1 1 d . . .
BB6 C 0.5818(3) 0.3338(3) 0.0792(4) 0.088(2) Uani 1 1 d . . .
HB6 H 0.6078 0.3144 0.0851 0.106 Uiso 1 1 calc R . .
BC1 C 0.6465(4) 0.5055(3) 0.2513(5) 0.113(3) Uani 1 1 d . . .
BC2 C 0.6777(4) 0.5232(3) 0.2959(6) 0.112(3) Uani 1 1 d . . .
HC2 H 0.7041 0.5056 0.3071 0.134 Uiso 1 1 calc R . .
BC3 C 0.6710(4) 0.5656(3) 0.3242(5) 0.102(3) Uani 1 1 d . . .
HC3 H 0.6946 0.5774 0.3514 0.123 Uiso 1 1 calc R . .
BC4 C 0.6313(4) 0.5924(3) 0.3148(5) 0.112(3) Uani 1 1 d . . .
BC5 C 0.5969(5) 0.5720(5) 0.2730(8) 0.178(7) Uani 1 1 d . . .
BC6 C 0.6062(5) 0.5305(5) 0.2427(8) 0.179(7) Uani 1 1 d . . .
HC6 H 0.5836 0.5183 0.2144 0.215 Uiso 1 1 calc R . .
CSA1 C 0.8430(3) 0.2542(3) 0.2821(5) 0.082(2) Uani 1 1 d . . .
CSB1 C 0.4609(3) 0.3284(3) -0.0054(5) 0.094(2) Uani 1 1 d . . .
CSC1 C 0.6236(4) 0.6361(3) 0.3536(5) 0.103(3) Uani 1 1 d . . .
NLM N 0.2103(10) 0.4760(9) 0.2638(13) 0.267(9) Uiso 1 1 d . . .
C1LM C 0.2374(12) 0.4486(11) 0.2223(14) 0.261(13) Uiso 1 1 d . . .
C2LM C 0.1705(14) 0.4951(14) 0.2362(17) 0.284(13) Uiso 1 1 d . . .
C4LM C 0.222(2) 0.467(2) 0.340(3) 0.49(3) Uiso 1 1 d . . .
C5LM C 0.1594(19) 0.544(2) 0.239(3) 0.43(3) Uiso 1 1 d . . .

loop_
_atom_site_aniso_label
_atom_site_aniso_U_11
_atom_site_aniso_U_22
_atom_site_aniso_U_33
_atom_site_aniso_U_23
_atom_site_aniso_U_13
_atom_site_aniso_U_12
Zn1 0.0571(5) 0.0697(5) 0.1334(7) -0.0090(5) -0.0016(5) 0.0029(4)
Zn2 0.0553(4) 0.0553(4) 0.1254(9) -0.0018(4) 0.0018(4) 0.0010(5)
A110 0.070(4) 0.079(4) 0.126(6) -0.020(4) -0.009(5) 0.010(3)
A111 0.142(11) 0.096(7) 0.154(11) 0.006(7) -0.040(10) -0.008(7)
A112 0.147(8) 0.203(10) 0.161(7) 0.001(7) 0.011(6) -0.059(7)
A113 0.183(9) 0.152(7) 0.142(6) 0.008(5) -0.061(7) -0.035(7)
A114 0.109(9) 0.166(12) 0.180(13) -0.062(10) -0.046(9) 0.027(9)
A115 0.075(5) 0.083(6) 0.187(11) -0.030(6) -0.017(6) 0.004(4)
A116 0.111(8) 0.097(7) 0.227(13) 0.009(8) -0.038(8) -0.019(6)
A117 0.141(8) 0.111(8) 0.234(14) -0.011(8) 0.011(9) -0.027(7)
A118 0.116(8) 0.183(13) 0.289(17) -0.047(11) 0.012(10) -0.032(8)
A119 0.137(9) 0.261(19) 0.37(2) -0.098(16) 0.016(13) -0.074(12)
A120 0.140(10) 0.216(17) 0.43(3) -0.087(16) -0.005(15) -0.051(12)
A121 0.171(12) 0.193(16) 0.45(3) -0.101(16) -0.009(15) -0.047(13)
A122 0.157(10) 0.153(12) 0.39(2) -0.090(13) 0.024(13) -0.052(10)
A210 0.076(4) 0.073(5) 0.150(7) -0.016(5) -0.006(4) 0.012(3)
A211 0.090(6) 0.077(7) 0.200(13) -0.027(9) -0.003(8) 0.012(5)
A212 0.193(10) 0.094(5) 0.201(9) 0.008(6) 0.048(8) 0.017(5)
A213 0.147(7) 0.093(5) 0.247(11) -0.043(7) 0.021(8) -0.002(5)
A214 0.131(10) 0.111(10) 0.202(14) -0.072(10) -0.016(10) 0.023(7)
A215 0.091(7) 0.121(8) 0.159(9) -0.057(7) -0.001(6) 0.030(6)
A216 0.097(8) 0.210(15) 0.157(10) -0.037(10) 0.018(7) 0.022(9)
A217 0.27(2) 0.45(3) 0.31(2) -0.08(2) 0.059(19) -0.08(2)
A218 0.35(3) 0.48(3) 0.34(2) -0.01(2) 0.06(2) 0.05(2)
A219 0.39(3) 0.48(3) 0.33(2) -0.03(2) 0.13(2) 0.05(2)
A220 0.42(3) 0.49(4) 0.28(2) -0.04(2) 0.09(2) 0.04(3)
A221 0.36(3) 0.49(3) 0.37(2) -0.06(2) 0.06(3) 0.05(2)
A222 0.27(2) 0.45(3) 0.38(2) -0.09(2) 0.17(2) -0.01(2)
A310 0.145(10) 0.253(17) 0.277(15) 0.166(14) 0.106(10) 0.123(11)
A311 0.47(6) 0.15(2) 0.75(8) 0.13(3) 0.04(5) 0.16(3)
A312 0.36(4) 0.68(6) 0.63(5) 0.35(5) -0.01(4) 0.09(4)
A313 0.61(6) 0.36(3) 0.68(6) 0.07(4) 0.28(5) 0.19(4)
A314 0.35(3) 0.29(3) 0.34(3) 0.22(2) 0.14(2) 0.24(3)
A315 0.30(3) 0.23(2) 0.23(2) -0.069(19) -0.12(2) 0.14(2)
A316 0.21(3) 0.37(5) 0.42(5) 0.17(4) 0.05(3) 0.12(3)
A317 0.70(5) 0.90(5) 0.75(5) 0.05(4) -0.15(4) 0.04(4)
A318 0.70(5) 0.90(5) 0.74(5) 0.05(4) -0.15(4) 0.01(4)
A319 0.71(5) 0.88(5) 0.74(5) 0.04(4) -0.15(4) 0.00(4)
A320 0.71(5) 0.90(5) 0.76(5) 0.04(4) -0.18(4) 0.02(4)
A321 0.72(5) 0.91(5) 0.74(5) 0.05(4) -0.18(4) 0.03(4)
A322 0.71(5) 0.91(5) 0.75(5) 0.04(4) -0.16(4) 0.03(4)
O1 0.066(3) 0.082(4) 0.141(5) -0.002(3) 0.004(3) -0.010(3)
O2 0.095(4) 0.059(3) 0.127(4) -0.003(3) -0.003(3) -0.011(3)
O3 0.069(3) 0.071(3) 0.173(6) -0.006(4) 0.002(3) 0.003(3)
O4 0.079(4) 0.107(5) 0.171(6) -0.010(4) 0.015(4) 0.018(3)
O5 0.071(4) 0.067(3) 0.171(5) 0.002(3) 0.016(4) 0.012(2)
O6 0.092(4) 0.090(4) 0.126(4) -0.007(4) -0.028(4) 0.000(3)
O7 0.081(4) 0.122(5) 0.185(7) -0.044(5) -0.030(4) 0.018(4)
BZ1 0.096(6) 0.078(5) 0.1