####################################################################### 
# 
# This file contains crystal structure data downloaded from the 
# Cambridge Structural Database (CSD) hosted by the Cambridge 
# Crystallographic Data Centre (CCDC).
# 
# Full information about CCDC data access policies and citation 
# guidelines are available at http://www.ccdc.cam.ac.uk/access/V1 
# 
# Audit and citation data items may have been added by the CCDC. 
# Please retain this information to preserve the provenance of 
# this file and to allow appropriate attribution of the data. 
# 
#######################################################################

data_pa121
_audit_block_doi                 10.5517/ccn8w5y
_database_code_depnum_ccdc_archive 'CCDC 604350'
loop_
_citation_id
_citation_doi
_citation_year
1 10.1002/zaac.200900300 2010
_audit_update_record             
;
2006-04-12 deposited with the CCDC.	2024-07-12 downloaded from the CCDC.
;

_audit_creation_method           SHELXL-97
_chemical_name_systematic        
;
?
;
_chemical_name_common            ?
_chemical_melting_point          ?
_chemical_formula_moiety         'C24 H24 Gd N6 O12'
_chemical_formula_sum            'C24 H24 Gd N6 O12'
_chemical_formula_weight         745.74

loop_
_atom_type_symbol
_atom_type_description
_atom_type_scat_dispersion_real
_atom_type_scat_dispersion_imag
_atom_type_scat_source
C C 0.0033 0.0016 'International Tables Vol C Tables 4.2.6.8 and 6.1.1.4'
H H 0.0000 0.0000 'International Tables Vol C Tables 4.2.6.8 and 6.1.1.4'
N N 0.0061 0.0033 'International Tables Vol C Tables 4.2.6.8 and 6.1.1.4'
O O 0.0106 0.0060 'International Tables Vol C Tables 4.2.6.8 and 6.1.1.4'
Gd Gd -0.1653 3.9035 'International Tables Vol C Tables 4.2.6.8 and 6.1.1.4'

_symmetry_cell_setting           Trigonal
_symmetry_space_group_name_H-M   P-3c1
_symmetry_space_group_name_Hall  '-P 3 2"c'
loop_
_symmetry_equiv_pos_as_xyz
'x, y, z'
'-y, x-y, z'
'-x+y, -x, z'
'y, x, -z+1/2'
'x-y, -y, -z+1/2'
'-x, -x+y, -z+1/2'
'-x, -y, -z'
'y, -x+y, -z'
'x-y, x, -z'
'-y, -x, z-1/2'
'-x+y, y, z-1/2'
'x, x-y, z-1/2'

_cell_length_a                   15.9618(8)
_cell_length_b                   15.9618(8)
_cell_length_c                   16.5653(17)
_cell_angle_alpha                90.00
_cell_angle_beta                 90.00
_cell_angle_gamma                120.00
_cell_volume                     3655.1(5)
_cell_formula_units_Z            4
_cell_measurement_temperature    293(2)
_cell_measurement_reflns_used    6818
_cell_measurement_theta_min      2.46
_cell_measurement_theta_max      25.87

_exptl_crystal_description       prism
_exptl_crystal_colour            yellow
_exptl_crystal_size_max          0.298
_exptl_crystal_size_mid          0.257
_exptl_crystal_size_min          0.059
_exptl_crystal_density_meas      ?
_exptl_crystal_density_diffrn    1.355
_exptl_crystal_density_method    'not measured'
_exptl_crystal_F_000             1480
_exptl_absorpt_coefficient_mu    1.871
_exptl_absorpt_correction_type   multi-scan
_exptl_absorpt_correction_T_min  0.513
_exptl_absorpt_correction_T_max  0.804
_exptl_absorpt_process_details   ?

_exptl_special_details           
;
?
;

_diffrn_ambient_temperature      293(2)
_diffrn_radiation_wavelength     0.71073
_diffrn_radiation_type           MoK\a
_diffrn_radiation_source         'fine-focus sealed tube'
_diffrn_radiation_monochromator  graphite
_diffrn_measurement_device_type  'Bruker CCD area detector'
_diffrn_measurement_method       'phi and omega scans'
_diffrn_detector_area_resol_mean ?
_diffrn_standards_number         ?
_diffrn_standards_interval_count ?
_diffrn_standards_interval_time  ?
_diffrn_standards_decay_%        ?
_diffrn_reflns_number            19576
_diffrn_reflns_av_R_equivalents  0.0268
_diffrn_reflns_av_sigmaI/netI    0.0147
_diffrn_reflns_limit_h_min       -19
_diffrn_reflns_limit_h_max       18
_diffrn_reflns_limit_k_min       -14
_diffrn_reflns_limit_k_max       19
_diffrn_reflns_limit_l_min       -14
_diffrn_reflns_limit_l_max       20
_diffrn_reflns_theta_min         1.47
_diffrn_reflns_theta_max         26.05
_reflns_number_total             2419
_reflns_number_gt                1850
_reflns_threshold_expression     >2sigma(I)

_computing_data_collection       'Bruker SMART'
_computing_cell_refinement       'Bruker SMART'
_computing_data_reduction        'Bruker SAINT'
_computing_structure_solution    'SHELXS-97 (Sheldrick, 1990)'
_computing_structure_refinement  'SHELXL-97 (Sheldrick, 1997)'
_computing_molecular_graphics    'Bruker SHELXTL'
_computing_publication_material  'Bruker SHELXTL'

_refine_special_details          
;
Refinement of F^2^ against ALL reflections. The weighted R-factor wR and
goodness of fit S are based on F^2^, conventional R-factors R are based
on F, with F set to zero for negative F^2^. The threshold expression of
F^2^ > 2sigma(F^2^) is used only for calculating R-factors(gt) etc. and is
not relevant to the choice of reflections for refinement. R-factors based
on F^2^ are statistically about twice as large as those based on F, and R-
factors based on ALL data will be even larger.
;

_refine_ls_structure_factor_coef Fsqd
_refine_ls_matrix_type           full
_refine_ls_weighting_scheme      calc
_refine_ls_weighting_details     
'calc w=1/[\s^2^(Fo^2^)+(0.0637P)^2^+1.5263P] where P=(Fo^2^+2Fc^2^)/3'
_atom_sites_solution_primary     direct
_atom_sites_solution_secondary   difmap
_atom_sites_solution_hydrogens   geom
_refine_ls_hydrogen_treatment    mixed
_refine_ls_extinction_method     none
_refine_ls_extinction_coef       ?
_refine_ls_number_reflns         2419
_refine_ls_number_parameters     134
_refine_ls_number_restraints     0
_refine_ls_R_factor_all          0.0426
_refine_ls_R_factor_gt           0.0321
_refine_ls_wR_factor_ref         0.1109
_refine_ls_wR_factor_gt          0.1014
_refine_ls_goodness_of_fit_ref   1.138
_refine_ls_restrained_S_all      1.138
_refine_ls_shift/su_max          0.000
_refine_ls_shift/su_mean         0.000

loop_
_atom_site_label
_atom_site_type_symbol
_atom_site_fract_x
_atom_site_fract_y
_atom_site_fract_z
_atom_site_U_iso_or_equiv
_atom_site_adp_type
_atom_site_occupancy
_atom_site_symmetry_multiplicity
_atom_site_calc_flag
_atom_site_refinement_flags
_atom_site_disorder_assembly
_atom_site_disorder_group
Gd1 Gd 0.6667 0.3333 0.165464(19) 0.04537(15) Uani 1 3 d S . .
N1 N 0.9645(2) 0.4288(2) 0.16027(19) 0.0521(7) Uani 1 1 d . . .
C6 C 0.9593(2) 0.5489(2) 0.0770(2) 0.0500(8) Uani 1 1 d . . .
C1 C 0.8593(2) 0.4939(2) 0.0579(2) 0.0476(8) Uani 1 1 d . . .
N2 N 0.7204(3) 0.2099(3) 0.2598(2) 0.0682(9) Uani 1 1 d . . .
C2 C 0.8228(3) 0.5358(3) 0.0046(3) 0.0630(10) Uani 1 1 d . . .
H2 H 0.7582 0.5008 -0.0107 0.076 Uiso 1 1 calc R . .
C5 C 1.0155(3) 0.6420(3) 0.0443(3) 0.0664(10) Uani 1 1 d . . .
H5 H 1.0809 0.6776 0.0573 0.080 Uiso 1 1 calc R . .
C8 C 1.0128(3) 0.3880(3) 0.2055(2) 0.0597(9) Uani 1 1 d . . .
H8A H 1.0822 0.4298 0.1999 0.072 Uiso 1 1 calc R . .
H8B H 0.9959 0.3255 0.1826 0.072 Uiso 1 1 calc R . .
C3 C 0.8800(3) 0.6272(3) -0.0258(3) 0.0680(11) Uani 1 1 d . . .
H3 H 0.8531 0.6533 -0.0604 0.082 Uiso 1 1 calc R . .
O2 O 0.7710(2) 0.2592(2) 0.2004(2) 0.0634(7) Uani 1 1 d . . .
O1 O 0.80477(19) 0.40760(15) 0.08839(17) 0.0515(6) Uani 1 1 d . . .
C4 C 0.9776(3) 0.6815(3) -0.0056(3) 0.0694(12) Uani 1 1 d . . .
H4 H 1.0158 0.7436 -0.0260 0.083 Uiso 1 1 calc R . .
C7 C 1.0059(3) 0.5119(3) 0.1265(2) 0.0537(9) Uani 1 1 d . . .
H7 H 1.0719 0.5514 0.1350 0.064 Uiso 1 1 calc R . .
O4 O 0.7453(3) 0.1642(3) 0.3011(2) 0.1075(12) Uani 1 1 d . . .
O3 O 0.6434(2) 0.2129(2) 0.27354(18) 0.0721(8) Uani 1 1 d . . .
H1 H 0.909(3) 0.400(3) 0.154(2) 0.047(11) Uiso 1 1 d . . .

loop_
_atom_site_aniso_label
_atom_site_aniso_U_11
_atom_site_aniso_U_22
_atom_site_aniso_U_33
_atom_site_aniso_U_23
_atom_site_aniso_U_13
_atom_site_aniso_U_12
Gd1 0.03870(17) 0.03870(17) 0.0587(2) 0.000 0.000 0.01935(8)
N1 0.0431(17) 0.0558(19) 0.0564(19) -0.0017(14) -0.0054(14) 0.0240(16)
C6 0.0449(18) 0.0476(19) 0.050(2) -0.0012(15) 0.0004(15) 0.0177(15)
C1 0.0429(18) 0.0479(19) 0.052(2) -0.0003(15) 0.0043(15) 0.0222(16)
N2 0.065(2) 0.055(2) 0.076(2) 0.0125(18) -0.0088(19) 0.0239(18)
C2 0.047(2) 0.067(2) 0.073(3) 0.010(2) -0.0006(18) 0.0261(18)
C5 0.055(2) 0.054(2) 0.068(3) 0.0017(19) -0.0039(19) 0.0113(18)
C8 0.059(2) 0.069(2) 0.060(2) -0.0074(18) -0.0101(18) 0.039(2)
C3 0.066(3) 0.067(2) 0.071(3) 0.017(2) 0.004(2) 0.033(2)
O2 0.0561(15) 0.0573(15) 0.079(2) 0.0117(14) 0.0030(13) 0.0299(13)
O1 0.0396(14) 0.0440(13) 0.0665(17) 0.0053(11) 0.0008(12) 0.0176(10)
C4 0.072(3) 0.055(2) 0.064(3) 0.0142(18) 0.004(2) 0.018(2)
C7 0.042(2) 0.054(2) 0.054(2) -0.0041(17) -0.0043(16) 0.0161(16)
O4 0.107(3) 0.115(3) 0.116(3) 0.053(2) -0.001(2) 0.067(2)
O3 0.0591(17) 0.0722(19) 0.081(2) 0.0208(15) 0.0090(15) 0.0295(16)

_geom_special_details            
;
All esds (except the esd in the dihedral angle between two l.s. planes)
are estimated using the full covariance matrix. The cell esds are taken
into account individually in the estimation of esds in distances, angles
and torsion angles; correlations between esds in cell parameters are only
used when they are defined by crystal symmetry. An approximate (isotropic)
treatment of cell esds is used for estimating esds involving l.s. planes.
;

loop_
_geom_bond_atom_site_label_1
_geom_bond_atom_site_label_2
_geom_bond_distance
_geom_bond_site_symmetry_2
_geom_bond_publ_flag
Gd1 O1 2.298(3) 3_665 ?
Gd1 O1 2.298(3) . ?
Gd1 O1 2.298(3) 2_655 ?
Gd1 O3 2.514(3) . ?
Gd1 O3 2.514(3) 2_655 ?
Gd1 O3 2.514(3) 3_665 ?
Gd1 O2 2.546(3) . ?
Gd1 O2 2.546(3) 3_665 ?
Gd1 O2 2.546(3) 2_655 ?
Gd1 N2 2.958(4) 2_655 ?
Gd1 N2 2.958(3) 3_665 ?
N1 C7 1.278(5) . ?
N1 C8 1.443(5) . ?
N1 H1 0.78(3) . ?
C6 C5 1.406(5) . ?
C6 C7 1.417(5) . ?
C6 C1 1.421(5) . ?
C1 O1 1.308(4) . ?
C1 C2 1.399(5) . ?
N2 O4 1.203(4) . ?
N2 O2 1.267(5) . ?
N2 O3 1.275(5) . ?
C2 C3 1.372(5) . ?
C2 H2 0.9300 . ?
C5 C4 1.353(6) . ?
C5 H5 0.9300 . ?
C8 C8 1.516(8) 6_765 ?
C8 H8A 0.9700 . ?
C8 H8B 0.9700 . ?
C3 C4 1.392(6) . ?
C3 H3 0.9300 . ?
C4 H4 0.9300 . ?
C7 H7 0.9300 . ?

loop_
_geom_angle_atom_site_label_1
_geom_angle_atom_site_label_2
_geom_angle_atom_site_label_3
_geom_angle
_geom_angle_site_symmetry_1
_geom_angle_site_symmetry_3
_geom_angle_publ_flag
O1 Gd1 O1 92.12(10) 3_665 . ?
O1 Gd1 O1 92.12(10) 3_665 2_655 ?
O1 Gd1 O1 92.12(10) . 2_655 ?
O1 Gd1 O3 80.63(10) 3_665 . ?
O1 Gd1 O3 121.80(9) . . ?
O1 Gd1 O3 145.34(9) 2_655 . ?
O1 Gd1 O3 145.34(9) 3_665 2_655 ?
O1 Gd1 O3 80.63(10) . 2_655 ?
O1 Gd1 O3 121.80(9) 2_655 2_655 ?
O3 Gd1 O3 74.91(11) . 2_655 ?
O1 Gd1 O3 121.80(9) 3_665 3_665 ?
O1 Gd1 O3 145.34(9) . 3_665 ?
O1 Gd1 O3 80.63(10) 2_655 3_665 ?
O3 Gd1 O3 74.91(11) . 3_665 ?
O3 Gd1 O3 74.91(11) 2_655 3_665 ?
O1 Gd1 O2 76.09(9) 3_665 . ?
O1 Gd1 O2 71.59(8) . . ?
O1 Gd1 O2 159.19(11) 2_655 . ?
O3 Gd1 O2 50.51(10) . . ?
O3 Gd1 O2 69.44(10) 2_655 . ?
O3 Gd1 O2 120.14(10) 3_665 . ?
O1 Gd1 O2 71.59(8) 3_665 3_665 ?
O1 Gd1 O2 159.19(11) . 3_665 ?
O1 Gd1 O2 76.09(9) 2_655 3_665 ?
O3 Gd1 O2 69.44(10) . 3_665 ?
O3 Gd1 O2 120.14(10) 2_655 3_665 ?
O3 Gd1 O2 50.51(10) 3_665 3_665 ?
O2 Gd1 O2 115.00(6) . 3_665 ?
O1 Gd1 O2 159.19(11) 3_665 2_655 ?
O1 Gd1 O2 76.09(9) . 2_655 ?
O1 Gd1 O2 71.59(8) 2_655 2_655 ?
O3 Gd1 O2 120.14(10) . 2_655 ?
O3 Gd1 O2 50.51(10) 2_655 2_655 ?
O3 Gd1 O2 69.44(10) 3_665 2_655 ?
O2 Gd1 O2 115.00(6) . 2_655 ?
O2 Gd1 O2 115.00(6) 3_665 2_655 ?
O1 Gd1 N2 167.04(9) 3_665 2_655 ?
O1 Gd1 N2 78.00(10) . 2_655 ?
O1 Gd1 N2 96.57(10) 2_655 2_655 ?
O3 Gd1 N2 97.33(11) . 2_655 ?
O3 Gd1 N2 25.31(10) 2_655 2_655 ?
O3 Gd1 N2 69.35(10) 3_665 2_655 ?
O2 Gd1 N2 92.68(10) . 2_655 ?
O2 Gd1 N2 119.86(10) 3_665 2_655 ?
O2 Gd1 N2 25.22(10) 2_655 2_655 ?
O1 Gd1 N2 96.57(10) 3_665 3_665 ?
O1 Gd1 N2 167.04(9) . 3_665 ?
O1 Gd1 N2 78.00(10) 2_655 3_665 ?
O3 Gd1 N2 69.35(10) . 3_665 ?
O3 Gd1 N2 97.33(11) 2_655 3_665 ?
O3 Gd1 N2 25.31(10) 3_665 3_665 ?
O2 Gd1 N2 119.86(10) . 3_665 ?
O2 Gd1 N2 25.22(10) 3_665 3_665 ?
O2 Gd1 N2 92.68(10) 2_655 3_665 ?
N2 Gd1 N2 94.65(11) 2_655 3_665 ?
C7 N1 C8 125.5(4) . . ?
C7 N1 H1 113(3) . . ?
C8 N1 H1 121(3) . . ?
C5 C6 C7 118.2(3) . . ?
C5 C6 C1 119.5(3) . . ?
C7 C6 C1 122.2(3) . . ?
O1 C1 C2 122.1(3) . . ?
O1 C1 C6 121.0(3) . . ?
C2 C1 C6 117.0(3) . . ?
O4 N2 O2 121.1(4) . . ?
O4 N2 O3 122.6(4) . . ?
O2 N2 O3 116.3(3) . . ?
C3 C2 C1 121.7(4) . . ?
C3 C2 H2 119.1 . . ?
C1 C2 H2 119.1 . . ?
C4 C5 C6 122.1(4) . . ?
C4 C5 H5 119.0 . . ?
C6 C5 H5 119.0 . . ?
N1 C8 C8 113.4(3) . 6_765 ?
N1 C8 H8A 108.9 . . ?
C8 C8 H8A 108.9 6_765 . ?
N1 C8 H8B 108.9 . . ?
C8 C8 H8B 108.9 6_765 . ?
H8A C8 H8B 107.7 . . ?
C2 C3 C4 121.1(4) . . ?
C2 C3 H3 119.5 . . ?
C4 C3 H3 119.5 . . ?
N2 O2 Gd1 95.9(2) . . ?
C1 O1 Gd1 136.0(2) . . ?
C5 C4 C3 118.6(4) . . ?
C5 C4 H4 120.7 . . ?
C3 C4 H4 120.7 . . ?
N1 C7 C6 125.4(4) . . ?
N1 C7 H7 117.3 . . ?
C6 C7 H7 117.3 . . ?
N2 O3 Gd1 97.2(2) . . ?

loop_
_geom_hbond_atom_site_label_D
_geom_hbond_atom_site_label_H
_geom_hbond_atom_site_label_A
_geom_hbond_distance_DH
_geom_hbond_distance_HA
_geom_hbond_distance_DA
_geom_hbond_angle_DHA
_geom_hbond_site_symmetry_A
N1 H1 O1 0.78(3) 2.04(4) 2.678(4) 140(3) .
N1 H1 O2 0.78(3) 2.35(4) 2.991(4) 140(3) .
C3 H3 O4 0.93 2.75 3.435(6) 131.2 12

_diffrn_measured_fraction_theta_max 1.000
_diffrn_reflns_theta_full        26.05
_diffrn_measured_fraction_theta_full 1.000
_refine_diff_density_max         1.374
_refine_diff_density_min         -0.303
_refine_diff_density_rms         0.132
