####################################################################### 
# 
# This file contains crystal structure data downloaded from the 
# Cambridge Structural Database (CSD) hosted by the Cambridge 
# Crystallographic Data Centre (CCDC).
# 
# Full information about CCDC data access policies and citation 
# guidelines are available at http://www.ccdc.cam.ac.uk/access/V1 
# 
# Audit and citation data items may have been added by the CCDC. 
# Please retain this information to preserve the provenance of 
# this file and to allow appropriate attribution of the data. 
# 
#######################################################################

data_compound2
_audit_block_doi                 10.5517/ccsy32w
_database_code_depnum_ccdc_archive 'CCDC 742948'
_audit_update_record             
;
2009-08-03 deposited with the CCDC.	2024-07-12 downloaded from the CCDC.
;

_audit_creation_method           SHELXL-97
_chemical_name_systematic        
;
?
;
_chemical_name_common            ?
_chemical_melting_point          ?
_chemical_formula_moiety         ?
_chemical_formula_structural     
'(Co2 (C4 H5 N O4)2 (C12 H10 N2)) . 0.28(C12 H10 N2) . (H2 O)'
_chemical_formula_sum            'C23.36 H24.80 Co2 N4.56 O9'
_chemical_formula_weight         631.30

loop_
_atom_type_symbol
_atom_type_description
_atom_type_scat_dispersion_real
_atom_type_scat_dispersion_imag
_atom_type_scat_source
C C 0.0033 0.0016 'International Tables Vol C Tables 4.2.6.8 and 6.1.1.4'
H H 0.0000 0.0000 'International Tables Vol C Tables 4.2.6.8 and 6.1.1.4'
N N 0.0061 0.0033 'International Tables Vol C Tables 4.2.6.8 and 6.1.1.4'
O O 0.0106 0.0060 'International Tables Vol C Tables 4.2.6.8 and 6.1.1.4'
Co Co 0.3494 0.9721 'International Tables Vol C Tables 4.2.6.8 and 6.1.1.4'

_symmetry_cell_setting           Monoclinic
_symmetry_space_group_name_H-M   'P 21'

loop_
_symmetry_equiv_pos_as_xyz
'x, y, z'
'-x, y+1/2, -z'

_cell_length_a                   6.5597(2)
_cell_length_b                   25.4447(8)
_cell_length_c                   7.9129(2)
_cell_angle_alpha                90.00
_cell_angle_beta                 91.950(1)
_cell_angle_gamma                90.00
_cell_volume                     1319.97(7)
_cell_formula_units_Z            2
_cell_measurement_temperature    150(2)
_cell_measurement_reflns_used    4795
_cell_measurement_theta_min      3.03
_cell_measurement_theta_max      28.26

_exptl_crystal_description       block
_exptl_crystal_colour            red
_exptl_crystal_size_max          0.13
_exptl_crystal_size_mid          0.10
_exptl_crystal_size_min          0.10
_exptl_crystal_density_meas      ?
_exptl_crystal_density_diffrn    1.588
_exptl_crystal_density_method    'not measured'
_exptl_crystal_F_000             646
_exptl_absorpt_coefficient_mu    1.316

_exptl_absorpt_correction_type   multi-scan
_exptl_absorpt_correction_T_min  0.8475
_exptl_absorpt_correction_T_max  0.8796
_exptl_absorpt_process_details   'SADABS (Bruker-AXS, 2004)'

_exptl_special_details           
;
?
;

_diffrn_radiation_probe          x-ray
_diffrn_ambient_temperature      150(2)
_diffrn_radiation_wavelength     0.71073
_diffrn_radiation_type           MoK\a
_diffrn_radiation_source         'fine-focus sealed tube'
_diffrn_radiation_monochromator  graphite
_diffrn_measurement_device_type  'Bruker Nonius X8Apex CCD'
_diffrn_measurement_method       '\f scans'
_diffrn_detector_area_resol_mean 25
_diffrn_standards_number         0
_diffrn_standards_interval_count 0
_diffrn_standards_interval_time  0
_diffrn_standards_decay_%        0
_diffrn_reflns_number            10662
_diffrn_reflns_av_R_equivalents  0.0211
_diffrn_reflns_av_sigmaI/netI    0.0441
_diffrn_reflns_limit_h_min       -7
_diffrn_reflns_limit_h_max       8
_diffrn_reflns_limit_k_min       -33
_diffrn_reflns_limit_k_max       33
_diffrn_reflns_limit_l_min       -10
_diffrn_reflns_limit_l_max       7
_diffrn_reflns_theta_min         2.58
_diffrn_reflns_theta_max         28.30
_reflns_number_total             6447
_reflns_number_gt                5521
_reflns_threshold_expression     >2\s(I)


_computing_data_collection       'APEX2 (Bruker-AXS, 2004)'
_computing_cell_refinement       'SAINT (Bruker-AXS, 2004)'
_computing_data_reduction        'SAINT (Bruker-AXS, 2004)'
_computing_structure_solution    'SHELXS-97 (Sheldrick, 1998)'
_computing_structure_refinement  'SHELXL-97 (Sheldrick, 1998)'
_computing_molecular_graphics    'SHELXTL (Bruker-AXS, 2004)'
_computing_publication_material  'CIFTAB-97 (Sheldrick, 1998)'

_refine_special_details          
;
Refinement of F^2^ against ALL reflections. The weighted R-factor wR and
goodness of fit S are based on F^2^, conventional R-factors R are based
on F, with F set to zero for negative F^2^. The threshold expression of
F^2^ > 2sigma(F^2^) is used only for calculating R-factors(gt) etc. and is
not relevant to the choice of reflections for refinement. R-factors based
on F^2^ are statistically about twice as large as those based on F, and R-
factors based on ALL data will be even larger.
;

_refine_ls_structure_factor_coef Fsqd
_refine_ls_matrix_type           full
_refine_ls_weighting_scheme      calc
_refine_ls_weighting_details     
'calc w=1/[\s^2^(Fo^2^)+(0.0360P)^2^+0.0000P] where P=(Fo^2^+2Fc^2^)/3'
_atom_sites_solution_primary     direct
_atom_sites_solution_secondary   difmap
_atom_sites_solution_hydrogens   geom
_refine_ls_hydrogen_treatment    noref
_refine_ls_extinction_method     none
_refine_ls_extinction_coef       0
_refine_ls_abs_structure_details 'Flack H D (1983), Acta Cryst. A39, 876-881'
_refine_ls_abs_structure_Flack   0.099(15)
_refine_ls_number_reflns         6447
_refine_ls_number_parameters     308
_refine_ls_number_restraints     1
_refine_ls_R_factor_all          0.0397
_refine_ls_R_factor_gt           0.0316
_refine_ls_wR_factor_ref         0.0769
_refine_ls_wR_factor_gt          0.0748
_refine_ls_goodness_of_fit_ref   1.059
_refine_ls_restrained_S_all      1.059
_refine_ls_shift/su_max          0.001
_refine_ls_shift/su_mean         0.000

# SQUEEZE RESULTS (APPEND TO CIF)
# Note: Data are Listed for all Voids in the P1 Unit Cell
# i.e. Centre of Gravity, Solvent Accessible Volume,
# Recovered number of Electrons in the Void and
# Details about the Squeezed Material
loop_
_platon_squeeze_void_nr
_platon_squeeze_void_average_x
_platon_squeeze_void_average_y
_platon_squeeze_void_average_z
_platon_squeeze_void_volume
_platon_squeeze_void_count_electrons
_platon_squeeze_void_content
1 -0.081 0.731 0.255 170 36 ' '
2 0.030 0.231 0.745 170 36 ' '
_platon_squeeze_details          'Spek, A.L. (2003), J.Appl.Cryst. 36, 7-13'

loop_
_atom_site_label
_atom_site_type_symbol
_atom_site_fract_x
_atom_site_fract_y
_atom_site_fract_z
_atom_site_U_iso_or_equiv
_atom_site_adp_type
_atom_site_occupancy
_atom_site_symmetry_multiplicity
_atom_site_calc_flag
_atom_site_refinement_flags
_atom_site_disorder_assembly
_atom_site_disorder_group
Co1 Co 0.62539(6) 0.512672(12) 0.71232(5) 0.01670(11) Uani 1 1 d . . .
O11 O 0.7927(4) 0.47981(10) 0.9069(3) 0.0305(6) Uani 1 1 d . . .
O12 O 0.9370(4) 0.40428(11) 1.0005(3) 0.0248(6) Uani 1 1 d . . .
C11 C 0.8148(5) 0.43019(15) 0.9044(4) 0.0255(8) Uani 1 1 d . . .
C12 C 0.6769(5) 0.40198(11) 0.7749(4) 0.0251(6) Uani 1 1 d . . .
H12 H 0.6230 0.3692 0.8267 0.030 Uiso 1 1 calc R . .
N11 N 0.5027(4) 0.43538(13) 0.7155(3) 0.0250(6) Uani 1 1 d . . .
H11A H 0.3968 0.4332 0.7885 0.030 Uiso 1 1 calc R . .
H11B H 0.4565 0.4254 0.6092 0.030 Uiso 1 1 calc R . .
C13 C 0.7943(5) 0.38761(12) 0.6190(4) 0.0289(7) Uani 1 1 d . . .
H13A H 0.7106 0.3625 0.5509 0.035 Uiso 1 1 calc R . .
H13B H 0.9203 0.3690 0.6568 0.035 Uiso 1 1 calc R . .
C14 C 0.8552(5) 0.43336(15) 0.5019(4) 0.0251(8) Uani 1 1 d . . .
O13 O 0.8332(4) 0.48010(10) 0.5365(3) 0.0280(6) Uani 1 1 d . . .
O14 O 0.9437(4) 0.41507(10) 0.3759(3) 0.0277(6) Uani 1 1 d . . .
Co2 Co 1.87119(6) 0.943932(12) 0.79914(5) 0.01703(11) Uani 1 1 d . . .
O21 O 1.7004(3) 0.96998(10) 0.9957(3) 0.0244(6) Uani 1 1 d . . .
O22 O 1.5798(4) 1.04342(9) 1.1107(3) 0.0221(5) Uani 1 1 d . . .
C21 C 1.6870(5) 1.02027(16) 1.0090(4) 0.0236(8) Uani 1 1 d . . .
C22 C 1.8187(4) 1.05208(11) 0.8909(3) 0.0185(5) Uani 1 1 d . . .
H22 H 1.8751 1.0832 0.9539 0.022 Uiso 1 1 calc R . .
N21 N 1.9898(4) 1.02093(13) 0.8274(3) 0.0227(6) Uani 1 1 d . . .
H21A H 2.0991 1.0214 0.9034 0.027 Uiso 1 1 calc R . .
H21B H 2.0309 1.0339 0.7255 0.027 Uiso 1 1 calc R . .
C23 C 1.6840(5) 1.07147(10) 0.7423(3) 0.0213(6) Uani 1 1 d . . .
H23A H 1.7578 1.0999 0.6846 0.026 Uiso 1 1 calc R . .
H23B H 1.5594 1.0872 0.7882 0.026 Uiso 1 1 calc R . .
C24 C 1.6179(5) 1.03027(14) 0.6086(4) 0.0222(7) Uani 1 1 d . . .
O23 O 1.6563(4) 0.98279(10) 0.6266(3) 0.0263(6) Uani 1 1 d . . .
O24 O 1.5254(4) 1.04992(10) 0.4828(3) 0.0252(6) Uani 1 1 d . . .
N31 N 0.8098(4) 0.58248(13) 0.7458(3) 0.0211(6) Uani 1 1 d . . .
C301 C 0.9987(5) 0.58438(15) 0.6859(4) 0.0213(8) Uani 1 1 d . . .
H301 H 1.0505 0.5538 0.6335 0.026 Uiso 1 1 calc R . .
C302 C 1.1220(5) 0.62851(17) 0.6963(4) 0.0223(9) Uani 1 1 d . . .
H302 H 1.2525 0.6284 0.6478 0.027 Uiso 1 1 calc R . .
C303 C 1.0523(5) 0.67334(15) 0.7790(4) 0.0213(7) Uani 1 1 d . . .
C304 C 0.8614(6) 0.67013(16) 0.8497(5) 0.0292(8) Uani 1 1 d . . .
H304 H 0.8097 0.6992 0.9101 0.035 Uiso 1 1 calc R . .
C305 C 0.7457(5) 0.62431(16) 0.8320(4) 0.0241(8) Uani 1 1 d . . .
H305 H 0.6168 0.6227 0.8830 0.029 Uiso 1 1 calc R . .
C306 C 1.1695(5) 0.72292(16) 0.7916(4) 0.0268(8) Uani 1 1 d . . .
H306 H 1.1175 0.7497 0.8618 0.032 Uiso 1 1 calc R . .
C307 C 1.3411(5) 0.73328(16) 0.7135(4) 0.0262(8) Uani 1 1 d . . .
H307 H 1.3923 0.7067 0.6420 0.031 Uiso 1 1 calc R . .
C308 C 1.7708(5) 0.82955(15) 0.6959(4) 0.0250(8) Uani 1 1 d . . .
H308 H 1.9087 0.8292 0.6629 0.030 Uiso 1 1 calc R . .
C309 C 1.6547(6) 0.78481(16) 0.6717(5) 0.0265(8) Uani 1 1 d . . .
H309 H 1.7104 0.7554 0.6155 0.032 Uiso 1 1 calc R . .
C310 C 1.4582(6) 0.78242(15) 0.7284(4) 0.0221(8) Uani 1 1 d . . .
C311 C 1.3812(5) 0.82813(17) 0.8007(4) 0.0213(9) Uani 1 1 d . . .
H311 H 1.2458 0.8291 0.8396 0.026 Uiso 1 1 calc R . .
C312 C 1.5044(5) 0.87165(15) 0.8147(4) 0.0219(8) Uani 1 1 d . . .
H312 H 1.4494 0.9024 0.8636 0.026 Uiso 1 1 calc R . .
N32 N 1.6966(4) 0.87355(12) 0.7642(3) 0.0194(6) Uani 1 1 d . . .

loop_
_atom_site_aniso_label
_atom_site_aniso_U_11
_atom_site_aniso_U_22
_atom_site_aniso_U_33
_atom_site_aniso_U_23
_atom_site_aniso_U_13
_atom_site_aniso_U_12
Co1 0.0197(2) 0.0137(3) 0.0167(2) -0.00051(17) -0.00033(15) -0.00066(19)
O11 0.0371(14) 0.0201(12) 0.0330(13) 0.0043(10) -0.0151(10) 0.0004(10)
O12 0.0336(13) 0.0195(13) 0.0215(11) 0.0000(10) 0.0030(10) -0.0016(10)
C11 0.0332(18) 0.0275(18) 0.0155(13) 0.0053(12) -0.0003(12) -0.0114(14)
C12 0.0334(16) 0.0192(14) 0.0228(14) 0.0017(11) 0.0043(12) -0.0072(12)
N11 0.0173(12) 0.0235(17) 0.0342(14) -0.0048(12) -0.0001(10) -0.0001(11)
C13 0.0461(19) 0.0184(15) 0.0227(15) 0.0017(12) 0.0075(13) -0.0031(14)
C14 0.0354(18) 0.0208(19) 0.0195(14) -0.0014(13) 0.0062(12) -0.0115(15)
O13 0.0293(12) 0.0207(12) 0.0350(13) -0.0080(10) 0.0143(10) -0.0057(10)
O14 0.0408(14) 0.0218(14) 0.0212(11) -0.0019(10) 0.0117(10) 0.0033(11)
Co2 0.0203(2) 0.0143(3) 0.0166(2) 0.00003(17) 0.00263(16) -0.00040(19)
O21 0.0283(12) 0.0163(12) 0.0291(12) -0.0067(9) 0.0104(10) -0.0005(9)
O22 0.0284(12) 0.0158(13) 0.0224(11) -0.0049(9) 0.0037(9) 0.0020(10)
C21 0.0305(17) 0.025(2) 0.0151(13) -0.0038(13) 0.0005(11) -0.0043(14)
C22 0.0235(14) 0.0119(12) 0.0199(13) -0.0009(10) -0.0012(10) 0.0008(11)
N21 0.0214(13) 0.0174(15) 0.0291(13) 0.0020(11) -0.0016(9) -0.0001(11)
C23 0.0314(15) 0.0122(13) 0.0200(14) -0.0004(10) -0.0045(11) 0.0057(11)
C24 0.0261(17) 0.0229(16) 0.0174(14) 0.0021(12) -0.0024(12) -0.0085(13)
O23 0.0297(13) 0.0200(12) 0.0284(12) -0.0006(9) -0.0111(10) 0.0019(10)
O24 0.0434(14) 0.0166(13) 0.0152(11) 0.0024(9) -0.0047(9) -0.0033(11)
N31 0.0239(14) 0.0155(17) 0.0239(14) 0.0028(12) 0.0030(11) -0.0017(13)
C301 0.0255(19) 0.014(2) 0.0249(17) 0.0014(14) 0.0043(14) 0.0010(15)
C302 0.024(2) 0.020(2) 0.0238(19) -0.0046(13) 0.0061(15) -0.0025(15)
C303 0.0255(18) 0.0150(19) 0.0236(16) 0.0015(14) 0.0025(13) 0.0019(15)
C304 0.040(2) 0.0159(19) 0.0319(17) -0.0103(15) 0.0103(15) -0.0045(16)
C305 0.0202(16) 0.026(2) 0.0266(16) -0.0048(14) 0.0036(12) -0.0025(14)
C306 0.0316(19) 0.015(2) 0.0338(19) -0.0042(15) 0.0000(14) -0.0069(16)
C307 0.0343(19) 0.018(2) 0.0273(18) -0.0087(15) 0.0087(14) 0.0001(17)
C308 0.0287(18) 0.0138(17) 0.0331(18) -0.0011(13) 0.0089(14) -0.0005(14)
C309 0.0269(19) 0.0167(19) 0.0365(17) -0.0039(15) 0.0080(14) 0.0010(15)
C310 0.031(2) 0.015(2) 0.0210(15) -0.0006(13) 0.0008(13) -0.0067(16)
C311 0.0192(19) 0.018(2) 0.0270(19) 0.0004(13) 0.0010(15) 0.0001(14)
C312 0.0235(18) 0.014(2) 0.0282(17) -0.0059(14) 0.0024(13) 0.0013(15)
N32 0.0211(14) 0.0129(16) 0.0242(13) -0.0064(12) 0.0004(11) -0.0007(12)

_geom_special_details            
;
All esds (except the esd in the dihedral angle between two l.s. planes)
are estimated using the full covariance matrix. The cell esds are taken
into account individually in the estimation of esds in distances, angles
and torsion angles; correlations between esds in cell parameters are only
used when they are defined by crystal symmetry. An approximate (isotropic)
treatment of cell esds is used for estimating esds involving l.s. planes.
;

loop_
_geom_bond_atom_site_label_1
_geom_bond_atom_site_label_2
_geom_bond_distance
_geom_bond_site_symmetry_2
_geom_bond_publ_flag
Co1 O11 2.039(2) . yes
Co1 N11 2.125(3) . yes
Co1 O13 2.147(2) . yes
Co1 O22 2.124(2) 2_747 yes
Co1 O24 2.039(2) 2_746 yes
Co1 N31 2.160(3) . yes
O11 C11 1.271(4) . ?
O12 C11 1.270(4) . ?
O12 Co2 2.232(3) 2_847 ?
C11 C12 1.523(4) . ?
C12 H12 1.0000 . ?
C12 N11 1.487(4) . ?
C12 C13 1.521(4) . ?
N11 H11A 0.9200 . ?
N11 H11B 0.9200 . ?
C13 H13A 0.9900 . ?
C13 H13B 0.9900 . ?
C13 C14 1.549(4) . ?
C14 O13 1.230(5) . ?
C14 O14 1.260(4) . ?
O14 Co2 2.012(2) 2_846 ?
Co2 O12 2.232(3) 2_857 yes
Co2 O14 2.012(2) 2_856 yes
Co2 O21 2.057(2) . yes
Co2 N21 2.117(3) . yes
Co2 O23 2.168(2) . yes
Co2 N32 2.139(3) . yes
O21 C21 1.287(5) . ?
O22 Co1 2.124(2) 2_757 ?
O22 C21 1.236(4) . ?
C21 C22 1.526(4) . ?
C22 H22 1.0000 . ?
C22 N21 1.476(4) . ?
C22 C23 1.529(4) . ?
N21 H21A 0.9200 . ?
N21 H21B 0.9200 . ?
C23 H23A 0.9900 . ?
C23 H23B 0.9900 . ?
C23 C24 1.541(4) . ?
C24 O23 1.241(4) . ?
C24 O24 1.252(4) . ?
O24 Co1 2.039(2) 2_756 ?
N31 C301 1.342(4) . ?
N31 C305 1.340(5) . ?
C301 H301 0.9500 . ?
C301 C302 1.385(5) . ?
C302 H302 0.9500 . ?
C302 C303 1.400(5) . ?
C303 C304 1.391(5) . ?
C303 C306 1.479(5) . ?
C304 H304 0.9500 . ?
C304 C305 1.396(5) . ?
C305 H305 0.9500 . ?
C306 H306 0.9500 . ?
C306 C307 1.329(3) . ?
C307 H307 0.9500 . ?
C307 C310 1.470(5) . ?
C308 H308 0.9500 . ?
C308 C309 1.380(5) . ?
C308 N32 1.342(5) . ?
C309 H309 0.9500 . ?
C309 C310 1.380(5) . ?
C310 C311 1.398(6) . ?
C311 H311 0.9500 . ?
C311 C312 1.373(5) . ?
C312 H312 0.9500 . ?
C312 N32 1.337(4) . ?

loop_
_geom_angle_atom_site_label_1
_geom_angle_atom_site_label_2
_geom_angle_atom_site_label_3
_geom_angle
_geom_angle_site_symmetry_1
_geom_angle_site_symmetry_3
_geom_angle_publ_flag
O11 Co1 N11 78.80(11) . . yes
O11 Co1 O13 89.63(10) . . yes
O11 Co1 O22 89.45(10) . 2_747 yes
O11 Co1 N31 87.70(11) . . yes
N11 Co1 O13 84.23(10) . . yes
N11 Co1 N31 165.93(11) . . yes
O13 Co1 N31 91.81(10) . . yes
O22 Co1 N11 94.83(10) 2_747 . yes
O22 Co1 O13 178.79(10) 2_747 . yes
O22 Co1 N31 88.93(10) 2_747 . yes
O24 Co1 O11 175.63(11) 2_746 . yes
O24 Co1 N11 105.37(11) 2_746 . yes
O24 Co1 O13 89.49(10) 2_746 . yes
O24 Co1 O22 91.49(9) 2_746 2_747 yes
O24 Co1 N31 88.05(11) 2_746 . yes
C11 O11 Co1 117.0(2) . . ?
C11 O12 Co2 121.3(2) . 2_847 ?
O11 C11 C12 114.4(3) . . ?
O12 C11 O11 125.2(3) . . ?
O12 C11 C12 120.4(3) . . ?
C11 C12 H12 109.1 . . ?
N11 C12 C11 112.0(3) . . ?
N11 C12 H12 109.1 . . ?
N11 C12 C13 106.6(2) . . ?
C13 C12 C11 110.7(2) . . ?
C13 C12 H12 109.1 . . ?
Co1 N11 H11A 110.9 . . ?
Co1 N11 H11B 110.9 . . ?
C12 N11 Co1 104.21(18) . . ?
C12 N11 H11A 110.9 . . ?
C12 N11 H11B 110.9 . . ?
H11A N11 H11B 108.9 . . ?
C12 C13 H13A 108.1 . . ?
C12 C13 H13B 108.1 . . ?
C12 C13 C14 116.9(3) . . ?
H13A C13 H13B 107.3 . . ?
C14 C13 H13A 108.1 . . ?
C14 C13 H13B 108.1 . . ?
O13 C14 C13 124.0(3) . . ?
O13 C14 O14 126.5(3) . . ?
O14 C14 C13 109.3(3) . . ?
C14 O13 Co1 126.8(2) . . ?
C14 O14 Co2 135.7(2) . 2_846 ?
O14 Co2 O12 89.15(10) 2_856 2_857 yes
O14 Co2 O21 174.38(11) 2_856 . yes
O14 Co2 N21 100.51(10) 2_856 . yes
O14 Co2 O23 97.34(10) 2_856 . yes
O14 Co2 N32 86.46(11) 2_856 . yes
O21 Co2 O12 85.23(10) . 2_857 yes
O21 Co2 N21 80.19(10) . . yes
O21 Co2 O23 88.28(9) . . yes
O21 Co2 N32 93.71(10) . . yes
N21 Co2 O12 98.45(10) . 2_857 yes
N21 Co2 O23 82.72(10) . . yes
N21 Co2 N32 169.08(11) . . yes
O23 Co2 O12 173.10(9) . 2_857 yes
N32 Co2 O12 89.99(11) . 2_857 yes
N32 Co2 O23 88.09(10) . . yes
C21 O21 Co2 115.0(2) . . ?
C21 O22 Co1 129.9(2) . 2_757 ?
O21 C21 C22 115.8(3) . . ?
O22 C21 O21 124.7(3) . . ?
O22 C21 C22 119.5(3) . . ?
C21 C22 H22 108.8 . . ?
C21 C22 C23 108.5(2) . . ?
N21 C22 C21 112.1(3) . . ?
N21 C22 H22 108.8 . . ?
N21 C22 C23 109.8(2) . . ?
C23 C22 H22 108.8 . . ?
Co2 N21 H21A 110.8 . . ?
Co2 N21 H21B 110.8 . . ?
C22 N21 Co2 104.59(17) 