####################################################################### 
# 
# This file contains crystal structure data downloaded from the 
# Cambridge Structural Database (CSD) hosted by the Cambridge 
# Crystallographic Data Centre (CCDC).
# 
# Full information about CCDC data access policies and citation 
# guidelines are available at http://www.ccdc.cam.ac.uk/access/V1 
# 
# Audit and citation data items may have been added by the CCDC. 
# Please retain this information to preserve the provenance of 
# this file and to allow appropriate attribution of the data. 
# 
#######################################################################

data_m5
_audit_block_doi                 10.5517/ccw23fg
_database_code_depnum_ccdc_archive 'CCDC 806385'
loop_
_citation_id
_citation_doi
_citation_year
1 10.1039/c0ce00662a 2011
_audit_update_record             
;
2011-01-04 deposited with the CCDC.	2024-07-12 downloaded from the CCDC.
;
#TrackingRef '- 5.cif'


_audit_creation_method           SHELXL-97
_chemical_name_systematic        
;
?
;
_chemical_name_common            ?
_chemical_melting_point          'not measured'
_chemical_formula_moiety         'C61 H53 Cd2 N9 O10'
_chemical_formula_sum            'C61 H53 Cd2 N9 O10'
_chemical_formula_weight         1296.92

loop_
_atom_type_symbol
_atom_type_description
_atom_type_scat_dispersion_real
_atom_type_scat_dispersion_imag
_atom_type_scat_source
C C 0.0033 0.0016 'International Tables Vol C Tables 4.2.6.8 and 6.1.1.4'
H H 0.0000 0.0000 'International Tables Vol C Tables 4.2.6.8 and 6.1.1.4'
N N 0.0061 0.0033 'International Tables Vol C Tables 4.2.6.8 and 6.1.1.4'
O O 0.0106 0.0060 'International Tables Vol C Tables 4.2.6.8 and 6.1.1.4'
Cd Cd -0.8075 1.2024 'International Tables Vol C Tables 4.2.6.8 and 6.1.1.4'

_symmetry_cell_setting           Monoclinic
_symmetry_space_group_name_H-M   P21/c

loop_
_symmetry_equiv_pos_as_xyz
'x, y, z'
'-x, y+1/2, -z+1/2'
'-x, -y, -z'
'x, -y-1/2, z-1/2'

_cell_length_a                   15.9388(11)
_cell_length_b                   28.520(2)
_cell_length_c                   16.1837(11)
_cell_angle_alpha                90.00
_cell_angle_beta                 105.7140(10)
_cell_angle_gamma                90.00
_cell_volume                     7081.7(8)
_cell_formula_units_Z            4
_cell_measurement_temperature    185(2)
_cell_measurement_reflns_used    12469
_cell_measurement_theta_min      1.43
_cell_measurement_theta_max      25.05

_exptl_crystal_description       block
_exptl_crystal_colour            yellow
_exptl_crystal_size_max          0.22
_exptl_crystal_size_mid          0.13
_exptl_crystal_size_min          0.10
_exptl_crystal_density_meas      none
_exptl_crystal_density_diffrn    1.216
_exptl_crystal_density_method    'not measured'
_exptl_crystal_F_000             2632
_exptl_absorpt_coefficient_mu    0.655
_exptl_absorpt_correction_type   empirical
_exptl_absorpt_correction_T_min  0.8693
_exptl_absorpt_correction_T_max  0.9374
_exptl_absorpt_process_details   SADABS

_exptl_special_details           
;
?
;

_diffrn_ambient_temperature      185(2)
_diffrn_radiation_wavelength     0.71073
_diffrn_radiation_type           MoK\a
_diffrn_radiation_source         'fine-focus sealed tube'
_diffrn_radiation_monochromator  graphite
_diffrn_measurement_device_type  'CCD area detector'
_diffrn_measurement_method       'phi and omega scans'
_diffrn_detector_area_resol_mean 9.00cm
_diffrn_standards_number         none
_diffrn_standards_interval_count none
_diffrn_standards_interval_time  none
_diffrn_standards_decay_%        none
_diffrn_reflns_number            35610
_diffrn_reflns_av_R_equivalents  0.0962
_diffrn_reflns_av_sigmaI/netI    0.1213
_diffrn_reflns_limit_h_min       -9
_diffrn_reflns_limit_h_max       18
_diffrn_reflns_limit_k_min       -33
_diffrn_reflns_limit_k_max       33
_diffrn_reflns_limit_l_min       -19
_diffrn_reflns_limit_l_max       19
_diffrn_reflns_theta_min         1.43
_diffrn_reflns_theta_max         25.05
_reflns_number_total             12469
_reflns_number_gt                6286
_reflns_threshold_expression     >2sigma(I)

_computing_data_collection       'Bruker SMART'
_computing_cell_refinement       'Bruker SMART'
_computing_data_reduction        'Bruker SAINT'
_computing_structure_solution    'SHELXS-97 (Sheldrick, 1990)'
_computing_structure_refinement  'SHELXL-97 (Sheldrick, 1997)'
_computing_molecular_graphics    SHELXP-97
_computing_publication_material  SHELXTL

_refine_special_details          
;
Refinement of F^2^ against ALL reflections. The weighted R-factor wR and
goodness of fit S are based on F^2^, conventional R-factors R are based
on F, with F set to zero for negative F^2^. The threshold expression of
F^2^ > 2sigma(F^2^) is used only for calculating R-factors(gt) etc. and is
not relevant to the choice of reflections for refinement. R-factors based
on F^2^ are statistically about twice as large as those based on F, and R-
factors based on ALL data will be even larger.
;

_refine_ls_structure_factor_coef Fsqd
_refine_ls_matrix_type           full
_refine_ls_weighting_scheme      calc
_refine_ls_weighting_details     
'calc w=1/[\s^2^(Fo^2^)+(0.1289P)^2^+55.0817P] where P=(Fo^2^+2Fc^2^)/3'
_atom_sites_solution_primary     direct
_atom_sites_solution_secondary   difmap
_atom_sites_solution_hydrogens   geom
_refine_ls_hydrogen_treatment    constr
_refine_ls_extinction_method     none
_refine_ls_extinction_coef       ?
_refine_ls_number_reflns         12469
_refine_ls_number_parameters     741
_refine_ls_number_restraints     0
_refine_ls_R_factor_all          0.1599
_refine_ls_R_factor_gt           0.0812
_refine_ls_wR_factor_ref         0.3021
_refine_ls_wR_factor_gt          0.2564
_refine_ls_goodness_of_fit_ref   1.062
_refine_ls_restrained_S_all      1.062
_refine_ls_shift/su_max          0.019
_refine_ls_shift/su_mean         0.001

loop_
_atom_site_label
_atom_site_type_symbol
_atom_site_fract_x
_atom_site_fract_y
_atom_site_fract_z
_atom_site_U_iso_or_equiv
_atom_site_adp_type
_atom_site_occupancy
_atom_site_symmetry_multiplicity
_atom_site_calc_flag
_atom_site_refinement_flags
_atom_site_disorder_assembly
_atom_site_disorder_group
Cd1 Cd 0.38001(6) 0.03381(3) 0.86392(5) 0.0301(3) Uani 1 1 d . . .
Cd2 Cd 0.33799(5) -0.03398(3) 0.64984(5) 0.0280(3) Uani 1 1 d . . .
C1 C 0.3177(8) 0.1329(4) 0.5423(7) 0.031(3) Uani 1 1 d . . .
H1A H 0.3104 0.1130 0.4938 0.038 Uiso 1 1 calc R . .
C2 C 0.3222(8) 0.1139(4) 0.6239(7) 0.029(3) Uani 1 1 d . . .
C3 C 0.3315(8) 0.1431(4) 0.6925(8) 0.037(3) Uani 1 1 d . . .
H3A H 0.3328 0.1298 0.7467 0.044 Uiso 1 1 calc R . .
C4 C 0.3391(9) 0.1909(4) 0.6869(7) 0.038(3) Uani 1 1 d . . .
H4A H 0.3450 0.2104 0.7357 0.046 Uiso 1 1 calc R . .
C5 C 0.3613(9) 0.2992(4) 0.6314(8) 0.040(3) Uani 1 1 d . . .
H5A H 0.3650 0.2987 0.6910 0.048 Uiso 1 1 calc R . .
C6 C 0.3702(9) 0.3407(4) 0.5905(7) 0.040(3) Uani 1 1 d . . .
H6A H 0.3823 0.3687 0.6234 0.048 Uiso 1 1 calc R . .
C7 C 0.3621(8) 0.3430(4) 0.5018(7) 0.034(3) Uani 1 1 d . . .
C8 C 0.3468(9) 0.3009(4) 0.4533(8) 0.038(3) Uani 1 1 d . . .
H8A H 0.3421 0.3015 0.3935 0.045 Uiso 1 1 calc R . .
C9 C 0.3385(9) 0.2589(4) 0.4940(7) 0.034(3) Uani 1 1 d . . .
C10 C 0.3466(9) 0.2582(4) 0.5829(7) 0.034(3) Uani 1 1 d . . .
C11 C 0.3379(8) 0.2095(4) 0.6081(7) 0.034(3) Uani 1 1 d . . .
C12 C 0.3240(8) 0.1809(3) 0.5342(7) 0.029(3) Uani 1 1 d . . .
C13 C 0.3237(8) 0.2099(4) 0.4555(7) 0.033(3) Uani 1 1 d . . .
C14 C 0.3963(11) 0.1951(4) 0.4172(9) 0.058(4) Uani 1 1 d . . .
H14A H 0.4523 0.1972 0.4610 0.087 Uiso 1 1 calc R . .
H14B H 0.3970 0.2157 0.3691 0.087 Uiso 1 1 calc R . .
H14C H 0.3865 0.1626 0.3967 0.087 Uiso 1 1 calc R . .
C15 C 0.2375(10) 0.2059(5) 0.3869(8) 0.057(4) Uani 1 1 d . . .
H15A H 0.1898 0.2151 0.4112 0.086 Uiso 1 1 calc R . .
H15B H 0.2287 0.1735 0.3665 0.086 Uiso 1 1 calc R . .
H15C H 0.2381 0.2267 0.3388 0.086 Uiso 1 1 calc R . .
C16 C 0.3193(8) 0.0613(4) 0.6344(8) 0.030(3) Uani 1 1 d . . .
C17 C 0.3722(8) 0.3882(3) 0.4592(8) 0.031(3) Uani 1 1 d . . .
C18 C 0.3903(8) -0.1332(4) 0.9674(7) 0.031(3) Uani 1 1 d . . .
H18A H 0.3881 -0.1131 1.0136 0.037 Uiso 1 1 calc R . .
C19 C 0.3988(8) -0.1148(4) 0.8890(8) 0.034(3) Uani 1 1 d . . .
C20 C 0.4055(8) -0.1449(4) 0.8227(7) 0.033(3) Uani 1 1 d . . .
H20A H 0.4114 -0.1319 0.7705 0.040 Uiso 1 1 calc R . .
C21 C 0.4038(9) -0.1930(4) 0.8316(7) 0.036(3) Uani 1 1 d . . .
H21A H 0.4096 -0.2133 0.7869 0.043 Uiso 1 1 calc R . .
C22 C 0.3813(10) -0.3013(4) 0.8899(8) 0.047(4) Uani 1 1 d . . .
H22A H 0.3900 -0.3015 0.8341 0.056 Uiso 1 1 calc R . .
C23 C 0.3677(9) -0.3425(4) 0.9288(8) 0.041(3) Uani 1 1 d . . .
H23A H 0.3664 -0.3714 0.8994 0.049 Uiso 1 1 calc R . .
C24 C 0.3560(9) -0.3420(4) 1.0106(7) 0.038(3) Uani 1 1 d . . .
C25 C 0.3565(8) -0.3003(4) 1.0548(7) 0.031(3) Uani 1 1 d . . .
H25A H 0.3481 -0.3001 1.1107 0.037 Uiso 1 1 calc R . .
C26 C 0.3695(9) -0.2586(4) 1.0152(8) 0.036(3) Uani 1 1 d . . .
C27 C 0.3820(9) -0.2595(4) 0.9341(8) 0.040(3) Uani 1 1 d . . .
C28 C 0.3932(9) -0.2108(4) 0.9091(7) 0.039(3) Uani 1 1 d . . .
C29 C 0.3855(8) -0.1813(4) 0.9745(7) 0.032(3) Uani 1 1 d . . .
C30 C 0.3717(9) -0.2096(4) 1.0487(8) 0.039(3) Uani 1 1 d . . .
C31 C 0.4501(9) -0.2040(4) 1.1292(7) 0.045(4) Uani 1 1 d . . .
H31A H 0.5040 -0.2127 1.1149 0.068 Uiso 1 1 calc R . .
H31B H 0.4419 -0.2244 1.1751 0.068 Uiso 1 1 calc R . .
H31C H 0.4539 -0.1713 1.1485 0.068 Uiso 1 1 calc R . .
C32 C 0.2894(9) -0.1957(4) 1.0726(9) 0.050(4) Uani 1 1 d . . .
H32A H 0.2391 -0.1989 1.0223 0.075 Uiso 1 1 calc R . .
H32B H 0.2942 -0.1630 1.0922 0.075 Uiso 1 1 calc R . .
H32C H 0.2817 -0.2161 1.1187 0.075 Uiso 1 1 calc R . .
C33 C 0.3991(7) -0.0624(4) 0.8754(8) 0.028(3) Uani 1 1 d . . .
C34 C 0.3410(8) -0.3881(4) 1.0530(8) 0.034(3) Uani 1 1 d . . .
C35 C 0.1277(9) -0.0196(5) 0.6102(10) 0.051(4) Uani 1 1 d . . .
H35A H 0.1378 0.0038 0.5724 0.061 Uiso 1 1 calc R . .
C36 C 0.0463(10) -0.0257(6) 0.6154(11) 0.065(5) Uani 1 1 d . . .
H36A H 0.0005 -0.0067 0.5822 0.078 Uiso 1 1 calc R . .
C37 C 0.0294(10) -0.0585(5) 0.6675(11) 0.058(4) Uani 1 1 d . . .
C38 C 0.0955(10) -0.0832(5) 0.7170(11) 0.070(5) Uani 1 1 d . . .
H38A H 0.0858 -0.1049 0.7580 0.083 Uiso 1 1 calc R . .
C39 C 0.1795(10) -0.0762(5) 0.7071(12) 0.071(5) Uani 1 1 d . . .
H39A H 0.2259 -0.0952 0.7394 0.086 Uiso 1 1 calc R . .
C40 C -0.0603(11) -0.0664(6) 0.6786(11) 0.065(4) Uani 1 1 d . . .
H40A H -0.0694 -0.0898 0.7169 0.077 Uiso 1 1 calc R . .
C41 C -0.2596(9) -0.0240(5) 0.6247(8) 0.043(3) Uani 1 1 d . . .
H41A H -0.2457 0.0010 0.5917 0.052 Uiso 1 1 calc R . .
C42 C -0.3458(9) -0.0268(4) 0.6359(8) 0.039(3) Uani 1 1 d . . .
C43 C -0.3734(9) -0.0625(5) 0.6827(9) 0.049(4) Uani 1 1 d . . .
H43A H -0.3343 -0.0868 0.7085 0.059 Uiso 1 1 calc R . .
C44 C -0.4580(8) -0.0621(4) 0.6912(9) 0.045(3) Uani 1 1 d . . .
H44A H -0.4757 -0.0863 0.7231 0.054 Uiso 1 1 calc R . .
C45 C -0.4882(9) 0.0054(4) 0.6121(8) 0.044(3) Uani 1 1 d . . .
H45A H -0.5279 0.0297 0.5875 0.052 Uiso 1 1 calc R . .
C46 C -0.4058(9) 0.0067(5) 0.6016(9) 0.050(4) Uani 1 1 d . . .
H46A H -0.3903 0.0315 0.5695 0.060 Uiso 1 1 calc R . .
C47 C 0.5784(9) 0.0103(4) 0.8771(7) 0.037(3) Uani 1 1 d . . .
H47A H 0.5638 -0.0155 0.9078 0.045 Uiso 1 1 calc R . .
C48 C 0.6633(8) 0.0133(4) 0.8686(8) 0.038(3) Uani 1 1 d . . .
H48A H 0.7055 -0.0099 0.8931 0.045 Uiso 1 1 calc R . .
C49 C 0.6841(8) 0.0502(4) 0.8244(8) 0.036(3) Uani 1 1 d . . .
C50 C 0.6206(9) 0.0826(4) 0.7896(8) 0.046(4) Uani 1 1 d . . .
H50A H 0.6334 0.1085 0.7582 0.056 Uiso 1 1 calc R . .
C51 C 0.5383(8) 0.0775(4) 0.8005(8) 0.035(3) Uani 1 1 d . . .
H51A H 0.4948 0.1001 0.7763 0.042 Uiso 1 1 calc R . .
C52 C 0.7711(9) 0.0557(5) 0.8131(9) 0.050(4) Uani 1 1 d . . .
H52A H 0.7827 0.0806 0.7787 0.060 Uiso 1 1 calc R . .
C53 C 0.9745(9) 0.0089(6) 0.8741(11) 0.060(4) Uani 1 1 d . . .
H53A H 0.9629 -0.0144 0.9113 0.072 Uiso 1 1 calc R . .
C54 C 1.0611(10) 0.0142(5) 0.8637(9) 0.052(4) Uani 1 1 d . . .
C55 C 1.1252(10) -0.0130(5) 0.9149(10) 0.061(4) Uani 1 1 d . . .
H55A H 1.1122 -0.0351 0.9536 0.074 Uiso 1 1 calc R . .
C56 C 1.2116(8) -0.0070(5) 0.9086(9) 0.046(3) Uani 1 1 d . . .
H56A H 1.2565 -0.0248 0.9462 0.055 Uiso 1 1 calc R . .
C57 C 1.1707(10) 0.0456(5) 0.8025(10) 0.056(4) Uani 1 1 d . . .
H57A H 1.1847 0.0652 0.7607 0.068 Uiso 1 1 calc R . .
C58 C 1.0828(10) 0.0442(6) 0.8057(10) 0.062(4) Uani 1 1 d . . .
H58A H 1.0398 0.0635 0.7689 0.074 Uiso 1 1 calc R . .
N1 N 0.1963(7) -0.0446(3) 0.6552(7) 0.037(3) Uani 1 1 d . . .
N2 N -0.1228(9) -0.0420(5) 0.6373(9) 0.067(4) Uani 1 1 d . . .
N3 N -0.2030(8) -0.0534(5) 0.6571(8) 0.056(3) Uani 1 1 d . . .
N4 N -0.5148(6) -0.0288(3) 0.6561(6) 0.033(2) Uani 1 1 d . . .
N5 N 0.5182(7) 0.0414(3) 0.8445(6) 0.033(2) Uani 1 1 d . . .
N6 N 0.8320(8) 0.0272(5) 0.8493(9) 0.066(4) Uani 1 1 d . . .
N7 N 0.9113(9) 0.0369(5) 0.8314(9) 0.069(4) Uani 1 1 d . . .
N8 N 1.2338(7) 0.0216(3) 0.8538(7) 0.040(3) Uani 1 1 d . . .
O1 O 0.3098(6) 0.0358(2) 0.5706(5) 0.037(2) Uani 1 1 d . . .
O2 O 0.3307(5) 0.0451(2) 0.7088(5) 0.0333(19) Uani 1 1 d . . .
O3 O 0.3742(7) 0.3870(3) 0.3836(5) 0.049(2) Uani 1 1 d . . .
O4 O 0.3748(6) 0.4251(3) 0.5014(5) 0.045(2) Uani 1 1 d . . .
O5 O 0.4072(6) -0.0364(2) 0.9387(5) 0.036(2) Uani 1 1 d . . .
O6 O 0.3874(5) -0.0469(2) 0.7998(5) 0.035(2) Uani 1 1 d . . .
O7 O 0.3271(6) -0.4252(3) 1.0107(5) 0.040(2) Uani 1 1 d . . .
O8 O 0.3454(6) -0.3861(3) 1.1319(5) 0.041(2) Uani 1 1 d . . .
C59 C 0.101(3) 0.2272(13) 0.588(2) 0.086(11) Uiso 0.50 1 d P . .
C60 C 0.108(2) 0.1806(12) 0.715(2) 0.076(10) Uiso 0.50 1 d P . .
C61 C 0.100(2) 0.1456(11) 0.5876(19) 0.058(8) Uiso 0.50 1 d P . .
N9 N 0.1045(15) 0.1808(8) 0.6300(14) 0.052(6) Uiso 0.50 1 d P . .
O9 O 0.0995(13) 0.1037(7) 0.6175(12) 0.064(6) Uiso 0.50 1 d P . .
C62 C 0.178(2) -0.2267(12) 0.705(2) 0.074(10) Uiso 0.50 1 d P . .
C63 C 0.157(2) -0.1952(11) 0.8317(19) 0.059(8) Uiso 0.50 1 d P . .
C64 C 0.030(3) -0.2050(13) 0.718(2) 0.082(11) Uiso 0.50 1 d P . .
N10 N 0.1147(16) -0.2090(8) 0.7451(15) 0.056(6) Uiso 0.50 1 d P . .
O10 O 0.001(2) -0.2149(12) 0.641(2) 0.134(11) Uiso 0.50 1 d P . .
O1W O 0.1247(17) -0.3596(9) 0.9085(16) 0.033(6) Uiso 0.30 1 d P . .
O2W O -0.0053(19) -0.1163(10) 0.8912(18) 0.048(8) Uiso 0.30 1 d P . .
O3W O 0.118(2) -0.4078(11) 0.895(2) 0.022(8) Uiso 0.20 1 d P . .
O4W O -0.085(3) -0.1306(14) 0.967(3) 0.042(11) Uiso 0.20 1 d P . .

loop_
_atom_site_aniso_label
_atom_site_aniso_U_11
_atom_site_aniso_U_22
_atom_site_aniso_U_33
_atom_site_aniso_U_23
_atom_site_aniso_U_13
_atom_site_aniso_U_12
Cd1 0.0416(6) 0.0139(4) 0.0413(5) -0.0011(4) 0.0222(4) 0.0002(4)
Cd2 0.0353(5) 0.0143(4) 0.0394(5) -0.0014(4) 0.0187(4) 0.0001(4)
C1 0.038(7) 0.031(6) 0.028(6) -0.005(5) 0.014(6) -0.001(6)
C2 0.035(7) 0.023(6) 0.032(6) 0.001(5) 0.014(5) -0.005(5)
C3 0.051(9) 0.025(6) 0.035(7) -0.001(5) 0.012(6) 0.001(6)
C4 0.065(9) 0.023(6) 0.031(7) 0.008(5) 0.021(6) 0.001(6)
C5 0.069(10) 0.029(6) 0.027(6) 0.005(5) 0.019(6) -0.001(6)
C6 0.070(10) 0.019(6) 0.029(6) 0.000(5) 0.012(6) -0.002(6)
C7 0.052(8) 0.018(6) 0.039(7) 0.001(5) 0.024(6) 0.000(6)
C8 0.058(9) 0.022(6) 0.037(7) 0.006(5) 0.021(7) -0.006(6)
C9 0.059(9) 0.014(5) 0.036(7) 0.002(5) 0.025(6) 0.002(6)
C10 0.056(9) 0.021(6) 0.022(6) 0.003(5) 0.007(6) -0.008(6)
C11 0.050(8) 0.015(5) 0.037(7) 0.000(5) 0.014(6) -0.009(5)
C12 0.040(7) 0.012(5) 0.038(7) -0.006(5) 0.014(6) 0.002(5)
C13 0.050(8) 0.015(5) 0.036(7) -0.001(5) 0.013(6) -0.002(5)
C14 0.106(13) 0.021(6) 0.059(9) 0.005(6) 0.045(9) 0.000(8)
C15 0.080(12) 0.033(7) 0.047(8) 0.007(6) -0.001(8) -0.008(8)
C16 0.032(7) 0.016(6) 0.046(8) 0.000(5) 0.016(6) -0.003(5)
C17 0.041(8) 0.011(5) 0.044(7) 0.002(5) 0.016(6) -0.003(5)
C18 0.043(8) 0.018(6) 0.035(7) 0.004(5) 0.015(6) -0.007(5)
C19 0.042(8) 0.018(6) 0.044(7) -0.002(5) 0.018(6) 0.001(5)
C20 0.052(8) 0.021(6) 0.032(6) 0.005(5) 0.022(6) 0.001(6)
C21 0.066(9) 0.014(5) 0.032(6) -0.003(5) 0.019(6) -0.002(6)
C22 0.080(11) 0.022(6) 0.041(7) 0.002(5) 0.020(7) -0.002(7)
C23 0.068(10) 0.016(6) 0.044(7) -0.008(5) 0.025(7) -0.010(6)
C24 0.059(9) 0.017(6) 0.035(7) 0.003(5) 0.005(6) -0.002(6)
C25 0.043(8) 0.019(6) 0.032(6) 0.007(5) 0.013(6) 0.008(5)
C26 0.052(9) 0.023(6) 0.038(7) 0.005(5) 0.017(6) 0.000(6)
C27 0.073(10) 0.015(6) 0.034(7) 0.007(5) 0.018(7) 0.005(6)
C28 0.065(9) 0.020(6) 0.035(7) 0.009(5) 0.020(7) 0.003(6)
C29 0.052(8) 0.021(6) 0.025(6) -0.008(5) 0.013(6) -0.006(6)
C30 0.064(9) 0.017(6) 0.044(7) -0.007(5) 0.029(7) -0.005(6)
C31 0.079(11) 0.024(6) 0.027(6) 0.003(5) 0.004(7) -0.006(7)
C32 0.070(10) 0.029(7) 0.060(9) 0.003(6) 0.035(8) -0.007(7)
C33 0.031(7) 0.016(5) 0.046(7) 0.004(5) 0.022(6) 0.000(5)
C34 0.041(8) 0.022(6) 0.041(7) 0.007(5) 0.016(6) -0.002(6)
C35 0.030(8) 0.054(9) 0.074(10) 0.022(7) 0.023(7) 0.004(7)
C36 0.035(9) 0.080(12) 0.084(12) 0.029(9) 0.022(8) -0.003(8)
C37 0.045(10) 0.056(9) 0.078(11) 0.007(8) 0.026(8) -0.003(8)
C38 0.042(10) 0.070(11) 0.106(14) 0.049(10) 0.035(9) 0.002(8)
C39 0.047(10) 0.059(10) 0.112(14) 0.033(10) 0.028(10) 0.017(8)
C40 0.058(11) 0.063(10) 0.082(12) 0.017(9) 0.034(10) -0.010(9)
C41 0.041(9) 0.055(9) 0.035(7) -0.010(6) 0.013(7) -0.010(7)
C42 0.039(8) 0.041(7) 0.042(7) -0.006(6) 0.021(6) 0.004(7)
C43 0.030(8) 0.043(8) 0.074(10) 0.008(7) 0.013(7) 0.003(6)
C44 0.028(8) 0.042(8) 0.068(9) 0.015(7) 0.017(7) -0.002(6)
C45 0.051(9) 0.029(7) 0.057(8) 0.008(6) 0.024(7) 0.001(6)
C46 0.051(10) 0.050(9) 0.056(9) -0.002(7) 0.026(8) -0.023(8)
C47 0.051(9) 0.025(6) 0.035(7) -0.004(5) 0.011(6) 0.003(6)
C48 0.031(8) 0.032(7) 0.049(8) 0.006(6) 0.009(6) 0.011(6)
C49 0.026(7) 0.040(7) 0.045(7) -0.008(6) 0.015(6) -0.002(6)
C50 0.060(10) 0.035(7) 0.048(8) -0.002(6) 0.022(7) -0.011(7)
C51 0.031(7) 0.025(6) 0.048(8) 0.002(5) 0.011(6) -0.006(5)
C52 0.045(9) 0.046(8) 0.068(10) 0.002(7) 0.028(8) -0.001(7)
C53 0.034(9) 0.063(10) 0.087(12) 0.021(9) 0.024(9) 0.007(8)
C54 0.049(10) 0.062(9) 0.050(9) -0.005(7) 0.023(8) -0.002(8)
C55 0.060(11) 0.064(10) 0.078(11) 0.026(8) 0.049(9) 0.013(8)
C56 0.024(7) 0.057(9) 0.059(9) 0.023(7) 0.014(7) 0.006(6)
C57 0.055(10) 0.061(10) 0.065(10) 0.010(8) 0.037(8) 0.008(8)
C58 0.042(9) 0.089(12) 0.060(10) 0.017(9) 0.022(8) 0.008(9)
N1 0.034(6) 0.022(5) 0.059(7) 0.001(5) 0.021(5) -0.008(5)
N2 0.042(8) 0.082(10) 0.07