
#######################################################################
#
#                 Cambridge Crystallographic Data Centre
#                                CCDC
#
#######################################################################
#
# If this CIF has been generated from an entry in the Cambridge
# Structural Database, then it will include bibliographic, chemical,
# crystal, experimental, refinement or atomic coordinate data resulting
# from the CCDC's data processing and validation procedures.
#
#######################################################################

data_CSD_CIF_OPVPFE10
_audit_creation_date 1978-09-01
_audit_creation_method CSD-ConQuest-V1
_database_code_CSD OPVPFE10
_database_code_depnum_ccdc_archive 'CCDC 1226194'
_chemical_formula_sum 'C73 H76 Fe1 N11 O6'
_chemical_formula_moiety
;
C68 H70 Fe1 N10 O6,0.5(C6 H6),0.5(C4 H6 N2)
;
_journal_coden_Cambridge 9
_journal_volume 17
_journal_year 1978
_journal_page_first 850
_journal_name_full 'Inorg.Chem. '
loop_
_publ_author_name
"G.B.Jameson"
"G.A.Rodley"
"W.T.Robinson"
"R.R.Gagne"
"C.A.Reed"
"J.P.Collman"
_chemical_name_systematic
;
(1-Methylimidazole)-(dioxygen)-meso-tetrakis(\a,\a,\a,\a-o-pivalamidophenyl)po
rphinato-iron(ii) benzene 1-methylimidazole solvate
;
_chemical_name_common
;
Teaching Subset: Fundamental Chemistry, Symmetry
;
_cell_volume   6796.554
_exptl_special_details
;
THE X COORDINATE OF C42 IS -.1215 NOT .1215

;
_diffrn_ambient_temperature ?
_diffrn_special_details
;
The study was carried out at room temperature,in the range 283-303K

;
_refine_special_details
;
THE 1-METHYLIMIDAZOLE LIGAND IS DISORDERED. THE BENZENE AND 1-METHYLIMIDAZOLE 
SOLVENT MOLECULES ARE DISORDERED AS WELL AS O2 OF THE DIOXYGEN LIGAND THE 
LATTER HAS TWO SITES, THE ONE AT -.013,.269, .293 IS OMITTED. THERE IS ALSO 
SOME DISORDER IN THE TERTIARY BUTYL GROUPS.
;
#These two values have been output from a single CSD field.
_refine_ls_R_factor_gt 0.109
_refine_ls_wR_factor_gt 0.109
_symmetry_cell_setting monoclinic
_symmetry_space_group_name_H-M 'C 2/c'
_symmetry_Int_Tables_number 15
loop_
_symmetry_equiv_pos_site_id
_symmetry_equiv_pos_as_xyz
1 x,y,z
2 1/2+x,1/2+y,z
3 -x,y,1/2-z
4 1/2-x,1/2+y,1/2-z
5 -x,-y,-z
6 -1/2-x,-1/2-y,-z
7 x,-y,-1/2+z
8 -1/2+x,-1/2-y,-1/2+z
_cell_length_a 18.690(3)
_cell_length_b 19.514(3)
_cell_length_c 18.638(3)
_cell_angle_alpha 90
_cell_angle_beta 91.00(1)
_cell_angle_gamma 90
_cell_formula_units_Z 4
loop_
_atom_type_symbol
_atom_type_radius_bond
C 0.68
Fe 1.34
N 0.68
O 0.68
loop_
_atom_site_label
_atom_site_type_symbol
_atom_site_fract_x
_atom_site_fract_y
_atom_site_fract_z
Fe1 Fe 0.00000 0.13975 0.25000
O1 O 0.00000 0.22920 0.25000
O2 O -0.04600 0.26700 0.23500
N1 N 0.00000 0.03370 0.25000
C1 C -0.04350 -0.00740 0.29410
C2 C -0.02300 -0.07450 0.27460
C3 C -0.04260 -0.13580 0.30370
N2 N 0.09520 0.13790 0.20650
C4 C 0.11190 0.13470 0.13420
C5 C 0.18950 0.13860 0.12250
C6 C 0.21990 0.14520 0.19070
C7 C 0.16240 0.14230 0.24330
N3 N 0.04480 0.13850 0.34750
C8 C 0.11790 0.14150 0.36480
C9 C 0.12880 0.13960 0.44220
C10 C 0.06190 0.13640 0.47220
C11 C 0.00960 0.13540 0.41290
C12 C 0.17120 0.14480 0.31600
C13 C 0.06180 0.13320 0.07840
N4 N 0.24010 0.26550 0.36610
C14 C 0.26010 0.32890 0.36720
O3 O 0.32350 0.34240 0.37660
C15 C 0.20750 0.38840 0.35910
C16 C 0.12200 0.36400 0.37700
C17 C 0.21800 0.42000 0.28900
C18 C 0.22100 0.44000 0.42300
N5 N 0.10570 0.24530 0.00240
C19 C 0.12150 0.30980 -0.01580
O4 O 0.13800 0.32370 -0.07720
C20 C 0.11160 0.36740 0.03600
C21 C 0.17800 0.38900 0.06900
C22 C 0.06100 0.34800 0.10100
C23 C 0.08100 0.43700 -0.00500
C24 C 0.24840 0.14490 0.34350
C25 C 0.28650 0.08360 0.34290
C26 C 0.35700 0.08180 0.36830
C27 C 0.38940 0.14140 0.39430
C28 C 0.35120 0.20270 0.39490
C29 C 0.28080 0.20450 0.36950
C30 C 0.08950 0.12520 0.00220
C31 C 0.09360 0.06100 -0.03010
C32 C 0.11990 0.05490 -0.09910
C33 C 0.14220 0.11300 -0.13590
C34 C 0.13810 0.17720 -0.10370
C35 C 0.11180 0.18330 -0.03460
O2B O 0.04600 0.26700 0.26500
C2B C 0.02300 -0.07450 0.22540
C1B C 0.04350 -0.00740 0.20590
C3B C 0.04260 -0.13580 0.19630
N2B N -0.09520 0.13790 0.29350
C4B C -0.11190 0.13470 0.36580
C5B C -0.18950 0.13860 0.37750
C6B C -0.21990 0.14520 0.30930
C7B C -0.16240 0.14230 0.25670
C12B C -0.17120 0.14480 0.18400
C8B C -0.11790 0.14150 0.13520
N3B N -0.04480 0.13850 0.15250
C11B C -0.00960 0.13540 0.08710
C10B C -0.06190 0.13640 0.02780
C9B C -0.12880 0.13960 0.05780
C24B C -0.24840 0.14490 0.15650
C25B C -0.28650 0.08360 0.15710
C26B C -0.35700 0.08180 0.13170
C27B C -0.38940 0.14140 0.10570
C28B C -0.35120 0.20270 0.10510
C29B C -0.28080 0.20450 0.13050
N4B N -0.24010 0.26550 0.13390
C14B C -0.26010 0.32890 0.13280
O3B O -0.32350 0.34240 0.12340
C15B C -0.20750 0.38840 0.14090
C16B C -0.12200 0.36400 0.12300
C17B C -0.21800 0.42000 0.21100
C18B C -0.22100 0.44000 0.07700
C13B C -0.06180 0.13320 0.42160
C30B C -0.08950 0.12520 0.49780
C31B C -0.09360 0.06100 0.53010
C32B C -0.11990 0.05490 0.59910
C33B C -0.14220 0.11300 0.63590
C34B C -0.13810 0.17720 0.60370
C35B C -0.11180 0.18330 0.53460
N5B N -0.10570 0.24530 0.49760
C19B C -0.12150 0.30980 0.51580
O4B O -0.13800 0.32370 0.57720
C20B C -0.11160 0.36740 0.46400
C21B C -0.17800 0.38900 0.43100
C22B C -0.06100 0.34800 0.39900
C23B C -0.08100 0.43700 0.50500
#END
