####################################################################### 
# 
# This file contains crystal structure data downloaded from the 
# Cambridge Structural Database (CSD) hosted by the Cambridge 
# Crystallographic Data Centre (CCDC).
# 
# Full information about CCDC data access policies and citation 
# guidelines are available at http://www.ccdc.cam.ac.uk/access/V1 
# 
# Audit and citation data items may have been added by the CCDC. 
# Please retain this information to preserve the provenance of 
# this file and to allow appropriate attribution of the data. 
# 
#######################################################################

data_ZnI2bipo_TTF
_audit_block_doi                 10.5517/ccw29x4
_database_code_depnum_ccdc_archive 'CCDC 806586'
loop_
_citation_id
_citation_doi
_citation_year
1 10.1002/anie.201100176 2011
_audit_update_record             
;
2011-01-05 deposited with the CCDC.	2024-07-12 downloaded from the CCDC.
;

_audit_creation_method           SHELXL-97
_chemical_name_systematic        
;
?
;
_chemical_name_common            ?
_chemical_melting_point          ?
_chemical_formula_moiety         ?
_chemical_formula_sum            'C78 H76 I6 N12 S4 Zn3'
_chemical_formula_weight         2267.26

loop_
_atom_type_symbol
_atom_type_description
_atom_type_scat_dispersion_real
_atom_type_scat_dispersion_imag
_atom_type_scat_source
C C 0.0033 0.0016 'International Tables Vol C Tables 4.2.6.8 and 6.1.1.4'
H H 0.0000 0.0000 'International Tables Vol C Tables 4.2.6.8 and 6.1.1.4'
N N 0.0061 0.0033 'International Tables Vol C Tables 4.2.6.8 and 6.1.1.4'
S S 0.1246 0.1234 'International Tables Vol C Tables 4.2.6.8 and 6.1.1.4'
Zn Zn 0.2839 1.4301 'International Tables Vol C Tables 4.2.6.8 and 6.1.1.4'
I I -0.4742 1.8119 'International Tables Vol C Tables 4.2.6.8 and 6.1.1.4'

_symmetry_cell_setting           Orthorhombic
_symmetry_space_group_name_H-M   Pbca

loop_
_symmetry_equiv_pos_as_xyz
'x, y, z'
'-x+1/2, -y, z+1/2'
'-x, y+1/2, -z+1/2'
'x+1/2, -y+1/2, -z'
'-x, -y, -z'
'x-1/2, y, -z-1/2'
'x, -y-1/2, z-1/2'
'-x-1/2, y-1/2, z'

_cell_length_a                   27.46900(10)
_cell_length_b                   13.6888(3)
_cell_length_c                   45.9961(5)
_cell_angle_alpha                90.00
_cell_angle_beta                 90.00
_cell_angle_gamma                90.00
_cell_volume                     17295.3(4)
_cell_formula_units_Z            8
_cell_measurement_temperature    90(2)
_cell_measurement_reflns_used    69337
_cell_measurement_theta_min      0.7895
_cell_measurement_theta_max      58.957

_exptl_crystal_description       prism
_exptl_crystal_colour            'dark green'
_exptl_crystal_size_max          0.15
_exptl_crystal_size_mid          0.10
_exptl_crystal_size_min          0.08
_exptl_crystal_density_meas      ?
_exptl_crystal_density_diffrn    1.741
_exptl_crystal_density_method    'not measured'
_exptl_crystal_F_000             8800
_exptl_absorpt_coefficient_mu    3.111
_exptl_absorpt_correction_type   empirical
_exptl_absorpt_correction_T_min  0.6525
_exptl_absorpt_correction_T_max  0.7889
_exptl_absorpt_process_details   HKL2000

_exptl_special_details           
;
?
;

_diffrn_ambient_temperature      90(2)
_diffrn_radiation_wavelength     0.68900
_diffrn_radiation_type           Synchrotron
_diffrn_radiation_source         KEK_PF
_diffrn_radiation_monochromator  Si
_diffrn_measurement_device_type  MercuryCCD
_diffrn_measurement_method       Omega_Scan
_diffrn_detector_area_resol_mean ?
_diffrn_standards_number         ?
_diffrn_standards_interval_count ?
_diffrn_standards_interval_time  ?
_diffrn_standards_decay_%        None
_diffrn_reflns_number            26240
_diffrn_reflns_av_R_equivalents  0.0654
_diffrn_reflns_av_sigmaI/netI    0.0597
_diffrn_reflns_limit_h_min       0
_diffrn_reflns_limit_h_max       39
_diffrn_reflns_limit_k_min       0
_diffrn_reflns_limit_k_max       19
_diffrn_reflns_limit_l_min       0
_diffrn_reflns_limit_l_max       65
_diffrn_reflns_theta_min         1.44
_diffrn_reflns_theta_max         29.48
_reflns_number_total             26240
_reflns_number_gt                17483
_reflns_threshold_expression     >2sigma(I)

_computing_data_collection       CrystalClear
_computing_cell_refinement       HKL2000
_computing_data_reduction        HKL2000
_computing_structure_solution    'SHELXS-97 (Sheldrick, 1990)'
_computing_structure_refinement  'SHELXL-97 (Sheldrick, 1997)'
_computing_molecular_graphics    XSHELL
_computing_publication_material  SHELXTL

_refine_special_details          
;
Refinement of F^2^ against ALL reflections. The weighted R-factor wR and
goodness of fit S are based on F^2^, conventional R-factors R are based
on F, with F set to zero for negative F^2^. The threshold expression of
F^2^ > 2sigma(F^2^) is used only for calculating R-factors(gt) etc. and is
not relevant to the choice of reflections for refinement. R-factors based
on F^2^ are statistically about twice as large as those based on F, and R-
factors based on ALL data will be even larger.
;

_refine_ls_structure_factor_coef Fsqd
_refine_ls_matrix_type           full
_refine_ls_weighting_scheme      calc
_refine_ls_weighting_details     
'calc w=1/[\s^2^(Fo^2^)+(0.0569P)^2^+0.0000P] where P=(Fo^2^+2Fc^2^)/3'
_atom_sites_solution_primary     direct
_atom_sites_solution_secondary   difmap
_atom_sites_solution_hydrogens   constr
_refine_ls_hydrogen_treatment    ride
_refine_ls_extinction_method     none
_refine_ls_extinction_coef       ?
_refine_ls_number_reflns         26240
_refine_ls_number_parameters     928
_refine_ls_number_restraints     0
_refine_ls_R_factor_all          0.0724
_refine_ls_R_factor_gt           0.0478
_refine_ls_wR_factor_ref         0.1318
_refine_ls_wR_factor_gt          0.1251
_refine_ls_goodness_of_fit_ref   1.102
_refine_ls_restrained_S_all      1.102
_refine_ls_shift/su_max          0.014
_refine_ls_shift/su_mean         0.001

loop_
_atom_site_label
_atom_site_type_symbol
_atom_site_fract_x
_atom_site_fract_y
_atom_site_fract_z
_atom_site_U_iso_or_equiv
_atom_site_adp_type
_atom_site_occupancy
_atom_site_symmetry_multiplicity
_atom_site_calc_flag
_atom_site_refinement_flags
_atom_site_disorder_assembly
_atom_site_disorder_group
C18Y C 0.6802(5) 0.8763(8) 0.02997(19) 0.129(5) Uani 1 1 d . . .
H18A H 0.6491 0.8868 0.0195 0.155 Uiso 1 1 calc R . .
H18B H 0.7070 0.8893 0.0161 0.155 Uiso 1 1 calc R . .
C15Y C 0.7262(3) 0.8233(6) 0.0841(2) 0.087(2) Uani 1 1 d . . .
H15A H 0.6992 0.8063 0.0974 0.104 Uiso 1 1 calc R . .
H15B H 0.7572 0.8141 0.0947 0.104 Uiso 1 1 calc R . .
C16Y C 0.7215(3) 0.9275(5) 0.07542(17) 0.078(2) Uani 1 1 d . . .
H16A H 0.7155 0.9669 0.0931 0.094 Uiso 1 1 calc R . .
H16B H 0.7529 0.9493 0.0671 0.094 Uiso 1 1 calc R . .
Zn1 Zn 0.530418(18) -0.14630(3) 0.090025(12) 0.02944(11) Uani 1 1 d . . .
Zn2 Zn 0.74593(2) 0.64990(3) 0.188179(10) 0.02847(11) Uani 1 1 d . . .
Zn3 Zn 0.945790(18) 0.34737(3) 0.428038(11) 0.02725(10) Uani 1 1 d . . .
I1 I 0.692929(13) 0.80191(2) 0.196285(7) 0.04145(8) Uani 1 1 d . . .
I2 I 1.014859(10) 0.43310(2) 0.401578(7) 0.03781(8) Uani 1 1 d . . .
I3 I 0.512908(12) -0.22674(2) 0.041043(8) 0.04422(9) Uani 1 1 d . . .
I4 I 0.936727(13) 0.16477(2) 0.437875(9) 0.04611(9) Uani 1 1 d . . .
I5 I 0.836761(13) 0.67120(3) 0.178296(8) 0.04744(9) Uani 1 1 d . . .
I6 I 0.580188(13) -0.23019(2) 0.129244(9) 0.04889(9) Uani 1 1 d . . .
N1 N 0.56005(12) -0.0106(2) 0.08165(8) 0.0285(7) Uani 1 1 d . . .
N2 N 0.59876(13) 0.3239(2) 0.04317(7) 0.0279(7) Uani 1 1 d . . .
N3 N 0.63583(12) 0.3214(2) 0.08998(7) 0.0255(7) Uani 1 1 d . . .
N4 N 0.63443(12) 0.4680(2) 0.06257(7) 0.0248(7) Uani 1 1 d . . .
N5 N 0.71305(13) 0.5701(2) 0.15571(7) 0.0286(7) Uani 1 1 d . . .
N6 N 0.73703(13) 0.5633(2) 0.22443(7) 0.0265(7) Uani 1 1 d . . .
N7 N 0.67525(12) 0.4501(2) 0.32168(7) 0.0223(6) Uani 1 1 d . . .
N8 N 0.76128(12) 0.4481(2) 0.32611(7) 0.0206(6) Uani 1 1 d . . .
N9 N 0.71219(11) 0.4157(2) 0.36746(7) 0.0205(6) Uani 1 1 d . . .
N10 N 0.88339(12) 0.3846(2) 0.40534(7) 0.0235(7) Uani 1 1 d . . .
N11 N 0.56712(13) 0.5796(2) -0.03327(7) 0.0275(7) Uani 1 1 d . . .
N12 N 0.53471(12) 0.3906(2) 0.39036(8) 0.0266(7) Uani 1 1 d . . .
C1F C 0.58255(19) 0.0389(3) 0.10311(10) 0.0406(11) Uani 1 1 d . . .
H1F H 0.5859 0.0088 0.1216 0.049 Uiso 1 1 calc R . .
C2F C 0.6009(2) 0.1318(3) 0.09915(10) 0.0393(11) Uani 1 1 d . . .
H2F H 0.6170 0.1643 0.1146 0.047 Uiso 1 1 calc R . .
C3F C 0.59559(15) 0.1775(3) 0.07226(9) 0.0268(8) Uani 1 1 d . . .
C4F C 0.57234(15) 0.1256(3) 0.05016(10) 0.0305(9) Uani 1 1 d . . .
H4F H 0.5680 0.1540 0.0315 0.037 Uiso 1 1 calc R . .
C5F C 0.55569(16) 0.0324(3) 0.05587(10) 0.0329(9) Uani 1 1 d . . .
H5F H 0.5404 -0.0029 0.0406 0.039 Uiso 1 1 calc R . .
C6F C 0.56700(17) 0.4312(3) -0.00566(9) 0.0326(9) Uani 1 1 d . . .
H6F H 0.5567 0.3652 -0.0039 0.039 Uiso 1 1 calc R . .
C7F C 0.55347(17) 0.4861(3) -0.02990(10) 0.0332(9) Uani 1 1 d . . .
H7F H 0.5340 0.4564 -0.0445 0.040 Uiso 1 1 calc R . .
C8F C 0.59363(18) 0.6210(3) -0.01225(10) 0.0358(10) Uani 1 1 d . . .
H8F H 0.6028 0.6875 -0.0144 0.043 Uiso 1 1 calc R . .
C9F C 0.60857(18) 0.5713(3) 0.01264(10) 0.0362(10) Uani 1 1 d . . .
H9F H 0.6272 0.6033 0.0272 0.043 Uiso 1 1 calc R . .
C10F C 0.59544(15) 0.4733(3) 0.01574(8) 0.0256(8) Uani 1 1 d . . .
C11F C 0.61145(15) 0.2794(3) 0.06827(9) 0.0259(8) Uani 1 1 d . . .
C12F C 0.61093(15) 0.4178(3) 0.04186(8) 0.0254(8) Uani 1 1 d . . .
C13F C 0.64531(14) 0.4164(3) 0.08622(8) 0.0238(8) Uani 1 1 d . . .
C14F C 0.66925(14) 0.4690(3) 0.11068(8) 0.0241(8) Uani 1 1 d . . .
C15F C 0.67042(16) 0.5701(3) 0.11080(9) 0.0309(9) Uani 1 1 d . . .
H15F H 0.6563 0.6061 0.0953 0.037 Uiso 1 1 calc R . .
C16F C 0.69241(17) 0.6178(3) 0.13372(9) 0.0312(9) Uani 1 1 d . . .
H16F H 0.6928 0.6872 0.1338 0.037 Uiso 1 1 calc R . .
C17F C 0.71159(18) 0.4730(3) 0.15571(10) 0.0354(10) Uani 1 1 d . . .
H17F H 0.7263 0.4387 0.1714 0.043 Uiso 1 1 calc R . .
C18F C 0.68947(17) 0.4199(3) 0.13374(9) 0.0330(10) Uani 1 1 d . . .
H18F H 0.6883 0.3506 0.1346 0.040 Uiso 1 1 calc R . .
C19F C 0.68511(15) 0.5164(3) 0.26376(9) 0.0281(8) Uani 1 1 d . . .
H19F H 0.6531 0.5091 0.2713 0.034 Uiso 1 1 calc R . .
C20F C 0.69274(16) 0.5543(3) 0.23601(9) 0.0294(9) Uani 1 1 d . . .
H20F H 0.6653 0.5744 0.2249 0.035 Uiso 1 1 calc R . .
C21F C 0.77560(15) 0.5318(3) 0.23964(8) 0.0250(8) Uani 1 1 d . . .
H21F H 0.8069 0.5354 0.2310 0.030 Uiso 1 1 calc R . .
C22F C 0.77160(15) 0.4943(3) 0.26744(8) 0.0248(8) Uani 1 1 d . . .
H22F H 0.7995 0.4720 0.2777 0.030 Uiso 1 1 calc R . .
C23F C 0.72540(15) 0.4898(2) 0.28016(8) 0.0223(7) Uani 1 1 d . . .
C24F C 0.62066(15) 0.4069(3) 0.39356(9) 0.0277(8) Uani 1 1 d . . .
H24F H 0.6490 0.4080 0.4054 0.033 Uiso 1 1 calc R . .
C25F C 0.57558(15) 0.3936(3) 0.40611(9) 0.0282(8) Uani 1 1 d . . .
H25F H 0.5735 0.3864 0.4266 0.034 Uiso 1 1 calc R . .
C27F C 0.53798(16) 0.4033(3) 0.36134(10) 0.0343(10) Uani 1 1 d . . .
H27F H 0.5090 0.4023 0.3501 0.041 Uiso 1 1 calc R . .
C28F C 0.58251(15) 0.4177(3) 0.34735(10) 0.0308(9) Uani 1 1 d . . .
H28F H 0.5839 0.4269 0.3269 0.037 Uiso 1 1 calc R . .
C29F C 0.62472(14) 0.4184(3) 0.36388(8) 0.0225(7) Uani 1 1 d . . .
C30F C 0.67325(14) 0.4284(2) 0.35006(8) 0.0212(7) Uani 1 1 d . . .
C31F C 0.72017(14) 0.4594(2) 0.31107(8) 0.0217(7) Uani 1 1 d . . .
C32F C 0.75519(13) 0.4262(2) 0.35418(8) 0.0196(7) Uani 1 1 d . . .
C33F C 0.79948(14) 0.4135(2) 0.37207(8) 0.0207(7) Uani 1 1 d . . .
C34F C 0.84578(14) 0.4272(3) 0.35994(9) 0.0238(8) Uani 1 1 d . . .
H34F H 0.8492 0.4459 0.3402 0.029 Uiso 1 1 calc R . .
C35F C 0.88623(15) 0.4131(3) 0.37722(9) 0.0253(8) Uani 1 1 d . . .
H35F H 0.9175 0.4240 0.3690 0.030 Uiso 1 1 calc R . .
C36F C 0.83875(15) 0.3719(3) 0.41667(9) 0.0259(8) Uani 1 1 d . . .
H36F H 0.8363 0.3515 0.4364 0.031 Uiso 1 1 calc R . .
C37F C 0.79639(14) 0.3868(3) 0.40137(8) 0.0232(8) Uani 1 1 d . . .
H37F H 0.7656 0.3792 0.4105 0.028 Uiso 1 1 calc R . .
C1P C 0.3224(4) 0.7407(4) 0.22915(14) 0.078(3) Uani 1 1 d . . .
H1P H 0.3390 0.7541 0.2468 0.093 Uiso 1 1 calc R . .
C2P C 0.3488(3) 0.7139(4) 0.20476(13) 0.0603(17) Uani 1 1 d . . .
H2P H 0.3832 0.7080 0.2058 0.072 Uiso 1 1 calc R . .
C3P C 0.3240(2) 0.6952(3) 0.17802(11) 0.0417(12) Uani 1 1 d . . .
C4P C 0.2730(2) 0.7013(3) 0.17732(10) 0.0388(11) Uani 1 1 d . . .
C5P C 0.2471(3) 0.7284(3) 0.20288(11) 0.0507(15) Uani 1 1 d . . .
H5P H 0.2126 0.7329 0.2026 0.061 Uiso 1 1 calc R . .
C6P C 0.2726(3) 0.7483(3) 0.22824(12) 0.0619(19) Uani 1 1 d . . .
H6P H 0.2553 0.7673 0.2452 0.074 Uiso 1 1 calc R . .
C7P C 0.35072(19) 0.6736(3) 0.15136(12) 0.0408(12) Uani 1 1 d . . .
C8P C 0.4029(2) 0.6673(4) 0.15060(16) 0.0583(17) Uani 1 1 d . . .
H8P H 0.4209 0.6733 0.1681 0.070 Uiso 1 1 calc R . .
C9P C 0.4271(2) 0.6527(4) 0.12477(17) 0.0579(17) Uani 1 1 d . . .
H9P H 0.4617 0.6489 0.1247 0.069 Uiso 1 1 calc R . .
C10P C 0.4026(2) 0.6437(4) 0.09975(17) 0.0609(18) Uani 1 1 d . . .
H10P H 0.4200 0.6352 0.0821 0.073 Uiso 1 1 calc R . .
C11P C 0.3527(2) 0.6466(3) 0.09923(13) 0.0488(14) Uani 1 1 d . . .
H11P H 0.3361 0.6387 0.0813 0.059 Uiso 1 1 calc R . .
C12P C 0.32577(18) 0.6610(3) 0.12485(11) 0.0355(10) Uani 1 1 d . . .
C13P C 0.27247(18) 0.6603(3) 0.12463(10) 0.0335(10) Uani 1 1 d . . .
C14P C 0.2464(2) 0.6375(3) 0.09908(11) 0.0405(11) Uani 1 1 d . . .
H14P H 0.2637 0.6231 0.0817 0.049 Uiso 1 1 calc R . .
C15P C 0.1960(2) 0.6359(3) 0.09911(13) 0.0484(14) Uani 1 1 d . . .
H15P H 0.1789 0.6209 0.0817 0.058 Uiso 1 1 calc R . .
C16P C 0.1708(2) 0.6557(3) 0.12392(14) 0.0470(13) Uani 1 1 d . . .
H16P H 0.1362 0.6546 0.1238 0.056 Uiso 1 1 calc R . .
C17P C 0.1955(2) 0.6775(3) 0.14914(13) 0.0452(13) Uani 1 1 d . . .
H17P H 0.1775 0.6909 0.1663 0.054 Uiso 1 1 calc R . .
C18P C 0.24617(17) 0.6804(3) 0.15030(10) 0.0334(10) Uani 1 1 d . . .
S1 S 0.53561(9) 0.57841(14) 0.20367(5) 0.0882(6) Uani 1 1 d . . .
S2 S 0.58071(6) 0.39153(15) 0.22045(4) 0.0694(5) Uani 1 1 d . . .
S3 S 0.50708(8) 0.36710(18) 0.27415(4) 0.0822(6) Uani 1 1 d . . .
S4 S 0.45710(9) 0.5521(2) 0.25816(6) 0.1067(8) Uani 1 1 d . . .
C1TF C 0.5053(3) 0.4688(6) 0.25042(16) 0.074(2) Uani 1 1 d . . .
C2TF C 0.5374(3) 0.4809(5) 0.22879(14) 0.0663(17) Uani 1 1 d . . .
C3TF C 0.5702(3) 0.5168(5) 0.17757(15) 0.0717(19) Uani 1 1 d . . .
H3TF H 0.5748 0.5428 0.1586 0.086 Uiso 1 1 calc R . .
C4TF C 0.5901(2) 0.4304(5) 0.18556(14) 0.0635(17) Uani 1 1 d . . .
H4TF H 0.6087 0.3927 0.1722 0.076 Uiso 1 1 calc R . .
C5TF C 0.4510(3) 0.3912(9) 0.29085(19) 0.101(3) Uani 1 1 d . . .
H5TF H 0.4374 0.3471 0.3046 0.122 Uiso 1 1 calc R . .
C6TF C 0.4272(4) 0.4770(9) 0.2833(2) 0.126(4) Uani 1 1 d . . .
H6TF H 0.3965 0.4940 0.2913 0.151 Uiso 1 1 calc R . .
C1Y C 0.2572(3) 0.8916(6) 0.02024(15) 0.076(2) Uani 1 1 d . . .
H1Y1 H 0.2264 0.9170 0.0284 0.091 Uiso 1 1 calc R . .
H1Y2 H 0.2560 0.8995 -0.0011 0.091 Uiso 1 1 calc R . .
C2Y C 0.2620(3) 0.7860(6) 0.02748(16) 0.077(2) Uani 1 1 d . . .
H2Y1 H 0.2350 0.7493 0.0183 0.092 Uiso 1 1 calc R . .
H2Y2 H 0.2595 0.7773 0.0488 0.092 Uiso 1 1 calc R . .
C3Y C 0.3109(3) 0.7446(6) 0.01678(15) 0.074(2) Uani 1 1 d . . .
H3Y1 H 0.3143 0.6762 0.0235 0.088 Uiso 1 1 calc R . .
H3Y2 H 0.3114 0.7447 -0.0047 0.088 Uiso 1 1 calc R . .
C4Y C 0.3532(3) 0.8046(5) 0.02814(15) 0.0689(18) Uani 1 1 d . . .
H4Y1 H 0.3558 0.7953 0.0494 0.083 Uiso 1 1 calc R . .
H4Y2 H 0.3837 0.7804 0.0192 0.083 Uiso 1 1 calc R . .
C5Y C 0.3479(2) 0.9121(6) 0.02173(15) 0.0699(19) Uani 1 1 d . . .
H5Y1 H 0.3505 0.9229 0.0005 0.084 Uiso 1 1 calc R . .
H5Y2 H 0.3747 0.9483 0.0313 0.084 Uiso 1 1 calc R . .
C6Y C 0.2999(3) 0.9508(5) 0.03239(14) 0.0711(19) Uani 1 1 d . . .
H6Y1 H 0.2964 1.0199 0.0264 0.085 Uiso 1 1 calc R . .
H6Y2 H 0.2992 0.9483 0.0539 0.085 Uiso 1 1 calc R . .
C7Y C 0.4254(3) 0.1369(5) 0.20121(16) 0.074(2) Uani 1 1 d . . .
H7Y1 H 0.4342 0.0759 0.2115 0.089 Uiso 1 1 calc R . .
H7Y2 H 0.3954 0.1239 0.1899 0.089 Uiso 1 1 calc R . .
C8Y C 0.4651(3) 0.1625(6) 0.1808(2) 0.098(3) Uani 1 1 d . . .
H8Y1 H 0.4670 0.1123 0.1654 0.118 Uiso 1 1 calc R . .
H8Y2 H 0.4965 0.1628 0.1914 0.118 Uiso 1 1 calc R . .
C9Y C 0.4569(4) 0.2616(5) 0.16707(19) 0.094(3) Uani 1 1 d . . .
H9Y1 H 0.4854 0.2788 0.1549 0.112 Uiso 1 1 calc R . .
H9Y2 H 0.4280 0.2585 0.1542 0.112 Uiso 1 1 calc R . .
C10Y C 0.4066(3) 0.3158(6) 0.21059(19) 0.092(3) Uani 1 1 d . . .
H10A H 0.4050 0.3655 0.2262 0.110 Uiso 1 1 calc R . .
H10B H 0.3754 0.3168 0.1998 0.110 Uiso 1 1 calc R . .
C11Y C 0.4147(4) 0.2161(6) 0.2236(2) 0.104(3) Uani 1 1 d . . .
H11A H 0.3854 0.1973 0.2348 0.125 Uiso 1 1 calc R . .
H11B H 0.4423 0.2198 0.2375 0.125 Uiso 1 1 calc R . .
C12Y C 0.4492(4) 0.3397(5) 0.1897(2) 0.106(4) Uani 1 1 d . . .
H12A H 0.4425 0.4026 0.1798 0.127 Uiso 1 1 calc R . .
H12B H 0.4795 0.3476 0.2011 0.127 Uiso 1 1 calc R . .
C17Y C 0.6835(2) 0.9478(6) 0.05467(15) 0.074(2) Uani 1 1 d . . .
H17A H 0.6889 1.0139 0.0465 0.089 Uiso 1 1 calc R . .
H17B H 0.6519 0.9486 0.0650 0.089 Uiso 1 1 calc R . .
C14Y C 0.7249(4) 0.7529(6) 0.0574(2) 0.123(4) Uani 1 1 d . . .
H14A H 0.7554 0.7593 0.0461 0.147 Uiso 1 1 calc R . .
H14B H 0.7221 0.6845 0.0641 0.147 Uiso 1 1 calc R . .
C13Y C 0.6827(4) 0.7783(10) 0.0389(3) 0.143(5) Uani 1 1 d . . .
H13A H 0.6835 0.7364 0.0213 0.171 Uiso 1 1 calc R . .
H13B H 0.6525 0.7624 0.0497 0.171 Uiso 1 1 calc R . .

loop_
_atom_site_aniso_label
_atom_site_aniso_U_11
_atom_site_aniso_U_22
_atom_site_aniso_U_33
_atom_site_aniso_U_23
_atom_site_aniso_U_13
_atom_site_aniso_U_12
C18Y 0.201(12) 0.119(8) 0.067(6) 0.035(5) -0.060(7) -0.068(8)
C15Y 0.074(5) 0.073(5) 0.114(7) 0.013(5) -0.023(5) -0.018(4)
C16Y 0.085(5) 0.068(4) 0.081(5) -0.001(4) -0.023(4) 0.007(4)
Zn1 0.0241(2) 0.0249(2) 0.0393(3) -0.00466(19) 0.0040(2) -0.00187(17)
Zn2 0.0420(3) 0.0241(2) 0.0193(2) 0.00244(17) -0.0036(2) -0.00605(19)
Zn3 0.0269(2) 0.0304(2) 0.0245(2) -0.00287(18) -0.00372(19) 0.00432(18)
I1 0.0567(2) 0.02548(13) 0.04217(18) -0.00406(12) -0.01130(15) 0.00175(12)
I2 0.02369(14) 0.05555(18) 0.03419(16) 0.00082(13) -0.00033(12) 0.00257(12)
I3 0.04253(18) 0.