
#######################################################################
#
#                 Cambridge Crystallographic Data Centre
#                                CCDC
#
#######################################################################
#
# If this CIF has been generated from an entry in the Cambridge
# Structural Database, then it will include bibliographic, chemical,
# crystal, experimental, refinement or atomic coordinate data resulting
# from the CCDC's data processing and validation procedures.
#
#######################################################################

data_CSD_CIF_OVANIL
_audit_creation_date 1976-08-18
_audit_creation_method CSD-ConQuest-V1
_database_code_CSD OVANIL
_database_code_depnum_ccdc_archive 'CCDC 1226291'
_chemical_formula_sum 'C8 H8 O3'
_chemical_formula_moiety
;
C8 H8 O3
;
_journal_coeditor_code "IUCr A13320"
_journal_coden_Cambridge 107
_journal_volume 32
_journal_year 1976
_journal_page_first 1264
_journal_name_full 'Acta Crystallogr.,Sect.B:Struct.Crystallogr.Cryst.Chem. '
loop_
_publ_author_name
"F.Iwasaki"
"I.Tanaka"
"A.Aihara"
_chemical_name_systematic
;
2-Hydroxy-3-methoxybenzaldehyde
;
_chemical_name_common
;
o-Vanillin; Teaching Subset: Fundamental Chemistry
;
_chemical_melting_point 322.15
_cell_volume   2948.754
_exptl_crystal_density_diffrn 1.37
_diffrn_ambient_temperature ?
_diffrn_special_details
;
The study was carried out at room temperature,in the range 283-303K

;
#These two values have been output from a single CSD field.
_refine_ls_R_factor_gt 0.077
_refine_ls_wR_factor_gt 0.077
_symmetry_cell_setting orthorhombic
_symmetry_space_group_name_H-M 'F d d 2'
_symmetry_Int_Tables_number 43
loop_
_symmetry_equiv_pos_site_id
_symmetry_equiv_pos_as_xyz
1 x,y,z
2 x,1/2+y,1/2+z
3 1/2+x,y,1/2+z
4 1/2+x,1/2+y,z
5 1/4-x,1/4+y,1/4+z
6 1/4-x,3/4+y,3/4+z
7 3/4-x,1/4+y,3/4+z
8 3/4-x,3/4+y,1/4+z
9 1/4+x,1/4-y,1/4+z
10 1/4+x,3/4-y,3/4+z
11 3/4+x,1/4-y,3/4+z
12 3/4+x,3/4-y,1/4+z
13 1/2-x,-y,1/2+z
14 1/2-x,1/2-y,z
15 -x,-y,z
16 -x,1/2-y,1/2+z
_cell_length_a 25.099(6)
_cell_length_b 24.522(6)
_cell_length_c 4.791(2)
_cell_angle_alpha 90
_cell_angle_beta 90
_cell_angle_gamma 90
_cell_formula_units_Z 16
loop_
_atom_type_symbol
_atom_type_radius_bond
C 0.68
H 0.23
O 0.68
loop_
_atom_site_label
_atom_site_type_symbol
_atom_site_fract_x
_atom_site_fract_y
_atom_site_fract_z
C1 C 0.12750 0.23260 0.39530
C2 C 0.10520 0.18100 0.35050
C3 C 0.06430 0.17380 0.15340
C4 C 0.04760 0.21820 -0.00150
C5 C 0.06960 0.26930 0.04330
C6 C 0.10840 0.27640 0.23430
C7 C 0.16800 0.24120 0.59960
C8 C 0.00750 0.11050 -0.08130
H1 H 0.17300 0.28300 0.67400
H2 H 0.15200 0.16100 0.63200
H3 H 0.01800 0.11400 -0.26200
H4 H 0.00100 0.06200 -0.08200
H5 H -0.03100 0.12300 -0.05900
H6 H 0.01800 0.20900 -0.15700
H7 H 0.05100 0.29400 -0.10500
H8 H 0.12200 0.31500 0.26300
O1 O 0.18780 0.20410 0.73760
O2 O 0.12190 0.13700 0.49760
O3 O 0.04540 0.12180 0.13380
#END
