####################################################################### 
# 
# This file contains crystal structure data downloaded from the 
# Cambridge Structural Database (CSD) hosted by the Cambridge 
# Crystallographic Data Centre (CCDC).
# 
# Full information about CCDC data access policies and citation 
# guidelines are available at http://www.ccdc.cam.ac.uk/access/V1 
# 
# Audit and citation data items may have been added by the CCDC. 
# Please retain this information to preserve the provenance of 
# this file and to allow appropriate attribution of the data. 
# 
#######################################################################

data_[Zn2(sbpdc)2L1]_sq
_audit_block_doi                 10.5517/ccx529f
_database_code_depnum_ccdc_archive 'CCDC 839024'
loop_
_citation_id
_citation_doi
_citation_year
1 10.1021/cg1017278 2011
_audit_update_record             
;
2011-08-15 deposited with the CCDC.	2024-07-12 downloaded from the CCDC.
;

_audit_creation_method           SHELXL-97
_chemical_name_systematic        
;
?
;
_chemical_name_common            '[Zn2(sbpdc)2L1]'
_chemical_melting_point          ?
_chemical_formula_moiety         ?
_chemical_formula_sum            'C48 H24 N2 O12 S2 Zn2'
_chemical_formula_weight         1015.66

loop_
_atom_type_symbol
_atom_type_description
_atom_type_scat_dispersion_real
_atom_type_scat_dispersion_imag
_atom_type_scat_source
C C 0.0033 0.0016 'International Tables Vol C Tables 4.2.6.8 and 6.1.1.4'
H H 0.0000 0.0000 'International Tables Vol C Tables 4.2.6.8 and 6.1.1.4'
N N 0.0061 0.0033 'International Tables Vol C Tables 4.2.6.8 and 6.1.1.4'
O O 0.0106 0.0060 'International Tables Vol C Tables 4.2.6.8 and 6.1.1.4'
S S 0.1246 0.1234 'International Tables Vol C Tables 4.2.6.8 and 6.1.1.4'
Zn Zn 0.2839 1.4301 'International Tables Vol C Tables 4.2.6.8 and 6.1.1.4'

_symmetry_cell_setting           triclinic
_symmetry_space_group_name_H-M   p-1

loop_
_symmetry_equiv_pos_as_xyz
'x, y, z'
'-x, -y, -z'

_cell_length_a                   17.830
_cell_length_b                   23.277
_cell_length_c                   24.071
_cell_angle_alpha                95.14
_cell_angle_beta                 90.32
_cell_angle_gamma                102.22
_cell_volume                     9721.0
_cell_formula_units_Z            1
_cell_measurement_temperature    293(2)
_cell_measurement_reflns_used    ?
_cell_measurement_theta_min      ?
_cell_measurement_theta_max      ?

_exptl_crystal_description       block
_exptl_crystal_colour            yellow
_exptl_crystal_size_max          ?
_exptl_crystal_size_mid          ?
_exptl_crystal_size_min          ?
_exptl_crystal_density_meas      ?
_exptl_crystal_density_diffrn    1.332
_exptl_crystal_density_method    'not measured'
_exptl_crystal_F_000             3984
_exptl_absorpt_coefficient_mu    0.868
_exptl_absorpt_correction_type   'multi-scan, numerical'
_exptl_absorpt_correction_T_min  ?
_exptl_absorpt_correction_T_max  ?
_exptl_absorpt_process_details   'SADABS; Sheldrick, 1996'

_exptl_special_details           
;
?
;

_diffrn_ambient_temperature      100(2)
_diffrn_radiation_wavelength     0.71073
_diffrn_radiation_type           MoK\a
_diffrn_radiation_source         'Bruker TXS fine-focus rotating anode'
_diffrn_radiation_monochromator  'Bruker Helios multilayered confocal mirror'
_diffrn_measurement_device       'Bruker APEX-II CCD-detector'
_diffrn_measurement_method       '\f and \w scans'
_diffrn_detector_area_resol_mean 8.333
_diffrn_standards_number         none
_diffrn_standards_interval_count ?
_diffrn_standards_interval_time  ?
_diffrn_standards_decay_%        ?
_diffrn_reflns_number            97203
_diffrn_reflns_av_R_equivalents  0.0526
_diffrn_reflns_av_sigmaI/netI    0.0935
_diffrn_reflns_limit_h_min       -21
_diffrn_reflns_limit_h_max       21
_diffrn_reflns_limit_k_min       -28
_diffrn_reflns_limit_k_max       28
_diffrn_reflns_limit_l_min       -29
_diffrn_reflns_limit_l_max       29
_diffrn_reflns_theta_min         1.31
_diffrn_reflns_theta_max         25.54
_reflns_number_total             36116
_reflns_number_gt                16957
_reflns_threshold_expression     >2sigma(I)

_computing_data_collection       'APEX2 (Bruker, 2007)'
_computing_cell_refinement       'SAINT (Bruker, 2007)'
_computing_data_reduction        'SAINT (Bruker, 2007)'
_computing_structure_solution    'SHELXS97 (Sheldrick, 2008)'
_computing_structure_refinement  'SHELXL97 (Sheldrick, 2008)'
_computing_molecular_graphics    
'Yadokari-XG 2009 (Wakita, Nemoto et al., 2009)'
_computing_publication_material  
'Yadokari-XG 2009 (Wakita, Nemoto et al., 2009)'

_refine_special_details          
;
Refinement of F^2^ against ALL reflections. The weighted R-factor wR and
goodness of fit S are based on F^2^, conventional R-factors R are based
on F, with F set to zero for negative F^2^. The threshold expression of
F^2^ > 2sigma(F^2^) is used only for calculating R-factors(gt) etc. and is
not relevant to the choice of reflections for refinement. R-factors based
on F^2^ are statistically about twice as large as those based on F, and R-
factors based on ALL data will be even larger.
;

_refine_ls_structure_factor_coef Fsqd
_refine_ls_matrix_type           full
_refine_ls_weighting_scheme      calc
_refine_ls_weighting_details     
'calc w=1/[\s^2^(Fo^2^)+(0.0692P)^2^+0.0000P] where P=(Fo^2^+2Fc^2^)/3'
_atom_sites_solution_primary     direct
_atom_sites_solution_secondary   difmap
_atom_sites_solution_hydrogens   geom
_refine_ls_hydrogen_treatment    mixed
_refine_ls_extinction_method     none
_refine_ls_extinction_coef       ?
_refine_ls_number_reflns         36116
_refine_ls_number_parameters     1783
_refine_ls_number_restraints     0
_refine_ls_R_factor_all          0.1031
_refine_ls_R_factor_gt           0.0501
_refine_ls_wR_factor_ref         0.1344
_refine_ls_wR_factor_gt          0.1218
_refine_ls_goodness_of_fit_ref   0.829
_refine_ls_restrained_S_all      0.829
_refine_ls_shift/su_max          0.004
_refine_ls_shift/su_mean         0.000

loop_
_atom_site_label
_atom_site_type_symbol
_atom_site_fract_x
_atom_site_fract_y
_atom_site_fract_z
_atom_site_U_iso_or_equiv
_atom_site_adp_type
_atom_site_occupancy
_atom_site_symmetry_multiplicity
_atom_site_calc_flag
_atom_site_refinement_flags
_atom_site_disorder_assembly
_atom_site_disorder_group
Zn1 Zn 0.79588(2) 0.752237(18) 0.481268(16) 0.01988(11) Uani 1 1 d . . .
Zn2 Zn 0.75726(3) 0.620856(18) 0.453710(16) 0.01980(11) Uani 1 1 d . . .
Zn3 Zn 1.29199(2) 0.748980(19) -0.035552(16) 0.02093(11) Uani 1 1 d . . .
Zn4 Zn 1.25898(3) 0.618336(19) -0.030423(17) 0.02270(12) Uani 1 1 d . . .
Zn5 Zn 0.01775(2) 0.065170(18) -0.001629(16) 0.01652(11) Uani 1 1 d . . .
Zn6 Zn 0.48147(2) -0.065355(18) -0.513629(16) 0.01656(11) Uani 1 1 d . . .
O1 O 0.71908(16) 0.72686(12) 0.54063(10) 0.0346(7) Uani 1 1 d . . .
O2 O 0.69188(17) 0.62921(12) 0.52158(11) 0.0384(8) Uani 1 1 d . . .
C1 C 0.6879(2) 0.6759(2) 0.54968(15) 0.0281(10) Uani 1 1 d . . .
C2 C 0.6395(2) 0.66875(18) 0.60126(16) 0.0313(10) Uani 1 1 d . . .
C3 C 0.6228(2) 0.7178(2) 0.63091(16) 0.0374(11) Uani 1 1 d . . .
H3A H 0.6399 0.7554 0.6194 0.045 Uiso 1 1 calc R . .
C4 C 0.6130(3) 0.6139(2) 0.61919(18) 0.0496(13) Uani 1 1 d . . .
H4A H 0.6249 0.5813 0.5988 0.059 Uiso 1 1 calc R . .
C5 C 0.5799(2) 0.7096(2) 0.67815(16) 0.0375(11) Uani 1 1 d . . .
C6 C 0.5689(3) 0.6051(2) 0.66695(18) 0.0520(14) Uani 1 1 d . . .
H6A H 0.5508 0.5673 0.6778 0.062 Uiso 1 1 calc R . .
C7 C 0.5535(3) 0.6534(2) 0.69695(18) 0.0413(12) Uani 1 1 d . . .
S1 S 0.55230(8) 0.76518(6) 0.72317(5) 0.0484(3) Uani 1 1 d . . .
O3 O 0.5024(2) 0.79340(15) 0.69469(14) 0.0672(11) Uani 1 1 d . . .
O4 O 0.6184(2) 0.80245(14) 0.75281(13) 0.0674(11) Uani 1 1 d . . .
C8 C 0.5083(3) 0.6559(2) 0.74787(17) 0.0402(11) Uani 1 1 d . . .
C9 C 0.5019(2) 0.71408(19) 0.76636(16) 0.0370(11) Uani 1 1 d . . .
C10 C 0.4753(3) 0.6102(2) 0.77757(19) 0.0547(14) Uani 1 1 d . . .
H10A H 0.4804 0.5720 0.7664 0.066 Uiso 1 1 calc R . .
C11 C 0.4595(2) 0.7265(2) 0.81242(16) 0.0372(11) Uani 1 1 d . . .
H11A H 0.4542 0.7647 0.8235 0.045 Uiso 1 1 calc R . .
C12 C 0.4336(3) 0.6215(2) 0.82500(18) 0.0466(13) Uani 1 1 d . . .
H12A H 0.4115 0.5907 0.8456 0.056 Uiso 1 1 calc R . .
C13 C 0.4251(2) 0.6785(2) 0.84143(17) 0.0391(11) Uani 1 1 d . . .
C14 C 0.3742(2) 0.6882(2) 0.88984(16) 0.0335(11) Uani 1 1 d . . .
O5 O 0.36662(16) 0.74005(13) 0.90374(11) 0.0372(7) Uani 1 1 d . . .
O6 O 0.34231(16) 0.64273(13) 0.91240(10) 0.0382(8) Uani 1 1 d . . .
O7 O 1.18260(15) 0.63391(12) 0.02777(10) 0.0321(7) Uani 1 1 d . . .
O8 O 1.21337(16) 0.73163(12) 0.02445(10) 0.0350(7) Uani 1 1 d . . .
C15 C 1.1789(2) 0.68525(19) 0.04485(15) 0.0275(10) Uani 1 1 d . . .
C16 C 1.1319(2) 0.69491(17) 0.09529(15) 0.0290(10) Uani 1 1 d . . .
C17 C 1.0905(3) 0.64767(19) 0.11983(16) 0.0423(12) Uani 1 1 d . . .
H17A H 1.0896 0.6092 0.1051 0.051 Uiso 1 1 calc R . .
C18 C 1.1321(3) 0.75243(19) 0.11761(17) 0.0461(13) Uani 1 1 d . . .
H18A H 1.1598 0.7842 0.1004 0.055 Uiso 1 1 calc R . .
C19 C 1.0501(3) 0.65880(18) 0.16691(17) 0.0426(12) Uani 1 1 d . . .
C20 C 1.0913(3) 0.7628(2) 0.16528(18) 0.0556(15) Uani 1 1 d . . .
H20A H 1.0913 0.8011 0.1799 0.067 Uiso 1 1 calc R . .
C21 C 1.0507(3) 0.71510(19) 0.19064(16) 0.0420(12) Uani 1 1 d . . .
S2 S 0.99029(13) 0.60598(6) 0.20490(7) 0.0878(6) Uani 1 1 d . . .
O9 O 0.9212(3) 0.5749(2) 0.17338(18) 0.149(3) Uani 1 1 d . . .
O10 O 1.0367(4) 0.5725(2) 0.2298(2) 0.199(4) Uani 1 1 d . . .
C22 C 1.0061(2) 0.71680(19) 0.24110(17) 0.0370(11) Uani 1 1 d . . .
C23 C 0.9712(3) 0.66106(19) 0.25517(18) 0.0460(13) Uani 1 1 d . . .
C24 C 0.9932(3) 0.76532(19) 0.27398(17) 0.0494(14) Uani 1 1 d . . .
H24A H 1.0156 0.8032 0.2655 0.059 Uiso 1 1 calc R . .
C25 C 0.9255(3) 0.65215(19) 0.30120(17) 0.0455(13) Uani 1 1 d . . .
H25A H 0.9024 0.6143 0.3094 0.055 Uiso 1 1 calc R . .
C26 C 0.9466(3) 0.75717(19) 0.31976(17) 0.0445(12) Uani 1 1 d . . .
H26A H 0.9362 0.7899 0.3409 0.053 Uiso 1 1 calc R . .
C27 C 0.9153(2) 0.70139(18) 0.33464(16) 0.0338(11) Uani 1 1 d . . .
C28 C 0.8657(2) 0.69420(19) 0.38466(16) 0.0282(10) Uani 1 1 d . . .
O11 O 0.83075(15) 0.64204(12) 0.39130(10) 0.0326(7) Uani 1 1 d . . .
O12 O 0.86239(16) 0.73954(12) 0.41486(10) 0.0360(7) Uani 1 1 d . . .
O13 O 0.87933(16) 0.74475(12) 0.53587(10) 0.0347(7) Uani 1 1 d . . .
O14 O 0.85143(16) 0.64755(12) 0.50878(10) 0.0370(8) Uani 1 1 d . . .
C29 C 0.8852(2) 0.6921(2) 0.53956(16) 0.0329(11) Uani 1 1 d . . .
C30 C 0.9335(2) 0.67911(19) 0.58710(17) 0.0365(11) Uani 1 1 d . . .
C31 C 0.9718(2) 0.72499(18) 0.62374(16) 0.0309(10) Uani 1 1 d . . .
H31A H 0.9715 0.7640 0.6184 0.037 Uiso 1 1 calc R . .
C32 C 0.9358(3) 0.6210(2) 0.59499(18) 0.0467(13) Uani 1 1 d . . .
H32A H 0.9109 0.5908 0.5692 0.056 Uiso 1 1 calc R . .
C33 C 1.0105(2) 0.71098(17) 0.66871(16) 0.0313(10) Uani 1 1 d . . .
C34 C 0.9739(3) 0.6075(2) 0.63980(18) 0.0506(13) Uani 1 1 d . . .
H34A H 0.9748 0.5684 0.6442 0.061 Uiso 1 1 calc R . .
C35 C 1.0110(3) 0.65173(19) 0.67839(18) 0.0399(11) Uani 1 1 d . . .
S3 S 1.06063(7) 0.75988(5) 0.72358(4) 0.0379(3) Uani 1 1 d . . .
O15 O 1.01033(18) 0.79047(13) 0.75538(12) 0.0495(8) Uani 1 1 d . . .
O16 O 1.13042(17) 0.79468(13) 0.70351(12) 0.0492(9) Uani 1 1 d . . .
C36 C 1.0504(2) 0.64693(18) 0.73061(16) 0.0327(10) Uani 1 1 d . . .
C37 C 1.0809(2) 0.70253(18) 0.76032(16) 0.0332(11) Uani 1 1 d . . .
C38 C 1.0604(2) 0.59622(18) 0.75336(17) 0.0372(11) Uani 1 1 d . . .
H38A H 1.0418 0.5590 0.7348 0.045 Uiso 1 1 calc R . .
C39 C 1.1200(2) 0.70819(18) 0.81017(16) 0.0333(10) Uani 1 1 d . . .
H39A H 1.1394 0.7453 0.8286 0.040 Uiso 1 1 calc R . .
C40 C 1.0985(2) 0.60265(19) 0.80407(16) 0.0373(11) Uani 1 1 d . . .
H40A H 1.1034 0.5687 0.8201 0.045 Uiso 1 1 calc R . .
C41 C 1.1303(2) 0.65745(18) 0.83292(15) 0.0292(10) Uani 1 1 d . . .
C42 C 1.1760(2) 0.6627(2) 0.88602(16) 0.0293(10) Uani 1 1 d . . .
O17 O 1.20674(16) 0.71414(12) 0.90531(11) 0.0351(7) Uani 1 1 d . . .
O18 O 1.18259(15) 0.61549(12) 0.90618(10) 0.0332(7) Uani 1 1 d . . .
O19 O 0.67381(15) 0.63468(12) 0.40239(10) 0.0343(7) Uani 1 1 d . . .
O20 O 0.70534(17) 0.73175(13) 0.42457(11) 0.0402(8) Uani 1 1 d . . .
C43 C 0.6714(2) 0.6868(2) 0.39556(16) 0.0320(10) Uani 1 1 d . . .
C44 C 0.6248(2) 0.69730(18) 0.34638(16) 0.0326(10) Uani 1 1 d . . .
C45 C 0.5846(3) 0.6501(2) 0.31140(18) 0.0476(13) Uani 1 1 d . . .
H45A H 0.5821 0.6113 0.3191 0.057 Uiso 1 1 calc R . .
C46 C 0.6261(3) 0.7543(2) 0.33448(19) 0.0569(15) Uani 1 1 d . . .
H46A H 0.6523 0.7857 0.3585 0.068 Uiso 1 1 calc R . .
C47 C 0.5487(3) 0.6629(2) 0.26517(19) 0.0521(14) Uani 1 1 d . . .
C48 C 0.5885(3) 0.7655(2) 0.2865(2) 0.0636(16) Uani 1 1 d . . .
H48A H 0.5901 0.8042 0.2789 0.076 Uiso 1 1 calc R . .
C49 C 0.5497(3) 0.71971(19) 0.25102(17) 0.0414(12) Uani 1 1 d . . .
S4 S 0.49570(17) 0.61093(7) 0.21312(9) 0.1247(10) Uani 1 1 d . . .
O21 O 0.5538(5) 0.5806(3) 0.1823(2) 0.245(5) Uani 1 1 d . . .
O22 O 0.4320(5) 0.5782(2) 0.2320(3) 0.262(6) Uani 1 1 d . . .
C50 C 0.5097(3) 0.7223(2) 0.19874(18) 0.0478(13) Uani 1 1 d . . .
C51 C 0.4752(3) 0.6664(2) 0.1731(2) 0.0629(16) Uani 1 1 d . . .
C52 C 0.5025(3) 0.7727(2) 0.17250(19) 0.0624(16) Uani 1 1 d . . .
C53 C 0.4349(3) 0.6573(2) 0.1228(2) 0.0653(17) Uani 1 1 d . . .
C54 C 0.4607(3) 0.7639(2) 0.12103(19) 0.0537(14) Uani 1 1 d . . .
C55 C 0.4259(2) 0.7068(2) 0.09793(16) 0.0344(11) Uani 1 1 d . . .
C56 C 0.3754(2) 0.6994(2) 0.04641(16) 0.0351(11) Uani 1 1 d . . .
O23 O 0.34062(17) 0.64789(14) 0.03091(11) 0.0419(8) Uani 1 1 d . . .
O24 O 0.37248(16) 0.74564(13) 0.02368(11) 0.0401(8) Uani 1 1 d . . .
O25 O 0.07181(15) -0.03866(11) 0.05815(10) 0.0274(6) Uani 1 1 d . . .
O26 O 0.09962(15) 0.05902(11) 0.05492(10) 0.0309(7) Uani 1 1 d . . .
C57 C 0.1048(2) 0.01292(18) 0.07629(15) 0.0252(10) Uani 1 1 d . . .
C58 C 0.1526(2) 0.02004(19) 0.12890(16) 0.0333(11) Uani 1 1 d . . .
C59 C 0.1583(2) -0.02989(18) 0.15535(16) 0.0331(11) Uani 1 1 d . . .
H59A H 0.1351 -0.0674 0.1396 0.040 Uiso 1 1 calc R . .
C60 C 0.1889(3) 0.07500(18) 0.15275(17) 0.0425(12) Uani 1 1 d . . .
H60A H 0.1854 0.1083 0.1351 0.051 Uiso 1 1 calc R . .
C61 C 0.1981(3) -0.02262(18) 0.20422(16) 0.0381(11) Uani 1 1 d . . .
C62 C 0.2301(3) 0.08139(19) 0.20196(19) 0.0507(14) Uani 1 1 d . . .
H62A H 0.2553 0.1188 0.2169 0.061 Uiso 1 1 calc R . .
C63 C 0.2345(3) 0.03297(18) 0.22929(17) 0.0380(12) Uani 1 1 d . . .
S5 S 0.21232(8) -0.07874(5) 0.24590(5) 0.0462(3) Uani 1 1 d . . .
O27 O 0.1414(2) -0.10680(14) 0.26913(13) 0.0691(11) Uani 1 1 d . . .
O28 O 0.2568(2) -0.11570(14) 0.21707(13) 0.0702(11) Uani 1 1 d . . .
C64 C 0.2741(3) 0.03046(18) 0.28227(17) 0.0387(12) Uani 1 1 d . . .
C65 C 0.2693(2) -0.02779(17) 0.29582(17) 0.0346(11) Uani 1 1 d . . .
C66 C 0.3136(3) 0.07671(19) 0.31767(19) 0.0546(15) Uani 1 1 d . . .
H66A H 0.3159 0.1155 0.3101 0.065 Uiso 1 1 calc R . .
C67 C 0.3046(2) -0.04020(18) 0.34296(16) 0.0354(11) Uani 1 1 d . . .
H67A H 0.3002 -0.0790 0.3514 0.043 Uiso 1 1 calc R . .
C68 C 0.3499(3) 0.06437(19) 0.36473(18) 0.0463(13) Uani 1 1 d . . .
H68A H 0.3770 0.0955 0.3887 0.056 Uiso 1 1 calc R . .
C69 C 0.3469(2) 0.00634(18) 0.37748(15) 0.0304(10) Uani 1 1 d . . .
C70 C 0.3945(2) -0.00334(18) 0.42540(15) 0.0239(9) Uani 1 1 d . . .
O29 O 0.39905(15) -0.05618(12) 0.43108(10) 0.0300(7) Uani 1 1 d . . .
O30 O 0.42842(16) 0.04050(12) 0.45618(10) 0.0321(7) Uani 1 1 d . . .
O31 O 0.44169(15) 0.04275(12) -0.42678(10) 0.0294(7) Uani 1 1 d . . .
O32 O 0.41352(15) -0.05585(11) -0.44865(10) 0.0312(7) Uani 1 1 d . . .
C71 C 0.4073(2) -0.0090(2) -0.41956(15) 0.0274(10) Uani 1 1 d . . .
C72 C 0.3548(2) -0.01611(19) -0.37056(15) 0.0325(11) Uani 1 1 d . . .
C73 C 0.3424(3) 0.03331(18) -0.33890(16) 0.0362(11) Uani 1 1 d . . .
H73A H 0.3649 0.0711 -0.3477 0.043 Uiso 1 1 calc R . .
C74 C 0.3208(3) -0.0724(2) -0.35669(19) 0.0657(18) Uani 1 1 d . . .
H74A H 0.3291 -0.1053 -0.3787 0.079 Uiso 1 1 calc R . .
C75 C 0.2959(3) 0.02479(18) -0.29428(18) 0.0444(13) Uani 1 1 d . . .
C76 C 0.2756(4) -0.0800(2) -0.3113(2) 0.090(2) Uani 1 1 d . . .
H76A H 0.2544 -0.1178 -0.3018 0.108 Uiso 1 1 calc R . .
C77 C 0.2612(3) -0.0307(2) -0.2793(2) 0.0685(18) Uani 1 1 d . . .
S6 S 0.26995(9) 0.07966(5) -0.24786(6) 0.0598(4) Uani 1 1 d . . .
O33 O 0.3350(2) 0.11460(13) -0.21676(13) 0.0767(13) Uani 1 1 d . . .
O34 O 0.2234(3) 0.11100(16) -0.27631(15) 0.0928(15) Uani 1 1 d . . .
C78 C 0.2153(3) -0.0288(2) -0.2297(2) 0.0612(17) Uani 1 1 d . . .
C79 C 0.2133(3) 0.02700(19) -0.20742(18) 0.0467(13) Uani 1 1 d . . .
C80 C 0.1763(3) -0.0768(2) -0.2024(2) 0.091(2) Uani 1 1 d . . .
H80A H 0.1768 -0.1154 -0.2159 0.110 Uiso 1 1 calc R . .
C81 C 0.1741(2) 0.03916(18) -0.16033(17) 0.0403(12) Uani 1 1 d . . .
H81A H 0.1739 0.0779 -0.1469 0.048 Uiso 1 1 calc R . .
C82 C 0.1372(3) -0.0650(2) -0.1550(2) 0.085(2) Uani 1 1 d . . .
H82A H 0.1113 -0.0965 -0.1366 0.102 Uiso 1 1 calc R . .
C83 C 0.1349(3) -0.00801(18) -0.13356(16) 0.0362(11) Uani 1 1 d . . .
C84 C 0.0897(2) 0.00161(18) -0.08279(15) 0.0269(10) Uani 1 1 d . . .
O35 O 0.08729(15) 0.05331(11) -0.06649(10) 0.0288(7) Uani 1 1 d . . .
O36 O 0.05822(15) -0.04388(11) -0.06034(10) 0.0297(7) Uani 1 1 d . . .
N1 N 0.7994(2) 0.83934(15) 0.48410(14) 0.0358(9) Uani 1 1 d . . .
C85 C 0.8171(6) 0.8685(3) 0.4450(4) 0.180(5) Uani 1 1 d . . .
H85A H 0.8381 0.8507 0.4145 0.216 Uiso 1 1 calc R . .
C86 C 0.7672(9) 0.8652(4) 0.5119