####################################################################### 
# 
# This file contains crystal structure data downloaded from the 
# Cambridge Structural Database (CSD) hosted by the Cambridge 
# Crystallographic Data Centre (CCDC).
# 
# Full information about CCDC data access policies and citation 
# guidelines are available at http://www.ccdc.cam.ac.uk/access/V1 
# 
# Audit and citation data items may have been added by the CCDC. 
# Please retain this information to preserve the provenance of 
# this file and to allow appropriate attribution of the data. 
# 
#######################################################################

data_mo_100403b_0m
_audit_block_doi                 10.5517/ccx5krc
_database_code_depnum_ccdc_archive 'CCDC 839503'
loop_
_citation_id
_citation_doi
_citation_year
1 10.1016/j.inoche.2011.05.008 2011
_audit_update_record             
;
2011-08-17 deposited with the CCDC.	2024-07-12 downloaded from the CCDC.
;

_audit_creation_method           SHELXL-97
_chemical_name_systematic        
;
?
;
_chemical_name_common            ?
_chemical_melting_point          ?
_chemical_formula_moiety         ?
_chemical_formula_sum            'C36 H40 Cl2 Co N10 O7'
_chemical_formula_weight         854.61

loop_
_atom_type_symbol
_atom_type_description
_atom_type_scat_dispersion_real
_atom_type_scat_dispersion_imag
_atom_type_scat_source
C C 0.0033 0.0016 'International Tables Vol C Tables 4.2.6.8 and 6.1.1.4'
H H 0.0000 0.0000 'International Tables Vol C Tables 4.2.6.8 and 6.1.1.4'
O O 0.0106 0.0060 'International Tables Vol C Tables 4.2.6.8 and 6.1.1.4'
N N 0.0061 0.0033 'International Tables Vol C Tables 4.2.6.8 and 6.1.1.4'
Co Co 0.3494 0.9721 'International Tables Vol C Tables 4.2.6.8 and 6.1.1.4'
Cl Cl 0.1484 0.1585 'International Tables Vol C Tables 4.2.6.8 and 6.1.1.4'

_symmetry_cell_setting           Monoclinic
_symmetry_space_group_name_H-M   P2/c

loop_
_symmetry_equiv_pos_as_xyz
'x, y, z'
'-x, y, -z+1/2'
'-x, -y, -z'
'x, -y, z-1/2'

_cell_length_a                   12.088(3)
_cell_length_b                   10.018(3)
_cell_length_c                   17.441(5)
_cell_angle_alpha                90.00
_cell_angle_beta                 101.129(7)
_cell_angle_gamma                90.00
_cell_volume                     2072.3(10)
_cell_formula_units_Z            2
_cell_measurement_temperature    296(2)
_cell_measurement_reflns_used    4882
_cell_measurement_theta_min      2.37
_cell_measurement_theta_max      27.90

_exptl_crystal_description       Block
_exptl_crystal_colour            Red
_exptl_crystal_size_max          0.20
_exptl_crystal_size_mid          0.20
_exptl_crystal_size_min          0.15
_exptl_crystal_density_meas      ?
_exptl_crystal_density_diffrn    1.370
_exptl_crystal_density_method    'not measured'
_exptl_crystal_F_000             886
_exptl_absorpt_coefficient_mu    0.601
_exptl_absorpt_correction_type   Multi-scan
_exptl_absorpt_correction_T_min  0.8892
_exptl_absorpt_correction_T_max  0.9152
_exptl_absorpt_process_details   ?

_exptl_special_details           
;
?
;

_diffrn_ambient_temperature      296(2)
_diffrn_radiation_wavelength     0.71073
_diffrn_radiation_type           MoK\a
_diffrn_radiation_source         'fine-focus sealed tube'
_diffrn_radiation_monochromator  graphite
_diffrn_measurement_device_type  'CCD area detector'
_diffrn_measurement_method       'phi and omega scans'
_diffrn_detector_area_resol_mean ?
_diffrn_standards_number         ?
_diffrn_standards_interval_count ?
_diffrn_standards_interval_time  ?
_diffrn_standards_decay_%        ?
_diffrn_reflns_number            11029
_diffrn_reflns_av_R_equivalents  0.0368
_diffrn_reflns_av_sigmaI/netI    0.0519
_diffrn_reflns_limit_h_min       -12
_diffrn_reflns_limit_h_max       14
_diffrn_reflns_limit_k_min       -11
_diffrn_reflns_limit_k_max       9
_diffrn_reflns_limit_l_min       -20
_diffrn_reflns_limit_l_max       19
_diffrn_reflns_theta_min         1.72
_diffrn_reflns_theta_max         25.00
_reflns_number_total             3620
_reflns_number_gt                2954
_reflns_threshold_expression     >2sigma(I)

_computing_data_collection       'Bruker SMART'
_computing_cell_refinement       'Bruker SMART'
_computing_data_reduction        'Bruker SAINT'
_computing_structure_solution    'SHELXS-97 (Sheldrick, 1990)'
_computing_structure_refinement  'SHELXL-97 (Sheldrick, 1997)'
_computing_molecular_graphics    'Bruker SHELXTL'
_computing_publication_material  'Bruker SHELXTL'

_refine_special_details          
;
Refinement of F^2^ against ALL reflections. The weighted R-factor wR and
goodness of fit S are based on F^2^, conventional R-factors R are based
on F, with F set to zero for negative F^2^. The threshold expression of
F^2^ > 2sigma(F^2^) is used only for calculating R-factors(gt) etc. and is
not relevant to the choice of reflections for refinement. R-factors based
on F^2^ are statistically about twice as large as those based on F, and R-
factors based on ALL data will be even larger.
;

_refine_ls_structure_factor_coef Fsqd
_refine_ls_matrix_type           full
_refine_ls_weighting_scheme      calc
_refine_ls_weighting_details     
'calc w=1/[\s^2^(Fo^2^)+(0.1845P)^2^+9.2007P] where P=(Fo^2^+2Fc^2^)/3'
_atom_sites_solution_primary     direct
_atom_sites_solution_secondary   difmap
_atom_sites_solution_hydrogens   geom
_refine_ls_hydrogen_treatment    refu
_refine_ls_extinction_method     none
_refine_ls_extinction_coef       ?
_refine_ls_number_reflns         3620
_refine_ls_number_parameters     267
_refine_ls_number_restraints     15
_refine_ls_R_factor_all          0.1127
_refine_ls_R_factor_gt           0.0969
_refine_ls_wR_factor_ref         0.3195
_refine_ls_wR_factor_gt          0.2958
_refine_ls_goodness_of_fit_ref   1.125
_refine_ls_restrained_S_all      1.129
_refine_ls_shift/su_max          0.000
_refine_ls_shift/su_mean         0.000

loop_
_atom_site_label
_atom_site_type_symbol
_atom_site_fract_x
_atom_site_fract_y
_atom_site_fract_z
_atom_site_U_iso_or_equiv
_atom_site_adp_type
_atom_site_occupancy
_atom_site_symmetry_multiplicity
_atom_site_calc_flag
_atom_site_refinement_flags
_atom_site_disorder_assembly
_atom_site_disorder_group
C1 C 0.3507(5) 0.4491(6) 0.1657(4) 0.0293(13) Uani 1 1 d . . .
C2 C 0.3486(5) 0.5863(6) 0.1622(4) 0.0293(13) Uani 1 1 d . . .
C3 C 0.2676(5) 0.6828(6) 0.1817(4) 0.0277(13) Uani 1 1 d . . .
C4 C 0.2705(5) 0.3539(6) 0.1869(3) 0.0272(13) Uani 1 1 d . . .
C5 C 0.6015(5) 0.5114(7) 0.0897(4) 0.0346(15) Uani 1 1 d . . .
C6 C 0.4966(5) 0.5137(6) 0.1215(4) 0.0300(14) Uani 1 1 d . . .
C7 C 0.2407(5) 0.7976(6) 0.1377(4) 0.0343(14) Uani 1 1 d . . .
H7 H 0.2745 0.8151 0.0952 0.041 Uiso 1 1 calc R . .
C8 C 0.3067(5) 0.2406(6) 0.2297(4) 0.0321(14) Uani 1 1 d . . .
H8 H 0.3833 0.2236 0.2454 0.039 Uiso 1 1 calc R . .
C9 C 0.0821(5) 0.2761(6) 0.1827(4) 0.0322(14) Uani 1 1 d . . .
H9 H 0.0051 0.2881 0.1652 0.039 Uiso 1 1 calc R . .
C10 C 0.1543(5) 0.3709(6) 0.1636(4) 0.0336(14) Uani 1 1 d . . .
H10 H 0.1258 0.4462 0.1353 0.040 Uiso 1 1 calc R . .
C11 C 0.2286(5) 0.1532(7) 0.2490(4) 0.0372(15) Uani 1 1 d . . .
H11 H 0.2542 0.0801 0.2803 0.045 Uiso 1 1 calc R . .
C12 C 0.2154(5) 0.6647(6) 0.2445(4) 0.0310(13) Uani 1 1 d . . .
H12 H 0.2302 0.5885 0.2751 0.037 Uiso 1 1 calc R . .
C13 C 0.7463(7) 0.6176(11) 0.0380(5) 0.061(2) Uani 1 1 d . . .
H13 H 0.7761 0.6959 0.0216 0.074 Uiso 1 1 calc R . .
C14 C 0.6458(6) 0.6266(8) 0.0645(5) 0.0469(18) Uani 1 1 d . . .
H14 H 0.6091 0.7081 0.0653 0.056 Uiso 1 1 calc R . .
C15 C 0.6577(6) 0.3945(8) 0.0845(4) 0.0457(17) Uani 1 1 d . . .
H15 H 0.6289 0.3145 0.0993 0.055 Uiso 1 1 calc R . .
C16 C 0.7579(7) 0.3959(11) 0.0569(5) 0.062(2) Uani 1 1 d . . .
H16 H 0.7956 0.3156 0.0542 0.075 Uiso 1 1 calc R . .
C17 C 0.1633(6) 0.8854(7) 0.1577(4) 0.0376(15) Uani 1 1 d . . .
H17 H 0.1448 0.9609 0.1268 0.045 Uiso 1 1 calc R . .
C18 C 0.1415(5) 0.7587(6) 0.2620(4) 0.0329(14) Uani 1 1 d . . .
H18 H 0.1096 0.7456 0.3059 0.040 Uiso 1 1 calc R . .
Cl1 Cl -0.0954(2) 0.0211(3) 0.11910(18) 0.0789(8) Uani 1 1 d . . .
Co1 Co 0.0000 0.01816(10) 0.2500 0.0249(4) Uani 1 2 d S . .
H1A H 0.9552 0.3702 1.0121 0.030 Uiso 0.50 1 d PRD . .
H4A H 0.3929 0.1227 0.0733 0.030 Uiso 1 1 d RD . .
H5A H 0.6354 0.0127 0.0751 0.030 Uiso 0.50 1 d PRD . .
H1B H 1.0242 0.3224 0.9746 0.030 Uiso 0.50 1 d PRD . .
H4B H 0.4682 0.0369 0.0755 0.030 Uiso 1 1 d RD . .
H5B H 0.7274 -0.0227 0.0602 0.030 Uiso 0.50 1 d PRD . .
H2A H 0.0297 0.1298 -0.0268 0.030 Uiso 0.50 1 d PRD . .
H3A H 0.5322 0.8177 0.1620 0.030 Uiso 1 1 d RD . .
H2B H -0.0241 0.0568 0.0118 0.030 Uiso 0.50 1 d PRD . .
H3B H 0.5104 0.8928 0.2145 0.030 Uiso 1 1 d RD . .
N1 N 0.1164(4) 0.1689(5) 0.2246(3) 0.0295(11) Uani 1 1 d . . .
N2 N 0.8024(6) 0.5073(9) 0.0342(5) 0.065(2) Uani 1 1 d . . .
N3 N 0.1134(4) 0.8681(5) 0.2188(3) 0.0302(12) Uani 1 1 d . . .
N4 N 0.4450(4) 0.4053(5) 0.1407(3) 0.0288(11) Uani 1 1 d . . .
H4 H 0.4665 0.3239 0.1381 0.035 Uiso 1 1 calc R . .
N5 N 0.4415(4) 0.6250(5) 0.1330(3) 0.0324(12) Uani 1 1 d . . .
O1 O 0.9793(8) 0.3884(10) 0.9706(6) 0.065(3) Uani 0.50 1 d PD . .
O2 O 0.0187(10) 0.1258(11) 0.0198(5) 0.074(4) Uani 0.50 1 d PD . .
O3 O 0.5360(5) 0.8998(5) 0.1733(4) 0.0652(17) Uani 1 1 d D . .
O4 O 0.4651(6) 0.1254(6) 0.0879(5) 0.087(2) Uani 1 1 d D . .
O5 O 0.6707(8) 0.0215(14) 0.0381(6) 0.101(6) Uani 0.50 1 d PD . .

loop_
_atom_site_aniso_label
_atom_site_aniso_U_11
_atom_site_aniso_U_22
_atom_site_aniso_U_33
_atom_site_aniso_U_23
_atom_site_aniso_U_13
_atom_site_aniso_U_12
C1 0.024(3) 0.026(3) 0.040(3) 0.001(3) 0.013(3) -0.002(2)
C2 0.026(3) 0.025(3) 0.040(3) 0.000(2) 0.013(3) 0.002(2)
C3 0.029(3) 0.022(3) 0.035(3) -0.003(2) 0.013(2) 0.004(2)
C4 0.026(3) 0.025(3) 0.033(3) -0.005(2) 0.011(2) -0.004(2)
C5 0.027(3) 0.048(4) 0.031(3) 0.000(3) 0.010(3) 0.002(3)
C6 0.023(3) 0.035(3) 0.035(3) -0.003(3) 0.012(2) -0.002(2)
C7 0.034(3) 0.033(3) 0.043(4) 0.003(3) 0.026(3) 0.001(3)
C8 0.021(3) 0.034(3) 0.043(4) 0.006(3) 0.010(2) 0.001(2)
C9 0.020(3) 0.033(3) 0.045(4) 0.002(3) 0.010(3) 0.002(2)
C10 0.026(3) 0.026(3) 0.049(4) 0.010(3) 0.010(3) 0.004(2)
C11 0.025(3) 0.030(3) 0.056(4) 0.010(3) 0.007(3) 0.000(2)
C12 0.029(3) 0.026(3) 0.040(3) 0.004(3) 0.013(3) 0.003(2)
C13 0.045(4) 0.093(7) 0.054(5) 0.008(5) 0.030(4) -0.010(5)
C14 0.033(4) 0.057(5) 0.055(4) 0.008(4) 0.021(3) -0.002(3)
C15 0.037(4) 0.056(5) 0.049(4) -0.002(3) 0.018(3) 0.008(3)
C16 0.051(5) 0.081(7) 0.060(5) 0.000(5) 0.025(4) 0.024(5)
C17 0.043(4) 0.027(3) 0.048(4) 0.009(3) 0.022(3) 0.006(3)
C18 0.030(3) 0.031(3) 0.041(4) 0.002(3) 0.017(3) 0.003(3)
Cl1 0.0724(17) 0.0851(19) 0.0848(18) -0.0050(14) 0.0292(14) 0.0027(13)
Co1 0.0207(6) 0.0182(6) 0.0388(7) 0.000 0.0132(5) 0.000
N1 0.023(2) 0.025(3) 0.043(3) 0.002(2) 0.014(2) -0.001(2)
N2 0.038(4) 0.101(6) 0.066(5) 0.008(4) 0.032(3) 0.006(4)
N3 0.030(3) 0.023(3) 0.043(3) 0.000(2) 0.019(2) 0.003(2)
N4 0.027(3) 0.023(2) 0.039(3) -0.002(2) 0.014(2) 0.002(2)
N5 0.027(3) 0.032(3) 0.042(3) 0.003(2) 0.016(2) 0.000(2)
O1 0.038(6) 0.067(8) 0.096(9) 0.015(7) 0.030(6) 0.009(5)
O2 0.090(10) 0.063(8) 0.070(8) -0.008(7) 0.016(7) 0.004(7)
O3 0.062(4) 0.050(3) 0.091(5) 0.000(3) 0.031(3) -0.007(3)
O4 0.123(6) 0.039(3) 0.107(6) -0.006(3) 0.043(5) 0.011(4)
O5 0.050(8) 0.124(13) 0.149(16) -0.057(11) 0.068(9) -0.022(8)

_geom_special_details            
;
All esds (except the esd in the dihedral angle between two l.s. planes)
are estimated using the full covariance matrix. The cell esds are taken
into account individually in the estimation of esds in distances, angles
and torsion angles; correlations between esds in cell parameters are only
used when they are defined by crystal symmetry. An approximate (isotropic)
treatment of cell esds is used for estimating esds involving l.s. planes.
;

loop_
_geom_bond_atom_site_label_1
_geom_bond_atom_site_label_2
_geom_bond_distance
_geom_bond_site_symmetry_2
_geom_bond_publ_flag
C1 N4 1.369(8) . ?
C1 C2 1.376(9) . ?
C1 C4 1.457(8) . ?
C2 N5 1.375(8) . ?
C2 C3 1.462(8) . ?
C3 C12 1.377(8) . ?
C3 C7 1.386(9) . ?
C4 C8 1.383(9) . ?
C4 C10 1.395(8) . ?
C5 C15 1.366(10) . ?
C5 C14 1.380(10) . ?
C5 C6 1.479(9) . ?
C6 N4 1.327(8) . ?
C6 N5 1.334(8) . ?
C7 C17 1.377(9) . ?
C7 H7 0.9300 . ?
C8 C11 1.376(9) . ?
C8 H8 0.9300 . ?
C9 N1 1.320(8) . ?
C9 C10 1.373(9) . ?
C9 H9 0.9300 . ?
C10 H10 0.9300 . ?
C11 N1 1.350(8) . ?
C11 H11 0.9300 . ?
C12 C18 1.372(9) . ?
C12 H12 0.9300 . ?
C13 N2 1.305(13) . ?
C13 C14 1.384(10) . ?
C13 H13 0.9300 . ?
C14 H14 0.9300 . ?
C15 C16 1.387(11) . ?
C15 H15 0.9300 . ?
C16 N2 1.332(13) . ?
C16 H16 0.9300 . ?
C17 N3 1.334(8) . ?
C17 H17 0.9300 . ?
C18 N3 1.336(8) . ?
C18 H18 0.9300 . ?
Cl1 Co1 2.351(3) . ?
Co1 N1 2.167(5) . ?
Co1 N1 2.167(5) 2 ?
Co1 N3 2.173(5) 2_545 ?
Co1 N3 2.173(5) 1_545 ?
Co1 Cl1 2.351(3) 2 ?
N3 Co1 2.173(5) 1_565 ?
N4 H4 0.8600 . ?
O1 H1A 0.8504 . ?
O1 H1B 0.8498 . ?
O2 H2A 0.8491 . ?
O2 H2B 0.8583 . ?
O3 H3A 0.8448 . ?
O3 H3B 0.8382 . ?
O4 H4A 0.8616 . ?
O4 H4B 0.9142 . ?
O5 H5A 0.8440 . ?
O5 H5B 0.8437 . ?

loop_
_geom_angle_atom_site_label_1
_geom_angle_atom_site_label_2
_geom_angle_atom_site_label_3
_geom_angle
_geom_angle_site_symmetry_1
_geom_angle_site_symmetry_3
_geom_angle_publ_flag
N4 C1 C2 108.4(5) . . ?
N4 C1 C4 120.4(5) . . ?
C2 C1 C4 131.1(5) . . ?
N5 C2 C1 106.8(5) . . ?
N5 C2 C3 122.0(5) . . ?
C1 C2 C3 131.1(5) . . ?
C12 C3 C7 117.0(5) . . ?
C12 C3 C2 121.9(5) . . ?
C7 C3 C2 121.1(5) . . ?
C8 C4 C10 116.9(5) . . ?
C8 C4 C1 121.2(5) . . ?
C10 C4 C1 121.9(6) . . ?
C15 C5 C14 117.9(7) . . ?
C15 C5 C6 120.8(6) . . ?
C14 C5 C6 121.4(6) . . ?
N4 C6 N5 111.9(5) . . ?
N4 C6 C5 124.1(6) . . ?
N5 C6 C5 123.9(6) . . ?
C17 C7 C3 119.3(6) . . ?
C17 C7 H7 120.4 . . ?
C3 C7 H7 120.4 . . ?
C11 C8 C4 119.6(6) . . ?
C11 C8 H8 120.2 . . ?
C4 C8 H8 120.2 . . ?
N1 C9 C10 123.4(5) . . ?
N1 C9 H9 118.3 . . ?
C10 C9 H9 118.3 . . ?
C9 C10 C4 119.7(6) . . ?
C9 C10 H10 120.1 . . ?
C4 C10 H10 120.1 . . ?
N1 C11 C8 122.9(6) . . ?
N1 C11 H11 118.5 . . ?
C8 C11 H11 118.5 . . ?
C18 C12 C3 120.3(6) . . ?
C18 C12 H12 119.8 . . ?
C3 C12 H12 119.8 . . ?
N2 C13 C14 124.8(9) . . ?
N2 C13 H13 117.6 . . ?
C14 C13 H13 117.6 . . ?
C5 C14 C13 118.2(8) . . ?
C5 C14 H14 120.9 . . ?
C13 C14 H14 120.9 . . ?
C5 C15 C16 119.6(8) . . ?
C5 C15 H15 120.2 . . ?
C16 C15 H15 120.2 . . ?
N2 C16 C15 122.8(8) . . ?
N2 C16 H16 118.6 . . ?
C15 C16 H16 118.6 . . ?
N3 C17 C7 123.6(6) . . ?
N3 C17 H17 118.2 . . ?
C7 C17 H17 118.2 . . ?
N3 C18 C12 122.9(6) . . ?
N3 C18 H18 118.6 . . ?
C12 C18 H18 118.6 . . ?
N1 Co1 N1 91.6(3) . 2 ?
N1 Co1 N3 177.3(2) . 2_545 ?
N1 Co1 N3 88.03(19) 2 2_545 ?
N1 Co1 N3 88.03(19) . 1_545 ?
N1 Co1 N3 177.3(2) 2 1_545 ?
N3 Co1 N3 92.4(3) 2_545 1_545 ?
N1 Co1 Cl1 88.48(16) . 2 ?
N1 Co1 Cl1 90.53(16) 2 2 ?
N3 Co1 Cl1 88.87(16) 2_545 2 ?
N3 Co1 Cl1 92.11(16) 1_545 2 ?
N1 Co1 Cl1 90.53(16) . . ?
N1 Co1 Cl1 88.48(16) 2 . ?
N3 Co1 Cl1 92.11(16) 2_545 . ?
N3 Co1 Cl1 88.87(16) 1_545 . ?
Cl1 Co1 Cl1 178.59(15) 2 . ?
C9 N1 C11 117.3(5) . . ?
C9 N1 Co1 122.3(4) . . ?
C11 N1 Co1 120.4(4) . . ?
C13 N2 C16 116.8(7) . . ?
C17 N3 C18 116.9(5) . . ?
C17 N3 Co1 121.0(4) . 1_565 ?
C18 N3 Co1 122.0(4) . 1_565 ?
C6 N4 C1 106.2(5) . . ?
C6 N4 H4 126.9 . . ?
C1 N4 H4 126.9 . . ?
C6 N5 C2 106.6(5) . . ?
H1A O1 H1B 94.7 . . ?
H2A O2 H2B 94.8 . . ?
H3A O3 H3B 96.1 . . ?
H4A O4 H4B 89.1 . . ?
H5A O5 H5B 94.7 . . ?

loop_
_geom_torsion_atom_site_label_1
_geom_torsion_atom_site_label_2
_geom_torsion_atom_site_label_3
_geom_torsion_atom_site_label_4
_geom_torsion
_geom_torsion_site_symmetry_1
_geom_torsion_site_symmetry_2
_geom_torsion_site_symmetry_3
_geom_torsion_site_symmetry_4
_geom_torsion_publ_flag
N4 C1 C2 N5 1.4(7) . . . . ?
C4 C1 C2 N5 -175.5(6) . . . . ?
N4 C1 C2 C3 179.8(6) . . . . ?
C4 C1 C2 C3 2.9(12) . . . . ?
N5 C2 C3 C12 -144.2(6) . . . . ?
C1 C2 C3 C12 37.6(10) . . . . ?
N5 C2 C3 C7 35.3(9) . . . . ?
C1 C2 C3 C7 -142.9(7) . . . . ?
N4 C1 C4 C8 41.9(9) . . . . ?
C2 C1 C4 C8 -141.5(7) . . . . ?
N4 C1 C4 C10 -136.7(6) . . . . ?
C2 C1 C4 C10 39.9(10) . . . . ?
C15 C5 C6 N4 -5.8(10) . . . . ?
C14 C5 C6 N4 174.3(7) . . . . ?
C15 C5 C6 N5 175.4(7) . . . . ?
C14 C5 C6 N5 -4.4(11) . . . . ?
C12 C3 C7 C17 -1.0(9) . . . . ?
C2 C3 C7 C17 179.5(6) . . . . ?
C10 C4 C8 C11 -1.7(9) . . . . ?
C1 C4 C8 C11 179.7(6) . . . . ?
N1 C9 C10 C4 2.0(11) . . . . ?
C8 C4 C10 C9 -0.9(9) . . . . ?
C1 C4 C10 C9 177.7(6) . . . . ?
C4 C8 C11 N1 3.5(11) . . . . ?
C7 C3 C12 C18 -0.9(9) . . . . ?
C2 C3 C12 C18 178.7(6) . . . . ?
C15 C5 C14 C13 -2.1(11) . . . . ?
C6 C5 C14 C13 177.7(7) . . . . ?
N2 C13 C14 C5 0.7(14) . . . . ?
C14 C5 C15 C16 2.1(11) . . . . ?
C6 C5 C15 C16 -177.8(7) . . . . ?
C5 C15 C16 N2 -0.6(13) . . . . ?
C3 C7 C17 N3 1.5(11) . . . . ?
C3 C12 C18 N3 2.4(10) . . . . ?
C10 C9 N1 C11 -0.4(10) . . . . ?
C10 C9 N1 Co1 -177.8(5) . . . . ?
C8 C11 N1 C9 -2.4(10) . . . . ?
C8 C11 N1 Co1 175.1(5) . . . . ?
N1 Co1 N1 C9 -43.3(4) 2 . . . ?
N3 Co1 N1 C9 -126(4) 2_545 . . . ?
N3 Co1 N1 C9 134.1(5) 1_545 . . . ?
Cl1 Co1 N1 C9 -133.8(5) 2 . . . ?
Cl1 Co1 N1 C9 45.2(5) . . . . ?
N1 Co1 N1 C11 139.4(6) 2 . . . ?
N3 Co1 N1 C11 57(4) 2_545 . . . ?
N3 Co1 N1 C11 -43.2(5) 1_545 . . . ?
Cl1 Co1 N1 C11 48.9(5) 2 . . . ?
Cl1 Co1 N1 C11 -132.1(5) . . . . ?
C14 C13 N2 C16 0.8(14) . . . . ?
C15 C16 N2 C13 -0.9(14) . . . . ?
C7 C17 N3 C18 0.0(10) . . . . ?
C7 C17 N3 Co1 176.2(5) . . . 1_565 ?
C12 C18 N3 C17 -1.9(9) . . . . ?
C12 C18 N3 Co1 -178.1(5) . . . 1_565 ?
N5 C6 N4 C1 0.4(7) . . . . ?
C5 C6 N4 C1 -178.5(6) . . . . ?
C2 C1 N4 C6 -1.1(7) . . . . ?
C4 C1 N4 C6 176.2(6) . . . . ?
N4 C6 N5 C2 0.5(7) . . . . ?
C5 C6 N5 C2 179.4(6) . . . . ?
C1 C2 N5 C6 -1.2(7) . . . . ?
C3 C2 N5 C6 -179.8(6) . . . . ?

_diffrn_measured_fraction_theta_max 0.992
_diffrn_reflns_theta_full        25.00
_diffrn_measured_fraction_theta_full 0.992
_refine_diff_density_max         1.398
_refine_diff_density_min         -1.247
_refine_diff_density_rms         0.220
