####################################################################### 
# 
# This file contains crystal structure data downloaded from the 
# Cambridge Structural Database (CSD) hosted by the Cambridge 
# Crystallographic Data Centre (CCDC).
# 
# Full information about CCDC data access policies and citation 
# guidelines are available at http://www.ccdc.cam.ac.uk/access/V1 
# 
# Audit and citation data items may have been added by the CCDC. 
# Please retain this information to preserve the provenance of 
# this file and to allow appropriate attribution of the data. 
# 
#######################################################################

data_complex_8
_audit_block_doi                 10.5517/ccx5b8n
_database_code_depnum_ccdc_archive 'CCDC 839271'
loop_
_citation_id
_citation_doi
_citation_year
1 10.1021/cg2002749 2011
_audit_update_record             
;
2011-08-15 deposited with the CCDC.	2024-07-12 downloaded from the CCDC.
;





_audit_creation_method           SHELXL-97

_chemical_name_systematic        
;

?

;

_chemical_name_common            ?

_chemical_melting_point          ?

_chemical_formula_moiety         ?

_chemical_formula_sum            'C48 H64 N18 O20 Zn3'

_chemical_formula_weight         1409.28



loop_

_atom_type_symbol

_atom_type_description

_atom_type_scat_dispersion_real

_atom_type_scat_dispersion_imag

_atom_type_scat_source










C C 0.0033 0.0016 'International Tables Vol C Tables 4.2.6.8 and 6.1.1.4'
H H 0.0000 0.0000 'International Tables Vol C Tables 4.2.6.8 and 6.1.1.4'
N N 0.0061 0.0033 'International Tables Vol C Tables 4.2.6.8 and 6.1.1.4'
O O 0.0106 0.0060 'International Tables Vol C Tables 4.2.6.8 and 6.1.1.4'
Zn Zn 0.2839 1.4301 'International Tables Vol C Tables 4.2.6.8 and 6.1.1.4'



_symmetry_cell_setting           Triclinic

_symmetry_space_group_name_H-M   P-1



loop_

_symmetry_equiv_pos_as_xyz


'x, y, z'
'-x, -y, -z'



_cell_length_a                   9.136(2)

_cell_length_b                   14.991(4)

_cell_length_c                   15.697(4)

_cell_angle_alpha                62.185(3)

_cell_angle_beta                 79.796(3)

_cell_angle_gamma                89.508(3)

_cell_volume                     1864.6(8)

_cell_formula_units_Z            1

_cell_measurement_temperature    296(2)

_cell_measurement_reflns_used    6236

_cell_measurement_theta_min      2.46

_cell_measurement_theta_max      27.37



_exptl_crystal_description       ?

_exptl_crystal_colour            ?

_exptl_crystal_size_max          0.30

_exptl_crystal_size_mid          0.20

_exptl_crystal_size_min          0.10

_exptl_crystal_density_meas      ?

_exptl_crystal_density_diffrn    1.255

_exptl_crystal_density_method    'not measured'

_exptl_crystal_F_000             728

_exptl_absorpt_coefficient_mu    1.028

_exptl_absorpt_correction_type   multi-scan

_exptl_absorpt_correction_T_min  0.7478

_exptl_absorpt_correction_T_max  0.9041

_exptl_absorpt_process_details   sadabs



_exptl_special_details           
;

?

;



_diffrn_ambient_temperature      296(2)

_diffrn_radiation_wavelength     0.71073

_diffrn_radiation_type           MoK\a

_diffrn_radiation_source         'fine-focus sealed tube'

_diffrn_radiation_monochromator  graphite

_diffrn_measurement_device_type  'CCD area detector'

_diffrn_measurement_method       'phi and omega scans'

_diffrn_detector_area_resol_mean ?

_diffrn_standards_number         ?

_diffrn_standards_interval_count ?

_diffrn_standards_interval_time  ?

_diffrn_standards_decay_%        ?

_diffrn_reflns_number            9653

_diffrn_reflns_av_R_equivalents  0.0137

_diffrn_reflns_av_sigmaI/netI    0.0255

_diffrn_reflns_limit_h_min       -10

_diffrn_reflns_limit_h_max       10

_diffrn_reflns_limit_k_min       -17

_diffrn_reflns_limit_k_max       17

_diffrn_reflns_limit_l_min       -18

_diffrn_reflns_limit_l_max       18

_diffrn_reflns_theta_min         2.46

_diffrn_reflns_theta_max         25.05

_reflns_number_total             6468

_reflns_number_gt                5691

_reflns_threshold_expression     >2sigma(I)



_computing_data_collection       'Bruker SMART'

_computing_cell_refinement       'Bruker SMART'

_computing_data_reduction        'Bruker SAINT'

_computing_structure_solution    'SHELXS-97 (Sheldrick, 1990)'

_computing_structure_refinement  'SHELXL-97 (Sheldrick, 1997)'

_computing_molecular_graphics    'Bruker SHELXTL'

_computing_publication_material  'Bruker SHELXTL'



_refine_special_details          
;

Refinement of F^2^ against ALL reflections. The weighted R-factor wR and

goodness of fit S are based on F^2^, conventional R-factors R are based

on F, with F set to zero for negative F^2^. The threshold expression of

F^2^ > 2sigma(F^2^) is used only for calculating R-factors(gt) etc. and is

not relevant to the choice of reflections for refinement. R-factors based

on F^2^ are statistically about twice as large as those based on F, and R-

factors based on ALL data will be even larger.

;



_refine_ls_structure_factor_coef Fsqd

_refine_ls_matrix_type           full

_refine_ls_weighting_scheme      calc

_refine_ls_weighting_details     
'calc w=1/[\s^2^(Fo^2^)+(0.1150P)^2^+3.3377P] where P=(Fo^2^+2Fc^2^)/3'

_atom_sites_solution_primary     direct

_atom_sites_solution_secondary   difmap

_atom_sites_solution_hydrogens   geom

_refine_ls_hydrogen_treatment    constr

_refine_ls_extinction_method     none

_refine_ls_extinction_coef       ?

_refine_ls_number_reflns         6468

_refine_ls_number_parameters     409

_refine_ls_number_restraints     0

_refine_ls_R_factor_all          0.0543

_refine_ls_R_factor_gt           0.0492

_refine_ls_wR_factor_ref         0.1845

_refine_ls_wR_factor_gt          0.1802

_refine_ls_goodness_of_fit_ref   1.083

_refine_ls_restrained_S_all      1.083

_refine_ls_shift/su_max          0.000

_refine_ls_shift/su_mean         0.000



loop_

_platon_squeeze_void_nr

_platon_squeeze_void_average_x

_platon_squeeze_void_average_y

_platon_squeeze_void_average_z

_platon_squeeze_void_volume

_platon_squeeze_void_count_electrons

_platon_squeeze_void_content

1 -0.058 0.000 0.500 503 53 ' '

_platon_squeeze_details          
;

;



loop_

_atom_site_label

_atom_site_type_symbol

_atom_site_fract_x

_atom_site_fract_y

_atom_site_fract_z

_atom_site_U_iso_or_equiv

_atom_site_adp_type

_atom_site_occupancy

_atom_site_symmetry_multiplicity

_atom_site_calc_flag

_atom_site_refinement_flags

_atom_site_disorder_assembly

_atom_site_disorder_group













































































Zn1 Zn 0.5000 0.5000 0.5000 0.0281(2) Uani 1 2 d S . .
Zn2 Zn 0.88790(4) 0.11769(3) -0.15864(3) 0.02508(17) Uani 1 1 d . . .
C1 C 0.2279(4) 0.1706(3) -0.2276(3) 0.0330(9) Uani 1 1 d . . .
C2 C 0.3794(5) 0.1575(3) -0.2027(3) 0.0373(10) Uani 1 1 d . . .
H2 H 0.4601 0.1673 -0.2524 0.045 Uiso 1 1 calc R . .
C3 C 0.4065(4) 0.1331(3) -0.1157(3) 0.0308(9) Uani 1 1 d . . .
H3 H 0.3267 0.1241 -0.0657 0.037 Uiso 1 1 calc R . .
C4 C 0.5597(4) 0.1192(3) -0.0928(3) 0.0281(8) Uani 1 1 d . . .
C5 C 0.8078(5) 0.3419(3) -0.2122(4) 0.0398(10) Uani 1 1 d . . .
H5 H 0.7517 0.3434 -0.2567 0.048 Uiso 1 1 calc R . .
C6 C 0.9479(5) 0.2927(3) -0.1111(3) 0.0366(10) Uani 1 1 d . . .
H6 H 1.0103 0.2546 -0.0689 0.044 Uiso 1 1 calc R . .
C7 C 0.9601(5) 0.4438(4) -0.0832(4) 0.0409(11) Uani 1 1 d . . .
H7A H 1.0428 0.4912 -0.1299 0.049 Uiso 1 1 calc R . .
H7B H 0.9967 0.3994 -0.0243 0.049 Uiso 1 1 calc R . .
C8 C 0.8402(5) 0.5019(3) -0.0579(3) 0.0329(9) Uani 1 1 d . . .
C9 C 0.7459(5) 0.4559(3) 0.0349(3) 0.0330(9) Uani 1 1 d . . .
C10 C 0.7577(7) 0.3467(4) 0.1064(4) 0.0547(13) Uani 1 1 d . . .
H10A H 0.6845 0.3044 0.1018 0.082 Uiso 1 1 calc R . .
H10B H 0.7405 0.3383 0.1719 0.082 Uiso 1 1 calc R . .
H10C H 0.8556 0.3280 0.0908 0.082 Uiso 1 1 calc R . .
C11 C 0.6434(5) 0.5132(3) 0.0610(3) 0.0332(9) Uani 1 1 d . . .
C12 C 0.5370(5) 0.4657(4) 0.1584(4) 0.0437(11) Uani 1 1 d . . .
H12A H 0.4376 0.4856 0.1480 0.052 Uiso 1 1 calc R . .
H12B H 0.5338 0.3927 0.1861 0.052 Uiso 1 1 calc R . .
C13 C 0.4930(5) 0.4894(4) 0.3082(3) 0.0402(10) Uani 1 1 d . . .
H13 H 0.3914 0.4691 0.3275 0.048 Uiso 1 1 calc R . .
C14 C 0.7071(6) 0.5420(6) 0.3000(4) 0.0652(18) Uani 1 1 d . . .
H14 H 0.7867 0.5671 0.3144 0.078 Uiso 1 1 calc R . .
C15 C 0.8047(5) 0.4272(3) 0.5406(3) 0.0351(9) Uani 1 1 d . . .
C16 C 0.9688(5) 0.4545(4) 0.5229(4) 0.0408(11) Uani 1 1 d . . .
H16 H 1.0298 0.4018 0.5467 0.049 Uiso 1 1 calc R . .
C17 C 0.5363(6) 0.6782(4) 0.0285(4) 0.0515(13) Uani 1 1 d . . .
H17A H 0.4393 0.6423 0.0590 0.077 Uiso 1 1 calc R . .
H17B H 0.5282 0.7414 -0.0276 0.077 Uiso 1 1 calc R . .
H17C H 0.5767 0.6908 0.0747 0.077 Uiso 1 1 calc R . .
C18 C 0.6376(5) 0.6155(3) -0.0037(3) 0.0356(10) Uani 1 1 d . . .
C19 C 0.7272(5) 0.6593(3) -0.0979(3) 0.0359(10) Uani 1 1 d . . .
C20 C 0.7125(6) 0.7680(3) -0.1693(4) 0.0461(12) Uani 1 1 d . . .
H20A H 0.7426 0.7779 -0.2358 0.055 Uiso 1 1 calc R . .
H20B H 0.6087 0.7819 -0.1603 0.055 Uiso 1 1 calc R . .
C21 C 0.7663(5) 0.9227(3) -0.1518(4) 0.0413(11) Uani 1 1 d . . .
H21 H 0.6702 0.9436 -0.1499 0.050 Uiso 1 1 calc R . .
C22 C 0.9944(6) 0.9125(4) -0.1543(5) 0.0578(15) Uani 1 1 d . . .
H22 H 1.0930 0.9282 -0.1549 0.069 Uiso 1 1 calc R . .
C23 C 0.8284(5) 0.6025(3) -0.1257(3) 0.0370(10) Uani 1 1 d . . .
C24 C 0.9187(7) 0.6483(4) -0.2291(4) 0.0583(15) Uani 1 1 d . . .
H24A H 0.9744 0.5975 -0.2378 0.087 Uiso 1 1 calc R . .
H24B H 0.9863 0.7029 -0.2402 0.087 Uiso 1 1 calc R . .
H24C H 0.8528 0.6734 -0.2751 0.087 Uiso 1 1 calc R . .
N1 N 0.5704(4) 0.5168(3) 0.3566(3) 0.0390(9) Uani 1 1 d . . .
N2 N 0.5781(4) 0.4947(3) 0.2292(3) 0.0394(9) Uani 1 1 d . . .
N3 N 0.7190(5) 0.5283(5) 0.2225(4) 0.0751(18) Uani 1 1 d . . .
N4 N 0.8839(4) 0.9718(3) -0.1498(3) 0.0345(8) Uani 1 1 d . . .
N5 N 0.8041(4) 0.8400(3) -0.1568(3) 0.0395(9) Uani 1 1 d . . .
N6 N 0.9521(5) 0.8323(4) -0.1577(5) 0.0677(15) Uani 1 1 d . . .
N7 N 0.8862(4) 0.2640(3) -0.1645(3) 0.0312(8) Uani 1 1 d . . .
N8 N 0.9096(4) 0.3828(3) -0.1250(3) 0.0314(8) Uani 1 1 d . . .
N9 N 0.8174(5) 0.4159(3) -0.1904(3) 0.0452(10) Uani 1 1 d . . .
O1 O 0.6630(3) 0.1195(2) -0.1587(2) 0.0325(6) Uani 1 1 d . . .
O2 O 0.5740(3) 0.1063(2) -0.0098(2) 0.0376(7) Uani 1 1 d . . .
O3 O 0.1181(3) 0.1206(2) -0.1593(2) 0.0320(6) Uani 1 1 d . . .
O4 O 0.2183(4) 0.2292(3) -0.3138(3) 0.0567(10) Uani 1 1 d . . .
O5 O 0.7223(3) 0.4988(2) 0.5133(2) 0.0378(7) Uani 1 1 d . . .
O6 O 0.7606(4) 0.3356(3) 0.5806(3) 0.0574(10) Uani 1 1 d . . .
O1W O 0.5266(4) 0.6604(2) 0.4481(2) 0.0418(8) Uani 1 1 d . . .
H1WA H 0.6014 0.6849 0.4047 0.063 Uiso 1 1 calc R . .
H1WB H 0.4478 0.6777 0.4243 0.063 Uiso 1 1 d R . .
O2W O 0.8542(3) 0.0621(2) -0.0037(2) 0.0349(7) Uani 1 1 d . . .
H2WA H 0.7677 0.0677 0.0171 0.052 Uiso 1 1 calc R . .
H2WB H 0.8593 0.0021 0.0412 0.052 Uiso 1 1 d R . .
O3W O 0.9329(3) 0.1857(2) -0.3163(2) 0.0360(7) Uani 1 1 d . . .
H3WA H 0.8699 0.2251 -0.3380 0.054 Uiso 1 1 calc R . .
H3WB H 1.0176 0.2177 -0.3311 0.054 Uiso 1 1 d R . .
O4W O 0.6046(14) 0.0906(10) 0.1826(11) 0.243(6) Uani 1 1 d . . .
H4WA H 0.6019 0.1092 0.1228 0.291 Uiso 1 1 d R . .
H4WB H 0.5732 0.0877 0.2382 0.291 Uiso 1 1 d R . .



loop_

_atom_site_aniso_label

_atom_site_aniso_U_11

_atom_site_aniso_U_22

_atom_site_aniso_U_33

_atom_site_aniso_U_23

_atom_site_aniso_U_13

_atom_site_aniso_U_12













































Zn1 0.0162(3) 0.0380(4) 0.0260(3) -0.0127(3) -0.0017(2) 0.0005(3)
Zn2 0.0174(3) 0.0222(3) 0.0372(3) -0.0149(2) -0.00653(19) 0.00137(17)
C1 0.022(2) 0.033(2) 0.036(2) -0.0101(19) -0.0063(17) 0.0011(16)
C2 0.017(2) 0.043(2) 0.038(2) -0.009(2) -0.0018(17) 0.0003(17)
C3 0.0178(19) 0.032(2) 0.043(2) -0.0184(18) -0.0043(16) 0.0018(15)
C4 0.0198(19) 0.0211(18) 0.043(2) -0.0146(17) -0.0066(17) 0.0009(14)
C5 0.050(3) 0.034(2) 0.049(3) -0.025(2) -0.026(2) 0.014(2)
C6 0.037(2) 0.032(2) 0.050(3) -0.024(2) -0.018(2) 0.0097(18)
C7 0.031(2) 0.050(3) 0.061(3) -0.043(2) -0.007(2) 0.0022(19)
C8 0.028(2) 0.037(2) 0.047(2) -0.032(2) -0.0078(18) 0.0002(17)
C9 0.031(2) 0.035(2) 0.044(2) -0.026(2) -0.0114(18) 0.0013(17)
C10 0.061(3) 0.042(3) 0.061(3) -0.023(3) -0.015(3) 0.011(2)
C11 0.030(2) 0.039(2) 0.041(2) -0.028(2) -0.0061(17) -0.0023(17)
C12 0.038(3) 0.052(3) 0.050(3) -0.034(2) -0.001(2) -0.009(2)
C13 0.027(2) 0.057(3) 0.036(2) -0.023(2) 0.0002(18) -0.0025(19)
C14 0.037(3) 0.118(5) 0.049(3) -0.052(3) 0.010(2) -0.025(3)
C15 0.022(2) 0.040(2) 0.034(2) -0.0092(19) -0.0067(16) 0.0018(18)
C16 0.018(2) 0.040(2) 0.051(3) -0.010(2) -0.0090(18) 0.0039(17)
C17 0.049(3) 0.055(3) 0.072(4) -0.046(3) -0.014(3) 0.016(2)
C18 0.030(2) 0.041(2) 0.053(3) -0.035(2) -0.0114(19) 0.0046(18)
C19 0.040(2) 0.031(2) 0.048(3) -0.026(2) -0.013(2) -0.0021(18)
C20 0.054(3) 0.035(2) 0.061(3) -0.028(2) -0.023(2) 0.001(2)
C21 0.032(2) 0.031(2) 0.065(3) -0.026(2) -0.011(2) 0.0025(18)
C22 0.040(3) 0.051(3) 0.105(5) -0.050(3) -0.028(3) 0.011(2)
C23 0.038(2) 0.037(2) 0.046(3) -0.029(2) -0.0027(19) -0.0079(18)
C24 0.068(4) 0.050(3) 0.053(3) -0.029(3) 0.011(3) -0.013(3)
N1 0.0271(19) 0.053(2) 0.034(2) -0.0210(18) 0.0000(15) -0.0038(16)
N2 0.0275(19) 0.055(2) 0.039(2) -0.0270(18) 0.0011(15) -0.0069(16)
N3 0.034(2) 0.146(5) 0.063(3) -0.071(4) 0.013(2) -0.028(3)
N4 0.033(2) 0.0252(17) 0.049(2) -0.0194(16) -0.0103(16) 0.0031(14)
N5 0.040(2) 0.0295(18) 0.057(2) -0.0242(18) -0.0172(18) 0.0040(15)
N6 0.050(3) 0.057(3) 0.131(5) -0.067(3) -0.035(3) 0.020(2)
N7 0.0300(19) 0.0279(17) 0.043(2) -0.0216(16) -0.0102(15) 0.0042(14)
N8 0.0260(18) 0.0323(18) 0.042(2) -0.0234(16) -0.0057(15) 0.0020(14)
N9 0.056(3) 0.035(2) 0.058(3) -0.0286(19) -0.024(2) 0.0148(18)
O1 0.0170(14) 0.0398(16) 0.0427(17) -0.0209(14) -0.0064(12) 0.0022(11)
O2 0.0276(16) 0.0461(18) 0.0455(18) -0.0254(15) -0.0118(13) 0.0094(13)
O3 0.0158(14) 0.0327(15) 0.0379(16) -0.0089(13) -0.0051(11) 0.0004(11)
O4 0.0249(17) 0.070(2) 0.0408(19) 0.0031(17) -0.0094(14) -0.0064(15)
O5 0.0175(15) 0.0417(17) 0.0484(18) -0.0166(15) -0.0068(13) 0.0025(12)
O6 0.0272(18) 0.0398(19) 0.078(3) -0.0028(18) -0.0183(17) -0.0031(14)
O1W 0.0267(16) 0.0404(17) 0.0450(18) -0.0106(15) -0.0031(13) -0.0013(13)
O2W 0.0271(16) 0.0346(15) 0.0360(16) -0.0103(13) -0.0084(12) 0.0030(12)
O3W 0.0291(16) 0.0381(16) 0.0390(16) -0.0160(14) -0.0089(12) 0.0051(12)
O4W 0.229(13) 0.284(15) 0.346(18) -0.238(15) -0.115(12) 0.091(11)



_geom_special_details            
;

All esds (except the esd in the dihedral angle between two l.s. planes)

are estimated using the full covariance matrix. The cell esds are taken

into account individually in the estimation of esds in distances, angles

and torsion angles; correlations between esds in cell parameters are only

used when they are defined by crystal symmetry. An approximate (isotropic)

treatment of cell esds is used for estimating esds involving l.s. planes.

;



loop_

_geom_bond_atom_site_label_1

_geom_bond_atom_site_label_2

_geom_bond_distance

_geom_bond_site_symmetry_2

_geom_bond_publ_flag























































































Zn1 O5 2.077(3) . ?
Zn1 O5 2.077(3) 2_666 ?
Zn1 N1 2.123(4) . ?
Zn1 N1 2.123(4) 2_666 ?
Zn1 O1W 2.149(3) . ?
Zn1 O1W 2.149(3) 2_666 ?
Zn2 O1 2.054(3) . ?
Zn2 O3 2.102(3) 1_655 ?
Zn2 N4 2.127(3) 1_545 ?
Zn2 O2W 2.133(3) . ?
Zn2 N7 2.151(3) . ?
Zn2 O3W 2.151(3) . ?
C1 O4 1.243(5) . ?
C1 O3 1.264(5) . ?
C1 C2 1.490(6) . ?
C2 C3 1.309(6) . ?
C2 H2 0.9300 . ?
C3 C4 1.495(5) . ?
C3 H3 0.9300 . ?
C4 O2 1.255(5) . ?
C4 O1 1.269(5) . ?
C5 N9 1.311(6) . ?
C5 N7 1.340(6) . ?
C5 H5 0.9300 . ?
C6 N7 1.311(5) . ?
C6 N8 1.318(5) . ?
C6 H6 0.9300 . ?
C7 N8 1.466(5) . ?
C7 C8 1.507(6) . ?
C7 H7A 0.9700 . ?
C7 H7B 0.9700 . ?
C8 C23 1.399(6) . ?
C8 C9 1.402(6) . ?
C9 C11 1.401(6) . ?
C9 C10 1.509(7) . ?
C10 H10A 0.9600 . ?
C10 H10B 0.9600 . ?
C10 H10C 0.9600 . ?
C11 C18 1.396(6) . ?
C11 C12 1.503(6) . ?
C12 N2 1.471(6) . ?
C12 H12A 0.9700 . ?
C12 H12B 0.9700 . ?
C13 N2 1.311(6) . ?
C13 N1 1.315(6) . ?
C13 H13 0.9300 . ?
C14 N3 1.311(7) . ?
C14 N1 1.339(6) . ?
C14 H14 0.9300 . ?
C15 O6 1.248(6) . ?
C15 O5 1.254(5) . ?
C15 C16 1.500(6) . ?
C16 C16 1.287(9) 2_766 ?
C16 H16 0.9300 . ?
C17 C18 1.502(6) . ?
C17 H17A 0.9600 . ?
C17 H17B 0.9600 . ?
C17 H17C 0.9600 . ?
C18 C19 1.401(7) . ?
C19 C23 1.400(6) . ?
C19 C20 1.508(6) . ?
C20 N5 1.475(6) . ?
C20 H20A 0.9700 . ?
C20 H20B 0.9700 . ?
C21 N5 1.317(6) . ?
C21 N4 1.321(6) . ?
C21 H21 0.9300 . ?
C22 N6 1.293(7) . ?
C22 N4 1.353(6) . ?
C22 H22 0.9300 . ?
C23 C24 1.511(7) . ?
C24 H24A 0.9600 . ?
C24 H24B 0.9600 . ?
C24 H24C 0.9600 . ?
N2 N3 1.355(6) . ?
N4 Zn2 2.127(3) 1_565 ?
N5 N6 1.354(6) . ?
N8 N9 1.355(5) . ?
O3 Zn2 2.102(3) 1_455 ?
O1W H1WA 0.8200 . ?
O1W H1WB 0.8528 . ?
O2W H2WA 0.8200 . ?
O2W H2WB 0.8520 . ?
O3W H3WA 0.8200 . ?
O3W H3WB 0.8502 . ?
O4W H4WA 0.8500 . ?
O4W H4WB 0.8500 . ?



loop_

_geom_angle_atom_site_label_1

_geom_angle_atom_site_label_2

_geom_angle_atom_site_label_3

_geom_angle

_geom_angle_site_symmetry_1

_geom_angle_site_symmetry_3

_geom_angle_publ_flag


























































































































































O5 Zn1 O5 180.0 . 2_666 ?
O5 Zn1 N1 88.78(14) . . ?
O5 Zn1 N1 91.22(14) 2_666 . ?
O5 Zn1 N1 91.22(14) . 2_666 ?
O5 Zn1 N1 88.78(14) 2_666 2_666 ?
N1 Zn1 N1 179.998(1) . 2_666 ?
O5 Zn1 O1W 86.42(12) . . ?
O5 Zn1 O1W 93.58(12) 2_666 . ?
N1 Zn1 O1W 92.55(14) . . ?
N1 Zn1 O1W 87.45(14) 2_666 . ?
O5 Zn1 O1W 93.58(12) . 2_666 ?
O5 Zn1 O1W 86.42(12) 2_666 2_666 ?
N1 Zn1 O1W 87.45(14) . 2_666 ?
N1 Zn1 O1W 92.55(14) 2_666 2_666 ?
O1W Zn1 O1W 179.999(1) . 2_666 ?
O1 Zn2 O3 178.19(11) . 1_655 ?
O1 Zn2 N4 89.91(13) . 1_545 ?
O3 Zn2 N4 91.89(13) 1_655 1_545 ?
O1 Zn2 O2W 93.02(11) . . ?
O3 Zn2 O2W 86.97(11) 1_655 . ?
N4 Zn2 O2W 94.83(13) 1_545 . ?
O1 Zn2 N7 88.90(1