####################################################################### 
# 
# This file contains crystal structure data downloaded from the 
# Cambridge Structural Database (CSD) hosted by the Cambridge 
# Crystallographic Data Centre (CCDC).
# 
# Full information about CCDC data access policies and citation 
# guidelines are available at http://www.ccdc.cam.ac.uk/access/V1 
# 
# Audit and citation data items may have been added by the CCDC. 
# Please retain this information to preserve the provenance of 
# this file and to allow appropriate attribution of the data. 
# 
#######################################################################

data_1
_audit_block_doi                 10.5517/ccx59t5
_database_code_depnum_ccdc_archive 'CCDC 839257'
loop_
_citation_id
_citation_doi
_citation_year
1 10.1021/cg101569a 2011
_audit_update_record             
;
2011-08-15 deposited with the CCDC.	2024-07-12 downloaded from the CCDC.
;

_audit_creation_method           SHELXL-97
_chemical_name_systematic        
;
?
;
_chemical_name_common            ?
_chemical_melting_point          ?
_chemical_formula_moiety         ?
_chemical_formula_sum            'C44 H34 N6 O29 Zn7'
_chemical_formula_weight         1568.36

loop_
_atom_type_symbol
_atom_type_description
_atom_type_scat_dispersion_real
_atom_type_scat_dispersion_imag
_atom_type_scat_source
C C 0.0033 0.0016 'International Tables Vol C Tables 4.2.6.8 and 6.1.1.4'
H H 0.0000 0.0000 'International Tables Vol C Tables 4.2.6.8 and 6.1.1.4'
N N 0.0061 0.0033 'International Tables Vol C Tables 4.2.6.8 and 6.1.1.4'
O O 0.0106 0.0060 'International Tables Vol C Tables 4.2.6.8 and 6.1.1.4'
Zn Zn 0.2839 1.4301 'International Tables Vol C Tables 4.2.6.8 and 6.1.1.4'

_symmetry_cell_setting           Orthorhombic
_symmetry_space_group_name_H-M   Pna21

loop_
_symmetry_equiv_pos_as_xyz
'x, y, z'
'-x, -y, z+1/2'
'x+1/2, -y+1/2, z'
'-x+1/2, y+1/2, z+1/2'

_cell_length_a                   25.117(11)
_cell_length_b                   26.607(12)
_cell_length_c                   17.479(8)
_cell_angle_alpha                90.00
_cell_angle_beta                 90.00
_cell_angle_gamma                90.00
_cell_volume                     11681(9)
_cell_formula_units_Z            4
_cell_measurement_temperature    293(2)
_cell_measurement_reflns_used    8230
_cell_measurement_theta_min      2.51
_cell_measurement_theta_max      21.53

_exptl_crystal_description       block
_exptl_crystal_colour            colorless
_exptl_crystal_size_max          0.28
_exptl_crystal_size_mid          0.22
_exptl_crystal_size_min          0.18
_exptl_crystal_density_meas      ?
_exptl_crystal_density_diffrn    0.892
_exptl_crystal_density_method    'not measured'
_exptl_crystal_F_000             3128
_exptl_absorpt_coefficient_mu    1.459
_exptl_absorpt_correction_type   multi-scan
_exptl_absorpt_correction_T_min  0.6855
_exptl_absorpt_correction_T_max  0.7792
_exptl_absorpt_process_details   SADABS

_exptl_special_details           
;
?
;

_diffrn_ambient_temperature      293(2)
_diffrn_radiation_wavelength     0.71073
_diffrn_radiation_type           MoK\a
_diffrn_radiation_source         'fine-focus sealed tube'
_diffrn_radiation_monochromator  graphite
_diffrn_measurement_device_type  'CCD area detector'
_diffrn_measurement_method       'phi and omega scans'
_diffrn_detector_area_resol_mean ?
_diffrn_standards_number         ?
_diffrn_standards_interval_count ?
_diffrn_standards_interval_time  ?
_diffrn_standards_decay_%        ?
_diffrn_reflns_number            69499
_diffrn_reflns_av_R_equivalents  0.1381
_diffrn_reflns_av_sigmaI/netI    0.1498
_diffrn_reflns_limit_h_min       -28
_diffrn_reflns_limit_h_max       30
_diffrn_reflns_limit_k_min       -31
_diffrn_reflns_limit_k_max       31
_diffrn_reflns_limit_l_min       -20
_diffrn_reflns_limit_l_max       20
_diffrn_reflns_theta_min         1.11
_diffrn_reflns_theta_max         25.20
_reflns_number_total             21006
_reflns_number_gt                11581
_reflns_threshold_expression     >2sigma(I)

_computing_data_collection       'Bruker SMART'
_computing_cell_refinement       'Bruker SMART'
_computing_data_reduction        'Bruker SAINT'
_computing_structure_solution    'SHELXS-97 (Sheldrick, 1990)'
_computing_structure_refinement  'SHELXL-97 (Sheldrick, 1997)'
_computing_molecular_graphics    'Bruker SHELXTL'
_computing_publication_material  'Bruker SHELXTL'

_refine_special_details          
;
Refinement of F^2^ against ALL reflections. The weighted R-factor wR and
goodness of fit S are based on F^2^, conventional R-factors R are based
on F, with F set to zero for negative F^2^. The threshold expression of
F^2^ > 2sigma(F^2^) is used only for calculating R-factors(gt) etc. and is
not relevant to the choice of reflections for refinement. R-factors based
on F^2^ are statistically about twice as large as those based on F, and R-
factors based on ALL data will be even larger.
;

_refine_ls_structure_factor_coef Fsqd
_refine_ls_matrix_type           full
_refine_ls_weighting_scheme      calc
_refine_ls_weighting_details     
'calc w=1/[\s^2^(Fo^2^)+(0.1530P)^2^+0.0000P] where P=(Fo^2^+2Fc^2^)/3'
_atom_sites_solution_primary     direct
_atom_sites_solution_secondary   difmap
_atom_sites_solution_hydrogens   geom
_refine_ls_hydrogen_treatment    constr
_refine_ls_extinction_method     none
_refine_ls_extinction_coef       ?
_refine_ls_abs_structure_details 'Flack H D (1983), Acta Cryst. A39, 876-881'
_refine_ls_abs_structure_Flack   -0.02(2)
_refine_ls_number_reflns         21006
_refine_ls_number_parameters     779
_refine_ls_number_restraints     1
_refine_ls_R_factor_all          0.1606
_refine_ls_R_factor_gt           0.0851
_refine_ls_wR_factor_ref         0.2728
_refine_ls_wR_factor_gt          0.2212
_refine_ls_goodness_of_fit_ref   1.010
_refine_ls_restrained_S_all      1.010
_refine_ls_shift/su_max          0.019
_refine_ls_shift/su_mean         0.002

loop_
_atom_site_label
_atom_site_type_symbol
_atom_site_fract_x
_atom_site_fract_y
_atom_site_fract_z
_atom_site_U_iso_or_equiv
_atom_site_adp_type
_atom_site_occupancy
_atom_site_symmetry_multiplicity
_atom_site_calc_flag
_atom_site_refinement_flags
_atom_site_disorder_assembly
_atom_site_disorder_group
Zn6 Zn -0.07901(6) 0.82898(6) 0.76089(9) 0.0598(4) Uani 1 1 d . . .
Zn1 Zn 0.27965(5) 0.80042(5) 0.21967(8) 0.0487(4) Uani 1 1 d . . .
Zn2 Zn 0.21029(5) 0.83719(5) 0.06515(8) 0.0484(4) Uani 1 1 d . . .
Zn3 Zn 0.27862(6) 0.96167(5) 0.56586(8) 0.0503(4) Uani 1 1 d . . .
Zn5 Zn -0.04563(5) 0.90562(5) 0.59869(7) 0.0415(3) Uani 1 1 d . . .
Zn4 Zn 0.34888(6) 0.92537(6) 0.72080(8) 0.0531(4) Uani 1 1 d . . .
Zn7 Zn 0.60356(6) 0.85337(6) 0.18180(8) 0.0514(4) Uani 1 1 d . . .
C1 C 0.3344(5) 0.8338(6) 0.0844(7) 0.061(4) Uani 1 1 d . . .
C2 C 0.3806(5) 0.8482(5) 0.0428(6) 0.051(3) Uani 1 1 d . . .
C3 C 0.4323(5) 0.8481(5) 0.0723(7) 0.051(3) Uani 1 1 d . . .
H3 H 0.4372 0.8361 0.1218 0.062 Uiso 1 1 calc R . .
C4 C 0.4762(5) 0.8644(5) 0.0332(7) 0.058(4) Uani 1 1 d . . .
C5 C 0.5295(5) 0.8639(5) 0.0676(8) 0.054(3) Uani 1 1 d . . .
C6 C 0.4683(5) 0.8816(5) -0.0402(6) 0.048(3) Uani 1 1 d . . .
H6 H 0.4976 0.8920 -0.0686 0.058 Uiso 1 1 calc R . .
C7 C 0.4177(5) 0.8839(5) -0.0736(6) 0.048(3) Uani 1 1 d . . .
C8 C 0.4113(6) 0.9028(5) -0.1563(8) 0.061(4) Uani 1 1 d . . .
C9 C 0.3746(5) 0.8686(5) -0.0339(7) 0.056(3) Uani 1 1 d . . .
H9 H 0.3409 0.8712 -0.0557 0.067 Uiso 1 1 calc R . .
C10 C 0.2139(5) 0.8980(5) 0.1984(7) 0.057(3) Uani 1 1 d . . .
C11 C 0.1990(5) 0.9445(5) 0.2425(6) 0.051(3) Uani 1 1 d . . .
C12 C 0.2180(5) 0.9494(6) 0.3170(7) 0.057(3) Uani 1 1 d . . .
H12 H 0.2394 0.9246 0.3386 0.069 Uiso 1 1 calc R . .
C13 C 0.2044(5) 0.9923(5) 0.3587(7) 0.052(3) Uani 1 1 d . . .
C14 C 0.2230(5) 0.9962(5) 0.4416(7) 0.051(3) Uani 1 1 d . . .
C15 C 0.1730(6) 1.0300(5) 0.3266(8) 0.064(4) Uani 1 1 d . . .
H15 H 0.1639 1.0582 0.3550 0.077 Uiso 1 1 calc R . .
C16 C 0.1556(5) 1.0248(5) 0.2519(7) 0.051(3) Uani 1 1 d . . .
C17 C 0.1192(5) 1.0650(5) 0.2176(10) 0.060(3) Uani 1 1 d . . .
C18 C 0.1681(5) 0.9803(5) 0.2110(7) 0.054(3) Uani 1 1 d . . .
H18 H 0.1547 0.9758 0.1619 0.065 Uiso 1 1 calc R . .
C19 C 0.3310(6) 0.7657(5) 0.3489(8) 0.056(3) Uani 1 1 d . . .
C20 C 0.3502(5) 0.7685(5) 0.4301(7) 0.050(3) Uani 1 1 d . . .
C21 C 0.3418(5) 0.8131(5) 0.4692(7) 0.058(4) Uani 1 1 d . . .
H21 H 0.3247 0.8397 0.4447 0.069 Uiso 1 1 calc R . .
C22 C 0.3583(5) 0.8185(5) 0.5430(7) 0.053(3) Uani 1 1 d . . .
C23 C 0.3500(6) 0.8667(5) 0.5861(9) 0.064(4) Uani 1 1 d . . .
C24 C 0.3850(5) 0.7783(5) 0.5792(7) 0.058(3) Uani 1 1 d . . .
H24 H 0.3980 0.7821 0.6286 0.069 Uiso 1 1 calc R . .
C25 C 0.3917(5) 0.7332(5) 0.5412(8) 0.056(3) Uani 1 1 d . . .
C26 C 0.4156(6) 0.6899(7) 0.5804(9) 0.071(4) Uani 1 1 d . . .
C27 C 0.3747(5) 0.7302(5) 0.4652(7) 0.051(3) Uani 1 1 d . . .
H27 H 0.3806 0.7007 0.4381 0.061 Uiso 1 1 calc R . .
C28 C 0.2257(5) 0.9233(5) 0.6942(7) 0.057(3) Uani 1 1 d . . .
C29 C 0.1780(5) 0.9050(5) 0.7381(6) 0.053(3) Uani 1 1 d . . .
C30 C 0.1266(5) 0.9030(5) 0.7071(7) 0.053(3) Uani 1 1 d . . .
H30 H 0.1212 0.9134 0.6569 0.064 Uiso 1 1 calc R . .
C31 C 0.0836(5) 0.8858(5) 0.7492(6) 0.053(3) Uani 1 1 d . . .
C32 C 0.0290(5) 0.8830(5) 0.7154(8) 0.056(3) Uani 1 1 d . . .
C33 C 0.0912(5) 0.8728(5) 0.8242(7) 0.056(3) Uani 1 1 d . . .
H33 H 0.0623 0.8625 0.8534 0.067 Uiso 1 1 calc R . .
C34 C 0.1416(5) 0.8749(5) 0.8574(6) 0.048(3) Uani 1 1 d . . .
C35 C 0.1503(6) 0.8621(5) 0.9420(7) 0.062(4) Uani 1 1 d . . .
C36 C 0.1843(5) 0.8897(5) 0.8137(7) 0.061(4) Uani 1 1 d . . .
H36 H 0.2181 0.8896 0.8351 0.073 Uiso 1 1 calc R . .
C37 C 0.2218(6) 0.6812(6) 0.2651(10) 0.090(6) Uani 1 1 d . . .
H37A H 0.2566 0.6694 0.2511 0.135 Uiso 1 1 calc R . .
H37B H 0.1986 0.6530 0.2726 0.135 Uiso 1 1 calc R . .
H37C H 0.2241 0.7003 0.3116 0.135 Uiso 1 1 calc R . .
C38 C 0.2000(5) 0.7142(5) 0.2017(7) 0.055(3) Uani 1 1 d . . .
C39 C 0.1521(5) 0.7396(5) 0.1071(8) 0.057(3) Uani 1 1 d . . .
C40 C 0.1105(8) 0.7431(7) 0.0511(10) 0.108(7) Uani 1 1 d . . .
H40A H 0.1137 0.7744 0.0240 0.162 Uiso 1 1 calc R . .
H40B H 0.0765 0.7417 0.0762 0.162 Uiso 1 1 calc R . .
H40C H 0.1134 0.7157 0.0157 0.162 Uiso 1 1 calc R . .
C41 C 0.4199(7) 1.0343(6) 0.7726(10) 0.096(6) Uani 1 1 d . . .
H41A H 0.4016 1.0275 0.8197 0.144 Uiso 1 1 calc R . .
H41B H 0.4379 1.0660 0.7764 0.144 Uiso 1 1 calc R . .
H41C H 0.4453 1.0082 0.7630 0.144 Uiso 1 1 calc R . .
C42 C 0.3806(5) 1.0362(5) 0.7086(7) 0.055(3) Uani 1 1 d . . .
C43 C 0.3297(5) 1.0609(5) 0.6186(6) 0.049(3) Uani 1 1 d . . .
C44 C 0.3038(6) 1.0934(5) 0.5613(10) 0.076(4) Uani 1 1 d . . .
H44A H 0.2906 1.0732 0.5200 0.113 Uiso 1 1 calc R . .
H44B H 0.3293 1.1172 0.5419 0.113 Uiso 1 1 calc R . .
H44C H 0.2748 1.1111 0.5847 0.113 Uiso 1 1 calc R . .
N1 N 0.2212(4) 0.7563(4) 0.1791(6) 0.051(3) Uani 1 1 d . . .
N2 N 0.1904(4) 0.7732(4) 0.1177(5) 0.048(2) Uani 1 1 d . . .
N3 N 0.1568(4) 0.7021(4) 0.1594(6) 0.058(3) Uani 1 1 d . . .
N4 N 0.3558(4) 0.9956(4) 0.6824(6) 0.058(3) Uani 1 1 d . . .
N5 N 0.3232(4) 1.0121(4) 0.6231(5) 0.048(2) Uani 1 1 d . . .
N6 N 0.3644(4) 1.0774(4) 0.6720(6) 0.056(3) Uani 1 1 d . . .
O1 O 0.3400(4) 0.8156(4) 0.1528(5) 0.076(3) Uani 1 1 d . . .
O2 O 0.2893(3) 0.8345(5) 0.0525(6) 0.087(3) Uani 1 1 d . . .
O3 O 0.5329(3) 0.8501(4) 0.1373(5) 0.062(3) Uani 1 1 d . . .
O4 O 0.5694(4) 0.8756(5) 0.0311(6) 0.084(3) Uani 1 1 d . . .
O5 O 0.3627(4) 0.9102(4) -0.1746(5) 0.075(3) Uani 1 1 d . . .
O6 O 0.4488(5) 0.9095(5) -0.1976(6) 0.098(4) Uani 1 1 d . . .
O7 O 0.2403(4) 0.8664(3) 0.2316(5) 0.071(3) Uani 1 1 d . . .
O8 O 0.1960(4) 0.8959(4) 0.1299(5) 0.074(3) Uani 1 1 d . . .
O9 O 0.2588(4) 0.9666(4) 0.4608(5) 0.068(3) Uani 1 1 d . . .
O10 O 0.2034(5) 1.0289(5) 0.4806(6) 0.093(3) Uani 1 1 d . . .
O11 O 0.0966(4) 1.0533(4) 0.1542(5) 0.070(3) Uani 1 1 d . . .
O12 O 0.1179(5) 1.1058(4) 0.2492(7) 0.098(4) Uani 1 1 d . . .
O13 O 0.3006(4) 0.7977(4) 0.3250(5) 0.072(3) Uani 1 1 d . . .
O14 O 0.3449(5) 0.7296(5) 0.3093(7) 0.104(4) Uani 1 1 d . . .
O15 O 0.3252(5) 0.9016(4) 0.5530(6) 0.081(3) Uani 1 1 d . . .
O16 O 0.3676(5) 0.8710(4) 0.6518(5) 0.080(3) Uani 1 1 d . . .
O17 O 0.4233(5) 0.6511(4) 0.5440(7) 0.080(3) Uani 1 1 d . . .
O18 O 0.4267(6) 0.6930(5) 0.6488(6) 0.108(4) Uani 1 1 d . . .
O19 O 0.2178(3) 0.9380(4) 0.6269(5) 0.069(3) Uani 1 1 d . . .
O20 O 0.2695(3) 0.9180(5) 0.7264(6) 0.090(4) Uani 1 1 d . . .
O21 O 0.0235(3) 0.8993(4) 0.6479(5) 0.065(3) Uani 1 1 d . . .
O22 O -0.0068(5) 0.8654(6) 0.7547(7) 0.113(5) Uani 1 1 d . . .
O23 O 0.1105(4) 0.8595(5) 0.9846(5) 0.086(3) Uani 1 1 d . . .
O24 O 0.1966(4) 0.8507(4) 0.9607(5) 0.076(3) Uani 1 1 d . . .
O26W O -0.0774(9) 0.8341(9) 0.8797(9) 0.192(9) Uani 1 1 d . . .
O27W O -0.1532(7) 0.7927(7) 0.7714(14) 0.173(7) Uani 1 1 d . . .
O28W O -0.0428(8) 0.7615(7) 0.7882(12) 0.179(8) Uani 1 1 d . . .
O29W O -0.0261(6) 0.9516(5) 0.5124(7) 0.112(4) Uani 1 1 d . . .
O25W O 0.5855(5) 0.8407(4) 0.2904(6) 0.088(3) Uani 1 1 d . . .

loop_
_atom_site_aniso_label
_atom_site_aniso_U_11
_atom_site_aniso_U_22
_atom_site_aniso_U_33
_atom_site_aniso_U_23
_atom_site_aniso_U_13
_atom_site_aniso_U_12
Zn6 0.0644(10) 0.0724(10) 0.0425(8) 0.0063(8) -0.0030(7) -0.0022(8)
Zn1 0.0500(8) 0.0654(9) 0.0308(6) 0.0091(7) -0.0145(6) -0.0041(7)
Zn2 0.0472(8) 0.0682(9) 0.0296(6) 0.0093(7) -0.0117(6) -0.0014(7)
Zn3 0.0537(8) 0.0669(9) 0.0302(6) 0.0071(7) -0.0119(7) 0.0008(7)
Zn5 0.0392(7) 0.0573(8) 0.0280(6) -0.0015(6) -0.0029(6) 0.0020(6)
Zn4 0.0553(8) 0.0716(9) 0.0324(7) 0.0115(7) -0.0138(7) -0.0024(7)
Zn7 0.0423(8) 0.0656(9) 0.0461(8) 0.0003(7) -0.0111(6) 0.0020(7)
C1 0.054(8) 0.096(10) 0.034(7) 0.011(7) -0.021(6) 0.004(7)
C2 0.061(8) 0.060(8) 0.032(6) -0.005(5) -0.011(6) 0.004(6)
C3 0.042(7) 0.079(8) 0.032(6) 0.005(6) -0.019(6) 0.009(6)
C4 0.041(7) 0.091(10) 0.043(7) -0.004(7) -0.012(6) 0.005(7)
C5 0.037(7) 0.081(9) 0.045(7) 0.007(7) 0.006(6) -0.003(6)
C6 0.055(8) 0.055(7) 0.035(6) 0.011(6) -0.002(6) -0.004(6)
C7 0.063(8) 0.054(7) 0.026(6) 0.010(5) -0.003(6) 0.003(6)
C8 0.069(10) 0.049(8) 0.064(9) -0.001(7) -0.036(8) 0.004(7)
C9 0.049(8) 0.081(9) 0.038(7) 0.012(6) -0.016(6) 0.007(7)
C10 0.054(8) 0.076(9) 0.041(8) 0.011(7) -0.009(6) 0.001(7)
C11 0.061(8) 0.057(8) 0.034(7) 0.007(6) -0.016(6) 0.000(6)
C12 0.051(8) 0.083(10) 0.039(7) 0.010(7) -0.007(6) 0.005(7)
C13 0.051(8) 0.070(9) 0.035(6) 0.015(6) -0.018(6) 0.005(6)
C14 0.053(8) 0.061(8) 0.039(7) -0.010(7) 0.010(6) -0.006(7)
C15 0.072(9) 0.063(9) 0.058(9) 0.003(7) -0.020(7) 0.021(7)
C16 0.060(8) 0.052(7) 0.041(7) 0.013(6) -0.015(6) 0.002(6)
C17 0.047(7) 0.056(9) 0.078(10) -0.001(8) 0.001(8) 0.010(6)
C18 0.051(7) 0.071(9) 0.039(7) -0.001(6) -0.014(6) 0.008(6)
C19 0.071(9) 0.056(8) 0.042(7) -0.005(7) 0.004(7) 0.002(7)
C20 0.062(8) 0.050(8) 0.039(7) 0.012(6) -0.018(6) 0.004(6)
C21 0.070(9) 0.061(9) 0.042(7) 0.025(6) -0.015(6) 0.015(7)
C22 0.069(9) 0.054(8) 0.037(7) 0.007(6) -0.017(6) 0.005(6)
C23 0.071(9) 0.056(8) 0.065(10) 0.018(7) -0.005(7) 0.003(7)
C24 0.071(9) 0.062(8) 0.040(7) 0.011(6) -0.025(6) 0.012(7)
C25 0.045(7) 0.064(9) 0.059(8) 0.013(7) -0.009(6) 0.026(6)
C26 0.065(9) 0.079(11) 0.068(11) 0.021(9) -0.007(8) -0.003(8)
C27 0.059(8) 0.053(8) 0.040(7) -0.001(6) -0.001(6) 0.005(6)
C28 0.062(9) 0.074(9) 0.036(7) 0.010(6) -0.019(6) -0.001(7)
C29 0.046(7) 0.085(9) 0.028(6) 0.001(6) -0.012(5) -0.005(6)
C30 0.044(7) 0.080(9) 0.034(7) 0.010(6) -0.013(5) -0.002(6)
C31 0.049(7) 0.090(9) 0.019(5) 0.007(6) -0.011(5) -0.002(7)
C32 0.051(8) 0.083(9) 0.035(7) -0.011(7) 0.000(6) -0.002(7)
C33 0.058(8) 0.071(9) 0.039(7) 0.004(6) -0.006(6) -0.007(7)
C34 0.045(7) 0.072(8) 0.026(6) 0.017(6) -0.012(5) 0.006(6)
C35 0.071(10) 0.083(10) 0.033(7) 0.001(7) 0.005(7) -0.005(8)
C36 0.046(8) 0.087(10) 0.050(8) 0.005(7) -0.027(6) -0.006(7)
C37 0.081(11) 0.103(12) 0.085(11) 0.040(10) -0.051(10) -0.012(9)
C38 0.050(7) 0.063(8) 0.052(8) 0.013(6) -0.021(6) -0.006(6)
C39 0.065(8) 0.057(8) 0.050(8) -0.005(7) -0.028(7) -0.003(7)
C40 0.139(17) 0.114(14) 0.071(11) 0.041(10) -0.073(12) -0.035(12)
C41 0.111(13) 0.078(10) 0.097(13) 0.021(9) -0.079(11) -0.009(9)
C42 0.062(8) 0.063(8) 0.039(7) -0.006(6) -0.015(6) 0.010(7)
C43 0.041(6) 0.077(9) 0.028(6) 0.015(6) 0.004(5) -0.003(6)
C44 0.071(9) 0.074(9) 0.082(10) 0.025(9) -0.015(9) 0.008(7)
N1 0.044(6) 0.056(6) 0.052(6) 0.008(5) -0.028(5) -0.005(5)
N2 0.053(6) 0.060(6) 0.032(5) 0.013(5) -0.008(4) 0.000(5)
N3 0.042(6) 0.083(8) 0.050(6) 0.007(6) -0.017(5) -0.010(5)
N4 0.067(7) 0.055(7) 0.051(6) 0.017(6) -0.014(6) -0.007(5)
N5 0.056(6) 0.061(7) 0.028(5) 0.007(5) -0.015(4) -0.003(5)
N6 0.052(6) 0.071(7) 0.045(6) 0.009(5) -0.008(5) 0.002(5)
O1 0.051(6) 0.133(9) 0.045(5) 0.025(6) -0.005(4) -0.011(6)
O2 0.031(5) 0.179(11) 0.049(6) 0.026(6) -0.009(4) -0.007(6)
O3 0.038(5) 0.097(7) 0.051(6) 0.017(5) -0.013(4) 0.007(4)
O4 0.068(7) 0.124(9) 0.059(6) 0.012(6) -0.017(6) 0.005(6)
O5 0.093(8) 0.097(8) 0.035(5) 0.007(5) -0.026(5) -0.005(6)
O6 0.072(7) 0.154(11) 0.067(7) 0.042(7) 0.028(6) 0.011(7)
O7 0.098(7) 0.068(6) 0.046(5) 0.003(5) -0.031(5) 0.029(5)
O8 0.103(8) 0.080(7) 0.038(5) 0.002(5) -0.026(5) 0.019(6)
O9 0.079(7) 0.098(7) 0.027(4) 0.014(5) -0.017(4) 0.023(6)
O10 0.091(8) 0.123(9) 0.064(7) -0.019(7) -0.026(6) 0.011(7)
O11 0.060(6) 0.112(8) 0.039(5) 0.006(5) -0.013(4) 0.026(5)
O12 0.137(11) 0.070(7) 0.088(9) -0.009(6) -0.035(8) 0.032(7)
O13 0.087(7) 0.097(7) 0.032(5) 0.012(5) -0.023(5) 0.025(6)
O14 0.106(9) 0.141(11) 0.066(7) -0.018(8) -0.028(7) 0.019(8)
O15 0.109(8) 0.080(7) 0.055(6) 0.004(5) -0.022(6) 0.038(6)
O16 0.110(8) 0.085(7) 0.046(6) -0.004(5) -0.041(6) 0.024(6)
O17 0.100(9) 0.062(6) 0.077(8) 0.024(6) -0.015(6) 0.019(6)
O18 0.161(13) 0.109(9) 0.053(7) 0.033(6) -0.033(7) 0.015(8)
O19 0.053(5) 0.115(8) 0.038(5) 0.017(5) -0.009(4) -0.017(5)
O20 0.034(5) 0.185(12) 0.051(5) 0.014(7) -0.010(5) -0.013(6)
O21 0.044(5) 0.112(8) 0.040(5) 0.000(5) -0.014(4) -0.014(5)
O22 0.070(7) 0.211(14) 0.059(7) 0.013(8) -0.021(6) -0.055(8)
O23 0.078(7) 0.148(10) 0.031(5) 0.022(6) -0.004(5) 0.008(7)
O24 0.041(5) 0.145(9) 0.041(5) 0.029(6) -0.019(4) -0.003(6)
O26W 0.21(2) 0.30(3) 0.069(9) 0.039(13) 0.013(11) -0.059(18)
O27W 0.122(13) 0.181(16) 0.22(2) -0.016(15) 0.004(13) -0.031(11)
O28W 0.214(19) 0.143(13) 0.181(18) 0.08