####################################################################### 
# 
# This file contains crystal structure data downloaded from the 
# Cambridge Structural Database (CSD) hosted by the Cambridge 
# Crystallographic Data Centre (CCDC).
# 
# Full information about CCDC data access policies and citation 
# guidelines are available at http://www.ccdc.cam.ac.uk/access/V1 
# 
# Audit and citation data items may have been added by the CCDC. 
# Please retain this information to preserve the provenance of 
# this file and to allow appropriate attribution of the data. 
# 
#######################################################################

data_2a
_audit_block_doi                 10.5517/ccx59v6
_database_code_depnum_ccdc_archive 'CCDC 839258'
loop_
_citation_id
_citation_doi
_citation_year
1 10.1021/cg101569a 2011
_audit_update_record             
;
2011-08-15 deposited with the CCDC.	2024-07-12 downloaded from the CCDC.
;

_audit_creation_method           SHELXL-97
_chemical_name_systematic        
;
?
;
_chemical_name_common            ?
_chemical_melting_point          ?
_chemical_formula_moiety         ?
_chemical_formula_sum            'C48 H39 N9 O27 Zn6'
_chemical_formula_weight         1566.10

loop_
_atom_type_symbol
_atom_type_description
_atom_type_scat_dispersion_real
_atom_type_scat_dispersion_imag
_atom_type_scat_source
C C 0.0033 0.0016 'International Tables Vol C Tables 4.2.6.8 and 6.1.1.4'
N N 0.0061 0.0033 'International Tables Vol C Tables 4.2.6.8 and 6.1.1.4'
O O 0.0106 0.0060 'International Tables Vol C Tables 4.2.6.8 and 6.1.1.4'
Zn Zn 0.2839 1.4301 'International Tables Vol C Tables 4.2.6.8 and 6.1.1.4'
H H 0.0000 0.0000 'International Tables Vol C Tables 4.2.6.8 and 6.1.1.4'

_symmetry_cell_setting           Monoclinic
_symmetry_space_group_name_H-M   P21

loop_
_symmetry_equiv_pos_as_xyz
'x, y, z'
'-x, y+1/2, -z'

_cell_length_a                   19.379(8)
_cell_length_b                   14.639(6)
_cell_length_c                   19.484(7)
_cell_angle_alpha                90.00
_cell_angle_beta                 116.046(6)
_cell_angle_gamma                90.00
_cell_volume                     4966(3)
_cell_formula_units_Z            2
_cell_measurement_temperature    293(2)
_cell_measurement_reflns_used    2591
_cell_measurement_theta_min      2.33
_cell_measurement_theta_max      21.22

_exptl_crystal_description       block
_exptl_crystal_colour            colorless
_exptl_crystal_size_max          0.22
_exptl_crystal_size_mid          0.21
_exptl_crystal_size_min          0.16
_exptl_crystal_density_meas      ?
_exptl_crystal_density_diffrn    1.047
_exptl_crystal_density_method    'not measured'
_exptl_crystal_F_000             1572
_exptl_absorpt_coefficient_mu    1.482
_exptl_absorpt_correction_type   multi-scan
_exptl_absorpt_correction_T_min  0.7364
_exptl_absorpt_correction_T_max  0.7975
_exptl_absorpt_process_details   SADABS

_exptl_special_details           
;
?
;

_diffrn_ambient_temperature      293(2)
_diffrn_radiation_wavelength     0.71073
_diffrn_radiation_type           MoK\a
_diffrn_radiation_source         'fine-focus sealed tube'
_diffrn_radiation_monochromator  graphite
_diffrn_measurement_device_type  ?
_diffrn_measurement_method       ?
_diffrn_detector_area_resol_mean ?
_diffrn_standards_number         ?
_diffrn_standards_interval_count ?
_diffrn_standards_interval_time  ?
_diffrn_standards_decay_%        ?
_diffrn_reflns_number            17517
_diffrn_reflns_av_R_equivalents  0.0588
_diffrn_reflns_av_sigmaI/netI    0.1429
_diffrn_reflns_limit_h_min       -21
_diffrn_reflns_limit_h_max       21
_diffrn_reflns_limit_k_min       -16
_diffrn_reflns_limit_k_max       11
_diffrn_reflns_limit_l_min       -20
_diffrn_reflns_limit_l_max       21
_diffrn_reflns_theta_min         1.17
_diffrn_reflns_theta_max         23.40
_reflns_number_total             10727
_reflns_number_gt                7315
_reflns_threshold_expression     >2sigma(I)

_computing_data_collection       ?
_computing_cell_refinement       ?
_computing_data_reduction        ?
_computing_structure_solution    'SHELXS-97 (Sheldrick, 1990)'
_computing_structure_refinement  'SHELXL-97 (Sheldrick, 1997)'
_computing_molecular_graphics    ?
_computing_publication_material  ?

_refine_special_details          
;
Refinement of F^2^ against ALL reflections. The weighted R-factor wR and
goodness of fit S are based on F^2^, conventional R-factors R are based
on F, with F set to zero for negative F^2^. The threshold expression of
F^2^ > 2sigma(F^2^) is used only for calculating R-factors(gt) etc. and is
not relevant to the choice of reflections for refinement. R-factors based
on F^2^ are statistically about twice as large as those based on F, and R-
factors based on ALL data will be even larger.
;

_refine_ls_structure_factor_coef Fsqd
_refine_ls_matrix_type           full
_refine_ls_weighting_scheme      calc
_refine_ls_weighting_details     
'calc w=1/[\s^2^(Fo^2^)+(0.1520P)^2^+0.0000P] where P=(Fo^2^+2Fc^2^)/3'
_atom_sites_solution_primary     direct
_atom_sites_solution_secondary   difmap
_atom_sites_solution_hydrogens   geom
_refine_ls_hydrogen_treatment    constr
_refine_ls_extinction_method     none
_refine_ls_extinction_coef       ?
_refine_ls_abs_structure_details 'Flack H D (1983), Acta Cryst. A39, 876-881'
_refine_ls_abs_structure_Flack   0.00
_refine_ls_number_reflns         10727
_refine_ls_number_parameters     817
_refine_ls_number_restraints     19
_refine_ls_R_factor_all          0.1056
_refine_ls_R_factor_gt           0.0797
_refine_ls_wR_factor_ref         0.2613
_refine_ls_wR_factor_gt          0.2406
_refine_ls_goodness_of_fit_ref   1.035
_refine_ls_restrained_S_all      1.035
_refine_ls_shift/su_max          0.000
_refine_ls_shift/su_mean         0.000

loop_
_atom_site_label
_atom_site_type_symbol
_atom_site_fract_x
_atom_site_fract_y
_atom_site_fract_z
_atom_site_U_iso_or_equiv
_atom_site_adp_type
_atom_site_occupancy
_atom_site_symmetry_multiplicity
_atom_site_calc_flag
_atom_site_refinement_flags
_atom_site_disorder_assembly
_atom_site_disorder_group
O11 O 0.0329(7) 0.4036(10) 0.1358(7) 0.047(3) Uani 1 1 d . . .
C17 C 0.1010(11) 0.4168(15) 0.1802(11) 0.041(5) Uani 1 1 d . . .
C16 C 0.1583(10) 0.3994(14) 0.1440(9) 0.038(5) Uani 1 1 d . . .
C15 C 0.1286(10) 0.3826(13) 0.0674(9) 0.038(5) Uani 1 1 d . . .
H15 H 0.0761 0.3846 0.0359 0.046 Uiso 1 1 calc R . .
C13 C 0.1807(11) 0.3629(13) 0.0401(9) 0.041(5) Uani 1 1 d . . .
C12 C 0.2578(9) 0.3594(12) 0.0843(9) 0.032(4) Uani 1 1 d . . .
H12 H 0.2909 0.3452 0.0628 0.038 Uiso 1 1 calc R . .
C11 C 0.2857(10) 0.3766(12) 0.1596(10) 0.035(4) Uani 1 1 d . . .
C10 C 0.3685(11) 0.3769(13) 0.2081(11) 0.043(5) Uani 1 1 d . . .
O7 O 0.3919(7) 0.3962(9) 0.2812(6) 0.046(3) Uani 1 1 d . . .
Zn5 Zn 0.58594(12) -0.23192(13) 0.24857(11) 0.0334(5) Uani 1 1 d . . .
Zn2 Zn 0.48916(12) 0.42923(13) 0.36575(11) 0.0320(5) Uani 1 1 d . . .
N9 N 0.9713(8) -0.4545(9) 0.2259(8) 0.029(3) Uani 1 1 d . . .
C46 C 0.9842(11) -0.4244(11) 0.2921(10) 0.035(4) Uani 1 1 d . . .
C47 C 0.9332(15) -0.3899(13) 0.1786(12) 0.057(7) Uani 1 1 d . . .
N8 N 0.9268(8) -0.3138(10) 0.2164(8) 0.034(4) Uani 1 1 d . . .
N7 N 0.9574(9) -0.3393(10) 0.2906(7) 0.033(4) Uani 1 1 d . . .
Zn1 Zn 0.52562(11) 0.36271(13) 0.21898(11) 0.0300(5) Uani 1 1 d . . .
Zn6 Zn 0.96783(11) 0.41305(13) 0.18855(11) 0.0307(5) Uani 1 1 d . . .
Zn3 Zn 0.86544(11) -0.20170(13) 0.17992(10) 0.0293(5) Uani 1 1 d . . .
Zn4 Zn 0.93101(12) -0.26420(13) 0.35888(10) 0.0339(5) Uani 1 1 d . . .
C37 C 0.5863(16) 0.5657(14) 0.1701(12) 0.066(8) Uani 1 1 d . . .
H37A H 0.5569 0.6126 0.1350 0.100 Uiso 1 1 calc R . .
H37B H 0.5735 0.5074 0.1451 0.100 Uiso 1 1 calc R . .
H37C H 0.6401 0.5774 0.1872 0.100 Uiso 1 1 calc R . .
C38 C 0.5693(12) 0.5653(13) 0.2335(10) 0.041(5) Uani 1 1 d . . .
C39 C 0.5543(11) 0.6046(12) 0.3321(10) 0.038(5) Uani 1 1 d . . .
C40 C 0.548(2) 0.6644(17) 0.3890(14) 0.100(12) Uani 1 1 d . . .
H40A H 0.5335 0.7247 0.3681 0.150 Uiso 1 1 calc R . .
H40B H 0.5960 0.6668 0.4337 0.150 Uiso 1 1 calc R . .
H40C H 0.5090 0.6409 0.4025 0.150 Uiso 1 1 calc R . .
C48 C 0.9044(14) -0.3885(14) 0.0914(10) 0.061(7) Uani 1 1 d . . .
H48A H 0.9440 -0.4112 0.0789 0.091 Uiso 1 1 calc R . .
H48B H 0.8917 -0.3270 0.0730 0.091 Uiso 1 1 calc R . .
H48C H 0.8597 -0.4265 0.0678 0.091 Uiso 1 1 calc R . .
C45 C 1.0253(14) -0.4773(14) 0.3643(11) 0.062(7) Uani 1 1 d . . .
H45A H 0.9968 -0.5317 0.3624 0.093 Uiso 1 1 calc R . .
H45B H 1.0300 -0.4405 0.4070 0.093 Uiso 1 1 calc R . .
H45C H 1.0755 -0.4938 0.3701 0.093 Uiso 1 1 calc R . .
C44 C 0.6616(11) -0.1897(19) 0.1185(10) 0.065(7) Uani 1 1 d . . .
H44A H 0.6293 -0.1397 0.1177 0.097 Uiso 1 1 calc R . .
H44B H 0.6305 -0.2424 0.0955 0.097 Uiso 1 1 calc R . .
H44C H 0.6900 -0.1734 0.0904 0.097 Uiso 1 1 calc R . .
C43 C 0.7171(11) -0.2114(13) 0.2002(10) 0.037(4) Uani 1 1 d . . .
C42 C 0.7583(11) -0.2549(13) 0.3121(9) 0.039(4) Uani 1 1 d . . .
C41 C 0.7594(12) -0.2823(18) 0.3857(10) 0.064(7) Uani 1 1 d . . .
H41A H 0.7705 -0.3464 0.3940 0.097 Uiso 1 1 calc R . .
H41B H 0.7101 -0.2701 0.3845 0.097 Uiso 1 1 calc R . .
H41C H 0.7982 -0.2482 0.4265 0.097 Uiso 1 1 calc R . .
C19 C 0.5571(11) 0.2509(13) 0.3555(11) 0.042(5) Uani 1 1 d . . .
C20 C 0.5700(9) 0.1579(12) 0.3859(10) 0.031(4) Uani 1 1 d . . .
C27 C 0.5782(11) 0.0904(12) 0.3412(10) 0.039(5) Uani 1 1 d . . .
H27 H 0.5798 0.1060 0.2957 0.046 Uiso 1 1 calc R . .
C25 C 0.5840(12) 0.0006(12) 0.3625(11) 0.039(5) Uani 1 1 d . . .
C26 C 0.5878(11) -0.0743(12) 0.3087(11) 0.042(5) Uani 1 1 d . . .
C24 C 0.5767(11) -0.0241(13) 0.4292(11) 0.043(5) Uani 1 1 d . . .
H24 H 0.5753 -0.0851 0.4420 0.052 Uiso 1 1 calc R . .
C22 C 0.5716(11) 0.0469(12) 0.4756(10) 0.036(4) Uani 1 1 d . . .
C23 C 0.5648(13) 0.0208(14) 0.5482(13) 0.050(6) Uani 1 1 d . . .
C21 C 0.5674(11) 0.1341(13) 0.4552(10) 0.040(5) Uani 1 1 d . . .
H21 H 0.5628 0.1795 0.4864 0.048 Uiso 1 1 calc R . .
C1 C 0.6080(12) 0.3401(12) 0.1471(12) 0.041(5) Uani 1 1 d . . .
C2 C 0.6345(10) 0.3323(12) 0.0855(9) 0.032(4) Uani 1 1 d . . .
C3 C 0.5847(12) 0.3137(14) 0.0124(11) 0.046(5) Uani 1 1 d . . .
H3 H 0.5344 0.2983 0.0016 0.056 Uiso 1 1 calc R . .
C4 C 0.6064(10) 0.3165(13) -0.0499(10) 0.036(4) Uani 1 1 d . . .
C5 C 0.5524(10) 0.2976(14) -0.1277(9) 0.036(4) Uani 1 1 d . . .
C6 C 0.6858(11) 0.3329(12) -0.0267(9) 0.036(4) Uani 1 1 d . . .
H6 H 0.7038 0.3331 -0.0638 0.044 Uiso 1 1 calc R . .
C7 C 0.7362(10) 0.3480(14) 0.0461(11) 0.046(5) Uani 1 1 d . . .
C9 C 0.7106(11) 0.3458(13) 0.1053(10) 0.042(5) Uani 1 1 d . . .
H9 H 0.7455 0.3535 0.1562 0.050 Uiso 1 1 calc R . .
C8 C 0.8193(11) 0.3677(14) 0.0707(12) 0.045(5) Uani 1 1 d . . .
C14 C 0.1474(13) 0.3412(14) -0.0467(10) 0.046(5) Uani 1 1 d . . .
C18 C 0.2353(9) 0.3964(12) 0.1900(9) 0.032(4) Uani 1 1 d . . .
H18 H 0.2539 0.4077 0.2420 0.039 Uiso 1 1 calc R . .
C32 C 0.9736(12) 0.2462(13) 0.2504(10) 0.042(5) Uani 1 1 d . . .
C31 C 0.9838(10) 0.1754(13) 0.3035(9) 0.034(4) Uani 1 1 d . . .
C30 C 0.9665(11) 0.0865(11) 0.2807(10) 0.037(5) Uani 1 1 d . . .
H30 H 0.9491 0.0722 0.2293 0.045 Uiso 1 1 calc R . .
C29 C 0.9742(11) 0.0165(12) 0.3324(10) 0.036(4) Uani 1 1 d . . .
C28 C 0.9502(10) -0.0790(12) 0.3048(10) 0.034(4) Uani 1 1 d . . .
C36 C 0.9992(12) 0.0391(12) 0.4071(9) 0.039(5) Uani 1 1 d . . .
H36 H 1.0044 -0.0065 0.4422 0.047 Uiso 1 1 calc R . .
C34 C 1.0170(11) 0.1265(13) 0.4317(9) 0.039(5) Uani 1 1 d . . .
C35 C 1.0427(14) 0.1454(14) 0.5141(11) 0.049(5) Uani 1 1 d . . .
C33 C 1.0081(11) 0.1932(13) 0.3799(10) 0.040(5) Uani 1 1 d . . .
H33 H 1.0188 0.2533 0.3968 0.048 Uiso 1 1 calc R . .
N1 N 0.5374(9) 0.5159(9) 0.3212(7) 0.031(4) Uani 1 1 d . . .
N2 N 0.5445(9) 0.4905(9) 0.2581(9) 0.036(4) Uani 1 1 d . . .
N3 N 0.5717(10) 0.6361(10) 0.2775(8) 0.042(4) Uani 1 1 d . . .
N5 N 0.7908(9) -0.2202(10) 0.2264(7) 0.034(4) Uani 1 1 d . . .
N4 N 0.8173(8) -0.2465(10) 0.2985(7) 0.028(3) Uani 1 1 d . . .
N6 N 0.6925(8) -0.2317(10) 0.2522(7) 0.033(3) Uani 1 1 d . . .
O14 O 0.5603(8) 0.2673(9) 0.2953(7) 0.049(4) Uani 1 1 d . . .
O13 O 0.5448(8) 0.3123(8) 0.3968(7) 0.047(3) Uani 1 1 d . . .
O18 O 0.5914(10) -0.0501(9) 0.2514(7) 0.061(4) Uani 1 1 d . . .
O17 O 0.5882(8) -0.1548(8) 0.3326(7) 0.044(3) Uani 1 1 d . . .
O15 O 0.5964(12) 0.0697(13) 0.6041(9) 0.089(6) Uani 1 1 d . . .
O16 O 0.5253(9) -0.0472(11) 0.5441(7) 0.062(4) Uani 1 1 d . . .
O2 O 0.6520(8) 0.3514(10) 0.2127(7) 0.056(4) Uani 1 1 d . . .
O1 O 0.5347(8) 0.3325(9) 0.1246(7) 0.048(4) Uani 1 1 d . . .
O3 O 0.4866(7) 0.2777(9) -0.1406(6) 0.041(3) Uani 1 1 d . . .
O4 O 0.5745(8) 0.3057(15) -0.1770(7) 0.083(6) Uani 1 1 d . . .
O5 O 0.8556(7) 0.4075(10) 0.1315(7) 0.049(3) Uani 1 1 d . . .
O6 O 0.8429(8) 0.3509(14) 0.0206(9) 0.085(6) Uani 1 1 d . . .
O12 O 0.1277(8) 0.4372(14) 0.2465(8) 0.079(6) Uani 1 1 d . . .
O8 O 0.4128(7) 0.3606(11) 0.1799(7) 0.051(4) Uani 1 1 d . . .
O9 O 0.1962(8) 0.3233(9) -0.0719(6) 0.045(3) Uani 1 1 d . . .
O10 O 0.0781(8) 0.3398(11) -0.0843(7) 0.057(4) Uani 1 1 d . . .
O23 O 0.9858(8) 0.3272(8) 0.2726(7) 0.044(3) Uani 1 1 d . . .
O24 O 0.9537(11) 0.2280(10) 0.1811(8) 0.073(5) Uani 1 1 d . . .
O22 O 1.0319(9) 0.2248(10) 0.5323(7) 0.058(4) Uani 1 1 d . . .
O21 O 1.0788(11) 0.0917(11) 0.5640(8) 0.075(5) Uani 1 1 d . . .
O19 O 0.9661(8) -0.1385(9) 0.3565(7) 0.053(4) Uani 1 1 d . . .
O20 O 0.9197(8) -0.0914(8) 0.2367(7) 0.046(3) Uani 1 1 d . . .
O29 O 0.308(3) 0.108(3) 0.084(3) 0.32(2) Uani 1 1 d U . .
O27 O 0.2248(17) 0.055(2) 0.8349(18) 0.194(13) Uani 1 1 d U . .
O26 O 0.188(3) 0.866(3) 0.611(3) 0.32(2) Uani 1 1 d U . .

loop_
_atom_site_aniso_label
_atom_site_aniso_U_11
_atom_site_aniso_U_22
_atom_site_aniso_U_33
_atom_site_aniso_U_23
_atom_site_aniso_U_13
_atom_site_aniso_U_12
O11 0.037(8) 0.072(10) 0.044(8) -0.009(7) 0.027(7) -0.003(7)
C17 0.032(12) 0.058(13) 0.047(12) 0.006(10) 0.030(11) 0.011(10)
C16 0.036(11) 0.059(13) 0.025(9) -0.007(8) 0.019(9) 0.004(9)
C15 0.037(11) 0.060(13) 0.024(9) 0.001(8) 0.021(9) -0.010(9)
C13 0.061(14) 0.041(11) 0.019(9) -0.008(8) 0.016(10) -0.011(10)
C12 0.030(10) 0.042(10) 0.025(9) -0.017(8) 0.013(8) -0.003(8)
C11 0.032(10) 0.038(11) 0.039(10) -0.008(8) 0.020(9) -0.008(8)
C10 0.047(13) 0.035(11) 0.049(12) 0.004(9) 0.022(11) 0.004(9)
O7 0.040(8) 0.071(10) 0.026(7) -0.009(6) 0.013(6) -0.003(7)
Zn5 0.0415(13) 0.0327(12) 0.0318(11) 0.0027(9) 0.0213(10) 0.0033(9)
Zn2 0.0434(12) 0.0316(11) 0.0292(11) -0.0005(9) 0.0235(10) -0.0013(9)
N9 0.034(9) 0.024(8) 0.029(8) 0.007(7) 0.012(7) 0.007(6)
C46 0.055(12) 0.020(10) 0.029(11) -0.001(8) 0.019(10) -0.004(8)
C47 0.11(2) 0.032(12) 0.062(14) -0.010(11) 0.072(15) -0.007(12)
N8 0.039(9) 0.031(9) 0.030(9) 0.003(7) 0.012(7) 0.004(7)
N7 0.043(10) 0.035(9) 0.020(8) -0.001(6) 0.013(7) 0.013(7)
Zn1 0.0374(12) 0.0320(11) 0.0271(10) -0.0013(9) 0.0202(10) -0.0005(9)
Zn6 0.0340(12) 0.0297(11) 0.0329(11) -0.0013(9) 0.0187(10) 0.0006(9)
Zn3 0.0375(12) 0.0282(11) 0.0227(10) 0.0022(8) 0.0138(9) -0.0003(9)
Zn4 0.0492(14) 0.0282(11) 0.0231(10) 0.0006(8) 0.0148(10) 0.0012(9)
C37 0.15(3) 0.028(11) 0.063(15) -0.006(10) 0.086(18) -0.014(13)
C38 0.057(14) 0.024(10) 0.032(10) -0.007(8) 0.010(10) -0.005(9)
C39 0.051(13) 0.029(11) 0.043(11) 0.013(9) 0.030(10) -0.004(9)
C40 0.22(4) 0.053(15) 0.087(19) -0.034(14) 0.12(2) -0.044(19)
C48 0.11(2) 0.036(12) 0.029(11) 0.003(9) 0.026(13) 0.008(12)
C45 0.077(17) 0.054(14) 0.029(11) -0.005(10) 0.001(11) 0.037(12)
C44 0.035(12) 0.12(2) 0.038(11) 0.028(13) 0.017(10) 0.008(13)
C43 0.045(12) 0.042(11) 0.035(10) 0.011(9) 0.029(10) -0.001(9)
C42 0.042(12) 0.043(11) 0.025(10) 0.013(8) 0.009(9) 0.002(9)
C41 0.051(14) 0.12(2) 0.030(11) 0.001(12) 0.024(11) -0.001(13)
C19 0.047(12) 0.035(11) 0.051(12) 0.002(9) 0.027(11) 0.014(9)
C20 0.021(9) 0.034(10) 0.038(10) 0.001(8) 0.013(9) 0.002(7)
C27 0.059(13) 0.042(12) 0.041(11) 0.006(9) 0.046(11) 0.005(9)
C25 0.065(14) 0.022(10) 0.044(11) 0.002(8) 0.037(11) 0.006(9)
C26 0.062(13) 0.023(10) 0.057(13) 0.001(9) 0.042(11) 0.017(9)
C24 0.068(14) 0.028(10) 0.055(13) 0.014(9) 0.047(12) 0.012(9)
C22 0.059(13) 0.034(11) 0.030(10) 0.004(8) 0.034(10) 0.012(9)
C23 0.073(16) 0.039(12) 0.065(16) 0.013(11) 0.057(14) 0.014(11)
C21 0.045(12) 0.043(12) 0.036(11) 0.003(9) 0.022(10) -0.002(9)
C1 0.066(15) 0.022(10) 0.059(14) 0.006(9) 0.049(13) 0.005(9)
C2 0.037(11) 0.037(11) 0.030(10) -0.002(8) 0.022(9) -0.005(8)
C3 0.052(13) 0.052(13) 0.050(12) -0.021(10) 0.037(11) -0.016(10)
C4 0.026(10) 0.052(12) 0.038(10) 0.006(9) 0.022(9) 0.004(8)
C5 0.026(10) 0.066(13) 0.018(9) -0.010(9) 0.012(8) 0.003(9)
C6 0.047(12) 0.047(11) 0.021(9) -0.011(8) 0.021(9) -0.007(9)
C7 0.034(11) 0.052(13) 0.062(14) -0.011(10) 0.032(11) -0.001(9)
C9 0.057(14) 0.044(12) 0.032(10) -0.008(9) 0.027(10) -0.006(10)
C8 0.041(12) 0.052(12) 0.064(14) 0.002(11) 0.043(12) -0.007(10)
C14 0.058(15) 0.051(13) 0.017(9) -0.006(9) 0.007(10) -0.001(10)
C18 0.019(9) 0.056(12) 0.026(9) -0.015(8) 0.014(8) -0.009(8)
C32 0.062(14) 0.029(12) 0.035(11) -0.001(9) 0.022(10) 0.000(9)
C31 0.032(11) 0.050(13) 0.026(10) -0.002(8) 0.019(9) -0.010(9)
C30 0.053(13) 0.021(10) 0.036(11) -0.004(8) 0.019(10) 0.003(8)
C29 0.039(12) 0.029(10) 0.031(10) 0.001(8) 0.008(9) -0.007(8)
C28 0.046(11) 0.025(10) 0.034(11) -0.014(9) 0.019(9) -0.013(9)
C36 0.072(15) 0.025(10) 0.021(9) 0.003(8) 0.022(10) -0.005(9)
C34 0.049(12) 0.039(12) 0.024(9) 0.001(9) 0.012(9) 0.010(9)
C35 0.084(17) 0.031(12) 0.037(12) -0.011(10) 0.030(12) -0.013(11)
C33 0.048(12) 0.032(10) 0.034(11) -0.011(8) 0.013(10) -0.021(9)
N1 0.058(10) 0.023(8) 0.027(8) 0.001(6) 0.033(8) -0.002(7)
N2 0.050(10) 0.018(8) 0.053(10) 0.002(7) 0.035(9) -0.001(7)
N3 0.064(12) 0.024(8) 0.044(10) -0.007(7) 0.030(9) -0.011(7)
N5 0.056(11) 0.032(9) 0.023(8) 0.000(6) 0.026(8) -0.001(7)
N4 0.027(8) 0.041(9) 0.018(7) 0.004(6) 0.011(6) 0.008(7)
N6 0.035(9) 0.042(9) 0.029(8) -0.008(7) 0.020(7) 0.002(7)
O14 0.085(10) 0.042(8) 0.038(7) 0.019(6) 0.042(8) 0.011(7)
O13 0.066(9) 0.027(7) 0.051(8) 0.000(6) 0.028(7) 0.014(6)
O18 0.120(14) 0.046(9) 0.038(8) 0.007(6) 0.055(9) 0.018(8)
O17 0.078(10) 0.024(7) 0.040(7) -0.002(6) 0.035(7) 0.007(6)
O15 0.155(1