####################################################################### 
# 
# This file contains crystal structure data downloaded from the 
# Cambridge Structural Database (CSD) hosted by the Cambridge 
# Crystallographic Data Centre (CCDC).
# 
# Full information about CCDC data access policies and citation 
# guidelines are available at http://www.ccdc.cam.ac.uk/access/V1 
# 
# Audit and citation data items may have been added by the CCDC. 
# Please retain this information to preserve the provenance of 
# this file and to allow appropriate attribution of the data. 
# 
#######################################################################

data_Cu-TBA-1
_audit_block_doi                 10.5517/ccw7rhb
_database_code_depnum_ccdc_archive 'CCDC 811812'
loop_
_citation_id
_citation_doi
_citation_year
1 10.1021/cm2004352 2011
_audit_update_record             
;
2011-02-05 deposited with the CCDC.	2024-07-12 downloaded from the CCDC.
;
#TrackingRef 'Cu-TBA-1.cif'


_audit_creation_method           SHELXL-97
_chemical_name_systematic        
;
?
;
_chemical_name_common            ?
_chemical_melting_point          ?
_chemical_formula_moiety         'C86 H50 Cu9 N40 O22'
_chemical_formula_sum            'C86 H50 Cu9 N40 O22'
_chemical_formula_weight         2567.52

loop_
_atom_type_symbol
_atom_type_description
_atom_type_scat_dispersion_real
_atom_type_scat_dispersion_imag
_atom_type_scat_source
C C 0.0033 0.0016 'International Tables Vol C Tables 4.2.6.8 and 6.1.1.4'
Cu Cu 0.3201 1.2651 'International Tables Vol C Tables 4.2.6.8 and 6.1.1.4'
N N 0.0061 0.0033 'International Tables Vol C Tables 4.2.6.8 and 6.1.1.4'
O O 0.0106 0.0060 'International Tables Vol C Tables 4.2.6.8 and 6.1.1.4'
H H 0.0000 0.0000 'International Tables Vol C Tables 4.2.6.8 and 6.1.1.4'

_symmetry_cell_setting           Orthorhombic
_symmetry_space_group_name_H-M   Pnn2

loop_
_symmetry_equiv_pos_as_xyz
'x, y, z'
'-x, -y, z'
'-x+1/2, y+1/2, z+1/2'
'x+1/2, -y+1/2, z+1/2'

_cell_length_a                   13.464(8)
_cell_length_b                   29.985(17)
_cell_length_c                   19.717(11)
_cell_angle_alpha                90.00
_cell_angle_beta                 90.00
_cell_angle_gamma                90.00
_cell_volume                     7960(8)
_cell_formula_units_Z            2
_cell_measurement_temperature    293(2)
_cell_measurement_reflns_used    3578
_cell_measurement_theta_min      2.28
_cell_measurement_theta_max      18.92

_exptl_crystal_description       block
_exptl_crystal_colour            green
_exptl_crystal_size_max          0.16
_exptl_crystal_size_mid          0.14
_exptl_crystal_size_min          0.12
_exptl_crystal_density_meas      ?
_exptl_crystal_density_diffrn    1.071
_exptl_crystal_density_method    'not measured'
_exptl_crystal_F_000             2566
_exptl_absorpt_coefficient_mu    1.235
_exptl_absorpt_correction_type   multi-scan
_exptl_absorpt_correction_T_min  0.7076
_exptl_absorpt_correction_T_max  0.8787
_exptl_absorpt_process_details   'Blessing, Acta Cryst. (1995) A51 33-58'

_exptl_special_details           
;
?
;

_diffrn_ambient_temperature      293(2)
_diffrn_radiation_wavelength     0.71073
_diffrn_radiation_type           MoK\a
_diffrn_radiation_source         'fine-focus sealed tube'
_diffrn_radiation_monochromator  graphite
_diffrn_measurement_device_type  ?
_diffrn_measurement_method       ?
_diffrn_detector_area_resol_mean ?
_diffrn_standards_number         ?
_diffrn_standards_interval_count ?
_diffrn_standards_interval_time  ?
_diffrn_standards_decay_%        ?
_diffrn_reflns_number            54913
_diffrn_reflns_av_R_equivalents  0.1456
_diffrn_reflns_av_sigmaI/netI    0.1824
_diffrn_reflns_limit_h_min       -16
_diffrn_reflns_limit_h_max       15
_diffrn_reflns_limit_k_min       -35
_diffrn_reflns_limit_k_max       35
_diffrn_reflns_limit_l_min       -23
_diffrn_reflns_limit_l_max       23
_diffrn_reflns_theta_min         1.24
_diffrn_reflns_theta_max         25.00
_reflns_number_total             13908
_reflns_number_gt                7177
_reflns_threshold_expression     >2sigma(I)

_computing_data_collection       'Bruker SMART'
_computing_cell_refinement       'Bruker SMART'
_computing_data_reduction        'Bruker SAINT'
_computing_structure_solution    'Bruker SHELXTL'
_computing_structure_refinement  'Bruker SHELXTL'
_computing_molecular_graphics    'Bruker SHELXTL'
_computing_publication_material  'Bruker SHELXTL'


_refine_special_details          
;
Refinement of F^2^ against ALL reflections. The weighted R-factor wR and
goodness of fit S are based on F^2^, conventional R-factors R are based
on F, with F set to zero for negative F^2^. The threshold expression of
F^2^ > 2sigma(F^2^) is used only for calculating R-factors(gt) etc. and is
not relevant to the choice of reflections for refinement. R-factors based
on F^2^ are statistically about twice as large as those based on F, and R-
factors based on ALL data will be even larger.
;

_refine_ls_structure_factor_coef Fsqd
_refine_ls_matrix_type           full
_refine_ls_weighting_scheme      calc
_refine_ls_weighting_details     
'calc w=1/[\s^2^(Fo^2^)+(0.0828P)^2^+0.0000P] where P=(Fo^2^+2Fc^2^)/3'
_atom_sites_solution_primary     direct
_atom_sites_solution_secondary   difmap
_atom_sites_solution_hydrogens   geom
_refine_ls_hydrogen_treatment    constr
_refine_ls_extinction_method     none
_refine_ls_extinction_coef       ?
_refine_ls_abs_structure_details 'Flack H D (1983), Acta Cryst. A39, 876-881'
_refine_ls_abs_structure_Flack   0.52(3)
_refine_ls_number_reflns         13908
_refine_ls_number_parameters     262
_refine_ls_number_restraints     10
_refine_ls_R_factor_all          0.1304
_refine_ls_R_factor_gt           0.0778
_refine_ls_wR_factor_ref         0.1943
_refine_ls_wR_factor_gt          0.1731
_refine_ls_goodness_of_fit_ref   0.910
_refine_ls_restrained_S_all      0.909
_refine_ls_shift/su_max          0.048
_refine_ls_shift/su_mean         0.003

loop_
_atom_site_label
_atom_site_type_symbol
_atom_site_fract_x
_atom_site_fract_y
_atom_site_fract_z
_atom_site_U_iso_or_equiv
_atom_site_adp_type
_atom_site_occupancy
_atom_site_symmetry_multiplicity
_atom_site_calc_flag
_atom_site_refinement_flags
_atom_site_disorder_assembly
_atom_site_disorder_group
C1A C 0.3318(12) 0.4535(6) 0.6875(8) 0.050 Uiso 1 1 d . . .
C1 C 0.2321(6) 0.5094(2) 0.8412(4) 0.051 Uiso 1 1 d G . .
H1 H 0.2353 0.5369 0.8627 0.061 Uiso 1 1 calc R . .
C2 C 0.2848(6) 0.5021(3) 0.7817(4) 0.043(4) Uiso 1 1 d G . .
H2 H 0.3234 0.5248 0.7633 0.051 Uiso 1 1 calc R . .
C3 C 0.2800(6) 0.4608(3) 0.7496(3) 0.025(3) Uiso 1 1 d G . .
C4 C 0.2224(7) 0.4269(2) 0.7772(5) 0.084(6) Uiso 1 1 d G . .
H4 H 0.2192 0.3993 0.7557 0.101 Uiso 1 1 calc R . .
C5 C 0.1697(6) 0.4342(3) 0.8367(5) 0.100(7) Uiso 1 1 d G . .
H5 H 0.1311 0.4115 0.8551 0.120 Uiso 1 1 calc R . .
C6 C 0.1745(5) 0.4754(3) 0.8688(3) 0.010 Uiso 1 1 d G . .
C7 C 0.1188(11) 0.4832(5) 0.9360(7) 0.022(4) Uiso 1 1 d . . .
C8 C -0.1312(14) 0.5140(7) 1.1202(10) 0.047(5) Uiso 1 1 d . . .
C9 C -0.1476(12) 0.3773(5) 1.0517(8) 0.075(5) Uiso 1 1 d . . .
C10 C -0.093(3) 0.2976(11) 1.0557(19) 0.28(2) Uiso 1 1 d . . .
H10A H -0.0281 0.3106 1.0537 0.417 Uiso 1 1 calc R . .
H10B H -0.0923 0.2691 1.0335 0.417 Uiso 1 1 calc R . .
H10C H -0.1124 0.2938 1.1022 0.417 Uiso 1 1 calc R . .
C11 C 1.0192(9) 0.8038(4) 0.9374(6) 0.010 Uiso 1 1 d . . .
C12 C 1.0630(6) 0.7831(3) 0.8728(4) 0.010 Uiso 1 1 d GD . .
C13 C 1.1493(6) 0.7980(3) 0.8414(5) 0.016 Uiso 1 1 d GD . .
H13 H 1.1850 0.8216 0.8602 0.020 Uiso 1 1 calc R . .
C14 C 1.1821(6) 0.7778(4) 0.7821(5) 0.117(8) Uiso 1 1 d GD . .
H14 H 1.2398 0.7878 0.7611 0.141 Uiso 1 1 calc R . .
C15 C 1.1286(7) 0.7427(4) 0.7541(4) 0.045(4) Uiso 1 1 d GD . .
C16 C 1.0423(7) 0.7278(3) 0.7855(4) 0.026(3) Uiso 1 1 d GD . .
H16 H 1.0066 0.7043 0.7667 0.031 Uiso 1 1 calc R . .
C17 C 1.0095(5) 0.7480(3) 0.8448(4) 0.031(3) Uiso 1 1 d GD . .
H17 H 0.9518 0.7380 0.8658 0.037 Uiso 1 1 calc R . .
C17A C 1.1711(12) 0.7201(5) 0.3674(8) 0.039(5) Uiso 1 1 d . . .
C18 C 1.1536(9) 0.7270(4) 0.6853(6) 0.015(3) Uiso 1 1 d . . .
C19 C 0.7182(6) 0.4401(3) 0.5330(10) 0.020(2) Uiso 1 1 d . . .
C20 C 0.7899(3) 0.47722(15) 0.5333(5) 0.006 Uiso 1 1 d GD . .
C21 C 0.8141(6) 0.4995(2) 0.5929(4) 0.046 Uiso 1 1 d GD . .
H21 H 0.7869 0.4903 0.6339 0.055 Uiso 1 1 calc R . .
C22 C 0.8791(6) 0.5355(2) 0.5911(5) 0.018 Uiso 1 1 d GD . .
H22 H 0.8953 0.5504 0.6309 0.021 Uiso 1 1 calc R . .
C23 C 0.9199(4) 0.54923(17) 0.5298(6) 0.067 Uiso 1 1 d GD . .
C24 C 0.8957(6) 0.5269(3) 0.4702(5) 0.036 Uiso 1 1 d GD . .
H24 H 0.9229 0.5361 0.4292 0.043 Uiso 1 1 calc R . .
C25 C 0.8307(6) 0.4909(2) 0.4720(4) 0.032 Uiso 1 1 d GD . .
H25 H 0.8145 0.4760 0.4321 0.039 Uiso 1 1 calc R . .
C26 C 0.9929(5) 0.5858(2) 0.5369(7) 0.013(2) Uiso 1 1 d . . .
C27 C 1.1236(9) 0.7476(4) 0.3089(6) 0.024 Uiso 1 1 d . . .
C28 C 1.1816(7) 0.7772(3) 0.2760(5) 0.010 Uiso 1 1 d . . .
H28 H 1.2429 0.7855 0.2936 0.012 Uiso 1 1 calc R . .
C29 C 1.148(2) 0.7948(9) 0.2157(13) 0.130(9) Uiso 1 1 d . . .
H29 H 1.1896 0.8133 0.1906 0.156 Uiso 1 1 calc R . .
C30 C 1.0539(15) 0.7856(6) 0.1916(9) 0.065(5) Uiso 1 1 d . . .
C31 C 0.9967(10) 0.7599(5) 0.2272(7) 0.040(4) Uiso 1 1 d . . .
H31 H 0.9326 0.7546 0.2116 0.048 Uiso 1 1 calc R . .
C32 C 1.0272(10) 0.7397(4) 0.2885(7) 0.038(4) Uiso 1 1 d . . .
H32 H 0.9844 0.7219 0.3138 0.046 Uiso 1 1 calc R . .
C33 C 1.0317(12) 0.8127(6) 0.1248(9) 0.046(4) Uiso 1 1 d . . .
C39 C -0.2022(7) 0.5240(3) 1.1766(4) 0.056 Uiso 1 1 d GD . .
C40 C -0.2500(7) 0.4882(3) 1.2074(5) 0.050 Uiso 1 1 d GD . .
H40 H -0.2455 0.4598 1.1885 0.060 Uiso 1 1 calc R . .
C41 C -0.3044(7) 0.4948(3) 1.2664(5) 0.050 Uiso 1 1 d GD . .
H41 H -0.3364 0.4709 1.2870 0.060 Uiso 1 1 calc R . .
C42 C -0.3111(7) 0.5372(3) 1.2947(4) 0.050 Uiso 1 1 d GD . .
C43 C -0.2634(7) 0.5729(2) 1.2639(5) 0.050 Uiso 1 1 d GD . .
H43 H -0.2678 0.6013 1.2827 0.060 Uiso 1 1 calc R . .
C44 C -0.2089(7) 0.5663(3) 1.2048(5) 0.050 Uiso 1 1 d GD . .
H44 H -0.1769 0.5902 1.1842 0.060 Uiso 1 1 calc R . .
Cu1 Cu 0.5000 0.5000 0.52798(17) 0.0131(3) Uani 1 2 d S . .
Cu2 Cu 1.11557(7) 0.64195(3) 0.53057(13) 0.0173(2) Uani 1 1 d . . .
Cu3 Cu 0.43115(7) 0.38082(3) 0.53164(13) 0.0191(3) Uani 1 1 d . . .
Cu4 Cu 0.65019(7) 0.30069(3) 0.53105(13) 0.0198(3) Uani 1 1 d . . .
Cu5 Cu -0.02667(7) 0.45784(3) 1.03010(14) 0.0244(3) Uani 1 1 d . . .
N1 N 0.3403(12) 0.4165(5) 0.6582(8) 0.063(6) Uiso 1 1 d . . .
N2 N 0.3768(8) 0.4872(4) 0.6567(6) 0.035(3) Uiso 1 1 d . . .
N3 N 0.4181(7) 0.4659(3) 0.6074(5) 0.021(3) Uiso 1 1 d . . .
N4 N 0.3978(7) 0.4267(3) 0.6040(5) 0.019(3) Uiso 1 1 d . . .
N5 N 0.5883(4) 0.4007(2) 0.5239(6) 0.0114(17) Uiso 1 1 d . . .
N6 N 0.6222(4) 0.44276(18) 0.5251(6) 0.0076(15) Uiso 1 1 d . . .
N7 N 0.7475(5) 0.3970(2) 0.5220(5) 0.0131(18) Uiso 1 1 d . . .
N8 N 0.6617(5) 0.3730(2) 0.5325(9) 0.0199(16) Uiso 1 1 d . . .
N12 N 0.5969(6) 0.5113(2) 0.4005(4) 0.016(3) Uiso 1 1 d G . .
N9 N 0.5708(6) 0.5311(3) 0.4636(3) 0.017(3) Uiso 1 1 d G . .
N10 N 0.6070(7) 0.5755(2) 0.4638(4) 0.041(4) Uiso 1 1 d G . .
N11 N 0.6554(7) 0.5833(2) 0.4009(5) 0.029(4) Uiso 1 1 d G . .
C2A C 0.6491(6) 0.5436(3) 0.3618(3) 0.031(3) Uiso 1 1 d G . .
N13 N 1.1543(7) 0.6841(4) 0.4577(5) 0.008(3) Uiso 1 1 d . . .
N14 N 1.2440(8) 0.7039(4) 0.4555(5) 0.017(3) Uiso 1 1 d . . .
N15 N 1.2479(9) 0.7285(4) 0.3975(6) 0.028(3) Uiso 1 1 d . . .
N16 N 1.0987(7) 0.6926(3) 0.4031(4) 0.005(2) Uiso 1 1 d . . .
N17 N 1.1665(9) 0.6813(5) 0.6019(7) 0.033(4) Uiso 1 1 d . . .
N18 N 1.2393(10) 0.7104(4) 0.6023(7) 0.032(4) Uiso 1 1 d . . .
N19 N 1.2418(7) 0.7370(3) 0.6520(5) 0.012(2) Uiso 1 1 d . . .
N20 N 1.1135(11) 0.6958(6) 0.6546(8) 0.062(5) Uiso 1 1 d . . .
C46 C -0.1682(12) 0.3285(5) 1.0198(13) 0.093(6) Uiso 1 1 d . . .
H46A H -0.2359 0.3190 1.0287 0.111 Uiso 1 1 calc R . .
H46B H -0.1572 0.3286 0.9711 0.111 Uiso 1 1 calc R . .
O1 O 0.9427(6) 0.7869(3) 0.9621(4) 0.023(2) Uiso 1 1 d . . .
O2 O 1.0925(8) 0.8328(4) 0.9698(5) 0.056(3) Uiso 1 1 d . . .
O3 O 0.9467(10) 0.7969(4) 0.1063(7) 0.072(4) Uiso 1 1 d . . .
O4 O 1.0651(6) 0.8386(3) 0.1042(4) 0.022(2) Uiso 1 1 d . . .
O5 O 0.0847(7) 0.4503(3) 0.9611(5) 0.029(3) Uiso 1 1 d . . .
O6 O 0.1305(7) 0.5247(4) 0.9646(5) 0.043(3) Uiso 1 1 d . . .
O7 O 1.0259(9) 0.6032(4) 0.5823(6) 0.039(3) Uiso 1 1 d . . .
O8 O 1.0262(7) 0.6016(3) 0.4748(5) 0.016(2) Uiso 1 1 d . . .
O9 O -0.0667(6) 0.3907(2) 1.0391(7) 0.053(2) Uiso 1 1 d . . .
O10 O -0.1106(7) 0.4767(4) 1.1039(5) 0.036(3) Uiso 1 1 d . . .
O11 O 0.0649(8) 0.4537(4) 1.1027(6) 0.043(3) Uiso 1 1 d . . .

loop_
_atom_site_aniso_label
_atom_site_aniso_U_11
_atom_site_aniso_U_22
_atom_site_aniso_U_33
_atom_site_aniso_U_23
_atom_site_aniso_U_13
_atom_site_aniso_U_12
Cu1 0.0164(8) 0.0134(7) 0.0096(7) 0.000 0.000 0.0004(6)
Cu2 0.0195(5) 0.0151(5) 0.0171(5) -0.0006(13) 0.0040(12) -0.0022(4)
Cu3 0.0257(6) 0.0152(5) 0.0162(5) 0.0051(12) -0.0081(12) -0.0026(4)
Cu4 0.0223(6) 0.0192(5) 0.0180(5) -0.0009(13) -0.0065(12) -0.0034(5)
Cu5 0.0260(6) 0.0297(6) 0.0175(6) 0.0061(14) 0.0006(13) 0.0021(5)

_geom_special_details            
;
All esds (except the esd in the dihedral angle between two l.s. planes)
are estimated using the full covariance matrix. The cell esds are taken
into account individually in the estimation of esds in distances, angles
and torsion angles; correlations between esds in cell parameters are only
used when they are defined by crystal symmetry. An approximate (isotropic)
treatment of cell esds is used for estimating esds involving l.s. planes.
;

loop_
_geom_bond_atom_site_label_1
_geom_bond_atom_site_label_2
_geom_bond_distance
_geom_bond_site_symmetry_2
_geom_bond_publ_flag
C1A N1 1.257(17) . ?
C1A N2 1.325(16) . ?
C1A C3 1.426(16) . ?
C1 C2 1.3900 . ?
C1 C6 1.3900 . ?
C1 H1 0.9300 . ?
C2 C3 1.3900 . ?
C2 H2 0.9300 . ?
C3 C4 1.3900 . ?
C4 C5 1.3900 . ?
C4 H4 0.9300 . ?
C5 C6 1.3900 . ?
C5 H5 0.9300 . ?
C6 C7 1.541(16) . ?
C7 O5 1.194(17) . ?
C7 O6 1.378(18) . ?
C8 O10 1.20(2) . ?
C8 O11 1.36(2) 2_565 ?
C8 C39 1.50(2) . ?
C9 O9 1.187(15) . ?
C9 C46 1.618(19) . ?
C10 C46 1.54(3) . ?
C10 H10A 0.9600 . ?
C10 H10B 0.9600 . ?
C10 H10C 0.9600 . ?
C11 O1 1.247(14) . ?
C11 O2 1.461(15) . ?
C11 C12 1.535(13) . ?
C12 C13 1.3900 . ?
C12 C17 1.3900 . ?
C13 C14 1.3900 . ?
C13 H13 0.9300 . ?
C14 C15 1.3900 . ?
C14 H14 0.9300 . ?
C15 C16 1.3900 . ?
C15 C18 1.474(14) . ?
C16 C17 1.3900 . ?
C16 H16 0.9300 . ?
C17 H17 0.9300 . ?
C17A N15 1.218(17) . ?
C17A N16 1.458(18) . ?
C17A C27 1.556(19) . ?
C18 N20 1.240(19) . ?
C18 N19 1.389(15) . ?
C19 N6 1.304(9) . ?
C19 N7 1.368(10) . ?
C19 C20 1.474(8) . ?
C20 C21 1.3900 . ?
C20 C25 1.3900 . ?
C21 C22 1.3900 . ?
C21 H21 0.9300 . ?
C22 C23 1.3900 . ?
C22 H22 0.9300 . ?
C23 C24 1.3900 . ?
C23 C26 1.479(8) . ?
C24 C25 1.3900 . ?
C24 H24 0.9300 . ?
C25 H25 0.9300 . ?
C26 O7 1.129(15) . ?
C26 O8 1.387(15) . ?
C26 Cu2 2.362(7) . ?
C27 C28 1.349(13) . ?
C27 C32 1.378(15) . ?
C28 C29 1.38(3) . ?
C28 H28 0.9300 . ?
C29 C30 1.38(2) . ?
C29 H29 0.9300 . ?
C30 C31 1.295(18) . ?
C30 C33 1.58(2) . ?
C31 C32 1.415(16) . ?
C31 H31 0.9300 . ?
C32 H32 0.9300 . ?
C33 O4 0.986(16) . ?
C33 O3 1.292(18) . ?
C39 C40 1.3900 . ?
C39 C44 1.3900 . ?
C40 C41 1.3900 . ?
C40 H40 0.9300 . ?
C41 C42 1.3900 . ?
C41 H41 0.9300 . ?
C42 C43 1.3900 . ?
C42 C2A 1.44(3) 1_456 ?
C43 C44 1.3900 . ?
C43 H43 0.9300 . ?
C44 H44 0.9300 . ?
Cu1 N9 1.841(6) . ?
Cu1 N9 1.841(11) 2_665 ?
Cu1 N3 2.171(10) . ?
Cu1 N3 2.171(10) 2_665 ?
Cu1 N6 2.379(6) . ?
Cu1 N6 2.379(6) 2_665 ?
Cu2 N17 1.960(14) . ?
Cu2 O7 1.961(13) . ?
Cu2 N13 1.982(11) . ?
Cu2 O8 2.031(10) . ?
Cu2 N7 2.189(6) 2_765 ?
Cu3 O4 1.911(9) 3_645 ?
Cu3 O2 1.914(11) 3_644 ?
Cu3 N10 1.94(2) 2_665 ?
Cu3 N4 2.032(10) . ?
Cu3 N5 2.203(6) . ?
Cu4 O1 1.893(9) 3_644 ?
Cu4 O3 1.978(14) 3_645 ?
Cu4 N14 2.066(11) 2_765 ?
Cu4 N18 2.074(13) 2_765 ?
Cu4 N8 2.175(6) . ?
Cu5 O11 1.893(11) . ?
Cu5 O10 1.928(10) . ?
Cu5 O6 1.973(11) 2_565 ?
Cu5 O5 2.037(10) . ?
Cu5 O9 2.091(7) . ?
Cu5 Cu5 2.628(2) 2_565 ?
N1 N4 1.353(14) . ?
N2 N3 1.288(12) . ?
N3 N4 1.211(11) . ?
N5 N8 1.302(8) . ?
N5 N6 1.342(8) . ?
N7 N8 1.376(8) . ?
N7 Cu2 2.189(6) 2_765 ?
N12 C2A 1.4200 . ?
N12 N9 1.4200 . ?
N9 N10 1.4200 . ?
N10 N11 1.4200 . ?
N10 Cu3 1.941(6) 2_665 ?
N11 C2A 1.4200 . ?
C2A C42 1.44(3) 1_654 ?
N13 N16 1.335(13) . ?
N13 N14 1.348(15) . ?
N14 N15 1.361(15) . ?
N14 Cu4 2.066(11) 2_765 ?
N17 N18 1.311(17) . ?
N17 N20 1.334(19) . ?
N18 N19 1.263(15) . ?
N18 Cu4 2.074(13) 2_765 ?
C46 H46A 0.9700 . ?
C46 H46B 0.9700 . ?
O1 Cu4 1.893(9) 3_655 ?
O2 Cu3 1.914(11) 3_655 ?
O3 Cu4 1.978(14) 3_654 ?
O4 Cu3 1.911(9) 3_654 ?
O6 Cu5 1.973(11) 2_565 ?
O11 C8 1.36(2) 2_565 ?

loop_
_geom_angle_atom_site_label_1
_geom_angle_atom_site_label_2
_geom_angle_atom_site_label_3
_geom_angle
_geom_angle_site_symmetry_1
_geom_angle_site_symmetry_3
_geom_angle_publ_flag
N1 C1A N2 114.8(13) . . ?
N1 C1A C3 125.2(15) . . ?
N2 C1A C3 120.0(14) . . ?
C2 C1 C6 120.0 . . ?
C2 C1 H1 120.0 . . ?
C6 C1 H1 120.0 . . ?
C1 C2 C3 120.0 . . ?
C1 C2 H2 120.0 . . ?
C3 C2 H2 120.0 . . ?
C4 C3 C2 120.0 . . ?
C4 C3 C1A 119.7(9) . . ?
C2 C3 C1A 120.3(9) . . ?
C5 C4 C3 120.0 . . ?
C5 C4 H4 