####################################################################### 
# 
# This file contains crystal structure data downloaded from the 
# Cambridge Structural Database (CSD) hosted by the Cambridge 
# Crystallographic Data Centre (CCDC).
# 
# Full information about CCDC data access policies and citation 
# guidelines are available at http://www.ccdc.cam.ac.uk/access/V1 
# 
# Audit and citation data items may have been added by the CCDC. 
# Please retain this information to preserve the provenance of 
# this file and to allow appropriate attribution of the data. 
# 
#######################################################################

data_a
_audit_block_doi                 10.5517/ccw438c
_database_code_depnum_ccdc_archive 'CCDC 808302'
loop_
_citation_id
_citation_doi
_citation_year
1 10.1002/chem.201101239 2011
_audit_update_record             
;
2011-01-15 deposited with the CCDC.	2024-07-12 downloaded from the CCDC.
;

_audit_creation_method           SHELXL-97
_chemical_name_systematic        
;
?
;
_chemical_name_common            ?
_chemical_melting_point          ?
_chemical_formula_moiety         ?
_chemical_formula_sum            'C16 H6 Co1.50 O16 P2 Zn1.50'
_chemical_formula_weight         702.60

loop_
_atom_type_symbol
_atom_type_description
_atom_type_scat_dispersion_real
_atom_type_scat_dispersion_imag
_atom_type_scat_source
C C 0.0033 0.0016 'International Tables Vol C Tables 4.2.6.8 and 6.1.1.4'
H H 0.0000 0.0000 'International Tables Vol C Tables 4.2.6.8 and 6.1.1.4'
Co Co 0.3494 0.9721 'International Tables Vol C Tables 4.2.6.8 and 6.1.1.4'
O O 0.0106 0.0060 'International Tables Vol C Tables 4.2.6.8 and 6.1.1.4'
P P 0.1023 0.0942 'International Tables Vol C Tables 4.2.6.8 and 6.1.1.4'
Zn Zn 0.2839 1.4301 'International Tables Vol C Tables 4.2.6.8 and 6.1.1.4'

_symmetry_cell_setting           Orthorhombic
_symmetry_space_group_name_H-M   Fdd2

loop_
_symmetry_equiv_pos_as_xyz
'x, y, z'
'-x, -y, z'
'-x+1/4, y+1/4, z+1/4'
'x+3/4, -y+3/4, z+1/4'
'x, y+1/2, z+1/2'
'-x, -y+1/2, z+1/2'
'-x+1/4, y+3/4, z+3/4'
'x+3/4, -y+5/4, z+3/4'
'x+1/2, y, z+1/2'
'-x+1/2, -y, z+1/2'
'-x+3/4, y+1/4, z+3/4'
'x+5/4, -y+3/4, z+3/4'
'x+1/2, y+1/2, z'
'-x+1/2, -y+1/2, z'
'-x+3/4, y+3/4, z+1/4'
'x+5/4, -y+5/4, z+1/4'

_cell_length_a                   25.298(9)
_cell_length_b                   26.156(10)
_cell_length_c                   23.552(9)
_cell_angle_alpha                90.00
_cell_angle_beta                 90.00
_cell_angle_gamma                90.00
_cell_volume                     15584(10)
_cell_formula_units_Z            16
_cell_measurement_temperature    293(2)
_cell_measurement_reflns_used    2109
_cell_measurement_theta_min      2.33
_cell_measurement_theta_max      20.13

_exptl_crystal_description       rod
_exptl_crystal_colour            blue
_exptl_crystal_size_max          0.16
_exptl_crystal_size_mid          0.09
_exptl_crystal_size_min          0.07
_exptl_crystal_density_meas      ?
_exptl_crystal_density_diffrn    1.198
_exptl_crystal_density_method    'not measured'
_exptl_crystal_F_000             5528
_exptl_absorpt_coefficient_mu    1.677
_exptl_absorpt_correction_type   multi-scan
_exptl_absorpt_correction_T_min  0.7752
_exptl_absorpt_correction_T_max  0.8916
_exptl_absorpt_process_details   SADABS

_exptl_special_details           
;
?
;

_diffrn_ambient_temperature      293(2)
_diffrn_radiation_wavelength     0.71073
_diffrn_radiation_type           MoK\a
_diffrn_radiation_source         'fine-focus sealed tube'
_diffrn_radiation_monochromator  graphite
_diffrn_measurement_device_type  'CCD area detector'
_diffrn_measurement_method       'phi and omega scans'
_diffrn_detector_area_resol_mean ?
_diffrn_standards_number         ?
_diffrn_standards_interval_count ?
_diffrn_standards_interval_time  ?
_diffrn_standards_decay_%        ?
_diffrn_reflns_number            19214
_diffrn_reflns_av_R_equivalents  0.1151
_diffrn_reflns_av_sigmaI/netI    0.1599
_diffrn_reflns_limit_h_min       -30
_diffrn_reflns_limit_h_max       15
_diffrn_reflns_limit_k_min       -31
_diffrn_reflns_limit_k_max       31
_diffrn_reflns_limit_l_min       -28
_diffrn_reflns_limit_l_max       26
_diffrn_reflns_theta_min         1.41
_diffrn_reflns_theta_max         25.20
_reflns_number_total             6839
_reflns_number_gt                4196
_reflns_threshold_expression     >2sigma(I)

_computing_data_collection       'Bruker SMART'
_computing_cell_refinement       'Bruker SMART'
_computing_data_reduction        'Bruker SAINT'
_computing_structure_solution    'SHELXS-97 (Sheldrick, 1990)'
_computing_structure_refinement  'SHELXL-97 (Sheldrick, 1997)'
_computing_molecular_graphics    'Bruker SHELXTL'
_computing_publication_material  'Bruker SHELXTL'

_refine_special_details          
;
Refinement of F^2^ against ALL reflections. The weighted R-factor wR and
goodness of fit S are based on F^2^, conventional R-factors R are based
on F, with F set to zero for negative F^2^. The threshold expression of
F^2^ > 2sigma(F^2^) is used only for calculating R-factors(gt) etc. and is
not relevant to the choice of reflections for refinement. R-factors based
on F^2^ are statistically about twice as large as those based on F, and R-
factors based on ALL data will be even larger.
;

_refine_ls_structure_factor_coef Fsqd
_refine_ls_matrix_type           full
_refine_ls_weighting_scheme      calc
_refine_ls_weighting_details     
'calc w=1/[\s^2^(Fo^2^)+(0.0973P)^2^+0.0000P] where P=(Fo^2^+2Fc^2^)/3'
_atom_sites_solution_primary     direct
_atom_sites_solution_secondary   difmap
_atom_sites_solution_hydrogens   geom
_refine_ls_hydrogen_treatment    constr
_refine_ls_extinction_method     none
_refine_ls_extinction_coef       ?
_refine_ls_abs_structure_details 'Flack H D (1983), Acta Cryst. A39, 876-881'
_refine_ls_abs_structure_Flack   0.61(4)
_refine_ls_number_reflns         6839
_refine_ls_number_parameters     334
_refine_ls_number_restraints     13
_refine_ls_R_factor_all          0.1125
_refine_ls_R_factor_gt           0.0725
_refine_ls_wR_factor_ref         0.2117
_refine_ls_wR_factor_gt          0.1964
_refine_ls_goodness_of_fit_ref   1.028
_refine_ls_restrained_S_all      1.033
_refine_ls_shift/su_max          0.050
_refine_ls_shift/su_mean         0.002

loop_
_atom_site_label
_atom_site_type_symbol
_atom_site_fract_x
_atom_site_fract_y
_atom_site_fract_z
_atom_site_U_iso_or_equiv
_atom_site_adp_type
_atom_site_occupancy
_atom_site_symmetry_multiplicity
_atom_site_calc_flag
_atom_site_refinement_flags
_atom_site_disorder_assembly
_atom_site_disorder_group
Zn1 Zn 0.22090(6) 0.99423(6) 0.24217(6) 0.0242(4) Uani 0.50 1 d P . .
Zn2 Zn 0.24396(6) 0.97231(6) 0.04889(6) 0.0236(4) Uani 0.50 1 d P . .
Zn3 Zn 0.31023(6) 1.05744(6) 0.14591(7) 0.0265(4) Uani 0.50 1 d P . .
Co1 Co 0.22090(6) 0.99423(6) 0.24217(6) 0.0242(4) Uani 0.50 1 d P . .
Co2 Co 0.24396(6) 0.97231(6) 0.04889(6) 0.0236(4) Uani 0.50 1 d P . .
Co3 Co 0.31023(6) 1.05744(6) 0.14591(7) 0.0265(4) Uani 0.50 1 d P . .
C1 C 0.3433(6) 0.8858(5) 0.1722(5) 0.035(3) Uani 1 1 d . . .
C2 C 0.3636(6) 0.8636(5) 0.1239(6) 0.038(4) Uani 1 1 d . . .
H2 H 0.3533 0.8760 0.0886 0.046 Uiso 1 1 calc R . .
C3 C 0.3988(6) 0.8233(6) 0.1266(6) 0.042(4) Uani 1 1 d . . .
C4 C 0.4194(7) 0.8002(6) 0.0694(7) 0.045(4) Uani 1 1 d . . .
C5 C 0.4153(6) 0.8060(6) 0.1780(6) 0.041(4) Uani 1 1 d . . .
H5 H 0.4391 0.7790 0.1801 0.049 Uiso 1 1 calc R . .
C6 C 0.3963(6) 0.8286(5) 0.2276(5) 0.035(3) Uani 1 1 d . . .
C7 C 0.4176(6) 0.8090(6) 0.2842(6) 0.041(4) Uani 1 1 d . . .
C8 C 0.3609(5) 0.8681(5) 0.2238(5) 0.033(3) Uani 1 1 d . . .
H8 H 0.3485 0.8833 0.2569 0.040 Uiso 1 1 calc R . .
C9 C 0.1347(5) 1.0926(5) 0.1214(5) 0.034(3) Uani 1 1 d . . .
C10 C 0.1103(6) 1.1117(5) 0.1707(6) 0.043(4) Uani 1 1 d . . .
H10 H 0.1214 1.1006 0.2062 0.051 Uiso 1 1 calc R . .
C11 C 0.0692(6) 1.1473(6) 0.1662(6) 0.041(4) Uani 1 1 d . . .
C12 C 0.0479(6) 1.1678(7) 0.2192(6) 0.043(4) Uani 1 1 d . . .
C13 C 0.0531(6) 1.1651(6) 0.1135(6) 0.042(4) Uani 1 1 d . . .
H13 H 0.0258 1.1889 0.1111 0.050 Uiso 1 1 calc R . .
C14 C 0.0774(5) 1.1476(5) 0.0645(5) 0.029(3) Uani 1 1 d . . .
C15 C 0.0597(6) 1.1687(5) 0.0079(6) 0.032(3) Uani 1 1 d . . .
C16 C 0.1174(6) 1.1119(5) 0.0683(6) 0.039(4) Uani 1 1 d . . .
H16 H 0.1334 1.1001 0.0352 0.047 Uiso 1 1 calc R . .
O1 O 0.2639(4) 0.9381(4) 0.2165(4) 0.042(3) Uani 1 1 d . . .
O2 O 0.3326(4) 0.9876(3) 0.1603(4) 0.039(2) Uani 1 1 d . . .
O3 O 0.2681(4) 0.9298(4) 0.1091(4) 0.045(3) Uani 1 1 d . . .
O4 O 0.4030(5) 0.8154(5) 0.0235(5) 0.081(4) Uani 1 1 d . . .
O5 O 0.4524(5) 0.7644(4) 0.0740(5) 0.056(3) Uani 1 1 d . . .
O6 O 0.4462(4) 0.7707(4) 0.2846(4) 0.048(3) Uani 1 1 d . . .
O7 O 0.4021(4) 0.8335(4) 0.3282(4) 0.045(3) Uani 1 1 d . . .
O8 O 0.2371(4) 1.0784(3) 0.1317(4) 0.041(3) Uani 1 1 d . . .
O9 O 0.1766(4) 1.0174(4) 0.1813(4) 0.046(3) Uani 1 1 d . . .
O10 O 0.1855(4) 1.0134(4) 0.0748(4) 0.047(3) Uani 1 1 d . . .
O11 O 0.0638(6) 1.1527(5) 0.2653(5) 0.084(4) Uani 1 1 d . . .
O12 O 0.0136(5) 1.2030(5) 0.2173(5) 0.063(3) Uani 1 1 d . . .
O13 O 0.0213(4) 1.1973(4) 0.0065(5) 0.054(3) Uani 1 1 d . . .
O14 O 0.0846(4) 1.1551(4) -0.0353(4) 0.047(3) Uani 1 1 d . . .
O15 O 0.4093(19) 0.9066(15) 0.9332(16) 0.36(2) Uani 1 1 d U . .
O16 O 0.3394(19) 0.837(2) 0.916(2) 0.45(3) Uani 1 1 d U . .
P1 P 0.29922(15) 0.93923(14) 0.16389(15) 0.0349(9) Uani 1 1 d . . .
P2 P 0.18728(15) 1.04709(14) 0.12763(15) 0.0346(9) Uani 1 1 d . . .

loop_
_atom_site_aniso_label
_atom_site_aniso_U_11
_atom_site_aniso_U_22
_atom_site_aniso_U_33
_atom_site_aniso_U_23
_atom_site_aniso_U_13
_atom_site_aniso_U_12
Zn1 0.0266(9) 0.0316(9) 0.0143(8) 0.0016(7) -0.0003(7) -0.0021(7)
Zn2 0.0265(9) 0.0310(8) 0.0133(8) 0.0012(7) -0.0023(7) -0.0021(7)
Zn3 0.0321(10) 0.0344(9) 0.0131(7) -0.0003(7) 0.0000(7) -0.0081(7)
Co1 0.0266(9) 0.0316(9) 0.0143(8) 0.0016(7) -0.0003(7) -0.0021(7)
Co2 0.0265(9) 0.0310(8) 0.0133(8) 0.0012(7) -0.0023(7) -0.0021(7)
Co3 0.0321(10) 0.0344(9) 0.0131(7) -0.0003(7) 0.0000(7) -0.0081(7)
C1 0.049(9) 0.040(8) 0.016(7) -0.005(6) -0.005(6) 0.005(7)
C2 0.057(10) 0.043(8) 0.014(7) 0.001(6) -0.003(6) 0.010(7)
C3 0.051(10) 0.053(9) 0.024(8) 0.008(7) 0.000(7) 0.014(8)
C4 0.048(10) 0.055(10) 0.034(10) -0.013(8) 0.014(7) 0.002(9)
C5 0.047(9) 0.052(9) 0.024(8) 0.004(7) 0.003(7) 0.016(8)
C6 0.052(10) 0.038(8) 0.014(7) -0.003(6) -0.003(6) 0.004(7)
C7 0.033(8) 0.065(10) 0.026(8) -0.001(8) 0.008(6) 0.012(8)
C8 0.044(9) 0.051(8) 0.005(6) -0.011(6) 0.000(5) 0.024(7)
C9 0.039(9) 0.047(8) 0.017(7) -0.004(6) -0.001(6) -0.005(7)
C10 0.048(9) 0.056(9) 0.023(8) -0.002(7) 0.002(7) 0.021(8)
C11 0.057(10) 0.048(9) 0.020(8) -0.007(7) 0.002(7) 0.013(8)
C12 0.044(10) 0.068(11) 0.018(8) 0.006(8) 0.004(6) 0.002(9)
C13 0.052(10) 0.049(9) 0.025(8) -0.004(7) 0.001(7) 0.020(8)
C14 0.039(8) 0.031(7) 0.019(7) 0.001(6) 0.005(5) 0.008(6)
C15 0.041(9) 0.032(7) 0.023(8) 0.000(6) 0.003(6) 0.016(7)
C16 0.054(10) 0.039(8) 0.025(8) 0.006(6) 0.008(7) 0.015(7)
O1 0.042(6) 0.049(6) 0.036(6) 0.020(5) 0.015(5) 0.017(5)
O2 0.038(6) 0.051(6) 0.029(6) -0.001(5) -0.004(4) 0.013(5)
O3 0.048(7) 0.052(6) 0.033(6) 0.003(5) -0.013(5) 0.013(5)
O4 0.104(11) 0.120(11) 0.019(7) 0.002(7) 0.004(6) 0.050(9)
O5 0.065(8) 0.069(8) 0.035(7) -0.005(5) 0.010(5) 0.028(7)
O6 0.055(7) 0.059(6) 0.031(6) 0.015(5) 0.013(5) 0.027(6)
O7 0.043(6) 0.062(7) 0.029(6) -0.004(5) -0.007(5) 0.022(5)
O8 0.041(6) 0.047(6) 0.036(6) 0.001(5) 0.004(5) 0.016(5)
O9 0.036(6) 0.068(7) 0.033(6) 0.015(5) -0.008(4) 0.000(5)
O10 0.040(6) 0.053(6) 0.049(7) -0.008(5) -0.017(5) 0.016(5)
O11 0.113(11) 0.107(10) 0.031(7) -0.007(7) 0.011(7) 0.039(9)
O12 0.067(8) 0.089(9) 0.034(7) -0.022(6) 0.002(5) 0.040(7)
O13 0.056(7) 0.051(6) 0.053(8) 0.001(6) -0.005(6) 0.025(6)
O14 0.059(7) 0.062(7) 0.019(5) 0.003(5) -0.004(5) 0.019(6)
O15 0.48(4) 0.34(3) 0.26(3) 0.16(3) -0.14(3) 0.05(3)
O16 0.47(4) 0.51(4) 0.37(4) 0.10(4) -0.17(3) 0.25(4)
P1 0.038(2) 0.044(2) 0.022(2) 0.0024(16) -0.0034(15) 0.0101(18)
P2 0.035(2) 0.043(2) 0.026(2) 0.0034(16) -0.0005(16) 0.0102(18)

_geom_special_details            
;
All esds (except the esd in the dihedral angle between two l.s. planes)
are estimated using the full covariance matrix. The cell esds are taken
into account individually in the estimation of esds in distances, angles
and torsion angles; correlations between esds in cell parameters are only
used when they are defined by crystal symmetry. An approximate (isotropic)
treatment of cell esds is used for estimating esds involving l.s. planes.
;

loop_
_geom_bond_atom_site_label_1
_geom_bond_atom_site_label_2
_geom_bond_distance
_geom_bond_site_symmetry_2
_geom_bond_publ_flag
Zn1 O9 1.918(9) . ?
Zn1 O1 1.925(9) . ?
Zn1 O5 1.997(11) 4_465 ?
Zn1 O13 2.020(10) 16_465 ?
Zn1 O4 2.434(12) 4_465 ?
Zn1 C4 2.521(15) 4_465 ?
Zn2 O3 1.904(9) . ?
Zn2 O10 1.928(10) . ?
Zn2 O12 1.996(10) 7_544 ?
Zn2 O6 2.002(10) 11_554 ?
Zn2 O11 2.465(12) 7_544 ?
Zn2 C12 2.585(16) 7_544 ?
Zn3 O2 1.943(9) . ?
Zn3 O8 1.959(9) . ?
Zn3 O7 1.978(9) 11_554 ?
Zn3 O14 1.992(9) 16_465 ?
C1 C2 1.375(17) . ?
C1 C8 1.376(17) . ?
C1 P1 1.799(14) . ?
C2 C3 1.381(18) . ?
C2 H2 0.9300 . ?
C3 C5 1.359(18) . ?
C3 C4 1.566(19) . ?
C4 O4 1.225(18) . ?
C4 O5 1.258(18) . ?
C4 Zn1 2.521(14) 12_464 ?
C5 C6 1.394(18) . ?
C5 H5 0.9300 . ?
C6 C8 1.370(18) . ?
C6 C7 1.526(18) . ?
C7 O6 1.235(17) . ?
C7 O7 1.281(16) . ?
C8 H8 0.9300 . ?
C9 C10 1.407(17) . ?
C9 C16 1.416(18) . ?
C9 P2 1.791(14) . ?
C10 C11 1.401(18) . ?
C10 H10 0.9300 . ?
C11 C13 1.386(18) . ?
C11 C12 1.460(19) . ?
C12 O11 1.223(17) . ?
C12 O12 1.267(18) . ?
C12 Zn2 2.585(16) 3 ?
C13 C14 1.386(17) . ?
C13 H13 0.9300 . ?
C14 C16 1.382(18) . ?
C14 C15 1.510(17) . ?
C15 O13 1.225(15) . ?
C15 O14 1.249(15) . ?
C16 H16 0.9300 . ?
O1 P1 1.528(10) . ?
O2 P1 1.523(10) . ?
O3 P1 1.531(10) . ?
O4 Zn1 2.434(12) 12_464 ?
O5 Co1 1.997(11) 12_464 ?
O5 Zn1 1.997(11) 12_464 ?
O6 Co2 2.002(10) 15_545 ?
O6 Zn2 2.002(10) 15_545 ?
O7 Co3 1.978(9) 15_545 ?
O7 Zn3 1.978(9) 15_545 ?
O8 P2 1.506(10) . ?
O9 P2 1.509(10) . ?
O10 P2 1.525(11) . ?
O11 Zn2 2.465(12) 3 ?
O12 Co2 1.996(10) 3 ?
O12 Zn2 1.996(10) 3 ?
O13 Co1 2.020(10) 8_464 ?
O13 Zn1 2.020(10) 8_464 ?
O14 Co3 1.992(9) 8_464 ?
O14 Zn3 1.992(9) 8_464 ?

loop_
_geom_angle_atom_site_label_1
_geom_angle_atom_site_label_2
_geom_angle_atom_site_label_3
_geom_angle
_geom_angle_site_symmetry_1
_geom_angle_site_symmetry_3
_geom_angle_publ_flag
O9 Zn1 O1 109.6(4) . . ?
O9 Zn1 O5 128.3(5) . 4_465 ?
O1 Zn1 O5 110.5(4) . 4_465 ?
O9 Zn1 O13 104.8(4) . 16_465 ?
O1 Zn1 O13 105.9(4) . 16_465 ?
O5 Zn1 O13 94.2(5) 4_465 16_465 ?
O9 Zn1 O4 90.9(4) . 4_465 ?
O1 Zn1 O4 90.2(4) . 4_465 ?
O5 Zn1 O4 58.0(4) 4_465 4_465 ?
O13 Zn1 O4 151.7(4) 16_465 4_465 ?
O9 Zn1 C4 112.5(5) . 4_465 ?
O1 Zn1 C4 99.6(5) . 4_465 ?
O5 Zn1 C4 29.6(5) 4_465 4_465 ?
O13 Zn1 C4 123.7(5) 16_465 4_465 ?
O4 Zn1 C4 28.6(4) 4_465 4_465 ?
O3 Zn2 O10 109.6(4) . . ?
O3 Zn2 O12 126.9(5) . 7_544 ?
O10 Zn2 O12 111.8(5) . 7_544 ?
O3 Zn2 O6 104.6(4) . 11_554 ?
O10 Zn2 O6 106.3(4) . 11_554 ?
O12 Zn2 O6 94.0(4) 7_544 11_554 ?
O3 Zn2 O11 89.9(4) . 7_544 ?
O10 Zn2 O11 93.3(5) . 7_544 ?
O12 Zn2 O11 56.5(4) 7_544 7_544 ?
O6 Zn2 O11 149.5(4) 11_554 7_544 ?
O3 Zn2 C12 110.5(5) . 7_544 ?
O10 Zn2 C12 102.9(5) . 7_544 ?
O12 Zn2 C12 28.6(4) 7_544 7_544 ?
O6 Zn2 C12 122.5(5) 11_554 7_544 ?
O11 Zn2 C12 27.9(4) 7_544 7_544 ?
O2 Zn3 O8 124.6(4) . . ?
O2 Zn3 O7 109.0(4) . 11_554 ?
O8 Zn3 O7 102.7(4) . 11_554 ?
O2 Zn3 O14 103.3(4) . 16_465 ?
O8 Zn3 O14 107.1(4) . 16_465 ?
O7 Zn3 O14 109.7(4) 11_554 16_465 ?
C2 C1 C8 117.9(12) . . ?
C2 C1 P1 118.0(10) . . ?
C8 C1 P1 123.9(10) . . ?
C1 C2 C3 121.6(13) . . ?
C1 C2 H2 119.2 . . ?
C3 C2 H2 119.2 . . ?
C5 C3 C2 119.6(14) . . ?
C5 C3 C4 122.4(13) . . ?
C2 C3 C4 118.0(13) . . ?
O4 C4 O5 122.9(14) . . ?
O4 C4 C3 121.4(14) . . ?
O5 C4 C3 115.7(14) . . ?
O4 C4 Zn1 71.8(9) . 12_464 ?
O5 C4 Zn1 51.5(7) . 12_464 ?
C3 C4 Zn1 166.1(12) . 12_464 ?
C3 C5 C6 120.0(13) . . ?
C3 C5 H5 120.0 . . ?
C6 C5 H5 120.0 . . ?
C8 C6 C5 119.3(12) . . ?
C8 C6 C7 122.7(11) . . ?
C5 C6 C7 117.9(13) . . ?
O6 C7 O7 125.4(13) . . ?
O6 C7 C6 119.1(13) . . ?
O7 C7 C6 115.5(13) . . ?
C6 C8 C1 121.5(11) . . ?
C6 C8 H8 119.2 . . ?
C1 C8 H8 119.2 . . ?
C10 C9 C16 117.8(13) . . ?
C10 C9 P2 119.6(10) . . ?
C16 C9 P2 122.6(10) . . ?
C11 C10 C9 120.1(13) . . ?
C11 C10 H10 120.0 . . ?
C9 C10 H10 120.0 . . ?
C13 C11 C10 120.6(13) . . ?
C13 C11 C12 122.3(13) . . ?
C10 C11 C12 116.9(13) . . ?
O11 C12 O12 119.4(14) . . ?
O11 C12 C11 121.4(15) . . ?
O12 C12 C11 119.2(13) . . ?
O11 C12 Zn2 70.6(9) . 3 ?
O12 C12 Zn2 48.9(7) . 3 ?
C11 C12 Zn2 166.8(12) . 3 ?
C14 C13 C11 120.3(13) . . ?
C14 C13 H13 119.8 . . ?
C11 C13 H13 119.8 . . ?
C16 C14 C13 119.6(12) . . ?
C16 C14 C15 121.4(11) . . ?
C13 C14 C15 118.9(12) . . ?
O13 C15 O14 123.5(13) . . ?
O13 C15 C14 118.8(12) . . ?
O14 C15 C14 117.7(12) . . ?
C14 C16 C9 121.6(13) . . ?
C14 C16 H16 119.2 . . ?
C9 C16 H16 119.2 . . ?
P1 O1 Zn1 124.7(5) . . ?
P1 O2 Zn3 129.0(6) . . ?
P1 O3 Zn2 134.3(6) . . ?
C4 O4 Zn1 79.6(9) . 12_464 ?
C4 O5 Co1 99.0(9) . 12_464 ?
C4 O5 Zn1 99.0(9) . 12_464 ?
Co1 O5 Zn1 0.00(9) 12_464 12_464 ?
C7 O6 Co2 163.0(11) . 15_545 ?
C7 O6 Zn2 163.0(11) . 15_545 ?
Co2 O6 Zn2 0.00(10) 15_545 15_545 ?
C7 O7 Co3 109.4(9) . 15_545 ?
C7 O7 Zn3 109.4(9) . 15_545 ?
Co3 O7 Zn3 0.00(10) 15_545 15_545 ?
P2 O8 Zn3 130.4(6) . . ?
P2 O9 Zn1 133.2(6) . . ?
P2 O10 Zn2 123.9(6) . . ?
C12 O11 Zn2 81.5(10) . 3 ?
C12 O12 Co2 102.5(9) . 3 ?
C12 O12 Zn2 102.5(9) . 3 ?
Co2 O12 Zn2 0.00(9) 3 3 ?
C15 O13 Co1 165.2(11) . 8_464 ?
C15 O13 Zn1 165.2(11) . 8_464 ?
Co1 O13 Zn1 0.00(7) 8_464 8_464 ?
C15 O14 Co3 111.5(9) . 8_464 ?
C15 O14 Zn3 111.5(9) . 8_464 ?
Co3 O14 Zn3 0.00(11) 8_464 8_464 ?
O2 P1 O1 112.7(6) . . ?
O2 P1 O3 111.9(5) . . ?
O1 P1 O3 112.2(6) . . ?
O2 P1 C1 107.9(6) . . ?
O1 P1 C1 105.1(6) . . ?
O3 P1 C1 106.5(6) . . ?
O8 P2 O9 112.2(5) . . ?
O8 P2 O10 113.0(6) . . ?
O9 P2 O10 112.3(6) . . ?
O8 P2 C9 105.3(6) . . ?
O9 P2 C9 106.2(6) . . ?
O10 P2 C9 107.1(6) . . ?

_diffrn_measured_fraction_theta_max 1.000
_diffrn_reflns_theta_full        25.20
_diffrn_measured_fraction_theta_full 1.000
_refine_diff_density_max         0.915
_refine_diff_density_min         -0.705
_refine_diff_density_rms         0.206



