
#######################################################################
#
#                 Cambridge Crystallographic Data Centre
#                                CCDC
#
#######################################################################
#
# If this CIF has been generated from an entry in the Cambridge
# Structural Database, then it will include bibliographic, chemical,
# crystal, experimental, refinement or atomic coordinate data resulting
# from the CCDC's data processing and validation procedures.
#
#######################################################################

data_CSD_CIF_PABHIJ01
_audit_creation_date 2008-05-23
_audit_creation_method CSD-ConQuest-V1
_database_code_CSD PABHIJ01
_database_code_depnum_ccdc_archive 'CCDC 649756'
_chemical_formula_sum 'C15 H14 N4 O1'
_chemical_formula_moiety
;
C15 H14 N4 O1
;
_journal_coden_Cambridge 1147
_journal_volume 8
_journal_year 2008
_journal_page_first 17
_journal_name_full 'Cryst.Growth Des. '
loop_
_publ_author_name
"M.R.Caira"
"N.Stieger"
"W.Liebenberg"
"M.De Villiers"
"H.Samsodien"
_chemical_name_systematic
;
11-Cyclopropyl-5,11-dihydro-4-methyl-6H-dipyrido(3,2-b:2',3'-e)(1,4)diazepin-6
-one
;
_chemical_name_common
;
Nevirapine; Viramune; Viramune XR; DrugBank: DB00238; PDB Chemical Component 
code: NVP; Teaching Subset: Drug Molecules, 'Bound' Drugs
;
_chemical_melting_point 519
_cell_volume   1238.510
_exptl_crystal_colour 'colorless'
_exptl_crystal_density_diffrn 1.428
_exptl_special_details
;
Melting point range 519-521K
non-nucleoside reverse transcriptase inhibitor which is used to treat HIV-1 
and AIDS
;
_exptl_crystal_description 'prism'
_diffrn_ambient_temperature 113
#These two values have been output from a single CSD field.
_refine_ls_R_factor_gt 0.0332
_refine_ls_wR_factor_gt 0.0332
_symmetry_cell_setting monoclinic
_symmetry_space_group_name_H-M 'P 21/c'
_symmetry_Int_Tables_number 14
loop_
_symmetry_equiv_pos_site_id
_symmetry_equiv_pos_as_xyz
1 x,y,z
2 -x,1/2+y,1/2-z
3 -x,-y,-z
4 x,-1/2-y,-1/2+z
_cell_length_a 6.9177(2)
_cell_length_b 18.7759(5)
_cell_length_c 9.6075(3)
_cell_angle_alpha 90
_cell_angle_beta 97.026(1)
_cell_angle_gamma 90
_cell_formula_units_Z 4
loop_
_atom_type_symbol
_atom_type_radius_bond
C 0.68
H 0.23
N 0.68
O 0.68
loop_
_atom_site_label
_atom_site_type_symbol
_atom_site_fract_x
_atom_site_fract_y
_atom_site_fract_z
O1 O 0.68057(13) 0.55012(4) 0.45046(9)
N1 N 0.65628(15) 0.52931(5) 0.67884(11)
H1 H 0.54670 0.50660 0.65240
N2 N 0.81270(15) 0.59819(6) 1.03526(11)
N3 N 0.80977(15) 0.65646(5) 0.81922(10)
N4 N 1.10219(15) 0.69497(6) 0.74339(11)
C1 C 0.77889(17) 0.59327(6) 0.89626(13)
C2 C 1.06701(18) 0.59845(6) 0.52240(13)
H2 H 1.05380 0.56600 0.44600
C3 C 0.71857(17) 0.53021(6) 0.82559(13)
C4 C 0.6643(2) 0.39653(7) 0.83468(14)
H3 H 0.77560 0.38050 0.78880
H4 H 0.54950 0.40100 0.76460
H5 H 0.63800 0.36170 0.90600
C5 C 1.22771(19) 0.64267(7) 0.54384(14)
H6 H 1.32880 0.64020 0.48540
C6 C 0.95044(17) 0.65034(6) 0.72423(12)
C7 C 0.74415(17) 0.55886(6) 0.57564(13)
C8 C 0.74818(18) 0.47308(7) 1.04843(13)
H7 H 0.74360 0.43190 1.10540
C9 C 1.23552(19) 0.69057(7) 0.65351(13)
H8 H 1.34260 0.72260 0.66610
C10 C 0.62465(19) 0.75309(7) 0.92447(13)
H9 H 0.61930 0.77940 1.01320
H10 H 0.50560 0.72580 0.89100
C11 C 0.71012(17) 0.46759(7) 0.90312(13)
C12 C 0.92490(18) 0.60152(6) 0.61263(13)
C13 C 0.81636(18) 0.72268(6) 0.89765(13)
H11 H 0.93010 0.73040 0.97090
C14 C 0.73675(19) 0.78604(7) 0.81612(13)
H12 H 0.68640 0.77900 0.71610
H13 H 0.80010 0.83260 0.83830
C15 C 0.79254(18) 0.53854(7) 1.10917(14)
H14 H 0.80970 0.54160 1.20860
#END
