####################################################################### 
# 
# This file contains crystal structure data downloaded from the 
# Cambridge Structural Database (CSD) hosted by the Cambridge 
# Crystallographic Data Centre (CCDC).
# 
# Full information about CCDC data access policies and citation 
# guidelines are available at http://www.ccdc.cam.ac.uk/access/V1 
# 
# Audit and citation data items may have been added by the CCDC. 
# Please retain this information to preserve the provenance of 
# this file and to allow appropriate attribution of the data. 
# 
#######################################################################

data_jl0122
_audit_block_doi                 10.5517/cc5kj3b
_database_code_depnum_ccdc_archive 'CCDC 165791'
loop_
_citation_id
_citation_doi
_citation_year
1 10.1002/1521-3773(20020802)41:15<2821::AID-ANIE2821>3.0.CO;2-Y 2002
_audit_update_record             
;
2001-06-18 deposited with the CCDC.	2024-07-12 downloaded from the CCDC.
;

_audit_creation_method           SHELXL-97
_chemical_name_systematic        
; 
? 
;
_chemical_name_common            ?
_chemical_melting_point          ?
_chemical_formula_moiety         ?
_chemical_formula_sum            'C113.07 H59.50 Cu6 N8.75 O29.50'
_chemical_formula_weight         2393.77

loop_
_atom_type_symbol
_atom_type_description
_atom_type_scat_dispersion_real
_atom_type_scat_dispersion_imag
_atom_type_scat_source
C C 0.0033 0.0016 'International Tables Vol C Tables 4.2.6.8 and 6.1.1.4'
H H 0.0000 0.0000 'International Tables Vol C Tables 4.2.6.8 and 6.1.1.4'
N N 0.0061 0.0033 'International Tables Vol C Tables 4.2.6.8 and 6.1.1.4'
O O 0.0106 0.0060 'International Tables Vol C Tables 4.2.6.8 and 6.1.1.4'
Cu Cu 0.3201 1.2651 'International Tables Vol C Tables 4.2.6.8 and 6.1.1.4'

_symmetry_cell_setting           Trigonal
_symmetry_space_group_name_H-M   P-3c1

loop_
_symmetry_equiv_pos_as_xyz
'x, y, z'
'-y, x-y, z'
'-x+y, -x, z'
'y, x, -z+1/2'
'x-y, -y, -z+1/2'
'-x, -x+y, -z+1/2'
'-x, -y, -z'
'y, -x+y, -z'
'x-y, x, -z'
'-y, -x, z-1/2'
'-x+y, y, z-1/2'
'x, x-y, z-1/2'

_cell_length_a                   18.6523(11)
_cell_length_b                   18.6523(11)
_cell_length_c                   19.8313(18)
_cell_angle_alpha                90.00
_cell_angle_beta                 90.00
_cell_angle_gamma                120.00
_cell_volume                     5975.1(7)
_cell_formula_units_Z            2
_cell_measurement_temperature    173(2)
_cell_measurement_reflns_used    ?
_cell_measurement_theta_min      ?
_cell_measurement_theta_max      ?

_exptl_crystal_description       plate
_exptl_crystal_colour            blue
_exptl_crystal_size_max          .1
_exptl_crystal_size_mid          .1
_exptl_crystal_size_min          .2
_exptl_crystal_density_meas      ?
_exptl_crystal_density_diffrn    1.331
_exptl_crystal_density_method    'not measured'
_exptl_crystal_F_000             2418
_exptl_absorpt_coefficient_mu    1.123
_exptl_absorpt_correction_type   none
_exptl_absorpt_correction_T_min  ?
_exptl_absorpt_correction_T_max  ?
_exptl_absorpt_process_details   ?

_exptl_special_details           
; 
? 
;

_diffrn_ambient_temperature      173(2)
_diffrn_radiation_wavelength     0.71073
_diffrn_radiation_type           MoK\a
_diffrn_radiation_source         'fine-focus sealed tube'
_diffrn_radiation_monochromator  graphite
_diffrn_measurement_device_type  'CCD area detector'
_diffrn_measurement_method       'phi and omega scans'
_diffrn_detector_area_resol_mean ?
_diffrn_standards_number         ?
_diffrn_standards_interval_count ?
_diffrn_standards_interval_time  ?
_diffrn_standards_decay_%        ?
_diffrn_reflns_number            28856
_diffrn_reflns_av_R_equivalents  0.0509
_diffrn_reflns_av_sigmaI/netI    0.0465
_diffrn_reflns_limit_h_min       -22
_diffrn_reflns_limit_h_max       18
_diffrn_reflns_limit_k_min       -14
_diffrn_reflns_limit_k_max       22
_diffrn_reflns_limit_l_min       -23
_diffrn_reflns_limit_l_max       23
_diffrn_reflns_theta_min         2.05
_diffrn_reflns_theta_max         25.00
_reflns_number_total             3520
_reflns_number_gt                2112
_reflns_threshold_expression     >2sigma(I)

_computing_data_collection       'Bruker SMART'
_computing_cell_refinement       'Bruker SMART'
_computing_data_reduction        'Bruker SHELXTL'
_computing_structure_solution    'SHELXS-97 (Sheldrick, 1990)'
_computing_structure_refinement  'SHELXL-97 (Sheldrick, 1997)'
_computing_molecular_graphics    'Bruker SHELXTL'
_computing_publication_material  'Bruker SHELXTL'

_refine_special_details          
; 
Refinement of F^2^ against ALL reflections.  The weighted R-factor wR and 
goodness of fit S are based on F^2^, conventional R-factors R are based 
on F, with F set to zero for negative F^2^. The threshold expression of 
F^2^ > 2sigma(F^2^) is used only for calculating R-factors(gt) etc. and is 
not relevant to the choice of reflections for refinement.  R-factors based 
on F^2^ are statistically about twice as large as those based on F, and R- 
factors based on ALL data will be even larger. 
;

_refine_ls_structure_factor_coef Fsqd
_refine_ls_matrix_type           full
_refine_ls_weighting_scheme      calc
_refine_ls_weighting_details     
'calc w=1/[\s^2^(Fo^2^)+(0.1143P)^2^+0.0000P] where P=(Fo^2^+2Fc^2^)/3'
_atom_sites_solution_primary     direct
_atom_sites_solution_secondary   difmap
_atom_sites_solution_hydrogens   geom
_refine_ls_hydrogen_treatment    mixed
_refine_ls_extinction_method     none
_refine_ls_extinction_coef       ?
_refine_ls_number_reflns         3520
_refine_ls_number_parameters     255
_refine_ls_number_restraints     0
_refine_ls_R_factor_all          0.0846
_refine_ls_R_factor_gt           0.0577
_refine_ls_wR_factor_ref         0.1979
_refine_ls_wR_factor_gt          0.1868
_refine_ls_goodness_of_fit_ref   1.064
_refine_ls_restrained_S_all      1.064
_refine_ls_shift/su_max          0.001
_refine_ls_shift/su_mean         0.000

loop_
_atom_site_label
_atom_site_type_symbol
_atom_site_fract_x
_atom_site_fract_y
_atom_site_fract_z
_atom_site_U_iso_or_equiv
_atom_site_adp_type
_atom_site_occupancy
_atom_site_symmetry_multiplicity
_atom_site_calc_flag
_atom_site_refinement_flags
_atom_site_disorder_assembly
_atom_site_disorder_group
Cu1 Cu 0.52749(3) 1.04748(3) 0.30501(3) 0.0221(3) Uani 1 1 d . . .
O1 O 0.5630(2) 0.9681(2) 0.33392(18) 0.0334(9) Uani 1 1 d . . .
O2 O 0.4148(2) 0.9713(2) 0.33714(18) 0.0341(9) Uani 1 1 d . . .
O3 O 0.4838(2) 1.1086(2) 0.25514(19) 0.0379(10) Uani 1 1 d . . .
O4 O 0.6333(2) 1.1118(2) 0.25737(19) 0.0350(9) Uani 1 1 d . . .
C1 C 0.5783(3) 0.8504(3) 0.3321(3) 0.0281(12) Uani 1 1 d . . .
C2 C 0.5569(3) 0.7750(3) 0.3023(3) 0.0254(11) Uani 1 1 d . . .
H2 H 0.5284 0.7606 0.2604 0.030 Uiso 1 1 calc R . .
C3 C 0.5767(3) 0.7205(3) 0.3332(3) 0.0277(12) Uani 1 1 d . . .
C4 C 0.6222(3) 0.7434(3) 0.3932(3) 0.0385(14) Uani 1 1 d . . .
H4 H 0.6356 0.7062 0.4149 0.046 Uiso 1 1 calc R . .
C5 C 0.6476(5) 0.8205(4) 0.4207(4) 0.0534(18) Uani 1 1 d . . .
H5 H 0.6816 0.8376 0.4598 0.064 Uiso 1 1 calc R . .
C6 C 0.6240(4) 0.8730(3) 0.3919(3) 0.0414(15) Uani 1 1 d . . .
H6 H 0.6389 0.9244 0.4128 0.050 Uiso 1 1 calc R . .
C7 C 0.5527(3) 0.9070(3) 0.3004(3) 0.0242(11) Uani 1 1 d . . .
C8 C 0.3632(3) 0.9107(3) 0.3029(3) 0.0270(12) Uani 1 1 d . . .
N11 N 0.5698(3) 1.1179(3) 0.3976(2) 0.0301(10) Uani 1 1 d . . .
C11 C 0.6468(4) 1.1793(4) 0.4031(3) 0.0587(19) Uani 1 1 d . . .
H11 H 0.6800 1.1968 0.3636 0.070 Uiso 1 1 calc R . .
C12 C 0.6824(5) 1.2200(5) 0.4632(4) 0.077(2) Uani 1 1 d . . .
H12 H 0.7383 1.2636 0.4644 0.092 Uiso 1 1 calc R . .
C13 C 0.6354(5) 1.1961(4) 0.5201(4) 0.064(2) Uani 1 1 d . . .
H13 H 0.6572 1.2235 0.5618 0.077 Uiso 1 1 calc R . .
C14 C 0.5564(5) 1.1318(5) 0.5156(3) 0.059(2) Uani 1 1 d . . .
H14 H 0.5230 1.1125 0.5550 0.071 Uiso 1 1 calc R . .
C15 C 0.5244(4) 1.0942(4) 0.4542(3) 0.0446(15) Uani 1 1 d . . .
H15 H 0.4687 1.0502 0.4521 0.054 Uiso 1 1 calc R . .
N201 N 0.8092(8) 0.8252(8) 0.5504(7) 0.063(4) Uiso 0.458(6) 1 d P . .
O201 O 0.8840(7) 0.8498(6) 0.5493(5) 0.069(3) Uiso 0.458(6) 1 d P . .
O202 O 0.7578(7) 0.7667(7) 0.5150(5) 0.067(3) Uiso 0.458(6) 1 d P . .
C201 C 0.769(5) 0.883(4) 0.614(4) 0.13(2) Uiso 0.229(3) 1 d P . .
C202 C 0.733(3) 0.931(3) 0.567(2) 0.089(12) Uiso 0.229(3) 1 d P . .
C203 C 0.610(3) 0.841(3) 0.620(2) 0.105(14) Uiso 0.229(3) 1 d P . .
C204 C 0.793(3) 0.971(3) 0.537(2) 0.087(11) Uiso 0.229(3) 1 d P . .
C205 C 0.7843(13) 0.8712(13) 0.5953(11) 0.067(6) Uiso 0.458(6) 1 d P . .
C206 C 0.763(2) 0.787(2) 0.7296(18) 0.079(11) Uiso 0.229(3) 1 d P . .
C207 C 0.871(5) 0.853(5) 0.464(5) 0.09(2) Uiso 0.1146(14) 1 d P . .
C208 C 0.6965(15) 0.8281(14) 0.6122(12) 0.095(7) Uiso 0.458(6) 1 d P . .
C209 C 0.717(2) 0.810(2) 0.6908(19) 0.080(10) Uiso 0.229(3) 1 d P . .
C210 C 0.668(2) 0.901(2) 0.584(2) 0.077(10) Uiso 0.229(3) 1 d P . .
C211 C 0.8385(14) 0.9353(12) 0.6197(11) 0.086(6) Uiso 0.458(6) 1 d P . .
C212 C 0.7128(13) 0.9338(13) 0.6759(11) 0.098(6) Uiso 0.458(6) 1 d P . .
C213 C 0.8096(12) 0.9805(12) 0.6601(10) 0.087(6) Uiso 0.458(6) 1 d P . .
C214 C 0.815(2) 0.837(2) 0.7846(16) 0.067(9) Uiso 0.229(3) 1 d P . .
C215 C 0.872(2) 0.865(2) 0.654(2) 0.085(11) Uiso 0.229(3) 1 d P . .
C216 C 0.6610(15) 0.8670(14) 0.6439(12) 0.095(7) Uiso 0.458(6) 1 d P . .
C302 C 0.3333 0.6667 0.3097(8) 0.109(5) Uiso 1.375(17) 3 d SP . .
C303 C 0.3333 0.6667 0.2302(9) 0.128(6) Uiso 1.375(17) 3 d SP . .
H304 H 0.3853 0.6616 0.2047 0.153 Uiso 0.458(6) 1 d PR . .
H305 H 0.3778 0.7319 0.3230 0.153 Uiso 0.458(6) 1 d PR . .

loop_
_atom_site_aniso_label
_atom_site_aniso_U_11
_atom_site_aniso_U_22
_atom_site_aniso_U_33
_atom_site_aniso_U_23
_atom_site_aniso_U_13
_atom_site_aniso_U_12
Cu1 0.0224(4) 0.0145(3) 0.0265(4) -0.0022(2) -0.0013(3) 0.0069(3)
O1 0.045(2) 0.0268(19) 0.036(2) -0.0081(17) -0.0114(18) 0.0241(18)
O2 0.0223(19) 0.031(2) 0.038(2) -0.0071(17) 0.0025(16) 0.0052(16)
O3 0.055(3) 0.028(2) 0.039(3) -0.0062(17) -0.0127(19) 0.0278(19)
O4 0.028(2) 0.0257(19) 0.034(2) -0.0049(16) 0.0043(16) 0.0003(16)
C1 0.028(3) 0.020(3) 0.035(3) -0.001(2) 0.000(2) 0.011(2)
C2 0.024(3) 0.023(3) 0.030(3) 0.000(2) 0.003(2) 0.012(2)
C3 0.028(3) 0.022(3) 0.034(3) -0.001(2) -0.002(2) 0.012(2)
C4 0.046(3) 0.027(3) 0.046(4) 0.001(3) -0.013(3) 0.021(3)
C5 0.076(5) 0.038(3) 0.051(4) -0.013(3) -0.036(4) 0.033(3)
C6 0.058(4) 0.026(3) 0.043(4) -0.005(3) -0.017(3) 0.023(3)
C7 0.022(3) 0.019(3) 0.029(3) 0.001(2) 0.003(2) 0.009(2)
C8 0.025(3) 0.021(3) 0.034(3) 0.001(2) -0.001(2) 0.010(2)
N11 0.033(3) 0.022(2) 0.032(3) -0.0039(19) -0.002(2) 0.011(2)
C11 0.051(4) 0.055(4) 0.048(4) -0.012(3) -0.003(3) 0.010(3)
C12 0.078(6) 0.070(5) 0.054(5) -0.029(4) -0.019(4) 0.016(4)
C13 0.091(6) 0.061(5) 0.043(5) -0.021(4) -0.025(4) 0.041(5)
C14 0.098(6) 0.067(5) 0.031(4) 0.001(3) 0.006(4) 0.056(5)
C15 0.059(4) 0.040(3) 0.035(4) -0.003(3) 0.005(3) 0.025(3)

_geom_special_details            
; 
All esds (except the esd in the dihedral angle between two l.s. planes) 
are estimated using the full covariance matrix.  The cell esds are taken 
into account individually in the estimation of esds in distances, angles 
and torsion angles; correlations between esds in cell parameters are only 
used when they are defined by crystal symmetry.  An approximate (isotropic) 
treatment of cell esds is used for estimating esds involving l.s. planes. 
;

loop_
_geom_bond_atom_site_label_1
_geom_bond_atom_site_label_2
_geom_bond_distance
_geom_bond_site_symmetry_2
_geom_bond_publ_flag
Cu1 O2 1.964(3) . ?
Cu1 O4 1.964(3) . ?
Cu1 O3 1.967(3) . ?
Cu1 O1 1.985(3) . ?
Cu1 N11 2.163(4) . ?
Cu1 Cu1 2.6671(11) 5_675 ?
O1 C7 1.248(5) . ?
O2 C8 1.256(6) . ?
O3 C8 1.259(6) 5_675 ?
O4 C7 1.252(6) 5_675 ?
C1 C2 1.387(6) . ?
C1 C6 1.397(7) . ?
C1 C7 1.499(7) . ?
C2 C3 1.385(6) . ?
C3 C4 1.398(7) . ?
C3 C8 1.499(7) 3_565 ?
C4 C5 1.382(7) . ?
C5 C6 1.381(7) . ?
C7 O4 1.252(6) 5_675 ?
C8 O3 1.259(6) 5_675 ?
C8 C3 1.499(7) 2_665 ?
N11 C11 1.320(7) . ?
N11 C15 1.342(7) . ?
C11 C12 1.390(8) . ?
C12 C13 1.359(10) . ?
C13 C14 1.360(9) . ?
C14 C15 1.383(9) . ?
N201 O201 1.232(14) . ?
N201 O202 1.248(14) . ?
N201 C205 1.46(2) . ?
N201 C204 1.89(5) 9_656 ?
O201 C207 1.71(9) . ?
O202 C204 1.47(4) 9_656 ?
C201 C205 0.59(7) . ?
C201 C211 1.18(8) . ?
C201 C208 1.22(8) . ?
C201 C202 1.65(7) . ?
C201 C213 1.82(7) . ?
C201 C209 1.94(8) . ?
C201 C216 1.96(8) . ?
C202 C210 1.11(4) . ?
C202 C204 1.15(5) . ?
C202 C205 1.88(5) . ?
C202 C208 1.91(5) . ?
C202 C216 1.99(5) . ?
C202 C207 2.03(9) 8_566 ?
C203 C216 0.95(4) . ?
C203 C210 1.32(5) . ?
C203 C208 1.76(5) . ?
C204 C207 1.02(8) 8_566 ?
C204 O202 1.47(4) 8_566 ?
C204 N201 1.89(5) 8_566 ?
C205 C211 1.22(3) . ?
C205 C208 1.46(3) . ?
C206 C206 1.12(6) 4_556 ?
C206 C214 1.25(4) 4_556 ?
C206 C209 1.37(4) . ?
C206 C214 1.44(4) . ?
C207 C204 1.02(8) 9_656 ?
C207 C211 1.83(9) 9_656 ?
C207 C202 2.03(9) 9_656 ?
C208 C216 1.35(3) . ?
C208 C209 1.68(4) . ?
C208 C210 1.78(4) . ?
C210 C216 1.33(4) . ?
C210 C212 1.98(4) . ?
C211 C213 1.45(2) . ?
C211 C207 1.83(9) 8_566 ?
C211 C215 1.83(4) . ?
C212 C216 1.30(3) . ?
C212 C213 1.60(3) . ?
C214 C206 1.25(4) 4_556 ?
C214 C215 1.48(5) 4_556 ?
C214 C214 1.56(6) 4_556 ?
C215 C214 1.48(5) 4_556 ?
C302 C303 1.58(2) . ?

loop_
_geom_angle_atom_site_label_1
_geom_angle_atom_site_label_2
_geom_angle_atom_site_label_3
_geom_angle
_geom_angle_site_symmetry_1
_geom_angle_site_symmetry_3
_geom_angle_publ_flag
O2 Cu1 O4 169.39(15) . . ?
O2 Cu1 O3 88.77(16) . . ?
O4 Cu1 O3 89.15(17) . . ?
O2 Cu1 O1 90.16(16) . . ?
O4 Cu1 O1 89.19(16) . . ?
O3 Cu1 O1 165.18(15) . . ?
O2 Cu1 N11 95.58(15) . . ?
O4 Cu1 N11 95.02(15) . . ?
O3 Cu1 N11 101.86(15) . . ?
O1 Cu1 N11 92.96(15) . . ?
O2 Cu1 Cu1 84.56(10) . 5_675 ?
O4 Cu1 Cu1 84.87(10) . 5_675 ?
O3 Cu1 Cu1 82.95(11) . 5_675 ?
O1 Cu1 Cu1 82.24(10) . 5_675 ?
N11 Cu1 Cu1 175.20(11) . 5_675 ?
C7 O1 Cu1 124.7(3) . . ?
C8 O2 Cu1 122.5(3) . . ?
C8 O3 Cu1 124.2(3) 5_675 . ?
C7 O4 Cu1 122.6(3) 5_675 . ?
C2 C1 C6 119.4(5) . . ?
C2 C1 C7 120.3(5) . . ?
C6 C1 C7 120.4(4) . . ?
C3 C2 C1 120.5(5) . . ?
C2 C3 C4 119.8(5) . . ?
C2 C3 C8 119.7(5) . 3_565 ?
C4 C3 C8 120.5(4) . 3_565 ?
C5 C4 C3 119.5(5) . . ?
C6 C5 C4 120.7(5) . . ?
C5 C6 C1 120.0(5) . . ?
O1 C7 O4 125.5(5) . 5_675 ?
O1 C7 C1 117.5(5) . . ?
O4 C7 C1 117.0(4) 5_675 . ?
O2 C8 O3 125.8(5) . 5_675 ?
O2 C8 C3 117.6(5) . 2_665 ?
O3 C8 C3 116.6(4) 5_675 2_665 ?
C11 N11 C15 116.7(5) . . ?
C11 N11 Cu1 120.4(4) . . ?
C15 N11 Cu1 122.1(4) . . ?
N11 C11 C12 124.1(7) . . ?
C13 C12 C11 118.6(7) . . ?
C12 C13 C14 118.1(7) . . ?
C13 C14 C15 120.5(7) . . ?
N11 C15 C14 121.9(6) . . ?
O201 N201 O202 123.2(13) . . ?
O201 N201 C205 115.1(14) . . ?
O202 N201 C205 121.7(14) . . ?
O201 N201 C204 78.6(15) . 9_656 ?
O202 N201 C204 51.0(14) . 9_656 ?
C205 N201 C204 150.5(17) . 9_656 ?
N201 O201 C207 83(3) . . ?
N201 O202 C204 88(2) . 9_656 ?
C205 C201 C211 79(9) . . ?
C205 C201 C208 102(10) . . ?
C211 C201 C208 177(7) . . ?
C205 C201 C202 104(9) . . ?
C211 C201 C202 100(5) . . ?
C208 C201 C202 82(4) . . ?
C205 C201 C213 131(10) . . ?
C211 C201 C213 53(3) . . ?
C208 C201 C213 127(5) . . ?
C202 C201 C213 80(3) . . ?
C205 C201 C209 114(9) . . ?
C211 C201 C209 118(5) . . ?
C208 C201 C209 59(3) . . ?
C202 C201 C209 130(5) . . ?
C213 C201 C209 97(4) . . ?
C205 C201 C216 143(10) . . ?
C211 C201 C216 137(5) . . ?
C208 C201 C216 43(3) . . ?
C202 C201 C216 66(3) . . ?
C213 C201 C216 84(3) . . ?
C209 C201 C216 63(3) . . ?
C210 C202 C204 162(6) . . ?
C210 C202 C201 101(5) . . ?
C204 C202 C201 97(4) . . ?
C210 C202 C205 111(4) . . ?
C204 C202 C205 85(3) . . ?
C201 C202 C205 18(3) . . ?
C210 C202 C208 66(3) . . ?
C204 C202 C208 129(4) . . ?
C201 C202 C208 39(3) . . ?
C205 C202 C208 45.1(13) . . ?
C210 C202 C216 39(3) . . ?
C204 C202 C216 158(4) . . ?
C201 C202 C216 64(3) . . ?
C205 C202 C216 78.6(18) . . ?
C208 C202 C216 40.5(13) . . ?
C210 C202 C207 177(4) . 8_566 ?
C204 C202 C207 19(4) . 8_566 ?
C201 C202 C207 78(4) . 8_566 ?
C205 C202 C207 67(3) . 8_566 ?
C208 C202 C207 112(3) . 8_566 ?
C216 C202 C207 140(3) . 8_566 ?
C216 C203 C210 69(4) . . ?
C216 C203 C208 50(3) . . ?
C210 C203 C208 69(3) . . ?
C207 C204 C202 139(8) 8_566 . ?
C207 C204 O202 118(7) 8_566 8_566 ?
C202 C204 O202 103(4) . 8_566 ?
C207 C204 N201 79(6) 8_566 8_566 ?
C202 C204 N201 138(4) . 8_566 ?
O202 C204 N201 41.2(13) 8_566 8_566 ?
C201 C205 C211 72(9) . . ?
C201 C205 C208 55(9) . . ?
C211 C205 C208 127(2) . . ?
C201 C205 N201 169(10) . . ?
C211 C205 N201 118(2) . . ?
C208 C205 N201 114.5(18) . . ?
C201 C205 C202 58(8) . . ?
C211 C205 C202 87(2) . . ?
C208 C205 C202 68.6(18) . . ?
N201 C205 C202 124.8(19) . . ?
C206 C206 C214 75(3) 4_556 4_556 ?
C206 C206 C209 166(5) 4_556 . ?
C214 C206 C209 119(3) 4_556 . ?
C206 C206 C214 56(2) 4_556 . ?
C214 C206 C214 70(3) 4_556 . ?
C209 C206 C214 123(3) . . ?
C204 C207 O201 93(7) 9_656 . ?
C204 C207 C211 90(7) 9_656 9_656 ?
O201 C207 C211 146(5) . 9_656 ?
C204 C207 C202 22(4) 9_656 9_656 ?
O201 C207 C202 107(4) . 9_656 ?
C211 C207 C202 69(3) 9_656 9_656 ?
C201 C208 C216 99(4) . . ?
C201 C208 C205 23(3) . . ?
C216 C208 C205 122(2) . . ?
C201 C208 C209 82(4) . . ?
C216 C208 C209 84(2) . . ?
C205 C208 C209 90.9(19) . . ?
C201 C208 C203 126(4) . . ?
C216 C208 C203 32.5(18) . . ?
C205 C208 C203 143(2) . . ?
C209 C208 C203 105(2) . . ?
C201 C208 C210 90(3) . . ?
C216 C208 C210 47.8(16) . . ?
C205 C208 C210 101(2) . . ?
C209 C208 C210 130(2) . . ?
C203 C208 C210 43.8(18) . . ?
C201 C208 C202 59(3) . . ?
C216 C208 C202 73(2) . . ?
C205 C208 C202 66.2(18) . . ?
C209 C208 C202 129(2) . . ?
C203 C208 C202 78(2) . . ?
C210 C208 C202 34.8(14) . . ?
C206 C209 C208 146(3) . . ?
C206 C209 C201 120(4) . . ?
C208 C209 C201 38(2) . . ?
C202 C210 C203 146(5) . . ?
C202 C210 C216 109(4) . . ?
C203 C210 C216 42(2) . . ?
C202 C210 C208 79(3) . . ?
C203 C210 C208 67(3) . . ?
C216 C210 C208 49.1(17) . . ?
