
#######################################################################
#
#                 Cambridge Crystallographic Data Centre
#                                CCDC
#
#######################################################################
#
# If this CIF has been generated from an entry in the Cambridge
# Structural Database, then it will include bibliographic, chemical,
# crystal, experimental, refinement or atomic coordinate data resulting
# from the CCDC's data processing and validation procedures.
#
#######################################################################

data_CSD_CIF_PACSOB
_audit_creation_date 1992-12-16
_audit_creation_method CSD-ConQuest-V1
_database_code_CSD PACSOB
_database_code_depnum_ccdc_archive 'CCDC 1226817'
_chemical_formula_sum 'C16 H16 N2 O6'
_chemical_formula_moiety
;
C9 H11 N1 O2,C7 H5 N1 O4
;
_journal_coden_Cambridge 182
_journal_year 1992
_journal_page_first 832
_journal_name_full 'Chem.Commun. '
loop_
_publ_author_name
"C.V.K.Sharma"
"K.Panneerselvam"
"T.Pilati"
"G.R.Desiraju"
_chemical_name_systematic
;
4-Nitrobenzoic acid 4-(N,N-dimethylamino)benzoic acid
;
_chemical_name_common
;
PDB Chemical Component code: XP1; Teaching Subset: Fundamental Chemistry, 
Symmetry
;
_chemical_melting_point 508
_cell_volume   1539.019
_exptl_crystal_colour 'orange-yellow'
_diffrn_ambient_temperature ?
_diffrn_special_details
;
The study was carried out at room temperature,in the range 283-303K

;
_refine_special_details
;
Both carboxy groups are disordered.

;
#These two values have been output from a single CSD field.
_refine_ls_R_factor_gt 0.038
_refine_ls_wR_factor_gt 0.038
_symmetry_cell_setting monoclinic
_symmetry_space_group_name_H-M 'P 21/c'
_symmetry_Int_Tables_number 14
loop_
_symmetry_equiv_pos_site_id
_symmetry_equiv_pos_as_xyz
1 x,y,z
2 -x,1/2+y,1/2-z
3 -x,-y,-z
4 x,-1/2-y,-1/2+z
_cell_length_a 15.181(3)
_cell_length_b 7.126(1)
_cell_length_c 14.258(3)
_cell_angle_alpha 90
_cell_angle_beta 93.81(2)
_cell_angle_gamma 90
_cell_formula_units_Z 4
loop_
_atom_type_symbol
_atom_type_radius_bond
C 0.68
H 0.23
N 0.68
O 0.68
loop_
_atom_site_label
_atom_site_type_symbol
_atom_site_fract_x
_atom_site_fract_y
_atom_site_fract_z
C1 C 0.0751(2) 0.3233(3) 0.2108(2)
C2 C 0.1564(2) 0.2476(4) 0.1928(2)
C3 C 0.2238(2) 0.2424(4) 0.2626(2)
C4 C 0.2081(2) 0.3146(4) 0.3492(2)
C5 C 0.1277(2) 0.3869(4) 0.3699(2)
C6 C 0.0610(2) 0.3904(4) 0.2998(2)
C7 C 0.0037(2) 0.3328(4) 0.1346(2)
N1 N 0.2812(2) 0.3153(4) 0.4229(2)
O1 O 0.0184(2) 0.2616(3) 0.0560(2)
O2 O -0.0679(1) 0.4097(3) 0.1517(1)
O3 O 0.3502(2) 0.2377(3) 0.4063(2)
O4 O 0.2694(2) 0.3949(4) 0.4970(2)
H1 H 0.164(2) 0.206(3) 0.137(2)
H2 H 0.280(2) 0.189(4) 0.249(2)
H3 H 0.120(2) 0.437(4) 0.433(2)
H4 H 0.006(2) 0.437(3) 0.312(2)
H5 H -0.026(4) 0.268(8) 0.016(5)
C8 C -0.2529(2) 0.3433(4) -0.1343(2)
C9 C -0.3316(2) 0.4387(4) -0.1249(2)
C10 C -0.3978(2) 0.4403(4) -0.1949(2)
C11 C -0.3885(2) 0.3418(4) -0.2795(2)
C12 C -0.3082(2) 0.2493(4) -0.2897(2)
C13 C -0.2427(2) 0.2508(4) -0.2189(2)
C14 C -0.1825(2) 0.3432(4) -0.0600(2)
C15 C -0.5359(2) 0.4410(6) -0.3391(3)
C16 C -0.4431(3) 0.2468(6) -0.4376(2)
N2 N -0.4562(1) 0.3346(3) -0.3479(2)
O5 O -0.1948(1) 0.4276(3) 0.0170(1)
O6 O -0.1107(2) 0.2597(3) -0.0739(2)
H6 H -0.336(1) 0.510(3) -0.069(2)
H7 H -0.450(2) 0.514(3) -0.188(2)
H8 H -0.300(1) 0.185(3) -0.343(2)
H9 H -0.190(2) 0.181(4) -0.226(2)
H10 H -0.581(2) 0.407(4) -0.388(2)
H11 H -0.523(2) 0.570(5) -0.340(2)
H12 H -0.563(2) 0.404(4) -0.278(2)
H13 H -0.502(2) 0.254(4) -0.476(2)
H14 H -0.426(2) 0.111(6) -0.429(2)
H15 H -0.398(2) 0.306(5) -0.472(2)
H16 H -0.149(4) 0.422(7) 0.058(4)
H17? H -0.107(4) 0.408(9) 0.109(4)
H18? H -0.071(5) 0.249(9) -0.041(5)
#END
