
#######################################################################
#
#                 Cambridge Crystallographic Data Centre
#                                CCDC
#
#######################################################################
#
# If this CIF has been generated from an entry in the Cambridge
# Structural Database, then it will include bibliographic, chemical,
# crystal, experimental, refinement or atomic coordinate data resulting
# from the CCDC's data processing and validation procedures.
#
#######################################################################

data_CSD_CIF_PALSOK
_audit_creation_date 1993-05-14
_audit_creation_method CSD-ConQuest-V1
_database_code_CSD PALSOK
_database_code_depnum_ccdc_archive 'CCDC 1227680'
_chemical_formula_sum 'C34 H41 Mo2 N1 O4'
_chemical_formula_moiety
;
C34 H41 Mo2 N1 O4
;
_journal_coden_Cambridge 579
_journal_volume 11
_journal_year 1992
_journal_page_first 2884
_journal_name_full 'Organometallics '
loop_
_publ_author_name
"M.D.Curtis"
"M.S.Hay"
"W.M.Butler"
"J.Kampf"
"A.L.Rheingold"
"B.S.Haggerty"
_chemical_name_systematic
;
bis(\h^5^-Pentamethyl-cyclopentadienyl)-bis(\m~2~-carbonyl)-(2-methyl-1-phenyl
-1-propenylimido)-dicarbonyl-di-molybdenum
;
_chemical_name_common
;
Teaching Subset: Fundamental Chemistry
;
_cell_volume   3266.168
_exptl_crystal_colour 'deep red'
_diffrn_ambient_temperature ?
_diffrn_special_details
;
The study was carried out at room temperature,in the range 283-303K

;
#These two values have been output from a single CSD field.
_refine_ls_R_factor_gt 0.0214
_refine_ls_wR_factor_gt 0.0214
_symmetry_cell_setting monoclinic
_symmetry_space_group_name_H-M 'C c'
_symmetry_Int_Tables_number 9
loop_
_symmetry_equiv_pos_site_id
_symmetry_equiv_pos_as_xyz
1 x,y,z
2 1/2+x,1/2+y,z
3 x,-y,1/2+z
4 1/2+x,1/2-y,1/2+z
_cell_length_a 17.490(6)
_cell_length_b 8.973(3)
_cell_length_c 22.023(6)
_cell_angle_alpha 90
_cell_angle_beta 109.09(2)
_cell_angle_gamma 90
_cell_formula_units_Z 4
loop_
_atom_type_symbol
_atom_type_radius_bond
C 0.68
H 0.23
Mo 1.47
N 0.68
O 0.68
loop_
_atom_site_label
_atom_site_type_symbol
_atom_site_fract_x
_atom_site_fract_y
_atom_site_fract_z
Mo1 Mo 0.00000 0.12787(8) 0.00000
Mo2 Mo 0.05488(4) 0.03124(7) -0.10900(3)
C1 C 0.1011(5) 0.195(1) 0.0623(4)
O1 O 0.1567(4) 0.244(1) 0.1014(4)
C2 C -0.0134(4) -0.081(1) -0.0635(4)
O2 O -0.0544(3) -0.1880(7) -0.0685(3)
C3 C 0.0297(5) -0.046(1) 0.0578(4)
O3 O 0.0394(4) -0.1451(8) 0.0932(3)
O4 O 0.1044(3) 0.3466(7) -0.0549(3)
C4 C 0.0760(4) 0.227(1) -0.0557(4)
C5 C -0.0791(5) 0.241(1) 0.0494(4)
C6 C -0.1275(5) 0.128(1) 0.0081(6)
C7 C -0.1378(4) 0.171(1) -0.0545(4)
C8 C -0.0981(4) 0.307(1) -0.0540(4)
C9 C -0.0618(4) 0.352(1) 0.0090(4)
C10 C -0.0608(6) 0.251(1) 0.1209(4)
C11 C -0.1659(6) -0.001(1) 0.0302(5)
C12 C -0.1906(5) 0.096(1) -0.1151(4)
C13 C -0.1018(5) 0.396(1) -0.1130(4)
C14 C -0.0192(5) 0.495(1) 0.0314(5)
C15 C 0.1884(5) 0.041(1) -0.1151(5)
C16 C 0.1992(4) -0.014(1) -0.0523(4)
C17 C 0.1590(4) -0.151(1) -0.0587(4)
C18 C 0.1230(4) -0.184(1) -0.1234(5)
C19 C 0.1420(4) -0.066(1) -0.1591(4)
C20 C 0.2231(5) 0.186(1) -0.1302(4)
C21 C 0.2508(5) 0.056(1) 0.0102(5)
C22 C 0.1607(5) -0.249(1) -0.0038(5)
C23 C 0.0825(5) -0.328(1) -0.1498(5)
C24 C 0.1222(6) -0.057(1) -0.2322(4)
N1 N -0.0219(3) 0.0872(7) -0.1788(3)
C25 C -0.0770(4) 0.121(1) -0.2386(3)
C26 C -0.0672(4) 0.239(1) -0.2715(3)
C27 C 0.0019(4) 0.344(1) -0.2445(3)
C28 C -0.1241(5) 0.281(1) -0.3384(3)
C29 C -0.1456(4) 0.002(1) -0.2612(3)
C30 C -0.1273(5) -0.144(1) -0.2485(4)
C31 C -0.1880(7) -0.252(1) -0.2701(4)
C32 C -0.2649(8) -0.206(2) -0.3014(5)
C33 C -0.2847(7) -0.060(2) -0.3117(5)
C34 C -0.2249(5) 0.048(1) -0.2915(4)
H1 H -0.0278(6) 0.337(1) 0.1371(4)
H2 H -0.0322(6) 0.162(1) 0.1406(4)
H3 H -0.1102(6) 0.259(1) 0.1308(4)
H4 H -0.1945(6) -0.061(1) -0.0062(5)
H5 H -0.2032(6) 0.036(1) 0.0503(5)
H6 H -0.1253(6) -0.060(1) 0.0604(5)
H7 H -0.2123(5) 0.005(1) -0.1049(4)
H8 H -0.1588(5) 0.075(1) -0.1423(4)
H9 H -0.2341(5) 0.162(1) -0.1370(4)
H10 H -0.1297(5) 0.339(1) -0.1507(4)
H11 H -0.0479(5) 0.417(1) -0.1127(4)
H12 H -0.1303(5) 0.487(1) -0.1132(4)
H13 H -0.0003(5) 0.499(1) 0.0774(5)
H14 H -0.0555(5) 0.576(1) 0.0147(5)
H15 H 0.0260(5) 0.502(1) 0.0159(5)
H16 H 0.2080(5) 0.198(1) -0.1759(4)
H17 H 0.2810(5) 0.186(1) -0.1118(4)
H18 H 0.2013(5) 0.267(1) -0.1126(4)
H19 H 0.2718(5) 0.150(1) 0.0020(5)
H20 H 0.2948(5) -0.009(1) 0.0317(5)
H21 H 0.2176(5) 0.072(1) 0.0368(5)
H22 H 0.1291(5) -0.337(1) -0.0203(5)
H23 H 0.1381(5) -0.198(1) 0.0244(5)
H24 H 0.2154(5) -0.278(1) 0.0195(5)
H25 H 0.0624(5) -0.324(1) -0.1958(5)
H26 H 0.0383(5) -0.345(1) -0.1339(5)
H27 H 0.1212(5) -0.407(1) -0.1362(5)
H28 H 0.0900(6) -0.142(1) -0.2525(4)
H29 H 0.1717(6) -0.057(1) -0.2423(4)
H30 H 0.0929(6) 0.033(1) -0.2477(4)
H31 H -0.0006(4) 0.422(1) -0.2747(3)
H32 H 0.0522(4) 0.291(1) -0.2356(3)
H33 H -0.0015(4) 0.386(1) -0.2054(3)
H34 H -0.1051(5) 0.371(1) -0.3526(3)
H35 H -0.1776(5) 0.297(1) -0.3367(3)
H36 H -0.1253(5) 0.202(1) -0.3679(3)
H37 H -0.0728(5) -0.173(1) -0.2248(4)
H38 H -0.1751(7) -0.356(1) -0.2630(4)
H39 H -0.3062(8) -0.280(2) -0.3170(5)
H40 H -0.3404(7) -0.033(2) -0.3318(5)
H41 H -0.2384(5) 0.152(1) -0.2984(4)
H42? H -0.1029(4) 0.074(1) -0.2498(3)
#END
