
#######################################################################
#
#                 Cambridge Crystallographic Data Centre
#                                CCDC
#
#######################################################################
#
# If this CIF has been generated from an entry in the Cambridge
# Structural Database, then it will include bibliographic, chemical,
# crystal, experimental, refinement or atomic coordinate data resulting
# from the CCDC's data processing and validation procedures.
#
#######################################################################

data_CSD_CIF_PAMPEY
_audit_creation_date 1993-05-12
_audit_creation_method CSD-ConQuest-V1
_database_code_CSD PAMPEY
_database_code_depnum_ccdc_archive 'CCDC 1227800'
_chemical_formula_sum 'C4 H5 Cl1 O1'
_chemical_formula_moiety
;
C4 H5 Cl1 O1
;
_journal_coden_Cambridge 55
_journal_volume 111
_journal_year 1992
_journal_page_first 407
_journal_name_full 'Rec.Trav.Chim.Pays-Bas(Fr.)(Rec.J.R.Neth.Chem.Soc.) '
loop_
_publ_author_name
"J.S.A.M.de Boer"
"C.H.Stam"
_chemical_name_systematic
;
Cyclopropanecarbonylchloride
;
_chemical_name_common
;
Teaching Subset: Fundamental Chemistry, Symmetry
;
_cell_volume    246.428
_exptl_crystal_density_diffrn 1.412
_diffrn_ambient_temperature 151
#These two values have been output from a single CSD field.
_refine_ls_R_factor_gt 0.03
_refine_ls_wR_factor_gt 0.03
_symmetry_cell_setting monoclinic
_symmetry_space_group_name_H-M 'P 21/m'
_symmetry_Int_Tables_number 11
loop_
_symmetry_equiv_pos_site_id
_symmetry_equiv_pos_as_xyz
1 x,y,z
2 -x,1/2+y,-z
3 -x,-y,-z
4 x,-1/2-y,z
_cell_length_a 6.287(2)
_cell_length_b 7.092(2)
_cell_length_c 5.647(3)
_cell_angle_alpha 90
_cell_angle_beta 101.84(3)
_cell_angle_gamma 90
_cell_formula_units_Z 2
loop_
_atom_type_symbol
_atom_type_radius_bond
C 0.68
H 0.23
Cl 0.99
O 0.68
loop_
_atom_site_label
_atom_site_type_symbol
_atom_site_fract_x
_atom_site_fract_y
_atom_site_fract_z
C1 C -0.04770(41) 0.25000 0.13983(44)
C2 C -0.26037(31) 0.14619(27) 0.05334(33)
C3 C 0.03813(42) 0.25000 0.39933(46)
O1 O -0.05846(35) 0.25000 0.55912(35)
Cl1 Cl 0.33154(10) 0.25000 0.47441(11)
H1 H 0.0426(47) 0.25000 0.0432(52)
H2 H -0.3089(35) 0.0812(34) 0.1764(38)
H3 H -0.2788(34) 0.0789(34) -0.0979(37)
C2C C -0.26037(31) 0.35381(27) 0.05334(33)
H2C H -0.3089(35) 0.4188(34) 0.1764(38)
H3C H -0.2788(34) 0.4211(34) -0.0979(37)
#END
