####################################################################### 
# 
# This file contains crystal structure data downloaded from the 
# Cambridge Structural Database (CSD) hosted by the Cambridge 
# Crystallographic Data Centre (CCDC).
# 
# Full information about CCDC data access policies and citation 
# guidelines are available at http://www.ccdc.cam.ac.uk/access/V1 
# 
# Audit and citation data items may have been added by the CCDC. 
# Please retain this information to preserve the provenance of 
# this file and to allow appropriate attribution of the data. 
# 
#######################################################################

data_compound2
_audit_block_doi                 10.5517/ccwzssd
_database_code_depnum_ccdc_archive 'CCDC 833955'
loop_
_citation_id
_citation_doi
_citation_year
1 10.1016/j.ica.2011.09.049 2012
_audit_update_record             
;
2011-07-12 deposited with the CCDC.	2024-07-12 downloaded from the CCDC.
;

_audit_creation_method           SHELXL-97
_chemical_name_systematic        
;
?
;
_chemical_name_common            ?
_chemical_melting_point          ?
_chemical_formula_moiety         ?
_chemical_formula_sum            'C191 H273 Co4 Fe8 N12 O52'
_chemical_formula_weight         4251.75

loop_
_atom_type_symbol
_atom_type_description
_atom_type_scat_dispersion_real
_atom_type_scat_dispersion_imag
_atom_type_scat_source
C C 0.0033 0.0016 'International Tables Vol C Tables 4.2.6.8 and 6.1.1.4'
H H 0.0000 0.0000 'International Tables Vol C Tables 4.2.6.8 and 6.1.1.4'
Co Co 0.3494 0.9721 'International Tables Vol C Tables 4.2.6.8 and 6.1.1.4'
Fe Fe 0.3463 0.8444 'International Tables Vol C Tables 4.2.6.8 and 6.1.1.4'
N N 0.0061 0.0033 'International Tables Vol C Tables 4.2.6.8 and 6.1.1.4'
O O 0.0106 0.0060 'International Tables Vol C Tables 4.2.6.8 and 6.1.1.4'

_symmetry_cell_setting           orthorhombic
_symmetry_space_group_name_H-M   I2cb

loop_
_symmetry_equiv_pos_as_xyz
'x, y, z'
'x+1/2, y, -z'
'x, -y, -z'
'x+1/2, -y, z'
'x+1/2, y+1/2, z+1/2'
'x+1, y+1/2, -z+1/2'
'x+1/2, -y+1/2, -z+1/2'
'x+1, -y+1/2, z+1/2'

_cell_length_a                   29.8502(4)
_cell_length_b                   30.3697(5)
_cell_length_c                   43.5112(8)
_cell_angle_alpha                90.00
_cell_angle_beta                 90.00
_cell_angle_gamma                90.00
_cell_volume                     39444.7(11)
_cell_formula_units_Z            4
_cell_measurement_temperature    293(2)
_cell_measurement_reflns_used    35162
_cell_measurement_theta_min      0.998
_cell_measurement_theta_max      25.350

_exptl_crystal_description       block
_exptl_crystal_colour            greenish-brown
_exptl_crystal_size_max          0.40
_exptl_crystal_size_mid          0.20
_exptl_crystal_size_min          0.10
_exptl_crystal_density_meas      ?
_exptl_crystal_density_diffrn    0.716
_exptl_crystal_density_method    'not measured'
_exptl_crystal_F_000             8940
_exptl_absorpt_coefficient_mu    0.489
_exptl_absorpt_correction_type   numerical
_exptl_absorpt_correction_T_min  0.8283
_exptl_absorpt_correction_T_max  0.9527
_exptl_absorpt_process_details   ?

_exptl_special_details           
;
A series of disordered DMF solvate molecules could not be
properly modeled and their electron density was instead corrected
using the Squeeze procedure implemented in Platon.
;

_diffrn_ambient_temperature      293(2)
_diffrn_radiation_wavelength     0.71073
_diffrn_radiation_type           MoK\a
_diffrn_radiation_source         'fine-focus sealed tube'
_diffrn_radiation_monochromator  graphite
_diffrn_measurement_device_type  KappaCCD
_diffrn_measurement_method       'CCD rotation images, thick slices'
_diffrn_detector_area_resol_mean 9
_diffrn_standards_number         ?
_diffrn_standards_interval_count ?
_diffrn_standards_interval_time  ?
_diffrn_standards_decay_%        ?
_diffrn_reflns_number            63000
_diffrn_reflns_av_R_equivalents  0.0515
_diffrn_reflns_av_sigmaI/netI    0.0883
_diffrn_reflns_limit_h_min       -35
_diffrn_reflns_limit_h_max       35
_diffrn_reflns_limit_k_min       -36
_diffrn_reflns_limit_k_max       30
_diffrn_reflns_limit_l_min       -52
_diffrn_reflns_limit_l_max       52
_diffrn_reflns_theta_min         1.34
_diffrn_reflns_theta_max         25.39
_reflns_number_total             34711
_reflns_number_gt                14189
_reflns_threshold_expression     >2sigma(I)

_computing_data_collection       'Collect (Bruker AXS BV, 1997-2004)'
_computing_cell_refinement       'HKL Scalepack (Otwinowski & Minor 1997)'
_computing_data_reduction        
'HKL Denzo and Scalepack (Otwinowski & Minor 1997)'
_computing_structure_solution    SHELXS-97
_computing_structure_refinement  'SHELXL-97 (Sheldrick, 1997)'
_computing_molecular_graphics    ?
_computing_publication_material  ?

_refine_special_details          
;
Refinement of F^2^ against ALL reflections. The weighted R-factor wR and
goodness of fit S are based on F^2^, conventional R-factors R are based
on F, with F set to zero for negative F^2^. The threshold expression of
F^2^ > 2sigma(F^2^) is used only for calculating R-factors(gt) etc. and is
not relevant to the choice of reflections for refinement. R-factors based
on F^2^ are statistically about twice as large as those based on F, and R-
factors based on ALL data will be even larger.
;

_refine_ls_structure_factor_coef Fsqd
_refine_ls_matrix_type           full
_refine_ls_weighting_scheme      calc
_refine_ls_weighting_details     
'calc w=1/[\s^2^(Fo^2^)+(0.1501P)^2^+0.0000P] where P=(Fo^2^+2Fc^2^)/3'
_atom_sites_solution_primary     direct
_atom_sites_solution_secondary   difmap
_atom_sites_solution_hydrogens   geom
_refine_ls_hydrogen_treatment    constr
_refine_ls_extinction_method     none
_refine_ls_extinction_coef       ?
_refine_ls_abs_structure_details 'Flack H D (1983), Acta Cryst. A39, 876-881'
_refine_ls_abs_structure_Flack   0.381(18)
_refine_ls_number_reflns         34711
_refine_ls_number_parameters     1176
_refine_ls_number_restraints     75
_refine_ls_R_factor_all          0.1474
_refine_ls_R_factor_gt           0.0803
_refine_ls_wR_factor_ref         0.2434
_refine_ls_wR_factor_gt          0.2082
_refine_ls_goodness_of_fit_ref   0.842
_refine_ls_restrained_S_all      0.847
_refine_ls_shift/su_max          0.004
_refine_ls_shift/su_mean         0.000

loop_
_atom_site_label
_atom_site_type_symbol
_atom_site_fract_x
_atom_site_fract_y
_atom_site_fract_z
_atom_site_U_iso_or_equiv
_atom_site_adp_type
_atom_site_occupancy
_atom_site_symmetry_multiplicity
_atom_site_calc_flag
_atom_site_refinement_flags
_atom_site_disorder_assembly
_atom_site_disorder_group
C13 C 0.2540(6) 0.7229(5) -0.0310(3) 0.76(5) Uani 1 1 d D . .
H13 H 0.2432 0.7490 -0.0226 0.910 Uiso 1 1 calc R . .
C14 C 0.2826(5) 0.7253(4) -0.0566(3) 0.46(2) Uani 1 1 d D . .
H14 H 0.2919 0.7522 -0.0646 0.553 Uiso 1 1 calc R . .
C15 C 0.2956(3) 0.6874(4) -0.06875(17) 0.174(5) Uani 1 1 d D . .
C16 C 0.2814(4) 0.6482(5) -0.0581(3) 0.44(2) Uani 1 1 d D . .
H16 H 0.2915 0.6217 -0.0663 0.532 Uiso 1 1 calc R . .
C18 C 0.3630(4) 0.6841(5) -0.1456(3) 0.176(4) Uiso 1 1 d D . .
C20 C -0.1008(4) 1.1490(4) 0.3152(2) 0.188(5) Uani 1 1 d . . .
H20 H -0.0903 1.1223 0.3076 0.225 Uiso 1 1 calc R . .
C21 C -0.0979(3) 1.2220(5) 0.3167(2) 0.182(5) Uani 1 1 d . . .
H21 H -0.0842 1.2478 0.3099 0.219 Uiso 1 1 calc R . .
C22 C 0.3763(4) 0.7225(5) -0.1566(2) 0.213(6) Uani 1 1 d D . .
H22 H 0.3688 0.7487 -0.1469 0.255 Uiso 1 1 calc R . .
C23 C 0.3402(5) 0.6910(7) -0.1207(4) 0.299(10) Uiso 1 1 d D . .
H23 H 0.3262 0.7176 -0.1253 0.358 Uiso 1 1 calc R . .
C24 C 0.3257(6) 0.6838(5) -0.0945(4) 0.244(7) Uiso 1 1 d D . .
H24 H 0.3471 0.6643 -0.0870 0.293 Uiso 1 1 calc R . .
C39 C 0.2308(3) 0.6004(3) 0.0530(2) 0.115(2) Uani 1 1 d D . .
C40 C 0.2669(3) 0.5670(3) 0.0557(2) 0.137(3) Uani 1 1 d D . .
C44 C 0.2892(5) 0.7713(6) 0.0760(4) 0.264(9) Uani 1 1 d D . .
C51 C 0.0714(3) 0.8569(3) 0.1067(2) 0.134(3) Uani 1 1 d D . .
H51 H 0.0447 0.8699 0.1004 0.161 Uiso 1 1 calc R . .
C52 C 0.0986(5) 0.8756(3) 0.1296(3) 0.173(5) Uani 1 1 d . . .
C56 C 0.0926(5) 0.9177(3) 0.1471(3) 0.182(5) Uani 1 1 d D . .
H56 H 0.1150 0.9265 0.1606 0.218 Uiso 1 1 calc R . .
C261 C -0.1669(7) 1.2845(9) 0.2321(5) 0.377(14) Uani 1 1 d D . .
H26A H -0.1704 1.2600 0.2459 0.566 Uiso 1 1 calc R . .
H26B H -0.1950 1.2904 0.2222 0.566 Uiso 1 1 calc R . .
H26C H -0.1576 1.3100 0.2435 0.566 Uiso 1 1 calc R . .
C263 C -0.1593(6) 1.2393(6) 0.1926(5) 0.330(14) Uani 1 1 d D . .
H26D H -0.1422 1.2275 0.1759 0.494 Uiso 1 1 calc R . .
H26E H -0.1864 1.2522 0.1849 0.494 Uiso 1 1 calc R . .
H26F H -0.1665 1.2161 0.2068 0.494 Uiso 1 1 calc R . .
C342 C -0.0088(7) 0.6712(10) 0.0508(6) 0.41(2) Uani 1 1 d . . .
H34A H 0.0012 0.6920 0.0357 0.620 Uiso 1 1 calc R . .
H34B H -0.0409 0.6689 0.0501 0.620 Uiso 1 1 calc R . .
H34C H 0.0042 0.6429 0.0467 0.620 Uiso 1 1 calc R . .
C343 C -0.0141(4) 0.6497(7) 0.0982(5) 0.299(11) Uani 1 1 d . . .
H34D H -0.0082 0.6535 0.1197 0.448 Uiso 1 1 calc R . .
H34E H -0.0008 0.6226 0.0913 0.448 Uiso 1 1 calc R . .
H34F H -0.0459 0.6487 0.0948 0.448 Uiso 1 1 calc R . .
C363 C 0.2445(4) 0.6583(9) 0.1451(5) 0.360(15) Uani 1 1 d . . .
H36A H 0.2655 0.6540 0.1615 0.540 Uiso 1 1 calc R . .
H36B H 0.2544 0.6822 0.1324 0.540 Uiso 1 1 calc R . .
H36C H 0.2426 0.6319 0.1330 0.540 Uiso 1 1 calc R . .
C382 C 0.0680(6) 0.5677(5) -0.0135(3) 0.231(7) Uani 1 1 d . . .
H38A H 0.0458 0.5885 -0.0069 0.346 Uiso 1 1 calc R . .
H38B H 0.0743 0.5474 0.0029 0.346 Uiso 1 1 calc R . .
H38C H 0.0570 0.5518 -0.0310 0.346 Uiso 1 1 calc R . .
C401 C 0.2898(7) 0.5643(8) 0.0255(4) 0.46(2) Uani 1 1 d D . .
H40A H 0.2978 0.5933 0.0187 0.696 Uiso 1 1 calc R . .
H40B H 0.2701 0.5510 0.0107 0.696 Uiso 1 1 calc R . .
H40C H 0.3164 0.5467 0.0274 0.696 Uiso 1 1 calc R . .
C402 C 0.2527(6) 0.5261(6) 0.0686(7) 0.46(2) Uani 1 1 d D . .
H40D H 0.2313 0.5125 0.0551 0.696 Uiso 1 1 calc R . .
H40E H 0.2391 0.5312 0.0882 0.696 Uiso 1 1 calc R . .
H40F H 0.2781 0.5070 0.0710 0.696 Uiso 1 1 calc R . .
C403 C 0.2982(8) 0.5777(11) 0.0807(7) 0.76(5) Uani 1 1 d D . .
H40G H 0.3123 0.6055 0.0766 1.137 Uiso 1 1 calc R . .
H40H H 0.3207 0.5551 0.0821 1.137 Uiso 1 1 calc R . .
H40I H 0.2822 0.5793 0.0998 1.137 Uiso 1 1 calc R . .
C421 C 0.0703(9) 0.8089(8) -0.0005(4) 0.48(3) Uani 1 1 d D . .
H42A H 0.0870 0.8313 0.0101 0.720 Uiso 1 1 calc R . .
H42B H 0.0518 0.7934 0.0140 0.720 Uiso 1 1 calc R . .
H42C H 0.0519 0.8222 -0.0159 0.720 Uiso 1 1 calc R . .
C422 C 0.0808(12) 0.7411(6) -0.0321(6) 0.43(4) Uani 0.50 1 d PD . .
H42D H 0.1037 0.7223 -0.0404 0.646 Uiso 0.50 1 calc PR . .
H42E H 0.0630 0.7527 -0.0486 0.646 Uiso 0.50 1 calc PR . .
H42F H 0.0621 0.7244 -0.0184 0.646 Uiso 0.50 1 calc PR . .
C423 C 0.1357(8) 0.8013(10) -0.0362(5) 0.49(2) Uani 1 1 d D . .
H42G H 0.1495 0.8251 -0.0251 0.729 Uiso 1 1 calc R . .
H42H H 0.1205 0.8127 -0.0539 0.729 Uiso 1 1 calc R . .
H42I H 0.1584 0.7808 -0.0426 0.729 Uiso 1 1 calc R . .
C441 C 0.2777(6) 0.7997(9) 0.1024(5) 0.416(19) Uani 1 1 d . . .
H44A H 0.2535 0.8190 0.0969 0.625 Uiso 1 1 calc R . .
H44B H 0.3033 0.8170 0.1081 0.625 Uiso 1 1 calc R . .
H44C H 0.2688 0.7817 0.1195 0.625 Uiso 1 1 calc R . .
C442 C 0.3206(11) 0.7353(10) 0.0875(7) 0.43(2) Uiso 1 1 d D . .
H44D H 0.3296 0.7171 0.0706 0.646 Uiso 1 1 calc R . .
H44E H 0.3053 0.7177 0.1026 0.646 Uiso 1 1 calc R . .
H44F H 0.3466 0.7486 0.0967 0.646 Uiso 1 1 calc R . .
C443 C 0.3085(7) 0.7887(9) 0.0478(5) 0.52(2) Uani 1 1 d D . .
H44G H 0.2905 0.8127 0.0405 0.786 Uiso 1 1 calc R . .
H44H H 0.3094 0.7659 0.0325 0.786 Uiso 1 1 calc R . .
H44I H 0.3383 0.7990 0.0518 0.786 Uiso 1 1 calc R . .
C583 C 0.1496(7) 1.1509(10) 0.2413(4) 0.52(3) Uani 1 1 d D . .
H58A H 0.1331 1.1239 0.2428 0.785 Uiso 1 1 calc R . .
H58B H 0.1405 1.1706 0.2574 0.785 Uiso 1 1 calc R . .
H58C H 0.1811 1.1449 0.2432 0.785 Uiso 1 1 calc R . .
C601 C -0.0363(12) 1.2257(6) 0.1035(5) 0.46(2) Uani 1 1 d D . .
H60A H -0.0097 1.2433 0.1050 0.697 Uiso 1 1 calc R . .
H60B H -0.0598 1.2391 0.1153 0.697 Uiso 1 1 calc R . .
H60C H -0.0453 1.2238 0.0824 0.697 Uiso 1 1 calc R . .
C602 C -0.0695(8) 1.1566(12) 0.1129(4) 0.51(3) Uani 1 1 d D . .
H60D H -0.0657 1.1270 0.1203 0.758 Uiso 1 1 calc R . .
H60E H -0.0786 1.1559 0.0918 0.758 Uiso 1 1 calc R . .
H60F H -0.0921 1.1712 0.1249 0.758 Uiso 1 1 calc R . .
C603 C 0.0111(9) 1.1594(12) 0.0995(3) 0.62(3) Uani 1 1 d D . .
H60G H 0.0375 1.1771 0.1021 0.929 Uiso 1 1 calc R . .
H60H H 0.0042 1.1570 0.0780 0.929 Uiso 1 1 calc R . .
H60I H 0.0161 1.1306 0.1079 0.929 Uiso 1 1 calc R . .
C1 C 0.0716(3) 0.5469(2) 0.08402(17) 0.104(2) Uani 1 1 d . . .
H1 H 0.0533 0.5622 0.0705 0.125 Uiso 1 1 calc R . .
C2 C 0.0592(3) 0.5088(2) 0.09570(18) 0.1027(19) Uani 1 1 d . . .
H2 H 0.0329 0.4965 0.0882 0.123 Uiso 1 1 calc R . .
C3 C 0.0810(3) 0.4859(2) 0.11744(18) 0.110(2) Uani 1 1 d . . .
C4 C 0.1221(3) 0.5029(2) 0.12669(15) 0.107(2) Uani 1 1 d . . .
H4 H 0.1396 0.4885 0.1413 0.129 Uiso 1 1 calc R . .
C5 C 0.1356(2) 0.5406(2) 0.11401(14) 0.0960(17) Uani 1 1 d . . .
H5 H 0.1630 0.5518 0.1206 0.115 Uiso 1 1 calc R . .
C6 C 0.0709(3) 1.3173(3) 0.1972(2) 0.123(3) Uani 1 1 d . . .
H6 H 0.0874 1.3040 0.2127 0.148 Uiso 1 1 calc R . .
C7 C 0.0082(3) 1.3183(2) 0.16520(19) 0.124(2) Uani 1 1 d . . .
H7 H -0.0180 1.3052 0.1581 0.149 Uiso 1 1 calc R . .
C8 C 0.0216(4) 1.3603(3) 0.15243(19) 0.138(3) Uani 1 1 d . . .
H8 H 0.0038 1.3753 0.1384 0.166 Uiso 1 1 calc R . .
C9 C 0.0626(3) 1.3771(2) 0.16226(18) 0.112(2) Uani 1 1 d . . .
C10 C 0.0859(4) 1.3555(3) 0.1856(2) 0.142(3) Uani 1 1 d . . .
H10 H 0.1122 1.3678 0.1933 0.171 Uiso 1 1 calc R . .
C11 C 0.0809(3) 0.4197(3) 0.1507(2) 0.138(3) Uani 1 1 d . . .
H11 H 0.1075 0.4303 0.1590 0.166 Uiso 1 1 calc R . .
C12 C 0.0609(3) 0.4432(3) 0.12894(18) 0.118(2) Uani 1 1 d . . .
H12 H 0.0341 0.4332 0.1206 0.142 Uiso 1 1 calc R . .
C17 C 0.2511(6) 0.6494(5) -0.0344(3) 0.397(18) Uani 1 1 d D . .
H17 H 0.2362 0.6236 -0.0293 0.477 Uiso 1 1 calc R . .
C19 C 0.3752(4) 0.6484(4) -0.1568(3) 0.225(6) Uani 1 1 d D . .
H19 H 0.3687 0.6220 -0.1470 0.270 Uiso 1 1 calc R . .
C25 C -0.0871(3) 1.2567(3) 0.21933(19) 0.108(2) Uani 1 1 d . . .
C26 C -0.1325(4) 1.2736(5) 0.2086(3) 0.196(5) Uani 1 1 d D . .
C27 C -0.0913(4) 1.1068(3) 0.2228(2) 0.141(3) Uani 1 1 d D . .
C28 C -0.1351(5) 1.0904(6) 0.2084(5) 0.40(2) Uani 1 1 d D . .
C29 C 0.0168(3) 1.2541(3) 0.27415(18) 0.112(2) Uani 1 1 d . . .
C30 C 0.0436(4) 1.2702(4) 0.3023(2) 0.163(4) Uani 1 1 d D . .
C31 C 0.0094(3) 1.1064(3) 0.27530(17) 0.121(2) Uani 1 1 d D . .
C32 C 0.0313(4) 1.0772(3) 0.3009(2) 0.160(4) Uani 1 1 d D . .
C33 C 0.0575(3) 0.6826(3) 0.08178(14) 0.099(2) Uani 1 1 d . . .
C34 C 0.0049(3) 0.6860(3) 0.0813(3) 0.138(3) Uani 1 1 d . . .
C35 C 0.1703(3) 0.6750(3) 0.13036(17) 0.104(2) Uani 1 1 d . . .
C36 C 0.2018(3) 0.6683(3) 0.1575(2) 0.142(3) Uani 1 1 d . . .
C37 C 0.1298(3) 0.6124(3) 0.00631(19) 0.114(2) Uani 1 1 d . . .
C38 C 0.1072(5) 0.5900(4) -0.0215(2) 0.188(5) Uani 1 1 d . . .
C41 C 0.1352(4) 0.7574(3) 0.01035(17) 0.123(3) Uani 1 1 d . . .
C42 C 0.1017(6) 0.7775(4) -0.0151(3) 0.215(6) Uani 1 1 d D . .
C43 C 0.2421(4) 0.7535(3) 0.06466(18) 0.126(3) Uani 1 1 d D . .
C45 C 0.0007(4) 1.0457(3) 0.1643(2) 0.157(4) Uani 1 1 d . . .
H45 H -0.0242 1.0607 0.1569 0.189 Uiso 1 1 calc R . .
C46 C 0.0127(5) 1.0012(3) 0.1513(2) 0.195(6) Uani 1 1 d D . .
H46 H -0.0065 0.9869 0.1377 0.234 Uiso 1 1 calc R . .
C47 C 0.0504(7) 0.9831(3) 0.1595(4) 0.219(8) Uani 1 1 d . . .
C48 C 0.0761(5) 1.0026(3) 0.1830(3) 0.207(6) Uani 1 1 d D . .
H48 H 0.1027 0.9897 0.1896 0.249 Uiso 1 1 calc R . .
C49 C 0.0606(4) 1.0422(3) 0.1964(2) 0.135(3) Uani 1 1 d . . .
H49 H 0.0762 1.0532 0.2132 0.162 Uiso 1 1 calc R . .
C50 C 0.0870(3) 0.8176(3) 0.09408(19) 0.130(3) Uani 1 1 d D . .
H50 H 0.0697 0.8052 0.0786 0.156 Uiso 1 1 calc R . .
C53 C 0.1375(3) 0.8531(3) 0.13791(19) 0.142(3) Uani 1 1 d D . .
H53 H 0.1563 0.8639 0.1532 0.171 Uiso 1 1 calc R . .
C54 C 0.1466(3) 0.8163(3) 0.12349(19) 0.124(2) Uani 1 1 d D . .
H54 H 0.1731 0.8028 0.1297 0.148 Uiso 1 1 calc R . .
C55 C 0.0584(5) 0.9415(4) 0.1444(3) 0.199(6) Uani 1 1 d D . .
H55 H 0.0360 0.9314 0.1313 0.239 Uiso 1 1 calc R . .
C57 C 0.0919(3) 1.1759(4) 0.20473(18) 0.120(3) Uani 1 1 d D . .
C58 C 0.1406(4) 1.1721(5) 0.2104(3) 0.173(4) Uani 1 1 d D . .
C59 C -0.0120(3) 1.1809(3) 0.15098(15) 0.119(2) Uani 1 1 d . . .
C60 C -0.0271(5) 1.1805(4) 0.11569(19) 0.165(4) Uani 1 1 d D . .
C262 C -0.1290(9) 1.3120(8) 0.1881(6) 0.42(2) Uani 1 1 d D . .
H26G H -0.1075 1.3060 0.1722 0.624 Uiso 1 1 calc R . .
H26H H -0.1194 1.3372 0.1997 0.624 Uiso 1 1 calc R . .
H26I H -0.1576 1.3179 0.1790 0.624 Uiso 1 1 calc R . .
C281 C -0.1314(7) 1.0508(9) 0.1883(5) 0.45(2) Uani 1 1 d D . .
H28A H -0.1203 1.0265 0.2002 0.675 Uiso 1 1 calc R . .
H28B H -0.1111 1.0568 0.1717 0.675 Uiso 1 1 calc R . .
H28C H -0.1604 1.0436 0.1802 0.675 Uiso 1 1 calc R . .
C282 C -0.1545(15) 1.1284(11) 0.1894(12) 0.76(5) Uiso 1 1 d D . .
H28D H -0.1571 1.1541 0.2021 1.135 Uiso 1 1 calc R . .
H28E H -0.1836 1.1203 0.1819 1.135 Uiso 1 1 calc R . .
H28F H -0.1351 1.1346 0.1724 1.135 Uiso 1 1 calc R . .
C283 C -0.160(3) 1.097(3) 0.2382(12) 0.908 Uiso 1 1 d D . .
H28G H -0.1485 1.0762 0.2531 1.135 Uiso 1 1 calc R . .
H28H H -0.1911 1.0918 0.2350 1.135 Uiso 1 1 calc R . .
H28I H -0.1550 1.1262 0.2454 1.135 Uiso 1 1 calc R . .
C301 C 0.0694(5) 1.2317(7) 0.3144(4) 0.325(13) Uani 1 1 d D . .
H30A H 0.0873 1.2193 0.2982 0.487 Uiso 1 1 calc R . .
H30B H 0.0489 1.2098 0.3219 0.487 Uiso 1 1 calc R . .
H30C H 0.0885 1.2412 0.3308 0.487 Uiso 1 1 calc R . .
C302 C 0.0837(