####################################################################### 
# 
# This file contains crystal structure data downloaded from the 
# Cambridge Structural Database (CSD) hosted by the Cambridge 
# Crystallographic Data Centre (CCDC).
# 
# Full information about CCDC data access policies and citation 
# guidelines are available at http://www.ccdc.cam.ac.uk/access/V1 
# 
# Audit and citation data items may have been added by the CCDC. 
# Please retain this information to preserve the provenance of 
# this file and to allow appropriate attribution of the data. 
# 
#######################################################################

data_compound1
_audit_block_doi                 10.5517/ccwzsrc
_database_code_depnum_ccdc_archive 'CCDC 833954'
loop_
_citation_id
_citation_doi
_citation_year
1 10.1016/j.ica.2011.09.049 2012
_audit_update_record             
;
2011-07-12 deposited with the CCDC.	2024-07-12 downloaded from the CCDC.
;

_audit_creation_method           SHELXL-97
_chemical_name_systematic        
;
?
;
_chemical_name_common            ?
_chemical_melting_point          ?
_chemical_formula_moiety         ?
_chemical_formula_sum            'C96 H138 Fe4 N6 Ni2 O26'
_chemical_formula_weight         2132.91

loop_
_atom_type_symbol
_atom_type_description
_atom_type_scat_dispersion_real
_atom_type_scat_dispersion_imag
_atom_type_scat_source
C C 0.0033 0.0016 'International Tables Vol C Tables 4.2.6.8 and 6.1.1.4'
H H 0.0000 0.0000 'International Tables Vol C Tables 4.2.6.8 and 6.1.1.4'
Fe Fe 0.3463 0.8444 'International Tables Vol C Tables 4.2.6.8 and 6.1.1.4'
Ni Ni 0.3393 1.1124 'International Tables Vol C Tables 4.2.6.8 and 6.1.1.4'
N N 0.0061 0.0033 'International Tables Vol C Tables 4.2.6.8 and 6.1.1.4'
O O 0.0106 0.0060 'International Tables Vol C Tables 4.2.6.8 and 6.1.1.4'

_symmetry_cell_setting           monoclinic
_symmetry_space_group_name_H-M   C2/c

loop_
_symmetry_equiv_pos_as_xyz
'x, y, z'
'-x, y, -z+1/2'
'x+1/2, y+1/2, z'
'-x+1/2, y+1/2, -z+1/2'
'-x, -y, -z'
'x, -y, z-1/2'
'-x+1/2, -y+1/2, -z'
'x+1/2, -y+1/2, z-1/2'

_cell_length_a                   35.228(10)
_cell_length_b                   48.288(13)
_cell_length_c                   22.061(6)
_cell_angle_alpha                90.00
_cell_angle_beta                 124.400(4)
_cell_angle_gamma                90.00
_cell_volume                     30965(14)
_cell_formula_units_Z            8
_cell_measurement_temperature    173(2)
_cell_measurement_reflns_used    1350
_cell_measurement_theta_min      2.19
_cell_measurement_theta_max      25.21

_exptl_crystal_description       block
_exptl_crystal_colour            brown
_exptl_crystal_size_max          0.08
_exptl_crystal_size_mid          0.04
_exptl_crystal_size_min          0.04
_exptl_crystal_density_meas      ?
_exptl_crystal_density_diffrn    0.915
_exptl_crystal_density_method    'not measured'
_exptl_crystal_F_000             8992
_exptl_absorpt_coefficient_mu    0.652
_exptl_absorpt_correction_type   numerical
_exptl_absorpt_correction_T_min  0.9497
_exptl_absorpt_correction_T_max  0.9744
_exptl_absorpt_process_details   'SADABS (Bruker, 2004)'

_exptl_special_details           
;
A series of disordered DMF solvate molecules could not be
properly modeled and their electron density was instead corrected
using the Squeeze procedure implemented in Platon.
;

_diffrn_ambient_temperature      173(2)
_diffrn_radiation_wavelength     0.71073
_diffrn_radiation_type           MoK\a
_diffrn_radiation_source         'sealed tube'
_diffrn_radiation_monochromator  graphite
_diffrn_measurement_device_type  'Bruker APEX-II CCD'
_diffrn_measurement_method       '\f and \w scans'
_diffrn_detector_area_resol_mean ?
_diffrn_standards_number         0
_diffrn_standards_interval_count ?
_diffrn_standards_decay_%        ?
_diffrn_reflns_number            134883
_diffrn_reflns_av_R_equivalents  0.2675
_diffrn_reflns_av_sigmaI/netI    0.6092
_diffrn_reflns_limit_h_min       -42
_diffrn_reflns_limit_h_max       42
_diffrn_reflns_limit_k_min       -58
_diffrn_reflns_limit_k_max       58
_diffrn_reflns_limit_l_min       -26
_diffrn_reflns_limit_l_max       26
_diffrn_reflns_theta_min         0.82
_diffrn_reflns_theta_max         25.69
_reflns_number_total             29461
_reflns_number_gt                4461
_reflns_threshold_expression     >2sigma(I)

_computing_data_collection       'Bruker APEX2'
_computing_cell_refinement       'Bruker SAINT'
_computing_data_reduction        'Bruker SAINT'
_computing_structure_solution    'SHELXS-97 (Sheldrick, 2008)'
_computing_structure_refinement  'SHELXL-97 (Sheldrick, 2008)'
_computing_molecular_graphics    'Bruker SHELXTL'
_computing_publication_material  'Bruker SHELXTL'

_refine_special_details          
;
Refinement of F^2^ against ALL reflections. The weighted R-factor wR and
goodness of fit S are based on F^2^, conventional R-factors R are based
on F, with F set to zero for negative F^2^. The threshold expression of
F^2^ > 2sigma(F^2^) is used only for calculating R-factors(gt) etc. and is
not relevant to the choice of reflections for refinement. R-factors based
on F^2^ are statistically about twice as large as those based on F, and R-
factors based on ALL data will be even larger.
;

_refine_ls_structure_factor_coef Fsqd
_refine_ls_matrix_type           full
_refine_ls_weighting_scheme      calc
_refine_ls_weighting_details     
'calc w=1/[\s^2^(Fo^2^)+(0.0605P)^2^+0.0000P] where P=(Fo^2^+2Fc^2^)/3'
_atom_sites_solution_primary     direct
_atom_sites_solution_secondary   difmap
_atom_sites_solution_hydrogens   geom
_refine_ls_hydrogen_treatment    constr
_refine_ls_extinction_method     none
_refine_ls_extinction_coef       ?
_refine_ls_number_reflns         29461
_refine_ls_number_parameters     1142
_refine_ls_number_restraints     19
_refine_ls_R_factor_all          0.2772
_refine_ls_R_factor_gt           0.0755
_refine_ls_wR_factor_ref         0.2194
_refine_ls_wR_factor_gt          0.1930
_refine_ls_goodness_of_fit_ref   0.626
_refine_ls_restrained_S_all      0.630
_refine_ls_shift/su_max          0.001
_refine_ls_shift/su_mean         0.000

loop_
_atom_site_label
_atom_site_type_symbol
_atom_site_fract_x
_atom_site_fract_y
_atom_site_fract_z
_atom_site_U_iso_or_equiv
_atom_site_adp_type
_atom_site_occupancy
_atom_site_symmetry_multiplicity
_atom_site_calc_flag
_atom_site_refinement_flags
_atom_site_disorder_assembly
_atom_site_disorder_group
C3 C 0.3062(5) 0.09103(19) 0.8540(6) 0.059(4) Uani 1 1 d . . .
C4 C 0.3087(5) 0.0989(3) 0.7908(7) 0.098(4) Uani 1 1 d . . .
C4A C 0.2967(11) 0.0707(4) 0.7414(14) 0.40(2) Uani 1 1 d . . .
H4A1 H 0.2663 0.0639 0.7259 0.607 Uiso 1 1 calc R . .
H4A2 H 0.3199 0.0566 0.7709 0.607 Uiso 1 1 calc R . .
H4A3 H 0.2967 0.0750 0.6980 0.607 Uiso 1 1 calc R . .
C4B C 0.2698(6) 0.1164(4) 0.7378(10) 0.269(13) Uani 1 1 d . . .
H4B1 H 0.2416 0.1095 0.7317 0.403 Uiso 1 1 calc R . .
H4B2 H 0.2662 0.1158 0.6905 0.403 Uiso 1 1 calc R . .
H4B3 H 0.2754 0.1355 0.7559 0.403 Uiso 1 1 calc R . .
C4C C 0.3562(6) 0.1028(5) 0.8105(8) 0.332(18) Uani 1 1 d . . .
H4C1 H 0.3761 0.0881 0.8445 0.499 Uiso 1 1 calc R . .
H4C2 H 0.3679 0.1208 0.8340 0.499 Uiso 1 1 calc R . .
H4C3 H 0.3560 0.1018 0.7659 0.499 Uiso 1 1 calc R . .
C5 C 0.2151(5) 0.0415(2) 0.9868(7) 0.076(4) Uani 1 1 d . . .
C6 C 0.1895(7) 0.0437(3) 1.0215(14) 0.162(9) Uani 1 1 d . . .
C6A C 0.1709(5) 0.0139(3) 1.0155(9) 0.183(7) Uani 1 1 d . . .
H6A1 H 0.1967 0.0009 1.0411 0.274 Uiso 1 1 calc R . .
H6A2 H 0.1506 0.0086 0.9637 0.274 Uiso 1 1 calc R . .
H6A3 H 0.1536 0.0134 1.0381 0.274 Uiso 1 1 calc R . .
C6B C 0.1500(6) 0.0634(4) 0.9814(11) 0.263(12) Uani 1 1 d . . .
H6B1 H 0.1300 0.0579 0.9297 0.394 Uiso 1 1 calc R . .
H6B2 H 0.1617 0.0822 0.9848 0.394 Uiso 1 1 calc R . .
H6B3 H 0.1325 0.0631 1.0035 0.394 Uiso 1 1 calc R . .
C6C C 0.2151(7) 0.0547(3) 1.0988(9) 0.234(13) Uani 1 1 d . . .
H6C1 H 0.2416 0.0428 1.1313 0.351 Uiso 1 1 calc R . .
H6C2 H 0.1945 0.0549 1.1155 0.351 Uiso 1 1 calc R . .
H6C3 H 0.2257 0.0736 1.1000 0.351 Uiso 1 1 calc R . .
C7 C 0.2287(5) 0.0141(3) 0.8383(8) 0.085(4) Uani 1 1 d . . .
C8 C 0.2114(6) -0.0038(4) 0.7657(10) 0.145(6) Uiso 1 1 d . . .
C8A C 0.1952(5) -0.0318(3) 0.7803(8) 0.212(9) Uani 1 1 d . . .
H8A1 H 0.2207 -0.0401 0.8261 0.318 Uiso 1 1 calc R . .
H8A2 H 0.1854 -0.0446 0.7394 0.318 Uiso 1 1 calc R . .
H8A3 H 0.1694 -0.0283 0.7845 0.318 Uiso 1 1 calc R . .
C8B C 0.1734(5) 0.0088(3) 0.6966(6) 0.188(8) Uani 1 1 d . . .
H8B1 H 0.1828 0.0271 0.6904 0.282 Uiso 1 1 calc R . .
H8B2 H 0.1463 0.0107 0.6983 0.282 Uiso 1 1 calc R . .
H8B3 H 0.1658 -0.0031 0.6551 0.282 Uiso 1 1 calc R . .
C8C C 0.2613(8) -0.0137(4) 0.7739(12) 0.331(13) Uiso 1 1 d . . .
H8C1 H 0.2831 -0.0214 0.8231 0.497 Uiso 1 1 calc R . .
H8C2 H 0.2751 0.0025 0.7665 0.497 Uiso 1 1 calc R . .
H8C3 H 0.2540 -0.0278 0.7369 0.497 Uiso 1 1 calc R . .
C9 C 0.3706(5) 0.0443(3) 1.1425(6) 0.080(4) Uani 1 1 d . . .
C10 C 0.4010(7) 0.0452(4) 1.2283(12) 0.157(7) Uiso 1 1 d . . .
C10A C 0.3624(7) 0.0434(4) 1.2414(8) 0.264(12) Uani 1 1 d . . .
H10A H 0.3452 0.0261 1.2206 0.396 Uiso 1 1 calc R . .
H10B H 0.3414 0.0592 1.2176 0.396 Uiso 1 1 calc R . .
H10C H 0.3759 0.0439 1.2943 0.396 Uiso 1 1 calc R . .
C10B C 0.4275(7) 0.0695(3) 1.2625(7) 0.328(17) Uani 1 1 d . . .
H10D H 0.4100 0.0857 1.2334 0.492 Uiso 1 1 calc R . .
H10E H 0.4563 0.0683 1.2656 0.492 Uiso 1 1 calc R . .
H10F H 0.4343 0.0711 1.3120 0.492 Uiso 1 1 calc R . .
C10C C 0.4189(6) 0.0176(3) 1.2521(7) 0.249(12) Uani 1 1 d . . .
H10G H 0.3982 0.0043 1.2140 0.373 Uiso 1 1 calc R . .
H10H H 0.4212 0.0134 1.2976 0.373 Uiso 1 1 calc R . .
H10I H 0.4494 0.0164 1.2611 0.373 Uiso 1 1 calc R . .
C14 C 0.3430(7) -0.0654(3) 1.1018(9) 0.131(7) Uani 1 1 d . . .
H14 H 0.3710 -0.0744 1.1375 0.157 Uiso 1 1 calc R . .
C20 C 0.1042(5) 0.1230(4) 0.7023(9) 0.112(6) Uani 1 1 d . . .
C36 C 0.7594(5) 0.3327(2) 1.0931(8) 0.102(6) Uani 1 1 d . . .
H36 H 0.7302 0.3402 1.0566 0.122 Uiso 1 1 calc R . .
C37 C 0.7969(6) 0.3464(3) 1.1114(7) 0.090(5) Uani 1 1 d D . .
C38 C 0.8377(4) 0.3341(2) 1.1619(6) 0.076(4) Uiso 1 1 d . . .
H38 H 0.8657 0.3430 1.1761 0.091 Uiso 1 1 calc R . .
C40 C 0.7855(6) 0.3756(3) 1.0737(8) 0.135(8) Uani 1 1 d D . .
H40 H 0.7551 0.3806 1.0349 0.162 Uiso 1 1 calc R . .
C41 C 0.8174(6) 0.3913(3) 1.0967(9) 0.151(8) Uani 1 1 d D . .
H41 H 0.8487 0.3861 1.1295 0.181 Uiso 1 1 calc R . .
C42 C 0.9498(5) 0.1774(3) 1.4365(9) 0.131(6) Uani 1 1 d . . .
H42 H 0.9344 0.1728 1.3860 0.157 Uiso 1 1 calc R . .
C43 C 0.9887(6) 0.1634(3) 1.4886(9) 0.118(6) Uiso 1 1 d . . .
H43 H 1.0030 0.1504 1.4750 0.142 Uiso 1 1 calc R . .
C45 C 0.9909(5) 0.1899(4) 1.5794(9) 0.155(9) Uani 1 1 d . . .
H45 H 1.0063 0.1955 1.6292 0.187 Uiso 1 1 calc R . .
C46 C 0.9540(5) 0.2033(3) 1.5286(9) 0.096(5) Uani 1 1 d . . .
H46 H 0.9417 0.2173 1.5430 0.115 Uiso 1 1 calc R . .
C47 C 1.0486(6) 0.1584(4) 1.6386(11) 0.198(11) Uani 1 1 d D . .
H47 H 1.0589 0.1664 1.6849 0.237 Uiso 1 1 calc R . .
C48 C 1.0646(5) 0.1399(3) 1.6301(10) 0.135(7) Uani 1 1 d D . .
H48 H 1.0552 0.1344 1.5822 0.162 Uiso 1 1 calc R . .
C50A C 0.7960(10) 0.1345(4) 1.2058(14) 0.36(2) Uani 1 1 d . . .
H50A H 0.8208 0.1437 1.2057 0.540 Uiso 1 1 calc R . .
H50B H 0.7674 0.1450 1.1750 0.540 Uiso 1 1 calc R . .
H50C H 0.7918 0.1157 1.1864 0.540 Uiso 1 1 calc R . .
C50B C 0.7696(5) 0.1184(2) 1.2766(8) 0.162(7) Uani 1 1 d . . .
H50D H 0.7754 0.1170 1.3254 0.244 Uiso 1 1 calc R . .
H50E H 0.7670 0.0998 1.2569 0.244 Uiso 1 1 calc R . .
H50F H 0.7410 0.1286 1.2438 0.244 Uiso 1 1 calc R . .
C51 C 0.8131(5) 0.2182(3) 1.4450(9) 0.094(5) Uani 1 1 d . . .
C52 C 0.8234(8) 0.2300(4) 1.5176(8) 0.168(8) Uani 1 1 d D . .
C52A C 0.7895(7) 0.2208(3) 1.5281(10) 0.259(15) Uani 1 1 d D . .
H52A H 0.7595 0.2283 1.4892 0.388 Uiso 1 1 calc R . .
H52B H 0.7972 0.2272 1.5760 0.388 Uiso 1 1 calc R . .
H52C H 0.7883 0.2005 1.5265 0.388 Uiso 1 1 calc R . .
C52B C 0.8326(12) 0.2581(5) 1.5227(18) 0.56(4) Uani 1 1 d . . .
H52D H 0.8582 0.2613 1.5176 0.838 Uiso 1 1 calc R . .
H52E H 0.8410 0.2650 1.5705 0.838 Uiso 1 1 calc R . .
H52F H 0.8053 0.2680 1.4834 0.838 Uiso 1 1 calc R . .
C52C C 0.8677(7) 0.2198(9) 1.5831(11) 0.62(4) Uani 1 1 d D . .
H52G H 0.8928 0.2243 1.5778 0.929 Uiso 1 1 calc R . .
H52H H 0.8661 0.1997 1.5872 0.929 Uiso 1 1 calc R . .
H52I H 0.8734 0.2287 1.6275 0.929 Uiso 1 1 calc R . .
C55 C 0.7276(4) 0.2776(2) 1.2570(5) 0.057(3) Uani 1 1 d . . .
C56 C 0.7002(5) 0.3007(2) 1.2586(7) 0.077(4) Uani 1 1 d . . .
C56A C 0.6563(4) 0.2890(3) 1.2536(7) 0.138(6) Uani 1 1 d . . .
H56A H 0.6363 0.2793 1.2067 0.207 Uiso 1 1 calc R . .
H56B H 0.6394 0.3044 1.2567 0.207 Uiso 1 1 calc R . .
H56C H 0.6662 0.2761 1.2942 0.207 Uiso 1 1 calc R . .
C56B C 0.6872(4) 0.3201(2) 1.1964(6) 0.125(5) Uani 1 1 d . . .
H56D H 0.6669 0.3105 1.1495 0.188 Uiso 1 1 calc R . .
H56E H 0.7150 0.3262 1.2004 0.188 Uiso 1 1 calc R . .
H56F H 0.6711 0.3362 1.1988 0.188 Uiso 1 1 calc R . .
C56C C 0.7321(5) 0.3152(3) 1.3317(8) 0.171(7) Uani 1 1 d . . .
H56G H 0.7156 0.3305 1.3364 0.257 Uiso 1 1 calc R . .
H56H H 0.7588 0.3225 1.3339 0.257 Uiso 1 1 calc R . .
H56I H 0.7424 0.3020 1.3719 0.257 Uiso 1 1 calc R . .
C58C C 0.9504(6) 0.2931(3) 1.5250(7) 0.253(12) Uani 1 1 d . . .
H58A H 0.9747 0.2826 1.5264 0.379 Uiso 1 1 calc R . .
H58B H 0.9351 0.2811 1.5408 0.379 Uiso 1 1 calc R . .
H58C H 0.9639 0.3090 1.5581 0.379 Uiso 1 1 calc R . .
C59 C 0.8853(5) 0.2276(2) 1.2586(7) 0.091(5) Uani 1 1 d D . .
C60 C 0.9093(6) 0.2178(4) 1.2232(10) 0.248(13) Uani 1 1 d D . .
C60A C 0.9192(6) 0.2422(3) 1.1914(9) 0.225(9) Uiso 1 1 d D . .
H60A H 0.9497 0.2497 1.2284 0.338 Uiso 1 1 calc R . .
H60B H 0.8959 0.2566 1.1770 0.338 Uiso 1 1 calc R . .
H60C H 0.9184 0.2363 1.1482 0.338 Uiso 1 1 calc R . .
C60B C 0.9480(6) 0.1978(4) 1.2615(9) 0.287(14) Uani 1 1 d D . .
H60D H 0.9370 0.1803 1.2687 0.430 Uiso 1 1 calc R . .
H60E H 0.9723 0.2054 1.3093 0.430 Uiso 1 1 calc R . .
H60F H 0.9602 0.1945 1.2317 0.430 Uiso 1 1 calc R . .
C60C C 0.8723(9) 0.2056(6) 1.1471(12) 0.43(2) Uiso 1 1 d D . .
H60G H 0.8611 0.1880 1.1536 0.647 Uiso 1 1 calc R . .
H60H H 0.8858 0.2024 1.1191 0.647 Uiso 1 1 calc R . .
H60I H 0.8466 0.2186 1.1204 0.647 Uiso 1 1 calc R . .
O5 O 0.2056(2) 0.05741(14) 0.9358(4) 0.072(2) Uani 1 1 d . . .
O6 O 0.2472(3) 0.02494(15) 1.0129(4) 0.084(3) Uani 1 1 d . . .
O7 O 0.2193(3) 0.03942(15) 0.8238(4) 0.080(2) Uani 1 1 d . . .
O8 O 0.2547(3) 0.00342(13) 0.8990(4) 0.083(3) Uani 1 1 d . . .
O9 O 0.3451(3) 0.02508(15) 1.1081(4) 0.088(3) Uani 1 1 d . . .
O19 O 0.7750(3) 0.21648(15) 1.3881(4) 0.069(2) Uani 1 1 d . . .
O20 O 0.8499(3) 0.21385(15) 1.4484(4) 0.080(2) Uani 1 1 d . . .
O21 O 0.8929(3) 0.21506(16) 1.3099(5) 0.089(3) Uani 1 1 d . . .
O22 O 0.8534(3) 0.24645(15) 1.2258(4) 0.078(2) Uani 1 1 d . . .
C1 C 0.2888(5) 0.1162(2) 1.0065(6) 0.057(3) Uani 1 1 d . . .
C2 C 0.2855(4) 0.1396(2) 1.0520(6) 0.070(3) Uani 1 1 d . . .
C2A C 0.2355(4) 0.1444(2) 1.0266(6) 0.114(5) Uani 1 1 d . . .
H2A1 H 0.2178 0.1516 0.9762 0.171 Uiso 1 1 calc R . .
H2A2 H 0.2348 0.1579 1.0591 0.171 Uiso 1 1 calc R . .
H2A3 H 0.2221 0.1269 1.0281 0.171 Uiso 1 1 calc R . .
C2B C 0.3125(4) 0.16521(19) 1.0523(6) 0.112(5) Uani 1 1 d . . .
H2B1 H 0.2972 0.1725 1.0022 0.168 Uiso 1 1 calc R . .
H2B2 H 0.3440 0.1597 1.0705 0.168 Uiso 1 1 calc R . .
H2B3 H 0.3133 0.1796 1.0844 0.168 Uiso 1 1 calc R . .
C2C C 0.3093(4) 0.1281(2) 1.1303(6) 0.105(4) Uani 1 1 d . . .
H2C1 H 0.3417 0.1244 1.1505 0.157 Uiso 1 1 calc R . .
H2C2 H 0.2942 0.1109 1.1291 0.157 Uiso 1 1 calc R . .
H2C3 H 0.3072 0.1417 1.1612 0.157 Uiso 1 1 calc R . .
C11 C 0.3799(6) 0.0159(3) 0.9942(7) 0.097(6) Uani 1 1 d . . .
C12 C 0.4191(6) 0.0008(3) 0.9945(10) 0.124(5) Uiso 1 1 d . . .
C12A C 0.4053(5) -0.0279(3) 0.9675(10) 0.255(12) Uani 1 1 d . . .
H12A H 0.3994 -0.0381 0.9997 0.383 Uiso 1 1 calc R . .
H12B H 0.4301 -0.0370 0.9673 0.383 Uiso 1 1 calc R . .
H12C H 0.3774 -0.0276 0.9174 0.383 Uiso 1 1 calc R . .
C12B C 0.4175(8) 0.0138(5) 0.9295(11) 0.324(15) Uani 1 1 d D . .
H12D H 0.3870 0.0108 0.8842 0.486 Uiso 1 1 calc R . .
H12E H 0.4409 0.0051 0.9249 0.486 Uiso 1 1 calc R . .
H12F H 0.4235 0.0337 0.9379 0.486 Uiso 1 1 calc R . .
C12C C 0.4633(5) 0.0075(4) 1.0560(10) 0.36(2) Uani 1 1 d D . .
H12G H 0.4676 -0.0004 1.1004 0.546 Uiso 1 1 calc R . .
H12H H 0.4667 0.0277 1.0611 0.546 Uiso 1 1 calc R . .
H12I H 0.4866 -0.0001 1.0494 0.546 Uiso 1 1 calc R . .
C13 C 0.3407(5) -0.0386(3) 1.0818(7) 0.103(5) Uani 1 1 d . . .
H13 H 0.3687 -0.0287 1.1022 0.124 Uiso 1 1 calc R . .
C15 C 0.3009(8) -0.0785(3) 1.0656(9) 0.127(8) Uani 1 1 d . . .
C16 C 0.2593(7) -0.0667(3) 1.0157(9) 0.142(8) Uani 1 1 d . . .
H16 H 0.2317 -0.0773 0.9929 0.171 Uiso 1 1 calc R . .
C17 C 0.2584(5) -0.0390(3) 0.9992(7) 0.103(5) Uani 1 1 d . . .
H17 H 0.2300 -0.0299 0.9656 0.124 Uiso 1 1 calc R . .
C18 C 0.1627(6) 0.0908(3) 0.7365(9) 0.112(6) Uani 1 1 d . . .
H18 H 0.1783 0.0790 0.7229 0.134 Uiso 1 1 calc R . .
C19 C 0.1244(6) 0.1059(4) 0.6778(11) 0.168(10) Uani 1 1 d . . .
H19 H 0.1142 0.1044 0.6278 0.202 Uiso 1 1 calc R . .
C21 C 0.1220(5) 0.1245(3) 0.7794(8) 0.093(4) Uiso 1 1 d . . .
H21 H 0.1083 0.1370 0.7951 0.112 Uiso 1 1 calc R . .
C22 C 0.1590(4) 0.1081(2) 0.8313(6) 0.090(4) Uani 1 1 d . . .
H22 H 0.1694 0.1088 0.8815 0.108 Uiso 1 1 calc R . .
C23 C 0.4364(5) 0.1186(2) 1.1166(6) 0.081(4) Uani 1 1 d . . .
H23 H 0.4193 0.1214 1.1374 0.097 Uiso 1 1 calc R . .
C24 C 0.4738(4) 0.1329(3) 1.1447(7) 0.088(5) Uani 1 1 d . . .
H24 H 0.4834 0.1458 1.1835 0.105 Uiso 1 1 calc R . .
C25 C 0.4984(5) 0.1286(2) 1.1160(8) 0.073(4) Uani 1 1 d . . .
C26 C 0.4842(4) 0.1099(3) 1.0583(7) 0.082(4) Uani 1 1 d . . .
H26 H 0.5014 0.1072 1.0378 0.098 Uiso 1 1 calc R . .
C27 C 0.4444(4) 0.0960(2) 1.0334(6) 0.072(3) Uani 1 1 d . . .
H27 H 0.4342 0.0828 0.9951 0.086 Uiso 1 1 calc R . .
C28 C 0.5400(5) 0.1432(3) 1.