
#######################################################################
#
#                 Cambridge Crystallographic Data Centre
#                                CCDC
#
#######################################################################
#
# If this CIF has been generated from an entry in the Cambridge
# Structural Database, then it will include bibliographic, chemical,
# crystal, experimental, refinement or atomic coordinate data resulting
# from the CCDC's data processing and validation procedures.
#
#######################################################################

data_CSD_CIF_PANCUC
_audit_creation_date 1993-05-12
_audit_creation_method CSD-ConQuest-V1
_database_code_CSD PANCUC
_database_code_depnum_ccdc_archive 'CCDC 1227864'
_chemical_formula_sum 'C4 H6 Au1 F6 N2 Sb1'
_chemical_formula_moiety
;
C4 H6 Au1 N2 1+,F6 Sb1 1-
;
_journal_coden_Cambridge 4
_journal_volume 114
_journal_year 1992
_journal_page_first 8972
_journal_name_full 'J.Am.Chem.Soc. '
loop_
_publ_author_name
"H.Willner"
"J.Schaebs"
"G.Hwang"
"F.Mistry"
"R.Jones"
"J.Trotter"
"F.Aubke"
_chemical_name_systematic
;
bis(Acetonitrile)-gold(i) hexafluoroantimonate(v)
;
_chemical_name_common
;
Teaching Subset: Fundamental Chemistry, Symmetry
;
_cell_volume   1076.891
_exptl_crystal_colour 'colorless'
_exptl_crystal_density_diffrn 3.175
_diffrn_ambient_temperature ?
_diffrn_special_details
;
The study was carried out at room temperature,in the range 283-303K

;
#These two values have been output from a single CSD field.
_refine_ls_R_factor_gt 0.023
_refine_ls_wR_factor_gt 0.023
_symmetry_cell_setting cubic
_symmetry_space_group_name_H-M 'P a 3'
_symmetry_Int_Tables_number 205
loop_
_symmetry_equiv_pos_site_id
_symmetry_equiv_pos_as_xyz
1 x,y,z
2 z,x,y
3 y,z,x
4 -x,1/2+y,1/2-z
5 -z,1/2+x,1/2-y
6 -y,1/2+z,1/2-x
7 1/2-x,-y,1/2+z
8 1/2-z,-x,1/2+y
9 1/2-y,-z,1/2+x
10 1/2+x,1/2-y,-z
11 1/2+z,1/2-x,-y
12 1/2+y,1/2-z,-x
13 -x,-y,-z
14 -z,-x,-y
15 -y,-z,-x
16 x,-1/2-y,-1/2+z
17 z,-1/2-x,-1/2+y
18 y,-1/2-z,-1/2+x
19 -1/2+x,y,-1/2-z
20 -1/2+z,x,-1/2-y
21 -1/2+y,z,-1/2-x
22 -1/2-x,-1/2+y,z
23 -1/2-z,-1/2+x,y
24 -1/2-y,-1/2+z,x
_cell_length_a 10.250(2)
_cell_length_b 10.250(2)
_cell_length_c 10.250(2)
_cell_angle_alpha 90
_cell_angle_beta 90
_cell_angle_gamma 90
_cell_formula_units_Z 4
loop_
_atom_type_symbol
_atom_type_radius_bond
C 0.68
H 0.23
Au 1.50
F 0.64
N 0.68
Sb 1.46
loop_
_atom_site_label
_atom_site_type_symbol
_atom_site_fract_x
_atom_site_fract_y
_atom_site_fract_z
Au1 Au 0.50000 0.50000 0.50000
N1 N 0.391(1) 0.39090 0.39090
C1 C 0.328(1) 0.32790 0.32790
C2 C 0.245(1) 0.24550 0.24550
H1 H 0.29500 0.17000 0.21500
Sb1 Sb 0.00000 0.00000 0.00000
F1 F 0.1692(8) -0.0367(7) 0.0480(7)
N1L N 0.609(1) 0.60910 0.60910
H1A H 0.21500 0.29500 0.17000
H1B H 0.17000 0.21500 0.29500
C1L C 0.672(1) 0.67210 0.67210
C2L C 0.755(1) 0.75450 0.75450
H1L H 0.70500 0.83000 0.78500
H1M H 0.78500 0.70500 0.83000
H1N H 0.83000 0.78500 0.70500
F1L F -0.1692(8) 0.0367(7) -0.0480(7)
F1A F 0.0480(8) 0.1692(7) -0.0367(7)
F1M F -0.0480(8) -0.1692(7) 0.0367(7)
F1B F -0.0367(8) 0.0480(7) 0.1692(7)
F1N F 0.0367(8) -0.0480(7) -0.1692(7)
#END
