####################################################################### 
# 
# This file contains crystal structure data downloaded from the 
# Cambridge Structural Database (CSD) hosted by the Cambridge 
# Crystallographic Data Centre (CCDC).
# 
# Full information about CCDC data access policies and citation 
# guidelines are available at http://www.ccdc.cam.ac.uk/access/V1 
# 
# Audit and citation data items may have been added by the CCDC. 
# Please retain this information to preserve the provenance of 
# this file and to allow appropriate attribution of the data. 
# 
#######################################################################

data_PANDOX
#This CIF has been generated from an entry in the Cambridge Structural Database
_database_code_depnum_ccdc_archive 'CCDC 1227871'
_database_code_CSD               PANDOX
_audit_creation_method           'Created from the CSD'
_audit_update_record             
;
2024-07-12 downloaded from the CCDC.
;
_database_code_NBS               621905
_chemical_formula_moiety         '(C78 H72 Ag4 N4 O12 P6)n'
_chemical_name_systematic        
catena-(bis(\m~2~-Nitrato-O,O,O')-bis(\m~2~-nitrato-O,O)-tris(\m~2~-1,2-bis(diphenylphosphino)ethane)-tetra-silver)
_chemical_absolute_configuration unk
_diffrn_ambient_temperature      295
_exptl_crystal_density_diffrn    1.60726
#These two values have been output from a single CSD field.
_refine_ls_R_factor_gt           0.048
_refine_ls_wR_factor_gt          0.048
_diffrn_radiation_probe          x-ray
_symmetry_cell_setting           triclinic
_symmetry_space_group_name_H-M   'P 1'
_symmetry_Int_Tables_number      1
_space_group_name_Hall           'P 1'
loop_
_symmetry_equiv_pos_site_id
_symmetry_equiv_pos_as_xyz
1 x,y,z
_cell_length_a                   12.7489
_cell_length_b                   13.4715
_cell_length_c                   14.7015
_cell_angle_alpha                59.748
_cell_angle_beta                 63.949
_cell_angle_gamma                70.196
_cell_volume                     1936.89
_cell_formula_units_Z            1
loop_
_atom_site_label
_atom_site_type_symbol
_atom_site_fract_x
_atom_site_fract_y
_atom_site_fract_z
Ag1 Ag 0.3535 0.0625 0.0625
Ag2 Ag 0.3539(1) 0.46759(9) -0.52103(8)
Ag3 Ag 0.0504(1) 0.6040(1) -0.3830(1)
Ag4 Ag 0.6583(1) -0.0736(1) -0.0740(1)
P1 P 0.2565(3) 0.2373(3) -0.0508(2)
P2 P 0.4531(4) 0.2921(3) -0.4040(3)
P3 P 0.3606(3) -0.0590(3) 0.2497(2)
P4 P 0.3542(4) -0.4065(3) 0.2903(3)
P5 P -0.1079(4) 0.7590(3) -0.3871(3)
P6 P -0.1841(4) 0.7739(3) -0.0680(3)
O1 O 0.5639(9) 0.1094(7) -0.0848(7)
O2 O 0.2638(9) 0.6247(7) -0.4388(7)
O3 O 0.144(1) 0.433(1) -0.374(1)
O4 O 0.4552(9) -0.0822(9) -0.0192(7)
O5 O 0.724(2) 0.1080(9) -0.0656(9)
O6 O 0.594(1) 0.275(1) -0.125(1)
O7 O 0.172(1) 0.603(1) -0.273(1)
O8 O 0.341(1) 0.618(1) -0.336(1)
O9 O -0.023(1) 0.399(1) -0.3536(9)
O10 O 0.128(1) 0.279(1) -0.384(1)
O11 O 0.5356(9) -0.0540(8) -0.1913(7)
O12 O 0.338(1) -0.062(1) -0.100(1)
N1 N 0.643(1) 0.166(1) -0.087(1)
N2 N 0.260(1) 0.622(1) -0.348(1)
N3 N 0.092(1) 0.3663(9) -0.3685(8)
N4 N 0.445(1) -0.0753(9) -0.1028(8)
C1 C 0.353(1) 0.2984(9) -0.1967(8)
C2 C 0.375(1) 0.214(1) -0.249(1)
C3 C 0.302(1) -0.192(1) 0.298(1)
C4 C 0.395(1) -0.261(1) 0.2307(9)
C5 C -0.149(1) 0.824(1) -0.287(1)
C6 C -0.165(1) 0.725(1) -0.1711(9)
C7 C 0.227(1) 0.3478(9) -0.0046(8)
C8 C 0.123(1) 0.226(6) -0.0503(9)
C9 C 0.480(1) 0.191(1) -0.466(1)
C10 C 0.604(1) 0.279(1) -0.3991(9)
C11 C 0.267(1) 0.005(1) 0.3430(9)
C12 C 0.499(1) -0.092(1) 0.269(1)
C13 C 0.211(1) -0.353(1) 0.255(1)
C14 C 0.457(1) -0.465(1) 0.181(1)
C15 C -0.255(1) 0.725(1) -0.351(1)
C16 C -0.090(1) 0.885(1) -0.513(1)
C17 C -0.207(1) 0.6460(9) 0.0685(9)
C18 C -0.0461(1) 0.821(1) -0.109(1)
Ag2 Ag 0.3539(1) -0.53241(9) 0.47897(8)
Ag4 Ag -0.3417(1) 0.9264(1) -0.0740(1)
P4 P 0.3542(4) 0.5935(3) -0.7097(3)
P6 P 0.8159(4) -0.2261(3) -0.0680(3)

#END
