####################################################################### 
# 
# This file contains crystal structure data downloaded from the 
# Cambridge Structural Database (CSD) hosted by the Cambridge 
# Crystallographic Data Centre (CCDC).
# 
# Full information about CCDC data access policies and citation 
# guidelines are available at http://www.ccdc.cam.ac.uk/access/V1 
# 
# Audit and citation data items may have been added by the CCDC. 
# Please retain this information to preserve the provenance of 
# this file and to allow appropriate attribution of the data. 
# 
#######################################################################

data_Cd-4TP-1
_audit_block_doi                 10.5517/ccx4ttn
_database_code_depnum_ccdc_archive 'CCDC 838792'
loop_
_citation_id
_citation_doi
_citation_year
1 10.1021/cg201054f 2011
_audit_update_record             
;
2011-08-10 deposited with the CCDC.	2024-07-12 downloaded from the CCDC.
;
#TrackingRef 'Cd-4TP-1.cif'


_audit_creation_method           SHELXL-97
_chemical_name_systematic        
;
?
;
_chemical_name_common            ?
_chemical_melting_point          ?
_chemical_formula_moiety         'C138 H92 Cd12 N115'
_chemical_formula_sum            'C138 H92 Cd12 N115'
_chemical_formula_weight         4710.19

loop_
_atom_type_symbol
_atom_type_description
_atom_type_scat_dispersion_real
_atom_type_scat_dispersion_imag
_atom_type_scat_source
C C 0.0033 0.0016 'International Tables Vol C Tables 4.2.6.8 and 6.1.1.4'
Cd Cd -0.8075 1.2024 'International Tables Vol C Tables 4.2.6.8 and 6.1.1.4'
N N 0.0061 0.0033 'International Tables Vol C Tables 4.2.6.8 and 6.1.1.4'
H H 0.0000 0.0000 'International Tables Vol C Tables 4.2.6.8 and 6.1.1.4'

_symmetry_cell_setting           ORTHORHOMBIC
_symmetry_space_group_name_H-M   ?

loop_
_symmetry_equiv_pos_as_xyz
'x, y, z'
'-x, -y, z+1/2'
'-x, y, z'
'x, -y, z+1/2'
'x+1/2, y+1/2, z'
'-x+1/2, -y+1/2, z+1/2'
'-x+1/2, y+1/2, z'
'x+1/2, -y+1/2, z+1/2'

_cell_length_a                   34.3111(10)
_cell_length_b                   40.5399(11)
_cell_length_c                   20.3265(7)
_cell_angle_alpha                90.00
_cell_angle_beta                 90.00
_cell_angle_gamma                90.00
_cell_volume                     28273.5(15)
_cell_formula_units_Z            4
_cell_measurement_temperature    293(2)
_cell_measurement_reflns_used    19425
_cell_measurement_theta_min      1.34
_cell_measurement_theta_max      28.39

_exptl_crystal_description       plate
_exptl_crystal_colour            Colorless
_exptl_crystal_size_max          0.40
_exptl_crystal_size_mid          0.30
_exptl_crystal_size_min          0.10
_exptl_crystal_density_meas      ?
_exptl_crystal_density_diffrn    1.107
_exptl_crystal_density_method    'not measured'
_exptl_crystal_F_000             9204
_exptl_absorpt_coefficient_mu    0.935
_exptl_absorpt_correction_type   multi-scan
_exptl_absorpt_correction_T_min  0.7076
_exptl_absorpt_correction_T_max  0.8787
_exptl_absorpt_process_details   'Blessing, Acta Cryst. (1995) A51 33-58'

_exptl_special_details           
;
?
;

_diffrn_ambient_temperature      293(2)
_diffrn_radiation_wavelength     0.71073
_diffrn_radiation_type           MoK\a
_diffrn_radiation_source         'fine-focus sealed tube'
_diffrn_radiation_monochromator  graphite
_diffrn_measurement_device_type  ?
_diffrn_measurement_method       ?
_diffrn_detector_area_resol_mean ?
_diffrn_standards_number         ?
_diffrn_standards_interval_count ?
_diffrn_standards_interval_time  ?
_diffrn_standards_decay_%        ?
_diffrn_reflns_number            57040
_diffrn_reflns_av_R_equivalents  0.0470
_diffrn_reflns_av_sigmaI/netI    0.0644
_diffrn_reflns_limit_h_min       -44
_diffrn_reflns_limit_h_max       43
_diffrn_reflns_limit_k_min       -48
_diffrn_reflns_limit_k_max       52
_diffrn_reflns_limit_l_min       -21
_diffrn_reflns_limit_l_max       27
_diffrn_reflns_theta_min         2.77
_diffrn_reflns_theta_max         28.39
_reflns_number_total             24761
_reflns_number_gt                19425
_reflns_threshold_expression     >2sigma(I)

_computing_data_collection       'Bruker SMART'
_computing_cell_refinement       'Bruker SMART'
_computing_data_reduction        'Bruker SAINT'
_computing_structure_solution    'Bruker SHELXTL'
_computing_structure_refinement  'Bruker SHELXTL'
_computing_molecular_graphics    'Bruker SHELXTL'
_computing_publication_material  'Bruker SHELXTL'

_refine_special_details          
;
Refinement of F^2^ against ALL reflections. The weighted R-factor wR and
goodness of fit S are based on F^2^, conventional R-factors R are based
on F, with F set to zero for negative F^2^. The threshold expression of
F^2^ > 2sigma(F^2^) is used only for calculating R-factors(gt) etc. and is
not relevant to the choice of reflections for refinement. R-factors based
on F^2^ are statistically about twice as large as those based on F, and R-
factors based on ALL data will be even larger.
;

_refine_ls_structure_factor_coef Fsqd
_refine_ls_matrix_type           full
_refine_ls_weighting_scheme      calc
_refine_ls_weighting_details     
'calc w=1/[\s^2^(Fo^2^)+(0.0934P)^2^+0.0000P] where P=(Fo^2^+2Fc^2^)/3'
_atom_sites_solution_primary     direct
_atom_sites_solution_secondary   difmap
_atom_sites_solution_hydrogens   geom
_refine_ls_hydrogen_treatment    constr
_refine_ls_extinction_method     none
_refine_ls_extinction_coef       ?
_refine_ls_abs_structure_details 'Flack H D (1983), Acta Cryst. A39, 876-881'
_refine_ls_abs_structure_Flack   0.71(3)
_refine_ls_number_reflns         24761
_refine_ls_number_parameters     1218
_refine_ls_number_restraints     1
_refine_ls_R_factor_all          0.0687
_refine_ls_R_factor_gt           0.0531
_refine_ls_wR_factor_ref         0.1583
_refine_ls_wR_factor_gt          0.1478
_refine_ls_goodness_of_fit_ref   1.035
_refine_ls_restrained_S_all      1.034
_refine_ls_shift/su_max          0.001
_refine_ls_shift/su_mean         0.000

loop_
_atom_site_label
_atom_site_type_symbol
_atom_site_fract_x
_atom_site_fract_y
_atom_site_fract_z
_atom_site_U_iso_or_equiv
_atom_site_adp_type
_atom_site_occupancy
_atom_site_symmetry_multiplicity
_atom_site_calc_flag
_atom_site_refinement_flags
_atom_site_disorder_assembly
_atom_site_disorder_group
C1 C 0.2523(3) -0.0007(2) 0.9662(6) 0.046(3) Uani 1 1 d . . .
H1 H 0.2542 -0.0008 1.0119 0.055 Uiso 1 1 calc R . .
C2 C 0.2534(3) 0.2484(3) 0.8187(7) 0.046(3) Uani 1 1 d . . .
H2 H 0.2552 0.2484 0.7730 0.055 Uiso 1 1 calc R . .
C3 C 0.2534(2) -0.0290(2) 0.8630(5) 0.024(2) Uiso 1 1 d . . .
H3 H 0.2554 -0.0483 0.8386 0.029 Uiso 1 1 calc R . .
C4 C 0.0000 0.2796(3) 1.3027(6) 0.035(3) Uani 1 2 d S . .
H4 H 0.0000 0.2929 1.2655 0.042 Uiso 1 2 calc SR . .
C5 C 0.0000 -0.0448(3) 0.8061(7) 0.033(3) Uiso 1 2 d S . .
C6 C 0.0000 0.0025(3) 0.8748(6) 0.028(3) Uiso 1 2 d S . .
H6 H 0.0000 0.0161 0.8378 0.034 Uiso 1 2 calc SR . .
C7 C 0.0943(2) 0.0849(2) 1.0169(5) 0.027(2) Uani 1 1 d . . .
C8 C -0.0943(2) 0.1604(2) 1.2715(5) 0.0246(19) Uani 1 1 d . . .
C9 C 0.2520(2) -0.02949(18) 0.9336(4) 0.016(2) Uani 1 1 d . . .
C10 C 0.0000 -0.0504(3) 0.9241(6) 0.023(3) Uani 1 2 d S . .
H10 H 0.0000 -0.0733 0.9207 0.027 Uiso 1 2 calc SR . .
C11 C -0.1568(2) 0.1342(2) 1.3081(5) 0.030(2) Uani 1 1 d . . .
H11 H -0.1533 0.1167 1.2793 0.036 Uiso 1 1 calc R . .
C12 C 0.1544(3) 0.1128(2) 0.9776(5) 0.038(3) Uani 1 1 d . . .
H12 H 0.1497 0.1306 1.0054 0.046 Uiso 1 1 calc R . .
C13 C 0.2517(3) 0.2185(3) 0.8551(7) 0.044(3) Uani 1 1 d . . .
C14 C 0.1283(2) 0.0867(2) 0.9750(4) 0.0193(18) Uani 1 1 d . . .
C15 C 0.2501(3) 0.0285(3) 0.9348(7) 0.047(4) Uani 1 1 d . . .
H15 H 0.2478 0.0478 0.9592 0.056 Uiso 1 1 calc R . .
C16 C 0.4066(3) -0.1692(2) 0.7706(5) 0.033(2) Uani 1 1 d . . .
C17 C -0.1296(2) 0.1587(2) 1.3111(5) 0.029(2) Uani 1 1 d . . .
C18 C 0.0000 -0.0305(2) 0.8710(5) 0.015(2) Uani 1 2 d S . .
C19 C 0.1368(3) 0.0626(2) 0.9304(5) 0.035(2) Uani 1 1 d . . .
H19 H 0.1201 0.0446 0.9257 0.042 Uiso 1 1 calc R . .
C20 C -0.1895(3) 0.1354(2) 1.3478(5) 0.038(2) Uani 1 1 d . . .
H20 H -0.2073 0.1182 1.3453 0.045 Uiso 1 1 calc R . .
C21 C -0.1370(3) 0.1845(3) 1.3552(5) 0.043(3) Uani 1 1 d . . .
H21 H -0.1195 0.2019 1.3593 0.051 Uiso 1 1 calc R . .
C22 C 0.1587(2) 0.05739(18) 0.6817(4) 0.0203(18) Uani 1 1 d . . .
C23 C 0.1872(2) 0.1122(2) 0.9387(4) 0.025(2) Uani 1 1 d . . .
H23 H 0.2048 0.1296 0.9430 0.030 Uiso 1 1 calc R . .
C24 C 0.0914(3) 0.0388(2) 0.7057(5) 0.043(3) Uani 1 1 d . . .
H24 H 0.0939 0.0466 0.7485 0.052 Uiso 1 1 calc R . .
C25 C 0.3300(3) -0.1900(2) 0.8910(5) 0.036(2) Uani 1 1 d . . .
H25 H 0.3242 -0.2076 0.9186 0.043 Uiso 1 1 calc R . .
C26 C 0.3719(3) -0.1664(2) 0.8102(5) 0.039(3) Uani 1 1 d . . .
C27 C 0.1177(2) 0.2884(2) 1.1211(5) 0.031(2) Uani 1 1 d . . .
C28 C 0.3721(2) 0.0928(2) 0.9752(4) 0.030(2) Uani 1 1 d . . .
C29 C 0.0000 0.2922(3) 1.4842(6) 0.031(3) Uani 1 2 d S . .
C30 C 0.1225(2) 0.0421(2) 0.6602(4) 0.027(2) Uani 1 1 d . . .
C31 C 0.2524(3) 0.2773(2) 0.8542(5) 0.042(3) Uani 1 1 d . . .
H31 H 0.2523 0.2969 0.8303 0.050 Uiso 1 1 calc R . .
C32 C 0.1530(3) 0.3064(2) 1.1014(5) 0.036(2) Uani 1 1 d . . .
C33 C 0.3456(3) -0.1408(2) 0.8059(5) 0.038(2) Uani 1 1 d . . .
H33 H 0.3497 -0.1236 0.7764 0.046 Uiso 1 1 calc R . .
C34 C 0.2508(3) 0.2522(3) 0.9509(6) 0.039(3) Uani 1 1 d . . .
H34 H 0.2505 0.2528 0.9966 0.047 Uiso 1 1 calc R . .
C35 C 0.1698(3) 0.0645(2) 0.8925(5) 0.034(2) Uani 1 1 d . . .
H35 H 0.1746 0.0477 0.8624 0.041 Uiso 1 1 calc R . .
C36 C 0.4063(2) 0.0929(2) 1.0161(4) 0.0278(19) Uani 1 1 d . . .
C37 C 0.1153(3) 0.0317(2) 0.5988(4) 0.030(2) Uani 1 1 d . . .
H37 H 0.1339 0.0352 0.5663 0.036 Uiso 1 1 calc R . .
C38 C 0.3474(2) 0.0524(2) 0.6915(5) 0.029(2) Uani 1 1 d . . .
C39 C 0.0000 0.1968(2) 0.9865(5) 0.018(2) Uani 1 2 d S . .
C40 C 0.1583(2) -0.1882(2) 1.1043(5) 0.031(2) Uani 1 1 d . . .
C41 C 0.1213(3) -0.2044(3) 1.1231(5) 0.043(2) Uani 1 1 d . . .
C42 C 0.3127(3) 0.1154(2) 0.9360(4) 0.029(2) Uani 1 1 d . . .
H42 H 0.2942 0.1321 0.9387 0.035 Uiso 1 1 calc R . .
C43 C -0.1702(3) 0.1838(2) 1.3920(5) 0.038(3) Uani 1 1 d . . .
H43 H -0.1745 0.2012 1.4208 0.045 Uiso 1 1 calc R . .
C44 C 0.2522(2) 0.1874(2) 0.8192(6) 0.025(2) Uani 1 1 d . . .
C45 C 0.3642(3) 0.0662(2) 0.9349(5) 0.036(2) Uani 1 1 d . . .
H45 H 0.3815 0.0485 0.9334 0.044 Uiso 1 1 calc R . .
C46 C 0.1181(3) -0.2164(3) 1.1899(6) 0.053(3) Uani 1 1 d . . .
H46 H 0.1383 -0.2150 1.2202 0.063 Uiso 1 1 calc R . .
C47 C 0.25169(19) 0.0018(2) 0.8330(6) 0.023(2) Uani 1 1 d . . .
H47 H 0.2509 0.0033 0.7873 0.028 Uiso 1 1 calc R . .
C48 C 0.2538(2) -0.0617(2) 0.9637(6) 0.027(2) Uani 1 1 d . . .
C49 C 0.3829(3) 0.0330(2) 0.6774(5) 0.037(2) Uani 1 1 d . . .
C50 C 0.0543(3) 0.2679(3) 1.1012(6) 0.069(4) Uani 1 1 d . . .
H50 H 0.0336 0.2659 1.0720 0.083 Uiso 1 1 calc R . .
C51 C 0.1144(3) 0.2774(3) 1.1869(6) 0.057(3) Uani 1 1 d . . .
H51 H 0.1340 0.2805 1.2179 0.069 Uiso 1 1 calc R . .
C52 C 0.3994(3) 0.0351(3) 0.6160(7) 0.077(4) Uani 1 1 d . . .
H52 H 0.3889 0.0486 0.5835 0.093 Uiso 1 1 calc R . .
C53 C 0.0907(3) -0.2073(3) 1.0808(6) 0.066(4) Uani 1 1 d . . .
H53 H 0.0931 -0.1999 1.0376 0.080 Uiso 1 1 calc R . .
C54 C 0.3134(3) -0.1409(2) 0.8457(6) 0.049(3) Uani 1 1 d . . .
H54 H 0.2962 -0.1232 0.8426 0.058 Uiso 1 1 calc R . .
C55 C 0.4306(3) -0.0065(3) 0.7033(7) 0.079(4) Uani 1 1 d . . .
H55 H 0.4382 -0.0228 0.7327 0.094 Uiso 1 1 calc R . .
C56 C 0.0884(4) 0.2854(4) 1.0787(7) 0.079(4) Uani 1 1 d . . .
H56 H 0.0898 0.2942 1.0365 0.095 Uiso 1 1 calc R . .
C57 C 0.3310(3) 0.0656(2) 0.8971(5) 0.031(2) Uani 1 1 d . . .
H57 H 0.3264 0.0474 0.8703 0.037 Uiso 1 1 calc R . .
C58 C 0.0805(3) -0.2307(3) 1.2055(5) 0.049(3) Uani 1 1 d . . .
H58 H 0.0762 -0.2382 1.2481 0.059 Uiso 1 1 calc R . .
C59 C 0.0790(3) 0.2612(2) 1.2015(6) 0.051(3) Uani 1 1 d . . .
H59 H 0.0753 0.2545 1.2448 0.061 Uiso 1 1 calc R . .
C60 C 0.0812(2) 0.0160(2) 0.5823(4) 0.026(2) Uani 1 1 d . . .
H60 H 0.0780 0.0082 0.5396 0.031 Uiso 1 1 calc R . .
C61 C 0.0582(3) 0.0240(2) 0.6856(5) 0.046(3) Uani 1 1 d . . .
H61 H 0.0378 0.0223 0.7154 0.055 Uiso 1 1 calc R . .
C62 C 0.0000 0.2271(4) 1.3467(8) 0.053(4) Uani 1 2 d S . .
H62 H 0.0000 0.2042 1.3428 0.063 Uiso 1 2 calc SR . .
C63 C 0.0000 0.2070(3) 0.8024(7) 0.031(3) Uani 1 2 d S . .
H63 H 0.0000 0.1938 0.7650 0.038 Uiso 1 2 calc SR . .
C64 C 0.0000 0.0150(3) 0.9391(6) 0.028(3) Uiso 1 2 d S . .
H64 H 0.0000 0.0379 0.9439 0.033 Uiso 1 2 calc SR . .
C65 C 0.0000 0.2777(4) 1.4172(7) 0.042(3) Uani 1 2 d S . .
C66 C 0.0000 0.2093(3) 0.9204(7) 0.026(3) Uani 1 2 d S . .
C67 C 0.0000 0.2611(5) 0.8461(9) 0.065(5) Uiso 1 2 d S . .
H67 H 0.0000 0.2840 0.8431 0.079 Uiso 1 2 calc SR . .
C68 C 0.0000 0.2954(4) 1.3590(10) 0.061(5) Uani 1 2 d S . .
H68 H 0.0000 0.3183 1.3598 0.073 Uiso 1 2 calc SR . .
C69 C 0.0000 0.1922(3) 0.8599(8) 0.045(4) Uani 1 2 d S . .
H69 H 0.0000 0.1692 0.8607 0.054 Uiso 1 2 calc SR . .
C70 C 0.2505(2) 0.2217(2) 0.9213(5) 0.033(3) Uani 1 1 d . . .
H70 H 0.2495 0.2029 0.9475 0.039 Uiso 1 1 calc R . .
C71 C 0.0000 -0.0336(3) 0.9863(7) 0.039(3) Uani 1 2 d S . .
H71 H 0.0000 -0.0462 1.0246 0.046 Uiso 1 2 calc SR . .
C72 C 0.0565(3) -0.2211(3) 1.1017(6) 0.063(4) Uani 1 1 d . . .
H72 H 0.0357 -0.2216 1.0723 0.076 Uiso 1 1 calc R . .
C73 C 0.3998(3) 0.0136(3) 0.7195(6) 0.073(4) Uani 1 1 d . . .
H73 H 0.3907 0.0134 0.7626 0.087 Uiso 1 1 calc R . .
C76 C 0.3459(3) 0.1188(2) 0.9728(5) 0.041(3) Uani 1 1 d . . .
H76 H 0.3507 0.1382 0.9958 0.049 Uiso 1 1 calc R . .
C77 C 0.3635(3) -0.1916(3) 0.8554(5) 0.044(3) Uani 1 1 d . . .
H77 H 0.3806 -0.2092 0.8609 0.052 Uiso 1 1 calc R . .
C78 C 0.4329(4) 0.0160(3) 0.6045(7) 0.087(5) Uani 1 1 d . . .
H78 H 0.4441 0.0171 0.5629 0.105 Uiso 1 1 calc R . .
C79 C 0.0000 0.2431(5) 0.9089(12) 0.092(7) Uiso 1 2 d S . .
H79 H 0.0000 0.2563 0.9464 0.111 Uiso 1 2 calc SR . .
C80 C 0.0000 0.2416(6) 1.4088(13) 0.097(7) Uiso 1 2 d S . .
H80 H 0.0000 0.2281 1.4459 0.116 Uiso 1 2 calc SR . .
Cd1 Cd 0.0000 0.023295(19) 1.09639(4) 0.01706(18) Uani 1 2 d S . .
Cd2 Cd 0.0000 0.12166(2) 1.14474(5) 0.01617(14) Uani 1 2 d S . .
Cd3 Cd 0.0000 0.220306(19) 1.19217(4) 0.01812(19) Uani 1 2 d S . .
Cd4 Cd 0.250921(14) 0.082232(14) 0.82448(3) 0.01574(15) Uani 1 1 d . . .
Cd5 Cd 0.251771(15) -0.167924(15) 0.96294(3) 0.01496(15) Uani 1 1 d . . .
Cd6 Cd 0.0000 0.267979(19) 0.69231(4) 0.01881(17) Uani 1 2 d S . .
Cd7 Cd 0.256186(12) -0.123478(15) 1.14364(4) 0.01818(11) Uani 1 1 d . . .
Cd8 Cd 0.5000 0.132457(18) 1.14183(5) 0.02355(19) Uani 1 2 d S . .
Cd9 Cd 0.5000 0.03812(2) 1.11562(5) 0.0265(2) Uani 1 2 d S . .
N1 N 0.3050(2) -0.16484(17) 0.8890(4) 0.0271(18) Uani 1 1 d . . .
N2 N 0.4283(2) -0.19821(19) 0.7671(4) 0.041(2) Uani 1 1 d . . .
N3 N 0.45580(19) -0.19135(17) 0.7247(4) 0.0286(16) Uani 1 1 d . . .
N4 N 0.45349(19) -0.16008(18) 0.7061(4) 0.0288(17) Uani 1 1 d . . .
N5 N 0.4222(2) -0.14584(17) 0.7325(4) 0.0309(17) Uani 1 1 d . . .
N6 N 0.1748(2) -0.19327(19) 1.0460(4) 0.0370(19) Uani 1 1 d . . .
N7 N 0.2067(2) -0.17487(17) 1.0496(4) 0.0272(17) Uani 1 1 d . . .
N8 N 0.2091(2) -0.15969(18) 1.1051(4) 0.0317(18) Uani 1 1 d . . .
N9 N 0.1784(2) -0.16878(16) 1.1430(4) 0.0339(18) Uani 1 1 d . . .
N10 N 0.2558(2) -0.11272(18) 0.9827(4) 0.0262(18) Uani 1 1 d . . .
N11 N 0.25651(19) -0.09624(18) 1.0397(4) 0.0229(16) Uani 1 1 d . . .
N12 N 0.2548(2) -0.06520(16) 1.0322(4) 0.0257(19) Uani 1 1 d . . .
N13 N 0.2548(2) -0.09144(19) 0.9347(4) 0.029(2) Uani 1 1 d . . .
N14 N 0.25105(19) 0.03020(15) 0.8703(5) 0.024(2) Uani 1 1 d . . .
N15 N 0.4541(2) 0.07457(17) 1.0710(4) 0.0313(19) Uani 1 1 d . . .
N16 N 0.45248(19) 0.10607(17) 1.0806(4) 0.0322(18) Uani 1 1 d . . .
N17 N 0.42150(19) 0.11841(17) 1.0463(4) 0.0312(17) Uani 1 1 d . . .
N18 N 0.4254(2) 0.06478(18) 1.0307(4) 0.037(2) Uani 1 1 d . . .
N19 N 0.44952(18) -0.00331(16) 0.6479(4) 0.0365(19) Uani 1 1 d . . .
N20 N 0.3258(2) 0.04826(16) 0.7461(4) 0.0254(16) Uani 1 1 d . . .
N21 N 0.29824(19) 0.07075(16) 0.7413(3) 0.0218(15) Uani 1 1 d . . .
N22 N 0.30153(18) 0.08669(15) 0.6844(3) 0.0204(15) Uani 1 1 d . . .
N23 N 0.3321(2) 0.07526(16) 0.6532(4) 0.0298(18) Uani 1 1 d . . .
N24 N 0.3050(2) 0.09038(17) 0.8973(4) 0.0287(18) Uani 1 1 d . . .
N25 N 0.2060(2) 0.07307(16) 0.7384(3) 0.0246(16) Uani 1 1 d . . .
N26 N 0.1745(2) 0.05374(18) 0.7401(4) 0.0312(18) Uani 1 1 d . . .
N27 N 0.20906(19) 0.08632(14) 0.6785(3) 0.0199(15) Uani 1 1 d . . .
N28 N 0.17985(18) 0.07697(15) 0.6426(4) 0.0242(15) Uani 1 1 d . . .
N29 N 0.05317(18) 0.01158(16) 0.6248(4) 0.0267(17) Uani 1 1 d . . .
N30 N 0.1955(2) 0.08925(17) 0.8966(4) 0.0275(18) Uani 1 1 d . . .
N31 N 0.07429(19) 0.05703(15) 1.0224(4) 0.0251(17) Uani 1 1 d . . .
N32 N 0.04505(19) 0.06418(16) 1.0630(4) 0.0238(16) Uani 1 1 d . . .
N33 N 0.04802(19) 0.09451(17) 1.0825(4) 0.0242(16) Uani 1 1 d . . .
N34 N 0.0783(2) 0.10890(17) 1.0517(4) 0.0271(17) Uani 1 1 d . . .
N35 N 0.0000 -0.0264(2) 0.7484(5) 0.032(3) Uani 1 2 d S . .
N36 N 0.0000 -0.0783(2) 0.7867(6) 0.033(3) Uani 1 2 d S . .
N37 N 0.0000 0.0466(2) 1.1986(5) 0.024(2) Uiso 1 2 d S . .
N38 N 0.0000 0.0775(3) 1.2242(6) 0.045(3) Uani 1 2 d S . .
N39 N 0.0000 0.16834(17) 1.0679(4) 0.0084(16) Uiso 1 2 d S . .
N40 N 0.0000 0.1957(2) 1.0857(5) 0.031(2) Uani 1 2 d S . .
N41 N 0.0000 0.2154(2) 1.0361(5) 0.028(2) Uani 1 2 d S . .
N42 N 0.0000 0.1654(2) 0.9993(5) 0.023(2) Uani 1 2 d S . .
N43 N 0.0000 0.2410(2) 0.7935(5) 0.020(2) Uiso 1 2 d S . .
N44 N 0.25136(14) 0.13675(14) 0.8002(4) 0.0096(14) Uani 1 1 d . . .
N45 N 0.25350(17) 0.15210(16) 0.7447(4) 0.0199(16) Uani 1 1 d . . .
N46 N 0.2546(2) 0.18398(19) 0.7559(5) 0.035(2) Uani 1 1 d . . .
N47 N 0.25028(15) 0.15937(17) 0.8494(4) 0.0159(17) Uani 1 1 d . . .
N48 N 0.2513(2) 0.2800(2) 0.9205(5) 0.030(2) 