
#######################################################################
#
#                 Cambridge Crystallographic Data Centre
#                                CCDC
#
#######################################################################
#
# If this CIF has been generated from an entry in the Cambridge
# Structural Database, then it will include bibliographic, chemical,
# crystal, experimental, refinement or atomic coordinate data resulting
# from the CCDC's data processing and validation procedures.
#
#######################################################################

data_CSD_CIF_PASRAC
_audit_creation_date 1998-10-19
_audit_creation_method CSD-ConQuest-V1
_database_code_CSD PASRAC
_database_code_depnum_ccdc_archive 'CCDC 1228557'
_chemical_formula_sum 'C44 H32 P2'
_chemical_formula_moiety
;
C44 H32 P2
;
_journal_coden_Cambridge 579
_journal_volume 16
_journal_year 1997
_journal_page_first 6004
_journal_name_full 'Organometallics '
loop_
_publ_author_name
"A.J.Deeming"
"D.M.Speel"
"M.Stchedroff"
_chemical_name_systematic
;
(R)-2,2-bis(Diphenylphosphino)-1,1'-binaphthyl
;
_chemical_name_common
;
Teaching Subset: Fundamental Chemistry
;
_cell_volume   1680.060
_exptl_crystal_colour 'colorless'
_exptl_crystal_density_diffrn 1.231
_exptl_crystal_preparation '2-ethoxyethanol'
_diffrn_ambient_temperature ?
_diffrn_special_details
;
The study was carried out at room temperature,in the range 283-303K

;
#These two values have been output from a single CSD field.
_refine_ls_R_factor_gt 0.0492
_refine_ls_wR_factor_gt 0.0492
loop_
_citation_database_id_CSD
_citation_special_details
HUZGUE "is a stereoisomer of this entry"
XAZGUC "is a racemate of this entry"
_symmetry_cell_setting monoclinic
_symmetry_space_group_name_H-M 'P 21'
_symmetry_Int_Tables_number 4
loop_
_symmetry_equiv_pos_site_id
_symmetry_equiv_pos_as_xyz
1 x,y,z
2 -x,1/2+y,-z
_cell_length_a 9.151(3)
_cell_length_b 18.783(5)
_cell_length_c 10.036(4)
_cell_angle_alpha 90
_cell_angle_beta 103.11(3)
_cell_angle_gamma 90
_cell_formula_units_Z 2
loop_
_atom_type_symbol
_atom_type_radius_bond
C 0.68
H 0.23
P 1.05
loop_
_atom_site_label
_atom_site_type_symbol
_atom_site_fract_x
_atom_site_fract_y
_atom_site_fract_z
P1 P -0.0981(2) -0.53520 -0.3673(1)
P2 P -0.0462(2) -0.3732(1) -0.0692(1)
C1 C 0.0115(5) -0.4557(3) -0.3848(5)
C2 C 0.1217(5) -0.4343(3) -0.2749(5)
C3 C 0.2159(5) -0.3743(3) -0.2864(5)
C4 C 0.3388(6) -0.3548(3) -0.1804(6)
C5 C 0.4268(7) -0.2980(3) -0.1954(6)
C6 C 0.3924(8) -0.2565(3) -0.3151(7)
C7 C 0.2755(7) -0.2746(3) -0.4195(6)
C8 C 0.1862(6) -0.3351(3) -0.4097(5)
C9 C 0.0704(6) -0.3568(3) -0.5206(5)
C10 C -0.0133(6) -0.4157(3) -0.5091(5)
C11 C 0.0776(5) -0.4518(3) -0.0392(5)
C12 C 0.1473(5) -0.4730(3) -0.1410(5)
C13 C 0.2445(5) -0.5339(3) -0.1201(5)
C14 C 0.3227(6) -0.5558(3) -0.2192(6)
C15 C 0.4096(8) -0.6153(4) -0.1972(7)
C16 C 0.4272(8) -0.6541(4) -0.0770(8)
C17 C 0.3551(7) -0.6338(3) 0.0199(6)
C18 C 0.2631(6) -0.5729(3) 0.0032(5)
C19 C 0.1876(6) -0.5500(3) 0.1032(5)
C20 C 0.0994(6) -0.4917(3) 0.0835(5)
C21 C -0.2895(6) -0.5094(3) -0.4469(5)
C22 C -0.3932(7) -0.5622(4) -0.5055(6)
C23 C -0.5444(7) -0.5469(5) -0.5492(7)
C24 C -0.5947(8) -0.4792(5) -0.5382(7)
C25 C -0.4956(8) -0.4269(5) -0.4794(8)
C26 C -0.3440(7) -0.4420(4) -0.4344(6)
C27 C -0.0464(6) -0.5949(3) -0.4950(6)
C28 C -0.1033(8) -0.5899(4) -0.6360(7)
C29 C -0.0598(11) -0.6387(5) -0.7219(8)
C30 C 0.0437(11) -0.6920(5) -0.6674(11)
C31 C 0.0961(9) -0.6963(4) -0.5324(11)
C32 C 0.0533(8) -0.6490(4) -0.4440(9)
C33 C -0.1858(6) -0.3984(3) 0.0285(5)
C34 C -0.2642(7) -0.4607(4) -0.0078(7)
C35 C -0.3760(8) -0.4813(5) 0.0587(9)
C36 C -0.4094(8) -0.4395(6) 0.1595(8)
C37 C -0.3331(8) -0.3770(6) 0.1947(7)
C38 C -0.2211(7) -0.3563(4) 0.1302(6)
C39 C 0.0655(6) -0.3067(3) 0.0413(5)
C40 C 0.0086(8) -0.2374(3) 0.0334(6)
C41 C 0.0876(8) -0.1840(4) 0.1123(7)
C42 C 0.2221(8) -0.1966(4) 0.1979(7)
C43 C 0.2823(7) -0.2641(4) 0.2071(7)
C44 C 0.2046(7) -0.3194(3) 0.1303(6)
H1 H 0.3613(6) -0.3817(3) -0.0969(6)
H2 H 0.5109(7) -0.2857(3) -0.1228(6)
H3 H 0.4530(8) -0.2158(3) -0.3238(7)
H4 H 0.2525(7) -0.2460(3) -0.5009(6)
H5 H 0.0526(6) -0.3303(3) -0.6045(5)
H6 H -0.0910(6) -0.4300(3) -0.5857(5)
H7 H 0.3149(6) -0.5282(3) -0.3010(6)
H8 H 0.4628(8) -0.6299(4) -0.2647(7)
H9 H 0.4866(8) -0.6967(4) -0.0637(8)
H10 H 0.3687(7) -0.6611(3) 0.1027(6)
H11 H 0.2015(6) -0.5755(3) 0.1881(5)
H12 H 0.0481(6) -0.5226(3) 0.1526(5)
H13 H -0.3582(7) -0.6099(4) -0.5127(6)
H14 H -0.6130(7) -0.5839(5) -0.5890(7)
H15 H -0.6995(8) -0.4691(5) -0.5713(7)
H16 H -0.5310(8) -0.3794(5) -0.4707(8)
H17 H -0.2739(7) -0.4059(4) -0.3934(6)
H18 H -0.1728(8) -0.5527(4) -0.6727(7)
H19 H -0.0975(11) -0.6358(5) -0.8191(8)
H20 H 0.0741(11) -0.7264(5) -0.7265(11)
H21 H 0.1669(9) -0.7330(4) -0.4959(11)
H22 H 0.0921(8) -0.6529(4) -0.3471(9)
H23 H -0.2384(7) -0.4912(4) -0.0758(7)
H24 H -0.4346(8) -0.5233(5) 0.0306(9)
H25 H -0.4838(8) -0.4539(6) 0.2078(8)
H26 H -0.3587(8) -0.3467(6) 0.2630(7)
H27 H -0.1642(7) -0.3138(4) 0.1581(6)
H28 H -0.0880(8) -0.2276(3) -0.0248(6)
H29 H 0.0478(8) -0.1365(4) 0.1071(7)
H30 H 0.2762(8) -0.1584(4) 0.2508(7)
H31 H 0.3781(7) -0.2730(4) 0.2674(7)
H32 H 0.2451(7) -0.3668(3) 0.1386(6)
#END
