####################################################################### 
# 
# This file contains crystal structure data downloaded from the 
# Cambridge Structural Database (CSD) hosted by the Cambridge 
# Crystallographic Data Centre (CCDC).
# 
# Full information about CCDC data access policies and citation 
# guidelines are available at http://www.ccdc.cam.ac.uk/access/V1 
# 
# Audit and citation data items may have been added by the CCDC. 
# Please retain this information to preserve the provenance of 
# this file and to allow appropriate attribution of the data. 
# 
#######################################################################

data_3
_audit_block_doi                 10.5517/ccxycsz
_database_code_depnum_ccdc_archive 'CCDC 862382'
loop_
_citation_id
_citation_doi
_citation_year
1 10.1021/cg300051w 2012
_audit_update_record             
;
2012-01-12 deposited with the CCDC.	2024-07-12 downloaded from the CCDC.
;
#TrackingRef '1 to 8 OK.cif'


_audit_creation_method           SHELXL-97
_chemical_name_systematic        
;
?
;
_chemical_name_common            ?
_chemical_melting_point          ?
_chemical_formula_moiety         ?
_chemical_formula_sum            'C44 H44 Cd Cl2 N8 O22'
_chemical_formula_weight         1220.17

loop_
_atom_type_symbol
_atom_type_description
_atom_type_scat_dispersion_real
_atom_type_scat_dispersion_imag
_atom_type_scat_source
C C 0.0033 0.0016 'International Tables Vol C Tables 4.2.6.8 and 6.1.1.4'
H H 0.0000 0.0000 'International Tables Vol C Tables 4.2.6.8 and 6.1.1.4'
N N 0.0061 0.0033 'International Tables Vol C Tables 4.2.6.8 and 6.1.1.4'
O O 0.0106 0.0060 'International Tables Vol C Tables 4.2.6.8 and 6.1.1.4'
Cl Cl 0.1484 0.1585 'International Tables Vol C Tables 4.2.6.8 and 6.1.1.4'
Cd Cd -0.8075 1.2024 'International Tables Vol C Tables 4.2.6.8 and 6.1.1.4'

_symmetry_cell_setting           triclinic
_symmetry_space_group_name_H-M   P-1

loop_
_symmetry_equiv_pos_as_xyz
'x, y, z'
'-x, -y, -z'

_cell_length_a                   8.9845(3)
_cell_length_b                   12.5760(6)
_cell_length_c                   14.3161(6)
_cell_angle_alpha                67.106(4)
_cell_angle_beta                 80.345(3)
_cell_angle_gamma                71.350(4)
_cell_volume                     1410.15(10)
_cell_formula_units_Z            1
_cell_measurement_temperature    150(2)
_cell_measurement_reflns_used    4240
_cell_measurement_theta_min      2.7742
_cell_measurement_theta_max      30.1553

_exptl_crystal_description       block
_exptl_crystal_colour            colorless
_exptl_crystal_size_max          0.20
_exptl_crystal_size_mid          0.10
_exptl_crystal_size_min          0.10
_exptl_crystal_density_meas      ?
_exptl_crystal_density_diffrn    1.437
_exptl_crystal_density_method    'not measured'
_exptl_crystal_F_000             622
_exptl_absorpt_coefficient_mu    0.563
_exptl_absorpt_correction_T_min  0.8957
_exptl_absorpt_correction_T_max  0.9458
_exptl_absorpt_correction_type   multi-scan
_exptl_absorpt_process_details   
;
CrysAlis RED, Oxford Diffraction Ltd.,
Version 1.171.32.5 (release 08-05-2007 CrysAlis171 .NET)
(compiled May 8 2007,13:10:02)
Empirical absorption correction using spherical harmonics,
implemented in SCALE3 ABSPACK scaling algorithm.
;
_diffrn_ambient_temperature      150(2)
_diffrn_radiation_wavelength     0.71073
_diffrn_radiation_type           MoK\a
_diffrn_radiation_source         'fine-focus sealed tube'
_diffrn_radiation_monochromator  graphite
_diffrn_measurement_device_type  'Xcalibur, Sapphire3, Gemini ultra'
_diffrn_measurement_method       '\w scans'
_diffrn_detector_area_resol_mean 16.0855
_diffrn_reflns_number            10321
_diffrn_reflns_av_R_equivalents  0.0349
_diffrn_reflns_av_sigmaI/netI    0.0738
_diffrn_reflns_limit_h_min       -11
_diffrn_reflns_limit_h_max       11
_diffrn_reflns_limit_k_min       -15
_diffrn_reflns_limit_k_max       15
_diffrn_reflns_limit_l_min       -17
_diffrn_reflns_limit_l_max       17
_diffrn_reflns_theta_min         2.79
_diffrn_reflns_theta_max         26.00
_reflns_number_total             5424
_reflns_number_gt                3894
_reflns_threshold_expression     >2sigma(I)

_computing_data_collection       CrysAlisPro
_computing_cell_refinement       CrysAlisPro
_computing_data_reduction        CrysAlisPro
_computing_structure_solution    'SHELXS-97 (Sheldrick, 1990)'
_computing_structure_refinement  'SHELXL-97 (Sheldrick, 1997)'
_computing_molecular_graphics    'Bruker SHELXTL'
_computing_publication_material  'Bruker SHELXTL'

_refine_special_details          
;
Refinement of F^2^ against ALL reflections. The weighted R-factor wR and
goodness of fit S are based on F^2^, conventional R-factors R are based
on F, with F set to zero for negative F^2^. The threshold expression of
F^2^ > 2sigma(F^2^) is used only for calculating R-factors(gt) etc. and is
not relevant to the choice of reflections for refinement. R-factors based
on F^2^ are statistically about twice as large as those based on F, and R-
factors based on ALL data will be even larger.
;

_refine_ls_structure_factor_coef Fsqd
_refine_ls_matrix_type           full
_refine_ls_weighting_scheme      calc
_refine_ls_weighting_details     
'calc w=1/[\s^2^(Fo^2^)+(0.1000P)^2^+0.0000P] where P=(Fo^2^+2Fc^2^)/3'
_atom_sites_solution_primary     direct
_atom_sites_solution_secondary   difmap
_atom_sites_solution_hydrogens   geom
_refine_ls_hydrogen_treatment    mixed
_refine_ls_extinction_method     none
_refine_ls_extinction_coef       ?
_refine_ls_number_reflns         5424
_refine_ls_number_parameters     343
_refine_ls_number_restraints     0
_refine_ls_R_factor_all          0.0902
_refine_ls_R_factor_gt           0.0718
_refine_ls_wR_factor_ref         0.2234
_refine_ls_wR_factor_gt          0.2170
_refine_ls_goodness_of_fit_ref   1.427
_refine_ls_restrained_S_all      1.427
_refine_ls_shift/su_max          0.024
_refine_ls_shift/su_mean         0.001

loop_
_atom_site_label
_atom_site_type_symbol
_atom_site_fract_x
_atom_site_fract_y
_atom_site_fract_z
_atom_site_U_iso_or_equiv
_atom_site_adp_type
_atom_site_occupancy
_atom_site_symmetry_multiplicity
_atom_site_calc_flag
_atom_site_refinement_flags
_atom_site_disorder_assembly
_atom_site_disorder_group
Cd1 Cd 0.0000 0.0000 1.0000 0.0308(3) Uani 1 2 d S . .
C1 C -0.3690(8) 0.1390(6) 1.0056(5) 0.0444(17) Uani 1 1 d . . .
H1A H -0.3384 0.1891 0.9408 0.053 Uiso 1 1 calc R . .
C2 C -0.5190(8) 0.1738(7) 1.0442(6) 0.055(2) Uani 1 1 d . . .
H2A H -0.5891 0.2483 1.0074 0.066 Uiso 1 1 calc R . .
C3 C -0.5670(8) 0.1032(7) 1.1337(6) 0.0488(19) Uani 1 1 d . . .
H3A H -0.6712 0.1264 1.1608 0.059 Uiso 1 1 calc R . .
C4 C -0.4630(7) -0.0033(6) 1.1855(5) 0.0313(14) Uani 1 1 d . . .
C5 C -0.3135(7) -0.0336(6) 1.1451(4) 0.0301(14) Uani 1 1 d . . .
H5A H -0.2417 -0.1072 1.1816 0.036 Uiso 1 1 calc R . .
C6 C -0.6431(7) -0.1220(6) 1.2956(5) 0.0327(14) Uani 1 1 d . . .
C7 C -0.6440(7) -0.2160(6) 1.3998(4) 0.0304(14) Uani 1 1 d . . .
H7A H -0.6386 -0.2943 1.3948 0.036 Uiso 1 1 calc R . .
C8 C -0.4964(7) -0.2274(6) 1.4463(5) 0.0298(14) Uani 1 1 d . . .
H8A H -0.4270 -0.3119 1.4643 0.036 Uiso 1 1 calc R . .
C9 C -0.4139(7) -0.1432(6) 1.3645(4) 0.0300(14) Uani 1 1 d . . .
C10 C -0.7927(7) -0.1777(6) 1.4673(5) 0.0315(14) Uani 1 1 d . . .
H10A H -0.8924 -0.1662 1.4377 0.038 Uiso 1 1 calc R . .
C11 C -0.7867(7) -0.0632(5) 1.4770(4) 0.0308(14) Uani 1 1 d . . .
H11 H -0.8686 0.0098 1.4560 0.037 Uiso 1 1 calc R . .
C12 C -0.6589(7) -0.0730(6) 1.5169(5) 0.0323(14) Uani 1 1 d . . .
H12A H -0.6438 -0.0078 1.5285 0.039 Uiso 1 1 calc R . .
C13 C -0.5388(7) -0.1934(6) 1.5430(4) 0.0308(14) Uani 1 1 d . . .
H13A H -0.4439 -0.1950 1.5721 0.037 Uiso 1 1 calc R . .
C14 C -0.7708(7) -0.2793(6) 1.5726(4) 0.0299(14) Uani 1 1 d . . .
H14A H -0.7603 -0.3576 1.5658 0.036 Uiso 1 1 calc R . .
C15 C -0.9043(8) -0.2561(5) 1.6487(5) 0.0311(14) Uani 1 1 d . . .
C16 C -0.6773(8) -0.2659(6) 1.7160(5) 0.0358(15) Uani 1 1 d . . .
C17 C -0.6235(7) -0.2875(6) 1.6182(5) 0.0318(14) Uani 1 1 d . . .
H17A H -0.5498 -0.3702 1.6329 0.038 Uiso 1 1 calc R . .
C18 C -0.9264(7) -0.2438(5) 1.8198(4) 0.0310(14) Uani 1 1 d . . .
C19 C -1.0038(8) -0.3321(6) 1.8777(5) 0.0361(15) Uani 1 1 d . . .
H19A H -1.0057 -0.3926 1.8542 0.043 Uiso 1 1 calc R . .
C20 C -1.0767(8) -0.3279(6) 1.9697(5) 0.0367(15) Uani 1 1 d . . .
H20A H -1.1259 -0.3879 2.0125 0.044 Uiso 1 1 calc R . .
C21 C -1.0770(7) -0.2348(6) 1.9984(5) 0.0334(14) Uani 1 1 d . . .
H21A H -1.1297 -0.2314 2.0609 0.040 Uiso 1 1 calc R . .
C22 C -0.9331(7) -0.1544(6) 1.8534(4) 0.0317(14) Uani 1 1 d . . .
H22A H -0.8839 -0.0937 1.8122 0.038 Uiso 1 1 calc R . .
N1 N -0.2645(6) 0.0375(5) 1.0553(4) 0.0327(12) Uani 1 1 d . . .
N2 N -0.5077(6) -0.0854(5) 1.2806(4) 0.0292(11) Uani 1 1 d . . .
N3 N -0.8411(6) -0.2497(5) 1.7283(4) 0.0311(12) Uani 1 1 d . . .
N4 N -1.0057(6) -0.1481(5) 1.9417(4) 0.0335(12) Uani 1 1 d . . .
O1 O -0.6002(6) -0.2621(5) 1.7751(3) 0.0496(13) Uani 1 1 d . . .
O2 O -1.0404(5) -0.2437(4) 1.6428(3) 0.0405(11) Uani 1 1 d . . .
O3 O -0.7430(5) -0.0800(4) 1.2341(3) 0.0410(11) Uani 1 1 d . . .
O4 O -0.2935(5) -0.1240(4) 1.3688(3) 0.0390(11) Uani 1 1 d . . .
O5 O 0.5061(17) -0.615(2) 1.7644(15) 0.297(10) Uani 1 1 d . . .
O6 O 0.3388(17) -0.7156(7) 1.8043(9) 0.207(7) Uani 1 1 d . . .
O7 O 0.3731(13) -0.5648(6) 1.6480(5) 0.125(4) Uani 1 1 d . . .
O8 O 0.2644(9) -0.5197(5) 1.7898(5) 0.096(2) Uani 1 1 d . . .
O9 O 0.370(2) -0.4904(19) 1.0388(16) 0.322(11) Uiso 1 1 d . . .
O10 O 0.1310(14) -0.3918(11) 1.2044(10) 0.175(4) Uiso 1 1 d . . .
O11 O -0.0562(5) 0.1483(4) 0.8403(3) 0.0398(11) Uani 1 1 d . . .
H11A H -0.0760 0.2164 0.8443 0.060 Uiso 1 1 calc R . .
Cl1 Cl 0.3517(3) -0.60657(16) 1.75211(14) 0.0557(5) Uani 1 1 d . . .
H11B H -0.140(9) 0.150(7) 0.796(6) 0.06(2) Uiso 1 1 d . . .

loop_
_atom_site_aniso_label
_atom_site_aniso_U_11
_atom_site_aniso_U_22
_atom_site_aniso_U_33
_atom_site_aniso_U_23
_atom_site_aniso_U_13
_atom_site_aniso_U_12
Cd1 0.0355(4) 0.0351(4) 0.0247(4) -0.0133(3) 0.0075(3) -0.0149(3)
C1 0.044(4) 0.043(4) 0.033(4) 0.001(3) 0.002(3) -0.014(3)
C2 0.033(4) 0.046(5) 0.052(5) 0.010(4) 0.000(3) -0.004(3)
C3 0.027(4) 0.051(5) 0.052(5) -0.009(4) 0.008(3) -0.005(3)
C4 0.034(3) 0.037(4) 0.026(3) -0.012(3) 0.004(3) -0.016(3)
C5 0.038(3) 0.031(3) 0.024(3) -0.011(3) 0.005(3) -0.014(3)
C6 0.032(3) 0.041(4) 0.033(3) -0.023(3) 0.007(3) -0.014(3)
C7 0.034(3) 0.035(3) 0.029(3) -0.018(3) 0.009(3) -0.016(3)
C8 0.031(3) 0.031(3) 0.030(3) -0.016(3) 0.004(3) -0.008(3)
C9 0.032(3) 0.036(4) 0.027(3) -0.021(3) 0.007(3) -0.008(3)
C10 0.034(3) 0.036(4) 0.029(3) -0.014(3) 0.005(3) -0.014(3)
C11 0.037(3) 0.022(3) 0.029(3) -0.008(3) 0.013(3) -0.011(3)
C12 0.040(4) 0.033(4) 0.030(3) -0.018(3) 0.015(3) -0.019(3)
C13 0.037(3) 0.037(4) 0.023(3) -0.013(3) 0.009(3) -0.018(3)
C14 0.036(3) 0.029(3) 0.030(3) -0.014(3) 0.006(3) -0.015(3)
C15 0.045(4) 0.024(3) 0.025(3) -0.008(3) 0.008(3) -0.016(3)
C16 0.043(4) 0.037(4) 0.025(3) -0.009(3) 0.005(3) -0.014(3)
C17 0.036(3) 0.033(3) 0.030(3) -0.015(3) 0.005(3) -0.013(3)
C18 0.042(4) 0.026(3) 0.023(3) -0.007(3) 0.004(3) -0.013(3)
C19 0.046(4) 0.026(3) 0.034(4) -0.011(3) 0.007(3) -0.012(3)
C20 0.040(4) 0.028(3) 0.037(4) -0.010(3) 0.012(3) -0.013(3)
C21 0.035(3) 0.033(4) 0.027(3) -0.008(3) 0.006(3) -0.010(3)
C22 0.038(4) 0.031(4) 0.025(3) -0.008(3) 0.007(3) -0.015(3)
N1 0.037(3) 0.032(3) 0.028(3) -0.012(2) 0.008(2) -0.012(2)
N2 0.030(3) 0.035(3) 0.024(3) -0.009(2) 0.005(2) -0.015(2)
N3 0.038(3) 0.031(3) 0.026(3) -0.012(2) 0.010(2) -0.016(2)
N4 0.038(3) 0.032(3) 0.031(3) -0.013(3) 0.005(2) -0.011(2)
O1 0.051(3) 0.079(4) 0.027(2) -0.021(3) 0.005(2) -0.029(3)
O2 0.035(3) 0.051(3) 0.037(3) -0.015(2) 0.008(2) -0.020(2)
O3 0.040(3) 0.058(3) 0.028(2) -0.012(2) -0.001(2) -0.023(2)
O4 0.030(2) 0.063(3) 0.035(3) -0.025(2) 0.008(2) -0.023(2)
O5 0.138(12) 0.45(3) 0.29(2) -0.15(2) -0.052(13) -0.023(15)
O6 0.330(16) 0.058(5) 0.204(11) -0.069(7) 0.181(12) -0.086(8)
O7 0.226(10) 0.053(4) 0.062(4) -0.030(4) 0.039(5) -0.007(5)
O8 0.135(6) 0.052(4) 0.086(5) -0.038(4) 0.058(4) -0.020(4)
O11 0.041(3) 0.048(3) 0.031(2) -0.009(2) -0.002(2) -0.019(2)
Cl1 0.0811(14) 0.0304(10) 0.0449(11) -0.0101(9) 0.0169(10) -0.0160(9)

_geom_special_details            
;
All esds (except the esd in the dihedral angle between two l.s. planes)
are estimated using the full covariance matrix. The cell esds are taken
into account individually in the estimation of esds in distances, angles
and torsion angles; correlations between esds in cell parameters are only
used when they are defined by crystal symmetry. An approximate (isotropic)
treatment of cell esds is used for estimating esds involving l.s. planes.
;

loop_
_geom_bond_atom_site_label_1
_geom_bond_atom_site_label_2
_geom_bond_distance
_geom_bond_site_symmetry_2
_geom_bond_publ_flag
Cd1 O11 2.330(4) . ?
Cd1 O11 2.330(4) 2_557 ?
Cd1 N1 2.332(5) 2_557 ?
Cd1 N1 2.332(5) . ?
Cd1 N4 2.335(5) 2_458 ?
Cd1 N4 2.335(5) 1_654 ?
C1 N1 1.329(8) . ?
C1 C2 1.369(10) . ?
C1 H1A 0.9500 . ?
C2 C3 1.339(10) . ?
C2 H2A 0.9500 . ?
C3 C4 1.370(9) . ?
C3 H3A 0.9500 . ?
C4 C5 1.366(9) . ?
C4 N2 1.439(8) . ?
C5 N1 1.347(8) . ?
C5 H5A 0.9500 . ?
C6 O3 1.208(7) . ?
C6 N2 1.390(8) . ?
C6 C7 1.501(9) . ?
C7 C8 1.524(8) . ?
C7 C10 1.571(8) . ?
C7 H7A 1.0000 . ?
C8 C9 1.512(9) . ?
C8 C13 1.558(8) . ?
C8 H8A 1.0000 . ?
C9 O4 1.197(7) . ?
C9 N2 1.396(8) . ?
C10 C11 1.519(8) . ?
C10 C14 1.544(9) . ?
C10 H10A 1.0000 . ?
C11 C12 1.316(9) . ?
C11 H11 0.9500 . ?
C12 C13 1.498(9) . ?
C12 H12A 0.9500 . ?
C13 C17 1.565(8) . ?
C13 H13A 1.0000 . ?
C14 C15 1.515(8) . ?
C14 C17 1.529(8) . ?
C14 H14A 1.0000 . ?
C15 O2 1.195(7) . ?
C15 N3 1.395(8) . ?
C16 O1 1.203(7) . ?
C16 N3 1.409(8) . ?
C16 C17 1.501(8) . ?
C17 H17A 1.0000 . ?
C18 C22 1.367(8) . ?
C18 C19 1.410(9) . ?
C18 N3 1.419(8) . ?
C19 C20 1.382(9) . ?
C19 H19A 0.9500 . ?
C20 C21 1.382(9) . ?
C20 H20A 0.9500 . ?
C21 N4 1.357(8) . ?
C21 H21A 0.9500 . ?
C22 N4 1.341(8) . ?
C22 H22A 0.9500 . ?
N4 Cd1 2.335(5) 1_456 ?
O5 Cl1 1.392(15) . ?
O6 Cl1 1.314(8) . ?
O7 Cl1 1.377(7) . ?
O8 Cl1 1.367(6) . ?
O11 H11A 0.8400 . ?
O11 H11B 1.05(8) . ?

loop_
_geom_angle_atom_site_label_1
_geom_angle_atom_site_label_2
_geom_angle_atom_site_label_3
_geom_angle
_geom_angle_site_symmetry_1
_geom_angle_site_symmetry_3
_geom_angle_publ_flag
O11 Cd1 O11 180.000(1) . 2_557 ?
O11 Cd1 N1 87.64(17) . 2_557 ?
O11 Cd1 N1 92.36(17) 2_557 2_557 ?
O11 Cd1 N1 92.36(17) . . ?
O11 Cd1 N1 87.64(17) 2_557 . ?
N1 Cd1 N1 180.0(3) 2_557 . ?
O11 Cd1 N4 88.66(18) . 2_458 ?
O11 Cd1 N4 91.34(17) 2_557 2_458 ?
N1 Cd1 N4 94.31(18) 2_557 2_458 ?
N1 Cd1 N4 85.69(18) . 2_458 ?
O11 Cd1 N4 91.34(17) . 1_654 ?
O11 Cd1 N4 88.66(17) 2_557 1_654 ?
N1 Cd1 N4 85.69(18) 2_557 1_654 ?
N1 Cd1 N4 94.31(18) . 1_654 ?
N4 Cd1 N4 180.000(1) 2_458 1_654 ?
N1 C1 C2 122.4(6) . . ?
N1 C1 H1A 118.8 . . ?
C2 C1 H1A 118.8 . . ?
C3 C2 C1 120.2(7) . . ?
C3 C2 H2A 119.9 . . ?
C1 C2 H2A 119.9 . . ?
C2 C3 C4 118.6(6) . . ?
C2 C3 H3A 120.7 . . ?
C4 C3 H3A 120.7 . . ?
C5 C4 C3 119.3(6) . . ?
C5 C4 N2 119.0(5) . . ?
C3 C4 N2 121.7(6) . . ?
N1 C5 C4 122.3(6) . . ?
N1 C5 H5A 118.9 . . ?
C4 C5 H5A 118.9 . . ?
O3 C6 N2 123.8(6) . . ?
O3 C6 C7 127.6(6) . . ?
N2 C6 C7 108.6(5) . . ?
C6 C7 C8 105.0(5) . . ?
C6 C7 C10 112.1(5) . . ?
C8 C7 C10 109.4(5) . . ?
C6 C7 H7A 110.1 . . ?
C8 C7 H7A 110.1 . . ?
C10 C7 H7A 110.1 . . ?
C9 C8 C7 105.8(5) . . ?
C9 C8 C13 111.3(5) . . ?
C7 C8 C13 111.1(5) . . ?
C9 C8 H8A 109.5 . . ?
C7 C8 H8A 109.5 . . ?
C13 C8 H8A 109.5 . . ?
O4 C9 N2 124.4(6) . . ?
O4 C9 C8 128.2(6) . . ?
N2 C9 C8 107.3(5) . . ?
C11 C10 C14 108.8(5) . . ?
C11 C10 C7 106.9(5) . . ?
C14 C10 C7 105.6(5) . . ?
C11 C10 H10A 111.7 . . ?
C14 C10 H10A 111.7 . . ?
C7 C10 H10A 111.7 . . ?
C12 C11 C10 114.7(6) . . ?
C12 C11 H11 122.7 . . ?
C10 C11 H11 122.7 . . ?
C11 C12 C13 115.9(6) . . ?
C11 C12 H12A 122.0 . . ?
C13 C12 H12A 122.0 . . ?
C12 C13 C8 108.4(5) . . ?
C12 C13 C17 106.7(5) . . ?
C8 C13 C17 104.5(5) . . ?
C12 C13 H13A 112.3 . . ?
C8 C13 H13A 112.3 . . ?
C17 C13 H13A 112.3 . . ?
C15 C14 C17 105.1(5) . . ?
C15 C14 C10 112.7(5) . . ?
C17 C14 C10 109.9(5) . . ?
C15 C14 H14A 109.7 . . ?
C17 C14 H14A 109.7 . . ?
C10 C14 H14A 109.7 . . ?
O2 C15 N3 125.0(6) . . ?
O2 C15 C14 127.3(6) . . ?
N3 C15 C14 107.7(5) . . ?
O1 C16 N3 124.4(6) . . ?
O1 C16 C17 128.5(6) . . ?
N3 C16 C17 107.1(5) . . ?
C16 C17 C14 106.4(5) . . ?
C16 C17 C13 111.8(5) . . ?
C14 C17 C13 110.7(5) . . ?
C16 C17 H17A 109.3 . . ?
C14 C17 H17A 109.3 . . ?
C13 C17 H17A 109.3 . . ?
C22 C18 C19 119.4(6) . . ?
C22 C18 N3 120.8(5) . . ?
C19 C18 N3 119.7(5) . . ?
C20 C19 C18 117.9(6) . . ?
C20 C19 H19A 121.0 . . ?
C18 C19 H19A 121.0 . . ?
C21 C20 C19 118.9(6) . . ?
C21 C20 H20A 120.6 . . ?
C19 C20 H20A 120.6 . . ?
N4 C21 C20 123.3(6) . . ?
N4 C21 H21A 118.4 . . ?
C20 C21 H21A 118.4 . . ?
N4 C22 C18 123.2(6) . . ?
N4 C22 H22A 118.4 . . ?
C18 C22 H22A 118.4 . . ?
C1 N1 C5 117.1(6) . . ?
C1 N1 Cd1 120.6(4) . . ?
C5 N1 Cd1 121.6(4) . . ?
C6 N2 C9 113.2(5) . . ?
C6 N2 C4 123.2(5) . . ?
C9 N2 C4 123.4(5) . . ?
C15 N3 C16 113.7(5) . . ?
C15 N3 C18 124.1(5) . . ?
C16 N3 C18 121.7(5) . . ?
C22 N4 C21 117.2(5) . . ?
C22 N4 Cd1 121.6(4) . 1_456 ?
C21 N4 Cd1 121.1(4) . 1_456 ?
Cd1 O11 H11A 109.5 . . ?
Cd1 O11 H11B 121(4) . . ?
H11A O11 H11B 109.1 . . ?
O6 Cl1 O8 115.7(5) . . ?
O6 Cl1 O7 122.1(6) . . ?
O8 Cl1 O7 113.7(4) . . ?
O6 Cl1 O5 103.8(12) . . ?
O8 Cl1 O5 103.6(10) . . ?
O7 Cl1 O5 92.1(9) . . ?

loop_
_geom_torsion_atom_site_label_1
_geom_torsion_atom_site_label_2
_geom_torsion_atom_site_label_3
_geom_torsion_atom_site_label_4
_geom_torsion
_geom_torsion_site_symmetry_1
_geom_torsion_site_symmetry_2
_geom_torsion_site_symmetry_3
_geom_torsion_site_symmetry_4
_geom_torsion_publ_flag
N1 C1 C2 C3 -2.2(13) . . . . ?
C1 C2 C3 C4 0.5(13) . . . . ?
C2 C3 C4 C5 0.8(11) . . . . ?
C2 C3 C4 N2 -178.2(7) . . . . ?
C3 C4 C5 N1 -0.5(10) . . . . ?
N2 C4 C5 N1 178.5(5) . . . . ?
O3 C6 C7 C8 -175.7(6) . . . . ?
N2 C6 C7 C