####################################################################### 
# 
# This file contains crystal structure data downloaded from the 
# Cambridge Structural Database (CSD) hosted by the Cambridge 
# Crystallographic Data Centre (CCDC).
# 
# Full information about CCDC data access policies and citation 
# guidelines are available at http://www.ccdc.cam.ac.uk/access/V1 
# 
# Audit and citation data items may have been added by the CCDC. 
# Please retain this information to preserve the provenance of 
# this file and to allow appropriate attribution of the data. 
# 
#######################################################################

data_3
_audit_block_doi                 10.5517/cc8znql
_database_code_depnum_ccdc_archive 'CCDC 267800'
loop_
_citation_id
_citation_doi
_citation_year
1 10.1039/b508479b 2005
_audit_update_record             
;
2005-04-03 deposited with the CCDC.	2024-07-12 downloaded from the CCDC.
;

_audit_creation_method           SHELXL-97
_chemical_name_systematic        
;
?
;
_chemical_name_common            ?
_chemical_melting_point          ?
_chemical_formula_moiety         ?
_chemical_formula_sum            'C11 H6 Ag F3 N6 O4 S'
_chemical_formula_weight         483.15

loop_
_atom_type_symbol
_atom_type_description
_atom_type_scat_dispersion_real
_atom_type_scat_dispersion_imag
_atom_type_scat_source
C C 0.0033 0.0016 'International Tables Vol C Tables 4.2.6.8 and 6.1.1.4'
H H 0.0000 0.0000 'International Tables Vol C Tables 4.2.6.8 and 6.1.1.4'
N N 0.0061 0.0033 'International Tables Vol C Tables 4.2.6.8 and 6.1.1.4'
O O 0.0106 0.0060 'International Tables Vol C Tables 4.2.6.8 and 6.1.1.4'
F F 0.0171 0.0103 'International Tables Vol C Tables 4.2.6.8 and 6.1.1.4'
S S 0.1246 0.1234 'International Tables Vol C Tables 4.2.6.8 and 6.1.1.4'
Ag Ag -0.8971 1.1015 'International Tables Vol C Tables 4.2.6.8 and 6.1.1.4'

_symmetry_cell_setting           Tetragonal
_symmetry_space_group_name_H-M   P4(2)/mnm

loop_
_symmetry_equiv_pos_as_xyz
'x, y, z'
'-x, -y, z'
'-y+1/2, x+1/2, z+1/2'
'y+1/2, -x+1/2, z+1/2'
'-x+1/2, y+1/2, -z+1/2'
'x+1/2, -y+1/2, -z+1/2'
'y, x, -z'
'-y, -x, -z'
'-x, -y, -z'
'x, y, -z'
'y-1/2, -x-1/2, -z-1/2'
'-y-1/2, x-1/2, -z-1/2'
'x-1/2, -y-1/2, z-1/2'
'-x-1/2, y-1/2, z-1/2'
'-y, -x, z'
'y, x, z'

_cell_length_a                   10.7845(19)
_cell_length_b                   10.7845(19)
_cell_length_c                   14.119(5)
_cell_angle_alpha                90.00
_cell_angle_beta                 90.00
_cell_angle_gamma                90.00
_cell_volume                     1642.1(7)
_cell_formula_units_Z            4
_cell_measurement_temperature    293(2)
_cell_measurement_reflns_used    954
_cell_measurement_theta_min      3.18
_cell_measurement_theta_max      23.26

_exptl_crystal_description       Block
_exptl_crystal_colour            Colorless
_exptl_crystal_size_max          0.22
_exptl_crystal_size_mid          0.18
_exptl_crystal_size_min          0.16
_exptl_crystal_density_meas      None
_exptl_crystal_density_diffrn    1.954
_exptl_crystal_density_method    'not measured'
_exptl_crystal_F_000             944
_exptl_absorpt_coefficient_mu    1.419
_exptl_absorpt_correction_type   MULTI-SCAN
_exptl_absorpt_correction_T_min  0.851274
_exptl_absorpt_correction_T_max  1.000000
_exptl_absorpt_process_details   SADABS

_exptl_special_details           
;
?
;

_diffrn_ambient_temperature      293(2)
_diffrn_radiation_wavelength     0.71073
_diffrn_radiation_type           MoK\a
_diffrn_radiation_source         'fine-focus sealed tube'
_diffrn_radiation_monochromator  graphite
_diffrn_measurement_device_type  'CCD area detector'
_diffrn_measurement_method       'phi and omega scans'
_diffrn_detector_area_resol_mean ?
_diffrn_standards_number         ?
_diffrn_standards_interval_count ?
_diffrn_standards_interval_time  ?
_diffrn_standards_decay_%        ?
_diffrn_reflns_number            8865
_diffrn_reflns_av_R_equivalents  0.0753
_diffrn_reflns_av_sigmaI/netI    0.0322
_diffrn_reflns_limit_h_min       -13
_diffrn_reflns_limit_h_max       11
_diffrn_reflns_limit_k_min       -13
_diffrn_reflns_limit_k_max       13
_diffrn_reflns_limit_l_min       -17
_diffrn_reflns_limit_l_max       11
_diffrn_reflns_theta_min         2.38
_diffrn_reflns_theta_max         26.34
_reflns_number_total             941
_reflns_number_gt                631
_reflns_threshold_expression     >2sigma(I)

_computing_data_collection       'Bruker SMART'
_computing_cell_refinement       'Bruker SMART'
_computing_data_reduction        'Bruker SAINT'
_computing_structure_solution    'SHELXS-97 (Sheldrick, 1990)'
_computing_structure_refinement  'SHELXL-97 (Sheldrick, 1997)'
_computing_molecular_graphics    'Bruker SHELXTL'
_computing_publication_material  'Bruker SHELXTL'

_refine_special_details          
;
Refinement of F^2^ against ALL reflections. The weighted R-factor wR and
goodness of fit S are based on F^2^, conventional R-factors R are based
on F, with F set to zero for negative F^2^. The threshold expression of
F^2^ > 2sigma(F^2^) is used only for calculating R-factors(gt) etc. and is
not relevant to the choice of reflections for refinement. R-factors based
on F^2^ are statistically about twice as large as those based on F, and R-
factors based on ALL data will be even larger.
;

_refine_ls_structure_factor_coef Fsqd
_refine_ls_matrix_type           full
_refine_ls_weighting_scheme      calc
_refine_ls_weighting_details     
'calc w=1/[\s^2^(Fo^2^)+(0.0519P)^2^+0.0000P] where P=(Fo^2^+2Fc^2^)/3'
_atom_sites_solution_primary     direct
_atom_sites_solution_secondary   difmap
_atom_sites_solution_hydrogens   geom
_refine_ls_hydrogen_treatment    constr
_refine_ls_extinction_method     none
_refine_ls_extinction_coef       ?
_refine_ls_number_reflns         941
_refine_ls_number_parameters     57
_refine_ls_number_restraints     0
_refine_ls_R_factor_all          0.0609
_refine_ls_R_factor_gt           0.0350
_refine_ls_wR_factor_ref         0.0919
_refine_ls_wR_factor_gt          0.0844
_refine_ls_goodness_of_fit_ref   1.005
_refine_ls_restrained_S_all      1.005
_refine_ls_shift/su_max          0.000
_refine_ls_shift/su_mean         0.000

loop_
_atom_site_label
_atom_site_type_symbol
_atom_site_fract_x
_atom_site_fract_y
_atom_site_fract_z
_atom_site_U_iso_or_equiv
_atom_site_adp_type
_atom_site_occupancy
_atom_site_symmetry_multiplicity
_atom_site_calc_flag
_atom_site_refinement_flags
_atom_site_disorder_assembly
_atom_site_disorder_group
Ag1 Ag 0.5000 0.5000 0.31844(3) 0.0518(2) Uani 1 4 d S . .
O1 O 0.2521(3) 0.2521(3) 0.5000 0.0625(12) Uani 1 4 d S . .
N1 N 0.3297(3) 0.3297(3) 0.2608(3) 0.0732(13) Uani 1 2 d S . .
N2 N 0.3888(2) 0.3888(2) 0.4504(3) 0.0558(9) Uani 1 2 d S . .
N3 N 0.1491(2) 0.1491(2) 0.2246(3) 0.0574(10) Uani 1 2 d S . .
C1 C 0.3075(3) 0.3075(3) 0.4259(4) 0.0589(12) Uani 1 2 d S . .
C2 C 0.2715(3) 0.2715(3) 0.3299(3) 0.0570(12) Uani 1 2 d S . .
C3 C 0.1830(3) 0.1830(3) 0.3120(3) 0.0539(12) Uani 1 2 d S . .
H3 H 0.1447 0.1447 0.3632 0.065 Uiso 1 2 calc SR . .
C4 C 0.2079(4) 0.2079(4) 0.1561(4) 0.096(2) Uani 1 2 d S . .
H4 H 0.1890 0.1890 0.0935 0.116 Uiso 1 2 calc SR . .
C5 C 0.2982(5) 0.2982(5) 0.1750(4) 0.118(3) Uani 1 2 d S . .
H5 H 0.3372 0.3372 0.1243 0.142 Uiso 1 2 calc SR . .

loop_
_atom_site_aniso_label
_atom_site_aniso_U_11
_atom_site_aniso_U_22
_atom_site_aniso_U_33
_atom_site_aniso_U_23
_atom_site_aniso_U_13
_atom_site_aniso_U_12
Ag1 0.0534(2) 0.0534(2) 0.0487(3) 0.000 0.000 -0.0052(2)
O1 0.0684(19) 0.0684(19) 0.051(2) 0.000 0.000 -0.040(2)
N1 0.077(2) 0.077(2) 0.065(3) 0.0067(16) 0.0067(16) -0.033(2)
N2 0.0485(12) 0.0485(12) 0.070(2) 0.0019(12) 0.0019(12) -0.0126(16)
N3 0.0618(16) 0.0618(16) 0.049(2) 0.0014(14) 0.0014(14) -0.0142(19)
C1 0.0545(17) 0.0545(17) 0.068(3) 0.0029(16) 0.0029(16) -0.023(2)
C2 0.0563(18) 0.0563(18) 0.059(3) -0.0015(15) -0.0015(15) -0.019(2)
C3 0.0558(17) 0.0558(17) 0.050(3) 0.0073(16) 0.0073(16) -0.012(2)
C4 0.122(3) 0.122(3) 0.044(3) 0.007(2) 0.007(2) -0.043(5)
C5 0.149(5) 0.149(5) 0.056(4) 0.011(2) 0.011(2) -0.072(6)

_geom_special_details            
;
All esds (except the esd in the dihedral angle between two l.s. planes)
are estimated using the full covariance matrix. The cell esds are taken
into account individually in the estimation of esds in distances, angles
and torsion angles; correlations between esds in cell parameters are only
used when they are defined by crystal symmetry. An approximate (isotropic)
treatment of cell esds is used for estimating esds involving l.s. planes.
;

loop_
_geom_bond_atom_site_label_1
_geom_bond_atom_site_label_2
_geom_bond_distance
_geom_bond_site_symmetry_2
_geom_bond_publ_flag
Ag1 N3 2.354(4) 12_666 ?
Ag1 N3 2.354(4) 11_666 ?
Ag1 N2 2.520(3) 2_665 ?
Ag1 N2 2.520(3) . ?
O1 C1 1.345(5) 10_556 ?
O1 C1 1.345(5) . ?
N1 C5 1.304(7) . ?
N1 C2 1.318(6) . ?
N2 C1 1.287(5) . ?
N2 N2 1.399(7) 10_556 ?
N3 C4 1.318(7) . ?
N3 C3 1.338(5) . ?
N3 Ag1 2.354(4) 11_566 ?
C1 C2 1.463(6) . ?
C2 C3 1.372(7) . ?
C3 H3 0.9300 . ?
C4 C5 1.403(9) . ?
C4 H4 0.9300 . ?
C5 H5 0.9300 . ?

loop_
_geom_angle_atom_site_label_1
_geom_angle_atom_site_label_2
_geom_angle_atom_site_label_3
_geom_angle
_geom_angle_site_symmetry_1
_geom_angle_site_symmetry_3
_geom_angle_publ_flag
N3 Ag1 N3 150.10(18) 12_666 11_666 ?
N3 Ag1 N2 101.00(6) 12_666 2_665 ?
N3 Ag1 N2 101.00(6) 11_666 2_665 ?
N3 Ag1 N2 101.00(6) 12_666 . ?
N3 Ag1 N2 101.00(6) 11_666 . ?
N2 Ag1 N2 84.63(16) 2_665 . ?
C1 O1 C1 102.2(5) 10_556 . ?
C5 N1 C2 116.1(5) . . ?
C1 N2 N2 105.6(3) . 10_556 ?
C1 N2 Ag1 116.7(3) . . ?
N2 N2 Ag1 137.69(8) 10_556 . ?
C4 N3 C3 114.4(4) . . ?
C4 N3 Ag1 117.9(3) . 11_566 ?
C3 N3 Ag1 127.7(3) . 11_566 ?
N2 C1 O1 113.3(4) . . ?
N2 C1 C2 127.7(4) . . ?
O1 C1 C2 119.0(3) . . ?
N1 C2 C3 121.7(4) . . ?
N1 C2 C1 115.6(4) . . ?
C3 C2 C1 122.7(4) . . ?
N3 C3 C2 123.3(4) . . ?
N3 C3 H3 118.4 . . ?
C2 C3 H3 118.4 . . ?
N3 C4 C5 121.9(5) . . ?
N3 C4 H4 119.0 . . ?
C5 C4 H4 119.0 . . ?
N1 C5 C4 122.5(6) . . ?
N1 C5 H5 118.8 . . ?
C4 C5 H5 118.8 . . ?

loop_
_geom_torsion_atom_site_label_1
_geom_torsion_atom_site_label_2
_geom_torsion_atom_site_label_3
_geom_torsion_atom_site_label_4
_geom_torsion
_geom_torsion_site_symmetry_1
_geom_torsion_site_symmetry_2
_geom_torsion_site_symmetry_3
_geom_torsion_site_symmetry_4
_geom_torsion_publ_flag
N3 Ag1 N2 C1 79.8(2) 12_666 . . . ?
N3 Ag1 N2 C1 -79.8(2) 11_666 . . . ?
N2 Ag1 N2 C1 180.0 2_665 . . . ?
N3 Ag1 N2 N2 -100.2(2) 12_666 . . 10_556 ?
N3 Ag1 N2 N2 100.2(2) 11_666 . . 10_556 ?
N2 Ag1 N2 N2 0.0 2_665 . . 10_556 ?
N2 N2 C1 O1 0.0 10_556 . . . ?
Ag1 N2 C1 O1 180.0 . . . . ?
N2 N2 C1 C2 180.0 10_556 . . . ?
Ag1 N2 C1 C2 0.0 . . . . ?
C1 O1 C1 N2 0.0 10_556 . . . ?
C1 O1 C1 C2 180.0 10_556 . . . ?
C5 N1 C2 C3 0.0 . . . . ?
C5 N1 C2 C1 180.0 . . . . ?
N2 C1 C2 N1 0.0 . . . . ?
O1 C1 C2 N1 180.0 . . . . ?
N2 C1 C2 C3 180.0 . . . . ?
O1 C1 C2 C3 0.0 . . . . ?
C4 N3 C3 C2 0.0 . . . . ?
Ag1 N3 C3 C2 180.0 11_566 . . . ?
N1 C2 C3 N3 0.0 . . . . ?
C1 C2 C3 N3 180.0 . . . . ?
C3 N3 C4 C5 0.0 . . . . ?
Ag1 N3 C4 C5 180.0 11_566 . . . ?
C2 N1 C5 C4 0.0 . . . . ?
N3 C4 C5 N1 0.0 . . . . ?

_diffrn_measured_fraction_theta_max 1.000
_diffrn_reflns_theta_full        26.34
_diffrn_measured_fraction_theta_full 1.000
_refine_diff_density_max         0.835
_refine_diff_density_min         -0.250
_refine_diff_density_rms         0.075
