####################################################################### 
# 
# This file contains crystal structure data downloaded from the 
# Cambridge Structural Database (CSD) hosted by the Cambridge 
# Crystallographic Data Centre (CCDC).
# 
# Full information about CCDC data access policies and citation 
# guidelines are available at http://www.ccdc.cam.ac.uk/access/V1 
# 
# Audit and citation data items may have been added by the CCDC. 
# Please retain this information to preserve the provenance of 
# this file and to allow appropriate attribution of the data. 
# 
#######################################################################

data_xb4003
_audit_block_doi                 10.5517/ccxpk26
_database_code_depnum_ccdc_archive 'CCDC 854858'
loop_
_citation_id
_citation_doi
_citation_year
1 10.1016/j.ica.2012.03.015 2012
_audit_update_record             
;
2011-11-21 deposited with the CCDC.	2024-07-12 downloaded from the CCDC.
;
#TrackingRef '8310_web_deposit_cif_file_0_hanjing_1321868384.Niobabpy.cif'


_audit_creation_method           SHELXL-97
_chemical_name_systematic        
;
?
;
_chemical_name_common            ?
_chemical_melting_point          ?
_chemical_formula_moiety         ?
_chemical_formula_sum            'C48 H34 N4 Ni2 O11'
_chemical_formula_weight         960.21

loop_
_atom_type_symbol
_atom_type_description
_atom_type_scat_dispersion_real
_atom_type_scat_dispersion_imag
_atom_type_scat_source
C C 0.0033 0.0016 'International Tables Vol C Tables 4.2.6.8 and 6.1.1.4'
H H 0.0000 0.0000 'International Tables Vol C Tables 4.2.6.8 and 6.1.1.4'
N N 0.0061 0.0033 'International Tables Vol C Tables 4.2.6.8 and 6.1.1.4'
Ni Ni 0.3393 1.1124 'International Tables Vol C Tables 4.2.6.8 and 6.1.1.4'
O O 0.0106 0.0060 'International Tables Vol C Tables 4.2.6.8 and 6.1.1.4'

_symmetry_cell_setting           monoclinic
_symmetry_space_group_name_H-M   C

loop_
_symmetry_equiv_pos_as_xyz
'x, y, z'
'-x, y, -z+1/2'
'x+1/2, y+1/2, z'
'-x+1/2, y+1/2, -z+1/2'
'-x, -y, -z'
'x, -y, z-1/2'
'-x+1/2, -y+1/2, -z'
'x+1/2, -y+1/2, z-1/2'

_cell_length_a                   21.1785(16)
_cell_length_b                   17.1352(13)
_cell_length_c                   16.676(2)
_cell_angle_alpha                90.00
_cell_angle_beta                 128.7520(10)
_cell_angle_gamma                90.00
_cell_volume                     4719.5(8)
_cell_formula_units_Z            4
_cell_measurement_temperature    296(2)
_cell_measurement_reflns_used    ?
_cell_measurement_theta_min      ?
_cell_measurement_theta_max      ?

_exptl_crystal_description       ?
_exptl_crystal_colour            ?
_exptl_crystal_size_max          0.31
_exptl_crystal_size_mid          0.25
_exptl_crystal_size_min          0.14
_exptl_crystal_density_meas      ?
_exptl_crystal_density_diffrn    1.351
_exptl_crystal_density_method    'not measured'
_exptl_crystal_F_000             1976
_exptl_absorpt_coefficient_mu    0.860
_exptl_absorpt_correction_type   ?
_exptl_absorpt_correction_T_min  0.7769
_exptl_absorpt_correction_T_max  0.8905
_exptl_absorpt_process_details   ?

_exptl_special_details           
;
?
;

_diffrn_ambient_temperature      296(2)
_diffrn_radiation_wavelength     0.71073
_diffrn_radiation_type           MoK\a
_diffrn_radiation_source         'fine-focus sealed tube'
_diffrn_radiation_monochromator  graphite
_diffrn_measurement_device_type  ?
_diffrn_measurement_method       ?
_diffrn_detector_area_resol_mean ?
_diffrn_standards_number         ?
_diffrn_standards_interval_count ?
_diffrn_standards_interval_time  ?
_diffrn_standards_decay_%        ?
_diffrn_reflns_number            11611
_diffrn_reflns_av_R_equivalents  0.0197
_diffrn_reflns_av_sigmaI/netI    0.0240
_diffrn_reflns_limit_h_min       -25
_diffrn_reflns_limit_h_max       24
_diffrn_reflns_limit_k_min       -20
_diffrn_reflns_limit_k_max       16
_diffrn_reflns_limit_l_min       -19
_diffrn_reflns_limit_l_max       19
_diffrn_reflns_theta_min         2.38
_diffrn_reflns_theta_max         25.10
_reflns_number_total             4197
_reflns_number_gt                3766
_reflns_threshold_expression     >2sigma(I)

_computing_data_collection       ?
_computing_cell_refinement       ?
_computing_data_reduction        ?
_computing_structure_solution    'SHELXS-97 (Sheldrick, 1990)'
_computing_structure_refinement  'SHELXL-97 (Sheldrick, 1997)'
_computing_molecular_graphics    ?
_computing_publication_material  ?

_refine_special_details          
;
Refinement of F^2^ against ALL reflections. The weighted R-factor wR and
goodness of fit S are based on F^2^, conventional R-factors R are based
on F, with F set to zero for negative F^2^. The threshold expression of
F^2^ > 2sigma(F^2^) is used only for calculating R-factors(gt) etc. and is
not relevant to the choice of reflections for refinement. R-factors based
on F^2^ are statistically about twice as large as those based on F, and R-
factors based on ALL data will be even larger.
;

_refine_ls_structure_factor_coef Fsqd
_refine_ls_matrix_type           full
_refine_ls_weighting_scheme      calc
_refine_ls_weighting_details     
'calc w=1/[\s^2^(Fo^2^)+(0.2600P)^2^+0.0000P] where P=(Fo^2^+2Fc^2^)/3'
_atom_sites_solution_primary     direct
_atom_sites_solution_secondary   difmap
_atom_sites_solution_hydrogens   geom
_refine_ls_hydrogen_treatment    mixed
_refine_ls_extinction_method     SHELXL
_refine_ls_extinction_coef       0.0005(7)
_refine_ls_extinction_expression Fc^*^=kFc[1+0.001xFc^2^\l^3^/sin(2\q)]^-1/4^
_refine_ls_number_reflns         4197
_refine_ls_number_parameters     295
_refine_ls_number_restraints     0
_refine_ls_R_factor_all          0.0689
_refine_ls_R_factor_gt           0.0653
_refine_ls_wR_factor_ref         0.2807
_refine_ls_wR_factor_gt          0.2687
_refine_ls_goodness_of_fit_ref   1.048
_refine_ls_restrained_S_all      1.048
_refine_ls_shift/su_max          0.001
_refine_ls_shift/su_mean         0.000

loop_
_atom_site_label
_atom_site_type_symbol
_atom_site_fract_x
_atom_site_fract_y
_atom_site_fract_z
_atom_site_U_iso_or_equiv
_atom_site_adp_type
_atom_site_occupancy
_atom_site_symmetry_multiplicity
_atom_site_calc_flag
_atom_site_refinement_flags
_atom_site_disorder_assembly
_atom_site_disorder_group
Ni1 Ni 0.40410(3) 0.11066(2) 0.71607(3) 0.0179(3) Uani 1 1 d . . .
N1 N 0.31996(19) 0.18715(17) 0.7044(2) 0.0217(7) Uani 1 1 d . . .
N2 N 0.13739(19) 0.51794(18) 0.7419(2) 0.0249(7) Uani 1 1 d . . .
O2 O 0.32483(16) 0.07422(15) 0.56773(19) 0.0266(6) Uani 1 1 d . . .
O3 O 0.39281(19) -0.02774(19) 0.5723(2) 0.0452(9) Uani 1 1 d . . .
H3A H 0.4289 -0.0096 0.6291 0.068 Uiso 1 1 calc R . .
O4 O 0.0664(2) -0.0354(2) 0.1091(3) 0.0623(12) Uani 1 1 d . . .
O5 O -0.01146(16) -0.34943(15) -0.1364(2) 0.0262(7) Uani 1 1 d . . .
O6 O 0.07633(16) -0.29564(15) -0.1529(2) 0.0253(6) Uani 1 1 d . . .
C1 C 0.3318(2) 0.2074(2) 0.7909(3) 0.0253(9) Uani 1 1 d . . .
H1 H 0.3675 0.1779 0.8500 0.030 Uiso 1 1 calc R . .
C2 C 0.2934(3) 0.2696(2) 0.7961(3) 0.0299(9) Uani 1 1 d . . .
H2 H 0.3035 0.2813 0.8577 0.036 Uiso 1 1 calc R . .
C3 C 0.2394(2) 0.3152(2) 0.7090(3) 0.0302(9) Uani 1 1 d . . .
C4 C 0.2241(2) 0.2929(2) 0.6189(3) 0.0298(9) Uani 1 1 d . . .
H4 H 0.1870 0.3203 0.5584 0.036 Uiso 1 1 calc R . .
C5 C 0.2649(2) 0.2287(2) 0.6191(3) 0.0265(9) Uani 1 1 d . . .
H5 H 0.2534 0.2140 0.5576 0.032 Uiso 1 1 calc R . .
C6 C 0.2025(3) 0.3859(2) 0.7164(4) 0.0291(10) Uani 1 1 d . . .
C7 C 0.2483(2) 0.4312(2) 0.8064(3) 0.0322(10) Uani 1 1 d . . .
H7 H 0.3016 0.4176 0.8599 0.039 Uiso 1 1 calc R . .
C8 C 0.2151(2) 0.4949(3) 0.8155(3) 0.0321(10) Uani 1 1 d . . .
H8 H 0.2473 0.5243 0.8754 0.039 Uiso 1 1 calc R . .
C9 C 0.0942(2) 0.4767(2) 0.6550(3) 0.0295(9) Uani 1 1 d . . .
H9 H 0.0412 0.4921 0.6026 0.035 Uiso 1 1 calc R . .
C10 C 0.1243(3) 0.4119(3) 0.6386(3) 0.0336(9) Uani 1 1 d . . .
H10 H 0.0922 0.3860 0.5758 0.040 Uiso 1 1 calc R . .
C11 C 0.3307(2) 0.0150(2) 0.5277(3) 0.0282(9) Uani 1 1 d . . .
C12 C 0.2584(2) -0.0042(2) 0.4196(3) 0.0270(9) Uani 1 1 d . . .
C13 C 0.2587(3) -0.0669(3) 0.3672(3) 0.0339(10) Uani 1 1 d . . .
H13 H 0.3034 -0.0998 0.4014 0.041 Uiso 1 1 calc R . .
C14 C 0.1937(3) -0.0816(3) 0.2649(3) 0.0358(10) Uani 1 1 d . . .
H14 H 0.1945 -0.1247 0.2316 0.043 Uiso 1 1 calc R . .
C15 C 0.1285(2) -0.0323(3) 0.2136(3) 0.0349(10) Uani 1 1 d . . .
C16 C 0.1251(3) 0.0296(3) 0.2640(3) 0.0396(11) Uani 1 1 d . . .
H16 H 0.0799 0.0619 0.2294 0.048 Uiso 1 1 calc R . .
C17 C 0.1905(2) 0.0434(2) 0.3678(3) 0.0319(10) Uani 1 1 d . . .
H17 H 0.1884 0.0848 0.4021 0.038 Uiso 1 1 calc R . .
C18 C 0.0596(3) -0.0991(3) 0.0537(4) 0.0448(14) Uani 1 1 d . . .
C19 C 0.0797(3) -0.0916(3) -0.0088(4) 0.0388(11) Uani 1 1 d . . .
H19 H 0.0983 -0.0440 -0.0135 0.047 Uiso 1 1 calc R . .
C20 C 0.0723(2) -0.1559(2) -0.0662(3) 0.0322(9) Uani 1 1 d . . .
H20 H 0.0877 -0.1513 -0.1073 0.039 Uiso 1 1 calc R . .
C21 C 0.0422(2) -0.2260(2) -0.0622(3) 0.0267(9) Uani 1 1 d . . .
C22 C 0.0201(3) -0.2327(3) 0.0006(3) 0.0359(10) Uani 1 1 d . . .
H22 H -0.0007 -0.2795 0.0035 0.043 Uiso 1 1 calc R . .
C23 C 0.0291(3) -0.1685(3) 0.0594(4) 0.0471(13) Uani 1 1 d . . .
H23 H 0.0148 -0.1726 0.1018 0.057 Uiso 1 1 calc R . .
C24 C 0.0349(2) -0.2958(2) -0.1225(3) 0.0217(8) Uani 1 1 d . . .
O1 O 0.5000 0.0384(2) 0.7500 0.0224(8) Uani 1 2 d S . .

loop_
_atom_site_aniso_label
_atom_site_aniso_U_11
_atom_site_aniso_U_22
_atom_site_aniso_U_33
_atom_site_aniso_U_23
_atom_site_aniso_U_13
_atom_site_aniso_U_12
Ni1 0.0187(5) 0.0162(5) 0.0171(5) -0.00112(14) 0.0104(4) -0.00092(14)
N1 0.0232(16) 0.0177(15) 0.0253(17) -0.0005(12) 0.0157(15) 0.0010(12)
N2 0.0224(17) 0.0242(16) 0.0259(17) 0.0027(13) 0.0140(15) 0.0042(13)
O2 0.0271(14) 0.0236(14) 0.0204(13) -0.0052(10) 0.0107(12) -0.0006(11)
O3 0.0306(17) 0.0444(19) 0.0327(17) -0.0152(14) 0.0063(14) 0.0079(14)
O4 0.049(2) 0.055(2) 0.0332(18) -0.0230(16) 0.0017(16) 0.0228(17)
O5 0.0259(14) 0.0261(15) 0.0229(14) -0.0065(11) 0.0134(12) -0.0061(11)
O6 0.0239(14) 0.0249(14) 0.0270(14) -0.0070(11) 0.0159(12) -0.0035(10)
C1 0.0252(19) 0.026(2) 0.026(2) 0.0031(15) 0.0166(17) 0.0043(15)
C2 0.033(2) 0.032(2) 0.026(2) -0.0032(16) 0.0187(18) 0.0025(17)
C3 0.026(2) 0.024(2) 0.036(2) -0.0031(16) 0.0167(18) 0.0033(15)
C4 0.0247(19) 0.030(2) 0.025(2) 0.0001(15) 0.0109(17) 0.0065(16)
C5 0.028(2) 0.025(2) 0.0218(19) -0.0044(15) 0.0132(17) 0.0014(16)
C6 0.030(2) 0.022(2) 0.032(2) -0.0016(14) 0.018(2) 0.0062(15)
C7 0.023(2) 0.034(2) 0.031(2) -0.0054(17) 0.0124(18) 0.0056(16)
C8 0.023(2) 0.033(2) 0.032(2) -0.0073(17) 0.0131(18) 0.0004(16)
C9 0.024(2) 0.033(2) 0.024(2) 0.0003(16) 0.0114(17) 0.0060(16)
C10 0.027(2) 0.034(2) 0.029(2) -0.0078(18) 0.0121(18) 0.0020(18)
C11 0.027(2) 0.029(2) 0.025(2) -0.0063(16) 0.0150(18) -0.0039(16)
C12 0.028(2) 0.030(2) 0.0218(19) -0.0082(15) 0.0151(18) -0.0019(16)
C13 0.028(2) 0.032(2) 0.028(2) -0.0031(16) 0.0113(18) 0.0079(16)
C14 0.034(2) 0.033(2) 0.031(2) -0.0132(18) 0.0154(19) 0.0029(18)
C15 0.028(2) 0.036(2) 0.025(2) -0.0108(17) 0.0086(19) 0.0001(17)
C16 0.026(2) 0.044(3) 0.033(2) -0.0165(19) 0.011(2) 0.0055(18)
C17 0.026(2) 0.035(2) 0.029(2) -0.0150(17) 0.0144(18) -0.0027(16)
C18 0.029(2) 0.040(3) 0.025(2) -0.0165(19) -0.002(2) 0.0114(19)
C19 0.036(3) 0.029(2) 0.038(2) -0.0121(19) 0.016(2) -0.0025(19)
C20 0.028(2) 0.028(2) 0.036(2) -0.0107(17) 0.0177(19) -0.0026(16)
C21 0.0210(19) 0.030(2) 0.0234(19) -0.0097(15) 0.0111(16) -0.0013(15)
C22 0.039(2) 0.041(3) 0.032(2) -0.0091(18) 0.024(2) -0.0039(19)
C23 0.047(3) 0.066(3) 0.028(2) -0.019(2) 0.024(2) 0.000(2)
C24 0.0194(18) 0.0241(19) 0.0140(17) -0.0039(13) 0.0067(15) -0.0007(14)
O1 0.0194(18) 0.0197(18) 0.0247(19) 0.000 0.0122(16) 0.000

_geom_special_details            
;
All esds (except the esd in the dihedral angle between two l.s. planes)
are estimated using the full covariance matrix. The cell esds are taken
into account individually in the estimation of esds in distances, angles
and torsion angles; correlations between esds in cell parameters are only
used when they are defined by crystal symmetry. An approximate (isotropic)
treatment of cell esds is used for estimating esds involving l.s. planes.
;

loop_
_geom_bond_atom_site_label_1
_geom_bond_atom_site_label_2
_geom_bond_distance
_geom_bond_site_symmetry_2
_geom_bond_publ_flag
Ni1 O2 2.032(3) . ?
Ni1 O5 2.052(3) 3_556 ?
Ni1 O6 2.099(3) 4 ?
Ni1 N1 2.120(3) . ?
Ni1 O1 2.131(2) . ?
Ni1 N2 2.135(3) 4_546 ?
N1 C1 1.347(5) . ?
N1 C5 1.346(5) . ?
N2 C9 1.333(5) . ?
N2 C8 1.357(5) . ?
N2 Ni1 2.135(3) 4_556 ?
O2 C11 1.263(5) . ?
O3 C11 1.262(5) . ?
O3 H3A 0.8200 . ?
O4 C18 1.379(5) . ?
O4 C15 1.378(5) . ?
O5 C24 1.256(5) . ?
O5 Ni1 2.052(3) 3_444 ?
O6 C24 1.260(5) . ?
O6 Ni1 2.099(3) 4_545 ?
C1 C2 1.375(6) . ?
C1 H1 0.9300 . ?
C2 C3 1.397(6) . ?
C2 H2 0.9300 . ?
C3 C4 1.379(6) . ?
C3 C6 1.488(5) . ?
C4 C5 1.396(6) . ?
C4 H4 0.9300 . ?
C5 H5 0.9300 . ?
C6 C10 1.391(6) . ?
C6 C7 1.405(6) . ?
C7 C8 1.356(6) . ?
C7 H7 0.9300 . ?
C8 H8 0.9300 . ?
C9 C10 1.389(6) . ?
C9 H9 0.9300 . ?
C10 H10 0.9300 . ?
C11 C12 1.499(5) . ?
C12 C17 1.387(6) . ?
C12 C13 1.387(6) . ?
C13 C14 1.389(6) . ?
C13 H13 0.9300 . ?
C14 C15 1.368(6) . ?
C14 H14 0.9300 . ?
C15 C16 1.384(6) . ?
C16 C17 1.403(6) . ?
C16 H16 0.9300 . ?
C17 H17 0.9300 . ?
C18 C19 1.356(8) . ?
C18 C23 1.383(8) . ?
C19 C20 1.403(6) . ?
C19 H19 0.9300 . ?
C20 C21 1.380(6) . ?
C20 H20 0.9300 . ?
C21 C22 1.394(6) . ?
C21 C24 1.507(5) . ?
C22 C23 1.404(6) . ?
C22 H22 0.9300 . ?
C23 H23 0.9300 . ?
O1 Ni1 2.131(2) 2_656 ?

loop_
_geom_angle_atom_site_label_1
_geom_angle_atom_site_label_2
_geom_angle_atom_site_label_3
_geom_angle
_geom_angle_site_symmetry_1
_geom_angle_site_symmetry_3
_geom_angle_publ_flag
O2 Ni1 O5 176.32(11) . 3_556 ?
O2 Ni1 O6 84.06(11) . 4 ?
O5 Ni1 O6 92.80(11) 3_556 4 ?
O2 Ni1 N1 94.11(12) . . ?
O5 Ni1 N1 87.47(11) 3_556 . ?
O6 Ni1 N1 84.23(11) 4 . ?
O2 Ni1 O1 93.92(8) . . ?
O5 Ni1 O1 84.54(8) 3_556 . ?
O6 Ni1 O1 97.08(10) 4 . ?
N1 Ni1 O1 171.96(9) . . ?
O2 Ni1 N2 88.57(12) . 4_546 ?
O5 Ni1 N2 94.77(11) 3_556 4_546 ?
O6 Ni1 N2 170.09(11) 4 4_546 ?
N1 Ni1 N2 89.73(12) . 4_546 ?
O1 Ni1 N2 90.00(11) . 4_546 ?
C1 N1 C5 116.8(3) . . ?
C1 N1 Ni1 118.6(3) . . ?
C5 N1 Ni1 123.2(3) . . ?
C9 N2 C8 116.6(3) . . ?
C9 N2 Ni1 127.5(3) . 4_556 ?
C8 N2 Ni1 115.8(3) . 4_556 ?
C11 O2 Ni1 127.6(2) . . ?
C11 O3 H3A 109.5 . . ?
C18 O4 C15 119.6(4) . . ?
C24 O5 Ni1 117.3(2) . 3_444 ?
C24 O6 Ni1 127.4(2) . 4_545 ?
N1 C1 C2 123.2(4) . . ?
N1 C1 H1 118.4 . . ?
C2 C1 H1 118.4 . . ?
C1 C2 C3 120.0(4) . . ?
C1 C2 H2 120.0 . . ?
C3 C2 H2 120.0 . . ?
C4 C3 C2 117.3(4) . . ?
C4 C3 C6 122.6(4) . . ?
C2 C3 C6 120.0(4) . . ?
C3 C4 C5 119.5(4) . . ?
C3 C4 H4 120.2 . . ?
C5 C4 H4 120.2 . . ?
N1 C5 C4 123.1(4) . . ?
N1 C5 H5 118.5 . . ?
C4 C5 H5 118.5 . . ?
C10 C6 C7 116.2(3) . . ?
C10 C6 C3 124.3(4) . . ?
C7 C6 C3 119.4(4) . . ?
C8 C7 C6 120.2(4) . . ?
C8 C7 H7 119.9 . . ?
C6 C7 H7 119.9 . . ?
N2 C8 C7 123.6(4) . . ?
N2 C8 H8 118.2 . . ?
C7 C8 H8 118.2 . . ?
N2 C9 C10 123.4(4) . . ?
N2 C9 H9 118.3 . . ?
C10 C9 H9 118.3 . . ?
C9 C10 C6 119.8(4) . . ?
C9 C10 H10 120.1 . . ?
C6 C10 H10 120.1 . . ?
O3 C11 O2 124.5(4) . . ?
O3 C11 C12 119.0(3) . . ?
O2 C11 C12 116.6(3) . . ?
C17 C12 C13 118.3(4) . . ?
C17 C12 C11 120.0(3) . . ?
C13 C12 C11 121.6(4) . . ?
C14 C13 C12 121.5(4) . . ?
C14 C13 H13 119.2 . . ?
C12 C13 H13 119.2 . . ?
C15 C14 C13 119.5(4) . . ?
C15 C14 H14 120.2 . . ?
C13 C14 H14 120.2 . . ?
C14 C15 O4 124.0(4) . . ?
C14 C15 C16 120.6(4) . . ?
O4 C15 C16 115.2(4) . . ?
C15 C16 C17 119.5(4) . . ?
C15 C16 H16 120.3 . . ?
C17 C16 H16 120.3 . . ?
C12 C17 C16 120.5(4) . . ?
C12 C17 H17 119.8 . . ?
C16 C17 H17 119.8 . . ?
C19 C18 O4 119.2(5) . . ?
C19 C18 C23 121.3(4) . . ?
O4 C18 C23 119.5(5) . . ?
C18 C19 C20 119.6(5) . . ?
C18 C19 H19 120.2 . . ?
C20 C19 H19 120.2 . . ?
C21 C20 C19 120.6(4) . . ?
C21 C20 H20 119.7 . . ?
C19 C20 H20 119.7 . . ?
C20 C21 C22 119.4(4) . . ?
C20 C21 C24 121.1(3) . . ?
C22 C21 C24 119.6(4) . . ?
C21 C22 C23 119.8(4) . . ?
C21 C22 H22 120.1 . . ?
C23 C22 H22 120.1 . . ?
C18 C23 C22 119.4(5) . . ?
C18 C23 H23 120.3 . . ?
C22 C23 H23 120.3 . . ?
O5 C24 O6 126.0(3) . . ?
O5 C24 C21 116.5(3) . . ?
O6 C24 C21 117.4(3) . . ?
Ni1 O1 Ni1 108.91(15) 2_656 . ?

loop_
_geom_torsion_atom_site_label_1
_geom_torsion_atom_site_label_2
_geom_torsion_atom_site_label_3
_geom_torsion_atom_site_label_4
_geom_torsion
_geom_torsion_site_symmetry_1
_geom_torsion_site_symmetry_2
_geom_torsion_site_symmetry_3
_geom_torsion_site_symmetry_4
_geom_torsion_publ_flag
O2 Ni1 N1 C1 157.2(3) . . . . ?
O5 Ni1 N1 C1 -26.1(3) 3_556 . . . ?
O6 Ni1 N1 C1 -119.2(3) 4 . . . ?
O1 Ni1 N1 C1 -19.4(9) . . . . ?
N2 Ni1 N1 C1 68.7(3) 4_546 . . . ?
O2 Ni1 N1 C5 -36.5(3) . . . . ?
O5 Ni1 N1 C5 140.2(3) 3_556 . . . ?
O6 Ni1 N1 C5 47.1(3) 4 . . . ?
O1 Ni1 N1 C5 146.9(7) . . . . ?
N2 Ni1 N1 C5 -125.0(3) 4_546 . . . ?
O5 Ni1 O2 C11 80.6(17) 3_556 . . . ?
O6 Ni1 O2 C11 112.2(3) 4 . . . ?
N1 Ni1 O2 C11 -164.1(3) . . . . ?
O1 Ni1 O2 C11 15.5(3) . . . . ?
N2 Ni1 O2 C11 -74.4(3) 4_546 . . . ?
C5 N1 C1 C2 -3.1(6) . . . . ?
Ni1 N1 C1 C2 164.1(3) . . . . ?
N1 C1 C2 C3 -0.1(6) . . . . ?
C1 C2 C3 C4 2.9(6) . . . . ?
C1 C2 C3 C6 -175.5(4) . . . . ?
C2 C3 C4 C5 -2.5(6) . . . . ?
C6 C3 C4 C5 175.9(4) . . . . ?
C1 N1 C5 C4 3.5(6) . . . . ?
Ni1 N1 C5 C4 -163.0(3) . . . . ?
C3 C4 C5 N1 -0.8(6) . . . . ?
C4 C3 C6 C10 36.1(7) . . . . ?
C2 C3 C6 C10 -145.5(5) . . . . ?
C4 C3 C6 C7 -143.1(4) . . . . ?
C2 C3 C6 C7 35.2(6) . . . . ?
C10 C6 C7 C8 2.2(6) . . . . ?
C3 C6 C7 C8 -178.5(4) . . . . ?
C9 N2 C8 C7 -3.2(6) . . . . ?
Ni1 N2 C8 C7 172.0(4) 4_556 . . . ?
C6 C7 C8 N2 1.3(7) . . . . ?
C8 N2 C9 C10 1.6(6) . . . . ?
Ni1 N2 C9 C10 -173.0(3) 4_556 . . . ?
N2 C9 C10 C6 1.9(7) . . . . ?
C7 C6 C10 C9 -3.7(7) . . . . ?
C3 C6 C10 C9 177.1(4) . . . . ?
Ni1 O2 C11 O3 -8.2(6) . . . . ?
Ni1 O2 C11 C12 172.4(3) . . . . ?
O3 C11 C12 C17 -177.7(4) . . . . ?
O2 C11 C12 