####################################################################### 
# 
# This file contains crystal structure data downloaded from the 
# Cambridge Structural Database (CSD) hosted by the Cambridge 
# Crystallographic Data Centre (CCDC).
# 
# Full information about CCDC data access policies and citation 
# guidelines are available at http://www.ccdc.cam.ac.uk/access/V1 
# 
# Audit and citation data items may have been added by the CCDC. 
# Please retain this information to preserve the provenance of 
# this file and to allow appropriate attribution of the data. 
# 
#######################################################################

data_fe-rh
_audit_block_doi                 10.5517/cc7dp9l
_database_code_depnum_ccdc_archive 'CCDC 220729'
loop_
_citation_id
_citation_doi
_citation_year
1 10.1002/anie.200503992 2006
_audit_update_record             
;
2003-09-30 deposited with the CCDC.	2024-07-12 downloaded from the CCDC.
;

_audit_creation_method           SHELXL-97

#
# --- Checklist of Data Items for Deposition to CCDC ---
#
# 1. Name of contact person: Dr. Kyoung-Tae Youm
# 2. E-mail address of contact person: ktyoum@yonsei.ac.kr
# 3. Author's names:
# Kyoung-Tae Youm,
# Department of Chemistry, Yonsei University, Seoul 120-749, Korea
# Moo-Jin Jun,
# Department of Chemistry, Yonsei University, Seoul 120-749, Korea
# 4. Name of the journal to which the paper will be submitted:
# Angew. Chemie. Int. Ed.
# 5. Compound synonym: N.A.
# 6. Formula: C36 H50 B2 Fe N18 O24 Rh6
# 7. Formula weight: 1813.87
# 8. Colour: red
# 9. Crystal system: cubic
# 10. Unit cell parameters with standard deviations:
# a=34.8205(6)
# 11. Unit cell volume: 42218.7(13) A^3
# 12. Space group symbol: Ia-3d (No.230)
# 13. Z value: 16
# 14. Calculated density: 1.141 Mg/m^3
# 15. Temperature of study: 150(2) K
# 16. R-factor: R = 0.0409, wR = 0.1149 [I > 2sigma(I)] for SQUEEZed data
# by PLATON
#
# --- End ---
#

_chemical_name_systematic        
;
?
;
_chemical_name_common            ?
_chemical_formula_moiety         '(Fe C12 H14 B2 N18) (Rh2 C8 H12 O8)3'
_chemical_formula_sum            'C36 H50 B2 Fe N18 O24 Rh6'
_chemical_formula_weight         1813.87

loop_
_atom_type_symbol
_atom_type_description
_atom_type_scat_dispersion_real
_atom_type_scat_dispersion_imag
_atom_type_scat_source
C C 0.0033 0.0016 'International Tables Vol C Tables 4.2.6.8 and 6.1.1.4'
H H 0.0000 0.0000 'International Tables Vol C Tables 4.2.6.8 and 6.1.1.4'
N N 0.0061 0.0033 'International Tables Vol C Tables 4.2.6.8 and 6.1.1.4'
O O 0.0106 0.0060 'International Tables Vol C Tables 4.2.6.8 and 6.1.1.4'
Fe Fe 0.3463 0.8444 'International Tables Vol C Tables 4.2.6.8 and 6.1.1.4'
Rh Rh -1.1178 0.9187 'International Tables Vol C Tables 4.2.6.8 and 6.1.1.4'
B B 0.0013 0.0007 'International Tables Vol C Tables 4.2.6.8 and 6.1.1.4'

_symmetry_cell_setting           cubic
_symmetry_space_group_name_H-M   'I a -3 d' #(No. 230)

loop_
_symmetry_equiv_pos_as_xyz
'x, y, z'
'-x+1/2, -y, z+1/2'
'-x, y+1/2, -z+1/2'
'x+1/2, -y+1/2, -z'
'z, x, y'
'z+1/2, -x+1/2, -y'
'-z+1/2, -x, y+1/2'
'-z, x+1/2, -y+1/2'
'y, z, x'
'-y, z+1/2, -x+1/2'
'y+1/2, -z+1/2, -x'
'-y+1/2, -z, x+1/2'
'y+3/4, x+1/4, -z+1/4'
'-y+3/4, -x+3/4, -z+3/4'
'y+1/4, -x+1/4, z+3/4'
'-y+1/4, x+3/4, z+1/4'
'x+3/4, z+1/4, -y+1/4'
'-x+1/4, z+3/4, y+1/4'
'-x+3/4, -z+3/4, -y+3/4'
'x+1/4, -z+1/4, y+3/4'
'z+3/4, y+1/4, -x+1/4'
'z+1/4, -y+1/4, x+3/4'
'-z+1/4, y+3/4, x+1/4'
'-z+3/4, -y+3/4, -x+3/4'
'x+1/2, y+1/2, z+1/2'
'-x+1, -y+1/2, z+1'
'-x+1/2, y+1, -z+1'
'x+1, -y+1, -z+1/2'
'z+1/2, x+1/2, y+1/2'
'z+1, -x+1, -y+1/2'
'-z+1, -x+1/2, y+1'
'-z+1/2, x+1, -y+1'
'y+1/2, z+1/2, x+1/2'
'-y+1/2, z+1, -x+1'
'y+1, -z+1, -x+1/2'
'-y+1, -z+1/2, x+1'
'y+5/4, x+3/4, -z+3/4'
'-y+5/4, -x+5/4, -z+5/4'
'y+3/4, -x+3/4, z+5/4'
'-y+3/4, x+5/4, z+3/4'
'x+5/4, z+3/4, -y+3/4'
'-x+3/4, z+5/4, y+3/4'
'-x+5/4, -z+5/4, -y+5/4'
'x+3/4, -z+3/4, y+5/4'
'z+5/4, y+3/4, -x+3/4'
'z+3/4, -y+3/4, x+5/4'
'-z+3/4, y+5/4, x+3/4'
'-z+5/4, -y+5/4, -x+5/4'
'-x, -y, -z'
'x-1/2, y, -z-1/2'
'x, -y-1/2, z-1/2'
'-x-1/2, y-1/2, z'
'-z, -x, -y'
'-z-1/2, x-1/2, y'
'z-1/2, x, -y-1/2'
'z, -x-1/2, y-1/2'
'-y, -z, -x'
'y, -z-1/2, x-1/2'
'-y-1/2, z-1/2, x'
'y-1/2, z, -x-1/2'
'-y-3/4, -x-1/4, z-1/4'
'y-3/4, x-3/4, z-3/4'
'-y-1/4, x-1/4, -z-3/4'
'y-1/4, -x-3/4, -z-1/4'
'-x-3/4, -z-1/4, y-1/4'
'x-1/4, -z-3/4, -y-1/4'
'x-3/4, z-3/4, y-3/4'
'-x-1/4, z-1/4, -y-3/4'
'-z-3/4, -y-1/4, x-1/4'
'-z-1/4, y-1/4, -x-3/4'
'z-1/4, -y-3/4, -x-1/4'
'z-3/4, y-3/4, x-3/4'
'-x+1/2, -y+1/2, -z+1/2'
'x, y+1/2, -z'
'x+1/2, -y, z'
'-x, y, z+1/2'
'-z+1/2, -x+1/2, -y+1/2'
'-z, x, y+1/2'
'z, x+1/2, -y'
'z+1/2, -x, y'
'-y+1/2, -z+1/2, -x+1/2'
'y+1/2, -z, x'
'-y, z, x+1/2'
'y, z+1/2, -x'
'-y-1/4, -x+1/4, z+1/4'
'y-1/4, x-1/4, z-1/4'
'-y+1/4, x+1/4, -z-1/4'
'y+1/4, -x-1/4, -z+1/4'
'-x-1/4, -z+1/4, y+1/4'
'x+1/4, -z-1/4, -y+1/4'
'x-1/4, z-1/4, y-1/4'
'-x+1/4, z+1/4, -y-1/4'
'-z-1/4, -y+1/4, x+1/4'
'-z+1/4, y+1/4, -x-1/4'
'z+1/4, -y-1/4, -x+1/4'
'z-1/4, y-1/4, x-1/4'

_cell_length_a                   34.8205(6)
_cell_length_b                   34.8205(6)
_cell_length_c                   34.8205(6)
_cell_angle_alpha                90.00
_cell_angle_beta                 90.00
_cell_angle_gamma                90.00
_cell_volume                     42218.7(13)
_cell_formula_units_Z            16
_cell_measurement_temperature    150(2)
_cell_measurement_reflns_used    ?
_cell_measurement_theta_min      ?
_cell_measurement_theta_max      ?

_exptl_crystal_description       block
_exptl_crystal_colour            red
_exptl_crystal_size_max          0.24
_exptl_crystal_size_mid          0.24
_exptl_crystal_size_min          0.18
_exptl_crystal_density_meas      'not measured'
_exptl_crystal_density_diffrn    1.141
_exptl_crystal_density_method    'not measured'
_exptl_crystal_F_000             14240
_exptl_absorpt_coefficient_mu    1.100
_exptl_absorpt_correction_type   none
_exptl_absorpt_correction_T_min  0.7782
_exptl_absorpt_correction_T_max  0.8266

_exptl_special_details           
;
The original reflections are SQUEEZed using PLATON (A. L. Spek, 1999)
due to high disordered solvent in the lattice.
;

_diffrn_ambient_temperature      150(2)
_diffrn_radiation_wavelength     0.71073
_diffrn_radiation_type           MoK\a
_diffrn_radiation_source         'fine-focus sealed tube'
_diffrn_radiation_monochromator  graphite
_diffrn_measurement_device_type  KappaCCD
_diffrn_measurement_method       CCD
_diffrn_detector_area_resol_mean ?
_diffrn_standards_number         ?
_diffrn_standards_interval_count ?
_diffrn_standards_interval_time  ?
_diffrn_standards_decay_%        ?
_diffrn_reflns_number            3119
_diffrn_reflns_av_R_equivalents  0.0000
_diffrn_reflns_av_sigmaI/netI    0.0299
_diffrn_reflns_limit_h_min       4
_diffrn_reflns_limit_h_max       41
_diffrn_reflns_limit_k_min       0
_diffrn_reflns_limit_k_max       29
_diffrn_reflns_limit_l_min       0
_diffrn_reflns_limit_l_max       22
_diffrn_reflns_theta_min         2.62
_diffrn_reflns_theta_max         25.02
_reflns_number_total             3119
_reflns_number_gt                2491
_reflns_threshold_expression     >2sigma(I)

_computing_data_collection       'KappaCCD Server Software (Nonius, 1997)'
_computing_cell_refinement       'DENZO-SMN (Otwinowski & Minor, 1997)'
_computing_data_reduction        'DENZO-SMN (Otwinowski & Minor, 1997)'
_computing_structure_solution    'SHELXS-97 (Sheldrick, 1990)'
_computing_structure_refinement  'SHELXL-97 (Sheldrick, 1997)'
_computing_molecular_graphics    ?
_computing_publication_material  ?

_refine_special_details          
;
Refinement of F^2^ against ALL reflections. The weighted R-factor wR and
goodness of fit S are based on F^2^, conventional R-factors R are based
on F, with F set to zero for negative F^2^. The threshold expression of
F^2^ > 2sigma(F^2^) is used only for calculating R-factors(gt) etc. and is
not relevant to the choice of reflections for refinement. R-factors based
on F^2^ are statistically about twice as large as those based on F, and R-
factors based on ALL data will be even larger.
;

_refine_ls_structure_factor_coef Fsqd
_refine_ls_matrix_type           full
_refine_ls_weighting_scheme      Calc
_refine_ls_weighting_details     
'w=1/[\s^2^(Fo^2^)+(0.0607P)^2^+123.6513P] where P=(Fo^2^+2Fc^2^)/3'
_atom_sites_solution_primary     direct
_atom_sites_solution_secondary   difmap
_atom_sites_solution_hydrogens   geom
_refine_ls_hydrogen_treatment    mixed
_refine_ls_extinction_method     none
_refine_ls_extinction_coef       ?
_refine_ls_number_reflns         3119
_refine_ls_number_parameters     135
_refine_ls_number_restraints     0
_refine_ls_R_factor_all          0.0525
_refine_ls_R_factor_gt           0.0409
_refine_ls_wR_factor_ref         0.1199
_refine_ls_wR_factor_gt          0.1149
_refine_ls_goodness_of_fit_ref   1.094
_refine_ls_restrained_S_all      1.094
_refine_ls_shift/su_max          0.003
_refine_ls_shift/su_mean         0.000

loop_
_atom_site_label
_atom_site_type_symbol
_atom_site_fract_x
_atom_site_fract_y
_atom_site_fract_z
_atom_site_U_iso_or_equiv
_atom_site_adp_type
_atom_site_occupancy
_atom_site_calc_flag
_atom_site_refinement_flags
_atom_site_disorder_assembly
_atom_site_disorder_group
Rh1 Rh 0.107466(10) 0.587425(10) 0.620832(11) 0.04291(17) Uani 1 d . . .
Fe1 Fe 0.0000 0.5000 0.5000 0.0241(3) Uani 1 d S . .
O1 O 0.14417(11) 0.60351(12) 0.57836(10) 0.0644(10) Uani 1 d . . .
O2 O 0.14399(12) 0.54440(11) 0.63552(14) 0.0802(13) Uani 1 d . . .
O3 O 0.07385(12) 0.57381(12) 0.66616(11) 0.0758(12) Uani 1 d . . .
O4 O 0.07297(10) 0.63171(11) 0.60716(11) 0.0619(10) Uani 1 d . . .
N1 N 0.03617(9) 0.51731(10) 0.54140(9) 0.0330(8) Uani 1 d . . .
N2 N 0.05740(9) 0.49085(10) 0.56095(10) 0.0368(8) Uani 1 d . . .
N3 N 0.07453(12) 0.54669(12) 0.58274(12) 0.0551(11) Uani 1 d . . .
C1 C 0.04740(12) 0.55092(13) 0.55605(12) 0.0409(10) Uani 1 d . . .
H1A H 0.0372 0.5750 0.5483 0.049 Uiso 1 calc R . .
C2 C 0.07961(14) 0.50918(14) 0.58520(14) 0.0505(12) Uani 1 d . . .
H2A H 0.0971 0.4971 0.6023 0.061 Uiso 1 calc R . .
C3 C 0.0811(2) 0.5895(2) 0.69890(19) 0.091(2) Uani 1 d . . .
C4 C 0.0549(3) 0.5765(3) 0.7315(2) 0.167(5) Uani 1 d . . .
H4A H 0.0370 0.5973 0.7380 0.250 Uiso 1 calc R . .
H4B H 0.0704 0.5702 0.7541 0.250 Uiso 1 calc R . .
H4C H 0.0403 0.5538 0.7234 0.250 Uiso 1 calc R . .
C5 C 0.07968(18) 0.66406(19) 0.6231(2) 0.0767(18) Uani 1 d . . .
C6 C 0.0529(3) 0.6961(3) 0.6115(3) 0.153(4) Uani 1 d . . .
H6A H 0.0415 0.7076 0.6346 0.230 Uiso 1 calc R . .
H6B H 0.0324 0.6858 0.5952 0.230 Uiso 1 calc R . .
H6C H 0.0672 0.7157 0.5974 0.230 Uiso 1 calc R . .
B1 B 0.05160(16) 0.44840(16) 0.55160(16) 0.041(2) Uani 1 d S . .
H1 H 0.0682 0.4318 0.5682 0.049 Uiso 1 calc SR . .

loop_
_atom_site_aniso_label
_atom_site_aniso_U_11
_atom_site_aniso_U_22
_atom_site_aniso_U_33
_atom_site_aniso_U_23
_atom_site_aniso_U_13
_atom_site_aniso_U_12
Rh1 0.0381(2) 0.0442(2) 0.0464(2) -0.01329(17) -0.00698(16) -0.00817(15)
Fe1 0.0241(3) 0.0241(3) 0.0241(3) -0.0098(3) 0.0098(3) -0.0098(3)
O1 0.056(2) 0.088(3) 0.049(2) -0.0279(19) 0.0068(17) -0.009(2)
O2 0.072(3) 0.049(2) 0.120(4) -0.010(2) -0.038(3) 0.0025(19)
O3 0.071(3) 0.092(3) 0.065(3) -0.002(2) 0.004(2) -0.039(2)
O4 0.0430(19) 0.079(3) 0.063(2) -0.019(2) -0.0178(17) 0.0106(18)
N1 0.0299(17) 0.0374(18) 0.0315(18) -0.0134(15) 0.0077(14) -0.0100(15)
N2 0.0303(18) 0.042(2) 0.038(2) -0.0119(17) 0.0015(15) -0.0117(16)
N3 0.052(2) 0.052(3) 0.062(3) -0.025(2) -0.006(2) -0.016(2)
C1 0.037(2) 0.041(2) 0.044(3) -0.020(2) 0.009(2) -0.0123(19)
C2 0.047(3) 0.057(3) 0.048(3) -0.016(2) -0.010(2) -0.008(2)
C3 0.088(5) 0.126(6) 0.057(4) 0.010(4) 0.008(4) -0.034(5)
C4 0.158(9) 0.258(13) 0.083(6) 0.014(7) 0.049(6) -0.087(9)
C5 0.063(4) 0.071(4) 0.096(5) -0.015(4) -0.011(4) 0.022(3)
C6 0.120(7) 0.111(7) 0.229(13) -0.027(7) -0.036(8) 0.063(6)
B1 0.041(2) 0.041(2) 0.041(2) -0.003(2) 0.003(2) -0.003(2)

_geom_special_details            
;
All esds (except the esd in the dihedral angle between two l.s. planes)
are estimated using the full covariance matrix. The cell esds are taken
into account individually in the estimation of esds in distances, angles
and torsion angles; correlations between esds in cell parameters are only
used when they are defined by crystal symmetry. An approximate (isotropic)
treatment of cell esds is used for estimating esds involving l.s. planes.
;

loop_
_geom_bond_atom_site_label_1
_geom_bond_atom_site_label_2
_geom_bond_distance
_geom_bond_site_symmetry_2
_geom_bond_publ_flag
Rh1 O4 2.012(4) . ?
Rh1 O3 2.021(4) . ?
Rh1 O2 2.031(4) . ?
Rh1 O1 2.033(4) . ?
Rh1 N3 2.255(4) . ?
Rh1 Rh1 2.3909(7) 43_455 ?
Fe1 N1 2.007(3) 49_566 ?
Fe1 N1 2.007(3) 60_556 ?
Fe1 N1 2.007(3) 54_665 ?
Fe1 N1 2.007(3) 6_456 ?
Fe1 N1 2.007(3) . ?
Fe1 N1 2.007(3) 12_565 ?
O1 C5 1.250(7) 43_455 ?
O2 C3 1.249(8) 43_455 ?
O3 C3 1.289(8) . ?
O4 C5 1.277(7) . ?
N1 C1 1.335(5) . ?
N1 N2 1.363(5) . ?
N2 C2 1.311(5) . ?
N2 B1 1.527(5) . ?
N3 C2 1.321(6) . ?
N3 C1 1.333(6) . ?
C3 O2 1.249(8) 43_455 ?
C3 C4 1.527(9) . ?
C5 O1 1.250(7) 43_455 ?
C5 C6 1.509(10) . ?
B1 N2 1.527(5) 6_456 ?
B1 N2 1.527(5) 12_565 ?

loop_
_geom_angle_atom_site_label_1
_geom_angle_atom_site_label_2
_geom_angle_atom_site_label_3
_geom_angle
_geom_angle_site_symmetry_1
_geom_angle_site_symmetry_3
_geom_angle_publ_flag
O4 Rh1 O3 91.07(18) . . ?
O4 Rh1 O2 177.49(15) . . ?
O3 Rh1 O2 89.6(2) . . ?
O4 Rh1 O1 89.55(17) . . ?
O3 Rh1 O1 175.21(15) . . ?
O2 Rh1 O1 89.58(19) . . ?
O4 Rh1 N3 92.25(16) . . ?
O3 Rh1 N3 90.99(15) . . ?
O2 Rh1 N3 90.15(16) . . ?
O1 Rh1 N3 93.74(15) . . ?
O4 Rh1 Rh1 89.01(10) . 43_455 ?
O3 Rh1 Rh1 87.92(11) . 43_455 ?
O2 Rh1 Rh1 88.60(11) . 43_455 ?
O1 Rh1 Rh1 87.34(10) . 43_455 ?
N3 Rh1 Rh1 178.34(12) . 43_455 ?
N1 Fe1 N1 87.33(14) 49_566 60_556 ?
N1 Fe1 N1 87.33(14) 49_566 54_665 ?
N1 Fe1 N1 87.33(14) 60_556 54_665 ?
N1 Fe1 N1 92.67(14) 49_566 6_456 ?
N1 Fe1 N1 92.67(14) 60_556 6_456 ?
N1 Fe1 N1 180.000(1) 54_665 6_456 ?
N1 Fe1 N1 180.0 49_566 . ?
N1 Fe1 N1 92.67(14) 60_556 . ?
N1 Fe1 N1 92.67(14) 54_665 . ?
N1 Fe1 N1 87.33(14) 6_456 . ?
N1 Fe1 N1 92.67(14) 49_566 12_565 ?
N1 Fe1 N1 180.0 60_556 12_565 ?
N1 Fe1 N1 92.67(14) 54_665 12_565 ?
N1 Fe1 N1 87.33(14) 6_456 12_565 ?
N1 Fe1 N1 87.33(14) . 12_565 ?
C5 O1 Rh1 118.9(4) 43_455 . ?
C3 O2 Rh1 118.1(4) 43_455 . ?
C3 O3 Rh1 118.5(4) . . ?
C5 O4 Rh1 117.7(4) . . ?
C1 N1 N2 104.0(3) . . ?
C1 N1 Fe1 136.2(3) . . ?
N2 N1 Fe1 119.7(2) . . ?
C2 N2 N1 108.2(4) . . ?
C2 N2 B1 133.3(5) . . ?
N1 N2 B1 118.4(4) . . ?
C2 N3 C1 104.4(4) . . ?
C2 N3 Rh1 121.0(3) . . ?
C1 N3 Rh1 134.5(3) . . ?
N3 C1 N1 112.2(4) . . ?
N2 C2 N3 111.1(4) . . ?
O2 C3 O3 126.6(6) 43_455 . ?
O2 C3 C4 118.8(7) 43_455 . ?
O3 C3 C4 114.5(7) . . ?
O1 C5 O4 127.1(5) 43_455 . ?
O1 C5 C6 117.9(6) 43_455 . ?
O4 C5 C6 115.0(6) . . ?
N2 B1 N2 107.8(4) 6_456 12_565 ?
N2 B1 N2 107.8(4) 6_456 . ?
N2 B1 N2 107.8(4) 12_565 . ?

_diffrn_measured_fraction_theta_max 0.443
_diffrn_reflns_theta_full        25.02
_diffrn_measured_fraction_theta_full 0.443
_refine_diff_density_max         0.625
_refine_diff_density_min         -0.371
_refine_diff_density_rms         0.077
