
#######################################################################
#
#                 Cambridge Crystallographic Data Centre
#                                CCDC
#
#######################################################################
#
# If this CIF has been generated from an entry in the Cambridge
# Structural Database, then it will include bibliographic, chemical,
# crystal, experimental, refinement or atomic coordinate data resulting
# from the CCDC's data processing and validation procedures.
#
#######################################################################

data_CSD_CIF_PEJGAM
_audit_creation_date 1994-02-10
_audit_creation_method CSD-ConQuest-V1
_database_code_CSD PEJGAM
_database_code_depnum_ccdc_archive 'CCDC 1230399'
_chemical_formula_sum 'C5 H5 I2 O1 Re1'
_chemical_formula_moiety
;
C5 H5 I2 O1 Re1
;
_journal_coden_Cambridge 1087
_journal_volume 5
_journal_year 1992
_journal_page_first 221
_journal_name_full 'Metalloorg.Khim.(Russ.)(Organomet.Chem.(USSR)) '
loop_
_publ_author_name
"V.N.Kalinin"
"E.I.Kazimirchuk"
"A.S.Batsanov"
"P.V.Petrovskii"
"V.N.Khandozhko"
"Yu.T.Struchkov"
"I.P.Beletskaya"
_chemical_name_systematic
;
(\h^3^-Cyclopentadiene)-di-iodo-oxo-rhenium(v)
;
_chemical_name_common
;
Teaching Subset: Fundamental Chemistry
;
_cell_volume    434.179
_exptl_crystal_colour 'green'
_exptl_crystal_density_diffrn 3.99
_exptl_special_details
;
Air-sensitive

;
_diffrn_ambient_temperature 153.15
#These two values have been output from a single CSD field.
_refine_ls_R_factor_gt 0.056
_refine_ls_wR_factor_gt 0.056
_symmetry_cell_setting triclinic
_symmetry_space_group_name_H-M 'P -1'
_symmetry_Int_Tables_number 2
loop_
_symmetry_equiv_pos_site_id
_symmetry_equiv_pos_as_xyz
1 x,y,z
2 -x,-y,-z
_cell_length_a 6.863(2)
_cell_length_b 7.300(2)
_cell_length_c 9.580(2)
_cell_angle_alpha 95.45(2)
_cell_angle_beta 93.78(2)
_cell_angle_gamma 113.83(2)
_cell_formula_units_Z 2
loop_
_atom_type_symbol
_atom_type_radius_bond
C 0.68
I 1.40
O 0.68
Re 1.35
loop_
_atom_site_label
_atom_site_type_symbol
_atom_site_fract_x
_atom_site_fract_y
_atom_site_fract_z
Re1 Re 0.54606(6) 0.23424(6) 0.32873(5)
I1 I 0.6480(1) -0.0704(1) 0.2377(1)
I2 I 0.7962(1) 0.4504(1) 0.1473(1)
C1 C 0.2137(17) 0.0171(18) 0.1752(14)
C2 C 0.2059(19) 0.0145(18) 0.3277(15)
C3 C 0.2400(19) 0.2137(18) 0.3847(14)
C4 C 0.2886(20) 0.3387(18) 0.2752(15)
C5 C 0.2614(19) 0.2098(19) 0.1477(14)
O1 O 0.7121(16) 0.3284(15) 0.4758(12)
#END
