####################################################################### 
# 
# This file contains crystal structure data downloaded from the 
# Cambridge Structural Database (CSD) hosted by the Cambridge 
# Crystallographic Data Centre (CCDC).
# 
# Full information about CCDC data access policies and citation 
# guidelines are available at http://www.ccdc.cam.ac.uk/access/V1 
# 
# Audit and citation data items may have been added by the CCDC. 
# Please retain this information to preserve the provenance of 
# this file and to allow appropriate attribution of the data. 
# 
#######################################################################

data_ic11413
_audit_block_doi                 10.5517/ccn8jt7
_database_code_depnum_ccdc_archive 'CCDC 604029'
loop_
_citation_id
_citation_doi
_citation_year
1 10.1039/b604446h 2006
_audit_update_record             
;
2006-04-07 deposited with the CCDC.	2024-07-12 downloaded from the CCDC.
;

_audit_creation_method           SHELXL-97
_chemical_name_systematic        
;
?
;
_chemical_name_common            ?
_chemical_melting_point          ?
_chemical_formula_moiety         ?
_chemical_formula_sum            'C33 H39 Ag F6 N9 O6 P'
_chemical_formula_weight         910.57

loop_
_atom_type_symbol
_atom_type_description
_atom_type_scat_dispersion_real
_atom_type_scat_dispersion_imag
_atom_type_scat_source
C C 0.0033 0.0016 'International Tables Vol C Tables 4.2.6.8 and 6.1.1.4'
H H 0.0000 0.0000 'International Tables Vol C Tables 4.2.6.8 and 6.1.1.4'
N N 0.0061 0.0033 'International Tables Vol C Tables 4.2.6.8 and 6.1.1.4'
O O 0.0106 0.0060 'International Tables Vol C Tables 4.2.6.8 and 6.1.1.4'
F F 0.0171 0.0103 'International Tables Vol C Tables 4.2.6.8 and 6.1.1.4'
P P 0.1023 0.0942 'International Tables Vol C Tables 4.2.6.8 and 6.1.1.4'
Ag Ag -0.8971 1.1015 'International Tables Vol C Tables 4.2.6.8 and 6.1.1.4'

_symmetry_cell_setting           Rhombohedral
_symmetry_space_group_name_H-M   R-3c

loop_
_symmetry_equiv_pos_as_xyz
'x, y, z'
'-y, x-y, z'
'-x+y, -x, z'
'y, x, -z+1/2'
'x-y, -y, -z+1/2'
'-x, -x+y, -z+1/2'
'x+2/3, y+1/3, z+1/3'
'-y+2/3, x-y+1/3, z+1/3'
'-x+y+2/3, -x+1/3, z+1/3'
'y+2/3, x+1/3, -z+5/6'
'x-y+2/3, -y+1/3, -z+5/6'
'-x+2/3, -x+y+1/3, -z+5/6'
'x+1/3, y+2/3, z+2/3'
'-y+1/3, x-y+2/3, z+2/3'
'-x+y+1/3, -x+2/3, z+2/3'
'y+1/3, x+2/3, -z+7/6'
'x-y+1/3, -y+2/3, -z+7/6'
'-x+1/3, -x+y+2/3, -z+7/6'
'-x, -y, -z'
'y, -x+y, -z'
'x-y, x, -z'
'-y, -x, z-1/2'
'-x+y, y, z-1/2'
'x, x-y, z-1/2'
'-x+2/3, -y+1/3, -z+1/3'
'y+2/3, -x+y+1/3, -z+1/3'
'x-y+2/3, x+1/3, -z+1/3'
'-y+2/3, -x+1/3, z-1/6'
'-x+y+2/3, y+1/3, z-1/6'
'x+2/3, x-y+1/3, z-1/6'
'-x+1/3, -y+2/3, -z+2/3'
'y+1/3, -x+y+2/3, -z+2/3'
'x-y+1/3, x+2/3, -z+2/3'
'-y+1/3, -x+2/3, z+1/6'
'-x+y+1/3, y+2/3, z+1/6'
'x+1/3, x-y+2/3, z+1/6'

_cell_length_a                   14.7469(7)
_cell_length_b                   14.7469(7)
_cell_length_c                   59.386(3)
_cell_angle_alpha                90.00
_cell_angle_beta                 90.00
_cell_angle_gamma                120.00
_cell_volume                     11184.5(9)
_cell_formula_units_Z            12
_cell_measurement_temperature    150(1)
_cell_measurement_reflns_used    2908
_cell_measurement_theta_min      2.76
_cell_measurement_theta_max      21.97

_exptl_crystal_description       block
_exptl_crystal_colour            colorless
_exptl_crystal_size_max          0.12
_exptl_crystal_size_mid          0.10
_exptl_crystal_size_min          0.08
_exptl_crystal_density_meas      0
_exptl_crystal_density_diffrn    1.622
_exptl_crystal_density_method    'not measured'
_exptl_crystal_F_000             5568
_exptl_absorpt_coefficient_mu    0.671
_exptl_absorpt_correction_type   multi-scan
_exptl_absorpt_correction_T_min  0.9238
_exptl_absorpt_correction_T_max  0.9483
_exptl_absorpt_process_details   ?

_exptl_special_details           
;
?
;

_diffrn_ambient_temperature      150(1)

_diffrn_radiation_wavelength     0.71073
_diffrn_radiation_type           MoK\a
_diffrn_radiation_source         'fine-focus sealed tube'
_diffrn_radiation_monochromator  graphite
_diffrn_measurement_device_type  'BRUKER SMART APEXCCD area detector'
_diffrn_measurement_method       'omega scans'
_diffrn_detector_area_resol_mean ?
_diffrn_standards_number         ?
_diffrn_standards_interval_count ?
_diffrn_standards_interval_time  ?
_diffrn_standards_decay_%        ?
_diffrn_reflns_number            35101
_diffrn_reflns_av_R_equivalents  0.0883
_diffrn_reflns_av_sigmaI/netI    0.0513
_diffrn_reflns_limit_h_min       -18
_diffrn_reflns_limit_h_max       19
_diffrn_reflns_limit_k_min       -19
_diffrn_reflns_limit_k_max       18
_diffrn_reflns_limit_l_min       -77
_diffrn_reflns_limit_l_max       76
_diffrn_reflns_theta_min         1.74
_diffrn_reflns_theta_max         27.50
_reflns_number_total             2857
_reflns_number_gt                2096
_reflns_threshold_expression     >2sigma(I)

_computing_data_collection       'Bruker SMART'
_computing_cell_refinement       'Bruker SAINT'
_computing_data_reduction        'Bruker SAINT'
_computing_structure_solution    'SHELXS-97 (Sheldrick, 1990)'
_computing_structure_refinement  'SHELXL-97 (Sheldrick, 1997)'
_computing_molecular_graphics    'Bruker SHELXTL'
_computing_publication_material  'Bruker SHELXTL'

_refine_special_details          
;
Refinement of F^2^ against ALL reflections. The weighted R-factor wR and
goodness of fit S are based on F^2^, conventional R-factors R are based
on F, with F set to zero for negative F^2^. The threshold expression of
F^2^ > 2sigma(F^2^) is used only for calculating R-factors(gt) etc. and is
not relevant to the choice of reflections for refinement. R-factors based
on F^2^ are statistically about twice as large as those based on F, and R-
factors based on ALL data will be even larger.
;

_refine_ls_structure_factor_coef Fsqd
_refine_ls_matrix_type           full
_refine_ls_weighting_scheme      calc
_refine_ls_weighting_details     
'calc w=1/[\s^2^(Fo^2^)+(0.0335P)^2^+0.0000P] where P=(Fo^2^+2Fc^2^)/3'
_atom_sites_solution_primary     direct
_atom_sites_solution_secondary   difmap
_atom_sites_solution_hydrogens   geom
_refine_ls_hydrogen_treatment    constr
_refine_ls_extinction_method     none
_refine_ls_extinction_coef       ?
_refine_ls_number_reflns         2857
_refine_ls_number_parameters     172
_refine_ls_number_restraints     0
_refine_ls_R_factor_all          0.0693
_refine_ls_R_factor_gt           0.0412
_refine_ls_wR_factor_ref         0.0839
_refine_ls_wR_factor_gt          0.0749
_refine_ls_goodness_of_fit_ref   0.970
_refine_ls_restrained_S_all      0.970
_refine_ls_shift/su_max          0.001
_refine_ls_shift/su_mean         0.000

loop_
_atom_site_label
_atom_site_type_symbol
_atom_site_fract_x
_atom_site_fract_y
_atom_site_fract_z
_atom_site_U_iso_or_equiv
_atom_site_adp_type
_atom_site_occupancy
_atom_site_symmetry_multiplicity
_atom_site_calc_flag
_atom_site_refinement_flags
_atom_site_disorder_assembly
_atom_site_disorder_group
Ag1 Ag 0.3333 0.6667 0.103543(6) 0.02449(12) Uani 1 3 d S . .
O1 O 0.17590(15) 0.89653(15) 0.11092(4) 0.0372(6) Uani 1 1 d . . .
N1 N 0.16168(18) 0.61613(18) 0.10402(4) 0.0227(5) Uani 1 1 d . . .
N2 N 0.01606(17) 0.75388(17) 0.11718(4) 0.0223(5) Uani 1 1 d . . .
H2A H -0.0473 0.7339 0.1223 0.027 Uiso 1 1 calc R . .
C1 C 0.0810(2) 0.5194(2) 0.10022(5) 0.0245(7) Uani 1 1 d . . .
H1A H 0.0949 0.4657 0.0958 0.029 Uiso 1 1 calc R . .
C2 C -0.0216(2) 0.4958(2) 0.10256(5) 0.0268(6) Uani 1 1 d . . .
H2B H -0.0772 0.4266 0.0999 0.032 Uiso 1 1 calc R . .
C3 C -0.0429(2) 0.5730(2) 0.10877(5) 0.0233(6) Uani 1 1 d . . .
H3A H -0.1132 0.5573 0.1108 0.028 Uiso 1 1 calc R . .
C4 C 0.0395(2) 0.6743(2) 0.11209(4) 0.0206(6) Uani 1 1 d . . .
C5 C 0.1410(2) 0.6917(2) 0.11000(5) 0.0223(6) Uani 1 1 d . . .
H5A H 0.1980 0.7599 0.1129 0.027 Uiso 1 1 calc R . .
C6 C 0.0825(2) 0.8587(2) 0.11495(5) 0.0226(6) Uani 1 1 d . . .
C7 C 0.0360(2) 0.9284(2) 0.11716(4) 0.0213(6) Uani 1 1 d . . .
C8 C 0.1066(2) 1.0357(2) 0.11715(4) 0.0215(6) Uani 1 1 d . . .
H8A H 0.1797 1.0602 0.1171 0.026 Uiso 1 1 calc R . .
P1 P 0.3333 0.6667 0.1667 0.0253(4) Uani 1 6 d S . .
F1 F 0.23128(13) 0.61958(14) 0.18228(3) 0.0413(4) Uani 1 1 d . . .
P2 P -0.3333 0.3333 0.0833 0.0242(4) Uani 1 6 d S . .
F2 F -0.28308(14) 0.43543(13) 0.09884(3) 0.0411(4) Uani 1 1 d . . .
O2 O -0.18852(18) 0.64399(17) 0.13650(4) 0.0481(6) Uani 1 1 d . . .
N3 N -0.35168(19) 0.56874(19) 0.15155(4) 0.0296(6) Uani 1 1 d . . .
C9 C -0.2653(3) 0.6484(3) 0.14323(6) 0.0410(8) Uani 1 1 d . . .
H9A H -0.2622 0.7142 0.1424 0.049 Uiso 1 1 calc R . .
C10 C -0.3617(3) 0.4662(2) 0.15321(6) 0.0426(9) Uani 1 1 d . . .
H10A H -0.3151 0.4606 0.1422 0.064 Uiso 1 1 calc R . .
H10B H -0.4343 0.4124 0.1501 0.064 Uiso 1 1 calc R . .
H10C H -0.3425 0.4563 0.1684 0.064 Uiso 1 1 calc R . .
C11 C -0.4390(2) 0.5808(3) 0.15912(6) 0.0408(8) Uani 1 1 d . . .
H11A H -0.4239 0.6523 0.1559 0.061 Uiso 1 1 calc R . .
H11B H -0.4489 0.5677 0.1754 0.061 Uiso 1 1 calc R . .
H11C H -0.5028 0.5307 0.1512 0.061 Uiso 1 1 calc R . .

loop_
_atom_site_aniso_label
_atom_site_aniso_U_11
_atom_site_aniso_U_22
_atom_site_aniso_U_33
_atom_site_aniso_U_23
_atom_site_aniso_U_13
_atom_site_aniso_U_12
Ag1 0.01872(14) 0.01872(14) 0.0360(2) 0.000 0.000 0.00936(7)
O1 0.0182(11) 0.0187(11) 0.0739(17) -0.0010(11) 0.0060(11) 0.0086(9)
N1 0.0201(13) 0.0195(12) 0.0300(13) -0.0017(10) 0.0002(10) 0.0110(11)
N2 0.0144(12) 0.0191(13) 0.0354(14) 0.0019(10) 0.0030(10) 0.0100(10)
C1 0.0242(16) 0.0186(15) 0.0324(16) -0.0037(12) -0.0026(12) 0.0120(13)
C2 0.0202(14) 0.0174(16) 0.0394(16) -0.0010(14) -0.0040(12) 0.0068(13)
C3 0.0147(14) 0.0231(15) 0.0309(16) 0.0032(12) -0.0009(12) 0.0085(13)
C4 0.0200(15) 0.0194(15) 0.0238(14) 0.0007(11) -0.0006(11) 0.0108(13)
C5 0.0173(15) 0.0179(14) 0.0294(15) -0.0015(12) -0.0027(12) 0.0071(12)
C6 0.0215(15) 0.0187(15) 0.0297(15) -0.0011(12) -0.0016(12) 0.0115(12)
C7 0.0197(16) 0.0180(15) 0.0248(14) -0.0004(11) -0.0014(11) 0.0084(14)
C8 0.0170(14) 0.0199(16) 0.0271(14) 0.0005(12) -0.0016(11) 0.0090(12)
P1 0.0240(6) 0.0240(6) 0.0280(9) 0.000 0.000 0.0120(3)
F1 0.0303(10) 0.0468(12) 0.0426(10) 0.0049(10) 0.0100(8) 0.0162(10)
P2 0.0175(5) 0.0175(5) 0.0375(10) 0.000 0.000 0.0087(3)
F2 0.0357(11) 0.0280(10) 0.0572(11) -0.0149(8) -0.0133(10) 0.0140(9)
O2 0.0335(14) 0.0387(14) 0.0697(17) 0.0055(12) 0.0217(13) 0.0164(12)
N3 0.0256(14) 0.0284(15) 0.0375(15) 0.0031(12) 0.0048(11) 0.0156(12)
C9 0.042(2) 0.0284(19) 0.052(2) 0.0043(16) 0.0078(17) 0.0178(17)
C10 0.041(2) 0.035(2) 0.053(2) 0.0116(17) 0.0126(17) 0.0201(18)
C11 0.0348(19) 0.055(2) 0.042(2) -0.0028(17) 0.0042(16) 0.0295(18)

_geom_special_details            
;
All esds (except the esd in the dihedral angle between two l.s. planes)
are estimated using the full covariance matrix. The cell esds are taken
into account individually in the estimation of esds in distances, angles
and torsion angles; correlations between esds in cell parameters are only
used when they are defined by crystal symmetry. An approximate (isotropic)
treatment of cell esds is used for estimating esds involving l.s. planes.
;

loop_
_geom_bond_atom_site_label_1
_geom_bond_atom_site_label_2
_geom_bond_distance
_geom_bond_site_symmetry_2
_geom_bond_publ_flag
Ag1 N1 2.253(2) . ?
Ag1 N1 2.253(2) 3_565 ?
Ag1 N1 2.253(2) 2_665 ?
O1 C6 1.224(3) . ?
N1 C5 1.342(3) . ?
N1 C1 1.343(3) . ?
N2 C6 1.361(3) . ?
N2 C4 1.412(3) . ?
C1 C2 1.379(4) . ?
C2 C3 1.375(4) . ?
C3 C4 1.390(4) . ?
C4 C5 1.392(4) . ?
C6 C7 1.500(4) . ?
C7 C8 1.391(3) 3_465 ?
C7 C8 1.393(3) . ?
C8 C7 1.391(3) 2_675 ?
P1 F1 1.6005(16) 25_565 ?
P1 F1 1.6005(16) 27 ?
P1 F1 1.6006(16) 26_455 ?
P1 F1 1.6007(16) 3_565 ?
P1 F1 1.6007(16) . ?
P1 F1 1.6007(16) 2_665 ?
P2 F2 1.5965(16) 3_455 ?
P2 F2 1.5965(16) . ?
P2 F2 1.5965(16) 2_565 ?
P2 F2 1.5966(16) 18_444 ?
P2 F2 1.5966(16) 17_554 ?
P2 F2 1.5966(16) 16_454 ?
O2 C9 1.232(4) . ?
N3 C9 1.323(4) . ?
N3 C10 1.447(4) . ?
N3 C11 1.456(4) . ?

loop_
_geom_angle_atom_site_label_1
_geom_angle_atom_site_label_2
_geom_angle_atom_site_label_3
_geom_angle
_geom_angle_site_symmetry_1
_geom_angle_site_symmetry_3
_geom_angle_publ_flag
N1 Ag1 N1 119.984(3) . 3_565 ?
N1 Ag1 N1 119.984(3) . 2_665 ?
N1 Ag1 N1 119.984(3) 3_565 2_665 ?
C5 N1 C1 118.5(2) . . ?
C5 N1 Ag1 114.38(18) . . ?
C1 N1 Ag1 126.98(18) . . ?
C6 N2 C4 126.0(2) . . ?
N1 C1 C2 121.9(3) . . ?
C3 C2 C1 119.6(3) . . ?
C2 C3 C4 119.2(3) . . ?
C3 C4 C5 117.9(2) . . ?
C3 C4 N2 118.5(2) . . ?
C5 C4 N2 123.6(2) . . ?
N1 C5 C4 122.7(2) . . ?
O1 C6 N2 122.9(2) . . ?
O1 C6 C7 120.1(2) . . ?
N2 C6 C7 117.0(2) . . ?
C8 C7 C8 119.1(3) 3_465 . ?
C8 C7 C6 124.5(2) 3_465 . ?
C8 C7 C6 116.1(2) . . ?
C7 C8 C7 120.9(3) 2_675 . ?
F1 P1 F1 89.81(9) 25_565 27 ?
F1 P1 F1 89.81(9) 25_565 26_455 ?
F1 P1 F1 89.81(9) 27 26_455 ?
F1 P1 F1 90.19(9) 25_565 3_565 ?
F1 P1 F1 179.996(1) 27 3_565 ?
F1 P1 F1 90.19(9) 26_455 3_565 ?
F1 P1 F1 179.996(1) 25_565 . ?
F1 P1 F1 90.19(9) 27 . ?
F1 P1 F1 90.19(9) 26_455 . ?
F1 P1 F1 89.80(9) 3_565 . ?
F1 P1 F1 90.20(9) 25_565 2_665 ?
F1 P1 F1 90.20(9) 27 2_665 ?
F1 P1 F1 179.994(1) 26_455 2_665 ?
F1 P1 F1 89.80(9) 3_565 2_665 ?
F1 P1 F1 89.80(9) . 2_665 ?
F2 P2 F2 90.04(9) 3_455 . ?
F2 P2 F2 90.04(9) 3_455 2_565 ?
F2 P2 F2 90.04(9) . 2_565 ?
F2 P2 F2 179.16(13) 3_455 18_444 ?
F2 P2 F2 89.37(13) . 18_444 ?
F2 P2 F2 90.56(13) 2_565 18_444 ?
F2 P2 F2 90.56(13) 3_455 17_554 ?
F2 P2 F2 179.16(13) . 17_554 ?
F2 P2 F2 89.37(13) 2_565 17_554 ?
F2 P2 F2 90.03(9) 18_444 17_554 ?
F2 P2 F2 89.37(13) 3_455 16_454 ?
F2 P2 F2 90.56(13) . 16_454 ?
F2 P2 F2 179.16(13) 2_565 16_454 ?
F2 P2 F2 90.03(9) 18_444 16_454 ?
F2 P2 F2 90.03(9) 17_554 16_454 ?
C9 N3 C10 120.2(3) . . ?
C9 N3 C11 121.6(3) . . ?
C10 N3 C11 118.2(3) . . ?
O2 C9 N3 125.3(3) . . ?

_diffrn_measured_fraction_theta_max 1.000
_diffrn_reflns_theta_full        27.50
_diffrn_measured_fraction_theta_full 1.000
_refine_diff_density_max         0.571
_refine_diff_density_min         -0.733
_refine_diff_density_rms         0.074
