####################################################################### 
# 
# This file contains crystal structure data downloaded from the 
# Cambridge Structural Database (CSD) hosted by the Cambridge 
# Crystallographic Data Centre (CCDC).
# 
# Full information about CCDC data access policies and citation 
# guidelines are available at http://www.ccdc.cam.ac.uk/access/V1 
# 
# Audit and citation data items may have been added by the CCDC. 
# Please retain this information to preserve the provenance of 
# this file and to allow appropriate attribution of the data. 
# 
#######################################################################

data_shelxl4
_audit_block_doi                 10.5517/ccyzbhq
_database_code_depnum_ccdc_archive 'CCDC 893094'
loop_
_citation_id
_citation_doi
_citation_year
1 10.1021/cg301047w 2012
_audit_update_record             
;
2012-07-22 deposited with the CCDC.	2024-07-12 downloaded from the CCDC.
;
#TrackingRef '4.cif'


_audit_creation_method           SHELXL-97
_chemical_name_systematic        
;
?
;
_chemical_name_common            ?
_chemical_melting_point          ?
_chemical_formula_moiety         
'C27 H9 O18 Zn3, C8 H18 N2 O2, 4(C3 H6 N O), C2 H6 N'
_chemical_formula_sum            'C49 H57 N7 O24 Zn3'
_chemical_formula_weight         1324.19

loop_
_atom_type_symbol
_atom_type_description
_atom_type_scat_dispersion_real
_atom_type_scat_dispersion_imag
_atom_type_scat_source
C C 0.0033 0.0016 'International Tables Vol C Tables 4.2.6.8 and 6.1.1.4'
H H 0.0000 0.0000 'International Tables Vol C Tables 4.2.6.8 and 6.1.1.4'
N N 0.0061 0.0033 'International Tables Vol C Tables 4.2.6.8 and 6.1.1.4'
O O 0.0106 0.0060 'International Tables Vol C Tables 4.2.6.8 and 6.1.1.4'
Zn Zn 0.2839 1.4301 'International Tables Vol C Tables 4.2.6.8 and 6.1.1.4'

_symmetry_cell_setting           Trigonal
_symmetry_space_group_name_H-M   'R -3'

loop_
_symmetry_equiv_pos_as_xyz
'x, y, z'
'-y, x-y, z'
'-x+y, -x, z'
'x+2/3, y+1/3, z+1/3'
'-y+2/3, x-y+1/3, z+1/3'
'-x+y+2/3, -x+1/3, z+1/3'
'x+1/3, y+2/3, z+2/3'
'-y+1/3, x-y+2/3, z+2/3'
'-x+y+1/3, -x+2/3, z+2/3'
'-x, -y, -z'
'y, -x+y, -z'
'x-y, x, -z'
'-x+2/3, -y+1/3, -z+1/3'
'y+2/3, -x+y+1/3, -z+1/3'
'x-y+2/3, x+1/3, -z+1/3'
'-x+1/3, -y+2/3, -z+2/3'
'y+1/3, -x+y+2/3, -z+2/3'
'x-y+1/3, x+2/3, -z+2/3'

_cell_length_a                   43.8139(8)
_cell_length_b                   43.8139(8)
_cell_length_c                   17.2006(3)
_cell_angle_alpha                90.00
_cell_angle_beta                 90.00
_cell_angle_gamma                120.00
_cell_volume                     28595.5(9)
_cell_formula_units_Z            18
_cell_measurement_temperature    100(2)
_cell_measurement_reflns_used    17995
_cell_measurement_theta_min      3.0528
_cell_measurement_theta_max      30.2551

_exptl_crystal_description       needle
_exptl_crystal_colour            colorless
_exptl_crystal_size_max          0.1
_exptl_crystal_size_mid          0.04
_exptl_crystal_size_min          0.03
_exptl_crystal_density_meas      ?
_exptl_crystal_density_diffrn    1.384
_exptl_crystal_density_method    'not measured'
_exptl_crystal_F_000             12276
_exptl_absorpt_coefficient_mu    1.202
_exptl_absorpt_correction_type   multi-scan
_exptl_absorpt_correction_T_min  0.89275
_exptl_absorpt_correction_T_max  1.00000
_exptl_absorpt_process_details   
'Empirical absorption correction (CrysAlis RED, Oxford Diffraction)'

_exptl_special_details           
;
?
;

_diffrn_ambient_temperature      100(2)
_diffrn_radiation_wavelength     0.71073
_diffrn_radiation_type           MoK\a
_diffrn_radiation_source         'SuperNova (Mo) X-ray Source'
_diffrn_radiation_monochromator  mirror
_diffrn_measurement_device_type  'SuperNova, Dual, Cu at zero, Atlas'
_diffrn_measurement_method       '\w scans'
_diffrn_detector_area_resol_mean 10.4223
_diffrn_standards_number         ?
_diffrn_standards_interval_count ?
_diffrn_standards_interval_time  ?
_diffrn_standards_decay_%        ?
_diffrn_reflns_number            11162
_diffrn_reflns_av_R_equivalents  0.0000
_diffrn_reflns_av_sigmaI/netI    0.0772
_diffrn_reflns_limit_h_min       -51
_diffrn_reflns_limit_h_max       49
_diffrn_reflns_limit_k_min       -52
_diffrn_reflns_limit_k_max       52
_diffrn_reflns_limit_l_min       -20
_diffrn_reflns_limit_l_max       20
_diffrn_reflns_theta_min         3.06
_diffrn_reflns_theta_max         25.00
_reflns_number_total             11162
_reflns_number_gt                8702
_reflns_threshold_expression     >2sigma(I)

_computing_data_collection       'CrysAlis CCD'
_computing_cell_refinement       'CrysAlis RED'
_computing_data_reduction        'CrysAlis RED'
_computing_structure_solution    'SHELXL-97 (Sheldrick, 1997)'
_computing_structure_refinement  'SHELXL-97 (Sheldrick, 1997)'
_computing_molecular_graphics    
;
DIAMOND (Brandenburg, 2006)
MERCURY (Bruno et al. 2002)
;

_computing_publication_material  'WINGX (Farrugia, 1999)'


_refine_special_details          
;
Refinement of F^2^ against ALL reflections. The weighted R-factor wR and
goodness of fit S are based on F^2^, conventional R-factors R are based
on F, with F set to zero for negative F^2^. The threshold expression of
F^2^ > 2sigma(F^2^) is used only for calculating R-factors(gt) etc. and is
not relevant to the choice of reflections for refinement. R-factors based
on F^2^ are statistically about twice as large as those based on F, and R-
factors based on ALL data will be even larger.
;

_refine_ls_structure_factor_coef Fsqd
_refine_ls_matrix_type           full
_refine_ls_weighting_scheme      calc
_refine_ls_weighting_details     
'calc w=1/[\s^2^(Fo^2^)+(0.0875P)^2^+0.0000P] where P=(Fo^2^+2Fc^2^)/3'
_atom_sites_solution_primary     direct
_atom_sites_solution_secondary   difmap
_atom_sites_solution_hydrogens   geom
_refine_ls_hydrogen_treatment    constr
_refine_ls_extinction_method     none
_refine_ls_extinction_coef       ?
_refine_ls_number_reflns         11162
_refine_ls_number_parameters     749
_refine_ls_number_restraints     150
_refine_ls_R_factor_all          0.0697
_refine_ls_R_factor_gt           0.0530
_refine_ls_wR_factor_ref         0.1467
_refine_ls_wR_factor_gt          0.1422
_refine_ls_goodness_of_fit_ref   1.034
_refine_ls_restrained_S_all      1.047
_refine_ls_shift/su_max          0.001
_refine_ls_shift/su_mean         0.000

loop_
_atom_site_label
_atom_site_type_symbol
_atom_site_fract_x
_atom_site_fract_y
_atom_site_fract_z
_atom_site_U_iso_or_equiv
_atom_site_adp_type
_atom_site_occupancy
_atom_site_symmetry_multiplicity
_atom_site_calc_flag
_atom_site_refinement_flags
_atom_site_disorder_assembly
_atom_site_disorder_group
Zn1 Zn 0.49428(2) 0.17553(2) 0.17631(4) 0.01588(18) Uani 1 1 d . . .
Zn2 Zn 0.50945(2) 0.15504(2) -0.00463(4) 0.01589(18) Uani 1 1 d . . .
Zn3 Zn 0.66948(2) 0.077890(19) 0.06903(4) 0.01780(18) Uani 1 1 d . . .
O1 O 0.53575(14) 0.17065(15) 0.1835(3) 0.0322(13) Uani 1 1 d . . .
O2 O 0.54411(16) 0.15570(17) 0.0646(3) 0.0437(16) Uani 1 1 d . . .
O3 O 0.62284(15) 0.10610(15) 0.0262(3) 0.0376(14) Uani 1 1 d . . .
O4 O 0.64124(13) 0.09131(13) 0.1334(2) 0.0243(11) Uani 1 1 d . . .
O5 O 0.47597(14) 0.17163(13) 0.2811(3) 0.0286(12) Uani 1 1 d . . .
O6 O 0.51882(16) 0.22541(15) 0.2776(3) 0.0471(16) Uani 1 1 d . . .
O7 O 0.46486(14) 0.11453(14) 0.0283(3) 0.0389(15) Uani 1 1 d . . .
O8 O 0.45410(14) 0.13033(16) 0.1421(3) 0.0502(18) Uani 1 1 d . . .
O9 O 0.29470(12) 0.01201(13) 0.1860(3) 0.0277(12) Uani 1 1 d . . .
O10 O 0.33217(12) 0.06266(14) 0.2441(3) 0.0369(14) Uani 1 1 d . . .
O11 O 0.39423(14) -0.01440(13) -0.0355(3) 0.0322(12) Uani 1 1 d . . .
O12 O 0.34242(12) -0.04524(12) 0.0192(3) 0.0261(11) Uani 1 1 d . . .
O13 O 0.50435(14) 0.19664(14) -0.0111(3) 0.0292(12) Uani 1 1 d . . .
O14 O 0.49089(16) 0.20818(15) 0.1058(3) 0.0370(14) Uani 1 1 d . . .
O15 O 0.5114(3) 0.2766(3) -0.2276(4) 0.104(4) Uani 1 1 d . . .
O16 O 0.47476(14) 0.29590(13) -0.2234(2) 0.0282(12) Uani 1 1 d . . .
O17 O 0.41832(12) 0.29658(13) 0.0190(2) 0.0232(11) Uani 1 1 d . . .
O18 O 0.42469(17) 0.27168(16) 0.1255(3) 0.0462(16) Uani 1 1 d . . .
O19 O 0.29708(16) 0.07844(17) 0.5466(3) 0.0514(16) Uani 1 1 d . . .
H19 H 0.3123 0.0815 0.5783 0.077 Uiso 1 1 calc R . .
O20 O 0.3825(3) 0.2034(3) 0.1698(7) 0.134(4) Uani 1 1 d . . .
H20 H 0.3969 0.2205 0.1449 0.200 Uiso 1 1 calc R . .
O21 O 0.36490(18) 0.15931(16) 0.5283(4) 0.0620(19) Uani 1 1 d D . .
O22 O 0.4028(4) 0.2317(4) 0.3545(9) 0.181(5) Uani 1 1 d DU . .
O23 O 0.6635(5) 0.2232(5) 0.0990(11) 0.236(7) Uani 1 1 d DU . .
O24 O 0.1805(3) 0.8957(3) 0.6429(6) 0.122(3) Uani 1 1 d DU . .
N1 N 0.34274(18) 0.1079(2) 0.4231(4) 0.0470(19) Uani 1 1 d . . .
N2 N 0.3678(3) 0.1640(3) 0.3028(5) 0.083(3) Uani 1 1 d . . .
N3 N 0.3849(2) 0.18944(19) 0.6468(5) 0.071(3) Uani 1 1 d D . .
N4 N 0.3963(2) 0.2764(2) 0.3256(5) 0.074(3) Uani 1 1 d D . .
N5 N 0.6944(3) 0.2217(4) 0.2089(8) 0.124(4) Uani 1 1 d DU . .
N6 N 0.2090(3) 0.9404(3) 0.5541(6) 0.092(3) Uani 1 1 d DU . .
N7 N 0.6424(6) 0.2041(5) 0.9522(13) 0.230(9) Uani 1 1 d DU . .
C1 C 0.55016(19) 0.15970(19) 0.1371(4) 0.0201(15) Uani 1 1 d . . .
C2 C 0.57723(17) 0.15133(18) 0.1661(3) 0.0174(14) Uani 1 1 d . . .
C3 C 0.58944(18) 0.13461(17) 0.1196(4) 0.0198(15) Uani 1 1 d . . .
H3 H 0.5821 0.1298 0.0681 0.024 Uiso 1 1 calc R . .
C4 C 0.61278(17) 0.12470(17) 0.1489(3) 0.0157(14) Uani 1 1 d . . .
C5 C 0.62425(18) 0.13282(18) 0.2256(4) 0.0195(15) Uani 1 1 d . . .
H5 H 0.6391 0.1254 0.2460 0.023 Uiso 1 1 calc R . .
C6 C 0.61351(18) 0.15213(18) 0.2727(4) 0.0213(16) Uani 1 1 d . . .
C7 C 0.58940(18) 0.16065(18) 0.2424(3) 0.0202(15) Uani 1 1 d . . .
H7 H 0.5813 0.1726 0.2730 0.024 Uiso 1 1 calc R . .
C8 C 0.62670(19) 0.10647(19) 0.0972(4) 0.0268(17) Uani 1 1 d . . .
C9 C 0.4941(2) 0.20076(19) 0.3138(4) 0.0256(17) Uani 1 1 d . . .
C10 C 0.44650(17) 0.10951(19) 0.0861(4) 0.0257(16) Uani 1 1 d . . .
C11 C 0.41253(17) 0.07502(18) 0.0929(4) 0.0227(14) Uani 1 1 d . . .
C12 C 0.38655(18) 0.07190(19) 0.1429(4) 0.0261(17) Uani 1 1 d . . .
H12 H 0.3908 0.0908 0.1747 0.031 Uiso 1 1 calc R . .
C13 C 0.35446(17) 0.04128(18) 0.1465(4) 0.0201(15) Uani 1 1 d . . .
C14 C 0.34925(17) 0.01192(17) 0.1028(4) 0.0231(16) Uani 1 1 d . . .
H14 H 0.3280 -0.0092 0.1062 0.028 Uiso 1 1 calc R . .
C15 C 0.37581(18) 0.01437(18) 0.0545(4) 0.0209(15) Uani 1 1 d . . .
C16 C 0.40733(18) 0.04685(18) 0.0487(4) 0.0224(16) Uani 1 1 d . . .
H16 H 0.4248 0.0492 0.0145 0.027 Uiso 1 1 calc R . .
C17 C 0.32571(18) 0.03906(19) 0.1977(4) 0.0265(17) Uani 1 1 d . . .
C18 C 0.37099(18) -0.01724(18) 0.0092(4) 0.0209(15) Uani 1 1 d . . .
C19 C 0.49260(19) 0.21048(19) 0.0333(4) 0.0206(16) Uani 1 1 d . . .
C20 C 0.48121(19) 0.23452(19) -0.0023(4) 0.0213(16) Uani 1 1 d . . .
C21 C 0.46201(17) 0.24585(18) 0.0400(4) 0.0202(15) Uani 1 1 d . . .
H21 H 0.4574 0.2398 0.0922 0.024 Uiso 1 1 calc R . .
C22 C 0.44982(19) 0.26557(18) 0.0070(4) 0.0224(16) Uani 1 1 d . . .
C23 C 0.4773(2) 0.2658(2) -0.1129(4) 0.0331(19) Uani 1 1 d . . .
C24 C 0.45790(19) 0.2764(2) -0.0695(4) 0.0259(17) Uani 1 1 d . . .
H24 H 0.4502 0.2907 -0.0916 0.031 Uiso 1 1 calc R . .
C25 C 0.4897(2) 0.2454(2) -0.0798(4) 0.0315(19) Uani 1 1 d . . .
H25 H 0.5035 0.2388 -0.1086 0.038 Uiso 1 1 calc R . .
C26 C 0.4886(2) 0.2802(2) -0.1948(4) 0.040(2) Uani 1 1 d . . .
C27 C 0.42903(18) 0.27891(19) 0.0555(4) 0.0260(17) Uani 1 1 d . . .
C28 C 0.2973(2) 0.0563(2) 0.4822(5) 0.042(2) Uani 1 1 d . . .
H28A H 0.2919 0.0335 0.5028 0.050 Uiso 1 1 calc R . .
H28B H 0.2788 0.0524 0.4457 0.050 Uiso 1 1 calc R . .
C29 C 0.3303(2) 0.0714(2) 0.4410(5) 0.047(2) Uani 1 1 d . . .
H29A H 0.3477 0.0696 0.4727 0.056 Uiso 1 1 calc R . .
H29B H 0.3273 0.0584 0.3933 0.056 Uiso 1 1 calc R . .
C30 C 0.3190(2) 0.1136(2) 0.3684(5) 0.046(2) Uani 1 1 d . . .
H30A H 0.3128 0.0975 0.3248 0.055 Uiso 1 1 calc R . .
H30B H 0.2975 0.1082 0.3953 0.055 Uiso 1 1 calc R . .
C31 C 0.3345(3) 0.1469(4) 0.3416(7) 0.088(4) Uani 1 1 d U . .
H31A H 0.3367 0.1616 0.3857 0.105 Uiso 1 1 calc R . .
H31B H 0.3178 0.1479 0.3063 0.105 Uiso 1 1 calc R . .
C32 C 0.3935(3) 0.1586(3) 0.3539(8) 0.089(4) Uani 1 1 d U . .
H32A H 0.4151 0.1661 0.3251 0.107 Uiso 1 1 calc R . .
H32B H 0.3992 0.1735 0.3996 0.107 Uiso 1 1 calc R . .
C33 C 0.3792(3) 0.1216(3) 0.3789(6) 0.071(3) Uani 1 1 d . . .
H33A H 0.3959 0.1200 0.4132 0.085 Uiso 1 1 calc R . .
H33B H 0.3757 0.1069 0.3339 0.085 Uiso 1 1 calc R . .
C34 C 0.3635(3) 0.1493(3) 0.2202(7) 0.076(4) Uani 1 1 d . . .
H34A H 0.3648 0.1278 0.2205 0.091 Uiso 1 1 calc R . .
H34B H 0.3410 0.1441 0.1986 0.091 Uiso 1 1 calc R . .
C35 C 0.3934(3) 0.1775(3) 0.1731(6) 0.063(3) Uani 1 1 d . . .
H35A H 0.4159 0.1864 0.1992 0.076 Uiso 1 1 calc R . .
H35B H 0.3947 0.1691 0.1217 0.076 Uiso 1 1 calc R . .
C36 C 0.3718(2) 0.1590(2) 0.5981(5) 0.058(3) Uani 1 1 d D . .
C37 C 0.3868(3) 0.2204(2) 0.6125(8) 0.089(4) Uani 1 1 d D . .
H37A H 0.3944 0.2387 0.6511 0.134 Uiso 1 1 calc R . .
H37B H 0.3639 0.2148 0.5936 0.134 Uiso 1 1 calc R . .
H37C H 0.4033 0.2285 0.5702 0.134 Uiso 1 1 calc R . .
C38 C 0.3958(4) 0.1899(4) 0.7267(5) 0.109(5) Uani 1 1 d D . .
H38A H 0.4017 0.2120 0.7503 0.163 Uiso 1 1 calc R . .
H38B H 0.4161 0.1868 0.7276 0.163 Uiso 1 1 calc R . .
H38C H 0.3769 0.1711 0.7551 0.163 Uiso 1 1 calc R . .
C39 C 0.4161(4) 0.2642(4) 0.3683(11) 0.148(7) Uani 1 1 d DU . .
C40 C 0.4100(3) 0.3140(2) 0.3262(7) 0.082(4) Uani 1 1 d DU . .
H40A H 0.3952 0.3195 0.2953 0.122 Uiso 1 1 calc R . .
H40B H 0.4335 0.3258 0.3050 0.122 Uiso 1 1 calc R . .
H40C H 0.4107 0.3218 0.3786 0.122 Uiso 1 1 calc R . .
C41 C 0.3649(3) 0.2536(4) 0.2802(8) 0.121(5) Uani 1 1 d DU . .
H41A H 0.3564 0.2675 0.2553 0.182 Uiso 1 1 calc R . .
H41B H 0.3469 0.2367 0.3139 0.182 Uiso 1 1 calc R . .
H41C H 0.3706 0.2415 0.2414 0.182 Uiso 1 1 calc R . .
C42 C 0.6780(5) 0.2087(5) 0.1340(9) 0.149(6) Uani 1 1 d DU . .
C43 C 0.6859(5) 0.2443(5) 0.2553(10) 0.152(6) Uani 1 1 d DU . .
H43A H 0.6988 0.2500 0.3033 0.227 Uiso 1 1 calc R . .
H43B H 0.6611 0.2321 0.2661 0.227 Uiso 1 1 calc R . .
H43C H 0.6923 0.2655 0.2271 0.227 Uiso 1 1 calc R . .
C44 C 0.7122(3) 0.2042(3) 0.2413(7) 0.089(3) Uani 1 1 d DU . .
H44A H 0.7221 0.2143 0.2909 0.134 Uiso 1 1 calc R . .
H44B H 0.7307 0.2070 0.2068 0.134 Uiso 1 1 calc R . .
H44C H 0.6956 0.1795 0.2477 0.134 Uiso 1 1 calc R . .
C45 C 0.1803(3) 0.9201(3) 0.6061(8) 0.110(4) Uani 1 1 d DU . .
C46 C 0.2096(4) 0.9689(3) 0.5111(7) 0.099(4) Uani 1 1 d DU . .
H46A H 0.2306 0.9802 0.4799 0.148 Uiso 1 1 calc R . .
H46B H 0.2095 0.9857 0.5466 0.148 Uiso 1 1 calc R . .
H46C H 0.1893 0.9598 0.4780 0.148 Uiso 1 1 calc R . .
C47 C 0.2437(3) 0.9444(6) 0.5600(12) 0.166(6) Uani 1 1 d DU . .
H47A H 0.2586 0.9602 0.5201 0.248 Uiso 1 1 calc R . .
H47B H 0.2420 0.9219 0.5535 0.248 Uiso 1 1 calc R . .
H47C H 0.2535 0.9538 0.6101 0.248 Uiso 1 1 calc R . .
C48 C 0.6369(4) 0.1702(5) 0.9261(9) 0.123(5) Uani 1 1 d DU . .
H48A H 0.6275 0.1536 0.9680 0.184 Uiso 1 1 calc R . .
H48B H 0.6590 0.1727 0.9096 0.184 Uiso 1 1 calc R . .
H48C H 0.6207 0.1620 0.8833 0.184 Uiso 1 1 calc R . .
C49 C 0.6581(7) 0.2360(7) 0.9046(15) 0.245(13) Uani 1 1 d DU . .
H49A H 0.6590 0.2551 0.9340 0.368 Uiso 1 1 calc R . .
H49B H 0.6440 0.2320 0.8589 0.368 Uiso 1 1 calc R . .
H49C H 0.6815 0.2418 0.8897 0.368 Uiso 1 1 calc R . .

loop_
_atom_site_aniso_label
_atom_site_aniso_U_11
_atom_site_aniso_U_22
_atom_site_aniso_U_33
_atom_site_aniso_U_23
_atom_site_aniso_U_13
_atom_site_aniso_U_12
Zn1 0.0199(4) 0.0185(4) 0.0123(3) -0.0006(3) 0.0007(3) 0.0118(4)
Zn2 0.0184(4) 0.0212(4) 0.0118(3) -0.0019(3) 0.0000(3) 0.0127(4)
Zn3 0.0201(4) 0.0151(4) 0.0211(4) 0.0018(3) 0.0018(3) 0.0109(4)
O1 0.038(3) 0.053(4) 0.023(3) -0.008(2) -0.004(2) 0.036(3)
O2 0.060(4) 0.082(5) 0.022(3) -0.011(3) -0.013(3) 0.060(4)
O3 0.053(4) 0.066(4) 0.016(3) -0.012(2) -0.008(2) 0.046(3)
O4 0.031(3) 0.035(3) 0.020(2) -0.001(2) 0.000(2) 0.027(3)
O5 0.043(3) 0.027(3) 0.018(2) -0.004(2) 0.003(2) 0.020(3)
O6 0.053(4) 0.042(4) 0.032(3) 0.005(3) 0.024(3) 0.013(3)
O7 0.035(3) 0.032(3) 0.031(3) -0.012(2) 0.020(3) 0.002(3)
O8 0.021(3) 0.044(4) 0.052(3) -0.029(3) 0.014(3) -0.009(3)
O9 0.013(3) 0.034(3) 0.031(3) -0.011(2) 0.001(2) 0.007(2)
O10 0.015(3) 0.028(3) 0.052(3) -0.017(3) 0.010(2) -0.001(2)
O11 0.039(3) 0.022(3) 0.039(3) -0.007(2) 0.008(3) 0.018(3)
O12 0.025(3) 0.013(3) 0.036(3) -0.005(2) 0.002(2) 0.006(2)
O13 0.042(3) 0.036(3) 0.026(3) 0.008(2) 0.004(2) 0.032(3)
O14 0.069(4) 0.048(4) 0.019(3) 0.006(2) 0.002(3) 0.048(3)
O15 0.167(8) 0.204(10) 0.041(4) 0.062(5) 0.059(5) 0.169(8)
O16 0.048(3) 0.035(3) 0.015(2) 0.012(2) 0.008(2) 0.030(3)
O17 0.027(3) 0.033(3) 0.023(2) -0.003(2) -0.001(2) 0.025(2)
O18 0.070(4) 0.067(4) 0.028(3) 0.012(3) 0.018(3) 0.055(4)
O19 0.048(4) 0.069(4) 0.042(3) 0.024(3) 0.012(3) 0.032(4)
O20 0.133(9) 0.103(8) 0.167(10) 0.042(7) 0.076(8) 0.060(7)
O21 0.060(5) 0.038(4) 0.087(5) -0.010(4) -0.031(4) 0.024(4)
O22 0.190(9) 0.163(8) 0.212(10) -0.010(7) -0.018(7) 0.105(7)
O23 0.237(11) 0.224(10) 0.249(11) 0.042(8) -0.063(8) 0.117(8)
O24 0.131(7) 0.126(7) 0.126(6) 0.032(5) 0.025(5) 0.077(6)
N1 0.038(5) 0.067(5) 0.040(4) 0.002(4) -0.001(3) 0.030(4)
N2 0.080(7) 0.145(10) 0.053(5) 0.029(6) 0.019(5) 0.078(7)
N3 0.043(5) 0.054(6) 0.118(8) -0.016(5) 0.015(5) 0.025(5)
N4 0.042(5) 0.058(6) 0.080(6) -0.015(5) 0.007(5) -0.006(5)
N5 0.108(7) 0.135(8) 0.134(7) -0.015(6) -0.001(6) 0.065(6)
N6 0.094(6) 0.102(6) 0.096(6) 0.007(5) 0.008(5) 0.059(5)
N7 0.259(13) 0.189(11) 0.219(12) 0.002(9) -0.024(9) 0.094(9)
C1 0.022(4) 0.020(4) 0.020(4) -0.004(3) 0.000(3) 0.012(3)
C2 0.020(4) 0.017(4) 0.016(3) 0.003(3) -0.002(3) 0.011(3)
C3 0.026(4) 0.022(4) 0.013(3) -0.003(3) 