####################################################################### 
# 
# This file contains crystal structure data downloaded from the 
# Cambridge Structural Database (CSD) hosted by the Cambridge 
# Crystallographic Data Centre (CCDC).
# 
# Full information about CCDC data access policies and citation 
# guidelines are available at http://www.ccdc.cam.ac.uk/access/V1 
# 
# Audit and citation data items may have been added by the CCDC. 
# Please retain this information to preserve the provenance of 
# this file and to allow appropriate attribution of the data. 
# 
#######################################################################

data_1
_audit_block_doi                 10.5517/ccznxj1
_database_code_depnum_ccdc_archive 'CCDC 913834'
loop_
_citation_id
_citation_doi
_citation_year
1 10.1021/cg301094h 2012
_audit_update_record             
;
2012-12-05 deposited with the CCDC.	2024-07-12 downloaded from the CCDC.
;

_audit_creation_method           SHELXL-97
_chemical_name_systematic        
;
?
;
_chemical_name_common            ?
_chemical_melting_point          ?
_chemical_formula_moiety         ?
_chemical_formula_sum            'C45 H34 Co2 N4 O12'
_chemical_formula_weight         940.62

loop_
_atom_type_symbol
_atom_type_description
_atom_type_scat_dispersion_real
_atom_type_scat_dispersion_imag
_atom_type_scat_source
C C 0.0033 0.0016 'International Tables Vol C Tables 4.2.6.8 and 6.1.1.4'
H H 0.0000 0.0000 'International Tables Vol C Tables 4.2.6.8 and 6.1.1.4'
Co Co 0.3494 0.9721 'International Tables Vol C Tables 4.2.6.8 and 6.1.1.4'
N N 0.0061 0.0033 'International Tables Vol C Tables 4.2.6.8 and 6.1.1.4'
O O 0.0106 0.0060 'International Tables Vol C Tables 4.2.6.8 and 6.1.1.4'

_symmetry_cell_setting           orthorhombic
_symmetry_space_group_name_H-M   Pccn

loop_
_symmetry_equiv_pos_as_xyz
'x, y, z'
'-x+1/2, -y+1/2, z'
'x+1/2, -y, -z+1/2'
'-x, y+1/2, -z+1/2'
'-x, -y, -z'
'x-1/2, y-1/2, -z'
'-x-1/2, y, z-1/2'
'x, -y-1/2, z-1/2'

_cell_length_a                   20.131(2)
_cell_length_b                   24.767(3)
_cell_length_c                   26.928(3)
_cell_angle_alpha                90.00
_cell_angle_beta                 90.00
_cell_angle_gamma                90.00
_cell_volume                     13426(3)
_cell_formula_units_Z            8
_cell_measurement_temperature    293(2)
_cell_measurement_reflns_used    5886
_cell_measurement_theta_min      4.902
_cell_measurement_theta_max      42.830

_exptl_crystal_description       block
_exptl_crystal_colour            purple
_exptl_crystal_size_max          0.03
_exptl_crystal_size_mid          0.025
_exptl_crystal_size_min          0.02
_exptl_crystal_density_meas      ?
_exptl_crystal_density_diffrn    0.931
_exptl_crystal_density_method    'not measured'
_exptl_crystal_F_000             3856
_exptl_absorpt_coefficient_mu    0.538
_exptl_absorpt_correction_type   multi-scan
_exptl_absorpt_correction_T_min  0.984
_exptl_absorpt_correction_T_max  0.989
_exptl_absorpt_process_details   sadabs

_exptl_special_details           
;
?
;

_diffrn_ambient_temperature      293(2)
_diffrn_radiation_wavelength     0.71073
_diffrn_radiation_type           MoK\a
_diffrn_radiation_source         'fine-focus sealed tube'
_diffrn_radiation_monochromator  graphite
_diffrn_measurement_device_type  ?
_diffrn_measurement_method       ?
_diffrn_detector_area_resol_mean ?
_diffrn_standards_number         ?
_diffrn_standards_interval_count ?
_diffrn_standards_interval_time  ?
_diffrn_standards_decay_%        ?
_diffrn_reflns_number            71109
_diffrn_reflns_av_R_equivalents  0.0933
_diffrn_reflns_av_sigmaI/netI    0.0861
_diffrn_reflns_limit_h_min       -24
_diffrn_reflns_limit_h_max       23
_diffrn_reflns_limit_k_min       -25
_diffrn_reflns_limit_k_max       30
_diffrn_reflns_limit_l_min       -32
_diffrn_reflns_limit_l_max       33
_diffrn_reflns_theta_min         1.30
_diffrn_reflns_theta_max         26.08
_reflns_number_total             13270
_reflns_number_gt                7308
_reflns_threshold_expression     >2sigma(I)

_computing_data_collection       'Bruker SMART'
_computing_cell_refinement       'Bruker SMART'
_computing_data_reduction        'Bruker SAINT'
_computing_structure_solution    'SHELXS-97 (Sheldrick, 1990)'
_computing_structure_refinement  'SHELXL-97 (Sheldrick, 1997)'
_computing_molecular_graphics    'Bruker SHELXTL'
_computing_publication_material  'Bruker SHELXTL'

_refine_special_details          
;
Refinement of F^2^ against ALL reflections. The weighted R-factor wR and
goodness of fit S are based on F^2^, conventional R-factors R are based
on F, with F set to zero for negative F^2^. The threshold expression of
F^2^ > 2sigma(F^2^) is used only for calculating R-factors(gt) etc. and is
not relevant to the choice of reflections for refinement. R-factors based
on F^2^ are statistically about twice as large as those based on F, and R-
factors based on ALL data will be even larger.
isor 0.01 C4 C5 C6 N4
;

_refine_ls_structure_factor_coef Fsqd
_refine_ls_matrix_type           full
_refine_ls_weighting_scheme      calc
_refine_ls_weighting_details     
'calc w=1/[\s^2^(Fo^2^)+(0.1805P)^2^+0.0000P] where P=(Fo^2^+2Fc^2^)/3'
_atom_sites_solution_primary     direct
_atom_sites_solution_secondary   difmap
_atom_sites_solution_hydrogens   geom
_refine_ls_hydrogen_treatment    constr
_refine_ls_extinction_method     none
_refine_ls_extinction_coef       ?
_refine_ls_number_reflns         13270
_refine_ls_number_parameters     568
_refine_ls_number_restraints     24
_refine_ls_R_factor_all          0.1473
_refine_ls_R_factor_gt           0.1002
_refine_ls_wR_factor_ref         0.3070
_refine_ls_wR_factor_gt          0.2857
_refine_ls_goodness_of_fit_ref   1.046
_refine_ls_restrained_S_all      1.067
_refine_ls_shift/su_max          0.014
_refine_ls_shift/su_mean         0.001

loop_
_atom_site_label
_atom_site_type_symbol
_atom_site_fract_x
_atom_site_fract_y
_atom_site_fract_z
_atom_site_U_iso_or_equiv
_atom_site_adp_type
_atom_site_occupancy
_atom_site_symmetry_multiplicity
_atom_site_calc_flag
_atom_site_refinement_flags
_atom_site_disorder_assembly
_atom_site_disorder_group
Co1 Co 0.55306(4) -0.17926(3) -0.00643(3) 0.0431(3) Uani 1 1 d . . .
Co2 Co 0.44631(3) -0.24609(3) 0.00472(3) 0.0370(2) Uani 1 1 d . . .
O1 O 0.33124(18) 0.00884(15) 0.18656(13) 0.0467(9) Uani 1 1 d . . .
O2 O 0.5153(2) -0.12424(18) 0.04425(17) 0.0723(13) Uani 1 1 d . . .
O3 O 0.42831(19) -0.18235(14) 0.05281(14) 0.0469(9) Uani 1 1 d . . .
O4 O 0.2820(2) 0.0990(2) 0.31247(16) 0.0688(13) Uani 1 1 d . . .
O5 O 0.4080(3) 0.2729(2) 0.4527(2) 0.099(2) Uani 1 1 d . . .
O6 O 0.4969(2) 0.21962(17) 0.43856(13) 0.0574(11) Uani 1 1 d . . .
O7 O 0.2227(2) -0.02647(19) 0.31110(17) 0.0735(14) Uani 1 1 d . . .
O8 O 0.09505(19) -0.19999(16) 0.45213(12) 0.0497(10) Uani 1 1 d . . .
O9 O 0.00582(19) -0.14495(16) 0.44540(16) 0.0561(11) Uani 1 1 d . . .
O10 O 0.17357(19) 0.06641(14) 0.19004(14) 0.0518(10) Uani 1 1 d . . .
O11 O -0.00914(18) 0.20365(14) 0.04126(13) 0.0473(10) Uani 1 1 d . . .
O12 O 0.0753(2) 0.26121(16) 0.05433(16) 0.0575(11) Uani 1 1 d . . .
N1 N 0.6363(3) -0.1363(2) -0.0258(2) 0.0737(17) Uani 1 1 d . . .
N2 N 0.7046(3) -0.0692(2) -0.0347(2) 0.0774(19) Uani 1 1 d . . .
N3 N 0.8645(3) 0.2106(2) -0.0244(2) 0.0624(15) Uani 1 1 d . . .
N4 N 0.8032(4) 0.1422(3) -0.0391(3) 0.140(3) Uani 1 1 d U . .
C1 C 0.6427(3) -0.0848(3) -0.0259(3) 0.0655(18) Uani 1 1 d . . .
H1 H 0.6078 -0.0609 -0.0202 0.079 Uiso 1 1 calc R . .
C2 C 0.6961(3) -0.1570(3) -0.0368(3) 0.086(3) Uani 1 1 d . . .
H2 H 0.7058 -0.1936 -0.0395 0.103 Uiso 1 1 calc R . .
C3 C 0.7408(3) -0.1158(3) -0.0432(3) 0.085(3) Uani 1 1 d . . .
H3 H 0.7856 -0.1186 -0.0515 0.102 Uiso 1 1 calc R . .
C4 C 0.7286(3) -0.0161(2) -0.0386(2) 0.0616(18) Uani 1 1 d . . .
C5 C 0.7068(6) 0.0181(4) -0.0025(4) 0.128(4) Uani 1 1 d U . .
H5 H 0.6788 0.0062 0.0227 0.153 Uiso 1 1 calc R . .
C6 C 0.7289(7) 0.0745(4) -0.0049(4) 0.125(4) Uani 1 1 d U . .
H6 H 0.7106 0.1019 0.0143 0.150 Uiso 1 1 calc R . .
C7 C 0.7768(5) 0.0822(4) -0.0366(5) 0.108(3) Uani 1 1 d U . .
C8 C 0.7961(4) 0.0512(5) -0.0727(4) 0.099(3) Uani 1 1 d . . .
H8 H 0.8249 0.0631 -0.0973 0.119 Uiso 1 1 calc R . .
C9 C 0.7717(3) 0.0004(3) -0.0722(2) 0.066(2) Uani 1 1 d . . .
H9 H 0.7859 -0.0238 -0.0964 0.079 Uiso 1 1 calc R . .
C10 C 0.8488(3) 0.1637(2) -0.0196(2) 0.0469(14) Uani 1 1 d . . .
H10 H 0.8749 0.1427 0.0014 0.056 Uiso 1 1 calc R . .
C11 C 0.8555(6) 0.2081(3) -0.0814(5) 0.137(4) Uani 1 1 d . . .
H11 H 0.8724 0.2330 -0.1040 0.164 Uiso 1 1 calc R . .
C12 C 0.8200(5) 0.1652(5) -0.0930(4) 0.135(4) Uani 1 1 d . . .
H12 H 0.8080 0.1520 -0.1240 0.161 Uiso 1 1 calc R . .
C13 C 0.2532(2) 0.0376(2) 0.24904(19) 0.0399(12) Uani 1 1 d . . .
C14 C 0.2771(3) -0.0086(2) 0.21732(18) 0.0407(13) Uani 1 1 d . . .
H14A H 0.2916 -0.0381 0.2384 0.049 Uiso 1 1 calc R . .
H14B H 0.2410 -0.0215 0.1966 0.049 Uiso 1 1 calc R . .
C15 C 0.3595(3) -0.0297(2) 0.1575(2) 0.0450(13) Uani 1 1 d . . .
C16 C 0.4156(3) -0.0148(3) 0.1306(2) 0.0542(16) Uani 1 1 d . . .
H16 H 0.4321 0.0201 0.1335 0.065 Uiso 1 1 calc R . .
C17 C 0.4455(3) -0.0492(2) 0.1013(2) 0.0566(16) Uani 1 1 d . . .
H17 H 0.4835 -0.0380 0.0845 0.068 Uiso 1 1 calc R . .
C18 C 0.4243(3) -0.0990(2) 0.0944(2) 0.0496(14) Uani 1 1 d . . .
C19 C 0.3697(3) -0.1159(2) 0.1217(2) 0.0475(14) Uani 1 1 d . . .
H19 H 0.3553 -0.1515 0.1189 0.057 Uiso 1 1 calc R . .
C20 C 0.3361(3) -0.0811(2) 0.1530(2) 0.0484(14) Uani 1 1 d . . .
H20 H 0.2987 -0.0924 0.1704 0.058 Uiso 1 1 calc R . .
C21 C 0.4578(3) -0.1398(2) 0.06104(19) 0.0393(12) Uani 1 1 d . . .
C22 C 0.3076(3) 0.0564(2) 0.28207(18) 0.0459(14) Uani 1 1 d . . .
H22A H 0.3230 0.0268 0.3027 0.055 Uiso 1 1 calc R . .
H22B H 0.3446 0.0694 0.2624 0.055 Uiso 1 1 calc R . .
C23 C 0.3220(3) 0.1266(3) 0.3414(2) 0.0586(16) Uani 1 1 d . . .
C24 C 0.2913(4) 0.1687(3) 0.3688(3) 0.081(2) Uani 1 1 d . . .
H24 H 0.2457 0.1735 0.3661 0.097 Uiso 1 1 calc R . .
C25 C 0.3277(4) 0.2034(3) 0.3997(3) 0.096(3) Uani 1 1 d . . .
H25 H 0.3066 0.2306 0.4174 0.115 Uiso 1 1 calc R . .
C26 C 0.3946(3) 0.1963(2) 0.4032(2) 0.0549(16) Uani 1 1 d . . .
C27 C 0.4301(3) 0.1565(3) 0.3741(2) 0.0582(16) Uani 1 1 d . . .
H27 H 0.4762 0.1546 0.3735 0.070 Uiso 1 1 calc R . .
C28 C 0.3900(3) 0.1208(2) 0.3466(2) 0.0519(15) Uani 1 1 d . . .
H28 H 0.4104 0.0917 0.3311 0.062 Uiso 1 1 calc R . .
C29 C 0.4368(3) 0.2346(3) 0.4368(2) 0.0528(16) Uani 1 1 d . . .
C30 C 0.1952(3) 0.0144(2) 0.2821(2) 0.0469(14) Uani 1 1 d . . .
H30A H 0.1768 0.0425 0.3030 0.056 Uiso 1 1 calc R . .
H30B H 0.1601 0.0000 0.2613 0.056 Uiso 1 1 calc R . .
C31 C 0.1796(3) -0.0577(2) 0.3381(2) 0.0482(14) Uani 1 1 d . . .
C32 C 0.2053(4) -0.1042(3) 0.3587(3) 0.074(2) Uani 1 1 d . . .
H32 H 0.2495 -0.1131 0.3525 0.089 Uiso 1 1 calc R . .
C33 C 0.1695(3) -0.1365(3) 0.3869(2) 0.0596(18) Uani 1 1 d . . .
H33 H 0.1884 -0.1681 0.3992 0.072 Uiso 1 1 calc R . .
C34 C 0.1063(3) -0.1246(2) 0.39815(19) 0.0444(13) Uani 1 1 d . . .
C35 C 0.0795(3) -0.0779(2) 0.3785(2) 0.0519(15) Uani 1 1 d . . .
H35 H 0.0360 -0.0683 0.3862 0.062 Uiso 1 1 calc R . .
C36 C 0.1170(3) -0.0452(3) 0.3474(2) 0.0593(17) Uani 1 1 d . . .
H36 H 0.0981 -0.0147 0.3332 0.071 Uiso 1 1 calc R . .
C37 C 0.0685(3) -0.1582(2) 0.4311(2) 0.0586(17) Uani 1 1 d . . .
C38 C 0.2293(3) 0.0855(2) 0.2176(2) 0.0543(16) Uani 1 1 d . . .
H38A H 0.2165 0.1155 0.2388 0.065 Uiso 1 1 calc R . .
H38B H 0.2642 0.0975 0.1954 0.065 Uiso 1 1 calc R . .
C39 C 0.1430(3) 0.1045(2) 0.16035(19) 0.0423(13) Uani 1 1 d . . .
C40 C 0.1682(3) 0.1572(2) 0.1545(2) 0.0586(17) Uani 1 1 d . . .
H40 H 0.2062 0.1676 0.1716 0.070 Uiso 1 1 calc R . .
C41 C 0.1372(3) 0.1934(2) 0.1239(2) 0.0507(15) Uani 1 1 d . . .
H41 H 0.1544 0.2280 0.1202 0.061 Uiso 1 1 calc R . .
C42 C 0.0769(3) 0.1777(2) 0.09679(19) 0.0426(13) Uani 1 1 d . . .
C43 C 0.0536(3) 0.1259(2) 0.1053(2) 0.0548(16) Uani 1 1 d . . .
H43 H 0.0148 0.1155 0.0892 0.066 Uiso 1 1 calc R . .
C44 C 0.0841(3) 0.0882(2) 0.1363(2) 0.0528(16) Uani 1 1 d . . .
H44 H 0.0664 0.0539 0.1409 0.063 Uiso 1 1 calc R . .
C45 C 0.0475(3) 0.2153(3) 0.0642(2) 0.0566(16) Uani 1 1 d . . .

loop_
_atom_site_aniso_label
_atom_site_aniso_U_11
_atom_site_aniso_U_22
_atom_site_aniso_U_33
_atom_site_aniso_U_23
_atom_site_aniso_U_13
_atom_site_aniso_U_12
Co1 0.0399(4) 0.0334(4) 0.0558(5) 0.0003(3) 0.0052(3) -0.0097(3)
Co2 0.0359(4) 0.0319(4) 0.0433(4) 0.0024(3) 0.0039(3) -0.0077(3)
O1 0.048(2) 0.049(2) 0.043(2) -0.0092(18) 0.0004(17) -0.0115(18)
O2 0.090(4) 0.050(3) 0.077(3) -0.026(2) 0.001(3) 0.017(2)
O3 0.052(2) 0.033(2) 0.055(2) -0.0084(18) 0.0076(18) 0.0007(17)
O4 0.048(2) 0.089(4) 0.070(3) -0.014(3) -0.017(2) -0.002(2)
O5 0.113(4) 0.051(3) 0.134(5) -0.020(3) -0.082(4) 0.016(3)
O6 0.073(3) 0.065(3) 0.034(2) 0.0064(18) -0.0136(19) -0.023(2)
O7 0.053(2) 0.091(4) 0.076(3) 0.052(3) 0.009(2) 0.033(2)
O8 0.064(3) 0.054(2) 0.0312(18) 0.0043(17) -0.0128(17) 0.017(2)
O9 0.042(2) 0.043(2) 0.084(3) 0.015(2) -0.010(2) 0.0067(18)
O10 0.065(3) 0.037(2) 0.054(2) 0.0083(18) -0.026(2) -0.0070(19)
O11 0.055(2) 0.044(2) 0.044(2) -0.0058(17) -0.0294(18) -0.0105(18)
O12 0.068(3) 0.041(2) 0.063(3) 0.008(2) -0.011(2) -0.016(2)
N1 0.059(4) 0.047(3) 0.115(5) -0.035(3) 0.020(3) -0.020(3)
N2 0.050(3) 0.057(4) 0.125(5) -0.051(4) 0.033(3) -0.021(3)
N3 0.059(3) 0.052(3) 0.076(4) 0.006(3) -0.021(3) -0.027(3)
N4 0.160(6) 0.128(6) 0.132(6) 0.049(5) -0.088(5) -0.113(5)
C1 0.064(4) 0.053(4) 0.079(5) -0.012(3) 0.020(4) -0.019(3)
C2 0.042(4) 0.049(4) 0.165(8) -0.009(5) 0.016(4) -0.023(3)
C3 0.041(4) 0.070(5) 0.143(7) -0.030(5) 0.044(4) -0.036(3)
C4 0.081(4) 0.036(3) 0.068(4) -0.023(3) 0.021(4) -0.040(3)
C5 0.183(8) 0.087(6) 0.113(6) 0.013(5) 0.065(6) -0.045(6)
C6 0.208(9) 0.067(5) 0.100(6) -0.002(4) 0.017(6) -0.053(6)
C7 0.084(5) 0.113(6) 0.125(7) 0.016(6) -0.039(5) -0.067(5)
C8 0.061(5) 0.136(8) 0.101(7) 0.085(6) -0.019(5) -0.046(5)
C9 0.051(4) 0.108(6) 0.040(3) -0.001(4) -0.006(3) -0.021(4)
C10 0.030(3) 0.032(3) 0.079(4) -0.012(3) -0.012(3) -0.003(2)
C11 0.185(11) 0.053(5) 0.172(10) -0.001(6) -0.083(9) -0.028(6)
C12 0.097(7) 0.189(12) 0.119(8) 0.012(8) -0.018(6) -0.077(7)
C13 0.033(3) 0.037(3) 0.050(3) 0.004(3) -0.007(2) 0.002(2)
C14 0.046(3) 0.043(3) 0.033(3) 0.000(2) -0.007(2) -0.015(3)
C15 0.050(3) 0.042(3) 0.043(3) -0.003(3) -0.011(3) -0.005(3)
C16 0.049(3) 0.061(4) 0.053(3) -0.021(3) 0.008(3) -0.029(3)
C17 0.067(4) 0.042(3) 0.061(4) -0.011(3) 0.022(3) -0.014(3)
C18 0.039(3) 0.044(3) 0.067(4) 0.004(3) 0.007(3) -0.005(3)
C19 0.053(3) 0.037(3) 0.052(3) -0.001(3) 0.009(3) -0.009(3)
C20 0.062(4) 0.036(3) 0.047(3) 0.004(3) 0.006(3) 0.006(3)
C21 0.031(3) 0.050(4) 0.037(3) 0.007(3) 0.001(2) -0.002(2)
C22 0.049(3) 0.057(4) 0.032(3) -0.001(3) -0.012(2) 0.002(3)
C23 0.051(4) 0.060(4) 0.065(4) 0.000(3) -0.017(3) 0.005(3)
C24 0.078(5) 0.081(5) 0.084(5) -0.027(4) -0.016(4) 0.016(4)
C25 0.098(6) 0.089(6) 0.100(6) -0.040(5) -0.054(5) 0.061(5)
C26 0.051(3) 0.040(3) 0.074(4) 0.001(3) -0.026(3) -0.003(3)
C27 0.064(4) 0.053(4) 0.058(4) 0.016(3) -0.012(3) -0.001(3)
C28 0.036(3) 0.049(4) 0.071(4) 0.010(3) -0.019(3) -0.004(3)
C29 0.042(4) 0.056(4) 0.060(4) 0.026(3) -0.024(3) -0.015(3)
C30 0.039(3) 0.044(3) 0.057(3) 0.014(3) -0.011(3) 0.001(2)
C31 0.045(3) 0.049(4) 0.051(3) 0.020(3) -0.012(3) 0.016(3)
C32 0.079(5) 0.074(5) 0.068(4) 0.034(4) -0.006(4) 0.024(4)
C33 0.049(4) 0.074(5) 0.056(4) 0.042(3) 0.004(3) 0.011(3)
C34 0.042(3) 0.052(4) 0.040(3) 0.007(3) -0.010(2) 0.017(3)
C35 0.047(3) 0.053(4) 0.056(4) 0.016(3) -0.004(3) -0.011(3)
C36 0.060(4) 0.057(4) 0.061(4) 0.043(3) -0.009(3) 0.001(3)
C37 0.077(5) 0.038(3) 0.061(4) 0.016(3) -0.014(3) 0.014(3)
C38 0.040(3) 0.039(3) 0.084(4) -0.004(3) -0.014(3) -0.002(3)
C39 0.051(3) 0.037(3) 0.039(3) 0.004(2) -0.025(2) -0.004(2)
C40 0.054(4) 0.063(4) 0.059(4) 0.017(3) -0.022(3) -0.036(3)
C41 0.043(3) 0.031(3) 0.078(4) 0.019(3) -0.009(3) -0.001(2)
C42 0.049(3) 0.045(3) 0.034(3) 0.005(2) -0.004(2) -0.010(3)
C43 0.041(3) 0.050(4) 0.074(4) 0.008(3) -0.019(3) 0.001(3)
C44 0.057(4) 0.030(3) 0.072(4) 0.001(3) -0.034(3) -0.005(3)
C45 0.055(4) 0.047(4) 0.068(4) 0.008(3) -0.008(3) 0.010(3)

_geom_special_details            
;
All esds (except the esd in the dihedral angle between two l.s. planes)
are estimated using the full covariance matrix. The cell esds are taken
into account individually in the estimation of esds in distances, angles
and torsion angles; correlations between esds in cell parameters are only
used when they are defined by crystal symmetry. An approximate (isotropic)
treatment of cell esds is used for estimating esds involving l.s. planes.
;

loop_
_geom_bond_atom_site_label_1
_geom_bond_atom_site_label_2
_geom_bond_distance
_geom_bond_site_symmetry_2
_geom_bond_publ_flag
Co1 O9 1.952(4) 7_655 ?
Co1 O12 2.009(4) 6_655 ?
Co1 O5 2.028(5) 4_645 ?
Co1 N1 2.052(5) . ?
Co1 O2 2.073(4) . ?
Co1 Co2 2.7292(10) . ?
Co2 O11 1.972(4) 6_655 ?
Co2 O8 2.001(4) 7_655 ?
Co2 N3 2.035(5) 6 ?
Co2 O3 2.074(4) . ?
Co2 O6 2.088(4) 4_645 ?
O1 C15 1.358(6) . ?
O1 C14 1.435(6) . ?
O2 C21 1.302(7) . ?
O3 C21 1.229(6) . ?
O4 C23 1.312(7) . ?
O4 C22 1.432(7) . ?
O5 C29 1.190(8) . ?
O5 Co1 2.028(5) 4_655 ?
O6 C29 1.268(7) . ?
O6 Co2 2.088(4) 4_655 ?
O7 C31 1.371(7) . ?
O7 C30 1.392(6) . ?
O8 C37 1.295(6) . ?
O8 Co2 2.001(4) 7_656 ?
O9 C37 1.360(7) . ?
O9 Co1 1.952(4) 7_656 ?
O10 C39 1.381(6) . ?
O10 C38 1.427(6) . ?
O11 C45 1.328(7) . ?
O11 Co2 1.972(4) 6_