####################################################################### 
# 
# This file contains crystal structure data downloaded from the 
# Cambridge Structural Database (CSD) hosted by the Cambridge 
# Crystallographic Data Centre (CCDC).
# 
# Full information about CCDC data access policies and citation 
# guidelines are available at http://www.ccdc.cam.ac.uk/access/V1 
# 
# Audit and citation data items may have been added by the CCDC. 
# Please retain this information to preserve the provenance of 
# this file and to allow appropriate attribution of the data. 
# 
#######################################################################

data_3
_audit_block_doi                 10.5517/ccznxl3
_database_code_depnum_ccdc_archive 'CCDC 913836'
loop_
_citation_id
_citation_doi
_citation_year
1 10.1021/cg301094h 2012
_audit_update_record             
;
2012-12-05 deposited with the CCDC.	2024-07-12 downloaded from the CCDC.
;

_audit_creation_method           SHELXL-97
_chemical_name_systematic        
;
?
;
_chemical_name_common            ?
_chemical_melting_point          ?
_chemical_formula_moiety         ?
_chemical_formula_sum            'C102 H76 Co4 N8 O24'
_chemical_formula_weight         2033.43

loop_
_atom_type_symbol
_atom_type_description
_atom_type_scat_dispersion_real
_atom_type_scat_dispersion_imag
_atom_type_scat_source
C C 0.0033 0.0016 'International Tables Vol C Tables 4.2.6.8 and 6.1.1.4'
H H 0.0000 0.0000 'International Tables Vol C Tables 4.2.6.8 and 6.1.1.4'
N N 0.0061 0.0033 'International Tables Vol C Tables 4.2.6.8 and 6.1.1.4'
O O 0.0106 0.0060 'International Tables Vol C Tables 4.2.6.8 and 6.1.1.4'
Co Co 0.3494 0.9721 'International Tables Vol C Tables 4.2.6.8 and 6.1.1.4'

_symmetry_cell_setting           Monoclinic
_symmetry_space_group_name_H-M   C2/c

loop_
_symmetry_equiv_pos_as_xyz
'x, y, z'
'-x, y, -z+1/2'
'x+1/2, y+1/2, z'
'-x+1/2, y+1/2, -z+1/2'
'-x, -y, -z'
'x, -y, z-1/2'
'-x+1/2, -y+1/2, -z'
'x+1/2, -y+1/2, z-1/2'

_cell_length_a                   20.930(2)
_cell_length_b                   52.180(5)
_cell_length_c                   30.679(3)
_cell_angle_alpha                90.00
_cell_angle_beta                 104.625(2)
_cell_angle_gamma                90.00
_cell_volume                     32419(5)
_cell_formula_units_Z            8
_cell_measurement_temperature    273(2)
_cell_measurement_reflns_used    4167
_cell_measurement_theta_min      4.536
_cell_measurement_theta_max      44.546

_exptl_crystal_description       bolock
_exptl_crystal_colour            purple
_exptl_crystal_size_max          0.3
_exptl_crystal_size_mid          0.25
_exptl_crystal_size_min          0.2
_exptl_crystal_density_meas      ?
_exptl_crystal_density_diffrn    0.833
_exptl_crystal_density_method    'not measured'
_exptl_crystal_F_000             8352
_exptl_absorpt_coefficient_mu    0.449
_exptl_absorpt_correction_type   multi-scan
_exptl_absorpt_correction_T_min  0.874
_exptl_absorpt_correction_T_max  0.914
_exptl_absorpt_process_details   sadabs

_exptl_special_details           
;
?
;

_diffrn_ambient_temperature      273(2)
_diffrn_radiation_wavelength     0.71073
_diffrn_radiation_type           MoK\a
_diffrn_radiation_source         'fine-focus sealed tube'
_diffrn_radiation_monochromator  graphite
_diffrn_measurement_device_type  ?
_diffrn_measurement_method       ?
_diffrn_detector_area_resol_mean ?
_diffrn_standards_number         ?
_diffrn_standards_interval_count ?
_diffrn_standards_interval_time  ?
_diffrn_standards_decay_%        ?
_diffrn_reflns_number            89149
_diffrn_reflns_av_R_equivalents  0.0744
_diffrn_reflns_av_sigmaI/netI    0.1518
_diffrn_reflns_limit_h_min       -25
_diffrn_reflns_limit_h_max       25
_diffrn_reflns_limit_k_min       -64
_diffrn_reflns_limit_k_max       59
_diffrn_reflns_limit_l_min       -37
_diffrn_reflns_limit_l_max       27
_diffrn_reflns_theta_min         1.04
_diffrn_reflns_theta_max         25.97
_reflns_number_total             31625
_reflns_number_gt                8162
_reflns_threshold_expression     >2sigma(I)

_computing_data_collection       'Bruker SMART'
_computing_cell_refinement       'Bruker SMART'
_computing_data_reduction        'Bruker SAINT'
_computing_structure_solution    'SHELXS-97 (Sheldrick, 1990)'
_computing_structure_refinement  'SHELXL-97 (Sheldrick, 1997)'
_computing_molecular_graphics    'Bruker SHELXTL'
_computing_publication_material  'Bruker SHELXTL'

_refine_special_details          
;
Refinement of F^2^ against ALL reflections. The weighted R-factor wR and
goodness of fit S are based on F^2^, conventional R-factors R are based
on F, with F set to zero for negative F^2^. The threshold expression of
F^2^ > 2sigma(F^2^) is used only for calculating R-factors(gt) etc. and is
not relevant to the choice of reflections for refinement. R-factors based
on F^2^ are statistically about twice as large as those based on F, and R-
factors based on ALL data will be even larger.
;

_refine_ls_structure_factor_coef Fsqd
_refine_ls_matrix_type           full
_refine_ls_weighting_scheme      calc
_refine_ls_weighting_details     
'calc w=1/[\s^2^(Fo^2^)+(0.0048P)^2^+0.0000P] where P=(Fo^2^+2Fc^2^)/3'
_atom_sites_solution_primary     direct
_atom_sites_solution_secondary   difmap
_atom_sites_solution_hydrogens   geom
_refine_ls_hydrogen_treatment    constr
_refine_ls_extinction_method     none
_refine_ls_extinction_coef       ?
_refine_ls_number_reflns         31625
_refine_ls_number_parameters     1234
_refine_ls_number_restraints     0
_refine_ls_R_factor_all          0.1641
_refine_ls_R_factor_gt           0.0495
_refine_ls_wR_factor_ref         0.1036
_refine_ls_wR_factor_gt          0.0954
_refine_ls_goodness_of_fit_ref   0.959
_refine_ls_restrained_S_all      0.959
_refine_ls_shift/su_max          0.104
_refine_ls_shift/su_mean         0.007

loop_
_atom_site_label
_atom_site_type_symbol
_atom_site_fract_x
_atom_site_fract_y
_atom_site_fract_z
_atom_site_U_iso_or_equiv
_atom_site_adp_type
_atom_site_occupancy
_atom_site_symmetry_multiplicity
_atom_site_calc_flag
_atom_site_refinement_flags
_atom_site_disorder_assembly
_atom_site_disorder_group
Co1 Co 0.43824(4) 0.136419(17) 0.51529(2) 0.0302(2) Uani 1 1 d . . .
Co2 Co 0.31379(4) 0.113816(17) 0.48965(2) 0.0302(2) Uani 1 1 d . . .
Co3 Co 0.06255(5) 0.136604(17) -0.01119(2) 0.0327(3) Uani 1 1 d . . .
Co4 Co 0.18690(5) 0.112920(17) 0.01368(3) 0.0342(3) Uani 1 1 d . . .
O1 O 0.2509(3) 0.29907(9) 0.29970(15) 0.0637(15) Uani 1 1 d . . .
O2 O 0.2683(3) 0.30000(9) 0.20364(16) 0.0652(16) Uani 1 1 d . . .
O3 O 0.2527(2) 0.23120(9) 0.30065(14) 0.0558(15) Uani 1 1 d . . .
O4 O 0.2631(3) 0.23360(8) 0.19566(15) 0.0566(15) Uani 1 1 d . . .
O5 O 0.1105(2) 0.16360(8) 0.03215(13) 0.0432(13) Uani 1 1 d . . .
O6 O 0.2114(2) 0.14550(8) 0.05056(13) 0.0440(13) Uani 1 1 d . . .
O7 O 0.2904(2) 0.14371(8) 0.44694(13) 0.0481(13) Uani 1 1 d . . .
O8 O 0.3904(2) 0.16191(8) 0.46806(14) 0.0472(14) Uani 1 1 d . . .
O9 O 0.1353(3) 0.08635(8) -0.03036(14) 0.0482(14) Uani 1 1 d . . .
O10 O 0.0360(2) 0.10430(8) -0.04930(14) 0.0442(13) Uani 1 1 d . . .
O11 O -0.0080(3) 0.01787(9) -0.19711(14) 0.0544(14) Uani 1 1 d . . .
O12 O 0.0128(3) -0.04862(10) -0.29912(18) 0.0848(19) Uani 1 1 d . . .
O13 O 0.4198(3) 0.34394(9) 0.06448(15) 0.0651(16) Uani 1 1 d . . .
O14 O 0.3200(3) 0.36324(9) 0.04201(13) 0.0626(16) Uani 1 1 d . . .
O15 O 0.1700(2) -0.09403(9) -0.43326(14) 0.0531(14) Uani 1 1 d . . .
O16 O 0.0715(3) -0.11269(9) -0.45530(14) 0.0622(16) Uani 1 1 d . . .
O17 O 0.1074(2) 0.34775(9) 0.43867(14) 0.0527(14) Uani 1 1 d . . .
O18 O 0.2080(2) 0.36544(8) 0.45983(13) 0.0439(12) Uani 1 1 d . . .
O19 O 0.5390(2) -0.11626(8) 0.53479(13) 0.0469(12) Uani 1 1 d . . .
O20 O 0.6403(2) -0.09812(8) 0.55586(13) 0.0450(13) Uani 1 1 d . . .
O21 O 0.3623(3) 0.08805(8) 0.53781(15) 0.0535(15) Uani 1 1 d . . .
O22 O 0.4618(2) 0.10618(8) 0.55707(14) 0.0466(14) Uani 1 1 d . . .
O23 O 0.5033(3) 0.01606(9) 0.69904(15) 0.0600(15) Uani 1 1 d . . .
O24 O 0.5075(3) -0.05205(9) 0.70156(16) 0.0771(18) Uani 1 1 d . . .
N1 N 0.2801(2) 0.10128(9) 0.01183(14) 0.0385(12) Uani 1 1 d . . .
N2 N 0.3645(2) 0.07755(9) 0.00620(16) 0.0494(14) Uani 1 1 d . . .
N3 N 0.5205(2) 0.15866(9) 0.54065(15) 0.0463(14) Uani 1 1 d . . .
N4 N 0.5966(2) 0.18831(10) 0.54599(16) 0.0539(15) Uani 1 1 d . . .
N5 N 0.2327(2) 0.09134(9) 0.46455(15) 0.0436(14) Uani 1 1 d . . .
N6 N 0.1566(3) 0.06162(10) 0.45839(16) 0.0567(15) Uani 1 1 d . . .
N7 N -0.0309(2) 0.14825(9) -0.01046(15) 0.0394(13) Uani 1 1 d . . .
N8 N -0.1140(3) 0.17230(10) -0.00578(19) 0.0631(16) Uani 1 1 d . . .
C1 C 0.0000 -0.01488(18) -0.2500 0.043(3) Uani 1 2 d S . .
C2 C 0.0395(4) 0.00193(13) -0.2123(2) 0.051(2) Uani 1 1 d . . .
H2A H 0.0643 -0.0086 -0.1877 0.061 Uiso 1 1 calc R . .
H2B H 0.0702 0.0126 -0.2231 0.061 Uiso 1 1 calc R . .
C3 C 0.0160(4) 0.03388(14) -0.1599(2) 0.048(2) Uani 1 1 d . . .
C4 C 0.0830(4) 0.03421(13) -0.1367(2) 0.055(2) Uani 1 1 d . . .
H4A H 0.1144 0.0240 -0.1450 0.066 Uiso 1 1 calc R . .
C5 C 0.0989(4) 0.05113(13) -0.1000(2) 0.049(2) Uani 1 1 d . . .
H5A H 0.1420 0.0514 -0.0821 0.058 Uiso 1 1 calc R . .
C6 C 0.0539(4) 0.06716(12) -0.0896(2) 0.041(2) Uani 1 1 d . . .
C7 C -0.0114(4) 0.06651(13) -0.1142(2) 0.048(2) Uani 1 1 d . . .
H7A H -0.0419 0.0776 -0.1069 0.058 Uiso 1 1 calc R . .
C8 C -0.0317(4) 0.04940(13) -0.1494(2) 0.050(2) Uani 1 1 d . . .
H8A H -0.0757 0.0484 -0.1655 0.060 Uiso 1 1 calc R . .
C9 C 0.0751(4) 0.08748(15) -0.0536(2) 0.043(2) Uani 1 1 d . . .
C10 C 0.0509(4) -0.03094(12) -0.2657(2) 0.056(2) Uani 1 1 d . . .
H10A H 0.0786 -0.0201 -0.2790 0.068 Uiso 1 1 calc R . .
H10B H 0.0787 -0.0403 -0.2407 0.068 Uiso 1 1 calc R . .
C11 C 0.0417(4) -0.06027(14) -0.3286(2) 0.048(2) Uani 1 1 d . . .
C12 C 0.1076(4) -0.05958(12) -0.3260(2) 0.052(2) Uani 1 1 d . . .
H12A H 0.1361 -0.0507 -0.3027 0.062 Uiso 1 1 calc R . .
C13 C 0.1318(4) -0.07210(12) -0.3582(2) 0.051(2) Uani 1 1 d . . .
H13A H 0.1769 -0.0718 -0.3561 0.061 Uiso 1 1 calc R . .
C14 C 0.0900(4) -0.08515(14) -0.3936(2) 0.048(2) Uani 1 1 d . . .
C15 C 0.0237(4) -0.08612(14) -0.3953(2) 0.073(3) Uani 1 1 d . . .
H15A H -0.0048 -0.0947 -0.4189 0.088 Uiso 1 1 calc R . .
C16 C -0.0013(4) -0.07461(15) -0.3625(3) 0.084(3) Uani 1 1 d . . .
H16A H -0.0456 -0.0763 -0.3629 0.101 Uiso 1 1 calc R . .
C17 C 0.1133(4) -0.09809(13) -0.4297(2) 0.046(2) Uani 1 1 d . . .
C18 C 0.1927(4) 0.18241(13) 0.0897(2) 0.0371(18) Uani 1 1 d . . .
C19 C 0.1504(4) 0.19993(12) 0.1009(2) 0.0368(18) Uani 1 1 d . . .
H19A H 0.1066 0.2000 0.0842 0.044 Uiso 1 1 calc R . .
C20 C 0.1692(3) 0.21710(12) 0.1349(2) 0.0353(17) Uani 1 1 d . . .
H20A H 0.1384 0.2282 0.1418 0.042 Uiso 1 1 calc R . .
C21 C 0.2343(4) 0.21794(12) 0.1592(2) 0.048(2) Uani 1 1 d . . .
C22 C 0.2811(4) 0.20118(14) 0.1475(2) 0.054(2) Uani 1 1 d . . .
H22A H 0.3252 0.2018 0.1634 0.065 Uiso 1 1 calc R . .
C23 C 0.2603(4) 0.18400(12) 0.1122(2) 0.050(2) Uani 1 1 d . . .
H23A H 0.2909 0.1736 0.1035 0.059 Uiso 1 1 calc R . .
C24 C 0.2182(3) 0.24966(12) 0.21112(19) 0.0433(19) Uani 1 1 d . . .
H24A H 0.1860 0.2394 0.2211 0.052 Uiso 1 1 calc R . .
H24B H 0.1950 0.2609 0.1872 0.052 Uiso 1 1 calc R . .
C25 C 0.2592(3) 0.26515(14) 0.24991(19) 0.046(2) Uani 1 1 d . . .
C26 C 0.2116(4) 0.28204(12) 0.2685(2) 0.048(2) Uani 1 1 d . . .
H26A H 0.1824 0.2915 0.2443 0.058 Uiso 1 1 calc R . .
H26B H 0.1850 0.2715 0.2832 0.058 Uiso 1 1 calc R . .
C27 C 0.2993(4) 0.24802(13) 0.2877(2) 0.057(2) Uani 1 1 d . . .
H27A H 0.3317 0.2382 0.2770 0.068 Uiso 1 1 calc R . .
H27B H 0.3223 0.2584 0.3131 0.068 Uiso 1 1 calc R . .
C28 C 0.3077(4) 0.28209(13) 0.2339(2) 0.054(2) Uani 1 1 d . . .
H28A H 0.3368 0.2909 0.2591 0.065 Uiso 1 1 calc R . .
H28B H 0.3344 0.2720 0.2186 0.065 Uiso 1 1 calc R . .
C29 C 0.2778(4) 0.21540(13) 0.3364(2) 0.053(2) Uani 1 1 d . . .
C30 C 0.3391(4) 0.21564(13) 0.3651(2) 0.056(2) Uani 1 1 d . . .
H30A H 0.3695 0.2279 0.3611 0.067 Uiso 1 1 calc R . .
C31 C 0.3575(4) 0.19846(13) 0.3996(2) 0.050(2) Uani 1 1 d . . .
H31A H 0.3999 0.1990 0.4185 0.060 Uiso 1 1 calc R . .
C32 C 0.3126(4) 0.18002(12) 0.4064(2) 0.0360(18) Uani 1 1 d . . .
C33 C 0.2490(4) 0.18026(14) 0.3787(2) 0.058(2) Uani 1 1 d . . .
H33A H 0.2181 0.1686 0.3840 0.069 Uiso 1 1 calc R . .
C34 C 0.2308(4) 0.19715(13) 0.3439(2) 0.055(2) Uani 1 1 d . . .
H34A H 0.1882 0.1968 0.3251 0.066 Uiso 1 1 calc R . .
C35 C 0.3348(4) 0.16069(12) 0.4438(2) 0.0360(18) Uani 1 1 d . . .
C36 C 0.1686(4) 0.16265(11) 0.0538(2) 0.0328(17) Uani 1 1 d . . .
C37 C 0.2240(4) 0.31115(14) 0.3294(2) 0.054(2) Uani 1 1 d . . .
C38 C 0.2673(5) 0.32544(19) 0.3601(3) 0.120(4) Uani 1 1 d . . .
H38A H 0.3113 0.3261 0.3588 0.144 Uiso 1 1 calc R . .
C39 C 0.1603(4) 0.31083(16) 0.3322(3) 0.082(3) Uani 1 1 d . . .
H39A H 0.1288 0.3019 0.3108 0.098 Uiso 1 1 calc R . .
C40 C 0.2981(5) 0.31135(14) 0.1736(2) 0.061(3) Uani 1 1 d . . .
C41 C 0.3634(4) 0.31081(16) 0.1732(2) 0.074(3) Uani 1 1 d . . .
H41A H 0.3939 0.3024 0.1960 0.089 Uiso 1 1 calc R . .
C42 C 0.3840(4) 0.32269(14) 0.1391(2) 0.060(2) Uani 1 1 d . . .
H42A H 0.4284 0.3221 0.1392 0.072 Uiso 1 1 calc R . .
C43 C 0.3406(4) 0.33530(12) 0.1053(2) 0.048(2) Uani 1 1 d . . .
C44 C 0.2731(4) 0.33739(16) 0.1066(2) 0.077(3) Uani 1 1 d . . .
H44A H 0.2429 0.3470 0.0854 0.092 Uiso 1 1 calc R . .
C45 C 0.2546(4) 0.32428(15) 0.1416(3) 0.079(3) Uani 1 1 d . . .
H45A H 0.2106 0.3246 0.1426 0.095 Uiso 1 1 calc R . .
C46 C 0.3028(3) 0.07777(12) 0.0108(2) 0.0439(19) Uani 1 1 d . . .
H46A H 0.2787 0.0631 0.0131 0.053 Uiso 1 1 calc R . .
C47 C 0.3287(3) 0.11690(12) 0.0080(2) 0.069(2) Uani 1 1 d . . .
H47A H 0.3269 0.1347 0.0081 0.082 Uiso 1 1 calc R . .
C48 C 0.3822(3) 0.10257(12) 0.0040(3) 0.090(3) Uani 1 1 d . . .
H48A H 0.4223 0.1087 0.0005 0.108 Uiso 1 1 calc R . .
C49 C 0.4041(4) 0.05511(14) 0.0040(3) 0.064(2) Uani 1 1 d . . .
C50 C 0.4011(4) 0.03504(14) 0.0322(3) 0.086(3) Uani 1 1 d . . .
H50A H 0.3747 0.0360 0.0524 0.103 Uiso 1 1 calc R . .
C51 C 0.4393(4) 0.01285(14) 0.0300(3) 0.098(3) Uani 1 1 d . . .
H51A H 0.4355 -0.0011 0.0479 0.118 Uiso 1 1 calc R . .
C52 C 0.4481(4) 0.05569(14) -0.0203(3) 0.137(4) Uani 1 1 d . . .
H52A H 0.4544 0.0704 -0.0357 0.164 Uiso 1 1 calc R . .
C53 C 0.1635(4) 0.35077(14) 0.4348(2) 0.0419(19) Uani 1 1 d . . .
C54 C 0.1841(3) 0.33711(13) 0.3977(2) 0.0423(19) Uani 1 1 d . . .
C55 C 0.1419(4) 0.32356(14) 0.3661(2) 0.064(2) Uani 1 1 d . . .
H55A H 0.0980 0.3227 0.3672 0.077 Uiso 1 1 calc R . .
C56 C 0.2479(4) 0.33933(17) 0.3937(3) 0.088(3) Uani 1 1 d . . .
H56A H 0.2778 0.3499 0.4131 0.106 Uiso 1 1 calc R . .
C57 C 0.5333(3) 0.16912(13) 0.58295(19) 0.070(2) Uani 1 1 d . . .
H57A H 0.5134 0.1642 0.6055 0.084 Uiso 1 1 calc R . .
C58 C 0.5568(3) 0.17176(13) 0.5184(2) 0.0406(19) Uani 1 1 d . . .
H58A H 0.5549 0.1697 0.4880 0.049 Uiso 1 1 calc R . .
C59 C 0.5798(3) 0.18783(13) 0.58688(19) 0.070(2) Uani 1 1 d . . .
H59A H 0.5968 0.1981 0.6118 0.084 Uiso 1 1 calc R . .
C60 C 0.6412(4) 0.20584(15) 0.5330(2) 0.055(2) Uani 1 1 d . . .
C61 C 0.6707(4) 0.20006(14) 0.5000(3) 0.080(3) Uani 1 1 d . . .
H61A H 0.6621 0.1842 0.4859 0.096 Uiso 1 1 calc R . .
C62 C 0.7130(4) 0.21654(14) 0.4863(2) 0.075(3) Uani 1 1 d . . .
H62A H 0.7319 0.2116 0.4633 0.090 Uiso 1 1 calc R . .
C63 C 0.7276(4) 0.23993(16) 0.5059(3) 0.072(3) Uani 1 1 d . . .
C64 C 0.6967(4) 0.24539(16) 0.5409(3) 0.089(3) Uiso 1 1 d . . .
H64A H 0.7063 0.2610 0.5559 0.107 Uiso 1 1 calc R . .
C65 C 0.6533(4) 0.22906(13) 0.5543(2) 0.097(3) Uani 1 1 d . . .
H65A H 0.6331 0.2337 0.5768 0.116 Uiso 1 1 calc R . .
C66 C 0.5819(4) -0.10184(12) 0.5606(2) 0.0382(18) Uani 1 1 d . . .
C67 C 0.5637(4) -0.08836(11) 0.5985(2) 0.0386(18) Uani 1 1 d . . .
C68 C 0.6113(4) -0.07367(13) 0.6288(2) 0.071(3) Uani 1 1 d . . .
H68A H 0.6536 -0.0724 0.6245 0.085 Uiso 1 1 calc R . .
C69 C 0.5015(4) -0.09060(16) 0.6036(3) 0.091(3) Uani 1 1 d . . .
H69A H 0.4703 -0.1003 0.5833 0.110 Uiso 1 1 calc R . .
C70 C 0.1949(3) 0.07895(12) 0.4857(2) 0.0410(19) Uani 1 1 d . . .
H70A H 0.1945 0.0817 0.5156 0.049 Uiso 1 1 calc R . .
C71 C 0.2170(3) 0.08110(14) 0.4216(2) 0.087(3) Uani 1 1 d . . .
H71A H 0.2358 0.0865 0.3988 0.104 Uiso 1 1 calc R . .
C72 C 0.1722(4) 0.06285(14) 0.4167(2) 0.087(3) Uani 1 1 d . . .
H72A H 0.1548 0.0530 0.3912 0.105 Uiso 1 1 calc R . .
C73 C 0.1084(4) 0.04446(14) 0.4696(2) 0.055(2) Uani 1 1 d . . .
C74 C 0.0831(5) 0.05037(16) 0.5046(3) 0.096(3) Uani 1 1 d . . .
H74A H 0.0950 0.0653 0.5212 0.116 Uiso 1 1 calc R . .
C75 C 0.0369(4) 0.03253(13) 0.5151(3) 0.099(3) Uani 1 1 d . . .
H75A H 0.0159 0.0368 0.5374 0.119 Uiso 1 1 calc R . .
C76 C 0.0224(3) 0.00923(11) 0.4932(2) 0.0437(18) Uani 1 1 d . . .
C77 C 0.0535(4) 0.00397(12) 0.4597(2) 0.087(3) Uani 1 1 d . . .
H77A H 0.0441 -0.0115 0.4443 0.104 Uiso 1 1 calc R . .
C78 C 0.0991(4) 0.02083(15) 0.4475(2) 0.108(3) Uani 1 1 d . . .
H78A H 0.1215 0.0164 0.4260 0.129 Uiso 1 1 calc R . .
C79 C 0.4215(4) 0.08962(14) 0.5615(2) 0.045(2) Uani 1 1 d . . .
C80 C 0.4398(4) 0.06934(13) 0.5966(2) 0.042(2) Uani 1 1 d . . .
C81 C 0.5032(4) 0.06935(13) 0.6241(2) 0.057(2) Uani 1 1 d . . .
H81A H 0.5326 0.0818 0.6193 0.069 Uiso 1 1 calc R . .
C82 C 0.5258(4) 0.05135(14) 0.6594(2) 0.071(3) Uani 1 1 d . . .
H82A H 0.5686 0.0516 0.6778 0.086 Uiso 1 1 calc R . .
C83 C 0.4803(4) 0.03375(14) 0.6645(2) 0.052(2) Uiso 1 1 d . . .
C84 C 0.4145(4) 0.03334(13) 0.6386(2) 0.067(3) Uani 1 1 d . . .
H84A H 0.3839 0.0218 0.6446 0.080 Uiso 1 1 calc R . .
C85 C 0.3973(4) 0.05102(14) 0.6033(2) 0.051(2) Uani 1 1 d . . .
H85A H 0.3553 0.0502 0.5838 0.061 Uiso 1 1 calc R . .
C86 C 0.4579(4) -0.00061(13) 0.7132(2) 0.053(2) Uani 1 1 d . . .
H86A H 0.4337 -0.0110 0.6882 0.063 Uiso 1 1 calc R . .
H86B H 0.4265 0.0092 0.7248 0.063 Uiso 1 1 calc R . .
C87 C 0.5000 -0.01753(18) 0.7500 0.039(3) Uani 1 2 d S . .
C88 C 0.5477(4) -0.03338(12) 0.7315(2) 0.055(2) Uani 1 1 d . . .
H88A H 0.5715 -0.0226 0.7151 0.066 Uiso 1 1 calc R . .
H88B H 0.5794 -0.0419 0.7557 0.066 Uiso 1 1 calc R . .
C89 C 0.5323(5) -0.06293(14) 0.6687(2) 0.058(2) Uani 1 1 d . . .
C90 C 0.5964(4) -0.06110(13) 0.6648(2) 0.063(2) Uani 1 1 d . . .
H90A H 0.6283 -0.0518 0.6854 0.076 Uiso 1 1 calc R . .
C91 C 0.4844(4) -0.07830(16) 0.6391(3) 0.093(3) Uani 1 1 d . . .
H91A H 0.4423 -0.0801 0.643