####################################################################### 
# 
# This file contains crystal structure data downloaded from the 
# Cambridge Structural Database (CSD) hosted by the Cambridge 
# Crystallographic Data Centre (CCDC).
# 
# Full information about CCDC data access policies and citation 
# guidelines are available at http://www.ccdc.cam.ac.uk/access/V1 
# 
# Audit and citation data items may have been added by the CCDC. 
# Please retain this information to preserve the provenance of 
# this file and to allow appropriate attribution of the data. 
# 
#######################################################################

data_2
_audit_block_doi                 10.5517/ccyq9tr
_database_code_depnum_ccdc_archive 'CCDC 885385'
loop_
_citation_id
_citation_doi
_citation_year
1 10.1021/cg3011844 2012
_audit_update_record             
;
2012-06-06 deposited with the CCDC.	2024-07-12 downloaded from the CCDC.
;
#TrackingRef '2.cif'


_audit_creation_method           SHELXL-97
_chemical_name_systematic        
;
?
;
_chemical_name_common            ?
_chemical_melting_point          ?
_chemical_formula_moiety         ?
_chemical_formula_sum            'C82 H112 Mn3 N10 O31'
_chemical_formula_weight         1898.64

loop_
_atom_type_symbol
_atom_type_description
_atom_type_scat_dispersion_real
_atom_type_scat_dispersion_imag
_atom_type_scat_source
C C 0.0033 0.0016 'International Tables Vol C Tables 4.2.6.8 and 6.1.1.4'
H H 0.0000 0.0000 'International Tables Vol C Tables 4.2.6.8 and 6.1.1.4'
N N 0.0061 0.0033 'International Tables Vol C Tables 4.2.6.8 and 6.1.1.4'
O O 0.0106 0.0060 'International Tables Vol C Tables 4.2.6.8 and 6.1.1.4'
Mn Mn 0.3368 0.7283 'International Tables Vol C Tables 4.2.6.8 and 6.1.1.4'

_symmetry_cell_setting           monoclinic
_symmetry_space_group_name_H-M   Cc

loop_
_symmetry_equiv_pos_as_xyz
'x, y, z'
'x, -y, z+1/2'
'x+1/2, y+1/2, z'
'x+1/2, -y+1/2, z+1/2'

_cell_length_a                   26.4180(14)
_cell_length_b                   10.3733(6)
_cell_length_c                   34.2804(18)
_cell_angle_alpha                90.00
_cell_angle_beta                 103.1380(10)
_cell_angle_gamma                90.00
_cell_volume                     9148.4(9)
_cell_formula_units_Z            4
_cell_measurement_temperature    273(2)
_cell_measurement_reflns_used    ?
_cell_measurement_theta_min      ?
_cell_measurement_theta_max      ?

_exptl_crystal_description       brick
_exptl_crystal_colour            colorless
_exptl_crystal_size_max          0.3
_exptl_crystal_size_mid          0.25
_exptl_crystal_size_min          0.2
_exptl_crystal_density_meas      ?
_exptl_crystal_density_diffrn    1.379
_exptl_crystal_density_method    'not measured'
_exptl_crystal_F_000             3988
_exptl_absorpt_coefficient_mu    0.493
_exptl_absorpt_correction_type   ?
_exptl_absorpt_correction_T_min  0.6805
_exptl_absorpt_correction_T_max  0.7453
_exptl_absorpt_process_details   ?

_exptl_special_details           
;
?
;

_diffrn_ambient_temperature      273(2)
_diffrn_radiation_wavelength     0.71073
_diffrn_radiation_type           MoK\a
_diffrn_radiation_source         'fine-focus sealed tube'
_diffrn_radiation_monochromator  graphite
_diffrn_measurement_device_type  ?
_diffrn_measurement_method       ?
_diffrn_detector_area_resol_mean ?
_diffrn_standards_number         ?
_diffrn_standards_interval_count ?
_diffrn_standards_interval_time  ?
_diffrn_standards_decay_%        ?
_diffrn_reflns_number            24529
_diffrn_reflns_av_R_equivalents  0.0415
_diffrn_reflns_av_sigmaI/netI    0.0655
_diffrn_reflns_limit_h_min       -29
_diffrn_reflns_limit_h_max       32
_diffrn_reflns_limit_k_min       -12
_diffrn_reflns_limit_k_max       10
_diffrn_reflns_limit_l_min       -37
_diffrn_reflns_limit_l_max       42
_diffrn_reflns_theta_min         2.12
_diffrn_reflns_theta_max         26.05
_reflns_number_total             13842
_reflns_number_gt                11351
_reflns_threshold_expression     >2sigma(I)

_computing_data_collection       ?
_computing_cell_refinement       ?
_computing_data_reduction        ?
_computing_structure_solution    'SHELXS-97 (Sheldrick, 1990)'
_computing_structure_refinement  'SHELXL-97 (Sheldrick, 1997)'
_computing_molecular_graphics    ?
_computing_publication_material  ?

_refine_special_details          
;
Refinement of F^2^ against ALL reflections. The weighted R-factor wR and
goodness of fit S are based on F^2^, conventional R-factors R are based
on F, with F set to zero for negative F^2^. The threshold expression of
F^2^ > 2sigma(F^2^) is used only for calculating R-factors(gt) etc. and is
not relevant to the choice of reflections for refinement. R-factors based
on F^2^ are statistically about twice as large as those based on F, and R-
factors based on ALL data will be even larger.
;

_refine_ls_structure_factor_coef Fsqd
_refine_ls_matrix_type           full
_refine_ls_weighting_scheme      calc
_refine_ls_weighting_details     
'calc w=1/[\s^2^(Fo^2^)+(0.0951P)^2^+0.0000P] where P=(Fo^2^+2Fc^2^)/3'
_atom_sites_solution_primary     direct
_atom_sites_solution_secondary   difmap
_atom_sites_solution_hydrogens   geom
_refine_ls_hydrogen_treatment    constr
_refine_ls_extinction_method     none
_refine_ls_extinction_coef       ?
_refine_ls_abs_structure_details 'Flack H D (1983), Acta Cryst. A39, 876-881'
_refine_ls_abs_structure_Flack   0.418(17)
_refine_ls_number_reflns         13842
_refine_ls_number_parameters     1105
_refine_ls_number_restraints     2
_refine_ls_R_factor_all          0.0706
_refine_ls_R_factor_gt           0.0552
_refine_ls_wR_factor_ref         0.1530
_refine_ls_wR_factor_gt          0.1405
_refine_ls_goodness_of_fit_ref   1.003
_refine_ls_restrained_S_all      1.003
_refine_ls_shift/su_max          0.001
_refine_ls_shift/su_mean         0.000

loop_
_atom_site_label
_atom_site_type_symbol
_atom_site_fract_x
_atom_site_fract_y
_atom_site_fract_z
_atom_site_U_iso_or_equiv
_atom_site_adp_type
_atom_site_occupancy
_atom_site_symmetry_multiplicity
_atom_site_calc_flag
_atom_site_refinement_flags
_atom_site_disorder_assembly
_atom_site_disorder_group
Mn1 Mn 1.16762(3) 0.23200(7) 0.16207(3) 0.01715(15) Uani 1 1 d . . .
Mn2 Mn 1.10180(2) -0.07657(7) 0.14474(2) 0.02019(17) Uani 1 1 d . . .
Mn3 Mn 1.23421(3) 0.54061(7) 0.18162(2) 0.02088(17) Uani 1 1 d . . .
N1 N 1.3256(2) 0.6268(6) 0.09587(18) 0.0492(14) Uani 1 1 d . . .
N2 N 1.0140(2) -0.1736(5) 0.23306(16) 0.0393(12) Uani 1 1 d . . .
N3 N 0.3369(2) 0.0735(5) 0.13022(17) 0.0415(13) Uani 1 1 d . . .
N4 N 0.3847(2) 0.6407(5) 0.2760(2) 0.0584(17) Uani 1 1 d . . .
N5 N -0.00216(19) 0.3865(5) 0.19512(16) 0.0362(12) Uani 1 1 d . . .
N6 N 0.0391(6) 0.9459(14) 0.4403(5) 0.157(5) Uiso 1 1 d . . .
N7 N 0.8126(4) 1.0033(9) 0.8787(3) 0.105(3) Uani 1 1 d . . .
N8 N 0.7290(3) 0.0218(7) 0.9557(3) 0.080(2) Uani 1 1 d . . .
N9 N 0.6436(3) 0.5093(7) 0.8740(2) 0.0698(19) Uani 1 1 d . . .
N10 N 0.9484(2) 0.8216(6) 0.0541(2) 0.0507(15) Uani 1 1 d . . .
C1 C 0.9962(2) 0.4652(6) 0.38701(17) 0.0283(12) Uani 1 1 d . . .
C2 C 1.0304(2) 0.3786(6) 0.36681(17) 0.0300(12) Uani 1 1 d . . .
H2A H 1.0407 0.3016 0.3827 0.036 Uiso 1 1 calc R . .
H2B H 1.0113 0.3528 0.3404 0.036 Uiso 1 1 calc R . .
C3 C 1.0278(2) 0.5303(6) 0.42425(17) 0.0308(13) Uani 1 1 d . . .
H3A H 1.0544 0.5845 0.4174 0.037 Uiso 1 1 calc R . .
H3B H 1.0055 0.5837 0.4364 0.037 Uiso 1 1 calc R . .
C4 C 0.9540(2) 0.3812(5) 0.39734(17) 0.0290(12) Uani 1 1 d . . .
H4B H 0.9337 0.3433 0.3732 0.043 Uiso 1 1 d R . .
H4A H 0.9697 0.3142 0.4154 0.043 Uiso 1 1 d R . .
C5 C 0.9713(2) 0.5722(6) 0.35805(18) 0.0318(13) Uani 1 1 d . . .
H5A H 0.9508 0.6289 0.3708 0.038 Uiso 1 1 calc R . .
H5B H 0.9979 0.6229 0.3498 0.038 Uiso 1 1 calc R . .
C6 C 1.0939(2) 0.4452(5) 0.33039(16) 0.0269(12) Uani 1 1 d . . .
C7 C 1.0851(2) 0.3473(5) 0.30248(17) 0.0294(12) Uani 1 1 d . . .
H7A H 1.0637 0.2783 0.3053 0.035 Uiso 1 1 calc R . .
C8 C 1.1087(2) 0.3529(5) 0.26991(16) 0.0257(11) Uani 1 1 d . . .
H8A H 1.1032 0.2866 0.2512 0.031 Uiso 1 1 calc R . .
C9 C 1.1398(2) 0.4550(5) 0.26523(16) 0.0255(11) Uani 1 1 d . . .
C10 C 1.1489(3) 0.5509(6) 0.29375(19) 0.0388(15) Uani 1 1 d . . .
H10A H 1.1705 0.6195 0.2909 0.047 Uiso 1 1 calc R . .
C11 C 1.1265(2) 0.5472(6) 0.32659(18) 0.0369(14) Uani 1 1 d . . .
H11A H 1.1332 0.6120 0.3458 0.044 Uiso 1 1 calc R . .
C12 C 1.1645(2) 0.4644(5) 0.22946(17) 0.0249(11) Uani 1 1 d . . .
C13 C 1.0784(2) 0.4657(6) 0.48872(17) 0.0300(13) Uani 1 1 d . . .
C14 C 1.0909(3) 0.5895(6) 0.50109(18) 0.0359(14) Uani 1 1 d . . .
H14A H 1.0801 0.6586 0.4839 0.043 Uiso 1 1 calc R . .
C15 C 1.1203(2) 0.6100(5) 0.54029(17) 0.0319(13) Uani 1 1 d . . .
H15A H 1.1298 0.6934 0.5488 0.038 Uiso 1 1 calc R . .
C16 C 1.1352(2) 0.5082(5) 0.56616(16) 0.0231(11) Uani 1 1 d . . .
C17 C 1.1215(2) 0.3827(5) 0.55309(15) 0.0240(11) Uani 1 1 d . . .
H17A H 1.1310 0.3134 0.5704 0.029 Uiso 1 1 calc R . .
C18 C 1.0939(2) 0.3620(5) 0.51458(16) 0.0260(12) Uani 1 1 d . . .
H18A H 1.0855 0.2783 0.5057 0.031 Uiso 1 1 calc R . .
C19 C 1.1666(2) 0.5279(5) 0.60794(17) 0.0224(11) Uani 1 1 d . . .
C20 C 0.9022(2) 0.5836(5) 0.29945(16) 0.0275(12) Uani 1 1 d . . .
C21 C 0.8649(2) 0.5130(5) 0.27274(16) 0.0277(12) Uani 1 1 d . . .
H21A H 0.8660 0.4233 0.2729 0.033 Uiso 1 1 calc R . .
C22 C 0.82585(19) 0.5776(5) 0.24575(16) 0.0254(11) Uani 1 1 d . . .
H22A H 0.8010 0.5310 0.2276 0.031 Uiso 1 1 calc R . .
C23 C 0.82381(19) 0.7109(5) 0.24570(16) 0.0223(11) Uani 1 1 d . . .
C24 C 0.8615(2) 0.7800(5) 0.27255(17) 0.0288(12) Uani 1 1 d . . .
H24A H 0.8607 0.8696 0.2722 0.035 Uiso 1 1 calc R . .
C25 C 0.9004(2) 0.7163(5) 0.29992(17) 0.0298(13) Uani 1 1 d . . .
H25A H 0.9250 0.7627 0.3183 0.036 Uiso 1 1 calc R . .
C26 C 0.78075(19) 0.7808(5) 0.21667(16) 0.0242(11) Uani 1 1 d . . .
C27 C 0.8429(2) 0.5074(6) -0.06303(16) 0.0307(13) Uani 1 1 d . . .
C28 C 0.8712(2) 0.3971(6) -0.03804(17) 0.0336(13) Uani 1 1 d . . .
H28A H 0.8464 0.3364 -0.0314 0.040 Uiso 1 1 calc R . .
H28B H 0.8931 0.3518 -0.0527 0.040 Uiso 1 1 calc R . .
C29 C 0.8095(2) 0.5794(7) -0.03947(18) 0.0379(14) Uani 1 1 d . . .
H29A H 0.8305 0.6091 -0.0141 0.046 Uiso 1 1 calc R . .
H29B H 0.7930 0.6534 -0.0545 0.046 Uiso 1 1 calc R . .
C30 C 0.8107(2) 0.4534(6) -0.10128(18) 0.0361(14) Uani 1 1 d . . .
H30A H 0.8329 0.4116 -0.1164 0.043 Uiso 1 1 calc R . .
H30B H 0.7864 0.3901 -0.0955 0.043 Uiso 1 1 calc R . .
C31 C 0.8823(2) 0.6047(6) -0.07265(19) 0.0365(14) Uani 1 1 d . . .
H31A H 0.8647 0.6680 -0.0918 0.044 Uiso 1 1 calc R . .
H31B H 0.8998 0.6494 -0.0485 0.044 Uiso 1 1 calc R . .
C32 C 0.9370(2) 0.3787(6) 0.02300(18) 0.0310(13) Uani 1 1 d . . .
C33 C 0.9392(2) 0.2452(6) 0.02177(19) 0.0364(15) Uani 1 1 d . . .
H33A H 0.9161 0.1990 0.0023 0.044 Uiso 1 1 calc R . .
C34 C 0.9770(2) 0.1820(6) 0.05051(18) 0.0323(13) Uani 1 1 d . . .
H34A H 0.9780 0.0924 0.0504 0.039 Uiso 1 1 calc R . .
C35 C 1.0126(2) 0.2477(5) 0.07895(16) 0.0237(11) Uani 1 1 d . . .
C36 C 1.0098(2) 0.3824(5) 0.07922(17) 0.0289(12) Uani 1 1 d . . .
H36A H 1.0338 0.4292 0.0980 0.035 Uiso 1 1 calc R . .
C37 C 0.9721(2) 0.4457(6) 0.05201(18) 0.0347(13) Uani 1 1 d . . .
H37A H 0.9701 0.5351 0.0530 0.042 Uiso 1 1 calc R . .
C38 C 1.0546(2) 0.1785(5) 0.10873(16) 0.0245(12) Uani 1 1 d . . .
C39 C 0.7482(2) 0.5006(7) -0.00074(16) 0.0344(13) Uani 1 1 d . . .
C40 C 0.7527(2) 0.6048(6) 0.02368(17) 0.0325(13) Uani 1 1 d . . .
H40A H 0.7720 0.6759 0.0190 0.039 Uiso 1 1 calc R . .
C41 C 0.7283(2) 0.6051(5) 0.05597(17) 0.0286(12) Uani 1 1 d . . .
H41A H 0.7322 0.6753 0.0733 0.034 Uiso 1 1 calc R . .
C42 C 0.6981(2) 0.4999(5) 0.06215(16) 0.0233(11) Uani 1 1 d . . .
C43 C 0.6936(3) 0.3978(6) 0.03614(19) 0.0409(16) Uani 1 1 d . . .
H43A H 0.6729 0.3280 0.0396 0.049 Uiso 1 1 calc R . .
C44 C 0.7189(3) 0.3956(6) 0.00486(19) 0.0421(16) Uani 1 1 d . . .
H44A H 0.7161 0.3245 -0.0120 0.051 Uiso 1 1 calc R . .
C45 C 0.6731(2) 0.4964(5) 0.09681(16) 0.0236(11) Uani 1 1 d . . .
C46 C 0.7565(2) 0.5357(6) -0.16251(17) 0.0316(13) Uani 1 1 d . . .
C47 C 0.7440(2) 0.4145(5) -0.17999(17) 0.0306(13) Uani 1 1 d . . .
H47A H 0.7552 0.3400 -0.1655 0.037 Uiso 1 1 calc R . .
C48 C 0.7150(2) 0.4062(5) -0.21857(18) 0.0278(12) Uani 1 1 d . . .
H48A H 0.7054 0.3256 -0.2296 0.033 Uiso 1 1 calc R . .
C49 C 0.69974(19) 0.5160(5) -0.24144(16) 0.0236(11) Uani 1 1 d . . .
C50 C 0.7138(2) 0.6379(5) -0.22359(16) 0.0293(12) Uani 1 1 d . . .
H50A H 0.7044 0.7125 -0.2385 0.035 Uiso 1 1 calc R . .
C51 C 0.7414(2) 0.6473(5) -0.18422(17) 0.0313(13) Uani 1 1 d . . .
H51A H 0.7497 0.7276 -0.1725 0.038 Uiso 1 1 calc R . .
C52 C 0.66937(19) 0.5096(5) -0.28311(16) 0.0228(11) Uani 1 1 d . . .
C53 C 1.2880(3) 0.5984(8) 0.1135(2) 0.0538(19) Uani 1 1 d . . .
H53A H 1.2545 0.6178 0.0995 0.065 Uiso 1 1 calc R . .
C54 C 1.3193(4) 0.6826(15) 0.0569(3) 0.113(5) Uani 1 1 d . . .
H54A H 1.2830 0.6903 0.0446 0.170 Uiso 1 1 calc R . .
H54B H 1.3357 0.6284 0.0406 0.170 Uiso 1 1 calc R . .
H54C H 1.3351 0.7664 0.0592 0.170 Uiso 1 1 calc R . .
C55 C 1.3784(3) 0.6065(11) 0.1176(3) 0.091(3) Uani 1 1 d . . .
H55A H 1.3786 0.5697 0.1433 0.136 Uiso 1 1 calc R . .
H55B H 1.3965 0.6875 0.1211 0.136 Uiso 1 1 calc R . .
H55C H 1.3954 0.5488 0.1027 0.136 Uiso 1 1 calc R . .
C56 C 1.0504(2) -0.1559(6) 0.21338(19) 0.0398(15) Uani 1 1 d . . .
H56A H 1.0822 -0.1965 0.2229 0.048 Uiso 1 1 calc R . .
C57 C 1.0230(3) -0.2583(10) 0.2675(2) 0.077(3) Uani 1 1 d . . .
H57A H 1.0581 -0.2896 0.2728 0.116 Uiso 1 1 calc R . .
H57B H 0.9994 -0.3297 0.2622 0.116 Uiso 1 1 calc R . .
H57C H 1.0176 -0.2116 0.2904 0.116 Uiso 1 1 calc R . .
C58 C 0.9643(3) -0.1182(10) 0.2199(3) 0.084(3) Uani 1 1 d . . .
H58A H 0.9640 -0.0642 0.1971 0.126 Uiso 1 1 calc R . .
H58B H 0.9563 -0.0674 0.2411 0.126 Uiso 1 1 calc R . .
H58C H 0.9389 -0.1853 0.2126 0.126 Uiso 1 1 calc R . .
C59 C 0.3069(2) -0.0039(6) 0.1457(2) 0.0364(14) Uani 1 1 d . . .
H59A H 0.2805 0.0335 0.1558 0.044 Uiso 1 1 calc R . .
C60 C 0.3790(4) 0.0273(8) 0.1122(3) 0.080(3) Uani 1 1 d . . .
H60A H 0.3800 -0.0652 0.1129 0.120 Uiso 1 1 calc R . .
H60B H 0.4116 0.0610 0.1270 0.120 Uiso 1 1 calc R . .
H60C H 0.3728 0.0560 0.0849 0.120 Uiso 1 1 calc R . .
C61 C 0.3304(3) 0.2126(6) 0.1308(2) 0.0491(18) Uani 1 1 d . . .
H61A H 0.3027 0.2332 0.1437 0.074 Uiso 1 1 calc R . .
H61B H 0.3221 0.2448 0.1039 0.074 Uiso 1 1 calc R . .
H61C H 0.3620 0.2516 0.1453 0.074 Uiso 1 1 calc R . .
C62 C 0.4328(4) 0.6341(8) 0.3015(3) 0.073(3) Uani 1 1 d . . .
H62A H 0.4340 0.6253 0.3287 0.087 Uiso 1 1 calc R . .
C63 C 0.3788(3) 0.6482(7) 0.2339(3) 0.0547(19) Uani 1 1 d . . .
H63A H 0.4124 0.6449 0.2276 0.082 Uiso 1 1 calc R . .
H63B H 0.3619 0.7276 0.2242 0.082 Uiso 1 1 calc R . .
H63C H 0.3581 0.5770 0.2213 0.082 Uiso 1 1 calc R . .
C64 C 0.3378(4) 0.6427(9) 0.2913(3) 0.086(3) Uani 1 1 d . . .
H64A H 0.3469 0.6367 0.3200 0.129 Uiso 1 1 calc R . .
H64B H 0.3161 0.5711 0.2805 0.129 Uiso 1 1 calc R . .
H64C H 0.3193 0.7218 0.2835 0.129 Uiso 1 1 calc R . .
C65 C 0.0287(2) 0.4643(6) 0.18017(18) 0.0346(14) Uani 1 1 d . . .
H65A H 0.0559 0.4263 0.1713 0.042 Uiso 1 1 calc R . .
C66 C -0.0441(3) 0.4385(8) 0.2095(3) 0.062(2) Uani 1 1 d . . .
H66A H -0.0442 0.5307 0.2070 0.093 Uiso 1 1 calc R . .
H66B H -0.0403 0.4156 0.2371 0.093 Uiso 1 1 calc R . .
H66C H -0.0763 0.4045 0.1941 0.093 Uiso 1 1 calc R . .
C67 C 0.0053(3) 0.2484(6) 0.1966(2) 0.0438(16) Uani 1 1 d . . .
H67A H 0.0349 0.2269 0.1860 0.066 Uiso 1 1 calc R . .
H67B H -0.0251 0.2070 0.1810 0.066 Uiso 1 1 calc R . .
H67C H 0.0111 0.2196 0.2239 0.066 Uiso 1 1 calc R . .
C68 C 0.0365(7) 0.8756(17) 0.4015(6) 0.157(6) Uiso 1 1 d . . .
H68A H 0.0650 0.8297 0.3973 0.189 Uiso 1 1 calc R . .
C69 C 0.0823(7) 0.9454(19) 0.4781(6) 0.176(7) Uiso 1 1 d . . .
H69A H 0.0728 1.0000 0.4979 0.265 Uiso 1 1 calc R . .
H69B H 0.1138 0.9767 0.4720 0.265 Uiso 1 1 calc R . .
H69C H 0.0876 0.8590 0.4883 0.265 Uiso 1 1 calc R . .
C70 C -0.0058(17) 0.997(5) 0.4416(16) 0.48(3) Uiso 1 1 d . . .
H70A H -0.0275 1.0008 0.4151 0.726 Uiso 1 1 calc R . .
H70B H -0.0005 1.0829 0.4524 0.726 Uiso 1 1 calc R . .
H70C H -0.0224 0.9456 0.4584 0.726 Uiso 1 1 calc R . .
C71 C 0.8233(8) 0.9134(13) 0.9052(6) 0.164(7) Uani 1 1 d . . .
H71A H 0.7996 0.8497 0.9080 0.197 Uiso 1 1 calc R . .
C72 C 0.8496(6) 1.1162(14) 0.8785(5) 0.154(6) Uani 1 1 d . . .
H72A H 0.8839 1.0925 0.8928 0.231 Uiso 1 1 calc R . .
H72B H 0.8380 1.1895 0.8911 0.231 Uiso 1 1 calc R . .
H72C H 0.8502 1.1375 0.8513 0.231 Uiso 1 1 calc R . .
C73 C 0.7588(5) 1.0165(16) 0.8568(8) 0.245(13) Uani 1 1 d . . .
H73A H 0.7405 0.9378 0.8588 0.368 Uiso 1 1 calc R . .
H73B H 0.7578 1.0345 0.8292 0.368 Uiso 1 1 calc R . .
H73C H 0.7427 1.0860 0.8680 0.368 Uiso 1 1 calc R . .
C74 C 0.7707(5) 0.0867(13) 0.9572(4) 0.107(4) Uani 1 1 d . . .
H74A H 0.8027 0.0593 0.9723 0.129 Uiso 1 1 calc R . .
C75 C 0.7314(5) -0.0882(14) 0.9816(4) 0.133(5) Uiso 1 1 d . . .
H75A H 0.7669 -0.1044 0.9949 0.199 Uiso 1 1 calc R . .
H75B H 0.7175 -0.1623 0.9661 0.199 Uiso 1 1 calc R . .
H75C H 0.7114 -0.0713 1.0012 0.199 Uiso 1 1 calc R . .
C76 C 0.6785(4) 0.0485(11) 0.9350(3) 0.086(3) Uani 1 1 d . . .
H76A H 0.6783 0.1252 0.9192 0.128 Uiso 1 1 calc R . .
H76B H 0.6569 0.0614 0.9537 0.128 Uiso 1 1 calc R . .
H76C H 0.6653 -0.0225 0.9177 0.128 Uiso 1 1 calc R . .
C77 C 0.6680(5) 0.6020(10) 0.8980(3) 0.097(4) Uani 1 1 d . . .
H77A H 0.6916 0.5771 0.9212 0.117 Uiso 1 1 calc R . .
C78 C 0.6535(3) 0.3739(9) 0.8841(3) 0.079(3) Uani 1 1 d . . .
H78A H 0.6769 0.3671 0.9099 0.119 Uiso 1 1 calc R . .
H78B H 0.6687 0.3336 0.8643 0.119 Uiso 1 1 calc R . .
H78C H 0.6213 0.3317 0.8848 0.119 Uiso 1 1 calc R . .
C79 C 0.6092(4) 0.5329(14) 0.8347(3) 0.111(4) Uani 1 1 d . . .
H79A H 0.6052 0.6241 0.8303 0.166 Uiso 1 1 calc R . .
H79B H 0.5758 0.4948 0.8339 0.166 Uiso 1 1 calc R . .
H79C H 0.6240 0.4953 0.8143 0.166 Uiso 1 1 calc R . .
C80 C 0.9023(4) 0.8321(8) 0.0302(3) 0.066(2) Uani 1 1 d . . .
H80A H 0.9007 0.8337 0.0028 0.079 Uiso 1 1 calc R . .
C81 C 0.9546(3) 0.8248(8) 0.0968(3) 0.065(2) Uani 1 1 d . . .
H81A H 0.9211 0.8306 0.1031 0.097 Uiso 1 1 calc R . .
H81B H 0.9752 0.8983 0.1076 0.097 Uiso 1 1 calc R . .
H81