
#######################################################################
#
#                 Cambridge Crystallographic Data Centre
#                                CCDC
#
#######################################################################
#
# If this CIF has been generated from an entry in the Cambridge
# Structural Database, then it will include bibliographic, chemical,
# crystal, experimental, refinement or atomic coordinate data resulting
# from the CCDC's data processing and validation procedures.
#
#######################################################################

data_CSD_CIF_PEKGUH
_audit_creation_date 1994-02-02
_audit_creation_method CSD-ConQuest-V1
_database_code_CSD PEKGUH
_database_code_depnum_ccdc_archive 'CCDC 1230509'
_chemical_formula_sum 'C12 H36 Bi2 Cl9 N3'
_chemical_formula_moiety
;
3(C4 H12 N1 1+),Bi2 Cl9 3-
;
_journal_coden_Cambridge 7
_journal_volume 66
_journal_year 1993
_journal_page_first 380
_journal_name_full 'Bull.Chem.Soc.Jpn. '
loop_
_publ_author_name
"H.Ishihara"
"K.Yamada"
"T.Okuda"
"A.Weiss"
_chemical_name_systematic
;
tris(Tetramethylammonium) tris(\m~2~-chloro)-hexachloro-di-bismuth(iii)
;
_chemical_name_common
;
Teaching Subset: Fundamental Chemistry
;
_cell_volume   1628.622
_exptl_crystal_density_diffrn 1.957
_exptl_special_details
;
powder data
No coordinates reported for the tetramethylammonium cation. Cs atoms were 
used as dummy atoms for the refinement
;
_diffrn_ambient_temperature ?
_diffrn_special_details
;
The study was carried out at room temperature,in the range 283-303K

;
_refine_special_details
;
The structure is disordered.

;
#These two values have been output from a single CSD field.
_refine_ls_R_factor_gt 0.0847
_refine_ls_wR_factor_gt 0.0847
_symmetry_cell_setting hexagonal
_symmetry_space_group_name_H-M 'P 63/m m c'
_symmetry_Int_Tables_number 194
loop_
_symmetry_equiv_pos_site_id
_symmetry_equiv_pos_as_xyz
1 x,y,z
2 -y,x-y,z
3 -x+y,-x,z
4 -x,-y,1/2+z
5 y,-x+y,1/2+z
6 x-y,x,1/2+z
7 y,x,-z
8 x-y,-y,-z
9 -x,-x+y,-z
10 -y,-x,1/2-z
11 -x+y,y,1/2-z
12 x,x-y,1/2-z
13 -x,-y,-z
14 y,-x+y,-z
15 x-y,x,-z
16 x,y,-1/2-z
17 -y,x-y,-1/2-z
18 -x+y,-x,-1/2-z
19 -y,-x,z
20 -x+y,y,z
21 x,x-y,z
22 y,x,-1/2+z
23 x-y,-y,-1/2+z
24 -x,-x+y,-1/2+z
_cell_length_a 9.262
_cell_length_b 9.262
_cell_length_c 21.922(1)
_cell_angle_alpha 90
_cell_angle_beta 90
_cell_angle_gamma 120
_cell_formula_units_Z 2
loop_
_atom_type_symbol
_atom_type_radius_bond
Bi 1.54
Cl 0.99
Cs 1.67
loop_
_atom_site_label
_atom_site_type_symbol
_atom_site_fract_x
_atom_site_fract_y
_atom_site_fract_z
Bi1 Bi 0.33330 0.66670 0.1617(4)
Cl1 Cl 0.4683(23) 0.93670 0.25000
Cl2 Cl 0.1966(20) 0.39320 0.0994(11)
Cs1? Cs 0.00000 0.00000 0.25000
Cs2? Cs 0.66670 0.33330 0.0886(16)
Cl1A Cl 0.0633(23) 0.53160 0.25000
Cl1B Cl 0.4684(23) 0.53170 0.25000
Cl2A Cl 0.6068(20) 0.80340 0.0994(11)
Cl2B Cl 0.1966(20) 0.80340 0.0994(11)
Bi1O Bi 0.33330 0.66670 0.3383(4)
Cl2O Cl 0.1966(20) 0.39320 0.4006(11)
Cl2P Cl 0.6068(20) 0.80340 0.4006(11)
Cl2Q Cl 0.1966(20) 0.80340 0.4006(11)
#END
