####################################################################### 
# 
# This file contains crystal structure data downloaded from the 
# Cambridge Structural Database (CSD) hosted by the Cambridge 
# Crystallographic Data Centre (CCDC).
# 
# Full information about CCDC data access policies and citation 
# guidelines are available at http://www.ccdc.cam.ac.uk/access/V1 
# 
# Audit and citation data items may have been added by the CCDC. 
# Please retain this information to preserve the provenance of 
# this file and to allow appropriate attribution of the data. 
# 
#######################################################################

data_e2323a
_audit_block_doi                 10.5517/ccz20rs
_database_code_depnum_ccdc_archive 'CCDC 895675'
loop_
_citation_id
_citation_doi
_citation_year
1 10.1039/c2dt31937c 2013
_audit_update_record             
;
2012-08-10 deposited with the CCDC.	2024-07-12 downloaded from the CCDC.
;
#TrackingRef 'web_deposit_cif_file_7_SylvieFERLAY_1344596913.3-AgSbF6.cif'




_audit_creation_method           SHELXL-97

_chemical_name_systematic        
;

?

;

_chemical_name_common            ?

_chemical_melting_point          ?

_chemical_formula_moiety         ?

_chemical_formula_sum            'C548 H584 Ag16 Cl108 F96 N32 O32 S32 Sb16'

_chemical_formula_weight         18482.91



loop_

_atom_type_symbol

_atom_type_description

_atom_type_scat_dispersion_real

_atom_type_scat_dispersion_imag

_atom_type_scat_source


















C C 0.0033 0.0016 'International Tables Vol C Tables 4.2.6.8 and 6.1.1.4'
H H 0.0000 0.0000 'International Tables Vol C Tables 4.2.6.8 and 6.1.1.4'
N N 0.0061 0.0033 'International Tables Vol C Tables 4.2.6.8 and 6.1.1.4'
O O 0.0106 0.0060 'International Tables Vol C Tables 4.2.6.8 and 6.1.1.4'
F F 0.0171 0.0103 'International Tables Vol C Tables 4.2.6.8 and 6.1.1.4'
S S 0.1246 0.1234 'International Tables Vol C Tables 4.2.6.8 and 6.1.1.4'
Ag Ag -0.8971 1.1015 'International Tables Vol C Tables 4.2.6.8 and 6.1.1.4'
Sb Sb -0.5866 1.5461 'International Tables Vol C Tables 4.2.6.8 and 6.1.1.4'
Cl Cl 0.1484 0.1585 'International Tables Vol C Tables 4.2.6.8 and 6.1.1.4'



_symmetry_cell_setting           Monoclinic

_symmetry_space_group_name_H-M   P2(1)/c

_symmetry_space_group_name_Hall  '-P 2ybc'



loop_

_symmetry_equiv_pos_as_xyz




'x, y, z'
'-x, y+1/2, -z+1/2'
'-x, -y, -z'
'x, -y-1/2, z-1/2'



_cell_length_a                   27.5820(9)

_cell_length_b                   28.4143(7)

_cell_length_c                   25.5819(9)

_cell_angle_alpha                90.00

_cell_angle_beta                 108.6540(10)

_cell_angle_gamma                90.00

_cell_volume                     18995.9(10)

_cell_formula_units_Z            1

_cell_measurement_temperature    173(2)

_cell_measurement_reflns_used    9945

_cell_measurement_theta_min      2.45

_cell_measurement_theta_max      23.23



_exptl_crystal_description       prism

_exptl_crystal_colour            colorless

_exptl_crystal_size_max          0.09

_exptl_crystal_size_mid          0.07

_exptl_crystal_size_min          0.06

_exptl_crystal_density_meas      none

_exptl_crystal_density_diffrn    1.616

_exptl_crystal_density_method    'not measured'

_exptl_crystal_F_000             9132

_exptl_absorpt_coefficient_mu    1.504

_exptl_absorpt_correction_type   multi-scan

_exptl_absorpt_correction_T_min  0.8766

_exptl_absorpt_correction_T_max  0.9152

_exptl_absorpt_process_details   sadabs



_exptl_special_details           
;

Because of the flopiness of the tertiobutyl group and the F of the SbF6
the EADP command was used

;



_diffrn_ambient_temperature      173(2)

_diffrn_radiation_wavelength     0.71073

_diffrn_radiation_type           MoK\a

_diffrn_radiation_source         'fine-focus sealed tube'

_diffrn_radiation_monochromator  graphite

_diffrn_measurement_device_type  'CCD area detector'

_diffrn_measurement_method       'phi and omega scans'

_diffrn_detector_area_resol_mean ?

_diffrn_standards_number         ?

_diffrn_standards_interval_count ?

_diffrn_standards_interval_time  ?

_diffrn_standards_decay_%        ?

_diffrn_reflns_number            202931

_diffrn_reflns_av_R_equivalents  0.1033

_diffrn_reflns_av_sigmaI/netI    0.1350

_diffrn_reflns_limit_h_min       -38

_diffrn_reflns_limit_h_max       38

_diffrn_reflns_limit_k_min       -33

_diffrn_reflns_limit_k_max       24

_diffrn_reflns_limit_l_min       -36

_diffrn_reflns_limit_l_max       36

_diffrn_reflns_theta_min         1.50

_diffrn_reflns_theta_max         29.30

_reflns_number_total             51700

_reflns_number_gt                20984

_reflns_threshold_expression     >2sigma(I)



_computing_data_collection       'Bruker SMART'

_computing_cell_refinement       'Bruker SMART'

_computing_data_reduction        'Bruker SAINT'

_computing_structure_solution    'SHELXS-97 (Sheldrick, 1990)'

_computing_structure_refinement  'SHELXL-97 (Sheldrick, 1997)'

_computing_molecular_graphics    'Bruker SHELXTL'

_computing_publication_material  'Bruker SHELXTL'



_refine_special_details          
;

Refinement of F^2^ against ALL reflections. The weighted R-factor wR and

goodness of fit S are based on F^2^, conventional R-factors R are based

on F, with F set to zero for negative F^2^. The threshold expression of

F^2^ > 2sigma(F^2^) is used only for calculating R-factors(gt) etc. and is

not relevant to the choice of reflections for refinement. R-factors based

on F^2^ are statistically about twice as large as those based on F, and R-

factors based on ALL data will be even larger.

;



_refine_ls_structure_factor_coef Fsqd

_refine_ls_matrix_type           full

_refine_ls_weighting_scheme      calc

_refine_ls_weighting_details     
'calc w=1/[\s^2^(Fo^2^)+(0.1788P)^2^+0.5448P] where P=(Fo^2^+2Fc^2^)/3'

_atom_sites_solution_primary     direct

_atom_sites_solution_secondary   difmap

_atom_sites_solution_hydrogens   geom

_refine_ls_hydrogen_treatment    constr

_refine_ls_extinction_method     none

_refine_ls_extinction_coef       ?

_refine_ls_number_reflns         51700

_refine_ls_number_parameters     2045

_refine_ls_number_restraints     112

_refine_ls_R_factor_all          0.2189

_refine_ls_R_factor_gt           0.0952

_refine_ls_wR_factor_ref         0.3034

_refine_ls_wR_factor_gt          0.2503

_refine_ls_goodness_of_fit_ref   1.061

_refine_ls_restrained_S_all      1.162

_refine_ls_shift/su_max          0.025

_refine_ls_shift/su_mean         0.062



loop_

_atom_site_label

_atom_site_type_symbol

_atom_site_fract_x

_atom_site_fract_y

_atom_site_fract_z

_atom_site_U_iso_or_equiv

_atom_site_adp_type

_atom_site_occupancy

_atom_site_symmetry_multiplicity

_atom_site_calc_flag

_atom_site_refinement_flags

_atom_site_disorder_assembly

_atom_site_disorder_group





















































































































































































































































































































































































































Ag1 Ag 0.02284(4) 0.24395(3) 0.34136(4) 0.0424(2) Uani 1 1 d . . .
Ag2 Ag 0.25217(3) 0.72797(3) 0.25738(4) 0.0441(2) Uani 1 1 d . . .
Ag3 Ag 0.24841(3) 0.22738(3) 0.24825(3) 0.0359(2) Uani 1 1 d . . .
Ag4 Ag 0.47012(4) 0.21259(3) 0.14638(4) 0.0462(2) Uani 1 1 d . . .
S1 S 0.06948(10) 0.46719(9) 0.06007(10) 0.0311(6) Uani 1 1 d . . .
C1 C 0.0324(4) 0.4543(3) 0.1039(4) 0.026(2) Uani 1 1 d . . .
C2 C 0.0202(4) 0.4891(3) 0.1359(4) 0.028(2) Uani 1 1 d . . .
C3 C -0.0092(4) 0.4773(4) 0.1689(4) 0.029(2) Uani 1 1 d . . .
C4 C -0.0300(4) 0.4322(3) 0.1657(4) 0.031(2) Uani 1 1 d . . .
H4 H -0.0507 0.4247 0.1879 0.038 Uiso 1 1 calc R . .
C5 C -0.0215(4) 0.3982(3) 0.1310(4) 0.030(2) Uani 1 1 d . . .
C6 C 0.0119(4) 0.4104(3) 0.1019(4) 0.026(2) Uani 1 1 d . . .
H6 H 0.0206 0.3871 0.0798 0.031 Uiso 1 1 calc R . .
O1 O 0.0345(2) 0.5362(2) 0.1329(3) 0.0269(15) Uani 1 1 d . . .
C7 C -0.0061(4) 0.5592(4) 0.0916(4) 0.039(3) Uani 1 1 d . . .
H7A H -0.0382 0.5571 0.1009 0.047 Uiso 1 1 calc R . .
H7B H -0.0117 0.5440 0.0553 0.047 Uiso 1 1 calc R . .
C8 C 0.0089(4) 0.6103(3) 0.0892(4) 0.030(2) Uani 1 1 d . . .
C9 C -0.0078(4) 0.6446(4) 0.1177(4) 0.033(2) Uani 1 1 d . . .
H9 H -0.0298 0.6355 0.1379 0.040 Uiso 1 1 calc R . .
N1 N 0.0054(3) 0.6899(3) 0.1183(3) 0.033(2) Uani 1 1 d . . .
C10 C 0.0366(5) 0.7024(4) 0.0892(5) 0.040(3) Uani 1 1 d . . .
H10 H 0.0477 0.7342 0.0908 0.048 Uiso 1 1 calc R . .
C11 C 0.0530(5) 0.6710(4) 0.0572(5) 0.051(3) Uani 1 1 d . . .
H11 H 0.0730 0.6812 0.0353 0.061 Uiso 1 1 calc R . .
C12 C 0.0392(5) 0.6242(4) 0.0582(5) 0.045(3) Uani 1 1 d . . .
H12 H 0.0507 0.6015 0.0374 0.054 Uiso 1 1 calc R . .
C13 C -0.0514(4) 0.3516(3) 0.1207(4) 0.030(2) Uani 1 1 d . . .
C14 C -0.0641(6) 0.3361(4) 0.1719(5) 0.059(4) Uani 1 1 d . . .
H14A H -0.0862 0.3597 0.1808 0.089 Uiso 1 1 calc R . .
H14B H -0.0325 0.3328 0.2030 0.089 Uiso 1 1 calc R . .
H14C H -0.0820 0.3058 0.1647 0.089 Uiso 1 1 calc R . .
C15 C -0.1011(5) 0.3580(4) 0.0741(6) 0.058(4) Uani 1 1 d . . .
H15A H -0.1207 0.3286 0.0683 0.086 Uiso 1 1 calc R . .
H15B H -0.0938 0.3665 0.0403 0.086 Uiso 1 1 calc R . .
H15C H -0.1211 0.3831 0.0837 0.086 Uiso 1 1 calc R . .
C16 C -0.0207(5) 0.3118(4) 0.1034(6) 0.057(4) Uani 1 1 d . . .
H16A H -0.0416 0.2832 0.0945 0.085 Uiso 1 1 calc R . .
H16B H 0.0107 0.3053 0.1338 0.085 Uiso 1 1 calc R . .
H16C H -0.0119 0.3219 0.0709 0.085 Uiso 1 1 calc R . .
S2 S -0.02920(10) 0.51969(9) 0.20841(11) 0.0340(6) Uani 1 1 d . . .
C17 C 0.0273(4) 0.5413(3) 0.2588(4) 0.027(2) Uani 1 1 d . . .
C18 C 0.0652(4) 0.5112(3) 0.2910(4) 0.025(2) Uani 1 1 d . . .
C19 C 0.1035(4) 0.5306(3) 0.3363(4) 0.025(2) Uani 1 1 d . . .
C20 C 0.1025(4) 0.5778(3) 0.3486(4) 0.035(2) Uani 1 1 d . . .
H20 H 0.1282 0.5903 0.3797 0.042 Uiso 1 1 calc R . .
C21 C 0.0641(4) 0.6079(3) 0.3159(4) 0.032(2) Uani 1 1 d . . .
C22 C 0.0268(4) 0.5881(3) 0.2723(4) 0.027(2) Uani 1 1 d . . .
H22 H -0.0003 0.6075 0.2507 0.033 Uiso 1 1 calc R . .
O2 O 0.0668(3) 0.4647(2) 0.2770(3) 0.0292(15) Uani 1 1 d . . .
C23 C 0.0449(4) 0.4327(3) 0.3054(5) 0.036(2) Uani 1 1 d . . .
H23A H 0.0073 0.4373 0.2940 0.043 Uiso 1 1 calc R . .
H23B H 0.0591 0.4380 0.3456 0.043 Uiso 1 1 calc R . .
C24 C 0.0568(4) 0.3841(3) 0.2918(4) 0.031(2) Uani 1 1 d . . .
C25 C 0.0394(4) 0.3459(3) 0.3146(4) 0.029(2) Uani 1 1 d . . .
H25 H 0.0196 0.3514 0.3383 0.035 Uiso 1 1 calc R . .
N2 N 0.0500(3) 0.3008(3) 0.3040(4) 0.033(2) Uani 1 1 d . . .
C26 C 0.0768(4) 0.2925(4) 0.2696(4) 0.038(3) Uani 1 1 d . . .
H26 H 0.0826 0.2610 0.2608 0.046 Uiso 1 1 calc R . .
C27 C 0.0957(4) 0.3287(4) 0.2471(4) 0.037(2) Uani 1 1 d . . .
H27 H 0.1163 0.3218 0.2245 0.044 Uiso 1 1 calc R . .
C28 C 0.0858(4) 0.3750(4) 0.2562(4) 0.035(2) Uani 1 1 d . . .
H28 H 0.0980 0.4000 0.2391 0.042 Uiso 1 1 calc R . .
C29 C 0.0635(4) 0.6599(4) 0.3325(5) 0.041(3) Uani 1 1 d . . .
C30 C 0.1169(5) 0.6794(4) 0.3601(6) 0.059(4) Uani 1 1 d . . .
H30A H 0.1147 0.7132 0.3665 0.089 Uiso 1 1 calc R . .
H30B H 0.1379 0.6742 0.3361 0.089 Uiso 1 1 calc R . .
H30C H 0.1325 0.6634 0.3954 0.089 Uiso 1 1 calc R . .
C31 C 0.0333(6) 0.6643(4) 0.3720(6) 0.068(4) Uani 1 1 d . . .
H31A H 0.0565 0.6621 0.4100 0.102 Uiso 1 1 calc R . .
H31B H 0.0080 0.6389 0.3652 0.102 Uiso 1 1 calc R . .
H31C H 0.0157 0.6947 0.3666 0.102 Uiso 1 1 calc R . .
C32 C 0.0372(5) 0.6913(4) 0.2811(5) 0.049(3) Uani 1 1 d . . .
H32A H 0.0010 0.6828 0.2659 0.074 Uiso 1 1 calc R . .
H32B H 0.0540 0.6864 0.2531 0.074 Uiso 1 1 calc R . .
H32C H 0.0402 0.7245 0.2922 0.074 Uiso 1 1 calc R . .
S3 S 0.14954(12) 0.49586(9) 0.38496(10) 0.0385(7) Uani 1 1 d . . .
C33 C 0.1763(4) 0.4550(3) 0.3500(4) 0.028(2) Uani 1 1 d . . .
C34 C 0.1911(4) 0.4653(3) 0.3048(4) 0.027(2) Uani 1 1 d . . .
C35 C 0.2183(3) 0.4329(3) 0.2846(4) 0.027(2) Uani 1 1 d . . .
C36 C 0.2317(4) 0.3899(3) 0.3106(4) 0.028(2) Uani 1 1 d . . .
H36 H 0.2506 0.3680 0.2967 0.033 Uiso 1 1 calc R . .
C37 C 0.2178(4) 0.3782(3) 0.3569(4) 0.027(2) Uani 1 1 d . . .
C38 C 0.1904(4) 0.4114(3) 0.3755(4) 0.028(2) Uani 1 1 d . . .
H38 H 0.1808 0.4041 0.4070 0.033 Uiso 1 1 calc R . .
O3 O 0.1772(3) 0.5085(2) 0.2779(3) 0.0300(15) Uani 1 1 d . . .
C39 C 0.2125(4) 0.5455(3) 0.2993(4) 0.035(2) Uani 1 1 d . . .
H39A H 0.2456 0.5384 0.2936 0.042 Uiso 1 1 calc R . .
H39B H 0.2185 0.5492 0.3393 0.042 Uiso 1 1 calc R . .
C40 C 0.1903(4) 0.5896(4) 0.2696(4) 0.033(2) Uani 1 1 d . . .
C41 C 0.2185(4) 0.6308(4) 0.2791(4) 0.036(2) Uani 1 1 d . . .
H41 H 0.2521 0.6296 0.3048 0.043 Uiso 1 1 calc R . .
N3 N 0.2024(3) 0.6721(3) 0.2552(4) 0.039(2) Uani 1 1 d . . .
C42 C 0.1537(5) 0.6729(4) 0.2191(5) 0.046(3) Uani 1 1 d . . .
H42 H 0.1405 0.7017 0.2012 0.055 Uiso 1 1 calc R . .
C43 C 0.1229(4) 0.6333(4) 0.2075(5) 0.040(3) Uani 1 1 d . . .
H43 H 0.0890 0.6351 0.1825 0.048 Uiso 1 1 calc R . .
C44 C 0.1418(4) 0.5913(4) 0.2322(4) 0.035(2) Uani 1 1 d . . .
H44 H 0.1214 0.5636 0.2236 0.042 Uiso 1 1 calc R . .
C45 C 0.2349(4) 0.3323(4) 0.3888(4) 0.033(2) Uani 1 1 d . . .
C46 C 0.1911(6) 0.3114(4) 0.4056(6) 0.063(4) Uani 1 1 d . . .
H46A H 0.1771 0.3356 0.4241 0.095 Uiso 1 1 calc R . .
H46B H 0.2040 0.2850 0.4309 0.095 Uiso 1 1 calc R . .
H46C H 0.1642 0.3003 0.3727 0.095 Uiso 1 1 calc R . .
C47 C 0.2807(6) 0.3453(5) 0.4416(6) 0.072(5) Uani 1 1 d . . .
H47A H 0.3090 0.3580 0.4305 0.107 Uiso 1 1 calc R . .
H47B H 0.2922 0.3170 0.4641 0.107 Uiso 1 1 calc R . .
H47C H 0.2695 0.3689 0.4631 0.107 Uiso 1 1 calc R . .
C48 C 0.2522(7) 0.2967(4) 0.3535(6) 0.071(5) Uani 1 1 d . . .
H48A H 0.2251 0.2929 0.3179 0.107 Uiso 1 1 calc R . .
H48B H 0.2590 0.2663 0.3726 0.107 Uiso 1 1 calc R . .
H48C H 0.2834 0.3080 0.3473 0.107 Uiso 1 1 calc R . .
S4 S 0.24936(10) 0.44571(11) 0.23497(11) 0.0393(7) Uani 1 1 d . . .
C49 C 0.2053(4) 0.4785(4) 0.1817(4) 0.033(2) Uani 1 1 d . . .
C50 C 0.1594(4) 0.4603(4) 0.1490(4) 0.029(2) Uani 1 1 d . . .
C51 C 0.1287(4) 0.4882(3) 0.1053(4) 0.024(2) Uani 1 1 d . . .
C52 C 0.1472(4) 0.5295(3) 0.0922(4) 0.029(2) Uani 1 1 d . . .
H52 H 0.1264 0.5467 0.0613 0.035 Uiso 1 1 calc R . .
C53 C 0.1955(4) 0.5481(4) 0.1220(4) 0.033(2) Uani 1 1 d . . .
C54 C 0.2236(4) 0.5226(4) 0.1696(4) 0.033(2) Uani 1 1 d . . .
H54 H 0.2549 0.5349 0.1934 0.040 Uiso 1 1 calc R . .
O4 O 0.1448(3) 0.4151(2) 0.1570(3) 0.0289(15) Uani 1 1 d . . .
C55 C 0.1649(5) 0.3833(4) 0.1245(5) 0.040(3) Uani 1 1 d . . .
H55A H 0.2021 0.3887 0.1332 0.048 Uiso 1 1 calc R . .
H55B H 0.1482 0.3899 0.0848 0.048 Uiso 1 1 calc R . .
C56 C 0.1556(4) 0.3341(3) 0.1361(4) 0.030(2) Uani 1 1 d . . .
C57 C 0.1930(4) 0.3093(3) 0.1760(4) 0.030(2) Uani 1 1 d . . .
H57 H 0.2236 0.3254 0.1957 0.037 Uiso 1 1 calc R . .
N4 N 0.1883(3) 0.2640(3) 0.1884(3) 0.0302(19) Uani 1 1 d . . .
C58 C 0.1453(4) 0.2410(4) 0.1574(5) 0.041(3) Uani 1 1 d . . .
H58 H 0.1420 0.2084 0.1634 0.049 Uiso 1 1 calc R . .
C59 C 0.1066(4) 0.2637(4) 0.1177(5) 0.043(3) Uani 1 1 d . . .
H59 H 0.0761 0.2473 0.0987 0.052 Uiso 1 1 calc R . .
C60 C 0.1123(5) 0.3103(4) 0.1056(5) 0.044(3) Uani 1 1 d . . .
H60 H 0.0867 0.3257 0.0768 0.053 Uiso 1 1 calc R . .
C61 C 0.2192(4) 0.5910(4) 0.1038(4) 0.035(2) Uani 1 1 d . . .
C62 C 0.2537(10) 0.5730(7) 0.0736(10) 0.035(2) Uani 1 1 d . . .
H62A H 0.2725 0.5993 0.0646 0.047 Uiso 1 1 calc R . .
H62B H 0.2332 0.5574 0.0395 0.047 Uiso 1 1 calc R . .
H62C H 0.2779 0.5504 0.0969 0.047 Uiso 1 1 calc R . .
C63 C 0.1803(6) 0.6224(6) 0.0666(9) 0.035(2) Uani 1 1 d . . .
H63A H 0.1634 0.6407 0.0883 0.047 Uiso 1 1 calc R . .
H63B H 0.1548 0.6034 0.0392 0.047 Uiso 1 1 calc R . .
H63C H 0.1970 0.6439 0.0477 0.047 Uiso 1 1 calc R . .
C64 C 0.2493(9) 0.6204(7) 0.1515(7) 0.035(2) Uani 1 1 d . . .
H64A H 0.2561 0.6512 0.1382 0.047 Uiso 1 1 calc R . .
H64B H 0.2818 0.6047 0.1706 0.047 Uiso 1 1 calc R . .
H64C H 0.2298 0.6246 0.1772 0.047 Uiso 1 1 calc R . .
S5 S 0.43513(10) -0.00885(9) 0.44404(10) 0.0319(6) Uani 1 1 d . . .
C65 C 0.3750(4) -0.0285(3) 0.4004(4) 0.027(2) Uani 1 1 d . . .
C66 C 0.3431(4) -0.0019(3) 0.3572(4) 0.025(2) Uani 1 1 d . . .
C67 C 0.2955(4) -0.0192(3) 0.3257(4) 0.028(2) Uani 1 1 d . . .
C68 C 0.2785(4) -0.0622(3) 0.3406(4) 0.032(2) Uani 1 1 d . . .
H68 H 0.2464 -0.0743 0.3183 0.038 Uiso 1 1 calc R . .
C69 C 0.3061(4) -0.0876(4) 0.3857(4) 0.033(2) Uani 1 1 d . . .
C70 C 0.3561(4) -0.0712(3) 0.4141(4) 0.032(2) Uani 1 1 d . . .
H70 H 0.3777 -0.0896 0.4433 0.039 Uiso 1 1 calc R . .
O5 O 0.3578(3) 0.0433(2) 0.3484(3) 0.0266(14) Uani 1 1 d . . .
C71 C 0.3396(5) 0.0760(3) 0.3807(5) 0.041(3) Uani 1 1 d . . .
H71A H 0.3588 0.0716 0.4204 0.049 Uiso 1 1 calc R . .
H71B H 0.3029 0.0701 0.3752 0.049 Uiso 1 1 calc R . .
C72 C 0.3467(5) 0.1250(4) 0.3638(5) 0.038(3) Uani 1 1 d . . .
C73 C 0.3072(4) 0.1479(3) 0.3238(4) 0.029(2) Uani 1 1 d . . .
H73 H 0.2766 0.1310 0.3062 0.035 Uiso 1 1 calc R . .
N5 N 0.3106(3) 0.1934(3) 0.3089(3) 0.033(2) Uani 1 1 d . . .
C74 C 0.3530(4) 0.2167(4) 0.3347(5) 0.039(3) Uani 1 1 d . . .
H74 H 0.3548 0.2490 0.3260 0.047 Uiso 1 1 calc R . .
C75 C 0.3946(5) 0.1967(5) 0.3736(5) 0.056(4) Uani 1 1 d . . .
H75 H 0.4253 0.2140 0.3891 0.068 Uiso 1 1 calc R . .
C76 C 0.3906(5) 0.1522(4) 0.3888(5) 0.052(3) Uani 1 1 d . . .
H76 H 0.4182 0.1387 0.4174 0.063 Uiso 1 1 calc R . .
C77 C 0.2859(7) -0.1297(6) 0.4060(8) 0.087(3) Uani 1 1 d . . .
C78 C 0.2662(7) -0.1142(5) 0.4515(7) 0.087(3) Uani 1 1 d . . .
H78A H 0.2857 -0.0867 0.4701 0.130 Uiso 1 1 calc R . .
H78B H 0.2701 -0.1398 0.4781 0.130 Uiso 1 1 calc R . .
H78C H 0.2299 -0.1058 0.4359 0.130 Uiso 1 1 calc R . .
C79 C 0.3297(7) -0.1673(5) 0.4320(7) 0.087(3) Uani 1 1 d . . .
H79A H 0.3182 -0.1985 0.4164 0.130 Uiso 1 1 calc R . .
H79B H 0.3372 -0.1682 0.4721 0.130 Uiso 1 1 calc R . .
H79C H 0.3607 -0.1585 0.4234 0.130 Uiso 1 1 calc R . .
C80 C 0.2420(7) -0.1535(5) 0.3593(7) 0.087(3) Uani 1 1 d . . .
H80A H 0.2141 -0.1309 0.3445 0.130 Uiso 1 1 calc R . .
H80B H 0.2292 -0.1808 0.3742 0.130 Uiso 1 1 calc R . .
H80C H 0.2550 -0.1637 0.3297 0.130 Uiso 1 1 calc R . .
S6 S 0.25135(10) 0.01425(10) 0.27356(11) 0.0359(6) Uani 1 1 d . . .
C81 C 0.2780(4) 0.0229(3) 0.2196(4) 0.028(2) Uani 1 1 d . . .
C82 C 0.3036(4) -0.0105(3) 0.1999(4) 0.0228(19) Uani 1 1 d . . .
C83 C 0.3156(4) -0.0020(3) 0.1514(4) 0.028(2) Uani 1 1 d . . .
C84 C 0.3006(4) 0.0393(3) 0.1230(4) 0.031(2) Uani 1 1 d . . .
H