####################################################################### 
# 
# This file contains crystal structure data downloaded from the 
# Cambridge Structural Database (CSD) hosted by the Cambridge 
# Crystallographic Data Centre (CCDC).
# 
# Full information about CCDC data access policies and citation 
# guidelines are available at http://www.ccdc.cam.ac.uk/access/V1 
# 
# Audit and citation data items may have been added by the CCDC. 
# Please retain this information to preserve the provenance of 
# this file and to allow appropriate attribution of the data. 
# 
#######################################################################

data_e2258b
_audit_block_doi                 10.5517/ccz20qr
_database_code_depnum_ccdc_archive 'CCDC 895674'
loop_
_citation_id
_citation_doi
_citation_year
1 10.1039/c2dt31937c 2013
_audit_update_record             
;
2012-08-10 deposited with the CCDC.	2024-07-12 downloaded from the CCDC.
;
#TrackingRef 'web_deposit_cif_file_6_SylvieFERLAY_1344596913.3-AgPF6.cif'




_audit_creation_method           SHELXL-97

_chemical_name_systematic        
;

?

;

_chemical_name_common            ?

_chemical_melting_point          ?

_chemical_formula_moiety         4(C64H68Ag2N4O4S4),8(F6P),8(CHCl3),2H2O

_chemical_formula_sum            'C264 H284 Ag8 Cl24 F48 N16 O18 P8 S16'

_chemical_formula_weight         7355.55



loop_

_atom_type_symbol

_atom_type_description

_atom_type_scat_dispersion_real

_atom_type_scat_dispersion_imag

_atom_type_scat_source


















C C 0.0033 0.0016 'International Tables Vol C Tables 4.2.6.8 and 6.1.1.4'
H H 0.0000 0.0000 'International Tables Vol C Tables 4.2.6.8 and 6.1.1.4'
N N 0.0061 0.0033 'International Tables Vol C Tables 4.2.6.8 and 6.1.1.4'
O O 0.0106 0.0060 'International Tables Vol C Tables 4.2.6.8 and 6.1.1.4'
F F 0.0171 0.0103 'International Tables Vol C Tables 4.2.6.8 and 6.1.1.4'
P P 0.1023 0.0942 'International Tables Vol C Tables 4.2.6.8 and 6.1.1.4'
S S 0.1246 0.1234 'International Tables Vol C Tables 4.2.6.8 and 6.1.1.4'
Cl Cl 0.1484 0.1585 'International Tables Vol C Tables 4.2.6.8 and 6.1.1.4'
Ag Ag -0.8971 1.1015 'International Tables Vol C Tables 4.2.6.8 and 6.1.1.4'



_symmetry_cell_setting           Monoclinic

_symmetry_space_group_name_H-M   Cc

_symmetry_space_group_name_Hall  'C -2yc'



loop_

_symmetry_equiv_pos_as_xyz




'x, y, z'
'x, -y, z+1/2'
'x+1/2, y+1/2, z'
'x+1/2, -y+1/2, z+1/2'



_cell_length_a                   27.8405(11)

_cell_length_b                   14.2705(4)

_cell_length_c                   22.4525(6)

_cell_angle_alpha                90.00

_cell_angle_beta                 102.331(2)

_cell_angle_gamma                90.00

_cell_volume                     8714.5(5)

_cell_formula_units_Z            1

_cell_measurement_temperature    173(2)

_cell_measurement_reflns_used    8370

_cell_measurement_theta_min      2.33

_cell_measurement_theta_max      20.73



_exptl_crystal_description       prism

_exptl_crystal_colour            colorless

_exptl_crystal_size_max          0.07

_exptl_crystal_size_mid          0.06

_exptl_crystal_size_min          0.05

_exptl_crystal_density_meas      none

_exptl_crystal_density_diffrn    1.402

_exptl_crystal_density_method    'not measured'

_exptl_crystal_F_000             3716

_exptl_absorpt_coefficient_mu    0.835

_exptl_absorpt_correction_type   multi-scan

_exptl_absorpt_correction_T_min  0.9439

_exptl_absorpt_correction_T_max  0.9595

_exptl_absorpt_process_details   sadabs



_exptl_special_details           
;

?

;



_diffrn_ambient_temperature      173(2)

_diffrn_radiation_wavelength     0.71073

_diffrn_radiation_type           MoK\a

_diffrn_radiation_source         'fine-focus sealed tube'

_diffrn_radiation_monochromator  graphite

_diffrn_measurement_device_type  'CCD area detector'

_diffrn_measurement_method       'phi and omega scans'

_diffrn_detector_area_resol_mean ?

_diffrn_standards_number         ?

_diffrn_standards_interval_count ?

_diffrn_standards_interval_time  ?

_diffrn_standards_decay_%        ?

_diffrn_reflns_number            52532

_diffrn_reflns_av_R_equivalents  0.0568

_diffrn_reflns_av_sigmaI/netI    0.0903

_diffrn_reflns_limit_h_min       -37

_diffrn_reflns_limit_h_max       37

_diffrn_reflns_limit_k_min       -19

_diffrn_reflns_limit_k_max       18

_diffrn_reflns_limit_l_min       -29

_diffrn_reflns_limit_l_max       25

_diffrn_reflns_theta_min         1.50

_diffrn_reflns_theta_max         28.35

_reflns_number_total             20104

_reflns_number_gt                12771

_reflns_threshold_expression     >2sigma(I)



_computing_data_collection       'Bruker SMART'

_computing_cell_refinement       'Bruker SMART'

_computing_data_reduction        'Bruker SAINT'

_computing_structure_solution    'SHELXS-97 (Sheldrick, 1990)'

_computing_structure_refinement  'SHELXL-97 (Sheldrick, 1997)'

_computing_molecular_graphics    'Bruker SHELXTL'

_computing_publication_material  'Bruker SHELXTL'



_refine_special_details          
;

Refinement of F^2^ against ALL reflections. The weighted R-factor wR and

goodness of fit S are based on F^2^, conventional R-factors R are based

on F, with F set to zero for negative F^2^. The threshold expression of

F^2^ > 2sigma(F^2^) is used only for calculating R-factors(gt) etc. and is

not relevant to the choice of reflections for refinement. R-factors based

on F^2^ are statistically about twice as large as those based on F, and R-

factors based on ALL data will be even larger.

;



_refine_ls_structure_factor_coef Fsqd

_refine_ls_matrix_type           full

_refine_ls_weighting_scheme      calc

_refine_ls_weighting_details     
'calc w=1/[\s^2^(Fo^2^)+(0.2000P)^2^+0.3870P] where P=(Fo^2^+2Fc^2^)/3'

_atom_sites_solution_primary     direct

_atom_sites_solution_secondary   difmap

_atom_sites_solution_hydrogens   geom

_refine_ls_hydrogen_treatment    constr

_refine_ls_extinction_method     none

_refine_ls_extinction_coef       ?

_refine_ls_abs_structure_details 'Flack H D (1983), Acta Cryst. A39, 876-881'

_refine_ls_abs_structure_Flack   0.04(5)

_refine_ls_number_reflns         20104

_refine_ls_number_parameters     843

_refine_ls_number_restraints     80

_refine_ls_R_factor_all          0.1566

_refine_ls_R_factor_gt           0.0895

_refine_ls_wR_factor_ref         0.3078

_refine_ls_wR_factor_gt          0.2517

_refine_ls_goodness_of_fit_ref   1.130

_refine_ls_restrained_S_all      1.298

_refine_ls_shift/su_max          0.021

_refine_ls_shift/su_mean         0.011



loop_

_atom_site_label

_atom_site_type_symbol

_atom_site_fract_x

_atom_site_fract_y

_atom_site_fract_z

_atom_site_U_iso_or_equiv

_atom_site_adp_type

_atom_site_occupancy

_atom_site_symmetry_multiplicity

_atom_site_calc_flag

_atom_site_refinement_flags

_atom_site_disorder_assembly

_atom_site_disorder_group



































































































































































































Ag1 Ag 0.61918(4) -0.18957(9) 0.54469(5) 0.0579(3) Uani 1 1 d . . .
Ag2 Ag 1.18694(3) -0.09764(8) 0.65965(5) 0.0523(3) Uani 1 1 d . . .
S1 S 0.85485(10) 0.0191(2) 0.43286(12) 0.0359(6) Uani 1 1 d . . .
C1 C 0.8963(4) -0.0618(9) 0.4771(5) 0.032(2) Uani 1 1 d . . .
C2 C 0.8883(4) -0.1072(8) 0.5280(5) 0.032(2) Uani 1 1 d . . .
C3 C 0.9174(4) -0.1820(8) 0.5535(5) 0.034(2) Uani 1 1 d . . .
C4 C 0.9552(4) -0.2125(9) 0.5258(6) 0.038(3) Uani 1 1 d D . .
H4 H 0.9751 -0.2640 0.5429 0.046 Uiso 1 1 calc R . .
C5 C 0.9644(4) -0.1687(10) 0.4731(6) 0.038(3) Uani 1 1 d . . .
C6 C 0.9354(4) -0.0923(9) 0.4495(5) 0.036(3) Uani 1 1 d . . .
H6 H 0.9417 -0.0602 0.4149 0.043 Uiso 1 1 calc R . .
O1 O 0.8511(3) -0.0760(6) 0.5556(4) 0.0351(18) Uani 1 1 d . . .
C7 C 0.8062(4) -0.1281(10) 0.5333(6) 0.040(3) Uani 1 1 d . . .
H7A H 0.8127 -0.1961 0.5383 0.048 Uiso 1 1 calc R . .
H7B H 0.7937 -0.1150 0.4895 0.048 Uiso 1 1 calc R . .
C8 C 0.7689(4) -0.0992(8) 0.5688(6) 0.034(2) Uani 1 1 d . . .
C9 C 0.7229(4) -0.1418(8) 0.5545(6) 0.034(2) Uani 1 1 d . . .
H9 H 0.7177 -0.1873 0.5228 0.041 Uiso 1 1 calc R . .
N1 N 0.6861(4) -0.1247(9) 0.5808(5) 0.046(3) Uani 1 1 d . . .
C10 C 0.6955(5) -0.0585(10) 0.6257(7) 0.049(3) Uani 1 1 d . . .
H10 H 0.6701 -0.0460 0.6470 0.059 Uiso 1 1 calc R . .
C11 C 0.7373(4) -0.0098(10) 0.6423(6) 0.042(3) Uani 1 1 d . . .
H11 H 0.7408 0.0370 0.6730 0.050 Uiso 1 1 calc R . .
C12 C 0.7763(4) -0.0305(9) 0.6123(6) 0.040(3) Uani 1 1 d . . .
H12 H 0.8066 0.0025 0.6223 0.048 Uiso 1 1 calc R . .
C13 C 1.0027(5) -0.2074(11) 0.4404(6) 0.051(4) Uani 1 1 d . . .
C14 C 1.0470(11) -0.264(2) 0.4823(12) 0.068(5) Uani 1 1 d D . .
H14A H 1.0726 -0.2194 0.5016 0.102 Uiso 1 1 calc R . .
H14B H 1.0609 -0.3080 0.4571 0.102 Uiso 1 1 calc R . .
H14C H 1.0348 -0.2980 0.5138 0.102 Uiso 1 1 calc R . .
C15 C 0.9764(7) -0.2572(13) 0.3839(9) 0.068(5) Uani 1 1 d . . .
H15A H 0.9994 -0.2698 0.3575 0.102 Uiso 1 1 calc R . .
H15B H 0.9495 -0.2177 0.3622 0.102 Uiso 1 1 calc R . .
H15C H 0.9630 -0.3165 0.3953 0.102 Uiso 1 1 calc R . .
C16 C 1.0332(5) -0.1317(16) 0.4236(6) 0.067(5) Uani 1 1 d . . .
H16A H 1.0142 -0.0969 0.3888 0.100 Uiso 1 1 calc R . .
H16B H 1.0625 -0.1586 0.4126 0.100 Uiso 1 1 calc R . .
H16C H 1.0432 -0.0891 0.4583 0.100 Uiso 1 1 calc R . .
S2 S 0.90502(13) -0.2569(2) 0.60989(15) 0.0418(7) Uani 1 1 d . . .
C17 C 0.8860(4) -0.1867(8) 0.6660(5) 0.031(2) Uani 1 1 d . . .
C18 C 0.9126(4) -0.1083(7) 0.6906(5) 0.027(2) Uani 1 1 d . . .
C19 C 0.9018(4) -0.0681(8) 0.7425(5) 0.028(2) Uani 1 1 d . . .
C20 C 0.8627(4) -0.1028(8) 0.7668(5) 0.032(2) Uani 1 1 d . . .
H20 H 0.8547 -0.0732 0.8013 0.039 Uiso 1 1 calc R . .
C21 C 0.8353(4) -0.1806(9) 0.7406(5) 0.034(2) Uani 1 1 d . . .
C22 C 0.8481(5) -0.2206(8) 0.6921(5) 0.037(3) Uani 1 1 d . . .
H22 H 0.8305 -0.2745 0.6746 0.044 Uiso 1 1 calc R . .
O2 O 0.9495(3) -0.0708(5) 0.6668(4) 0.0314(16) Uani 1 1 d . . .
C23 C 0.9964(5) -0.1090(9) 0.6861(6) 0.042(3) Uani 1 1 d . . .
H23A H 0.9949 -0.1780 0.6813 0.051 Uiso 1 1 calc R . .
H23B H 1.0092 -0.0945 0.7297 0.051 Uiso 1 1 calc R . .
C24 C 1.0300(4) -0.0682(8) 0.6485(5) 0.033(2) Uani 1 1 d . . .
C25 C 1.0793(4) -0.0867(9) 0.6631(6) 0.039(3) Uani 1 1 d . . .
H25 H 1.0910 -0.1250 0.6978 0.047 Uiso 1 1 calc R . .
N2 N 1.1117(3) -0.0557(7) 0.6331(5) 0.041(2) Uani 1 1 d . . .
C26 C 1.0952(4) -0.0068(10) 0.5814(6) 0.044(3) Uani 1 1 d . . .
H26 H 1.1176 0.0119 0.5571 0.053 Uiso 1 1 calc R . .
C27 C 1.0449(4) 0.0168(9) 0.5632(6) 0.038(3) Uani 1 1 d . . .
H27 H 1.0334 0.0533 0.5276 0.045 Uiso 1 1 calc R . .
C28 C 1.0131(4) -0.0137(9) 0.5977(5) 0.036(3) Uani 1 1 d . . .
H28 H 0.9793 0.0027 0.5866 0.043 Uiso 1 1 calc R . .
C29 C 0.7940(6) -0.2216(12) 0.7705(7) 0.076(3) Uani 1 1 d D . .
C30 C 0.8241(13) -0.304(3) 0.809(2) 0.076(3) Uani 0.38(5) 1 d PD . 1
H30A H 0.8569 -0.2814 0.8282 0.115 Uiso 0.38(5) 1 calc PR . 1
H30B H 0.8270 -0.3564 0.7816 0.115 Uiso 0.38(5) 1 calc PR . 1
H30C H 0.8068 -0.3249 0.8401 0.115 Uiso 0.38(5) 1 calc PR . 1
C31 C 0.7535(6) -0.2677(13) 0.7201(6) 0.076(3) Uani 1 1 d D . .
H31A H 0.7326 -0.3079 0.7392 0.115 Uiso 1 1 calc R . .
H31B H 0.7691 -0.3054 0.6930 0.115 Uiso 1 1 calc R . .
H31C H 0.7334 -0.2186 0.6964 0.115 Uiso 1 1 calc R . .
C32 C 0.7721(13) -0.159(4) 0.813(2) 0.076(3) Uani 0.38(5) 1 d PD . 1
H32A H 0.7848 -0.0951 0.8114 0.115 Uiso 0.38(5) 1 calc PR . 1
H32B H 0.7813 -0.1831 0.8545 0.115 Uiso 0.38(5) 1 calc PR . 1
H32C H 0.7362 -0.1585 0.7995 0.115 Uiso 0.38(5) 1 calc PR . 1
S3 S 0.93929(10) 0.0192(2) 0.78571(13) 0.0320(6) Uani 1 1 d . . .
C33 C 0.9500(4) 0.1073(7) 0.7338(5) 0.027(2) Uani 1 1 d . . .
C34 C 0.9118(4) 0.1561(8) 0.6957(5) 0.031(2) Uani 1 1 d . . .
C35 C 0.9250(5) 0.2280(8) 0.6576(6) 0.038(3) Uani 1 1 d . . .
C36 C 0.9721(5) 0.2529(9) 0.6652(6) 0.045(3) Uani 1 1 d D . .
H36 H 0.9800 0.3011 0.6397 0.055 Uiso 1 1 calc R . .
C37 C 1.0116(4) 0.2126(8) 0.7089(5) 0.034(2) Uani 1 1 d . . .
C38 C 0.9977(4) 0.1372(9) 0.7403(5) 0.036(3) Uani 1 1 d . . .
H38 H 1.0227 0.1043 0.7679 0.043 Uiso 1 1 calc R . .
O3 O 0.8639(3) 0.1290(6) 0.6891(4) 0.0404(19) Uani 1 1 d . . .
C39 C 0.8428(5) 0.1560(11) 0.7393(7) 0.052(4) Uani 1 1 d . . .
H39A H 0.8673 0.1462 0.7778 0.062 Uiso 1 1 calc R . .
H39B H 0.8142 0.1152 0.7402 0.062 Uiso 1 1 calc R . .
C40 C 0.8257(5) 0.2605(12) 0.7357(7) 0.056(4) Uani 1 1 d . . .
C41 C 0.7775(5) 0.2792(11) 0.7061(7) 0.050(3) Uani 1 1 d . . .
H41 H 0.7559 0.2291 0.6908 0.060 Uiso 1 1 calc R . .
N3 N 0.7617(4) 0.3681(10) 0.6991(7) 0.062(4) Uani 1 1 d . . .
C42 C 0.7917(6) 0.4372(14) 0.7192(12) 0.097(8) Uani 1 1 d . . .
H42 H 0.7801 0.4999 0.7155 0.117 Uiso 1 1 calc R . .
C43 C 0.8424(7) 0.4183(17) 0.7468(14) 0.111(10) Uani 1 1 d . . .
H43 H 0.8666 0.4661 0.7548 0.133 Uiso 1 1 calc R . .
C44 C 0.8529(7) 0.3266(17) 0.7604(12) 0.105(10) Uani 1 1 d . . .
H44 H 0.8818 0.3118 0.7898 0.126 Uiso 1 1 calc R . .
C45 C 1.0646(7) 0.2470(14) 0.7167(8) 0.069(2) Uani 1 1 d . . .
C46 C 1.0918(7) 0.1770(14) 0.6906(8) 0.069(2) Uani 1 1 d . . .
H46A H 1.0704 0.1492 0.6546 0.103 Uiso 1 1 calc R . .
H46B H 1.1032 0.1279 0.7209 0.103 Uiso 1 1 calc R . .
H46C H 1.1201 0.2065 0.6788 0.103 Uiso 1 1 calc R . .
C47 C 1.0735(6) 0.3356(14) 0.6796(8) 0.069(2) Uani 1 1 d D . .
H47A H 1.0734 0.3917 0.7048 0.103 Uiso 1 1 calc R . .
H47B H 1.0473 0.3406 0.6428 0.103 Uiso 1 1 calc R . .
H47C H 1.1054 0.3301 0.6680 0.103 Uiso 1 1 calc R . .
C48 C 1.0869(7) 0.2604(14) 0.7829(8) 0.069(2) Uani 1 1 d . . .
H48A H 1.0763 0.2096 0.8065 0.103 Uiso 1 1 calc R . .
H48B H 1.0762 0.3206 0.7966 0.103 Uiso 1 1 calc R . .
H48C H 1.1228 0.2596 0.7890 0.103 Uiso 1 1 calc R . .
S4 S 0.88038(15) 0.2956(2) 0.60976(17) 0.0555(10) Uani 1 1 d . . .
C49 C 0.8433(4) 0.2129(8) 0.5578(5) 0.034(2) Uani 1 1 d . . .
C50 C 0.8636(4) 0.1549(9) 0.5240(6) 0.039(3) Uani 1 1 d . . .
C51 C 0.8322(4) 0.0905(8) 0.4821(5) 0.033(2) Uani 1 1 d . . .
C52 C 0.7823(4) 0.1036(8) 0.4760(5) 0.030(2) Uani 1 1 d . . .
H52 H 0.7604 0.0646 0.4485 0.036 Uiso 1 1 calc R . .
C53 C 0.7623(4) 0.1727(8) 0.5091(5) 0.029(2) Uani 1 1 d . . .
C54 C 0.7930(5) 0.2213(9) 0.5498(6) 0.039(3) Uani 1 1 d . . .
H54 H 0.7801 0.2640 0.5748 0.047 Uiso 1 1 calc R . .
O4 O 0.9148(3) 0.1524(6) 0.5244(4) 0.0358(18) Uani 1 1 d . . .
C55 C 0.9241(5) 0.2241(11) 0.4836(8) 0.053(3) Uani 1 1 d . . .
H55A H 0.9247 0.2863 0.5033 0.063 Uiso 1 1 calc R . .
H55B H 0.8978 0.2243 0.4461 0.063 Uiso 1 1 calc R . .
C56 C 0.9724(5) 0.2044(11) 0.4682(8) 0.052(4) Uani 1 1 d . . .
C57 C 1.0140(5) 0.2456(10) 0.5025(7) 0.048(3) Uani 1 1 d . . .
H57 H 1.0102 0.2857 0.5349 0.057 Uiso 1 1 calc R . .
N4 N 1.0594(4) 0.2328(8) 0.4931(6) 0.051(3) Uani 1 1 d . . .
C58 C 1.0641(6) 0.1810(10) 0.4446(7) 0.049(3) Uani 1 1 d . . .
H58 H 1.0959 0.1750 0.4358 0.059 Uiso 1 1 calc R . .
C59 C 1.0262(6) 0.1371(11) 0.4077(8) 0.059(4) Uani 1 1 d . . .
H59 H 1.0313 0.0988 0.3750 0.071 Uiso 1 1 calc R . .
C60 C 0.9790(5) 0.1500(11) 0.4193(7) 0.054(4) Uani 1 1 d . . .
H60 H 0.9514 0.1212 0.3936 0.064 Uiso 1 1 calc R . .
C61 C 0.7069(4) 0.1915(10) 0.4924(5) 0.041(3) Uani 1 1 d . . .
C62 C 0.6769(6) 0.0959(16) 0.4868(11) 0.084(3) Uani 1 1 d . . .
H62A H 0.6989 0.0435 0.4835 0.126 Uiso 1 1 calc R . .
H62B H 0.6502 0.0979 0.4504 0.126 Uiso 1 1 calc R . .
H62C H 0.6630 0.0875 0.5230 0.126 Uiso 1 1 calc R . .
C63 C 0.6918(7) 0.2472(17) 0.5433(10) 0.084(3) Uani 1 1 d . . .
H63A H 0.6567 0.2375 0.5417 0.126 Uiso 1 1 calc R . .
H63B H 0.6980 0.3139 0.5380 0.126 Uiso 1 1 calc R . .
H63C H 0.7110 0.2259 0.5828 0.126 Uiso 1 1 calc R . .
C64 C 0.6921(6) 0.2398(17) 0.4360(10) 0.084(3) Uani 1 1 d . . .
H64A H 0.7203 0.2732 0.4266 0.126 Uiso 1 1 calc R . .
H64B H 0.6661 0.2848 0.4391 0.126 Uiso 1 1 calc R . .
H64C H 0.6796 0.1947 0.4035 0.126 Uiso 1 1 calc R . .
P1 P 0.09929(17) 0.6436(3) 0.6722(2) 0.0694(12) Uani 1 1 d D . .
F1 F 0.0506(6) 0.6980(13) 0.6342(8) 0.0694(12) Uani 0.46(3) 1 d PD A 1
F2 F 0.0641(7) 0.5573(10) 0.6859(9) 0.0694(12) Uani 0.46(3) 1 d PD A 1
F3 F 0.1050(8) 0.5947(12) 0.6075(6) 0.0694(12) Uani 0.46(3) 1 d PD A 1
F4 F 0.1493(5) 0.5874(12) 0.7052(8) 0.0694(12) Uani 0.46(3) 1 d PD A 1
F5 F 0.1334(7) 0.7301(10) 0.6562(9) 0.0694(12) Uani 0.46(3) 1 d PD A 1
F6 F 0.0959(8) 0.6950(13) 0.7355(6) 0.0694(12) Uani 0.46(3) 1 d PD A 1
P2 P 0.23040(19) 0.0715(3) 0.5422(3) 0.0835(17) Uani 1 1 d D . .
F7 F 0.2153(6) 0.0766(11) 0.6126(6) 0.144(3) Uani 1 1 d D . .
F8 F 0.1851(5) 0.1438(10) 0.5163(7) 0.144(3) Uani 1 1 d D . .
F9 F 0.1932(5) -0.0209(9) 0.5233(8) 0.144(3) Uani 1 1 d D . .
F10 F 0.2498(6) 0.0571(11) 0.4785(6) 0.144(3) Uani 1 1 d D . .
F11 F 0.2775(5) -0.0036(10) 0.5755(8) 0.144(3) Uani 1 1 d D . .
F12 F 0.2687(5) 0.1604(9) 0.5644(8) 0.144(3) Uani 1 1 d D . .
C65 C 0.3646(17) 0.032(3) 0.489(2) 0.0917(18) Uani 0.50 1 d P . .
H65 H 0.3456 0.0414 0.5219 0.110 Uiso 0.50 1 calc PR . .
Cl1 Cl 0.4239(4) 0.0225(8) 0.5253(6) 0.0917(18) Uani 0.50 1 d P . .
Cl2 Cl 0.3581(4) 0.1422(8) 0.4438(6) 0.0917(18) Uani 0.50 1 d P . .
Cl3 Cl 0.3392(4) -0.0631(8) 0.4490(6) 0.0917(18) Uani 0.50 1 d P . .
C66 C 0.6750(19) 0.460(3) 0.854(3) 0.099(2) Uani 0.50 1 d P . .
H66 H 0.7015 0.4478 0.8911 0.118 Uiso 0.50 1 calc PR . .
Cl4 Cl 0.6309(5) 0.5270(7) 0.8897(7) 0.099(2) Uani 0.50 1 d P . .
Cl5 Cl 0.6824(5) 0.3490(8) 0.8068(7) 0.099(2) Uani 0.50 1 d P . .
Cl6 Cl 0.7059(5) 0.5361(8) 0.8152(7) 0.099(2) Uani 0.50 1 d P . .
C67 C 0.481(2) 0.065(3) 0.777(2) 0.0935(19) Uani 0.50 1 d P . .
H67 H 0.5144 0.0735 0.7669 0.112 Uiso 0.50 1 calc PR . .
Cl7 Cl 0.4642(5) 0.1733(8) 0.7861(6) 0.0935(19) Uani 0.50 1 d P . .
Cl8 Cl 0.4865(5) -0.0277(7) 0.8078(6) 0.0935(19) Uani 0.50 1 d P . .
Cl9 Cl 0.4399(5) 0.0296(8) 0.6961(6) 0.0935(19) Uani 0.50 1 d P . .
O5 O 0.5523(9) 0.9511(14) 0.5391(11) 0.066(6) Uani 0.50 1 d P . .
C69 C 0.1993(9) 0.6716(19) 0.8521(16) 0.127(3) Uani 0.50 1 d PD . .
H69 H 0.1809 0.6951 0.8117 0.152 Uiso 0.50 1 calc PR . .
Cl10 Cl 0.1567(6) 0.6474(12) 0.8981(7) 0.127(3) Uani 0.50 1 d PD . .
Cl11 Cl 0.2479(6) 0.7452(11) 0.8783(7) 0.127(3) Uani 0.50 1 d PD . .
Cl12 Cl 0.2323(6) 0.5749(11) 0.8405(7) 0.127(3) Uani 0.50 1 d PD . .
C