####################################################################### 
# 
# This file contains crystal structure data downloaded from the 
# Cambridge Structural Database (CSD) hosted by the Cambridge 
# Crystallographic Data Centre (CCDC).
# 
# Full information about CCDC data access policies and citation 
# guidelines are available at http://www.ccdc.cam.ac.uk/access/V1 
# 
# Audit and citation data items may have been added by the CCDC. 
# Please retain this information to preserve the provenance of 
# this file and to allow appropriate attribution of the data. 
# 
#######################################################################

data_compound1
_audit_block_doi                 10.5517/ccxyn4m
_database_code_depnum_ccdc_archive 'CCDC 862641'
loop_
_citation_id
_citation_doi
_citation_year
1 10.1016/j.inoche.2012.09.006 2012
_audit_update_record             
;
2012-01-11 deposited with the CCDC.	2024-07-12 downloaded from the CCDC.
;
#TrackingRef 'web_deposit_cif_file_0_Ya-FengLi_1346779100.compound 1.cif'


_audit_creation_method           SHELXL-97
_chemical_name_systematic        
;
?
;
_chemical_name_common            ?
_chemical_melting_point          ?
_chemical_formula_moiety         'C31 H24 N2 O18 Zn3'
_chemical_formula_sum            'C31 H24 N2 O18 Zn3'
_chemical_formula_weight         908.63

loop_
_atom_type_symbol
_atom_type_description
_atom_type_scat_dispersion_real
_atom_type_scat_dispersion_imag
_atom_type_scat_source
C C 0.0033 0.0016 'International Tables Vol C Tables 4.2.6.8 and 6.1.1.4'
H H 0.0000 0.0000 'International Tables Vol C Tables 4.2.6.8 and 6.1.1.4'
N N 0.0061 0.0033 'International Tables Vol C Tables 4.2.6.8 and 6.1.1.4'
O O 0.0106 0.0060 'International Tables Vol C Tables 4.2.6.8 and 6.1.1.4'
Zn Zn 0.2839 1.4301 'International Tables Vol C Tables 4.2.6.8 and 6.1.1.4'

_symmetry_cell_setting           triclinic
_symmetry_space_group_name_H-M   'P -1'
_symmetry_space_group_name_Hall  '-P 1'

loop_
_symmetry_equiv_pos_as_xyz
'x, y, z'
'-x, -y, -z'

_cell_length_a                   11.727(2)
_cell_length_b                   13.451(3)
_cell_length_c                   15.565(3)
_cell_angle_alpha                113.39(3)
_cell_angle_beta                 98.71(3)
_cell_angle_gamma                102.97(3)
_cell_volume                     2115.0(7)
_cell_formula_units_Z            2
_cell_measurement_temperature    293(2)
_cell_measurement_reflns_used    2000
_cell_measurement_theta_min      3.04
_cell_measurement_theta_max      27.48

_exptl_crystal_description       block
_exptl_crystal_colour            colorless
_exptl_crystal_size_max          0.37
_exptl_crystal_size_mid          0.21
_exptl_crystal_size_min          0.21
_exptl_crystal_density_meas      ?
_exptl_crystal_density_diffrn    1.427
_exptl_crystal_density_method    'not measured'
_exptl_crystal_F_000             916
_exptl_absorpt_coefficient_mu    1.757
_exptl_absorpt_correction_type   empirical
_exptl_absorpt_correction_T_min  0.5626
_exptl_absorpt_correction_T_max  0.7093
_exptl_absorpt_process_details   '(ABSCOR; Higashi, 1995)'

_exptl_special_details           
;
?
;

_diffrn_ambient_temperature      293(2)
_diffrn_radiation_wavelength     0.71073
_diffrn_radiation_type           MoK\a
_diffrn_radiation_source         'fine-focus sealed tube'
_diffrn_radiation_monochromator  graphite
_diffrn_measurement_device_type  'Rigaku R-AXIS RAPID'
_diffrn_measurement_method       \w
_diffrn_detector_area_resol_mean 10.00
_diffrn_reflns_number            20429
_diffrn_reflns_av_R_equivalents  0.0732
_diffrn_reflns_av_sigmaI/netI    0.1009
_diffrn_reflns_limit_h_min       -15
_diffrn_reflns_limit_h_max       14
_diffrn_reflns_limit_k_min       -16
_diffrn_reflns_limit_k_max       17
_diffrn_reflns_limit_l_min       -20
_diffrn_reflns_limit_l_max       20
_diffrn_reflns_theta_min         3.04
_diffrn_reflns_theta_max         27.48
_reflns_number_total             9542
_reflns_number_gt                5787
_reflns_threshold_expression     >2sigma(I)

_computing_data_collection       'PROCESS-AUTO (Rigaku, 1998)'
_computing_cell_refinement       PROCESS-AUTO
_computing_data_reduction        'CrystalStructure (Rigaku/MSC, 2002)'
_computing_structure_solution    'SHELXS97 (Sheldrick, 2008)'
_computing_structure_refinement  'SHELXL97 (Sheldrick, 2008)'
_computing_molecular_graphics    'DIAMOND (Brandenburg, 2000)'
_computing_publication_material  SHELXL97


_refine_special_details          
;
Refinement of F^2^ against ALL reflections. The weighted R-factor wR and
goodness of fit S are based on F^2^, conventional R-factors R are based
on F, with F set to zero for negative F^2^. The threshold expression of
F^2^ > 2sigma(F^2^) is used only for calculating R-factors(gt) etc. and is
not relevant to the choice of reflections for refinement. R-factors based
on F^2^ are statistically about twice as large as those based on F, and R-
factors based on ALL data will be even larger.
;

_refine_ls_structure_factor_coef Fsqd
_refine_ls_matrix_type           full
_refine_ls_weighting_scheme      calc
_refine_ls_weighting_details     
'calc w=1/[\s^2^(Fo^2^)+(0.1000P)^2^+0.0000P] where P=(Fo^2^+2Fc^2^)/3'
_atom_sites_solution_primary     direct
_atom_sites_solution_secondary   difmap
_atom_sites_solution_hydrogens   geom
_refine_ls_hydrogen_treatment    constr
_refine_ls_extinction_method     none
_refine_ls_extinction_coef       ?
_refine_ls_number_reflns         9592
_refine_ls_number_parameters     487
_refine_ls_number_restraints     0
_refine_ls_R_factor_all          0.1253
_refine_ls_R_factor_gt           0.0746
_refine_ls_wR_factor_ref         0.2284
_refine_ls_wR_factor_gt          0.1953
_refine_ls_goodness_of_fit_ref   1.207
_refine_ls_restrained_S_all      1.207
_refine_ls_shift/su_max          0.002
_refine_ls_shift/su_mean         0.000

loop_
_atom_site_label
_atom_site_type_symbol
_atom_site_fract_x
_atom_site_fract_y
_atom_site_fract_z
_atom_site_U_iso_or_equiv
_atom_site_adp_type
_atom_site_occupancy
_atom_site_symmetry_multiplicity
_atom_site_calc_flag
_atom_site_refinement_flags
_atom_site_disorder_assembly
_atom_site_disorder_group
Zn1 Zn -0.34864(6) 0.65428(6) 0.34709(5) 0.0330(2) Uani 1 1 d . . .
Zn2 Zn 0.51958(7) 1.19165(6) 0.69060(6) 0.0360(2) Uani 1 1 d . . .
Zn3 Zn -0.07657(7) 0.57970(6) 0.31193(6) 0.0361(2) Uani 1 1 d . . .
O1 O -0.2069(4) 0.7661(4) 0.4646(3) 0.0398(10) Uani 1 1 d . . .
O1W O 0.0635(6) 0.7241(5) 0.3038(5) 0.0780(19) Uani 1 1 d . . .
O2 O -0.0457(4) 0.7041(4) 0.4466(4) 0.0460(12) Uani 1 1 d . . .
O3 O 0.1066(4) 0.9181(4) 0.5476(3) 0.0384(10) Uani 1 1 d . . .
O4 O 0.3467(4) 1.1817(4) 0.6821(4) 0.0451(12) Uani 1 1 d . . .
O5 O 0.3422(4) 1.0180(4) 0.5649(4) 0.0511(13) Uani 1 1 d . . .
O6 O -0.5930(4) 0.6676(4) 0.1834(4) 0.0463(12) Uani 1 1 d . . .
O7 O -0.4866(4) 0.5632(4) 0.2210(3) 0.0411(11) Uani 1 1 d . . .
O8 O -0.6828(4) 0.5100(4) 0.0000(3) 0.0378(10) Uani 1 1 d . . .
O9 O -0.7798(4) 0.3582(4) -0.2561(3) 0.0414(11) Uani 1 1 d . . .
O10 O -0.8505(5) 0.4826(5) -0.1583(4) 0.0507(13) Uani 1 1 d . . .
O11 O -0.1984(4) 0.4527(4) 0.3194(4) 0.0451(12) Uani 1 1 d . . .
O12 O -0.3510(4) 0.5159(4) 0.3698(4) 0.0388(11) Uani 1 1 d . . .
O13 O -0.3858(4) 0.3693(3) 0.4534(3) 0.0333(10) Uani 1 1 d . . .
O14 O -0.5308(4) 0.3177(4) 0.5665(3) 0.0409(11) Uani 1 1 d . . .
O15 O -0.4096(5) 0.2197(4) 0.5956(4) 0.0503(13) Uani 1 1 d . . .
N1 N 0.9460(5) 0.4963(5) 0.6836(4) 0.0387(13) Uani 1 1 d . . .
N2 N 0.5893(5) 1.0801(5) 0.7156(4) 0.0406(13) Uani 1 1 d . . .
C1 C -0.0937(6) 0.7792(5) 0.4816(5) 0.0356(14) Uani 1 1 d . . .
C2 C -0.0135(5) 0.8962(5) 0.5501(5) 0.0356(14) Uani 1 1 d . . .
C3 C -0.0304(7) 0.9882(6) 0.6131(6) 0.0493(18) Uani 1 1 d . . .
H3 H -0.1032 0.9943 0.6279 0.059 Uiso 1 1 calc R . .
C4 C 0.0837(6) 1.0767(6) 0.6543(6) 0.0446(17) Uani 1 1 d . . .
H4 H 0.0998 1.1511 0.7013 0.053 Uiso 1 1 calc R . .
C5 C 0.1625(6) 1.0311(5) 0.6119(5) 0.0383(15) Uani 1 1 d . . .
C6 C 0.2918(6) 1.0780(5) 0.6172(5) 0.0367(15) Uani 1 1 d . . .
C7 C -0.5596(6) 0.5801(6) 0.1645(5) 0.0366(15) Uani 1 1 d . . .
C8 C -0.6111(6) 0.4873(5) 0.0644(5) 0.0340(14) Uani 1 1 d . . .
C9 C -0.5948(6) 0.3850(6) 0.0185(5) 0.0425(16) Uani 1 1 d . . .
H9 H -0.5512 0.3507 0.0467 0.051 Uiso 1 1 calc R . .
C10 C -0.6570(6) 0.3399(6) -0.0812(5) 0.0432(16) Uani 1 1 d . . .
H10 H -0.6626 0.2701 -0.1310 0.052 Uiso 1 1 calc R . .
C11 C -0.7068(6) 0.4188(6) -0.0897(5) 0.0377(15) Uani 1 1 d . . .
C12 C -0.7822(6) 0.4214(6) -0.1718(5) 0.0368(15) Uani 1 1 d . . .
C13 C -0.2842(6) 0.4530(5) 0.3601(5) 0.0349(14) Uani 1 1 d . . .
C14 C -0.3044(5) 0.3680(5) 0.3978(5) 0.0318(13) Uani 1 1 d . . .
C15 C -0.2467(6) 0.2910(6) 0.3960(6) 0.0443(18) Uani 1 1 d . . .
H15 H -0.1891 0.2734 0.3625 0.053 Uiso 1 1 calc R . .
C16 C -0.2907(6) 0.2423(6) 0.4546(6) 0.0443(17) Uani 1 1 d . . .
H16 H -0.2674 0.1868 0.4673 0.053 Uiso 1 1 calc R . .
C17 C -0.3741(5) 0.2925(5) 0.4889(5) 0.0322(13) Uani 1 1 d . . .
C18 C -0.4460(6) 0.2771(5) 0.5548(5) 0.0344(14) Uani 1 1 d . . .
C31 C 0.9330(6) 0.5464(6) 0.6236(5) 0.0429(16) Uani 1 1 d . . .
H31 H 0.9894 0.5498 0.5880 0.051 Uiso 1 1 calc R . .
C32 C 0.8415(7) 0.5921(6) 0.6127(6) 0.0518(19) Uani 1 1 d . . .
H32 H 0.8377 0.6255 0.5708 0.062 Uiso 1 1 calc R . .
C33 C 0.7542(6) 0.5888(6) 0.6640(6) 0.0475(18) Uani 1 1 d . . .
C34 C 0.8648(7) 0.4976(8) 0.7362(7) 0.061(2) Uani 1 1 d . . .
H34 H 0.8729 0.4678 0.7806 0.073 Uiso 1 1 calc R . .
C35 C 0.7694(7) 0.5414(8) 0.7275(7) 0.066(3) Uani 1 1 d . . .
H35 H 0.7150 0.5388 0.7649 0.079 Uiso 1 1 calc R . .
C36 C 0.6483(7) 0.6308(8) 0.6471(8) 0.070(3) Uani 1 1 d . . .
H36A H 0.6534 0.6557 0.5969 0.084 Uiso 1 1 calc R . .
H36B H 0.5735 0.5680 0.6237 0.084 Uiso 1 1 calc R . .
C37 C 0.6433(8) 0.7261(8) 0.7354(8) 0.075(3) Uani 1 1 d . . .
H37A H 0.6504 0.7047 0.7881 0.090 Uiso 1 1 calc R . .
H37B H 0.5643 0.7365 0.7234 0.090 Uiso 1 1 calc R . .
C38 C 0.7395(9) 0.8381(8) 0.7677(10) 0.100(4) Uani 1 1 d . . .
H38A H 0.8013 0.8251 0.7335 0.120 Uiso 1 1 calc R . .
H38B H 0.7778 0.8691 0.8366 0.120 Uiso 1 1 calc R . .
C39 C 0.6901(8) 0.9239(7) 0.7496(7) 0.062(2) Uani 1 1 d . . .
C40 C 0.6614(11) 1.0033(9) 0.8201(8) 0.089(4) Uani 1 1 d . . .
H40 H 0.6741 1.0062 0.8816 0.107 Uiso 1 1 calc R . .
C41 C 0.6640(7) 0.9221(7) 0.6593(7) 0.062(2) Uani 1 1 d . . .
H41 H 0.6797 0.8673 0.6074 0.075 Uiso 1 1 calc R . .
C42 C 0.6146(7) 1.0011(6) 0.6446(6) 0.0503(18) Uani 1 1 d . . .
H42 H 0.5990 0.9981 0.5831 0.060 Uiso 1 1 calc R . .
C43 C 0.6134(10) 1.0807(8) 0.8031(6) 0.071(3) Uani 1 1 d . . .
H43 H 0.5969 1.1357 0.8545 0.086 Uiso 1 1 calc R . .
O2W O 0.1527(12) 0.6760(11) 0.1386(13) 0.215(7) Uani 1 1 d . . .
O3W O 0.594(3) 0.212(3) 0.0823(18) 0.433(19) Uani 1 1 d . . .

loop_
_atom_site_aniso_label
_atom_site_aniso_U_11
_atom_site_aniso_U_22
_atom_site_aniso_U_33
_atom_site_aniso_U_23
_atom_site_aniso_U_13
_atom_site_aniso_U_12
Zn1 0.0309(4) 0.0351(4) 0.0345(4) 0.0159(4) 0.0074(3) 0.0132(3)
Zn2 0.0372(4) 0.0376(4) 0.0402(5) 0.0210(4) 0.0101(3) 0.0179(3)
Zn3 0.0354(4) 0.0394(4) 0.0389(5) 0.0183(4) 0.0110(3) 0.0194(3)
O1 0.033(2) 0.038(2) 0.037(3) 0.010(2) 0.005(2) 0.0093(19)
O1W 0.081(4) 0.072(4) 0.099(5) 0.046(4) 0.038(4) 0.034(4)
O2 0.045(3) 0.035(2) 0.045(3) 0.007(2) 0.000(2) 0.018(2)
O3 0.035(2) 0.032(2) 0.041(3) 0.011(2) 0.006(2) 0.0106(19)
O4 0.036(3) 0.038(3) 0.048(3) 0.009(2) 0.005(2) 0.011(2)
O5 0.042(3) 0.041(3) 0.063(4) 0.015(3) 0.018(3) 0.012(2)
O6 0.050(3) 0.040(3) 0.044(3) 0.011(2) 0.007(2) 0.023(2)
O7 0.043(3) 0.043(3) 0.037(3) 0.021(2) 0.004(2) 0.013(2)
O8 0.040(2) 0.040(2) 0.037(3) 0.020(2) 0.007(2) 0.015(2)
O9 0.043(3) 0.044(3) 0.034(3) 0.015(2) 0.008(2) 0.011(2)
O10 0.051(3) 0.067(3) 0.043(3) 0.026(3) 0.014(2) 0.031(3)
O11 0.048(3) 0.042(3) 0.064(3) 0.030(3) 0.034(3) 0.024(2)
O12 0.037(2) 0.039(2) 0.054(3) 0.029(2) 0.018(2) 0.020(2)
O13 0.034(2) 0.034(2) 0.041(3) 0.020(2) 0.015(2) 0.0176(18)
O14 0.043(3) 0.047(3) 0.042(3) 0.023(2) 0.018(2) 0.021(2)
O15 0.065(3) 0.059(3) 0.055(3) 0.038(3) 0.028(3) 0.038(3)
N1 0.038(3) 0.043(3) 0.040(3) 0.020(3) 0.016(3) 0.016(2)
N2 0.046(3) 0.042(3) 0.039(3) 0.019(3) 0.011(3) 0.022(3)
C1 0.033(3) 0.032(3) 0.033(4) 0.010(3) 0.002(3) 0.007(3)
C2 0.027(3) 0.029(3) 0.046(4) 0.013(3) 0.009(3) 0.006(2)
C3 0.045(4) 0.042(4) 0.053(5) 0.014(4) 0.018(4) 0.010(3)
C4 0.038(4) 0.034(4) 0.050(5) 0.009(3) 0.011(3) 0.009(3)
C5 0.038(4) 0.029(3) 0.039(4) 0.009(3) 0.004(3) 0.011(3)
C6 0.035(3) 0.035(3) 0.037(4) 0.016(3) 0.004(3) 0.011(3)
C7 0.034(3) 0.047(4) 0.037(4) 0.024(3) 0.016(3) 0.012(3)
C8 0.036(3) 0.039(3) 0.032(4) 0.017(3) 0.012(3) 0.015(3)
C9 0.047(4) 0.041(4) 0.039(4) 0.020(3) 0.005(3) 0.013(3)
C10 0.044(4) 0.032(3) 0.046(4) 0.015(3) 0.007(3) 0.007(3)
C11 0.037(3) 0.042(4) 0.032(4) 0.014(3) 0.013(3) 0.012(3)
C12 0.038(4) 0.039(4) 0.037(4) 0.020(3) 0.009(3) 0.013(3)
C13 0.033(3) 0.031(3) 0.035(4) 0.011(3) 0.004(3) 0.009(3)
C14 0.035(3) 0.031(3) 0.035(4) 0.015(3) 0.014(3) 0.017(3)
C15 0.045(4) 0.041(4) 0.070(5) 0.034(4) 0.034(4) 0.026(3)
C16 0.047(4) 0.043(4) 0.065(5) 0.034(4) 0.025(4) 0.029(3)
C17 0.032(3) 0.034(3) 0.040(4) 0.021(3) 0.013(3) 0.016(3)
C18 0.033(3) 0.023(3) 0.043(4) 0.012(3) 0.008(3) 0.009(2)
C31 0.040(4) 0.048(4) 0.047(4) 0.023(4) 0.013(3) 0.022(3)
C32 0.050(4) 0.053(5) 0.055(5) 0.029(4) 0.007(4) 0.017(4)
C33 0.039(4) 0.030(3) 0.066(5) 0.018(4) 0.003(4) 0.011(3)
C34 0.066(5) 0.079(6) 0.084(7) 0.064(6) 0.042(5) 0.041(5)
C35 0.054(5) 0.078(6) 0.101(8) 0.055(6) 0.051(5) 0.035(4)
C36 0.034(4) 0.064(5) 0.115(9) 0.039(6) 0.014(5) 0.025(4)
C37 0.068(6) 0.061(5) 0.112(9) 0.041(6) 0.026(6) 0.046(5)
C38 0.078(7) 0.052(5) 0.160(12) 0.045(7) -0.007(7) 0.037(5)
C39 0.059(5) 0.039(4) 0.074(6) 0.018(4) -0.008(4) 0.019(4)
C40 0.148(10) 0.086(7) 0.071(7) 0.049(6) 0.031(7) 0.077(7)
C41 0.053(5) 0.039(4) 0.075(6) 0.004(4) 0.013(4) 0.024(4)
C42 0.051(4) 0.047(4) 0.046(5) 0.013(4) 0.013(4) 0.019(3)
C43 0.127(8) 0.069(6) 0.043(5) 0.030(5) 0.028(5) 0.064(6)
O2W 0.186(12) 0.170(11) 0.35(2) 0.125(13) 0.177(14) 0.078(10)
O3W 0.58(5) 0.56(5) 0.32(3) 0.18(3) 0.19(3) 0.46(4)

_geom_special_details            
;
All esds (except the esd in the dihedral angle between two l.s. planes)
are estimated using the full covariance matrix. The cell esds are taken
into account individually in the estimation of esds in distances, angles
and torsion angles; correlations between esds in cell parameters are only
used when they are defined by crystal symmetry. An approximate (isotropic)
treatment of cell esds is used for estimating esds involving l.s. planes.
;

loop_
_geom_bond_atom_site_label_1
_geom_bond_atom_site_label_2
_geom_bond_distance
_geom_bond_site_symmetry_2
_geom_bond_publ_flag
Zn1 O12 2.024(4) . ?
Zn1 O1 2.036(5) . ?
Zn1 O7 2.052(5) . ?
Zn1 O14 2.088(5) 2_466 ?
Zn1 O9 2.207(5) 2_465 ?
Zn1 O4 2.418(5) 2_576 ?
Zn1 Zn2 3.3366(13) 2_576 ?
Zn2 O15 1.921(5) 1_665 ?
Zn2 O4 1.983(5) . ?
Zn2 O6 1.995(5) 2_576 ?
Zn2 N2 1.998(5) . ?
Zn2 O5 2.563(5) . ?
Zn2 C6 2.576(7) . ?
Zn2 Zn1 3.3366(12) 2_576 ?
Zn3 O2 2.009(5) . ?
Zn3 O11 2.020(4) . ?
Zn3 N1 2.030(5) 2_666 ?
Zn3 O10 2.149(5) 2_465 ?
Zn3 O9 2.248(5) 2_465 ?
Zn3 O1W 2.305(6) . ?
Zn3 C12 2.525(6) 2_465 ?
O1 C1 1.271(8) . ?
O2 C1 1.244(8) . ?
O3 C5 1.374(8) . ?
O3 C2 1.382(7) . ?
O4 C6 1.289(8) . ?
O4 Zn1 2.418(5) 2_576 ?
O5 C6 1.225(8) . ?
O6 C7 1.262(8) . ?
O6 Zn2 1.995(5) 2_576 ?
O7 C7 1.254(7) . ?
O8 C11 1.378(8) . ?
O8 C8 1.381(7) . ?
O9 C12 1.258(8) . ?
O9 Zn1 2.207(5) 2_465 ?
O9 Zn3 2.248(5) 2_465 ?
O10 C12 1.256(8) . ?
O10 Zn3 2.149(5) 2_465 ?
O11 C13 1.268(7) . ?
O12 C13 1.259(7) . ?
O13 C17 1.373(6) . ?
O13 C14 1.381(7) . ?
O14 C18 1.241(7) . ?
O14 Zn1 2.088(5) 2_466 ?
O15 C18 1.280(7) . ?
O15 Zn2 1.921(5) 1_445 ?
N1 C34 1.346(9) . ?
N1 C31 1.360(8) . ?
N1 Zn3 2.030(5) 2_666 ?
N2 C42 1.321(9) . ?
N2 C43 1.345(9) . ?
C1 C2 1.482(9) . ?
C2 C3 1.318(10) . ?
C3 C4 1.427(9) . ?
C3 H3 0.9300 . ?
C4 C5 1.335(10) . ?
C4 H4 0.9300 . ?
C5 C6 1.481(9) . ?
C7 C8 1.477(9) . ?
C8 C9 1.349(9) . ?
C9 C10 1.422(10) . ?
C9 H9 0.9300 . ?
C10 C11 1.361(9) . ?
C10 H10 0.9300 . ?
C11 C12 1.456(9) . ?
C12 Zn3 2.525(6) 2_465 ?
C13 C14 1.471(8) . ?
C14 C15 1.353(8) . ?
C15 C16 1.410(9) . ?
C15 H15 0.9300 . ?
C16 C17 1.367(9) . ?
C16 H16 0.9300 . ?
C17 C18 1.468(9) . ?
C31 C32 1.372(10) . ?
C31 H31 0.9300 . ?
C32 C33 1.394(11) . ?
C32 H32 0.9300 . ?
C33 C35 1.383(11) . ?
C33 C36 1.505(10) . ?
C34 C35 1.390(11) . ?
C34 H34 0.9300 . ?
C35 H35 0.9300 . ?
C36 C37 1.481(14) . ?
C36 H36A 0.9700 . ?
C36 H36B 0.9700 . ?
C37 C38 1.503(13) . ?
C37 H37A 0.9700 . ?
C37 H37B 0.9700 . ?
C38 C39 1.502(10) . ?
C38 H38A 0.9700 . ?
C38 H38B 0.9700 . ?
C39 C40 1.341(13) . ?
C39 C41 1.381(12) . ?
C40 C43 1.381(10) . ?
C40 H40 0.9300 . ?
C41 C42 1.395(10) . ?
C41 H41 0.9300 . ?
C42 H42 0.9300 . ?
C43 H43 0.9300 . ?

loop_
_geom_angle_atom_site_label_1
_geom_angle_atom_site_label_2
_geom_angle_atom_site_label_3
_geom_angle
_geom_angle_site_symmetry_1
_geom_angle_site_symmetry_3
_geom_angle_publ_flag
O12 Zn1 O1 96.09(18) . . ?
O12 Zn1 O7 93.51(18) . . ?
O1 Zn1 O7 170.11(17) . . ?
O12 Zn1 O14 86.66(17) . 2_466 ?
O1 Zn1 O14 90.13(19) . 2_466 ?
O7 Zn1 O14 92.81(19) . 2_466 ?
O12 Zn1 O9 99.16(18) . 2_465 ?
O1 Zn1 O9 88.45(18) . 2_465 ?
O7 Zn1 O9 87.67(18) . 2_465 ?
O14 Zn1 O9 174.12(17) 2_466 2_465 ?
O12 Zn1 O4 179.34(19) . 2_576 ?
O1 Zn1 O4 84.48(17) . 2_576 ?
O7 Zn1 O4 85.9