
#######################################################################
#
#                 Cambridge Crystallographic Data Centre
#                                CCDC
#
#######################################################################
#
# If this CIF has been generated from an entry in the Cambridge
# Structural Database, then it will include bibliographic, chemical,
# crystal, experimental, refinement or atomic coordinate data resulting
# from the CCDC's data processing and validation procedures.
#
#######################################################################

data_CSD_CIF_PEPCES
_audit_creation_date 1994-02-15
_audit_creation_method CSD-ConQuest-V1
_database_code_CSD PEPCES
_database_code_depnum_ccdc_archive 'CCDC 1230939'
_chemical_formula_sum 'C44 H36 Mo1 N2 O2 P2'
_chemical_formula_moiety
;
C44 H36 Mo1 N2 O2 P2
;
_journal_coden_Cambridge 36
_journal_volume 453
_journal_year 1993
_journal_page_first 71
_journal_name_full 'J.Organomet.Chem. '
loop_
_publ_author_name
"A.Anillo"
"R.Obeso-Rosete"
"M.Lanfranchi"
"A.Tiripicchio"
_chemical_name_systematic
;
cis-Dicarbonyl-1,2-diamidobenzene-bis(triphenylphosphine)-molybdenum(ii)
;
_chemical_name_common
;
Teaching Subset: Fundamental Chemistry
;
_cell_volume   1896.925
_exptl_crystal_density_diffrn 1.37
_diffrn_ambient_temperature ?
_diffrn_special_details
;
The study was carried out at room temperature,in the range 283-303K

;
#These two values have been output from a single CSD field.
_refine_ls_R_factor_gt 0.0679
_refine_ls_wR_factor_gt 0.0679
_symmetry_cell_setting triclinic
_symmetry_space_group_name_H-M 'P -1'
_symmetry_Int_Tables_number 2
loop_
_symmetry_equiv_pos_site_id
_symmetry_equiv_pos_as_xyz
1 x,y,z
2 -x,-y,-z
_cell_length_a 11.473(6)
_cell_length_b 12.999(7)
_cell_length_c 14.073(3)
_cell_angle_alpha 72.97(3)
_cell_angle_beta 86.40(4)
_cell_angle_gamma 71.06(5)
_cell_formula_units_Z 2
loop_
_atom_type_symbol
_atom_type_radius_bond
C 0.68
H 0.23
Mo 1.47
N 0.68
O 0.68
P 1.05
loop_
_atom_site_label
_atom_site_type_symbol
_atom_site_fract_x
_atom_site_fract_y
_atom_site_fract_z
Mo1 Mo 0.2389(2) 0.0192(2) 0.2962(2)
P1 P 0.3346(6) -0.1740(5) 0.2828(5)
P2 P 0.1364(6) 0.2170(5) 0.1912(5)
O1 O 0.0348(17) -0.0210(15) 0.1904(13)
O2 O 0.4481(18) 0.0537(17) 0.1444(15)
N1 N 0.1300(17) 0.0566(16) 0.4192(13)
N2 N 0.3610(17) -0.0320(15) 0.4112(13)
C1 C 0.1133(27) -0.0006(2) 0.2286(17)
C2 C 0.3773(27) 0.0379(21) 0.1923(20)
C3 C 0.1926(23) 0.0254(19) 0.5073(20)
C4 C 0.1413(24) 0.0393(20) 0.5996(19)
C5 C 0.2162(23) 0.0034(19) 0.6816(19)
C6 C 0.3432(25) -0.0512(21) 0.6793(20)
C7 C 0.3971(23) -0.0675(19) 0.5910(17)
C8 C 0.3241(21) -0.0273(18) 0.5060(18)
C9 C 0.4774(22) -0.2481(19) 0.3506(17)
C10 C 0.4997(26) -0.3413(23) 0.4354(20)
C11 C 0.6085(31) -0.3885(27) 0.4953(25)
C12 C 0.7031(28) -0.3424(24) 0.4639(22)
C13 C 0.6856(26) -0.2538(23) 0.3811(21)
C14 C 0.5813(23) -0.2090(21) 0.3235(18)
C15 C 0.3679(25) -0.1951(23) 0.1569(20)
C16 C 0.3018(26) -0.1222(24) 0.0759(21)
C17 C 0.3221(29) -0.1457(26) -0.0177(24)
C18 C 0.4254(27) -0.2435(25) -0.0171(23)
C19 C 0.4943(26) -0.3120(23) 0.0584(21)
C20 C 0.4733(34) -0.2935(22) 0.1518(20)
C21 C 0.2397(21) -0.2660(19) 0.3321(18)
C22 C 0.2212(22) -0.3398(20) 0.2915(18)
C23 C 0.1367(25) -0.3986(22) 0.3296(20)
C24 C 0.0766(26) -0.3794(23) 0.4109(21)
C25 C 0.0942(26) -0.3158(23) 0.4606(22)
C26 C 0.1808(24) -0.2527(22) 0.4199(20)
C27 C -0.0176(24) 0.2980(23) 0.2264(18)
C28 C -0.0982(26) 0.2376(24) 0.2599(19)
C29 C -0.2173(26) 0.2978(24) 0.290(2)
C30 C -0.2487(29) 0.4104(26) 0.2860(21)
C31 C -0.1668(31) 0.4714(29) 0.2517(22)
C32 C -0.0509(25) 0.4123(23) 0.2207(19)
C33 C 0.2262(22) 0.313(2) 0.1800(19)
C34 C 0.2149(27) 0.4084(25) 0.1003(22)
C35 C 0.2964(25) 0.4752(22) 0.0961(21)
C36 C 0.3732(25) 0.4404(23) 0.1703(21)
C37 C 0.3898(25) 0.3529(24) 0.2488(21)
C38 C 0.3122(23) 0.2838(21) 0.2530(18)
C39 C 0.1087(23) 0.2317(19) 0.0612(17)
C40 C 0.2091(23) 0.215(2) -0.0010(18)
C41 C 0.1898(27) 0.2107(22) -0.0954(21)
C42 C 0.0837(30) 0.2132(24) -0.1266(24)
C43 C -0.0199(30) 0.2253(24) -0.0699(23)
C44 C -0.0059(26) 0.2311(21) 0.0287(22)
H1 H 0.03869 0.09493 0.41225
H2 H 0.45106 -0.06171 0.39954
H3 H 0.05035 0.07485 0.60366
H4 H 0.18107 0.01677 0.74542
H5 H 0.39477 -0.07918 0.74204
H6 H 0.48750 -0.10755 0.58981
H7 H 0.43286 -0.37606 0.45695
H8 H 0.61876 -0.45357 0.55700
H9 H 0.78273 -0.37520 0.50358
H10 H 0.75317 -0.21954 0.36160
H11 H 0.57527 -0.14641 0.26060
H12 H 0.23964 -0.05016 0.08215
H13 H 0.26993 -0.09647 -0.07877
H14 H 0.44313 -0.26359 -0.08111
H15 H 0.56401 -0.37816 0.04946
H16 H 0.52678 -0.34548 0.21140
H17 H 0.26812 -0.35267 0.23143
H18 H 0.12231 -0.45390 0.29880
H19 H 0.01066 -0.41496 0.43430
H20 H 0.05287 -0.31153 0.52469
H21 H 0.19668 -0.20017 0.45322
H22 H -0.07350 0.15491 0.26494
H23 H -0.27840 0.25640 0.31320
H24 H -0.33038 0.44785 0.31079
H25 H -0.19141 0.55421 0.24614
H26 H 0.01115 0.45241 0.19657
H27 H 0.15058 0.43047 0.04683
H28 H 0.29388 0.54308 0.03878
H29 H 0.42731 0.48790 0.16762
H30 H 0.45161 0.33506 0.30319
H31 H 0.32113 0.21414 0.31018
H32 H 0.29333 0.20482 0.02331
H33 H 0.25901 0.20828 -0.14246
H34 H 0.07793 0.20498 -0.19451
H35 H -0.10060 0.22854 -0.09588
H36 H -0.07598 0.23522 0.07499
#END
