####################################################################### 
# 
# This file contains crystal structure data downloaded from the 
# Cambridge Structural Database (CSD) hosted by the Cambridge 
# Crystallographic Data Centre (CCDC).
# 
# Full information about CCDC data access policies and citation 
# guidelines are available at http://www.ccdc.cam.ac.uk/access/V1 
# 
# Audit and citation data items may have been added by the CCDC. 
# Please retain this information to preserve the provenance of 
# this file and to allow appropriate attribution of the data. 
# 
#######################################################################

data_5-VOBDCacetone
_audit_block_doi                 10.5517/ccnsjc9
_database_code_depnum_ccdc_archive 'CCDC 619391'
loop_
_citation_id
_citation_doi
_citation_year
1 10.1002/anie.200602556 2006
_audit_update_record             
;
2006-08-30 deposited with the CCDC.	2024-07-12 downloaded from the CCDC.
;

_audit_creation_method           SHELXL-97
_chemical_name_systematic        
;
?
;
_chemical_name_common            ?
_chemical_melting_point          ?
_chemical_formula_moiety         ?
_chemical_formula_sum            'C11 H10 O6 V'
_chemical_formula_weight         289.13

loop_
_atom_type_symbol
_atom_type_description
_atom_type_scat_dispersion_real
_atom_type_scat_dispersion_imag
_atom_type_scat_source
C C 0.0033 0.0016 'International Tables Vol C Tables 4.2.6.8 and 6.1.1.4'
O O 0.0106 0.0060 'International Tables Vol C Tables 4.2.6.8 and 6.1.1.4'
V V 0.3005 0.5294 'International Tables Vol C Tables 4.2.6.8 and 6.1.1.4'
H H 0.0000 0.0000 'International Tables Vol C Tables 4.2.6.8 and 6.1.1.4'

_symmetry_cell_setting           ?
_symmetry_space_group_name_H-M   Pnma

loop_
_symmetry_equiv_pos_as_xyz
'x, y, z'
'-x+1/2, -y, z+1/2'
'-x, y+1/2, -z'
'x+1/2, -y+1/2, -z+1/2'
'-x, -y, -z'
'x-1/2, y, -z-1/2'
'x, -y-1/2, z'
'-x-1/2, y-1/2, z-1/2'

_cell_length_a                   6.796(3)
_cell_length_b                   18.410(8)
_cell_length_c                   10.214(4)
_cell_angle_alpha                90.00
_cell_angle_beta                 90.00
_cell_angle_gamma                90.00
_cell_volume                     1278.0(9)
_cell_formula_units_Z            4
_cell_measurement_temperature    223(2)
_cell_measurement_reflns_used    ?
_cell_measurement_theta_min      ?
_cell_measurement_theta_max      ?

_exptl_crystal_description       polyhedra
_exptl_crystal_colour            brown
_exptl_crystal_size_max          0.11
_exptl_crystal_size_mid          0.10
_exptl_crystal_size_min          0.07
_exptl_crystal_density_meas      ?
_exptl_crystal_density_diffrn    1.503
_exptl_crystal_density_method    'not measured'
_exptl_crystal_F_000             588
_exptl_absorpt_coefficient_mu    0.791
_exptl_absorpt_correction_type   multi-scan
_exptl_absorpt_correction_T_min  0.881
_exptl_absorpt_correction_T_max  0.940
_exptl_absorpt_process_details   Bruker-ApexII-software

_exptl_special_details           
;
?
;

_diffrn_ambient_temperature      223(2)
_diffrn_radiation_wavelength     0.71073
_diffrn_radiation_type           MoK\a
_diffrn_radiation_source         'fine-focus sealed tube'
_diffrn_radiation_monochromator  graphite
_diffrn_measurement_device_type  Bruker-ApexII
_diffrn_measurement_method       narrow-frame
_diffrn_detector_area_resol_mean ?
_diffrn_standards_number         ?
_diffrn_standards_interval_count ?
_diffrn_standards_interval_time  ?
_diffrn_standards_decay_%        ?
_diffrn_reflns_number            7544
_diffrn_reflns_av_R_equivalents  0.2022
_diffrn_reflns_av_sigmaI/netI    0.0968
_diffrn_reflns_limit_h_min       -7
_diffrn_reflns_limit_h_max       7
_diffrn_reflns_limit_k_min       -20
_diffrn_reflns_limit_k_max       20
_diffrn_reflns_limit_l_min       -11
_diffrn_reflns_limit_l_max       11
_diffrn_reflns_theta_min         2.21
_diffrn_reflns_theta_max         23.79
_reflns_number_total             1006
_reflns_number_gt                812
_reflns_threshold_expression     >2sigma(I)

_computing_data_collection       ?
_computing_cell_refinement       ?
_computing_data_reduction        ?
_computing_structure_solution    ?
_computing_structure_refinement  'SHELXL-97 (Sheldrick, 1997)'
_computing_molecular_graphics    ?
_computing_publication_material  ?

_refine_special_details          
;
Refinement of F^2^ against ALL reflections. The weighted R-factor wR and
goodness of fit S are based on F^2^, conventional R-factors R are based
on F, with F set to zero for negative F^2^. The threshold expression of
F^2^ > 2sigma(F^2^) is used only for calculating R-factors(gt) etc. and is
not relevant to the choice of reflections for refinement. R-factors based
on F^2^ are statistically about twice as large as those based on F, and R-
factors based on ALL data will be even larger.
;

_refine_ls_structure_factor_coef Fsqd
_refine_ls_matrix_type           full
_refine_ls_weighting_scheme      calc
_refine_ls_weighting_details     
'calc w=1/[\s^2^(Fo^2^)+(0.1228P)^2^+17.7770P] where P=(Fo^2^+2Fc^2^)/3'
_atom_sites_solution_primary     direct
_atom_sites_solution_secondary   difmap
_atom_sites_solution_hydrogens   geom
_refine_ls_hydrogen_treatment    constr
_refine_ls_extinction_method     SHELXL
_refine_ls_extinction_coef       0
_refine_ls_extinction_expression Fc^*^=kFc[1+0.001xFc^2^\l^3^/sin(2\q)]^-1/4^
_refine_ls_number_reflns         1006
_refine_ls_number_parameters     43
_refine_ls_number_restraints     0
_refine_ls_R_factor_all          0.1526
_refine_ls_R_factor_gt           0.1339
_refine_ls_wR_factor_ref         0.3454
_refine_ls_wR_factor_gt          0.3330
_refine_ls_goodness_of_fit_ref   1.394
_refine_ls_restrained_S_all      1.394
_refine_ls_shift/su_max          0.000
_refine_ls_shift/su_mean         0.000

loop_
_atom_site_label
_atom_site_type_symbol
_atom_site_fract_x
_atom_site_fract_y
_atom_site_fract_z
_atom_site_U_iso_or_equiv
_atom_site_adp_type
_atom_site_occupancy
_atom_site_symmetry_multiplicity
_atom_site_calc_flag
_atom_site_refinement_flags
_atom_site_disorder_assembly
_atom_site_disorder_group
V1 V 0.1993(4) 0.7500 0.7323(2) 0.0153(10) Uiso 1 2 d S . .
O1 O 0.1483(11) 0.6725(4) 0.8603(6) 0.0196(18) Uiso 1 1 d . . .
O2 O -0.0160(15) 0.7500 0.6716(9) 0.016(2) Uiso 1 2 d S . .
O3 O 0.3193(12) 0.6717(4) 0.6242(7) 0.0245(19) Uiso 1 1 d . . .
C1 C 0.4862(16) 0.6437(6) 0.6084(9) 0.017(2) Uiso 1 1 d . . .
C2 C 0.4928(17) 0.5697(6) 0.5477(10) 0.021(3) Uiso 1 1 d . . .
C3 C 0.323(2) 0.5346(7) 0.5139(11) 0.034(3) Uiso 1 1 d . . .
H3 H 0.2026 0.5579 0.5240 0.041 Uiso 1 1 calc R . .
C4 C 0.670(2) 0.5350(7) 0.5352(11) 0.034(3) Uiso 1 1 d . . .
H4 H 0.7859 0.5584 0.5599 0.041 Uiso 1 1 calc R . .
O4 O 0.983(3) 0.7500 0.1476(18) 0.076(5) Uiso 1 2 d S . .
C6 C 0.984(4) 0.7500 0.267(2) 0.052(6) Uiso 1 2 d S . .
C7 C 0.979(3) 0.6822(11) 0.3431(18) 0.070(5) Uiso 1 1 d . . .
H7A H 0.8586 0.6798 0.3921 0.105 Uiso 1 1 calc R . .
H7B H 1.0887 0.6811 0.4021 0.105 Uiso 1 1 calc R . .
H7C H 0.9863 0.6414 0.2846 0.105 Uiso 1 1 calc R . .

_geom_special_details            
;
All esds (except the esd in the dihedral angle between two l.s. planes)
are estimated using the full covariance matrix. The cell esds are taken
into account individually in the estimation of esds in distances, angles
and torsion angles; correlations between esds in cell parameters are only
used when they are defined by crystal symmetry. An approximate (isotropic)
treatment of cell esds is used for estimating esds involving l.s. planes.
;

loop_
_geom_bond_atom_site_label_1
_geom_bond_atom_site_label_2
_geom_bond_distance
_geom_bond_site_symmetry_2
_geom_bond_publ_flag
V1 O2 1.589(11) . ?
V1 O1 1.966(7) . ?
V1 O1 1.966(7) 7_575 ?
V1 O3 1.991(7) . ?
V1 O3 1.991(8) 7_575 ?
V1 O2 2.169(11) 6_657 ?
O1 C1 1.264(13) 6_557 ?
O2 V1 2.169(10) 6_557 ?
O3 C1 1.256(13) . ?
C1 O1 1.264(13) 6_657 ?
C1 C2 1.497(15) . ?
C2 C4 1.371(17) . ?
C2 C3 1.366(17) . ?
C3 C4 1.376(19) 5_666 ?
C4 C3 1.376(19) 5_666 ?
O4 C6 1.22(3) . ?
C6 C7 1.47(2) . ?
C6 C7 1.47(2) 7_575 ?

loop_
_geom_angle_atom_site_label_1
_geom_angle_atom_site_label_2
_geom_angle_atom_site_label_3
_geom_angle
_geom_angle_site_symmetry_1
_geom_angle_site_symmetry_3
_geom_angle_publ_flag
O2 V1 O1 95.6(3) . . ?
O2 V1 O1 95.6(3) . 7_575 ?
O1 V1 O1 93.1(4) . 7_575 ?
O2 V1 O3 99.2(3) . . ?
O1 V1 O3 85.2(3) . . ?
O1 V1 O3 165.2(3) 7_575 . ?
O2 V1 O3 99.2(3) . 7_575 ?
O1 V1 O3 165.2(3) . 7_575 ?
O1 V1 O3 85.2(3) 7_575 7_575 ?
O3 V1 O3 92.8(4) . 7_575 ?
O2 V1 O2 176.1(3) . 6_657 ?
O1 V1 O2 81.8(3) . 6_657 ?
O1 V1 O2 81.8(3) 7_575 6_657 ?
O3 V1 O2 83.4(3) . 6_657 ?
O3 V1 O2 83.4(3) 7_575 6_657 ?
C1 O1 V1 128.8(7) 6_557 . ?
V1 O2 V1 130.1(5) . 6_557 ?
C1 O3 V1 137.6(7) . . ?
O3 C1 O1 125.6(10) . 6_657 ?
O3 C1 C2 117.0(10) . . ?
O1 C1 C2 117.4(10) 6_657 . ?
C4 C2 C3 120.0(11) . . ?
C4 C2 C1 119.2(11) . . ?
C3 C2 C1 120.6(11) . . ?
C2 C3 C4 120.3(13) . 5_666 ?
C2 C4 C3 119.7(13) . 5_666 ?
O4 C6 C7 121.9(11) . . ?
O4 C6 C7 121.9(11) . 7_575 ?
C7 C6 C7 116(2) . 7_575 ?

_diffrn_measured_fraction_theta_max 0.996
_diffrn_reflns_theta_full        23.79
_diffrn_measured_fraction_theta_full 0.996
_refine_diff_density_max         2.769
_refine_diff_density_min         -3.381
_refine_diff_density_rms         0.264

