####################################################################### 
# 
# This file contains crystal structure data downloaded from the 
# Cambridge Structural Database (CSD) hosted by the Cambridge 
# Crystallographic Data Centre (CCDC).
# 
# Full information about CCDC data access policies and citation 
# guidelines are available at http://www.ccdc.cam.ac.uk/access/V1 
# 
# Audit and citation data items may have been added by the CCDC. 
# Please retain this information to preserve the provenance of 
# this file and to allow appropriate attribution of the data. 
# 
#######################################################################

data_908593
_audit_block_doi                 10.5517/cczhggc
_database_code_depnum_ccdc_archive 'CCDC 908593'
loop_
_citation_id
_citation_doi
_citation_year
1 10.1039/C3DT33084B 2013
_audit_update_record             
;
2012-10-31 deposited with the CCDC.	2024-07-12 downloaded from the CCDC.
;
_vrf_PLAT601_908593              
;
PROBLEM: Structure Contains Solvent Accessible VOIDS of .     717.00 A**3 
RESPONSE: Disordered water and methanol molecules were omitted by using OLEX-2/Mask
;
_audit_creation_date             2013-02-11
_audit_creation_method           
;
  Olex2 1.2
  (compiled Dec  5 2012 16:20:19, GUI svn.r4385)
;
_chemical_name_common            ?
_chemical_name_systematic        
;
 ? 
;
_chemical_formula_moiety         'C68 H65 Cd3 N20 O35 P6'
_chemical_formula_sum            'C68 H65 Cd3 N20 O35 P6'
_chemical_formula_weight         2245.42
_chemical_melting_point          ?
loop_
_atom_type_symbol
_atom_type_description
_atom_type_scat_dispersion_real
_atom_type_scat_dispersion_imag
_atom_type_scat_source
C C 0.0033 0.0016 'International Tables Vol C Tables 4.2.6.8 and 6.1.1.4'
H H 0.0000 0.0000 'International Tables Vol C Tables 4.2.6.8 and 6.1.1.4'
N N 0.0061 0.0033 'International Tables Vol C Tables 4.2.6.8 and 6.1.1.4'
O O 0.0106 0.0060 'International Tables Vol C Tables 4.2.6.8 and 6.1.1.4'
P P 0.1023 0.0942 'International Tables Vol C Tables 4.2.6.8 and 6.1.1.4'
Cd Cd -0.8075 1.2024 'International Tables Vol C Tables 4.2.6.8 and 6.1.1.4'

_space_group_crystal_system      monoclinic
_space_group_IT_number           15
_space_group_name_H-M_alt        'C 1 2/c 1'
_space_group_name_Hall           '-C 2yc'
loop_
_space_group_symop_id
_space_group_symop_operation_xyz
1 'x, y, z'
2 '-x, y, -z+1/2'
3 'x+1/2, y+1/2, z'
4 '-x+1/2, y+1/2, -z+1/2'
5 '-x, -y, -z'
6 'x, -y, z-1/2'
7 '-x+1/2, -y+1/2, -z'
8 'x+1/2, -y+1/2, z-1/2'

_cell_length_a                   27.787(3)
_cell_length_b                   11.9727(12)
_cell_length_c                   29.607(3)
_cell_angle_alpha                90.00
_cell_angle_beta                 94.856(3)
_cell_angle_gamma                90.00
_cell_volume                     9814.4(18)
_cell_formula_units_Z            4
_cell_measurement_reflns_used    5300
_cell_measurement_temperature    100(2)
_cell_measurement_theta_max      25.33
_cell_measurement_theta_min      2.27
_exptl_absorpt_coefficient_mu    0.829
_exptl_absorpt_correction_T_max  1
_exptl_absorpt_correction_T_min  0.644612
_exptl_absorpt_correction_type   multi-scan
_exptl_absorpt_process_details   
;
SADABS v.2.10 (Bruker,2003) was used for absorption correction.
R(int) was 0.0668 before and 0.0345 after correction.
The Ratio of minimum to maximum transmission is 0.6446.
The \l/2 correction factor is 0.0015.
;
_exptl_crystal_colour            colourless
_exptl_crystal_density_diffrn    1.520
_exptl_crystal_density_meas      .
_exptl_crystal_density_method    'not measured'
_exptl_crystal_description       block
_exptl_crystal_F_000             4508
_exptl_crystal_size_max          0.13
_exptl_crystal_size_mid          0.11
_exptl_crystal_size_min          0.08
_exptl_special_details           
;
 ? 
;
_diffrn_reflns_av_R_equivalents  0.0678
_diffrn_reflns_av_unetI/netI     0.0854
_diffrn_reflns_limit_h_max       37
_diffrn_reflns_limit_h_min       -34
_diffrn_reflns_limit_k_max       16
_diffrn_reflns_limit_k_min       -13
_diffrn_reflns_limit_l_max       32
_diffrn_reflns_limit_l_min       -39
_diffrn_reflns_number            32500
_diffrn_reflns_theta_full        28.37
_diffrn_reflns_theta_max         28.37
_diffrn_reflns_theta_min         2.00
_diffrn_ambient_temperature      100.15
_diffrn_detector_area_resol_mean ?
_diffrn_measured_fraction_theta_full 0.993
_diffrn_measured_fraction_theta_max 0.993
_diffrn_measurement_device_type  'CCD area detector'
_diffrn_measurement_method       'phi and omega scans'
_diffrn_radiation_monochromator  graphite
_diffrn_radiation_type           MoK\a
_diffrn_radiation_wavelength     0.71073
_diffrn_source                   'fine-focus sealed tube'
_diffrn_standards_decay_%        ?
_diffrn_standards_interval_count ?
_diffrn_standards_interval_time  ?
_diffrn_standards_number         ?
_reflns_number_gt                8123
_reflns_number_total             12185
_reflns_threshold_expression     >2sigma(I)
_computing_cell_refinement       'SAINT v6.45A (Bruker, 2003)'
_computing_data_collection       ?
_computing_data_reduction        'SAINT v6.45A (Bruker, 2003)'
_computing_molecular_graphics    
;
O. V. Dolomanov, L. J. Bourhis, R. J. Gildea, J. A. K. Howard and H. Puschmann,
OLEX2: a complete structure solution, refinement and analysis program.
J. Appl. Cryst. (2009). 42, 339-341.
;
_computing_publication_material  
;
O. V. Dolomanov, L. J. Bourhis, R. J. Gildea, J. A. K. Howard and H. Puschmann,
OLEX2: a complete structure solution, refinement and analysis program.
J. Appl. Cryst. (2009). 42, 339-341.
;
_computing_structure_refinement  
;
XL, G.M. Sheldrick, Acta Cryst.
(2008). A64, 112-122
;
_computing_structure_solution    'SHELXS-97 (Sheldrick, 1990)'
_refine_diff_density_max         1.940
_refine_diff_density_min         -1.957
_refine_diff_density_rms         0.171
_refine_ls_extinction_coef       ?
_refine_ls_extinction_method     none
_refine_ls_goodness_of_fit_ref   1.086
_refine_ls_hydrogen_treatment    mixed
_refine_ls_matrix_type           full
_refine_ls_number_parameters     602
_refine_ls_number_reflns         12185
_refine_ls_number_restraints     9
_refine_ls_R_factor_all          0.1105
_refine_ls_R_factor_gt           0.0739
_refine_ls_restrained_S_all      1.087
_refine_ls_shift/su_max          0.006
_refine_ls_shift/su_mean         0.000
_refine_ls_structure_factor_coef Fsqd
_refine_ls_weighting_details     
'calc w=1/[\s^2^(Fo^2^)+(0.0990P)^2^+60.6492P] where P=(Fo^2^+2Fc^2^)/3'
_refine_ls_weighting_scheme      calc
_refine_ls_wR_factor_gt          0.1908
_refine_ls_wR_factor_ref         0.2243
_refine_special_details          
;
 Refinement of F^2^ against ALL reflections.  The weighted R-factor wR and 
 goodness of fit S are based on F^2^, conventional R-factors R are based 
 on F, with F set to zero for negative F^2^. The threshold expression of 
 F^2^ > 2sigma(F^2^) is used only for calculating R-factors(gt) etc. and is 
 not relevant to the choice of reflections for refinement.  R-factors based 
 on F^2^ are statistically about twice as large as those based on F, and R- 
 factors based on ALL data will be even larger. 
  
;
_olex2_refinement_description    
;
1. Fixed Uiso
 At 1.2 times of:
  H17 of C17, H16 of C16, H19 of C19, H20 of C20, H25 of C25, H27 of C27, H24
  of C24, H26 of C26, H21 of C21, H11 of C11, H14 of C14, H15 of C15, H22 of
  C22, H4 of C4, H2 of C2, H5 of C5, H8 of C8, H3 of C3, H9 of C9, H10 of C10,
  H15A of P3, H32 of C32, H31 of C31, H30 of C30, H29 of C29
 At 1.5 times of:
  H7 of O7, H11A of P3, {H36A,H36B,H36C} of C36, {H35A,H35B,H35C} of C35
2. Restrained distances
 O11-H11A
 0.83 with sigma of 0.02
 O15-H15A
 0.83 with sigma of 0.02
 H15A-O15
 0.83 with sigma of 0.02
3. Uiso/Uaniso restraints and constraints
Uanis(O18) ~ Ueq: with sigma of 0.01 and sigma for terminal atoms of 0.02
4. Others
 Fixed Sof: H7(0.5)
5.a Me refined with riding coordinates:
 C35(H35A,H35B,H35C), C36(H36A,H36B,H36C)
5.b Aromatic/amide H refined with riding coordinates:
 C2(H2), C3(H3), C4(H4), C5(H5), C8(H8), C9(H9), C10(H10), C11(H11), C14(H14),
 C15(H15), C16(H16), C17(H17), C19(H19), C20(H20), C21(H21), C22(H22), C24(H24),
  C25(H25), C26(H26), C27(H27), C29(H29), C30(H30), C31(H31), C32(H32)
5.c Tetrahedral OH refined with riding coordinates:
 O7(H7)
;
_atom_sites_solution_hydrogens   geom
_atom_sites_solution_primary     direct
_atom_sites_solution_secondary   difmap
loop_
_atom_site_label
_atom_site_type_symbol
_atom_site_fract_x
_atom_site_fract_y
_atom_site_fract_z
_atom_site_U_iso_or_equiv
_atom_site_adp_type
_atom_site_occupancy
_atom_site_symmetry_multiplicity
_atom_site_calc_flag
_atom_site_refinement_flags
_atom_site_disorder_assembly
_atom_site_disorder_group
C1 C 0.3569(2) 0.7469(5) 0.3299(2) 0.0295(12) Uani 1 1 d . . .
C2 C 0.4012(2) 0.7937(5) 0.3270(2) 0.0352(14) Uani 1 1 d . . .
H2 H 0.4198 0.7774 0.3023 0.042 Uiso 1 1 calc R . .
C3 C 0.4186(3) 0.8672(5) 0.3618(3) 0.0435(17) Uani 1 1 d . . .
H3 H 0.4495 0.9005 0.3609 0.052 Uiso 1 1 calc R . .
C4 C 0.3911(3) 0.8909(6) 0.3968(3) 0.051(2) Uani 1 1 d . . .
H4 H 0.4033 0.9397 0.4203 0.062 Uiso 1 1 calc R . .
C5 C 0.3452(3) 0.8438(5) 0.3982(2) 0.0422(17) Uani 1 1 d . . .
H5 H 0.3262 0.8630 0.4222 0.051 Uiso 1 1 calc R . .
C6 C 0.3270(2) 0.7697(5) 0.3651(2) 0.0328(13) Uani 1 1 d . . .
C7 C 0.2795(2) 0.7183(5) 0.3660(2) 0.0345(14) Uani 1 1 d . . .
C8 C 0.2621(3) 0.6817(6) 0.4070(2) 0.0427(16) Uani 1 1 d . . .
H8 H 0.2826 0.6884 0.4342 0.051 Uiso 1 1 calc R . .
C9 C 0.2162(3) 0.6360(6) 0.4091(3) 0.0484(19) Uani 1 1 d . . .
H9 H 0.2060 0.6107 0.4372 0.058 Uiso 1 1 calc R . .
C10 C 0.1857(3) 0.6281(6) 0.3699(3) 0.0449(17) Uani 1 1 d . . .
H10 H 0.1542 0.5979 0.3709 0.054 Uiso 1 1 calc R . .
C11 C 0.2012(2) 0.6643(5) 0.3292(2) 0.0363(14) Uani 1 1 d . . .
H11 H 0.1803 0.6592 0.3022 0.044 Uiso 1 1 calc R . .
C12 C 0.2468(2) 0.7075(5) 0.3278(2) 0.0307(13) Uani 1 1 d . . .
C13 C 0.1876(2) 0.5553(5) 0.1748(2) 0.0286(12) Uani 1 1 d . . .
C14 C 0.1638(2) 0.5434(6) 0.2140(2) 0.0351(14) Uani 1 1 d . . .
H14 H 0.1779 0.4969 0.2375 0.042 Uiso 1 1 calc R . .
C15 C 0.1034(3) 0.6582(6) 0.1849(4) 0.064(3) Uani 1 1 d . . .
H15 H 0.0741 0.6968 0.1886 0.077 Uiso 1 1 calc R . .
C16 C 0.1239(3) 0.6707(6) 0.1447(3) 0.053(2) Uani 1 1 d . . .
H16 H 0.1084 0.7139 0.1208 0.064 Uiso 1 1 calc R . .
C17 C 0.1678(2) 0.6189(5) 0.1398(2) 0.0367(14) Uani 1 1 d . . .
H17 H 0.1836 0.6275 0.1128 0.044 Uiso 1 1 calc R . .
C18 C 0.3554(2) 0.4210(5) 0.1691(2) 0.0264(11) Uani 1 1 d . . .
C19 C 0.3929(2) 0.4231(4) 0.2019(2) 0.0256(11) Uani 1 1 d . . .
H19 H 0.3860 0.4350 0.2324 0.031 Uiso 1 1 calc R . .
C20 C 0.4471(2) 0.3937(5) 0.1491(2) 0.0379(15) Uani 1 1 d . . .
H20 H 0.4794 0.3842 0.1418 0.046 Uiso 1 1 calc R . .
C21 C 0.4114(3) 0.3910(6) 0.1147(2) 0.0447(17) Uani 1 1 d . . .
H21 H 0.4191 0.3784 0.0845 0.054 Uiso 1 1 calc R . .
C22 C 0.3641(2) 0.4066(6) 0.1237(2) 0.0354(14) Uani 1 1 d . . .
H22 H 0.3386 0.4076 0.1002 0.042 Uiso 1 1 calc R . .
C23 C 0.2528(2) 0.8723(5) 0.1341(2) 0.0276(12) Uani 1 1 d . . .
C24 C 0.2695(2) 0.6393(5) -0.0912(2) 0.0335(13) Uani 1 1 d . . .
H24 H 0.2516 0.6670 -0.0677 0.040 Uiso 1 1 calc R . .
C25 C 0.3411(2) 0.5764(5) -0.1160(2) 0.0323(13) Uani 1 1 d . . .
H25 H 0.3742 0.5584 -0.1095 0.039 Uiso 1 1 calc R . .
C26 C 0.3204(2) 0.5644(5) -0.1601(2) 0.0319(13) Uani 1 1 d . . .
H26 H 0.3391 0.5395 -0.1835 0.038 Uiso 1 1 calc R . .
C27 C 0.2720(2) 0.5893(5) -0.16931(19) 0.0289(12) Uani 1 1 d . . .
H27 H 0.2564 0.5804 -0.1989 0.035 Uiso 1 1 calc R . .
C28 C 0.4001(2) 0.7190(5) 0.13126(18) 0.0274(12) Uani 1 1 d . . .
C29 C 0.3756(2) 0.7027(5) 0.08874(19) 0.0304(13) Uani 1 1 d . . .
H29 H 0.3419 0.7172 0.0845 0.037 Uiso 1 1 calc R . .
C30 C 0.4467(3) 0.6477(7) 0.0601(2) 0.0484(19) Uani 1 1 d . . .
H30 H 0.4633 0.6235 0.0352 0.058 Uiso 1 1 calc R . .
C31 C 0.4724(2) 0.6617(7) 0.1012(2) 0.0430(17) Uani 1 1 d . . .
H31 H 0.5060 0.6453 0.1045 0.052 Uiso 1 1 calc R . .
C32 C 0.4493(2) 0.6999(6) 0.1379(2) 0.0342(14) Uani 1 1 d . . .
H32 H 0.4666 0.7126 0.1665 0.041 Uiso 1 1 calc R . .
C35 C 0.3557(4) 0.9069(10) 0.0000(4) 0.093(4) Uani 1 1 d . . .
H35A H 0.3356 0.9740 -0.0039 0.139 Uiso 1 1 calc R . .
H35B H 0.3835 0.9138 -0.0181 0.139 Uiso 1 1 calc R . .
H35C H 0.3671 0.8985 0.0321 0.139 Uiso 1 1 calc R . .
C36 C 0.4013(5) 0.3622(10) -0.0310(5) 0.114(5) Uani 1 1 d . . .
H36A H 0.4327 0.3286 -0.0353 0.171 Uiso 1 1 calc R . .
H36B H 0.3791 0.3484 -0.0579 0.171 Uiso 1 1 calc R . .
H36C H 0.3882 0.3290 -0.0044 0.171 Uiso 1 1 calc R . .
Cd1 Cd 0.5000 0.41566(5) 0.2500 0.03096(17) Uani 1 2 d S . .
Cd2 Cd 0.355498(17) 0.63027(5) -0.012824(15) 0.04298(17) Uani 1 1 d . . .
N1 N 0.28274(17) 0.5737(4) 0.24023(17) 0.0290(10) Uani 1 1 d . . .
N2 N 0.29877(17) 0.6355(4) 0.15547(16) 0.0258(10) Uani 1 1 d . . .
N3 N 0.31498(17) 0.7823(4) 0.22454(16) 0.0277(10) Uani 1 1 d . . .
N4 N 0.1226(2) 0.5933(5) 0.2201(2) 0.0489(15) Uani 1 1 d . . .
N5 N 0.43925(19) 0.4092(4) 0.19326(18) 0.0313(11) Uani 1 1 d . . .
N6 N 0.31569(19) 0.6126(4) -0.08209(17) 0.0327(11) Uani 1 1 d . . .
N7 N 0.39936(18) 0.6664(5) 0.05342(18) 0.0374(13) Uani 1 1 d . . .
N8 N 0.55363(17) 0.5128(4) 0.18308(17) 0.0303(11) Uani 1 1 d . . .
N9 N 0.2750(3) 0.5280(6) 0.0289(2) 0.0564(17) Uani 1 1 d . . .
N10 N 0.4633(4) 0.6801(9) -0.0599(3) 0.080(3) Uani 1 1 d . . .
O1 O 0.34175(14) 0.6656(3) 0.29706(13) 0.0274(8) Uani 1 1 d . . .
O2 O 0.25953(15) 0.7505(3) 0.28595(13) 0.0291(9) Uani 1 1 d . . .
O3 O 0.22947(14) 0.4955(3) 0.17047(13) 0.0277(8) Uani 1 1 d . . .
O4 O 0.30821(14) 0.4277(3) 0.18085(14) 0.0285(9) Uani 1 1 d . . .
O5 O 0.30243(14) 0.8471(3) 0.14075(13) 0.0253(8) Uani 1 1 d . . .
O6 O 0.37723(14) 0.7572(3) 0.16796(13) 0.0291(9) Uani 1 1 d . . .
O7 O 0.5000 0.2246(5) 0.2500 0.0453(17) Uani 1 2 d S . .
H7 H 0.4752 0.2012 0.2347 0.068 Uiso 0.50 1 calc PR . .
O8 O 0.57020(16) 0.5495(4) 0.14906(16) 0.0385(10) Uani 1 1 d . . .
O9 O 0.55920(15) 0.4108(4) 0.19405(16) 0.0368(10) Uani 1 1 d . . .
O10 O 0.52967(16) 0.5734(4) 0.20795(16) 0.0375(10) Uani 1 1 d . . .
O11 O 0.3294(2) 0.8163(5) -0.0138(2) 0.0602(15) Uani 1 1 d D . .
O12 O 0.27084(19) 0.6308(5) 0.01812(17) 0.0502(13) Uani 1 1 d . . .
O13 O 0.2431(3) 0.4796(6) 0.0457(3) 0.088(2) Uani 1 1 d . . .
O14 O 0.3141(2) 0.4801(5) 0.02144(19) 0.0610(15) Uani 1 1 d . . .
O15 O 0.4069(3) 0.4791(7) -0.0244(3) 0.083(2) Uani 1 1 d D . .
O16 O 0.4230(2) 0.7156(6) -0.04840(18) 0.0606(16) Uani 1 1 d . . .
O17 O 0.4814(3) 0.5862(7) -0.0517(3) 0.093(2) Uani 1 1 d . . .
O18 O 0.4873(4) 0.7482(10) -0.0823(4) 0.148(4) Uani 1 1 d U . .
P1 P 0.29950(5) 0.69142(12) 0.25942(5) 0.0250(3) Uani 1 1 d . . .
P2 P 0.28102(5) 0.54195(12) 0.18796(5) 0.0235(3) Uani 1 1 d . . .
P3 P 0.32109(5) 0.74950(12) 0.17398(5) 0.0237(3) Uani 1 1 d . . .
H15A H 0.429(2) 0.521(5) -0.033(2) 0.028 Uiso 1 1 d D . .
H11A H 0.3023(13) 0.842(6) -0.010(2) 0.036 Uiso 1 1 d D . .

loop_
_atom_site_aniso_label
_atom_site_aniso_U_11
_atom_site_aniso_U_22
_atom_site_aniso_U_33
_atom_site_aniso_U_23
_atom_site_aniso_U_13
_atom_site_aniso_U_12
C1 0.036(3) 0.020(3) 0.031(3) 0.000(2) -0.008(2) 0.001(2)
C2 0.034(3) 0.025(3) 0.043(4) 0.000(3) -0.015(3) 0.001(2)
C3 0.036(4) 0.031(3) 0.061(5) -0.005(3) -0.012(3) -0.003(3)
C4 0.065(5) 0.041(4) 0.043(4) -0.006(3) -0.021(4) -0.001(4)
C5 0.065(5) 0.031(3) 0.029(3) -0.002(3) -0.006(3) 0.012(3)
C6 0.048(4) 0.023(3) 0.027(3) 0.004(2) 0.000(3) 0.007(2)
C7 0.046(4) 0.029(3) 0.029(3) -0.003(2) 0.007(3) 0.006(3)
C8 0.060(5) 0.037(4) 0.031(3) 0.009(3) 0.005(3) 0.010(3)
C9 0.065(5) 0.038(4) 0.047(4) 0.004(3) 0.032(4) 0.006(3)
C10 0.055(4) 0.032(3) 0.051(4) 0.000(3) 0.027(4) -0.001(3)
C11 0.031(3) 0.034(3) 0.045(4) -0.006(3) 0.009(3) 0.001(3)
C12 0.044(4) 0.020(3) 0.030(3) 0.002(2) 0.012(3) 0.004(2)
C13 0.018(3) 0.024(3) 0.042(3) 0.001(2) -0.006(2) -0.001(2)
C14 0.027(3) 0.039(3) 0.040(4) 0.003(3) 0.005(3) 0.000(3)
C15 0.036(4) 0.025(4) 0.131(9) -0.013(4) 0.005(5) -0.003(3)
C16 0.041(4) 0.027(3) 0.088(6) 0.025(4) -0.018(4) -0.005(3)
C17 0.028(3) 0.036(3) 0.045(4) 0.013(3) 0.001(3) -0.004(3)
C18 0.023(3) 0.023(3) 0.033(3) 0.004(2) 0.005(2) 0.001(2)
C19 0.025(3) 0.022(3) 0.031(3) 