####################################################################### 
# 
# This file contains crystal structure data downloaded from the 
# Cambridge Structural Database (CSD) hosted by the Cambridge 
# Crystallographic Data Centre (CCDC).
# 
# Full information about CCDC data access policies and citation 
# guidelines are available at http://www.ccdc.cam.ac.uk/access/V1 
# 
# Audit and citation data items may have been added by the CCDC. 
# Please retain this information to preserve the provenance of 
# this file and to allow appropriate attribution of the data. 
# 
#######################################################################

data_g121012a
_audit_block_doi                 10.5517/cczgx0b
_database_code_depnum_ccdc_archive 'CCDC 908052'
loop_
_citation_id
_citation_doi
_citation_year
1 10.1002/zaac.201200372 2013
_audit_update_record             
;
2012-10-27 deposited with the CCDC.	2024-07-12 downloaded from the CCDC.
;
#TrackingRef 'g121012a.cif'


_audit_creation_method           SHELXL-97
_chemical_name_systematic        
;
?
;
_chemical_name_common            ?
_chemical_melting_point          ?
_chemical_formula_moiety         'C11 H14 Br Cu I2 N4, C2 H3 N'
_chemical_formula_sum            'C13 H17 Br Cu I2 N5'
_chemical_formula_weight         640.57

loop_
_atom_type_symbol
_atom_type_description
_atom_type_scat_dispersion_real
_atom_type_scat_dispersion_imag
_atom_type_scat_source
C C 0.0033 0.0016 'International Tables Vol C Tables 4.2.6.8 and 6.1.1.4'
H H 0.0000 0.0000 'International Tables Vol C Tables 4.2.6.8 and 6.1.1.4'
N N 0.0061 0.0033 'International Tables Vol C Tables 4.2.6.8 and 6.1.1.4'
Br Br -0.2901 2.4595 'International Tables Vol C Tables 4.2.6.8 and 6.1.1.4'
Cu Cu 0.3201 1.2651 'International Tables Vol C Tables 4.2.6.8 and 6.1.1.4'
I I -0.4742 1.8119 'International Tables Vol C Tables 4.2.6.8 and 6.1.1.4'

_symmetry_cell_setting           Orthorhombic
_symmetry_space_group_name_H-M   'P m n 21'
_symmetry_space_group_name_Hall  'P 2ac -2'

loop_
_symmetry_equiv_pos_as_xyz
'x, y, z'
'-x+1/2, -y, z+1/2'
'-x, y, z'
'x+1/2, -y, z+1/2'

_cell_length_a                   15.9864(9)
_cell_length_b                   4.2237(3)
_cell_length_c                   14.0722(11)
_cell_angle_alpha                90.00
_cell_angle_beta                 90.00
_cell_angle_gamma                90.00
_cell_volume                     950.19(11)
_cell_formula_units_Z            2
_cell_measurement_temperature    293(2)
_cell_measurement_reflns_used    1851
_cell_measurement_theta_min      3.1574
_cell_measurement_theta_max      29.4674

_exptl_crystal_description       block
_exptl_crystal_colour            colorless
_exptl_crystal_size_max          0.4
_exptl_crystal_size_mid          0.3
_exptl_crystal_size_min          0.2
_exptl_crystal_density_meas      ?
_exptl_crystal_density_diffrn    2.239
_exptl_crystal_density_method    'not measured'
_exptl_crystal_F_000             600
_exptl_absorpt_coefficient_mu    6.504
_exptl_absorpt_correction_type   multi-scan
_exptl_absorpt_correction_T_min  0.5617
_exptl_absorpt_correction_T_max  1.0000
_exptl_absorpt_process_details   'Jacobson, R. (1998) Private communication'

_exptl_special_details           
;
?
;

_diffrn_ambient_temperature      293(2)
_diffrn_radiation_wavelength     0.71073
_diffrn_radiation_type           MoK\a
_diffrn_radiation_source         'fine-focus sealed tube'
_diffrn_radiation_monochromator  graphite
_diffrn_measurement_device_type  ?
_diffrn_measurement_method       ?
_diffrn_detector_area_resol_mean ?
_diffrn_standards_number         ?
_diffrn_standards_interval_count ?
_diffrn_standards_interval_time  ?
_diffrn_standards_decay_%        ?
_diffrn_reflns_number            4763
_diffrn_reflns_av_R_equivalents  0.0405
_diffrn_reflns_av_sigmaI/netI    0.0465
_diffrn_reflns_limit_h_min       -15
_diffrn_reflns_limit_h_max       19
_diffrn_reflns_limit_k_min       -5
_diffrn_reflns_limit_k_max       5
_diffrn_reflns_limit_l_min       -17
_diffrn_reflns_limit_l_max       16
_diffrn_reflns_theta_min         3.86
_diffrn_reflns_theta_max         25.49
_reflns_number_total             1734
_reflns_number_gt                1613
_reflns_threshold_expression     >2sigma(I)

_computing_data_collection       ?
_computing_cell_refinement       ?
_computing_data_reduction        ?
_computing_structure_solution    'SHELXS-97 (Sheldrick, 1990)'
_computing_structure_refinement  'SHELXL-97 (Sheldrick, 1997)'
_computing_molecular_graphics    ?
_computing_publication_material  ?

_refine_special_details          
;
Refinement of F^2^ against ALL reflections. The weighted R-factor wR and
goodness of fit S are based on F^2^, conventional R-factors R are based
on F, with F set to zero for negative F^2^. The threshold expression of
F^2^ > 2sigma(F^2^) is used only for calculating R-factors(gt) etc. and is
not relevant to the choice of reflections for refinement. R-factors based
on F^2^ are statistically about twice as large as those based on F, and R-
factors based on ALL data will be even larger.
;

_refine_ls_structure_factor_coef Fsqd
_refine_ls_matrix_type           full
_refine_ls_weighting_scheme      calc
_refine_ls_weighting_details     
'calc w=1/[\s^2^(Fo^2^)+(0.0518P)^2^+0.0000P] where P=(Fo^2^+2Fc^2^)/3'
_atom_sites_solution_primary     direct
_atom_sites_solution_secondary   difmap
_atom_sites_solution_hydrogens   geom
_refine_ls_hydrogen_treatment    constr
_refine_ls_extinction_method     none
_refine_ls_extinction_coef       ?
_refine_ls_abs_structure_details 'Flack H D (1983), Acta Cryst. A39, 876-881'
_refine_ls_abs_structure_Flack   0.07(2)
_refine_ls_number_reflns         1734
_refine_ls_number_parameters     112
_refine_ls_number_restraints     1
_refine_ls_R_factor_all          0.0390
_refine_ls_R_factor_gt           0.0357
_refine_ls_wR_factor_ref         0.0955
_refine_ls_wR_factor_gt          0.0936
_refine_ls_goodness_of_fit_ref   1.098
_refine_ls_restrained_S_all      1.098
_refine_ls_shift/su_max          0.000
_refine_ls_shift/su_mean         0.000

loop_
_atom_site_label
_atom_site_type_symbol
_atom_site_fract_x
_atom_site_fract_y
_atom_site_fract_z
_atom_site_U_iso_or_equiv
_atom_site_adp_type
_atom_site_occupancy
_atom_site_symmetry_multiplicity
_atom_site_calc_flag
_atom_site_refinement_flags
_atom_site_disorder_assembly
_atom_site_disorder_group
I1 I 0.30516(3) 0.19929(13) 0.61918(7) 0.0414(2) Uani 1 1 d . . .
Br1 Br 0.0000 -0.0698(3) 0.99061(6) 0.0279(3) Uani 1 2 d S . .
Cu1 Cu 0.0000 0.4215(4) 0.89559(10) 0.0377(4) Uani 1 2 d S . .
N1 N 0.0956(4) 0.4371(16) 0.7912(5) 0.0284(14) Uani 1 1 d . . .
N2 N 0.0744(4) 0.5747(16) 0.7077(5) 0.0276(15) Uani 1 1 d . . .
N3 N 0.0000 0.074(6) 0.3970(16) 0.115(7) Uani 1 2 d S . .
C1 C 0.2131(6) 0.122(3) 0.8527(7) 0.040(2) Uani 1 1 d . . .
H1A H 0.1893 0.1752 0.9132 0.060 Uiso 1 1 calc R . .
H1B H 0.2710 0.1815 0.8516 0.060 Uiso 1 1 calc R . .
H1C H 0.2084 -0.1025 0.8425 0.060 Uiso 1 1 calc R . .
C2 C 0.1677(6) 0.2916(19) 0.7767(6) 0.0306(18) Uani 1 1 d . . .
C3 C 0.1938(5) 0.344(2) 0.6825(6) 0.0288(19) Uani 1 1 d . . .
C4 C 0.1326(5) 0.5181(18) 0.6390(5) 0.0277(17) Uani 1 1 d . . .
C5 C 0.1262(6) 0.639(3) 0.5408(7) 0.045(2) Uani 1 1 d . . .
H5A H 0.1772 0.5952 0.5073 0.067 Uiso 1 1 calc R . .
H5B H 0.1168 0.8636 0.5422 0.067 Uiso 1 1 calc R . .
H5C H 0.0803 0.5372 0.5091 0.067 Uiso 1 1 calc R . .
C6 C 0.0000 0.764(3) 0.7033(10) 0.038(3) Uani 1 2 d S . .
H6A H 0.0000 0.9134 0.7557 0.046 Uiso 1 2 calc SR . .
H6B H 0.0000 0.8849 0.6446 0.046 Uiso 1 2 calc SR . .
C7 C 0.0000 0.201(5) 0.3262(15) 0.067(5) Uani 1 2 d S . .
C8 C 0.0000 0.360(6) 0.2363(13) 0.083(6) Uani 1 2 d S . .
H8A H 0.0377 0.5371 0.2388 0.124 Uiso 0.50 1 calc PR . .
H8B H -0.0554 0.4344 0.2223 0.124 Uiso 0.50 1 calc PR . .
H8C H 0.0178 0.2164 0.1875 0.124 Uiso 0.50 1 calc PR . .

loop_
_atom_site_aniso_label
_atom_site_aniso_U_11
_atom_site_aniso_U_22
_atom_site_aniso_U_33
_atom_site_aniso_U_23
_atom_site_aniso_U_13
_atom_site_aniso_U_12
I1 0.0338(3) 0.0404(3) 0.0502(3) -0.0107(3) 0.0074(3) 0.0013(2)
Br1 0.0318(6) 0.0271(5) 0.0246(5) -0.0022(5) 0.000 0.000
Cu1 0.0428(10) 0.0414(9) 0.0289(8) -0.0040(8) 0.000 0.000
N1 0.029(4) 0.033(3) 0.023(3) -0.006(3) -0.003(3) 0.000(3)
N2 0.029(4) 0.023(3) 0.030(3) 0.000(3) -0.001(3) -0.002(3)
N3 0.16(2) 0.106(16) 0.083(13) 0.022(14) 0.000 0.000
C1 0.040(5) 0.044(5) 0.037(5) 0.006(4) 0.001(4) 0.002(5)
C2 0.035(5) 0.023(4) 0.035(5) -0.004(4) 0.002(4) -0.005(4)
C3 0.025(5) 0.033(4) 0.029(4) -0.005(4) 0.005(3) 0.001(4)
C4 0.026(4) 0.029(4) 0.028(4) 0.000(3) 0.007(3) -0.007(3)
C5 0.039(6) 0.056(6) 0.040(5) 0.014(5) 0.001(4) -0.006(5)
C6 0.044(8) 0.025(6) 0.045(8) -0.002(6) 0.000 0.000
C7 0.069(13) 0.052(10) 0.079(14) 0.012(10) 0.000 0.000
C8 0.095(16) 0.095(14) 0.058(11) 0.009(11) 0.000 0.000

_geom_special_details            
;
All esds (except the esd in the dihedral angle between two l.s. planes)
are estimated using the full covariance matrix. The cell esds are taken
into account individually in the estimation of esds in distances, angles
and torsion angles; correlations between esds in cell parameters are only
used when they are defined by crystal symmetry. An approximate (isotropic)
treatment of cell esds is used for estimating esds involving l.s. planes.
;

loop_
_geom_bond_atom_site_label_1
_geom_bond_atom_site_label_2
_geom_bond_distance
_geom_bond_site_symmetry_2
_geom_bond_publ_flag
I1 C3 2.083(8) . ?
Br1 Cu1 2.469(2) . ?
Br1 Cu1 2.531(2) 1_545 ?
Cu1 N1 2.121(7) 3 ?
Cu1 N1 2.121(7) . ?
Cu1 Br1 2.531(2) 1_565 ?
N1 C2 1.322(11) . ?
N1 N2 1.354(10) . ?
N2 C4 1.363(10) . ?
N2 C6 1.436(10) . ?
N3 C7 1.13(3) . ?
C1 C2 1.478(13) . ?
C1 H1A 0.9600 . ?
C1 H1B 0.9600 . ?
C1 H1C 0.9600 . ?
C2 C3 1.407(12) . ?
C3 C4 1.368(12) . ?
C4 C5 1.476(12) . ?
C5 H5A 0.9600 . ?
C5 H5B 0.9600 . ?
C5 H5C 0.9600 . ?
C6 N2 1.436(10) 3 ?
C6 H6A 0.9700 . ?
C6 H6B 0.9700 . ?
C7 C8 1.43(3) . ?
C8 H8A 0.9600 . ?
C8 H8B 0.9600 . ?
C8 H8C 0.9600 . ?

loop_
_geom_angle_atom_site_label_1
_geom_angle_atom_site_label_2
_geom_angle_atom_site_label_3
_geom_angle
_geom_angle_site_symmetry_1
_geom_angle_site_symmetry_3
_geom_angle_publ_flag
Cu1 Br1 Cu1 115.31(6) . 1_545 ?
N1 Cu1 N1 92.2(4) 3 . ?
N1 Cu1 Br1 113.65(19) 3 . ?
N1 Cu1 Br1 113.65(19) . . ?
N1 Cu1 Br1 109.85(18) 3 1_565 ?
N1 Cu1 Br1 109.85(18) . 1_565 ?
Br1 Cu1 Br1 115.31(6) . 1_565 ?
C2 N1 N2 106.5(6) . . ?
C2 N1 Cu1 136.1(6) . . ?
N2 N1 Cu1 115.7(5) . . ?
N1 N2 C4 111.7(7) . . ?
N1 N2 C6 118.9(8) . . ?
C4 N2 C6 129.3(8) . . ?
C2 C1 H1A 109.5 . . ?
C2 C1 H1B 109.5 . . ?
H1A C1 H1B 109.5 . . ?
C2 C1 H1C 109.5 . . ?
H1A C1 H1C 109.5 . . ?
H1B C1 H1C 109.5 . . ?
N1 C2 C3 109.3(8) . . ?
N1 C2 C1 122.8(8) . . ?
C3 C2 C1 127.8(8) . . ?
C4 C3 C2 107.1(7) . . ?
C4 C3 I1 125.2(6) . . ?
C2 C3 I1 127.6(7) . . ?
N2 C4 C3 105.3(7) . . ?
N2 C4 C5 123.7(8) . . ?
C3 C4 C5 130.9(7) . . ?
C4 C5 H5A 109.5 . . ?
C4 C5 H5B 109.5 . . ?
H5A C5 H5B 109.5 . . ?
C4 C5 H5C 109.5 . . ?
H5A C5 H5C 109.5 . . ?
H5B C5 H5C 109.5 . . ?
N2 C6 N2 111.9(9) 3 . ?
N2 C6 H6A 109.2 3 . ?
N2 C6 H6A 109.2 . . ?
N2 C6 H6B 109.2 3 . ?
N2 C6 H6B 109.2 . . ?
H6A C6 H6B 107.9 . . ?
N3 C7 C8 180(2) . . ?
C7 C8 H8A 109.5 . . ?
C7 C8 H8B 109.5 . . ?
H8A C8 H8B 109.5 . . ?
C7 C8 H8C 109.5 . . ?
H8A C8 H8C 109.5 . . ?
H8B C8 H8C 109.5 . . ?

_diffrn_measured_fraction_theta_max 0.997
_diffrn_reflns_theta_full        25.49
_diffrn_measured_fraction_theta_full 0.997
_refine_diff_density_max         1.408
_refine_diff_density_min         -0.678
_refine_diff_density_rms         0.130


