
#######################################################################
#
#                 Cambridge Crystallographic Data Centre
#                                CCDC
#
#######################################################################
#
# If this CIF has been generated from an entry in the Cambridge
# Structural Database, then it will include bibliographic, chemical,
# crystal, experimental, refinement or atomic coordinate data resulting
# from the CCDC's data processing and validation procedures.
#
#######################################################################

data_CSD_CIF_PETKAB
_audit_creation_date 2007-04-17
_audit_creation_method CSD-ConQuest-V1
_database_code_CSD PETKAB
_database_code_depnum_ccdc_archive 'CCDC 618539'
_chemical_formula_sum 'C9 H27 B1 Cl5 P3 Pt1'
_chemical_formula_moiety
;
C9 H27 Cl1 P3 Pt1 1+,B1 Cl4 1-
;
_journal_coden_Cambridge 222
_journal_year 2007
_journal_page_first 114
_journal_name_full 'Dalton Trans. '
loop_
_publ_author_name
"J.P.H.Charmant"
"Cheng Fan"
"N.C.Norman"
"P.G.Pringle"
_chemical_name_systematic
;
Chloro-tris(trimethylphosphine)-platinum(ii) tetrachloroborate
;
_chemical_name_common
;
Teaching Subset: Fundamental Chemistry
;
_cell_volume   2097.587
_exptl_crystal_colour 'colorless'
_exptl_crystal_density_diffrn 1.936
_exptl_crystal_description 'plate'
_diffrn_ambient_temperature 100
_diffrn_special_details
;
twin

;
#These two values have been output from a single CSD field.
_refine_ls_R_factor_gt 0.0333
_refine_ls_wR_factor_gt 0.0333
_symmetry_cell_setting orthorhombic
_symmetry_space_group_name_H-M 'P 21 21 21'
_symmetry_Int_Tables_number 19
loop_
_symmetry_equiv_pos_site_id
_symmetry_equiv_pos_as_xyz
1 x,y,z
2 1/2-x,-y,1/2+z
3 -x,1/2+y,1/2-z
4 1/2+x,1/2-y,-z
_cell_length_a 9.9079(4)
_cell_length_b 13.2057(4)
_cell_length_c 16.0316(6)
_cell_angle_alpha 90
_cell_angle_beta 90
_cell_angle_gamma 90
_cell_formula_units_Z 4
loop_
_atom_type_symbol
_atom_type_radius_bond
C 0.68
H 0.23
B 0.83
Cl 0.99
P 1.05
Pt 1.50
loop_
_atom_site_label
_atom_site_type_symbol
_atom_site_fract_x
_atom_site_fract_y
_atom_site_fract_z
Pt1 Pt 0.98039(3) 0.15644(2) 0.429542(19)
Cl1 Cl 1.0051(2) 0.31961(13) 0.37117(13)
P1 P 0.9942(2) 0.09098(14) 0.29452(12)
P2 P 0.9707(3) 0.00452(14) 0.49355(13)
P3 P 0.9536(2) 0.24683(15) 0.55481(12)
C1 C 0.8003(10) -0.0245(8) 0.5307(7)
H1 H 0.80280 -0.08570 0.56530
H2 H 0.74060 -0.03570 0.48290
H3 H 0.76630 0.03230 0.56400
C2 C 1.1142(10) 0.2936(8) 0.5904(7)
H4 H 1.10060 0.33700 0.63920
H5 H 1.15710 0.33270 0.54570
H6 H 1.17220 0.23640 0.60550
C3 C 1.0164(11) -0.1086(6) 0.4380(6)
H7 H 1.11360 -0.10810 0.42670
H8 H 0.96680 -0.11140 0.38510
H9 H 0.99370 -0.16810 0.47180
C4 C 0.876(1) 0.1932(8) 0.6465(6)
H10 H 0.92570 0.13240 0.66340
H11 H 0.78220 0.17510 0.63400
H12 H 0.87790 0.24280 0.69180
C5 C 0.8470(9) 0.0166(8) 0.2665(6)
H13 H 0.76770 0.06080 0.26370
H14 H 0.83220 -0.03600 0.30870
H15 H 0.86170 -0.01520 0.21200
C6 C 0.9971(11) 0.1848(8) 0.2138(5)
H16 H 1.08160 0.22310 0.21700
H17 H 0.92060 0.23100 0.22090
H18 H 0.99070 0.15150 0.15930
C7 C 1.1411(10) 0.0174(8) 0.2674(7)
H19 H 1.13020 -0.01010 0.21110
H20 H 1.15150 -0.03830 0.30720
H21 H 1.22130 0.06080 0.26930
C8 C 0.8497(9) 0.3592(7) 0.5429(6)
H22 H 0.85730 0.40130 0.59310
H23 H 0.75540 0.33920 0.53500
H24 H 0.88040 0.39790 0.49430
C9 C 1.0853(10) -0.0057(6) 0.5799(7)
H25 H 1.06250 -0.06560 0.61310
H26 H 1.07820 0.05500 0.61480
H27 H 1.17790 -0.01210 0.55890
Cl2 Cl 0.9976(2) 0.53827(13) 0.68841(12)
Cl3 Cl 1.1565(2) 0.71534(16) 0.62010(15)
Cl4 Cl 0.8703(3) 0.74608(19) 0.67915(17)
B1 B 0.9865(10) 0.6574(7) 0.6279(6)
Cl5 Cl 0.9237(3) 0.62868(17) 0.52104(15)
#END
