
#######################################################################
#
#                 Cambridge Crystallographic Data Centre
#                                CCDC
#
#######################################################################
#
# If this CIF has been generated from an entry in the Cambridge
# Structural Database, then it will include bibliographic, chemical,
# crystal, experimental, refinement or atomic coordinate data resulting
# from the CCDC's data processing and validation procedures.
#
#######################################################################

data_CSD_CIF_PEVHUT
_audit_creation_date 1994-03-29
_audit_creation_method CSD-ConQuest-V1
_database_code_CSD PEVHUT
_database_code_depnum_ccdc_archive 'CCDC 1231601'
_chemical_formula_sum 'C9 H10 I2 Mo1 N1'
_chemical_formula_moiety
;
C9 H10 I2 Mo1 N1
;
_journal_coden_Cambridge 186
_journal_year 1993
_journal_page_first 2215
_journal_name_full 'J.Chem.Soc.,Dalton Trans. '
loop_
_publ_author_name
"M.L.H.Green"
"A.Harrison"
"P.Mountford"
"D.K.P.Ng"
_chemical_name_systematic
;
(\h^7^-Cycloheptatrienyl)-di-iodo-acetonitrilo-molybdenum
;
_chemical_name_common
;
Teaching Subset: Fundamental Chemistry, Symmetry
;
_cell_volume    609.511
_exptl_crystal_colour 'purple'
_exptl_crystal_density_diffrn 2.626
_diffrn_ambient_temperature ?
_diffrn_special_details
;
The study was carried out at room temperature,in the range 283-303K

;
#These two values have been output from a single CSD field.
_refine_ls_R_factor_gt 0.029
_refine_ls_wR_factor_gt 0.029
_symmetry_cell_setting triclinic
_symmetry_space_group_name_H-M 'P -1'
_symmetry_Int_Tables_number 2
loop_
_symmetry_equiv_pos_site_id
_symmetry_equiv_pos_as_xyz
1 x,y,z
2 -x,-y,-z
_cell_length_a 7.219(2)
_cell_length_b 6.643(2)
_cell_length_c 13.149(3)
_cell_angle_alpha 96.95(2)
_cell_angle_beta 94.31(2)
_cell_angle_gamma 101.78(2)
_cell_formula_units_Z 2
loop_
_atom_type_symbol
_atom_type_radius_bond
C 0.68
H 0.23
I 1.40
Mo 1.47
N 0.68
loop_
_atom_site_label
_atom_site_type_symbol
_atom_site_fract_x
_atom_site_fract_y
_atom_site_fract_z
Mo1 Mo 0.82446(4) 0.36101(5) 0.22056(2)
I1 I 0.49591(4) 0.04065(5) 0.20510(3)
I2 I 0.96352(5) 0.19735(6) 0.38988(2)
N1 N 0.6794(6) 0.5214(6) 0.3320(3)
C1 C 0.8758(9) 0.2306(9) 0.0605(4)
C2 C 0.7482(9) 0.359(1) 0.0497(4)
C3 C 0.7557(9) 0.5607(9) 0.1003(4)
C4 C 0.897(1) 0.6811(8) 0.1732(5)
C5 C 1.0690(9) 0.635(1) 0.2136(5)
C6 C 1.1327(7) 0.449(1) 0.1904(5)
C7 C 1.0471(8) 0.268(1) 0.1224(4)
C8 C 0.6089(8) 0.6211(7) 0.3865(4)
C9 C 0.519(1) 0.752(1) 0.4545(5)
H1 H 0.8389(9) 0.0965(9) 0.0194(4)
H2 H 0.6400(9) 0.303(1) 0.0(4)
H3 H 0.6513(9) 0.6227(9) 0.0816(4)
H4 H 0.873(1) 0.8124(8) 0.2013(5)
H5 H 1.1519(9) 0.744(1) 0.2607(5)
H6 H 1.2513(7) 0.445(1) 0.2275(5)
H7 H 1.1149(8) 0.158(1) 0.1180(4)
H8 H 0.563(1) 0.746(1) 0.5246(5)
H9 H 0.549(1) 0.892(1) 0.4405(5)
H10 H 0.384(1) 0.700(1) 0.4435(5)
#END
