####################################################################### 
# 
# This file contains crystal structure data downloaded from the 
# Cambridge Structural Database (CSD) hosted by the Cambridge 
# Crystallographic Data Centre (CCDC).
# 
# Full information about CCDC data access policies and citation 
# guidelines are available at http://www.ccdc.cam.ac.uk/access/V1 
# 
# Audit and citation data items may have been added by the CCDC. 
# Please retain this information to preserve the provenance of 
# this file and to allow appropriate attribution of the data. 
# 
#######################################################################

data_IRMOF-3-AM4XL
_audit_block_doi                 10.5517/cczfb1r
_database_code_depnum_ccdc_archive 'CCDC 906534'
loop_
_citation_id
_citation_doi
_citation_year
1 10.1039/C3CC40635K 2013
_audit_update_record             
;
2012-10-17 deposited with the CCDC.	2024-07-12 downloaded from the CCDC.
;

_audit_creation_method           SHELXL-97
_chemical_name_systematic        
;
?
;
_chemical_name_common            ?
_chemical_melting_point          ?
_chemical_formula_moiety         'C24 O13 Zn4'
_chemical_formula_sum            'C24 H0 N0 O13 Zn4'
_chemical_formula_weight         759.72

loop_
_atom_type_symbol
_atom_type_description
_atom_type_scat_dispersion_real
_atom_type_scat_dispersion_imag
_atom_type_scat_source
C C 0.0033 0.0016 'International Tables Vol C Tables 4.2.6.8 and 6.1.1.4'
O O 0.0106 0.0060 'International Tables Vol C Tables 4.2.6.8 and 6.1.1.4'
Zn Zn 0.2839 1.4301 'International Tables Vol C Tables 4.2.6.8 and 6.1.1.4'

_symmetry_cell_setting           Cubic
_symmetry_space_group_name_H-M   Fm-3m

loop_
_symmetry_equiv_pos_as_xyz
'x, y, z'
'-y, x, z'
'-x, -y, z'
'y, -x, z'
'x, -z, y'
'x, -y, -z'
'x, z, -y'
'z, y, -x'
'-x, y, -z'
'-z, y, x'
'z, x, y'
'y, z, x'
'-y, -z, x'
'z, -x, -y'
'-y, z, -x'
'-z, -x, y'
'-z, x, -y'
'y, -z, -x'
'y, x, -z'
'-y, -x, -z'
'-x, z, y'
'-x, -z, -y'
'z, -y, x'
'-z, -y, -x'
'x, y+1/2, z+1/2'
'-y, x+1/2, z+1/2'
'-x, -y+1/2, z+1/2'
'y, -x+1/2, z+1/2'
'x, -z+1/2, y+1/2'
'x, -y+1/2, -z+1/2'
'x, z+1/2, -y+1/2'
'z, y+1/2, -x+1/2'
'-x, y+1/2, -z+1/2'
'-z, y+1/2, x+1/2'
'z, x+1/2, y+1/2'
'y, z+1/2, x+1/2'
'-y, -z+1/2, x+1/2'
'z, -x+1/2, -y+1/2'
'-y, z+1/2, -x+1/2'
'-z, -x+1/2, y+1/2'
'-z, x+1/2, -y+1/2'
'y, -z+1/2, -x+1/2'
'y, x+1/2, -z+1/2'
'-y, -x+1/2, -z+1/2'
'-x, z+1/2, y+1/2'
'-x, -z+1/2, -y+1/2'
'z, -y+1/2, x+1/2'
'-z, -y+1/2, -x+1/2'
'x+1/2, y, z+1/2'
'-y+1/2, x, z+1/2'
'-x+1/2, -y, z+1/2'
'y+1/2, -x, z+1/2'
'x+1/2, -z, y+1/2'
'x+1/2, -y, -z+1/2'
'x+1/2, z, -y+1/2'
'z+1/2, y, -x+1/2'
'-x+1/2, y, -z+1/2'
'-z+1/2, y, x+1/2'
'z+1/2, x, y+1/2'
'y+1/2, z, x+1/2'
'-y+1/2, -z, x+1/2'
'z+1/2, -x, -y+1/2'
'-y+1/2, z, -x+1/2'
'-z+1/2, -x, y+1/2'
'-z+1/2, x, -y+1/2'
'y+1/2, -z, -x+1/2'
'y+1/2, x, -z+1/2'
'-y+1/2, -x, -z+1/2'
'-x+1/2, z, y+1/2'
'-x+1/2, -z, -y+1/2'
'z+1/2, -y, x+1/2'
'-z+1/2, -y, -x+1/2'
'x+1/2, y+1/2, z'
'-y+1/2, x+1/2, z'
'-x+1/2, -y+1/2, z'
'y+1/2, -x+1/2, z'
'x+1/2, -z+1/2, y'
'x+1/2, -y+1/2, -z'
'x+1/2, z+1/2, -y'
'z+1/2, y+1/2, -x'
'-x+1/2, y+1/2, -z'
'-z+1/2, y+1/2, x'
'z+1/2, x+1/2, y'
'y+1/2, z+1/2, x'
'-y+1/2, -z+1/2, x'
'z+1/2, -x+1/2, -y'
'-y+1/2, z+1/2, -x'
'-z+1/2, -x+1/2, y'
'-z+1/2, x+1/2, -y'
'y+1/2, -z+1/2, -x'
'y+1/2, x+1/2, -z'
'-y+1/2, -x+1/2, -z'
'-x+1/2, z+1/2, y'
'-x+1/2, -z+1/2, -y'
'z+1/2, -y+1/2, x'
'-z+1/2, -y+1/2, -x'
'-x, -y, -z'
'y, -x, -z'
'x, y, -z'
'-y, x, -z'
'-x, z, -y'
'-x, y, z'
'-x, -z, y'
'-z, -y, x'
'x, -y, z'
'z, -y, -x'
'-z, -x, -y'
'-y, -z, -x'
'y, z, -x'
'-z, x, y'
'y, -z, x'
'z, x, -y'
'z, -x, y'
'-y, z, x'
'-y, -x, z'
'y, x, z'
'x, -z, -y'
'x, z, y'
'-z, y, -x'
'z, y, x'
'-x, -y+1/2, -z+1/2'
'y, -x+1/2, -z+1/2'
'x, y+1/2, -z+1/2'
'-y, x+1/2, -z+1/2'
'-x, z+1/2, -y+1/2'
'-x, y+1/2, z+1/2'
'-x, -z+1/2, y+1/2'
'-z, -y+1/2, x+1/2'
'x, -y+1/2, z+1/2'
'z, -y+1/2, -x+1/2'
'-z, -x+1/2, -y+1/2'
'-y, -z+1/2, -x+1/2'
'y, z+1/2, -x+1/2'
'-z, x+1/2, y+1/2'
'y, -z+1/2, x+1/2'
'z, x+1/2, -y+1/2'
'z, -x+1/2, y+1/2'
'-y, z+1/2, x+1/2'
'-y, -x+1/2, z+1/2'
'y, x+1/2, z+1/2'
'x, -z+1/2, -y+1/2'
'x, z+1/2, y+1/2'
'-z, y+1/2, -x+1/2'
'z, y+1/2, x+1/2'
'-x+1/2, -y, -z+1/2'
'y+1/2, -x, -z+1/2'
'x+1/2, y, -z+1/2'
'-y+1/2, x, -z+1/2'
'-x+1/2, z, -y+1/2'
'-x+1/2, y, z+1/2'
'-x+1/2, -z, y+1/2'
'-z+1/2, -y, x+1/2'
'x+1/2, -y, z+1/2'
'z+1/2, -y, -x+1/2'
'-z+1/2, -x, -y+1/2'
'-y+1/2, -z, -x+1/2'
'y+1/2, z, -x+1/2'
'-z+1/2, x, y+1/2'
'y+1/2, -z, x+1/2'
'z+1/2, x, -y+1/2'
'z+1/2, -x, y+1/2'
'-y+1/2, z, x+1/2'
'-y+1/2, -x, z+1/2'
'y+1/2, x, z+1/2'
'x+1/2, -z, -y+1/2'
'x+1/2, z, y+1/2'
'-z+1/2, y, -x+1/2'
'z+1/2, y, x+1/2'
'-x+1/2, -y+1/2, -z'
'y+1/2, -x+1/2, -z'
'x+1/2, y+1/2, -z'
'-y+1/2, x+1/2, -z'
'-x+1/2, z+1/2, -y'
'-x+1/2, y+1/2, z'
'-x+1/2, -z+1/2, y'
'-z+1/2, -y+1/2, x'
'x+1/2, -y+1/2, z'
'z+1/2, -y+1/2, -x'
'-z+1/2, -x+1/2, -y'
'-y+1/2, -z+1/2, -x'
'y+1/2, z+1/2, -x'
'-z+1/2, x+1/2, y'
'y+1/2, -z+1/2, x'
'z+1/2, x+1/2, -y'
'z+1/2, -x+1/2, y'
'-y+1/2, z+1/2, x'
'-y+1/2, -x+1/2, z'
'y+1/2, x+1/2, z'
'x+1/2, -z+1/2, -y'
'x+1/2, z+1/2, y'
'-z+1/2, y+1/2, -x'
'z+1/2, y+1/2, x'

_cell_length_a                   25.543(2)
_cell_length_b                   25.543(2)
_cell_length_c                   25.543(2)
_cell_angle_alpha                90.00
_cell_angle_beta                 90.00
_cell_angle_gamma                90.00
_cell_volume                     16666(3)
_cell_formula_units_Z            8
_cell_measurement_temperature    250(2)
_cell_measurement_reflns_used    622
_cell_measurement_theta_min      4.51
_cell_measurement_theta_max      19.51

_exptl_crystal_description       'square block'
_exptl_crystal_colour            colorless
_exptl_crystal_size_max          0.10
_exptl_crystal_size_mid          0.10
_exptl_crystal_size_min          0.05
_exptl_crystal_density_meas      'not measured'
_exptl_crystal_density_diffrn    0.604
_exptl_crystal_density_method    'not measured'
_exptl_crystal_F_000             2944
_exptl_absorpt_coefficient_mu    1.159
_exptl_absorpt_correction_type   multi-scan
_exptl_absorpt_correction_T_min  0.8159
_exptl_absorpt_correction_T_max  0.9187
_exptl_absorpt_process_details   SADABS

_exptl_special_details           
;
?
;

_diffrn_ambient_temperature      250(2)
_diffrn_radiation_wavelength     0.71073
_diffrn_radiation_type           MoK\a
_diffrn_radiation_source         'fine-focus sealed tube'
_diffrn_radiation_monochromator  graphite
_diffrn_measurement_device_type  'Bruker APEX-II CCD'
_diffrn_measurement_method       '\f and \w scans'

_diffrn_reflns_number            2430
_diffrn_reflns_av_R_equivalents  0.0326
_diffrn_reflns_av_sigmaI/netI    0.0233
_diffrn_reflns_limit_h_min       -19
_diffrn_reflns_limit_h_max       5
_diffrn_reflns_limit_k_min       -19
_diffrn_reflns_limit_k_max       24
_diffrn_reflns_limit_l_min       -23
_diffrn_reflns_limit_l_max       24
_diffrn_reflns_theta_min         3.19
_diffrn_reflns_theta_max         19.72
_reflns_number_total             430
_reflns_number_gt                284
_reflns_threshold_expression     >2sigma(I)

_computing_data_collection       'Bruker APEX2'
_computing_cell_refinement       'Bruker SAINT'
_computing_data_reduction        'Bruker SAINT'
_computing_structure_solution    'SHELXS-97 (Sheldrick, 2008)'
_computing_structure_refinement  'SHELXL-97 (Sheldrick, 2008)'
_computing_molecular_graphics    'Bruker SHELXTL'
_computing_publication_material  'Bruker SHELXTL'

_refine_special_details          
;
Refinement of F^2^ against ALL reflections. The weighted R-factor wR and
goodness of fit S are based on F^2^, conventional R-factors R are based
on F, with F set to zero for negative F^2^. The threshold expression of
F^2^ > 2sigma(F^2^) is used only for calculating R-factors(gt) etc. and is
not relevant to the choice of reflections for refinement. R-factors based
on F^2^ are statistically about twice as large as those based on F, and R-
factors based on ALL data will be even larger.
Due to weak diffraction, CheckCif reported Alert_A on low theta_max/
wavelength. Due to the severe disorders, we cannot locate the
substituents on the ligands. SQUEEZE protocol has found 1304 electrons
that can be accounted for the disordered solvents and substituents.

;

_refine_ls_structure_factor_coef Fsqd
_refine_ls_matrix_type           full
_refine_ls_weighting_scheme      calc
_refine_ls_weighting_details     
'calc w=1/[\s^2^(Fo^2^)+(0.2000P)^2^+0.0000P] where P=(Fo^2^+2Fc^2^)/3'
_atom_sites_solution_primary     direct
_atom_sites_solution_secondary   difmap
_atom_sites_solution_hydrogens   constr
_refine_ls_hydrogen_treatment    constr
_refine_ls_extinction_method     none
_refine_ls_extinction_coef       ?
_refine_ls_number_reflns         430
_refine_ls_number_parameters     25
_refine_ls_number_restraints     0
_refine_ls_R_factor_all          0.1108
_refine_ls_R_factor_gt           0.0900
_refine_ls_wR_factor_ref         0.2908
_refine_ls_wR_factor_gt          0.2624
_refine_ls_goodness_of_fit_ref   1.132
_refine_ls_restrained_S_all      1.132
_refine_ls_shift/su_max          0.000
_refine_ls_shift/su_mean         0.000
loop_
_platon_squeeze_void_nr
_platon_squeeze_void_average_x
_platon_squeeze_void_average_y
_platon_squeeze_void_average_z
_platon_squeeze_void_volume
_platon_squeeze_void_count_electrons
_platon_squeeze_void_content
1 -0.014 -0.007 -0.006 12993 1304 ' '
_platon_squeeze_details          
;
;


loop_
_atom_site_label
_atom_site_type_symbol
_atom_site_fract_x
_atom_site_fract_y
_atom_site_fract_z
_atom_site_U_iso_or_equiv
_atom_site_adp_type
_atom_site_occupancy
_atom_site_symmetry_multiplicity
_atom_site_calc_flag
_atom_site_refinement_flags
_atom_site_disorder_assembly
_atom_site_disorder_group
Zn1 Zn 0.79368(5) 0.70632(5) 0.29368(5) 0.1452(19) Uani 1 6 d S . .
O13 O 0.7824(4) 0.6343(5) 0.2824(4) 0.229(6) Uani 1 2 d S . .
O1 O 0.7500 0.7500 0.2500 0.125(7) Uani 1 24 d S . .
C2 C 0.7500 0.6126(8) 0.2500 0.218(11) Uani 1 4 d S . .
C1 C 0.7223(8) 0.5238(7) 0.2223(8) 0.308(15) Uani 1 2 d S . .
C3 C 0.7500 0.5552(10) 0.2500 0.193(8) Uani 1 4 d S . .

loop_
_atom_site_aniso_label
_atom_site_aniso_U_11
_atom_site_aniso_U_22
_atom_site_aniso_U_33
_atom_site_aniso_U_23
_atom_site_aniso_U_13
_atom_site_aniso_U_12
Zn1 0.1452(19) 0.1452(19) 0.1452(19) 0.0067(7) -0.0067(7) 0.0067(7)
O13 0.264(9) 0.159(10) 0.264(9) -0.020(6) -0.019(8) -0.020(6)
O1 0.125(7) 0.125(7) 0.125(7) 0.000 0.000 0.000
C2 0.28(2) 0.094(16) 0.28(2) 0.000 -0.02(3) 0.000
C1 0.39(2) 0.139(14) 0.39(2) -0.026(8) -0.10(3) -0.026(8)
C3 0.209(14) 0.16(2) 0.209(14) 0.000 -0.037(15) 0.000

_geom_special_details            
;
All esds (except the esd in the dihedral angle between two l.s. planes)
are estimated using the full covariance matrix. The cell esds are taken
into account individually in the estimation of esds in distances, angles
and torsion angles; correlations between esds in cell parameters are only
used when they are defined by crystal symmetry. An approximate (isotropic)
treatment of cell esds is used for estimating esds involving l.s. planes.
;

loop_
_geom_bond_atom_site_label_1
_geom_bond_atom_site_label_2
_geom_bond_distance
_geom_bond_site_symmetry_2
_geom_bond_publ_flag
Zn1 O13 1.883(12) . ?
Zn1 O13 1.883(12) 86_566 ?
Zn1 O13 1.883(12) 61_664 ?
Zn1 O1 1.933(2) . ?
Zn1 Zn1 3.156(4) 122_565 ?
Zn1 Zn1 3.156(4) 75_665 ?
Zn1 Zn1 3.156(4) 148_655 ?
O13 C2 1.294(11) . ?
O1 Zn1 1.933(2) 122_565 ?
O1 Zn1 1.933(2) 148_655 ?
O1 Zn1 1.933(2) 75_665 ?
C2 O13 1.295(11) 57_655 ?
C2 C3 1.47(3) . ?
C1 C1 1.21(3) 105_565 ?
C1 C3 1.28(2) . ?
C1 C1 2.00(6) 57_655 ?
C3 C1 1.28(2) 57_655 ?

loop_
_geom_angle_atom_site_label_1
_geom_angle_atom_site_label_2
_geom_angle_atom_site_label_3
_geom_angle
_geom_angle_site_symmetry_1
_geom_angle_site_symmetry_3
_geom_angle_publ_flag
O13 Zn1 O13 106.0(4) . 86_566 ?
O13 Zn1 O13 106.0(4) . 61_664 ?
O13 Zn1 O13 106.0(4) 86_566 61_664 ?
O13 Zn1 O1 112.7(4) . . ?
O13 Zn1 O1 112.7(4) 86_566 . ?
O13 Zn1 O1 112.7(4) 61_664 . ?
O13 Zn1 Zn1 77.5(4) . 122_565 ?
O13 Zn1 Zn1 125.6(3) 86_566 122_565 ?
O13 Zn1 Zn1 125.6(3) 61_664 122_565 ?
O1 Zn1 Zn1 35.3 . 122_565 ?
O13 Zn1 Zn1 125.6(3) . 75_665 ?
O13 Zn1 Zn1 77.5(4) 86_566 75_665 ?
O13 Zn1 Zn1 125.6(3) 61_664 75_665 ?
O1 Zn1 Zn1 35.3 . 75_665 ?
Zn1 Zn1 Zn1 60.0 122_565 75_665 ?
O13 Zn1 Zn1 125.6(3) . 148_655 ?
O13 Zn1 Zn1 125.6(3) 86_566 148_655 ?
O13 Zn1 Zn1 77.5(4) 61_664 148_655 ?
O1 Zn1 Zn1 35.3 . 148_655 ?
Zn1 Zn1 Zn1 60.0 122_565 148_655 ?
Zn1 Zn1 Zn1 59.999(1) 75_665 148_655 ?
C2 O13 Zn1 127.9(13) . . ?
Zn1 O1 Zn1 109.475(1) . 122_565 ?
Zn1 O1 Zn1 109.474(1) . 148_655 ?
Zn1 O1 Zn1 109.5 122_565 148_655 ?
Zn1 O1 Zn1 109.5 . 75_665 ?
Zn1 O1 Zn1 109.468(1) 122_565 75_665 ?
Zn1 O1 Zn1 109.468(2) 148_655 75_665 ?
O13 C2 O13 129(2) . 57_655 ?
O13 C2 C3 115.4(10) . . ?
O13 C2 C3 115.4(10) 57_655 . ?
C1 C1 C3 128.8(15) 105_565 . ?
C1 C1 C1 90.000(3) 105_565 57_655 ?
C3 C1 C1 38.8(15) . 57_655 ?
C1 C3 C1 102(3) . 57_655 ?
C1 C3 C2 128.8(15) . . ?
C1 C3 C2 128.8(15) 57_655 . ?

_diffrn_measured_fraction_theta_max 0.986
_diffrn_reflns_theta_full        19.72
_diffrn_measured_fraction_theta_full 0.986
_refine_diff_density_max         0.466
_refine_diff_density_min         -0.540
_refine_diff_density_rms         0.067
