####################################################################### 
# 
# This file contains crystal structure data downloaded from the 
# Cambridge Structural Database (CSD) hosted by the Cambridge 
# Crystallographic Data Centre (CCDC).
# 
# Full information about CCDC data access policies and citation 
# guidelines are available at http://www.ccdc.cam.ac.uk/access/V1 
# 
# Audit and citation data items may have been added by the CCDC. 
# Please retain this information to preserve the provenance of 
# this file and to allow appropriate attribution of the data. 
# 
#######################################################################

data__Ni_a_2
_audit_block_doi                 10.5517/ccnnzv3
_database_code_depnum_ccdc_archive 'CCDC 615996'
loop_
_citation_id
_citation_doi
_citation_year
1 10.1038/nmat1827 2007
_audit_update_record             
;
2006-07-25 deposited with the CCDC.	2024-07-12 downloaded from the CCDC.
;
#---------------------------------------------------------------------------
_audit_creation_date             'Tue Sep 21 14:12:31 2004'
_audit_creation_method           'by teXsan'
#---------------------------------------------------------------------------

# CHEMICAL DATA
_chemical_formula_sum            'C14 H12 N5 O2.50 Ni0.50 '
_chemical_formula_moiety         ?
_chemical_formula_weight         319.63
_chemical_melting_point          ?
#---------------------------------------------------------------------------
# CRYSTAL DATA
_symmetry_cell_setting           monoclinic
_symmetry_space_group_name_H-M   'C 1 2/c 1'
_symmetry_Int_Tables_number      15
loop_
_symmetry_equiv_pos_as_xyz
x,y,z
-x,y,1/2-z
-x,-y,-z
x,-y,1/2+z
1/2+x,1/2+y,z
1/2-x,1/2+y,1/2-z
1/2-x,1/2-y,-z
1/2+x,1/2-y,1/2+z
_cell_length_a                   18.28(5)
_cell_length_b                   19.91(4)
_cell_length_c                   8.63(4)
_cell_angle_alpha                90
_cell_angle_beta                 100.21(9)
_cell_angle_gamma                90
_cell_volume                     3092(1)
_cell_formula_units_Z            8
_cell_measurement_reflns_used    144
_cell_measurement_theta_min      3.0
_cell_measurement_theta_max      27.5
_cell_measurement_temperature    223.2
#---------------------------------------------------------------------------
_exptl_crystal_description       Prism
_exptl_crystal_colour            Violet
_exptl_crystal_size_max          0.200
_exptl_crystal_size_mid          0.200
_exptl_crystal_size_min          0.200
_exptl_crystal_size_rad          ?
_exptl_crystal_density_diffrn    1.373
_exptl_crystal_density_meas      ?
_exptl_crystal_density_method    'not measured'
_exptl_absorpt_coefficient_mu    0.681
_exptl_absorpt_correction_type   empirical
_exptl_absorpt_process_details   REQABA
_exptl_absorpt_correction_T_min  0.634
_exptl_absorpt_correction_T_max  0.873
#---------------------------------------------------------------------------
# EXPERIMENTAL DATA
_diffrn_radiation_type           'Mo K\a'
_diffrn_radiation_wavelength     0.7107
_diffrn_measurement_device_type  'Rigaku/MSC Mercury CCD'
_diffrn_measurement_method       \w
_diffrn_detector_area_resol_mean 14.71
_diffrn_reflns_number            15465
_diffrn_reflns_av_R_equivalents  0.040
_diffrn_reflns_theta_max         27.48
_diffrn_measured_fraction_theta_max 0.9930
_diffrn_reflns_theta_full        27.48
_diffrn_measured_fraction_theta_full 0.9930
_diffrn_reflns_limit_h_min       -23
_diffrn_reflns_limit_h_max       23
_diffrn_reflns_limit_k_min       -20
_diffrn_reflns_limit_k_max       25
_diffrn_reflns_limit_l_min       -10
_diffrn_reflns_limit_l_max       11
#---------------------------------------------------------------------------
# REFINEMENT DATA
_refine_special_details          
;
Refinement using reflections with F^2^ > 3.0 sigma(F^2^). The weighted R-factor
(wR), goodness of fit (S) and R-factor (gt) are based on F, with F set to zero
for negative F. The threshold expression of F^2^ > 3.0 sigma(F^2^) is used only
for calculating R-factor (gt).
;
_reflns_number_total             3530
_reflns_number_gt                1454
_reflns_threshold_expression     F^2^>3.0\s(F^2^)
_refine_ls_structure_factor_coef F
_refine_ls_R_factor_gt           0.0863
_refine_ls_wR_factor_ref         0.1130
_refine_ls_hydrogen_treatment    noref
_refine_ls_number_reflns         1454
_refine_ls_number_parameters     177
_refine_ls_goodness_of_fit_ref   1.763
_refine_ls_weighting_scheme      calc
_refine_ls_weighting_details     'w = 1/[\s^2^(Fo) + 0.00160|Fo|^2^]'
_refine_ls_shift/su_max          0.0000
_refine_diff_density_max         1.28
_refine_diff_density_min         -0.66
_refine_ls_extinction_method     none
_refine_ls_extinction_coef       ?
_refine_ls_abs_structure_details ?
_refine_ls_abs_structure_Flack   ?
loop_
_atom_type_symbol
_atom_type_description
_atom_type_scat_dispersion_real
_atom_type_scat_dispersion_imag
_atom_type_scat_source
C C 0.003 0.002
;International Tables for Crystallography
(1992, Vol. C, Tables 4.2.6.8 and 6.1.1.1)
;
H H 0.000 0.000
;International Tables for Crystallography
(1992, Vol. C, Table 6.1.1.2)
;
N N 0.006 0.003
;International Tables for Crystallography
(1992, Vol. C, Tables 4.2.6.8 and 6.1.1.1)
;
O O 0.011 0.006
;International Tables for Crystallography
(1992, Vol. C, Tables 4.2.6.8 and 6.1.1.1)
;
Ni Ni 0.339 1.112
;International Tables for Crystallography
(1992, Vol. C, Tables 4.2.6.8 and 6.1.1.1)
;
#---------------------------------------------------------------------------
# ATOMIC COORDINATES AND DISPLACEMENT PARAMETERS
loop_
_atom_site_label
_atom_site_type_symbol
_atom_site_fract_x
_atom_site_fract_y
_atom_site_fract_z
_atom_site_U_iso_or_equiv
_atom_site_adp_type
_atom_site_occupancy
_atom_site_calc_flag
_atom_site_refinement_flags
_atom_site_disorder_assembly
_atom_site_disorder_group
Ni(1) Ni 0.5000 0.17556(8) 0.2500 0.0332(5) Uani 1.00 d S . .
O(1) O 1.0000 0.009(3) 0.7500 0.54(2) Uiso 1.00 d S . .
O(2) O 0.946(2) -0.045(2) 0.957(4) 0.47(2) Uiso 1.00 d . . .
O(3) O 0.062(2) 0.168(1) 0.222(4) 0.38(1) Uiso 1.00 d . . .
N(1) N 0.5794(4) 0.2526(3) 0.2756(8) 0.034(2) Uani 1.00 d . . .
N(2) N 0.4138(4) 0.1017(3) 0.2170(8) 0.036(2) Uani 1.00 d . . .
N(3) N 0.5005(4) 0.1689(3) 0.4895(9) 0.037(2) Uani 1.00 d . . .
N(4) N 0.5000 0.1243(7) 0.7500 0.113(7) Uani 1.00 d S . .
N(5) N 0.843(2) 0.248(2) 0.188(4) 0.28(1) Uiso 1.00 d . . .
N(6) N 0.743(2) 0.215(1) 0.040(4) 0.125(9) Uiso 0.50 d P . .
C(1) C 0.6293(5) 0.2634(5) 0.408(1) 0.043(3) Uani 1.00 d . . .
C(2) C 0.6821(5) 0.3137(4) 0.421(1) 0.046(3) Uani 1.00 d . . .
C(3) C 0.6839(6) 0.3562(5) 0.296(1) 0.049(3) Uani 1.00 d . . .
C(4) C 0.6316(6) 0.3456(5) 0.159(1) 0.056(3) Uani 1.00 d . . .
C(5) C 0.5806(6) 0.2946(5) 0.156(1) 0.044(3) Uani 1.00 d . . .
C(6) C 0.7426(7) 0.4104(6) 0.306(1) 0.075(4) Uani 1.00 d . . .
C(7) C 0.4204(6) 0.0436(4) 0.145(1) 0.047(3) Uani 1.00 d . . .
C(8) C 0.3674(7) -0.0061(5) 0.132(1) 0.060(4) Uani 1.00 d . . .
C(9) C 0.3020(7) 0.0047(6) 0.185(1) 0.062(4) Uani 1.00 d . . .
C(10) C 0.2935(6) 0.0646(6) 0.254(1) 0.059(4) Uani 1.00 d . . .
C(11) C 0.3506(5) 0.1115(5) 0.269(1) 0.047(3) Uani 1.00 d . . .
C(12) C 0.2423(8) -0.0488(7) 0.167(2) 0.090(5) Uani 1.00 d . . .
C(13) C 0.5001(6) 0.1528(5) 0.617(1) 0.048(3) Uani 1.00 d . . .
C(14) C 0.794(2) 0.246(1) 0.106(3) 0.174(9) Uiso 1.00 d . . .
H(1) H 0.6290 0.2342 0.4968 0.0538 Uiso 1.00 calc . . .
H(2) H 0.7182 0.3186 0.5150 0.0580 Uiso 1.00 calc . . .
H(3) H 0.6299 0.3753 0.0701 0.0690 Uiso 1.00 calc . . .
H(4) H 0.5426 0.2887 0.0614 0.0568 Uiso 1.00 calc . . .
H(5) H 0.7909 0.3894 0.3285 0.0947 Uiso 1.00 calc . . .
H(6) H 0.7375 0.4398 0.3883 0.0947 Uiso 1.00 calc . . .
H(7) H 0.4645 0.0367 0.0979 0.0568 Uiso 1.00 calc . . .
H(8) H 0.3775 -0.0498 0.0826 0.0751 Uiso 1.00 calc . . .
H(9) H 0.2487 0.0748 0.2950 0.0771 Uiso 1.00 calc . . .
H(10) H 0.3449 0.1538 0.3226 0.0575 Uiso 1.00 calc . . .
H(11) H 0.2471 -0.0785 0.0774 0.1105 Uiso 1.00 calc . . .
H(12) H 0.1942 -0.0278 0.1378 0.1105 Uiso 1.00 calc . . .

loop_
_atom_site_aniso_label
_atom_site_aniso_U_11
_atom_site_aniso_U_22
_atom_site_aniso_U_33
_atom_site_aniso_U_12
_atom_site_aniso_U_13
_atom_site_aniso_U_23
Ni(1) 0.039(1) 0.0264(9) 0.035(1) 0.0000 0.0083(8) 0.0000
N(1) 0.039(5) 0.032(4) 0.028(5) 0.002(4) 0.003(4) 0.004(4)
N(2) 0.042(5) 0.032(4) 0.034(5) -0.006(4) 0.006(4) 0.000(4)
N(3) 0.053(5) 0.031(4) 0.028(4) 0.001(4) 0.010(3) -0.002(4)
N(4) 0.26(2) 0.065(10) 0.017(7) 0.0000 0.04(1) 0.0000
C(1) 0.049(6) 0.039(6) 0.040(6) -0.005(5) 0.002(5) 0.001(5)
C(2) 0.051(6) 0.042(6) 0.043(6) -0.017(5) 0.002(5) -0.002(5)
C(3) 0.064(7) 0.039(6) 0.046(7) -0.019(5) 0.016(5) 0.001(5)
C(4) 0.069(8) 0.052(6) 0.041(6) -0.027(6) -0.003(6) 0.010(5)
C(5) 0.062(7) 0.033(5) 0.035(6) -0.014(5) 0.003(5) 0.006(5)
C(6) 0.092(10) 0.066(8) 0.061(8) -0.058(7) 0.000(7) 0.013(6)
C(7) 0.057(7) 0.028(5) 0.052(7) -0.004(5) -0.002(5) -0.004(5)
C(8) 0.073(8) 0.034(6) 0.069(8) -0.016(6) -0.004(6) 0.001(5)
C(9) 0.068(8) 0.048(7) 0.062(8) -0.035(6) -0.012(6) 0.008(6)
C(10) 0.049(7) 0.068(8) 0.060(7) -0.028(6) 0.012(5) 0.015(6)
C(11) 0.043(6) 0.049(6) 0.051(6) -0.008(5) 0.012(5) 0.001(5)
C(12) 0.09(1) 0.088(9) 0.084(10) -0.064(8) 0.003(8) 0.016(8)
C(13) 0.075(8) 0.035(5) 0.033(7) 0.002(5) 0.009(6) -0.011(5)
#---------------------------------------------------------------------------
_computing_data_collection       CRYSTALCLEAR
_computing_cell_refinement       CRYSTALCLEAR
_computing_data_reduction        'teXsan Ver. 1.11'
_computing_structure_solution    SIR97
_computing_structure_refinement  'teXsan Ver. 1.10'
_computing_publication_material  'teXsan Ver. 1.11'
_computing_molecular_graphics    ?
#---------------------------------------------------------------------------
_geom_special_details            
;
?
;
loop_
_geom_bond_atom_site_label_1
_geom_bond_atom_site_label_2
_geom_bond_distance
_geom_bond_site_symmetry_1
_geom_bond_site_symmetry_2
_geom_bond_publ_flag
Ni(1) N(1) 2.098(8) . . yes
Ni(1) N(1) 2.098(8) . 2_655 yes
Ni(1) N(2) 2.138(8) . . yes
Ni(1) N(2) 2.138(8) . 2_655 yes
Ni(1) N(3) 2.070(7) . . yes
Ni(1) N(3) 2.070(7) . 2_655 yes
N(1) C(1) 1.35(1) . . yes
N(1) C(5) 1.33(1) . . yes
N(2) C(7) 1.33(1) . . yes
N(2) C(11) 1.33(1) . . yes
N(3) C(13) 1.15(1) . . yes
N(4) C(13) 1.28(1) . . yes
N(4) C(13) 1.28(1) . 2_656 yes
N(5) C(14) 1.04(3) . . yes
N(6) N(6) 1.60(6) . 7_655 yes
N(6) C(14) 1.17(3) . . yes
N(6) C(14) 1.53(3) . 7_655 yes
C(1) C(2) 1.38(1) . . yes
C(2) C(3) 1.37(1) . . yes
C(3) C(4) 1.40(1) . . yes
C(3) C(6) 1.51(1) . . yes
C(4) C(5) 1.38(1) . . yes
C(6) C(12) 1.45(2) . 5_555 yes
C(7) C(8) 1.38(1) . . yes
C(8) C(9) 1.37(2) . . yes
C(9) C(10) 1.35(2) . . yes
C(9) C(12) 1.51(1) . . yes
C(10) C(11) 1.39(1) . . yes
#---------------------------------------------------------------------------
loop_
_geom_angle_atom_site_label_1
_geom_angle_atom_site_label_2
_geom_angle_atom_site_label_3
_geom_angle
_geom_angle_site_symmetry_1
_geom_angle_site_symmetry_2
_geom_angle_site_symmetry_3
_geom_angle_publ_flag
N(1) Ni(1) N(1) 86.0(4) . . 2_655 yes
N(1) Ni(1) N(2) 176.3(3) . . . yes
N(1) Ni(1) N(2) 90.5(3) . . 2_655 yes
N(1) Ni(1) N(3) 93.5(3) . . . yes
N(1) Ni(1) N(3) 91.9(3) . . 2_655 yes
N(1) Ni(1) N(2) 90.5(3) 2_655 . . yes
N(1) Ni(1) N(2) 176.3(3) 2_655 . 2_655 yes
N(1) Ni(1) N(3) 91.9(3) 2_655 . . yes
N(1) Ni(1) N(3) 93.5(3) 2_655 . 2_655 yes
N(2) Ni(1) N(2) 93.1(4) . . 2_655 yes
N(2) Ni(1) N(3) 87.8(3) . . . yes
N(2) Ni(1) N(3) 87.1(3) . . 2_655 yes
N(2) Ni(1) N(3) 87.1(3) 2_655 . . yes
N(2) Ni(1) N(3) 87.8(3) 2_655 . 2_655 yes
N(3) Ni(1) N(3) 172.7(4) . . 2_655 yes
Ni(1) N(1) C(1) 124.0(6) . . . yes
Ni(1) N(1) C(5) 118.9(6) . . . yes
C(1) N(1) C(5) 117.1(8) . . . yes
Ni(1) N(2) C(7) 122.4(6) . . . yes
Ni(1) N(2) C(11) 121.3(6) . . . yes
C(7) N(2) C(11) 116.3(8) . . . yes
Ni(1) N(3) C(13) 167.4(7) . . . yes
C(13) N(4) C(13) 127(1) . . 2_656 yes
N(6) N(6) C(14) 64(2) 7_655 . . yes
N(6) N(6) C(14) 43(1) 7_655 . 7_655 yes
C(14) N(6) C(14) 108(3) . . 7_655 yes
N(1) C(1) C(2) 122.8(8) . . . yes
C(1) C(2) C(3) 119.8(9) . . . yes
C(2) C(3) C(4) 117.4(9) . . . yes
C(2) C(3) C(6) 120.6(9) . . . yes
C(4) C(3) C(6) 122.0(9) . . . yes
C(3) C(4) C(5) 119.2(9) . . . yes
N(1) C(5) C(4) 123.5(9) . . . yes
C(3) C(6) C(12) 116.9(9) . . 5_555 yes
N(2) C(7) C(8) 123.2(10) . . . yes
C(7) C(8) C(9) 119(1) . . . yes
C(8) C(9) C(10) 117.4(9) . . . yes
C(8) C(9) C(12) 120(1) . . . yes
C(10) C(9) C(12) 121(1) . . . yes
C(9) C(10) C(11) 119(1) . . . yes
N(2) C(11) C(10) 123.6(10) . . . yes
C(6) C(12) C(9) 114(1) 5_445 . . yes
N(3) C(13) N(4) 169(1) . . . yes
N(5) C(14) N(6) 149(4) . . . yes
N(5) C(14) N(6) 137(4) . . 7_655 yes
N(6) C(14) N(6) 71(3) . . 7_655 yes
#---------------------------------------------------------------------------
loop_
_geom_torsion_atom_site_label_1
_geom_torsion_atom_site_label_2
_geom_torsion_atom_site_label_3
_geom_torsion_atom_site_label_4
_geom_torsion
_geom_torsion_site_symmetry_1
_geom_torsion_site_symmetry_2
_geom_torsion_site_symmetry_3
_geom_torsion_site_symmetry_4
_geom_torsion_publ_flag
Ni(1) N(1) C(1) C(2) 178.6(7) . . . . yes
Ni(1) N(1) C(1) H(1) -0.1 . . . . no
Ni(1) N(1) C(5) C(4) -178.2(8) . . . . yes
Ni(1) N(1) C(5) H(4) 2.3 . . . . no
Ni(1) N(1) C(1) C(2) 178.6(7) . 2_655 2_655 2_655 yes
Ni(1) N(1) C(1) H(1) -0.1 . 2_655 2_655 2_655 no
Ni(1) N(1) C(5) C(4) -178.2(8) . 2_655 2_655 2_655 yes
Ni(1) N(1) C(5) H(4) 2.3 . 2_655 2_655 2_655 no
Ni(1) N(2) C(7) C(8) 175.9(7) . . . . yes
Ni(1) N(2) C(7) H(7) -5.8 . . . . no
Ni(1) N(2) C(11) C(10) -178.7(8) . . . . yes
Ni(1) N(2) C(11) H(10) 0.4 . . . . no
Ni(1) N(2) C(7) C(8) 175.9(7) . 2_655 2_655 2_655 yes
Ni(1) N(2) C(7) H(7) -5.8 . 2_655 2_655 2_655 no
Ni(1) N(2) C(11) C(10) -178.7(8) . 2_655 2_655 2_655 yes
Ni(1) N(2) C(11) H(10) 0.4 . 2_655 2_655 2_655 no
Ni(1) N(3) C(13) N(4) 4(9) . . . . yes
Ni(1) N(3) C(13) N(4) 4(9) . 2_655 2_655 2_655 yes
N(1) Ni(1) N(1) C(1) 116.2(8) . . 2_655 2_655 yes
N(1) Ni(1) N(1) C(5) -62.7(6) . . 2_655 2_655 yes
N(1) Ni(1) N(2) C(7) 127(4) . . . . yes
N(1) Ni(1) N(2) C(11) -53(4) . . . . yes
N(1) Ni(1) N(2) C(7) 146.3(7) . . 2_655 2_655 yes
N(1) Ni(1) N(2) C(11) -34.4(7) . . 2_655 2_655 yes
N(1) Ni(1) N(3) C(13) -139(3) . . . . yes
N(1) Ni(1) N(3) C(13) 134(3) . . 2_655 2_655 yes
N(1) C(1) C(2) C(3) 1(1) . . . . yes
N(1) C(1) C(2) H(2) -177.1 . . . . no
N(1) C(5) C(4) C(3) -2(1) . . . . yes
N(1) C(5) C(4) H(3) -179.0 . . . . no
N(2) Ni(1) N(1) C(1) 135(4) . . . . yes
N(2) Ni(1) N(1) C(5) -43(4) . . . . yes
N(2) Ni(1) N(1) C(1) -62.6(7) . . 2_655 2_655 yes
N(2) Ni(1) N(1) C(5) 118.5(7) . . 2_655 2_655 yes
N(2) Ni(1) N(2) C(7) -34.8(6) . . 2_655 2_655 yes
N(2) Ni(1) N(2) C(11) 144.4(8) . . 2_655 2_655 yes
N(2) Ni(1) N(3) C(13) 43(3) . . . . yes
N(2) Ni(1) N(3) C(13) -49(3) . . 2_655 2_655 yes
N(2) C(7) C(8) C(9) 3(1) . . . . yes
N(2) C(7) C(8) H(8) -175.9 . . . . no
N(2) C(11) C(10) C(9) 1(1) . . . . yes
N(2) C(11) C(10) H(9) 179.7 . . . . no
N(3) Ni(1) N(1) C(1) 24.6(7) . . . . yes
N(3) Ni(1) N(1) C(5) -154.3(7) . . . . yes
N(3) Ni(1) N(1) C(1) -150.4(7) . . 2_655 2_655 yes
N(3) Ni(1) N(1) C(5) 30.7(7) . . 2_655 2_655 yes
N(3) Ni(1) N(2) C(7) -121.9(7) . . . . yes
N(3) Ni(1) N(2) C(11) 57.4(7) . . . . yes
N(3) Ni(1) N(2) C(7) 52.8(7) . . 2_655 2_655 yes
N(3) Ni(1) N(2) C(11) -127.9(7) . . 2_655 2_655 yes
N(3) Ni(1) N(3) C(13) -2(3) . . 2_655 2_655 yes
N(3) C(13) N(4) C(13) 178(6) . . . 2_656 yes
N(5) C(14) N(6) N(6) -162(7) . . . 7_655 yes
N(5) C(14) N(6) C(14) -162(7) . . . 7_655 yes
N(5) C(14) N(6) N(6) 166(5) . . 7_655 . yes
N(5) C(14) N(6) C(14) 166(5) . . 7_655 7_655 yes
N(6) C(14) N(6) C(14) 0.0 . . 7_655 7_655 yes
N(6) C(14) N(6) C(14) 0.0 . 7_655 7_655 . yes
C(1) N(1) C(5) C(4) 2(1) . . . . yes
C(1) N(1) C(5) H(4) -176.6 . . . . no
C(1) C(2) C(3) C(4) 0(1) . . . . yes
C(1) C(2) C(3) C(6) -178.3(10) . . . . yes
C(2) C(1) N(1) C(5) -2(1) . . . . yes
C(2) C(3) C(4) C(5) 1(1) . . . . yes
C(2) C(3) C(4) H(3) 177.8 . . . . no
C(2) C(3) C(6) C(12) 177(1) . . . 5_555 yes
C(2) C(3) C(6) H(5) 57.5 . . . . no
C(2) C(3) C(6) H(6) -61.1 . . . . no
C(3) C(2) C(1) H(1) -179.8 . . . . no
C(3) C(4) C(5) H(4) 177.2 . . . . no
C(4) C(3) C(2) H(2) 177.9 . . . . no
C(4) C(3) C(6) C(12) 0(1) . . . 5_555 yes
C(4) C(3) C(6) H(5) -120.0 . . . . no
C(4) C(3) C(6) H(6) 121.4 . . . . no
C(5) N(1) C(1) H(1) 178.8 . . . . no
C(5) C(4) C(3) C(6) 178.6(10) . . . . yes
C(6) C(3) C(2) H(2) 0.3 . . . . no
C(6) C(3) C(4) H(3) -4.6 . . . . no
C(7) N(2) C(11) C(10) 0(1) . . . . yes
C(7) N(2) C(11) H(10) 179.7 . . . . no
C(7) C(8) C(9) C(10) -1(1) . . . . yes
C(7) C(8) C(9) C(12) 178.3(10) . . . . yes
C(8) C(7) N(2) C(11) -3(1) . . . . yes
C(8) C(9) C(10) C(11) -1(1) . . . . yes
C(8) C(9) C(10) H(9) -179.2 . . . . no
C(8) C(9) C(12) H(11) -24.9 . . . . no
C(8) C(9) C(12) H(12) -139.8 . . . . no
C(9) C(8) C(7) H(7) -174.4 . . . . no
C(9) C(10) C(11) H(10) -177.5 . . . . no
C(10) C(9) C(8) H(8) 178.3 . . . . no
C(10) C(9) C(12) H(11) 154.9 . . . . no
C(10) C(9) C(12) H(12) 40.0 . . . . no
C(11) N(2) C(7) H(7) 174.9 . . . . no
C(11) C(10) C(9) C(12) 179(1) . . . . yes
C(12) C(9) C(8) H(8) -2.0 . . . . no
C(12) C(9) C(10) H(9) 1.1 . . . . no
C(14) N(6) N(6) C(14) -180.0 . . 7_655 7_655 yes
C(14) N(6) C(14) N(6) 0.0 . . 7_655 7_655 yes
C(14) N(6) N(6) C(14) 180.0 . 7_655 . 7_655 yes
C(14) N(6) C(14) N(6) 0.0 . 7_655 7_655 . yes
H(1) C(1) C(2) H(2) 1.6 . . . . no
H(3) C(4) C(5) H(4) 0.5 . . . . no
H(7) C(7) C(8) H(8) 5.9 . . . . no
H(9) C(10) C(11) H(10) 0.6 . . . . no
H(9) C(10) C(11) H(10) 0.6 . . . . no
#---------------------------------------------------------------------------

