####################################################################### 
# 
# This file contains crystal structure data downloaded from the 
# Cambridge Structural Database (CSD) hosted by the Cambridge 
# Crystallographic Data Centre (CCDC).
# 
# Full information about CCDC data access policies and citation 
# guidelines are available at http://www.ccdc.cam.ac.uk/access/V1 
# 
# Audit and citation data items may have been added by the CCDC. 
# Please retain this information to preserve the provenance of 
# this file and to allow appropriate attribution of the data. 
# 
#######################################################################

data_am041
_audit_block_doi                 10.5517/cczcz1b
_database_code_depnum_ccdc_archive 'CCDC 905232'
loop_
_citation_id
_citation_doi
_citation_year
1 10.1002/ejic.201201257 2013
_audit_update_record             
;
2012-10-09 deposited with the CCDC.	2024-07-12 downloaded from the CCDC.
;
#TrackingRef 'web_deposit_cif_file_1_GeoffreyGontard_1349785454.4-am041-publi.cif'


_audit_creation_method           SHELXL-97
_chemical_formula_moiety         'C9 H17 As La N O42 P2 W9, 2(C15 N)'
_chemical_formula_sum            'C39 H17 As La N3 O42 P2 W9'
_chemical_formula_weight         3129.98

loop_
_atom_type_symbol
_atom_type_description
_atom_type_scat_dispersion_real
_atom_type_scat_dispersion_imag
_atom_type_scat_source
C C 0.0033 0.0016 'International Tables Vol C Tables 4.2.6.8 and 6.1.1.4'
H H 0.0000 0.0000 'International Tables Vol C Tables 4.2.6.8 and 6.1.1.4'
N N 0.0061 0.0033 'International Tables Vol C Tables 4.2.6.8 and 6.1.1.4'
O O 0.0106 0.0060 'International Tables Vol C Tables 4.2.6.8 and 6.1.1.4'
P P 0.1023 0.0942 'International Tables Vol C Tables 4.2.6.8 and 6.1.1.4'
As As 0.0499 2.0058 'International Tables Vol C Tables 4.2.6.8 and 6.1.1.4'
La La -0.2871 2.4523 'International Tables Vol C Tables 4.2.6.8 and 6.1.1.4'
W W -0.8490 6.8722 'International Tables Vol C Tables 4.2.6.8 and 6.1.1.4'

_symmetry_cell_setting           orthorhombic
_symmetry_space_group_name_H-M   'P b c a'
_symmetry_space_group_name_Hall  '-P 2ac 2ab'

loop_
_symmetry_equiv_pos_as_xyz
'x, y, z'
'-x+1/2, -y, z+1/2'
'x+1/2, -y+1/2, -z'
'-x, y+1/2, -z+1/2'
'-x, -y, -z'
'x-1/2, y, -z-1/2'
'-x-1/2, y-1/2, z'
'x, -y-1/2, z-1/2'

_cell_length_a                   14.1979(7)
_cell_length_b                   27.0930(13)
_cell_length_c                   51.430(3)
_cell_angle_alpha                90.00
_cell_angle_beta                 90.00
_cell_angle_gamma                90.00
_cell_volume                     19783.1(17)
_cell_formula_units_Z            8
_cell_measurement_temperature    200(1)
_cell_measurement_reflns_used    9816
_cell_measurement_theta_min      2.62
_cell_measurement_theta_max      30.98

_exptl_crystal_description       prism
_exptl_crystal_colour            colourless
_exptl_crystal_size_max          0.3
_exptl_crystal_size_mid          0.3
_exptl_crystal_size_min          0.1
_exptl_crystal_density_diffrn    2.102
_exptl_crystal_density_method    'not measured'
_exptl_crystal_F_000             11152
_exptl_absorpt_coefficient_mu    11.271
_exptl_absorpt_correction_type   multi-scan
_exptl_absorpt_correction_T_min  0.0599
_exptl_absorpt_correction_T_max  0.1647
_exptl_absorpt_process_details   
;
R.H. Blessing, Acta Cryst. (1995), A51, 33-38
;

_diffrn_ambient_temperature      200(1)
_diffrn_radiation_wavelength     0.71073
_diffrn_radiation_type           MoK\a
_diffrn_radiation_source         'fine-focus sealed tube'
_diffrn_radiation_monochromator  'curved graphite'
_diffrn_measurement_device_type  'Bruker APEX-II CCD'
_diffrn_measurement_method       '\f and \w scans'
_diffrn_detector_area_resol_mean 8.3333
_diffrn_standards_number         0
_diffrn_standards_decay_%        0
_diffrn_reflns_number            152795
_diffrn_reflns_av_R_equivalents  0.0598
_diffrn_reflns_av_sigmaI/netI    0.0488
_diffrn_reflns_limit_h_min       -20
_diffrn_reflns_limit_h_max       18
_diffrn_reflns_limit_k_min       -23
_diffrn_reflns_limit_k_max       38
_diffrn_reflns_limit_l_min       -73
_diffrn_reflns_limit_l_max       67
_diffrn_reflns_theta_min         1.55
_diffrn_reflns_theta_max         30.51
_reflns_number_total             30184
_reflns_number_gt                25206
_reflns_threshold_expression     >2\s(I)

_computing_data_collection       'Bruker APEX2'
_computing_cell_refinement       'Bruker SAINT'
_computing_data_reduction        'Bruker SAINT'
_computing_structure_solution    'SHELXS-97 (Sheldrick, 2008)'
_computing_structure_refinement  'SHELXL-97 (Sheldrick, 2008)'
_computing_publication_material  'SHELXL-97 (Sheldrick, 2008)'

_refine_special_details          
;
Due to disorder, the tetrabutylammonium ions are incomplete, were left in
isotropic thermal displacement modeling for the most part and are missing
their hydrogens. Two water molecules are also missing their hydrogens.
This leads to significant voids inside the structure.

The two caboxylic acid groups are heavily disordered. A modeling of this
disorder using two positions for each atom was tested but wouldnt lead to
an overall improvement of the structure.

Refinement of F^2^ against ALL reflections. The weighted R-factor wR and
goodness of fit S are based on F^2^, conventional R-factors R are based
on F, with F set to zero for negative F^2^. The threshold expression of
F^2^ > 2\s(F^2^) is used only for calculating R-factors(gt) etc. and is
not relevant to the choice of reflections for refinement. R-factors based
on F^2^ are statistically about twice as large as those based on F, and R-
factors based on ALL data will be even larger.
;

_refine_ls_structure_factor_coef Fsqd
_refine_ls_matrix_type           full
_refine_ls_weighting_scheme      calc
_refine_ls_weighting_details     
'calc w=1/[\s^2^(Fo^2^)+(0.0001P)^2^+2849.9883P] where P=(Fo^2^+2Fc^2^)/3'
_atom_sites_solution_primary     direct
_atom_sites_solution_secondary   difmap
_atom_sites_solution_hydrogens   geom
_refine_ls_hydrogen_treatment    constr
_refine_ls_extinction_method     none
_refine_ls_number_reflns         30184
_refine_ls_number_parameters     779
_refine_ls_number_restraints     0
_refine_ls_R_factor_all          0.1448
_refine_ls_R_factor_gt           0.1274
_refine_ls_wR_factor_ref         0.2779
_refine_ls_wR_factor_gt          0.2708
_refine_ls_goodness_of_fit_ref   1.286
_refine_ls_restrained_S_all      1.286
_refine_ls_shift/su_max          0.044
_refine_ls_shift/su_mean         0.001

loop_
_atom_site_label
_atom_site_type_symbol
_atom_site_fract_x
_atom_site_fract_y
_atom_site_fract_z
_atom_site_U_iso_or_equiv
_atom_site_adp_type
_atom_site_occupancy
_atom_site_symmetry_multiplicity
_atom_site_calc_flag
_atom_site_refinement_flags
_atom_site_disorder_assembly
_atom_site_disorder_group
W1 W 0.34078(6) 0.32791(3) 0.095014(18) 0.02428(17) Uani 1 1 d . . .
W2 W 0.32810(6) 0.19270(3) 0.092587(18) 0.02390(17) Uani 1 1 d . . .
W3 W 0.52620(6) 0.25671(4) 0.061130(16) 0.02432(18) Uani 1 1 d . . .
W4 W 0.51109(7) 0.37507(4) 0.13492(2) 0.0295(2) Uani 1 1 d . . .
W5 W 0.31534(6) 0.32329(4) 0.159157(18) 0.0287(2) Uani 1 1 d . . .
W6 W 0.31169(7) 0.18566(4) 0.157637(19) 0.0295(2) Uani 1 1 d . . .
W7 W 0.47856(7) 0.12113(4) 0.12619(2) 0.0310(2) Uani 1 1 d . . .
W8 W 0.67654(7) 0.18327(4) 0.091805(19) 0.0306(2) Uani 1 1 d . . .
W9 W 0.69248(6) 0.30514(4) 0.101840(18) 0.0281(2) Uani 1 1 d . . .
La1 La 0.68773(10) 0.29092(7) 0.18351(3) 0.0383(4) Uani 1 1 d . . .
As1 As 0.51258(14) 0.24931(9) 0.13485(4) 0.0221(4) Uani 1 1 d . . .
P1 P 0.4373(4) 0.2520(3) 0.20035(12) 0.0375(16) Uani 1 1 d . . .
P2 P 0.6742(5) 0.1611(3) 0.15638(13) 0.0314(13) Uani 1 1 d . . .
O1 O 0.2660(13) 0.3545(7) 0.0734(4) 0.038(4) Uani 1 1 d . . .
O2 O 0.2463(14) 0.1711(7) 0.0710(3) 0.038(4) Uani 1 1 d . . .
O3 O 0.5091(12) 0.2595(7) 0.0282(3) 0.030(4) Uani 1 1 d . . .
O4 O 0.4354(11) 0.3033(6) 0.0726(3) 0.025(3) Uani 1 1 d . . .
O5 O 0.2979(10) 0.2584(6) 0.0959(3) 0.027(3) Uani 1 1 d . . .
O6 O 0.4283(10) 0.2069(6) 0.0711(3) 0.023(3) Uani 1 1 d . . .
O7 O 0.4120(13) 0.3812(6) 0.1052(4) 0.035(4) Uani 1 1 d . . .
O8 O 0.2637(10) 0.3349(7) 0.1263(3) 0.031(4) Uani 1 1 d . . .
O9 O 0.2576(11) 0.1777(7) 0.1253(3) 0.032(4) Uani 1 1 d . . .
O10 O 0.3853(13) 0.1269(6) 0.1012(4) 0.035(4) Uani 1 1 d . . .
O11 O 0.6105(12) 0.1994(6) 0.0615(3) 0.029(3) Uani 1 1 d . . .
O12 O 0.6261(10) 0.2985(7) 0.0653(3) 0.027(4) Uani 1 1 d . . .
O13 O 0.4365(9) 0.2997(6) 0.1296(3) 0.023(3) Uani 1 1 d . . .
O14 O 0.4288(11) 0.2040(6) 0.1276(3) 0.024(3) Uani 1 1 d . . .
O15 O 0.5711(9) 0.2478(6) 0.1045(3) 0.020(3) Uani 1 1 d . . .
O16 O 0.5938(11) 0.3515(7) 0.1084(3) 0.030(4) Uani 1 1 d . . .
O17 O 0.5395(16) 0.4363(7) 0.1361(4) 0.047(5) Uani 1 1 d . . .
O18 O 0.3949(13) 0.3785(7) 0.1567(4) 0.036(4) Uani 1 1 d . . .
O19 O 0.2286(13) 0.3452(9) 0.1789(4) 0.048(5) Uani 1 1 d . . .
O20 O 0.2846(10) 0.2540(7) 0.1575(4) 0.033(4) Uani 1 1 d . . .
O21 O 0.2261(15) 0.1636(8) 0.1777(4) 0.049(5) Uani 1 1 d . . .
O22 O 0.3870(14) 0.1283(7) 0.1536(4) 0.039(4) Uani 1 1 d . . .
O23 O 0.4962(16) 0.0581(7) 0.1274(5) 0.052(6) Uani 1 1 d . . .
O24 O 0.5745(13) 0.1423(7) 0.1028(3) 0.033(4) Uani 1 1 d . . .
O25 O 0.7533(14) 0.1412(8) 0.0799(4) 0.048(5) Uani 1 1 d . . .
O26 O 0.7474(11) 0.2415(7) 0.0910(3) 0.035(4) Uani 1 1 d . . .
O27 O 0.7842(13) 0.3426(8) 0.0924(4) 0.044(5) Uani 1 1 d . . .
O28 O 0.5766(12) 0.3466(8) 0.1602(3) 0.036(4) Uani 1 1 d . . .
O29 O 0.4060(12) 0.3000(8) 0.1866(3) 0.035(4) Uani 1 1 d . . .
O30 O 0.4096(11) 0.2076(8) 0.1840(3) 0.034(4) Uani 1 1 d . . .
O31 O 0.5706(12) 0.1447(6) 0.1539(3) 0.032(4) Uani 1 1 d . . .
O32 O 0.7112(11) 0.1807(7) 0.1293(3) 0.030(4) Uani 1 1 d . . .
O33 O 0.7135(10) 0.2939(7) 0.1352(3) 0.028(3) Uani 1 1 d . . .
O34 O 0.5422(12) 0.2539(9) 0.2052(4) 0.046(5) Uani 1 1 d . . .
O35 O 0.6818(13) 0.2014(7) 0.1754(3) 0.034(4) Uani 1 1 d . . .
O36 O 0.787(2) 0.3725(15) 0.1749(10) 0.141(19) Uani 1 1 d . . .
O37 O 0.618(3) 0.3520(14) 0.2187(5) 0.123(16) Uani 1 1 d . . .
O38 O 0.8580(12) 0.2642(8) 0.1768(4) 0.047(5) Uani 1 1 d . . .
O39 O 0.121(2) 0.236(2) 0.2490(8) 0.15(2) Uani 1 1 d . . .
H39 H 0.0917 0.2384 0.2626 0.232 Uiso 1 1 calc R . .
O40 O 0.2499(17) 0.2600(11) 0.2726(4) 0.060(7) Uani 1 1 d . . .
O41 O 0.826(3) 0.0014(15) 0.1312(8) 0.15(2) Uani 1 1 d . . .
H41 H 0.8667 -0.0190 0.1350 0.228 Uiso 1 1 calc R . .
O42 O 0.863(6) 0.030(2) 0.1678(12) 0.31(6) Uani 1 1 d . . .
N1 N 0.9977(17) 0.2680(14) 0.1572(6) 0.067(10) Uani 1 1 d . . .
N2 N 0.7977(15) 0.3136(10) 0.0050(4) 0.039(5) Uani 1 1 d . . .
N3 N 0.302(3) 0.5145(13) 0.1035(7) 0.073(9) Uiso 1 1 d . . .
C1 C 0.372(2) 0.2479(14) 0.2310(5) 0.050(8) Uani 1 1 d . . .
H1A H 0.3918 0.2183 0.2401 0.060 Uiso 1 1 calc R . .
H1B H 0.3886 0.2760 0.2417 0.060 Uiso 1 1 calc R . .
C2 C 0.269(3) 0.247(2) 0.2278(9) 0.099(18) Uani 1 1 d . . .
H2A H 0.2518 0.2158 0.2195 0.119 Uiso 1 1 calc R . .
H2B H 0.2506 0.2733 0.2162 0.119 Uiso 1 1 calc R . .
C3 C 0.215(3) 0.252(2) 0.2531(11) 0.095(18) Uani 1 1 d . . .
C4 C 0.745(2) 0.1109(14) 0.1654(7) 0.060(10) Uani 1 1 d . . .
H4A H 0.8094 0.1220 0.1678 0.072 Uiso 1 1 calc R . .
H4B H 0.7228 0.0974 0.1817 0.072 Uiso 1 1 calc R . .
C5 C 0.742(3) 0.0705(14) 0.1442(11) 0.090(16) Uani 1 1 d . . .
H5A H 0.7527 0.0856 0.1273 0.108 Uiso 1 1 calc R . .
H5B H 0.6801 0.0556 0.1439 0.108 Uiso 1 1 calc R . .
C6 C 0.817(4) 0.029(2) 0.1485(7) 0.10(2) Uani 1 1 d . . .
C7 C 0.909(2) 0.2680(18) 0.1572(7) 0.073(14) Uani 1 1 d . . .
H7 H 0.8796 0.2711 0.1412 0.088 Uiso 1 1 calc R . .
C8 C 1.047(2) 0.2653(17) 0.1831(7) 0.071(12) Uani 1 1 d . . .
H8A H 1.1138 0.2652 0.1804 0.106 Uiso 1 1 calc R . .
H8B H 1.0287 0.2355 0.1919 0.106 Uiso 1 1 calc R . .
H8C H 1.0297 0.2933 0.1934 0.106 Uiso 1 1 calc R . .
C9 C 1.053(3) 0.275(2) 0.1340(8) 0.11(2) Uani 1 1 d . . .
H9A H 1.1184 0.2732 0.1383 0.161 Uiso 1 1 calc R . .
H9B H 1.0384 0.3062 0.1265 0.161 Uiso 1 1 calc R . .
H9C H 1.0377 0.2490 0.1218 0.161 Uiso 1 1 calc R . .
C10 C 0.7903(18) 0.2646(11) -0.0089(5) 0.036(6) Uani 1 1 d . . .
C11 C 0.736(2) 0.2251(12) 0.0067(6) 0.049(8) Uani 1 1 d . . .
C12 C 0.751(2) 0.1757(12) -0.0092(7) 0.054(8) Uani 1 1 d . . .
C13 C 0.690(3) 0.1345(10) 0.0050(8) 0.066(11) Uani 1 1 d . . .
C14 C 0.840(2) 0.3122(13) 0.0317(5) 0.047(8) Uani 1 1 d . . .
C15 C 0.939(2) 0.2931(17) 0.0325(6) 0.062(11) Uani 1 1 d . . .
C16 C 0.970(3) 0.2803(16) 0.0606(7) 0.061(9) Uani 1 1 d . . .
C17 C 1.075(2) 0.2677(14) 0.0633(8) 0.059(9) Uani 1 1 d . . .
C18 C 0.6970(19) 0.3346(13) 0.0097(6) 0.047(8) Uani 1 1 d . . .
C19 C 0.6414(19) 0.3460(15) -0.0159(6) 0.055(9) Uani 1 1 d . . .
C20 C 0.545(2) 0.3631(17) -0.0086(7) 0.066(12) Uani 1 1 d . . .
C21 C 0.478(3) 0.3732(15) -0.0328(9) 0.068(11) Uani 1 1 d . . .
C22 C 0.856(2) 0.3471(12) -0.0127(6) 0.045(7) Uiso 1 1 d . . .
C23 C 0.871(3) 0.3985(16) -0.0035(8) 0.070(11) Uiso 1 1 d . . .
C24 C 0.916(5) 0.425(2) -0.0286(13) 0.12(2) Uiso 1 1 d . . .
C26 C 0.326(3) 0.5685(16) 0.1034(8) 0.068(10) Uiso 1 1 d . . .
C27 C 0.430(4) 0.5774(19) 0.1113(10) 0.084(13) Uiso 1 1 d . . .
C28 C 0.451(4) 0.6333(18) 0.1104(10) 0.083(13) Uiso 1 1 d . . .
C29 C 0.549(4) 0.648(2) 0.1149(11) 0.100(16) Uiso 1 1 d . . .
C30 C 0.362(3) 0.4863(15) 0.0845(8) 0.067(10) Uiso 1 1 d . . .
C31 C 0.348(4) 0.506(2) 0.0559(11) 0.094(15) Uiso 1 1 d . . .
C32 C 0.398(4) 0.464(2) 0.0357(12) 0.109(18) Uiso 1 1 d . . .
C33 C 0.370(8) 0.486(4) 0.008(2) 0.21(4) Uiso 1 1 d . . .
C34 C 0.199(3) 0.5105(15) 0.0956(8) 0.067(10) Uiso 1 1 d . . .
C35 C 0.159(4) 0.459(2) 0.0910(11) 0.097(16) Uiso 1 1 d . . .
C36 C 0.061(5) 0.462(3) 0.0812(14) 0.13(2) Uiso 1 1 d . . .
C37 C 0.016(6) 0.414(3) 0.0718(16) 0.16(3) Uiso 1 1 d . . .
C38 C 0.314(3) 0.4879(18) 0.1269(10) 0.083(13) Uiso 1 1 d . . .
C39 C 0.263(4) 0.513(2) 0.1512(12) 0.107(18) Uiso 1 1 d . . .
C40 C 0.288(6) 0.492(3) 0.1789(17) 0.16(3) Uiso 1 1 d . . .

loop_
_atom_site_aniso_label
_atom_site_aniso_U_11
_atom_site_aniso_U_22
_atom_site_aniso_U_33
_atom_site_aniso_U_23
_atom_site_aniso_U_13
_atom_site_aniso_U_12
W1 0.0229(4) 0.0254(4) 0.0245(4) 0.0014(3) -0.0030(3) 0.0029(3)
W2 0.0196(4) 0.0258(4) 0.0264(4) -0.0018(3) -0.0007(3) -0.0025(3)
W3 0.0210(4) 0.0357(5) 0.0163(3) -0.0004(3) 0.0015(3) -0.0038(3)
W4 0.0271(4) 0.0284(4) 0.0329(5) -0.0063(4) -0.0018(4) -0.0042(4)
W5 0.0218(4) 0.0376(5) 0.0266(4) -0.0055(4) 0.0029(3) 0.0069(4)
W6 0.0252(4) 0.0350(5) 0.0282(4) 0.0085(4) 0.0076(3) -0.0004(4)
W7 0.0307(5) 0.0239(4) 0.0383(5) 0.0034(4) 0.0025(4) 0.0031(4)
W8 0.0225(4) 0.0434(6) 0.0259(4) -0.0046(4) 0.0038(3) 0.0060(4)
W9 0.0189(4) 0.0431(5) 0.0222(4) -0.0025(4) 0.0011(3) -0.0081(4)
La1 0.0229(6) 0.0696(11) 0.0223(6) -0.0058(7) -0.0057(5) 0.0046(7)
As1 0.0139(9) 0.0301(11) 0.0224(10) -0.0009(8) 0.0047(7) 0.0016(8)
P1 0.023(3) 0.071(5) 0.018(3) 0.002(3) 0.003(2) 0.007(3)
P2 0.027(3) 0.034(3) 0.033(3) 0.000(3) 0.000(2) 0.013(2)
O1 0.034(9) 0.041(10) 0.039(10) 0.014(8) 0.001(8) 0.003(8)
O2 0.041(10) 0.046(11) 0.028(9) 0.003(8) -0.002(8) -0.015(9)
O3 0.034(9) 0.036(9) 0.021(7) -0.003(7) 0.007(6) -0.007(7)
O4 0.030(8) 0.028(8) 0.017(7) 0.005(6) -0.002(6) -0.004(6)
O5 0.016(6) 0.034(8) 0.030(8) -0.001(7) 0.001(6) 0.010(6)
O6 0.022(7) 0.025(8) 0.022(7) -0.003(6) 0.008(6) -0.004(6)
O7 0.035(9) 0.026(8) 0.042(10) 0.010(8) -0.002(8) 0.008(7)
O8 0.014(7) 0.040(10) 0.041(9) -0.013(8) 0.006(6) 0.012(6)
O9 0.020(7) 0.040(10) 0.036(9) -0.001(8) 0.007(7) -0.007(7)
O10 0.041(10) 0.025(8) 0.038(10) 0.003(7) 0.002(8) -0.004(7)
O11 0.028(8) 0.033(9) 0.026(8) -0.005(7) -0.001(6) -0.003(7)
O12 0.014(6) 0.057(11) 0.011(6) 0.007(7) -0.002(5) -0.001(7)
O13 0.010(6) 0.031(8) 0.027(8) 0.002(6) 0.001(5) -0.002(5)
O14 0.025(7) 0.027(8) 0.020(7) 0.001(6) 0.005(6) 0.001(6)
O15 0.013(6) 0.030(8) 0.018(6) -0.002(6) 0.003(5) -0.003(5)
O16 0.023(7) 0.048(10) 0.020(7) 0.002(7) 0.002(6) -0.013(7)
O17 0.055(13) 0.027(9) 0.060(14) -0.006(9) 0.003(11) -0.002(9)
O18 0.035(9) 0.040(10) 0.033(9) -0.010(8) 0.002(7) 0.012(8)
O19 0.029(9) 0.076(15) 0.038(10) -0.023(10) 0.006(8) 0.019(10)
O20 0.012(6) 0.042(10) 0.044(10) 0.008(8) -0.001(6) -0.009(7)
O21 0.047(12) 0.055(13) 0.044(11) 0.014(10) 0.029(10) 0.002(10)
O22 0.043(10) 0.034(10) 0.039(10) 0.017(8) 0.000(8) -0.001(8)
O23 0.057(13) 0.027(9) 0.072(15) 0.028(10) 0.002(12) 0.009(9)
O24 0.035(9) 0.035(9) 0.029(9) -0.003(7) 0.005(7) 0.004(7)
O25 0.034(10) 0.065(14) 0.044(11) -0.014(10) 0.013(9) 0.028(10)
O26 0.019(7) 0.053(11) 0.034(9) -0.008(8) 0.001(7) -0.004(7)
O27 0.028(9) 0.061(13) 0.044(11) -0.013(10) 0.012(8) -0.017(9)
O28 0.024(8) 0.057(12) 0.025(8) -0.011(8) -0.006(7) 0.005(8)
O29 0.031(8) 0.062(12) 0.012(7) -0.004(7) -0.005(6) 0.002(8)
O30 0.022(8) 0.061(12) 0.020(8) 0.016(8) 0.004(6) 0.009(8)
O31 0.035(9) 0.032(9) 0.028(8) 0.013(7) 0.007(7) 0.010(7)
O32 0.016(7) 0.044(10) 0.032(8) -0.002(7) 0.008(6) 0.013(7)
O33 0.016(6) 0.053(11) 0.014(6) -0.003(7) 0.002(5) 0.000(7)
O34 0.021(8) 0.075(15) 0.042(11) 0.005(10) 0.008(8) 0.006(9)
O35 0.044(10) 0.037(9) 0.023(8) 0.014(7) -0.011(7) 0.001(8)
O36 0.056(18) 0.12(3) 0.24(5) -0.12(3) -0.03(2) 0.00(2)
O37 0.22(4) 0.12(3) 0.033(14) -0.039(16) 0.02(2) -0.06(3)
O38 0.020(8) 0.062(14) 0.057(13) -0.012(11) 0.003(8) 0.006(8)
O39 0.049(17) 0.30(6) 0.11(3) -0.06(4) 0.026(18) -0.06(3)
O40 0.055(13) 0.10(2) 0.026(10) -0.016(12) 0.002(9) 0.032(13)
O41 0.18(4) 0.15(3) 0.13(3) -0.06(3) -0.06(3) 0.15(3)
O42 0.46(11) 0.26(7) 0.20(5) -0.14(5) -0.23(7) 0.30(8)
N1 0.020(11) 0.13(3) 0.050(16) -0.021(18) 0.000(11) -0.009(14)
N2 0.030(10) 0.062(16) 0.024(10) 