####################################################################### 
# 
# This file contains crystal structure data downloaded from the 
# Cambridge Structural Database (CSD) hosted by the Cambridge 
# Crystallographic Data Centre (CCDC).
# 
# Full information about CCDC data access policies and citation 
# guidelines are available at http://www.ccdc.cam.ac.uk/access/V1 
# 
# Audit and citation data items may have been added by the CCDC. 
# Please retain this information to preserve the provenance of 
# this file and to allow appropriate attribution of the data. 
# 
#######################################################################

data_aa-sr
_audit_block_doi                 10.5517/cczcpqq
_database_code_depnum_ccdc_archive 'CCDC 904974'
loop_
_citation_id
_citation_doi
_citation_year
1 10.1002/adfm.201203288 2013
_audit_update_record             
;
2012-10-08 deposited with the CCDC.	2024-07-12 downloaded from the CCDC.
;
#TrackingRef 'duanjingui-single crystal.cif'


_audit_creation_method           SHELXL-97
_chemical_name_systematic        
;
?
;
_chemical_name_common            ?
_chemical_melting_point          ?
_chemical_formula_moiety         ?
_chemical_formula_sum            'C27 H16 La O7'
_chemical_formula_weight         591.31

loop_
_atom_type_symbol
_atom_type_description
_atom_type_scat_dispersion_real
_atom_type_scat_dispersion_imag
_atom_type_scat_source
C C 0.0033 0.0016 'International Tables Vol C Tables 4.2.6.8 and 6.1.1.4'
H H 0.0000 0.0000 'International Tables Vol C Tables 4.2.6.8 and 6.1.1.4'
O O 0.0106 0.0060 'International Tables Vol C Tables 4.2.6.8 and 6.1.1.4'
La La -0.2871 2.4523 'International Tables Vol C Tables 4.2.6.8 and 6.1.1.4'

_symmetry_cell_setting           ?
_symmetry_space_group_name_H-M   R32
_symmetry_space_group_name_Hall  R32

loop_
_symmetry_equiv_pos_as_xyz
'x, y, z'
'-y, x-y, z'
'-x+y, -x, z'
'y, x, -z'
'x-y, -y, -z'
'-x, -x+y, -z'
'x+2/3, y+1/3, z+1/3'
'-y+2/3, x-y+1/3, z+1/3'
'-x+y+2/3, -x+1/3, z+1/3'
'y+2/3, x+1/3, -z+1/3'
'x-y+2/3, -y+1/3, -z+1/3'
'-x+2/3, -x+y+1/3, -z+1/3'
'x+1/3, y+2/3, z+2/3'
'-y+1/3, x-y+2/3, z+2/3'
'-x+y+1/3, -x+2/3, z+2/3'
'y+1/3, x+2/3, -z+2/3'
'x-y+1/3, -y+2/3, -z+2/3'
'-x+1/3, -x+y+2/3, -z+2/3'

_cell_length_a                   28.764(4)
_cell_length_b                   28.764(4)
_cell_length_c                   12.563(3)
_cell_angle_alpha                90.00
_cell_angle_beta                 90.00
_cell_angle_gamma                120.00
_cell_volume                     9001(3)
_cell_formula_units_Z            9
_cell_measurement_temperature    223(2)
_cell_measurement_reflns_used    ?
_cell_measurement_theta_min      ?
_cell_measurement_theta_max      ?

_exptl_crystal_description       ?
_exptl_crystal_colour            ?
_exptl_crystal_size_max          0.12
_exptl_crystal_size_mid          0.04
_exptl_crystal_size_min          0.04
_exptl_crystal_density_meas      ?
_exptl_crystal_density_diffrn    0.982
_exptl_crystal_density_method    'not measured'
_exptl_crystal_F_000             2619
_exptl_absorpt_coefficient_mu    1.095
_exptl_absorpt_correction_type   Multi-scan
_exptl_absorpt_correction_T_min  0.8799
_exptl_absorpt_correction_T_max  0.9575
_exptl_absorpt_process_details   ?

_exptl_special_details           
;
?
;

_diffrn_ambient_temperature      223(2)
_diffrn_radiation_wavelength     0.71073
_diffrn_radiation_type           MoK\a
_diffrn_radiation_source         'fine-focus sealed tube'
_diffrn_radiation_monochromator  graphite
_diffrn_measurement_device_type  ?
_diffrn_measurement_method       ?
_diffrn_detector_area_resol_mean ?
_diffrn_standards_number         ?
_diffrn_standards_interval_count ?
_diffrn_standards_interval_time  ?
_diffrn_standards_decay_%        ?
_diffrn_reflns_number            21154
_diffrn_reflns_av_R_equivalents  0.0515
_diffrn_reflns_av_sigmaI/netI    0.0348
_diffrn_reflns_limit_h_min       -34
_diffrn_reflns_limit_h_max       34
_diffrn_reflns_limit_k_min       -33
_diffrn_reflns_limit_k_max       34
_diffrn_reflns_limit_l_min       -15
_diffrn_reflns_limit_l_max       14
_diffrn_reflns_theta_min         1.42
_diffrn_reflns_theta_max         25.49
_reflns_number_total             3746
_reflns_number_gt                3639
_reflns_threshold_expression     >2sigma(I)

_computing_data_collection       ?
_computing_cell_refinement       ?
_computing_data_reduction        ?
_computing_structure_solution    'SHELXS-97 (Sheldrick, 1990)'
_computing_structure_refinement  'SHELXL-97 (Sheldrick, 1997)'
_computing_molecular_graphics    ?
_computing_publication_material  ?

_refine_special_details          
;
Refinement of F^2^ against ALL reflections. The weighted R-factor wR and
goodness of fit S are based on F^2^, conventional R-factors R are based
on F, with F set to zero for negative F^2^. The threshold expression of
F^2^ > 2sigma(F^2^) is used only for calculating R-factors(gt) etc. and is
not relevant to the choice of reflections for refinement. R-factors based
on F^2^ are statistically about twice as large as those based on F, and R-
factors based on ALL data will be even larger.
;

_refine_ls_structure_factor_coef Fsqd
_refine_ls_matrix_type           full
_refine_ls_weighting_scheme      calc
_refine_ls_weighting_details     
'calc w=1/[\s^2^(Fo^2^)+(0.0765P)^2^+23.7716P] where P=(Fo^2^+2Fc^2^)/3'
_atom_sites_solution_primary     direct
_atom_sites_solution_secondary   difmap
_atom_sites_solution_hydrogens   geom
_refine_ls_hydrogen_treatment    constor
_refine_ls_extinction_method     SHELXL
_refine_ls_extinction_coef       0.00006(2)
_refine_ls_extinction_expression Fc^*^=kFc[1+0.001xFc^2^\l^3^/sin(2\q)]^-1/4^
_refine_ls_abs_structure_details 'Flack H D (1983), Acta Cryst. A39, 876-881'
_refine_ls_abs_structure_Flack   0.00
_refine_ls_number_reflns         3746
_refine_ls_number_parameters     163
_refine_ls_number_restraints     63
_refine_ls_R_factor_all          0.0432
_refine_ls_R_factor_gt           0.0424
_refine_ls_wR_factor_ref         0.1158
_refine_ls_wR_factor_gt          0.1152
_refine_ls_goodness_of_fit_ref   1.036
_refine_ls_restrained_S_all      1.030
_refine_ls_shift/su_max          0.001
_refine_ls_shift/su_mean         0.000

loop_
_atom_site_label
_atom_site_type_symbol
_atom_site_fract_x
_atom_site_fract_y
_atom_site_fract_z
_atom_site_U_iso_or_equiv
_atom_site_adp_type
_atom_site_occupancy
_atom_site_symmetry_multiplicity
_atom_site_calc_flag
_atom_site_refinement_flags
_atom_site_disorder_assembly
_atom_site_disorder_group
C1 C 0.4215(2) 1.0221(2) 0.8802(4) 0.0356(12) Uani 1 1 d U . .
C2 C 0.4727(2) 1.0217(2) 0.8658(5) 0.0349(12) Uani 1 1 d U . .
C3 C 0.5183(2) 1.0600(3) 0.9181(5) 0.0410(13) Uani 1 1 d U . .
H3 H 0.5174 1.0869 0.9591 0.049 Uiso 1 1 calc R . .
C4 C 0.5652(2) 1.0577(2) 0.9087(5) 0.0380(13) Uani 1 1 d U . .
H4 H 0.5966 1.0842 0.9419 0.046 Uiso 1 1 calc R . .
C5 C 0.5668(2) 1.0171(2) 0.8509(5) 0.0344(12) Uani 1 1 d U . .
C6 C 0.5217(3) 0.9793(2) 0.7979(5) 0.0431(14) Uani 1 1 d U . .
H6 H 0.5230 0.9533 0.7549 0.052 Uiso 1 1 calc R . .
C7 C 0.4735(2) 0.9805(2) 0.8092(5) 0.0396(13) Uani 1 1 d U . .
H7 H 0.4418 0.9532 0.7784 0.048 Uiso 1 1 calc R . .
C8 C 0.6183(2) 1.0158(2) 0.8406(4) 0.0303(12) Uani 1 1 d U . .
C9 C 0.6667 1.0635(3) 0.8333 0.0351(17) Uani 1 2 d SU . .
H9 H 0.6667 1.0962 0.8333 0.042 Uiso 1 2 calc SR . .
C10 C 0.6186(2) 0.9683(2) 0.8414(4) 0.0319(12) Uani 1 1 d U . .
H10 H 0.5858 0.9358 0.8475 0.038 Uiso 1 1 calc R . .
C11 C 0.6667 0.9669(2) 0.8333 0.0309(16) Uani 1 2 d SU . .
C12 C 0.6667 0.9158(2) 0.8333 0.0286(15) Uani 1 2 d SU . .
C13 C 0.7027(2) 0.9086(2) 0.7699(5) 0.0399(13) Uani 1 1 d U . .
H13 H 0.7277 0.9373 0.7277 0.048 Uiso 1 1 calc R . .
C14 C 0.7022(3) 0.8607(2) 0.7680(5) 0.0415(14) Uani 1 1 d U . .
H14 H 0.7256 0.8559 0.7232 0.050 Uiso 1 1 calc R . .
C15 C 0.6667 0.8198(2) 0.8333 0.0336(17) Uani 1 2 d SU . .
C16 C 0.6667 0.7663(3) 0.8333 0.042(2) Uani 1 2 d SU . .
La1 La 0.322216(13) 1.0000 1.0000 0.02527(14) Uani 1 2 d SU . .
O1 O 0.42093(14) 1.05521(16) 0.9463(3) 0.0369(9) Uani 1 1 d U . .
O2 O 0.37871(16) 0.98678(15) 0.8330(2) 0.0333(8) Uani 1 1 d U . .
O3 O 0.6830(2) 0.75396(19) 0.7502(4) 0.0606(14) Uani 1 1 d U . .
O4 O 0.2343(2) 1.0000 1.0000 0.092(3) Uani 1 2 d SU . .
H4A H 0.2189 0.9889 1.0599 0.137 Uiso 0.50 1 d PR . .

loop_
_atom_site_aniso_label
_atom_site_aniso_U_11
_atom_site_aniso_U_22
_atom_site_aniso_U_33
_atom_site_aniso_U_23
_atom_site_aniso_U_13
_atom_site_aniso_U_12
C1 0.027(3) 0.035(3) 0.039(3) 0.005(2) 0.001(2) 0.012(2)
C2 0.027(3) 0.033(3) 0.045(3) -0.002(2) 0.006(2) 0.016(2)
C3 0.033(3) 0.046(3) 0.050(3) -0.001(3) 0.007(2) 0.024(3)
C4 0.025(3) 0.036(3) 0.051(3) -0.002(2) -0.003(2) 0.014(2)
C5 0.028(3) 0.025(3) 0.055(3) 0.006(2) 0.000(2) 0.017(2)
C6 0.038(3) 0.032(3) 0.060(4) -0.002(3) 0.003(3) 0.018(3)
C7 0.036(3) 0.031(3) 0.053(3) -0.006(2) -0.008(3) 0.018(2)
C8 0.026(3) 0.023(3) 0.044(3) 0.003(2) 0.003(2) 0.014(2)
C9 0.031(4) 0.025(3) 0.051(4) -0.0002(17) 0.000(3) 0.0156(19)
C10 0.028(3) 0.020(2) 0.047(3) 0.004(2) 0.002(2) 0.012(2)
C11 0.032(4) 0.023(3) 0.041(4) 0.0012(16) 0.002(3) 0.0162(19)
C12 0.038(4) 0.017(2) 0.038(4) -0.0042(15) -0.008(3) 0.019(2)
C13 0.042(3) 0.024(3) 0.053(3) 0.001(2) 0.007(3) 0.016(3)
C14 0.043(3) 0.030(3) 0.059(4) -0.004(3) -0.007(3) 0.024(3)
C15 0.053(4) 0.017(2) 0.043(4) -0.0015(16) -0.003(3) 0.026(2)
C16 0.046(5) 0.023(3) 0.066(5) -0.012(2) -0.024(4) 0.023(2)
La1 0.02327(17) 0.0232(2) 0.0293(2) -0.00035(14) -0.00018(7) 0.01158(10)
O1 0.0257(17) 0.038(2) 0.045(2) -0.0038(17) 0.0025(15) 0.0145(17)
O2 0.0315(19) 0.034(2) 0.036(2) -0.0053(17) -0.0091(15) 0.0176(15)
O3 0.087(4) 0.040(3) 0.075(3) -0.034(2) -0.021(3) 0.047(3)
O4 0.047(3) 0.110(7) 0.139(7) 0.067(6) 0.033(3) 0.055(4)

_geom_special_details            
;
All esds (except the esd in the dihedral angle between two l.s. planes)
are estimated using the full covariance matrix. The cell esds are taken
into account individually in the estimation of esds in distances, angles
and torsion angles; correlations between esds in cell parameters are only
used when they are defined by crystal symmetry. An approximate (isotropic)
treatment of cell esds is used for estimating esds involving l.s. planes.
;

loop_
_geom_bond_atom_site_label_1
_geom_bond_atom_site_label_2
_geom_bond_distance
_geom_bond_site_symmetry_2
_geom_bond_publ_flag
C1 O1 1.269(7) . ?
C1 O2 1.284(7) . ?
C1 C2 1.489(8) . ?
C1 La1 3.001(5) . ?
C2 C3 1.386(8) . ?
C2 C7 1.393(8) . ?
C3 C4 1.389(8) . ?
C3 H3 0.9400 . ?
C4 C5 1.397(8) . ?
C4 H4 0.9400 . ?
C5 C6 1.377(9) . ?
C5 C8 1.506(8) . ?
C6 C7 1.410(9) . ?
C6 H6 0.9400 . ?
C7 H7 0.9400 . ?
C8 C10 1.370(7) . ?
C8 C9 1.385(6) . ?
C9 C8 1.385(6) 18_656 ?
C9 H9 0.9400 . ?
C10 C11 1.408(7) . ?
C10 H10 0.9400 . ?
C11 C10 1.408(7) 18_656 ?
C11 C12 1.469(9) . ?
C12 C13 1.402(7) . ?
C12 C13 1.402(7) 18_656 ?
C13 C14 1.372(8) . ?
C13 H13 0.9400 . ?
C14 C15 1.379(7) . ?
C14 H14 0.9400 . ?
C15 C14 1.378(7) 18_656 ?
C15 C16 1.540(9) . ?
C16 O3 1.266(6) . ?
C16 O3 1.266(6) 18_656 ?
La1 O3 2.459(4) 17_566 ?
La1 O3 2.459(4) 7_455 ?
La1 O2 2.481(3) 16_456 ?
La1 O2 2.481(3) 9_465 ?
La1 O4 2.529(7) . ?
La1 O1 2.555(3) . ?
La1 O1 2.555(3) 5_677 ?
La1 O2 2.793(4) 5_677 ?
La1 O2 2.793(4) . ?
La1 C1 3.001(6) 5_677 ?
La1 La1 4.2241(8) 9_465 ?
O2 La1 2.481(3) 14_664 ?
O3 La1 2.459(4) 13_544 ?
O4 H4A 0.8500 . ?

loop_
_geom_angle_atom_site_label_1
_geom_angle_atom_site_label_2
_geom_angle_atom_site_label_3
_geom_angle
_geom_angle_site_symmetry_1
_geom_angle_site_symmetry_3
_geom_angle_publ_flag
O1 C1 O2 122.0(5) . . ?
O1 C1 C2 118.0(5) . . ?
O2 C1 C2 119.8(5) . . ?
O1 C1 La1 57.6(3) . . ?
O2 C1 La1 68.3(3) . . ?
C2 C1 La1 154.0(4) . . ?
C3 C2 C7 120.4(5) . . ?
C3 C2 C1 118.8(5) . . ?
C7 C2 C1 120.5(5) . . ?
C2 C3 C4 118.5(6) . . ?
C2 C3 H3 120.7 . . ?
C4 C3 H3 120.7 . . ?
C3 C4 C5 121.6(5) . . ?
C3 C4 H4 119.2 . . ?
C5 C4 H4 119.2 . . ?
C6 C5 C4 119.9(5) . . ?
C6 C5 C8 119.3(5) . . ?
C4 C5 C8 120.7(5) . . ?
C5 C6 C7 118.8(6) . . ?
C5 C6 H6 120.6 . . ?
C7 C6 H6 120.6 . . ?
C2 C7 C6 120.5(6) . . ?
C2 C7 H7 119.7 . . ?
C6 C7 H7 119.7 . . ?
C10 C8 C9 119.0(5) . . ?
C10 C8 C5 121.3(5) . . ?
C9 C8 C5 119.6(5) . . ?
C8 C9 C8 121.5(7) . 18_656 ?
C8 C9 H9 119.3 . . ?
C8 C9 H9 119.3 18_656 . ?
C8 C10 C11 121.5(5) . . ?
C8 C10 H10 119.2 . . ?
C11 C10 H10 119.2 . . ?
C10 C11 C10 117.4(7) 18_656 . ?
C10 C11 C12 121.3(3) 18_656 . ?
C10 C11 C12 121.3(3) . . ?
C13 C12 C13 117.8(7) . 18_656 ?
C13 C12 C11 121.1(3) . . ?
C13 C12 C11 121.1(3) 18_656 . ?
C14 C13 C12 121.4(6) . . ?
C14 C13 H13 119.3 . . ?
C12 C13 H13 119.3 . . ?
C13 C14 C15 118.6(6) . . ?
C13 C14 H14 120.7 . . ?
C15 C14 H14 120.7 . . ?
C14 C15 C14 122.3(7) 18_656 . ?
C14 C15 C16 118.9(3) 18_656 . ?
C14 C15 C16 118.9(3) . . ?
O3 C16 O3 124.6(8) . 18_656 ?
O3 C16 C15 117.7(4) . . ?
O3 C16 C15 117.7(4) 18_656 . ?
O3 La1 O3 158.2(2) 17_566 7_455 ?
O3 La1 O2 89.37(16) 17_566 16_456 ?
O3 La1 O2 84.38(15) 7_455 16_456 ?
O3 La1 O2 84.38(15) 17_566 9_465 ?
O3 La1 O2 89.37(16) 7_455 9_465 ?
O2 La1 O2 146.59(16) 16_456 9_465 ?
O3 La1 O4 79.09(12) 17_566 . ?
O3 La1 O4 79.09(12) 7_455 . ?
O2 La1 O4 73.30(8) 16_456 . ?
O2 La1 O4 73.29(8) 9_465 . ?
O3 La1 O1 120.98(14) 17_566 . ?
O3 La1 O1 77.77(16) 7_455 . ?
O2 La1 O1 76.25(12) 16_456 . ?
O2 La1 O1 134.25(12) 9_465 . ?
O4 La1 O1 143.17(9) . . ?
O3 La1 O1 77.77(16) 17_566 5_677 ?
O3 La1 O1 120.99(14) 7_455 5_677 ?
O2 La1 O1 134.24(12) 16_456 5_677 ?
O2 La1 O1 76.26(12) 9_465 5_677 ?
O4 La1 O1 143.17(10) . 5_677 ?
O1 La1 O1 73.67(19) . 5_677 ?
O3 La1 O2 123.20(15) 17_566 5_677 ?
O3 La1 O2 72.45(14) 7_455 5_677 ?
O2 La1 O2 139.97(6) 16_456 5_677 ?
O2 La1 O2 66.92(13) 9_465 5_677 ?
O4 La1 O2 130.53(7) . 5_677 ?
O1 La1 O2 67.34(11) . 5_677 ?
O1 La1 O2 49.09(11) 5_677 5_677 ?
O3 La1 O2 72.44(14) 17_566 . ?
O3 La1 O2 123.21(16) 7_455 . ?
O2 La1 O2 66.91(13) 16_456 . ?
O2 La1 O2 139.97(6) 9_465 . ?
O4 La1 O2 130.53(7) . . ?
O1 La1 O2 49.09(11) . . ?
O1 La1 O2 67.34(11) 5_677 . ?
O2 La1 O2 98.94(14) 5_677 . ?
O3 La1 C1 102.21(18) 17_566 5_677 ?
O3 La1 C1 96.24(16) 7_455 5_677 ?
O2 La1 C1 138.52(14) 16_456 5_677 ?
O2 La1 C1 74.74(13) 9_465 5_677 ?
O4 La1 C1 147.72(10) . 5_677 ?
O1 La1 C1 63.55(14) . 5_677 ?
O1 La1 C1 24.77(14) 5_677 5_677 ?
O2 La1 C1 25.28(13) 5_677 5_677 ?
O2 La1 C1 78.78(12) . 5_677 ?
O3 La1 C1 96.23(16) 17_566 . ?
O3 La1 C1 102.21(18) 7_455 . ?
O2 La1 C1 74.74(13) 16_456 . ?
O2 La1 C1 138.52(14) 9_465 . ?
O4 La1 C1 147.72(10) . . ?
O1 La1 C1 24.77(14) . . ?
O1 La1 C1 63.55(14) 5_677 . ?
O2 La1 C1 78.78(13) 5_677 . ?
O2 La1 C1 25.28(14) . . ?
C1 La1 C1 64.6(2) 5_677 . ?
O3 La1 La1 120.16(13) 17_566 9_465 ?
O3 La1 La1 62.65(12) 7_455 9_465 ?
O2 La1 La1 146.93(9) 16_456 9_465 ?
O2 La1 La1 39.40(9) 9_465 9_465 ?
O4 La1 La1 96.519(8) . 9_465 ?
O1 La1 La1 97.79(8) . 9_465 ?
O1 La1 La1 71.50(8) 5_677 9_465 ?
O2 La1 La1 34.32(7) 5_677 9_465 ?
O2 La1 La1 132.72(7) . 9_465 ?
C1 La1 La1 54.48(11) 5_677 9_465 ?
C1 La1 La1 112.90(11) . 9_465 ?
C1 O1 La1 97.7(3) . . ?
C1 O2 La1 132.6(3) . 14_664 ?
C1 O2 La1 86.4(3) . . ?
La1 O2 La1 106.28(13) 14_664 . ?
C16 O3 La1 131.5(4) . 13_544 ?
La1 O4 H4A 109.5 . . ?

loop_
_geom_torsion_atom_site_label_1
_geom_torsion_atom_site_label_2
_geom_torsion_atom_site_label_3
_geom_torsion_atom_site_label_4
_geom_torsion
_geom_torsion_site_symmetry_1
_geom_torsion_site_symmetry_2
_geom_torsion_site_symmetry_3
_geom_torsion_site_symmetry_4
_geom_torsion_publ_flag
O1 C1 C2 C3 -5.1(8) . . . . ?
O2 C1 C2 C3 -179.5(5) . . . . ?
La1 C1 C2 C3 -77.9(11) . . . . ?
O1 C1 C2 C7 168.7(6) . . . . ?
O2 C1 C2 C7 -5.7(9) . . . . ?
La1 C1 C2 C7 95.9(10) . . . . ?
C7 C2 C3 C4 3.0(9) . . . . ?
C1 C2 C3 C4 176.8(5) . . . . ?
C2 C3 C4 C5 -2.1(9) . . . . ?
C3 C4 C5 C6 2.8(9) . . . . ?
C3 C4 C5 C8 179.3(5) . . . . ?
C4 C5 C6 C7 -4.3(9) . . . . ?
C8 C5 C6 C7 179.2(5) . . . . ?
C3 C2 C7 C6 -4.7(10) . . . . ?
C1 C2 C7 C6 -178.3(5) . . . . ?
C5 C6 C7 C2 5.3(10) . . . . ?
C6 C5 C8 C10 -40.8(8) . . . . ?
C4 C5 C8 C10 142.7(6) . . . . ?
C6 C5 C8 C9 141.2(5) . . . . ?
C4 C5 C8 C9 -35.2(7) . . . . ?
C10 C8 C9 C8 0.5(4) . . . 18_656 ?
C5 C8 C9 C8 178.6(6) . . . 18_656 ?
C9 C8 C10 C11 -1.1(8) . . . . ?
C5 C8 C10 C11 -179.1(4) . . . . ?
C8 C10 C11 C10 0.5(4) . . . 18_656 ?
C8 C10 C11 C12 -179.5(4) . . . . ?
C10 C11 C12 C13 -36.8(4) 18_656 . . . ?
C10 C11 C12 C13 143.2(4) . . . . ?
C10 C11 C12 C13 143.2(4) 18_656 . . 18_656 ?
C10 C11 C12 C13 -36.8(4) . . . 18_656 ?
C13 C12 C13 C14 1.2(5) 18_656 . . . ?
C11 C12 C13 C14 -178.8(5) . . . . ?
C12 C13 C14 C15 -2.4(9) . . . . ?
C13 C14 C15 C14 1.2(4) . . . 18_656 ?
C13 C14 C15 C16 -178.8(4) . . . . ?
C14 C15 C16 O3 154.1(4) 18_656 . . . ?
C14 C15 C16 O3 -25.9(4) . . . . ?
C14 C15 C16 O3 -25.9(4) 18_656 . . 18_656 ?
C14 C15 C16 O3 154.1(4) . . . 18_656 ?
O1 C1 La1 O3 177.8(3) . . . 17_566 ?
O2 C1 La1 O3 19.6(3) . . . 17_566 ?
C2 C1 La1 O3 -94.2(9) . . . 17_566 ?
O1 C1 La1 O3 9.6(3) . . . 7_455 ?
O2 C1 La1 O3 -148.7(3) . . . 7_455 ?
C2 C1 La1 O3 97.5(9) . . . 7_455 ?
O1 C1 La1 O2 90.2(3) . . . 16_456 ?
O2 C1 La1 O2 -68.0(3) . . . 16_456 ?
C2 C1 La1 O2 178.1(10) . . . 16_456 ?
O1 C1 La1 O2 -93.6(4) . . . 9_465 ?
O2 C1 La1 O2 108.2(3) . . . 9_465 ?
C2 C1 La1 O2 -5.6(10) . . . 9_465 ?
O1 C1 La1 O4 98.4(3) . . . . ?
O2 C1 La1 O4 -59.8(4) . . . . ?
C2 C1 La1 O4 -173.6(8) . . . . ?
O2 C1 La1 O1 -158.2(5) . . . . ?
C2 C1 La1 O1 88.0(10) . . . . ?
O1 C1 La1 O1 -109.2(3) . . . 5_677 ?
O2 C1 La1 O1 92.6(3) . . . 5_677 ?
C2 C1 La1 O1 -21.2(9) . . . 5_677 ?
O1 C1 La1 O2 -59.5(3) . . . 5_677 ?
O2 C1 La1 O2 142.3(3) . . . 5_677 ?
C2 C1 La1 O2 28.5(9) . . . 5_677 ?
O1 C1 La1 O2 158.2(5) . . . . ?
C2 C1 La1 O2 -113.8(10) . . . . ?
O1 C1 La1 C1 -81.6(3) . . . 5_677 ?
O2 C1 La1 C1 120.2(4) . . . 5_677 ?
C2 C1 La1 C1 6.4(8) . . . 5_677 ?
O1 C1 La1 La1 -55.7(3) . . . 9_465 ?
O2 C1 La1 La1 146.1(3) . . . 9_465 ?
C2 C1 La1 La1 32.3(9) . . . 9_465 ?
O2 C1 O1 La1 24.0(5) . . . . ?
C2 C1 O1 La1 -150.3(4) . . . . ?
O3 La1 O1 C1 -2.5(4) 17_566 . . . ?
O3 La1 O1 C1 -170.4(3) 7_455 . . . ?
O2 La1 O1 C1 -83.3(3) 16_456 . . . ?
O2 La1 O1 C1 112.7(3) 9_465 . . . ?
O4 La1 O1 C1 -118.2(3) . . . . ?
O1 La1 O1 C1 61.8(3) 5_677 . . . ?
O2 La1 O1 C1 113.7(3) 5_677 . . . ?
O2 La1 O1 C1 -12.1(3) . . . . ?
C1 La1 O1 C1 86.2(4) 5_677 . . . ?
La1 La1 O1 C1 129.8(3) 9_465 . . . ?
O1 C1 O2 La1 87.3(6) . . . 14_664 ?
C2 C1 O2 La1 -98.6(6) . . . 14_664 ?
La1 C1 O2 La1 108.9(4) . . . 14_664 ?
O1 C1 O2 La1 -21.7(5) . . . . ?
C2 C1 O2 La1 152.5(5) . . . . ?
O3 La1 O2 C1 -159.5(3) 17_566 . . . ?
O3 La1 O2 C1 37.4(3) 7_455 . . . ?
O2 La1 O2 C1 103.5(3) 16_456 . . . ?
O2 La1 O2 C1 -101.9(3) 9_465 . . . ?
O4 La1 O2 C1 142.6(3) . . . . ?
O1 La1 O2 C1 11.9(3) . . . . ?
O1 La1 O2 C1 -75.8(3) 5_677 . . . ?
O2 La1 O2 C1 -37.4(3) 5_677 . . . ?
C1 La1 O2 C1 -52.7(4) 5_677 . . . ?
La1 La1 O2 C1 -44.3(3) 9_465 . . . ?
O3 La1 O2 La1 66.96(18) 17_566 . . 14_664 ?
O3 La1 O2 La1 -96.10(18) 7_455 . . 14_664 ?
O2 La1 O2 La1 -30.07(18) 16_456 