
#######################################################################
#
#                 Cambridge Crystallographic Data Centre
#                                CCDC
#
#######################################################################
#
# If this CIF has been generated from an entry in the Cambridge
# Structural Database, then it will include bibliographic, chemical,
# crystal, experimental, refinement or atomic coordinate data resulting
# from the CCDC's data processing and validation procedures.
#
#######################################################################

data_CSD_CIF_PHENOL01
_audit_creation_date 1971-12-31
_audit_creation_method CSD-ConQuest-V1
_database_code_CSD PHENOL01
_database_code_depnum_ccdc_archive 'CCDC 1232402'
_chemical_formula_sum 'C6 H6 O1'
_chemical_formula_moiety
;
C6 H6 O1
;
_journal_coden_Cambridge 25
_journal_year 1967
_journal_page_first 1988
_journal_name_full 'Bull.Soc.Chim.Fr. '
loop_
_publ_author_name
"H.Gillier-Pandraud"
_chemical_name_systematic
;
Phenol
;
_chemical_name_common
;
Teaching Subset: Fundamental Chemistry; DrugBank: DB03255
;
_cell_volume    826.108
_exptl_crystal_density_diffrn 1.13
_exptl_special_details
;
ambient-pressure polymorph

;
_diffrn_ambient_temperature ?
_diffrn_special_details
;
The study was carried out at room temperature,in the range 283-303K

;
#These two values have been output from a single CSD field.
_refine_ls_R_factor_gt 0.15
_refine_ls_wR_factor_gt 0.15
_symmetry_cell_setting orthorhombic
_symmetry_space_group_name_H-M 'P 21 2 21'
_symmetry_Int_Tables_number 18
loop_
_symmetry_equiv_pos_site_id
_symmetry_equiv_pos_as_xyz
1 x,y,z
2 1/2+x,-y,-z
3 -x,y,1/2-z
4 1/2-x,-y,1/2+z
_cell_length_a 6.02(2)
_cell_length_b 9.04(3)
_cell_length_c 15.18(4)
_cell_angle_alpha 90
_cell_angle_beta 90
_cell_angle_gamma 90
_cell_formula_units_Z 6
loop_
_atom_type_symbol
_atom_type_radius_bond
C 0.68
O 0.68
loop_
_atom_site_label
_atom_site_type_symbol
_atom_site_fract_x
_atom_site_fract_y
_atom_site_fract_z
C1 C 0.00000 -0.21680 0.25000
C2 C 0.18260 -0.14830 0.21700
C3 C 0.18210 0.01060 0.21550
C4 C 0.00000 0.08320 0.25000
O1 O 0.00000 -0.37280 0.25000
C5 C 0.34310 0.38610 0.11610
C6 C 0.15360 0.39390 0.06200
C7 C 0.15600 0.29120 -0.01080
C8 C 0.33330 0.19430 -0.02410
C9 C 0.52010 0.19920 0.02850
C10 C 0.52720 0.29780 0.10340
O2 O 0.35590 0.47730 0.18760
C3B C -0.18210 0.01060 0.28450
C2B C -0.18260 -0.14830 0.28300
#END
