
#######################################################################
#
#                 Cambridge Crystallographic Data Centre
#                                CCDC
#
#######################################################################
#
# If this CIF has been generated from an entry in the Cambridge
# Structural Database, then it will include bibliographic, chemical,
# crystal, experimental, refinement or atomic coordinate data resulting
# from the CCDC's data processing and validation procedures.
#
#######################################################################

data_CSD_CIF_PHSECL01
_audit_creation_date 2006-05-05
_audit_creation_method CSD-ConQuest-V1
_database_code_CSD PHSECL01
_database_code_depnum_ccdc_archive 'CCDC 283638'
_chemical_formula_sum 'C12 H10 Cl2 Se1'
_chemical_formula_moiety
;
C12 H10 Cl2 Se1
;
_journal_coden_Cambridge 29
_journal_volume 632
_journal_year 2006
_journal_page_first 31
_journal_name_full 'Z.Anorg.Allg.Chem. '
loop_
_publ_author_name
"B.Neumuller"
"K.Dehnicke"
_chemical_name_systematic
;
Dichloro-diphenyl-selenium
;
_chemical_name_common
;
Teaching Subset: Fundamental Chemistry, Symmetry
;
_cell_volume   1164.004
_exptl_crystal_colour 'colorless'
_exptl_crystal_density_diffrn 1.735
_exptl_crystal_description 'needles'
_diffrn_ambient_temperature 193
#These two values have been output from a single CSD field.
_refine_ls_R_factor_gt 0.0326
_refine_ls_wR_factor_gt 0.0326
_symmetry_cell_setting orthorhombic
_symmetry_space_group_name_H-M 'P b c n'
_symmetry_Int_Tables_number 60
loop_
_symmetry_equiv_pos_site_id
_symmetry_equiv_pos_as_xyz
1 x,y,z
2 1/2-x,1/2-y,1/2+z
3 -x,y,1/2-z
4 1/2+x,1/2-y,-z
5 -x,-y,-z
6 -1/2+x,-1/2+y,-1/2-z
7 x,-y,-1/2+z
8 -1/2-x,-1/2+y,z
_cell_length_a 13.506(1)
_cell_length_b 5.733(1)
_cell_length_c 15.033(2)
_cell_angle_alpha 90
_cell_angle_beta 90
_cell_angle_gamma 90
_cell_formula_units_Z 4
loop_
_atom_type_symbol
_atom_type_radius_bond
C 0.68
H 0.23
Cl 0.99
Se 1.22
loop_
_atom_site_label
_atom_site_type_symbol
_atom_site_fract_x
_atom_site_fract_y
_atom_site_fract_z
Se1 Se 0.00000 0.08372(7) 0.25000
Cl1 Cl -0.14560(6) 0.06562(14) 0.33955(5)
C1 C -0.06390(19) 0.3001(5) 0.16933(19)
C2 C -0.0671(2) 0.2388(6) 0.0803(2)
H1 H -0.036(3) 0.096(6) 0.059(2)
C3 C -0.1145(2) 0.3880(6) 0.0209(2)
H2 H -0.122(3) 0.342(7) -0.039(3)
C4 C -0.1579(2) 0.5908(6) 0.0509(2)
H3 H -0.189(3) 0.685(6) 0.010(2)
C5 C -0.1564(2) 0.6451(6) 0.1409(2)
H4 H -0.190(3) 0.784(7) 0.164(2)
C6 C -0.1096(2) 0.5000(6) 0.2009(2)
H5 H -0.108(3) 0.524(7) 0.256(2)
Cl1B Cl 0.14560(6) 0.06562(14) 0.16045(5)
C1B C 0.06390(19) 0.3001(5) 0.33067(19)
C2B C 0.0671(2) 0.2388(6) 0.4197(2)
H1B H 0.036(3) 0.096(6) 0.441(2)
C3B C 0.1145(2) 0.3880(6) 0.4791(2)
H2B H 0.122(3) 0.342(7) 0.539(3)
C4B C 0.1579(2) 0.5908(6) 0.4491(2)
H3B H 0.189(3) 0.685(6) 0.490(2)
C5B C 0.1564(2) 0.6451(6) 0.3591(2)
H4B H 0.190(3) 0.784(7) 0.336(2)
C6B C 0.1096(2) 0.5000(6) 0.2991(2)
H5B H 0.108(3) 0.524(7) 0.244(2)
#END
