####################################################################### 
# 
# This file contains crystal structure data downloaded from the 
# Cambridge Structural Database (CSD) hosted by the Cambridge 
# Crystallographic Data Centre (CCDC).
# 
# Full information about CCDC data access policies and citation 
# guidelines are available at http://www.ccdc.cam.ac.uk/access/V1 
# 
# Audit and citation data items may have been added by the CCDC. 
# Please retain this information to preserve the provenance of 
# this file and to allow appropriate attribution of the data. 
# 
#######################################################################

data_compound_4
_audit_block_doi                 10.5517/cc8zj4w

_database_code_depnum_ccdc_archive 'CCDC 267658'
loop_
_citation_id
_citation_doi
_citation_year
1 10.1016/j.poly.2006.09.008 2007
_audit_update_record             
;
2005-04-01 deposited with the CCDC.	2024-07-12 downloaded from the CCDC.
;


_audit_creation_method           SHELXL-97
_chemical_name_systematic        
;
?
;
_chemical_name_common            ?
_chemical_melting_point          ?
_chemical_formula_moiety         ?
_chemical_formula_sum            'C7 H12 Co0.50 N3 O5 S'
_chemical_formula_weight         279.72

loop_
_atom_type_symbol
_atom_type_description
_atom_type_scat_dispersion_real
_atom_type_scat_dispersion_imag
_atom_type_scat_source
C C 0.0033 0.0016 'International Tables Vol C Tables 4.2.6.8 and 6.1.1.4'
H H 0.0000 0.0000 'International Tables Vol C Tables 4.2.6.8 and 6.1.1.4'
N N 0.0061 0.0033 'International Tables Vol C Tables 4.2.6.8 and 6.1.1.4'
O O 0.0106 0.0060 'International Tables Vol C Tables 4.2.6.8 and 6.1.1.4'
S S 0.1246 0.1234 'International Tables Vol C Tables 4.2.6.8 and 6.1.1.4'
Co Co 0.3494 0.9721 'International Tables Vol C Tables 4.2.6.8 and 6.1.1.4'

_symmetry_cell_setting           monoclinic
_symmetry_space_group_name_H-M   P2(1)/n

loop_
_symmetry_equiv_pos_as_xyz
'x, y, z'
'-x+1/2, y+1/2, -z+1/2'
'-x, -y, -z'
'x-1/2, -y-1/2, z-1/2'

_cell_length_a                   9.0082(10)
_cell_length_b                   12.6973(14)
_cell_length_c                   11.2557(13)
_cell_angle_alpha                90.00
_cell_angle_beta                 103.031(2)
_cell_angle_gamma                90.00
_cell_volume                     1254.3(2)
_cell_formula_units_Z            4
_cell_measurement_temperature    293(2)
_cell_measurement_reflns_used    ?
_cell_measurement_theta_min      ?
_cell_measurement_theta_max      ?

_exptl_crystal_description       ?
_exptl_crystal_colour            ?
_exptl_crystal_size_max          0.43
_exptl_crystal_size_mid          0.25
_exptl_crystal_size_min          0.24
_exptl_crystal_density_meas      ?
_exptl_crystal_density_diffrn    1.481
_exptl_crystal_density_method    'not measured'
_exptl_crystal_F_000             578
_exptl_absorpt_coefficient_mu    0.908
_exptl_absorpt_correction_type   ?
_exptl_absorpt_correction_T_min  0.6946
_exptl_absorpt_correction_T_max  0.8102
_exptl_absorpt_process_details   ?

_exptl_special_details           
;
?
;

_diffrn_ambient_temperature      293(2)
_diffrn_radiation_wavelength     0.71073
_diffrn_radiation_type           MoK\a
_diffrn_radiation_source         'fine-focus sealed tube'
_diffrn_radiation_monochromator  graphite
_diffrn_measurement_device_type  ?
_diffrn_measurement_method       ?
_diffrn_detector_area_resol_mean ?
_diffrn_standards_number         ?
_diffrn_standards_interval_count ?
_diffrn_standards_interval_time  ?
_diffrn_standards_decay_%        ?
_diffrn_reflns_number            7293
_diffrn_reflns_av_R_equivalents  0.0163
_diffrn_reflns_av_sigmaI/netI    0.0228
_diffrn_reflns_limit_h_min       -11
_diffrn_reflns_limit_h_max       9
_diffrn_reflns_limit_k_min       -9
_diffrn_reflns_limit_k_max       16
_diffrn_reflns_limit_l_min       -14
_diffrn_reflns_limit_l_max       13
_diffrn_reflns_theta_min         2.45
_diffrn_reflns_theta_max         28.25
_reflns_number_total             2889
_reflns_number_gt                2518
_reflns_threshold_expression     >2sigma(I)

_computing_data_collection       ?
_computing_cell_refinement       ?
_computing_data_reduction        ?
_computing_structure_solution    'SHELXS-97 (Sheldrick, 1990)'
_computing_structure_refinement  'SHELXL-97 (Sheldrick, 1997)'
_computing_molecular_graphics    ?
_computing_publication_material  ?

_refine_special_details          
;
Refinement of F^2^ against ALL reflections. The weighted R-factor wR and
goodness of fit S are based on F^2^, conventional R-factors R are based
on F, with F set to zero for negative F^2^. The threshold expression of
F^2^ > 2sigma(F^2^) is used only for calculating R-factors(gt) etc. and is
not relevant to the choice of reflections for refinement. R-factors based
on F^2^ are statistically about twice as large as those based on F, and R-
factors based on ALL data will be even larger.
;

_refine_ls_structure_factor_coef Fsqd
_refine_ls_matrix_type           full
_refine_ls_weighting_scheme      calc
_refine_ls_weighting_details     
'calc w=1/[\s^2^(Fo^2^)+(0.2000P)^2^+0.0000P] where P=(Fo^2^+2Fc^2^)/3'
_atom_sites_solution_primary     direct
_atom_sites_solution_secondary   difmap
_atom_sites_solution_hydrogens   geom
_refine_ls_hydrogen_treatment    mixed
_refine_ls_extinction_method     none
_refine_ls_extinction_coef       ?
_refine_ls_number_reflns         2889
_refine_ls_number_parameters     151
_refine_ls_number_restraints     0
_refine_ls_R_factor_all          0.0724
_refine_ls_R_factor_gt           0.0663
_refine_ls_wR_factor_ref         0.2410
_refine_ls_wR_factor_gt          0.2308
_refine_ls_goodness_of_fit_ref   1.077
_refine_ls_restrained_S_all      1.077
_refine_ls_shift/su_max          0.703
_refine_ls_shift/su_mean         0.055

loop_
_atom_site_label
_atom_site_type_symbol
_atom_site_fract_x
_atom_site_fract_y
_atom_site_fract_z
_atom_site_U_iso_or_equiv
_atom_site_adp_type
_atom_site_occupancy
_atom_site_symmetry_multiplicity
_atom_site_calc_flag
_atom_site_refinement_flags
_atom_site_disorder_assembly
_atom_site_disorder_group
Co1 Co 0.0000 1.0000 0.5000 0.0240(3) Uani 1 2 d S . .
S1 S 0.43082(10) 1.02842(10) 0.68464(8) 0.0421(3) Uani 1 1 d . . .
O1 O 0.4283(2) 1.15422(19) 0.4948(2) 0.0337(5) Uani 1 1 d . . .
O1W O 0.1238(3) 0.9022(2) 0.6376(2) 0.0448(7) Uani 1 1 d . . .
H1WA H 0.2192 0.9109 0.6629 0.054 Uiso 1 1 d R . .
H1WB H 0.0785 0.8537 0.6678 0.054 Uiso 1 1 d R . .
O2W O 0.076(3) 0.6935(12) 0.586(2) 0.411(12) Uani 1 1 d . . .
H2WA H 0.0919 0.6721 0.6591 0.493 Uiso 1 1 d R . .
H2WB H 0.0416 0.6512 0.5275 0.493 Uiso 1 1 d R . .
O3W O 0.004(4) 1.0739(14) 0.0961(8) 0.64(3) Uani 1 1 d . . .
H3WA H -0.0144 1.0130 0.0648 0.769 Uiso 1 1 d R . .
H3WB H 0.0182 1.1255 0.0519 0.769 Uiso 1 1 d R . .
O4W O 0.277(4) 1.431(2) 0.5346(14) 0.66(2) Uani 1 1 d . . .
H4WA H 0.3096 1.4601 0.6034 0.792 Uiso 1 1 d R . .
H4WB H 0.2683 1.4660 0.4693 0.792 Uiso 1 1 d R . .
N1 N 0.2042(3) 1.0857(2) 0.4912(2) 0.0291(6) Uani 1 1 d . . .
N2 N 0.1935(3) 1.1479(2) 0.3867(3) 0.0336(6) Uani 1 1 d . . .
N3 N 0.4492(3) 1.3906(2) 0.1343(2) 0.0319(6) Uani 1 1 d . . .
C1 C 0.3462(3) 1.0895(2) 0.5539(3) 0.0284(7) Uani 1 1 d . . .
C2 C 0.3260(4) 1.1862(3) 0.3940(3) 0.0325(7) Uani 1 1 d . . .
C3 C 0.3720(4) 1.2552(3) 0.3044(3) 0.0316(7) Uani 1 1 d . . .
C4 C 0.2615(4) 1.2957(3) 0.2109(3) 0.0399(8) Uani 1 1 d . . .
H4A H 0.1597 1.2781 0.2037 0.048 Uiso 1 1 calc R . .
C5 C 0.3036(4) 1.3630(3) 0.1277(3) 0.0379(8) Uani 1 1 d . . .
H5A H 0.2282 1.3902 0.0648 0.046 Uiso 1 1 calc R . .
C6 C 0.5555(4) 1.3504(3) 0.2260(3) 0.0388(8) Uani 1 1 d . . .
H6A H 0.6568 1.3687 0.2315 0.047 Uiso 1 1 calc R . .
C7 C 0.5223(4) 1.2839(3) 0.3116(3) 0.0407(8) Uani 1 1 d . . .
H7A H 0.5995 1.2582 0.3741 0.049 Uiso 1 1 calc R . .

loop_
_atom_site_aniso_label
_atom_site_aniso_U_11
_atom_site_aniso_U_22
_atom_site_aniso_U_33
_atom_site_aniso_U_23
_atom_site_aniso_U_13
_atom_site_aniso_U_12
Co1 0.0211(4) 0.0253(4) 0.0272(4) 0.00022(18) 0.0088(3) -0.00082(18)
S1 0.0310(5) 0.0565(7) 0.0365(5) 0.0122(4) 0.0026(4) -0.0039(4)
O1 0.0248(11) 0.0408(13) 0.0362(12) 0.0050(10) 0.0086(9) -0.0066(9)
O1W 0.0316(12) 0.0480(15) 0.0525(15) 0.0166(12) 0.0044(11) -0.0018(11)
O2W 0.54(3) 0.246(15) 0.50(3) 0.206(18) 0.22(2) 0.12(2)
O3W 1.35(7) 0.324(17) 0.085(6) 0.082(8) -0.177(17) -0.53(3)
O4W 1.27(7) 0.44(3) 0.139(11) -0.213(15) -0.12(2) 0.30(4)
N1 0.0254(13) 0.0328(14) 0.0304(13) 0.0049(10) 0.0086(10) -0.0028(10)
N2 0.0277(14) 0.0353(15) 0.0381(15) 0.0088(12) 0.0082(11) -0.0030(11)
N3 0.0269(13) 0.0326(14) 0.0380(14) 0.0079(11) 0.0115(11) -0.0003(10)
C1 0.0274(15) 0.0295(16) 0.0305(15) -0.0010(12) 0.0114(12) -0.0058(11)
C2 0.0283(16) 0.0371(17) 0.0342(16) 0.0055(13) 0.0112(13) -0.0002(12)
C3 0.0312(16) 0.0300(16) 0.0366(16) 0.0053(12) 0.0136(12) -0.0033(12)
C4 0.0261(15) 0.0436(19) 0.052(2) 0.0131(16) 0.0131(14) -0.0058(13)
C5 0.0286(16) 0.045(2) 0.0391(18) 0.0136(15) 0.0059(13) -0.0013(14)
C6 0.0235(15) 0.047(2) 0.0474(19) 0.0121(16) 0.0111(13) -0.0056(14)
C7 0.0288(16) 0.051(2) 0.0414(18) 0.0152(16) 0.0064(13) -0.0006(15)

_geom_special_details            
;
All esds (except the esd in the dihedral angle between two l.s. planes)
are estimated using the full covariance matrix. The cell esds are taken
into account individually in the estimation of esds in distances, angles
and torsion angles; correlations between esds in cell parameters are only
used when they are defined by crystal symmetry. An approximate (isotropic)
treatment of cell esds is used for estimating esds involving l.s. planes.
;

loop_
_geom_bond_atom_site_label_1
_geom_bond_atom_site_label_2
_geom_bond_distance
_geom_bond_site_symmetry_2
_geom_bond_publ_flag
Co1 O1W 2.099(2) . ?
Co1 O1W 2.099(2) 3_576 ?
Co1 N1 2.159(2) 3_576 ?
Co1 N1 2.159(2) . ?
Co1 N3 2.176(3) 4_586 ?
Co1 N3 2.176(3) 2_545 ?
S1 C1 1.686(3) . ?
O1 C2 1.353(4) . ?
O1 C1 1.373(3) . ?
N1 C1 1.315(4) . ?
N1 N2 1.402(4) . ?
N2 C2 1.274(4) . ?
N3 C6 1.341(4) . ?
N3 C5 1.344(4) . ?
N3 Co1 2.176(3) 2 ?
C2 C3 1.465(4) . ?
C3 C4 1.375(5) . ?
C3 C7 1.387(5) . ?
C4 C5 1.382(5) . ?
C6 C7 1.364(5) . ?

loop_
_geom_angle_atom_site_label_1
_geom_angle_atom_site_label_2
_geom_angle_atom_site_label_3
_geom_angle
_geom_angle_site_symmetry_1
_geom_angle_site_symmetry_3
_geom_angle_publ_flag
O1W Co1 O1W 180.000(1) . 3_576 ?
O1W Co1 N1 89.09(10) . 3_576 ?
O1W Co1 N1 90.91(10) 3_576 3_576 ?
O1W Co1 N1 90.91(10) . . ?
O1W Co1 N1 89.09(10) 3_576 . ?
N1 Co1 N1 180.0 3_576 . ?
O1W Co1 N3 91.43(11) . 4_586 ?
O1W Co1 N3 88.57(11) 3_576 4_586 ?
N1 Co1 N3 88.57(10) 3_576 4_586 ?
N1 Co1 N3 91.43(10) . 4_586 ?
O1W Co1 N3 88.57(11) . 2_545 ?
O1W Co1 N3 91.43(11) 3_576 2_545 ?
N1 Co1 N3 91.43(10) 3_576 2_545 ?
N1 Co1 N3 88.57(10) . 2_545 ?
N3 Co1 N3 180.0 4_586 2_545 ?
C2 O1 C1 104.2(2) . . ?
C1 N1 N2 107.7(2) . . ?
C1 N1 Co1 136.9(2) . . ?
N2 N1 Co1 115.10(18) . . ?
C2 N2 N1 105.9(2) . . ?
C6 N3 C5 117.5(3) . . ?
C6 N3 Co1 123.5(2) . 2 ?
C5 N3 Co1 118.9(2) . 2 ?
N1 C1 O1 109.1(3) . . ?
N1 C1 S1 130.2(2) . . ?
O1 C1 S1 120.7(2) . . ?
N2 C2 O1 113.0(3) . . ?
N2 C2 C3 126.2(3) . . ?
O1 C2 C3 120.8(3) . . ?
C4 C3 C7 118.3(3) . . ?
C4 C3 C2 118.8(3) . . ?
C7 C3 C2 122.8(3) . . ?
C3 C4 C5 119.2(3) . . ?
N3 C5 C4 122.5(3) . . ?
N3 C6 C7 123.2(3) . . ?
C6 C7 C3 119.2(3) . . ?

_diffrn_measured_fraction_theta_max 0.934
_diffrn_reflns_theta_full        28.25
_diffrn_measured_fraction_theta_full 0.934
_refine_diff_density_max         1.176
_refine_diff_density_min         -0.779
_refine_diff_density_rms         0.164
