####################################################################### 
# 
# This file contains crystal structure data downloaded from the 
# Cambridge Structural Database (CSD) hosted by the Cambridge 
# Crystallographic Data Centre (CCDC).
# 
# Full information about CCDC data access policies and citation 
# guidelines are available at http://www.ccdc.cam.ac.uk/access/V1 
# 
# Audit and citation data items may have been added by the CCDC. 
# Please retain this information to preserve the provenance of 
# this file and to allow appropriate attribution of the data. 
# 
#######################################################################

data_final
_audit_block_doi                 10.5517/ccvzphz
_database_code_depnum_ccdc_archive 'CCDC 804062'
loop_
_citation_id
_citation_doi
_citation_year
1 10.1016/j.poly.2013.05.030 2013
_audit_update_record             
;
2010-12-08 deposited with the CCDC.	2024-07-12 downloaded from the CCDC.
;
#TrackingRef 'final-ccdc1.cif'


_audit_creation_method           SHELXL-97
_chemical_name_systematic        
;
?
;
_chemical_name_common            ?
_chemical_melting_point          ?
_chemical_formula_moiety         'C32 H16 O16 Zn3, 4(O)'
_chemical_formula_sum            'C32 H16 O20 Zn3'
_chemical_formula_weight         916.56

loop_
_atom_type_symbol
_atom_type_description
_atom_type_scat_dispersion_real
_atom_type_scat_dispersion_imag
_atom_type_scat_source
C C 0.0033 0.0016 'International Tables Vol C Tables 4.2.6.8 and 6.1.1.4'
H H 0.0000 0.0000 'International Tables Vol C Tables 4.2.6.8 and 6.1.1.4'
O O 0.0106 0.0060 'International Tables Vol C Tables 4.2.6.8 and 6.1.1.4'
Zn Zn 0.2839 1.4301 'International Tables Vol C Tables 4.2.6.8 and 6.1.1.4'

_symmetry_cell_setting           monoclinic
_symmetry_space_group_name_H-M   'C 2/c'
_symmetry_space_group_name_Hall  '-C 2yc'

loop_
_symmetry_equiv_pos_as_xyz
'x, y, z'
'-x, y, -z+1/2'
'x+1/2, y+1/2, z'
'-x+1/2, y+1/2, -z+1/2'
'-x, -y, -z'
'x, -y, z-1/2'
'-x+1/2, -y+1/2, -z'
'x+1/2, -y+1/2, z-1/2'

_cell_length_a                   33.319(5)
_cell_length_b                   9.7669(15)
_cell_length_c                   18.226(3)
_cell_angle_alpha                90.00
_cell_angle_beta                 93.682(4)
_cell_angle_gamma                90.00
_cell_volume                     5918.9(16)
_cell_formula_units_Z            4
_cell_measurement_temperature    293(2)
_cell_measurement_reflns_used    3781
_cell_measurement_theta_min      2.43
_cell_measurement_theta_max      24.09

_exptl_crystal_description       block-shape
_exptl_crystal_colour            colorless
_exptl_crystal_size_max          0.79
_exptl_crystal_size_mid          0.65
_exptl_crystal_size_min          0.57
_exptl_crystal_density_meas      ?
_exptl_crystal_density_diffrn    1.029
_exptl_crystal_density_method    'not measured'
_exptl_crystal_F_000             1832
_exptl_absorpt_coefficient_mu    1.258
_exptl_absorpt_correction_type   multi-scan
_exptl_absorpt_correction_T_min  0.3650
_exptl_absorpt_correction_T_max  0.5235
_exptl_absorpt_process_details   '(SADABS; Bruker, 1997)'

_exptl_special_details           
;
?
;

_diffrn_ambient_temperature      296(2)
_diffrn_radiation_wavelength     0.71073
_diffrn_radiation_type           MoK\a
_diffrn_radiation_source         'fine-focus sealed tube'
_diffrn_radiation_monochromator  graphite
_diffrn_measurement_device_type  'Bruker APEX-II CCD'
_diffrn_measurement_method       '\f and \w scans'
_diffrn_detector_area_resol_mean ?
_diffrn_standards_number         0
_diffrn_standards_interval_count ?
_diffrn_standards_interval_time  ?
_diffrn_standards_decay_%        .
_diffrn_reflns_number            14245
_diffrn_reflns_av_R_equivalents  0.0495
_diffrn_reflns_av_sigmaI/netI    0.0782
_diffrn_reflns_limit_h_min       -40
_diffrn_reflns_limit_h_max       40
_diffrn_reflns_limit_k_min       -11
_diffrn_reflns_limit_k_max       11
_diffrn_reflns_limit_l_min       -22
_diffrn_reflns_limit_l_max       17
_diffrn_reflns_theta_min         3.42
_diffrn_reflns_theta_max         25.68
_reflns_number_total             5503
_reflns_number_gt                3650
_reflns_threshold_expression     I>2\s(I)

_computing_data_collection       'Bruker APEX2'
_computing_cell_refinement       'Bruker SAINT'
_computing_data_reduction        'Bruker SAINT'
_computing_structure_solution    'SHELXS-97 (Sheldrick, 2008)'
_computing_structure_refinement  'SHELXL-97 (Sheldrick, 2008)'
_computing_molecular_graphics    'Bruker SHELXTL'
_computing_publication_material  'Bruker SHELXTL'

_refine_special_details          
;
Refinement of F^2^ against ALL reflections. The weighted R-factor wR and
goodness of fit S are based on F^2^, conventional R-factors R are based
on F, with F set to zero for negative F^2^. The threshold expression of
F^2^ > 2sigma(F^2^) is used only for calculating R-factors(gt) etc. and is
not relevant to the choice of reflections for refinement. R-factors based
on F^2^ are statistically about twice as large as those based on F, and R-
factors based on ALL data will be even larger.
;

_refine_ls_structure_factor_coef Fsqd
_refine_ls_matrix_type           full
_refine_ls_weighting_scheme      calc
_refine_ls_weighting_details     
'calc w=1/[\s^2^(Fo^2^)+(0.0759P)^2^+0.0000P] where P=(Fo^2^+2Fc^2^)/3'
_atom_sites_solution_primary     direct
_atom_sites_solution_secondary   difmap
_atom_sites_solution_hydrogens   geom
_refine_ls_hydrogen_treatment    constr
_refine_ls_extinction_method     none
_refine_ls_extinction_coef       ?
_refine_ls_number_reflns         5503
_refine_ls_number_parameters     244
_refine_ls_number_restraints     12
_refine_ls_R_factor_all          0.0721
_refine_ls_R_factor_gt           0.0468
_refine_ls_wR_factor_ref         0.1373
_refine_ls_wR_factor_gt          0.1282
_refine_ls_goodness_of_fit_ref   0.934
_refine_ls_restrained_S_all      0.937
_refine_ls_shift/su_max          0.001
_refine_ls_shift/su_mean         0.000

loop_
_platon_squeeze_void_nr
_platon_squeeze_void_average_x
_platon_squeeze_void_average_y
_platon_squeeze_void_average_z
_platon_squeeze_void_volume
_platon_squeeze_void_count_electrons
_platon_squeeze_void_content
1 0.000 -0.003 -0.001 1310 460 ' '
2 0.500 0.035 0.271 1310 460 ' '
3 0.306 0.207 0.243 6 0 ' '
4 0.694 0.207 0.257 6 0 ' '
5 0.194 0.293 0.757 6 0 ' '
6 0.806 0.293 0.743 6 0 ' '
7 0.194 0.707 0.257 6 0 ' '
8 0.806 0.707 0.243 6 0 ' '
9 0.306 0.793 0.743 6 0 ' '
10 0.694 0.793 0.757 6 0 ' '
_platon_squeeze_details          
;
;

loop_
_atom_site_label
_atom_site_type_symbol
_atom_site_fract_x
_atom_site_fract_y
_atom_site_fract_z
_atom_site_U_iso_or_equiv
_atom_site_adp_type
_atom_site_occupancy
_atom_site_symmetry_multiplicity
_atom_site_calc_flag
_atom_site_refinement_flags
_atom_site_disorder_assembly
_atom_site_disorder_group
Zn2 Zn 0.152803(13) 0.30111(5) 0.48382(3) 0.03163(16) Uani 1 1 d . . .
Zn1 Zn 0.2500 0.2500 0.5000 0.02832(19) Uani 1 2 d S . .
O3 O 0.15951(9) 0.1814(3) 0.39955(17) 0.0471(8) Uani 1 1 d . . .
O4 O 0.22654(9) 0.1902(3) 0.39912(16) 0.0405(7) Uani 1 1 d . . .
O5 O 0.21599(9) -0.1164(3) 0.05517(16) 0.0394(7) Uani 1 1 d . . .
O2 O 0.17520(12) 0.5211(3) 0.4082(2) 0.0716(11) Uani 1 1 d . . .
O6 O 0.15413(9) -0.1872(3) 0.07402(18) 0.0469(8) Uani 1 1 d . . .
O1 O 0.20213(8) 0.4118(3) 0.50564(17) 0.0387(7) Uani 1 1 d . . .
O7 O 0.09636(9) 0.3492(4) 0.4630(2) 0.0613(10) Uani 1 1 d . . .
O8 O 0.10730(12) 0.4810(5) 0.5581(3) 0.0909(14) Uani 1 1 d . . .
C13 C 0.08450(16) 0.4311(6) 0.5096(3) 0.0606(15) Uani 1 1 d . . .
C3 C 0.22641(15) 0.7492(5) 0.4351(3) 0.0482(12) Uani 1 1 d . . .
H3 H 0.2106 0.7482 0.3911 0.058 Uiso 1 1 calc R . .
C2 C 0.22605(13) 0.6373(4) 0.4816(3) 0.0393(10) Uani 1 1 d . . .
C9 C 0.18696(13) -0.0481(4) 0.1639(2) 0.0394(10) Uani 1 1 d . . .
C7 C 0.22497(14) 0.0705(5) 0.2602(3) 0.0503(12) Uani 1 1 d . . .
H7 H 0.2493 0.1053 0.2798 0.060 Uiso 1 1 calc R . .
C6 C 0.19043(13) 0.0848(4) 0.2993(2) 0.0379(10) Uani 1 1 d . . .
C10 C 0.18579(12) -0.1222(4) 0.0921(2) 0.0340(9) Uani 1 1 d . . .
C4 C 0.25036(14) 0.6389(5) 0.5471(3) 0.0455(11) Uani 1 1 d . . .
H4 H 0.2507 0.5638 0.5785 0.055 Uiso 1 1 calc R . .
C11 C 0.15321(14) -0.0342(5) 0.2022(3) 0.0532(13) Uani 1 1 d . . .
H11 H 0.1289 -0.0701 0.1830 0.064 Uiso 1 1 calc R . .
C5 C 0.19262(13) 0.1571(4) 0.3721(2) 0.0378(10) Uani 1 1 d . . .
C8 C 0.22322(14) 0.0059(5) 0.1937(3) 0.0486(12) Uani 1 1 d . . .
H8 H 0.2463 -0.0021 0.1680 0.058 Uiso 1 1 calc R . .
C12 C 0.15490(14) 0.0326(5) 0.2692(3) 0.0550(13) Uani 1 1 d . . .
H12 H 0.1316 0.0424 0.2941 0.066 Uiso 1 1 calc R . .
C1 C 0.19967(14) 0.5165(4) 0.4619(3) 0.0433(11) Uani 1 1 d . . .
C14 C 0.04118(15) 0.4690(6) 0.5044(3) 0.0606(14) Uani 1 1 d . . .
C15 C 0.01492(18) 0.4083(8) 0.4518(4) 0.098(2) Uani 1 1 d . . .
H15 H 0.0248 0.3467 0.4184 0.117 Uiso 1 1 calc R . .
C16 C 0.02622(17) 0.5612(7) 0.5515(4) 0.094(2) Uani 1 1 d . . .
H16 H 0.0435 0.6044 0.5862 0.113 Uiso 1 1 calc R . .
O10 O 0.1370(4) 0.4959(15) 0.7100(5) 0.288(5) Uani 1 1 d U . .
O11 O 0.0856(4) 0.6452(14) 0.7977(5) 0.288(5) Uani 1 1 d U . .

loop_
_atom_site_aniso_label
_atom_site_aniso_U_11
_atom_site_aniso_U_22
_atom_site_aniso_U_33
_atom_site_aniso_U_23
_atom_site_aniso_U_13
_atom_site_aniso_U_12
Zn2 0.0268(3) 0.0370(3) 0.0313(3) -0.0011(2) 0.0037(2) 0.00538(19)
Zn1 0.0265(3) 0.0324(4) 0.0263(4) 0.0017(3) 0.0040(3) -0.0016(3)
O3 0.0370(17) 0.062(2) 0.0434(19) -0.0181(16) 0.0081(15) 0.0016(14)
O4 0.0388(17) 0.0532(18) 0.0291(17) -0.0059(14) -0.0010(14) 0.0021(14)
O5 0.0416(17) 0.0396(17) 0.0385(18) -0.0102(13) 0.0133(15) -0.0004(13)
O2 0.075(3) 0.047(2) 0.088(3) 0.011(2) -0.033(2) -0.0114(18)
O6 0.0390(17) 0.059(2) 0.0436(19) -0.0148(16) 0.0092(15) -0.0060(15)
O1 0.0373(16) 0.0271(15) 0.053(2) 0.0030(14) 0.0101(15) 0.0042(12)
O7 0.0354(18) 0.082(2) 0.067(3) 0.004(2) 0.0047(18) 0.0227(17)
O8 0.045(2) 0.129(4) 0.097(4) -0.022(3) -0.013(2) 0.023(2)
C13 0.039(3) 0.078(4) 0.066(4) 0.003(3) 0.006(3) 0.019(3)
C3 0.055(3) 0.037(2) 0.050(3) 0.005(2) -0.009(2) -0.001(2)
C2 0.042(2) 0.029(2) 0.048(3) 0.002(2) 0.006(2) 0.0049(18)
C9 0.040(2) 0.042(3) 0.036(3) -0.007(2) 0.006(2) 0.0027(19)
C7 0.037(3) 0.071(3) 0.044(3) -0.017(2) 0.004(2) -0.006(2)
C6 0.039(2) 0.043(2) 0.032(2) -0.0054(19) 0.004(2) 0.0021(19)
C10 0.035(2) 0.034(2) 0.033(2) -0.0046(18) 0.0038(19) 0.0027(18)
C4 0.054(3) 0.031(2) 0.051(3) 0.009(2) 0.000(2) 0.003(2)
C11 0.036(3) 0.072(3) 0.052(3) -0.030(3) 0.010(2) -0.007(2)
C5 0.041(3) 0.042(2) 0.031(2) -0.0004(19) 0.005(2) 0.0070(19)
C8 0.037(3) 0.069(3) 0.041(3) -0.022(2) 0.012(2) -0.001(2)
C12 0.036(3) 0.076(3) 0.054(3) -0.023(3) 0.014(2) -0.003(2)
C1 0.039(3) 0.036(3) 0.055(3) -0.003(2) 0.005(2) 0.0022(19)
C14 0.037(3) 0.080(4) 0.064(4) -0.013(3) 0.000(3) 0.018(3)
C15 0.056(4) 0.146(6) 0.091(5) -0.047(5) 0.000(4) 0.044(4)
C16 0.045(3) 0.120(5) 0.115(6) -0.050(5) -0.015(4) 0.030(3)
O10 0.281(8) 0.437(12) 0.144(5) -0.113(7) 0.011(5) -0.090(9)
O11 0.281(8) 0.437(12) 0.144(5) -0.113(7) 0.011(5) -0.090(9)

_geom_special_details            
;
All esds (except the esd in the dihedral angle between two l.s. planes)
are estimated using the full covariance matrix. The cell esds are taken
into account individually in the estimation of esds in distances, angles
and torsion angles; correlations between esds in cell parameters are only
used when they are defined by crystal symmetry. An approximate (isotropic)
treatment of cell esds is used for estimating esds involving l.s. planes.
;

loop_
_geom_bond_atom_site_label_1
_geom_bond_atom_site_label_2
_geom_bond_distance
_geom_bond_site_symmetry_2
_geom_bond_publ_flag
Zn2 O7 1.952(3) . ?
Zn2 O3 1.954(3) . ?
Zn2 O6 1.983(3) 6_556 ?
Zn2 O1 1.986(3) . ?
Zn1 O5 2.036(3) 6_556 ?
Zn1 O5 2.036(3) 4 ?
Zn1 O4 2.037(3) . ?
Zn1 O4 2.037(3) 7_556 ?
Zn1 O1 2.252(3) . ?
Zn1 O1 2.252(3) 7_556 ?
O3 C5 1.263(5) . ?
O4 C5 1.246(5) . ?
O5 C10 1.247(5) . ?
O5 Zn1 2.036(3) 4_545 ?
O2 C1 1.234(6) . ?
O6 C10 1.257(5) . ?
O6 Zn2 1.983(3) 6 ?
O1 C1 1.296(5) . ?
O7 C13 1.248(6) . ?
O8 C13 1.229(7) . ?
C13 C14 1.487(7) . ?
C3 C4 1.367(7) 7_566 ?
C3 C2 1.383(6) . ?
C3 H3 0.9300 . ?
C2 C4 1.399(6) . ?
C2 C1 1.502(6) . ?
C9 C11 1.368(6) . ?
C9 C8 1.396(6) . ?
C9 C10 1.494(6) . ?
C7 C8 1.365(6) . ?
C7 C6 1.398(6) . ?
C7 H7 0.9300 . ?
C6 C12 1.371(6) . ?
C6 C5 1.502(6) . ?
C4 C3 1.367(7) 7_566 ?
C4 H4 0.9300 . ?
C11 C12 1.382(7) . ?
C11 H11 0.9300 . ?
C8 H8 0.9300 . ?
C12 H12 0.9300 . ?
C14 C16 1.360(8) . ?
C14 C15 1.389(8) . ?
C15 C16 1.400(8) 5_566 ?
C15 H15 0.9300 . ?
C16 C15 1.400(8) 5_566 ?
C16 H16 0.9300 . ?

loop_
_geom_angle_atom_site_label_1
_geom_angle_atom_site_label_2
_geom_angle_atom_site_label_3
_geom_angle
_geom_angle_site_symmetry_1
_geom_angle_site_symmetry_3
_geom_angle_publ_flag
O7 Zn2 O3 98.56(15) . . ?
O7 Zn2 O6 105.41(14) . 6_556 ?
O3 Zn2 O6 108.57(14) . 6_556 ?
O7 Zn2 O1 133.04(14) . . ?
O3 Zn2 O1 110.36(12) . . ?
O6 Zn2 O1 99.52(13) 6_556 . ?
O5 Zn1 O5 180.00(13) 6_556 4 ?
O5 Zn1 O4 93.94(12) 6_556 . ?
O5 Zn1 O4 86.06(12) 4 . ?
O5 Zn1 O4 86.06(12) 6_556 7_556 ?
O5 Zn1 O4 93.94(12) 4 7_556 ?
O4 Zn1 O4 180.000(1) . 7_556 ?
O5 Zn1 O1 90.52(11) 6_556 . ?
O5 Zn1 O1 89.48(11) 4 . ?
O4 Zn1 O1 90.60(11) . . ?
O4 Zn1 O1 89.40(11) 7_556 . ?
O5 Zn1 O1 89.48(11) 6_556 7_556 ?
O5 Zn1 O1 90.52(11) 4 7_556 ?
O4 Zn1 O1 89.40(11) . 7_556 ?
O4 Zn1 O1 90.60(11) 7_556 7_556 ?
O1 Zn1 O1 180.00(16) . 7_556 ?
C5 O3 Zn2 124.8(3) . . ?
C5 O4 Zn1 135.8(3) . . ?
C10 O5 Zn1 137.0(3) . 4_545 ?
C10 O6 Zn2 118.3(3) . 6 ?
C1 O1 Zn2 106.7(3) . . ?
C1 O1 Zn1 122.8(3) . . ?
Zn2 O1 Zn1 100.85(11) . . ?
C13 O7 Zn2 111.4(4) . . ?
O8 C13 O7 122.4(5) . . ?
O8 C13 C14 119.9(5) . . ?
O7 C13 C14 117.7(5) . . ?
C4 C3 C2 120.8(5) 7_566 . ?
C4 C3 H3 119.6 7_566 . ?
C2 C3 H3 119.6 . . ?
C3 C2 C4 119.2(4) . . ?
C3 C2 C1 120.1(4) . . ?
C4 C2 C1 120.7(4) . . ?
C11 C9 C8 118.9(4) . . ?
C11 C9 C10 121.3(4) . . ?
C8 C9 C10 119.8(4) . . ?
C8 C7 C6 120.6(4) . . ?
C8 C7 H7 119.7 . . ?
C6 C7 H7 119.7 . . ?
C12 C6 C7 118.5(4) . . ?
C12 C6 C5 121.4(4) . . ?
C7 C6 C5 120.1(4) . . ?
O5 C10 O6 125.1(4) . . ?
O5 C10 C9 118.3(4) . . ?
O6 C10 C9 116.6(4) . . ?
C3 C4 C2 120.0(4) 7_566 . ?
C3 C4 H4 120.0 7_566 . ?
C2 C4 H4 120.0 . . ?
C9 C11 C12 120.6(4) . . ?
C9 C11 H11 119.7 . . ?
C12 C11 H11 119.7 . . ?
O4 C5 O3 126.0(4) . . ?
O4 C5 C6 117.6(4) . . ?
O3 C5 C6 116.4(4) . . ?
C7 C8 C9 120.4(4) . . ?
C7 C8 H8 119.8 . . ?
C9 C8 H8 119.8 . . ?
C6 C12 C11 120.9(4) . . ?
C6 C12 H12 119.5 . . ?
C11 C12 H12 119.5 . . ?
O2 C1 O1 122.0(4) . . ?
O2 C1 C2 120.5(4) . . ?
O1 C1 C2 117.4(4) . . ?
C16 C14 C15 118.5(5) . . ?
C16 C14 C13 121.2(5) . . ?
C15 C14 C13 120.2(5) . . ?
C14 C15 C16 120.7(6) . 5_566 ?
C14 C15 H15 119.7 . . ?
C16 C15 H15 119.7 5_566 . ?
C14 C16 C15 120.8(6) . 5_566 ?
C14 C16 H16 119.6 . . ?
C15 C16 H16 119.6 5_566 . ?

loop_
_geom_torsion_atom_site_label_1
_geom_torsion_atom_site_label_2
_geom_torsion_atom_site_label_3
_geom_torsion_atom_site_label_4
_geom_torsion
_geom_torsion_site_symmetry_1
_geom_torsion_site_symmetry_2
_geom_torsion_site_symmetry_3
_geom_torsion_site_symmetry_4
_geom_torsion_publ_flag
O7 Zn2 O3 C5 155.5(4) . . . . ?
O6 Zn2 O3 C5 -95.0(4) 6_556 . . . ?
O1 Zn2 O3 C5 13.1(4) . . . . ?
O5 Zn1 O4 C5 39.1(4) 6_556 . . . ?
O5 Zn1 O4 C5 -140.9(4) 4 . . . ?
O1 Zn1 O4 C5 -51.5(4) . . . . ?
O1 Zn1 O4 C5 128.5(4) 7_556 . . . ?
O7 Zn2 O1 C1 -41.1(3) . . . . ?
O3 Zn2 O1 C1 83.2(3) . . . . ?
O6 Zn2 O1 C1 -162.8(3) 6_556 . . . ?
O7 Zn2 O1 Zn1 -170.45(15) . . . . ?
O3 Zn2 O1 Zn1 -46.13(16) . . . . ?
O6 Zn2 O1 Zn1 67.86(14) 6_556 . . . ?
O5 Zn1 O1 C1 -160.0(3) 6_556 . . . ?
O5 Zn1 O1 C1 20.0(3) 4 . . . ?
O4 Zn1 O1 C1 -66.1(3) . . . . ?
O4 Zn1 O1 C1 113.9(3) 7_556 . . . ?
O5 Zn1 O1 Zn2 -41.86(14) 6_556 . . . ?
O5 Zn1 O1 Zn2 138.14(14) 4 . . . ?
O4 Zn1 O1 Zn2 52.08(14) . . . . ?
O4 Zn1 O1 Zn2 -127.92(14) 7_556 . . . ?
O3 Zn2 O7 C13 -178.1(4) . . . . ?
O6 Zn2 O7 C13 69.8(4) 6_556 . . . ?
O1 Zn2 O7 C13 -49.7(4) . . . . ?
Zn2 O7 C13 O8 5.3(7) . . . . ?
Zn2 O7 C13 C14 -175.4(4) . . . . ?
C4 C3 C2 C4 -1.0(8) 7_566 . . . ?
C4 C3 C2 C1 178.7(4) 7_566 . . . ?
C8 C7 C6 C12 -0.1(8) . . . . ?
C8 C7 C6 C5 -179.4(4) . . . . ?
Zn1 O5 C10 O6 -45.9(7) 4_545 . . . ?
Zn1 O5 C10 C9 133.4(4) 4_545 . . . ?
Zn2 O6 C10 O5 4.8(6) 6 . . . ?
Zn2 O6 C10 C9 -174.5(3) 6 . . . ?
C11 C9 C10 O5 170.8(4) . . . . ?
C8 C9 C10 O5 -10.6(6) . . . . ?
C11 C9 C10 O6 -9.8(6) . . . . ?
C8 C9 C10 O6 168.8(4) . . . . ?
C3 C2 C4 C3 1.0(8) . . . 7_566 ?
C1 C2 C4 C3 -178.7(4) . . . 7_566 ?
C8 C9 C11 C12 0.3(8) . . . . ?
C10 C9 C11 C12 178.9(5) . . . . ?
Zn1 O4 C5 O3 17.3(7) . . . . ?
Zn1 O4 C5 C6 -164.4(3) . . . . ?
Zn2 O3 C5 O4 9.7(7) . . . . ?
Zn2 O3 C5 C6 -168.6(3) . . . . ?
C12 C6 C5 O4 173.4(4) . . . . ?
C7 C6 C5 O4 -7.2(6) . . . . ?
C12 C6 C5 O3 -8.1(7) . . . . ?
C7 C6 C5 O3 171.2(4) . . . . ?
C6 C7 C8 C9 -0.6(8) . . . . ?
C11 C9 C8 C7 0.5(7) . . . . ?
C10 C9 C8 C7 -178.1(4) . . . . ?
C7 C6 C12 C11 0.9(8) . . . . ?
C5 C6 C12 C11 -179.8(5) . . . . ?
C9 C11 C12 C6 -1.0(8) . . . . ?
Zn2 O1 C1 O2 -14.3(5) . . . . ?
Zn1 O1 C1 O2 101.0(5) . . . . ?
Zn2 O1 C1 C2 161.8(3) . . . . ?
Zn1 O1 C1 C2 -82.9(4) . . . . ?
C3 C2 C1 O2 -7.3(7) . . . . ?
C4 C2 C1 O2 172.4(5) . . . . ?
C3 C2 C1 O1 176.5(4) . . . . ?
C4 C2 C1 O1 -3.8(6) . . . . ?
O8 C13 C14 C16 1.7(10) . . . . ?
O7 C13 C14 C16 -177.7(6) . . . . ?
O8 C13 C14 C15 -177.1(7) . . . . ?
O7 C13 C14 C15 3.5(9) . . . . ?
C16 C14 C15 C16 -1.6(13) . . . 5_566 ?
C13 C14 C15 C16 177.2(7) . . . 5_566 ?
C15 C14 C16 C15 1.6(13) . . . 5_566 ?
C13 C14 C16 C15 -177.2(7) . . . 5_566 ?

_diffrn_measured_fraction_theta_max 0.981
_diffrn_reflns_theta_full        25.68
_diffrn_measured_fraction_theta_full 0.981
_refine_diff_density_max         0.987
_refine_diff_density_min         -0.598
_refine_diff_density_rms         0.093

loop_
_vrf_PLAT306_final
;
PROBLEM: Isolated Oxygen Atom (H-atoms Missing ?) ....... O10
RESPONSE: difficulat to locate hydrogen of water solvent from
electron desity map
;
PROBLEM:
Isolated
Oxygen
Atom
(H-atoms
Missing
?)
.......
O11
RESPONSE:
difficulat
to
locate
hydrogen
of
water
solvent
from
electron
desity
map

