####################################################################### 
# 
# This file contains crystal structure data downloaded from the 
# Cambridge Structural Database (CSD) hosted by the Cambridge 
# Crystallographic Data Centre (CCDC).
# 
# Full information about CCDC data access policies and citation 
# guidelines are available at http://www.ccdc.cam.ac.uk/access/V1 
# 
# Audit and citation data items may have been added by the CCDC. 
# Please retain this information to preserve the provenance of 
# this file and to allow appropriate attribution of the data. 
# 
#######################################################################

data_[Zn3(NTB)2]n#(1')
_audit_block_doi                 10.5517/ccnktww
_database_code_depnum_ccdc_archive 'CCDC 612959'
loop_
_citation_id
_citation_doi
_citation_year
1 10.1002/chem.200601534 2007
_audit_update_record             
;
2006-06-30 deposited with the CCDC.	2024-07-12 downloaded from the CCDC.
;

_audit_creation_method           SHELXL-97
_chemical_name_systematic        ?
_chemical_name_common            ?
_chemical_melting_point          ?
_chemical_formula_moiety         ?
_chemical_formula_sum            'C42 H24 N2 O12 Zn3'
_chemical_formula_weight         944.74

loop_
_atom_type_symbol
_atom_type_description
_atom_type_scat_dispersion_real
_atom_type_scat_dispersion_imag
_atom_type_scat_source
C C 0.0033 0.0016 'International Tables Vol C Tables 4.2.6.8 and 6.1.1.4'
H H 0.0000 0.0000 'International Tables Vol C Tables 4.2.6.8 and 6.1.1.4'
N N 0.0061 0.0033 'International Tables Vol C Tables 4.2.6.8 and 6.1.1.4'
O O 0.0106 0.0060 'International Tables Vol C Tables 4.2.6.8 and 6.1.1.4'
Zn Zn 0.2839 1.4301 'International Tables Vol C Tables 4.2.6.8 and 6.1.1.4'

_symmetry_cell_setting           monoclinic
_symmetry_space_group_name_H-M   C2/c

loop_
_symmetry_equiv_pos_as_xyz
'x, y, z'
'-x, y, -z+1/2'
'x+1/2, y+1/2, z'
'-x+1/2, y+1/2, -z+1/2'
'-x, -y, -z'
'x, -y, z-1/2'
'-x+1/2, -y+1/2, -z'
'x+1/2, -y+1/2, z-1/2'

_cell_length_a                   15.631(4)
_cell_length_b                   24.948(6)
_cell_length_c                   16.800(4)
_cell_angle_alpha                90.00
_cell_angle_beta                 113.875(4)
_cell_angle_gamma                90.00
_cell_volume                     5991(2)
_cell_formula_units_Z            4
_cell_measurement_temperature    293(2)
_cell_measurement_reflns_used    ?
_cell_measurement_theta_min      ?
_cell_measurement_theta_max      ?

_exptl_crystal_description       rod-shape
_exptl_crystal_colour            brown
_exptl_crystal_size_max          ?
_exptl_crystal_size_mid          ?
_exptl_crystal_size_min          ?
_exptl_crystal_density_meas      ?
_exptl_crystal_density_diffrn    1.048
_exptl_crystal_density_method    'not measured'
_exptl_crystal_F_000             1904
_exptl_absorpt_coefficient_mu    1.236
_exptl_absorpt_correction_type   ?
_exptl_absorpt_correction_T_min  ?
_exptl_absorpt_correction_T_max  ?
_exptl_absorpt_process_details   ?

_exptl_special_details           
;
?
;

_diffrn_ambient_temperature      293(2)
_diffrn_radiation_wavelength     0.71073
_diffrn_radiation_type           MoK\a
_diffrn_radiation_source         'fine-focus sealed tube'
_diffrn_radiation_monochromator  graphite
_diffrn_measurement_device_type  ?
_diffrn_measurement_method       ?
_diffrn_detector_area_resol_mean ?
_diffrn_standards_number         ?
_diffrn_standards_interval_count ?
_diffrn_standards_interval_time  ?
_diffrn_standards_decay_%        ?
_diffrn_reflns_number            18648
_diffrn_reflns_av_R_equivalents  0.0675
_diffrn_reflns_av_sigmaI/netI    0.1273
_diffrn_reflns_limit_h_min       -20
_diffrn_reflns_limit_h_max       20
_diffrn_reflns_limit_k_min       -32
_diffrn_reflns_limit_k_max       27
_diffrn_reflns_limit_l_min       -15
_diffrn_reflns_limit_l_max       22
_diffrn_reflns_theta_min         1.64
_diffrn_reflns_theta_max         28.26
_reflns_number_total             7001
_reflns_number_gt                2878
_reflns_threshold_expression     >2sigma(I)

_computing_data_collection       ?
_computing_cell_refinement       ?
_computing_data_reduction        ?
_computing_structure_solution    ?
_computing_structure_refinement  'SHELXL-97 (Sheldrick, 1997)'
_computing_molecular_graphics    ?
_computing_publication_material  ?

_refine_special_details          
;
Refinement of F^2^ against ALL reflections. The weighted R-factor wR and
goodness of fit S are based on F^2^, conventional R-factors R are based
on F, with F set to zero for negative F^2^. The threshold expression of
F^2^ > 2sigma(F^2^) is used only for calculating R-factors(gt) etc. and is
not relevant to the choice of reflections for refinement. R-factors based
on F^2^ are statistically about twice as large as those based on F, and R-
factors based on ALL data will be even larger.
;

_refine_ls_structure_factor_coef Fsqd
_refine_ls_matrix_type           full
_refine_ls_weighting_scheme      calc
_refine_ls_weighting_details     
'calc w=1/[\s^2^(Fo^2^)+(0.0381P)^2^+0.0000P] where P=(Fo^2^+2Fc^2^)/3'
_atom_sites_solution_primary     direct
_atom_sites_solution_secondary   difmap
_atom_sites_solution_hydrogens   geom
_refine_ls_hydrogen_treatment    mixed
_refine_ls_extinction_method     none
_refine_ls_extinction_coef       ?
_refine_ls_number_reflns         7001
_refine_ls_number_parameters     267
_refine_ls_number_restraints     0
_refine_ls_R_factor_all          0.1085
_refine_ls_R_factor_gt           0.0404
_refine_ls_wR_factor_ref         0.0952
_refine_ls_wR_factor_gt          0.0877
_refine_ls_goodness_of_fit_ref   0.753
_refine_ls_restrained_S_all      0.753
_refine_ls_shift/su_max          0.009
_refine_ls_shift/su_mean         0.001

loop_
_atom_site_label
_atom_site_type_symbol
_atom_site_fract_x
_atom_site_fract_y
_atom_site_fract_z
_atom_site_U_iso_or_equiv
_atom_site_adp_type
_atom_site_occupancy
_atom_site_symmetry_multiplicity
_atom_site_calc_flag
_atom_site_refinement_flags
_atom_site_disorder_assembly
_atom_site_disorder_group
Zn1 Zn -0.22530(3) 0.300556(13) 0.08173(3) 0.06459(16) Uani 1 1 d . . .
Zn2 Zn 0.0000 0.328635(18) 0.2500 0.05975(19) Uani 1 2 d S . .
O1 O -0.07297(16) 0.38091(8) 0.16330(17) 0.0845(8) Uani 1 1 d . . .
O2 O -0.22856(16) 0.37619(8) 0.10867(18) 0.0866(8) Uani 1 1 d . . .
C1 C -0.1531(3) 0.40212(12) 0.1333(2) 0.0682(10) Uani 1 1 d . . .
C2 C -0.1574(2) 0.46147(11) 0.1253(2) 0.0602(9) Uani 1 1 d . . .
C3 C -0.0762(2) 0.48984(11) 0.1452(2) 0.0676(10) Uani 1 1 d . . .
H3 H -0.0195 0.4717 0.1630 0.081 Uiso 1 1 calc R . .
C4 C -0.0779(2) 0.54510(12) 0.1390(2) 0.0663(10) Uani 1 1 d . . .
H4 H -0.0222 0.5637 0.1529 0.080 Uiso 1 1 calc R . .
C5 C -0.1605(2) 0.57287(11) 0.1126(2) 0.0585(9) Uani 1 1 d . . .
C6 C -0.2425(2) 0.54455(12) 0.0925(2) 0.0772(11) Uani 1 1 d . . .
H6 H -0.2993 0.5626 0.0741 0.093 Uiso 1 1 calc R . .
C7 C -0.2402(2) 0.48890(12) 0.0998(2) 0.0794(12) Uani 1 1 d . . .
H7 H -0.2955 0.4701 0.0872 0.095 Uiso 1 1 calc R . .
O3 O -0.43205(16) 0.78988(8) 0.19205(16) 0.0747(7) Uani 1 1 d . . .
O4 O -0.35352(16) 0.75533(8) 0.32257(17) 0.0740(7) Uani 1 1 d . . .
C8 C -0.3720(2) 0.75838(12) 0.2431(3) 0.0596(10) Uani 1 1 d . . .
C9 C -0.3214(2) 0.72287(12) 0.2043(2) 0.0551(9) Uani 1 1 d . . .
C10 C -0.3270(2) 0.73171(12) 0.1214(2) 0.0669(10) Uani 1 1 d . . .
H10 H -0.3650 0.7590 0.0878 0.080 Uiso 1 1 calc R . .
C11 C -0.2762(2) 0.70012(12) 0.0875(2) 0.0661(10) Uani 1 1 d . . .
H11 H -0.2806 0.7063 0.0314 0.079 Uiso 1 1 calc R . .
C12 C -0.2200(2) 0.66004(11) 0.1369(2) 0.0561(9) Uani 1 1 d . . .
C13 C -0.2161(2) 0.65006(11) 0.2186(2) 0.0659(10) Uani 1 1 d . . .
H13 H -0.1798 0.6219 0.2515 0.079 Uiso 1 1 calc R . .
C14 C -0.2662(2) 0.68190(12) 0.2523(2) 0.0670(10) Uani 1 1 d . . .
H14 H -0.2623 0.6753 0.3082 0.080 Uiso 1 1 calc R . .
O5 O 0.17004(15) 0.69861(8) 0.00189(15) 0.0788(7) Uani 1 1 d . . .
O6 O 0.14952(15) 0.77529(9) 0.05722(17) 0.0850(8) Uani 1 1 d . . .
C15 C 0.1273(2) 0.72864(14) 0.0340(2) 0.0670(10) Uani 1 1 d . . .
C16 C 0.0465(2) 0.70448(12) 0.0478(2) 0.0587(9) Uani 1 1 d . . .
C17 C 0.0065(2) 0.65738(12) 0.0076(2) 0.0630(9) Uani 1 1 d . . .
H17 H 0.0278 0.6411 -0.0307 0.076 Uiso 1 1 calc R . .
C18 C -0.0650(2) 0.63386(11) 0.0233(2) 0.0647(10) Uani 1 1 d . . .
H18 H -0.0933 0.6028 -0.0064 0.078 Uiso 1 1 calc R . .
C19 C -0.0951(2) 0.65632(11) 0.0834(2) 0.0573(9) Uani 1 1 d . . .
C20 C -0.0564(2) 0.70410(11) 0.1224(2) 0.0661(10) Uani 1 1 d . . .
H20 H -0.0768 0.7202 0.1615 0.079 Uiso 1 1 calc R . .
C21 C 0.0131(2) 0.72830(11) 0.1034(2) 0.0673(10) Uani 1 1 d . . .
H21 H 0.0375 0.7611 0.1287 0.081 Uiso 1 1 calc R . .
N1 N -0.16368(17) 0.62959(9) 0.10394(18) 0.0651(8) Uani 1 1 d . . .

loop_
_atom_site_aniso_label
_atom_site_aniso_U_11
_atom_site_aniso_U_22
_atom_site_aniso_U_33
_atom_site_aniso_U_23
_atom_site_aniso_U_13
_atom_site_aniso_U_12
Zn1 0.0726(3) 0.0399(2) 0.1105(4) -0.0042(2) 0.0672(3) -0.00900(19)
Zn2 0.0657(4) 0.0354(3) 0.1052(5) 0.000 0.0626(4) 0.000
O1 0.0918(17) 0.0483(13) 0.147(2) 0.0262(14) 0.0827(18) 0.0229(13)
O2 0.0917(18) 0.0393(13) 0.168(3) -0.0047(14) 0.0934(18) -0.0050(12)
C1 0.085(3) 0.045(2) 0.107(3) 0.002(2) 0.073(3) 0.006(2)
C2 0.064(2) 0.0344(17) 0.102(3) -0.0015(18) 0.054(2) 0.0018(17)
C3 0.063(2) 0.042(2) 0.116(3) 0.0083(19) 0.055(2) 0.0078(17)
C4 0.056(2) 0.049(2) 0.109(3) 0.006(2) 0.049(2) -0.0009(17)
C5 0.063(2) 0.0377(18) 0.098(3) 0.0003(18) 0.058(2) 0.0016(17)
C6 0.060(2) 0.0418(19) 0.150(4) -0.003(2) 0.063(2) 0.0038(17)
C7 0.067(2) 0.044(2) 0.149(4) 0.002(2) 0.066(2) -0.0045(18)
O3 0.0861(17) 0.0574(15) 0.115(2) 0.0028(14) 0.0763(16) 0.0164(13)
O4 0.1024(18) 0.0614(15) 0.0891(19) -0.0035(14) 0.0707(17) -0.0017(13)
C8 0.067(2) 0.0341(18) 0.099(3) -0.001(2) 0.056(3) -0.0020(17)
C9 0.060(2) 0.0421(18) 0.083(3) 0.0005(19) 0.050(2) 0.0032(16)
C10 0.073(2) 0.053(2) 0.096(3) 0.012(2) 0.055(2) 0.0191(17)
C11 0.083(2) 0.052(2) 0.091(3) 0.012(2) 0.063(2) 0.0166(19)
C12 0.061(2) 0.0343(18) 0.099(3) -0.0003(18) 0.059(2) 0.0003(15)
C13 0.073(2) 0.0418(19) 0.097(3) 0.009(2) 0.050(2) 0.0134(17)
C14 0.087(3) 0.053(2) 0.083(3) 0.005(2) 0.057(2) 0.0109(19)
O5 0.0877(17) 0.0689(15) 0.116(2) 0.0099(14) 0.0784(16) 0.0020(13)
O6 0.0764(16) 0.0486(14) 0.159(2) -0.0015(16) 0.0778(17) -0.0088(13)
C15 0.066(2) 0.053(2) 0.102(3) 0.014(2) 0.054(2) 0.0041(19)
C16 0.059(2) 0.048(2) 0.087(3) 0.0083(19) 0.049(2) 0.0022(17)
C17 0.076(2) 0.050(2) 0.092(3) -0.0015(19) 0.063(2) 0.0019(18)
C18 0.077(2) 0.0372(18) 0.105(3) -0.0094(18) 0.064(2) -0.0094(16)
C19 0.062(2) 0.0353(17) 0.099(3) 0.0014(18) 0.058(2) 0.0009(15)
C20 0.076(2) 0.0452(19) 0.106(3) -0.011(2) 0.066(2) -0.0050(17)
C21 0.071(2) 0.0445(19) 0.108(3) -0.013(2) 0.058(2) -0.0113(17)
N1 0.0719(17) 0.0326(14) 0.126(2) -0.0008(15) 0.0765(18) 0.0010(13)

_geom_special_details            
;
All esds (except the esd in the dihedral angle between two l.s. planes)
are estimated using the full covariance matrix. The cell esds are taken
into account individually in the estimation of esds in distances, angles
and torsion angles; correlations between esds in cell parameters are only
used when they are defined by crystal symmetry. An approximate (isotropic)
treatment of cell esds is used for estimating esds involving l.s. planes.
;

loop_
_geom_bond_atom_site_label_1
_geom_bond_atom_site_label_2
_geom_bond_distance
_geom_bond_site_symmetry_2
_geom_bond_publ_flag
Zn1 O5 1.924(2) 5_565 ?
Zn1 O6 1.935(2) 3_445 ?
Zn1 O4 1.942(2) 4_445 ?
Zn1 O2 1.946(2) . ?
Zn2 O1 1.944(2) 2 ?
Zn2 O1 1.944(2) . ?
Zn2 O3 1.9616(19) 3_545 ?
Zn2 O3 1.9616(19) 4_445 ?
O1 C1 1.262(4) . ?
O2 C1 1.259(4) . ?
C1 C2 1.486(4) . ?
C2 C7 1.370(4) . ?
C2 C3 1.372(4) . ?
C3 C4 1.382(4) . ?
C4 C5 1.371(4) . ?
C5 C6 1.381(4) . ?
C5 N1 1.421(3) . ?
C6 C7 1.393(4) . ?
O3 C8 1.258(4) . ?
O3 Zn2 1.9616(19) 3_455 ?
O4 C8 1.249(4) . ?
O4 Zn1 1.942(2) 4_455 ?
C8 C9 1.500(4) . ?
C9 C14 1.370(4) . ?
C9 C10 1.378(4) . ?
C10 C11 1.393(4) . ?
C11 C12 1.367(4) . ?
C12 C13 1.373(4) . ?
C12 N1 1.433(3) . ?
C13 C14 1.388(4) . ?
O5 C15 1.262(4) . ?
O5 Zn1 1.924(2) 5_565 ?
O6 C15 1.232(3) . ?
O6 Zn1 1.935(2) 3 ?
C15 C16 1.499(4) . ?
C16 C17 1.374(4) . ?
C16 C21 1.376(4) . ?
C17 C18 1.379(4) . ?
C18 C19 1.392(4) . ?
C19 C20 1.377(4) . ?
C19 N1 1.419(3) . ?
C20 C21 1.387(4) . ?

loop_
_geom_angle_atom_site_label_1
_geom_angle_atom_site_label_2
_geom_angle_atom_site_label_3
_geom_angle
_geom_angle_site_symmetry_1
_geom_angle_site_symmetry_3
_geom_angle_publ_flag
O5 Zn1 O6 124.22(11) 5_565 3_445 ?
O5 Zn1 O4 106.79(10) 5_565 4_445 ?
O6 Zn1 O4 103.59(10) 3_445 4_445 ?
O5 Zn1 O2 102.77(9) 5_565 . ?
O6 Zn1 O2 104.24(10) 3_445 . ?
O4 Zn1 O2 116.00(11) 4_445 . ?
O1 Zn2 O1 95.72(14) 2 . ?
O1 Zn2 O3 115.55(9) 2 3_545 ?
O1 Zn2 O3 103.31(10) . 3_545 ?
O1 Zn2 O3 103.31(10) 2 4_445 ?
O1 Zn2 O3 115.55(9) . 4_445 ?
O3 Zn2 O3 120.93(13) 3_545 4_445 ?
C1 O1 Zn2 140.1(2) . . ?
C1 O2 Zn1 117.7(2) . . ?
O2 C1 O1 124.2(3) . . ?
O2 C1 C2 118.7(3) . . ?
O1 C1 C2 117.1(3) . . ?
C7 C2 C3 118.8(3) . . ?
C7 C2 C1 122.0(3) . . ?
C3 C2 C1 119.2(3) . . ?
C2 C3 C4 120.6(3) . . ?
C5 C4 C3 121.0(3) . . ?
C4 C5 C6 118.7(3) . . ?
C4 C5 N1 121.7(3) . . ?
C6 C5 N1 119.6(3) . . ?
C5 C6 C7 120.0(3) . . ?
C2 C7 C6 120.9(3) . . ?
C8 O3 Zn2 112.0(2) . 3_455 ?
C8 O4 Zn1 130.1(2) . 4_455 ?
O4 C8 O3 123.5(3) . . ?
O4 C8 C9 119.6(3) . . ?
O3 C8 C9 116.8(3) . . ?
C14 C9 C10 118.8(3) . . ?
C14 C9 C8 120.1(3) . . ?
C10 C9 C8 121.1(3) . . ?
C9 C10 C11 120.6(3) . . ?
C12 C11 C10 119.9(3) . . ?
C11 C12 C13 119.8(3) . . ?
C11 C12 N1 119.9(3) . . ?
C13 C12 N1 120.3(3) . . ?
C12 C13 C14 120.1(3) . . ?
C9 C14 C13 120.8(3) . . ?
C15 O5 Zn1 141.1(2) . 5_565 ?
C15 O6 Zn1 120.5(2) . 3 ?
O6 C15 O5 124.5(3) . . ?
O6 C15 C16 118.6(3) . . ?
O5 C15 C16 116.9(3) . . ?
C17 C16 C21 118.7(3) . . ?
C17 C16 C15 120.8(3) . . ?
C21 C16 C15 120.4(3) . . ?
C16 C17 C18 120.9(3) . . ?
C17 C18 C19 120.3(3) . . ?
C20 C19 C18 118.7(3) . . ?
C20 C19 N1 121.4(3) . . ?
C18 C19 N1 119.8(3) . . ?
C19 C20 C21 120.1(3) . . ?
C16 C21 C20 121.0(3) . . ?
C19 N1 C5 119.6(2) . . ?
C19 N1 C12 119.2(2) . . ?
C5 N1 C12 119.3(2) . . ?

_diffrn_measured_fraction_theta_max 0.940
_diffrn_reflns_theta_full        28.26
_diffrn_measured_fraction_theta_full 0.940
_refine_diff_density_max         0.597
_refine_diff_density_min         -0.266
_refine_diff_density_rms         0.057
