####################################################################### 
# 
# This file contains crystal structure data downloaded from the 
# Cambridge Structural Database (CSD) hosted by the Cambridge 
# Crystallographic Data Centre (CCDC).
# 
# Full information about CCDC data access policies and citation 
# guidelines are available at http://www.ccdc.cam.ac.uk/access/V1 
# 
# Audit and citation data items may have been added by the CCDC. 
# Please retain this information to preserve the provenance of 
# this file and to allow appropriate attribution of the data. 
# 
#######################################################################

data_guo558_0m
_audit_block_doi                 10.5517/ccz9bsc
_database_code_depnum_ccdc_archive 'CCDC 902713'
loop_
_citation_id
_citation_doi
_citation_year
1 10.1080/15533174.2012.758153 2013
2 10.1080/15533174.2013.865233 2015
_audit_update_record             
;
2012-09-24 deposited with the CCDC.	2024-07-12 downloaded from the CCDC.
;
#TrackingRef 'Mn1.cif'


_audit_creation_method           SHELXL-97
_chemical_name_systematic        
;
?
;
_chemical_name_common            ?
_chemical_melting_point          ?
_chemical_formula_moiety         ?
_chemical_formula_sum            'C24 H14 Mn N2 O4'
_chemical_formula_weight         449.31

loop_
_atom_type_symbol
_atom_type_description
_atom_type_scat_dispersion_real
_atom_type_scat_dispersion_imag
_atom_type_scat_source
C C 0.0033 0.0016 'International Tables Vol C Tables 4.2.6.8 and 6.1.1.4'
N N 0.0061 0.0033 'International Tables Vol C Tables 4.2.6.8 and 6.1.1.4'
O O 0.0106 0.0060 'International Tables Vol C Tables 4.2.6.8 and 6.1.1.4'
Mn Mn 0.3368 0.7283 'International Tables Vol C Tables 4.2.6.8 and 6.1.1.4'
H H 0.0000 0.0000 'International Tables Vol C Tables 4.2.6.8 and 6.1.1.4'

_symmetry_cell_setting           Monoclinic
_symmetry_space_group_name_H-M   C2/c

loop_
_symmetry_equiv_pos_as_xyz
'x, y, z'
'-x, y, -z+1/2'
'x+1/2, y+1/2, z'
'-x+1/2, y+1/2, -z+1/2'
'-x, -y, -z'
'x, -y, z-1/2'
'-x+1/2, -y+1/2, -z'
'x+1/2, -y+1/2, z-1/2'

_cell_length_a                   19.627(5)
_cell_length_b                   14.985(5)
_cell_length_c                   8.581(5)
_cell_angle_alpha                90.000(5)
_cell_angle_beta                 109.527(5)
_cell_angle_gamma                90.000(5)
_cell_volume                     2378.6(17)
_cell_formula_units_Z            4
_cell_measurement_temperature    293(2)
_cell_measurement_reflns_used    ?
_cell_measurement_theta_min      ?
_cell_measurement_theta_max      ?

_exptl_crystal_description       ?
_exptl_crystal_colour            ?
_exptl_crystal_size_max          0.30
_exptl_crystal_size_mid          0.25
_exptl_crystal_size_min          0.20
_exptl_crystal_density_meas      ?
_exptl_crystal_density_diffrn    1.255
_exptl_crystal_density_method    'not measured'
_exptl_crystal_F_000             916
_exptl_absorpt_coefficient_mu    0.584
_exptl_absorpt_correction_type   ?
_exptl_absorpt_correction_T_min  0.8442
_exptl_absorpt_correction_T_max  0.8921
_exptl_absorpt_process_details   ?

_exptl_special_details           
;
?
;

_diffrn_ambient_temperature      293(2)
_diffrn_radiation_wavelength     0.71069
_diffrn_radiation_type           MoK\a
_diffrn_radiation_source         'fine-focus sealed tube'
_diffrn_radiation_monochromator  graphite
_diffrn_measurement_device_type  ?
_diffrn_measurement_method       ?
_diffrn_detector_area_resol_mean ?
_diffrn_standards_number         ?
_diffrn_standards_interval_count ?
_diffrn_standards_interval_time  ?
_diffrn_standards_decay_%        ?
_diffrn_reflns_number            6017
_diffrn_reflns_av_R_equivalents  0.0153
_diffrn_reflns_av_sigmaI/netI    0.0145
_diffrn_reflns_limit_h_min       -22
_diffrn_reflns_limit_h_max       23
_diffrn_reflns_limit_k_min       -13
_diffrn_reflns_limit_k_max       17
_diffrn_reflns_limit_l_min       -10
_diffrn_reflns_limit_l_max       9
_diffrn_reflns_theta_min         1.75
_diffrn_reflns_theta_max         25.00
_reflns_number_total             2090
_reflns_number_gt                1990
_reflns_threshold_expression     >2sigma(I)

_computing_data_collection       ?
_computing_cell_refinement       ?
_computing_data_reduction        ?
_computing_structure_solution    'SHELXS-97 (Sheldrick, 1990)'
_computing_structure_refinement  'SHELXL-97 (Sheldrick, 1997)'
_computing_molecular_graphics    ?
_computing_publication_material  ?

_refine_special_details          
;
Refinement of F^2^ against ALL reflections. The weighted R-factor wR and
goodness of fit S are based on F^2^, conventional R-factors R are based
on F, with F set to zero for negative F^2^. The threshold expression of
F^2^ > 2sigma(F^2^) is used only for calculating R-factors(gt) etc. and is
not relevant to the choice of reflections for refinement. R-factors based
on F^2^ are statistically about twice as large as those based on F, and R-
factors based on ALL data will be even larger.
;

_refine_ls_structure_factor_coef Fsqd
_refine_ls_matrix_type           full
_refine_ls_weighting_scheme      calc
_refine_ls_weighting_details     
'calc w=1/[\s^2^(Fo^2^)+(0.0973P)^2^+1.7861P] where P=(Fo^2^+2Fc^2^)/3'
_atom_sites_solution_primary     direct
_atom_sites_solution_secondary   difmap
_atom_sites_solution_hydrogens   geom
_refine_ls_hydrogen_treatment    mixed
_refine_ls_extinction_method     none
_refine_ls_extinction_coef       ?
_refine_ls_number_reflns         2090
_refine_ls_number_parameters     145
_refine_ls_number_restraints     0
_refine_ls_R_factor_all          0.0452
_refine_ls_R_factor_gt           0.0440
_refine_ls_wR_factor_ref         0.1394
_refine_ls_wR_factor_gt          0.1375
_refine_ls_goodness_of_fit_ref   1.148
_refine_ls_restrained_S_all      1.148
_refine_ls_shift/su_max          0.001
_refine_ls_shift/su_mean         0.000

loop_
_atom_site_label
_atom_site_type_symbol
_atom_site_fract_x
_atom_site_fract_y
_atom_site_fract_z
_atom_site_U_iso_or_equiv
_atom_site_adp_type
_atom_site_occupancy
_atom_site_symmetry_multiplicity
_atom_site_calc_flag
_atom_site_refinement_flags
_atom_site_disorder_assembly
_atom_site_disorder_group
Mn1 Mn 0.5000 0.42153(3) 0.2500 0.0225(2) Uani 1 2 d S . .
O2 O 0.58475(8) 0.59683(12) 0.6435(2) 0.0328(4) Uani 1 1 d . . .
O1 O 0.56323(9) 0.52327(12) 0.4072(2) 0.0384(4) Uani 1 1 d . . .
N1 N 0.93489(10) 0.81689(14) 1.0585(2) 0.0363(5) Uani 1 1 d . . .
C2 C 0.68060(13) 0.58137(15) 0.5377(3) 0.0324(6) Uani 1 1 d . . .
C1 C 0.60348(11) 0.56454(14) 0.5287(3) 0.0259(5) Uani 1 1 d . . .
C3 C 0.72633(12) 0.63318(16) 0.6634(3) 0.0326(5) Uani 1 1 d . . .
H3 H 0.7095 0.6556 0.7448 0.039 Uiso 1 1 calc R . .
C4 C 0.79701(13) 0.65253(19) 0.6708(3) 0.0442(6) Uani 1 1 d . . .
C8 C 0.84470(13) 0.70804(18) 0.8045(3) 0.0408(6) Uani 1 1 d . . .
C10 C 0.88811(15) 0.7590(2) 1.0864(3) 0.0461(7) Uani 1 1 d . . .
H10 H 0.8863 0.7549 1.1931 0.055 Uiso 1 1 calc R . .
C9 C 0.84253(15) 0.7051(2) 0.9660(3) 0.0480(7) Uani 1 1 d . . .
H9 H 0.8105 0.6669 0.9919 0.058 Uiso 1 1 calc R . .
C11 C 0.93768(14) 0.81853(19) 0.9051(3) 0.0452(6) Uani 1 1 d . . .
H11 H 0.9702 0.8573 0.8825 0.054 Uiso 1 1 calc R . .
C12 C 0.89477(15) 0.7656(2) 0.7781(3) 0.0477(7) Uani 1 1 d . . .
H12 H 0.8997 0.7687 0.6741 0.057 Uiso 1 1 calc R . .
C7 C 0.70568(16) 0.5461(3) 0.4185(4) 0.0597(9) Uani 1 1 d . . .
H7 H 0.6758 0.5102 0.3351 0.072 Uiso 1 1 calc R . .
C6 C 0.7757(2) 0.5643(3) 0.4234(6) 0.0896(17) Uani 1 1 d . . .
C5 C 0.82053(18) 0.6184(3) 0.5465(5) 0.0799(14) Uani 1 1 d . . .
H5 H 0.8667 0.6320 0.5461 0.096 Uiso 1 1 calc R . .
H6 H 0.794(3) 0.539(3) 0.341(6) 0.108(16) Uiso 1 1 d . . .

loop_
_atom_site_aniso_label
_atom_site_aniso_U_11
_atom_site_aniso_U_22
_atom_site_aniso_U_33
_atom_site_aniso_U_23
_atom_site_aniso_U_13
_atom_site_aniso_U_12
Mn1 0.0163(3) 0.0250(3) 0.0218(3) 0.000 0.0004(2) 0.000
O2 0.0241(8) 0.0432(9) 0.0298(9) -0.0055(7) 0.0073(7) -0.0056(6)
O1 0.0272(8) 0.0458(10) 0.0366(9) -0.0147(7) 0.0032(7) -0.0108(7)
N1 0.0307(10) 0.0409(11) 0.0343(11) -0.0094(9) 0.0071(8) -0.0108(8)
C2 0.0247(12) 0.0379(13) 0.0324(13) -0.0087(9) 0.0066(10) -0.0059(8)
C1 0.0218(11) 0.0253(10) 0.0251(11) 0.0020(8) 0.0006(9) -0.0027(8)
C3 0.0265(11) 0.0391(12) 0.0312(11) -0.0100(9) 0.0084(9) -0.0087(9)
C4 0.0319(12) 0.0571(16) 0.0443(14) -0.0221(12) 0.0136(11) -0.0155(11)
C8 0.0280(12) 0.0507(14) 0.0423(14) -0.0173(11) 0.0098(10) -0.0127(10)
C10 0.0466(15) 0.0553(16) 0.0383(14) -0.0118(11) 0.0169(12) -0.0183(12)
C9 0.0425(14) 0.0578(16) 0.0473(15) -0.0159(12) 0.0198(12) -0.0257(12)
C11 0.0411(14) 0.0545(16) 0.0364(13) -0.0071(11) 0.0083(11) -0.0232(12)
C12 0.0446(15) 0.0649(18) 0.0323(13) -0.0122(12) 0.0112(11) -0.0253(13)
C7 0.0368(15) 0.088(2) 0.0578(18) -0.0463(18) 0.0205(13) -0.0269(15)
C6 0.049(2) 0.147(4) 0.086(3) -0.083(3) 0.041(2) -0.044(2)
C5 0.0404(16) 0.126(3) 0.086(3) -0.068(3) 0.0380(17) -0.045(2)

_geom_special_details            
;
All esds (except the esd in the dihedral angle between two l.s. planes)
are estimated using the full covariance matrix. The cell esds are taken
into account individually in the estimation of esds in distances, angles
and torsion angles; correlations between esds in cell parameters are only
used when they are defined by crystal symmetry. An approximate (isotropic)
treatment of cell esds is used for estimating esds involving l.s. planes.
;

loop_
_geom_bond_atom_site_label_1
_geom_bond_atom_site_label_2
_geom_bond_distance
_geom_bond_site_symmetry_2
_geom_bond_publ_flag
Mn1 O1 2.1364(17) . ?
Mn1 O1 2.1364(17) 2_655 ?
Mn1 O2 2.1667(16) 5_666 ?
Mn1 O2 2.1667(16) 6_565 ?
Mn1 N1 2.321(2) 3_444 ?
Mn1 N1 2.321(2) 4_646 ?
O2 C1 1.258(3) . ?
O2 Mn1 2.1667(16) 5_666 ?
O1 C1 1.242(3) . ?
N1 C11 1.336(3) . ?
N1 C10 1.342(3) . ?
N1 Mn1 2.321(2) 3_556 ?
C2 C7 1.380(4) . ?
C2 C3 1.387(3) . ?
C2 C1 1.511(3) . ?
C3 C4 1.398(3) . ?
C3 H3 0.9300 . ?
C4 C5 1.393(4) . ?
C4 C8 1.472(3) . ?
C8 C12 1.382(4) . ?
C8 C9 1.401(4) . ?
C10 C9 1.379(4) . ?
C10 H10 0.9300 . ?
C9 H9 0.9300 . ?
C11 C12 1.383(4) . ?
C11 H11 0.9300 . ?
C12 H12 0.9300 . ?
C7 C6 1.388(4) . ?
C7 H7 0.9300 . ?
C6 C5 1.388(4) . ?
C6 H6 0.97(5) . ?
C5 H5 0.9300 . ?

loop_
_geom_angle_atom_site_label_1
_geom_angle_atom_site_label_2
_geom_angle_atom_site_label_3
_geom_angle
_geom_angle_site_symmetry_1
_geom_angle_site_symmetry_3
_geom_angle_publ_flag
O1 Mn1 O1 88.95(10) . 2_655 ?
O1 Mn1 O2 100.96(7) . 5_666 ?
O1 Mn1 O2 89.49(7) 2_655 5_666 ?
O1 Mn1 O2 89.49(7) . 6_565 ?
O1 Mn1 O2 100.96(7) 2_655 6_565 ?
O2 Mn1 O2 165.40(10) 5_666 6_565 ?
O1 Mn1 N1 174.33(6) . 3_444 ?
O1 Mn1 N1 88.22(8) 2_655 3_444 ?
O2 Mn1 N1 83.93(7) 5_666 3_444 ?
O2 Mn1 N1 86.22(7) 6_565 3_444 ?
O1 Mn1 N1 88.22(8) . 4_646 ?
O1 Mn1 N1 174.33(6) 2_655 4_646 ?
O2 Mn1 N1 86.22(7) 5_666 4_646 ?
O2 Mn1 N1 83.93(7) 6_565 4_646 ?
N1 Mn1 N1 95.01(11) 3_444 4_646 ?
C1 O2 Mn1 138.43(15) . 5_666 ?
C1 O1 Mn1 163.23(16) . . ?
C11 N1 C10 116.3(2) . . ?
C11 N1 Mn1 119.41(16) . 3_556 ?
C10 N1 Mn1 123.94(16) . 3_556 ?
C7 C2 C3 119.5(2) . . ?
C7 C2 C1 119.8(2) . . ?
C3 C2 C1 120.7(2) . . ?
O1 C1 O2 125.3(2) . . ?
O1 C1 C2 118.1(2) . . ?
O2 C1 C2 116.46(19) . . ?
C2 C3 C4 121.7(2) . . ?
C2 C3 H3 119.1 . . ?
C4 C3 H3 119.1 . . ?
C5 C4 C3 117.8(2) . . ?
C5 C4 C8 121.1(2) . . ?
C3 C4 C8 121.0(2) . . ?
C12 C8 C9 116.1(2) . . ?
C12 C8 C4 121.7(2) . . ?
C9 C8 C4 122.1(2) . . ?
N1 C10 C9 123.8(2) . . ?
N1 C10 H10 118.1 . . ?
C9 C10 H10 118.1 . . ?
C10 C9 C8 119.7(2) . . ?
C10 C9 H9 120.1 . . ?
C8 C9 H9 120.1 . . ?
N1 C11 C12 123.5(2) . . ?
N1 C11 H11 118.3 . . ?
C12 C11 H11 118.3 . . ?
C8 C12 C11 120.5(2) . . ?
C8 C12 H12 119.8 . . ?
C11 C12 H12 119.8 . . ?
C2 C7 C6 119.8(3) . . ?
C2 C7 H7 120.1 . . ?
C6 C7 H7 120.1 . . ?
C7 C6 C5 120.5(3) . . ?
C7 C6 H6 120(3) . . ?
C5 C6 H6 119(3) . . ?
C6 C5 C4 120.6(3) . . ?
C6 C5 H5 119.7 . . ?
C4 C5 H5 119.7 . . ?

loop_
_geom_torsion_atom_site_label_1
_geom_torsion_atom_site_label_2
_geom_torsion_atom_site_label_3
_geom_torsion_atom_site_label_4
_geom_torsion
_geom_torsion_site_symmetry_1
_geom_torsion_site_symmetry_2
_geom_torsion_site_symmetry_3
_geom_torsion_site_symmetry_4
_geom_torsion_publ_flag
O1 Mn1 O1 C1 156.4(6) 2_655 . . . ?
O2 Mn1 O1 C1 67.1(6) 5_666 . . . ?
O2 Mn1 O1 C1 -102.6(6) 6_565 . . . ?
N1 Mn1 O1 C1 -143.5(7) 3_444 . . . ?
N1 Mn1 O1 C1 -18.7(6) 4_646 . . . ?
Mn1 O1 C1 O2 -79.0(6) . . . . ?
Mn1 O1 C1 C2 103.8(5) . . . . ?
Mn1 O2 C1 O1 21.2(4) 5_666 . . . ?
Mn1 O2 C1 C2 -161.54(17) 5_666 . . . ?
C7 C2 C1 O1 -4.2(4) . . . . ?
C3 C2 C1 O1 174.8(2) . . . . ?
C7 C2 C1 O2 178.3(3) . . . . ?
C3 C2 C1 O2 -2.7(3) . . . . ?
C7 C2 C3 C4 1.5(4) . . . . ?
C1 C2 C3 C4 -177.5(2) . . . . ?
C2 C3 C4 C5 0.4(5) . . . . ?
C2 C3 C4 C8 179.7(3) . . . . ?
C5 C4 C8 C12 33.8(5) . . . . ?
C3 C4 C8 C12 -145.5(3) . . . . ?
C5 C4 C8 C9 -145.5(4) . . . . ?
C3 C4 C8 C9 35.2(4) . . . . ?
C11 N1 C10 C9 -2.3(4) . . . . ?
Mn1 N1 C10 C9 171.1(2) 3_556 . . . ?
N1 C10 C9 C8 1.3(5) . . . . ?
C12 C8 C9 C10 1.0(4) . . . . ?
C4 C8 C9 C10 -179.6(3) . . . . ?
C10 N1 C11 C12 1.0(4) . . . . ?
Mn1 N1 C11 C12 -172.6(2) 3_556 . . . ?
C9 C8 C12 C11 -2.2(4) . . . . ?
C4 C8 C12 C11 178.4(3) . . . . ?
N1 C11 C12 C8 1.2(5) . . . . ?
C3 C2 C7 C6 -1.4(6) . . . . ?
C1 C2 C7 C6 177.6(4) . . . . ?
C2 C7 C6 C5 -0.5(8) . . . . ?
C7 C6 C5 C4 2.4(9) . . . . ?
C3 C4 C5 C6 -2.3(7) . . . . ?
C8 C4 C5 C6 178.4(4) . . . . ?

_diffrn_measured_fraction_theta_max 0.994
_diffrn_reflns_theta_full        25.00
_diffrn_measured_fraction_theta_full 0.994
_refine_diff_density_max         0.830
_refine_diff_density_min         -0.434
_refine_diff_density_rms         0.142


