####################################################################### 
# 
# This file contains crystal structure data downloaded from the 
# Cambridge Structural Database (CSD) hosted by the Cambridge 
# Crystallographic Data Centre (CCDC).
# 
# Full information about CCDC data access policies and citation 
# guidelines are available at http://www.ccdc.cam.ac.uk/access/V1 
# 
# Audit and citation data items may have been added by the CCDC. 
# Please retain this information to preserve the provenance of 
# this file and to allow appropriate attribution of the data. 
# 
#######################################################################

data_1181
_audit_block_doi                 10.5517/ccnxmz4
_database_code_depnum_ccdc_archive 'CCDC 623347'
loop_
_citation_id
_citation_doi
_citation_year
1 10.1080/15533174.2012.758152 2013
_audit_update_record             
;
2006-10-09 deposited with the CCDC.	2024-07-12 downloaded from the CCDC.
;


_audit_creation_method           SHELXL-97
_chemical_name_systematic        
;
?
;
_chemical_name_common            ?
_chemical_melting_point          ?
_chemical_formula_moiety         ?
_chemical_formula_sum            'C46 H60 Cl4 Hg2 N8 O10'
_chemical_formula_weight         1428.00

loop_
_atom_type_symbol
_atom_type_description
_atom_type_scat_dispersion_real
_atom_type_scat_dispersion_imag
_atom_type_scat_source
C C 0.0033 0.0016 'International Tables Vol C Tables 4.2.6.8 and 6.1.1.4'
H H 0.0000 0.0000 'International Tables Vol C Tables 4.2.6.8 and 6.1.1.4'
N N 0.0061 0.0033 'International Tables Vol C Tables 4.2.6.8 and 6.1.1.4'
O O 0.0106 0.0060 'International Tables Vol C Tables 4.2.6.8 and 6.1.1.4'
Cl Cl 0.1484 0.1585 'International Tables Vol C Tables 4.2.6.8 and 6.1.1.4'
Hg Hg -2.3894 9.2266 'International Tables Vol C Tables 4.2.6.8 and 6.1.1.4'

_symmetry_cell_setting           Monoclinic
_symmetry_space_group_name_H-M   C2/c

loop_
_symmetry_equiv_pos_as_xyz
'x, y, z'
'-x, y, -z+1/2'
'x+1/2, y+1/2, z'
'-x+1/2, y+1/2, -z+1/2'
'-x, -y, -z'
'x, -y, z-1/2'
'-x+1/2, -y+1/2, -z'
'x+1/2, -y+1/2, z-1/2'

_cell_length_a                   14.703(15)
_cell_length_b                   17.248(17)
_cell_length_c                   14.91(2)
_cell_angle_alpha                90.00
_cell_angle_beta                 114.869(10)
_cell_angle_gamma                90.00
_cell_volume                     3430(7)
_cell_formula_units_Z            2
_cell_measurement_temperature    291(2)
_cell_measurement_reflns_used    3858
_cell_measurement_theta_min      2.36
_cell_measurement_theta_max      20.78

_exptl_crystal_description       ?
_exptl_crystal_colour            ?
_exptl_crystal_size_max          0.60
_exptl_crystal_size_mid          0.40
_exptl_crystal_size_min          0.35
_exptl_crystal_density_meas      0
_exptl_crystal_density_diffrn    1.383
_exptl_crystal_density_method    'not measured'
_exptl_crystal_F_000             1400
_exptl_absorpt_coefficient_mu    4.674
_exptl_absorpt_correction_type   none
_exptl_absorpt_correction_T_min  0.1659
_exptl_absorpt_correction_T_max  0.2915
_exptl_absorpt_process_details   ?

_exptl_special_details           
;
?
;

_diffrn_ambient_temperature      291(2)
_diffrn_radiation_wavelength     0.71073
_diffrn_radiation_type           MoK\a
_diffrn_radiation_source         'fine-focus sealed tube'
_diffrn_radiation_monochromator  graphite
_diffrn_measurement_device_type  'CCD area detector'
_diffrn_measurement_method       'phi and omega scans'
_diffrn_detector_area_resol_mean ?
_diffrn_standards_number         ?
_diffrn_standards_interval_count ?
_diffrn_standards_interval_time  ?
_diffrn_standards_decay_%        ?
_diffrn_reflns_number            14615
_diffrn_reflns_av_R_equivalents  0.0348
_diffrn_reflns_av_sigmaI/netI    0.0370
_diffrn_reflns_limit_h_min       -19
_diffrn_reflns_limit_h_max       18
_diffrn_reflns_limit_k_min       -22
_diffrn_reflns_limit_k_max       22
_diffrn_reflns_limit_l_min       -19
_diffrn_reflns_limit_l_max       19
_diffrn_reflns_theta_min         2.36
_diffrn_reflns_theta_max         27.50
_reflns_number_total             3941
_reflns_number_gt                2354
_reflns_threshold_expression     >2sigma(I)

_computing_data_collection       'Bruker SMART'
_computing_cell_refinement       'Bruker SMART'
_computing_data_reduction        'Bruker SAINT'
_computing_structure_solution    'SHELXS-97 (Sheldrick, 1990)'
_computing_structure_refinement  'SHELXL-97 (Sheldrick, 1997)'
_computing_molecular_graphics    'Bruker SHELXTL'
_computing_publication_material  'Bruker SHELXTL'

_refine_special_details          
;
Refinement of F^2^ against ALL reflections. The weighted R-factor wR and
goodness of fit S are based on F^2^, conventional R-factors R are based
on F, with F set to zero for negative F^2^. The threshold expression of
F^2^ > 2sigma(F^2^) is used only for calculating R-factors(gt) etc. and is
not relevant to the choice of reflections for refinement. R-factors based
on F^2^ are statistically about twice as large as those based on F, and R-
factors based on ALL data will be even larger.
;

_refine_ls_structure_factor_coef Fsqd
_refine_ls_matrix_type           full
_refine_ls_weighting_scheme      calc
_refine_ls_weighting_details     
'calc w=1/[\s^2^(Fo^2^)+(0.0000P)^2^+0.0000P] where P=(Fo^2^+2Fc^2^)/3'
_atom_sites_solution_primary     direct
_atom_sites_solution_secondary   difmap
_atom_sites_solution_hydrogens   geom
_refine_ls_hydrogen_treatment    mixed
_refine_ls_extinction_method     none
_refine_ls_extinction_coef       ?
_refine_ls_number_reflns         3941
_refine_ls_number_parameters     160
_refine_ls_number_restraints     30
_refine_ls_R_factor_all          0.1012
_refine_ls_R_factor_gt           0.0566
_refine_ls_wR_factor_ref         0.1178
_refine_ls_wR_factor_gt          0.1162
_refine_ls_goodness_of_fit_ref   3.741
_refine_ls_restrained_S_all      3.903
_refine_ls_shift/su_max          0.057
_refine_ls_shift/su_mean         0.003

loop_
_atom_site_label
_atom_site_type_symbol
_atom_site_fract_x
_atom_site_fract_y
_atom_site_fract_z
_atom_site_U_iso_or_equiv
_atom_site_adp_type
_atom_site_occupancy
_atom_site_symmetry_multiplicity
_atom_site_calc_flag
_atom_site_refinement_flags
_atom_site_disorder_assembly
_atom_site_disorder_group
Hg1 Hg 1.0000 0.38954(3) 0.2500 0.0868(3) Uani 1 2 d S . .
Cl1 Cl 0.8434(2) 0.32237(17) 0.2043(2) 0.1376(11) Uani 1 1 d U . .
O1 O 0.5000 0.3422(13) 0.2500 0.335(12) Uani 1 2 d SU . .
H1 H 0.5159 0.3580 0.2067 0.502 Uiso 0.50 1 calc P . .
O2 O 0.0534(16) 0.8849(17) 0.887(2) 0.72(3) Uani 1 1 d DU . .
O3 O 0.6405(16) 0.4887(13) 0.0095(14) 0.534(14) Uani 1 1 d DU . .
N1 N 0.8917(6) 0.5684(4) 0.0141(5) 0.0665(17) Uani 1 1 d . . .
N2 N 0.9747(6) 0.4857(4) 0.1357(5) 0.0694(18) Uani 1 1 d . . .
C1 C 1.0413(7) 0.5414(5) 0.1338(7) 0.067(2) Uani 1 1 d . . .
C2 C 1.1414(8) 0.5505(6) 0.1925(7) 0.084(3) Uani 1 1 d . . .
H2 H 1.1754 0.5159 0.2435 0.101 Uiso 1 1 calc R . .
C3 C 1.1893(8) 0.6108(8) 0.1746(9) 0.112(3) Uani 1 1 d . . .
H3 H 1.2569 0.6184 0.2151 0.134 Uiso 1 1 calc R . .
C4 C 1.1417(11) 0.6611(7) 0.0988(11) 0.122(4) Uani 1 1 d . . .
H4 H 1.1785 0.7009 0.0878 0.147 Uiso 1 1 calc R . .
C5 C 1.0393(10) 0.6551(5) 0.0368(8) 0.098(3) Uani 1 1 d . . .
H5 H 1.0068 0.6901 -0.0142 0.118 Uiso 1 1 calc R . .
C6 C 0.9889(8) 0.5927(4) 0.0567(7) 0.067(2) Uani 1 1 d . . .
C7 C 0.8883(7) 0.5044(5) 0.0642(7) 0.071(2) Uani 1 1 d . . .
H7 H 0.8299 0.4761 0.0494 0.085 Uiso 1 1 calc R . .
C8 C 0.8082(7) 0.6062(5) -0.0652(6) 0.082(2) Uani 1 1 d . . .
H8A H 0.7512 0.5712 -0.0899 0.099 Uiso 1 1 calc R . .
H8B H 0.8266 0.6175 -0.1191 0.099 Uiso 1 1 calc R . .
C9 C 0.7780(6) 0.6815(5) -0.0305(6) 0.070(2) Uani 1 1 d . . .
C10 C 0.7741(7) 0.7496(6) -0.0768(6) 0.096(3) Uani 1 1 d . . .
H10 H 0.7910 0.7507 -0.1303 0.115 Uiso 1 1 calc R . .
C11 C 0.7543(7) 0.6823(5) 0.0468(7) 0.096(3) Uani 1 1 d . . .
H11 H 0.7569 0.6366 0.0808 0.115 Uiso 1 1 calc R . .
C12 C 0.5000 0.260(2) 0.2500 0.229(13) Uani 1 2 d S . .
H12A H 0.5664 0.2414 0.2899 0.344 Uiso 0.50 1 calc P . .
H12B H 0.4787 0.2414 0.1835 0.344 Uiso 0.50 1 calc P . .
H12C H 0.4548 0.2414 0.2766 0.344 Uiso 0.50 1 calc P . .
H1W H 0.0739 0.9249 0.8577 0.057 Uiso 1 1 d D . .
H2W H 0.1062 0.8656 0.9335 0.058 Uiso 1 1 d D . .
H3W H 0.6166 0.4554 -0.0362 0.055 Uiso 1 1 d D . .
H4W H 0.6883 0.4849 0.0631 0.056 Uiso 1 1 d D . .

loop_
_atom_site_aniso_label
_atom_site_aniso_U_11
_atom_site_aniso_U_22
_atom_site_aniso_U_33
_atom_site_aniso_U_23
_atom_site_aniso_U_13
_atom_site_aniso_U_12
Hg1 0.1117(5) 0.0632(3) 0.0970(4) 0.000 0.0550(3) 0.000
Cl1 0.147(3) 0.145(3) 0.136(2) -0.0367(19) 0.074(2) -0.070(2)
O1 0.270(17) 0.219(15) 0.322(18) 0.000 -0.064(12) 0.000
O2 0.71(3) 0.66(3) 0.77(3) 0.044(18) 0.28(2) 0.019(19)
O3 0.48(2) 0.44(2) 0.65(2) -0.066(17) 0.206(16) 0.046(16)
N1 0.070(5) 0.060(4) 0.073(5) -0.001(4) 0.033(5) 0.011(4)
N2 0.071(5) 0.063(4) 0.078(5) 0.006(4) 0.035(4) 0.002(4)
C1 0.065(7) 0.066(6) 0.078(6) -0.012(5) 0.039(6) 0.000(5)
C2 0.085(8) 0.081(7) 0.093(7) -0.008(5) 0.042(7) -0.003(6)
C3 0.080(8) 0.121(10) 0.126(10) -0.015(8) 0.035(7) -0.011(8)
C4 0.117(11) 0.103(9) 0.179(13) -0.041(9) 0.094(11) -0.043(8)
C5 0.139(10) 0.065(6) 0.125(9) 0.002(6) 0.090(9) 0.004(7)
C6 0.087(7) 0.048(5) 0.077(6) -0.006(5) 0.047(6) 0.006(5)
C7 0.086(8) 0.054(5) 0.086(7) -0.005(5) 0.049(6) -0.011(5)
C8 0.098(7) 0.076(6) 0.071(6) 0.003(5) 0.034(5) 0.016(6)
C9 0.086(6) 0.065(6) 0.064(6) 0.010(5) 0.035(5) 0.024(5)
C10 0.134(9) 0.092(7) 0.079(7) 0.013(6) 0.062(6) 0.036(6)
C11 0.145(9) 0.071(6) 0.093(7) 0.025(5) 0.070(7) 0.033(6)
C12 0.15(2) 0.41(4) 0.107(15) 0.000 0.033(14) 0.000

_geom_special_details            
;
All esds (except the esd in the dihedral angle between two l.s. planes)
are estimated using the full covariance matrix. The cell esds are taken
into account individually in the estimation of esds in distances, angles
and torsion angles; correlations between esds in cell parameters are only
used when they are defined by crystal symmetry. An approximate (isotropic)
treatment of cell esds is used for estimating esds involving l.s. planes.
;

loop_
_geom_bond_atom_site_label_1
_geom_bond_atom_site_label_2
_geom_bond_distance
_geom_bond_site_symmetry_2
_geom_bond_publ_flag
Hg1 N2 2.293(7) 2_755 ?
Hg1 N2 2.293(7) . ?
Hg1 Cl1 2.406(3) 2_755 ?
Hg1 Cl1 2.406(3) . ?
O1 C12 1.42(3) . ?
O1 H1 0.8200 . ?
O2 H1W 0.9282 . ?
O2 H2W 0.8636 . ?
O3 H3W 0.8462 . ?
O3 H4W 0.8159 . ?
N1 C7 1.345(9) . ?
N1 C6 1.363(10) . ?
N1 C8 1.452(9) . ?
N2 C7 1.310(9) . ?
N2 C1 1.380(10) . ?
C1 C6 1.398(10) . ?
C1 C2 1.369(11) . ?
C2 C3 1.343(13) . ?
C2 H2 0.9300 . ?
C3 C4 1.362(14) . ?
C3 H3 0.9300 . ?
C4 C5 1.400(13) . ?
C4 H4 0.9300 . ?
C5 C6 1.408(11) . ?
C5 H5 0.9300 . ?
C7 H7 0.9300 . ?
C8 C9 1.531(10) . ?
C8 H8A 0.9700 . ?
C8 H8B 0.9700 . ?
C9 C11 1.338(10) . ?
C9 C10 1.350(10) . ?
C10 C11 1.382(11) 7_665 ?
C10 H10 0.9300 . ?
C11 C10 1.382(11) 7_665 ?
C11 H11 0.9300 . ?
C12 H12A 0.9599 . ?
C12 H12B 0.9599 . ?
C12 H12C 0.9599 . ?

loop_
_geom_angle_atom_site_label_1
_geom_angle_atom_site_label_2
_geom_angle_atom_site_label_3
_geom_angle
_geom_angle_site_symmetry_1
_geom_angle_site_symmetry_3
_geom_angle_publ_flag
N2 Hg1 N2 87.4(3) 2_755 . ?
N2 Hg1 Cl1 107.5(2) 2_755 2_755 ?
N2 Hg1 Cl1 113.29(19) . 2_755 ?
N2 Hg1 Cl1 113.28(19) 2_755 . ?
N2 Hg1 Cl1 107.5(2) . . ?
Cl1 Hg1 Cl1 122.42(17) 2_755 . ?
C12 O1 H1 109.5 . . ?
H1W O2 H2W 107.7 . . ?
H3W O3 H4W 129.0 . . ?
C7 N1 C6 105.7(7) . . ?
C7 N1 C8 127.1(8) . . ?
C6 N1 C8 127.1(7) . . ?
C7 N2 C1 105.4(7) . . ?
C7 N2 Hg1 125.6(6) . . ?
C1 N2 Hg1 128.6(6) . . ?
C6 C1 C2 121.7(9) . . ?
C6 C1 N2 107.9(8) . . ?
C2 C1 N2 130.4(9) . . ?
C3 C2 C1 118.3(10) . . ?
C3 C2 H2 120.9 . . ?
C1 C2 H2 120.8 . . ?
C2 C3 C4 122.0(11) . . ?
C2 C3 H3 119.0 . . ?
C4 C3 H3 119.0 . . ?
C5 C4 C3 122.3(11) . . ?
C5 C4 H4 118.8 . . ?
C3 C4 H4 118.8 . . ?
C4 C5 C6 115.7(10) . . ?
C4 C5 H5 122.2 . . ?
C6 C5 H5 122.2 . . ?
N1 C6 C1 107.2(8) . . ?
N1 C6 C5 132.8(10) . . ?
C1 C6 C5 120.0(10) . . ?
N2 C7 N1 113.8(7) . . ?
N2 C7 H7 123.1 . . ?
N1 C7 H7 123.1 . . ?
N1 C8 C9 111.8(6) . . ?
N1 C8 H8A 109.3 . . ?
C9 C8 H8A 109.2 . . ?
N1 C8 H8B 109.2 . . ?
C9 C8 H8B 109.2 . . ?
H8A C8 H8B 107.9 . . ?
C11 C9 C10 117.4(7) . . ?
C11 C9 C8 121.1(8) . . ?
C10 C9 C8 121.5(9) . . ?
C9 C10 C11 121.9(8) . 7_665 ?
C9 C10 H10 119.1 . . ?
C11 C10 H10 119.1 7_665 . ?
C9 C11 C10 120.7(8) . 7_665 ?
C9 C11 H11 119.6 . . ?
C10 C11 H11 119.6 7_665 . ?
O1 C12 H12A 109.5 . . ?
O1 C12 H12B 109.5 . . ?
H12A C12 H12B 109.5 . . ?
O1 C12 H12C 109.5 . . ?
H12A C12 H12C 109.5 . . ?
H12B C12 H12C 109.5 . . ?

loop_
_geom_torsion_atom_site_label_1
_geom_torsion_atom_site_label_2
_geom_torsion_atom_site_label_3
_geom_torsion_atom_site_label_4
_geom_torsion
_geom_torsion_site_symmetry_1
_geom_torsion_site_symmetry_2
_geom_torsion_site_symmetry_3
_geom_torsion_site_symmetry_4
_geom_torsion_publ_flag
N2 Hg1 N2 C7 -108.0(7) 2_755 . . . ?
Cl1 Hg1 N2 C7 144.0(6) 2_755 . . . ?
Cl1 Hg1 N2 C7 5.6(6) . . . . ?
N2 Hg1 N2 C1 63.0(6) 2_755 . . . ?
Cl1 Hg1 N2 C1 -45.0(6) 2_755 . . . ?
Cl1 Hg1 N2 C1 176.6(6) . . . . ?
C7 N2 C1 C6 -0.7(8) . . . . ?
Hg1 N2 C1 C6 -173.1(5) . . . . ?
C7 N2 C1 C2 179.4(8) . . . . ?
Hg1 N2 C1 C2 7.0(12) . . . . ?
C6 C1 C2 C3 0.1(12) . . . . ?
N2 C1 C2 C3 -180.0(8) . . . . ?
C1 C2 C3 C4 -1.7(16) . . . . ?
C2 C3 C4 C5 2.3(18) . . . . ?
C3 C4 C5 C6 -1.1(15) . . . . ?
C7 N1 C6 C1 -0.7(8) . . . . ?
C8 N1 C6 C1 176.1(7) . . . . ?
C7 N1 C6 C5 179.1(8) . . . . ?
C8 N1 C6 C5 -4.1(13) . . . . ?
C2 C1 C6 N1 -179.2(7) . . . . ?
N2 C1 C6 N1 0.9(8) . . . . ?
C2 C1 C6 C5 0.9(11) . . . . ?
N2 C1 C6 C5 -179.0(7) . . . . ?
C4 C5 C6 N1 179.8(8) . . . . ?
C4 C5 C6 C1 -0.5(11) . . . . ?
C1 N2 C7 N1 0.2(9) . . . . ?
Hg1 N2 C7 N1 172.9(4) . . . . ?
C6 N1 C7 N2 0.3(9) . . . . ?
C8 N1 C7 N2 -176.5(6) . . . . ?
C7 N1 C8 C9 105.7(9) . . . . ?
C6 N1 C8 C9 -70.4(10) . . . . ?
N1 C8 C9 C11 -55.4(11) . . . . ?
N1 C8 C9 C10 124.8(9) . . . . ?
C11 C9 C10 C11 -0.7(15) . . . 7_665 ?
C8 C9 C10 C11 179.1(8) . . . 7_665 ?
C10 C9 C11 C10 0.7(15) . . . 7_665 ?
C8 C9 C11 C10 -179.1(8) . . . 7_665 ?

loop_
_geom_hbond_atom_site_label_D
_geom_hbond_atom_site_label_H
_geom_hbond_atom_site_label_A
_geom_hbond_distance_DH
_geom_hbond_distance_HA
_geom_hbond_distance_DA
_geom_hbond_angle_DHA
_geom_hbond_site_symmetry_A
O3 H3W O2 0.85 1.66 2.49(4) 167.1 3_544

_diffrn_measured_fraction_theta_max 0.998
_diffrn_reflns_theta_full        27.50
_diffrn_measured_fraction_theta_full 0.998
_refine_diff_density_max         1.540
_refine_diff_density_min         -0.740
_refine_diff_density_rms         0.135
