####################################################################### 
# 
# This file contains crystal structure data downloaded from the 
# Cambridge Structural Database (CSD) hosted by the Cambridge 
# Crystallographic Data Centre (CCDC).
# 
# Full information about CCDC data access policies and citation 
# guidelines are available at http://www.ccdc.cam.ac.uk/access/V1 
# 
# Audit and citation data items may have been added by the CCDC. 
# Please retain this information to preserve the provenance of 
# this file and to allow appropriate attribution of the data. 
# 
#######################################################################

data__Ru2-CF3CO2-TCNQF4-pyrene_2
_audit_block_doi                 10.5517/cc10j972
_database_code_depnum_ccdc_archive 'CCDC 939183'
loop_
_citation_id
_citation_doi
_citation_year
1 10.1039/C3DT51271A 2013
_audit_update_record             
;
2013-05-14 deposited with the CCDC.	2024-07-12 downloaded from the CCDC.
;

#==============================================================================
# CHEMICAL DATA

_chemical_formula_sum            'C65 H26 Cl10 F28 N4 O16 Ru4'
_chemical_formula_moiety         'C65 H26 Cl10 F28 N4 O16 Ru4'
_chemical_formula_weight         2409.70
_chemical_melting_point          ?

#==============================================================================
# CRYSTAL DATA
_symmetry_cell_setting           monoclinic
_symmetry_space_group_name_H-M   'P 1 21/m 1'
_symmetry_space_group_name_Hall  '-P 2yb'
_symmetry_Int_Tables_number      11
loop_
_symmetry_equiv_pos_site_id
_symmetry_equiv_pos_as_xyz
1 +X,+Y,+Z
2 -X,1/2+Y,-Z
3 -X,-Y,-Z
4 +X,1/2-Y,+Z
#------------------------------------------------------------------------------
_cell_length_a                   9.895(4)
_cell_length_b                   21.386(7)
_cell_length_c                   20.452(7)
_cell_angle_alpha                90.0000
_cell_angle_beta                 99.418(7)
_cell_angle_gamma                90.0000
_cell_volume                     4270(3)
_cell_formula_units_Z            2
_cell_measurement_reflns_used    10151
_cell_measurement_theta_min      3.03
_cell_measurement_theta_max      27.54
_cell_measurement_temperature    103
#------------------------------------------------------------------------------
_exptl_crystal_description       prism
_exptl_crystal_colour            darkgreen
_exptl_crystal_size_max          0.153
_exptl_crystal_size_mid          0.145
_exptl_crystal_size_min          0.070
_exptl_crystal_density_diffrn    1.874
_exptl_crystal_density_meas      ?
_exptl_crystal_density_method    'not measured'
_exptl_crystal_F_000             2340.00
_exptl_absorpt_coefficient_mu    1.131
_exptl_absorpt_correction_type   multi-scan
_exptl_absorpt_process_details   'REQAB (Rigaku, 1998)'
_exptl_absorpt_correction_T_min  0.795
_exptl_absorpt_correction_T_max  0.924

#==============================================================================
# EXPERIMENTAL DATA

_diffrn_ambient_temperature      103
_diffrn_radiation_type           'Mo K\a'
_diffrn_radiation_wavelength     0.71075
_diffrn_measurement_device_type  'Rigaku Saturn70'
_diffrn_measurement_method       \w
_diffrn_detector_area_resol_mean 7.314
_diffrn_reflns_number            27872
_diffrn_reflns_av_R_equivalents  0.0641
_diffrn_reflns_theta_max         25.00
_diffrn_reflns_theta_full        25.00
_diffrn_measured_fraction_theta_max 0.985
_diffrn_measured_fraction_theta_full 0.985
_diffrn_reflns_limit_h_min       -11
_diffrn_reflns_limit_h_max       11
_diffrn_reflns_limit_k_min       -22
_diffrn_reflns_limit_k_max       25
_diffrn_reflns_limit_l_min       -24
_diffrn_reflns_limit_l_max       22
_diffrn_standards_number         0
_diffrn_standards_interval_count .
_diffrn_standards_decay_%        ?

#==============================================================================
# REFINEMENT DATA

_refine_special_details          
;
    Refinement was performed using all reflections. The weighted 
    R-factor (wR) and goodness of fit (S) are based on F^2^.
    R-factor (gt) are based on F. The threshold expression of
    F^2^ > 2.0 sigma(F^2^) is used only for calculating R-factor (gt).
;
_reflns_number_total             7634
_reflns_number_gt                5218
_reflns_threshold_expression     F^2^>2.0\s(F^2^)
_refine_ls_structure_factor_coef Fsqd
_refine_ls_R_factor_gt           0.0945
_refine_ls_wR_factor_ref         0.2739
_refine_ls_number_restraints     349
_refine_ls_hydrogen_treatment    constr
_refine_ls_number_reflns         7633
_refine_ls_number_parameters     647
_refine_ls_goodness_of_fit_ref   1.064
_refine_ls_weighting_scheme      calc
_refine_ls_weighting_details     
'w = 1/[\s^2^(Fo^2^)+(0.1246P)^2^+75.3887P] where P=(Fo^2^+2Fc^2^)/3'
_atom_sites_solution_hydrogens   geom
_atom_sites_solution_primary     direct
_atom_sites_solution_secondary   difmap
_refine_ls_shift/su_max          0.000
_refine_diff_density_max         3.680
_refine_diff_density_min         -1.300
_refine_ls_extinction_method     none
_refine_ls_extinction_coef       ?

loop_
_atom_type_symbol
_atom_type_description
_atom_type_scat_dispersion_real
_atom_type_scat_dispersion_imag
_atom_type_scat_source
C C 0.0033 0.0016
;
International Tables for Crystallography
(1992, Vol. C, Tables 4.2.6.8 and 6.1.1.4)
;
H H 0.0000 0.0000
;
International Tables for Crystallography
(1992, Vol. C, Table 6.1.1.4)
;
N N 0.0061 0.0033
;
International Tables for Crystallography
(1992, Vol. C, Tables 4.2.6.8 and 6.1.1.4)
;
O O 0.0106 0.0060
;
International Tables for Crystallography
(1992, Vol. C, Tables 4.2.6.8 and 6.1.1.4)
;
F F 0.0171 0.0103
;
International Tables for Crystallography
(1992, Vol. C, Tables 4.2.6.8 and 6.1.1.4)
;
Ru Ru -1.2594 0.8363
;
International Tables for Crystallography
(1992, Vol. C, Tables 4.2.6.8 and 6.1.1.4)
;
Cl Cl 0.1484 0.1585
;
International Tables for Crystallography
(1992, Vol. C, Tables 4.2.6.8 and 6.1.1.4)
;

#==============================================================================
# ATOMIC COORDINATES AND THERMAL PARAMETERS

loop_
_atom_site_label
_atom_site_type_symbol
_atom_site_fract_x
_atom_site_fract_y
_atom_site_fract_z
_atom_site_U_iso_or_equiv
_atom_site_adp_type
_atom_site_occupancy
_atom_site_symmetry_multiplicity
_atom_site_calc_flag
_atom_site_refinement_flags
_atom_site_disorder_assembly
_atom_site_disorder_group
Ru(1) Ru 0.97441(9) 0.55017(4) 0.48209(4) 0.0265(3) Uani 1.0 4 d . . .
Ru(2) Ru 0.50782(9) 0.55222(4) 0.01164(4) 0.0221(3) Uani 1.0 4 d . . .
Cl(1) Cl 0.730(3) 0.2500 0.4295(10) 0.111(6) Uani 0.5000 2 d . . .
Cl(2) Cl 1.154(3) 0.2500 0.4088(10) 0.195(17) Uani 0.5000 2 d . . .
Cl(3) Cl 0.8321(15) 0.3284(5) 0.3300(5) 0.080(4) Uani 0.5000 4 d . . .
Cl(4) Cl 0.9333(19) 0.3162(8) 0.3098(8) 0.127(6) Uani 0.5000 4 d . . .
Cl(5) Cl 1.0052(12) 0.3220(6) 0.1870(6) 0.091(3) Uani 0.5000 4 d . . .
Cl(6) Cl 0.9978(13) 0.2955(5) 0.1141(7) 0.103(4) Uani 0.5000 4 d . . .
Cl(7) Cl 0.8530(7) 0.3285(4) 0.0341(4) 0.0484(16) Uani 0.5000 4 d . . .
Cl(8) Cl 0.6814(12) 0.2741(4) 0.0660(6) 0.086(3) Uani 0.5000 4 d . . .
Cl(9) Cl -0.3718(10) 0.6818(4) -0.1226(5) 0.072(3) Uani 0.5000 4 d . . .
Cl(10) Cl 1.139(3) 0.2500 0.3695(11) 0.136(10) Uani 0.5000 2 d . . .
Cl(11) Cl -0.430(3) 0.6848(14) -0.2714(14) 0.235(13) Uani 0.5000 4 d . . .
Cl(12) Cl 0.8418(19) 0.2500 0.4392(7) 0.079(4) Uani 0.5000 2 d . . .
F(1) F 0.5704(11) 0.3920(7) 0.4379(7) 0.122(4) Uani 1.0 4 d . . .
F(2) F 0.5154(12) 0.4847(7) 0.4295(8) 0.122(4) Uani 1.0 4 d . . .
F(3) F 0.5877(12) 0.4471(8) 0.3523(7) 0.125(4) Uani 1.0 4 d . . .
F(4) F 0.9292(9) 0.5421(5) 0.7216(4) 0.063(3) Uani 1.0 4 d . . .
F(5) F 0.7563(10) 0.5881(4) 0.6638(5) 0.067(3) Uani 1.0 4 d . . .
F(6) F 0.7496(9) 0.4908(4) 0.6812(5) 0.058(2) Uani 1.0 4 d . . .
F(7) F 0.1876(10) 0.5024(5) 0.1529(5) 0.069(3) Uani 1.0 4 d . . .
F(8) F 0.0587(9) 0.5316(4) 0.0643(5) 0.062(2) Uani 1.0 4 d . . .
F(9) F 0.0900(9) 0.4346(4) 0.0810(6) 0.068(3) Uani 1.0 4 d . . .
F(10) F 0.8711(17) 0.4706(8) 0.1727(7) 0.133(4) Uani 1.0 4 d . . .
F(11) F 0.7319(16) 0.4995(5) 0.2260(5) 0.118(4) Uani 1.0 4 d . . .
F(12) F 0.7348(15) 0.4049(5) 0.2015(5) 0.110(4) Uani 1.0 4 d . . .
F(13) F 0.7717(6) 0.6388(3) 0.3122(3) 0.0190(12) Uani 1.0 4 d . . .
F(14) F 0.6595(6) 0.6388(3) 0.1860(3) 0.0172(11) Uani 1.0 4 d . . .
O(1) O 0.7830(8) 0.5203(4) 0.4384(4) 0.0335(19) Uani 1.0 4 d . . .
O(2) O 0.8318(9) 0.4220(4) 0.4746(4) 0.0317(18) Uani 1.0 4 d . . .
O(3) O 0.8961(8) 0.5687(4) 0.5669(4) 0.0301(18) Uani 1.0 4 d . . .
O(4) O 0.9455(9) 0.4700(4) 0.6034(4) 0.0307(18) Uani 1.0 4 d . . .
O(5) O 0.3320(8) 0.5462(3) 0.0546(4) 0.0301(18) Uani 1.0 4 d . . .
O(6) O 0.3159(8) 0.4434(3) 0.0309(4) 0.0258(16) Uani 1.0 4 d . . .
O(7) O 0.6256(9) 0.5308(4) 0.1019(4) 0.0335(19) Uani 1.0 4 d . . .
O(8) O 0.6067(8) 0.4276(3) 0.0799(4) 0.0297(18) Uani 1.0 4 d . . .
N(1) N 0.9142(9) 0.6499(4) 0.4500(4) 0.0206(16) Uani 1.0 4 d . . .
N(2) N 0.5335(9) 0.6530(4) 0.0413(4) 0.0194(16) Uani 1.0 4 d . . .
C(1) C 0.7531(13) 0.4631(6) 0.4441(6) 0.039(3) Uani 1.0 4 d . . .
C(2) C 0.612(2) 0.4421(13) 0.4136(13) 0.105(4) Uani 1.0 4 d . . .
C(3) C 0.8963(12) 0.5230(5) 0.6068(6) 0.030(3) Uani 1.0 4 d . . .
C(4) C 0.8337(15) 0.5374(7) 0.6707(7) 0.048(3) Uani 1.0 4 d . . .
C(5) C 0.2797(12) 0.4925(6) 0.0550(6) 0.031(3) Uani 1.0 4 d . . .
C(6) C 0.1525(16) 0.4890(8) 0.0892(9) 0.058(3) Uani 1.0 4 d . . .
C(7) C 0.6474(14) 0.4745(5) 0.1151(6) 0.036(3) Uani 1.0 4 d . . .
C(8) C 0.732(3) 0.4602(10) 0.1811(10) 0.105(4) Uani 1.0 4 d . . .
C(9) C 0.8779(10) 0.6931(5) 0.4204(5) 0.0184(16) Uani 1.0 4 d . . .
C(10) C 0.8387(13) 0.7500 0.3841(7) 0.0160(18) Uani 1.0 2 d . . .
C(11) C 0.7800(12) 0.7500 0.3186(7) 0.0145(18) Uani 1.0 2 d . . .
C(12) C 0.7445(9) 0.6926(4) 0.2820(5) 0.0154(15) Uani 1.0 4 d . . .
C(13) C 0.6881(9) 0.6936(4) 0.2172(5) 0.0136(14) Uani 1.0 4 d . . .
C(14) C 0.6539(12) 0.7500 0.1790(6) 0.0126(18) Uani 1.0 2 d . . .
C(15) C 0.5968(13) 0.7500 0.1149(6) 0.0145(18) Uani 1.0 2 d . . .
C(16) C 0.5633(10) 0.6943(4) 0.0756(5) 0.0167(16) Uani 1.0 4 d . . .
C(17) C 0.5659(19) 0.7500 0.4579(11) 0.054(3) Uani 1.0 2 d . . .
C(18) C 0.5416(13) 0.8042(8) 0.4276(7) 0.050(3) Uani 1.0 4 d . . .
C(19) C 0.4838(12) 0.8082(7) 0.3582(7) 0.0412(18) Uani 1.0 4 d . . .
C(20) C 0.4558(12) 0.8644(6) 0.3234(7) 0.0404(19) Uani 1.0 4 d . . .
C(21) C 0.4003(11) 0.8647(6) 0.2608(7) 0.0373(18) Uani 1.0 4 d . . .
C(22) C 0.3674(11) 0.8072(6) 0.2231(6) 0.0318(17) Uani 1.0 4 d . . .
C(23) C 0.3966(14) 0.7500 0.2575(8) 0.030(2) Uani 1.0 2 d . . .
C(24) C 0.4549(15) 0.7500 0.3246(9) 0.034(2) Uani 1.0 2 d . . .
C(25) C 0.3073(11) 0.8056(6) 0.1554(7) 0.037(2) Uani 1.0 4 d . . .
C(26) C 0.2795(16) 0.7500 0.1228(10) 0.041(3) Uani 1.0 2 d . . .
C(27) C 0.1571(17) 0.7500 0.3743(10) 0.045(3) Uani 1.0 2 d . . .
C(28) C 0.1296(12) 0.8056(7) 0.3420(7) 0.042(2) Uani 1.0 4 d . . .
C(29) C 0.0671(11) 0.8079(6) 0.2740(7) 0.0354(17) Uani 1.0 4 d . . .
C(30) C 0.0331(12) 0.8653(6) 0.2398(7) 0.0400(19) Uani 1.0 4 d . . .
C(31) C -0.0227(12) 0.8650(7) 0.1754(7) 0.0424(19) Uani 1.0 4 d . . .
C(32) C -0.0518(12) 0.8075(7) 0.1382(7) 0.0410(18) Uani 1.0 4 d . . .
C(33) C -0.0228(15) 0.7500 0.1734(9) 0.034(2) Uani 1.0 2 d . . .
C(34) C 0.0368(14) 0.7500 0.2401(9) 0.031(2) Uani 1.0 2 d . . .
C(35) C -0.1102(13) 0.8040(8) 0.0713(8) 0.051(3) Uani 1.0 4 d . . .
C(36) C -0.1337(19) 0.7500 0.0401(11) 0.056(3) Uani 1.0 2 d . . .
C(37) C 0.939(5) 0.2828(11) 0.3901(15) 0.188(19) Uani 1.0 4 d . . .
C(38) C 0.894(3) 0.2500 0.1491(16) 0.110(12) Uani 1.0 2 d . . .
C(39) C 0.780(3) 0.2897(10) 0.0931(11) 0.025(5) Uiso 0.5000 4 d . . .
C(40) C -0.401(4) 0.616(4) -0.2102(18) 0.13(3) Uani 0.5000 4 d . . .
H(1) H 0.6027 0.7500 0.5038 0.0653 Uiso 1.0 2 calc R . .
H(2) H 0.5628 0.8416 0.4521 0.0595 Uiso 1.0 4 calc R . .
H(3) H 0.4775 0.9030 0.3457 0.0484 Uiso 1.0 4 calc R . .
H(4) H 0.3807 0.9037 0.2391 0.0447 Uiso 1.0 4 calc R . .
H(5) H 0.2860 0.8437 0.1322 0.0444 Uiso 1.0 4 calc R . .
H(6) H 0.2406 0.7500 0.0771 0.0486 Uiso 1.0 2 calc R . .
H(7) H 0.1960 0.7500 0.4199 0.0540 Uiso 1.0 2 calc R . .
H(8) H 0.1526 0.8436 0.3653 0.0499 Uiso 1.0 4 calc R . .
H(9) H 0.0501 0.9039 0.2627 0.0480 Uiso 1.0 4 calc R . .
H(10) H -0.0438 0.9038 0.1535 0.0509 Uiso 1.0 4 calc R . .
H(11) H -0.1336 0.8417 0.0474 0.0615 Uiso 1.0 4 calc R . .
H(12) H -0.1685 0.7500 -0.0060 0.0666 Uiso 1.0 2 calc R . .


loop_
_atom_site_aniso_label
_atom_site_aniso_U_11
_atom_site_aniso_U_22
_atom_site_aniso_U_33
_atom_site_aniso_U_12
_atom_site_aniso_U_13
_atom_site_aniso_U_23
Ru(1) 0.0358(6) 0.0174(5) 0.0233(5) -0.0009(4) -0.0043(4) 0.0077(4)
Ru(2) 0.0341(5) 0.0108(5) 0.0200(5) 0.0021(4) 0.0008(4) -0.0048(3)
Cl(1) 0.18(2) 0.059(10) 0.100(13) 0.0000 0.032(15) 0.0000
Cl(2) 0.17(3) 0.37(5) 0.055(11) 0.0000 0.030(14) 0.0000
Cl(3) 0.130(10) 0.049(5) 0.049(5) 0.012(6) -0.017(6) 0.006(4)
Cl(4) 0.159(14) 0.096(10) 0.101(10) -0.054(10) -0.051(10) 0.047(8)
Cl(5) 0.088(7) 0.090(8) 0.095(7) -0.016(6) 0.011(6) -0.022(6)
Cl(6) 0.102(8) 0.070(7) 0.147(11) -0.019(6) 0.043(8) -0.002(7)
Cl(7) 0.051(4) 0.047(4) 0.048(4) -0.012(3) 0.013(3) -0.002(3)
Cl(8) 0.109(8) 0.049(5) 0.101(7) 0.038(5) 0.016(6) 0.008(5)
Cl(9) 0.086(6) 0.056(5) 0.075(6) -0.007(5) 0.012(5) 0.026(5)
Cl(10) 0.21(3) 0.068(11) 0.102(15) 0.0000 -0.058(17) 0.0000
Cl(11) 0.19(2) 0.27(3) 0.24(3) -0.031(19) 0.015(19) -0.17(3)
Cl(12) 0.103(12) 0.073(10) 0.063(8) 0.0000 0.019(9) 0.0000
F(1) 0.061(6) 0.118(8) 0.165(9) -0.047(6) -0.044(6) 0.055(7)
F(2) 0.058(6) 0.129(8) 0.166(9) -0.025(6) -0.021(7) 0.011(8)
F(3) 0.072(6) 0.178(10) 0.109(7) -0.060(7) -0.037(6) 0.019(7)
F(4) 0.054(5) 0.093(6) 0.040(4) -0.004(4) 0.003(4) -0.005(5)
F(5) 0.091(6) 0.052(5) 0.066(5) 0.031(5) 0.032(5) 0.025(4)
F(6) 0.060(5) 0.053(5) 0.067(5) -0.003(4) 0.032(4) 0.005(4)
F(7) 0.070(6) 0.085(6) 0.059(5) -0.011(5) 0.032(4) 0.001(5)
F(8) 0.048(5) 0.054(5) 0.089(6) 0.013(4) 0.029(4) -0.010(5)
F(9) 0.062(5) 0.045(4) 0.108(6) -0.009(4) 0.047(5) -0.009(5)
F(10) 0.147(9) 0.126(9) 0.100(7) -0.012(7) -0.054(7) 0.029(7)
F(11) 0.205(10) 0.065(6) 0.055(6) 0.026(7) -0.061(6) -0.004(5)
F(12) 0.184(9) 0.040(5) 0.074(6) -0.010(6) -0.072(7) 0.024(5)
F(13) 0.021(3) 0.010(3) 0.024(3) 0.000(2) 0.000(3) 0.003(3)
F(14) 0.021(3) 0.003(3) 0.026(3) 0.001(2) 0.001(3) -0.003(2)
O(1) 0.043(5) 0.020(4) 0.033(5) 0.007(4) -0.010(4) 0.009(4)
O(2) 0.048(5) 0.010(4) 0.033(5) -0.004(4) -0.002(4) 0.006(4)
O(3) 0.047(5) 0.018(4) 0.024(4) 0.003(4) 0.002(4) 0.008(4)
O(4) 0.047(5) 0.010(4) 0.034(5) 0.007(4) 0.005(4) 0.005(3)
O(5) 0.045(5) 0.006(4) 0.041(5) 0.002(3) 0.015(4) -0.006(3)
O(6) 0.033(4) 0.009(4) 0.036(5) -0.000(3) 0.010(4) -0.004(3)
O(7) 0.057(6) 0.012(4) 0.028(4) -0.005(4) -0.005(4) -0.005(4)
O(8) 0.047(5) 0.005(4) 0.036(5) 0.001(3) 0.004(4) 0.007(3)
N(1) 0.026(4) 0.015(4) 0.020(4) -0.002(3) 0.001(3) -0.001(3)
N(2) 0.025(4) 0.011(4) 0.021(4) 0.005(3) 0.000(3) -0.005(3)
C(1) 0.046(7) 0.026(7) 0.039(7) -0.006(6) -0.008(6) 0.011(6)
C(2) 0.045(6) 0.125(9) 0.128(8) -0.037(6) -0.033(7) 0.039(8)
C(3) 0.039(7) 0.022(6) 0.028(6) 0.000(5) 0.002(5) 0.006(5)
C(4) 0.055(6) 0.047(5) 0.044(5) 0.010(4) 0.017(5) 0.016(5)
C(5) 0.033(6) 0.028(7) 0.033(6) 0.001(5) 0.011(5) -0.003(5)
C(6) 0.056(6) 0.048(5) 0.075(6) -0.000(5) 0.030(5) -0.007(5)
C(7) 0.053(8) 0.013(6) 0.041(7) 0.007(5) 0.004(6) 0.003(5)
C(8) 0.164(9) 0.058(6) 0.068(6) -0.009(7) -0.059(7) 0.011(5)
C(9) 0.020(4) 0.014(4) 0.021(4) -0.001(3) 0.003(3) 0.002(3)
C(10) 0.017(4) 0.011(4) 0.021(4) 0.0000 0.004(4) 0.0000
C(11) 0.013(4) 0.010(4) 0.021(4) 0.0000 0.006(4) 0.0000
C(12) 0.014(3) 0.010(3) 0.023(3) -0.001(3) 0.006(3) 0.002(3)
C(13) 0.015(3) 0.006(3) 0.021(3) -0.000(3) 0.006(3) -0.000(3)
C(14) 0.014(4) 0.005(4) 0.020(4) 0.0000 0.008(4) 0.0000
C(15) 0.017(4) 0.006(4) 0.021(4) 0.0000 0.005(4) 0.0000
C(16) 0.021(4) 0.009(4) 0.020(4) 0.004(3) 0.003(3) -0.000(3)
C(17) 0.031(6) 0.081(7) 0.054(6) 0.0000 0.017(6) 0.0000
C(18) 0.027(4) 0.071(6) 0.053(5) 0.002(4) 0.016(4) -0.012(4)
C(19) 0.022(4) 0.053(4) 0.053(4) 0.001(3) 0.016(4) -0.011(3)
C(20) 0.022(4) 0.041(4) 0.062(4) 0.003(4) 0.019(4) -0.014(4)
C(21) 0.020(4) 0.033(4) 0.063(4) 0.004(4) 0.019(4) -0.004(4)
C(22) 0.014(3) 0.032(4) 0.052(4) 0.003(3) 0.016(3) 0.001(3)
C(23) 0.013(4) 0.032(4) 0.048(5) 0.0000 0.015(4) 0.0000
C(24) 0.016(4) 0.042(5) 0.049(5) 0.0000 0.016(4) 0.0000
C(25) 0.016(4) 0.046(5) 0.052(5) 0.004(3) 0.014(4) 0.009(3)
C(26) 0.018(5) 0.055(6) 0.050(6) 0.0000 0.013(5) 0.0000
C(27) 0.021(5) 0.063(7) 0.054(6) 0.0000 0.015(5) 0.0000
C(28) 0.020(4) 0.053(5) 0.055(5) -0.003(4) 0.016(4) -0.008(4)
C(29) 0.018(4) 0.038(4) 0.055(4) -0.002(3) 0.018(3) -0.004(3)
C(30) 0.022(4) 0.036(4) 0.066(5) -0.001(4) 0.021(4) 0.001(4)
C(31) 0.023(4) 0.044(4) 0.066(5) 0.001(4) 0.023(4) 0.011(4)
C(32) 0.021(4) 0.052(4) 0.055(4) 0.000(3) 0.020(4) 0.010(3)
C(33) 0.016(4) 0.043(5) 0.048(5) 0.0000 0.018(4) 0.0000
C(34) 0.015(4) 0.035(5) 0.048(5) 0.0000 0.017(4) 0.0000
C(35) 0.029(5) 0.071(6) 0.058(5) 0.001(4) 0.018(4) 0.012(4)
C(36) 0.032(6) 0.081(7) 0.058(7) 0.0000 0.018(6) 0.0000
C(37) 0.32(5) 0.049(13) 0.15(3) -0.02(2) -0.11(3) 0.024(15)
C(38) 0.09(3) 0.16(4) 0.09(3) 0.0000 0.046(19) 0.0000
C(40) 0.035(18) 0.30(8) 0.046(19) 0.03(3) 0.003(15) -0.02(4)

#==============================================================================
_computing_data_collection       'CrystalClear (Rigaku Inc., 2008)'
_computing_cell_refinement       CrystalClear
_computing_data_reduction        CrystalClear
_computing_structure_solution    'SHELXS97 (Sheldrick, 2008)'
_computing_structure_refinement  'SHELXL97 (Sheldrick, 2008)'
_computing_publication_material  'CrystalStructure 4.0 (Rigaku, 2010)'
_computing_molecular_graphics    'CrystalStructure 4.0'

#==============================================================================
# MOLECULAR GEOMETRY

_geom_special_details            
;
    ENTER SPECIAL DETAILS OF THE MOLECULAR GEOMETRY
;

loop_
_geom_bond_atom_site_label_1
_geom_bond_atom_site_label_2
_geom_bond_distance
_geom_bond_publ_flag
_geom_bond_site_symmetry_1
_geom_bond_site_symmetry_2
Ru(1) Ru(1) 2.2971(14) yes . 3_766
Ru(1) O(1) 2.059(8) yes . .
Ru(1) O(2) 2.064(8) yes . 3_766
Ru(1) O(3) 2.051(8) yes . .
Ru(1) O(4) 2.079(9) yes . 3_766
Ru(1) N(1) 2.281(9) yes . .
Ru(2) Ru(2) 2.2837(14) yes . 3_665
Ru(2) O(5) 2.077(9) yes . .
Ru(2) O(6) 2.076(8) yes . 3_665
Ru(2) O(7) 2.067(8) yes . .
Ru(2) O(8) 2.070(8) yes . 3_665
Ru(2) N(2) 2.243(8) yes . .
Cl(1) C(37) 2.44(6) yes . .
Cl(1) C(37) 2.44(6) yes . 4_555
Cl(2) C(37) 2.21(5) yes . .
Cl(2) C(37) 2.21(5) yes . 4_555
Cl(3) Cl(4) 1.17(3) yes . .
Cl(