####################################################################### 
# 
# This file contains crystal structure data downloaded from the 
# Cambridge Structural Database (CSD) hosted by the Cambridge 
# Crystallographic Data Centre (CCDC).
# 
# Full information about CCDC data access policies and citation 
# guidelines are available at http://www.ccdc.cam.ac.uk/access/V1 
# 
# Audit and citation data items may have been added by the CCDC. 
# Please retain this information to preserve the provenance of 
# this file and to allow appropriate attribution of the data. 
# 
#######################################################################

data_1
_audit_block_doi                 10.5517/cc10y9qz
_database_code_depnum_ccdc_archive 'CCDC 951691'
loop_
_citation_id
_citation_doi
_citation_year
1 10.1039/C3CE41805G 2014
_audit_update_record             
;
2013-07-22 deposited with the CCDC.	2024-07-12 downloaded from the CCDC.
;

_audit_creation_method           
;
  Olex2 1.2
  (compiled Apr 23 2013 17:54:37, GUI svn.r4466)
;

_chemical_name_common            ?
_chemical_name_systematic        
;
 ? 
;
_chemical_formula_moiety         'C61 H53 Co2 N7 O19'
_chemical_formula_sum            'C61 H53 Co2 N7 O19'
_chemical_formula_weight         1305.96

loop_
_atom_type_symbol
_atom_type_description
_atom_type_scat_dispersion_real
_atom_type_scat_dispersion_imag
_atom_type_scat_source
C C 0.0033 0.0016 'International Tables Vol C Tables 4.2.6.8 and 6.1.1.4'
H H 0.0000 0.0000 'International Tables Vol C Tables 4.2.6.8 and 6.1.1.4'
O O 0.0106 0.0060 'International Tables Vol C Tables 4.2.6.8 and 6.1.1.4'
N N 0.0061 0.0033 'International Tables Vol C Tables 4.2.6.8 and 6.1.1.4'
Co Co 0.3494 0.9721 'International Tables Vol C Tables 4.2.6.8 and 6.1.1.4'

_space_group_crystal_system      triclinic
_space_group_IT_number           2
_space_group_name_H-M_alt        'P -1'
_space_group_name_Hall           '-P 1'
loop_
_space_group_symop_id
_space_group_symop_operation_xyz
1 'x, y, z'
2 '-x, -y, -z'

_cell_length_a                   11.4985(3)
_cell_length_b                   21.2760(6)
_cell_length_c                   21.4387(6)
_cell_angle_alpha                77.071(2)
_cell_angle_beta                 80.672(2)
_cell_angle_gamma                88.411(2)
_cell_volume                     5044.0(2)
_cell_formula_units_Z            2
_cell_measurement_reflns_used    16822
_cell_measurement_temperature    293(2)
_cell_measurement_theta_max      29.0905
_cell_measurement_theta_min      2.3786
_exptl_absorpt_coefficient_mu    0.377
_exptl_absorpt_correction_T_max  1.00000
_exptl_absorpt_correction_T_min  0.82333
_exptl_absorpt_correction_type   multi-scan
_exptl_absorpt_process_details   
;
CrysAlisPro, Oxford Diffraction Ltd.,
Version 1.171.33.52 (release 06-11-2009 CrysAlis171 .NET)
(compiled Nov  6 2009,16:24:50)
Empirical absorption correction using spherical harmonics,
 implemented in SCALE3 ABSPACK scaling algorithm.
;
_exptl_crystal_colour            red
_exptl_crystal_density_diffrn    0.860
_exptl_crystal_density_meas      ?
_exptl_crystal_density_method    'not measured'
_exptl_crystal_description       block
_exptl_crystal_F_000             1348
_exptl_crystal_size_max          0.2
_exptl_crystal_size_mid          0.15
_exptl_crystal_size_min          0.1
_exptl_special_details           
;
 ? 
;
_diffrn_reflns_av_R_equivalents  0.0304
_diffrn_reflns_av_unetI/netI     0.0613
_diffrn_reflns_limit_h_max       13
_diffrn_reflns_limit_h_min       -13
_diffrn_reflns_limit_k_max       22
_diffrn_reflns_limit_k_min       -25
_diffrn_reflns_limit_l_max       25
_diffrn_reflns_limit_l_min       -20
_diffrn_reflns_number            33967
_diffrn_reflns_theta_full        25.01
_diffrn_reflns_theta_max         25.01
_diffrn_reflns_theta_min         2.39
_diffrn_ambient_temperature      293(2)
_diffrn_detector_area_resol_mean 16.2116
_diffrn_measured_fraction_theta_full 0.998
_diffrn_measured_fraction_theta_max 0.998
_diffrn_measurement_details      
;
#__ type_ start__ end____ width___ exp.time_
  1 omega  -48.00  -18.75   0.7500    8.0000
omega____ theta____ kappa____ phi______ frames
    -       18.1935  -77.0000 -120.0000 39

#__ type_ start__ end____ width___ exp.time_
  2 omega  -48.00  -21.00   0.7500    8.0000
omega____ theta____ kappa____ phi______ frames
    -       18.1935  -77.0000 -150.0000 36

#__ type_ start__ end____ width___ exp.time_
  3 omega  -12.00   81.00   0.7500    8.0000
omega____ theta____ kappa____ phi______ frames
    -       18.1935   77.0000   90.0000 124

#__ type_ start__ end____ width___ exp.time_
  4 omega   10.00   70.00   0.7500    8.0000
omega____ theta____ kappa____ phi______ frames
    -       18.1935   77.0000  150.0000 80

#__ type_ start__ end____ width___ exp.time_
  5 omega    3.00   83.25   0.7500    8.0000
omega____ theta____ kappa____ phi______ frames
    -       18.1935   77.0000 -120.0000 107

#__ type_ start__ end____ width___ exp.time_
  6 omega  -50.00   43.75   0.7500    8.0000
omega____ theta____ kappa____ phi______ frames
    -       18.1935  -77.0000  -30.0000 125
;
_diffrn_measurement_device_type  'SuperNova, Single source at offset), Eos'
_diffrn_measurement_method       '\w scans'
_diffrn_orient_matrix_UB_11      -0.0344318350
_diffrn_orient_matrix_UB_12      -0.0265811112
_diffrn_orient_matrix_UB_13      0.0195657706
_diffrn_orient_matrix_UB_21      -0.0513252951
_diffrn_orient_matrix_UB_22      0.0142566875
_diffrn_orient_matrix_UB_23      -0.0115758390
_diffrn_orient_matrix_UB_31      0.0100034941
_diffrn_orient_matrix_UB_32      -0.0162219219
_diffrn_orient_matrix_UB_33      -0.0259238420
_diffrn_radiation_monochromator  mirror
_diffrn_radiation_type           'Mo K\a'
_diffrn_radiation_wavelength     0.7107
_diffrn_source                   'SuperNova (Mo) X-ray Source'
_diffrn_standards_decay_%        .
_diffrn_standards_interval_count .
_diffrn_standards_interval_time  .
_diffrn_standards_number         .
_reflns_number_gt                12041
_reflns_number_total             17764
_reflns_odcompleteness_completeness 99.88
_reflns_odcompleteness_iscentric 1
_reflns_odcompleteness_theta     26.32
_reflns_threshold_expression     >2sigma(I)
_computing_cell_refinement       
;
CrysAlisPro, Oxford Diffraction Ltd.,
Version 1.171.33.52 (release 06-11-2009 CrysAlis171 .NET)
(compiled Nov  6 2009,16:24:50)
;
_computing_data_collection       
;
CrysAlisPro, Oxford Diffraction Ltd.,
Version 1.171.33.52 (release 06-11-2009 CrysAlis171 .NET)
(compiled Nov  6 2009,16:24:50)
;
_computing_data_reduction        
;
CrysAlisPro, Oxford Diffraction Ltd.,
Version 1.171.33.52 (release 06-11-2009 CrysAlis171 .NET)
(compiled Nov  6 2009,16:24:50)
;
_computing_molecular_graphics    
;
O. V. Dolomanov, L. J. Bourhis, R. J. Gildea, J. A. K. Howard and H. Puschmann,
OLEX2: a complete structure solution, refinement and analysis program.
J. Appl. Cryst. (2009). 42, 339-341.
;
_computing_publication_material  
;
O. V. Dolomanov, L. J. Bourhis, R. J. Gildea, J. A. K. Howard and H. Puschmann,
OLEX2: a complete structure solution, refinement and analysis program.
J. Appl. Cryst. (2009). 42, 339-341.
;
_computing_structure_refinement  
;
XL, G.M. Sheldrick, Acta Cryst.
(2008). A64, 112-122
;
_computing_structure_solution    'SHELXS-97 (Sheldrick, 1990)'
_refine_diff_density_max         1.436
_refine_diff_density_min         -0.592
_refine_diff_density_rms         0.076
_refine_ls_extinction_coef       ?
_refine_ls_extinction_method     none
_refine_ls_goodness_of_fit_ref   0.922
_refine_ls_hydrogen_treatment    mixed
_refine_ls_matrix_type           full
_refine_ls_number_parameters     808
_refine_ls_number_reflns         17764
_refine_ls_number_restraints     0
_refine_ls_R_factor_all          0.0756
_refine_ls_R_factor_gt           0.0565
_refine_ls_restrained_S_all      0.922
_refine_ls_shift/su_max          0.139
_refine_ls_shift/su_mean         0.002
_refine_ls_structure_factor_coef Fsqd
_refine_ls_weighting_details     
'calc w=1/[\s^2^(Fo^2^)+(0.1290P)^2^+0.0000P] where P=(Fo^2^+2Fc^2^)/3'
_refine_ls_weighting_scheme      calc
_refine_ls_wR_factor_gt          0.1683
_refine_ls_wR_factor_ref         0.1788
_refine_special_details          
;
 Refinement of F^2^ against ALL reflections.  The weighted R-factor wR and 
 goodness of fit S are based on F^2^, conventional R-factors R are based 
 on F, with F set to zero for negative F^2^. The threshold expression of 
 F^2^ > 2sigma(F^2^) is used only for calculating R-factors(gt) etc. and is 
 not relevant to the choice of reflections for refinement.  R-factors based 
 on F^2^ are statistically about twice as large as those based on F, and R- 
 factors based on ALL data will be even larger. 
;
_olex2_refinement_description    
;
1. Fixed Uiso
 At 1.2 times of:
  All C(H) groups
 At 1.5 times of:
  All C(H,H,H) groups
2.a Ternary CH refined with riding coordinates:
 C9(H9), C10(H10), C11(H11), C14(H14), C15(H15), C16(H16), C35(H35), C36(H36),
 C37(H37), C40(H40), C41(H41), C42(H42)
2.b Aromatic/amide H refined with riding coordinates:
 C3(H3), C4(H4), C6(H6), C7(H7), C18(H18), C19(H19), C22(H22), C23(H23),
 C25(H25), C26(H26), C29(H29), C30(H30), C32(H32), C33(H33), C44(H44), C45(H45),
  C48(H48), C49(H49), C51(H51), C52(H52), C53(H53), C56(H56), C59(H59)
2.c Idealised Me refined as rotating group:
 C54(H54A,H54B,H54C), C55(H55A,H55B,H55C), C57(H57A,H57B,H57C), C58(H58A,H58B,
 H58C), C60(H60A,H60B,H60C), C61(H61A,H61B,H61C)
;
_atom_sites_solution_hydrogens   geom
_atom_sites_solution_primary     direct
_atom_sites_solution_secondary   difmap
loop_
_atom_site_label
_atom_site_type_symbol
_atom_site_fract_x
_atom_site_fract_y
_atom_site_fract_z
_atom_site_U_iso_or_equiv
_atom_site_adp_type
_atom_site_occupancy
_atom_site_symmetry_multiplicity
_atom_site_calc_flag
_atom_site_refinement_flags
_atom_site_disorder_assembly
_atom_site_disorder_group
Co2 Co 0.91113(3) 0.20514(2) 0.201017(18) 0.02573(12) Uani 1 1 d . . .
Co1 Co 0.67040(3) 0.112056(18) 0.255535(18) 0.02126(12) Uani 1 1 d . . .
C1 C 0.6621(3) 0.25028(15) 0.25152(15) 0.0296(7) Uani 1 1 d . . .
C2 C 0.5991(3) 0.30561(15) 0.27348(15) 0.0332(7) Uani 1 1 d . . .
C3 C 0.6511(4) 0.36643(17) 0.25832(19) 0.0506(10) Uani 1 1 d . . .
H3 H 0.7238 0.3737 0.2315 0.061 Uiso 1 1 calc R . .
C4 C 0.5946(4) 0.41680(18) 0.2833(2) 0.0590(12) Uani 1 1 d . . .
H4 H 0.6286 0.4578 0.2725 0.071 Uiso 1 1 calc R . .
C5 C 0.4877(3) 0.40483(17) 0.32414(18) 0.0451(9) Uani 1 1 d . . .
C6 C 0.4356(3) 0.34609(17) 0.33777(19) 0.0462(9) Uani 1 1 d . . .
H6 H 0.3626 0.3391 0.3643 0.055 Uiso 1 1 calc R . .
C7 C 0.4894(3) 0.29661(17) 0.31269(17) 0.0422(9) Uani 1 1 d . . .
H7 H 0.4520 0.2566 0.3221 0.051 Uiso 1 1 calc R . .
C8 C 0.3342(4) 0.48878(18) 0.3376(2) 0.0509(10) Uani 1 1 d . . .
C9 C 0.3079(4) 0.53659(17) 0.38024(19) 0.0491(10) Uani 1 1 d . . .
H9 H 0.2296 0.5279 0.4065 0.059 Uiso 1 1 calc R . .
C10 C 0.3151(3) 0.60686(16) 0.34058(17) 0.0426(9) Uani 1 1 d . . .
H10 H 0.2587 0.6148 0.3101 0.051 Uiso 1 1 calc R . .
C11 C 0.2923(3) 0.65063(16) 0.38940(17) 0.0404(8) Uani 1 1 d . . .
H11 H 0.2133 0.6426 0.4149 0.048 Uiso 1 1 calc R . .
C12 C 0.3075(3) 0.72082(16) 0.35544(17) 0.0397(8) Uani 1 1 d . . .
C13 C 0.4473(4) 0.70236(16) 0.42565(18) 0.0437(9) Uani 1 1 d . . .
C14 C 0.3862(3) 0.63863(16) 0.43408(16) 0.0434(9) Uani 1 1 d . . .
H14 H 0.3484 0.6238 0.4792 0.052 Uiso 1 1 calc R . .
C15 C 0.4741(3) 0.58745(15) 0.41460(16) 0.0394(8) Uani 1 1 d . . .
H15 H 0.5376 0.5808 0.4408 0.047 Uiso 1 1 calc R . .
C16 C 0.4025(4) 0.52599(16) 0.42442(17) 0.0453(9) Uani 1 1 d . . .
H16 H 0.3656 0.5123 0.4699 0.054 Uiso 1 1 calc R . .
C17 C 0.4789(4) 0.47278(17) 0.40427(18) 0.0493(10) Uani 1 1 d . . .
C18 C 0.5219(3) 0.61022(17) 0.34332(16) 0.0407(8) Uani 1 1 d . . .
H18 H 0.6018 0.6171 0.3274 0.049 Uiso 1 1 calc R . .
C19 C 0.4405(3) 0.61933(17) 0.30599(17) 0.0442(9) Uani 1 1 d . . .
H19 H 0.4587 0.6326 0.2611 0.053 Uiso 1 1 calc R . .
C20 C 0.5909(3) 1.00004(15) 0.28602(14) 0.0255(7) Uani 1 1 d . . .
C21 C 0.5388(3) 0.93426(15) 0.30762(15) 0.0280(7) Uani 1 1 d . . .
C22 C 0.4189(3) 0.92540(14) 0.33316(14) 0.0288(7) Uani 1 1 d . . .
H22 H 0.3705 0.9610 0.3348 0.035 Uiso 1 1 calc R . .
C23 C 0.3724(3) 0.86381(15) 0.35593(16) 0.0330(7) Uani 1 1 d . . .
H23 H 0.2929 0.8581 0.3734 0.040 Uiso 1 1 calc R . .
C24 C 0.4421(3) 0.81126(15) 0.35306(17) 0.0377(8) Uani 1 1 d . . .
C25 C 0.5602(3) 0.81903(18) 0.3258(2) 0.0520(10) Uani 1 1 d . . .
H25 H 0.6072 0.7833 0.3221 0.062 Uiso 1 1 calc R . .
C26 C 0.6068(3) 0.88051(17) 0.30444(19) 0.0462(9) Uani 1 1 d . . .
H26 H 0.6865 0.8858 0.2874 0.055 Uiso 1 1 calc R . .
C27 C 0.7514(3) 0.12829(14) 0.13723(14) 0.0263(7) Uani 1 1 d . . .
C28 C 0.8066(3) 0.12214(15) 0.07091(14) 0.0276(7) Uani 1 1 d . . .
C29 C 0.9284(3) 0.11463(15) 0.05524(14) 0.0284(7) Uani 1 1 d . . .
H29 H 0.9775 0.1193 0.0844 0.034 Uiso 1 1 calc R . .
C30 C 0.9763(3) 0.10033(16) -0.00326(14) 0.0306(7) Uani 1 1 d . . .
H30 H 1.0571 0.0949 -0.0137 0.037 Uiso 1 1 calc R . .
C31 C 0.9012(3) 0.09419(16) -0.04594(14) 0.0312(7) Uani 1 1 d . . .
C32 C 0.7841(3) 0.10385(17) -0.03336(15) 0.0370(8) Uani 1 1 d . . .
H32 H 0.7363 0.1012 -0.0638 0.044 Uiso 1 1 calc R . .
C33 C 0.7352(3) 0.11795(17) 0.02621(15) 0.0349(8) Uani 1 1 d . . .
H33 H 0.6545 0.1245 0.0356 0.042 Uiso 1 1 calc R . .
C34 C 0.9064(3) 0.01804(17) -0.11916(15) 0.0334(7) Uani 1 1 d . . .
C35 C 0.9743(3) 0.01081(16) -0.18333(14) 0.0309(7) Uani 1 1 d . . .
H35 H 1.0166 -0.0302 -0.1774 0.037 Uiso 1 1 calc R . .
C36 C 0.8940(3) 0.01318(15) -0.23416(14) 0.0278(7) Uani 1 1 d . . .
H36 H 0.8321 -0.0201 -0.2198 0.033 Uiso 1 1 calc R . .
C37 C 0.9766(3) 0.00389(15) -0.29556(14) 0.0295(7) Uani 1 1 d . . .
H37 H 1.0163 -0.0378 -0.2865 0.035 Uiso 1 1 calc R . .
C38 C 0.9123(3) 0.00799(16) -0.35225(14) 0.0289(7) Uani 1 1 d . . .
C39 C 1.0536(3) 0.09066(17) -0.38512(14) 0.0329(8) Uani 1 1 d . . .
C40 C 1.0687(3) 0.05866(16) -0.31701(14) 0.0291(7) Uani 1 1 d . . .
H40 H 1.1481 0.0408 -0.3167 0.035 Uiso 1 1 calc R . .
C41 C 1.0471(3) 0.10583(16) -0.27191(14) 0.0293(7) Uani 1 1 d . . .
H41 H 1.1024 0.1424 -0.2864 0.035 Uiso 1 1 calc R . .
C42 C 1.0629(3) 0.06631(16) -0.20395(14) 0.0312(7) Uani 1 1 d . . .
H42 H 1.1432 0.0495 -0.2050 0.037 Uiso 1 1 calc R . .
C43 C 1.0366(3) 0.10475(17) -0.15293(15) 0.0334(8) Uani 1 1 d . . .
C44 C 0.9218(3) 0.12799(16) -0.26924(14) 0.0324(7) Uani 1 1 d . . .
H44 H 0.9011 0.1711 -0.2807 0.039 Uiso 1 1 calc R . .
C45 C 0.8432(3) 0.08026(16) -0.24904(14) 0.0306(7) Uani 1 1 d . . .
H45 H 0.7624 0.0875 -0.2444 0.037 Uiso 1 1 calc R . .
C46 C 0.8418(3) 0.12169(15) -0.65896(14) 0.0272(7) Uani 1 1 d . . .
C47 C 0.8764(3) 0.10356(15) -0.59273(14) 0.0268(7) Uani 1 1 d . . .
C48 C 0.9890(3) 0.11473(17) -0.58214(14) 0.0347(8) Uani 1 1 d . . .
H48 H 1.0457 0.1332 -0.6171 0.042 Uiso 1 1 calc R . .
C49 C 1.0183(3) 0.09920(18) -0.52153(15) 0.0373(8) Uani 1 1 d . . .
H49 H 1.0947 0.1068 -0.5157 0.045 Uiso 1 1 calc R . .
C50 C 0.9350(3) 0.07197(15) -0.46824(14) 0.0280(7) Uani 1 1 d . . .
C51 C 0.8240(3) 0.0600(2) -0.47809(16) 0.0483(10) Uani 1 1 d . . .
H51 H 0.7673 0.0418 -0.4430 0.058 Uiso 1 1 calc R . .
C52 C 0.7957(3) 0.07492(19) -0.53946(16) 0.0442(9) Uani 1 1 d . . .
H52 H 0.7203 0.0655 -0.5454 0.053 Uiso 1 1 calc R . .
C53 C 1.0054(4) 0.2645(2) 0.0642(2) 0.0647(12) Uani 1 1 d . . .
H53 H 1.0776 0.2618 0.0788 0.078 Uiso 1 1 calc R . .
C54 C 0.9013(7) 0.2826(3) -0.0256(3) 0.131(3) Uani 1 1 d . . .
H54A H 0.8702 0.2400 -0.0201 0.197 Uiso 1 1 calc R . .
H54B H 0.9168 0.3028 -0.0710 0.197 Uiso 1 1 calc R . .
H54C H 0.8451 0.3076 -0.0035 0.197 Uiso 1 1 calc R . .
C55 C 1.1104(8) 0.2846(5) -0.0464(4) 0.180(4) Uani 1 1 d . . .
H55A H 1.1559 0.2460 -0.0377 0.270 Uiso 1 1 calc R . .
H55B H 1.1562 0.3208 -0.0442 0.270 Uiso 1 1 calc R . .
H55C H 1.0897 0.2907 -0.0890 0.270 Uiso 1 1 calc R . .
C56 C 1.1519(3) 0.15698(17) 0.20514(17) 0.0402(8) Uani 1 1 d . . .
H56 H 1.1319 0.1599 0.2482 0.048 Uiso 1 1 calc R . .
C57 C 1.2990(4) 0.1441(3) 0.1176(3) 0.0821(16) Uani 1 1 d . . .
H57A H 1.2321 0.1493 0.0953 0.123 Uiso 1 1 calc R . .
H57B H 1.3330 0.1025 0.1170 0.123 Uiso 1 1 calc R . .
H57C H 1.3565 0.1771 0.0964 0.123 Uiso 1 1 calc R . .
C58 C 1.3481(4) 0.1448(4) 0.2294(3) 0.115(2) Uani 1 1 d . . .
H58A H 1.3070 0.1449 0.2720 0.172 Uiso 1 1 calc R . .
H58B H 1.4014 0.1809 0.2150 0.172 Uiso 1 1 calc R . .
H58C H 1.3918 0.1055 0.2304 0.172 Uiso 1 1 calc R . .
C59 C 1.0144(6) 0.2866(3) 0.2710(4) 0.112(2) Uani 1 1 d . . .
H59 H 0.9484 0.2715 0.3014 0.134 Uiso 1 1 calc R . .
C60 C 1.0951(9) 0.3260(5) 0.3576(4) 0.179(4) Uani 1 1 d . . .
H60A H 1.0811 0.3702 0.3597 0.269 Uiso 1 1 calc R . .
H60B H 1.1703 0.3132 0.3699 0.269 Uiso 1 1 calc R . .
H60C H 1.0343 0.2992 0.3865 0.269 Uiso 1 1 calc R . .
C61 C 1.2061(6) 0.3367(4) 0.2444(4) 0.131(3) Uani 1 1 d . . .
H61A H 1.2469 0.2982 0.2375 0.197 Uiso 1 1 calc R . .
H61B H 1.2551 0.3619 0.2620 0.197 Uiso 1 1 calc R . .
H61C H 1.1883 0.3615 0.2039 0.197 Uiso 1 1 calc R . .
N1 N 0.4369(3) 0.45454(14) 0.35352(15) 0.0500(8) Uani 1 1 d . . .
N2 N 0.3975(3) 0.74710(13) 0.37734(14) 0.0415(7) Uani 1 1 d . . .
N3 N 0.9485(2) 0.07308(13) -0.10505(12) 0.0311(6) Uani 1 1 d . . .
N4 N 0.9663(2) 0.05605(12) -0.40490(11) 0.0277(6) Uani 1 1 d . . .
N5 N 1.0944(6) 0.3189(4) 0.2907(3) 0.140(2) Uani 1 1 d . . .
N6 N 1.2618(2) 0.14930(17) 0.18390(16) 0.0543(9) Uani 1 1 d . . .
N7 N 1.0064(5) 0.2789(2) 0.0002(2) 0.0924(15) Uani 1 1 d . . .
O1 O 0.69783(18) 1.00648(10) 0.26040(11) 0.0347(5) Uani 1 1 d . . .
O2 O 0.52912(17) 1.04835(9) 0.29324(10) 0.0275(5) Uani 1 1 d . . .
O3 O 0.76697(19) 0.25885(11) 0.22568(11) 0.0385(6) Uani 1 1 d . . .
O4 O 0.60407(18) 0.19862(10) 0.26114(11) 0.0357(5) Uani 1 1 d . . .
O5 O 0.5611(3) 0.44935(13) 0.42690(13) 0.0643(8) Uani 1 1 d . . .
O6 O 0.2841(3) 0.48086(14) 0.29543(16) 0.0679(8) Uani 1 1 d . . .
O7 O 0.5244(3) 0.71521(13) 0.45131(15) 0.0639(8) Uani 1 1 d . . .
O8 O 0.2539(2) 0.75001(1