####################################################################### 
# 
# This file contains crystal structure data downloaded from the 
# Cambridge Structural Database (CSD) hosted by the Cambridge 
# Crystallographic Data Centre (CCDC).
# 
# Full information about CCDC data access policies and citation 
# guidelines are available at http://www.ccdc.cam.ac.uk/access/V1 
# 
# Audit and citation data items may have been added by the CCDC. 
# Please retain this information to preserve the provenance of 
# this file and to allow appropriate attribution of the data. 
# 
#######################################################################

data_added_by_encifer
_audit_block_doi                 10.5517/cc10kjfj
_database_code_depnum_ccdc_archive 'CCDC 940367'
loop_
_citation_id
_citation_doi
_citation_year
1 10.1039/C3CE42007H 2014
_audit_update_record             
;
2013-10-24 deposited with the CCDC.	2024-07-12 downloaded from the CCDC.
;
_audit_creation_method           SHELXL-97
_chemical_name_systematic        
; 
 ? 
;
_chemical_name_common            ?
_chemical_melting_point          ?
_chemical_formula_moiety         'C140 H171 Cl8 Co16 N48 O41.5'
_chemical_formula_sum            'C140 H171 Cl8 Co16 N48 O41.5'
_chemical_formula_weight         4416.71

loop_
_atom_type_symbol
_atom_type_description
_atom_type_scat_dispersion_real
_atom_type_scat_dispersion_imag
_atom_type_scat_source
C C 0.0033 0.0016 'International Tables Vol C Tables 4.2.6.8 and 6.1.1.4'
H H 0.0000 0.0000 'International Tables Vol C Tables 4.2.6.8 and 6.1.1.4'
Cl Cl 0.1484 0.1585 'International Tables Vol C Tables 4.2.6.8 and 6.1.1.4'
Co Co 0.3494 0.9721 'International Tables Vol C Tables 4.2.6.8 and 6.1.1.4'
N N 0.0061 0.0033 'International Tables Vol C Tables 4.2.6.8 and 6.1.1.4'
O O 0.0106 0.0060 'International Tables Vol C Tables 4.2.6.8 and 6.1.1.4'

_symmetry_cell_setting           Orthorhombic
_symmetry_space_group_name_H-M   'P n a 21'

loop_
_symmetry_equiv_pos_as_xyz
'x, y, z'
'-x, -y, z+1/2'
'-x+1/2, y+1/2, z+1/2'
'x+1/2, -y+1/2, z'

_cell_length_a                   34.484(10)
_cell_length_b                   20.624(6)
_cell_length_c                   23.922(7)
_cell_angle_alpha                90.00
_cell_angle_beta                 90.00
_cell_angle_gamma                90.00
_cell_volume                     17013(9)
_cell_formula_units_Z            4
_cell_measurement_temperature    113
_cell_measurement_reflns_used    ?
_cell_measurement_theta_min      ?
_cell_measurement_theta_max      ?

_exptl_crystal_description       block
_exptl_crystal_colour            brown
_exptl_crystal_size_max          0.15
_exptl_crystal_size_mid          0.12
_exptl_crystal_size_min          0.10
_exptl_crystal_density_meas      ?
_exptl_crystal_density_diffrn    1.724
_exptl_crystal_density_method    'not measured'
_exptl_crystal_F_000             7456
_exptl_absorpt_coefficient_mu    1.730
_exptl_absorpt_correction_type   multi-scan
_exptl_absorpt_correction_T_min  0.782
_exptl_absorpt_correction_T_max  0.843
_exptl_absorpt_process_details   ?

_exptl_special_details           
; 
 ? 
;

_diffrn_ambient_temperature      113
_diffrn_source_power             1.2
_diffrn_source_voltage           50.0
_diffrn_source_current           24.0
_diffrn_radiation_wavelength     0.71075
_diffrn_radiation_type           'Mo K\a'
_diffrn_source                   'Rotating Anode'
_diffrn_radiation_monochromator  Multilayer
_diffrn_measurement_specimen_support Fiber
_diffrn_detector                 CCD
_diffrn_measurement_device       
;
AFC10: Fixed Chi 2 circle
;
_diffrn_measurement_device_type  
;
Rigaku Saturn724+ (2x2 bin mode)
;
_diffrn_measurement_method       ?
_diffrn_detector_area_resol_mean ?
_diffrn_standards_number         ?
_diffrn_standards_interval_count ?
_diffrn_standards_interval_time  ?
_diffrn_standards_decay_%        ?
_diffrn_reflns_number            98194
_diffrn_reflns_av_R_equivalents  0.1069
_diffrn_reflns_av_sigmaI/netI    0.1059
_diffrn_reflns_limit_h_min       -19
_diffrn_reflns_limit_h_max       41
_diffrn_reflns_limit_k_min       -24
_diffrn_reflns_limit_k_max       24
_diffrn_reflns_limit_l_min       -28
_diffrn_reflns_limit_l_max       28
_diffrn_reflns_theta_min         1.54
_diffrn_reflns_theta_max         25.10
_reflns_number_total             30209
_reflns_number_gt                23715
_reflns_threshold_expression     >2sigma(I)

_computing_data_collection       ?
_computing_cell_refinement       ?
_computing_data_reduction        ?
_computing_structure_solution    'SHELXS-97 (Sheldrick, 1990)'
_computing_structure_refinement  'SHELXL-97 (Sheldrick, 1997)'
_computing_molecular_graphics    ?
_computing_publication_material  ?

_refine_special_details          
; 
 Refinement of F^2^ against ALL reflections.  The weighted R-factor wR and 
 goodness of fit S are based on F^2^, conventional R-factors R are based 
 on F, with F set to zero for negative F^2^. The threshold expression of 
 F^2^ > 2sigma(F^2^) is used only for calculating R-factors(gt) etc. and is 
 not relevant to the choice of reflections for refinement.  R-factors based 
 on F^2^ are statistically about twice as large as those based on F, and R- 
 factors based on ALL data will be even larger. In the process of refinement,
"twin" restraint instruction was used 
;

_refine_ls_structure_factor_coef Fsqd
_refine_ls_matrix_type           full
_refine_ls_weighting_scheme      calc
_refine_ls_weighting_details     
'calc w=1/[\s^2^(Fo^2^)+(0.0967P)^2^+0.0000P] where P=(Fo^2^+2Fc^2^)/3'
_atom_sites_solution_primary     direct
_atom_sites_solution_secondary   difmap
_atom_sites_solution_hydrogens   geom
_refine_ls_hydrogen_treatment    constr
_refine_ls_extinction_method     none
_refine_ls_extinction_coef       ?
_refine_ls_abs_structure_details 'Flack H D (1983), Acta Cryst. A39, 876-881'
_refine_ls_abs_structure_Flack   0.589(14)
_refine_ls_number_reflns         30209
_refine_ls_number_parameters     1911
_refine_ls_number_restraints     1
_refine_ls_R_factor_all          0.0905
_refine_ls_R_factor_gt           0.0758
_refine_ls_wR_factor_ref         0.1961
_refine_ls_wR_factor_gt          0.1840
_refine_ls_goodness_of_fit_ref   1.012
_refine_ls_restrained_S_all      1.012
_refine_ls_shift/su_max          0.001
_refine_ls_shift/su_mean         0.000

loop_
_atom_site_label
_atom_site_type_symbol
_atom_site_fract_x
_atom_site_fract_y
_atom_site_fract_z
_atom_site_U_iso_or_equiv
_atom_site_adp_type
_atom_site_occupancy
_atom_site_symmetry_multiplicity
_atom_site_calc_flag
_atom_site_refinement_flags
_atom_site_disorder_assembly
_atom_site_disorder_group
Co13 Co 0.35598(3) -0.35285(6) 0.56580(6) 0.0493(3) Uani 1 1 d . . .
N40 N 0.3722(2) -0.3802(3) 0.6505(3) 0.0418(17) Uani 1 1 d . . .
N42 N 0.4123(2) -0.3650(3) 0.7226(4) 0.054(2) Uani 1 1 d . . .
N41 N 0.4076(2) -0.3636(3) 0.6666(4) 0.050(2) Uani 1 1 d . . .
Co1 Co 0.31625(3) 0.45177(6) 0.57751(6) 0.0462(3) Uani 1 1 d . . .
Co2 Co 0.22170(3) 0.42279(6) 0.77949(6) 0.0460(3) Uani 1 1 d . . .
Co3 Co 0.39286(3) 0.39911(6) 0.79125(6) 0.0461(3) Uani 1 1 d . . .
Co4 Co 0.30829(3) 0.38817(5) 0.71035(6) 0.0423(3) Uani 1 1 d . . .
Co5 Co 0.30428(4) 0.17853(6) 0.53565(6) 0.0560(3) Uani 1 1 d . . .
Co6 Co 0.37826(3) 0.12697(6) 0.75269(6) 0.0442(3) Uani 1 1 d . . .
Co7 Co 0.20933(4) 0.14752(6) 0.73950(7) 0.0559(4) Uani 1 1 d . . .
Co8 Co 0.29905(3) 0.18627(5) 0.68084(6) 0.0427(3) Uani 1 1 d . . .
Co9 Co 0.37155(3) -0.09216(6) 0.49575(6) 0.0467(3) Uani 1 1 d . . .
Co10 Co 0.53811(3) -0.07855(6) 0.54574(6) 0.0496(3) Uani 1 1 d . . .
Co11 Co 0.42212(3) -0.06058(6) 0.72714(6) 0.0478(3) Uani 1 1 d . . .
Co12 Co 0.44473(3) -0.11454(6) 0.59434(6) 0.0450(3) Uani 1 1 d . . .
Co14 Co 0.52661(3) -0.36021(6) 0.53408(6) 0.0463(3) Uani 1 1 d . . .
Co15 Co 0.46156(4) -0.32482(6) 0.76069(6) 0.0476(3) Uani 1 1 d . . .
Co16 Co 0.44684(3) -0.31354(6) 0.61647(6) 0.0443(3) Uani 1 1 d . . .
Cl1 Cl 0.31948(7) 0.55142(10) 0.53048(11) 0.0505(5) Uani 1 1 d . . .
Cl2 Cl 0.18151(8) 0.49704(13) 0.82232(13) 0.0655(7) Uani 1 1 d . . .
Cl3 Cl 0.43867(7) 0.46322(11) 0.83338(12) 0.0587(6) Uani 1 1 d . . .
Cl4 Cl 0.16460(8) 0.06898(13) 0.76027(15) 0.0768(9) Uani 1 1 d . . .
Cl5 Cl 0.30567(11) 0.11189(15) 0.45905(16) 0.0861(10) Uani 1 1 d . . .
Cl6 Cl 0.41082(6) 0.03138(10) 0.78303(10) 0.0493(5) Uani 1 1 d . . .
Cl7 Cl 0.58537(7) -0.00622(12) 0.52237(13) 0.0617(7) Uani 1 1 d . . .
Cl8 Cl 0.56048(7) -0.44678(12) 0.49992(12) 0.0604(6) Uani 1 1 d . . .
O1 O 0.30885(17) 0.3555(3) 0.6291(3) 0.0469(15) Uani 1 1 d . . .
O1W O 0.4625(2) -0.3925(3) 0.8251(3) 0.0554(17) Uani 1 1 d . . .
O2 O 0.30621(16) 0.2484(3) 0.6125(3) 0.0478(15) Uani 1 1 d . . .
O2W O 0.5139(2) -0.2807(4) 0.7958(4) 0.072(2) Uani 1 1 d . . .
O3 O 0.35075(17) 0.3290(3) 0.7427(3) 0.0502(16) Uani 1 1 d . . .
O3W O 0.33630(15) -0.0225(3) 0.4519(3) 0.0457(15) Uani 1 1 d . . .
O4 O 0.34527(16) 0.2194(2) 0.7281(3) 0.0477(16) Uani 1 1 d . . .
O5 O 0.25822(16) 0.3411(3) 0.7378(3) 0.0495(16) Uani 1 1 d . . .
O6 O 0.25437(18) 0.2321(3) 0.7215(3) 0.0582(18) Uani 1 1 d . . .
O7 O 0.49713(16) -0.1605(3) 0.5770(3) 0.0473(15) Uani 1 1 d . . .
O8 O 0.48704(17) -0.2681(3) 0.5682(2) 0.0428(13) Uani 1 1 d . . .
O9 O 0.43345(17) -0.1517(3) 0.6725(3) 0.0507(16) Uani 1 1 d . . .
O10 O 0.45487(18) -0.2535(3) 0.6883(3) 0.0474(15) Uani 1 1 d . . .
O11 O 0.40726(18) -0.1693(3) 0.5472(3) 0.0552(17) Uani 1 1 d . . .
O12 O 0.39524(16) -0.2681(3) 0.5853(3) 0.0428(14) Uani 1 1 d . . .
O13 O 0.30866(19) -0.3108(3) 0.6121(3) 0.0617(18) Uani 1 1 d . . .
N1 N 0.2680(2) 0.4728(3) 0.6247(3) 0.0462(18) Uani 1 1 d . . .
N2 N 0.26545(19) 0.4501(4) 0.6756(3) 0.0433(17) Uani 1 1 d . . .
N3 N 0.2330(2) 0.4649(4) 0.7021(4) 0.054(2) Uani 1 1 d . . .
N4 N 0.27537(18) 0.4382(3) 0.8210(3) 0.0399(17) Uani 1 1 d . . .
N5 N 0.3071(2) 0.4204(4) 0.7920(3) 0.0455(18) Uani 1 1 d . . .
N6 N 0.33889(19) 0.4251(4) 0.8237(3) 0.0433(17) Uani 1 1 d . . .
N7 N 0.3916(2) 0.4384(4) 0.7123(3) 0.0455(18) Uani 1 1 d . . .
N8 N 0.3585(2) 0.4390(3) 0.6828(4) 0.0450(18) Uani 1 1 d . . .
N9 N 0.3631(2) 0.4548(4) 0.6289(4) 0.0505(19) Uani 1 1 d . . .
N10 N 0.3155(2) 0.3791(4) 0.5184(3) 0.0430(17) Uani 1 1 d . . .
N11 N 0.3103(2) 0.2701(4) 0.4993(4) 0.058(2) Uani 1 1 d . . .
N12 N 0.41367(19) 0.3076(3) 0.8075(3) 0.0404(17) Uani 1 1 d . . .
N13 N 0.40776(19) 0.1980(3) 0.7942(3) 0.0424(17) Uani 1 1 d . . .
N14 N 0.18767(19) 0.3414(4) 0.7829(3) 0.0452(17) Uani 1 1 d . . .
N15 N 0.1852(2) 0.2298(4) 0.7723(3) 0.0445(17) Uani 1 1 d . . .
N16 N 0.37718(18) 0.1208(3) 0.6672(3) 0.0361(15) Uani 1 1 d . . .
N17 N 0.3439(2) 0.1358(3) 0.6395(3) 0.0447(18) Uani 1 1 d . . .
N18 N 0.3476(2) 0.1370(4) 0.5847(3) 0.0470(18) Uani 1 1 d . . .
N19 N 0.3231(2) 0.1035(4) 0.7802(4) 0.053(2) Uani 1 1 d . . .
N20 N 0.2934(2) 0.1260(4) 0.7507(4) 0.051(2) Uani 1 1 d . . .
N21 N 0.2602(2) 0.1093(4) 0.7740(4) 0.055(2) Uani 1 1 d . . .
N22 N 0.2542(2) 0.1521(4) 0.5756(4) 0.0526(19) Uani 1 1 d . . .
N23 N 0.2527(2) 0.1500(3) 0.6320(4) 0.054(2) Uani 1 1 d . . .
N24 N 0.2174(2) 0.1370(3) 0.6541(4) 0.050(2) Uani 1 1 d . . .
N25 N 0.4893(2) -0.0532(3) 0.4997(3) 0.0460(18) Uani 1 1 d . . .
N26 N 0.4551(2) -0.0741(4) 0.5158(4) 0.053(2) Uani 1 1 d . . .
N27 N 0.4262(2) -0.0559(3) 0.4784(3) 0.0443(17) Uani 1 1 d . . .
N28 N 0.3627(2) -0.0575(4) 0.5761(3) 0.0450(17) Uani 1 1 d . . .
N29 N 0.3928(2) -0.0612(4) 0.6123(4) 0.052(2) Uani 1 1 d . . .
N30 N 0.3811(2) -0.0502(3) 0.6646(3) 0.0443(17) Uani 1 1 d . . .
N31 N 0.4756(2) -0.0333(3) 0.6910(4) 0.049(2) Uani 1 1 d . . .
N32 N 0.4830(2) -0.0572(3) 0.6414(4) 0.0462(18) Uani 1 1 d . . .
N33 N 0.5190(2) -0.0408(4) 0.6246(4) 0.055(2) Uani 1 1 d . . .
N34 N 0.56259(19) -0.1661(4) 0.5195(4) 0.0479(19) Uani 1 1 d . . .
N35 N 0.5579(2) -0.2764(4) 0.5153(3) 0.0439(17) Uani 1 1 d . . .
N36 N 0.4212(2) -0.1347(3) 0.7845(3) 0.0465(18) Uani 1 1 d . . .
N37 N 0.4321(2) -0.2438(3) 0.7982(4) 0.051(2) Uani 1 1 d . . .
N38 N 0.3425(2) -0.1777(3) 0.4838(3) 0.0468(18) Uani 1 1 d . . .
N39 N 0.3394(2) -0.2864(3) 0.5012(4) 0.0471(18) Uani 1 1 d . . .
N43 N 0.4064(2) -0.3795(3) 0.5210(3) 0.0461(18) Uani 1 1 d . . .
N44 N 0.4409(2) -0.3678(4) 0.5445(4) 0.051(2) Uani 1 1 d . . .
N45 N 0.4701(2) -0.3837(3) 0.5091(4) 0.0500(19) Uani 1 1 d . . .
N46 N 0.5257(2) -0.3756(4) 0.6182(3) 0.0421(17) Uani 1 1 d . . .
N47 N 0.4949(2) -0.3604(3) 0.6499(3) 0.0451(18) Uani 1 1 d . . .
N48 N 0.5004(2) -0.3698(4) 0.7044(4) 0.055(2) Uani 1 1 d . . .
C1 C 0.2336(2) 0.5066(4) 0.6147(4) 0.045(2) Uani 1 1 d . . .
C2 C 0.2193(3) 0.5403(6) 0.5670(6) 0.072(3) Uani 1 1 d . . .
H2 H 0.2335 0.5431 0.5341 0.086 Uiso 1 1 calc R . .
C3 C 0.1841(3) 0.5677(5) 0.5725(5) 0.057(3) Uani 1 1 d . . .
H3 H 0.1745 0.5925 0.5431 0.068 Uiso 1 1 calc R . .
C4 C 0.1612(3) 0.5602(5) 0.6210(6) 0.078(4) Uani 1 1 d . . .
H4 H 0.1363 0.5774 0.6208 0.093 Uiso 1 1 calc R . .
C5 C 0.1740(3) 0.5284(6) 0.6690(5) 0.063(3) Uani 1 1 d . . .
H5 H 0.1591 0.5257 0.7013 0.076 Uiso 1 1 calc R . .
C6 C 0.2112(2) 0.5009(4) 0.6645(4) 0.046(2) Uani 1 1 d . . .
C7 C 0.2865(2) 0.4545(4) 0.8728(4) 0.041(2) Uani 1 1 d . . .
C8 C 0.2656(3) 0.4791(5) 0.9197(4) 0.054(2) Uani 1 1 d . . .
H8 H 0.2391 0.4866 0.9179 0.065 Uiso 1 1 calc R . .
C9 C 0.2867(3) 0.4913(5) 0.9680(4) 0.060(3) Uani 1 1 d . . .
H9 H 0.2745 0.5068 1.0000 0.073 Uiso 1 1 calc R . .
C10 C 0.3297(3) 0.4788(6) 0.9674(5) 0.066(3) Uani 1 1 d . . .
H10 H 0.3433 0.4852 1.0005 0.080 Uiso 1 1 calc R . .
C11 C 0.3491(3) 0.4596(4) 0.9238(4) 0.045(2) Uani 1 1 d . . .
H11 H 0.3759 0.4553 0.9250 0.054 Uiso 1 1 calc R . .
C12 C 0.3286(3) 0.4456(5) 0.8755(5) 0.055(3) Uani 1 1 d . . .
C13 C 0.4201(2) 0.4587(4) 0.6760(4) 0.045(2) Uani 1 1 d . . .
C14 C 0.4617(3) 0.4622(5) 0.6809(5) 0.061(3) Uani 1 1 d . . .
H14 H 0.4741 0.4563 0.7151 0.073 Uiso 1 1 calc R . .
C15 C 0.4820(3) 0.4744(5) 0.6342(6) 0.070(3) Uani 1 1 d . . .
H15 H 0.5089 0.4777 0.6370 0.084 Uiso 1 1 calc R . .
C16 C 0.4655(3) 0.4823(4) 0.5835(5) 0.057(3) Uani 1 1 d . . .
H16 H 0.4816 0.4913 0.5534 0.069 Uiso 1 1 calc R . .
C17 C 0.4249(3) 0.4775(4) 0.5734(5) 0.054(3) Uani 1 1 d . . .
H17 H 0.4140 0.4809 0.5379 0.065 Uiso 1 1 calc R . .
C18 C 0.4023(3) 0.4671(4) 0.6232(4) 0.050(2) Uani 1 1 d . . .
C19 C 0.3169(3) 0.3693(5) 0.4614(6) 0.072(4) Uani 1 1 d . . .
C20 C 0.3218(4) 0.4137(6) 0.4157(6) 0.077(3) Uani 1 1 d . . .
H20 H 0.3257 0.4575 0.4229 0.092 Uiso 1 1 calc R . .
C21 C 0.3209(6) 0.3919(6) 0.3621(6) 0.106(6) Uani 1 1 d . . .
H21 H 0.3228 0.4226 0.3337 0.127 Uiso 1 1 calc R . .
C22 C 0.3170(6) 0.3223(9) 0.3452(10) 0.141(7) Uani 1 1 d . . .
H22 H 0.3160 0.3080 0.3083 0.169 Uiso 1 1 calc R . .
C23 C 0.3150(4) 0.2787(7) 0.3951(7) 0.097(5) Uani 1 1 d . . .
H23 H 0.3152 0.2341 0.3896 0.116 Uiso 1 1 calc R . .
C24 C 0.3129(3) 0.3022(6) 0.4491(5) 0.064(3) Uani 1 1 d . . .
C25 C 0.3114(2) 0.3187(4) 0.5378(5) 0.055(3) Uani 1 1 d . . .
C26 C 0.3082(2) 0.3053(4) 0.5967(4) 0.040(2) Uani 1 1 d . . .
C27 C 0.4379(2) 0.2085(4) 0.8320(4) 0.042(2) Uani 1 1 d . . .
C28 C 0.4631(2) 0.1644(4) 0.8614(4) 0.041(2) Uani 1 1 d . . .
H28 H 0.4610 0.1199 0.8562 0.050 Uiso 1 1 calc R . .
C29 C 0.4891(2) 0.1884(4) 0.8955(4) 0.044(2) Uani 1 1 d . . .
H29 H 0.5043 0.1601 0.9164 0.053 Uiso 1 1 calc R . .
C30 C 0.4948(3) 0.2551(5) 0.9016(5) 0.059(3) Uani 1 1 d . . .
H30 H 0.5147 0.2703 0.9243 0.071 Uiso 1 1 calc R . .
C31 C 0.4712(2) 0.2985(5) 0.8743(4) 0.052(2) Uani 1 1 d . . .
H31 H 0.4745 0.3430 0.8783 0.062 Uiso 1 1 calc R . .
C32 C 0.4421(2) 0.2732(4) 0.8406(4) 0.047(2) Uani 1 1 d . . .
C33 C 0.3959(2) 0.2581(4) 0.7823(4) 0.0380(18) Uani 1 1 d . . .
C34 C 0.3610(2) 0.2700(4) 0.7487(4) 0.042(2) Uani 1 1 d . . .
C35 C 0.1542(2) 0.3182(4) 0.8117(4) 0.046(2) Uani 1 1 d . . .
C36 C 0.1263(3) 0.3519(6) 0.8417(5) 0.061(3) Uani 1 1 d . . .
H36 H 0.1264 0.3969 0.8441 0.073 Uiso 1 1 calc R . .
C37 C 0.0981(3) 0.3139(6) 0.8681(5) 0.063(3) Uani 1 1 d . . .
H37 H 0.0790 0.3349 0.8888 0.076 Uiso 1 1 calc R . .
C38 C 0.0969(3) 0.2450(6) 0.8653(5) 0.063(3) Uani 1 1 d . . .
H38 H 0.0776 0.2227 0.8844 0.075 Uiso 1 1 calc R . .
C39 C 0.1247(3) 0.2098(5) 0.8339(5) 0.059(3) Uani 1 1 d . . .
H39 H 0.1247 0.1648 0.8319 0.071 Uiso 1 1 calc R . .
C40 C 0.1527(2) 0.2495(5) 0.8053(5) 0.055(3) Uani 1 1 d . . .
C41 C 0.2035(2) 0.2859(4) 0.7648(4) 0.046(2) Uani 1 1 d . . .
C42 C 0.2415(2) 0.2871(4) 0.7387(4) 0.044(2) Uani 1 1 d . . .
C43 C 0.4044(3) 0.1082(4) 0.6231(4) 0.044(2) Uani 1 1 d . . .
C44 C 0.4443(3) 0.0944(5) 0.6303(5) 0.061(3) Uani 1 1 d . . .
H44 H 0.4561 0.0870 0.6647 0.074 Uiso 1 1 calc R . .
C45 C 0.4643(3) 0.0932(4) 0.5776(5) 0.062(3) Uani 1 1 d . . .
H45 H 0.4909 0.0855 0.5773 0.074 Uiso 1 1 calc R . .
C46 C 0.4435(3) 0.1042(6) 0.5223(6) 0.078(4) Uani 1 1 d . . .
H46 H 0.4574 0.1028 0.4890 0.094 Uiso 1 1 calc R . .
C47 C 0.4061(3) 0.1155(5) 0.5209(5) 0.064(3) Uani 1 1 d . . .
H47 H 0.3930 0.1209 0.4872 0.077 Uiso 1 1 calc R . .
C48 C 0.3854(3) 0.1193(4) 0.5750(5) 0.054(2) Uani 1 1 d . . .
C49 C 0.3092(3) 0.0709(4) 0.8267(5) 0.055(3) Uani 1 1 d . . .
C50 C 0.3262(3) 0.0408(5) 0.8697(4) 0.054(2) Uani 1 1 d . . .
H50 H 0.3531 0.0412 0.8732 0.065 Uiso 1 1 calc R . .
C51 C 0.3039(3) 0.0093(5) 0.9089(6) 0.068(3) Uani 1 1 d . . .
H51 H 0.3153 -0.0157 0.9368 0.081 Uiso 1 1 calc R . .
C52 C 0.2624(3) 0.0159(7) 0.9057(6) 0.080(4) Uani 1 1 d . . .
H52 H 0.2475 -0.0003 0.9350 0.096 Uiso 1 1 calc R . .
C53 C 0.2443(4) 0.0438(6) 0.8634(5) 0.073(3) Uani 1 1 d . . .
H53 H 0.2174 0.0439 0.8608 0.088 Uiso 1 1 calc R . .
C54 C 0.2677(3) 0.0733(5) 0.8224(5) 0.054(2) Uani 1 1 d . . .
C55 C 0.2145(3) 0.1428(5) 0.5602(6) 0.069(3) Uani 1 1 d . . .
C56 C 0.1998(4) 0.1478(6) 0.5053(6) 0.083(4) Uani 1 1 d . . .
H56 H 0.2152 0.1572 0.4745 0.100 Uiso 1 1 calc R . .
C57 C 0.1592(4) 0.1372(7) 0.5019(8) 0.100(5) Uani 1 1 d . . .
H57 H 0.1461 0.1416 0.4681 0.120 Uiso 1 1 calc R . .
C58 C 0.1388(5) 0.1193(8) 0.5524(9) 0.115(6) Uani 1 1 d . . .
H58 H 0.1126 0.1100 0.5487 0.138 Uiso 1 1 calc R . .
C59 C 0.1535(3) 0.1147(7) 0.6036(7) 0.085(4) Uani 1 1 d . . .
H59 H 0.1387 0.1009 0.6339 0.102 Uiso 1 1 calc R . .
C60 C 0.1935(3) 0.1324(5) 0.6092(5) 0.060(3) Uani 1 1 d . . .
C61 C 0.4840(2) -0.0198(4) 0.449