####################################################################### 
# 
# This file contains crystal structure data downloaded from the 
# Cambridge Structural Database (CSD) hosted by the Cambridge 
# Crystallographic Data Centre (CCDC).
# 
# Full information about CCDC data access policies and citation 
# guidelines are available at http://www.ccdc.cam.ac.uk/access/V1 
# 
# Audit and citation data items may have been added by the CCDC. 
# Please retain this information to preserve the provenance of 
# this file and to allow appropriate attribution of the data. 
# 
#######################################################################

data_added_by_encifer
_audit_block_doi                 10.5517/cc10kjdh
_database_code_depnum_ccdc_archive 'CCDC 940366'
loop_
_citation_id
_citation_doi
_citation_year
1 10.1039/C3CE42007H 2014
_audit_update_record             
;
2013-10-24 deposited with the CCDC.	2024-07-12 downloaded from the CCDC.
;
_audit_creation_method           SHELXL-97
_chemical_name_systematic        
; 
 ? 
;
_chemical_name_common            ?
_chemical_melting_point          ?
_chemical_formula_moiety         'C136 H134 Cl8 Co16 N48 O27'
_chemical_formula_sum            'C136 H134 Cl8 Co16 N48 O27'
_chemical_formula_weight         4099.38

loop_
_atom_type_symbol
_atom_type_description
_atom_type_scat_dispersion_real
_atom_type_scat_dispersion_imag
_atom_type_scat_source
C C 0.0033 0.0016 'International Tables Vol C Tables 4.2.6.8 and 6.1.1.4'
H H 0.0000 0.0000 'International Tables Vol C Tables 4.2.6.8 and 6.1.1.4'
Co Co 0.3494 0.9721 'International Tables Vol C Tables 4.2.6.8 and 6.1.1.4'
N N 0.0061 0.0033 'International Tables Vol C Tables 4.2.6.8 and 6.1.1.4'
O O 0.0106 0.0060 'International Tables Vol C Tables 4.2.6.8 and 6.1.1.4'
Cl Cl 0.1484 0.1585 'International Tables Vol C Tables 4.2.6.8 and 6.1.1.4'

_symmetry_cell_setting           Monoclinic
_symmetry_space_group_name_H-M   'P 21/c'

loop_
_symmetry_equiv_pos_as_xyz
'x, y, z'
'-x, y+1/2, -z+1/2'
'-x, -y, -z'
'x, -y-1/2, z-1/2'

_cell_length_a                   30.195(5)
_cell_length_b                   20.367(4)
_cell_length_c                   33.896(4)
_cell_angle_alpha                90.00
_cell_angle_beta                 123.240(10)
_cell_angle_gamma                90.00
_cell_volume                     17435(5)
_cell_formula_units_Z            4
_cell_measurement_temperature    113
_cell_measurement_reflns_used    ?
_cell_measurement_theta_min      ?
_cell_measurement_theta_max      ?

_exptl_crystal_description       block
_exptl_crystal_colour            brown
_exptl_crystal_size_max          0.20
_exptl_crystal_size_mid          0.15
_exptl_crystal_size_min          0.12
_exptl_crystal_density_meas      ?
_exptl_crystal_density_diffrn    1.562
_exptl_crystal_density_method    'not measured'
_exptl_crystal_F_000             7560
_exptl_absorpt_coefficient_mu    1.665
_exptl_absorpt_correction_type   multi-scan
_exptl_absorpt_correction_T_min  0.741
_exptl_absorpt_correction_T_max  0.819
_exptl_absorpt_process_details   ?

_exptl_special_details           
; 
 ? 
;

_diffrn_ambient_temperature      113
_diffrn_source_power             1.2
_diffrn_source_voltage           50.0
_diffrn_source_current           24.0
_diffrn_radiation_wavelength     0.71075
_diffrn_radiation_type           'Mo K\a'
_diffrn_source                   'Rotating Anode'
_diffrn_radiation_monochromator  Multilayer
_diffrn_measurement_specimen_support Fiber
_diffrn_detector                 CCD
_diffrn_measurement_device       
;
AFC10: Fixed Chi 2 circle
;
_diffrn_measurement_device_type  
;
Rigaku Saturn724+ (2x2 bin mode)
;
_diffrn_measurement_method       ?
_diffrn_detector_area_resol_mean ?
_diffrn_standards_number         ?
_diffrn_standards_interval_count ?
_diffrn_standards_interval_time  ?
_diffrn_standards_decay_%        ?
_diffrn_reflns_number            174599
_diffrn_reflns_av_R_equivalents  0.0653
_diffrn_reflns_av_sigmaI/netI    0.0696
_diffrn_reflns_limit_h_min       -39
_diffrn_reflns_limit_h_max       39
_diffrn_reflns_limit_k_min       -26
_diffrn_reflns_limit_k_max       25
_diffrn_reflns_limit_l_min       -43
_diffrn_reflns_limit_l_max       44
_diffrn_reflns_theta_min         1.56
_diffrn_reflns_theta_max         27.82
_reflns_number_total             41136
_reflns_number_gt                30097
_reflns_threshold_expression     >2sigma(I)

_computing_data_collection       ?
_computing_cell_refinement       ?
_computing_data_reduction        ?
_computing_structure_solution    'SHELXS-97 (Sheldrick, 1990)'
_computing_structure_refinement  'SHELXL-97 (Sheldrick, 1997)'
_computing_molecular_graphics    ?
_computing_publication_material  ?

_refine_special_details          
; 
 Refinement of F^2^ against ALL reflections.  The weighted R-factor wR and 
 goodness of fit S are based on F^2^, conventional R-factors R are based 
 on F, with F set to zero for negative F^2^. The threshold expression of 
 F^2^ > 2sigma(F^2^) is used only for calculating R-factors(gt) etc. and is 
 not relevant to the choice of reflections for refinement.  R-factors based 
 on F^2^ are statistically about twice as large as those based on F, and R- 
 factors based on ALL data will be even larger. 
;

_refine_ls_structure_factor_coef Fsqd
_refine_ls_matrix_type           full
_refine_ls_weighting_scheme      calc
_refine_ls_weighting_details     
'calc w=1/[\s^2^(Fo^2^)+(0.1152P)^2^+0.0000P] where P=(Fo^2^+2Fc^2^)/3'
_atom_sites_solution_primary     direct
_atom_sites_solution_secondary   difmap
_atom_sites_solution_hydrogens   geom
_refine_ls_hydrogen_treatment    constr
_refine_ls_extinction_method     none
_refine_ls_extinction_coef       ?
_refine_ls_number_reflns         41136
_refine_ls_number_parameters     1939
_refine_ls_number_restraints     0
_refine_ls_R_factor_all          0.0854
_refine_ls_R_factor_gt           0.0689
_refine_ls_wR_factor_ref         0.2038
_refine_ls_wR_factor_gt          0.1890
_refine_ls_goodness_of_fit_ref   1.017
_refine_ls_restrained_S_all      1.017
_refine_ls_shift/su_max          0.002
_refine_ls_shift/su_mean         0.000

loop_
_atom_site_label
_atom_site_type_symbol
_atom_site_fract_x
_atom_site_fract_y
_atom_site_fract_z
_atom_site_U_iso_or_equiv
_atom_site_adp_type
_atom_site_occupancy
_atom_site_symmetry_multiplicity
_atom_site_calc_flag
_atom_site_refinement_flags
_atom_site_disorder_assembly
_atom_site_disorder_group
Co10 Co 0.85594(2) 0.38846(3) 0.194537(19) 0.03461(12) Uani 1 1 d . . .
Co9 Co 0.94127(2) 0.37908(3) 0.154135(18) 0.03369(12) Uani 1 1 d . . .
Co12 Co 1.06819(2) 0.42890(3) 0.23459(2) 0.03678(13) Uani 1 1 d . . .
Co14 Co 0.95968(2) 0.17642(3) 0.146307(19) 0.03589(13) Uani 1 1 d . . .
Co13 Co 0.90098(2) 0.11552(3) 0.20181(2) 0.04084(14) Uani 1 1 d . . .
Co11 Co 0.88542(2) 0.43078(3) 0.037902(19) 0.03969(14) Uani 1 1 d . . .
Co16 Co 1.09648(2) 0.16287(3) 0.20618(2) 0.04750(16) Uani 1 1 d . . .
Co15 Co 0.88932(2) 0.14774(3) 0.02468(2) 0.04292(14) Uani 1 1 d . . .
C42 C 0.90015(14) 0.2586(2) 0.18299(13) 0.0340(8) Uani 1 1 d . . .
Cl4 Cl 0.85806(6) 0.07355(7) -0.03485(4) 0.0610(3) Uani 1 1 d . . .
Cl1 Cl 0.85504(6) 0.51690(8) -0.01404(5) 0.0654(4) Uani 1 1 d . . .
C30 C 1.2577(2) 0.3419(3) 0.3667(2) 0.0731(17) Uani 1 1 d . . .
H30 H 1.2854 0.3664 0.3907 0.088 Uiso 1 1 calc R . .
O11 O 0.90215(11) 0.31752(14) 0.17269(10) 0.0367(6) Uani 1 1 d . . .
C29 C 1.2642(2) 0.2732(3) 0.3645(2) 0.081(2) Uani 1 1 d . . .
H29 H 1.2956 0.2533 0.3878 0.098 Uiso 1 1 calc R . .
O9 O 0.91892(11) 0.34027(15) 0.09003(10) 0.0398(6) Uani 1 1 d . . .
O12 O 0.92403(11) 0.21015(14) 0.18083(10) 0.0382(6) Uani 1 1 d . . .
O7 O 1.01574(11) 0.33865(14) 0.19371(10) 0.0379(6) Uani 1 1 d . . .
N11 N 0.86725(13) 0.34938(19) -0.00486(12) 0.0389(8) Uani 1 1 d . . .
N14 N 0.85661(13) 0.18520(17) 0.20861(12) 0.0355(7) Uani 1 1 d . . .
O10 O 0.91746(11) 0.22912(14) 0.08564(10) 0.0396(6) Uani 1 1 d . . .
N3 N 1.03058(13) 0.46258(18) 0.16528(12) 0.0378(7) Uani 1 1 d . . .
O8 O 1.02891(11) 0.23463(15) 0.17890(11) 0.0433(7) Uani 1 1 d . . .
N7 N 0.83256(13) 0.42328(17) 0.12859(12) 0.0350(7) Uani 1 1 d . . .
N4 N 1.01423(13) 0.43640(17) 0.25266(12) 0.0364(7) Uani 1 1 d . . .
N23 N 0.89053(13) 0.11932(18) 0.11078(12) 0.0389(8) Uani 1 1 d . . .
N8 N 0.86631(13) 0.42225(18) 0.11472(12) 0.0376(7) Uani 1 1 d . . .
N20 N 0.99481(14) 0.1356(2) 0.11410(14) 0.0456(9) Uani 1 1 d . . .
N18 N 1.05530(14) 0.11702(18) 0.23355(13) 0.0440(8) Uani 1 1 d . . .
N22 N 0.86308(13) 0.10827(18) 0.06430(12) 0.0397(8) Uani 1 1 d . . .
N5 N 0.96412(13) 0.42116(18) 0.21972(11) 0.0365(7) Uani 1 1 d . . .
N2 N 0.98118(14) 0.44144(18) 0.13478(12) 0.0383(8) Uani 1 1 d . . .
N17 N 1.00186(13) 0.12033(18) 0.20774(13) 0.0405(8) Uani 1 1 d . . .
N6 N 0.93232(13) 0.42395(17) 0.23598(12) 0.0366(7) Uani 1 1 d . . .
C26 C 0.90838(15) 0.2868(2) 0.06851(14) 0.0359(8) Uani 1 1 d . . .
C24 C 0.83940(16) 0.3320(3) -0.05225(15) 0.0442(10) Uani 1 1 d . . .
N10 N 0.86556(14) 0.2368(2) -0.00974(12) 0.0432(8) Uani 1 1 d . . .
N13 N 1.11922(14) 0.35148(18) 0.26156(13) 0.0428(8) Uani 1 1 d . . .
C38 C 0.74549(17) 0.2409(2) 0.23788(15) 0.0434(10) Uani 1 1 d . . .
H38 H 0.7207 0.2554 0.2441 0.052 Uiso 1 1 calc R . .
N24 N 0.86761(13) 0.09404(18) 0.13184(12) 0.0393(8) Uani 1 1 d . . .
C7 C 1.01577(17) 0.4491(2) 0.29287(14) 0.0388(9) Uani 1 1 d . . .
C35 C 0.81941(16) 0.1930(2) 0.22014(15) 0.0389(9) Uani 1 1 d . . .
N16 N 0.98228(14) 0.10600(18) 0.23464(12) 0.0419(8) Uani 1 1 d . . .
O13 O 1.13259(14) 0.21284(19) 0.17324(14) 0.0632(9) Uani 1 1 d . . .
N21 N 0.96932(14) 0.12572(19) 0.06737(13) 0.0430(8) Uani 1 1 d . . .
C41 C 0.86513(15) 0.2460(2) 0.19951(14) 0.0349(8) Uani 1 1 d . . .
N15 N 0.83879(13) 0.29434(17) 0.20473(12) 0.0361(7) Uani 1 1 d . . .
O30 O 1.15918(13) 0.09681(18) 0.23619(15) 0.0648(10) Uani 1 1 d . . .
C40 C 0.80871(15) 0.2618(2) 0.21767(14) 0.0388(9) Uani 1 1 d . . .
C37 C 0.75620(17) 0.1722(2) 0.23977(15) 0.0411(9) Uani 1 1 d . . .
H37 H 0.7378 0.1429 0.2468 0.049 Uiso 1 1 calc R . .
C12 C 0.96368(16) 0.4423(2) 0.28217(14) 0.0380(9) Uani 1 1 d . . .
N1 N 0.96131(14) 0.46185(19) 0.09142(12) 0.0420(8) Uani 1 1 d . . .
N9 N 0.84393(14) 0.44109(18) 0.07031(12) 0.0389(8) Uani 1 1 d . . .
N19 N 1.04649(14) 0.1237(2) 0.13672(14) 0.0481(9) Uani 1 1 d . . .
C59 C 0.82251(15) 0.0624(2) 0.09675(15) 0.0382(9) Uani 1 1 d . . .
C18 C 0.79252(15) 0.4563(2) 0.05449(14) 0.0377(9) Uani 1 1 d . . .
C6 C 1.04409(17) 0.4995(2) 0.14005(16) 0.0448(10) Uani 1 1 d . . .
C39 C 0.77136(16) 0.2858(2) 0.22699(15) 0.0423(9) Uani 1 1 d . . .
H39 H 0.7645 0.3305 0.2258 0.051 Uiso 1 1 calc R . .
C58 C 0.78296(17) 0.0280(2) 0.09834(19) 0.0494(11) Uani 1 1 d . . .
H58 H 0.7846 0.0222 0.1263 0.059 Uiso 1 1 calc R . .
C13 C 0.78522(16) 0.4449(2) 0.09124(14) 0.0380(9) Uani 1 1 d . . .
C17 C 0.75064(19) 0.4798(2) 0.01039(16) 0.0473(10) Uani 1 1 d . . .
H17 H 0.7554 0.4896 -0.0138 0.057 Uiso 1 1 calc R . .
C11 C 0.9519(2) 0.4520(2) 0.31670(15) 0.0474(10) Uani 1 1 d . . .
H11 H 0.9176 0.4482 0.3096 0.057 Uiso 1 1 calc R . .
C14 C 0.73607(18) 0.4533(2) 0.08592(16) 0.0465(10) Uani 1 1 d . . .
H14 H 0.7315 0.4449 0.1105 0.056 Uiso 1 1 calc R . .
C33 C 1.09927(16) 0.2937(2) 0.23994(16) 0.0429(10) Uani 1 1 d . . .
C36 C 0.79322(17) 0.1483(2) 0.23145(16) 0.0442(10) Uani 1 1 d . . .
H36 H 0.8004 0.1036 0.2334 0.053 Uiso 1 1 calc R . .
C54 C 0.81992(15) 0.0709(2) 0.05493(15) 0.0396(9) Uani 1 1 d . . .
C22 C 0.78536(19) 0.3393(3) -0.13540(16) 0.0532(12) Uani 1 1 d . . .
H22 H 0.7677 0.3639 -0.1631 0.064 Uiso 1 1 calc R . .
C25 C 0.88103(16) 0.2900(2) 0.01756(14) 0.0384(9) Uani 1 1 d . . .
C32 C 1.17021(17) 0.3347(2) 0.29845(16) 0.0448(10) Uani 1 1 d . . .
C34 C 1.04311(15) 0.2881(2) 0.20101(15) 0.0402(9) Uani 1 1 d . . .
N12 N 1.13074(15) 0.2413(2) 0.25693(15) 0.0558(10) Uani 1 1 d . . .
C55 C 0.77795(18) 0.0452(3) 0.01154(17) 0.0508(11) Uani 1 1 d . . .
H55 H 0.7765 0.0506 -0.0164 0.061 Uiso 1 1 calc R . .
C23 C 0.81312(18) 0.3709(3) -0.09251(15) 0.0470(10) Uani 1 1 d . . .
H23 H 0.8143 0.4165 -0.0905 0.056 Uiso 1 1 calc R . .
C31 C 1.21141(18) 0.3727(3) 0.33419(18) 0.0560(13) Uani 1 1 d . . .
H31 H 1.2074 0.4177 0.3358 0.067 Uiso 1 1 calc R . .
C10 C 0.9940(2) 0.4674(2) 0.36151(16) 0.0526(12) Uani 1 1 d . . .
H10 H 0.9878 0.4738 0.3853 0.063 Uiso 1 1 calc R . .
C5 C 1.0904(2) 0.5361(3) 0.1536(2) 0.0596(14) Uani 1 1 d . . .
H5 H 1.1191 0.5375 0.1847 0.072 Uiso 1 1 calc R . .
C57 C 0.74178(18) 0.0035(3) 0.0561(2) 0.0568(13) Uani 1 1 d . . .
H57 H 0.7146 -0.0190 0.0555 0.068 Uiso 1 1 calc R . .
C56 C 0.73947(18) 0.0117(3) 0.01307(19) 0.0551(12) Uani 1 1 d . . .
H56 H 0.7111 -0.0062 -0.0146 0.066 Uiso 1 1 calc R . .
C27 C 1.17699(17) 0.2670(2) 0.29515(19) 0.0581(13) Uani 1 1 d . . .
C1 C 0.99972(19) 0.5003(3) 0.09268(16) 0.0486(11) Uani 1 1 d . . .
C8 C 1.05896(19) 0.4648(2) 0.33973(15) 0.0470(11) Uani 1 1 d . . .
H8 H 1.0936 0.4687 0.3476 0.056 Uiso 1 1 calc R . .
C16 C 0.70197(19) 0.4876(3) 0.00502(17) 0.0563(13) Uani 1 1 d . . .
H16 H 0.6731 0.5016 -0.0239 0.068 Uiso 1 1 calc R . .
C19 C 0.83805(17) 0.2632(2) -0.05476(15) 0.0439(10) Uani 1 1 d . . .
C15 C 0.6952(2) 0.4746(3) 0.04277(18) 0.0578(13) Uani 1 1 d . . .
H15 H 0.6620 0.4808 0.0379 0.069 Uiso 1 1 calc R . .
C48 C 1.02440(19) 0.0951(2) 0.27943(17) 0.0496(11) Uani 1 1 d . . .
C43 C 1.0704(2) 0.1005(2) 0.27838(17) 0.0515(12) Uani 1 1 d . . .
C47 C 1.0281(2) 0.0844(2) 0.32184(18) 0.0607(14) Uani 1 1 d . . .
H47 H 0.9981 0.0814 0.3231 0.073 Uiso 1 1 calc R . .
C45 C 1.1245(3) 0.0817(3) 0.3603(2) 0.0709(17) Uani 1 1 d . . .
H45 H 1.1574 0.0762 0.3883 0.085 Uiso 1 1 calc R . .
C44 C 1.1224(2) 0.0925(2) 0.31957(18) 0.0595(14) Uani 1 1 d . . .
H44 H 1.1526 0.0945 0.3187 0.071 Uiso 1 1 calc R . .
C21 C 0.7834(2) 0.2692(3) -0.13787(16) 0.0568(13) Uani 1 1 d . . .
H21 H 0.7640 0.2491 -0.1673 0.068 Uiso 1 1 calc R . .
C315 C 1.0063(2) 0.1037(3) 0.0587(2) 0.0580(13) Uani 1 1 d . . .
C9 C 1.0457(2) 0.4737(3) 0.37228(16) 0.0541(12) Uani 1 1 d . . .
H9 H 1.0725 0.4846 0.4030 0.065 Uiso 1 1 calc R . .
C2 C 1.0007(2) 0.5347(3) 0.05716(19) 0.0639(15) Uani 1 1 d . . .
H2 H 0.9716 0.5354 0.0261 0.077 Uiso 1 1 calc R . .
C20 C 0.80892(19) 0.2314(3) -0.09895(16) 0.0536(12) Uani 1 1 d . . .
H20 H 0.8074 0.1858 -0.1011 0.064 Uiso 1 1 calc R . .
C49 C 1.0555(2) 0.1026(3) 0.1040(2) 0.0593(14) Uani 1 1 d . . .
C53 C 1.0033(2) 0.0860(3) 0.0184(2) 0.0747(18) Uani 1 1 d . . .
H53 H 0.9710 0.0864 -0.0107 0.090 Uiso 1 1 calc R . .
C50 C 1.1039(2) 0.0828(3) 0.1092(3) 0.0735(18) Uani 1 1 d . . .
H50 H 1.1361 0.0811 0.1382 0.088 Uiso 1 1 calc R . .
C4 C 1.0906(2) 0.5691(4) 0.1187(2) 0.079(2) Uani 1 1 d . . .
H4 H 1.1203 0.5935 0.1265 0.095 Uiso 1 1 calc R . .
C3 C 1.0469(2) 0.5675(4) 0.0706(2) 0.081(2) Uani 1 1 d . . .
H3 H 1.0496 0.5890 0.0478 0.098 Uiso 1 1 calc R . .
C46 C 1.0785(3) 0.0784(3) 0.3618(2) 0.0711(17) Uani 1 1 d . . .
H46 H 1.0824 0.0720 0.3907 0.085 Uiso 1 1 calc R . .
C28 C 1.2243(2) 0.2350(3) 0.3281(2) 0.0707(16) Uani 1 1 d . . .
H28 H 1.2289 0.1903 0.3259 0.085 Uiso 1 1 calc R . .
C52 C 1.0494(3) 0.0678(4) 0.0220(3) 0.098(3) Uani 1 1 d . . .
H52 H 1.0483 0.0565 -0.0051 0.118 Uiso 1 1 calc R . .
C51 C 1.0980(3) 0.0659(4) 0.0659(3) 0.111(3) Uani 1 1 d . . .
H51 H 1.1280 0.0528 0.0667 0.133 Uiso 1 1 calc R . .
Co6 Co 0.56374(2) 0.09119(3) 0.206047(18) 0.03221(12) Uani 1 1 d . . .
Co3 Co 0.53524(2) 0.29269(3) 0.189484(18) 0.03283(12) Uani 1 1 d . . .
Co2 Co 0.58360(2) 0.33453(3) 0.304760(19) 0.03493(12) Uani 1 1 d . . .
Co1 Co 0.39906(2) 0.29756(3) 0.108987(19) 0.03712(13) Uani 1 1 d . . .
Co7 Co 0.61865(2) 0.05916(3) 0.140366(19) 0.03613(13) Uani 1 1 d . . .
Co8 Co 0.43873(2) 0.02943(3) 0.162330(19) 0.03659(13) Uani 1 1 d . . .
Co5 Co 0.65231(2) 0.07134(3) 0.328329(19) 0.03583(13) Uani 1 1 d . . .
Co4 Co 0.61141(2) 0.34423(3) 0.14509(2) 0.03747(13) Uani 1 1 d . . .
Cl7 Cl 0.64768(5) -0.01211(6) 0.10664(4) 0.0482(3) Uani 1 1 d . . .
Cl6 Cl 0.61002(4) 0.43266(5) 0.35497(4) 0.0432(2) Uani 1 1 d . . .
Cl5 Cl 0.64113(5) 0.42974(6) 0.12191(4) 0.0509(3) Uani 1 1 d . . .
Cl8 Cl 0.69331(4) -0.00212(5) 0.38895(3) 0.0450(2) Uani 1 1 d . . .
C121 C 0.76189(17) -0.0168(2) 0.32744(17) 0.0457(10) Uani 1 1 d . . .
H121 H 0.7675 -0.0143 0.3573 0.055 Uiso 1 1 calc R . .
O1 O 0.46877(10) 0.23098(14) 0.14823(9) 0.0368(6) Uani 1 1 d . . .
C88 C 0.32934(18) 0.1103(3) 0.11578(18) 0.0536(12) Uani 1 1 d . . .
O4 O 0.60474(11) 0.15016(14) 0.26383(9) 0.0371(6) Uani 1 1 d . . .
O5 O 0.58236(11) 0.24815(14) 0.17169(10) 0.0389(6) Uani 1 1 d . . .
C89 C 0.2900(2) 0.0650(3) 0.1055(2) 0.0722(18) Uani 1 1 d . . .
H89 H 0.2972 0.0204 0.1118 0.087 Uiso 1 1 calc R . .
O3 O 0.56811(10) 0.24901(14) 0.25755(9) 0.0352(6) Uani 1 1 d . . .
C92 C 0.2662(2) 0.2011(3) 0.0852(2) 0.0770(18) Uani 1 1 d . . .
H92 H 0.2581 0.2455 0.0789 0.092 Uiso 1 1 calc R . .
O6 O 0.58235(11) 0.13829(14) 0.16334(9) 0.0352(6) Uani 1 1 d . . .
N34 N 0.63711(12) 0.26105(17) 0.12887(11) 0.0334(7) Uani 1 1 d . . .
C90 C 0.2392(2) 0.0901(3) 0.0854(3) 0.091(2) Uani 1 1 d . . .
H90 H 0.2118 0.0617 0.0786 0.109 Uiso 1 1 calc R . .
O2 O 0.48752(11) 0.12757(15) 0.17583(10) 0.0395(6) Uani 1 1 d . . .
N39 N 0.66700(13) 0.16200(18) 0.35886(11) 0.0370(7) Uani 1 1 d . . .
N