
#######################################################################
#
#                 Cambridge Crystallographic Data Centre
#                                CCDC
#
#######################################################################
#
# If this CIF has been generated from an entry in the Cambridge
# Structural Database, then it will include bibliographic, chemical,
# crystal, experimental, refinement or atomic coordinate data resulting
# from the CCDC's data processing and validation procedures.
#
#######################################################################

data_CSD_CIF_PIPCIL
_audit_creation_date 1978-06-15
_audit_creation_method CSD-ConQuest-V1
_database_code_CSD PIPCIL
_database_code_depnum_ccdc_archive 'CCDC 1234156'
_chemical_formula_sum 'C23 H29 N5 O8 S1'
_chemical_formula_moiety
;
C23 H27 N5 O7 S1,H2 O1
;
_journal_coden_Cambridge 189
_journal_volume 7
_journal_year 1978
_journal_page_first 7
_journal_name_full 'Cryst.Struct.Commun. '
loop_
_publ_author_name
"F.M.Lovell"
"N.A.Perkinson"
_chemical_name_systematic
;
6-({[(4-ethyl-2,3-dioxopiperazine-1-carbonyl)amino](phenyl)acetyl}amino)-3,3-d
imethyl-7-oxo-4-thia-1-azabicyclo[3.2.0]heptane-2-carboxylic acid monohydrate
;
_chemical_name_common
;
(2S-(2alpha,5alpha,6beta(S)))-6(((((4-Ethyl-2,3-dioxo-1-piperazinyl)carbonyl)a
mino)phenyl-acetyl)amino)-3,3-dimethyl-7-oxo-4-thia-1-azabicyclo(3.2.0)heptane
-2-carboxylic acid monohydrate; piperacillin monohydrate; PDB Chemical 
Component code: WPP; Teaching Subset: Drug Molecules, 'Bound' Drugs
;
_cell_volume   2563.587
_exptl_crystal_density_diffrn 1.386
_exptl_special_details
;
Absolute configuration

;
_diffrn_ambient_temperature ?
_diffrn_special_details
;
The study was carried out at room temperature,in the range 283-303K

;
#These two values have been output from a single CSD field.
_refine_ls_R_factor_gt 0.05
_refine_ls_wR_factor_gt 0.05
_symmetry_cell_setting orthorhombic
_symmetry_space_group_name_H-M 'P 21 21 21'
_symmetry_Int_Tables_number 19
loop_
_symmetry_equiv_pos_site_id
_symmetry_equiv_pos_as_xyz
1 x,y,z
2 1/2+x,1/2-y,-z
3 -x,1/2+y,1/2-z
4 1/2-x,-y,1/2+z
_cell_length_a 16.018(6)
_cell_length_b 15.640(5)
_cell_length_c 10.233(4)
_cell_angle_alpha 90
_cell_angle_beta 90
_cell_angle_gamma 90
_cell_formula_units_Z 4
loop_
_atom_type_symbol
_atom_type_radius_bond
C 0.68
H 0.23
N 0.68
O 0.68
S 1.02
loop_
_atom_site_label
_atom_site_type_symbol
_atom_site_fract_x
_atom_site_fract_y
_atom_site_fract_z
C1 C 0.40900 -0.09940 -0.21800
C2 C -0.08940 0.02540 -0.30080
C3 C 0.49220 -0.04860 -0.40250
C4 C 0.52360 -0.13850 -0.41830
C5 C 0.48450 -0.15930 -0.18960
C6 C 0.12900 -0.00510 -0.33920
C7 C 0.19440 0.12800 -0.25060
C8 C -0.19800 0.09410 -0.44130
C9 C 0.20690 0.05340 -0.34630
C10 C 0.59420 -0.24950 -0.27850
C11 C 0.35140 0.01070 -0.36540
C12 C 0.21270 0.12100 -0.12010
C13 C -0.28830 0.06830 -0.46480
C14 C 0.14980 0.27230 -0.21260
C15 C 0.19960 0.19010 -0.03580
C16 C 0.16900 0.26450 -0.08330
C17 C 0.56170 -0.32660 -0.35090
C18 C -0.07810 -0.00240 -0.49940
C19 C -0.01910 -0.01690 -0.38170
C20 C -0.19400 0.24880 -0.36700
C21 C 0.16400 0.20470 -0.29710
C22 C -0.18700 0.15590 -0.32460
C23 C -0.24640 0.13430 -0.21240
N1 N -0.14330 0.01950 -0.41570
N2 N 0.53310 -0.17880 -0.28940
N3 N 0.41390 -0.04940 -0.32700
N4 N 0.05930 0.02770 -0.39310
N5 N 0.27740 0.00030 -0.31060
S1 S -0.07890 0.13800 -0.27040
O1 O 0.36690 0.06630 -0.44610
O2 O 0.13100 -0.07380 -0.28600
O3 O 0.35070 -0.10280 -0.14540
O4 O 0.48900 -0.18660 -0.07910
O5 O -0.33260 0.13460 -0.49800
O6 O -0.31590 -0.00150 -0.45320
O7 O -0.07270 -0.00390 -0.61450
H1 H 0.21500 0.07500 -0.43300
H2 H -0.00700 -0.07500 -0.35900
H3 H -0.10200 -0.00300 -0.22200
H4 H -0.18000 0.12300 -0.51900
H5 H 0.23500 0.06800 -0.08600
H6 H 0.21200 0.18500 0.05600
H7 H 0.16100 0.31200 -0.02600
H8 H 0.12600 0.32400 -0.24500
H9 H 0.15200 0.21100 -0.38800
H10 H 0.06200 0.08100 -0.43900
H11 H 0.27000 -0.04400 -0.24600
H12 H 0.60300 -0.26400 -0.18800
H13 H 0.64700 -0.23200 -0.31600
H14 H 0.53300 -0.01500 -0.35700
H15 H 0.48200 -0.02400 -0.48700
H16 H 0.48500 -0.17100 -0.46900
H17 H 0.57700 -0.13800 -0.46200
H18 H 0.61500 -0.35400 -0.37100
H19 H 0.58300 -0.32600 -0.45800
H20 H -0.24200 0.25600 -0.40600
H21 H -0.16700 0.25600 -0.43500
H22 H -0.17700 0.28700 -0.29000
H23 H -0.30200 0.14100 -0.22600
H24 H -0.24600 0.07200 -0.19400
H25 H -0.24000 0.17900 -0.14800
O8 O 0.01080 0.34980 -0.45110
H26 H -0.04200 0.38500 -0.44200
H27 H 0.02700 0.33300 -0.53200
#END
