####################################################################### 
# 
# This file contains crystal structure data downloaded from the 
# Cambridge Structural Database (CSD) hosted by the Cambridge 
# Crystallographic Data Centre (CCDC).
# 
# Full information about CCDC data access policies and citation 
# guidelines are available at http://www.ccdc.cam.ac.uk/access/V1 
# 
# Audit and citation data items may have been added by the CCDC. 
# Please retain this information to preserve the provenance of 
# this file and to allow appropriate attribution of the data. 
# 
#######################################################################

data_2
_audit_block_doi                 10.5517/ccyy59b
_database_code_depnum_ccdc_archive 'CCDC 891972'
loop_
_citation_id
_citation_doi
_citation_year
1 10.1002/chem.201304146 2014
_audit_update_record             
;
2012-07-13 deposited with the CCDC.	2024-07-12 downloaded from the CCDC.
;
#TrackingRef 'web_deposit_cif_file_0_DiSun_1342166243.p.cif'

_audit_creation_date             2012-03-15
_audit_creation_method           
;
Olex2 1.1
(compiled 2011.11.01 svn.r2039, GUI svn.r3906)
;
_chemical_name_common            ?
_chemical_name_systematic        
;
?
;
_chemical_formula_moiety         'C38 H31 N O8 Zn2'
_chemical_formula_sum            'C H N O Zn'
_chemical_formula_weight         108.40
_chemical_melting_point          ?
loop_
_atom_type_symbol
_atom_type_description
_atom_type_scat_dispersion_real
_atom_type_scat_dispersion_imag
_atom_type_scat_source
C C 0.0033 0.0016 'International Tables Vol C Tables 4.2.6.8 and 6.1.1.4'
H H 0.0000 0.0000 'International Tables Vol C Tables 4.2.6.8 and 6.1.1.4'
N N 0.0061 0.0033 'International Tables Vol C Tables 4.2.6.8 and 6.1.1.4'
O O 0.0106 0.0060 'International Tables Vol C Tables 4.2.6.8 and 6.1.1.4'
Zn Zn 0.2839 1.4301 'International Tables Vol C Tables 4.2.6.8 and 6.1.1.4'

_space_group_crystal_system      triclinic
_space_group_IT_number           2
_space_group_name_H-M_alt        'P -1'
_space_group_name_Hall           '-P 1'
loop_
_space_group_symop_id
_space_group_symop_operation_xyz
1 'x, y, z'
2 '-x, -y, -z'

_cell_length_a                   10.771(2)
_cell_length_b                   14.620(3)
_cell_length_c                   16.081(3)
_cell_angle_alpha                110.698(3)
_cell_angle_beta                 98.914(3)
_cell_angle_gamma                102.479(3)
_cell_volume                     2237.5(8)
_cell_formula_units_Z            2
_cell_measurement_reflns_used    ?
_cell_measurement_temperature    298(2)
_cell_measurement_theta_max      ?
_cell_measurement_theta_min      ?
_exptl_absorpt_coefficient_mu    7.414
_exptl_absorpt_correction_T_max  ?
_exptl_absorpt_correction_T_min  ?
_exptl_absorpt_correction_type   ?
_exptl_absorpt_process_details   ?
_exptl_crystal_colour            ?
_exptl_crystal_density_diffrn    2.253
_exptl_crystal_density_meas      ?
_exptl_crystal_density_method    'not measured'
_exptl_crystal_description       ?
_exptl_crystal_F_000             1456
_exptl_crystal_size_max          ?
_exptl_crystal_size_mid          ?
_exptl_crystal_size_min          ?
_exptl_special_details           
;
?
;
_diffrn_reflns_av_R_equivalents  0.0449
_diffrn_reflns_av_unetI/netI     0.0631
_diffrn_reflns_limit_h_max       10
_diffrn_reflns_limit_h_min       -10
_diffrn_reflns_limit_k_max       13
_diffrn_reflns_limit_k_min       -13
_diffrn_reflns_limit_l_max       15
_diffrn_reflns_limit_l_min       -15
_diffrn_reflns_number            9437
_diffrn_reflns_theta_full        19.82
_diffrn_reflns_theta_max         19.82
_diffrn_reflns_theta_min         2.48
_diffrn_ambient_temperature      298.15
_diffrn_detector_area_resol_mean ?
_diffrn_measured_fraction_theta_full 0.994
_diffrn_measured_fraction_theta_max 0.994
_diffrn_measurement_device_type  ?
_diffrn_measurement_method       ?
_diffrn_radiation_monochromator  graphite
_diffrn_radiation_type           MoK\a
_diffrn_radiation_wavelength     0.71073
_diffrn_source                   'fine-focus sealed tube'
_diffrn_standards_decay_%        ?
_diffrn_standards_interval_count ?
_diffrn_standards_interval_time  ?
_diffrn_standards_number         ?
_reflns_number_gt                3056
_reflns_number_total             4045
_reflns_threshold_expression     >2sigma(I)
_computing_cell_refinement       ?
_computing_data_collection       ?
_computing_data_reduction        ?
_computing_molecular_graphics    
;
O. V. Dolomanov, L. J. Bourhis, R. J. Gildea, J. A. K. Howard and H. Puschmann,
OLEX2: a complete structure solution, refinement and analysis program.
J. Appl. Cryst. (2009). 42, 339-341.
;
_computing_publication_material  
;
O. V. Dolomanov, L. J. Bourhis, R. J. Gildea, J. A. K. Howard and H. Puschmann,
OLEX2: a complete structure solution, refinement and analysis program.
J. Appl. Cryst. (2009). 42, 339-341.
;
_computing_structure_refinement  
;
XL, G.M. Sheldrick, Acta Cryst.
(2008). A64, 112-122
;
_computing_structure_solution    'SHELXS-97 (Sheldrick, 1990)'
_refine_diff_density_max         1.638
_refine_diff_density_min         -0.388
_refine_diff_density_rms         0.097
_refine_ls_extinction_coef       ?
_refine_ls_extinction_method     none
_refine_ls_goodness_of_fit_ref   1.075
_refine_ls_hydrogen_treatment    mixed
_refine_ls_matrix_type           full
_refine_ls_number_parameters     447
_refine_ls_number_reflns         4045
_refine_ls_number_restraints     0
_refine_ls_R_factor_all          0.0751
_refine_ls_R_factor_gt           0.0584
_refine_ls_restrained_S_all      1.075
_refine_ls_shift/su_max          0.859
_refine_ls_shift/su_mean         0.011
_refine_ls_structure_factor_coef Fsqd
_refine_ls_weighting_details     
'calc w=1/[\s^2^(Fo^2^)+(0.1108P)^2^+2.5559P] where P=(Fo^2^+2Fc^2^)/3'
_refine_ls_weighting_scheme      calc
_refine_ls_wR_factor_gt          0.1721
_refine_ls_wR_factor_ref         0.1823
_refine_special_details          
;
Refinement of F^2^ against ALL reflections. The weighted R-factor wR and
goodness of fit S are based on F^2^, conventional R-factors R are based
on F, with F set to zero for negative F^2^. The threshold expression of
F^2^ > 2sigma(F^2^) is used only for calculating R-factors(gt) etc. and is
not relevant to the choice of reflections for refinement. R-factors based
on F^2^ are statistically about twice as large as those based on F, and R-
factors based on ALL data will be even larger.
;
_atom_sites_solution_hydrogens   geom
_atom_sites_solution_primary     direct
_atom_sites_solution_secondary   difmap
loop_
_atom_site_label
_atom_site_type_symbol
_atom_site_fract_x
_atom_site_fract_y
_atom_site_fract_z
_atom_site_U_iso_or_equiv
_atom_site_adp_type
_atom_site_occupancy
_atom_site_symmetry_multiplicity
_atom_site_calc_flag
_atom_site_refinement_flags
_atom_site_disorder_assembly
_atom_site_disorder_group
O1 O 0.1727(6) 0.2536(4) 0.7595(4) 0.0421(16) Uani 1 1 d . . .
O2 O 0.0425(7) 0.3502(6) 0.7798(5) 0.060(2) Uani 1 1 d . . .
C29 C -0.7097(9) -0.4567(8) 0.7842(6) 0.034(2) Uani 1 1 d . . .
C30 C 0.0026(11) 0.2850(7) 1.5405(7) 0.047(3) Uani 1 1 d . . .
O3 O -0.6693(5) -0.5312(4) 0.7517(4) 0.0335(15) Uani 1 1 d . . .
O4 O -0.8290(6) -0.4552(4) 0.7723(4) 0.0439(16) Uani 1 1 d . . .
O6 O -0.0671(7) 0.3260(5) 1.5887(4) 0.0523(18) Uani 1 1 d . . .
O5 O 0.1247(7) 0.2940(5) 1.5715(4) 0.0595(19) Uani 1 1 d . . .
O8 O -0.0633(6) 0.5336(5) 0.6383(4) 0.0530(18) Uani 1 1 d . . .
H8A H -0.0404 0.5278 0.5767 0.079 Uiso 1 1 d R . .
H8B H -0.1639 0.5236 0.6179 0.079 Uiso 1 1 d R . .
N1 N -0.1277(7) 0.4711(5) 0.7857(5) 0.0249(17) Uani 1 1 d . . .
O7 O 0.3854(5) 0.2585(5) 0.6382(6) 0.087(3) Uani 1 1 d . . .
H7A H 0.3672 0.1905 0.6271 0.131 Uiso 1 1 d R . .
H7B H 0.3957 0.2624 0.5843 0.131 Uiso 1 1 d R . .
C31 C -0.0885(8) 0.5196(6) 0.8756(7) 0.035(2) Uani 1 1 d . . .
H31 H 0.0012 0.5495 0.9023 0.042 Uiso 1 1 calc R . .
C32 C -0.2554(9) 0.4285(7) 0.7489(6) 0.041(3) Uani 1 1 d . . .
H32 H -0.2853 0.3947 0.6853 0.049 Uiso 1 1 calc R . .
C36 C -0.3058(8) 0.4825(6) 0.8948(6) 0.030(2) Uani 1 1 d . . .
C35 C -0.3438(8) 0.4321(7) 0.7997(6) 0.039(2) Uani 1 1 d . . .
H35 H -0.4325 0.4002 0.7704 0.047 Uiso 1 1 calc R . .
C37 C -0.1719(8) 0.5287(7) 0.9325(6) 0.035(2) Uani 1 1 d . . .
H37 H -0.1391 0.5655 0.9956 0.042 Uiso 1 1 calc R . .
C41 C -0.5226(9) 0.4120(7) 0.9227(6) 0.038(2) Uani 1 1 d . . .
H41 H -0.5373 0.3520 0.8713 0.046 Uiso 1 1 calc R . .
C40 C -0.4033(8) 0.4919(7) 0.9500(5) 0.028(2) Uani 1 1 d . . .
C42 C -0.3844(8) 0.5777(7) 1.0288(6) 0.033(2) Uani 1 1 d . . .
H42 H -0.3059 0.6301 1.0494 0.039 Uiso 1 1 calc R . .
Zn1 Zn -0.00022(9) 0.44815(7) 0.70276(6) 0.0304(4) Uani 1 1 d . . .
Zn2 Zn 0.24024(9) 0.32427(7) 0.68667(7) 0.0346(4) Uani 1 1 d . . .
C10 C -0.1240(7) 0.1238(5) 1.0989(5) 0.0182(19) Uani 1 1 d . . .
C15 C -0.2886(7) -0.0174(6) 1.1000(6) 0.028(2) Uani 1 1 d . . .
C14 C -0.3225(8) -0.0617(6) 1.0019(6) 0.029(2) Uani 1 1 d . . .
C17 C -0.4245(8) -0.1641(6) 0.9504(5) 0.026(2) Uani 1 1 d . . .
C12 C -0.0154(8) 0.2231(6) 1.1503(6) 0.039(2) Uani 1 1 d . . .
H12A H 0.0663 0.2089 1.1650 0.058 Uiso 1 1 calc R . .
H12B H -0.0350 0.2622 1.2059 0.058 Uiso 1 1 calc R . .
H12C H -0.0083 0.2614 1.1126 0.058 Uiso 1 1 calc R . .
C21 C -0.6485(8) -0.2684(7) 0.8877(6) 0.036(2) Uani 1 1 d . . .
H21 H -0.7373 -0.2741 0.8827 0.044 Uiso 1 1 calc R . .
C9 C -0.1611(7) 0.0823(6) 1.0036(5) 0.021(2) Uani 1 1 d . . .
C19 C -0.4772(9) -0.3438(7) 0.8550(6) 0.035(2) Uani 1 1 d . . .
H19 H -0.4496 -0.4003 0.8260 0.041 Uiso 1 1 calc R . .
C7 C -0.0906(9) 0.2517(7) 0.8757(6) 0.040(2) Uani 1 1 d . . .
H7 H -0.1255 0.2982 0.8602 0.048 Uiso 1 1 calc R . .
C25 C -0.1713(10) 0.2277(7) 1.3965(6) 0.045(3) Uani 1 1 d . . .
H25 H -0.2205 0.2637 1.4306 0.054 Uiso 1 1 calc R . .
C2 C 0.0205(8) 0.2306(6) 0.8467(6) 0.031(2) Uani 1 1 d . . .
C23 C -0.1455(8) 0.1217(6) 1.2489(6) 0.031(2) Uani 1 1 d . . .
C1 C 0.0824(9) 0.2821(7) 0.7913(6) 0.031(2) Uani 1 1 d . . .
C18 C -0.3841(8) -0.2498(6) 0.9088(6) 0.034(2) Uani 1 1 d . . .
H18 H -0.2950 -0.2442 0.9168 0.041 Uiso 1 1 calc R . .
C16 C -0.3619(8) -0.0694(7) 1.1524(6) 0.039(2) Uani 1 1 d . . .
H16A H -0.4433 -0.0531 1.1542 0.058 Uiso 1 1 calc R . .
H16B H -0.3091 -0.0459 1.2139 0.058 Uiso 1 1 calc R . .
H16C H -0.3794 -0.1422 1.1221 0.058 Uiso 1 1 calc R . .
C13 C -0.1885(8) 0.0749(6) 1.1462(6) 0.026(2) Uani 1 1 d . . .
C20 C -0.6108(8) -0.3544(6) 0.8441(5) 0.025(2) Uani 1 1 d . . .
C8 C -0.2583(8) -0.0108(6) 0.9543(5) 0.028(2) Uani 1 1 d . . .
C11 C -0.2997(9) -0.0582(7) 0.8498(5) 0.041(2) Uani 1 1 d . . .
H11A H -0.2563 -0.1093 0.8269 0.061 Uiso 1 1 calc R . .
H11B H -0.2758 -0.0060 0.8271 0.061 Uiso 1 1 calc R . .
H11C H -0.3932 -0.0892 0.8293 0.061 Uiso 1 1 calc R . .
C5 C -0.0967(8) 0.1353(6) 0.9508(5) 0.023(2) Uani 1 1 d . . .
C22 C -0.5562(8) -0.1744(7) 0.9386(6) 0.034(2) Uani 1 1 d . . .
H22 H -0.5840 -0.1173 0.9652 0.040 Uiso 1 1 calc R . .
C3 C 0.0690(8) 0.1617(7) 0.8701(6) 0.032(2) Uani 1 1 d . . .
H3 H 0.1418 0.1457 0.8511 0.038 Uiso 1 1 calc R . .
C4 C 0.0119(9) 0.1158(7) 0.9213(6) 0.036(2) Uani 1 1 d . . .
H4 H 0.0478 0.0698 0.9368 0.044 Uiso 1 1 calc R . .
C6 C -0.1483(8) 0.2051(6) 0.9263(6) 0.034(2) Uani 1 1 d . . .
H6 H -0.2220 0.2199 0.9445 0.041 Uiso 1 1 calc R . .
C27 C 0.0202(9) 0.1712(7) 1.3880(6) 0.043(3) Uani 1 1 d . . .
H27 H 0.1010 0.1697 1.4170 0.052 Uiso 1 1 calc R . .
C28 C -0.0275(9) 0.1197(7) 1.2945(6) 0.038(2) Uani 1 1 d . . .
H28 H 0.0212 0.0823 1.2611 0.046 Uiso 1 1 calc R . .
C26 C -0.0519(9) 0.2251(6) 1.4387(6) 0.036(2) Uani 1 1 d . . .
C24 C -0.2172(9) 0.1753(7) 1.3015(6) 0.046(3) Uani 1 1 d . . .
H24 H -0.2983 0.1762 1.2725 0.055 Uiso 1 1 calc R . .

loop_
_atom_site_aniso_label
_atom_site_aniso_U_11
_atom_site_aniso_U_22
_atom_site_aniso_U_33
_atom_site_aniso_U_23
_atom_site_aniso_U_13
_atom_site_aniso_U_12
O1 0.035(4) 0.049(4) 0.049(4) 0.022(3) 0.022(3) 0.014(3)
O2 0.071(5) 0.069(5) 0.079(5) 0.053(5) 0.043(4) 0.039(4)
C29 0.028(7) 0.046(7) 0.028(6) 0.018(5) 0.006(5) 0.005(6)
C30 0.044(8) 0.039(6) 0.057(8) 0.028(6) 0.011(7) -0.004(6)
O3 0.034(4) 0.021(4) 0.038(4) 0.002(3) 0.011(3) 0.009(3)
O4 0.029(4) 0.035(4) 0.048(4) 0.000(3) 0.003(3) 0.003(3)
O6 0.063(5) 0.049(4) 0.030(4) 0.000(3) 0.017(4) 0.009(4)
O5 0.053(5) 0.072(5) 0.042(4) 0.017(4) 0.014(4) 0.005(4)
O8 0.058(4) 0.072(5) 0.055(4) 0.039(4) 0.031(4) 0.036(4)
N1 0.026(5) 0.032(4) 0.019(5) 0.010(4) 0.010(4) 0.009(4)
O7 0.008(3) 0.047(4) 0.154(8) 0.006(5) -0.026(4) -0.003(3)
C31 0.022(5) 0.038(6) 0.036(7) 0.009(5) 0.007(5) 0.004(4)
C32 0.019(6) 0.080(8) 0.019(5) 0.017(5) 0.006(5) 0.009(5)
C36 0.035(6) 0.031(5) 0.027(6) 0.014(5) 0.007(5) 0.009(5)
C35 0.017(5) 0.062(7) 0.027(6) 0.006(5) 0.004(5) 0.011(5)
C37 0.023(6) 0.050(6) 0.025(5) 0.010(5) 0.010(5) 0.004(5)
C41 0.040(6) 0.048(6) 0.029(6) 0.013(5) 0.017(5) 0.016(6)
C40 0.028(6) 0.040(6) 0.017(5) 0.010(5) 0.014(4) 0.008(5)
C42 0.025(5) 0.045(6) 0.018(5) 0.004(5) 0.012(4) 0.002(4)
Zn1 0.0234(7) 0.0347(7) 0.0276(7) 0.0059(5) 0.0123(5) 0.0052(5)
Zn2 0.0310(7) 0.0315(7) 0.0373(7) 0.0116(5) 0.0090(5) 0.0048(5)
C10 0.016(5) 0.007(5) 0.027(6) 0.000(4) 0.010(4) 0.003(4)
C15 0.018(5) 0.030(6) 0.036(6) 0.014(5) 0.006(4) 0.005(5)
C14 0.026(5) 0.025(5) 0.032(6) 0.002(5) 0.010(5) 0.015(5)
C17 0.028(6) 0.013(5) 0.024(5) 0.000(4) -0.001(4) 0.003(5)
C12 0.040(6) 0.041(6) 0.034(6) 0.010(5) 0.012(5) 0.015(5)
C21 0.014(5) 0.041(6) 0.044(6) 0.012(5) 0.003(5) 0.002(5)
C9 0.015(5) 0.023(5) 0.018(6) 0.002(5) 0.004(4) 0.001(4)
C19 0.039(7) 0.029(6) 0.034(6) 0.004(5) 0.017(5) 0.019(5)
C7 0.047(6) 0.035(6) 0.052(6) 0.026(5) 0.017(5) 0.023(5)
C25 0.046(7) 0.045(6) 0.027(7) 0.000(5) 0.002(5) 0.012(5)
C2 0.027(5) 0.028(5) 0.030(5) 0.007(5) 0.004(4) 0.007(5)
C23 0.027(6) 0.033(5) 0.023(6) 0.003(5) 0.005(5) 0.001(5)
C1 0.032(6) 0.019(5) 0.036(6) 0.012(5) 0.001(5) -0.001(5)
C18 0.024(5) 0.024(6) 0.046(6) 0.008(5) 0.006(5) 0.001(5)
C16 0.035(5) 0.042(6) 0.035(6) 0.013(5) 0.011(5) 0.005(5)
C13 0.019(5) 0.022(5) 0.031(6) 0.003(5) 0.004(4) 0.007(5)
C20 0.028(6) 0.019(5) 0.028(5) 0.004(4) 0.011(4) 0.012(5)
C8 0.030(5) 0.040(6) 0.023(5) 0.019(5) 0.016(5) 0.012(5)
C11 0.041(6) 0.043(6) 0.029(6) 0.009(5) 0.010(5) 0.004(5)
C5 0.027(5) 0.017(5) 0.014(5) -0.002(4) -0.002(4) 0.003(4)
C22 0.028(6) 0.032(6) 0.034(6) 0.004(5) 0.004(5) 0.014(5)
C3 0.025(5) 0.039(6) 0.042(6) 0.019(5) 0.016(5) 0.017(5)
C4 0.038(6) 0.038(6) 0.045(6) 0.024(5) 0.014(5) 0.017(5)
C6 0.036(5) 0.040(6) 0.038(6) 0.023(5) 0.020(5) 0.014(5)
C27 0.039(6) 0.062(7) 0.028(7) 0.015(6) 0.007(5) 0.017(6)
C28 0.033(6) 0.047(6) 0.031(6) 0.006(5) 0.007(5) 0.022(5)
C26 0.048(7) 0.030(6) 0.015(6) 0.002(5) -0.001(5) 0.000(5)
C24 0.041(6) 0.059(7) 0.024(6) 0.003(5) -0.003(5) 0.018(6)

_geom_special_details            
;
All esds (except the esd in the dihedral angle between two l.s. planes)
are estimated using the full covariance matrix. The cell esds are taken
into account individually in the estimation of esds in distances, angles
and torsion angles; correlations between esds in cell parameters are only
used when they are defined by crystal symmetry. An approximate (isotropic)
treatment of cell esds is used for estimating esds involving l.s. planes.
;
loop_
_geom_bond_atom_site_label_1
_geom_bond_atom_site_label_2
_geom_bond_distance
_geom_bond_site_symmetry_2
_geom_bond_publ_flag
O1 Zn2 1.940(6) . ?
O1 C1 1.250(10) . ?
O2 Zn1 2.271(7) . ?
O2 C1 1.226(10) . ?
C29 O3 1.233(10) . ?
C29 O4 1.276(10) . ?
C29 C20 1.508(12) . ?
C30 O6 1.254(12) . ?
C30 O5 1.292(11) . ?
C30 C26 1.502(13) . ?
O3 Zn2 1.934(6) 1_445 ?
O4 Zn1 1.940(6) 1_445 ?
O6 Zn1 1.948(6) 1_556 ?
O5 Zn2 1.909(7) 1_556 ?
O8 Zn1 2.040(6) . ?
N1 C31 1.315(10) . ?
N1 C32 1.322(10) . ?
N1 Zn1 2.056(6) . ?
O7 Zn2 2.116(7) . ?
C31 C37 1.373(11) . ?
C32 C35 1.344(11) . ?
C36 C35 1.390(11) . ?
C36 C37 1.386(11) . ?
C36 C40 1.474(11) . ?
C41 C40 1.422(11) . ?
C41 C42 1.363(11) 2_467 ?
C40 C42 1.382(11) . ?
C42 C41 1.363(11) 2_467 ?
Zn1 O4 1.940(6) 1_665 ?
Zn1 O6 1.948(6) 1_554 ?
Zn2 O3 1.934(6) 1_665 ?
Zn2 O5 1.909(7) 1_554 ?
C10 C12 1.509(11) . ?
C10 C9 1.387(10) . ?
C10 C13 1.380(11) . ?
C15 C14 1.428(11) . ?
C15 C16 1.520(11) . ?
C15 C13 1.397(11) . ?
C14 C17 1.504(11) . ?
C14 C8 1.400(11) . ?
C17 C18 1.393(11) . ?
C17 C22 1.370(11) . ?
C21 C20 1.386(11) . ?
C21 C22 1.382(11) . ?
C9 C8 1.393(11) . ?
C9 C5 1.490(11) . ?
C19 C18 1.392(11) . ?
C19 C20 1.391(11) . ?
C7 C2 1.405(12) . ?
C7 C6 1.370(11) . ?
C25 C26 1.373(12) . ?
C25 C24 1.393(12) . ?
C2 C1 1.499(12) . ?
C2 C3 1.365(11) . ?
C23 C13 1.497(11) . ?
C23 C28 1.378(11) . ?
C23 C24 1.385(12) . ?
C8 C11 1.522(11) . ?
C5 C4 1.375(11) . ?
C5 C6 1.403(11) . ?
C3 C4 1.370(11) . ?
C27 C28 1.373(12) . ?
C27 C26 1.377(12) . ?

loop_
_geom_angle_atom_site_label_1
_geom_angle_atom_site_label_2
_geom_angle_atom_site_label_3
_geom_angle
_geom_angle_site_symmetry_1
_geom_angle_site_symmetry_3
_geom_angle_publ_flag
C1 O1 Zn2 113.7(6) . . ?
C1 O2 Zn1 154.8(6) . . ?
O3 C29 O4 127.1(8) . . ?
O3 C29 C20 118.6(8) . . ?
O4 C29 C20 114.3(9) . . ?
O6 C30 O5 124.3(10) . . ?
O6 C30 C26 120.3(10) . . ?
O5 C30 C26 115.3(10) . . ?
C29 O3 Zn2 131.8(6) . 1_445 ?
C29 O4 Zn1 136.8(6) . 1_445 ?
C30 O6 Zn1 124.9(6) . 1_556 ?
C30 O5 Zn2 137.5(6) . 1_556 ?
C31 N1 C32 117.3(7) . . ?
C31 N1 Zn1 123.2(6) . . ?
C32 N1 Zn1 119.3(6) . . ?
N1 C31 C37 123.9(8) . . ?
N1 C32 C35 122.6(8) . . ?
C35 C36 C40 121.5(8) . . ?
C37 C36 C35 115.3(8) . . ?
C37 C36 C40 123.0(8) . . ?
C32 C35 C36 121.6(8) . . ?
C31 C37 C36 119.2(8) . . ?
C42 C41 C40 120.8(8) 2_467 . ?
C41 C40 C36 120.6(8) . . ?
C42 C40 C36 122.2(8) . . ?
C42 C40 C41 117.2(7) . . ?
C41 C42 C40 122.0(8) 2_467 . ?
O4 Zn1 O2 88.0(3) 1_665 . ?
O4 Zn1 O6 135.6(3) 1_665 1_554 ?
O4 Zn1 O8 97.2(3) 1_665 . ?
O4 Zn1 N1 107.8(3) 1_665 . ?
O6 Zn1 O2 89.6(3) 1_554 . ?
O6 Zn1 O8 90.9(3) 1_554 . ?
O6 Zn1 N1 115.4(3) 1_554 . ?
O8 Zn1 O2 171.9(2) . . ?
O8 Zn1 N1 92.2(2) . . ?
N1 Zn1 O2 8