
#######################################################################
#
#                 Cambridge Crystallographic Data Centre
#                                CCDC
#
#######################################################################
#
# If this CIF has been generated from an entry in the Cambridge
# Structural Database, then it will include bibliographic, chemical,
# crystal, experimental, refinement or atomic coordinate data resulting
# from the CCDC's data processing and validation procedures.
#
#######################################################################

data_CSD_CIF_PIZDUX
_audit_creation_date 1995-03-06
_audit_creation_method CSD-ConQuest-V1
_database_code_CSD PIZDUX
_database_code_depnum_ccdc_archive 'CCDC 1235070'
_chemical_formula_sum 'C22 H36 Br4 N8'
_chemical_formula_moiety
;
C10 H12 Br4,2(C6 H12 N4)
;
_journal_coden_Cambridge 182
_journal_year 1994
_journal_page_first 1457
_journal_name_full 'Chem.Commun. '
loop_
_publ_author_name
"D.S.Reddy"
"D.C.Craig"
"G.R.Desiraju"
_chemical_name_systematic
;
1,3,5,7-Tetrabromo-adamantane bis(hexamethylenetetramine)
;
_chemical_name_common
;
Teaching Subset: Fundamental Chemistry, Symmetry
;
_chemical_melting_point 533
_cell_volume   2628.643
_exptl_crystal_density_diffrn 1.85
_diffrn_ambient_temperature ?
_diffrn_special_details
;
The study was carried out at room temperature,in the range 283-303K

;
_refine_special_details
;
One hexamethylenetetramine molecule is disordered.

;
#These two values have been output from a single CSD field.
_refine_ls_R_factor_gt 0.032
_refine_ls_wR_factor_gt 0.032
_symmetry_cell_setting cubic
_symmetry_space_group_name_H-M 'F -4 3 m'
_symmetry_Int_Tables_number 216
loop_
_symmetry_equiv_pos_site_id
_symmetry_equiv_pos_as_xyz
1 x,y,z
2 x,1/2+y,1/2+z
3 1/2+x,y,1/2+z
4 1/2+x,1/2+y,z
5 z,x,y
6 y,z,x
7 1/2+z,x,1/2+y
8 1/2+y,1/2+z,x
9 1/2+z,1/2+x,y
10 y,1/2+z,1/2+x
11 z,1/2+x,1/2+y
12 1/2+y,z,1/2+x
13 -y,x,-z
14 1/2-y,x,1/2-z
15 -y,1/2+x,1/2-z
16 1/2-y,1/2+x,-z
17 -x,z,-y
18 -z,y,-x
19 -x,1/2+z,1/2-y
20 1/2-z,1/2+y,-x
21 1/2-x,1/2+z,-y
22 1/2-z,y,1/2-x
23 1/2-x,z,1/2-y
24 -z,1/2+y,1/2-x
25 x,-y,-z
26 x,1/2-y,1/2-z
27 1/2+x,-y,1/2-z
28 1/2+x,1/2-y,-z
29 z,-x,-y
30 y,-z,-x
31 1/2+z,-x,1/2-y
32 1/2+y,1/2-z,-x
33 1/2+z,1/2-x,-y
34 y,1/2-z,1/2-x
35 z,1/2-x,1/2-y
36 1/2+y,-z,1/2-x
37 -y,-x,z
38 1/2-y,-x,1/2+z
39 -y,1/2-x,1/2+z
40 1/2-y,1/2-x,z
41 -x,-z,y
42 -z,-y,x
43 -x,1/2-z,1/2+y
44 1/2-z,1/2-y,x
45 1/2-x,1/2-z,y
46 1/2-z,-y,1/2+x
47 1/2-x,-z,1/2+y
48 -z,1/2-y,1/2+x
49 -x,y,-z
50 -x,1/2+y,1/2-z
51 1/2-x,y,1/2-z
52 1/2-x,1/2+y,-z
53 -z,x,-y
54 -y,z,-x
55 1/2-z,x,1/2-y
56 1/2-y,1/2+z,-x
57 1/2-z,1/2+x,-y
58 -y,1/2+z,1/2-x
59 -z,1/2+x,1/2-y
60 1/2-y,z,1/2-x
61 y,x,z
62 1/2+y,x,1/2+z
63 y,1/2+x,1/2+z
64 1/2+y,1/2+x,z
65 x,z,y
66 z,y,x
67 x,1/2+z,1/2+y
68 1/2+z,1/2+y,x
69 1/2+x,1/2+z,y
70 1/2+z,y,1/2+x
71 1/2+x,z,1/2+y
72 z,1/2+y,1/2+x
73 -x,-y,z
74 -x,1/2-y,1/2+z
75 1/2-x,-y,1/2+z
76 1/2-x,1/2-y,z
77 -z,-x,y
78 -y,-z,x
79 1/2-z,-x,1/2+y
80 1/2-y,1/2-z,x
81 1/2-z,1/2-x,y
82 -y,1/2-z,1/2+x
83 -z,1/2-x,1/2+y
84 1/2-y,-z,1/2+x
85 y,-x,-z
86 1/2+y,-x,1/2-z
87 y,1/2-x,1/2-z
88 1/2+y,1/2-x,-z
89 x,-z,-y
90 z,-y,-x
91 x,1/2-z,1/2-y
92 1/2+z,1/2-y,-x
93 1/2+x,1/2-z,-y
94 1/2+z,-y,1/2-x
95 1/2+x,-z,1/2-y
96 z,1/2-y,1/2-x
_cell_length_a 13.801(1)
_cell_length_b 13.801(1)
_cell_length_c 13.801(1)
_cell_angle_alpha 90
_cell_angle_beta 90
_cell_angle_gamma 90
_cell_formula_units_Z 4
loop_
_atom_type_symbol
_atom_type_radius_bond
C 0.68
H 0.23
Br 1.21
N 0.68
loop_
_atom_site_label
_atom_site_type_symbol
_atom_site_fract_x
_atom_site_fract_y
_atom_site_fract_z
Br1 Br -0.14514(6) -0.14514(6) -0.14514(6)
C1 C -0.0628(5) -0.0628(5) -0.0628(5)
C2 C 0.00000 0.00000 -0.1301(6)
H1 H -0.0461(19) 0.0461(19) -0.1763(19)
N1 N 0.1876(3) 0.1876(3) 0.1876(3)
C3 C 0.25000 0.25000 0.1299(7)
H2 H 0.2039(19) 0.2961(19) 0.0838(19)
N2? N 0.4376(3) 0.4376(3) 0.4376(3)
C4? C 0.50000 0.50000 0.3799(7)
N3? N 0.5624(3) 0.5624(3) 0.5624(3)
H3? H 0.4539(19) 0.5461(19) 0.3338(19)
H4? H 0.5461(19) 0.5461(19) 0.3338(19)
C2D C -0.13010 0.00000 0.0000(6)
C2E C 0.00000 -0.13010 0.0000(6)
C1JA C 0.0628(5) 0.0628(5) -0.0628(5)
H1HB H 0.0461(19) -0.0461(19) -0.1763(19)
C1X C -0.0628(5) 0.0628(5) 0.0628(5)
H1D H -0.1763(19) -0.0461(19) 0.0461(19)
H1BA H -0.1763(19) 0.0461(19) -0.0461(19)
C1L C 0.0628(5) -0.0628(5) 0.0628(5)
H1E H 0.0461(19) -0.1763(19) -0.0461(19)
H1AB H -0.0461(19) -0.1763(19) 0.0461(19)
Br1JA Br 0.14514(6) 0.14514(6) -0.14514(6)
C2Q C 0.13010 0.00000 0.0000(6)
C2CA C 0.00000 0.13010 0.0000(6)
Br1X Br -0.14514(6) 0.14514(6) 0.14514(6)
C2L C 0.00000 0.00000 0.1301(6)
Br1L Br 0.14514(6) -0.14514(6) 0.14514(6)
H1Q H 0.1763(19) 0.0461(19) 0.0461(19)
H1OA H 0.1763(19) -0.0461(19) -0.0461(19)
H1CA H 0.0461(19) 0.1763(19) 0.0461(19)
H1YB H -0.0461(19) 0.1763(19) -0.0461(19)
H1L H -0.0461(19) -0.0461(19) 0.1763(19)
H1VA H 0.0461(19) 0.0461(19) 0.1763(19)
C3D C 0.12990 0.25000 0.2500(7)
C3E C 0.25000 0.12990 0.2500(7)
N1MA N 0.3124(3) 0.3124(3) 0.1876(3)
H2HB H 0.2961(19) 0.2039(19) 0.0838(19)
N1Y N 0.1876(3) 0.3124(3) 0.3124(3)
H2D H 0.0838(19) 0.2039(19) 0.2961(19)
H2HA H 0.0838(19) 0.2961(19) 0.2039(19)
N1M N 0.3124(3) 0.1876(3) 0.3124(3)
H2E H 0.2961(19) 0.0838(19) 0.2039(19)
H2GB H 0.2039(19) 0.0838(19) 0.2961(19)
C3U C 0.37010 0.25000 0.2500(7)
C3GA C 0.25000 0.37010 0.2500(7)
C3M C 0.25000 0.25000 0.3701(7)
H2U H 0.4162(19) 0.2961(19) 0.2961(19)
H2QA H 0.4162(19) 0.2039(19) 0.2039(19)
H2GA H 0.2961(19) 0.4162(19) 0.2961(19)
H2AC H 0.2039(19) 0.4162(19) 0.2039(19)
H2M H 0.2039(19) 0.2039(19) 0.4162(19)
H2XA H 0.2961(19) 0.2961(19) 0.4162(19)
#END
