####################################################################### 
# 
# This file contains crystal structure data downloaded from the 
# Cambridge Structural Database (CSD) hosted by the Cambridge 
# Crystallographic Data Centre (CCDC).
# 
# Full information about CCDC data access policies and citation 
# guidelines are available at http://www.ccdc.cam.ac.uk/access/V1 
# 
# Audit and citation data items may have been added by the CCDC. 
# Please retain this information to preserve the provenance of 
# this file and to allow appropriate attribution of the data. 
# 
#######################################################################

data_PIZJEN
#This CIF has been generated from an entry in the Cambridge Structural Database
_database_code_depnum_ccdc_archive 'CCDC 1235088'
_database_code_CSD               PIZJEN
loop_
_citation_id
_citation_doi
_citation_year
1 10.1038/369727a0 1994
_audit_creation_method           'Created from the CSD'
_audit_update_record             
;
2024-07-12 downloaded from the CCDC.
;
_database_code_NBS               642612
_chemical_formula_moiety         '(C40 H24 Cu2 N8 1+)n,n(B1 F4 1-)'
_chemical_name_systematic        
'catena-((\m~5~-5,10,15,20-tetrakis(4-Pyridyl)-21H,23H-porphyrinato)-copper(ii)-copper(i) tetrafluoroborate unknown solvate)'
_chemical_absolute_configuration unk
_diffrn_ambient_temperature      295
_exptl_crystal_density_diffrn    1.027
#These two values have been output from a single CSD field.
_refine_ls_R_factor_gt           0.111
_refine_ls_wR_factor_gt          0.111
_diffrn_radiation_probe          x-ray
_symmetry_cell_setting           tetragonal
_symmetry_space_group_name_H-M   'P -4 2 c'
_symmetry_Int_Tables_number      112
_space_group_name_Hall           'P -4 2c'
loop_
_symmetry_equiv_pos_site_id
_symmetry_equiv_pos_as_xyz
1 x,y,z
2 -y,x,-z
3 -x,-y,z
4 y,-x,-z
5 -x,y,1/2-z
6 y,x,1/2+z
7 x,-y,1/2-z
8 -y,-x,1/2+z
_cell_length_a                   14.202(6)
_cell_length_b                   14.202(6)
_cell_length_c                   26.644(9)
_cell_angle_alpha                90
_cell_angle_beta                 90
_cell_angle_gamma                90
_cell_volume                     5374.01
_exptl_crystal_colour            'deep red'
_cell_formula_units_Z            4
loop_
_atom_site_label
_atom_site_type_symbol
_atom_site_fract_x
_atom_site_fract_y
_atom_site_fract_z
Cu1 Cu 0.000 0.000 0.5000
N1 N 0.003(4) 0.120(2) 0.4531(7)
C1 C -0.080(3) 0.141(2) 0.432(1)
C2 C -0.077(3) 0.205(3) 0.389(2)
C3 C 0.015(4) 0.255(3) 0.379(1)
C4 C 0.087(3) 0.239(3) 0.404(2)
C5 C 0.094(6) 0.175(6) 0.447(3)
Cu2 Cu 0.000 0.500 0.2500
N2 N 0.000 0.500 0.328(1)
N3 N 0.000 0.364(3) 0.2500
C6 C -0.026(3) 0.457(2) 0.408(1)
C7 C 0.023(2) 0.419(2) 0.3550(9)
C8 C 0.026(2) 0.332(2) 0.3412(8)
C9 C 0.022(3) 0.300(2) 0.292(1)
C10 C -0.021(3) 0.205(2) 0.278(1)
C7B C -0.023(2) 0.581(2) 0.3550(9)
C6B C 0.026(3) 0.543(2) 0.408(1)
C8B C -0.026(2) 0.668(2) 0.3412(8)
C3B C -0.015(4) 0.745(3) 0.379(1)
C2B C 0.077(3) 0.795(3) 0.389(2)
C1B C 0.080(3) 0.859(2) 0.432(1)
N1B N -0.003(4) 0.880(2) 0.4531(7)
C5B C -0.094(6) 0.825(6) 0.447(3)
C4B C -0.087(3) 0.761(3) 0.404(2)
C9B C -0.022(3) 0.700(2) 0.292(1)
N3B N 0.000 0.636(3) 0.2500
C9F C 0.022(3) 0.700(2) 0.208(1)
C8F C 0.026(2) 0.668(2) 0.1588(8)
C3F C 0.015(4) 0.745(3) 0.121(1)
C2F C -0.077(3) 0.795(3) 0.111(2)
C1F C -0.080(3) 0.859(2) 0.068(1)
N1F N 0.003(4) 0.880(2) 0.0469(7)
C5F C 0.094(6) 0.825(6) 0.053(3)
C4F C 0.087(3) 0.761(3) 0.096(2)
C7F C 0.023(2) 0.581(2) 0.1450(9)
N2F N 0.000 0.500 0.172(1)
C7D C -0.023(2) 0.419(2) 0.1450(9)
C6D C 0.026(3) 0.457(2) 0.092(1)
C6F C -0.026(3) 0.543(2) 0.092(1)
C8D C -0.026(2) 0.332(2) 0.1588(8)
C3D C -0.015(4) 0.255(3) 0.121(1)
C2D C 0.077(3) 0.205(3) 0.111(2)
C1D C 0.080(3) 0.141(2) 0.068(1)
N1D N -0.003(4) 0.120(2) 0.0469(7)
C5D C -0.094(6) 0.175(6) 0.053(3)
C4D C -0.087(3) 0.239(3) 0.096(2)
C9D C -0.022(3) 0.300(2) 0.208(1)
C10D C 0.021(3) 0.205(2) 0.222(1)
C10F C -0.021(3) 0.795(2) 0.222(1)
C10B C 0.021(3) 0.795(2) 0.278(1)
N1A N -0.120(2) 0.003(4) 0.5469(7)
N1B N -0.003(4) -0.120(2) 0.4531(7)
N1C N 0.120(2) -0.003(4) 0.5469(7)
Cu1 Cu 0.000 1.000 0.5000
Cu1D Cu 0.000 1.000 0.0000
Cu1D Cu 0.000 0.000 0.0000

#END
