####################################################################### 
# 
# This file contains crystal structure data downloaded from the 
# Cambridge Structural Database (CSD) hosted by the Cambridge 
# Crystallographic Data Centre (CCDC).
# 
# Full information about CCDC data access policies and citation 
# guidelines are available at http://www.ccdc.cam.ac.uk/access/V1 
# 
# Audit and citation data items may have been added by the CCDC. 
# Please retain this information to preserve the provenance of 
# this file and to allow appropriate attribution of the data. 
# 
#######################################################################

data_secn153K
_audit_block_doi                 10.5517/cc11v096
_database_code_depnum_ccdc_archive 'CCDC 978307'
loop_
_citation_id
_citation_doi
_citation_year
1 10.1021/ic500463m 2014
_audit_update_record             
;
2013-12-20 deposited with the CCDC.	2024-07-12 downloaded from the CCDC.
;
_chemical_name_common            ?
_chemical_name_systematic        
;
 ? 
;





_chemical_formula_moiety         'C55 H40 Fe N6 Se2'
_chemical_formula_sum            'C55 H40 Fe N6 Se2'
_chemical_formula_weight         998.70
_chemical_melting_point          ?
loop_
_atom_type_symbol
_atom_type_description
_atom_type_scat_dispersion_real
_atom_type_scat_dispersion_imag
_atom_type_scat_source
C C 0.0181 0.0091 'International Tables Vol C Tables 4.2.6.8 and 6.1.1.4'
H H 0.0000 0.0000 'International Tables Vol C Tables 4.2.6.8 and 6.1.1.4'
Fe Fe -1.1336 3.1974 'International Tables Vol C Tables 4.2.6.8 and 6.1.1.4'
N N 0.0311 0.0180 'International Tables Vol C Tables 4.2.6.8 and 6.1.1.4'
Se Se -0.7943 1.1372 'International Tables Vol C Tables 4.2.6.8 and 6.1.1.4'

_space_group_crystal_system      orthorhombic
_space_group_IT_number           52
_space_group_name_H-M_alt        'P n n a'
_space_group_name_Hall           '-P 2a 2bc'
loop_
_space_group_symop_id
_space_group_symop_operation_xyz
1 'x, y, z'
2 '-x+1/2, -y, z'
3 'x, -y+1/2, -z+1/2'
4 '-x+1/2, y+1/2, -z+1/2'
5 '-x, -y, -z'
6 'x-1/2, y, -z'
7 '-x, y-1/2, z-1/2'
8 'x-1/2, -y-1/2, z-1/2'

_cell_length_a                   16.9134(7)
_cell_length_b                   40.299(4)
_cell_length_c                   35.5326(13)
_cell_angle_alpha                90.00
_cell_angle_beta                 90.00
_cell_angle_gamma                90.00
_cell_volume                     24219(3)
_cell_formula_units_Z            8
_cell_measurement_reflns_used    ?
_cell_measurement_temperature    155(2)
_cell_measurement_theta_max      ?
_cell_measurement_theta_min      ?
_exptl_absorpt_coefficient_mu    1.817
_exptl_absorpt_correction_T_max  1.00000
_exptl_absorpt_correction_T_min  0.73630
_exptl_absorpt_correction_type   multi-scan
_exptl_absorpt_process_details   
;
CrysAlisPro, Agilent Technologies,
Version 1.171.36.20 (release 27-06-2012 CrysAlis171 .NET)
(compiled Jul 11 2012,15:38:31)
Empirical absorption correction using spherical harmonics,
 implemented in SCALE3 ABSPACK scaling algorithm.
;
_exptl_crystal_colour            red
_exptl_crystal_density_diffrn    0.548
_exptl_crystal_density_meas      ?
_exptl_crystal_density_method    'not measured'
_exptl_crystal_description       ?
_exptl_crystal_F_000             4048
_exptl_crystal_size_max          0.20
_exptl_crystal_size_mid          0.10
_exptl_crystal_size_min          0.10
_exptl_special_details           
;
 ? 
;
_diffrn_reflns_av_R_equivalents  0.1025
_diffrn_reflns_av_unetI/netI     0.1431
_diffrn_reflns_limit_h_max       17
_diffrn_reflns_limit_h_min       -18
_diffrn_reflns_limit_k_max       44
_diffrn_reflns_limit_k_min       -33
_diffrn_reflns_limit_l_max       24
_diffrn_reflns_limit_l_min       -39
_diffrn_reflns_number            51629
_diffrn_reflns_theta_full        58.01
_diffrn_reflns_theta_max         58.01
_diffrn_reflns_theta_min         3.51
_diffrn_ambient_temperature      155(2)
_diffrn_detector_area_resol_mean ?
_diffrn_measured_fraction_theta_full 0.985
_diffrn_measured_fraction_theta_max 0.985
_diffrn_measurement_device_type  ?
_diffrn_measurement_method       ?
_diffrn_radiation_monochromator  graphite
_diffrn_radiation_type           CuK\a
_diffrn_radiation_wavelength     1.54184
_diffrn_source                   'fine-focus sealed tube'
_diffrn_standards_decay_%        ?
_diffrn_standards_interval_count ?
_diffrn_standards_interval_time  ?
_diffrn_standards_number         ?
_reflns_number_gt                4918
_reflns_number_total             16647
_reflns_threshold_expression     >2sigma(I)
_computing_cell_refinement       ?
_computing_data_collection       ?
_computing_data_reduction        ?
_computing_molecular_graphics    
;
O. V. Dolomanov, L. J. Bourhis, R. J. Gildea, J. A. K. Howard and H. Puschmann,
OLEX2: a complete structure solution, refinement and analysis program.
J. Appl. Cryst. (2009). 42, 339-341.
;
_computing_publication_material  
;
O. V. Dolomanov, L. J. Bourhis, R. J. Gildea, J. A. K. Howard and H. Puschmann,
OLEX2: a complete structure solution, refinement and analysis program.
J. Appl. Cryst. (2009). 42, 339-341.
;
_computing_structure_refinement  
;
SHELXL, G.M. Sheldrick, Acta Cryst.
(2008). A64, 112-122
;
_computing_structure_solution    'J. Appl. Cryst. (2007) 40, 786-790'
_refine_diff_density_max         0.357
_refine_diff_density_min         -0.416
_refine_diff_density_rms         0.040
_refine_ls_extinction_coef       ?
_refine_ls_extinction_method     none
_refine_ls_goodness_of_fit_ref   0.980
_refine_ls_hydrogen_treatment    constr
_refine_ls_matrix_type           full
_refine_ls_number_parameters     566
_refine_ls_number_reflns         16647
_refine_ls_number_restraints     0
_refine_ls_R_factor_all          0.1823
_refine_ls_R_factor_gt           0.0928
_refine_ls_restrained_S_all      0.919
_refine_ls_shift/su_max          0.000
_refine_ls_shift/su_mean         0.000
_refine_ls_structure_factor_coef Fsqd
_refine_ls_weighting_details     
'calc w=1/[\s^2^(Fo^2^)+(0.0430P)^2^+0.0000P] where P=(Fo^2^+2Fc^2^)/3'
_refine_ls_weighting_scheme      calc
_refine_ls_wR_factor_gt          0.2028
_refine_ls_wR_factor_ref         0.2294
_refine_special_details          
;
 Refinement of F^2^ against ALL reflections.  The weighted R-factor wR and 
 goodness of fit S are based on F^2^, conventional R-factors R are based 
 on F, with F set to zero for negative F^2^. The threshold expression of 
 F^2^ > 2sigma(F^2^) is used only for calculating R-factors(gt) etc. and is 
 not relevant to the choice of reflections for refinement.  R-factors based 
 on F^2^ are statistically about twice as large as those based on F, and R- 
 factors based on ALL data will be even larger. 
;
_atom_sites_solution_hydrogens   geom
_atom_sites_solution_primary     iterative
_atom_sites_solution_secondary   difmap
loop_
_atom_site_label
_atom_site_type_symbol
_atom_site_fract_x
_atom_site_fract_y
_atom_site_fract_z
_atom_site_U_iso_or_equiv
_atom_site_adp_type
_atom_site_occupancy
_atom_site_symmetry_multiplicity
_atom_site_calc_flag
_atom_site_refinement_flags
_atom_site_disorder_assembly
_atom_site_disorder_group
Fe1 Fe 0.13469(8) 0.2500 0.2500 0.0989(5) Uani 1 2 d S . .
Fe2 Fe 0.7500 0.0000 0.74209(4) 0.1995(14) Uani 1 2 d S . .
Se1 Se 0.1113(3) 0.36549(10) 0.25040(9) 0.2624(19) Uani 1 1 d . . .
Se2 Se 0.4818(7) -0.0302(3) 0.75072(19) 0.2624(11) Uani 1 1 d . . .
N1 N 0.2182(2) 0.25047(14) 0.28984(9) 0.0923(15) Uani 1 1 d . . .
N2 N 0.7304(5) 0.46276(15) 0.71478(18) 0.266(6) Uani 1 1 d G . .
N3 N 1.0535(3) 0.25073(13) 0.29017(10) 0.0928(15) Uani 1 1 d . . .
N4 N 0.7310(7) 0.03716(18) 0.69948(16) 0.194(4) Uani 1 1 d . . .
N5 N 0.1287(5) 0.2978(3) 0.2480(3) 0.175(6) Uani 1 1 d . . .
N6 N 0.6440(8) -0.0093(4) 0.7425(3) 0.199(5) Uani 1 1 d . . .
C1 C 0.2754(3) 0.27360(18) 0.28988(11) 0.102(2) Uani 1 1 d . . .
H1 H 0.2776 0.2878 0.2692 0.122 Uiso 1 1 calc R . .
C2 C 0.3316(3) 0.27831(17) 0.31808(11) 0.110(2) Uani 1 1 d . . .
H2 H 0.3695 0.2950 0.3172 0.132 Uiso 1 1 calc R . .
C3 C 0.3257(3) 0.25454(18) 0.34927(11) 0.110(2) Uani 1 1 d . . .
C4 C 0.2669(3) 0.23102(16) 0.34960(12) 0.0963(19) Uani 1 1 d . . .
H4 H 0.2620 0.2163 0.3696 0.116 Uiso 1 1 calc R . .
C5 C 0.2146(3) 0.22979(16) 0.31911(12) 0.096(2) Uani 1 1 d . . .
H5 H 0.1752 0.2137 0.3193 0.116 Uiso 1 1 calc R . .
C6 C 0.3850(3) 0.26096(15) 0.38068(12) 0.0970(19) Uani 1 1 d . . .
H6 H 0.4238 0.2769 0.3767 0.116 Uiso 1 1 calc R . .
C7 C 0.3843(2) 0.24516(15) 0.41316(11) 0.0870(18) Uani 1 1 d . . .
H7 H 0.3433 0.2301 0.4169 0.104 Uiso 1 1 calc R . .
C8 C 0.4413(3) 0.24872(17) 0.44396(12) 0.0819(16) Uani 1 1 d . . .
C9 C 0.4918(3) 0.27540(15) 0.44474(11) 0.0857(17) Uani 1 1 d . . .
H9 H 0.4862 0.2924 0.4273 0.103 Uiso 1 1 calc R . .
C10 C 0.5523(3) 0.27691(14) 0.47225(12) 0.0850(16) Uani 1 1 d . . .
H10 H 0.5877 0.2946 0.4713 0.102 Uiso 1 1 calc R . .
C11 C 0.5613(3) 0.25384(12) 0.50001(10) 0.0594(12) Uani 1 1 d . . .
C12 C 0.5040(3) 0.22852(14) 0.49995(10) 0.0751(15) Uani 1 1 d . . .
H12 H 0.5054 0.2128 0.5191 0.090 Uiso 1 1 calc R . .
C13 C 0.4455(3) 0.22583(14) 0.47278(11) 0.0754(14) Uani 1 1 d . . .
H13 H 0.4090 0.2086 0.4740 0.090 Uiso 1 1 calc R . .
C14 C 0.6324(3) 0.25538(12) 0.52538(10) 0.0640(12) Uani 1 1 d . . .
C15 C 0.6318(3) 0.28507(15) 0.55214(11) 0.0725(15) Uani 1 1 d . . .
C16 C 0.5773(3) 0.31028(17) 0.55141(12) 0.0890(18) Uani 1 1 d . . .
H16 H 0.5356 0.3095 0.5343 0.107 Uiso 1 1 calc R . .
C17 C 0.5838(4) 0.33754(16) 0.57641(15) 0.1035(19) Uani 1 1 d . . .
H17 H 0.5479 0.3550 0.5752 0.124 Uiso 1 1 calc R . .
C18 C 0.6430(4) 0.33790(18) 0.60218(13) 0.100(2) Uani 1 1 d . . .
C19 C 0.6941(4) 0.31273(19) 0.60489(14) 0.102(2) Uani 1 1 d . . .
H19 H 0.7330 0.3130 0.6234 0.123 Uiso 1 1 calc R . .
C20 C 0.6894(3) 0.28654(16) 0.58048(12) 0.0889(17) Uani 1 1 d . . .
H20 H 0.7254 0.2692 0.5827 0.107 Uiso 1 1 calc R . .
C21 C 0.6456(4) 0.3711(3) 0.62477(17) 0.197(5) Uani 1 1 d . . .
H21 H 0.6064 0.3871 0.6224 0.237 Uiso 1 1 calc R . .
C22 C 0.6962(6) 0.3744(2) 0.6436(3) 0.200(4) Uani 1 1 d . . .
H22 H 0.7319 0.3568 0.6446 0.240 Uiso 1 1 calc R . .
C23 C 0.7168(5) 0.40629(16) 0.67030(19) 0.231(5) Uani 1 1 d G . .
C24 C 0.6643(4) 0.4325(2) 0.66554(14) 0.242(6) Uani 1 1 d G . .
H24 H 0.6247 0.4312 0.6475 0.290 Uiso 1 1 calc R . .
C25 C 0.6711(5) 0.46074(16) 0.6878(2) 0.259(7) Uani 1 1 d G . .
H25 H 0.6360 0.4783 0.6846 0.322 Uiso 1 1 calc R . .
C26 C 0.7761(5) 0.40831(19) 0.6973(2) 0.263(8) Uani 1 1 d G . .
H26 H 0.8112 0.3908 0.7005 0.322 Uiso 1 1 calc R . .
C27 C 0.7829(4) 0.4365(2) 0.71954(15) 0.295(9) Uani 1 1 d G . .
H27 H 0.8225 0.4379 0.7376 0.353 Uiso 1 1 calc R . .
C28 C 1.0576(3) 0.27170(16) 0.31940(13) 0.0991(19) Uani 1 1 d . . .
H28 H 1.0990 0.2869 0.3197 0.119 Uiso 1 1 calc R . .
C29 C 1.0040(3) 0.27249(17) 0.34968(11) 0.096(2) Uani 1 1 d . . .
H29 H 1.0099 0.2878 0.3690 0.116 Uiso 1 1 calc R . .
C30 C 0.9438(3) 0.25050(16) 0.35009(12) 0.0904(17) Uani 1 1 d . . .
C31 C 0.9357(3) 0.22728(18) 0.31920(11) 0.110(2) Uani 1 1 d . . .
H31 H 0.8951 0.2117 0.3180 0.132 Uiso 1 1 calc R . .
C32 C 0.9957(4) 0.23022(17) 0.29044(11) 0.100(2) Uani 1 1 d . . .
H32 H 0.9920 0.2158 0.2701 0.120 Uiso 1 1 calc R . .
C33 C 0.8842(2) 0.24774(15) 0.38080(11) 0.0858(17) Uani 1 1 d . . .
H33 H 0.8438 0.2324 0.3773 0.103 Uiso 1 1 calc R . .
C34 C 0.8830(3) 0.26488(14) 0.41240(12) 0.0910(17) Uani 1 1 d . . .
H34 H 0.9230 0.2803 0.4163 0.109 Uiso 1 1 calc R . .
C35 C 0.8222(3) 0.26117(14) 0.44221(11) 0.0758(16) Uani 1 1 d . . .
C36 C 0.8222(3) 0.28269(14) 0.47189(12) 0.0788(15) Uani 1 1 d . . .
H36 H 0.8616 0.2987 0.4740 0.095 Uiso 1 1 calc R . .
C37 C 0.7617(3) 0.28054(14) 0.49956(10) 0.0781(15) Uani 1 1 d . . .
H37 H 0.7616 0.2954 0.5196 0.094 Uiso 1 1 calc R . .
C38 C 0.7043(3) 0.25719(13) 0.49731(11) 0.0667(14) Uani 1 1 d . . .
C39 C 0.7064(3) 0.23477(14) 0.46746(12) 0.0810(16) Uani 1 1 d . . .
H39 H 0.6679 0.2184 0.4657 0.097 Uiso 1 1 calc R . .
C40 C 0.7654(3) 0.23666(14) 0.44037(12) 0.0833(16) Uani 1 1 d . . .
H40 H 0.7667 0.2213 0.4208 0.100 Uiso 1 1 calc R . .
C41 C 0.6379(3) 0.22375(14) 0.55013(11) 0.0699(14) Uani 1 1 d . . .
C42 C 0.6980(3) 0.20099(17) 0.54568(12) 0.0933(18) Uani 1 1 d . . .
H42 H 0.7357 0.2041 0.5270 0.112 Uiso 1 1 calc R . .
C43 C 0.7025(3) 0.17387(16) 0.56864(14) 0.0957(18) Uani 1 1 d . . .
H43 H 0.7423 0.1583 0.5647 0.115 Uiso 1 1 calc R . .
C44 C 0.6491(4) 0.16893(17) 0.59775(14) 0.0974(19) Uani 1 1 d . . .
C45 C 0.5896(4) 0.19157(19) 0.60162(14) 0.0972(19) Uani 1 1 d . . .
H45 H 0.5515 0.1884 0.6201 0.117 Uiso 1 1 calc R . .
C46 C 0.5849(3) 0.21905(15) 0.57876(11) 0.0800(16) Uani 1 1 d . . .
H46 H 0.5453 0.2346 0.5828 0.096 Uiso 1 1 calc R . .
C47 C 0.6520(5) 0.14137(19) 0.62323(17) 0.123(3) Uani 1 1 d . . .
H47 H 0.6148 0.1407 0.6425 0.147 Uiso 1 1 calc R . .
C48 C 0.7023(5) 0.1176(2) 0.62137(15) 0.132(3) Uani 1 1 d . . .
H48 H 0.7369 0.1184 0.6010 0.158 Uiso 1 1 calc R . .
C49 C 0.7133(7) 0.0884(2) 0.64765(19) 0.164(4) Uani 1 1 d . . .
C50 C 0.7788(7) 0.0671(2) 0.6449(2) 0.180(4) Uani 1 1 d . . .
H50 H 0.8158 0.0693 0.6257 0.216 Uiso 1 1 calc R . .
C51 C 0.7858(6) 0.0429(2) 0.6718(2) 0.164(4) Uani 1 1 d . . .
H51 H 0.8306 0.0295 0.6713 0.197 Uiso 1 1 calc R . .
C52 C 0.6546(7) 0.0844(2) 0.6750(2) 0.204(5) Uani 1 1 d . . .
H52 H 0.6107 0.0982 0.6763 0.245 Uiso 1 1 calc R . .
C53 C 0.6665(8) 0.0575(3) 0.7009(2) 0.206(5) Uani 1 1 d . . .
H53 H 0.6286 0.0537 0.7194 0.248 Uiso 1 1 calc R . .
C54 C 0.5875(9) -0.0135(7) 0.7450(5) 0.234(9) Uani 1 1 d . . .
C55 C 0.1330(9) 0.3218(4) 0.2513(4) 0.185(8) Uani 1 1 d . . .

loop_
_atom_site_aniso_label
_atom_site_aniso_U_11
_atom_site_aniso_U_22
_atom_site_aniso_U_33
_atom_site_aniso_U_23
_atom_site_aniso_U_13
_atom_site_aniso_U_12
Fe1 0.0623(8) 0.2060(16) 0.0284(5) 0.0054(9) 0.000 0.000
Fe2 0.400(5) 0.1319(16) 0.0666(9) 0.000 0.000 0.058(3)
Se1 0.310(5) 0.238(4) 0.238(3) 0.043(3) -0.075(3) -0.067(3)
Se2 0.306(5) 0.250(3) 0.21(4) 0.040(3) -0.073(4) -0.068(3)
N1 0.046(3) 0.209(5) 0.0217(19) 0.019(2) 0.0030(16) -0.011(3)
N2 0.52(2) 0.102(6) 0.176(8) -0.020(5) 0.063(10) -0.081(8)
N3 0.042(3) 0.197(5) 0.039(2) -0.014(3) -0.0097(18) -0.020(3)
N4 0.371(14) 0.150(6) 0.061(4) 0.007(4) 0.036(5) 0.070(7)
N5 0.035(3) 0.467(18) 0.022(3) -0.030(9) 0.002(2) -0.060(8)
N6 0.304(17) 0.185(9) 0.107(5) -0.007(5) 0.068(8) -0.002(15)
C1 0.065(4) 0.216(7) 0.024(2) 0.007(3) 0.005(2) -0.003(4)
C2 0.073(4) 0.219(7) 0.037(3) 0.013(3) -0.002(2) -0.040(4)
C3 0.068(4) 0.237(7) 0.024(2) 0.019(3) 0.010(2) 0.006(5)
C4 0.059(4) 0.187(6) 0.042(3) 0.007(3) 0.016(3) -0.036(4)
C5 0.052(3) 0.207(6) 0.030(2) -0.008(3) 0.005(2) -0.008(4)
C6 0.067(4) 0.179(6) 0.044(3) 0.012(3) -0.003(2) -0.013(4)
C7 0.026(3) 0.202(6) 0.034(2) 0.000(3) 0.0005(18) 0.002(3)
C8 0.046(3) 0.155(5) 0.046(3) -0.010(3) 0.008(2) -0.001(4)
C9 0.096(4) 0.129(5) 0.032(2) 0.014(3) -0.012(3) -0.007(4)
C10 0.079(4) 0.129(5) 0.046(3) -0.006(3) 0.004(3) -0.015(3)
C11 0.049(3) 0.109(4) 0.0205(19) 0.013(2) 0.0068(18) 0.005(3)
C12 0.048(3) 0.144(5) 0.033(2) 0.007(3) -0.001(2) -0.009(3)
C13 0.056(3) 0.131(4) 0.039(2) 0.010(3) 0.011(2) -0.004(3)
C14 0.048(3) 0.105(4) 0.039(2) -0.009(3) 0.001(2) 0.002(3)
C15 0.049(3) 0.133(5) 0.035(2) 0.000(3) 0.012(2) -0.001(3)
C16 0.071(4) 0.150(6) 0.046(3) 0.006(3) 0.005(3) -0.024(4)
C17 0.121(6) 0.124(5) 0.066(3) -0.018(4) 0.017(4) 0.002(4)
C18 0.107(5) 0.160(6) 0.032(3) -0.044(4) -0.002(3) -0.021(5)
C19 0.082(4) 0.175(6) 0.050(3) -0.030(4) -0.011(3) 0.015(5)
C20 0.060(3) 0.161(5) 0.046(3) -0.010(3) -0.012(2) 0.002(4)
C21 0.112(6) 0.407(16) 0.073(4) 0.055(7) -0.042(4) -0.081(8)
C22 0.122(6) 0.395(16) 0.067(4) 0.065(7) -0.035(4) -0.086(8)
C23 0.381(14) 0.235(13) 0.095(6) -0.094(8) 0.020(5) -0.071(10)
C24 0.389(17) 0.238(11) 0.098(5) -0.091(6) 0.018(7) -0.065(12)
C25 0.399(16) 0.257(15) 0.099(7) -0.111(9) 0.032(6) -0.075(14)
C26 0.410(18) 0.270(14) 0.101(8) -0.121(8) 0.029(7) -0.079(12)
C27 0.57(3) 0.201(12) 0.109(6) -0.069(7) 0.022(10) -0.137(14)
C28 0.076(4) 0.174(6) 0.048(3) 0.013(4) -0.019(3) -0.013(4)
C29 0.048(3) 0.208(6) 0.033(2) -0.007(3) 0.006(2) -0.017(4)
C30 0.047(3) 0.176(5) 0.049(3) 0.003(3) -0.009(2) 0.009(4)
C31 0.069(4) 0.229(7) 0.034(2) -0.015(3) -0.002(2) 0.003(4)
C32 0.072(4) 0.197(6) 0.032(2) -0.012(3) -0.012(3) 0.015(5)
C33 0.027(3) 0.193(6) 0.038(2) 0.004(3) 0.0076(18) -0.015(3)
C34 0.085(4) 0.147(5) 0.041(3) 0.002(3) 0.010(2) -0.018(4)
C35 0.045(3) 0.148(5) 0.034(2) -0.006(3) 0.001(2) -0.005(3)
C36 0.053(3) 0.133(5) 0.051(3) -0.012(3) -0.007(2) -0.015(3)
C37 0.058(3) 0.145(5) 0.032(2) -0.013(3) 0.002(2) -0.003(4)
C38 0.041(3) 0.116(4) 0.043(2) 0.003(3) -0.003(2) -0.015(3)
C39 0.059(3) 0.135(5) 0.049(3) -0.012(3) 0.005(2) -0.010(3)
C40 0.055(3) 0.141(5) 0.053(3) -0.016(3) 0.005(3) -0.011(3)
C41 0.042(3) 0.132(4) 0.036(2) -0.001(3) -0.008(2) 0.009(3)
C42 0.076(4) 0.169(6) 0.035(2) 0.003(3) -0.010(3) 0.000(4)
C43 0.102(5) 0.143(5) 0.042(3) -0.002(3) -0.004(3) 0.006(4)
C44 0.122(6) 0.125(5) 0.045(3) 0.018(4) -0.029(3) 0.004(5)
C45 0.081(5) 0.163(6) 0.048(3) 0.005(4) -0.001(3) -0.009(4)
C46 0.065(4) 0.147(5) 0.028(2) 0.002(3) 0.002(2) -0.008(3)
C47 0.161(8) 0.133(6) 0.074(4) -0.005(4) 0.003(4) 0.037(5)
C48 0.185(8) 0.165(7) 0.045(3) 0.012(4) 0.002(4) 0.005(6)
C49 0.260(13) 0.177(9) 0.056(4) 0.016(5) -0.009(6) 0.021(8)
C50 0.277(14) 0.1