####################################################################### 
# 
# This file contains crystal structure data downloaded from the 
# Cambridge Structural Database (CSD) hosted by the Cambridge 
# Crystallographic Data Centre (CCDC).
# 
# Full information about CCDC data access policies and citation 
# guidelines are available at http://www.ccdc.cam.ac.uk/access/V1 
# 
# Audit and citation data items may have been added by the CCDC. 
# Please retain this information to preserve the provenance of 
# this file and to allow appropriate attribution of the data. 
# 
#######################################################################

data_5
_audit_block_doi                 10.5517/ccqfjc0
_database_code_depnum_ccdc_archive 'CCDC 668402'
loop_
_citation_id
_citation_doi
_citation_year
1 10.1002/anie.200705709 2008
_audit_update_record             
;
2007-11-21 deposited with the CCDC.	2024-07-12 downloaded from the CCDC.
;

_audit_creation_method           SHELXL-97
_chemical_name_systematic        
;
?
;
_chemical_name_common            ?
_chemical_melting_point          ?
_chemical_formula_moiety         ?
_chemical_formula_sum            'C12 H39 N2 Ni6 O53 P W9'
_chemical_formula_weight         3097.33

loop_
_atom_type_symbol
_atom_type_description
_atom_type_scat_dispersion_real
_atom_type_scat_dispersion_imag
_atom_type_scat_source
C C 0.0033 0.0016 'International Tables Vol C Tables 4.2.6.8 and 6.1.1.4'
H H 0.0000 0.0000 'International Tables Vol C Tables 4.2.6.8 and 6.1.1.4'
N N 0.0061 0.0033 'International Tables Vol C Tables 4.2.6.8 and 6.1.1.4'
O O 0.0106 0.0060 'International Tables Vol C Tables 4.2.6.8 and 6.1.1.4'
P P 0.1023 0.0942 'International Tables Vol C Tables 4.2.6.8 and 6.1.1.4'
Ni Ni 0.3393 1.1124 'International Tables Vol C Tables 4.2.6.8 and 6.1.1.4'
W W -0.8490 6.8722 'International Tables Vol C Tables 4.2.6.8 and 6.1.1.4'

_symmetry_cell_setting           Tetragonal
_symmetry_space_group_name_H-M   P4(1)

loop_
_symmetry_equiv_pos_as_xyz
'x, y, z'
'-x, -y, z+1/2'
'-y, x, z+1/4'
'y, -x, z+3/4'

_cell_length_a                   15.5419(4)
_cell_length_b                   15.5419(4)
_cell_length_c                   26.4893(13)
_cell_angle_alpha                90.00
_cell_angle_beta                 90.00
_cell_angle_gamma                90.00
_cell_volume                     6398.5(4)
_cell_formula_units_Z            4
_cell_measurement_temperature    293(2)
_cell_measurement_reflns_used    9165
_cell_measurement_theta_min      2.0063
_cell_measurement_theta_max      27.4835

_exptl_crystal_description       prism
_exptl_crystal_colour            green
_exptl_crystal_size_max          0.4500
_exptl_crystal_size_mid          0.1000
_exptl_crystal_size_min          0.1000
_exptl_crystal_density_meas      ?
_exptl_crystal_density_diffrn    3.215
_exptl_crystal_density_method    'not measured'
_exptl_crystal_F_000             5592
_exptl_absorpt_coefficient_mu    17.951
_exptl_absorpt_correction_type   Multi-scan
_exptl_absorpt_correction_T_min  0.1632
_exptl_absorpt_correction_T_max  1.0000
_exptl_absorpt_process_details   'SADABS (Sheldrick, 1996)'

_exptl_special_details           
;
?
;

_diffrn_ambient_temperature      293(2)
_diffrn_radiation_wavelength     0.71073
_diffrn_radiation_type           MoK\a
_diffrn_radiation_source         'fine-focus sealed tube'
_diffrn_radiation_monochromator  graphite
_diffrn_measurement_device_type  'mercury CCD'
_diffrn_measurement_method       dtprofit.ref
_diffrn_detector_area_resol_mean ?
_diffrn_standards_number         none
_diffrn_standards_interval_count none
_diffrn_standards_interval_time  none
_diffrn_standards_decay_%        none
_diffrn_reflns_number            49942
_diffrn_reflns_av_R_equivalents  0.0504
_diffrn_reflns_av_sigmaI/netI    0.0514
_diffrn_reflns_limit_h_min       -20
_diffrn_reflns_limit_h_max       20
_diffrn_reflns_limit_k_min       -20
_diffrn_reflns_limit_k_max       20
_diffrn_reflns_limit_l_min       -34
_diffrn_reflns_limit_l_max       27
_diffrn_reflns_theta_min         2.01
_diffrn_reflns_theta_max         27.48
_reflns_number_total             12662
_reflns_number_gt                12391
_reflns_threshold_expression     >2sigma(I)

_computing_data_collection       'CrystalClear (Rigaku Corp., 2000)'
_computing_cell_refinement       'CrystalClear (Rigaku Corp., 2000)'
_computing_data_reduction        'CrystalClear (Rigaku Corp., 2000)'
_computing_structure_solution    'SHELXS-97 (Sheldrick, 1990)'
_computing_structure_refinement  'SHELXL-97 (Sheldrick, 1997)'
_computing_molecular_graphics    SHELXTL
_computing_publication_material  SHELXTL

_refine_special_details          
;
Refinement of F^2^ against ALL reflections. The weighted R-factor wR and
goodness of fit S are based on F^2^, conventional R-factors R are based
on F, with F set to zero for negative F^2^. The threshold expression of
F^2^ > 2sigma(F^2^) is used only for calculating R-factors(gt) etc. and is
not relevant to the choice of reflections for refinement. R-factors based
on F^2^ are statistically about twice as large as those based on F, and R-
factors based on ALL data will be even larger.
;

_refine_ls_structure_factor_coef Fsqd
_refine_ls_matrix_type           full
_refine_ls_weighting_scheme      calc
_refine_ls_weighting_details     
'calc w=1/[\s^2^(Fo^2^)+(0.0331P)^2^+15.9517P] where P=(Fo^2^+2Fc^2^)/3'
_atom_sites_solution_primary     direct
_atom_sites_solution_secondary   difmap
_atom_sites_solution_hydrogens   geom
_refine_ls_hydrogen_treatment    constr
_refine_ls_extinction_method     none
_refine_ls_extinction_coef       ?
_refine_ls_abs_structure_details 'Flack H D (1983), Acta Cryst. A39, 876-881'
_refine_ls_abs_structure_Flack   0.002(7)
_refine_ls_number_reflns         12662
_refine_ls_number_parameters     732
_refine_ls_number_restraints     2
_refine_ls_R_factor_all          0.0325
_refine_ls_R_factor_gt           0.0315
_refine_ls_wR_factor_ref         0.0786
_refine_ls_wR_factor_gt          0.0779
_refine_ls_goodness_of_fit_ref   1.098
_refine_ls_restrained_S_all      1.098
_refine_ls_shift/su_max          0.001
_refine_ls_shift/su_mean         0.000

loop_
_atom_site_label
_atom_site_type_symbol
_atom_site_fract_x
_atom_site_fract_y
_atom_site_fract_z
_atom_site_U_iso_or_equiv
_atom_site_adp_type
_atom_site_occupancy
_atom_site_symmetry_multiplicity
_atom_site_calc_flag
_atom_site_refinement_flags
_atom_site_disorder_assembly
_atom_site_disorder_group
Ni1 Ni 0.62964(8) 0.84501(8) -0.25259(5) 0.0169(3) Uani 1 1 d . . .
Ni2 Ni 0.80220(8) 0.84440(9) -0.31293(5) 0.0181(3) Uani 1 1 d . . .
Ni3 Ni 0.65397(8) 0.71260(8) -0.33170(5) 0.0150(2) Uani 1 1 d . . .
Ni4 Ni 0.95840(9) 0.83675(9) -0.38572(6) 0.0222(3) Uani 1 1 d . . .
Ni5 Ni 0.81478(8) 0.70523(8) -0.39899(5) 0.0159(3) Uani 1 1 d . . .
Ni6 Ni 0.67190(8) 0.58603(8) -0.42059(5) 0.0165(3) Uani 1 1 d . . .
W1 W 0.64017(3) 0.63483(3) -0.206585(15) 0.01610(8) Uani 1 1 d . . .
W2 W 0.85895(3) 0.48135(3) -0.378855(16) 0.01650(8) Uani 1 1 d . . .
W3 W 0.98118(3) 0.46072(3) -0.271102(17) 0.02117(9) Uani 1 1 d . . .
W4 W 1.02040(3) 0.62651(3) -0.354516(16) 0.01857(9) Uani 1 1 d . . .
W5 W 0.96190(3) 0.62405(3) -0.169002(18) 0.02278(10) Uani 1 1 d . . .
W6 W 0.66302(3) 0.48630(3) -0.301068(16) 0.01707(9) Uani 1 1 d . . .
W7 W 0.78374(3) 0.46844(3) -0.191506(16) 0.02042(9) Uani 1 1 d . . .
W8 W 0.99623(3) 0.78807(3) -0.254230(17) 0.02048(9) Uani 1 1 d . . .
W9 W 0.81404(3) 0.79022(3) -0.180441(16) 0.01963(9) Uani 1 1 d . . .
P1 P 0.83050(16) 0.63892(17) -0.28153(10) 0.0139(5) Uani 1 1 d . . .
O1 O 0.7647(4) 0.8371(5) -0.2361(3) 0.0194(15) Uani 1 1 d . . .
O2 O 0.6773(4) 0.8382(4) -0.3225(3) 0.0179(15) Uani 1 1 d . . .
H2B H 0.6523 0.8772 -0.3476 0.022 Uiso 1 1 calc R . .
O3 O 0.6358(5) 0.7127(4) -0.2561(3) 0.0186(15) Uani 1 1 d . . .
O4 O 0.9307(5) 0.8320(5) -0.3044(3) 0.0212(16) Uani 1 1 d . . .
O5 O 0.8296(4) 0.8325(5) -0.3879(3) 0.0191(15) Uani 1 1 d . . .
H5B H 0.8002 0.8716 -0.4113 0.023 Uiso 1 1 calc R . .
O6 O 0.6861(4) 0.7090(4) -0.4030(3) 0.0158(14) Uani 1 1 d . . .
H6A H 0.6600 0.7517 -0.4256 0.019 Uiso 1 1 calc R . .
O7 O 0.6462(5) 0.5777(4) -0.3421(3) 0.0168(14) Uani 1 1 d . . .
O8 O 0.9447(4) 0.7011(5) -0.3826(3) 0.0204(15) Uani 1 1 d . . .
O9 O 0.7997(4) 0.5742(4) -0.4000(3) 0.0150(14) Uani 1 1 d . . .
O10 O 0.7905(4) 0.7033(4) -0.3191(3) 0.0151(14) Uani 1 1 d . . .
O11 O 0.5092(5) 0.8395(5) -0.2844(3) 0.0254(17) Uani 1 1 d . . .
O12 O 0.5289(5) 0.7349(5) -0.3414(3) 0.0259(17) Uani 1 1 d . . .
O13 O 0.3853(5) 0.7106(5) -0.2428(3) 0.0213(16) Uani 1 1 d . . .
O14 O 0.2955(5) 0.8228(5) -0.2243(3) 0.0219(16) Uani 1 1 d . . .
O15 O 0.0831(5) 0.8379(6) -0.3717(3) 0.0298(19) Uani 1 1 d . . .
O16 O 0.1405(6) 0.8489(12) -0.4493(4) 0.087(6) Uani 1 1 d . . .
H16A H 0.0897 0.8536 -0.4571 0.131 Uiso 1 1 calc R . .
O17 O 0.5448(5) 0.6552(5) -0.1742(3) 0.0218(16) Uani 1 1 d . . .
O18 O 0.7100(5) 0.4235(5) -0.2418(3) 0.0215(16) Uani 1 1 d . . .
O19 O 0.8891(5) 0.7101(5) -0.1418(3) 0.0227(16) Uani 1 1 d . . .
O20 O 0.7271(4) 0.7057(5) -0.1745(3) 0.0206(15) Uani 1 1 d . . .
O21 O 1.0473(5) 0.3778(6) -0.2542(4) 0.036(2) Uani 1 1 d . . .
O22 O 0.7869(5) 0.8601(5) -0.1326(3) 0.0299(18) Uani 1 1 d . . .
O23 O 0.9278(5) 0.4152(5) -0.3294(3) 0.0221(16) Uani 1 1 d . . .
O24 O 0.7635(4) 0.4509(5) -0.3355(3) 0.0192(15) Uani 1 1 d . . .
O25 O 1.0831(5) 0.8554(5) -0.2517(3) 0.0279(18) Uani 1 1 d . . .
O26 O 0.8936(4) 0.5784(5) -0.3088(3) 0.0178(15) Uani 1 1 d . . .
O27 O 0.9245(5) 0.8370(5) -0.2024(3) 0.0226(16) Uani 1 1 d . . .
O28 O 1.1131(5) 0.6391(5) -0.3879(3) 0.0280(18) Uani 1 1 d . . .
O29 O 0.9643(5) 0.5342(5) -0.3962(3) 0.0216(16) Uani 1 1 d . . .
O30 O 0.8783(5) 0.4353(5) -0.2349(3) 0.0236(17) Uani 1 1 d . . .
O31 O 0.8495(5) 0.4085(5) -0.4285(3) 0.0228(16) Uani 1 1 d . . .
O32 O 0.7617(4) 0.5822(4) -0.2567(3) 0.0169(14) Uani 1 1 d . . .
O33 O 1.0331(5) 0.7090(6) -0.1979(3) 0.0273(18) Uani 1 1 d . . .
O34 O 0.9997(5) 0.5446(5) -0.2190(3) 0.0252(17) Uani 1 1 d . . .
O35 O 0.6915(5) 0.5396(5) -0.1686(3) 0.0200(15) Uani 1 1 d . . .
O36 O 0.8631(5) 0.5487(5) -0.1649(3) 0.0228(16) Uani 1 1 d . . .
O37 O 1.0200(5) 0.5922(6) -0.1177(3) 0.0306(19) Uani 1 1 d . . .
O38 O 0.8805(4) 0.6881(5) -0.2400(3) 0.0203(16) Uani 1 1 d . . .
O39 O 0.5882(5) 0.4117(5) -0.3201(3) 0.0249(17) Uani 1 1 d . . .
O40 O 1.0372(5) 0.6961(5) -0.2969(3) 0.0240(16) Uani 1 1 d . . .
O41 O 0.5977(4) 0.5469(5) -0.2494(3) 0.0182(15) Uani 1 1 d . . .
O42 O 1.0549(4) 0.5267(5) -0.3122(3) 0.0239(17) Uani 1 1 d . . .
O43 O 0.7835(5) 0.3882(5) -0.1476(3) 0.0305(19) Uani 1 1 d . . .
C1 C 0.3971(6) 0.8038(8) -0.3407(5) 0.026(2) Uani 1 1 d . . .
C2 C 0.3854(7) 0.8258(10) -0.3911(5) 0.039(4) Uani 1 1 d . . .
H2A H 0.4332 0.8321 -0.4119 0.047 Uiso 1 1 calc R . .
C3 C 0.3078(8) 0.8381(10) -0.4101(5) 0.040(4) Uani 1 1 d . . .
H3A H 0.3017 0.8544 -0.4437 0.048 Uiso 1 1 calc R . .
C4 C 0.2349(7) 0.8268(8) -0.3801(5) 0.028(3) Uani 1 1 d . . .
C5 C 0.2432(6) 0.8053(8) -0.3298(4) 0.023(2) Uani 1 1 d . . .
H5A H 0.1946 0.7977 -0.3098 0.028 Uiso 1 1 calc R . .
C6 C 0.3250(7) 0.7952(7) -0.3092(4) 0.021(2) Uani 1 1 d . . .
C7 C 0.4858(6) 0.7903(7) -0.3193(4) 0.018(2) Uani 1 1 d . . .
C8 C 0.3371(7) 0.7748(7) -0.2542(4) 0.021(2) Uani 1 1 d . . .
C9 C 0.1464(8) 0.8374(10) -0.4029(5) 0.040(3) Uani 1 1 d . . .
OW1 O 0.6221(9) 0.9774(6) -0.2510(5) 0.060(3) Uani 1 1 d . . .
OW2 O 0.8073(7) 0.9786(6) -0.3116(5) 0.053(3) Uani 1 1 d . . .
OW3 O 0.9562(6) 0.9716(6) -0.3905(5) 0.049(3) Uani 1 1 d . . .
OW4 O 0.9769(5) 0.8178(7) -0.4622(3) 0.038(2) Uani 1 1 d . . .
OW5 O 0.5430(6) 0.6003(8) -0.4382(5) 0.055(3) Uani 1 1 d . . .
OW6 O 0.4360(5) 0.5725(5) -0.3037(3) 0.0264(19) Uani 1 1 d . . .
OW7 O 0.700(2) 1.0326(18) -0.1599(13) 0.063(9) Uani 0.38 1 d P . .
OW8 O 0.4447(14) 0.4777(17) -0.3934(9) 0.091(8) Uani 0.63 1 d P . .
OW9 O 0.7167(5) 0.8098(5) -0.0401(3) 0.0239(17) Uani 1 1 d . . .
OW10 O 0.6277(10) 0.2335(7) -0.3189(5) 0.071(4) Uani 1 1 d . . .
OW11 O 0.6061(10) 0.8086(8) -0.4803(6) 0.083(5) Uani 1 1 d . . .
C12 C 0.3857(10) 0.9771(10) -0.2447(6) 0.045(3) Uiso 1 1 d D . .
H12A H 0.3265 0.9786 -0.2550 0.067 Uiso 1 1 calc R . .
H12B H 0.3942 1.0160 -0.2170 0.067 Uiso 1 1 calc R . .
H12C H 0.4005 0.9198 -0.2344 0.067 Uiso 1 1 calc R . .
C11 C 0.443(5) 1.004(6) -0.289(2) 0.40(5) Uiso 1 1 d D . .
H11A H 0.4738 0.9591 -0.3074 0.476 Uiso 1 1 calc R . .
C10 C 0.480(3) 1.097(2) -0.2903(17) 0.156(14) Uiso 1 1 d . . .
H10A H 0.4329 1.1365 -0.2977 0.187 Uiso 1 1 calc R . .
H10B H 0.5204 1.1010 -0.3179 0.187 Uiso 1 1 calc R . .
N2 N 0.530(3) 1.132(3) -0.2365(17) 0.25(2) Uiso 1 1 d . . .
H2C H 0.5804 1.1552 -0.2445 0.374 Uiso 1 1 calc R . .
H2D H 0.5380 1.0876 -0.2158 0.374 Uiso 1 1 calc R . .
H2E H 0.4972 1.1712 -0.2213 0.374 Uiso 1 1 calc R . .
N1 N 0.367(3) 1.044(3) -0.313(2) 0.33(3) Uiso 1 1 d . . .
H1A H 0.3196 1.0188 -0.3015 0.491 Uiso 1 1 calc R . .
H1B H 0.3704 1.0363 -0.3464 0.491 Uiso 1 1 calc R . .
H1C H 0.3660 1.0996 -0.3061 0.491 Uiso 1 1 calc R . .

loop_
_atom_site_aniso_label
_atom_site_aniso_U_11
_atom_site_aniso_U_22
_atom_site_aniso_U_33
_atom_site_aniso_U_23
_atom_site_aniso_U_13
_atom_site_aniso_U_12
Ni1 0.0149(6) 0.0205(6) 0.0153(6) -0.0014(5) 0.0022(5) 0.0007(5)
Ni2 0.0133(6) 0.0212(7) 0.0198(7) -0.0027(5) 0.0018(5) -0.0001(5)
Ni3 0.0128(6) 0.0183(6) 0.0138(6) -0.0003(5) 0.0008(5) 0.0013(5)
Ni4 0.0137(6) 0.0273(7) 0.0255(8) 0.0027(6) -0.0006(5) 0.0001(5)
Ni5 0.0149(6) 0.0182(6) 0.0147(6) -0.0016(5) -0.0002(5) 0.0006(5)
Ni6 0.0169(6) 0.0181(6) 0.0144(7) -0.0010(5) -0.0009(5) 0.0004(5)
W1 0.01576(19) 0.01993(19) 0.01260(19) -0.00001(15) 0.00159(15) 0.00145(15)
W2 0.01816(19) 0.01683(19) 0.01450(19) -0.00269(15) -0.00300(15) 0.00384(15)
W3 0.0205(2) 0.0248(2) 0.0182(2) -0.00049(17) -0.00436(16) 0.00790(17)
W4 0.01294(19) 0.0246(2) 0.0182(2) -0.00233(17) -0.00098(15) 0.00296(15)
W5 0.0194(2) 0.0319(2) 0.0170(2) -0.00344(18) -0.00680(17) 0.00194(18)
W6 0.0191(2) 0.01747(19) 0.0146(2) 0.00009(15) -0.00197(15) -0.00090(16)
W7 0.0223(2) 0.0228(2) 0.0161(2) 0.00267(16) -0.00277(16) 0.00309(17)
W8 0.01409(19) 0.0276(2) 0.0197(2) -0.00561(17) -0.00239(16) -0.00298(16)
W9 0.0178(2) 0.0257(2) 0.0154(2) -0.00525(16) -0.00083(15) 0.00018(16)
P1 0.0120(11) 0.0185(12) 0.0113(12) -0.0021(9) -0.0018(9) 0.0028(9)
O1 0.014(3) 0.021(4) 0.023(4) -0.001(3) 0.004(3) 0.000(3)
O2 0.014(3) 0.019(4) 0.020(4) 0.004(3) 0.000(3) 0.004(3)
O3 0.025(4) 0.017(3) 0.014(4) -0.001(3) -0.003(3) 0.004(3)
O4 0.017(3) 0.022(4) 0.025(4) -0.002(3) 0.003(3) 0.000(3)
O5 0.016(3) 0.019(3) 0.023(4) 0.000(3) 0.002(3) -0.002(3)
O6 0.019(3) 0.012(3) 0.016(4) -0.002(3) -0.002(3) -0.002(3)
O7 0.021(4) 0.013(3) 0.017(4) -0.003(3) -0.001(3) 0.004(3)
O8 0.015(3) 0.021(4) 0.024(4) -0.005(3) 0.005(3) 0.005(3)
O9 0.014(3) 0.016(3) 0.015(4) -0.004(3) -0.006(3) 0.006(3)
O10 0.015(3) 0.017(3) 0.013(3) -0.001(3) -0.001(3) -0.001(3)
O11 0.013(3) 0.039(5) 0.024(4) 0.002(3) 0.001(3) 0.003(3)
O12 0.018(4) 0.033(4) 0.027(5) 0.001(3) -0.008(3) 0.006(3)
O13 0.021(4) 0.031(4) 0.012(4) 0.000(3) 0.000(3) 0.007(3)
O14 0.023(4) 0.020(4) 0.022(4) -0.003(3) 0.003(3) 0.003(3)
O15 0.014(4) 0.046(5) 0.029(5) 0.009(4) -0.002(3) -0.005(3)
O16 0.021(5) 0.215(17) 0.026(6) 0.036(8) -0.012(4) -0.002(7)
O17 0.019(4) 0.030(4) 0.016(4) 0.000(3) -0.001(3) 0.001(3)
O18 0.028(4) 0.018(4) 0.018(4) 0.004(3) 0.002(3) 0.003(3)
O19 0.021(4) 0.029(4) 0.018(4) 0.000(3) -0.012(3) 0.005(3)
O20 0.013(3) 0.031(4) 0.018(4) -0.002(3) 0.005(3) -0.001(3)
O21 0.027(4) 0.046(5) 0.035(5) -0.004(4) -0.008(4) 0.017(4)
O22 0.034(5) 0.037(5) 0.019(4) -0.004(3) -0.003(3) 0.007(4)
O23 0.021(4) 0.021(4) 0.023(4) -0.003(3) -0.009(3) 0.004(3)
O24 0.017(3) 0.018(4) 0.023(4) -0.002(3) 0.000(3) 0.003(3)
O25 0.020(4) 0.028(4) 0.037(5) -0.013(4) 0.000(3) -0.011(3)
O26 0.018(3) 0.020(4) 0.015(4) -0.005(3) -0.002(3) 0.004(3)
O27 0.021(4) 0.029(4) 0.018(4) -0.002(3) 0.000(3) -0.007(3)
O28 0.020(4) 0.034(4) 0.030(5) -0.005(4) 0.000(3) -0.003(3)
O29 0.023(4) 0.027(4) 0.014(4) -0.002(3) -0.006(3) -0.001(3)
O30 0.022(4) 0.025(4) 0.024(4) -0.002(3) -0.006(3) 0.005(3)
O31 0.026(4) 0.020(4) 0.022(4) -0.007(3) -0.002(3) 0.002(3)
O32 0.014(3) 0.020(3) 0.017(4) -0.001(3) 0.002(3) 0.005(3)
O33 0.017(4) 0.042(5) 0.023(4) -0.003(4) -0.003(3) -0.001(3)
O34 0.026(4) 0.029(4) 0.020(4) -0.004(3) -0.004(3) 0.004(3)
O35 0.024(4) 0.023(4) 0.013(4) 0.005(3) -0.001(3) 0.002(3)
O36 0.017(4) 0.034(4) 0.018(4) -0.003(3) 0.002(3) -0.005(3)
O37 0.025(4) 0.046(5) 0.021(4) 0.005(4) -0.007(3) 0.001(4)
O38 0.014(3) 0.034(4) 0.013(4) -0.006(3) -0.002(3) 0.007(3)
O39 0.029(4) 0.030(4) 0.016(4) 0.001(3) 0.002(3) -0.002(3)
O40 0.022(4) 0.023(4) 0.028(4) -0.009(3) 0.004(3) -0.003(3)
O41 0.017(3) 0.023(4) 0.014(4) -0.002(3) -0.001(3) 0.003(3)
O42 0.012(3) 0.029(4) 0.030(5) 0.001(3) 0.000(3) 0.005(3)
O43 0.036(5) 0.029(4) 0.027(5) 0.012(4) -0.004(4) 0.004(4)
C1 0.007(5) 0.042(7) 0.029(6) -0.002(5) 0.005(4) 0.000(4)
C2 0.012(5) 0.086(11) 0.019(6) 0.010(6) 0.009(4) 0.013(6)
C3 0.023(6) 0.087(11) 0.011(6) 0.013(6) 0.005(4) 0.004(6)
C4 0.015(5) 0.045(7) 0.025(6) 0.013(5) -0.002(4) -0.011(5)
C5 0.004(4) 0.045(7) 0.022(6) 0.004(5) 0.009(4) 0.001(4)
C6 0.021(5) 0.030(6) 0.012(5) 0.003(4) 0.001(4) 0.004(4)
C7 0.006(4) 0.035(6) 0.015(5) 0.011(4) 0.002(4) -0.001(4)
C8 0.017(5) 0.030(6) 0.016(5) 0.002(4) 0.002(4) -0.003(4)
C9 0.019(6) 0.068(10) 0.033(8) 0.019(7) 0.001(5) 0.005(6)
OW1 0.095(9) 0.032(5) 0.053(8) -0.002(5) 0.026(7) 0.005(5)
OW2 0.065(7) 0.034(5) 0.058(7) -0.006(5) 0.004(6) -0.005(5)
OW3 0.036(5) 0.040(6) 0.071(8) 0.014(5) -0.012(5) -0.007(4)
OW4 0.025(4) 0.064(6) 0.024(5) 0.010(4) 0.005(4) 0.004(4)
OW5 0.028(5) 0.070(8) 0.066(8) 0.007(6) -0.020(5) -0.002(5)
OW6 0.017(4) 0.029(4) 0.033(5) -0.021(4) -0.013(3) 0.016(3)
OW7 0.10(3) 0.036(15) 0.06(2) 0.016(14) -0.020(18) 0.002(16)
OW8 0.080(15) 0.114(19) 0.079(17) -0.031(15) 0.013(13) 0.054(14)
OW9 0.017(4) 0.039(4) 0.015(4) 0.003(3) 0.011(3) -0.003(3)
OW10 0.109(11) 0.038(6) 0.068(9) -0.008(6) 0.019(8) -0.007(7)
OW11 0.114(12) 0.048(7) 0.088(11) 0.024(7) -0.029(9) 0.008(7)