####################################################################### 
# 
# This file contains crystal structure data downloaded from the 
# Cambridge Structural Database (CSD) hosted by the Cambridge 
# Crystallographic Data Centre (CCDC).
# 
# Full information about CCDC data access policies and citation 
# guidelines are available at http://www.ccdc.cam.ac.uk/access/V1 
# 
# Audit and citation data items may have been added by the CCDC. 
# Please retain this information to preserve the provenance of 
# this file and to allow appropriate attribution of the data. 
# 
#######################################################################

data_n2772
_audit_block_doi                 10.5517/cc11srcy
_database_code_depnum_ccdc_archive 'CCDC 977100'
loop_
_citation_id
_citation_doi
_citation_year
1 10.1021/cm404155s 2014
_audit_update_record             
;
2013-12-13 deposited with the CCDC.	2024-07-12 downloaded from the CCDC.
;
_audit_creation_date             2013-05-21
_audit_creation_method           
;
  Olex2 1.2
  (compiled Apr 23 2013 17:59:47, GUI svn.r4466)
;
_chemical_name_common            ?
_chemical_name_systematic        
;
 ?
;
_chemical_formula_moiety         'C216 H108 Cu12 N36 O60'
_chemical_formula_sum            'C216 H108 Cu12 N36 O60'
_chemical_formula_weight         4929.86
_chemical_melting_point          ?
loop_
_atom_type_symbol
_atom_type_description
_atom_type_scat_dispersion_real
_atom_type_scat_dispersion_imag
_atom_type_scat_source
C C 0.0181 0.0091 'International Tables Vol C Tables 4.2.6.8 and 6.1.1.4'
H H 0.0000 0.0000 'International Tables Vol C Tables 4.2.6.8 and 6.1.1.4'
Cu Cu -1.9646 0.5888 'International Tables Vol C Tables 4.2.6.8 and 6.1.1.4'
N N 0.0311 0.0180 'International Tables Vol C Tables 4.2.6.8 and 6.1.1.4'
O O 0.0492 0.0322 'International Tables Vol C Tables 4.2.6.8 and 6.1.1.4'

_space_group_crystal_system      tetragonal
_space_group_IT_number           87
_space_group_name_H-M_alt        'I 4/m'
_space_group_name_Hall           '-I 4'
_shelx_space_group_comment       
;
The symmetry employed for this shelxl refinement is uniquely defined
by the following loop, which should always be used as a source of
symmetry information in preference to the above space-group names.
They are only intended as comments.
;

loop_
_space_group_symop_operation_xyz
'x, y, z'
'-y, x, z'
'-x, -y, z'
'y, -x, z'
'x+1/2, y+1/2, z+1/2'
'-y+1/2, x+1/2, z+1/2'
'-x+1/2, -y+1/2, z+1/2'
'y+1/2, -x+1/2, z+1/2'
'-x, -y, -z'
'y, -x, -z'
'x, y, -z'
'-y, x, -z'
'-x+1/2, -y+1/2, -z+1/2'
'y+1/2, -x+1/2, -z+1/2'
'x+1/2, y+1/2, -z+1/2'
'-y+1/2, x+1/2, -z+1/2'

_cell_length_a                   36.7876(13)
_cell_length_b                   36.7876(13)
_cell_length_c                   54.618(2)
_cell_angle_alpha                90
_cell_angle_beta                 90
_cell_angle_gamma                90
_cell_volume                     73916(6)
_cell_formula_units_Z            4
_cell_measurement_reflns_used    9955
_cell_measurement_temperature    100(2)
_cell_measurement_theta_max      54.10
_cell_measurement_theta_min      2.71
_exptl_absorpt_coefficient_mu    0.593
_exptl_absorpt_correction_T_max  0.6923
_exptl_absorpt_correction_T_min  0.6210
_exptl_absorpt_correction_type   multi-scan
_exptl_absorpt_process_details   
;
SADABS-2012/1 (Bruker,2012) was used for absorption correction.
wR2(int) was 0.0775 before and 0.0663 after correction.
The Ratio of minimum to maximum transmission is 0.8970.
The \l/2 correction factor is 0.0015.
;
_exptl_crystal_colour            blue
_exptl_crystal_colour_primary    blue
_exptl_crystal_density_diffrn    0.443
_exptl_crystal_density_meas      .
_exptl_crystal_density_method    ?
_exptl_crystal_description       block
_exptl_crystal_F_000             9936
_exptl_crystal_size_max          0.178
_exptl_crystal_size_mid          0.093
_exptl_crystal_size_min          0.061
_exptl_special_details           
;
 ?
;
_exptl_transmission_factor_max   ?
_exptl_transmission_factor_min   ?
_diffrn_reflns_av_R_equivalents  0.0896
_diffrn_reflns_av_unetI/netI     0.0515
_diffrn_reflns_Laue_measured_fraction_full 0.678
_diffrn_reflns_Laue_measured_fraction_max 0.998
_diffrn_reflns_limit_h_max       38
_diffrn_reflns_limit_h_min       -37
_diffrn_reflns_limit_k_max       29
_diffrn_reflns_limit_k_min       -38
_diffrn_reflns_limit_l_max       56
_diffrn_reflns_limit_l_min       -57
_diffrn_reflns_number            213147
_diffrn_reflns_point_group_measured_fraction_full 0.678
_diffrn_reflns_point_group_measured_fraction_max 0.998
_diffrn_reflns_theta_full        67.679
_diffrn_reflns_theta_max         54.36
_diffrn_reflns_theta_min         1.45
_diffrn_ambient_temperature      100.02
_diffrn_detector_area_resol_mean 8
_diffrn_measured_fraction_theta_full 0.678
_diffrn_measured_fraction_theta_max 0.998
_diffrn_measurement_device_type  'Bruker Kappa APEX CCD area detector'
_diffrn_measurement_method       '\w and \f scans'
_diffrn_radiation_monochromator  'MX optics'
_diffrn_radiation_type           CuK\a
_diffrn_radiation_wavelength     1.54178
_diffrn_source                   microsource
_diffrn_standards_number         0
_reflns_Friedel_coverage         0.000
_reflns_Friedel_fraction_full    .
_reflns_Friedel_fraction_max     .
_reflns_number_gt                14251
_reflns_number_total             22934
_reflns_special_details          
;
 Data were apparently pre-merged, so _diffrn_reflns_number
 etc. will have to be added later.
 
 Reflections were merged by SHELXL according to the crystal
 class for the calculation of statistics and refinement.
 
 _reflns_Friedel_fraction is defined as the number of unique
 Friedel pairs measured divided by the number that would be
 possible theoretically, ignoring centric projections and
 systematic absences.
;
_reflns_threshold_expression     'I > 2\s(I)'
_computing_cell_refinement       'SAINT V7.23A (Bruker, 2005)'
_computing_data_collection       'APEX2 V2.1-4 (Bruker, 2007)'
_computing_data_reduction        'Bruker SAINT'
_computing_molecular_graphics    
;
O. V. Dolomanov, L. J. Bourhis, R. J. Gildea, J. A. K. Howard and H. Puschmann,
OLEX2: a complete structure solution, refinement and analysis program.
J. Appl. Cryst. (2009). 42, 339-341.
;
_computing_publication_material  
;
O. V. Dolomanov, L. J. Bourhis, R. J. Gildea, J. A. K. Howard and H. Puschmann,
OLEX2: a complete structure solution, refinement and analysis program.
J. Appl. Cryst. (2009). 42, 339-341.
;
_computing_structure_refinement  
;
SHELXL, G.M. Sheldrick, Acta Cryst.
(2008). A64, 112-122
;
_computing_structure_solution    
;
SHELXD, G.M. Sheldrick, Acta Cryst.
(2008). A64, 112-122
;
_refine_diff_density_max         0.452
_refine_diff_density_min         -0.472
_refine_diff_density_rms         0.046
_refine_ls_extinction_coef       .
_refine_ls_extinction_method     none
_refine_ls_goodness_of_fit_ref   1.175
_refine_ls_hydrogen_treatment    constr
_refine_ls_matrix_type           full
_refine_ls_number_parameters     736
_refine_ls_number_reflns         22934
_refine_ls_number_restraints     0
_refine_ls_R_factor_all          0.0826
_refine_ls_R_factor_gt           0.0626
_refine_ls_restrained_S_all      1.175
_refine_ls_shift/su_max          0.002
_refine_ls_shift/su_mean         0.000
_refine_ls_structure_factor_coef Fsqd
_refine_ls_weighting_details     
;
 w=1/[\s^2^(Fo^2^)+(0.1053P)^2^]
 where P=(Fo^2^+2Fc^2^)/3
;
_refine_ls_weighting_scheme      calc
_refine_ls_wR_factor_gt          0.1968
_refine_ls_wR_factor_ref         0.2030
_refine_special_details          
;
 The displacement parameters of light atoms in the ligand of this structure
 show unusually high displacement parameters.  We elected not to model the 
 disorder by splitting atom positions, as this did not significantly improve
 the model.
;
_olex2_refinement_description    
;
1. Fixed Uiso
 At 1.2 times of:
  All C(H) groups
2.a Aromatic/amide H refined with riding coordinates:
 C3(H3), C5(H5), C7(H7), C9(H9), C12(H12), C13(H13), C15(H15), C16(H16),
 C18(H18), C20(H20), C22(H22), C24(H24), C25(H25), C27(H27), C28(H28), 
 C30(H30),
  C32(H32), C34(H34), C36(H36), C40(H40), C41(H41), C43(H43), C44(H44),
 C46(H46), C48(H48), C50(H50), C52(H52)
;
_atom_sites_solution_hydrogens   geom
_atom_sites_solution_primary     dual
_atom_sites_solution_secondary   ?
loop_
_atom_site_label
_atom_site_type_symbol
_atom_site_fract_x
_atom_site_fract_y
_atom_site_fract_z
_atom_site_U_iso_or_equiv
_atom_site_adp_type
_atom_site_occupancy
_atom_site_site_symmetry_order
_atom_site_calc_flag
_atom_site_refinement_flags_posn
_atom_site_refinement_flags_adp
_atom_site_refinement_flags_occupancy
_atom_site_disorder_assembly
_atom_site_disorder_group
Cu1 Cu 0.93769(2) 0.86085(2) 0.60397(2) 0.06209(19) Uani 1 1 d . . . . .
Cu2 Cu 0.91632(2) 0.81393(2) 0.63811(2) 0.06501(19) Uani 1 1 d . . . . .
Cu3 Cu 0.90057(2) 0.27039(2) 0.5000 0.0653(2) Uani 1 2 d S T P . .
Cu4 Cu 0.92499(2) 0.20238(2) 0.5000 0.0625(2) Uani 1 2 d S T P . .
O1 O 0.93808(7) 0.77876(6) 0.61600(4) 0.0738(7) Uani 1 1 d . . . . .
O2 O 0.96138(7) 0.81927(7) 0.58915(4) 0.0753(7) Uani 1 1 d . . . . .
O3 O 1.04343(7) 0.77815(7) 0.52528(4) 0.0815(8) Uani 1 1 d . . . . .
O4 O 1.06237(7) 0.71968(7) 0.52473(4) 0.0823(8) Uani 1 1 d . . . . .
O5 O 0.90037(8) 0.77430(9) 0.66472(5) 0.1141(10) Uani 1 1 d . . . . .
O6 O 0.95531(13) 0.89843(8) 0.57673(5) 0.1527(17) Uani 1 1 d . . . . .
O7 O 0.86906(7) 0.24976(8) 0.52536(4) 0.0816(8) Uani 1 1 d . . . . .
O8 O 0.88894(7) 0.19236(7) 0.52504(4) 0.0696(7) Uani 1 1 d . . . . .
O9 O 0.84692(7) 0.10786(7) 0.58854(4) 0.0727(7) Uani 1 1 d . . . . .
O10 O 0.81142(7) 0.12893(6) 0.61912(4) 0.0741(7) Uani 1 1 d . . . . .
O11 O 0.87502(13) 0.32335(11) 0.5000 0.1141(14) Uani 1 2 d S T P . .
O12 O 0.94893(12) 0.14948(11) 0.5000 0.149(2) Uani 1 2 d S T P . .
O13 O 0.67585(7) 0.46403(7) 0.84751(4) 0.0771(7) Uani 1 1 d . . . . .
O14 O 0.63281(7) 0.47988(6) 0.87442(5) 0.0736(7) Uani 1 1 d . . . . .
O15 O 0.58984(7) 0.60448(6) 0.87628(4) 0.0732(7) Uani 1 1 d . . . . .
O16 O 0.60283(7) 0.64347(7) 0.84539(4) 0.0764(7) Uani 1 1 d . . . . .
N1 N 0.96700(17) 0.65746(11) 0.57966(9) 0.160(2) Uani 1 1 d . . . . .
N2 N 0.9848(2) 0.62892(16) 0.57302(16) 0.291(5) Uani 1 1 d . . . . .
N3 N 0.9667(3) 0.60122(15) 0.57993(18) 0.314(6) Uani 1 1 d . . . . .
N4 N 0.78968(13) 0.26100(10) 0.59906(8) 0.1289(17) Uani 1 1 d . . . . .
N5 N 0.76185(17) 0.25713(13) 0.61384(12) 0.216(3) Uani 1 1 d . . . . .
N6 N 0.7546(2) 0.29008(14) 0.62128(13) 0.246(4) Uani 1 1 d . . . . .
N7 N 0.68050(15) 0.56897(11) 0.78819(8) 0.149(2) Uani 1 1 d . . . . .
N8 N 0.6800(2) 0.60203(14) 0.77852(10) 0.223(4) Uani 1 1 d . . . . .
N9 N 0.6987(2) 0.59906(15) 0.75798(11) 0.254(4) Uani 1 1 d . . . . .
C1 C 0.95689(10) 0.78722(11) 0.59739(7) 0.0698(10) Uani 1 1 d . . . . .
C2 C 0.97359(11) 0.75663(11) 0.58323(7) 0.0773(11) Uani 1 1 d . . . . .
C3 C 0.99854(10) 0.76395(11) 0.56413(7) 0.0749(11) Uani 1 1 d . . . . .
H3 H 1.0041 0.7884 0.5600 0.090 Uiso 1 1 calc R U . . .
C4 C 1.01475(11) 0.73629(10) 0.55154(7) 0.0756(11) Uani 1 1 d . . . . .
C5 C 1.00499(15) 0.70118(12) 0.55577(8) 0.1139(18) Uani 1 1 d . . . . .
H5 H 1.0155 0.6820 0.5465 0.137 Uiso 1 1 calc R U . . .
C6 C 0.97886(16) 0.69370(12) 0.57429(10) 0.1201(18) Uani 1 1 d . . . . .
C7 C 0.96399(13) 0.72144(12) 0.58797(8) 0.1047(16) Uani 1 1 d . . . . .
H7 H 0.9471 0.7161 0.6006 0.126 Uiso 1 1 calc R U . . .
C8 C 1.04250(12) 0.74605(12) 0.53272(7) 0.0744(11) Uani 1 1 d . . . . .
C9 C 0.9400(2) 0.64806(15) 0.59184(13) 0.204(4) Uani 1 1 d . . . . .
H9 H 0.9238 0.6641 0.6000 0.244 Uiso 1 1 calc R U . . .
C10 C 0.9375(3) 0.61182(18) 0.59170(15) 0.259(6) Uani 1 1 d . . . . .
C11 C 0.9071(3) 0.58691(16) 0.60048(16) 0.269(6) Uani 1 1 d . . . . .
C12 C 0.9077(3) 0.55247(19) 0.5994(2) 0.368(9) Uani 1 1 d . . . . .
H12 H 0.9266 0.5415 0.5901 0.441 Uiso 1 1 calc R U . . .
C13 C 0.8830(4) 0.52993(19) 0.6107(2) 0.384(10) Uani 1 1 d . . . . .
H13 H 0.8856 0.5044 0.6090 0.461 Uiso 1 1 calc R U . . .
C14 C 0.8553(3) 0.54320(17) 0.62397(17) 0.295(7) Uani 1 1 d . . . . .
C15 C 0.8510(3) 0.58116(19) 0.62288(18) 0.354(9) Uani 1 1 d . . . . .
H15 H 0.8302 0.5926 0.6297 0.425 Uiso 1 1 calc R U . . .
C16 C 0.8780(3) 0.6016(2) 0.61145(19) 0.299(7) Uani 1 1 d . . . . .
H16 H 0.8757 0.6273 0.6114 0.358 Uiso 1 1 calc R U . . .
C17 C 0.8271(3) 0.52017(16) 0.63657(16) 0.308(7) Uani 1 1 d . . . . .
C18 C 0.8179(3) 0.48559(16) 0.62780(16) 0.305(7) Uani 1 1 d . . . . .
H18 H 0.8274 0.4777 0.6125 0.367 Uiso 1 1 calc R U . . .
C19 C 0.7960(3) 0.46326(16) 0.64057(16) 0.308(7) Uani 1 1 d . . . . .
C20 C 0.7782(3) 0.47794(17) 0.66110(17) 0.340(8) Uani 1 1 d . . . . .
H20 H 0.7647 0.4622 0.6715 0.408 Uiso 1 1 calc R U . . .
C21 C 0.7797(3) 0.51359(16) 0.66645(15) 0.268(6) Uani 1 1 d . . . . .
C22 C 0.8087(3) 0.53473(16) 0.65554(15) 0.300(7) Uani 1 1 d . . . . .
H22 H 0.8146 0.5582 0.6616 0.361 Uiso 1 1 calc R U . . .
C23 C 0.7898(3) 0.42608(16) 0.63385(19) 0.331(8) Uani 1 1 d . . . . .
C24 C 0.8064(3) 0.4116(2) 0.61513(16) 0.297(7) Uani 1 1 d . . . . .
H24 H 0.8201 0.4266 0.6045 0.356 Uiso 1 1 calc R U . . .
C25 C 0.8042(3) 0.37347(18) 0.61033(17) 0.331(8) Uani 1 1 d . . . . .
H25 H 0.8217 0.3632 0.5995 0.397 Uiso 1 1 calc R U . . .
C26 C 0.7805(3) 0.35233(17) 0.61952(14) 0.223(5) Uani 1 1 d . . . . .
C27 C 0.7563(4) 0.3698(2) 0.6336(2) 0.422(11) Uani 1 1 d . . . . .
H27 H 0.7344 0.3579 0.6381 0.506 Uiso 1 1 calc R U . . .
C28 C 0.7624(4) 0.4035(2) 0.6415(2) 0.409(11) Uani 1 1 d . . . . .
H28 H 0.7462 0.4128 0.6535 0.491 Uiso 1 1 calc R U . . .
C29 C 0.7790(2) 0.31343(13) 0.61310(13) 0.193(4) Uani 1 1 d . . . . .
C30 C 0.79941(18) 0.29602(14) 0.59787(11) 0.153(3) Uani 1 1 d . . . . .
H30 H 0.8178 0.3061 0.5877 0.184 Uiso 1 1 calc R U . . .
C31 C 0.80760(13) 0.23076(11) 0.58667(9) 0.0990(15) Uani 1 1 d . . . . .
C32 C 0.82654(12) 0.23719(11) 0.56544(7) 0.0881(13) Uani 1 1 d . . . . .
H32 H 0.8264 0.2607 0.5582 0.106 Uiso 1 1 calc R U . . .
C33 C 0.84546(10) 0.20975(10) 0.55488(6) 0.0670(10) Uani 1 1 d . . . . .
C34 C 0.84528(10) 0.17534(11) 0.56502(6) 0.0707(10) Uani 1 1 d . . . . .
H34 H 0.8585 0.1563 0.5574 0.085 Uiso 1 1 calc R U . . .
C35 C 0.82565(10) 0.16843(10) 0.58665(6) 0.0651(10) Uani 1 1 d . . . . .
C36 C 0.80700(12) 0.19646(12) 0.59728(7) 0.0880(13) Uani 1 1 d . . . . .
H36 H 0.7936 0.1925 0.6119 0.106 Uiso 1 1 calc R U . . .
C37 C 0.87001(11) 0.21720(11) 0.53326(6) 0.0668(10) Uani 1 1 d . . . . .
C38 C 0.82829(10) 0.13244(10) 0.59893(7) 0.0653(10) Uani 1 1 d . . . . .
C39 C 0.7612(3) 0.52672(15) 0.68981(14) 0.262(6) Uani 1 1 d . . . . .
C40 C 0.7533(3) 0.50395(15) 0.70844(14) 0.247(5) Uani 1 1 d . . . . .
H40 H 0.7607 0.4792 0.7077 0.296 Uiso 1 1 calc R U . . .
C41 C 0.7344(2) 0.51658(16) 0.72869(13) 0.229(5) Uani 1 1 d . . . . .
H41 H 0.7255 0.4996 0.7403 0.274 Uiso 1 1 calc R U . . .
C42 C 0.7284(3) 0.55180(16) 0.73233(13) 0.234(5) Uani 1 1 d . . . . .
C43 C 0.7331(3) 0.57651(17) 0.71198(15) 0.301(7) Uani 1 1 d . . . . .
H43 H 0.7241 0.6007 0.7127 0.361 Uiso 1 1 calc R U . . .
C44 C 0.7517(3) 0.56359(18) 0.69100(14) 0.285(6) Uani 1 1 d . . . . .
H44 H 0.7577 0.5796 0.6780 0.342 Uiso 1 1 calc R U . . .
C45 C 0.7085(2) 0.56517(15) 0.75419(12) 0.186(4) Uani 1 1 d . . . . .
C46 C 0.69600(17) 0.54602(13) 0.77307(10) 0.148(3) Uani 1 1 d . . . . .
H46 H 0.6979 0.5205 0.7752 0.178 Uiso 1 1 calc R U . . .
C47 C 0.66239(14) 0.56158(13) 0.81071(8) 0.1034(15) Uani 1 1 d . . . . .
C48 C 0.66542(12) 0.52790(12) 0.82143(7) 0.0905(13) Uani 1 1 d . . . . .
H48 H 0.6793 0.5094 0.8138 0.109 Uiso 1 1 calc R U . . .
C49 C 0.64805(10) 0.52103(10) 0.84354(7) 0.0680(10) Uani 1 1 d . . . . .
C50 C 0.62725(10) 0.54832(11) 0.85466(7) 0.0697(10) Uani 1 1 d . . . . .
H50 H 0.6149 0.5436 0.8696 0.084 Uiso 1 1 calc R U . . .
C51 C 0.62476(11) 0.58210(11) 0.84382(7) 0.0750(11) Uani 1 1 d . . . . .
C52 C 0.64186(13) 0.58951(12) 0.82122(7) 0.0974(14) Uani 1 1 d . . . . .
H52 H 0.6395 0.6125 0.8135 0.117 Uiso 1 1 calc R U . . .
C53 C 0.65258(10) 0.48621(10) 0.85599(7) 0.0660(10) Uani 1 1 d . . . . .
C54 C 0.60426(10) 0.61361(12) 0.85603(7) 0.0693(10) Uani 1 1 d . . . . .

loop_
_atom_site_aniso_label
_atom_site_aniso_U_11
_atom_site_aniso_U_22
_atom_site_aniso_U_33
_atom_site_aniso_U_23
_atom_site_aniso_U_13
_atom_site_aniso_U_12
Cu1 0.0628(3) 0.0671(4) 0.0564(3) 0.0094(3) 0.0161(3) 0.0078(3)
Cu2 0.0663(4) 0.0695(4) 0.0592(3) 0.0121(3) 0.0167(3) 0.0059(3)
Cu