####################################################################### 
# 
# This file contains crystal structure data downloaded from the 
# Cambridge Structural Database (CSD) hosted by the Cambridge 
# Crystallographic Data Centre (CCDC).
# 
# Full information about CCDC data access policies and citation 
# guidelines are available at http://www.ccdc.cam.ac.uk/access/V1 
# 
# Audit and citation data items may have been added by the CCDC. 
# Please retain this information to preserve the provenance of 
# this file and to allow appropriate attribution of the data. 
# 
#######################################################################

data_n2610_a
_audit_block_doi                 10.5517/cc11srbx
_database_code_depnum_ccdc_archive 'CCDC 977099'
loop_
_citation_id
_citation_doi
_citation_year
1 10.1021/cm404155s 2014
_audit_update_record             
;
2013-12-13 deposited with the CCDC.	2024-07-12 downloaded from the CCDC.
;
_audit_creation_date             2013-04-10
_audit_creation_method           
;
  Olex2 1.2
  (compiled Mar 21 2013 11:17:50, GUI svn.r4446)
;
_chemical_name_common            ?
_chemical_name_systematic        
;
 ?
;
_chemical_formula_moiety         'C192 H96 Cu12 N40 O60'
_chemical_formula_sum            'C192 H96 Cu12 N40 O60'
_chemical_formula_weight         4685.56
_chemical_melting_point          ?
loop_
_atom_type_symbol
_atom_type_description
_atom_type_scat_dispersion_real
_atom_type_scat_dispersion_imag
_atom_type_scat_source
C C 0.0181 0.0091 'International Tables Vol C Tables 4.2.6.8 and 6.1.1.4'
H H 0.0000 0.0000 'International Tables Vol C Tables 4.2.6.8 and 6.1.1.4'
Cu Cu -1.9646 0.5888 'International Tables Vol C Tables 4.2.6.8 and 6.1.1.4'
N N 0.0311 0.0180 'International Tables Vol C Tables 4.2.6.8 and 6.1.1.4'
O O 0.0492 0.0322 'International Tables Vol C Tables 4.2.6.8 and 6.1.1.4'

_space_group_crystal_system      tetragonal
_space_group_IT_number           87
_space_group_name_H-M_alt        'I 4/m'
_space_group_name_Hall           '-I 4'
_shelx_space_group_comment       
;
The symmetry employed for this shelxl refinement is uniquely defined
by the following loop, which should always be used as a source of
symmetry information in preference to the above space-group names.
They are only intended as comments.
;

loop_
_space_group_symop_operation_xyz
'x, y, z'
'-x, -y, z'
'-y, x, z'
'y, -x, z'
'x+1/2, y+1/2, z+1/2'
'-x+1/2, -y+1/2, z+1/2'
'-y+1/2, x+1/2, z+1/2'
'y+1/2, -x+1/2, z+1/2'
'-x, -y, -z'
'x, y, -z'
'y, -x, -z'
'-y, x, -z'
'-x+1/2, -y+1/2, -z+1/2'
'x+1/2, y+1/2, -z+1/2'
'y+1/2, -x+1/2, -z+1/2'
'-y+1/2, x+1/2, -z+1/2'

_cell_length_a                   34.6853(6)
_cell_length_b                   34.6853(6)
_cell_length_c                   50.6917(13)
_cell_angle_alpha                90
_cell_angle_beta                 90
_cell_angle_gamma                90
_cell_volume                     60986(3)
_cell_formula_units_Z            4
_cell_measurement_reflns_used    9940
_cell_measurement_temperature    100(2)
_cell_measurement_theta_max      57.99
_cell_measurement_theta_min      2.51
_exptl_absorpt_coefficient_mu    0.709
_exptl_absorpt_correction_T_max  0.7515
_exptl_absorpt_correction_T_min  0.6370
_exptl_absorpt_correction_type   multi-scan
_exptl_absorpt_process_details   
;
SADABS-2008/1 (Bruker,2008) was used for absorption correction.
wR2(int) was 0.0684 before and 0.0584 after correction.
The Ratio of minimum to maximum transmission is 0.8476.
The \l/2 correction factor is 0.0015.
;
_exptl_crystal_colour            yellow
_exptl_crystal_colour_primary    yellow
_exptl_crystal_density_diffrn    0.510
_exptl_crystal_density_meas      .
_exptl_crystal_density_method    ?
_exptl_crystal_description       block
_exptl_crystal_F_000             9424
_exptl_crystal_size_max          0.229
_exptl_crystal_size_mid          0.171
_exptl_crystal_size_min          0.115
_exptl_special_details           
;
 ?
;
_exptl_transmission_factor_max   ?
_exptl_transmission_factor_min   ?
_diffrn_reflns_av_R_equivalents  0.0730
_diffrn_reflns_av_unetI/netI     0.0664
_diffrn_reflns_Laue_measured_fraction_full 0.769
_diffrn_reflns_Laue_measured_fraction_max 1.000
_diffrn_reflns_limit_h_max       37
_diffrn_reflns_limit_h_min       -38
_diffrn_reflns_limit_k_max       29
_diffrn_reflns_limit_k_min       -38
_diffrn_reflns_limit_l_max       54
_diffrn_reflns_limit_l_min       -56
_diffrn_reflns_number            84899
_diffrn_reflns_point_group_measured_fraction_full 0.769
_diffrn_reflns_point_group_measured_fraction_max 1.000
_diffrn_reflns_theta_full        67.679
_diffrn_reflns_theta_max         58.77
_diffrn_reflns_theta_min         1.80
_diffrn_ambient_temperature      100.01
_diffrn_detector_area_resol_mean 8
_diffrn_measured_fraction_theta_full 0.769
_diffrn_measured_fraction_theta_max 1.000
_diffrn_measurement_device_type  'Bruker Kappa APEX CCD area detector'
_diffrn_measurement_method       '\w and \f scans'
_diffrn_radiation_monochromator  'Quazar optics'
_diffrn_radiation_type           CuK\a
_diffrn_radiation_wavelength     1.54178
_diffrn_source                   microsource
_diffrn_standards_number         0
_reflns_Friedel_coverage         0.000
_reflns_Friedel_fraction_full    .
_reflns_Friedel_fraction_max     .
_reflns_number_gt                10384
_reflns_number_total             21496
_reflns_special_details          
;
 Data were apparently pre-merged, so _diffrn_reflns_number
 etc. will have to be added later.
 
 Reflections were merged by SHELXL according to the crystal
 class for the calculation of statistics and refinement.
 
 _reflns_Friedel_fraction is defined as the number of unique
 Friedel pairs measured divided by the number that would be
 possible theoretically, ignoring centric projections and
 systematic absences.
;
_reflns_threshold_expression     'I > 2\s(I)'
_computing_cell_refinement       'SAINT V7.23A (Bruker, 2005)'
_computing_data_collection       'APEX2 V2.1-4 (Bruker, 2007)'
_computing_data_reduction        'Bruker SAINT'
_computing_molecular_graphics    
;
O. V. Dolomanov, L. J. Bourhis, R. J. Gildea, J. A. K. Howard and H. Puschmann,
OLEX2: a complete structure solution, refinement and analysis program.
J. Appl. Cryst. (2009). 42, 339-341.
;
_computing_publication_material  
;
O. V. Dolomanov, L. J. Bourhis, R. J. Gildea, J. A. K. Howard and H. Puschmann,
OLEX2: a complete structure solution, refinement and analysis program.
J. Appl. Cryst. (2009). 42, 339-341.
;
_computing_structure_refinement  
;
SHELXL, G.M. Sheldrick, Acta Cryst.
(2008). A64, 112-122
;
_computing_structure_solution    
;
SHELXS, G.M. Sheldrick, Acta Cryst.
(2008). A64, 112-122
;
_refine_diff_density_max         0.692
_refine_diff_density_min         -0.409
_refine_diff_density_rms         0.042
_refine_ls_extinction_coef       .
_refine_ls_extinction_method     none
_refine_ls_goodness_of_fit_ref   0.868
_refine_ls_hydrogen_treatment    constr
_refine_ls_matrix_type           full
_refine_ls_number_parameters     691
_refine_ls_number_reflns         21496
_refine_ls_number_restraints     207
_refine_ls_R_factor_all          0.1075
_refine_ls_R_factor_gt           0.0735
_refine_ls_restrained_S_all      0.904
_refine_ls_shift/su_max          0.002
_refine_ls_shift/su_mean         0.000
_refine_ls_structure_factor_coef Fsqd
_refine_ls_weighting_details     
;
 w=1/[\s^2^(Fo^2^)+(0.1493P)^2^]
 where P=(Fo^2^+2Fc^2^)/3
;
_refine_ls_weighting_scheme      calc
_refine_ls_wR_factor_gt          0.2170
_refine_ls_wR_factor_ref         0.2337
_refine_special_details          
;
Chemically equivalent C-C (1,2 1,3 and 1,4) distances in the ligand 
phenyl rings were refined with similarity restraints.
;
_olex2_refinement_description    
;
1. Fixed Uiso
 At 1.2 times of:
  All C(H) groups
2. Restrained distances
 N7-C41 \\sim N9-C42
 with sigma of 0.02
 N8-N7 \\sim N9-N8
 with sigma of 0.02
 N8-C41 \\sim N9-C41
 with sigma of 0.02
 C12-C11 \\sim C16-C11 \\sim C16-C15 \\sim C15-C14 \\sim C14-C13 \\sim C13-C12 
 \\sim C31-C30 \\sim C30-C29
 \\sim C29-C28 \\sim C28-C27 \\sim C32-C27 \\sim C32-C31 \\sim C46-C45 \\sim 
 C47-C46 \\sim C48-C47 \\sim C48-
 C43 \\sim C44-C43 \\sim C45-C44
 with sigma of 0.02
 C15-C13 \\sim C16-C12 \\sim C29-C31 \\sim C32-C28 \\sim C44-C48 \\sim C47-C45
 with sigma of 0.02
 C16-C13 \\sim C15-C12 \\sim C11-C14 \\sim C31-C28 \\sim C29-C32 \\sim C30-C27
 \\sim C45-C48 \\sim C44-C47
 \\sim C46-C43
 with sigma of 0.02
3.a Aromatic/amide H refined with riding coordinates:
 C3(H3), C5(H5), C7(H7), C9(H9), C12(H12), C13(H13), C15(H15), C16(H16),
 C19(H19), C21(H21), C23(H23), C25(H25), C28(H28), C29(H29), C31(H31), C32(H32),
  C35(H35), C37(H37), C39(H39), C48(H48), C47(H47), C45(H45), C44(H44), C41(H41)
;
_atom_sites_solution_hydrogens   geom
_atom_sites_solution_primary     direct
_atom_sites_solution_secondary   ?
loop_
_atom_site_label
_atom_site_type_symbol
_atom_site_fract_x
_atom_site_fract_y
_atom_site_fract_z
_atom_site_U_iso_or_equiv
_atom_site_adp_type
_atom_site_occupancy
_atom_site_site_symmetry_order
_atom_site_calc_flag
_atom_site_refinement_flags_posn
_atom_site_refinement_flags_adp
_atom_site_refinement_flags_occupancy
_atom_site_disorder_assembly
_atom_site_disorder_group
Cu1 Cu 0.08862(3) 0.29021(2) 1.0000 0.0985(3) Uani 1 2 d S T P . .
Cu2 Cu 0.06661(3) 0.21673(2) 1.0000 0.0929(3) Uani 1 2 d S T P . .
Cu3 Cu 0.14372(2) 0.07323(2) 0.88719(2) 0.0879(2) Uani 1 1 d . . . . .
Cu4 Cu 0.19229(2) 0.09868(2) 0.85052(2) 0.0932(2) Uani 1 1 d . . . . .
O1 O 0.12320(10) 0.27085(10) 0.97240(6) 0.1157(10) Uani 1 1 d . . . . .
O2 O 0.10530(9) 0.20849(8) 0.97254(5) 0.1003(9) Uani 1 1 d . . . . .
O3 O 0.15598(9) 0.12162(8) 0.90469(6) 0.0998(8) Uani 1 1 d . . . . .
O4 O 0.19217(9) 0.14605(9) 0.87146(6) 0.1060(9) Uani 1 1 d . . . . .
O5 O 0.11173(17) 0.34774(13) 1.0000 0.1424(19) Uani 1 2 d S T P . .
O6 O 0.04589(17) 0.15768(15) 1.0000 0.200(3) Uani 1 2 d S T P . .
O7 O 0.10613(11) 0.04895(15) 0.91680(7) 0.1634(18) Uani 1 1 d . . . . .
O8 O 0.23068(12) 0.11976(11) 0.82105(8) 0.1417(13) Uani 1 1 d . . . . .
O9 O -0.04839(10) 0.70114(9) 0.97322(6) 0.1143(10) Uani 1 1 d . . . . .
O10 O -0.03144(10) 0.76391(9) 0.97260(6) 0.1092(9) Uani 1 1 d . . . . .
O11 O 0.05114(8) 0.81014(9) 0.90263(6) 0.1005(9) Uani 1 1 d . . . . .
O12 O 0.07762(9) 0.76842(8) 0.87424(6) 0.1058(9) Uani 1 1 d . . . . .
O13 O 0.38385(9) 0.64543(10) 0.66719(6) 0.1111(10) Uani 1 1 d . . . . .
O14 O 0.39938(9) 0.60518(8) 0.63406(6) 0.1018(9) Uani 1 1 d . . . . .
O15 O 0.36090(8) 0.47161(8) 0.63595(6) 0.0970(8) Uani 1 1 d . . . . .
O16 O 0.31535(9) 0.45237(8) 0.66528(6) 0.1002(9) Uani 1 1 d . . . . .
N1 N 0.2106(2) 0.28651(14) 0.89563(13) 0.193(3) Uani 1 1 d . . . . .
N2 N 0.2445(3) 0.28469(19) 0.8843(2) 0.361(8) Uani 1 1 d . . . . .
N3 N 0.2543(3) 0.3199(2) 0.8782(2) 0.306(6) Uani 1 1 d . . . . .
N4 N 0.0600(3) 0.64098(15) 0.91948(13) 0.236(4) Uani 1 1 d . . . . .
N5 N 0.0527(4) 0.6132(2) 0.9353(2) 0.432(11) Uani 1 1 d . . . . .
N6 N 0.0722(5) 0.5839(2) 0.9288(2) 0.497(13) Uani 1 1 d . . . . .
N10 N 0.2247(4) 0.50343(18) 0.8675(2) 0.439(10) Uani 1 1 d . . . . .
N7 N 0.3110(3) 0.56239(15) 0.73124(13) 0.267(5) Uani 1 1 d D . . . .
N8 N 0.3140(5) 0.5945(2) 0.74353(19) 0.516(14) Uani 1 1 d D . . . .
N9 N 0.2983(4) 0.5921(2) 0.76588(18) 0.404(9) Uani 1 1 d D . . . .
C1 C 0.12229(14) 0.23736(13) 0.96400(8) 0.0913(13) Uani 1 1 d . . . . .
C2 C 0.15005(14) 0.22865(14) 0.94042(9) 0.1019(13) Uani 1 1 d . . . . .
C3 C 0.15240(13) 0.19255(13) 0.92977(9) 0.0956(12) Uani 1 1 d . . . . .
H3 H 0.1387 0.1717 0.9375 0.115 Uiso 1 1 calc R U . . .
C4 C 0.17508(13) 0.18647(13) 0.90744(9) 0.0973(13) Uani 1 1 d . . . . .
C5 C 0.19431(16) 0.21598(16) 0.89634(12) 0.1286(19) Uani 1 1 d . . . . .
H5 H 0.2087 0.2120 0.8806 0.154 Uiso 1 1 calc R U . . .
C6 C 0.1931(2) 0.25306(16) 0.90816(13) 0.149(2) Uani 1 1 d . . . . .
C7 C 0.16990(17) 0.25893(15) 0.93015(11) 0.1247(17) Uani 1 1 d . . . . .
H7 H 0.1679 0.2838 0.9379 0.150 Uiso 1 1 calc R U . . .
C8 C 0.17343(13) 0.14790(12) 0.89288(9) 0.0899(12) Uani 1 1 d . . . . .
C9 C 0.2001(3) 0.3212(2) 0.89759(16) 0.211(4) Uani 1 1 d . . . . .
H9 H 0.1779 0.3311 0.9063 0.253 Uiso 1 1 calc R U . . .
C10 C 0.2282(3) 0.3416(2) 0.8842(2) 0.233(5) Uani 1 1 d . . . . .
C11 C 0.2243(4) 0.3855(2) 0.8793(2) 0.298(8) Uani 1 1 d D . . . .
C12 C 0.1924(4) 0.4050(3) 0.8816(3) 0.440(14) Uani 1 1 d D . . . .
H12 H 0.1696 0.3923 0.8872 0.528 Uiso 1 1 calc R U . . .
C13 C 0.1914(4) 0.4425(3) 0.8765(2) 0.430(13) Uani 1 1 d D . . . .
H13 H 0.1672 0.4553 0.8769 0.516 Uiso 1 1 calc R U . . .
C14 C 0.2227(4) 0.4630(2) 0.8706(2) 0.295(8) Uani 1 1 d D . . . .
C15 C 0.2552(4) 0.4445(3) 0.8693(3) 0.61(2) Uani 1 1 d D . . . .
H15 H 0.2780 0.4580 0.8647 0.733 Uiso 1 1 calc R U . . .
C16 C 0.2569(4) 0.4038(3) 0.8748(3) 0.510(17) Uani 1 1 d D . . . .
H16 H 0.2809 0.3906 0.8752 0.612 Uiso 1 1 calc R U . . .
C17 C -0.03087(15) 0.73004(14) 0.96508(8) 0.0956(13) Uani 1 1 d . . . . .
C18 C 0.00017(17) 0.72112(13) 0.94494(9) 0.1102(15) Uani 1 1 d . . . . .
C19 C 0.0134(2) 0.68420(17) 0.94084(12) 0.169(3) Uani 1 1 d . . . . .
H19 H 0.0025 0.6632 0.9502 0.203 Uiso 1 1 calc R U . . .
C20 C 0.0439(3) 0.67776(17) 0.92226(13) 0.175(3) Uani 1 1 d . . . . .
C21 C 0.0571(2) 0.70807(15) 0.90662(12) 0.149(2) Uani 1 1 d . . . . .
H21 H 0.0763 0.7036 0.8936 0.178 Uiso 1 1 calc R U . . .
C22 C 0.04244(15) 0.74414(14) 0.91000(9) 0.1046(14) Uani 1 1 d . . . . .
C23 C 0.01552(14) 0.75102(14) 0.92968(9) 0.1056(14) Uani 1 1 d . . . . .
H23 H 0.0073 0.7767 0.9329 0.127 Uiso 1 1 calc R U . . .
C24 C 0.05649(13) 0.77770(13) 0.89348(9) 0.0950(13) Uani 1 1 d . . . . .
C25 C 0.0873(4) 0.6301(2) 0.9038(2) 0.315(8) Uani 1 1 d . . . . .
H25 H 0.1000 0.6458 0.8912 0.377 Uiso 1 1 calc R U . . .
C26 C 0.0947(5) 0.5920(3) 0.9085(2) 0.407(12) Uani 1 1 d . . . . .
C27 C 0.1328(4) 0.5697(2) 0.8986(2) 0.371(11) Uani 1 1 d D . . . .
C28 C 0.1405(5) 0.5754(3) 0.8748(2) 0.530(18) Uani 1 1 d D . . . .
H28 H 0.1269 0.5940 0.8647 0.636 Uiso 1 1 calc R U . . .
C29 C 0.1683(5) 0.5545(4) 0.8643(3) 0.76(3) Uani 1 1 d D . . . .
H29 H 0.1751 0.5603 0.8466 0.917 Uiso 1 1 calc R U . . .
C30 C 0.1884(4) 0.5253(2) 0.8762(2) 0.419(12) Uani 1 1 d D . . . .
C31 C 0.1793(5) 0.5196(4) 0.9013(3) 0.78(3) Uani 1 1 d D . . . .
H31 H 0.1922 0.5004 0.9113 0.936 Uiso 1 1 calc R U . . .
C32 C 0.1501(5) 0.5426(4) 0.9129(2) 0.62(2) Uani 1 1 d D . . . .
H32 H 0.1430 0.5386 0.9307 0.745 Uiso 1 1 calc R U . . .
C33 C 0.38415(12) 0.61337(13) 0.65527(9) 0.0908(12) Uani 1 1 d . . . . .
C34 C 0.36505(14) 0.58056(13) 0.66970(9) 0.1004(14) Uani 1 1 d . . . . .
C35 C 0.34967(19) 0.58608(15) 0.69355(11) 0.139(2) Uani 1 1 d . . . . .
H35 H 0.3520 0.6103 0.7021 0.167 Uiso 1 1 calc R U . . .
C36 C 0.3295(2) 0.55490(17) 0.70603(12) 0.150(2) Uani 1 1 d . . . . .
C37 C 0.32694(17) 0.51921(15) 0.69445(11) 0.131(2) Uani 1 1 d . . . . .
H37 H 0.3146 0.4984 0.7032 0.158 Uiso 1 1 calc R U . . .
C38 C 0.34298(13) 0.51448(13) 0.66953(9) 0.0969(13) Uani 1 1 d . . . . .
C39 C 0.36263(12) 0.54447(13) 0.65760(8) 0.0916(12) Uani 1 1 d . . . . .
H39 H 0.3746 0.5405 0.6410 0.110 Uiso 1 1 calc R U . . .
C40 C 0.33828(13) 0.47527(12) 0.65482(9) 0.0906(13) Uani 1 1 d . . . . .
C43 C 0.2722(4) 0.5434(2) 0.7956(2) 0.432(12) Uani 1 1 d D . . . .
C48 C 0.2539(5) 0.5106(3) 0.7947(2) 0.562(19) Uani 1 1 d D . . . .
H48 H 0.2515 0.4969 0.7785 0.674 Uiso 1 1 calc R U . . .
C47 C 0.2382(5) 0.4962(3) 0.8177(3) 0.70(3) Uani 1 1 d D . . . .
H47 H 0.2264 0.4715 0.8175 0.839 Uiso 1 1 calc R U . . .
C46 C 0.2392(4) 0.5164(2) 0.8404(2) 0.463(14) Uani 1 1 d D . . . .
C45 C 0.2555(6) 0.5505(3) 0.8397(2) 0.68(3) Uani 1 1 d D . . . .
H45 H 0.2572 0.5654 0.8553 0.813 Uiso 1 1 calc R U . . .
C44 C 0.2702(6) 0.5649(2) 0.8167(2) 0.58(2) Uani 1 1 d D . . . .
H44 H 0.2791 0.5908 0.8161 0.695 Uiso 1 1 calc R U . . .
C41 C 0.2957(3) 0.539