####################################################################### 
# 
# This file contains crystal structure data downloaded from the 
# Cambridge Structural Database (CSD) hosted by the Cambridge 
# Crystallographic Data Centre (CCDC).
# 
# Full information about CCDC data access policies and citation 
# guidelines are available at http://www.ccdc.cam.ac.uk/access/V1 
# 
# Audit and citation data items may have been added by the CCDC. 
# Please retain this information to preserve the provenance of 
# this file and to allow appropriate attribution of the data. 
# 
#######################################################################

data_AM278
_audit_block_doi                 10.5517/cc128ykv
_database_code_depnum_ccdc_archive 'CCDC 991707'
loop_
_citation_id
_citation_doi
_citation_year
1 10.1002/anie.201403506 2014
_audit_update_record             
;
2014-03-14 deposited with the CCDC.	2024-07-12 downloaded from the CCDC.
;

_audit_creation_method           SHELXL-97
_chemical_name_systematic        
; 
 ? 
;
_chemical_name_common            ?
_chemical_melting_point          ?
_chemical_formula_moiety         ?
_chemical_formula_sum            'C46 H68 Ag2 F9 N12 O16 P1.50'
_chemical_formula_weight         1478.32

loop_
_atom_type_symbol
_atom_type_description
_atom_type_scat_dispersion_real
_atom_type_scat_dispersion_imag
_atom_type_scat_source
C C 0.0033 0.0016 'International Tables Vol C Tables 4.2.6.8 and 6.1.1.4'
H H 0.0000 0.0000 'International Tables Vol C Tables 4.2.6.8 and 6.1.1.4'
N N 0.0061 0.0033 'International Tables Vol C Tables 4.2.6.8 and 6.1.1.4'
O O 0.0106 0.0060 'International Tables Vol C Tables 4.2.6.8 and 6.1.1.4'
F F 0.0171 0.0103 'International Tables Vol C Tables 4.2.6.8 and 6.1.1.4'
P P 0.1023 0.0942 'International Tables Vol C Tables 4.2.6.8 and 6.1.1.4'
Ag Ag -0.8971 1.1015 'International Tables Vol C Tables 4.2.6.8 and 6.1.1.4'

_symmetry_cell_setting           Hexagonal
_symmetry_space_group_name_H-M   P6(5)22

loop_
_symmetry_equiv_pos_as_xyz
'x, y, z'
'-y, x-y, z+2/3'
'-x+y, -x, z+1/3'
'-x, -y, z+1/2'
'y, -x+y, z+1/6'
'x-y, x, z+5/6'
'y, x, -z+2/3'
'x-y, -y, -z'
'-x, -x+y, -z+1/3'
'-y, -x, -z+1/6'
'-x+y, y, -z+1/2'
'x, x-y, -z+5/6'

_cell_length_a                   37.2943(17)
_cell_length_b                   37.2943(17)
_cell_length_c                   23.893(2)
_cell_angle_alpha                90.00
_cell_angle_beta                 90.00
_cell_angle_gamma                120.00
_cell_volume                     28779(3)
_cell_formula_units_Z            12
_cell_measurement_temperature    90(2)
_cell_measurement_reflns_used    9720
_cell_measurement_theta_min      2.185
_cell_measurement_theta_max      17.94

_exptl_crystal_description       block
_exptl_crystal_colour            colorless
_exptl_crystal_size_max          0.08
_exptl_crystal_size_mid          0.08
_exptl_crystal_size_min          0.08
_exptl_crystal_density_meas      ?
_exptl_crystal_density_diffrn    1.024
_exptl_crystal_density_method    'not measured'
_exptl_crystal_F_000             9042
_exptl_absorpt_coefficient_mu    0.497
_exptl_absorpt_correction_type   multi-scan
_exptl_absorpt_correction_T_min  0.9613
_exptl_absorpt_correction_T_max  0.9613
_exptl_absorpt_process_details   SADABS

_exptl_special_details           
; 
 ? 
;

_diffrn_ambient_temperature      90(2)
_diffrn_radiation_wavelength     0.71073
_diffrn_radiation_type           MoK\a
_diffrn_radiation_source         'fine-focus rotating anode'
_diffrn_radiation_monochromator  'focusing mirror'
_diffrn_measurement_device_type  'CCD area detector'
_diffrn_measurement_method       'omega scan'
_diffrn_detector_area_resol_mean ?
_diffrn_standards_number         ?
_diffrn_standards_interval_count ?
_diffrn_standards_interval_time  ?
_diffrn_standards_decay_%        none
_diffrn_reflns_number            138402
_diffrn_reflns_av_R_equivalents  0.0557
_diffrn_reflns_av_sigmaI/netI    0.0185
_diffrn_reflns_limit_h_min       -32
_diffrn_reflns_limit_h_max       32
_diffrn_reflns_limit_k_min       -32
_diffrn_reflns_limit_k_max       32
_diffrn_reflns_limit_l_min       -20
_diffrn_reflns_limit_l_max       20
_diffrn_reflns_theta_min         1.06
_diffrn_reflns_theta_max         18.18
_reflns_number_total             6784
_reflns_number_gt                5924
_reflns_threshold_expression     >2sigma(I)

_computing_data_collection       'Bruker APEX-II'
_computing_cell_refinement       'Bruker SAINT'
_computing_data_reduction        'Bruker SAINT'
_computing_structure_solution    'SHELXS-97 (Sheldrick, 1990)'
_computing_structure_refinement  'SHELXL-97 (Sheldrick, 1997)'
_computing_molecular_graphics    'Bruker XP'
_computing_publication_material  ?

_refine_special_details          
; 
 Refinement of F^2^ against ALL reflections.  The weighted R-factor wR and 
 goodness of fit S are based on F^2^, conventional R-factors R are based 
 on F, with F set to zero for negative F^2^. The threshold expression of 
 F^2^ > 2sigma(F^2^) is used only for calculating R-factors(gt) etc. and is 
 not relevant to the choice of reflections for refinement.  R-factors based 
 on F^2^ are statistically about twice as large as those based on F, and R- 
 factors based on ALL data will be even larger. 
 The thermal temperature factors of solvent molecules and hexafluorophosphate
 ion were isotropically refined.
 Some parts of solvents and hexafluorophosphate ion were disordered.
 Several restraints were applied to disordered parts on the basis of 
 chemical geometry.
;

_refine_ls_structure_factor_coef Fsqd
_refine_ls_matrix_type           full
_refine_ls_weighting_scheme      calc
_refine_ls_weighting_details     
'calc w=1/[\s^2^(Fo^2^)+(0.4000P)^2^+0.0000P] where P=(Fo^2^+2Fc^2^)/3'
_atom_sites_solution_primary     direct
_atom_sites_solution_secondary   difmap
_atom_sites_solution_hydrogens   geom
_refine_ls_hydrogen_treatment    constr
_chemical_absolute_configuration rmad
_refine_ls_extinction_method     none
_refine_ls_extinction_coef       ?
_refine_ls_abs_structure_details 'Flack H D (1983), Acta Cryst. A39, 876-881'
_refine_ls_abs_structure_Flack   -0.07(8)
_refine_ls_number_reflns         6784
_refine_ls_number_parameters     758
_refine_ls_number_restraints     121
_refine_ls_R_factor_all          0.1150
_refine_ls_R_factor_gt           0.1024
_refine_ls_wR_factor_ref         0.3540
_refine_ls_wR_factor_gt          0.2935
_refine_ls_goodness_of_fit_ref   0.915
_refine_ls_restrained_S_all      0.909
_refine_ls_shift/su_max          0.033
_refine_ls_shift/su_mean         0.005

loop_
_atom_site_label
_atom_site_type_symbol
_atom_site_fract_x
_atom_site_fract_y
_atom_site_fract_z
_atom_site_U_iso_or_equiv
_atom_site_adp_type
_atom_site_occupancy
_atom_site_symmetry_multiplicity
_atom_site_calc_flag
_atom_site_refinement_flags
_atom_site_disorder_assembly
_atom_site_disorder_group
Ag1 Ag 0.57950(5) -0.29842(5) -0.21342(7) 0.0923(7) Uani 1 1 d . . .
Ag2 Ag 0.80709(5) 0.26613(5) -0.02878(7) 0.0916(7) Uani 1 1 d . . .
C1A C 0.7935(5) 0.2898(6) 0.0940(8) 0.079(4) Uani 1 1 d U . .
H1AA H 0.8032 0.2716 0.1051 0.095 Uiso 1 1 calc R . .
N1A N 0.7911(5) 0.2954(5) 0.0367(7) 0.095(4) Uani 1 1 d U . .
C2A C 0.7766(8) 0.3203(6) 0.0198(10) 0.106(6) Uani 1 1 d U . .
H2AA H 0.7730 0.3233 -0.0189 0.127 Uiso 1 1 calc R . .
C3A C 0.7663(9) 0.3425(9) 0.0615(10) 0.129(8) Uani 1 1 d U . .
H3AA H 0.7576 0.3615 0.0506 0.155 Uiso 1 1 calc R . .
C4A C 0.7698(8) 0.3348(8) 0.1181(10) 0.121(8) Uani 1 1 d U . .
H4AA H 0.7627 0.3482 0.1461 0.146 Uiso 1 1 calc R . .
C5A C 0.7835(6) 0.3074(6) 0.1341(10) 0.090(5) Uani 1 1 d U . .
C6A C 0.7863(5) 0.2980(8) 0.1918(9) 0.085(6) Uani 1 1 d . . .
O1A O 0.7996(4) 0.2755(4) 0.2037(5) 0.085(4) Uani 1 1 d . . .
N2A N 0.7730(5) 0.3149(5) 0.2330(8) 0.089(5) Uani 1 1 d . . .
H2AB H 0.7642 0.3320 0.2238 0.107 Uiso 1 1 calc R . .
C7A C 0.7738(7) 0.3047(8) 0.2885(11) 0.102(7) Uani 1 1 d . . .
H7AA H 0.7704 0.3245 0.3125 0.123 Uiso 1 1 calc R . .
H7AB H 0.8011 0.3078 0.2969 0.123 Uiso 1 1 calc R . .
C8A C 0.7408(8) 0.2617(9) 0.3028(11) 0.104(7) Uani 1 1 d . . .
O2A O 0.7155(5) 0.2363(5) 0.2692(6) 0.105(4) Uani 1 1 d . . .
N3A N 0.7418(5) 0.2487(7) 0.3575(8) 0.102(4) Uani 1 1 d U . .
C9A C 0.7684(6) 0.2767(9) 0.4006(9) 0.126(7) Uani 1 1 d U . .
H9AA H 0.7657 0.3018 0.4026 0.152 Uiso 1 1 calc R . .
H9AB H 0.7977 0.2851 0.3938 0.152 Uiso 1 1 calc R . .
C10A C 0.7522(8) 0.2507(11) 0.4545(10) 0.146(8) Uani 1 1 d U . .
H10A H 0.7305 0.2548 0.4726 0.175 Uiso 1 1 calc R . .
H10B H 0.7749 0.2578 0.4816 0.175 Uiso 1 1 calc R . .
C11A C 0.7323(8) 0.2015(10) 0.4305(9) 0.137(7) Uani 1 1 d U . .
H11A H 0.7537 0.1933 0.4280 0.164 Uiso 1 1 calc R . .
H11B H 0.7090 0.1813 0.4540 0.164 Uiso 1 1 calc R . .
C12A C 0.7172(7) 0.2063(9) 0.3712(10) 0.114(5) Uani 1 1 d U . .
H12A H 0.7210 0.1887 0.3431 0.137 Uiso 1 1 calc R . .
C13A C 0.6728(8) 0.1925(9) 0.3782(10) 0.113(6) Uani 1 1 d U . .
O3A O 0.6590(4) 0.2169(5) 0.3880(7) 0.121(5) Uani 1 1 d U . .
N4A N 0.6463(6) 0.1508(7) 0.3725(9) 0.123(5) Uani 1 1 d U . .
C14A C 0.6574(7) 0.1194(8) 0.3620(11) 0.119(6) Uani 1 1 d U . .
H14A H 0.6773 0.1205 0.3902 0.143 Uiso 1 1 calc R . .
H14B H 0.6693 0.1223 0.3241 0.143 Uiso 1 1 calc R . .
C15A C 0.6133(8) 0.0775(9) 0.3676(11) 0.130(7) Uani 1 1 d U . .
H15A H 0.6104 0.0572 0.3387 0.156 Uiso 1 1 calc R . .
H15B H 0.6103 0.0649 0.4050 0.156 Uiso 1 1 calc R . .
C16A C 0.5820(8) 0.0904(10) 0.3593(13) 0.147(9) Uani 1 1 d U . .
H16A H 0.5754 0.0894 0.3190 0.176 Uiso 1 1 calc R . .
H16B H 0.5563 0.0712 0.3795 0.176 Uiso 1 1 calc R . .
C17A C 0.5984(8) 0.1335(9) 0.3809(12) 0.122(7) Uani 1 1 d U . .
H17A H 0.5878 0.1495 0.3599 0.147 Uiso 1 1 calc R . .
C18A C 0.5883(9) 0.1290(7) 0.4382(11) 0.099(6) Uani 1 1 d . . .
O4A O 0.6132(6) 0.1332(7) 0.4756(9) 0.151(7) Uani 1 1 d . . .
N5A N 0.5523(6) 0.1236(5) 0.4523(8) 0.095(5) Uani 1 1 d . . .
H5AA H 0.5363 0.1201 0.4233 0.114 Uiso 1 1 calc R . .
C19A C 0.5336(7) 0.1224(6) 0.5026(10) 0.093(5) Uani 1 1 d U . .
C20A C 0.5498(7) 0.1248(6) 0.5554(9) 0.101(6) Uani 1 1 d U . .
H20A H 0.5767 0.1281 0.5579 0.122 Uiso 1 1 calc R . .
C21A C 0.5302(7) 0.1227(7) 0.6027(9) 0.101(6) Uani 1 1 d U . .
H21A H 0.5429 0.1244 0.6379 0.122 Uiso 1 1 calc R . .
C22A C 0.4929(7) 0.1184(6) 0.6004(9) 0.095(5) Uani 1 1 d U . .
H22A H 0.4787 0.1169 0.6341 0.113 Uiso 1 1 calc R . .
N6A N 0.4744(5) 0.1160(5) 0.5506(7) 0.093(5) Uani 1 1 d U . .
C23A C 0.4945(6) 0.1174(5) 0.5029(8) 0.081(5) Uani 1 1 d U . .
H23A H 0.4811 0.1149 0.4681 0.097 Uiso 1 1 calc R . .
C1B C 0.6258(9) -0.2133(7) -0.1737(11) 0.120(8) Uani 1 1 d U . .
H1BA H 0.5991 -0.2235 -0.1578 0.144 Uiso 1 1 calc R . .
N1B N 0.6344(5) -0.2390(5) -0.2019(7) 0.083(4) Uani 1 1 d U . .
C2B C 0.6710(7) -0.2262(7) -0.2249(13) 0.129(9) Uani 1 1 d U . .
H2BA H 0.6756 -0.2450 -0.2463 0.155 Uiso 1 1 calc R . .
C3B C 0.7018(8) -0.1874(9) -0.2186(18) 0.178(15) Uani 1 1 d U . .
H3BA H 0.7290 -0.1797 -0.2303 0.214 Uiso 1 1 calc R . .
C4B C 0.6934(9) -0.1574(8) -0.1942(18) 0.168(13) Uani 1 1 d U . .
H4BA H 0.7131 -0.1287 -0.1964 0.201 Uiso 1 1 calc R . .
C5B C 0.6561(8) -0.1711(7) -0.1674(11) 0.111(6) Uani 1 1 d U . .
C6B C 0.6404(13) -0.1462(11) -0.1363(10) 0.118(8) Uani 1 1 d U . .
O1B O 0.6056(7) -0.1589(6) -0.1190(7) 0.127(6) Uani 1 1 d . . .
N2B N 0.6718(12) -0.1063(8) -0.1323(11) 0.177(11) Uani 1 1 d U . .
H2BB H 0.6975 -0.0976 -0.1424 0.212 Uiso 1 1 calc R . .
C7B C 0.6561(11) -0.0778(8) -0.1076(14) 0.163(12) Uani 1 1 d U . .
H7BA H 0.6271 -0.0950 -0.0951 0.196 Uiso 1 1 calc R . .
H7BB H 0.6732 -0.0628 -0.0747 0.196 Uiso 1 1 calc R . .
C8B C 0.6587(8) -0.0481(7) -0.1495(15) 0.116(8) Uani 1 1 d U . .
O2B O 0.6692(5) -0.0470(5) -0.2005(8) 0.124(5) Uani 1 1 d . . .
N3B N 0.6490(8) -0.0208(6) -0.1297(8) 0.129(7) Uani 1 1 d U . .
C9B C 0.6379(13) -0.0185(8) -0.0747(11) 0.175(14) Uani 1 1 d U . .
H9BA H 0.6618 -0.0103 -0.0493 0.210 Uiso 1 1 calc R . .
H9BB H 0.6149 -0.0457 -0.0624 0.210 Uiso 1 1 calc R . .
C10B C 0.6249(11) 0.0128(11) -0.0738(15) 0.162(10) Uani 1 1 d U . .
H10C H 0.5987 0.0024 -0.0527 0.194 Uiso 1 1 calc R . .
H10D H 0.6464 0.0386 -0.0557 0.194 Uiso 1 1 calc R . .
C11B C 0.6191(9) 0.0208(9) -0.1323(14) 0.150(9) Uani 1 1 d U . .
H11C H 0.6299 0.0507 -0.1388 0.180 Uiso 1 1 calc R . .
H11D H 0.5895 0.0052 -0.1429 0.180 Uiso 1 1 calc R . .
C12B C 0.6433(8) 0.0060(7) -0.1643(11) 0.114(6) Uani 1 1 d U . .
H12B H 0.6267 -0.0099 -0.1976 0.137 Uiso 1 1 calc R . .
C13B C 0.6823(10) 0.0424(9) -0.1844(12) 0.120(9) Uani 1 1 d . . .
O3B O 0.7156(6) 0.0525(4) -0.1655(9) 0.140(7) Uani 1 1 d . . .
N4B N 0.6772(8) 0.0652(6) -0.2263(9) 0.135(7) Uani 1 1 d U . .
C14B C 0.6401(11) 0.0603(8) -0.2569(10) 0.163(9) Uani 1 1 d DU . .
H14C H 0.6249 0.0703 -0.2337 0.195 Uiso 1 1 calc R . .
H14D H 0.6212 0.0309 -0.2663 0.195 Uiso 1 1 calc R . .
C15B C 0.6569(12) 0.0867(9) -0.3110(13) 0.28(2) Uani 1 1 d DU . .
H15C H 0.6590 0.0707 -0.3426 0.338 Uiso 1 1 calc R . .
H15D H 0.6401 0.0994 -0.3223 0.338 Uiso 1 1 calc R . .
C16B C 0.6997(11) 0.1191(8) -0.2880(11) 0.26(2) Uani 1 1 d DU . .
H16C H 0.6979 0.1429 -0.2731 0.312 Uiso 1 1 calc R . .
H16D H 0.7198 0.1293 -0.3193 0.312 Uiso 1 1 calc R . .
C17B C 0.7167(9) 0.1025(6) -0.2411(9) 0.137(8) Uani 1 1 d DU . .
H17B H 0.7374 0.0953 -0.2560 0.164 Uiso 1 1 calc R . .
C18B C 0.7356(8) 0.1357(7) -0.1927(10) 0.135(12) Uani 1 1 d D . .
O4B O 0.7160(6) 0.1404(5) -0.1568(7) 0.107(5) Uani 1 1 d D . .
N5B N 0.7799(7) 0.1556(6) -0.1999(10) 0.132(7) Uani 1 1 d . . .
H5BA H 0.7898 0.1476 -0.2277 0.159 Uiso 1 1 calc R . .
C19B C 0.8098(8) 0.1892(6) -0.1618(11) 0.109(7) Uani 1 1 d U . .
C20B C 0.8497(8) 0.2015(6) -0.1714(12) 0.135(10) Uani 1 1 d U . .
H20B H 0.8578 0.1871 -0.1968 0.162 Uiso 1 1 calc R . .
C21B C 0.8775(8) 0.2346(8) -0.1437(11) 0.138(10) Uani 1 1 d U . .
H21B H 0.9059 0.2470 -0.1534 0.165 Uiso 1 1 calc R . .
C22B C 0.8657(6) 0.2513(6) -0.1009(7) 0.088(5) Uani 1 1 d U . .
H22B H 0.8859 0.2717 -0.0769 0.105 Uiso 1 1 calc R . .
N6B N 0.8253(5) 0.2386(5) -0.0935(6) 0.087(4) Uani 1 1 d U . .
C23B C 0.7989(6) 0.2081(6) -0.1243(8) 0.082(5) Uani 1 1 d U . .
H23B H 0.7703 0.1988 -0.1196 0.098 Uiso 1 1 calc R . .
P1A P 0.5243(2) -0.0973(2) -0.1813(3) 0.120(3) Uani 1 1 d . . .
F1A F 0.4894(5) -0.1334(5) -0.1411(6) 0.135(5) Uani 1 1 d . . .
F2A F 0.4908(5) -0.0916(4) -0.2083(6) 0.136(5) Uani 1 1 d . . .
F3A F 0.5578(5) -0.1056(5) -0.1524(8) 0.162(6) Uani 1 1 d . . .
F4A F 0.5284(6) -0.0668(5) -0.1334(8) 0.168(6) Uani 1 1 d . . .
F5A F 0.5158(4) -0.1330(4) -0.2266(5) 0.119(4) Uani 1 1 d . . .
F6A F 0.5563(5) -0.0626(5) -0.2167(8) 0.173(7) Uani 1 1 d . . .
P1B P 0.6025(7) 0.1681(7) 0.7369(8) 0.162(6) Uiso 0.50 1 d PU . 1
F1B F 0.5916(14) 0.1372(13) 0.6963(16) 0.186(13) Uiso 0.50 1 d PU A 1
F2B F 0.6440(14) 0.1887(14) 0.7066(17) 0.194(13) Uiso 0.50 1 d PU B 1
F3B F 0.6260(14) 0.1526(13) 0.7795(16) 0.186(13) Uiso 0.50 1 d PU C 1
F4B F 0.5954(17) 0.1938(14) 0.695(2) 0.196(14) Uiso 0.50 1 d PU . 1
F5B F 0.5655(5) 0.1311(10) 0.7500 0.188(10) Uiso 1 2 d SU . 1
F6B F 0.6179(9) 0.1950(9) 0.7813(12) 0.119(8) Uiso 0.50 1 d PU . 1
O1W O 0.515(2) 0.017(2) 0.591(3) 0.25(3) Uiso 0.50 1 d P D 1
O2W O 0.517(3) 0.022(3) 0.723(3) 0.16(3) Uiso 0.25 1 d P . 1
O3W O 0.506(3) 0.016(3) 0.674(4) 0.31(4) Uiso 0.50 1 d P E 2
O4W O 0.501(2) 0.0000 0.5000 0.21(3) Uiso 0.50 2 d SP F 2
O5W O 0.6853(12) -0.1856(13) -0.4476(15) 0.264(14) Uiso 1 1 d . . .
O6W O 0.7541(10) -0.0574(10) -0.1680(13) 0.223(11) Uiso 1 1 d . . .
O7W O 0.7424(16) -0.2443(16) -0.294(2) 0.34(2) Uiso 1 1 d . . .
O8W O 0.6908(19) 0.3134(19) 0.422(2) 0.22(2) Uiso 0.50 1 d P . .
O9W O 0.698(2) 0.002(2) -0.301(3) 0.22(2) Uiso 0.50 1 d P G 1
O10W O 0.652(3) -0.017(3) -0.357(3) 0.27(3) Uiso 0.50 1 d P H 2
O11W O 0.7398(7) 0.3671(7) 0.2282(8) 0.061(5) Uiso 0.50 1 d P I 1
O12W O 0.757(3) 0.391(3) 0.237(4) 0.28(4) Uiso 0.50 1 d P J 2
O13W O 0.7269(18) 0.0000 0.0000 0.163(19) Uiso 0.50 2 d SP K 1
O14W O 0.770(4) 0.0000 0.0000 0.30(5) Uiso 0.50 2 d SP L 2
O15W O 0.7439(12) 0.3824(12) -0.0681(14) 0.063(12) Uiso 0.25 1 d P . 1
O16W O 0.796(2) 0.3981(12) -0.0833 0.20(3) Uiso 0.50 2 d SP M 2

loop_
_atom_site_aniso_label
_atom_site_aniso_U_11
_atom_site_aniso_U_22
_atom_site_aniso_U_33
_atom_site_aniso_U_23
_atom_site_aniso_U_13
_atom_site_aniso_U_12
Ag1 0.0740(12) 0.0879(12) 0.1198(13) -0.0004(9) 0.0086(9) 0.0442(10)
Ag2 0.0867(12) 0.0693(11) 0.1153(12) -0.0095(8) -0.0066(8) 0.0364(9)
C1A 0.058(11) 0.063(11) 0.113(10) -0.001(9) 0.007(10) 0.028(9)
N1A 0.096(11) 0.077(10) 0.117(9) 0.023(9) 0.018(10) 0.048(9)
C2A 0.15(2) 0.052(12) 0.118(12) -0.001(11) -0.005(13) 0.053(12)
C3A 0.18(2) 0.14(2) 0.119(12) 0.014(14) 0.023(16) 0.112(19)
C4A 0.15(2) 0.14(2) 0.126(10) -0.016(15) -0.007(16) 0.111(18)
C5A 0.073(13) 0.088(14) 0.127(14) -0.016(11) -0.001(12) 0.053(11)
C6A 0.037(11) 0.124(17) 0.104(18) 0.025(15) -0.023(10) 0.047(12)
O1A 0.073(8) 0.111(10) 0.083(8) 0.007(7) -0.007(7) 0.054(9)
N2A 0.095(12) 0.109(13) 0.088(13) -0.005(10) 0.001(10) 0.069(11)
C7A 0.073(15) 0.13(2) 0.11(2) -0.021(15) 0.000(13) 0.055(16)
C8A 0.101(19) 0.11(2) 0.096(18) 0.028(16) 0.014(15) 0.045(18)
O2A 0.099(11) 0.124(12) 0.100(10) -0.013(9) -0.002(9) 0.062(10)
N3A 0.065(9) 0.146(12) 0.111(11) 0.007(9) 0.010(8) 0.066(8)
C9A 0.052(12) 0.184(15) 0.124(14) -0.006(11) 0.012(10) 0.044(12)
C10A 0.088(17) 0.23(2) 0.115(12) 0.005(12) -0.019(11) 0.081(18)
C11A 0.111(17) 0.216(17) 0.089(12) 0.039(13) 0.0