####################################################################### 
# 
# This file contains crystal structure data downloaded from the 
# Cambridge Structural Database (CSD) hosted by the Cambridge 
# Crystallographic Data Centre (CCDC).
# 
# Full information about CCDC data access policies and citation 
# guidelines are available at http://www.ccdc.cam.ac.uk/access/V1 
# 
# Audit and citation data items may have been added by the CCDC. 
# Please retain this information to preserve the provenance of 
# this file and to allow appropriate attribution of the data. 
# 
#######################################################################

data_39c_nitratesq/2solv
_audit_block_doi                 10.5517/ccqnw8h
_database_code_depnum_ccdc_archive 'CCDC 675467'
loop_
_citation_id
_citation_doi
_citation_year
1 10.1016/j.poly.2008.07.014 2008
_audit_update_record             
;
2008-01-22 deposited with the CCDC.	2024-07-12 downloaded from the CCDC.
;

_audit_creation_method           SHELXL-97
_chemical_name_systematic        
;
?
;
_chemical_name_common            ?
_chemical_melting_point          ?
_chemical_formula_moiety         ?
_chemical_formula_sum            'C22 H20 Cu N6 O6 S4'
_chemical_formula_weight         656.22

loop_
_atom_type_symbol
_atom_type_description
_atom_type_scat_dispersion_real
_atom_type_scat_dispersion_imag
_atom_type_scat_source
C C 0.0033 0.0016 'International Tables Vol C Tables 4.2.6.8 and 6.1.1.4'
H H 0.0000 0.0000 'International Tables Vol C Tables 4.2.6.8 and 6.1.1.4'
N N 0.0061 0.0033 'International Tables Vol C Tables 4.2.6.8 and 6.1.1.4'
O O 0.0106 0.0060 'International Tables Vol C Tables 4.2.6.8 and 6.1.1.4'
S S 0.1246 0.1234 'International Tables Vol C Tables 4.2.6.8 and 6.1.1.4'
Cu Cu 0.3201 1.2651 'International Tables Vol C Tables 4.2.6.8 and 6.1.1.4'

_symmetry_cell_setting           Monoclinic
_symmetry_space_group_name_H-M   P2(1)/c

loop_
_symmetry_equiv_pos_as_xyz
'x, y, z'
'-x, y+1/2, -z+1/2'
'-x, -y, -z'
'x, -y-1/2, z-1/2'

_cell_length_a                   16.130(3)
_cell_length_b                   17.431(3)
_cell_length_c                   16.333(3)
_cell_angle_alpha                90.00
_cell_angle_beta                 111.758(3)
_cell_angle_gamma                90.00
_cell_volume                     4265.0(12)
_cell_formula_units_Z            4
_cell_measurement_temperature    293(2)
_cell_measurement_reflns_used    2083
_cell_measurement_theta_min      2.34
_cell_measurement_theta_max      19.53

_exptl_crystal_description       prism
_exptl_crystal_colour            blue
_exptl_crystal_size_max          0.44
_exptl_crystal_size_mid          0.41
_exptl_crystal_size_min          0.33
_exptl_crystal_density_meas      0
_exptl_crystal_density_diffrn    1.022
_exptl_crystal_density_method    'not measured'
_exptl_crystal_F_000             1340
_exptl_absorpt_coefficient_mu    0.740
_exptl_absorpt_correction_type   multi-scan
_exptl_absorpt_correction_T_min  0.6821
_exptl_absorpt_correction_T_max  1.0000
_exptl_absorpt_process_details   ?

_exptl_special_details           
;
?
;

_diffrn_ambient_temperature      293(2)
_diffrn_radiation_wavelength     0.71073
_diffrn_radiation_type           MoK\a
_diffrn_radiation_source         'fine-focus sealed tube'
_diffrn_radiation_monochromator  graphite
_diffrn_measurement_device_type  'CCD area detector'
_diffrn_measurement_method       'phi and omega scans'
_diffrn_detector_area_resol_mean ?
_diffrn_standards_number         ?
_diffrn_standards_interval_count ?
_diffrn_standards_interval_time  ?
_diffrn_standards_decay_%        ?
_diffrn_reflns_number            17780
_diffrn_reflns_av_R_equivalents  0.0846
_diffrn_reflns_av_sigmaI/netI    0.2152
_diffrn_reflns_limit_h_min       -20
_diffrn_reflns_limit_h_max       21
_diffrn_reflns_limit_k_min       -18
_diffrn_reflns_limit_k_max       23
_diffrn_reflns_limit_l_min       -21
_diffrn_reflns_limit_l_max       20
_diffrn_reflns_theta_min         1.78
_diffrn_reflns_theta_max         28.05
_reflns_number_total             7924
_reflns_number_gt                3142
_reflns_threshold_expression     >2sigma(I)

_computing_data_collection       'Bruker SMART'
_computing_cell_refinement       'Bruker SMART'
_computing_data_reduction        'Bruker SAINT'
_computing_structure_solution    'SHELXS-97 (Sheldrick, 1990)'
_computing_structure_refinement  'SHELXL-97 (Sheldrick, 1997)'
_computing_molecular_graphics    'Bruker SHELXTL'
_computing_publication_material  'Bruker SHELXTL'

_refine_special_details          
;
Refinement of F^2^ against ALL reflections. The weighted R-factor wR and
goodness of fit S are based on F^2^, conventional R-factors R are based
on F, with F set to zero for negative F^2^. The threshold expression of
F^2^ > 2sigma(F^2^) is used only for calculating R-factors(gt) etc. and is
not relevant to the choice of reflections for refinement. R-factors based
on F^2^ are statistically about twice as large as those based on F, and R-
factors based on ALL data will be even larger.
;

_refine_ls_structure_factor_coef Fsqd
_refine_ls_matrix_type           full
_refine_ls_weighting_scheme      calc
_refine_ls_weighting_details     
'calc w=1/[\s^2^(Fo^2^)+(0.0800P)^2^+0.0000P] where P=(Fo^2^+2Fc^2^)/3'
_atom_sites_solution_primary     direct
_atom_sites_solution_secondary   difmap
_atom_sites_solution_hydrogens   geom
_refine_ls_hydrogen_treatment    constr
_refine_ls_extinction_method     none
_refine_ls_extinction_coef       ?
_refine_ls_number_reflns         7924
_refine_ls_number_parameters     352
_refine_ls_number_restraints     0
_refine_ls_R_factor_all          0.1416
_refine_ls_R_factor_gt           0.0683
_refine_ls_wR_factor_ref         0.1800
_refine_ls_wR_factor_gt          0.1661
_refine_ls_goodness_of_fit_ref   0.863
_refine_ls_restrained_S_all      0.863
_refine_ls_shift/su_max          0.001
_refine_ls_shift/su_mean         0.000

loop_
_atom_site_label
_atom_site_type_symbol
_atom_site_fract_x
_atom_site_fract_y
_atom_site_fract_z
_atom_site_U_iso_or_equiv
_atom_site_adp_type
_atom_site_occupancy
_atom_site_symmetry_multiplicity
_atom_site_calc_flag
_atom_site_refinement_flags
_atom_site_disorder_assembly
_atom_site_disorder_group
Cu Cu 0.28475(4) 0.67148(4) 0.83656(5) 0.0366(2) Uani 1 1 d . . .
S1 S 0.40505(12) 0.30960(9) 0.85963(12) 0.0551(5) Uani 1 1 d . . .
S2 S 0.32615(11) 0.27917(11) 0.66171(13) 0.0649(6) Uani 1 1 d . . .
S3 S -0.08782(11) 0.54667(11) 0.86503(13) 0.0571(5) Uani 1 1 d . . .
S4 S 0.18000(13) 1.03523(10) 0.83581(14) 0.0670(6) Uani 1 1 d . . .
N1 N 0.3215(3) 0.5602(3) 0.8338(3) 0.0346(12) Uani 1 1 d . . .
N2 N 0.4038(3) 0.7046(3) 0.8347(3) 0.0366(12) Uani 1 1 d . . .
N11 N 0.1692(3) 0.6400(3) 0.8473(3) 0.0369(13) Uani 1 1 d . . .
N12 N 0.2500(3) 0.7831(3) 0.8341(3) 0.0362(12) Uani 1 1 d . . .
C1 C 0.2620(4) 0.5064(3) 0.7866(4) 0.0385(15) Uani 1 1 d . . .
H1 H 0.2046 0.5221 0.7516 0.046 Uiso 1 1 calc R . .
C2 C 0.2830(4) 0.4292(3) 0.7884(4) 0.0447(17) Uani 1 1 d . . .
H2 H 0.2406 0.3941 0.7548 0.054 Uiso 1 1 calc R . .
C3 C 0.3679(4) 0.4048(3) 0.8407(4) 0.0412(16) Uani 1 1 d . . .
C4 C 0.4308(4) 0.4598(3) 0.8868(4) 0.0398(16) Uani 1 1 d . . .
H4 H 0.4893 0.4462 0.9205 0.048 Uiso 1 1 calc R . .
C5 C 0.4025(4) 0.5361(3) 0.8805(4) 0.0397(16) Uani 1 1 d . . .
H5 H 0.4442 0.5727 0.9119 0.048 Uiso 1 1 calc R . .
C6 C 0.3253(4) 0.2585(4) 0.7687(4) 0.059(2) Uani 1 1 d . . .
H6A H 0.3357 0.2040 0.7795 0.071 Uiso 1 1 calc R . .
H6B H 0.2661 0.2695 0.7679 0.071 Uiso 1 1 calc R . .
C7 C 0.4325(4) 0.2488(4) 0.6681(5) 0.0525(19) Uani 1 1 d . . .
C8 C 0.4930(4) 0.2089(4) 0.7374(4) 0.0470(17) Uani 1 1 d . . .
H8 H 0.4787 0.1952 0.7857 0.056 Uiso 1 1 calc R . .
C9 C 0.4264(4) 0.6895(3) 0.7654(4) 0.0409(16) Uani 1 1 d . . .
H9 H 0.3851 0.6647 0.7170 0.049 Uiso 1 1 calc R . .
C10 C 0.4650(4) 0.7431(3) 0.9027(4) 0.0413(16) Uani 1 1 d . . .
H10 H 0.4510 0.7546 0.9516 0.050 Uiso 1 1 calc R . .
C11 C 0.5442(4) 0.7650(3) 0.9028(5) 0.0488(17) Uani 1 1 d . . .
H11 H 0.5838 0.7913 0.9510 0.059 Uiso 1 1 calc R . .
C12 C 0.0904(4) 0.6574(3) 0.7885(4) 0.0451(17) Uani 1 1 d . . .
H12 H 0.0895 0.6895 0.7428 0.054 Uiso 1 1 calc R . .
C13 C 0.0100(4) 0.6331(4) 0.7877(4) 0.0483(18) Uani 1 1 d . . .
H13 H -0.0428 0.6481 0.7430 0.058 Uiso 1 1 calc R . .
C14 C 0.0087(4) 0.5864(3) 0.8541(4) 0.0389(15) Uani 1 1 d . . .
C15 C 0.0886(4) 0.5664(3) 0.9172(4) 0.0480(18) Uani 1 1 d . . .
H15 H 0.0898 0.5340 0.9629 0.058 Uiso 1 1 calc R . .
C16 C 0.1683(4) 0.5941(4) 0.9141(4) 0.0508(18) Uani 1 1 d . . .
H16 H 0.2220 0.5809 0.9586 0.061 Uiso 1 1 calc R . .
C17 C -0.1758(4) 0.5748(3) 0.7665(4) 0.055(2) Uani 1 1 d . . .
H17A H -0.1735 0.6302 0.7620 0.066 Uiso 1 1 calc R . .
H17B H -0.2317 0.5625 0.7730 0.066 Uiso 1 1 calc R . .
C18 C 0.2070(4) 0.9386(3) 0.8285(4) 0.0398(16) Uani 1 1 d . . .
C19 C 0.2341(4) 0.9068(3) 0.7655(4) 0.0443(17) Uani 1 1 d . . .
H19 H 0.2373 0.9367 0.7196 0.053 Uiso 1 1 calc R . .
C20 C 0.2566(3) 0.8296(3) 0.7714(4) 0.0410(15) Uani 1 1 d . . .
H20 H 0.2771 0.8091 0.7299 0.049 Uiso 1 1 calc R . .
C21 C 0.2227(4) 0.8112(3) 0.8931(4) 0.0410(16) Uani 1 1 d . . .
H21 H 0.2175 0.7788 0.9362 0.049 Uiso 1 1 calc R . .
C22 C 0.2005(4) 0.8902(4) 0.8942(5) 0.0502(18) Uani 1 1 d . . .
H22 H 0.1820 0.9092 0.9378 0.060 Uiso 1 1 calc R . .
N21 N 0.3633(3) 0.6791(4) 1.0680(4) 0.0485(14) Uani 1 1 d . . .
O1 O 0.3650(3) 0.6422(3) 1.0039(3) 0.0567(13) Uani 1 1 d . . .
O2 O 0.3692(4) 0.7513(3) 1.0667(4) 0.0967(19) Uani 1 1 d . . .
O3 O 0.3650(4) 0.6462(4) 1.1351(4) 0.106(2) Uani 1 1 d . . .
N31 N 0.1883(7) 0.6471(6) 0.6170(8) 0.105(3) Uani 1 1 d . . .
O11 O 0.2086(4) 0.6786(3) 0.6820(4) 0.0874(19) Uani 1 1 d . . .
O12 O 0.2355(8) 0.5945(6) 0.6091(6) 0.189(4) Uani 1 1 d . . .
O13 O 0.1283(6) 0.6512(8) 0.5528(7) 0.255(8) Uani 1 1 d . . .

loop_
_atom_site_aniso_label
_atom_site_aniso_U_11
_atom_site_aniso_U_22
_atom_site_aniso_U_33
_atom_site_aniso_U_23
_atom_site_aniso_U_13
_atom_site_aniso_U_12
Cu 0.0332(4) 0.0293(4) 0.0558(5) 0.0043(4) 0.0265(4) 0.0009(3)
S1 0.0701(12) 0.0347(10) 0.0668(13) -0.0031(9) 0.0330(10) 0.0146(9)
S2 0.0301(10) 0.0815(14) 0.0796(15) -0.0332(12) 0.0164(9) 0.0127(9)
S3 0.0437(10) 0.0646(12) 0.0719(14) 0.0054(10) 0.0316(10) -0.0153(9)
S4 0.0785(14) 0.0391(11) 0.0834(16) -0.0082(10) 0.0300(12) 0.0156(10)
N1 0.034(3) 0.036(3) 0.038(3) 0.002(3) 0.017(3) 0.000(2)
N2 0.046(3) 0.027(3) 0.045(3) 0.001(2) 0.026(3) 0.003(2)
N11 0.031(3) 0.033(3) 0.046(3) 0.019(3) 0.015(3) 0.005(2)
N12 0.037(3) 0.038(3) 0.044(3) 0.009(3) 0.027(3) 0.007(2)
C1 0.040(4) 0.035(4) 0.036(4) -0.002(3) 0.009(3) 0.001(3)
C2 0.039(4) 0.029(4) 0.065(5) -0.015(3) 0.019(4) -0.007(3)
C3 0.052(4) 0.032(4) 0.046(4) 0.001(3) 0.025(4) -0.004(3)
C4 0.040(4) 0.043(4) 0.039(4) -0.002(3) 0.018(3) 0.008(3)
C5 0.034(4) 0.042(4) 0.041(4) -0.003(3) 0.012(3) -0.002(3)
C6 0.058(4) 0.045(4) 0.090(6) -0.012(4) 0.046(4) 0.004(3)
C7 0.032(4) 0.049(5) 0.067(5) -0.017(4) 0.007(4) -0.005(3)
C8 0.038(4) 0.049(4) 0.061(5) -0.011(4) 0.027(4) -0.008(3)
C9 0.039(4) 0.044(4) 0.048(4) 0.002(3) 0.027(3) 0.004(3)
C10 0.055(4) 0.046(4) 0.028(4) -0.004(3) 0.021(3) -0.011(3)
C11 0.041(4) 0.045(4) 0.063(5) 0.001(4) 0.023(4) -0.011(3)
C12 0.050(4) 0.034(4) 0.063(5) 0.014(3) 0.034(4) -0.001(3)
C13 0.026(3) 0.058(4) 0.057(5) 0.027(4) 0.010(3) 0.001(3)
C14 0.034(4) 0.038(4) 0.049(4) 0.007(3) 0.022(3) -0.005(3)
C15 0.032(4) 0.050(4) 0.066(5) 0.014(4) 0.023(4) -0.023(3)
C16 0.033(4) 0.065(5) 0.051(5) 0.015(4) 0.012(3) 0.022(3)
C17 0.038(4) 0.032(4) 0.101(6) -0.025(4) 0.034(4) -0.015(3)
C18 0.030(3) 0.043(4) 0.043(4) -0.002(3) 0.008(3) -0.002(3)
C19 0.048(4) 0.044(4) 0.052(5) 0.011(3) 0.031(4) 0.006(3)
C20 0.038(3) 0.031(4) 0.060(5) -0.007(4) 0.025(3) 0.009(3)
C21 0.046(4) 0.041(4) 0.045(4) 0.011(3) 0.028(3) 0.007(3)
C22 0.058(4) 0.041(4) 0.061(5) -0.009(4) 0.033(4) 0.012(3)
N21 0.049(3) 0.057(4) 0.040(4) -0.008(4) 0.016(3) -0.002(3)
O1 0.064(3) 0.069(3) 0.045(3) -0.016(3) 0.029(3) -0.007(2)
O2 0.120(5) 0.062(4) 0.091(5) -0.012(3) 0.018(4) 0.016(4)
O3 0.157(6) 0.117(5) 0.069(4) -0.021(4) 0.071(4) -0.054(4)
N31 0.104(8) 0.113(8) 0.110(9) -0.035(7) 0.054(7) -0.007(6)
O11 0.119(5) 0.087(5) 0.061(4) -0.024(3) 0.039(4) -0.012(4)
O12 0.295(13) 0.153(8) 0.122(7) 0.012(6) 0.079(8) 0.066(8)
O13 0.114(7) 0.48(2) 0.139(9) -0.083(10) 0.011(6) 0.101(10)

_geom_special_details            
;
All esds (except the esd in the dihedral angle between two l.s. planes)
are estimated using the full covariance matrix. The cell esds are taken
into account individually in the estimation of esds in distances, angles
and torsion angles; correlations between esds in cell parameters are only
used when they are defined by crystal symmetry. An approximate (isotropic)
treatment of cell esds is used for estimating esds involving l.s. planes.
;

loop_
_geom_bond_atom_site_label_1
_geom_bond_atom_site_label_2
_geom_bond_distance
_geom_bond_site_symmetry_2
_geom_bond_publ_flag
Cu N11 2.012(5) . ?
Cu N2 2.017(5) . ?
Cu N12 2.020(5) . ?
Cu N1 2.034(5) . ?
Cu O11 2.367(6) . ?
Cu O1 2.604(5) . ?
Cu Cu 8.6133(14) 4_576 ?
Cu Cu 8.6133(13) 4_575 ?
Cu Cu 12.1130(16) 2_656 ?
Cu Cu 12.2097(17) 2_546 ?
S1 C3 1.753(6) . ?
S1 C6 1.799(7) . ?
S2 C7 1.761(6) . ?
S2 C6 1.788(7) . ?
S3 C14 1.772(6) . ?
S3 C17 1.775(7) . ?
S4 C18 1.754(6) . ?
S4 C17 1.786(7) 2_556 ?
N1 C5 1.313(7) . ?
N1 C1 1.359(7) . ?
N2 C9 1.337(7) . ?
N2 C10 1.359(7) . ?
N11 C12 1.313(7) . ?
N11 C16 1.357(7) . ?
N12 C21 1.295(7) . ?
N12 C20 1.341(7) . ?
C1 C2 1.386(7) . ?
C2 C3 1.384(8) . ?
C3 C4 1.395(8) . ?
C4 C5 1.398(7) . ?
C7 C11 1.373(9) 2_646 ?
C7 C8 1.377(8) . ?
C8 C9 1.361(7) 2_646 ?
C9 C8 1.361(7) 2_656 ?
C10 C11 1.333(7) . ?
C11 C7 1.373(9) 2_656 ?
C12 C13 1.360(7) . ?
C13 C14 1.363(8) . ?
C14 C15 1.363(8) . ?
C15 C16 1.392(7) . ?
C17 S4 1.786(6) 2_546 ?
C18 C19 1.376(8) . ?
C18 C22 1.398(8) . ?
C19 C20 1.388(7) . ?
C21 C22 1.424(8) . ?
N21 O3 1.229(7) . ?
N21 O1 1.238(6) . ?
N21 O2 1.263(7) . ?
N31 O11 1.130(9) . ?
N31 O13 1.135(11) . ?
N31 O12 1.229(10) . ?

loop_
_geom_angle_atom_site_label_1
_geom_angle_atom_site_label_2
_geom_angle_atom_site_label_3
_geom_angle
_geom_angle_site_symmetry_1
_geom_angle_site_symmetry_3
_geom_angle_publ_flag
N11 Cu N2 176.1(2) . . ?
N11 Cu N12 90.27(18) . . ?
N2 Cu N12 89.03(18) . . ?
N11 Cu N1 91.69(19) . . ?
N2 Cu N1 89.16(18) . . ?
N12 Cu N1 177.14(19) . . ?
N11 Cu O11 88.6(2) . . ?
N2 Cu O11 95.1(2) . . ?
N12 Cu O11 84.2(2) . . ?
N1 Cu O11 93.8(2) . . ?
N11 Cu O1 88.37(17) . . ?
N2 Cu O1 88.07(17) . . ?
N12 Cu O1 103.62(17) . . ?
N1 Cu O1 78.53(16) . . ?
O11 Cu O1 171.68(18) . . ?
N11 Cu Cu 71.23(15) . 4_576 ?
N2 Cu Cu 104.97(14) . 4_576 ?
N12 Cu Cu 67.37(14) . 4_576 ?
N1 Cu Cu 115.27(13) . 4_576 ?
O11 Cu Cu 144.35(15) . 4_576 ?
O1 Cu Cu 40.71(10) . 4_576 ?
N11 Cu Cu 119.66(15) . 4_575 ?
N2 Cu Cu 63.88(14) . 4_575 ?
N12 Cu Cu 76.88(14) . 4_575 ?
N1 Cu Cu 100.33(13) . 4_575 ?
O11 Cu Cu 32.23(14) . 4_575 ?
O1 Cu Cu 151.95(9) . 4_575 ?
Cu Cu Cu 142.940(19) 4_576 4_575 ?
N11 Cu Cu 147.79(13) . 2_656 ?
N2 Cu Cu 32.74(12) . 2_656 ?
N12 Cu Cu 58.78(13) . 2_656 ?
N1 Cu Cu 118.93(13) . 2_656 ?
O11 Cu Cu 80.15(14) . 2_656 ?
O1 Cu Cu 106.31(10) . 2_656 ?
Cu Cu Cu 101.196(12) 4_576 2_656 ?
Cu Cu Cu 49.347(10) 4_575 2_656 ?
N11 Cu Cu 35.31(14) . 2_546 ?
N2 Cu Cu 147.12(13) . 2_546 ?
N12 Cu Cu 120.21(13) . 2_546 ?
N1 Cu Cu 60.97(13) . 2_546 ?
O11 Cu Cu 75.05(14) . 2_546 ?
O1 Cu Cu 98.16(10) . 2_546 ?
Cu Cu Cu 100.487(10) 4_576 2_546 ?
Cu Cu Cu 105.764(11) 4_575 2_546 ?
Cu Cu Cu 155.051(15) 2_656 2_546 ?
C3 S1 C6 103.3(3) . . ?
C7 S2 C6 104.0(4) . . ?
C14 S3 C17 103.8(3) . . ?
C18 S4 C17 103.4(3) . 2_556 ?
C5 N1 C1 116.8(5) . . ?
C5 N1 Cu 121.8(4) . . ?
C1 N1 Cu 121.3(4) . . ?
C9 N2 C10 116.5(5) . . ?
C9 N2 Cu 121.1(4) . . ?
C10 N2 Cu 122.4(4) . . ?
C12 N11 C16 115.3(5) . . ?
C12 N11 Cu 123.4(4) . . ?
C16 N11 Cu 121.1(4) . . ?
C21 N12 C20 119.0(5) . . ?
C21 N12 Cu 121.2(4) . . ?
C20 N12 Cu 119.8(4) . . ?
N1 C1 C2 122.8(5) . . ?
C3 C2 C1 119.3(6) . . ?
C2 C3 C4 118.5(5) . . ?
C2 C3 S1 126.4(5) . . ?
C4 C3 S1 115.0(5) . . ?
C3 C4 C5 117.5(5) . . ?
N1 C5 C4 125.0(6) . . ?
S2 C6 S1 116.5(4) . . ?
C11 C7 C8 117.7(6) 2_646 . ?
C11 C7 S2 116.9(5) 2_646 . ?
C8 C7 S2 125.3(6) . . ?
C9 C8 C7 119.5(6) 2_646 . ?
N2 C9 C8 122.8(6) . 2_656 ?
C11 C10 N2 123.2(6) . . ?
C10 C11 C7 120.1(6) . 2_656 ?
N11 C12 C13 126.7(6) . . ?
C12 C13 C14 118.2(6) . . ?
C13 C14 C15 117.8(5) . . ?
C13 C14 S3 125.9(5) . . ?
C15 C14 S3 116.3(4) . . ?
C14 C15 C16 120.7(6) . . ?
N11 C16 C15 121.3(6) . . ?
S3 C17 S4 118.8(3) . 2_546 ?
C19 C18 C22 117.7(6) . . ?
C19 C18 S4 126.3(5) . . ?
C22 C18 S4 115.9(5) . . ?
C18 C19 C20 119.0(6) . . ?
N12 C20 C19 123.2(5) . . ?
N12 C21 C22 122.1(6) . . ?
C18 C22 C21 119.0(6) . . ?
O3 N21 O1 120.8(6) . . ?
O3 N21 O2 120.2(6) . . ?
O1 N21 O2 118.6(6) . . ?
N21 O1 Cu 128.9(4) . . ?
O11 N31 O13 133.4(13) . . ?
O11 N31 O12 119.1(13) . . ?
O13 N31 O12 107.4(11) . . ?
N31 O11 Cu 146.2(8) . . ?

loop_
_geom_torsion_atom_site_label_1
_geom_torsion_atom_site_label_2
_geom_torsion_atom_site_label_3
_geom_torsion_atom_site_label_4
_geom_torsion
_geom_torsion_site_symmetry_1
_geom_torsion_site_symmetry_2
_geom_torsion_site_symmetry_3
_geom_torsion_site_symmetry_4
_geom_torsion_publ_flag
C14 S3 C17 S4 67.3(4) . . . 2_546 ?
C3 S1 C6 S2 67.1(4) . . . . ?
S1 C6 S2 C7 63.3(4) . . . . ?
S3 C17 S4 C18 69.2(4) . . 2_546 2_546 ?

loop_
_geom_hbond_atom_site_label_D
_geom_hbond_atom_site_label_H
_geom_hbond_atom_site_label_A
_geom_hbond_distance_DH
_geom_hbond_distance_HA
_geom_hbond_distance_DA
_geom_hbond_angle_DHA
_geom_hbond_site_symmetry_A
C9 H9 O11 0.93 2.70 3.268(8) 120.3 .
C9 H9 O12 0.93 2.70 3.593(12) 162.0 .
C9 H9 O2 0.93 2.79 3.198(8) 107.9 4_575
C20 H20 O3 0.93 2.58 3.329(8) 138.3 4_575
C22 H22 O13 0.93 2.57 3.291(12) 134.8 4_576

_diffrn_measured_fraction_theta_max 0.766
_diffrn_reflns_theta_full        28.05
_diffrn_measured_fraction_theta_full 0.766
_refine_diff_density_max         0.464
_refine_diff_density_min         -0.576
_refine_diff_density_rms         0.089

#===========================================================================END


