####################################################################### 
# 
# This file contains crystal structure data downloaded from the 
# Cambridge Structural Database (CSD) hosted by the Cambridge 
# Crystallographic Data Centre (CCDC).
# 
# Full information about CCDC data access policies and citation 
# guidelines are available at http://www.ccdc.cam.ac.uk/access/V1 
# 
# Audit and citation data items may have been added by the CCDC. 
# Please retain this information to preserve the provenance of 
# this file and to allow appropriate attribution of the data. 
# 
#######################################################################

data_UNLPF2
_audit_block_doi                 10.5517/cc10vx70
_database_code_depnum_ccdc_archive 'CCDC 949382'
loop_
_citation_id
_citation_doi
_citation_year
1 10.1002/chem.201402006 2014
_audit_update_record             
;
2013-07-09 deposited with the CCDC.	2024-07-12 downloaded from the CCDC.
;

_audit_creation_method           SHELXL-97
_chemical_name_systematic        
; 
 ? 
;
_chemical_name_common            UNLPF2
_chemical_melting_point          'Not Measured'
_chemical_formula_moiety         'C101 H52 Co5 N4 O22'
_chemical_formula_sum            'C101 H52 Co5 N4 O22'
_chemical_formula_weight         1968.12

loop_
_atom_type_symbol
_atom_type_description
_atom_type_scat_dispersion_real
_atom_type_scat_dispersion_imag
_atom_type_scat_source
C C 0.0033 0.0016 'International Tables Vol C Tables 4.2.6.8 and 6.1.1.4'
H H 0.0000 0.0000 'International Tables Vol C Tables 4.2.6.8 and 6.1.1.4'
N N 0.0061 0.0033 'International Tables Vol C Tables 4.2.6.8 and 6.1.1.4'
O O 0.0106 0.0060 'International Tables Vol C Tables 4.2.6.8 and 6.1.1.4'
Co Co 0.3494 0.9721 'International Tables Vol C Tables 4.2.6.8 and 6.1.1.4'

_symmetry_cell_setting           tetragonal
_symmetry_space_group_name_H-M   P42/mmc

loop_
_symmetry_equiv_pos_as_xyz
'x, y, z'
'-x, -y, z'
'-y, x, z+1/2'
'y, -x, z+1/2'
'-x, y, -z'
'x, -y, -z'
'y, x, -z+1/2'
'-y, -x, -z+1/2'
'-x, -y, -z'
'x, y, -z'
'y, -x, -z-1/2'
'-y, x, -z-1/2'
'x, -y, z'
'-x, y, z'
'-y, -x, z-1/2'
'y, x, z-1/2'

_cell_length_a                   21.8729(7)
_cell_length_b                   21.8729(7)
_cell_length_c                   28.6804(17)
_cell_angle_alpha                90.00
_cell_angle_beta                 90.00
_cell_angle_gamma                90.00
_cell_volume                     13721.4(10)
_cell_formula_units_Z            2
_cell_measurement_temperature    100(2)
_cell_measurement_reflns_used    ?
_cell_measurement_theta_min      ?
_cell_measurement_theta_max      ?

_exptl_crystal_description       block
_exptl_crystal_colour            red
_exptl_crystal_size_max          0.40
_exptl_crystal_size_mid          0.35
_exptl_crystal_size_min          0.10
_exptl_crystal_density_meas      ?
_exptl_crystal_density_diffrn    0.476
_exptl_crystal_density_method    'not measured'
_exptl_crystal_F_000             1994
_exptl_absorpt_coefficient_mu    0.321
_exptl_absorpt_correction_type   multi-scan
_exptl_absorpt_correction_T_min  0.860
_exptl_absorpt_correction_T_max  0.980
_exptl_absorpt_process_details   ?

_exptl_special_details           
; 
 ? 
;

_diffrn_ambient_temperature      100(2)
_diffrn_radiation_wavelength     0.71073
_diffrn_radiation_type           MoK\a
_diffrn_radiation_source         'fine-focus sealed tube'
_diffrn_radiation_monochromator  graphite
_diffrn_measurement_device_type  ?
_diffrn_measurement_method       ?
_diffrn_detector_area_resol_mean ?
_diffrn_standards_number         ?
_diffrn_standards_interval_count ?
_diffrn_standards_interval_time  ?
_diffrn_standards_decay_%        ?
_diffrn_reflns_number            139620
_diffrn_reflns_av_R_equivalents  0.1289
_diffrn_reflns_av_sigmaI/netI    0.0290
_diffrn_reflns_limit_h_min       -20
_diffrn_reflns_limit_h_max       20
_diffrn_reflns_limit_k_min       -20
_diffrn_reflns_limit_k_max       20
_diffrn_reflns_limit_l_min       -26
_diffrn_reflns_limit_l_max       26
_diffrn_reflns_theta_min         2.20
_diffrn_reflns_theta_max         19.21
_reflns_number_total             3104
_reflns_number_gt                2686
_reflns_threshold_expression     >2sigma(I)

_computing_data_collection       ?
_computing_cell_refinement       ?
_computing_data_reduction        ?
_computing_structure_solution    'SHELXS-97 (Sheldrick, 1990)'
_computing_structure_refinement  'SHELXL-97 (Sheldrick, 1997)'
_computing_molecular_graphics    ?
_computing_publication_material  ?

_refine_special_details          
; 
 Refinement of F^2^ against ALL reflections.  The weighted R-factor wR and 
 goodness of fit S are based on F^2^, conventional R-factors R are based 
 on F, with F set to zero for negative F^2^. The threshold expression of 
 F^2^ > 2sigma(F^2^) is used only for calculating R-factors(gt) etc. and is 
 not relevant to the choice of reflections for refinement.  R-factors based 
 on F^2^ are statistically about twice as large as those based on F, and R- 
 factors based on ALL data will be even larger. 
;

_refine_ls_structure_factor_coef Fsqd
_refine_ls_matrix_type           full
_refine_ls_weighting_scheme      calc
_refine_ls_weighting_details     
'calc w=1/[\s^2^(Fo^2^)+(0.2000P)^2^+15.0000P] where P=(Fo^2^+2Fc^2^)/3'
_atom_sites_solution_primary     direct
_atom_sites_solution_secondary   difmap
_atom_sites_solution_hydrogens   geom
_refine_ls_hydrogen_treatment    mixed
_refine_ls_extinction_method     SHELXL
_refine_ls_extinction_coef       0.0017(16)
_refine_ls_extinction_expression Fc^*^=kFc[1+0.001xFc^2^\l^3^/sin(2\q)]^-1/4^
_refine_ls_number_reflns         3104
_refine_ls_number_parameters     165
_refine_ls_number_restraints     19
_refine_ls_R_factor_all          0.1237
_refine_ls_R_factor_gt           0.1071
_refine_ls_wR_factor_ref         0.3093
_refine_ls_wR_factor_gt          0.2866
_refine_ls_goodness_of_fit_ref   1.152
_refine_ls_restrained_S_all      1.830
_refine_ls_shift/su_max          0.000
_refine_ls_shift/su_mean         0.000

loop_
_atom_site_label
_atom_site_type_symbol
_atom_site_fract_x
_atom_site_fract_y
_atom_site_fract_z
_atom_site_U_iso_or_equiv
_atom_site_adp_type
_atom_site_occupancy
_atom_site_symmetry_multiplicity
_atom_site_calc_flag
_atom_site_refinement_flags
_atom_site_disorder_assembly
_atom_site_disorder_group
Co1 Co 0.0000 0.0000 0.2500 0.0768(18) Uani 1 8 d S . .
Co2 Co 0.5000 0.13862(12) 0.5000 0.0513(14) Uani 1 4 d SU . .
Co3 Co 0.5000 0.27216(13) 0.5000 0.0637(14) Uani 1 4 d SU . .
O1 O 0.0000 0.0000 0.1689(10) 0.225(15) Uani 1 4 d S . .
O2 O 0.4359(4) 0.1549(5) 0.4510(3) 0.099(3) Uani 1 1 d . . .
O3 O 0.4358(5) 0.2581(6) 0.4511(3) 0.103(3) Uani 1 1 d . . .
O4 O 0.5000 0.0481(8) 0.5000 0.133(8) Uani 1 4 d SU . .
O5 O 0.5000 0.3664(10) 0.5000 0.206(14) Uani 1 4 d SU . .
N1 N 0.0904(7) 0.0000 0.2487(5) 0.078(4) Uani 1 2 d S . .
C1 C 0.1276(7) 0.0493(7) 0.2464(5) 0.091(4) Uani 1 1 d . . .
C01 C 0.5000 0.0000 0.5000 0.116(10) Uani 1 8 d SU . .
C2 C 0.1897(8) 0.0299(7) 0.2389(6) 0.120(6) Uani 1 1 d . . .
H2A H 0.2242 0.0557 0.2348 0.144 Uiso 1 1 calc R . .
C3 C 0.1089(6) 0.1089(6) 0.2500 0.096(6) Uani 1 2 d S . .
C4 C 0.1584(6) 0.1584(6) 0.2500 0.107(7) Uani 1 2 d SD . .
C5 C 0.2000(7) 0.1618(7) 0.2868(5) 0.110(5) Uani 1 1 d D . .
H5A H 0.1969 0.1341 0.3122 0.132 Uiso 1 1 calc R . .
C6 C 0.2455(7) 0.2052(6) 0.2863(5) 0.110(5) Uani 1 1 d D . .
C7 C 0.2479(6) 0.2479(6) 0.2500 0.111(8) Uani 1 2 d SD . .
H7A H 0.2786 0.2786 0.2500 0.133 Uiso 1 2 calc SR . .
C8 C 0.2904(7) 0.2062(7) 0.3246(5) 0.105(5) Uani 1 1 d . . .
C9 C 0.3131(7) 0.1493(7) 0.3421(5) 0.114(6) Uani 1 1 d . . .
H9A H 0.3005 0.1117 0.3284 0.137 Uiso 1 1 calc R . .
C10 C 0.3535(8) 0.1496(7) 0.3793(6) 0.106(5) Uani 1 1 d . . .
H10A H 0.3664 0.1122 0.3929 0.127 Uiso 1 1 calc R . .
C11 C 0.3747(7) 0.2045(8) 0.3962(5) 0.099(5) Uani 1 1 d . . .
C12 C 0.3544(7) 0.2623(7) 0.3778(6) 0.116(6) Uani 1 1 d . . .
H12A H 0.3693 0.2998 0.3901 0.140 Uiso 1 1 calc R . .
C13 C 0.3137(7) 0.2615(7) 0.3426(6) 0.110(5) Uani 1 1 d . . .
H13A H 0.3004 0.2991 0.3295 0.132 Uiso 1 1 calc R . .
C14 C 0.4192(7) 0.2063(9) 0.4366(5) 0.094(5) Uani 1 1 d . . .

loop_
_atom_site_aniso_label
_atom_site_aniso_U_11
_atom_site_aniso_U_22
_atom_site_aniso_U_33
_atom_site_aniso_U_23
_atom_site_aniso_U_13
_atom_site_aniso_U_12
Co1 0.072(2) 0.072(2) 0.087(4) 0.000 0.000 0.000
Co2 0.069(2) 0.042(2) 0.043(2) 0.000 0.000 0.000
Co3 0.085(3) 0.047(2) 0.060(2) 0.000 0.000 0.000
O1 0.21(3) 0.33(5) 0.13(2) 0.000 0.000 0.000
O2 0.100(7) 0.114(8) 0.081(6) 0.029(6) -0.032(5) 0.010(6)
O3 0.108(8) 0.107(8) 0.096(7) 0.002(6) -0.033(6) -0.011(6)
O4 0.22(2) 0.037(8) 0.144(15) 0.000 0.000 0.000
O5 0.27(4) 0.051(9) 0.30(4) 0.000 0.000 0.000
N1 0.068(10) 0.079(11) 0.086(11) 0.000 -0.006(8) 0.000
C1 0.076(11) 0.079(12) 0.117(12) 0.004(9) -0.010(8) -0.010(8)
C01 0.20(2) 0.025(10) 0.124(19) 0.000 0.000 0.000
C2 0.085(12) 0.111(12) 0.164(15) 0.011(10) -0.029(10) -0.016(8)
C3 0.091(10) 0.091(10) 0.105(15) 0.027(10) -0.027(10) -0.029(15)
C4 0.091(10) 0.091(10) 0.140(19) 0.040(11) -0.040(11) -0.010(13)
C5 0.107(12) 0.101(11) 0.123(12) 0.053(10) -0.045(10) -0.026(10)
C6 0.122(13) 0.084(10) 0.124(13) 0.038(10) -0.069(11) -0.021(10)
C7 0.098(9) 0.098(9) 0.137(18) 0.063(12) -0.063(12) -0.024(12)
C8 0.111(12) 0.094(12) 0.111(12) 0.041(10) -0.040(10) -0.016(9)
C9 0.126(13) 0.102(12) 0.113(12) 0.037(10) -0.073(11) -0.009(10)
C10 0.129(13) 0.066(10) 0.123(13) 0.016(9) -0.035(11) -0.013(9)
C11 0.101(11) 0.114(14) 0.081(10) 0.036(10) -0.024(9) 0.006(10)
C12 0.127(13) 0.098(12) 0.124(13) 0.031(10) -0.066(12) -0.033(10)
C13 0.124(13) 0.083(11) 0.122(12) 0.032(10) -0.047(11) -0.018(10)
C14 0.093(11) 0.108(14) 0.082(11) 0.022(10) -0.003(9) -0.002(10)

_geom_special_details            
; 
 All esds (except the esd in the dihedral angle between two l.s. planes) 
 are estimated using the full covariance matrix.  The cell esds are taken 
 into account individually in the estimation of esds in distances, angles 
 and torsion angles; correlations between esds in cell parameters are only 
 used when they are defined by crystal symmetry.  An approximate (isotropic) 
 treatment of cell esds is used for estimating esds involving l.s. planes. 
;

loop_
_geom_bond_atom_site_label_1
_geom_bond_atom_site_label_2
_geom_bond_distance
_geom_bond_site_symmetry_2
_geom_bond_publ_flag
Co1 N1 1.977(15) 2 ?
Co1 N1 1.977(15) 12_556 ?
Co1 N1 1.977(15) 11_556 ?
Co1 N1 1.977(15) . ?
Co1 O1 2.33(3) 11_556 ?
Co1 O1 2.33(3) . ?
Co2 O4 1.979(17) . ?
Co2 O2 2.017(9) 5_656 ?
Co2 O2 2.017(9) . ?
Co2 O2 2.017(9) 10_556 ?
Co2 O2 2.017(9) 14_655 ?
Co2 Co3 2.921(4) . ?
Co3 O3 2.009(9) 5_656 ?
Co3 O3 2.009(9) . ?
Co3 O3 2.009(9) 10_556 ?
Co3 O3 2.009(9) 14_655 ?
Co3 O5 2.06(2) . ?
O2 C14 1.252(17) . ?
O3 C14 1.261(18) . ?
O4 C01 1.053(17) . ?
N1 C1 1.352(15) . ?
N1 C1 1.352(15) 13 ?
C1 C3 1.370(15) . ?
C1 C2 1.44(2) . ?
C01 O4 1.053(17) 9_656 ?
C2 C2 1.31(3) 13 ?
C3 C1 1.370(15) 7 ?
C3 C4 1.53(3) . ?
C4 C5 1.394(15) . ?
C4 C5 1.394(15) 7 ?
C5 C6 1.376(15) . ?
C6 C7 1.398(15) . ?
C6 C8 1.474(19) . ?
C7 C6 1.398(15) 7 ?
C8 C13 1.41(2) . ?
C8 C9 1.431(18) . ?
C9 C10 1.385(19) . ?
C10 C11 1.377(19) . ?
C11 C12 1.441(19) . ?
C11 C14 1.51(2) . ?
C12 C13 1.348(19) . ?

loop_
_geom_angle_atom_site_label_1
_geom_angle_atom_site_label_2
_geom_angle_atom_site_label_3
_geom_angle
_geom_angle_site_symmetry_1
_geom_angle_site_symmetry_3
_geom_angle_publ_flag
N1 Co1 N1 90.019(15) 2 12_556 ?
N1 Co1 N1 90.019(16) 2 11_556 ?
N1 Co1 N1 177.9(8) 12_556 11_556 ?
N1 Co1 N1 177.9(8) 2 . ?
N1 Co1 N1 90.019(16) 12_556 . ?
N1 Co1 N1 90.019(15) 11_556 . ?
N1 Co1 O1 91.0(4) 2 11_556 ?
N1 Co1 O1 89.0(4) 12_556 11_556 ?
N1 Co1 O1 89.0(4) 11_556 11_556 ?
N1 Co1 O1 91.0(4) . 11_556 ?
N1 Co1 O1 89.0(4) 2 . ?
N1 Co1 O1 91.0(4) 12_556 . ?
N1 Co1 O1 91.0(4) 11_556 . ?
N1 Co1 O1 89.0(4) . . ?
O1 Co1 O1 180.000(1) 11_556 . ?
O4 Co2 O2 100.1(3) . 5_656 ?
O4 Co2 O2 100.1(3) . . ?
O2 Co2 O2 159.7(7) 5_656 . ?
O4 Co2 O2 100.1(3) . 10_556 ?
O2 Co2 O2 88.1(5) 5_656 10_556 ?
O2 Co2 O2 88.3(6) . 10_556 ?
O4 Co2 O2 100.1(3) . 14_655 ?
O2 Co2 O2 88.3(6) 5_656 14_655 ?
O2 Co2 O2 88.1(5) . 14_655 ?
O2 Co2 O2 159.7(7) 10_556 14_655 ?
O4 Co2 Co3 180.000(1) . . ?
O2 Co2 Co3 79.9(3) 5_656 . ?
O2 Co2 Co3 79.9(3) . . ?
O2 Co2 Co3 79.9(3) 10_556 . ?
O2 Co2 Co3 79.9(3) 14_655 . ?
O3 Co3 O3 162.4(7) 5_656 . ?
O3 Co3 O3 88.7(6) 5_656 10_556 ?
O3 Co3 O3 88.6(6) . 10_556 ?
O3 Co3 O3 88.6(6) 5_656 14_655 ?
O3 Co3 O3 88.7(6) . 14_655 ?
O3 Co3 O3 162.4(7) 10_556 14_655 ?
O3 Co3 O5 98.8(4) 5_656 . ?
O3 Co3 O5 98.8(4) . . ?
O3 Co3 O5 98.8(4) 10_556 . ?
O3 Co3 O5 98.8(4) 14_655 . ?
O3 Co3 Co2 81.2(4) 5_656 . ?
O3 Co3 Co2 81.2(4) . . ?
O3 Co3 Co2 81.2(4) 10_556 . ?
O3 Co3 Co2 81.2(4) 14_655 . ?
O5 Co3 Co2 180.000(2) . . ?
C14 O2 Co2 126.2(10) . . ?
C14 O3 Co3 124.6(10) . . ?
C01 O4 Co2 180.000(1) . . ?
C1 N1 C1 105.7(16) . 13 ?
C1 N1 Co1 127.0(8) . . ?
C1 N1 Co1 127.0(8) 13 . ?
N1 C1 C3 125.1(14) . . ?
N1 C1 C2 109.9(13) . . ?
C3 C1 C2 125.0(13) . . ?
O4 C01 O4 180.000(5) 9_656 . ?
C2 C2 C1 107.1(8) 13 . ?
C1 C3 C1 125.0(18) . 7 ?
C1 C3 C4 117.5(9) . . ?
C1 C3 C4 117.5(9) 7 . ?
C5 C4 C5 120.3(17) . 7 ?
C5 C4 C3 119.9(9) . . ?
C5 C4 C3 119.9(9) 7 . ?
C6 C5 C4 120.0(13) . . ?
C5 C6 C7 119.7(13) . . ?
C5 C6 C8 119.0(12) . . ?
C7 C6 C8 121.3(13) . . ?
C6 C7 C6 120.2(17) . 7 ?
C13 C8 C9 119.5(13) . . ?
C13 C8 C6 121.7(13) . . ?
C9 C8 C6 118.6(14) . . ?
C10 C9 C8 119.1(14) . . ?
C11 C10 C9 119.5(14) . . ?
C10 C11 C12 122.1(13) . . ?
C10 C11 C14 120.7(14) . . ?
C12 C11 C14 117.2(16) . . ?
C13 C12 C11 117.9(14) . . ?
C12 C13 C8 121.7(14) . . ?
O2 C14 O3 128.0(15) . . ?
O2 C14 C11 114.6(16) . . ?
O3 C14 C11 117.3(15) . . ?

_diffrn_measured_fraction_theta_max 0.982
_diffrn_reflns_theta_full        19.21
_diffrn_measured_fraction_theta_full 0.982
_refine_diff_density_max         1.073
_refine_diff_density_min         -0.490
_refine_diff_density_rms         0.086
