####################################################################### 
# 
# This file contains crystal structure data downloaded from the 
# Cambridge Structural Database (CSD) hosted by the Cambridge 
# Crystallographic Data Centre (CCDC).
# 
# Full information about CCDC data access policies and citation 
# guidelines are available at http://www.ccdc.cam.ac.uk/access/V1 
# 
# Audit and citation data items may have been added by the CCDC. 
# Please retain this information to preserve the provenance of 
# this file and to allow appropriate attribution of the data. 
# 
#######################################################################

data_t1
_audit_block_doi                 10.5517/cc12vlp6
_database_code_depnum_ccdc_archive 'CCDC 1008668'
loop_
_citation_id
_citation_doi
_citation_year
1 10.1002/asia.201402958 2015
_audit_update_record             
;
2014-06-17 deposited with the CCDC.	2024-07-12 downloaded from the CCDC.
;

_audit_creation_method           SHELXL-97
_chemical_name_systematic        
; 
 ? 
;
_chemical_name_common            ?
_chemical_melting_point          ?
_chemical_formula_moiety         ?
_chemical_formula_sum            'C36 H59 N12 Ni O52 Si W12'
_chemical_formula_weight         3784.95

loop_
_atom_type_symbol
_atom_type_description
_atom_type_scat_dispersion_real
_atom_type_scat_dispersion_imag
_atom_type_scat_source
C C 0.0033 0.0016 'International Tables Vol C Tables 4.2.6.8 and 6.1.1.4'
H H 0.0000 0.0000 'International Tables Vol C Tables 4.2.6.8 and 6.1.1.4'
N N 0.0061 0.0033 'International Tables Vol C Tables 4.2.6.8 and 6.1.1.4'
O O 0.0106 0.0060 'International Tables Vol C Tables 4.2.6.8 and 6.1.1.4'
W W -0.8490 6.8722 'International Tables Vol C Tables 4.2.6.8 and 6.1.1.4'
Si Si 0.0817 0.0704 'International Tables Vol C Tables 4.2.6.8 and 6.1.1.4'
Ni Ni 0.3393 1.1124 'International Tables Vol C Tables 4.2.6.8 and 6.1.1.4'

_symmetry_cell_setting           Monoclinic
_symmetry_space_group_name_H-M   C2/c

loop_
_symmetry_equiv_pos_as_xyz
'x, y, z'
'-x, y, -z+1/2'
'x+1/2, y+1/2, z'
'-x+1/2, y+1/2, -z+1/2'
'-x, -y, -z'
'x, -y, z-1/2'
'-x+1/2, -y+1/2, -z'
'x+1/2, -y+1/2, z-1/2'

_cell_length_a                   38.594(2)
_cell_length_b                   21.4797(7)
_cell_length_c                   24.7895(13)
_cell_angle_alpha                90.00
_cell_angle_beta                 120.853(7)
_cell_angle_gamma                90.00
_cell_volume                     17642.2(15)
_cell_formula_units_Z            8
_cell_measurement_temperature    296(2)
_cell_measurement_reflns_used    6398
_cell_measurement_theta_min      2.9063
_cell_measurement_theta_max      29.2007

_exptl_crystal_description       block
_exptl_crystal_colour            yellow
_exptl_crystal_size_max          0.25
_exptl_crystal_size_mid          0.24
_exptl_crystal_size_min          0.19
_exptl_crystal_density_meas      ?
_exptl_crystal_density_diffrn    2.850
_exptl_crystal_density_method    'not measured'
_exptl_crystal_F_000             13640
_exptl_absorpt_coefficient_mu    15.892
_exptl_absorpt_correction_type   multi-scan
_exptl_absorpt_correction_T_min  0.1093
_exptl_absorpt_correction_T_max  0.1522
_exptl_absorpt_process_details   'SADABS (Sheldrick, 1996)'

_exptl_special_details           
; 
 ? 
;

_diffrn_ambient_temperature      296(2)
_diffrn_radiation_wavelength     0.71073
_diffrn_radiation_type           MoK\a
_diffrn_radiation_source         'fine-focus sealed tube'
_diffrn_radiation_monochromator  graphite
_diffrn_measurement_device_type  'Bruker APEX CCD area-detector'
_diffrn_measurement_method       '\w scans'
_diffrn_detector_area_resol_mean ?
_diffrn_standards_number         ?
_diffrn_standards_interval_count ?
_diffrn_standards_interval_time  ?
_diffrn_standards_decay_%        ?
_diffrn_reflns_number            30720
_diffrn_reflns_av_R_equivalents  0.0769
_diffrn_reflns_av_sigmaI/netI    0.1347
_diffrn_reflns_limit_h_min       -45
_diffrn_reflns_limit_h_max       35
_diffrn_reflns_limit_k_min       -25
_diffrn_reflns_limit_k_max       24
_diffrn_reflns_limit_l_min       -28
_diffrn_reflns_limit_l_max       29
_diffrn_reflns_theta_min         2.91
_diffrn_reflns_theta_max         25.00
_reflns_number_total             15457
_reflns_number_gt                10063
_reflns_threshold_expression     >2sigma(I)

_computing_data_collection       'SMART (Bruker, 1997)'
_computing_cell_refinement       'SAINT (Bruker, 1999)'
_computing_data_reduction        SAINT
_computing_structure_solution    'SHELXS-97 (Sheldrick, 1990)'
_computing_structure_refinement  'SHELXL-97 (Sheldrick, 1997)'
_computing_molecular_graphics    'SHELXTL-PLUS (Sheldrick, 1990)'
_computing_publication_material  SHELXL-97

_refine_special_details          
; 
 Refinement of F^2^ against ALL reflections.  The weighted R-factor wR and 
 goodness of fit S are based on F^2^, conventional R-factors R are based 
 on F, with F set to zero for negative F^2^. The threshold expression of 
 F^2^ > 2sigma(F^2^) is used only for calculating R-factors(gt) etc. and is 
 not relevant to the choice of reflections for refinement.  R-factors based 
 on F^2^ are statistically about twice as large as those based on F, and R- 
 factors based on ALL data will be even larger. 
;

_refine_ls_structure_factor_coef Fsqd
_refine_ls_matrix_type           full
_refine_ls_weighting_scheme      calc
_refine_ls_weighting_details     
'calc w=1/[\s^2^(Fo^2^)+(0.0594P)^2^+1315.0145P] where P=(Fo^2^+2Fc^2^)/3'
_atom_sites_solution_primary     direct
_atom_sites_solution_secondary   difmap
_atom_sites_solution_hydrogens   geom
_refine_ls_hydrogen_treatment    mixed
_refine_ls_extinction_method     none
_refine_ls_extinction_coef       ?
_refine_ls_number_reflns         15457
_refine_ls_number_parameters     860
_refine_ls_number_restraints     326
_refine_ls_R_factor_all          0.1296
_refine_ls_R_factor_gt           0.0898
_refine_ls_wR_factor_ref         0.2119
_refine_ls_wR_factor_gt          0.1954
_refine_ls_goodness_of_fit_ref   1.087
_refine_ls_restrained_S_all      1.079
_refine_ls_shift/su_max          0.000
_refine_ls_shift/su_mean         0.000

loop_
_atom_site_label
_atom_site_type_symbol
_atom_site_fract_x
_atom_site_fract_y
_atom_site_fract_z
_atom_site_U_iso_or_equiv
_atom_site_adp_type
_atom_site_occupancy
_atom_site_symmetry_multiplicity
_atom_site_calc_flag
_atom_site_refinement_flags
_atom_site_disorder_assembly
_atom_site_disorder_group
W1 W 0.20168(4) 0.44922(5) 0.12720(5) 0.0283(3) Uani 1 1 d . . .
W2 W 0.12539(4) 0.45026(5) -0.02238(5) 0.0322(3) Uani 1 1 d . . .
W3 W 0.32473(3) 0.50829(5) 0.04919(5) 0.0303(3) Uani 1 1 d . . .
W4 W 0.29811(4) 0.36449(5) 0.06837(5) 0.0326(3) Uani 1 1 d . . .
W5 W 0.23132(4) 0.60733(5) 0.10483(5) 0.0322(3) Uani 1 1 d . . .
W6 W 0.24130(4) 0.50850(5) -0.11689(5) 0.0317(3) Uani 1 1 d . . .
W7 W 0.21567(4) 0.36495(5) -0.09712(5) 0.0313(3) Uani 1 1 d . . .
W8 W 0.19359(4) 0.33465(5) 0.02886(5) 0.0309(3) Uani 1 1 d . . .
W9 W 0.14686(4) 0.47925(6) -0.14930(5) 0.0333(3) Uani 1 1 d . . .
W10 W 0.15496(4) 0.60790(5) -0.04431(5) 0.0356(3) Uani 1 1 d . . .
W11 W 0.30630(4) 0.47958(6) 0.16562(5) 0.0334(3) Uani 1 1 d . . .
W12 W 0.24993(4) 0.63619(5) -0.01089(6) 0.0369(3) Uani 1 1 d . . .
Si1 Si 0.22433(18) 0.4824(2) 0.0101(3) 0.0082(11) Uani 1 1 d U . .
O1 O 0.2688(8) 0.7018(10) -0.0257(12) 0.067(7) Uani 1 1 d . . .
O2 O 0.3382(7) 0.4866(10) 0.2464(9) 0.058(6) Uani 1 1 d . . .
O3 O 0.2388(6) 0.6567(7) 0.1660(8) 0.037(5) Uani 1 1 d . . .
O4 O 0.3266(6) 0.2987(9) 0.0895(10) 0.049(5) Uani 1 1 d . . .
O5 O 0.1143(7) 0.6554(8) -0.0795(9) 0.046(5) Uani 1 1 d . . .
O6 O 0.2576(6) 0.5334(9) -0.1661(9) 0.045(5) Uani 1 1 d . . .
O7 O 0.3189(6) 0.3996(8) 0.1530(8) 0.038(5) Uani 1 1 d U . .
O8 O 0.1936(6) 0.3394(8) -0.0474(8) 0.035(4) Uani 1 1 d . . .
O9 O 0.2057(6) 0.5376(8) 0.1167(8) 0.035(4) Uani 1 1 d U . .
O10 O 0.1037(6) 0.4867(10) -0.2192(8) 0.046(5) Uani 1 1 d . . .
O11 O 0.2789(6) 0.5588(8) 0.1452(8) 0.035(4) Uani 1 1 d U . .
O12 O 0.2145(6) 0.2952(8) -0.1335(8) 0.033(4) Uani 1 1 d U . .
O13 O 0.1863(7) 0.2564(9) 0.0350(9) 0.051(6) Uani 1 1 d . . .
O14 O 0.2929(5) 0.4947(7) -0.0387(7) 0.030(4) Uani 1 1 d U . .
O15 O 0.3688(5) 0.5320(8) 0.0554(8) 0.031(4) Uani 1 1 d U . .
O16 O 0.2672(5) 0.3605(7) -0.0209(7) 0.027(4) Uani 1 1 d U . .
O17 O 0.1987(6) 0.4464(10) 0.1945(8) 0.045(5) Uani 1 1 d . . .
O18 O 0.1789(5) 0.6354(7) 0.0429(8) 0.029(4) Uani 1 1 d . . .
O19 O 0.1634(6) 0.3962(9) -0.1569(8) 0.040(5) Uani 1 1 d . . .
O20 O 0.1352(6) 0.5367(9) -0.0214(9) 0.043(5) Uani 1 1 d . . .
O21 O 0.2111(5) 0.4658(7) -0.0628(7) 0.023(4) Uani 1 1 d U . .
O22 O 0.2953(6) 0.5846(8) 0.0331(9) 0.039(5) Uani 1 1 d . . .
O23 O 0.0745(6) 0.4468(9) -0.0522(8) 0.043(5) Uani 1 1 d . . .
O24 O 0.1945(5) 0.6572(8) -0.0499(8) 0.029(4) Uani 1 1 d U . .
O25 O 0.2371(5) 0.5848(7) -0.0795(7) 0.029(4) Uani 1 1 d U . .
O26 O 0.2551(6) 0.6593(8) 0.0685(8) 0.035(4) Uani 1 1 d U . .
O27 O 0.3334(5) 0.4206(7) 0.0605(8) 0.027(4) Uani 1 1 d U . .
O28 O 0.2171(5) 0.5578(6) 0.0137(7) 0.020(4) Uani 1 1 d U . .
O29 O 0.1966(6) 0.4412(8) 0.0303(8) 0.033(4) Uani 1 1 d . . .
O30 O 0.1488(5) 0.5572(8) -0.1125(7) 0.032(4) Uani 1 1 d . . .
O31 O 0.2382(6) 0.4205(9) -0.1317(8) 0.035(5) Uani 1 1 d . . .
O32 O 0.1390(5) 0.3615(8) -0.0098(7) 0.033(4) Uani 1 1 d . . .
O33 O 0.2515(5) 0.3391(8) 0.0704(7) 0.027(4) Uani 1 1 d . . .
O34 O 0.3418(6) 0.5125(9) 0.1384(7) 0.038(5) Uani 1 1 d . . .
O35 O 0.2732(5) 0.4658(7) 0.0563(6) 0.015(3) Uani 1 1 d . . .
O36 O 0.1446(5) 0.4541(8) 0.0640(8) 0.032(4) Uani 1 1 d U . .
O37 O 0.1827(5) 0.5124(8) -0.1728(7) 0.029(4) Uani 1 1 d . . .
O38 O 0.1300(6) 0.4466(8) -0.0954(8) 0.032(4) Uani 1 1 d U . .
O39 O 0.1999(5) 0.3632(7) 0.1086(7) 0.023(4) Uani 1 1 d U . .
O40 O 0.2586(5) 0.4490(9) 0.1596(7) 0.031(4) Uani 1 1 d . . .
Ni1 Ni 0.24097(11) 0.71747(14) 0.23424(15) 0.0295(8) Uani 1 1 d . . .
O1W O 0.2399(6) 0.7752(10) 0.3007(8) 0.050(6) Uani 1 1 d . . .
N1 N 0.1895(6) 0.6716(9) 0.2223(9) 0.048(6) Uani 1 1 d GU . .
C1 C 0.1577(7) 0.6981(8) 0.2212(9) 0.052(7) Uani 1 1 d GU . .
H1A H 0.1561 0.7391 0.2318 0.063 Uiso 1 1 calc R . .
N2 N 0.1286(6) 0.6551(8) 0.2023(9) 0.051(6) Uani 1 1 d GU . .
N3 N 0.1424(6) 0.6021(8) 0.1917(9) 0.042(5) Uani 1 1 d GU . .
C2 C 0.1800(6) 0.6123(9) 0.2041(9) 0.054(8) Uani 1 1 d GU . .
H2A H 0.1966 0.5833 0.2006 0.065 Uiso 1 1 calc R . .
C3 C 0.1171(9) 0.5487(13) 0.1653(14) 0.044(8) Uani 1 1 d U . .
H3A H 0.1094 0.5335 0.1946 0.053 Uiso 1 1 calc R . .
H3B H 0.1321 0.5161 0.1593 0.053 Uiso 1 1 calc R . .
C4 C 0.0797(6) 0.5631(9) 0.1036(8) 0.034(5) Uani 1 1 d GU . .
C5 C 0.0423(6) 0.5588(10) 0.0976(9) 0.046(6) Uani 1 1 d GU . .
H5A H 0.0401 0.5466 0.1317 0.055 Uiso 1 1 calc R . .
C6 C 0.0081(6) 0.5726(11) 0.0411(9) 0.067(10) Uani 1 1 d GU . .
H6A H -0.0172 0.5697 0.0371 0.080 Uiso 1 1 calc R . .
C7 C 0.0113(6) 0.5907(10) -0.0094(9) 0.052(8) Uani 1 1 d GU . .
C8 C 0.0487(6) 0.5950(9) -0.0034(8) 0.038(6) Uani 1 1 d GU . .
H8A H 0.0509 0.6072 -0.0376 0.046 Uiso 1 1 calc R . .
C9 C 0.0829(5) 0.5812(9) 0.0531(8) 0.053(9) Uani 1 1 d GU . .
H9A H 0.1082 0.5841 0.0571 0.064 Uiso 1 1 calc R . .
C10 C 0.4720(6) 0.8971(11) 0.4281(12) 0.063(8) Uani 1 1 d GU . .
C11 C 0.4723(7) 0.9002(12) 0.3724(13) 0.089(13) Uani 1 1 d GU . .
H11A H 0.4962 0.9091 0.3733 0.107 Uiso 1 1 calc R . .
C12 C 0.4370(7) 0.8901(12) 0.3153(11) 0.081(11) Uani 1 1 d GU . .
H12A H 0.4372 0.8922 0.2780 0.097 Uiso 1 1 calc R . .
C13 C 0.4013(7) 0.8769(10) 0.3140(10) 0.048(7) Uani 1 1 d GU . .
C14 C 0.4010(6) 0.8738(12) 0.3698(11) 0.069(9) Uani 1 1 d GU . .
H14A H 0.3771 0.8650 0.3689 0.082 Uiso 1 1 calc R . .
C15 C 0.4364(7) 0.8839(12) 0.4268(11) 0.077(11) Uani 1 1 d GU . .
H15A H 0.4362 0.8818 0.4641 0.093 Uiso 1 1 calc R . .
C16 C 0.3641(9) 0.8703(14) 0.2491(14) 0.047(8) Uani 1 1 d U . .
H16A H 0.3481 0.9080 0.2387 0.056 Uiso 1 1 calc R . .
H16B H 0.3723 0.8650 0.2184 0.056 Uiso 1 1 calc R . .
N4 N 0.2929(6) 0.7575(9) 0.2442(9) 0.045(5) Uani 1 1 d GU . .
C18 C 0.3229(7) 0.7204(9) 0.2502(11) 0.066(7) Uani 1 1 d GU . .
H18A H 0.3235 0.6772 0.2529 0.079 Uiso 1 1 calc R . .
N5 N 0.3517(6) 0.7570(11) 0.2515(12) 0.077(7) Uani 1 1 d GU . .
N6 N 0.3395(6) 0.8167(10) 0.2464(11) 0.063(7) Uani 1 1 d GU . .
C17 C 0.3032(6) 0.8169(8) 0.2419(10) 0.045(6) Uani 1 1 d GU . .
H17A H 0.2879 0.8520 0.2379 0.054 Uiso 1 1 calc R . .
N7 N 0.2047(6) 0.7829(8) 0.1661(8) 0.033(5) Uani 1 1 d GU . .
C28 C 0.1876(7) 0.7721(9) 0.1035(9) 0.064(8) Uani 1 1 d GU . .
H28A H 0.1907 0.7363 0.0853 0.077 Uiso 1 1 calc R . .
N9 N 0.1649(7) 0.8226(9) 0.0722(7) 0.071(9) Uani 1 1 d GU . .
N8 N 0.1681(6) 0.8647(8) 0.1155(7) 0.045(6) Uani 1 1 d GDU . .
C29 C 0.1927(6) 0.8402(8) 0.1735(8) 0.063(11) Uani 1 1 d GU . .
H29A H 0.2001 0.8592 0.2116 0.075 Uiso 1 1 calc R . .
N10 N -0.2215(6) 0.8449(9) -0.1988(8) 0.042(6) Uani 1 1 d GU . .
C20 C -0.2065(6) 0.9051(8) -0.1992(9) 0.045(6) Uani 1 1 d GU . .
H20A H -0.2158 0.9297 -0.2349 0.053 Uiso 1 1 calc R . .
N11 N -0.1783(6) 0.9214(8) -0.1432(9) 0.056(7) Uani 1 1 d GDU . .
N12 N -0.1729(6) 0.8760(8) -0.1051(8) 0.052(6) Uani 1 1 d GU . .
C19 C -0.1979(6) 0.8317(8) -0.1375(7) 0.056(9) Uani 1 1 d GU . .
H19A H -0.1993 0.7943 -0.1198 0.067 Uiso 1 1 calc R . .
C30 C 0.1498(10) 0.9261(11) 0.104(2) 0.029(12) Uani 0.50 1 d PDU . .
H30A H 0.1563 0.9487 0.0767 0.035 Uiso 0.50 1 calc PR . .
H30B H 0.1623 0.9482 0.1441 0.035 Uiso 0.50 1 calc PR . .
C21 C -0.1564(12) 0.9777(17) -0.112(3) 0.07(2) Uani 0.50 1 d PDU . .
H21A H -0.1620 0.9893 -0.0794 0.085 Uiso 0.50 1 calc PR . .
H21B H -0.1647 1.0116 -0.1419 0.085 Uiso 0.50 1 calc PR . .
C31 C 0.0871(10) 0.9480(18) 0.1109(16) 0.047(9) Uani 0.50 1 d PGU . .
H31 H 0.1034 0.9602 0.1526 0.056 Uiso 0.50 1 calc PR . .
C32 C 0.0448(12) 0.9491(18) 0.0824(16) 0.049(9) Uani 0.50 1 d PGU . .
H32A H 0.0331 0.9620 0.1052 0.058 Uiso 0.50 1 calc PR . .
C33 C 0.0202(11) 0.9306(18) 0.0192(17) 0.042(9) Uani 0.50 1 d PGU . .
C34 C 0.0380(11) 0.9111(18) -0.0154(16) 0.039(8) Uani 0.50 1 d PGU . .
H34A H 0.0217 0.8989 -0.0571 0.047 Uiso 0.50 1 calc PR . .
C35 C 0.0803(10) 0.9100(18) 0.0131(17) 0.042(9) Uani 0.50 1 d PGU . .
H35A H 0.0920 0.8971 -0.0098 0.051 Uiso 0.50 1 calc PR . .
C36 C 0.1049(9) 0.9285(19) 0.0762(17) 0.045(9) Uani 0.50 1 d PGDU . .
C26 C -0.0517(15) 0.931(2) 0.011(2) 0.066(11) Uani 0.50 1 d PGU . .
H26A H -0.0396 0.9148 0.0515 0.080 Uiso 0.50 1 calc PR . .
C27 C -0.0927(14) 0.941(2) -0.023(2) 0.072(11) Uani 0.50 1 d PGU . .
H27A H -0.1084 0.9311 -0.0053 0.086 Uiso 0.50 1 calc PR . .
C22 C -0.1105(12) 0.965(2) -0.082(2) 0.063(11) Uani 0.50 1 d PGDU . .
C23 C -0.0874(14) 0.980(2) -0.108(2) 0.065(11) Uani 0.50 1 d PGU . .
H23 H -0.0995 0.9965 -0.1485 0.078 Uiso 0.50 1 calc PR . .
C24 C -0.0464(14) 0.970(2) -0.074(2) 0.063(11) Uani 0.50 1 d PGU . .
H24A H -0.0308 0.9801 -0.0917 0.075 Uiso 0.50 1 calc PR . .
C25 C -0.0286(14) 0.946(2) -0.015(2) 0.059(10) Uani 0.50 1 d PGU . .
O2W O 0.0739(19) 0.293(3) -0.153(3) 0.091(17) Uiso 0.50 1 d P . .
O3W O 0.3972(18) 0.213(3) 0.180(3) 0.085(16) Uiso 0.50 1 d P . .

loop_
_atom_site_aniso_label
_atom_site_aniso_U_11
_atom_site_aniso_U_22
_atom_site_aniso_U_33
_atom_site_aniso_U_23
_atom_site_aniso_U_13
_atom_site_aniso_U_12
W1 0.0316(7) 0.0355(6) 0.0180(5) 0.0000(4) 0.0127(5) -0.0012(5)
W2 0.0234(7) 0.0470(7) 0.0228(6) 0.0038(5) 0.0094(5) -0.0015(5)
W3 0.0219(7) 0.0378(6) 0.0298(6) 0.0016(5) 0.0121(5) 0.0000(5)
W4 0.0295(7) 0.0302(6) 0.0300(6) 0.0032(5) 0.0094(5) 0.0079(5)
W5 0.0384(8) 0.0286(6) 0.0341(6) -0.0088(5) 0.0218(6) -0.0030(5)
W6 0.0332(7) 0.0405(6) 0.0245(6) 0.0061(5) 0.0170(5) 0.0058(5)
W7 0.0372(8) 0.0334(6) 0.0230(6) -0.0047(4) 0.0151(5) 0.0009(5)
W8 0.0372(7) 0.0283(6) 0.0241(6) 0.0008(4) 0.0135(5) -0.0050(5)
W9 0.0264(7) 0.0513(7) 0.0169(5) 0.0029(5) 0.0073(5) 0.0043(5)
W10 0.0335(8) 0.0331(6) 0.0392(7) 0.0050(5) 0.0179(6) 0.0104(5)
W11 0.0263(7) 0.0478(7) 0.0185(6) -0.0044(5) 0.0059(5) 0.0003(5)
W12 0.0446(8) 0.0248(6) 0.0508(8) 0.0027(5) 0.0313(7) 0.0013(5)
Si1 0.0087(15) 0.0080(14) 0.0073(14) -0.0002(9) 0.0036(10) 0.0002(9)
O1 0.10(2) 0.042(13) 0.096(19) -0.014(12) 0.073(18) -0.017(13)
O2 0.072(18) 0.067(15) 0.030(12) -0.004(10) 0.023(12) 0.016(13)
O3 0.053(14) 0.020(9) 0.033(11) -0.013(8) 0.020(10) -0.001(9)
O4 0.030(13) 0.051(13) 0.061(14) 0.009(10) 0.019(11) 0.015(10)
O5 0.062(16) 0.027(10) 0.055(13) 0.015(9) 0.035(12) 0.013(10)
O6 0.044(14) 0.049(12) 0.043(12) 0.026(10) 0.022(11) 0.011(10)
O7 0.040(9) 0.041(8) 0.025(7) 0.008(6) 0.012(6) 0.000(7)
O8 0.034(12) 0.041(11) 0.023(10) -0.011(8) 0.010(9) -0.003(9)
O9 0.034(8) 0.028(7) 0.043(8) -0.002(6) 0.021(7) 0.007(6)
O10 0.030(13) 0.084(16) 0.028(11) -0.001(10) 0.017(10) 0.014(11)
O11 0.043(9) 0.041(8) 0.029(7) 0.009(6) 0.024(7) 0.001(7)
O12 0.031(8) 0.047(8) 0.027(7) -0.015(6) 0.019(6) 0.004(6)
O13 0.064(17) 0.050(13) 0.038(12) 0.001(9) 0.026(12) 0.008(11)
O14 0.032(8) 0.029(7) 0.021(7) 0.002(6) 0.008(6) 0.020(6)
O15 0.028(8) 0.027(7) 0.044(8) -0.005(6) 0.022(6) 0.006(6)
O16 0.028(6) 0.030(6) 0.027(5) -0.008(4) 0.016(4) 0.008(4)
O17 0.033(13) 0.089(16) 0.017(10) -0.008(10) 0.017(9) -0.008(11)
O18 0.035(12) 0.024(9) 0.035(10) 0.006(7) 0.023(9) 0.010(8)
O19 0.038(13) 0.056(12) 0.021(10) -0.026(9) 0.012(9) -0.016(10)
O20 0.052(15) 0.046(12) 0.039(12) -0.019(9) 0.030(11) 0.003(10)
O21 0.016(7) 0.031(7) 0.023(7) 0.007(6) 0.012(6) 0.004(6)
O22 0.038(13) 0.028(10) 0.053(13) -0.001(9) 0.024(11) 0.006(9)
O23 0.045(14) 0.059(13) 0.019(10) 0.014(9) 0.013(10) 0.002(10)
O24 0.022(8) 0.038(8) 0.034(7) 0.004(6) 0.020(6) 0.001(6)
O25 0.034(8) 0.027(7) 0.021(7) 0.013(6) 0.010(6) 0.000(6)
O26 0.045(9) 0.036(8) 0.038(8) -0.002(6) 0.031(7) -0.007(7)
O27 0.020(8) 0.027(7) 0.033(7) 0.00