####################################################################### 
# 
# This file contains crystal structure data downloaded from the 
# Cambridge Structural Database (CSD) hosted by the Cambridge 
# Crystallographic Data Centre (CCDC).
# 
# Full information about CCDC data access policies and citation 
# guidelines are available at http://www.ccdc.cam.ac.uk/access/V1 
# 
# Audit and citation data items may have been added by the CCDC. 
# Please retain this information to preserve the provenance of 
# this file and to allow appropriate attribution of the data. 
# 
#######################################################################

data_cdpheala_0m
_audit_block_doi                 10.5517/ccr5g7l
_database_code_depnum_ccdc_archive 'CCDC 690439'
loop_
_citation_id
_citation_doi
_citation_year
1 10.1016/j.inoche.2008.11.025 2009
_audit_update_record             
;
2008-06-05 deposited with the CCDC.	2024-07-12 downloaded from the CCDC.
;

_audit_creation_method           SHELXL-97
_chemical_name_systematic        
;
?
;
_chemical_name_common            ?
_chemical_melting_point          ?
_chemical_formula_moiety         ?
_chemical_formula_sum            'C32 H34 Cd N4 O8'
_chemical_formula_weight         715.03

loop_
_atom_type_symbol
_atom_type_description
_atom_type_scat_dispersion_real
_atom_type_scat_dispersion_imag
_atom_type_scat_source
C C 0.0033 0.0016 'International Tables Vol C Tables 4.2.6.8 and 6.1.1.4'
H H 0.0000 0.0000 'International Tables Vol C Tables 4.2.6.8 and 6.1.1.4'
Cd Cd -0.8075 1.2024 'International Tables Vol C Tables 4.2.6.8 and 6.1.1.4'
N N 0.0061 0.0033 'International Tables Vol C Tables 4.2.6.8 and 6.1.1.4'
O O 0.0106 0.0060 'International Tables Vol C Tables 4.2.6.8 and 6.1.1.4'

_symmetry_cell_setting           Triclinic
_symmetry_space_group_name_H-M   P-1

loop_
_symmetry_equiv_pos_as_xyz
'x, y, z'
'-x, -y, -z'

_cell_length_a                   4.8320(6)
_cell_length_b                   13.454(2)
_cell_length_c                   15.072(2)
_cell_angle_alpha                110.135(11)
_cell_angle_beta                 95.970(10)
_cell_angle_gamma                92.869(10)
_cell_volume                     911.1(2)
_cell_formula_units_Z            1
_cell_measurement_temperature    296(2)
_cell_measurement_reflns_used    1705
_cell_measurement_theta_min      2.53
_cell_measurement_theta_max      20.38

_exptl_crystal_description       Plates
_exptl_crystal_colour            colorless
_exptl_crystal_size_max          0.31
_exptl_crystal_size_mid          0.23
_exptl_crystal_size_min          0.19
_exptl_crystal_density_meas      ?
_exptl_crystal_density_diffrn    1.303
_exptl_crystal_density_method    'not measured'
_exptl_crystal_F_000             366
_exptl_absorpt_coefficient_mu    0.648
_exptl_absorpt_correction_type   none
_exptl_absorpt_correction_T_min  ?
_exptl_absorpt_correction_T_max  ?
_exptl_absorpt_process_details   ?

_exptl_special_details           
;
?
;

_diffrn_ambient_temperature      296(2)
_diffrn_radiation_wavelength     0.71073
_diffrn_radiation_type           MoK\a
_diffrn_radiation_source         'fine-focus sealed tube'
_diffrn_radiation_monochromator  graphite
_diffrn_measurement_device_type  'CCD area detector'
_diffrn_measurement_method       'phi and omega scans'
_diffrn_detector_area_resol_mean ?
_diffrn_standards_number         ?
_diffrn_standards_interval_count ?
_diffrn_standards_interval_time  ?
_diffrn_standards_decay_%        ?
_diffrn_reflns_number            10037
_diffrn_reflns_av_R_equivalents  0.0777
_diffrn_reflns_av_sigmaI/netI    0.0933
_diffrn_reflns_limit_h_min       -5
_diffrn_reflns_limit_h_max       5
_diffrn_reflns_limit_k_min       -16
_diffrn_reflns_limit_k_max       15
_diffrn_reflns_limit_l_min       -17
_diffrn_reflns_limit_l_max       17
_diffrn_reflns_theta_min         1.45
_diffrn_reflns_theta_max         25.49
_reflns_number_total             3260
_reflns_number_gt                2303
_reflns_threshold_expression     >2sigma(I)

_computing_data_collection       'Bruker SMART'
_computing_cell_refinement       'Bruker SMART'
_computing_data_reduction        'Bruker SAINT'
_computing_structure_solution    'SHELXS-97 (Sheldrick, 1990)'
_computing_structure_refinement  'SHELXL-97 (Sheldrick, 1997)'
_computing_molecular_graphics    'Bruker SHELXTL'
_computing_publication_material  'Bruker SHELXTL'

_refine_special_details          
;
Refinement of F^2^ against ALL reflections. The weighted R-factor wR and
goodness of fit S are based on F^2^, conventional R-factors R are based
on F, with F set to zero for negative F^2^. The threshold expression of
F^2^ > 2sigma(F^2^) is used only for calculating R-factors(gt) etc. and is
not relevant to the choice of reflections for refinement. R-factors based
on F^2^ are statistically about twice as large as those based on F, and R-
factors based on ALL data will be even larger.
;

_refine_ls_structure_factor_coef Fsqd
_refine_ls_matrix_type           full
_refine_ls_weighting_scheme      calc
_refine_ls_weighting_details     
'calc w=1/[\s^2^(Fo^2^)+(0.1677P)^2^+0.0000P] where P=(Fo^2^+2Fc^2^)/3'
_atom_sites_solution_primary     direct
_atom_sites_solution_secondary   difmap
_atom_sites_solution_hydrogens   geom
_refine_ls_hydrogen_treatment    constr
_refine_ls_extinction_method     none
_refine_ls_extinction_coef       ?
_refine_ls_number_reflns         3260
_refine_ls_number_parameters     205
_refine_ls_number_restraints     0
_refine_ls_R_factor_all          0.1177
_refine_ls_R_factor_gt           0.0852
_refine_ls_wR_factor_ref         0.2573
_refine_ls_wR_factor_gt          0.2359
_refine_ls_goodness_of_fit_ref   1.060
_refine_ls_restrained_S_all      1.060
_refine_ls_shift/su_max          0.000
_refine_ls_shift/su_mean         0.000

loop_
_atom_site_label
_atom_site_type_symbol
_atom_site_fract_x
_atom_site_fract_y
_atom_site_fract_z
_atom_site_U_iso_or_equiv
_atom_site_adp_type
_atom_site_occupancy
_atom_site_symmetry_multiplicity
_atom_site_calc_flag
_atom_site_refinement_flags
_atom_site_disorder_assembly
_atom_site_disorder_group
Cd1 Cd 0.5000 0.0000 1.0000 0.0539(4) Uani 1 2 d S . .
O1 O 1.3080(12) 0.2387(6) 0.7721(7) 0.086(2) Uani 1 1 d . . .
O2 O 0.7173(11) 0.0455(5) 0.8926(4) 0.0599(16) Uani 1 1 d . . .
O3 O 1.0837(11) -0.0497(5) 0.8983(5) 0.0582(16) Uani 1 1 d . . .
O4 O 0.3467(17) 0.1659(6) 1.0592(6) 0.091(2) Uani 1 1 d . . .
H4A H 0.2149 0.1677 1.0892 0.136 Uiso 1 1 d R . .
H4B H 0.4575 0.2159 1.0585 0.136 Uiso 1 1 d R . .
N1 N 0.8741(16) 0.2918(7) 0.7476(7) 0.073(2) Uani 1 1 d . . .
H1N H 0.7010 0.2786 0.7503 0.087 Uiso 1 1 d R . .
N2 N 0.9330(13) 0.1425(6) 0.7858(5) 0.0534(18) Uani 1 1 d . . .
H2N H 0.7543 0.1360 0.7836 0.064 Uiso 1 1 d R . .
C1 C 1.127(3) 0.3745(10) 0.6548(11) 0.093(4) Uani 1 1 d . . .
H1 H 1.2114 0.3124 0.6280 0.112 Uiso 1 1 calc R . .
C2 C 1.178(3) 0.4565(13) 0.6257(14) 0.120(6) Uani 1 1 d . . .
H2 H 1.2942 0.4500 0.5789 0.144 Uiso 1 1 calc R . .
C3 C 1.063(4) 0.5484(15) 0.6643(17) 0.144(8) Uani 1 1 d . . .
H3 H 1.1062 0.6065 0.6466 0.173 Uiso 1 1 calc R . .
C5 C 0.830(3) 0.4721(12) 0.7575(14) 0.119(6) Uani 1 1 d . . .
H5 H 0.7064 0.4767 0.8019 0.143 Uiso 1 1 calc R . .
C6 C 0.9551(19) 0.3783(8) 0.7217(8) 0.065(3) Uani 1 1 d . . .
C7 C 1.0565(18) 0.2250(8) 0.7690(7) 0.063(2) Uani 1 1 d . . .
C8 C 1.0992(15) 0.0653(7) 0.8083(6) 0.051(2) Uani 1 1 d . . .
H8 H 1.2737 0.1040 0.8463 0.061 Uiso 1 1 calc R . .
C9 C 1.1786(17) -0.0208(8) 0.7205(7) 0.061(2) Uani 1 1 d . . .
H9A H 1.2839 0.0130 0.6855 0.073 Uiso 1 1 calc R . .
H9B H 1.2999 -0.0661 0.7412 0.073 Uiso 1 1 calc R . .
C10 C 0.9292(19) -0.0900(8) 0.6534(7) 0.060(2) Uani 1 1 d . . .
C11 C 0.807(2) -0.0660(10) 0.5783(7) 0.072(3) Uani 1 1 d . . .
H11 H 0.8741 -0.0059 0.5672 0.087 Uiso 1 1 calc R . .
C12 C 0.581(3) -0.1325(14) 0.5182(9) 0.103(4) Uani 1 1 d . . .
H12 H 0.4971 -0.1160 0.4673 0.123 Uiso 1 1 calc R . .
C13 C 0.481(3) -0.2213(15) 0.5333(12) 0.110(5) Uani 1 1 d . . .
H13 H 0.3292 -0.2643 0.4932 0.132 Uiso 1 1 calc R . .
C14 C 0.601(3) -0.2463(11) 0.6050(10) 0.093(4) Uani 1 1 d . . .
H14 H 0.5343 -0.3075 0.6144 0.112 Uiso 1 1 calc R . .
C15 C 0.827(2) -0.1811(9) 0.6667(9) 0.077(3) Uani 1 1 d . . .
H15 H 0.9097 -0.1991 0.7170 0.093 Uiso 1 1 calc R . .
C16 C 0.9507(14) 0.0164(7) 0.8710(6) 0.0442(19) Uani 1 1 d . . .
C4 C 0.876(5) 0.5561(13) 0.7313(17) 0.151(8) Uani 1 1 d . . .
H4 H 0.7884 0.6177 0.7567 0.182 Uiso 1 1 calc R . .

loop_
_atom_site_aniso_label
_atom_site_aniso_U_11
_atom_site_aniso_U_22
_atom_site_aniso_U_33
_atom_site_aniso_U_23
_atom_site_aniso_U_13
_atom_site_aniso_U_12
Cd1 0.0265(5) 0.0910(9) 0.0645(7) 0.0508(6) 0.0099(3) 0.0113(4)
O1 0.027(3) 0.111(6) 0.154(7) 0.088(6) 0.016(3) 0.005(3)
O2 0.035(3) 0.095(5) 0.070(4) 0.051(4) 0.015(3) 0.015(3)
O3 0.038(3) 0.081(4) 0.073(4) 0.045(4) 0.012(3) 0.015(3)
O4 0.080(5) 0.096(6) 0.117(7) 0.055(5) 0.033(5) 0.022(4)
N1 0.046(4) 0.077(6) 0.117(7) 0.058(5) 0.022(4) 0.010(4)
N2 0.027(3) 0.075(5) 0.074(5) 0.046(4) 0.010(3) 0.003(3)
C1 0.096(9) 0.089(9) 0.122(11) 0.063(8) 0.044(8) 0.016(7)
C2 0.121(12) 0.110(12) 0.171(16) 0.087(11) 0.066(11) 0.019(9)
C3 0.128(14) 0.130(15) 0.24(2) 0.133(16) 0.071(15) 0.024(11)
C5 0.113(12) 0.102(11) 0.179(16) 0.084(11) 0.061(11) 0.019(8)
C6 0.050(5) 0.063(7) 0.099(8) 0.046(6) 0.016(5) 0.011(4)
C7 0.046(5) 0.075(7) 0.076(7) 0.036(6) 0.008(4) -0.003(4)
C8 0.031(4) 0.072(6) 0.062(5) 0.038(5) 0.009(3) 0.007(3)
C9 0.040(4) 0.087(7) 0.071(6) 0.042(6) 0.019(4) 0.013(4)
C10 0.052(5) 0.075(7) 0.061(6) 0.029(5) 0.017(4) 0.017(4)
C11 0.075(7) 0.094(8) 0.058(6) 0.037(6) 0.008(5) 0.028(6)
C12 0.098(10) 0.135(13) 0.068(8) 0.028(9) -0.003(7) 0.034(9)
C13 0.066(8) 0.135(14) 0.098(11) 0.000(10) 0.010(7) 0.010(8)
C14 0.090(9) 0.090(10) 0.096(10) 0.028(8) 0.014(7) -0.004(7)
C15 0.067(7) 0.087(8) 0.083(8) 0.034(7) 0.016(5) 0.012(5)
C16 0.022(3) 0.069(6) 0.045(5) 0.027(4) 0.001(3) 0.000(3)
C4 0.18(2) 0.087(12) 0.22(2) 0.079(14) 0.054(17) 0.029(11)

_geom_special_details            
;
All esds (except the esd in the dihedral angle between two l.s. planes)
are estimated using the full covariance matrix. The cell esds are taken
into account individually in the estimation of esds in distances, angles
and torsion angles; correlations between esds in cell parameters are only
used when they are defined by crystal symmetry. An approximate (isotropic)
treatment of cell esds is used for estimating esds involving l.s. planes.
;

loop_
_geom_bond_atom_site_label_1
_geom_bond_atom_site_label_2
_geom_bond_distance
_geom_bond_site_symmetry_2
_geom_bond_publ_flag
Cd1 O2 2.252(6) . ?
Cd1 O2 2.252(6) 2_657 ?
Cd1 O4 2.293(8) 2_657 ?
Cd1 O4 2.293(8) . ?
Cd1 O3 2.315(6) 1_455 ?
Cd1 O3 2.315(6) 2_757 ?
O1 C7 1.213(11) . ?
O2 C16 1.250(9) . ?
O3 C16 1.276(10) . ?
O3 Cd1 2.315(6) 1_655 ?
O4 H4A 0.8145 . ?
O4 H4B 0.8433 . ?
N1 C7 1.381(12) . ?
N1 C6 1.400(12) . ?
N1 H1N 0.8547 . ?
N2 C7 1.346(11) . ?
N2 C8 1.453(10) . ?
N2 H2N 0.8597 . ?
C1 C2 1.342(18) . ?
C1 C6 1.360(15) . ?
C1 H1 0.9300 . ?
C2 C3 1.35(2) . ?
C2 H2 0.9300 . ?
C3 C4 1.40(2) . ?
C3 H3 0.9300 . ?
C5 C4 1.34(2) . ?
C5 C6 1.388(18) . ?
C5 H5 0.9300 . ?
C8 C9 1.529(13) . ?
C8 C16 1.536(11) . ?
C8 H8 0.9800 . ?
C9 C10 1.525(14) . ?
C9 H9A 0.9700 . ?
C9 H9B 0.9700 . ?
C10 C11 1.365(14) . ?
C10 C15 1.384(15) . ?
C11 C12 1.398(19) . ?
C11 H11 0.9300 . ?
C12 C13 1.36(2) . ?
C12 H12 0.9300 . ?
C13 C14 1.33(2) . ?
C13 H13 0.9300 . ?
C14 C15 1.401(18) . ?
C14 H14 0.9300 . ?
C15 H15 0.9300 . ?
C4 H4 0.9300 . ?

loop_
_geom_angle_atom_site_label_1
_geom_angle_atom_site_label_2
_geom_angle_atom_site_label_3
_geom_angle
_geom_angle_site_symmetry_1
_geom_angle_site_symmetry_3
_geom_angle_publ_flag
O2 Cd1 O2 180.000(2) . 2_657 ?
O2 Cd1 O4 88.7(3) . 2_657 ?
O2 Cd1 O4 91.3(3) 2_657 2_657 ?
O2 Cd1 O4 91.3(3) . . ?
O2 Cd1 O4 88.7(3) 2_657 . ?
O4 Cd1 O4 180.000(4) 2_657 . ?
O2 Cd1 O3 91.8(2) . 1_455 ?
O2 Cd1 O3 88.2(2) 2_657 1_455 ?
O4 Cd1 O3 93.0(3) 2_657 1_455 ?
O4 Cd1 O3 87.0(3) . 1_455 ?
O2 Cd1 O3 88.2(2) . 2_757 ?
O2 Cd1 O3 91.8(2) 2_657 2_757 ?
O4 Cd1 O3 87.0(3) 2_657 2_757 ?
O4 Cd1 O3 93.0(3) . 2_757 ?
O3 Cd1 O3 180.000(1) 1_455 2_757 ?
C16 O2 Cd1 123.0(5) . . ?
C16 O3 Cd1 122.4(5) . 1_655 ?
Cd1 O4 H4A 113.4 . . ?
Cd1 O4 H4B 114.9 . . ?
H4A O4 H4B 129.7 . . ?
C7 N1 C6 124.3(8) . . ?
C7 N1 H1N 117.1 . . ?
C6 N1 H1N 118.7 . . ?
C7 N2 C8 120.6(7) . . ?
C7 N2 H2N 119.5 . . ?
C8 N2 H2N 119.9 . . ?
C2 C1 C6 122.7(13) . . ?
C2 C1 H1 118.6 . . ?
C6 C1 H1 118.6 . . ?
C1 C2 C3 120.2(15) . . ?
C1 C2 H2 119.9 . . ?
C3 C2 H2 119.9 . . ?
C2 C3 C4 119.8(14) . . ?
C2 C3 H3 120.1 . . ?
C4 C3 H3 120.1 . . ?
C4 C5 C6 123.4(16) . . ?
C4 C5 H5 118.3 . . ?
C6 C5 H5 118.3 . . ?
C1 C6 C5 116.0(10) . . ?
C1 C6 N1 124.6(10) . . ?
C5 C6 N1 118.9(10) . . ?
O1 C7 N2 122.3(9) . . ?
O1 C7 N1 123.1(9) . . ?
N2 C7 N1 114.6(8) . . ?
N2 C8 C9 113.5(7) . . ?
N2 C8 C16 110.4(6) . . ?
C9 C8 C16 111.3(7) . . ?
N2 C8 H8 107.1 . . ?
C9 C8 H8 107.1 . . ?
C16 C8 H8 107.1 . . ?
C10 C9 C8 114.0(7) . . ?
C10 C9 H9A 108.8 . . ?
C8 C9 H9A 108.8 . . ?
C10 C9 H9B 108.8 . . ?
C8 C9 H9B 108.8 . . ?
H9A C9 H9B 107.6 . . ?
C11 C10 C15 118.6(10) . . ?
C11 C10 C9 121.6(10) . . ?
C15 C10 C9 119.7(9) . . ?
C10 C11 C12 119.5(12) . . ?
C10 C11 H11 120.2 . . ?
C12 C11 H11 120.2 . . ?
C13 C12 C11 120.9(13) . . ?
C13 C12 H12 119.6 . . ?
C11 C12 H12 119.6 . . ?
C14 C13 C12 120.2(14) . . ?
C14 C13 H13 119.9 . . ?
C12 C13 H13 119.9 . . ?
C13 C14 C15 120.3(14) . . ?
C13 C14 H14 119.9 . . ?
C15 C14 H14 119.9 . . ?
C10 C15 C14 120.5(12) . . ?
C10 C15 H15 119.8 . . ?
C14 C15 H15 119.8 . . ?
O2 C16 O3 125.7(7) . . ?
O2 C16 C8 118.5(7) . . ?
O3 C16 C8 115.8(6) . . ?
C5 C4 C3 117.8(17) . . ?
C5 C4 H4 121.1 . . ?
C3 C4 H4 121.1 . . ?

_diffrn_measured_fraction_theta_max 0.962
_diffrn_reflns_theta_full        25.49
_diffrn_measured_fraction_theta_full 0.962
_refine_diff_density_max         2.058
_refine_diff_density_min         -0.783
_refine_diff_density_rms         0.174



