####################################################################### 
# 
# This file contains crystal structure data downloaded from the 
# Cambridge Structural Database (CSD) hosted by the Cambridge 
# Crystallographic Data Centre (CCDC).
# 
# Full information about CCDC data access policies and citation 
# guidelines are available at http://www.ccdc.cam.ac.uk/access/V1 
# 
# Audit and citation data items may have been added by the CCDC. 
# Please retain this information to preserve the provenance of 
# this file and to allow appropriate attribution of the data. 
# 
#######################################################################

data_1
_audit_block_doi                 10.5517/ccr5g8m
_database_code_depnum_ccdc_archive 'CCDC 690440'
loop_
_citation_id
_citation_doi
_citation_year
1 10.1016/j.inoche.2008.11.025 2009
_audit_update_record             
;
2008-06-05 deposited with the CCDC.	2024-07-12 downloaded from the CCDC.
;

_audit_creation_method           SHELXL-97
_chemical_name_systematic        
;
?
;
_chemical_name_common            ?
_chemical_melting_point          ?
_chemical_formula_moiety         ?
_chemical_formula_sum            'C32 H34 Mn N4 O8'
_chemical_formula_weight         657.57

loop_
_atom_type_symbol
_atom_type_description
_atom_type_scat_dispersion_real
_atom_type_scat_dispersion_imag
_atom_type_scat_source
C C 0.0033 0.0016 'International Tables Vol C Tables 4.2.6.8 and 6.1.1.4'
H H 0.0000 0.0000 'International Tables Vol C Tables 4.2.6.8 and 6.1.1.4'
Mn Mn 0.3368 0.7283 'International Tables Vol C Tables 4.2.6.8 and 6.1.1.4'
N N 0.0061 0.0033 'International Tables Vol C Tables 4.2.6.8 and 6.1.1.4'
O O 0.0106 0.0060 'International Tables Vol C Tables 4.2.6.8 and 6.1.1.4'

_symmetry_cell_setting           Triclinic
_symmetry_space_group_name_H-M   P-1

loop_
_symmetry_equiv_pos_as_xyz
'x, y, z'
'-x, -y, -z'

_cell_length_a                   4.8254(4)
_cell_length_b                   13.7397(15)
_cell_length_c                   14.7874(15)
_cell_angle_alpha                106.656(7)
_cell_angle_beta                 95.714(7)
_cell_angle_gamma                94.313(7)
_cell_volume                     929.05(16)
_cell_formula_units_Z            1
_cell_measurement_temperature    296(2)
_cell_measurement_reflns_used    1897
_cell_measurement_theta_min      2.42
_cell_measurement_theta_max      22.38

_exptl_crystal_description       Plates
_exptl_crystal_colour            colorless
_exptl_crystal_size_max          0.31
_exptl_crystal_size_mid          0.25
_exptl_crystal_size_min          0.19
_exptl_crystal_density_meas      ?
_exptl_crystal_density_diffrn    1.175
_exptl_crystal_density_method    'not measured'
_exptl_crystal_F_000             343
_exptl_absorpt_coefficient_mu    0.403
_exptl_absorpt_correction_type   none
_exptl_absorpt_correction_T_min  ?
_exptl_absorpt_correction_T_max  ?
_exptl_absorpt_process_details   ?

_exptl_special_details           
;
?
;

_diffrn_ambient_temperature      296(2)
_diffrn_radiation_wavelength     0.71073
_diffrn_radiation_type           MoK\a
_diffrn_radiation_source         'fine-focus sealed tube'
_diffrn_radiation_monochromator  graphite
_diffrn_measurement_device_type  'CCD area detector'
_diffrn_measurement_method       'phi and omega scans'
_diffrn_detector_area_resol_mean ?
_diffrn_standards_number         ?
_diffrn_standards_interval_count ?
_diffrn_standards_interval_time  ?
_diffrn_standards_decay_%        ?
_diffrn_reflns_number            8173
_diffrn_reflns_av_R_equivalents  0.0532
_diffrn_reflns_av_sigmaI/netI    0.0656
_diffrn_reflns_limit_h_min       -5
_diffrn_reflns_limit_h_max       5
_diffrn_reflns_limit_k_min       -15
_diffrn_reflns_limit_k_max       15
_diffrn_reflns_limit_l_min       -17
_diffrn_reflns_limit_l_max       17
_diffrn_reflns_theta_min         1.45
_diffrn_reflns_theta_max         24.50
_reflns_number_total             2883
_reflns_number_gt                1914
_reflns_threshold_expression     >2sigma(I)

_computing_data_collection       'Bruker SMART'
_computing_cell_refinement       'Bruker SMART'
_computing_data_reduction        'Bruker SAINT'
_computing_structure_solution    'SHELXS-97 (Sheldrick, 1990)'
_computing_structure_refinement  'SHELXL-97 (Sheldrick, 1997)'
_computing_molecular_graphics    'Bruker SHELXTL'
_computing_publication_material  'Bruker SHELXTL'

_refine_special_details          
;
Refinement of F^2^ against ALL reflections. The weighted R-factor wR and
goodness of fit S are based on F^2^, conventional R-factors R are based
on F, with F set to zero for negative F^2^. The threshold expression of
F^2^ > 2sigma(F^2^) is used only for calculating R-factors(gt) etc. and is
not relevant to the choice of reflections for refinement. R-factors based
on F^2^ are statistically about twice as large as those based on F, and R-
factors based on ALL data will be even larger.
;

_refine_ls_structure_factor_coef Fsqd
_refine_ls_matrix_type           full
_refine_ls_weighting_scheme      calc
_refine_ls_weighting_details     
'calc w=1/[\s^2^(Fo^2^)+(0.2000P)^2^+0.0000P] where P=(Fo^2^+2Fc^2^)/3'
_atom_sites_solution_primary     direct
_atom_sites_solution_secondary   difmap
_atom_sites_solution_hydrogens   geom
_refine_ls_hydrogen_treatment    mixed
_refine_ls_extinction_method     none
_refine_ls_extinction_coef       ?
_refine_ls_number_reflns         2883
_refine_ls_number_parameters     210
_refine_ls_number_restraints     0
_refine_ls_R_factor_all          0.1325
_refine_ls_R_factor_gt           0.0989
_refine_ls_wR_factor_ref         0.3146
_refine_ls_wR_factor_gt          0.2838
_refine_ls_goodness_of_fit_ref   1.148
_refine_ls_restrained_S_all      1.148
_refine_ls_shift/su_max          0.001
_refine_ls_shift/su_mean         0.000

loop_
_atom_site_label
_atom_site_type_symbol
_atom_site_fract_x
_atom_site_fract_y
_atom_site_fract_z
_atom_site_U_iso_or_equiv
_atom_site_adp_type
_atom_site_occupancy
_atom_site_symmetry_multiplicity
_atom_site_calc_flag
_atom_site_refinement_flags
_atom_site_disorder_assembly
_atom_site_disorder_group
Mn1 Mn 0.0000 0.5000 0.0000 0.0505(6) Uani 1 2 d S . .
O1 O 0.1926(9) 0.2727(4) 0.2432(4) 0.0789(17) Uani 1 1 d . . .
O2 O 0.3952(8) 0.5457(3) 0.0949(3) 0.0512(11) Uani 1 1 d . . .
O3 O 0.7789(8) 0.4694(4) 0.1120(3) 0.0558(12) Uani 1 1 d . . .
N1 N 0.6219(11) 0.2207(4) 0.2634(5) 0.0658(17) Uani 1 1 d . . .
H1N H 0.7958 0.2335 0.2581 0.079 Uiso 1 1 calc R . .
N2 N 0.5661(11) 0.3673(4) 0.2232(4) 0.0542(14) Uani 1 1 d . . .
H2N H 0.7453 0.3761 0.2256 0.065 Uiso 1 1 calc R . .
C1 C 0.666(2) 0.0463(7) 0.2513(8) 0.104(3) Uani 1 1 d . . .
H1 H 0.7842 0.0444 0.2051 0.125 Uiso 1 1 calc R . .
C2 C 0.603(3) -0.0404(7) 0.2818(9) 0.130(4) Uani 1 1 d . . .
H2 H 0.6837 -0.0999 0.2556 0.156 Uiso 1 1 calc R . .
C3 C 0.428(2) -0.0392(8) 0.3487(10) 0.116(4) Uani 1 1 d . . .
H3 H 0.3900 -0.0968 0.3684 0.139 Uiso 1 1 calc R . .
C4 C 0.311(2) 0.0468(9) 0.3858(8) 0.112(4) Uani 1 1 d . . .
H4 H 0.1879 0.0473 0.4303 0.134 Uiso 1 1 calc R . .
C5 C 0.3692(18) 0.1349(6) 0.3596(6) 0.081(2) Uani 1 1 d . . .
H5 H 0.2892 0.1940 0.3874 0.097 Uiso 1 1 calc R . .
C6 C 0.5468(14) 0.1333(5) 0.2919(5) 0.0620(18) Uani 1 1 d . . .
C7 C 0.4462(13) 0.2858(5) 0.2439(5) 0.0534(17) Uani 1 1 d . . .
C8 C 0.3972(12) 0.4403(5) 0.1971(4) 0.0468(15) Uani 1 1 d . . .
H8 H 0.2196 0.4023 0.1625 0.056 Uiso 1 1 calc R . .
C9 C 0.3265(13) 0.5226(5) 0.2835(5) 0.0580(18) Uani 1 1 d . . .
H9A H 0.1974 0.5640 0.2612 0.070 Uiso 1 1 calc R . .
H9B H 0.2302 0.4891 0.3228 0.070 Uiso 1 1 calc R . .
C10 C 0.5681(14) 0.5909(5) 0.3433(5) 0.0537(17) Uani 1 1 d . . .
C11 C 0.7050(17) 0.5694(7) 0.4222(5) 0.070(2) Uani 1 1 d . . .
H11 H 0.6428 0.5106 0.4367 0.084 Uiso 1 1 calc R . .
C12 C 0.928(2) 0.6325(9) 0.4786(6) 0.092(3) Uani 1 1 d . . .
H12 H 1.0148 0.6169 0.5309 0.110 Uiso 1 1 calc R . .
C13 C 1.023(2) 0.7209(9) 0.4567(8) 0.102(3) Uani 1 1 d . . .
H13 H 1.1759 0.7639 0.4939 0.123 Uiso 1 1 calc R . .
C14 C 0.890(2) 0.7438(7) 0.3806(8) 0.097(3) Uani 1 1 d . . .
H14 H 0.9517 0.8027 0.3660 0.116 Uiso 1 1 calc R . .
C15 C 0.6599(17) 0.6784(6) 0.3246(6) 0.074(2) Uani 1 1 d . . .
H15 H 0.5683 0.6951 0.2736 0.089 Uiso 1 1 calc R . .
C16 C 0.5385(12) 0.4875(5) 0.1286(4) 0.0450(14) Uani 1 1 d . . .
O4 O -0.140(2) 0.6496(6) 0.0425(5) 0.118(2) Uani 1 1 d . . .
H4A H -0.0275 0.6875 0.0859 0.178 Uiso 1 1 calc R . .
H4B H 0.032(11) 0.685(4) 0.029(3) 0.021(13) Uiso 1 1 d . . .

loop_
_atom_site_aniso_label
_atom_site_aniso_U_11
_atom_site_aniso_U_22
_atom_site_aniso_U_33
_atom_site_aniso_U_23
_atom_site_aniso_U_13
_atom_site_aniso_U_12
Mn1 0.0231(9) 0.0793(10) 0.0638(10) 0.0412(8) 0.0125(6) 0.0078(7)
O1 0.025(3) 0.102(4) 0.135(5) 0.073(4) 0.016(3) 0.006(2)
O2 0.028(3) 0.076(3) 0.059(3) 0.033(2) 0.011(2) 0.009(2)
O3 0.025(2) 0.093(3) 0.068(3) 0.045(2) 0.018(2) 0.016(2)
N1 0.027(3) 0.077(4) 0.112(5) 0.053(4) 0.018(3) 0.004(3)
N2 0.026(3) 0.073(3) 0.079(4) 0.044(3) 0.013(3) 0.006(2)
C1 0.101(8) 0.092(6) 0.149(9) 0.062(6) 0.058(7) 0.032(5)
C2 0.153(11) 0.075(6) 0.181(12) 0.056(7) 0.034(10) 0.038(6)
C3 0.097(8) 0.101(7) 0.180(11) 0.088(8) 0.029(8) 0.000(6)
C4 0.090(8) 0.126(8) 0.159(10) 0.092(8) 0.047(7) 0.018(6)
C5 0.073(6) 0.082(5) 0.104(6) 0.049(5) 0.031(5) 0.008(4)
C6 0.039(4) 0.066(4) 0.090(5) 0.039(4) 0.005(4) 0.000(3)
C7 0.027(4) 0.072(4) 0.072(4) 0.037(4) 0.015(3) 0.002(3)
C8 0.024(3) 0.070(4) 0.058(4) 0.032(3) 0.016(3) 0.010(3)
C9 0.035(4) 0.086(5) 0.068(4) 0.041(4) 0.022(4) 0.016(4)
C10 0.035(4) 0.070(4) 0.061(4) 0.022(3) 0.016(3) 0.013(3)
C11 0.056(5) 0.102(6) 0.059(4) 0.029(4) 0.012(4) 0.021(5)
C12 0.073(7) 0.128(8) 0.072(6) 0.020(6) 0.002(5) 0.040(6)
C13 0.051(6) 0.120(8) 0.102(7) -0.016(6) -0.006(5) 0.011(6)
C14 0.085(7) 0.080(6) 0.114(8) 0.015(5) 0.004(6) 0.006(5)
C15 0.063(5) 0.080(5) 0.087(5) 0.034(5) 0.011(4) 0.018(4)
C16 0.027(3) 0.064(4) 0.050(3) 0.025(3) 0.008(3) 0.005(3)
O4 0.130(7) 0.128(6) 0.104(5) 0.039(4) 0.004(5) 0.051(5)

_geom_special_details            
;
All esds (except the esd in the dihedral angle between two l.s. planes)
are estimated using the full covariance matrix. The cell esds are taken
into account individually in the estimation of esds in distances, angles
and torsion angles; correlations between esds in cell parameters are only
used when they are defined by crystal symmetry. An approximate (isotropic)
treatment of cell esds is used for estimating esds involving l.s. planes.
;

loop_
_geom_bond_atom_site_label_1
_geom_bond_atom_site_label_2
_geom_bond_distance
_geom_bond_site_symmetry_2
_geom_bond_publ_flag
Mn1 O4 2.151(7) . ?
Mn1 O4 2.151(7) 2_565 ?
Mn1 O3 2.178(3) 2_665 ?
Mn1 O3 2.178(3) 1_455 ?
Mn1 O2 2.187(4) . ?
Mn1 O2 2.187(4) 2_565 ?
O1 C7 1.222(7) . ?
O2 C16 1.267(7) . ?
O3 C16 1.238(7) . ?
O3 Mn1 2.178(3) 1_655 ?
N1 C7 1.347(8) . ?
N1 C6 1.417(8) . ?
N1 H1N 0.8600 . ?
N2 C7 1.347(7) . ?
N2 C8 1.450(7) . ?
N2 H2N 0.8600 . ?
C1 C6 1.371(11) . ?
C1 C2 1.412(12) . ?
C1 H1 0.9300 . ?
C2 C3 1.360(14) . ?
C2 H2 0.9300 . ?
C3 C4 1.343(15) . ?
C3 H3 0.9300 . ?
C4 C5 1.391(11) . ?
C4 H4 0.9300 . ?
C5 C6 1.378(10) . ?
C5 H5 0.9300 . ?
C8 C9 1.531(9) . ?
C8 C16 1.536(7) . ?
C8 H8 0.9800 . ?
C9 C10 1.476(9) . ?
C9 H9A 0.9700 . ?
C9 H9B 0.9700 . ?
C10 C15 1.361(9) . ?
C10 C11 1.399(10) . ?
C11 C12 1.366(12) . ?
C11 H11 0.9300 . ?
C12 C13 1.402(14) . ?
C12 H12 0.9300 . ?
C13 C14 1.366(13) . ?
C13 H13 0.9300 . ?
C14 C15 1.402(12) . ?
C14 H14 0.9300 . ?
C15 H15 0.9300 . ?
O4 H4B 0.99(5) . ?

loop_
_geom_angle_atom_site_label_1
_geom_angle_atom_site_label_2
_geom_angle_atom_site_label_3
_geom_angle
_geom_angle_site_symmetry_1
_geom_angle_site_symmetry_3
_geom_angle_publ_flag
O4 Mn1 O4 180.000(1) . 2_565 ?
O4 Mn1 O3 93.9(3) . 2_665 ?
O4 Mn1 O3 86.1(3) 2_565 2_665 ?
O4 Mn1 O3 86.1(3) . 1_455 ?
O4 Mn1 O3 93.9(3) 2_565 1_455 ?
O3 Mn1 O3 180.000(1) 2_665 1_455 ?
O4 Mn1 O2 94.2(3) . . ?
O4 Mn1 O2 85.8(3) 2_565 . ?
O3 Mn1 O2 88.11(15) 2_665 . ?
O3 Mn1 O2 91.89(15) 1_455 . ?
O4 Mn1 O2 85.8(3) . 2_565 ?
O4 Mn1 O2 94.2(3) 2_565 2_565 ?
O3 Mn1 O2 91.89(15) 2_665 2_565 ?
O3 Mn1 O2 88.11(15) 1_455 2_565 ?
O2 Mn1 O2 180.000(1) . 2_565 ?
C16 O2 Mn1 126.2(4) . . ?
C16 O3 Mn1 127.7(4) . 1_655 ?
C7 N1 C6 126.1(5) . . ?
C7 N1 H1N 117.0 . . ?
C6 N1 H1N 117.0 . . ?
C7 N2 C8 120.9(5) . . ?
C7 N2 H2N 119.5 . . ?
C8 N2 H2N 119.6 . . ?
C6 C1 C2 118.1(8) . . ?
C6 C1 H1 121.0 . . ?
C2 C1 H1 121.0 . . ?
C3 C2 C1 121.7(9) . . ?
C3 C2 H2 119.2 . . ?
C1 C2 H2 119.2 . . ?
C4 C3 C2 118.7(9) . . ?
C4 C3 H3 120.6 . . ?
C2 C3 H3 120.6 . . ?
C3 C4 C5 122.0(9) . . ?
C3 C4 H4 119.0 . . ?
C5 C4 H4 119.0 . . ?
C6 C5 C4 119.0(8) . . ?
C6 C5 H5 120.5 . . ?
C4 C5 H5 120.5 . . ?
C1 C6 C5 120.5(7) . . ?
C1 C6 N1 117.2(6) . . ?
C5 C6 N1 122.3(7) . . ?
O1 C7 N2 120.9(6) . . ?
O1 C7 N1 123.2(5) . . ?
N2 C7 N1 115.9(5) . . ?
N2 C8 C9 112.8(5) . . ?
N2 C8 C16 110.6(4) . . ?
C9 C8 C16 111.6(5) . . ?
N2 C8 H8 107.2 . . ?
C9 C8 H8 107.2 . . ?
C16 C8 H8 107.2 . . ?
C10 C9 C8 115.5(5) . . ?
C10 C9 H9A 108.4 . . ?
C8 C9 H9A 108.4 . . ?
C10 C9 H9B 108.4 . . ?
C8 C9 H9B 108.4 . . ?
H9A C9 H9B 107.5 . . ?
C15 C10 C11 118.0(7) . . ?
C15 C10 C9 120.7(6) . . ?
C11 C10 C9 121.3(7) . . ?
C12 C11 C10 121.8(8) . . ?
C12 C11 H11 119.1 . . ?
C10 C11 H11 119.1 . . ?
C11 C12 C13 119.2(9) . . ?
C11 C12 H12 120.4 . . ?
C13 C12 H12 120.4 . . ?
C14 C13 C12 119.8(10) . . ?
C14 C13 H13 120.1 . . ?
C12 C13 H13 120.1 . . ?
C13 C14 C15 119.8(9) . . ?
C13 C14 H14 120.1 . . ?
C15 C14 H14 120.1 . . ?
C10 C15 C14 121.3(8) . . ?
C10 C15 H15 119.3 . . ?
C14 C15 H15 119.3 . . ?
O3 C16 O2 125.0(5) . . ?
O3 C16 C8 119.6(5) . . ?
O2 C16 C8 115.3(5) . . ?
Mn1 O4 H4B 94(3) . . ?
H4A O4 H4B 59.1 . . ?

loop_
_geom_torsion_atom_site_label_1
_geom_torsion_atom_site_label_2
_geom_torsion_atom_site_label_3
_geom_torsion_atom_site_label_4
_geom_torsion
_geom_torsion_site_symmetry_1
_geom_torsion_site_symmetry_2
_geom_torsion_site_symmetry_3
_geom_torsion_site_symmetry_4
_geom_torsion_publ_flag
O4 Mn1 O2 C16 154.8(5) . . . . ?
O4 Mn1 O2 C16 -25.2(5) 2_565 . . . ?
O3 Mn1 O2 C16 -111.4(4) 2_665 . . . ?
O3 Mn1 O2 C16 68.6(4) 1_455 . . . ?
C6 C1 C2 C3 0.7(18) . . . . ?
C1 C2 C3 C4 0.5(19) . . . . ?
C2 C3 C4 C5 -1.6(18) . . . . ?
C3 C4 C5 C6 1.6(16) . . . . ?
C2 C1 C6 C5 -0.7(15) . . . . ?
C2 C1 C6 N1 177.3(9) . . . . ?
C4 C5 C6 C1 -0.3(14) . . . . ?
C4 C5 C6 N1 -178.2(8) . . . . ?
C7 N1 C6 C1 137.5(9) . . . . ?
C7 N1 C6 C5 -44.5(12) . . . . ?
C8 N2 C7 O1 -1.7(10) . . . . ?
C8 N2 C7 N1 177.4(6) . . . . ?
C6 N1 C7 O1 -4.6(12) . . . . ?
C6 N1 C7 N2 176.4(6) . . . . ?
C7 N2 C8 C9 84.8(7) . . . . ?
C7 N2 C8 C16 -149.5(6) . . . . ?
N2 C8 C9 C10 64.3(7) . . . . ?
C16 C8 C9 C10 -60.9(7) . . . . ?
C8 C9 C10 C15 89.0(7) . . . . ?
C8 C9 C10 C11 -92.6(7) . . . . ?
C15 C10 C11 C12 -1.1(10) . . . . ?
C9 C10 C11 C12 -179.5(6) . . . . ?
C10 C11 C12 C13 -0.3(12) . . . . ?
C11 C12 C13 C14 1.1(13) . . . . ?
C12 C13 C14 C15 -0.3(14) . . . . ?
C11 C10 C15 C14 1.9(10) . . . . ?
C9 C10 C15 C14 -179.7(7) . . . . ?
C13 C14 C15 C10 -1.2(12) . . . . ?
Mn1 O3 C16 O2 -14.8(10) 1_655 . . . ?
Mn1 O3 C16 C8 167.2(4) 1_655 . . . ?
Mn1 O2 C16 O3 116.7(6) . . . . ?
Mn1 O2 C16 C8 -65.2(6) . . . . ?
N2 C8 C16 O3 -7.8(9) . . . . ?
C9 C8 C16 O3 118.7(6) . . . . ?
N2 C8 C16 O2 174.0(5) . . . . ?
C9 C8 C16 O2 -59.5(7) . . . . ?

_diffrn_measured_fraction_theta_max 0.930
_diffrn_reflns_theta_full        24.50
_diffrn_measured_fraction_theta_full 0.930
_refine_diff_density_max         1.389
_refine_diff_density_min         -0.643
_refine_diff_density_rms         0.144

