####################################################################### 
# 
# This file contains crystal structure data downloaded from the 
# Cambridge Structural Database (CSD) hosted by the Cambridge 
# Crystallographic Data Centre (CCDC).
# 
# Full information about CCDC data access policies and citation 
# guidelines are available at http://www.ccdc.cam.ac.uk/access/V1 
# 
# Audit and citation data items may have been added by the CCDC. 
# Please retain this information to preserve the provenance of 
# this file and to allow appropriate attribution of the data. 
# 
#######################################################################

data_p
_audit_block_doi                 10.5517/cc1241bl
_database_code_depnum_ccdc_archive 'CCDC 986988'
loop_
_citation_id
_citation_doi
_citation_year
1 10.1002/zaac.201400071 2014
_audit_update_record             
;
2014-02-15 deposited with the CCDC.	2024-07-12 downloaded from the CCDC.
;

_audit_creation_method           SHELXL-97
_chemical_name_systematic        
; 
 ? 
;
_chemical_name_common            ?
_chemical_melting_point          ?
_chemical_formula_moiety         'C108 H85 Cu12 I12 N28, 2(C4 H9 N O)'
_chemical_formula_sum            'C116 H103 Cu12 I12 N30 O2'
_chemical_formula_weight         4234.56

loop_
_atom_type_symbol
_atom_type_description
_atom_type_scat_dispersion_real
_atom_type_scat_dispersion_imag
_atom_type_scat_source
C C 0.0033 0.0016 'International Tables Vol C Tables 4.2.6.8 and 6.1.1.4'
H H 0.0000 0.0000 'International Tables Vol C Tables 4.2.6.8 and 6.1.1.4'
Cu Cu 0.3201 1.2651 'International Tables Vol C Tables 4.2.6.8 and 6.1.1.4'
I I -0.4742 1.8119 'International Tables Vol C Tables 4.2.6.8 and 6.1.1.4'
N N 0.0061 0.0033 'International Tables Vol C Tables 4.2.6.8 and 6.1.1.4'
O O 0.0106 0.0060 'International Tables Vol C Tables 4.2.6.8 and 6.1.1.4'

_space_group_crystal_system      monoclinic
_space_group_IT_number           15
_space_group_name_H-M_alt        'C 1 2/c 1'
_space_group_name_Hall           '-C 2yc'

loop_
_symmetry_equiv_pos_as_xyz
'x, y, z'
'-x, y, -z+1/2'
'x+1/2, y+1/2, z'
'-x+1/2, y+1/2, -z+1/2'
'-x, -y, -z'
'x, -y, z-1/2'
'-x+1/2, -y+1/2, -z'
'x+1/2, -y+1/2, z-1/2'

_cell_length_a                   52.421(3)
_cell_length_b                   38.733(3)
_cell_length_c                   15.4272(10)
_cell_angle_alpha                90.00
_cell_angle_beta                 102.3770(10)
_cell_angle_gamma                90.00
_cell_volume                     30596(3)
_cell_formula_units_Z            8
_cell_measurement_temperature    173(2)
_cell_measurement_reflns_used    6518
_cell_measurement_theta_max      19.092
_cell_measurement_theta_min      2.247
_shelx_estimated_absorpt_T_max   0.922
_shelx_estimated_absorpt_T_min   0.597

_exptl_crystal_description       needle
_exptl_crystal_colour            colorless
_exptl_crystal_size_max          0.14
_exptl_crystal_size_mid          0.03
_exptl_crystal_size_min          0.02
_exptl_crystal_density_meas      ?
_exptl_crystal_density_diffrn    1.839
_exptl_crystal_density_method    'not measured'
_exptl_crystal_F_000             16072
_exptl_absorpt_coefficient_mu    4.104
_exptl_absorpt_correction_type   multi-scan
_exptl_absorpt_correction_T_min  0.597
_exptl_absorpt_correction_T_max  0.922
_exptl_absorpt_process_details   sadabs

_exptl_special_details           
; 
 ? 
;

_diffrn_ambient_temperature      173(2)
_diffrn_radiation_wavelength     0.71073
_diffrn_radiation_type           MoK\a
_diffrn_radiation_source         'fine-focus sealed tube'
_diffrn_radiation_monochromator  graphite
_diffrn_measurement_device_type  ?
_diffrn_measurement_method       ?
_diffrn_detector_area_resol_mean ?
_diffrn_standards_number         ?
_diffrn_standards_interval_count ?
_diffrn_standards_interval_time  ?
_diffrn_standards_decay_%        ?
_diffrn_reflns_number            75003
_diffrn_reflns_av_R_equivalents  0.0959
_diffrn_reflns_av_sigmaI/netI    0.1550
_diffrn_reflns_limit_h_min       -62
_diffrn_reflns_limit_h_max       56
_diffrn_reflns_limit_k_min       -46
_diffrn_reflns_limit_k_max       40
_diffrn_reflns_limit_l_min       -18
_diffrn_reflns_limit_l_max       18
_diffrn_reflns_theta_min         1.42
_diffrn_reflns_theta_max         25.00
_reflns_number_total             26901
_reflns_number_gt                11005
_reflns_threshold_expression     >2sigma(I)

_computing_data_collection       ?
_computing_cell_refinement       ?
_computing_data_reduction        ?
_computing_structure_solution    'SHELXS-97 (Sheldrick, 1990)'
_computing_structure_refinement  'SHELXL-97 (Sheldrick, 1997)'
_computing_molecular_graphics    ?
_computing_publication_material  ?

_refine_special_details          
; 
 Refinement of F^2^ against ALL reflections.  The weighted R-factor wR and 
 goodness of fit S are based on F^2^, conventional R-factors R are based 
 on F, with F set to zero for negative F^2^. The threshold expression of 
 F^2^ > 2sigma(F^2^) is used only for calculating R-factors(gt) etc. and is 
 not relevant to the choice of reflections for refinement.  R-factors based 
 on F^2^ are statistically about twice as large as those based on F, and R- 
 factors based on ALL data will be even larger. 
;

_refine_ls_structure_factor_coef Fsqd
_refine_ls_matrix_type           full
_refine_ls_weighting_scheme      calc
_refine_ls_weighting_details     
'calc w=1/[\s^2^(Fo^2^)+(0.1094P)^2^+0.0000P] where P=(Fo^2^+2Fc^2^)/3'
_atom_sites_solution_primary     direct
_atom_sites_solution_secondary   difmap
_atom_sites_solution_hydrogens   geom
_refine_ls_hydrogen_treatment    constr
_refine_ls_extinction_method     none
_refine_ls_extinction_coef       ?
_refine_ls_number_reflns         26901
_refine_ls_number_parameters     1516
_refine_ls_number_restraints     185
_refine_ls_R_factor_all          0.1604
_refine_ls_R_factor_gt           0.0746
_refine_ls_wR_factor_ref         0.2141
_refine_ls_wR_factor_gt          0.1854
_refine_ls_goodness_of_fit_ref   0.869
_refine_ls_restrained_S_all      0.869
_refine_ls_shift/su_max          0.025
_refine_ls_shift/su_mean         0.001

loop_
_atom_site_label
_atom_site_type_symbol
_atom_site_fract_x
_atom_site_fract_y
_atom_site_fract_z
_atom_site_U_iso_or_equiv
_atom_site_adp_type
_atom_site_occupancy
_atom_site_symmetry_multiplicity
_atom_site_calc_flag
_atom_site_refinement_flags
_atom_site_disorder_assembly
_atom_site_disorder_group
I1 I 0.15738(2) -0.17957(3) 1.26023(6) 0.0606(3) Uani 1 1 d . . .
I2 I 0.16183(2) -0.06644(3) 1.28441(7) 0.0638(3) Uani 1 1 d . . .
I3 I 0.227657(19) -0.12406(3) 1.20686(6) 0.0589(3) Uani 1 1 d . . .
I4 I 0.21741(2) -0.13140(3) 1.48363(6) 0.0622(3) Uani 1 1 d . . .
I5 I 0.30889(2) 0.13789(3) 0.50466(6) 0.0637(3) Uani 1 1 d . . .
I6 I 0.37299(2) 0.08040(3) 0.69056(7) 0.0619(3) Uani 1 1 d . . .
I7 I 0.362226(18) 0.19591(3) 0.73008(6) 0.0531(3) Uani 1 1 d . . .
I8 I 0.305903(18) 0.12370(2) 0.79428(6) 0.0520(3) Uani 1 1 d . . .
I10 I 0.03540(15) 0.31129(19) 0.8769(6) 0.0799(16) Uani 0.65 1 d PU . .
I11 I 0.45432(3) -0.34612(5) 1.17983(13) 0.1291(6) Uani 1 1 d . . .
I12 I 0.49509(3) -0.42229(5) 1.39396(11) 0.1377(7) Uani 1 1 d . . .
Cu1 Cu 0.17682(4) -0.12295(5) 1.20380(11) 0.0581(5) Uani 1 1 d . . .
Cu2 Cu 0.21067(4) -0.09112(5) 1.33704(12) 0.0608(5) Uani 1 1 d . . .
Cu3 Cu 0.20648(4) -0.16362(5) 1.32000(13) 0.0662(5) Uani 1 1 d . . .
Cu4 Cu 0.17024(4) -0.12421(5) 1.37592(12) 0.0666(6) Uani 1 1 d . . .
Cu5 Cu 0.32306(4) 0.09842(5) 0.64770(12) 0.0611(5) Uani 1 1 d . . .
Cu6 Cu 0.35603(4) 0.13161(5) 0.78397(11) 0.0583(5) Uani 1 1 d . . .
Cu7 Cu 0.35903(4) 0.14268(5) 0.62089(12) 0.0643(5) Uani 1 1 d . . .
Cu8 Cu 0.31603(3) 0.16706(5) 0.66729(12) 0.0572(5) Uani 1 1 d . . .
Cu9 Cu 0.01644(4) 0.31809(6) 0.69553(14) 0.0788(6) Uani 1 1 d . . .
Cu10 Cu 0.0190(3) 0.3694(4) 0.8101(13) 0.122(6) Uani 0.55 1 d P . .
Cu11 Cu 0.47423(6) -0.40827(8) 1.22224(19) 0.1227(10) Uani 1 1 d . . .
Cu12 Cu 0.49701(6) -0.35937(9) 1.3293(2) 0.1359(12) Uani 1 1 d . . .
O1 O 0.2927(7) 0.3727(9) 0.687(3) 0.66(5) Uiso 1 1 d D . .
O2 O 0.2116(2) 0.4192(3) -0.1829(8) 0.100(4) Uani 1 1 d D . .
N1 N 0.2339(2) -0.0497(3) 1.3658(7) 0.057(3) Uani 1 1 d . . .
N2 N 0.2678(2) -0.0145(3) 1.3750(7) 0.050(3) Uani 1 1 d . . .
N3 N 0.3758(2) 0.1252(3) 0.9136(8) 0.061(3) Uani 1 1 d . . .
N4 N 0.3829(2) 0.1056(3) 1.0496(7) 0.054(3) Uani 1 1 d . . .
N5 N 0.4425(2) -0.0389(4) 1.5867(9) 0.133(3) Uani 1 1 d GU . .
C25 C 0.4504(3) -0.0735(4) 1.5766(9) 0.134(3) Uani 1 1 d GU . .
H25 H 0.4447 -0.0876 1.5258 0.161 Uiso 1 1 calc R . .
N6 N 0.4682(3) -0.0832(3) 1.6558(11) 0.137(3) Uani 1 1 d GU . .
C26 C 0.4713(3) -0.0546(5) 1.7148(8) 0.136(3) Uani 1 1 d GU . .
H26 H 0.4822 -0.0540 1.7726 0.163 Uiso 1 1 calc R . .
C27 C 0.4555(3) -0.0272(3) 1.6721(11) 0.133(3) Uani 1 1 d GU . .
H27A H 0.4664 -0.0069 1.6665 0.160 Uiso 1 1 calc R . .
H27B H 0.4425 -0.0205 1.7072 0.160 Uiso 1 1 calc R . .
N7 N 0.3679(2) 0.0309(3) 1.3475(7) 0.062(3) Uani 1 1 d . . .
N8 N 0.1589(2) -0.1166(3) 1.0775(7) 0.050(3) Uani 1 1 d . . .
N9 N 0.1508(2) -0.0961(3) 0.9390(7) 0.047(3) Uani 1 1 d . . .
N10 N 0.3018(2) 0.0554(3) 0.6286(7) 0.054(3) Uani 1 1 d . . .
N11 N 0.2693(2) 0.0198(3) 0.6273(7) 0.052(3) Uani 1 1 d . . .
N12 N 0.0867(4) 0.0284(4) 0.3696(10) 0.094(5) Uani 1 1 d . . .
N13 N 0.0568(4) 0.0598(5) 0.3063(15) 0.150(8) Uani 1 1 d . . .
N14 N 0.1679(3) -0.0287(3) 0.6344(8) 0.063(3) Uani 1 1 d . . .
N17 N 0.2857(2) 0.2009(3) 0.6499(7) 0.046(3) Uani 1 1 d . . .
N18 N 0.2456(2) 0.2196(3) 0.5982(7) 0.048(3) Uani 1 1 d . . .
N19 N 0.0351(2) 0.2797(4) 0.6462(9) 0.076(4) Uani 1 1 d . . .
N20 N 0.0613(2) 0.2496(5) 0.5864(9) 0.076(4) Uani 1 1 d . . .
N21 N 0.1417(2) 0.2202(3) 0.4049(7) 0.048(3) Uani 1 1 d . . .
N22 N 0.2297(2) -0.2050(3) 1.3392(8) 0.061(3) Uani 1 1 d . . .
N23 N 0.2681(2) -0.2325(3) 1.3902(7) 0.047(3) Uani 1 1 d . . .
N24 N 0.4618(3) -0.2934(5) 1.4752(12) 0.126(3) Uani 1 1 d U . .
N25 N 0.4877(3) -0.3226(5) 1.4125(12) 0.131(3) Uani 1 1 d U . .
N26 N 0.3834(2) -0.1690(3) 1.8932(7) 0.054(3) Uani 1 1 d . . .
N27 N 0.3777(3) -0.1500(3) 2.0233(8) 0.070(4) Uani 1 1 d . . .
N28 N 0.3713(2) -0.2452(3) 1.5742(7) 0.067(4) Uani 1 1 d . . .
N29 N 0.2601(4) 0.3449(5) 0.7430(12) 0.33(2) Uiso 1 1 d D . .
N30 N 0.1878(3) 0.3722(3) -0.1482(12) 0.175(8) Uani 1 1 d DU . .
C1 C 0.2569(3) -0.0445(4) 1.3459(9) 0.048(4) Uani 1 1 d . . .
H1 H 0.2649 -0.0607 1.3139 0.058 Uiso 1 1 calc R . .
C2 C 0.2301(3) -0.0204(4) 1.4093(8) 0.058(4) Uani 1 1 d . . .
H2 H 0.2151 -0.0159 1.4330 0.069 Uiso 1 1 calc R . .
C3 C 0.2503(3) 0.0018(4) 1.4148(9) 0.060(4) Uani 1 1 d . . .
H3 H 0.2520 0.0241 1.4410 0.072 Uiso 1 1 calc R . .
C4 C 0.2931(3) -0.0030(4) 1.3677(8) 0.045(3) Uani 1 1 d . . .
C5 C 0.3110(3) -0.0263(4) 1.3492(9) 0.063(4) Uani 1 1 d . . .
H5 H 0.3067 -0.0501 1.3412 0.075 Uiso 1 1 calc R . .
C6 C 0.3346(4) -0.0144(4) 1.3428(9) 0.065(4) Uani 1 1 d . . .
H6 H 0.3469 -0.0304 1.3289 0.078 Uiso 1 1 calc R . .
C7 C 0.3422(3) 0.0202(4) 1.3554(8) 0.054(4) Uani 1 1 d . . .
C8 C 0.3252(4) 0.0423(4) 1.3729(10) 0.073(5) Uani 1 1 d . . .
H8 H 0.3299 0.0659 1.3818 0.088 Uiso 1 1 calc R . .
C9 C 0.3001(3) 0.0315(5) 1.3787(11) 0.077(5) Uani 1 1 d . . .
H9 H 0.2878 0.0480 1.3903 0.092 Uiso 1 1 calc R . .
C10 C 0.3690(3) 0.1030(4) 0.9645(10) 0.062(4) Uani 1 1 d . . .
H10 H 0.3557 0.0863 0.9455 0.075 Uiso 1 1 calc R . .
C11 C 0.3934(3) 0.1444(4) 0.9656(10) 0.057(4) Uani 1 1 d . . .
H11 H 0.4015 0.1638 0.9452 0.069 Uiso 1 1 calc R . .
C12 C 0.3986(3) 0.1340(4) 1.0491(10) 0.064(4) Uani 1 1 d . . .
H12 H 0.4105 0.1440 1.0979 0.077 Uiso 1 1 calc R . .
C13 C 0.3791(3) 0.0855(4) 1.1236(9) 0.051(4) Uani 1 1 d . . .
C14 C 0.3560(3) 0.0706(5) 1.1237(11) 0.091(6) Uani 1 1 d . . .
H14 H 0.3424 0.0721 1.0722 0.109 Uiso 1 1 calc R . .
C15 C 0.3516(3) 0.0523(4) 1.1994(10) 0.074(5) Uani 1 1 d . . .
H15 H 0.3350 0.0426 1.1993 0.089 Uiso 1 1 calc R . .
C16 C 0.3713(3) 0.0490(4) 1.2709(9) 0.051(4) Uani 1 1 d . . .
C17 C 0.3954(3) 0.0638(5) 1.2693(10) 0.070(5) Uani 1 1 d . . .
H17 H 0.4095 0.0611 1.3190 0.084 Uiso 1 1 calc R . .
C18 C 0.3992(3) 0.0826(4) 1.1966(10) 0.070(5) Uani 1 1 d . . .
H18 H 0.4155 0.0934 1.1973 0.084 Uiso 1 1 calc R . .
C20 C 0.3883(3) 0.0161(4) 1.4892(11) 0.126(3) Uani 1 1 d GU . .
H20 H 0.3763 0.0311 1.5085 0.151 Uiso 1 1 calc R . .
C22 C 0.4060(3) -0.0031(4) 1.5507(8) 0.128(3) Uani 1 1 d GU . .
H22 H 0.4060 -0.0012 1.6122 0.153 Uiso 1 1 calc R . .
C21 C 0.4235(3) -0.0250(4) 1.5224(10) 0.129(3) Uani 1 1 d GU . .
C23 C 0.4234(3) -0.0278(4) 1.4325(11) 0.128(3) Uani 1 1 d GU . .
H23 H 0.4354 -0.0428 1.4131 0.154 Uiso 1 1 calc R . .
C24 C 0.4058(3) -0.0086(4) 1.3709(8) 0.127(3) Uani 1 1 d GU . .
H24 H 0.4057 -0.0105 1.3095 0.152 Uiso 1 1 calc R . .
C19 C 0.3882(3) 0.0133(4) 1.3993(10) 0.125(3) Uani 1 1 d GU . .
C28 C 0.1680(3) -0.1003(3) 1.0175(9) 0.050(4) Uani 1 1 d . . .
H28 H 0.1854 -0.0919 1.0276 0.060 Uiso 1 1 calc R . .
C29 C 0.1334(3) -0.1237(4) 1.0383(9) 0.065(5) Uani 1 1 d . . .
H29 H 0.1213 -0.1358 1.0649 0.078 Uiso 1 1 calc R . .
C30 C 0.1283(3) -0.1101(4) 0.9529(11) 0.071(5) Uani 1 1 d . . .
H30 H 0.1120 -0.1106 0.9117 0.085 Uiso 1 1 calc R . .
C31 C 0.1545(3) -0.0795(3) 0.8613(9) 0.048(4) Uani 1 1 d . . .
C32 C 0.1742(3) -0.0535(4) 0.8687(8) 0.059(4) Uani 1 1 d . . .
H32 H 0.1845 -0.0480 0.9254 0.071 Uiso 1 1 calc R . .
C33 C 0.1783(3) -0.0367(4) 0.7960(9) 0.058(4) Uani 1 1 d . . .
H33 H 0.1914 -0.0193 0.8017 0.070 Uiso 1 1 calc R . .
C34 C 0.1629(3) -0.0453(4) 0.7108(9) 0.053(4) Uani 1 1 d . . .
C35 C 0.1434(3) -0.0699(4) 0.7073(10) 0.078(5) Uani 1 1 d . . .
H35 H 0.1323 -0.0754 0.6518 0.094 Uiso 1 1 calc R . .
C36 C 0.1402(4) -0.0854(4) 0.7776(10) 0.084(6) Uani 1 1 d . . .
H36 H 0.1268 -0.1022 0.7711 0.101 Uiso 1 1 calc R . .
C37 C 0.2772(3) 0.0533(4) 0.6340(9) 0.050(4) Uani 1 1 d . . .
H37 H 0.2665 0.0724 0.6415 0.060 Uiso 1 1 calc R . .
C38 C 0.3096(3) 0.0218(4) 0.6173(9) 0.061(4) Uani 1 1 d . . .
H38 H 0.3264 0.0154 0.6090 0.073 Uiso 1 1 calc R . .
C39 C 0.2898(3) -0.0006(4) 0.6197(8) 0.055(4) Uani 1 1 d . . .
H39 H 0.2902 -0.0251 0.6168 0.066 Uiso 1 1 calc R . .
C40 C 0.2433(3) 0.0070(4) 0.6322(8) 0.051(4) Uani 1 1 d . . .
C41 C 0.2391(3) -0.0270(4) 0.6504(10) 0.063(4) Uani 1 1 d . . .
H41 H 0.2533 -0.0428 0.6645 0.076 Uiso 1 1 calc R . .
C42 C 0.2142(3) -0.0376(4) 0.6476(10) 0.068(5) Uani 1 1 d . . .
H42 H 0.2111 -0.0614 0.6559 0.082 Uiso 1 1 calc R . .
C43 C 0.1939(3) -0.0163(4) 0.6338(9) 0.056(4) Uani 1 1 d . . .
C44 C 0.1977(3) 0.0178(4) 0.6174(8) 0.053(4) Uani 1 1 d . . .
H44 H 0.1834 0.0334 0.6070 0.064 Uiso 1 1 calc R . .
C45 C 0.2224(3) 0.0297(4) 0.6160(9) 0.050(4) Uani 1 1 d . . .
H45 H 0.2251 0.0534 0.6039 0.060 Uiso 1 1 calc R . .
C46 C 0.0708(3) 0.0478(5) 0.3807(11) 0.065(5) Uani 1 1 d . . .
H46 H 0.0683 0.0542 0.4377 0.078 Uiso 1 1 calc R . .
C47 C 0.0663(6) 0.0440(12) 0.236(2) 0.30(3) Uani 1 1 d . . .
H47 H 0.0621 0.0486 0.1741 0.357 Uiso 1 1 calc R . .
C48 C 0.0837(6) 0.0197(9) 0.2840(19) 0.223(19) Uani 1 1 d . . .
H48 H 0.0916 0.0008 0.2606 0.268 Uiso 1 1 calc R . .
C49 C 0.1077(3) 0.0130(4) 0.4422(9) 0.056(4) Uani 1 1 d . . .
C50 C 0.1274(3) -0.0051(5) 0.4203(10) 0.084(6) Uani 1 1 d . . .
H50 H 0.1276 -0.0082 0.3594 0.100 Uiso 1 1 calc R . .
C51 C 0.1468(3) -0.0191(4) 0.4826(10) 0.069(5) Uani 1 1 d . . .
H51 H 0.1606 -0.0309 0.4636 0.082 Uiso 1 1 calc R . .
C52 C 0.1476(3) -0.0169(3) 0.5717(9) 0.048(4) Uani 1 1 d . . .
C53 C 0.1274(4) 0.0010(5) 0.5928(10) 0.093(7) Uani 1 1 d . . .
H53 H 0.1267 0.0035 0.6534 0.112 Uiso 1 1 calc R . .
C54 C 0.1072(3) 0.0163(5) 0.5259(11) 0.077(5) Uani 1 1 d . . .
H54 H 0.0935 0.0289 0.5429 0.093 Uiso 1 1 calc R . .
C55 C 0.2637(3) 0.1938(4) 0.5935(9) 0.053(4) Uani 1 1 d . . .
H55 H 0.2607 0.1743 0.5555 0.064 Uiso 1 1 calc R . .
C56 C 0.2823(3) 0.2313(4) 0.6882(8) 0.047(3) Uani 1 1 d . . .
H56 H 0.2955 0.2428 0.7302 0.056 Uiso 1 1 calc R . .
C57 C 0.2577(3) 0.2433(4) 0.6593(9) 0.054(4) Uani 1 1 d . . .
H57 H 0.2504 0.2638 0.6775 0.065 Uiso 1 1 calc R . .
C58 C 0.2195(3) 0.2207(4) 0.5520(9) 0.049(4) Uani 1 1 d . . .
C59 C 0.2058(3) 0.2510(4) 0.5330(8) 0.048(4) Uani 1 1 d . . .
H59 H 0.2142 0.2723 0.5517 0.057 Uiso 1 1 calc R . .
C60 C 0.1795(3) 0.2511(4) 0.4862(9) 0.053(4) Uani 1 1 d . . .
H60 H 0.1699 0.2721 0.4770 0.063 Uiso 1 1 calc R . .
C61 C 0.1680(3) 0.2200(4) 0.4539(8) 0.044(3) Uani 1 1 d . . .
C62 C 0.1819(3) 0.1897(4) 0.4730(10) 0.058(4) Uani 1 1 d . . .
H62 H 0.1733 0.1685 0.4542 0.070 Uiso 1 1 calc R . .
C63 C 0.2071(3) 0.1886(4) 0.5171(9) 0.062(4) Uani 1 1 d . . .
H63 H 0.2164 0.1674 0.5251 0.075 Uiso 1 1 calc R . .
C64 C 0.15457(14) 0.1458(3) 0.0435(6) 0.067(5) Uani 1 1 d G . .
H64 H 0.1722 0.1490 0.0736 0.080 Uiso 1 1 calc R . .
N16 N 0.13215(19) 0.1553(3) 0.0758(5) 0.055(3) Uani 1 1 d G . .
C66 C 0.10970(14) 0.1461(4) 0.0107(8) 0.146(11) Uani 1 1 d G . .
H66 H 0.0921 0.1495 0.0149 0.175 Uiso 1 1 calc R . .
C65 C 0.1182(2) 0.1309(4) -0.0619(7) 0.144(11) Uani 1 1 d G . .
H65 H 0.1073 0.1223 -0.1148 0.172 Uiso 1 1 calc R . .
N15 N 0.1460(2) 0.1307(3) -0.0416(6) 0.068(4) Uani 1 1 d G . .
C67 C 0.1143(2) 0.1674(4) 0.2020(8) 0.047(4) Uani 1 1 d . . .
H67 H 0.0997 0.1532 0.1784 0.056 Uiso 1 1 calc R . .
C68 C 0.1336(3) 0.1716(4) 0.1564(7) 0.048(4) Uani 1 1 d . . .
C69 C 0.1543(3) 0.1936(4) 0.1887(10) 0.063(4) Uani 1 1 d . . .
H69 H 0.1668 0.1986 0.1542 0.076 Uiso 1 1 calc R . .
C70 C 0.1564(3) 0.2079(3) 0.2699(9) 0.056(4) Uani 1 1 d . . .
H70 H 0.1716 0.2209 0.2931 0.067 Uiso 1 1 calc R . .
C71 C 0.1380(3) 0.2050(3) 0.3215(9) 0.045(3) Uani 1 1 d . . .
C72 C 0.1158(3) 0.1839(4) 0.2831(8) 0.048(4) Uani 1 1 d . . .
H72 H 0.1020 0.1813 0.3136 0.058 Uiso 1 1 calc R . .
C73 C 0.0500(3) 0.2798(5) 0.5894(10) 0.071(5) Uani 1 1 d . . .
H73 H 0.0524 0.299