####################################################################### 
# 
# This file contains crystal structure data downloaded from the 
# Cambridge Structural Database (CSD) hosted by the Cambridge 
# Crystallographic Data Centre (CCDC).
# 
# Full information about CCDC data access policies and citation 
# guidelines are available at http://www.ccdc.cam.ac.uk/access/V1 
# 
# Audit and citation data items may have been added by the CCDC. 
# Please retain this information to preserve the provenance of 
# this file and to allow appropriate attribution of the data. 
# 
#######################################################################

data_Gd-pDBI
_audit_block_doi                 10.5517/cc11q5db
_database_code_depnum_ccdc_archive 'CCDC 974621'
loop_
_citation_id
_citation_doi
_citation_year
1 10.1002/chem.201402244 2014
_audit_update_record             
;
2013-12-01 deposited with the CCDC.	2024-07-12 downloaded from the CCDC.
;
_audit_creation_method           SHELXL-97
_chemical_name_systematic        
; 
 ? 
;
_chemical_name_common            Gd-pDBI
_chemical_melting_point          ?
_chemical_formula_moiety         '2(C36 H30 Gd N7 O8), O2, 13(O), 8(H2 O)'
_chemical_formula_sum            'C72 H86 Gd2 N14 O29'
_chemical_formula_weight         1926.04

loop_
_atom_type_symbol
_atom_type_description
_atom_type_scat_dispersion_real
_atom_type_scat_dispersion_imag
_atom_type_scat_source
C C 0.0033 0.0016 'International Tables Vol C Tables 4.2.6.8 and 6.1.1.4'
Gd Gd -0.1653 3.9035 'International Tables Vol C Tables 4.2.6.8 and 6.1.1.4'
N N 0.0061 0.0033 'International Tables Vol C Tables 4.2.6.8 and 6.1.1.4'
O O 0.0106 0.0060 'International Tables Vol C Tables 4.2.6.8 and 6.1.1.4'
H H 0.0000 0.0000 'International Tables Vol C Tables 4.2.6.8 and 6.1.1.4'

_symmetry_cell_setting           monoclinic
_symmetry_space_group_name_H-M   P2/c

loop_
_symmetry_equiv_pos_as_xyz
'x, y, z'
'-x, y, -z+1/2'
'-x, -y, -z'
'x, -y, z-1/2'

_cell_length_a                   8.2096(16)
_cell_length_b                   14.998(3)
_cell_length_c                   37.652(7)
_cell_angle_alpha                90.00
_cell_angle_beta                 101.710(4)
_cell_angle_gamma                90.00
_cell_volume                     4539.5(15)
_cell_formula_units_Z            2
_cell_measurement_temperature    100(2)
_cell_measurement_reflns_used    ?
_cell_measurement_theta_min      1.75
_cell_measurement_theta_max      28.26

_exptl_crystal_description       rod
_exptl_crystal_colour            yellow
_exptl_crystal_size_max          0.5
_exptl_crystal_size_mid          0.2
_exptl_crystal_size_min          0.2
_exptl_crystal_density_meas      ?
_exptl_crystal_density_diffrn    1.519
_exptl_crystal_density_method    'not measured'
_exptl_crystal_F_000             2092
_exptl_absorpt_coefficient_mu    1.543
_exptl_absorpt_correction_type   multi-scan
_exptl_absorpt_correction_T_min  0.697
_exptl_absorpt_correction_T_max  0.734
_exptl_absorpt_process_details   'Blessing, Acta Cryst. (1995) A51 33-38'

_exptl_special_details           
; 
 ? 
;

_diffrn_ambient_temperature      100(2)
_diffrn_radiation_wavelength     0.71073
_diffrn_radiation_type           MoK\a
_diffrn_radiation_source         'fine-focus sealed tube'
_diffrn_radiation_monochromator  graphite
_diffrn_measurement_device_type  'CCD area detector'
_diffrn_measurement_method       'phi and omega scans'
_diffrn_detector_area_resol_mean ?
_diffrn_standards_number         ?
_diffrn_standards_interval_count ?
_diffrn_standards_interval_time  ?
_diffrn_standards_decay_%        ?
_diffrn_reflns_number            51437
_diffrn_reflns_av_R_equivalents  0.0984
_diffrn_reflns_av_sigmaI/netI    0.0726
_diffrn_reflns_limit_h_min       -10
_diffrn_reflns_limit_h_max       10
_diffrn_reflns_limit_k_min       -19
_diffrn_reflns_limit_k_max       19
_diffrn_reflns_limit_l_min       -50
_diffrn_reflns_limit_l_max       47
_diffrn_reflns_theta_min         1.75
_diffrn_reflns_theta_max         28.26
_reflns_number_total             11237
_reflns_number_gt                9351
_reflns_threshold_expression     >2sigma(I)

_computing_data_collection       'Bruker SMART'
_computing_cell_refinement       'Bruker SMART'
_computing_data_reduction        'Bruker SAINT'
_computing_structure_solution    'SHELXS-97 (Sheldrick, 1990)'
_computing_structure_refinement  'SHELXL-97 (Sheldrick, 1997)'
_computing_molecular_graphics    'Bruker SHELXTL'
_computing_publication_material  'Bruker SHELXTL'

_refine_special_details          
; 
 Refinement of F^2^ against ALL reflections.  The weighted R-factor wR and 
 goodness of fit S are based on F^2^, conventional R-factors R are based 
 on F, with F set to zero for negative F^2^. The threshold expression of 
 F^2^ > 2sigma(F^2^) is used only for calculating R-factors(gt) etc. and is 
 not relevant to the choice of reflections for refinement.  R-factors based 
 on F^2^ are statistically about twice as large as those based on F, and R- 
 factors based on ALL data will be even larger. 
;

_refine_ls_structure_factor_coef Fsqd
_refine_ls_matrix_type           full
_refine_ls_weighting_scheme      calc
_refine_ls_weighting_details     
'calc w=1/[\s^2^(Fo^2^)+(0.0437P)^2^+22.8293P] where P=(Fo^2^+2Fc^2^)/3'
_atom_sites_solution_primary     direct
_atom_sites_solution_secondary   difmap
_atom_sites_solution_hydrogens   geom
_refine_ls_hydrogen_treatment    mixed
_refine_ls_extinction_method     none
_refine_ls_extinction_coef       ?
_refine_ls_number_reflns         10704
_refine_ls_number_parameters     550
_refine_ls_number_restraints     0
_refine_ls_R_factor_all          0.0871
_refine_ls_R_factor_gt           0.0730
_refine_ls_wR_factor_ref         0.1611
_refine_ls_wR_factor_gt          0.1558
_refine_ls_goodness_of_fit_ref   1.256
_refine_ls_restrained_S_all      1.256
_refine_ls_shift/su_max          0.002
_refine_ls_shift/su_mean         0.000

loop_
_atom_site_label
_atom_site_type_symbol
_atom_site_fract_x
_atom_site_fract_y
_atom_site_fract_z
_atom_site_U_iso_or_equiv
_atom_site_adp_type
_atom_site_occupancy
_atom_site_symmetry_multiplicity
_atom_site_calc_flag
_atom_site_refinement_flags
_atom_site_disorder_assembly
_atom_site_disorder_group
Gd1 Gd 0.67867(3) 0.09808(2) 0.513217(8) 0.01661(10) Uani 1 1 d . . .
O5 O 0.8476(5) 0.0879(3) 0.46552(12) 0.0224(9) Uani 1 1 d . . .
O3 O 0.6085(5) 0.2391(3) 0.54427(13) 0.0264(10) Uani 1 1 d . . .
O6 O 0.7306(5) 0.2179(3) 0.47208(11) 0.0211(9) Uani 1 1 d . . .
O4 O 0.4112(5) 0.1708(3) 0.50581(13) 0.0269(10) Uani 1 1 d . . .
O7 O 0.8220(5) -0.0428(3) 0.52055(13) 0.0254(10) Uani 1 1 d . . .
H7A H 0.8724 -0.0490 0.5427 0.038 Uiso 1 1 d R . .
H7B H 0.7519 -0.0855 0.5149 0.038 Uiso 1 1 d R . .
O2 O 0.6635(6) 0.0581(3) 0.57720(12) 0.0293(11) Uani 1 1 d . . .
O8 O 0.9373(6) 0.1414(4) 0.54567(14) 0.0336(11) Uani 1 1 d . . .
C4 C 0.4553(8) -0.0993(5) 0.65223(17) 0.0298(15) Uani 1 1 d . . .
C23 C 0.4567(7) 0.2336(4) 0.52811(17) 0.0208(13) Uani 1 1 d . . .
C17 C 0.0079(7) -0.1841(4) 0.87352(17) 0.0229(13) Uani 1 1 d . . .
N4 N 0.0675(7) -0.1466(4) 0.84568(14) 0.0264(12) Uani 1 1 d . . .
H4 H 0.0789 -0.0904 0.8422 0.032 Uiso 1 1 calc R . .
C2 C 0.5449(8) -0.0734(5) 0.59712(16) 0.0228(13) Uani 1 1 d . . .
N3 N 0.0718(7) -0.2920(4) 0.83726(15) 0.0317(13) Uani 1 1 d . . .
H3 H 0.0862 -0.3431 0.8280 0.038 Uiso 1 1 calc R . .
C19 C -0.1101(8) -0.2061(4) 0.92539(17) 0.0227(13) Uani 1 1 d . . .
C3 C 0.5034(8) -0.0394(5) 0.62815(18) 0.0284(15) Uani 1 1 d . . .
H3A H 0.5075 0.0216 0.6328 0.034 Uiso 1 1 calc R . .
C5 C 0.4598(8) -0.1911(5) 0.64603(17) 0.0249(14) Uani 1 1 d . . .
N2 N 0.3948(7) -0.0834(4) 0.68299(15) 0.0307(13) Uani 1 1 d . . .
H2 H 0.3802 -0.0324 0.6922 0.037 Uiso 1 1 calc R . .
C12 C 0.1704(8) -0.1995(5) 0.79152(17) 0.0278(15) Uani 1 1 d . . .
C16 C 0.0103(8) -0.2761(5) 0.86780(18) 0.0271(14) Uani 1 1 d . . .
C20 C -0.1084(9) -0.2982(5) 0.91963(19) 0.0313(16) Uani 1 1 d . . .
H20 H -0.1497 -0.3359 0.9353 0.038 Uiso 1 1 calc R . .
N1 N 0.4025(7) -0.2295(4) 0.67453(14) 0.0297(13) Uani 1 1 d . . .
H1 H 0.3932 -0.2856 0.6783 0.036 Uiso 1 1 calc R . .
C8 C 0.3636(8) -0.1620(6) 0.69547(19) 0.0329(17) Uani 1 1 d . . .
C18 C -0.0498(7) -0.1469(4) 0.90250(16) 0.0207(13) Uani 1 1 d . . .
H18 H -0.0483 -0.0857 0.9064 0.025 Uiso 1 1 calc R . .
C10 C 0.2574(10) -0.1037(6) 0.7475(2) 0.0399(18) Uani 1 1 d . . .
H10 H 0.2741 -0.0465 0.7394 0.048 Uiso 1 1 calc R . .
C6 C 0.5119(8) -0.2265(5) 0.61613(17) 0.0260(14) Uani 1 1 d . . .
H6 H 0.5200 -0.2877 0.6129 0.031 Uiso 1 1 calc R . .
C15 C 0.1048(8) -0.2126(5) 0.82485(18) 0.0286(15) Uani 1 1 d . . .
C7 C 0.5512(7) -0.1660(4) 0.59124(17) 0.0223(13) Uani 1 1 d . . .
H7 H 0.5823 -0.1870 0.5703 0.027 Uiso 1 1 calc R . .
C9 C 0.2952(8) -0.1768(5) 0.72830(17) 0.0300(16) Uani 1 1 d . . .
C14 C 0.2704(10) -0.2620(6) 0.74066(19) 0.0375(18) Uani 1 1 d . . .
H14 H 0.2939 -0.3117 0.7278 0.045 Uiso 1 1 calc R . .
C21 C -0.0471(10) -0.3349(5) 0.8913(2) 0.0363(17) Uani 1 1 d . . .
H21 H -0.0442 -0.3962 0.8880 0.044 Uiso 1 1 calc R . .
C11 C 0.1943(10) -0.1152(5) 0.7790(2) 0.0365(18) Uani 1 1 d . . .
H11 H 0.1684 -0.0656 0.7916 0.044 Uiso 1 1 calc R . .
C13 C 0.2103(10) -0.2721(6) 0.7723(2) 0.0385(18) Uani 1 1 d . . .
H13 H 0.1965 -0.3293 0.7807 0.046 Uiso 1 1 calc R . .
O1 O 0.5058(5) -0.0234(3) 0.53511(11) 0.0204(9) Uani 1 1 d . . .
C29 C 0.1700(8) 0.2919(4) 0.51508(18) 0.0239(13) Uani 1 1 d . . .
H29 H 0.1405 0.2475 0.4977 0.029 Uiso 1 1 calc R . .
C24 C 0.3314(8) 0.2994(4) 0.53504(17) 0.0220(13) Uani 1 1 d . . .
N5 N -0.0476(6) 0.4732(4) 0.54740(16) 0.0264(12) Uani 1 1 d . . .
H5 H -0.0561 0.5196 0.5603 0.032 Uiso 1 1 calc R . .
N6 N -0.1107(6) 0.3636(4) 0.50731(15) 0.0220(11) Uani 1 1 d . . .
H6A H -0.1693 0.3307 0.4908 0.026 Uiso 1 1 calc R . .
C30 C -0.1653(8) 0.4351(4) 0.52337(17) 0.0222(13) Uani 1 1 d . . .
C27 C 0.0943(8) 0.4221(4) 0.54746(19) 0.0230(13) Uani 1 1 d . . .
C1 C 0.5741(7) -0.0103(5) 0.56872(16) 0.0220(13) Uani 1 1 d . . .
C22 C 0.8206(7) 0.1683(4) 0.45590(15) 0.0175(12) Uani 1 1 d . . .
C28 C 0.0551(7) 0.3532(4) 0.52207(18) 0.0219(13) Uani 1 1 d . . .
N7 N 1.1199(8) 0.1855(5) 0.59519(19) 0.0441(17) Uani 1 1 d . . .
C25 C 0.3740(8) 0.3685(5) 0.56088(19) 0.0264(14) Uani 1 1 d . . .
H25 H 0.4832 0.3727 0.5737 0.032 Uiso 1 1 calc R . .
C26 C 0.2579(8) 0.4304(5) 0.56766(19) 0.0292(15) Uani 1 1 d . . .
H26 H 0.2871 0.4753 0.5848 0.035 Uiso 1 1 calc R . .
C1A C 0.9803(9) 0.1935(6) 0.5715(2) 0.042(2) Uani 1 1 d . . .
H1A H 0.9099 0.2406 0.5741 0.051 Uiso 1 1 calc R . .
C31 C -0.3380(7) 0.4693(4) 0.51169(16) 0.0186(12) Uani 1 1 d . . .
C33 C -0.4499(8) 0.4232(4) 0.48477(18) 0.0224(13) Uani 1 1 d . . .
H33 H -0.4161 0.3713 0.4749 0.027 Uiso 1 1 calc R . .
C32 C -0.3885(8) 0.5452(4) 0.52721(18) 0.0243(14) Uani 1 1 d . . .
H32 H -0.3154 0.5750 0.5455 0.029 Uiso 1 1 calc R . .
C1B C 1.1607(16) 0.2492(10) 0.6257(3) 0.091(4) Uani 1 1 d . . .
H1BA H 1.0860 0.2991 0.6213 0.136 Uiso 1 1 calc R . .
H1BB H 1.2730 0.2697 0.6278 0.136 Uiso 1 1 calc R . .
H1BC H 1.1497 0.2202 0.6478 0.136 Uiso 1 1 calc R . .
C1C C 1.2335(13) 0.1174(9) 0.5933(4) 0.086(4) Uani 1 1 d . . .
H1CA H 1.2305 0.0746 0.6121 0.129 Uiso 1 1 calc R . .
H1CB H 1.3434 0.1420 0.5964 0.129 Uiso 1 1 calc R . .
H1CC H 1.2050 0.0886 0.5701 0.129 Uiso 1 1 calc R . .
O13 O -0.0996(9) 0.0412(5) 0.6468(2) 0.0652(19) Uiso 1 1 d G . .
H13A H -0.1433 0.0342 0.6245 0.098 Uiso 1 1 d G . .
H13B H -0.1753 0.0509 0.6587 0.098 Uiso 1 1 d G . .
O9 O 0.4116(13) -0.4160(5) 0.6814(3) 0.090(3) Uani 1 1 d G . .
H9A H 0.3112 -0.4338 0.6779 0.135 Uiso 1 1 d G . .
H9B H 0.4873 -0.4552 0.6825 0.135 Uiso 1 1 d G . .
O12 O -0.1468(12) 0.4383(7) 0.6188(2) 0.085(2) Uani 1 1 d G . .
H12A H -0.1790 0.4412 0.5959 0.128 Uiso 1 1 d G . .
H12B H -0.0411 0.4372 0.6241 0.128 Uiso 1 1 d G . .
O10 O 0.7006(13) 0.2685(10) 0.6223(3) 0.120(4) Uani 1 1 d G . .
H10A H 0.7938 0.2694 0.6157 0.179 Uiso 1 1 d G . .
H10B H 0.7144 0.2827 0.6445 0.179 Uiso 1 1 d G . .
O11 O 0.434(2) 0.0880(7) 0.7106(3) 0.154(6) Uani 1 1 d . . .
O14 O 0.301(2) 0.1615(13) 0.8170(5) 0.220(7) Uiso 1 1 d . . .
O15 O -0.307(3) 0.5594(16) 0.6510(6) 0.261(9) Uiso 1 1 d . . .
O16 O 0.5000 -0.487(3) 0.7500 0.36(2) Uiso 1 2 d S . .
O17 O 0.177(4) -0.549(2) 0.6661(8) 0.340(14) Uiso 1 1 d . . .
O18 O -0.019(3) -0.4652(19) 0.8114(8) 0.319(12) Uiso 1 1 d . . .
O19 O 0.096(5) -0.544(3) 0.7531(17) 0.57(3) Uiso 1 1 d . . .
O1A O 1.112(5) 0.137(3) 0.7064(12) 0.51(2) Uiso 1 1 d . . .

loop_
_atom_site_aniso_label
_atom_site_aniso_U_11
_atom_site_aniso_U_22
_atom_site_aniso_U_33
_atom_site_aniso_U_23
_atom_site_aniso_U_13
_atom_site_aniso_U_12
Gd1 0.01176(14) 0.02059(16) 0.01876(15) 0.00061(13) 0.00616(10) 0.00354(12)
O5 0.024(2) 0.019(2) 0.027(2) -0.0009(18) 0.0109(18) 0.0039(18)
O3 0.017(2) 0.031(3) 0.030(2) 0.001(2) 0.0026(19) 0.0056(19)
O6 0.022(2) 0.021(2) 0.022(2) -0.0048(18) 0.0100(18) -0.0006(18)
O4 0.014(2) 0.024(2) 0.043(3) -0.009(2) 0.0066(19) 0.0080(18)
O7 0.019(2) 0.025(2) 0.032(3) 0.001(2) 0.0039(19) 0.0037(18)
O2 0.038(3) 0.031(3) 0.021(2) 0.000(2) 0.009(2) -0.010(2)
O8 0.024(3) 0.040(3) 0.035(3) -0.003(2) 0.003(2) -0.004(2)
C4 0.027(3) 0.046(4) 0.017(3) 0.004(3) 0.008(3) -0.001(3)
C23 0.016(3) 0.025(3) 0.022(3) 0.007(3) 0.007(2) 0.007(2)
C17 0.016(3) 0.030(4) 0.022(3) 0.006(3) 0.003(2) 0.002(3)
N4 0.028(3) 0.033(3) 0.020(3) 0.002(2) 0.009(2) -0.006(2)
C2 0.020(3) 0.033(4) 0.015(3) 0.001(3) 0.002(2) -0.002(3)
N3 0.040(3) 0.037(3) 0.022(3) -0.005(3) 0.015(3) -0.001(3)
C19 0.021(3) 0.029(3) 0.020(3) 0.004(3) 0.007(2) -0.004(3)
C3 0.029(4) 0.036(4) 0.021(3) -0.002(3) 0.007(3) 0.000(3)
C5 0.020(3) 0.035(4) 0.019(3) 0.005(3) 0.003(2) -0.001(3)
N2 0.038(3) 0.038(4) 0.018(3) 0.001(2) 0.011(2) -0.001(3)
C12 0.020(3) 0.047(4) 0.016(3) 0.001(3) 0.003(2) -0.002(3)
C16 0.028(3) 0.034(4) 0.021(3) -0.001(3) 0.010(3) 0.001(3)
C20 0.041(4) 0.025(4) 0.032(4) 0.006(3) 0.018(3) -0.002(3)
N1 0.028(3) 0.044(4) 0.018(3) 0.008(2) 0.007(2) -0.002(3)
C8 0.023(3) 0.055(5) 0.022(3) 0.004(3) 0.007(3) -0.002(3)
C18 0.019(3) 0.026(3) 0.017(3) 0.003(2) 0.003(2) -0.002(2)
C10 0.046(5) 0.047(5) 0.031(4) 0.007(4) 0.017(3) -0.009(4)
C6 0.029(3) 0.027(4) 0.022(3) -0.001(3) 0.007(3) 0.001(3)
C15 0.020(3) 0.044(4) 0.022(3) 0.000(3) 0.007(3) -0.001(3)
C7 0.020(3) 0.030(4) 0.018(3) -0.001(3) 0.006(2) 0.004(3)
C9 0.023(3) 0.051(5) 0.016(3) 0.003(3) 0.004(3) -0.002(3)
C14 0.043(4) 0.049(5) 0.025(4) -0.001(3) 0.016(3) 0.000(4)
C21 0.051(5) 0.029(4) 0.033(4) -0.001(3) 0.020(4) 0.002(3)
C11 0.041(4) 0.043(5) 0.030(4) -0.002(3) 0.018(3) -0.004(3)
C13 0.044(4) 0.047(5) 0.029(4) 0.004(3) 0.017(3) -0.002(4)
O1 0.016(2) 0.030(2) 0.017(2) 0.0024(18) 0.0058(16) 0.0004(18)
C29 0.020(3) 0.026(3) 0.028(3) -0.003(3) 0.008(3) 0.003(3)
C24 0.020(3) 0.019(3) 0.028(3) -0.002(3) 0.008(3) -0.001(2)
N5 0.021(3) 0.025(3) 0.034(3) -0.008(2) 0.007(2) 0.009(2)
N6 0.012(2) 0.026(3) 0.027(3) -0.003(2) 0.004(2) 0.005(2)
C30 0.021(3) 0.023(3) 0.024(3) 0.000(3) 0.009(3) 0.005(3)
C27 0.022(3) 0.014(3) 0.035(4) -0.004(3) 0.010(3) 0.006(2)
C1 0.015(3) 0.034(4) 0.019(3) -0.002(3) 0.008(2) 0.008(3)
C22 0.012(3) 0.026(3) 0.015(3) -0.003(2) 0.005(2) 0.004(2)
C28 0.017(3) 0.021(3) 0.029(3) 0.003(3) 0.009(3) 0.004(2)
N7 0.032(3) 0.052(4) 0.041(4) 0.004(3) -0.009(3) -0.003(3)
C25 0.014(3) 0.031(4) 0.033(4) -0.002(3) 0.000(3) 0.003(3)
C26 0.021(3) 0.031(4) 0.034(4) -0.008(3) 0.003(3) 0.005(3)
C1A 0.029(4) 0.053(5) 0.045(5) 0.013(4) 0.006(3) 0.000(4)
C31 0.007(3) 0.029(3) 0.019(3) 0.004(3) 0.003(2) 0.009(2)
C33 0.026(3) 0.017(3) 0.027(3) -0.001(2) 0.011(3) 0.007(2)
C32 0.023(3) 0.024(3) 0.027(3) -0.008(3) 0.007(3) 0.004(3)
C1B 0.086(9) 0.125(12) 0.056(7) -0.014(7) 0.001(6) -0.030(8)
C1C 0.046(6) 0.097(10) 0.101(10) 0.024(8) -0.016(6) 0.010(6)
O9 0.113(7) 0.061(5) 0.101(7) 0.002(5) 0.033(7) 0.006(5)
O12 0.104(7) 0.090(6) 0.065(5) -0.010(5) 0.024(5) 0.010(6)
O10 0.115(8) 0.151(10) 0.082(7) -0.022(7) -0.005(6) 0.015(8)
O11 0.296(18) 0.093(8) 0.093(8) 0.003(6) 0.083(10) 0.015(9)

_geom_special_details            
; 
 All esds (except the esd in the dihedral angle between two l.s. planes) 
 are estimated using the full covariance matrix.  The cell esds are taken 
 into account individually in the estimation of esds in distances, angles 
 and torsion angles; correlations between esds in cell parameters are only 
 used when they are defined by crystal symmetry.  An approximate (isotropic) 
 treatment of cell esds is used for estimating esds involving l.s. planes. 
;

loop_
_geom_bond_atom_site_label_1
_geom_bond_atom_site_label_2
_geom_bond_distance
_geom_bond_site_symmetry_2
_geom_bond_publ_flag
Gd1 O8 2.317(5) . ?
Gd1 O1 2.396(4) 3_656 ?
Gd1 O7 2.406(4) . ?
Gd1 O4 2.417(4) . ?
Gd1 O6 2.465(4) . ?
Gd1 O5 2.486(4) . ?
Gd1 O2 2.510(4) . ?
Gd1 O3 2.539(5) . ?
Gd1 O1 2.547(4) . ?
O5 C22 1.266(7) . ?
O3 C23 1.274(7) . ?
O6 C22 1.285(7) . ?
O4 C23 1.265(8) . ?
O7 H7A 0.8583 . ?
O7 H7B 0.8589 . ?
O2 C1 1.265(8) . ?
O8 C1A 1.241(10) . ?
C4 N2 1.371(8) . ?
C4 C3 1.389(10) . ?
C4 C5 1.399(10) . ?
C23 C24 1.486(8) . ?
C17 N4 1.365(8) . ?
C17 C18 1.392(9) . ?
C17 C16 1.396(10) . ?
N4 C15 1.337(9) . ?
N4 H4 0.8600 . ?
C2 C3 1.380(9) . ?
C2 C7 1.408(9) . ?
C2 C1 1.484(9) . ?
N3 C15 1.3