
#######################################################################
#
#                 Cambridge Crystallographic Data Centre
#                                CCDC
#
#######################################################################
#
# If this CIF has been generated from an entry in the Cambridge
# Structural Database, then it will include bibliographic, chemical,
# crystal, experimental, refinement or atomic coordinate data resulting
# from the CCDC's data processing and validation procedures.
#
#######################################################################

data_CSD_CIF_PORPIN01
_audit_creation_date 1972-10-09
_audit_creation_method CSD-ConQuest-V1
_database_code_CSD PORPIN01
_database_code_depnum_ccdc_archive 'CCDC 1237097'
_chemical_formula_sum 'C20 H14 N4'
_chemical_formula_moiety
;
C20 H14 N4
;
_journal_coden_Cambridge 4
_journal_volume 94
_journal_year 1972
_journal_page_first 4144
_journal_name_full 'J.Am.Chem.Soc. '
loop_
_publ_author_name
"B.M.L.Chen"
"A.Tulinsky"
_chemical_name_systematic
;
Porphine
;
_chemical_name_common
;
Porphyrin; Teaching Subset: Fundamental Chemistry, Symmetry
;
_cell_volume   1500.446
_diffrn_ambient_temperature ?
_diffrn_special_details
;
The study was carried out at room temperature,in the range 283-303K

;
#These two values have been output from a single CSD field.
_refine_ls_R_factor_gt 0.059
_refine_ls_wR_factor_gt 0.059
_symmetry_cell_setting monoclinic
_symmetry_space_group_name_H-M 'P 21/c'
_symmetry_Int_Tables_number 14
loop_
_symmetry_equiv_pos_site_id
_symmetry_equiv_pos_as_xyz
1 x,y,z
2 -x,1/2+y,1/2-z
3 -x,-y,-z
4 x,-1/2-y,-1/2+z
_cell_length_a 10.271(3)
_cell_length_b 12.089(3)
_cell_length_c 12.362(4)
_cell_angle_alpha 90
_cell_angle_beta 102.17(2)
_cell_angle_gamma 90
_cell_formula_units_Z 4
loop_
_atom_type_symbol
_atom_type_radius_bond
C 0.68
H 0.20
N 0.68
loop_
_atom_site_label
_atom_site_type_symbol
_atom_site_fract_x
_atom_site_fract_y
_atom_site_fract_z
C1 C -0.31130 -0.05240 0.30220
C2 C 0.31200 -0.11740 0.47080
C3 C 0.25280 -0.20460 0.51440
C4 C 0.32570 -0.29090 0.58550
C5 C 0.23290 -0.35950 0.60980
C6 C 0.10360 -0.31760 0.55800
C7 C -0.01730 -0.36430 0.56250
C8 C -0.14240 -0.32590 0.51410
C9 C -0.26610 -0.37690 0.51970
C10 C -0.36610 -0.31370 0.45900
C11 C -0.30470 -0.22320 0.41380
C12 C -0.38250 0.03590 0.23430
C13 C -0.37000 -0.14030 0.34400
C14 C -0.29040 0.10680 0.21230
C15 C -0.16130 0.06280 0.26470
C16 C -0.04180 0.11210 0.26120
C17 C 0.08460 0.07430 0.30820
C18 C 0.20880 0.12440 0.30300
C19 C 0.30770 0.05980 0.36090
C20 C 0.24750 -0.03280 0.40450
H1 H 0.04830 -0.06250 0.38080
H2 H 0.25650 -0.42380 0.67020
H3 H -0.01510 -0.43270 0.61970
H4 H -0.28670 -0.44350 0.56630
H5 H -0.47840 -0.32770 0.43970
H6 H -0.48480 -0.15350 0.33040
H7 H -0.10670 -0.18670 0.44000
H8 H -0.48510 0.03580 0.21080
H9 H -0.29450 0.17510 0.16320
H10 H -0.03860 0.17630 0.21870
H11 H 0.21490 0.19020 0.26750
H12 H 0.41330 0.06340 0.37050
H13 H 0.42400 -0.11400 0.48470
H14 H 0.43630 -0.28320 0.60840
N1 N -0.17570 -0.03300 0.31910
N2 N 0.11160 -0.01990 0.37180
N3 N 0.11830 -0.22260 0.49850
N4 N -0.16820 -0.23280 0.44800
#END
