####################################################################### 
# 
# This file contains crystal structure data downloaded from the 
# Cambridge Structural Database (CSD) hosted by the Cambridge 
# Crystallographic Data Centre (CCDC).
# 
# Full information about CCDC data access policies and citation 
# guidelines are available at http://www.ccdc.cam.ac.uk/access/V1 
# 
# Audit and citation data items may have been added by the CCDC. 
# Please retain this information to preserve the provenance of 
# this file and to allow appropriate attribution of the data. 
# 
#######################################################################

data_Zn(SDC)(bpy)
_audit_block_doi                 10.5517/ccqk5q4
_database_code_depnum_ccdc_archive 'CCDC 671916'
loop_
_citation_id
_citation_doi
_citation_year
1 10.1016/j.ica.2008.07.030 2009
_audit_update_record             
;
2007-12-25 deposited with the CCDC.	2024-07-12 downloaded from the CCDC.
;

_audit_creation_method           SHELXL-97
_chemical_name_systematic        
;
?
;
_chemical_name_common            ?
_chemical_melting_point          ?
_chemical_formula_moiety         ?
_chemical_formula_sum            'C64 H64 N8 O12 Zn2'
_chemical_formula_weight         1268.01

loop_
_atom_type_symbol
_atom_type_description
_atom_type_scat_dispersion_real
_atom_type_scat_dispersion_imag
_atom_type_scat_source
C C 0.0033 0.0016 'International Tables Vol C Tables 4.2.6.8 and 6.1.1.4'
H H 0.0000 0.0000 'International Tables Vol C Tables 4.2.6.8 and 6.1.1.4'
N N 0.0061 0.0033 'International Tables Vol C Tables 4.2.6.8 and 6.1.1.4'
O O 0.0106 0.0060 'International Tables Vol C Tables 4.2.6.8 and 6.1.1.4'
Zn Zn 0.2839 1.4301 'International Tables Vol C Tables 4.2.6.8 and 6.1.1.4'

_symmetry_cell_setting           Monoclinic
_symmetry_space_group_name_H-M   C2/c

loop_
_symmetry_equiv_pos_as_xyz
'x, y, z'
'-x, y, -z+1/2'
'x+1/2, y+1/2, z'
'-x+1/2, y+1/2, -z+1/2'
'-x, -y, -z'
'x, -y, z-1/2'
'-x+1/2, -y+1/2, -z'
'x+1/2, -y+1/2, z-1/2'

_cell_length_a                   28.738(3)
_cell_length_b                   6.2226(8)
_cell_length_c                   17.5045(17)
_cell_angle_alpha                90.00
_cell_angle_beta                 102.521(2)
_cell_angle_gamma                90.00
_cell_volume                     3055.8(6)
_cell_formula_units_Z            2
_cell_measurement_temperature    298(2)
_cell_measurement_reflns_used    ?
_cell_measurement_theta_min      ?
_cell_measurement_theta_max      ?

_exptl_crystal_description       ?
_exptl_crystal_colour            ?
_exptl_crystal_size_max          0.15
_exptl_crystal_size_mid          0.47
_exptl_crystal_size_min          0.49
_exptl_crystal_density_meas      ?
_exptl_crystal_density_diffrn    1.378
_exptl_crystal_density_method    'not measured'
_exptl_crystal_F_000             1320
_exptl_absorpt_coefficient_mu    0.854
_exptl_absorpt_correction_type   none
_exptl_absorpt_correction_T_min  ?
_exptl_absorpt_correction_T_max  ?
_exptl_absorpt_process_details   ?

_exptl_special_details           
;
?
;

_diffrn_ambient_temperature      298(2)
_diffrn_radiation_wavelength     0.71073
_diffrn_radiation_type           MoK\a
_diffrn_radiation_source         'fine-focus sealed tube'
_diffrn_radiation_monochromator  graphite
_diffrn_measurement_device_type  'CCD area detector'
_diffrn_measurement_method       'phi and omega scans'
_diffrn_detector_area_resol_mean ?
_diffrn_standards_number         ?
_diffrn_standards_interval_count ?
_diffrn_standards_interval_time  ?
_diffrn_standards_decay_%        ?
_diffrn_reflns_number            7152
_diffrn_reflns_av_R_equivalents  0.0754
_diffrn_reflns_av_sigmaI/netI    0.0728
_diffrn_reflns_limit_h_min       -34
_diffrn_reflns_limit_h_max       22
_diffrn_reflns_limit_k_min       -7
_diffrn_reflns_limit_k_max       7
_diffrn_reflns_limit_l_min       -20
_diffrn_reflns_limit_l_max       20
_diffrn_reflns_theta_min         1.45
_diffrn_reflns_theta_max         25.01
_reflns_number_total             2619
_reflns_number_gt                2058
_reflns_threshold_expression     >2sigma(I)

_computing_data_collection       'Bruker SMART'
_computing_cell_refinement       'Bruker SMART'
_computing_data_reduction        'Bruker SHELXTL'
_computing_structure_solution    'SHELXS-97 (Sheldrick, 1990)'
_computing_structure_refinement  'SHELXL-97 (Sheldrick, 1997)'
_computing_molecular_graphics    'Bruker SHELXTL'
_computing_publication_material  'Bruker SHELXTL'

_refine_special_details          
;
Refinement of F^2^ against ALL reflections. The weighted R-factor wR and
goodness of fit S are based on F^2^, conventional R-factors R are based
on F, with F set to zero for negative F^2^. The threshold expression of
F^2^ > 2sigma(F^2^) is used only for calculating R-factors(gt) etc. and is
not relevant to the choice of reflections for refinement. R-factors based
on F^2^ are statistically about twice as large as those based on F, and R-
factors based on ALL data will be even larger.
;

_refine_ls_structure_factor_coef Fsqd
_refine_ls_matrix_type           full
_refine_ls_weighting_scheme      calc
_refine_ls_weighting_details     
'calc w=1/[\s^2^(Fo^2^)+(0.1715P)^2^+18.3166P] where P=(Fo^2^+2Fc^2^)/3'
_atom_sites_solution_primary     direct
_atom_sites_solution_secondary   difmap
_atom_sites_solution_hydrogens   geom
_refine_ls_hydrogen_treatment    mixed
_refine_ls_extinction_method     none
_refine_ls_extinction_coef       ?
_refine_ls_number_reflns         2619
_refine_ls_number_parameters     195
_refine_ls_number_restraints     154
_refine_ls_R_factor_all          0.1193
_refine_ls_R_factor_gt           0.0991
_refine_ls_wR_factor_ref         0.2744
_refine_ls_wR_factor_gt          0.2567
_refine_ls_goodness_of_fit_ref   1.031
_refine_ls_restrained_S_all      1.036
_refine_ls_shift/su_max          0.000
_refine_ls_shift/su_mean         0.000

loop_
_atom_site_label
_atom_site_type_symbol
_atom_site_fract_x
_atom_site_fract_y
_atom_site_fract_z
_atom_site_U_iso_or_equiv
_atom_site_adp_type
_atom_site_occupancy
_atom_site_symmetry_multiplicity
_atom_site_calc_flag
_atom_site_refinement_flags
_atom_site_disorder_assembly
_atom_site_disorder_group
Zn1 Zn 1.0000 0.43648(16) 0.7500 0.0334(4) Uani 1 2 d S . .
N1 N 0.9987(2) 0.6378(9) 0.8420(3) 0.0381(12) Uani 1 1 d U . .
N2 N 0.1601(4) 0.211(2) 0.1305(6) 0.105(3) Uani 1 1 d DU . .
O1 O 0.94917(19) 0.2310(9) 0.7089(4) 0.0572(15) Uani 1 1 d . . .
O2 O 0.9030(2) 0.5094(11) 0.7132(4) 0.0652(17) Uani 1 1 d . . .
O3 O 0.1267(5) 0.484(2) 0.0542(8) 0.147(4) Uani 1 1 d DU . .
C1 C 0.9088(3) 0.3209(12) 0.6963(5) 0.0471(18) Uani 1 1 d . . .
C2 C 0.8673(3) 0.1894(12) 0.6537(4) 0.0458(18) Uani 1 1 d . . .
C3 C 0.8743(3) -0.0148(14) 0.6274(5) 0.054(2) Uani 1 1 d . . .
H3 H 0.9047 -0.0736 0.6380 0.064 Uiso 1 1 calc R . .
C4 C 0.8363(3) -0.1339(15) 0.5852(6) 0.064(2) Uani 1 1 d . . .
H4 H 0.8415 -0.2723 0.5688 0.077 Uiso 1 1 calc R . .
C5 C 0.7909(3) -0.0476(14) 0.5674(5) 0.056(2) Uani 1 1 d . . .
C6 C 0.7845(3) 0.1579(16) 0.5952(6) 0.063(2) Uani 1 1 d . . .
H6 H 0.7540 0.2166 0.5848 0.075 Uiso 1 1 calc R . .
C7 C 0.8216(3) 0.2768(14) 0.6375(5) 0.057(2) Uani 1 1 d . . .
H7 H 0.8162 0.4137 0.6550 0.069 Uiso 1 1 calc R . .
C8 C 0.7494(3) -0.1616(15) 0.5201(6) 0.066(2) Uani 1 1 d . . .
H8 H 0.7195 -0.1023 0.5189 0.079 Uiso 1 1 calc R . .
C9 C 0.9709(3) 0.8144(13) 0.8335(5) 0.0534(17) Uani 1 1 d U . .
H9 H 0.9508 0.8398 0.7850 0.064 Uiso 1 1 calc R . .
C10 C 0.9706(3) 0.9591(13) 0.8930(5) 0.0537(17) Uani 1 1 d U . .
H10 H 0.9511 1.0796 0.8840 0.064 Uiso 1 1 calc R . .
C11 C 1.0000(2) 0.9243(10) 0.9673(4) 0.0377(14) Uani 1 1 d U . .
C12 C 1.0287(3) 0.7431(13) 0.9750(4) 0.0488(16) Uani 1 1 d U . .
H12 H 1.0504 0.7155 1.0217 0.059 Uiso 1 1 calc R . .
C13 C 1.0247(3) 0.6039(12) 0.9121(5) 0.0503(16) Uani 1 1 d U . .
H13 H 1.0419 0.4762 0.9203 0.060 Uiso 1 1 calc R . .
C14 C 0.1362(6) 0.289(3) 0.0635(9) 0.125(4) Uani 1 1 d DU . .
H14 H 0.1261 0.1952 0.0218 0.150 Uiso 1 1 calc R . .
C15 C 0.1825(7) 0.342(3) 0.1964(10) 0.150(5) Uani 1 1 d DU . .
H15A H 0.2156 0.3601 0.1960 0.225 Uiso 1 1 calc R . .
H15B H 0.1796 0.2720 0.2441 0.225 Uiso 1 1 calc R . .
H15C H 0.1672 0.4794 0.1929 0.225 Uiso 1 1 calc R . .
C16 C 0.1679(7) -0.023(3) 0.1373(11) 0.145(5) Uani 1 1 d DU . .
H16A H 0.1413 -0.0965 0.1054 0.217 Uiso 1 1 calc R . .
H16B H 0.1712 -0.0659 0.1909 0.217 Uiso 1 1 calc R . .
H16C H 0.1965 -0.0595 0.1201 0.217 Uiso 1 1 calc R . .

loop_
_atom_site_aniso_label
_atom_site_aniso_U_11
_atom_site_aniso_U_22
_atom_site_aniso_U_33
_atom_site_aniso_U_23
_atom_site_aniso_U_13
_atom_site_aniso_U_12
Zn1 0.0301(6) 0.0277(6) 0.0387(7) 0.000 -0.0008(4) 0.000
N1 0.038(3) 0.037(2) 0.038(3) -0.004(2) 0.004(2) 0.001(2)
N2 0.106(6) 0.122(7) 0.086(6) 0.018(6) 0.017(5) 0.017(6)
O1 0.036(3) 0.043(3) 0.082(4) -0.004(3) -0.010(3) -0.005(2)
O2 0.047(3) 0.052(3) 0.091(5) -0.023(3) 0.002(3) -0.009(3)
O3 0.146(8) 0.145(7) 0.138(8) 0.046(7) 0.004(6) 0.024(7)
C1 0.040(4) 0.038(4) 0.059(4) 0.000(4) -0.001(3) -0.007(3)
C2 0.041(4) 0.042(4) 0.050(4) -0.004(4) -0.001(3) -0.010(3)
C3 0.038(4) 0.049(4) 0.065(5) 0.000(4) -0.008(4) -0.006(3)
C4 0.066(6) 0.046(4) 0.069(6) -0.009(4) -0.011(5) -0.009(4)
C5 0.046(4) 0.053(5) 0.062(5) -0.007(4) -0.001(4) -0.010(4)
C6 0.033(4) 0.074(6) 0.075(6) -0.017(5) 0.001(4) -0.003(4)
C7 0.040(4) 0.052(5) 0.074(6) -0.011(4) -0.003(4) -0.003(4)
C8 0.055(5) 0.061(5) 0.072(6) -0.005(5) -0.012(4) -0.012(5)
C9 0.059(4) 0.049(3) 0.044(3) -0.001(3) -0.009(3) 0.009(3)
C10 0.061(4) 0.046(3) 0.047(3) -0.007(3) -0.005(3) 0.013(3)
C11 0.038(3) 0.038(3) 0.037(3) 0.002(3) 0.007(2) 0.002(3)
C12 0.053(3) 0.047(3) 0.041(3) 0.000(3) -0.002(3) 0.008(3)
C13 0.071(4) 0.037(3) 0.044(3) 0.003(3) 0.015(3) 0.019(3)
C14 0.126(8) 0.139(8) 0.105(7) 0.020(7) 0.015(6) 0.011(7)
C15 0.147(9) 0.176(10) 0.125(9) -0.002(9) 0.024(8) 0.015(9)
C16 0.152(10) 0.148(10) 0.127(9) 0.023(8) 0.011(8) 0.025(9)

_geom_special_details            
;
All esds (except the esd in the dihedral angle between two l.s. planes)
are estimated using the full covariance matrix. The cell esds are taken
into account individually in the estimation of esds in distances, angles
and torsion angles; correlations between esds in cell parameters are only
used when they are defined by crystal symmetry. An approximate (isotropic)
treatment of cell esds is used for estimating esds involving l.s. planes.
;

loop_
_geom_bond_atom_site_label_1
_geom_bond_atom_site_label_2
_geom_bond_distance
_geom_bond_site_symmetry_2
_geom_bond_publ_flag
Zn1 O1 1.957(5) . ?
Zn1 O1 1.957(5) 2_756 ?
Zn1 N1 2.047(6) . ?
Zn1 N1 2.047(6) 2_756 ?
N1 C13 1.308(10) . ?
N1 C9 1.347(10) . ?
N2 C14 1.316(13) . ?
N2 C15 1.444(15) . ?
N2 C16 1.474(15) . ?
O1 C1 1.265(9) . ?
O2 C1 1.230(10) . ?
O3 C14 1.251(15) . ?
C1 C2 1.503(10) . ?
C2 C3 1.381(12) . ?
C2 C7 1.395(11) . ?
C3 C4 1.391(12) . ?
C4 C5 1.382(13) . ?
C5 C6 1.395(13) . ?
C5 C8 1.477(12) . ?
C6 C7 1.374(11) . ?
C8 C8 1.311(19) 7_646 ?
C9 C10 1.378(11) . ?
C10 C11 1.405(11) . ?
C11 C12 1.387(10) . ?
C11 C11 1.481(13) 5_777 ?
C12 C13 1.387(11) . ?

loop_
_geom_angle_atom_site_label_1
_geom_angle_atom_site_label_2
_geom_angle_atom_site_label_3
_geom_angle
_geom_angle_site_symmetry_1
_geom_angle_site_symmetry_3
_geom_angle_publ_flag
O1 Zn1 O1 98.4(3) . 2_756 ?
O1 Zn1 N1 123.3(2) . . ?
O1 Zn1 N1 104.5(2) 2_756 . ?
O1 Zn1 N1 104.5(2) . 2_756 ?
O1 Zn1 N1 123.3(2) 2_756 2_756 ?
N1 Zn1 N1 104.5(3) . 2_756 ?
C13 N1 C9 116.1(6) . . ?
C13 N1 Zn1 122.3(5) . . ?
C9 N1 Zn1 121.6(5) . . ?
C14 N2 C15 124.1(14) . . ?
C14 N2 C16 118.5(14) . . ?
C15 N2 C16 117.2(14) . . ?
C1 O1 Zn1 111.0(5) . . ?
O2 C1 O1 123.1(7) . . ?
O2 C1 C2 120.4(7) . . ?
O1 C1 C2 116.4(7) . . ?
C3 C2 C7 119.2(7) . . ?
C3 C2 C1 120.7(7) . . ?
C7 C2 C1 120.0(7) . . ?
C2 C3 C4 121.0(8) . . ?
C5 C4 C3 120.4(8) . . ?
C4 C5 C6 117.9(8) . . ?
C4 C5 C8 123.2(8) . . ?
C6 C5 C8 118.9(8) . . ?
C7 C6 C5 122.4(8) . . ?
C6 C7 C2 119.1(8) . . ?
C8 C8 C5 126.3(12) 7_646 . ?
N1 C9 C10 123.3(7) . . ?
C9 C10 C11 120.0(7) . . ?
C12 C11 C10 116.1(7) . . ?
C12 C11 C11 122.8(8) . 5_777 ?
C10 C11 C11 121.1(8) . 5_777 ?
C13 C12 C11 119.0(7) . . ?
N1 C13 C12 125.2(7) . . ?
O3 C14 N2 122.1(16) . . ?

_diffrn_measured_fraction_theta_max 0.968
_diffrn_reflns_theta_full        25.01
_diffrn_measured_fraction_theta_full 0.968
_refine_diff_density_max         2.587
_refine_diff_density_min         -0.671
_refine_diff_density_rms         0.143
