####################################################################### 
# 
# This file contains crystal structure data downloaded from the 
# Cambridge Structural Database (CSD) hosted by the Cambridge 
# Crystallographic Data Centre (CCDC).
# 
# Full information about CCDC data access policies and citation 
# guidelines are available at http://www.ccdc.cam.ac.uk/access/V1 
# 
# Audit and citation data items may have been added by the CCDC. 
# Please retain this information to preserve the provenance of 
# this file and to allow appropriate attribution of the data. 
# 
#######################################################################

data_zhu20130314_2_0m
_audit_block_doi                 10.5517/cc13m8pp
_database_code_depnum_ccdc_archive 'CCDC 1031422'
loop_
_citation_id
_citation_doi
_citation_year
1 10.1021/acs.cgd.9b00064 2019
_audit_update_record             
;
2014-12-05 deposited with the CCDC.	2024-07-12 downloaded from the CCDC.
;

_audit_creation_method           SHELXL-97
_chemical_name_systematic        
; 
 ? 
;
_chemical_name_common            ?
_chemical_melting_point          ?
_chemical_formula_moiety         ?
_chemical_formula_sum            'C50 H42 Co2 N8 O7'
_chemical_formula_weight         984.78

loop_
_atom_type_symbol
_atom_type_description
_atom_type_scat_dispersion_real
_atom_type_scat_dispersion_imag
_atom_type_scat_source
C C 0.0033 0.0016 'International Tables Vol C Tables 4.2.6.8 and 6.1.1.4'
H H 0.0000 0.0000 'International Tables Vol C Tables 4.2.6.8 and 6.1.1.4'
N N 0.0061 0.0033 'International Tables Vol C Tables 4.2.6.8 and 6.1.1.4'
O O 0.0106 0.0060 'International Tables Vol C Tables 4.2.6.8 and 6.1.1.4'
Co Co 0.3494 0.9721 'International Tables Vol C Tables 4.2.6.8 and 6.1.1.4'

_symmetry_cell_setting           Tetragonal
_symmetry_space_group_name_H-M   'I4(1)/a  '

loop_
_symmetry_equiv_pos_as_xyz
'x, y, z'
'-x, -y+1/2, z'
'-y+3/4, x+1/4, z+1/4'
'y+1/4, -x+1/4, z+1/4'
'x+1/2, y+1/2, z+1/2'
'-x+1/2, -y+1, z+1/2'
'-y+5/4, x+3/4, z+3/4'
'y+3/4, -x+3/4, z+3/4'
'-x, -y, -z'
'x, y-1/2, -z'
'y-3/4, -x-1/4, -z-1/4'
'-y-1/4, x-1/4, -z-1/4'
'-x+1/2, -y+1/2, -z+1/2'
'x+1/2, y, -z+1/2'
'y-1/4, -x+1/4, -z+1/4'
'-y+1/4, x+1/4, -z+1/4'

_cell_length_a                   21.110(4)
_cell_length_b                   21.110(4)
_cell_length_c                   51.711(1)
_cell_angle_alpha                90.00
_cell_angle_beta                 90.00
_cell_angle_gamma                90.00
_cell_volume                     23044(6)
_cell_formula_units_Z            8
_cell_measurement_temperature    296(2)
_cell_measurement_reflns_used    5875
_cell_measurement_theta_min      2.19
_cell_measurement_theta_max      19.59

_exptl_crystal_description       prisim
_exptl_crystal_colour            red
_exptl_crystal_size_max          0.35
_exptl_crystal_size_mid          0.28
_exptl_crystal_size_min          0.25
_exptl_crystal_density_meas      ?
_exptl_crystal_density_diffrn    0.568
_exptl_crystal_density_method    'not measured'
_exptl_crystal_F_000             4064
_exptl_absorpt_coefficient_mu    0.313
_exptl_absorpt_correction_type   multi-scan
_exptl_absorpt_correction_T_min  0.8985
_exptl_absorpt_correction_T_max  0.9259
_exptl_absorpt_process_details   '(SADABS; Bruker, 2001)'

_exptl_special_details           
; 
 ? 
;

_diffrn_ambient_temperature      296(2)
_diffrn_radiation_wavelength     0.71073
_diffrn_radiation_type           MoK\a
_diffrn_radiation_source         'fine-focus sealed tube'
_diffrn_radiation_monochromator  graphite
_diffrn_measurement_device_type  'Bruker APEX2 CCD area-detector diffractometer'
_diffrn_measurement_method       '\f and \w scans'
_diffrn_detector_area_resol_mean ?
_diffrn_standards_number         ?
_diffrn_standards_interval_count ?
_diffrn_standards_interval_time  ?
_diffrn_standards_decay_%        ?
_diffrn_reflns_number            60016
_diffrn_reflns_av_R_equivalents  0.0842
_diffrn_reflns_av_sigmaI/netI    0.0703
_diffrn_reflns_limit_h_min       -25
_diffrn_reflns_limit_h_max       22
_diffrn_reflns_limit_k_min       -21
_diffrn_reflns_limit_k_max       25
_diffrn_reflns_limit_l_min       -40
_diffrn_reflns_limit_l_max       61
_diffrn_reflns_theta_min         1.53
_diffrn_reflns_theta_max         25.01
_reflns_number_total             10158
_reflns_number_gt                5955
_reflns_threshold_expression     >2sigma(I)

_computing_data_collection       'Bruker APEX2'
_computing_cell_refinement       'Bruker SMART'
_computing_data_reduction        'Bruker SAINT'
_computing_structure_solution    'SIR97 (Altomare,1999)'
_computing_structure_refinement  'SHELXL-97 (Sheldrick, 2008)'
_computing_molecular_graphics    'SHELXTL(Sheldrick, 2008)'
_computing_publication_material  'WINGX (Farrugia,1999)'

_refine_special_details          
; 
 Refinement of F^2^ against ALL reflections.  The weighted R-factor wR and 
 goodness of fit S are based on F^2^, conventional R-factors R are based 
 on F, with F set to zero for negative F^2^. The threshold expression of 
 F^2^ > 2sigma(F^2^) is used only for calculating R-factors(gt) etc. and is 
 not relevant to the choice of reflections for refinement.  R-factors based 
 on F^2^ are statistically about twice as large as those based on F, and R- 
 factors based on ALL data will be even larger. 
;

# SQUEEZE RESULTS (APPEND TO CIF)
loop_
_platon_squeeze_void_nr
_platon_squeeze_void_average_x
_platon_squeeze_void_average_y
_platon_squeeze_void_average_z
_platon_squeeze_void_volume
_platon_squeeze_void_count_electrons
1 -0.013 -0.001 0.000 16310.2 3701.4
_platon_squeeze_details          
;
;

_refine_ls_structure_factor_coef Fsqd
_refine_ls_matrix_type           full
_refine_ls_weighting_scheme      calc
_refine_ls_weighting_details     
'calc w=1/[\s^2^(Fo^2^)+(0.1499P)^2^+0.0000P] where P=(Fo^2^+2Fc^2^)/3'
_atom_sites_solution_primary     direct
_atom_sites_solution_secondary   difmap
_atom_sites_solution_hydrogens   geom
_refine_ls_hydrogen_treatment    constr
_refine_ls_extinction_method     none
_refine_ls_extinction_coef       ?
_refine_ls_number_reflns         10158
_refine_ls_number_parameters     303
_refine_ls_number_restraints     190
_refine_ls_R_factor_all          0.1061
_refine_ls_R_factor_gt           0.0754
_refine_ls_wR_factor_ref         0.2448
_refine_ls_wR_factor_gt          0.2283
_refine_ls_goodness_of_fit_ref   0.999
_refine_ls_restrained_S_all      1.251
_refine_ls_shift/su_max          0.084
_refine_ls_shift/su_mean         0.006

loop_
_atom_site_label
_atom_site_type_symbol
_atom_site_fract_x
_atom_site_fract_y
_atom_site_fract_z
_atom_site_U_iso_or_equiv
_atom_site_adp_type
_atom_site_occupancy
_atom_site_symmetry_multiplicity
_atom_site_calc_flag
_atom_site_refinement_flags
_atom_site_disorder_assembly
_atom_site_disorder_group
Co1 Co 0.53804(3) 1.17678(3) 0.116365(11) 0.0450(3) Uani 1 1 d U . .
O4 O 0.5000 1.2500 0.13675(7) 0.0401(9) Uani 1 2 d SU . .
O1 O 0.53989(16) 0.83033(14) -0.09276(6) 0.0572(9) Uani 1 1 d . . .
O2 O 0.58120(16) 0.73396(15) -0.08805(6) 0.0643(10) Uani 1 1 d . . .
N2 N 0.7036(2) 0.90693(19) 0.06909(8) 0.0705(13) Uani 1 1 d . . .
N3 N 0.86053(18) 0.7565(2) 0.10690(8) 0.0588(10) Uani 1 1 d U . .
C2 C 0.6020(2) 0.8102(2) -0.05576(9) 0.0539(12) Uani 1 1 d U . .
C1 C 0.5727(2) 0.7892(2) -0.08097(8) 0.0453(11) Uani 1 1 d U . .
N1 N 0.5812(2) 1.09927(18) 0.09601(7) 0.0588(11) Uani 1 1 d . . .
C11 C 0.6610(3) 0.9400(2) 0.05538(10) 0.0679(15) Uani 1 1 d U . .
O3 O 0.61839(18) 1.1817(2) 0.14095(7) 0.0790(11) Uani 1 1 d U . .
C12 C 0.6423(3) 0.9231(2) 0.03082(10) 0.0746(17) Uani 1 1 d U . .
H12 H 0.6126 0.9474 0.0220 0.089 Uiso 1 1 calc R . .
C18 C 0.6334(3) 0.9955(2) 0.06893(10) 0.0682(15) Uani 1 1 d U . .
C10 C 0.7302(3) 0.8554(2) 0.05752(10) 0.0668(15) Uani 1 1 d U . .
C13 C 0.7758(2) 0.8202(3) 0.07424(11) 0.0721(15) Uani 1 1 d U . .
C20 C 0.6175(3) 1.0560(3) 0.10723(11) 0.090(2) Uani 1 1 d U . .
H20 H 0.6259 1.0610 0.1248 0.108 Uiso 1 1 calc R . .
C6 C 0.6243(3) 0.8917(3) -0.02509(11) 0.089(2) Uani 1 1 d U . .
H6 H 0.6241 0.9345 -0.0209 0.107 Uiso 1 1 calc R . .
C8 C 0.6683(3) 0.8688(2) 0.01903(10) 0.0700(16) Uani 1 1 d U . .
C22 C 0.5952(3) 1.0397(3) 0.05702(11) 0.088(2) Uani 1 1 d U . .
H22 H 0.5856 1.0355 0.0395 0.106 Uiso 1 1 calc R . .
C9 C 0.7130(3) 0.8357(3) 0.03337(10) 0.0780(18) Uani 1 1 d U . .
H9 H 0.7315 0.7995 0.0264 0.094 Uiso 1 1 calc R . .
C7 C 0.6011(3) 0.8733(2) -0.04865(10) 0.0776(18) Uani 1 1 d U . .
H7 H 0.5848 0.9035 -0.0599 0.093 Uiso 1 1 calc R . .
C5 C 0.6481(3) 0.8488(2) -0.00732(10) 0.0689(15) Uani 1 1 d U . .
C21 C 0.5711(3) 1.0900(3) 0.07079(10) 0.0840(19) Uani 1 1 d U . .
H21 H 0.5462 1.1193 0.0620 0.101 Uiso 1 1 calc R . .
C19 C 0.6435(3) 1.0047(3) 0.09526(10) 0.088(2) Uani 1 1 d U . .
H19 H 0.6679 0.9761 0.1046 0.106 Uiso 1 1 calc R . .
C4 C 0.6502(3) 0.7868(3) -0.01525(11) 0.106(3) Uani 1 1 d U . .
H4 H 0.6673 0.7565 -0.0042 0.127 Uiso 1 1 calc R . .
C3 C 0.6279(3) 0.7682(3) -0.03891(10) 0.090(2) Uani 1 1 d U . .
H3 H 0.6306 0.7258 -0.0436 0.108 Uiso 1 1 calc R . .
C14 C 0.8056(3) 0.7679(3) 0.06723(14) 0.1018(19) Uani 1 1 d U . .
H14 H 0.7978 0.7503 0.0511 0.122 Uiso 1 1 calc R . .
C15 C 0.8485(3) 0.7391(3) 0.08382(11) 0.0835(16) Uani 1 1 d U . .
H15 H 0.8704 0.7041 0.0775 0.100 Uiso 1 1 calc R . .
C17 C 0.7871(3) 0.8397(3) 0.09858(12) 0.0925(17) Uani 1 1 d U . .
H17 H 0.7666 0.8753 0.1050 0.111 Uiso 1 1 calc R . .
C16 C 0.8294(3) 0.8065(3) 0.11412(14) 0.1029(19) Uani 1 1 d U . .
H16 H 0.8359 0.8212 0.1309 0.123 Uiso 1 1 calc R . .
C23 C 0.6392(5) 1.2328(5) 0.1480(2) 0.156(3) Uani 1 1 d U . .
H23 H 0.6207 1.2686 0.1407 0.187 Uiso 1 1 calc R . .
N4 N 0.6859(7) 1.2426(7) 0.1651(3) 0.275(3) Uani 1 1 d DU . .
C24 C 0.7199(7) 1.1899(7) 0.1760(3) 0.272(5) Uani 1 1 d U . .
H24A H 0.7532 1.2055 0.1870 0.407 Uiso 1 1 calc R . .
H24B H 0.7379 1.1648 0.1624 0.407 Uiso 1 1 calc R . .
H24C H 0.6914 1.1644 0.1860 0.407 Uiso 1 1 calc R . .
C25 C 0.7045(7) 1.3026(7) 0.1777(3) 0.271(4) Uani 1 1 d DU . .
H25A H 0.7402 1.2953 0.1888 0.406 Uiso 1 1 calc R . .
H25B H 0.6697 1.3183 0.1877 0.406 Uiso 1 1 calc R . .
H25C H 0.7156 1.3332 0.1647 0.406 Uiso 1 1 calc R . .

loop_
_atom_site_aniso_label
_atom_site_aniso_U_11
_atom_site_aniso_U_22
_atom_site_aniso_U_33
_atom_site_aniso_U_23
_atom_site_aniso_U_13
_atom_site_aniso_U_12
Co1 0.0671(5) 0.0413(4) 0.0265(3) 0.0040(3) -0.0017(3) -0.0005(3)
O4 0.063(3) 0.0357(18) 0.0214(19) 0.000 0.000 -0.0082(15)
O1 0.093(2) 0.0424(18) 0.0365(17) -0.0001(14) -0.0224(17) 0.0034(16)
O2 0.090(3) 0.051(2) 0.051(2) -0.0162(17) -0.0272(19) 0.0189(18)
N2 0.090(3) 0.068(3) 0.054(3) -0.022(2) -0.031(2) 0.026(2)
N3 0.049(2) 0.079(3) 0.048(2) -0.0043(19) -0.0140(19) 0.0133(18)
C2 0.073(3) 0.050(3) 0.039(3) -0.007(2) -0.017(2) 0.016(2)
C1 0.059(3) 0.046(3) 0.031(2) 0.000(2) -0.010(2) 0.001(2)
N1 0.089(3) 0.052(2) 0.035(2) 0.0041(19) -0.009(2) 0.015(2)
C11 0.088(4) 0.068(3) 0.048(3) -0.018(3) -0.027(3) 0.031(3)
O3 0.075(2) 0.100(3) 0.062(2) 0.026(2) -0.006(2) 0.006(2)
C12 0.095(4) 0.072(3) 0.057(3) -0.021(3) -0.037(3) 0.034(3)
C18 0.091(4) 0.063(3) 0.050(3) -0.012(3) -0.027(3) 0.026(3)
C10 0.088(4) 0.065(3) 0.047(3) -0.018(3) -0.029(3) 0.026(3)
C13 0.068(3) 0.074(3) 0.075(3) -0.007(3) -0.036(3) 0.023(2)
C20 0.133(5) 0.089(4) 0.048(3) -0.018(3) -0.028(4) 0.045(4)
C6 0.144(5) 0.056(3) 0.068(4) -0.023(3) -0.052(4) 0.029(3)
C8 0.093(4) 0.064(3) 0.054(3) -0.019(3) -0.040(3) 0.029(3)
C22 0.127(5) 0.094(4) 0.044(3) -0.016(3) -0.025(3) 0.048(4)
C9 0.104(4) 0.077(4) 0.052(3) -0.026(3) -0.033(3) 0.044(3)
C7 0.125(5) 0.058(3) 0.050(3) -0.014(3) -0.044(3) 0.013(3)
C5 0.100(4) 0.061(3) 0.046(3) -0.016(3) -0.032(3) 0.031(3)
C21 0.131(5) 0.075(4) 0.046(3) -0.009(3) -0.014(3) 0.045(4)
C19 0.137(5) 0.080(4) 0.048(3) -0.019(3) -0.037(3) 0.052(4)
C4 0.176(7) 0.072(4) 0.069(4) -0.024(3) -0.073(4) 0.055(4)
C3 0.151(6) 0.062(3) 0.058(4) -0.026(3) -0.050(4) 0.049(3)
C14 0.111(3) 0.101(2) 0.093(3) -0.012(2) -0.015(2) 0.048(2)
C15 0.097(3) 0.091(2) 0.0621(19) -0.0217(19) -0.019(2) 0.037(2)
C17 0.103(3) 0.097(3) 0.077(2) -0.016(2) -0.024(2) 0.032(2)
C16 0.109(3) 0.104(3) 0.095(3) -0.012(2) -0.015(2) 0.049(2)
C23 0.170(3) 0.129(3) 0.169(4) -0.013(2) 0.003(2) -0.020(2)
N4 0.266(4) 0.287(4) 0.271(4) -0.004(2) -0.098(2) -0.012(2)
C24 0.271(5) 0.270(5) 0.274(5) 0.007(2) -0.008(2) 0.010(2)
C25 0.274(5) 0.266(4) 0.273(5) -0.012(2) -0.005(3) -0.008(2)

_geom_special_details            
; 
 All esds (except the esd in the dihedral angle between two l.s. planes) 
 are estimated using the full covariance matrix.  The cell esds are taken 
 into account individually in the estimation of esds in distances, angles 
 and torsion angles; correlations between esds in cell parameters are only 
 used when they are defined by crystal symmetry.  An approximate (isotropic) 
 treatment of cell esds is used for estimating esds involving l.s. planes. 
;

loop_
_geom_bond_atom_site_label_1
_geom_bond_atom_site_label_2
_geom_bond_distance
_geom_bond_site_symmetry_2
_geom_bond_publ_flag
Co1 O4 2.0359(19) . ?
Co1 O1 2.054(3) 9_675 ?
Co1 O2 2.105(3) 10_565 ?
Co1 O3 2.122(4) . ?
Co1 N1 2.149(4) . ?
Co1 N3 2.180(4) 16_655 ?
O4 Co1 2.0358(19) 2_675 ?
O1 C1 1.268(5) . ?
O1 Co1 2.054(3) 9_675 ?
O2 C1 1.235(5) . ?
O2 Co1 2.105(3) 10 ?
N2 C11 1.341(6) . ?
N2 C10 1.362(6) . ?
N3 C16 1.297(7) . ?
N3 C15 1.274(6) . ?
N3 Co1 2.180(4) 15_565 ?
C2 C3 1.357(6) . ?
C2 C7 1.383(6) . ?
C2 C1 1.509(6) . ?
N1 C20 1.326(6) . ?
N1 C21 1.336(6) . ?
C11 C12 1.377(7) . ?
C11 C18 1.485(6) . ?
O3 C23 1.218(9) . ?
C12 C8 1.409(7) . ?
C12 H12 0.9300 . ?
C18 C19 1.392(7) . ?
C18 C22 1.378(7) . ?
C10 C9 1.366(6) . ?
C10 C13 1.492(6) . ?
C13 C17 1.345(7) . ?
C13 C14 1.321(7) . ?
C20 C19 1.362(7) . ?
C20 H20 0.9300 . ?
C6 C5 1.385(7) . ?
C6 C7 1.369(7) . ?
C6 H6 0.9300 . ?
C8 C9 1.389(6) . ?
C8 C5 1.489(6) . ?
C22 C21 1.376(7) . ?
C22 H22 0.9300 . ?
C9 H9 0.9300 . ?
C7 H7 0.9300 . ?
C5 C4 1.371(7) . ?
C21 H21 0.9300 . ?
C19 H19 0.9300 . ?
C4 C3 1.368(7) . ?
C4 H4 0.9300 . ?
C3 H3 0.9300 . ?
C14 C15 1.389(8) . ?
C14 H14 0.9300 . ?
C15 H15 0.9300 . ?
C17 C16 1.391(8) . ?
C17 H17 0.9300 . ?
C16 H16 0.9300 . ?
C23 N4 1.342(13) . ?
C23 H23 0.9300 . ?
N4 C24 1.441(15) . ?
N4 C25 1.477(10) . ?
C24 H24A 0.9600 . ?
C24 H24B 0.9600 . ?
C24 H24C 0.9600 . ?
C25 H25A 0.9600 . ?
C25 H25B 0.9600 . ?
C25 H25C 0.9600 . ?

loop_
_geom_angle_atom_site_label_1
_geom_angle_atom_site_label_2
_geom_angle_atom_site_label_3
_geom_angle
_geom_angle_site_symmetry_1
_geom_angle_site_symmetry_3
_geom_angle_publ_flag
O4 Co1 O1 92.71(11) . 9_675 ?
O4 Co1 O2 95.48(11) . 10_565 ?
O1 Co1 O2 88.59(14) 9_675 10_565 ?
O4 Co1 O3 88.15(13) . . ?
O1 Co1 O3 178.60(14) 9_675 . ?
O2 Co1 O3 92.43(15) 10_565 . ?
O4 Co1 N1 177.65(13) . . ?
O1 Co1 N1 89.61(14) 9_675 . ?
O2 Co1 N1 84.97(14) 10_565 . ?
O3 Co1 N1 89.53(16) . . ?
O4 Co1 N3 89.35(13) . 16_655 ?
O1 Co1 N3 89.10(15) 9_675 16_655 ?
O2 Co1 N3 174.74(14) 10_565 16_655 ?
O3 Co1 N3 89.81(15) . 16_655 ?
N1 Co1 N3 90.29(16) . 16_655 ?
Co1 O4 Co1 117.65(17) 2_675 . ?
C1 O1 Co1 132.4(3) . 9_675 ?
C1 O2 Co1 133.2(3) . 10 ?
C11 N2 C10 117.4(4) . . ?
C16 N3 C15 113.8(5) . . ?
C16 N3 Co1 119.6(4) . 15_565 ?
C15 N3 Co1 126.6(4) . 15_565 ?
C3 C2 C7 117.6(4) . . ?
C3 C2 C1 121.9(4) . . ?
C7 C2 C1 120.5(4) . . ?
O1 C1 O2 125.7(4) . . ?
O1 C1 C2 116.0(4) . . ?
O2 C1 C2 118.3(4) . . ?
C20 N1 C21 114.8(4) . . ?
C20 N1 Co1 123.8(3) . . ?
C21 N1 Co1 121.4(3) . . ?
N2 C11 C12 123.0(4) . . ?
N2 C11 C18 115.1(4) . . ?
C12 C11 C18 121.9(4) . . ?
C23 O3 Co1 120.6(6) . . ?
C11 C12 C8 119.9(4) . . ?
C11 C12 H12 120.0 . . ?
C8 C12 H12 120.0 . . ?
C19 C18 C22 115.6(5) . . ?
C19 C18 C11 120.8(4) . . ?
C22 C18 C11 123.5(5) . . ?
N2 C10 C9 122.4(4) . . ?
N2 C10 C13 114.2(4) . . ?
C9 C10 C13 123.3(5) . . ?
C17 C13 C14 115.2(5) . . ?
C17 C13 C10 120.3(5) . . ?
C14 C13 C10 124.4(5) . . ?
N1 C20 C19 125.6(5) . . ?
N1 C20 H20 117.2 . . ?
C19 C20 H20 117.2 . . ?
C5 C6 C7 122.4(5) . . ?
C5 C6 H6 118.8 . . ?
C7 C6 H6 118.8 . . ?
C9 C8 C12 116.3(4) . . ?
C9 C8 C5 122.6(4) . . ?
C12 C8 C5 121.0(4) . . ?
C21 C22 C18 120.5(5) . . ?
C21 C22 H22 119.8 . . ?
C18 C22 H22 119.8 . . ?
C8 C9 C10 120.9(5) . . ?
C8 C9 H9 119.5 . . ?
C10 C9 H9 119.5 . . ?
C2 C7 C6 120.3(5) . . ?
C2 C7 H7 119.9 . . ?
C6 C7 H7 119.9 . . ?
C4 C5 C6 115.9(5) . . ?
C4 C5 C8 122.4(5) . . ?
C6 C5 C8 121.7(4) . . ?
N1 C21 C22 124.0(5) . . ?
N1 C21 H21 118.0 . . ?
C22 C21 H21 118.0 . . ?
C20 C19 C18 119.6(5) . . ?
C20 C19 H19 120.2 . . ?
C18 C19 H19 120.2 . . ?
C5 C4 C3 122.0(5) . . ?
C5 C4 H4 119.0 . . ?
C3 C4 H4 119.0 . . ?
C2 C3 C4 121.7(5) . . ?
C2 C3 H3 119.1 . . ?
C4 C3 H3 119.1 . . ?
C13 C14 C15 120.5(6) . . ?
C13 C14 H14 119.7 . . ?
C15 C14 H14 119.7 . . ?
N3 C15 C14 125.6(5) . . ?
N3 C15 H15 117.2 . . ?
C14 C15 H15 117.2 . . ?
C13 C17 C16 120.1(6) . . ?
C13 C17 H17 119.9 . . ?
C16 C17 H17 120.0 . . ?
N3 C16 C17 124.6(6) . . ?
N3 C16 H16 117.7 . . ?
C17 C16 H16 117.7 . . ?
O3 C23 N4 126.7(12) . . ?
O3 C23 H23 116.6 . . ?
N4 C23 H23 116.6 . . ?
C23 N4 C24 120.4(15) . . ?
C23 N4 C25 128.2(15) . . ?
C24 N4 C25 110.9(13) . . ?
N4 C24 H24A 109.5 . . ?
N4 C24 H24B 109.6 . . ?
H24A C24 H24B 109.5 . . ?
N4 C24 H24C 109.4 . . ?
H24A C24 H24C 109.5 . . ?
H24B C24 H24C 109.5 . . ?
N4 C25 H25A 109.5 . . ?
N4 C25 H25B 109.4 . . ?
H25A C25 H25B 109.5 . . ?
N4 C25 H25C 109.5 . . ?
H25A C25 H25C 109.5 . . ?
H25B C25 H25C 109.5 . . ?

loop_
_geom_torsion_atom_site_label_1
_geom_torsion_atom_site_label_2
_geom_torsion_atom_site_label_3
_geom_torsion_atom_site_label_4
_