####################################################################### 
# 
# This file contains crystal structure data downloaded from the 
# Cambridge Structural Database (CSD) hosted by the Cambridge 
# Crystallographic Data Centre (CCDC).
# 
# Full information about CCDC data access policies and citation 
# guidelines are available at http://www.ccdc.cam.ac.uk/access/V1 
# 
# Audit and citation data items may have been added by the CCDC. 
# Please retain this information to preserve the provenance of 
# this file and to allow appropriate attribution of the data. 
# 
#######################################################################

data_2SH784
_audit_block_doi                 10.5517/cc13y7hs
_database_code_depnum_ccdc_archive 'CCDC 1040995'
loop_
_citation_id
_citation_doi
_citation_year
1 10.1039/C5RA03126E 2015
_audit_update_record             
;
2015-02-18 deposited with the CCDC.	2024-07-12 downloaded from the CCDC.
;

_audit_creation_method           SHELXL-2014
_chemical_name_systematic        
;
 ?
;
_chemical_name_common            ?
_chemical_melting_point          ?
_chemical_formula_moiety         'C36 H26 Cu2 N4 O8 S2, 3(C1 H3 N1 O1), H2 O'
_chemical_formula_sum            'C39 H37 Cu2 N7 O12 S2'
_chemical_formula_weight         986.95

loop_
_atom_type_symbol
_atom_type_description
_atom_type_scat_dispersion_real
_atom_type_scat_dispersion_imag
_atom_type_scat_source
C C 0.0033 0.0016 'International Tables Vol C Tables 4.2.6.8 and 6.1.1.4'
H H 0.0000 0.0000 'International Tables Vol C Tables 4.2.6.8 and 6.1.1.4'
N N 0.0061 0.0033 'International Tables Vol C Tables 4.2.6.8 and 6.1.1.4'
O O 0.0106 0.0060 'International Tables Vol C Tables 4.2.6.8 and 6.1.1.4'
S S 0.1246 0.1234 'International Tables Vol C Tables 4.2.6.8 and 6.1.1.4'
Cu Cu 0.3201 1.2651 'International Tables Vol C Tables 4.2.6.8 and 6.1.1.4'

_space_group_crystal_system      monoclinic
_space_group_IT_number           14
_space_group_name_H-M_alt        'P 21/c'
_space_group_name_Hall           '-P 2ybc'

_shelx_space_group_comment       
;
The symmetry employed for this shelxl refinement is uniquely defined
by the following loop, which should always be used as a source of
symmetry information in preference to the above space-group names.
They are only intended as comments.
;

loop_
_space_group_symop_operation_xyz
'x, y, z'
'-x, y+1/2, -z+1/2'
'-x, -y, -z'
'x, -y-1/2, z-1/2'

_cell_length_a                   14.636(4)
_cell_length_b                   11.838(3)
_cell_length_c                   24.374(5)
_cell_angle_alpha                90
_cell_angle_beta                 101.236(8)
_cell_angle_gamma                90
_cell_volume                     4142.1(18)
_cell_formula_units_Z            4
_cell_measurement_temperature    296(2)
_cell_measurement_reflns_used    9800
_cell_measurement_theta_min      2.29
_cell_measurement_theta_max      25.00

_exptl_crystal_description       Plate
_exptl_crystal_colour            Green
_exptl_crystal_density_meas      ?
_exptl_crystal_density_method    ?
_exptl_crystal_density_diffrn    1.583
_exptl_crystal_F_000             2024
_exptl_transmission_factor_min   ?
_exptl_transmission_factor_max   ?
_exptl_crystal_size_max          0.180
_exptl_crystal_size_mid          0.160
_exptl_crystal_size_min          0.120
_exptl_absorpt_coefficient_mu    1.200
_shelx_estimated_absorpt_T_min   0.813
_shelx_estimated_absorpt_T_max   0.869
_exptl_absorpt_correction_type   Multi-scan
_exptl_absorpt_correction_T_min  0.8132
_exptl_absorpt_correction_T_max  0.8694
_exptl_absorpt_process_details   SADABS

_exptl_special_details           
;
 ?
;

_diffrn_ambient_temperature      296(2)
_diffrn_radiation_wavelength     0.71073
_diffrn_radiation_type           MoK\a
_diffrn_source                   ?
_diffrn_measurement_device_type  'Bruker APEX-II PHOTON 100 detector'
_diffrn_measurement_method       '\f and \w scans'
_diffrn_detector_area_resol_mean ?
_diffrn_reflns_number            72609
_diffrn_reflns_av_unetI/netI     0.0316
_diffrn_reflns_av_R_equivalents  0.0604
_diffrn_reflns_limit_h_min       -17
_diffrn_reflns_limit_h_max       17
_diffrn_reflns_limit_k_min       -14
_diffrn_reflns_limit_k_max       14
_diffrn_reflns_limit_l_min       -29
_diffrn_reflns_limit_l_max       29
_diffrn_reflns_theta_min         2.230
_diffrn_reflns_theta_max         25.670
_diffrn_reflns_theta_full        25.242
_diffrn_measured_fraction_theta_max 0.995
_diffrn_measured_fraction_theta_full 0.999
_diffrn_reflns_Laue_measured_fraction_max 0.995
_diffrn_reflns_Laue_measured_fraction_full 0.999
_diffrn_reflns_point_group_measured_fraction_max 0.995
_diffrn_reflns_point_group_measured_fraction_full 0.999
_reflns_number_total             7824
_reflns_number_gt                5921
_reflns_threshold_expression     'I > 2\s(I)'
_reflns_Friedel_coverage         0.000
_reflns_Friedel_fraction_max     .
_reflns_Friedel_fraction_full    .

_reflns_special_details          
;
 Reflections were merged by SHELXL according to the crystal
 class for the calculation of statistics and refinement.
 
 _reflns_Friedel_fraction is defined as the number of unique
 Friedel pairs measured divided by the number that would be
 possible theoretically, ignoring centric projections and
 systematic absences.
;

_computing_data_collection       'Bruker APEX2'
_computing_cell_refinement       'Bruker SAINT'
_computing_data_reduction        'Bruker SAINT'
_computing_structure_solution    'SIR97 (Giacovazzo et al, 1997)'
_computing_structure_refinement  'SHELXL-2014 (Sheldrick, 2014)'
_computing_molecular_graphics    'Ortep-3 for Windows (Farrugia, 1997)'
_computing_publication_material  'WinGX publication routines (Farrugia, 1999)'

_refine_special_details          
;
 ?
;
_refine_ls_structure_factor_coef Fsqd
_refine_ls_matrix_type           full
_refine_ls_weighting_scheme      calc
_refine_ls_weighting_details     
'w=1/[\s^2^(Fo^2^)+(0.0564P)^2^+4.5093P] where P=(Fo^2^+2Fc^2^)/3'
_atom_sites_solution_primary     ?
_atom_sites_solution_secondary   ?
_atom_sites_solution_hydrogens   mixed
_refine_ls_hydrogen_treatment    constr
_refine_ls_extinction_method     none
_refine_ls_extinction_coef       .
_refine_ls_number_reflns         7824
_refine_ls_number_parameters     559
_refine_ls_number_restraints     0
_refine_ls_R_factor_all          0.0685
_refine_ls_R_factor_gt           0.0450
_refine_ls_wR_factor_ref         0.1209
_refine_ls_wR_factor_gt          0.1097
_refine_ls_goodness_of_fit_ref   1.074
_refine_ls_restrained_S_all      1.074
_refine_ls_shift/su_max          0.001
_refine_ls_shift/su_mean         0.000

loop_
_atom_site_label
_atom_site_type_symbol
_atom_site_fract_x
_atom_site_fract_y
_atom_site_fract_z
_atom_site_U_iso_or_equiv
_atom_site_adp_type
_atom_site_occupancy
_atom_site_site_symmetry_order
_atom_site_calc_flag
_atom_site_refinement_flags_posn
_atom_site_refinement_flags_adp
_atom_site_refinement_flags_occupancy
_atom_site_disorder_assembly
_atom_site_disorder_group
Cu1 Cu 0.15567(3) 0.55519(3) 0.27268(2) 0.02907(13) Uani 1 1 d . . . . .
Cu2 Cu 0.34349(3) 0.46576(3) 0.23901(2) 0.02930(13) Uani 1 1 d . . . . .
S1 S 0.03800(7) 0.54870(7) 0.36030(4) 0.0368(2) Uani 1 1 d . . . . .
S2 S 0.45388(6) 0.47648(7) 0.14538(4) 0.0349(2) Uani 1 1 d . . . . .
O12 O 0.1509(3) 0.3531(4) 0.5565(2) 0.1123(15) Uani 1 1 d . . . . .
O5 O 0.30532(16) 0.49490(18) 0.30867(9) 0.0319(5) Uani 1 1 d . . . . .
O1 O 0.19426(16) 0.52775(18) 0.20323(9) 0.0313(5) Uani 1 1 d . . . . .
O4 O 0.0326(2) 0.5811(2) 0.41607(11) 0.0521(7) Uani 1 1 d . . . . .
O3 O -0.0397(2) 0.5804(2) 0.31782(13) 0.0571(8) Uani 1 1 d . . . . .
O2 O 0.12754(18) 0.5875(2) 0.34665(10) 0.0412(6) Uani 1 1 d . . . . .
O8 O 0.4465(2) 0.4493(2) 0.08741(11) 0.0523(7) Uani 1 1 d . . . . .
O7 O 0.5387(2) 0.4425(2) 0.18119(13) 0.0575(8) Uani 1 1 d . . . . .
O6 O 0.37131(19) 0.4343(2) 0.16525(11) 0.0459(7) Uani 1 1 d . . . . .
N6 N 0.3762(3) 0.9541(5) 0.4529(2) 0.1005(17) Uani 1 1 d . . . . .
H6A H 0.3679 1.0258 0.4553 0.121 Uiso 1 1 calc R U . . .
H6B H 0.4261 0.9288 0.4435 0.121 Uiso 1 1 calc R U . . .
O10 O 0.2414(3) 0.9060(4) 0.4767(3) 0.136(2) Uani 1 1 d . . . . .
O9 O 0.3434(3) 0.1989(5) 0.4453(2) 0.1220(17) Uani 1 1 d . . . . .
N2 N 0.1883(2) 0.7217(2) 0.26703(11) 0.0313(6) Uani 1 1 d . . . . .
C16 C 0.2360(2) 0.9503(2) 0.25854(14) 0.0292(7) Uani 1 1 d . . . . .
C19 C 0.2630(2) 1.0710(3) 0.25385(14) 0.0297(7) Uani 1 1 d . . . . .
N3 N 0.30974(19) 0.3000(2) 0.24486(11) 0.0296(6) Uani 1 1 d . . . . .
N4 N 0.41412(19) 0.6121(2) 0.24600(11) 0.0306(6) Uani 1 1 d . . . . .
O11 O 0.2062(4) 0.5693(5) 0.5777(2) 0.1320(19) Uani 1 1 d . . . . .
C37 C 0.2915(4) 0.2378(6) 0.4738(3) 0.0901(18) Uani 1 1 d . . . . .
H37 H 0.2544 0.2982 0.4586 0.108 Uiso 1 1 calc R U . . .
N5 N 0.2823(4) 0.2050(4) 0.5218(2) 0.0966(15) Uani 1 1 d . . . . .
H5A H 0.3151 0.1494 0.5377 0.116 Uiso 1 1 calc R U . . .
H5B H 0.2434 0.2384 0.5386 0.116 Uiso 1 1 calc R U . . .
C1 C 0.1399(2) 0.4816(3) 0.15892(14) 0.0311(7) Uani 1 1 d . . . . .
C6 C 0.0657(2) 0.4078(3) 0.16349(14) 0.0329(8) Uani 1 1 d . . . . .
C7 C 0.0483(2) 0.3698(3) 0.21602(14) 0.0334(8) Uani 1 1 d . . . . .
H7 H 0.0068 0.3100 0.2150 0.040 Uiso 1 1 calc R U . . .
N1 N 0.08390(19) 0.4094(2) 0.26488(11) 0.0297(6) Uani 1 1 d . . . . .
C8 C 0.0682(2) 0.3455(3) 0.31243(14) 0.0335(8) Uani 1 1 d . . . . .
C13 C 0.0474(2) 0.3996(3) 0.35947(15) 0.0357(8) Uani 1 1 d . . . . .
C12 C 0.0331(3) 0.3364(4) 0.40518(17) 0.0511(10) Uani 1 1 d . . . . .
H12 H 0.0178 0.3723 0.4361 0.061 Uiso 1 1 calc R U . . .
C11 C 0.0415(3) 0.2206(4) 0.40450(19) 0.0625(13) Uani 1 1 d . . . . .
H11 H 0.0328 0.1785 0.4353 0.075 Uiso 1 1 calc R U . . .
C10 C 0.0625(3) 0.1671(3) 0.35856(19) 0.0550(11) Uani 1 1 d . . . . .
H10 H 0.0678 0.0888 0.3585 0.066 Uiso 1 1 calc R U . . .
C9 C 0.0759(3) 0.2280(3) 0.31256(17) 0.0434(9) Uani 1 1 d . . . . .
H9A H 0.0901 0.1908 0.2817 0.052 Uiso 1 1 calc R U . . .
C5 C 0.0099(3) 0.3637(3) 0.11424(16) 0.0445(9) Uani 1 1 d . . . . .
H5 H -0.0392 0.3155 0.1170 0.053 Uiso 1 1 calc R U . . .
C4 C 0.0266(3) 0.3903(4) 0.06281(16) 0.0539(11) Uani 1 1 d . . . . .
H4 H -0.0116 0.3621 0.0308 0.065 Uiso 1 1 calc R U . . .
C3 C 0.1012(3) 0.4599(3) 0.05851(16) 0.0511(11) Uani 1 1 d . . . . .
H3 H 0.1139 0.4760 0.0234 0.061 Uiso 1 1 calc R U . . .
C2 C 0.1570(3) 0.5057(3) 0.10551(15) 0.0403(9) Uani 1 1 d . . . . .
H2 H 0.2062 0.5528 0.1017 0.048 Uiso 1 1 calc R U . . .
C14 C 0.2209(3) 0.7843(3) 0.31244(15) 0.0400(9) Uani 1 1 d . . . . .
H14 H 0.2273 0.7506 0.3474 0.048 Uiso 1 1 calc R U . . .
C15 C 0.2455(3) 0.8962(3) 0.30977(15) 0.0416(9) Uani 1 1 d . . . . .
H15 H 0.2687 0.9357 0.3425 0.050 Uiso 1 1 calc R U . . .
C20 C 0.2958(2) 1.1369(3) 0.30055(15) 0.0354(8) Uani 1 1 d . . . . .
H20 H 0.3032 1.1054 0.3361 0.042 Uiso 1 1 calc R U . . .
C21 C 0.3176(2) 0.2493(3) 0.29449(14) 0.0350(8) Uani 1 1 d . . . . .
H21 H 0.3388 0.2917 0.3266 0.042 Uiso 1 1 calc R U . . .
C24 C 0.3594(2) 0.5411(3) 0.35262(13) 0.0304(7) Uani 1 1 d . . . . .
C29 C 0.4342(2) 0.6147(3) 0.34786(14) 0.0330(8) Uani 1 1 d . . . . .
C30 C 0.4509(2) 0.6521(3) 0.29484(14) 0.0342(8) Uani 1 1 d . . . . .
H30 H 0.4926 0.7115 0.2955 0.041 Uiso 1 1 calc R U . . .
C31 C 0.4293(2) 0.6772(3) 0.19895(14) 0.0337(8) Uani 1 1 d . . . . .
C36 C 0.4468(2) 0.6257(3) 0.14991(14) 0.0314(7) Uani 1 1 d . . . . .
C35 C 0.4625(3) 0.6916(3) 0.10577(15) 0.0430(9) Uani 1 1 d . . . . .
H35 H 0.4753 0.6572 0.0738 0.052 Uiso 1 1 calc R U . . .
C34 C 0.4594(3) 0.8076(3) 0.10862(17) 0.0515(11) Uani 1 1 d . . . . .
H34 H 0.4719 0.8512 0.0792 0.062 Uiso 1 1 calc R U . . .
C33 C 0.4375(3) 0.8597(3) 0.15564(17) 0.0483(10) Uani 1 1 d . . . . .
H33 H 0.4325 0.9380 0.1570 0.058 Uiso 1 1 calc R U . . .
C32 C 0.4231(3) 0.7947(3) 0.20031(16) 0.0413(9) Uani 1 1 d . . . . .
H32 H 0.4091 0.8299 0.2318 0.050 Uiso 1 1 calc R U . . .
C28 C 0.4897(3) 0.6607(3) 0.39667(16) 0.0467(10) Uani 1 1 d . . . . .
H28 H 0.5385 0.7091 0.3936 0.056 Uiso 1 1 calc R U . . .
C27 C 0.4726(3) 0.6353(4) 0.44816(16) 0.0552(11) Uani 1 1 d . . . . .
H27 H 0.5103 0.6650 0.4801 0.066 Uiso 1 1 calc R U . . .
C26 C 0.3984(3) 0.5645(4) 0.45284(16) 0.0536(11) Uani 1 1 d . . . . .
H26 H 0.3863 0.5480 0.4880 0.064 Uiso 1 1 calc R U . . .
C25 C 0.3429(3) 0.5189(3) 0.40613(15) 0.0437(9) Uani 1 1 d . . . . .
H25 H 0.2934 0.4724 0.4102 0.052 Uiso 1 1 calc R U . . .
C22 C 0.2791(3) 0.2363(3) 0.19950(15) 0.0386(9) Uani 1 1 d . . . . .
H22 H 0.2739 0.2694 0.1644 0.046 Uiso 1 1 calc R U . . .
C23 C 0.2550(3) 1.1243(3) 0.20228(14) 0.0390(9) Uani 1 1 d . . . . .
H23 H 0.2333 1.0842 0.1695 0.047 Uiso 1 1 calc R U . . .
C17 C 0.2006(3) 0.8855(3) 0.21178(15) 0.0362(8) Uani 1 1 d . . . . .
H17 H 0.1916 0.9177 0.1763 0.043 Uiso 1 1 calc R U . . .
C18 C 0.1787(2) 0.7736(3) 0.21779(15) 0.0355(8) Uani 1 1 d . . . . .
H18 H 0.1560 0.7319 0.1857 0.043 Uiso 1 1 calc R U . . .
C39 C 0.2118(4) 0.6622(6) 0.5560(3) 0.0897(18) Uani 1 1 d . . . . .
H39 H 0.2475 0.7168 0.5778 0.108 Uiso 1 1 calc R U . . .
N7 N 0.1734(3) 0.6910(5) 0.5064(2) 0.0944(15) Uani 1 1 d . . . . .
H7A H 0.1397 0.6432 0.4848 0.113 Uiso 1 1 calc R U . . .
H7B H 0.1811 0.7581 0.4946 0.113 Uiso 1 1 calc R U . . .
C38 C 0.3145(5) 0.8856(6) 0.4632(3) 0.0938(19) Uani 1 1 d . . . . .
H38 H 0.3279 0.8093 0.4599 0.113 Uiso 1 1 calc R U . . .
H12A H 0.1633 0.4258 0.5620 0.141 Uiso 1 1 d R U . . .
H12B H 0.0953 0.3442 0.5626 0.141 Uiso 1 1 d R U . . .

loop_
_atom_site_aniso_label
_atom_site_aniso_U_11
_atom_site_aniso_U_22
_atom_site_aniso_U_33
_atom_site_aniso_U_23
_atom_site_aniso_U_13
_atom_site_aniso_U_12
Cu1 0.0349(3) 0.0182(2) 0.0364(2) -0.00298(16) 0.01264(18) -0.00642(16)
Cu2 0.0357(3) 0.0183(2) 0.0364(2) -0.00319(16) 0.01320(18) -0.00641(16)
S1 0.0413(5) 0.0301(5) 0.0421(5) -0.0022(4) 0.0161(4) -0.0028(4)
S2 0.0420(5) 0.0274(4) 0.0385(5) -0.0004(4) 0.0155(4) -0.0021(4)
O12 0.098(3) 0.112(4) 0.143(4) -0.024(3) 0.064(3) -0.007(3)
O5 0.0372(14) 0.0252(12) 0.0338(13) -0.0010(10) 0.0081(10) -0.0047(10)
O1 0.0359(13) 0.0252(12) 0.0339(12) -0.0033(10) 0.0096(10) -0.0056(10)
O4 0.0666(19) 0.0472(16) 0.0504(16) -0.0107(13) 0.0305(14) -0.0078(14)
O3 0.0531(18) 0.0439(16) 0.071(2) 0.0042(14) 0.0048(15) 0.0091(14)
O2 0.0507(16) 0.0329(13) 0.0453(15) -0.0097(11) 0.0223(12) -0.0159(12)
O8 0.074(2) 0.0430(16) 0.0465(16) -0.0058(12) 0.0290(14) -0.0066(14)
O7 0.0536(18) 0.0399(16) 0.075(2) 0.0065(14) 0.0042(15) 0.0075(13)
O6 0.0586(17) 0.0357(14) 0.0509(15) -0.0139(12) 0.0290(13) -0.0215(12)
N6 0.086(4) 0.142(5) 0.084(3) -0.009(3) 0.044(3) -0.001(3)
O10 0.095(4) 0.120(4) 0.213(6) 0.026(4) 0.079(4) 0.010(3)
O9 0.117(4) 0.143(4) 0.124(4) 0.024(3) 0.067(3) 0.016(3)
N2 0.0357(16) 0.0207(13) 0.0381(16) -0.0007(12) 0.0090(13) -0.0023(12)
C16 0.0261(18) 0.0184(15) 0.0431(19) 0.0004(14) 0.0072(14) -0.0010(13)
C19 0.0276(18) 0.0205(15) 0.0413(19) -0.0015(14) 0.0076(14) -0.0018(14)
N3 0.0313(16) 0.0197(13) 0.0387(16) -0.0001(12) 0.0090(12) -0.0031(11)
N4 0.0368(17) 0.0224(14) 0.0346(15) 0.0000(12) 0.0120(13) -0.0050(12)
O11 0.183(6) 0.107(4) 0.094(3) 0.009(3) -0.001(3) -0.026(4)
C37 0.076(4) 0.094(5) 0.106(5) 0.034(4) 0.032(4) 0.007(3)
N5 0.108(4) 0.093(4) 0.095(4) 0.017(3) 0.035(3) 0.025(3)
C1 0.040(2) 0.0188(16) 0.0342(18) -0.0010(13) 0.0071(15) 0.0077(14)
C6 0.038(2) 0.0229(16) 0.0373(19) -0.0028(14) 0.0051(15) 0.0008(14)
C7 0.032(2) 0.0216(16) 0.047(2) -0.0025(15) 0.0076(16) -0.0032(14)
N1 0.0320(16) 0.0213(13) 0.0373(16) -0.0008(12) 0.0102(12) -0.0037(12)
C8 0.0269(19) 0.0312(18) 0.0426(19) 0.0043(15) 0.0074(15) -0.0048(14)
C13 0.034(2) 0.0314(19) 0.041(2) 0.0030(15) 0.0075(16) -0.0034(15)
C12 0.060(3) 0.050(2) 0.046(2) 0.0074(19) 0.016(2) -0.009(2)
C11 0.084(4) 0.046(3) 0.059(3) 0.019(2) 0.017(2) -0.015(2)
C10 0.061(3) 0.031(2) 0.072(3) 0.013(2) 0.011(2) -0.0052(19)
C9 0.046(2) 0.0281(19) 0.057(2) 0.0017(17) 0.0128(19) -0.0011(16)
C5 0.046(2) 0.036(2) 0.048(2) -0.0063(17) 0.0026(18) -0.0049(17)
C4 0.069(3) 0.051(3) 0.036(2) -0.0078(18) -0.005(2) -0.003(2)
C3 0.068(3) 0.052(3) 0.032(2) 0.0054(18) 0.0073(19) 0.011(2)
C2 0.046(2) 0.037(2) 0.039(2) 0.0036(16) 0.0098(17) 0.0031(17)
C14 0.058(3) 0.0261(18) 0.0357(19) 0.0019(15) 0.0094(18) -0.0098(17)
C15 0.059(3) 0.0276(18) 0.0376(19) -0.0050(15) 0.0067(18) -0.0148(17)
C20 0.043(2) 0.0221(17) 0.0383(19) 0.0028(14) 0.0024(16) -0.0005(15)
C21 0.043(2) 0.0228(17) 0.0370(19) -0.0052(14) 0.0020(16) -0.0057(15)
C24 0.037(2) 0.0212(16) 0.0322(18) 0.0