####################################################################### 
# 
# This file contains crystal structure data downloaded from the 
# Cambridge Structural Database (CSD) hosted by the Cambridge 
# Crystallographic Data Centre (CCDC).
# 
# Full information about CCDC data access policies and citation 
# guidelines are available at http://www.ccdc.cam.ac.uk/access/V1 
# 
# Audit and citation data items may have been added by the CCDC. 
# Please retain this information to preserve the provenance of 
# this file and to allow appropriate attribution of the data. 
# 
#######################################################################

data_MM'MOF12
_audit_block_doi                 10.5517/cc13tpyk
_database_code_depnum_ccdc_archive 'CCDC 1037599'
loop_
_citation_id
_citation_doi
_citation_year
1 10.1021/ic502950k 2015
_audit_update_record             
;
2014-12-10 deposited with the CCDC.	2024-07-12 downloaded from the CCDC.
;

_audit_creation_method           SHELXL-97
_chemical_name_systematic        
;
 ?
;
_chemical_name_common            ?
_chemical_melting_point          ?
_chemical_formula_moiety         ?
_chemical_formula_sum            'C122 H116 Cd Cl2 N22 Ni2 O7'
_chemical_formula_weight         2303.09

loop_
_atom_type_symbol
_atom_type_description
_atom_type_scat_dispersion_real
_atom_type_scat_dispersion_imag
_atom_type_scat_source
C C 0.0033 0.0016 'International Tables Vol C Tables 4.2.6.8 and 6.1.1.4'
H H 0.0000 0.0000 'International Tables Vol C Tables 4.2.6.8 and 6.1.1.4'
N N 0.0061 0.0033 'International Tables Vol C Tables 4.2.6.8 and 6.1.1.4'
O O 0.0106 0.0060 'International Tables Vol C Tables 4.2.6.8 and 6.1.1.4'
Cl Cl 0.1484 0.1585 'International Tables Vol C Tables 4.2.6.8 and 6.1.1.4'
Ni Ni 0.3393 1.1124 'International Tables Vol C Tables 4.2.6.8 and 6.1.1.4'
Cd Cd -0.8075 1.2024 'International Tables Vol C Tables 4.2.6.8 and 6.1.1.4'

_symmetry_cell_setting           Monoclinic
_symmetry_space_group_name_H-M   'C2/c  '

loop_
_symmetry_equiv_pos_as_xyz
'x, y, z'
'-x, y, -z+1/2'
'x+1/2, y+1/2, z'
'-x+1/2, y+1/2, -z+1/2'
'-x, -y, -z'
'x, -y, z-1/2'
'-x+1/2, -y+1/2, -z'
'x+1/2, -y+1/2, z-1/2'

_cell_length_a                   32.6713(7)
_cell_length_b                   9.4472(2)
_cell_length_c                   38.4422(8)
_cell_angle_alpha                90.00
_cell_angle_beta                 107.4430(10)
_cell_angle_gamma                90.00
_cell_volume                     11319.7(4)
_cell_formula_units_Z            4
_cell_measurement_temperature    173(2)
_cell_measurement_reflns_used    9217
_cell_measurement_theta_min      2.21
_cell_measurement_theta_max      23.28

_exptl_crystal_description       prism
_exptl_crystal_colour            orange
_exptl_crystal_size_max          0.08
_exptl_crystal_size_mid          0.08
_exptl_crystal_size_min          0.08
_exptl_crystal_density_meas      'not measured'
_exptl_crystal_density_diffrn    1.351
_exptl_crystal_density_method    'not measured'
_exptl_crystal_F_000             4784
_exptl_absorpt_coefficient_mu    0.629
_exptl_absorpt_correction_type   multi-scan
_exptl_absorpt_correction_T_min  0.9514
_exptl_absorpt_correction_T_max  0.9514
_exptl_absorpt_process_details   sadabs

_exptl_special_details           
;
Bond distances constraints have been applied to some DMF molecules, as well as the EADP command.
Furthermore, hydrogen atoms on the water molecule and one DMF have not been introduced although they are taken into account in the compound formula.
;

_diffrn_ambient_temperature      173(2)
_diffrn_radiation_wavelength     0.71073
_diffrn_radiation_type           MoK\a
_diffrn_radiation_source         'fine-focus sealed tube'
_diffrn_radiation_monochromator  graphite
_diffrn_measurement_device_type  'Bruker APEX-II CCD'
_diffrn_measurement_method       '\f and \w scans'
_diffrn_detector_area_resol_mean ?
_diffrn_standards_number         ?
_diffrn_standards_interval_count ?
_diffrn_standards_interval_time  ?
_diffrn_standards_decay_%        ?
_diffrn_reflns_number            254718
_diffrn_reflns_av_R_equivalents  0.0684
_diffrn_reflns_av_sigmaI/netI    0.0279
_diffrn_reflns_limit_h_min       -46
_diffrn_reflns_limit_h_max       46
_diffrn_reflns_limit_k_min       -10
_diffrn_reflns_limit_k_max       10
_diffrn_reflns_limit_l_min       -54
_diffrn_reflns_limit_l_max       54
_diffrn_reflns_theta_min         1.31
_diffrn_reflns_theta_max         29.08
_reflns_number_total             14635
_reflns_number_gt                12015
_reflns_threshold_expression     >2sigma(I)

_computing_data_collection       'Bruker APEX2'
_computing_cell_refinement       'Bruker SAINT'
_computing_data_reduction        'Bruker SAINT'

_computing_structure_solution    'SHELXS-97 (Sheldrick, 2008)'
_computing_structure_refinement  'SHELXL-97 (Sheldrick, 2008)'
_computing_molecular_graphics    'Bruker SHELXTL'
_computing_publication_material  'Bruker SHELXTL'

_refine_special_details          
;
 Refinement of F^2^ against ALL reflections.  The weighted R-factor wR and
 goodness of fit S are based on F^2^, conventional R-factors R are based
 on F, with F set to zero for negative F^2^. The threshold expression of
 F^2^ > 2sigma(F^2^) is used only for calculating R-factors(gt) etc. and is
 not relevant to the choice of reflections for refinement.  R-factors based
 on F^2^ are statistically about twice as large as those based on F, and R-
 factors based on ALL data will be even larger.
;

_refine_ls_structure_factor_coef Fsqd
_refine_ls_matrix_type           full
_refine_ls_weighting_scheme      calc
_refine_ls_weighting_details     
'calc w=1/[\s^2^(Fo^2^)+(0.1019P)^2^+45.7262P] where P=(Fo^2^+2Fc^2^)/3'
_atom_sites_solution_primary     direct
_atom_sites_solution_secondary   difmap
_atom_sites_solution_hydrogens   geom
_refine_ls_hydrogen_treatment    constr
_refine_ls_extinction_method     none
_refine_ls_extinction_coef       ?
_refine_ls_number_reflns         14635
_refine_ls_number_parameters     669
_refine_ls_number_restraints     14
_refine_ls_R_factor_all          0.0771
_refine_ls_R_factor_gt           0.0625
_refine_ls_wR_factor_ref         0.1947
_refine_ls_wR_factor_gt          0.1800
_refine_ls_goodness_of_fit_ref   1.084
_refine_ls_restrained_S_all      1.086
_refine_ls_shift/su_max          0.001
_refine_ls_shift/su_mean         0.000

loop_
_atom_site_label
_atom_site_type_symbol
_atom_site_fract_x
_atom_site_fract_y
_atom_site_fract_z
_atom_site_U_iso_or_equiv
_atom_site_adp_type
_atom_site_occupancy
_atom_site_symmetry_multiplicity
_atom_site_calc_flag
_atom_site_refinement_flags
_atom_site_disorder_assembly
_atom_site_disorder_group
C1 C 0.70391(13) 0.9645(4) 0.86215(10) 0.0359(8) Uani 1 1 d . . .
H1 H 0.7197 0.9829 0.8862 0.043 Uiso 1 1 calc R . .
C2 C 0.69341(15) 1.0679(5) 0.83449(11) 0.0436(9) Uani 1 1 d . . .
H2 H 0.7006 1.1634 0.8369 0.052 Uiso 1 1 calc R . .
C3 C 0.67063(14) 1.0000(4) 0.80353(11) 0.0401(9) Uani 1 1 d . . .
H3 H 0.6593 1.0403 0.7806 0.048 Uiso 1 1 calc R . .
C4 C 0.66740(11) 0.8549(4) 0.81298(9) 0.0308(8) Uani 1 1 d . . .
C5 C 0.64653(11) 0.7461(4) 0.78975(9) 0.0314(8) Uani 1 1 d . . .
C6 C 0.64143(12) 0.6070(4) 0.79928(9) 0.0338(8) Uani 1 1 d . . .
C7 C 0.61705(15) 0.4994(5) 0.77586(11) 0.0466(11) Uani 1 1 d . . .
H7 H 0.6026 0.5082 0.7511 0.056 Uiso 1 1 calc R . .
C8 C 0.61902(16) 0.3805(5) 0.79692(12) 0.0522(12) Uani 1 1 d . . .
H8 H 0.6061 0.2936 0.7893 0.063 Uiso 1 1 calc R . .
C9 C 0.64450(14) 0.4168(5) 0.83228(11) 0.0423(9) Uani 1 1 d . . .
H9 H 0.6511 0.3548 0.8520 0.051 Uiso 1 1 calc R . .
C10 C 0.62653(12) 0.7842(5) 0.75046(9) 0.0360(8) Uani 1 1 d . . .
C11 C 0.64442(13) 0.7346(5) 0.72436(9) 0.0392(9) Uani 1 1 d . . .
H11 H 0.6696 0.6822 0.7316 0.047 Uiso 1 1 calc R . .
C12 C 0.62516(13) 0.7622(5) 0.68750(9) 0.0405(9) Uani 1 1 d . . .
H12 H 0.6376 0.7277 0.6704 0.049 Uiso 1 1 calc R . .
C13 C 0.58774(12) 0.8404(4) 0.67603(9) 0.0339(8) Uani 1 1 d . . .
C14 C 0.57107(15) 0.8954(6) 0.70233(10) 0.0542(13) Uani 1 1 d . . .
H14 H 0.5466 0.9516 0.6952 0.065 Uiso 1 1 calc R . .
C15 C 0.59024(15) 0.8684(6) 0.73944(10) 0.0540(13) Uani 1 1 d . . .
H15 H 0.5786 0.9069 0.7567 0.065 Uiso 1 1 calc R . .
C16 C 0.56567(11) 0.8658(4) 0.63671(9) 0.0323(8) Uani 1 1 d . . .
C17 C 0.53573(15) 0.9739(5) 0.62509(10) 0.0475(11) Uani 1 1 d . . .
H17 H 0.5290 1.0325 0.6421 0.057 Uiso 1 1 calc R . .
C18 C 0.51593(14) 0.9940(5) 0.58806(10) 0.0440(10) Uani 1 1 d . . .
H18 H 0.4959 1.0665 0.5809 0.053 Uiso 1 1 calc R . .
C19 C 0.55266(12) 0.8128(4) 0.57326(9) 0.0349(8) Uani 1 1 d . . .
H19 H 0.5589 0.7569 0.5556 0.042 Uiso 1 1 calc R . .
C20 C 0.57393(13) 0.7839(5) 0.60968(9) 0.0368(8) Uani 1 1 d . . .
H20 H 0.5936 0.7100 0.6159 0.044 Uiso 1 1 calc R . .
C21 C 0.77411(12) 0.6827(4) 0.85038(9) 0.0328(7) Uani 1 1 d . . .
H21 H 0.7635 0.7687 0.8396 0.039 Uiso 1 1 calc R . .
C22 C 0.81337(13) 0.6226(5) 0.84930(11) 0.0393(9) Uani 1 1 d . . .
H22 H 0.8323 0.6598 0.8378 0.047 Uiso 1 1 calc R . .
C23 C 0.81801(12) 0.4996(4) 0.86845(10) 0.0357(8) Uani 1 1 d . . .
H23 H 0.8410 0.4371 0.8729 0.043 Uiso 1 1 calc R . .
C24 C 0.78075(11) 0.4844(4) 0.88050(9) 0.0274(7) Uani 1 1 d . . .
C25 C 0.77242(10) 0.3758(4) 0.90173(9) 0.0273(7) Uani 1 1 d . . .
C26 C 0.73749(11) 0.3646(4) 0.91563(9) 0.0293(7) Uani 1 1 d . . .
C27 C 0.72904(13) 0.2509(5) 0.93680(11) 0.0397(9) Uani 1 1 d . . .
H27 H 0.7457 0.1701 0.9441 0.048 Uiso 1 1 calc R . .
C28 C 0.69182(14) 0.2833(5) 0.94430(12) 0.0463(10) Uani 1 1 d . . .
H28 H 0.6782 0.2293 0.9578 0.056 Uiso 1 1 calc R . .
C29 C 0.67820(12) 0.4146(5) 0.92761(10) 0.0384(9) Uani 1 1 d . . .
H29 H 0.6534 0.4608 0.9284 0.046 Uiso 1 1 calc R . .
C30 C 0.80480(11) 0.2580(4) 0.91216(9) 0.0299(7) Uani 1 1 d . . .
C31 C 0.83215(13) 0.2523(5) 0.94777(11) 0.0437(10) Uani 1 1 d . . .
H31 H 0.8308 0.3231 0.9642 0.052 Uiso 1 1 calc R . .
C32 C 0.86123(12) 0.1432(4) 0.95900(10) 0.0407(10) Uani 1 1 d . . .
H32 H 0.8797 0.1428 0.9827 0.049 Uiso 1 1 calc R . .
C33 C 0.86330(10) 0.0346(4) 0.93553(9) 0.0291(7) Uani 1 1 d . . .
C34 C 0.83610(11) 0.0396(4) 0.89952(9) 0.0306(7) Uani 1 1 d . . .
H34 H 0.8373 -0.0318 0.8832 0.037 Uiso 1 1 calc R . .
C35 C 0.80733(11) 0.1508(4) 0.88810(9) 0.0313(7) Uani 1 1 d . . .
H35 H 0.7896 0.1535 0.8641 0.038 Uiso 1 1 calc R . .
C36 C 0.89322(10) -0.0861(4) 0.94935(9) 0.0293(7) Uani 1 1 d . . .
C37 C 0.93096(11) -0.0670(4) 0.97788(10) 0.0351(8) Uani 1 1 d . . .
H37 H 0.9383 0.0222 0.9881 0.042 Uiso 1 1 calc R . .
C38 C 0.95722(11) -0.1816(4) 0.99079(10) 0.0372(9) Uani 1 1 d . . .
H38 H 0.9824 -0.1665 1.0096 0.045 Uiso 1 1 calc R . .
C39 C 0.91248(11) -0.3312(4) 0.95096(10) 0.0326(8) Uani 1 1 d . . .
H39 H 0.9057 -0.4221 0.9417 0.039 Uiso 1 1 calc R . .
N6 N 0.94868(9) -0.3125(3) 0.97800(8) 0.0302(6) Uani 1 1 d . . .
C40 C 0.88434(11) -0.2221(4) 0.93586(9) 0.0328(8) Uani 1 1 d . . .
H40 H 0.8596 -0.2403 0.9168 0.039 Uiso 1 1 calc R . .
C41 C 0.77169(14) 0.7890(5) 0.94069(10) 0.0445(10) Uani 1 1 d . . .
H41 H 0.7897 0.7496 0.9285 0.053 Uiso 1 1 calc R . .
C42 C 0.79077(17) 0.8722(6) 0.97213(12) 0.0550(12) Uani 1 1 d . . .
H42 H 0.8203 0.8871 0.9802 0.066 Uiso 1 1 calc R . .
C43 C 0.76543(19) 0.9275(6) 0.98946(13) 0.0558(12) Uani 1 1 d . . .
H43 H 0.7773 0.9835 1.0099 0.067 Uiso 1 1 calc R . .
C44 C 0.72167(19) 0.9043(5) 0.97796(12) 0.0536(13) Uani 1 1 d . . .
C45 C 0.70509(15) 0.8202(5) 0.94593(10) 0.0411(9) Uani 1 1 d . . .
C46 C 0.66006(15) 0.7919(5) 0.93171(11) 0.0451(10) Uani 1 1 d . . .
C47 C 0.63182(18) 0.8454(6) 0.95045(14) 0.0596(14) Uani 1 1 d . . .
C48 C 0.6501(2) 0.9287(6) 0.98321(14) 0.0644(16) Uani 1 1 d . . .
H48 H 0.6321 0.9637 0.9958 0.077 Uiso 1 1 calc R . .
C49 C 0.6922(2) 0.9567(7) 0.99579(14) 0.0650(15) Uani 1 1 d . . .
H49 H 0.7024 1.0116 1.0167 0.078 Uiso 1 1 calc R . .
C50 C 0.5887(2) 0.8155(7) 0.93629(19) 0.0741(17) Uani 1 1 d . . .
H50 H 0.5694 0.8490 0.9479 0.089 Uiso 1 1 calc R . .
C51 C 0.57406(16) 0.7365(8) 0.9051(2) 0.0769(19) Uani 1 1 d . . .
H51 H 0.5451 0.7146 0.8958 0.092 Uiso 1 1 calc R . .
C52 C 0.60429(15) 0.6876(6) 0.88679(16) 0.0609(14) Uani 1 1 d . . .
H52 H 0.5942 0.6366 0.8652 0.073 Uiso 1 1 calc R . .
N1 N 0.68858(9) 0.8379(3) 0.84992(7) 0.0288(6) Uani 1 1 d . . .
N2 N 0.65815(10) 0.5503(4) 0.83425(8) 0.0328(7) Uani 1 1 d . . .
N3 N 0.52403(9) 0.9156(4) 0.56235(7) 0.0304(6) Uani 1 1 d . . .
N4 N 0.75424(9) 0.6020(3) 0.86856(7) 0.0269(6) Uani 1 1 d . . .
N5 N 0.70499(9) 0.4647(3) 0.91058(7) 0.0293(6) Uani 1 1 d . . .
N7 N 0.73056(10) 0.7641(3) 0.92767(7) 0.0321(6) Uani 1 1 d . . .
N8 N 0.64561(10) 0.7137(4) 0.89999(9) 0.0395(8) Uani 1 1 d . . .
Cl1 Cl 0.55658(3) 0.84603(11) 0.48473(2) 0.0388(2) Uani 1 1 d . . .
Ni1 Ni 0.697344(13) 0.64925(5) 0.879460(10) 0.02374(11) Uani 1 1 d . . .
Cd1 Cd 0.5000 1.0000 0.5000 0.02502(10) Uani 1 2 d S . .
C53 C 0.9627(3) 0.7155(16) 0.6574(3) 0.1586(19) Uani 1 1 d D . .
H53 H 0.9610 0.8003 0.6448 0.190 Uiso 1 1 calc R . .
C54 C 0.9360(4) 0.4984(14) 0.6705(4) 0.1586(19) Uani 1 1 d . . .
H54A H 0.9121 0.4357 0.6610 0.238 Uiso 1 1 calc R . .
H54B H 0.9367 0.5288 0.6945 0.238 Uiso 1 1 calc R . .
H54C H 0.9622 0.4499 0.6716 0.238 Uiso 1 1 calc R . .
C55 C 0.8956(3) 0.6351(14) 0.6139(3) 0.1586(19) Uani 1 1 d D . .
H55A H 0.8775 0.5540 0.6124 0.238 Uiso 1 1 calc R . .
H55B H 0.9056 0.6381 0.5929 0.238 Uiso 1 1 calc R . .
H55C H 0.8797 0.7196 0.6148 0.238 Uiso 1 1 calc R . .
N9 N 0.9312(3) 0.6257(13) 0.6458(3) 0.1586(19) Uani 1 1 d D . .
O1 O 0.9947(3) 0.6957(10) 0.6841(2) 0.1586(19) Uani 1 1 d D . .
C56 C 0.8071(2) 0.8985(7) 0.77822(16) 0.0706(16) Uani 1 1 d . . .
H56 H 0.8274 0.8344 0.7753 0.085 Uiso 1 1 calc R . .
C57 C 0.7724(2) 0.8750(7) 0.71322(14) 0.0648(14) Uani 1 1 d . . .
H57A H 0.7467 0.9091 0.6959 0.097 Uiso 1 1 calc R . .
H57B H 0.7720 0.7734 0.7136 0.097 Uiso 1 1 calc R . .
H57C H 0.7969 0.9069 0.7064 0.097 Uiso 1 1 calc R . .
C58 C 0.7424(2) 1.0293(10) 0.7501(2) 0.095(2) Uani 1 1 d . . .
H58A H 0.7219 1.0369 0.7263 0.143 Uiso 1 1 calc R . .
H58B H 0.7554 1.1199 0.7574 0.143 Uiso 1 1 calc R . .
H58C H 0.7281 0.9982 0.7672 0.143 Uiso 1 1 calc R . .
N10 N 0.77503(14) 0.9283(5) 0.74901(10) 0.0508(9) Uani 1 1 d . . .
O2 O 0.81275(18) 0.9467(6) 0.80875(10) 0.0906(16) Uani 1 1 d . . .
N11 N 0.4557(5) 0.4290(17) 0.8643(3) 0.130(3) Uani 0.50 1 d PD . .
C59 C 0.4736(6) 0.5172(19) 0.8422(5) 0.130(3) Uani 0.50 1 d PD . .
H59A H 0.4618 0.4906 0.8171 0.195 Uiso 0.50 1 calc PR . .
H59B H 0.5042 0.5057 0.8495 0.195 Uiso 0.50 1 calc PR . .
H59C H 0.4667 0.6144 0.8452 0.195 Uiso 0.50 1 calc PR . .
C60 C 0.4755(5) 0.413(2) 0.9002(4) 0.130(3) Uani 0.50 1 d PD . .
H60 H 0.4665 0.3390 0.9121 0.156 Uiso 0.50 1 calc PR . .
C61 C 0.4166(5) 0.357(2) 0.8461(5) 0.130(3) Uani 0.50 1 d PD . .
H61A H 0.4131 0.3536 0.8204 0.195 Uiso 0.50 1 calc PR . .
H61B H 0.3929 0.4075 0.8502 0.195 Uiso 0.50 1 calc PR . .
H61C H 0.4175 0.2629 0.8555 0.195 Uiso 0.50 1 calc PR . .
O3 O 0.5032(4) 0.4859(15) 0.9178(4) 0.130(3) Uani 0.50 1 d PD . .
N12 N 0.5000 0.598(4) 0.7500 0.319(10) Uani 1 2 d SD . .
C62 C 0.5000 0.444(4) 0.7500 0.319(10) Uani 1 2 d SD . .
O4 O 0.5064(7) 0.629(3) 0.8090(3) 0.319(10) Uani 0.50 1 d PD . .
C63 C 0.5193(6) 0.676(2) 0.7841(6) 0.319(10) Uani 1 1 d D . .
O5 O 1.0000 0.575(3) 0.7500 0.293(10) Uani 1 2 d S . .

loop_
_atom_site_aniso_label
_atom_site_aniso_U_11
_atom_site_aniso_U_22
_atom_site_aniso_U_33
_atom_site_aniso_U_23
_atom_site_aniso_U_13
_atom_site_aniso_U_12
C1 0.050(2) 0.023(2) 0.0298(16) 0.0029(14) 0.0045(14) 0.0041(15)
C2 0.060(2) 0.025(3) 0.041(2) 0.0082(16) 0.0080(18) 0.0047(18)
C3 0.050(2) 0.033(3) 0.0323(17) 0.0138(15) 0.0058(15) 0.0094(17)
C4 0.0330(16) 0.034(2) 0.0229(14) 0.0080(13) 0.0048(12) 0.0103(14)
C5 0.0330(16) 0.036(2) 0.0212(13) 0.0067(13) 0.0030(11) 0.0107(14)
C6 0.0395(18) 0.033(2) 0.0227(14) 0.0023(13) -0.0002(12) 0.0050(15)
C7 0.056(2) 0.043(3) 0.0298(17) -0.0011(16) -0.0041(16) -0.0016(19)
C8 0.065(3) 0.037(3) 0.042(2) -0.0017(18) -0.0031(19) -0.012(2)
C9 0.055(2) 0.030(3) 0.0347(18) 0.0036(15) 0.0031(16) -0.0031(17)
C10 0.0428(18) 0.041(2) 0.0196(13) 0.0054(13) 0.0030(12) 0.0094(16)
C11 0.0413(19) 0.048(3) 0.0240(15) 0.0062(15) 0.0031(13) 0.0156(17)
C12 0.0441(19) 0.053(3) 0.0206(14) 0.0037(15) 0.0044(13) 0.0146(18)
C13 0.0363(17) 0.042(2) 0.0195(13) 0.0050(13) 0.0030(12) 0.0042(15)
C14 0.054(2) 0.083(4) 0.0231(16) 0.0120(19) 0.0064(16) 0.035(2)
C15 0.056(2) 0.082(4) 0.0225(16) 0.0115(19) 0.0083(16) 0.031(2)
C16 0.0348(16) 0.039(2) 0.0200(13) 0.0060(13) 0.0032(12) -0.0011(14)
C17 0.056(2) 0.060(3) 0.0225(16) 0.0024(16) 0.0047(15) 0.020(2)
C18 0.047(2) 0.056(3) 0.0229(15) 0.0069(16) 0.0006(14) 0.0156(19)
C19 0.047(2) 0.031(2) 0.0216(14) -0.0003(13) 0.0022(13) -0.0030(15)
C20 0.0441(19) 0.037(2) 0.0240(15) 0.0047(14) 0.0027(13) 0.0064(16)
C21 0.0427(18) 0.026(2) 0.0303(15) 0.0033(13) 0.0116(13) 0.0044(14)
C22 0.0418(19) 0.040(3) 0.0410(19) 0.0005(16) 0.0201(16) 0.0012(16)
C23 0.0333(17) 0.035(2) 0.0390(18) -0.0033(15) 0.0111(14) 0.0077(14)
C24 0.0306(15) 0.023(2) 0.0261(14) -0.0016(12) 0.0044(11) 0.0074(12)
C25 0.0305(15) 0.0178(19) 0.0263(14) -0.0022(12) -0.0026(11) 0.0072(12)
C26 0.0329(16) 0.023(2) 0.0266(14) 0.0060(12) -0.0001(12) 0.0061(13)
C27 0.046(2) 0.027(2) 0.0400(19) 0.0113(15) 0.0044(16) 0.0056(16)
C28 0.050(2) 0.040(3) 0.048(2) 0.0185(19) 0.0142(18) -0.0026(19)
C29 0.0358(18) 0.040(3) 0.0391(18) 0.0118(16) 0.0111(14) 0.0053(16)
C30 0.0307(15) 0.018(2) 0.0330(16) 0.0003(12) -0.0024(12) 0.0069(12)
C31 0.050(2) 0.030(2) 0.0359(18) -0.0116(15) -0.0104(16) 0.0177(17)
C32 0.0376(18) 0.035(3) 0.0338(17) -0.0075(15) -0.0126(14) 0.0120(16)
C33 0.0245(14) 0.022(2) 0.0335(16) 