
#######################################################################
#
#                 Cambridge Crystallographic Data Centre
#                                CCDC
#
#######################################################################
#
# If this CIF has been generated from an entry in the Cambridge
# Structural Database, then it will include bibliographic, chemical,
# crystal, experimental, refinement or atomic coordinate data resulting
# from the CCDC's data processing and validation procedures.
#
#######################################################################

data_CSD_CIF_PPHOXP
_audit_creation_date 1976-08-18
_audit_creation_method CSD-ConQuest-V1
_database_code_CSD PPHOXP
_database_code_depnum_ccdc_archive 'CCDC 1237819'
_chemical_formula_sum 'C30 H25 O5 P1'
_chemical_formula_moiety
;
C30 H25 O5 P1
;
_journal_coden_Cambridge 4
_journal_volume 98
_journal_year 1976
_journal_page_first 581
_journal_name_full 'J.Am.Chem.Soc. '
loop_
_publ_author_name
"R.Sarma"
"F.Ramirez"
"B.McKeever"
"J.F.Marecek"
"S.Lee"
_chemical_name_systematic
;
Pentaphenoxyphosphorane
;
_chemical_name_common
;
Teaching Subset: Fundamental Chemistry
;
_chemical_melting_point 376
_cell_volume   1227.757
_exptl_special_details
;
Melting point range 376-377K
density given as 1.31 - we calculate 1.34; several bond length discrepancies
;
_diffrn_ambient_temperature ?
_diffrn_special_details
;
The study was carried out at room temperature,in the range 283-303K

;
#These two values have been output from a single CSD field.
_refine_ls_R_factor_gt 0.075
_refine_ls_wR_factor_gt 0.075
_symmetry_cell_setting triclinic
_symmetry_space_group_name_H-M 'P -1'
_symmetry_Int_Tables_number 2
loop_
_symmetry_equiv_pos_site_id
_symmetry_equiv_pos_as_xyz
1 x,y,z
2 -x,-y,-z
_cell_length_a 9.686(5)
_cell_length_b 11.315(5)
_cell_length_c 11.693(5)
_cell_angle_alpha 83.66(6)
_cell_angle_beta 79.66(6)
_cell_angle_gamma 77.58(4)
_cell_formula_units_Z 2
loop_
_atom_type_symbol
_atom_type_radius_bond
C 0.68
H 0.23
O 0.68
P 1.05
loop_
_atom_site_label
_atom_site_type_symbol
_atom_site_fract_x
_atom_site_fract_y
_atom_site_fract_z
C1 C -0.11710 0.09890 0.27520
C2 C -0.21230 0.08370 0.20640
C3 C -0.30250 0.00130 0.24440
C4 C -0.29550 -0.06610 0.34850
C5 C -0.20130 -0.04910 0.41640
C6 C -0.11050 0.03360 0.37910
C7 C 0.28870 -0.05330 0.20880
C8 C 0.35810 -0.06780 0.09840
C9 C 0.47750 -0.16230 0.07920
C10 C 0.52130 -0.23980 0.16970
C11 C 0.45070 -0.22400 0.27830
C12 C 0.33140 -0.12870 0.29930
C13 C -0.00220 0.34210 0.37680
C14 C -0.08990 0.31840 0.47880
C15 C -0.19860 0.41550 0.51960
C16 C -0.21490 0.52780 0.46120
C17 C -0.12630 0.54860 0.35840
C18 C -0.01770 0.45410 0.31730
C19 C 0.04320 0.27480 0.03580
C20 C -0.07540 0.36770 0.04900
C21 C -0.17150 0.38260 -0.02810
C22 C -0.14800 0.30740 -0.11660
C23 C -0.02710 0.21400 -0.12590
C24 C 0.06960 0.19930 -0.05020
C25 C 0.38460 0.25100 0.24650
C26 C 0.45390 0.22790 0.34120
C27 C 0.53820 0.30840 0.35900
C28 C 0.54830 0.41180 0.28330
C29 C 0.47540 0.43370 0.19160
C30 C 0.39410 0.35230 0.17290
H1 H -0.20970 0.13770 0.12980
H2 H -0.36930 -0.00860 0.19230
H3 H -0.36610 -0.12000 0.36930
H4 H -0.19110 -0.10040 0.49550
H5 H -0.03580 0.05020 0.41850
H6 H 0.32270 -0.00850 0.02830
H7 H 0.51860 -0.17400 -0.00820
H8 H 0.60900 -0.31080 0.15110
H9 H 0.47890 -0.28450 0.35580
H10 H 0.28220 -0.10920 0.37120
H11 H -0.07490 0.23490 0.53540
H12 H -0.25640 0.39540 0.60030
H13 H -0.27990 0.60390 0.49080
H14 H -0.12230 0.63390 0.31290
H15 H -0.02490 0.45920 0.23290
H16 H -0.08980 0.42370 0.11820
H17 H -0.24990 0.45980 -0.01750
H18 H -0.22160 0.31880 -0.17320
H19 H 0.00030 0.16370 -0.20940
H20 H 0.14690 0.12020 -0.04910
H21 H 0.44780 0.15430 0.39270
H22 H 0.60360 0.28110 0.42710
H23 H 0.61860 0.47370 0.28860
H24 H 0.48800 0.51780 0.12740
H25 H 0.34640 0.36920 0.10080
O1 O -0.03560 0.18500 0.23800
O2 O 0.16160 0.03400 0.22740
O3 O 0.11570 0.25110 0.34000
O4 O 0.14490 0.25780 0.10980
O5 O 0.31450 0.16330 0.22460
P1 P 0.13900 0.17820 0.22890
#END
