
#######################################################################
#
#                 Cambridge Crystallographic Data Centre
#                                CCDC
#
#######################################################################
#
# If this CIF has been generated from an entry in the Cambridge
# Structural Database, then it will include bibliographic, chemical,
# crystal, experimental, refinement or atomic coordinate data resulting
# from the CCDC's data processing and validation procedures.
#
#######################################################################

data_CSD_CIF_PSEPED01
_audit_creation_date 1977-09-12
_audit_creation_method CSD-ConQuest-V1
_database_code_CSD PSEPED01
_database_code_depnum_ccdc_archive 'CCDC 1238266'
_chemical_formula_sum 'C10 H15 N1 O1'
_chemical_formula_moiety
;
C10 H15 N1 O1
;
_journal_coeditor_code "IUCr A14561"
_journal_coden_Cambridge 107
_journal_volume 33
_journal_year 1977
_journal_page_first 1016
_journal_name_full 'Acta Crystallogr.,Sect.B:Struct.Crystallogr.Cryst.Chem. '
loop_
_publ_author_name
"M.Mathew"
"G.J.Palenik"
_chemical_name_systematic
;
(+)-Pseudoephedrine
;
_chemical_name_common
;
(+)-Isoephedrine; DrugBank: DB00852; Teaching Subset: Fundamental Chemistry, 
Drug Molecules
;
_cell_volume   1022.027
_exptl_crystal_density_diffrn 1.074
_exptl_special_details
;
nazal decongestant, stimulant, vasoconstrictor, antitussive drug, promotes 
wakefulness
;
_diffrn_ambient_temperature ?
_diffrn_radiation_source 'MoKalpha radiation'
_diffrn_special_details
;
The study was carried out at room temperature,in the range 283-303K

;
#These two values have been output from a single CSD field.
_refine_ls_R_factor_gt 0.073
_refine_ls_wR_factor_gt 0.073
loop_
_citation_database_id_CSD
_citation_special_details
EPHEDR "is a stereoisomer of this entry"
_symmetry_cell_setting orthorhombic
_symmetry_space_group_name_H-M 'P 21 21 21'
_symmetry_Int_Tables_number 19
loop_
_symmetry_equiv_pos_site_id
_symmetry_equiv_pos_as_xyz
1 x,y,z
2 1/2+x,1/2-y,-z
3 -x,1/2+y,1/2-z
4 1/2-x,-y,1/2+z
_cell_length_a 7.322(3)
_cell_length_b 8.659(3)
_cell_length_c 16.120(7)
_cell_angle_alpha 90
_cell_angle_beta 90
_cell_angle_gamma 90
_cell_formula_units_Z 4
loop_
_atom_type_symbol
_atom_type_radius_bond
C 0.68
H 0.23
N 0.68
O 0.68
loop_
_atom_site_label
_atom_site_type_symbol
_atom_site_fract_x
_atom_site_fract_y
_atom_site_fract_z
O1 O -0.03050 -0.41820 0.23200
N1 N -0.10010 -0.14400 0.16410
C1 C 0.26550 -0.45610 0.16270
C2 C 0.20730 -0.58780 0.11750
C3 C 0.34180 -0.69130 0.09160
C4 C 0.52440 -0.66580 0.10460
C5 C 0.57480 -0.53940 0.14950
C6 C 0.44840 -0.43420 0.17850
C7 C 0.12200 -0.34180 0.19500
C8 C 0.04390 -0.23930 0.12720
C9 C 0.18620 -0.13610 0.09030
C10 C -0.22530 -0.07430 0.10350
H1 H 0.02700 -0.48300 0.26700
H2 H -0.17400 -0.20100 0.20400
H3 H 0.06800 -0.59800 0.11200
H4 H 0.27700 -0.78300 0.06300
H5 H 0.63700 -0.73900 0.08300
H6 H 0.72100 -0.49400 0.16100
H7 H 0.49600 -0.34700 0.21900
H8 H 0.16800 -0.25900 0.23900
H9 H -0.00700 -0.30900 0.07900
H10 H 0.17600 -0.07800 0.04400
H11 H 0.24500 -0.04800 0.13600
H12 H 0.30900 -0.18900 0.06700
H13 H -0.15200 0.00700 0.06900
H14 H -0.31800 -0.03400 0.13300
H15 H -0.30400 -0.15900 0.06900
#END
