####################################################################### 
# 
# This file contains crystal structure data downloaded from the 
# Cambridge Structural Database (CSD) hosted by the Cambridge 
# Crystallographic Data Centre (CCDC).
# 
# Full information about CCDC data access policies and citation 
# guidelines are available at http://www.ccdc.cam.ac.uk/access/V1 
# 
# Audit and citation data items may have been added by the CCDC. 
# Please retain this information to preserve the provenance of 
# this file and to allow appropriate attribution of the data. 
# 
#######################################################################

data_shelxl
_audit_block_doi                 10.5517/cc138p68
_database_code_depnum_ccdc_archive 'CCDC 1021239'
loop_
_citation_id
_citation_doi
_citation_year
1 10.11862/CJIC.2015.049 2015
_audit_update_record             
;
2014-11-05 deposited with the CCDC.	2024-07-12 downloaded from the CCDC.
;
_audit_creation_date             2014-11-04
_audit_creation_method           
;
Olex2 1.2
(compiled 2014.09.19 svn.r3010 for OlexSys, GUI svn.r4874)
;
_chemical_name_common            ?
_chemical_name_systematic        
;
 ? 
;
_chemical_formula_moiety         '0.5(C56 H36 Mn4 N4 O28), 4(H2 O0.5)'
_chemical_formula_sum            'C28 H26 Mn2 N2 O16'
_chemical_formula_weight         756.39
_chemical_melting_point          ?
loop_
_atom_type_symbol
_atom_type_description
_atom_type_scat_dispersion_real
_atom_type_scat_dispersion_imag
_atom_type_scat_source
C C 0.0033 0.0016 'International Tables Vol C Tables 4.2.6.8 and 6.1.1.4'
H H 0.0000 0.0000 'International Tables Vol C Tables 4.2.6.8 and 6.1.1.4'
Mn Mn 0.3368 0.7283 'International Tables Vol C Tables 4.2.6.8 and 6.1.1.4'
N N 0.0061 0.0033 'International Tables Vol C Tables 4.2.6.8 and 6.1.1.4'
O O 0.0106 0.0060 'International Tables Vol C Tables 4.2.6.8 and 6.1.1.4'

_space_group_crystal_system      monoclinic
_space_group_IT_number           15
_space_group_name_H-M_alt        'C 1 2/c 1'
_space_group_name_Hall           '-C 2yc'
loop_
_space_group_symop_id
_space_group_symop_operation_xyz
1 'x, y, z'
2 '-x, y, -z+1/2'
3 'x+1/2, y+1/2, z'
4 '-x+1/2, y+1/2, -z+1/2'
5 '-x, -y, -z'
6 'x, -y, z-1/2'
7 '-x+1/2, -y+1/2, -z'
8 'x+1/2, -y+1/2, z-1/2'

_cell_length_a                   31.260(6)
_cell_length_b                   10.040(2)
_cell_length_c                   10.796(2)
_cell_angle_alpha                90.00
_cell_angle_beta                 93.73(3)
_cell_angle_gamma                90.00
_cell_volume                     3381.2(12)
_cell_formula_units_Z            4
_cell_measurement_reflns_used    3729
_cell_measurement_temperature    293
_cell_measurement_theta_max      27.5
_cell_measurement_theta_min      3.3
_exptl_absorpt_coefficient_mu    0.821
_exptl_absorpt_correction_T_max  0.997
_exptl_absorpt_correction_T_min  0.992
_exptl_absorpt_correction_type   Numerical
_exptl_absorpt_process_details   ?
_exptl_crystal_colour            Colorless
_exptl_crystal_density_diffrn    1.486
_exptl_crystal_density_meas      ?
_exptl_crystal_density_method    'not measured'
_exptl_crystal_description       Prism
_exptl_crystal_F_000             1544
_exptl_crystal_size_max          0.25
_exptl_crystal_size_mid          0.2
_exptl_crystal_size_min          0.2
_exptl_special_details           
;
 ?
;
_diffrn_reflns_av_R_equivalents  0.0713
_diffrn_reflns_av_unetI/netI     0.0486
_diffrn_reflns_limit_h_max       37
_diffrn_reflns_limit_h_min       -37
_diffrn_reflns_limit_k_max       11
_diffrn_reflns_limit_k_min       -11
_diffrn_reflns_limit_l_max       12
_diffrn_reflns_limit_l_min       -12
_diffrn_reflns_number            13732
_diffrn_reflns_theta_full        25.01
_diffrn_reflns_theta_max         25.01
_diffrn_reflns_theta_min         3.32
_diffrn_ambient_temperature      293
_diffrn_detector                 CCD
_diffrn_detector_area_resol_mean 13.6612
_diffrn_measured_fraction_theta_full 0.988
_diffrn_measured_fraction_theta_max 0.988
_diffrn_measurement_details      
;
scan:
	Number of images: 180
	           Slice: -60.0000 - 120.0000
	     Image width: 1.0000
	        Exp time: 12.0000
	   Rotation axis: Omega
	           Omega: 0.0000
	             Chi: 54.0000
	             Phi: 0.0000
	             XTD: 50.2234
	          2theta: 29.8129
scan:
	Number of images: 180
	           Slice: -60.0000 - 120.0000
	     Image width: 1.0000
	        Exp time: 12.0000
	   Rotation axis: Omega
	           Omega: 0.0000
	             Chi: 54.0000
	             Phi: 120.0000
	             XTD: 50.2234
	          2theta: 29.8129
scan:
	Number of images: 180
	           Slice: -60.0000 - 120.0000
	     Image width: 1.0000
	        Exp time: 12.0000
	   Rotation axis: Omega
	           Omega: 0.0000
	             Chi: 54.0000
	             Phi: 240.0000
	             XTD: 50.2234
	          2theta: 29.8129
;
_diffrn_measurement_device       
;
XtaLABmini: Fixed Chi 2 circle
;
_diffrn_measurement_device_type  'Bruker P4'
_diffrn_measurement_method       '\w scans'
_diffrn_measurement_specimen_support Fiber
_diffrn_orient_matrix_type       d*Trek
_diffrn_orient_matrix_UB_11      0.012313
_diffrn_orient_matrix_UB_12      0.018955
_diffrn_orient_matrix_UB_13      0.022721
_diffrn_orient_matrix_UB_21      -0.027404
_diffrn_orient_matrix_UB_22      -0.065682
_diffrn_orient_matrix_UB_23      0.069647
_diffrn_orient_matrix_UB_31      0.083953
_diffrn_orient_matrix_UB_32      -0.039388
_diffrn_orient_matrix_UB_33      -0.004112
_diffrn_radiation_monochromator  'Graphite Monochromator'
_diffrn_radiation_type           MoK\a
_diffrn_radiation_wavelength     0.71073
_diffrn_source                   'Sealed Tube'
_diffrn_source_current           12.0
_diffrn_source_power             0.6
_diffrn_source_voltage           50.0
_diffrn_special_details          
;
 ?
;
_diffrn_standards_decay_%        ?
_diffrn_standards_interval_count ?
_diffrn_standards_interval_time  ?
_diffrn_standards_number         ?
_reflns_number_gt                2570
_reflns_number_total             2949
_reflns_threshold_expression     >2sigma(I)
_computing_cell_refinement       
;
CrystalClear-SM Expert 2.0 r1 (Rigaku, 2009)
;
_computing_data_collection       
;
CrystalClear-SM Expert 2.0 r1 (Rigaku, 2009)
;
_computing_data_reduction        
;
CrystalClear-SM Expert 2.0 r1 (Rigaku, 2009)
;
_computing_molecular_graphics    'Olex2 (Dolomanov et al., 2009)'
_computing_publication_material  'Olex2 (Dolomanov et al., 2009)'
_computing_structure_refinement  'XH (Sheldrick, 2008)'
_computing_structure_solution    'XS (Sheldrick, 2008)'
_refine_diff_density_max         0.378
_refine_diff_density_min         -0.346
_refine_diff_density_rms         0.080
_refine_ls_extinction_coef       ?
_refine_ls_extinction_method     none
_refine_ls_goodness_of_fit_ref   1.075
_refine_ls_hydrogen_treatment    constr
_refine_ls_matrix_type           full
_refine_ls_number_parameters     223
_refine_ls_number_reflns         2949
_refine_ls_number_restraints     12
_refine_ls_R_factor_all          0.0559
_refine_ls_R_factor_gt           0.0475
_refine_ls_restrained_S_all      1.072
_refine_ls_shift/su_max          0.046
_refine_ls_shift/su_mean         0.001
_refine_ls_structure_factor_coef Fsqd
_refine_ls_weighting_details     
'calc w=1/[\s^2^(Fo^2^)+(0.0674P)^2^+5.0283P] where P=(Fo^2^+2Fc^2^)/3'
_refine_ls_weighting_scheme      calc
_refine_ls_wR_factor_gt          0.1264
_refine_ls_wR_factor_ref         0.1317
_refine_special_details          
;
 Refinement of F^2^ against ALL reflections.  The weighted R-factor wR and 
 goodness of fit S are based on F^2^, conventional R-factors R are based 
 on F, with F set to zero for negative F^2^. The threshold expression of 
 F^2^ > 2sigma(F^2^) is used only for calculating R-factors(gt) etc. and is 
 not relevant to the choice of reflections for refinement.  R-factors based 
 on F^2^ are statistically about twice as large as those based on F, and R- 
 factors based on ALL data will be even larger. 
;
_olex2_refinement_description    
;
1. Fixed Uiso
 At 1.2 times of:
  All C(H) groups
 At 1.5 times of:
  All O(H) groups, All O(H,H) groups, All O(H,H,H) groups
2. Uiso/Uaniso restraints and constraints
Uanis(O9) \\sim Ueq, Uanis(O8) \\sim Ueq: with sigma of 0.01 and sigma for
terminal atoms of 0.001
3. Others
 Fixed Sof: O9(0.5) O8(0.5)
4.a Riding coordinates:
 O4(H4), C7(H7), O9(H9A,O8), O9(H8A,H8B), O9(H9B), O7(H7A,H7B)
4.b Aromatic/amide H refined with riding coordinates:
 C6(H6), C10(H10), C3(H3), C14(H14), C11(H11)
;
_atom_sites_solution_hydrogens   geom
_atom_sites_solution_primary     direct
_atom_sites_solution_secondary   difmap
loop_
_atom_site_label
_atom_site_type_symbol
_atom_site_fract_x
_atom_site_fract_y
_atom_site_fract_z
_atom_site_U_iso_or_equiv
_atom_site_adp_type
_atom_site_occupancy
_atom_site_calc_flag
_atom_site_disorder_assembly
_atom_site_disorder_group
_atom_site_refinement_flags_posn
_atom_site_refinement_flags_adp
O4 O -0.00566(7) 0.1465(3) 0.5843(2) 0.0676(8) Uani 1 d . . . .
H4 H -0.0164 0.1629 0.6502 0.101 Uiso 1 d . . R .
C6 C 0.04525(10) 0.1666(4) 0.3810(3) 0.0460(8) Uani 1 d . . . .
H6 H 0.0163 0.1488 0.3642 0.055 Uiso 1 calc . . R .
C10 C 0.14116(10) 0.1845(3) 0.0913(3) 0.0397(7) Uani 1 d . . . .
H10 H 0.1246 0.1079 0.0807 0.048 Uiso 1 calc . . R .
N1 N 0.19063(7) 0.4128(2) 0.12113(19) 0.0283(5) Uani 1 d . . . .
O6 O 0.22124(6) 0.33579(19) -0.18187(16) 0.0340(5) Uani 1 d . . . .
O5 O 0.24667(6) 0.48445(19) -0.04188(16) 0.0353(5) Uani 1 d . . . .
Mn1 Mn 0.260054(12) 0.08473(4) 0.36249(3) 0.02383(11) Uani 1 d . . . .
C9 C 0.14071(8) 0.2570(3) 0.2008(2) 0.0290(6) Uani 1 d . . . .
C8 C 0.11501(8) 0.2181(3) 0.3061(2) 0.0303(6) Uani 1 d . . . .
O1 O 0.20605(6) 0.2021(2) 0.38639(18) 0.0386(5) Uani 1 d . . . .
C12 C 0.19148(8) 0.3393(3) 0.0163(2) 0.0267(6) Uani 1 d . . . .
C1 C 0.18029(8) 0.2365(3) 0.4646(2) 0.0275(6) Uani 1 d . . . .
C2 C 0.13290(8) 0.2166(3) 0.4304(2) 0.0256(6) Uani 1 d . . . .
C13 C 0.22213(8) 0.3905(3) -0.0761(2) 0.0262(6) Uani 1 d . . . .
C3 C 0.10628(9) 0.1934(3) 0.5266(3) 0.0320(7) Uani 1 d . . . .
H3 H 0.1179 0.1941 0.6081 0.038 Uiso 1 calc . . R .
O2 O 0.18994(6) 0.2853(2) 0.56939(17) 0.0409(5) Uani 1 d . . . .
C4 C 0.06257(9) 0.1690(3) 0.5034(3) 0.0374(7) Uani 1 d . . . .
C5 C 0.03483(10) 0.1509(3) 0.6089(3) 0.0440(8) Uani 1 d . . . .
C14 C 0.16528(9) 0.3728(3) 0.2080(2) 0.0310(6) Uani 1 d . . . .
H14 H 0.1639 0.4256 0.2784 0.037 Uiso 1 calc . . R .
C7 C 0.07138(9) 0.1909(3) 0.2842(3) 0.0427(8) Uani 1 d . . . .
H7 H 0.0595 0.1890 0.2029 0.051 Uiso 1 d . . R .
C11 C 0.16657(9) 0.2267(3) -0.0028(3) 0.0372(7) Uani 1 d . . . .
H11 H 0.1667 0.1798 -0.0770 0.045 Uiso 1 calc . . R .
O3 O 0.05238(8) 0.1448(3) 0.7180(2) 0.0714(8) Uani 1 d . . . .
O9 O 0.0561(4) 0.5543(15) 0.3902(12) 0.3605(12) Uani 0.50 d . . . U
H9A H 0.0652 0.5278 0.3224 0.541 Uiso 1 d . . R .
O8 O -0.0224(4) 0.5102(15) 0.3639(12) 0.3033(12) Uani 0.50 d . . R U
H8A H -0.0029 0.5661 0.3492 0.455 Uiso 1 d . . R .
H8B H -0.0122 0.4509 0.4137 0.455 Uiso 1 d . . R .
H9B H 0.0569 0.4923 0.4434 0.455 Uiso 1 d . . R .
O7 O 0.21686(7) -0.0580(2) 0.25674(17) 0.0376(5) Uani 1 d . . . .
H7A H 0.2198 -0.0494 0.1780 0.056 Uiso 1 d . . R .
H7B H 0.2182 -0.1490 0.2773 0.056 Uiso 1 d . . R .

loop_
_atom_site_aniso_label
_atom_site_aniso_U_11
_atom_site_aniso_U_22
_atom_site_aniso_U_33
_atom_site_aniso_U_23
_atom_site_aniso_U_13
_atom_site_aniso_U_12
O4 0.0423(13) 0.104(2) 0.0607(15) -0.0125(14) 0.0324(11) -0.0177(13)
C6 0.0275(14) 0.067(2) 0.0444(18) 0.0024(16) 0.0094(13) -0.0137(14)
C10 0.0462(16) 0.0453(17) 0.0283(14) -0.0059(13) 0.0086(12) -0.0215(13)
N1 0.0334(12) 0.0318(12) 0.0203(11) -0.0018(9) 0.0073(9) -0.0076(9)
O6 0.0495(11) 0.0344(10) 0.0193(9) -0.0035(8) 0.0109(8) -0.0083(9)
O5 0.0444(11) 0.0401(11) 0.0227(9) -0.0061(8) 0.0128(8) -0.0135(9)
Mn1 0.0267(2) 0.0280(2) 0.01744(19) 0.00032(15) 0.00609(15) 0.00300(15)
C9 0.0257(13) 0.0408(15) 0.0209(13) -0.0020(11) 0.0035(10) -0.0048(11)
C8 0.0287(13) 0.0371(15) 0.0260(13) 0.0003(11) 0.0079(11) -0.0056(11)
O1 0.0283(10) 0.0538(12) 0.0346(11) -0.0007(9) 0.0097(8) 0.0111(9)
C12 0.0305(13) 0.0303(13) 0.0197(12) -0.0011(10) 0.0054(10) -0.0006(11)
C1 0.0268(13) 0.0296(13) 0.0266(13) 0.0047(11) 0.0054(10) 0.0008(11)
C2 0.0251(13) 0.0278(13) 0.0247(13) -0.0007(10) 0.0074(10) -0.0016(10)
C13 0.0342(14) 0.0269(13) 0.0182(12) 0.0009(10) 0.0072(10) 0.0021(11)
C3 0.0335(14) 0.0376(15) 0.0258(13) 0.0018(12) 0.0095(11) 0.0024(12)
O2 0.0355(11) 0.0618(14) 0.0256(10) -0.0060(10) 0.0034(8) -0.0137(10)
C4 0.0320(15) 0.0442(17) 0.0379(16) 0.0030(13) 0.0163(12) -0.0026(12)
C5 0.0388(16) 0.0493(18) 0.0467(18) 0.0040(15) 0.0231(14) -0.0004(14)
C14 0.0361(14) 0.0370(14) 0.0209(13) -0.0048(11) 0.0093(11) -0.0083(12)
C7 0.0325(15) 0.068(2) 0.0280(14) 0.0011(14) 0.0022(12) -0.0152(14)
C11 0.0433(16) 0.0450(16) 0.0244(14) -0.0094(12) 0.0095(12) -0.0127(13)
O3 0.0532(14) 0.118(2) 0.0461(14) 0.0255(15) 0.0266(11) 0.0131(15)
O9 0.3606(13) 0.3602(14) 0.3606(15) -0.0001(8) 0.0234(8) 0.0001(8)
O8 0.3032(13) 0.3031(14) 0.3034(15) -0.0002(8) 0.0195(8) 0.0001(8)
O7 0.0547(12) 0.0334(10) 0.0253(10) -0.0015(8) 0.0074(9) -0.0089(9)

_geom_special_details            
;
 All esds (except the esd in the dihedral angle between two l.s. planes) 
 are estimated using the full covariance matrix.  The cell esds are taken 
 into account individually in the estimation of esds in distances, angles 
 and torsion angles; correlations between esds in cell parameters are only 
 used when they are defined by crystal symmetry.  An approximate (isotropic) 
 treatment of cell esds is used for estimating esds involving l.s. planes. 
;
loop_
_geom_bond_atom_site_label_1
_geom_bond_atom_site_label_2
_geom_bond_distance
_geom_bond_site_symmetry_2
_geom_bond_publ_flag
O4 H4 0.8227 . ?
O4 C5 1.277(4) . ?
C6 H6 0.9300 . ?
C6 C4 1.396(4) . ?
C6 C7 1.389(4) . ?
C10 H10 0.9300 . ?
C10 C9 1.389(4) . ?
C10 C11 1.396(4) . ?
N1 Mn1 2.313(2) 4 ?
N1 C12 1.354(3) . ?
N1 C14 1.329(3) . ?
O6 Mn1 2.2203(18) 7 ?
O6 C13 1.266(3) . ?
O5 Mn1 2.2049(18) 4 ?
O5 C13 1.256(3) . ?
Mn1 N1 2.313(2) 4_545 ?
Mn1 O6 2.2203(19) 7 ?
Mn1 O5 2.2049(18) 4_545 ?
Mn1 O1 2.0887(19) . ?
Mn1 O2 2.130(2) 7_556 ?
Mn1 O7 2.231(2) . ?
C9 C8 1.486(4) . ?
C9 C14 1.392(4) . ?
C8 C2 1.420(4) . ?
C8 C7 1.396(4) . ?
O1 C1 1.252(3) . ?
C12 C13 1.517(4) . ?
C12 C11 1.380(4) . ?
C1 C2 1.517(4) . ?
C1 O2 1.252(3) . ?
C2 C3 1.392(4) . ?
C3 H3 0.9300 . ?
C3 C4 1.395(4) . ?
O2 Mn1 2.130(2) 7_556 ?
C4 C5 1.487(4) . ?
C5 O3 1.269(4) . ?
C14 H14 0.9300 . ?
C7 H7 0.9300 . ?
C11 H11 0.9300 . ?
O9 H9A 0.8450 . ?
O9 H9B 0.8470 . ?
O8 H8A 0.8497 . ?
O8 H8B 0.8499 . ?
O7 H7A 0.8657 . ?
O7 H7B 0.9399 . ?

loop_
_geom_angle_atom_site_label_1
_geom_angle_atom_site_label_2
_geom_angle_atom_site_label_3
_geom_angle
_geom_angle_site_symmetry_1
_geom_angle_site_symmetry_3
_geom_angle_publ_flag
C5 O4 H4 105.6 . . ?
C4 C6 H6 120.0 . . ?
C7 C6 H6 120.0 . . ?
C7 C6 C4 119.9(3) . . ?
C9 C10 H10 120.1 . . ?
C9 C10 C11 119.9(3) . . ?
C11 C10 H10 120.1 . . ?
C12 N1 Mn1 114.94(17) . 4 ?
C14 N1 Mn1 126.65(17) . 4 ?
C14 N1 C12 118.0(2) . . ?
C13 O6 Mn1 130.14(17) . 7 ?
C13 O5 Mn1 120.65(16) . 4 ?
O6 Mn1 N1 97.06(8) 7 4_545 ?
O6 Mn1 O7 88.09(7) 7 . ?
O5 Mn1 N1 72.14(7) 4_545 4_545 ?
O5 Mn1 O6 168.86(7) 4_545 7 ?
O5 Mn1 O7 93.85(8) 4_545 . ?
O1 Mn1 N1 162.11(8) . 4_545 ?
O1 Mn1 O6 99.60(8) . 7 ?
O1 Mn1 O5 91.44(8) . 4_545 ?
O1 Mn1 O2 101.11(8) . 7_556 ?
O1 Mn1 O7 87.63(8) . . ?
O2 Mn1 N1 87.71(8) 7_556 4_545 ?
O2 Mn1 O6 81.59(7) 7_556 7 ?
O2 Mn1 O5 94.94(8) 7_556 4_545 ?
O2 Mn1 O7 167.43(8) 7_556 . ?
O7 Mn1 N1 86.45(8) . 4_545 ?
C10 C9 C8 123.3(2) . . ?
C10 C9 C14 116.7(2) . . ?
C14 C9 C8 120.0(2) . . ?
C2 C8 C9 121.8(2) . . ?
C7 C8 C9 119.5(2) . . ?
C7 C8 C2 118.6(2) . . ?
C1 O1 Mn1 143.03(18) . . ?
N1 C12 C13 114.3(2) . . ?
N1 C12 C11 122.0(2) . . ?
C11 C12 C13 123.7(2) . . ?
O1 C1 C2 117.4(2) . . ?
O1 C1 O2 126.1(2) . . ?
O2 C1 C2 116.4(2) . . ?
C8 C2 C1 123.2(2) . . ?
C3 C2 C8 119.3(2) . . ?
C3 C2 C1 117.6(2) . . ?
O6 C13 C12 117.9(2) . . ?
O5 C13 O6 124.6(2) . . ?
O5 C13 C12 117.5(2) . . ?
C2 C3 H3 119.3 . . ?
C2 C3 C4 121.5(3) . . ?
C4 C3 H3 119.3 . . ?
C1 O2 Mn1 132.86(18) . 7_556 ?
C6 C4 C5 120.9(3) . . ?
C3 C4 C6 119.2(3) . . ?
C3 C4 C5 119.9(3) . . ?
O4 C5 C4 117.7(3) . . ?
O3 C5 O4 123.7(3) . . ?
O3 C5 C4 118.6(3) . . ?
N1 C14 C9 124.4(2) . . ?
N1 C14 H14 117.8 . . ?
C9 C14 H14 117.8 . . ?
C6 C7 C8 121.5(3) . . ?
C6 C7 H7 119.3 . . ?
C8 C7 H7 119.2 . . ?
C10 C11 H11 120.6 . . ?
C12 C11 C10 118.9(3) . . ?
C12 C11 H11 120.6 . . ?
H9A O9 H9B 111.1 . . ?
H8A O8 H8B 109.8 . . ?
Mn1 O7 H7A 109.8 . . ?
Mn1 O7 H7B 119.2 . . ?
H7A O7 H7B 108.8 . . ?

loop_
_geom_torsion_atom_site_label_1
_geom_torsion_atom_site_label_2
_geom_torsion_atom_site_label_3
_geom_torsion_atom_site_label_4
_geom_torsion
_geom_torsion_site_symmetry_1
_geom_torsion_site_symmetry_2
_geom_torsion_site_symmetry_3
_geom_torsion_site_symmetry_4
_geom_torsion_publ_flag
C6 C4 C5 O4 -6.8(5) . . . . ?
C6 C4 C5 O3 175.2(3) . . . . ?
C10 C9 C8 C2 133.0(3) . . . . ?
C10 C9 C8 C7 -51.5(4) . . . . ?
C10 C9 C14 N1 -4.1(4) . . . . ?
N1 Mn1 O1 C1 34.8(5) 4_545 . . . ?
N1 C12 C13 O6 -172.3(2) . . . . ?
N1 C12 C13 O5 7.7(3) . . . . ?
N1 C12 C11 C10 -2.8(4) . . . . ?
O6 Mn1 O1 C1 -166.8(3) 7 . . . ?
O5 Mn1 O1 C1 11.7(3) 4_545 . . . ?
Mn1 N1 C12 C13 -4.9(3) 4 . . . ?
Mn1 N1 C12 C11 174.6(2) 4 . . . ?
Mn1 N1 C14 C9 -170.1(2) 4 . . . ?
Mn1 O6 C13 O5 -25.3(4) 7 . . . ?
Mn1 O6 C13 C12 154.79(18) 7 . . . ?
Mn1 O5 C13 O6 173.3(2) 4 . . . ?
Mn1 O5 C13 C12 -6.8(3) 4 . . . ?
Mn1 O1 C1 C2 -125.8(3) . . . . ?
Mn1 O1 C1 O2 53.8(5) . . . . ?
C9 C10 C11 C12 1.2(5) . . . . ?
C9 C8 C2 C1 -8.2(4) . . . . ?
C9 C8 C2 C3 173.1(3) . . . . ?
