####################################################################### 
# 
# This file contains crystal structure data downloaded from the 
# Cambridge Structural Database (CSD) hosted by the Cambridge 
# Crystallographic Data Centre (CCDC).
# 
# Full information about CCDC data access policies and citation 
# guidelines are available at http://www.ccdc.cam.ac.uk/access/V1 
# 
# Audit and citation data items may have been added by the CCDC. 
# Please retain this information to preserve the provenance of 
# this file and to allow appropriate attribution of the data. 
# 
#######################################################################

data_Gd
_audit_block_doi                 10.5517/cct3bqy
_database_code_depnum_ccdc_archive 'CCDC 747990'
loop_
_citation_id
_citation_doi
_citation_year
1 10.1021/cg9000736 2009
_audit_update_record             
;
2009-09-16 deposited with the CCDC.	2024-07-12 downloaded from the CCDC.
;

_audit_creation_method           SHELXL-97
_chemical_name_systematic        
;
?
;
_chemical_name_common            ?
_chemical_melting_point          ?
_chemical_formula_moiety         ?
_chemical_formula_sum            'C63 H71 Gd2 N7 O27 S3'
_chemical_formula_weight         1768.95

loop_
_atom_type_symbol
_atom_type_description
_atom_type_scat_dispersion_real
_atom_type_scat_dispersion_imag
_atom_type_scat_source
C C 0.0033 0.0016 'International Tables Vol C Tables 4.2.6.8 and 6.1.1.4'
H H 0.0000 0.0000 'International Tables Vol C Tables 4.2.6.8 and 6.1.1.4'
O O 0.0106 0.0060 'International Tables Vol C Tables 4.2.6.8 and 6.1.1.4'
Gd Gd -0.1653 3.9035 'International Tables Vol C Tables 4.2.6.8 and 6.1.1.4'
S S 0.1246 0.1234 'International Tables Vol C Tables 4.2.6.8 and 6.1.1.4'
N N 0.0061 0.0033 'International Tables Vol C Tables 4.2.6.8 and 6.1.1.4'

_symmetry_cell_setting           Monoclinic
_symmetry_space_group_name_H-M   'C2/c '

loop_
_symmetry_equiv_pos_as_xyz
'x, y, z'
'-x, y, -z+1/2'
'x+1/2, y+1/2, z'
'-x+1/2, y+1/2, -z+1/2'
'-x, -y, -z'
'x, -y, z-1/2'
'-x+1/2, -y+1/2, -z'
'x+1/2, -y+1/2, z-1/2'

_cell_length_a                   35.0016(12)
_cell_length_b                   14.8987(5)
_cell_length_c                   30.0846(10)
_cell_angle_alpha                90.00
_cell_angle_beta                 97.9730(10)
_cell_angle_gamma                90.00
_cell_volume                     15536.8(9)
_cell_formula_units_Z            8
_cell_measurement_temperature    296(2)
_cell_measurement_reflns_used    9970
_cell_measurement_theta_min      2.23
_cell_measurement_theta_max      23.38

_exptl_crystal_description       block
_exptl_crystal_colour            colorless
_exptl_crystal_size_max          0.30
_exptl_crystal_size_mid          0.20
_exptl_crystal_size_min          0.10
_exptl_crystal_density_meas      ?
_exptl_crystal_density_diffrn    1.512
_exptl_crystal_density_method    'not measured'
_exptl_crystal_F_000             7120
_exptl_absorpt_coefficient_mu    1.853
_exptl_absorpt_correction_type   'multi scan'
_exptl_absorpt_correction_T_min  0.6064
_exptl_absorpt_correction_T_max  0.8364
_exptl_absorpt_process_details   SADABS

_exptl_special_details           
;
?
;

_diffrn_ambient_temperature      296(2)
_diffrn_radiation_wavelength     0.71073
_diffrn_radiation_type           MoK\a
_diffrn_radiation_source         'fine-focus sealed tube'
_diffrn_radiation_monochromator  graphite
_diffrn_measurement_device_type  'CCD area detector'
_diffrn_measurement_method       'phi and omega scans'
_diffrn_detector_area_resol_mean ?
_diffrn_standards_number         ?
_diffrn_standards_interval_count ?
_diffrn_standards_interval_time  ?
_diffrn_standards_decay_%        2.5
_diffrn_reflns_number            101720
_diffrn_reflns_av_R_equivalents  0.0845
_diffrn_reflns_av_sigmaI/netI    0.0665
_diffrn_reflns_limit_h_min       -35
_diffrn_reflns_limit_h_max       44
_diffrn_reflns_limit_k_min       -19
_diffrn_reflns_limit_k_max       18
_diffrn_reflns_limit_l_min       -38
_diffrn_reflns_limit_l_max       38
_diffrn_reflns_theta_min         1.17
_diffrn_reflns_theta_max         27.00
_reflns_number_total             16834
_reflns_number_gt                12210
_reflns_threshold_expression     >2sigma(I)

_computing_data_collection       'Bruker SMART'
_computing_cell_refinement       'Bruker SMART'
_computing_data_reduction        'Bruker SHELXTL'
_computing_structure_solution    'Bruker SHELXTL'
_computing_structure_refinement  'Bruker SHELXTL'
_computing_molecular_graphics    'Bruker SHELXTL'
_computing_publication_material  'Bruker SHELXTL'


_refine_special_details          
;
Refinement of F^2^ against ALL reflections. The weighted R-factor wR and
goodness of fit S are based on F^2^, conventional R-factors R are based
on F, with F set to zero for negative F^2^. The threshold expression of
F^2^ > 2sigma(F^2^) is used only for calculating R-factors(gt) etc. and is
not relevant to the choice of reflections for refinement. R-factors based
on F^2^ are statistically about twice as large as those based on F, and R-
factors based on ALL data will be even larger.

CIF check---Alerts and explanation

CHEMW03_ALERT_2_A ALERT: The ratio of given/expected molecular weight as
calculated from the _atom_site* data lies outside
the range 0.90 1.10
From the CIF: _cell_formula_units_Z 8
From the CIF: _chemical_formula_weight 1768.95
TEST: Calculate formula weight from _atom_site_*
atom mass num sum
C 12.01 54.00 648.59
H 1.01 46.00 46.37
O 16.00 22.00 351.98
Gd 157.25 2.00 314.50
S 32.07 3.00 96.20
N 14.01 4.00 56.03
Calculated formula weight 1513.67
PLAT043_ALERT_1_A Check Reported Molecular Weight ........... 1768.95
PLAT044_ALERT_1_A Calculated and Reported Dx Differ .............. ?

Explanation

The above 3 alerts are because the following reasons: The structure contains
large solvent-accessible voids. The lattice solvent molecules in the voids
were heavily disordered and could not be satisfactorily modeled, so the
SQUEEZE routine in the PLATON software package [A.L. Spek, J. Appl.
Crystallogr. 2003, 36, 7-13.] was applied to subtract the diffraction
contribution from the solvent molecules. The numbers of the solvent molecules
were estimated according to the analytical and thermogravimetric data, and
the electron count (150 electrons per formula) given by SQUEEZE analysis.
The reported molecular weight and crystal density (Dx) were based on the
formula including the guest molecules. This causes the above alerts.


PLAT220_ALERT_2_A Large Non-Solvent C Ueq(max)/Ueq(min) .. 7.26 Ratio
PLAT222_ALERT_3_A Large Non-Solvent H Ueq(max)/Ueq(min) .. 8.02 Ratio
PLAT241_ALERT_2_A Check High Ueq as Compared to Neighbors for C52
PLAT242_ALERT_2_A Check Low Ueq as Compared to Neighbors for O21
PLAT242_ALERT_2_A Check Low Ueq as Compared to Neighbors for N3
PLAT230_ALERT_2_B Hirshfeld Test Diff for O20 -- C46 .. 16.05 su
PLAT230_ALERT_2_B Hirshfeld Test Diff for O21 -- C52 .. 33.28 su
PLAT230_ALERT_2_B Hirshfeld Test Diff for N3 -- C51 .. 21.04 su
PLAT242_ALERT_2_B Check Low Ueq as Compared to Neighbors for N1
PLAT242_ALERT_2_B Check Low Ueq as Compared to Neighbors for N2

xplanation

The above alerts all arise from the terminal methyl groups of the
coordinated solvent DMF molecules, which have large Ueq's. Perhaps owing to
the large voids in the structures and the heavy disorder of the guest
molecules in the voids, the data set is of limited quality. The terminal
methyl carbon atoms of the coordinated DMF molecules, which point towards
the voids, can be located but the displacement parameters are significantly
larger than those for the framework carbon atoms.The present results are the
best we have obained for this compound.
;

_refine_ls_structure_factor_coef Fsqd
_refine_ls_matrix_type           full
_refine_ls_weighting_scheme      calc
_refine_ls_weighting_details     
'calc w=1/[\s^2^(Fo^2^)+(0.0425P)^2^+0.0000P] where P=(Fo^2^+2Fc^2^)/3'
_atom_sites_solution_primary     direct
_atom_sites_solution_secondary   difmap
_atom_sites_solution_hydrogens   geom
_refine_ls_hydrogen_treatment    constr
_refine_ls_extinction_method     none
_refine_ls_extinction_coef       ?
_refine_ls_number_reflns         16834
_refine_ls_number_parameters     730
_refine_ls_number_restraints     6
_refine_ls_R_factor_all          0.0608
_refine_ls_R_factor_gt           0.0404
_refine_ls_wR_factor_ref         0.0950
_refine_ls_wR_factor_gt          0.0902
_refine_ls_goodness_of_fit_ref   0.992
_refine_ls_restrained_S_all      0.995
_refine_ls_shift/su_max          0.002
_refine_ls_shift/su_mean         0.000

loop_
_atom_site_label
_atom_site_type_symbol
_atom_site_fract_x
_atom_site_fract_y
_atom_site_fract_z
_atom_site_U_iso_or_equiv
_atom_site_adp_type
_atom_site_occupancy
_atom_site_symmetry_multiplicity
_atom_site_calc_flag
_atom_site_refinement_flags
_atom_site_disorder_assembly
_atom_site_disorder_group
Gd1 Gd 0.208643(6) 0.570723(13) 0.356642(7) 0.02442(6) Uani 1 1 d . . .
Gd2 Gd 0.085835(6) 0.532020(13) 0.343122(7) 0.02459(6) Uani 1 1 d . . .
S1 S 0.09311(4) 0.46852(11) 0.09157(4) 0.0560(4) Uani 1 1 d . . .
S2 S 0.20286(4) 1.04039(8) 0.35191(6) 0.0522(4) Uani 1 1 d . . .
S3 S 0.40340(4) 0.30325(11) 0.40200(4) 0.0549(4) Uani 1 1 d . . .
C1 C 0.14058(15) 0.5589(3) 0.26138(15) 0.0365(11) Uani 1 1 d . . .
C2 C 0.14470(13) 0.5601(3) 0.21218(14) 0.0359(11) Uani 1 1 d . . .
C3 C 0.11609(13) 0.5216(3) 0.18095(15) 0.0393(11) Uani 1 1 d . . .
H3A H 0.0937 0.4977 0.1897 0.047 Uiso 1 1 calc R . .
C4 C 0.17717(14) 0.5971(4) 0.19780(16) 0.0540(15) Uani 1 1 d . . .
H4A H 0.1961 0.6223 0.2188 0.065 Uiso 1 1 calc R . .
C5 C 0.12240(13) 0.5205(3) 0.13633(15) 0.0390(11) Uani 1 1 d . . .
C6 C 0.18209(15) 0.5975(4) 0.15294(16) 0.0566(16) Uani 1 1 d . . .
H6A H 0.2038 0.6242 0.1440 0.068 Uiso 1 1 calc R . .
C7 C 0.15486(13) 0.5583(3) 0.12177(15) 0.0374(11) Uani 1 1 d . . .
C8 C 0.15636(13) 0.5438(3) 0.07371(14) 0.0362(11) Uani 1 1 d . . .
C9 C 0.12481(14) 0.4962(3) 0.05277(15) 0.0404(11) Uani 1 1 d . . .
C10 C 0.18517(14) 0.5688(4) 0.04907(16) 0.0489(13) Uani 1 1 d . . .
H10A H 0.2061 0.6026 0.0620 0.059 Uiso 1 1 calc R . .
C11 C 0.12135(14) 0.4713(3) 0.00859(15) 0.0413(12) Uani 1 1 d . . .
H11A H 0.0996 0.4407 -0.0049 0.050 Uiso 1 1 calc R . .
C12 C 0.18200(14) 0.5425(3) 0.00499(16) 0.0456(13) Uani 1 1 d . . .
H12A H 0.2014 0.5586 -0.0117 0.055 Uiso 1 1 calc R . .
C13 C 0.15100(13) 0.4930(3) -0.01548(14) 0.0332(10) Uani 1 1 d . . .
C14 C 0.15031(14) 0.4631(3) -0.06332(14) 0.0335(10) Uani 1 1 d . . .
C15 C 0.13270(14) 0.7237(3) 0.34864(15) 0.0323(10) Uani 1 1 d . . .
C16 C 0.13212(14) 0.8247(3) 0.34871(16) 0.0365(11) Uani 1 1 d . . .
C17 C 0.09780(15) 0.8698(3) 0.3473(2) 0.0616(17) Uani 1 1 d . . .
H17A H 0.0750 0.8371 0.3453 0.074 Uiso 1 1 calc R . .
C18 C 0.16609(14) 0.8724(3) 0.35072(16) 0.0403(12) Uani 1 1 d . . .
H18A H 0.1897 0.8432 0.3517 0.048 Uiso 1 1 calc R . .
C19 C 0.09598(17) 0.9616(4) 0.3487(3) 0.086(2) Uani 1 1 d . . .
H19A H 0.0725 0.9909 0.3485 0.103 Uiso 1 1 calc R . .
C20 C 0.16394(14) 0.9638(3) 0.35129(17) 0.0415(12) Uani 1 1 d . . .
C21 C 0.12994(15) 1.0095(3) 0.3506(2) 0.0525(14) Uani 1 1 d . . .
C22 C 0.13475(14) 1.1089(3) 0.35321(19) 0.0495(14) Uani 1 1 d . . .
C23 C 0.10731(16) 1.1736(3) 0.3532(3) 0.077(2) Uani 1 1 d . . .
H23A H 0.0815 1.1579 0.3526 0.092 Uiso 1 1 calc R . .
C24 C 0.17295(14) 1.1344(3) 0.35461(17) 0.0428(12) Uani 1 1 d . . .
C25 C 0.11792(16) 1.2616(3) 0.3540(2) 0.0657(18) Uani 1 1 d . . .
H25A H 0.0990 1.3055 0.3539 0.079 Uiso 1 1 calc R . .
C26 C 0.18444(14) 1.2233(3) 0.35644(16) 0.0403(12) Uani 1 1 d . . .
H26A H 0.2104 1.2389 0.3586 0.048 Uiso 1 1 calc R . .
C27 C 0.15616(13) 1.2877(3) 0.35494(16) 0.0372(11) Uani 1 1 d . . .
C28 C 0.16627(14) 1.3861(3) 0.35355(15) 0.0334(10) Uani 1 1 d . . .
C29 C 0.27592(14) 0.4821(3) 0.33962(18) 0.0412(12) Uani 1 1 d . . .
C30 C 0.31000(14) 0.4253(3) 0.33268(17) 0.0433(12) Uani 1 1 d . . .
C31 C 0.33567(14) 0.3968(3) 0.36905(17) 0.0454(13) Uani 1 1 d . . .
H31A H 0.3322 0.4123 0.3982 0.055 Uiso 1 1 calc R . .
C32 C 0.31566(14) 0.4006(4) 0.29001(18) 0.0536(14) Uani 1 1 d . . .
H32A H 0.2980 0.4194 0.2658 0.064 Uiso 1 1 calc R . .
C33 C 0.36628(13) 0.3453(3) 0.36109(16) 0.0438(12) Uani 1 1 d . . .
C34 C 0.34706(15) 0.3484(4) 0.28207(17) 0.0524(14) Uani 1 1 d . . .
H34A H 0.3506 0.3326 0.2530 0.063 Uiso 1 1 calc R . .
C35 C 0.37278(14) 0.3206(3) 0.31847(16) 0.0418(12) Uani 1 1 d . . .
C36 C 0.40838(13) 0.2671(3) 0.31840(15) 0.0366(11) Uani 1 1 d . . .
C37 C 0.42821(14) 0.2522(3) 0.36112(16) 0.0411(12) Uani 1 1 d . . .
C38 C 0.42340(13) 0.2315(3) 0.28155(16) 0.0399(11) Uani 1 1 d . . .
H38A H 0.4108 0.2401 0.2526 0.048 Uiso 1 1 calc R . .
C39 C 0.46179(13) 0.2058(3) 0.36873(16) 0.0417(12) Uani 1 1 d . . .
H39A H 0.4744 0.1978 0.3978 0.050 Uiso 1 1 calc R . .
C40 C 0.45722(13) 0.1833(3) 0.28891(15) 0.0364(11) Uani 1 1 d . . .
H40A H 0.4672 0.1587 0.2645 0.044 Uiso 1 1 calc R . .
C41 C 0.47697(12) 0.1705(3) 0.33205(15) 0.0343(10) Uani 1 1 d . . .
C42 C 0.51385(13) 0.1192(3) 0.33827(15) 0.0331(10) Uani 1 1 d . . .
C43 C 0.0161(3) 0.3695(7) 0.4857(3) 0.140(4) Uani 1 1 d . . .
H43A H -0.0026 0.4164 0.4792 0.210 Uiso 1 1 calc R . .
H43B H 0.0309 0.3799 0.5146 0.210 Uiso 1 1 calc R . .
H43C H 0.0032 0.3127 0.4858 0.210 Uiso 1 1 calc R . .
C44 C 0.03915(17) 0.4245(4) 0.41930(18) 0.0566(15) Uani 1 1 d . . .
H44A H 0.0206 0.4694 0.4188 0.068 Uiso 1 1 calc R . .
C45 C 0.0719(3) 0.3044(7) 0.4579(3) 0.165(5) Uani 1 1 d . . .
H45A H 0.0873 0.3094 0.4340 0.247 Uiso 1 1 calc R . .
H45B H 0.0612 0.2452 0.4580 0.247 Uiso 1 1 calc R . .
H45C H 0.0878 0.3154 0.4861 0.247 Uiso 1 1 calc R . .
C46 C 0.04623(19) 0.4173(4) 0.2532(3) 0.077(2) Uani 1 1 d . . .
H46A H 0.0368 0.4737 0.2441 0.092 Uiso 1 1 calc R . .
C47 C 0.0250(3) 0.3634(7) 0.1776(3) 0.171(4) Uani 1 1 d . . .
H47A H 0.0159 0.4239 0.1728 0.257 Uiso 1 1 calc R . .
H47B H 0.0036 0.3227 0.1723 0.257 Uiso 1 1 calc R . .
H47C H 0.0431 0.3500 0.1573 0.257 Uiso 1 1 calc R . .
C48 C 0.0620(3) 0.2644(7) 0.2379(3) 0.171(4) Uani 1 1 d . . .
H48A H 0.0728 0.2678 0.2689 0.257 Uiso 1 1 calc R . .
H48B H 0.0820 0.2509 0.2201 0.257 Uiso 1 1 calc R . .
H48C H 0.0428 0.2180 0.2339 0.257 Uiso 1 1 calc R . .
C49 C 0.2554(2) 0.7115(6) 0.2942(2) 0.090(2) Uani 1 1 d . . .
H49A H 0.2562 0.6647 0.2739 0.108 Uiso 1 1 calc R . .
C50 C 0.2785(5) 0.8605(9) 0.3122(4) 0.235(3) Uani 1 1 d . . .
H50A H 0.2660 0.8508 0.3383 0.353 Uiso 1 1 calc R . .
H50B H 0.2673 0.9119 0.2961 0.353 Uiso 1 1 calc R . .
H50C H 0.3055 0.8708 0.3214 0.353 Uiso 1 1 calc R . .
C51 C 0.2912(5) 0.7883(8) 0.2437(4) 0.235(3) Uani 1 1 d . . .
H51A H 0.2855 0.7338 0.2271 0.353 Uiso 1 1 calc R . .
H51B H 0.3186 0.7946 0.2511 0.353 Uiso 1 1 calc R . .
H51C H 0.2811 0.8385 0.2258 0.353 Uiso 1 1 calc R . .
C52 C 0.2669(4) 0.6868(8) 0.4281(5) 0.235(3) Uani 1 1 d D . .
H52A H 0.2867 0.6459 0.4265 0.283 Uiso 1 1 calc R . .
C53 C 0.2510(4) 0.8377(8) 0.4552(5) 0.235(3) Uani 1 1 d D . .
H53A H 0.2649 0.8907 0.4660 0.353 Uiso 1 1 calc R . .
H53B H 0.2356 0.8174 0.4772 0.353 Uiso 1 1 calc R . .
H53C H 0.2346 0.8513 0.4278 0.353 Uiso 1 1 calc R . .
C54 C 0.3140(4) 0.8043(8) 0.4420(5) 0.235(3) Uani 1 1 d D . .
H54A H 0.3169 0.8623 0.4559 0.353 Uiso 1 1 calc R . .
H54B H 0.3160 0.8100 0.4106 0.353 Uiso 1 1 calc R . .
H54C H 0.3339 0.7650 0.4558 0.353 Uiso 1 1 calc R . .
N1 N 0.04352(17) 0.3538(4) 0.2230(2) 0.0936(19) Uani 1 1 d . . .
N2 N 0.04163(16) 0.3686(4) 0.45159(17) 0.0730(15) Uani 1 1 d . . .
N3 N 0.27361(16) 0.7855(4) 0.2847(2) 0.0849(18) Uani 1 1 d . . .
N4 N 0.2778(4) 0.7689(8) 0.4472(4) 0.235(3) Uani 1 1 d D . .
O1 O 0.10804(10) 0.5465(2) 0.27196(10) 0.0425(8) Uani 1 1 d . . .
O2 O 0.17132(10) 0.5701(3) 0.28736(11) 0.0506(9) Uani 1 1 d . . .
O3 O 0.05653(11) 0.5129(4) 0.08114(13) 0.0833(15) Uani 1 1 d . . .
O4 O 0.09226(14) 0.3736(3) 0.09840(13) 0.0859(15) Uani 1 1 d . . .
O5 O 0.11827(9) 0.4390(2) -0.08436(10) 0.0392(8) Uani 1 1 d . . .
O6 O 0.18167(9) 0.4645(2) -0.07825(10) 0.0391(8) Uani 1 1 d . . .
O7 O 0.10124(10) 0.6844(2) 0.33779(11) 0.0427(8) Uani 1 1 d . . .
O8 O 0.16438(10) 0.6868(2) 0.35993(12) 0.0476(9) Uani 1 1 d . . .
O9 O 0.21796(13) 1.0402(3) 0.30939(17) 0.0828(15) Uani 1 1 d . . .
O10 O 0.22960(12) 1.0302(2) 0.39191(17) 0.0854(15) Uani 1 1 d . . .
O11 O 0.13890(9) 1.44078(19) 0.34988(11) 0.0410(8) Uani 1 1 d . . .
O12 O 0.20077(9) 1.40750(19) 0.35572(12) 0.0440(9) Uani 1 1 d . . .
O13 O 0.27247(9) 0.5063(2) 0.37935(12) 0.0491(9) Uani 1 1 d . . .
O14 O 0.25202(10) 0.5035(2) 0.30664(12) 0.0513(9) Uani 1 1 d . . .
O15 O 0.42586(12) 0.3747(3) 0.42360(14) 0.0837(14) Uani 1 1 d . . .
O16 O 0.38858(12) 0.2369(3) 0.42988(13) 0.0788(14) Uani 1 1 d . . .
O17 O 0.53364(9) 0.1151(2) 0.37641(10) 0.0410(8) Uani 1 1 d . . .
O18 O 0.52478(9) 0.0823(2) 0.30458(11) 0.0419(8) Uani 1 1 d . . .
O19 O 0.05910(10) 0.4242(2) 0.38865(12) 0.0535(9) Uani 1 1 d . . .
O20 O 0.06086(10) 0.4081(2) 0.29438(13) 0.0504(9) Uani 1 1 d . . .
O21 O 0.23965(12) 0.6652(3) 0.41538(14) 0.0730(12) Uani 1 1 d D . .
O22 O 0.23905(12) 0.6968(3) 0.32321(15) 0.0704(12) Uani 1 1 d . . .

loop_
_atom_site_aniso_label
_atom_site_aniso_U_11
_atom_site_aniso_U_22
_atom_site_aniso_U_33
_atom_site_aniso_U_23
_atom_site_aniso_U_13
_atom_site_aniso_U_12
Gd1 0.02358(12) 0.02226(10) 0.02788(11) 0.00071(8) 0.00521(9) 0.00366(8)
Gd2 0.023