####################################################################### 
# 
# This file contains crystal structure data downloaded from the 
# Cambridge Structural Database (CSD) hosted by the Cambridge 
# Crystallographic Data Centre (CCDC).
# 
# Full information about CCDC data access policies and citation 
# guidelines are available at http://www.ccdc.cam.ac.uk/access/V1 
# 
# Audit and citation data items may have been added by the CCDC. 
# Please retain this information to preserve the provenance of 
# this file and to allow appropriate attribution of the data. 
# 
#######################################################################

data_IIa
_audit_block_doi                 10.5517/cc133cbx
_database_code_depnum_ccdc_archive 'CCDC 1016128'
loop_
_citation_id
_citation_doi
_citation_year
1 10.1021/ic502643m 2015
_audit_update_record             
;
2014-07-25 deposited with the CCDC.	2024-07-12 downloaded from the CCDC.
;

_audit_creation_method           SHELXL-97
_chemical_name_systematic        
; 
 ? 
;
_chemical_name_common            ?
_chemical_melting_point          ?
_chemical_formula_moiety         ?
_chemical_formula_sum            'C38 H24 N3 O17 Zn4'
_chemical_formula_weight         1056.08

loop_
_atom_type_symbol
_atom_type_description
_atom_type_scat_dispersion_real
_atom_type_scat_dispersion_imag
_atom_type_scat_source
C C 0.0033 0.0016 'International Tables Vol C Tables 4.2.6.8 and 6.1.1.4'
H H 0.0000 0.0000 'International Tables Vol C Tables 4.2.6.8 and 6.1.1.4'
N N 0.0061 0.0033 'International Tables Vol C Tables 4.2.6.8 and 6.1.1.4'
O O 0.0106 0.0060 'International Tables Vol C Tables 4.2.6.8 and 6.1.1.4'
Zn Zn 0.2839 1.4301 'International Tables Vol C Tables 4.2.6.8 and 6.1.1.4'

_symmetry_cell_setting           ?
_symmetry_space_group_name_H-M   P21/n
_symmetry_space_group_name_Hall  -P2yn

loop_
_symmetry_equiv_pos_as_xyz
'x, y, z'
'-x+1/2, y+1/2, -z+1/2'
'-x, -y, -z'
'x-1/2, -y-1/2, z-1/2'

_cell_length_a                   10.2970(6)
_cell_length_b                   30.9262(17)
_cell_length_c                   30.5635(16)
_cell_angle_alpha                90.00
_cell_angle_beta                 91.4680(10)
_cell_angle_gamma                90.00
_cell_volume                     9729.7(9)
_cell_formula_units_Z            4
_cell_measurement_temperature    293(2)
_cell_measurement_reflns_used    ?
_cell_measurement_theta_min      ?
_cell_measurement_theta_max      ?

_exptl_crystal_description       ?
_exptl_crystal_colour            ?
_exptl_crystal_size_max          0.13
_exptl_crystal_size_mid          0.12
_exptl_crystal_size_min          0.10
_exptl_crystal_density_meas      ?
_exptl_crystal_density_diffrn    0.721
_exptl_crystal_density_method    'not measured'
_exptl_crystal_F_000             2116
_exptl_absorpt_coefficient_mu    1.007
_exptl_absorpt_correction_type   ?
_exptl_absorpt_correction_T_min  0.8802
_exptl_absorpt_correction_T_max  0.9060
_exptl_absorpt_process_details   ?

_exptl_special_details           
; 
 ? 
;

_diffrn_ambient_temperature      293(2)
_diffrn_radiation_wavelength     0.71073
_diffrn_radiation_type           MoK\a
_diffrn_radiation_source         'fine-focus sealed tube'
_diffrn_radiation_monochromator  graphite
_diffrn_measurement_device_type  ?
_diffrn_measurement_method       ?
_diffrn_detector_area_resol_mean ?
_diffrn_standards_number         ?
_diffrn_standards_interval_count ?
_diffrn_standards_interval_time  ?
_diffrn_standards_decay_%        ?
_diffrn_reflns_number            53059
_diffrn_reflns_av_R_equivalents  0.0403
_diffrn_reflns_av_sigmaI/netI    0.0728
_diffrn_reflns_limit_h_min       -12
_diffrn_reflns_limit_h_max       12
_diffrn_reflns_limit_k_min       -36
_diffrn_reflns_limit_k_max       38
_diffrn_reflns_limit_l_min       -30
_diffrn_reflns_limit_l_max       37
_diffrn_reflns_theta_min         1.87
_diffrn_reflns_theta_max         26.00
_reflns_number_total             19078
_reflns_number_gt                12122
_reflns_threshold_expression     >2sigma(I)

_computing_data_collection       ?
_computing_cell_refinement       ?
_computing_data_reduction        ?
_computing_structure_solution    'SHELXS-97 (Sheldrick, 1990)'
_computing_structure_refinement  'SHELXL-97 (Sheldrick, 1997)'
_computing_molecular_graphics    ?
_computing_publication_material  ?

_refine_special_details          
; 
 Refinement of F^2^ against ALL reflections.  The weighted R-factor wR and 
 goodness of fit S are based on F^2^, conventional R-factors R are based 
 on F, with F set to zero for negative F^2^. The threshold expression of 
 F^2^ > 2sigma(F^2^) is used only for calculating R-factors(gt) etc. and is 
 not relevant to the choice of reflections for refinement.  R-factors based 
 on F^2^ are statistically about twice as large as those based on F, and R- 
 factors based on ALL data will be even larger. 
;

_refine_ls_structure_factor_coef Fsqd
_refine_ls_matrix_type           fullcycle
_refine_ls_weighting_scheme      calc
_refine_ls_weighting_details     
'calc w=1/[\s^2^(Fo^2^)+(0.0600P)^2^+1.2200P] where P=(Fo^2^+2Fc^2^)/3'
_atom_sites_solution_primary     direct
_atom_sites_solution_secondary   difmap
_atom_sites_solution_hydrogens   geom
_refine_ls_hydrogen_treatment    mixed
_refine_ls_extinction_method     none
_refine_ls_extinction_coef       ?
_refine_ls_number_reflns         19078
_refine_ls_number_parameters     569
_refine_ls_number_restraints     0
_refine_ls_R_factor_all          0.1113
_refine_ls_R_factor_gt           0.0799
_refine_ls_wR_factor_ref         0.2253
_refine_ls_wR_factor_gt          0.2059
_refine_ls_goodness_of_fit_ref   1.777
_refine_ls_restrained_S_all      1.777
_refine_ls_shift/su_max          0.000
_refine_ls_shift/su_mean         0.000

loop_
_atom_site_label
_atom_site_type_symbol
_atom_site_fract_x
_atom_site_fract_y
_atom_site_fract_z
_atom_site_U_iso_or_equiv
_atom_site_adp_type
_atom_site_occupancy
_atom_site_symmetry_multiplicity
_atom_site_calc_flag
_atom_site_refinement_flags
_atom_site_disorder_assembly
_atom_site_disorder_group
C1 C -0.2289(5) 0.31328(16) 0.41092(16) 0.0442(10) Uani 1 1 d . . .
C2 C -0.3531(5) 0.30095(15) 0.43378(16) 0.0422(10) Uani 1 1 d . . .
C3 C -0.3483(4) 0.28717(16) 0.47757(15) 0.0423(11) Uani 1 1 d . . .
H3 H -0.2691 0.2843 0.4927 0.051 Uiso 1 1 calc R . .
C4 C -0.4656(5) 0.27776(16) 0.49814(17) 0.0464(11) Uani 1 1 d . . .
C5 C -0.5834(5) 0.28544(16) 0.47611(17) 0.0460(11) Uani 1 1 d . . .
H5 H -0.6613 0.2811 0.4902 0.055 Uiso 1 1 calc R . .
C6 C -0.5841(4) 0.29943(16) 0.43337(15) 0.0413(10) Uani 1 1 d . . .
C7 C -0.4707(5) 0.30696(15) 0.41171(16) 0.0426(10) Uani 1 1 d . . .
H7 H -0.4731 0.3160 0.3827 0.051 Uiso 1 1 calc R . .
C8 C -0.7110(5) 0.30818(14) 0.40881(15) 0.0400(10) Uani 1 1 d . . .
C9 C -0.5381(5) 0.23773(18) 0.56296(17) 0.0499(12) Uani 1 1 d . . .
C10 C -0.5037(6) 0.22408(19) 0.60903(18) 0.0561(13) Uani 1 1 d . . .
C11 C -0.3849(5) 0.23360(19) 0.62908(18) 0.0551(13) Uani 1 1 d . . .
H11 H -0.3233 0.2494 0.6141 0.066 Uiso 1 1 calc R . .
C12 C -0.3570(6) 0.21916(19) 0.67252(18) 0.0576(14) Uani 1 1 d . . .
H12 H -0.2770 0.2250 0.6860 0.069 Uiso 1 1 calc R . .
C13 C -0.4522(5) 0.19596(17) 0.69467(16) 0.0492(12) Uani 1 1 d . . .
C14 C -0.5699(6) 0.18633(19) 0.67509(18) 0.0572(14) Uani 1 1 d . . .
H14 H -0.6316 0.1707 0.6901 0.069 Uiso 1 1 calc R . .
C15 C -0.5961(6) 0.20050(18) 0.63181(18) 0.0559(13) Uani 1 1 d . . .
H15 H -0.6757 0.1941 0.6183 0.067 Uiso 1 1 calc R . .
C16 C -0.4345(5) 0.18115(17) 0.74009(15) 0.0456(11) Uani 1 1 d . . .
C17 C 0.2783(5) 0.41887(15) 0.30559(17) 0.0456(11) Uani 1 1 d . . .
C18 C 0.4031(5) 0.44214(15) 0.29551(15) 0.0413(10) Uani 1 1 d . . .
C19 C 0.4006(5) 0.48564(16) 0.28267(17) 0.0465(11) Uani 1 1 d . . .
H19 H 0.3225 0.5006 0.2797 0.056 Uiso 1 1 calc R . .
C20 C 0.5188(5) 0.50595(15) 0.27440(17) 0.0455(11) Uani 1 1 d . . .
C21 C 0.6344(4) 0.48445(15) 0.28041(15) 0.0412(10) Uani 1 1 d . . .
H21 H 0.7123 0.4989 0.2762 0.049 Uiso 1 1 calc R . .
C22 C 0.6357(4) 0.44063(15) 0.29299(15) 0.0414(10) Uani 1 1 d . . .
C23 C 0.5186(5) 0.41925(15) 0.29959(15) 0.0412(10) Uani 1 1 d . . .
H23 H 0.5180 0.3900 0.3066 0.049 Uiso 1 1 calc R . .
C24 C 0.7612(4) 0.41637(15) 0.30012(15) 0.0411(10) Uani 1 1 d . . .
C25 C 0.6007(6) 0.58049(19) 0.2621(2) 0.0640(15) Uani 1 1 d . . .
C26 C 0.5735(6) 0.6257(2) 0.2452(2) 0.0626(15) Uani 1 1 d . . .
C27 C 0.4560(5) 0.6374(2) 0.22722(19) 0.0574(14) Uani 1 1 d . . .
H27 H 0.3886 0.6174 0.2259 0.069 Uiso 1 1 calc R . .
C28 C 0.4358(6) 0.67949(18) 0.2106(2) 0.0578(14) Uani 1 1 d . . .
H28 H 0.3563 0.6876 0.1981 0.069 Uiso 1 1 calc R . .
C29 C 0.5379(5) 0.70821(18) 0.2136(2) 0.0579(14) Uani 1 1 d . . .
C30 C 0.6582(6) 0.69601(19) 0.23243(19) 0.0596(14) Uani 1 1 d . . .
H30 H 0.7262 0.7158 0.2341 0.071 Uiso 1 1 calc R . .
C31 C 0.6753(6) 0.65500(18) 0.24828(18) 0.0537(13) Uani 1 1 d . . .
H31 H 0.7545 0.6468 0.2610 0.064 Uiso 1 1 calc R . .
C32 C 0.5279(5) 0.74950(16) 0.18653(19) 0.0502(12) Uani 1 1 d . . .
C33 C 0.0191(5) 0.43546(16) 0.43187(17) 0.0491(12) Uani 1 1 d . . .
C34 C 0.0109(5) 0.46820(16) 0.46765(17) 0.0471(11) Uani 1 1 d . . .
C35 C 0.0126(6) 0.45677(17) 0.51046(16) 0.0509(12) Uani 1 1 d . . .
H35 H 0.0211 0.4278 0.5182 0.061 Uiso 1 1 calc R . .
C36 C -0.0018(6) 0.51189(17) 0.45679(18) 0.0529(12) Uani 1 1 d . . .
H36 H -0.0030 0.5202 0.4275 0.064 Uiso 1 1 calc R . .
C37 C 0.1731(6) 0.58248(19) 0.0088(2) 0.0625(15) Uani 1 1 d . . .
H37A H 0.1818 0.6050 -0.0126 0.094 Uiso 1 1 calc R . .
H37B H 0.2052 0.5926 0.0367 0.094 Uiso 1 1 calc R . .
H37C H 0.0831 0.5747 0.0109 0.094 Uiso 1 1 calc R . .
C38 C 0.3128(6) 0.5201(2) 0.0329(2) 0.0641(15) Uani 1 1 d . . .
H38A H 0.4044 0.5182 0.0282 0.096 Uiso 1 1 calc R . .
H38B H 0.2768 0.4915 0.0345 0.096 Uiso 1 1 calc R . .
H38C H 0.2981 0.5352 0.0597 0.096 Uiso 1 1 calc R . .
N1 N -0.4579(4) 0.26208(15) 0.54105(13) 0.0504(10) Uani 1 1 d . . .
H1 H -0.3890 0.2697 0.5556 0.060 Uiso 1 1 calc R . .
N2 N 0.5104(4) 0.55165(12) 0.26383(15) 0.0470(9) Uani 1 1 d . . .
H2 H 0.4333 0.5609 0.2578 0.056 Uiso 1 1 calc R . .
N3 N 0.2485(5) 0.54422(17) -0.00452(17) 0.0665(13) Uani 1 1 d . . .
H3A H 0.3101 0.5528 -0.0230 0.080 Uiso 1 1 d R . .
H3B H 0.1951 0.5260 -0.0192 0.080 Uiso 1 1 d R . .
O1 O 0.0232(3) 0.35663(10) 0.34909(10) 0.0393(7) Uani 1 1 d . . .
O2 O -0.1245(3) 0.31279(11) 0.43271(11) 0.0467(8) Uani 1 1 d . . .
O3 O -0.2420(3) 0.32147(12) 0.37182(12) 0.0527(9) Uani 1 1 d . . .
O4 O -0.7061(3) 0.30786(10) 0.36797(10) 0.0426(7) Uani 1 1 d . . .
O5 O -0.8118(3) 0.31430(11) 0.43076(11) 0.0427(7) Uani 1 1 d . . .
O6 O -0.6460(4) 0.23123(12) 0.54512(12) 0.0575(9) Uani 1 1 d . . .
O7 O -0.5229(4) 0.16143(12) 0.75416(11) 0.0518(9) Uani 1 1 d . . .
O8 O -0.3334(3) 0.19105(11) 0.76156(11) 0.0451(7) Uani 1 1 d . . .
O9 O 0.1776(3) 0.44147(10) 0.30918(11) 0.0430(7) Uani 1 1 d . . .
O10 O 0.2867(3) 0.37959(11) 0.30968(12) 0.0486(8) Uani 1 1 d . . .
O11 O 0.7510(3) 0.37594(11) 0.29861(12) 0.0480(8) Uani 1 1 d . . .
O12 O 0.8612(3) 0.43772(10) 0.30753(11) 0.0421(7) Uani 1 1 d . . .
O13 O 0.7075(4) 0.56878(13) 0.27763(12) 0.0602(10) Uani 1 1 d . . .
O14 O 0.6300(3) 0.76955(12) 0.19775(12) 0.0522(8) Uani 1 1 d . . .
O15 O 0.4341(4) 0.76351(11) 0.16698(12) 0.0525(8) Uani 1 1 d . . .
O16 O 0.0268(3) 0.39703(10) 0.44313(11) 0.0446(7) Uani 1 1 d . . .
O17 O 0.0176(3) 0.44887(11) 0.39315(11) 0.0489(8) Uani 1 1 d . . .
Zn1 Zn -0.12534(5) 0.330460(18) 0.318320(17) 0.04101(15) Uani 1 1 d . . .
Zn2 Zn 0.02680(5) 0.342020(18) 0.410080(18) 0.04149(15) Uani 1 1 d . . .
Zn3 Zn 0.02341(5) 0.417540(17) 0.336830(18) 0.04006(15) Uani 1 1 d . . .
Zn4 Zn 0.16829(5) 0.326870(17) 0.321860(18) 0.04015(15) Uani 1 1 d . . .


loop_
_atom_site_aniso_label
_atom_site_aniso_U_11
_atom_site_aniso_U_22
_atom_site_aniso_U_33
_atom_site_aniso_U_23
_atom_site_aniso_U_13
_atom_site_aniso_U_12
C1 0.039(2) 0.048(3) 0.045(3) 0.008(2) 0.001(2) -0.005(2)
C2 0.040(2) 0.044(3) 0.042(2) 0.007(2) 0.010(2) 0.003(2)
C3 0.034(2) 0.053(3) 0.040(2) 0.012(2) -0.0012(19) -0.011(2)
C4 0.040(3) 0.051(3) 0.048(3) 0.019(2) 0.004(2) 0.000(2)
C5 0.037(2) 0.050(3) 0.052(3) 0.016(2) 0.002(2) 0.008(2)
C6 0.038(2) 0.051(3) 0.036(2) -0.003(2) 0.0008(19) -0.011(2)
C7 0.044(3) 0.045(3) 0.039(2) 0.005(2) 0.001(2) -0.001(2)
C8 0.041(2) 0.036(2) 0.043(3) 0.0115(19) 0.004(2) 0.0043(18)
C9 0.043(3) 0.055(3) 0.051(3) 0.020(2) 0.004(2) 0.010(2)
C10 0.063(3) 0.060(3) 0.046(3) 0.006(2) 0.006(2) -0.010(3)
C11 0.045(3) 0.066(3) 0.055(3) 0.012(3) 0.008(2) -0.018(2)
C12 0.065(4) 0.061(3) 0.047(3) 0.014(3) 0.011(3) 0.010(3)
C13 0.062(3) 0.049(3) 0.037(2) 0.000(2) 0.006(2) 0.007(2)
C14 0.058(3) 0.060(3) 0.054(3) 0.013(3) -0.003(3) 0.004(3)
C15 0.058(3) 0.063(3) 0.048(3) -0.003(3) 0.006(2) -0.010(3)
C16 0.047(3) 0.059(3) 0.031(2) -0.003(2) -0.001(2) -0.012(2)
C17 0.050(3) 0.037(2) 0.050(3) 0.006(2) 0.016(2) 0.005(2)
C18 0.045(3) 0.039(2) 0.040(2) -0.0053(19) -0.0029(19) 0.0019(19)
C19 0.039(3) 0.045(3) 0.055(3) 0.007(2) -0.009(2) 0.006(2)
C20 0.049(3) 0.038(2) 0.048(3) -0.002(2) -0.009(2) 0.003(2)
C21 0.036(2) 0.043(2) 0.045(2) 0.017(2) 0.0007(19) -0.0082(18)
C22 0.034(2) 0.044(2) 0.046(3) 0.010(2) -0.0082(19) -0.0018(18)
C23 0.044(3) 0.036(2) 0.045(3) 0.0037(19) 0.011(2) 0.0043(19)
C24 0.036(2) 0.046(2) 0.042(2) 0.002(2) -0.0073(19) 0.0000(19)
C25 0.063(4) 0.060(3) 0.069(4) 0.013(3) -0.011(3) -0.012(3)
C26 0.051(3) 0.070(4) 0.068(4) 0.012(3) 0.019(3) -0.007(3)
C27 0.048(3) 0.065(3) 0.060(3) -0.001(3) 0.012(3) -0.008(3)
C28 0.055(3) 0.057(3) 0.062(3) -0.012(3) 0.017(3) 0.006(3)
C29 0.051(3) 0.051(3) 0.073(4) 0.015(3) 0.015(3) 0.004(2)
C30 0.063(4) 0.055(3) 0.062(3) 0.020(3) 0.009(3) 0.013(3)
C31 0.051(3) 0.059(3) 0.051(3) 0.013(2) 0.010(2) -0.004(2)
C32 0.051(3) 0.041(3) 0.059(3) -0.005(2) 0.007(2) -0.004(2)
C33 0.055(3) 0.044(3) 0.048(3) -0.006(2) 0.006(2) -0.025(2)
C34 0.044(3) 0.047(3) 0.049(3) -0.013(2) -0.008(2) -0.004(2)
C35 0.067(3) 0.040(2) 0.044(3) -0.007(2) -0.010(2) -0.002(2)
C36 0.062(3) 0.046(3) 0.051(3) -0.007(2) 0.004(2) -0.009(2)
C37 0.064(4) 0.062(4) 0.061(4) 0.002(3) 0.002(3) 0.003(3)
C38 0.067(4) 0.066(4) 0.059(3) 0.016(3) -0.003(3) -0.003(3)
N1 0.040(2) 0.069(3) 0.042(2) 0.016(2) 0.0071(17) 0.0010(19)
N2 0.036(2) 0.041(2) 0.065(3) 0.0014(19) 0.0110(19) 0.0009(16)
N3 0.066(3) 0.067(3) 0.066(3) 0.018(3) -0.001(2) 0.012(2)
O1 0.0409(17) 0.0364(16) 0.0403(16) -0.0027(13) -0.0029(13) 0.0008(13)
O2 0.0421(18) 0.0529(19) 0.0450(18) 0.0039(15) -0.0031(15) -0.0025(15)
O3 0.046(2) 0.068(2) 0.0445(19) 0.0174(17) 0.0028(15) -0.0050(17)
O4 0.0412(17) 0.0481(18) 0.0383(17) -0.0008(14) -0.0021(13) 0.0005(14)
O5 0.0333(16) 0.0523(19) 0.0424(17) 0.0001(15) -0.0012(13) 0.0005(14)
O6 0.063(2) 0.056(2) 0.053(2) 0.0145(17) -0.0069(18) -0.0131(18)
O7 0.054(2) 0.066(2) 0.0350(17) -0.0064(16) 0.0001(15) -0.0130(17)
O8 0.0427(18) 0.0488(18) 0.0436(18) -0.0010(15) -0.0016(14) -0.0002(14)
O9 0.0446(18) 0.0404(17) 0.0441(17) 0.0137(14) 0.0029(14) 0.0072(14)
O10 0.0419(18) 0.0461(18) 0.058(2) 0.0205(16) 0.0053(15) 0.0098(14)
O11 0.0488(19) 0.0437(18) 0.051(2) 0.0051(15) -0.0025(15) -0.0015(15)
O12 0.0357(16) 0.0442(17) 0.0463(17) 0.0003(15) -0.0019(13) 0.0032(13)
O13 0.058(2) 0.066(2) 0.056(2) 0.0111(18) -0.0146(18) -0.0125(19)
O14 0.047(2) 0.053(2) 0.056(2) 0.0143(17) -0.0090(16) -0.0009(16)
O15 0.057(2) 0.0427(18) 0.058(2) -0.0060(16) -0.0010(17) 0.0052(16)
O16 0.0455(19) 0.0437(18) 0.0445(18) -0.0019(15) -0.0014(14) -0.0013(14)
O17 0.054(2) 0.0454(18) 0.0473(18) -0.0103(15) 0.0022(15) 0.0007(15)
Zn1 0.0410(3) 0.0439(3) 0.0378(3) -0.0044(2) -0.0027(2) 0.0004(2)
Zn2 0.0363(3) 0.0467(3) 0.0413(3) 0.0011(2) -0.0024(2) -0.0005(2)
Zn3 0.0396(3) 0.0382(3) 0.0423(3) -0.0009(2) -0.0007(2) 0.0014(2)
Zn4 0.0402(3) 0.0394(3) 0.0407(3) -0.0023(2) -0.0008(2) 0.0014(2)

_geom_special_details            
; 
 All esds (except the esd in the dihedral angle between two l.s. planes) 
 are estimated using the full covariance matrix.  The cell esds are taken 
 into account individually in the estimation of esds in distances, angles 
 and torsion angles; correlations between esds in cell parameters are only 
 used when they are defined by crystal symmetry.  An approximate (isotropic) 
 treatment of cell esds is used for estimating esds involving l.s. planes. 
;

loop_
_geom_bond_atom_site_label_1
_geom_bond_atom_site_label_2
_geom_bond_distance
_geom_bond_site_symmetry_2
_geom_bond_publ_flag
C1 O3 1.226(5) . ?
C1 O2 1.250(5) . ?
C1 C2 1.522(6) . ?
C2 C7 1.383(7) . ?
C2 C3 1.404(6) . ?
C3 C4 1.406(6) . ?
C3 H3 0.9300 . ?
C4 C5 1.393(7) . ?
C4 N1 1.399(5) . ?
C5 C6 1.376(7) . ?
C5 H5 0.9300 . ?
C6 C7 1.377(6) . ?
C6 C8 1.515(6) . ?
C7 H7 0.9300 . ?
C8 O4 1.251(5) . ?
C8 O5 1.264(5) . ?
C9 O6 1.242(5) . ?
C9 N1 1.313(5) . ?
C9 C10 1.503(7) . ?
C10 C11 1.386(8) . ?
C10 C15 1.398(7) . ?
C11 C12 1.423(8) . ?
C11 H11 0.9300 . ?
C12 C13 1.402(8) . ?
C12 H12 0.9300 . ?
C13 C14 1.370(8) . ?
C13 C16 1.469(7) . ?
C14 C15 1.413(8) . ?
C14 H14 0.9300 . ?
C15 H15 0.9300 . ?
C16 O7 1.186(5) . ?
C16 O8 1.254(5) . ?
C17 O10 1.224(5) . ?
C17 O9 1.257(5) . ?
C17 C18 1.512(7) . ?
C18 C23 1.387(6) . ?
C18 C19 1.401(7) . ?
C19 C20 1.398(7) . ?
C19 H19 0.9300 . ?
C20 C21 1.372(7) . ?
C20 N2 1.452(5) . ?
C21 C22 1.409(6) . ?
C21 H21 0.9300 . ?
C22 C23 1.394(6) . ?
C22 C24 1.505(6) . ?
C23 H23 0.9300 . ?
C24 O12 1.239(5) . ?
C24 O11 1.255(5) . ?
C25 O13 1.241(6) . ?
C25 N2 1.290(6) . ?
C25 C26 1.514(8) . ?
C26 C27 1.364(8) . ?
C26 C31 1.387(8) . ?
C27 C28 1.411(8) . ?
C27 H