####################################################################### 
# 
# This file contains crystal structure data downloaded from the 
# Cambridge Structural Database (CSD) hosted by the Cambridge 
# Crystallographic Data Centre (CCDC).
# 
# Full information about CCDC data access policies and citation 
# guidelines are available at http://www.ccdc.cam.ac.uk/access/V1 
# 
# Audit and citation data items may have been added by the CCDC. 
# Please retain this information to preserve the provenance of 
# this file and to allow appropriate attribution of the data. 
# 
#######################################################################

data_IIb
_audit_block_doi                 10.5517/cc133ccy
_database_code_depnum_ccdc_archive 'CCDC 1016129'
loop_
_citation_id
_citation_doi
_citation_year
1 10.1021/ic502643m 2015
_audit_update_record             
;
2014-07-25 deposited with the CCDC.	2024-07-12 downloaded from the CCDC.
;

_audit_creation_method           SHELXL-97
_chemical_name_systematic        
; 
 ? 
;
_chemical_name_common            ?
_chemical_melting_point          ?
_chemical_formula_moiety         ?
_chemical_formula_sum            'C40 H26 N3 O17 Zn4'
_chemical_formula_weight         1082.12

loop_
_atom_type_symbol
_atom_type_description
_atom_type_scat_dispersion_real
_atom_type_scat_dispersion_imag
_atom_type_scat_source
C C 0.0033 0.0016 'International Tables Vol C Tables 4.2.6.8 and 6.1.1.4'
H H 0.0000 0.0000 'International Tables Vol C Tables 4.2.6.8 and 6.1.1.4'
N N 0.0061 0.0033 'International Tables Vol C Tables 4.2.6.8 and 6.1.1.4'
O O 0.0106 0.0060 'International Tables Vol C Tables 4.2.6.8 and 6.1.1.4'
Zn Zn 0.2839 1.4301 'International Tables Vol C Tables 4.2.6.8 and 6.1.1.4'

_symmetry_cell_setting           ?
_symmetry_space_group_name_H-M   P21/n
_symmetry_space_group_name_Hall  -P2yn
loop_
_symmetry_equiv_pos_as_xyz
'x, y, z'
'-x+1/2, y+1/2, -z+1/2'
'-x, -y, -z'
'x-1/2, -y-1/2, z-1/2'

_cell_length_a                   10.349(2)
_cell_length_b                   32.284(7)
_cell_length_c                   26.084(5)
_cell_angle_alpha                90.00
_cell_angle_beta                 90.00(3)
_cell_angle_gamma                90.00
_cell_volume                     8715(3)
_cell_formula_units_Z            4
_cell_measurement_temperature    223(2)
_cell_measurement_reflns_used    ?
_cell_measurement_theta_min      ?
_cell_measurement_theta_max      ?

_exptl_crystal_description       block
_exptl_crystal_colour            colorless
_exptl_crystal_size_max          0.12
_exptl_crystal_size_mid          0.06
_exptl_crystal_size_min          0.06
_exptl_crystal_density_meas      ?
_exptl_crystal_density_diffrn    0.825
_exptl_crystal_density_method    'not measured'
_exptl_crystal_F_000             2172
_exptl_absorpt_coefficient_mu    1.126
_exptl_absorpt_correction_type   ?
_exptl_absorpt_correction_T_min  0.8767
_exptl_absorpt_correction_T_max  0.9355
_exptl_absorpt_process_details   ?

_exptl_special_details           
; 
 ? 
;

_diffrn_ambient_temperature      223(2)
_diffrn_radiation_wavelength     0.71073
_diffrn_radiation_type           MoK\a
_diffrn_radiation_source         'fine-focus sealed tube'
_diffrn_radiation_monochromator  graphite
_diffrn_measurement_device_type  ?
_diffrn_measurement_method       ?
_diffrn_detector_area_resol_mean ?
_diffrn_standards_number         ?
_diffrn_standards_interval_count ?
_diffrn_standards_interval_time  ?
_diffrn_standards_decay_%        ?
_diffrn_reflns_number            43836
_diffrn_reflns_av_R_equivalents  0.0870
_diffrn_reflns_av_sigmaI/netI    0.1338
_diffrn_reflns_limit_h_min       -12
_diffrn_reflns_limit_h_max       10
_diffrn_reflns_limit_k_min       -38
_diffrn_reflns_limit_k_max       38
_diffrn_reflns_limit_l_min       -31
_diffrn_reflns_limit_l_max       26
_diffrn_reflns_theta_min         1.48
_diffrn_reflns_theta_max         25.05
_reflns_number_total             15232
_reflns_number_gt                7566
_reflns_threshold_expression     >2sigma(I)

_computing_data_collection       ?
_computing_cell_refinement       ?
_computing_data_reduction        ?
_computing_structure_solution    'SHELXS-97 (Sheldrick, 1990)'
_computing_structure_refinement  'SHELXL-97 (Sheldrick, 1997)'
_computing_molecular_graphics    ?
_computing_publication_material  ?

_refine_special_details          
; 
 Refinement of F^2^ against ALL reflections.  The weighted R-factor wR and 
 goodness of fit S are based on F^2^, conventional R-factors R are based 
 on F, with F set to zero for negative F^2^. The threshold expression of 
 F^2^ > 2sigma(F^2^) is used only for calculating R-factors(gt) etc. and is 
 not relevant to the choice of reflections for refinement.  R-factors based 
 on F^2^ are statistically about twice as large as those based on F, and R- 
 factors based on ALL data will be even larger. 
;

_refine_ls_structure_factor_coef Fsqd
_refine_ls_matrix_type           full
_refine_ls_weighting_scheme      calc
_refine_ls_weighting_details     
'calc w=1/[\s^2^(Fo^2^)+(0.1976P)^2^+0.0000P] where P=(Fo^2^+2Fc^2^)/3'
_atom_sites_solution_primary     direct
_atom_sites_solution_secondary   difmap
_atom_sites_solution_hydrogens   geom
_refine_ls_hydrogen_treatment    constor
_refine_ls_extinction_method     none
_refine_ls_extinction_coef       ?
_refine_ls_number_reflns         15232
_refine_ls_number_parameters     560
_refine_ls_number_restraints     947
_refine_ls_R_factor_all          0.1575
_refine_ls_R_factor_gt           0.1139
_refine_ls_wR_factor_ref         0.3487
_refine_ls_wR_factor_gt          0.3098
_refine_ls_goodness_of_fit_ref   1.010
_refine_ls_restrained_S_all      1.018
_refine_ls_shift/su_max          0.015
_refine_ls_shift/su_mean         0.001

loop_
_atom_site_label
_atom_site_type_symbol
_atom_site_fract_x
_atom_site_fract_y
_atom_site_fract_z
_atom_site_U_iso_or_equiv
_atom_site_adp_type
_atom_site_occupancy
_atom_site_symmetry_multiplicity
_atom_site_calc_flag
_atom_site_refinement_flags
_atom_site_disorder_assembly
_atom_site_disorder_group
C1 C 0.2644(9) 0.5288(3) 0.7523(4) 0.0408(18) Uani 1 1 d U . .
C2 C 0.3796(9) 0.5038(3) 0.7547(4) 0.046(2) Uani 1 1 d U . .
C3 C 0.5001(8) 0.5254(3) 0.7566(4) 0.043(2) Uani 1 1 d U . .
H3 H 0.5014 0.5544 0.7600 0.052 Uiso 1 1 calc R . .
C4 C 0.6166(9) 0.5031(3) 0.7534(4) 0.047(2) Uani 1 1 d U . .
C5 C 0.6161(10) 0.4611(3) 0.7484(4) 0.053(2) Uani 1 1 d U . .
H5 H 0.6946 0.4468 0.7445 0.063 Uiso 1 1 calc R . .
C6 C 0.5022(10) 0.4397(4) 0.7491(5) 0.061(2) Uani 1 1 d U . .
C7 C 0.3841(10) 0.4612(4) 0.7513(5) 0.057(2) Uani 1 1 d U . .
H7 H 0.3064 0.4461 0.7504 0.068 Uiso 1 1 calc R . .
C8 C 0.7410(9) 0.5278(3) 0.7528(4) 0.0410(19) Uani 1 1 d U . .
C9 C 0.5838(14) 0.3690(5) 0.7234(6) 0.087(3) Uani 1 1 d U . .
C10 C 0.5758(9) 0.3247(2) 0.7278(4) 0.089(3) Uani 1 1 d GU . .
C11 C 0.6405(9) 0.2969(3) 0.6962(3) 0.099(3) Uani 1 1 d GU . .
H11 H 0.6868 0.3067 0.6676 0.119 Uiso 1 1 calc R . .
C12 C 0.6369(8) 0.2548(3) 0.7068(3) 0.097(3) Uani 1 1 d GU . .
H12 H 0.6807 0.2360 0.6854 0.117 Uiso 1 1 calc R . .
C13 C 0.5684(7) 0.2404(2) 0.7490(3) 0.098(3) Uani 1 1 d GU . .
C14 C 0.5036(8) 0.2681(3) 0.7806(3) 0.090(3) Uani 1 1 d GU . .
H14 H 0.4573 0.2584 0.8092 0.108 Uiso 1 1 calc R . .
C15 C 0.5073(9) 0.3103(3) 0.7700(3) 0.085(3) Uani 1 1 d GU . .
H15 H 0.4635 0.3291 0.7914 0.102 Uiso 1 1 calc R . .
C16 C 0.5589(12) 0.1986(2) 0.7603(5) 0.110(3) Uani 1 1 d RU . .
C17 C 0.0003(10) 0.5400(4) 0.5992(4) 0.048(2) Uani 1 1 d U . .
C18 C -0.0022(13) 0.5177(5) 0.5461(5) 0.077(3) Uani 1 1 d U A .
C19 C 0.0430(13) 0.5403(5) 0.5051(5) 0.073(3) Uani 1 1 d U . .
C22 C -0.0545(14) 0.4788(5) 0.5441(5) 0.077(3) Uani 1 1 d U . .
C23 C -0.2631(11) 0.6423(4) 0.6506(5) 0.064(2) Uani 1 1 d U . .
C24 C -0.3816(11) 0.6606(5) 0.6312(5) 0.073(2) Uani 1 1 d U . .
C25 C -0.5006(11) 0.6428(5) 0.6486(5) 0.074(3) Uani 1 1 d U . .
H25 H -0.5004 0.6202 0.6713 0.089 Uiso 1 1 calc R . .
C26 C -0.6173(11) 0.6597(4) 0.6310(5) 0.068(2) Uani 1 1 d U . .
C27 C -0.6158(11) 0.6859(4) 0.5868(5) 0.072(3) Uani 1 1 d U . .
H27 H -0.6935 0.6949 0.5718 0.086 Uiso 1 1 calc R . .
C28 C -0.4984(12) 0.6978(5) 0.5667(5) 0.077(3) Uani 1 1 d U . .
C29 C -0.3858(11) 0.6857(4) 0.5870(5) 0.074(3) Uani 1 1 d U . .
H29 H -0.3081 0.6941 0.5715 0.089 Uiso 1 1 calc R . .
C30 C -0.7364(10) 0.6408(4) 0.6500(5) 0.061(2) Uani 1 1 d U . .
C31 C -0.5914(18) 0.7505(7) 0.5059(8) 0.123(3) Uani 1 1 d U . .
C32 C -0.5609(13) 0.7770(4) 0.4653(5) 0.131(3) Uani 1 1 d GU . .
C33 C -0.6637(9) 0.7973(4) 0.4420(5) 0.119(4) Uani 1 1 d GU . .
H33 H -0.7489 0.7915 0.4522 0.143 Uiso 1 1 calc R . .
C34 C -0.6404(9) 0.8263(4) 0.4037(4) 0.114(4) Uani 1 1 d GU . .
H34 H -0.7099 0.8401 0.3879 0.137 Uiso 1 1 calc R . .
C35 C -0.5144(11) 0.8349(3) 0.3887(4) 0.090(3) Uani 1 1 d GU . .
C36 C -0.4116(8) 0.8146(4) 0.4120(5) 0.119(4) Uani 1 1 d GU . .
H36 H -0.3264 0.8204 0.4018 0.142 Uiso 1 1 calc R . .
C37 C -0.4349(11) 0.7856(4) 0.4503(5) 0.135(4) Uani 1 1 d GU . .
H37 H -0.3654 0.7718 0.4660 0.162 Uiso 1 1 calc R . .
C38 C -0.5070(10) 0.8632(3) 0.3467(4) 0.070(2) Uani 1 1 d U . .
C39 C 0.2579(10) 0.3831(3) 0.7967(4) 0.149(7) Uani 1 1 d RU . .
H39A H 0.2288 0.3929 0.7730 0.223 Uiso 1 1 d R . .
H39B H 0.2931 0.3580 0.7828 0.223 Uiso 1 1 d R . .
H39C H 0.1801 0.3769 0.8153 0.223 Uiso 1 1 d R . .
C40 C 0.3624(10) 0.3731(3) 0.8630(4) 0.196(8) Uani 1 1 d RU . .
H40A H 0.4241 0.3848 0.8864 0.294 Uiso 1 1 d R . .
H40B H 0.2839 0.3670 0.8811 0.294 Uiso 1 1 d R . .
H40C H 0.3968 0.3480 0.8587 0.294 Uiso 1 1 d R . .
C20A C 0.1137(17) 0.5789(6) 0.5023(6) 0.035(3) Uani 0.495(12) 1 d PU A 1
H20A H 0.1159 0.5868 0.5371 0.042 Uiso 0.495(12) 1 d PR A 1
C21A C 0.1539(19) 0.6006(7) 0.4688(8) 0.046(5) Uani 0.495(12) 1 d PU A 1
H21A H 0.1885 0.6252 0.4842 0.068 Uiso 0.495(12) 1 d PR A 1
C20B C -0.1122(18) 0.4551(6) 0.5763(8) 0.043(4) Uani 0.505(12) 1 d PU A 2
H20B H -0.1093 0.4635 0.6104 0.052 Uiso 0.505(12) 1 d PR A 2
C21B C -0.1566(17) 0.4188(7) 0.5816(7) 0.045(5) Uani 0.505(12) 1 d PU A 2
H21B H -0.1779 0.4141 0.6170 0.068 Uiso 0.505(12) 1 d PR A 2
N1 N 0.4995(8) 0.3961(3) 0.7449(4) 0.064(2) Uani 1 1 d U . .
H1A H 0.4302 0.3839 0.7422 0.077 Uiso 1 1 d R . .
N2 N -0.5032(9) 0.7260(3) 0.5284(4) 0.079(3) Uani 1 1 d U . .
H2A H -0.4242 0.7322 0.5161 0.095 Uiso 1 1 d R . .
N3 N 0.3383(9) 0.3941(3) 0.8280(4) 0.195(7) Uani 1 1 d RU . .
H3A H 0.3063 0.4178 0.8412 0.234 Uiso 1 1 d R . .
H3B H 0.4115 0.4001 0.8110 0.234 Uiso 1 1 d R . .
O1 O 0.1588(5) 0.5093(2) 0.7345(2) 0.0358(14) Uani 1 1 d U . .
O2 O 0.2597(5) 0.56381(18) 0.7704(2) 0.0301(13) Uani 1 1 d U . .
O3 O 0.7394(5) 0.56366(17) 0.7703(2) 0.0261(12) Uani 1 1 d U . .
O4 O 0.8441(5) 0.50938(19) 0.7351(2) 0.0349(14) Uani 1 1 d U . .
O5 O 0.6794(11) 0.3836(3) 0.6953(5) 0.113(4) Uani 1 1 d U . .
O6 O 0.4967(8) 0.1873(3) 0.7912(4) 0.080(2) Uani 1 1 d U . .
O7 O 0.6574(10) 0.1798(4) 0.7322(4) 0.111(3) Uani 1 1 d U . .
O8 O 0.0002(6) 0.5169(2) 0.6368(2) 0.0384(14) Uani 1 1 d U . .
O9 O -0.0031(7) 0.5784(2) 0.6008(2) 0.0503(16) Uani 1 1 d U . .
O10 O -0.1562(5) 0.6496(2) 0.6278(2) 0.0390(15) Uani 1 1 d U . .
O11 O -0.2681(7) 0.6229(3) 0.6905(4) 0.078(2) Uani 1 1 d U . .
O12 O -0.7313(7) 0.6219(3) 0.6909(4) 0.076(2) Uani 1 1 d U . .
O13 O -0.8424(5) 0.6499(2) 0.6280(2) 0.0376(15) Uani 1 1 d U . .
O14 O -0.7083(11) 0.7512(4) 0.5256(5) 0.116(4) Uani 1 1 d U . .
O15 O -0.5996(9) 0.8727(3) 0.3240(3) 0.076(2) Uani 1 1 d U . .
O16 O -0.3991(9) 0.8753(3) 0.3269(3) 0.082(2) Uani 1 1 d U . .
O17 O -0.0004(4) 0.59329(16) 0.7172(2) 0.0214(11) Uani 1 1 d U . .
Zn1 Zn -0.15290(9) 0.61323(3) 0.75327(4) 0.0308(3) Uani 1 1 d U . .
Zn2 Zn 0.15391(9) 0.61322(3) 0.75320(4) 0.0307(3) Uani 1 1 d U . .
Zn3 Zn 0.00029(9) 0.53478(3) 0.71021(4) 0.0310(3) Uani 1 1 d U . .
Zn4 Zn 0.00000(9) 0.62435(4) 0.65364(4) 0.0366(3) Uani 1 1 d U . .

loop_
_atom_site_aniso_label
_atom_site_aniso_U_11
_atom_site_aniso_U_22
_atom_site_aniso_U_33
_atom_site_aniso_U_23
_atom_site_aniso_U_13
_atom_site_aniso_U_12
C1 0.036(3) 0.035(4) 0.051(4) 0.003(3) -0.003(3) 0.004(3)
C2 0.043(4) 0.036(4) 0.058(4) 0.004(4) -0.004(4) 0.005(3)
C3 0.038(4) 0.038(4) 0.054(5) 0.007(4) 0.000(4) 0.001(3)
C4 0.043(4) 0.036(4) 0.062(4) 0.003(4) -0.002(4) 0.002(3)
C5 0.044(4) 0.035(4) 0.079(5) 0.004(4) -0.002(4) 0.002(3)
C6 0.052(4) 0.043(4) 0.089(5) 0.004(4) -0.002(4) 0.005(3)
C7 0.046(4) 0.046(4) 0.078(5) 0.009(4) -0.004(4) 0.002(4)
C8 0.045(4) 0.031(4) 0.047(4) 0.004(3) 0.002(3) -0.003(3)
C9 0.085(5) 0.071(5) 0.105(6) -0.004(5) 0.009(5) 0.000(4)
C10 0.095(5) 0.076(5) 0.098(5) 0.002(4) 0.006(4) 0.008(5)
C11 0.108(6) 0.085(5) 0.104(6) -0.010(5) -0.001(5) -0.002(5)
C12 0.107(6) 0.086(6) 0.099(6) -0.007(5) -0.004(5) -0.005(5)
C13 0.114(5) 0.089(5) 0.092(5) 0.001(5) -0.005(5) -0.005(5)
C14 0.103(6) 0.078(5) 0.088(6) 0.013(5) -0.001(5) 0.003(5)
C15 0.100(6) 0.068(5) 0.086(5) 0.005(5) 0.005(5) -0.001(5)
C16 0.122(5) 0.103(5) 0.105(5) 0.001(5) 0.006(4) -0.011(5)
C17 0.060(4) 0.047(4) 0.038(4) -0.001(3) 0.005(4) -0.009(4)
C18 0.097(5) 0.070(5) 0.063(4) -0.006(4) 0.004(4) -0.016(4)
C19 0.100(6) 0.071(5) 0.049(5) -0.008(4) 0.008(5) 0.003(5)
C22 0.101(6) 0.065(5) 0.065(5) -0.007(4) -0.021(5) 0.001(5)
C23 0.050(4) 0.074(5) 0.068(4) 0.024(4) -0.006(4) -0.003(4)
C24 0.056(4) 0.083(5) 0.081(5) 0.028(4) -0.004(4) -0.005(4)
C25 0.057(4) 0.082(6) 0.083(5) 0.028(5) 0.002(4) -0.007(4)
C26 0.058(4) 0.073(5) 0.074(5) 0.029(4) -0.003(4) -0.010(4)
C27 0.060(4) 0.079(6) 0.076(5) 0.032(4) 0.001(4) -0.006(4)
C28 0.065(4) 0.089(5) 0.078(5) 0.035(4) 0.001(4) -0.004(4)
C29 0.055(4) 0.088(6) 0.079(5) 0.032(5) 0.006(4) -0.002(4)
C30 0.050(4) 0.066(5) 0.066(4) 0.021(4) -0.001(4) -0.007(4)
C31 0.113(5) 0.125(6) 0.130(6) 0.023(5) -0.005(5) 0.004(5)
C32 0.126(5) 0.131(6) 0.135(6) 0.026(5) -0.010(5) 0.002(5)
C33 0.119(6) 0.121(6) 0.119(6) 0.026(5) 0.001(5) -0.003(5)
C34 0.113(5) 0.120(6) 0.109(6) 0.022(5) 0.000(5) -0.008(5)
C35 0.092(5) 0.095(5) 0.083(5) 0.009(4) -0.001(4) 0.006(5)
C36 0.115(6) 0.124(6) 0.117(6) 0.015(5) -0.013(5) 0.012(5)
C37 0.133(6) 0.138(7) 0.135(6) 0.019(5) -0.004(6) 0.012(6)
C38 0.070(4) 0.080(5) 0.059(5) 0.004(4) 0.002(4) 0.006(4)
C39 0.120(11) 0.145(13) 0.182(12) -0.006(11) 0.053(9) -0.029(10)
C40 0.221(14) 0.174(14) 0.192(13) 0.027(11) 0.048(11) 0.030(12)
C20A 0.047(6) 0.043(6) 0.015(6) -0.002(5) 0.004(5) 0.009(5)
C21A 0.050(9) 0.049(10) 0.038(9) 0.003(7) 0.008(7) 0.008(8)
C20B 0.053(7) 0.037(6) 0.040(6) -0.011(5) -0.024(5) 0.004(5)
C21B 0.046(9) 0.053(9) 0.037(9) -0.011(8) -0.003(7) 0.003(7)
N1 0.052(4) 0.042(4) 0.099(5) 0.003(4) -0.002(4) 0.003(3)
N2 0.067(4) 0.091(5) 0.079(5) 0.034(4) 0.003(4) -0.010(4)
N3 0.196(10) 0.203(10) 0.187(10) 0.005(8) -0.001(8) 0.026(8)
O1 0.034(3) 0.028(3) 0.045(3) -0.004(3) 0.004(2) 0.003(2)
O2 0.029(3) 0.025(3) 0.037(3) 0.008(2) -0.001(2) -0.001(2)
O3 0.032(3) 0.020(3) 0.026(3) -0.001(2) 0.003(2) -0.002(2)
O4 0.034(3) 0.028(3) 0.043(3) 0.003(3) -0.005(2) -0.002(2)
O5 0.116(7) 0.085(8) 0.138(9) 0.000(6) 0.030(6) 0.000(6)
O6 0.083(5) 0.070(5) 0.088(5) -0.012(4) 0.022(4) -0.014(4)
O7 0.111(6) 0.109(6) 0.113(6) -0.012(5) -0.012(5) -0.001(5)
O8 0.048(3) 0.030(3) 0.037(3) -0.013(3) 0.000(3) -0.002(3)
O9 0.068(4) 0.045(4) 0.038(3) -0.003(3) -0.004(3) 0.000(3)
O10 0.032(3) 0.042(4) 0.043(3) 0.010(3) -0.006(2) -0.002(3)
O11 0.056(4) 0.092(5) 0.086(5) 0.037(4) -0.010(3) -0.004(4)
O12 0.058(4) 0.089(5) 0.080(5) 0.029(4) -0.001(4) 0.004(4)
O13 0.030(3) 0.040(4) 0.043(3) 0.008(3) 0.004(2) -0.004(3)
O14 0.112(6) 0.112(9) 0.125(8) 0.014(7) 0.004(6) 0.009(6)
O15 0.085(5) 0.088(5) 0.055(4) 0.014(4) 0.015(4) 0.028(4)
O16 0.096(5) 0.088(5) 0.063(5) 0.009(4) -0.022(4) -0.040(4)
O17 0.023(2) 0.012(3) 0.028(3) -0.006(2) -0.002(2) 0.001(2)
Zn1 0.0322(6) 0.0263(6) 0.0339(6) -0.0026(4) -0.0007(4) -0.0004(4)
Zn2 0.0318(6) 0.0268(6) 0.0335(6) -0.0016(4) -0.0010(4) -0.0004(4)
Zn3 0.0326(6) 0.0259(6) 0.0346(6) -0.0046(4) -0.0018(4) 0.0003(4)
Zn4 0.0315(6) 0.0437(7) 0.0347(6) 0.0050(5) -0.0011(4) -0.0004(5)

_geom_special_details            
; 
 All esds (except the esd in the dihedral angle between two l.s. planes) 
 are estimated using the full covariance matrix.  The cell esds are taken 
 into account individually in the estimation of esds in distances, angles 
 and torsion angles; correlations between esds in cell parameters are only 
 used when they are defined by crystal symmetry.  An approximate (isotropic) 
 treatment of cell esds is used for estimating esds involving l.s. planes. 
;

loop_
_geom_bond_atom_site_label_1
_geom_bond_atom_site_label_2
_geom_bond_distance
_geom_bond_site_symmetry_2
_geom_bond_publ_flag
C1 O2 1.225(11) . ?
C1 O1 1.344(11) . ?
C1 C2 1.442(13) . ?
C2 C7 1.379(15) . ?
C2 C3 1.430(13) . ?
C3 C4 1.408(13) . ?
C3 H3 0.9400 . ?
C4 C5 1.361(14) . ?
C4 C8 1.515(13) . ?
C5 C6 1.367(14) . ?
C5 H5 0.9400 . ?
C6 C7 1.406(14) . ?
C6 N1 1.412(15) . ?
C7 H7 0.9400 . ?
C8 O3 1.246(11) . ?
C8 O4 1.305(11) . ?
C9 O5 1.318(17) . ?
C9 N1 1.357(17) . ?
C9 C10 1.437(17) . ?
C10 C11 1.3900 . ?
C10 C15 1.3900 . ?
C11 C12 1.3900 . ?
C11 H11 0.9400 . ?
C12 C13 1.3900 . ?
C12 H12 0.9400 . ?
C13 C16 1.3827 . ?
C13 C14 1.3900 . ?
C14 C15 1.3900 . ?
C14 H14 0.9400 . ?
C15 H15 0.9400 . ?
C16 O6 1.095(12) . ?
C16 O7 1.395(15) . ?
C17 O8 1.232(12) . ?
C17 O9 1.242(13) . ?
C17 C18 1.561(16) . ?
C18 C22 1.367(18) . ?
C18 C19 1.377(18) . ?
C19 C22 1.427(18) 3_566 ?
C19 C2