####################################################################### 
# 
# This file contains crystal structure data downloaded from the 
# Cambridge Structural Database (CSD) hosted by the Cambridge 
# Crystallographic Data Centre (CCDC).
# 
# Full information about CCDC data access policies and citation 
# guidelines are available at http://www.ccdc.cam.ac.uk/access/V1 
# 
# Audit and citation data items may have been added by the CCDC. 
# Please retain this information to preserve the provenance of 
# this file and to allow appropriate attribution of the data. 
# 
#######################################################################

data_IIc
_audit_block_doi                 10.5517/cc133cdz
_database_code_depnum_ccdc_archive 'CCDC 1016130'
loop_
_citation_id
_citation_doi
_citation_year
1 10.1021/ic502643m 2015
_audit_update_record             
;
2014-07-25 deposited with the CCDC.	2024-07-12 downloaded from the CCDC.
;

_audit_creation_method           SHELXL-97
_chemical_name_systematic        
; 
 ? 
;
_chemical_name_common            ?
_chemical_melting_point          ?
_chemical_formula_moiety         ?
_chemical_formula_sum            'C40 H27 N3 O17 Zn4'
_chemical_formula_weight         1083.13

loop_
_atom_type_symbol
_atom_type_description
_atom_type_scat_dispersion_real
_atom_type_scat_dispersion_imag
_atom_type_scat_source
C C 0.0033 0.0016 'International Tables Vol C Tables 4.2.6.8 and 6.1.1.4'
H H 0.0000 0.0000 'International Tables Vol C Tables 4.2.6.8 and 6.1.1.4'
N N 0.0061 0.0033 'International Tables Vol C Tables 4.2.6.8 and 6.1.1.4'
O O 0.0106 0.0060 'International Tables Vol C Tables 4.2.6.8 and 6.1.1.4'
Zn Zn 0.2839 1.4301 'International Tables Vol C Tables 4.2.6.8 and 6.1.1.4'

_symmetry_cell_setting           ?
_symmetry_space_group_name_H-M   P21/c
_symmetry_space_group_name_Hall  -P2ybc

loop_
_symmetry_equiv_pos_as_xyz
'x, y, z'
'-x, y+1/2, -z+1/2'
'-x, -y, -z'
'x, -y-1/2, z-1/2'

_cell_length_a                   10.298(3)
_cell_length_b                   31.469(8)
_cell_length_c                   32.722(8)
_cell_angle_alpha                90.00
_cell_angle_beta                 106.720(8)
_cell_angle_gamma                90.00
_cell_volume                     10156(5)
_cell_formula_units_Z            4
_cell_measurement_temperature    291(2)
_cell_measurement_reflns_used    ?
_cell_measurement_theta_min      ?
_cell_measurement_theta_max      ?

_exptl_crystal_description       ?
_exptl_crystal_colour            ?
_exptl_crystal_size_max          0.28
_exptl_crystal_size_mid          0.09
_exptl_crystal_size_min          0.08
_exptl_crystal_density_meas      ?
_exptl_crystal_density_diffrn    0.708
_exptl_crystal_density_method    'not measured'
_exptl_crystal_F_000             2176
_exptl_absorpt_coefficient_mu    0.966
_exptl_absorpt_correction_type   ?
_exptl_absorpt_correction_T_min  0.7737
_exptl_absorpt_correction_T_max  0.9267
_exptl_absorpt_process_details   ?

_exptl_special_details           
; 
 ? 
;

_diffrn_ambient_temperature      291(2)
_diffrn_radiation_wavelength     0.71073
_diffrn_radiation_type           MoK\a
_diffrn_radiation_source         'fine-focus sealed tube'
_diffrn_radiation_monochromator  graphite
_diffrn_measurement_device_type  ?
_diffrn_measurement_method       ?
_diffrn_detector_area_resol_mean ?
_diffrn_standards_number         ?
_diffrn_standards_interval_count ?
_diffrn_standards_interval_time  ?
_diffrn_standards_decay_%        ?
_diffrn_reflns_number            53428
_diffrn_reflns_av_R_equivalents  0.0275
_diffrn_reflns_av_sigmaI/netI    0.0485
_diffrn_reflns_limit_h_min       -12
_diffrn_reflns_limit_h_max       12
_diffrn_reflns_limit_k_min       -38
_diffrn_reflns_limit_k_max       37
_diffrn_reflns_limit_l_min       -36
_diffrn_reflns_limit_l_max       40
_diffrn_reflns_theta_min         1.83
_diffrn_reflns_theta_max         26.00
_reflns_number_total             19405
_reflns_number_gt                12885
_reflns_threshold_expression     >2sigma(I)

_computing_data_collection       ?
_computing_cell_refinement       ?
_computing_data_reduction        ?
_computing_structure_solution    'SHELXS-97 (Sheldrick, 1990)'
_computing_structure_refinement  'SHELXL-97 (Sheldrick, 1997)'
_computing_molecular_graphics    ?
_computing_publication_material  ?

_refine_special_details          
; 
 Refinement of F^2^ against ALL reflections.  The weighted R-factor wR and 
 goodness of fit S are based on F^2^, conventional R-factors R are based 
 on F, with F set to zero for negative F^2^. The threshold expression of 
 F^2^ > 2sigma(F^2^) is used only for calculating R-factors(gt) etc. and is 
 not relevant to the choice of reflections for refinement.  R-factors based 
 on F^2^ are statistically about twice as large as those based on F, and R- 
 factors based on ALL data will be even larger. 
;

_refine_ls_structure_factor_coef Fsqd
_refine_ls_matrix_type           fullcycle
_refine_ls_weighting_scheme      calc
_refine_ls_weighting_details     
'calc w=1/[\s^2^(Fo^2^)+(0.0469P)^2^+0.0000P] where P=(Fo^2^+2Fc^2^)/3'
_atom_sites_solution_primary     direct
_atom_sites_solution_secondary   difmap
_atom_sites_solution_hydrogens   geom
_refine_ls_hydrogen_treatment    mixed
_refine_ls_extinction_method     none
_refine_ls_extinction_coef       ?
_refine_ls_number_reflns         19405
_refine_ls_number_parameters     579
_refine_ls_number_restraints     0
_refine_ls_R_factor_all          0.0549
_refine_ls_R_factor_gt           0.0367
_refine_ls_wR_factor_ref         0.0922
_refine_ls_wR_factor_gt          0.0875
_refine_ls_goodness_of_fit_ref   1.008
_refine_ls_restrained_S_all      1.008
_refine_ls_shift/su_max          0.000
_refine_ls_shift/su_mean         0.000

loop_
_atom_site_label
_atom_site_type_symbol
_atom_site_fract_x
_atom_site_fract_y
_atom_site_fract_z
_atom_site_U_iso_or_equiv
_atom_site_adp_type
_atom_site_occupancy
_atom_site_symmetry_multiplicity
_atom_site_calc_flag
_atom_site_refinement_flags
_atom_site_disorder_assembly
_atom_site_disorder_group
C1 C -0.0050(2) 0.10473(7) 0.21464(7) 0.0442(5) Uani 1 1 d . . .
C2 C 0.1263(2) 0.08141(7) 0.22276(7) 0.0446(5) Uani 1 1 d . . .
C3 C 0.2381(2) 0.10414(7) 0.22181(7) 0.0441(5) Uani 1 1 d . . .
H3 H 0.2333 0.1336 0.2190 0.053 Uiso 1 1 calc R . .
C4 C 0.3610(2) 0.08278(7) 0.22510(7) 0.0428(5) Uani 1 1 d . . .
C5 C 0.3719(2) 0.04005(7) 0.23331(7) 0.0477(6) Uani 1 1 d . . .
H5 H 0.4540 0.0262 0.2366 0.057 Uiso 1 1 calc R . .
C6 C 0.2580(2) 0.01735(7) 0.23676(7) 0.0461(5) Uani 1 1 d . . .
C7 C 0.1343(2) 0.03846(7) 0.23110(7) 0.0471(5) Uani 1 1 d . . .
H7 H 0.0582 0.0236 0.2330 0.057 Uiso 1 1 calc R . .
C8 C 0.4708(2) 0.10624(7) 0.21741(7) 0.0470(5) Uani 1 1 d . . .
C9 C 0.6331(2) 0.44967(7) 0.24674(7) 0.0500(6) Uani 1 1 d . . .
C10 C 0.6576(2) 0.40425(7) 0.23574(7) 0.0458(5) Uani 1 1 d . . .
C11 C 0.5476(2) 0.37732(7) 0.23680(7) 0.0460(5) Uani 1 1 d . . .
H11 H 0.4730 0.3878 0.2442 0.055 Uiso 1 1 calc R . .
C12 C 0.5556(2) 0.33481(7) 0.22646(7) 0.0499(6) Uani 1 1 d . . .
H12 H 0.4851 0.3164 0.2264 0.060 Uiso 1 1 calc R . .
C13 C 0.6703(2) 0.31976(7) 0.21609(7) 0.0478(5) Uani 1 1 d . . .
C14 C 0.7758(2) 0.34457(7) 0.21409(7) 0.0473(5) Uani 1 1 d . . .
H14 H 0.8505 0.3341 0.2067 0.057 Uiso 1 1 calc R . .
C15 C 0.7629(3) 0.38633(8) 0.22397(8) 0.0545(6) Uani 1 1 d . . .
H15 H 0.8329 0.4044 0.2226 0.065 Uiso 1 1 calc R . .
C16 C 0.6789(2) 0.27574(7) 0.20565(6) 0.0478(5) Uani 1 1 d . . .
C17 C 0.9023(2) 0.21085(7) 0.11297(7) 0.0460(5) Uani 1 1 d . . .
C18 C 1.0042(2) 0.21855(7) 0.08888(7) 0.0439(5) Uani 1 1 d . . .
C19 C 0.9630(2) 0.22696(7) 0.04503(7) 0.0440(5) Uani 1 1 d . . .
H19 H 0.8712 0.2291 0.0305 0.053 Uiso 1 1 calc R . .
C20 C 1.0594(2) 0.23205(7) 0.02333(7) 0.0458(5) Uani 1 1 d . . .
C21 C 1.1966(2) 0.22782(7) 0.04471(7) 0.0446(5) Uani 1 1 d . . .
H21 H 1.2610 0.2308 0.0300 0.054 Uiso 1 1 calc R . .
C22 C 1.2368(2) 0.21923(7) 0.08801(7) 0.0453(5) Uani 1 1 d . . .
C23 C 1.1414(2) 0.21444(7) 0.11000(7) 0.0436(5) Uani 1 1 d . . .
H23 H 1.1692 0.2084 0.1391 0.052 Uiso 1 1 calc R . .
C24 C 1.3804(2) 0.20713(7) 0.11115(7) 0.0473(5) Uani 1 1 d . . .
C25 C 0.9170(2) 0.26868(7) -0.04435(7) 0.0442(5) Uani 1 1 d . . .
C26 C 0.9030(2) 0.27724(7) -0.09058(7) 0.0466(5) Uani 1 1 d . . .
C27 C 0.7791(2) 0.29192(7) -0.11628(7) 0.0475(5) Uani 1 1 d . . .
H27 H 0.7092 0.2976 -0.1043 0.057 Uiso 1 1 calc R . .
C28 C 0.7589(2) 0.29823(8) -0.15965(7) 0.0483(6) Uani 1 1 d . . .
H28 H 0.6762 0.3086 -0.1765 0.058 Uiso 1 1 calc R . .
C29 C 0.8621(2) 0.28911(7) -0.17800(7) 0.0423(5) Uani 1 1 d . . .
C30 C 0.9866(2) 0.27402(7) -0.15287(7) 0.0435(5) Uani 1 1 d . . .
H30 H 1.0557 0.2680 -0.1651 0.052 Uiso 1 1 calc R . .
C31 C 1.0068(2) 0.26804(7) -0.10914(7) 0.0461(5) Uani 1 1 d . . .
H31 H 1.0897 0.2579 -0.0922 0.055 Uiso 1 1 calc R . .
C32 C 0.8302(2) 0.29910(7) -0.21802(7) 0.0475(5) Uani 1 1 d . . .
C33 C 0.6148(2) 0.08730(7) 0.09113(7) 0.0490(5) Uani 1 1 d . . .
C34 C 0.5715(2) 0.05474(7) 0.05594(8) 0.0525(6) Uani 1 1 d . . .
C35 C 0.4970(2) 0.07648(7) 0.01910(7) 0.0459(5) Uani 1 1 d . . .
H35 H 0.4864 0.1058 0.0195 0.055 Uiso 1 1 calc R . .
C36 C 0.4389(2) 0.05318(7) -0.01820(7) 0.0423(5) Uani 1 1 d . . .
H36 H 0.3882 0.0671 -0.0427 0.051 Uiso 1 1 calc R . .
C37 C 0.4566(2) 0.00975(7) -0.01879(7) 0.0472(5) Uani 1 1 d . . .
C38 C 0.5898(2) 0.01124(7) 0.05499(7) 0.0471(5) Uani 1 1 d . . .
H38 H 0.6347 -0.0032 0.0798 0.056 Uiso 1 1 calc R . .
C40 C -0.0192(2) 0.09965(8) 0.09108(7) 0.0501(6) Uani 1 1 d . . .
H40A H -0.0586 0.0718 0.0869 0.075 Uiso 1 1 calc R . .
H40B H -0.0756 0.1190 0.0709 0.075 Uiso 1 1 calc R . .
H40C H -0.0119 0.1091 0.1195 0.075 Uiso 1 1 calc R . .
C41 C 0.2330(2) 0.09653(7) 0.12325(7) 0.0439(5) Uani 1 1 d . . .
H41A H 0.2029 0.1043 0.1474 0.066 Uiso 1 1 calc R . .
H41B H 0.3021 0.1159 0.1207 0.066 Uiso 1 1 calc R . .
H41C H 0.2691 0.0682 0.1271 0.066 Uiso 1 1 calc R . .
N1 N 0.72850(19) 0.47525(6) 0.25290(6) 0.0460(4) Uani 1 1 d . . .
H1 H 0.8016 0.4641 0.2500 0.055 Uiso 1 1 calc R . .
H2 H 1.0702 0.2328 -0.0333 0.055 Uiso 1 1 d R . .
N2 N 1.01959(18) 0.24366(6) -0.01914(6) 0.0460(4) Uani 1 1 d . . .
N3A N 0.1189(2) 0.09827(6) 0.08466(6) 0.0522(5) Uani 1 1 d . . .
H3A1 H 0.1231 0.0754 0.0686 0.063 Uiso 1 1 calc R . .
H3A2 H 0.1287 0.1214 0.0697 0.063 Uiso 1 1 calc R . .
O1 O 0.69548(16) 0.16684(5) 0.17038(5) 0.0471(4) Uani 1 1 d . . .
O2 O -0.00598(15) 0.14285(5) 0.20845(5) 0.0463(4) Uani 1 1 d . . .
O3 O -0.11115(15) 0.08202(5) 0.20904(5) 0.0443(3) Uani 1 1 d . . .
O4 O 0.46829(15) 0.14519(5) 0.21933(5) 0.0481(4) Uani 1 1 d . . .
O5 O 0.56632(15) 0.08563(5) 0.21108(5) 0.0474(4) Uani 1 1 d . . .
O6 O 0.58854(16) 0.25415(5) 0.21596(5) 0.0512(4) Uani 1 1 d . . .
O7 O 0.76694(15) 0.26577(5) 0.18860(5) 0.0497(4) Uani 1 1 d . . .
O8 O 0.51739(14) 0.45653(5) 0.24872(5) 0.0462(4) Uani 1 1 d . . .
O9 O 0.94519(16) 0.21172(5) 0.15174(5) 0.0472(4) Uani 1 1 d . . .
O10 O 0.78376(16) 0.20549(5) 0.09122(5) 0.0468(4) Uani 1 1 d . . .
O11 O 1.41126(16) 0.20009(5) 0.14881(5) 0.0464(4) Uani 1 1 d . . .
O12 O 1.46459(16) 0.20659(5) 0.08951(5) 0.0469(4) Uani 1 1 d . . .
O13 O 0.92371(15) 0.28845(5) -0.24336(5) 0.0460(4) Uani 1 1 d . . .
O14 O 0.72238(16) 0.31568(5) -0.23413(5) 0.0446(3) Uani 1 1 d . . .
O15 O 0.83675(16) 0.28503(5) -0.03126(5) 0.0454(3) Uani 1 1 d . . .
O16 O 0.64804(16) 0.07559(5) 0.12889(5) 0.0473(4) Uani 1 1 d . . .
O17 O 0.60426(15) 0.12673(5) 0.07873(5) 0.0450(3) Uani 1 1 d . . .
Zn1 Zn 0.86763(3) 0.194270(8) 0.198432(8) 0.04643(7) Uani 1 1 d . . .
Zn2 Zn 0.70849(3) 0.106261(8) 0.182841(8) 0.04706(7) Uani 1 1 d . . .
Zn3 Zn 0.57754(3) 0.190964(8) 0.201298(8) 0.04642(7) Uani 1 1 d . . .
Zn4 Zn 0.64179(3) 0.178848(9) 0.111568(8) 0.04672(7) Uani 1 1 d . . .

loop_
_atom_site_aniso_label
_atom_site_aniso_U_11
_atom_site_aniso_U_22
_atom_site_aniso_U_33
_atom_site_aniso_U_23
_atom_site_aniso_U_13
_atom_site_aniso_U_12
C1 0.0427(12) 0.0417(12) 0.0421(12) -0.0017(9) 0.0025(9) -0.0026(9)
C2 0.0386(12) 0.0412(12) 0.0451(12) -0.0047(9) -0.0021(9) -0.0048(9)
C3 0.0420(12) 0.0376(11) 0.0427(12) -0.0095(9) -0.0039(9) -0.0014(9)
C4 0.0470(12) 0.0354(11) 0.0443(12) 0.0000(9) 0.0104(10) 0.0065(9)
C5 0.0400(12) 0.0339(11) 0.0540(13) -0.0161(9) -0.0106(10) -0.0035(9)
C6 0.0461(13) 0.0430(12) 0.0391(11) -0.0026(9) -0.0039(10) -0.0035(10)
C7 0.0494(13) 0.0370(11) 0.0476(12) -0.0073(9) 0.0021(10) 0.0012(10)
C8 0.0346(11) 0.0435(12) 0.0492(13) -0.0006(9) -0.0094(9) -0.0024(9)
C9 0.0328(11) 0.0461(12) 0.0530(13) -0.0131(10) -0.0164(10) -0.0018(9)
C10 0.0430(12) 0.0390(11) 0.0459(12) 0.0147(9) -0.0024(10) 0.0068(9)
C11 0.0322(10) 0.0480(12) 0.0418(12) -0.0025(9) -0.0150(9) 0.0025(9)
C12 0.0502(14) 0.0433(13) 0.0490(13) 0.0004(9) 0.0028(10) -0.0020(10)
C13 0.0440(12) 0.0412(12) 0.0442(12) 0.0059(9) -0.0098(10) 0.0068(10)
C14 0.0444(12) 0.0491(13) 0.0397(12) 0.0095(9) -0.0019(10) 0.0033(10)
C15 0.0525(14) 0.0516(14) 0.0530(14) -0.0019(11) 0.0049(11) 0.0062(11)
C16 0.0536(13) 0.0444(12) 0.0317(11) 0.0077(9) -0.0096(9) 0.0085(10)
C17 0.0399(12) 0.0477(13) 0.0458(12) -0.0108(10) 0.0047(10) -0.0070(9)
C18 0.0437(12) 0.0406(12) 0.0464(12) 0.0023(9) 0.0116(10) 0.0109(9)
C19 0.0419(12) 0.0422(12) 0.0448(12) -0.0017(9) 0.0076(10) 0.0072(9)
C20 0.0439(12) 0.0434(12) 0.0482(13) 0.0153(9) 0.0102(10) 0.0115(10)
C21 0.0435(12) 0.0450(13) 0.0452(12) 0.0137(9) 0.0123(10) 0.0041(10)
C22 0.0376(11) 0.0466(12) 0.0504(13) 0.0200(10) 0.0105(10) -0.0063(9)
C23 0.0465(12) 0.0466(12) 0.0358(11) -0.0089(9) 0.0086(9) -0.0046(10)
C24 0.0467(13) 0.0508(13) 0.0446(12) 0.0076(10) 0.0134(10) 0.0154(10)
C25 0.0406(12) 0.0444(12) 0.0452(12) 0.0017(9) 0.0085(10) 0.0066(9)
C26 0.0460(12) 0.0413(12) 0.0479(12) -0.0018(9) 0.0059(10) 0.0134(10)
C27 0.0479(13) 0.0461(13) 0.0449(12) 0.0067(9) 0.0077(10) 0.0175(10)
C28 0.0380(12) 0.0566(14) 0.0422(12) -0.0080(10) -0.0015(9) 0.0200(10)
C29 0.0369(11) 0.0420(12) 0.0438(12) -0.0012(9) 0.0046(9) 0.0151(9)
C30 0.0365(11) 0.0400(12) 0.0550(13) 0.0184(9) 0.0147(10) 0.0087(9)
C31 0.0429(12) 0.0469(13) 0.0445(12) 0.0024(9) 0.0062(10) 0.0068(10)
C32 0.0471(13) 0.0425(12) 0.0478(13) -0.0006(9) 0.0057(11) 0.0072(10)
C33 0.0464(13) 0.0454(13) 0.0479(13) 0.0007(10) 0.0021(11) -0.0119(10)
C34 0.0433(13) 0.0436(13) 0.0532(14) 0.0001(10) -0.0137(10) 0.0031(10)
C35 0.0418(12) 0.0523(13) 0.0409(12) 0.0021(9) 0.0074(10) 0.0222(10)
C36 0.0473(12) 0.0380(11) 0.0354(11) 0.0132(8) 0.0018(9) -0.0089(9)
C37 0.0399(12) 0.0479(13) 0.0454(13) 0.0089(10) -0.0010(10) 0.0168(10)
C38 0.0390(12) 0.0476(13) 0.0478(13) 0.0070(10) 0.0017(10) 0.0027(10)
C40 0.0474(13) 0.0517(14) 0.0426(12) 0.0084(10) -0.0005(10) 0.0075(11)
C41 0.0445(12) 0.0469(13) 0.0428(12) -0.0009(9) 0.0164(10) -0.0206(10)
N1 0.0452(10) 0.0400(10) 0.0435(10) -0.0012(8) -0.0022(8) -0.0037(8)
N2 0.0407(10) 0.0495(11) 0.0458(10) 0.0029(8) 0.0094(8) 0.0121(8)
N3A 0.0546(12) 0.0484(11) 0.0468(11) 0.0026(8) 0.0040(9) -0.0182(9)
O1 0.0443(9) 0.0410(8) 0.0470(9) -0.0030(6) -0.0011(7) 0.0006(7)
O2 0.0435(8) 0.0468(9) 0.0418(8) -0.0025(6) 0.0016(7) -0.0013(7)
O3 0.0399(8) 0.0509(9) 0.0402(8) -0.0105(6) 0.0087(7) 0.0004(7)
O4 0.0429(9) 0.0490(9) 0.0462(9) -0.0032(7) 0.0029(7) -0.0028(7)
O5 0.0454(9) 0.0429(9) 0.0456(9) -0.0035(6) -0.0001(7) 0.0019(7)
O6 0.0444(9) 0.0492(9) 0.0444(8) -0.0117(7) -0.0122(7) -0.0094(7)
O7 0.0435(9) 0.0456(9) 0.0438(8) -0.0002(7) -0.0133(7) 0.0005(7)
O8 0.0346(8) 0.0463(9) 0.0444(8) -0.0057(6) -0.0099(6) 0.0034(6)
O9 0.0432(8) 0.0493(9) 0.0421(8) -0.0023(6) 0.0010(7) -0.0051(7)
O10 0.0427(9) 0.0466(9) 0.0459(8) -0.0015(7) 0.0045(7) -0.0022(7)
O11 0.0430(9) 0.0468(9) 0.0432(8) -0.0024(6) 0.0022(7) -0.0035(7)
O12 0.0460(9) 0.0420(8) 0.0513(9) 0.0088(7) 0.0116(7) -0.0009(7)
O13 0.0425(9) 0.0476(9) 0.0412(8) -0.0030(6) 0.0017(7) -0.0028(7)
O14 0.0443(9) 0.0390(8) 0.0453(8) 0.0071(6) 0.0047(7) 0.0038(7)
O15 0.0460(9) 0.0435(8) 0.0438(8) 0.0019(6) 0.0081(7) 0.0132(7)
O16 0.0446(9) 0.0412(8) 0.0480(9) -0.0031(7) 0.0004(7) -0.0010(7)
O17 0.0401(8) 0.0475(9) 0.0425(8) -0.0015(6) 0.0039(7) -0.0023(7)
Zn1 0.04330(15) 0.04572(15) 0.04324(14) -0.00270(11) 0.00124(11) -0.00347(11)
Zn2 0.04427(14) 0.04104(14) 0.04696(15) -0.00299(11) -0.00106(11) 0.00063(11)
Zn3 0.04296(15) 0.04677(15) 0.04315(14) -0.00237(11) 0.00224(11) -0.00354(11)
Zn4 0.04361(15) 0.04651(15) 0.04342(14) -0.00197(11) 0.00199(11) -0.00299(11)

_geom_special_details            
; 
 All esds (except the esd in the dihedral angle between two l.s. planes) 
 are estimated using the full covariance matrix.  The cell esds are taken 
 into account individually in the estimation of esds in distances, angles 
 and torsion angles; correlations between esds in cell parameters are only 
 used when they are defined by crystal symmetry.  An approximate (isotropic) 
 treatment of cell esds is used for estimating esds involving l.s. planes. 
;

loop_
_geom_bond_atom_site_label_1
_geom_bond_atom_site_label_2
_geom_bond_distance
_geom_bond_site_symmetry_2
_geom_bond_publ_flag
C1 O2 1.216(2) . ?
C1 O3 1.275(2) . ?
C1 C2 1.493(3) . ?
C2 C3 1.363(3) . ?
C2 C7 1.377(3) . ?
C3 C4 1.410(3) . ?
C3 H3 0.9300 . ?
C4 C5 1.369(3) . ?
C4 C8 1.433(3) . ?
C5 C6 1.406(3) . ?
C5 H5 0.9300 . ?
C6 N1 1.365(2) 2_645 ?
C6 C7 1.400(3) . ?
C7 H7 0.9300 . ?
C8 O4 1.228(2) . ?
C8 O5 1.244(2) . ?
C9 O8 1.231(2) . ?
C9 N1 1.241(2) . ?
C9 C10 1.513(3) . ?
C10 C15 1.372(3) . ?
C10 C11 1.423(3) . ?
C11 C12 1.388(3) . ?
C11 H11 0.9300 . ?
C12 C13 1.402(3) . ?
C12 H12 0.9300 . ?
C13 C14 1.354(3) . ?
C13 C16 1.436(3) . ?
C14 C15 1.369(3) . ?
C14 H14 0.9300 . ?
C15 H15 0.9300 . ?
C16 O7 1.234(3) . ?
C16 O6 1.274(3) . ?
C17 O9 1.