####################################################################### 
# 
# This file contains crystal structure data downloaded from the 
# Cambridge Structural Database (CSD) hosted by the Cambridge 
# Crystallographic Data Centre (CCDC).
# 
# Full information about CCDC data access policies and citation 
# guidelines are available at http://www.ccdc.cam.ac.uk/access/V1 
# 
# Audit and citation data items may have been added by the CCDC. 
# Please retain this information to preserve the provenance of 
# this file and to allow appropriate attribution of the data. 
# 
#######################################################################

data_compound_15
_audit_block_doi                 10.5517/cc133wz2
_database_code_depnum_ccdc_archive 'CCDC 1016644'
loop_
_citation_id
_citation_doi
_citation_year
1 10.1002/chem.201405395 2015
_audit_update_record             
;
2014-07-28 deposited with the CCDC.	2024-07-12 downloaded from the CCDC.
;

_audit_creation_method           SHELXL-97
_chemical_name_systematic        
;
 ?
;
_chemical_name_common            ?
_chemical_melting_point          ?
_chemical_formula_moiety         'C25 H17 Cd N7 O4'
_chemical_formula_sum            'C25 H17 Cd N7 O4'
_chemical_formula_weight         591.86

loop_
_atom_type_symbol
_atom_type_description
_atom_type_scat_dispersion_real
_atom_type_scat_dispersion_imag
_atom_type_scat_source
C C 0.0033 0.0016 'International Tables Vol C Tables 4.2.6.8 and 6.1.1.4'
H H 0.0000 0.0000 'International Tables Vol C Tables 4.2.6.8 and 6.1.1.4'
Cd Cd -0.8075 1.2024 'International Tables Vol C Tables 4.2.6.8 and 6.1.1.4'
N N 0.0061 0.0033 'International Tables Vol C Tables 4.2.6.8 and 6.1.1.4'
O O 0.0106 0.0060 'International Tables Vol C Tables 4.2.6.8 and 6.1.1.4'

_symmetry_cell_setting           monoclinic
_symmetry_space_group_name_H-M   ' C 1 2/c 1'
_symmetry_Int_Tables_number      15
_symmetry_space_group_name_Hall  '-C 2yc'

loop_
_symmetry_equiv_pos_as_xyz
'x, y, z'
'-x, y, -z+1/2'
'x+1/2, y+1/2, z'
'-x+1/2, y+1/2, -z+1/2'
'-x, -y, -z'
'x, -y, z-1/2'
'-x+1/2, -y+1/2, -z'
'x+1/2, -y+1/2, z-1/2'

_cell_length_a                   30.3606(17)
_cell_length_b                   27.1114(10)
_cell_length_c                   21.0571(10)
_cell_angle_alpha                90.00
_cell_angle_beta                 106.486(4)
_cell_angle_gamma                90.00
_cell_volume                     16619.9(14)
_cell_formula_units_Z            12
_cell_measurement_temperature    298(2)
_cell_measurement_reflns_used    31844
_cell_measurement_theta_min      0.96
_cell_measurement_theta_max      25.00

_exptl_crystal_description       prism
_exptl_crystal_colour            red
_exptl_crystal_size_max          0.42
_exptl_crystal_size_mid          0.19
_exptl_crystal_size_min          0.12
_exptl_crystal_density_meas      ?
_exptl_crystal_density_diffrn    0.710
_exptl_crystal_density_method    'not measured'
_exptl_crystal_F_000             3552
_exptl_absorpt_coefficient_mu    0.415
_exptl_absorpt_correction_type   numerical
_exptl_absorpt_correction_T_min  0.7863
_exptl_absorpt_correction_T_max  0.8642
_exptl_absorpt_process_details   'STOE X-RED'

_exptl_special_details           
;
 ?
;

_diffrn_ambient_temperature      298(2)
_diffrn_radiation_wavelength     0.71073
_diffrn_radiation_type           MoK\a
_diffrn_radiation_source         'fine-focus sealed tube'
_diffrn_radiation_monochromator  graphite
_diffrn_measurement_device_type  'STOE IPDS-2T'
_diffrn_measurement_method       '\w scans'
_diffrn_detector_area_resol_mean 6.67
_diffrn_standards_number         none
_diffrn_standards_interval_count ?
_diffrn_standards_interval_time  ?
_diffrn_standards_decay_%        ?
_diffrn_reflns_number            35103
_diffrn_reflns_av_R_equivalents  0.0400
_diffrn_reflns_av_sigmaI/netI    0.0381
_diffrn_reflns_limit_h_min       -33
_diffrn_reflns_limit_h_max       36
_diffrn_reflns_limit_k_min       -31
_diffrn_reflns_limit_k_max       32
_diffrn_reflns_limit_l_min       -25
_diffrn_reflns_limit_l_max       24
_diffrn_reflns_theta_min         0.96
_diffrn_reflns_theta_max         25.00
_reflns_number_total             14539
_reflns_number_gt                10048
_reflns_threshold_expression     >2sigma(I)

_computing_data_collection       'STOE X-AREA'
_computing_cell_refinement       'STOE X-AREA'
_computing_data_reduction        'STOE X-AREA, STOE X-RED'
_computing_structure_solution    'SHELXS-97 Sheldrick, G. M. (2008) Acta Cryst.'
_computing_structure_refinement  'SHELXL-97 Sheldrick, G. M. (2008) Acta Cryst.'
_computing_molecular_graphics    'DIAMOND 3.2'
_computing_publication_material  'WinGX publication routines (Farrugia, 1999)'

_refine_special_details          
;
 Refinement of F^2^ against ALL reflections.  The weighted R-factor wR and
 goodness of fit S are based on F^2^, conventional R-factors R are based
 on F, with F set to zero for negative F^2^. The threshold expression of
 F^2^ > 2sigma(F^2^) is used only for calculating R-factors(gt) etc. and is
 not relevant to the choice of reflections for refinement.  R-factors based
 on F^2^ are statistically about twice as large as those based on F, and R-
 factors based on ALL data will be even larger.
;

_refine_ls_structure_factor_coef Fsqd
_refine_ls_matrix_type           full
_refine_ls_weighting_scheme      calc
_refine_ls_weighting_details     
'calc w=1/[\s^2^(Fo^2^)+(0.0866P)^2^+0.0000P] where P=(Fo^2^+2Fc^2^)/3'
_atom_sites_solution_primary     direct
_atom_sites_solution_secondary   difmap
_atom_sites_solution_hydrogens   geom
_refine_ls_hydrogen_treatment    constr
_refine_ls_extinction_method     SHELXL
_refine_ls_extinction_coef       0.00052(6)
_refine_ls_extinction_expression Fc^*^=kFc[1+0.001xFc^2^\l^3^/sin(2\q)]^-1/4^
_refine_ls_number_reflns         14539
_refine_ls_number_parameters     506
_refine_ls_number_restraints     0
_refine_ls_R_factor_all          0.0498
_refine_ls_R_factor_gt           0.0397
_refine_ls_wR_factor_ref         0.1188
_refine_ls_wR_factor_gt          0.1145
_refine_ls_goodness_of_fit_ref   0.869
_refine_ls_restrained_S_all      0.869
_refine_ls_shift/su_max          0.003
_refine_ls_shift/su_mean         0.000

loop_
_atom_site_label
_atom_site_type_symbol
_atom_site_fract_x
_atom_site_fract_y
_atom_site_fract_z
_atom_site_U_iso_or_equiv
_atom_site_adp_type
_atom_site_occupancy
_atom_site_symmetry_multiplicity
_atom_site_calc_flag
_atom_site_refinement_flags
_atom_site_disorder_assembly
_atom_site_disorder_group
C1 C 0.42024(10) 0.56701(14) 0.16257(15) 0.0955(8) Uani 1 1 d . . .
C2 C 0.43087(9) 0.53876(12) 0.22793(13) 0.0889(7) Uani 1 1 d . . .
C3 C 0.44691(13) 0.56261(13) 0.28730(15) 0.1091(10) Uani 1 1 d . . .
H3 H 0.4525 0.5964 0.2883 0.131 Uiso 1 1 calc R . .
C4 C 0.45487(13) 0.53635(13) 0.34606(16) 0.1133(10) Uani 1 1 d . . .
H4 H 0.4656 0.5527 0.3864 0.136 Uiso 1 1 calc R . .
C5 C 0.44708(10) 0.48692(12) 0.34506(13) 0.0911(8) Uani 1 1 d . . .
C6 C 0.43233(13) 0.46155(13) 0.28589(15) 0.1109(10) Uani 1 1 d . . .
H6 H 0.4280 0.4276 0.2852 0.133 Uiso 1 1 calc R . .
C7 C 0.42417(14) 0.48842(13) 0.22741(15) 0.1122(10) Uani 1 1 d . . .
H7 H 0.4140 0.4721 0.1871 0.135 Uiso 1 1 calc R . .
C8 C 0.54124(12) 0.44982(17) 0.4310(2) 0.1344(13) Uani 1 1 d . . .
H8A H 0.5658 0.4433 0.4703 0.202 Uiso 1 1 calc R . .
H8B H 0.5432 0.4833 0.4173 0.202 Uiso 1 1 calc R . .
H8C H 0.5437 0.4279 0.3963 0.202 Uiso 1 1 calc R . .
C9 C 0.49588(10) 0.44182(12) 0.44511(15) 0.0956(8) Uani 1 1 d . . .
C10 C 0.42248(10) 0.44314(11) 0.43636(13) 0.0885(7) Uani 1 1 d . . .
C11 C 0.08213(12) 0.48154(16) 0.3394(2) 0.1154(11) Uani 1 1 d . . .
C12 C 0.12416(11) 0.45889(13) 0.38404(19) 0.1057(9) Uani 1 1 d . . .
C13 C 0.13324(14) 0.40991(17) 0.3783(3) 0.1598(19) Uani 1 1 d . . .
H13 H 0.1120 0.3903 0.3484 0.192 Uiso 1 1 calc R . .
C14 C 0.17481(16) 0.38883(17) 0.4174(3) 0.166(2) Uani 1 1 d . . .
H14 H 0.1817 0.3559 0.4124 0.199 Uiso 1 1 calc R . .
C15 C 0.20451(11) 0.41800(14) 0.46263(19) 0.1091(10) Uani 1 1 d . . .
C16 C 0.19496(13) 0.46605(14) 0.4708(2) 0.1204(11) Uani 1 1 d . . .
H16 H 0.2152 0.4852 0.5028 0.145 Uiso 1 1 calc R . .
C17 C 0.15410(13) 0.48646(14) 0.4304(2) 0.1203(11) Uani 1 1 d . . .
H17 H 0.1475 0.5195 0.4355 0.144 Uiso 1 1 calc R . .
C18 C 0.21222(15) 0.3516(2) 0.5839(3) 0.184(2) Uani 1 1 d . . .
H18A H 0.1979 0.3800 0.5965 0.276 Uiso 1 1 calc R . .
H18B H 0.2235 0.3305 0.6216 0.276 Uiso 1 1 calc R . .
H18C H 0.1902 0.3340 0.5497 0.276 Uiso 1 1 calc R . .
C19 C 0.25188(13) 0.36783(15) 0.5584(2) 0.1233(12) Uani 1 1 d . . .
C20 C 0.29064(10) 0.40085(12) 0.49591(16) 0.0980(8) Uani 1 1 d . . .
C21 C 0.37176(10) 0.45055(13) 0.41674(14) 0.1003(9) Uani 1 1 d . . .
C22 C 0.34684(15) 0.4776(2) 0.3635(2) 0.168(2) Uani 1 1 d . . .
H22 H 0.3613 0.4952 0.3372 0.201 Uiso 1 1 calc R . .
C23 C 0.29928(17) 0.4777(3) 0.3503(3) 0.218(4) Uani 1 1 d . . .
H23 H 0.2814 0.4950 0.3140 0.262 Uiso 1 1 calc R . .
C24 C 0.27827(15) 0.4519(2) 0.3915(2) 0.179(2) Uani 1 1 d . . .
H24 H 0.2465 0.4512 0.3826 0.215 Uiso 1 1 calc R . .
C25 C 0.30582(11) 0.42760(14) 0.44524(15) 0.1045(9) Uani 1 1 d . . .
C26 C 0.40728(15) 0.28862(14) 0.4903(2) 0.1116(10) Uani 1 1 d . . .
C27 C 0.41963(13) 0.24003(12) 0.46499(19) 0.1081(9) Uani 1 1 d . . .
C28 C 0.45927(18) 0.21452(16) 0.4959(2) 0.1494(16) Uani 1 1 d . . .
H28 H 0.4793 0.2271 0.5344 0.179 Uiso 1 1 calc R . .
C29 C 0.46961(18) 0.17034(16) 0.4702(3) 0.1539(17) Uani 1 1 d . . .
H29 H 0.4966 0.1537 0.4909 0.185 Uiso 1 1 calc R . .
C30 C 0.43943(14) 0.15140(12) 0.4138(2) 0.1115(10) Uani 1 1 d . . .
C31 C 0.40026(14) 0.17599(14) 0.3822(2) 0.1221(11) Uani 1 1 d . . .
H31 H 0.3804 0.1628 0.3439 0.147 Uiso 1 1 calc R . .
C32 C 0.38995(13) 0.22048(13) 0.4068(2) 0.1181(11) Uani 1 1 d . . .
H32 H 0.3634 0.2374 0.3848 0.142 Uiso 1 1 calc R . .
C33 C 0.4194(3) 0.05219(19) 0.4692(3) 0.223(3) Uani 1 1 d . . .
H33A H 0.3972 0.0260 0.4584 0.334 Uiso 1 1 calc R . .
H33B H 0.4045 0.0822 0.4759 0.334 Uiso 1 1 calc R . .
H33C H 0.4430 0.0440 0.5089 0.334 Uiso 1 1 calc R . .
C34 C 0.44065(19) 0.05914(15) 0.4129(3) 0.1531(18) Uani 1 1 d . . .
C35 C 0.46694(11) 0.09340(11) 0.33722(18) 0.1004(9) Uani 1 1 d . . .
C36 C 0.48397(11) 0.12651(10) 0.29420(18) 0.0981(9) Uani 1 1 d . . .
C37 C 0.48286(18) 0.17770(13) 0.2952(3) 0.1560(19) Uani 1 1 d . . .
H37 H 0.4710 0.1946 0.3252 0.187 Uiso 1 1 calc R . .
C38 C 0.5000 0.20282(19) 0.2500 0.178(3) Uani 1 2 d S . .
H38 H 0.5000 0.2371 0.2500 0.214 Uiso 1 2 calc SR . .
Cd1 Cd 0.397736(7) 0.378252(7) 0.548604(9) 0.08214(9) Uani 1 1 d . . .
Cd2 Cd 0.5000 0.013321(10) 0.2500 0.08758(11) Uani 1 2 d S . .
N1 N 0.45459(8) 0.45996(9) 0.40679(11) 0.0916(6) Uani 1 1 d . . .
N2 N 0.49001(8) 0.41658(10) 0.49530(12) 0.0949(6) Uani 1 1 d . . .
N3 N 0.44370(8) 0.41728(9) 0.48978(11) 0.0885(6) Uani 1 1 d . . .
N4 N 0.24707(9) 0.39597(11) 0.50300(16) 0.1095(8) Uani 1 1 d . . .
N5 N 0.29596(10) 0.35451(12) 0.58453(16) 0.1159(9) Uani 1 1 d . . .
N6 N 0.31975(8) 0.37597(10) 0.54419(14) 0.0995(7) Uani 1 1 d . . .
N7 N 0.35189(8) 0.42684(9) 0.45737(10) 0.0853(6) Uani 1 1 d . . .
N8 N 0.44898(12) 0.10402(10) 0.38819(17) 0.1234(10) Uani 1 1 d . . .
N9 N 0.45286(14) 0.02295(11) 0.3800(2) 0.1444(13) Uani 1 1 d . . .
N10 N 0.46928(10) 0.04450(9) 0.33230(16) 0.1126(9) Uani 1 1 d . . .
N11 N 0.5000 0.10228(11) 0.2500 0.0881(8) Uani 1 2 d S . .
O1 O 0.43017(8) 0.61223(9) 0.16310(11) 0.1132(7) Uani 1 1 d . . .
O2 O 0.40131(9) 0.54443(9) 0.11047(11) 0.1144(7) Uani 1 1 d . . .
O3 O 0.05209(9) 0.45393(10) 0.30311(17) 0.1408(10) Uani 1 1 d . . .
O4 O 0.07647(10) 0.52710(11) 0.33761(17) 0.1529(11) Uani 1 1 d . . .
O5 O 0.42971(12) 0.30169(10) 0.54821(15) 0.1475(10) Uani 1 1 d . . .
O6 O 0.37786(10) 0.31567(10) 0.45530(16) 0.1376(9) Uani 1 1 d . . .

loop_
_atom_site_aniso_label
_atom_site_aniso_U_11
_atom_site_aniso_U_22
_atom_site_aniso_U_33
_atom_site_aniso_U_23
_atom_site_aniso_U_13
_atom_site_aniso_U_12
C1 0.0868(17) 0.124(3) 0.0827(19) 0.0132(18) 0.0361(14) 0.0056(16)
C2 0.0909(17) 0.111(2) 0.0717(16) 0.0128(14) 0.0339(13) -0.0028(15)
C3 0.141(3) 0.100(2) 0.0809(19) 0.0081(16) 0.0221(18) -0.0138(19)
C4 0.146(3) 0.112(2) 0.0754(18) -0.0009(17) 0.0211(18) -0.007(2)
C5 0.0988(18) 0.109(2) 0.0713(16) 0.0128(15) 0.0346(13) -0.0058(15)
C6 0.158(3) 0.103(2) 0.082(2) 0.0008(17) 0.0512(19) -0.011(2)
C7 0.156(3) 0.113(2) 0.0738(18) 0.0008(16) 0.0434(18) -0.003(2)
C8 0.104(2) 0.169(4) 0.142(3) 0.033(3) 0.055(2) -0.003(2)
C9 0.0931(18) 0.112(2) 0.0863(18) 0.0086(16) 0.0326(15) -0.0038(15)
C10 0.0998(18) 0.1055(19) 0.0657(14) 0.0079(14) 0.0325(13) 0.0064(15)
C11 0.095(2) 0.120(3) 0.141(3) 0.009(2) 0.048(2) 0.007(2)
C12 0.0870(19) 0.103(2) 0.134(3) 0.014(2) 0.0429(19) 0.0137(16)
C13 0.107(3) 0.127(3) 0.216(5) -0.020(3) -0.001(3) 0.018(2)
C14 0.124(3) 0.118(3) 0.224(5) -0.022(3) -0.002(3) 0.033(2)
C15 0.0813(18) 0.115(2) 0.135(3) 0.010(2) 0.0360(18) 0.0112(17)
C16 0.116(2) 0.114(3) 0.131(3) -0.006(2) 0.033(2) 0.006(2)
C17 0.116(3) 0.110(2) 0.134(3) 0.005(2) 0.033(2) 0.020(2)
C18 0.118(3) 0.226(5) 0.238(6) 0.101(5) 0.099(3) 0.027(3)
C19 0.108(2) 0.134(3) 0.142(3) 0.035(2) 0.059(2) 0.011(2)
C20 0.0875(18) 0.110(2) 0.102(2) 0.0077(17) 0.0360(16) 0.0111(16)
C21 0.0957(18) 0.135(2) 0.0752(16) 0.0244(17) 0.0321(14) 0.0197(17)
C22 0.123(3) 0.259(6) 0.137(3) 0.106(4) 0.062(2) 0.059(3)
C23 0.132(3) 0.367(9) 0.172(5) 0.168(6) 0.069(3) 0.083(4)
C24 0.108(3) 0.303(7) 0.131(3) 0.087(4) 0.042(2) 0.062(4)
C25 0.0936(19) 0.138(3) 0.0871(19) 0.0251(18) 0.0338(15) 0.0228(18)
C26 0.137(3) 0.101(2) 0.114(3) -0.008(2) 0.064(2) 0.003(2)
C27 0.135(3) 0.0908(19) 0.116(2) -0.0029(19) 0.064(2) 0.0098(19)
C28 0.179(4) 0.122(3) 0.134(3) -0.022(2) 0.024(3) 0.036(3)
C29 0.168(4) 0.124(3) 0.164(4) -0.022(3) 0.038(3) 0.048(3)
C30 0.138(3) 0.089(2) 0.133(3) -0.005(2) 0.079(2) 0.010(2)
C31 0.125(3) 0.105(2) 0.147(3) -0.026(2) 0.057(2) -0.008(2)
C32 0.115(2) 0.104(2) 0.150(3) -0.013(2) 0.060(2) 0.0068(18)
C33 0.368(9) 0.136(4) 0.270(7) 0.004(4) 0.263(7) -0.001(5)
C34 0.225(5) 0.097(2) 0.190(4) 0.002(3) 0.145(4) -0.004(3)
C35 0.116(2) 0.0813(18) 0.122(2) -0.0079(16) 0.0633(19) -0.0020(15)
C36 0.113(2) 0.0694(15) 0.131(2) -0.0042(15) 0.0650(19) -0.0017(14)
C37 0.227(5) 0.082(2) 0.217(5) -0.010(3) 0.158(4) 0.001(2)
C38 0.290(9) 0.068(3) 0.250(8) 0.000 0.195(8) 0.000
Cd1 0.09261(14) 0.08911(14) 0.06842(12) 0.00225(9) 0.02889(9) 0.00869(9)
Cd2 0.08713(18) 0.07037(16) 0.1144(2) 0.000 0.04339(15) 0.000
N1 0.0936(15) 0.1149(17) 0.0713(13) 0.0122(12) 0.0315(11) 0.0023(13)
N2 0.0884(15) 0.1173(18) 0.0806(14) 0.0106(13) 0.0266(11) 0.0026(12)
N3 0.0892(14) 0.1101(16) 0.0711(13) 0.0124(12) 0.0309(10) 0.0075(12)
N4 0.0877(15) 0.1179(19) 0.131(2) 0.0206(17) 0.0438(14) 0.0132(14)
N5 0.1004(18) 0.131(2) 0.130(2) 0.0311(18) 0.0550(16) 0.0086(16)
N6 0.0904(15) 0.1147(18) 0.1000(17) 0.0171(14) 0.0377(13) 0.0087(13)
N7 0.0886(14) 0.0989(15) 0.0718(12) 0.0094(11) 0.0282(10) 0.0122(11)
N8 0.167(3) 0.0829(15) 0.159(3) -0.0088(17) 0.109(2) -0.0011(16)
N9 0.216(4) 0.0857(17) 0.186(3) 0.0050(19) 0.145(3) 0.0015(19)
N10 0.140(2) 0.0797(15) 0.148(2) -0.0020(15) 0.0896(19) -0.0031(14)
N11 0.0896(19) 0.0686(16) 0.115(2) 0.000 0.0439(18) 0.000
O1 0.1286(17) 0.1199(17) 0.0854(13) 0.0205(12) 0.0212(12) -0.0193(13)
O2 0.156(2) 0.1157(16) 0.0753(13) 0.0085(11) 0.0389(13) 0.0033(14)
O3 0.1073(16) 0.1196(18) 0.181(3) 0.0132(18) 0.0182(17) 0.0184(15)
O4 0.128(2) 0.1129(19) 0.198(3) 0.0196(19) 0.014(2) 0.0193(15)
O5 0.213(3) 0.1194(19) 0.119(2) -0.0026(16) 0.061(2) 0.0410(19)
O6 0.143(2) 0.1067(17) 0.163(2) -0.0213(17) 0.0446(18) 0.0203(16)

_geom_special_details            
;
 All s.u. (except the s.u. in the dihedral angle between two l.s. planes)
 are estimated using the full covariance matrix.  The cell s.u. are taken
 into account individually in the estimation of s.u. in distances, angles
 and torsion angles; correlations between s.u. in cell parameters are only
 used when they are defined by crystal symmetry.  An approximate (isotropic)
 treatment of cell s.u. is used for estimating s.u. involving l.s. planes.
;

loop_
_geom_bond_atom_site_label_1
_geom_bond_atom_site_label_2
_geom_bond_distance
_geom_bond_site_symmetry_2
_geom_bond_publ_flag
C1 O2 1.245(4) . ?
C1 O1 1.262(4) . ?
C1 C2 1.527(4) . ?
C1 Cd1 2.738(3) 6_565 ?
C2 C3 1.368(4) . ?
C2 C7 1.379(4) . ?
C3 C4 1.388(4) . ?
C3 H3 0.9300 . ?
C4 C5 1.360(4) . ?
C4 H4 0.9300 . ?
C5 C6 1.382(4) . ?
C5 N1 1.452(3) . ?
C6 C7 1.391(4) . ?
C6 H6 0.9300 . ?
C7 H7 0.9300 . ?
C8 C9 1.505(4) . ?
C8 H8A 0.9600 . ?
C8 H8B 0.9600 . ?
C8 H8C 0.9600 . ?
C9 N2 1.313(4) . ?
C9 N1 1.375(4) . ?
C10 N3 1.327(3) . ?
C10 N1 1.375(4) . ?
C10 C21 1.490(4) . ?
C11 O4 1.246(4) . ?
C11 O3 1.258(4) . ?
C11 C12 1.486(5) . ?
C12 C17 1.355(5) . ?
C12 C13 1.369(5) . ?
C13 C14 1.417(6) . ?
C13 H13 0.9300 . ?
C14 C15 