####################################################################### 
# 
# This file contains crystal structure data downloaded from the 
# Cambridge Structural Database (CSD) hosted by the Cambridge 
# Crystallographic Data Centre (CCDC).
# 
# Full information about CCDC data access policies and citation 
# guidelines are available at http://www.ccdc.cam.ac.uk/access/V1 
# 
# Audit and citation data items may have been added by the CCDC. 
# Please retain this information to preserve the provenance of 
# this file and to allow appropriate attribution of the data. 
# 
#######################################################################

data_ZJU-88
_audit_block_doi                 10.5517/cc132l5y
_database_code_depnum_ccdc_archive 'CCDC 1015379'
loop_
_citation_id
_citation_doi
_citation_year
1 10.1002/adma.201404700 2015
_audit_update_record             
;
2014-07-22 deposited with the CCDC.	2024-07-12 downloaded from the CCDC.
;

_audit_creation_method           SHELXL-97
_chemical_name_systematic        ZJU-88
_chemical_name_common            ?
_chemical_melting_point          ?
_chemical_formula_moiety         ?
_chemical_formula_sum            'C28 H22 Eu2 N2 O18'
_chemical_formula_weight         978.40

loop_
_atom_type_symbol
_atom_type_description
_atom_type_scat_dispersion_real
_atom_type_scat_dispersion_imag
_atom_type_scat_source
C C 0.0033 0.0016 'International Tables Vol C Tables 4.2.6.8 and 6.1.1.4'
H H 0.0000 0.0000 'International Tables Vol C Tables 4.2.6.8 and 6.1.1.4'
O O 0.0106 0.0060 'International Tables Vol C Tables 4.2.6.8 and 6.1.1.4'
Eu Eu -0.1578 3.6682 'International Tables Vol C Tables 4.2.6.8 and 6.1.1.4'
N N 0.0061 0.0033 'International Tables Vol C Tables 4.2.6.8 and 6.1.1.4'

_symmetry_cell_setting           monoclinic
_symmetry_space_group_name_H-M   C2/c

loop_
_symmetry_equiv_pos_as_xyz
'x, y, z'
'-x, y, -z+1/2'
'x+1/2, y+1/2, z'
'-x+1/2, y+1/2, -z+1/2'
'-x, -y, -z'
'x, -y, z-1/2'
'-x+1/2, -y+1/2, -z'
'x+1/2, -y+1/2, z-1/2'

_cell_length_a                   32.632(2)
_cell_length_b                   17.2264(9)
_cell_length_c                   10.1532(5)
_cell_angle_alpha                90.00
_cell_angle_beta                 93.448(5)
_cell_angle_gamma                90.00
_cell_volume                     5697.2(5)
_cell_formula_units_Z            4
_cell_measurement_temperature    296(2)
_cell_measurement_reflns_used    25963
_cell_measurement_theta_min      2.36
_cell_measurement_theta_max      25.35

_exptl_crystal_description       block
_exptl_crystal_colour            colorless
_exptl_crystal_size_max          0.45
_exptl_crystal_size_mid          0.21
_exptl_crystal_size_min          0.15
_exptl_crystal_density_meas      ?
_exptl_crystal_density_diffrn    1.141
_exptl_crystal_density_method    'not measured'
_exptl_crystal_F_000             1896
_exptl_absorpt_coefficient_mu    2.230
_exptl_absorpt_correction_type   empirical
_exptl_absorpt_correction_T_min  0.576
_exptl_absorpt_correction_T_max  0.716
_exptl_absorpt_process_details   SADABS

_exptl_special_details           
; 
 ? 
;

_diffrn_ambient_temperature      296(2)
_diffrn_radiation_wavelength     0.71073
_diffrn_radiation_type           MoK\a
_diffrn_radiation_source         'fine-focus sealed tube'
_diffrn_radiation_monochromator  graphite
_diffrn_measurement_device_type  'Bruker APEX-II CCD'
_diffrn_measurement_method       ?
_diffrn_detector_area_resol_mean ?
_diffrn_standards_number         ?
_diffrn_standards_interval_count ?
_diffrn_standards_interval_time  ?
_diffrn_standards_decay_%        ?
_diffrn_reflns_number            25963
_diffrn_reflns_av_R_equivalents  0.0856
_diffrn_reflns_av_sigmaI/netI    0.0887
_diffrn_reflns_limit_h_min       -38
_diffrn_reflns_limit_h_max       39
_diffrn_reflns_limit_k_min       -20
_diffrn_reflns_limit_k_max       18
_diffrn_reflns_limit_l_min       -11
_diffrn_reflns_limit_l_max       12
_diffrn_reflns_theta_min         2.36
_diffrn_reflns_theta_max         25.35
_reflns_number_total             5201
_reflns_number_gt                3064
_reflns_threshold_expression     >2sigma(I)

_computing_data_collection       'Bruker APEX2'
_computing_cell_refinement       'Bruker SAINT'
_computing_data_reduction        'Bruker SAINT'
_computing_structure_solution    'SHELXS-97 (Sheldrick, 1990)'
_computing_structure_refinement  'SHELXL-97 (Sheldrick, 1997)'
_computing_molecular_graphics    'Bruker SHELXTL'
_computing_publication_material  'Bruker SHELXTL'

_refine_special_details          
; 
 Refinement of F^2^ against ALL reflections.  The weighted R-factor wR and 
 goodness of fit S are based on F^2^, conventional R-factors R are based 
 on F, with F set to zero for negative F^2^. The threshold expression of 
 F^2^ > 2sigma(F^2^) is used only for calculating R-factors(gt) etc. and is 
 not relevant to the choice of reflections for refinement.  R-factors based 
 on F^2^ are statistically about twice as large as those based on F, and R- 
 factors based on ALL data will be even larger. 
;


# SQUEEZE RESULTS (APPEND TO CIF)
# Note: Data are Listed for all Voids in the P1 Unit Cell
# i.e. Centre of Gravity, Solvent Accessible Volume,
# Recovered number of Electrons in the Void and
# Details about the Squeezed Material
loop_
_platon_squeeze_void_nr
_platon_squeeze_void_average_x
_platon_squeeze_void_average_y
_platon_squeeze_void_average_z
_platon_squeeze_void_volume
_platon_squeeze_void_count_electrons
_platon_squeeze_void_content
1 -0.042 0.370 0.041 2998 1136 ' '
_platon_squeeze_details          
;
;

_refine_ls_structure_factor_coef Fsqd
_refine_ls_matrix_type           full
_refine_ls_weighting_scheme      calc
_refine_ls_weighting_details     
'calc w=1/[\s^2^(Fo^2^)+(0.0501P)^2^+0.0000P] where P=(Fo^2^+2Fc^2^)/3'
_atom_sites_solution_primary     direct
_atom_sites_solution_secondary   difmap
_atom_sites_solution_hydrogens   geom
_refine_ls_hydrogen_treatment    constr
_refine_ls_extinction_method     none
_refine_ls_extinction_coef       ?
_refine_ls_number_reflns         5201
_refine_ls_number_parameters     226
_refine_ls_number_restraints     0
_refine_ls_R_factor_all          0.0825
_refine_ls_R_factor_gt           0.0490
_refine_ls_wR_factor_ref         0.1189
_refine_ls_wR_factor_gt          0.1131
_refine_ls_goodness_of_fit_ref   1.015
_refine_ls_restrained_S_all      1.015
_refine_ls_shift/su_max          0.000
_refine_ls_shift/su_mean         0.000

loop_
_atom_site_label
_atom_site_type_symbol
_atom_site_fract_x
_atom_site_fract_y
_atom_site_fract_z
_atom_site_U_iso_or_equiv
_atom_site_adp_type
_atom_site_occupancy
_atom_site_symmetry_multiplicity
_atom_site_calc_flag
_atom_site_refinement_flags
_atom_site_disorder_assembly
_atom_site_disorder_group
Eu1 Eu 0.308259(10) 0.20956(2) 0.00171(3) 0.04696(15) Uani 1 1 d . . .
O1 O 0.28392(15) 0.1139(3) 0.1513(6) 0.0880(19) Uani 1 1 d . . .
O2 O 0.23208(15) 0.1900(3) 0.0938(5) 0.0749(17) Uani 1 1 d . . .
O3 O 0.26336(15) -0.1392(3) 0.3550(6) 0.092(2) Uani 1 1 d . . .
O4 O 0.20130(17) -0.1934(4) 0.3368(6) 0.092(2) Uani 1 1 d . . .
O5 O 0.37601(18) 0.2738(4) 0.0333(8) 0.111(2) Uani 1 1 d . . .
O6 O 0.36372(19) 0.1948(4) 0.1895(6) 0.0833(18) Uani 1 1 d . . .
O9 O 0.34900(18) 0.0942(4) -0.0420(6) 0.104(2) Uani 1 1 d . . .
O8 O 0.33350(19) 0.2352(5) -0.2163(7) 0.129(3) Uani 1 1 d . . .
C1 C 0.2455(2) 0.1253(6) 0.1369(8) 0.076(3) Uani 1 1 d . . .
C2 C 0.2176(2) 0.0606(5) 0.1685(8) 0.073(3) Uani 1 1 d . . .
C3 C 0.2333(2) -0.0046(5) 0.2317(7) 0.073(3) Uani 1 1 d . . .
H3A H 0.2611 -0.0071 0.2578 0.088 Uiso 1 1 calc R . .
C4 C 0.2080(2) -0.0661(5) 0.2564(8) 0.069(2) Uani 1 1 d . . .
C5 C 0.2259(3) -0.1376(6) 0.3234(8) 0.080(3) Uani 1 1 d . . .
C6 C 0.1673(2) -0.0637(5) 0.2174(8) 0.075(3) Uani 1 1 d . . .
H6A H 0.1508 -0.1061 0.2342 0.090 Uiso 1 1 calc R . .
C7 C 0.1499(2) -0.0003(5) 0.1539(9) 0.080(3) Uani 1 1 d . . .
C8 C 0.1771(2) 0.0620(5) 0.1272(9) 0.090(3) Uani 1 1 d . . .
H8A H 0.1669 0.1048 0.0801 0.108 Uiso 1 1 calc R . .
C9 C 0.1059(2) 0.0048(5) 0.1107(10) 0.091(3) Uani 1 1 d . . .
C10 C 0.0791(3) -0.0448(9) 0.155(2) 0.324(16) Uani 1 1 d . . .
H10A H 0.0879 -0.0816 0.2176 0.389 Uiso 1 1 calc R . .
C11 C 0.0375(3) -0.0432(10) 0.110(2) 0.306(14) Uani 1 1 d . . .
H11A H 0.0198 -0.0785 0.1468 0.367 Uiso 1 1 calc R . .
C12 C 0.0224(2) 0.0028(6) 0.0232(13) 0.123(5) Uani 1 1 d . . .
C13 C 0.0492(3) 0.0567(9) 0.002(2) 0.291(14) Uani 1 1 d . . .
H13A H 0.0396 0.1004 -0.0438 0.350 Uiso 1 1 calc R . .
C14 C 0.0893(3) 0.0552(6) 0.0411(16) 0.192(8) Uani 1 1 d . . .
H14A H 0.1056 0.0954 0.0130 0.230 Uiso 1 1 calc R . .
N1 N 0.3867(3) 0.2461(6) 0.1459(10) 0.095(3) Uani 1 1 d . . .
O7 O 0.4166(3) 0.2703(5) 0.2115(11) 0.192(5) Uani 1 1 d . . .

loop_
_atom_site_aniso_label
_atom_site_aniso_U_11
_atom_site_aniso_U_22
_atom_site_aniso_U_33
_atom_site_aniso_U_23
_atom_site_aniso_U_13
_atom_site_aniso_U_12
Eu1 0.0406(2) 0.0449(2) 0.0536(2) 0.0019(2) -0.01236(15) -0.0047(2)
O1 0.046(3) 0.091(5) 0.125(5) 0.058(4) -0.012(3) -0.013(3)
O2 0.059(3) 0.064(4) 0.099(4) 0.036(3) -0.017(3) -0.006(3)
O3 0.059(3) 0.087(5) 0.121(5) 0.054(4) -0.050(3) -0.019(3)
O4 0.076(4) 0.089(5) 0.105(4) 0.051(4) -0.045(3) -0.029(4)
O5 0.057(4) 0.115(6) 0.158(7) 0.039(5) -0.009(4) -0.024(4)
O6 0.080(4) 0.087(5) 0.080(4) 0.003(3) -0.023(3) 0.005(4)
O9 0.095(4) 0.100(5) 0.112(5) -0.042(4) -0.031(4) 0.033(4)
O8 0.090(5) 0.181(8) 0.119(5) 0.052(5) 0.033(4) 0.043(5)
C1 0.053(5) 0.081(7) 0.093(6) 0.040(5) -0.012(4) -0.001(5)
C2 0.037(4) 0.081(7) 0.099(6) 0.045(5) -0.008(4) -0.007(4)
C3 0.041(4) 0.101(7) 0.075(6) 0.033(5) -0.021(4) -0.004(5)
C4 0.053(5) 0.065(6) 0.087(6) 0.039(5) -0.016(4) -0.015(4)
C5 0.062(5) 0.076(7) 0.096(6) 0.042(5) -0.036(5) -0.019(5)
C6 0.046(5) 0.076(6) 0.102(6) 0.053(5) -0.012(4) -0.010(4)
C7 0.044(5) 0.077(7) 0.118(7) 0.046(6) -0.012(5) -0.006(5)
C8 0.053(5) 0.077(7) 0.137(8) 0.054(6) -0.014(5) 0.002(5)
C9 0.036(4) 0.071(7) 0.163(9) 0.068(6) -0.009(5) -0.005(5)
C10 0.065(8) 0.250(19) 0.64(4) 0.31(2) -0.120(14) -0.068(10)
C11 0.056(8) 0.235(18) 0.62(4) 0.28(2) -0.061(13) -0.058(10)
C12 0.041(5) 0.092(8) 0.233(13) 0.097(8) -0.013(7) 0.011(6)
C13 0.061(7) 0.218(16) 0.58(3) 0.30(2) -0.106(12) -0.052(9)
C14 0.041(6) 0.105(9) 0.42(2) 0.142(12) -0.065(9) -0.032(6)
N1 0.069(6) 0.087(7) 0.124(8) 0.014(6) -0.035(6) 0.002(5)
O7 0.116(6) 0.156(8) 0.287(12) -0.029(8) -0.118(8) -0.033(6)

_geom_special_details            
; 
 All esds (except the esd in the dihedral angle between two l.s. planes) 
 are estimated using the full covariance matrix.  The cell esds are taken 
 into account individually in the estimation of esds in distances, angles 
 and torsion angles; correlations between esds in cell parameters are only 
 used when they are defined by crystal symmetry.  An approximate (isotropic) 
 treatment of cell esds is used for estimating esds involving l.s. planes. 
;

loop_
_geom_bond_atom_site_label_1
_geom_bond_atom_site_label_2
_geom_bond_distance
_geom_bond_site_symmetry_2
_geom_bond_publ_flag
Eu1 O2 2.349(5) 7 ?
Eu1 O3 2.361(5) 6 ?
Eu1 O4 2.375(5) 4 ?
Eu1 O1 2.408(5) . ?
Eu1 O9 2.446(5) . ?
Eu1 O8 2.448(6) . ?
Eu1 O5 2.476(6) . ?
Eu1 O6 2.561(5) . ?
Eu1 O2 2.729(5) . ?
Eu1 C1 2.919(8) . ?
Eu1 N1 2.940(8) . ?
Eu1 Eu1 4.0477(7) 7 ?
O1 C1 1.268(8) . ?
O2 C1 1.266(9) . ?
O2 Eu1 2.349(5) 7 ?
O3 C5 1.246(8) . ?
O3 Eu1 2.361(5) 6_556 ?
O4 C5 1.264(9) . ?
O4 Eu1 2.375(5) 4_545 ?
O5 N1 1.268(9) . ?
O6 N1 1.257(9) . ?
C1 C2 1.485(11) . ?
C2 C8 1.363(9) . ?
C2 C3 1.378(10) . ?
C3 C4 1.375(10) . ?
C4 C6 1.365(9) . ?
C4 C5 1.507(10) . ?
C6 C7 1.373(10) . ?
C7 C8 1.429(10) . ?
C7 C9 1.480(10) . ?
C9 C14 1.224(11) . ?
C9 C10 1.322(13) . ?
C10 C11 1.406(14) . ?
C11 C12 1.263(15) . ?
C12 C13 1.301(12) . ?
C12 C12 1.514(16) 5 ?
C13 C14 1.344(12) . ?
N1 O7 1.222(9) . ?

loop_
_geom_angle_atom_site_label_1
_geom_angle_atom_site_label_2
_geom_angle_atom_site_label_3
_geom_angle
_geom_angle_site_symmetry_1
_geom_angle_site_symmetry_3
_geom_angle_publ_flag
O2 Eu1 O3 78.86(19) 7 6 ?
O2 Eu1 O4 70.9(2) 7 4 ?
O3 Eu1 O4 134.01(18) 6 4 ?
O2 Eu1 O1 124.52(18) 7 . ?
O3 Eu1 O1 80.3(2) 6 . ?
O4 Eu1 O1 89.1(2) 4 . ?
O2 Eu1 O9 145.2(2) 7 . ?
O3 Eu1 O9 77.98(18) 6 . ?
O4 Eu1 O9 142.41(19) 4 . ?
O1 Eu1 O9 76.2(2) . . ?
O2 Eu1 O8 72.8(2) 7 . ?
O3 Eu1 O8 75.6(3) 6 . ?
O4 Eu1 O8 124.2(3) 4 . ?
O1 Eu1 O8 146.7(3) . . ?
O9 Eu1 O8 76.5(2) . . ?
O2 Eu1 O5 101.4(2) 7 . ?
O3 Eu1 O5 145.8(2) 6 . ?
O4 Eu1 O5 75.5(2) 4 . ?
O1 Eu1 O5 123.4(2) . . ?
O9 Eu1 O5 84.0(2) . . ?
O8 Eu1 O5 71.9(3) . . ?
O2 Eu1 O6 137.19(19) 7 . ?
O3 Eu1 O6 143.4(2) 6 . ?
O4 Eu1 O6 70.85(19) 4 . ?
O1 Eu1 O6 73.0(2) . . ?
O9 Eu1 O6 71.78(18) . . ?
O8 Eu1 O6 115.5(2) . . ?
O5 Eu1 O6 50.4(2) . . ?
O2 Eu1 O2 74.52(18) 7 . ?
O3 Eu1 O2 66.99(18) 6 . ?
O4 Eu1 O2 71.98(19) 4 . ?
O1 Eu1 O2 50.01(16) . . ?
O9 Eu1 O2 118.5(2) . . ?
O8 Eu1 O2 134.03(19) . . ?
O5 Eu1 O2 146.7(2) . . ?
O6 Eu1 O2 110.49(19) . . ?
O2 Eu1 C1 99.7(2) 7 . ?
O3 Eu1 C1 67.4(2) 6 . ?
O4 Eu1 C1 84.3(3) 4 . ?
O1 Eu1 C1 25.27(18) . . ?
O9 Eu1 C1 94.9(2) . . ?
O8 Eu1 C1 143.0(3) . . ?
O5 Eu1 C1 143.8(2) . . ?
O6 Eu1 C1 94.9(2) . . ?
O2 Eu1 C1 25.63(17) . . ?
O2 Eu1 N1 119.8(2) 7 . ?
O3 Eu1 N1 155.9(2) 6 . ?
O4 Eu1 N1 69.6(2) 4 . ?
O1 Eu1 N1 98.2(2) . . ?
O9 Eu1 N1 78.3(2) . . ?
O8 Eu1 N1 94.7(3) . . ?
O5 Eu1 N1 25.3(2) . . ?
O6 Eu1 N1 25.23(19) . . ?
O2 Eu1 N1 129.8(2) . . ?
C1 Eu1 N1 119.1(3) . . ?
O2 Eu1 Eu1 40.52(13) 7 7 ?
O3 Eu1 Eu1 67.94(12) 6 7 ?
O4 Eu1 Eu1 66.51(13) 4 7 ?
O1 Eu1 Eu1 84.01(13) . 7 ?
O9 Eu1 Eu1 142.99(14) . 7 ?
O8 Eu1 Eu1 107.28(14) . 7 ?
O5 Eu1 Eu1 132.70(17) . 7 ?
O6 Eu1 Eu1 131.43(14) . 7 ?
O2 Eu1 Eu1 34.00(11) . 7 ?
C1 Eu1 Eu1 59.36(17) . 7 ?
N1 Eu1 Eu1 136.04(18) . 7 ?
C1 O1 Eu1 100.5(5) . . ?
C1 O2 Eu1 164.9(5) . 7 ?
C1 O2 Eu1 85.6(5) . . ?
Eu1 O2 Eu1 105.48(18) 7 . ?
C5 O3 Eu1 137.4(5) . 6_556 ?
C5 O4 Eu1 136.1(5) . 4_545 ?
N1 O5 Eu1 98.3(5) . . ?
N1 O6 Eu1 94.5(5) . . ?
O2 C1 O1 119.7(8) . . ?
O2 C1 C2 122.0(7) . . ?
O1 C1 C2 118.3(8) . . ?
O2 C1 Eu1 68.8(4) . . ?
O1 C1 Eu1 54.2(4) . . ?
C2 C1 Eu1 158.5(7) . . ?
C8 C2 C3 118.9(7) . . ?
C8 C2 C1 121.1(7) . . ?
C3 C2 C1 119.8(7) . . ?
C4 C3 C2 120.2(7) . . ?
C6 C4 C3 120.6(7) . . ?
C6 C4 C5 120.0(7) . . ?
C3 C4 C5 119.4(7) . . ?
O3 C5 O4 125.1(8) . . ?
O3 C5 C4 118.8(8) . . ?
O4 C5 C4 116.0(7) . . ?
C4 C6 C7 121.8(7) . . ?
C6 C7 C8 116.3(7) . . ?
C6 C7 C9 123.5(7) . . ?
C8 C7 C9 120.2(7) . . ?
C2 C8 C7 122.1(7) . . ?
C14 C9 C10 112.1(9) . . ?
C14 C9 C7 127.0(8) . . ?
C10 C9 C7 120.8(8) . . ?
C9 C10 C11 121.5(12) . . ?
C12 C11 C10 124.5(12) . . ?
C11 C12 C13 109.1(10) . . ?
C11 C12 C12 120.4(12) . 5 ?
C13 C12 C12 129.7(11) . 5 ?
C12 C13 C14 126.0(10) . . ?
C9 C14 C13 125.0(10) . . ?
O7 N1 O6 121.5(10) . . ?
O7 N1 O5 122.0(11) . . ?
O6 N1 O5 116.4(8) . . ?
O7 N1 Eu1 171.2(8) . . ?
O6 N1 Eu1 60.3(4) . . ?
O5 N1 Eu1 56.5(4) . . ?

_diffrn_measured_fraction_theta_max 0.997
_diffrn_reflns_theta_full        25.35
_diffrn_measured_fraction_theta_full 0.997
_refine_diff_density_max         1.113
_refine_diff_density_min         -0.600
_refine_diff_density_rms         0.121
_exptl_crystal_preparation       Luminescent
