####################################################################### 
# 
# This file contains crystal structure data downloaded from the 
# Cambridge Structural Database (CSD) hosted by the Cambridge 
# Crystallographic Data Centre (CCDC).
# 
# Full information about CCDC data access policies and citation 
# guidelines are available at http://www.ccdc.cam.ac.uk/access/V1 
# 
# Audit and citation data items may have been added by the CCDC. 
# Please retain this information to preserve the provenance of 
# this file and to allow appropriate attribution of the data. 
# 
#######################################################################

data_Ic
_audit_block_doi                 10.5517/cc133c8v
_database_code_depnum_ccdc_archive 'CCDC 1016126'
loop_
_citation_id
_citation_doi
_citation_year
1 10.1021/ic502643m 2015
_audit_update_record             
;
2014-07-25 deposited with the CCDC.	2024-07-12 downloaded from the CCDC.
;

_audit_creation_method           SHELXL-97
_chemical_name_systematic        
; 
 ? 
;
_chemical_name_common            ?
_chemical_melting_point          ?
_chemical_formula_moiety         ?
_chemical_formula_sum            'C38 H25 N O15 Zn4'
_chemical_formula_weight         997.07

loop_
_atom_type_symbol
_atom_type_description
_atom_type_scat_dispersion_real
_atom_type_scat_dispersion_imag
_atom_type_scat_source
C C 0.0033 0.0016 'International Tables Vol C Tables 4.2.6.8 and 6.1.1.4'
H H 0.0000 0.0000 'International Tables Vol C Tables 4.2.6.8 and 6.1.1.4'
N N 0.0061 0.0033 'International Tables Vol C Tables 4.2.6.8 and 6.1.1.4'
O O 0.0106 0.0060 'International Tables Vol C Tables 4.2.6.8 and 6.1.1.4'
Zn Zn 0.2839 1.4301 'International Tables Vol C Tables 4.2.6.8 and 6.1.1.4'

_symmetry_cell_setting           monoclinic
_symmetry_space_group_name_H-M   P21/n
_symmetry_space_group_name_Hall  -P2yn

loop_
_symmetry_equiv_pos_as_xyz
'x, y, z'
'-x+1/2, y+1/2, -z+1/2'
'-x, -y, -z'
'x-1/2, -y-1/2, z-1/2'

_cell_length_a                   10.364(2)
_cell_length_b                   26.746(5)
_cell_length_c                   27.804(6)
_cell_angle_alpha                90.00
_cell_angle_beta                 93.91(3)
_cell_angle_gamma                90.00
_cell_volume                     7689(3)
_cell_formula_units_Z            4
_cell_measurement_temperature    223(2)
_cell_measurement_reflns_used    ?
_cell_measurement_theta_min      ?
_cell_measurement_theta_max      ?

_exptl_crystal_description       ?
_exptl_crystal_colour            ?
_exptl_crystal_size_max          0.11
_exptl_crystal_size_mid          0.11
_exptl_crystal_size_min          0.09
_exptl_crystal_density_meas      ?
_exptl_crystal_density_diffrn    0.861
_exptl_crystal_density_method    'not measured'
_exptl_crystal_F_000             2000
_exptl_absorpt_coefficient_mu    1.269
_exptl_absorpt_correction_type   multi-scan
_exptl_absorpt_correction_T_min  0.8730
_exptl_absorpt_correction_T_max  0.8943
_exptl_absorpt_process_details   ?

_exptl_special_details           
; 
 ? 
;

_diffrn_ambient_temperature      223(2)
_diffrn_radiation_wavelength     0.71073
_diffrn_radiation_type           MoK\a
_diffrn_radiation_source         'fine-focus sealed tube'
_diffrn_radiation_monochromator  graphite
_diffrn_measurement_device_type  ?
_diffrn_measurement_method       ?
_diffrn_detector_area_resol_mean ?
_diffrn_standards_number         ?
_diffrn_standards_interval_count ?
_diffrn_standards_interval_time  ?
_diffrn_standards_decay_%        ?
_diffrn_reflns_number            52231
_diffrn_reflns_av_R_equivalents  0.0933
_diffrn_reflns_av_sigmaI/netI    0.1008
_diffrn_reflns_limit_h_min       -9
_diffrn_reflns_limit_h_max       12
_diffrn_reflns_limit_k_min       -32
_diffrn_reflns_limit_k_max       32
_diffrn_reflns_limit_l_min       -29
_diffrn_reflns_limit_l_max       33
_diffrn_reflns_theta_min         1.47
_diffrn_reflns_theta_max         25.50
_reflns_number_total             14295
_reflns_number_gt                9004
_reflns_threshold_expression     >2sigma(I)

_computing_data_collection       ?
_computing_cell_refinement       ?
_computing_data_reduction        ?
_computing_structure_solution    'SHELXS-97 (Sheldrick, 1990)'
_computing_structure_refinement  'SHELXL-97 (Sheldrick, 1997)'
_computing_molecular_graphics    ?
_computing_publication_material  ?

_refine_special_details          
; 
 Refinement of F^2^ against ALL reflections.  The weighted R-factor wR and 
 goodness of fit S are based on F^2^, conventional R-factors R are based 
 on F, with F set to zero for negative F^2^. The threshold expression of 
 F^2^ > 2sigma(F^2^) is used only for calculating R-factors(gt) etc. and is 
 not relevant to the choice of reflections for refinement.  R-factors based 
 on F^2^ are statistically about twice as large as those based on F, and R- 
 factors based on ALL data will be even larger. 
;

_refine_ls_structure_factor_coef Fsqd
_refine_ls_matrix_type           full
_refine_ls_weighting_scheme      calc
_refine_ls_weighting_details     
'calc w=1/[\s^2^(Fo^2^)+(0.0999P)^2^+0.0000P] where P=(Fo^2^+2Fc^2^)/3'
_atom_sites_solution_primary     direct
_atom_sites_solution_secondary   difmap
_atom_sites_solution_hydrogens   geom
_refine_ls_hydrogen_treatment    constor
_refine_ls_extinction_method     SHELXL
_refine_ls_extinction_coef       0.00026(7)
_refine_ls_extinction_expression Fc^*^=kFc[1+0.001xFc^2^\l^3^/sin(2\q)]^-1/4^
_refine_ls_number_reflns         14295
_refine_ls_number_parameters     517
_refine_ls_number_restraints     522
_refine_ls_R_factor_all          0.0953
_refine_ls_R_factor_gt           0.0693
_refine_ls_wR_factor_ref         0.2049
_refine_ls_wR_factor_gt          0.1926
_refine_ls_goodness_of_fit_ref   1.002
_refine_ls_restrained_S_all      1.002
_refine_ls_shift/su_max          0.000
_refine_ls_shift/su_mean         0.000

loop_
_atom_site_label
_atom_site_type_symbol
_atom_site_fract_x
_atom_site_fract_y
_atom_site_fract_z
_atom_site_U_iso_or_equiv
_atom_site_adp_type
_atom_site_occupancy
_atom_site_symmetry_multiplicity
_atom_site_calc_flag
_atom_site_refinement_flags
_atom_site_disorder_assembly
_atom_site_disorder_group
C1 C 0.9636(7) 0.3710(3) 0.0715(3) 0.0556(18) Uani 1 1 d U . .
C2 C 0.9703(7) 0.4169(3) 0.0379(3) 0.064(2) Uani 1 1 d U . .
C3 C 0.9556(10) 0.4083(4) -0.0124(4) 0.094(3) Uani 1 1 d U . .
H3 H 0.9373 0.3758 -0.0240 0.113 Uiso 1 1 calc R . .
C4 C 0.9916(8) 0.4620(3) 0.0560(3) 0.071(2) Uani 1 1 d U . .
H4 H 0.9967 0.4669 0.0895 0.085 Uiso 1 1 calc R . .
C5 C 1.0071(8) 0.5040(3) 0.0238(3) 0.066(2) Uani 1 1 d U . .
C6 C 1.0322(11) 0.5527(4) 0.0448(4) 0.099(3) Uani 1 1 d U . .
H6 H 1.0399 0.5577 0.0783 0.118 Uiso 1 1 calc R . .
C7 C 1.2451(6) 0.3358(2) 0.2064(2) 0.0337(13) Uani 1 1 d U . .
C8 C 1.3673(5) 0.3633(2) 0.2152(2) 0.0359(14) Uani 1 1 d U . .
C9 C 1.4856(5) 0.3403(2) 0.2066(2) 0.0373(14) Uani 1 1 d U . .
H9 H 1.4869 0.3067 0.1968 0.045 Uiso 1 1 calc R . .
C10 C 1.5985(5) 0.3665(2) 0.2125(2) 0.0389(15) Uani 1 1 d U . .
C11 C 1.5994(6) 0.4153(2) 0.2280(2) 0.0404(15) Uani 1 1 d U . .
H11 H 1.6782 0.4328 0.2319 0.049 Uiso 1 1 calc R . .
C12 C 1.4846(6) 0.4392(2) 0.2380(3) 0.0448(16) Uani 1 1 d U . .
C13 C 1.3692(6) 0.4125(2) 0.2307(3) 0.0459(17) Uani 1 1 d U . .
H13 H 1.2908 0.4283 0.2366 0.055 Uiso 1 1 calc R . .
C14 C 1.7215(6) 0.3412(2) 0.1979(2) 0.0373(14) Uani 1 1 d U . .
C15 C 1.4868(6) 0.4918(2) 0.2552(3) 0.0462(17) Uani 1 1 d U . .
C16 C 1.5908(7) 0.5129(3) 0.2804(3) 0.058(2) Uani 1 1 d U . .
H16 H 1.6646 0.4931 0.2874 0.069 Uiso 1 1 calc R . .
C17 C 1.5923(7) 0.5613(3) 0.2960(3) 0.0537(19) Uani 1 1 d U . .
H17 H 1.6659 0.5739 0.3136 0.064 Uiso 1 1 calc R . .
C18 C 1.4845(6) 0.5927(2) 0.2858(2) 0.0414(15) Uani 1 1 d U . .
C19 C 1.3784(7) 0.5730(3) 0.2592(3) 0.059(2) Uani 1 1 d U . .
H19 H 1.3063 0.5934 0.2511 0.071 Uiso 1 1 calc R . .
C20 C 1.3779(6) 0.5231(3) 0.2443(3) 0.058(2) Uani 1 1 d U . .
H20 H 1.3045 0.5100 0.2269 0.069 Uiso 1 1 calc R . .
C21 C 1.4874(6) 0.6456(2) 0.3008(2) 0.0336(13) Uani 1 1 d U . .
C22 C 0.6918(5) 0.2223(2) 0.0819(2) 0.0249(12) Uani 1 1 d U . .
C23 C 0.5648(5) 0.2193(2) 0.0537(2) 0.0296(12) Uani 1 1 d U . .
C24 C 0.4523(5) 0.2186(2) 0.0785(2) 0.0278(12) Uani 1 1 d U . .
H24 H 0.4568 0.2163 0.1123 0.033 Uiso 1 1 calc R . .
C25 C 0.3322(5) 0.2215(2) 0.0521(2) 0.0338(14) Uani 1 1 d U . .
C26 C 0.3249(5) 0.2248(3) 0.0023(2) 0.0361(14) Uani 1 1 d U . .
H26 H 0.2436 0.2269 -0.0147 0.043 Uiso 1 1 calc R . .
C27 C 0.4365(6) 0.2248(2) -0.0230(2) 0.0360(14) Uani 1 1 d U . .
C28 C 0.5589(5) 0.2244(2) 0.0038(2) 0.0346(14) Uani 1 1 d U . .
H28 H 0.6354 0.2275 -0.0122 0.041 Uiso 1 1 calc R . .
C29 C 0.2126(5) 0.2250(2) 0.0788(2) 0.0302(13) Uani 1 1 d U . .
C30 C 0.4309(6) 0.2294(3) -0.0757(2) 0.0387(15) Uani 1 1 d U . .
C31 C 0.3326(7) 0.2550(3) -0.1011(3) 0.062(2) Uani 1 1 d U . .
H31 H 0.2658 0.2692 -0.0844 0.075 Uiso 1 1 calc R . .
C32 C 0.3306(7) 0.2601(3) -0.1503(2) 0.0522(18) Uani 1 1 d U . .
H32 H 0.2599 0.2760 -0.1669 0.063 Uiso 1 1 calc R . .
C33 C 0.4293(6) 0.2424(3) -0.1755(2) 0.0479(17) Uani 1 1 d U . .
C34 C 0.5257(7) 0.2174(4) -0.1499(3) 0.070(2) Uani 1 1 d U . .
H34 H 0.5936 0.2043 -0.1668 0.084 Uiso 1 1 calc R . .
C35 C 0.5296(8) 0.2100(4) -0.1004(3) 0.070(2) Uani 1 1 d U . .
H35 H 0.5979 0.1923 -0.0843 0.084 Uiso 1 1 calc R . .
C36 C 0.4291(6) 0.2497(3) -0.2294(2) 0.0515(18) Uani 1 1 d U . .
C37 C 0.5846(6) 0.3606(3) 0.9476(2) 0.428(17) Uani 1 1 d RU . .
H37A H 0.6645 0.3769 0.9590 0.641 Uiso 1 1 calc R . .
H37B H 0.5559 0.3737 0.9161 0.641 Uiso 1 1 calc R . .
H37C H 0.5991 0.3248 0.9452 0.641 Uiso 1 1 calc R . .
C38 C 0.4745(6) 0.3633(3) 1.0371(2) 0.354(13) Uani 1 1 d RU . .
H38A H 0.5319 0.3364 1.0481 0.531 Uiso 1 1 calc R . .
H38B H 0.3865 0.3550 1.0440 0.531 Uiso 1 1 calc R . .
H38C H 0.5005 0.3939 1.0537 0.531 Uiso 1 1 calc R . .
N1 N 0.4818(6) 0.3704(3) 0.9828(2) 0.412(14) Uani 1 1 d RU . .
H1A H 0.4118 0.3533 0.9699 0.494 Uiso 1 1 calc R . .
H1B H 0.4621 0.4032 0.9781 0.494 Uiso 1 1 calc R . .
O1 O 0.9705(3) 0.26971(13) 0.15053(12) 0.0221(8) Uani 1 1 d U . .
O2 O 0.9476(5) 0.3297(2) 0.05093(19) 0.0612(14) Uani 1 1 d U . .
O3 O 0.9690(5) 0.3801(2) 0.1151(2) 0.0622(14) Uani 1 1 d U . .
O4 O 1.2562(4) 0.28814(17) 0.20118(17) 0.0433(11) Uani 1 1 d U . .
O5 O 1.1419(4) 0.36016(15) 0.20333(15) 0.0361(10) Uani 1 1 d U . .
O6 O 1.7114(4) 0.29980(17) 0.17835(17) 0.0467(12) Uani 1 1 d U . .
O7 O 1.8277(4) 0.36491(16) 0.20625(16) 0.0415(11) Uani 1 1 d U . .
O8 O 1.5874(5) 0.66140(17) 0.32335(18) 0.0512(12) Uani 1 1 d U . .
O9 O 1.3852(4) 0.67106(17) 0.29198(17) 0.0475(11) Uani 1 1 d U . .
O10 O 0.6955(3) 0.21220(14) 0.12588(13) 0.0271(8) Uani 1 1 d U . .
O11 O 0.7906(4) 0.23381(17) 0.05919(14) 0.0372(10) Uani 1 1 d U . .
O12 O 0.2217(4) 0.21736(17) 0.12337(14) 0.0355(10) Uani 1 1 d U . .
O13 O 0.1068(4) 0.23408(18) 0.05397(15) 0.0400(11) Uani 1 1 d U . .
O14 O 0.3300(4) 0.2674(2) -0.25177(16) 0.0546(13) Uani 1 1 d U . .
O15 O 0.5230(6) 0.2327(3) -0.2489(2) 0.088(2) Uani 1 1 d U . .
Zn1 Zn 1.12219(6) 0.23806(2) 0.18285(2) 0.02345(17) Uani 1 1 d U . .
Zn2 Zn 0.82782(6) 0.23343(2) 0.17772(2) 0.02204(17) Uani 1 1 d U . .
Zn3 Zn 0.95543(6) 0.26408(3) 0.08185(2) 0.02825(18) Uani 1 1 d U . .
Zn4 Zn 0.97311(6) 0.33657(2) 0.17495(2) 0.02902(18) Uani 1 1 d U . .

loop_
_atom_site_aniso_label
_atom_site_aniso_U_11
_atom_site_aniso_U_22
_atom_site_aniso_U_33
_atom_site_aniso_U_23
_atom_site_aniso_U_13
_atom_site_aniso_U_12
C1 0.045(4) 0.052(4) 0.070(4) 0.018(3) -0.002(3) -0.003(3)
C2 0.062(4) 0.055(4) 0.074(5) 0.021(4) 0.004(4) -0.008(4)
C3 0.123(7) 0.075(6) 0.082(5) 0.019(5) 0.001(5) -0.002(5)
C4 0.079(5) 0.064(4) 0.070(5) 0.025(4) 0.003(4) -0.004(4)
C5 0.083(5) 0.052(4) 0.063(4) 0.006(4) 0.005(4) -0.008(4)
C6 0.133(7) 0.075(5) 0.090(6) -0.005(5) 0.021(6) -0.007(5)
C7 0.031(3) 0.026(3) 0.044(3) -0.005(3) 0.005(3) -0.003(2)
C8 0.028(3) 0.031(3) 0.049(4) -0.004(3) 0.004(3) -0.001(2)
C9 0.032(3) 0.027(3) 0.053(4) -0.007(3) 0.005(3) 0.000(2)
C10 0.026(3) 0.038(3) 0.054(4) -0.006(3) 0.003(3) 0.000(2)
C11 0.027(3) 0.033(3) 0.061(4) -0.010(3) 0.006(3) -0.003(2)
C12 0.036(3) 0.035(3) 0.064(4) -0.012(3) 0.004(3) 0.002(3)
C13 0.032(3) 0.038(3) 0.068(4) -0.011(3) 0.006(3) 0.002(3)
C14 0.034(3) 0.027(3) 0.051(4) -0.006(3) 0.010(3) 0.006(2)
C15 0.037(3) 0.035(3) 0.066(4) -0.019(3) -0.001(3) -0.005(3)
C16 0.043(4) 0.044(4) 0.084(5) -0.018(4) -0.010(3) 0.009(3)
C17 0.041(3) 0.043(4) 0.076(5) -0.022(4) -0.004(3) 0.000(3)
C18 0.041(3) 0.029(3) 0.053(4) -0.009(3) -0.005(3) -0.001(3)
C19 0.049(4) 0.051(4) 0.078(5) -0.021(4) 0.002(3) 0.006(3)
C20 0.039(4) 0.047(4) 0.087(5) -0.028(4) -0.006(3) -0.003(3)
C21 0.036(3) 0.033(3) 0.031(3) -0.006(3) -0.001(2) -0.001(2)
C22 0.022(3) 0.027(3) 0.026(3) -0.003(2) 0.004(2) -0.001(2)
C23 0.024(3) 0.034(3) 0.030(3) -0.001(2) -0.004(2) 0.001(2)
C24 0.021(3) 0.040(3) 0.022(3) 0.001(2) 0.001(2) -0.001(2)
C25 0.022(3) 0.050(4) 0.029(3) 0.005(3) -0.003(2) -0.002(3)
C26 0.021(3) 0.060(4) 0.028(3) -0.001(3) 0.000(2) 0.002(3)
C27 0.038(3) 0.046(4) 0.024(3) 0.003(3) 0.004(2) 0.003(3)
C28 0.027(3) 0.052(4) 0.026(3) -0.001(3) 0.008(2) -0.002(3)
C29 0.029(3) 0.036(3) 0.026(3) 0.005(2) 0.004(2) 0.002(2)
C30 0.030(3) 0.061(4) 0.025(3) 0.004(3) 0.001(2) -0.003(3)
C31 0.057(4) 0.092(6) 0.039(4) 0.002(4) 0.008(3) 0.017(4)
C32 0.045(4) 0.079(5) 0.032(3) 0.000(3) -0.010(3) 0.015(3)
C33 0.041(3) 0.066(4) 0.037(3) 0.003(3) 0.006(3) 0.005(3)
C34 0.054(4) 0.104(6) 0.053(4) 0.010(4) 0.013(3) 0.025(4)
C35 0.059(4) 0.101(6) 0.049(4) 0.004(4) 0.007(3) 0.026(4)
C36 0.052(4) 0.063(5) 0.041(4) 0.003(3) 0.015(3) 0.015(3)
C37 0.40(2) 0.43(3) 0.45(2) 0.020(18) 0.046(17) -0.030(18)
C38 0.41(2) 0.26(2) 0.391(16) -0.006(17) -0.007(16) 0.019(17)
N1 0.419(16) 0.406(17) 0.411(15) 0.001(10) 0.028(10) 0.001(10)
O1 0.0241(18) 0.0246(19) 0.0173(18) 0.0052(15) -0.0008(14) -0.0005(14)
O2 0.068(3) 0.052(3) 0.063(3) 0.018(3) 0.005(3) 0.002(3)
O3 0.070(3) 0.050(3) 0.066(3) 0.016(3) 0.000(3) -0.003(2)
O4 0.032(2) 0.039(2) 0.059(3) -0.009(2) 0.0005(19) -0.0004(19)
O5 0.024(2) 0.034(2) 0.051(3) -0.010(2) 0.0031(17) 0.0020(17)
O6 0.030(2) 0.043(3) 0.067(3) -0.018(2) 0.004(2) 0.0022(19)
O7 0.026(2) 0.039(2) 0.060(3) -0.012(2) 0.0010(19) -0.0026(18)
O8 0.058(3) 0.032(2) 0.062(3) -0.007(2) -0.009(2) 0.000(2)
O9 0.045(3) 0.039(3) 0.058(3) -0.010(2) 0.000(2) 0.002(2)
O10 0.0243(19) 0.028(2) 0.029(2) -0.0020(16) -0.0019(15) -0.0028(16)
O11 0.027(2) 0.053(3) 0.031(2) 0.000(2) -0.0014(17) -0.0015(19)
O12 0.032(2) 0.048(3) 0.028(2) 0.0024(19) 0.0049(17) 0.0029(18)
O13 0.024(2) 0.066(3) 0.030(2) -0.002(2) -0.0011(17) 0.002(2)
O14 0.050(3) 0.079(4) 0.034(3) 0.000(2) 0.000(2) 0.006(2)
O15 0.093(4) 0.125(5) 0.048(3) 0.007(3) 0.014(3) 0.038(4)
Zn1 0.0219(3) 0.0221(3) 0.0261(3) 0.0030(3) 0.0000(2) -0.0012(2)
Zn2 0.0203(3) 0.0252(3) 0.0206(3) 0.0018(3) 0.0008(2) -0.0015(2)
Zn3 0.0232(3) 0.0354(4) 0.0263(4) 0.0045(3) 0.0027(3) 0.0001(3)
Zn4 0.0231(3) 0.0234(3) 0.0406(4) 0.0008(3) 0.0029(3) -0.0001(3)

_geom_special_details            
; 
 All esds (except the esd in the dihedral angle between two l.s. planes) 
 are estimated using the full covariance matrix.  The cell esds are taken 
 into account individually in the estimation of esds in distances, angles 
 and torsion angles; correlations between esds in cell parameters are only 
 used when they are defined by crystal symmetry.  An approximate (isotropic) 
 treatment of cell esds is used for estimating esds involving l.s. planes. 
;

loop_
_geom_bond_atom_site_label_1
_geom_bond_atom_site_label_2
_geom_bond_distance
_geom_bond_site_symmetry_2
_geom_bond_publ_flag
C1 O3 1.234(9) . ?
C1 O2 1.248(9) . ?
C1 C2 1.548(10) . ?
C2 C4 1.319(12) . ?
C2 C3 1.415(12) . ?
C3 C6 1.390(13) 3_765 ?
C3 H3 0.9400 . ?
C4 C5 1.452(11) . ?
C4 H4 0.9400 . ?
C5 C5 1.340(16) 3_765 ?
C5 C6 1.442(13) . ?
C6 C3 1.390(13) 3_765 ?
C6 H6 0.9400 . ?
C7 O5 1.250(7) . ?
C7 O4 1.290(7) . ?
C7 C8 1.470(8) . ?
C8 C13 1.383(9) . ?
C8 C9 1.407(8) . ?
C9 C10 1.364(8) . ?
C9 H9 0.9400 . ?
C10 C11 1.374(8) . ?
C10 C14 1.522(8) . ?
C11 C12 1.396(8) . ?
C11 H11 0.9400 . ?
C12 C13 1.396(9) . ?
C12 C15 1.486(9) . ?
C13 H13 0.9400 . ?
C14 O6 1.236(7) . ?
C14 O7 1.278(7) . ?
C15 C16 1.367(9) . ?
C15 C20 1.420(9) . ?
C16 C17 1.366(9) . ?
C16 H16 0.9400 . ?
C17 C18 1.410(9) . ?
C17 H17 0.9400 . ?
C18 C19 1.387(9) . ?
C18 C21 1.475(8) . ?
C19 C20 1.399(10) . ?
C19 H19 0.9400 . ?
C20 H20 0.9400 . ?
C21 O8 1.248(7) . ?
C21 O9 1.269(7) . ?
C22 O10 1.249(6) . ?
C22 O11 1.277(6) . ?
C22 C23 1.489(7) . ?
C23 C28 1.389(8) . ?
C23 C24 1.395(7) . ?
C24 C25 1.403(7) . ?
C24 H24 0.9400 . ?
C25 C26 1.384(8) . ?
C25 C29 1.491(8) . ?
C26 C27 1.393(8) . ?
C26 H26 0.9400 . ?
C27 C28 1.426(8) . ?
C27 C30 1.469(8) . ?
C28 H28 0.9400 . ?
C29 O12 1.253(7) . ?
C29 O13 1.278(7) . ?
C30 C35 1.373(9) . ?
C30 C31 1.381(9) . ?
C31 C32 1.374(10) . ?
C31 H31 0.9400 . ?
C32 C33 1.364(9) . ?
C32 H32 0.9400 . ?
C33 C34 1.362(10) . ?
C33 C36 1.510(9) . ?
C34 C35 1.388(11) . ?
C34 H34 0.9400 . ?
C35 H35 0.9400 . ?
C36 O15 1.233(8) . ?
C36 O14 1.257(8) . ?
C37 N1 1.5178 . ?
C37 H37A 0.9700 . ?
C37 H37B 0.9700 . ?
C37 H37C 0.9700 . ?
C38 N1 1.5286 . ?
C38 H38A 0.9700 . ?
C38 H38B 0.9700 . ?
C38 H38C 0.9700 . ?
N1 H1A 0.9100 . ?
N1 H1B 0.9100 . ?
O1 Zn3 1.911(3) . ?
O1 Zn4 1.912(4) . ?
O1 Zn1 1.950(3) . ?
O1 Zn2 1.962(3) . ?
O2 Zn3 1.955(5) . ?
O3 Zn4 2.028(5) . ?
O4 Zn1 1.971(4) . ?
O5 Zn4 1.973(4) . ?
O6 Zn2 2.1