####################################################################### 
# 
# This file contains crystal structure data downloaded from the 
# Cambridge Structural Database (CSD) hosted by the Cambridge 
# Crystallographic Data Centre (CCDC).
# 
# Full information about CCDC data access policies and citation 
# guidelines are available at http://www.ccdc.cam.ac.uk/access/V1 
# 
# Audit and citation data items may have been added by the CCDC. 
# Please retain this information to preserve the provenance of 
# this file and to allow appropriate attribution of the data. 
# 
#######################################################################

data_Ia
_audit_block_doi                 10.5517/cc133c6s
_database_code_depnum_ccdc_archive 'CCDC 1016124'
loop_
_citation_id
_citation_doi
_citation_year
1 10.1021/ic502643m 2015
_audit_update_record             
;
2014-07-25 deposited with the CCDC.	2024-07-12 downloaded from the CCDC.
;

_audit_creation_method           SHELXL-97
_chemical_name_systematic        
; 
 ? 
;
_chemical_name_common            ?
_chemical_melting_point          ?
_chemical_formula_moiety         ?
_chemical_formula_sum            'C36 H24 N O15 Zn4'
_chemical_formula_weight         972.04

loop_
_atom_type_symbol
_atom_type_description
_atom_type_scat_dispersion_real
_atom_type_scat_dispersion_imag
_atom_type_scat_source
C C 0.0033 0.0016 'International Tables Vol C Tables 4.2.6.8 and 6.1.1.4'
H H 0.0000 0.0000 'International Tables Vol C Tables 4.2.6.8 and 6.1.1.4'
N N 0.0061 0.0033 'International Tables Vol C Tables 4.2.6.8 and 6.1.1.4'
O O 0.0106 0.0060 'International Tables Vol C Tables 4.2.6.8 and 6.1.1.4'
Zn Zn 0.2839 1.4301 'International Tables Vol C Tables 4.2.6.8 and 6.1.1.4'

_symmetry_cell_setting           monoclinic
_symmetry_space_group_name_H-M   'P 21/n'
_symmetry_space_group_name_Hall  '-P 2yn'

loop_
_symmetry_equiv_pos_as_xyz
'x, y, z'
'-x+1/2, y+1/2, -z+1/2'
'-x, -y, -z'
'x-1/2, -y-1/2, z-1/2'

_cell_length_a                   10.306(2)
_cell_length_b                   27.776(6)
_cell_length_c                   26.232(5)
_cell_angle_alpha                90.00
_cell_angle_beta                 91.84(3)
_cell_angle_gamma                90.00
_cell_volume                     7506(3)
_cell_formula_units_Z            4
_cell_measurement_temperature    223(2)
_cell_measurement_reflns_used    ?
_cell_measurement_theta_min      ?
_cell_measurement_theta_max      ?

_exptl_crystal_description       block
_exptl_crystal_colour            colorless
_exptl_crystal_size_max          0.20
_exptl_crystal_size_mid          0.20
_exptl_crystal_size_min          0.18
_exptl_crystal_density_meas      ?
_exptl_crystal_density_diffrn    0.860
_exptl_crystal_density_method    'not measured'
_exptl_crystal_F_000             1948
_exptl_absorpt_coefficient_mu    1.299
_exptl_absorpt_correction_type   multi-scan
_exptl_absorpt_correction_T_min  0.7812
_exptl_absorpt_correction_T_max  0.7998
_exptl_absorpt_process_details   ?

_exptl_special_details           
; 
 ? 
;

_diffrn_ambient_temperature      223(2)
_diffrn_radiation_wavelength     0.71073
_diffrn_radiation_type           MoK\a
_diffrn_radiation_source         'fine-focus sealed tube'
_diffrn_radiation_monochromator  graphite
_diffrn_measurement_device_type  ?
_diffrn_measurement_method       ?
_diffrn_detector_area_resol_mean ?
_diffrn_standards_number         ?
_diffrn_standards_interval_count ?
_diffrn_standards_interval_time  ?
_diffrn_standards_decay_%        ?
_diffrn_reflns_number            51632
_diffrn_reflns_av_R_equivalents  0.0512
_diffrn_reflns_av_sigmaI/netI    0.0413
_diffrn_reflns_limit_h_min       -12
_diffrn_reflns_limit_h_max       12
_diffrn_reflns_limit_k_min       -33
_diffrn_reflns_limit_k_max       31
_diffrn_reflns_limit_l_min       -31
_diffrn_reflns_limit_l_max       30
_diffrn_reflns_theta_min         3.03
_diffrn_reflns_theta_max         25.50
_reflns_number_total             13825
_reflns_number_gt                12042
_reflns_threshold_expression     >2sigma(I)

_computing_data_collection       ?
_computing_cell_refinement       ?
_computing_data_reduction        ?
_computing_structure_solution    'SHELXS-97 (Sheldrick, 1990)'
_computing_structure_refinement  'SHELXL-97 (Sheldrick, 1997)'
_computing_molecular_graphics    ?
_computing_publication_material  ?

_refine_special_details          
; 
 Refinement of F^2^ against ALL reflections.  The weighted R-factor wR and 
 goodness of fit S are based on F^2^, conventional R-factors R are based 
 on F, with F set to zero for negative F^2^. The threshold expression of 
 F^2^ > 2sigma(F^2^) is used only for calculating R-factors(gt) etc. and is 
 not relevant to the choice of reflections for refinement.  R-factors based 
 on F^2^ are statistically about twice as large as those based on F, and R- 
 factors based on ALL data will be even larger. 
;

_refine_ls_structure_factor_coef Fsqd
_refine_ls_matrix_type           full
_refine_ls_weighting_scheme      calc
_refine_ls_weighting_details     
'calc w=1/[\s^2^(Fo^2^)+(0.0735P)^2^+8.1785P] where P=(Fo^2^+2Fc^2^)/3'
_atom_sites_solution_primary     direct
_atom_sites_solution_secondary   difmap
_atom_sites_solution_hydrogens   geom
_refine_ls_hydrogen_treatment    constor
_refine_ls_extinction_method     SHELXL
_refine_ls_extinction_coef       0.0008(2)
_refine_ls_extinction_expression Fc^*^=kFc[1+0.001xFc^2^\l^3^/sin(2\q)]^-1/4^
_refine_ls_number_reflns         13825
_refine_ls_number_parameters     499
_refine_ls_number_restraints     506
_refine_ls_R_factor_all          0.0511
_refine_ls_R_factor_gt           0.0455
_refine_ls_wR_factor_ref         0.1384
_refine_ls_wR_factor_gt          0.1329
_refine_ls_goodness_of_fit_ref   1.056
_refine_ls_restrained_S_all      1.066
_refine_ls_shift/su_max          0.002
_refine_ls_shift/su_mean         0.000

loop_
_atom_site_label
_atom_site_type_symbol
_atom_site_fract_x
_atom_site_fract_y
_atom_site_fract_z
_atom_site_U_iso_or_equiv
_atom_site_adp_type
_atom_site_occupancy
_atom_site_symmetry_multiplicity
_atom_site_calc_flag
_atom_site_refinement_flags
_atom_site_disorder_assembly
_atom_site_disorder_group
C1 C 0.3097(3) 0.69610(11) 0.37021(12) 0.0226(6) Uani 1 1 d U . .
C2 C 0.4348(3) 0.70841(12) 0.39815(13) 0.0268(7) Uani 1 1 d U . .
C3 C 0.5500(3) 0.69719(13) 0.37461(12) 0.0276(7) Uani 1 1 d U . .
H3 H 0.5479 0.6842 0.3419 0.033 Uiso 1 1 calc R . .
C4 C 0.6677(3) 0.70533(13) 0.39994(13) 0.0293(7) Uani 1 1 d U . .
C5 C 0.6714(3) 0.72535(14) 0.44854(13) 0.0336(8) Uani 1 1 d U . .
H5 H 0.7511 0.7310 0.4651 0.040 Uiso 1 1 calc R . .
C6 C 0.5568(3) 0.73718(15) 0.47291(13) 0.0350(8) Uani 1 1 d U . .
C7 C 0.4386(3) 0.72776(13) 0.44713(13) 0.0301(7) Uani 1 1 d U . .
H7 H 0.3612 0.7345 0.4630 0.036 Uiso 1 1 calc R . .
C8 C 0.7899(3) 0.68888(13) 0.37543(13) 0.0291(7) Uani 1 1 d U . .
C9 C 0.5612(3) 0.75801(15) 0.52504(14) 0.0385(9) Uani 1 1 d U . .
C10 C 0.6619(4) 0.7475(2) 0.55901(16) 0.0572(13) Uani 1 1 d U . .
H10 H 0.7289 0.7277 0.5487 0.069 Uiso 1 1 calc R . .
C11 C 0.6657(4) 0.76559(19) 0.60783(16) 0.0562(12) Uani 1 1 d U . .
H11 H 0.7349 0.7578 0.6299 0.067 Uiso 1 1 calc R . .
C12 C 0.5688(4) 0.79508(15) 0.62442(14) 0.0387(9) Uani 1 1 d U . .
C13 C 0.4669(4) 0.80610(17) 0.59089(16) 0.0482(11) Uani 1 1 d U . .
H13 H 0.4008 0.8263 0.6011 0.058 Uiso 1 1 calc R . .
C14 C 0.4632(4) 0.78711(18) 0.54225(16) 0.0502(11) Uani 1 1 d U . .
H14 H 0.3928 0.7941 0.5205 0.060 Uiso 1 1 calc R . .
C15 C 0.5726(3) 0.81453(14) 0.67795(13) 0.0326(8) Uani 1 1 d U . .
C16 C -0.2231(3) 0.56723(11) 0.25418(12) 0.0222(6) Uani 1 1 d U . .
C17 C -0.3483(3) 0.53958(11) 0.24951(12) 0.0239(6) Uani 1 1 d U . .
C18 C -0.4641(3) 0.56407(11) 0.25231(13) 0.0247(6) Uani 1 1 d U . .
H18 H -0.4643 0.5975 0.2547 0.030 Uiso 1 1 calc R . .
C19 C -0.5804(3) 0.53892(11) 0.25155(13) 0.0253(7) Uani 1 1 d U . .
C20 C -0.5799(3) 0.48911(11) 0.24635(14) 0.0288(7) Uani 1 1 d U . .
H20 H -0.6582 0.4724 0.2454 0.035 Uiso 1 1 calc R . .
C21 C -0.4631(3) 0.46359(12) 0.24248(15) 0.0314(7) Uani 1 1 d U . .
C22 C -0.3475(3) 0.48999(12) 0.24518(14) 0.0287(7) Uani 1 1 d U . .
H22 H -0.2685 0.4739 0.2440 0.034 Uiso 1 1 calc R . .
C23 C -0.7051(3) 0.56575(11) 0.25889(13) 0.0248(7) Uani 1 1 d U . .
C24 C -0.4643(3) 0.41082(12) 0.23673(16) 0.0364(8) Uani 1 1 d U . .
C25 C -0.5666(4) 0.38767(15) 0.2113(2) 0.0550(12) Uani 1 1 d U . .
H25 H -0.6351 0.4056 0.1972 0.066 Uiso 1 1 calc R . .
C26 C -0.5673(4) 0.33776(15) 0.2066(2) 0.0553(12) Uani 1 1 d U . .
H26 H -0.6369 0.3228 0.1896 0.066 Uiso 1 1 calc R . .
C27 C -0.4683(4) 0.31025(13) 0.22630(17) 0.0411(9) Uani 1 1 d U . .
C28 C -0.3656(4) 0.33315(14) 0.2508(2) 0.0522(12) Uani 1 1 d U . .
H28 H -0.2968 0.3150 0.2642 0.063 Uiso 1 1 calc R . .
C29 C -0.3629(4) 0.38242(14) 0.2559(2) 0.0531(12) Uani 1 1 d U . .
H29 H -0.2921 0.3970 0.2725 0.064 Uiso 1 1 calc R . .
C30 C -0.4720(4) 0.25666(13) 0.22077(17) 0.0430(9) Uani 1 1 d U . .
C31 C 0.0327(4) 0.56008(14) 0.41080(15) 0.0367(8) Uani 1 1 d U . .
C32 C 0.0152(4) 0.52890(15) 0.45724(15) 0.0420(9) Uani 1 1 d U . .
C33 C 0.0128(6) 0.48039(19) 0.45325(19) 0.0696(15) Uani 1 1 d U . .
H33 H 0.0245 0.4660 0.4217 0.084 Uiso 1 1 calc R . .
C34 C 0.0070(6) 0.54809(18) 0.50430(17) 0.0711(15) Uani 1 1 d U . .
H34 H 0.0149 0.5812 0.5083 0.085 Uiso 1 1 calc R . .
N1 N 0.4992(6) 0.53512(18) 0.39280(17) 0.484(14) Uani 1 1 d RU . .
H1A H 0.4796 0.5158 0.3661 0.581 Uiso 1 1 calc R . .
H1B H 0.4873 0.5177 0.4212 0.581 Uiso 1 1 calc R . .
C35 C 0.6327(6) 0.54569(18) 0.39120(17) 0.308(8) Uani 1 1 d RU . .
H35A H 0.6441 0.5795 0.3851 0.463 Uiso 1 1 calc R . .
H35B H 0.6706 0.5276 0.3643 0.463 Uiso 1 1 calc R . .
H35C H 0.6744 0.5372 0.4232 0.463 Uiso 1 1 calc R . .
C36 C 0.4100(6) 0.57119(18) 0.39222(17) 0.463(15) Uani 1 1 d RU . .
H36A H 0.4499 0.6002 0.4049 0.694 Uiso 1 1 calc R . .
H36B H 0.3395 0.5625 0.4134 0.694 Uiso 1 1 calc R . .
H36C H 0.3776 0.5763 0.3579 0.694 Uiso 1 1 calc R . .
O1 O 0.04229(17) 0.63662(7) 0.30456(7) 0.0154(4) Uani 1 1 d U . .
O2 O 0.2099(2) 0.69135(9) 0.39667(9) 0.0277(5) Uani 1 1 d U . .
O3 O 0.3158(2) 0.69061(9) 0.32303(9) 0.0314(5) Uani 1 1 d U . .
O4 O 0.7784(2) 0.66732(11) 0.33416(11) 0.0433(7) Uani 1 1 d U . .
O5 O 0.8961(2) 0.69725(9) 0.39923(10) 0.0342(6) Uani 1 1 d U . .
O6 O 0.6728(2) 0.80427(10) 0.70500(10) 0.0405(6) Uani 1 1 d U . .
O7 O 0.4787(3) 0.83823(10) 0.69270(10) 0.0405(6) Uani 1 1 d U . .
O8 O -0.2298(2) 0.61148(8) 0.24523(9) 0.0244(5) Uani 1 1 d U . .
O9 O -0.1221(2) 0.54424(8) 0.26697(10) 0.0313(5) Uani 1 1 d U . .
O10 O -0.7017(2) 0.61004(8) 0.25430(10) 0.0336(6) Uani 1 1 d U . .
O11 O -0.8044(2) 0.54094(8) 0.26968(9) 0.0298(5) Uani 1 1 d U . .
O12 O -0.5677(3) 0.23804(11) 0.19919(15) 0.0675(10) Uani 1 1 d U . .
O13 O -0.3778(3) 0.23345(9) 0.24053(12) 0.0470(7) Uani 1 1 d U . .
O14 O 0.0416(3) 0.60414(10) 0.41799(10) 0.0476(7) Uani 1 1 d U . .
O15 O 0.0359(3) 0.53896(10) 0.36828(10) 0.0439(7) Uani 1 1 d U . .
Zn1 Zn 0.18552(3) 0.668494(12) 0.272614(13) 0.01769(11) Uani 1 1 d U . .
Zn2 Zn -0.10807(3) 0.663264(12) 0.266623(13) 0.01795(11) Uani 1 1 d U . .
Zn3 Zn 0.04443(3) 0.662907(13) 0.372541(14) 0.02212(11) Uani 1 1 d U . .
Zn4 Zn 0.04077(3) 0.567871(12) 0.299933(13) 0.01942(11) Uani 1 1 d U . .

loop_
_atom_site_aniso_label
_atom_site_aniso_U_11
_atom_site_aniso_U_22
_atom_site_aniso_U_33
_atom_site_aniso_U_23
_atom_site_aniso_U_13
_atom_site_aniso_U_12
C1 0.0187(14) 0.0274(15) 0.0216(15) -0.0048(12) -0.0018(12) 0.0029(12)
C2 0.0203(15) 0.0328(17) 0.0272(16) -0.0077(13) -0.0009(13) -0.0011(13)
C3 0.0233(15) 0.0396(19) 0.0199(15) -0.0090(13) 0.0015(12) -0.0001(13)
C4 0.0198(15) 0.0403(19) 0.0278(17) -0.0097(14) 0.0014(13) 0.0016(13)
C5 0.0212(15) 0.049(2) 0.0301(18) -0.0160(16) -0.0038(13) 0.0009(14)
C6 0.0249(16) 0.051(2) 0.0286(17) -0.0148(16) -0.0031(14) 0.0038(15)
C7 0.0200(15) 0.046(2) 0.0247(16) -0.0107(14) 0.0018(13) 0.0028(14)
C8 0.0203(15) 0.0362(18) 0.0309(17) -0.0068(14) 0.0042(13) 0.0010(13)
C9 0.0264(17) 0.057(2) 0.0320(19) -0.0197(17) -0.0013(14) 0.0034(16)
C10 0.040(2) 0.091(3) 0.041(2) -0.030(2) -0.0048(18) 0.020(2)
C11 0.044(2) 0.085(3) 0.039(2) -0.028(2) -0.0145(18) 0.021(2)
C12 0.0327(18) 0.057(2) 0.0265(18) -0.0128(16) -0.0028(14) 0.0020(16)
C13 0.038(2) 0.069(3) 0.038(2) -0.0170(19) -0.0016(17) 0.0195(19)
C14 0.036(2) 0.076(3) 0.038(2) -0.021(2) -0.0086(17) 0.015(2)
C15 0.0357(18) 0.0394(19) 0.0230(16) -0.0113(14) 0.0041(14) 0.0010(15)
C16 0.0192(14) 0.0203(14) 0.0272(16) -0.0038(12) 0.0029(12) -0.0022(11)
C17 0.0167(14) 0.0228(15) 0.0322(17) -0.0021(13) 0.0014(12) -0.0023(12)
C18 0.0220(15) 0.0166(14) 0.0355(17) -0.0010(12) 0.0011(13) -0.0011(11)
C19 0.0191(14) 0.0226(15) 0.0343(17) -0.0028(13) 0.0012(13) 0.0001(12)
C20 0.0205(15) 0.0202(15) 0.046(2) -0.0011(14) 0.0023(14) -0.0027(12)
C21 0.0224(15) 0.0237(16) 0.048(2) -0.0030(15) 0.0007(14) -0.0017(13)
C22 0.0189(14) 0.0212(15) 0.046(2) -0.0033(14) 0.0023(14) 0.0025(12)
C23 0.0197(14) 0.0242(15) 0.0303(17) -0.0032(13) -0.0019(12) 0.0028(12)
C24 0.0256(16) 0.0215(16) 0.062(2) -0.0036(16) -0.0029(16) -0.0006(13)
C25 0.042(2) 0.032(2) 0.091(3) -0.004(2) -0.015(2) 0.0014(17)
C26 0.044(2) 0.032(2) 0.088(4) -0.005(2) -0.020(2) -0.0044(17)
C27 0.0370(19) 0.0219(17) 0.064(3) -0.0024(16) -0.0020(18) -0.0005(14)
C28 0.039(2) 0.0287(19) 0.088(3) -0.001(2) -0.014(2) 0.0070(16)
C29 0.039(2) 0.0278(19) 0.091(3) -0.006(2) -0.019(2) -0.0022(16)
C30 0.040(2) 0.0239(18) 0.065(3) -0.0066(17) -0.0051(18) -0.0017(15)
C31 0.0388(19) 0.0347(19) 0.0364(19) 0.0132(15) -0.0013(16) -0.0020(15)
C32 0.050(2) 0.042(2) 0.0340(19) 0.0134(16) 0.0006(17) -0.0023(17)
C33 0.111(4) 0.054(3) 0.044(3) 0.010(2) 0.010(3) -0.006(3)
C34 0.117(4) 0.046(3) 0.051(3) 0.012(2) 0.007(3) -0.007(3)
N1 0.485(15) 0.492(16) 0.476(17) 0.022(10) 0.014(10) 0.016(9)
C35 0.398(14) 0.404(18) 0.124(10) 0.022(11) 0.019(11) 0.169(13)
C36 0.420(18) 0.54(2) 0.43(2) -0.054(18) 0.067(17) 0.034(16)
O1 0.0153(9) 0.0144(9) 0.0166(9) 0.0022(7) 0.0000(7) -0.0004(7)
O2 0.0190(11) 0.0392(13) 0.0249(11) -0.0026(10) -0.0011(9) -0.0016(9)
O3 0.0203(11) 0.0471(15) 0.0266(12) -0.0099(11) -0.0006(9) -0.0017(10)
O4 0.0249(12) 0.0652(19) 0.0402(15) -0.0255(13) 0.0081(11) -0.0043(12)
O5 0.0211(11) 0.0456(15) 0.0357(13) -0.0109(11) -0.0008(10) 0.0002(10)
O6 0.0371(14) 0.0529(16) 0.0310(13) -0.0180(12) -0.0081(11) 0.0076(12)
O7 0.0442(15) 0.0519(17) 0.0254(13) -0.0084(11) 0.0023(11) 0.0133(12)
O8 0.0208(10) 0.0227(11) 0.0296(12) -0.0016(9) 0.0003(9) -0.0049(8)
O9 0.0190(11) 0.0246(12) 0.0500(15) -0.0023(10) -0.0020(10) -0.0017(9)
O10 0.0266(12) 0.0223(12) 0.0522(16) -0.0006(11) 0.0076(11) 0.0017(9)
O11 0.0208(11) 0.0244(12) 0.0445(14) -0.0029(10) 0.0065(10) -0.0021(9)
O12 0.068(2) 0.0300(15) 0.103(3) -0.0010(16) -0.0312(19) -0.0026(14)
O13 0.0455(15) 0.0210(13) 0.073(2) -0.0034(12) -0.0146(14) 0.0009(11)
O14 0.0682(19) 0.0431(16) 0.0315(14) 0.0130(12) 0.0009(13) -0.0057(14)
O15 0.0614(18) 0.0368(14) 0.0336(14) 0.0143(11) 0.0055(13) 0.0007(13)
Zn1 0.01607(18) 0.02030(18) 0.01659(19) 0.00344(12) -0.00134(13) -0.00211(12)
Zn2 0.01603(18) 0.01551(18) 0.0221(2) 0.00191(12) -0.00243(14) -0.00110(12)
Zn3 0.01654(18) 0.0305(2) 0.0193(2) -0.00160(14) 0.00082(14) -0.00030(13)
Zn4 0.01669(18) 0.01735(18) 0.0243(2) 0.00359(13) 0.00116(14) 0.00006(12)

_geom_special_details            
; 
 All esds (except the esd in the dihedral angle between two l.s. planes) 
 are estimated using the full covariance matrix.  The cell esds are taken 
 into account individually in the estimation of esds in distances, angles 
 and torsion angles; correlations between esds in cell parameters are only 
 used when they are defined by crystal symmetry.  An approximate (isotropic) 
 treatment of cell esds is used for estimating esds involving l.s. planes. 
;

loop_
_geom_bond_atom_site_label_1
_geom_bond_atom_site_label_2
_geom_bond_distance
_geom_bond_site_symmetry_2
_geom_bond_publ_flag
C1 O3 1.251(4) . ?
C1 O2 1.266(4) . ?
C1 C2 1.502(4) . ?
C2 C3 1.391(5) . ?
C2 C7 1.392(4) . ?
C3 C4 1.383(4) . ?
C3 H3 0.9300 . ?
C4 C5 1.390(5) . ?
C4 C8 1.504(4) . ?
C5 C6 1.400(5) . ?
C5 H5 0.9300 . ?
C6 C7 1.399(5) . ?
C6 C9 1.484(5) . ?
C7 H7 0.9300 . ?
C8 O4 1.240(4) . ?
C8 O5 1.264(4) . ?
C9 C10 1.378(6) . ?
C9 C14 1.380(5) . ?
C10 C11 1.375(6) . ?
C10 H10 0.9300 . ?
C11 C12 1.374(6) . ?
C11 H11 0.9300 . ?
C12 C13 1.382(5) . ?
C12 C15 1.504(5) . ?
C13 C14 1.380(5) . ?
C13 H13 0.9300 . ?
C14 H14 0.9300 . ?
C15 O7 1.243(4) . ?
C15 O6 1.266(4) . ?
C16 O8 1.253(4) . ?
C16 O9 1.257(4) . ?
C16 C17 1.503(4) . ?
C17 C18 1.378(4) . ?
C17 C22 1.382(4) . ?
C18 C19 1.386(4) . ?
C18 H18 0.9300 . ?
C19 C20 1.390(4) . ?
C19 C23 1.504(4) . ?
C20 C21 1.404(5) . ?
C20 H20 0.9300 . ?
C21 C22 1.399(4) . ?
C21 C24 1.474(5) . ?
C22 H22 0.9300 . ?
C23 O10 1.237(4) . ?
C23 O11 1.273(4) . ?
C24 C25 1.388(5) . ?
C24 C29 1.391(5) . ?
C25 C26 1.392(6) . ?
C25 H25 0.9300 . ?
C26 C27 1.363(6) . ?
C26 H26 0.9300 . ?
C27 C28 1.376(6) . ?
C27 C30 1.496(5) . ?
C28 C