####################################################################### 
# 
# This file contains crystal structure data downloaded from the 
# Cambridge Structural Database (CSD) hosted by the Cambridge 
# Crystallographic Data Centre (CCDC).
# 
# Full information about CCDC data access policies and citation 
# guidelines are available at http://www.ccdc.cam.ac.uk/access/V1 
# 
# Audit and citation data items may have been added by the CCDC. 
# Please retain this information to preserve the provenance of 
# this file and to allow appropriate attribution of the data. 
# 
#######################################################################

data_shelxl
_audit_block_doi                 10.5517/cc12tmr8
_database_code_depnum_ccdc_archive 'CCDC 1007740'
loop_
_citation_id
_citation_doi
_citation_year
1 10.1002/chem.201405168 2015
_audit_update_record             
;
2014-06-11 deposited with the CCDC.	2024-07-12 downloaded from the CCDC.
;

_audit_creation_method           SHELXL-97
_chemical_name_systematic        
; 
 ? 
;
_chemical_name_common            ?
_chemical_melting_point          ?
_chemical_formula_moiety         ?
_chemical_formula_sum            'C24 H29 La N6 O13'
_chemical_formula_weight         748.44

loop_
_atom_type_symbol
_atom_type_description
_atom_type_scat_dispersion_real
_atom_type_scat_dispersion_imag
_atom_type_scat_source
C C 0.0033 0.0016 'International Tables Vol C Tables 4.2.6.8 and 6.1.1.4'
H H 0.0000 0.0000 'International Tables Vol C Tables 4.2.6.8 and 6.1.1.4'
N N 0.0061 0.0033 'International Tables Vol C Tables 4.2.6.8 and 6.1.1.4'
O O 0.0106 0.0060 'International Tables Vol C Tables 4.2.6.8 and 6.1.1.4'
La La -0.2871 2.4523 'International Tables Vol C Tables 4.2.6.8 and 6.1.1.4'

_symmetry_cell_setting           monoclinic
_symmetry_space_group_name_H-M   'C c'

loop_
_symmetry_equiv_pos_as_xyz
'x, y, z'
'x, -y, z+1/2'
'x+1/2, y+1/2, z'
'x+1/2, -y+1/2, z+1/2'

_cell_length_a                   24.434
_cell_length_b                   18.364
_cell_length_c                   8.259
_cell_angle_alpha                90.00
_cell_angle_beta                 101.72
_cell_angle_gamma                90.00
_cell_volume                     3628.5
_cell_formula_units_Z            4
_cell_measurement_temperature    293(2)
_cell_measurement_reflns_used    ?
_cell_measurement_theta_min      ?
_cell_measurement_theta_max      ?

_exptl_crystal_description       ?
_exptl_crystal_colour            ?
_exptl_crystal_size_max          ?
_exptl_crystal_size_mid          ?
_exptl_crystal_size_min          ?
_exptl_crystal_density_meas      ?
_exptl_crystal_density_diffrn    1.370
_exptl_crystal_density_method    'not measured'
_exptl_crystal_F_000             1504
_exptl_absorpt_coefficient_mu    1.238
_exptl_absorpt_correction_type   ?
_exptl_absorpt_correction_T_min  ?
_exptl_absorpt_correction_T_max  ?
_exptl_absorpt_process_details   ?

_exptl_special_details           
; 
 ? 
;

_diffrn_ambient_temperature      293(2)
_diffrn_radiation_wavelength     0.71073
_diffrn_radiation_type           MoK\a
_diffrn_radiation_source         'fine-focus sealed tube'
_diffrn_radiation_monochromator  graphite
_diffrn_measurement_device_type  ?
_diffrn_measurement_method       ?
_diffrn_detector_area_resol_mean ?
_diffrn_standards_number         ?
_diffrn_standards_interval_count ?
_diffrn_standards_interval_time  ?
_diffrn_standards_decay_%        ?
_diffrn_reflns_number            7337
_diffrn_reflns_av_R_equivalents  0.0579
_diffrn_reflns_av_sigmaI/netI    0.1189
_diffrn_reflns_limit_h_min       -25
_diffrn_reflns_limit_h_max       30
_diffrn_reflns_limit_k_min       -14
_diffrn_reflns_limit_k_max       23
_diffrn_reflns_limit_l_min       -10
_diffrn_reflns_limit_l_max       6
_diffrn_reflns_theta_min         3.03
_diffrn_reflns_theta_max         26.99
_reflns_number_total             4914
_reflns_number_gt                3736
_reflns_threshold_expression     >2sigma(I)

_computing_data_collection       ?
_computing_cell_refinement       ?
_computing_data_reduction        ?
_computing_structure_solution    'SHELXS-97 (Sheldrick, 1990)'
_computing_structure_refinement  'SHELXL-97 (Sheldrick, 1997)'
_computing_molecular_graphics    ?
_computing_publication_material  ?

_refine_special_details          
; 
 Refinement of F^2^ against ALL reflections.  The weighted R-factor wR and 
 goodness of fit S are based on F^2^, conventional R-factors R are based 
 on F, with F set to zero for negative F^2^. The threshold expression of 
 F^2^ > 2sigma(F^2^) is used only for calculating R-factors(gt) etc. and is 
 not relevant to the choice of reflections for refinement.  R-factors based 
 on F^2^ are statistically about twice as large as those based on F, and R- 
 factors based on ALL data will be even larger. 
;

_refine_ls_structure_factor_coef Fsqd
_refine_ls_matrix_type           full
_refine_ls_weighting_scheme      calc
_refine_ls_weighting_details     
'calc w=1/[\s^2^(Fo^2^)+(0.0606P)^2^+0.0000P] where P=(Fo^2^+2Fc^2^)/3'
_atom_sites_solution_primary     direct
_atom_sites_solution_secondary   difmap
_atom_sites_solution_hydrogens   geom
_refine_ls_hydrogen_treatment    mixed
_refine_ls_extinction_method     none
_refine_ls_extinction_coef       ?
_refine_ls_abs_structure_details 'Flack H D (1983), Acta Cryst. A39, 876-881'
_refine_ls_abs_structure_Flack   0.00(3)
_refine_ls_number_reflns         4914
_refine_ls_number_parameters     398
_refine_ls_number_restraints     2
_refine_ls_R_factor_all          0.0938
_refine_ls_R_factor_gt           0.0633
_refine_ls_wR_factor_ref         0.1427
_refine_ls_wR_factor_gt          0.1310
_refine_ls_goodness_of_fit_ref   1.061
_refine_ls_restrained_S_all      1.061
_refine_ls_shift/su_max          0.000
_refine_ls_shift/su_mean         0.000

loop_
_atom_site_label
_atom_site_type_symbol
_atom_site_fract_x
_atom_site_fract_y
_atom_site_fract_z
_atom_site_U_iso_or_equiv
_atom_site_adp_type
_atom_site_occupancy
_atom_site_symmetry_multiplicity
_atom_site_calc_flag
_atom_site_refinement_flags
_atom_site_disorder_assembly
_atom_site_disorder_group
C1 C 0.3506(5) 0.5452(7) 0.9392(15) 0.025(3) Uani 1 1 d . . .
C2 C 0.3896(6) 0.4418(6) 0.8753(15) 0.029(3) Uani 1 1 d . . .
C3 C 0.4263(5) 0.5506(6) 0.8213(14) 0.027(3) Uani 1 1 d . . .
C4 C 0.2961(6) 0.6491(6) 1.0283(15) 0.031(3) Uani 1 1 d . . .
C5 C 0.3704(5) 0.3137(6) 0.9336(14) 0.024(3) Uani 1 1 d . . .
C6 C 0.3290(6) 0.3241(6) 1.0216(16) 0.034(3) Uani 1 1 d . . .
H6 H 0.3193 0.3710 1.0476 0.041 Uiso 1 1 calc R . .
C7 C 0.3848(6) 0.2424(7) 0.9037(16) 0.033(3) Uani 1 1 d . . .
H7 H 0.4139 0.2342 0.8487 0.039 Uiso 1 1 calc R . .
C8 C 0.5062(5) 0.5795(6) 0.6859(13) 0.018(2) Uani 1 1 d . . .
C9 C 0.5267(5) 0.5110(7) 0.6702(14) 0.029(3) Uani 1 1 d . . .
H9 H 0.5098 0.4712 0.7095 0.035 Uiso 1 1 calc R . .
C10 C 0.5727(5) 0.4996(5) 0.5960(16) 0.026(3) Uani 1 1 d . . .
H10 H 0.5858 0.4526 0.5866 0.031 Uiso 1 1 calc R . .
C11 C 0.5988(5) 0.5572(7) 0.5371(14) 0.027(3) Uani 1 1 d . . .
C12 C 0.5789(6) 0.6265(7) 0.5521(16) 0.038(4) Uani 1 1 d . . .
H12 H 0.5969 0.6664 0.5174 0.046 Uiso 1 1 calc R . .
C13 C 0.5320(6) 0.6365(7) 0.6189(18) 0.044(4) Uani 1 1 d . . .
H13 H 0.5170 0.6831 0.6192 0.052 Uiso 1 1 calc R . .
C14 C 0.6483(5) 0.5445(6) 0.4640(13) 0.020(3) Uani 1 1 d . . .
C15 C 0.7840(6) 0.3684(7) 0.5884(14) 0.028(3) Uani 1 1 d . . .
C16 C 0.8156(6) 0.3072(6) 0.5403(14) 0.027(3) Uani 1 1 d . . .
C17 C 0.8007(6) 0.2380(7) 0.5735(16) 0.038(4) Uani 1 1 d . . .
H17 H 0.7720 0.2307 0.6302 0.045 Uiso 1 1 calc R . .
C18 C 0.8574(6) 0.3162(6) 0.4527(15) 0.033(3) Uani 1 1 d . . .
H18 H 0.8672 0.3630 0.4262 0.039 Uiso 1 1 calc R . .
C19 C 0.7504(5) 0.3652(7) 1.1463(15) 0.029(3) Uani 1 1 d . . .
C20 C 0.7635(5) 0.2903(6) 1.0985(15) 0.025(3) Uani 1 1 d . . .
C21 C 0.8083(5) 0.2774(7) 1.0202(16) 0.031(3) Uani 1 1 d . . .
H21 H 0.8285 0.3167 0.9926 0.037 Uiso 1 1 calc R . .
C22 C 0.8229(6) 0.2090(6) 0.9835(15) 0.032(3) Uani 1 1 d . . .
H22 H 0.8517 0.2027 0.9267 0.039 Uiso 1 1 calc R . .
C23 C 0.7372(6) 0.2302(6) 1.1479(19) 0.042(4) Uani 1 1 d . . .
H23 H 0.7089 0.2364 1.2067 0.050 Uiso 1 1 calc R . .
C24 C 0.7524(6) 0.1621(7) 1.1108(18) 0.043(4) Uani 1 1 d . . .
H24 H 0.7330 0.1225 1.1414 0.051 Uiso 1 1 calc R . .
N1 N 0.4289(4) 0.4792(5) 0.8074(12) 0.026(2) Uani 1 1 d . . .
N2 N 0.3884(5) 0.5876(5) 0.8906(13) 0.030(3) Uani 1 1 d . . .
N3 N 0.3500(5) 0.4724(5) 0.9368(13) 0.033(3) Uani 1 1 d . . .
N4 N 0.3965(5) 0.3682(5) 0.8706(13) 0.032(3) Uani 1 1 d . . .
H4 H 0.4218 0.3543 0.8187 0.039 Uiso 1 1 calc R . .
N5 N 0.3096(5) 0.5764(5) 1.0048(14) 0.037(3) Uani 1 1 d . . .
H5 H 0.2878 0.5456 1.0383 0.045 Uiso 1 1 calc R . .
N6 N 0.4632(5) 0.5965(5) 0.7617(14) 0.035(3) Uani 1 1 d . . .
H6A H 0.4582 0.6423 0.7748 0.042 Uiso 1 1 calc R . .
O1 O 0.6793(3) 0.4876(4) 0.5133(9) 0.0271(18) Uani 1 1 d . . .
O2 O 0.7938(4) 0.4329(4) 0.5408(10) 0.032(2) Uani 1 1 d . . .
O3 O 0.7514(4) 0.3592(4) 0.6899(11) 0.037(2) Uani 1 1 d . . .
O4 O 0.7170(4) 0.3779(4) 1.2399(10) 0.028(2) Uani 1 1 d . . .
O5 O 0.7774(4) 0.4190(4) 1.0936(9) 0.0250(19) Uani 1 1 d . . .
O6 O 0.8543(4) 0.4662(6) 0.8681(11) 0.050(3) Uani 1 1 d . . .
O8 O 0.6618(3) 0.5878(4) 0.3586(10) 0.027(2) Uani 1 1 d . . .
OW1 O 0.4462(8) 0.7630(11) 0.818(2) 0.155(7) Uani 1 1 d . . .
OW2 O 0.6540(7) 0.6979(8) 0.9432(19) 0.106(5) Uani 1 1 d . . .
OW3 O 0.5868(6) 0.3108(7) 0.6738(17) 0.093(4) Uani 1 1 d . . .
OW4 O 0.4704(6) 0.3107(7) 0.6410(16) 0.092(4) Uani 1 1 d . . .
OW5 O 0.9271(9) 0.5138(15) 0.668(3) 0.214(12) Uani 1 1 d . . .
OW6 O 0.2196(13) 0.4640(13) 1.092(5) 0.282(18) Uani 1 1 d . . .
La1 La 0.74737(4) 0.48604(3) 0.80396(6) 0.02148(17) Uani 1 1 d . . .

loop_
_atom_site_aniso_label
_atom_site_aniso_U_11
_atom_site_aniso_U_22
_atom_site_aniso_U_33
_atom_site_aniso_U_23
_atom_site_aniso_U_13
_atom_site_aniso_U_12
C1 0.017(7) 0.022(6) 0.040(7) 0.008(6) 0.016(5) 0.007(5)
C2 0.032(8) 0.025(7) 0.034(7) -0.002(6) 0.019(6) -0.002(6)
C3 0.033(8) 0.020(7) 0.033(7) 0.000(6) 0.020(6) 0.010(6)
C4 0.039(8) 0.024(7) 0.037(7) 0.010(6) 0.023(6) 0.012(6)
C5 0.032(8) 0.019(6) 0.023(6) 0.000(5) 0.012(5) 0.005(5)
C6 0.049(9) 0.008(6) 0.055(9) 0.007(6) 0.030(7) 0.000(6)
C7 0.028(8) 0.035(7) 0.041(8) 0.001(6) 0.019(6) -0.004(6)
C8 0.013(6) 0.016(6) 0.024(6) 0.003(5) 0.002(5) 0.004(5)
C9 0.038(7) 0.026(6) 0.028(6) 0.014(6) 0.017(6) -0.006(6)
C10 0.018(6) 0.013(7) 0.046(8) -0.004(5) 0.002(5) 0.000(4)
C11 0.031(8) 0.029(7) 0.025(6) -0.002(6) 0.017(6) 0.003(6)
C12 0.062(11) 0.022(7) 0.039(8) 0.008(6) 0.027(7) -0.018(7)
C13 0.047(9) 0.024(7) 0.073(11) 0.021(7) 0.044(8) 0.021(7)
C14 0.022(7) 0.021(6) 0.017(6) -0.002(5) 0.004(5) -0.003(5)
C15 0.040(9) 0.022(7) 0.020(7) -0.005(6) 0.006(6) 0.005(6)
C16 0.054(9) 0.011(6) 0.022(7) 0.006(5) 0.017(6) 0.013(6)
C17 0.055(11) 0.032(8) 0.034(8) 0.010(6) 0.027(8) 0.011(7)
C18 0.053(10) 0.023(7) 0.027(7) 0.005(6) 0.020(6) 0.009(6)
C19 0.032(8) 0.029(7) 0.025(7) -0.002(6) 0.003(6) 0.001(6)
C20 0.012(6) 0.028(7) 0.037(7) -0.001(6) 0.011(5) 0.004(5)
C21 0.030(8) 0.021(7) 0.049(9) -0.011(6) 0.022(7) -0.009(6)
C22 0.040(9) 0.033(8) 0.032(7) 0.011(6) 0.026(6) 0.007(6)
C23 0.046(10) 0.023(7) 0.066(11) -0.006(7) 0.034(9) 0.001(6)
C24 0.041(9) 0.018(7) 0.079(11) 0.003(7) 0.034(9) 0.002(6)
N1 0.032(6) 0.019(6) 0.033(6) -0.008(5) 0.019(5) 0.004(5)
N2 0.040(7) 0.015(5) 0.040(6) -0.003(5) 0.022(5) 0.004(5)
N3 0.048(7) 0.013(6) 0.045(6) 0.003(5) 0.028(6) -0.002(5)
N4 0.041(7) 0.012(5) 0.052(7) 0.004(5) 0.029(6) 0.004(5)
N5 0.035(7) 0.019(6) 0.072(8) 0.001(6) 0.042(6) -0.011(5)
N6 0.045(7) 0.013(5) 0.058(7) 0.010(5) 0.034(6) 0.008(5)
O1 0.032(5) 0.025(4) 0.027(4) 0.001(4) 0.011(4) -0.003(4)
O2 0.051(7) 0.016(5) 0.031(5) -0.001(4) 0.013(4) 0.009(4)
O3 0.051(7) 0.031(5) 0.037(5) 0.003(4) 0.028(5) 0.013(5)
O4 0.034(5) 0.025(4) 0.031(5) -0.004(4) 0.021(4) 0.004(4)
O5 0.029(5) 0.018(4) 0.031(5) 0.002(4) 0.014(4) -0.002(4)
O6 0.033(6) 0.076(8) 0.044(6) -0.004(6) 0.017(5) 0.000(5)
O8 0.030(5) 0.026(5) 0.030(5) 0.004(4) 0.016(4) -0.007(4)
OW1 0.129(18) 0.192(19) 0.145(16) 0.004(14) 0.029(14) 0.034(14)
OW2 0.100(13) 0.117(12) 0.116(12) -0.024(10) 0.054(10) 0.012(10)
OW3 0.096(12) 0.085(9) 0.106(10) -0.023(8) 0.036(9) -0.031(8)
OW4 0.103(12) 0.098(10) 0.083(10) 0.007(8) 0.040(9) -0.003(8)
OW5 0.111(17) 0.43(4) 0.109(16) 0.013(18) 0.030(13) 0.03(2)
OW6 0.21(3) 0.18(2) 0.50(5) -0.08(3) 0.16(3) -0.01(2)
La1 0.0285(3) 0.0170(3) 0.0229(3) -0.0004(8) 0.0146(2) 0.0005(8)

_geom_special_details            
; 
 All esds (except the esd in the dihedral angle between two l.s. planes) 
 are estimated using the full covariance matrix.  The cell esds are taken 
 into account individually in the estimation of esds in distances, angles 
 and torsion angles; correlations between esds in cell parameters are only 
 used when they are defined by crystal symmetry.  An approximate (isotropic) 
 treatment of cell esds is used for estimating esds involving l.s. planes. 
;

loop_
_geom_bond_atom_site_label_1
_geom_bond_atom_site_label_2
_geom_bond_distance
_geom_bond_site_symmetry_2
_geom_bond_publ_flag
C1 N2 1.331(15) . ?
C1 N3 1.336(14) . ?
C1 N5 1.358(14) . ?
C2 N3 1.309(15) . ?
C2 N4 1.363(14) . ?
C2 N1 1.388(14) . ?
C3 N1 1.319(13) . ?
C3 N2 1.366(14) . ?
C3 N6 1.396(15) . ?
C4 C22 1.368(17) 3_455 ?
C4 N5 1.399(15) . ?
C4 C24 1.399(16) 3_455 ?
C5 N4 1.348(14) . ?
C5 C6 1.373(16) . ?
C5 C7 1.390(16) . ?
C6 C17 1.442(17) 4_455 ?
C7 C18 1.372(16) 4_455 ?
C8 N6 1.362(14) . ?
C8 C9 1.370(15) . ?
C8 C13 1.394(16) . ?
C9 C10 1.401(16) . ?
C10 C11 1.374(16) . ?
C11 C12 1.378(17) . ?
C11 C14 1.476(15) . ?
C12 C13 1.382(17) . ?
C14 O8 1.271(13) . ?
C14 O1 1.306(13) . ?
C14 La1 3.036(11) 2_564 ?
C15 O3 1.278(14) . ?
C15 O2 1.286(14) . ?
C15 C16 1.463(16) . ?
C15 La1 3.048(11) . ?
C16 C17 1.366(17) . ?
C16 C18 1.375(16) . ?
C17 C6 1.442(17) 4_554 ?
C18 C7 1.372(16) 4_554 ?
C19 O4 1.255(14) . ?
C19 O5 1.310(14) . ?
C19 C20 1.485(16) . ?
C19 La1 3.033(12) 2_565 ?
C20 C23 1.380(16) . ?
C20 C21 1.400(15) . ?
C21 C22 1.356(16) . ?
C22 C4 1.368(17) 3_545 ?
C23 C24 1.358(16) . ?
C24 C4 1.399(16) 3_545 ?
O1 La1 2.628(8) . ?
O1 La1 2.676(8) 2_564 ?
O2 La1 2.535(8) 2_564 ?
O2 La1 2.823(8) . ?
O3 La1 2.522(8) . ?
O4 La1 2.630(8) 2_565 ?
O5 La1 2.658(8) . ?
O5 La1 2.667(8) 2_565 ?
O6 La1 2.585(10) . ?
O8 La1 2.607(8) 2_564 ?
La1 O2 2.535(8) 2_565 ?
La1 O8 2.607(8) 2_565 ?
La1 O4 2.630(8) 2_564 ?
La1 O5 2.667(8) 2_564 ?
La1 O1 2.676(8) 2_565 ?
La1 C19 3.033(12) 2_564 ?
La1 C14 3.036(11) 2_565 ?

loop_
_geom_angle_atom_site_label_1
_geom_angle_atom_site_label_2
_geom_angle_atom_site_label_3
_geom_angle
_geom_angle_site_symmetry_1
_geom_angle_site_symmetry_3
_geom_angle_publ_flag
N2 C1 N3 126.0(11) . . ?
N2 C1 N5 119.1(11) . . ?
N3 C1 N5 114.9(10) . . ?
N3 C2 N4 122.8(11) . . ?
N3 C2 N1 124.9(10) . . ?
N4 C2 N1 112.3(10) . . ?
N1 C3 N2 125.5(11) . . ?
N1 C3 N6 121.6(10) . . ?
N2 C3 N6 112.9(10) . . ?
C22 C4 N5 126.3(11) 3_455 . ?
C22 C4 C24 116.6(11) 3_455 3_455 ?
N5 C4 C24 117.0(11) . 3_455 ?
N4 C5 C6 123.9(10) . . ?
N4 C5 C7 118.4(11) . . ?
C6 C5 C7 117.7(11) . . ?
C5 C6 C17 119.8(11) . 4_455 ?
C18 C7 C5 122.0(12) 4_455 . ?
N6 C8 C9 125.8(10) . . ?
N6 C8 C13 117.6(10) . . ?
C9 C8 C13 116.6(11) . . ?
C8 C9 C10 121.3(10) . . ?
C11 C10 C9 120.8(10) . . ?
C10 C11 C12 118.8(11) . . ?
C10 C11 C14 120.1(11) . . ?
C12 C11 C14 121.1(11) . . ?
C11 C12 C13 119.7(11) . . ?
C12 C13 C8 122.5(11) . . ?
O8 C14 O1 120.0(10) . . ?
O8 C14 C11 122.0(11) . . ?
O1 C14 C11 118.0(10) . . ?
O8 C14 La1 58.5(6) . 2_564 ?
O1 C14 La1 61.7(5) . 2_564 ?
C11 C14 La1 177.7(8) . 2_564 ?
O3 C15 O2 120.1(11) . . ?
O3 C15 C16 120.7(11) . . ?
O2 C15 C16 118.8(11) . . ?
O3 C15 La1 54.2(6) . . ?
O2 C15 La1 67.7(6) . . ?
C16 C15 La1 159.5(9) . . ?
C17 C16 C18 118.3(11) . . ?
C17 C16 C15 118.9(12) . . ?
C18 C16 C15 122.7(11) . . ?
C16 C17 C6 120.8(12) . 4_554 ?
C7 C18 C16 121.3(12) 4_554 . ?
O4 C19 O5 120.0(11) . . ?
O4 C19 C20 122.6(11) . . ?
O5 C19 C20 117.4(11) . . ?
O4 C19 La1 59.5(6) . 2_565 ?
O5 C19 La1 61.4(6) . 2_565 ?
C20 C19 La1 167.0(9) . 2_565 ?
C23 C20 C21 117.1(11) . . ?
C23 C20 C19 121.6(11) . . ?
C21 C20 C19 120.7(11) . . ?
C22 C21 C20 121.7(11) . . ?
C21 C22 C4 121.5(12) . 3_545 ?
C24 C23 C20 120.3(13) . . ?
C23 C24 C4 122.5(12) . 3_545 ?
C3 N1 C2 114.0(10) . . ?
C1 N2 C3 113.9(10) . . ?
C2 N3 C1 115.3(10) . . ?
C5 N4 C2 130.9(10) . . ?
C1 N5 C4 132.2(10) . . ?
C8 N6 C3 129.6(10) . . ?
C14 O1 La1 120.8(7) . . ?
C14 O1 La1 92.9(6) . 2_564 ?
La1 O1 La1 103.3(3) . 2_564 ?
C15 O2 La1 134.0(8) . 2_564 ?
C15 O2 La1 87.4(6) . . ?
La1 O2 La1 101.8(3) 2_564 . ?
C15 O3 La1 101.6(7) . . ?
C19 O4 La1 96.2(7) . 2_565 ?
C19 O5 La1 125.6(8) . . ?
C19 O5 La1 93.0(7) . 2_565 ?
La1 O5 La1 102.8(3) . 2_565 ?
C14 O8 La1 97.0(7) . 2_564 ?
O3 La1 O2 141.7(3) . 2_565 ?
O3 La1 O6 80.3(3) . . ?
O2 La1 O6 69.5(3) 2_565 . ?
O3 La1 O8 71.2(3) . 2_565 ?
O2 La1 O8 114.9(3) 2_565 2_565 ?
O6 La1 O8 134.7(3) . 2_565 ?
O3 La1 O1 74.6(3) . . ?
O2 La1 O1 143.1(3) 2_565 . ?
O6 La1 O1 127.9(3) . . ?
O8 La1 O1 77.5(2) 2_565 . ?
O3 La1 O4 146.5(3) . 2_564 ?
O2 La1 O4 70.2(3) 2_565 2_564 ?
O6 La1 O4 114.1(3) . 2_564 ?
O8 La1 O4 109.0(2) 2_565 2_564 ?
O1 La1 O4 72.9(3) . 2_564 ?
O3 La1 O5 83.3(3) . . ?
O2 La1 O5 65.1(2) 2_565 . ?
O6 La1 O5 70.6(3) . . ?
O8 La1 O5 71.8(3) 2_565 . ?
O1 La1 O5 146.6(2) . . ?
O4 La1 O5 129.5(2) 2_564 . ?
O3 La1 O5 108.9(2) . 2_564 ?
O2 La1 O5 88.8(2) 2_565 2_564 ?
O6 La1 O5 79.9(3) . 2_564 ?
O8 La1 O5 142.1(3) 2_565 2_564 ?
O1 La1 O5 66.7(2) . 2_564 ?
O4 La1 O5 49.6(2) 2_564 2_564 ?
O5 La1 O5 145.8(3) . 2_564 ?
O3 La1 O1 119.0(3) . 2_565 ?
O2 La1 O1 68.6(3) 2_565 2_565 ?
O6 La1 O1 128.9(3) . 2_565 ?
O8 La1 O1 50.0(2) 2_565 2_565 ?
O1 La1 O1 103.1(3) . 2_565 ?
O4 La1 O1 76.7(2) 2_564 2_565 ?
O5 La1 O1 66.2(2) . 2_565 ?
O5 La1 O1 126.3(2) 2_564 2_565 ?
O3 La1 O2 48.7(2) . . ?
O2 La1 O2 127.6(4) 2_565 . ?
O6 La1 O2 64.0(3) . . ?
O8 La1 O2 114.5(2) 2_565 . ?
O1 La1 O2 65.1(3) . . ?
O4 La1 O2 1