####################################################################### 
# 
# This file contains crystal structure data downloaded from the 
# Cambridge Structural Database (CSD) hosted by the Cambridge 
# Crystallographic Data Centre (CCDC).
# 
# Full information about CCDC data access policies and citation 
# guidelines are available at http://www.ccdc.cam.ac.uk/access/V1 
# 
# Audit and citation data items may have been added by the CCDC. 
# Please retain this information to preserve the provenance of 
# this file and to allow appropriate attribution of the data. 
# 
#######################################################################

data_cmpd_1
_audit_block_doi                 10.5517/cctx5vq
_database_code_depnum_ccdc_archive 'CCDC 771864'
loop_
_citation_id
_citation_doi
_citation_year
1 10.1039/a708943k 1998
_audit_update_record             
;
2010-04-01 deposited with the CCDC.	2024-07-12 downloaded from the CCDC.
;

_audit_creation_method           'manually at CCDC'

_chemical_name_systematic        
;
?
;
_chemical_name_common            
;
catena-(bis((mu!2$-1,2-bis(4-Pyridyl)ethane)-(nitrato))-
copper(ii) benzene methanol hemihydrate clathrate)
;
_chemical_formula_sum            
'(C24 H24 Cu1 N6 O6)n,2.5n(C6 H6),2n(C1 H4 O1),0.5n(H2 O1)'

_chemical_formula_weight         ?
_symmetry_cell_setting           ?
_symmetry_space_group_name_H-M   Pccn
_symmetry_Int_Tables_number      ?

loop_
_symmetry_equiv_pos_as_xyz
?
?
?

_cell_length_a                   14.7097(18)
_cell_length_b                   21.832(3)
_cell_length_c                   26.719(3)
_cell_angle_alpha                90
_cell_angle_beta                 90
_cell_angle_gamma                90
_cell_volume                     ?
_cell_formula_units_Z            8

_exptl_crystal_density_diffrn    1.281

_diffrn_ambient_temperature      173

_diffrn_source                   ?

_diffrn_radiation_probe          x-ray
_diffrn_radiation_type           ?
_chemical_melting_point          ?


_exptl_crystal_description       ?
_exptl_crystal_colour            blue


_exptl_special_details           
;
?
;

_refine_special_details          
;
?
;

_refine_ls_R_factor_gt           0.1140

#This value may have been taken from more than one field

loop_
_atom_site_label
_atom_site_fract_x
_atom_site_fract_y
_atom_site_fract_z
N1 0.0756,4 0.09588,23 0.55948,19
O1 0.1138,3 0.06127,19 0.52676,14
O2 0.0916,4 0.15052,21 0.55982,20
O3 0.0263,3 0.07114,23 0.59135,19
N2 0.4261,3 -0.08924,22 0.57151,17
O4 0.3867,3 -0.06201,19 0.53579,14
O5 0.4824,3 -0.05960,21 0.59763,18
O6 0.4093,4 -0.14328,20 0.58121,18
N101 0.3253,3 0.07688,20 0.53315,15
N102 0.6687,3 0.42411,19 0.45864,14
C101 0.2982,5 0.1251,3 0.50591,22
C102 0.3543,5 0.1764,6 0.4992,3
C103 0.4415,4 0.1764,3 0.51875,22
C104 0.4695,4 0.1253,3 0.54565,22
C105 0.4086,4 0.0769,3 0.55186,21
C106 0.5064,5 0.2294,3 0.51198,23
C107 0.4936,4 0.2671,3 0.46520,24
C108 0.5563,4 0.3216,3 0.46202,21
C109 0.5235,4 0.3772,3 0.44466,20
C110 0.5821,4 0.4277,3 0.44373,21
C111 0.7008,4 0.3715,3 0.47593,23
C112 0.6468,5 0.3174,3 0.4762,3
N201 0.2495,3 -0.00716,21 0.46217,15
N202 0.2533,3 0.00684,20 0.11312,15
C201 0.3287,4 -0.0061,3 0.43719,20
C202 0.3335,4 -0.0178,3 0.38614,20
C203 0.2546,4 -0.0279,3 0.35880,20
C204 0.1725,4 -0.0267,3 0.38384,22
C205 0.1721,4 -0.0172,3 0.43654,19
C206 0.2563,5 -0.0398,3 0.30296,21
C207 0.2529,4 0.0200,3 0.27442,22
C208 0.2544,4 0.0138,3 0.21787,19
C209 0.2401,4 -0.041,3 0.19312,21
C210 0.2406,4 -0.0428,3 0.14143,20
C211 0.2658,4 0.0602,3 0.13692,20
C212 0.2678,4 0.0654,3 0.18815,20
C301 0.0166,6 0.9632,5 0.7027,4
C302 0.0005,6 0.9929,5 0.7473,5
C303 -0.0248,6 0.9648,6 0.7906,4
C304 -0.0344,7 0.9078,6 0.7877,3
C305 -0.0217,8 0.8741,6 0.7460,4
C306 0.0052,8 0.9071,6 0.7035,3
C311 0.2500 0.7500 0.6449,6
C312 0.1984,10 0.7847,6 0.6670,4
C313 0.1959,10 0.7873,6 0.7211,5
C314 0.2500 0.7500 0.7453,5
C321 0.2500 0.2500 0.2293,6
C322 0.1749,11 0.2673,6 0.2000,7
C323 0.1881,18 0.2595,13 0.1471,6
C324 0.2500 0.2500 0.1380,13
C331 0.7879,14 0.8471,8 0.6358,6
C332 0.7986,10 0.8095,6 0.5988,5
C333 0.7146,12 0.8156,8 0.6353,5
C341 0.7500 0.2500 0.0993,7
C342 0.7381,17 0.3047,8 0.1150,6
C343 0.6579,18 0.3099,9 0.1334,6
C344 0.5939,23 0.2603,10 0.1388,9
C345 0.6106,20 0.1971,12 0.1266,8
C346 0.7983,20 0.3070,11 0.1046,7
O351 0.5565,7 0.6306,4 0.1745,3
C351 0.4851,15 0.6736,8 0.1946,7
O361 0.9770,19 0.3475,14 0.1748,7
Cu 0.24634,5 0.00134,3 0.537605,22
H101 0.235 0.125 0.490
H102 0.332 0.213 0.480
H104 0.533 0.124 0.561
H105 0.431 0.040 0.570
H106a 0.501 0.258 0.542
H106b 0.571 0.213 0.512
H107a 0.504 0.240 0.434
H107b 0.428 0.281 0.463
H109 0.458 0.381 0.433
H110 0.557 0.469 0.433
H111 0.766 0.369 0.489
H112 0.674 0.277 0.487
H201 0.386 0.002 0.456
H202 0.395 -0.018 0.369
H204 0.113 -0.034 0.365
H205 0.112 -0.017 0.455
H206a 0.203 -0.066 0.293
H206b 0.314 -0.062 0.294
H207a 0.195 0.042 0.284
H207b 0.306 0.046 0.285
H209 0.229 -0.080 0.214
H210 0.231 -0.084 0.124
H211 0.276 0.099 0.116
H212 0.279 0.107 0.205
H311 0.2500 0.7500 0.607
H312 0.157 0.816 0.648
H313 0.154 0.814 0.743
H314 0.2500 0.7500 0.785
H301 0.036 0.989 0.672
H302 0.009 1.041 0.746
H303 -0.036 0.994 0.821
H304 -0.054 0.887 0.821
H305 -0.028 0.827 0.746
H306 0.016 0.883 0.671
H321 0.2500 0.2500 0.269
H322 0.117 0.286 0.220
H323 0.129 0.262 0.124
H324 0.2500 0.2500 0.096


loop_
_geom_bond_atom_site_label_1
_geom_bond_atom_site_label_2
_geom_bond_distance
Cu O1 2.366,4
Cu N101 2.021,4
C207 C208 1.517,8
Cu N102 2.039,4
C208 C209 1.396,8
Cu N201 2.025,4
C208 C212 1.392,8
Cu N202 2.021,4
C209 C210 1.381,8
N1 O1 1.285,7
C211 C212 1.374,8
N1 O2 1.216,7
C301 C302 1.38,2
N1 O3 1.241,7
C301 C306 1.24,2
N2 O4 1.265,6
C302 C303 1.36,2
N2 O5 1.261,7
C303 C304 1.26,2
N2 O6 1.233,6
C304 C305 1.35,2
N101 C101 1.341,8
C305 C306 1.40,2
N101 C105 1.323,8
C311 C312 1.22,2
N102 C110 1.336,8
N102 C111 1.325,8
C312 C313 1.45,2
C101 C102 1.403,9
C313 C314 1.31,1
C102 C103 1.385,9
C103 C104 1.389,9
C321 C322 1.41,2
C103 C106 1.510,8
C104 C105 1.395,8
C322 C323 1.44,3
C106 C107 1.508,9
C323 C324 0.97,3
C107 C108 1.509,8
C108 C109 1.387,8
C331 C332 1.29,2
C108 C112 1.386,9
C331 C333 1.28,3
C109 C110 1.400,8
C332 C333 1.58,2
C111 C112 1.424,9
C341 C342 1.28,2
N201 C201 1.343,7
N201 C205 1.346,7
C341 C346 1.44,2
N202 C210 1.335,7
N202 C211 1.341,7
C342 C343 1.28,3
C201 C202 1.390,8
C342 C346 0.93,3
C202 C203 1.389,9
C343 C344 1.44,4
C203 C204 1.381,9
C344 C345 1.44,3
C203 C206 1.515,8
C345 C346 1.47,4
C204 C205 1.423,8
C206 C207 1.514,9
O351 C351 1.51,2


#END

