####################################################################### 
# 
# This file contains crystal structure data downloaded from the 
# Cambridge Structural Database (CSD) hosted by the Cambridge 
# Crystallographic Data Centre (CCDC).
# 
# Full information about CCDC data access policies and citation 
# guidelines are available at http://www.ccdc.cam.ac.uk/access/V1 
# 
# Audit and citation data items may have been added by the CCDC. 
# Please retain this information to preserve the provenance of 
# this file and to allow appropriate attribution of the data. 
# 
#######################################################################

data_beheshti1201_0ma
_audit_block_doi                 10.5517/cc13pk3g
_database_code_depnum_ccdc_archive 'CCDC 1033605'
loop_
_citation_id
_citation_doi
_citation_year
1 10.1016/j.ica.2015.07.044 2015
_audit_update_record             
;
2014-11-11 deposited with the CCDC.	2024-07-12 downloaded from the CCDC.
;

# start Validation Reply Form

_vrf_PLAT430_beheshti1201_0ma    
;
PROBLEM: Short Inter D...A Contact  S1     ..  O1      ..       2.52 Ang. 
RESPONSE: The reason of short contact is hydrogen bounding. 
But, due to the very significant disorder of the water molecules, 
it was impossible to have well defined water positions and putting of 
hydrogens atoms that have been omitted in the refinement. 
;
# end Validation Reply Form

_audit_creation_method           SHELXL-97
_chemical_name_systematic        
;
 ?
;
_chemical_name_common            ?
_chemical_melting_point          ?
_chemical_formula_moiety         'C21 H33 Br Cu3 Mo N6 S4, CH3 OH,2(H2 O)'
_chemical_formula_sum            'C22 H41 Br Cu3 Mo N6 O2 S4'
_chemical_formula_weight         916.32

loop_
_atom_type_symbol
_atom_type_description
_atom_type_scat_dispersion_real
_atom_type_scat_dispersion_imag
_atom_type_scat_source
C C 0.0033 0.0016 'International Tables Vol C Tables 4.2.6.8 and 6.1.1.4'
H H 0.0000 0.0000 'International Tables Vol C Tables 4.2.6.8 and 6.1.1.4'
N N 0.0061 0.0033 'International Tables Vol C Tables 4.2.6.8 and 6.1.1.4'
S S 0.1246 0.1234 'International Tables Vol C Tables 4.2.6.8 and 6.1.1.4'
Cu Cu 0.3201 1.2651 'International Tables Vol C Tables 4.2.6.8 and 6.1.1.4'
Br Br -0.2901 2.4595 'International Tables Vol C Tables 4.2.6.8 and 6.1.1.4'
Mo Mo -1.6832 0.6857 'International Tables Vol C Tables 4.2.6.8 and 6.1.1.4'
O O 0.0106 0.0060 'International Tables Vol C Tables 4.2.6.8 and 6.1.1.4'

_symmetry_cell_setting           Monoclinic
_symmetry_space_group_name_H-M   'C2/c  '
_symmetry_space_group_name_Hall  '-C 2yc '

loop_
_symmetry_equiv_pos_as_xyz
'x, y, z'
'-x, y, -z+1/2'
'x+1/2, y+1/2, z'
'-x+1/2, y+1/2, -z+1/2'
'-x, -y, -z'
'x, -y, z-1/2'
'-x+1/2, -y+1/2, -z'
'x+1/2, -y+1/2, z-1/2'

_cell_length_a                   38.9328(8)
_cell_length_b                   10.0326(2)
_cell_length_c                   20.2312(4)
_cell_angle_alpha                90.00
_cell_angle_beta                 115.347(2)
_cell_angle_gamma                90.00
_cell_volume                     7141.5(2)
_cell_formula_units_Z            8
_cell_measurement_temperature    293(2)
_cell_measurement_reflns_used    9912
_cell_measurement_theta_min      2.23
_cell_measurement_theta_max      23.09

_exptl_crystal_description       irregular
_exptl_crystal_colour            red
_exptl_crystal_size_max          0.18
_exptl_crystal_size_mid          0.10
_exptl_crystal_size_min          0.04
_exptl_crystal_density_meas      ?
_exptl_crystal_density_diffrn    1.704
_exptl_crystal_density_method    'not measured'
_exptl_crystal_F_000             3672
_exptl_absorpt_coefficient_mu    3.487
_exptl_absorpt_correction_type   multi-scan
_exptl_absorpt_correction_T_min  0.5778
_exptl_absorpt_correction_T_max  0.7458
_exptl_absorpt_process_details   'SADABS; Bruker, 2008'

_exptl_special_details           
;
 ?
;

_diffrn_ambient_temperature      293(2)
_diffrn_radiation_wavelength     0.71073
_diffrn_radiation_type           MoK\a
_diffrn_radiation_source         'fine-focus sealed tube'
_diffrn_radiation_monochromator  graphite
_diffrn_measurement_device_type  'Bruker APEX-II CCD'
_diffrn_measurement_method       '\f and \w scans'
_diffrn_detector_area_resol_mean ?
_diffrn_standards_number         ?
_diffrn_standards_interval_count ?
_diffrn_standards_interval_time  ?
_diffrn_standards_decay_%        ?
_diffrn_reflns_number            73684
_diffrn_reflns_av_R_equivalents  0.0699
_diffrn_reflns_av_sigmaI/netI    0.0503
_diffrn_reflns_limit_h_min       -49
_diffrn_reflns_limit_h_max       49
_diffrn_reflns_limit_k_min       -12
_diffrn_reflns_limit_k_max       12
_diffrn_reflns_limit_l_min       -25
_diffrn_reflns_limit_l_max       25
_diffrn_reflns_theta_min         2.59
_diffrn_reflns_theta_max         27.00
_reflns_number_total             7768
_reflns_number_gt                4912
_reflns_threshold_expression     >2\s(I)

_computing_data_collection       ?
_computing_cell_refinement       ?
_computing_data_reduction        ?
_computing_structure_solution    ?
_computing_structure_refinement  'SHELXL-97 (Sheldrick, 2008)'
_computing_molecular_graphics    ?
_computing_publication_material  ?

_refine_special_details          
;
 Refinement of F^2^ against ALL reflections.  The weighted R-factor wR and
 goodness of fit S are based on F^2^, conventional R-factors R are based
 on F, with F set to zero for negative F^2^. The threshold expression of
 F^2^ > 2\s(F^2^) is used only for calculating R-factors(gt) etc. and is
 not relevant to the choice of reflections for refinement.  R-factors based
 on F^2^ are statistically about twice as large as those based on F, and R-
 factors based on ALL data will be even larger.
;

_refine_ls_structure_factor_coef Fsqd
_refine_ls_matrix_type           full
_refine_ls_weighting_scheme      calc
_refine_ls_weighting_details     
'calc w=1/[\s^2^(Fo^2^)+(0.0609P)^2^+36.0784P] where P=(Fo^2^+2Fc^2^)/3'
_atom_sites_solution_primary     direct
_atom_sites_solution_secondary   difmap
_atom_sites_solution_hydrogens   geom
_refine_ls_hydrogen_treatment    constr
_refine_ls_extinction_method     none
_refine_ls_extinction_coef       ?
_refine_ls_number_reflns         7768
_refine_ls_number_parameters     359
_refine_ls_number_restraints     0
_refine_ls_R_factor_all          0.0983
_refine_ls_R_factor_gt           0.0501
_refine_ls_wR_factor_ref         0.1470
_refine_ls_wR_factor_gt          0.1176
_refine_ls_goodness_of_fit_ref   1.095
_refine_ls_restrained_S_all      1.095
_refine_ls_shift/su_max          0.036
_refine_ls_shift/su_mean         0.001

loop_
_atom_site_label
_atom_site_type_symbol
_atom_site_fract_x
_atom_site_fract_y
_atom_site_fract_z
_atom_site_U_iso_or_equiv
_atom_site_adp_type
_atom_site_occupancy
_atom_site_symmetry_multiplicity
_atom_site_calc_flag
_atom_site_refinement_flags
_atom_site_disorder_assembly
_atom_site_disorder_group
Mo1 Mo 0.406548(15) 0.34628(5) 0.55137(3) 0.03808(15) Uani 1 1 d . . .
Cu3 Cu 0.34274(2) 0.48456(9) 0.51563(5) 0.0500(2) Uani 1 1 d . . .
Br1 Br 0.37384(2) 0.59642(7) 0.66671(4) 0.0555(2) Uani 1 1 d . . .
Cu1 Cu 0.39639(2) 0.33610(8) 0.67549(4) 0.0455(2) Uani 1 1 d . . .
Cu2 Cu 0.43032(2) 0.58234(8) 0.61481(5) 0.0469(2) Uani 1 1 d . . .
N4 N 0.49668(13) 0.7614(5) 0.6651(3) 0.0375(12) Uani 1 1 d . . .
S2 S 0.45186(4) 0.37731(16) 0.66542(9) 0.0406(4) Uani 1 1 d . . .
S3 S 0.35394(5) 0.27259(16) 0.56008(10) 0.0447(4) Uani 1 1 d . . .
S4 S 0.39289(5) 0.54509(17) 0.49475(9) 0.0437(4) Uani 1 1 d . . .
S1 S 0.42516(7) 0.2114(2) 0.49235(14) 0.0783(7) Uani 1 1 d . . .
N3 N 0.45794(14) 0.7507(5) 0.6387(3) 0.0393(12) Uani 1 1 d . . .
N5 N 0.29374(15) 0.5733(6) 0.4650(3) 0.0500(14) Uani 1 1 d . . .
C13 C 0.44503(19) 0.8764(6) 0.6262(4) 0.0444(16) Uani 1 1 d . . .
N6 N 0.26286(15) 0.5454(6) 0.4768(3) 0.0505(14) Uani 1 1 d . . .
C11 C 0.50764(19) 0.8902(7) 0.6703(4) 0.0455(16) Uani 1 1 d . . .
C16 C 0.2831(2) 0.6703(9) 0.4144(5) 0.067(2) Uani 1 1 d . . .
C5 C 0.4504(2) 0.1642(9) 0.9574(4) 0.070(2) Uani 1 1 d . . .
H5A H 0.4722 0.2183 0.9655 0.105 Uiso 1 1 calc R . .
H5B H 0.4578 0.0722 0.9648 0.105 Uiso 1 1 calc R . .
H5C H 0.4402 0.1897 0.9912 0.105 Uiso 1 1 calc R . .
C8 C 0.5228(2) 0.5966(7) 0.6089(4) 0.0526(18) Uani 1 1 d . . .
H8A H 0.5288 0.6712 0.5852 0.063 Uiso 1 1 calc R . .
H8B H 0.4981 0.5622 0.5755 0.063 Uiso 1 1 calc R . .
C10 C 0.5480(2) 0.9301(8) 0.6974(5) 0.068(2) Uani 1 1 d . . .
H10A H 0.5637 0.8520 0.7099 0.102 Uiso 1 1 calc R . .
H10B H 0.5549 0.9855 0.7399 0.102 Uiso 1 1 calc R . .
H10C H 0.5515 0.9788 0.6599 0.102 Uiso 1 1 calc R . .
C18 C 0.2332(2) 0.6250(8) 0.4338(5) 0.063(2) Uani 1 1 d . . .
C3 C 0.3862(2) 0.1302(7) 0.8454(4) 0.0554(19) Uani 1 1 d . . .
H3 H 0.3741 0.0714 0.8641 0.066 Uiso 1 1 calc R . .
C7 C 0.4475(2) 0.4885(7) 0.8758(4) 0.0548(19) Uani 1 1 d . . .
H7A H 0.4441 0.4721 0.9199 0.066 Uiso 1 1 calc R . .
H7B H 0.4234 0.5199 0.8385 0.066 Uiso 1 1 calc R . .
C2 C 0.37190(19) 0.1804(7) 0.7748(4) 0.0516(18) Uani 1 1 d . . .
C14 C 0.4031(2) 0.9044(8) 0.5943(5) 0.066(2) Uani 1 1 d . . .
H14A H 0.3894 0.8219 0.5862 0.099 Uiso 1 1 calc R . .
H14B H 0.3955 0.9507 0.5487 0.099 Uiso 1 1 calc R . .
H14C H 0.3976 0.9586 0.6277 0.099 Uiso 1 1 calc R . .
C21 C 0.2504(2) 0.3069(8) 0.4771(4) 0.0553(18) Uani 1 1 d . . .
H21A H 0.2254 0.3192 0.4374 0.066 Uiso 1 1 calc R . .
H21B H 0.2681 0.2879 0.4561 0.066 Uiso 1 1 calc R . .
O2 O 0.3090(5) 0.0506(17) 0.3921(10) 0.137(7) Uani 0.50 1 d P . .
C15 C 0.3105(3) 0.7305(11) 0.3875(6) 0.098(4) Uani 1 1 d . . .
H15A H 0.3345 0.6856 0.4103 0.147 Uiso 1 1 calc R . .
H15B H 0.3139 0.8235 0.3999 0.147 Uiso 1 1 calc R . .
H15C H 0.3004 0.7206 0.3354 0.147 Uiso 1 1 calc R . .
C1 C 0.3340(2) 0.1534(11) 0.7127(5) 0.094(3) Uani 1 1 d . . .
H1A H 0.3321 0.2011 0.6701 0.141 Uiso 1 1 calc R . .
H1B H 0.3142 0.1822 0.7257 0.141 Uiso 1 1 calc R . .
H1C H 0.3314 0.0596 0.7024 0.141 Uiso 1 1 calc R . .
C19 C 0.1946(2) 0.6145(10) 0.4361(6) 0.089(3) Uani 1 1 d . . .
H19A H 0.1955 0.5449 0.4694 0.134 Uiso 1 1 calc R . .
H19B H 0.1754 0.5943 0.3881 0.134 Uiso 1 1 calc R . .
H19C H 0.1887 0.6977 0.4524 0.134 Uiso 1 1 calc R . .
C17 C 0.2458(2) 0.7048(9) 0.3949(5) 0.079(3) Uani 1 1 d . . .
H17 H 0.2320 0.7702 0.3616 0.095 Uiso 1 1 calc R . .
C20 C 0.26266(19) 0.4361(7) 0.5228(4) 0.0515(17) Uani 1 1 d . . .
H20A H 0.2452 0.4552 0.5442 0.062 Uiso 1 1 calc R . .
H20B H 0.2879 0.4247 0.5622 0.062 Uiso 1 1 calc R . .
C12 C 0.47472(19) 0.9637(7) 0.6459(4) 0.0505(17) Uani 1 1 d . . .
H12 H 0.4730 1.0562 0.6432 0.061 Uiso 1 1 calc R . .
N2 N 0.42742(14) 0.2606(5) 0.8334(3) 0.0385(12) Uani 1 1 d . . .
N1 N 0.39707(14) 0.2604(5) 0.7669(3) 0.0410(12) Uani 1 1 d . . .
C4 C 0.42127(19) 0.1836(6) 0.8818(4) 0.0442(16) Uani 1 1 d . . .
C9 C 0.52055(17) 0.6453(6) 0.6781(4) 0.0397(14) Uani 1 1 d . . .
H9A H 0.5106 0.5745 0.6976 0.048 Uiso 1 1 calc R . .
H9B H 0.5459 0.6666 0.7145 0.048 Uiso 1 1 calc R . .
C6 C 0.45781(18) 0.3590(6) 0.8506(4) 0.0442(15) Uani 1 1 d . . .
H6A H 0.4622 0.3751 0.8075 0.053 Uiso 1 1 calc R . .
H6B H 0.4811 0.3243 0.8887 0.053 Uiso 1 1 calc R . .
O1 O 0.3577(6) 0.163(2) 0.4706(13) 0.169(8) Uani 0.50 1 d P . .
O3 O 0.1963(6) -0.233(2) 0.1839(12) 0.169(8) Uiso 0.50 1 d P . .
O4 O 0.1934(7) -0.096(3) 0.2139(13) 0.176(8) Uiso 0.50 1 d P . .
C23 C 0.2305(6) -0.143(2) 0.2035(12) 0.093(6) Uiso 0.50 1 d P . .
C22 C 0.1634(8) -0.194(3) 0.1915(16) 0.133(9) Uiso 0.50 1 d P . .

loop_
_atom_site_aniso_label
_atom_site_aniso_U_11
_atom_site_aniso_U_22
_atom_site_aniso_U_33
_atom_site_aniso_U_23
_atom_site_aniso_U_13
_atom_site_aniso_U_12
Mo1 0.0388(3) 0.0380(3) 0.0435(3) 0.0015(2) 0.0234(3) 0.0006(2)
Cu3 0.0333(4) 0.0522(5) 0.0646(6) 0.0138(4) 0.0211(4) 0.0030(4)
Br1 0.0562(4) 0.0545(4) 0.0642(5) 0.0015(3) 0.0339(4) 0.0102(3)
Cu1 0.0382(4) 0.0580(5) 0.0446(5) 0.0052(4) 0.0219(4) -0.0072(4)
Cu2 0.0422(5) 0.0403(4) 0.0535(5) 0.0032(4) 0.0160(4) -0.0039(3)
N4 0.032(3) 0.038(3) 0.046(3) 0.008(2) 0.020(2) 0.005(2)
S2 0.0292(8) 0.0460(9) 0.0484(10) 0.0078(7) 0.0184(7) 0.0028(6)
S3 0.0390(9) 0.0441(9) 0.0504(10) 0.0027(7) 0.0184(8) -0.0087(7)
S4 0.0414(9) 0.0476(9) 0.0461(10) 0.0112(7) 0.0226(8) 0.0009(7)
S1 0.1020(18) 0.0651(13) 0.0880(17) -0.0047(12) 0.0599(15) 0.0094(12)
N3 0.033(3) 0.037(3) 0.050(3) 0.006(2) 0.019(2) 0.001(2)
N5 0.037(3) 0.053(3) 0.056(4) 0.007(3) 0.016(3) 0.001(3)
C13 0.046(4) 0.037(3) 0.054(4) 0.006(3) 0.025(3) 0.008(3)
N6 0.034(3) 0.048(3) 0.065(4) -0.006(3) 0.017(3) -0.004(2)
C11 0.051(4) 0.042(4) 0.047(4) 0.003(3) 0.024(3) -0.008(3)
C16 0.052(5) 0.070(5) 0.062(5) 0.012(4) 0.009(4) 0.009(4)
C5 0.089(6) 0.077(6) 0.049(5) 0.004(4) 0.033(5) -0.010(5)
C8 0.056(4) 0.056(4) 0.057(5) 0.020(3) 0.035(4) 0.018(3)
C10 0.048(4) 0.069(5) 0.084(6) 0.011(4) 0.026(4) -0.019(4)
C18 0.041(4) 0.052(5) 0.082(6) -0.011(4) 0.012(4) 0.010(3)
C3 0.060(5) 0.060(5) 0.057(5) 0.000(4) 0.037(4) -0.015(4)
C7 0.058(4) 0.060(4) 0.064(5) -0.018(4) 0.042(4) -0.018(3)
C2 0.043(4) 0.065(5) 0.053(5) 0.001(3) 0.026(3) -0.011(3)
C14 0.047(4) 0.050(4) 0.094(6) 0.014(4) 0.025(4) 0.013(3)
C21 0.041(4) 0.067(5) 0.055(5) 0.008(4) 0.019(4) -0.002(3)
O2 0.159(14) 0.127(13) 0.168(16) -0.094(12) 0.110(13) -0.093(12)
C15 0.077(6) 0.111(8) 0.107(8) 0.064(7) 0.041(6) 0.019(6)
C1 0.055(5) 0.149(10) 0.071(6) -0.002(6) 0.020(5) -0.052(6)
C19 0.039(5) 0.088(7) 0.129(9) -0.021(6) 0.024(5) 0.009(4)
C17 0.059(5) 0.066(5) 0.088(7) 0.024(5) 0.007(5) 0.010(4)
C20 0.036(4) 0.056(4) 0.065(5) -0.006(4) 0.024(3) -0.001(3)
C12 0.055(4) 0.035(3) 0.063(5) 0.005(3) 0.026(4) 0.000(3)
N2 0.038(3) 0.044(3) 0.039(3) 0.001(2) 0.021(3) -0.006(2)
N1 0.035(3) 0.050(3) 0.044(3) 0.002(2) 0.022(3) -0.004(2)
C4 0.057(4) 0.039(4) 0.042(4) 0.001(3) 0.028(3) -0.001(3)
C9 0.038(3) 0.040(3) 0.046(4) 0.007(3) 0.023(3) 0.003(3)
C6 0.038(4) 0.051(4) 0.048(4) -0.008(3) 0.023(3) -0.010(3)
O1 0.164(18) 0.18(2) 0.18(2) 0.017(15) 0.088(16) -0.027(15)

_geom_special_details            
;
 All s.u.'s (except the s.u. in the dihedral angle between two l.s. planes)
 are estimated using the full covariance matrix.  The cell s.u.'s are taken
 into account individually in the estimation of s.u.'s in distances, angles
 and torsion angles; correlations between s.u.'s in cell parameters are only
 used when they are defined by crystal symmetry.  An approximate (isotropic)
 treatment of cell s.u.'s is used for estimating s.u.'s involving l.s. planes.
;

loop_
_geom_bond_atom_site_label_1
_geom_bond_atom_site_label_2
_geom_bond_distance
_geom_bond_site_symmetry_2
_geom_bond_publ_flag
Mo1 S1 2.127(2) . ?
Mo1 S2 2.2467(18) . ?
Mo1 S4 2.2476(17) . ?
Mo1 S3 2.2543(16) . ?
Mo1 Cu3 2.6609(9) . ?
Mo1 Cu2 2.6637(10) . ?
Mo1 Cu1 2.7061(10) . ?
Cu3 N5 1.951(5) . ?
Cu3 S4 2.2505(18) . ?
Cu3 S3 2.2772(18) . ?
Br1 Cu1 2.7367(11) . ?
Br1 Cu2 2.8168(11) . ?
Cu1 N1 1.988(5) . ?
Cu1 S2 2.2921(17) . ?
Cu1 S3 2.2990(19) . ?
Cu2 N3 1.949(5) . ?
Cu2 S4 2.2655(19) . ?
Cu2 S2 2.2908(17) . ?
N4 C11 1.351(8) . ?
N4 N3 1.372(6) . ?
N4 C9 1.442(7) . ?
S3 O1 2.18(2) . ?
N3 C13 1.342(8) . ?
N5 C16 1.344(9) . ?
N5 N6 1.352(8) . ?
C13 C12 1.366(9) . ?
C13 C14 1.503(9) . ?
N6 C18 1.368(9) . ?
N6 C20 1.440(9) . ?
C11 C12 1.374(9) . ?
C11 C10 1.479(9) . ?
C16 C17 1.374(11) . ?
C16 C15 1.516(12) . ?
C5 C4 1.475(10) . ?
C5 H5A 0.9600 . ?
C5 H5B 0.9600 . ?
C5 H5C 0.9600 . ?
C8 C9 1.520(9) . ?
C8 C7 1.519(9) 2_656 ?
C8 H8A 0.9700 . ?
C8 H8B 0.9700 . ?
C10 H10A 0.9600 . ?
C10 H10B 0.9600 . ?
C10 H10C 0.9600 . ?
C18 C17 1.354(12) . ?
C18 C19 1.525(11) . ?
C3 C4 1.352(9) . ?
C3 C2 1.387(10) . ?
C3 H3 0.9300 . ?
C7 C6 1.512(9) . ?
C7 C8 1.519(9) 2_656 ?
C7 H7A 0.9700 . ?
C7 H7B 0.9700 . ?
C2 N1 1.329(8) . ?
C2 C1 1.497(10) . ?
C14 H14A 0.9600 . ?
C14 H14B 0.9600 . ?
C14 H14C 0.9600 . ?
C21 C21 1.479(14) 7_556 ?
C21 C20 1.543(10) . ?
C21 H21A 0.9700 . ?
C21 H21B 0.9700 . ?
C15 H15A 0.9600 . ?
C15 H15B 0.9600 . ?
C15 H15C 0.9600 . ?
C1 H1A 0.9600 . ?
C1 H1B 0.9600 . ?
C1 H1C 0.9600 . ?
C19 H19A 0.9600 . ?
C19 H19B 0.9600 . ?
C19 H19C 0.9600 . ?
C17 H17 0.9300 . ?
C20 H20A 0.9700 . ?
C20 H20B 0.9700 . ?
C12 H12 0.9300 . ?
N2 C4 1.347(8) . ?
N2 N1 1.359(7) . ?
N2 C6 1.464(8) . ?
C9 H9A 0.9700 . ?
C9 H9B 0.9700 . ?
C6 H6A 0.9700 . ?
C6 H6B 0.9700 . ?
O3 C22 1.41(3) . ?
O3 C23 1.51(3) . ?
O3 O4 1.53(3) . ?
O4 C22 1.44(3) . ?
O4 C23 1.62(3) . ?

loop_
_geom_angle_atom_site_label_1
_geom_angle_atom_site_label_2
_geom_angle_atom_site_label_3
_geom_angle
_geom_angle_site_symmetry_1
_geom_angle_site_symmetry_3
_geom_angle_publ_flag
S1 Mo1 S2 110.99(9) . . ?
S1 Mo1 S4 109.98(8) . . ?
S2 Mo1 S4 108.11(6) . . ?
S1 Mo1 S3 111.99(9) . . ?
S2 Mo1 S3 107.78(6) . . ?
S4 Mo1 S3 107.83(6) . . ?
S1 Mo1 Cu3 133.00(8) . . ?
S2 Mo1 Cu3 115.98(5) . . ?
S4 Mo1 Cu3 53.78(5) . . ?
S3 Mo1 Cu3 54.44(5) . . ?
S1 Mo1 Cu2 134.81(7) . . ?
S2 Mo1 Cu2 54.82(5) . . ?
S4 Mo1 Cu2 54.14(5) . . ?
S3 Mo1 Cu2 113.19(5) . . ?
Cu3 Mo1 Cu2 76.04(3) . . ?
S1 Mo1 Cu1 135.82(7) . . ?
S2 Mo1 Cu1 54.17(4) . . ?
S4 Mo1 Cu1 114.19(5) . . ?
S3 Mo1 Cu1 54.30(5) . . ?
Cu3 Mo1 Cu1 77.38(3) . . ?
Cu2 Mo1 Cu1 75.23(3) . . ?
N5 Cu3 S4 120.69(18) . . ?
N5 Cu3 S