####################################################################### 
# 
# This file contains crystal structure data downloaded from the 
# Cambridge Structural Database (CSD) hosted by the Cambridge 
# Crystallographic Data Centre (CCDC).
# 
# Full information about CCDC data access policies and citation 
# guidelines are available at http://www.ccdc.cam.ac.uk/access/V1 
# 
# Audit and citation data items may have been added by the CCDC. 
# Please retain this information to preserve the provenance of 
# this file and to allow appropriate attribution of the data. 
# 
#######################################################################

data_123
_audit_block_doi                 10.5517/ccszxqc
_database_code_depnum_ccdc_archive 'CCDC 744704'
loop_
_citation_id
_citation_doi
_citation_year
1 10.1016/j.molstruc.2009.11.018 2010
_audit_update_record             
;
2009-08-18 deposited with the CCDC.	2024-07-12 downloaded from the CCDC.
;
#Contact person: Zebao Zheng
#E-mail: zhengzebao@163.com
#Authors'names: Zebao Zheng

_audit_creation_method           SHELXL-97
_chemical_name_systematic        
;
The zinc complex of 4,4'-[isopropylidenebis(p-phenyleneoxy)]diacetic acid
;
_chemical_name_common            ?
_chemical_melting_point          ?
_chemical_formula_moiety         ?
_chemical_formula_sum            'C57 H78 O30 Zn2'
_chemical_formula_weight         1373.93

loop_
_atom_type_symbol
_atom_type_description
_atom_type_scat_dispersion_real
_atom_type_scat_dispersion_imag
_atom_type_scat_source
C C 0.0033 0.0016 'International Tables Vol C Tables 4.2.6.8 and 6.1.1.4'
H H 0.0000 0.0000 'International Tables Vol C Tables 4.2.6.8 and 6.1.1.4'
O O 0.0106 0.0060 'International Tables Vol C Tables 4.2.6.8 and 6.1.1.4'
Zn Zn 0.2839 1.4301 'International Tables Vol C Tables 4.2.6.8 and 6.1.1.4'

_symmetry_cell_setting           Trigonal
_symmetry_space_group_name_H-M   P-3c1

loop_
_symmetry_equiv_pos_as_xyz
'x, y, z'
'-y, x-y, z'
'-x+y, -x, z'
'y, x, -z+1/2'
'x-y, -y, -z+1/2'
'-x, -x+y, -z+1/2'
'-x, -y, -z'
'y, -x+y, -z'
'x-y, x, -z'
'-y, -x, z-1/2'
'-x+y, y, z-1/2'
'x, x-y, z-1/2'

_cell_length_a                   20.4114(8)
_cell_length_b                   20.4114(8)
_cell_length_c                   9.7836(7)
_cell_angle_alpha                90.00
_cell_angle_beta                 90.00
_cell_angle_gamma                120.00
_cell_volume                     3530.0(3)
_cell_formula_units_Z            2
_cell_measurement_temperature    295
_cell_measurement_reflns_used    1297
_cell_measurement_theta_min      2.30
_cell_measurement_theta_max      17.55

_exptl_crystal_description       block
_exptl_crystal_colour            colorless
_exptl_crystal_size_max          0.15
_exptl_crystal_size_mid          0.13
_exptl_crystal_size_min          0.11
_exptl_crystal_density_meas      ?
_exptl_crystal_density_diffrn    1.293
_exptl_crystal_density_method    'not measured'
_exptl_crystal_F_000             1440
_exptl_absorpt_coefficient_mu    0.759
_exptl_absorpt_correction_type   multi-scan
_exptl_absorpt_correction_T_min  0.8946
_exptl_absorpt_correction_T_max  0.9211
_exptl_absorpt_process_details   '(SADABS; Sheldrick, 1996)'

_exptl_special_details           
;
?
;

_diffrn_ambient_temperature      295
_diffrn_radiation_wavelength     0.71073
_diffrn_radiation_type           MoK\a
_diffrn_radiation_source         'fine-focus sealed tube'
_diffrn_radiation_monochromator  graphite
_diffrn_measurement_device_type  'CCD area detector'
_diffrn_measurement_method       'phi and omega scans'
_diffrn_detector_area_resol_mean ?
_diffrn_standards_number         0
_diffrn_standards_interval_count .
_diffrn_standards_interval_time  .
_diffrn_standards_decay_%        0
_diffrn_reflns_number            17528
_diffrn_reflns_av_R_equivalents  0.0883
_diffrn_reflns_av_sigmaI/netI    0.0472
_diffrn_reflns_limit_h_min       -23
_diffrn_reflns_limit_h_max       24
_diffrn_reflns_limit_k_min       -19
_diffrn_reflns_limit_k_max       24
_diffrn_reflns_limit_l_min       -11
_diffrn_reflns_limit_l_max       11
_diffrn_reflns_theta_min         2.00
_diffrn_reflns_theta_max         25.05
_reflns_number_total             2040
_reflns_number_gt                1142
_reflns_threshold_expression     >2sigma(I)

_computing_data_collection       'Bruker SMART'
_computing_cell_refinement       'Bruker SMART'
_computing_data_reduction        'Bruker SAINT'
_computing_structure_solution    'SHELXS-97 (Sheldrick, 1990)'
_computing_structure_refinement  'SHELXL-97 (Sheldrick, 1997)'
_computing_molecular_graphics    'Bruker SHELXTL'
_computing_publication_material  'Bruker SHELXTL'

_refine_special_details          
;
Refinement of F^2^ against ALL reflections. The weighted R-factor wR and
goodness of fit S are based on F^2^, conventional R-factors R are based
on F, with F set to zero for negative F^2^. The threshold expression of
F^2^ > 2sigma(F^2^) is used only for calculating R-factors(gt) etc. and is
not relevant to the choice of reflections for refinement. R-factors based
on F^2^ are statistically about twice as large as those based on F, and R-
factors based on ALL data will be even larger.
;

_refine_ls_structure_factor_coef Fsqd
_refine_ls_matrix_type           full
_refine_ls_weighting_scheme      calc
_refine_ls_weighting_details     
'calc w=1/[\s^2^(Fo^2^)+(0.1357P)^2^+0.6474P] where P=(Fo^2^+2Fc^2^)/3'
_atom_sites_solution_primary     direct
_atom_sites_solution_secondary   difmap
_atom_sites_solution_hydrogens   geom
_refine_ls_hydrogen_treatment    constr
_refine_ls_extinction_method     none
_refine_ls_extinction_coef       ?
_refine_ls_number_reflns         2040
_refine_ls_number_parameters     136
_refine_ls_number_restraints     0
_refine_ls_R_factor_all          0.1194
_refine_ls_R_factor_gt           0.0699
_refine_ls_wR_factor_ref         0.2255
_refine_ls_wR_factor_gt          0.1858
_refine_ls_goodness_of_fit_ref   1.009
_refine_ls_restrained_S_all      1.009
_refine_ls_shift/su_max          0.000
_refine_ls_shift/su_mean         0.000

loop_
_atom_site_label
_atom_site_type_symbol
_atom_site_fract_x
_atom_site_fract_y
_atom_site_fract_z
_atom_site_U_iso_or_equiv
_atom_site_adp_type
_atom_site_occupancy
_atom_site_symmetry_multiplicity
_atom_site_calc_flag
_atom_site_refinement_flags
_atom_site_disorder_assembly
_atom_site_disorder_group
Zn1 Zn 0.6667 0.3333 0.58462(9) 0.0544(5) Uani 1 3 d S . .
O1 O 0.7149(3) 0.1244(2) 0.8411(3) 0.0772(13) Uani 1 1 d . . .
O2 O 0.7167(2) 0.2866(2) 0.7119(3) 0.0582(9) Uani 1 1 d . . .
O3 O 0.6638(3) 0.1689(3) 0.6376(4) 0.0928(15) Uani 1 1 d . . .
O4 O 0.6248(2) 0.2371(2) 0.4560(3) 0.0633(10) Uani 1 1 d . . .
H11 H 0.6270 0.2200 0.5341 0.095 Uiso 1 1 d R . .
H12 H 0.6533 0.2292 0.4034 0.095 Uiso 1 1 d R . .
O5 O 0.3956(14) 0.9397(13) 0.745(3) 0.69(3) Uani 1 1 d . . .
H13 H 0.4256 0.9796 0.7013 1.033 Uiso 1 1 d R . .
H14 H 0.3582 0.9114 0.6944 1.033 Uiso 1 1 d R . .
C1 C 0.7412(4) 0.0990(4) 0.9448(5) 0.0669(16) Uani 1 1 d . . .
C2 C 0.7921(3) 0.1445(3) 1.0426(5) 0.0600(14) Uani 1 1 d . . .
H2 H 0.8091 0.1961 1.0436 0.072 Uiso 1 1 calc R . .
C3 C 0.8185(3) 0.1133(3) 1.1402(5) 0.0589(14) Uani 1 1 d . . .
H3 H 0.8535 0.1448 1.2049 0.071 Uiso 1 1 calc R . .
C4 C 0.7939(3) 0.0374(3) 1.1429(4) 0.0522(13) Uani 1 1 d . . .
C5 C 0.7418(4) -0.0070(3) 1.0453(5) 0.081(2) Uani 1 1 d . . .
H5 H 0.7239 -0.0588 1.0455 0.098 Uiso 1 1 calc R . .
C6 C 0.7151(5) 0.0226(4) 0.9470(6) 0.086(2) Uani 1 1 d . . .
H6 H 0.6797 -0.0090 0.8829 0.104 Uiso 1 1 calc R . .
C7 C 0.7385(4) 0.2024(3) 0.8393(5) 0.0645(15) Uani 1 1 d . . .
H7A H 0.7932 0.2317 0.8315 0.077 Uiso 1 1 calc R . .
H7B H 0.7240 0.2163 0.9241 0.077 Uiso 1 1 calc R . .
C8 C 0.7026(3) 0.2197(4) 0.7201(5) 0.0614(15) Uani 1 1 d . . .
C9 C 0.8210(4) 0.0000 1.2500 0.0565(18) Uani 1 2 d S . .
C10 C 0.8355(4) -0.0595(4) 1.1804(7) 0.085(2) Uani 1 1 d . . .
H10A H 0.7908 -0.0953 1.1322 0.128 Uiso 1 1 calc R . .
H10B H 0.8479 -0.0854 1.2485 0.128 Uiso 1 1 calc R . .
H10C H 0.8767 -0.0347 1.1171 0.128 Uiso 1 1 calc R . .

loop_
_atom_site_aniso_label
_atom_site_aniso_U_11
_atom_site_aniso_U_22
_atom_site_aniso_U_33
_atom_site_aniso_U_23
_atom_site_aniso_U_13
_atom_site_aniso_U_12
Zn1 0.0669(6) 0.0669(6) 0.0295(6) 0.000 0.000 0.0334(3)
O1 0.122(4) 0.072(3) 0.045(2) 0.0039(18) -0.015(2) 0.055(3)
O2 0.077(2) 0.071(3) 0.0346(18) 0.0021(16) -0.0010(16) 0.043(2)
O3 0.140(4) 0.090(3) 0.059(2) -0.012(2) -0.032(3) 0.066(3)
O4 0.079(3) 0.076(3) 0.0350(17) 0.0025(17) 0.0026(16) 0.038(2)
O5 1.04(6) 0.88(5) 0.67(4) 0.46(4) 0.57(5) 0.87(5)
C1 0.095(4) 0.084(4) 0.036(3) 0.008(3) 0.000(3) 0.055(4)
C2 0.072(4) 0.055(3) 0.050(3) 0.003(3) 0.006(3) 0.029(3)
C3 0.069(4) 0.071(4) 0.037(3) 0.006(2) 0.002(2) 0.035(3)
C4 0.065(3) 0.064(3) 0.032(2) 0.014(2) 0.015(2) 0.036(3)
C5 0.131(6) 0.054(4) 0.051(3) 0.005(3) -0.022(4) 0.040(4)
C6 0.130(6) 0.071(4) 0.053(3) -0.006(3) -0.029(4) 0.047(4)
C7 0.090(4) 0.068(4) 0.042(3) 0.003(3) -0.002(3) 0.044(3)
C8 0.079(4) 0.072(4) 0.042(3) 0.003(3) 0.004(3) 0.045(4)
C9 0.055(3) 0.070(5) 0.050(4) 0.009(4) 0.0047(18) 0.035(2)
C10 0.089(5) 0.113(5) 0.083(4) 0.026(4) 0.021(4) 0.072(4)

_geom_special_details            
;
All esds (except the esd in the dihedral angle between two l.s. planes)
are estimated using the full covariance matrix. The cell esds are taken
into account individually in the estimation of esds in distances, angles
and torsion angles; correlations between esds in cell parameters are only
used when they are defined by crystal symmetry. An approximate (isotropic)
treatment of cell esds is used for estimating esds involving l.s. planes.
;

loop_
_geom_bond_atom_site_label_1
_geom_bond_atom_site_label_2
_geom_bond_distance
_geom_bond_site_symmetry_2
_geom_bond_publ_flag
Zn1 O2 2.117(4) . ?
Zn1 O2 2.117(4) 2_655 ?
Zn1 O2 2.117(4) 3_665 ?
Zn1 O4 2.120(4) . ?
Zn1 O4 2.120(4) 2_655 ?
Zn1 O4 2.120(4) 3_665 ?
Zn1 H11 2.0920 . ?
O1 C1 1.366(6) . ?
O1 C7 1.413(7) . ?
O2 C8 1.250(7) . ?
O3 C8 1.238(7) . ?
O4 H11 0.8500 . ?
O4 H12 0.8500 . ?
O5 H13 0.8500 . ?
O5 H14 0.8500 . ?
C1 C2 1.376(7) . ?
C1 C6 1.373(8) . ?
C2 C3 1.396(7) . ?
C2 H2 0.9300 . ?
C3 C4 1.369(8) . ?
C3 H3 0.9300 . ?
C4 C5 1.378(8) . ?
C4 C9 1.552(6) . ?
C5 C6 1.385(8) . ?
C5 H5 0.9300 . ?
C6 H6 0.9300 . ?
C7 C8 1.510(7) . ?
C7 H7A 0.9700 . ?
C7 H7B 0.9700 . ?
C9 C10 1.544(8) 5_557 ?
C9 C10 1.544(8) . ?
C9 C4 1.552(6) 5_557 ?
C10 H10A 0.9600 . ?
C10 H10B 0.9600 . ?
C10 H10C 0.9600 . ?

loop_
_geom_angle_atom_site_label_1
_geom_angle_atom_site_label_2
_geom_angle_atom_site_label_3
_geom_angle
_geom_angle_site_symmetry_1
_geom_angle_site_symmetry_3
_geom_angle_publ_flag
O2 Zn1 O2 88.90(13) . 2_655 ?
O2 Zn1 O2 88.90(13) . 3_665 ?
O2 Zn1 O2 88.90(13) 2_655 3_665 ?
O2 Zn1 O4 89.61(14) . . ?
O2 Zn1 O4 177.42(14) 2_655 . ?
O2 Zn1 O4 93.17(14) 3_665 . ?
O2 Zn1 O4 93.17(14) . 2_655 ?
O2 Zn1 O4 89.61(14) 2_655 2_655 ?
O2 Zn1 O4 177.42(14) 3_665 2_655 ?
O4 Zn1 O4 88.37(14) . 2_655 ?
O2 Zn1 O4 177.42(14) . 3_665 ?
O2 Zn1 O4 93.17(14) 2_655 3_665 ?
O2 Zn1 O4 89.61(14) 3_665 3_665 ?
O4 Zn1 O4 88.37(14) . 3_665 ?
O4 Zn1 O4 88.37(14) 2_655 3_665 ?
O2 Zn1 H11 69.4 . . ?
O2 Zn1 H11 156.3 2_655 . ?
O2 Zn1 H11 81.6 3_665 . ?
O4 Zn1 H11 23.3 . . ?
O4 Zn1 H11 100.6 2_655 . ?
O4 Zn1 H11 108.3 3_665 . ?
C1 O1 C7 117.3(4) . . ?
C8 O2 Zn1 129.2(3) . . ?
Zn1 O4 H11 76.5 . . ?
Zn1 O4 H12 122.5 . . ?
H11 O4 H12 106.6 . . ?
H13 O5 H14 109.2 . . ?
O1 C1 C2 124.6(5) . . ?
O1 C1 C6 116.1(5) . . ?
C2 C1 C6 119.2(5) . . ?
C1 C2 C3 120.1(5) . . ?
C1 C2 H2 120.0 . . ?
C3 C2 H2 120.0 . . ?
C4 C3 C2 121.5(5) . . ?
C4 C3 H3 119.2 . . ?
C2 C3 H3 119.2 . . ?
C3 C4 C5 117.2(5) . . ?
C3 C4 C9 123.4(4) . . ?
C5 C4 C9 119.4(4) . . ?
C4 C5 C6 122.4(6) . . ?
C4 C5 H5 118.8 . . ?
C6 C5 H5 118.8 . . ?
C1 C6 C5 119.5(6) . . ?
C1 C6 H6 120.2 . . ?
C5 C6 H6 120.2 . . ?
O1 C7 C8 109.9(5) . . ?
O1 C7 H7A 109.7 . . ?
C8 C7 H7A 109.7 . . ?
O1 C7 H7B 109.7 . . ?
C8 C7 H7B 109.7 . . ?
H7A C7 H7B 108.2 . . ?
O3 C8 O2 125.0(5) . . ?
O3 C8 C7 119.4(5) . . ?
O2 C8 C7 115.6(5) . . ?
C10 C9 C10 108.5(7) 5_557 . ?
C10 C9 C4 111.1(3) 5_557 . ?
C10 C9 C4 110.1(3) . . ?
C10 C9 C4 110.1(3) 5_557 5_557 ?
C10 C9 C4 111.1(3) . 5_557 ?
C4 C9 C4 106.0(5) . 5_557 ?
C9 C10 H10A 109.5 . . ?
C9 C10 H10B 109.5 . . ?
H10A C10 H10B 109.5 . . ?
C9 C10 H10C 109.5 . . ?
H10A C10 H10C 109.5 . . ?
H10B C10 H10C 109.5 . . ?

_diffrn_measured_fraction_theta_max 0.976
_diffrn_reflns_theta_full        25.05
_diffrn_measured_fraction_theta_full 0.976
_refine_diff_density_max         0.616
_refine_diff_density_min         -0.420
_refine_diff_density_rms         0.088
