####################################################################### 
# 
# This file contains crystal structure data downloaded from the 
# Cambridge Structural Database (CSD) hosted by the Cambridge 
# Crystallographic Data Centre (CCDC).
# 
# Full information about CCDC data access policies and citation 
# guidelines are available at http://www.ccdc.cam.ac.uk/access/V1 
# 
# Audit and citation data items may have been added by the CCDC. 
# Please retain this information to preserve the provenance of 
# this file and to allow appropriate attribution of the data. 
# 
#######################################################################

data_sad2
_audit_block_doi                 10.5517/ccswgy1
_database_code_depnum_ccdc_archive 'CCDC 741394'
loop_
_citation_id
_citation_doi
_citation_year
1 10.1021/cg9015096 2010
_audit_update_record             
;
2009-07-23 deposited with the CCDC.	2024-07-12 downloaded from the CCDC.
;



_audit_creation_method           SHELXL-97
_chemical_name_systematic        
;
?
;
_chemical_name_common            ?
_chemical_melting_point          'not measured'
_chemical_formula_moiety         'C30 H16 Cu3 N9 O12'
_chemical_formula_sum            'C30 H16 Cu3 N9 O12'
_chemical_formula_weight         885.14

loop_
_atom_type_symbol
_atom_type_description
_atom_type_scat_dispersion_real
_atom_type_scat_dispersion_imag
_atom_type_scat_source
C C 0.0033 0.0016 'International Tables Vol C Tables 4.2.6.8 and 6.1.1.4'
H H 0.0000 0.0000 'International Tables Vol C Tables 4.2.6.8 and 6.1.1.4'
N N 0.0061 0.0033 'International Tables Vol C Tables 4.2.6.8 and 6.1.1.4'
O O 0.0106 0.0060 'International Tables Vol C Tables 4.2.6.8 and 6.1.1.4'
Cu Cu 0.3201 1.2651 'International Tables Vol C Tables 4.2.6.8 and 6.1.1.4'

_symmetry_cell_setting           Cubic
_symmetry_space_group_name_H-M   P4(3)32

loop_
_symmetry_equiv_pos_as_xyz
'x, y, z'
'-x+1/2, -y, z+1/2'
'-x, y+1/2, -z+1/2'
'x+1/2, -y+1/2, -z'
'z, x, y'
'z+1/2, -x+1/2, -y'
'-z+1/2, -x, y+1/2'
'-z, x+1/2, -y+1/2'
'y, z, x'
'-y, z+1/2, -x+1/2'
'y+1/2, -z+1/2, -x'
'-y+1/2, -z, x+1/2'
'y+1/4, x+3/4, -z+3/4'
'-y+1/4, -x+1/4, -z+1/4'
'y+3/4, -x+3/4, z+1/4'
'-y+3/4, x+1/4, z+3/4'
'x+1/4, z+3/4, -y+3/4'
'-x+3/4, z+1/4, y+3/4'
'-x+1/4, -z+1/4, -y+1/4'
'x+3/4, -z+3/4, y+1/4'
'z+1/4, y+3/4, -x+3/4'
'z+3/4, -y+3/4, x+1/4'
'-z+3/4, y+1/4, x+3/4'
'-z+1/4, -y+1/4, -x+1/4'

_cell_length_a                   27.289(3)
_cell_length_b                   27.289(3)
_cell_length_c                   27.289(3)
_cell_angle_alpha                90.00
_cell_angle_beta                 90.00
_cell_angle_gamma                90.00
_cell_volume                     20322(4)
_cell_formula_units_Z            12
_cell_measurement_temperature    298(2)
_cell_measurement_reflns_used    7704
_cell_measurement_theta_min      2.99
_cell_measurement_theta_max      27.46

_exptl_crystal_description       block
_exptl_crystal_colour            'black green'
_exptl_crystal_size_max          0.17
_exptl_crystal_size_mid          0.16
_exptl_crystal_size_min          0.16
_exptl_crystal_density_meas      none
_exptl_crystal_density_diffrn    0.868
_exptl_crystal_density_method    'not measured'
_exptl_crystal_F_000             5304
_exptl_absorpt_coefficient_mu    0.972
_exptl_absorpt_correction_type   empirical
_exptl_absorpt_correction_T_min  0.7444
_exptl_absorpt_correction_T_max  0.8248
_exptl_absorpt_process_details   Process-auto

_exptl_special_details           
;
?
;

_diffrn_ambient_temperature      298(2)
_diffrn_radiation_wavelength     0.71073
_diffrn_radiation_type           MoK\a
_diffrn_radiation_source         'fine-focus sealed tube'
_diffrn_radiation_monochromator  graphite
_diffrn_measurement_device_type  'Rigaku RAXIS-RAPID'
_diffrn_measurement_method       omega-scan
_diffrn_detector_area_resol_mean 10.0
_diffrn_standards_number         0
_diffrn_standards_interval_count 0
_diffrn_standards_interval_time  0
_diffrn_standards_decay_%        0
_diffrn_reflns_number            184556
_diffrn_reflns_av_R_equivalents  0.2595
_diffrn_reflns_av_sigmaI/netI    0.1226
_diffrn_reflns_limit_h_min       -35
_diffrn_reflns_limit_h_max       35
_diffrn_reflns_limit_k_min       -34
_diffrn_reflns_limit_k_max       35
_diffrn_reflns_limit_l_min       -35
_diffrn_reflns_limit_l_max       35
_diffrn_reflns_theta_min         2.99
_diffrn_reflns_theta_max         27.46
_reflns_number_total             7704
_reflns_number_gt                4741
_reflns_threshold_expression     >2sigma(I)

_computing_data_collection       Process-auto
_computing_cell_refinement       Process-auto
_computing_data_reduction        Process-auto
_computing_structure_solution    'SHELXS-97 (Sheldrick, 1990)'
_computing_structure_refinement  'SHELXL-97 (Sheldrick, 1997)'
_computing_molecular_graphics    SHELXP-97
_computing_publication_material  SHELXTL

_refine_special_details          
;
Refinement of F^2^ against ALL reflections. The weighted R-factor wR and
goodness of fit S are based on F^2^, conventional R-factors R are based
on F, with F set to zero for negative F^2^. The threshold expression of
F^2^ > 2sigma(F^2^) is used only for calculating R-factors(gt) etc. and is
not relevant to the choice of reflections for refinement. R-factors based
on F^2^ are statistically about twice as large as those based on F, and R-
factors based on ALL data will be even larger.
;

_refine_ls_structure_factor_coef Fsqd
_refine_ls_matrix_type           full
_refine_ls_weighting_scheme      calc
_refine_ls_weighting_details     
'calc w=1/[\s^2^(Fo^2^)+(0.1453P)^2^+0.0000P] where P=(Fo^2^+2Fc^2^)/3'
_atom_sites_solution_primary     direct
_atom_sites_solution_secondary   difmap
_atom_sites_solution_hydrogens   geom
_refine_ls_hydrogen_treatment    mixed
_refine_ls_extinction_method     none
_refine_ls_extinction_coef       ?
_refine_ls_abs_structure_details 'Flack H D (1983), Acta Cryst. A39, 876-881'
_refine_ls_abs_structure_Flack   0.00(0)
_refine_ls_number_reflns         7704
_refine_ls_number_parameters     249
_refine_ls_number_restraints     0
_refine_ls_R_factor_all          0.1972
_refine_ls_R_factor_gt           0.1142
_refine_ls_wR_factor_ref         0.2915
_refine_ls_wR_factor_gt          0.2472
_refine_ls_goodness_of_fit_ref   1.120
_refine_ls_restrained_S_all      1.120
_refine_ls_shift/su_max          0.000
_refine_ls_shift/su_mean         0.000

loop_
_atom_site_label
_atom_site_type_symbol
_atom_site_fract_x
_atom_site_fract_y
_atom_site_fract_z
_atom_site_U_iso_or_equiv
_atom_site_adp_type
_atom_site_occupancy
_atom_site_symmetry_multiplicity
_atom_site_calc_flag
_atom_site_refinement_flags
_atom_site_disorder_assembly
_atom_site_disorder_group
Cu1 Cu -0.17937(4) -0.60611(4) -0.26416(4) 0.0482(3) Uani 1 1 d . . .
Cu2 Cu -0.3750 -0.49923(5) -0.25077(5) 0.0636(5) Uani 1 2 d S . .
O1 O -0.1461(2) -0.5317(3) -0.2416(3) 0.069(2) Uani 1 1 d . . .
O2 O -0.1705(3) -0.4551(3) -0.2427(3) 0.091(2) Uani 1 1 d . . .
O3 O -0.3255(3) -0.4242(3) -0.2455(3) 0.077(2) Uani 1 1 d . . .
O4 O -0.2468(3) -0.4083(3) -0.2402(4) 0.095(3) Uani 1 1 d . . .
H4 H -0.2215 -0.4241 -0.2367 0.080 Uiso 1 1 calc . . .
O5 O -0.1251(3) -0.6506(3) -0.2683(3) 0.078(2) Uani 1 1 d . . .
O6 O -0.0748(4) -0.6887(4) -0.3194(4) 0.107(3) Uani 1 1 d . . .
H6A H -0.060(4) -0.687(4) -0.353(4) 0.080 Uiso 1 1 d . . .
N1 N -0.2391(2) -0.5659(2) -0.2617(3) 0.0429(17) Uani 1 1 d . . .
N2 N -0.3111(2) -0.5237(2) -0.2584(3) 0.0419(17) Uani 1 1 d . . .
N3 N -0.3643(3) -0.6988(3) -0.3052(3) 0.0466(18) Uani 1 1 d . . .
N4 N -0.1646(2) -0.5974(2) -0.3354(2) 0.0355(15) Uani 1 1 d . . .
N5 N -0.2893(3) -0.4607(3) -0.3750 0.072(4) Uani 1 2 d S . .
C1 C -0.2863(3) -0.5658(3) -0.2663(3) 0.045(2) Uani 1 1 d . . .
C2 C -0.2307(3) -0.5158(3) -0.2520(3) 0.0358(18) Uani 1 1 d . . .
C3 C -0.2740(3) -0.4895(3) -0.2505(3) 0.046(2) Uani 1 1 d . . .
C4 C -0.1767(4) -0.5005(3) -0.2432(3) 0.048(2) Uani 1 1 d . . .
C5 C -0.2858(5) -0.4401(4) -0.2492(4) 0.072(3) Uani 1 1 d . . .
C6 C -0.3115(4) -0.6986(4) -0.3067(4) 0.064(3) Uani 1 1 d . . .
H6 H -0.2929 -0.7254 -0.3165 0.080 Uiso 1 1 calc . . .
C7 C -0.2903(3) -0.6520(4) -0.2911(4) 0.060(3) Uani 1 1 d . . .
H7 H -0.2563 -0.6508 -0.2890 0.080 Uiso 1 1 calc . . .
C8 C -0.3125(3) -0.6139(3) -0.2804(3) 0.042(2) Uani 1 1 d . . .
C9 C -0.3651(4) -0.6158(4) -0.2835(5) 0.073(3) Uani 1 1 d . . .
H9 H -0.3837 -0.5873 -0.2809 0.080 Uiso 1 1 calc . . .
C10 C -0.3868(3) -0.6598(3) -0.2903(4) 0.054(2) Uani 1 1 d . . .
H10 H -0.4201 -0.6622 -0.2838 0.080 Uiso 1 1 calc . . .
C11 C -0.1765(3) -0.5735(3) -0.3750 0.041(3) Uani 1 2 d S . .
C12 C -0.1300(3) -0.6293(3) -0.3518(3) 0.0351(17) Uani 1 1 d . . .
C13 C -0.1088(4) -0.6575(4) -0.3101(5) 0.069(3) Uani 1 1 d . . .
C14 C -0.2405(5) -0.4472(4) -0.3700(5) 0.079(3) Uani 1 1 d . . .
H14 H -0.2315 -0.4146 -0.3660 0.080 Uiso 1 1 calc . . .
C15 C -0.2041(4) -0.4855(4) -0.3713(4) 0.061(3) Uani 1 1 d . . .
H15 H -0.1708 -0.4781 -0.3694 0.080 Uiso 1 1 calc . . .
C16 C -0.2191(3) -0.5309(3) -0.3750 0.045(3) Uani 1 2 d S . .

loop_
_atom_site_aniso_label
_atom_site_aniso_U_11
_atom_site_aniso_U_22
_atom_site_aniso_U_33
_atom_site_aniso_U_23
_atom_site_aniso_U_13
_atom_site_aniso_U_12
Cu1 0.0439(6) 0.0523(7) 0.0483(7) 0.0076(5) 0.0030(5) 0.0035(5)
Cu2 0.0544(11) 0.0682(8) 0.0682(8) 0.0020(9) 0.0041(6) 0.0041(6)
O1 0.043(4) 0.072(5) 0.093(6) 0.014(4) -0.004(4) -0.007(4)
O2 0.077(6) 0.081(6) 0.114(7) -0.005(5) 0.014(5) -0.005(4)
O3 0.078(6) 0.062(5) 0.089(6) 0.001(4) 0.010(4) 0.016(4)
O4 0.080(6) 0.059(5) 0.145(9) 0.009(5) -0.001(5) -0.004(4)
O5 0.064(5) 0.100(6) 0.070(5) 0.015(4) 0.009(4) 0.032(4)
O6 0.109(8) 0.119(8) 0.093(7) 0.017(6) 0.006(6) 0.017(6)
N1 0.037(4) 0.031(4) 0.060(5) 0.016(3) 0.001(3) -0.005(3)
N2 0.033(4) 0.042(4) 0.051(4) 0.001(3) 0.006(3) 0.023(3)
N3 0.049(5) 0.046(4) 0.044(4) 0.008(3) -0.002(3) -0.022(4)
N4 0.038(4) 0.044(4) 0.025(3) 0.010(3) -0.010(3) 0.001(3)
N5 0.075(6) 0.075(6) 0.064(8) 0.013(5) 0.013(5) 0.019(8)
C1 0.055(6) 0.049(5) 0.030(4) -0.002(4) 0.007(4) -0.020(4)
C2 0.048(5) 0.030(4) 0.029(4) 0.006(3) 0.006(3) 0.000(3)
C3 0.045(5) 0.052(6) 0.040(5) 0.001(4) 0.009(4) -0.011(4)
C4 0.054(6) 0.038(5) 0.052(6) 0.007(4) 0.003(4) -0.002(5)
C5 0.076(8) 0.062(8) 0.078(8) 0.001(6) 0.005(6) 0.005(6)
C6 0.069(7) 0.048(6) 0.076(7) 0.003(5) 0.003(5) -0.007(5)
C7 0.040(5) 0.070(7) 0.071(7) 0.000(5) -0.002(5) 0.001(5)
C8 0.033(5) 0.049(5) 0.045(5) 0.000(4) 0.001(4) -0.001(4)
C9 0.054(6) 0.056(7) 0.108(9) -0.003(6) 0.004(6) 0.007(5)
C10 0.043(5) 0.044(5) 0.075(7) -0.016(5) 0.009(5) 0.002(4)
C11 0.026(3) 0.026(3) 0.071(8) -0.005(4) -0.005(4) 0.001(5)
C12 0.022(4) 0.038(4) 0.045(4) 0.000(4) 0.003(3) -0.001(3)
C13 0.036(5) 0.080(7) 0.090(9) -0.003(6) 0.016(5) 0.030(5)
C14 0.094(9) 0.051(6) 0.091(9) 0.006(6) 0.019(7) 0.000(6)
C15 0.056(6) 0.058(6) 0.070(7) -0.010(5) 0.001(5) -0.003(5)
C16 0.038(4) 0.038(4) 0.059(8) 0.009(4) 0.009(4) 0.011(5)

_geom_special_details            
;
All esds (except the esd in the dihedral angle between two l.s. planes)
are estimated using the full covariance matrix. The cell esds are taken
into account individually in the estimation of esds in distances, angles
and torsion angles; correlations between esds in cell parameters are only
used when they are defined by crystal symmetry. An approximate (isotropic)
treatment of cell esds is used for estimating esds involving l.s. planes.
;

loop_
_geom_bond_atom_site_label_1
_geom_bond_atom_site_label_2
_geom_bond_distance
_geom_bond_site_symmetry_2
_geom_bond_publ_flag
Cu1 O5 1.918(7) . ?
Cu1 N1 1.967(7) . ?
Cu1 N4 1.999(6) . ?
Cu1 N3 2.004(7) 7_445 ?
Cu1 O1 2.308(7) . ?
Cu2 N2 1.879(6) . ?
Cu2 N2 1.879(6) 19_444 ?
O1 C4 1.193(11) . ?
O2 C4 1.251(11) . ?
O3 C5 1.171(13) . ?
O4 C5 1.395(14) . ?
O4 H4 0.8200 . ?
O5 C13 1.237(13) . ?
O6 C13 1.286(13) . ?
O6 H6A 1.01(10) . ?
N1 C1 1.294(11) . ?
N1 C2 1.411(10) . ?
N2 C1 1.351(11) . ?
N2 C3 1.396(11) . ?
N3 C10 1.293(11) . ?
N3 C6 1.441(13) . ?
N3 Cu1 2.004(7) 10_444 ?
N4 C11 1.305(8) . ?
N4 C12 1.359(10) . ?
N5 C14 1.389(14) 14_444 ?
N5 C14 1.389(14) . ?
C1 C8 1.541(12) . ?
C2 C3 1.384(12) . ?
C2 C4 1.549(12) . ?
C3 C5 1.385(15) . ?
C6 C7 1.460(15) . ?
C6 H6 0.9300 . ?
C7 C8 1.239(13) . ?
C7 H7 0.9300 . ?
C8 C9 1.439(13) . ?
C9 C10 1.352(14) . ?
C9 H9 0.9300 . ?
C10 H10 0.9300 . ?
C11 N4 1.305(8) 14_444 ?
C11 C16 1.643(15) . ?
C12 C12 1.315(15) 14_444 ?
C12 C13 1.492(14) . ?
C14 C15 1.441(16) . ?
C14 H14 0.9300 . ?
C15 C16 1.310(11) . ?
C15 H15 0.9300 . ?
C16 C15 1.310(11) 14_444 ?

loop_
_geom_angle_atom_site_label_1
_geom_angle_atom_site_label_2
_geom_angle_atom_site_label_3
_geom_angle
_geom_angle_site_symmetry_1
_geom_angle_site_symmetry_3
_geom_angle_publ_flag
O5 Cu1 N1 174.4(4) . . ?
O5 Cu1 N4 82.0(3) . . ?
N1 Cu1 N4 97.7(3) . . ?
O5 Cu1 N3 87.7(3) . 7_445 ?
N1 Cu1 N3 91.1(3) . 7_445 ?
N4 Cu1 N3 162.9(3) . 7_445 ?
O5 Cu1 O1 105.7(3) . . ?
N1 Cu1 O1 79.9(3) . . ?
N4 Cu1 O1 94.3(3) . . ?
N3 Cu1 O1 101.6(3) 7_445 . ?
N2 Cu2 N2 160.1(4) . 19_444 ?
C4 O1 Cu1 110.1(6) . . ?
C5 O4 H4 109.5 . . ?
C13 O5 Cu1 115.4(7) . . ?
C13 O6 H6A 116(6) . . ?
C1 N1 C2 100.4(7) . . ?
C1 N1 Cu1 145.3(6) . . ?
C2 N1 Cu1 114.3(5) . . ?
C1 N2 C3 103.4(7) . . ?
C1 N2 Cu2 141.7(6) . . ?
C3 N2 Cu2 114.7(6) . . ?
C10 N3 C6 118.7(8) . . ?
C10 N3 Cu1 127.4(6) . 10_444 ?
C6 N3 Cu1 113.6(6) . 10_444 ?
C11 N4 C12 102.7(7) . . ?
C11 N4 Cu1 144.5(6) . . ?
C12 N4 Cu1 112.7(5) . . ?
C14 N5 C14 121.1(13) 14_444 . ?
N1 C1 N2 118.9(7) . . ?
N1 C1 C8 119.0(8) . . ?
N2 C1 C8 122.1(8) . . ?
C3 C2 N1 111.6(7) . . ?
C3 C2 C4 131.9(7) . . ?
N1 C2 C4 116.5(7) . . ?
C2 C3 C5 134.7(9) . . ?
C2 C3 N2 105.5(7) . . ?
C5 C3 N2 119.1(9) . . ?
O1 C4 O2 127.7(10) . . ?
O1 C4 C2 118.6(8) . . ?
O2 C4 C2 113.5(8) . . ?
O3 C5 C3 125.2(11) . . ?
O3 C5 O4 117.4(11) . . ?
C3 C5 O4 115.7(10) . . ?
N3 C6 C7 113.0(8) . . ?
N3 C6 H6 123.5 . . ?
C7 C6 H6 123.5 . . ?
C8 C7 C6 127.3(9) . . ?
C8 C7 H7 116.3 . . ?
C6 C7 H7 116.3 . . ?
C7 C8 C9 116.3(9) . . ?
C7 C8 C1 123.2(8) . . ?
C9 C8 C1 120.5(8) . . ?
C10 C9 C8 118.4(9) . . ?
C10 C9 H9 120.8 . . ?
C8 C9 H9 120.8 . . ?
N3 C10 C9 124.5(9) . . ?
N3 C10 H10 117.8 . . ?
C9 C10 H10 117.8 . . ?
N4 C11 N4 115.8(10) 14_444 . ?
N4 C11 C16 122.1(5) 14_444 . ?
N4 C11 C16 122.1(5) . . ?
C12 C12 N4 109.1(4) 14_444 . ?
C12 C12 C13 139.4(5) 14_444 . ?
N4 C12 C13 110.3(7) . . ?
O5 C13 O6 122.9(11) . . ?
O5 C13 C12 119.0(8) . . ?
O6 C13 C12 118.1(10) . . ?
N5 C14 C15 117.9(10) . . ?
N5 C14 H14 121.1 . . ?
C15 C14 H14 121.1 . . ?
C16 C15 C14 118.1(10) . . ?
C16 C15 H15 120.9 . . ?
C14 C15 H15 120.9 . . ?
C15 C16 C15 126.8(12) . 14_444 ?
C15 C16 C11 116.6(6) . . ?
C15 C16 C11 116.6(6) 14_444 . ?

loop_
_geom_hbond_atom_site_label_D
_geom_hbond_atom_site_label_H
_geom_hbond_atom_site_label_A
_geom_hbond_distance_DH
_geom_hbond_distance_HA
_geom_hbond_distance_DA
_geom_hbond_angle_DHA
_geom_hbond_site_symmetry_A
O4 H4 O2 0.82 1.64 2.444(12) 167.5 .
O6 H6A O6 1.01(10) 2.14(10) 3.08(2) 154(9) 14_444

_diffrn_measured_fraction_theta_max 0.988
_diffrn_reflns_theta_full        27.46
_diffrn_measured_fraction_theta_full 0.988
_refine_diff_density_max         0.482
_refine_diff_density_min         -1.699
_refine_diff_density_rms         0.097
#=================================================================end

