####################################################################### 
# 
# This file contains crystal structure data downloaded from the 
# Cambridge Structural Database (CSD) hosted by the Cambridge 
# Crystallographic Data Centre (CCDC).
# 
# Full information about CCDC data access policies and citation 
# guidelines are available at http://www.ccdc.cam.ac.uk/access/V1 
# 
# Audit and citation data items may have been added by the CCDC. 
# Please retain this information to preserve the provenance of 
# this file and to allow appropriate attribution of the data. 
# 
#######################################################################

data_aaa
_audit_block_doi                 10.5517/ccswgx0
_database_code_depnum_ccdc_archive 'CCDC 741393'
loop_
_citation_id
_citation_doi
_citation_year
1 10.1021/cg9015096 2010
_audit_update_record             
;
2009-07-23 deposited with the CCDC.	2024-07-12 downloaded from the CCDC.
;

_audit_creation_method           SHELXL-97
_chemical_name_systematic        
;
?
;
_chemical_name_common            ?
_chemical_melting_point          'not measured'
_chemical_formula_moiety         'C10 H5 Cu N3 O4'
_chemical_formula_sum            'C10 H5 Cu N3 O4'
_chemical_formula_weight         294.71

loop_
_atom_type_symbol
_atom_type_description
_atom_type_scat_dispersion_real
_atom_type_scat_dispersion_imag
_atom_type_scat_source
C C 0.0033 0.0016 'International Tables Vol C Tables 4.2.6.8 and 6.1.1.4'
H H 0.0000 0.0000 'International Tables Vol C Tables 4.2.6.8 and 6.1.1.4'
N N 0.0061 0.0033 'International Tables Vol C Tables 4.2.6.8 and 6.1.1.4'
O O 0.0106 0.0060 'International Tables Vol C Tables 4.2.6.8 and 6.1.1.4'
Cu Cu 0.3201 1.2651 'International Tables Vol C Tables 4.2.6.8 and 6.1.1.4'

_symmetry_cell_setting           Cubic
_symmetry_space_group_name_H-M   P4(3)32

loop_
_symmetry_equiv_pos_as_xyz
'x, y, z'
'-x+1/2, -y, z+1/2'
'-x, y+1/2, -z+1/2'
'x+1/2, -y+1/2, -z'
'z, x, y'
'z+1/2, -x+1/2, -y'
'-z+1/2, -x, y+1/2'
'-z, x+1/2, -y+1/2'
'y, z, x'
'-y, z+1/2, -x+1/2'
'y+1/2, -z+1/2, -x'
'-y+1/2, -z, x+1/2'
'y+1/4, x+3/4, -z+3/4'
'-y+1/4, -x+1/4, -z+1/4'
'y+3/4, -x+3/4, z+1/4'
'-y+3/4, x+1/4, z+3/4'
'x+1/4, z+3/4, -y+3/4'
'-x+3/4, z+1/4, y+3/4'
'-x+1/4, -z+1/4, -y+1/4'
'x+3/4, -z+3/4, y+1/4'
'z+1/4, y+3/4, -x+3/4'
'z+3/4, -y+3/4, x+1/4'
'-z+3/4, y+1/4, x+3/4'
'-z+1/4, -y+1/4, -x+1/4'

_cell_length_a                   24.024(3)
_cell_length_b                   24.024(3)
_cell_length_c                   24.024(3)
_cell_angle_alpha                90.00
_cell_angle_beta                 90.00
_cell_angle_gamma                90.00
_cell_volume                     13866(3)
_cell_formula_units_Z            24
_cell_measurement_temperature    298(2)
_cell_measurement_reflns_used    5255
_cell_measurement_theta_min      3.17
_cell_measurement_theta_max      27.48

_exptl_crystal_description       block
_exptl_crystal_colour            blue
_exptl_crystal_size_max          0.23
_exptl_crystal_size_mid          0.18
_exptl_crystal_size_min          0.18
_exptl_crystal_density_meas      none
_exptl_crystal_density_diffrn    0.847
_exptl_crystal_density_method    'not measured'
_exptl_crystal_F_000             3528
_exptl_absorpt_coefficient_mu    0.950
_exptl_absorpt_correction_type   empirical
_exptl_absorpt_correction_T_min  0.8081
_exptl_absorpt_correction_T_max  0.8410
_exptl_absorpt_process_details   Process-auto

_exptl_special_details           
;
?
;

_diffrn_ambient_temperature      298(2)
_diffrn_radiation_wavelength     0.71073
_diffrn_radiation_type           MoK\a
_diffrn_radiation_source         'fine-focus sealed tube'
_diffrn_radiation_monochromator  graphite
_diffrn_measurement_device_type  'Rigaku RAXIS-RAPID'
_diffrn_measurement_method       omega-scan
_diffrn_detector_area_resol_mean 10.0
_diffrn_standards_number         0
_diffrn_standards_interval_count 0
_diffrn_standards_interval_time  0
_diffrn_standards_decay_%        0
_diffrn_reflns_number            123169
_diffrn_reflns_av_R_equivalents  0.2257
_diffrn_reflns_av_sigmaI/netI    0.0892
_diffrn_reflns_limit_h_min       -31
_diffrn_reflns_limit_h_max       31
_diffrn_reflns_limit_k_min       -29
_diffrn_reflns_limit_k_max       31
_diffrn_reflns_limit_l_min       -30
_diffrn_reflns_limit_l_max       31
_diffrn_reflns_theta_min         3.17
_diffrn_reflns_theta_max         27.48
_reflns_number_total             5255
_reflns_number_gt                3822
_reflns_threshold_expression     >2sigma(I)

_computing_data_collection       Process-auto
_computing_cell_refinement       Process-auto
_computing_data_reduction        Process-auto
_computing_structure_solution    'SHELXS-97 (Sheldrick, 1990)'
_computing_structure_refinement  'SHELXL-97 (Sheldrick, 1997)'
_computing_molecular_graphics    ?
_computing_publication_material  ?

_refine_special_details          
;
Refinement of F^2^ against ALL reflections. The weighted R-factor wR and
goodness of fit S are based on F^2^, conventional R-factors R are based
on F, with F set to zero for negative F^2^. The threshold expression of
F^2^ > 2sigma(F^2^) is used only for calculating R-factors(gt) etc. and is
not relevant to the choice of reflections for refinement. R-factors based
on F^2^ are statistically about twice as large as those based on F, and R-
factors based on ALL data will be even larger.
;

_refine_ls_structure_factor_coef Fsqd
_refine_ls_matrix_type           full
_refine_ls_weighting_scheme      calc
_refine_ls_weighting_details     
'calc w=1/[\s^2^(Fo^2^)+(0.1422P)^2^+16.4751P] where P=(Fo^2^+2Fc^2^)/3'
_atom_sites_solution_primary     direct
_atom_sites_solution_secondary   difmap
_atom_sites_solution_hydrogens   geom
_refine_ls_hydrogen_treatment    constr
_refine_ls_extinction_method     none
_refine_ls_extinction_coef       ?
_refine_ls_abs_structure_details 'Flack H D (1983), Acta Cryst. A39, 876-881'
_refine_ls_abs_structure_Flack   0.00
_refine_ls_number_reflns         5255
_refine_ls_number_parameters     163
_refine_ls_number_restraints     30
_refine_ls_R_factor_all          0.1629
_refine_ls_R_factor_gt           0.1156
_refine_ls_wR_factor_ref         0.2910
_refine_ls_wR_factor_gt          0.2632
_refine_ls_goodness_of_fit_ref   1.139
_refine_ls_restrained_S_all      1.138
_refine_ls_shift/su_max          0.000
_refine_ls_shift/su_mean         0.000

loop_
_atom_site_label
_atom_site_type_symbol
_atom_site_fract_x
_atom_site_fract_y
_atom_site_fract_z
_atom_site_U_iso_or_equiv
_atom_site_adp_type
_atom_site_occupancy
_atom_site_symmetry_multiplicity
_atom_site_calc_flag
_atom_site_refinement_flags
_atom_site_disorder_assembly
_atom_site_disorder_group
Cu1 Cu 0.74213(4) 0.00991(4) 0.05160(4) 0.0458(4) Uani 1 1 d . . .
O1 O 0.6918(4) 0.0849(3) 0.0419(2) 0.084(3) Uani 1 1 d . . .
O2 O 0.6702(4) 0.1459(4) -0.0233(4) 0.106(3) Uani 1 1 d U . .
O3 O 0.7039(3) 0.0685(3) -0.2019(3) 0.081(2) Uani 1 1 d U . .
O4 O 0.6722(4) 0.1367(5) -0.1469(5) 0.114(3) Uani 1 1 d U . .
H4 H 0.6661 0.1426 -0.1139 0.100 Uiso 1 1 calc . . .
N1 N 0.7362(3) 0.0147(3) -0.0283(2) 0.0433(15) Uani 1 1 d . . .
N2 N 0.7349(3) 0.0071(3) -0.1191(3) 0.0461(17) Uani 1 1 d . . .
N3 N 0.8052(3) -0.1845(3) -0.0463(3) 0.0423(15) Uani 1 1 d . . .
C1 C 0.7486(3) -0.0180(4) -0.0725(3) 0.0404(19) Uani 1 1 d . . .
C2 C 0.7125(5) 0.0596(4) -0.0491(4) 0.057(2) Uani 1 1 d . . .
C3 C 0.7117(4) 0.0549(4) -0.1073(3) 0.057(3) Uani 1 1 d . . .
C4 C 0.8276(3) -0.1433(4) -0.0202(3) 0.046(2) Uani 1 1 d . . .
H4A H 0.8556 -0.1512 0.0053 0.080 Uiso 1 1 calc . . .
C5 C 0.8123(4) -0.0866(4) -0.0280(4) 0.054(2) Uani 1 1 d . . .
H5 H 0.8284 -0.0584 -0.0069 0.080 Uiso 1 1 calc . . .
C6 C 0.7729(3) -0.0751(3) -0.0678(3) 0.0376(18) Uani 1 1 d . . .
C7 C 0.7539(3) -0.1160(3) -0.1007(3) 0.0395(18) Uani 1 1 d . . .
H7 H 0.7308 -0.1080 -0.1306 0.080 Uiso 1 1 calc . . .
C8 C 0.7695(3) -0.1706(4) -0.0891(3) 0.044(2) Uani 1 1 d . . .
H8 H 0.7553 -0.1989 -0.1113 0.080 Uiso 1 1 calc . . .
C9 C 0.6898(5) 0.1014(5) -0.0067(5) 0.075(3) Uani 1 1 d U . .
C10 C 0.6923(5) 0.0890(5) -0.1527(5) 0.073(3) Uani 1 1 d U . .

loop_
_atom_site_aniso_label
_atom_site_aniso_U_11
_atom_site_aniso_U_22
_atom_site_aniso_U_33
_atom_site_aniso_U_23
_atom_site_aniso_U_13
_atom_site_aniso_U_12
Cu1 0.0608(7) 0.0554(7) 0.0211(4) -0.0009(4) 0.0015(4) -0.0162(5)
O1 0.153(8) 0.077(5) 0.023(3) -0.018(3) 0.026(4) -0.004(5)
O2 0.107(3) 0.106(3) 0.105(3) -0.0001(10) 0.0005(10) 0.0017(10)
O3 0.082(2) 0.081(2) 0.079(2) 0.0000(10) -0.0007(10) 0.0023(10)
O4 0.115(3) 0.114(3) 0.114(3) -0.0003(10) 0.0000(10) 0.0020(10)
N1 0.069(5) 0.042(3) 0.019(3) -0.004(3) 0.012(3) 0.010(3)
N2 0.059(4) 0.051(4) 0.028(3) -0.002(3) -0.006(3) 0.018(3)
N3 0.031(3) 0.051(4) 0.045(4) 0.005(3) 0.004(3) 0.003(3)
C1 0.035(4) 0.064(5) 0.022(3) 0.001(3) -0.002(3) 0.001(4)
C2 0.081(7) 0.058(6) 0.034(5) -0.003(4) 0.004(4) 0.015(5)
C3 0.081(7) 0.069(6) 0.019(4) -0.008(4) 0.010(4) 0.017(5)
C4 0.034(4) 0.062(6) 0.041(5) 0.020(4) 0.005(4) 0.019(4)
C5 0.047(5) 0.070(6) 0.045(5) -0.005(4) -0.007(4) 0.001(4)
C6 0.037(4) 0.048(5) 0.028(4) 0.022(3) 0.009(3) 0.005(3)
C7 0.041(4) 0.049(5) 0.029(4) -0.007(3) -0.005(3) 0.008(4)
C8 0.028(4) 0.060(5) 0.044(5) -0.010(4) -0.007(3) 0.006(4)
C9 0.076(3) 0.075(3) 0.075(3) 0.0002(10) 0.0002(10) 0.0009(10)
C10 0.073(3) 0.072(3) 0.072(3) -0.0002(10) 0.0007(10) 0.0013(10)

_geom_special_details            
;
All esds (except the esd in the dihedral angle between two l.s. planes)
are estimated using the full covariance matrix. The cell esds are taken
into account individually in the estimation of esds in distances, angles
and torsion angles; correlations between esds in cell parameters are only
used when they are defined by crystal symmetry. An approximate (isotropic)
treatment of cell esds is used for estimating esds involving l.s. planes.
;

loop_
_geom_bond_atom_site_label_1
_geom_bond_atom_site_label_2
_geom_bond_distance
_geom_bond_site_symmetry_2
_geom_bond_publ_flag
Cu1 N1 1.928(6) . ?
Cu1 N2 1.944(6) 15 ?
Cu1 O3 2.033(8) 15 ?
Cu1 N3 2.035(7) 22_544 ?
Cu1 O1 2.183(9) . ?
O1 C9 1.234(14) . ?
O2 C9 1.234(14) . ?
O3 C10 1.311(13) . ?
O3 Cu1 2.033(8) 16_544 ?
O4 C10 1.251(15) . ?
O4 H4 0.8200 . ?
N1 C2 1.317(11) . ?
N1 C1 1.354(10) . ?
N2 C3 1.308(11) . ?
N2 C1 1.312(10) . ?
N2 Cu1 1.944(6) 16_544 ?
N3 C4 1.289(11) . ?
N3 C8 1.380(10) . ?
N3 Cu1 2.035(7) 22_544 ?
C1 C6 1.497(12) . ?
C2 C3 1.403(12) . ?
C2 C9 1.532(15) . ?
C3 C10 1.441(15) . ?
C4 C5 1.423(14) . ?
C4 H4A 0.9300 . ?
C5 C6 1.375(12) . ?
C5 H5 0.9300 . ?
C6 C7 1.339(11) . ?
C7 C8 1.392(12) . ?
C7 H7 0.9300 . ?
C8 H8 0.9300 . ?

loop_
_geom_angle_atom_site_label_1
_geom_angle_atom_site_label_2
_geom_angle_atom_site_label_3
_geom_angle
_geom_angle_site_symmetry_1
_geom_angle_site_symmetry_3
_geom_angle_publ_flag
N1 Cu1 N2 170.4(3) . 15 ?
N1 Cu1 O3 90.0(3) . 15 ?
N2 Cu1 O3 81.2(3) 15 15 ?
N1 Cu1 N3 93.5(3) . 22_544 ?
N2 Cu1 N3 95.7(3) 15 22_544 ?
O3 Cu1 N3 142.4(3) 15 22_544 ?
N1 Cu1 O1 78.7(2) . . ?
N2 Cu1 O1 98.8(3) 15 . ?
O3 Cu1 O1 98.2(3) 15 . ?
N3 Cu1 O1 119.2(3) 22_544 . ?
C9 O1 Cu1 112.7(7) . . ?
C10 O3 Cu1 113.1(7) . 16_544 ?
C10 O4 H4 109.5 . . ?
C2 N1 C1 105.8(6) . . ?
C2 N1 Cu1 117.3(5) . . ?
C1 N1 Cu1 136.9(6) . . ?
C3 N2 C1 109.0(7) . . ?
C3 N2 Cu1 113.7(5) . 16_544 ?
C1 N2 Cu1 137.3(6) . 16_544 ?
C4 N3 C8 115.7(7) . . ?
C4 N3 Cu1 118.8(6) . 22_544 ?
C8 N3 Cu1 121.9(6) . 22_544 ?
N2 C1 N1 110.3(7) . . ?
N2 C1 C6 125.7(7) . . ?
N1 C1 C6 123.9(6) . . ?
N1 C2 C3 108.6(8) . . ?
N1 C2 C9 116.0(8) . . ?
C3 C2 C9 135.3(9) . . ?
N2 C3 C2 106.2(8) . . ?
N2 C3 C10 118.2(8) . . ?
C2 C3 C10 135.5(9) . . ?
N3 C4 C5 124.4(8) . . ?
N3 C4 H4A 117.8 . . ?
C5 C4 H4A 117.8 . . ?
C6 C5 C4 117.4(8) . . ?
C6 C5 H5 121.3 . . ?
C4 C5 H5 121.3 . . ?
C7 C6 C5 119.9(8) . . ?
C7 C6 C1 119.7(7) . . ?
C5 C6 C1 120.3(8) . . ?
C6 C7 C8 118.8(7) . . ?
C6 C7 H7 120.6 . . ?
C8 C7 H7 120.6 . . ?
N3 C8 C7 123.0(7) . . ?
N3 C8 H8 118.5 . . ?
C7 C8 H8 118.5 . . ?
O1 C9 O2 126.8(12) . . ?
O1 C9 C2 113.9(10) . . ?
O2 C9 C2 119.2(11) . . ?
O4 C10 O3 121.6(11) . . ?
O4 C10 C3 124.2(11) . . ?
O3 C10 C3 113.7(10) . . ?

loop_
_geom_hbond_atom_site_label_D
_geom_hbond_atom_site_label_H
_geom_hbond_atom_site_label_A
_geom_hbond_distance_DH
_geom_hbond_distance_HA
_geom_hbond_distance_DA
_geom_hbond_angle_DHA
_geom_hbond_site_symmetry_A
O4 H4 O2 0.82 2.18 2.979(15) 164.9 .

_diffrn_measured_fraction_theta_max 0.984
_diffrn_reflns_theta_full        27.48
_diffrn_measured_fraction_theta_full 0.984
_refine_diff_density_max         0.712
_refine_diff_density_min         -0.546
_refine_diff_density_rms         0.104
