####################################################################### 
# 
# This file contains crystal structure data downloaded from the 
# Cambridge Structural Database (CSD) hosted by the Cambridge 
# Crystallographic Data Centre (CCDC).
# 
# Full information about CCDC data access policies and citation 
# guidelines are available at http://www.ccdc.cam.ac.uk/access/V1 
# 
# Audit and citation data items may have been added by the CCDC. 
# Please retain this information to preserve the provenance of 
# this file and to allow appropriate attribution of the data. 
# 
#######################################################################

data_e1460c
_audit_block_doi                 10.5517/cct014z
_database_code_depnum_ccdc_archive 'CCDC 744810'
loop_
_citation_id
_citation_doi
_citation_year
1 10.1039/b917089h 2010
_audit_update_record             
;
2009-08-18 deposited with the CCDC.	2024-07-12 downloaded from the CCDC.
;
#TrackingRef '_11-CoBr2_n.cif'


_audit_creation_method           SHELXL-97
_chemical_name_systematic        
;
?
;
_chemical_name_common            ?
_chemical_melting_point          ?
_chemical_formula_moiety         'C62 H68 Br2 Co N4 S2'
_chemical_formula_sum            'C62 H68 Br2 Co N4 S2'
_chemical_formula_weight         1152.07

loop_
_atom_type_symbol
_atom_type_description
_atom_type_scat_dispersion_real
_atom_type_scat_dispersion_imag
_atom_type_scat_source
C C 0.0033 0.0016 'International Tables Vol C Tables 4.2.6.8 and 6.1.1.4'
Br Br -0.2901 2.4595 'International Tables Vol C Tables 4.2.6.8 and 6.1.1.4'
N N 0.0061 0.0033 'International Tables Vol C Tables 4.2.6.8 and 6.1.1.4'
S S 0.1246 0.1234 'International Tables Vol C Tables 4.2.6.8 and 6.1.1.4'
H H 0.0000 0.0000 'International Tables Vol C Tables 4.2.6.8 and 6.1.1.4'
Co Co 0.3494 0.9721 'International Tables Vol C Tables 4.2.6.8 and 6.1.1.4'

_symmetry_cell_setting           Monoclinic
_symmetry_space_group_name_H-M   P2(1)/c
_symmetry_space_group_name_Hall  '-P 2ybc'

loop_
_symmetry_equiv_pos_as_xyz
'x, y, z'
'-x, y+1/2, -z+1/2'
'-x, -y, -z'
'x, -y-1/2, z-1/2'

_cell_length_a                   16.0135(18)
_cell_length_b                   14.0197(13)
_cell_length_c                   32.858(4)
_cell_angle_alpha                90.00
_cell_angle_beta                 92.339(3)
_cell_angle_gamma                90.00
_cell_volume                     7370.7(13)
_cell_formula_units_Z            4
_cell_measurement_temperature    173(2)
_cell_measurement_reflns_used    2371
_cell_measurement_theta_min      2.48
_cell_measurement_theta_max      21.32

_exptl_crystal_description       prism
_exptl_crystal_colour            blue
_exptl_crystal_size_max          0.06
_exptl_crystal_size_mid          0.04
_exptl_crystal_size_min          0.04
_exptl_crystal_density_meas      none
_exptl_crystal_density_diffrn    1.038
_exptl_crystal_density_method    'not measured'
_exptl_crystal_F_000             2388
_exptl_absorpt_coefficient_mu    1.406
_exptl_absorpt_correction_type   multi-scan
_exptl_absorpt_correction_T_min  0.9204
_exptl_absorpt_correction_T_max  0.9459
_exptl_absorpt_process_details   sadabs

_exptl_special_details           
;

Owing to large disorder of the solvent present in the cavities
of this structure, the SQUEEZE command has been applied.
Because of the floppiness of one ring the rigid group
refinement was used and the thermal parameters of these atoms
were constrainded

;

_diffrn_ambient_temperature      173(2)
_diffrn_radiation_wavelength     0.71073
_diffrn_radiation_type           MoK\a
_diffrn_radiation_source         'fine-focus sealed tube'
_diffrn_radiation_monochromator  graphite
_diffrn_measurement_device_type  'CCD area detector'
_diffrn_measurement_method       'phi and omega scans'
_diffrn_detector_area_resol_mean ?
_diffrn_standards_number         ?
_diffrn_standards_interval_count ?
_diffrn_standards_interval_time  ?
_diffrn_standards_decay_%        ?
_diffrn_reflns_number            58445
_diffrn_reflns_av_R_equivalents  0.0685
_diffrn_reflns_av_sigmaI/netI    0.1039
_diffrn_reflns_limit_h_min       -20
_diffrn_reflns_limit_h_max       20
_diffrn_reflns_limit_k_min       0
_diffrn_reflns_limit_k_max       18
_diffrn_reflns_limit_l_min       0
_diffrn_reflns_limit_l_max       42
_diffrn_reflns_theta_min         1.81
_diffrn_reflns_theta_max         27.58
_reflns_number_total             17006
_reflns_number_gt                8815
_reflns_threshold_expression     >2sigma(I)

_computing_data_collection       'Bruker SMART'
_computing_cell_refinement       'Bruker SMART'
_computing_data_reduction        'Bruker SAINT'
_computing_structure_solution    'SHELXS-97 (Sheldrick, 1990)'
_computing_structure_refinement  'SHELXL-97 (Sheldrick, 1997)'
_computing_molecular_graphics    'Bruker SHELXTL'
_computing_publication_material  'Bruker SHELXTL'

_refine_special_details          
;
Refinement of F^2^ against ALL reflections. The weighted R-factor wR and
goodness of fit S are based on F^2^, conventional R-factors R are based
on F, with F set to zero for negative F^2^. The threshold expression of
F^2^ > 2sigma(F^2^) is used only for calculating R-factors(gt) etc. and is
not relevant to the choice of reflections for refinement. R-factors based
on F^2^ are statistically about twice as large as those based on F, and R-
factors based on ALL data will be even larger.
;

_refine_ls_structure_factor_coef Fsqd
_refine_ls_matrix_type           full
_refine_ls_weighting_scheme      calc
_refine_ls_weighting_details     
'calc w=1/[\s^2^(Fo^2^)+(0.2000P)^2^+0.0000P] where P=(Fo^2^+2Fc^2^)/3'
_atom_sites_solution_primary     direct
_atom_sites_solution_secondary   difmap
_atom_sites_solution_hydrogens   geom
_refine_ls_hydrogen_treatment    constr
_refine_ls_extinction_method     none
_refine_ls_extinction_coef       ?
_refine_ls_number_reflns         17006
_refine_ls_number_parameters     600
_refine_ls_number_restraints     3
_refine_ls_R_factor_all          0.1446
_refine_ls_R_factor_gt           0.0970
_refine_ls_wR_factor_ref         0.2766
_refine_ls_wR_factor_gt          0.2566
_refine_ls_goodness_of_fit_ref   1.068
_refine_ls_restrained_S_all      1.096
_refine_ls_shift/su_max          0.020
_refine_ls_shift/su_mean         0.000

loop_
_atom_site_label
_atom_site_type_symbol
_atom_site_fract_x
_atom_site_fract_y
_atom_site_fract_z
_atom_site_U_iso_or_equiv
_atom_site_adp_type
_atom_site_occupancy
_atom_site_symmetry_multiplicity
_atom_site_calc_flag
_atom_site_refinement_flags
_atom_site_disorder_assembly
_atom_site_disorder_group
C39 C 0.7452(5) 0.3637(6) 0.48623(18) 0.1005(19) Uani 1 1 d G . .
C40 C 0.6627(5) 0.3464(5) 0.4737(2) 0.1005(19) Uani 1 1 d G . .
H40 H 0.6295 0.3038 0.4887 0.121 Uiso 1 1 calc R . .
C41 C 0.6286(4) 0.3913(6) 0.4391(2) 0.1005(19) Uani 1 1 d GD . .
H41 H 0.5721 0.3795 0.4306 0.121 Uiso 1 1 calc R . .
C42 C 0.6770(4) 0.4536(5) 0.41716(18) 0.1005(19) Uani 1 1 d GD . .
C43 C 0.7596(4) 0.4709(5) 0.4297(2) 0.1005(19) Uani 1 1 d GD . .
H43 H 0.7927 0.5135 0.4147 0.121 Uiso 1 1 calc R . .
C44 C 0.7937(4) 0.4260(6) 0.4642(2) 0.1005(19) Uani 1 1 d G . .
H44 H 0.8501 0.4379 0.4728 0.121 Uiso 1 1 calc R . .
Co1 Co 1.01565(6) -0.44047(7) 0.65311(2) 0.0300(2) Uani 1 1 d . . .
Br1 Br 1.06957(7) -0.59567(7) 0.64837(3) 0.0640(3) Uani 1 1 d . . .
Br2 Br 0.91244(5) -0.42443(7) 0.70188(2) 0.0503(3) Uani 1 1 d . . .
C1 C 0.5472(4) 0.0698(5) 0.6566(2) 0.0334(15) Uani 1 1 d . . .
C2 C 0.4695(4) 0.0962(5) 0.6374(2) 0.0349(16) Uani 1 1 d . . .
C3 C 0.4402(4) 0.0422(5) 0.6037(2) 0.0332(15) Uani 1 1 d . . .
C4 C 0.4862(4) -0.0311(5) 0.5878(2) 0.0318(15) Uani 1 1 d . . .
C5 C 0.5645(4) -0.0534(5) 0.60640(19) 0.0275(13) Uani 1 1 d . . .
C6 C 0.5926(4) -0.0054(5) 0.64239(18) 0.0294(14) Uani 1 1 d . . .
C7 C 0.4174(4) 0.1782(6) 0.6530(2) 0.0457(19) Uani 1 1 d . . .
H7A H 0.3848 0.2068 0.6302 0.069 Uiso 1 1 calc R . .
H7B H 0.4545 0.2265 0.6656 0.069 Uiso 1 1 calc R . .
H7C H 0.3794 0.1542 0.6733 0.069 Uiso 1 1 calc R . .
C8 C 0.3537(4) 0.0635(6) 0.5852(2) 0.0386(17) Uani 1 1 d . . .
C9 C 0.2847(4) 0.0346(6) 0.6046(2) 0.0461(19) Uani 1 1 d . . .
H9 H 0.2911 -0.0014 0.6290 0.055 Uiso 1 1 calc R . .
C10 C 0.2032(4) 0.0576(6) 0.5888(2) 0.0460(19) Uani 1 1 d . . .
H10 H 0.1553 0.0372 0.6026 0.055 Uiso 1 1 calc R . .
C11 C 0.1945(4) 0.1093(6) 0.5536(2) 0.0375(16) Uani 1 1 d . . .
S1 S 0.09297(12) 0.14064(17) 0.53338(6) 0.0469(5) Uani 1 1 d . . .
C12 C 0.2648(5) 0.1367(7) 0.5332(2) 0.048(2) Uani 1 1 d . . .
H12 H 0.2593 0.1698 0.5080 0.058 Uiso 1 1 calc R . .
C13 C 0.3423(5) 0.1152(7) 0.5501(2) 0.049(2) Uani 1 1 d . . .
H13 H 0.3902 0.1371 0.5368 0.059 Uiso 1 1 calc R . .
C14 C 0.0645(5) 0.2347(7) 0.5661(3) 0.059(2) Uani 1 1 d . . .
H14A H 0.0631 0.2110 0.5941 0.088 Uiso 1 1 calc R . .
H14B H 0.0092 0.2588 0.5574 0.088 Uiso 1 1 calc R . .
H14C H 0.1056 0.2864 0.5647 0.088 Uiso 1 1 calc R . .
C15 C 0.4505(4) -0.0900(6) 0.5520(2) 0.0417(18) Uani 1 1 d . . .
H15A H 0.3907 -0.0766 0.5480 0.062 Uiso 1 1 calc R . .
H15B H 0.4586 -0.1580 0.5577 0.062 Uiso 1 1 calc R . .
H15C H 0.4794 -0.0730 0.5272 0.062 Uiso 1 1 calc R . .
C16 C 0.6688(4) -0.0406(5) 0.66573(19) 0.0308(14) Uani 1 1 d . . .
H16A H 0.7173 -0.0025 0.6585 0.046 Uiso 1 1 calc R . .
H16B H 0.6785 -0.1077 0.6590 0.046 Uiso 1 1 calc R . .
H16C H 0.6605 -0.0347 0.6950 0.046 Uiso 1 1 calc R . .
C17 C 0.6154(4) -0.1358(5) 0.5890(2) 0.0336(15) Uani 1 1 d . . .
H17A H 0.5913 -0.1505 0.5615 0.040 Uiso 1 1 calc R . .
H17B H 0.6068 -0.1926 0.6062 0.040 Uiso 1 1 calc R . .
C18 C 0.7103(4) -0.1220(5) 0.58539(18) 0.0284(14) Uani 1 1 d . . .
C19 C 0.7644(4) -0.1932(5) 0.60080(19) 0.0305(14) Uani 1 1 d . . .
C20 C 0.8524(4) -0.1790(5) 0.59706(19) 0.0311(14) Uani 1 1 d . . .
C21 C 0.8832(4) -0.1001(5) 0.57720(19) 0.0305(14) Uani 1 1 d . . .
C22 C 0.8280(4) -0.0301(5) 0.56083(17) 0.0278(14) Uani 1 1 d . . .
C23 C 0.7410(4) -0.0439(5) 0.56434(17) 0.0253(13) Uani 1 1 d . . .
C24 C 0.7337(5) -0.2826(6) 0.6210(2) 0.0469(19) Uani 1 1 d . . .
H24A H 0.7293 -0.2712 0.6503 0.070 Uiso 1 1 calc R . .
H24B H 0.7732 -0.3347 0.6168 0.070 Uiso 1 1 calc R . .
H24C H 0.6787 -0.2999 0.6091 0.070 Uiso 1 1 calc R . .
C25 C 0.9113(4) -0.2545(5) 0.61443(19) 0.0316(15) Uani 1 1 d . . .
H25A H 0.9649 -0.2242 0.6232 0.038 Uiso 1 1 calc R . .
H25B H 0.8868 -0.2834 0.6387 0.038 Uiso 1 1 calc R . .
N1 N 0.9272(3) -0.3292(4) 0.58483(15) 0.0327(13) Uani 1 1 d . . .
N2 N 0.9657(4) -0.4106(4) 0.59693(16) 0.0358(14) Uani 1 1 d . . .
C26 C 0.9697(6) -0.4632(6) 0.5633(2) 0.055(2) Uani 1 1 d . . .
H26 H 0.9924 -0.5257 0.5622 0.066 Uiso 1 1 calc R . .
C27 C 0.9350(7) -0.4125(8) 0.5292(2) 0.073(3) Uani 1 1 d . . .
H27 H 0.9317 -0.4326 0.5016 0.088 Uiso 1 1 calc R . .
C28 C 0.9075(5) -0.3284(7) 0.5450(2) 0.053(2) Uani 1 1 d . . .
H28 H 0.8795 -0.2787 0.5303 0.063 Uiso 1 1 calc R . .
C29 C 0.9781(4) -0.0898(6) 0.5727(2) 0.0425(18) Uani 1 1 d . . .
H29A H 1.0057 -0.0819 0.5996 0.064 Uiso 1 1 calc R . .
H29B H 0.9893 -0.0338 0.5559 0.064 Uiso 1 1 calc R . .
H29C H 0.9997 -0.1470 0.5596 0.064 Uiso 1 1 calc R . .
C30 C 0.6802(4) 0.0271(6) 0.5436(2) 0.0380(16) Uani 1 1 d . . .
H30A H 0.6249 -0.0023 0.5401 0.057 Uiso 1 1 calc R . .
H30B H 0.7006 0.0448 0.5169 0.057 Uiso 1 1 calc R . .
H30C H 0.6764 0.0844 0.5606 0.057 Uiso 1 1 calc R . .
C31 C 0.8609(4) 0.0525(5) 0.53622(19) 0.0323(15) Uani 1 1 d . . .
H31A H 0.9227 0.0514 0.5391 0.039 Uiso 1 1 calc R . .
H31B H 0.8457 0.0403 0.5072 0.039 Uiso 1 1 calc R . .
C32 C 0.8324(4) 0.1528(5) 0.54611(18) 0.0298(14) Uani 1 1 d . . .
C33 C 0.8030(4) 0.2134(6) 0.51442(19) 0.0371(16) Uani 1 1 d . . .
C34 C 0.7773(4) 0.3038(6) 0.5225(2) 0.0381(16) Uani 1 1 d . . .
C35 C 0.7781(5) 0.3403(5) 0.5632(2) 0.0431(18) Uani 1 1 d . . .
C36 C 0.8093(4) 0.2803(6) 0.5953(2) 0.0370(16) Uani 1 1 d . . .
C37 C 0.8380(4) 0.1890(5) 0.58613(19) 0.0284(14) Uani 1 1 d . . .
C38 C 0.7997(5) 0.1782(7) 0.4703(2) 0.050(2) Uani 1 1 d . . .
H38A H 0.7818 0.2305 0.4522 0.074 Uiso 1 1 calc R . .
H38B H 0.7598 0.1254 0.4674 0.074 Uiso 1 1 calc R . .
H38C H 0.8552 0.1562 0.4631 0.074 Uiso 1 1 calc R . .
S2 S 0.6292(2) 0.5135(2) 0.37239(8) 0.1005(19) Uani 1 1 d D . .
C45 C 0.7142(7) 0.5875(7) 0.3659(3) 0.1005(19) Uani 1 1 d D . .
H45A H 0.7218 0.6294 0.3896 0.121 Uiso 1 1 calc R . .
H45B H 0.7044 0.6262 0.3413 0.121 Uiso 1 1 calc R . .
H45C H 0.7645 0.5487 0.3630 0.121 Uiso 1 1 calc R . .
C46 C 0.7503(7) 0.4417(6) 0.5708(3) 0.063(2) Uani 1 1 d . . .
H46A H 0.7326 0.4716 0.5449 0.094 Uiso 1 1 calc R . .
H46B H 0.7968 0.4779 0.5834 0.094 Uiso 1 1 calc R . .
H46C H 0.7034 0.4412 0.5891 0.094 Uiso 1 1 calc R . .
C47 C 0.8801(4) 0.1289(5) 0.6198(2) 0.0360(16) Uani 1 1 d . . .
H47A H 0.9051 0.1710 0.6408 0.054 Uiso 1 1 calc R . .
H47B H 0.9237 0.0894 0.6083 0.054 Uiso 1 1 calc R . .
H47C H 0.8384 0.0878 0.6320 0.054 Uiso 1 1 calc R . .
C48 C 0.8135(5) 0.3182(5) 0.6393(2) 0.0423(17) Uani 1 1 d . . .
H48A H 0.7821 0.3790 0.6396 0.051 Uiso 1 1 calc R . .
H48B H 0.8726 0.3332 0.6466 0.051 Uiso 1 1 calc R . .
C49 C 0.7800(4) 0.2534(5) 0.67347(19) 0.0340(15) Uani 1 1 d . . .
C50 C 0.8303(4) 0.2316(6) 0.7074(2) 0.0376(17) Uani 1 1 d . . .
C51 C 0.7998(5) 0.1692(6) 0.73640(19) 0.0395(18) Uani 1 1 d . . .
C52 C 0.7169(4) 0.1346(5) 0.73295(18) 0.0345(16) Uani 1 1 d . . .
C53 C 0.6654(4) 0.1594(5) 0.69945(19) 0.0331(15) Uani 1 1 d . . .
C54 C 0.6972(4) 0.2195(5) 0.66969(19) 0.0331(15) Uani 1 1 d . . .
C55 C 0.9151(5) 0.2763(7) 0.7150(2) 0.053(2) Uani 1 1 d . . .
H55A H 0.9324 0.2688 0.7438 0.079 Uiso 1 1 calc R . .
H55B H 0.9123 0.3443 0.7082 0.079 Uiso 1 1 calc R . .
H55C H 0.9558 0.2449 0.6980 0.079 Uiso 1 1 calc R . .
C56 C 0.8576(5) 0.1323(6) 0.7704(2) 0.0441(19) Uani 1 1 d . . .
H56A H 0.8439 0.0648 0.7760 0.053 Uiso 1 1 calc R . .
H56B H 0.9160 0.1349 0.7617 0.053 Uiso 1 1 calc R . .
N3 N 0.8503(4) 0.1886(5) 0.80795(16) 0.0362(14) Uani 1 1 d . . .
N4 N 0.8948(3) 0.1598(4) 0.84238(15) 0.0310(12) Uani 1 1 d . . .
C57 C 0.8696(5) 0.2180(6) 0.8725(2) 0.0428(18) Uani 1 1 d . . .
H57 H 0.8893 0.2148 0.9001 0.051 Uiso 1 1 calc R . .
C58 C 0.8110(5) 0.2826(7) 0.8572(2) 0.056(2) Uani 1 1 d . . .
H58 H 0.7838 0.3315 0.8716 0.068 Uiso 1 1 calc R . .
C59 C 0.8008(6) 0.2604(7) 0.8168(3) 0.058(2) Uani 1 1 d . . .
H59 H 0.7637 0.2918 0.7979 0.070 Uiso 1 1 calc R . .
C60 C 0.6856(6) 0.0729(7) 0.7672(2) 0.050(2) Uani 1 1 d . . .
H60A H 0.6244 0.0694 0.7651 0.075 Uiso 1 1 calc R . .
H60B H 0.7031 0.1010 0.7935 0.075 Uiso 1 1 calc R . .
H60C H 0.7091 0.0086 0.7652 0.075 Uiso 1 1 calc R . .
C61 C 0.6395(5) 0.2529(6) 0.6342(2) 0.0415(17) Uani 1 1 d . . .
H61A H 0.6405 0.2061 0.6121 0.062 Uiso 1 1 calc R . .
H61B H 0.6588 0.3148 0.6244 0.062 Uiso 1 1 calc R . .
H61C H 0.5824 0.2592 0.6435 0.062 Uiso 1 1 calc R . .
C62 C 0.5760(4) 0.1233(6) 0.69583(19) 0.0377(17) Uani 1 1 d . . .
H62A H 0.5385 0.1787 0.6989 0.045 Uiso 1 1 calc R . .
H62B H 0.5674 0.0803 0.7192 0.045 Uiso 1 1 calc R . .

loop_
_atom_site_aniso_label
_atom_site_aniso_U_11
_atom_site_aniso_U_22
_atom_site_aniso_U_33
_atom_site_aniso_U_23
_atom_site_aniso_U_13
_atom_site_aniso_U_12
C39 0.133(5) 0.096(4) 0.073(3) 0.010(3) 0.005(3) 0.044(4)
C40 0.133(5) 0.096(4) 0.073(3) 0.010(3) 0.005(3) 0.044(4)
C41 0.133(5) 0.096(4) 0.073(3) 0.010(3) 0.005(3) 0.044(4)
C42 0.133(5) 0.096(4) 0.073(3) 0.010(3) 0.005(3) 0.044(4)
C43 0.133(5) 0.096(4) 0.073(3) 0.010(3) 0.005(3) 0.044(4)
C44 0.133(5) 0.096(4) 0.073(3) 0.010(3) 0.005(3) 0.044(4)
Co1 0.0334(5) 0.0320(5) 0.0241(4) 0.0015(4) -0.0029(3) 0.0051(4)
Br1 0.0870(7) 0.0421(5) 0.0636(6) 0.0088(4) 0.0108(5) 0.0255(5)
Br2 0.0462(5) 0.0618(6) 0.0438(4) 0.0098(4) 0.0134(3) 0.0048(4)
C1 0.030(3) 0.040(4) 0.031(3) 0.001(3) -0.001(3) -0.003(3)
C2 0.025(3) 0.043(4) 0.037(4) -0.002(3) -0.002(3) 0.002(3)
C3 0.020(3) 0.042(4) 0.037(3) 0.001(3) -0.002(3) 0.005(3)
C4 0.023(3) 0.037(4) 0.034(3) -0.004(3) -0.005(3) -0.001(3)
C5 0.021(3) 0.027(3) 0.034(3) 0.003(3) 0.004(2) 0.003(3)
C6 0.022(3) 0.043(4) 0.024(3) 0.007(3) 0.001(2) -0.004(3)
C7 0.027(4) 0.055(5) 0.054(4) -0.015(4) -0.002(3) 0.008(3)
C8 0.029(4) 0.048(5) 0.039(4) -0.003(3) -0.005(3) 0.012(3)
C9 0.032(4) 0.058(5) 0.048(4) 0.019(4) -0.008(3) 0.000(3)
C10 0.026(4) 0.057(5) 0.055(5) 0.013(4) -0.006(3) -0.003(3)
C11 0.034(4) 0.045(5) 0.033(3) 0.004(3) 0.000(3) 0.011(3)
S1 0.0327(10) 0.0628(14) 0.0446(10) -0.0047(9) -0.0075(8) 0.0145(9)
C12 0.041(4) 0.068(6) 0.036(4) 0.015(4) 0.007(3) 0.014(4)
C13 0.031(4) 0.073(6) 0.043(4) 0.020(4) 0.011(3) 0.009(4)
C14 0.042(5) 0.070(6) 0.065(5) -0.010(5) 0.000(4) 0.013(4)
C15 0.025(3) 0.053(5) 0.046(4) -0.003(4) -0.010(3) 0.007(3)
C16 0.025(3) 0.037(4) 0.031(3) 0.000(3) -0.003(3) 0.002(3)
C17 0.025(3) 0.033(4) 0.042(4) -0.001(3) -0.006(3) 0.000(3)
C18 0.024(3) 0.036(4) 0.025(3) -0.002(3) -0.002(2) 0.006(3)
C19 0.029(3) 0.031(4) 0.031(3) -0.001(3) 0.000(3) 0.004(3)
C20 0.026(3) 0.034(4) 0.033(3) 0.000(3) -0.007(3) 0.009(3)
C21 0.020(3) 0.042(4) 0.030(3) -0.002(3) -0.003(3) 0.011(3)
C22 0.031(3) 0.038(4) 0.015(3) -0.001(2) -0.001(2) 0.009(3)
C23 0.024(3) 0.033(4) 0.018(3) 0.002(2) -0.002(2) 0.011(3)
C24 0.047(4) 0.039(5) 0.055(5) 0.013(4) 0.009(4) 0.005(4)
C25 0.036(4) 0.031(4) 0.027(3) -0.004(3) -0.003(3) 0.015(3)
N1 0.038(3) 0.037(3) 0.022(2) -0.003(2) -0.008(2) 0.014(3)
N2 0.044(3) 0.037(3) 0.027(3) -0.008(2) -0.002(2) 0.016(3)
C26 0.086(6) 0.050(5) 0.028(4) -0.010(3) -0.005(4) 0.029(5)
C27 0.113(9) 0.073(7) 0.032(4) -0.014(4) -0.019(5) 0.033(6)
C28 0.068(6) 0.067(6) 0.022(3) -0.003(3) -0.010(3) 0.031(5)
C29 0.025(4) 0.057(5) 0.045(4) 0.007(4) 0.001(3) 0.012(3)
C30 0.035(4) 0.043(4) 0.036(4) 0.005(3) -0.005(3) 0.013(3)
C31 0.029(3) 0.043(4) 0.025(3) 0.009(3) 0.003(3) 0.011(3)
C32 0.024(3) 0.040(4) 0.026(3) 0.011(3) -0.003(2) 0.002(3)
C33 0.039(4) 0.045(5) 0.027(3) 0.016(3) 0.002(3) -0.002(3)
C34 0.037(4) 0.040(4) 0.037(4) 0.009(3) 0.000(3) 0.006(3)
C35 0.041(4) 0.033(4) 0.056(4) 0.017(3) 0.003(3) 0.005(3)
C36 0.036(4) 0.045(5) 0.030(3) 0.007(3) -0.003(3) -0.010(3)
C37 0.023(3) 0.032(4) 0.030(3) 0.006(3) 0.002(2) 0.000(3)
C38 0.045(4) 0.068(6) 0.036(4) 0.015(4) 0.002(3) 0.009(4)
S2 0.133(5) 0.096(4) 0.073(3) 0.010(3) 0.005(3) 0.044(4)
C45 0.133(5) 0.096(4) 0.073(3) 0.010(3) 0.005(3) 0.044(4)
C46 0.082(7) 0.039(5) 0.068(6) 0.019(4) 0.007(5) 0.008(5)
C47 0.038(4) 0.038(4) 0.032(3) 0.006(3) 