####################################################################### 
# 
# This file contains crystal structure data downloaded from the 
# Cambridge Structural Database (CSD) hosted by the Cambridge 
# Crystallographic Data Centre (CCDC).
# 
# Full information about CCDC data access policies and citation 
# guidelines are available at http://www.ccdc.cam.ac.uk/access/V1 
# 
# Audit and citation data items may have been added by the CCDC. 
# Please retain this information to preserve the provenance of 
# this file and to allow appropriate attribution of the data. 
# 
#######################################################################

data_e1579a
_audit_block_doi                 10.5517/cct0150
_database_code_depnum_ccdc_archive 'CCDC 744811'
loop_
_citation_id
_citation_doi
_citation_year
1 10.1039/b917089h 2010
_audit_update_record             
;
2009-08-18 deposited with the CCDC.	2024-07-12 downloaded from the CCDC.
;
#TrackingRef '_11-CoCl2_n.cif'


_audit_creation_method           SHELXL-97
_chemical_name_systematic        
;
?
;
_chemical_name_common            ?
_chemical_melting_point          ?
_chemical_formula_moiety         'C62 H68 Cl2 Co N4 S2'
_chemical_formula_sum            'C62 H68 Cl2 Co N4 S2'
_chemical_formula_weight         1063.15

loop_
_atom_type_symbol
_atom_type_description
_atom_type_scat_dispersion_real
_atom_type_scat_dispersion_imag
_atom_type_scat_source
C C 0.0033 0.0016 'International Tables Vol C Tables 4.2.6.8 and 6.1.1.4'
N N 0.0061 0.0033 'International Tables Vol C Tables 4.2.6.8 and 6.1.1.4'
S S 0.1246 0.1234 'International Tables Vol C Tables 4.2.6.8 and 6.1.1.4'
H H 0.0000 0.0000 'International Tables Vol C Tables 4.2.6.8 and 6.1.1.4'
Co Co 0.3494 0.9721 'International Tables Vol C Tables 4.2.6.8 and 6.1.1.4'
Cl Cl 0.1484 0.1585 'International Tables Vol C Tables 4.2.6.8 and 6.1.1.4'

_symmetry_cell_setting           Monoclinic
_symmetry_space_group_name_H-M   P2(1)/c
_symmetry_space_group_name_Hall  '-P 2ybc'

loop_
_symmetry_equiv_pos_as_xyz
'x, y, z'
'-x, y+1/2, -z+1/2'
'-x, -y, -z'
'x, -y-1/2, z-1/2'

_cell_length_a                   15.8582(6)
_cell_length_b                   13.8304(6)
_cell_length_c                   32.7069(12)
_cell_angle_alpha                90.00
_cell_angle_beta                 91.618(2)
_cell_angle_gamma                90.00
_cell_volume                     7170.6(5)
_cell_formula_units_Z            4
_cell_measurement_temperature    173(2)
_cell_measurement_reflns_used    8261
_cell_measurement_theta_min      2.34
_cell_measurement_theta_max      27.25

_exptl_crystal_description       prism
_exptl_crystal_colour            colorless
_exptl_crystal_size_max          0.06
_exptl_crystal_size_mid          0.04
_exptl_crystal_size_min          0.04
_exptl_crystal_density_meas      none
_exptl_crystal_density_diffrn    0.985
_exptl_crystal_density_method    'not measured'
_exptl_crystal_F_000             2244
_exptl_absorpt_coefficient_mu    0.405
_exptl_absorpt_correction_type   multi-scan
_exptl_absorpt_correction_T_min  0.9761
_exptl_absorpt_correction_T_max  0.9840
_exptl_absorpt_process_details   sadabs

_exptl_special_details           
;
Owing to large disorder of the solvent present in the cavities
of this structure, the SQUEEZE command has been applied
Because of the flopiness of one ring we used the same thermal
parameters for these atoms
;

_diffrn_ambient_temperature      173(2)
_diffrn_radiation_wavelength     0.71073
_diffrn_radiation_type           MoK\a
_diffrn_radiation_source         'fine-focus sealed tube'
_diffrn_radiation_monochromator  graphite
_diffrn_measurement_device_type  'Bruker APEX-II CCD'
_diffrn_measurement_method       '\f and \w scans'
_diffrn_detector_area_resol_mean ?
_diffrn_standards_number         0
_diffrn_standards_interval_count ?
_diffrn_standards_interval_time  ?
_diffrn_standards_decay_%        ?
_diffrn_reflns_number            45269
_diffrn_reflns_av_R_equivalents  0.0439
_diffrn_reflns_av_sigmaI/netI    0.0656
_diffrn_reflns_limit_h_min       -20
_diffrn_reflns_limit_h_max       20
_diffrn_reflns_limit_k_min       0
_diffrn_reflns_limit_k_max       18
_diffrn_reflns_limit_l_min       0
_diffrn_reflns_limit_l_max       42
_diffrn_reflns_theta_min         1.25
_diffrn_reflns_theta_max         27.57
_reflns_number_total             16440
_reflns_number_gt                9347
_reflns_threshold_expression     >2sigma(I)

_computing_data_collection       'Bruker APEX2'
_computing_cell_refinement       'Bruker SAINT'
_computing_data_reduction        'Bruker SAINT'
_computing_structure_solution    'SHELXS-97 (Sheldrick, 1990)'
_computing_structure_refinement  'SHELXL-97 (Sheldrick, 1997)'
_computing_molecular_graphics    'Bruker SHELXTL'
_computing_publication_material  'Bruker SHELXTL'

_refine_special_details          
;
Refinement of F^2^ against ALL reflections. The weighted R-factor wR and
goodness of fit S are based on F^2^, conventional R-factors R are based
on F, with F set to zero for negative F^2^. The threshold expression of
F^2^ > 2sigma(F^2^) is used only for calculating R-factors(gt) etc. and is
not relevant to the choice of reflections for refinement. R-factors based
on F^2^ are statistically about twice as large as those based on F, and R-
factors based on ALL data will be even larger.
;

_refine_ls_structure_factor_coef Fsqd
_refine_ls_matrix_type           full
_refine_ls_weighting_scheme      calc
_refine_ls_weighting_details     
'calc w=1/[\s^2^(Fo^2^)+(0.2000P)^2^+0.0000P] where P=(Fo^2^+2Fc^2^)/3'
_atom_sites_solution_primary     direct
_atom_sites_solution_secondary   difmap
_atom_sites_solution_hydrogens   geom
_refine_ls_hydrogen_treatment    constr
_refine_ls_extinction_method     none
_refine_ls_extinction_coef       ?
_refine_ls_number_reflns         16440
_refine_ls_number_parameters     630
_refine_ls_number_restraints     3
_refine_ls_R_factor_all          0.1480
_refine_ls_R_factor_gt           0.1026
_refine_ls_wR_factor_ref         0.340
_refine_ls_wR_factor_gt          0.3039
_refine_ls_goodness_of_fit_ref   1.263
_refine_ls_restrained_S_all      1.267
_refine_ls_shift/su_max          0.021
_refine_ls_shift/su_mean         0.005

loop_
_atom_site_label
_atom_site_type_symbol
_atom_site_fract_x
_atom_site_fract_y
_atom_site_fract_z
_atom_site_U_iso_or_equiv
_atom_site_adp_type
_atom_site_occupancy
_atom_site_symmetry_multiplicity
_atom_site_calc_flag
_atom_site_refinement_flags
_atom_site_disorder_assembly
_atom_site_disorder_group
C53 C 0.7421(4) 0.3687(4) 0.48447(15) 0.065(2) Uani 1 1 d G . .
C54 C 0.6598(4) 0.3574(5) 0.4696(2) 0.109(4) Uani 1 1 d G . .
H54 H 0.6220 0.3160 0.4833 0.130 Uiso 1 1 calc R . .
C55 C 0.6326(4) 0.4065(7) 0.4345(2) 0.109(4) Uani 1 1 d G . .
H55 H 0.5764 0.3988 0.4243 0.130 Uiso 1 1 calc R . .
C56 C 0.6879(6) 0.4670(6) 0.41442(17) 0.109(4) Uani 1 1 d GD . .
C57 C 0.7702(5) 0.4783(4) 0.42932(18) 0.109(4) Uani 1 1 d G . .
H57 H 0.8080 0.5196 0.4156 0.130 Uiso 1 1 calc R . .
C58 C 0.7974(4) 0.4291(4) 0.46435(17) 0.075(3) Uani 1 1 d G . .
H58 H 0.8537 0.4369 0.4745 0.090 Uiso 1 1 calc R . .
Co1 Co 1.01677(5) -0.44249(5) 0.65472(2) 0.0292(2) Uani 1 1 d . . .
Cl1 Cl 0.91765(11) -0.42169(13) 0.70052(5) 0.0497(4) Uani 1 1 d . . .
Cl2 Cl 1.06939(15) -0.59061(13) 0.65056(6) 0.0656(6) Uani 1 1 d . . .
C1 C 0.8266(3) -0.0325(4) 0.55981(16) 0.0268(11) Uani 1 1 d . . .
C2 C 0.8833(3) -0.1018(4) 0.57626(16) 0.0298(11) Uani 1 1 d . . .
C3 C 0.8507(3) -0.1816(4) 0.59647(16) 0.0283(11) Uani 1 1 d . . .
C4 C 0.7644(3) -0.1954(4) 0.60079(16) 0.0288(11) Uani 1 1 d . . .
C5 C 0.7086(3) -0.1245(4) 0.58539(16) 0.0255(10) Uani 1 1 d . . .
C6 C 0.7402(3) -0.0451(4) 0.56356(15) 0.0260(11) Uani 1 1 d . . .
C7 C 0.9776(3) -0.0935(4) 0.5706(2) 0.0368(13) Uani 1 1 d . . .
H7A H 1.0025 -0.0537 0.5926 0.055 Uiso 1 1 calc R . .
H7B H 0.9881 -0.0635 0.5441 0.055 Uiso 1 1 calc R . .
H7C H 1.0030 -0.1581 0.5715 0.055 Uiso 1 1 calc R . .
C8 C 0.9110(3) -0.2551(4) 0.61476(15) 0.0282(11) Uani 1 1 d . . .
H8A H 0.9649 -0.2230 0.6225 0.034 Uiso 1 1 calc R . .
H8B H 0.8869 -0.2825 0.6398 0.034 Uiso 1 1 calc R . .
N1 N 0.9271(3) -0.3329(3) 0.58593(13) 0.0285(10) Uani 1 1 d . . .
N2 N 0.9677(3) -0.4152(3) 0.59809(15) 0.0345(11) Uani 1 1 d . . .
C9 C 0.9727(4) -0.4691(5) 0.56523(19) 0.0493(17) Uani 1 1 d . . .
H9 H 0.9979 -0.5314 0.5647 0.059 Uiso 1 1 calc R . .
C10 C 0.9362(5) -0.4232(5) 0.5311(2) 0.058(2) Uani 1 1 d . . .
H10 H 0.9316 -0.4470 0.5039 0.069 Uiso 1 1 calc R . .
C11 C 0.9087(5) -0.3365(5) 0.54546(17) 0.0496(18) Uani 1 1 d . . .
H11 H 0.8813 -0.2873 0.5297 0.060 Uiso 1 1 calc R . .
C12 C 0.7331(4) -0.2842(4) 0.6215(2) 0.0389(14) Uani 1 1 d . . .
H12A H 0.7761 -0.3351 0.6204 0.058 Uiso 1 1 calc R . .
H12B H 0.6811 -0.3065 0.6076 0.058 Uiso 1 1 calc R . .
H12C H 0.7217 -0.2694 0.6501 0.058 Uiso 1 1 calc R . .
C13 C 0.6792(3) 0.0241(4) 0.54312(17) 0.0322(12) Uani 1 1 d . . .
H13A H 0.6679 0.0778 0.5617 0.048 Uiso 1 1 calc R . .
H13B H 0.6263 -0.0097 0.5363 0.048 Uiso 1 1 calc R . .
H13C H 0.7036 0.0492 0.5181 0.048 Uiso 1 1 calc R . .
C14 C 0.6137(3) -0.1370(4) 0.58966(18) 0.0292(11) Uani 1 1 d . . .
H14A H 0.5892 -0.1518 0.5622 0.035 Uiso 1 1 calc R . .
H14B H 0.6046 -0.1945 0.6070 0.035 Uiso 1 1 calc R . .
C15 C 0.5636(3) -0.0542(4) 0.60721(17) 0.0269(11) Uani 1 1 d . . .
C16 C 0.4857(3) -0.0316(4) 0.58879(18) 0.0319(12) Uani 1 1 d . . .
C17 C 0.4374(3) 0.0452(4) 0.60515(18) 0.0318(12) Uani 1 1 d . . .
C18 C 0.4682(3) 0.0970(4) 0.63914(18) 0.0334(12) Uani 1 1 d . . .
C19 C 0.5454(3) 0.0725(4) 0.65786(17) 0.0297(11) Uani 1 1 d . . .
C20 C 0.5920(3) -0.0062(4) 0.64269(16) 0.0269(11) Uani 1 1 d . . .
C21 C 0.4510(4) -0.0897(5) 0.5532(2) 0.0445(15) Uani 1 1 d . . .
H21A H 0.4879 -0.0825 0.5299 0.067 Uiso 1 1 calc R . .
H21B H 0.3943 -0.0665 0.5456 0.067 Uiso 1 1 calc R . .
H21C H 0.4481 -0.1581 0.5610 0.067 Uiso 1 1 calc R . .
C22 C 0.3519(4) 0.0670(4) 0.58668(19) 0.0361(13) Uani 1 1 d . . .
C23 C 0.2807(4) 0.0395(5) 0.6062(2) 0.0461(16) Uani 1 1 d . . .
H23 H 0.2856 0.0025 0.6306 0.055 Uiso 1 1 calc R . .
C24 C 0.2011(4) 0.0651(5) 0.5908(2) 0.0469(16) Uani 1 1 d . . .
H24 H 0.1523 0.0462 0.6049 0.056 Uiso 1 1 calc R . .
C25 C 0.1927(4) 0.1172(4) 0.55540(18) 0.0375(13) Uani 1 1 d . . .
C26 C 0.2636(5) 0.1418(6) 0.5348(2) 0.059(2) Uani 1 1 d . . .
H26 H 0.2589 0.1761 0.5097 0.070 Uiso 1 1 calc R . .
C27 C 0.3413(4) 0.1166(6) 0.5507(3) 0.062(2) Uani 1 1 d . . .
H27 H 0.3900 0.1343 0.5362 0.075 Uiso 1 1 calc R . .
S1 S 0.09144(10) 0.14995(13) 0.53510(5) 0.0479(4) Uani 1 1 d . . .
C28 C 0.0634(5) 0.2472(6) 0.5679(2) 0.0584(19) Uani 1 1 d . . .
H28A H 0.0662 0.2252 0.5964 0.088 Uiso 1 1 calc R . .
H28B H 0.0060 0.2687 0.5609 0.088 Uiso 1 1 calc R . .
H28C H 0.1028 0.3010 0.5645 0.088 Uiso 1 1 calc R . .
C29 C 0.4157(4) 0.1788(5) 0.6555(2) 0.0495(17) Uani 1 1 d . . .
H29A H 0.3614 0.1812 0.6405 0.074 Uiso 1 1 calc R . .
H29B H 0.4456 0.2401 0.6520 0.074 Uiso 1 1 calc R . .
H29C H 0.4061 0.1681 0.6846 0.074 Uiso 1 1 calc R . .
C30 C 0.6694(3) -0.0403(4) 0.66566(18) 0.0333(12) Uani 1 1 d . . .
H30A H 0.6772 -0.1096 0.6609 0.050 Uiso 1 1 calc R . .
H30B H 0.6631 -0.0285 0.6950 0.050 Uiso 1 1 calc R . .
H30C H 0.7187 -0.0049 0.6561 0.050 Uiso 1 1 calc R . .
C31 C 0.5754(4) 0.1268(4) 0.69667(18) 0.0360(13) Uani 1 1 d . . .
H31A H 0.5387 0.1841 0.6997 0.043 Uiso 1 1 calc R . .
H31B H 0.5658 0.0842 0.7204 0.043 Uiso 1 1 calc R . .
C32 C 0.6657(4) 0.1609(4) 0.69955(18) 0.0348(12) Uani 1 1 d . . .
C33 C 0.7194(4) 0.1371(4) 0.73311(16) 0.0348(13) Uani 1 1 d . . .
C34 C 0.8019(4) 0.1722(4) 0.73520(17) 0.0369(13) Uani 1 1 d . . .
C35 C 0.8323(4) 0.2353(5) 0.70578(18) 0.0384(14) Uani 1 1 d . . .
C36 C 0.7811(4) 0.2579(4) 0.67112(18) 0.0337(12) Uani 1 1 d . . .
C37 C 0.6981(3) 0.2231(4) 0.66871(18) 0.0319(12) Uani 1 1 d . . .
C38 C 0.6877(5) 0.0750(5) 0.7672(2) 0.0518(17) Uani 1 1 d . . .
H38A H 0.6890 0.0069 0.7589 0.078 Uiso 1 1 calc R . .
H38B H 0.6296 0.0934 0.7731 0.078 Uiso 1 1 calc R . .
H38C H 0.7237 0.0841 0.7917 0.078 Uiso 1 1 calc R . .
C39 C 0.8610(4) 0.1380(5) 0.76874(17) 0.0408(15) Uani 1 1 d . . .
H39A H 0.8505 0.0684 0.7737 0.049 Uiso 1 1 calc R . .
H39B H 0.9197 0.1447 0.7596 0.049 Uiso 1 1 calc R . .
N3 N 0.8526(3) 0.1906(4) 0.80714(14) 0.0353(11) Uani 1 1 d . . .
N4 N 0.8940(3) 0.1596(3) 0.84172(13) 0.0301(10) Uani 1 1 d . . .
C40 C 0.8678(4) 0.2177(5) 0.87108(18) 0.0387(14) Uani 1 1 d . . .
H40 H 0.8856 0.2129 0.8990 0.046 Uiso 1 1 calc R . .
C41 C 0.8119(5) 0.2856(6) 0.8561(2) 0.0546(19) Uani 1 1 d . . .
H41 H 0.7850 0.3354 0.8709 0.065 Uiso 1 1 calc R . .
C42 C 0.8032(5) 0.2660(6) 0.8151(2) 0.058(2) Uani 1 1 d . . .
H42 H 0.7684 0.2999 0.7958 0.070 Uiso 1 1 calc R . .
C43 C 0.9174(4) 0.2818(6) 0.7125(2) 0.059(2) Uani 1 1 d . . .
H43A H 0.9360 0.2735 0.7411 0.088 Uiso 1 1 calc R . .
H43B H 0.9134 0.3509 0.7061 0.088 Uiso 1 1 calc R . .
H43C H 0.9582 0.2512 0.6946 0.088 Uiso 1 1 calc R . .
C44 C 0.6393(4) 0.2557(5) 0.6343(2) 0.0425(15) Uani 1 1 d . . .
H44A H 0.6582 0.3183 0.6240 0.064 Uiso 1 1 calc R . .
H44B H 0.5820 0.2620 0.6445 0.064 Uiso 1 1 calc R . .
H44C H 0.6396 0.2078 0.6122 0.064 Uiso 1 1 calc R . .
C45 C 0.8142(4) 0.3204(4) 0.63749(18) 0.0382(13) Uani 1 1 d . . .
H45A H 0.8743 0.3341 0.6441 0.046 Uiso 1 1 calc R . .
H45B H 0.7839 0.3829 0.6383 0.046 Uiso 1 1 calc R . .
C46 C 0.8084(4) 0.2835(4) 0.59383(19) 0.0360(13) Uani 1 1 d . . .
C47 C 0.7769(4) 0.3425(4) 0.5620(2) 0.0437(15) Uani 1 1 d . . .
C48 C 0.7752(4) 0.3074(4) 0.5212(2) 0.0409(14) Uani 1 1 d . . .
C49 C 0.8004(3) 0.2132(4) 0.51241(17) 0.0316(12) Uani 1 1 d . . .
C50 C 0.8311(3) 0.1545(4) 0.54436(17) 0.0307(12) Uani 1 1 d . . .
C51 C 0.8378(3) 0.1905(4) 0.58449(17) 0.0300(11) Uani 1 1 d . . .
C52 C 0.7489(6) 0.4461(5) 0.5706(3) 0.067(2) Uani 1 1 d . . .
H52A H 0.6969 0.4449 0.5861 0.101 Uiso 1 1 calc R . .
H52B H 0.7385 0.4802 0.5447 0.101 Uiso 1 1 calc R . .
H52C H 0.7932 0.4796 0.5866 0.101 Uiso 1 1 calc R . .
S2 S 0.6367(2) 0.5261(2) 0.37052(8) 0.109(4) Uani 1 1 d D . .
C59 C 0.7135(6) 0.6071(6) 0.3612(3) 0.109(4) Uani 1 1 d D . .
H59A H 0.7372 0.6315 0.3872 0.130 Uiso 1 1 calc R . .
H59B H 0.6898 0.6611 0.3452 0.130 Uiso 1 1 calc R . .
H59C H 0.7581 0.5758 0.3458 0.130 Uiso 1 1 calc R . .
C60 C 0.7965(4) 0.1776(5) 0.46936(19) 0.0467(16) Uani 1 1 d . . .
H60A H 0.7690 0.2263 0.4518 0.070 Uiso 1 1 calc R . .
H60B H 0.7642 0.1173 0.4679 0.070 Uiso 1 1 calc R . .
H60C H 0.8539 0.1659 0.4601 0.070 Uiso 1 1 calc R . .
C61 C 0.8822(4) 0.1292(4) 0.61747(18) 0.0355(12) Uani 1 1 d . . .
H61A H 0.8410 0.0866 0.6301 0.053 Uiso 1 1 calc R . .
H61B H 0.9078 0.1716 0.6384 0.053 Uiso 1 1 calc R . .
H61C H 0.9262 0.0900 0.6051 0.053 Uiso 1 1 calc R . .
C62 C 0.8604(3) 0.0519(4) 0.53474(17) 0.0318(12) Uani 1 1 d . . .
H62A H 0.8459 0.0389 0.5056 0.038 Uiso 1 1 calc R . .
H62B H 0.9227 0.0509 0.5376 0.038 Uiso 1 1 calc R . .

loop_
_atom_site_aniso_label
_atom_site_aniso_U_11
_atom_site_aniso_U_22
_atom_site_aniso_U_33
_atom_site_aniso_U_23
_atom_site_aniso_U_13
_atom_site_aniso_U_12
C53 0.087(6) 0.054(5) 0.055(5) 0.016(4) -0.018(4) 0.005(4)
C54 0.107(9) 0.092(8) 0.124(10) 0.037(7) -0.047(7) 0.004(6)
C55 0.107(9) 0.092(8) 0.124(10) 0.037(7) -0.047(7) 0.004(6)
C56 0.107(9) 0.092(8) 0.124(10) 0.037(7) -0.047(7) 0.004(6)
C57 0.107(9) 0.092(8) 0.124(10) 0.037(7) -0.047(7) 0.004(6)
C58 0.141(9) 0.044(4) 0.039(4) 0.010(3) 0.001(5) 0.022(5)
Co1 0.0343(4) 0.0280(4) 0.0251(4) 0.0021(3) -0.0044(3) 0.0058(3)
Cl1 0.0479(9) 0.0598(10) 0.0421(9) 0.0113(8) 0.0123(7) 0.0057(7)
Cl2 0.1004(16) 0.0411(9) 0.0553(11) 0.0079(8) 0.0042(10) 0.0321(9)
C1 0.025(3) 0.031(3) 0.023(2) 0.002(2) -0.005(2) 0.009(2)
C2 0.025(3) 0.038(3) 0.026(3) -0.004(2) -0.005(2) 0.010(2)
C3 0.025(3) 0.035(3) 0.024(3) -0.002(2) -0.003(2) 0.011(2)
C4 0.031(3) 0.031(3) 0.024(3) 0.001(2) -0.003(2) 0.010(2)
C5 0.024(2) 0.024(2) 0.029(3) -0.001(2) -0.002(2) 0.0037(18)
C6 0.024(2) 0.032(3) 0.021(2) 0.004(2) -0.0046(19) 0.0085(19)
C7 0.026(3) 0.040(3) 0.044(3) 0.001(3) -0.001(2) 0.010(2)
C8 0.033(3) 0.032(3) 0.020(2) -0.003(2) -0.005(2) 0.017(2)
N1 0.036(2) 0.027(2) 0.021(2) -0.0030(17) -0.0084(18) 0.0112(18)
N2 0.043(3) 0.029(2) 0.032(3) -0.0067(19) -0.006(2) 0.0144(19)
C9 0.063(4) 0.054(4) 0.029(3) -0.018(3) -0.012(3) 0.030(3)
C10 0.085(6) 0.057(4) 0.030(3) -0.017(3) -0.016(3) 0.033(4)
C11 0.068(5) 0.061(4) 0.019(3) -0.002(3) -0.012(3) 0.031(3)
C12 0.039(3) 0.033(3) 0.044(3) 0.008(3) 0.006(3) 0.008(2)
C13 0.025(3) 0.038(3) 0.033(3) 0.011(2) -0.007(2) 0.008(2)
C14 0.024(3) 0.026(3) 0.037(3) 0.002(2) 0.001(2) 0.0050(19)
C15 0.021(2) 0.028(3) 0.032(3) 0.004(2) 0.001(2) 0.0029(19)
C16 0.021(2) 0.036(3) 0.038(3) 0.007(2) -0.003(2) 0.001(2)
C17 0.020(2) 0.037(3) 0.039(3) 0.006(2) -0.002(2) 0.002(2)
C18 0.026(3) 0.035(3) 0.040(3) -0.001(2) -0.003(2) 0.007(2)
C19 0.024(2) 0.033(3) 0.032(3) 0.002(2) -0.001(2) 0.003(2)
C20 0.022(2) 0.027(3) 0.031(3) 0.007(2) -0.003(2) 0.0034(19)
C21 0.033(3) 0.057(4) 0.044(4) -0.007(3) -0.009(3) 0.007(3)
C22 0.032(3) 0.041(3) 0.035(3) 0.002(3) -0.004(2) 0.013(2)
C23 0.032(3) 0.051(4) 0.055(4) 0.018(3) -0.005(3) -0.002(3)
C24 0.027(3) 0.053(4) 0.060(4) 0.008(3) -0.008(3) -0.003(3)
C25 0.033(3) 0.045(3) 0.035(3) 0.000(3) -0.004(2) 0.015(2)
C26 0.050(4) 0.075(5) 0.051(4) 0.017(4) 0.004(3) 0.024(4)
C27 0.034(4) 0.089(6) 0.065(5) 0.029(4) 0.011(3) 0.020(4)
S1 0.0367(8) 0.0563(10) 0.0499(10) -0.0083(8) -0.0136(7) 0.0194(7)
C28 0.051(4) 0.060(5) 0.064(5) -0.011(4) 0.003(4) 0.019(3)
C29 0.028(3) 0.043(4) 0.076(5) -0.015(3) -0.009(3) 0.010(2)
C30 0.028(3) 0.038(3) 0.034(3) 0.003(2) -0.003(2) 0.004(2)
C31 0.035(3) 0.040(3) 0.033(3) -0.004(2) -0.003(2) 0.006(2)
C32 0.039(3) 0.034(3) 0.031(3) 0.000(2) -0.004(2) 0.007(2)
C33 0.045(3) 0.039(3) 0.020(3) -0.005(2) -0.007(2) 0.007(2)
C34 0.044(3) 0.042(3) 0.025(3) -0.012(2) -0.014(2) 0.010(2)
C35 0.033(3) 0.053(4) 0.029(3) -0.014(3) -0.007(2) -0.004(2)
C36 0.037(3) 0.028(3) 0.035(3) -0.006(2) -0.008(2) 0.001(2)
C37 0.035(3) 0.025(3) 0.036(3) -0.003(2) -0.006(2) 0.003(2)
C38 0.071(5) 0.054(4) 0.029(3) 0.000(3) -0.009(3) -0.004(3)
C39 0.047(4) 0.052(4) 0.023(3) -0.013(3) -0.010(2) 0.016(3)