####################################################################### 
# 
# This file contains crystal structure data downloaded from the 
# Cambridge Structural Database (CSD) hosted by the Cambridge 
# Crystallographic Data Centre (CCDC).
# 
# Full information about CCDC data access policies and citation 
# guidelines are available at http://www.ccdc.cam.ac.uk/access/V1 
# 
# Audit and citation data items may have been added by the CCDC. 
# Please retain this information to preserve the provenance of 
# this file and to allow appropriate attribution of the data. 
# 
#######################################################################

data_e1447c
_audit_block_doi                 10.5517/cct01hb
_database_code_depnum_ccdc_archive 'CCDC 744821'
loop_
_citation_id
_citation_doi
_citation_year
1 10.1039/b917089h 2010
_audit_update_record             
;
2009-08-18 deposited with the CCDC.	2024-07-12 downloaded from the CCDC.
;
#TrackingRef '_8-ZnCl2_n.cif'


_audit_creation_method           SHELXL-97
_chemical_name_systematic        
;
?
;
_chemical_name_common            ?
_chemical_melting_point          ?
_chemical_formula_moiety         'C48 H54 Br2 Cl2 N4 Zn'
_chemical_formula_sum            'C48 H54 Br2 Cl2 N4 Zn'
_chemical_formula_weight         983.04

loop_
_atom_type_symbol
_atom_type_description
_atom_type_scat_dispersion_real
_atom_type_scat_dispersion_imag
_atom_type_scat_source
C C 0.0033 0.0016 'International Tables Vol C Tables 4.2.6.8 and 6.1.1.4'
N N 0.0061 0.0033 'International Tables Vol C Tables 4.2.6.8 and 6.1.1.4'
Cl Cl 0.1484 0.1585 'International Tables Vol C Tables 4.2.6.8 and 6.1.1.4'
Zn Zn 0.2839 1.4301 'International Tables Vol C Tables 4.2.6.8 and 6.1.1.4'
Br Br -0.2901 2.4595 'International Tables Vol C Tables 4.2.6.8 and 6.1.1.4'
H H 0.0000 0.0000 'International Tables Vol C Tables 4.2.6.8 and 6.1.1.4'

_symmetry_cell_setting           Orthorhombic
_symmetry_space_group_name_H-M   Pbca
_symmetry_space_group_name_Hall  '-P 2ac 2ab'

loop_
_symmetry_equiv_pos_as_xyz
'x, y, z'
'-x+1/2, -y, z+1/2'
'-x, y+1/2, -z+1/2'
'x+1/2, -y+1/2, -z'
'-x, -y, -z'
'x-1/2, y, -z-1/2'
'x, -y-1/2, z-1/2'
'-x-1/2, y-1/2, z'

_cell_length_a                   21.629(2)
_cell_length_b                   18.9786(18)
_cell_length_c                   34.265(3)
_cell_angle_alpha                90.00
_cell_angle_beta                 90.00
_cell_angle_gamma                90.00
_cell_volume                     14065(2)
_cell_formula_units_Z            8
_cell_measurement_temperature    173(2)
_cell_measurement_reflns_used    9912
_cell_measurement_theta_min      2.17
_cell_measurement_theta_max      27.35

_exptl_crystal_description       prism
_exptl_crystal_colour            colorless
_exptl_crystal_size_max          0.17
_exptl_crystal_size_mid          0.15
_exptl_crystal_size_min          0.13
_exptl_crystal_density_meas      none
_exptl_crystal_density_diffrn    0.928
_exptl_crystal_density_method    'not measured'
_exptl_crystal_F_000             4032
_exptl_absorpt_coefficient_mu    1.586
_exptl_absorpt_correction_type   multi-scan
_exptl_absorpt_correction_T_min  0.7743
_exptl_absorpt_correction_T_max  0.8393
_exptl_absorpt_process_details   sadabs

_exptl_special_details           
;
Owing to large disorder of the solvent present in the cavities
of this structure, the SQUEEZE command has been applied.
Because of the floppiness of the phenyl ring
we used the same thermal paramaters.
Because of the poor diffraction powder the Ratio
Observed / Unique Reflections is Low .... 38 Perc.
;

_diffrn_ambient_temperature      173(2)
_diffrn_radiation_wavelength     0.71073
_diffrn_radiation_type           MoK\a
_diffrn_radiation_source         'fine-focus sealed tube'
_diffrn_radiation_monochromator  graphite
_diffrn_measurement_device_type  'CCD area detector'
_diffrn_measurement_method       'phi and omega scans'
_diffrn_detector_area_resol_mean ?
_diffrn_standards_number         ?
_diffrn_standards_interval_count ?
_diffrn_standards_interval_time  ?
_diffrn_standards_decay_%        ?
_diffrn_reflns_number            70819
_diffrn_reflns_av_R_equivalents  0.1083
_diffrn_reflns_av_sigmaI/netI    0.1097
_diffrn_reflns_limit_h_min       -27
_diffrn_reflns_limit_h_max       26
_diffrn_reflns_limit_k_min       -16
_diffrn_reflns_limit_k_max       24
_diffrn_reflns_limit_l_min       -44
_diffrn_reflns_limit_l_max       43
_diffrn_reflns_theta_min         1.86
_diffrn_reflns_theta_max         27.57
_reflns_number_total             15804
_reflns_number_gt                6084
_reflns_threshold_expression     >2sigma(I)

_computing_data_collection       'Bruker SMART'
_computing_cell_refinement       'Bruker SMART'
_computing_data_reduction        'Bruker SAINT'
_computing_structure_solution    'SHELXS-97 (Sheldrick, 1990)'
_computing_structure_refinement  'SHELXL-97 (Sheldrick, 1997)'
_computing_molecular_graphics    'Bruker SHELXTL'
_computing_publication_material  'Bruker SHELXTL'

_refine_special_details          
;
Refinement of F^2^ against ALL reflections. The weighted R-factor wR and
goodness of fit S are based on F^2^, conventional R-factors R are based
on F, with F set to zero for negative F^2^. The threshold expression of
F^2^ > 2sigma(F^2^) is used only for calculating R-factors(gt) etc. and is
not relevant to the choice of reflections for refinement. R-factors based
on F^2^ are statistically about twice as large as those based on F, and R-
factors based on ALL data will be even larger.
;

_refine_ls_structure_factor_coef Fsqd
_refine_ls_matrix_type           full
_refine_ls_weighting_scheme      calc
_refine_ls_weighting_details     
'calc w=1/[\s^2^(Fo^2^)+(0.1253P)^2^+0.0000P] where P=(Fo^2^+2Fc^2^)/3'
_atom_sites_solution_primary     direct
_atom_sites_solution_secondary   difmap
_atom_sites_solution_hydrogens   geom
_refine_ls_hydrogen_treatment    constr
_refine_ls_extinction_method     SHELXL
_refine_ls_extinction_coef       0.00046(10)
_refine_ls_extinction_expression Fc^*^=kFc[1+0.001xFc^2^\l^3^/sin(2\q)]^-1/4^
_refine_ls_number_reflns         15804
_refine_ls_number_parameters     425
_refine_ls_number_restraints     0
_refine_ls_R_factor_all          0.2206
_refine_ls_R_factor_gt           0.1077
_refine_ls_wR_factor_ref         0.2901
_refine_ls_wR_factor_gt          0.2648
_refine_ls_goodness_of_fit_ref   1.091
_refine_ls_restrained_S_all      1.091
_refine_ls_shift/su_max          0.013
_refine_ls_shift/su_mean         0.001

loop_
_atom_site_label
_atom_site_type_symbol
_atom_site_fract_x
_atom_site_fract_y
_atom_site_fract_z
_atom_site_U_iso_or_equiv
_atom_site_adp_type
_atom_site_occupancy
_atom_site_symmetry_multiplicity
_atom_site_calc_flag
_atom_site_refinement_flags
_atom_site_disorder_assembly
_atom_site_disorder_group
C25 C 1.0979(3) 0.5859(3) 0.39651(11) 0.0446(10) Uani 1 1 d G . .
C26 C 1.1190(3) 0.5394(2) 0.36812(15) 0.0446(10) Uani 1 1 d G . .
C27 C 1.1292(3) 0.5631(3) 0.33027(13) 0.0446(10) Uani 1 1 d G . .
C28 C 1.1182(3) 0.6332(3) 0.32080(11) 0.0446(10) Uani 1 1 d G . .
C29 C 1.0970(3) 0.6796(2) 0.34919(15) 0.0446(10) Uani 1 1 d G . .
C30 C 1.0869(3) 0.6560(3) 0.38704(13) 0.0446(10) Uani 1 1 d G . .
Zn1 Zn 0.72179(5) 0.37583(5) 0.24889(3) 0.0400(3) Uani 1 1 d . . .
Cl1 Cl 0.64289(12) 0.31259(13) 0.22540(8) 0.0590(7) Uani 1 1 d . . .
Cl2 Cl 0.80444(12) 0.32424(12) 0.27443(8) 0.0533(6) Uani 1 1 d . . .
C1 C 0.8375(4) 0.6799(4) 0.3484(2) 0.0341(8) Uani 1 1 d . . .
C2 C 0.8109(4) 0.6292(4) 0.3213(2) 0.0341(8) Uani 1 1 d . . .
C3 C 0.8047(4) 0.5614(4) 0.3295(2) 0.0341(8) Uani 1 1 d . . .
C4 C 0.8176(4) 0.5360(4) 0.3687(2) 0.0341(8) Uani 1 1 d . . .
C5 C 0.8403(4) 0.5833(4) 0.3969(2) 0.0341(8) Uani 1 1 d . . .
C6 C 0.8482(4) 0.6542(4) 0.3874(2) 0.0341(8) Uani 1 1 d . . .
C7 C 0.7978(5) 0.6530(5) 0.2780(3) 0.057(3) Uani 1 1 d . . .
H7A H 0.8371 0.6575 0.2639 0.086 Uiso 1 1 calc R . .
H7B H 0.7765 0.6986 0.2781 0.086 Uiso 1 1 calc R . .
H7C H 0.7718 0.6178 0.2651 0.086 Uiso 1 1 calc R . .
C8 C 0.7772(4) 0.5100(4) 0.3023(2) 0.035(2) Uani 1 1 d . . .
H8A H 0.7896 0.5235 0.2755 0.042 Uiso 1 1 calc R . .
H8B H 0.7962 0.4635 0.3077 0.042 Uiso 1 1 calc R . .
N1 N 0.7126(3) 0.5012(4) 0.30260(18) 0.0320(8) Uani 1 1 d . . .
N2 N 0.6819(3) 0.4465(4) 0.28757(18) 0.0320(8) Uani 1 1 d . . .
C9 C 0.6217(4) 0.4579(4) 0.2919(2) 0.0320(8) Uani 1 1 d . . .
H9 H 0.5893 0.4280 0.2833 0.038 Uiso 1 1 calc R . .
C10 C 0.6151(4) 0.5178(4) 0.3102(2) 0.0320(8) Uani 1 1 d . . .
H10 H 0.5762 0.5367 0.3179 0.038 Uiso 1 1 calc R . .
C11 C 0.6703(4) 0.5501(4) 0.3170(2) 0.0320(8) Uani 1 1 d . . .
H11 H 0.6781 0.5947 0.3286 0.038 Uiso 1 1 calc R . .
C12 C 0.8033(5) 0.4608(5) 0.3819(4) 0.071(4) Uani 1 1 d . . .
H12A H 0.8420 0.4363 0.3880 0.107 Uiso 1 1 calc R . .
H12B H 0.7817 0.4357 0.3610 0.107 Uiso 1 1 calc R . .
H12C H 0.7771 0.4622 0.4052 0.107 Uiso 1 1 calc R . .
C13 C 0.8655(4) 0.7069(5) 0.4193(2) 0.039(2) Uani 1 1 d . . .
H13A H 0.8756 0.6814 0.4434 0.058 Uiso 1 1 calc R . .
H13B H 0.8306 0.7386 0.4241 0.058 Uiso 1 1 calc R . .
H13C H 0.9015 0.7344 0.4109 0.058 Uiso 1 1 calc R . .
C14 C 0.8494(4) 0.5608(5) 0.4389(3) 0.043(2) Uani 1 1 d . . .
H14A H 0.8424 0.5093 0.4402 0.052 Uiso 1 1 calc R . .
H14B H 0.8165 0.5833 0.4546 0.052 Uiso 1 1 calc R . .
C15 C 0.9130(4) 0.5764(5) 0.4598(2) 0.0360(15) Uani 1 1 d . . .
C16 C 0.9121(4) 0.6063(5) 0.4959(2) 0.0360(15) Uani 1 1 d . . .
C17 C 0.9708(4) 0.6167(5) 0.5113(2) 0.042(2) Uani 1 1 d . . .
Br1 Br 0.97086(5) 0.66564(6) 0.56309(3) 0.0578(3) Uani 1 1 d . . .
C18 C 1.0285(4) 0.6057(4) 0.4956(3) 0.038(2) Uani 1 1 d . . .
C19 C 1.0254(4) 0.5766(4) 0.4584(2) 0.0329(19) Uani 1 1 d . . .
C20 C 0.9659(4) 0.5541(5) 0.4391(3) 0.044(2) Uani 1 1 d . . .
C21 C 0.8507(4) 0.6263(6) 0.5158(3) 0.055(3) Uani 1 1 d . . .
H21A H 0.8257 0.6547 0.4979 0.083 Uiso 1 1 calc R . .
H21B H 0.8594 0.6536 0.5395 0.083 Uiso 1 1 calc R . .
H21C H 0.8281 0.5834 0.5228 0.083 Uiso 1 1 calc R . .
C22 C 1.0853(5) 0.6203(7) 0.5173(3) 0.063(3) Uani 1 1 d . . .
H22A H 1.1001 0.6677 0.5109 0.095 Uiso 1 1 calc R . .
H22B H 1.1169 0.5855 0.5103 0.095 Uiso 1 1 calc R . .
H22C H 1.0768 0.6174 0.5454 0.095 Uiso 1 1 calc R . .
C23 C 0.9658(5) 0.5205(6) 0.4023(2) 0.058(3) Uani 1 1 d . . .
H23A H 1.0017 0.4891 0.4004 0.086 Uiso 1 1 calc R . .
H23B H 0.9680 0.5561 0.3816 0.086 Uiso 1 1 calc R . .
H23C H 0.9278 0.4929 0.3993 0.086 Uiso 1 1 calc R . .
C24 C 1.0847(4) 0.5544(6) 0.4391(3) 0.048(2) Uani 1 1 d . . .
H24A H 1.0848 0.5023 0.4372 0.058 Uiso 1 1 calc R . .
H24B H 1.1194 0.5680 0.4564 0.058 Uiso 1 1 calc R . .
C31 C 1.1378(5) 0.4612(5) 0.3757(2) 0.045(2) Uani 1 1 d . . .
H31A H 1.1533 0.4402 0.3515 0.067 Uiso 1 1 calc R . .
H31B H 1.1016 0.4347 0.3848 0.067 Uiso 1 1 calc R . .
H31C H 1.1702 0.4595 0.3957 0.067 Uiso 1 1 calc R . .
C32 C 1.1554(4) 0.5124(7) 0.2998(3) 0.045(2) Uani 1 1 d . . .
H32A H 1.1472 0.5307 0.2732 0.067 Uiso 1 1 calc R . .
H32B H 1.1354 0.4658 0.3023 0.067 Uiso 1 1 calc R . .
C33 C 0.8168(4) 0.4571(6) 0.1994(2) 0.045(2) Uani 1 1 d . . .
H33 H 0.8493 0.4263 0.2068 0.067 Uiso 1 1 calc R . .
N3 N 0.7265(4) 0.5052(5) 0.1937(2) 0.054(2) Uani 1 1 d . . .
N4 N 0.7545(4) 0.4472(4) 0.20906(18) 0.044(2) Uani 1 1 d . . .
C34 C 0.8245(5) 0.5185(7) 0.1774(2) 0.061(3) Uani 1 1 d . . .
H34 H 0.8622 0.5363 0.1672 0.073 Uiso 1 1 calc R . .
C35 C 0.7667(5) 0.5483(6) 0.1735(3) 0.054(3) Uani 1 1 d . . .
H35 H 0.7566 0.5900 0.1596 0.064 Uiso 1 1 calc R . .
C36 C 1.0718(4) 0.7048(5) 0.4153(2) 0.043(2) Uani 1 1 d . . .
H36A H 1.0271 0.7133 0.4149 0.065 Uiso 1 1 calc R . .
H36B H 1.0937 0.7491 0.4101 0.065 Uiso 1 1 calc R . .
H36C H 1.0838 0.6868 0.4410 0.065 Uiso 1 1 calc R . .
C37 C 1.1418(6) 0.6644(7) 0.2786(3) 0.043(2) Uani 1 1 d . . .
H37A H 1.1062 0.6706 0.2612 0.065 Uiso 1 1 calc R . .
H37B H 1.1710 0.6312 0.2667 0.065 Uiso 1 1 calc R . .
H37C H 1.1622 0.7099 0.2826 0.065 Uiso 1 1 calc R . .
C38 C 1.0838(5) 0.7601(6) 0.3392(3) 0.052(3) Uani 1 1 d . . .
H38A H 1.1176 0.7881 0.3510 0.062 Uiso 1 1 calc R . .
H38B H 1.0875 0.7654 0.3106 0.062 Uiso 1 1 calc R . .
C39 C 1.0241(4) 0.8537(5) 0.3716(2) 0.037(2) Uani 1 1 d . . .
C40 C 0.9645(4) 0.8837(6) 0.3806(2) 0.044(2) Uani 1 1 d . . .
Br2 Br 0.96253(5) 0.96968(5) 0.40900(3) 0.0603(3) Uani 1 1 d . . .
C41 C 0.9093(4) 0.8499(4) 0.3681(2) 0.036(2) Uani 1 1 d . . .
C42 C 0.9113(4) 0.7874(4) 0.34980(19) 0.0250(17) Uani 1 1 d . . .
C43 C 0.9667(4) 0.7588(4) 0.3392(2) 0.0283(17) Uani 1 1 d . . .
C44 C 1.0229(4) 0.7948(5) 0.3514(2) 0.039(2) Uani 1 1 d . . .
C45 C 1.0782(4) 0.8913(4) 0.3836(3) 0.038(2) Uani 1 1 d . . .
H45A H 1.0877 0.8795 0.4108 0.057 Uiso 1 1 calc R . .
H45B H 1.0708 0.9420 0.3814 0.057 Uiso 1 1 calc R . .
H45C H 1.1131 0.8779 0.3670 0.057 Uiso 1 1 calc R . .
C46 C 0.8451(4) 0.8846(6) 0.3863(3) 0.038(2) Uani 1 1 d . . .
H46A H 0.8115 0.8799 0.3673 0.057 Uiso 1 1 calc R . .
H46B H 0.8519 0.9346 0.3921 0.057 Uiso 1 1 calc R . .
H46C H 0.8339 0.8599 0.4104 0.057 Uiso 1 1 calc R . .
C47 C 0.9695(4) 0.6965(5) 0.3118(2) 0.036(2) Uani 1 1 d . . .
H47A H 0.9848 0.6551 0.3259 0.054 Uiso 1 1 calc R . .
H47B H 0.9975 0.7073 0.2901 0.054 Uiso 1 1 calc R . .
H47C H 0.9281 0.6867 0.3015 0.054 Uiso 1 1 calc R . .
C48 C 0.8468(4) 0.7521(4) 0.3378(2) 0.034(2) Uani 1 1 d . . .
H48A H 0.8132 0.7803 0.3497 0.041 Uiso 1 1 calc R . .
H48B H 0.8423 0.7559 0.3091 0.041 Uiso 1 1 calc R . .

loop_
_atom_site_aniso_label
_atom_site_aniso_U_11
_atom_site_aniso_U_22
_atom_site_aniso_U_33
_atom_site_aniso_U_23
_atom_site_aniso_U_13
_atom_site_aniso_U_12
C25 0.041(2) 0.067(3) 0.0264(18) 0.0063(17) 0.0076(16) 0.0036(19)
C26 0.041(2) 0.067(3) 0.0264(18) 0.0063(17) 0.0076(16) 0.0036(19)
C27 0.041(2) 0.067(3) 0.0264(18) 0.0063(17) 0.0076(16) 0.0036(19)
C28 0.041(2) 0.067(3) 0.0264(18) 0.0063(17) 0.0076(16) 0.0036(19)
C29 0.041(2) 0.067(3) 0.0264(18) 0.0063(17) 0.0076(16) 0.0036(19)
C30 0.041(2) 0.067(3) 0.0264(18) 0.0063(17) 0.0076(16) 0.0036(19)
Zn1 0.0433(6) 0.0349(5) 0.0417(6) -0.0018(5) -0.0113(5) -0.0037(5)
Cl1 0.0611(17) 0.0429(14) 0.0728(17) -0.0139(12) -0.0297(14) -0.0180(12)
Cl2 0.0503(15) 0.0316(12) 0.0781(17) 0.0002(11) -0.0108(13) -0.0004(10)
C1 0.036(2) 0.0285(18) 0.0383(19) -0.0027(14) -0.0121(16) -0.0050(15)
C2 0.036(2) 0.0285(18) 0.0383(19) -0.0027(14) -0.0121(16) -0.0050(15)
C3 0.036(2) 0.0285(18) 0.0383(19) -0.0027(14) -0.0121(16) -0.0050(15)
C4 0.036(2) 0.0285(18) 0.0383(19) -0.0027(14) -0.0121(16) -0.0050(15)
C5 0.036(2) 0.0285(18) 0.0383(19) -0.0027(14) -0.0121(16) -0.0050(15)
C6 0.036(2) 0.0285(18) 0.0383(19) -0.0027(14) -0.0121(16) -0.0050(15)
C7 0.080(8) 0.033(5) 0.058(6) -0.019(5) -0.034(6) 0.007(5)
C8 0.036(5) 0.022(4) 0.047(5) -0.002(4) -0.025(4) -0.002(3)
N1 0.039(2) 0.0313(18) 0.0253(16) -0.0100(13) 0.0003(15) 0.0037(14)
N2 0.039(2) 0.0313(18) 0.0253(16) -0.0100(13) 0.0003(15) 0.0037(14)
C9 0.039(2) 0.0313(18) 0.0253(16) -0.0100(13) 0.0003(15) 0.0037(14)
C10 0.039(2) 0.0313(18) 0.0253(16) -0.0100(13) 0.0003(15) 0.0037(14)
C11 0.039(2) 0.0313(18) 0.0253(16) -0.0100(13) 0.0003(15) 0.0037(14)
C12 0.061(7) 0.044(6) 0.109(9) 0.025(6) -0.067(7) -0.023(5)
C13 0.055(6) 0.045(5) 0.016(4) 0.006(4) -0.006(4) -0.003(4)
C14 0.034(5) 0.046(6) 0.049(5) 0.026(4) -0.018(4) -0.015(4)
C15 0.023(3) 0.068(4) 0.017(2) 0.025(3) 0.003(2) -0.007(3)
C16 0.023(3) 0.068(4) 0.017(2) 0.025(3) 0.003(2) -0.007(3)
C17 0.051(6) 0.039(5) 0.036(4) 0.013(4) -0.031(5) -0.009(4)
Br1 0.0684(7) 0.0705(8) 0.0346(5) -0.0004(4) 0.0074(5) -0.0068(6)
C18 0.031(5) 0.027(4) 0.056(5) 0.010(4) -0.011(4) 0.000(4)
C19 0.035(5) 0.030(4) 0.034(4) 0.003(3) 0.007(4) -0.006(4)
C20 0.026(5) 0.057(6) 0.048(5) 0.006(4) -0.031(4) -0.001(4)
C21 0.049(6) 0.072(7) 0.045(5) 0.025(5) 0.013(5) 0.025(5)
C22 0.047(6) 0.109(10) 0.034(5) -0.036(6) -0.023(5) 0.012(6)
C23 0.070(7) 0.064(7) 0.039(5) 0.018(5) 0.044(5) 0.035(6)
C24 0.031(5) 0.068(7) 0.046(5) 0.006(5) -0.011(4) 0.007(5)
C31 0.065(6) 0.054(6) 0.015(4) 0.006(4) -0.001(4) 0.008(5)
C32 0.065(6) 0.054(6) 0.015(4) 0.006(4) -0.001(4) 0.008(5)
C33 0.065(6) 0.054(6) 0.015(4) 0.006(4) -0.001(4) 0.008(5)
N3 0.038(5) 0.060(6) 0.064(5) 0.002(4) 0.001(4) 0.022(4)
N4 0.055(5) 0.056(5) 0.022(3) 0.001(3) -0.015(3) 0.020(4)
C34 0.056(7) 0.106(10) 0.020(4) -0.006(5) 0.012(4) 0.032(6)
C35 0.049(6) 0.072(8) 0.041(5) 0.013(5) 0.013(5) 0.028(5)
C36 0.034(5) 0.056(6) 0.040(5) 0.009(4) 0.003(4) -0.011(4)
C37 0.034(5) 0.056(6) 0.040(5) 0.009(4) 0.003(4) -0.011(4)
C38 0.059(7) 0.065(7) 0.032(4) -0.007(4) 0.003(5) 0.042(5)
C39 0.035(5) 0.035(5) 0.041(5) 0.005(4) 0.009(4) -0.012(4)
C40 0.016(5) 0.080(7) 0.036(4) 0.024(4) -0.005(4) -0.007(4)
Br2 0.0734(8) 0.0389(5) 0.0685(7) -0.0183(5) -0.0108(6) 0.0008(5)
C41 0.046(6) 0.026(4) 0.035(4) -0.011(3) -0.018(4) -0.004(4)
C42 0.050(5) 0.008(3) 0.017(3) -0.008(3) 0.001(4) 0.008(3)
C43 0.029(5) 0.035(4) 0.021(3) 0.002(3) 0.007(4) -0.007(4)
C44 0.036(5) 0.048(6) 0.033(4) 0.008(4) 0.026(4) -0.001(4)
C45 0.028(5) 0.031(5) 0.055(5) 0.012(4) -0.005(4) -0.009(4)
C46 0.028(5) 0.031(5) 0.055(5) 0.012(4) -0.005(4) -0.009(4)
C47 0.043(5) 0.046(5) 0.019(4) -0.004(3) 0.019(4) 0.007(4)
C48 0.048(5) 0.027(4) 0.029(4) 0.004(3) -0.021(4) 0.020(4)

_geom_special_details            
;
All esds (except the esd in the dihedral angle between two l.s. planes)
are estimated using the full covariance matrix. The cell esds are taken
into account individually in the estimation of esds in distances, angles
and torsion angles; correlations between esds in cell parameters are only
used when they are defined by crystal symmetry. An approximate (isotropic)
treatment of cell esds is used for estimating esds involving l.s. planes.
;

loop_
_geom_bond_atom_site_label_1
_geom_bond_atom_site_label_2
_geom_bond_distance
_geom_bond_site_symmetry_2
_geom_bond_publ_flag
C25 C26 1.3900 . ?
C25 C30 1.3900 . ?
C25 C24 1.604(10) . ?
C26 C27 1.3900 . ?
C26 C31 1.562(10) . ?
C27 C28 1.3900 . ?
C27 C32 1.530(9) . ?
C28 C29 1.3900 . ?
C28 C37 1.645(9) . ?
C29 C30 1.3900 . ?
C29 C38 1.590(10) . ?
C30 C36 1.380(10) . ?
Zn1 N4 2.048(8) . ?
Zn1 N2 2.073(6) . ?
Zn1 Cl2 2.218(3) . ?
Zn1 Cl1 2.236(2) . ?
C1 C48 1.432(11) . ?
C1 C6 1.441(11) . ?
C1 C2 1.457(11) . ?
C2 C3 1.322(11) . ?
C2 C7 1.577(12) . ?
C3 C4 1.456(11) . ?
C3 C8 1.475(11) . ?
C4 C5 1.406(11) . ?
C4 C12 1.529(12) . ?
C5 C6 1.395(11) . ?
C5 C14 1.515(11) . ?
C6 C13 1.528(11) . ?
C7 H7A 0.9800 . ?
C7 H7B 0.9800 . ?
C7 H7C 0.9800 . ?
C8 N1 1.408(11) . ?
C8 H8A 0.9900 . ?
C8 H8B 0.9900 . ?
N1 N2 1.336(9) . ?
N1 C11 1.392(10) . ?
N2 C9 1.328(10) . ?
C9 C10 