
#######################################################################
#
#                 Cambridge Crystallographic Data Centre
#                                CCDC
#
#######################################################################
#
# If this CIF has been generated from an entry in the Cambridge
# Structural Database, then it will include bibliographic, chemical,
# crystal, experimental, refinement or atomic coordinate data resulting
# from the CCDC's data processing and validation procedures.
#
#######################################################################

data_CSD_CIF_PVPFEO20
_audit_creation_date 1980-10-28
_audit_creation_method CSD-ConQuest-V1
_database_code_CSD PVPFEO20
_database_code_depnum_ccdc_archive 'CCDC 1240246'
_chemical_formula_sum 'C70 H76 Fe1 N10 O7'
_chemical_formula_moiety
;
C68 H70 Fe1 N10 O6,C2 H6 O1
;
_journal_coden_Cambridge 4
_journal_volume 102
_journal_year 1980
_journal_page_first 3224
_journal_name_full 'J.Am.Chem.Soc. '
loop_
_publ_author_name
"G.B.Jameson"
"F.S.Molinaro"
"J.A.Ibers"
"J.P.Collman"
"J.I.Brauman"
"E.Rose"
"K.S.Suslick"
_chemical_name_systematic
;
(2-Methylimidazole)-dioxygen-meso-tetra(\a,\a,\a,\a-o-pivalamidophenyl)-porphy
rinato-iron ethanol solvate
;
_chemical_name_common
;
Teaching Subset: Fundamental Chemistry, Symmetry
;
_cell_volume   6707.784
_exptl_crystal_density_diffrn 1.21
_diffrn_ambient_temperature ?
_diffrn_special_details
;
The study was carried out at room temperature,in the range 283-303K

;
_refine_special_details
;
The 2MeIm ligand and the ethanol solvent were treated as rigid groups because 
of disorder problems. No coordinates for these moieties are retained. The 
terminal oxygen atom of the dioxygen molecule is symmetrically disordered.
;
#These two values have been output from a single CSD field.
_refine_ls_R_factor_gt 0.119
_refine_ls_wR_factor_gt 0.119
_symmetry_cell_setting monoclinic
_symmetry_space_group_name_H-M 'C 2/c'
_symmetry_Int_Tables_number 15
loop_
_symmetry_equiv_pos_site_id
_symmetry_equiv_pos_as_xyz
1 x,y,z
2 1/2+x,1/2+y,z
3 -x,y,1/2-z
4 1/2-x,1/2+y,1/2-z
5 -x,-y,-z
6 -1/2-x,-1/2-y,-z
7 x,-y,-1/2+z
8 -1/2+x,-1/2-y,-1/2+z
_cell_length_a 18.864(5)
_cell_length_b 19.451(5)
_cell_length_c 18.287(5)
_cell_angle_alpha 90
_cell_angle_beta 91.45(2)
_cell_angle_gamma 90
_cell_formula_units_Z 4
loop_
_atom_type_symbol
_atom_type_radius_bond
C 0.68
H 0.23
Fe 1.34
N 0.68
O 0.68
loop_
_atom_site_label
_atom_site_type_symbol
_atom_site_fract_x
_atom_site_fract_y
_atom_site_fract_z
Fe1 Fe 0.00000 0.13406 0.25000
O1 O 0.00000 0.23165 0.25000
O2 O 0.01630 0.27070 0.20210
N1 N 0.09638 0.14003 0.20775
C1 C 0.11322 0.14049 0.13434
C2 C 0.18946 0.14580 0.12696
C3 C 0.21757 0.14806 0.19490
C4 C 0.16013 0.14405 0.24538
C5 C 0.16954 0.14268 0.32072
N2 N 0.04257 0.13703 0.35096
C6 C 0.11437 0.13940 0.37032
C7 C 0.12297 0.13786 0.44787
C8 C 0.05963 0.13537 0.47614
C9 C 0.00825 0.13466 0.41562
C10 C 0.06501 0.13626 0.07645
N3 N 0.23246 0.26735 0.36901
C11 C 0.25309 0.33119 0.35956
O3 O 0.31435 0.34582 0.36293
C12 C 0.19719 0.38588 0.35024
C13 C 0.12657 0.36899 0.36820
C14 C 0.19769 0.41250 0.28046
C15 C 0.21584 0.44040 0.40110
N4 N 0.10949 0.25089 -0.00227
C16 C 0.11182 0.31229 -0.02300
O4 O 0.12209 0.32691 -0.09012
C17 C 0.10848 0.37162 0.02738
C18 C 0.17929 0.39718 0.04437
C19 C 0.07283 0.35266 0.09432
C20 C 0.06602 0.42919 -0.00228
C21 C 0.24348 0.14530 0.35138
C22 C 0.28405 0.08651 0.35659
C23 C 0.35400 0.08928 0.38146
C24 C 0.38200 0.15047 0.40391
C25 C 0.34321 0.20957 0.40147
C26 C 0.27412 0.20732 0.37437
C27 C 0.09339 0.12941 0.00010
C28 C 0.09692 0.06521 -0.03231
C29 C 0.12158 0.05929 -0.10339
C30 C 0.14268 0.11487 -0.14022
C31 C 0.13904 0.17994 -0.10869
C32 C 0.11428 0.18689 -0.03824
H1 H 0.18100 0.26200 0.37300
H2 H 0.10900 0.24500 0.05100
H3 H 0.09300 0.40400 0.35800
H4 H 0.11100 0.32800 0.34200
H5 H 0.12400 0.35700 0.42000
H6 H 0.25200 0.44500 0.28200
H7 H 0.20100 0.39400 0.24200
H8 H 0.17100 0.46000 0.27800
H9 H 0.24100 0.42500 0.44100
H10 H 0.25800 0.46900 0.37300
H11 H 0.18400 0.47300 0.40800
H12 H 0.20200 0.41600 0.00100
H13 H 0.18200 0.43000 0.08100
H14 H 0.21100 0.35900 0.05900
H15 H 0.04900 0.31100 0.09000
H16 H 0.11300 0.34200 0.13400
H17 H 0.04700 0.38700 0.11500
H18 H 0.01200 0.41300 -0.00400
H19 H 0.05800 0.46600 0.03800
H20 H 0.07300 0.45000 -0.04300
H21 H 0.26700 0.15300 0.20800
H22 H 0.21500 0.14700 0.08100
H23 H 0.16800 0.13900 0.47500
H24 H 0.04800 0.13300 0.52800
H25 H 0.36300 0.25200 0.42000
H26 H 0.43100 0.15100 0.42300
H27 H 0.38200 0.04700 0.38200
H28 H 0.26500 0.04300 0.33700
H29 H 0.15200 0.22000 -0.13600
H30 H 0.15900 0.11100 -0.19000
H31 H 0.12400 0.01400 -0.12500
H32 H 0.08200 0.02500 -0.00600
N1B N -0.09638 0.14003 0.29225
N2B N -0.04257 0.13703 0.14904
O2B O -0.01630 0.27070 0.29790
C10B C -0.06501 0.13626 0.42355
C9B C -0.00825 0.13466 0.08438
C1B C -0.11322 0.14049 0.36566
C4B C -0.16013 0.14405 0.25462
C6B C -0.11437 0.13940 0.12968
C27B C -0.09339 0.12941 0.49990
C8B C -0.05963 0.13537 0.02386
C2B C -0.18946 0.14580 0.37304
C3B C -0.21757 0.14806 0.30510
C5B C -0.16954 0.14268 0.17928
C7B C -0.12297 0.13786 0.05213
C28B C -0.09692 0.06521 0.53231
C32B C -0.11428 0.18689 0.53824
H24B H -0.04800 0.13300 -0.02800
H22B H -0.21500 0.14700 0.41900
H21B H -0.26700 0.15300 0.29200
C21B C -0.24348 0.14530 0.14862
H23B H -0.16800 0.13900 0.02500
C29B C -0.12158 0.05929 0.60339
H32B H -0.08200 0.02500 0.50600
N4B N -0.10949 0.25089 0.50227
C31B C -0.13904 0.17994 0.60869
C22B C -0.28405 0.08651 0.14341
C26B C -0.27412 0.20732 0.12563
C30B C -0.14268 0.11487 0.64022
H31B H -0.12400 0.01400 0.62500
C16B C -0.11182 0.31229 0.52300
H2B H -0.10900 0.24500 0.44900
H29B H -0.15200 0.22000 0.63600
C23B C -0.35400 0.08928 0.11854
H28B H -0.26500 0.04300 0.16300
N3B N -0.23246 0.26735 0.13099
C25B C -0.34321 0.20957 0.09853
H30B H -0.15900 0.11100 0.69000
O4B O -0.12209 0.32691 0.59012
C17B C -0.10848 0.37162 0.47262
C24B C -0.38200 0.15047 0.09609
H27B H -0.38200 0.04700 0.11800
C11B C -0.25309 0.33119 0.14044
H1B H -0.18100 0.26200 0.12700
H25B H -0.36300 0.25200 0.08000
C18B C -0.17929 0.39718 0.45563
C19B C -0.07283 0.35266 0.40568
C20B C -0.06602 0.42919 0.50228
H26B H -0.43100 0.15100 0.07700
O3B O -0.31435 0.34582 0.13707
C12B C -0.19719 0.38588 0.14976
H12B H -0.20200 0.41600 0.49900
H13B H -0.18200 0.43000 0.41900
H14B H -0.21100 0.35900 0.44100
H15B H -0.04900 0.31100 0.41000
H16B H -0.11300 0.34200 0.36600
H17B H -0.04700 0.38700 0.38500
H18B H -0.01200 0.41300 0.50400
H19B H -0.05800 0.46600 0.46200
H20B H -0.07300 0.45000 0.54300
C13B C -0.12657 0.36899 0.13180
C14B C -0.19769 0.41250 0.21954
C15B C -0.21584 0.44040 0.09890
H3B H -0.09300 0.40400 0.14200
H4B H -0.11100 0.32800 0.15800
H5B H -0.12400 0.35700 0.08000
H6B H -0.25200 0.44500 0.21800
H7B H -0.20100 0.39400 0.25800
H8B H -0.17100 0.46000 0.22200
H9B H -0.24100 0.42500 0.05900
H10B H -0.25800 0.46900 0.12700
H11B H -0.18400 0.47300 0.09200
#END
