####################################################################### 
# 
# This file contains crystal structure data downloaded from the 
# Cambridge Structural Database (CSD) hosted by the Cambridge 
# Crystallographic Data Centre (CCDC).
# 
# Full information about CCDC data access policies and citation 
# guidelines are available at http://www.ccdc.cam.ac.uk/access/V1 
# 
# Audit and citation data items may have been added by the CCDC. 
# Please retain this information to preserve the provenance of 
# this file and to allow appropriate attribution of the data. 
# 
#######################################################################

data_PYDCUO
#This CIF has been generated from an entry in the Cambridge Structural Database
_database_code_depnum_ccdc_archive 'CCDC 1240495'
_database_code_CSD               PYDCUO
loop_
_citation_id
_citation_doi
_citation_year
1 10.1107/S0567740875004426 1975
_audit_creation_method           'Created from the CSD'
_audit_update_record             
;
2024-07-12 downloaded from the CCDC.
;
_database_code_NBS               523301
_chemical_formula_moiety         '(C7 H5 N1 O7 U1)n'
_chemical_name_systematic        
catena-((\m~2~-Pyridine-2,6-dicarboxylato-N,O,O',O'')-aquadioxo-uranium(vi))
_chemical_absolute_configuration unk
_diffrn_ambient_temperature      295
_exptl_crystal_density_diffrn    2.59579
#These two values have been output from a single CSD field.
_refine_ls_R_factor_gt           0.033
_refine_ls_wR_factor_gt          0.033
_diffrn_radiation_probe          x-ray
_symmetry_cell_setting           hexagonal
_symmetry_space_group_name_H-M   'P 61'
_symmetry_Int_Tables_number      169
_space_group_name_Hall           'P 61'
loop_
_symmetry_equiv_pos_site_id
_symmetry_equiv_pos_as_xyz
1 x,y,z
2 x-y,x,1/6+z
3 -y,x-y,1/3+z
4 -x,-y,1/2+z
5 -x+y,-x,2/3+z
6 y,-x+y,5/6+z
_cell_length_a                   14.685(2)
_cell_length_b                   14.685(2)
_cell_length_c                   9.313(1)
_cell_angle_alpha                90
_cell_angle_beta                 90
_cell_angle_gamma                120
_cell_volume                     1739.27
_cell_formula_units_Z            6
loop_
_atom_site_label
_atom_site_type_symbol
_atom_site_fract_x
_atom_site_fract_y
_atom_site_fract_z
U1 U 0.38688 0.45194 0.16674
N1 N 0.57420 0.49140 0.15720
O1 O 0.36800 0.40270 0.34310
O2 O 0.40590 0.50160 -0.00960
O3 O 0.21810 0.30880 0.08980
O4 O 0.51480 0.61990 0.24940
O6 O 0.41650 0.30980 0.09920
O7A O 0.51920 0.24420 0.04190
C2 C 0.65380 0.59070 0.18510
C6 C 0.60060 0.42220 0.10590
C1 C 0.61500 0.66270 0.23890
C7 C 0.50620 0.31870 0.07770
C3 C 0.75920 0.62120 0.17060
C5 C 0.70040 0.44260 0.09080
O5 O 0.67990 0.75350 0.27340
C4 C 0.78390 0.54810 0.12250
U1 U 0.45194 0.06506 0.00007
O7A O 0.27500 0.51920 0.20857

#END
