
#######################################################################
#
#                 Cambridge Crystallographic Data Centre
#                                CCDC
#
#######################################################################
#
# If this CIF has been generated from an entry in the Cambridge
# Structural Database, then it will include bibliographic, chemical,
# crystal, experimental, refinement or atomic coordinate data resulting
# from the CCDC's data processing and validation procedures.
#
#######################################################################

data_CSD_CIF_PYRZIN
_audit_creation_date 1971-12-31
_audit_creation_method CSD-ConQuest-V1
_database_code_CSD PYRZIN
_database_code_depnum_ccdc_archive 'CCDC 1240828'
_chemical_formula_sum 'C5 H5 N3 O1'
_chemical_formula_moiety
;
C5 H5 N3 O1
;
_journal_coeditor_code "IUCr A02887"
_journal_coden_Cambridge 1
_journal_volume 13
_journal_year 1960
_journal_page_first 693
_journal_name_full 'Acta Crystallogr. '
loop_
_publ_author_name
"Y.Takaki"
"Y.Sasada"
"T.Watanabe"
_chemical_name_systematic
;
Pyrazine-2-carboxamide
;
_chemical_name_common
;
Pyrazinamide; DrugBank: DB00339; Teaching Subset: Fundamental Chemistry, Drug 
Molecules
;
_cell_volume    567.518
_exptl_special_details
;
alpha polymorph
potent antiuricosuric drug, hypouricemia and hyperuricosuria diagnostic tool, 
antibacterial drug
;
_diffrn_ambient_temperature ?
_diffrn_special_details
;
The study was carried out at room temperature,in the range 283-303K

;
#These two values have been output from a single CSD field.
_refine_ls_R_factor_gt 0.068
_refine_ls_wR_factor_gt 0.068
_symmetry_cell_setting monoclinic
_symmetry_space_group_name_H-M 'P 21/a'
_symmetry_Int_Tables_number 14
loop_
_symmetry_equiv_pos_site_id
_symmetry_equiv_pos_as_xyz
1 x,y,z
2 1/2-x,1/2+y,-z
3 -x,-y,-z
4 -1/2+x,-1/2-y,z
_cell_length_a 23.072
_cell_length_b 6.727
_cell_length_c 3.725
_cell_angle_alpha 90
_cell_angle_beta 101.0
_cell_angle_gamma 90
_cell_formula_units_Z 4
loop_
_atom_type_symbol
_atom_type_radius_bond
C 0.68
H 0.20
N 0.68
O 0.68
loop_
_atom_site_label
_atom_site_type_symbol
_atom_site_fract_x
_atom_site_fract_y
_atom_site_fract_z
N1 N 0.09010 -0.49240 -0.45550
H1 H 0.11700 -0.24700 -0.21700
H2 H 0.00100 -0.67400 -0.63300
H3 H -0.01800 -0.84400 -0.88700
C1 C 0.11050 -0.66660 -0.55700
C2 C 0.17020 -0.70920 -0.49900
N2 N 0.21120 -0.58080 -0.34400
C3 C 0.19120 -0.40500 -0.24000
C4 C 0.13190 -0.36200 -0.29650
C5 C 0.06570 -0.81470 -0.73800
N3 N 0.00990 -0.76640 -0.77500
O1 O 0.08290 -0.97020 -0.86320
H4 H 0.18100 -0.83300 -0.62000
H5 H 0.22100 -0.31500 -0.08000
#END
