
#######################################################################
#
#                 Cambridge Crystallographic Data Centre
#                                CCDC
#
#######################################################################
#
# If this CIF has been generated from an entry in the Cambridge
# Structural Database, then it will include bibliographic, chemical,
# crystal, experimental, refinement or atomic coordinate data resulting
# from the CCDC's data processing and validation procedures.
#
#######################################################################

data_CSD_CIF_QABLAG
_audit_creation_date 1999-12-16
_audit_creation_method CSD-ConQuest-V1
_database_code_CSD QABLAG
_database_code_depnum_ccdc_archive 'CCDC 1240999'
_chemical_formula_sum 'C12 H12 N2'
_chemical_formula_moiety
;
C12 H12 N2
;
_journal_coden_Cambridge 36
_journal_volume 551
_journal_year 1998
_journal_page_first 171
_journal_name_full 'J.Organomet.Chem. '
loop_
_publ_author_name
"I.L.Eremenko"
"S.E.Nefedov"
"A.A.Sidorov"
"M.O.Ponina"
"P.V.Danilov"
"T.A.Stromnova"
"I.P.Stolarov"
"S.B.Katser"
"S.T.Orlova"
"M.N.Vargaftik"
"I.I.Moiseev"
"Yu.A.Ustynyuk"
_chemical_name_systematic
;
N-Phenyl-o-phenylenediamine
;
_chemical_name_common
;
Teaching Subset: Fundamental Chemistry
;
_cell_volume    991.661
_exptl_crystal_colour 'white'
_exptl_crystal_density_diffrn 1.234
_exptl_crystal_description 'prism'
_diffrn_ambient_temperature ?
_diffrn_special_details
;
The study was carried out at room temperature,in the range 283-303K

;
#These two values have been output from a single CSD field.
_refine_ls_R_factor_gt 0.058
_refine_ls_wR_factor_gt 0.058
_symmetry_cell_setting monoclinic
_symmetry_space_group_name_H-M 'P 21/n'
_symmetry_Int_Tables_number 14
loop_
_symmetry_equiv_pos_site_id
_symmetry_equiv_pos_as_xyz
1 x,y,z
2 1/2-x,1/2+y,1/2-z
3 -x,-y,-z
4 -1/2+x,-1/2-y,-1/2+z
_cell_length_a 10.818(4)
_cell_length_b 5.864(2)
_cell_length_c 15.721(4)
_cell_angle_alpha 90
_cell_angle_beta 96.09(2)
_cell_angle_gamma 90
_cell_formula_units_Z 4
loop_
_atom_type_symbol
_atom_type_radius_bond
C 0.68
H 0.23
N 0.68
loop_
_atom_site_label
_atom_site_type_symbol
_atom_site_fract_x
_atom_site_fract_y
_atom_site_fract_z
N1 N 0.1612(3) 0.1056(8) 0.2194(2)
N2 N 0.0384(2) 0.2550(4) 0.3586(2)
C1 C 0.0592(2) -0.0128(4) 0.2424(2)
C2 C -0.0003(2) 0.0541(4) 0.3130(1)
C3 C -0.0996(3) -0.0716(5) 0.3361(2)
C4 C -0.1423(3) -0.2614(5) 0.2900(2)
C5 C -0.0832(3) -0.3290(5) 0.2211(2)
C6 C 0.0158(3) -0.2080(5) 0.1981(2)
C7 C 0.1425(2) 0.2676(4) 0.4180(1)
C8 C 0.1678(3) 0.4680(4) 0.4644(2)
C9 C 0.2715(3) 0.4845(6) 0.5219(2)
C10 C 0.3539(3) 0.3064(6) 0.5351(2)
C11 C 0.3292(3) 0.1075(5) 0.4903(2)
C12 C 0.2249(2) 0.0860(4) 0.4319(2)
H1 H 0.1621(37) 0.2629(91) 0.2364(26)
H2 H 0.1784(37) 0.0706(69) 0.1745(29)
H3 H -0.0136(34) 0.3644(70) 0.3525(24)
H4 H -0.1406(28) -0.0264(51) 0.3870(23)
H5 H -0.1189(26) -0.4600(55) 0.1867(21)
H6 H 0.0523(31) -0.2582(62) 0.1489(23)
H7 H 0.1052(24) 0.5994(51) 0.4551(17)
H8 H 0.2885(29) 0.6115(55) 0.556(2)
H9 H -0.2164(34) -0.3342(52) 0.3040(21)
H10 H 0.4340(32) 0.3233(55) 0.5756(23)
H11 H 0.3823(25) -0.0154(48) 0.4996(17)
H12 H 0.2050(24) -0.0512(49) 0.4050(17)
#END
