
#######################################################################
#
#                 Cambridge Crystallographic Data Centre
#                                CCDC
#
#######################################################################
#
# If this CIF has been generated from an entry in the Cambridge
# Structural Database, then it will include bibliographic, chemical,
# crystal, experimental, refinement or atomic coordinate data resulting
# from the CCDC's data processing and validation procedures.
#
#######################################################################

data_CSD_CIF_QACSUI
_audit_creation_date 1999-12-16
_audit_creation_method CSD-ConQuest-V1
_database_code_CSD QACSUI
_database_code_depnum_ccdc_archive 'CCDC 1241229'
_chemical_formula_sum 'C6 H9 N9 O3'
_chemical_formula_moiety
;
C3 H3 N3 O3,C3 H6 N6
;
_journal_coden_Cambridge 4
_journal_volume 121
_journal_year 1999
_journal_page_first 1752
_journal_name_full 'J.Am.Chem.Soc. '
loop_
_publ_author_name
"A.Ranganathan"
"V.R.Pedireddi"
"C.N.R.Rao"
_chemical_name_systematic
;
Cyanuric acid melamine
;
_chemical_name_common
;
Teaching Subset: Fundamental Chemistry
;
_cell_volume    512.392
_exptl_crystal_density_diffrn 1.654
_diffrn_ambient_temperature ?
_diffrn_special_details
;
The study was carried out at room temperature,in the range 283-303K

;
_refine_special_details
;
The two molecules are disordered with occupancy 0.5.

;
#These two values have been output from a single CSD field.
_refine_ls_R_factor_gt 0.056
_refine_ls_wR_factor_gt 0.056
_symmetry_cell_setting monoclinic
_symmetry_space_group_name_H-M 'C 2/m'
_symmetry_Int_Tables_number 12
loop_
_symmetry_equiv_pos_site_id
_symmetry_equiv_pos_as_xyz
1 x,y,z
2 -x,y,-z
3 1/2+x,1/2+y,z
4 1/2-x,1/2+y,-z
5 -x,-y,-z
6 x,-y,z
7 -1/2-x,-1/2-y,-z
8 -1/2+x,-1/2-y,z
_cell_length_a 14.853(2)
_cell_length_b 9.641(2)
_cell_length_c 3.581(1)
_cell_angle_alpha 90
_cell_angle_beta 92.26(1)
_cell_angle_gamma 90
_cell_formula_units_Z 2
loop_
_atom_type_symbol
_atom_type_radius_bond
C 0.68
N 0.68
O 0.68
loop_
_atom_site_label
_atom_site_type_symbol
_atom_site_fract_x
_atom_site_fract_y
_atom_site_fract_z
N1 N 0.0879(3) 0.00000 0.3511(12)
N2 N 0.2114(2) 0.1228(3) 0.1158(8)
C1 C 0.1293(2) 0.1217(4) 0.2674(10)
C2 C 0.2529(3) 0.00000 0.0420(14)
O1 O 0.3247(12) 0.00000 -0.1382(50)
O2 O 0.0832(6) 0.2355(9) 0.2944(25)
N3? N 0.3360(17) 0.00000 -0.0517(65)
N4? N 0.0973(8) 0.2381(15) 0.3887(31)
N2E N 0.2114(2) -0.1228(3) 0.1158(8)
C1E C 0.1293(2) -0.1217(4) 0.2674(10)
O2E O 0.0832(6) -0.2355(9) 0.2944(25)
#END
