####################################################################### 
# 
# This file contains crystal structure data downloaded from the 
# Cambridge Structural Database (CSD) hosted by the Cambridge 
# Crystallographic Data Centre (CCDC).
# 
# Full information about CCDC data access policies and citation 
# guidelines are available at http://www.ccdc.cam.ac.uk/access/V1 
# 
# Audit and citation data items may have been added by the CCDC. 
# Please retain this information to preserve the provenance of 
# this file and to allow appropriate attribution of the data. 
# 
#######################################################################

data_pp3
_audit_block_doi                 10.5517/ccv7trm
_database_code_depnum_ccdc_archive 'CCDC 782091'
loop_
_citation_id
_citation_doi
_citation_year
1 10.1016/j.molstruc.2010.09.031 2010
_audit_update_record             
;
2010-06-23 deposited with the CCDC.	2024-07-12 downloaded from the CCDC.
;
#TrackingRef '3.cif'


_audit_creation_method           SHELXL-97
_chemical_name_systematic        
;
?
;
_chemical_name_common            ?
_chemical_melting_point          ?
_chemical_formula_moiety         ?
_chemical_formula_sum            'C30 H42 Cu3 N12 O43 W12 '
_chemical_formula_weight         3655.49

loop_
_atom_type_symbol
_atom_type_description
_atom_type_scat_dispersion_real
_atom_type_scat_dispersion_imag
_atom_type_scat_source
C C 0.0033 0.0016 'International Tables Vol C Tables 4.2.6.8 and 6.1.1.4'
H H 0.0000 0.0000 'International Tables Vol C Tables 4.2.6.8 and 6.1.1.4'
N N 0.0061 0.0033 'International Tables Vol C Tables 4.2.6.8 and 6.1.1.4'
O O 0.0106 0.0060 'International Tables Vol C Tables 4.2.6.8 and 6.1.1.4'
Cu Cu 0.3201 1.2651 'International Tables Vol C Tables 4.2.6.8 and 6.1.1.4'
W W -0.8490 6.8722 'International Tables Vol C Tables 4.2.6.8 and 6.1.1.4'

_symmetry_cell_setting           Monoclinic
_symmetry_space_group_name_H-M   'P2(1)/c '

loop_
_symmetry_equiv_pos_as_xyz
'x, y, z'
'-x, y+1/2, -z+1/2'
'-x, -y, -z'
'x, -y-1/2, z-1/2'

_cell_length_a                   14.165(4)
_cell_length_b                   47.862(14)
_cell_length_c                   13.873(4)
_cell_angle_alpha                90.00
_cell_angle_beta                 114.208(4)
_cell_angle_gamma                90.00
_cell_volume                     8578(4)
_cell_formula_units_Z            4
_cell_measurement_temperature    293(2)
_cell_measurement_reflns_used    25
_cell_measurement_theta_min      7.5
_cell_measurement_theta_max      15

_exptl_crystal_description       block
_exptl_crystal_colour            orange
_exptl_crystal_size_max          0.16
_exptl_crystal_size_mid          0.11
_exptl_crystal_size_min          0.11
_exptl_crystal_density_meas      ?
_exptl_crystal_density_diffrn    2.831
_exptl_crystal_density_method    'not measured'
_exptl_crystal_F_000             6500.0
_exptl_absorpt_coefficient_mu    16.822
_exptl_absorpt_correction_type   none
_exptl_absorpt_correction_T_min  0.125
_exptl_absorpt_correction_T_max  0.157
_exptl_absorpt_process_details   ?

_exptl_special_details           
;
?
;

_diffrn_ambient_temperature      293(2)
_diffrn_radiation_wavelength     0.71073
_diffrn_radiation_type           MoK\a
_diffrn_radiation_source         'fine-focus sealed tube'
_diffrn_radiation_monochromator  graphite
_diffrn_measurement_device_type  'Bruker P4'
_diffrn_measurement_method       '\w scans'
_diffrn_detector_area_resol_mean ?
_diffrn_standards_number         ?
_diffrn_standards_interval_count ?
_diffrn_standards_interval_time  ?
_diffrn_standards_decay_%        ?
_diffrn_reflns_number            42851
_diffrn_reflns_av_R_equivalents  0.1172
_diffrn_reflns_av_sigmaI/netI    0.1439
_diffrn_reflns_limit_h_min       -16
_diffrn_reflns_limit_h_max       15
_diffrn_reflns_limit_k_min       -41
_diffrn_reflns_limit_k_max       57
_diffrn_reflns_limit_l_min       -16
_diffrn_reflns_limit_l_max       16
_diffrn_reflns_theta_min         1.63
_diffrn_reflns_theta_max         25.10
_reflns_number_total             15274
_reflns_number_gt                7177
_reflns_threshold_expression     >2sigma(I)

_computing_data_collection       'Bruker XSCANS'
_computing_cell_refinement       'Bruker XSCANS'
_computing_data_reduction        'Bruker SHELXTL'
_computing_structure_solution    'Bruker SHELXTL'
_computing_structure_refinement  'Bruker SHELXTL'
_computing_molecular_graphics    'Bruker SHELXTL'
_computing_publication_material  'Bruker SHELXTL'

_refine_special_details          
;
Refinement of F^2^ against ALL reflections. The weighted R-factor wR and
goodness of fit S are based on F^2^, conventional R-factors R are based
on F, with F set to zero for negative F^2^. The threshold expression of
F^2^ > 2sigma(F^2^) is used only for calculating R-factors(gt) etc. and is
not relevant to the choice of reflections for refinement. R-factors based
on F^2^ are statistically about twice as large as those based on F, and R-
factors based on ALL data will be even larger.
;

_refine_ls_structure_factor_coef Fsqd
_refine_ls_matrix_type           full
_refine_ls_weighting_scheme      calc
_refine_ls_weighting_details     
'calc w=1/[\s^2^(Fo^2^)+(0.1000P)^2^+0.0000P] where P=(Fo^2^+2Fc^2^)/3'
_atom_sites_solution_primary     direct
_atom_sites_solution_secondary   difmap
_atom_sites_solution_hydrogens   geom
_refine_ls_hydrogen_treatment    constr
_refine_ls_extinction_method     none
_refine_ls_extinction_coef       ?
_refine_ls_number_reflns         15140
_refine_ls_number_parameters     826
_refine_ls_number_restraints     3
_refine_ls_R_factor_all          0.1881
_refine_ls_R_factor_gt           0.0990
_refine_ls_wR_factor_ref         0.2644
_refine_ls_wR_factor_gt          0.2316
_refine_ls_goodness_of_fit_ref   1.102
_refine_ls_restrained_S_all      1.102
_refine_ls_shift/su_max          0.036
_refine_ls_shift/su_mean         0.002

loop_
_atom_site_label
_atom_site_type_symbol
_atom_site_fract_x
_atom_site_fract_y
_atom_site_fract_z
_atom_site_U_iso_or_equiv
_atom_site_adp_type
_atom_site_occupancy
_atom_site_symmetry_multiplicity
_atom_site_calc_flag
_atom_site_refinement_flags
_atom_site_disorder_assembly
_atom_site_disorder_group
W12 W 0.79651(9) 0.29930(2) 1.19433(9) 0.0453(3) Uani 1 1 d . . .
W11 W 0.56113(8) 0.33559(2) 1.15677(9) 0.0393(3) Uani 1 1 d . . .
W10 W 1.01378(8) 0.33619(3) 1.22461(9) 0.0433(3) Uani 1 1 d . . .
W9 W 0.80702(10) 0.33477(3) 0.98571(10) 0.0498(4) Uani 1 1 d . . .
W8 W 0.99700(9) 0.37344(3) 1.44212(10) 0.0545(4) Uani 1 1 d . . .
W7 W 0.77822(10) 0.33741(3) 1.41052(10) 0.0514(4) Uani 1 1 d . . .
W6 W 0.80211(10) 0.40944(3) 0.98152(12) 0.0613(4) Uani 1 1 d . . .
W5 W 0.57172(9) 0.37117(3) 0.94896(10) 0.0505(4) Uani 1 1 d . . .
W4 W 0.77652(11) 0.40802(3) 1.40934(12) 0.0663(5) Uani 1 1 d . . .
W3 W 1.00788(10) 0.41096(3) 1.22213(12) 0.0652(4) Uani 1 1 d . . .
W2 W 0.78530(11) 0.44498(3) 1.18611(14) 0.0746(5) Uani 1 1 d . . .
W1 W 0.55631(11) 0.40622(3) 1.15557(13) 0.0661(4) Uani 1 1 d . . .
Cu2 Cu 0.2955(3) 0.30981(10) 1.1925(3) 0.0739(13) Uani 1 1 d . . .
Cu3 Cu -0.2077(3) 0.24938(10) 0.4466(4) 0.0856(15) Uani 1 1 d . . .
Cu1 Cu 0.2909(5) 0.37274(12) 1.1933(4) 0.128(3) Uani 1 1 d . . .
O40 O 0.7959(18) 0.4239(5) 0.869(2) 0.094(9) Uani 1 1 d . . .
O39 O 0.7922(15) 0.2998(5) 1.0538(16) 0.076(8) Uani 1 1 d . . .
O38 O 0.8056(14) 0.3172(4) 0.8771(15) 0.050(5) Uiso 1 1 d . . .
O37 O 1.1296(18) 0.3198(5) 1.2415(17) 0.088(8) Uani 1 1 d . . .
O36 O 0.7679(18) 0.3176(5) 1.5039(16) 0.081(8) Uani 1 1 d . . .
O35 O 0.4810(17) 0.3712(4) 0.8249(14) 0.067(6) Uani 1 1 d . . .
O34 O 0.4549(16) 0.4267(4) 1.147(2) 0.083(8) Uani 1 1 d . . .
O33 O 1.1110(17) 0.3738(5) 1.5555(16) 0.084(8) Uani 1 1 d . . .
O32 O 0.4643(18) 0.3135(5) 1.1483(18) 0.083(7) Uani 1 1 d . . .
O31 O 0.763(2) 0.4277(6) 1.506(2) 0.120(12) Uani 1 1 d . . .
O30 O 1.1256(13) 0.4250(4) 1.2466(18) 0.071(7) Uani 1 1 d . . .
O29 O 0.7891(12) 0.2641(4) 1.2002(15) 0.052(6) Uani 1 1 d . . .
O28 O 0.8130(16) 0.3106(5) 1.3308(16) 0.080(8) Uani 1 1 d . . .
O27 O 0.6412(17) 0.3362(5) 1.3020(17) 0.084(8) Uani 1 1 d . . .
O26 O 0.7716(15) 0.4398(7) 1.042(2) 0.121(12) Uani 1 1 d . . .
O25 O 0.771(2) 0.4805(4) 1.188(2) 0.108(10) Uani 1 1 d . . .
O24 O 0.9131(14) 0.4023(4) 1.4812(19) 0.068(7) Uani 1 1 d . . .
C20 C -0.084(6) 0.3639(15) 0.716(4) 0.29(6) Uani 1 1 d . . .
H20A H -0.0729 0.3657 0.6521 0.350 Uiso 1 1 calc R . .
H20B H -0.1568 0.3663 0.7019 0.350 Uiso 1 1 calc R . .
O23 O 0.5179(18) 0.3422(5) 1.0117(18) 0.086(8) Uani 1 1 d . . .
N8 N 0.217(2) 0.3016(7) 1.050(2) 0.077(9) Uani 1 1 d . . .
O22 O 0.6373(18) 0.4062(6) 1.296(2) 0.118(11) Uani 1 1 d . . .
O21 O 0.6647(15) 0.3453(5) 0.947(2) 0.088(9) Uani 1 1 d . . .
O20 O 0.9483(19) 0.4135(7) 1.067(2) 0.117(11) Uani 1 1 d . . .
N7 N 0.219(2) 0.3727(7) 1.051(2) 0.089(11) Uani 1 1 d D . .
C19 C 0.1112(19) 0.3042(6) 0.996(3) 0.056(9) Uani 1 1 d . . .
H19A H 0.0672 0.3137 1.0194 0.068 Uiso 1 1 calc R . .
O19 O 1.028(3) 0.3474(4) 1.363(2) 0.109(10) Uani 1 1 d . . .
C18 C 0.332(3) 0.2931(6) 1.399(3) 0.061(9) Uiso 1 1 d . . .
H18A H 0.2646 0.2959 1.3932 0.073 Uiso 1 1 calc R . .
O03 O -0.031(2) 0.3362(7) 0.786(2) 0.142(15) Uani 1 1 d D . .
C17 C -0.034(3) 0.3034(12) 0.757(4) 0.15(3) Uani 1 1 d . . .
H17A H -0.0991 0.3007 0.6954 0.182 Uiso 1 1 calc R . .
H17B H 0.0200 0.3009 0.7320 0.182 Uiso 1 1 calc R . .
C16 C -0.027(4) 0.2830(11) 0.814(4) 0.13(2) Uani 1 1 d . . .
H16A H -0.0278 0.2654 0.7789 0.151 Uiso 1 1 calc R . .
H16B H -0.0799 0.2828 0.8415 0.151 Uiso 1 1 calc R . .
N12 N 0.081(2) 0.2750(6) 0.543(2) 0.087(11) Uani 1 1 d . . .
C30 C 0.015(2) 0.2427(7) 0.606(3) 0.065(10) Uani 1 1 d . . .
H30A H 0.0063 0.2284 0.6466 0.078 Uiso 1 1 calc R . .
N6 N 0.4952(16) 0.2928(6) 1.4848(19) 0.066(8) Uani 1 1 d . . .
O18 O 0.8344(13) 0.3721(4) 0.9708(17) 0.062(6) Uani 1 1 d . . .
O17 O 0.9481(16) 0.3028(5) 1.2442(17) 0.086(8) Uani 1 1 d . . .
N5 N 0.097(2) 0.3797(6) 0.914(4) 0.17(2) Uani 1 1 d D . .
O16 O 0.6621(17) 0.3990(4) 0.951(3) 0.108(11) Uani 1 1 d . . .
O15 O 0.502(2) 0.3705(5) 1.176(2) 0.106(10) Uani 1 1 d . . .
C15 C -0.019(2) 0.3795(7) 0.798(3) 0.15(3) Uani 1 1 d D . .
H15A H -0.0671 0.3868 0.8253 0.174 Uiso 1 1 calc R . .
H15B H -0.0066 0.3951 0.7600 0.174 Uiso 1 1 calc R . .
O14 O 0.645(2) 0.4331(8) 1.143(2) 0.152(16) Uani 1 1 d . . .
C29 C -0.018(2) 0.2768(8) 0.478(3) 0.076(12) Uani 1 1 d . . .
H29A H -0.0497 0.2884 0.4197 0.091 Uiso 1 1 calc R . .
O13 O 0.9495(18) 0.3303(6) 1.0794(15) 0.109(11) Uani 1 1 d . . .
C14 C 0.471(2) 0.3026(7) 1.388(2) 0.058(9) Uani 1 1 d . . .
H14A H 0.5182 0.3082 1.3607 0.070 Uiso 1 1 calc R . .
O12 O 0.6552(13) 0.3096(4) 1.1455(14) 0.062(6) Uani 1 1 d . . .
N11 N -0.062(2) 0.2564(5) 0.519(2) 0.063(8) Uani 1 1 d . . .
O11 O 0.5145(18) 0.3987(4) 1.0107(18) 0.075(7) Uani 1 1 d . . .
O10 O 0.8377(14) 0.3451(5) 1.1600(16) 0.075(7) Uani 1 1 d . . .
N4 N 0.369(2) 0.3031(6) 1.3352(17) 0.058(7) Uani 1 1 d . . .
O9 O 0.7559(16) 0.3737(5) 1.461(2) 0.099(10) Uani 1 1 d . . .
O8 O 0.822(2) 0.3750(5) 1.333(3) 0.126(13) Uani 1 1 d . . .
O7 O 0.9344(17) 0.4425(6) 1.231(2) 0.120(12) Uani 1 1 d . . .
N3 N 0.082(2) 0.2900(7) 0.900(2) 0.069(8) Uani 1 1 d . . .
O6 O 1.0216(18) 0.4024(4) 1.3562(18) 0.081(8) Uani 1 1 d . . .
C13 C 0.250(3) 0.2871(15) 0.991(3) 0.17(3) Uani 1 1 d . . .
H13A H 0.3184 0.2825 1.0087 0.204 Uiso 1 1 calc R . .
O5 O 0.9096(18) 0.3436(5) 1.4837(18) 0.092(9) Uani 1 1 d . . .
O4 O 0.6639(19) 0.3713(5) 1.137(2) 0.086(8) Uani 1 1 d . . .
O01 O 0.2922(15) 0.2936(5) 0.6950(19) 0.074(7) Uani 1 1 d . . .
O3 O 1.039(2) 0.3737(5) 1.206(2) 0.100(9) Uani 1 1 d . . .
C26 C 0.101(2) 0.2545(5) 0.616(2) 0.053(9) Uani 1 1 d . . .
H26A H 0.1669 0.2497 0.6656 0.064 Uiso 1 1 calc R . .
O2 O 0.8063(19) 0.4361(6) 1.320(2) 0.108(10) Uani 1 1 d . . .
O1 O 0.8270(19) 0.4020(5) 1.161(2) 0.109(10) Uani 1 1 d . . .
C24 C 0.232(3) 0.3104(7) 0.619(4) 0.12(2) Uani 1 1 d . . .
H24A H 0.2740 0.3233 0.5996 0.144 Uiso 1 1 calc R . .
H24B H 0.1880 0.3211 0.6436 0.144 Uiso 1 1 calc R . .
C23 C 0.166(3) 0.2925(12) 0.524(4) 0.15(3) Uani 1 1 d . . .
H23A H 0.2104 0.2799 0.5068 0.184 Uiso 1 1 calc R . .
H23B H 0.1317 0.3046 0.4631 0.184 Uiso 1 1 calc R . .
C12 C 0.119(3) 0.3764(10) 1.014(4) 0.67(18) Uani 1 1 d D . .
H12A H 0.0753 0.3766 1.0494 0.806 Uiso 1 1 calc R . .
C11 C 0.165(3) 0.2792(12) 0.897(3) 0.14(2) Uani 1 1 d . . .
H11 H 0.1685 0.2683 0.8435 0.163 Uiso 1 1 calc R . .
C21 C 0.366(3) 0.3053(8) 0.785(4) 0.101(16) Uani 1 1 d . . .
H21A H 0.3323 0.3194 0.8098 0.121 Uiso 1 1 calc R . .
H21B H 0.4153 0.3149 0.7644 0.121 Uiso 1 1 calc R . .
O02 O 0.627(2) 0.3388(8) 1.617(3) 0.119(11) Uiso 1 1 d . . .
N2 N 0.361(3) 0.3749(7) 1.341(3) 0.107(12) Uiso 1 1 d . . .
C10 C 0.462(3) 0.3771(8) 1.390(3) 0.096(13) Uiso 1 1 d . . .
H10 H 0.5115 0.3768 1.3617 0.115 Uiso 1 1 calc R . .
C9 C 0.274(4) 0.3706(10) 0.985(4) 0.126(18) Uiso 1 1 d . . .
H9 H 0.3441 0.3684 1.0037 0.151 Uiso 1 1 calc R . .
N1 N 0.476(3) 0.3801(7) 1.495(3) 0.095(10) Uiso 1 1 d . . .
C8 C 0.322(4) 0.3731(8) 1.413(4) 0.100(14) Uiso 1 1 d . . .
H8A H 0.2536 0.3683 1.3960 0.120 Uiso 1 1 calc R . .
C7 C 0.382(4) 0.3779(10) 1.502(5) 0.132(18) Uiso 1 1 d . . .
H7A H 0.3678 0.3797 1.5618 0.159 Uiso 1 1 calc R . .
C6 C 0.178(3) 0.3734(8) 0.868(4) 0.109(14) Uiso 1 1 d . . .
H6 H 0.1739 0.3718 0.8001 0.131 Uiso 1 1 calc R . .
C5 C 0.585(3) 0.3817(9) 1.590(4) 0.114(15) Uiso 1 1 d . . .
H5A H 0.6378 0.3845 1.5633 0.136 Uiso 1 1 calc R . .
H5B H 0.5870 0.3975 1.6346 0.136 Uiso 1 1 calc R . .
C4 C 0.607(4) 0.3548(11) 1.654(4) 0.123(17) Uiso 1 1 d . . .
H4A H 0.6623 0.3580 1.7232 0.148 Uiso 1 1 calc R . .
H4B H 0.5455 0.3495 1.6647 0.148 Uiso 1 1 calc R . .
C3 C 0.414(4) 0.2763(13) 1.485(5) 0.16(2) Uiso 1 1 d . . .
H3 H 0.4111 0.2607 1.5238 0.194 Uiso 1 1 calc R . .
C2 C 0.612(4) 0.3126(11) 1.646(4) 0.14(2) Uiso 1 1 d . . .
H2A H 0.5492 0.3131 1.6573 0.172 Uiso 1 1 calc R . .
H2B H 0.6683 0.3088 1.7135 0.172 Uiso 1 1 calc R . .
C1 C 0.604(3) 0.2886(10) 1.580(4) 0.121(16) Uiso 1 1 d . . .
H1A H 0.6062 0.2713 1.6171 0.145 Uiso 1 1 calc R . .
H1B H 0.6592 0.2884 1.5552 0.145 Uiso 1 1 calc R . .
C22 C 0.425(3) 0.2871(13) 0.875(3) 0.14(2) Uani 1 1 d . . .
H22A H 0.4622 0.2981 0.9376 0.164 Uiso 1 1 calc R . .
H22B H 0.3796 0.2742 0.8886 0.164 Uiso 1 1 calc R . .
N10 N 0.4937(16) 0.2728(6) 0.8458(16) 0.056(7) Uani 1 1 d . . .
C28 C 0.4816(17) 0.2546(6) 0.766(2) 0.045(8) Uani 1 1 d . . .
H28A H 0.4202 0.2503 0.7088 0.054 Uiso 1 1 calc R . .
C27 C 0.592(2) 0.2734(8) 0.911(2) 0.080(12) Uani 1 1 d . . .
H27A H 0.6189 0.2836 0.9734 0.096 Uiso 1 1 calc R . .
N9 N 0.6508(16) 0.2562(6) 0.873(2) 0.072(9) Uani 1 1 d . . .
C25 C 0.578(3) 0.2439(7) 0.787(3) 0.081(11) Uani 1 1 d . . .
H25A H 0.5912 0.2300 0.7475 0.097 Uiso 1 1 calc R . .

loop_
_atom_site_aniso_label
_atom_site_aniso_U_11
_atom_site_aniso_U_22
_atom_site_aniso_U_33
_atom_site_aniso_U_23
_atom_site_aniso_U_13
_atom_site_aniso_U_12
W12 0.0556(8) 0.0399(7) 0.0279(7) 0.0010(5) 0.0044(6) -0.0010(6)
W11 0.0265(6) 0.0496(8) 0.0380(7) -0.0004(5) 0.0093(5) -0.0039(5)
W10 0.0246(6) 0.0602(9) 0.0395(7) 0.0005(6) 0.0073(5) 0.0010(5)
W9 0.0465(8) 0.0691(10) 0.0362(8) -0.0085(6) 0.0194(6) -0.0100(6)
W8 0.0403(7) 0.0655(9) 0.0405(8) -0.0111(6) -0.0007(6) -0.0138(6)
W7 0.0506(8) 0.0699(10) 0.0362(8) 0.0043(6) 0.0202(6) 0.0020(6)
W6 0.0572(9) 0.0615(10) 0.0637(10) 0.0227(7) 0.0233(7) -0.0043(7)
W5 0.0384(7) 0.0559(9) 0.0417(8) 0.0054(6) 0.0008(6) 0.0036(6)
W4 0.0642(10) 0.0702(11) 0.0656(10) -0.0319(8) 0.0276(8) -0.0113(7)
W3 0.0500(9) 0.0714(11) 0.0722(11) -0.0113(8) 0.0232(8) -0.0296(7)
W2 0.0691(10) 0.0413(9) 0.1022(14) -0.0062(8) 0.0238(9) -0.0100(7)
W1 0.0488(8) 0.0706(11) 0.0772(11) 0.0032(8) 0.0243(8) 0.0156(7)
Cu2 0.091(3) 0.082(3) 0.030(2) 0.003(2) 0.005(2) -0.005(2)
Cu3 0.036(2) 0.128(5) 0.083(4) -0.014(3) 0.014(2) -0.008(2)
Cu1 0.158(6) 0.083(4) 0.076(4) -0.004(3) -0.020(4) 0.003(3)
O40 0.102(19) 0.091(19) 0.11(2) 0.066(16) 0.070(17) 0.000(14)
O39 0.058(14) 0.093(18) 0.048(14) 0.041(12) -0.007(11) -0.022(12)
O37 0.093(18) 0.16(2) 0.046(14) 0.060(14) 0.062(13) 0.058(16)
O36 0.100(19) 0.12(2) 0.035(13) 0.038(12) 0.036(13) 0.001(14)
O35 0.090(17) 0.086(17) 0.024(11) 0.007(10) 0.023(11) -0.025(12)
O34 0.061(15) 0.042(14) 0.14(2) -0.002(13) 0.029(15) 0.017(11)
O33 0.074(16) 0.091(19) 0.034(13) -0.006(11) -0.032(11) -0.025(13)
O32 0.089(18) 0.12(2) 0.056(16) 0.004(13) 0.042(14) -0.027(14)
O31 0.11(2) 0.12(2) 0.13(2) -0.11(2) 0.045(18) -0.032(17)
O30 0.025(11) 0.091(17) 0.101(19) -0.033(13) 0.030(11) -0.042(10)
O29 0.018(9) 0.053(13) 0.072(15) 0.022(10) 0.004(9) -0.008(8)
O28 0.050(13) 0.12(2) 0.042(14) -0.017(12) -0.010(11) 0.047(13)
O27 0.064(15) 0.085(18) 0.058(16) -0.031(12) -0.020(12) 0.021(12)
O26 0.025(12) 0.21(3) 0.08(2) -0.033(19) -0.025(13) 0.055(15)
O25 0.17(3) 0.008(12) 0.13(2) -0.002(12) 0.05(2) -0.010(13)
O24 0.046(12) 0.049(14) 0.115(19) -0.002(12) 0.040(13) -0.032(10)
C20 0.43(11) 0.38(10) 0.13(5) -0.22(6) 0.18(6) -0.42(10)
O23 0.083(18) 0.12(2) 0.067(17) 0.020(14) 0.044(14) -0.005(14)
N8 0.08(2) 0.12(3) 0.05(2) 0.031(17) 0.036(17) -0.001(17)
O22 0.062(17) 0.13(3) 0.14(3) 0.008(19) 0.013(16) -0.062(16)
O21 0.038(13) 0.107(19) 0.14(2) -0.056(16) 0.054(14) 0.010(11)
O20 0.065(17) 0.17(3) 0.08(2) -0.005(18) -0.010(15) 0.027(17)
N7 0.063(19) 0.12(3) 0.039(18) 0.042(17) -0.019(15) -0.011(18)
C19 0.010(14) 0.07(2) 0.08(3) -0.010(1