
#######################################################################
#
#                 Cambridge Crystallographic Data Centre
#                                CCDC
#
#######################################################################
#
# If this CIF has been generated from an entry in the Cambridge
# Structural Database, then it will include bibliographic, chemical,
# crystal, experimental, refinement or atomic coordinate data resulting
# from the CCDC's data processing and validation procedures.
#
#######################################################################

data_CSD_CIF_QAFPOD
_audit_creation_date 2003-05-06
_audit_creation_method CSD-ConQuest-V1
_database_code_CSD QAFPOD
_database_code_depnum_ccdc_archive 'CCDC 192306'
_chemical_formula_sum 'C24 H54 Be1 Si2'
_chemical_formula_moiety
;
C24 H54 Be1 Si2
;
_journal_coden_Cambridge 1290
_journal_year 2003
_journal_page_first 666
_journal_name_full 'Eur.J.Inorg.Chem. '
loop_
_publ_author_name
"H.-W.Lerner"
"S.Scholz"
"M.Bolte"
"N.Wiberg"
"H.Noth"
"I.Krossing"
_chemical_name_systematic
;
bis(Tri-t-butylsilyl)-beryllium
;
_chemical_name_common
;
Teaching Subset: Fundamental Chemistry, Symmetry
;
_chemical_melting_point 481
_cell_volume   1409.169
_exptl_crystal_colour 'colorless'
_exptl_crystal_density_diffrn 0.961
_exptl_special_details
;
Melting point range 481-483K

;
_exptl_crystal_description 'plate'
_diffrn_ambient_temperature 158
#These two values have been output from a single CSD field.
_refine_ls_R_factor_gt 0.0502
_refine_ls_wR_factor_gt 0.0502
_symmetry_cell_setting triclinic
_symmetry_space_group_name_H-M 'P -1'
_symmetry_Int_Tables_number 2
loop_
_symmetry_equiv_pos_site_id
_symmetry_equiv_pos_as_xyz
1 x,y,z
2 -x,-y,-z
_cell_length_a 8.631(4)
_cell_length_b 11.871(4)
_cell_length_c 14.942(6)
_cell_angle_alpha 74.03(2)
_cell_angle_beta 87.64(2)
_cell_angle_gamma 73.377(15)
_cell_formula_units_Z 2
loop_
_atom_type_symbol
_atom_type_radius_bond
C 0.68
H 0.23
Be 0.61
Si 1.20
loop_
_atom_site_label
_atom_site_type_symbol
_atom_site_fract_x
_atom_site_fract_y
_atom_site_fract_z
Si1 Si -0.00850(8) 0.31515(7) 0.50615(5)
Be1 Be 0.00000 0.50000 0.50000
C1 C -0.0993(3) 0.3267(3) 0.3854(2)
C2 C -0.0634(4) 0.2039(3) 0.3614(2)
C3 C -0.0316(4) 0.4153(3) 0.3088(2)
C4 C -0.2841(4) 0.3844(3) 0.3780(2)
C5 C 0.2151(3) 0.2115(3) 0.5266(2)
C6 C 0.2318(4) 0.0751(3) 0.5537(2)
C7 C 0.3117(4) 0.2406(3) 0.4379(2)
C8 C 0.2991(4) 0.2407(3) 0.6031(2)
C9 C -0.1436(4) 0.2615(3) 0.6076(2)
C10 C -0.2958(4) 0.3674(3) 0.6075(2)
C11 C -0.1965(4) 0.1499(3) 0.6012(2)
C12 C -0.0557(4) 0.2268(3) 0.7033(2)
H1 H -0.1134(21) 0.2168(4) 0.3018(7)
H2 H -0.1058(22) 0.1483(7) 0.4082(8)
H3 H 0.0514(4) 0.1701(9) 0.3593(14)
H4 H -0.075(2) 0.4216(15) 0.2490(2)
H5 H 0.0843(4) 0.3849(10) 0.3102(9)
H6 H -0.0620(21) 0.4946(6) 0.3199(8)
H7 H -0.3232(5) 0.3977(18) 0.3156(4)
H8 H -0.3096(4) 0.461(1) 0.3931(14)
H9 H -0.3347(4) 0.3303(9) 0.4207(11)
H10 H 0.3443(4) 0.0301(3) 0.5582(14)
H11 H 0.1773(22) 0.0567(4) 0.5071(8)
H12 H 0.1843(22) 0.0524(5) 0.6127(7)
H13 H 0.4228(6) 0.1929(15) 0.4503(5)
H14 H 0.3054(22) 0.3260(5) 0.4199(9)
H15 H 0.2668(16) 0.2211(18) 0.3883(5)
H16 H 0.4100(8) 0.1917(14) 0.6118(11)
H17 H 0.2448(16) 0.2229(19) 0.6604(4)
H18 H 0.2947(23) 0.3257(5) 0.5847(7)
H19 H -0.3623(13) 0.3414(7) 0.6574(10)
H20 H -0.3555(14) 0.3916(13) 0.5492(6)
H21 H -0.2647(4) 0.4355(8) 0.6157(15)
H22 H -0.263(2) 0.1283(12) 0.6525(8)
H23 H -0.1024(4) 0.0820(6) 0.6036(14)
H24 H -0.2568(21) 0.1700(7) 0.5436(7)
H25 H -0.1295(9) 0.2108(21) 0.7518(2)
H26 H -0.0170(25) 0.2931(9) 0.7084(7)
H27 H 0.0341(17) 0.1549(12) 0.7093(7)
Si2 Si -0.37914(8) 0.82484(7) 0.96893(5)
Be2 Be -0.50000 1.00000 1.00000
C13 C -0.1492(3) 0.8134(3) 0.9622(2)
C14 C -0.1293(4) 0.9400(3) 0.9105(2)
C15 C -0.0720(4) 0.7813(3) 1.0610(2)
C16 C -0.0511(3) 0.7192(3) 0.9137(2)
C17 C -0.4187(3) 0.6917(3) 1.0686(2)
C18 C -0.3058(4) 0.5657(3) 1.0700(2)
C19 C -0.5940(4) 0.6864(3) 1.0612(2)
C20 C -0.4013(4) 0.7158(3) 1.1636(2)
C21 C -0.4701(3) 0.8317(3) 0.8494(2)
C22 C -0.4340(4) 0.7084(3) 0.8278(2)
C23 C -0.4073(4) 0.9188(3) 0.7689(2)
C24 C -0.6555(4) 0.8887(3) 0.8465(2)
H28 H -0.0166(4) 0.9358(6) 0.9095(14)
H29 H -0.1862(22) 0.9991(5) 0.9420(9)
H30 H -0.1728(24) 0.9637(9) 0.8478(5)
H31 H 0.0372(10) 0.7865(20) 1.0562(2)
H32 H -0.0716(24) 0.6996(8) 1.0946(6)
H33 H -0.1335(16) 0.8377(12) 1.0935(6)
H34 H 0.0602(6) 0.7191(13) 0.9129(13)
H35 H -0.0930(16) 0.7400(11) 0.8509(5)
H36 H -0.0589(20) 0.6395(4) 0.9468(8)
H37 H -0.3335(16) 0.5045(3) 1.1196(9)
H38 H -0.1959(4) 0.5642(6) 1.0797(13)
H39 H -0.3173(17) 0.5491(8) 1.0116(6)
H40 H -0.6149(9) 0.6272(14) 1.1149(7)
H41 H -0.6085(8) 0.6635(19) 1.0060(8)
H42 H -0.6677(4) 0.7653(6) 1.0580(15)
H43 H -0.4243(25) 0.6517(10) 1.2126(2)
H44 H -0.4760(18) 0.7928(9) 1.1647(6)
H45 H -0.2928(8) 0.7179(19) 1.1727(7)
H46 H -0.4791(21) 0.7201(4) 0.7671(6)
H47 H -0.4812(21) 0.6550(7) 0.8735(8)
H48 H -0.3190(4) 0.6726(9) 0.8291(14)
H49 H -0.4600(19) 0.9268(15) 0.7112(3)
H50 H -0.2926(6) 0.886(1) 0.7654(9)
H51 H -0.4303(23) 0.9976(6) 0.7803(8)
H52 H -0.7006(5) 0.8948(18) 0.7871(6)
H53 H -0.6791(4) 0.9688(8) 0.8556(15)
H54 H -0.7019(5) 0.838(1) 0.8949(10)
Si1A Si 0.00850(8) 0.68485(7) 0.49385(5)
C1A C 0.0993(3) 0.6733(3) 0.6146(2)
C2A C 0.0634(4) 0.7961(3) 0.6386(2)
H1A H 0.1134(21) 0.7832(4) 0.6982(7)
H2A H 0.1058(22) 0.8517(7) 0.5918(8)
H3A H -0.0514(4) 0.8299(9) 0.6407(14)
C3A C 0.0316(4) 0.5847(3) 0.6912(2)
H4A H 0.075(2) 0.5784(15) 0.7510(2)
H5A H -0.0843(4) 0.6151(10) 0.6898(9)
H6A H 0.0620(21) 0.5054(6) 0.6801(8)
C4A C 0.2841(4) 0.6156(3) 0.6220(2)
H7A H 0.3232(5) 0.6023(18) 0.6844(4)
H8A H 0.3096(4) 0.539(1) 0.6069(14)
H9A H 0.3347(4) 0.6697(9) 0.5793(11)
C5A C -0.2151(3) 0.7885(3) 0.4734(2)
C6A C -0.2318(4) 0.9249(3) 0.4463(2)
H10A H -0.3443(4) 0.9699(3) 0.4418(14)
H11A H -0.1773(22) 0.9433(4) 0.4929(8)
H12A H -0.1843(22) 0.9476(5) 0.3873(7)
C7A C -0.3117(4) 0.7594(3) 0.5621(2)
H13A H -0.4228(6) 0.8071(15) 0.5497(5)
H14A H -0.3054(22) 0.6740(5) 0.5801(9)
H15A H -0.2668(16) 0.7789(18) 0.6117(5)
C8A C -0.2991(4) 0.7593(3) 0.3969(2)
H16A H -0.4100(8) 0.8083(14) 0.3882(11)
H17A H -0.2448(16) 0.7771(19) 0.3396(4)
H18A H -0.2947(23) 0.6743(5) 0.4153(7)
C9A C 0.1436(4) 0.7385(3) 0.3924(2)
C10A C 0.2958(4) 0.6326(3) 0.3925(2)
H19A H 0.3623(13) 0.6586(7) 0.3426(10)
H20A H 0.3555(14) 0.6084(13) 0.4508(6)
H21A H 0.2647(4) 0.5645(8) 0.3843(15)
C11A C 0.1965(4) 0.8501(3) 0.3988(2)
H22A H 0.263(2) 0.8717(12) 0.3475(8)
H23A H 0.1024(4) 0.9180(6) 0.3964(14)
H24A H 0.2568(21) 0.8300(7) 0.4564(7)
C12A C 0.0557(4) 0.7732(3) 0.2967(2)
H25A H 0.1295(9) 0.7892(21) 0.2482(2)
H26A H 0.0170(25) 0.7069(9) 0.2916(7)
H27A H -0.0341(17) 0.8451(12) 0.2907(7)
Si2A Si -0.62086(8) 1.17516(7) 1.03107(5)
C13A C -0.8508(3) 1.1866(3) 1.0378(2)
C14A C -0.8707(4) 1.0600(3) 1.0895(2)
H28A H -0.9834(4) 1.0642(6) 1.0905(14)
H29A H -0.8138(22) 1.0009(5) 1.0580(9)
H30A H -0.8272(24) 1.0363(9) 1.1522(5)
C15A C -0.9280(4) 1.2187(3) 0.9390(2)
H31A H -1.0372(10) 1.2135(20) 0.9438(2)
H32A H -0.9284(24) 1.3004(8) 0.9054(6)
H33A H -0.8665(16) 1.1623(12) 0.9065(6)
C16A C -0.9489(3) 1.2808(3) 1.0863(2)
H34A H -1.0602(6) 1.2809(13) 1.0871(13)
H35A H -0.9070(16) 1.2600(11) 1.1491(5)
H36A H -0.9411(20) 1.3605(4) 1.0532(8)
C17A C -0.5813(3) 1.3083(3) 0.9314(2)
C18A C -0.6942(4) 1.4343(3) 0.9300(2)
H37A H -0.6665(16) 1.4955(3) 0.8804(9)
H38A H -0.8041(4) 1.4358(6) 0.9203(13)
H39A H -0.6827(17) 1.4509(8) 0.9884(6)
C19A C -0.4060(4) 1.3136(3) 0.9388(2)
H40A H -0.3851(9) 1.3728(14) 0.8851(7)
H41A H -0.3915(8) 1.3365(19) 0.9940(8)
H42A H -0.3323(4) 1.2347(6) 0.9420(15)
C20A C -0.5987(4) 1.2842(3) 0.8364(2)
H43A H -0.5757(25) 1.3483(10) 0.7874(2)
H44A H -0.5240(18) 1.2072(9) 0.8353(6)
H45A H -0.7072(8) 1.2821(19) 0.8273(7)
C21A C -0.5299(3) 1.1683(3) 1.1506(2)
C22A C -0.5660(4) 1.2916(3) 1.1722(2)
H46A H -0.5209(21) 1.2799(4) 1.2329(6)
H47A H -0.5188(21) 1.3450(7) 1.1265(8)
H48A H -0.6810(4) 1.3274(9) 1.1709(14)
C23A C -0.5927(4) 1.0812(3) 1.2311(2)
H49A H -0.5400(19) 1.0732(15) 1.2888(3)
H50A H -0.7074(6) 1.114(1) 1.2346(9)
H51A H -0.5697(23) 1.0024(6) 1.2197(8)
C24A C -0.3445(4) 1.1113(3) 1.1535(2)
H52A H -0.2994(5) 1.1052(18) 1.2129(6)
H53A H -0.3209(4) 1.0312(8) 1.1444(15)
H54A H -0.2981(5) 1.162(1) 1.1051(10)
#END
