####################################################################### 
# 
# This file contains crystal structure data downloaded from the 
# Cambridge Structural Database (CSD) hosted by the Cambridge 
# Crystallographic Data Centre (CCDC).
# 
# Full information about CCDC data access policies and citation 
# guidelines are available at http://www.ccdc.cam.ac.uk/access/V1 
# 
# Audit and citation data items may have been added by the CCDC. 
# Please retain this information to preserve the provenance of 
# this file and to allow appropriate attribution of the data. 
# 
#######################################################################

data_4
_audit_block_doi                 10.5517/ccx0w2v
_database_code_depnum_ccdc_archive 'CCDC 834987'
loop_
_citation_id
_citation_doi
_citation_year
1 10.1021/ic201918y 2011
_audit_update_record             
;
2011-07-17 deposited with the CCDC.	2024-07-12 downloaded from the CCDC.
;
#TrackingRef 'chemcomm.cif'


_audit_creation_method           SHELXL-97
_chemical_name_systematic        
;
?
;
_chemical_name_common            ?
_chemical_melting_point          ?
_chemical_formula_moiety         ?
_chemical_formula_sum            'C17 H17 Cu N5 O5'
_chemical_formula_weight         434.90

loop_
_atom_type_symbol
_atom_type_description
_atom_type_scat_dispersion_real
_atom_type_scat_dispersion_imag
_atom_type_scat_source
C C 0.0033 0.0016 'International Tables Vol C Tables 4.2.6.8 and 6.1.1.4'
H H 0.0000 0.0000 'International Tables Vol C Tables 4.2.6.8 and 6.1.1.4'
N N 0.0061 0.0033 'International Tables Vol C Tables 4.2.6.8 and 6.1.1.4'
O O 0.0106 0.0060 'International Tables Vol C Tables 4.2.6.8 and 6.1.1.4'
Cu Cu 0.3201 1.2651 'International Tables Vol C Tables 4.2.6.8 and 6.1.1.4'

_symmetry_cell_setting           Monoclinic
_symmetry_space_group_name_H-M   P21/c

loop_
_symmetry_equiv_pos_as_xyz
'x, y, z'
'-x, y+1/2, -z+1/2'
'-x, -y, -z'
'x, -y-1/2, z-1/2'

_cell_length_a                   14.740(3)
_cell_length_b                   6.2690(13)
_cell_length_c                   25.372(5)
_cell_angle_alpha                90.00
_cell_angle_beta                 106.45(3)
_cell_angle_gamma                90.00
_cell_volume                     2248.5(8)
_cell_formula_units_Z            4
_cell_measurement_temperature    100(2)
_cell_measurement_reflns_used    ?
_cell_measurement_theta_min      ?
_cell_measurement_theta_max      ?

_exptl_crystal_description       ?
_exptl_crystal_colour            ?
_exptl_crystal_size_max          ?
_exptl_crystal_size_mid          ?
_exptl_crystal_size_min          ?
_exptl_crystal_density_meas      ?
_exptl_crystal_density_diffrn    1.285
_exptl_crystal_density_method    'not measured'
_exptl_crystal_F_000             892
_exptl_absorpt_coefficient_mu    1.004
_exptl_absorpt_correction_type   ?
_exptl_absorpt_correction_T_min  ?
_exptl_absorpt_correction_T_max  ?
_exptl_absorpt_process_details   ?

_exptl_special_details           
;
?
;

_diffrn_ambient_temperature      100(2)
_diffrn_radiation_probe          x-ray
_diffrn_radiation_wavelength     0.7380
_diffrn_source                   synchrotron
_diffrn_source_type              'ESRF-CRG BM16'
_diffrn_radiation_monochromator  'Si 111'
_diffrn_detector                 'CCD plate'
_diffrn_detector_area_resol_mean 9.6
_diffrn_radiation_detector       'ADSC Q210r CCD (binned mode)'
_diffrn_measurement_device_type  'Single-axis HUBER diffractometer'
_diffrn_measurement_method       'CCD rotation images, thick slices'
_diffrn_reflns_number            4780
_diffrn_reflns_av_R_equivalents  0.0000
_diffrn_reflns_av_sigmaI/netI    0.0453
_diffrn_reflns_limit_h_min       0
_diffrn_reflns_limit_h_max       18
_diffrn_reflns_limit_k_min       0
_diffrn_reflns_limit_k_max       8
_diffrn_reflns_limit_l_min       -32
_diffrn_reflns_limit_l_max       30
_diffrn_reflns_theta_min         1.95
_diffrn_reflns_theta_max         28.12
_reflns_number_total             4780
_reflns_number_gt                4433
_reflns_threshold_expression     >2sigma(I)

_computing_data_collection       'MxCube (ESRF, 2006)'
_computing_cell_refinement       'HKL2000 (Otwinowski & Minor, 1997)'
_computing_data_reduction        'HKL2000 (Otwinowski & Minor, 1997)'
_computing_structure_solution    'SHELXS-97 (Sheldrick, 2008)'
_computing_structure_refinement  'SHELXL-97 (Sheldrick, 2008)'
_computing_molecular_graphics    ?
_computing_publication_material  ?

_refine_special_details          
;
Refinement of F^2^ against ALL reflections. The weighted R-factor wR and
goodness of fit S are based on F^2^, conventional R-factors R are based
on F, with F set to zero for negative F^2^. The threshold expression of
F^2^ > 2sigma(F^2^) is used only for calculating R-factors(gt) etc. and is
not relevant to the choice of reflections for refinement. R-factors based
on F^2^ are statistically about twice as large as those based on F, and R-
factors based on ALL data will be even larger.
;

_refine_ls_structure_factor_coef Fsqd
_refine_ls_matrix_type           full
_refine_ls_weighting_scheme      calc
_refine_ls_weighting_details     
'calc w=1/[\s^2^(Fo^2^)+(0.0848P)^2^+2.9355P] where P=(Fo^2^+2Fc^2^)/3'
_atom_sites_solution_primary     direct
_atom_sites_solution_secondary   difmap
_atom_sites_solution_hydrogens   geom
_refine_ls_hydrogen_treatment    constr
_refine_ls_extinction_method     none
_refine_ls_extinction_coef       ?
_refine_ls_number_reflns         4780
_refine_ls_number_parameters     254
_refine_ls_number_restraints     0
_refine_ls_R_factor_all          0.0451
_refine_ls_R_factor_gt           0.0429
_refine_ls_wR_factor_ref         0.1379
_refine_ls_wR_factor_gt          0.1350
_refine_ls_goodness_of_fit_ref   1.035
_refine_ls_restrained_S_all      1.035
_refine_ls_shift/su_max          0.088
_refine_ls_shift/su_mean         0.010

loop_
_atom_site_label
_atom_site_type_symbol
_atom_site_fract_x
_atom_site_fract_y
_atom_site_fract_z
_atom_site_U_iso_or_equiv
_atom_site_adp_type
_atom_site_occupancy
_atom_site_symmetry_multiplicity
_atom_site_calc_flag
_atom_site_refinement_flags
_atom_site_disorder_assembly
_atom_site_disorder_group
Cu1 Cu 0.447152(18) 0.24878(3) 0.324009(10) 0.01068(13) Uani 1 1 d . . .
N1 N 0.33024(12) 0.3143(3) 0.26175(7) 0.0123(3) Uani 1 1 d . . .
O1 O 0.56645(12) 0.4569(2) 0.31602(6) 0.0184(3) Uani 1 1 d . . .
C2 C 0.32180(17) 0.5470(3) 0.26516(9) 0.0180(4) Uani 1 1 d . . .
H2A H 0.2573 0.5934 0.2446 0.022 Uiso 1 1 calc R . .
H2B H 0.3677 0.6184 0.2491 0.022 Uiso 1 1 calc R . .
C3 C 0.34214(16) 0.6050(3) 0.32574(9) 0.0156(4) Uani 1 1 d . . .
O4 O 0.40105(11) 0.4855(2) 0.35978(6) 0.0150(3) Uani 1 1 d . . .
O5 O 0.30406(14) 0.7643(2) 0.33860(7) 0.0207(4) Uani 1 1 d . . .
C6 C 0.34870(16) 0.2371(3) 0.21089(9) 0.0131(4) Uani 1 1 d . . .
H6A H 0.3735 0.3556 0.1932 0.016 Uiso 1 1 calc R . .
H6B H 0.2888 0.1871 0.1850 0.016 Uiso 1 1 calc R . .
C7 C 0.42009(15) 0.0551(3) 0.22338(9) 0.0136(4) Uani 1 1 d . . .
O8 O 0.46519(11) 0.0242(2) 0.27365(6) 0.0150(3) Uani 1 1 d . . .
C10 C 0.24992(16) 0.1996(4) 0.27464(9) 0.0185(4) Uani 1 1 d . . .
H10A H 0.2471 0.2436 0.3116 0.022 Uiso 1 1 calc R . .
H10B H 0.2630 0.0444 0.2759 0.022 Uiso 1 1 calc R . .
C11 C 0.1549(2) 0.2396(5) 0.23411(13) 0.0336(7) Uani 1 1 d . . .
C12 C 0.1016(2) 0.4208(7) 0.23944(16) 0.0556(11) Uani 1 1 d . . .
H12 H 0.1250 0.5153 0.2695 0.067 Uiso 1 1 calc R . .
C13 C 0.0156(3) 0.4628(12) 0.2014(2) 0.099(2) Uani 1 1 d . . .
H13 H -0.0189 0.5876 0.2048 0.119 Uiso 1 1 calc R . .
C14 C -0.0204(3) 0.3205(16) 0.1579(2) 0.121(3) Uani 1 1 d . . .
C15 C -0.1145(3) 0.369(3) 0.1154(3) 0.231(7) Uani 1 1 d . . .
H15A H -0.1028 0.4429 0.0839 0.346 Uiso 1 1 calc R . .
H15B H -0.1531 0.4597 0.1320 0.346 Uiso 1 1 calc R . .
H15C H -0.1482 0.2351 0.1030 0.346 Uiso 1 1 calc R . .
C16 C 0.0308(3) 0.1404(15) 0.15391(17) 0.106(3) Uani 1 1 d . . .
H16 H 0.0058 0.0423 0.1249 0.127 Uiso 1 1 calc R . .
C17 C 0.1187(2) 0.0979(8) 0.19153(13) 0.0586(12) Uani 1 1 d . . .
H17 H 0.1531 -0.0267 0.1879 0.070 Uiso 1 1 calc R . .
N21 N 0.64467(12) 0.1692(3) 0.55074(7) 0.0127(4) Uani 1 1 d . . .
H21 H 0.6657 0.1849 0.5881 0.015 Uiso 1 1 d R . .
C22 C 0.61575(15) 0.3445(3) 0.51952(9) 0.0139(4) Uani 1 1 d . . .
H22 H 0.6237 0.4783 0.5378 0.017 Uiso 1 1 calc R . .
N23 N 0.57760(13) 0.3458(3) 0.46607(7) 0.0127(4) Uani 1 1 d . . .
C24 C 0.56658(14) 0.1452(3) 0.44383(9) 0.0109(4) Uani 1 1 d . . .
C25 C 0.59582(14) -0.0411(3) 0.47317(8) 0.0106(4) Uani 1 1 d . . .
C26 C 0.64079(14) -0.0394(3) 0.53114(8) 0.0113(4) Uani 1 1 d . . .
O26 O 0.67173(12) -0.1900(3) 0.56158(6) 0.0204(3) Uani 1 1 d . . .
N27 N 0.57211(14) -0.2064(3) 0.43640(8) 0.0128(3) Uani 1 1 d . . .
H27 H 0.5722 -0.3413 0.4420 0.015 Uiso 1 1 d R . .
C28 C 0.53016(14) -0.1197(3) 0.38759(8) 0.0129(4) Uani 1 1 d . . .
H28 H 0.5064 -0.2005 0.3549 0.015 Uiso 1 1 calc R . .
N29 N 0.52511(12) 0.0934(3) 0.38950(7) 0.0110(3) Uani 1 1 d . . .

loop_
_atom_site_aniso_label
_atom_site_aniso_U_11
_atom_site_aniso_U_22
_atom_site_aniso_U_33
_atom_site_aniso_U_23
_atom_site_aniso_U_13
_atom_site_aniso_U_12
Cu1 0.01912(19) 0.00643(19) 0.00470(19) -0.00096(7) 0.00049(12) 0.00194(8)
N1 0.0213(9) 0.0081(8) 0.0070(8) -0.0013(7) 0.0032(6) 0.0021(7)
O1 0.0292(8) 0.0157(8) 0.0099(7) 0.0045(6) 0.0051(6) -0.0062(6)
C2 0.0333(12) 0.0099(10) 0.0098(10) 0.0015(7) 0.0043(8) 0.0043(8)
C3 0.0258(10) 0.0098(9) 0.0100(10) 0.0006(8) 0.0031(8) 0.0008(8)
O4 0.0253(8) 0.0092(7) 0.0090(7) -0.0003(5) 0.0022(6) 0.0034(6)
O5 0.0352(10) 0.0140(8) 0.0111(9) -0.0008(5) 0.0036(7) 0.0086(6)
C6 0.0202(11) 0.0122(10) 0.0058(10) -0.0007(7) 0.0016(8) 0.0037(7)
C7 0.0192(9) 0.0090(9) 0.0113(10) -0.0006(7) 0.0022(7) 0.0004(7)
O8 0.0229(7) 0.0123(7) 0.0076(7) -0.0024(5) 0.0008(5) 0.0042(6)
C10 0.0225(11) 0.0203(10) 0.0129(11) 0.0018(9) 0.0052(8) 0.0000(9)
C11 0.0190(12) 0.062(2) 0.0207(15) 0.0105(11) 0.0076(11) 0.0004(11)
C12 0.0385(17) 0.086(3) 0.051(2) 0.028(2) 0.0263(15) 0.0295(18)
C13 0.043(2) 0.192(7) 0.072(3) 0.067(4) 0.032(2) 0.059(3)
C14 0.0164(17) 0.298(10) 0.047(3) 0.052(4) 0.0083(17) 0.013(3)
C15 0.023(2) 0.59(2) 0.075(4) 0.109(8) 0.004(2) 0.044(6)
C16 0.037(2) 0.244(8) 0.032(2) 0.006(3) 0.0015(16) -0.049(4)
C17 0.0320(16) 0.114(4) 0.0270(16) -0.0071(19) 0.0043(12) -0.0340(19)
N21 0.0221(9) 0.0078(9) 0.0063(8) -0.0009(7) 0.0008(6) 0.0013(6)
C22 0.0231(10) 0.0077(10) 0.0090(10) -0.0006(7) 0.0016(8) 0.0024(7)
N23 0.0211(8) 0.0059(8) 0.0092(8) -0.0018(6) 0.0014(7) 0.0011(6)
C24 0.0176(9) 0.0060(9) 0.0093(10) -0.0003(7) 0.0040(7) 0.0005(7)
C25 0.0185(9) 0.0061(9) 0.0068(9) 0.0001(7) 0.0029(7) 0.0002(7)
C26 0.0171(9) 0.0068(9) 0.0092(9) -0.0004(7) 0.0025(7) 0.0001(7)
O26 0.0356(9) 0.0084(7) 0.0110(8) 0.0010(6) -0.0036(6) 0.0015(7)
N27 0.0235(9) 0.0050(7) 0.0087(8) -0.0007(7) 0.0024(7) 0.0001(7)
C28 0.0201(9) 0.0072(9) 0.0106(10) 0.0000(7) 0.0033(7) 0.0000(7)
N29 0.0190(8) 0.0067(8) 0.0071(8) -0.0011(6) 0.0035(6) -0.0002(6)

_geom_special_details            
;
All esds (except the esd in the dihedral angle between two l.s. planes)
are estimated using the full covariance matrix. The cell esds are taken
into account individually in the estimation of esds in distances, angles
and torsion angles; correlations between esds in cell parameters are only
used when they are defined by crystal symmetry. An approximate (isotropic)
treatment of cell esds is used for estimating esds involving l.s. planes.
;

loop_
_geom_bond_atom_site_label_1
_geom_bond_atom_site_label_2
_geom_bond_distance
_geom_bond_site_symmetry_2
_geom_bond_publ_flag
Cu1 O4 1.9590(15) . ?
Cu1 O8 1.9693(15) . ?
Cu1 N29 1.9872(18) . ?
Cu1 N1 2.0228(19) . ?
Cu1 O1 2.2445(16) . ?
N1 C2 1.469(3) . ?
N1 C6 1.474(3) . ?
N1 C10 1.499(3) . ?
O1 C7 1.237(3) 2_655 ?
C2 C3 1.524(3) . ?
C2 H2A 0.9900 . ?
C2 H2B 0.9900 . ?
C3 O5 1.234(3) . ?
C3 O4 1.279(3) . ?
C6 C7 1.523(3) . ?
C6 H6A 0.9900 . ?
C6 H6B 0.9900 . ?
C7 O1 1.237(3) 2_645 ?
C7 O8 1.275(3) . ?
C10 C11 1.505(4) . ?
C10 H10A 0.9900 . ?
C10 H10B 0.9900 . ?
C11 C17 1.384(5) . ?
C11 C12 1.410(5) . ?
C12 C13 1.383(5) . ?
C12 H12 0.9500 . ?
C13 C14 1.402(11) . ?
C13 H13 0.9500 . ?
C14 C16 1.377(12) . ?
C14 C15 1.527(6) . ?
C15 H15A 0.9800 . ?
C15 H15B 0.9800 . ?
C15 H15C 0.9800 . ?
C16 C17 1.400(6) . ?
C16 H16 0.9500 . ?
C17 H17 0.9500 . ?
N21 C22 1.351(3) . ?
N21 C26 1.394(3) . ?
N21 H21 0.9157 . ?
C22 N23 1.313(3) . ?
C22 H22 0.9500 . ?
N23 C24 1.369(3) . ?
C24 N29 1.379(3) . ?
C24 C25 1.386(3) . ?
C25 N27 1.372(3) . ?
C25 C26 1.432(3) . ?
C26 O26 1.223(3) . ?
N27 C28 1.333(3) . ?
N27 H27 0.8572 . ?
C28 N29 1.339(3) . ?
C28 H28 0.9500 . ?

loop_
_geom_angle_atom_site_label_1
_geom_angle_atom_site_label_2
_geom_angle_atom_site_label_3
_geom_angle
_geom_angle_site_symmetry_1
_geom_angle_site_symmetry_3
_geom_angle_publ_flag
O4 Cu1 O8 166.06(6) . . ?
O4 Cu1 N29 100.27(7) . . ?
O8 Cu1 N29 92.28(7) . . ?
O4 Cu1 N1 82.96(7) . . ?
O8 Cu1 N1 83.11(7) . . ?
N29 Cu1 N1 156.28(7) . . ?
O4 Cu1 O1 89.13(7) . . ?
O8 Cu1 O1 95.96(7) . . ?
N29 Cu1 O1 94.48(7) . . ?
N1 Cu1 O1 109.11(7) . . ?
C2 N1 C6 114.67(17) . . ?
C2 N1 C10 112.24(18) . . ?
C6 N1 C10 112.75(17) . . ?
C2 N1 Cu1 102.90(13) . . ?
C6 N1 Cu1 106.83(13) . . ?
C10 N1 Cu1 106.45(13) . . ?
C7 O1 Cu1 132.18(14) 2_655 . ?
N1 C2 C3 107.47(17) . . ?
N1 C2 H2A 110.2 . . ?
C3 C2 H2A 110.2 . . ?
N1 C2 H2B 110.2 . . ?
C3 C2 H2B 110.2 . . ?
H2A C2 H2B 108.5 . . ?
O5 C3 O4 124.6(2) . . ?
O5 C3 C2 119.02(19) . . ?
O4 C3 C2 116.33(18) . . ?
C3 O4 Cu1 112.89(13) . . ?
N1 C6 C7 110.59(18) . . ?
N1 C6 H6A 109.5 . . ?
C7 C6 H6A 109.5 . . ?
N1 C6 H6B 109.5 . . ?
C7 C6 H6B 109.5 . . ?
H6A C6 H6B 108.1 . . ?
O1 C7 O8 125.11(19) 2_645 . ?
O1 C7 C6 117.65(19) 2_645 . ?
O8 C7 C6 117.11(18) . . ?
C7 O8 Cu1 114.35(13) . . ?
N1 C10 C11 114.3(2) . . ?
N1 C10 H10A 108.7 . . ?
C11 C10 H10A 108.7 . . ?
N1 C10 H10B 108.7 . . ?
C11 C10 H10B 108.7 . . ?
H10A C10 H10B 107.6 . . ?
C17 C11 C12 119.3(3) . . ?
C17 C11 C10 120.3(3) . . ?
C12 C11 C10 120.3(3) . . ?
C13 C12 C11 120.8(5) . . ?
C13 C12 H12 119.6 . . ?
C11 C12 H12 119.6 . . ?
C12 C13 C14 119.8(5) . . ?
C12 C13 H13 120.1 . . ?
C14 C13 H13 120.1 . . ?
C16 C14 C13 119.1(4) . . ?
C16 C14 C15 121.2(8) . . ?
C13 C14 C15 119.7(8) . . ?
C14 C15 H15A 109.4 . . ?
C14 C15 H15B 109.5 . . ?
H15A C15 H15B 109.5 . . ?
C14 C15 H15C 109.5 . . ?
H15A C15 H15C 109.5 . . ?
H15B C15 H15C 109.5 . . ?
C14 C16 C17 121.8(6) . . ?
C14 C16 H16 119.1 . . ?
C17 C16 H16 119.1 . . ?
C11 C17 C16 119.2(5) . . ?
C11 C17 H17 120.4 . . ?
C16 C17 H17 120.4 . . ?
C22 N21 C26 125.41(18) . . ?
C22 N21 H21 118.5 . . ?
C26 N21 H21 116.0 . . ?
N23 C22 N21 125.61(19) . . ?
N23 C22 H22 117.2 . . ?
N21 C22 H22 117.2 . . ?
C22 N23 C24 112.71(18) . . ?
N23 C24 N29 126.53(19) . . ?
N23 C24 C25 124.7(2) . . ?
N29 C24 C25 108.72(17) . . ?
N27 C25 C24 106.89(17) . . ?
N27 C25 C26 131.22(18) . . ?
C24 C25 C26 121.89(18) . . ?
O26 C26 N21 121.89(19) . . ?
O26 C26 C25 128.61(19) . . ?
N21 C26 C25 109.49(17) . . ?
C28 N27 C25 106.58(18) . . ?
C28 N27 H27 122.3 . . ?
C25 N27 H27 130.1 . . ?
N27 C28 N29 112.89(18) . . ?
N27 C28 H28 123.6 . . ?
N29 C28 H28 123.6 . . ?
C28 N29 C24 104.91(16) . . ?
C28 N29 Cu1 118.91(14) . . ?
C24 N29 Cu1 135.09(14) . . ?

loop_
_geom_hbond_atom_site_label_D
_geom_hbond_atom_site_label_H
_geom_hbond_atom_site_label_A
_geom_hbond_distance_DH
_geom_hbond_distance_HA
_geom_hbond_distance_DA
_geom_hbond_angle_DHA
_geom_hbond_site_symmetry_A
N21 H21 O5 0.92 1.81 2.725(3) 173.6 3_666
N27 H27 N23 0.86 2.05 2.901(3) 172.5 1_545

_diffrn_measured_fraction_theta_max 0.976
_diffrn_reflns_theta_full        28.12
_diffrn_measured_fraction_theta_full 0.976
_refine_diff_density_max         0.300
_refine_diff_density_min         -0.370
_refine_diff_density_rms         0.002
