####################################################################### 
# 
# This file contains crystal structure data downloaded from the 
# Cambridge Structural Database (CSD) hosted by the Cambridge 
# Crystallographic Data Centre (CCDC).
# 
# Full information about CCDC data access policies and citation 
# guidelines are available at http://www.ccdc.cam.ac.uk/access/V1 
# 
# Audit and citation data items may have been added by the CCDC. 
# Please retain this information to preserve the provenance of 
# this file and to allow appropriate attribution of the data. 
# 
#######################################################################

data_de335n
_audit_block_doi                 10.5517/ccxbspp
_database_code_depnum_ccdc_archive 'CCDC 844523'
loop_
_citation_id
_citation_doi
_citation_year
1 10.1002/ejic.201101002 2012
_audit_update_record             
;
2011-09-16 deposited with the CCDC.	2024-07-12 downloaded from the CCDC.
;
#TrackingRef 'de335n.cif'


_audit_creation_method           SHELXL-97
_chemical_name_systematic        
;
?
;
_chemical_name_common            ?
_chemical_melting_point          ?
_chemical_formula_moiety         ?
_chemical_formula_sum            'C15 H27 Ag2 Cl9 N6'
_chemical_formula_weight         826.22

loop_
_atom_type_symbol
_atom_type_description
_atom_type_scat_dispersion_real
_atom_type_scat_dispersion_imag
_atom_type_scat_source
C C 0.0033 0.0016 'International Tables Vol C Tables 4.2.6.8 and 6.1.1.4'
H H 0.0000 0.0000 'International Tables Vol C Tables 4.2.6.8 and 6.1.1.4'
Ag Ag -0.8971 1.1015 'International Tables Vol C Tables 4.2.6.8 and 6.1.1.4'
Cl Cl 0.1484 0.1585 'International Tables Vol C Tables 4.2.6.8 and 6.1.1.4'
N N 0.0061 0.0033 'International Tables Vol C Tables 4.2.6.8 and 6.1.1.4'

_symmetry_cell_setting           monoclinic
_symmetry_space_group_name_H-M   P2(1)/c

loop_
_symmetry_equiv_pos_as_xyz
'x, y, z'
'-x, y+1/2, -z+1/2'
'-x, -y, -z'
'x, -y-1/2, z-1/2'

_cell_length_a                   20.956(4)
_cell_length_b                   11.688(2)
_cell_length_c                   23.445(5)
_cell_angle_alpha                90.00
_cell_angle_beta                 92.82(3)
_cell_angle_gamma                90.00
_cell_volume                     5735.5(19)
_cell_formula_units_Z            8
_cell_measurement_temperature    100
_cell_measurement_reflns_used    ?
_cell_measurement_theta_min      1.95
_cell_measurement_theta_max      33.11

_exptl_crystal_description       'box shaped'
_exptl_crystal_colour            brown
_exptl_crystal_size_max          0.35
_exptl_crystal_size_mid          0.25
_exptl_crystal_size_min          0.25
_exptl_crystal_density_meas      ?
_exptl_crystal_density_diffrn    1.914
_exptl_crystal_density_method    'not measured'
_exptl_crystal_F_000             3248
_exptl_absorpt_coefficient_mu    2.222
_exptl_absorpt_correction_type   none
_exptl_absorpt_correction_T_min  ?
_exptl_absorpt_correction_T_max  ?
_exptl_absorpt_process_details   ?

_exptl_special_details           
;
?
;

_diffrn_ambient_temperature      100
_diffrn_radiation_wavelength     0.71073
_diffrn_radiation_type           MoK\a
_diffrn_radiation_source         'fine-focus sealed tube'
_diffrn_radiation_monochromator  graphite
_diffrn_measurement_device_type  'NONIUS KAPPA CCD'
_diffrn_measurement_method       'O-Scan '
_diffrn_detector_area_resol_mean ?
_diffrn_standards_number         ?
_diffrn_standards_interval_count ?
_diffrn_standards_interval_time  ?
_diffrn_standards_decay_%        ?
_diffrn_reflns_number            42828
_diffrn_reflns_av_R_equivalents  0.0707
_diffrn_reflns_av_sigmaI/netI    0.0964
_diffrn_reflns_limit_h_min       -32
_diffrn_reflns_limit_h_max       32
_diffrn_reflns_limit_k_min       -17
_diffrn_reflns_limit_k_max       17
_diffrn_reflns_limit_l_min       -36
_diffrn_reflns_limit_l_max       35
_diffrn_reflns_theta_min         1.95
_diffrn_reflns_theta_max         33.11
_reflns_number_total             21709
_reflns_number_gt                10728
_reflns_threshold_expression     >2sigma(I)

_computing_data_collection       'COLLECT (Bruker AXS, 1997-2009)'
_computing_cell_refinement       'DENZO/SKALEPACK (Bruker AXS, 1997-2009)'
_computing_data_reduction        'DENZO/SKALEPACK (Bruker AXS, 1997-2009)'
_computing_structure_solution    'SHELXS-97 (Sheldrick, 1997)'
_computing_structure_refinement  'SHELXL-97 (Sheldrick, 1997)'
_computing_molecular_graphics    'XPMA (Zsolnai, Huttner, 1994)'
_computing_publication_material  'SHELXL-97 (Sheldrick, 1997)'

_refine_special_details          
;
Refinement of F^2^ against ALL reflections. The weighted R-factor wR and
goodness of fit S are based on F^2^, conventional R-factors R are based
on F, with F set to zero for negative F^2^. The threshold expression of
F^2^ > 2sigma(F^2^) is used only for calculating R-factors(gt) etc. and is
not relevant to the choice of reflections for refinement. R-factors based
on F^2^ are statistically about twice as large as those based on F, and R-
factors based on ALL data will be even larger.
;

_refine_ls_structure_factor_coef Fsqd
_refine_ls_matrix_type           full
_refine_ls_weighting_scheme      calc
_refine_ls_weighting_details     
'calc w=1/[\s^2^(Fo^2^)+(0.0668P)^2^+0.0000P] where P=(Fo^2^+2Fc^2^)/3'
_atom_sites_solution_primary     direct
_atom_sites_solution_secondary   difmap
_atom_sites_solution_hydrogens   geom
_refine_ls_hydrogen_treatment    constr
_refine_ls_extinction_method     none
_refine_ls_extinction_coef       ?
_refine_ls_number_reflns         21709
_refine_ls_number_parameters     593
_refine_ls_number_restraints     0
_refine_ls_R_factor_all          0.1400
_refine_ls_R_factor_gt           0.0523
_refine_ls_wR_factor_ref         0.1507
_refine_ls_wR_factor_gt          0.1190
_refine_ls_goodness_of_fit_ref   0.989
_refine_ls_restrained_S_all      0.989
_refine_ls_shift/su_max          0.002
_refine_ls_shift/su_mean         0.000

loop_
_atom_site_label
_atom_site_type_symbol
_atom_site_fract_x
_atom_site_fract_y
_atom_site_fract_z
_atom_site_U_iso_or_equiv
_atom_site_adp_type
_atom_site_occupancy
_atom_site_symmetry_multiplicity
_atom_site_calc_flag
_atom_site_refinement_flags
_atom_site_disorder_assembly
_atom_site_disorder_group
Ag1 Ag 0.541387(14) 0.62731(2) 0.017231(13) 0.01853(7) Uani 1 1 d . . .
Ag2 Ag 0.358362(15) 0.39764(3) 0.067444(15) 0.02545(8) Uani 1 1 d . . .
Cl1 Cl 0.46770(5) 0.51242(8) 0.07995(4) 0.0221(2) Uani 1 1 d . . .
Cl2 Cl 0.66762(5) 0.57693(8) 0.03479(4) 0.0249(2) Uani 1 1 d . . .
Cl3 Cl 0.32335(5) 0.32785(8) 0.15746(4) 0.0236(2) Uani 1 1 d . . .
N1 N 0.56441(14) 0.8188(2) 0.05282(13) 0.0154(7) Uani 1 1 d . . .
N2 N 0.60903(15) 0.7812(3) 0.14348(14) 0.0193(7) Uani 1 1 d . . .
N3 N 0.67013(15) 0.8761(3) 0.07764(14) 0.0185(7) Uani 1 1 d . . .
N4 N 0.48036(14) 0.7764(2) -0.03324(13) 0.0144(6) Uani 1 1 d . . .
N5 N 0.37177(15) 0.7378(3) -0.04658(14) 0.0182(7) Uani 1 1 d . . .
N6 N 0.43859(16) 0.7125(3) -0.12176(14) 0.0211(7) Uani 1 1 d . . .
C1 C 0.53670(16) 0.9097(3) 0.02843(15) 0.0130(7) Uani 1 1 d . . .
C2 C 0.48731(16) 0.8847(3) -0.01878(16) 0.0136(7) Uani 1 1 d . . .
C3 C 0.45394(16) 0.9760(3) -0.04470(16) 0.0160(8) Uani 1 1 d . . .
H3 H 0.4240 0.9601 -0.0742 0.019 Uiso 1 1 calc R . .
C4 C 0.61527(18) 0.8286(3) 0.09206(16) 0.0153(8) Uani 1 1 d . . .
C5 C 0.5450(2) 0.7568(4) 0.16309(18) 0.0297(10) Uani 1 1 d . . .
H5A H 0.5154 0.8129 0.1477 0.045 Uiso 1 1 calc R . .
H5B H 0.5459 0.7596 0.2040 0.045 Uiso 1 1 calc R . .
H5C H 0.5318 0.6821 0.1504 0.045 Uiso 1 1 calc R . .
C6 C 0.6611(2) 0.7231(4) 0.17571(19) 0.0340(11) Uani 1 1 d . . .
H6A H 0.6983 0.7214 0.1534 0.051 Uiso 1 1 calc R . .
H6B H 0.6484 0.6463 0.1842 0.051 Uiso 1 1 calc R . .
H6C H 0.6707 0.7636 0.2107 0.051 Uiso 1 1 calc R . .
C7 C 0.71755(19) 0.9216(4) 0.11965(19) 0.0285(10) Uani 1 1 d . . .
H7A H 0.6994 0.9249 0.1564 0.043 Uiso 1 1 calc R . .
H7B H 0.7299 0.9971 0.1084 0.043 Uiso 1 1 calc R . .
H7C H 0.7544 0.8727 0.1216 0.043 Uiso 1 1 calc R . .
C8 C 0.68189(19) 0.8992(4) 0.01802(18) 0.0238(9) Uani 1 1 d . . .
H8A H 0.6600 0.8434 -0.0058 0.036 Uiso 1 1 calc R . .
H8B H 0.7269 0.8950 0.0125 0.036 Uiso 1 1 calc R . .
H8C H 0.6665 0.9742 0.0080 0.036 Uiso 1 1 calc R . .
C9 C 0.42928(18) 0.7433(3) -0.06850(17) 0.0169(8) Uani 1 1 d . . .
C10 C 0.36506(18) 0.7397(4) 0.01525(17) 0.0232(9) Uani 1 1 d . . .
H10A H 0.4028 0.7082 0.0341 0.035 Uiso 1 1 calc R . .
H10B H 0.3286 0.6949 0.0246 0.035 Uiso 1 1 calc R . .
H10C H 0.3594 0.8171 0.0276 0.035 Uiso 1 1 calc R . .
C11 C 0.31158(18) 0.7439(4) -0.08144(18) 0.0250(9) Uani 1 1 d . . .
H11A H 0.3203 0.7681 -0.1194 0.037 Uiso 1 1 calc R . .
H11B H 0.2834 0.7978 -0.0647 0.037 Uiso 1 1 calc R . .
H11C H 0.2918 0.6698 -0.0829 0.037 Uiso 1 1 calc R . .
C12 C 0.49729(19) 0.7452(4) -0.14936(18) 0.0258(9) Uani 1 1 d . . .
H12A H 0.5155 0.8116 -0.1308 0.039 Uiso 1 1 calc R . .
H12B H 0.4874 0.7621 -0.1889 0.039 Uiso 1 1 calc R . .
H12C H 0.5273 0.6832 -0.1465 0.039 Uiso 1 1 calc R . .
C13 C 0.4018(2) 0.6227(4) -0.15231(19) 0.0298(10) Uani 1 1 d . . .
H13A H 0.3764 0.5823 -0.1260 0.045 Uiso 1 1 calc R . .
H13B H 0.4306 0.5703 -0.1693 0.045 Uiso 1 1 calc R . .
H13C H 0.3745 0.6568 -0.1816 0.045 Uiso 1 1 calc R . .
Ag3 Ag 0.044822(13) 0.87199(2) 0.014950(13) 0.01804(7) Uani 1 1 d . . .
Ag4 Ag 0.140119(16) 0.89926(3) -0.074414(14) 0.02703(9) Uani 1 1 d . . .
Cl4 Cl 0.17403(5) 0.92141(9) 0.02601(4) 0.0248(2) Uani 1 1 d . . .
Cl5 Cl 0.02955(5) 1.01311(8) -0.07819(4) 0.0215(2) Uani 1 1 d . . .
Cl6 Cl 0.17026(5) 0.82323(8) -0.16413(5) 0.0247(2) Uani 1 1 d . . .
N7 N 0.06846(14) 0.6816(2) 0.04882(13) 0.0143(6) Uani 1 1 d . . .
N8 N 0.17481(14) 0.6205(3) 0.06703(14) 0.0159(7) Uani 1 1 d . . .
N9 N 0.12144(15) 0.7224(3) 0.13524(13) 0.0169(7) Uani 1 1 d . . .
N10 N -0.02177(14) 0.7231(3) -0.03197(13) 0.0149(6) Uani 1 1 d . . .
N11 N -0.07032(15) 0.7935(3) -0.11692(14) 0.0185(7) Uani 1 1 d . . .
N12 N -0.13072(15) 0.7630(3) -0.03764(14) 0.0181(7) Uani 1 1 d . . .
C14 C 0.03963(16) 0.5897(3) 0.02584(15) 0.0130(7) Uani 1 1 d . . .
C15 C -0.01408(16) 0.6153(3) -0.01748(15) 0.0128(7) Uani 1 1 d . . .
C16 C -0.05099(16) 0.5234(3) -0.04092(15) 0.0141(7) Uani 1 1 d . . .
H16 H -0.0842 0.5397 -0.0675 0.017 Uiso 1 1 calc R . .
C17 C 0.12192(17) 0.6721(3) 0.08433(16) 0.0139(7) Uani 1 1 d . . .
C18 C 0.18269(18) 0.5969(3) 0.00677(17) 0.0208(8) Uani 1 1 d . . .
H18A H 0.1609 0.6545 -0.0160 0.031 Uiso 1 1 calc R . .
H18B H 0.1650 0.5232 -0.0027 0.031 Uiso 1 1 calc R . .
H18C H 0.2273 0.5976 -0.0007 0.031 Uiso 1 1 calc R . .
C19 C 0.22293(18) 0.5691(4) 0.10625(18) 0.0257(10) Uani 1 1 d . . .
H19A H 0.2074 0.5679 0.1441 0.039 Uiso 1 1 calc R . .
H19B H 0.2615 0.6133 0.1062 0.039 Uiso 1 1 calc R . .
H19C H 0.2315 0.4923 0.0943 0.039 Uiso 1 1 calc R . .
C20 C 0.06082(19) 0.7517(4) 0.16010(18) 0.0244(9) Uani 1 1 d . . .
H20A H 0.0288 0.6972 0.1478 0.037 Uiso 1 1 calc R . .
H20B H 0.0478 0.8269 0.1478 0.037 Uiso 1 1 calc R . .
H20C H 0.0661 0.7502 0.2010 0.037 Uiso 1 1 calc R . .
C21 C 0.1776(2) 0.7780(4) 0.16297(18) 0.0277(10) Uani 1 1 d . . .
H21A H 0.2125 0.7751 0.1380 0.042 Uiso 1 1 calc R . .
H21B H 0.1893 0.7388 0.1979 0.042 Uiso 1 1 calc R . .
H21C H 0.1677 0.8563 0.1711 0.042 Uiso 1 1 calc R . .
C22 C -0.07536(17) 0.7585(3) -0.06382(16) 0.0151(8) Uani 1 1 d . . .
C23 C -0.1085(2) 0.8878(3) -0.14187(18) 0.0249(10) Uani 1 1 d . . .
H23A H -0.1301 0.9266 -0.1123 0.037 Uiso 1 1 calc R . .
H23B H -0.1395 0.8579 -0.1695 0.037 Uiso 1 1 calc R . .
H23C H -0.0810 0.9406 -0.1602 0.037 Uiso 1 1 calc R . .
C24 C -0.01437(19) 0.7624(4) -0.14839(16) 0.0241(9) Uani 1 1 d . . .
H24A H 0.0026 0.6910 -0.1342 0.036 Uiso 1 1 calc R . .
H24B H 0.0176 0.8209 -0.1434 0.036 Uiso 1 1 calc R . .
H24C H -0.0265 0.7550 -0.1882 0.036 Uiso 1 1 calc R . .
C25 C -0.13362(18) 0.7600(3) 0.02418(16) 0.0209(9) Uani 1 1 d . . .
H25A H -0.0919 0.7747 0.0414 0.031 Uiso 1 1 calc R . .
H25B H -0.1480 0.6860 0.0358 0.031 Uiso 1 1 calc R . .
H25C H -0.1629 0.8174 0.0362 0.031 Uiso 1 1 calc R . .
C26 C -0.19311(17) 0.7623(4) -0.06929(18) 0.0248(9) Uani 1 1 d . . .
H26A H -0.1880 0.7345 -0.1073 0.037 Uiso 1 1 calc R . .
H26B H -0.2100 0.8386 -0.0710 0.037 Uiso 1 1 calc R . .
H26C H -0.2220 0.7133 -0.0502 0.037 Uiso 1 1 calc R . .
Cl7 Cl 0.18270(9) 0.38390(13) 0.22849(6) 0.0672(5) Uani 1 1 d . . .
Cl8 Cl 0.10507(6) 0.29582(11) 0.31504(6) 0.0450(3) Uani 1 1 d . . .
Cl9 Cl 0.05416(10) 0.47517(13) 0.24246(9) 0.0944(8) Uani 1 1 d . . .
C31 C 0.1233(2) 0.4180(4) 0.2767(2) 0.0388(13) Uani 1 1 d . . .
H31 H 0.1409 0.4752 0.3037 0.047 Uiso 1 1 calc R . .
Cl10 Cl 0.38535(6) 0.70790(11) 0.18395(6) 0.0470(3) Uani 1 1 d . . .
Cl11 Cl 0.29768(6) 0.61847(10) 0.26293(5) 0.0344(3) Uani 1 1 d . . .
Cl12 Cl 0.42585(7) 0.52660(12) 0.26264(8) 0.0644(5) Uani 1 1 d . . .
C32 C 0.3617(2) 0.5857(4) 0.2205(2) 0.0319(11) Uani 1 1 d . . .
H32 H 0.3472 0.5283 0.1922 0.038 Uiso 1 1 calc R . .
Cl13 Cl 0.07370(5) 1.01208(10) 0.38253(5) 0.0286(2) Uani 1 1 d . . .
Cl14 Cl 0.21025(5) 1.02364(9) 0.37086(5) 0.0282(2) Uani 1 1 d . . .
Cl15 Cl 0.12373(6) 0.99162(12) 0.27078(5) 0.0415(3) Uani 1 1 d . . .
C33 C 0.1388(2) 0.9610(4) 0.34345(17) 0.0256(9) Uani 1 1 d . . .
H33 H 0.1419 0.8778 0.3482 0.031 Uiso 1 1 calc R . .
Cl16 Cl 0.28396(6) -0.00623(13) 0.23108(6) 0.0534(4) Uani 1 1 d . . .
Cl17 Cl 0.41536(6) 0.01273(13) 0.20445(8) 0.0614(5) Uani 1 1 d . . .
Cl18 Cl 0.31402(10) -0.02331(12) 0.11511(6) 0.0816(6) Uani 1 1 d . . .
C34 C 0.3372(2) 0.0413(4) 0.1794(2) 0.0340(11) Uani 1 1 d . . .
H34 H 0.3323 0.1243 0.1749 0.041 Uiso 1 1 calc R . .

loop_
_atom_site_aniso_label
_atom_site_aniso_U_11
_atom_site_aniso_U_22
_atom_site_aniso_U_33
_atom_site_aniso_U_23
_atom_site_aniso_U_13
_atom_site_aniso_U_12
Ag1 0.01889(15) 0.01182(15) 0.02461(17) 0.00018(11) -0.00157(12) 0.00113(11)
Ag2 0.02400(17) 0.02333(18) 0.02926(19) 0.00260(13) 0.00399(14) 0.00435(13)
Cl1 0.0240(5) 0.0173(5) 0.0247(5) 0.0013(4) -0.0007(4) -0.0035(4)
Cl2 0.0217(5) 0.0235(5) 0.0287(6) -0.0019(4) -0.0057(4) 0.0068(4)
Cl3 0.0238(5) 0.0192(5) 0.0278(6) 0.0015(4) 0.0004(4) -0.0032(4)
N1 0.0144(16) 0.0132(16) 0.0182(17) 0.0017(12) -0.0034(13) 0.0007(12)
N2 0.0232(18) 0.0171(17) 0.0171(17) -0.0013(13) -0.0030(14) 0.0017(13)
N3 0.0149(16) 0.0205(17) 0.0196(17) 0.0010(13) -0.0042(13) -0.0022(13)
N4 0.0130(15) 0.0107(15) 0.0191(17) -0.0007(12) -0.0019(13) -0.0008(12)
N5 0.0157(16) 0.0173(17) 0.0211(18) 0.0011(13) -0.0040(13) -0.0024(13)
N6 0.0251(19) 0.0188(17) 0.0190(18) 0.0006(14) -0.0040(14) -0.0005(14)
C1 0.0103(17) 0.0123(18) 0.0162(18) -0.0001(14) -0.0027(14) -0.0003(13)
C2 0.0133(18) 0.0099(18) 0.0175(19) 0.0004(14) -0.0009(14) 0.0006(14)
C3 0.0119(18) 0.0168(19) 0.019(2) -0.0004(15) -0.0039(15) 0.0006(14)
C4 0.0179(19) 0.0103(18) 0.0175(19) 0.0010(14) -0.0025(15) 0.0026(14)
C5 0.038(3) 0.029(2) 0.023(2) -0.0012(19) 0.004(2) -0.007(2)
C6 0.045(3) 0.027(2) 0.029(3) 0.0025(19) -0.015(2) 0.008(2)
C7 0.019(2) 0.034(3) 0.032(3) -0.009(2) -0.0061(18) -0.0041(18)
C8 0.018(2) 0.024(2) 0.029(2) 0.0021(18) 0.0059(17) -0.0009(17)
C9 0.020(2) 0.0088(18) 0.021(2) 0.0015(14) -0.0045(16) 0.0030(14)
C10 0.019(2) 0.026(2) 0.025(2) 0.0004(17) -0.0009(17) 0.0012(17)
C11 0.016(2) 0.026(2) 0.033(2) 0.0044(18) -0.0064(18) -0.0012(17)
C12 0.026(2) 0.027(2) 0.025(2) 0.0018(18) 0.0052(18) 0.0039(18)
C13 0.030(2) 0.028(2) 0.030(3) -0.0062(19) -0.012(2) 0.0005(19)
Ag3 0.01768(15) 0.01162(15) 0.02450(17) 0.00039(11) -0.00212(12) -0.00095(11)
Ag4 0.02926(19) 0.02463(18) 0.02767(19) -0.00259(14) 0.00602(14) -0.00620(14)
Cl4 0.0226(5) 0.0230(5) 0.0283(6) 0.0016(4) -0.0042(4) -0.0057(4)
Cl5 0.0242(5) 0.0158(5) 0.0242(5) -0.0001(4) 0.0002(4) 0.0035(4)
Cl6 0.0273(5) 0.0182(5) 0.0290(6) 0.0004(4) 0.0055(4) 0.0035(4)
N7 0.0154(16) 0.0092(15) 0.0176(17) 0.0004(12) -0.0050(13) 0.0002(12)
N8 0.0155(16) 0.0134(16) 0.0185(17) -0.0030(12) -0.0028(13) 0.0009(12)
N9 0.0195(17) 0.0155(16) 0.0153(16) -0.0034(13) -0.0037(13) 0.0001(13)
N10 0.0158(16) 0.0129(16) 0.0157(16) -0.0008(12) -0.0015(13) -0.0008(12)
N11 0.0233(18) 0.0160(16) 0.0157(17) 0.0025(13) -0.0055(14) 0.0013(13)
N12 0.0180(17) 0.0159(17) 0.0199(18) -0.0005(13) -0.0042(14) 0.0006(13)
C14 0.0128(17) 0.0116(18) 0.0145(18) -0.0019(14) 0.0017(14) -0.0009(14)
C15 0.0146(18) 0.0114(18) 0.0126(17) 0.0023(14) 0.0033(14) 0.0011(14)
C16 0.0125(17) 0.0132(18) 0.0163(19) -0.0008(14) -0.0017(14) 0.0005(14)
C17 0.0174(19) 0.0077(17) 0.0161(19) 0.0015(14) -0.0042(15) -0.0024(14)
C18 0.017(2) 0.021(2) 0.024(2) 0.0002(17) 0.0029(16) 0.0007(16)
C19 0.017(2) 0.029(2) 0.030(2) 0.0009(19) -0.0075(18) 0.0027(17)
C20 0.028(2) 0.023(2) 0.023(2) -0.0013(17) 0.0023(18) 0.0025(17)
C21 0.032(2) 0.022(2) 0.028(2) -0.0064(18) -0.008(2) -0.0034(18)
C22 0.0195(19) 0.0078(17) 0.0173(19) -0.0015(14) -0.0065(16) 0.0003(14)
C23 0.032(2) 0.015(2) 0.026(2) 0.0072(16) -0.0100(19) 0.0003(17)
C24 0.029(2) 0.030(2) 0.013(2) -0.0020(17) 0.0035(17) -0.0024(18)
C25 0.018(2) 0.022(2) 0.023(2) 0.0012(16) 0.0002(16) -0.0018(16)
C26 0.015(2) 0.029(2) 0.030(2) 0.0002(18) -0.0066(17) 0.0015(17)
Cl7 0.1015(13) 0.0619(10) 0.0409(8) -0.0107(7) 0.0297(8) -0.0471(9)
Cl8 0.0501(8) 0.0386(7) 0.0481(8) 0.0033(6) 0.0213(6) 0.0023(6)
Cl9 0.1251(16) 0.0332(8) 0.1157(16) -0.0198(9) -0.0893(13) 0.0214(9)
C31 0.056(3) 0.022(2) 0.037(3) -0.007(2) -0.012(2) -0.004(2)
Cl10 0.0488(8) 0.0308(7) 0.0641(9) 0.0035(6) 0.0294(7) -0.0029(6)
Cl11 0.0385(7) 0.0368(7) 0.0279(6) 0.0068(5) 0.0005(5) -0.0075(5)
Cl12 0.0532(9) 0.0433(8) 0.0921(12) -0.0148(8) -0.0437(9) 0.0149(7)
C32 0.034(3) 0.022(2) 0.039(3) -0.004(2) -0.010(2) 0.0