####################################################################### 
# 
# This file contains crystal structure data downloaded from the 
# Cambridge Structural Database (CSD) hosted by the Cambridge 
# Crystallographic Data Centre (CCDC).
# 
# Full information about CCDC data access policies and citation 
# guidelines are available at http://www.ccdc.cam.ac.uk/access/V1 
# 
# Audit and citation data items may have been added by the CCDC. 
# Please retain this information to preserve the provenance of 
# this file and to allow appropriate attribution of the data. 
# 
#######################################################################

data_hi_de11a
_audit_block_doi                 10.5517/ccxbsqq
_database_code_depnum_ccdc_archive 'CCDC 844524'
loop_
_citation_id
_citation_doi
_citation_year
1 10.1002/ejic.201101002 2012
_audit_update_record             
;
2011-09-16 deposited with the CCDC.	2024-07-12 downloaded from the CCDC.
;
#TrackingRef 'hi_de11a.cif'


_audit_creation_method           SHELXL-97
_audit_block_code                hi_de11
#_audit_block_refno 1183

_chemical_name_systematic        ?
_chemical_name_common            ?
_chemical_formula_moiety         ?
_chemical_formula_sum            'C19 H39 Ag I N8 O2'
_exptl_crystal_recrystallization_method DMF
_chemical_melting_point          ?

_exptl_crystal_description       irregular
_exptl_crystal_colour            colourless

_diffrn_ambient_temperature      100(2)
_chemical_formula_weight         646.35

loop_
_atom_type_symbol
_atom_type_description
_atom_type_scat_dispersion_real
_atom_type_scat_dispersion_imag
_atom_type_scat_source
C C 0.0033 0.0016 'International Tables Vol C Tables 4.2.6.8 and 6.1.1.4'
H H 0.0000 0.0000 'International Tables Vol C Tables 4.2.6.8 and 6.1.1.4'
N N 0.0061 0.0033 'International Tables Vol C Tables 4.2.6.8 and 6.1.1.4'
Ag Ag -0.8971 1.1015 'International Tables Vol C Tables 4.2.6.8 and 6.1.1.4'
I I -0.4742 1.8119 'International Tables Vol C Tables 4.2.6.8 and 6.1.1.4'
O O 0.0106 0.0060 'International Tables Vol C Tables 4.2.6.8 and 6.1.1.4'

_symmetry_cell_setting           monoclinic
_symmetry_space_group_name_H-M   'P 21/c'
_symmetry_int_tables_number      14

_chemical_absolute_configuration .

loop_
_symmetry_equiv_pos_as_xyz
'x, y, z'
'-x, y+1/2, -z+1/2'
'-x, -y, -z'
'x, -y-1/2, z-1/2'

_cell_length_a                   11.754(5)
_cell_length_b                   22.070(9)
_cell_length_c                   10.787(5)
_cell_angle_alpha                90.00
_cell_angle_beta                 110.644(6)
_cell_angle_gamma                90.00
_cell_volume                     2618.5(19)
_cell_formula_units_Z            4
_cell_measurement_temperature    100(2)
_cell_measurement_reflns_used    8121
_cell_measurement_theta_min      2.22
_cell_measurement_theta_max      31.54
_exptl_crystal_size_max          0.11
_exptl_crystal_size_mid          0.07
_exptl_crystal_size_min          0.03
_exptl_crystal_density_meas      ?
_exptl_crystal_density_diffrn    1.640
_exptl_crystal_density_method    'not measured'
_exptl_crystal_F_000             1300
loop_
_exptl_crystal_face_index_h
_exptl_crystal_face_index_k
_exptl_crystal_face_index_l
_exptl_crystal_face_perp_dist
-2.00 8.00 3.00 0.0400
1.00 -1.00 5.00 0.0560
2.00 -8.00 -3.00 0.0260
0.00 0.00 -1.00 0.0640
0.00 1.00 0.00 0.0260
1.00 0.00 0.00 0.0180
0.00 -1.00 0.00 0.0290
-1.00 0.00 0.00 0.0220

_exptl_absorpt_coefficient_mu    1.979

_exptl_absorpt_correction_type   numerical
_exptl_absorpt_correction_T_min  0.8696
_exptl_absorpt_correction_T_max  0.9829
_exptl_absorpt_process_details   
;
SADABS (Sheldrick & Bruker AXS, 2004-2008)
;

_exptl_special_details           
;
?
;
_diffrn_radiation_probe          x-ray
_diffrn_radiation_type           MoK\a
_diffrn_radiation_wavelength     0.71073
_diffrn_source                   'fine-focus sealed tube'
_diffrn_radiation_monochromator  graphite
_diffrn_measurement_device_type  'Bruker AXS Smart 1000'
_diffrn_measurement_method       '\f- and \w-scans'
_diffrn_detector_area_resol_mean 8.19
_diffrn_reflns_number            66037
_diffrn_reflns_av_R_equivalents  0.0508
_diffrn_reflns_av_sigmaI/netI    0.0320
_diffrn_reflns_limit_h_min       -17
_diffrn_reflns_limit_h_max       16
_diffrn_reflns_limit_k_min       0
_diffrn_reflns_limit_k_max       32
_diffrn_reflns_limit_l_min       0
_diffrn_reflns_limit_l_max       16
_diffrn_reflns_theta_min         2.07
_diffrn_reflns_theta_max         32.21
_reflns_number_total             8826
_reflns_number_gt                7216
_reflns_threshold_expression     >2sigma(I)
_computing_data_collection       'SMART-5.631 (Bruker AXS, 2003)'

_computing_cell_refinement       
;
SAINT (Bruker AXS, 1997-2008). Includes estimated systematic errors
of the unit cell constants from Monte Carlo simulations.
;
_computing_data_reduction        
;
SAINT (Bruker AXS, 1997-2008)
SADABS (Bruker AXS, 2008)
;
_computing_structure_solution    'SUPERFLIP (Palatinus, 2007-2009)'
_computing_structure_refinement  'SHELXL-97 (Sheldrick, 1997)'
_computing_molecular_graphics    ?
_computing_publication_material  'SHELXL-97 (Sheldrick, 1997)'

_refine_special_details          
;
Refinement of F^2^ against ALL reflections. The weighted R-factor wR and
goodness of fit S are based on F^2^, conventional R-factors R are based
on F, with F set to zero for negative F^2^. The threshold expression of
F^2^ > 2sigma(F^2^) is used only for calculating R-factors(gt) etc. and is
not relevant to the choice of reflections for refinement. R-factors based
on F^2^ are statistically about twice as large as those based on F, and R-
factors based on ALL data will be even larger.
Similarity restraints applied to disordered DMF.
;

_refine_ls_structure_factor_coef Fsqd
_refine_ls_matrix_type           full
_refine_ls_weighting_scheme      calc
_refine_ls_weighting_details     
'calc w=1/[\s^2^(Fo^2^)+(0.0235P)^2^+2.5646P] where P=(Fo^2^+2Fc^2^)/3'
_atom_sites_solution_primary     dual
_atom_sites_solution_secondary   difmap
_atom_sites_solution_hydrogens   geom

_refine_ls_hydrogen_treatment    constr
_refine_ls_extinction_method     none
_refine_ls_extinction_coef       ?
_refine_ls_number_reflns         8826
_refine_ls_number_parameters     322
_refine_ls_number_restraints     7
_refine_ls_R_factor_all          0.0426
_refine_ls_R_factor_gt           0.0283
_refine_ls_wR_factor_ref         0.0608
_refine_ls_wR_factor_gt          0.0556
_refine_ls_goodness_of_fit_ref   1.023
_refine_ls_restrained_S_all      1.024
_refine_ls_shift/su_max          0.001
_refine_ls_shift/su_mean         0.000

loop_
_atom_site_label
_atom_site_type_symbol
_atom_site_fract_x
_atom_site_fract_y
_atom_site_fract_z
_atom_site_U_iso_or_equiv
_atom_site_adp_type
_atom_site_occupancy
_atom_site_symmetry_multiplicity
_atom_site_calc_flag
_atom_site_refinement_flags
_atom_site_disorder_assembly
_atom_site_disorder_group
I I 0.531988(11) 0.567970(6) 0.675375(13) 0.01518(4) Uani 1 1 d . . .
Ag Ag 0.645245(14) 0.502300(7) 0.533647(15) 0.01639(4) Uani 1 1 d . . .
N1 N 0.83288(14) 0.45206(8) 0.60929(16) 0.0124(3) Uani 1 1 d . . .
N2 N 0.88508(15) 0.34762(7) 0.60970(17) 0.0141(3) Uani 1 1 d . . .
N3 N 0.82952(16) 0.38850(8) 0.77785(17) 0.0155(3) Uani 1 1 d . . .
N4 N 0.75497(14) 0.53824(7) 0.40138(16) 0.0124(3) Uani 1 1 d . . .
N5 N 0.61081(15) 0.59140(8) 0.23277(17) 0.0158(3) Uani 1 1 d . . .
N6 N 0.72947(15) 0.52156(8) 0.17432(16) 0.0130(3) Uani 1 1 d . . .
C1 C 0.91463(17) 0.47386(8) 0.55029(18) 0.0112(3) Uani 1 1 d . . .
C2 C 0.87670(16) 0.51771(9) 0.44907(18) 0.0111(3) Uani 1 1 d . . .
C3 C 0.96284(17) 0.54268(9) 0.40247(18) 0.0120(3) Uani 1 1 d . . .
H3 H 0.9368 0.5726 0.3349 0.014 Uiso 1 1 calc R . .
C11 C 0.84943(16) 0.39741(9) 0.66199(19) 0.0119(3) Uani 1 1 d . . .
C12 C 0.8633(2) 0.34504(10) 0.4688(2) 0.0216(4) Uani 1 1 d . . .
H12B H 0.7903 0.3685 0.4206 0.032 Uiso 1 1 calc R . .
H12A H 0.8516 0.3028 0.4390 0.032 Uiso 1 1 calc R . .
H12C H 0.9333 0.3621 0.4516 0.032 Uiso 1 1 calc R . .
C13 C 0.9748(2) 0.30456(10) 0.6899(2) 0.0214(4) Uani 1 1 d . . .
H13B H 0.9965 0.3148 0.7838 0.032 Uiso 1 1 calc R . .
H13C H 1.0476 0.3063 0.6657 0.032 Uiso 1 1 calc R . .
H13A H 0.9407 0.2636 0.6743 0.032 Uiso 1 1 calc R . .
C14 C 0.8190(2) 0.44115(10) 0.8538(2) 0.0222(4) Uani 1 1 d . . .
H14B H 0.8789 0.4717 0.8520 0.033 Uiso 1 1 calc R . .
H14C H 0.8338 0.4291 0.9456 0.033 Uiso 1 1 calc R . .
H14A H 0.7370 0.4582 0.8150 0.033 Uiso 1 1 calc R . .
C15 C 0.7734(2) 0.33326(10) 0.8043(2) 0.0224(4) Uani 1 1 d . . .
H15B H 0.6869 0.3406 0.7870 0.034 Uiso 1 1 calc R . .
H15C H 0.8137 0.3214 0.8971 0.034 Uiso 1 1 calc R . .
H15A H 0.7820 0.3007 0.7465 0.034 Uiso 1 1 calc R . .
C16 C 0.70281(16) 0.54938(9) 0.27525(19) 0.0121(3) Uani 1 1 d . . .
C17 C 0.50415(19) 0.57857(10) 0.1157(2) 0.0203(4) Uani 1 1 d . . .
H17B H 0.5303 0.5645 0.0438 0.030 Uiso 1 1 calc R . .
H17C H 0.4556 0.6155 0.0878 0.030 Uiso 1 1 calc R . .
H17A H 0.4550 0.5471 0.1367 0.030 Uiso 1 1 calc R . .
C18 C 0.5886(2) 0.62992(11) 0.3306(2) 0.0247(5) Uani 1 1 d . . .
H18C H 0.5429 0.6658 0.2870 0.037 Uiso 1 1 calc R . .
H18B H 0.6664 0.6425 0.3966 0.037 Uiso 1 1 calc R . .
H18A H 0.5415 0.6075 0.3746 0.037 Uiso 1 1 calc R . .
C19 C 0.7523(2) 0.55643(10) 0.0714(2) 0.0201(4) Uani 1 1 d . . .
H19B H 0.7320 0.5990 0.0785 0.030 Uiso 1 1 calc R . .
H19A H 0.7020 0.5407 -0.0156 0.030 Uiso 1 1 calc R . .
H19C H 0.8383 0.5531 0.0819 0.030 Uiso 1 1 calc R . .
C20 C 0.77364(19) 0.45992(9) 0.1899(2) 0.0171(4) Uani 1 1 d . . .
H20C H 0.8623 0.4600 0.2154 0.026 Uiso 1 1 calc R . .
H20B H 0.7374 0.4381 0.1060 0.026 Uiso 1 1 calc R . .
H20A H 0.7512 0.4398 0.2590 0.026 Uiso 1 1 calc R . .
O21 O 0.1579(2) 0.29119(12) 0.0181(2) 0.0501(6) Uani 1 1 d D . .
N21 N 0.14096(18) 0.33487(9) 0.2010(2) 0.0237(4) Uani 1 1 d D . .
C21A C 0.1136(3) 0.32824(15) 0.0709(3) 0.0288(7) Uani 0.798(4) 1 d PD A 1
H21 H 0.0542 0.3549 0.0145 0.035 Uiso 0.798(4) 1 calc PR A 1
C22A C 0.0912(4) 0.3835(2) 0.2549(5) 0.0521(12) Uani 0.798(4) 1 d PD A 1
H22C H 0.1576 0.4074 0.3163 0.078 Uiso 0.798(4) 1 calc PR A 1
H22A H 0.0410 0.3667 0.3023 0.078 Uiso 0.798(4) 1 calc PR A 1
H22B H 0.0411 0.4096 0.1828 0.078 Uiso 0.798(4) 1 calc PR A 1
C23A C 0.2303(3) 0.29500(16) 0.2922(3) 0.0322(8) Uani 0.798(4) 1 d PD A 1
H23A H 0.2549 0.2639 0.2419 0.048 Uiso 0.798(4) 1 calc PR A 1
H23B H 0.1946 0.2756 0.3516 0.048 Uiso 0.798(4) 1 calc PR A 1
H23C H 0.3016 0.3187 0.3445 0.048 Uiso 0.798(4) 1 calc PR A 1
C21B C 0.1951(10) 0.3005(6) 0.1436(10) 0.029(3) Uani 0.202(4) 1 d PD A 2
H21A H 0.2675 0.2808 0.1973 0.035 Uiso 0.202(4) 1 calc PR A 2
C22B C 0.0346(11) 0.3729(6) 0.1220(13) 0.032(3) Uani 0.202(4) 1 d PD A 2
H22E H 0.0212 0.3686 0.0274 0.049 Uiso 0.202(4) 1 calc PR A 2
H22F H 0.0511 0.4154 0.1479 0.049 Uiso 0.202(4) 1 calc PR A 2
H22D H -0.0381 0.3595 0.1388 0.049 Uiso 0.202(4) 1 calc PR A 2
C23B C 0.1613(13) 0.3374(7) 0.3444(11) 0.038(3) Uani 0.202(4) 1 d PD A 2
H23D H 0.2201 0.3062 0.3910 0.057 Uiso 0.202(4) 1 calc PR A 2
H23E H 0.0842 0.3303 0.3581 0.057 Uiso 0.202(4) 1 calc PR A 2
H23F H 0.1930 0.3774 0.3792 0.057 Uiso 0.202(4) 1 calc PR A 2
O31 O 0.76034(16) 0.30951(8) 0.14341(19) 0.0315(4) Uani 1 1 d . . .
N31 N 0.56228(18) 0.27865(8) 0.05998(19) 0.0219(4) Uani 1 1 d . . .
C31 C 0.6544(2) 0.31294(10) 0.1367(2) 0.0235(5) Uani 1 1 d . . .
H31 H 0.6358 0.3425 0.1907 0.028 Uiso 1 1 calc R . .
C32 C 0.4377(2) 0.29015(11) 0.0499(3) 0.0266(5) Uani 1 1 d . . .
H32C H 0.4368 0.3210 0.1149 0.040 Uiso 1 1 calc R . .
H32A H 0.4015 0.2526 0.0675 0.040 Uiso 1 1 calc R . .
H32B H 0.3908 0.3046 -0.0395 0.040 Uiso 1 1 calc R . .
C33 C 0.5822(2) 0.23389(11) -0.0289(3) 0.0299(5) Uani 1 1 d . . .
H33B H 0.5414 0.2469 -0.1208 0.045 Uiso 1 1 calc R . .
H33A H 0.5490 0.1948 -0.0151 0.045 Uiso 1 1 calc R . .
H33C H 0.6696 0.2298 -0.0108 0.045 Uiso 1 1 calc R . .

loop_
_atom_site_aniso_label
_atom_site_aniso_U_11
_atom_site_aniso_U_22
_atom_site_aniso_U_33
_atom_site_aniso_U_23
_atom_site_aniso_U_13
_atom_site_aniso_U_12
I 0.01488(6) 0.01642(6) 0.01494(6) -0.00186(5) 0.00611(4) 0.00142(5)
Ag 0.01494(7) 0.01989(8) 0.01638(7) 0.00229(6) 0.00806(5) 0.00402(5)
N1 0.0107(7) 0.0144(7) 0.0130(7) 0.0020(6) 0.0051(6) 0.0009(6)
N2 0.0172(8) 0.0125(7) 0.0136(8) 0.0009(6) 0.0067(6) 0.0018(6)
N3 0.0195(8) 0.0148(8) 0.0149(8) 0.0024(6) 0.0095(7) 0.0013(6)
N4 0.0110(7) 0.0142(8) 0.0116(7) 0.0012(6) 0.0034(6) 0.0018(6)
N5 0.0139(7) 0.0180(8) 0.0147(8) 0.0013(6) 0.0040(6) 0.0054(6)
N6 0.0149(7) 0.0145(8) 0.0098(7) 0.0015(6) 0.0048(6) 0.0027(6)
C1 0.0113(8) 0.0108(8) 0.0116(8) -0.0002(7) 0.0041(6) -0.0008(6)
C2 0.0102(8) 0.0118(8) 0.0106(8) -0.0011(6) 0.0026(6) 0.0001(6)
C3 0.0119(8) 0.0126(8) 0.0106(8) 0.0027(7) 0.0026(6) 0.0001(6)
C11 0.0086(7) 0.0145(9) 0.0118(8) 0.0009(7) 0.0024(6) 0.0001(6)
C12 0.0315(12) 0.0186(10) 0.0174(10) -0.0050(8) 0.0119(9) -0.0055(8)
C13 0.0203(10) 0.0173(10) 0.0270(11) 0.0028(8) 0.0089(8) 0.0051(8)
C14 0.0328(12) 0.0222(11) 0.0157(10) 0.0013(8) 0.0137(9) 0.0070(9)
C15 0.0262(11) 0.0228(11) 0.0235(11) 0.0069(9) 0.0154(9) -0.0007(8)
C16 0.0100(8) 0.0117(8) 0.0139(8) 0.0014(7) 0.0035(7) 0.0005(6)
C17 0.0133(9) 0.0240(11) 0.0195(10) 0.0064(8) 0.0010(7) 0.0016(8)
C18 0.0281(11) 0.0251(11) 0.0209(11) 0.0027(9) 0.0087(9) 0.0136(9)
C19 0.0243(10) 0.0239(11) 0.0151(9) 0.0046(8) 0.0107(8) 0.0014(8)
C20 0.0198(9) 0.0149(9) 0.0157(9) -0.0023(7) 0.0049(7) 0.0022(7)
O21 0.0556(14) 0.0688(16) 0.0288(11) -0.0059(10) 0.0183(10) 0.0179(12)
N21 0.0217(9) 0.0278(10) 0.0220(9) -0.0040(8) 0.0083(7) -0.0023(8)
C21A 0.0249(15) 0.0350(17) 0.0257(15) 0.0037(13) 0.0078(12) 0.0035(12)
C22A 0.044(2) 0.060(3) 0.060(3) -0.024(2) 0.028(2) 0.001(2)
C23A 0.0310(16) 0.0363(18) 0.0217(15) 0.0074(13) -0.0002(12) -0.0116(13)
C21B 0.013(5) 0.037(7) 0.034(7) 0.006(5) 0.004(4) 0.006(5)
C22B 0.029(6) 0.028(7) 0.038(7) 0.011(5) 0.009(5) 0.012(5)
C23B 0.036(7) 0.051(9) 0.028(7) -0.004(6) 0.011(6) -0.005(6)
O31 0.0265(9) 0.0259(9) 0.0376(10) -0.0035(8) 0.0055(8) 0.0027(7)
N31 0.0247(9) 0.0151(8) 0.0224(9) -0.0020(7) 0.0038(7) 0.0018(7)
C31 0.0301(12) 0.0150(10) 0.0207(11) -0.0020(8) 0.0034(9) 0.0015(8)
C32 0.0276(12) 0.0201(11) 0.0299(12) -0.0008(9) 0.0075(10) 0.0001(9)
C33 0.0370(13) 0.0217(11) 0.0272(12) -0.0077(10) 0.0065(10) 0.0032(10)

_geom_special_details            
;
All esds (except the esd in the dihedral angle between two l.s. planes)
are estimated using the full covariance matrix. The cell esds are taken
into account individually in the estimation of esds in distances, angles
and torsion angles; correlations between esds in cell parameters are only
used when they are defined by crystal symmetry. An approximate (isotropic)
treatment of cell esds is used for estimating esds involving l.s. planes.
;

loop_
_geom_bond_atom_site_label_1
_geom_bond_atom_site_label_2
_geom_bond_distance
_geom_bond_site_symmetry_2
_geom_bond_publ_flag
I Ag 2.7649(7) . ?
I Ag 2.9183(8) 3_666 ?
Ag N1 2.3431(18) . ?
Ag N4 2.3717(18) . ?
Ag I 2.9183(8) 3_666 ?
Ag Ag 3.2322(14) 3_666 ?
N1 C11 1.318(3) . ?
N1 C1 1.411(2) . ?
N2 C11 1.367(2) . ?
N2 C12 1.451(3) . ?
N2 C13 1.456(3) . ?
N3 C11 1.364(3) . ?
N3 C14 1.452(3) . ?
N3 C15 1.461(3) . ?
N4 C16 1.304(3) . ?
N4 C2 1.414(2) . ?
N5 C16 1.375(2) . ?
N5 C18 1.449(3) . ?
N5 C17 1.460(3) . ?
N6 C16 1.379(3) . ?
N6 C20 1.445(3) . ?
N6 C19 1.451(3) . ?
C1 C3 1.396(3) 3_766 ?
C1 C2 1.409(3) . ?
C2 C3 1.393(3) . ?
C3 C1 1.396(3) 3_766 ?
C3 H3 0.9500 . ?
C12 H12B 0.9800 . ?
C12 H12A 0.9800 . ?
C12 H12C 0.9800 . ?
C13 H13B 0.9800 . ?
C13 H13C 0.9800 . ?
C13 H13A 0.9800 . ?
C14 H14B 0.9800 . ?
C14 H14C 0.9800 . ?
C14 H14A 0.9800 . ?
C15 H15B 0.9800 . ?
C15 H15C 0.9800 . ?
C15 H15A 0.9800 . ?
C17 H17B 0.9800 . ?
C17 H17C 0.9800 . ?
C17 H17A 0.9800 . ?
C18 H18C 0.9800 . ?
C18 H18B 0.9800 . ?
C18 H18A 0.9800 . ?
C19 H19B 0.9800 . ?
C19 H19A 0.9800 . ?
C19 H19C 0.9800 . ?
C20 H20C 0.9800 . ?
C20 H20B 0.9800 . ?
C20 H20A 0.9800 . ?
O21 C21A 1.213(4) . ?
O21 C21B 1.284(11) . ?
N21 C21B 1.281(10) . ?
N21 C21A 1.333(4) . ?
N21 C22A 1.440(4) . ?
N21 C23A 1.455(4) . ?
N21 C23B 1.481(11) . ?
N21 C22B 1.497(10) . ?
C21A H21 0.9500 . ?
C22A H22C 0.9800 . ?
C22A H22A 0.9800 . ?
C22A H22B 0.9800 . ?
C23A H23A 0.9800 . ?
C23A H23B 0.9800 . ?
C23A H23C 0.9800 . ?
C21B H21A 0.9500 . ?
C22B H22E 0.9800 . ?
C22B H22F 0.9800 . ?
C22B H22D 0.9800 . ?
C23B H23D 0.9800 . ?
C23B H23E 0.9800 . ?
C23B H23F 0.9800 . ?
O31 C31 1.224(3) . ?
N31 C31 1.341(3) . ?
N31 C33 1.452(3) . ?
N31 C32 1.452(3) . ?
C31 H31 0.9500 . ?
C32 H32C 0.9800 . ?
C32 H32A 0.9800 . ?
C32 H32B 0.9800 . ?
C33 H33B 0.9800 . ?
C33 H33A 0.9800 . ?
C33 H33C 0.9800 . ?

loop_
_geom_angle_atom_site_label_1
_geom_angle_atom_site_label_2
_geom_angle_atom_site_label_3
_geom_angle
_geom_angle_site_symmetry_1
_geom_angle_site_symmetry_3
_geom_angle_publ_flag
Ag I Ag 69.26(3) . 3_666 ?
N1 Ag N4 73.92(6) . . ?
N1 Ag I 129.28(5) . . ?
N4 Ag I 128.85(5) . . ?
N1 Ag I 110.21(5) . 3_666 ?
N4 Ag I 95.99(5) . 3_666 ?
I Ag I 110.74(3) . 3_666 ?
N1 Ag Ag 148.58(4) . 3_666 ?
N4 Ag Ag 129.11(4) . 3_666 ?
I Ag Ag 57.606(17) . 3_666 ?
I Ag Ag 53.132(15) 3_666 3_666 ?
C11 N1 C1 119.08(16) . . ?
C11 N1 Ag 124.11(12) . . ?
C1 N1 Ag 112.87(12) . . ?
C11 N2 C12 119.84(17) . . ?
C11 N2 C13 122.86(17) . . ?
C12 N2 C13 114.85(17) . . ?
C11 N3 C14 118.54(17) . . ?
C11 N3 C15 122.28(18) . . ?
C14 N3 C15 115.04(17) . . ?
C16 N4 C2 118.91(16) . . ?
C16 N4 Ag 122.38(13) . . ?
C2 N4 Ag 111.67(12) . . ?
C16 N5 C18 118.39(17) . . ?
C16 N5 C17 119.48(17) . . ?
C18 N5 C17 11