####################################################################### 
# 
# This file contains crystal structure data downloaded from the 
# Cambridge Structural Database (CSD) hosted by the Cambridge 
# Crystallographic Data Centre (CCDC).
# 
# Full information about CCDC data access policies and citation 
# guidelines are available at http://www.ccdc.cam.ac.uk/access/V1 
# 
# Audit and citation data items may have been added by the CCDC. 
# Please retain this information to preserve the provenance of 
# this file and to allow appropriate attribution of the data. 
# 
#######################################################################

data_a
_audit_block_doi                 10.5517/ccvnq7f
_database_code_depnum_ccdc_archive 'CCDC 794475'
loop_
_citation_id
_citation_doi
_citation_year
1 10.1016/j.inoche.2011.09.029 2012
_audit_update_record             
;
2010-09-24 deposited with the CCDC.	2024-07-12 downloaded from the CCDC.
;
#TrackingRef 'A.cif'


_audit_creation_method           SHELXL-97
_chemical_name_systematic        
;
?
;
_chemical_name_common            ?
_chemical_melting_point          ?
_chemical_formula_moiety         ?
_chemical_formula_sum            'C17 H13 Cd N3 O5'
_chemical_formula_weight         451.70

loop_
_atom_type_symbol
_atom_type_description
_atom_type_scat_dispersion_real
_atom_type_scat_dispersion_imag
_atom_type_scat_source
C C 0.0033 0.0016 'International Tables Vol C Tables 4.2.6.8 and 6.1.1.4'
H H 0.0000 0.0000 'International Tables Vol C Tables 4.2.6.8 and 6.1.1.4'
N N 0.0061 0.0033 'International Tables Vol C Tables 4.2.6.8 and 6.1.1.4'
O O 0.0106 0.0060 'International Tables Vol C Tables 4.2.6.8 and 6.1.1.4'
Cd Cd -0.8075 1.2024 'International Tables Vol C Tables 4.2.6.8 and 6.1.1.4'

_symmetry_cell_setting           Rhombohedral
_symmetry_space_group_name_H-M   R-3

loop_
_symmetry_equiv_pos_as_xyz
'x, y, z'
'-y, x-y, z'
'-x+y, -x, z'
'x+2/3, y+1/3, z+1/3'
'-y+2/3, x-y+1/3, z+1/3'
'-x+y+2/3, -x+1/3, z+1/3'
'x+1/3, y+2/3, z+2/3'
'-y+1/3, x-y+2/3, z+2/3'
'-x+y+1/3, -x+2/3, z+2/3'
'-x, -y, -z'
'y, -x+y, -z'
'x-y, x, -z'
'-x+2/3, -y+1/3, -z+1/3'
'y+2/3, -x+y+1/3, -z+1/3'
'x-y+2/3, x+1/3, -z+1/3'
'-x+1/3, -y+2/3, -z+2/3'
'y+1/3, -x+y+2/3, -z+2/3'
'x-y+1/3, x+2/3, -z+2/3'

_cell_length_a                   29.9118(16)
_cell_length_b                   29.9118(16)
_cell_length_c                   13.7506(15)
_cell_angle_alpha                90.00
_cell_angle_beta                 90.00
_cell_angle_gamma                120.00
_cell_volume                     10654.6(14)
_cell_formula_units_Z            18
_cell_measurement_temperature    296(2)
_cell_measurement_reflns_used    4392
_cell_measurement_theta_min      2.36
_cell_measurement_theta_max      20.69

_exptl_crystal_description       block
_exptl_crystal_colour            colourless
_exptl_crystal_size_max          0.31
_exptl_crystal_size_mid          0.25
_exptl_crystal_size_min          0.17
_exptl_crystal_density_meas      ?
_exptl_crystal_density_diffrn    1.267
_exptl_crystal_density_method    'not measured'
_exptl_crystal_F_000             4032
_exptl_absorpt_coefficient_mu    0.947
_exptl_absorpt_correction_type   multi-scan
_exptl_absorpt_correction_T_min  0.7579
_exptl_absorpt_correction_T_max  0.8556
_exptl_absorpt_process_details   sadabs

_exptl_special_details           
;
?
;

_diffrn_ambient_temperature      296(2)
_diffrn_radiation_wavelength     0.71073
_diffrn_radiation_type           MoK\a
_diffrn_radiation_source         'fine-focus sealed tube'
_diffrn_radiation_monochromator  graphite
_diffrn_measurement_device_type  'CCD area detector'
_diffrn_measurement_method       'phi and omega scans'
_diffrn_detector_area_resol_mean ?
_diffrn_standards_number         ?
_diffrn_standards_interval_count ?
_diffrn_standards_interval_time  ?
_diffrn_standards_decay_%        ?
_diffrn_reflns_number            27175
_diffrn_reflns_av_R_equivalents  0.0807
_diffrn_reflns_av_sigmaI/netI    0.0607
_diffrn_reflns_limit_h_min       -36
_diffrn_reflns_limit_h_max       36
_diffrn_reflns_limit_k_min       -36
_diffrn_reflns_limit_k_max       36
_diffrn_reflns_limit_l_min       -16
_diffrn_reflns_limit_l_max       16
_diffrn_reflns_theta_min         2.36
_diffrn_reflns_theta_max         25.50
_reflns_number_total             4415
_reflns_number_gt                2741
_reflns_threshold_expression     >2sigma(I)

_computing_data_collection       'Bruker SMART'
_computing_cell_refinement       'Bruker SMART'
_computing_data_reduction        'Bruker SAINT'
_computing_structure_solution    'SHELXS-97 (Sheldrick, 1990)'
_computing_structure_refinement  'SHELXL-97 (Sheldrick, 1997)'
_computing_molecular_graphics    'Bruker SHELXTL'
_computing_publication_material  'Bruker SHELXTL'

_refine_special_details          
;
Refinement of F^2^ against ALL reflections. The weighted R-factor wR and
goodness of fit S are based on F^2^, conventional R-factors R are based
on F, with F set to zero for negative F^2^. The threshold expression of
F^2^ > 2sigma(F^2^) is used only for calculating R-factors(gt) etc. and is
not relevant to the choice of reflections for refinement. R-factors based
on F^2^ are statistically about twice as large as those based on F, and R-
factors based on ALL data will be even larger.
;

_refine_ls_structure_factor_coef Fsqd
_refine_ls_matrix_type           full
_refine_ls_weighting_scheme      calc
_refine_ls_weighting_details     
'calc w=1/[\s^2^(Fo^2^)+(0.1337P)^2^+0.0000P] where P=(Fo^2^+2Fc^2^)/3'
_atom_sites_solution_primary     direct
_atom_sites_solution_secondary   difmap
_atom_sites_solution_hydrogens   geom
_refine_ls_hydrogen_treatment    constr
_refine_ls_extinction_method     none
_refine_ls_extinction_coef       ?
_refine_ls_number_reflns         4415
_refine_ls_number_parameters     245
_refine_ls_number_restraints     0
_refine_ls_R_factor_all          0.0923
_refine_ls_R_factor_gt           0.0591
_refine_ls_wR_factor_ref         0.2227
_refine_ls_wR_factor_gt          0.2033
_refine_ls_goodness_of_fit_ref   1.038
_refine_ls_restrained_S_all      1.038
_refine_ls_shift/su_max          0.000
_refine_ls_shift/su_mean         0.000

loop_
_atom_site_label
_atom_site_type_symbol
_atom_site_fract_x
_atom_site_fract_y
_atom_site_fract_z
_atom_site_U_iso_or_equiv
_atom_site_adp_type
_atom_site_occupancy
_atom_site_symmetry_multiplicity
_atom_site_calc_flag
_atom_site_refinement_flags
_atom_site_disorder_assembly
_atom_site_disorder_group
Cd1 Cd 0.39268(2) 0.01307(2) 0.45919(4) 0.0582(3) Uani 1 1 d . . .
O1 O 0.3574(2) 0.0353(2) 0.3260(4) 0.0678(14) Uani 1 1 d . . .
O2 O 0.3269(2) 0.0851(2) 0.2719(4) 0.0707(15) Uani 1 1 d . . .
O3 O 0.3969(2) -0.0523(2) 0.3800(4) 0.0704(15) Uani 1 1 d . . .
O4 O 0.3518(3) -0.1306(3) 0.3186(6) 0.127(3) Uani 1 1 d . . .
N1 N 0.3794(2) 0.0823(2) 0.5020(4) 0.0592(16) Uani 1 1 d . . .
N2 N 0.3114(2) -0.0581(2) 0.4535(4) 0.0603(16) Uani 1 1 d . A .
N3 N 0.4769(3) 0.0707(2) 0.4128(5) 0.0653(17) Uani 1 1 d . . .
C1 C 0.3612(3) 0.0999(3) 0.4321(5) 0.0540(17) Uani 1 1 d . . .
C2 C 0.3565(3) 0.1424(3) 0.4440(5) 0.0594(18) Uani 1 1 d . . .
H2 H 0.3423 0.1528 0.3948 0.071 Uiso 1 1 calc R . .
C3 C 0.3729(3) 0.1705(3) 0.5310(5) 0.0591(19) Uani 1 1 d . . .
C4 C 0.3909(3) 0.1520(3) 0.6011(6) 0.069(2) Uani 1 1 d . . .
H4 H 0.4016 0.1690 0.6605 0.083 Uiso 1 1 calc R . .
C5 C 0.3935(3) 0.1075(3) 0.5843(5) 0.066(2) Uani 1 1 d . . .
H5 H 0.4058 0.0952 0.6335 0.079 Uiso 1 1 calc R . .
C6 C 0.3473(3) 0.0711(3) 0.3364(5) 0.0555(18) Uani 1 1 d . . .
C7 C 0.3073(3) -0.1013(3) 0.4102(5) 0.0600(19) Uani 1 1 d . . .
C8 C 0.2621(3) -0.1472(3) 0.4112(5) 0.065(2) Uani 1 1 d . A .
H8 H 0.2601 -0.1756 0.3796 0.077 Uiso 1 1 calc R . .
C9 C 0.2187(3) -0.1520(3) 0.4586(5) 0.0603(19) Uani 1 1 d . . .
C10 C 0.2227(3) -0.1079(3) 0.5003(5) 0.065(2) Uani 1 1 d . A .
H10 H 0.1941 -0.1093 0.5300 0.078 Uiso 1 1 calc R . .
C11 C 0.2698(3) -0.0614(3) 0.4977(6) 0.066(2) Uani 1 1 d . . .
H11 H 0.2723 -0.0323 0.5271 0.080 Uiso 1 1 calc R A .
C12 C 0.3554(4) -0.0934(4) 0.3655(6) 0.074(2) Uani 1 1 d . A .
C13 C 0.4867(4) 0.1020(3) 0.3376(7) 0.079(2) Uani 1 1 d . . .
H13 H 0.4590 0.0988 0.3012 0.095 Uiso 1 1 calc R . .
C14 C 0.5363(4) 0.1395(4) 0.3105(8) 0.093(3) Uani 1 1 d . . .
H14 H 0.5414 0.1617 0.2589 0.111 Uiso 1 1 calc R . .
C15 C 0.5770(4) 0.1431(5) 0.3604(9) 0.115(4) Uani 1 1 d . . .
H15 H 0.6105 0.1673 0.3422 0.137 Uiso 1 1 calc R . .
C16 C 0.5689(5) 0.1119(5) 0.4353(10) 0.123(4) Uani 1 1 d . . .
H16 H 0.5967 0.1138 0.4694 0.148 Uiso 1 1 calc R . .
C17 C 0.5168(4) 0.0753(4) 0.4631(7) 0.089(3) Uani 1 1 d . . .
H17 H 0.5110 0.0544 0.5173 0.106 Uiso 1 1 calc R . .
O5 O 0.4341(10) -0.1231(7) 0.196(2) 0.36(2) Uani 0.739(18) 1 d P A 1
H1W H 0.4650 -0.1084 0.2131 0.533 Uiso 0.739(18) 1 d PR A 1
H2W H 0.4157 -0.1220 0.2410 0.533 Uiso 0.739(18) 1 d PR A 1
O6 O 0.528(2) -0.1121(18) 0.223(2) 0.19(3) Uani 0.261(18) 1 d P A 2
H3W H 0.4998 -0.1160 0.2401 0.287 Uiso 0.261(18) 1 d PR A 2
H4W H 0.5271 -0.1218 0.1662 0.287 Uiso 0.261(18) 1 d PR A 2

loop_
_atom_site_aniso_label
_atom_site_aniso_U_11
_atom_site_aniso_U_22
_atom_site_aniso_U_33
_atom_site_aniso_U_23
_atom_site_aniso_U_13
_atom_site_aniso_U_12
Cd1 0.0653(4) 0.0539(4) 0.0510(4) 0.0038(2) 0.0011(2) 0.0266(3)
O1 0.088(4) 0.069(3) 0.048(3) -0.006(2) -0.007(3) 0.040(3)
O2 0.093(4) 0.081(4) 0.050(3) -0.008(3) -0.016(3) 0.052(3)
O3 0.071(4) 0.063(3) 0.073(4) 0.000(3) 0.021(3) 0.030(3)
O4 0.091(5) 0.093(5) 0.162(7) -0.042(5) 0.040(5) 0.019(4)
N1 0.074(4) 0.056(4) 0.046(3) -0.001(3) -0.005(3) 0.031(3)
N2 0.065(4) 0.062(4) 0.051(4) -0.003(3) -0.004(3) 0.030(3)
N3 0.069(4) 0.062(4) 0.062(4) 0.004(3) 0.007(3) 0.031(3)
C1 0.059(4) 0.054(4) 0.045(4) 0.000(3) -0.008(3) 0.026(4)
C2 0.068(5) 0.061(5) 0.047(4) 0.003(3) -0.001(4) 0.031(4)
C3 0.077(5) 0.066(5) 0.043(4) 0.001(3) -0.005(4) 0.042(4)
C4 0.091(6) 0.067(5) 0.046(4) -0.001(4) -0.011(4) 0.037(5)
C5 0.097(6) 0.062(5) 0.045(4) 0.000(4) -0.009(4) 0.044(5)
C6 0.054(4) 0.051(4) 0.048(4) -0.001(3) 0.003(3) 0.017(4)
C7 0.065(5) 0.061(5) 0.045(4) -0.007(3) -0.003(3) 0.024(4)
C8 0.074(5) 0.054(4) 0.055(4) -0.005(4) 0.001(4) 0.024(4)
C9 0.062(5) 0.063(5) 0.042(4) -0.001(3) 0.000(3) 0.022(4)
C10 0.066(5) 0.065(5) 0.058(5) 0.003(4) 0.004(4) 0.029(4)
C11 0.073(5) 0.080(6) 0.055(5) -0.004(4) 0.004(4) 0.044(5)
C12 0.080(6) 0.067(5) 0.068(5) -0.013(4) 0.013(4) 0.032(5)
C13 0.086(6) 0.078(6) 0.071(6) 0.007(5) 0.006(5) 0.039(5)
C14 0.075(6) 0.088(7) 0.097(7) 0.025(6) 0.017(5) 0.027(6)
C15 0.061(6) 0.102(8) 0.141(11) 0.027(8) 0.009(7) 0.011(6)
C16 0.087(8) 0.121(10) 0.152(12) 0.018(9) -0.020(8) 0.044(8)
C17 0.089(7) 0.090(7) 0.089(7) 0.019(5) -0.001(6) 0.045(6)
O5 0.33(3) 0.145(15) 0.53(4) 0.045(19) 0.30(3) 0.077(16)
O6 0.31(6) 0.28(5) 0.07(2) -0.07(3) -0.09(3) 0.21(5)

_geom_special_details            
;
All esds (except the esd in the dihedral angle between two l.s. planes)
are estimated using the full covariance matrix. The cell esds are taken
into account individually in the estimation of esds in distances, angles
and torsion angles; correlations between esds in cell parameters are only
used when they are defined by crystal symmetry. An approximate (isotropic)
treatment of cell esds is used for estimating esds involving l.s. planes.
;

loop_
_geom_bond_atom_site_label_1
_geom_bond_atom_site_label_2
_geom_bond_distance
_geom_bond_site_symmetry_2
_geom_bond_publ_flag
Cd1 O2 2.278(5) 6 ?
Cd1 O3 2.296(5) . ?
Cd1 N2 2.297(6) . ?
Cd1 N3 2.319(6) . ?
Cd1 O1 2.369(5) . ?
Cd1 N1 2.370(6) . ?
O1 C6 1.256(9) . ?
O2 C6 1.262(9) . ?
O2 Cd1 2.278(5) 8_544 ?
O3 C12 1.253(10) . ?
O4 C12 1.244(10) . ?
O4 O5 2.897(19) . ?
N1 C5 1.307(9) . ?
N1 C1 1.336(8) . ?
N2 C11 1.341(10) . ?
N2 C7 1.374(9) . ?
N3 C13 1.326(10) . ?
N3 C17 1.328(11) . ?
C1 C2 1.357(10) . ?
C1 C6 1.513(10) . ?
C2 C3 1.401(10) . ?
C2 H2 0.9300 . ?
C3 C4 1.350(10) . ?
C3 C9 1.483(10) 12_556 ?
C4 C5 1.391(11) . ?
C4 H4 0.9300 . ?
C5 H5 0.9300 . ?
C7 C8 1.363(10) . ?
C7 C12 1.469(11) . ?
C8 C9 1.393(11) . ?
C8 H8 0.9300 . ?
C9 C10 1.387(11) . ?
C9 C3 1.483(10) 11_556 ?
C10 C11 1.401(11) . ?
C10 H10 0.9300 . ?
C11 H11 0.9300 . ?
C13 C14 1.391(12) . ?
C13 H13 0.9300 . ?
C14 C15 1.354(15) . ?
C14 H14 0.9300 . ?
C15 C16 1.327(15) . ?
C15 H15 0.9300 . ?
C16 C17 1.439(15) . ?
C16 H16 0.9300 . ?
C17 H17 0.9300 . ?
O5 H1W 0.8343 . ?
O5 O6 2.69(5) . ?
O5 H1W 0.8343 . ?
O5 H2W 0.8379 . ?
O6 H3W 0.8311 . ?
O6 H4W 0.8277 . ?

loop_
_geom_angle_atom_site_label_1
_geom_angle_atom_site_label_2
_geom_angle_atom_site_label_3
_geom_angle
_geom_angle_site_symmetry_1
_geom_angle_site_symmetry_3
_geom_angle_publ_flag
O2 Cd1 O3 98.0(2) 6 . ?
O2 Cd1 N2 104.3(2) 6 . ?
O3 Cd1 N2 71.3(2) . . ?
O2 Cd1 N3 87.6(2) 6 . ?
O3 Cd1 N3 90.1(2) . . ?
N2 Cd1 N3 158.9(2) . . ?
O2 Cd1 O1 166.6(2) 6 . ?
O3 Cd1 O1 95.4(2) . . ?
N2 Cd1 O1 79.6(2) . . ?
N3 Cd1 O1 92.8(2) . . ?
O2 Cd1 N1 96.9(2) 6 . ?
O3 Cd1 N1 165.2(2) . . ?
N2 Cd1 N1 104.8(2) . . ?
N3 Cd1 N1 90.7(2) . . ?
O1 Cd1 N1 69.74(19) . . ?
C6 O1 Cd1 118.8(5) . . ?
C6 O2 Cd1 112.6(5) . 8_544 ?
C12 O3 Cd1 117.5(5) . . ?
C12 O4 O5 122.8(7) . . ?
C5 N1 C1 118.3(6) . . ?
C5 N1 Cd1 124.9(5) . . ?
C1 N1 Cd1 116.4(5) . . ?
C11 N2 C7 119.0(7) . . ?
C11 N2 Cd1 124.5(5) . . ?
C7 N2 Cd1 116.2(5) . . ?
C13 N3 C17 117.6(8) . . ?
C13 N3 Cd1 121.0(6) . . ?
C17 N3 Cd1 121.3(6) . . ?
N1 C1 C2 122.4(7) . . ?
N1 C1 C6 116.8(6) . . ?
C2 C1 C6 120.8(6) . . ?
C1 C2 C3 119.6(7) . . ?
C1 C2 H2 120.2 . . ?
C3 C2 H2 120.2 . . ?
C4 C3 C2 117.2(7) . . ?
C4 C3 C9 123.3(7) . 12_556 ?
C2 C3 C9 119.5(6) . 12_556 ?
C3 C4 C5 119.8(7) . . ?
C3 C4 H4 120.1 . . ?
C5 C4 H4 120.1 . . ?
N1 C5 C4 122.7(7) . . ?
N1 C5 H5 118.7 . . ?
C4 C5 H5 118.7 . . ?
O1 C6 O2 124.4(7) . . ?
O1 C6 C1 118.0(7) . . ?
O2 C6 C1 117.6(7) . . ?
C8 C7 N2 121.2(7) . . ?
C8 C7 C12 124.5(7) . . ?
N2 C7 C12 114.3(7) . . ?
C7 C8 C9 120.9(7) . . ?
C7 C8 H8 119.5 . . ?
C9 C8 H8 119.5 . . ?
C10 C9 C8 117.5(7) . . ?
C10 C9 C3 120.3(7) . 11_556 ?
C8 C9 C3 122.2(7) . 11_556 ?
C9 C10 C11 120.0(7) . . ?
C9 C10 H10 120.0 . . ?
C11 C10 H10 120.0 . . ?
N2 C11 C10 121.3(7) . . ?
N2 C11 H11 119.3 . . ?
C10 C11 H11 119.3 . . ?
O4 C12 O3 124.1(8) . . ?
O4 C12 C7 115.7(8) . . ?
O3 C12 C7 120.1(7) . . ?
N3 C13 C14 123.3(9) . . ?
N3 C13 H13 118.4 . . ?
C14 C13 H13 118.4 . . ?
C15 C14 C13 118.8(10) . . ?
C15 C14 H14 120.6 . . ?
C13 C14 H14 120.6 . . ?
C16 C15 C14 119.9(10) . . ?
C16 C15 H15 120.1 . . ?
C14 C15 H15 120.1 . . ?
C15 C16 C17 119.2(11) . . ?
C15 C16 H16 120.4 . . ?
C17 C16 H16 120.4 . . ?
N3 C17 C16 121.1(9) . . ?
N3 C17 H17 119.5 . . ?
C16 C17 H17 119.5 . . ?
H1W O5 O6 23.3 . . ?
H1W O5 O4 123.6 . . ?
O6 O5 O4 136.6(15) . . ?
H1W O5 H1W 0.0 . . ?
O6 O5 H1W 23.3 . . ?
O4 O5 H1W 123.6 . . ?
H1W O5 H2W 110.5 . . ?
O6 O5 H2W 124.2 . . ?
O4 O5 H2W 13.1 . . ?
H1W O5 H2W 110.5 . . ?
O5 O6 H3W 24.5 . . ?
O5 O6 H4W 88.6 . . ?
H3W O6 H4W 111.4 . . ?

loop_
_geom_torsion_atom_site_label_1
_geom_torsion_atom_site_label_2
_geom_torsion_atom_site_label_3
_geom_torsion_atom_site_label_4
_geom_torsion
_geom_torsion_site_symmetry_1
_geom_torsion_site_symmetry_2
_geom_torsion_site_symmetry_3
_geom_torsion_site_symmetry_4
_geom_torsion_publ_flag
O2 Cd1 O1 C6 0.9(12) 6 . . . ?
O3 Cd1 O1 C6 179.1(5) . . . . ?
N2 Cd1 O1 C6 109.3(6) . . . . ?
N3 Cd1 O1 C6 -90.6(5) . . . . ?
N1 Cd1 O1 C6 -0.8(5) . . . . ?
O2 Cd1 O3 C12 106.3(6) 6 . . . ?
N2 Cd1 O3 C12 3.8(6) . . . . ?
N3 Cd1 O3 C12 -166.1(6) . . . . ?
O1 Cd1 O3 C12 -73.3(6) . . . . ?
N1 Cd1 O3 C12 -73.0(10) . . . . ?
O2 Cd1 N1 C5 5.8(7) 6 . . . ?
O3 Cd1 N1 C5 -174.9(7) . . . . ?
N2 Cd1 N1 C5 112.6(6) . . . . ?
N3 Cd1 N1 C5 -81.9(7) . . . . ?
O1 Cd1 N1 C5 -174.6(7) . . . . ?
O2 Cd1 N1 C1 178.1(5) 6 . . . ?
O3 Cd1 N1 C1 -2.6(11) . . . . ?
N2 Cd1 N1 C1 -75.1(5) . . . . ?
N3 Cd1 N1 C1 90.4(5) . . . . ?
O1 Cd1 N1 C1 -2.3(5) . . . . ?
O2 Cd1 N2 C11 80.7(6) 6 . . . ?
O3 Cd1 N2 C11 174.4(6) . . . . ?
N3 Cd1 N2 C11 -156.7(7) . . . . ?
O1 Cd1 N2 C11 -86.2(6) . . . . ?
N1 Cd1 N2 C11 -20.6(6) . . . . ?
O2 Cd1 N2 C7 -92.2(5) 6 . . . ?
O3 Cd1 N2 C7 1.5(5) . . . . ?
N3 Cd1 N2 C7 30.5(9) . . . . ?
O1 Cd1 N2 C7 100.9(5) . . . . ?
N1 Cd1 N2 C7 166.6(5) . . . . ?
O2 Cd1 N3 C13 -162.3(7) 6 . . . ?
O3 Cd1 N3 C13 99.7(7) . . . . ?
N2 Cd1 N3 C13 72.4(10) . . . . ?
O1 Cd1 N3 C13 4.2(7) . . . . ?
N1 Cd1 N3 C13 -65.5(7) . . . . ?
O2 Cd1 N3 C17 14.4(7) 6 . . . ?
O3 Cd1 N3 C17 -83.5(7) . . . . ?
N2 Cd1 N3 C17 -110.9(8) . . . . ?
O1 Cd1 N3 C17 -179.0(7) . . . . ?
N1 Cd1 N3 C17 111.3(7) . . . . ?
C5 N1 C1 C2 -0.9(11) . . . . ?
Cd1 N1 C1 C2 -173.7(6) . . . . ?
C5 N1 C1 C6 177.6(7) . . . . ?
Cd1 N1 C1 C6 4.7(8) . . . . ?
N1 C1 C2 C3 2.7(11) . . . . ?
C6 C1 C2 C3 -175.6(7) . . . . ?
C1 C2 C3 C4 -2.9(11) . . . . ?
C1 C2 C3 C9 176.1(7) . . . 12_556 ?
C2 C3 C4 C5 1.4(12) . . . . ?
C9 C3 C4 C5 -177.6(8) 12_556 . . . ?
C1 N1 C5 C4 -0.7(12) . . . . ?
Cd1 N1 C5 C4 171.4(6) . . . . ?
C3 C4 C5 N1 0.4(13) . . . . ?
Cd1 O1 C6 O2 -177.5(6) . . . . ?
Cd1 O1 C6 C1 3.5(8) . . . . ?
Cd1 O2 C6 O1 -8.1(9) 8_544 . . . ?
Cd1 O2 C6 C1 170.9(5) 8_544 . . . ?
N1 C1 C6 O1 -5.6(10) . . . . ?
C2 C1 C6 O1 172.9(7) . . . . ?
N1 C1 C6 O2 175.3(7) . . . . ?
C2 C1 C6 O2 -6.2(11) . . . . ?
C11 N2 C7 C8 0.2(11) . . . . ?
Cd1 N2 C7 C8 173.5(6) . . . . ?
C11 N2 C7 C12 -179.1(7) . . . . ?
Cd1 N2 C7 C12 -5.8(8) . . . . ?
N2 C7 C8 C9 -1.9(12) . . . . ?
C12 C7 C8 C9 177.4(8) . . . . ?
C7 C8 C9 C10 3.2(12) . . . . ?
C7 C8 C9 C3 -174.0(7) . . . 11_556 ?
C8 C9 C10 C11 -3.0(11) . . . . ?
C3 C9 C10 C11 174.3(7) 11_556 . . . ?
C7 N2 C11 C10 0.0(11) . . . . ?
Cd1 N2 C11 C10 -172.7(5) . . . . ?
C9 C10 C11 N2 1.5(12) . . . . ?
O5 O4 C12 O3 -14.0(17) . . . . ?
O5 O4 C12 C7 169.9(10) . . . . ?
Cd1 O3 C12 O4 175.6(8) . . . . ?
Cd1 O3 C12 C7 -8.5(11) . . . . ?
C8 C7 C12 O4 6.6(13) . . . . ?
N2 C7 C12 O4 -174.1(8) . . . . ?
C8 C7 C12 O3 -169.6(8) . . . . ?
N2 C7 C12 O3 9.7(12) . . . . ?
C17 N3 C13 C14 -1.1(14) . . . . ?
Cd1 N3 C13 C14 175.8(7) . . . . ?
N3 C13 C14 C15 2.9(16) . . . . ?
C13 C14 C15 C16 -1.7(19) . . . . ?
C14 C15 C16 C17 -1(2) . . . . ?
C13 N3 C17 C16 -1.7(14) . . . . ?
Cd1 N3 C17 C16 -178.6(8) . . . . ?
C15 C16 C17 N3 2.7(19) . . . . ?
C12 O4 O5 H1W 45.3 . . . . ?
C12 O4 O5 O6 71(2) . . . . ?

_diffrn_measured_fraction_theta_max 0.999
_diffrn_reflns_theta_full        25.50
_diffrn_measured_fraction_theta_full 0.999
_refine_diff_density_max         0.803
_refine_diff_density_min         -0.647
_refine_diff_density_rms         0.139
