
#######################################################################
#
#                 Cambridge Crystallographic Data Centre
#                                CCDC
#
#######################################################################
#
# If this CIF has been generated from an entry in the Cambridge
# Structural Database, then it will include bibliographic, chemical,
# crystal, experimental, refinement or atomic coordinate data resulting
# from the CCDC's data processing and validation procedures.
#
#######################################################################

data_CSD_CIF_QATVAI
_audit_creation_date 2001-03-08
_audit_creation_method CSD-ConQuest-V1
_database_code_CSD QATVAI
_database_code_depnum_ccdc_archive 'CCDC 132866'
_chemical_formula_sum 'C7 H16 O2'
_chemical_formula_moiety
;
C7 H16 O2
;
_journal_coden_Cambridge 179
_journal_volume 39
_journal_year 2000
_journal_page_first 918
_journal_name_full 'Angew.Chem.,Int.Ed. '
loop_
_publ_author_name
"V.R.Thalladi"
"R.Boese"
"H.-C.Weiss"
_chemical_name_systematic
;
1,7-Heptanediol
;
_chemical_name_common
;
Teaching Subset: Fundamental Chemistry
;
_chemical_melting_point 299
_cell_volume    789.795
_exptl_crystal_colour 'colorless'
_exptl_crystal_density_diffrn 1.112
_exptl_crystal_description 'cylindrical'
_diffrn_ambient_temperature 130
#These two values have been output from a single CSD field.
_refine_ls_R_factor_gt 0.0579
_refine_ls_wR_factor_gt 0.0579
_symmetry_cell_setting orthorhombic
_symmetry_space_group_name_H-M 'P 21 21 21'
_symmetry_Int_Tables_number 19
loop_
_symmetry_equiv_pos_site_id
_symmetry_equiv_pos_as_xyz
1 x,y,z
2 1/2-x,-y,1/2+z
3 -x,1/2+y,1/2-z
4 1/2+x,1/2-y,-z
_cell_length_a 5.170(3)
_cell_length_b 6.844(4)
_cell_length_c 22.321(13)
_cell_angle_alpha 90
_cell_angle_beta 90
_cell_angle_gamma 90
_cell_formula_units_Z 4
loop_
_atom_type_symbol
_atom_type_radius_bond
C 0.68
H 0.23
O 0.68
loop_
_atom_site_label
_atom_site_type_symbol
_atom_site_fract_x
_atom_site_fract_y
_atom_site_fract_z
O1 O -0.0806(4) -0.0698(3) 0.30530(9)
H1 H -0.0259(79) -0.0435(58) 0.2739(16)
O2 O 0.3541(4) -0.0313(3) 0.70069(8)
H2 H 0.3538(67) -0.1539(52) 0.6971(14)
C1 C 0.0510(6) 0.0292(5) 0.35313(11)
H3 H 0.0091(70) 0.1685(46) 0.3509(13)
H4 H 0.2214(70) -0.0020(51) 0.3515(14)
C2 C -0.0509(5) -0.0504(4) 0.41186(11)
H5 H -0.0358(74) -0.192(5) 0.4135(13)
H6 H -0.2489(67) -0.0319(51) 0.4146(14)
C3 C 0.0717(5) 0.0426(4) 0.46692(11)
H7 H 0.0304(73) 0.1873(48) 0.4661(13)
H8 H 0.2608(74) 0.0277(54) 0.4676(16)
C4 C -0.0389(5) -0.0403(4) 0.52512(11)
H9 H -0.0116(70) -0.1776(46) 0.5258(13)
H10 H -0.2385(66) -0.0097(49) 0.5279(15)
C5 C 0.0813(5) 0.0454(4) 0.58192(11)
H11 H 0.0825(65) 0.1825(45) 0.5813(12)
H12 H 0.2567(72) 0.0176(51) 0.5832(14)
C6 C -0.0361(5) -0.0410(5) 0.63880(11)
H13 H -0.2134(74) -0.0068(56) 0.6410(15)
H14 H -0.0190(62) -0.1817(42) 0.6360(11)
C7 C 0.0887(5) 0.0283(5) 0.69628(12)
H15 H 0.0910(74) 0.1700(53) 0.6978(14)
H16 H -0.0051(74) -0.0151(50) 0.7330(14)
#END
