####################################################################### 
# 
# This file contains crystal structure data downloaded from the 
# Cambridge Structural Database (CSD) hosted by the Cambridge 
# Crystallographic Data Centre (CCDC).
# 
# Full information about CCDC data access policies and citation 
# guidelines are available at http://www.ccdc.cam.ac.uk/access/V1 
# 
# Audit and citation data items may have been added by the CCDC. 
# Please retain this information to preserve the provenance of 
# this file and to allow appropriate attribution of the data. 
# 
#######################################################################

data_a
_audit_block_doi                 10.5517/ccyddpd
_database_code_depnum_ccdc_archive 'CCDC 875864'
loop_
_citation_id
_citation_doi
_citation_year
1 10.1016/j.inoche.2011.11.039 2012
_audit_update_record             
;
2012-04-12 deposited with the CCDC.	2024-07-12 downloaded from the CCDC.
;

_audit_creation_method           SHELXL-97
_chemical_name_systematic        
;
?
;
_chemical_name_common            ?
_chemical_melting_point          ?
_chemical_formula_moiety         ?
_chemical_formula_sum            'C9 H8 Mg N O13 Zn'
_chemical_formula_weight         427.80

loop_
_atom_type_symbol
_atom_type_description
_atom_type_scat_dispersion_real
_atom_type_scat_dispersion_imag
_atom_type_scat_source
C C 0.0033 0.0016 'International Tables Vol C Tables 4.2.6.8 and 6.1.1.4'
H H 0.0000 0.0000 'International Tables Vol C Tables 4.2.6.8 and 6.1.1.4'
N N 0.0061 0.0033 'International Tables Vol C Tables 4.2.6.8 and 6.1.1.4'
O O 0.0106 0.0060 'International Tables Vol C Tables 4.2.6.8 and 6.1.1.4'
Zn Zn 0.2839 1.4301 'International Tables Vol C Tables 4.2.6.8 and 6.1.1.4'
Mg Mg 0.0486 0.0363 'International Tables Vol C Tables 4.2.6.8 and 6.1.1.4'

_symmetry_cell_setting           Cubic
_symmetry_space_group_name_H-M   P2(1)3

loop_
_symmetry_equiv_pos_as_xyz
'x, y, z'
'-x+1/2, -y, z+1/2'
'-x, y+1/2, -z+1/2'
'x+1/2, -y+1/2, -z'
'z, x, y'
'z+1/2, -x+1/2, -y'
'-z+1/2, -x, y+1/2'
'-z, x+1/2, -y+1/2'
'y, z, x'
'-y, z+1/2, -x+1/2'
'y+1/2, -z+1/2, -x'
'-y+1/2, -z, x+1/2'

_cell_length_a                   14.3286(3)
_cell_length_b                   14.3286(3)
_cell_length_c                   14.3286(3)
_cell_angle_alpha                90.00
_cell_angle_beta                 90.00
_cell_angle_gamma                90.00
_cell_volume                     2941.79(11)
_cell_formula_units_Z            4
_cell_measurement_temperature    293(2)
_cell_measurement_reflns_used    none
_cell_measurement_theta_min      ?
_cell_measurement_theta_max      ?

_exptl_crystal_description       prism
_exptl_crystal_colour            colorless
_exptl_crystal_size_max          .11
_exptl_crystal_size_mid          .09
_exptl_crystal_size_min          .06
_exptl_crystal_density_meas      ?
_exptl_crystal_density_diffrn    0.919
_exptl_crystal_density_method    'not measured'
_exptl_crystal_F_000             808
_exptl_absorpt_coefficient_mu    0.889
_exptl_absorpt_correction_type   none
_exptl_absorpt_correction_T_min  ?
_exptl_absorpt_correction_T_max  ?
_exptl_absorpt_process_details   none

_exptl_special_details           
;
?
;

_diffrn_ambient_temperature      293(2)
_diffrn_radiation_wavelength     0.71073
_diffrn_radiation_type           MoK\a
_diffrn_radiation_source         'fine-focus sealed tube'
_diffrn_radiation_monochromator  graphite
_diffrn_measurement_device_type  'multiwire proportional'
_diffrn_measurement_method       'phi and omega scans'
_diffrn_detector_area_resol_mean none
_diffrn_standards_number         none
_diffrn_standards_interval_count none
_diffrn_standards_interval_time  none
_diffrn_standards_decay_%        none
_diffrn_reflns_number            2393
_diffrn_reflns_av_R_equivalents  0.0313
_diffrn_reflns_av_sigmaI/netI    0.0647
_diffrn_reflns_limit_h_min       -7
_diffrn_reflns_limit_h_max       17
_diffrn_reflns_limit_k_min       -9
_diffrn_reflns_limit_k_max       8
_diffrn_reflns_limit_l_min       -8
_diffrn_reflns_limit_l_max       16
_diffrn_reflns_theta_min         2.46
_diffrn_reflns_theta_max         24.98
_reflns_number_total             1317
_reflns_number_gt                717
_reflns_threshold_expression     >2sigma(I)

_computing_data_collection       'Bruker FRAMBO'
_computing_cell_refinement       'Bruker FRAMBO'
_computing_data_reduction        'Bruker SAINT'
_computing_structure_solution    'SHELXS-97 (Sheldrick, 1990)'
_computing_structure_refinement  'SHELXL-97 (Sheldrick, 1997)'
_computing_molecular_graphics    'Bruker SHELXTL'
_computing_publication_material  'Bruker SHELXTL'

_refine_special_details          
;
Refinement of F^2^ against ALL reflections. The weighted R-factor wR and
goodness of fit S are based on F^2^, conventional R-factors R are based
on F, with F set to zero for negative F^2^. The threshold expression of
F^2^ > 2sigma(F^2^) is used only for calculating R-factors(gt) etc. and is
not relevant to the choice of reflections for refinement. R-factors based
on F^2^ are statistically about twice as large as those based on F, and R-
factors based on ALL data will be even larger.
;

_refine_ls_structure_factor_coef Fsqd
_refine_ls_matrix_type           full
_refine_ls_weighting_scheme      calc
_refine_ls_weighting_details     
'calc w=1/[\s^2^(Fo^2^)+(0.1839P)^2^+0.0000P] where P=(Fo^2^+2Fc^2^)/3'
_atom_sites_solution_primary     direct
_atom_sites_solution_secondary   difmap
_atom_sites_solution_hydrogens   geom
_refine_ls_hydrogen_treatment    none
_refine_ls_extinction_method     none
_refine_ls_extinction_coef       ?
_refine_ls_abs_structure_details 'Flack H D (1983), Acta Cryst. A39, 876-881'
_refine_ls_abs_structure_Flack   0.07(7)
_refine_ls_number_reflns         1317
_refine_ls_number_parameters     70
_refine_ls_number_restraints     0
_refine_ls_R_factor_all          0.1252
_refine_ls_R_factor_gt           0.0881
_refine_ls_wR_factor_ref         0.2564
_refine_ls_wR_factor_gt          0.2370
_refine_ls_goodness_of_fit_ref   0.909
_refine_ls_restrained_S_all      0.909
_refine_ls_shift/su_max          0.004
_refine_ls_shift/su_mean         0.002

loop_
_atom_site_label
_atom_site_type_symbol
_atom_site_fract_x
_atom_site_fract_y
_atom_site_fract_z
_atom_site_U_iso_or_equiv
_atom_site_adp_type
_atom_site_occupancy
_atom_site_symmetry_multiplicity
_atom_site_calc_flag
_atom_site_refinement_flags
_atom_site_disorder_assembly
_atom_site_disorder_group
Zn1 Zn 0.77761(7) 0.72239(7) 0.27761(7) 0.0663(7) Uani 1 3 d S . .
O2 O 0.9297(5) 0.5762(6) 0.2844(5) 0.085(2) Uani 1 1 d . . .
O1 O 0.8094(5) 0.6187(5) 0.1960(5) 0.088(2) Uani 1 1 d . . .
C2 C 0.8977(7) 0.4868(7) 0.1487(7) 0.067(3) Uani 1 1 d . . .
C3 C 0.9695(7) 0.4330(8) 0.1656(8) 0.077(3) Uani 1 1 d . . .
C1 C 0.8828(7) 0.5670(7) 0.2201(11) 0.081(3) Uani 1 1 d . . .
Mg1 Mg 0.9247(2) 0.5753(2) 0.4247(2) 0.0749(17) Uani 1 3 d S . .
O1W O 0.6913(9) 0.8087(9) 0.1913(9) 0.149(7) Uiso 1 3 d S . .
O2W O 0.9174(12) 0.5695(13) 0.5823(11) 0.201(6) Uiso 1 1 d . . .
N1 N 0.865(5) 0.596(4) 0.736(5) 0.19(2) Uiso 0.33 1 d P . .
O3 O 0.916(3) 0.561(3) 0.721(3) 0.125(10) Uiso 0.33 1 d P . .
O4 O 0.884(5) 0.543(4) 0.773(5) 0.22(3) Uiso 0.33 1 d P . .

loop_
_atom_site_aniso_label
_atom_site_aniso_U_11
_atom_site_aniso_U_22
_atom_site_aniso_U_33
_atom_site_aniso_U_23
_atom_site_aniso_U_13
_atom_site_aniso_U_12
Zn1 0.0663(7) 0.0663(7) 0.0663(7) -0.0006(6) 0.0006(6) -0.0006(6)
O2 0.066(4) 0.114(6) 0.075(4) -0.022(5) -0.021(4) -0.028(4)
O1 0.097(5) 0.078(4) 0.090(5) -0.025(4) 0.004(4) -0.006(5)
C2 0.065(5) 0.071(6) 0.064(5) -0.004(5) 0.002(5) 0.023(5)
C3 0.076(7) 0.077(6) 0.078(7) -0.005(6) 0.023(6) 0.004(6)
C1 0.058(5) 0.071(6) 0.115(9) 0.023(8) 0.014(7) -0.003(6)
Mg1 0.0749(17) 0.0749(17) 0.0749(17) 0.0124(18) -0.0124(18) 0.0124(18)

_geom_special_details            
;
All esds (except the esd in the dihedral angle between two l.s. planes)
are estimated using the full covariance matrix. The cell esds are taken
into account individually in the estimation of esds in distances, angles
and torsion angles; correlations between esds in cell parameters are only
used when they are defined by crystal symmetry. An approximate (isotropic)
treatment of cell esds is used for estimating esds involving l.s. planes.
;

loop_
_geom_bond_atom_site_label_1
_geom_bond_atom_site_label_2
_geom_bond_distance
_geom_bond_site_symmetry_2
_geom_bond_publ_flag
Zn1 O1 1.945(7) 12_664 ?
Zn1 O1 1.945(7) . ?
Zn1 O1 1.945(7) 6_566 ?
Zn1 O1W 2.14(2) . ?
O2 C1 1.147(14) . ?
O2 Mg1 2.012(8) . ?
O1 C1 1.332(12) . ?
C2 C3 1.308(14) . ?
C2 C3 1.501(13) 8_645 ?
C2 C1 1.554(15) . ?
C3 C2 1.501(13) 11_556 ?
Mg1 O2 2.012(8) 12_664 ?
Mg1 O2 2.012(8) 6_566 ?
Mg1 O2W 2.262(16) 6_566 ?
Mg1 O2W 2.262(16) . ?
Mg1 O2W 2.262(16) 12_664 ?
N1 O3 0.92(6) . ?
N1 O4 0.98(9) . ?
O3 O4 0.91(7) . ?

loop_
_geom_angle_atom_site_label_1
_geom_angle_atom_site_label_2
_geom_angle_atom_site_label_3
_geom_angle
_geom_angle_site_symmetry_1
_geom_angle_site_symmetry_3
_geom_angle_publ_flag
O1 Zn1 O1 114.90(17) 12_664 . ?
O1 Zn1 O1 114.91(17) 12_664 6_566 ?
O1 Zn1 O1 114.91(17) . 6_566 ?
O1 Zn1 O1W 103.3(2) 12_664 . ?
O1 Zn1 O1W 103.3(2) . . ?
O1 Zn1 O1W 103.2(2) 6_566 . ?
C1 O2 Mg1 141.3(7) . . ?
C1 O1 Zn1 117.0(8) . . ?
C3 C2 C3 121.5(11) . 8_645 ?
C3 C2 C1 114.9(10) . . ?
C3 C2 C1 123.6(9) 8_645 . ?
C2 C3 C2 118.5(11) . 11_556 ?
O2 C1 O1 127.4(12) . . ?
O2 C1 C2 122.2(10) . . ?
O1 C1 C2 110.4(11) . . ?
O2 Mg1 O2 91.7(4) 12_664 6_566 ?
O2 Mg1 O2 91.7(4) 12_664 . ?
O2 Mg1 O2 91.7(4) 6_566 . ?
O2 Mg1 O2W 87.6(5) 12_664 6_566 ?
O2 Mg1 O2W 178.2(5) 6_566 6_566 ?
O2 Mg1 O2W 90.1(5) . 6_566 ?
O2 Mg1 O2W 90.1(5) 12_664 . ?
O2 Mg1 O2W 87.6(5) 6_566 . ?
O2 Mg1 O2W 178.2(5) . . ?
O2W Mg1 O2W 90.7(7) 6_566 . ?
O2 Mg1 O2W 178.1(5) 12_664 12_664 ?
O2 Mg1 O2W 90.1(5) 6_566 12_664 ?
O2 Mg1 O2W 87.6(5) . 12_664 ?
O2W Mg1 O2W 90.7(7) 6_566 12_664 ?
O2W Mg1 O2W 90.7(7) . 12_664 ?
O3 N1 O4 57(6) . . ?
N1 O3 O4 64(6) . . ?
O3 O4 N1 58(6) . . ?

_diffrn_measured_fraction_theta_max 0.996
_diffrn_reflns_theta_full        24.98
_diffrn_measured_fraction_theta_full 0.996
_refine_diff_density_max         0.601
_refine_diff_density_min         -0.427
_refine_diff_density_rms         0.118
