
#######################################################################
#
#                 Cambridge Crystallographic Data Centre
#                                CCDC
#
#######################################################################
#
# If this CIF has been generated from an entry in the Cambridge
# Structural Database, then it will include bibliographic, chemical,
# crystal, experimental, refinement or atomic coordinate data resulting
# from the CCDC's data processing and validation procedures.
#
#######################################################################

data_CSD_CIF_QAXMEH01
_audit_creation_date 2001-04-25
_audit_creation_method CSD-ConQuest-V1
_database_code_CSD QAXMEH01
_database_code_depnum_ccdc_archive 'CCDC 1241884'
_chemical_formula_sum 'C12 H9 N3 O2 S1'
_chemical_formula_moiety
;
C12 H9 N3 O2 S1
;
_journal_coden_Cambridge 4
_journal_volume 122
_journal_year 2000
_journal_page_first 585
_journal_name_full 'J.Am.Chem.Soc. '
loop_
_publ_author_name
"Lian Yu"
"G.A.Stephenson"
"C.A.Mitchell"
"C.A.Bunnell"
"S.V.Snorek"
"J.J.Bowyer"
"T.B.Borchardt"
"J.G.Stowell"
"S.R.Byrn"
_chemical_name_systematic
;
5-Methyl-2-((2-nitrophenyl)amino)-3-thiophenecarbonitrile
;
_chemical_name_common
;
ROY; Teaching Subset: Fundamental Chemistry
;
_chemical_melting_point 382.8
_cell_volume   1190.463
_exptl_crystal_colour 'yellow'
_exptl_crystal_density_diffrn 1.447
_exptl_special_details
;
monoclinic polymorph Y

;
_exptl_crystal_description 'prism'
_exptl_crystal_preparation 'benzyl alcohol solution'
_diffrn_ambient_temperature ?
_diffrn_special_details
;
The study was carried out at room temperature,in the range 283-303K

;
#These two values have been output from a single CSD field.
_refine_ls_R_factor_gt 0.033
_refine_ls_wR_factor_gt 0.033
_symmetry_cell_setting monoclinic
_symmetry_space_group_name_H-M 'P 21/n'
_symmetry_Int_Tables_number 14
loop_
_symmetry_equiv_pos_site_id
_symmetry_equiv_pos_as_xyz
1 x,y,z
2 1/2-x,1/2+y,1/2-z
3 -x,-y,-z
4 -1/2+x,-1/2-y,-1/2+z
_cell_length_a 8.5001(8)
_cell_length_b 16.413(2)
_cell_length_c 8.5371(5)
_cell_angle_alpha 90
_cell_angle_beta 91.767(7)
_cell_angle_gamma 90
_cell_formula_units_Z 4
loop_
_atom_type_symbol
_atom_type_radius_bond
C 0.68
H 0.23
N 0.68
O 0.68
S 1.02
loop_
_atom_site_label
_atom_site_type_symbol
_atom_site_fract_x
_atom_site_fract_y
_atom_site_fract_z
S1 S 0.11894(6) 0.61449(3) 0.29292(6)
O1 O 0.43777(19) 0.68318(10) -0.15027(17)
O2 O 0.6248(2) 0.62476(14) -0.2670(2)
N1 N 0.38831(18) 0.6564(1) 0.14729(18)
N2 N 0.5514(2) 0.63790(11) -0.1483(2)
N3 N 0.5951(2) 0.78134(14) 0.4532(2)
C1 C 0.4803(3) 0.74542(13) 0.4411(2)
C2 C -0.0540(3) 0.62860(14) 0.5643(3)
C3 C 0.5186(2) 0.60709(11) 0.1360(2)
C4 C 0.6011(2) 0.59754(12) -0.0046(2)
C5 C 0.7307(2) 0.54656(14) -0.0121(3)
C6 C 0.7819(3) 0.50358(15) 0.1155(4)
C7 C 0.7037(3) 0.51137(14) 0.2546(3)
C8 C 0.5756(3) 0.56269(13) 0.2648(3)
C9 C 0.2999(2) 0.66102(11) 0.2829(2)
C10 C 0.3369(2) 0.70035(12) 0.4197(2)
C11 C 0.2188(2) 0.69225(12) 0.5341(2)
C12 C 0.0938(2) 0.64807(12) 0.4819(2)
H1 H 0.347(3) 0.6742(13) 0.062(3)
H2 H -0.07700 0.57200 0.55700
H3 H -0.14100 0.65900 0.51900
H4 H -0.04300 0.64300 0.67300
H5 H 0.78400 0.54200 -0.11100
H6 H 0.87300 0.46800 0.10900
H7 H 0.73800 0.48100 0.34600
H8 H 0.52400 0.56800 0.36400
H9 H 0.22600 0.71600 0.63600
#END
