
#######################################################################
#
#                 Cambridge Crystallographic Data Centre
#                                CCDC
#
#######################################################################
#
# If this CIF has been generated from an entry in the Cambridge
# Structural Database, then it will include bibliographic, chemical,
# crystal, experimental, refinement or atomic coordinate data resulting
# from the CCDC's data processing and validation procedures.
#
#######################################################################

data_CSD_CIF_QAXMEH03
_audit_creation_date 2001-04-25
_audit_creation_method CSD-ConQuest-V1
_database_code_CSD QAXMEH03
_database_code_depnum_ccdc_archive 'CCDC 1241886'
_chemical_formula_sum 'C12 H9 N3 O2 S1'
_chemical_formula_moiety
;
C12 H9 N3 O2 S1
;
_journal_coden_Cambridge 4
_journal_volume 122
_journal_year 2000
_journal_page_first 585
_journal_name_full 'J.Am.Chem.Soc. '
loop_
_publ_author_name
"Lian Yu"
"G.A.Stephenson"
"C.A.Mitchell"
"C.A.Bunnell"
"S.V.Snorek"
"J.J.Bowyer"
"T.B.Borchardt"
"J.G.Stowell"
"S.R.Byrn"
_chemical_name_systematic
;
5-Methyl-2-((2-nitrophenyl)amino)-3-thiophenecarbonitrile
;
_chemical_name_common
;
ROY; Teaching Subset: Fundamental Chemistry
;
_chemical_melting_point 385.7
_cell_volume   1199.862
_exptl_crystal_colour 'orange'
_exptl_crystal_density_diffrn 1.435
_exptl_special_details
;
monoclinic polymorph OP

;
_exptl_crystal_description 'plate'
_diffrn_ambient_temperature ?
_diffrn_special_details
;
The study was carried out at room temperature,in the range 283-303K

;
#These two values have been output from a single CSD field.
_refine_ls_R_factor_gt 0.049
_refine_ls_wR_factor_gt 0.049
_symmetry_cell_setting monoclinic
_symmetry_space_group_name_H-M 'P 21/n'
_symmetry_Int_Tables_number 14
loop_
_symmetry_equiv_pos_site_id
_symmetry_equiv_pos_as_xyz
1 x,y,z
2 1/2-x,1/2+y,1/2-z
3 -x,-y,-z
4 -1/2+x,-1/2-y,-1/2+z
_cell_length_a 7.9760(9)
_cell_length_b 13.319(2)
_cell_length_c 11.676(1)
_cell_angle_alpha 90
_cell_angle_beta 104.683(8)
_cell_angle_gamma 90
_cell_formula_units_Z 4
loop_
_atom_type_symbol
_atom_type_radius_bond
C 0.68
H 0.23
N 0.68
O 0.68
S 1.02
loop_
_atom_site_label
_atom_site_type_symbol
_atom_site_fract_x
_atom_site_fract_y
_atom_site_fract_z
S1 S 0.06803(9) 0.83429(5) 0.53744(5)
O1 O 0.1703(3) 0.5409(2) 0.9882(2)
O2 O 0.0735(4) 0.5133(2) 0.8023(2)
N1 N -0.0060(3) 0.6712(2) 0.6615(2)
N2 N 0.0921(3) 0.5685(2) 0.8888(2)
N3 N -0.2251(3) 0.5001(2) 0.4254(2)
C1 C 0.0480(4) 0.9101(2) 0.3109(3)
C2 C -0.1652(3) 0.5782(2) 0.4332(2)
C3 C -0.0320(3) 0.7150(2) 0.7628(2)
C4 C 0.0173(3) 0.6679(2) 0.8741(2)
C5 C -0.0061(4) 0.7151(3) 0.9753(2)
C6 C -0.0793(4) 0.8076(3) 0.9686(3)
C7 C -0.1309(4) 0.8551(2) 0.8602(3)
C8 C -0.1090(4) 0.8099(2) 0.7591(3)
C9 C -0.0203(3) 0.7186(2) 0.5534(2)
C10 C -0.0870(3) 0.6754(2) 0.4456(2)
C11 C -0.0690(3) 0.7369(2) 0.3491(2)
C12 C 0.0107(3) 0.8257(2) 0.3846(2)
H1 H 0.017(4) 0.613(3) 0.661(3)
H2 H 0.0287(4) 0.6829(3) 1.0481(2)
H3 H -0.0945(4) 0.8388(3) 1.0365(3)
H4 H -0.1812(4) 0.9185(2) 0.8554(3)
H5 H -0.1459(4) 0.8429(2) 0.6869(3)
H6 H -0.1080(3) 0.7179(2) 0.2701(2)
H7 H 0.1704(5) 0.923(1) 0.331(1)
H8 H -0.012(2) 0.9692(5) 0.326(1)
H9 H 0.010(2) 0.8925(6) 0.2287(3)
#END
