
#######################################################################
#
#                 Cambridge Crystallographic Data Centre
#                                CCDC
#
#######################################################################
#
# If this CIF has been generated from an entry in the Cambridge
# Structural Database, then it will include bibliographic, chemical,
# crystal, experimental, refinement or atomic coordinate data resulting
# from the CCDC's data processing and validation procedures.
#
#######################################################################

data_CSD_CIF_QAXMEH02
_audit_creation_date 2001-04-25
_audit_creation_method CSD-ConQuest-V1
_database_code_CSD QAXMEH02
_database_code_depnum_ccdc_archive 'CCDC 1241885'
_chemical_formula_sum 'C12 H9 N3 O2 S1'
_chemical_formula_moiety
;
C12 H9 N3 O2 S1
;
_journal_coden_Cambridge 4
_journal_volume 122
_journal_year 2000
_journal_page_first 585
_journal_name_full 'J.Am.Chem.Soc. '
loop_
_publ_author_name
"Lian Yu"
"G.A.Stephenson"
"C.A.Mitchell"
"C.A.Bunnell"
"S.V.Snorek"
"J.J.Bowyer"
"T.B.Borchardt"
"J.G.Stowell"
"S.R.Byrn"
_chemical_name_systematic
;
5-Methyl-2-((2-nitrophenyl)amino)-3-thiophenecarbonitrile
;
_chemical_name_common
;
ROY; Teaching Subset: Fundamental Chemistry
;
_chemical_melting_point 379.2
_cell_volume    598.885
_exptl_crystal_colour 'red'
_exptl_crystal_density_diffrn 1.438
_exptl_special_details
;
triclinic polymorph R

;
_exptl_crystal_description 'prism'
_exptl_crystal_preparation 'benzyl alcohol solution'
_diffrn_ambient_temperature ?
_diffrn_special_details
;
The study was carried out at room temperature,in the range 283-303K

;
#These two values have been output from a single CSD field.
_refine_ls_R_factor_gt 0.036
_refine_ls_wR_factor_gt 0.036
_symmetry_cell_setting triclinic
_symmetry_space_group_name_H-M 'P -1'
_symmetry_Int_Tables_number 2
loop_
_symmetry_equiv_pos_site_id
_symmetry_equiv_pos_as_xyz
1 x,y,z
2 -x,-y,-z
_cell_length_a 7.4918(5)
_cell_length_b 7.7902(5)
_cell_length_c 11.9110(8)
_cell_angle_alpha 75.494(6)
_cell_angle_beta 77.806(6)
_cell_angle_gamma 63.617(6)
_cell_formula_units_Z 2
loop_
_atom_type_symbol
_atom_type_radius_bond
C 0.68
H 0.23
N 0.68
O 0.68
S 1.02
loop_
_atom_site_label
_atom_site_type_symbol
_atom_site_fract_x
_atom_site_fract_y
_atom_site_fract_z
S1 S 0.39377(7) 0.25705(6) 0.65061(4)
O1 O 0.1147(2) 0.61133(19) 1.00515(12)
O2 O 0.1552(2) 0.4020(3) 1.16490(13)
N1 N 0.3257(2) 0.4859(2) 0.81233(13)
N2 N 0.2138(2) 0.4540(2) 1.06374(13)
N3 N 0.0643(4) 0.9778(3) 0.65694(19)
C1 C 0.1315(3) 0.8225(3) 0.63849(17)
C2 C 0.3260(3) 0.2655(3) 0.42661(18)
C3 C 0.4537(2) 0.3439(2) 0.88954(14)
C4 C 0.4035(2) 0.3249(2) 1.01138(15)
C5 C 0.5320(3) 0.1750(3) 1.08777(16)
C6 C 0.7128(3) 0.0444(3) 1.04480(18)
C7 C 0.7678(3) 0.0639(3) 0.92567(18)
C8 C 0.6423(3) 0.2106(2) 0.84979(16)
C9 C 0.3138(2) 0.4719(2) 0.70060(15)
C10 C 0.2167(2) 0.6277(2) 0.61824(15)
C11 C 0.2080(3) 0.5716(3) 0.51479(16)
C12 C 0.2982(3) 0.3781(3) 0.51850(15)
H1 H 0.222(3) 0.574(3) 0.8441(17)
H2 H 0.27300 0.16900 0.45800
H3 H 0.49200 0.16400 1.17100
H4 H 0.80000 -0.05900 1.09700
H5 H 0.89500 -0.02700 0.89600
H6 H 0.68700 0.22300 0.76700
H7 H 0.14400 0.66300 0.44900
H8 H 0.46600 0.19800 0.40200
H9 H 0.26100 0.34900 0.36100
#END
