
#######################################################################
#
#                 Cambridge Crystallographic Data Centre
#                                CCDC
#
#######################################################################
#
# If this CIF has been generated from an entry in the Cambridge
# Structural Database, then it will include bibliographic, chemical,
# crystal, experimental, refinement or atomic coordinate data resulting
# from the CCDC's data processing and validation procedures.
#
#######################################################################

data_CSD_CIF_QAXMEH12
_audit_creation_date 2005-11-10
_audit_creation_method CSD-ConQuest-V1
_database_code_CSD QAXMEH12
_database_code_depnum_ccdc_archive 'CCDC 279198'
_chemical_formula_sum 'C12 H9 N3 O2 S1'
_chemical_formula_moiety
;
C12 H9 N3 O2 S1
;
_journal_coden_Cambridge 4
_journal_volume 127
_journal_year 2005
_journal_page_first 9881
_journal_name_full 'J.Am.Chem.Soc. '
loop_
_publ_author_name
"Shuang Chen"
"I.A.Guzei"
"Lian Yu"
_chemical_name_systematic
;
5-Methyl-2-((2-nitrophenyl)amino)-3-thiophenecarbonitrile
;
_chemical_name_common
;
ROY; Teaching Subset: Fundamental Chemistry
;
_chemical_melting_point 379.9
_cell_volume   1169.365
_exptl_crystal_colour 'yellow'
_exptl_crystal_density_diffrn 1.473
_exptl_special_details
;
monoclinic polymorph YT04

;
_exptl_crystal_description 'prism'
_exptl_crystal_preparation 'ethanol'
_diffrn_ambient_temperature 296
#These two values have been output from a single CSD field.
_refine_ls_R_factor_gt 0.0387
_refine_ls_wR_factor_gt 0.0387
_symmetry_cell_setting monoclinic
_symmetry_space_group_name_H-M 'P 21/n'
_symmetry_Int_Tables_number 14
loop_
_symmetry_equiv_pos_site_id
_symmetry_equiv_pos_as_xyz
1 x,y,z
2 1/2-x,1/2+y,1/2-z
3 -x,-y,-z
4 -1/2+x,-1/2-y,-1/2+z
_cell_length_a 8.2324(4)
_cell_length_b 11.8173(5)
_cell_length_c 12.3121(6)
_cell_angle_alpha 90
_cell_angle_beta 102.505(1)
_cell_angle_gamma 90
_cell_formula_units_Z 4
loop_
_atom_type_symbol
_atom_type_radius_bond
C 0.68
H 0.23
N 0.68
O 0.68
S 1.02
loop_
_atom_site_label
_atom_site_type_symbol
_atom_site_fract_x
_atom_site_fract_y
_atom_site_fract_z
S1 S 0.45890(5) 0.77421(3) 0.03516(3)
O1 O 0.5818(2) 0.87986(12) 0.43263(12)
O2 O 0.5631(2) 0.81456(17) 0.59103(11)
N1 N 0.8255(2) 0.49172(15) 0.28278(14)
N2 N 0.53492(19) 0.74304(11) 0.25958(11)
H1 H 0.57380 0.80810 0.28370
N3 N 0.53831(18) 0.80594(14) 0.48993(12)
C1 C 0.5188(2) 0.70542(16) -0.16984(13)
H2 H 0.58850 0.65580 -0.20140
H3 H 0.54450 0.78260 -0.18380
H4 H 0.40420 0.69040 -0.20310
C2 C 0.54861(19) 0.68583(14) -0.04672(12)
C3 C 0.6467(2) 0.60767(13) 0.01573(12)
H5 H 0.70410 0.55190 -0.01390
C4 C 0.65300(19) 0.61961(12) 0.13195(12)
C5 C 0.7493(2) 0.54912(14) 0.21584(14)
C6 C 0.5568(2) 0.70727(12) 0.15549(12)
C7 C 0.45413(18) 0.67928(13) 0.32564(12)
C8 C 0.45472(19) 0.70683(13) 0.43729(13)
C9 C 0.3712(2) 0.63975(15) 0.50114(13)
H6 H 0.37470 0.65910 0.57480
C10 C 0.2851(2) 0.54671(15) 0.45695(16)
H7 H 0.22870 0.50290 0.49950
C11 C 0.2825(2) 0.51779(15) 0.34715(16)
H8 H 0.22360 0.45420 0.31630
C12 C 0.3656(2) 0.58183(14) 0.28349(13)
H9 H 0.36310 0.55990 0.21060
#END
