
#######################################################################
#
#                 Cambridge Crystallographic Data Centre
#                                CCDC
#
#######################################################################
#
# If this CIF has been generated from an entry in the Cambridge
# Structural Database, then it will include bibliographic, chemical,
# crystal, experimental, refinement or atomic coordinate data resulting
# from the CCDC's data processing and validation procedures.
#
#######################################################################

data_CSD_CIF_QAXMEH05
_audit_creation_date 2001-04-25
_audit_creation_method CSD-ConQuest-V1
_database_code_CSD QAXMEH05
_database_code_depnum_ccdc_archive 'CCDC 1241888'
_chemical_formula_sum 'C12 H9 N3 O2 S1'
_chemical_formula_moiety
;
C12 H9 N3 O2 S1
;
_journal_coden_Cambridge 4
_journal_volume 122
_journal_year 2000
_journal_page_first 585
_journal_name_full 'J.Am.Chem.Soc. '
loop_
_publ_author_name
"Lian Yu"
"G.A.Stephenson"
"C.A.Mitchell"
"C.A.Bunnell"
"S.V.Snorek"
"J.J.Bowyer"
"T.B.Borchardt"
"J.G.Stowell"
"S.R.Byrn"
_chemical_name_systematic
;
5-Methyl-2-((2-nitrophenyl)amino)-3-thiophenecarbonitrile
;
_chemical_name_common
;
ROY; Teaching Subset: Fundamental Chemistry
;
_cell_volume   2409.870
_exptl_crystal_colour 'orange-red'
_exptl_crystal_density_diffrn 1.429
_exptl_special_details
;
orthorhombic polymorph ORP

;
_exptl_crystal_description 'plate'
_diffrn_ambient_temperature ?
_diffrn_special_details
;
The study was carried out at room temperature,in the range 283-303K

;
#These two values have been output from a single CSD field.
_refine_ls_R_factor_gt 0.0512
_refine_ls_wR_factor_gt 0.0512
_symmetry_cell_setting orthorhombic
_symmetry_space_group_name_H-M 'P b c a'
_symmetry_Int_Tables_number 61
loop_
_symmetry_equiv_pos_site_id
_symmetry_equiv_pos_as_xyz
1 x,y,z
2 1/2-x,-y,1/2+z
3 1/2+x,1/2-y,-z
4 -x,1/2+y,1/2-z
5 -x,-y,-z
6 -1/2+x,y,-1/2-z
7 -1/2-x,-1/2+y,z
8 x,-1/2-y,-1/2+z
_cell_length_a 13.177(3)
_cell_length_b 8.0209(18)
_cell_length_c 22.801(5)
_cell_angle_alpha 90
_cell_angle_beta 90
_cell_angle_gamma 90
_cell_formula_units_Z 8
loop_
_atom_type_symbol
_atom_type_radius_bond
C 0.68
H 0.23
N 0.68
O 0.68
S 1.02
loop_
_atom_site_label
_atom_site_type_symbol
_atom_site_fract_x
_atom_site_fract_y
_atom_site_fract_z
S1 S 0.6931(1) 0.0541(1) 0.5280(1)
N1 N 0.6341(2) -0.1575(4) 0.7551(1)
O1 O 0.6446(2) -0.1722(3) 0.8083(1)
O2 O 0.6290(2) -0.2802(3) 0.7223(1)
N2 N 0.6215(3) -0.0920(4) 0.6293(1)
C1 C 0.6272(2) 0.0094(4) 0.7303(1)
C2 C 0.6260(3) 0.1400(5) 0.7698(2)
C3 C 0.6204(2) 0.0357(4) 0.6692(1)
C4 C 0.5799(2) -0.2033(4) 0.5331(1)
C5 C 0.6188(3) 0.3002(6) 0.7499(2)
C6 C 0.6112(3) 0.3290(6) 0.6909(2)
C7 C 0.6235(3) -0.0859(4) 0.5686(1)
C8 C 0.6965(5) 0.0300(7) 0.4064(2)
N3 N 0.4755(3) -0.4391(5) 0.5772(2)
C9 C 0.6027(3) -0.1771(5) 0.4725(2)
C10 C 0.6612(3) -0.0438(5) 0.4629(1)
C11 C 0.6113(3) 0.2016(5) 0.6509(2)
C12 C 0.5207(3) -0.3345(5) 0.5565(2)
H1 H 0.616(2) 0.386(4) 0.7787(12)
H2 H 0.605(2) 0.222(4) 0.6072(13)
H3 H 0.678(2) -0.035(4) 0.3754(15)
H4 H 0.604(3) 0.438(5) 0.6777(14)
H5 H 0.639(3) 0.111(5) 0.8126(16)
H6 H 0.574(2) -0.254(4) 0.4431(11)
H7 H 0.773(4) 0.019(5) 0.4025(17)
H8 H 0.677(5) 0.147(9) 0.403(2)
H9 H 0.625(2) -0.182(4) 0.6440(12)
#END
