
#######################################################################
#
#                 Cambridge Crystallographic Data Centre
#                                CCDC
#
#######################################################################
#
# If this CIF has been generated from an entry in the Cambridge
# Structural Database, then it will include bibliographic, chemical,
# crystal, experimental, refinement or atomic coordinate data resulting
# from the CCDC's data processing and validation procedures.
#
#######################################################################

data_CSD_CIF_QEGZUX
_audit_creation_date 2001-05-08
_audit_creation_method CSD-ConQuest-V1
_database_code_CSD QEGZUX
_database_code_depnum_ccdc_archive 'CCDC 153451'
_chemical_formula_sum 'C18 H24 Cl6 Dy1 N3'
_chemical_formula_moiety
;
3(C6 H8 N1 1+),Cl6 Dy1 3-
;
_journal_coden_Cambridge 29
_journal_volume 627
_journal_year 2001
_journal_page_first 545
_journal_name_full 'Z.Anorg.Allg.Chem. '
loop_
_publ_author_name
"J.Hallfeldt"
"W.Urland"
_chemical_name_systematic
;
tris(3-Methylpyridinium) hexachloro-dysprosium
;
_chemical_name_common
;
Teaching Subset: Fundamental Chemistry
;
_cell_volume  24567.619
_exptl_crystal_colour 'colorless'
_exptl_crystal_density_diffrn 1.6
_exptl_crystal_description 'needles'
_diffrn_ambient_temperature ?
_diffrn_special_details
;
The study was carried out at room temperature,in the range 283-303K

;
#These two values have been output from a single CSD field.
_refine_ls_R_factor_gt 0.0398
_refine_ls_wR_factor_gt 0.0398
_symmetry_cell_setting rhombohedral
_symmetry_space_group_name_H-M 'R 3 c'
_symmetry_Int_Tables_number 161
loop_
_symmetry_equiv_pos_site_id
_symmetry_equiv_pos_as_xyz
1 x,y,z
2 -y,x-y,z
3 -x+y,-x,z
4 -y,-x,1/2+z
5 -x+y,y,1/2+z
6 x,x-y,1/2+z
7 2/3+x,1/3+y,1/3+z
8 2/3-y,1/3+x-y,1/3+z
9 2/3-x+y,1/3-x,1/3+z
10 2/3-y,1/3-x,5/6+z
11 2/3-x+y,1/3+y,5/6+z
12 2/3+x,1/3+x-y,5/6+z
13 1/3+x,2/3+y,2/3+z
14 1/3-y,2/3+x-y,2/3+z
15 1/3-x+y,2/3-x,2/3+z
16 1/3-y,2/3-x,1/6+z
17 1/3-x+y,2/3+y,1/6+z
18 1/3+x,2/3+x-y,1/6+z
_cell_length_a 29.533(3)
_cell_length_b 29.533(3)
_cell_length_c 32.525(4)
_cell_angle_alpha 90
_cell_angle_beta 90
_cell_angle_gamma 120
_cell_formula_units_Z 36
loop_
_atom_type_symbol
_atom_type_radius_bond
C 0.68
H 0.23
Cl 0.99
Dy 1.75
N 0.68
loop_
_atom_site_label
_atom_site_type_symbol
_atom_site_fract_x
_atom_site_fract_y
_atom_site_fract_z
Dy1 Dy 0.746358(18) 0.885170(15) 0.98482(2)
Cl1 Cl 0.81064(10) 0.91873(10) 0.9214(1)
Cl2 Cl 0.82767(12) 0.92899(11) 1.03298(10)
Cl3 Cl 0.68078(11) 0.85199(12) 1.04647(11)
Cl4 Cl 0.74506(9) 0.97562(8) 0.98299(11)
Cl5 Cl 0.66959(11) 0.85038(10) 0.92832(11)
Cl6 Cl 0.74401(9) 0.79602(11) 0.98097(11)
Dy2 Dy 0.080324(17) 0.54266(4) 0.90017(3)
Cl7 Cl 0.07297(9) 0.62949(10) 0.89739(10)
Cl8 Cl 0.08421(10) 0.45633(10) 0.89609(11)
Cl9 Cl 0.00278(11) 0.50032(11) 0.84428(12)
Cl10 Cl 0.01623(11) 0.50863(12) 0.96281(12)
Cl11 Cl 0.14384(11) 0.57964(10) 0.83627(10)
Cl12 Cl 0.16151(11) 0.58952(11) 0.94790(11)
N1 N 0.1845(3) 0.7154(4) 0.8705(4)
H1 H 0.15280 0.69190 0.87590
C1 C 0.2220(6) 0.7053(5) 0.8803(4)
H2 H 0.21340 0.67300 0.89160
C2 C 0.2736(4) 0.7420(4) 0.8738(5)
C3 C 0.3165(6) 0.7318(6) 0.8846(6)
H3 H 0.32570 0.74030 0.91300
H4 H 0.34640 0.75290 0.86770
H5 H 0.30520 0.69550 0.88020
C4 C 0.2824(5) 0.7885(4) 0.8556(5)
H6 H 0.31660 0.81440 0.84980
C5 C 0.2425(6) 0.7969(5) 0.8462(5)
H7 H 0.24970 0.82880 0.83510
C6 C 0.1928(5) 0.7596(5) 0.8527(5)
H8 H 0.16510 0.76440 0.84520
N2 N -0.0554(4) 0.8027(5) 0.9554(4)
H9 H -0.03180 0.79430 0.96000
C7 C -0.0450(4) 0.8499(5) 0.9655(5)
H10 H -0.01320 0.87280 0.97770
C8 C -0.0805(4) 0.8660(4) 0.9582(5)
C9 C -0.0683(6) 0.9203(5) 0.9689(7)
H11 H -0.03110 0.94350 0.96810
H12 H -0.08110 0.92050 0.99600
H13 H -0.08480 0.93180 0.94940
C10 C -0.1275(4) 0.8284(4) 0.9417(5)
H14 H -0.15340 0.83690 0.93700
C11 C -0.1374(5) 0.7801(5) 0.9321(5)
H15 H -0.16960 0.75590 0.92100
C12 C -0.1003(5) 0.7669(5) 0.9386(5)
H16 H -0.10580 0.73400 0.93160
N3 N 0.3911(4) 0.9275(5) 0.7878(4)
H17 H 0.42100 0.93690 0.79880
C13 C 0.3687(6) 0.8859(6) 0.7653(5)
H18 H 0.38510 0.86630 0.76160
C14 C 0.3202(5) 0.8696(6) 0.7463(4)
C15 C 0.2951(6) 0.8224(5) 0.7192(6)
H19 H 0.26200 0.81700 0.70970
H20 H 0.28980 0.79230 0.73450
H21 H 0.31730 0.82750 0.69610
C16 C 0.2981(7) 0.8980(5) 0.7539(5)
H22 H 0.26510 0.88750 0.74300
C17 C 0.3218(7) 0.9415(5) 0.7769(6)
H23 H 0.30620 0.96180 0.78100
C18 C 0.3687(6) 0.9556(6) 0.7942(5)
H24 H 0.38510 0.98530 0.81060
N4 N 0.3802(6) 1.2718(4) 0.4583(4)
H25 H 0.37230 1.24070 0.46570
C19 C 0.4246(5) 1.3007(5) 0.4407(5)
H26 H 0.44670 1.28720 0.43630
C20 C 0.4405(6) 1.3514(5) 0.4279(5)
C21 C 0.4906(8) 1.3838(6) 0.4101(6)
H27 H 0.48860 1.37820 0.38090
H28 H 0.50160 1.41980 0.41550
H29 H 0.51530 1.37540 0.42170
C22 C 0.4078(6) 1.3679(7) 0.4370(6)
H30 H 0.41670 1.40190 0.42990
C23 C 0.3613(11) 1.3371(7) 0.4564(8)
H31 H 0.33980 1.35060 0.46320
C24 C 0.3465(7) 1.2870(7) 0.4656(6)
H32 H 0.31370 1.26440 0.47670
N5 N 0.0680(6) 0.4469(5) 1.0358(5)
H33 H 0.05400 0.46430 1.04510
C25 C 0.1109(7) 0.4714(6) 1.0100(6)
H34 H 0.12350 0.50580 1.00160
C26 C 0.1345(6) 0.4439(6) 0.9971(5)
C27 C 0.1806(7) 0.4701(8) 0.9715(7)
H35 H 0.17680 0.44860 0.94810
H36 H 0.21080 0.47620 0.98710
H37 H 0.18500 0.50300 0.96230
C28 C 0.1150(8) 0.3950(7) 1.0089(6)
H38 H 0.13050 0.37610 1.00010
C29 C 0.0741(11) 0.3728(8) 1.0330(8)
H39 H 0.06200 0.33860 1.04150
C30 C 0.0485(8) 0.3977(6) 1.0462(6)
H40 H 0.01820 0.38040 1.06200
N6 N 0.0545(5) 0.5941(4) 1.0440(4)
H41 H 0.05040 0.56510 1.05340
C31 C 0.0985(5) 0.6253(5) 1.0263(4)
H42 H 0.12420 0.61590 1.02510
C32 C 0.1087(5) 0.6723(5) 1.0092(4)
C33 C 0.1588(6) 0.7074(5) 0.9886(5)
H43 H 0.17170 0.68690 0.97560
H44 H 0.18370 0.73020 1.00850
H45 H 0.15350 0.72780 0.96820
C34 C 0.0704(6) 0.6835(6) 1.0152(5)
H46 H 0.07590 0.71600 1.00690
C35 C 0.0252(10) 0.6502(8) 1.0325(7)
H47 H -0.00160 0.65810 1.03410
C36 C 0.0181(7) 0.6028(7) 1.0485(5)
H48 H -0.01260 0.57910 1.06170
#END
