
#######################################################################
#
#                 Cambridge Crystallographic Data Centre
#                                CCDC
#
#######################################################################
#
# If this CIF has been generated from an entry in the Cambridge
# Structural Database, then it will include bibliographic, chemical,
# crystal, experimental, refinement or atomic coordinate data resulting
# from the CCDC's data processing and validation procedures.
#
#######################################################################

data_CSD_CIF_QEHXEH
_audit_creation_date 2006-09-20
_audit_creation_method CSD-ConQuest-V1
_database_code_CSD QEHXEH
_database_code_depnum_ccdc_archive 'CCDC 286633'
_chemical_formula_sum 'C26 H32 N4 O2'
_chemical_formula_moiety
;
C26 H32 N4 O2
;
_journal_coden_Cambridge 1220
_journal_volume 12
_journal_year 2006
_journal_page_first 4393
_journal_name_full 'Chem.-Eur.J. '
loop_
_publ_author_name
"Li Shen"
"Yong-Hao Ye"
"Xiao-Ting Wang"
"Hai-Liang Zhu"
"Chen Xu"
"Yong-Cun Song"
"Hai Li"
"Ren-Xiang Tan"
_chemical_name_systematic
;
1,4-bis(2-(3,4-Dihydro-2H-quinolin-1-yl)-2-oxoethyl)piperazine
;
_chemical_name_common
;
Aspernigerin; Teaching Subset: Symmetry
;
_chemical_melting_point 459
_cell_volume   1139.914
_exptl_crystal_colour 'colorless'
_exptl_crystal_density_diffrn 1.26
_exptl_special_details
;
Melting point range 459-461K
cytotoxic activity against the tumour cell lines nasopharynyeal epidermoid 
KB, cervical carcinoma Hela and colorectal carcinoma SW1116
;
_exptl_crystal_preparation 'methanol'
_diffrn_ambient_temperature 293
#These two values have been output from a single CSD field.
_refine_ls_R_factor_gt 0.047
_refine_ls_wR_factor_gt 0.047
_chemical_compound_source
;
Aspergillus niger IFB-E003
;
_symmetry_cell_setting monoclinic
_symmetry_space_group_name_H-M 'P 21/c'
_symmetry_Int_Tables_number 14
loop_
_symmetry_equiv_pos_site_id
_symmetry_equiv_pos_as_xyz
1 x,y,z
2 -x,1/2+y,1/2-z
3 -x,-y,-z
4 x,-1/2-y,-1/2+z
_cell_length_a 8.1567(16)
_cell_length_b 17.152(3)
_cell_length_c 8.6908(17)
_cell_angle_alpha 90
_cell_angle_beta 110.36(3)
_cell_angle_gamma 90
_cell_formula_units_Z 2
loop_
_atom_type_symbol
_atom_type_radius_bond
C 0.68
H 0.23
N 0.68
O 0.68
loop_
_atom_site_label
_atom_site_type_symbol
_atom_site_fract_x
_atom_site_fract_y
_atom_site_fract_z
N1 N 0.32723(15) 0.34055(7) 0.39354(15)
N2 N 0.10688(16) 0.43275(7) 0.53029(14)
O1 O 0.52680(17) 0.35514(10) 0.64567(17)
C1 C 0.4668(2) 0.33514(11) 0.3220(2)
H1 H 0.49550 0.28070 0.31500
H2 H 0.57070 0.36100 0.39450
C2 C 0.4161(2) 0.37107(13) 0.1546(3)
H3 H 0.38550 0.33010 0.07260
H4 H 0.51560 0.39910 0.14530
C3 C 0.2630(2) 0.42662(11) 0.1207(2)
H5 H 0.29440 0.46990 0.19720
H6 H 0.23040 0.44720 0.01010
C4 C -0.0551(2) 0.37967(11) 0.02640(19)
H7 H -0.08370 0.41040 -0.06750
C5 C -0.1806(2) 0.33264(12) 0.0504(2)
H8 H -0.29390 0.33270 -0.02550
C6 C -0.1390(2) 0.28557(11) 0.1862(2)
H9 H -0.22360 0.25310 0.20110
C7 C 0.0281(2) 0.28632(9) 0.3008(2)
H10 H 0.05720 0.25350 0.39150
C8 C 0.15188(18) 0.33609(8) 0.28022(18)
C9 C 0.11349(19) 0.38199(9) 0.14015(18)
C10 C 0.3734(2) 0.35609(10) 0.5555(2)
C11 C 0.2323(2) 0.37564(11) 0.6259(2)
H11 H 0.17040 0.32820 0.63270
H12 H 0.28730 0.39540 0.73660
C12 C 0.1812(2) 0.51018(10) 0.5428(2)
H13 H 0.28610 0.50840 0.51430
H14 H 0.21340 0.52870 0.65490
C13 C -0.0507(2) 0.43483(9) 0.5710(2)
H15 H -0.02280 0.45200 0.68360
H16 H -0.10070 0.38300 0.56100
N1B N -0.32723(15) 0.65945(7) 0.60646(15)
N2B N -0.10688(16) 0.56725(7) 0.46971(14)
O1B O -0.52680(17) 0.64486(10) 0.35433(17)
C1B C -0.4668(2) 0.66486(11) 0.6780(2)
H1B H -0.49550 0.71930 0.68500
H2B H -0.57070 0.63900 0.60550
C2B C -0.4161(2) 0.62893(13) 0.8454(3)
H3B H -0.38550 0.66990 0.92740
H4B H -0.51560 0.60090 0.85470
C3B C -0.2630(2) 0.57338(11) 0.8793(2)
H5B H -0.29440 0.53010 0.80280
H6B H -0.23040 0.55280 0.98990
C4B C 0.0551(2) 0.62033(11) 0.97360(19)
H7B H 0.08370 0.58960 1.06750
C5B C 0.1806(2) 0.66736(12) 0.9496(2)
H8B H 0.29390 0.66730 1.02550
C6B C 0.1390(2) 0.71443(11) 0.8138(2)
H9B H 0.22360 0.74690 0.79890
C7B C -0.0281(2) 0.71368(9) 0.6992(2)
H10B H -0.05720 0.74650 0.60850
C8B C -0.15188(18) 0.66391(8) 0.71978(18)
C9B C -0.11349(19) 0.61801(9) 0.85985(18)
C10B C -0.3734(2) 0.64391(10) 0.4445(2)
C11B C -0.2323(2) 0.62436(11) 0.3741(2)
H11B H -0.17040 0.67180 0.36730
H12B H -0.28730 0.60460 0.26340
C12B C -0.1812(2) 0.48982(10) 0.4572(2)
H13B H -0.28610 0.49160 0.48570
H14B H -0.21340 0.47130 0.34510
C13B C 0.0507(2) 0.56517(9) 0.4290(2)
H15B H 0.02280 0.54800 0.31640
H16B H 0.10070 0.61700 0.43900
#END
