
#######################################################################
#
#                 Cambridge Crystallographic Data Centre
#                                CCDC
#
#######################################################################
#
# If this CIF has been generated from an entry in the Cambridge
# Structural Database, then it will include bibliographic, chemical,
# crystal, experimental, refinement or atomic coordinate data resulting
# from the CCDC's data processing and validation procedures.
#
#######################################################################

data_CSD_CIF_QEKBAK
_audit_creation_date 2006-09-20
_audit_creation_method CSD-ConQuest-V1
_database_code_CSD QEKBAK
_database_code_depnum_ccdc_archive 'CCDC 293304'
_chemical_formula_sum 'C6 H6 Cl3 Cu4 N9 O1'
_chemical_formula_moiety
;
(C6 H6 Cl3 Cu4 N9 O1)n
;
_journal_coden_Cambridge 1147
_journal_volume 6
_journal_year 2006
_journal_page_first 1393
_journal_name_full 'Cryst.Growth Des. '
loop_
_publ_author_name
"Quan-Guo Zhai"
"Can-Zhong Lu"
"Shu-Mei Chen"
"Xin-Jiang Xu"
"Wen-Bin Yang"
_chemical_name_systematic
;
catena-((\m~3~-oxo)-tris(\m~3~-1,2,4-triazole)-trichloro-tetra-copper(ii))
;
_chemical_name_common
;
Teaching Subset: MOFs
;
_cell_volume    697.494
_exptl_crystal_colour 'dark blue'
_exptl_crystal_density_diffrn 2.765
_exptl_crystal_description 'dodecahedron'
_diffrn_ambient_temperature 293
#These two values have been output from a single CSD field.
_refine_ls_R_factor_gt 0.0432
_refine_ls_wR_factor_gt 0.0432
_symmetry_cell_setting hexagonal
_symmetry_space_group_name_H-M 'P 63/m m c'
_symmetry_Int_Tables_number 194
loop_
_symmetry_equiv_pos_site_id
_symmetry_equiv_pos_as_xyz
1 x,y,z
2 -y,x-y,z
3 -x+y,-x,z
4 y,-x+y,1/2+z
5 x-y,x,1/2+z
6 y,x,-z
7 -x+y,y,1/2-z
8 x,x-y,1/2-z
9 -x,-y,1/2+z
10 x-y,-y,-z
11 -x,-x+y,-z
12 -y,-x,1/2-z
13 -x,-y,-z
14 y,-x+y,-z
15 x-y,x,-z
16 -y,x-y,-1/2-z
17 -x+y,-x,-1/2-z
18 -y,-x,z
19 x-y,-y,-1/2+z
20 -x,-x+y,-1/2+z
21 x,y,-1/2-z
22 -x+y,y,z
23 x,x-y,z
24 y,x,-1/2+z
_cell_length_a 11.6208(7)
_cell_length_b 11.6208(7)
_cell_length_c 5.9640(8)
_cell_angle_alpha 90
_cell_angle_beta 90
_cell_angle_gamma 120
_cell_formula_units_Z 2
loop_
_atom_type_symbol
_atom_type_radius_bond
C 0.68
H 0.23
Cl 0.99
Cu 1.28
N 0.68
O 0.68
loop_
_atom_site_label
_atom_site_type_symbol
_atom_site_fract_x
_atom_site_fract_y
_atom_site_fract_z
Cu1 Cu 0.56655(5) 0.43345(5) 0.25000
Cu2 Cu 0.00000 0.00000 0.25000
N1 N 0.4044(5) 0.2613(4) 0.25000
N2 N 0.1953(7) 0.0977(3) 0.25000
O1 O 0.66670 0.33330 0.25000
Cl1 Cl 0.44996(10) 0.55004(10) 0.25000
C1 C 0.2790(5) 0.2299(6) 0.25000
H1 H 0.25110 0.29220 0.25000
Cu1A Cu 0.56655(5) 0.13310(5) 0.25000
Cu1A* Cu -0.43345(5) 0.13310(5) 0.25000
Cu1B Cu 0.86690(5) 0.43345(5) 0.25000
Cu1B* Cu -0.13310(5) 0.43345(5) 0.25000
Cu1B** Cu -0.13310(5) -0.56655(5) 0.25000
Cu1* Cu -0.43345(5) -0.56655(5) 0.25000
N1G N 0.4044(5) 0.1431(4) 0.25000
N1A N -0.2613(5) 0.1431(4) 0.25000
N1F N -0.1431(5) 0.2613(4) 0.25000
N1B N -0.1431(5) -0.4044(4) 0.25000
N1Q N -0.2613(5) -0.4044(4) 0.25000
N1Q* N 0.7387(5) 0.5956(4) 0.25000
N1A* N 0.7387(5) 0.1431(4) 0.25000
N1G* N -0.5956(5) 0.1431(4) 0.25000
N2A N -0.0977(7) 0.0976(3) 0.25000
N2B N -0.0976(7) -0.1953(3) 0.25000
O1* O -0.33330 0.33330 0.25000
Cl1A Cl 0.44996(10) -0.10008(10) 0.25000
Cl1A* Cl -0.55004(10) -0.10008(10) 0.25000
C1G C 0.2790(5) 0.0491(6) 0.25000
C1A C -0.2299(5) 0.0491(6) 0.25000
C1F C -0.0491(5) 0.2299(6) 0.25000
C1B C -0.0491(5) -0.2790(6) 0.25000
C1Q C -0.2299(5) -0.2790(6) 0.25000
H1G H 0.25110 -0.04110 0.25000
H1A H -0.29220 -0.04110 0.25000
H1F H 0.04110 0.29220 0.25000
H1B H 0.04110 -0.25110 0.25000
H1Q H -0.29220 -0.25110 0.25000
#END
