####################################################################### 
# 
# This file contains crystal structure data downloaded from the 
# Cambridge Structural Database (CSD) hosted by the Cambridge 
# Crystallographic Data Centre (CCDC).
# 
# Full information about CCDC data access policies and citation 
# guidelines are available at http://www.ccdc.cam.ac.uk/access/V1 
# 
# Audit and citation data items may have been added by the CCDC. 
# Please retain this information to preserve the provenance of 
# this file and to allow appropriate attribution of the data. 
# 
#######################################################################

data_ba2pyso3
_audit_block_doi                 10.5517/cc5cyyd
_database_code_depnum_ccdc_archive 'CCDC 160454'
loop_
_citation_id
_citation_doi
_citation_year
1 10.1021/ic000733k 2001
_audit_update_record             
;
2001-03-16 deposited with the CCDC.	2024-07-12 downloaded from the CCDC.
;

_audit_creation_method           SHELXL-97
_chemical_name_systematic        
; 
? 
;
_chemical_name_common            ?
_chemical_melting_point          ?
_chemical_formula_moiety         ?
_chemical_formula_sum            'C32 H52 Ba2 N4 O18 S4'
_chemical_formula_weight         1183.70

loop_
_atom_type_symbol
_atom_type_description
_atom_type_scat_dispersion_real
_atom_type_scat_dispersion_imag
_atom_type_scat_source
C C 0.0033 0.0016 'International Tables Vol C Tables 4.2.6.8 and 6.1.1.4'
H H 0.0000 0.0000 'International Tables Vol C Tables 4.2.6.8 and 6.1.1.4'
O O 0.0106 0.0060 'International Tables Vol C Tables 4.2.6.8 and 6.1.1.4'
N N 0.0061 0.0033 'International Tables Vol C Tables 4.2.6.8 and 6.1.1.4'
S S 0.1246 0.1234 'International Tables Vol C Tables 4.2.6.8 and 6.1.1.4'
Ba Ba -0.3244 2.2819 'International Tables Vol C Tables 4.2.6.8 and 6.1.1.4'

_symmetry_cell_setting           ?
_symmetry_space_group_name_H-M   ?

loop_
_symmetry_equiv_pos_as_xyz
'x, y, z'
'-x, y+1/2, -z+1/2'
'-x, -y, -z'
'x, -y-1/2, z-1/2'

_cell_length_a                   9.6932(5)
_cell_length_b                   21.4518(12)
_cell_length_c                   21.1781(12)
_cell_angle_alpha                90.00
_cell_angle_beta                 97.8660(10)
_cell_angle_gamma                90.00
_cell_volume                     4362.3(4)
_cell_formula_units_Z            4
_cell_measurement_temperature    293(2)
_cell_measurement_reflns_used    ?
_cell_measurement_theta_min      ?
_cell_measurement_theta_max      ?

_exptl_crystal_description       ?
_exptl_crystal_colour            ?
_exptl_crystal_size_max          ?
_exptl_crystal_size_mid          ?
_exptl_crystal_size_min          ?
_exptl_crystal_density_meas      ?
_exptl_crystal_density_diffrn    1.802
_exptl_crystal_density_method    'not measured'
_exptl_crystal_F_000             2368
_exptl_absorpt_coefficient_mu    2.062
_exptl_absorpt_correction_type   ?
_exptl_absorpt_correction_T_min  ?
_exptl_absorpt_correction_T_max  ?
_exptl_absorpt_process_details   ?

_exptl_special_details           
; 
? 
;

_diffrn_ambient_temperature      293(2)
_diffrn_radiation_wavelength     0.71073
_diffrn_radiation_type           MoK\a
_diffrn_radiation_source         'fine-focus sealed tube'
_diffrn_radiation_monochromator  graphite
_diffrn_measurement_device_type  ?
_diffrn_measurement_method       ?
_diffrn_detector_area_resol_mean ?
_diffrn_standards_number         ?
_diffrn_standards_interval_count ?
_diffrn_standards_interval_time  ?
_diffrn_standards_decay_%        ?
_diffrn_reflns_number            51550
_diffrn_reflns_av_R_equivalents  0.0998
_diffrn_reflns_av_sigmaI/netI    0.0967
_diffrn_reflns_limit_h_min       -13
_diffrn_reflns_limit_h_max       13
_diffrn_reflns_limit_k_min       -28
_diffrn_reflns_limit_k_max       28
_diffrn_reflns_limit_l_min       -28
_diffrn_reflns_limit_l_max       28
_diffrn_reflns_theta_min         1.36
_diffrn_reflns_theta_max         28.85
_reflns_number_total             11337
_reflns_number_gt                6875
_reflns_threshold_expression     >2sigma(I)

_computing_data_collection       ?
_computing_cell_refinement       ?
_computing_data_reduction        ?
_computing_structure_solution    'SHELXS-97 (Sheldrick, 1990)'
_computing_structure_refinement  'SHELXL-97 (Sheldrick, 1997)'
_computing_molecular_graphics    ?
_computing_publication_material  ?

_refine_special_details          
; 
Refinement of F^2^ against ALL reflections.  The weighted R-factor wR and 
goodness of fit S are based on F^2^, conventional R-factors R are based 
on F, with F set to zero for negative F^2^. The threshold expression of 
F^2^ > 2sigma(F^2^) is used only for calculating R-factors(gt) etc. and is 
not relevant to the choice of reflections for refinement.  R-factors based 
on F^2^ are statistically about twice as large as those based on F, and R- 
factors based on ALL data will be even larger. 
;

_refine_ls_structure_factor_coef Fsqd
_refine_ls_matrix_type           full
_refine_ls_weighting_scheme      calc
_refine_ls_weighting_details     
'calc w=1/[\s^2^(Fo^2^)+(0.0702P)^2^+0.0000P] where P=(Fo^2^+2Fc^2^)/3'
_atom_sites_solution_primary     direct
_atom_sites_solution_secondary   difmap
_atom_sites_solution_hydrogens   geom
_refine_ls_hydrogen_treatment    mixed
_refine_ls_extinction_method     none
_refine_ls_extinction_coef       ?
_refine_ls_number_reflns         11337
_refine_ls_number_parameters     541
_refine_ls_number_restraints     0
_refine_ls_R_factor_all          0.1106
_refine_ls_R_factor_gt           0.0541
_refine_ls_wR_factor_ref         0.1393
_refine_ls_wR_factor_gt          0.1211
_refine_ls_goodness_of_fit_ref   0.980
_refine_ls_restrained_S_all      0.980
_refine_ls_shift/su_max          0.155
_refine_ls_shift/su_mean         0.006

loop_
_atom_site_label
_atom_site_type_symbol
_atom_site_fract_x
_atom_site_fract_y
_atom_site_fract_z
_atom_site_U_iso_or_equiv
_atom_site_adp_type
_atom_site_occupancy
_atom_site_symmetry_multiplicity
_atom_site_calc_flag
_atom_site_refinement_flags
_atom_site_disorder_assembly
_atom_site_disorder_group
Ba1 Ba 0.27205(2) 0.068948(9) 0.076187(9) 0.01563(5) Uani 1 1 d . . .
Ba2 Ba 0.21979(2) -0.075212(9) -0.085654(9) 0.01608(5) Uani 1 1 d . . .
S1 S 0.13219(10) -0.02918(4) -0.24489(4) 0.0205(2) Uani 1 1 d . . .
S2 S 0.27608(10) 0.24657(4) 0.02687(4) 0.0224(2) Uani 1 1 d . . .
S3 S 0.54228(8) -0.06659(4) 0.06135(4) 0.01312(18) Uani 1 1 d . . .
S4 S 0.04560(9) -0.06432(4) 0.06379(4) 0.01409(19) Uani 1 1 d . . .
N1 N 0.1019(5) -0.1736(2) -0.4436(2) 0.0665(15) Uani 1 1 d . . .
N2 N 0.4221(5) 0.3988(2) 0.2079(2) 0.0732(15) Uani 1 1 d . . .
N3 N 0.3359(5) -0.2227(2) 0.2084(2) 0.0656(14) Uani 1 1 d . . .
N4 N -0.0312(5) -0.16533(19) 0.26388(19) 0.0569(13) Uani 1 1 d . . .
O1 O 0.0707(3) -0.08099(12) -0.21313(11) 0.0293(7) Uani 1 1 d . . .
O2 O 0.0310(3) 0.01364(13) -0.27531(12) 0.0363(8) Uani 1 1 d . . .
O3 O 0.2433(3) -0.00023(11) -0.20035(11) 0.0255(7) Uani 1 1 d . . .
O4 O 0.2846(3) 0.26058(14) -0.03883(13) 0.0493(9) Uani 1 1 d . . .
O5 O 0.3415(3) 0.18733(11) 0.04654(12) 0.0277(7) Uani 1 1 d . . .
O6 O 0.1365(3) 0.25208(12) 0.04364(13) 0.0309(7) Uani 1 1 d . . .
O7 O 0.4633(2) -0.08297(11) 0.00006(10) 0.0205(6) Uani 1 1 d . . .
O8 O 0.4713(2) -0.02224(10) 0.09839(10) 0.0173(6) Uani 1 1 d . . .
O9 O 0.3167(2) 0.04512(10) -0.05293(10) 0.0176(6) Uani 1 1 d . . .
O10 O 0.0006(3) -0.00511(10) 0.08792(11) 0.0213(6) Uani 1 1 d . . .
O11 O 0.0545(2) 0.09256(11) -0.01476(10) 0.0212(6) Uani 1 1 d . . .
O12 O 0.1836(2) -0.05724(11) 0.04292(11) 0.0205(6) Uani 1 1 d . . .
O13 O 0.0298(3) 0.14724(11) 0.10285(11) 0.0223(6) Uani 1 1 d . . .
O14 O 0.5363(2) 0.09525(11) 0.15281(11) 0.0206(6) Uani 1 1 d . . .
O15 O 0.2280(3) 0.05440(13) 0.20148(12) 0.0329(8) Uani 1 1 d . . .
O16 O 0.3401(3) -0.19401(11) -0.07506(12) 0.0287(7) Uani 1 1 d . . .
O17 O 0.8244(7) 0.5588(3) 0.0221(2) 0.086(2) Uani 0.70 1 d P . .
O18 O 0.7178(9) 0.5219(4) -0.0689(3) 0.139(3) Uani 0.70 1 d P . .
C1 C 0.1819(4) -0.13212(19) -0.40447(18) 0.0304(11) Uani 1 1 d . . .
C2 C 0.3228(5) -0.1298(2) -0.4110(2) 0.0478(14) Uani 1 1 d . . .
H2 H 0.3825 -0.1031 -0.3857 0.057 Uiso 1 1 calc R . .
C3 C 0.3726(5) -0.1673(2) -0.4553(2) 0.0521(15) Uani 1 1 d . . .
H3 H 0.4669 -0.1646 -0.4590 0.063 Uiso 1 1 calc R . .
C4 C 0.2985(4) -0.20630(18) -0.49227(17) 0.0274(10) Uani 1 1 d . . .
H4 H 0.3371 -0.2307 -0.5216 0.033 Uiso 1 1 calc R . .
C5 C 0.1654(5) -0.2095(2) -0.4860(2) 0.0481(14) Uani 1 1 d . . .
H5 H 0.1102 -0.2376 -0.5117 0.058 Uiso 1 1 calc R . .
C6 C 0.1179(4) -0.0948(2) -0.35651(19) 0.0383(12) Uani 1 1 d . . .
H6A H 0.0585 -0.1223 -0.3357 0.046 Uiso 1 1 calc R . .
H6B H 0.0585 -0.0633 -0.3791 0.046 Uiso 1 1 calc R . .
C7 C 0.2160(4) -0.06289(18) -0.30591(16) 0.0283(10) Uani 1 1 d . . .
H7A H 0.2655 -0.0305 -0.3256 0.034 Uiso 1 1 calc R . .
H7B H 0.2843 -0.0929 -0.2869 0.034 Uiso 1 1 calc R . .
C8 C 0.4739(6) 0.3611(3) 0.1646(3) 0.097(2) Uani 1 1 d . . .
C9 C 0.6112(6) 0.3717(3) 0.1531(3) 0.095(2) Uani 1 1 d . . .
H9 H 0.6492 0.3476 0.1232 0.114 Uiso 1 1 calc R . .
C10 C 0.6889(5) 0.4177(3) 0.1861(2) 0.0663(17) Uani 1 1 d . . .
H10 H 0.7788 0.4249 0.1771 0.080 Uiso 1 1 calc R . .
C11 C 0.6414(4) 0.45201(18) 0.23000(17) 0.0295(10) Uani 1 1 d . . .
H11 H 0.6966 0.4823 0.2525 0.035 Uiso 1 1 calc R . .
C12 C 0.5139(5) 0.44192(19) 0.24067(19) 0.0382(12) Uani 1 1 d . . .
H12 H 0.4815 0.4652 0.2726 0.046 Uiso 1 1 calc R . .
C13 C 0.3897(6) 0.3037(3) 0.1336(3) 0.074(2) Uani 1 1 d . . .
H13A H 0.4363 0.2655 0.1489 0.089 Uiso 1 1 calc R . .
H13B H 0.2974 0.3036 0.1464 0.089 Uiso 1 1 calc R . .
C14 C 0.3784(5) 0.3056(2) 0.0686(2) 0.0536(15) Uani 1 1 d . . .
H14A H 0.4714 0.3034 0.0567 0.064 Uiso 1 1 calc R . .
H14B H 0.3395 0.3457 0.0544 0.064 Uiso 1 1 calc R . .
C15 C 0.4394(4) -0.21478(17) 0.16812(17) 0.0240(9) Uani 1 1 d . . .
C16 C 0.5494(4) -0.25725(18) 0.1749(2) 0.0373(12) Uani 1 1 d . . .
H16 H 0.6205 -0.2538 0.1498 0.045 Uiso 1 1 calc R . .
C17 C 0.5515(5) -0.30437(19) 0.2193(2) 0.0394(12) Uani 1 1 d . . .
H17 H 0.6262 -0.3320 0.2234 0.047 Uiso 1 1 calc R . .
C18 C 0.4541(4) -0.31276(15) 0.25643(16) 0.0228(9) Uani 1 1 d . . .
H18 H 0.4598 -0.3454 0.2856 0.027 Uiso 1 1 calc R . .
C19 C 0.3493(5) -0.2737(2) 0.2508(2) 0.0470(13) Uani 1 1 d . . .
H19 H 0.2796 -0.2800 0.2763 0.056 Uiso 1 1 calc R . .
C20 C 0.4246(4) -0.16270(16) 0.12052(17) 0.0235(9) Uani 1 1 d . . .
H20A H 0.3700 -0.1296 0.1361 0.028 Uiso 1 1 calc R . .
H20B H 0.3739 -0.1778 0.0808 0.028 Uiso 1 1 calc R . .
C21 C 0.5643(4) -0.13597(15) 0.10746(15) 0.0180(8) Uani 1 1 d . . .
H21A H 0.6123 -0.1668 0.0850 0.022 Uiso 1 1 calc R . .
H21B H 0.6217 -0.1271 0.1477 0.022 Uiso 1 1 calc R . .
C22 C -0.0637(4) -0.18252(16) 0.19958(16) 0.0220(9) Uani 1 1 d . . .
C23 C -0.0845(4) -0.24455(17) 0.18618(18) 0.0281(10) Uani 1 1 d . . .
H23 H -0.1069 -0.2577 0.1442 0.034 Uiso 1 1 calc R . .
C24 C -0.0722(5) -0.28750(19) 0.2351(2) 0.0418(13) Uani 1 1 d . . .
H24 H -0.0865 -0.3294 0.2248 0.050 Uiso 1 1 calc R . .
C25 C -0.0414(4) -0.27232(16) 0.29553(15) 0.0213(9) Uani 1 1 d . . .
H25 H -0.0345 -0.3023 0.3275 0.026 Uiso 1 1 calc R . .
C26 C -0.0210(5) -0.2133(2) 0.30867(19) 0.0401(13) Uani 1 1 d . . .
H26 H 0.0023 -0.2024 0.3513 0.048 Uiso 1 1 calc R . .
C27 C -0.0770(4) -0.13313(17) 0.14774(17) 0.0244(9) Uani 1 1 d . . .
H27A H -0.1184 -0.0959 0.1630 0.029 Uiso 1 1 calc R . .
H27B H -0.1381 -0.1482 0.1108 0.029 Uiso 1 1 calc R . .
C28 C 0.0652(3) -0.11698(15) 0.12829(15) 0.0167(8) Uani 1 1 d . . .
H28A H 0.1102 -0.1547 0.1162 0.020 Uiso 1 1 calc R . .
H28B H 0.1240 -0.0985 0.1642 0.020 Uiso 1 1 calc R . .
C29 C 0.7187(10) 0.5731(5) 0.1130(5) 0.130(5) Uani 0.70 1 d P . .
H29A H 0.6435 0.5633 0.1364 0.156 Uiso 0.70 1 calc PR . .
H29B H 0.7187 0.6171 0.1045 0.156 Uiso 0.70 1 calc PR . .
H29C H 0.8055 0.5616 0.1376 0.156 Uiso 0.70 1 calc PR . .
C30 C 0.7006(11) 0.5378(5) 0.0510(4) 0.096(4) Uani 0.70 1 d P . .
H30A H 0.7022 0.4931 0.0580 0.115 Uiso 0.70 1 calc PR . .
H30B H 0.6145 0.5491 0.0245 0.115 Uiso 0.70 1 calc PR . .
C31 C 0.8271(11) 0.5463(4) -0.0350(4) 0.087(3) Uani 0.70 1 d P . .
C32 C 0.9477(12) 0.5733(4) -0.0657(4) 0.105(4) Uani 0.70 1 d P . .
H32A H 0.9388 0.5607 -0.1095 0.126 Uiso 0.70 1 calc PR . .
H32B H 1.0343 0.5581 -0.0436 0.126 Uiso 0.70 1 calc PR . .
H32C H 0.9458 0.6179 -0.0632 0.126 Uiso 0.70 1 calc PR . .

loop_
_atom_site_aniso_label
_atom_site_aniso_U_11
_atom_site_aniso_U_22
_atom_site_aniso_U_33
_atom_site_aniso_U_23
_atom_site_aniso_U_13
_atom_site_aniso_U_12
Ba1 0.01283(9) 0.01670(9) 0.01752(8) -0.00034(8) 0.00267(7) 0.00057(8)
Ba2 0.01284(10) 0.01723(9) 0.01825(9) -0.00132(8) 0.00240(7) 0.00110(9)
S1 0.0200(4) 0.0227(4) 0.0196(4) -0.0007(3) 0.0049(4) 0.0019(4)
S2 0.0194(4) 0.0197(4) 0.0292(4) 0.0002(4) 0.0078(4) -0.0019(4)
S3 0.0111(4) 0.0141(4) 0.0146(3) 0.0010(3) 0.0033(3) 0.0010(3)
S4 0.0113(4) 0.0160(4) 0.0155(3) 0.0026(3) 0.0038(3) 0.0012(3)
N1 0.059(3) 0.077(3) 0.064(3) -0.025(2) 0.007(2) -0.003(3)
N2 0.054(3) 0.092(3) 0.076(3) -0.041(3) 0.017(2) -0.006(3)
N3 0.047(3) 0.082(3) 0.072(3) 0.036(2) 0.022(2) 0.005(2)
N4 0.069(3) 0.051(2) 0.054(2) 0.007(2) 0.020(2) 0.002(2)
O1 0.0319(15) 0.0318(14) 0.0259(12) -0.0040(11) 0.0101(11) -0.0073(12)
O2 0.0387(17) 0.0362(15) 0.0321(14) -0.0029(12) -0.0020(13) 0.0154(13)
O3 0.0223(14) 0.0281(13) 0.0269(12) -0.0040(11) 0.0063(11) -0.0043(11)
O4 0.056(2) 0.0557(19) 0.0414(16) 0.0216(14) 0.0236(14) 0.0169(16)
O5 0.0226(14) 0.0242(13) 0.0361(14) -0.0003(11) 0.0033(12) -0.0013(11)
O6 0.0181(14) 0.0324(14) 0.0432(15) 0.0047(12) 0.0074(12) 0.0010(12)
O7 0.0195(13) 0.0229(12) 0.0181(11) -0.0013(10) -0.0009(10) 0.0015(11)
O8 0.0147(12) 0.0176(11) 0.0206(11) -0.0038(9) 0.0058(10) 0.0016(10)
O9 0.0145(12) 0.0188(11) 0.0203(11) 0.0025(9) 0.0056(10) -0.0005(10)
O10 0.0214(13) 0.0164(11) 0.0269(12) -0.0010(10) 0.0066(11) 0.0020(10)
O11 0.0171(13) 0.0277(13) 0.0185(11) -0.0012(10) 0.0011(10) -0.0028(11)
O12 0.0111(12) 0.0276(13) 0.0242(11) 0.0010(10) 0.0071(10) -0.0027(10)
O13 0.0202(13) 0.0197(12) 0.0276(12) -0.0037(10) 0.0053(11) 0.0016(10)
O14 0.0173(12) 0.0224(12) 0.0230(11) -0.0019(10) 0.0064(10) -0.0026(10)
O15 0.0186(14) 0.0552(17) 0.0260(13) 0.0020(13) 0.0068(11) 0.0010(13)
O16 0.0186(14) 0.0236(13) 0.0434(15) 0.0078(12) 0.0024(12) 0.0001(11)
O17 0.094(5) 0.117(5) 0.046(3) -0.002(3) 0.004(3) -0.017(4)
O18 0.184(8) 0.115(6) 0.121(6) -0.042(5) 0.036(6) 0.002(6)
C1 0.027(2) 0.038(2) 0.0270(18) -0.0111(17) 0.0082(16) -0.0032(18)
C2 0.025(2) 0.066(3) 0.053(3) -0.030(2) 0.011(2) -0.014(2)
C3 0.030(2) 0.072(3) 0.059(3) -0.017(3) 0.021(2) 0.000(2)
C4 0.0136(17) 0.042(2) 0.0289(17) -0.0217(16) 0.0103(14) 0.0003(16)
C5 0.040(3) 0.057(3) 0.046(2) -0.031(2) 0.000(2) 0.001(2)
C6 0.021(2) 0.057(3) 0.038(2) -0.020(2) 0.0100(18) -0.005(2)
C7 0.027(2) 0.039(2) 0.0187(16) -0.0015(16) 0.0037(15) 0.0042(18)
C8 0.038(3) 0.158(5) 0.102(4) -0.089(3) 0.038(3) -0.045(3)
C9 0.047(3) 0.150(5) 0.095(4) -0.081(3) 0.037(3) -0.028(4)
C10 0.033(3) 0.102(4) 0.067(3) -0.033(3) 0.017(2) -0.023(3)
C11 0.024(2) 0.038(2) 0.0271(18) -0.0212(16) 0.0081(16) -0.0127(17)
C12 0.044(3) 0.037(2) 0.033(2) -0.0164(18) 0.0064(19) 0.005(2)
C13 0.056(4) 0.084(4) 0.085(4) 0.004(3) 0.017(3) -0.015(3)
C14 0.036(3) 0.058(3) 0.067(3) -0.029(2) 0.009(2) -0.002(2)
C15 0.0166(18) 0.0271(18) 0.0288(18) 0.0089(16) 0.0051(15) -0.0009(16)
C16 0.027(2) 0.037(2) 0.052(2) 0.0170(19) 0.0199(19) 0.0129(18)
C17 0.031(2) 0.032(2) 0.056(3) 0.013(2) 0.008(2) 0.0114(19)
C18 0.0155(17) 0.0219(16) 0.0322(17) 0.0236(14) 0.0079(15) 0.0069(14)
C19 0.036(3) 0.056(3) 0.052(2) 0.033(2) 0.020(2) 0.001(2)
C20 0.0163(18) 0.0235(17) 0.0313(18) 0.0104(15) 0.0056(15) 0.0005(15)
C21 0.0187(18) 0.0200(16) 0.0157(15) 0.0048(13) 0.0039(14) 0.0014(14)
C22 0.0173(18) 0.0249(18) 0.0265(17) 0.0062(15) 0.0127(14) -0.0008(15)
C23 0.026(2) 0.0288(19) 0.0299(19) 0.0042(16) 0.0060(17) 0.0031(17)
C24 0.032(2) 0.027(2) 0.069(3) 0.009(2) 0.016(2) 0.0093(19)
C25 0.0255(19) 0.0213(17) 0.0189(15) 0.0146(13) 0.0098(14) 0.0058(15)
C26 0.049(3) 0.047(2) 0.0261(19) 0.0110(18) 0.0111(19) 0.005(2)
C27 0.0152(18) 0.0285(18) 0.0313(18) 0.0165(15) 0.0102(15) 0.0037(15)
C28 0.0126(17) 0.0187(16) 0.0193(15) 0.0041(13) 0.0037(13) 0.0040(14)
C29 0.070(6) 0.214(12) 0.099(7) -0.037(8) -0.020(6) 0.064(7)
C30 0.115(8) 0.111(7) 0.066(5) 0.033(5) 0.024(6) 0.002(7)
C31 0.153(9) 0.043(4) 0.074(5) -0.026(4) 0.047(6) -0.023(5)
C32 0.173(11) 0.069(6) 0.081(6) -0.001(5) 0.047(6) 0.016(6)

_geom_special_details            
; 
All esds (except the esd in the dihedral angle between two l.s. planes) 
are estimated using the full covariance matrix.  The cell esds are taken 
into account individually in the estimation of esds in distances, angles 
and torsion angles; correlations between esds in cell parameters are only 
used when they are defined by crystal symmetry.  An approximate (isotropic) 
treatment of cell esds is used for estimating esds involving l.s. planes. 
;

loop_
_geom_bond_atom_site_label_1
_geom_bond_atom_site_label_2
_geom_bond_distance
_geom_bond_site_symmetry_2
_geom_bond_publ_flag
Ba1 O11 2.702(2) . ?
Ba1 O5 2.722(2) . ?
Ba1 O8 2.744(2) . ?
Ba1 O15 2.762(3) . ?
Ba1 O9 2.872(2) . ?
Ba1 O1