####################################################################### 
# 
# This file contains crystal structure data downloaded from the 
# Cambridge Structural Database (CSD) hosted by the Cambridge 
# Crystallographic Data Centre (CCDC).
# 
# Full information about CCDC data access policies and citation 
# guidelines are available at http://www.ccdc.cam.ac.uk/access/V1 
# 
# Audit and citation data items may have been added by the CCDC. 
# Please retain this information to preserve the provenance of 
# this file and to allow appropriate attribution of the data. 
# 
#######################################################################

data_[[{(dach)Pt(BETMP)2}2Cu]2(PF6)][PF6]3
_audit_block_doi                 10.5517/ccb145n
_database_code_depnum_ccdc_archive 'CCDC 299000'
loop_
_citation_id
_citation_doi
_citation_year
1 10.1002/chem.200501626 2006
_audit_update_record             
;
2006-02-20 deposited with the CCDC.	2024-07-12 downloaded from the CCDC.
;

_audit_creation_method           SHELXL-97
_chemical_name_systematic        
;
?
;
_chemical_name_common            ?
_chemical_melting_point          ?
_chemical_formula_moiety         ?
_chemical_formula_sum            'C56 H92 Cu2 F24 N8 O18 P4 Pt4 S8'
_chemical_formula_weight         2909.18

loop_
_atom_type_symbol
_atom_type_description
_atom_type_scat_dispersion_real
_atom_type_scat_dispersion_imag
_atom_type_scat_source
C C 0.0033 0.0016 'International Tables Vol C Tables 4.2.6.8 and 6.1.1.4'
Pt Pt -1.7033 8.3905 'International Tables Vol C Tables 4.2.6.8 and 6.1.1.4'
Cu Cu 0.3201 1.2651 'International Tables Vol C Tables 4.2.6.8 and 6.1.1.4'
S S 0.1246 0.1234 'International Tables Vol C Tables 4.2.6.8 and 6.1.1.4'
N N 0.0061 0.0033 'International Tables Vol C Tables 4.2.6.8 and 6.1.1.4'
O O 0.0106 0.0060 'International Tables Vol C Tables 4.2.6.8 and 6.1.1.4'
P P 0.1023 0.0942 'International Tables Vol C Tables 4.2.6.8 and 6.1.1.4'
F F 0.0171 0.0103 'International Tables Vol C Tables 4.2.6.8 and 6.1.1.4'
H H 0.0000 0.0000 'International Tables Vol C Tables 4.2.6.8 and 6.1.1.4'

_symmetry_cell_setting           orthorhombic
_symmetry_space_group_name_H-M   P2(1)2(1)2

loop_
_symmetry_equiv_pos_as_xyz
'x, y, z'
'-x, -y, z'
'-x+1/2, y+1/2, -z'
'x+1/2, -y+1/2, -z'

_cell_length_a                   29.570(11)
_cell_length_b                   17.221(5)
_cell_length_c                   12.542(6)
_cell_angle_alpha                90.00
_cell_angle_beta                 90.00
_cell_angle_gamma                90.00
_cell_volume                     6387(4)
_cell_formula_units_Z            2
_cell_measurement_temperature    293(2)
_cell_measurement_reflns_used    ?
_cell_measurement_theta_min      ?
_cell_measurement_theta_max      ?

_exptl_crystal_description       block
_exptl_crystal_colour            green-blue
_exptl_crystal_size_max          0.48
_exptl_crystal_size_mid          0.45
_exptl_crystal_size_min          0.30
_exptl_crystal_density_meas      ?
_exptl_crystal_density_diffrn    1.513
_exptl_crystal_density_method    'not measured'
_exptl_crystal_F_000             2804
_exptl_absorpt_coefficient_mu    4.952
_exptl_absorpt_correction_type   sadbs
_exptl_absorpt_correction_T_min  ?
_exptl_absorpt_correction_T_max  ?
_exptl_absorpt_process_details   ?

_exptl_special_details           
;
?
;

_diffrn_ambient_temperature      293(2)
_diffrn_radiation_wavelength     0.71073
_diffrn_radiation_type           MoK\a
_diffrn_radiation_source         'fine-focus sealed tube'
_diffrn_radiation_monochromator  graphite
_diffrn_measurement_device_type  'SMART APEX CCD'
_diffrn_measurement_method       ?
_diffrn_detector_area_resol_mean ?
_diffrn_standards_number         ?
_diffrn_standards_interval_count ?
_diffrn_standards_interval_time  ?
_diffrn_standards_decay_%        ?
_diffrn_reflns_number            54234
_diffrn_reflns_av_R_equivalents  0.1021
_diffrn_reflns_av_sigmaI/netI    0.1114
_diffrn_reflns_limit_h_min       -38
_diffrn_reflns_limit_h_max       37
_diffrn_reflns_limit_k_min       -22
_diffrn_reflns_limit_k_max       22
_diffrn_reflns_limit_l_min       -16
_diffrn_reflns_limit_l_max       16
_diffrn_reflns_theta_min         1.76
_diffrn_reflns_theta_max         28.40
_reflns_number_total             14811
_reflns_number_gt                9008
_reflns_threshold_expression     >2sigma(I)

_computing_data_collection       ?
_computing_cell_refinement       ?
_computing_data_reduction        ?
_computing_structure_solution    'SHELXS-97 (Sheldrick, 1990)'
_computing_structure_refinement  'SHELXL-97 (Sheldrick, 1997)'
_computing_molecular_graphics    ?
_computing_publication_material  ?

_refine_special_details          
;
Refinement of F^2^ against ALL reflections. The weighted R-factor wR and
goodness of fit S are based on F^2^, conventional R-factors R are based
on F, with F set to zero for negative F^2^. The threshold expression of
F^2^ > 2sigma(F^2^) is used only for calculating R-factors(gt) etc. and is
not relevant to the choice of reflections for refinement. R-factors based
on F^2^ are statistically about twice as large as those based on F, and R-
factors based on ALL data will be even larger.
;

_refine_ls_structure_factor_coef Fsqd
_refine_ls_matrix_type           full
_refine_ls_weighting_scheme      calc
_refine_ls_weighting_details     
'calc w=1/[\s^2^(Fo^2^)+(0.0785P)^2^+0.0000P] where P=(Fo^2^+2Fc^2^)/3'
_atom_sites_solution_primary     direct
_atom_sites_solution_secondary   difmap
_atom_sites_solution_hydrogens   geom
_refine_ls_hydrogen_treatment    mixed
_refine_ls_extinction_method     none
_refine_ls_extinction_coef       ?
_refine_ls_abs_structure_details 'Flack H D (1983), Acta Cryst. A39, 876-881'
_refine_ls_abs_structure_Flack   0.005(10)
_refine_ls_number_reflns         14811
_refine_ls_number_parameters     568
_refine_ls_number_restraints     48
_refine_ls_R_factor_all          0.1116
_refine_ls_R_factor_gt           0.0582
_refine_ls_wR_factor_ref         0.1648
_refine_ls_wR_factor_gt          0.1435
_refine_ls_goodness_of_fit_ref   0.995
_refine_ls_restrained_S_all      1.004
_refine_ls_shift/su_max          0.004
_refine_ls_shift/su_mean         0.000

loop_
_atom_site_label
_atom_site_type_symbol
_atom_site_fract_x
_atom_site_fract_y
_atom_site_fract_z
_atom_site_U_iso_or_equiv
_atom_site_adp_type
_atom_site_occupancy
_atom_site_symmetry_multiplicity
_atom_site_calc_flag
_atom_site_refinement_flags
_atom_site_disorder_assembly
_atom_site_disorder_group
Pt1 Pt 0.073107(15) 0.22478(3) 0.10665(4) 0.05423(14) Uani 1 1 d . . .
Pt2 Pt -0.123401(15) 0.14507(3) -0.10390(4) 0.05933(15) Uani 1 1 d . . .
Cu1 Cu 0.0000 0.0000 -0.30234(16) 0.0553(5) Uani 1 2 d S . .
Cu2 Cu 0.0000 0.0000 0.30675(16) 0.0544(5) Uani 1 2 d S . .
S1 S 0.11067(10) 0.1610(2) -0.0258(2) 0.0594(8) Uani 1 1 d . . .
S2 S 0.03136(12) 0.25207(18) -0.0433(2) 0.0579(8) Uani 1 1 d . . .
S3 S -0.09082(12) 0.20118(19) 0.0431(3) 0.0638(8) Uani 1 1 d . . .
S4 S -0.14150(11) 0.0615(2) 0.0314(3) 0.0630(8) Uani 1 1 d . . .
P1 P 0.0000 0.0000 0.0015(3) 0.0500(10) Uani 1 2 d S . .
F1 F 0.0121(3) -0.0902(5) 0.0027(10) 0.124(4) Uani 1 1 d . . .
F2 F 0.0000 0.0000 0.1219(9) 0.193(9) Uani 1 2 d S . .
F3 F 0.0515(3) 0.0190(6) -0.0017(10) 0.119(4) Uani 1 1 d . . .
F4 F 0.0000 0.0000 -0.1175(9) 0.155(7) Uani 1 2 d S . .
N1 N 0.0355(3) 0.2824(6) 0.2236(7) 0.058(2) Uani 1 1 d . . .
H1A H 0.0284 0.3305 0.2008 0.070 Uiso 1 1 calc R . .
H1B H 0.0096 0.2565 0.2358 0.070 Uiso 1 1 calc R . .
N2 N 0.1105(3) 0.1898(7) 0.2407(7) 0.059(3) Uani 1 1 d . . .
H2A H 0.1163 0.1386 0.2366 0.071 Uiso 1 1 calc R . .
H2B H 0.1370 0.2153 0.2423 0.071 Uiso 1 1 calc R . .
N3 N -0.1047(4) 0.2250(7) -0.2227(8) 0.073(3) Uani 1 1 d . . .
H3A H -0.1115 0.2736 -0.2016 0.087 Uiso 1 1 calc R . .
H3B H -0.0747 0.2224 -0.2344 0.087 Uiso 1 1 calc R . .
N4 N -0.1502(3) 0.0868(7) -0.2344(8) 0.061(3) Uani 1 1 d . . .
H4A H -0.1433 0.0360 -0.2305 0.073 Uiso 1 1 calc R . .
H4B H -0.1805 0.0914 -0.2346 0.073 Uiso 1 1 calc R . .
C1 C 0.0635(4) 0.1796(7) -0.1126(10) 0.058(3) Uani 1 1 d . . .
C2 C 0.0531(3) 0.1429(7) -0.2028(8) 0.048(3) Uani 1 1 d . . .
C3 C 0.0072(4) 0.1648(8) -0.2610(9) 0.053(3) Uani 1 1 d . . .
C4 C 0.0825(4) 0.0797(7) -0.2494(8) 0.049(3) Uani 1 1 d . . .
C5 C 0.1526(4) 0.2337(11) -0.0763(12) 0.092(6) Uani 1 1 d . . .
H5A H 0.1764 0.2372 -0.0233 0.110 Uiso 1 1 calc R . .
H5B H 0.1662 0.2115 -0.1397 0.110 Uiso 1 1 calc R . .
C6 C 0.1399(9) 0.3130(15) -0.103(3) 0.199(17) Uani 1 1 d . . .
H6A H 0.1521 0.3443 -0.0457 0.239 Uiso 1 1 calc R . .
H6B H 0.1579 0.3255 -0.1655 0.239 Uiso 1 1 calc R . .
C7 C 0.1018(12) 0.3417(13) -0.122(3) 0.210(16) Uani 1 1 d . . .
H7A H 0.1015 0.3366 -0.1988 0.252 Uiso 1 1 calc R . .
H7B H 0.1089 0.3960 -0.1100 0.252 Uiso 1 1 calc R . .
C8 C 0.0521(6) 0.3445(8) -0.1022(13) 0.087(4) Uani 1 1 d . . .
H8A H 0.0366 0.3540 -0.1690 0.104 Uiso 1 1 calc R . .
H8B H 0.0453 0.3870 -0.0542 0.104 Uiso 1 1 calc R . .
C9 C 0.0628(4) 0.2877(8) 0.3266(8) 0.061(3) Uani 1 1 d . . .
H9 H 0.0869 0.3264 0.3180 0.073 Uiso 1 1 calc R . .
C10 C 0.0335(5) 0.3098(9) 0.4196(10) 0.079(4) Uani 1 1 d . . .
H10A H 0.0074 0.2759 0.4232 0.095 Uiso 1 1 calc R . .
H10B H 0.0229 0.3628 0.4114 0.095 Uiso 1 1 calc R . .
C11 C 0.0623(6) 0.3021(10) 0.5242(11) 0.092(5) Uani 1 1 d . . .
H11A H 0.0858 0.3414 0.5235 0.111 Uiso 1 1 calc R . .
H11B H 0.0429 0.3124 0.5851 0.111 Uiso 1 1 calc R . .
C12 C 0.0833(6) 0.2263(11) 0.5380(11) 0.096(5) Uani 1 1 d . . .
H12A H 0.0598 0.1880 0.5503 0.115 Uiso 1 1 calc R . .
H12B H 0.1025 0.2276 0.6007 0.115 Uiso 1 1 calc R . .
C13 C 0.1124(4) 0.2007(9) 0.4386(10) 0.072(4) Uani 1 1 d . . .
H13A H 0.1388 0.2340 0.4321 0.087 Uiso 1 1 calc R . .
H13B H 0.1227 0.1477 0.4478 0.087 Uiso 1 1 calc R . .
C14 C 0.0841(4) 0.2068(7) 0.3412(8) 0.052(3) Uani 1 1 d . . .
H14 H 0.0596 0.1688 0.3468 0.063 Uiso 1 1 calc R . .
C15 C -0.1025(4) 0.1162(7) 0.1172(9) 0.057(3) Uani 1 1 d . . .
C16 C -0.0823(4) 0.0903(7) 0.2078(8) 0.050(3) Uani 1 1 d . . .
C17 C -0.0487(4) 0.1411(8) 0.2616(9) 0.053(3) Uani 1 1 d . . .
C18 C -0.0948(4) 0.0093(8) 0.2546(8) 0.053(3) Uani 1 1 d . . .
C19 C -0.1322(6) 0.2678(9) 0.0980(14) 0.098(5) Uani 1 1 d . . .
H19A H -0.1163 0.3022 0.1463 0.118 Uiso 1 1 calc R . .
H19B H -0.1432 0.2996 0.0396 0.118 Uiso 1 1 calc R . .
C20 C -0.1712(8) 0.2391(14) 0.154(2) 0.142(9) Uani 1 1 d . . .
H20A H -0.1614 0.2091 0.2150 0.171 Uiso 1 1 calc R . .
H20B H -0.1890 0.2826 0.1794 0.171 Uiso 1 1 calc R . .
C21 C -0.1975(7) 0.193(2) 0.089(3) 0.26(2) Uani 1 1 d . . .
H21A H -0.1920 0.2111 0.0164 0.307 Uiso 1 1 calc R . .
H21B H -0.2286 0.2064 0.1049 0.307 Uiso 1 1 calc R . .
C22 C -0.1953(4) 0.0935(10) 0.0837(13) 0.093(5) Uani 1 1 d . . .
H22A H -0.2195 0.0742 0.0387 0.112 Uiso 1 1 calc R . .
H22B H -0.1996 0.0725 0.1547 0.112 Uiso 1 1 calc R . .
C23 C -0.1292(5) 0.2065(8) -0.3211(9) 0.073(4) Uani 1 1 d . . .
H23 H -0.1603 0.2252 -0.3129 0.088 Uiso 1 1 calc R . .
C24 C -0.1097(5) 0.2441(10) -0.4204(10) 0.087(5) Uani 1 1 d . . .
H24A H -0.0778 0.2312 -0.4261 0.104 Uiso 1 1 calc R . .
H24B H -0.1122 0.3001 -0.4144 0.104 Uiso 1 1 calc R . .
C25 C -0.1351(6) 0.2160(13) -0.5246(12) 0.107(6) Uani 1 1 d . . .
H25A H -0.1661 0.2343 -0.5220 0.128 Uiso 1 1 calc R . .
H25B H -0.1208 0.2395 -0.5862 0.128 Uiso 1 1 calc R . .
C26 C -0.1354(6) 0.1356(12) -0.5377(12) 0.104(6) Uani 1 1 d . . .
H26A H -0.1046 0.1175 -0.5479 0.124 Uiso 1 1 calc R . .
H26B H -0.1526 0.1224 -0.6010 0.124 Uiso 1 1 calc R . .
C27 C -0.1574(5) 0.0916(10) -0.4344(11) 0.090(5) Uani 1 1 d . . .
H27A H -0.1893 0.1041 -0.4281 0.107 Uiso 1 1 calc R . .
H27B H -0.1544 0.0357 -0.4415 0.107 Uiso 1 1 calc R . .
C28 C -0.1311(4) 0.1210(9) -0.3347(8) 0.070(4) Uani 1 1 d . . .
H28 H -0.0998 0.1024 -0.3412 0.084 Uiso 1 1 calc R . .
O1 O 0.0633(3) 0.0236(5) -0.3000(7) 0.072(2) Uani 1 1 d . . .
O2 O 0.1234(3) 0.0838(5) -0.2299(7) 0.069(2) Uani 1 1 d . . .
O3 O -0.0146(3) 0.1112(5) -0.3069(6) 0.062(2) Uani 1 1 d . . .
O4 O -0.0054(3) 0.2331(5) -0.2544(6) 0.063(2) Uani 1 1 d . . .
O5 O -0.0155(3) 0.1096(5) 0.3090(7) 0.068(2) Uani 1 1 d . . .
O6 O -0.0533(3) 0.2137(5) 0.2528(6) 0.065(2) Uani 1 1 d . . .
O7 O -0.1334(3) -0.0155(5) 0.2386(6) 0.065(2) Uani 1 1 d . . .
O8 O -0.0641(3) -0.0261(5) 0.3038(7) 0.062(2) Uani 1 1 d . . .
P2 P 0.2196(2) 0.3350(7) 0.2153(5) 0.189(4) Uani 1 1 d . . .
F5 F 0.2694(6) 0.2993(14) 0.209(2) 0.262(10) Uani 1 1 d U . .
F6 F 0.2362(8) 0.4108(14) 0.262(2) 0.288(10) Uani 1 1 d U . .
F7 F 0.2128(10) 0.3810(18) 0.095(3) 0.357(14) Uani 1 1 d U . .
F8 F 0.2181(11) 0.2923(18) 0.321(2) 0.335(14) Uani 1 1 d U . .
F9 F 0.1982(7) 0.2606(15) 0.178(2) 0.261(9) Uani 1 1 d U . .
F10 F 0.1744(7) 0.3537(16) 0.240(2) 0.281(10) Uani 1 1 d U . .
P3 P 0.0000 0.5000 0.1319(12) 0.268(11) Uani 1 2 d S . .
F11 F 0.0000 0.5000 0.013(3) 0.322(19) Uani 1 2 d S . .
F12 F 0.0431(10) 0.4493(9) 0.1314(14) 0.267(13) Uani 1 1 d . . .
F13 F 0.0000 0.5000 0.261(4) 0.317(17) Uani 1 2 d SU . .
F14 F 0.0285(11) 0.5879(18) 0.125(2) 0.311(12) Uani 1 1 d U . .
OW1 O 0.0000 0.0000 -0.4895(15) 0.171(9) Uani 1 2 d S . .
OW2 O 0.1203(13) 0.6216(15) 0.847(2) 0.167(14) Uani 0.50 1 d P . .

loop_
_atom_site_aniso_label
_atom_site_aniso_U_11
_atom_site_aniso_U_22
_atom_site_aniso_U_33
_atom_site_aniso_U_23
_atom_site_aniso_U_13
_atom_site_aniso_U_12
Pt1 0.0653(3) 0.0589(3) 0.0385(2) -0.0036(2) 0.0018(2) -0.0071(2)
Pt2 0.0591(3) 0.0758(3) 0.0431(2) 0.0056(3) -0.0005(2) 0.0166(2)
Cu1 0.0572(12) 0.0609(13) 0.0478(12) 0.000 0.000 0.0056(10)
Cu2 0.0578(12) 0.0570(12) 0.0484(11) 0.000 0.000 -0.0019(10)
S1 0.0548(18) 0.075(2) 0.0482(16) -0.0062(15) -0.0012(13) -0.0023(15)
S2 0.075(2) 0.0571(19) 0.0419(15) -0.0016(13) 0.0017(14) 0.0050(15)
S3 0.081(2) 0.059(2) 0.0518(18) 0.0044(15) -0.0010(16) 0.0074(16)
S4 0.0594(19) 0.083(2) 0.0466(17) 0.0044(16) -0.0057(14) 0.0008(16)
P1 0.057(3) 0.063(3) 0.0295(19) 0.000 0.000 0.001(2)
F1 0.084(6) 0.083(6) 0.204(12) -0.009(7) -0.015(7) 0.002(5)
F2 0.182(16) 0.37(3) 0.023(6) 0.000 0.000 0.028(18)
F3 0.064(5) 0.096(7) 0.197(11) 0.034(7) 0.001(6) 0.013(5)
F4 0.223(18) 0.215(17) 0.027(6) 0.000 0.000 -0.011(14)
N1 0.072(7) 0.048(6) 0.054(5) -0.003(5) 0.008(5) -0.005(5)
N2 0.054(6) 0.077(7) 0.046(5) -0.005(5) 0.000(4) -0.007(5)
N3 0.074(7) 0.096(8) 0.049(6) 0.006(6) 0.001(5) 0.029(7)
N4 0.061(6) 0.076(7) 0.045(6) -0.002(5) -0.008(4) 0.020(5)
C1 0.068(8) 0.066(7) 0.039(6) 0.006(6) 0.011(6) -0.005(6)
C2 0.033(5) 0.061(7) 0.049(6) -0.001(6) 0.012(4) -0.005(5)
C3 0.057(7) 0.065(9) 0.038(6) 0.003(5) 0.009(5) 0.001(6)
C4 0.043(7) 0.065(8) 0.040(6) -0.008(5) 0.007(5) 0.007(5)
C5 0.049(7) 0.159(16) 0.067(9) -0.038(10) 0.018(6) -0.041(9)
C6 0.15(2) 0.113(19) 0.34(4) 0.14(3) -0.01(3) 0.013(16)
C7 0.23(3) 0.074(15) 0.33(5) 0.06(2) 0.06(4) -0.024(19)
C8 0.127(13) 0.069(9) 0.064(8) 0.006(9) 0.022(9) -0.010(9)
C9 0.071(8) 0.075(9) 0.037(6) -0.012(6) 0.000(5) -0.032(7)
C10 0.088(10) 0.093(10) 0.056(8) -0.009(7) 0.005(7) -0.004(8)
C11 0.120(13) 0.101(13) 0.056(8) -0.014(8) -0.004(9) -0.005(10)
C12 0.127(14) 0.112(13) 0.048(8) 0.014(9) -0.011(8) 0.005(11)
C13 0.064(8) 0.101(11) 0.052(7) 0.012(7) -0.004(6) -0.002(7)
C14 0.055(7) 0.068(8) 0.034(5) -0.010(5) -0.009(5) -0.009(6)
C15 0.059(7) 0.068(8) 0.043(6) 0.008(6) -0.002(6) 0.012(5)
C16 0.055(7) 0.055(7) 0.041(6) -0.009(5) -0.003(5) 0.005(5)
C17 0.051(7) 0.064(8) 0.045(6) -0.010(6) 0.012(5) 0.001(6)
C18 0.050(7) 0.074(8) 0.034(6) -0.005(6) 0.000(5) 0.000(6)
C19 0.124(13) 0.083(10) 0.088(11) 0.006(10) -0.001(11) 0.056(10)
C20 0.127(18) 0.131(18) 0.17(2) -0.043(16) 0.043(17) 0.028(15)
C21 0.063(12) 0.31(4) 0.39(5) -0.23(4) -0.02(2) 0.083(18)
C22 0.056(8) 0.139(15) 0.085(11) 0.035(10) 0.009(8) 0.009(9)
C23 0.096(10) 0.085(10) 0.039(6) 0.009(6) 0.002(7) 0.042(8)
C24 0.084(10) 0.121(13) 0.055(9) 0.011(8) 0.005(7) 0.024(9)
C25 0.117(14) 0.142(17) 0.061(9) 0.034(11) 0.004(9) 0.031(12)
C26 0.135(15) 0.122(16) 0.053(9) 0.009(9) -0.011(9) 0.044(12)
C27 0.103(12) 0.108(12) 0.057(8) 0.004(8) -0.004(8) 0.025(10)
C28 0.072(8) 0.116(12) 0.023(5) 0.008(6) 0.005(5) 0.031(8)
O1 0.079(6) 0.072(6) 0.065(5) -0.022(5) 0.012(5) 0.017(5)
O2 0.046(5) 0.092(6) 0.069(5) -0.021(5) -0.002(4) -0.002(4)
O3 0.071(6) 0.067(6) 0.046(4) 0.007(4) -0.014(4) -0.003(4)
O4 0.082(6) 0.056(5) 0.050(5) -0.001(4) -0.008(4) 0.018(5)
O5 0.054(5) 0.078(6) 0.072(6) -0.019(5) -0.015(4) 0.007(4)
O6 0.073(5) 0.067(6) 0.056(5) 0.002(4) -0.004(4) 0.007(4)
O7 0.047(5) 0.087(6) 0.062(5) 0.015(5) -0.005(4) -0.010(4)
O8 0.067(5) 0.062(5) 0.057(5) 0.014(4) -0.001(4) 0.004(4)
P2 0.102(5) 0.363(12) 0.101(4) -0.008(6) 0.007(4) -0.131(6)
F5 0.174(13) 0.329(18) 0.282(18) 0.007(14) -0.027(12) -0.102(13)
F6 0.268(16) 0.268(16) 0.329(19) -0.051(15) -0.078(14) -0.110(14)
F7 0.36(2) 0.37(2) 0.34(2) -0.009(18) 0.038(17) -0.041(17)
F8 0.40(2) 0.37(2) 0.236(18) 0.005(16) 0.009(16) -0.017(18)
F9 0.186(13) 0.316(18) 0.282(17) -0.024(15) -0.037(13) -0.073(13)
F10 0.164(13) 0.331(18) 0.349(19) -0.071(16) 0.029(14) -0.026(14)
P3 0.52(4) 0.151(12) 0.134(11) 0.000 0.000 0.09(2)
F11 0.43(5) 0.23(3) 0.30(5) 0.000 0.000 0.06(3)
F12 0.49(4) 0.133(12) 0.179(16) 0.013(11) 0.027(19) 0.164(19)
F13 0.29(2) 0.35(2) 0.31(2) 0.000 0.000 -0.044(18)
F14 0.346(19) 0.288(18) 0.300(19) -0.042(16) 0.031(16) 0.059(16)
OW1 0.23(2) 0.20(2) 0.086(13) 0.000 0.000 -0.04(2)
OW2 0.29(4) 0.086(17) 0.13(2) 0.047(16) 0.02(2) 0.07(2)

_geom_special_details            
;
All esds (except the esd in the dihedral angle between two l.s. planes)
are estimated using the full covaria