####################################################################### 
# 
# This file contains crystal structure data downloaded from the 
# Cambridge Structural Database (CSD) hosted by the Cambridge 
# Crystallographic Data Centre (CCDC).
# 
# Full information about CCDC data access policies and citation 
# guidelines are available at http://www.ccdc.cam.ac.uk/access/V1 
# 
# Audit and citation data items may have been added by the CCDC. 
# Please retain this information to preserve the provenance of 
# this file and to allow appropriate attribution of the data. 
# 
#######################################################################

data_5a
_audit_block_doi                 10.5517/cc9rx86
_database_code_depnum_ccdc_archive 'CCDC 291098'
loop_
_citation_id
_citation_doi
_citation_year
1 10.1016/j.molstruc.2006.01.015 2006
_audit_update_record             
;
2005-11-28 deposited with the CCDC.	2024-07-12 downloaded from the CCDC.
;

_audit_creation_method           SHELXL-97
_chemical_name_systematic        
;
?
;
_chemical_name_common            ?
_chemical_melting_point          ?
_chemical_formula_moiety         ?
_chemical_formula_sum            'C37 H34 Cl2 Hg N2 O3.25'
_chemical_formula_weight         830.15

loop_
_atom_type_symbol
_atom_type_description
_atom_type_scat_dispersion_real
_atom_type_scat_dispersion_imag
_atom_type_scat_source
C C 0.0033 0.0016 'International Tables Vol C Tables 4.2.6.8 and 6.1.1.4'
H H 0.0000 0.0000 'International Tables Vol C Tables 4.2.6.8 and 6.1.1.4'
N N 0.0061 0.0033 'International Tables Vol C Tables 4.2.6.8 and 6.1.1.4'
O O 0.0106 0.0060 'International Tables Vol C Tables 4.2.6.8 and 6.1.1.4'
Cl Cl 0.1484 0.1585 'International Tables Vol C Tables 4.2.6.8 and 6.1.1.4'
Hg Hg -2.3894 9.2266 'International Tables Vol C Tables 4.2.6.8 and 6.1.1.4'

_symmetry_cell_setting           Monoclinic
_symmetry_space_group_name_H-M   P2(1)/c

loop_
_symmetry_equiv_pos_as_xyz
'x, y, z'
'-x, y+1/2, -z+1/2'
'-x, -y, -z'
'x, -y-1/2, z-1/2'

_cell_length_a                   17.1470(3)
_cell_length_b                   11.7946(2)
_cell_length_c                   19.4809(3)
_cell_angle_alpha                90.00
_cell_angle_beta                 102.5100(10)
_cell_angle_gamma                90.00
_cell_volume                     3846.32(11)
_cell_formula_units_Z            4
_cell_measurement_temperature    150(2)
_cell_measurement_reflns_used    ?
_cell_measurement_theta_min      ?
_cell_measurement_theta_max      ?

_exptl_crystal_description       block
_exptl_crystal_colour            colourless
_exptl_crystal_size_max          0.40
_exptl_crystal_size_mid          0.25
_exptl_crystal_size_min          0.23
_exptl_crystal_density_meas      ?
_exptl_crystal_density_diffrn    1.434
_exptl_crystal_density_method    'not measured'
_exptl_crystal_F_000             1640
_exptl_absorpt_coefficient_mu    4.175
_exptl_absorpt_correction_type   integration
_exptl_absorpt_correction_T_min  0.2860
_exptl_absorpt_correction_T_max  0.4468
_exptl_absorpt_process_details   ?

_exptl_special_details           
;
?
;

_diffrn_ambient_temperature      150(2)
_diffrn_radiation_wavelength     0.71073
_diffrn_radiation_type           MoK\a
_diffrn_radiation_source         'fine-focus sealed tube'
_diffrn_radiation_monochromator  graphite
_diffrn_measurement_device_type  'Nonius Kappa CCD'
_diffrn_measurement_method       'phi\omega scans'
_diffrn_detector_area_resol_mean ?
_diffrn_standards_number         ?
_diffrn_standards_interval_count ?
_diffrn_standards_interval_time  ?
_diffrn_standards_decay_%        ?
_diffrn_reflns_number            40062
_diffrn_reflns_av_R_equivalents  0.053
_diffrn_reflns_av_sigmaI/netI    0.0484
_diffrn_reflns_limit_h_min       -22
_diffrn_reflns_limit_h_max       22
_diffrn_reflns_limit_k_min       -15
_diffrn_reflns_limit_k_max       15
_diffrn_reflns_limit_l_min       -25
_diffrn_reflns_limit_l_max       25
_diffrn_reflns_theta_min         2.75
_diffrn_reflns_theta_max         27.57
_reflns_number_total             8832
_reflns_number_gt                6147
_reflns_threshold_expression     >2sigma(I)

_computing_data_collection       'Nonius COLLECT'
_computing_cell_refinement       'Nonius DENZO'
_computing_data_reduction        'Nonius DENZO'
_computing_structure_solution    'SHELXS-97 (Sheldrick, 1990)'
_computing_structure_refinement  'SHELXL-97 (Sheldrick, 1997)'
_computing_molecular_graphics    'Bruker SHELXTL'
_computing_publication_material  'Bruker SHELXTL'

_refine_special_details          
;
Refinement of F^2^ against ALL reflections. The weighted R-factor wR and
goodness of fit S are based on F^2^, conventional R-factors R are based
on F, with F set to zero for negative F^2^. The threshold expression of
F^2^ > 2sigma(F^2^) is used only for calculating R-factors(gt) etc. and is
not relevant to the choice of reflections for refinement. R-factors based
on F^2^ are statistically about twice as large as those based on F, and R-
factors based on ALL data will be even larger.
;

_refine_ls_structure_factor_coef Fsqd
_refine_ls_matrix_type           full
_refine_ls_weighting_scheme      calc
_refine_ls_weighting_details     
'calc w=1/[\s^2^(Fo^2^)+(0.0758P)^2^+8.2544P] where P=(Fo^2^+2Fc^2^)/3'
_atom_sites_solution_primary     Patterson
_atom_sites_solution_secondary   difmap
_atom_sites_solution_hydrogens   geom
_refine_ls_hydrogen_treatment    constr
_refine_ls_extinction_method     none
_refine_ls_extinction_coef       ?
_refine_ls_number_reflns         8832
_refine_ls_number_parameters     424
_refine_ls_number_restraints     36
_refine_ls_R_factor_all          0.0773
_refine_ls_R_factor_gt           0.0465
_refine_ls_wR_factor_ref         0.1454
_refine_ls_wR_factor_gt          0.1293
_refine_ls_goodness_of_fit_ref   1.024
_refine_ls_restrained_S_all      1.026
_refine_ls_shift/su_max          0.001
_refine_ls_shift/su_mean         0.000

loop_
_atom_site_label
_atom_site_type_symbol
_atom_site_fract_x
_atom_site_fract_y
_atom_site_fract_z
_atom_site_U_iso_or_equiv
_atom_site_adp_type
_atom_site_occupancy
_atom_site_symmetry_multiplicity
_atom_site_calc_flag
_atom_site_refinement_flags
_atom_site_disorder_assembly
_atom_site_disorder_group
Hg1 Hg 0.494512(16) 0.41418(2) 0.759953(13) 0.04880(11) Uani 1 1 d . . .
Cl1 Cl 0.52885(14) 0.35092(17) 0.87860(9) 0.0713(6) Uani 1 1 d . . .
Cl2 Cl 0.38444(11) 0.47454(16) 0.66979(10) 0.0625(5) Uani 1 1 d . . .
N1 N 0.5461(3) 0.2767(4) 0.6929(2) 0.0417(11) Uani 1 1 d . . .
O1 O 0.6988(3) -0.0212(4) 0.5972(3) 0.0597(13) Uani 1 1 d . . .
C1 C 0.5156(6) 0.2716(9) 0.6235(5) 0.055(2) Uiso 0.70 1 d P A 1
H1A H 0.4733 0.3214 0.6033 0.066 Uiso 0.70 1 calc PR A 1
C2 C 0.5437(6) 0.1963(9) 0.5808(5) 0.057(2) Uiso 0.70 1 d P A 1
H2A H 0.5253 0.1997 0.5312 0.068 Uiso 0.70 1 calc PR A 1
C4 C 0.6313(6) 0.1232(9) 0.6812(5) 0.048(2) Uiso 0.70 1 d P A 1
H4A H 0.6744 0.0761 0.7032 0.057 Uiso 0.70 1 calc PR A 1
C5 C 0.6006(6) 0.2014(8) 0.7206(5) 0.043(2) Uiso 0.70 1 d P A 1
H5A H 0.6195 0.2010 0.7702 0.052 Uiso 0.70 1 calc PR A 1
C1A C 0.4966(12) 0.2167(15) 0.6482(10) 0.037(4) Uiso 0.30 1 d P A 2
H1B H 0.4412 0.2329 0.6418 0.045 Uiso 0.30 1 calc PR A 2
C2A C 0.5196(11) 0.1298(16) 0.6086(9) 0.036(4) Uiso 0.30 1 d P A 2
H2B H 0.4808 0.0827 0.5800 0.043 Uiso 0.30 1 calc PR A 2
C4A C 0.6542(15) 0.1601(18) 0.6638(12) 0.047(5) Uiso 0.30 1 d P A 2
H4B H 0.7091 0.1395 0.6730 0.056 Uiso 0.30 1 calc PR A 2
C5A C 0.6248(14) 0.243(2) 0.7046(12) 0.050(5) Uiso 0.30 1 d P A 2
H5B H 0.6616 0.2766 0.7424 0.060 Uiso 0.30 1 calc PR A 2
C3 C 0.6008(4) 0.1130(5) 0.6119(3) 0.0455(14) Uani 1 1 d . . .
C6 C 0.6243(4) 0.0222(7) 0.5659(4) 0.0623(19) Uani 1 1 d . A .
H6A H 0.5841 -0.0393 0.5588 0.075 Uiso 1 1 calc R . .
H6B H 0.6260 0.0545 0.5193 0.075 Uiso 1 1 calc R . .
C7 C 0.7276(4) -0.1111(5) 0.5646(3) 0.0449(14) Uani 1 1 d . . .
C8 C 0.6795(4) -0.1773(6) 0.5131(4) 0.0563(17) Uani 1 1 d . . .
H8A H 0.6245 -0.1591 0.4977 0.068 Uiso 1 1 calc R . .
C9 C 0.7099(4) -0.2669(6) 0.4846(4) 0.0538(16) Uani 1 1 d . . .
H9A H 0.6759 -0.3113 0.4498 0.065 Uiso 1 1 calc R . .
C10 C 0.7917(4) -0.2957(5) 0.5060(3) 0.0447(14) Uani 1 1 d . . .
C11 C 0.8406(4) -0.2290(5) 0.5591(3) 0.0396(13) Uani 1 1 d . . .
C12 C 0.8068(3) -0.1360(5) 0.5884(3) 0.0367(12) Uani 1 1 d . . .
C13 C 0.8244(5) -0.3878(6) 0.4761(3) 0.0535(17) Uani 1 1 d . . .
H13A H 0.7913 -0.4323 0.4408 0.064 Uiso 1 1 calc R . .
C14 C 0.9028(5) -0.4133(6) 0.4976(4) 0.064(2) Uani 1 1 d . . .
H14A H 0.9244 -0.4754 0.4768 0.076 Uiso 1 1 calc R . .
C15 C 0.9528(5) -0.3493(7) 0.5501(4) 0.063(2) Uani 1 1 d . . .
H15A H 1.0078 -0.3684 0.5644 0.076 Uiso 1 1 calc R . .
C16 C 0.9230(4) -0.2601(6) 0.5805(3) 0.0493(15) Uani 1 1 d . . .
H16A H 0.9572 -0.2179 0.6163 0.059 Uiso 1 1 calc R . .
C17 C 0.8570(4) -0.0690(5) 0.6478(3) 0.0397(13) Uani 1 1 d . . .
C18 C 0.8480(4) -0.0878(5) 0.7148(3) 0.0435(14) Uani 1 1 d . . .
O2 O 0.7951(3) -0.1731(4) 0.7222(2) 0.0597(13) Uani 1 1 d . . .
C19 C 0.8928(4) -0.0260(6) 0.7720(3) 0.0585(18) Uani 1 1 d . . .
H19A H 0.8860 -0.0398 0.8184 0.070 Uiso 1 1 calc R . .
C20 C 0.9450(5) 0.0526(7) 0.7601(4) 0.075(2) Uani 1 1 d . . .
H20A H 0.9753 0.0936 0.7988 0.090 Uiso 1 1 calc R . .
C21 C 0.9564(5) 0.0758(7) 0.6922(4) 0.072(2) Uani 1 1 d . . .
C22 C 0.9110(4) 0.0150(6) 0.6347(3) 0.0530(16) Uani 1 1 d . . .
C23 C 0.9231(5) 0.0395(7) 0.5669(4) 0.066(2) Uani 1 1 d . . .
H23A H 0.8943 -0.0020 0.5278 0.079 Uiso 1 1 calc R . .
C24 C 0.9751(6) 0.1209(10) 0.5567(5) 0.101(4) Uani 1 1 d . . .
H24A H 0.9817 0.1355 0.5103 0.121 Uiso 1 1 calc R . .
C25 C 1.0187(7) 0.1831(11) 0.6119(6) 0.129(5) Uani 1 1 d . . .
H25A H 1.0540 0.2411 0.6037 0.155 Uiso 1 1 calc R . .
C26 C 1.0101(7) 0.1599(10) 0.6785(5) 0.115(5) Uani 1 1 d . . .
H26A H 1.0409 0.2014 0.7167 0.138 Uiso 1 1 calc R . .
N2 N 0.5941(3) -0.4453(4) 0.7661(3) 0.0455(12) Uani 1 1 d . . .
C27 C 0.5946(4) -0.3701(6) 0.7153(3) 0.0499(15) Uani 1 1 d . . .
H27A H 0.5531 -0.3734 0.6742 0.060 Uiso 1 1 calc R . .
C28 C 0.6525(4) -0.2875(6) 0.7193(3) 0.0498(15) Uani 1 1 d . . .
H28A H 0.6501 -0.2347 0.6821 0.060 Uiso 1 1 calc R . .
C29 C 0.7146(4) -0.2825(5) 0.7787(3) 0.0435(14) Uani 1 1 d . . .
C30 C 0.7131(4) -0.3600(6) 0.8301(4) 0.0578(17) Uani 1 1 d . . .
H30A H 0.7541 -0.3591 0.8716 0.069 Uiso 1 1 calc R . .
C31 C 0.6527(5) -0.4403(6) 0.8232(4) 0.0609(19) Uani 1 1 d . . .
H31A H 0.6533 -0.4930 0.8602 0.073 Uiso 1 1 calc R . .
C32 C 0.7773(4) -0.1924(6) 0.7876(3) 0.0479(15) Uani 1 1 d . . .
H32A H 0.7574 -0.1219 0.8055 0.057 Uiso 1 1 calc R . .
H32B H 0.8258 -0.2175 0.8217 0.057 Uiso 1 1 calc R . .
O100 O 0.8220(12) -0.5072(14) 0.6742(10) 0.145(6) Uiso 0.50 1 d PD . .
C104 C 0.8650(13) -0.6046(17) 0.6734(15) 0.119(8) Uiso 0.50 1 d PD . .
H10A H 0.8976 -0.6206 0.7209 0.143 Uiso 0.50 1 calc PR . .
H10B H 0.9012 -0.5970 0.6404 0.143 Uiso 0.50 1 calc PR . .
C103 C 0.8086(13) -0.6949(16) 0.6512(13) 0.117(8) Uiso 0.50 1 d PD . .
H10C H 0.8319 -0.7537 0.6254 0.140 Uiso 0.50 1 calc PR . .
H10D H 0.7931 -0.7307 0.6923 0.140 Uiso 0.50 1 calc PR . .
C102 C 0.7412(13) -0.6435(18) 0.6066(13) 0.125(8) Uiso 0.50 1 d PD . .
H10E H 0.6906 -0.6816 0.6097 0.150 Uiso 0.50 1 calc PR . .
H10F H 0.7464 -0.6414 0.5570 0.150 Uiso 0.50 1 calc PR . .
C101 C 0.7477(15) -0.532(2) 0.6379(17) 0.164(12) Uiso 0.50 1 d PD . .
H10G H 0.7313 -0.4753 0.6004 0.196 Uiso 0.50 1 calc PR . .
H10H H 0.7103 -0.5272 0.6700 0.196 Uiso 0.50 1 calc PR . .
O300 O 0.8378(9) -0.6529(12) 0.4105(8) 0.040(4) Uiso 0.25 1 d PD B 1
C301 C 0.781(3) -0.689(2) 0.442(3) 0.12(2) Uiso 0.25 1 d PD B 1
H30B H 0.7327 -0.6425 0.4266 0.138 Uiso 0.25 1 calc PR B 1
H30C H 0.7997 -0.6788 0.4937 0.138 Uiso 0.25 1 calc PR B 1
C302 C 0.7621(15) -0.8069(18) 0.4272(13) 0.048(6) Uiso 0.25 1 d PD B 1
H30D H 0.7048 -0.8168 0.4052 0.058 Uiso 0.25 1 calc PR B 1
H30E H 0.7755 -0.8537 0.4704 0.058 Uiso 0.25 1 calc PR B 1
C303 C 0.8130(17) -0.8359(15) 0.3780(13) 0.136(9) Uiso 0.25 1 d PD B 1
H30F H 0.8635 -0.8726 0.4019 0.163 Uiso 0.25 1 calc PR B 1
H30G H 0.7849 -0.8848 0.3391 0.163 Uiso 0.25 1 calc PR B 1
C304 C 0.826(2) -0.722(2) 0.3540(13) 0.088(11) Uiso 0.25 1 d PD B 1
H30H H 0.8732 -0.7205 0.3325 0.106 Uiso 0.25 1 calc PR B 1
H30I H 0.7789 -0.6963 0.3184 0.106 Uiso 0.25 1 calc PR B 1
O400 O 0.7856(15) -0.8912(15) 0.4274(12) 0.081(7) Uiso 0.25 1 d PD C 2
C401 C 0.7603(16) -0.8038(18) 0.4641(14) 0.052(6) Uiso 0.25 1 d PD C 2
H40A H 0.7664 -0.8258 0.5140 0.062 Uiso 0.25 1 calc PR C 2
H40B H 0.7031 -0.7882 0.4445 0.062 Uiso 0.25 1 calc PR C 2
C402 C 0.808(3) -0.699(2) 0.4591(17) 0.088(14) Uiso 0.25 1 d PD C 2
H40C H 0.7837 -0.6296 0.4730 0.105 Uiso 0.25 1 calc PR C 2
H40D H 0.8646 -0.7058 0.4853 0.105 Uiso 0.25 1 calc PR C 2
C403 C 0.800(2) -0.7100(18) 0.3833(16) 0.087(11) Uiso 0.25 1 d PD C 2
H40E H 0.8406 -0.6654 0.3661 0.105 Uiso 0.25 1 calc PR C 2
H40F H 0.7458 -0.6870 0.3574 0.105 Uiso 0.25 1 calc PR C 2
C404 C 0.8130(17) -0.8359(15) 0.3780(13) 0.136(9) Uiso 0.25 1 d PD C 2
H40G H 0.7851 -0.8633 0.3310 0.163 Uiso 0.25 1 calc PR C 2
H40H H 0.8708 -0.8513 0.3834 0.163 Uiso 0.25 1 calc PR C 2
O200 O 0.4543(11) 0.4155(15) 0.4726(11) 0.050(5) Uiso 0.25 1 d PD D -1
C201 C 0.4015(15) 0.503(2) 0.4621(17) 0.074(9) Uiso 0.25 1 d PD D -1
H20B H 0.3512 0.4808 0.4756 0.089 Uiso 0.25 1 calc PR D -1
H20C H 0.3889 0.5254 0.4119 0.089 Uiso 0.25 1 calc PR D -1
C202 C 0.4382(17) 0.596(2) 0.505(2) 0.087(11) Uiso 0.25 1 d PD D -1
H20D H 0.4150 0.6050 0.5470 0.105 Uiso 0.25 1 calc PR D -1
H20E H 0.4308 0.6681 0.4780 0.105 Uiso 0.25 1 calc PR D -1
C203 C 0.5230(17) 0.567(3) 0.525(2) 0.089(14) Uiso 0.25 1 d PD D -1
H20F H 0.5570 0.6276 0.5128 0.106 Uiso 0.25 1 calc PR D -1
H20G H 0.5392 0.5515 0.5765 0.106 Uiso 0.25 1 calc PR D -1
C204 C 0.5278(13) 0.465(2) 0.4850(15) 0.055(7) Uiso 0.25 1 d PD D -1
H20H H 0.5427 0.4843 0.4400 0.066 Uiso 0.25 1 calc PR D -1
H20I H 0.5686 0.4128 0.5116 0.066 Uiso 0.25 1 calc PR D -1

loop_
_atom_site_aniso_label
_atom_site_aniso_U_11
_atom_site_aniso_U_22
_atom_site_aniso_U_33
_atom_site_aniso_U_23
_atom_site_aniso_U_13
_atom_site_aniso_U_12
Hg1 0.05919(19) 0.04349(15) 0.04637(16) -0.00598(10) 0.01727(12) -0.00439(11)
Cl1 0.0924(15) 0.0767(13) 0.0461(9) -0.0004(8) 0.0180(9) -0.0301(11)
Cl2 0.0580(11) 0.0631(11) 0.0685(11) 0.0040(8) 0.0186(9) 0.0095(8)
N1 0.046(3) 0.043(3) 0.039(3) -0.003(2) 0.016(2) -0.004(2)
O1 0.035(2) 0.063(3) 0.076(3) -0.030(2) 0.003(2) 0.008(2)
C3 0.045(4) 0.050(4) 0.044(3) -0.006(3) 0.013(3) 0.003(3)
C6 0.059(5) 0.075(5) 0.055(4) -0.015(4) 0.015(3) 0.021(4)
C7 0.039(3) 0.045(3) 0.051(4) -0.011(3) 0.011(3) 0.001(3)
C8 0.035(4) 0.063(4) 0.067(4) -0.023(3) 0.002(3) 0.000(3)
C9 0.051(4) 0.053(4) 0.054(4) -0.015(3) 0.004(3) -0.002(3)
C10 0.051(4) 0.044(3) 0.041(3) -0.001(3) 0.013(3) 0.001(3)
C11 0.041(3) 0.043(3) 0.037(3) 0.005(2) 0.013(2) 0.004(2)
C12 0.039(3) 0.038(3) 0.034(3) 0.001(2) 0.010(2) -0.001(2)
C13 0.064(5) 0.053(4) 0.042(3) -0.006(3) 0.010(3) 0.011(3)
C14 0.076(5) 0.063(4) 0.056(4) -0.004(3) 0.022(4) 0.026(4)
C15 0.054(5) 0.079(5) 0.058(4) -0.003(4) 0.017(4) 0.023(4)
C16 0.049(4) 0.054(4) 0.046(3) 0.003(3) 0.014(3) 0.006(3)
C17 0.035(3) 0.041(3) 0.043(3) 0.001(2) 0.008(3) 0.000(2)
C18 0.040(3) 0.045(3) 0.046(3) -0.006(3) 0.010(3) -0.009(3)
O2 0.079(4) 0.061(3) 0.045(2) -0.010(2) 0.028(2) -0.027(2)
C19 0.069(5) 0.064(4) 0.041(3) -0.001(3) 0.009(3) -0.017(4)
C20 0.081(6) 0.084(5) 0.050(4) -0.003(4) -0.008(4) -0.043(5)
C21 0.065(5) 0.087(6) 0.055(4) 0.009(4) -0.005(4) -0.036(4)
C22 0.040(4) 0.068(4) 0.048(4) 0.012(3) 0.002(3) -0.016(3)
C23 0.056(5) 0.085(5) 0.056(4) 0.014(4) 0.009(4) -0.024(4)
C24 0.086(7) 0.150(9) 0.064(5) 0.028(6) 0.010(5) -0.059(7)
C25 0.125(10) 0.172(11) 0.081(7) 0.033(7) 0.002(6) -0.100(9)
C26 0.112(8) 0.138(10) 0.079(6) 0.017(6) -0.011(6) -0.091(8)
N2 0.051(3) 0.043(3) 0.045(3) -0.004(2) 0.016(2) -0.005(2)
C27 0.051(4) 0.052(3) 0.046(3) 0.003(3) 0.009(3) -0.004(3)
C28 0.050(4) 0.051(4) 0.051(4) 0.008(3) 0.015(3) -0.005(3)
C29 0.041(3) 0.047(3) 0.044(3) -0.007(3) 0.014(3) -0.001(3)
C30 0.056(4) 0.066(4) 0.046(4) 0.007(3) 0.000(3) -0.012(4)
C31 0.076(5) 0.063(4) 0.041(4) 0.010(3) 0.007(3) -0.017(4)
C32 0.043(4) 0.061(4) 0.041(3) 0.002(3) 0.013(3) -0.005(3)

_geom_special_details            
;
All esds (except the esd in the dihedral angle between two l.s. planes)
are estimated using the full covariance matrix. The cell esds are taken
into account individually in the estimation of esds in distances, angles
and torsion angles; correlations between esds in cell parameters are only
used when they are defined by crystal symmetry. An approximate (isotropic)
treatment of cell esds is used for estimating esds involving l.s. planes.
;

loop_
_geom_bond_atom_site_label_1
_geom_bond_atom_site_label_2
_geom_bond_distance
_geom_bond_site_symmetry_2
_geom_bond_publ_flag
Hg1 N2 2.365(5) 1_565 ?
Hg1 N1 2.371(5) . ?
Hg1 Cl1 2.3783(18) . ?
Hg1 Cl2 2.3913(19) . ?
N1 C1A 1.288(19) . ?
N1 C5 1.316(10) . ?
N1 C1 1.340(11) . ?
N1 C5A 1.38(2) . ?
O1 C7 1.381(7) . ?
O1 C6 1.390(8) . ?
C1 C2 1.374(14) . ?
C2 C3 1.427(12) . ?
C4 C3 1.343(12) . ?
C4 C5 1.375(13) . ?
C1A C2A 1.39(3) . ?
C2A C3 1.394(19) . ?
C4A C3 1.33(2) . ?
C4A C5A 1.42(3) . ?
C3 C6 1.506(9) . ?
C7 C12 1.369(8) . ?
C7 C8 1.392(9) . ?
C8 C9 1.351(9) . ?
C9 C10 1.415(9) . ?
C10 C13 1.405(9) . ?
C10 C11 1.420(8) . ?
C11 C12 1.418(8) . ?
C11 C16 1.432(9) . ?
C12 C