####################################################################### 
# 
# This file contains crystal structure data downloaded from the 
# Cambridge Structural Database (CSD) hosted by the Cambridge 
# Crystallographic Data Centre (CCDC).
# 
# Full information about CCDC data access policies and citation 
# guidelines are available at http://www.ccdc.cam.ac.uk/access/V1 
# 
# Audit and citation data items may have been added by the CCDC. 
# Please retain this information to preserve the provenance of 
# this file and to allow appropriate attribution of the data. 
# 
#######################################################################

data_4
_audit_block_doi                 10.5517/cc9rx75
_database_code_depnum_ccdc_archive 'CCDC 291097'
loop_
_citation_id
_citation_doi
_citation_year
1 10.1016/j.molstruc.2006.01.015 2006
_audit_update_record             
;
2005-11-28 deposited with the CCDC.	2024-07-12 downloaded from the CCDC.
;

_audit_creation_method           SHELXL-97
_chemical_name_systematic        
;
?
;
_chemical_name_common            ?
_chemical_melting_point          ?
_chemical_formula_moiety         ?
_chemical_formula_sum            'C43 H36 Ag F3 N2 O4.50'
_chemical_formula_weight         817.61

loop_
_atom_type_symbol
_atom_type_description
_atom_type_scat_dispersion_real
_atom_type_scat_dispersion_imag
_atom_type_scat_source
C C 0.0033 0.0016 'International Tables Vol C Tables 4.2.6.8 and 6.1.1.4'
H H 0.0000 0.0000 'International Tables Vol C Tables 4.2.6.8 and 6.1.1.4'
N N 0.0061 0.0033 'International Tables Vol C Tables 4.2.6.8 and 6.1.1.4'
O O 0.0106 0.0060 'International Tables Vol C Tables 4.2.6.8 and 6.1.1.4'
F F 0.0171 0.0103 'International Tables Vol C Tables 4.2.6.8 and 6.1.1.4'
Ag Ag -0.8971 1.1015 'International Tables Vol C Tables 4.2.6.8 and 6.1.1.4'

_symmetry_cell_setting           Triclinic
_symmetry_space_group_name_H-M   P-1

loop_
_symmetry_equiv_pos_as_xyz
'x, y, z'
'-x, -y, -z'

_cell_length_a                   10.526(2)
_cell_length_b                   13.321(3)
_cell_length_c                   14.546(3)
_cell_angle_alpha                71.45(3)
_cell_angle_beta                 86.66(3)
_cell_angle_gamma                74.71(3)
_cell_volume                     1864.6(6)
_cell_formula_units_Z            2
_cell_measurement_temperature    150(2)
_cell_measurement_reflns_used    ?
_cell_measurement_theta_min      ?
_cell_measurement_theta_max      ?

_exptl_crystal_description       rod
_exptl_crystal_colour            colourless
_exptl_crystal_size_max          0.37
_exptl_crystal_size_mid          0.32
_exptl_crystal_size_min          0.12
_exptl_crystal_density_meas      ?
_exptl_crystal_density_diffrn    1.456
_exptl_crystal_density_method    'not measured'
_exptl_crystal_F_000             836
_exptl_absorpt_coefficient_mu    0.602
_exptl_absorpt_correction_type   integration
_exptl_absorpt_correction_T_min  0.8078
_exptl_absorpt_correction_T_max  0.9312
_exptl_absorpt_process_details   ?

_exptl_special_details           
;
?
;

_diffrn_ambient_temperature      150(2)
_diffrn_radiation_wavelength     0.71073
_diffrn_radiation_type           MoK\a
_diffrn_radiation_source         'fine-focus sealed tube'
_diffrn_radiation_monochromator  graphite
_diffrn_measurement_device_type  'Nonius Kappa CCD'
_diffrn_measurement_method       'phi\omega scans'
_diffrn_detector_area_resol_mean ?
_diffrn_standards_number         ?
_diffrn_standards_interval_count ?
_diffrn_standards_interval_time  ?
_diffrn_standards_decay_%        ?
_diffrn_reflns_number            18209
_diffrn_reflns_av_R_equivalents  0.057
_diffrn_reflns_av_sigmaI/netI    0.0639
_diffrn_reflns_limit_h_min       -13
_diffrn_reflns_limit_h_max       12
_diffrn_reflns_limit_k_min       -17
_diffrn_reflns_limit_k_max       16
_diffrn_reflns_limit_l_min       -18
_diffrn_reflns_limit_l_max       12
_diffrn_reflns_theta_min         2.55
_diffrn_reflns_theta_max         27.61
_reflns_number_total             8239
_reflns_number_gt                6236
_reflns_threshold_expression     I>2sigma(I)

_computing_data_collection       'Nonius COLLECT'
_computing_cell_refinement       'Nonius DENZO'
_computing_data_reduction        'Nonius DENZO'
_computing_structure_solution    'SHELXS-97 (Sheldrick, 1990)'
_computing_structure_refinement  'SHELXL-97 (Sheldrick, 1997)'
_computing_molecular_graphics    'Bruker SHELXTL'
_computing_publication_material  'Bruker SHELXTL'

_refine_special_details          
;
Refinement of F^2^ against ALL reflections. The weighted R-factor wR and
goodness of fit S are based on F^2^, conventional R-factors R are based
on F, with F set to zero for negative F^2^. The threshold expression of
F^2^ > 2sigma(F^2^) is used only for calculating R-factors(gt) etc. and is
not relevant to the choice of reflections for refinement. R-factors based
on F^2^ are statistically about twice as large as those based on F, and R-
factors based on ALL data will be even larger.
;

_refine_ls_structure_factor_coef Fsqd
_refine_ls_matrix_type           full
_refine_ls_weighting_scheme      calc
_refine_ls_weighting_details     
'calc w=1/[\s^2^(Fo^2^)+(0.0892P)^2^+2.7925P] where P=(Fo^2^+2Fc^2^)/3'
_atom_sites_solution_primary     Patterson
_atom_sites_solution_secondary   difmap
_atom_sites_solution_hydrogens   geom
_refine_ls_hydrogen_treatment    constr
_refine_ls_extinction_method     none
_refine_ls_extinction_coef       ?
_refine_ls_number_reflns         8239
_refine_ls_number_parameters     505
_refine_ls_number_restraints     0
_refine_ls_R_factor_all          0.0875
_refine_ls_R_factor_gt           0.0624
_refine_ls_wR_factor_ref         0.1785
_refine_ls_wR_factor_gt          0.1616
_refine_ls_goodness_of_fit_ref   1.068
_refine_ls_restrained_S_all      1.068
_refine_ls_shift/su_max          0.003
_refine_ls_shift/su_mean         0.000

loop_
_atom_site_label
_atom_site_type_symbol
_atom_site_fract_x
_atom_site_fract_y
_atom_site_fract_z
_atom_site_U_iso_or_equiv
_atom_site_adp_type
_atom_site_occupancy
_atom_site_symmetry_multiplicity
_atom_site_calc_flag
_atom_site_refinement_flags
_atom_site_disorder_assembly
_atom_site_disorder_group
Ag1 Ag 1.08581(3) 1.08646(3) 0.46708(3) 0.04175(14) Uani 1 1 d . . .
O3 O 1.2180(4) 0.9632(3) 0.6205(3) 0.0560(9) Uani 1 1 d . . .
O4 O 1.0801(3) 0.8630(3) 0.6931(3) 0.0479(8) Uani 1 1 d . . .
C40 C 1.1879(5) 0.8834(4) 0.6797(3) 0.0381(10) Uani 1 1 d . . .
C41 C 1.3039(6) 0.8014(5) 0.7434(4) 0.0543(13) Uani 1 1 d . . .
F1 F 1.3242(5) 0.8262(4) 0.8196(3) 0.1046(17) Uani 1 1 d . . .
F2 F 1.2966(5) 0.6993(3) 0.7684(4) 0.1072(17) Uani 1 1 d . . .
F3 F 1.4195(4) 0.7967(4) 0.6957(4) 0.1059(15) Uani 1 1 d . . .
N1 N 0.9167(3) 1.1577(3) 0.5407(3) 0.0330(8) Uani 1 1 d . . .
C1 C 0.9111(4) 1.1246(4) 0.6381(3) 0.0356(9) Uani 1 1 d . . .
H1A H 0.9838 1.0712 0.6754 0.043 Uiso 1 1 calc R . .
C2 C 0.8023(4) 1.1665(4) 0.6849(3) 0.0381(10) Uani 1 1 d . . .
H2A H 0.8017 1.1434 0.7538 0.046 Uiso 1 1 calc R . .
C3 C 0.6943(4) 1.2418(3) 0.6320(3) 0.0349(9) Uani 1 1 d . . .
H3A H 0.6179 1.2693 0.6638 0.042 Uiso 1 1 calc R . .
C4 C 0.6991(4) 1.2767(3) 0.5318(3) 0.0305(8) Uani 1 1 d . . .
C5 C 0.8125(4) 1.2336(3) 0.4889(3) 0.0322(9) Uani 1 1 d . . .
H5A H 0.8170 1.2586 0.4202 0.039 Uiso 1 1 calc R . .
C6 C 0.5859(4) 1.3576(3) 0.4680(3) 0.0335(9) Uani 1 1 d . . .
H6A H 0.5635 1.3280 0.4184 0.040 Uiso 1 1 calc R . .
H6B H 0.5072 1.3725 0.5072 0.040 Uiso 1 1 calc R . .
O1 O 0.6262(3) 1.4561(2) 0.4224(2) 0.0335(6) Uani 1 1 d . . .
C7 C 0.5628(4) 1.5278(3) 0.3380(3) 0.0312(9) Uani 1 1 d . . .
C8 C 0.4447(4) 1.5195(4) 0.3032(4) 0.0382(10) Uani 1 1 d . . .
H8A H 0.4066 1.4617 0.3383 0.046 Uiso 1 1 calc R . .
C9 C 0.3855(4) 1.5939(4) 0.2196(4) 0.0402(10) Uani 1 1 d . . .
H9A H 0.3063 1.5872 0.1969 0.048 Uiso 1 1 calc R . .
C10 C 0.4388(4) 1.6808(4) 0.1659(3) 0.0374(10) Uani 1 1 d . . .
C11 C 0.3795(5) 1.7602(4) 0.0777(4) 0.0478(12) Uani 1 1 d . . .
H11A H 0.2991 1.7564 0.0542 0.057 Uiso 1 1 calc R . .
C12 C 0.4362(6) 1.8411(4) 0.0266(4) 0.0520(13) Uani 1 1 d . . .
H12A H 0.3949 1.8934 -0.0317 0.062 Uiso 1 1 calc R . .
C13 C 0.5556(5) 1.8479(4) 0.0598(4) 0.0464(11) Uani 1 1 d . . .
H13A H 0.5953 1.9040 0.0230 0.056 Uiso 1 1 calc R . .
C14 C 0.6149(4) 1.7740(4) 0.1448(3) 0.0368(10) Uani 1 1 d . . .
H14A H 0.6953 1.7799 0.1664 0.044 Uiso 1 1 calc R . .
C15 C 0.5585(4) 1.6890(3) 0.2011(3) 0.0324(9) Uani 1 1 d . . .
C16 C 0.6187(4) 1.6122(3) 0.2894(3) 0.0293(8) Uani 1 1 d . . .
C17 C 0.7409(4) 1.6223(3) 0.3296(3) 0.0293(8) Uani 1 1 d . . .
C18 C 0.8653(4) 1.5465(3) 0.3272(3) 0.0317(9) Uani 1 1 d . . .
C19 C 0.8785(4) 1.4612(4) 0.2870(4) 0.0398(10) Uani 1 1 d . . .
H19A H 0.8029 1.4532 0.2603 0.048 Uiso 1 1 calc R . .
C20 C 0.9981(5) 1.3896(4) 0.2857(4) 0.0464(11) Uani 1 1 d . . .
H20A H 1.0046 1.3319 0.2591 0.056 Uiso 1 1 calc R . .
C21 C 1.1123(5) 1.4011(4) 0.3238(4) 0.0506(13) Uani 1 1 d . . .
H21A H 1.1956 1.3523 0.3216 0.061 Uiso 1 1 calc R . .
C22 C 1.1024(4) 1.4828(4) 0.3640(4) 0.0455(12) Uani 1 1 d . . .
H22A H 1.1792 1.4895 0.3902 0.055 Uiso 1 1 calc R . .
C23 C 0.9797(4) 1.5575(4) 0.3670(3) 0.0353(9) Uani 1 1 d . . .
C24 C 0.9680(4) 1.6405(4) 0.4080(3) 0.0387(10) Uani 1 1 d . . .
H24A H 1.0439 1.6468 0.4357 0.046 Uiso 1 1 calc R . .
C25 C 0.8484(4) 1.7140(4) 0.4093(3) 0.0376(10) Uani 1 1 d . . .
H25A H 0.8426 1.7708 0.4369 0.045 Uiso 1 1 calc R . .
C26 C 0.7355(4) 1.7044(3) 0.3698(3) 0.0319(9) Uani 1 1 d . . .
O2 O 0.6125(3) 1.7746(2) 0.3682(2) 0.0352(7) Uani 1 1 d . . .
C27 C 0.6013(4) 1.8671(4) 0.4017(4) 0.0406(10) Uani 1 1 d . . .
H27A H 0.6773 1.8990 0.3806 0.049 Uiso 1 1 calc R . .
H27B H 0.5993 1.8445 0.4734 0.049 Uiso 1 1 calc R . .
C28 C 0.4746(4) 1.9499(3) 0.3580(4) 0.0369(10) Uani 1 1 d . . .
C29 C 0.4588(5) 1.9970(4) 0.2580(4) 0.0477(12) Uani 1 1 d . . .
H29A H 0.5269 1.9772 0.2163 0.057 Uiso 1 1 calc R . .
C30 C 0.3415(5) 2.0736(4) 0.2203(4) 0.0534(13) Uani 1 1 d . . .
H30A H 0.3291 2.1084 0.1523 0.064 Uiso 1 1 calc R . .
C31 C 0.2433(5) 2.0989(4) 0.2823(4) 0.0466(11) Uani 1 1 d . . .
H31A H 0.1628 2.1504 0.2556 0.056 Uiso 1 1 calc R . .
N2 N 0.2569(3) 2.0538(3) 0.3783(3) 0.0374(8) Uani 1 1 d . . .
C32 C 0.3719(4) 1.9804(3) 0.4155(3) 0.0341(9) Uani 1 1 d . . .
H32A H 0.3824 1.9484 0.4839 0.041 Uiso 1 1 calc R . .
C50 C 0.8499(8) 0.9349(8) 0.1535(6) 0.091(2) Uani 1 1 d . . .
H50A H 0.8072 1.0103 0.1146 0.136 Uiso 1 1 calc R . .
H50B H 0.9167 0.9356 0.1973 0.136 Uiso 1 1 calc R . .
H50C H 0.7838 0.9008 0.1916 0.136 Uiso 1 1 calc R . .
C51 C 0.9134(6) 0.8716(6) 0.0885(5) 0.0676(17) Uani 1 1 d . . .
C52 C 0.9794(7) 0.7633(7) 0.1280(6) 0.080(2) Uani 1 1 d . . .
H52A H 0.9856 0.7309 0.1965 0.096 Uiso 1 1 calc R . .
C53 C 1.0379(8) 0.6998(8) 0.0684(10) 0.114(3) Uani 1 1 d . . .
H53A H 1.0785 0.6236 0.0950 0.137 Uiso 1 1 calc R . .
C54 C 1.0339(9) 0.7540(12) -0.0338(9) 0.112(3) Uani 1 1 d . . .
H54A H 1.0775 0.7153 -0.0763 0.134 Uiso 1 1 calc R . .
C55 C 0.9690(9) 0.8585(9) -0.0690(6) 0.090(2) Uani 1 1 d . . .
H55A H 0.9661 0.8941 -0.1370 0.108 Uiso 1 1 calc R . .
C56 C 0.9074(8) 0.9151(7) -0.0105(5) 0.079(2) Uani 1 1 d . . .
H56A H 0.8574 0.9886 -0.0391 0.094 Uiso 1 1 calc R . .
O60 O 1.2964(14) 1.3784(11) 0.1295(8) 0.110(4) Uani 0.50 1 d P . .
C61 C 1.2042(15) 1.3726(14) 0.0754(10) 0.080(4) Uani 0.50 1 d P . .
H61A H 1.1164 1.3974 0.1011 0.096 Uiso 0.50 1 calc PR . .
H61B H 1.2166 1.2957 0.0772 0.096 Uiso 0.50 1 calc PR . .
C62 C 1.2108(12) 1.4401(11) -0.0223(8) 0.064(3) Uani 0.50 1 d P . .
H62A H 1.1317 1.5028 -0.0409 0.077 Uiso 0.50 1 calc PR . .
H62B H 1.2192 1.3975 -0.0680 0.077 Uiso 0.50 1 calc PR . .
C63 C 1.3288(13) 1.4774(9) -0.0207(10) 0.072(4) Uani 0.50 1 d P . .
H63A H 1.3065 1.5553 -0.0237 0.086 Uiso 0.50 1 calc PR . .
H63B H 1.3871 1.4670 -0.0747 0.086 Uiso 0.50 1 calc PR . .
C64 C 1.3913(13) 1.4018(11) 0.0774(9) 0.069(4) Uani 0.50 1 d P . .
H64A H 1.4534 1.3346 0.0704 0.083 Uiso 0.50 1 calc PR . .
H64B H 1.4395 1.4394 0.1064 0.083 Uiso 0.50 1 calc PR . .

loop_
_atom_site_aniso_label
_atom_site_aniso_U_11
_atom_site_aniso_U_22
_atom_site_aniso_U_33
_atom_site_aniso_U_23
_atom_site_aniso_U_13
_atom_site_aniso_U_12
Ag1 0.02709(18) 0.0448(2) 0.0580(2) -0.02529(17) 0.00912(14) -0.00762(14)
O3 0.048(2) 0.055(2) 0.062(2) -0.0081(18) -0.0009(17) -0.0210(17)
O4 0.0385(18) 0.051(2) 0.058(2) -0.0214(17) 0.0044(15) -0.0136(15)
C40 0.040(2) 0.033(2) 0.042(2) -0.0157(19) -0.0007(19) -0.0072(19)
C41 0.051(3) 0.045(3) 0.065(3) -0.015(3) -0.013(3) -0.010(2)
F1 0.112(3) 0.108(3) 0.087(3) -0.053(3) -0.059(3) 0.021(3)
F2 0.105(3) 0.046(2) 0.149(4) 0.006(2) -0.065(3) -0.013(2)
F3 0.055(2) 0.112(4) 0.135(4) -0.041(3) -0.011(2) 0.011(2)
N1 0.0230(16) 0.0318(18) 0.045(2) -0.0156(16) 0.0031(14) -0.0046(13)
C1 0.031(2) 0.033(2) 0.042(2) -0.0123(18) -0.0024(18) -0.0056(17)
C2 0.040(2) 0.036(2) 0.038(2) -0.0114(19) 0.0045(19) -0.0096(19)
C3 0.029(2) 0.029(2) 0.048(2) -0.0137(19) 0.0078(18) -0.0076(16)
C4 0.0240(18) 0.0231(19) 0.045(2) -0.0102(17) 0.0021(16) -0.0074(15)
C5 0.0283(19) 0.030(2) 0.040(2) -0.0106(17) 0.0030(17) -0.0103(16)
C6 0.0255(19) 0.026(2) 0.047(2) -0.0075(18) 0.0036(17) -0.0099(16)
O1 0.0270(14) 0.0270(14) 0.0445(17) -0.0060(13) -0.0017(12) -0.0094(11)
C7 0.0202(17) 0.028(2) 0.044(2) -0.0117(18) 0.0005(16) -0.0030(15)
C8 0.027(2) 0.032(2) 0.057(3) -0.013(2) 0.0009(19) -0.0111(17)
C9 0.028(2) 0.040(2) 0.054(3) -0.014(2) -0.0083(19) -0.0086(18)
C10 0.031(2) 0.039(2) 0.044(2) -0.017(2) -0.0019(18) -0.0074(18)
C11 0.046(3) 0.047(3) 0.049(3) -0.012(2) -0.013(2) -0.010(2)
C12 0.063(3) 0.048(3) 0.038(3) -0.004(2) -0.009(2) -0.012(3)
C13 0.053(3) 0.040(3) 0.044(3) -0.006(2) 0.003(2) -0.017(2)
C14 0.031(2) 0.034(2) 0.043(2) -0.0093(19) 0.0034(18) -0.0088(17)
C15 0.0248(19) 0.030(2) 0.042(2) -0.0130(18) 0.0020(17) -0.0048(16)
C16 0.0211(17) 0.028(2) 0.040(2) -0.0142(17) 0.0042(16) -0.0052(15)
C17 0.0217(18) 0.0260(19) 0.037(2) -0.0058(16) 0.0024(15) -0.0066(15)
C18 0.0234(18) 0.026(2) 0.042(2) -0.0063(17) 0.0065(16) -0.0064(15)
C19 0.027(2) 0.038(2) 0.054(3) -0.016(2) 0.0070(19) -0.0075(18)
C20 0.037(2) 0.038(3) 0.065(3) -0.023(2) 0.012(2) -0.005(2)
C21 0.027(2) 0.048(3) 0.069(3) -0.018(3) 0.008(2) 0.002(2)
C22 0.0205(19) 0.045(3) 0.063(3) -0.009(2) 0.0016(19) -0.0042(18)
C23 0.0216(18) 0.032(2) 0.046(2) -0.0049(18) 0.0024(17) -0.0060(16)
C24 0.028(2) 0.038(2) 0.052(3) -0.012(2) -0.0016(18) -0.0123(18)
C25 0.030(2) 0.034(2) 0.052(3) -0.015(2) 0.0010(19) -0.0111(17)
C26 0.0244(18) 0.029(2) 0.042(2) -0.0106(18) 0.0036(16) -0.0074(15)
O2 0.0232(13) 0.0296(15) 0.0570(19) -0.0201(14) 0.0037(13) -0.0066(11)
C27 0.028(2) 0.037(2) 0.063(3) -0.024(2) 0.006(2) -0.0093(18)
C28 0.030(2) 0.026(2) 0.058(3) -0.017(2) 0.0047(19) -0.0086(16)
C29 0.043(3) 0.041(3) 0.056(3) -0.015(2) 0.018(2) -0.008(2)
C30 0.051(3) 0.047(3) 0.048(3) -0.008(2) 0.011(2) -0.001(2)
C31 0.039(2) 0.040(3) 0.052(3) -0.011(2) 0.005(2) 0.000(2)
N2 0.0303(18) 0.0336(19) 0.051(2) -0.0184(17) 0.0081(16) -0.0079(15)
C32 0.0272(19) 0.031(2) 0.048(2) -0.0161(19) 0.0027(18) -0.0093(16)
C50 0.099(6) 0.116(7) 0.072(4) -0.029(4) 0.010(4) -0.054(5)
C51 0.056(3) 0.082(5) 0.068(4) -0.017(3) 0.012(3) -0.035(3)
C52 0.054(4) 0.093(6) 0.078(4) 0.003(4) -0.009(3) -0.027(4)
C53 0.061(5) 0.088(6) 0.195(12) -0.048(7) -0.015(6) -0.013(4)
C54 0.072(6) 0.167(11) 0.133(9) -0.088(9) 0.016(6) -0.044(6)
C55 0.086(6) 0.119(7) 0.082(5) -0.044(5) 0.014(4) -0.044(5)
C56 0.083(5) 0.091(5) 0.064(4) -0.013(4) -0.003(3) -0.040(4)
O60 0.123(10) 0.127(10) 0.057(6) -0.001(6) 0.002(6) -0.032(8)
C61 0.088(10) 0.122(12) 0.066(8) -0.040(8) 0.017(7) -0.079(10)
C62 0.057(7) 0.082(9) 0.046(6) -0.035(6) -0.006(5) 0.015(6)
C63 0.072(8) 0.037(6) 0.084(9) -0.011(6) 0.037(7) 0.007(5)
C64 0.065(8) 0.075(8) 0.065(7) -0.046(7) -0.027(6) 0.020(7)

_geom_special_details            
;
All esds (except the esd in the dihedral angle between two l.s. planes)
are estimated using the full covariance matrix. The cell esds are taken
into account individually in the estimation of esds in distances, angles
and torsion angles; correlations between esds in cell parameters are only
used when they are defined by crystal symmetry. An approximate (isotropic)
treatment of cell esds is used for estimating esds involving l.s. planes.
;

loop_
_geom_bond_atom_site_label_1
_geom_bond_atom_site_label_2
_geom_bond_distance
_geom_bond_site_symmetry_2
_geom_bond_publ_flag
Ag1 N1 2.179(3) . ?
Ag1 N2 2.185(4) 1_645 ?
Ag1 O3 2.538(4) . ?
Ag1 Ag1 3.1743(12) 2_776 ?
O3 C40 1.239(6) . ?
O4 C40 1.226(6) . ?
C40 C41 1.525(7) . ?
C41 F1 1.297(7) . ?
C41 F2 1.314(7) . ?
C41 F3 1.362(7) . ?
N1 C1 1.346(6) . ?
N1 C5 1.349(5) . ?
C1 C2 1.379(6) . ?
C2 C3 1.379(6) . ?
C3 C4 1.384(6) . ?
C4 C5 1.388(6) . ?
C4 C6 1.503(6) . ?
C6 O1 1.431(5) . ?
O1 C7 1.370(5) . ?
C7 C16 1.381(6) . ?
C7 C8 1.413(6) . ?
C8 C9 1.359(7) . ?
C9 C10 1.407(7) . ?
C10 C11 1.427(7) . ?
C10 C15 1.431(6) . ?
C11 C12 1.359(7) . ?
C12 C13 1.406(7) . ?
C13 C14 1.371(7) . ?
C14 C15 1.419(6) . ?
C15 C16 1.419(6) . ?
C16 C17 1.497(5) . ?
C17 C26 1.383(6) . ?
C17 C18 1.434(5) . ?
C18 C19 1.408(6) . ?
C18 C23 1.426(6) . ?
C19 C20 1.368(6) . ?
C20 C21 1.416(7) . ?
C21 C22 1.368(8) . ?
C22 C23 1.415(6) . ?
C23 C24 1.391(7) . ?
C24 C25 1.379(6) . ?
C