####################################################################### 
# 
# This file contains crystal structure data downloaded from the 
# Cambridge Structural Database (CSD) hosted by the Cambridge 
# Crystallographic Data Centre (CCDC).
# 
# Full information about CCDC data access policies and citation 
# guidelines are available at http://www.ccdc.cam.ac.uk/access/V1 
# 
# Audit and citation data items may have been added by the CCDC. 
# Please retain this information to preserve the provenance of 
# this file and to allow appropriate attribution of the data. 
# 
#######################################################################

data_c1917
_audit_block_doi                 10.5517/cc8nqtf
_database_code_depnum_ccdc_archive 'CCDC 258255'
_audit_update_record             
;
2004-12-13 deposited with the CCDC.	2024-07-12 downloaded from the CCDC.
;

_audit_creation_method           SHELXL-97
_chemical_name_systematic        
;
Copper(I) Iodide 2:1 Complex with
2,2,7,7-Tetramethyl-1,2,3,6,7,8-Hexahydro-cinnolino[5,4,3-cde]cinnoline,
Solvate with 1.33 Acetonitrile
;
_chemical_name_common            ?
_chemical_formula_moiety         ?
_chemical_formula_sum            'C18.67 H24 Cu2 I2 N5.33'
_chemical_formula_weight         703.98

loop_
_atom_type_symbol
_atom_type_description
_atom_type_scat_dispersion_real
_atom_type_scat_dispersion_imag
_atom_type_scat_source
C C 0.0033 0.0016 'International Tables Vol C Tables 4.2.6.8 and 6.1.1.4'
H H 0.0000 0.0000 'International Tables Vol C Tables 4.2.6.8 and 6.1.1.4'
N N 0.0061 0.0033 'International Tables Vol C Tables 4.2.6.8 and 6.1.1.4'
Cu Cu 0.3201 1.2651 'International Tables Vol C Tables 4.2.6.8 and 6.1.1.4'
I I -0.4742 1.8119 'International Tables Vol C Tables 4.2.6.8 and 6.1.1.4'

_symmetry_cell_setting           Trigonal
_symmetry_space_group_name_H-M   R-3

loop_
_symmetry_equiv_pos_as_xyz
'x, y, z'
'-y, x-y, z'
'-x+y, -x, z'
'x+2/3, y+1/3, z+1/3'
'-y+2/3, x-y+1/3, z+1/3'
'-x+y+2/3, -x+1/3, z+1/3'
'x+1/3, y+2/3, z+2/3'
'-y+1/3, x-y+2/3, z+2/3'
'-x+y+1/3, -x+2/3, z+2/3'
'-x, -y, -z'
'y, -x+y, -z'
'x-y, x, -z'
'-x+2/3, -y+1/3, -z+1/3'
'y+2/3, -x+y+1/3, -z+1/3'
'x-y+2/3, x+1/3, -z+1/3'
'-x+1/3, -y+2/3, -z+2/3'
'y+1/3, -x+y+2/3, -z+2/3'
'x-y+1/3, x+2/3, -z+2/3'

_cell_length_a                   26.064(2)
_cell_length_b                   26.064(2)
_cell_length_c                   19.398(2)
_cell_angle_alpha                90.00
_cell_angle_beta                 90.00
_cell_angle_gamma                120.00
_cell_volume                     11412.7(18)
_cell_formula_units_Z            18
_cell_measurement_temperature    223(2)
_cell_measurement_reflns_used    ?
_cell_measurement_theta_min      ?
_cell_measurement_theta_max      ?

_exptl_crystal_description       prism
_exptl_crystal_colour            brown
_exptl_crystal_size_max          0.22
_exptl_crystal_size_mid          0.20
_exptl_crystal_size_min          0.12
_exptl_crystal_density_meas      ?
_exptl_crystal_density_diffrn    1.844
_exptl_crystal_density_method    'not measured'
_exptl_crystal_F_000             6072
_exptl_absorpt_coefficient_mu    4.125
_exptl_absorpt_correction_type   integration
_exptl_absorpt_correction_T_min  0.5421
_exptl_absorpt_correction_T_max  0.6907

_exptl_special_details           
;
?
;

_diffrn_ambient_temperature      223(2)
_diffrn_radiation_wavelength     0.71073
_diffrn_radiation_type           MoK\a
_diffrn_radiation_source         'fine-focus sealed tube'
_diffrn_radiation_monochromator  graphite
_diffrn_measurement_device_type  'SMART CCD Siemens'
_diffrn_measurement_method       'omega scans'
_diffrn_detector_area_resol_mean ?
_diffrn_standards_number         ?
_diffrn_standards_interval_count ?
_diffrn_standards_interval_time  ?
_diffrn_standards_decay_%        ?
_diffrn_reflns_number            16242
_diffrn_reflns_av_R_equivalents  0.0653
_diffrn_reflns_av_sigmaI/netI    0.0483
_diffrn_reflns_limit_h_min       -23
_diffrn_reflns_limit_h_max       34
_diffrn_reflns_limit_k_min       -31
_diffrn_reflns_limit_k_max       31
_diffrn_reflns_limit_l_min       -24
_diffrn_reflns_limit_l_max       25
_diffrn_reflns_theta_min         6.50
_diffrn_reflns_theta_max         28.28
_reflns_number_total             6021
_reflns_number_gt                3543
_reflns_threshold_expression     >2sigma(I)

_computing_data_collection       ?
_computing_cell_refinement       ?
_computing_data_reduction        ?
_computing_structure_solution    'SHELXS-97 (Sheldrick, 1990)'
_computing_structure_refinement  'SHELXL-97 (Sheldrick, 1997)'
_computing_molecular_graphics    ?
_computing_publication_material  ?

_refine_special_details          
;
Refinement of F^2^ against ALL reflections.  The weighted R-factor wR and
goodness of fit S are based on F^2^, conventional R-factors R are based
on F, with F set to zero for negative F^2^. The threshold expression of
F^2^ > 2sigma(F^2^) is used only for calculating R-factors(gt) etc. and is
not relevant to the choice of reflections for refinement.  R-factors based
on F^2^ are statistically about twice as large as those based on F, and R-
factors based on ALL data will be even larger.
;

_refine_ls_structure_factor_coef Fsqd
_refine_ls_matrix_type           full
_refine_ls_weighting_scheme      
'calc w=1/[\s^2^(Fo^2^)+(0.0420P)^2^+36.8192P] where P=(Fo^2^+2Fc^2^)/3'
_atom_sites_solution_primary     direct
_atom_sites_solution_secondary   difmap
_atom_sites_solution_hydrogens   geom
_refine_ls_hydrogen_treatment    mixed
_refine_ls_extinction_method     SHELXL
_refine_ls_extinction_coef       0.000185(15)
_refine_ls_extinction_expression Fc^*^=kFc[1+0.001xFc^2^\l^3^/sin(2\q)]^-1/4^
_refine_ls_number_reflns         6021
_refine_ls_number_parameters     251
_refine_ls_number_restraints     0
_refine_ls_R_factor_all          0.0577
_refine_ls_R_factor_gt           0.0322
_refine_ls_wR_factor_ref         0.1053
_refine_ls_wR_factor_gt          0.0963
_refine_ls_goodness_of_fit_ref   1.042
_refine_ls_restrained_S_all      1.042
_refine_ls_shift/su_max          0.001
_refine_ls_shift/su_mean         0.000

loop_
_atom_site_label
_atom_site_type_symbol
_atom_site_fract_x
_atom_site_fract_y
_atom_site_fract_z
_atom_site_U_iso_or_equiv
_atom_site_adp_type
_atom_site_occupancy
_atom_site_calc_flag
_atom_site_refinement_flags
_atom_site_disorder_assembly
_atom_site_disorder_group
Cu1 Cu 0.34842(2) 0.01542(2) 0.08246(2) 0.02163(13) Uani 1 d . . .
Cu2 Cu 0.333002(19) -0.01540(2) -0.08247(2) 0.02148(13) Uani 1 d . . .
I1 I 0.261390(11) -0.000006(11) 0.000004(13) 0.02618(10) Uani 1 d . . .
I2 I 0.404711(11) 0.071381(11) -0.166679(14) 0.02626(10) Uani 1 d . . .
N1 N 0.35038(13) 0.08373(13) 0.13695(14) 0.0169(6) Uani 1 d . . .
N2 N 0.31632(13) 0.06667(12) 0.19606(15) 0.0169(6) Uani 1 d . . .
N3 N 0.40001(12) -0.01760(13) -0.02940(15) 0.0168(6) Uani 1 d . . .
N4 N 0.41755(13) 0.01748(13) 0.02943(15) 0.0169(6) Uani 1 d . . .
C1 C 0.36792(15) 0.13620(15) 0.10863(17) 0.0163(7) Uani 1 d . . .
C2 C 0.35085(15) 0.17544(15) 0.13725(18) 0.0175(7) Uani 1 d . . .
C3 C 0.36775(15) 0.23173(15) 0.10892(17) 0.0168(7) Uani 1 d . . .
C4 C 0.40436(17) 0.25035(16) 0.04400(19) 0.0212(8) Uani 1 d . . .
H4A H 0.4291 0.2927 0.0433 0.025 Uiso 1 d R . .
H4B H 0.3781 0.2390 0.0051 0.025 Uiso 1 d R . .
C5 C 0.44344(17) 0.22164(16) 0.03753(19) 0.0224(8) Uani 1 d . . .
C6 C 0.40429(16) 0.15409(15) 0.04412(19) 0.0208(8) Uani 1 d . . .
H6A H 0.3778 0.1393 0.0054 0.025 Uiso 1 d R . .
H6B H 0.4289 0.1363 0.0430 0.025 Uiso 1 d R . .
C7 C 0.49195(19) 0.24611(19) 0.0926(2) 0.0362(10) Uani 1 d . . .
H7A H 0.5160 0.2279 0.0880 0.043 Uiso 1 d R . .
H7B H 0.4741 0.2380 0.1375 0.043 Uiso 1 d R . .
H7C H 0.5161 0.2883 0.0876 0.043 Uiso 1 d R . .
C8 C 0.47081(19) 0.23541(19) -0.0346(2) 0.0327(10) Uani 1 d . . .
H8A H 0.4949 0.2775 -0.0401 0.039 Uiso 1 d R . .
H8B H 0.4402 0.2201 -0.0690 0.039 Uiso 1 d R . .
H8C H 0.4948 0.2174 -0.0408 0.039 Uiso 1 d R . .
C9 C 0.43362(15) -0.03719(15) -0.05623(18) 0.0171(7) Uani 1 d . . .
C10 C 0.49023(15) -0.01927(15) -0.02816(17) 0.0173(7) Uani 1 d . . .
C11 C 0.52923(15) -0.03732(15) -0.05612(18) 0.0175(7) Uani 1 d . . .
C12 C 0.50985(16) -0.07802(17) -0.11652(19) 0.0207(8) Uani 1 d . . .
H12A H 0.4931 -0.1180 -0.1000 0.025 Uiso 1 d R . .
H12B H 0.5439 -0.0694 -0.1440 0.025 Uiso 1 d R . .
C13 C 0.46266(16) -0.07424(18) -0.16224(18) 0.0232(8) Uani 1 d . . .
C14 C 0.41231(16) -0.07790(16) -0.11672(19) 0.0209(8) Uani 1 d . . .
H14A H 0.3867 -0.0695 -0.1441 0.025 Uiso 1 d R . .
H14B H 0.3894 -0.1178 -0.1000 0.025 Uiso 1 d R . .
C15 C 0.49178(19) -0.0164(2) -0.2028(2) 0.0329(9) Uani 1 d . . .
H15A H 0.5256 -0.0126 -0.2271 0.039 Uiso 1 d R . .
H15B H 0.5045 0.0166 -0.1719 0.039 Uiso 1 d R . .
H15C H 0.4644 -0.0156 -0.2353 0.039 Uiso 1 d R . .
C16 C 0.43664(19) -0.1268(2) -0.2117(2) 0.0344(11) Uani 1 d . . .
H16A H 0.4183 -0.1625 -0.1848 0.041 Uiso 1 d R . .
H16B H 0.4670 -0.1267 -0.2398 0.041 Uiso 1 d R . .
H16C H 0.4073 -0.1263 -0.2411 0.041 Uiso 1 d R . .
N5 N 0.5911(3) 0.1825(3) 0.0066(3) 0.0762(16) Uani 1 d . . .
C17 C 0.5882(2) 0.1762(3) -0.0501(3) 0.0560(14) Uani 1 d . . .
C18 C 0.5844(3) 0.1688(4) -0.1248(4) 0.095(3) Uani 1 d . . .
N6 N 0.6667 0.3333 -0.0787(14) 0.203(8) Uiso 1 d S . .
C19 C 0.6667 0.3333 -0.0181(13) 0.127(6) Uiso 1 d S . .
C20 C 0.6667 0.3333 0.0515(9) 0.090(4) Uiso 1 d S . .

loop_
_atom_site_aniso_label
_atom_site_aniso_U_11
_atom_site_aniso_U_22
_atom_site_aniso_U_33
_atom_site_aniso_U_23
_atom_site_aniso_U_13
_atom_site_aniso_U_12
Cu1 0.0219(3) 0.0222(3) 0.0253(3) -0.00205(19) 0.00253(19) 0.0145(2)
Cu2 0.0149(2) 0.0220(3) 0.0253(3) -0.00212(19) -0.00463(18) 0.0075(2)
I1 0.02213(15) 0.03043(16) 0.02869(16) -0.00300(11) -0.00150(10) 0.01518(12)
I2 0.02127(15) 0.02122(15) 0.03117(16) 0.00324(10) -0.00321(10) 0.00679(11)
N1 0.0177(15) 0.0187(16) 0.0170(15) -0.0012(12) 0.0036(12) 0.0111(13)
N2 0.0183(15) 0.0154(15) 0.0187(15) 0.0053(12) 0.0049(12) 0.0097(13)
N3 0.0145(15) 0.0183(15) 0.0187(15) -0.0018(12) -0.0007(12) 0.0092(13)
N4 0.0153(15) 0.0187(15) 0.0188(15) -0.0017(12) -0.0015(12) 0.0100(13)
C1 0.0180(18) 0.0138(17) 0.0176(17) 0.0000(14) 0.0015(14) 0.0084(15)
C2 0.0160(17) 0.0144(17) 0.0219(18) 0.0007(15) 0.0022(15) 0.0075(15)
C3 0.0174(17) 0.0170(18) 0.0171(17) 0.0035(14) 0.0039(14) 0.0095(15)
C4 0.027(2) 0.0159(18) 0.0207(18) 0.0052(14) 0.0090(15) 0.0108(16)
C5 0.0243(19) 0.0211(18) 0.0216(17) 0.0051(15) 0.0059(15) 0.0112(16)
C6 0.0270(19) 0.0192(18) 0.0185(17) 0.0025(15) 0.0077(15) 0.0133(16)
C7 0.027(2) 0.035(2) 0.044(3) 0.001(2) 0.0018(19) 0.0131(19)
C8 0.030(2) 0.032(2) 0.036(2) 0.0089(18) 0.0178(19) 0.0150(19)
C9 0.0152(18) 0.0166(17) 0.0194(18) -0.0017(14) -0.0003(14) 0.0078(15)
C10 0.0152(18) 0.0203(18) 0.0168(17) 0.0000(15) -0.0007(14) 0.0092(16)
C11 0.0150(18) 0.0171(17) 0.0185(18) -0.0006(14) -0.0033(14) 0.0067(15)
C12 0.0156(18) 0.0245(19) 0.0233(19) -0.0073(15) -0.0040(15) 0.0111(16)
C13 0.0218(19) 0.033(2) 0.0190(17) -0.0096(16) -0.0054(15) 0.0167(17)
C14 0.0178(18) 0.0227(18) 0.0240(19) -0.0094(15) -0.0061(15) 0.0115(16)
C15 0.035(2) 0.044(3) 0.0237(19) 0.0018(18) 0.0012(17) 0.023(2)
C16 0.033(2) 0.051(3) 0.026(2) -0.0217(19) -0.0095(18) 0.026(2)
N5 0.085(4) 0.081(4) 0.061(3) 0.010(3) 0.004(3) 0.041(3)
C17 0.043(3) 0.062(4) 0.064(4) -0.004(3) -0.002(3) 0.027(3)
C18 0.091(5) 0.138(7) 0.078(5) -0.045(5) -0.025(4) 0.075(5)

_geom_special_details            
;
All esds (except the esd in the dihedral angle between two l.s. planes)
are estimated using the full covariance matrix.  The cell esds are taken
into account individually in the estimation of esds in distances, angles
and torsion angles; correlations between esds in cell parameters are only
used when they are defined by crystal symmetry.  An approximate (isotropic)
treatment of cell esds is used for estimating esds involving l.s. planes.
;

loop_
_geom_bond_atom_site_label_1
_geom_bond_atom_site_label_2
_geom_bond_distance
_geom_bond_site_symmetry_2
_geom_bond_publ_flag
Cu1 N1 2.049(3) . ?
Cu1 N4 2.052(3) . ?
Cu1 I1 2.6370(6) . ?
Cu1 I2 2.6553(6) 6 ?
Cu2 N2 2.052(3) 8_544 ?
Cu2 N3 2.053(3) . ?
Cu2 I1 2.6370(5) . ?
Cu2 I2 2.6553(5) . ?
I2 Cu1 2.6553(5) 8_544 ?
N1 C1 1.325(4) . ?
N1 N2 1.381(4) . ?
N2 C3 1.323(4) 13 ?
N2 Cu2 2.052(3) 6 ?
N3 C9 1.322(4) . ?
N3 N4 1.389(4) . ?
N4 C11 1.320(4) 10_655 ?
C1 C2 1.417(5) . ?
C1 C6 1.497(5) . ?
C2 C2 1.388(7) 13 ?
C2 C3 1.415(5) . ?
C3 N2 1.323(4) 13 ?
C3 C4 1.506(5) . ?
C4 C5 1.541(5) . ?
C5 C8 1.529(5) . ?
C5 C7 1.530(6) . ?
C5 C6 1.537(5) . ?
C9 C10 1.415(5) . ?
C9 C14 1.491(5) . ?
C10 C10 1.397(7) 10_655 ?
C10 C11 1.424(5) . ?
C11 N4 1.320(4) 10_655 ?
C11 C12 1.489(5) . ?
C12 C13 1.559(5) . ?
C13 C15 1.524(6) . ?
C13 C16 1.525(5) . ?
C13 C14 1.544(5) . ?
N5 C17 1.108(7) . ?
C17 C18 1.459(10) . ?
N6 C19 1.18(2) . ?
C19 C20 1.35(2) . ?

loop_
_geom_angle_atom_site_label_1
_geom_angle_atom_site_label_2
_geom_angle_atom_site_label_3
_geom_angle
_geom_angle_site_symmetry_1
_geom_angle_site_symmetry_3
_geom_angle_publ_flag
N1 Cu1 N4 126.57(12) . . ?
N1 Cu1 I1 95.23(8) . . ?
N4 Cu1 I1 112.15(8) . . ?
N1 Cu1 I2 110.60(8) . 6 ?
N4 Cu1 I2 94.86(8) . 6 ?
I1 Cu1 I2 119.574(19) . 6 ?
N2 Cu2 N3 126.54(11) 8_544 . ?
N2 Cu2 I1 95.32(8) 8_544 . ?
N3 Cu2 I1 112.14(8) . . ?
N2 Cu2 I2 110.44(8) 8_544 . ?
N3 Cu2 I2 94.93(8) . . ?
I1 Cu2 I2 119.596(19) . . ?
Cu2 I1 Cu1 76.753(17) . . ?
Cu2 I2 Cu1 77.855(17) . 8_544 ?
C1 N1 N2 120.7(3) . . ?
C1 N1 Cu1 121.9(2) . . ?
N2 N1 Cu1 114.6(2) . . ?
C3 N2 N1 120.7(3) 13 . ?
C3 N2 Cu2 121.7(2) 13 6 ?
N1 N2 Cu2 114.8(2) . 6 ?
C9 N3 N4 120.9(3) . . ?
C9 N3 Cu2 123.4(2) . . ?
N4 N3 Cu2 113.5(2) . . ?
C11 N4 N3 121.1(3) 10_655 . ?
C11 N4 Cu1 123.4(2) 10_655 . ?
N3 N4 Cu1 113.5(2) . . ?
N1 C1 C2 120.8(3) . . ?
N1 C1 C6 120.4(3) . . ?
C2 C1 C6 118.8(3) . . ?
C2 C2 C3 118.3(4) 13 . ?
C2 C2 C1 118.4(4) 13 . ?
C3 C2 C1 123.3(3) . . ?
N2 C3 C2 121.1(3) 13 . ?
N2 C3 C4 120.4(3) 13 . ?
C2 C3 C4 118.5(3) . . ?
C3 C4 C5 112.2(3) . . ?
C8 C5 C7 110.5(3) . . ?
C8 C5 C6 108.0(3) . . ?
C7 C5 C6 110.9(3) . . ?
C8 C5 C4 107.7(3) . . ?
C7 C5 C4 110.5(3) . . ?
C6 C5 C4 109.2(3) . . ?
C1 C6 C5 112.4(3) . . ?
N3 C9 C10 120.3(3) . . ?
N3 C9 C14 120.1(3) . . ?
C10 C9 C14 119.6(3) . . ?
C10 C10 C9 118.9(4) 10_655 . ?
C10 C10 C11 118.1(4) 10_655 . ?
C9 C10 C11 122.9(3) . . ?
N4 C11 C10 120.3(3) 10_655 . ?
N4 C11 C12 120.2(3) 10_655 . ?
C10 C11 C12 119.4(3) . . ?
C11 C12 C13 113.6(3) . . ?
C15 C13 C16 110.0(3) . . ?
C15 C13 C14 110.1(3) . . ?
C16 C13 C14 108.7(3) . . ?
C15 C13 C12 109.7(3) . . ?
C16 C13 C12 108.1(3) . . ?
C14 C13 C12 110.1(3) . . ?
C9 C14 C13 113.8(3) . . ?
N5 C17 C18 179.1(8) . . ?
N6 C19 C20 180.000(3) . . ?

_diffrn_measured_fraction_theta_max 0.318
_diffrn_reflns_theta_full        28.28
_diffrn_measured_fraction_theta_full 0.318
_refine_diff_density_max         0.965
_refine_diff_density_min         -0.781
_refine_diff_density_rms         0.121
#==============================================================================
