
#######################################################################
#
#                 Cambridge Crystallographic Data Centre
#                                CCDC
#
#######################################################################
#
# If this CIF has been generated from an entry in the Cambridge
# Structural Database, then it will include bibliographic, chemical,
# crystal, experimental, refinement or atomic coordinate data resulting
# from the CCDC's data processing and validation procedures.
#
#######################################################################

data_CSD_CIF_QETNAF
_audit_creation_date 2007-04-03
_audit_creation_method CSD-ConQuest-V1
_database_code_CSD QETNAF
_database_code_depnum_ccdc_archive 'CCDC 295849'
_chemical_formula_sum 'C18 H17 N3 O1'
_chemical_formula_moiety
;
C6 H7 N1 O1,C12 H10 N2
;
_journal_coden_Cambridge 1147
_journal_volume 6
_journal_year 2006
_journal_page_first 2427
_journal_name_full 'Cryst.Growth Des. '
loop_
_publ_author_name
"A.N.Sokolov"
"T.Friscic"
"S.Blais"
"J.A.Ripmeester"
"L.R.MacGillivray"
_chemical_name_systematic
;
(3-Aminophenol) (trans-1,2-bis(4-pyridyl)ethylene)
;
_chemical_name_common
;
Teaching Subset: Fundamental Chemistry, Symmetry
;
_cell_volume   1535.155
_exptl_crystal_colour 'colorless'
_exptl_crystal_density_diffrn 1.261
_exptl_crystal_description 'prism'
_exptl_crystal_preparation 'acetonitrile'
_diffrn_ambient_temperature 190
#These two values have been output from a single CSD field.
_refine_ls_R_factor_gt 0.0451
_refine_ls_wR_factor_gt 0.0451
_symmetry_cell_setting monoclinic
_symmetry_space_group_name_H-M 'P 21/n'
_symmetry_Int_Tables_number 14
loop_
_symmetry_equiv_pos_site_id
_symmetry_equiv_pos_as_xyz
1 x,y,z
2 1/2-x,1/2+y,1/2-z
3 -x,-y,-z
4 -1/2+x,-1/2-y,-1/2+z
_cell_length_a 7.7207(8)
_cell_length_b 9.1516(9)
_cell_length_c 21.737(2)
_cell_angle_alpha 90
_cell_angle_beta 91.743(5)
_cell_angle_gamma 90
_cell_formula_units_Z 4
loop_
_atom_type_symbol
_atom_type_radius_bond
C 0.68
H 0.23
N 0.68
O 0.68
loop_
_atom_site_label
_atom_site_type_symbol
_atom_site_fract_x
_atom_site_fract_y
_atom_site_fract_z
O1 O 0.59440(14) 0.89971(13) 0.15546(5)
H1 H 0.58600 0.90410 0.19390
N1 N -0.02169(17) 0.94170(17) 0.16881(7)
H2 H -0.01000 0.94800 0.20910
H3 H -0.12540 0.94610 0.15100
C1 C 0.4333(2) 0.90625(16) 0.12815(7)
C2 C 0.28652(19) 0.91820(17) 0.16248(7)
H4 H 0.29730 0.92180 0.20610
C3 C 0.1219(2) 0.92505(16) 0.13374(8)
C4 C 0.1099(2) 0.91925(17) 0.06937(8)
H5 H -0.00030 0.92280 0.04880
C5 C 0.2586(2) 0.90839(18) 0.03588(8)
H6 H 0.24890 0.90570 -0.00780
C6 C 0.4211(2) 0.90140(17) 0.06417(7)
H7 H 0.52210 0.89350 0.04050
N2 N 0.10520(19) 0.57070(17) -0.22036(7)
N3 N 0.4146(2) 0.40076(16) 0.19619(7)
C7 C 0.1759(2) 0.4499(2) -0.19522(9)
H8 H 0.20500 0.37210 -0.22190
C8 C 0.2087(2) 0.43181(19) -0.13342(8)
H9 H 0.25860 0.34340 -0.11840
C9 C 0.1686(2) 0.54353(18) -0.09266(8)
C10 C 0.0930(2) 0.66844(19) -0.11859(8)
H10 H 0.06150 0.74760 -0.09300
C11 C 0.0640(2) 0.6770(2) -0.18126(8)
H11 H 0.01190 0.76330 -0.19760
C12 C 0.2043(2) 0.53556(18) -0.02633(8)
H12 H 0.16410 0.61460 -0.00230
C13 C 0.2871(2) 0.42894(18) 0.00371(8)
H13 H 0.32410 0.34860 -0.02020
C14 C 0.3274(2) 0.42231(17) 0.06974(8)
C15 C 0.2967(2) 0.53694(19) 0.11020(8)
H14 H 0.24540 0.62520 0.09550
C16 C 0.3410(2) 0.5212(2) 0.17141(8)
H15 H 0.31810 0.60060 0.19810
C17 C 0.4425(2) 0.2915(2) 0.15752(8)
H16 H 0.49320 0.20440 0.17370
C18 C 0.4022(2) 0.29702(19) 0.09536(8)
H17 H 0.42550 0.21530 0.07000
#END
