
#######################################################################
#
#                 Cambridge Crystallographic Data Centre
#                                CCDC
#
#######################################################################
#
# If this CIF has been generated from an entry in the Cambridge
# Structural Database, then it will include bibliographic, chemical,
# crystal, experimental, refinement or atomic coordinate data resulting
# from the CCDC's data processing and validation procedures.
#
#######################################################################

data_CSD_CIF_QEZYUQ
_audit_creation_date 2007-07-11
_audit_creation_method CSD-ConQuest-V1
_database_code_CSD QEZYUQ
_database_code_depnum_ccdc_archive 'CCDC 645134'
_chemical_formula_sum 'C2 H3 F2 N1 O1 Xe1'
_chemical_formula_moiety
;
F2 O1 Xe1,C2 H3 N1
;
_journal_coden_Cambridge 4
_journal_volume 129
_journal_year 2007
_journal_page_first 3598
_journal_name_full 'J.Am.Chem.Soc. '
loop_
_publ_author_name
"D.S.Brock"
"V.Bilir"
"H.P.A.Mercier"
"G.J.Schrobilgen"
_chemical_name_systematic
;
difluoro-oxo-xenon acetonitrile solvate
;
_chemical_name_common
;
Teaching Subset: Fundamental Chemistry, Symmetry
;
_cell_volume   1059.468
_exptl_crystal_density_diffrn 2.838
_diffrn_ambient_temperature 100
_diffrn_special_details
;
twin

;
#These two values have been output from a single CSD field.
_refine_ls_R_factor_gt 0.0299
_refine_ls_wR_factor_gt 0.0299
_symmetry_cell_setting monoclinic
_symmetry_space_group_name_H-M 'P 21/c'
_symmetry_Int_Tables_number 14
loop_
_symmetry_equiv_pos_site_id
_symmetry_equiv_pos_as_xyz
1 x,y,z
2 -x,1/2+y,1/2-z
3 -x,-y,-z
4 x,-1/2-y,-1/2+z
_cell_length_a 8.7819(4)
_cell_length_b 13.9862(6)
_cell_length_c 11.0182(6)
_cell_angle_alpha 90
_cell_angle_beta 128.476(2)
_cell_angle_gamma 90
_cell_formula_units_Z 8
loop_
_atom_type_symbol
_atom_type_radius_bond
C 0.68
H 0.23
F 0.64
N 0.68
O 0.68
Xe 1.48
loop_
_atom_site_label
_atom_site_type_symbol
_atom_site_fract_x
_atom_site_fract_y
_atom_site_fract_z
Xe1 Xe 0.27254(4) 0.26869(2) 1.00284(3)
O1 O 0.2689(5) 0.3955(3) 1.0156(4)
F1 F -0.0137(4) 0.2568(2) 0.8571(3)
F2 F 0.5601(4) 0.2606(2) 1.1465(3)
N1 N 0.2691(7) 0.0748(4) 0.9585(5)
C1 C 0.2559(7) 0.0288(4) 0.8684(6)
C2 C 0.2331(7) -0.0298(5) 0.7490(6)
H1 H 0.10050 -0.05540 0.68040
H2 H 0.32630 -0.08280 0.79770
H3 H 0.25700 0.00920 0.68860
Xe2 Xe -0.25457(4) 0.26319(2) 0.98683(3)
O2 O -0.4400(6) 0.3518(3) 0.8940(5)
F3 F -0.4442(5) 0.1588(3) 0.8966(4)
F4 F -0.0449(5) 0.3573(3) 1.0881(4)
N2 N 0.0505(7) 0.1297(4) 1.1347(5)
C3 C 0.1423(7) 0.0618(4) 1.1848(6)
C4 C 0.2610(8) -0.0235(5) 1.2511(6)
H4 H 0.33190 -0.02380 1.36350
H5 H 0.35400 -0.02420 1.22980
H6 H 0.17760 -0.08020 1.20500
#END
