
#######################################################################
#
#                 Cambridge Crystallographic Data Centre
#                                CCDC
#
#######################################################################
#
# If this CIF has been generated from an entry in the Cambridge
# Structural Database, then it will include bibliographic, chemical,
# crystal, experimental, refinement or atomic coordinate data resulting
# from the CCDC's data processing and validation procedures.
#
#######################################################################

data_CSD_CIF_QIFKEX
_audit_creation_date 2013-06-14
_audit_creation_method CSD-ConQuest-V1
_database_code_CSD QIFKEX
_database_code_depnum_ccdc_archive 'CCDC 944506'
_chemical_formula_sum 'C37 H67 N1 O13'
_chemical_formula_moiety
;
C37 H67 N1 O13
;
_journal_coden_Cambridge 1147
_journal_volume 13
_journal_year 2013
_journal_page_first 2060
_journal_name_full 'Cryst.Growth Des. '
loop_
_publ_author_name
"K.Fujii"
"M.Aoki"
"H.Uekusa"
_chemical_name_systematic
;
Erythromycin A
;
_chemical_name_common
;
Abomacetin; DrugBank: DB00199; PDB Chemical Component code: ERY; Teaching 
Subset: Drug Molecules, 'Bound' Drugs
;
_cell_volume   8350.431
_exptl_crystal_density_diffrn 1.168
_exptl_special_details
;
polymorph II
antibacterial activity
powder data

;
_diffrn_ambient_temperature 293
_diffrn_radiation_probe x-ray
_diffrn_source synchrotron
#These two values have been output from a single CSD field.
_refine_ls_R_factor_gt 0.0292
_refine_ls_wR_factor_gt 0.0292
_symmetry_cell_setting orthorhombic
_symmetry_space_group_name_H-M 'P 21 21 2'
_symmetry_Int_Tables_number 18
loop_
_symmetry_equiv_pos_site_id
_symmetry_equiv_pos_as_xyz
1 x,y,z
2 1/2+x,1/2-y,-z
3 1/2-x,1/2+y,-z
4 -x,-y,z
_cell_length_a 32.517(1)
_cell_length_b 23.8535(9)
_cell_length_c 10.7658(3)
_cell_angle_alpha 90
_cell_angle_beta 90
_cell_angle_gamma 90
_cell_formula_units_Z 8
loop_
_atom_type_symbol
_atom_type_radius_bond
C 0.68
H 0.23
N 0.68
O 0.68
loop_
_atom_site_label
_atom_site_type_symbol
_atom_site_fract_x
_atom_site_fract_y
_atom_site_fract_z
C1 C 0.946191(17) 0.13638(4) 0.51857(11)
C2 C 0.929335(6) 0.184435(8) 0.592272(17)
C3 C 0.905395(6) 0.223714(8) 0.502783(17)
C4 C 0.934472(5) 0.252971(7) 0.409901(17)
C5 C 0.909838(5) 0.278132(9) 0.301673(18)
C6 C 0.905625(7) 0.238854(10) 0.186979(23)
C7 C 0.942598(4) 0.244430(5) 0.097235(13)
C8 C 0.944947(4) 0.196351(8) 0.003008(17)
C9 C 0.958125(16) 0.141106(15) 0.05660(8)
C10 C 0.998680(6) 0.136515(6) 0.126639(17)
C11 C 0.991372(6) 0.103495(9) 0.247680(18)
C12 C 1.025872(8) 0.104945(10) 0.345362(25)
C13 C 1.007905(7) 0.084949(7) 0.470818(21)
O1 O 0.987131(17) 0.133377(27) 0.52504(12)
O2 O 0.92535(4) 0.10250(32) 0.4644(10)
C14 C 0.90375 0.160104(4) 0.699660(11)
O3 O 0.884219(13) 0.266953(18) 0.56947(6)
C15 C 0.842332(8) 0.255074(6) 0.590807(20)
O4 O 0.817281(19) 0.266052(14) 0.48578(5)
C16 C 0.807240(5) 0.323882(9) 0.458350(17)
C17 C 0.788856(5) 0.350518(9) 0.572489(19)
C18 C 0.818323(7) 0.348424(10) 0.682824(23)
C19 C 0.827867(4) 0.286757(6) 0.703633(12)
C20 C 0.77758 0.321779(4) 0.351614(10)
O5 O 0.777299(15) 0.406724(18) 0.54305(11)
C21 C 0.79859 0.373771(5) 0.796652(11)
O6 O 0.853277(9) 0.379732(17) 0.642403(33)
C22 C 0.887356(4) 0.379600(4) 0.720957(11)
C23 C 0.96318 0.294632(5) 0.474802(10)
O7 O 0.926947(18) 0.330438(14) 0.25735(6)
C24 C 0.905010(9) 0.378474(10) 0.291896(14)
O8 O 0.871071(15) 0.382701(23) 0.207061(32)
C25 C 0.844720(6) 0.429796(9) 0.232420(13)
C26 C 0.868910(4) 0.483818(6) 0.223158(11)
C27 C 0.906056(6) 0.481246(9) 0.308998(13)
C28 C 0.931312(8) 0.429870(9) 0.278184(12)
C29 C 0.811191(4) 0.427467(4) 0.136182(10)
N1 N 0.932453(8) 0.531311(10) 0.315428(23)
C30 C 0.91139 0.579389(5) 0.368565(10)
C31 C 0.95064 0.547696(5) 0.198977(11)
O9 O 0.966767(16) 0.427579(15) 0.35661(5)
C32 C 0.865429(4) 0.250189(4) 0.119808(10)
O10 O 0.907289(29) 0.182349(16) 0.23218(9)
C33 C 0.97421 0.210919(4) -0.102135(10)
O11 O 0.9365(4) 0.09956(28) 0.0451(24)
C34 C 1.03087 0.110886(4) 0.040057(10)
O12 O 0.982445(22) 0.045991(10) 0.221020(15)
O13 O 1.058127(14) 0.06688(4) 0.31058(9)
C35 C 1.04541 0.161723(5) 0.354169(10)
C36 C 1.039494(4) 0.066448(5) 0.565101(14)
C37 C 1.02538 0.076891(4) 0.696915(11)
H1 H 0.95025 0.20579 0.63374
H2 H 0.88662 0.19923 0.46045
H3 H 0.95219 0.22501 0.37451
H4 H 0.88348 0.28527 0.33862
H5 H 0.94049 0.27994 0.05576
H6 H 0.96743 0.24397 0.14545
H7 H 0.91733 0.19365 -0.02792
H8 H 1.00914 0.17175 0.15595
H9 H 0.96787 0.12246 0.28154
H10 H 0.99023 0.05397 0.45101
H11 H 0.88041 0.18329 0.71819
H12 H 0.89324 0.12427 0.67431
H13 H 0.91961 0.15610 0.77435
H14 H 0.83937 0.21559 0.60560
H15 H 0.83102 0.34605 0.43885
H16 H 0.74991 0.31240 0.37475
H17 H 0.77577 0.35671 0.30767
H18 H 0.78526 0.29469 0.28988
H19 H 0.76433 0.33154 0.59888
H20 H 0.79851 0.42090 0.50710
H21 H 0.89194 0.34367 0.75866
H22 H 0.91178 0.39066 0.67725
H23 H 0.88438 0.40693 0.78579
H24 H 0.81048 0.35856 0.87100
H25 H 0.80406 0.41326 0.80151
H26 H 0.76933 0.36880 0.80124
H27 H 0.80391 0.26837 0.73613
H28 H 0.84915 0.28306 0.76490
H29 H 0.98823 0.30130 0.42999
H30 H 0.94996 0.33046 0.48235
H31 H 0.97022 0.28434 0.55834
H32 H 0.89637 0.37729 0.37712
H33 H 0.83292 0.42712 0.31394
H34 H 0.79165 0.45723 0.14721
H35 H 0.82274 0.42963 0.05425
H36 H 0.79644 0.39275 0.14321
H37 H 0.85197 0.51537 0.24429
H38 H 0.87769 0.48950 0.13895
H39 H 0.89458 0.47877 0.39098
H40 H 0.89733 0.56819 0.44296
H41 H 0.93086 0.60838 0.38776
H42 H 0.89126 0.59334 0.31113
H43 H 0.98016 0.54811 0.19661
H44 H 0.94354 0.52253 0.13276
H45 H 0.94120 0.58269 0.16539
H46 H 0.94033 0.43042 0.19328
H47 H 0.96795 0.45746 0.40117
H48 H 0.85021 0.21685 0.10021
H49 H 0.84867 0.27477 0.16903
H50 H 0.87052 0.27116 0.04526
H51 H 0.88905 0.16273 0.19400
H52 H 0.99745 0.23086 -0.06934
H53 H 0.98583 0.17805 -0.13980
H54 H 0.96261 0.23352 -0.16707
H55 H 1.04138 0.13959 -0.01379
H56 H 1.05388 0.09491 0.08328
H57 H 1.01793 0.08386 -0.01321
H58 H 0.97834 0.04202 0.14259
H59 H 1.05004 0.17512 0.43710
H60 H 1.07114 0.16349 0.31059
H61 H 1.02881 0.18949 0.31349
H62 H 1.04914 0.04403 0.25508
H63 H 1.04622 0.02739 0.55806
H64 H 1.06441 0.08722 0.55198
H65 H 1.04845 0.08032 0.75206
H66 H 1.00958 0.11078 0.70304
H67 H 1.00870 0.04708 0.72933
C38 C 0.812322(25) 0.091794(23) -0.95890(11)
C39 C 0.775135(6) 0.111038(8) -1.029139(17)
C40 C 0.746176(6) 0.142408(8) -0.937853(17)
C41 C 0.724166(5) 0.101480(7) -0.848979(17)
C42 C 0.703243(7) 0.133913(6) -0.743127(18)
C43 C 0.730008(7) 0.140169(10) -0.624087(23)
C44 C 0.729031(4) 0.086575(6) -0.543029(13)
C45 C 0.763468(6) 0.085266(5) -0.445794(17)
C46 C 0.804209(11) 0.065121(23) -0.49382(7)
C47 C 0.806207(5) 0.013594(8) -0.577146(16)
C48 C 0.837469(6) 0.024594(6) -0.682011(19)
C49 C 0.839334(7) -0.018774(10) -0.787663(25)
C50 C 0.853768(5) 0.011557(9) -0.907064(20)
O14 O 0.817004(21) 0.036202(23) -0.96262(12)
O15 O 0.8365(4) 0.12284(7) -0.9094(18)
C51 C 0.78988 0.146014(5) -1.140618(11)
O16 O 0.714796(13) 0.172651(18) -1.00298(7)
C52 C 0.725661(4) 0.228459(11) -1.031005(20)
O17 O 0.712818(9) 0.267024(25) -0.93854(5)
C53 C 0.669863(6) 0.283022(8) -0.935527(17)
C54 C 0.657449(6) 0.303556(7) -1.062512(19)
C55 C 0.663638(7) 0.258471(10) -1.161451(24)
C56 C 0.709078(4) 0.243622(5) -1.157236(13)
C57 C 0.66667 0.327871(5) -0.838177(10)
O18 O 0.61573(1) 0.322166(30) -1.05778(8)
C58 C 0.65177 0.280357(4) -1.288076(11)
O19 O 0.637775(11) 0.213459(11) -1.12214(4)
C59 C 0.65332 0.159438(5) -1.137509(10)
C60 C 0.69559 0.061346(5) -0.918952(10)
O20 O 0.664632(11) 0.109057(25) -0.70526(5)
C61 C 0.629604(8) 0.132442(11) -0.760379(13)
O21 O 0.619297(16) 0.180949(22) -0.687755(31)
C62 C 0.584020(6) 0.210641(8) -0.734509(12)
C63 C 0.546780(4) 0.172612(6) -0.734098(11)
C64 C 0.556119(6) 0.119552(8) -0.807401(12)
C65 C 0.594254(6) 0.091962(10) -0.755171(12)
C66 C 0.57803 0.259854(5) -0.648893(10)
N2 N 0.522697(7) 0.078337(12) -0.820393(21)
C67 C 0.49504 0.091587(4) -0.922267(11)
C68 C 0.49875 0.069458(5) -0.709587(10)
O22 O 0.602948(6) 0.041717(19) -0.82271(5)
C69 C 0.71640 0.190984(5) -0.549744(10)
O23 O 0.771901(7) 0.14565(6) -0.66399(4)
C70 C 0.75152 0.048472(5) -0.336422(11)
O24 O 0.835511(25) 0.09207(8) -0.47434(26)
C71 C 0.81578 -0.037601(5) -0.496624(10)
O25 O 0.878087(17) 0.030638(9) -0.63245(11)
O26 O 0.869087(28) -0.061360(25) -0.75839(9)
C72 C 0.799092(4) -0.048588(5) -0.804587(10)
C73 C 0.87215 -0.026272(5) -1.004960(14)
C74 C 0.87598 0.002721(4) -1.129452(11)
H68 H 0.76019 0.08083 -1.06699
H69 H 0.76411 0.16712 -0.89288
H70 H 0.74462 0.07807 -0.81099
H71 H 0.69794 0.16980 -0.78018
H72 H 0.70253 0.08433 -0.50405
H73 H 0.73246 0.05467 -0.59639
H74 H 0.76562 0.12365 -0.41973
H75 H 0.78120 0.00618 -0.62163
H76 H 0.82751 0.05925 -0.71597
H77 H 0.87409 0.03815 -0.88039
H78 H 0.76723 0.15841 -1.19078
H79 H 0.80326 0.17905 -1.10960
H80 H 0.80839 0.12542 -1.19303
H81 H 0.75511 0.23137 -1.03220
H82 H 0.65192 0.25206 -0.91795
H83 H 0.67489 0.36445 -0.86590
H84 H 0.63924 0.33214 -0.80652
H85 H 0.68332 0.32017 -0.76654
H86 H 0.67369 0.33505 -1.08852
H87 H 0.61457 0.34994 -1.10860
H88 H 0.67714 0.15262 -1.08707
H89 H 0.63283 0.13173 -1.11867
H90 H 0.66050 0.15257 -1.22265
H91 H 0.66613 0.26043 -1.35227
H92 H 0.62321 0.27351 -1.30488
H93 H 0.65666 0.31970 -1.29973
H94 H 0.72484 0.27440 -1.18941
H95 H 0.71430 0.21200 -1.21009
H96 H 0.66906 0.05741 -0.88076
H97 H 0.69052 0.07518 -1.00128
H98 H 0.70684 0.02454 -0.93099
H99 H 0.63383 0.14115 -0.84650
H100 H 0.58871 0.22374 -0.81763
H101 H 0.55382 0.28081 -0.67005
H102 H 0.57609 0.24737 -0.56432
H103 H 0.60103 0.28490 -0.65545
H104 H 0.52336 0.19138 -0.76899
H105 H 0.53958 0.16325 -0.65013
H106 H 0.56055 0.13229 -0.89093
H107 H 0.51046 0.10749 -0.98966
H108 H 0.48133 0.05822 -0.95004
H109 H 0.47511 0.11879 -0.89588
H110 H 0.51172 0.04770 -0.64560
H111 H 0.49224 0.10397 -0.66815
H112 H 0.47172 0.05431 -0.72227
H113 H 0.59074 0.08247 -0.66916
H114 H 0.58055 0.02322 -0.83391
H115 H 0.73854 0.20971 -0.50778
H116 H 0.70256 0.21698 -0.60346
H117 H 0.69571 0.18036 -0.49066
H118 H 0.78787 0.13722 -0.60310
H119 H 0.74935 0.01024 -0.36350
H120 H 0.77247 0.04780 -0.27360
H121 H 0.72601 0.05814 -0.29699
H122 H 0.79330 -0.04392 -0.44055
H123 H 0.81958 -0.07138 -0.54372
H124 H 0.83924 -0.02978 -0.44534
H125 H 0.88519 0.06536 -0.63458
H126 H 0.79578 -0.06745 -0.88273
H127 H 0.79400 -0.07545 -0.73997
H128 H 0.77647 -0.02293 -0.79754
H129 H 0.88491 -0.04970 -0.69982
H130 H 0.89892 -0.03990 -0.98249
H131 H 0.85467 -0.05837 -1.01543
H132 H 0.86028 -0.01650 -1.19183
H133 H 0.86619 0.04066 -1.12567
H134 H 0.90376 0.00401 -1.15955
#END
