
#######################################################################
#
#                 Cambridge Crystallographic Data Centre
#                                CCDC
#
#######################################################################
#
# If this CIF has been generated from an entry in the Cambridge
# Structural Database, then it will include bibliographic, chemical,
# crystal, experimental, refinement or atomic coordinate data resulting
# from the CCDC's data processing and validation procedures.
#
#######################################################################

data_CSD_CIF_QILHUO01
_audit_creation_date 1997-08-01
_audit_creation_method CSD-ConQuest-V1
_database_code_CSD QILHUO01
_database_code_depnum_ccdc_archive 'CCDC 1242917'
_chemical_formula_sum 'C2 H4'
_chemical_formula_moiety
;
(C2 H4)n
;
_journal_coden_Cambridge 219
_journal_volume 35
_journal_year 1939
_journal_page_first 482
_journal_name_full 'Trans.Faraday Soc. '
loop_
_publ_author_name
"C.W.Bunn"
_chemical_name_systematic
;
Poly(ethylene)
;
_chemical_name_common
;
Teaching Subset: Fundamental Chemistry
;
_cell_volume     92.445
_exptl_special_details
;
identity period is 4.13A
planar zig-zag chain, spectra obtained from a rolled sheet conformer
low density polymorph
No R-factor given
;
_diffrn_ambient_temperature ?
_diffrn_special_details
;
The study was carried out at room temperature,in the range 283-303K

;
_symmetry_cell_setting orthorhombic
_symmetry_space_group_name_H-M 'P n a m'
_symmetry_Int_Tables_number 62
loop_
_symmetry_equiv_pos_site_id
_symmetry_equiv_pos_as_xyz
1 x,y,z
2 -x,-y,1/2+z
3 1/2+x,1/2-y,1/2-z
4 1/2-x,1/2+y,-z
5 -x,-y,-z
6 x,y,-1/2-z
7 -1/2-x,-1/2+y,-1/2+z
8 -1/2+x,-1/2-y,z
_cell_length_a 7.4
_cell_length_b 4.93
_cell_length_c 2.534
_cell_angle_alpha 90
_cell_angle_beta 90
_cell_angle_gamma 90
_cell_formula_units_Z 2
loop_
_atom_type_symbol
_atom_type_radius_bond
C 0.68
loop_
_atom_site_label
_atom_site_type_symbol
_atom_site_fract_x
_atom_site_fract_y
_atom_site_fract_z
C1 C 0.03800 0.93500 0.25000
C2 C -0.03800 1.06500 -0.25000
C1A C -0.03800 1.06500 0.75000
C1* C 0.03800 0.93500 -0.75000
#END
