####################################################################### 
# 
# This file contains crystal structure data downloaded from the 
# Cambridge Structural Database (CSD) hosted by the Cambridge 
# Crystallographic Data Centre (CCDC).
# 
# Full information about CCDC data access policies and citation 
# guidelines are available at http://www.ccdc.cam.ac.uk/access/V1 
# 
# Audit and citation data items may have been added by the CCDC. 
# Please retain this information to preserve the provenance of 
# this file and to allow appropriate attribution of the data. 
# 
#######################################################################

data_(1)
_audit_block_doi                 10.5517/cc4y29f
_database_code_depnum_ccdc_archive 'CCDC 147104'
loop_
_citation_id
_citation_doi
_citation_year
1 10.1016/S0277-5387(00)00593-3 2001
_audit_update_record             
;
2000-07-08 deposited with the CCDC.	2024-07-12 downloaded from the CCDC.
;

_audit_creation_method           SHELXL-97
_chemical_name_systematic        
;
?
;
_chemical_name_common            ?
_chemical_melting_point          ?
_chemical_formula_moiety         ?
_chemical_formula_sum            'C78 H158 N12 Ni3 O28'
_chemical_formula_weight         1888.29

loop_
_atom_type_symbol
_atom_type_description
_atom_type_scat_dispersion_real
_atom_type_scat_dispersion_imag
_atom_type_scat_source
C C 0.0033 0.0016 'International Tables Vol C Tables 4.2.6.8 and 6.1.1.4'
H H 0.0000 0.0000 'International Tables Vol C Tables 4.2.6.8 and 6.1.1.4'
N N 0.0061 0.0033 'International Tables Vol C Tables 4.2.6.8 and 6.1.1.4'
Ni Ni 0.3393 1.1124 'International Tables Vol C Tables 4.2.6.8 and 6.1.1.4'
O O 0.0106 0.0060 'International Tables Vol C Tables 4.2.6.8 and 6.1.1.4'

_symmetry_cell_setting           Triclnic
_symmetry_space_group_name_H-M   'P -1'

loop_
_symmetry_equiv_pos_as_xyz
'x, y, z'
'-x, -y, -z'

_cell_length_a                   9.4728(18)
_cell_length_b                   16.403(2)
_cell_length_c                   16.8309(15)
_cell_angle_alpha                68.256(9)
_cell_angle_beta                 85.159(12)
_cell_angle_gamma                79.524(17)
_cell_volume                     2388.3(6)
_cell_formula_units_Z            1
_cell_measurement_temperature    291
_cell_measurement_reflns_used    25
_cell_measurement_theta_min      11.497
_cell_measurement_theta_max      14.306

_exptl_crystal_description       block
_exptl_crystal_colour            pink
_exptl_crystal_size_max          0.59
_exptl_crystal_size_mid          0.36
_exptl_crystal_size_min          0.26
_exptl_crystal_density_meas      ?
_exptl_crystal_density_diffrn    1.313
_exptl_crystal_density_method    'not measured'
_exptl_crystal_F_000             1018
_exptl_absorpt_coefficient_mu    0.664
_exptl_absorpt_correction_type   Psi-scan
_exptl_absorpt_correction_T_min  0.5820
_exptl_absorpt_correction_T_max  0.8293
_exptl_absorpt_process_details   
;
North A.C.T., Phillips D.C. & Mathews F.S. (1968) Acta. Cryst. A24, 351
Number of psi-scan sets used was   1
Theta correction was applied.
Averaged transmission function was used.
No Fourier smoothing was applied.
;
_exptl_special_details           
;
?
;

_diffrn_ambient_temperature      291
_diffrn_radiation_wavelength     0.71069
_diffrn_radiation_type           MoK\a
_diffrn_radiation_source         'fine-focus sealed tube'
_diffrn_radiation_monochromator  graphite
_diffrn_measurement_device_type  'Enraf Nonius CAD4'
_diffrn_measurement_method       'non-profiled omega/2theta scans'
_diffrn_detector_area_resol_mean ?
_diffrn_standards_number         3
_diffrn_standards_interval_count ?
_diffrn_standards_interval_time  300
_diffrn_standards_decay_%        23
_diffrn_reflns_number            7776
_diffrn_reflns_av_R_equivalents  0.0727
_diffrn_reflns_av_sigmaI/netI    0.0737
_diffrn_reflns_limit_h_min       -11
_diffrn_reflns_limit_h_max       11
_diffrn_reflns_limit_k_min       -18
_diffrn_reflns_limit_k_max       19
_diffrn_reflns_limit_l_min       0
_diffrn_reflns_limit_l_max       19
_diffrn_reflns_theta_min         2.19
_diffrn_reflns_theta_max         24.97
_reflns_number_total             7492
_reflns_number_gt                4625
_reflns_threshold_expression     >2sigma(I)

_computing_data_collection       'CAD4 Express (Enraf Nonius, 1994)'
_computing_cell_refinement       'CAD4 Express (Enraf Nonius, 1994)'
_computing_data_reduction        'CAD4 Express (Enraf Nonius, 1994)'
_computing_structure_solution    'SHELXS-97 (Sheldrick, 1990)'
_computing_structure_refinement  'SHELXL-97 (Sheldrick, 1997)'
_computing_molecular_graphics    'Ortep-3 for Windows (Farrugia, 1997)'
_computing_publication_material  'WinGX publication routines (Farrugia, 1998)'

_refine_special_details          
;
Refinement of F^2^ against ALL reflections.  The weighted R-factor wR and
goodness of fit S are based on F^2^, conventional R-factors R are based
on F, with F set to zero for negative F^2^. The threshold expression of
F^2^ > 2sigma(F^2^) is used only for calculating R-factors(gt) etc. and is
not relevant to the choice of reflections for refinement.  R-factors based
on F^2^ are statistically about twice as large as those based on F, and R-
factors based on ALL data will be even larger.
;

_refine_ls_structure_factor_coef Fsqd
_refine_ls_matrix_type           full
_refine_ls_weighting_scheme      calc
_refine_ls_weighting_details     
'calc w=1/[\s^2^(Fo^2^)+(0.1519P)^2^+0.0000P] where P=(Fo^2^+2Fc^2^)/3'
_atom_sites_solution_primary     direct
_atom_sites_solution_secondary   difmap
_atom_sites_solution_hydrogens   geom
_refine_ls_hydrogen_treatment    mixed
_refine_ls_extinction_method     none
_refine_ls_extinction_coef       ?
_refine_ls_number_reflns         7492
_refine_ls_number_parameters     547
_refine_ls_number_restraints     0
_refine_ls_R_factor_all          0.0969
_refine_ls_R_factor_gt           0.0704
_refine_ls_wR_factor_ref         0.2404
_refine_ls_wR_factor_gt          0.2242
_refine_ls_goodness_of_fit_ref   1.015
_refine_ls_restrained_S_all      1.015
_refine_ls_shift/su_max          0.000
_refine_ls_shift/su_mean         0.000

loop_
_atom_site_label
_atom_site_type_symbol
_atom_site_fract_x
_atom_site_fract_y
_atom_site_fract_z
_atom_site_U_iso_or_equiv
_atom_site_adp_type
_atom_site_occupancy
_atom_site_symmetry_multiplicity
_atom_site_calc_flag
_atom_site_refinement_flags
_atom_site_disorder_assembly
_atom_site_disorder_group
Ni1 Ni 0.0000 0.5000 0.5000 0.0339(3) Uani 1 2 d S . .
Ni2 Ni 1.0000 0.0000 0.5000 0.0358(3) Uani 1 2 d S . .
Ni3 Ni 0.5000 0.5000 0.0000 0.0616(4) Uani 1 2 d S . .
O1 O 0.1871(4) 0.4150(3) 0.4702(3) 0.0424(10) Uani 1 1 d . . .
O2 O 0.3296(5) 0.3630(3) 0.5827(3) 0.0518(12) Uani 1 1 d . . .
O3 O 0.8090(4) 0.1000(3) 0.4731(3) 0.0458(11) Uani 1 1 d . . .
O4 O 0.7271(4) 0.1142(3) 0.5961(3) 0.0482(11) Uani 1 1 d . . .
O5 O 0.4563(6) 0.4163(4) 0.1891(3) 0.0698(15) Uani 1 1 d . . .
O6 O 0.5829(5) 0.2886(3) 0.2020(3) 0.0613(13) Uani 1 1 d . . .
N1 N 0.1178(6) 0.6049(3) 0.4523(3) 0.0487(14) Uani 1 1 d . . .
HN1 H 0.2098 0.5835 0.4410 0.058 Uiso 1 1 calc R . .
N2 N -0.0655(5) 0.5475(3) 0.3750(3) 0.0411(12) Uani 1 1 d . . .
HN2 H -0.1514 0.5823 0.3767 0.049 Uiso 1 1 calc R . .
N3 N 1.0008(5) 0.0082(4) 0.3768(3) 0.0486(14) Uani 1 1 d . . .
HN3 H 1.0777 -0.0311 0.3701 0.058 Uiso 1 1 calc R . .
N4 N 1.1000(6) 0.1117(3) 0.4424(3) 0.0491(14) Uani 1 1 d . . .
HN4 H 1.0259 0.1575 0.4354 0.059 Uiso 1 1 calc R . .
N5 N 0.6261(6) 0.5499(4) 0.0492(4) 0.0535(14) Uani 1 1 d . . .
HN5 H 0.5935 0.5351 0.1043 0.064 Uiso 1 1 calc R . .
N6 N 0.6292(6) 0.3806(4) 0.0284(3) 0.0485(14) Uani 1 1 d . . .
HN6 H 0.6121 0.3518 0.0851 0.058 Uiso 1 1 calc R . .
C1 C 0.0510(7) 0.6666(4) 0.3729(4) 0.0497(17) Uani 1 1 d . . .
HC1 H -0.0407 0.6980 0.3863 0.060 Uiso 1 1 calc R . .
C2 C 0.1447(8) 0.7334(4) 0.3221(4) 0.0561(18) Uani 1 1 d . . .
HC2A H 0.2382 0.7018 0.3135 0.067 Uiso 1 1 calc R . .
HC2B H 0.1583 0.7687 0.3553 0.067 Uiso 1 1 calc R . .
C3 C 0.0848(9) 0.7971(5) 0.2337(5) 0.065(2) Uani 1 1 d . . .
HC3A H 0.0007 0.8372 0.2415 0.078 Uiso 1 1 calc R . .
HC3B H 0.1566 0.8325 0.2016 0.078 Uiso 1 1 calc R . .
C4 C 0.0455(9) 0.7450(5) 0.1849(5) 0.067(2) Uani 1 1 d . . .
HC4A H 0.1328 0.7152 0.1665 0.080 Uiso 1 1 calc R . .
HC4B H -0.0053 0.7858 0.1340 0.080 Uiso 1 1 calc R . .
C5 C -0.0483(8) 0.6755(4) 0.2360(4) 0.0573(19) Uani 1 1 d . . .
HC5A H -0.0630 0.6410 0.2022 0.069 Uiso 1 1 calc R . .
HC5B H -0.1414 0.7053 0.2476 0.069 Uiso 1 1 calc R . .
C6 C 0.0229(7) 0.6114(4) 0.3225(4) 0.0470(16) Uani 1 1 d . . .
HC6 H 0.1147 0.5794 0.3101 0.056 Uiso 1 1 calc R . .
C7 C -0.1053(7) 0.4821(4) 0.3364(5) 0.0510(17) Uani 1 1 d . . .
HC7 H -0.1689 0.5184 0.2887 0.061 Uiso 1 1 calc R . .
C8 C 0.0204(7) 0.4369(5) 0.2986(5) 0.0555(18) Uani 1 1 d . . .
HC8A H 0.0721 0.4809 0.2590 0.083 Uiso 1 1 calc R . .
HC8B H -0.0138 0.4043 0.2692 0.083 Uiso 1 1 calc R . .
HC8C H 0.0830 0.3968 0.3435 0.083 Uiso 1 1 calc R . .
C9 C -0.1926(7) 0.4190(4) 0.3995(4) 0.0485(16) Uani 1 1 d . . .
HC9A H -0.2251 0.3839 0.3714 0.058 Uiso 1 1 calc R . .
HC9B H -0.2772 0.4535 0.4150 0.058 Uiso 1 1 calc R . .
C10 C 0.1179(7) 0.6450(4) 0.5181(4) 0.0512(17) Uani 1 1 d . . .
H10A H 0.0194 0.6650 0.5318 0.061 Uiso 1 1 calc R . .
H10B H 0.1655 0.6967 0.4944 0.061 Uiso 1 1 calc R . .
C11 C 1.0233(7) 0.0942(4) 0.3192(4) 0.0542(18) Uani 1 1 d . . .
HC11 H 0.9354 0.1352 0.3219 0.065 Uiso 1 1 calc R . .
C12 C 1.0466(9) 0.1049(5) 0.2276(5) 0.073(2) Uani 1 1 d . . .
H12A H 0.9596 0.0977 0.2062 0.088 Uiso 1 1 calc R . .
H12B H 1.1223 0.0581 0.2233 0.088 Uiso 1 1 calc R . .
C13 C 1.0878(10) 0.1964(5) 0.1702(5) 0.074(2) Uani 1 1 d . . .
H13A H 1.1218 0.1939 0.1150 0.089 Uiso 1 1 calc R . .
H13B H 1.0026 0.2414 0.1607 0.089 Uiso 1 1 calc R . .
C14 C 1.1997(10) 0.2229(6) 0.2073(5) 0.083(3) Uani 1 1 d . . .
H14A H 1.2052 0.2848 0.1740 0.100 Uiso 1 1 calc R . .
H14B H 1.2913 0.1883 0.2004 0.100 Uiso 1 1 calc R . .
C15 C 1.1799(9) 0.2120(5) 0.3079(5) 0.068(2) Uani 1 1 d . . .
H15A H 1.2684 0.2173 0.3293 0.082 Uiso 1 1 calc R . .
H15B H 1.1045 0.2577 0.3147 0.082 Uiso 1 1 calc R . .
C16 C 1.1404(8) 0.1200(4) 0.3566(4) 0.0549(19) Uani 1 1 d . . .
HC16 H 1.2272 0.0763 0.3590 0.066 Uiso 1 1 calc R . .
C17 C 1.2041(8) 0.1288(5) 0.4982(5) 0.0603(19) Uani 1 1 d . . .
HC17 H 1.2181 0.1910 0.4714 0.072 Uiso 1 1 calc R . .
C18 C 1.3480(8) 0.0699(5) 0.4934(5) 0.064(2) Uani 1 1 d . . .
H18A H 1.3778 0.0831 0.4346 0.096 Uiso 1 1 calc R . .
H18B H 1.3369 0.0084 0.5190 0.096 Uiso 1 1 calc R . .
H18C H 1.4191 0.0813 0.5236 0.096 Uiso 1 1 calc R . .
C19 C 1.1490(8) 0.1143(5) 0.5868(5) 0.065(2) Uani 1 1 d . . .
H19A H 1.0545 0.1500 0.5833 0.078 Uiso 1 1 calc R . .
H19B H 1.2109 0.1371 0.6138 0.078 Uiso 1 1 calc R . .
C20 C 0.8628(8) -0.0213(5) 0.3557(5) 0.062(2) Uani 1 1 d . . .
H20A H 0.7777 0.0186 0.3627 0.074 Uiso 1 1 calc R . .
H20B H 0.8683 -0.0175 0.2966 0.074 Uiso 1 1 calc R . .
C21 C 0.5769(8) 0.3299(5) -0.0122(4) 0.0548(18) Uani 1 1 d . . .
HC21 H 0.6118 0.3499 -0.0717 0.066 Uiso 1 1 calc R . .
C22 C 0.6285(8) 0.2278(5) 0.0278(5) 0.063(2) Uani 1 1 d . . .
H22A H 0.7326 0.2155 0.0263 0.076 Uiso 1 1 calc R . .
H22B H 0.5967 0.2058 0.0872 0.076 Uiso 1 1 calc R . .
C23 C 0.5714(9) 0.1813(5) -0.0191(5) 0.066(2) Uani 1 1 d . . .
H23A H 0.5898 0.1178 0.0133 0.079 Uiso 1 1 calc R . .
H23B H 0.6222 0.1920 -0.0735 0.079 Uiso 1 1 calc R . .
C24 C 0.5844(9) 0.7906(5) 0.0348(5) 0.071(2) Uani 1 1 d . . .
H24A H 0.6349 0.8204 -0.0177 0.085 Uiso 1 1 calc R . .
H24B H 0.6079 0.8124 0.0775 0.085 Uiso 1 1 calc R . .
C25 C 0.6380(8) 0.7015(5) 0.0612(5) 0.066(2) Uani 1 1 d . . .
H25A H 0.6149 0.6743 0.1216 0.079 Uiso 1 1 calc R . .
H25B H 0.7418 0.6944 0.0552 0.079 Uiso 1 1 calc R . .
C26 C 0.5832(7) 0.6514(5) 0.0137(4) 0.0525(17) Uani 1 1 d . . .
HC26 H 0.6189 0.6736 -0.0456 0.063 Uiso 1 1 calc R . .
C27 C 0.7829(8) 0.5196(5) 0.0596(5) 0.068(2) Uani 1 1 d . . .
H27A H 0.8143 0.5351 0.1048 0.081 Uiso 1 1 calc R . .
H27B H 0.8318 0.5508 0.0070 0.081 Uiso 1 1 calc R . .
C28 C 0.8268(8) 0.4172(5) 0.0818(5) 0.064(2) Uani 1 1 d . . .
H28A H 0.9306 0.4026 0.0855 0.077 Uiso 1 1 calc R . .
H28B H 0.7871 0.3867 0.1378 0.077 Uiso 1 1 calc R . .
C29 C 0.7821(7) 0.3840(5) 0.0227(5) 0.0553(18) Uani 1 1 d . . .
HC29 H 0.8311 0.3223 0.0386 0.066 Uiso 1 1 calc R . .
C30 C 0.8258(8) 0.4327(6) -0.0719(5) 0.070(2) Uani 1 1 d . . .
H30A H 0.7949 0.4051 -0.1073 0.105 Uiso 1 1 calc R . .
H30B H 0.9283 0.4291 -0.0767 0.105 Uiso 1 1 calc R . .
H30C H 0.7813 0.4940 -0.0903 0.105 Uiso 1 1 calc R . .
C31 C 0.7264(6) 0.1353(4) 0.5158(4) 0.0387(14) Uani 1 1 d . . .
C32 C 0.6156(6) 0.2118(4) 0.4693(4) 0.0407(14) Uani 1 1 d . . .
C33 C 0.5170(6) 0.2563(4) 0.5092(4) 0.0448(16) Uani 1 1 d . . .
HC33 H 0.5196 0.2395 0.5683 0.054 Uiso 1 1 calc R . .
C34 C 0.4120(6) 0.3266(4) 0.4635(4) 0.0408(15) Uani 1 1 d . . .
C35 C 0.2977(7) 0.3720(4) 0.5101(4) 0.0430(15) Uani 1 1 d . . .
C36 C 0.4114(6) 0.3528(4) 0.3751(4) 0.0450(15) Uani 1 1 d . . .
HC36 H 0.3426 0.4000 0.3446 0.054 Uiso 1 1 calc R . .
C37 C 0.5089(6) 0.3116(4) 0.3312(4) 0.0421(15) Uani 1 1 d . . .
C38 C 0.5165(7) 0.3469(5) 0.2344(4) 0.0519(17) Uani 1 1 d . . .
C39 C 0.6140(6) 0.2411(4) 0.3794(4) 0.0428(15) Uani 1 1 d . . .
HC39 H 0.6836 0.2136 0.3510 0.051 Uiso 1 1 calc R . .
OW1 O 0.3777(3) 0.9678(2) 0.1457(2) 0.0221(7) Uani 1 1 d . . .
OW2 O 0.6015(5) 0.8445(3) 0.2524(3) 0.0661(15) Uani 1 1 d . . .
OW3 O 0.5376(5) 1.0258(3) 0.2460(3) 0.0582(13) Uani 1 1 d . . .
OW4 O 0.5594(6) 0.4367(4) 0.5928(4) 0.0841(17) Uani 1 1 d . . .
OW5 O 0.4134(7) 0.5641(4) 0.2324(4) 0.0948(19) Uani 1 1 d . . .
OW6 O 0.0086(7) 1.0651(4) 0.0435(4) 0.101(2) Uani 1 1 d . . .
OW7 O 0.1469(8) 1.0089(5) -0.0820(4) 0.112(2) Uani 1 1 d . . .
OW8 O -0.5000 1.0000 0.0000 0.077(2) Uani 1 2 d S . .

loop_
_atom_site_aniso_label
_atom_site_aniso_U_11
_atom_site_aniso_U_22
_atom_site_aniso_U_33
_atom_site_aniso_U_23
_atom_site_aniso_U_13
_atom_site_aniso_U_12
Ni1 0.0297(6) 0.0346(6) 0.0381(6) -0.0151(5) 0.0013(4) -0.0034(4)
Ni2 0.0313(6) 0.0360(6) 0.0409(6) -0.0168(5) 0.0003(5) -0.0015(5)
Ni3 0.0535(8) 0.0656(9) 0.0653(9) -0.0247(7) 0.0021(7) -0.0081(7)
O1 0.037(2) 0.046(2) 0.043(2) -0.017(2) 0.0003(19) -0.001(2)
O2 0.043(3) 0.065(3) 0.051(3) -0.031(2) -0.006(2) 0.006(2)
O3 0.043(3) 0.045(2) 0.046(3) -0.016(2) 0.001(2) -0.003(2)
O4 0.042(3) 0.047(3) 0.050(3) -0.017(2) 0.001(2) 0.004(2)
O5 0.070(4) 0.084(4) 0.039(3) -0.015(3) 0.002(3) 0.008(3)
O6 0.063(3) 0.068(3) 0.052(3) -0.027(3) 0.010(2) -0.004(3)
N1 0.046(3) 0.052(3) 0.051(3) -0.022(3) 0.014(3) -0.014(3)
N2 0.040(3) 0.046(3) 0.037(3) -0.018(2) 0.001(2) -0.001(2)
N3 0.035(3) 0.055(3) 0.059(3) -0.032(3) -0.003(3) 0.009(2)
N4 0.048(3) 0.038(3) 0.056(3) -0.011(3) 0.005(3) -0.008(2)
N5 0.046(3) 0.063(4) 0.051(3) -0.021(3) -0.002(3) -0.008(3)
N6 0.049(3) 0.060(4) 0.041(3) -0.026(3) -0.001(2) -0.004(3)
C1 0.044(4) 0.047(4) 0.052(4) -0.015(3) 0.007(3) -0.001(3)
C2 0.057(4) 0.050(4) 0.060(5) -0.018(4) 0.007(4) -0.015(3)
C3 0.069(5) 0.056(5) 0.063(5) -0.017(4) 0.016(4) -0.012(4)
C4 0.078(6) 0.068(5) 0.047(4) -0.010(4) 0.005(4) -0.022(4)
C5 0.071(5) 0.047(4) 0.046(4) -0.010(3) -0.005(4) -0.004(4)
C6 0.039(4) 0.045(4) 0.049(4) -0.011(3) -0.003(3) 0.002(3)
C7 0.050(4) 0.045(4) 0.066(4) -0.032(4) -0.010(3) 0.002(3)
C8 0.054(4) 0.058(4) 0.061(4) -0.029(4) 0.009(3) -0.012(3)
C9 0.048(4) 0.049(4) 0.054(4) -0.022(3) 0.002(3) -0.018(3)
C10 0.052(4) 0.051(4) 0.059(4) -0.027(4) -0.003(3) -0.012(3)
C11 0.052(4) 0.047(4) 0.049(4) -0.013(3) 0.006(3) 0.014(3)
C12 0.068(5) 0.065(5) 0.068(5) -0.012(4) 0.004(4) 0.008(4)
C13 0.087(6) 0.071(6) 0.046(4) -0.006(4) -0.003(4) 0.004(5)
C14 0.090(7) 0.067(5) 0.074(6) -0.012(5) 0.031(5) -0.009(5)
C15 0.081(6) 0.046(4) 0.071(5) -0.016(4) 0.013(4) -0.010(4)
C16 0.059(5) 0.035(4) 0.062(5) -0.013(3) 0.020(4) -0.004(3)
C17 0.051(4) 0.060(5) 0.078(5) -0.031(4) 0.000(4) -0.019(4)
C18 0.051(4) 0.067(5) 0.073(5) -0.029(4) 0.002(4) -0.003(4)
C19 0.057(5) 0.072(5) 0.088(6) -0.051(5) -0.001(4) -0.018(4)
C20 0.050(4) 0.075(5) 0.067(5) -0.036(4) -0.009(4) -0.002(4)
C21 0.061(5) 0.053(4) 0.052(4) -0.024(4) 0.008(3) -0.007(3)
C22 0.063(5) 0.066(5) 0.060(5) -0.025(4) 0.004(4) -0.005(4)
C23 0.075(6) 0.057(5) 0.067(5) -0.026(4) 0.011(4) -0.010(4)
C24 0.081(6) 0.057(5) 0.076(6) -0.025(4) 0.010(4) -0.017(4)
C25 0.065(5) 0.084(6) 0.062(5) -0.037(4) 0.013(4) -0.029(4)
C26 0.057(4) 0.059(4) 0.051(4) -0.025(4) 0.007(3) -0.024(4)
C27 0.048(4) 0.072(5) 0.082(6) -0.023(4) -0.006(4) -0.018(4)
C28 0.050(4) 0.074(5) 0.064(5) -0.020(4) -0.004(4) -0.009(4)
C29 0.038(4) 0.062(5) 0.062(5) -0.023(4) 0.004(3) 0.001(3)
C30 0.050(5) 0.091(6) 0.072(5) -0.031(5) -0.006(4) -0.011(4)
C31 0.034(3) 0.037(3) 0.042(4) -0.013(3) 0.002(3) -0.002(3)
C32 0.035(3) 0.040(3) 0.049(4) -0.018(3) 0.000(3) -0.005(3)
C33 0.038(4) 0.057(4) 0.038(4) -0.017(3) -0.001(3) -0.006(3)
C34 0.038(4) 0.038(3) 0.047(4) -0.021(3) 0.003(3) 0.000(3)
C35 0.037(4) 0.048(4) 0.045(4) -0.020(3) 0.006(3) -0.008(3)
C36 0.037(3) 0.049(4) 0.044(4) -0.013(3) -0.001(3) -0.001(3)
C37 0.036(3) 0.044(4) 0.043(4) -0.014(3) 0.002(3) -0.003(3)
C38 0.043(4) 0.052(4) 0.051(4) -0.016(4) 0.000(3) 0.010(3)
C39 0.036(3) 0.050(4) 0.042(4) -0.019(3) 0.000(3) -0.001(3)
OW1 0.0215(18) 0.0248(18) 0.0209(17) -0.0109(15) -0.0058(14) 0.0022(14)
OW2 0.068(3) 0.067(3) 0.047(3) -0.023(2) -0.003(2) 0.033(3)
OW3 0.051(3) 0.070(3) 0.057(3) -0.024(3) -0.020(2) -0.009(2)
OW4 0.063(4) 0.105(5) 0.096(4) -0.049(4) 0.007(3) -0.021(3)
OW5 0.099(5) 0.090(4) 0.094(4) -0.026(4) 0.011(4) -0.032(4)
OW6 0.106(5) 0.109(5) 0.090(4) -0.042(4) -0.023(4) -0.001(4)
OW7 0.113(6) 0.106(5) 0.096(5) -0.027(4) -0.001(4) 0.010(4)
OW8 0.066(5) 0.070(5) 0.089(6) -0.021(4) 0.011(4) -0.017(4)

_geom_special_details            
;
All esds (