####################################################################### 
# 
# This file contains crystal structure data downloaded from the 
# Cambridge Structural Database (CSD) hosted by the Cambridge 
# Crystallographic Data Centre (CCDC).
# 
# Full information about CCDC data access policies and citation 
# guidelines are available at http://www.ccdc.cam.ac.uk/access/V1 
# 
# Audit and citation data items may have been added by the CCDC. 
# Please retain this information to preserve the provenance of 
# this file and to allow appropriate attribution of the data. 
# 
#######################################################################

data_ni
_audit_block_doi                 10.5517/cczwhdq
_database_code_depnum_ccdc_archive 'CCDC 920154'
loop_
_citation_id
_citation_doi
_citation_year
1 10.1039/C3CE41457D 2013
_audit_update_record             
;
2013-01-17 deposited with the CCDC.	2024-07-12 downloaded from the CCDC.
;
#TrackingRef 'Ni.cif'


_audit_creation_method           SHELXL-97
_chemical_name_systematic        
;
?
;
_chemical_name_common            ?
_chemical_melting_point          ?
_chemical_formula_moiety         ?
_chemical_formula_sum            'C55 H48 N5 Ni3 O19'
_chemical_formula_weight         1259.11

loop_
_atom_type_symbol
_atom_type_description
_atom_type_scat_dispersion_real
_atom_type_scat_dispersion_imag
_atom_type_scat_source
H H 0.0000 0.0000 'International Tables Vol C Tables 4.2.6.8 and 6.1.1.4'
C C 0.0033 0.0016 'International Tables Vol C Tables 4.2.6.8 and 6.1.1.4'
N N 0.0061 0.0033 'International Tables Vol C Tables 4.2.6.8 and 6.1.1.4'
O O 0.0106 0.0060 'International Tables Vol C Tables 4.2.6.8 and 6.1.1.4'
Ni Ni 0.3393 1.1124 'International Tables Vol C Tables 4.2.6.8 and 6.1.1.4'

_symmetry_cell_setting           Triclinic
_symmetry_space_group_name_H-M   P-1

loop_
_symmetry_equiv_pos_as_xyz
'x, y, z'
'-x, -y, -z'

_cell_length_a                   13.1440(5)
_cell_length_b                   16.1395(8)
_cell_length_c                   17.3653(9)
_cell_angle_alpha                112.258(5)
_cell_angle_beta                 104.013(4)
_cell_angle_gamma                96.650(4)
_cell_volume                     3218.3(3)
_cell_formula_units_Z            2
_cell_measurement_temperature    293(2)
_cell_measurement_reflns_used    ?
_cell_measurement_theta_min      ?
_cell_measurement_theta_max      ?

_exptl_crystal_description       block
_exptl_crystal_colour            green
_exptl_crystal_size_max          0.28
_exptl_crystal_size_mid          0.20
_exptl_crystal_size_min          0.18
_exptl_crystal_density_meas      ?
_exptl_crystal_density_diffrn    1.299
_exptl_crystal_density_method    'not measured'
_exptl_crystal_F_000             1298
_exptl_absorpt_coefficient_mu    0.938
_exptl_absorpt_correction_type   multi-scan
_exptl_absorpt_correction_T_min  0.7792
_exptl_absorpt_correction_T_max  0.8494
_exptl_absorpt_process_details   ?

_exptl_special_details           
;
?
;

_diffrn_ambient_temperature      293(2)
_diffrn_radiation_wavelength     0.71073
_diffrn_radiation_type           MoK\a
_diffrn_radiation_source         'fine-focus sealed tube'
_diffrn_radiation_monochromator  graphite
_diffrn_measurement_device_type  'Bruker APEX-II CCD'
_diffrn_measurement_method       '\f and \w scans'
_diffrn_detector_area_resol_mean ?
_diffrn_reflns_number            24474
_diffrn_reflns_av_R_equivalents  0.0683
_diffrn_reflns_av_sigmaI/netI    0.1287
_diffrn_reflns_limit_h_min       -15
_diffrn_reflns_limit_h_max       15
_diffrn_reflns_limit_k_min       -19
_diffrn_reflns_limit_k_max       19
_diffrn_reflns_limit_l_min       -20
_diffrn_reflns_limit_l_max       21
_diffrn_reflns_theta_min         2.90
_diffrn_reflns_theta_max         25.50
_reflns_number_total             11961
_reflns_number_gt                7295
_reflns_threshold_expression     >2sigma(I)

_computing_data_collection       'Bruker APEX2'
_computing_cell_refinement       'Bruker SAINT'
_computing_data_reduction        'Bruker SAINT'
_computing_structure_solution    'SHELXS-97 (Sheldrick, 2008)'
_computing_structure_refinement  'SHELXL-97 (Sheldrick, 2008)'
_computing_molecular_graphics    'Bruker SHELXTL'
_computing_publication_material  'Bruker SHELXTL'

_refine_special_details          
;
Refinement of F^2^ against ALL reflections. The weighted R-factor wR and
goodness of fit S are based on F^2^, conventional R-factors R are based
on F, with F set to zero for negative F^2^. The threshold expression of
F^2^ > 2sigma(F^2^) is used only for calculating R-factors(gt) etc. and is
not relevant to the choice of reflections for refinement. R-factors based
on F^2^ are statistically about twice as large as those based on F, and R-
factors based on ALL data will be even larger.
;

_refine_ls_structure_factor_coef Fsqd
_refine_ls_matrix_type           full
_refine_ls_weighting_scheme      calc
_refine_ls_weighting_details     
'calc w=1/[\s^2^(Fo^2^)+(0.0714P)^2^+0.0000P] where P=(Fo^2^+2Fc^2^)/3'
_atom_sites_solution_primary     direct
_atom_sites_solution_secondary   difmap
_atom_sites_solution_hydrogens   geom
_refine_ls_hydrogen_treatment    constr
_refine_ls_extinction_method     SHELXL
_refine_ls_extinction_coef       0.0100(7)
_refine_ls_extinction_expression Fc^*^=kFc[1+0.001xFc^2^\l^3^/sin(2\q)]^-1/4^
_refine_ls_number_reflns         11961
_refine_ls_number_parameters     740
_refine_ls_number_restraints     0
_refine_ls_R_factor_all          0.1097
_refine_ls_R_factor_gt           0.0688
_refine_ls_wR_factor_ref         0.1911
_refine_ls_wR_factor_gt          0.1639
_refine_ls_goodness_of_fit_ref   1.026
_refine_ls_restrained_S_all      1.026
_refine_ls_shift/su_max          0.000
_refine_ls_shift/su_mean         0.000

loop_
_atom_site_label
_atom_site_type_symbol
_atom_site_fract_x
_atom_site_fract_y
_atom_site_fract_z
_atom_site_U_iso_or_equiv
_atom_site_adp_type
_atom_site_occupancy
_atom_site_symmetry_multiplicity
_atom_site_calc_flag
_atom_site_refinement_flags
_atom_site_disorder_assembly
_atom_site_disorder_group
Ni1 Ni 0.91930(5) 0.27195(4) 0.30179(4) 0.0219(2) Uani 1 1 d . . .
Ni2 Ni 1.12297(5) 0.27285(4) 0.22965(4) 0.0247(2) Uani 1 1 d . . .
Ni3 Ni 0.32717(5) -0.27267(4) 0.32222(4) 0.0245(2) Uani 1 1 d . . .
O1 O 1.0287(3) 0.3699(2) 0.2754(2) 0.0226(8) Uani 1 1 d . . .
O2 O 1.0977(3) 0.4684(2) 0.2303(2) 0.0327(9) Uani 1 1 d . . .
O3 O 1.0143(3) 0.6561(2) 0.5643(2) 0.0255(8) Uani 1 1 d . . .
O4 O 0.8734(3) 0.7169(3) 0.5339(3) 0.0510(12) Uani 1 1 d . . .
O5 O 0.8324(6) 0.2475(4) -0.1613(3) 0.122(3) Uani 1 1 d . . .
O6 O 0.7383(3) 0.3419(2) -0.1898(2) 0.0321(9) Uani 1 1 d . . .
O7 O 0.8561(3) 0.2081(2) 0.1711(2) 0.0253(8) Uani 1 1 d . . .
O8 O 0.9974(3) 0.1929(2) 0.1203(2) 0.0281(9) Uani 1 1 d . . .
O9 O 0.9159(3) -0.0597(3) -0.2017(3) 0.0440(11) Uani 1 1 d . . .
O10 O 0.8021(3) -0.1677(2) -0.1911(2) 0.0298(9) Uani 1 1 d . . .
O11 O 0.3074(3) -0.2993(3) -0.4970(2) 0.0345(9) Uani 1 1 d . . .
O12 O 0.3929(3) -0.2095(2) -0.5439(2) 0.0310(9) Uani 1 1 d . . .
O13 O 1.0546(3) 0.2166(2) 0.2999(2) 0.0237(8) Uani 1 1 d . . .
H1W H 1.0256 0.1595 0.2683 0.028 Uiso 1 1 d R . .
H2W H 1.0938 0.2314 0.3533 0.028 Uiso 1 1 d R . .
O14 O 1.1813(3) 0.3290(3) 0.1536(3) 0.0434(11) Uani 1 1 d . . .
H3W H 1.1557 0.3733 0.1548 0.052 Uiso 1 1 d R . .
H4W H 1.1263 0.2884 0.1433 0.052 Uiso 1 1 d R . .
O15 O 0.1978(3) -0.3447(2) 0.3369(2) 0.0338(9) Uani 1 1 d . . .
H5W H 0.1814 -0.3983 0.3003 0.041 Uiso 1 1 d R . .
H6W H 0.2289 -0.3361 0.3894 0.041 Uiso 1 1 d R . .
O16 O 0.2397(4) -0.1687(3) 0.3306(3) 0.0506(12) Uani 1 1 d . . .
H7W H 0.2000 -0.1921 0.2776 0.061 Uiso 1 1 d R . .
H8W H 0.2839 -0.1808 0.3672 0.061 Uiso 1 1 d R . .
O17 O 0.0692(8) 0.2608(8) 0.9639(6) 0.223(5) Uani 1 1 d . . .
H9W H 0.1016 0.2792 1.0182 0.267 Uiso 1 1 d R . .
H10W H 0.0076 0.2566 0.9509 0.267 Uiso 1 1 d R . .
O18 O 0.0721(13) 0.8078(13) 0.3952(11) 0.395(11) Uani 1 1 d . . .
H11W H 0.1061 0.7659 0.3792 0.474 Uiso 1 1 d R . .
H12W H 0.1238 0.8159 0.3755 0.474 Uiso 1 1 d R . .
O19 O 0.0348(18) 0.1147(10) 0.8406(11) 0.494(18) Uani 1 1 d . . .
H13W H -0.0013 0.0616 0.8277 0.593 Uiso 1 1 d R . .
H14W H 0.0663 0.1664 0.8837 0.593 Uiso 1 1 d R . .
N1 N 0.8337(3) 0.1585(3) 0.3109(3) 0.0292(11) Uani 1 1 d . . .
N2 N 0.4528(4) -0.1841(3) 0.3176(3) 0.0341(11) Uani 1 1 d . . .
N3 N 0.7907(3) 0.3392(3) 0.3048(3) 0.0268(10) Uani 1 1 d . . .
N4 N 0.4218(3) 0.6294(3) 0.3154(3) 0.0299(11) Uani 1 1 d . . .
N5 N 1.2601(3) 0.3540(3) 0.3332(3) 0.0291(11) Uani 1 1 d . . .
C1 C 1.0324(4) 0.4425(3) 0.2627(3) 0.0219(11) Uani 1 1 d . . .
C2 C 0.9633(4) 0.5083(3) 0.2945(3) 0.0209(11) Uani 1 1 d . . .
C3 C 0.9777(4) 0.5511(3) 0.3831(3) 0.0248(12) Uani 1 1 d . . .
H3 H 1.0213 0.5326 0.4214 0.030 Uiso 1 1 calc R . .
C4 C 0.9265(4) 0.6227(4) 0.4154(3) 0.0268(12) Uani 1 1 d . . .
C5 C 0.8604(4) 0.6480(4) 0.3566(4) 0.0334(14) Uani 1 1 d . . .
H5 H 0.8264 0.6955 0.3772 0.040 Uiso 1 1 calc R . .
C6 C 0.8451(5) 0.6038(4) 0.2690(4) 0.0396(15) Uani 1 1 d . . .
H6 H 0.8004 0.6221 0.2311 0.048 Uiso 1 1 calc R . .
C7 C 0.8940(4) 0.5321(4) 0.2344(3) 0.0289(13) Uani 1 1 d . . .
C8 C 0.8714(4) 0.4804(4) 0.1392(4) 0.0294(13) Uani 1 1 d . . .
C9 C 0.8711(5) 0.5229(4) 0.0826(4) 0.0438(16) Uani 1 1 d . . .
H9 H 0.8872 0.5868 0.1055 0.053 Uiso 1 1 calc R . .
C10 C 0.8473(5) 0.4723(4) -0.0069(4) 0.0417(15) Uani 1 1 d . . .
H10 H 0.8441 0.5023 -0.0435 0.050 Uiso 1 1 calc R . .
C11 C 0.8281(5) 0.3767(4) -0.0421(4) 0.0355(14) Uani 1 1 d . . .
C13 C 0.8517(4) 0.3836(4) 0.1020(4) 0.0315(13) Uani 1 1 d . . .
H13 H 0.8527 0.3523 0.1374 0.038 Uiso 1 1 calc R . .
C14 C 0.9384(4) 0.6689(4) 0.5122(3) 0.0273(12) Uani 1 1 d . . .
C15 C 0.7993(6) 0.3182(5) -0.1385(4) 0.0474(17) Uani 1 1 d . . .
C16 C 0.7770(6) 0.0824(4) 0.2393(5) 0.055(2) Uani 1 1 d . . .
H16A H 0.7834 0.0786 0.1859 0.066 Uiso 1 1 calc R . .
C17 C 0.7113(6) 0.0106(4) 0.2377(4) 0.054(2) Uani 1 1 d . . .
H17 H 0.6736 -0.0397 0.1852 0.065 Uiso 1 1 calc R . .
C18 C 0.7014(5) 0.0138(4) 0.3170(4) 0.0336(14) Uani 1 1 d . . .
C19 C 0.7635(5) 0.0890(4) 0.3920(4) 0.0436(16) Uani 1 1 d . . .
H19 H 0.7625 0.0926 0.4466 0.052 Uiso 1 1 calc R . .
C20 C 0.8268(5) 0.1585(4) 0.3858(4) 0.0396(15) Uani 1 1 d . . .
H20 H 0.8676 0.2087 0.4375 0.047 Uiso 1 1 calc R . .
C21 C 0.6202(5) -0.0580(4) 0.3181(4) 0.0366(14) Uani 1 1 d . . .
C22 C 0.5773(6) -0.1457(5) 0.2500(5) 0.066(2) Uani 1 1 d . . .
H22A H 0.6032 -0.1639 0.2022 0.079 Uiso 1 1 calc R . .
C23 C 0.4968(6) -0.2048(5) 0.2537(5) 0.060(2) Uani 1 1 d . . .
H23A H 0.4714 -0.2634 0.2081 0.072 Uiso 1 1 calc R . .
C24 C 0.4933(5) -0.1020(4) 0.3828(4) 0.0416(16) Uani 1 1 d . . .
H24A H 0.4655 -0.0864 0.4295 0.050 Uiso 1 1 calc R . .
C25 C 0.5757(5) -0.0370(4) 0.3857(4) 0.0414(16) Uani 1 1 d . . .
H25A H 0.6006 0.0205 0.4330 0.050 Uiso 1 1 calc R . .
C26 C 0.8990(4) 0.1757(3) 0.1120(3) 0.0221(11) Uani 1 1 d . . .
C27 C 0.8256(4) 0.1086(3) 0.0245(3) 0.0248(12) Uani 1 1 d . . .
C28 C 0.8648(4) 0.0514(4) -0.0375(3) 0.0292(13) Uani 1 1 d . . .
H28 H 0.9387 0.0561 -0.0252 0.035 Uiso 1 1 calc R . .
C29 C 0.7949(4) -0.0135(4) -0.1185(4) 0.0298(13) Uani 1 1 d . . .
C30 C 0.6842(4) -0.0172(4) -0.1412(4) 0.0321(13) Uani 1 1 d . . .
C31 C 0.6460(4) 0.0397(4) -0.0773(4) 0.0431(17) Uani 1 1 d . . .
H31 H 0.5724 0.0366 -0.0900 0.052 Uiso 1 1 calc R . .
C32 C 0.7141(4) 0.1007(4) 0.0042(4) 0.0375(15) Uani 1 1 d . . .
H32 H 0.6858 0.1368 0.0459 0.045 Uiso 1 1 calc R . .
C33 C 0.8412(4) -0.0864(4) -0.1752(4) 0.0341(14) Uani 1 1 d . . .
C34 C 0.6105(4) -0.0775(4) -0.2288(4) 0.0332(14) Uani 1 1 d . . .
C35 C 0.6305(4) -0.0758(4) -0.3034(4) 0.0378(15) Uani 1 1 d . . .
H35 H 0.6945 -0.0393 -0.2976 0.045 Uiso 1 1 calc R . .
C36 C 0.5585(5) -0.1266(4) -0.3849(4) 0.0352(14) Uani 1 1 d . . .
H36 H 0.5741 -0.1236 -0.4334 0.042 Uiso 1 1 calc R . .
C37 C 0.4626(4) -0.1825(3) -0.3966(3) 0.0250(12) Uani 1 1 d . . .
C38 C 0.4421(4) -0.1886(4) -0.3240(4) 0.0310(13) Uani 1 1 d . . .
H38 H 0.3799 -0.2286 -0.3312 0.037 Uiso 1 1 calc R . .
C39 C 0.5138(4) -0.1355(4) -0.2403(4) 0.0366(14) Uani 1 1 d . . .
H39 H 0.4979 -0.1383 -0.1918 0.044 Uiso 1 1 calc R . .
C40 C 0.3813(4) -0.2348(3) -0.4852(3) 0.0250(12) Uani 1 1 d . . .
C41 C 0.7920(4) 0.4079(4) 0.3772(3) 0.0285(12) Uani 1 1 d . . .
H41 H 0.8453 0.4193 0.4286 0.034 Uiso 1 1 calc R . .
C42 C 0.7208(4) 0.4635(4) 0.3821(4) 0.0345(14) Uani 1 1 d . . .
H42 H 0.7287 0.5125 0.4350 0.041 Uiso 1 1 calc R . .
C43 C 0.6356(4) 0.4463(4) 0.3072(4) 0.0296(13) Uani 1 1 d . . .
C44 C 0.6299(4) 0.3703(4) 0.2324(4) 0.0371(15) Uani 1 1 d . . .
H44 H 0.5738 0.3536 0.1811 0.044 Uiso 1 1 calc R . .
C45 C 0.7065(4) 0.3195(4) 0.2338(4) 0.0339(14) Uani 1 1 d . . .
H45 H 0.6999 0.2686 0.1826 0.041 Uiso 1 1 calc R . .
C46 C 0.5612(4) 0.5084(4) 0.3100(4) 0.0300(13) Uani 1 1 d . . .
C47 C 0.5930(4) 0.5999(4) 0.3704(4) 0.0364(14) Uani 1 1 d . . .
H47 H 0.6621 0.6228 0.4103 0.044 Uiso 1 1 calc R . .
C48 C 0.5236(4) 0.6560(4) 0.3713(4) 0.0355(14) Uani 1 1 d . . .
H48 H 0.5474 0.7168 0.4130 0.043 Uiso 1 1 calc R . .
C49 C 0.3904(5) 0.5419(4) 0.2577(4) 0.0359(14) Uani 1 1 d . . .
H49 H 0.3209 0.5216 0.2186 0.043 Uiso 1 1 calc R . .
C50 C 0.4547(4) 0.4790(4) 0.2521(4) 0.0341(14) Uani 1 1 d . . .
H50 H 0.4282 0.4182 0.2109 0.041 Uiso 1 1 calc R . .
C51 C 1.2679(4) 0.4438(4) 0.3821(4) 0.0422(16) Uani 1 1 d . . .
H51 H 1.2073 0.4675 0.3722 0.051 Uiso 1 1 calc R . .
C52 C 1.3603(4) 0.5017(4) 0.4453(4) 0.0356(15) Uani 1 1 d . . .
H52 H 1.3618 0.5636 0.4751 0.043 Uiso 1 1 calc R . .
C53 C 1.4496(4) 0.4702(3) 0.4649(4) 0.0261(12) Uani 1 1 d . . .
C54 C 1.4428(5) 0.3787(4) 0.4148(4) 0.0523(19) Uani 1 1 d . . .
H54 H 1.5024 0.3538 0.4247 0.063 Uiso 1 1 calc R . .
C55 C 1.3486(5) 0.3240(4) 0.3505(5) 0.055(2) Uani 1 1 d . . .
H55 H 1.3470 0.2628 0.3176 0.067 Uiso 1 1 calc R . .
C100 C 0.8311(5) 0.3354(4) 0.0136(4) 0.0392(15) Uani 1 1 d . . .
H100 H 0.8187 0.2716 -0.0095 0.047 Uiso 1 1 calc R . .
loop_
_platon_squeeze_void_nr
_platon_squeeze_void_average_x
_platon_squeeze_void_average_y
_platon_squeeze_void_average_z
_platon_squeeze_void_volume
_platon_squeeze_void_count_electrons
_platon_squeeze_void_content
1 -0.117 -0.117 0.383 780 104 ' '
_platon_squeeze_details          
;
;
loop_
_atom_site_aniso_label
_atom_site_aniso_U_11
_atom_site_aniso_U_22
_atom_site_aniso_U_33
_atom_site_aniso_U_23
_atom_site_aniso_U_13
_atom_site_aniso_U_12
Ni1 0.0205(4) 0.0233(4) 0.0161(4) 0.0026(3) 0.0055(3) 0.0042(3)
Ni2 0.0187(4) 0.0238(4) 0.0199(4) -0.0005(3) 0.0032(3) 0.0017(3)
Ni3 0.0259(4) 0.0248(4) 0.0177(4) 0.0065(3) 0.0036(3) 0.0026(3)
O1 0.0210(18) 0.0213(19) 0.0194(19) 0.0037(16) 0.0043(16) 0.0032(16)
O2 0.031(2) 0.033(2) 0.033(2) 0.0102(19) 0.0162(19) 0.0069(19)
O3 0.0285(19) 0.026(2) 0.0162(19) 0.0046(17) 0.0042(17) 0.0077(17)
O4 0.053(3) 0.070(3) 0.021(2) 0.005(2) 0.008(2) 0.039(3)
O5 0.232(8) 0.118(5) 0.023(3) 0.020(3) 0.023(4) 0.136(6)
O6 0.040(2) 0.034(2) 0.017(2) 0.0070(18) 0.0030(18) 0.0136(19)
O7 0.0229(18) 0.029(2) 0.0131(18) 0.0001(16) 0.0036(16) 0.0020(17)
O8 0.0177(18) 0.032(2) 0.023(2) 0.0015(17) 0.0047(16) 0.0013(17)
O9 0.043(2) 0.030(2) 0.048(3) 0.001(2) 0.022(2) 0.004(2)
O10 0.0201(18) 0.021(2) 0.032(2) -0.0017(18) 0.0041(17) -0.0003(17)
O11 0.039(2) 0.032(2) 0.019(2) 0.0053(18) 0.0015(18) -0.006(2)
O12 0.031(2) 0.034(2) 0.016(2) 0.0055(18) 0.0000(17) -0.0028(18)
O13 0.0229(18) 0.0227(19) 0.0189(19) 0.0017(16) 0.0052(16) 0.0081(16)
O14 0.044(2) 0.035(2) 0.049(3) 0.010(2) 0.025(2) 0.004(2)
O15 0.031(2) 0.034(2) 0.020(2) 0.0036(18) 0.0007(17) -0.0043(19)
O16 0.068(3) 0.049(3) 0.025(2) 0.010(2) -0.001(2) 0.030(2)
O17 0.207(10) 0.255(12) 0.123(9) 0.016(8) 0.048(8) -0.015(9)
O18 0.302(18) 0.48(3) 0.37(2) 0.16(2) 0.119(18) -0.009(19)
O19 0.74(4) 0.244(16) 0.32(2) -0.029(15) 0.28(2) -0.25(2)
N1 0.028(2) 0.025(3) 0.028(3) 0.008(2) 0.007(2) -0.002(2)
N2 0.039(3) 0.030(3) 0.026(3) 0.008(2) 0.008(2) -0.001(2)
N3 0.022(2) 0.031(3) 0.023(3) 0.008(2) 0.005(2) 0.005(2)
N4 0.023(2) 0.035(3) 0.030(3) 0.014(2) 0.005(2) 0.007(2)
N5 0.019(2) 0.031(3) 0.024(3) 0.004(2) -0.002(2) 0.006(2)
C1 0.023(3) 0.019(3) 0.016(3) 0.003(2) 0.001(2) 0.004(2)
C2 0.024(3) 0.019(3) 0.018(3) 0.008(2) 0.005(2) 0.002(2)
C3 0.028(3) 0.027(3) 0.017(3) 0.007(2) 0.008(2) 0.007(3)
C4 0.028(3) 0.030(3) 0.012(3) 0.001(2) 0.003(2) 0.005(3)
C5 0.038(3) 0.031(3) 0.024(3) 0.005(3) 0.005(3) 0.016(3)
C6 0.048(4) 0.041(4) 0.028(3) 0.014(3) 0.005(3) 0.019(3)
C7 0.035(3) 0.030(3) 0.018(3) 0.008(3) 0.006(3) 0.008(3)
C8 0.027(3) 0.038(3) 0.024(3) 0.014(3) 0.006(3) 0.011(3)
C9 0.066(4) 0.039(4) 0.018(3) 0.007(3) 0.006(3) 0.013(3)
C10 0.057(4) 0.047(4) 0.027(3) 0.022(3) 0.013(3) 0.016(3)
C11 0.038(3) 0.041(4) 0.027(3) 0.013(3) 0.006(3) 0.020(3)
C13 0.041(3) 0.025(3) 0.023(3) 0.012(3) 0.002(3) 0.001(3)
C14 0.029(3) 0.026(3) 0.014(3) -0.001(2) 0.003(2) 0.004(3)
C15 0.065(4) 0.056(4) 0.026(3) 0.016(3) 0.015(3) 0.031(4)
C16 0.079(5) 0.040(4) 0.040(4) 0.008(3) 0.030(4) -0.005(4)
C17 0.083(5) 0.024(3) 0.040(4) 0.002(3) 0.025(4) -0.018(3)
C18 0.039(3) 0.025(3) 0.037(4) 0.011(3) 0.017(3) 0.005(3)
C19 0.049(4) 0.047(4) 0.043(4) 0.027(4) 0.019(3) 0.002(3)
C20 0.034(3) 0.043(4) 0.032(4) 0.012(3) 0.006(3) -0.001(3)
C21 0.039(3) 0.033(3) 0.038(4) 0.012(3) 0.017(3) 0.009(3)
C22 0.086(6) 0.046(4) 0.056(5) 0.002(4) 0.051(5) -0.012(4)
C23 0.079(5) 0.039(4) 0.050(5) 0.002(4) 0.036(4) -0.011(4)
C24 0.057(4) 0.031(4) 0.045(4) 0.015(3) 0.032(4) 0.007(3)
C25 0.050(4) 0.028(3) 0.041(4) 0.007(3) 0.021(3) 0.007(3)
C26 0.025(3) 0.018(3) 0.019(3) 0.005(2) 0.004(2) 0.006(2)
C27 0.021(3) 0.018(3) 0.023(3) 0.000(2) 0.003(2) -0.001(2)
C28 0.021(3) 0.031(3) 0.021(3) 0.001(3) 0.000(2) 0.002(3)
C29 0.024(3) 0.030(3) 0.026(3) 0.003(3) 0.007(3) 0.006(3)
C30 0.023(3) 0.033(3) 0.021(3) -0.003(3) 0.001(2) 0.003(3)
C31 0.018(3) 0.053(4) 0.025(3) -0.013(3) -0.002(3) 0.008(3)
C32 0.026(3) 0.040(4) 0.023(3) -0.009(3) 0.005(3) 0.008(3)
C33 0.019(3) 0.039(4) 0.024(3) -0.003(3) 0.000(3) 0.003(3)
C34 0.025(3) 0.038(3) 0.025(3) 0.004(3) 0.001(3) 0.012(3)
C35 0.026(3) 0.034(3) 0.035(4) 0.002(3) 0.004(3) -0.007(3)
C36 0.042(3)