
#######################################################################
#
#                 Cambridge Crystallographic Data Centre
#                                CCDC
#
#######################################################################
#
# If this CIF has been generated from an entry in the Cambridge
# Structural Database, then it will include bibliographic, chemical,
# crystal, experimental, refinement or atomic coordinate data resulting
# from the CCDC's data processing and validation procedures.
#
#######################################################################

data_CSD_CIF_QIRHUU
_audit_creation_date 2001-07-02
_audit_creation_method CSD-ConQuest-V1
_database_code_CSD QIRHUU
_database_code_depnum_ccdc_archive 'CCDC 144861'
_chemical_formula_sum 'C8 H20 Br2 I1 N1'
_chemical_formula_moiety
;
C8 H20 N1 1+,Br2 I1 1-
;
_journal_coden_Cambridge 1078
_journal_year 2000
_journal_name_full 'CSD Communication(Private Communication) '
loop_
_publ_author_name
"G.L.Breneman"
_chemical_name_systematic
;
Tetraethylammonium dibromo-iodide
;
_chemical_name_common
;
Teaching Subset: Fundamental Chemistry, Symmetry
;
_cell_volume    725.842
_exptl_crystal_colour 'orange'
_exptl_crystal_density_diffrn 1.91
_exptl_special_details
;
contribution from Department of Chemistry and Biochemistry, East Washington 
University, Cheney, WA, USA
;
_exptl_crystal_description 'needle'
_exptl_crystal_preparation 'methanol'
_diffrn_ambient_temperature ?
_diffrn_special_details
;
The study was carried out at room temperature,in the range 283-303K

;
#These two values have been output from a single CSD field.
_refine_ls_R_factor_gt 0.042
_refine_ls_wR_factor_gt 0.042
_symmetry_cell_setting tetragonal
_symmetry_space_group_name_H-M 'P -4 b 2'
_symmetry_Int_Tables_number 117
loop_
_symmetry_equiv_pos_site_id
_symmetry_equiv_pos_as_xyz
1 x,y,z
2 1/2-x,1/2+y,z
3 -x,-y,z
4 1/2+x,1/2-y,z
5 y,-x,-z
6 1/2-y,1/2-x,-z
7 -y,x,-z
8 1/2+y,1/2+x,-z
_cell_length_a 11.071(1)
_cell_length_b 11.071(1)
_cell_length_c 5.922(1)
_cell_angle_alpha 90
_cell_angle_beta 90
_cell_angle_gamma 90
_cell_formula_units_Z 2
loop_
_atom_type_symbol
_atom_type_radius_bond
C 0.68
H 0.23
Br 1.21
I 1.40
N 0.68
loop_
_atom_site_label
_atom_site_type_symbol
_atom_site_fract_x
_atom_site_fract_y
_atom_site_fract_z
I1 I 0.00000 -0.50000 0.00000
Br1 Br 0.1738(1) -0.3236(1) 0.00000
N1 N 0.00000 0.00000 0.50000
C1 C 0.1053(12) -0.0225(10) 0.3510(17)
C2 C 0.2245(9) -0.0450(12) 0.5163(22)
H1 H 0.11850 0.04600 0.25420
H2 H 0.09260 -0.09270 0.25850
H3 H 0.29620 -0.05920 0.42840
H4 H 0.23550 0.02590 0.60790
H5 H 0.20950 -0.11340 0.61230
Br1B Br -0.1738(1) -0.6764(1) 0.00000
C1B C -0.1053(12) 0.0225(10) 0.3510(17)
C2B C -0.2245(9) 0.0450(12) 0.5163(22)
H3B H -0.29620 0.05920 0.42840
H4B H -0.23550 -0.02590 0.60790
H5B H -0.20950 0.11340 0.61230
H1B H -0.11850 -0.04600 0.25420
H2B H -0.09260 0.09270 0.25850
C1D C -0.0225(12) -0.1053(10) 0.6490(17)
C2D C -0.0450(9) -0.2245(12) 0.4837(22)
H3D H -0.05920 -0.29620 0.57160
H4D H 0.02590 -0.23550 0.39210
H5D H -0.11340 -0.20950 0.38770
H1D H 0.04600 -0.11850 0.74580
H2D H -0.09270 -0.09260 0.74150
C1F C 0.0225(12) 0.1053(10) 0.6490(17)
C2F C 0.0450(9) 0.2245(12) 0.4837(22)
H3F H 0.05920 0.29620 0.57160
H4F H -0.02590 0.23550 0.39210
H5F H 0.11340 0.20950 0.38770
H1F H -0.04600 0.11850 0.74580
H2F H 0.09270 0.09260 0.74150
#END
