####################################################################### 
# 
# This file contains crystal structure data downloaded from the 
# Cambridge Structural Database (CSD) hosted by the Cambridge 
# Crystallographic Data Centre (CCDC).
# 
# Full information about CCDC data access policies and citation 
# guidelines are available at http://www.ccdc.cam.ac.uk/access/V1 
# 
# Audit and citation data items may have been added by the CCDC. 
# Please retain this information to preserve the provenance of 
# this file and to allow appropriate attribution of the data. 
# 
#######################################################################

data_AEPF-12
_audit_block_doi                 10.5517/cc10sr4p
_database_code_depnum_ccdc_archive 'CCDC 947302'
loop_
_citation_id
_citation_doi
_citation_year
1 10.1002/chem.201302571 2013
_audit_update_record             
;
2013-06-26 deposited with the CCDC.	2024-07-12 downloaded from the CCDC.
;

_audit_creation_method           SHELXL-97
_chemical_name_systematic        
;
 ?
;
_chemical_name_common            ?
_chemical_melting_point          ?
_chemical_formula_moiety         ?
_chemical_formula_sum            'C32 H24 Mg2 O10'
_chemical_formula_weight         617.13

loop_
_atom_type_symbol
_atom_type_description
_atom_type_scat_dispersion_real
_atom_type_scat_dispersion_imag
_atom_type_scat_source
C C 0.0033 0.0016 'International Tables Vol C Tables 4.2.6.8 and 6.1.1.4'
H H 0.0000 0.0000 'International Tables Vol C Tables 4.2.6.8 and 6.1.1.4'
O O 0.0106 0.0060 'International Tables Vol C Tables 4.2.6.8 and 6.1.1.4'
Mg Mg 0.0486 0.0363 'International Tables Vol C Tables 4.2.6.8 and 6.1.1.4'

_symmetry_cell_setting           Orthorhombic
_symmetry_space_group_name_H-M   Pna2(1)

loop_
_symmetry_equiv_pos_as_xyz
'x, y, z'
'-x, -y, z+1/2'
'x+1/2, -y+1/2, z'
'-x+1/2, y+1/2, z+1/2'

_cell_length_a                   12.3582(7)
_cell_length_b                   22.9400(12)
_cell_length_c                   12.8109(7)
_cell_angle_alpha                90.00
_cell_angle_beta                 90.00
_cell_angle_gamma                90.00
_cell_volume                     3631.9(3)
_cell_formula_units_Z            4
_cell_measurement_temperature    296(2)
_cell_measurement_reflns_used    7226
_cell_measurement_theta_min      2.38
_cell_measurement_theta_max      24.22

_exptl_crystal_description       Prismatic
_exptl_crystal_colour            Colorless
_exptl_crystal_size_max          0.15
_exptl_crystal_size_mid          0.10
_exptl_crystal_size_min          0.10
_exptl_crystal_density_meas      ?
_exptl_crystal_density_diffrn    1.129
_exptl_crystal_density_method    'not measured'
_exptl_crystal_F_000             1280
_exptl_absorpt_coefficient_mu    0.114
_exptl_absorpt_correction_type   multi-scan
_exptl_absorpt_correction_T_min  0.986
_exptl_absorpt_correction_T_max  0.989
_exptl_absorpt_process_details   SADABS

_exptl_special_details           
;
 ?
;

_diffrn_ambient_temperature      296(2)
_diffrn_radiation_wavelength     0.71073
_diffrn_radiation_type           MoK\a
_diffrn_radiation_source         'fine-focus sealed tube'
_diffrn_radiation_monochromator  graphite
_diffrn_measurement_device_type  'CCD area detector'
_diffrn_measurement_method       'phi and omega scans'
_diffrn_detector_area_resol_mean ?
_diffrn_standards_number         ?
_diffrn_standards_interval_count ?
_diffrn_standards_interval_time  ?
_diffrn_standards_decay_%        ?
_diffrn_reflns_number            23079
_diffrn_reflns_av_R_equivalents  0.0477
_diffrn_reflns_av_sigmaI/netI    0.0518
_diffrn_reflns_limit_h_min       -14
_diffrn_reflns_limit_h_max       14
_diffrn_reflns_limit_k_min       -27
_diffrn_reflns_limit_k_max       26
_diffrn_reflns_limit_l_min       -14
_diffrn_reflns_limit_l_max       15
_diffrn_reflns_theta_min         2.42
_diffrn_reflns_theta_max         25.03
_reflns_number_total             6415
_reflns_number_gt                4990
_reflns_threshold_expression     >2sigma(I)

_computing_data_collection       'Bruker SMART'
_computing_cell_refinement       'Bruker SMART'
_computing_data_reduction        'Bruker SAINT'
_computing_structure_solution    'SHELXS-97 (Sheldrick, 1990)'
_computing_structure_refinement  'SHELXL-97 (Sheldrick, 1997)'
_computing_molecular_graphics    'Bruker SHELXTL'
_computing_publication_material  'Bruker SHELXTL'

_refine_special_details          
;
 Refinement of F^2^ against ALL reflections.  The weighted R-factor wR and
 goodness of fit S are based on F^2^, conventional R-factors R are based
 on F, with F set to zero for negative F^2^. The threshold expression of
 F^2^ > 2sigma(F^2^) is used only for calculating R-factors(gt) etc. and is
 not relevant to the choice of reflections for refinement.  R-factors based
 on F^2^ are statistically about twice as large as those based on F, and R-
 factors based on ALL data will be even larger.

Comment about alert PLAT602: 
 The pores in AEPF-12 MOF are filled with propane-1-amine molecules, as it has 
 been confirmed by different analytical techniques. 
 Despite the efforts done to include these solvent molecules in the structure 
 model, we didn't succeed due to strong disorder problems. That is why the 
 electronic density in the channels has not been taken into account to do the 
 structure refinement. Nevertheless, electronic density has been calculated 
 with SQUEEZE tool, being 132 electrons per unit cell, which correspond to
 4 propane-1-amine molecules per unit cell.
;

_refine_ls_structure_factor_coef Fsqd
_refine_ls_matrix_type           full
_refine_ls_weighting_scheme      calc
_refine_ls_weighting_details     
'calc w=1/[\s^2^(Fo^2^)+(0.0893P)^2^+0.0000P] where P=(Fo^2^+2Fc^2^)/3'
_atom_sites_solution_primary     direct
_atom_sites_solution_secondary   difmap
_atom_sites_solution_hydrogens   geom
_refine_ls_hydrogen_treatment    constr
_refine_ls_extinction_method     none
_refine_ls_extinction_coef       ?
_refine_ls_abs_structure_details 'Flack H D (1983), Acta Cryst. A39, 876-881'
_refine_ls_abs_structure_Flack   0.6(3)
_refine_ls_number_reflns         6255
_refine_ls_number_parameters     398
_refine_ls_number_restraints     2
_refine_ls_R_factor_all          0.0690
_refine_ls_R_factor_gt           0.0528
_refine_ls_wR_factor_ref         0.1359
_refine_ls_wR_factor_gt          0.1287
_refine_ls_goodness_of_fit_ref   1.001
_refine_ls_restrained_S_all      1.008
_refine_ls_shift/su_max          0.000
_refine_ls_shift/su_mean         0.000

loop_
_atom_site_label
_atom_site_type_symbol
_atom_site_fract_x
_atom_site_fract_y
_atom_site_fract_z
_atom_site_U_iso_or_equiv
_atom_site_adp_type
_atom_site_occupancy
_atom_site_symmetry_multiplicity
_atom_site_calc_flag
_atom_site_refinement_flags
_atom_site_disorder_assembly
_atom_site_disorder_group
C1 C 0.8646(2) 0.12985(14) -0.7569(3) 0.0340(8) Uani 1 1 d . . .
C2 C 0.8887(3) 0.09056(14) -0.6644(3) 0.0343(7) Uani 1 1 d . . .
C3 C 0.8117(3) 0.05277(15) -0.6287(3) 0.0484(9) Uani 1 1 d . . .
H3 H 0.7471 0.0486 -0.6651 0.058 Uiso 1 1 calc R . .
C4 C 0.9844(3) 0.0957(2) -0.6089(3) 0.0553(11) Uani 1 1 d . . .
H4 H 1.0384 0.1205 -0.6328 0.066 Uiso 1 1 calc R . .
C5 C 0.8293(3) 0.02056(17) -0.5385(3) 0.0551(11) Uani 1 1 d . . .
H5 H 0.7765 -0.0055 -0.5161 0.066 Uiso 1 1 calc R . .
C6 C 1.0002(3) 0.0643(2) -0.5184(3) 0.0604(12) Uani 1 1 d . . .
H6 H 1.0644 0.0688 -0.4814 0.072 Uiso 1 1 calc R . .
C7 C 0.9224(3) 0.02620(16) -0.4818(3) 0.0466(10) Uani 1 1 d . . .
C8 C 0.9389(4) -0.00544(15) -0.3774(3) 0.0646(11) Uani 1 1 d . . .
H8A H 0.8923 -0.0394 -0.3750 0.078 Uiso 1 1 calc R . .
H8B H 1.0133 -0.0187 -0.3726 0.078 Uiso 1 1 calc R . .
C9 C 0.9139(4) 0.03360(16) -0.2852(3) 0.0489(10) Uani 1 1 d . . .
C10 C 0.8093(4) 0.0424(2) -0.2551(4) 0.0786(15) Uani 1 1 d . . .
H10 H 0.7540 0.0226 -0.2892 0.094 Uiso 1 1 calc R . .
C11 C 0.9928(4) 0.06166(19) -0.2310(3) 0.0575(11) Uani 1 1 d . . .
H11 H 1.0649 0.0548 -0.2478 0.069 Uiso 1 1 calc R . .
C12 C 0.9682(3) 0.10062(18) -0.1504(3) 0.0520(10) Uani 1 1 d . . .
H12 H 1.0237 0.1197 -0.1153 0.062 Uiso 1 1 calc R . .
C13 C 0.7845(4) 0.0798(2) -0.1754(3) 0.0726(14) Uani 1 1 d . . .
H13 H 0.7125 0.0843 -0.1561 0.087 Uiso 1 1 calc R . .
C14 C 0.8629(3) 0.11088(16) -0.1230(3) 0.0412(8) Uani 1 1 d . . .
C15 C 0.8340(3) 0.15403(16) -0.0387(3) 0.0414(9) Uani 1 1 d . . .
C16 C 1.1709(2) 0.22145(13) 0.1252(3) 0.0350(7) Uani 1 1 d . . .
C17 C 1.1763(3) 0.15760(14) 0.1250(5) 0.0593(10) Uani 1 1 d . . .
H17A H 1.1782 0.1436 0.1956 0.089 Uiso 1 1 calc R . .
H17B H 1.2404 0.1452 0.0891 0.089 Uiso 1 1 calc R . .
H17C H 1.1137 0.1421 0.0903 0.089 Uiso 1 1 calc R . .
C18 C 0.9988(3) 0.33172(16) 0.2957(3) 0.0420(8) Uani 1 1 d . . .
C19 C 0.9605(3) 0.37175(15) 0.3801(3) 0.0380(8) Uani 1 1 d . . .
C20 C 0.8559(3) 0.3916(2) 0.3854(4) 0.0637(13) Uani 1 1 d . . .
H20 H 0.8065 0.3803 0.3344 0.076 Uiso 1 1 calc R . .
C21 C 1.0326(3) 0.39241(18) 0.4545(3) 0.0547(10) Uani 1 1 d . . .
H21 H 1.1050 0.3815 0.4511 0.066 Uiso 1 1 calc R . .
C22 C 0.9985(4) 0.42872(19) 0.5332(3) 0.0609(11) Uani 1 1 d . . .
H22 H 1.0484 0.4421 0.5820 0.073 Uiso 1 1 calc R . .
C23 C 0.8225(3) 0.4280(2) 0.4645(4) 0.0642(12) Uani 1 1 d . . .
H23 H 0.7510 0.4407 0.4656 0.077 Uiso 1 1 calc R . .
C24 C 0.8911(3) 0.44588(16) 0.5413(3) 0.0426(9) Uani 1 1 d . . .
C25 C 0.8547(3) 0.48494(15) 0.6312(3) 0.0574(10) Uani 1 1 d . . .
H25A H 0.8941 0.5215 0.6286 0.069 Uiso 1 1 calc R . .
H25B H 0.7782 0.4935 0.6240 0.069 Uiso 1 1 calc R . .
C26 C 0.8750(3) 0.45531(15) 0.7352(3) 0.0431(9) Uani 1 1 d . . .
C27 C 0.8131(3) 0.40830(17) 0.7663(3) 0.0520(10) Uani 1 1 d . . .
H27 H 0.7545 0.3968 0.7256 0.062 Uiso 1 1 calc R . .
C28 C 0.9594(3) 0.47258(16) 0.7987(3) 0.0528(10) Uani 1 1 d . . .
H28 H 1.0003 0.5050 0.7805 0.063 Uiso 1 1 calc R . .
C29 C 0.8364(3) 0.37795(18) 0.8568(3) 0.0470(10) Uani 1 1 d . . .
H29 H 0.7940 0.3464 0.8767 0.056 Uiso 1 1 calc R . .
C30 C 0.9839(3) 0.44242(15) 0.8887(3) 0.0446(9) Uani 1 1 d . . .
H30 H 1.0417 0.4545 0.9298 0.054 Uiso 1 1 calc R . .
C31 C 0.9245(3) 0.39518(15) 0.9182(3) 0.0354(8) Uani 1 1 d . . .
C32 C 0.9579(3) 0.35787(15) 1.0105(3) 0.0363(8) Uani 1 1 d . . .
Mg1 Mg 0.91928(7) 0.24225(4) 0.12551(10) 0.0307(2) Uani 1 1 d . . .
Mg2 Mg 0.66401(7) 0.16611(4) 0.12585(9) 0.0306(2) Uani 1 1 d . . .
O1 O 0.78367(18) 0.11719(9) -0.81137(19) 0.0423(6) Uani 1 1 d . . .
O2 O 0.9253(2) 0.17342(10) -0.77042(19) 0.0435(6) Uani 1 1 d . . .
O3 O 0.90803(19) 0.18323(11) 0.00311(19) 0.0430(6) Uani 1 1 d D . .
H3A H 0.9613 0.1625 0.0118 0.065 Uiso 1 1 calc RD . .
O4 O 0.73458(18) 0.15999(12) -0.01780(19) 0.0510(7) Uani 1 1 d . . .
O5 O 1.08492(16) 0.24757(9) 0.10184(17) 0.0356(6) Uani 1 1 d . . .
O6 O 1.25277(15) 0.25316(9) 0.14920(18) 0.0361(6) Uani 1 1 d . . .
O7 O 0.9295(2) 0.29979(11) 0.25421(19) 0.0479(6) Uani 1 1 d . . .
O8 O 1.09832(19) 0.33257(12) 0.27304(19) 0.0528(7) Uani 1 1 d . . .
O9 O 0.90828(19) 0.31098(11) 1.02301(19) 0.0436(6) Uani 1 1 d . . .
O10 O 1.03501(18) 0.37625(10) 1.06675(19) 0.0438(6) Uani 1 1 d . . .

loop_
_atom_site_aniso_label
_atom_site_aniso_U_11
_atom_site_aniso_U_22
_atom_site_aniso_U_33
_atom_site_aniso_U_23
_atom_site_aniso_U_13
_atom_site_aniso_U_12
C1 0.0304(17) 0.041(2) 0.0302(19) 0.0022(15) 0.0025(15) 0.0008(15)
C2 0.0351(18) 0.0371(18) 0.0307(18) -0.0003(15) 0.0038(15) 0.0013(14)
C3 0.061(2) 0.049(2) 0.035(2) 0.0035(17) -0.0095(17) -0.0112(18)
C4 0.038(2) 0.076(3) 0.052(3) 0.020(2) -0.0032(19) -0.0032(19)
C5 0.074(3) 0.046(2) 0.045(2) 0.0047(18) 0.005(2) -0.0226(19)
C6 0.046(2) 0.097(4) 0.038(2) 0.017(2) -0.0054(18) 0.012(2)
C7 0.070(3) 0.038(2) 0.033(2) -0.0043(16) 0.0046(19) 0.0102(18)
C8 0.117(3) 0.0406(19) 0.036(2) 0.003(2) -0.004(2) 0.015(2)
C9 0.082(3) 0.0358(19) 0.0289(19) 0.0010(15) 0.0048(19) -0.0019(19)
C10 0.075(3) 0.104(4) 0.057(3) -0.030(3) -0.002(3) -0.028(3)
C11 0.062(3) 0.059(3) 0.051(3) -0.011(2) 0.007(2) 0.012(2)
C12 0.050(2) 0.063(3) 0.043(2) -0.012(2) -0.0064(19) 0.0040(19)
C13 0.052(3) 0.112(4) 0.054(3) -0.034(3) 0.017(2) -0.022(2)
C14 0.045(2) 0.053(2) 0.0253(18) -0.0007(16) 0.0014(15) -0.0048(17)
C15 0.042(2) 0.058(2) 0.0239(18) 0.0021(16) -0.0014(16) -0.0022(17)
C16 0.0318(17) 0.0411(16) 0.0321(15) 0.0018(18) 0.0079(15) 0.0011(14)
C17 0.0399(19) 0.044(2) 0.094(3) 0.008(3) 0.004(2) -0.0025(15)
C18 0.050(2) 0.048(2) 0.0279(18) 0.0000(16) 0.0025(16) -0.0094(18)
C19 0.046(2) 0.0421(19) 0.0256(18) -0.0024(15) 0.0065(15) -0.0086(16)
C20 0.042(2) 0.094(3) 0.055(3) -0.025(3) -0.008(2) -0.012(2)
C21 0.053(2) 0.071(3) 0.040(2) -0.010(2) -0.0074(18) 0.0164(19)
C22 0.074(3) 0.070(3) 0.040(2) -0.017(2) -0.0127(19) 0.011(2)
C23 0.045(2) 0.098(3) 0.049(3) -0.018(2) 0.008(2) 0.010(2)
C24 0.055(2) 0.042(2) 0.031(2) 0.0055(15) 0.0049(17) 0.0110(17)
C25 0.089(3) 0.047(2) 0.037(2) -0.007(2) 0.007(2) 0.0206(19)
C26 0.060(2) 0.038(2) 0.031(2) 0.0004(16) 0.0050(18) 0.0167(18)
C27 0.053(2) 0.057(2) 0.047(2) 0.0083(19) -0.0120(19) 0.0031(19)
C28 0.081(3) 0.039(2) 0.039(2) -0.0045(17) 0.011(2) -0.0068(19)
C29 0.046(2) 0.051(2) 0.044(2) 0.0147(19) -0.0043(17) -0.0066(17)
C30 0.054(2) 0.044(2) 0.035(2) -0.0077(17) -0.0037(17) -0.0054(17)
C31 0.0341(19) 0.0368(18) 0.0351(18) -0.0049(14) 0.0025(15) 0.0033(14)
C32 0.0338(18) 0.042(2) 0.0330(19) -0.0025(16) -0.0001(15) 0.0066(16)
Mg1 0.0256(5) 0.0387(5) 0.0278(5) 0.0007(5) 0.0003(4) -0.0014(4)
Mg2 0.0284(5) 0.0394(5) 0.0241(5) -0.0003(5) -0.0009(4) -0.0009(4)
O1 0.0371(13) 0.0450(13) 0.0447(15) 0.0012(11) -0.0108(12) 0.0023(11)
O2 0.0461(15) 0.0489(15) 0.0355(14) 0.0080(11) -0.0046(11) -0.0070(12)
O3 0.0397(13) 0.0531(14) 0.0363(14) -0.0105(12) 0.0020(11) 0.0004(11)
O4 0.0382(15) 0.0867(19) 0.0281(14) -0.0077(12) 0.0016(11) 0.0016(12)
O5 0.0266(11) 0.0438(13) 0.0365(16) -0.0009(10) -0.0008(10) 0.0009(9)
O6 0.0271(12) 0.0404(12) 0.0410(16) 0.0027(10) 0.0011(10) -0.0002(9)
O7 0.0487(15) 0.0585(16) 0.0364(14) -0.0142(12) 0.0067(12) -0.0132(12)
O8 0.0438(15) 0.086(2) 0.0289(13) -0.0122(13) 0.0075(12) -0.0133(13)
O9 0.0407(13) 0.0493(15) 0.0408(14) 0.0112(11) -0.0047(11) -0.0052(11)
O10 0.0392(13) 0.0457(14) 0.0465(14) -0.0045(11) -0.0124(12) 0.0054(11)

_geom_special_details            
;
 All esds (except the esd in the dihedral angle between two l.s. planes)
 are estimated using the full covariance matrix.  The cell esds are taken
 into account individually in the estimation of esds in distances, angles
 and torsion angles; correlations between esds in cell parameters are only
 used when they are defined by crystal symmetry.  An approximate (isotropic)
 treatment of cell esds is used for estimating esds involving l.s. planes.
;

loop_
_geom_bond_atom_site_label_1
_geom_bond_atom_site_label_2
_geom_bond_distance
_geom_bond_site_symmetry_2
_geom_bond_publ_flag
C1 O1 1.253(4) . ?
C1 O2 1.262(4) . ?
C1 C2 1.518(5) . ?
C2 C3 1.366(5) . ?
C2 C4 1.385(5) . ?
C3 C5 1.389(5) . ?
C4 C6 1.378(6) . ?
C5 C7 1.367(5) . ?
C6 C7 1.381(6) . ?
C7 C8 1.535(6) . ?
C8 C9 1.514(6) . ?
C9 C11 1.359(6) . ?
C9 C10 1.364(6) . ?
C10 C13 1.368(6) . ?
C11 C12 1.399(6) . ?
C12 C14 1.368(5) . ?
C13 C14 1.378(5) . ?
C14 C15 1.508(5) . ?
C15 O3 1.254(4) . ?
C15 O4 1.265(4) . ?
C16 O5 1.257(3) . ?
C16 O6 1.283(4) . ?
C16 C17 1.466(4) . ?
C16 Mg2 2.581(3) 3 ?
C18 O7 1.246(4) . ?
C18 O8 1.263(4) . ?
C18 C19 1.496(5) . ?
C19 C20 1.373(5) . ?
C19 C21 1.388(5) . ?
C20 C23 1.376(6) . ?
C21 C22 1.373(6) . ?
C22 C24 1.388(5) . ?
C23 C24 1.362(6) . ?
C24 C25 1.526(5) . ?
C25 C26 1.516(5) . ?
C26 C28 1.381(6) . ?
C26 C27 1.381(5) . ?
C27 C29 1.382(6) . ?
C28 C30 1.378(5) . ?
C29 C31 1.400(5) . ?
C30 C31 1.363(5) . ?
C31 C32 1.517(5) . ?
C32 O9 1.249(4) . ?
C32 O10 1.267(4) . ?
Mg1 O9 2.056(3) 1_554 ?
Mg1 O2 2.068(3) 1_556 ?
Mg1 O5 2.073(2) . ?
Mg1 O3 2.076(3) . ?
Mg1 O6 2.083(2) 3_455 ?
Mg1 O7 2.116(3) . ?
Mg1 Mg2 3.6058(13) . ?
Mg1 Mg2 3.6833(13) 3 ?
Mg2 O10 2.015(2) 3_454 ?
Mg2 O1 2.023(2) 1_556 ?
Mg2 O4 2.041(3) . ?
Mg2 O8 2.053(3) 3_455 ?
Mg2 O6 2.173(2) 3_455 ?
Mg2 O5 2.230(2) 3_455 ?
Mg2 C16 2.581(3) 3_455 ?
Mg2 Mg1 3.6833(13) 3_455 ?
O1 Mg2 2.023(2) 1_554 ?
O2 Mg1 2.068(3) 1_554 ?
O5 Mg2 2.230(2) 3 ?
O6 Mg1 2.083(2) 3 ?
O6 Mg2 2.173(2) 3 ?
O8 Mg2 2.053(3) 3 ?
O9 Mg1 2.056(3) 1_556 ?
O10 Mg2 2.015(2) 3_556 ?

loop_
_geom_angle_atom_site_label_1
_geom_angle_atom_site_label_2
_geom_angle_atom_site_label_3
_geom_angle
_geom_angle_site_symmetry_1
_geom_angle_site_symmetry_3
_geom_angle_publ_flag
O1 C1 O2 125.6(3) . . ?
O1 C1 C2 117.0(3) . . ?
O2 C1 C2 117.4(3) . . ?
C3 C2 C4 118.4(3) . . ?
C3 C2 C1 120.1(3) . . ?
C4 C2 C1 121.2(3) . . ?
C2 C3 C5 120.5(4) . . ?
C6 C4 C2 120.6(4) . . ?
C7 C5 C3 121.5(4) . . ?
C4 C6 C7 121.1(4) . . ?
C5 C7 C6 117.7(4) . . ?
C5 C7 C8 122.0(4) . . ?
C6 C7 C8 120.2(4) . . ?
C9 C8 C7 111.9(3) . . ?
C11 C9 C10 117.7(4) . . ?
C11 C9 C8 122.2(4) . . ?
C10 C9 C8 120.1(4) . . ?
C9 C10 C13 121.1(4) . . ?
C9 C11 C12 121.6(4) . . ?
C14 C12 C11 120.4(4) . . ?
C10 C13 C14 122.1(4) . . ?
C12 C14 C13 117.0(4) . . ?
C12 C14 C15 121.5(3) . . ?
C13 C14 C15 121.5(3) . . ?
O3 C15 O4 124.1(3) . . ?
O3 C15 C14 118.9(3) . . ?
O4 C15 C14 116.9(3) . . ?
O5 C16 O6 117.0(3) . . ?
O5 C16 C17 120.9(3) . . ?
O