####################################################################### 
# 
# This file contains crystal structure data downloaded from the 
# Cambridge Structural Database (CSD) hosted by the Cambridge 
# Crystallographic Data Centre (CCDC).
# 
# Full information about CCDC data access policies and citation 
# guidelines are available at http://www.ccdc.cam.ac.uk/access/V1 
# 
# Audit and citation data items may have been added by the CCDC. 
# Please retain this information to preserve the provenance of 
# this file and to allow appropriate attribution of the data. 
# 
#######################################################################

data_2
_audit_block_doi                 10.5517/ccz745h
_database_code_depnum_ccdc_archive 'CCDC 900586'
_audit_update_record             
;
2012-09-09 deposited with the CCDC.	2024-07-12 downloaded from the CCDC.
;
#TrackingRef '2.cif'


_audit_creation_method           SHELXL-97
_chemical_name_systematic        
;
?
;
_chemical_name_common            ?
_chemical_melting_point          ?
_chemical_formula_moiety         ?
_chemical_formula_sum            'C13 H20 Cu I4 N8 O7 S'
_chemical_formula_weight         1003.57

loop_
_atom_type_symbol
_atom_type_description
_atom_type_scat_dispersion_real
_atom_type_scat_dispersion_imag
_atom_type_scat_source
C C 0.0033 0.0016 'International Tables Vol C Tables 4.2.6.8 and 6.1.1.4'
H H 0.0000 0.0000 'International Tables Vol C Tables 4.2.6.8 and 6.1.1.4'
N N 0.0061 0.0033 'International Tables Vol C Tables 4.2.6.8 and 6.1.1.4'
O O 0.0106 0.0060 'International Tables Vol C Tables 4.2.6.8 and 6.1.1.4'
S S 0.1246 0.1234 'International Tables Vol C Tables 4.2.6.8 and 6.1.1.4'
Cu Cu 0.3201 1.2651 'International Tables Vol C Tables 4.2.6.8 and 6.1.1.4'
I I -0.4742 1.8119 'International Tables Vol C Tables 4.2.6.8 and 6.1.1.4'

_symmetry_cell_setting           Triclinic
_symmetry_space_group_name_H-M   P-1

loop_
_symmetry_equiv_pos_as_xyz
'x, y, z'
'-x, -y, -z'

_cell_length_a                   11.385(10)
_cell_length_b                   12.511(18)
_cell_length_c                   12.879(11)
_cell_angle_alpha                101.808(13)
_cell_angle_beta                 114.529(9)
_cell_angle_gamma                108.348(14)
_cell_volume                     1460(3)
_cell_formula_units_Z            2
_cell_measurement_temperature    273(2)
_cell_measurement_reflns_used    2336
_cell_measurement_theta_min      2.03
_cell_measurement_theta_max      25.00

_exptl_crystal_description       block
_exptl_crystal_colour            deepgreen
_exptl_crystal_size_max          0.56
_exptl_crystal_size_mid          0.49
_exptl_crystal_size_min          0.21
_exptl_crystal_density_meas      ?
_exptl_crystal_density_diffrn    2.283
_exptl_crystal_density_method    'not measured'
_exptl_crystal_F_000             934
_exptl_absorpt_coefficient_mu    5.094
_exptl_absorpt_correction_type   multi-scan
_exptl_absorpt_correction_T_min  0.1643
_exptl_absorpt_correction_T_max  0.4143
_exptl_absorpt_process_details   sadabs

_exptl_special_details           
;
?
;

_diffrn_ambient_temperature      273(2)
_diffrn_radiation_wavelength     0.71073
_diffrn_radiation_type           MoK\a
_diffrn_radiation_source         'fine-focus sealed tube'
_diffrn_radiation_monochromator  graphite
_diffrn_measurement_device_type  'Bruker AXS SMART APEX II CCD'
_diffrn_measurement_method       '\w scans'
_diffrn_detector_area_resol_mean ?
_diffrn_standards_number         0
_diffrn_standards_interval_count 0
_diffrn_standards_interval_time  0
_diffrn_standards_decay_%        0
_diffrn_reflns_number            7149
_diffrn_reflns_av_R_equivalents  0.0316
_diffrn_reflns_av_sigmaI/netI    0.0672
_diffrn_reflns_limit_h_min       -13
_diffrn_reflns_limit_h_max       11
_diffrn_reflns_limit_k_min       -9
_diffrn_reflns_limit_k_max       14
_diffrn_reflns_limit_l_min       -15
_diffrn_reflns_limit_l_max       14
_diffrn_reflns_theta_min         2.03
_diffrn_reflns_theta_max         25.00
_reflns_number_total             5041
_reflns_number_gt                3318
_reflns_threshold_expression     >2sigma(I)

_computing_data_collection       'Bruker SMART'
_computing_cell_refinement       'Bruker SMART'
_computing_data_reduction        'Bruker SAINT'
_computing_structure_solution    'SHELXS-97 (Sheldrick, 1990)'
_computing_structure_refinement  'SHELXL-97 (Sheldrick, 1997)'
_computing_molecular_graphics    'Bruker SHELXTL'
_computing_publication_material  'Bruker SHELXTL'

_refine_special_details          
;
Refinement of F^2^ against ALL reflections. The weighted R-factor wR and
goodness of fit S are based on F^2^, conventional R-factors R are based
on F, with F set to zero for negative F^2^. The threshold expression of
F^2^ > 2sigma(F^2^) is used only for calculating R-factors(gt) etc. and is
not relevant to the choice of reflections for refinement. R-factors based
on F^2^ are statistically about twice as large as those based on F, and R-
factors based on ALL data will be even larger.
;

_refine_ls_structure_factor_coef Fsqd
_refine_ls_matrix_type           full
_refine_ls_weighting_scheme      calc
_refine_ls_weighting_details     
'calc w=1/[\s^2^(Fo^2^)+(0.1078P)^2^+0.5902P] where P=(Fo^2^+2Fc^2^)/3'
_atom_sites_solution_primary     direct
_atom_sites_solution_secondary   difmap
_atom_sites_solution_hydrogens   geom
_refine_ls_hydrogen_treatment    constr
_refine_ls_extinction_method     none
_refine_ls_extinction_coef       ?
_refine_ls_number_reflns         5041
_refine_ls_number_parameters     312
_refine_ls_number_restraints     0
_refine_ls_R_factor_all          0.1040
_refine_ls_R_factor_gt           0.0696
_refine_ls_wR_factor_ref         0.2067
_refine_ls_wR_factor_gt          0.1892
_refine_ls_goodness_of_fit_ref   1.122
_refine_ls_restrained_S_all      1.122
_refine_ls_shift/su_max          0.000
_refine_ls_shift/su_mean         0.000

loop_
_atom_site_label
_atom_site_type_symbol
_atom_site_fract_x
_atom_site_fract_y
_atom_site_fract_z
_atom_site_U_iso_or_equiv
_atom_site_adp_type
_atom_site_occupancy
_atom_site_symmetry_multiplicity
_atom_site_calc_flag
_atom_site_refinement_flags
_atom_site_disorder_assembly
_atom_site_disorder_group
O2W O 0.972(14) 0.519(4) 0.612(10) 0.98(11) Uani 1 1 d . . .
H2WA H 0.9439 0.5157 0.6636 1.472 Uiso 1 1 d R . .
H2WB H 1.0550 0.5220 0.6418 1.472 Uiso 1 1 d R . .
O1W O 0.235(4) 0.533(4) 0.560(7) 0.65(8) Uani 1 1 d . . .
H1WA H 0.1674 0.5533 0.5315 0.973 Uiso 1 1 d R . .
H1WB H 0.2040 0.4575 0.5188 0.973 Uiso 1 1 d R . .
Cu1 Cu 1.0000 1.0000 0.5000 0.0373(4) Uani 1 2 d S . .
Cu2 Cu 1.0000 1.0000 0.0000 0.0450(5) Uani 1 2 d S . .
C1 C 0.7364(11) 1.0447(11) 0.4553(10) 0.047(3) Uani 1 1 d . . .
H1A H 0.7043 0.9930 0.4904 0.056 Uiso 1 1 calc R . .
C2 C 0.6744(12) 1.1138(11) 0.4107(11) 0.049(3) Uani 1 1 d . . .
C3 C 0.7579(13) 1.1772(12) 0.3699(13) 0.061(3) Uani 1 1 d . . .
H3B H 0.7444 1.2341 0.3357 0.073 Uiso 1 1 calc R . .
C4 C 0.8665(12) 0.7806(10) 0.2639(11) 0.051(3) Uani 1 1 d . . .
H4A H 0.9361 0.8189 0.2462 0.061 Uiso 1 1 calc R . .
C5 C 0.7605(13) 0.6661(11) 0.1951(10) 0.055(3) Uani 1 1 d . . .
C6 C 0.6867(14) 0.6462(12) 0.2547(11) 0.064(3) Uani 1 1 d . . .
H6A H 0.6070 0.5744 0.2304 0.077 Uiso 1 1 calc R . .
C7 C 1.1082(12) 0.8409(10) 0.1177(11) 0.048(3) Uani 1 1 d . . .
H7A H 1.1345 0.8896 0.1963 0.058 Uiso 1 1 calc R . .
C8 C 1.1297(12) 0.7393(10) 0.0910(11) 0.051(3) Uani 1 1 d . . .
C9 C 1.0791(13) 0.6986(11) -0.0314(12) 0.060(3) Uani 1 1 d . . .
H9A H 1.0805 0.6316 -0.0773 0.072 Uiso 1 1 calc R . .
C10 C 0.7600(12) 0.9374(11) 0.0667(11) 0.057(3) Uani 1 1 d . . .
H10A H 0.8150 0.9988 0.1457 0.069 Uiso 1 1 calc R . .
C11 C 0.6178(11) 0.8594(11) 0.0131(10) 0.049(3) Uani 1 1 d . . .
C12 C 0.5800(12) 0.7836(13) -0.0968(11) 0.070(4) Uani 1 1 d . . .
H12A H 0.4907 0.7171 -0.1546 0.084 Uiso 1 1 calc R . .
O5 O 0.581(3) 0.597(2) 0.665(2) 0.240(13) Uani 1 1 d . . .
H5 H 0.4946 0.5747 0.6376 0.361 Uiso 1 1 calc R . .
N1 N 0.8484(9) 1.0606(8) 0.4422(8) 0.042(2) Uani 1 1 d . . .
N2 N 0.8599(9) 1.1423(9) 0.3884(9) 0.050(2) Uani 1 1 d . . .
H2B H 0.9244 1.1677 0.3691 0.060 Uiso 1 1 calc R . .
N3 N 0.8591(9) 0.8327(7) 0.3617(8) 0.041(2) Uani 1 1 d . . .
N4 N 0.7503(10) 0.7501(8) 0.3564(9) 0.055(2) Uani 1 1 d . . .
H4B H 0.7229 0.7597 0.4091 0.066 Uiso 1 1 calc R . .
N5 N 1.0441(9) 0.8597(8) 0.0152(8) 0.044(2) Uani 1 1 d . . .
N6 N 1.0263(10) 0.7718(8) -0.0755(9) 0.052(2) Uani 1 1 d . . .
H6B H 0.9865 0.7629 -0.1519 0.062 Uiso 1 1 calc R . .
N7 N 0.8109(10) 0.9155(8) -0.0070(8) 0.046(2) Uani 1 1 d . . .
N8 N 0.6978(12) 0.8235(11) -0.1065(10) 0.077(3) Uani 1 1 d . . .
H8A H 0.6988 0.7917 -0.1717 0.092 Uiso 1 1 calc R . .
O1 O 1.0715(8) 1.0533(7) 0.3610(7) 0.0497(18) Uani 1 1 d . . .
O2 O 1.0608(8) 1.2267(7) 0.3160(7) 0.0517(19) Uani 1 1 d . . .
O3 O 1.2889(7) 1.2312(7) 0.4404(7) 0.057(2) Uani 1 1 d . . .
O4 O 1.1452(7) 1.1088(7) 0.2211(6) 0.0467(18) Uani 1 1 d . . .
C13 C 0.610(4) 0.486(5) 0.649(4) 0.32(3) Uani 1 1 d . . .
H13A H 0.6406 0.4726 0.7245 0.475 Uiso 1 1 calc R . .
H13B H 0.6851 0.5004 0.6294 0.475 Uiso 1 1 calc R . .
H13C H 0.5238 0.4159 0.5830 0.475 Uiso 1 1 calc R . .
S S 1.1427(3) 1.1544(2) 0.3349(2) 0.0379(6) Uani 1 1 d . . .
I1 I 0.49759(9) 1.13196(10) 0.40446(10) 0.0759(4) Uani 1 1 d . . .
I2 I 0.72447(13) 0.54481(10) 0.03732(10) 0.0964(4) Uani 1 1 d . . .
I3 I 1.22723(13) 0.66966(10) 0.21352(10) 0.0920(4) Uani 1 1 d . . .
I4 I 0.48821(11) 0.85485(10) 0.08736(11) 0.0942(4) Uani 1 1 d . . .

loop_
_atom_site_aniso_label
_atom_site_aniso_U_11
_atom_site_aniso_U_22
_atom_site_aniso_U_33
_atom_site_aniso_U_23
_atom_site_aniso_U_13
_atom_site_aniso_U_12
O2W 2.0(3) 0.18(4) 1.2(2) 0.21(8) 1.3(2) 0.30(10)
O1W 0.29(4) 0.42(6) 1.4(2) 0.66(10) 0.36(8) 0.25(5)
Cu1 0.0392(9) 0.0386(10) 0.0384(10) 0.0109(8) 0.0212(8) 0.0235(8)
Cu2 0.0501(10) 0.0586(12) 0.0609(12) 0.0355(10) 0.0413(10) 0.0381(9)
C1 0.036(5) 0.072(8) 0.050(7) 0.034(6) 0.028(5) 0.028(6)
C2 0.058(7) 0.072(8) 0.054(7) 0.034(6) 0.042(6) 0.046(6)
C3 0.060(7) 0.088(9) 0.085(9) 0.056(8) 0.054(7) 0.055(7)
C4 0.058(7) 0.050(7) 0.051(7) 0.018(6) 0.034(6) 0.025(6)
C5 0.065(7) 0.057(8) 0.038(6) 0.008(6) 0.027(6) 0.029(6)
C6 0.057(7) 0.058(8) 0.042(7) -0.003(6) 0.020(6) 0.009(6)
C7 0.060(7) 0.059(7) 0.048(7) 0.030(6) 0.034(6) 0.037(6)
C8 0.056(7) 0.057(8) 0.049(7) 0.024(6) 0.026(6) 0.034(6)
C9 0.075(8) 0.061(8) 0.065(9) 0.034(7) 0.037(7) 0.047(7)
C10 0.052(7) 0.058(8) 0.052(7) 0.005(6) 0.031(6) 0.018(6)
C11 0.047(6) 0.064(8) 0.043(6) 0.021(6) 0.028(6) 0.026(6)
C12 0.038(6) 0.090(10) 0.043(7) -0.010(7) 0.019(6) 0.010(6)
O5 0.174(19) 0.27(3) 0.152(19) -0.040(17) 0.097(17) 0.020(18)
N1 0.048(5) 0.057(6) 0.049(5) 0.032(5) 0.034(4) 0.035(4)
N2 0.049(5) 0.068(6) 0.062(6) 0.036(5) 0.040(5) 0.037(5)
N3 0.051(5) 0.037(5) 0.041(5) 0.009(4) 0.030(4) 0.023(4)
N4 0.052(5) 0.050(6) 0.048(6) 0.002(5) 0.031(5) 0.010(5)
N5 0.052(5) 0.051(6) 0.042(5) 0.019(4) 0.028(4) 0.032(5)
N6 0.062(6) 0.061(6) 0.043(5) 0.023(5) 0.026(5) 0.040(5)
N7 0.053(5) 0.050(6) 0.044(5) 0.016(5) 0.031(5) 0.028(5)
N8 0.065(7) 0.101(9) 0.053(7) 0.006(7) 0.035(6) 0.033(7)
O1 0.066(5) 0.053(5) 0.050(5) 0.029(4) 0.040(4) 0.030(4)
O2 0.069(5) 0.061(5) 0.055(5) 0.028(4) 0.047(4) 0.040(4)
O3 0.044(4) 0.077(6) 0.044(4) 0.015(4) 0.028(4) 0.019(4)
O4 0.057(4) 0.063(5) 0.039(4) 0.020(4) 0.035(4) 0.034(4)
C13 0.31(5) 0.63(10) 0.27(5) 0.32(7) 0.17(4) 0.38(7)
S 0.0428(14) 0.0487(16) 0.0345(14) 0.0177(12) 0.0255(12) 0.0257(12)
I1 0.0657(6) 0.1201(9) 0.1058(8) 0.0746(7) 0.0626(6) 0.0693(6)
I2 0.1068(8) 0.0842(8) 0.0634(6) -0.0125(5) 0.0385(6) 0.0371(6)
I3 0.1342(10) 0.0975(8) 0.0731(7) 0.0544(6) 0.0472(7) 0.0799(8)
I4 0.0759(7) 0.1054(9) 0.0992(8) 0.0144(7) 0.0704(6) 0.0195(6)

_geom_special_details            
;
All esds (except the esd in the dihedral angle between two l.s. planes)
are estimated using the full covariance matrix. The cell esds are taken
into account individually in the estimation of esds in distances, angles
and torsion angles; correlations between esds in cell parameters are only
used when they are defined by crystal symmetry. An approximate (isotropic)
treatment of cell esds is used for estimating esds involving l.s. planes.
;

loop_
_geom_bond_atom_site_label_1
_geom_bond_atom_site_label_2
_geom_bond_distance
_geom_bond_site_symmetry_2
_geom_bond_publ_flag
O2W H2WA 0.8500 . ?
O2W H2WB 0.8499 . ?
O1W H1WA 0.8500 . ?
O1W H1WB 0.8500 . ?
Cu1 N1 2.024(8) . ?
Cu1 N1 2.024(8) 2_776 ?
Cu1 N3 2.029(8) . ?
Cu1 N3 2.029(8) 2_776 ?
Cu1 O1 2.381(7) 2_776 ?
Cu1 O1 2.381(7) . ?
Cu2 N5 1.996(9) . ?
Cu2 N5 1.996(9) 2_775 ?
Cu2 N7 2.031(9) . ?
Cu2 N7 2.031(9) 2_775 ?
Cu2 O4 2.405(7) 2_775 ?
Cu2 O4 2.405(7) . ?
C1 N1 1.313(12) . ?
C1 C2 1.352(15) . ?
C1 H1A 0.9300 . ?
C2 C3 1.386(15) . ?
C2 I1 2.067(10) . ?
C3 N2 1.315(14) . ?
C3 H3B 0.9300 . ?
C4 C5 1.341(16) . ?
C4 N3 1.344(14) . ?
C4 H4A 0.9300 . ?
C5 C6 1.355(18) . ?
C5 I2 2.063(11) . ?
C6 N4 1.361(15) . ?
C6 H6A 0.9300 . ?
C7 N5 1.329(13) . ?
C7 C8 1.372(16) . ?
C7 H7A 0.9300 . ?
C8 C9 1.345(17) . ?
C8 I3 2.049(11) . ?
C9 N6 1.341(14) . ?
C9 H9A 0.9300 . ?
C10 N7 1.328(14) . ?
C10 C11 1.360(15) . ?
C10 H10A 0.9300 . ?
C11 C12 1.332(17) . ?
C11 I4 2.058(11) . ?
C12 N8 1.344(16) . ?
C12 H12A 0.9300 . ?
O5 C13 1.52(4) . ?
O5 H5 0.8200 . ?
N1 N2 1.350(11) . ?
N2 H2B 0.8600 . ?
N3 N4 1.304(12) . ?
N4 H4B 0.8600 . ?
N5 N6 1.323(12) . ?
N6 H6B 0.8600 . ?
N7 N8 1.310(13) . ?
N8 H8A 0.8600 . ?
O1 S 1.458(7) . ?
O2 S 1.476(8) . ?
O3 S 1.456(8) . ?
O4 S 1.475(7) . ?
C13 H13A 0.9600 . ?
C13 H13B 0.9600 . ?
C13 H13C 0.9600 . ?

loop_
_geom_angle_atom_site_label_1
_geom_angle_atom_site_label_2
_geom_angle_atom_site_label_3
_geom_angle
_geom_angle_site_symmetry_1
_geom_angle_site_symmetry_3
_geom_angle_publ_flag
H2WA O2W H2WB 109.5 . . ?
H1WA O1W H1WB 109.5 . . ?
N1 Cu1 N1 179.999(4) . 2_776 ?
N1 Cu1 N3 90.9(4) . . ?
N1 Cu1 N3 89.1(4) 2_776 . ?
N1 Cu1 N3 89.1(4) . 2_776 ?
N1 Cu1 N3 90.9(4) 2_776 2_776 ?
N3 Cu1 N3 180.0(6) . 2_776 ?
N1 Cu1 O1 89.4(3) . 2_776 ?
N1 Cu1 O1 90.6(3) 2_776 2_776 ?
N3 Cu1 O1 92.9(3) . 2_776 ?
N3 Cu1 O1 87.1(3) 2_776 2_776 ?
N1 Cu1 O1 90.6(3) . . ?
N1 Cu1 O1 89.4(3) 2_776 . ?
N3 Cu1 O1 87.1(3) . . ?
N3 Cu1 O1 92.9(3) 2_776 . ?
O1 Cu1 O1 179.999(2) 2_776 . ?
N5 Cu2 N5 179.999(3) . 2_775 ?
N5 Cu2 N7 90.9(4) . . ?
N5 Cu2 N7 89.1(4) 2_775 . ?
N5 Cu2 N7 89.1(4) . 2_775 ?
N5 Cu2 N7 90.9(4) 2_775 2_775 ?
N7 Cu2 N7 180.000(2) . 2_775 ?
N5 Cu2 O4 89.2(3) . 2_775 ?
N5 Cu2 O4 90.8(3) 2_775 2_775 ?
N7 Cu2 O4 83.7(3) . 2_775 ?
N7 Cu2 O4 96.3(3) 2_775 2_775 ?
N5 Cu2 O4 90.8(3) . . ?
N5 Cu2 O4 89.2(3) 2_775 . ?
N7 Cu2 O4 96.3(3) . . ?
N7 Cu2 O4 83.7(3) 2_775 . ?
O4 Cu2 O4 179.999(2) 2_775 . ?
N1 C1 C2 110.6(9) . . ?
N1 C1 H1A 124.7 . . ?
C2 C1 H1A 124.7 . . ?
C1 C2 C3 105.3(9) . . ?
C1 C2 I1 130.1(8) . . ?
C3 C2 I1 124.6(8) . . ?
N2 C3 C2 107.4(10) . . ?
N2 C3 H3B 126.3 . . ?
C2 C3 H3B 126.3 . . ?
C5 C4 N3 111.2(10) . . ?
C5 C4 H4A 124.4 . . ?
N3 C4 H4A 124.4 . . ?
C4 C5 C6 105.1(10) . . ?
C4 C5 I2 127.1(9) . . ?
C6 C5 I2 127.8(9) . . ?
C5 C6 N4 107.8(11) . . ?
C5 C6 H6A 126.1 . . ?
N4 C6 H6A 126.1 . . ?
N5 C7 C8 110.2(11) . . ?
N5 C7 H7A 124.9 . . ?
C8 C7 H7A 124.9 . . ?
C9 C8 C7 105.4(10) . . ?
C9 C8 I3 127.4(9) . . ?
C7 C8 I3 127.1(9) . . ?
N6 C9 C8 107.8(11) . . ?
N6 C9 H9A 126.1 . . ?
C8 C9 H9A 126.1 . . ?
N7 C10 C11 112.0(11) . . ?
N7 C10 H10A 124.0 . . ?
C11 C10 H10A 124.0 . . ?
C12 C11 C10 105.8(11) . . ?
C12 C11 I4 126.7(9) . . ?
C10 C11 I4 127.5(9) . . ?
C11 C12 N8 105.5(11) . . ?
C11 C12 H12A 127.2 . . ?
N8 C12 H12A 127.2 . . ?
C13 O5 H5 109.5 . . ?
C1 N1 N2 106.7(8) . . ?
C1 N1 Cu1 132.4(7) . . ?
N2 N1 Cu1 120.7(6) . . ?
C3 N2 N1 110.0(9) . . ?
C3 N2 H2B 125.0 . . ?
N1 N2 H2B 125.0 . . ?
N4 N3 C4 106.3(9) . . ?
N4 N3 Cu1 126.3(7) . . ?
C4 N3 Cu1 127.1(7) . . ?
N3 N4 C6 109.7(10) . . ?
N3 N4 H4B 125.2 . . ?
C6 N4 H4B 125.2 . . ?
N6 N5 C7 106.1(8) . . ?
N6 N5 Cu2 125.8(7) . . ?
C7 N5 Cu2 127.8(8) . . ?
N5 N6 C9 110.4(9) . . ?
N5 N6 H6B 124.8 . . ?
C9 N6 H6B 124.8 . . ?
N8 N7 C10 102.9(9) . . ?
N8 N7 Cu2 121.9(7) . . ?
C10 N7 Cu2 134.8(8) . . ?
N7 N8 C12 113.6(10) . . ?
N7 N8 H8A 123.2 . . ?
C12 N8 H8A 123.2 . . ?
S O1 Cu1 144.7(5) . . ?
S O4 Cu2 145.0(4) . . ?
O5 C13 H13A 109.5 . . ?
O5 C13 H13B 109.5 . . ?
H13A C13 H13B 109.5 . . ?
O5 C13 H13C 109.5 . . ?
H13A C13 H13C 109.5 . . ?
H13B C13 H13C 109.5 . . ?
O3 S O1 108.9(5) . . ?
O3 S O4 110.7(4) . . ?
O1 S O4 110.8(4) . . ?
O3 S O2 109.5(5) . . ?
O1 S O2 108.7(5) . . ?
O4 S O2 108.3(4) . . ?

_diffrn_measured_fraction_theta_max 0.979
_diffrn_reflns_theta_full        25.00
_diffrn_measured_fraction_theta_full 0.979
_refine_diff_density_max         2.055
_refine_diff_density_min         -2.303
_refine_diff_density_rms         0.187



