####################################################################### 
# 
# This file contains crystal structure data downloaded from the 
# Cambridge Structural Database (CSD) hosted by the Cambridge 
# Crystallographic Data Centre (CCDC).
# 
# Full information about CCDC data access policies and citation 
# guidelines are available at http://www.ccdc.cam.ac.uk/access/V1 
# 
# Audit and citation data items may have been added by the CCDC. 
# Please retain this information to preserve the provenance of 
# this file and to allow appropriate attribution of the data. 
# 
#######################################################################

data_q189
_audit_block_doi                 10.5517/cc11nz5v
_database_code_depnum_ccdc_archive 'CCDC 973467'
loop_
_citation_id
_citation_doi
_citation_year
1 10.1039/C3DT53485E 2014
_audit_update_record             
;
2014-01-23 deposited with the CCDC.	2024-07-12 downloaded from the CCDC.
;

_audit_creation_method           SHELXL-97
_chemical_name_systematic        
; 
 ? 
;
_chemical_name_common            ?
_chemical_melting_point          ?
_chemical_formula_moiety         ?
_chemical_formula_sum            'C111 H87 Mn6 Mo3 N51 O6'
_chemical_formula_weight         2848.78

loop_
_atom_type_symbol
_atom_type_description
_atom_type_scat_dispersion_real
_atom_type_scat_dispersion_imag
_atom_type_scat_source
C C 0.0033 0.0016 'International Tables Vol C Tables 4.2.6.8 and 6.1.1.4'
H H 0.0000 0.0000 'International Tables Vol C Tables 4.2.6.8 and 6.1.1.4'
Mn Mn 0.3368 0.7283 'International Tables Vol C Tables 4.2.6.8 and 6.1.1.4'
Mo Mo -1.6832 0.6857 'International Tables Vol C Tables 4.2.6.8 and 6.1.1.4'
N N 0.0061 0.0033 'International Tables Vol C Tables 4.2.6.8 and 6.1.1.4'
O O 0.0106 0.0060 'International Tables Vol C Tables 4.2.6.8 and 6.1.1.4'

_symmetry_cell_setting           Monoclinic
_symmetry_space_group_name_H-M   P21/c

loop_
_symmetry_equiv_pos_as_xyz
'x, y, z'
'-x, y+1/2, -z+1/2'
'-x, -y, -z'
'x, -y-1/2, z-1/2'

_cell_length_a                   20.831(4)
_cell_length_b                   21.372(4)
_cell_length_c                   45.279(12)
_cell_angle_alpha                90.00
_cell_angle_beta                 117.11(2)
_cell_angle_gamma                90.00
_cell_volume                     17943(7)
_cell_formula_units_Z            4
_cell_measurement_temperature    100(2)
_cell_measurement_reflns_used    25442
_cell_measurement_theta_min      1.79
_cell_measurement_theta_max      23.01

_exptl_crystal_description       block
_exptl_crystal_colour            black
_exptl_crystal_size_max          0.32
_exptl_crystal_size_mid          0.26
_exptl_crystal_size_min          0.22
_exptl_crystal_density_meas      none
_exptl_crystal_density_diffrn    1.055
_exptl_crystal_density_method    'not measured'
_exptl_crystal_F_000             5734
_exptl_absorpt_coefficient_mu    0.661
_exptl_absorpt_correction_type   multi-scan
_exptl_absorpt_correction_T_min  0.8164
_exptl_absorpt_correction_T_max  0.8682
_exptl_absorpt_process_details   SADABS

_exptl_special_details           
; 
 ? 
;

_diffrn_ambient_temperature      100(2)
_diffrn_radiation_wavelength     0.71070
_diffrn_radiation_type           MoK\a
_diffrn_radiation_source         'fine-focus sealed tube'
_diffrn_radiation_monochromator  graphite
_diffrn_measurement_device_type  'Bruker P4'
_diffrn_measurement_method       '\w scans'
_diffrn_detector_area_resol_mean ?
_diffrn_standards_number         ?
_diffrn_standards_interval_count ?
_diffrn_standards_interval_time  ?
_diffrn_standards_decay_%        ?
_diffrn_reflns_number            138965
_diffrn_reflns_av_R_equivalents  0.0435
_diffrn_reflns_av_sigmaI/netI    0.0291
_diffrn_reflns_limit_h_min       -22
_diffrn_reflns_limit_h_max       22
_diffrn_reflns_limit_k_min       -23
_diffrn_reflns_limit_k_max       23
_diffrn_reflns_limit_l_min       -49
_diffrn_reflns_limit_l_max       49
_diffrn_reflns_theta_min         1.79
_diffrn_reflns_theta_max         23.01
_reflns_number_total             24757
_reflns_number_gt                21285
_reflns_threshold_expression     >2sigma(I)

_computing_data_collection       'Bruker XSCANS'
_computing_cell_refinement       'Bruker XSCANS'
_computing_data_reduction        'Bruker SHELXTL'
_computing_structure_solution    'SHELXS-97 (Sheldrick, 1990)'
_computing_structure_refinement  'SHELXL-97 (Sheldrick, 1997)'
_computing_molecular_graphics    'Bruker SHELXTL'
_computing_publication_material  'Bruker SHELXTL'

_refine_special_details          
; 
 Refinement of F^2^ against ALL reflections.  The weighted R-factor wR and 
 goodness of fit S are based on F^2^, conventional R-factors R are based 
 on F, with F set to zero for negative F^2^. The threshold expression of 
 F^2^ > 2sigma(F^2^) is used only for calculating R-factors(gt) etc. and is 
 not relevant to the choice of reflections for refinement.  R-factors based 
 on F^2^ are statistically about twice as large as those based on F, and R- 
 factors based on ALL data will be even larger. 
;

_refine_ls_structure_factor_coef Fsqd
_refine_ls_matrix_type           full
_refine_ls_weighting_scheme      calc
_refine_ls_weighting_details     
'calc w=1/[\s^2^(Fo^2^)+(0.1104P)^2^+198.2787P] where P=(Fo^2^+2Fc^2^)/3'
_atom_sites_solution_primary     direct
_atom_sites_solution_secondary   difmap
_atom_sites_solution_hydrogens   geom
_refine_ls_hydrogen_treatment    constr
_refine_ls_extinction_method     none
_refine_ls_extinction_coef       ?
_refine_ls_number_reflns         24757
_refine_ls_number_parameters     1593
_refine_ls_number_restraints     365
_refine_ls_R_factor_all          0.1137
_refine_ls_R_factor_gt           0.1051
_refine_ls_wR_factor_ref         0.2619
_refine_ls_wR_factor_gt          0.2561
_refine_ls_goodness_of_fit_ref   1.030
_refine_ls_restrained_S_all      1.030
_refine_ls_shift/su_max          0.004
_refine_ls_shift/su_mean         0.000

loop_
_atom_site_label
_atom_site_type_symbol
_atom_site_fract_x
_atom_site_fract_y
_atom_site_fract_z
_atom_site_U_iso_or_equiv
_atom_site_adp_type
_atom_site_occupancy
_atom_site_symmetry_multiplicity
_atom_site_calc_flag
_atom_site_refinement_flags
_atom_site_disorder_assembly
_atom_site_disorder_group
C1 C 0.9068(5) 0.8180(5) 0.0882(2) 0.046(2) Uani 1 1 d . . .
C2 C 0.8601(5) 0.7111(5) 0.0433(3) 0.056(3) Uani 1 1 d . . .
C3 C 0.7418(6) 0.7579(5) 0.0389(3) 0.060(3) Uani 1 1 d . . .
C4 C 0.7768(5) 0.8048(5) 0.0951(3) 0.063(3) Uani 1 1 d . . .
C5 C 0.7823(5) 0.6574(5) 0.0859(2) 0.047(2) Uani 1 1 d . . .
C6 C 0.8778(6) 0.7370(5) 0.1372(3) 0.063(3) Uani 1 1 d . . .
C7 C 0.9368(7) 0.6840(5) 0.1041(3) 0.064(3) Uani 1 1 d . . .
C8 C 0.3567(5) 0.5231(4) 0.0896(2) 0.040(2) Uani 1 1 d . . .
C9 C 0.4551(5) 0.4355(5) 0.1519(2) 0.053(2) Uani 1 1 d . . .
C10 C 0.4956(5) 0.4526(4) 0.1077(2) 0.044(2) Uani 1 1 d . . .
C11 C 0.5053(5) 0.5701(4) 0.1022(2) 0.040(2) Uani 1 1 d . . .
C12 C 0.5676(4) 0.5264(4) 0.1735(2) 0.0342(18) Uani 1 1 d . . .
C13 C 0.4641(5) 0.6231(5) 0.1407(2) 0.047(2) Uani 1 1 d . . .
C14 C 0.4067(5) 0.5368(5) 0.1604(2) 0.052(2) Uani 1 1 d . . .
C15 C 0.2770(5) 0.9923(5) 0.1701(2) 0.047(2) Uani 1 1 d . . .
C16 C 0.3228(5) 0.8956(5) 0.1385(3) 0.060(3) Uani 1 1 d . . .
C17 C 0.2017(5) 0.9385(4) 0.1007(2) 0.041(2) Uani 1 1 d . . .
C18 C 0.2120(6) 1.0596(6) 0.1034(3) 0.059(3) Uani 1 1 d . . .
C19 C 0.3159(4) 0.9908(4) 0.0850(2) 0.0356(19) Uani 1 1 d . . .
C20 C 0.3410(5) 1.0849(5) 0.1453(2) 0.053(2) Uani 1 1 d . . .
C21 C 0.4139(5) 0.9846(4) 0.1562(2) 0.046(2) Uani 1 1 d . . .
C22 C 0.5254(6) 0.6721(6) -0.0180(3) 0.068(3) Uani 1 1 d . . .
H22A H 0.4784 0.6846 -0.0212 0.102 Uiso 1 1 calc R . .
H22B H 0.5208 0.6461 -0.0361 0.102 Uiso 1 1 calc R . .
H22C H 0.5532 0.7086 -0.0170 0.102 Uiso 1 1 calc R . .
C23 C 0.5631(5) 0.6359(5) 0.0142(2) 0.046(2) Uani 1 1 d . . .
C24 C 0.5736(7) 0.7279(5) 0.0459(3) 0.071(3) Uani 1 1 d . . .
H24 H 0.5614 0.7580 0.0294 0.085 Uiso 1 1 calc R . .
C25 C 0.5880(7) 0.7401(5) 0.0820(3) 0.071(3) Uani 1 1 d . . .
H25 H 0.5592 0.7656 0.0877 0.085 Uiso 1 1 calc R . .
C26 C 0.6630(8) 0.7117(5) 0.1392(3) 0.077(4) Uani 1 1 d . . .
H26 H 0.6419 0.7406 0.1474 0.092 Uiso 1 1 calc R . .
C27 C 0.7167(8) 0.6613(6) 0.1597(3) 0.085(4) Uani 1 1 d . . .
H27 H 0.7612 0.6683 0.1779 0.102 Uiso 1 1 calc R . .
C28 C 0.7361(6) 0.5488(5) 0.1594(2) 0.059(3) Uani 1 1 d . . .
H28 H 0.7825 0.5512 0.1768 0.071 Uiso 1 1 calc R . .
C29 C 0.7005(7) 0.4900(5) 0.1403(3) 0.067(3) Uani 1 1 d . . .
H29 H 0.6981 0.4520 0.1498 0.080 Uiso 1 1 calc R . .
C30 C 0.6590(5) 0.4597(6) 0.0834(3) 0.059(3) Uani 1 1 d . . .
C31 C 0.6721(6) 0.3915(5) 0.0895(3) 0.069(3) Uani 1 1 d . . .
H31C H 0.7063 0.3780 0.0820 0.103 Uiso 1 1 calc R . .
H31A H 0.6276 0.3692 0.0775 0.103 Uiso 1 1 calc R . .
H31B H 0.6909 0.3832 0.1128 0.103 Uiso 1 1 calc R . .
C32 C 0.6259(5) 0.4811(4) 0.0484(2) 0.046(2) Uani 1 1 d . . .
C33 C 0.6106(6) 0.4449(6) 0.0203(3) 0.064(3) Uani 1 1 d . . .
H33 H 0.6236 0.4029 0.0228 0.077 Uiso 1 1 calc R . .
C34 C 0.5774(6) 0.4697(6) -0.0102(2) 0.062(3) Uani 1 1 d . . .
H34 H 0.5655 0.4447 -0.0288 0.075 Uiso 1 1 calc R . .
C35 C 0.5610(5) 0.5324(6) -0.0139(3) 0.063(3) Uani 1 1 d . . .
H35 H 0.5388 0.5508 -0.0348 0.076 Uiso 1 1 calc R . .
C36 C 0.5786(5) 0.5675(5) 0.0147(2) 0.056(3) Uani 1 1 d . . .
C37 C 0.0522(8) 0.5676(7) -0.0359(4) 0.117(6) Uani 1 1 d . . .
H37A H 0.0627 0.5533 -0.0533 0.175 Uiso 1 1 calc R . .
H37C H 0.0605 0.6118 -0.0329 0.175 Uiso 1 1 calc R . .
H37B H 0.0027 0.5588 -0.0416 0.175 Uiso 1 1 calc R . .
C38 C 0.0995(6) 0.5349(6) -0.0047(3) 0.077(4) Uani 1 1 d . . .
C39 C 0.1699(7) 0.4778(8) -0.0264(3) 0.095(5) Uani 1 1 d . . .
H39 H 0.1410 0.4830 -0.0490 0.114 Uiso 1 1 calc R . .
C40 C 0.2429(7) 0.4508(6) -0.0108(3) 0.073(3) Uani 1 1 d . . .
H40 H 0.2801 0.4629 -0.0156 0.088 Uiso 1 1 calc R . .
C41 C 0.3219(6) 0.3754(5) 0.0329(4) 0.083(4) Uani 1 1 d . . .
H41 H 0.3615 0.3804 0.0288 0.100 Uiso 1 1 calc R . .
C42 C 0.3204(6) 0.3401(5) 0.0597(4) 0.079(4) Uani 1 1 d . . .
H42 H 0.3281 0.2971 0.0623 0.095 Uiso 1 1 calc R . .
C43 C 0.2815(7) 0.3450(6) 0.1039(3) 0.084(4) Uani 1 1 d . . .
H43 H 0.2793 0.3019 0.1058 0.100 Uiso 1 1 calc R . .
C44 C 0.2610(7) 0.3931(7) 0.1225(3) 0.082(4) Uani 1 1 d . . .
H44 H 0.2783 0.3952 0.1454 0.098 Uiso 1 1 calc R . .
C45 C 0.1695(8) 0.4723(7) 0.1048(4) 0.083(4) Uani 1 1 d . . .
C46 C 0.1732(10) 0.4769(11) 0.1394(4) 0.137(7) Uani 1 1 d . . .
H46A H 0.1386 0.4489 0.1407 0.205 Uiso 1 1 calc R . .
H46C H 0.1626 0.5190 0.1432 0.205 Uiso 1 1 calc R . .
H46B H 0.2207 0.4657 0.1559 0.205 Uiso 1 1 calc R . .
C47 C 0.1205(6) 0.5140(6) 0.0779(4) 0.078(4) Uani 1 1 d . . .
C48 C 0.0719(7) 0.5524(7) 0.0817(4) 0.086(4) Uani 1 1 d . . .
H48 H 0.0683 0.5543 0.1015 0.103 Uiso 1 1 calc R . .
C49 C 0.0282(8) 0.5883(8) 0.0539(5) 0.113(7) Uani 1 1 d D . .
H49 H -0.0061 0.6148 0.0549 0.136 Uiso 1 1 calc R . .
C50 C 0.0350(6) 0.5851(6) 0.0256(5) 0.118(7) Uani 1 1 d D . .
H50 H 0.0053 0.6092 0.0073 0.142 Uiso 1 1 calc R . .
C51 C 0.0871(5) 0.5453(6) 0.0240(4) 0.085(4) Uani 1 1 d . . .
C52 C 0.2345(8) 0.6222(7) 0.1224(5) 0.124(6) Uani 1 1 d . . .
H52C H 0.1939 0.6295 0.1265 0.186 Uiso 1 1 calc R . .
H52B H 0.2568 0.5832 0.1322 0.186 Uiso 1 1 calc R . .
H52A H 0.2185 0.6205 0.0989 0.186 Uiso 1 1 calc R . .
C53 C 0.2858(7) 0.6722(6) 0.1365(4) 0.083(3) Uani 1 1 d U . .
C54 C 0.2912(8) 0.7102(7) 0.0880(4) 0.100(4) Uani 1 1 d U . .
H54 H 0.2645 0.6782 0.0739 0.120 Uiso 1 1 calc R . .
C55 C 0.3181(9) 0.7667(8) 0.0765(4) 0.109(4) Uani 1 1 d U . .
H55 H 0.2895 0.7905 0.0579 0.130 Uiso 1 1 calc R . .
C56 C 0.4298(9) 0.8355(7) 0.0959(4) 0.097(4) Uani 1 1 d U . .
H56 H 0.4102 0.8643 0.0786 0.117 Uiso 1 1 calc R . .
C57 C 0.5033(8) 0.8422(6) 0.1248(3) 0.085(3) Uani 1 1 d U . .
H57 H 0.5455 0.8492 0.1230 0.102 Uiso 1 1 calc R . .
C58 C 0.5641(10) 0.8268(8) 0.1855(4) 0.115(4) Uani 1 1 d U . .
H58 H 0.6086 0.8247 0.1854 0.137 Uiso 1 1 calc R . .
C59 C 0.5556(8) 0.8209(7) 0.2150(4) 0.106(4) Uani 1 1 d DU . .
H59 H 0.5852 0.8383 0.2356 0.127 Uiso 1 1 calc R . .
C60 C 0.4843(9) 0.7610(7) 0.2322(4) 0.095(3) Uani 1 1 d U . .
C61 C 0.5238(10) 0.7726(8) 0.2661(4) 0.124(5) Uani 1 1 d U . .
H61C H 0.5691 0.7915 0.2705 0.185 Uiso 1 1 calc R . .
H61A H 0.5323 0.7340 0.2781 0.185 Uiso 1 1 calc R . .
H61B H 0.4971 0.8005 0.2731 0.185 Uiso 1 1 calc R . .
C62 C 0.4145(9) 0.7283(8) 0.2184(5) 0.104(4) Uani 1 1 d U . .
C63 C 0.3855(10) 0.7014(8) 0.2395(5) 0.118(4) Uani 1 1 d U . .
H63 H 0.4116 0.7051 0.2624 0.141 Uiso 1 1 calc R . .
C64 C 0.3223(10) 0.6718(9) 0.2264(5) 0.121(4) Uani 1 1 d U . .
H64 H 0.3016 0.6578 0.2396 0.146 Uiso 1 1 calc R . .
C65 C 0.2859(10) 0.6619(8) 0.1897(4) 0.114(4) Uani 1 1 d U . .
H65 H 0.2413 0.6420 0.1797 0.136 Uiso 1 1 calc R . .
C66 C 0.3167(9) 0.6813(8) 0.1710(4) 0.099(4) Uani 1 1 d U . .
C67 C 0.8620(10) 0.6162(6) 0.2536(4) 0.186(7) Uani 1 1 d GDU . .
H67 H 0.8731 0.6586 0.2552 0.223 Uiso 1 1 calc R . .
C68 C 0.9074(7) 0.5729(8) 0.2498(4) 0.177(6) Uani 1 1 d GDU . .
H68 H 0.9490 0.5863 0.2489 0.212 Uiso 1 1 calc R . .
C69 C 0.8908(6) 0.5095(7) 0.2473(3) 0.139(5) Uani 1 1 d GU . .
H69 H 0.9212 0.4805 0.2448 0.167 Uiso 1 1 calc R . .
C70 C 0.8287(7) 0.4894(6) 0.2487(3) 0.119(5) Uani 1 1 d GDU . .
N37 N 0.7833(5) 0.5328(8) 0.2525(2) 0.162(8) Uani 1 1 d G . .
C71 C 0.7999(9) 0.5961(7) 0.2549(3) 0.170(7) Uani 1 1 d GDU . .
C72 C 0.7402(14) 0.7089(10) 0.2519(6) 0.191(8) Uani 1 1 d DU . .
H72B H 0.7383 0.7229 0.2314 0.286 Uiso 1 1 calc R . .
H72C H 0.7817 0.7265 0.2702 0.286 Uiso 1 1 calc R . .
H72A H 0.6974 0.7220 0.2531 0.286 Uiso 1 1 calc R . .
C73 C 0.7453(11) 0.6380(10) 0.2536(6) 0.166(5) Uani 1 1 d DU . .
C74 C 0.8583(14) 0.4045(13) 0.2415(6) 0.175(7) Uani 1 1 d U . .
C75 C 0.7913(10) 0.4278(7) 0.2413(5) 0.119(5) Uani 1 1 d DU . .
C76 C 0.7100(12) 0.3674(13) 0.2428(6) 0.160(6) Uani 1 1 d DU . .
H76 H 0.7266 0.3311 0.2372 0.192 Uiso 1 1 calc R . .
C77 C 0.6524(12) 0.3712(12) 0.2541(6) 0.162(5) Uani 1 1 d DU . .
H77 H 0.6519 0.3431 0.2697 0.194 Uiso 1 1 calc R . .
C78 C 0.6280(10) 0.6287(11) 0.2607(5) 0.148(5) Uani 1 1 d DU . .
H78 H 0.6367 0.6582 0.2773 0.178 Uiso 1 1 calc R . .
C79 C 0.5542(10) 0.6014(10) 0.2448(5) 0.135(5) Uani 1 1 d DU . .
H79 H 0.5077 0.6133 0.2297 0.162 Uiso 1 1 calc R . .
C80 C 0.5350(11) 0.5019(8) 0.2502(5) 0.130(5) Uani 1 1 d DU . .
H80 H 0.4872 0.5137 0.2373 0.156 Uiso 1 1 calc R . .
C81 C 0.5582(10) 0.4346(8) 0.2573(5) 0.127(4) Uani 1 1 d DU . .
H81 H 0.5448 0.4086 0.2700 0.153 Uiso 1 1 calc R . .
C82 C 1.0019(7) 1.0990(7) 0.0875(4) 0.094(4) Uani 1 1 d . . .
H82A H 0.9556 1.1108 0.0855 0.140 Uiso 1 1 calc R . .
H82C H 1.0105 1.1207 0.0711 0.140 Uiso 1 1 calc R . .
H82B H 1.0387 1.1097 0.1092 0.140 Uiso 1 1 calc R . .
C83 C 1.0033(6) 1.0288(7) 0.0822(4) 0.079(4) Uani 1 1 d . . .
C84 C 1.0700(7) 1.0071(7) 0.1388(3) 0.086(4) Uani 1 1 d . . .
H84 H 1.0831 1.0475 0.1469 0.103 Uiso 1 1 calc R . .
C85 C 1.0842(7) 0.9509(6) 0.1597(3) 0.077(3) Uani 1 1 d . . .
H85 H 1.0737 0.9456 0.1774 0.092 Uiso 1 1 calc R . .
C86 C 1.1331(8) 0.8474(9) 0.1659(3) 0.105(5) Uani 1 1 d . . .
H86 H 1.1324 0.8409 0.1860 0.126 Uiso 1 1 calc R . .
C87 C 1.1510(7) 0.7993(7) 0.1465(3) 0.089(4) Uani 1 1 d . . .
H87 H 1.1941 0.7773 0.1544 0.107 Uiso 1 1 calc R . .
C88 C 1.1031(7) 0.7575(5) 0.0881(4) 0.091(5) Uani 1 1 d . . .
H88 H 1.1454 0.7358 0.0930 0.109 Uiso 1 1 calc R . .
C89 C 1.0414(7) 0.7611(6) 0.0544(4) 0.096(5) Uani 1 1 d . . .
H89 H 1.0207 0.7273 0.0403 0.116 Uiso 1 1 calc R . .
C90 C 0.9766(6) 0.8492(8) 0.0175(3) 0.088(5) Uani 1 1 d . . .
C91 C 0.9510(8) 0.8106(8) -0.0138(3) 0.103(5) Uani 1 1 d . . .
H91B H 0.9603 0.7671 -0.0081 0.155 Uiso 1 1 calc R . .
H91C H 0.9762 0.8233 -0.0260 0.155 Uiso 1 1 calc R . .
H91A H 0.9001 0.8168 -0.0272 0.155 Uiso 1 1 calc R . .
C92 C 0.9593(6) 0.9174(7) 0.0172(3) 0.074(4) Uani 1 1 d . . .
C93 C 0.9166(7) 0.9516(6) -0.0154(3) 0.085(3) Uani 1 1 d DU . .
H93 H 0.9009 0.9348 -0.0365 0.102 Uiso 1 1 calc R . .
C94 C 0.9050(7) 1.0118(6) -0.0082(3) 0.079(3) Uani 1 1 d DU . .
H94 H 0.8759 1.0357 -0.0266 0.095 Uiso 1 1 calc R . .
C95 C 0.9278(6) 1.0410(7) 0.0200(3) 0.077(3) Uani 1 1 d . . .
H95 H 0.9170 1.0829 0.0211 0.092 Uiso 1 1 calc R . .
C96 C 0.9698(5) 1.0060(6) 0.0487(4) 0.078(4) Uani 1 1 d . . .
C97 C 0.5873(7) 1.0304(7) 0.1332(3) 0.083(4) Uani 1 1 d . . .
H97C H 0.5796 1.0590 0.1476 0.124 Uiso 1 1 calc R . .
H97B H 0.6321 1.0401 0.1330 0.124 Uiso 1 1 calc R . .
H97A H 0.5891 0.9884 0.1411 0.124 Uiso 1 1 calc R . .
C98 C 0.5275(5) 1.0359(5) 0.0991(3) 0.057(3) Uani 1 1 d . . .
C99 C 0.4730(7) 1.1222(5) 0.1142(3) 0.067(3) Uani 1 1 d . . .
H99 H 0.5029 1.1241 0.1369 0.080 Uiso 1 1 calc R . .
C100 C 0.4115(6) 1.1663(4) 0.0942(3) 0.054(2) Uani 1 1 d . . .
H10 H 0.4149 1.2097 0.0952 0.065 Uiso 1 1 calc R . .
C101 C 0.2878(6) 1.1715(4) 0.0517(3) 0.060(3) Uani 1 1 d . . .
H10A H 0.2839 1.2142 0.0545 0.072 Uiso 1 1 calc R . .
C102 C 0.2318(6) 1.1317(5) 0.0232(3) 0.062(3) Uani 1 1 d . . .
H10B H 0.1839 1.1258 0.0187 0.075 Uiso 1 1 calc R . .
C103 C 0.2240(6) 1.0550(5) -0.0185(3) 0.064(3) Uani 1 1 d . . .
H10C H 0.1772 1.0436 -0.0233 0.077 Uiso 1 1 calc R . .
C104 C 0.2681(7) 1.0257(5) -0.0333(3) 0.071(3) Uani 1 1 d . . .
H10D H 0.2524 1.0187 -0.0558 0.085 Uiso 1 1 calc R . .
C105 C 0.3793(7) 0.9677(5) -0.0107(3) 0.063(3) Uani 1 1 d . . .
C106 C 0.3634(9) 0.9297(5) -0.0399(3) 0.088(4) Uani 1 1 d . . .
H10E H 0.3431 0.8905 -0.0381 0.132 Uiso 1 1 calc R . .
H10F H 0.4071 0.9222 -0.0416 0.132 Uiso 1 1 calc R . .
H10G H 0.3296 0.9513 -0.0594 0.132 Uiso 1 1 calc R . .
C107 C 0.4495(6) 0.9583(4) 0.0188(3) 0.053(3) Uani 1 1 d . . .
C108 C 0.5033(8) 0.9161(5) 0.0212(4) 0.075(4) Uani 1 1 d . . .
H10H H 0.4958 0.8903 0.0034 0.090 Uiso 1 1 calc R . .
C109 C 0.5646(8) 0.9130