####################################################################### 
# 
# This file contains crystal structure data downloaded from the 
# Cambridge Structural Database (CSD) hosted by the Cambridge 
# Crystallographic Data Centre (CCDC).
# 
# Full information about CCDC data access policies and citation 
# guidelines are available at http://www.ccdc.cam.ac.uk/access/V1 
# 
# Audit and citation data items may have been added by the CCDC. 
# Please retain this information to preserve the provenance of 
# this file and to allow appropriate attribution of the data. 
# 
#######################################################################

data_CuCP
_audit_block_doi                 10.5517/cc10qpdt
_database_code_depnum_ccdc_archive 'CCDC 945326'
loop_
_citation_id
_citation_doi
_citation_year
1 10.1016/j.molstruc.2014.01.017 2014
_audit_update_record             
;
2013-06-17 deposited with the CCDC.	2024-07-12 downloaded from the CCDC.
;

_audit_creation_method           SHELXL-97
_chemical_name_systematic        
;
 ?
;
_chemical_name_common            ?
_chemical_melting_point          ?
_chemical_formula_moiety         ?
_chemical_formula_sum            'C40 H38 Cu2 N12 O12'
_chemical_formula_weight         1005.90

loop_
_atom_type_symbol
_atom_type_description
_atom_type_scat_dispersion_real
_atom_type_scat_dispersion_imag
_atom_type_scat_source
C C 0.0181 0.0091 'International Tables Vol C Tables 4.2.6.8 and 6.1.1.4'
H H 0.0000 0.0000 'International Tables Vol C Tables 4.2.6.8 and 6.1.1.4'
N N 0.0311 0.0180 'International Tables Vol C Tables 4.2.6.8 and 6.1.1.4'
O O 0.0492 0.0322 'International Tables Vol C Tables 4.2.6.8 and 6.1.1.4'
Cu Cu -1.9646 0.5888 'International Tables Vol C Tables 4.2.6.8 and 6.1.1.4'

_symmetry_cell_setting           Monoclinic
_symmetry_space_group_name_H-M   C2

loop_
_symmetry_equiv_pos_as_xyz
'x, y, z'
'-x, y, -z'
'x+1/2, y+1/2, z'
'-x+1/2, y+1/2, -z'

_cell_length_a                   16.8875(9)
_cell_length_b                   11.2461(4)
_cell_length_c                   12.3456(6)
_cell_angle_alpha                90.00
_cell_angle_beta                 117.616(7)
_cell_angle_gamma                90.00
_cell_volume                     2077.54(17)
_cell_formula_units_Z            2
_cell_measurement_temperature    153
_cell_measurement_reflns_used    2493
_cell_measurement_theta_min      4.04
_cell_measurement_theta_max      70.86

_exptl_crystal_description       block
_exptl_crystal_colour            blue
_exptl_crystal_size_max          0.13
_exptl_crystal_size_mid          0.11
_exptl_crystal_size_min          0.08
_exptl_crystal_density_meas      ?
_exptl_crystal_density_diffrn    1.608
_exptl_crystal_density_method    'not measured'
_exptl_crystal_F_000             1032
_exptl_absorpt_coefficient_mu    1.953
_exptl_absorpt_correction_type   None
_exptl_absorpt_correction_T_min  ?
_exptl_absorpt_correction_T_max  ?
_exptl_absorpt_process_details   ?

_exptl_special_details           
;
 ?
;

_diffrn_ambient_temperature      153
_diffrn_radiation_wavelength     1.54184
_diffrn_radiation_type           CuK\a
_diffrn_radiation_source         'Enhance (Cu) X-ray Source'
_diffrn_radiation_monochromator  graphite
_diffrn_measurement_device_type  
;
Goniometer Xcalibur, detector: Ruby
Oxford Diffraction (2007). Oxford Diffraction Ltd.,
Xcalibur CCD system
;
_diffrn_measurement_method       '\w scans'
_diffrn_detector_area_resol_mean ?
_diffrn_standards_number         ?
_diffrn_standards_interval_count ?
_diffrn_standards_interval_time  ?
_diffrn_standards_decay_%        ?
_diffrn_reflns_number            4013
_diffrn_reflns_av_R_equivalents  0.0283
_diffrn_reflns_av_sigmaI/netI    0.0425
_diffrn_reflns_limit_h_min       -20
_diffrn_reflns_limit_h_max       19
_diffrn_reflns_limit_k_min       -13
_diffrn_reflns_limit_k_max       7
_diffrn_reflns_limit_l_min       -14
_diffrn_reflns_limit_l_max       14
_diffrn_reflns_theta_min         4.04
_diffrn_reflns_theta_max         70.86
_reflns_number_total             2493
_reflns_number_gt                2384
_reflns_threshold_expression     >2sigma(I)

_computing_data_collection       
;
CrysAlisPro, Oxford Diffraction Ltd.,
Version 1.171.33.55
;
_computing_cell_refinement       
;
CrysAlisPro, Oxford Diffraction Ltd.,
Version 1.171.33.55
;
_computing_data_reduction        
;
CrysAlisPro, Oxford Diffraction Ltd.,
Version 1.171.33.55
;
_computing_structure_solution    'SHELXS-97 (Sheldrick, 1997)'
_computing_structure_refinement  'SHELXL-97 (Sheldrick, 1997)'
_computing_molecular_graphics    
;
Diamond 3.2i (Brandenburg,1999)
;
_computing_publication_material  'MERCURY (Macrae et al., 2006)'

_refine_special_details          
;
 Refinement of F^2^ against ALL reflections.  The weighted R-factor wR and
 goodness of fit S are based on F^2^, conventional R-factors R are based
 on F, with F set to zero for negative F^2^. The threshold expression of
 F^2^ > 2sigma(F^2^) is used only for calculating R-factors(gt) etc. and is
 not relevant to the choice of reflections for refinement.  R-factors based
 on F^2^ are statistically about twice as large as those based on F, and R-
 factors based on ALL data will be even larger.
;

_refine_ls_structure_factor_coef Fsqd
_refine_ls_matrix_type           full
_refine_ls_weighting_scheme      calc
_refine_ls_weighting_details     
'calc w=1/[\s^2^(Fo^2^)+(0.0527P)^2^+1.3027P] where P=(Fo^2^+2Fc^2^)/3'
_atom_sites_solution_primary     direct
_atom_sites_solution_secondary   difmap
_atom_sites_solution_hydrogens   geom
_refine_ls_hydrogen_treatment    constr
_refine_ls_extinction_method     none
_refine_ls_extinction_coef       ?
_refine_ls_number_reflns         2493
_refine_ls_number_parameters     319
_refine_ls_number_restraints     1
_refine_ls_R_factor_all          0.0382
_refine_ls_R_factor_gt           0.0363
_refine_ls_wR_factor_ref         0.0957
_refine_ls_wR_factor_gt          0.0934
_refine_ls_goodness_of_fit_ref   1.053
_refine_ls_restrained_S_all      1.053
_refine_ls_shift/su_max          0.000
_refine_ls_shift/su_mean         0.000

loop_
_atom_site_label
_atom_site_type_symbol
_atom_site_fract_x
_atom_site_fract_y
_atom_site_fract_z
_atom_site_U_iso_or_equiv
_atom_site_adp_type
_atom_site_occupancy
_atom_site_symmetry_multiplicity
_atom_site_calc_flag
_atom_site_refinement_flags
_atom_site_disorder_assembly
_atom_site_disorder_group
Cu1 Cu 0.5000 0.27250(6) 0.5000 0.0293(2) Uani 1 2 d S . .
Cu2 Cu 0.5000 0.74940(6) 0.0000 0.0333(2) Uani 1 2 d S . .
N1 N 0.5905(2) 0.6252(3) 0.1047(3) 0.0350(8) Uani 1 1 d . . .
N2 N 0.5885(2) 0.8763(3) 0.0970(3) 0.0323(7) Uani 1 1 d . . .
N3A N 0.3973(6) 0.7206(14) 0.1788(8) 0.060(3) Uani 0.50 1 d P A 1
N3B N 0.3832(5) 0.7947(6) 0.1699(7) 0.0290(18) Uani 0.50 1 d P A 2
N4 N 0.46201(18) 0.2692(3) 0.3189(3) 0.0310(7) Uani 1 1 d . . .
N5 N 0.5000 0.4559(4) 0.5000 0.0312(10) Uani 1 2 d S . .
N6 N 0.5000 0.0902(5) 0.5000 0.0315(10) Uani 1 2 d S . .
N7 N 0.28714(19) 0.2841(3) 0.4798(3) 0.0319(7) Uani 1 1 d . . .
O1 O 0.4474(2) 0.7515(4) 0.1536(3) 0.0541(9) Uani 1 1 d . . .
O2 O 0.3196(3) 0.7380(5) 0.1516(5) 0.0920(17) Uani 1 1 d . . .
O3 O 0.4190(6) 0.6056(7) 0.2165(8) 0.063(2) Uani 0.50 1 d P . .
O4 O 0.3896(4) 0.8916(6) 0.2017(6) 0.0465(16) Uani 0.50 1 d P . .
O5 O 0.34365(16) 0.2657(3) 0.4406(3) 0.0401(6) Uani 1 1 d . . .
O6 O 0.2853(2) 0.2205(4) 0.5589(3) 0.0571(9) Uani 1 1 d . . .
O7 O 0.2352(2) 0.3679(4) 0.4364(4) 0.0674(12) Uani 1 1 d . . .
C1 C 0.6208(3) 0.6212(4) 0.2271(4) 0.0400(10) Uani 1 1 d . . .
H1 H 0.5962 0.6734 0.2618 0.048 Uiso 1 1 calc R . .
C2 C 0.6858(3) 0.5441(5) 0.3024(4) 0.0462(11) Uani 1 1 d . . .
H2 H 0.7047 0.5436 0.3861 0.055 Uiso 1 1 calc R . .
C3 C 0.7230(3) 0.4668(4) 0.2507(5) 0.0462(11) Uani 1 1 d . . .
H3 H 0.7666 0.4123 0.2989 0.055 Uiso 1 1 calc R . .
C4 C 0.6939(3) 0.4725(4) 0.1264(5) 0.0460(11) Uani 1 1 d . . .
H4 H 0.7192 0.4236 0.0900 0.055 Uiso 1 1 calc R . .
C5 C 0.6271(3) 0.5515(4) 0.0565(4) 0.0411(10) Uani 1 1 d . . .
H5 H 0.6070 0.5532 -0.0275 0.049 Uiso 1 1 calc R . .
C6 C 0.6702(3) 0.8821(4) 0.1028(4) 0.0373(9) Uani 1 1 d . . .
H6 H 0.6876 0.8213 0.0673 0.045 Uiso 1 1 calc R . .
C7 C 0.7288(3) 0.9735(5) 0.1588(4) 0.0439(11) Uani 1 1 d . . .
H7 H 0.7841 0.9751 0.1596 0.053 Uiso 1 1 calc R . .
C8 C 0.7047(3) 1.0627(4) 0.2134(4) 0.0415(10) Uani 1 1 d . . .
H8 H 0.7432 1.1259 0.2514 0.050 Uiso 1 1 calc R . .
C9 C 0.6213(3) 1.0569(4) 0.2112(4) 0.0404(9) Uani 1 1 d . . .
H9 H 0.6037 1.1153 0.2489 0.048 Uiso 1 1 calc R . .
C10 C 0.5658(3) 0.9632(4) 0.1520(4) 0.0367(9) Uani 1 1 d . . .
H10 H 0.5101 0.9597 0.1501 0.044 Uiso 1 1 calc R . .
C11 C 0.3953(3) 0.1963(4) 0.2433(4) 0.0362(9) Uani 1 1 d . . .
H11 H 0.3640 0.1526 0.2749 0.043 Uiso 1 1 calc R . .
C12 C 0.3724(3) 0.1848(4) 0.1215(4) 0.0396(9) Uani 1 1 d . . .
H12 H 0.3266 0.1335 0.0722 0.048 Uiso 1 1 calc R . .
C13 C 0.4177(3) 0.2496(4) 0.0728(3) 0.0408(9) Uani 1 1 d . . .
H13 H 0.4030 0.2429 -0.0095 0.049 Uiso 1 1 calc R . .
C14 C 0.4851(3) 0.3243(4) 0.1487(4) 0.0403(10) Uani 1 1 d . . .
H14 H 0.5170 0.3688 0.1185 0.048 Uiso 1 1 calc R . .
C15 C 0.5050(3) 0.3328(4) 0.2705(3) 0.0331(8) Uani 1 1 d . . .
H15 H 0.5500 0.3846 0.3208 0.040 Uiso 1 1 calc R . .
C16 C 0.4239(3) 0.5189(4) 0.4672(4) 0.0363(9) Uani 1 1 d . . .
H16 H 0.3706 0.4776 0.4419 0.044 Uiso 1 1 calc R . .
C17 C 0.4218(3) 0.6419(4) 0.4694(4) 0.0371(9) Uani 1 1 d . . .
H17 H 0.3685 0.6811 0.4507 0.045 Uiso 1 1 calc R . .
C18 C 0.5000 0.7074(5) 0.5000 0.0325(12) Uani 1 2 d S . .
C19 C 0.5000 0.8397(6) 0.5000 0.0356(13) Uani 1 2 d S . .
C20 C 0.5585(3) 0.9049(4) 0.4701(4) 0.0402(10) Uani 1 1 d . . .
H20 H 0.5983 0.8656 0.4499 0.048 Uiso 1 1 calc R . .
C21 C 0.5561(3) 1.0269(4) 0.4712(4) 0.0367(9) Uani 1 1 d . . .
H21 H 0.5951 1.0685 0.4511 0.044 Uiso 1 1 calc R . .

loop_
_atom_site_aniso_label
_atom_site_aniso_U_11
_atom_site_aniso_U_22
_atom_site_aniso_U_33
_atom_site_aniso_U_23
_atom_site_aniso_U_13
_atom_site_aniso_U_12
Cu1 0.0309(4) 0.0346(5) 0.0245(4) 0.000 0.0147(3) 0.000
Cu2 0.0294(4) 0.0266(5) 0.0388(4) 0.000 0.0115(3) 0.000
N1 0.0296(18) 0.0268(17) 0.045(2) -0.0006(15) 0.0137(16) -0.0024(14)
N2 0.0325(17) 0.0291(17) 0.0344(16) 0.0008(15) 0.0147(13) -0.0017(14)
N3A 0.039(5) 0.116(11) 0.036(5) -0.012(6) 0.025(4) -0.024(6)
N3B 0.032(4) 0.014(3) 0.038(4) 0.004(3) 0.015(3) 0.007(3)
N4 0.0308(14) 0.0352(18) 0.0276(14) 0.0011(15) 0.0141(11) 0.0017(15)
N5 0.030(2) 0.038(3) 0.025(2) 0.000 0.013(2) 0.000
N6 0.032(2) 0.036(3) 0.029(2) 0.000 0.016(2) 0.000
N7 0.0289(14) 0.0345(18) 0.0317(15) 0.0003(15) 0.0136(12) -0.0008(14)
O1 0.0471(16) 0.068(2) 0.0573(18) -0.0129(19) 0.0330(15) 0.000(2)
O2 0.072(3) 0.068(3) 0.171(5) 0.041(3) 0.086(3) 0.014(3)
O3 0.082(6) 0.043(4) 0.072(5) 0.015(4) 0.042(5) 0.008(4)
O4 0.029(3) 0.047(4) 0.065(4) -0.022(3) 0.023(3) 0.000(3)
O5 0.0288(12) 0.0440(17) 0.0525(15) -0.0040(16) 0.0233(11) 0.0010(14)
O6 0.064(2) 0.063(2) 0.0490(19) 0.0194(17) 0.0305(17) -0.0006(18)
O7 0.061(2) 0.072(3) 0.084(3) 0.038(2) 0.047(2) 0.041(2)
C1 0.039(2) 0.037(2) 0.044(2) -0.0006(19) 0.0200(18) -0.0013(19)
C2 0.040(2) 0.049(3) 0.043(2) 0.006(2) 0.0127(19) -0.006(2)
C3 0.036(2) 0.034(2) 0.056(3) 0.006(2) 0.011(2) 0.0030(19)
C4 0.045(3) 0.036(2) 0.055(3) -0.004(2) 0.022(2) 0.006(2)
C5 0.043(2) 0.031(2) 0.042(2) -0.0003(19) 0.0134(19) 0.002(2)
C6 0.034(2) 0.042(2) 0.034(2) 0.0003(19) 0.0145(17) -0.0027(18)
C7 0.042(2) 0.055(3) 0.034(2) 0.002(2) 0.0164(18) -0.013(2)
C8 0.043(3) 0.039(2) 0.034(2) -0.0007(18) 0.0107(19) -0.015(2)
C9 0.046(2) 0.034(2) 0.036(2) -0.0024(18) 0.0136(18) -0.002(2)
C10 0.037(2) 0.031(2) 0.040(2) 0.0020(17) 0.0147(18) 0.0036(17)
C11 0.037(2) 0.038(2) 0.034(2) -0.0034(18) 0.0164(17) -0.0060(18)
C12 0.043(2) 0.038(2) 0.034(2) -0.0047(18) 0.0140(18) -0.0002(19)
C13 0.055(2) 0.039(2) 0.0274(17) -0.0004(18) 0.0186(16) 0.000(2)
C14 0.053(3) 0.043(2) 0.033(2) 0.0011(18) 0.0265(19) -0.001(2)
C15 0.038(2) 0.032(2) 0.0292(19) 0.0015(16) 0.0158(16) 0.0026(17)
C16 0.029(2) 0.039(2) 0.040(2) 0.0069(18) 0.0152(17) 0.0020(17)
C17 0.027(2) 0.040(2) 0.044(2) 0.0044(19) 0.0158(18) 0.0000(17)
C18 0.033(3) 0.035(3) 0.030(3) 0.000 0.015(2) 0.000
C19 0.033(3) 0.040(3) 0.032(3) 0.000 0.013(2) 0.000
C20 0.033(2) 0.038(2) 0.051(3) -0.0071(19) 0.0204(19) 0.0010(18)
C21 0.034(2) 0.039(2) 0.042(2) -0.0039(18) 0.0211(18) -0.0044(17)

_geom_special_details            
;
 All esds (except the esd in the dihedral angle between two l.s. planes)
 are estimated using the full covariance matrix.  The cell esds are taken
 into account individually in the estimation of esds in distances, angles
 and torsion angles; correlations between esds in cell parameters are only
 used when they are defined by crystal symmetry.  An approximate (isotropic)
 treatment of cell esds is used for estimating esds involving l.s. planes.
;

loop_
_geom_bond_atom_site_label_1
_geom_bond_atom_site_label_2
_geom_bond_distance
_geom_bond_site_symmetry_2
_geom_bond_publ_flag
Cu1 N4 2.021(3) 2_656 ?
Cu1 N4 2.021(3) . ?
Cu1 N6 2.050(5) . ?
Cu1 N5 2.062(5) . ?
Cu1 O5 2.392(2) 2_656 ?
Cu1 O5 2.392(2) . ?
Cu2 N2 2.011(3) . ?
Cu2 N2 2.011(3) 2_655 ?
Cu2 N1 2.031(4) 2_655 ?
Cu2 N1 2.031(4) . ?
Cu2 O1 2.438(3) 2_655 ?
Cu2 O1 2.438(3) . ?
N1 C5 1.329(6) . ?
N1 C1 1.353(6) . ?
N2 C10 1.344(5) . ?
N2 C6 1.350(5) . ?
N3A O1 1.085(9) . ?
N3A O2 1.210(11) . ?
N3A O3 1.366(18) . ?
N3B O4 1.145(10) . ?
N3B O2 1.177(9) . ?
N3B O1 1.287(8) . ?
N4 C15 1.341(5) . ?
N4 C11 1.355(5) . ?
N5 C16 1.355(5) 2_656 ?
N5 C16 1.355(5) . ?
N6 C21 1.358(5) 1_545 ?
N6 C21 1.358(5) 2_646 ?
N7 O6 1.222(4) . ?
N7 O7 1.229(5) . ?
N7 O5 1.271(4) . ?
C1 C2 1.370(7) . ?
C1 H1 0.9300 . ?
C2 C3 1.389(7) . ?
C2 H2 0.9300 . ?
C3 C4 1.379(7) . ?
C3 H3 0.9300 . ?
C4 C5 1.380(6) . ?
C4 H4 0.9300 . ?
C5 H5 0.9300 . ?
C6 C7 1.371(6) . ?
C6 H6 0.9300 . ?
C7 C8 1.372(7) . ?
C7 H7 0.9300 . ?
C8 C9 1.396(6) . ?
C8 H8 0.9300 . ?
C9 C10 1.375(6) . ?
C9 H9 0.9300 . ?
C10 H10 0.9300 . ?
C11 C12 1.373(6) . ?
C11 H11 0.9300 . ?
C12 C13 1.381(6) . ?
C12 H12 0.9300 . ?
C13 C14 1.375(6) . ?
C13 H13 0.9300 . ?
C14 C15 1.383(5) . ?
C14 H14 0.9300 . ?
C15 H15 0.9300 . ?
C16 C17 1.384(6) . ?
C16 H16 0.9300 . ?
C17 C18 1.402(5) . ?
C17 H17 0.9300 . ?
C18 C17 1.402(5) 2_656 ?
C18 C19 1.489(8) . ?
C19 C20 1.409(6) . ?
C19 C20 1.409(6) 2_656 ?
C20 C21 1.373(6) . ?
C20 H20 0.9300 . ?
C21 N6 1.358(5) 1_565 ?
C21 H21 0.9300 . ?

loop_
_geom_angle_atom_site_label_1
_geom_angle_atom_site_label_2
_geom_angle_atom_site_label_3
_geom_angle
_geom_angle_site_symmetry_1
_geom_angle_site_symmetry_3
_geom_angle_publ_flag
N4 Cu1 N4 177.9(2) 2_656 . ?
N4 Cu1 N6 88.94(11) 2_656 . ?
N4 Cu1 N6 88.94(11) . . ?
N4 Cu1 N5 91.06(11) 2_656 . ?
N4 Cu1 N5 91.06(11) . . ?
N6 Cu1 N5 180.000(1) . . ?
N4 Cu1 O5 85.48(10) 2_656 2_656 ?
N4 Cu1 O5 94.46(10) . 2_656 ?
N6 Cu1 O5 88.17(8) . 2_656 ?
N5 Cu1 O5 91.83(8) . 2_656 ?
N4 Cu1 O5 94.46(10) 2_656 . ?
N4 Cu1 O5 85.48(10) . . ?
N6 Cu1 O5 88.17(8) . . ?
N5 Cu1 O5 91.83(8) . . ?
O5 Cu1 O5 176.34(17) 2_656 . ?
N2 Cu2 N2 89.6(2) . 2_655 ?
N2 Cu2 N1 177.49(16) . 2_655 ?
N2 Cu2 N1 88.67(13) 2_655 2_655 ?
N2 Cu2 N1 88.67(13) . . ?
N2 Cu2 N1 177.49(16) 2_655 . ?
N1 Cu2 N1 93.1(2) 2_655 . ?
N2 Cu2 O1 91.02(13) . 2_655 ?
N2 Cu2 O1 88.19(13) 2_655 2_655 ?
N1 Cu2 O1 87.10(14) 2_655 2_655 ?
N1 Cu2 O1 93.68(14) . 2_655 ?
N2 Cu2 O1 88.19(13) . . ?
N2 Cu2 O1 91.02(13) 2_655 . ?
N1 Cu2 O1 93.68(14) 2_655 . ?
N1 Cu2 O1 87.10(14) . . ?
O1 Cu2 O1 178.9(2) 2_655 . ?
C5 N1 C1 117.8(4) . . ?
C5 N1 Cu2 120.9(3) . . ?
C1 N1 Cu2 121.1(3) . . ?
C10 N2 C6 117.6(4) . . ?
C10 N2 Cu2 120.6(3) . . ?
C6 N2 Cu2 121.7(3) . . ?
O1 N3A O2 139.3(14) . . ?
O1 N3A O3 106.3(11) . . ?
O2 N3A O3 109.4(9) . . ?
O4 N3B O2 121.0(8) . . ?
O4 N3B O1 117.4(7) . . ?
O2 N3B O1 121.7(7) . . ?
C15 N4 C11 117.7(3) . . ?
C15 N4 Cu1 121.5(3) . . ?
C11 N4 Cu1 120.6(3) . . ?
C16 N5 C16 116.9(5) 2_656 . ?
C16 N5 Cu1 121.6(3) 2_656 . ?
C16 N5 Cu1 121.6(3) . . ?
C21 N6 C21 116.7(5) 1_545 2_646 ?
C21 N6 Cu1 121.6(3) 1_545 . ?
C21 N6 Cu1 121.6(3) 2_646 . ?
O6 N7 O7 121.3(3) . . ?
O6 N7 O5 120.7(4) . . ?
O7 N7 O5 118.0(3) . . ?
N3A O1 N3B 41.4(8) . . ?
N3A O1 Cu2 146.4(6) . . ?
N3B O1 Cu2 139.7(4) . . ?
N3B O2 N3A 42.2(7) . . ?
N7 O5 Cu1 142.7(2) . . ?
N1 C1 C2 123.2(4) . . ?
N1 C1 H1 118.4 . . ?
C2 C1 H1 118.4 . . ?
C1 C2 C3 118.4(5) . . ?
C1 C2 H2 120.8 . . ?
C3 C2 H2 120.8 . . ?
C4 C3 C2 118.6(4) . . ?
C4 C3 H3 120.7 . . ?
C2 C3 H3 120.7 . . ?
C3 C4 C5 119.5(4) . . ?
C3 C4 H4 120.2 . . ?
C5 C4 H4 120.2 . . ?
N1 C5 C4 122.5(4) . . ?
N1 C5 H5 118.8 . . ?
C4 C5 H5 118.8 . . ?
N2 C6 C7 122.9(4) . . ?
N2 C6 H6 118.5 . . ?
C7 C6 H6 118.5 . . ?
C6 C7 C8 119.2(4) . . ?
C6 C7 H7 120.4 . . ?
C8 C7 H7 120.4 . . ?
C7 C8 C9 118.9(4) . . ?
C7 C8 H8 120.6 . . ?
C9 C8 H8 120.6 . . ?
C10 C9 C8 118.7(4) . . ?
C10 C9 H9 120.7 . . ?
C8 C9 H9 120.7 . . ?
N2 C10 C9 122.8(4) . . ?
N2 C10 H10 118.6 . . ?
C9 C10 H10 118.6 . . ?
N4 C11 C12 122.3(4) . . ?
N4 C11 H11 118.9 . . ?
C12 C11 H11 118.9 . . ?
C11 C12 C13 119.7(4) . . ?
C11 C12 H12 120.2 . . ?
C13 C12 H12 120.2 . . ?
C14 C13 C12 118.4(4) . . ?
C14 C13 H13 120.8 . . ?
C12 C13 H13 120.8 . . ?
C13 C14 C15 119.4(4) . . ?
C13 C14 H14 120.3 . . ?
C15 C14 H14 120.3 . . ?
N4 C15 C14 122.6(4) . . ?
N4 C15 H15 118.7 . . ?
C14 C15 H15 118.7 . . ?
N5 C16 C17 123.2(4) . . ?
N5 C16 H16 118.4 . . ?
C17 C16 H16 118.4 . . ?
C16 C17 C18 120.0(4) . . ?
C16 C17 H17 120.0 . . ?
C18 C17 H17 120.0 . . ?
C17 C18 C17 116.7(6) . 2_656 ?
C17 C18 C19 121.6(3) . . ?
C17 C18 C19 121.6(3) 2_656 . ?
C20 C19 C20 117.3(6) . 2_656 ?
C20 C19 C18 121.3(3) . . ?
C20 C19 C18 121.3(3) 2_656 . ?
C21 C20 C19 119.4(4) . . ?
C21 C20 H20 120.3 . . ?
C19 C20 H20 120.3 . . ?
N6 C21 C20 123.6(4) 1_565 . ?
N6 C21 H21 118.2 1_565 . ?
C20 C21 H21 118.2 . . ?

_diffrn_measured_fraction_theta_max 0.973
_diffrn_reflns_theta_full        67.70
_diffrn_measured_fraction_theta_full 0.997
_refine_diff_density_max         0.473
_refine_diff_density_min         -0.471
_refine_diff_density_rms         0.067
