
#######################################################################
#
#                 Cambridge Crystallographic Data Centre
#                                CCDC
#
#######################################################################
#
# If this CIF has been generated from an entry in the Cambridge
# Structural Database, then it will include bibliographic, chemical,
# crystal, experimental, refinement or atomic coordinate data resulting
# from the CCDC's data processing and validation procedures.
#
#######################################################################

data_CSD_CIF_QNGHSU03
_audit_creation_date 1999-10-26
_audit_creation_method CSD-ConQuest-V1
_database_code_CSD QNGHSU03
_database_code_depnum_ccdc_archive 'CCDC 691593'
_database_code_depnum_ccdc_journal 1003/5379
_chemical_formula_sum 'C15 H22 O5'
_chemical_formula_moiety
;
C15 H22 O5
;
_journal_coden_Cambridge 1003
_journal_volume 28
_journal_year 1998
_journal_page_first 539
_journal_name_full 'J.Chem.Cryst. '
loop_
_publ_author_name
"J.N.Lisgarten"
"B.S.Potter"
"C.Bantuzeko"
"R.A.Palmer"
_chemical_name_systematic
;
Octahydro-3,6,9-trimethyl-3,12-epoxy-12H-pyrano[4,3-j]-1,2-benzodioxepin-10(3H
)-one
;
_chemical_name_common
;
Quinghaosu; Artemisinin; Teaching Subset: Fundamental Chemistry, Drug 
Molecules; DrugBank: DB13132
;
_cell_volume   1443.436
_exptl_crystal_colour 'colorless'
_exptl_crystal_density_diffrn 1.299
_exptl_special_details
;
orthorhombic polymorph
potent schizontocidal drug with antimalarial activity; Artemisinin was 
investigated in 2021 as a potential candidate to target COVID-19 
(coronavirus)
No study temperature is reported
;
_exptl_crystal_description 'needles'
_exptl_crystal_preparation 'methanol'
_diffrn_ambient_temperature ?
_diffrn_special_details
;
The study was carried out at room temperature,in the range 283-303K

;
#These two values have been output from a single CSD field.
_refine_ls_R_factor_gt 0.0572
_refine_ls_wR_factor_gt 0.0572
loop_
_citation_database_id_CSD
_citation_special_details
QNGHSU "is a stereoisomer of this entry"
WIMMEK "is a stereoisomer of this entry"
_symmetry_cell_setting orthorhombic
_symmetry_space_group_name_H-M 'P 21 21 21'
_symmetry_Int_Tables_number 19
loop_
_symmetry_equiv_pos_site_id
_symmetry_equiv_pos_as_xyz
1 x,y,z
2 1/2-x,-y,1/2+z
3 1/2+x,1/2-y,-z
4 -x,1/2+y,1/2-z
_cell_length_a 6.3543(9)
_cell_length_b 9.439(3)
_cell_length_c 24.066(4)
_cell_angle_alpha 90
_cell_angle_beta 90
_cell_angle_gamma 90
_cell_formula_units_Z 4
loop_
_atom_type_symbol
_atom_type_radius_bond
C 0.68
H 0.23
O 0.68
loop_
_atom_site_label
_atom_site_type_symbol
_atom_site_fract_x
_atom_site_fract_y
_atom_site_fract_z
O1 O 1.2073(2) 0.5610(2) 0.7323(1)
O2 O 1.3960(2) 0.5649(1) 0.6971(1)
O3 O 1.0336(2) 0.3915(2) 0.6817(1)
O4 O 1.0022(2) 0.5786(2) 0.6232(1)
O5 O 0.9493(2) 0.7840(2) 0.5851(1)
C1 C 1.4907(3) 0.3516(2) 0.6491(1)
C2 C 1.4021(3) 0.2487(3) 0.6921(1)
C3 C 1.3090(3) 0.3138(2) 0.7444(1)
C4 C 1.1346(3) 0.4193(2) 0.7344(1)
C5 C 1.1289(3) 0.4564(2) 0.6369(1)
C6 C 1.3617(2) 0.4886(2) 0.6450(1)
C7 C 1.4384(3) 0.5887(2) 0.5997(1)
C8 C 1.4450(3) 0.5132(3) 0.5439(1)
C9 C 1.5871(3) 0.3834(3) 0.5473(1)
C10 C 1.5220(3) 0.2794(2) 0.5923(1)
C11 C 1.3113(3) 0.7253(2) 0.6011(1)
C12 C 1.0752(2) 0.7006(2) 0.6010(1)
C13 C 1.3720(4) 0.8321(3) 0.5566(1)
C14 C 1.6848(5) 0.1597(3) 0.5967(1)
C15 C 0.9606(4) 0.42023(2) 0.7774(1)
H1 H 1.5839(3) 0.6139(2) 0.60894(7)
H2 H 1.4975(3) 0.5773(3) 0.51564(8)
H3 H 1.3040(3) 0.4843(3) 0.53344(8)
H4 H 1.5856(3) 0.3352(3) 0.51172(10)
H5 H 1.7302(3) 0.4142(3) 0.55438(10)
H6 H 1.3874(3) 0.2372(2) 0.58131(9)
H7 H 1.6310(3) 0.3790(2) 0.66220(8)
H8 H 1.2938(3) 0.1923(3) 0.67431(10)
H9 H 1.5139(3) 0.1846(3) 0.7031(1)
H10 H 1.2549(4) 0.2382(2) 0.76768(9)
H11 H 1.4207(4) 0.3605(2) 0.76484(9)
H12 H 1.1184(3) 0.3906(2) 0.60550(8)
H13 H 1.3438(3) 0.7704(2) 0.63679(9)
H14 H 1.5213(5) 0.8474(12) 0.5575(4)
H15 H 1.3004(19) 0.9200(6) 0.5633(4)
H16 H 1.3326(21) 0.7962(7) 0.52072(12)
H17 H 1.6354(15) 0.0894(10) 0.6225(6)
H18 H 1.8161(10) 0.1977(5) 0.6097(8)
H19 H 1.7045(23) 0.1172(14) 0.5609(2)
H20 H 0.8926(18) 0.3295(7) 0.7780(5)
H21 H 0.8597(15) 0.4921(13) 0.7682(4)
H22 H 1.0194(6) 0.4397(18) 0.81336(15)
#END
