####################################################################### 
# 
# This file contains crystal structure data downloaded from the 
# Cambridge Structural Database (CSD) hosted by the Cambridge 
# Crystallographic Data Centre (CCDC).
# 
# Full information about CCDC data access policies and citation 
# guidelines are available at http://www.ccdc.cam.ac.uk/access/V1 
# 
# Audit and citation data items may have been added by the CCDC. 
# Please retain this information to preserve the provenance of 
# this file and to allow appropriate attribution of the data. 
# 
#######################################################################

data_cdbz
_audit_block_doi                 10.5517/ccpxr0b
_database_code_depnum_ccdc_archive 'CCDC 653232'
loop_
_citation_id
_citation_doi
_citation_year
1 10.1016/j.ica.2007.10.024 2008
_audit_update_record             
;
2007-07-06 deposited with the CCDC.	2024-07-12 downloaded from the CCDC.
;

_audit_creation_method           SHELXL-97
_chemical_name_systematic        
;
?
;
_chemical_name_common            ?
_chemical_melting_point          ?
_chemical_formula_moiety         ?
_chemical_formula_sum            'C58 H50 Cd N10 O6'
_chemical_formula_weight         1095.48

loop_
_atom_type_symbol
_atom_type_description
_atom_type_scat_dispersion_real
_atom_type_scat_dispersion_imag
_atom_type_scat_source
C C 0.0033 0.0016 'International Tables Vol C Tables 4.2.6.8 and 6.1.1.4'
H H 0.0000 0.0000 'International Tables Vol C Tables 4.2.6.8 and 6.1.1.4'
N N 0.0061 0.0033 'International Tables Vol C Tables 4.2.6.8 and 6.1.1.4'
O O 0.0106 0.0060 'International Tables Vol C Tables 4.2.6.8 and 6.1.1.4'
Cd Cd -0.8075 1.2024 'International Tables Vol C Tables 4.2.6.8 and 6.1.1.4'

_symmetry_cell_setting           Monoclinic
_symmetry_space_group_name_H-M   'C2/c '

loop_
_symmetry_equiv_pos_as_xyz
'x, y, z'
'-x, y, -z+1/2'
'x+1/2, y+1/2, z'
'-x+1/2, y+1/2, -z+1/2'
'-x, -y, -z'
'x, -y, z-1/2'
'-x+1/2, -y+1/2, -z'
'x+1/2, -y+1/2, z-1/2'

_cell_length_a                   23.9069(7)
_cell_length_b                   16.1843(5)
_cell_length_c                   16.7175(9)
_cell_angle_alpha                90.00
_cell_angle_beta                 126.6960(10)
_cell_angle_gamma                90.00
_cell_volume                     5186.4(4)
_cell_formula_units_Z            4
_cell_measurement_temperature    296(2)
_cell_measurement_reflns_used    5434
_cell_measurement_theta_min      2.46
_cell_measurement_theta_max      24.25

_exptl_crystal_description       BLOCK
_exptl_crystal_colour            yellow
_exptl_crystal_size_max          0.22
_exptl_crystal_size_mid          0.16
_exptl_crystal_size_min          0.14
_exptl_crystal_density_meas      ?
_exptl_crystal_density_diffrn    1.403
_exptl_crystal_density_method    'not measured'
_exptl_crystal_F_000             2256
_exptl_absorpt_coefficient_mu    0.484
_exptl_absorpt_correction_type   multi-scan
_exptl_absorpt_correction_T_min  0.9011
_exptl_absorpt_correction_T_max  0.9354
_exptl_absorpt_process_details   ?

_exptl_special_details           
;
?
;

_diffrn_ambient_temperature      296(2)
_diffrn_radiation_wavelength     0.71073
_diffrn_radiation_type           MoK\a
_diffrn_radiation_source         'sealed tube'
_diffrn_radiation_monochromator  graphite
_diffrn_measurement_device_type  'CCD area detector'
_diffrn_measurement_method       'phi and omega scans'
_diffrn_detector_area_resol_mean ?
_diffrn_standards_number         ?
_diffrn_standards_interval_count ?
_diffrn_standards_interval_time  ?
_diffrn_standards_decay_%        ?
_diffrn_reflns_number            20765
_diffrn_reflns_av_R_equivalents  0.0395
_diffrn_reflns_av_sigmaI/netI    0.0575
_diffrn_reflns_limit_h_min       -31
_diffrn_reflns_limit_h_max       31
_diffrn_reflns_limit_k_min       -21
_diffrn_reflns_limit_k_max       21
_diffrn_reflns_limit_l_min       -21
_diffrn_reflns_limit_l_max       22
_diffrn_reflns_theta_min         2.46
_diffrn_reflns_theta_max         28.43
_reflns_number_total             6452
_reflns_number_gt                3947
_reflns_threshold_expression     >2sigma(I)

_computing_data_collection       'Bruker SMART'
_computing_cell_refinement       'Bruker SMART'
_computing_data_reduction        'Bruker SAINT'
_computing_structure_solution    'Bruker SHELXTL'
_computing_structure_refinement  'Bruker SHELXTL'
_computing_molecular_graphics    'Bruker SHELXTL'
_computing_publication_material  'Bruker SHELXTL'

_refine_special_details          
;
Refinement of F^2^ against ALL reflections. The weighted R-factor wR and
goodness of fit S are based on F^2^, conventional R-factors R are based
on F, with F set to zero for negative F^2^. The threshold expression of
F^2^ > 2sigma(F^2^) is used only for calculating R-factors(gt) etc. and is
not relevant to the choice of reflections for refinement. R-factors based
on F^2^ are statistically about twice as large as those based on F, and R-
factors based on ALL data will be even larger.
;

_refine_ls_structure_factor_coef Fsqd
_refine_ls_matrix_type           full
_refine_ls_weighting_scheme      calc
_refine_ls_weighting_details     
'calc w=1/[\s^2^(Fo^2^)+(0.0811P)^2^+1.1277P] where P=(Fo^2^+2Fc^2^)/3'
_atom_sites_solution_primary     direct
_atom_sites_solution_secondary   difmap
_atom_sites_solution_hydrogens   geom
_refine_ls_hydrogen_treatment    constr
_refine_ls_extinction_method     SHELXL
_refine_ls_extinction_coef       0.00035(18)
_refine_ls_extinction_expression Fc^*^=kFc[1+0.001xFc^2^\l^3^/sin(2\q)]^-1/4^
_refine_ls_number_reflns         6452
_refine_ls_number_parameters     326
_refine_ls_number_restraints     0
_refine_ls_R_factor_all          0.0949
_refine_ls_R_factor_gt           0.0528
_refine_ls_wR_factor_ref         0.1562
_refine_ls_wR_factor_gt          0.1316
_refine_ls_goodness_of_fit_ref   1.027
_refine_ls_restrained_S_all      1.027
_refine_ls_shift/su_max          0.001
_refine_ls_shift/su_mean         0.000

loop_
_atom_site_label
_atom_site_type_symbol
_atom_site_fract_x
_atom_site_fract_y
_atom_site_fract_z
_atom_site_U_iso_or_equiv
_atom_site_adp_type
_atom_site_occupancy
_atom_site_symmetry_multiplicity
_atom_site_calc_flag
_atom_site_refinement_flags
_atom_site_disorder_assembly
_atom_site_disorder_group
Cd1 Cd 0.0000 0.0000 0.0000 0.04275(15) Uani 1 2 d S . .
N1 N -0.11092(15) 0.05276(17) -0.13017(18) 0.0469(7) Uani 1 1 d . . .
N2 N -0.26239(15) 0.1296(2) -0.4723(2) 0.0494(7) Uani 1 1 d . . .
N3 N -0.36703(15) 0.20291(19) -1.13830(19) 0.0490(7) Uani 1 1 d . . .
N4 N -0.04760(13) -0.13292(17) -0.07158(18) 0.0413(6) Uani 1 1 d . . .
N5 N 0.05976(18) 0.0099(3) -0.1276(3) 0.0694(12) Uani 1 1 d . . .
O1 O 0.0395(3) -0.0337(6) -0.0981(3) 0.239(5) Uani 1 1 d . . .
O2 O 0.0895(2) -0.00175(17) -0.1596(3) 0.0830(11) Uani 1 1 d . . .
O3 O 0.0464(2) 0.0803(5) -0.1189(6) 0.229(4) Uani 1 1 d . . .
C1 C -0.1652(2) 0.0455(3) -0.1262(3) 0.0602(10) Uani 1 1 d . . .
H1 H -0.1568 0.0257 -0.0677 0.072 Uiso 1 1 calc R . .
C2 C -0.2321(2) 0.0656(3) -0.2035(3) 0.0756(14) Uani 1 1 d . . .
H2 H -0.2678 0.0602 -0.1969 0.091 Uiso 1 1 calc R . .
C3 C -0.2461(2) 0.0938(3) -0.2914(3) 0.0634(11) Uani 1 1 d . . .
H3 H -0.2914 0.1068 -0.3453 0.076 Uiso 1 1 calc R . .
C4 C -0.19130(18) 0.1024(2) -0.2980(2) 0.0435(8) Uani 1 1 d . . .
C5 C -0.12508(18) 0.0823(2) -0.2152(2) 0.0456(8) Uani 1 1 d . . .
H5 H -0.0881 0.0898 -0.2188 0.055 Uiso 1 1 calc R . .
C6 C -0.20244(19) 0.1289(2) -0.3906(2) 0.0480(8) Uani 1 1 d . . .
H6 H -0.1644 0.1454 -0.3887 0.058 Uiso 1 1 calc R . .
C7 C -0.27156(17) 0.1490(2) -0.5623(2) 0.0436(8) Uani 1 1 d . . .
C8 C -0.33885(18) 0.1677(2) -0.6449(2) 0.0491(9) Uani 1 1 d . . .
C9 C -0.35085(18) 0.1809(2) -0.7361(2) 0.0491(9) Uani 1 1 d . . .
H9 H -0.3959 0.1938 -0.7911 0.059 Uiso 1 1 calc R . .
C10 C -0.29900(17) 0.1756(2) -0.7488(2) 0.0406(7) Uani 1 1 d . . .
C11 C -0.23172(18) 0.1583(2) -0.6645(2) 0.0527(9) Uani 1 1 d . . .
H11 H -0.1952 0.1559 -0.6699 0.063 Uiso 1 1 calc R . .
C12 C -0.21857(18) 0.1447(2) -0.5735(2) 0.0543(10) Uani 1 1 d . . .
H12 H -0.1734 0.1325 -0.5184 0.065 Uiso 1 1 calc R . .
C13 C -0.31426(17) 0.1861(2) -0.8482(2) 0.0419(8) Uani 1 1 d . . .
C14 C -0.36701(18) 0.2396(2) -0.9188(2) 0.0506(9) Uani 1 1 d . . .
H14 H -0.3913 0.2710 -0.9021 0.061 Uiso 1 1 calc R . .
C15 C -0.38344(19) 0.2464(2) -1.0127(2) 0.0535(9) Uani 1 1 d . . .
H15 H -0.4188 0.2823 -1.0586 0.064 Uiso 1 1 calc R . .
C16 C -0.34846(17) 0.2009(2) -1.0399(2) 0.0432(8) Uani 1 1 d . . .
C17 C -0.29630(18) 0.1462(2) -0.9720(2) 0.0447(8) Uani 1 1 d . . .
C18 C -0.27957(17) 0.1408(2) -0.8769(2) 0.0460(8) Uani 1 1 d . . .
H18 H -0.2437 0.1056 -0.8306 0.055 Uiso 1 1 calc R . .
C19 C -0.3981(2) 0.1736(4) -0.6361(3) 0.0883(17) Uani 1 1 d . . .
H19A H -0.4404 0.1873 -0.6999 0.133 Uiso 1 1 calc R . .
H19B H -0.3878 0.2158 -0.5887 0.133 Uiso 1 1 calc R . .
H19C H -0.4036 0.1215 -0.6140 0.133 Uiso 1 1 calc R . .
C20 C -0.2590(2) 0.0938(3) -1.0009(3) 0.0664(12) Uani 1 1 d . . .
H20A H -0.2247 0.0602 -0.9453 0.100 Uiso 1 1 calc R . .
H20B H -0.2364 0.1289 -1.0200 0.100 Uiso 1 1 calc R . .
H20C H -0.2920 0.0590 -1.0560 0.100 Uiso 1 1 calc R . .
C21 C -0.38493(19) 0.2716(2) -1.1838(2) 0.0499(9) Uani 1 1 d . . .
H21 H -0.3829 0.3191 -1.1508 0.060 Uiso 1 1 calc R . .
C22 C -0.09123(17) -0.2220(2) -0.2126(2) 0.0436(8) Uani 1 1 d . . .
C23 C -0.0863(2) -0.2889(2) -0.1577(3) 0.0545(9) Uani 1 1 d . . .
H23 H -0.0993 -0.3413 -0.1863 0.065 Uiso 1 1 calc R . .
C24 C -0.0618(2) -0.2775(2) -0.0601(2) 0.0546(9) Uani 1 1 d . . .
H24 H -0.0578 -0.3219 -0.0216 0.066 Uiso 1 1 calc R . .
C25 C -0.04339(18) -0.1987(2) -0.0205(2) 0.0459(8) Uani 1 1 d . . .
H25 H -0.0272 -0.1912 0.0453 0.055 Uiso 1 1 calc R . .
C26 C -0.07203(17) -0.1451(2) -0.1669(2) 0.0432(8) Uani 1 1 d . . .
H26 H -0.0763 -0.0996 -0.2041 0.052 Uiso 1 1 calc R . .
C27 C 0.0522(5) 0.5142(4) -0.0080(8) 0.138(3) Uiso 1 1 d . . .
H27 H 0.0875 0.5246 -0.0146 0.166 Uiso 1 1 calc R . .
C28 C 0.0643(5) 0.5149(4) 0.0759(7) 0.131(3) Uiso 1 1 d . . .
H28 H 0.1101 0.5245 0.1309 0.158 Uiso 1 1 calc R . .
C29 C 0.0175(7) 0.5032(5) 0.0936(11) 0.186(5) Uiso 1 1 d . . .
H29 H 0.0293 0.5061 0.1575 0.223 Uiso 1 1 calc R . .

loop_
_atom_site_aniso_label
_atom_site_aniso_U_11
_atom_site_aniso_U_22
_atom_site_aniso_U_33
_atom_site_aniso_U_23
_atom_site_aniso_U_13
_atom_site_aniso_U_12
Cd1 0.0531(2) 0.0348(2) 0.02377(18) -0.00198(13) 0.01406(16) -0.00025(15)
N1 0.0578(18) 0.0490(18) 0.0282(14) 0.0004(12) 0.0226(13) 0.0051(14)
N2 0.0519(18) 0.067(2) 0.0283(14) 0.0074(14) 0.0237(14) 0.0078(15)
N3 0.0598(19) 0.0545(19) 0.0326(15) 0.0107(13) 0.0275(14) 0.0094(15)
N4 0.0496(17) 0.0445(16) 0.0300(14) -0.0066(12) 0.0239(13) -0.0028(12)
N5 0.0440(18) 0.136(4) 0.0349(17) -0.0198(19) 0.0272(16) -0.015(2)
O1 0.129(4) 0.514(13) 0.051(2) -0.007(5) 0.041(3) -0.172(6)
O2 0.088(3) 0.106(3) 0.084(3) -0.0007(16) 0.067(2) 0.0048(17)
O3 0.079(3) 0.268(8) 0.260(7) -0.183(7) 0.058(4) 0.009(4)
C1 0.065(3) 0.081(3) 0.038(2) 0.011(2) 0.032(2) 0.001(2)
C2 0.064(3) 0.119(4) 0.052(2) 0.017(3) 0.039(2) 0.008(3)
C3 0.052(2) 0.098(3) 0.0351(19) 0.009(2) 0.0239(18) 0.010(2)
C4 0.055(2) 0.046(2) 0.0308(16) 0.0046(14) 0.0266(16) 0.0089(16)
C5 0.053(2) 0.049(2) 0.0338(17) -0.0005(15) 0.0255(16) 0.0071(16)
C6 0.058(2) 0.055(2) 0.0365(18) 0.0053(16) 0.0310(18) 0.0092(17)
C7 0.049(2) 0.053(2) 0.0279(16) 0.0039(14) 0.0224(15) 0.0029(16)
C8 0.042(2) 0.070(3) 0.0340(18) 0.0064(16) 0.0217(16) 0.0047(17)
C9 0.0402(19) 0.070(3) 0.0301(17) 0.0103(16) 0.0172(15) 0.0051(17)
C10 0.0441(19) 0.0456(19) 0.0295(16) 0.0068(14) 0.0205(15) 0.0065(15)
C11 0.044(2) 0.080(3) 0.0381(19) 0.0074(18) 0.0266(17) 0.0086(18)
C12 0.044(2) 0.082(3) 0.0296(17) 0.0093(17) 0.0182(16) 0.0158(18)
C13 0.0443(19) 0.048(2) 0.0308(16) 0.0073(14) 0.0211(15) 0.0047(15)
C14 0.058(2) 0.058(2) 0.0378(18) 0.0109(16) 0.0295(17) 0.0174(17)
C15 0.061(2) 0.057(2) 0.0379(19) 0.0178(16) 0.0272(18) 0.0197(18)
C16 0.052(2) 0.046(2) 0.0324(17) 0.0107(14) 0.0252(16) 0.0060(16)
C17 0.052(2) 0.047(2) 0.0364(18) 0.0064(15) 0.0267(16) 0.0058(16)
C18 0.049(2) 0.053(2) 0.0344(18) 0.0124(15) 0.0245(16) 0.0129(16)
C19 0.051(2) 0.170(5) 0.049(2) 0.020(3) 0.033(2) 0.017(3)
C20 0.086(3) 0.072(3) 0.053(2) 0.018(2) 0.048(2) 0.029(2)
C21 0.065(2) 0.050(2) 0.0347(18) 0.0091(15) 0.0301(18) 0.0072(17)
C22 0.051(2) 0.049(2) 0.0313(16) -0.0085(14) 0.0252(16) -0.0068(16)
C23 0.080(3) 0.041(2) 0.048(2) -0.0124(16) 0.041(2) -0.0127(18)
C24 0.075(3) 0.049(2) 0.040(2) 0.0002(16) 0.035(2) -0.0055(18)
C25 0.055(2) 0.049(2) 0.0355(17) -0.0051(15) 0.0280(16) -0.0065(16)
C26 0.054(2) 0.0425(19) 0.0288(16) -0.0039(14) 0.0227(15) -0.0071(15)

_geom_special_details            
;
All esds (except the esd in the dihedral angle between two l.s. planes)
are estimated using the full covariance matrix. The cell esds are taken
into account individually in the estimation of esds in distances, angles
and torsion angles; correlations between esds in cell parameters are only
used when they are defined by crystal symmetry. An approximate (isotropic)
treatment of cell esds is used for estimating esds involving l.s. planes.
;

loop_
_geom_bond_atom_site_label_1
_geom_bond_atom_site_label_2
_geom_bond_distance
_geom_bond_site_symmetry_2
_geom_bond_publ_flag
Cd1 N1 2.366(3) . ?
Cd1 N1 2.366(3) 5 ?
Cd1 O1 2.393(7) 5 ?
Cd1 O1 2.393(7) . ?
Cd1 N4 2.393(3) . ?
Cd1 N4 2.393(3) 5 ?
N1 C5 1.337(4) . ?
N1 C1 1.344(4) . ?
N2 C6 1.257(4) . ?
N2 C7 1.419(4) . ?
N3 C21 1.269(4) . ?
N3 C16 1.425(4) . ?
N4 C25 1.331(4) . ?
N4 C26 1.344(4) . ?
N5 O1 1.123(6) . ?
N5 O2 1.134(5) . ?
N5 O3 1.215(7) . ?
C1 C2 1.364(5) . ?
C1 H1 0.9300 . ?
C2 C3 1.375(5) . ?
C2 H2 0.9300 . ?
C3 C4 1.385(5) . ?
C3 H3 0.9300 . ?
C4 C5 1.382(4) . ?
C4 C6 1.469(4) . ?
C5 H5 0.9300 . ?
C6 H6 0.9300 . ?
C7 C12 1.388(4) . ?
C7 C8 1.390(4) . ?
C8 C9 1.388(4) . ?
C8 C19 1.513(5) . ?
C9 C10 1.380(4) . ?
C9 H9 0.9300 . ?
C10 C11 1.394(4) . ?
C10 C13 1.483(4) . ?
C11 C12 1.375(4) . ?
C11 H11 0.9300 . ?
C12 H12 0.9300 . ?
C13 C18 1.388(4) . ?
C13 C14 1.398(4) . ?
C14 C15 1.376(4) . ?
C14 H14 0.9300 . ?
C15 C16 1.380(4) . ?
C15 H15 0.9300 . ?
C16 C17 1.392(4) . ?
C17 C18 1.392(4) . ?
C17 C20 1.504(5) . ?
C18 H18 0.9300 . ?
C19 H19A 0.9600 . ?
C19 H19B 0.9600 . ?
C19 H19C 0.9600 . ?
C20 H20A 0.9600 . ?
C20 H20B 0.9600 . ?
C20 H20C 0.9600 . ?
C21 C22 1.468(4) 4_453 ?
C21 H21 0.9300 . ?
C22 C23 1.378(5) . ?
C22 C26 1.387(4) . ?
C22 C21 1.468(4) 4_443 ?
C23 C24 1.379(4) . ?
C23 H23 0.9300 . ?
C24 C25 1.383(5) . ?
C24 H24 0.9300 . ?
C25 H25 0.9300 . ?
C26 H26 0.9300 . ?
C27 C28 1.252(11) . ?
C27 C29 1.433(16) 5_565 ?
C27 H27 0.9300 . ?
C28 C29 1.330(13) . ?
C28 H28 0.9300 . ?
C29 C27 1.433(16) 5_565 ?
C29 H29 0.9300 . ?

loop_
_geom_angle_atom_site_label_1
_geom_angle_atom_site_label_2
_geom_angle_atom_site_label_3
_geom_angle
_geom_angle_site_symmetry_1
_geom_angle_site_symmetry_3
_geom_angle_publ_flag
N1 Cd1 N1 180.00(19) . 5 ?
N1 Cd1 O1 82.17(17) . 5 ?
N1 Cd1 O1 97.83(17) 5 5 ?
N1 Cd1 O1 97.83(17) . . ?
N1 Cd1 O1 82.17(17) 5 . ?
O1 Cd1 O1 180.00(18) 5 . ?
N1 Cd1 N4 85.86(9) . . ?
N1 Cd1 N4 94.14(9) 5 . ?
O1 Cd1 N4 106.44(19) 5 . ?
O1 Cd1 N4 73.56(19) . . ?
N1 Cd1 N4 94.14(9) . 5 ?
N1 Cd1 N4 85.86(9) 5 5 ?
O1 Cd1 N4 73.56(19) 5 5 ?
O1 Cd1 N4 106.44(19) . 5 ?
N4 Cd1 N4 180.0(3) . 5 ?
C5 N1 C1 116.4(3) . . ?
C5 N1 Cd1 122.6(2) . . ?
C1 N1 Cd1 120.5(2) . . ?
C6 N2 C7 120.5(3) . . ?
C21 N3 C16 118.2(3) . . ?
C25 N4 C26 117.1(3) . . ?
C25 N4 Cd1 124.5(2) . . ?
C26 N4 Cd1 117.7(2) . . ?
O1 N5 O2 131.4(8) . . ?
O1 N5 O3 108.8(7) . . ?
O2 N5 O3 119.7(6) . . ?
N5 O1 Cd1 127.5(8) . . ?
N1 C1 C2 123.5(3) . . ?
N1 C1 H1 118.3 . . ?
C2 C1 H1 118.3 . . ?
C1 C2 C3 119.4(4) . . ?
C1 C2 H2 120.3 . . ?
C3 C2 H2 120.3 . . ?
C2 C3 C4 118.7(4) . . ?
C2 C3 H3 120.6 . . ?
C4 C3 H3 120.6 . . ?
C5 C4 C3 117.9(3) . . ?
C5 C4 C6 120.1(3) . . ?
C3 C4 C6 121.9(3) . . ?
N1 C5 C4 124.0(3) . . ?
N1 C5 H5 118.0 . . ?
C4 C5 H5 118.0 . . ?
N2 C6 C4 121.3(3) . . ?
N2 C6 H6 119.4 . . ?
C4 C6 H6 119.4 . . ?
C12 C7 C8 118.9(3) . . ?
C12 C7 N2 123.8(3) . . ?
C8 C7 N2 117.1(3) . . ?
C9 C8 C7 118.8(3) . . ?
C9 C8 C19 120.4(3) . . ?
C7 C8 C19 120.7(3) . . ?
C10 C9 C8 123.0(3) . . ?
C10 C9 H9 118.5 . . ?
C8 C9 H9 118.5 . . ?
C9 C10 C11 117.2(3) . . ?
C9 C10 C13 121.6(3) . . ?
C11 C10 C13 121.3(3) . . ?
C12 C11 C10 120.9(3) . . ?
C12 C11 H11 119.5 . . ?
C10 C11 H11 119.5 . . ?
C11 C12 C7 121.2(3) . . ?
C11 C12 H12 119.4 . . ?
C7 C12 H12 119.4 . . ?
C18 C13 C14 117.3(3) . . ?
C18 C13 C10 121.9(3) . . ?
C14 C13 C10 120.7(3) . . ?
C15 C14 C13 120.7(3) . . ?
C15 C14 H14 119.6 . . ?
C13 C14 H14 119.6 . . ?
C14 C15 C16 121.2(3) . . ?
C14 C15 H15 119.4 . . ?
C16 C15 H15 119.4 . . ?
C15 C16 C17 119.7(3) . . ?
C15 C16 N3 122.4(3) . . ?
C17 C16 N3 117.7(3) . . ?
C16 C17 C18 118.5(3) . . ?
C16 C17 C20 120.7(3) . . ?
C18 C17 C20 120.8(3) . . ?
C13 C18 C17 122.6(3) . . ?
C13 C18 H18 118.7 . . ?
C17 C18 H18 118.7 . . ?
C8 C19 H19A 109.5 . . ?
C8 C19 H19B 109.5 . . ?
H19A C19 H19B 109.5 . . ?
C8 C19 H19C 109.5 . . ?
H19A C19 H19C 109.5 . . ?
H19B C19 H19C 109.5 . . ?
C17 C20 H20A 109.5 . . ?
C17 C20 H20B 109.5 . . ?
H20A C20 H20B 109.5 . . ?
C17 C20 H20C 109.5 . . ?
H20A C20 H20C 109.5 . . ?
H20B C20 H20C 109.5 . . ?
N3 C21 C22 121.5(3) . 4_453 ?
N3 C21 H21 119.3 . . ?
C22 C21 H21 119.3 4_453 . ?
C23 C22 C26 118.0(3) . . ?
C23 C22 C21 123.3(3) . 4_443 ?
C26 C22 C21 118.7(3) . 4_443 ?
C22 C23 C24 119.3(3) . . ?
C22 C23 H23 120.3 . . ?
C24 C23 H23 120.3 . . ?
C23 C24 C25 118.6(3) . . ?
C23 C24 H24 120.7 . . ?
C25 C24 H24 120.7 . . ?
N4 C25 C24 123.4(3) . . ?
N4 C25 H25 118.3 . . ?
C24 C25 H25 118.3 . . ?
N4 C26 C22 123.5(3) . . ?
N4 C26 H26 118.3 . . ?
C22 C26 H26 118.3 . . ?
C28 C27 C29 118.2(9) . 5_565 ?
C28 C27 H27 120.9 . . ?
C29 C27 H27 120.9 5_565 . ?
C27 C28 C29 125.8(11) . . ?
C27 C28 H28 117.1 . . ?
C29 C28 H28 117.1 . . ?
C28 C29 C27 115.9(12) . 5_565 ?
C28 C29 H29 122.0 . . ?
C27 C29 H29 122.0 5_565 . ?

_diffrn_measured_fraction_theta_max 0.987
_diffrn_reflns_theta_full        28.43
_diffrn_measured_fraction_theta_full 0.987
_refine_diff_density_max         0.834
_refine_diff_density_min         -0.713
_refine_diff_density_rms         0.078
