####################################################################### 
# 
# This file contains crystal structure data downloaded from the 
# Cambridge Structural Database (CSD) hosted by the Cambridge 
# Crystallographic Data Centre (CCDC).
# 
# Full information about CCDC data access policies and citation 
# guidelines are available at http://www.ccdc.cam.ac.uk/access/V1 
# 
# Audit and citation data items may have been added by the CCDC. 
# Please retain this information to preserve the provenance of 
# this file and to allow appropriate attribution of the data. 
# 
#######################################################################

data_squeeze_(ZnCl2(2))n
_audit_block_doi                 10.5517/cc12std2
_database_code_depnum_ccdc_archive 'CCDC 1006954'
loop_
_citation_id
_citation_doi
_citation_year
1 10.1039/C4CE00783B 2014
_audit_update_record             
;
2014-07-13 deposited with the CCDC.	2024-07-12 downloaded from the CCDC.
;

_audit_creation_method           SHELXL-2013
_chemical_name_systematic        
; 
 ? 
;
_chemical_name_common            ?
_chemical_melting_point          ?
_chemical_formula_moiety         'C158 H93 Cl22 F20 N12 O2 Zn4'
_chemical_formula_sum            'C158 H93 Cl22 F20 N12 O2 Zn4'
_chemical_formula_weight         3613.00

loop_
_atom_type_symbol
_atom_type_description
_atom_type_scat_dispersion_real
_atom_type_scat_dispersion_imag
_atom_type_scat_source
C C 0.0181 0.0091 'International Tables Vol C Tables 4.2.6.8 and 6.1.1.4'
H H 0.0000 0.0000 'International Tables Vol C Tables 4.2.6.8 and 6.1.1.4'
N N 0.0311 0.0180 'International Tables Vol C Tables 4.2.6.8 and 6.1.1.4'
F F 0.0727 0.0534 'International Tables Vol C Tables 4.2.6.8 and 6.1.1.4'
Cl Cl 0.3639 0.7018 'International Tables Vol C Tables 4.2.6.8 and 6.1.1.4'
Zn Zn -1.5491 0.6778 'International Tables Vol C Tables 4.2.6.8 and 6.1.1.4'

_space_group_crystal_system      triclinic
_space_group_IT_number           2
_space_group_name_H-M_alt        'P -1'
_space_group_name_Hall           '-P 1'

_shelx_space_group_comment       
; 
The symmetry employed for this shelxl refinement is uniquely defined 
by the following loop, which should always be used as a source of 
symmetry information in preference to the above space-group names. 
They are only intended as comments. 
;

loop_
_space_group_symop_operation_xyz
'x, y, z'
'-x, -y, -z'

_cell_length_a                   14.3665(6)
_cell_length_b                   20.7814(8)
_cell_length_c                   26.2162(13)
_cell_angle_alpha                99.654(3)
_cell_angle_beta                 97.510(3)
_cell_angle_gamma                103.905(3)
_cell_volume                     7369.5(6)
_cell_formula_units_Z            2
_cell_measurement_temperature    123(2)
_cell_measurement_reflns_used    9465
_cell_measurement_theta_min      3.22
_cell_measurement_theta_max      66.43

_exptl_crystal_description       plate
_exptl_crystal_colour            colourless
_exptl_crystal_density_meas      ?
_exptl_crystal_density_method    ?
_exptl_crystal_density_diffrn    1.63
_exptl_crystal_F_000             3306.199
_exptl_transmission_factor_min   ?
_exptl_transmission_factor_max   ?
_exptl_crystal_size_max          0.220
_exptl_crystal_size_mid          0.060
_exptl_crystal_size_min          0.020
_exptl_absorpt_coefficient_mu    5.137
_shelx_estimated_absorpt_T_min   0.595
_shelx_estimated_absorpt_T_max   0.949
_exptl_absorpt_correction_type   multi-scan
_exptl_absorpt_correction_T_min  0.828
_exptl_absorpt_correction_T_max  0.949
_exptl_absorpt_process_details   sadabs

_exptl_special_details           
; 
 ? 
;

_diffrn_ambient_temperature      123(2)
_diffrn_radiation_wavelength     1.54178
_diffrn_radiation_type           CuK\a
_diffrn_source                   ?
_diffrn_measurement_device_type  'Bruker APEX-II CCD'
_diffrn_measurement_method       '\f and \w scans'
_diffrn_detector_area_resol_mean ?
_diffrn_reflns_number            57651
_diffrn_reflns_av_unetI/netI     0.0932
_diffrn_reflns_av_R_equivalents  0.0583
_diffrn_reflns_limit_h_min       -14
_diffrn_reflns_limit_h_max       17
_diffrn_reflns_limit_k_min       -24
_diffrn_reflns_limit_k_max       24
_diffrn_reflns_limit_l_min       -30
_diffrn_reflns_limit_l_max       31
_diffrn_reflns_theta_min         1.737
_diffrn_reflns_theta_max         68.279
_diffrn_reflns_theta_full        66.500
_diffrn_measured_fraction_theta_max 0.953
_diffrn_measured_fraction_theta_full 0.973
_diffrn_reflns_Laue_measured_fraction_max 0.953
_diffrn_reflns_Laue_measured_fraction_full 0.973
_diffrn_reflns_point_group_measured_fraction_max 0.953
_diffrn_reflns_point_group_measured_fraction_full 0.973
_reflns_number_total             25727
_reflns_number_gt                16085
_reflns_threshold_expression     'I > 2\s(I)'
_reflns_Friedel_coverage         0.000
_reflns_Friedel_fraction_max     .
_reflns_Friedel_fraction_full    .

_reflns_special_details          
; 
 Reflections were merged by SHELXL according to the crystal 
 class for the calculation of statistics and refinement. 
  
 _reflns_Friedel_fraction is defined as the number of unique 
 Friedel pairs measured divided by the number that would be 
 possible theoretically, ignoring centric projections and 
 systematic absences. 

Restraints employed to stablise the structure:
isor 0.01 f3b c18b c23b c24b c25b c26b f1b c17b
simu 0.01 f1b c23b
simu 0.005 f2b c24b
simu 0.01 f3b c25b
simu 0.005 f4b c26b
simu 0.01 f5b c27b

;

_computing_data_collection       'Bruker APEX2'
_computing_cell_refinement       'Bruker SAINT'
_computing_data_reduction        'Bruker SAINT'
_computing_structure_solution    'SHELXS-97 (Sheldrick, 2008)'
_computing_structure_refinement  'SHELXL-2013 (Sheldrick, 2013)'
_computing_molecular_graphics    'Bruker SHELXTL'
_computing_publication_material  'Bruker SHELXTL'

_refine_special_details          
; 
 ? 
;
_refine_ls_structure_factor_coef Fsqd
_refine_ls_matrix_type           full
_refine_ls_weighting_scheme      calc
_refine_ls_weighting_details     
; 
 w=1/[\s^2^(Fo^2^)+(0.1150P)^2^] 
 where P=(Fo^2^+2Fc^2^)/3 
;
_atom_sites_solution_primary     ?
_atom_sites_solution_secondary   ?
_atom_sites_solution_hydrogens   geom
_refine_ls_hydrogen_treatment    constr
_refine_ls_extinction_method     none
_refine_ls_extinction_coef       .
_refine_ls_number_reflns         25727
_refine_ls_number_parameters     1369
_refine_ls_number_restraints     78
_refine_ls_R_factor_all          0.1002
_refine_ls_R_factor_gt           0.0695
_refine_ls_wR_factor_ref         0.1906
_refine_ls_wR_factor_gt          0.1763
_refine_ls_goodness_of_fit_ref   0.932
_refine_ls_restrained_S_all      0.952
_refine_ls_shift/su_max          0.001
_refine_ls_shift/su_mean         0.000

loop_
_atom_site_label
_atom_site_type_symbol
_atom_site_fract_x
_atom_site_fract_y
_atom_site_fract_z
_atom_site_U_iso_or_equiv
_atom_site_adp_type
_atom_site_occupancy
_atom_site_site_symmetry_order
_atom_site_calc_flag
_atom_site_refinement_flags_posn
_atom_site_refinement_flags_adp
_atom_site_refinement_flags_occupancy
_atom_site_disorder_assembly
_atom_site_disorder_group
Zn1A Zn 0.61793(4) 0.81471(3) 1.29718(3) 0.03627(16) Uani 1 1 d . . . . .
Cl1A Cl 0.74524(7) 0.90433(7) 1.32439(6) 0.0474(3) Uani 1 1 d . . . . .
Cl2A Cl 0.59635(10) 0.74779(8) 1.21862(5) 0.0565(3) Uani 1 1 d . . . . .
N1A N 0.4889(2) 0.8381(2) 1.30253(15) 0.0329(8) Uani 1 1 d . . . . .
N2A N 0.1378(2) 0.81718(18) 1.30453(14) 0.0281(7) Uani 1 1 d . . . . .
N3A N -0.1658(2) 0.62967(19) 1.26517(14) 0.0317(8) Uani 1 1 d . . . . .
C1A C 0.4822(3) 0.8993(2) 1.3255(2) 0.0335(10) Uani 1 1 d . . . . .
H1AA H 0.5403 0.9344 1.3396 0.040 Uiso 1 1 calc R U . . .
C2A C 0.3934(3) 0.9124(2) 1.32927(18) 0.0311(9) Uani 1 1 d . . . . .
H2AA H 0.3913 0.9561 1.3461 0.037 Uiso 1 1 calc R U . . .
C3A C 0.3082(3) 0.8630(2) 1.30888(18) 0.0328(10) Uani 1 1 d . . . . .
C4A C 0.3143(3) 0.8004(2) 1.2848(2) 0.0378(11) Uani 1 1 d . . . . .
H4AA H 0.2568 0.7649 1.2703 0.045 Uiso 1 1 calc R U . . .
C5A C 0.4054(3) 0.7896(3) 1.2820(2) 0.0382(11) Uani 1 1 d . . . . .
H5AA H 0.4090 0.7464 1.2649 0.046 Uiso 1 1 calc R U . . .
C6A C 0.2095(3) 0.8739(2) 1.31255(17) 0.0286(9) Uani 1 1 d . . . . .
C7A C 0.1928(3) 0.9375(2) 1.32122(18) 0.0330(10) Uani 1 1 d . . . . .
H7AA H 0.2455 0.9769 1.3262 0.040 Uiso 1 1 calc R U . . .
C8A C 0.0968(3) 0.9434(2) 1.32262(17) 0.0299(9) Uani 1 1 d . . . . .
C9A C 0.0236(3) 0.8834(2) 1.31433(17) 0.0306(9) Uani 1 1 d . . . . .
H9AA H -0.0422 0.8845 1.3142 0.037 Uiso 1 1 calc R U . . .
C10A C 0.0468(3) 0.8220(2) 1.30627(16) 0.0279(9) Uani 1 1 d . . . . .
C11A C -0.0699(3) 0.6351(2) 1.26988(19) 0.0364(10) Uani 1 1 d . . . . .
H11A H -0.0490 0.5950 1.2624 0.044 Uiso 1 1 calc R U . . .
C12A C -0.0014(3) 0.6962(2) 1.28498(19) 0.0350(10) Uani 1 1 d . . . . .
H12A H 0.0658 0.6978 1.2887 0.042 Uiso 1 1 calc R U . . .
C13A C -0.0295(3) 0.7560(2) 1.29488(17) 0.0294(9) Uani 1 1 d . . . . .
C14A C -0.1291(3) 0.7491(3) 1.2902(2) 0.0388(11) Uani 1 1 d . . . . .
H14A H -0.1523 0.7883 1.2971 0.047 Uiso 1 1 calc R U . . .
C15A C -0.1940(3) 0.6864(3) 1.2757(2) 0.0451(12) Uani 1 1 d . . . . .
H15A H -0.2617 0.6831 1.2729 0.054 Uiso 1 1 calc R U . . .
C16A C 0.0735(3) 1.0094(2) 1.32883(19) 0.0326(9) Uani 1 1 d . . . . .
C17A C 0.1203(3) 1.0623(2) 1.30627(18) 0.0332(10) Uani 1 1 d . . . . .
H17A H 0.1710 1.0566 1.2875 0.040 Uiso 1 1 calc R U . . .
C18A C 0.0938(3) 1.1225(2) 1.31100(19) 0.0351(10) Uani 1 1 d . . . . .
H18A H 0.1270 1.1582 1.2961 0.042 Uiso 1 1 calc R U . . .
C19A C 0.0183(3) 1.1307(2) 1.33774(18) 0.0319(9) Uani 1 1 d . . . . .
C20A C -0.0301(3) 1.0779(2) 1.35973(18) 0.0342(10) Uani 1 1 d . . . . .
H20A H -0.0812 1.0833 1.3782 0.041 Uiso 1 1 calc R U . . .
C21A C -0.0033(3) 1.0185(2) 1.35443(19) 0.0337(10) Uani 1 1 d . . . . .
H21A H -0.0378 0.9826 1.3685 0.040 Uiso 1 1 calc R U . . .
C22A C -0.0134(3) 1.1936(3) 1.34179(18) 0.0359(10) Uani 1 1 d . . . . .
C23A C 0.0533(3) 1.2586(3) 1.3545(2) 0.0412(11) Uani 1 1 d . . . . .
C24A C 0.0245(4) 1.3182(3) 1.3577(2) 0.0473(12) Uani 1 1 d . . . . .
C25A C -0.0715(5) 1.3151(3) 1.3511(2) 0.0538(15) Uani 1 1 d . . . . .
C26A C -0.1386(4) 1.2534(3) 1.33930(19) 0.0424(12) Uani 1 1 d . . . . .
C27A C -0.1093(4) 1.1951(3) 1.3352(2) 0.0399(11) Uani 1 1 d . . . . .
F1A F 0.1494(2) 1.26415(16) 1.36340(15) 0.0572(8) Uani 1 1 d . . . . .
F2A F 0.0929(3) 1.37726(16) 1.36889(15) 0.0635(9) Uani 1 1 d . . . . .
F3A F -0.1007(3) 1.37178(19) 1.35452(16) 0.0710(10) Uani 1 1 d . . . . .
F4A F -0.2348(2) 1.24976(18) 1.33120(13) 0.0556(8) Uani 1 1 d . . . . .
F5A F -0.18048(19) 1.13575(15) 1.32197(12) 0.0456(7) Uani 1 1 d . . . . .
Zn1B Zn -0.26228(4) 0.53612(3) 1.23486(2) 0.03466(15) Uani 1 1 d . . . . .
Cl1B Cl -0.37927(7) 0.51242(7) 1.28174(5) 0.0473(3) Uani 1 1 d . . . . .
Cl2B Cl -0.17869(9) 0.46070(7) 1.21857(6) 0.0551(3) Uani 1 1 d . . . . .
N1B N -0.3187(2) 0.5509(2) 1.16234(15) 0.0343(8) Uani 1 1 d . . . . .
N2B N -0.3935(3) 0.5635(2) 0.97265(16) 0.0375(9) Uani 1 1 d . . . . .
N3B N -0.3058(3) 0.4916(2) 0.79569(16) 0.0386(9) Uani 1 1 d . . . . .
C1B C -0.3830(3) 0.5897(3) 1.1587(2) 0.0398(11) Uani 1 1 d . . . . .
H1BA H -0.4024 0.6087 1.1899 0.048 Uiso 1 1 calc R U . . .
C2B C -0.4201(3) 0.6020(3) 1.1118(2) 0.0420(11) Uani 1 1 d . . . . .
H2BA H -0.4647 0.6291 1.1110 0.050 Uiso 1 1 calc R U . . .
C3B C -0.3936(3) 0.5756(2) 1.06486(19) 0.0378(10) Uani 1 1 d . . . . .
C4B C -0.3256(3) 0.5379(3) 1.0706(2) 0.0413(11) Uani 1 1 d . . . . .
H4BA H -0.3032 0.5191 1.0405 0.050 Uiso 1 1 calc R U . . .
C5B C -0.2912(3) 0.5278(3) 1.1183(2) 0.0417(11) Uani 1 1 d . . . . .
H5BA H -0.2444 0.5024 1.1203 0.050 Uiso 1 1 calc R U . . .
C6B C -0.4311(3) 0.5884(3) 1.01291(19) 0.0386(11) Uani 1 1 d . . . . .
C7B C -0.5049(3) 0.6212(3) 1.0071(2) 0.0448(12) Uani 1 1 d . . . . .
H7BA H -0.5329 0.6355 1.0364 0.054 Uiso 1 1 calc R U . . .
C8B C -0.5369(4) 0.6327(3) 0.9576(2) 0.0474(12) Uani 1 1 d . . . . .
C9B C -0.4937(3) 0.6093(3) 0.9155(2) 0.0440(12) Uani 1 1 d . . . . .
H9BA H -0.5113 0.6177 0.8816 0.053 Uiso 1 1 calc R U . . .
C10B C -0.4249(3) 0.5736(2) 0.92441(19) 0.0369(10) Uani 1 1 d . . . . .
C11B C -0.2571(3) 0.5064(3) 0.8441(2) 0.0505(14) Uani 1 1 d . . . . .
H11B H -0.1936 0.4999 0.8494 0.061 Uiso 1 1 calc R U . . .
C12B C -0.2929(3) 0.5311(3) 0.8881(2) 0.0512(13) Uani 1 1 d . . . . .
H12B H -0.2561 0.5394 0.9225 0.061 Uiso 1 1 calc R U . . .
C13B C -0.3839(3) 0.5429(2) 0.8799(2) 0.0374(10) Uani 1 1 d . . . . .
C14B C -0.4350(3) 0.5273(2) 0.82877(19) 0.0359(10) Uani 1 1 d . . . . .
H14B H -0.4983 0.5339 0.8223 0.043 Uiso 1 1 calc R U . . .
C15B C -0.3960(3) 0.5029(2) 0.78809(18) 0.0356(10) Uani 1 1 d . . . . .
H15B H -0.4321 0.4934 0.7534 0.043 Uiso 1 1 calc R U . . .
C16B C -0.6167(4) 0.6664(4) 0.9483(2) 0.0559(15) Uani 1 1 d . . . . .
C17B C -0.6357(6) 0.7136(5) 0.9881(3) 0.092(3) Uani 1 1 d . U . . .
H17B H -0.5922 0.7282 1.0209 0.110 Uiso 1 1 calc R U . . .
C18B C -0.7137(7) 0.7389(6) 0.9812(4) 0.116(3) Uani 1 1 d . U . . .
H18B H -0.7264 0.7689 1.0094 0.139 Uiso 1 1 calc R U . . .
C19B C -0.7758(6) 0.7203(5) 0.9320(2) 0.086(3) Uani 1 1 d . . . . .
C20B C -0.7535(5) 0.6803(4) 0.8923(2) 0.0671(19) Uani 1 1 d . . . . .
H20B H -0.7921 0.6702 0.8582 0.081 Uiso 1 1 calc R U . . .
C21B C -0.6757(5) 0.6539(4) 0.9005(2) 0.0667(18) Uani 1 1 d . . . . .
H21B H -0.6620 0.6255 0.8717 0.080 Uiso 1 1 calc R U . . .
C22B C -0.8627(6) 0.7472(6) 0.9232(2) 0.089(3) Uani 1 1 d . . . . .
C23B C -0.8544(7) 0.8139(6) 0.9302(3) 0.097(3) Uani 1 1 d . U . . .
C24B C -0.9324(9) 0.8463(7) 0.9232(4) 0.126(3) Uani 1 1 d . U . . .
C25B C -1.0290(9) 0.7924(9) 0.9106(4) 0.129(3) Uani 1 1 d . U . . .
C26B C -1.0380(7) 0.7290(8) 0.9022(3) 0.112(3) Uani 1 1 d . U . . .
C27B C -0.9553(8) 0.7061(8) 0.9083(3) 0.114(4) Uani 1 1 d . U . . .
F1B F -0.7599(5) 0.8659(4) 0.9450(2) 0.123(2) Uani 1 1 d . U . . .
F2B F -0.9169(5) 0.9123(4) 0.9331(2) 0.150(3) Uani 1 1 d . U . . .
F3B F -1.1004(4) 0.8238(4) 0.9041(2) 0.160(3) Uani 1 1 d . U . . .
F4B F -1.1245(4) 0.6900(4) 0.8894(2) 0.144(2) Uani 1 1 d . U . . .
F5B F -0.9692(4) 0.6403(5) 0.9015(2) 0.129(2) Uani 1 1 d . U . . .
Zn1C Zn -0.24011(4) 0.47189(3) 0.73269(3) 0.04015(16) Uani 1 1 d . . . . .
Cl1C Cl -0.34123(9) 0.45689(8) 0.65783(5) 0.0526(3) Uani 1 1 d . . . . .
Cl2C Cl -0.15655(10) 0.39844(8) 0.74792(8) 0.0710(5) Uani 1 1 d . . . . .
N1C N -0.1426(3) 0.5675(2) 0.74911(17) 0.0398(9) Uani 1 1 d . . . . .
N2C N 0.1572(2) 0.7582(2) 0.78916(15) 0.0371(9) Uani 1 1 d . . . . .
N3C N 0.5104(2) 0.7841(2) 0.79136(14) 0.0325(8) Uani 1 1 d . . . . .
C1C C -0.0478(3) 0.5743(3) 0.7533(2) 0.0397(11) Uani 1 1 d . . . . .
H1CA H -0.0255 0.5347 0.7472 0.048 Uiso 1 1 calc R U . . .
C2C C 0.0194(3) 0.6359(3) 0.7659(2) 0.0411(11) Uani 1 1 d . . . . .
H2CA H 0.0870 0.6385 0.7699 0.049 Uiso 1 1 calc R U . . .
C3C C -0.0113(3) 0.6953(2) 0.77306(17) 0.0341(10) Uani 1 1 d . . . . .
C4C C -0.1109(3) 0.6868(3) 0.7685(2) 0.0406(11) Uani 1 1 d . . . . .
H4CA H -0.1358 0.7254 0.7738 0.049 Uiso 1 1 calc R U . . .
C5C C -0.1725(3) 0.6240(3) 0.7565(2) 0.0448(12) Uani 1 1 d . . . . .
H5CA H -0.2405 0.6197 0.7531 0.054 Uiso 1 1 calc R U . . .
C6C C 0.0631(3) 0.7621(2) 0.78557(18) 0.0333(10) Uani 1 1 d . . . . .
C7C C 0.0391(3) 0.8229(2) 0.79171(17) 0.0333(10) Uani 1 1 d . . . . .
H7CA H -0.0269 0.8239 0.7903 0.040 Uiso 1 1 calc R U . . .
C8C C 0.1137(3) 0.8834(3) 0.80013(18) 0.0374(10) Uani 1 1 d . . . . .
C9C C 0.2102(3) 0.8790(3) 0.80313(19) 0.0398(11) Uani 1 1 d . . . . .
H9CA H 0.2628 0.9187 0.8089 0.048 Uiso 1 1 calc R U . . .
C10C C 0.2271(3) 0.8160(3) 0.79755(18) 0.0351(10) Uani 1 1 d . . . . .
C11C C 0.5007(3) 0.8471(3) 0.8092(2) 0.0389(11) Uani 1 1 d . . . . .
H11C H 0.5573 0.8843 0.8195 0.047 Uiso 1 1 calc R U . . .
C12C C 0.4123(3) 0.8579(3) 0.8128(2) 0.0388(11) Uani 1 1 d . . . . .
H12C H 0.4081 0.9026 0.8255 0.047 Uiso 1 1 calc R U . . .
C13C C 0.3273(3) 0.8050(3) 0.79799(19) 0.0370(10) Uani 1 1 d . . . . .
C14C C 0.3390(3) 0.7416(3) 0.7805(2) 0.0434(12) Uani 1 1 d . . . . .
H14C H 0.2835 0.7036 0.7702 0.052 Uiso 1 1 calc R U . . .
C15C C 0.4298(3) 0.7331(3) 0.7779(2) 0.0415(11) Uani 1 1 d . . . . .
H15C H 0.4356 0.6887 0.7660 0.050 Uiso 1 1 calc R U . . .
C16C C 0.0920(3) 0.9498(2) 0.8042(2) 0.0377(10) Uani 1 1 d . . . . .
C17C C 0.1465(3) 1.0012(3) 0.7833(2) 0.0422(11) Uani 1 1 d . . . . .
H17C H 0.1963 0.9927 0.7647 0.051 Uiso 1 1 calc R U . . .
C18C C 0.1283(3) 1.0638(3) 0.7894(2) 0.0449(12) Uani 1 1 d . . . . .
H18C H 0.1668 1.0979 0.7752 0.054 Uiso 1 1 calc R U . . .
C19C C 0.0561(3) 1.0789(2) 0.81555(19) 0.0374(10) Uani 1 1 d . . . . .
C20C C -0.0005(3) 1.0262(3) 0.8359(2) 0.0395(11) Uani 1 1 d . . . . .
H20C H -0.0509 1.0344 0.8540 0.047 Uiso 1 1 calc R U . . .
C21C C 0.0174(3) 0.9638(2) 0.82951(19) 0.0350(10) Uani 1 1 d . . . . .
H21C H -0.0221 0.9290 0.8427 0.042 Uiso 1 1 calc R U . . .
C22C C 0.0420(3) 1.1471(3) 0.82454(18) 0.0401(11) Uani 1 1 d . . . . .
C23C C 0.1155(4) 1.2058(3) 0.8389(2) 0.0482(13) Uani 1 1 d . . . . .
C24C C 0.1013(6) 1.2697(3) 0.8451(2) 0.0638(18) Uani 1 1 d . . . . .
C25C C 0.0089(5) 1.2774(3) 0.8397(2) 0.0577(15) Uani 1 1 d . . . . .
C26C C -0.0664(5) 1.2219(3) 0.8256(2) 0.0563(15) Uani 1 1 d . . . . .
C27C C -0.0520(4) 1.1576(3) 0.8185(2) 0.0446(12) Uani 1 1 d . . . . .
F1C F 0.2095(2) 1.2010(2) 0.84738(17) 0.0763(11) Uani 1 1 d . . . . .
F2C F 0.1789(3) 1.3246(2) 0.85940(19) 0.0931(14) Uani 1 1 d . . . . .
F3C F -0.0028(4) 1.3408(2) 0.84654(17) 0.0874(13) Uani 1 1 d . . . . .
F4C F -0.1595(3) 1.2283(2) 0.81977(16) 0.0729(10) Uani 1 1 d . . . . .
F5C F -0.1302(2) 1.10587(17) 0.80339(13) 0.0541(8) Uani 1 1 d . . . . .
Zn1D Zn 0.64128(4) 0.76465(3) 0.78223(2) 0.03409(15) Uani 1 1 d . . . . .
Cl1D Cl 0.65311(9) 0.68598(7) 0.82796(5) 0.0476(3) Uani 1 1 d . . . . .
Cl2D Cl 0.76337(8) 0.85610(7) 0.79264(5) 0.0494(3) Uani 1 1 d . . . . .
N1D N 0.6199(2) 0.7155(2) 0.70415(16) 0.0385(9) Uani 1 1 d . . . . .
N2D N 0.6341(2) 0.6551(2) 0.51248(16) 0.0355(8) Uani 1 1 d . . . . .
N3D N 0.6249(2) 0.7524(2) 0.35056(16) 0.0339(8) Uani 1 1 d . . . . .
C1D C 0.5930(3) 0.6489(3) 0.68947(19) 0.0388(11) Uani 1 1 d . . . . .
H1DA H 0.5703 0.6232 0.7142 0.047 Uiso 1 1 calc R U . . .
C2D C 0.5959(3) 0.6149(3) 0.6406(2) 0.0436(11) Uani 1 1 d . . . . .
H2DA H 0.57