####################################################################### 
# 
# This file contains crystal structure data downloaded from the 
# Cambridge Structural Database (CSD) hosted by the Cambridge 
# Crystallographic Data Centre (CCDC).
# 
# Full information about CCDC data access policies and citation 
# guidelines are available at http://www.ccdc.cam.ac.uk/access/V1 
# 
# Audit and citation data items may have been added by the CCDC. 
# Please retain this information to preserve the provenance of 
# this file and to allow appropriate attribution of the data. 
# 
#######################################################################

data_ssg1356
_audit_block_doi                 10.5517/ccrbtxs
_database_code_depnum_ccdc_archive 'CCDC 695606'
loop_
_citation_id
_citation_doi
_citation_year
1 10.1039/b812366g 2008
_audit_update_record             
;
2008-07-18 deposited with the CCDC.	2024-07-12 downloaded from the CCDC.
;

_audit_creation_method           SHELXL-97
_chemical_name_systematic        
;
?
;
_chemical_name_common            ?
_chemical_melting_point          ?
_chemical_formula_moiety         'C22 H18 N2 O10 Zn2, 4 C3 H7 N O'
_chemical_formula_sum            'C34 H46 N6 O14 Zn2'
_chemical_formula_weight         893.51
_chemical_absolute_configuration ad

loop_
_atom_type_symbol
_atom_type_description
_atom_type_scat_dispersion_real
_atom_type_scat_dispersion_imag
_atom_type_scat_source
C C 0.0033 0.0016 'International Tables Vol C Tables 4.2.6.8 and 6.1.1.4'
H H 0.0000 0.0000 'International Tables Vol C Tables 4.2.6.8 and 6.1.1.4'
N N 0.0061 0.0033 'International Tables Vol C Tables 4.2.6.8 and 6.1.1.4'
O O 0.0106 0.0060 'International Tables Vol C Tables 4.2.6.8 and 6.1.1.4'
Zn Zn 0.2839 1.4301 'International Tables Vol C Tables 4.2.6.8 and 6.1.1.4'

_symmetry_cell_setting           monoclinic
_symmetry_space_group_name_H-M   'P 21'

loop_
_symmetry_equiv_pos_as_xyz
'x, y, z'
'-x, y+1/2, -z'

_cell_length_a                   8.7994(6)
_cell_length_b                   53.888(3)
_cell_length_c                   8.8039(6)
_cell_angle_alpha                90.00
_cell_angle_beta                 90.111(2)
_cell_angle_gamma                90.00
_cell_volume                     4174.6(5)
_cell_formula_units_Z            4
_cell_measurement_temperature    120(2)
_cell_measurement_reflns_used    9919
_cell_measurement_theta_min      2.24
_cell_measurement_theta_max      27.42

_exptl_crystal_description       block
_exptl_crystal_colour            colourless
_exptl_crystal_size_max          0.03
_exptl_crystal_size_mid          0.02
_exptl_crystal_size_min          0.02
_exptl_crystal_density_meas      ?
_exptl_crystal_density_diffrn    1.422
_exptl_crystal_density_method    'not measured'
_exptl_crystal_F_000             1856
_exptl_absorpt_coefficient_mu    1.218
_exptl_absorpt_correction_type   multi-scan
_exptl_absorpt_correction_T_min  0.965
_exptl_absorpt_correction_T_max  0.980
_exptl_absorpt_process_details   SADABS

_exptl_special_details           
;
?
;

_diffrn_ambient_temperature      120(2)
_diffrn_radiation_wavelength     0.6893
_diffrn_radiation_type           synchrotron
_diffrn_radiation_source         'Daresbury SRS station 9.8'
_diffrn_radiation_monochromator  'silicon 111'
_diffrn_measurement_device_type  'Bruker APEX2 CCD diffractometer'
_diffrn_measurement_method       'thin-slice \w scans'
_diffrn_detector_area_resol_mean ?
_diffrn_standards_number         0
_diffrn_standards_interval_count ?
_diffrn_standards_interval_time  ?
_diffrn_standards_decay_%        5
_diffrn_reflns_number            31223
_diffrn_reflns_av_R_equivalents  0.0326
_diffrn_reflns_av_sigmaI/netI    0.0465
_diffrn_reflns_limit_h_min       -10
_diffrn_reflns_limit_h_max       10
_diffrn_reflns_limit_k_min       -64
_diffrn_reflns_limit_k_max       64
_diffrn_reflns_limit_l_min       -10
_diffrn_reflns_limit_l_max       10
_diffrn_reflns_theta_min         2.20
_diffrn_reflns_theta_max         24.22
_reflns_number_total             14545
_reflns_number_gt                14227
_reflns_threshold_expression     I>2\s(I)

_computing_data_collection       'Bruker APEX2'
_computing_cell_refinement       'Bruker SAINT'
_computing_data_reduction        'Bruker SAINT'
_computing_structure_solution    'Bruker SHELXTL'
_computing_structure_refinement  'Bruker SHELXTL'
_computing_molecular_graphics    'Bruker SHELXTL'
_computing_publication_material  'Bruker SHELXTL and local programs'

_refine_special_details          
;
Refinement of F^2^ against ALL reflections. The weighted R-factor wR and
goodness of fit S are based on F^2^, conventional R-factors R are based
on F, with F set to zero for negative F^2^. The threshold expression of
F^2^ > 2sigma(F^2^) is used only for calculating R-factors(gt) etc. and is
not relevant to the choice of reflections for refinement. R-factors based
on F^2^ are statistically about twice as large as those based on F, and R-
factors based on ALL data will be even larger.

Group site occupancy factors were refined for all DMF solvent molecules.
Six of them gave values significantly lower than 1, indicating partial
occupancy, but the positions appear to be ordered. The other two gave
values essentially equal to 1 (one below 1 and one above 1, but the
deviations are only about 1sigma, so they are insignificant), indicating
full occupancy and ordered molecules. An occupancy factor >1 is physically
unrealistic, but since the excess is statistically insignificantly different
from zero this is acceptable, and we prefer to leave the refined value in
the result rather than fixing the occupancy at exactly 1 in order to
provide clear evidence from the experimental data of the occupancy of
all four sites.
;

_refine_ls_structure_factor_coef Fsqd
_refine_ls_matrix_type           full
_refine_ls_weighting_scheme      calc
_refine_ls_weighting_details     
'calc w=1/[\s^2^(Fo^2^)+(0.0959P)^2^+4.1691P] where P=(Fo^2^+2Fc^2^)/3'
_atom_sites_solution_primary     direct
_atom_sites_solution_secondary   difmap
_atom_sites_solution_hydrogens   geom
_refine_ls_hydrogen_treatment    constr
_refine_ls_extinction_method     none
_refine_ls_extinction_coef       ?
_refine_ls_abs_structure_details 'Flack H D (1983), Acta Cryst. A39, 876-881'
_refine_ls_abs_structure_Flack   0.095(19)
_refine_ls_number_reflns         14545
_refine_ls_number_parameters     1018
_refine_ls_number_restraints     1501
_refine_ls_R_factor_all          0.0595
_refine_ls_R_factor_gt           0.0585
_refine_ls_wR_factor_ref         0.1514
_refine_ls_wR_factor_gt          0.1503
_refine_ls_goodness_of_fit_ref   1.063
_refine_ls_restrained_S_all      1.072
_refine_ls_shift/su_max          0.013
_refine_ls_shift/su_mean         0.001

loop_
_atom_site_label
_atom_site_type_symbol
_atom_site_fract_x
_atom_site_fract_y
_atom_site_fract_z
_atom_site_U_iso_or_equiv
_atom_site_adp_type
_atom_site_occupancy
_atom_site_symmetry_multiplicity
_atom_site_calc_flag
_atom_site_refinement_flags
_atom_site_disorder_assembly
_atom_site_disorder_group
Zn1 Zn 0.26565(16) 0.253511(15) 0.17697(9) 0.0431(3) Uani 1 1 d . . .
Zn2 Zn 0.22756(17) 0.197880(15) 0.21188(9) 0.0504(3) Uani 1 1 d . . .
Zn3 Zn 0.56839(13) 0.451517(14) 0.33714(9) 0.0323(2) Uani 1 1 d . . .
Zn4 Zn 0.60378(12) 0.505930(14) 0.37088(9) 0.0321(2) Uani 1 1 d . . .
N1 N 0.3142(11) 0.29088(11) 0.1707(7) 0.049(2) Uani 1 1 d DU . .
N2 N 0.5261(9) 0.41544(12) 0.2923(7) 0.0360(16) Uani 1 1 d DU . .
C1 C 0.3085(10) 0.30632(13) 0.0475(8) 0.0327(17) Uani 1 1 d DU . .
C2 C 0.2340(14) 0.29528(15) -0.0845(10) 0.048(2) Uani 1 1 d DU . .
H2A H 0.1270 0.2931 -0.0619 0.058 Uiso 1 1 calc R . .
H2B H 0.2771 0.2790 -0.1020 0.058 Uiso 1 1 calc R . .
C3 C 0.2496(13) 0.31128(14) -0.2368(9) 0.044(2) Uani 1 1 d DU . .
H3A H 0.3484 0.3085 -0.2824 0.053 Uiso 1 1 calc R . .
H3B H 0.1720 0.3064 -0.3091 0.053 Uiso 1 1 calc R . .
C4 C 0.2318(11) 0.33786(14) -0.1978(8) 0.0394(18) Uani 1 1 d DU . .
H4 H 0.1311 0.3403 -0.1529 0.047 Uiso 1 1 calc R . .
C5 C 0.3527(10) 0.34693(15) -0.0841(8) 0.0351(17) Uani 1 1 d DU . .
H5 H 0.3311 0.3642 -0.0561 0.042 Uiso 1 1 calc R . .
C6 C 0.3548(10) 0.33098(12) 0.0583(7) 0.0313(17) Uani 1 1 d DU . .
C7 C 0.4109(11) 0.34006(13) 0.1955(9) 0.0373(18) Uani 1 1 d DU . .
C8 C 0.4198(12) 0.32362(15) 0.3183(9) 0.045(2) Uani 1 1 d DU . .
H8 H 0.4558 0.3291 0.4118 0.054 Uiso 1 1 calc R . .
C9 C 0.3750(14) 0.29929(14) 0.3004(9) 0.047(2) Uani 1 1 d DU . .
H9 H 0.3873 0.2883 0.3811 0.057 Uiso 1 1 calc R . .
C10 C 0.4275(13) 0.40249(15) 0.3805(9) 0.043(2) Uani 1 1 d DU . .
H10 H 0.3850 0.4103 0.4644 0.052 Uiso 1 1 calc R . .
C11 C 0.3880(13) 0.37832(16) 0.3508(9) 0.048(2) Uani 1 1 d DU . .
H11 H 0.3190 0.3701 0.4129 0.057 Uiso 1 1 calc R . .
C12 C 0.4532(11) 0.36604(13) 0.2248(8) 0.0347(16) Uani 1 1 d DU . .
C13 C 0.5536(12) 0.37931(15) 0.1372(10) 0.044(2) Uani 1 1 d DU . .
H13 H 0.6007 0.3718 0.0547 0.053 Uiso 1 1 calc R . .
C14 C 0.5845(13) 0.40376(16) 0.1720(10) 0.044(2) Uani 1 1 d DU . .
H14 H 0.6493 0.4126 0.1083 0.052 Uiso 1 1 calc R . .
O1 O 0.2395(10) 0.35149(11) -0.3354(6) 0.056(2) Uani 1 1 d DU . .
H1 H 0.2299 0.3663 -0.3172 0.084 Uiso 1 1 calc R . .
O2 O 0.5013(9) 0.34543(13) -0.1478(7) 0.0515(17) Uani 1 1 d DU . .
H2 H 0.5050 0.3539 -0.2253 0.077 Uiso 1 1 calc R . .
N3 N 0.2272(11) 0.16084(13) 0.2773(8) 0.059(2) Uani 1 1 d DU . .
N4 N 0.3557(10) 0.04165(11) 0.5672(7) 0.0392(18) Uani 1 1 d DU . .
C15 C 0.1126(12) 0.14494(17) 0.2659(12) 0.059(2) Uani 1 1 d DU . .
C16 C -0.0133(16) 0.1535(3) 0.177(2) 0.100(4) Uani 1 1 d DU . .
H16A H 0.0030 0.1494 0.0708 0.120 Uiso 1 1 calc R . .
H16B H -0.0225 0.1713 0.1856 0.120 Uiso 1 1 calc R . .
C17 C -0.1709(16) 0.1400(2) 0.2378(17) 0.086(3) Uani 1 1 d DU . .
H17A H -0.1929 0.1446 0.3420 0.104 Uiso 1 1 calc R . .
H17B H -0.2571 0.1443 0.1741 0.104 Uiso 1 1 calc R . .
C18 C -0.1315(14) 0.1127(2) 0.2247(16) 0.081(3) Uani 1 1 d DU . .
H18 H -0.0949 0.1078 0.1240 0.097 Uiso 1 1 calc R . .
C19 C -0.0171(14) 0.1064(2) 0.3583(13) 0.076(3) Uani 1 1 d DU . .
H19 H 0.0089 0.0888 0.3528 0.092 Uiso 1 1 calc R . .
C20 C 0.1263(12) 0.12153(17) 0.3273(13) 0.061(2) Uani 1 1 d DU . .
C21 C 0.2560(12) 0.11416(14) 0.3996(9) 0.049(2) Uani 1 1 d DU . .
C22 C 0.3758(17) 0.1305(2) 0.4075(19) 0.091(4) Uani 1 1 d DU . .
H22 H 0.4704 0.1255 0.4440 0.110 Uiso 1 1 calc R . .
C23 C 0.3493(19) 0.1550(2) 0.358(2) 0.102(4) Uani 1 1 d DU . .
H23 H 0.4192 0.1673 0.3822 0.123 Uiso 1 1 calc R . .
C24 C 0.419(2) 0.0504(2) 0.4421(15) 0.087(4) Uani 1 1 d DU . .
H24 H 0.4699 0.0393 0.3795 0.105 Uiso 1 1 calc R . .
C25 C 0.4137(17) 0.0754(2) 0.3979(13) 0.075(3) Uani 1 1 d DU . .
H25 H 0.4862 0.0829 0.3362 0.090 Uiso 1 1 calc R . .
C26 C 0.2830(12) 0.08830(14) 0.4588(9) 0.046(2) Uani 1 1 d DU . .
C27 C 0.2167(12) 0.07943(17) 0.5864(11) 0.051(2) Uani 1 1 d DU . .
H27 H 0.1402 0.0884 0.6346 0.061 Uiso 1 1 calc R . .
C28 C 0.2658(14) 0.05637(17) 0.6452(12) 0.054(3) Uani 1 1 d DU . .
H28 H 0.2338 0.0515 0.7413 0.065 Uiso 1 1 calc R . .
O3 O -0.2672(14) 0.1007(3) 0.2687(18) 0.131(5) Uani 1 1 d DU . .
H3 H -0.2555 0.0856 0.2643 0.197 Uiso 1 1 calc R . .
O4 O -0.0602(16) 0.1122(2) 0.5126(13) 0.133(5) Uani 1 1 d DU . .
H4A H -0.1371 0.1044 0.5348 0.199 Uiso 1 1 calc R . .
O5 O 0.4824(12) 0.24364(12) 0.2070(8) 0.065(2) Uani 1 1 d U . .
O6 O 0.4609(11) 0.20194(13) 0.1930(8) 0.066(2) Uani 1 1 d U . .
O7 O 1.0420(10) 0.25418(12) 0.1570(7) 0.0579(18) Uani 1 1 d U . .
O8 O 1.0227(14) 0.21371(14) 0.2130(11) 0.083(3) Uani 1 1 d U . .
C29 C 0.5390(15) 0.22160(16) 0.1981(11) 0.050(2) Uani 1 1 d U . .
C30 C 0.7013(16) 0.2182(2) 0.2009(11) 0.059(2) Uani 1 1 d U . .
H30 H 0.7403 0.2023 0.2091 0.071 Uiso 1 1 calc R . .
C31 C 0.7977(16) 0.23737(18) 0.1919(11) 0.055(2) Uani 1 1 d U . .
H31 H 0.7578 0.2533 0.1864 0.066 Uiso 1 1 calc R . .
C32 C 0.9635(17) 0.2344(2) 0.1904(12) 0.062(2) Uani 1 1 d U . .
O9 O 0.2759(11) 0.23661(12) -0.0313(7) 0.059(2) Uani 1 1 d U . .
O10 O 0.2208(9) 0.19626(12) -0.0155(6) 0.0478(16) Uani 1 1 d U . .
O11 O 0.2427(10) 0.24973(12) -0.5924(6) 0.056(2) Uani 1 1 d U . .
O12 O 0.2471(14) 0.20947(12) -0.5689(7) 0.079(3) Uani 1 1 d U . .
C33 C 0.2446(13) 0.21603(14) -0.0882(9) 0.038(2) Uani 1 1 d U . .
C34 C 0.2512(13) 0.21383(16) -0.2561(9) 0.043(2) Uani 1 1 d U . .
H34 H 0.2615 0.1981 -0.2980 0.051 Uiso 1 1 calc R . .
C35 C 0.2432(14) 0.23330(16) -0.3508(10) 0.047(2) Uani 1 1 d U . .
H35 H 0.2347 0.2492 -0.3099 0.056 Uiso 1 1 calc R . .
C36 C 0.2473(14) 0.23049(16) -0.5146(10) 0.047(2) Uani 1 1 d U . .
O13 O 0.7968(10) 0.45298(14) 0.3474(11) 0.065(2) Uani 1 1 d U . .
O14 O 0.8195(10) 0.49326(15) 0.3641(10) 0.060(2) Uani 1 1 d U . .
O15 O 1.3519(11) 0.46474(14) 0.3469(11) 0.067(2) Uani 1 1 d U . .
O16 O 1.3738(10) 0.50548(16) 0.3594(11) 0.073(2) Uani 1 1 d U . .
C37 C 0.8666(13) 0.47205(17) 0.3582(10) 0.0393(19) Uani 1 1 d U . .
C38 C 1.0429(13) 0.46949(18) 0.3570(11) 0.046(2) Uani 1 1 d U . .
H38 H 1.0853 0.4537 0.3539 0.056 Uiso 1 1 calc R . .
C39 C 1.1306(13) 0.48811(17) 0.3601(12) 0.049(2) Uani 1 1 d U . .
H39 H 1.0877 0.5038 0.3669 0.058 Uiso 1 1 calc R . .
C40 C 1.2983(13) 0.48607(19) 0.3535(11) 0.048(2) Uani 1 1 d U . .
O17 O 0.5818(12) 0.46478(14) 0.1229(7) 0.061(2) Uani 1 1 d U . .
O18 O 0.6030(11) 0.50538(13) 0.1416(6) 0.062(2) Uani 1 1 d U . .
O19 O 0.5648(10) 0.45112(12) -0.4333(6) 0.060(2) Uani 1 1 d U . .
O20 O 0.5890(12) 0.49270(12) -0.4158(7) 0.065(3) Uani 1 1 d U . .
C41 C 0.5966(12) 0.48574(17) 0.0695(9) 0.038(2) Uani 1 1 d U . .
C42 C 0.5865(12) 0.48791(16) -0.1006(10) 0.041(2) Uani 1 1 d U . .
H42 H 0.5819 0.5037 -0.1435 0.050 Uiso 1 1 calc R . .
C43 C 0.5840(13) 0.46864(15) -0.1905(9) 0.043(2) Uani 1 1 d U . .
H43 H 0.5815 0.4529 -0.1476 0.052 Uiso 1 1 calc R . .
C44 C 0.5849(13) 0.47094(17) -0.3576(10) 0.044(2) Uani 1 1 d U . .
O21 O 0.6050(12) 0.39132(16) 0.7675(9) 0.078(3) Uani 1.013(14) 1 d PDU . .
N5 N 0.7950(12) 0.38402(17) 0.5948(12) 0.071(3) Uani 1.013(14) 1 d PDU . .
C45 C 0.6918(12) 0.3985(2) 0.6656(11) 0.057(3) Uani 1.013(14) 1 d PDU . .
H45 H 0.6853 0.4150 0.6358 0.069 Uiso 1.013(14) 1 calc PR . .
C46 C 0.800(2) 0.3576(2) 0.623(2) 0.117(6) Uani 1.013(14) 1 d PDU . .
H46A H 0.8808 0.3504 0.5641 0.176 Uiso 1.013(14) 1 calc PR . .
H46B H 0.7052 0.3503 0.5935 0.176 Uiso 1.013(14) 1 calc PR . .
H46C H 0.8182 0.3546 0.7286 0.176 Uiso 1.013(14) 1 calc PR . .
C47 C 0.8848(16) 0.3935(3) 0.4712(13) 0.073(3) Uani 1.013(14) 1 d PDU . .
H47A H 0.9516 0.3808 0.4349 0.109 Uiso 1.013(14) 1 calc PR . .
H47B H 0.9437 0.4074 0.5060 0.109 Uiso 1.013(14) 1 calc PR . .
H47C H 0.8188 0.3988 0.3903 0.109 Uiso 1.013(14) 1 calc PR . .
O22 O -0.008(2) 0.3598(3) 0.1115(14) 0.150(7) Uani 0.988(16) 1 d PDU . .
N6 N -0.0602(16) 0.3241(2) 0.2335(15) 0.104(4) Uani 0.988(16) 1 d PDU . .
C48 C 0.019(2) 0.3460(3) 0.215(2) 0.115(5) Uani 0.988(16) 1 d PDU . .
H48 H 0.0953 0.3501 0.2845 0.138 Uiso 0.988(16) 1 calc PR . .
C49 C -0.166(2) 0.3152(4) 0.120(2) 0.125(6) Uani 0.988(16) 1 d PDU . .
H49A H -0.2090 0.2997 0.1537 0.187 Uiso 0.988(16) 1 calc PR . .
H49B H -0.1136 0.3127 0.0261 0.187 Uiso 0.988(16) 1 calc PR . .
H49C H -0.2456 0.3272 0.1065 0.187 Uiso 0.988(16) 1 calc PR . .
C50 C -0.039(3) 0.3096(4) 0.3676(19) 0.126(6) Uani 0.988(16) 1 d PDU . .
H50A H -0.1020 0.2951 0.3621 0.189 Uiso 0.988(16) 1 calc PR . .
H50B H -0.0675 0.3193 0.4549 0.189 Uiso 0.988(16) 1 calc PR . .
H50C H 0.0653 0.3048 0.3759 0.189 Uiso 0.988(16) 1 calc PR . .
O23 O 0.657(3) 0.2967(4) 0.5346(15) 0.166(9) Uani 0.89(2) 1 d PDU . .
N7 N 0.661(3) 0.2684(3) 0.7069(16) 0.130(7) Uani 0.89(2) 1 d PDU . .
C51 C 0.651(3) 0.2937(3) 0.6719(19) 0.122(6) Uani 0.89(2) 1 d PDU . .
H51 H 0.6417 0.3064 0.7429 0.146 Uiso 0.89(2) 1 calc PR . .
C52 C 0.666(3) 0.2519(4) 0.583(2) 0.132(7) Uani 0.89(2) 1 d PDU . .
H52A H 0.6769 0.2611 0.4904 0.198 Uiso 0.89(2) 1 calc PR . .
H52B H 0.5740 0.2424 0.5797 0.198 Uiso 0.89(2) 1 calc PR . .
H52C H 0.7513 0.2409 0.5946 0.198 Uiso 0.89(2) 1 calc PR . .
C53 C 0.639(3) 0.2631(4) 0.8593(19) 0.132(7) Uani 0.89(2) 1 d PDU . .
H53A H 0.6400 0.2454 0.8737 0.198 Uiso 0.89(2) 1 calc PR . .
H53B H 0.5426 0.2696 0.8910 0.198 Uiso 0.89(2) 1 calc PR . .
H53C H 0.7186 0.2705 0.9185 0.198 Uiso 0.89(2) 1 calc PR . .
O24 O 0.623(3) 0.2037(4) 0.856(2) 0.096(8) Uani 0.433(15) 1 d PDU . .
N8 N 0.7751(18) 0.1820(3) 0.6932(17) 0.051(4) Uani 0.433(15) 1 d PDU . .
C54 C 0.751(3) 0.1955(5) 0.823(2) 0.070(6) Uani 0.433(15) 1 d PDU . .
H54 H 0.8324 0.1987 0.8877 0.084 Uiso 0.433(15) 1 calc PR . .
C55 C 0.656(2) 0.1776(5) 0.585(2) 0.053(6) Uani 0.433(15) 1 d PDU . .
H55A H 0.6965 0.1686 0.4997 0.080 Uiso 0.433(15) 1 calc PR . .
H55B H 0.6158 0.1931 0.5502 0.080 Uiso 0.433(15) 1 calc PR . .
H55C H 0.5769 0.1680 0.6314 0.080 Uiso 0.433(15) 1 calc PR . .
C56 C 0.925(2) 0.1743(5) 0.659(3) 0.074(7) Uani 0.433(15) 1 d PDU . .
H56A H 0.9260 0.1658 0.5633 0.111 Uiso 0.433(15) 1 calc PR . .
H56B H 0.9610 0.1633 0.7373 0.111 Uiso 0.433(15) 1 calc PR . .
H56C H 0.9905 0.1885 0.6539 0.111 Uiso 0.433(15) 1 calc PR . .
O25 O 0.285(2) 0.0927(2) -0.0011(15) 0.076(5) Uani 0.553(17) 1 d PDU . .
N9 N 0.386(2) 0.1303(3) -0.0590(17) 0.084(6) Uani 0.553(17) 1 d PDU . .
C57 C 0.400(3) 0.1049(4) -0.028(4) 0.124(8) Uani 0.553(17) 1 d PDU . .
H57 H 0.4949 0.0974 -0.0272 0.149 Uiso 0.553(17) 1 calc PR . .
C58 C 0.494(3) 0.1477(5) 0.004(3) 0.100(8) Uani 0.553(17) 1 d PDU . .
H58A H 0.4742 0.1640 -0.0368 0.150 Uiso 0.553(17) 1 calc PR . .
H58B H 0.5952 0.1427 -0.0220 0.150 Uiso 0.553(17) 1 calc PR . .
H58C H 0.4835 0.1482 0.1125 0.150 Uiso 0.553(17) 1 calc PR . .
C59 C 0.286(3) 0.1375(5) -0.176(3) 0.091(7) Uani 0.553(17) 1 d PDU . .
H59A H 0.2934 0.1551 -0.1909 0.137 Uiso 0.553(17) 1 calc PR . .
H59B H 0.1836 0.1334 -0.