####################################################################### 
# 
# This file contains crystal structure data downloaded from the 
# Cambridge Structural Database (CSD) hosted by the Cambridge 
# Crystallographic Data Centre (CCDC).
# 
# Full information about CCDC data access policies and citation 
# guidelines are available at http://www.ccdc.cam.ac.uk/access/V1 
# 
# Audit and citation data items may have been added by the CCDC. 
# Please retain this information to preserve the provenance of 
# this file and to allow appropriate attribution of the data. 
# 
#######################################################################

data_compound3
_audit_block_doi                 10.5517/cc125gtj
_database_code_depnum_ccdc_archive 'CCDC 988367'
loop_
_citation_id
_citation_doi
_citation_year
1 10.1021/ic500900n 2014
_audit_update_record             
;
2014-02-24 deposited with the CCDC.	2024-07-12 downloaded from the CCDC.
;

_audit_creation_method           SHELXL-97
_chemical_name_systematic        
;
 ?
;
_chemical_name_common            ?
_chemical_melting_point          ?
_chemical_formula_moiety         'C51 H33 N6 O8 Zn2'
_chemical_formula_sum            'C51 H33 N6 O8 Zn2'
_chemical_formula_weight         988.57

loop_
_atom_type_symbol
_atom_type_description
_atom_type_scat_dispersion_real
_atom_type_scat_dispersion_imag
_atom_type_scat_source
C C 0.0033 0.0016 'International Tables Vol C Tables 4.2.6.8 and 6.1.1.4'
H H 0.0000 0.0000 'International Tables Vol C Tables 4.2.6.8 and 6.1.1.4'
N N 0.0061 0.0033 'International Tables Vol C Tables 4.2.6.8 and 6.1.1.4'
O O 0.0106 0.0060 'International Tables Vol C Tables 4.2.6.8 and 6.1.1.4'
Zn Zn 0.2839 1.4301 'International Tables Vol C Tables 4.2.6.8 and 6.1.1.4'

_symmetry_cell_setting           Monoclinic
_symmetry_space_group_name_H-M   P21/m

loop_
_symmetry_equiv_pos_as_xyz
'x, y, z'
'-x, y+1/2, -z'
'-x, -y, -z'
'x, -y-1/2, z'

_cell_length_a                   18.3859(11)
_cell_length_b                   28.9574(18)
_cell_length_c                   18.3999(12)
_cell_angle_alpha                90.00
_cell_angle_beta                 114.5400(10)
_cell_angle_gamma                90.00
_cell_volume                     8911.4(10)
_cell_formula_units_Z            4
_cell_measurement_temperature    100(2)
_cell_measurement_reflns_used    ?
_cell_measurement_theta_min      2.2
_cell_measurement_theta_max      28.6

_exptl_crystal_description       plate
_exptl_crystal_colour            colorless
_exptl_crystal_size_max          0.21
_exptl_crystal_size_mid          0.19
_exptl_crystal_size_min          0.18
_exptl_crystal_density_meas      ?
_exptl_crystal_density_diffrn    0.737
_exptl_crystal_density_method    'not measured'
_exptl_crystal_F_000             2020
_exptl_absorpt_coefficient_mu    0.570
_exptl_absorpt_correction_type   empirical
_exptl_absorpt_correction_T_min  0.8770
_exptl_absorpt_correction_T_max  0.8932
_exptl_absorpt_process_details   'SADABAS 2.10 (Bruker 2003)'

_exptl_special_details           
;
 ?
;

_diffrn_ambient_temperature      100(2)
_diffrn_radiation_wavelength     0.71073
_diffrn_radiation_type           MoK\a
_diffrn_radiation_source         'fine-focus sealed tube'
_diffrn_radiation_monochromator  graphite
_diffrn_measurement_device_type  'Bruker SMART APEX'
_diffrn_measurement_method       /w-scans
_diffrn_detector_area_resol_mean ?
_diffrn_standards_number         ?
_diffrn_standards_interval_count ?
_diffrn_standards_interval_time  ?
_diffrn_standards_decay_%        ?
_diffrn_reflns_number            76472
_diffrn_reflns_av_R_equivalents  0.0528
_diffrn_reflns_av_sigmaI/netI    0.0664
_diffrn_reflns_limit_h_min       -24
_diffrn_reflns_limit_h_max       24
_diffrn_reflns_limit_k_min       -38
_diffrn_reflns_limit_k_max       34
_diffrn_reflns_limit_l_min       -24
_diffrn_reflns_limit_l_max       20
_diffrn_reflns_theta_min         2.05
_diffrn_reflns_theta_max         28.32
_reflns_number_total             22572
_reflns_number_gt                12552
_reflns_threshold_expression     >2sigma(I)

_computing_data_collection       'SMART 5.628 (Bruker, 2003)'
_computing_cell_refinement       'SAINT 6.45 ( Bruker, 2003)'
_computing_data_reduction        'SAINT 6.45 ( Bruker, 2003)'
_computing_structure_solution    SIR-97
_computing_structure_refinement  'SHELXL-97 (Sheldrick, 1997)'
_computing_molecular_graphics    'Diamond 2.1e'
_computing_publication_material  ?

_refine_special_details          
;
 Refinement of F^2^ against ALL reflections.  The weighted R-factor wR and
 goodness of fit S are based on F^2^, conventional R-factors R are based
 on F, with F set to zero for negative F^2^. The threshold expression of
 F^2^ > 2sigma(F^2^) is used only for calculating R-factors(gt) etc. and is
 not relevant to the choice of reflections for refinement.  R-factors based
 on F^2^ are statistically about twice as large as those based on F, and R-
 factors based on ALL data will be even larger.
;

_refine_ls_structure_factor_coef Fsqd
_refine_ls_matrix_type           full
_refine_ls_weighting_scheme      calc
_refine_ls_weighting_details     
'calc w=1/[\s^2^(Fo^2^)+(0.1095P)^2^+0.0000P] where P=(Fo^2^+2Fc^2^)/3'
_atom_sites_solution_primary     direct
_atom_sites_solution_secondary   difmap
_atom_sites_solution_hydrogens   geom
_refine_ls_hydrogen_treatment    constr
_refine_ls_extinction_method     none
_refine_ls_extinction_coef       ?
_refine_ls_number_reflns         22572
_refine_ls_number_parameters     607
_refine_ls_number_restraints     0
_refine_ls_R_factor_all          0.1056
_refine_ls_R_factor_gt           0.0665
_refine_ls_wR_factor_ref         0.2089
_refine_ls_wR_factor_gt          0.1938
_refine_ls_goodness_of_fit_ref   1.070
_refine_ls_restrained_S_all      1.070
_refine_ls_shift/su_max          0.001
_refine_ls_shift/su_mean         0.000

loop_
_atom_site_label
_atom_site_type_symbol
_atom_site_fract_x
_atom_site_fract_y
_atom_site_fract_z
_atom_site_U_iso_or_equiv
_atom_site_adp_type
_atom_site_occupancy
_atom_site_symmetry_multiplicity
_atom_site_calc_flag
_atom_site_refinement_flags
_atom_site_disorder_assembly
_atom_site_disorder_group
Zn1 Zn 0.079122(15) 0.454906(10) 0.078422(19) 0.02555(10) Uani 1 1 d . . .
Zn2 Zn 0.421605(15) 0.545088(10) 0.420920(19) 0.02555(10) Uani 1 1 d . . .
O1 O 0.19396(11) 0.45661(6) 0.17110(13) 0.0365(5) Uani 1 1 d . . .
O2 O 0.32881(11) 0.54334(6) 0.30614(13) 0.0347(5) Uani 1 1 d . . .
O3 O 0.06446(10) 0.52515(6) 0.08028(12) 0.0337(5) Uani 1 1 d . . .
O4 O 0.41948(10) 0.47512(6) 0.43574(12) 0.0334(5) Uani 1 1 d . . .
O5 O 0.49506(10) 0.58297(6) 0.51491(12) 0.0342(5) Uani 1 1 d . . .
O6 O 0.15303(11) 0.38662(7) 0.12699(14) 0.0424(6) Uani 1 1 d . . .
O7 O 0.37322(11) 0.61334(7) 0.34683(13) 0.0436(6) Uani 1 1 d . . .
N8 N 0.12504(13) 0.46144(8) -0.01022(17) 0.0373(6) Uani 1 1 d . . .
O9 O -0.01506(10) 0.41704(6) 0.00451(12) 0.0349(5) Uani 1 1 d . . .
N10 N 0.03107(14) 0.45112(8) 0.16632(17) 0.0384(6) Uani 1 1 d . . .
N11 N 0.33400(15) 0.54893(9) 0.46943(17) 0.0404(6) Uani 1 1 d . . .
N12 N 0.51039(14) 0.53873(8) 0.37523(16) 0.0368(6) Uani 1 1 d . . .
C13 C 0.41910(15) 0.36109(9) 0.35783(18) 0.0335(7) Uani 1 1 d . . .
H13 H 0.4660 0.3496 0.3975 0.040 Uiso 1 1 calc R . .
C14 C 0.06718(14) 0.56444(9) 0.05681(17) 0.0254(6) Uani 1 1 d . . .
C15 C 0.14221(16) 0.63899(9) 0.08094(18) 0.0342(7) Uani 1 1 d . . .
H15 H 0.1027 0.6504 0.0338 0.041 Uiso 1 1 calc R . .
C16 C 0.30188(15) 0.34945(8) 0.23404(18) 0.0314(6) Uani 1 1 d . . .
H16 H 0.2708 0.3301 0.1923 0.038 Uiso 1 1 calc R . .
C19 C 0.26599(16) 0.65068(9) 0.19775(18) 0.0341(7) Uani 1 1 d . . .
H19 H 0.3080 0.6699 0.2286 0.041 Uiso 1 1 calc R . .
C20 C 0.44338(14) 0.43544(9) 0.43298(17) 0.0260(6) Uani 1 1 d . . .
C21 C 0.32602(14) 0.58633(9) 0.29667(18) 0.0304(6) Uani 1 1 d . . .
C24 C 0.39521(14) 0.40591(9) 0.36091(17) 0.0293(6) Uani 1 1 d . . .
C25 C 0.20388(15) 0.41375(9) 0.17411(18) 0.0321(7) Uani 1 1 d . . .
C26 C 0.20597(16) 0.66630(8) 0.12863(18) 0.0336(7) Uani 1 1 d . . .
C27 C 0.27949(14) 0.39467(9) 0.23727(18) 0.0308(7) Uani 1 1 d . . .
C28 C 0.37173(16) 0.33384(8) 0.29454(19) 0.0359(7) Uani 1 1 d . . .
C29 C 0.13925(14) 0.59405(9) 0.10573(17) 0.0286(6) Uani 1 1 d . . .
C30 C 0.3520(2) 0.2500 0.2834(3) 0.0339(10) Uani 1 2 d S . .
H30 H 0.2979 0.2500 0.2726 0.041 Uiso 1 2 calc SR . .
C31 C 0.2173(2) 0.7500 0.1484(3) 0.0349(10) Uani 1 2 d S . .
H31 H 0.2277 0.7500 0.2024 0.042 Uiso 1 2 calc SR . .
C32 C 0.26230(15) 0.60510(8) 0.22057(17) 0.0297(6) Uani 1 1 d . . .
C33 C 0.19953(15) 0.57674(9) 0.17437(18) 0.0307(7) Uani 1 1 d . . .
H33 H 0.1979 0.5462 0.1894 0.037 Uiso 1 1 calc R . .
N34 N 0.39728(13) 0.28693(7) 0.29240(16) 0.0381(6) Uani 1 1 d . . .
C35 C 0.32624(15) 0.42323(9) 0.30047(18) 0.0299(6) Uani 1 1 d . . .
H35 H 0.3112 0.4538 0.3021 0.036 Uiso 1 1 calc R . .
N36 N 0.20847(15) 0.71306(7) 0.10262(16) 0.0408(7) Uani 1 1 d . . .
C37 C 0.17130(19) 0.49618(11) -0.0106(2) 0.0463(8) Uani 1 1 d . . .
H37 H 0.1815 0.5191 0.0278 0.056 Uiso 1 1 calc R . .
C38 C 0.51051(18) 0.50307(11) 0.3287(2) 0.0444(8) Uani 1 1 d . . .
H38 H 0.4724 0.4800 0.3191 0.053 Uiso 1 1 calc R . .
C39 C 0.56384(19) 0.49871(11) 0.2945(2) 0.0466(8) Uani 1 1 d . . .
H39 H 0.5616 0.4732 0.2630 0.056 Uiso 1 1 calc R . .
C40 C 0.19299(19) 0.46752(12) -0.1202(2) 0.0514(9) Uani 1 1 d . . .
C41 C 0.6205(2) 0.53232(12) 0.3071(2) 0.0503(9) Uani 1 1 d . . .
C42 C 0.20555(18) 0.50073(11) -0.0643(2) 0.0485(9) Uani 1 1 d . . .
H42 H 0.2369 0.5263 -0.0622 0.058 Uiso 1 1 calc R . .
C43 C 0.33474(19) 0.58208(12) 0.5194(2) 0.0508(9) Uani 1 1 d . . .
H43 H 0.3735 0.6050 0.5317 0.061 Uiso 1 1 calc R . .
C44 C -0.0203(2) 0.41835(12) 0.1646(2) 0.0523(9) Uani 1 1 d . . .
H44 H -0.0339 0.3959 0.1250 0.063 Uiso 1 1 calc R . .
C45 C 0.6746(2) 0.53139(14) 0.2651(3) 0.0611(10) Uani 1 1 d . . .
C46 C 0.2240(2) 0.55158(13) 0.5386(3) 0.0611(11) Uani 1 1 d . . .
C47 C -0.0383(2) 0.44848(13) 0.2749(3) 0.0623(11) Uani 1 1 d . . .
C48 C 0.2347(2) 0.46885(14) -0.1751(3) 0.0585(10) Uani 1 1 d . . .
C49 C 0.5687(2) 0.56934(12) 0.3910(2) 0.0553(10) Uani 1 1 d . . .
H49 H 0.5723 0.5933 0.4260 0.066 Uiso 1 1 calc R . .
C50 C 0.6241(2) 0.56781(14) 0.3589(3) 0.0658(12) Uani 1 1 d . . .
H50 H 0.6636 0.5903 0.3718 0.079 Uiso 1 1 calc R . .
C51 C 0.2817(2) 0.58447(14) 0.5539(3) 0.0628(11) Uani 1 1 d . . .
H51 H 0.2849 0.6088 0.5881 0.075 Uiso 1 1 calc R . .
C52 C -0.0540(2) 0.41610(14) 0.2181(3) 0.0609(10) Uani 1 1 d . . .
H52 H -0.0883 0.3919 0.2152 0.073 Uiso 1 1 calc R . .
C53 C 0.47402(17) 0.27333(10) 0.3060(3) 0.0575(11) Uani 1 1 d . . .
H53 H 0.5171 0.2925 0.3136 0.069 Uiso 1 1 calc R . .
C54 C 0.1094(2) 0.43056(13) -0.0681(2) 0.0571(10) Uani 1 1 d . . .
H54 H 0.0743 0.4067 -0.0714 0.069 Uiso 1 1 calc R . .
C55 C 0.1412(2) 0.43155(14) -0.1232(3) 0.0664(12) Uani 1 1 d . . .
H55 H 0.1287 0.4087 -0.1620 0.080 Uiso 1 1 calc R . .
C56 C 0.1954(2) 0.72673(10) 0.0265(2) 0.0551(10) Uani 1 1 d . . .
H56 H 0.1880 0.7076 -0.0165 0.066 Uiso 1 1 calc R . .
C57 C 0.2203(3) 0.51747(13) 0.4830(3) 0.0790(15) Uani 1 1 d . . .
H57 H 0.1805 0.4950 0.4680 0.095 Uiso 1 1 calc R . .
C58 C -0.0781(3) 0.44879(15) 0.3320(4) 0.0863(17) Uani 1 1 d . . .
C59 C 0.1693(3) 0.55147(14) 0.5783(4) 0.0897(18) Uani 1 1 d . . .
C61 C 0.0486(3) 0.48261(12) 0.2240(3) 0.0671(12) Uani 1 1 d . . .
H61 H 0.0842 0.5060 0.2265 0.080 Uiso 1 1 calc R . .
C62 C 0.0176(3) 0.48255(14) 0.2793(3) 0.0840(15) Uani 1 1 d . . .
H62 H 0.0331 0.5047 0.3194 0.101 Uiso 1 1 calc R . .
C63 C 0.2760(2) 0.51749(12) 0.4509(3) 0.0645(12) Uani 1 1 d . . .
H63 H 0.2730 0.4945 0.4146 0.077 Uiso 1 1 calc R . .
C65 C 0.1169(3) 0.5207(3) 0.5726(3) 0.131(3) Uani 1 1 d . . .
H65 H 0.1080 0.4974 0.5350 0.157 Uiso 1 1 calc R . .
C66 C 0.2281(4) 0.4392(3) -0.2266(4) 0.142(3) Uani 1 1 d . . .
H66 H 0.1900 0.4162 -0.2359 0.170 Uiso 1 1 calc R . .
C67 C -0.0729(3) 0.4809(3) 0.3826(3) 0.150(4) Uani 1 1 d . . .
H67 H -0.0385 0.5057 0.3888 0.180 Uiso 1 1 calc R . .
C69 C 0.7271(4) 0.5621(2) 0.2706(4) 0.136(3) Uani 1 1 d . . .
H69 H 0.7352 0.5864 0.3061 0.163 Uiso 1 1 calc R . .
C83 C 0.2911(8) 0.4971(4) -0.1647(9) 0.410(14) Uani 1 1 d . . .
H83 H 0.3075 0.5165 -0.1205 0.492 Uiso 1 1 calc R . .
C86 C 0.6703(8) 0.4992(4) 0.2148(9) 0.419(15) Uani 1 1 d . . .
H86 H 0.6405 0.4728 0.2123 0.502 Uiso 1 1 calc R . .
C100 C 0.1764(10) 0.5824(3) 0.6293(11) 0.452(15) Uani 1 1 d . . .
H100 H 0.2122 0.6065 0.6358 0.543 Uiso 1 1 calc R . .
C109 C -0.1332(10) 0.4178(3) 0.3235(10) 0.428(13) Uani 1 1 d . . .
H109 H -0.1439 0.3951 0.2846 0.514 Uiso 1 1 calc R . .

loop_
_atom_site_aniso_label
_atom_site_aniso_U_11
_atom_site_aniso_U_22
_atom_site_aniso_U_33
_atom_site_aniso_U_23
_atom_site_aniso_U_13
_atom_site_aniso_U_12
Zn1 0.01686(15) 0.03126(17) 0.01864(19) 0.00071(12) -0.00249(13) 0.00010(11)
Zn2 0.01832(15) 0.03098(17) 0.01756(19) -0.00018(12) -0.00229(13) 0.00112(11)
O1 0.0260(9) 0.0296(10) 0.0338(14) 0.0026(8) -0.0074(9) 0.0072(7)
O2 0.0300(10) 0.0300(10) 0.0257(12) 0.0072(8) -0.0069(9) 0.0006(7)
O3 0.0276(9) 0.0301(10) 0.0294(13) 0.0025(8) -0.0020(8) 0.0001(8)
O4 0.0305(9) 0.0291(10) 0.0278(13) 0.0005(8) -0.0008(9) 0.0035(8)
O5 0.0282(9) 0.0339(10) 0.0223(12) -0.0038(8) -0.0076(8) 0.0056(8)
O6 0.0278(9) 0.0395(11) 0.0360(14) -0.0050(9) -0.0106(9) 0.0005(8)
O7 0.0339(10) 0.0398(11) 0.0298(14) -0.0003(9) -0.0138(9) -0.0049(8)
N8 0.0263(11) 0.0475(15) 0.0336(17) -0.0028(11) 0.0079(11) -0.0009(10)
O9 0.0239(9) 0.0345(10) 0.0273(13) 0.0038(8) -0.0082(8) -0.0024(7)
N10 0.0345(13) 0.0484(14) 0.0322(17) 0.0000(11) 0.0136(12) -0.0025(11)
N11 0.0344(13) 0.0479(15) 0.0400(18) 0.0001(12) 0.0166(13) -0.0032(11)
N12 0.0306(12) 0.0477(15) 0.0288(16) -0.0006(11) 0.0091(11) -0.0040(10)
C13 0.0248(12) 0.0307(14) 0.0342(19) 0.0026(11) 0.0017(12) -0.0005(10)
C14 0.0207(11) 0.0276(13) 0.0194(15) -0.0026(10) -0.0001(10) 0.0015(10)
C15 0.0324(14) 0.0298(14) 0.0272(18) 0.0004(11) -0.0009(12) 0.0036(11)
C16 0.0263(12) 0.0264(13) 0.0321(18) -0.0017(11) 0.0026(12) -0.0011(10)
C19 0.0315(13) 0.0243(13) 0.0330(19) -0.0022(11) -0.0001(12) -0.0007(10)
C20 0.0164(10) 0.0301(13) 0.0228(16) 0.0052(11) -0.0005(10) -0.0026(10)
C21 0.0224(12) 0.0360(15) 0.0214(16) 0.0059(11) -0.0023(11) 0.0048(10)
C24 0.0209(11) 0.0330(14) 0.0261(17) 0.0029(11) 0.0019(11) -0.0018(10)
C25 0.0251(12) 0.0355(15) 0.0274(18) 0.0019(11) 0.0028(12) 0.0020(11)
C26 0.0397(14) 0.0184(12) 0.0317(18) 0.0002(10) 0.0039(13) 0.0017(10)
C27 0.0210(11) 0.0284(13) 0.0326(18) 0.0020(11) 0.0006(11) -0.0010(10)
C28 0.0327(14) 0.0211(12) 0.042(2) 0.0056(11) 0.0037(13) 0.0016(10)
C29 0.0226(12) 0.0323(14) 0.0220(16) -0.0017(11) 0.0004(11) 0.0040(10)
C30 0.0246(17) 0.0296(19) 0.034(3) 0.000 -0.0012(17) 0.000
C31 0.036(2) 0.0261(19) 0.025(2) 0.000 -0.0058(17) 0.000
C32 0.0333(13) 0.0279(13) 0.0182(16) 0.0004(10) 0.0011(12) 0.0037(10)
C33 0.0284(13) 0.0240(12) 0.0290(18) 0.0000(10) 0.0010(12) 0.0008(10)
N34 0.0254(11) 0.0272(12) 0.0462(18) -0.0016(10) -0.0007(11) 0.0020(9)
C35 0.0265(12) 0.0240(12) 0.0296(17) 0.0013(11) 0.0020(12) -0.0001(10)
N36 0.0494(14) 0.0292(12) 0.0253(16) 0.0021(10) -0.0029(12) 0.0014(10)
C37 0.0484(18) 0.0472(18) 0.046(2) -0.0113(15) 0.0220(17) -0.0087(14)
C38 0.0399(16) 0.0478(17) 0.045(2) -0.0072(15) 0.0173(16) -0.0096(13)
C39 0.0485(18) 0.0521(18) 0.041(2) -0.0081(15) 0.0207(17) -0.0018(14)
C40 0.0434(18) 0.067(2) 0.049(3) -0.0089(18) 0.0244(17) -0.0086(16)
C41 0.0465(18) 0.065(2) 0.046(2) -0.0030(17) 0.0257(17) -0.0080(16)
C42 0.0377(16) 0.0530(19) 0.054(3) -0.0013(16) 0.0177(16) -0.0080(14)
C43 0.0416(17) 0.0523(19) 0.057(3) -0.0131(17) 0.0197(17) 0.0034(14)
C44 0.059(2) 0.058(2) 0.039(2) 0.0040(16) 0.0186(18) -0.0126(16)
C45 0.067(2) 0.072(2) 0.057(3) -0.020(2) 0.039(2) -0.0217(19)
C46 0.075(3) 0.055(2) 0.078(3) 0.0161(19) 0.056(2) 0.0211(19)
C47 0.073(3) 0.063(2) 0.075(3) 0.025(2) 0.055(2) 0.0158(19)
C48 0.0480(19) 0.074(2) 0.063(3) -0.017(2) 0.032(2) -0.0127(17)
C49 0.055(2) 0.060(2) 0.061(3) -0.0185(18) 0.035(2) -0.0213(17)
C50 0.060(2) 0.079(3) 0.076(3) -0.026(2) 0.045(2) -0.0262(19)
C51 0.062(2) 0.075(3) 0.058(3) -0.011(2) 0.032(2) 0.017(2)
C52 0.055(2) 0.071(3) 0.061(3) 0.013(2) 0.029(2) -0.0083(18)
C53 0.0308(15) 0.0307(15) 0.095(3) 0.0007(17) 0.0101(17) -0.0008(12)
C54 0.061(2) 0.065(2) 0.057(3) -0.0203(19) 0.036(2) -0.0177(18)
C55 0.071(2) 0.079(3) 0.064(3) -0.031(2) 0.042(2) -0.029(2)
C56 0.086(2) 0.0321(15) 0.034(2) -0.0040(14) 0.0119(19) -0.0025(16)
C57 0.079(3) 0.056(2) 0.138(5) -0.018(2) 0.081(3) -0.018(2)
C58 0.111(4) 0.066(3) 0.126(5) 0.033(3) 0.094(4) 0.027(3)
C59 0.140(4) 0.056(2) 0.133(5) 0.023(3) 0.116(4) 0.032(3)
C61 0.105(3) 0.057(2) 0.070(3) -0.023(2) 0.067(3) -0.028(2)
C62 0.149(4) 0.060(2) 0.086(4) -0.017(2) 0.092(4) -0.025(3)
C63 0.064(2) 0.050(2) 0.103(4) -0.022(2) 0.058(2) -0.0192(17)
C65 0.053(2) 0.292(9) 0.067(4) -0.084(5) 0.043(3) -0.071(4)
C66 0.136(5) 0.195(6) 0.157(7) -0.119(6) 0.124(5) -0.110(5)
C67 0.052(3) 0.352(11) 0.060(4) -0.091(5) 0.037(3) -0.078(4)
C69 0.146(5) 0.169(6) 0.159(7) -0.114(5) 0.130(5) -0.109(5)
C83 0.62(2) 0.346(14) 0.60(2) -0.402(17) 0.59(2) -0.407(17)
C86 0.56(2) 0.406(17) 0.60(3) -0.442(19) 0.56(2) -0.422(18)
C100 0.85(3) 0.136(7) 0.85(3) -0.259(13) 0.82(3) -0.262(13)
C109 