####################################################################### 
# 
# This file contains crystal structure data downloaded from the 
# Cambridge Structural Database (CSD) hosted by the Cambridge 
# Crystallographic Data Centre (CCDC).
# 
# Full information about CCDC data access policies and citation 
# guidelines are available at http://www.ccdc.cam.ac.uk/access/V1 
# 
# Audit and citation data items may have been added by the CCDC. 
# Please retain this information to preserve the provenance of 
# this file and to allow appropriate attribution of the data. 
# 
#######################################################################

data_Compound-(1e)
_audit_block_doi                 10.5517/cc11q9jl
_database_code_depnum_ccdc_archive 'CCDC 974749'
loop_
_citation_id
_citation_doi
_citation_year
1 10.1021/ic5008457 2014
_audit_update_record             
;
2013-12-02 deposited with the CCDC.	2024-07-12 downloaded from the CCDC.
;

_audit_creation_method           SHELXL-97
_chemical_name_systematic        
;
 ?
;
_chemical_name_common            ?
_chemical_melting_point          ?
_chemical_formula_moiety         'C36 H40 Cu3 N26 O6'
_chemical_formula_sum            'C36 H40 Cu3 N26 O6'
_chemical_formula_weight         1123.56

loop_
_atom_type_symbol
_atom_type_description
_atom_type_scat_dispersion_real
_atom_type_scat_dispersion_imag
_atom_type_scat_source
C C 0.0033 0.0016 'International Tables Vol C Tables 4.2.6.8 and 6.1.1.4'
H H 0.0000 0.0000 'International Tables Vol C Tables 4.2.6.8 and 6.1.1.4'
N N 0.0061 0.0033 'International Tables Vol C Tables 4.2.6.8 and 6.1.1.4'
O O 0.0106 0.0060 'International Tables Vol C Tables 4.2.6.8 and 6.1.1.4'
Cu Cu 0.3201 1.2651 'International Tables Vol C Tables 4.2.6.8 and 6.1.1.4'

_symmetry_cell_setting           monoclinic
_symmetry_space_group_name_H-M   'P 21/n'

loop_
_symmetry_equiv_pos_as_xyz
'x, y, z'
'-x+1/2, y+1/2, -z+1/2'
'-x, -y, -z'
'x-1/2, -y-1/2, z-1/2'

_cell_length_a                   13.2440(7)
_cell_length_b                   14.5210(8)
_cell_length_c                   15.6950(8)
_cell_angle_alpha                90.00
_cell_angle_beta                 92.7460(10)
_cell_angle_gamma                90.00
_cell_volume                     3014.9(3)
_cell_formula_units_Z            2
_cell_measurement_temperature    293(2)
_cell_measurement_reflns_used    5162
_cell_measurement_theta_min      3.2059
_cell_measurement_theta_max      29.1672

_exptl_crystal_description       block
_exptl_crystal_colour            green
_exptl_crystal_size_max          0.25
_exptl_crystal_size_mid          0.23
_exptl_crystal_size_min          0.20
_exptl_crystal_density_meas      ?
_exptl_crystal_density_diffrn    1.238
_exptl_crystal_density_method    'not measured'
_exptl_crystal_F_000             1146
_exptl_absorpt_coefficient_mu    1.107
_exptl_absorpt_correction_type   multi-scan
_exptl_absorpt_correction_T_min  0.7694
_exptl_absorpt_correction_T_max  0.8090
_exptl_absorpt_process_details   ?

_exptl_special_details           
;
 ?
;

_diffrn_ambient_temperature      293(2)
_diffrn_radiation_wavelength     0.71069
_diffrn_radiation_type           MoK\a
_diffrn_radiation_source         'fine-focus sealed tube'
_diffrn_radiation_monochromator  graphite
_diffrn_measurement_device_type  'Oxford Diffraction Gemini R Ultra'
_diffrn_measurement_method       '\w scan'
_diffrn_detector_area_resol_mean 10.0
_diffrn_standards_number         ?
_diffrn_standards_interval_count ?
_diffrn_standards_interval_time  ?
_diffrn_standards_decay_%        ?
_diffrn_reflns_number            16769
_diffrn_reflns_av_R_equivalents  0.0328
_diffrn_reflns_av_sigmaI/netI    0.0354
_diffrn_reflns_limit_h_min       -15
_diffrn_reflns_limit_h_max       14
_diffrn_reflns_limit_k_min       -16
_diffrn_reflns_limit_k_max       17
_diffrn_reflns_limit_l_min       -17
_diffrn_reflns_limit_l_max       18
_diffrn_reflns_theta_min         1.97
_diffrn_reflns_theta_max         25.02
_reflns_number_total             5162
_reflns_number_gt                4281
_reflns_threshold_expression     >2\s(I)

_computing_data_collection       'CrysAlis (Oxford Diffraction, 2006)'
_computing_cell_refinement       CrysAlis
_computing_data_reduction        CrysAlis
_computing_structure_solution    'SHELXS-97 (Sheldrick, 1997)'
_computing_structure_refinement  'SHELXL-97 (Sheldrick, 2008)'
_computing_molecular_graphics    ?
_computing_publication_material  ?

_refine_special_details          
;
 Refinement of F^2^ against ALL reflections.  The weighted R-factor wR and
 goodness of fit S are based on F^2^, conventional R-factors R are based
 on F, with F set to zero for negative F^2^. The threshold expression of
 F^2^ > 2\s(F^2^) is used only for calculating R-factors(gt) etc. and is
 not relevant to the choice of reflections for refinement.  R-factors based
 on F^2^ are statistically about twice as large as those based on F, and R-
 factors based on ALL data will be even larger.
;

_refine_ls_structure_factor_coef Fsqd
_refine_ls_matrix_type           full
_refine_ls_weighting_scheme      calc
_refine_ls_weighting_details     
'calc w=1/[\s^2^(Fo^2^)+(0.1417P)^2^+8.5255P] where P=(Fo^2^+2Fc^2^)/3'
_atom_sites_solution_primary     direct
_atom_sites_solution_secondary   difmap
_atom_sites_solution_hydrogens   geom
_refine_ls_hydrogen_treatment    mixed
_refine_ls_extinction_method     none
_refine_ls_extinction_coef       ?
_refine_ls_number_reflns         5162
_refine_ls_number_parameters     314
_refine_ls_number_restraints     3
_refine_ls_R_factor_all          0.0843
_refine_ls_R_factor_gt           0.0721
_refine_ls_wR_factor_ref         0.2254
_refine_ls_wR_factor_gt          0.2120
_refine_ls_goodness_of_fit_ref   1.085
_refine_ls_restrained_S_all      1.090
_refine_ls_shift/su_max          0.052
_refine_ls_shift/su_mean         0.004

loop_
_atom_site_label
_atom_site_type_symbol
_atom_site_fract_x
_atom_site_fract_y
_atom_site_fract_z
_atom_site_U_iso_or_equiv
_atom_site_adp_type
_atom_site_occupancy
_atom_site_symmetry_multiplicity
_atom_site_calc_flag
_atom_site_refinement_flags
_atom_site_disorder_assembly
_atom_site_disorder_group
Cu1 Cu 0.5000 0.0000 0.5000 0.0194(3) Uani 1 2 d S . .
Cu2 Cu 0.52973(4) 0.20030(4) 0.39005(4) 0.0215(3) Uani 1 1 d . . .
C1 C 0.8247(6) -0.1473(5) 0.1266(4) 0.0459(17) Uani 1 1 d . . .
H1 H 0.8464 -0.1302 0.0734 0.055 Uiso 1 1 calc R . .
C2 C 0.7584(6) -0.0898(5) 0.1653(4) 0.0464(17) Uani 1 1 d . . .
H2 H 0.7378 -0.0347 0.1397 0.056 Uiso 1 1 calc R . .
C3 C 0.7235(4) -0.1154(4) 0.2425(4) 0.0297(12) Uani 1 1 d . . .
C4 C 0.7587(6) -0.1979(5) 0.2783(5) 0.0491(18) Uani 1 1 d . . .
H4 H 0.7369 -0.2173 0.3308 0.059 Uiso 1 1 calc R . .
C5 C 0.8260(6) -0.2503(5) 0.2353(4) 0.0477(17) Uani 1 1 d . . .
H5 H 0.8491 -0.3052 0.2595 0.057 Uiso 1 1 calc R . .
C6 C 0.6558(4) -0.0568(4) 0.2906(4) 0.0269(11) Uani 1 1 d . . .
C7 C 0.0910(10) -0.1733(6) 0.2161(7) 0.109(5) Uani 1 1 d . . .
H7 H 0.0581 -0.1295 0.1816 0.131 Uiso 1 1 calc R . .
C8 C 0.1643(9) -0.1427(6) 0.2758(7) 0.106(5) Uani 1 1 d . . .
H8 H 0.1845 -0.0813 0.2764 0.127 Uiso 1 1 calc R . .
C9 C 0.2053(4) -0.2019(4) 0.3322(4) 0.0298(12) Uani 1 1 d . . .
C10 C 0.1742(8) -0.2908(6) 0.3264(6) 0.085(4) Uani 1 1 d . . .
H10 H 0.1988 -0.3341 0.3659 0.102 Uiso 1 1 calc R . .
C11 C 0.1057(8) -0.3167(6) 0.2613(6) 0.085(4) Uani 1 1 d . . .
H11 H 0.0871 -0.3783 0.2567 0.102 Uiso 1 1 calc R . .
C12 C 0.2832(4) -0.1718(4) 0.3970(3) 0.0270(11) Uani 1 1 d . . .
N1 N 0.8594(3) -0.2248(3) 0.1595(3) 0.0260(10) Uani 1 1 d . . .
N2 N 0.6334(4) 0.0310(3) 0.2708(3) 0.0286(10) Uani 1 1 d . . .
N3 N 0.5763(3) 0.0587(3) 0.3342(3) 0.0257(10) Uani 1 1 d . . .
N4 N 0.5656(3) -0.0105(3) 0.3870(3) 0.0244(10) Uani 1 1 d . . .
N5 N 0.6143(4) -0.0841(3) 0.3620(3) 0.0285(10) Uani 1 1 d . . .
N6 N 0.0658(3) -0.2573(3) 0.2055(3) 0.0261(10) Uani 1 1 d . . .
N7 N 0.3314(3) -0.0922(3) 0.3939(3) 0.0293(10) Uani 1 1 d . . .
N8 N 0.3942(3) -0.0946(3) 0.4620(3) 0.0246(9) Uani 1 1 d . . .
N9 N 0.3836(3) -0.1716(3) 0.5040(3) 0.0222(9) Uani 1 1 d . . .
N10 N 0.3127(3) -0.2237(3) 0.4641(3) 0.0288(10) Uani 1 1 d . . .
N11 N 0.4200(3) 0.1313(3) 0.4419(3) 0.0231(9) Uani 1 1 d . . .
N12 N 0.3398(6) 0.1531(8) 0.4437(8) 0.128(5) Uani 1 1 d . . .
N13 N 0.2509(9) 0.1629(15) 0.4334(17) 0.262(15) Uani 1 1 d . . .
C13 C 0.408(2) -0.077(2) 0.155(2) 0.164(10) Uiso 0.75 1 d P . .
C14 C 0.461(2) -0.135(2) 0.1283(18) 0.147(8) Uiso 0.75 1 d P . .
C15 C 0.346(3) -0.121(3) -0.022(2) 0.201(13) Uiso 0.75 1 d P . .
C16 C 0.3199(17) -0.0501(17) 0.0205(16) 0.127(6) Uiso 0.75 1 d P . .
O1 O 0.3250(15) -0.0497(13) 0.1078(13) 0.165(6) Uiso 0.75 1 d P . .
O2 O 0.455(3) -0.140(2) 0.035(2) 0.296(14) Uiso 0.75 1 d P . .
C17 C 0.4962(11) -0.3610(10) 0.3592(9) 0.033(3) Uiso 0.408(10) 1 d P A 1
C18 C 0.4807(17) -0.4658(16) 0.3652(15) 0.064(6) Uiso 0.408(10) 1 d P A 1
C19 C 0.5238(14) -0.4624(13) 0.5201(12) 0.047(3) Uiso 0.408(10) 1 d PU . 1
C20 C 0.5275(12) -0.3548(11) 0.5090(10) 0.039(3) Uiso 0.408(10) 1 d PU A 1
O3 O 0.5423(9) -0.3209(9) 0.4289(8) 0.051(3) Uiso 0.408(10) 1 d PU A 1
O4 O 0.457(2) -0.488(2) 0.440(2) 0.152(11) Uiso 0.408(10) 1 d P . 1
C17' C 0.549(2) -0.2836(18) 0.2206(17) 0.062(6) Uiso 0.342(10) 1 d PD A 2
C18' C 0.544(6) -0.367(4) 0.170(5) 0.21(3) Uiso 0.342(10) 1 d PD A 2
C19' C 0.4696(19) -0.4494(18) 0.2782(17) 0.062(6) Uiso 0.342(10) 1 d P A 2
C20' C 0.432(4) -0.363(3) 0.305(3) 0.121(14) Uiso 0.342(10) 1 d P A 2
O3' O 0.4930(18) -0.2978(15) 0.2933(15) 0.088(7) Uiso 0.342(10) 1 d P A 2
O4' O 0.522(5) -0.448(5) 0.191(4) 0.26(3) Uiso 0.342(10) 1 d P A 2

loop_
_atom_site_aniso_label
_atom_site_aniso_U_11
_atom_site_aniso_U_22
_atom_site_aniso_U_33
_atom_site_aniso_U_23
_atom_site_aniso_U_13
_atom_site_aniso_U_12
Cu1 0.0186(5) 0.0185(5) 0.0208(5) -0.0027(3) -0.0026(3) -0.0007(3)
Cu2 0.0191(4) 0.0239(4) 0.0210(4) 0.0049(2) -0.0053(2) -0.0031(2)
C1 0.062(4) 0.038(3) 0.039(4) 0.007(3) 0.016(3) 0.019(3)
C2 0.062(4) 0.037(3) 0.041(4) 0.012(3) 0.016(3) 0.024(3)
C3 0.032(3) 0.022(3) 0.035(3) -0.005(2) 0.002(2) 0.003(2)
C4 0.064(5) 0.037(4) 0.049(4) 0.009(3) 0.024(4) 0.012(3)
C5 0.063(4) 0.034(3) 0.047(4) 0.008(3) 0.022(3) 0.017(3)
C6 0.028(3) 0.023(3) 0.030(3) -0.001(2) 0.005(2) 0.003(2)
C7 0.165(11) 0.041(4) 0.109(8) 0.032(5) -0.116(8) -0.040(6)
C8 0.158(10) 0.034(4) 0.115(8) 0.029(5) -0.107(8) -0.043(5)
C9 0.025(3) 0.033(3) 0.031(3) -0.002(2) -0.012(2) -0.004(2)
C10 0.112(8) 0.063(5) 0.074(6) 0.032(4) -0.070(6) -0.049(5)
C11 0.105(7) 0.057(5) 0.086(6) 0.029(5) -0.071(6) -0.044(5)
C12 0.027(3) 0.029(3) 0.024(3) -0.003(2) -0.010(2) -0.001(2)
N1 0.026(2) 0.026(2) 0.026(2) -0.0036(18) -0.0021(18) 0.0030(18)
N2 0.033(2) 0.026(2) 0.027(2) -0.0008(19) 0.0061(19) 0.006(2)
N3 0.027(2) 0.025(2) 0.025(2) 0.0015(18) 0.0031(18) 0.0042(18)
N4 0.026(2) 0.021(2) 0.026(2) -0.0034(17) -0.0021(18) 0.0005(18)
N5 0.034(2) 0.022(2) 0.030(2) 0.0014(18) 0.0029(19) 0.0076(19)
N6 0.025(2) 0.027(2) 0.025(2) -0.0042(18) -0.0075(18) 0.0000(19)
N7 0.032(2) 0.028(2) 0.027(2) 0.0022(18) -0.0133(19) -0.0047(19)
N8 0.029(2) 0.022(2) 0.022(2) 0.0005(17) -0.0065(18) -0.0038(18)
N9 0.021(2) 0.023(2) 0.022(2) 0.0021(17) -0.0036(17) -0.0030(17)
N10 0.027(2) 0.030(2) 0.028(2) 0.0011(19) -0.0084(19) -0.0078(19)
N11 0.015(2) 0.026(2) 0.028(2) 0.0019(18) -0.0007(17) -0.0004(17)
N12 0.049(5) 0.148(9) 0.190(11) 0.123(9) 0.049(6) 0.041(5)
N13 0.055(7) 0.28(2) 0.46(4) 0.22(2) 0.071(12) 0.069(10)

_geom_special_details            
;
 All s.u.'s (except the s.u. in the dihedral angle between two l.s. planes)
 are estimated using the full covariance matrix.  The cell s.u.'s are taken
 into account individually in the estimation of s.u.'s in distances, angles
 and torsion angles; correlations between s.u.'s in cell parameters are only
 used when they are defined by crystal symmetry.  An approximate (isotropic)
 treatment of cell s.u.'s is used for estimating s.u.'s involving l.s. planes.
;

loop_
_geom_bond_atom_site_label_1
_geom_bond_atom_site_label_2
_geom_bond_distance
_geom_bond_site_symmetry_2
_geom_bond_publ_flag
Cu1 N4 2.017(4) . ?
Cu1 N4 2.017(4) 3_656 ?
Cu1 N8 2.031(4) . ?
Cu1 N8 2.031(4) 3_656 ?
Cu1 N11 2.344(4) 3_656 ?
Cu1 N11 2.344(4) . ?
Cu2 N11 1.973(4) . ?
Cu2 N6 2.012(4) 2 ?
Cu2 N1 2.012(4) 2_655 ?
Cu2 N9 2.019(4) 3_656 ?
Cu2 N3 2.330(4) . ?
C1 N1 1.312(8) . ?
C1 C2 1.375(9) . ?
C1 H1 0.9300 . ?
C2 C3 1.369(9) . ?
C2 H2 0.9300 . ?
C3 C4 1.395(9) . ?
C3 C6 1.470(8) . ?
C4 C5 1.373(10) . ?
C4 H4 0.9300 . ?
C5 N1 1.341(8) . ?
C5 H5 0.9300 . ?
C6 N5 1.332(7) . ?
C6 N2 1.342(7) . ?
C7 N6 1.273(9) . ?
C7 C8 1.390(10) . ?
C7 H7 0.9300 . ?
C8 C9 1.331(10) . ?
C8 H8 0.9300 . ?
C9 C10 1.358(10) . ?
C9 C12 1.479(7) . ?
C10 C11 1.386(10) . ?
C10 H10 0.9300 . ?
C11 N6 1.321(9) . ?
C11 H11 0.9300 . ?
C12 N7 1.322(7) . ?
C12 N10 1.339(7) . ?
N1 Cu2 2.012(4) 2_645 ?
N2 N3 1.340(6) . ?
N3 N4 1.315(6) . ?
N4 N5 1.318(6) . ?
N6 Cu2 2.012(4) 2_545 ?
N7 N8 1.324(6) . ?
N8 N9 1.308(6) . ?
N9 N10 1.338(6) . ?
N9 Cu2 2.019(4) 3_656 ?
N11 N12 1.110(9) . ?
N12 N13 1.190(14) . ?
C13 C14 1.18(3) . ?
C13 O1 1.36(3) . ?
C14 O2 1.47(4) . ?
C15 C16 1.28(4) . ?
C15 O2 1.68(4) . ?
C16 O1 1.37(3) . ?
C17 O3 1.358(19) . ?
C17 C18 1.54(3) . ?
C18 O4 1.28(4) . ?
C19 O4 0.98(3) 3_646 ?
C19 C19 1.40(4) 3_646 ?
C19 O4 1.54(4) . ?
C19 C20 1.57(2) . ?
C20 O3 1.37(2) . ?
O4 C19 0.98(3) 3_646 ?
C17' O3' 1.41(3) . ?
C17' C18' 1.448(10) . ?
C18' O4' 1.26(8) . ?
C19' C20' 1.43(5) . ?
C19' O4' 1.56(7) . ?
C20' O3' 1.26(5) . ?

loop_
_geom_angle_atom_site_label_1
_geom_angle_atom_site_label_2
_geom_angle_atom_site_label_3
_geom_angle
_geom_angle_site_symmetry_1
_geom_angle_site_symmetry_3
_geom_angle_publ_flag
N4 Cu1 N4 180.000(1) . 3_656 ?
N4 Cu1 N8 90.65(18) . . ?
N4 Cu1 N8 89.35(18) 3_656 . ?
N4 Cu1 N8 89.35(18) . 3_656 ?
N4 Cu1 N8 90.65(18) 3_656 3_656 ?
N8 Cu1 N8 180.0(3) . 3_656 ?
N4 Cu1 N11 94.31(16) . 3_656 ?
N4 Cu1 N11 85.69(16) 3_656 3_656 ?
N8 Cu1 N11 81.76(16) . 3_656 ?
N8 Cu1 N11 98.24(16) 3_656 3_656 ?
N4 Cu1 N11 85.69(16) . . ?
N4 Cu1 N11 94.31(16) 3_656 . ?
N8 Cu1 N11 98.24(16) . . ?
N8 Cu1 N11 81.76(16) 3_656 . ?
N11 Cu1 N11 180.0 3_656 . ?
N11 Cu2 N6 90.78(18) . 2 ?
N11 Cu2 N1 177.58(18) . 2_655 ?
N6 Cu2 N1 89.49(18) 2 2_655 ?
N11 Cu2 N9 87.49(17) . 3_656 ?
N6 Cu2 N9 171.87(18) 2 3_656 ?
N1 Cu2 N9 91.91(17) 2_655 3_656 ?
N11 Cu2 N3 85.43(17) . . ?
N6 Cu2 N3 99.06(17) 2 . ?
N1 Cu2 N3 96.91(17) 2_655 . ?
N9 Cu2 N3 88.72(16) 3_656 . ?
N1 C1 C2 124.6(6) . . ?
N1 C1 H1 117.7 . . ?
C2 C1 H1 117.7 . . ?
C3 C2 C1 118.4(6) . . ?
C3 C2 H2 120.8 . . ?
C1 C2 H2 120.8 . . ?
C2 C3 C4 118.0(5) . . ?
C2 C3 C6 122.5(5) . . ?
C4 C3 C6 119.4(5) . . ?
C5 C4 C3 119.4(6) . . ?
C5 C4 H4 120.3 . . ?
C3 C4 H4 120.3 . . ?
N1 C5 C4 122.3(6) . . ?
N1 C5 H5 118.9 . . ?
C4 C5 H5 118.9 . . ?
N5 C6 N2 112.5(5) . . ?
N5 C6 C3 123.1(5) . . ?
N2 C6 C3 124.3(5) . . ?
N6 C7 C8 124.4(7) . . ?
N6 C7 H7 117.8 . . ?
C8 C7 H7 117.8 . . ?
C9 C8 C7 119.4(7) . . ?
C9 C8 H8 120.3 . . ?
C7 C8 H8 120.3 . . ?
C8 C9 C10 117.2(6) . . ?
C8 C9 C12 121.0(6) . . ?
C10 C9 C12 121.8(5) . . ?
C9 C10 C11 119.5(7) . . ?
C9 C10 H10 120.2 . . ?
C11 C10 H10 120.2 . . ?
N6 C11 C10 122.6(7) . . ?
N6 C11 H11 118.7 . . ?
C10 C11 H11 118.7 . . ?
N7 C12 N10 113.5(4) . . ?
N7 C12 C9 123.7(5) . . ?
N10 C12 C9 122.8(5) . . ?
C1 N1 C5 117.4(5) . . ?
C1 N1 Cu2 124.1(4) . 2_645 ?
C5 N1 Cu2 118.2(4) . 2_645 ?
N3 N2 C6 103.9(4) . . ?
N4 N3 N2 108.7(4) . . ?
N4 N3 Cu2 113.5(3) . . ?
N2 N3 Cu2 135.5(3) . . ?
N3 N4 N5 111.3(4) . . ?
N3 N4 Cu1 124.1(3) . . ?
N5 N4 Cu1 124.1(3) . . ?
N4 N5 C6 103.7(4) . . ?
C7 N6 C11 116.4(6) . . ?
C7 N6 Cu2 122.8(4) . 2_545 ?
C11 N6 Cu2 120.8(4) . 2_545 ?
C12 N7 N8 103.4(4) . . ?
N9 N8 N7 110.5(4) . . ?
N9 N8 Cu1 121.3(3) . . ?
N7 N8 Cu1 128.1(3) . . ?
N8 N9 N10 109.8(4) . . ?
N8 N9 Cu2 121.4(3) . 3_656 ?
N10 N9 Cu2 128.8(3) . 3_656 ?
N9 N10 C12 102.7(4) . . ?
N12 N11 Cu2 126.2(5) . . ?
N12 N11 Cu1 129.6(5) . . ?
Cu2 N11 Cu1 104.21(18) . . ?
N11 N12 N13 167(2) . . ?
C14 C13 O1 119(3) . . ?
C13 C14 O2 113(3) . . ?
C16 C15 O2 96(3) . . ?
C15 C16 O1 121(3) . . ?
C13 O1 C16 123(2) . . ?
C14 O2 C15 122(3) . . ?
O3 C17 C18 115.5(14) . . ?
O4 C18 C17 110(2) . . ?
O4 C19 C19 79(3) 3_646 3_646 ?
O4 C19 O4 117(3) 3_646 . ?
C19 C19 O4 38.4(13) 3_646 . ?
O4 C19 C20 142(3) 3_646 . ?
C19 C19 C20 138(2) 3_646 . ?
O4 C19 C20 99.8(19) . . ?
O3 C20 C19 117.7(14) . . ?
C17 O3 C20 120.4(13) . . ?
C19 O4 C18 135(4) 3_646 . ?
C19 O4 C19 63(3) 3_646 . ?
C18 O4 C19 122(3) . . ?
O3' C17' C18' 108(4) . . ?
O4' C18' C17' 129(8) . . ?
C20' C19' O4' 115(4) . . ?
O3' C20' C19' 112(4) . . ?
C20' O3' C17' 127(3) . . ?
C18' O4' C19' 112(6) . . ?

loop_
_geom_torsion_atom_site_label_1
_geom_torsion_atom_site_label_2
_geom_torsion_atom_site_label_3
_geom_torsion_atom_site_label_4
_geom_torsion
_geom_torsion_site_symmetry_1
_geom_torsion_site_symmetry_2
_geom_torsion_site_symmetry_3
_geom_torsion_site_symmetry_4
_geom_torsion_publ_flag
N1 C1 C2 C3 -1.8(12) . . . . ?
C1 C2 C3 C4 1.1(10) . . . . ?
C1 C2 C3 C6 177.5(6) . . . . ?
C2 C3 C4 C5 -0.3(11) . . . . ?
C6 C3 C4 C5 -176.7(7) . . . . ?
C3 C4 C5 N1 0.0(12) . . . . ?
C2 C3 C6 N5 174.0(6) . . . . ?
C4 C3 C6 N5 -9.7(9) . . . . ?
C2 C3 C6 N2 -10.0(9) . . . . ?
C4 C3 C6 N2 166.3(6) . . . . ?
N6 C7 C8 C9 -7(2) . . . . ?
C7 C8 C9 C10 1.7(18) . . . . ?
C7 C8 C9 C12 -179.7(11) . . . . ?
C8 C9 C10 C11 2.6(17) . . . . ?
C12 C9 C10 C11 -176.0(10) . . . . ?
C9 C10 C11 N6 -2.5(19) . . . . ?
C8 C9 C12 N7 -13.8(12) . . . . ?
C10 C9 C12 N7 164.8(9) . . . . ?
C8 C9 C12 N10 167.3(9) . . . . ?
C10 C9 C12 N10 -14.2(11) . . . . ?
C2 C1 N1 C5 1.5(11) . . . . ?
C2 C1 N1 Cu2 -171.4(6) . . . 2_645 ?
C4 C5 N1 C1 -0.6(11) . . . . ?
C4 C5 N1 Cu2 172.7(6) . . . 2_645 ?
N5 C6 N2 N3 0.7(6) . . . . ?
C3 C6 N2 