####################################################################### 
# 
# This file contains crystal structure data downloaded from the 
# Cambridge Structural Database (CSD) hosted by the Cambridge 
# Crystallographic Data Centre (CCDC).
# 
# Full information about CCDC data access policies and citation 
# guidelines are available at http://www.ccdc.cam.ac.uk/access/V1 
# 
# Audit and citation data items may have been added by the CCDC. 
# Please retain this information to preserve the provenance of 
# this file and to allow appropriate attribution of the data. 
# 
#######################################################################

data_Compound-(1g)
_audit_block_doi                 10.5517/cc11q9ln
_database_code_depnum_ccdc_archive 'CCDC 974751'
loop_
_citation_id
_citation_doi
_citation_year
1 10.1021/ic5008457 2014
_audit_update_record             
;
2013-12-02 deposited with the CCDC.	2024-07-12 downloaded from the CCDC.
;

_audit_creation_method           SHELXL-97
_chemical_name_systematic        
;
 ?
;
_chemical_name_common            ?
_chemical_melting_point          ?
_chemical_formula_moiety         'C30 H30 Cu3 N28 O2'
_chemical_formula_sum            'C30 H30 Cu3 N28 O2'
_chemical_formula_weight         1005.44

loop_
_atom_type_symbol
_atom_type_description
_atom_type_scat_dispersion_real
_atom_type_scat_dispersion_imag
_atom_type_scat_source
C C 0.0033 0.0016 'International Tables Vol C Tables 4.2.6.8 and 6.1.1.4'
H H 0.0000 0.0000 'International Tables Vol C Tables 4.2.6.8 and 6.1.1.4'
N N 0.0061 0.0033 'International Tables Vol C Tables 4.2.6.8 and 6.1.1.4'
O O 0.0106 0.0060 'International Tables Vol C Tables 4.2.6.8 and 6.1.1.4'
Cu Cu 0.3201 1.2651 'International Tables Vol C Tables 4.2.6.8 and 6.1.1.4'

_symmetry_cell_setting           monoclinic
_symmetry_space_group_name_H-M   'P 21/n'

loop_
_symmetry_equiv_pos_as_xyz
'x, y, z'
'-x+1/2, y+1/2, -z+1/2'
'-x, -y, -z'
'x-1/2, -y-1/2, z-1/2'

_cell_length_a                   13.0900(9)
_cell_length_b                   14.7440(8)
_cell_length_c                   15.5750(10)
_cell_angle_alpha                90.00
_cell_angle_beta                 91.641(7)
_cell_angle_gamma                90.00
_cell_volume                     3004.7(3)
_cell_formula_units_Z            2
_cell_measurement_temperature    293(2)
_cell_measurement_reflns_used    1999
_cell_measurement_theta_min      3.0769
_cell_measurement_theta_max      29.2090

_exptl_crystal_description       block
_exptl_crystal_colour            green
_exptl_crystal_size_max          0.26
_exptl_crystal_size_mid          0.23
_exptl_crystal_size_min          0.21
_exptl_crystal_density_meas      ?
_exptl_crystal_density_diffrn    1.111
_exptl_crystal_density_method    'not measured'
_exptl_crystal_F_000             1018
_exptl_absorpt_coefficient_mu    1.099
_exptl_absorpt_correction_type   multi-scan
_exptl_absorpt_correction_T_min  0.7631
_exptl_absorpt_correction_T_max  0.8020
_exptl_absorpt_process_details   ?

_exptl_special_details           
;
 ?
;

_diffrn_ambient_temperature      293(2)
_diffrn_radiation_wavelength     0.71069
_diffrn_radiation_type           MoK\a
_diffrn_radiation_source         'fine-focus sealed tube'
_diffrn_radiation_monochromator  graphite
_diffrn_measurement_device_type  'Oxford Diffraction Gemini R Ultra'
_diffrn_measurement_method       '\w scan'
_diffrn_detector_area_resol_mean 10.0
_diffrn_standards_number         ?
_diffrn_standards_interval_count ?
_diffrn_standards_interval_time  ?
_diffrn_standards_decay_%        ?
_diffrn_reflns_number            11299
_diffrn_reflns_av_R_equivalents  0.0700
_diffrn_reflns_av_sigmaI/netI    0.1155
_diffrn_reflns_limit_h_min       -12
_diffrn_reflns_limit_h_max       15
_diffrn_reflns_limit_k_min       -17
_diffrn_reflns_limit_k_max       14
_diffrn_reflns_limit_l_min       -18
_diffrn_reflns_limit_l_max       18
_diffrn_reflns_theta_min         3.38
_diffrn_reflns_theta_max         25.03
_reflns_number_total             5161
_reflns_number_gt                3173
_reflns_threshold_expression     >2\s(I)

_computing_data_collection       'CrysAlis (Oxford Diffraction, 2006)'
_computing_cell_refinement       CrysAlis
_computing_data_reduction        CrysAlis
_computing_structure_solution    'SHELXS-97 (Sheldrick, 1997)'
_computing_structure_refinement  'SHELXL-97 (Sheldrick, 2008)'
_computing_molecular_graphics    ?
_computing_publication_material  ?

_refine_special_details          
;
 Refinement of F^2^ against ALL reflections.  The weighted R-factor wR and
 goodness of fit S are based on F^2^, conventional R-factors R are based
 on F, with F set to zero for negative F^2^. The threshold expression of
 F^2^ > 2\s(F^2^) is used only for calculating R-factors(gt) etc. and is
 not relevant to the choice of reflections for refinement.  R-factors based
 on F^2^ are statistically about twice as large as those based on F, and R-
 factors based on ALL data will be even larger.
;

_refine_ls_structure_factor_coef Fsqd
_refine_ls_matrix_type           full
_refine_ls_weighting_scheme      calc
_refine_ls_weighting_details     
'calc w=1/[\s^2^(Fo^2^)+(0.0881P)^2^+0.0000P] where P=(Fo^2^+2Fc^2^)/3'
_atom_sites_solution_primary     direct
_atom_sites_solution_secondary   difmap
_atom_sites_solution_hydrogens   geom
_refine_ls_hydrogen_treatment    mixed
_refine_ls_extinction_method     none
_refine_ls_extinction_coef       ?
_refine_ls_number_reflns         5161
_refine_ls_number_parameters     286
_refine_ls_number_restraints     0
_refine_ls_R_factor_all          0.1197
_refine_ls_R_factor_gt           0.0718
_refine_ls_wR_factor_ref         0.2002
_refine_ls_wR_factor_gt          0.1677
_refine_ls_goodness_of_fit_ref   1.025
_refine_ls_restrained_S_all      1.025
_refine_ls_shift/su_max          0.000
_refine_ls_shift/su_mean         0.000

loop_
_atom_site_label
_atom_site_type_symbol
_atom_site_fract_x
_atom_site_fract_y
_atom_site_fract_z
_atom_site_U_iso_or_equiv
_atom_site_adp_type
_atom_site_occupancy
_atom_site_symmetry_multiplicity
_atom_site_calc_flag
_atom_site_refinement_flags
_atom_site_disorder_assembly
_atom_site_disorder_group
Cu1 Cu 0.0000 0.0000 0.0000 0.0328(3) Uani 1 2 d S . .
Cu2 Cu -0.02147(5) 0.20445(5) 0.10106(4) 0.0417(3) Uani 1 1 d . . .
C1 C -0.3909(6) 0.3112(5) -0.2446(4) 0.064(2) Uani 1 1 d . . .
H1 H -0.4161 0.3701 -0.2456 0.077 Uiso 1 1 calc R . .
C2 C -0.3230(6) 0.2890(5) -0.1793(5) 0.068(2) Uani 1 1 d . . .
H2 H -0.3048 0.3311 -0.1371 0.082 Uiso 1 1 calc R . .
C3 C -0.2824(5) 0.2033(4) -0.1775(4) 0.0469(15) Uani 1 1 d . . .
C4 C -0.3144(6) 0.1444(4) -0.2434(4) 0.062(2) Uani 1 1 d . . .
H4 H -0.2901 0.0852 -0.2444 0.075 Uiso 1 1 calc R . .
C5 C -0.3807(6) 0.1736(5) -0.3056(4) 0.064(2) Uani 1 1 d . . .
H5 H -0.3980 0.1346 -0.3507 0.077 Uiso 1 1 calc R . .
C6 C -0.2081(4) 0.1735(4) -0.1120(4) 0.0432(15) Uani 1 1 d . . .
C7 C 0.3411(6) 0.2361(4) -0.2682(4) 0.0585(18) Uani 1 1 d . . .
H7 H 0.3671 0.2883 -0.2421 0.070 Uiso 1 1 calc R . .
C8 C 0.2759(6) 0.1840(4) -0.2230(4) 0.0583(19) Uani 1 1 d . . .
H8 H 0.2588 0.2007 -0.1677 0.070 Uiso 1 1 calc R . .
C9 C 0.2352(5) 0.1062(4) -0.2595(4) 0.0452(15) Uani 1 1 d . . .
C10 C 0.2652(5) 0.0849(4) -0.3422(4) 0.0547(17) Uani 1 1 d . . .
H10 H 0.2402 0.0331 -0.3696 0.066 Uiso 1 1 calc R . .
C11 C 0.3326(5) 0.1417(5) -0.3830(4) 0.0552(17) Uani 1 1 d . . .
H11 H 0.3526 0.1263 -0.4379 0.066 Uiso 1 1 calc R . .
C12 C 0.1666(4) 0.0472(4) -0.2125(4) 0.0417(14) Uani 1 1 d . . .
C13 C 0.0421(8) 0.3126(7) -0.0696(7) 0.094(3) Uani 1 1 d . . .
H13 H 0.0726 0.2562 -0.0771 0.112 Uiso 1 1 calc R . .
C14 C -0.0371(13) 0.4375(9) -0.1376(10) 0.179(7) Uani 1 1 d . . .
H14A H -0.0516 0.4568 -0.1956 0.269 Uiso 1 1 calc R . .
H14B H 0.0056 0.4816 -0.1089 0.269 Uiso 1 1 calc R . .
H14C H -0.0999 0.4313 -0.1078 0.269 Uiso 1 1 calc R . .
C15 C 0.0112(15) 0.3061(13) -0.2234(8) 0.204(8) Uani 1 1 d . . .
H15A H -0.0121 0.3465 -0.2681 0.307 Uiso 1 1 calc R . .
H15B H -0.0339 0.2550 -0.2207 0.307 Uiso 1 1 calc R . .
H15C H 0.0790 0.2856 -0.2352 0.307 Uiso 1 1 calc R . .
N1 N -0.4227(4) 0.2572(3) -0.3046(3) 0.0443(12) Uani 1 1 d . . .
N2 N -0.1619(4) 0.0933(3) -0.1125(3) 0.0411(12) Uani 1 1 d . . .
N3 N -0.1013(3) 0.0945(3) -0.0421(3) 0.0371(11) Uani 1 1 d . . .
N4 N -0.1120(3) 0.1717(3) -0.0019(3) 0.0401(12) Uani 1 1 d . . .
N5 N -0.1795(4) 0.2232(3) -0.0436(3) 0.0506(13) Uani 1 1 d . . .
N6 N 0.3701(4) 0.2172(3) -0.3473(3) 0.0436(12) Uani 1 1 d . . .
N7 N 0.1244(4) 0.0760(3) -0.1391(3) 0.0444(12) Uani 1 1 d . . .
N8 N 0.0715(4) 0.0053(3) -0.1138(3) 0.0379(11) Uani 1 1 d . . .
N9 N 0.0821(4) -0.0634(3) -0.1670(3) 0.0426(12) Uani 1 1 d . . .
N10 N 0.1418(4) -0.0372(3) -0.2311(3) 0.0472(12) Uani 1 1 d . . .
N11 N 0.0837(4) 0.1240(3) 0.0526(3) 0.0424(12) Uani 1 1 d . . .
N12 N 0.1696(6) 0.1384(5) 0.0561(5) 0.092(2) Uani 1 1 d . . .
N13 N 0.2557(7) 0.1533(12) 0.0593(13) 0.271(11) Uani 1 1 d . . .
N14 N 0.0125(7) 0.3555(5) -0.1385(5) 0.100(2) Uani 1 1 d . . .
O1 O 0.0339(5) 0.3387(4) 0.0038(4) 0.0923(18) Uani 1 1 d . . .

loop_
_atom_site_aniso_label
_atom_site_aniso_U_11
_atom_site_aniso_U_22
_atom_site_aniso_U_33
_atom_site_aniso_U_23
_atom_site_aniso_U_13
_atom_site_aniso_U_12
Cu1 0.0350(5) 0.0329(5) 0.0303(5) 0.0018(4) -0.0010(4) 0.0035(4)
Cu2 0.0403(5) 0.0471(5) 0.0370(4) -0.0123(3) -0.0092(3) 0.0087(3)
C1 0.086(5) 0.043(4) 0.062(4) -0.002(3) -0.038(4) 0.018(4)
C2 0.082(5) 0.054(4) 0.066(5) -0.013(4) -0.038(4) 0.014(4)
C3 0.048(4) 0.052(4) 0.040(3) -0.001(3) -0.009(3) 0.006(3)
C4 0.086(5) 0.037(3) 0.062(4) -0.008(3) -0.035(4) 0.017(3)
C5 0.084(5) 0.051(4) 0.056(4) -0.004(3) -0.031(4) 0.002(4)
C6 0.045(4) 0.045(3) 0.038(3) -0.002(3) -0.013(3) 0.004(3)
C7 0.080(5) 0.048(4) 0.048(4) -0.012(3) 0.008(4) -0.029(4)
C8 0.088(5) 0.045(4) 0.043(4) -0.008(3) 0.020(4) -0.020(4)
C9 0.054(4) 0.044(3) 0.038(3) 0.007(3) 0.006(3) -0.005(3)
C10 0.075(5) 0.047(4) 0.042(4) 0.003(3) 0.011(3) -0.024(3)
C11 0.062(4) 0.057(4) 0.046(4) -0.001(3) 0.004(3) -0.020(3)
C12 0.045(3) 0.045(4) 0.036(3) -0.004(3) 0.010(3) -0.010(3)
C13 0.118(8) 0.089(6) 0.074(6) 0.004(6) 0.005(6) 0.016(6)
C14 0.221(17) 0.131(11) 0.187(14) 0.065(10) 0.027(12) 0.082(12)
C15 0.26(2) 0.26(2) 0.094(9) -0.050(11) 0.002(11) 0.069(16)
N1 0.046(3) 0.040(3) 0.046(3) 0.003(2) -0.018(2) -0.005(2)
N2 0.052(3) 0.036(3) 0.035(3) -0.001(2) -0.015(2) 0.010(2)
N3 0.045(3) 0.032(3) 0.033(2) -0.011(2) -0.010(2) 0.006(2)
N4 0.040(3) 0.041(3) 0.038(3) -0.003(2) -0.012(2) 0.009(2)
N5 0.053(3) 0.049(3) 0.049(3) -0.007(3) -0.015(3) 0.015(3)
N6 0.045(3) 0.048(3) 0.037(3) 0.006(2) -0.006(2) -0.007(2)
N7 0.058(3) 0.033(3) 0.042(3) -0.001(2) 0.007(2) -0.007(2)
N8 0.052(3) 0.027(2) 0.035(3) 0.000(2) 0.006(2) -0.006(2)
N9 0.045(3) 0.043(3) 0.040(3) -0.008(2) 0.011(2) -0.007(2)
N10 0.053(3) 0.047(3) 0.042(3) -0.005(2) 0.013(2) -0.017(3)
N11 0.040(3) 0.048(3) 0.040(3) -0.004(2) 0.005(2) 0.002(2)
N12 0.049(4) 0.086(5) 0.141(7) -0.046(5) 0.007(4) -0.001(4)
N13 0.055(6) 0.310(18) 0.45(3) -0.257(19) 0.029(10) -0.023(9)
N14 0.157(7) 0.086(5) 0.058(4) 0.015(4) 0.013(4) 0.030(5)
O1 0.109(5) 0.103(5) 0.064(4) -0.008(3) 0.001(3) -0.005(4)

_geom_special_details            
;
 All s.u.'s (except the s.u. in the dihedral angle between two l.s. planes)
 are estimated using the full covariance matrix.  The cell s.u.'s are taken
 into account individually in the estimation of s.u.'s in distances, angles
 and torsion angles; correlations between s.u.'s in cell parameters are only
 used when they are defined by crystal symmetry.  An approximate (isotropic)
 treatment of cell s.u.'s is used for estimating s.u.'s involving l.s. planes.
;

loop_
_geom_bond_atom_site_label_1
_geom_bond_atom_site_label_2
_geom_bond_distance
_geom_bond_site_symmetry_2
_geom_bond_publ_flag
Cu1 N3 2.020(4) 3 ?
Cu1 N3 2.020(4) . ?
Cu1 N8 2.029(4) . ?
Cu1 N8 2.029(4) 3 ?
Cu1 N11 2.272(5) . ?
Cu1 N11 2.272(5) 3 ?
Cu2 N11 1.983(5) . ?
Cu2 N1 2.010(4) 4_666 ?
Cu2 N6 2.015(5) 4_566 ?
Cu2 N4 2.025(4) . ?
Cu2 N9 2.461(5) 3 ?
C1 N1 1.288(8) . ?
C1 C2 1.371(9) . ?
C1 H1 0.9300 . ?
C2 C3 1.370(9) . ?
C2 H2 0.9300 . ?
C3 C4 1.399(8) . ?
C3 C6 1.458(8) . ?
C4 C5 1.353(9) . ?
C4 H4 0.9300 . ?
C5 N1 1.350(8) . ?
C5 H5 0.9300 . ?
C6 N2 1.329(7) . ?
C6 N5 1.337(7) . ?
C7 N6 1.328(8) . ?
C7 C8 1.360(9) . ?
C7 H7 0.9300 . ?
C8 C9 1.380(8) . ?
C8 H8 0.9300 . ?
C9 C10 1.393(8) . ?
C9 C12 1.462(8) . ?
C10 C11 1.383(8) . ?
C10 H10 0.9300 . ?
C11 N6 1.333(8) . ?
C11 H11 0.9300 . ?
C12 N10 1.317(7) . ?
C12 N7 1.352(7) . ?
C13 O1 1.215(10) . ?
C13 N14 1.295(11) . ?
C13 H13 0.9300 . ?
C14 N14 1.373(14) . ?
C14 H14A 0.9600 . ?
C14 H14B 0.9600 . ?
C14 H14C 0.9600 . ?
C15 N14 1.508(14) . ?
C15 H15A 0.9600 . ?
C15 H15B 0.9600 . ?
C15 H15C 0.9600 . ?
N1 Cu2 2.010(4) 4_565 ?
N2 N3 1.335(6) . ?
N3 N4 1.308(6) . ?
N4 N5 1.322(6) . ?
N6 Cu2 2.015(5) 4_665 ?
N7 N8 1.319(6) . ?
N8 N9 1.319(6) . ?
N9 N10 1.342(6) . ?
N9 Cu2 2.461(5) 3 ?
N11 N12 1.144(8) . ?
N12 N13 1.149(11) . ?

loop_
_geom_angle_atom_site_label_1
_geom_angle_atom_site_label_2
_geom_angle_atom_site_label_3
_geom_angle
_geom_angle_site_symmetry_1
_geom_angle_site_symmetry_3
_geom_angle_publ_flag
N3 Cu1 N3 180.0(3) 3 . ?
N3 Cu1 N8 89.70(18) 3 . ?
N3 Cu1 N8 90.30(18) . . ?
N3 Cu1 N8 90.30(18) 3 3 ?
N3 Cu1 N8 89.70(18) . 3 ?
N8 Cu1 N8 180.0(3) . 3 ?
N3 Cu1 N11 97.62(17) 3 . ?
N3 Cu1 N11 82.38(17) . . ?
N8 Cu1 N11 93.10(17) . . ?
N8 Cu1 N11 86.90(17) 3 . ?
N3 Cu1 N11 82.38(17) 3 3 ?
N3 Cu1 N11 97.62(17) . 3 ?
N8 Cu1 N11 86.90(17) . 3 ?
N8 Cu1 N11 93.10(17) 3 3 ?
N11 Cu1 N11 180.0(3) . 3 ?
N11 Cu2 N1 90.4(2) . 4_666 ?
N11 Cu2 N6 178.1(2) . 4_566 ?
N1 Cu2 N6 89.57(19) 4_666 4_566 ?
N11 Cu2 N4 87.27(19) . . ?
N1 Cu2 N4 174.5(2) 4_666 . ?
N6 Cu2 N4 92.88(18) 4_566 . ?
N11 Cu2 N9 83.65(18) . 3 ?
N1 Cu2 N9 98.12(18) 4_666 3 ?
N6 Cu2 N9 94.48(18) 4_566 3 ?
N4 Cu2 N9 86.59(18) . 3 ?
N1 C1 C2 125.5(6) . . ?
N1 C1 H1 117.3 . . ?
C2 C1 H1 117.3 . . ?
C3 C2 C1 118.5(6) . . ?
C3 C2 H2 120.8 . . ?
C1 C2 H2 120.8 . . ?
C2 C3 C4 116.8(5) . . ?
C2 C3 C6 122.8(6) . . ?
C4 C3 C6 120.4(5) . . ?
C5 C4 C3 120.0(6) . . ?
C5 C4 H4 120.0 . . ?
C3 C4 H4 120.0 . . ?
N1 C5 C4 122.4(6) . . ?
N1 C5 H5 118.8 . . ?
C4 C5 H5 118.8 . . ?
N2 C6 N5 112.0(5) . . ?
N2 C6 C3 124.0(5) . . ?
N5 C6 C3 123.9(5) . . ?
N6 C7 C8 124.2(6) . . ?
N6 C7 H7 117.9 . . ?
C8 C7 H7 117.9 . . ?
C7 C8 C9 119.8(6) . . ?
C7 C8 H8 120.1 . . ?
C9 C8 H8 120.1 . . ?
C8 C9 C10 116.9(6) . . ?
C8 C9 C12 121.6(5) . . ?
C10 C9 C12 121.5(5) . . ?
C11 C10 C9 119.2(6) . . ?
C11 C10 H10 120.4 . . ?
C9 C10 H10 120.4 . . ?
N6 C11 C10 123.1(6) . . ?
N6 C11 H11 118.4 . . ?
C10 C11 H11 118.4 . . ?
N10 C12 N7 112.3(5) . . ?
N10 C12 C9 127.1(5) . . ?
N7 C12 C9 120.5(5) . . ?
O1 C13 N14 126.3(9) . . ?
O1 C13 H13 116.8 . . ?
N14 C13 H13 116.8 . . ?
N14 C14 H14A 109.5 . . ?
N14 C14 H14B 109.5 . . ?
H14A C14 H14B 109.5 . . ?
N14 C14 H14C 109.5 . . ?
H14A C14 H14C 109.5 . . ?
H14B C14 H14C 109.5 . . ?
N14 C15 H15A 109.5 . . ?
N14 C15 H15B 109.5 . . ?
H15A C15 H15B 109.5 . . ?
N14 C15 H15C 109.5 . . ?
H15A C15 H15C 109.5 . . ?
H15B C15 H15C 109.5 . . ?
C1 N1 C5 116.7(5) . . ?
C1 N1 Cu2 123.0(4) . 4_565 ?
C5 N1 Cu2 120.2(4) . 4_565 ?
C6 N2 N3 104.0(4) . . ?
N4 N3 N2 109.6(4) . . ?
N4 N3 Cu1 121.5(3) . . ?
N2 N3 Cu1 128.8(3) . . ?
N3 N4 N5 110.1(4) . . ?
N3 N4 Cu2 121.3(3) . . ?
N5 N4 Cu2 128.3(4) . . ?
N4 N5 C6 104.2(5) . . ?
C7 N6 C11 116.8(5) . . ?
C7 N6 Cu2 118.3(4) . 4_665 ?
C11 N6 Cu2 124.6(4) . 4_665 ?
N8 N7 C12 103.6(4) . . ?
N9 N8 N7 110.7(4) . . ?
N9 N8 Cu1 125.4(3) . . ?
N7 N8 Cu1 123.5(3) . . ?
N8 N9 N10 108.7(4) . . ?
N8 N9 Cu2 110.2(3) . 3 ?
N10 N9 Cu2 139.0(4) . 3 ?
C12 N10 N9 104.6(4) . . ?
N12 N11 Cu2 124.2(5) . . ?
N12 N11 Cu1 129.0(5) . . ?
Cu2 N11 Cu1 106.6(2) . . ?
N11 N12 N13 179.6(18) . . ?
C13 N14 C14 123.5(10) . . ?
C13 N14 C15 119.1(10) . . ?
C14 N14 C15 116.1(11) . . ?

loop_
_geom_torsion_atom_site_label_1
_geom_torsion_atom_site_label_2
_geom_torsion_atom_site_label_3
_geom_torsion_atom_site_label_4
_geom_torsion
_geom_torsion_site_symmetry_1
_geom_torsion_site_symmetry_2
_geom_torsion_site_symmetry_3
_geom_torsion_site_symmetry_4
_geom_torsion_publ_flag
N1 C1 C2 C3 1.8(13) . . . . ?
C1 C2 C3 C4 -0.2(11) . . . . ?
C1 C2 C3 C6 178.7(7) . . . . ?
C2 C3 C4 C5 1.3(11) . . . . ?
C6 C3 C4 C5 -177.7(7) . . . . ?
C3 C4 C5 N1 -3.8(12) . . . . ?
C2 C3 C6 N2 -174.8(7) . . . . ?
C4 C3 C6 N2 4.1(10) . . . . ?
C2 C3 C6 N5 6.4(11) . . . . ?
C4 C3 C6 N5 -174.7(7) . . . . ?
N6 C7 C8 C9 -0.3(12) . . . . ?
C7 C8 C9 C10 0.8(10) . . . . ?
C7 C8 C9 C12 178.6(7) . . . . ?
C8 C9 C10 C11 -0.3(10) . . . . ?
C12 C9 C10 C11 -178.1(6) . . . . ?
C9 C10 C11 N6 -0.7(10) . . . . ?
C8 C9 C12 N10 -163.1(6) . . . . ?
C10 C9 C12 N10 14.6(10) . . . . ?
C8 C9 C12 N7 13.7(9) . . . . ?
C10 C9 C12 N7 -168.5(6) . . . . ?
C2 C1 N1 C5 -4.0(12) . . . . ?
C2 C1 N1 Cu2 -179.3(6) . . . 4_565 ?
C4 C5 N1 C1 5.0(11) . . . . ?
C4 C5 N1 Cu2 -179.6(6) . . . 4_565 ?
N5 C6 N2 N3 -1.0(7) . . . . ?
C3 C6 N2 N3 -180.0(6) . . . . ?
C6 N2 N3 N4 0.4(6) . . . . ?
C6 N2 N3 Cu1 -176.5(4) . . . . ?
N3 Cu1 N3 N4 119(28) 3 . . . ?
N8 Cu1 N3 N4 -121.1(4) . . . . ?
N8 Cu1 N3 N4 58.9(4) 3 . . . ?
N11 Cu1 N3 N4 -28.0(4) . . . . ?
N11 Cu1 N3 N4 152.0(4) 3 . . . ?
N3 Cu1 N3 N2 -65(28) 3 . . . ?
N8 Cu1 N3 N2 55.5(5) . . . . ?
N8 Cu1 N3 N2 -124.5(5) 3 . . . ?
N11 Cu1 N3 N2 148.5(5) . . . . ?
N11 Cu1 N3 N2 -31.5(5) 3 . . . ?
N2 N3 N4 N5 0.4(6) . . . . ?
Cu1 N3 N4 N5 177.5(4) . . . . ?
N2 N3 N4 Cu2 -173.4(4) . . . . ?
Cu1 N3 N4 Cu2 3.7(6) . . . . ?
N11 Cu2 N4 N3 26.8(4) . . . . ?
N1 Cu2 N4 N3 92(2) 4_666 . . . ?
N6 Cu2 N4 N3 -151.4(4) 4_566 . . . ?
N9 Cu2 N4 N3 -57.0(4) 3 . . . ?
N11 Cu2 N4 N5 -145.8(5) . . . . ?
N1 Cu2 N4 N5 -80(2) 4_666 . . . ?
N6 Cu2 N4 N5 36.1(5) 4_566 . . . ?
N9 Cu2 N4 N5 130.5(5) 3 . . . ?
N3 N4 N5 C6 -0.9(6) . . . . ?
Cu2 N4 N5 C6 172.3(4) . . . . ?
N2 C6 N5 N4 1.2(7) . . . . ?
C3 C6 N5 N4 -179.8(6) . . . . ?
C8 C7 N6 C11 -0.6(11) . . . . ?
C8 C7 N6 Cu2 -173.7(6) . . . 4_665 ?
C10 C11 N6 C7 1.1(10) . . . . ?
C10 C11 N6 Cu2 173.8(5) . . . 4_665 ?
N10 C12 N7 N8 -0.5(7) . . . . ?
C9 C12 N7 N8 -177.8(5) . . . . ?
C12 N7 N8 N9 1.2(6) . . . . ?
C12 N7 N8 Cu1 173.9(4) . . . . ?
N3 Cu1 N8 N9 60.5(4) 3 . . . ?
N3 Cu1 N8 N9 -119.5(4) . . . . ?
N