####################################################################### 
# 
# This file contains crystal structure data downloaded from the 
# Cambridge Structural Database (CSD) hosted by the Cambridge 
# Crystallographic Data Centre (CCDC).
# 
# Full information about CCDC data access policies and citation 
# guidelines are available at http://www.ccdc.cam.ac.uk/access/V1 
# 
# Audit and citation data items may have been added by the CCDC. 
# Please retain this information to preserve the provenance of 
# this file and to allow appropriate attribution of the data. 
# 
#######################################################################

data_Compound-(1)
_audit_block_doi                 10.5517/cc11q9cf
_database_code_depnum_ccdc_archive 'CCDC 974744'
loop_
_citation_id
_citation_doi
_citation_year
1 10.1021/ic5008457 2014
_audit_update_record             
;
2013-12-02 deposited with the CCDC.	2024-07-12 downloaded from the CCDC.
;

_audit_creation_method           SHELXL-97
_chemical_name_systematic        
;
 ?
;
_chemical_name_common            ?
_chemical_melting_point          ?
_chemical_formula_moiety         'C36 H48 Cu3 N30 O6'
_chemical_formula_sum            'C36 H48 Cu3 N30 O6'
_chemical_formula_weight         1187.66

loop_
_atom_type_symbol
_atom_type_description
_atom_type_scat_dispersion_real
_atom_type_scat_dispersion_imag
_atom_type_scat_source
C C 0.0033 0.0016 'International Tables Vol C Tables 4.2.6.8 and 6.1.1.4'
H H 0.0000 0.0000 'International Tables Vol C Tables 4.2.6.8 and 6.1.1.4'
N N 0.0061 0.0033 'International Tables Vol C Tables 4.2.6.8 and 6.1.1.4'
O O 0.0106 0.0060 'International Tables Vol C Tables 4.2.6.8 and 6.1.1.4'
Cu Cu 0.3201 1.2651 'International Tables Vol C Tables 4.2.6.8 and 6.1.1.4'

_symmetry_cell_setting           monoclinic
_symmetry_space_group_name_H-M   'P 21/n'

loop_
_symmetry_equiv_pos_as_xyz
'x, y, z'
'-x+1/2, y+1/2, -z+1/2'
'-x, -y, -z'
'x-1/2, -y-1/2, z-1/2'

_cell_length_a                   13.1350(5)
_cell_length_b                   14.8550(8)
_cell_length_c                   15.3900(5)
_cell_angle_alpha                90.00
_cell_angle_beta                 91.130(3)
_cell_angle_gamma                90.00
_cell_volume                     3002.3(2)
_cell_formula_units_Z            2
_cell_measurement_temperature    293(2)
_cell_measurement_reflns_used    3886
_cell_measurement_theta_min      3.0392
_cell_measurement_theta_max      29.1826

_exptl_crystal_description       block
_exptl_crystal_colour            green
_exptl_crystal_size_max          0.27
_exptl_crystal_size_mid          0.25
_exptl_crystal_size_min          0.20
_exptl_crystal_density_meas      ?
_exptl_crystal_density_diffrn    1.314
_exptl_crystal_density_method    'not measured'
_exptl_crystal_F_000             1218
_exptl_absorpt_coefficient_mu    1.117
_exptl_absorpt_correction_type   ?
_exptl_absorpt_correction_T_min  0.7525
_exptl_absorpt_correction_T_max  0.8075
_exptl_absorpt_process_details   ?

_exptl_special_details           
;
 ?
;

_diffrn_ambient_temperature      293(2)
_diffrn_radiation_wavelength     0.71069
_diffrn_radiation_type           MoK\a
_diffrn_radiation_source         'fine-focus sealed tube'
_diffrn_radiation_monochromator  graphite
_diffrn_measurement_device_type  'Oxford Diffraction Gemini R Ultra'
_diffrn_measurement_method       '\w scan'
_diffrn_detector_area_resol_mean 10.0
_diffrn_standards_number         ?
_diffrn_standards_interval_count ?
_diffrn_standards_interval_time  ?
_diffrn_standards_decay_%        ?
_diffrn_reflns_number            11008
_diffrn_reflns_av_R_equivalents  0.0336
_diffrn_reflns_av_sigmaI/netI    0.0487
_diffrn_reflns_limit_h_min       -15
_diffrn_reflns_limit_h_max       12
_diffrn_reflns_limit_k_min       -14
_diffrn_reflns_limit_k_max       17
_diffrn_reflns_limit_l_min       -15
_diffrn_reflns_limit_l_max       18
_diffrn_reflns_theta_min         3.05
_diffrn_reflns_theta_max         25.02
_reflns_number_total             5270
_reflns_number_gt                4044
_reflns_threshold_expression     >2\s(I)

_computing_data_collection       'CrysAlis (Oxford Diffraction, 2006)'
_computing_cell_refinement       CrysAlis
_computing_data_reduction        CrysAlis
_computing_structure_solution    'SHELXS-97 (Sheldrick, 1997)'
_computing_structure_refinement  'SHELXL-97 (Sheldrick, 2008)'
_computing_molecular_graphics    ?
_computing_publication_material  ?

_refine_special_details          
;
 Refinement of F^2^ against ALL reflections.  The weighted R-factor wR and
 goodness of fit S are based on F^2^, conventional R-factors R are based
 on F, with F set to zero for negative F^2^. The threshold expression of
 F^2^ > 2\s(F^2^) is used only for calculating R-factors(gt) etc. and is
 not relevant to the choice of reflections for refinement.  R-factors based
 on F^2^ are statistically about twice as large as those based on F, and R-
 factors based on ALL data will be even larger.
;

_refine_ls_structure_factor_coef Fsqd
_refine_ls_matrix_type           full
_refine_ls_weighting_scheme      calc
_refine_ls_weighting_details     
'calc w=1/[\s^2^(Fo^2^)+(0.1226P)^2^+3.4486P] where P=(Fo^2^+2Fc^2^)/3'
_atom_sites_solution_primary     direct
_atom_sites_solution_secondary   difmap
_atom_sites_solution_hydrogens   geom
_refine_ls_hydrogen_treatment    mixed
_refine_ls_extinction_method     none
_refine_ls_extinction_coef       ?
_refine_ls_number_reflns         5270
_refine_ls_number_parameters     349
_refine_ls_number_restraints     0
_refine_ls_R_factor_all          0.0797
_refine_ls_R_factor_gt           0.0600
_refine_ls_wR_factor_ref         0.2055
_refine_ls_wR_factor_gt          0.1859
_refine_ls_goodness_of_fit_ref   1.088
_refine_ls_restrained_S_all      1.088
_refine_ls_shift/su_max          0.001
_refine_ls_shift/su_mean         0.000

loop_
_atom_site_label
_atom_site_type_symbol
_atom_site_fract_x
_atom_site_fract_y
_atom_site_fract_z
_atom_site_U_iso_or_equiv
_atom_site_adp_type
_atom_site_occupancy
_atom_site_symmetry_multiplicity
_atom_site_calc_flag
_atom_site_refinement_flags
_atom_site_disorder_assembly
_atom_site_disorder_group
Cu1 Cu 0.5000 0.0000 0.5000 0.0254(2) Uani 1 2 d S . .
Cu2 Cu 0.51769(4) 0.20820(4) 0.40294(4) 0.0330(2) Uani 1 1 d . . .
C1 C 0.8850(5) 0.3117(4) 0.7481(4) 0.0504(15) Uani 1 1 d . . .
H1 H 0.9099 0.3703 0.7491 0.061 Uiso 1 1 calc R . .
C2 C 0.8152(5) 0.2882(4) 0.6847(4) 0.0522(16) Uani 1 1 d . . .
H2 H 0.7944 0.3298 0.6429 0.063 Uiso 1 1 calc R . .
C3 C 0.7767(4) 0.2023(3) 0.6839(3) 0.0399(12) Uani 1 1 d . . .
C4 C 0.8089(5) 0.1429(4) 0.7470(4) 0.0554(16) Uani 1 1 d . . .
H4 H 0.7830 0.0847 0.7487 0.066 Uiso 1 1 calc R . .
C5 C 0.8807(5) 0.1714(4) 0.8080(4) 0.0544(16) Uani 1 1 d . . .
H5 H 0.9031 0.1309 0.8503 0.065 Uiso 1 1 calc R . .
C6 C 0.7024(4) 0.1730(3) 0.6165(3) 0.0389(12) Uani 1 1 d . . .
C7 C 0.1518(4) 0.2317(4) 0.7674(4) 0.0458(13) Uani 1 1 d . . .
H7 H 0.1245 0.2824 0.7401 0.055 Uiso 1 1 calc R . .
C8 C 0.2171(5) 0.1780(4) 0.7213(4) 0.0495(14) Uani 1 1 d . . .
H8 H 0.2322 0.1921 0.6641 0.059 Uiso 1 1 calc R . .
C9 C 0.2602(4) 0.1025(4) 0.7610(3) 0.0381(12) Uani 1 1 d . . .
C10 C 0.2345(4) 0.0856(4) 0.8465(3) 0.0476(14) Uani 1 1 d . . .
H10 H 0.2626 0.0366 0.8760 0.057 Uiso 1 1 calc R . .
C11 C 0.1673(4) 0.1415(4) 0.8873(4) 0.0479(14) Uani 1 1 d . . .
H11 H 0.1495 0.1282 0.9441 0.058 Uiso 1 1 calc R . .
C12 C 0.3298(4) 0.0456(3) 0.7127(3) 0.0348(11) Uani 1 1 d . . .
C13 C 0.4495(6) 0.3121(6) 0.5710(5) 0.074(2) Uani 1 1 d . . .
H13 H 0.4201 0.2559 0.5797 0.089 Uiso 1 1 calc R . .
C14 C 0.4589(17) 0.3236(12) 0.7277(7) 0.224(10) Uani 1 1 d . . .
H14A H 0.4784 0.3681 0.7701 0.337 Uiso 1 1 calc R . .
H14B H 0.5009 0.2712 0.7351 0.337 Uiso 1 1 calc R . .
H14C H 0.3889 0.3075 0.7353 0.337 Uiso 1 1 calc R . .
C15 C 0.5257(11) 0.4411(7) 0.6349(8) 0.143(5) Uani 1 1 d . . .
H15A H 0.5344 0.4666 0.6919 0.214 Uiso 1 1 calc R . .
H15B H 0.4884 0.4825 0.5984 0.214 Uiso 1 1 calc R . .
H15C H 0.5912 0.4299 0.6106 0.214 Uiso 1 1 calc R . .
C16 C 0.0920(19) -0.0113(14) 0.4127(14) 0.208(10) Uani 1 1 d . . .
H16 H 0.1379 0.0360 0.4195 0.249 Uiso 1 1 calc R . .
C17 C 0.0104(19) -0.1486(16) 0.459(3) 0.37(2) Uani 1 1 d . . .
H17A H 0.0176 -0.1914 0.5051 0.549 Uiso 1 1 calc R . .
H17B H 0.0188 -0.1787 0.4040 0.549 Uiso 1 1 calc R . .
H17C H -0.0560 -0.1218 0.4600 0.549 Uiso 1 1 calc R . .
C18 C 0.1604(13) -0.0704(17) 0.5453(10) 0.242(12) Uani 1 1 d . . .
H18A H 0.1513 -0.1210 0.5831 0.363 Uiso 1 1 calc R . .
H18B H 0.1468 -0.0158 0.5763 0.363 Uiso 1 1 calc R . .
H18C H 0.2292 -0.0695 0.5254 0.363 Uiso 1 1 calc R . .
N1 N 0.9186(3) 0.2536(3) 0.8087(3) 0.0369(10) Uani 1 1 d . . .
N2 N 0.6730(3) 0.2243(3) 0.5493(3) 0.0413(11) Uani 1 1 d . . .
N3 N 0.6076(3) 0.1730(3) 0.5059(3) 0.0336(9) Uani 1 1 d . . .
N4 N 0.5983(3) 0.0947(2) 0.5452(2) 0.0296(9) Uani 1 1 d . . .
N5 N 0.6572(3) 0.0921(3) 0.6158(3) 0.0374(10) Uani 1 1 d . . .
N6 N 0.1260(3) 0.2147(3) 0.8489(3) 0.0365(10) Uani 1 1 d . . .
N7 N 0.3726(3) 0.0734(3) 0.6398(3) 0.0356(9) Uani 1 1 d . . .
N8 N 0.4261(3) 0.0026(2) 0.6144(2) 0.0299(9) Uani 1 1 d . . .
N9 N 0.4162(3) -0.0658(3) 0.6691(3) 0.0377(10) Uani 1 1 d . . .
N10 N 0.3548(3) -0.0402(3) 0.7326(3) 0.0428(11) Uani 1 1 d . . .
N11 N 0.4138(3) 0.1237(3) 0.4480(3) 0.0331(9) Uani 1 1 d . . .
N12 N 0.3281(4) 0.1452(4) 0.4551(4) 0.0599(14) Uani 1 1 d . . .
N13 N 0.2451(5) 0.1651(7) 0.4647(8) 0.147(5) Uani 1 1 d . . .
N14 N 0.4718(6) 0.3602(4) 0.6406(4) 0.0784(19) Uani 1 1 d . . .
N15 N 0.0885(10) -0.0779(11) 0.4688(10) 0.168(5) Uani 1 1 d . . .
O1 O 0.4636(4) 0.3345(3) 0.4970(3) 0.0637(12) Uani 1 1 d . . .
O2 O 0.0274(15) -0.0149(14) 0.3463(10) 0.282(10) Uani 1 1 d . . .
O1W O 0.6045(15) 0.0926(13) 0.9331(15) 0.251(10) Uani 0.70 1 d P . .
O2W O 0.785(2) 0.4850(14) 0.5656(16) 0.123(9) Uani 0.30 1 d P . .

loop_
_atom_site_aniso_label
_atom_site_aniso_U_11
_atom_site_aniso_U_22
_atom_site_aniso_U_33
_atom_site_aniso_U_23
_atom_site_aniso_U_13
_atom_site_aniso_U_12
Cu1 0.0286(4) 0.0269(4) 0.0207(4) -0.0018(3) -0.0005(3) -0.0016(3)
Cu2 0.0328(4) 0.0397(4) 0.0262(4) 0.0106(2) -0.0091(2) -0.0081(2)
C1 0.059(4) 0.042(3) 0.049(3) 0.003(3) -0.027(3) -0.009(3)
C2 0.060(4) 0.048(3) 0.047(3) 0.011(3) -0.028(3) -0.012(3)
C3 0.048(3) 0.041(3) 0.031(3) 0.000(2) -0.014(2) -0.004(2)
C4 0.076(4) 0.037(3) 0.052(4) 0.001(3) -0.035(3) -0.010(3)
C5 0.075(4) 0.041(3) 0.046(3) 0.000(3) -0.031(3) 0.001(3)
C6 0.044(3) 0.039(3) 0.033(3) 0.003(2) -0.012(2) -0.003(2)
C7 0.055(3) 0.043(3) 0.039(3) 0.003(2) 0.005(3) 0.017(3)
C8 0.070(4) 0.047(3) 0.032(3) 0.005(2) 0.013(3) 0.016(3)
C9 0.040(3) 0.042(3) 0.032(3) -0.003(2) 0.002(2) 0.009(2)
C10 0.063(4) 0.049(3) 0.032(3) 0.007(2) 0.010(2) 0.025(3)
C11 0.060(3) 0.055(3) 0.028(3) 0.001(2) 0.007(2) 0.018(3)
C12 0.040(3) 0.037(3) 0.028(2) -0.001(2) 0.008(2) 0.004(2)
C13 0.085(5) 0.078(5) 0.060(5) -0.013(4) 0.010(4) -0.021(4)
C14 0.38(3) 0.239(18) 0.056(7) -0.010(8) 0.050(11) -0.149(18)
C15 0.225(14) 0.106(8) 0.098(8) -0.033(6) 0.010(9) -0.061(9)
C16 0.30(3) 0.176(18) 0.149(16) 0.059(14) -0.003(17) 0.011(17)
C17 0.27(3) 0.21(2) 0.63(6) -0.18(3) 0.24(4) -0.12(2)
C18 0.177(16) 0.44(4) 0.105(11) -0.034(16) -0.020(11) 0.07(2)
N1 0.038(2) 0.039(2) 0.033(2) -0.0050(18) -0.0131(18) 0.0027(19)
N2 0.049(3) 0.039(2) 0.036(2) 0.0061(19) -0.021(2) -0.013(2)
N3 0.038(2) 0.034(2) 0.028(2) 0.0041(17) -0.0087(17) -0.0087(18)
N4 0.036(2) 0.029(2) 0.0232(19) 0.0011(15) -0.0103(16) -0.0036(17)
N5 0.046(2) 0.036(2) 0.029(2) 0.0024(17) -0.0143(18) -0.0053(19)
N6 0.041(2) 0.039(2) 0.030(2) -0.0080(18) -0.0039(18) 0.0090(19)
N7 0.046(2) 0.029(2) 0.032(2) 0.0011(17) 0.0080(18) 0.0072(19)
N8 0.036(2) 0.027(2) 0.026(2) 0.0004(15) 0.0031(17) 0.0015(16)
N9 0.047(2) 0.037(2) 0.030(2) 0.0042(18) 0.0101(18) 0.0032(19)
N10 0.056(3) 0.037(2) 0.035(2) 0.0059(19) 0.015(2) 0.012(2)
N11 0.029(2) 0.037(2) 0.033(2) 0.0020(17) -0.0005(17) -0.0032(18)
N12 0.042(3) 0.064(3) 0.074(4) 0.026(3) 0.002(3) -0.002(3)
N13 0.046(4) 0.168(9) 0.228(12) 0.095(9) 0.039(5) 0.032(5)
N14 0.115(5) 0.079(4) 0.042(3) -0.011(3) 0.011(3) -0.029(4)
N15 0.151(10) 0.178(13) 0.173(13) -0.021(10) 0.009(10) -0.006(9)
O1 0.082(3) 0.069(3) 0.040(2) -0.004(2) -0.006(2) -0.001(2)
O2 0.305(19) 0.41(3) 0.134(10) -0.008(13) 0.008(11) 0.148(18)
O1W 0.220(17) 0.209(18) 0.33(3) 0.116(18) 0.030(17) -0.059(14)
O2W 0.18(2) 0.076(13) 0.109(17) 0.033(12) -0.027(16) -0.038(14)

_geom_special_details            
;
 All s.u.'s (except the s.u. in the dihedral angle between two l.s. planes)
 are estimated using the full covariance matrix.  The cell s.u.'s are taken
 into account individually in the estimation of s.u.'s in distances, angles
 and torsion angles; correlations between s.u.'s in cell parameters are only
 used when they are defined by crystal symmetry.  An approximate (isotropic)
 treatment of cell s.u.'s is used for estimating s.u.'s involving l.s. planes.
;

loop_
_geom_bond_atom_site_label_1
_geom_bond_atom_site_label_2
_geom_bond_distance
_geom_bond_site_symmetry_2
_geom_bond_publ_flag
Cu1 N4 2.023(4) 3_656 ?
Cu1 N4 2.023(4) . ?
Cu1 N8 2.027(4) . ?
Cu1 N8 2.027(4) 3_656 ?
Cu1 N11 2.294(4) 3_656 ?
Cu1 N11 2.294(4) . ?
Cu2 N11 1.989(4) . ?
Cu2 N1 2.011(4) 4_565 ?
Cu2 N6 2.018(4) 4_665 ?
Cu2 N3 2.026(4) . ?
C1 N1 1.339(7) . ?
C1 C2 1.370(7) . ?
C1 H1 0.9300 . ?
C2 C3 1.374(7) . ?
C2 H2 0.9300 . ?
C3 C4 1.372(8) . ?
C3 C6 1.476(7) . ?
C4 C5 1.384(8) . ?
C4 H4 0.9300 . ?
C5 N1 1.318(7) . ?
C5 H5 0.9300 . ?
C6 N2 1.334(6) . ?
C6 N5 1.340(6) . ?
C7 N6 1.330(7) . ?
C7 C8 1.378(8) . ?
C7 H7 0.9300 . ?
C8 C9 1.392(8) . ?
C8 H8 0.9300 . ?
C9 C10 1.388(7) . ?
C9 C12 1.459(7) . ?
C10 C11 1.373(7) . ?
C10 H10 0.9300 . ?
C11 N6 1.348(7) . ?
C11 H11 0.9300 . ?
C12 N7 1.330(6) . ?
C12 N10 1.350(7) . ?
C13 O1 1.204(9) . ?
C13 N14 1.315(9) . ?
C13 H13 0.9300 . ?
C14 N14 1.460(13) . ?
C14 H14A 0.9600 . ?
C14 H14B 0.9600 . ?
C14 H14C 0.9600 . ?
C15 N14 1.399(12) . ?
C15 H15A 0.9600 . ?
C15 H15B 0.9600 . ?
C15 H15C 0.9600 . ?
C16 N15 1.31(2) . ?
C16 O2 1.32(2) . ?
C16 H16 0.9300 . ?
C17 N15 1.47(2) . ?
C17 H17A 0.9600 . ?
C17 H17B 0.9600 . ?
C17 H17C 0.9600 . ?
C18 N15 1.499(18) . ?
C18 H18A 0.9600 . ?
C18 H18B 0.9600 . ?
C18 H18C 0.9600 . ?
N1 Cu2 2.011(4) 4_666 ?
N2 N3 1.320(6) . ?
N3 N4 1.319(5) . ?
N4 N5 1.323(5) . ?
N6 Cu2 2.018(4) 4_566 ?
N7 N8 1.327(5) . ?
N8 N9 1.329(5) . ?
N9 N10 1.334(6) . ?
N11 N12 1.178(6) . ?
N12 N13 1.142(8) . ?

loop_
_geom_angle_atom_site_label_1
_geom_angle_atom_site_label_2
_geom_angle_atom_site_label_3
_geom_angle
_geom_angle_site_symmetry_1
_geom_angle_site_symmetry_3
_geom_angle_publ_flag
N4 Cu1 N4 180.0(2) 3_656 . ?
N4 Cu1 N8 89.93(15) 3_656 . ?
N4 Cu1 N8 90.07(15) . . ?
N4 Cu1 N8 90.07(15) 3_656 3_656 ?
N4 Cu1 N8 89.93(15) . 3_656 ?
N8 Cu1 N8 180.0 . 3_656 ?
N4 Cu1 N11 82.54(14) 3_656 3_656 ?
N4 Cu1 N11 97.46(14) . 3_656 ?
N8 Cu1 N11 87.37(15) . 3_656 ?
N8 Cu1 N11 92.63(15) 3_656 3_656 ?
N4 Cu1 N11 97.46(14) 3_656 . ?
N4 Cu1 N11 82.54(14) . . ?
N8 Cu1 N11 92.63(15) . . ?
N8 Cu1 N11 87.37(15) 3_656 . ?
N11 Cu1 N11 180.00(19) 3_656 . ?
N11 Cu2 N1 89.49(17) . 4_565 ?
N11 Cu2 N6 174.70(17) . 4_665 ?
N1 Cu2 N6 89.65(17) 4_565 4_665 ?
N11 Cu2 N3 87.58(16) . . ?
N1 Cu2 N3 174.70(17) 4_565 . ?
N6 Cu2 N3 93.66(16) 4_665 . ?
N1 C1 C2 122.6(5) . . ?
N1 C1 H1 118.7 . . ?
C2 C1 H1 118.7 . . ?
C1 C2 C3 119.0(5) . . ?
C1 C2 H2 120.5 . . ?
C3 C2 H2 120.5 . . ?
C4 C3 C2 118.8(5) . . ?
C4 C3 C6 119.9(5) . . ?
C2 C3 C6 121.3(5) . . ?
C3 C4 C5 118.7(5) . . ?
C3 C4 H4 120.6 . . ?
C5 C4 H4 120.6 . . ?
N1 C5 C4 122.7(5) . . ?
N1 C5 H5 118.6 . . ?
C4 C5 H5 118.6 . . ?
N2 C6 N5 112.6(4) . . ?
N2 C6 C3 123.6(5) . . ?
N5 C6 C3 123.8(4) . . ?
N6 C7 C8 123.3(5) . . ?
N6 C7 H7 118.4 . . ?
C8 C7 H7 118.4 . . ?
C7 C8 C9 119.5(5) . . ?
C7 C8 H8 120.2 . . ?
C9 C8 H8 120.2 . . ?
C10 C9 C8 117.2(5) . . ?
C10 C9 C12 123.0(5) . . ?
C8 C9 C12 119.8(5) . . ?
C11 C10 C9 119.7(5) . . ?
C11 C10 H10 120.1 . . ?
C9 C10 H10 120.1 . . ?
N6 C11 C10 122.9(5) . . ?
N6 C11 H11 118.5 . . ?
C10 C11 H11 118.5 . . ?
N7 C12 N10 112.2(4) . . ?
N7 C12 C9 122.0(4) . . ?
N10 C12 C9 125.7(4) . . ?
O1 C13 N14 125.7(7) . . ?
O1 C13 H13 117.1 . . ?
N14 C13 H13 117.1 . . ?
N14 C14 H14A 109.5 . . ?
N14 C14 H14B 109.5 . . ?
H14A C14 H14B 109.5 . . ?
N14 C14 H14C 109.5 . . ?
H14A C14 H14C 109.5 . . ?
H14B C14 H14C 109.5 . . ?
N14 C15 H15A 109.5 . . ?
N14 C15 H15B 109.5 . . ?
H15A C15 H15B 109.5 . . ?
N14 C15 H15C 109.5 . . ?
H15A C15 H15C 109.5 . . ?
H15B C15 H15C 109.5 . . ?
N15 C16 O2 117(2) . . ?
N15 C16 H16 121.7 . . ?
O2 C16 H16 121.7 . . ?
N15 C17 H17A 109.5 . . ?
N15 C17 H17B 109.5 . . ?
H17A C17 H17B 109.5 . . ?
N15 C17 H17C 109.5 . . ?
H17A C17 H17C 109.5 . . ?
H17B C17 H17C 109.5 . . ?
N15 C18 H18A 109.5 . . ?
N15 C18 H18B 109.5 . . ?
H18A C18 H18B 109.5 . . ?
N15 C18 H18C 109.5 . . ?
H18A C18 H18C 109.5 . . ?
H18B C18 H18C 109.5 . . ?
C5 N1 C1 118.1(4) . . ?
C5 N1 Cu2 120.4(3) . 4_666 ?
C1 N1 Cu2 121.4(4) . 4_666 ?
N3 N2 C6 103.8(4) . . ?
N4 N3 N2 110.0(4) . . ?
N4 N3 Cu2 121.9(3) . . ?
N2 N3 Cu2 127.7(3) . . ?
N3 N4 N5 110.1(3) . . ?
N3 N4 Cu1 121.4(3) . . ?
N5 N4 Cu1 128.4(3) . . ?
N4 N5 C6 103.4(4) . . ?
C7 N6 C11 117.3(4) . . ?
C7 N6 Cu2 118.5(3) . 4_566 ?
C11 N6 Cu2 123.9(4) . 4_566 ?
N8 N7 C12 103.8(4) . . ?
N7 N8 N9 111.1(4) . . ?
N7 N8 Cu1 122.5(3) . . ?
N9 N8 Cu1 126.2(3) . . ?
N8 N9 N10 108.3(4) . . ?
N9 N10 C12 104.6(4) . . ?
N12 N11 Cu2 121.6(4) . . ?
N12 N11 Cu1 130.7(4) . . ?
Cu2 N11 Cu1 106.87(17) . . ?
N13 N12 N11 177.7(8) . . ?
C13 N14 C15 121.4(7) . . ?
C13 N14 C14 121.2(8) . . ?
C15 N14 C14 116.4(9) . . ?
C16 N15 C17 120(2) . . ?
C16 N15 C18 115.5(18) . . ?
C17 N15 C18 124(2) . . ?

loop_
_geom_torsion_atom_site_label_1
_geom_torsion_atom_site_label_2
_geom_torsion_atom_site_label_3
_geom_torsion_atom_site_label_4
_geom_torsion
_geom_torsion_site_symmetry_1
_geom_torsion_site_symmetry_2
_geom_torsion_site_symmetry_3
_geom_torsion_site_symmetry_4
_geom_torsion_publ_flag
N1 C1 C2 C3 1.2(10) . . . . ?
C1 C2 C3 C4 0.4(10) . . . . ?
C1 C2 C3 C6 -179