####################################################################### 
# 
# This file contains crystal structure data downloaded from the 
# Cambridge Structural Database (CSD) hosted by the Cambridge 
# Crystallographic Data Centre (CCDC).
# 
# Full information about CCDC data access policies and citation 
# guidelines are available at http://www.ccdc.cam.ac.uk/access/V1 
# 
# Audit and citation data items may have been added by the CCDC. 
# Please retain this information to preserve the provenance of 
# this file and to allow appropriate attribution of the data. 
# 
#######################################################################

data_Compound-(1a)
_audit_block_doi                 10.5517/cc11q9dg
_database_code_depnum_ccdc_archive 'CCDC 974745'
loop_
_citation_id
_citation_doi
_citation_year
1 10.1021/ic5008457 2014
_audit_update_record             
;
2013-12-02 deposited with the CCDC.	2024-07-12 downloaded from the CCDC.
;

_audit_creation_method           SHELXL-97
_chemical_name_systematic        
;
 ?
;
_chemical_name_common            ?
_chemical_melting_point          ?
_chemical_formula_moiety         'C48 H66 Cu3 N28 O2'
_chemical_formula_sum            'C48 H66 Cu3 N28 O2'
_chemical_formula_weight         1257.91

loop_
_atom_type_symbol
_atom_type_description
_atom_type_scat_dispersion_real
_atom_type_scat_dispersion_imag
_atom_type_scat_source
C C 0.0033 0.0016 'International Tables Vol C Tables 4.2.6.8 and 6.1.1.4'
H H 0.0000 0.0000 'International Tables Vol C Tables 4.2.6.8 and 6.1.1.4'
N N 0.0061 0.0033 'International Tables Vol C Tables 4.2.6.8 and 6.1.1.4'
O O 0.0106 0.0060 'International Tables Vol C Tables 4.2.6.8 and 6.1.1.4'
Cu Cu 0.3201 1.2651 'International Tables Vol C Tables 4.2.6.8 and 6.1.1.4'

_symmetry_cell_setting           monoclinic
_symmetry_space_group_name_H-M   'P 21/n'

loop_
_symmetry_equiv_pos_as_xyz
'x, y, z'
'-x+1/2, y+1/2, -z+1/2'
'-x, -y, -z'
'x-1/2, -y-1/2, z-1/2'

_cell_length_a                   13.2610(18)
_cell_length_b                   15.134(2)
_cell_length_c                   15.5470(19)
_cell_angle_alpha                90.00
_cell_angle_beta                 93.449(13)
_cell_angle_gamma                90.00
_cell_volume                     3114.5(7)
_cell_formula_units_Z            2
_cell_measurement_temperature    293(2)
_cell_measurement_reflns_used    4398
_cell_measurement_theta_min      2.9442
_cell_measurement_theta_max      29.1899

_exptl_crystal_description       block
_exptl_crystal_colour            green
_exptl_crystal_size_max          0.26
_exptl_crystal_size_mid          0.24
_exptl_crystal_size_min          0.23
_exptl_crystal_density_meas      ?
_exptl_crystal_density_diffrn    1.341
_exptl_crystal_density_method    'not measured'
_exptl_crystal_F_000             1306
_exptl_absorpt_coefficient_mu    1.075
_exptl_absorpt_correction_type   multi-scan
_exptl_absorpt_correction_T_min  0.7674
_exptl_absorpt_correction_T_max  0.7900
_exptl_absorpt_process_details   ?

_exptl_special_details           
;
 ?
;

_diffrn_ambient_temperature      293(2)
_diffrn_radiation_wavelength     0.71069
_diffrn_radiation_type           MoK\a
_diffrn_radiation_source         'fine-focus sealed tube'
_diffrn_radiation_monochromator  graphite
_diffrn_measurement_device_type  'Oxford Diffraction Gemini R Ultra'
_diffrn_measurement_method       '\w scan'
_diffrn_detector_area_resol_mean 10.0
_diffrn_standards_number         ?
_diffrn_standards_interval_count ?
_diffrn_standards_interval_time  ?
_diffrn_standards_decay_%        ?
_diffrn_reflns_number            13012
_diffrn_reflns_av_R_equivalents  0.0639
_diffrn_reflns_av_sigmaI/netI    0.1116
_diffrn_reflns_limit_h_min       -13
_diffrn_reflns_limit_h_max       18
_diffrn_reflns_limit_k_min       -20
_diffrn_reflns_limit_k_max       13
_diffrn_reflns_limit_l_min       -21
_diffrn_reflns_limit_l_max       17
_diffrn_reflns_theta_min         2.95
_diffrn_reflns_theta_max         29.25
_reflns_number_total             7102
_reflns_number_gt                4019
_reflns_threshold_expression     >2\s(I)

_computing_data_collection       'CrysAlis (Oxford Diffraction, 2006)'
_computing_cell_refinement       CrysAlis
_computing_data_reduction        CrysAlis
_computing_structure_solution    'SHELXS-97 (Sheldrick, 1997)'
_computing_structure_refinement  'SHELXL-97 (Sheldrick, 2008)'
_computing_molecular_graphics    ?
_computing_publication_material  ?

_refine_special_details          
;
 Refinement of F^2^ against ALL reflections.  The weighted R-factor wR and
 goodness of fit S are based on F^2^, conventional R-factors R are based
 on F, with F set to zero for negative F^2^. The threshold expression of
 F^2^ > 2\s(F^2^) is used only for calculating R-factors(gt) etc. and is
 not relevant to the choice of reflections for refinement.  R-factors based
 on F^2^ are statistically about twice as large as those based on F, and R-
 factors based on ALL data will be even larger.
;

_refine_ls_structure_factor_coef Fsqd
_refine_ls_matrix_type           full
_refine_ls_weighting_scheme      calc
_refine_ls_weighting_details     
'calc w=1/[\s^2^(Fo^2^)+(0.0058P)^2^+14.3765P] where P=(Fo^2^+2Fc^2^)/3'
_atom_sites_solution_primary     direct
_atom_sites_solution_secondary   difmap
_atom_sites_solution_hydrogens   geom
_refine_ls_hydrogen_treatment    mixed
_refine_ls_extinction_method     none
_refine_ls_extinction_coef       ?
_refine_ls_number_reflns         7102
_refine_ls_number_parameters     367
_refine_ls_number_restraints     6
_refine_ls_R_factor_all          0.1647
_refine_ls_R_factor_gt           0.0967
_refine_ls_wR_factor_ref         0.1971
_refine_ls_wR_factor_gt          0.1707
_refine_ls_goodness_of_fit_ref   1.203
_refine_ls_restrained_S_all      1.203
_refine_ls_shift/su_max          0.000
_refine_ls_shift/su_mean         0.000

loop_
_atom_site_label
_atom_site_type_symbol
_atom_site_fract_x
_atom_site_fract_y
_atom_site_fract_z
_atom_site_U_iso_or_equiv
_atom_site_adp_type
_atom_site_occupancy
_atom_site_symmetry_multiplicity
_atom_site_calc_flag
_atom_site_refinement_flags
_atom_site_disorder_assembly
_atom_site_disorder_group
Cu1 Cu 0.0000 0.0000 0.0000 0.0313(3) Uani 1 2 d S . .
Cu2 Cu -0.05029(7) 0.18875(6) 0.10240(5) 0.0376(2) Uani 1 1 d . . .
C1 C -0.4164(6) 0.3229(6) -0.2396(5) 0.062(2) Uani 1 1 d . . .
H1 H -0.4403 0.3806 -0.2375 0.074 Uiso 1 1 calc R . .
C2 C -0.3473(6) 0.2944(5) -0.1762(5) 0.059(2) Uani 1 1 d . . .
H2 H -0.3251 0.3328 -0.1323 0.071 Uiso 1 1 calc R . .
C3 C -0.3112(5) 0.2101(5) -0.1774(4) 0.0421(17) Uani 1 1 d . . .
C4 C -0.3456(7) 0.1556(5) -0.2453(5) 0.064(3) Uani 1 1 d . . .
H4 H -0.3227 0.0978 -0.2493 0.077 Uiso 1 1 calc R . .
C5 C -0.4141(6) 0.1896(5) -0.3058(5) 0.059(2) Uani 1 1 d . . .
H5 H -0.4367 0.1531 -0.3511 0.071 Uiso 1 1 calc R . .
C6 C -0.2368(5) 0.1768(5) -0.1134(4) 0.0385(16) Uani 1 1 d . . .
C7 C 0.3111(6) 0.2580(5) -0.2695(5) 0.055(2) Uani 1 1 d . . .
H7 H 0.3291 0.3129 -0.2466 0.066 Uiso 1 1 calc R . .
C8 C 0.2506(6) 0.2047(5) -0.2238(4) 0.052(2) Uani 1 1 d . . .
H8 H 0.2265 0.2248 -0.1723 0.063 Uiso 1 1 calc R . .
C9 C 0.2252(6) 0.1220(5) -0.2534(4) 0.0421(17) Uani 1 1 d . . .
C10 C 0.2611(6) 0.0976(5) -0.3325(4) 0.049(2) Uani 1 1 d . . .
H10 H 0.2451 0.0428 -0.3567 0.059 Uiso 1 1 calc R . .
C11 C 0.3204(6) 0.1562(5) -0.3738(5) 0.050(2) Uani 1 1 d . . .
H11 H 0.3445 0.1385 -0.4260 0.061 Uiso 1 1 calc R . .
C12 C 0.1638(5) 0.0625(4) -0.2057(4) 0.0336(15) Uani 1 1 d . . .
C13 C 0.0195(9) 0.3043(10) -0.0767(7) 0.105(2) Uani 1 1 d U . .
H13 H 0.0426 0.2471 -0.0854 0.125 Uiso 1 1 calc R . .
C14 C -0.0059(13) 0.3134(12) -0.2222(8) 0.179(8) Uani 1 1 d . . .
H14A H -0.0249 0.3565 -0.2655 0.268 Uiso 1 1 calc R . .
H14B H -0.0540 0.2659 -0.2247 0.268 Uiso 1 1 calc R . .
H14C H 0.0599 0.2905 -0.2323 0.268 Uiso 1 1 calc R . .
C15 C -0.0339(13) 0.4419(7) -0.1182(12) 0.187(9) Uani 1 1 d . . .
H15A H -0.0506 0.4737 -0.1705 0.281 Uiso 1 1 calc R . .
H15B H 0.0206 0.4712 -0.0863 0.281 Uiso 1 1 calc R . .
H15C H -0.0918 0.4396 -0.0841 0.281 Uiso 1 1 calc R . .
C16 C -0.021(3) 0.164(2) -0.429(3) 0.28(2) Uani 1 1 d . . .
H16A H -0.0304 0.2191 -0.3998 0.335 Uiso 1 1 calc R . .
H16B H 0.0507 0.1559 -0.4362 0.335 Uiso 1 1 calc R . .
C17 C -0.057(3) 0.094(3) -0.381(3) 0.37(3) Uani 1 1 d . . .
H17A H -0.0188 0.0423 -0.3962 0.447 Uiso 1 1 calc R . .
H17B H -0.0377 0.1073 -0.3215 0.447 Uiso 1 1 calc R . .
C18 C -0.148(2) 0.070(2) -0.3829(15) 0.256(15) Uani 1 1 d . . .
H18A H -0.1823 0.1076 -0.3435 0.308 Uiso 1 1 calc R . .
H18B H -0.1496 0.0103 -0.3607 0.308 Uiso 1 1 calc R . .
C19 C -0.2032(15) 0.0719(16) -0.4639(14) 0.198(9) Uani 1 1 d . . .
H19A H -0.2702 0.0948 -0.4556 0.238 Uiso 1 1 calc R . .
H19B H -0.2109 0.0118 -0.4849 0.238 Uiso 1 1 calc R . .
C20 C -0.160(2) 0.1217(16) -0.5257(12) 0.230(13) Uani 1 1 d . . .
H20A H -0.1513 0.0825 -0.5740 0.276 Uiso 1 1 calc R . .
H20B H -0.2109 0.1648 -0.5453 0.276 Uiso 1 1 calc R . .
C21 C -0.074(2) 0.166(2) -0.512(2) 0.260(14) Uani 1 1 d . . .
H21A H -0.0877 0.2273 -0.5258 0.312 Uiso 1 1 calc R . .
H21B H -0.0279 0.1444 -0.5536 0.312 Uiso 1 1 calc R . .
C22 C -0.563(4) -0.007(5) -0.069(3) 0.32(3) Uani 1 1 d . . .
C23 C -0.500(6) 0.076(3) -0.034(5) 0.40(4) Uani 1 1 d . . .
H23A H -0.4882 0.1195 -0.0777 0.475 Uiso 1 1 calc R . .
H23B H -0.5276 0.1031 0.0162 0.475 Uiso 1 1 calc R . .
C24 C -0.416(4) 0.020(6) -0.014(6) 0.53(5) Uani 1 1 d . . .
N1 N -0.4502(4) 0.2709(4) -0.3040(4) 0.0431(15) Uani 1 1 d . . .
N2 N -0.2057(4) 0.2214(4) -0.0421(3) 0.0410(14) Uani 1 1 d . . .
N3 N -0.1397(4) 0.1667(4) -0.0046(3) 0.0389(14) Uani 1 1 d . . .
N4 N -0.1286(5) 0.0930(4) -0.0487(4) 0.0442(15) Uani 1 1 d . . .
N5 N -0.1918(5) 0.0980(4) -0.1191(3) 0.0492(16) Uani 1 1 d . . .
N6 N 0.3458(4) 0.2352(4) -0.3454(3) 0.0387(14) Uani 1 1 d . . .
N7 N 0.1160(4) 0.0873(4) -0.1360(3) 0.0377(14) Uani 1 1 d . . .
N8 N 0.0725(4) 0.0142(3) -0.1096(3) 0.0346(13) Uani 1 1 d . . .
N9 N 0.0932(4) -0.0531(4) -0.1599(3) 0.0364(13) Uani 1 1 d . . .
N10 N 0.1517(4) -0.0242(4) -0.2219(3) 0.0416(14) Uani 1 1 d . . .
N11 N 0.0550(4) 0.1171(4) 0.0501(3) 0.0350(13) Uani 1 1 d . . .
N12 N 0.1426(5) 0.1337(5) 0.0578(5) 0.0610(19) Uani 1 1 d . . .
N13 N 0.2251(7) 0.1517(8) 0.0643(8) 0.146(5) Uani 1 1 d . . .
N14 N -0.0037(10) 0.3540(9) -0.1386(6) 0.130(4) Uani 1 1 d . . .
O1 O 0.0103(6) 0.3358(6) 0.0023(4) 0.105(2) Uani 1 1 d U . .

loop_
_atom_site_aniso_label
_atom_site_aniso_U_11
_atom_site_aniso_U_22
_atom_site_aniso_U_33
_atom_site_aniso_U_23
_atom_site_aniso_U_13
_atom_site_aniso_U_12
Cu1 0.0364(6) 0.0325(6) 0.0247(5) -0.0008(5) 0.0009(5) -0.0005(5)
Cu2 0.0396(5) 0.0445(5) 0.0275(4) -0.0064(4) -0.0076(3) 0.0078(4)
C1 0.075(6) 0.054(5) 0.052(5) -0.006(4) -0.036(4) 0.010(5)
C2 0.076(6) 0.051(5) 0.045(4) -0.017(4) -0.033(4) 0.013(4)
C3 0.041(4) 0.051(5) 0.033(4) -0.001(3) -0.010(3) -0.001(4)
C4 0.090(7) 0.047(5) 0.051(5) -0.011(4) -0.032(5) 0.014(5)
C5 0.079(6) 0.050(5) 0.044(4) -0.009(4) -0.036(4) 0.009(5)
C6 0.043(4) 0.047(4) 0.025(3) -0.004(3) -0.006(3) 0.003(4)
C7 0.074(6) 0.050(5) 0.041(4) -0.002(4) 0.011(4) -0.011(4)
C8 0.076(6) 0.051(5) 0.031(4) -0.006(4) 0.013(4) -0.014(4)
C9 0.052(5) 0.042(4) 0.032(3) 0.004(3) 0.000(3) -0.003(4)
C10 0.067(5) 0.043(4) 0.037(4) -0.002(3) 0.007(4) -0.016(4)
C11 0.069(6) 0.050(5) 0.032(4) -0.001(3) 0.007(4) -0.011(4)
C12 0.034(4) 0.039(4) 0.028(3) 0.001(3) 0.002(3) -0.006(3)
C13 0.092(4) 0.159(6) 0.060(3) 0.004(4) -0.016(4) -0.007(4)
C14 0.218(19) 0.25(2) 0.067(9) -0.003(11) 0.013(11) 0.064(16)
C15 0.25(2) 0.047(7) 0.27(2) 0.035(10) 0.092(17) 0.072(10)
C16 0.18(3) 0.28(4) 0.37(6) -0.10(4) -0.09(3) -0.03(3)
C17 0.26(5) 0.47(7) 0.35(5) 0.17(4) -0.21(4) -0.06(5)
C18 0.26(3) 0.40(4) 0.111(17) 0.07(2) 0.02(2) 0.02(4)
C19 0.21(2) 0.27(3) 0.115(14) 0.000(16) -0.015(15) -0.102(19)
C20 0.35(4) 0.24(2) 0.098(13) 0.032(14) -0.075(18) -0.13(2)
C21 0.22(3) 0.29(4) 0.27(4) 0.03(3) 0.03(3) -0.11(3)
C22 0.28(6) 0.47(9) 0.20(3) -0.05(4) -0.11(3) 0.04(5)
C23 0.43(7) 0.19(3) 0.60(10) 0.21(4) 0.30(7) 0.14(4)
C24 0.21(5) 0.61(12) 0.79(13) 0.27(11) 0.25(8) -0.01(5)
N1 0.046(4) 0.049(4) 0.033(3) 0.002(3) -0.007(3) -0.005(3)
N2 0.047(4) 0.042(3) 0.032(3) -0.005(3) -0.013(3) 0.010(3)
N3 0.040(3) 0.051(4) 0.025(3) -0.009(3) -0.007(2) 0.009(3)
N4 0.056(4) 0.036(3) 0.038(3) -0.008(3) -0.011(3) 0.010(3)
N5 0.063(4) 0.055(4) 0.027(3) -0.006(3) -0.017(3) 0.012(3)
N6 0.038(3) 0.043(3) 0.035(3) 0.007(3) -0.001(3) -0.005(3)
N7 0.049(4) 0.037(3) 0.028(3) 0.001(2) 0.007(3) -0.005(3)
N8 0.044(3) 0.027(3) 0.033(3) -0.002(2) 0.001(3) 0.000(3)
N9 0.041(3) 0.040(3) 0.028(3) 0.002(3) 0.004(3) -0.003(3)
N10 0.051(4) 0.044(4) 0.031(3) 0.004(3) 0.007(3) -0.009(3)
N11 0.035(3) 0.042(3) 0.029(3) 0.000(3) 0.003(3) 0.001(3)
N12 0.039(4) 0.059(4) 0.085(5) -0.025(4) 0.003(4) -0.007(4)
N13 0.047(5) 0.165(11) 0.226(13) -0.116(10) 0.014(7) -0.026(6)
N14 0.170(11) 0.162(11) 0.059(6) 0.010(7) 0.007(7) 0.001(9)
O1 0.092(4) 0.159(6) 0.061(3) 0.004(4) -0.016(4) -0.007(4)

_geom_special_details            
;
 All s.u.'s (except the s.u. in the dihedral angle between two l.s. planes)
 are estimated using the full covariance matrix.  The cell s.u.'s are taken
 into account individually in the estimation of s.u.'s in distances, angles
 and torsion angles; correlations between s.u.'s in cell parameters are only
 used when they are defined by crystal symmetry.  An approximate (isotropic)
 treatment of cell s.u.'s is used for estimating s.u.'s involving l.s. planes.
;

loop_
_geom_bond_atom_site_label_1
_geom_bond_atom_site_label_2
_geom_bond_distance
_geom_bond_site_symmetry_2
_geom_bond_publ_flag
Cu1 N8 2.018(5) 3 ?
Cu1 N8 2.018(5) . ?
Cu1 N11 2.051(6) . ?
Cu1 N11 2.051(6) 3 ?
Cu1 N4 2.303(6) 3 ?
Cu1 N4 2.303(6) . ?
Cu2 N11 1.981(5) . ?
Cu2 N3 2.012(5) . ?
Cu2 N1 2.005(6) 4_666 ?
Cu2 N6 2.005(5) 4_566 ?
Cu2 N9 2.324(5) 3 ?
C1 N1 1.330(9) . ?
C1 C2 1.374(10) . ?
C1 H1 0.9300 . ?
C2 C3 1.363(10) . ?
C2 H2 0.9300 . ?
C3 C4 1.395(10) . ?
C3 C6 1.449(9) . ?
C4 C5 1.368(10) . ?
C4 H4 0.9300 . ?
C5 N1 1.321(9) . ?
C5 H5 0.9300 . ?
C6 N5 1.339(9) . ?
C6 N2 1.341(8) . ?
C7 N6 1.338(9) . ?
C7 C8 1.366(10) . ?
C7 H7 0.9300 . ?
C8 C9 1.369(10) . ?
C8 H8 0.9300 . ?
C9 C10 1.395(9) . ?
C9 C12 1.447(9) . ?
C10 C11 1.370(10) . ?
C10 H10 0.9300 . ?
C11 N6 1.311(9) . ?
C11 H11 0.9300 . ?
C12 N10 1.344(8) . ?
C12 N7 1.341(8) . ?
C13 N14 1.245(14) . ?
C13 O1 1.331(12) . ?
C13 H13 0.9300 . ?
C14 N14 1.438(15) . ?
C14 H14A 0.9600 . ?
C14 H14B 0.9600 . ?
C14 H14C 0.9600 . ?
C15 N14 1.429(15) . ?
C15 H15A 0.9600 . ?
C15 H15B 0.9600 . ?
C15 H15C 0.9600 . ?
C16 C21 1.43(3) . ?
C16 C17 1.39(4) . ?
C16 H16A 0.9700 . ?
C16 H16B 0.9700 . ?
C17 C18 1.25(4) . ?
C17 H17A 0.9700 . ?
C17 H17B 0.9700 . ?
C18 C19 1.42(3) . ?
C18 H18A 0.9700 . ?
C18 H18B 0.9700 . ?
C19 C20 1.37(2) . ?
C19 H19A 0.9700 . ?
C19 H19B 0.9700 . ?
C20 C21 1.33(3) . ?
C20 H20A 0.9700 . ?
C20 H20B 0.9700 . ?
C21 H21A 0.9700 . ?
C21 H21B 0.9700 . ?
C22 C24 1.35(7) 3_455 ?
C22 C23 1.59(6) . ?
C23 C24 1.42(6) . ?
C23 H23A 0.9700 . ?
C23 H23B 0.9700 . ?
C24 C22 1.35(7) 3_455 ?
N1 Cu2 2.005(6) 4_565 ?
N2 N3 1.316(7) . ?
N3 N4 1.323(7) . ?
N4 N5 1.341(7) . ?
N6 Cu2 2.005(5) 4_665 ?
N7 N8 1.324(7) . ?
N8 N9 1.324(7) . ?
N9 N10 1.346(7) . ?
N9 Cu2 2.324(5) 3 ?
N11 N12 1.188(8) . ?
N12 N13 1.126(10) . ?

loop_
_geom_angle_atom_site_label_1
_geom_angle_atom_site_label_2
_geom_angle_atom_site_label_3
_geom_angle
_geom_angle_site_symmetry_1
_geom_angle_site_symmetry_3
_geom_angle_publ_flag
N8 Cu1 N8 180.0(3) 3 . ?
N8 Cu1 N11 87.0(2) 3 . ?
N8 Cu1 N11 93.0(2) . . ?
N8 Cu1 N11 93.0(2) 3 3 ?
N8 Cu1 N11 87.0(2) . 3 ?
N11 Cu1 N11 180.0(4) . 3 ?
N8 Cu1 N4 92.2(2) 3 3 ?
N8 Cu1 N4 87.8(2) . 3 ?
N11 Cu1 N4 99.4(2) . 3 ?
N11 Cu1 N4 80.6(2) 3 3 ?
N8 Cu1 N4 87.8(2) 3 . ?
N8 Cu1 N4 92.2(2) . . ?
N11 Cu1 N4 80.6(2) . . ?
N11 Cu1 N4 99.4(2) 3 . ?
N4 Cu1 N4 180.0(3) 3 . ?
N11 Cu2 N3 88.0(2) . . ?
N11 Cu2 N1 90.8(2) . 4_666 ?
N3 Cu2 N1 169.2(2) . 4_666 ?
N11 Cu2 N6 178.1(2) . 4_566 ?
N3 Cu2 N6 92.6(2) . 4_566 ?
N1 Cu2 N6 88.4(2) 4_666 4_566 ?
N11 Cu2 N9 82.5(2) . 3 ?
N3 Cu2 N9 91.5(2) . 3 ?
N1 Cu2 N9 99.0(2) 4_666 3 ?
N6 Cu2 N9 99.3(2) 4_566 3 ?
N1 C1 C2 122.2(8) . . ?
N1 C1 H1 118.9 . . ?
C2 C1 H1 118.9 . . ?
C3 C2 C1 120.2(7) . . ?
C3 C2 H2 119.9 . . ?
C1 C2 H2 119.9 . . ?
C2 C3 C4 117.7(7) . . ?
C2 C3 C6 122.8(6) . . ?
C4 C3 C6 119.4(7) . . ?
C5 C4 C3 118.1(7) . . ?
C5 C4 H4 120.9 . . ?
C3 C4 H4 120.9 . . ?
N1 C5 C4 124.2(7) . . ?
N1 C5 H5 117.9 . . ?
C4 C5 H5 117.9 . . ?
N5 C6 N2 112.8(6) . . ?
N5 C6 C3 123.6(6) . . ?
N2 C6 C3 123.6(7) . . ?
N6 C7 C8 123.4(7) . . ?
N6 C7 H7 118.3 . . ?
C8 C7 H7 118.3 . . ?
C7 C8 C9 120.3(7) . . ?
C7 C8 H8 119.8 . . ?
C9 C8 H8 119.8 . . ?
C8 C9 C10 116.7(7) . . ?
C8 C9 C12 122.1(6) . . ?
C10 C9 C12 121.3(7) . . ?
C11 C10 C9 118.5(7) . . ?
C11 C10 H10 120.7 . . ?
C9 C10 H10 120.7 . . ?
N6 C11 C10 125.2(7) . . ?
N6 C11 H11 117.4 . . ?
C10 C11 H11 117.4 . . ?
N10 C12 N7 111.6(6) . . ?
N10 C12 C9 125.1(6) . . ?
N7 C12 C9 123.2(6) . . ?
N14 C13 O1 117.7(14) . . ?
N14 C13 H13 121.2 . . ?
O1 C13 H13 121.2 . . ?
N14 C14 H14A 109.5 . . ?
N14 C14 H14B 109.5 . . ?
H14A C14 H14B 109.5 . . ?
N14 C14 H14C 109.5 . . ?
H14A C14 H14C 109.5 . . ?
H14B C14 H14C 109.5 . . ?
N14 C15 H15A 109.5 . . ?
N14 C15 H15B 109.5 . . ?
H15A C15 H15B 109.5 . . ?
N14 C15 H15C 109.5 . . ?
H15A C15 H15C 109.5 . . ?
H15B C15 H15C 109.5 . . ?
C21 C16 C17 110(3) . . ?
C21 C16 H16A 109.8 . . ?
C17 C16 H16A 109.8 . . ?
C21 C16 H16B 109.8 . . ?
C17 C16 H16B 109.8 . . ?
H16A C16 H16B 108.2 . . ?
C18 C17 C16 125(4) . . ?
C18 C17 H17A 106.2 . . ?
C16 C17 H17A 106.2 . . ?
C18 C17 H17B 106.2 . . ?
C16 C17 H17B 106.2 . . ?
H17A C17 H17B 106.4 . . ?
C17 C18 C19 117(3) . . ?
C17 C18 H18A 108.0 . . ?
C19 C18 H18A 108.0 . . ?
C17 C18 H18B 108.0 . . ?
C19 C18 H18B 108.0 . . ?
H18A C18 H18B 107.2 . . ?
C18 C19 C20 115(2) . . ?
C18 C19 H19A 108.6 . . ?
C