####################################################################### 
# 
# This file contains crystal structure data downloaded from the 
# Cambridge Structural Database (CSD) hosted by the Cambridge 
# Crystallographic Data Centre (CCDC).
# 
# Full information about CCDC data access policies and citation 
# guidelines are available at http://www.ccdc.cam.ac.uk/access/V1 
# 
# Audit and citation data items may have been added by the CCDC. 
# Please retain this information to preserve the provenance of 
# this file and to allow appropriate attribution of the data. 
# 
#######################################################################

data_Compound-(1b)
_audit_block_doi                 10.5517/cc11q9fh
_database_code_depnum_ccdc_archive 'CCDC 974746'
loop_
_citation_id
_citation_doi
_citation_year
1 10.1021/ic5008457 2014
_audit_update_record             
;
2013-12-02 deposited with the CCDC.	2024-07-12 downloaded from the CCDC.
;

_audit_creation_method           SHELXL-97
_chemical_name_systematic        
;
 ?
;
_chemical_name_common            ?
_chemical_melting_point          ?
_chemical_formula_moiety         'C40 H50 Cu3 N28 O2'
_chemical_formula_sum            'C40 H50 Cu3 N28 O2'
_chemical_formula_weight         1145.70

loop_
_atom_type_symbol
_atom_type_description
_atom_type_scat_dispersion_real
_atom_type_scat_dispersion_imag
_atom_type_scat_source
C C 0.0181 0.0091 'International Tables Vol C Tables 4.2.6.8 and 6.1.1.4'
H H 0.0000 0.0000 'International Tables Vol C Tables 4.2.6.8 and 6.1.1.4'
N N 0.0311 0.0180 'International Tables Vol C Tables 4.2.6.8 and 6.1.1.4'
O O 0.0492 0.0322 'International Tables Vol C Tables 4.2.6.8 and 6.1.1.4'
Cu Cu -1.9646 0.5888 'International Tables Vol C Tables 4.2.6.8 and 6.1.1.4'

_symmetry_cell_setting           monoclinic
_symmetry_space_group_name_H-M   'P 21/n'

loop_
_symmetry_equiv_pos_as_xyz
'x, y, z'
'-x+1/2, y+1/2, -z+1/2'
'-x, -y, -z'
'x-1/2, -y-1/2, z-1/2'

_cell_length_a                   13.1110(5)
_cell_length_b                   14.7910(4)
_cell_length_c                   15.6710(4)
_cell_angle_alpha                90.00
_cell_angle_beta                 92.625(2)
_cell_angle_gamma                90.00
_cell_volume                     3035.81(16)
_cell_formula_units_Z            2
_cell_measurement_temperature    293(2)
_cell_measurement_reflns_used    5377
_cell_measurement_theta_min      3.3715
_cell_measurement_theta_max      66.9507

_exptl_crystal_description       blcok
_exptl_crystal_colour            green
_exptl_crystal_size_max          0.26
_exptl_crystal_size_mid          0.24
_exptl_crystal_size_min          0.23
_exptl_crystal_density_meas      ?
_exptl_crystal_density_diffrn    1.253
_exptl_crystal_density_method    'not measured'
_exptl_crystal_F_000             1178
_exptl_absorpt_coefficient_mu    1.679
_exptl_absorpt_correction_type   multi-scan
_exptl_absorpt_correction_T_min  0.6693
_exptl_absorpt_correction_T_max  0.6987
_exptl_absorpt_process_details   ?

_exptl_special_details           
;
 ?
;

_diffrn_ambient_temperature      293(2)
_diffrn_radiation_wavelength     1.54184
_diffrn_radiation_type           CuK\a
_diffrn_radiation_source         'fine-focus sealed tube'
_diffrn_radiation_monochromator  graphite
_diffrn_measurement_device_type  'Oxford Diffraction Gemini R Ultra'
_diffrn_measurement_method       '\w scan'
_diffrn_detector_area_resol_mean 10.0
_diffrn_standards_number         ?
_diffrn_standards_interval_count ?
_diffrn_standards_interval_time  ?
_diffrn_standards_decay_%        ?
_diffrn_reflns_number            12629
_diffrn_reflns_av_R_equivalents  0.0510
_diffrn_reflns_av_sigmaI/netI    0.0464
_diffrn_reflns_limit_h_min       -14
_diffrn_reflns_limit_h_max       15
_diffrn_reflns_limit_k_min       -17
_diffrn_reflns_limit_k_max       15
_diffrn_reflns_limit_l_min       -15
_diffrn_reflns_limit_l_max       18
_diffrn_reflns_theta_min         4.51
_diffrn_reflns_theta_max         66.60
_reflns_number_total             5272
_reflns_number_gt                4514
_reflns_threshold_expression     >2\s(I)

_computing_data_collection       'CrysAlis (Oxford Diffraction, 2006)'
_computing_cell_refinement       CrysAlis
_computing_data_reduction        CrysAlis
_computing_structure_solution    'SHELXS-97 (Sheldrick, 1997)'
_computing_structure_refinement  'SHELXL-97 (Sheldrick, 2008)'
_computing_molecular_graphics    ?
_computing_publication_material  ?

_refine_special_details          
;
 Refinement of F^2^ against ALL reflections.  The weighted R-factor wR and
 goodness of fit S are based on F^2^, conventional R-factors R are based
 on F, with F set to zero for negative F^2^. The threshold expression of
 F^2^ > 2\s(F^2^) is used only for calculating R-factors(gt) etc. and is
 not relevant to the choice of reflections for refinement.  R-factors based
 on F^2^ are statistically about twice as large as those based on F, and R-
 factors based on ALL data will be even larger.
;

_refine_ls_structure_factor_coef Fsqd
_refine_ls_matrix_type           full
_refine_ls_weighting_scheme      calc
_refine_ls_weighting_details     
'calc w=1/[\s^2^(Fo^2^)+(0.1313P)^2^+0.2102P] where P=(Fo^2^+2Fc^2^)/3'
_atom_sites_solution_primary     direct
_atom_sites_solution_secondary   difmap
_atom_sites_solution_hydrogens   geom
_refine_ls_hydrogen_treatment    mixed
_refine_ls_extinction_method     none
_refine_ls_extinction_coef       ?
_refine_ls_number_reflns         5272
_refine_ls_number_parameters     331
_refine_ls_number_restraints     1
_refine_ls_R_factor_all          0.0703
_refine_ls_R_factor_gt           0.0634
_refine_ls_wR_factor_ref         0.1814
_refine_ls_wR_factor_gt          0.1695
_refine_ls_goodness_of_fit_ref   1.041
_refine_ls_restrained_S_all      1.041
_refine_ls_shift/su_max          0.027
_refine_ls_shift/su_mean         0.002

loop_
_atom_site_label
_atom_site_type_symbol
_atom_site_fract_x
_atom_site_fract_y
_atom_site_fract_z
_atom_site_U_iso_or_equiv
_atom_site_adp_type
_atom_site_occupancy
_atom_site_symmetry_multiplicity
_atom_site_calc_flag
_atom_site_refinement_flags
_atom_site_disorder_assembly
_atom_site_disorder_group
Cu1 Cu 0.5000 0.0000 0.5000 0.0281(2) Uani 1 2 d S . .
Cu2 Cu 0.52586(3) 0.19820(3) 0.39180(2) 0.0349(2) Uani 1 1 d . . .
C1 C 0.8874(3) 0.1789(2) 0.7999(2) 0.0546(10) Uani 1 1 d . . .
H1 H 0.9063 0.1412 0.8455 0.066 Uiso 1 1 calc R . .
C2 C 0.8184(3) 0.1472(2) 0.7383(2) 0.0563(10) Uani 1 1 d . . .
H2 H 0.7923 0.0890 0.7416 0.068 Uiso 1 1 calc R . .
C3 C 0.7886(3) 0.2037(2) 0.6711(2) 0.0404(7) Uani 1 1 d . . .
C4 C 0.8296(4) 0.2887(3) 0.6694(3) 0.0607(11) Uani 1 1 d . . .
H4 H 0.8106 0.3285 0.6255 0.073 Uiso 1 1 calc R . .
C5 C 0.8992(4) 0.3152(3) 0.7329(3) 0.0604(11) Uani 1 1 d . . .
H5 H 0.9269 0.3730 0.7309 0.072 Uiso 1 1 calc R . .
C6 C 0.7133(3) 0.1728(2) 0.60600(19) 0.0377(7) Uani 1 1 d . . .
C7 C 0.1693(3) 0.2481(2) 0.7652(2) 0.0526(9) Uani 1 1 d . . .
H7 H 0.1474 0.3027 0.7412 0.063 Uiso 1 1 calc R . .
C8 C 0.2353(4) 0.1951(2) 0.7208(2) 0.0574(10) Uani 1 1 d . . .
H8 H 0.2573 0.2137 0.6680 0.069 Uiso 1 1 calc R . .
C9 C 0.2684(3) 0.1135(2) 0.7559(2) 0.0408(7) Uani 1 1 d . . .
C10 C 0.2332(3) 0.0900(2) 0.8342(2) 0.0507(9) Uani 1 1 d . . .
H10 H 0.2537 0.0358 0.8598 0.061 Uiso 1 1 calc R . .
C11 C 0.1677(3) 0.1464(2) 0.8745(2) 0.0485(8) Uani 1 1 d . . .
H11 H 0.1450 0.1293 0.9276 0.058 Uiso 1 1 calc R . .
C12 C 0.3360(3) 0.0555(2) 0.70861(18) 0.0373(7) Uani 1 1 d . . .
C13 C 0.4675(4) 0.3116(3) 0.5640(3) 0.0655(11) Uani 1 1 d . . .
H13 H 0.4401 0.2539 0.5691 0.079 Uiso 1 1 calc R . .
C14 C 0.4977(8) 0.3072(6) 0.7172(4) 0.125(3) Uani 1 1 d . . .
H14A H 0.5214 0.3481 0.7613 0.187 Uiso 1 1 calc R . .
H14B H 0.5424 0.2559 0.7162 0.187 Uiso 1 1 calc R . .
H14C H 0.4299 0.2875 0.7283 0.187 Uiso 1 1 calc R . .
C15 C 0.5402(9) 0.4428(5) 0.6308(5) 0.145(4) Uani 1 1 d . . .
H15A H 0.5575 0.4639 0.6876 0.218 Uiso 1 1 calc R . .
H15B H 0.4912 0.4830 0.6037 0.218 Uiso 1 1 calc R . .
H15C H 0.6005 0.4411 0.5984 0.218 Uiso 1 1 calc R . .
C16 C 0.323(2) -0.0625(19) 1.0474(13) 0.304(13) Uani 1 1 d D . .
H16A H 0.2568 -0.0785 1.0690 0.365 Uiso 1 1 calc R . .
H16B H 0.3210 -0.0001 1.0283 0.365 Uiso 1 1 calc R . .
C17 C 0.351(2) -0.1224(15) 0.9812(12) 0.251(9) Uani 1 1 d . . .
H17A H 0.2965 -0.1658 0.9708 0.301 Uiso 1 1 calc R . .
H17B H 0.3576 -0.0877 0.9292 0.301 Uiso 1 1 calc R . .
C18 C 0.442(2) -0.1694(17) 0.9986(16) 0.271(11) Uani 1 1 d . . .
H18A H 0.4327 -0.2327 0.9842 0.325 Uiso 1 1 calc R . .
H18B H 0.4953 -0.1452 0.9642 0.325 Uiso 1 1 calc R . .
C19 C 0.468(2) -0.162(2) 1.0778(19) 0.311(16) Uani 1 1 d . . .
H19A H 0.5410 -0.1502 1.0854 0.374 Uiso 1 1 calc R . .
H19B H 0.4518 -0.2161 1.1087 0.374 Uiso 1 1 calc R . .
C20 C 0.405(2) -0.078(2) 1.1105(15) 0.45(4) Uani 1 1 d D . .
H20A H 0.3775 -0.0916 1.1655 0.546 Uiso 1 1 calc R . .
H20B H 0.4479 -0.0251 1.1163 0.546 Uiso 1 1 calc R . .
N1 N 0.9280(2) 0.26072(18) 0.79724(16) 0.0409(6) Uani 1 1 d . . .
N2 N 0.6854(2) 0.22122(18) 0.53608(16) 0.0405(6) Uani 1 1 d . . .
N3 N 0.6161(2) 0.16957(17) 0.49612(15) 0.0360(6) Uani 1 1 d . . .
N4 N 0.60300(19) 0.09381(16) 0.53972(14) 0.0331(5) Uani 1 1 d . . .
N5 N 0.6639(2) 0.09377(17) 0.60968(15) 0.0384(6) Uani 1 1 d . . .
N6 N 0.1354(2) 0.22434(18) 0.84097(16) 0.0399(6) Uani 1 1 d . . .
N7 N 0.3785(2) 0.08184(17) 0.63626(16) 0.0405(6) Uani 1 1 d . . .
N8 N 0.4296(2) 0.00954(15) 0.61246(16) 0.0344(6) Uani 1 1 d . . .
N9 N 0.4188(2) -0.05732(16) 0.66698(15) 0.0373(6) Uani 1 1 d . . .
N10 N 0.3600(2) -0.03024(18) 0.72915(16) 0.0429(6) Uani 1 1 d . . .
N11 N 0.4169(2) 0.12503(17) 0.44235(16) 0.0379(6) Uani 1 1 d . . .
N12 N 0.3306(3) 0.1356(3) 0.4281(4) 0.0922(16) Uani 1 1 d . . .
N13 N 0.2451(4) 0.1449(7) 0.4148(10) 0.244(7) Uani 1 1 d . . .
N14 N 0.4970(4) 0.3531(3) 0.6349(2) 0.0774(11) Uani 1 1 d . . .
O1 O 0.4731(3) 0.3423(2) 0.49180(19) 0.0749(9) Uani 1 1 d . . .

loop_
_atom_site_aniso_label
_atom_site_aniso_U_11
_atom_site_aniso_U_22
_atom_site_aniso_U_33
_atom_site_aniso_U_23
_atom_site_aniso_U_13
_atom_site_aniso_U_12
Cu1 0.0337(4) 0.0283(3) 0.0219(3) -0.00159(19) -0.0027(2) -0.0037(2)
Cu2 0.0366(3) 0.0388(3) 0.0282(3) 0.00984(16) -0.00992(19) -0.00620(17)
C1 0.073(3) 0.0454(18) 0.0421(19) 0.0053(15) -0.0290(17) -0.0078(17)
C2 0.074(3) 0.0404(17) 0.051(2) 0.0037(15) -0.0295(18) -0.0154(17)
C3 0.0460(19) 0.0401(16) 0.0336(16) 0.0002(12) -0.0144(13) -0.0040(13)
C4 0.077(3) 0.0499(19) 0.051(2) 0.0147(16) -0.037(2) -0.0204(18)
C5 0.079(3) 0.0443(18) 0.055(2) 0.0086(16) -0.034(2) -0.0190(18)
C6 0.0461(18) 0.0359(15) 0.0298(15) -0.0004(12) -0.0132(12) -0.0048(13)
C7 0.074(3) 0.0413(17) 0.0427(18) 0.0029(14) 0.0097(16) 0.0188(17)
C8 0.082(3) 0.049(2) 0.0421(19) 0.0077(14) 0.0176(18) 0.0210(18)
C9 0.0517(19) 0.0367(15) 0.0343(16) -0.0019(12) 0.0052(13) 0.0076(14)
C10 0.068(2) 0.0479(18) 0.0372(17) 0.0070(14) 0.0089(15) 0.0192(17)
C11 0.058(2) 0.0525(19) 0.0351(16) 0.0024(14) 0.0082(14) 0.0143(16)
C12 0.0480(18) 0.0351(14) 0.0292(14) -0.0006(11) 0.0050(12) 0.0046(13)
C13 0.081(3) 0.065(2) 0.051(2) -0.0042(18) 0.008(2) -0.010(2)
C14 0.182(9) 0.131(6) 0.061(3) 0.009(3) 0.005(4) -0.035(5)
C15 0.250(11) 0.076(4) 0.108(5) -0.016(4) -0.009(6) -0.058(5)
C16 0.41(3) 0.38(3) 0.122(11) -0.008(18) 0.014(17) -0.13(3)
C17 0.35(3) 0.234(18) 0.163(15) 0.039(13) -0.066(16) -0.025(17)
C18 0.30(3) 0.28(2) 0.24(2) 0.07(2) 0.04(2) 0.07(2)
C19 0.32(3) 0.35(3) 0.25(3) 0.07(2) -0.12(3) 0.00(3)
C20 0.75(9) 0.47(5) 0.152(18) -0.06(3) 0.04(3) -0.34(6)
N1 0.0447(15) 0.0409(14) 0.0357(13) -0.0065(11) -0.0143(11) 0.0008(11)
N2 0.0497(16) 0.0380(13) 0.0322(13) 0.0049(10) -0.0149(11) -0.0129(11)
N3 0.0417(15) 0.0350(12) 0.0303(13) 0.0054(10) -0.0094(10) -0.0090(11)
N4 0.0384(13) 0.0347(12) 0.0255(11) 0.0023(9) -0.0070(9) -0.0051(10)
N5 0.0485(15) 0.0377(13) 0.0276(12) 0.0044(10) -0.0140(10) -0.0060(11)
N6 0.0476(16) 0.0415(13) 0.0302(13) -0.0079(11) -0.0043(10) 0.0080(12)
N7 0.0550(17) 0.0331(12) 0.0337(13) -0.0022(10) 0.0050(11) 0.0057(11)
N8 0.0418(15) 0.0274(11) 0.0340(13) 0.0003(9) -0.0001(10) 0.0011(10)
N9 0.0489(15) 0.0329(12) 0.0307(12) 0.0021(10) 0.0060(10) 0.0084(11)
N10 0.0594(18) 0.0378(13) 0.0324(13) 0.0041(11) 0.0103(11) 0.0097(12)
N11 0.0370(15) 0.0409(13) 0.0354(13) 0.0055(10) -0.0029(10) -0.0021(11)
N12 0.039(2) 0.086(3) 0.152(4) 0.063(3) 0.011(2) 0.0063(18)
N13 0.039(3) 0.219(9) 0.474(18) 0.195(11) 0.002(6) 0.008(4)
N14 0.112(3) 0.069(2) 0.051(2) -0.0056(17) 0.0018(19) -0.013(2)
O1 0.086(2) 0.088(2) 0.0498(17) 0.0058(15) -0.0045(14) -0.0023(18)

_geom_special_details            
;
 All s.u.'s (except the s.u. in the dihedral angle between two l.s. planes)
 are estimated using the full covariance matrix.  The cell s.u.'s are taken
 into account individually in the estimation of s.u.'s in distances, angles
 and torsion angles; correlations between s.u.'s in cell parameters are only
 used when they are defined by crystal symmetry.  An approximate (isotropic)
 treatment of cell s.u.'s is used for estimating s.u.'s involving l.s. planes.
;

loop_
_geom_bond_atom_site_label_1
_geom_bond_atom_site_label_2
_geom_bond_distance
_geom_bond_site_symmetry_2
_geom_bond_publ_flag
Cu1 N4 2.015(2) . ?
Cu1 N4 2.015(2) 3_656 ?
Cu1 N8 2.032(2) 3_656 ?
Cu1 N8 2.032(2) . ?
Cu1 N11 2.310(3) . ?
Cu1 N11 2.310(3) 3_656 ?
Cu2 N11 1.986(3) . ?
Cu2 N1 2.009(2) 4_565 ?
Cu2 N3 2.019(2) . ?
Cu2 N6 2.028(3) 4_665 ?
Cu2 N9 2.404(2) 3_656 ?
C1 N1 1.324(4) . ?
C1 C2 1.375(5) . ?
C1 H1 0.9300 . ?
C2 C3 1.386(5) . ?
C2 H2 0.9300 . ?
C3 C4 1.369(5) . ?
C3 C6 1.460(4) . ?
C4 C5 1.375(5) . ?
C4 H4 0.9300 . ?
C5 N1 1.331(5) . ?
C5 H5 0.9300 . ?
C6 N5 1.339(4) . ?
C6 N2 1.346(4) . ?
C7 N6 1.334(5) . ?
C7 C8 1.380(5) . ?
C7 H7 0.9300 . ?
C8 C9 1.388(5) . ?
C8 H8 0.9300 . ?
C9 C10 1.375(5) . ?
C9 C12 1.460(4) . ?
C10 C11 1.372(5) . ?
C10 H10 0.9300 . ?
C11 N6 1.329(4) . ?
C11 H11 0.9300 . ?
C12 N10 1.342(4) . ?
C12 N7 1.344(4) . ?
C13 O1 1.225(5) . ?
C13 N14 1.312(6) . ?
C13 H13 0.9300 . ?
C14 N14 1.457(8) . ?
C14 H14A 0.9600 . ?
C14 H14B 0.9600 . ?
C14 H14C 0.9600 . ?
C15 N14 1.445(8) . ?
C15 H15A 0.9600 . ?
C15 H15B 0.9600 . ?
C15 H15C 0.9600 . ?
C16 C17 1.43(3) . ?
C16 C20 1.446(10) . ?
C16 H16A 0.9700 . ?
C16 H16B 0.9700 . ?
C17 C18 1.40(3) . ?
C17 H17A 0.9700 . ?
C17 H17B 0.9700 . ?
C18 C19 1.28(3) . ?
C18 H18A 0.9700 . ?
C18 H18B 0.9700 . ?
C19 C20 1.59(4) . ?
C19 H19A 0.9700 . ?
C19 H19B 0.9700 . ?
C20 H20A 0.9700 . ?
C20 H20B 0.9700 . ?
N1 Cu2 2.009(2) 4_666 ?
N2 N3 1.322(4) . ?
N3 N4 1.328(3) . ?
N4 N5 1.327(3) . ?
N6 Cu2 2.028(3) 4_566 ?
N7 N8 1.324(3) . ?
N8 N9 1.319(3) . ?
N9 N10 1.331(4) . ?
N9 Cu2 2.404(2) 3_656 ?
N11 N12 1.153(5) . ?
N12 N13 1.139(7) . ?

loop_
_geom_angle_atom_site_label_1
_geom_angle_atom_site_label_2
_geom_angle_atom_site_label_3
_geom_angle
_geom_angle_site_symmetry_1
_geom_angle_site_symmetry_3
_geom_angle_publ_flag
N4 Cu1 N4 180.00(14) . 3_656 ?
N4 Cu1 N8 89.48(10) . 3_656 ?
N4 Cu1 N8 90.52(10) 3_656 3_656 ?
N4 Cu1 N8 90.52(10) . . ?
N4 Cu1 N8 89.48(10) 3_656 . ?
N8 Cu1 N8 180.0 3_656 . ?
N4 Cu1 N11 82.36(9) . . ?
N4 Cu1 N11 97.64(9) 3_656 . ?
N8 Cu1 N11 86.64(9) 3_656 . ?
N8 Cu1 N11 93.36(9) . . ?
N4 Cu1 N11 97.64(9) . 3_656 ?
N4 Cu1 N11 82.36(9) 3_656 3_656 ?
N8 Cu1 N11 93.36(9) 3_656 3_656 ?
N8 Cu1 N11 86.64(9) . 3_656 ?
N11 Cu1 N11 180.0 . 3_656 ?
N11 Cu2 N1 90.69(11) . 4_565 ?
N11 Cu2 N3 88.18(10) . . ?
N1 Cu2 N3 172.54(11) 4_565 . ?
N11 Cu2 N6 178.63(11) . 4_665 ?
N1 Cu2 N6 88.82(11) 4_565 4_665 ?
N3 Cu2 N6 92.14(10) . 4_665 ?
N11 Cu2 N9 85.18(10) . 3_656 ?
N1 Cu2 N9 99.99(10) 4_565 3_656 ?
N3 Cu2 N9 87.27(10) . 3_656 ?
N6 Cu2 N9 96.17(10) 4_665 3_656 ?
N1 C1 C2 122.7(3) . . ?
N1 C1 H1 118.6 . . ?
C2 C1 H1 118.6 . . ?
C1 C2 C3 118.9(3) . . ?
C1 C2 H2 120.6 . . ?
C3 C2 H2 120.6 . . ?
C4 C3 C2 118.1(3) . . ?
C4 C3 C6 121.8(3) . . ?
C2 C3 C6 120.1(3) . . ?
C3 C4 C5 119.7(3) . . ?
C3 C4 H4 120.2 . . ?
C5 C4 H4 120.2 . . ?
N1 C5 C4 122.1(3) . . ?
N1 C5 H5 118.9 . . ?
C4 C5 H5 118.9 . . ?
N5 C6 N2 112.7(2) . . ?
N5 C6 C3 123.8(3) . . ?
N2 C6 C3 123.5(3) . . ?
N6 C7 C8 122.8(3) . . ?
N6 C7 H7 118.6 . . ?
C8 C7 H7 118.6 . . ?
C7 C8 C9 119.1(3) . . ?
C7 C8 H8 120.5 . . ?
C9 C8 H8 120.5 . . ?
C10 C9 C8 117.5(3) . . ?
C10 C9 C12 122.7(3) . . ?
C8 C9 C12 119.7(3) . . ?
C11 C10 C9 120.0(3) . . ?
C11 C10 H10 120.0 . . ?
C9 C10 H10 120.0 . . ?
N6 C11 C10 122.7(3) . . ?
N6 C11 H11 118.6 . . ?
C10 C11 H11 118.6 . . ?
N10 C12 N7 112.0(3) . . ?
N10 C12 C9 125.1(3) . . ?
N7 C12 C9 122.9(3) . . ?
O1 C13 N14 125.5(4) . . ?
O1 C13 H13 117.2 . . ?
N14 C13 H13 117.2 . . ?
N14 C14 H14A 109.5 . . ?
N14 C14 H14B 109.5 . . ?
H14A C14 H14B 109.5 . . ?
N14 C14 H14C 109.5 . . ?
H14A C14 H14C 109.5 . . ?
H14B C14 H14C 109.5 . . ?
N14 C15 H15A 109.5 . . ?
N14 C15 H15B 109.5 . . ?
H15A C15 H15B 109.5 . . ?
N14 C15 H15C 109.5 . . ?
H15A C15 H15C 109.5 . . ?
H15B C15 H15C 109.5 . . ?
C17 C16 C20 101(2) . . ?
C17 C16 H16A 111.6 . . ?
C20 C16 H16A 111.7 . . ?
C17 C16 H16B 111.6 . . ?
C20 C16 H16B 111.6 . . ?
H16A C16 H16B 109.4 . . ?
C18 C17 C16 114.6(19) . . ?
C18 C17 H17A 108.6 . . ?
C16 C17 H17A 108.6 . . ?
C18 C17 H17B 108.6 . . ?
C16 C17 H17B 108.6 . . ?
H17A C17 H17B 107.6 . . ?
C19 C18 C17 109(2) . . ?
C19 C18 H18A 109.8 . . ?
C17 C18 H18A 109.8 . . ?
C19 C18 H18B 109.8 . . ?
C17 C18 H18B 109.8 . . ?
H18A C18 H18B 108.2 . . ?
C18 C19 C20 105(2) . . ?
C18 C19 H19A 110.7 . . ?
C20 C19 H19A 110.7 . . ?
C18 C19 H19B 110.7 . . ?
C20 C19 H19B 110.8 . . ?
H19A C19 H19B 108.8 . . ?
C16 C20 C19 107(2) . . ?
C16 C20 H20A 110.3 . . ?
C19 C20 H20A 110.3 . . ?
C16 C20 H20B 110.4 . . ?
C19 C20 H20B 110.4 . . ?
H20A C20 H20B 108.6 . . ?
C1 N1 C5 118.5(3) . . ?
C1 N1 Cu2 119.8(2) . 4_666 ?
C5 N1 Cu2 121.7(2) . 4_666 ?
N3 N2 C6 103.5(2) . . ?
N2 N3 N4 110.2(2) . . ?
N2 N3 Cu2 128.81(19) . . ?
