####################################################################### 
# 
# This file contains crystal structure data downloaded from the 
# Cambridge Structural Database (CSD) hosted by the Cambridge 
# Crystallographic Data Centre (CCDC).
# 
# Full information about CCDC data access policies and citation 
# guidelines are available at http://www.ccdc.cam.ac.uk/access/V1 
# 
# Audit and citation data items may have been added by the CCDC. 
# Please retain this information to preserve the provenance of 
# this file and to allow appropriate attribution of the data. 
# 
#######################################################################

data_1
_audit_block_doi                 10.5517/cc10d31k
_database_code_depnum_ccdc_archive 'CCDC 935147'
loop_
_citation_id
_citation_doi
_citation_year
1 10.1016/j.catcom.2013.09.014 2014
_audit_update_record             
;
2013-04-22 deposited with the CCDC.	2024-07-12 downloaded from the CCDC.
;
#TrackingRef 'Co-MOFs 20130422.cif'


_audit_creation_method           SHELXL-97
_chemical_name_systematic        
;
?
;
_chemical_name_common            ?
_chemical_melting_point          ?
_chemical_formula_moiety         ?
_chemical_formula_sum            'C124 H68 Co12 N4 O75'
_chemical_formula_weight         3520.98

loop_
_atom_type_symbol
_atom_type_description
_atom_type_scat_dispersion_real
_atom_type_scat_dispersion_imag
_atom_type_scat_source
C C 0.0033 0.0016 'International Tables Vol C Tables 4.2.6.8 and 6.1.1.4'
H H 0.0000 0.0000 'International Tables Vol C Tables 4.2.6.8 and 6.1.1.4'
Co Co 0.3494 0.9721 'International Tables Vol C Tables 4.2.6.8 and 6.1.1.4'
N N 0.0061 0.0033 'International Tables Vol C Tables 4.2.6.8 and 6.1.1.4'
O O 0.0106 0.0060 'International Tables Vol C Tables 4.2.6.8 and 6.1.1.4'

_symmetry_cell_setting           monoclinic
_symmetry_space_group_name_H-M   P21/c

loop_
_symmetry_equiv_pos_as_xyz
'x, y, z'
'-x, y+1/2, -z+1/2'
'-x, -y, -z'
'x, -y-1/2, z-1/2'

_cell_length_a                   18.148(4)
_cell_length_b                   9.6650(19)
_cell_length_c                   30.969(6)
_cell_angle_alpha                90.00
_cell_angle_beta                 90.39(3)
_cell_angle_gamma                90.00
_cell_volume                     5431.9(19)
_cell_formula_units_Z            1
_cell_measurement_temperature    293(2)
_cell_measurement_reflns_used    ?
_cell_measurement_theta_min      ?
_cell_measurement_theta_max      ?

_exptl_crystal_description       ?
_exptl_crystal_colour            ?
_exptl_crystal_size_max          0.30
_exptl_crystal_size_mid          0.20
_exptl_crystal_size_min          0.20
_exptl_crystal_density_meas      ?
_exptl_crystal_density_diffrn    1.076
_exptl_crystal_density_method    'not measured'
_exptl_crystal_F_000             1764
_exptl_absorpt_coefficient_mu    0.959
_exptl_absorpt_correction_type   multi-scan
_exptl_absorpt_correction_T_min  0.7618
_exptl_absorpt_correction_T_max  0.8313
_exptl_absorpt_process_details   ?

_exptl_special_details           
;
?
;

_diffrn_ambient_temperature      293(2)
_diffrn_radiation_wavelength     0.71073
_diffrn_radiation_type           MoK\a
_diffrn_radiation_source         'fine-focus sealed tube'
_diffrn_radiation_monochromator  graphite
_diffrn_measurement_device_type  ?
_diffrn_measurement_method       ?
_diffrn_detector_area_resol_mean ?
_diffrn_standards_number         ?
_diffrn_standards_interval_count ?
_diffrn_standards_interval_time  ?
_diffrn_standards_decay_%        ?
_diffrn_reflns_number            41747
_diffrn_reflns_av_R_equivalents  0.1106
_diffrn_reflns_av_sigmaI/netI    0.0832
_diffrn_reflns_limit_h_min       -20
_diffrn_reflns_limit_h_max       21
_diffrn_reflns_limit_k_min       -11
_diffrn_reflns_limit_k_max       11
_diffrn_reflns_limit_l_min       -36
_diffrn_reflns_limit_l_max       36
_diffrn_reflns_theta_min         3.08
_diffrn_reflns_theta_max         25.02
_reflns_number_total             9549
_reflns_number_gt                6874
_reflns_threshold_expression     >2sigma(I)

_computing_data_collection       ?
_computing_cell_refinement       ?
_computing_data_reduction        ?
_computing_structure_solution    'SHELXS-97 (Sheldrick, 1990)'
_computing_structure_refinement  'SHELXL-97 (Sheldrick, 1997)'
_computing_molecular_graphics    ?
_computing_publication_material  ?

_refine_special_details          
;
Refinement of F^2^ against ALL reflections. The weighted R-factor wR and
goodness of fit S are based on F^2^, conventional R-factors R are based
on F, with F set to zero for negative F^2^. The threshold expression of
F^2^ > 2sigma(F^2^) is used only for calculating R-factors(gt) etc. and is
not relevant to the choice of reflections for refinement. R-factors based
on F^2^ are statistically about twice as large as those based on F, and R-
factors based on ALL data will be even larger.
;

_refine_ls_structure_factor_coef Fsqd
_refine_ls_matrix_type           full
_refine_ls_weighting_scheme      calc
_refine_ls_weighting_details     
'calc w=1/[\s^2^(Fo^2^)+(0.1716P)^2^+10.5392P] where P=(Fo^2^+2Fc^2^)/3'
_atom_sites_solution_primary     direct
_atom_sites_solution_secondary   difmap
_atom_sites_solution_hydrogens   geom
_refine_ls_hydrogen_treatment    mixed
_refine_ls_extinction_method     none
_refine_ls_extinction_coef       ?
_refine_ls_number_reflns         9549
_refine_ls_number_parameters     514
_refine_ls_number_restraints     36
_refine_ls_R_factor_all          0.1216
_refine_ls_R_factor_gt           0.0911
_refine_ls_wR_factor_ref         0.2856
_refine_ls_wR_factor_gt          0.2646
_refine_ls_goodness_of_fit_ref   1.057
_refine_ls_restrained_S_all      1.063
_refine_ls_shift/su_max          0.096
_refine_ls_shift/su_mean         0.008

loop_
_atom_site_label
_atom_site_type_symbol
_atom_site_fract_x
_atom_site_fract_y
_atom_site_fract_z
_atom_site_U_iso_or_equiv
_atom_site_adp_type
_atom_site_occupancy
_atom_site_symmetry_multiplicity
_atom_site_calc_flag
_atom_site_refinement_flags
_atom_site_disorder_assembly
_atom_site_disorder_group
C1 C 0.2607(4) 0.2184(6) 0.2242(2) 0.0452(15) Uani 1 1 d . . .
C2 C 0.3488(4) 0.9674(7) 0.3218(2) 0.0464(15) Uani 1 1 d . . .
C3 C 0.5531(4) 1.1918(8) 0.3152(2) 0.0497(17) Uani 1 1 d . . .
C4 C 0.4196(4) 1.0475(8) 0.3206(2) 0.0501(17) Uani 1 1 d . . .
C5 C -0.1554(3) 1.1950(7) 0.3185(2) 0.0425(15) Uani 1 1 d . . .
C6 C 0.3003(4) 0.4457(7) 0.2474(2) 0.0532(17) Uani 1 1 d . . .
H6A H 0.3315 0.5213 0.2443 0.064 Uiso 1 1 calc R . .
C7 C 0.0549(4) 0.9873(8) 0.3156(2) 0.0501(17) Uani 1 1 d . . .
C8 C -0.0816(4) 1.1194(8) 0.3172(2) 0.0485(16) Uani 1 1 d . . .
C12 C 0.2465(4) 0.4474(6) 0.2789(2) 0.0443(15) Uani 1 1 d . . .
C14 C 0.2376(4) 0.5661(7) 0.3087(2) 0.0474(16) Uani 1 1 d . . .
C15 C 0.1271(4) 0.9134(7) 0.3139(2) 0.0464(16) Uani 1 1 d . . .
C17 C 0.6249(4) 1.2650(7) 0.3127(2) 0.0450(15) Uani 1 1 d . . .
C20 C 0.1981(5) 0.3316(7) 0.2824(2) 0.0575(19) Uani 1 1 d . . .
H20A H 0.1605 0.3321 0.3026 0.069 Uiso 1 1 calc R . .
C21 C 0.4445(4) 1.0975(9) 0.2813(2) 0.061(2) Uani 1 1 d . . .
H21A H 0.4167 1.0830 0.2563 0.073 Uiso 1 1 calc R . .
C22 C -0.0581(4) 1.0600(10) 0.2801(2) 0.066(2) Uani 1 1 d . . .
H22A H -0.0877 1.0635 0.2555 0.079 Uiso 1 1 calc R . .
C23 C 0.3223(5) 0.5949(13) 0.5547(3) 0.094(4) Uani 1 1 d . . .
H23A H 0.3620 0.5600 0.5705 0.112 Uiso 1 1 calc R . .
C24 C 0.2074(4) 0.2202(7) 0.2559(2) 0.0526(18) Uani 1 1 d . . .
H24A H 0.1770 0.1435 0.2593 0.063 Uiso 1 1 calc R . .
C25 C 0.0112(4) 0.9926(10) 0.2784(2) 0.067(2) Uani 1 1 d . . .
H25A H 0.0273 0.9525 0.2529 0.081 Uiso 1 1 calc R . .
C26 C 0.3081(4) 0.3328(7) 0.2204(2) 0.0530(17) Uani 1 1 d . . .
H26A H 0.3449 0.3325 0.1996 0.064 Uiso 1 1 calc R . .
C29 C 0.5106(4) 1.1691(9) 0.2790(2) 0.061(2) Uani 1 1 d . . .
H29A H 0.5265 1.2022 0.2524 0.073 Uiso 1 1 calc R . .
C31 C 0.4613(5) 1.0726(11) 0.3568(2) 0.076(3) Uani 1 1 d . . .
H31A H 0.4451 1.0385 0.3832 0.091 Uiso 1 1 calc R . .
C32 C -0.0378(4) 1.1137(10) 0.3543(2) 0.067(2) Uani 1 1 d . . .
H32A H -0.0537 1.1544 0.3797 0.080 Uiso 1 1 calc R . .
C34 C 0.2155(6) 0.7027(13) 0.5078(3) 0.093(3) Uani 1 1 d U . .
H34A H 0.1764 0.7411 0.4924 0.112 Uiso 1 1 calc R . .
C35 C 0.2096(6) 0.6850(13) 0.5521(3) 0.094(3) Uani 1 1 d U . .
H35A H 0.1674 0.7155 0.5661 0.112 Uiso 1 1 calc R . .
C37 C 0.0299(4) 1.0469(11) 0.3530(2) 0.070(3) Uani 1 1 d . . .
H37A H 0.0588 1.0424 0.3779 0.084 Uiso 1 1 calc R . .
C38 C 0.5249(5) 1.1451(10) 0.3557(2) 0.072(3) Uani 1 1 d . . .
H38A H 0.5504 1.1644 0.3812 0.086 Uiso 1 1 calc R . .
C39 C 0.2669(4) 0.0989(7) 0.1949(2) 0.0493(17) Uani 1 1 d . . .
C43 C 0.2769(5) 0.6654(9) 0.4867(2) 0.065(2) Uani 1 1 d . . .
C45 C 0.2839(7) 0.6897(11) 0.4391(3) 0.085(3) Uani 1 1 d . . .
C49 C 0.3299(7) 0.6116(13) 0.5112(3) 0.101(3) Uani 1 1 d U . .
H49A H 0.3737 0.5843 0.4983 0.121 Uiso 1 1 calc R . .
C51 C 0.9025(8) 1.5255(15) 0.3645(5) 0.120(4) Uani 1 1 d U . .
H51A H 0.9118 1.4341 0.3570 0.144 Uiso 1 1 calc R . .
Co1 Co 0.24838(4) 0.77783(8) 0.35853(2) 0.0344(3) Uani 1 1 d . . .
Co2 Co 0.75078(4) 1.40284(8) 0.35836(2) 0.0346(3) Uani 1 1 d . . .
Co3 Co 0.25145(4) 0.83180(7) 0.25126(2) 0.0300(3) Uani 1 1 d . . .
N1 N 0.2630(3) 0.6252(7) 0.57475(17) 0.0513(14) Uani 1 1 d . . .
N2 N 0.2689(19) 0.399(2) 0.0840(8) 0.147(11) Uani 0.50 1 d P . .
N3 N 0.4656(12) 0.587(4) 0.3708(10) 0.186(16) Uani 0.50 1 d P . .
N5 N 0.491(2) 0.511(5) 0.410(5) 0.65(10) Uani 0.50 1 d P . .
N4 N 0.245(3) 0.215(4) 0.4305(8) 0.28(3) Uani 0.50 1 d P . .
O1 O 0.3092(2) 0.9690(5) 0.28938(15) 0.0473(11) Uani 1 1 d . . .
O2 O 0.6560(3) 1.2976(5) 0.34786(15) 0.0533(12) Uani 1 1 d . . .
O3 O 0.1506(2) 0.8830(5) 0.27787(16) 0.0523(12) Uani 1 1 d . . .
O4 O 0.3355(3) 0.9023(6) 0.35632(15) 0.0573(13) Uani 1 1 d . . .
O5 O -0.1925(3) 1.1922(5) 0.28470(16) 0.0498(11) Uani 1 1 d . . .
O6 O 0.6487(2) 1.2825(5) 0.27541(15) 0.0519(12) Uani 1 1 d . . .
O7 O 0.1576(3) 0.8866(6) 0.34995(16) 0.0549(13) Uani 1 1 d . . .
O8 O -0.1722(3) 1.2531(6) 0.35283(15) 0.0552(13) Uani 1 1 d . . .
O9 O 0.2720(3) 0.6775(5) 0.30146(15) 0.0495(11) Uani 1 1 d . . .
O10 O 0.2338(3) -0.0133(4) 0.20392(13) 0.0442(10) Uani 1 1 d . . .
O11 O 0.3019(4) 0.1085(5) 0.16067(18) 0.0691(16) Uani 1 1 d . . .
O12 O 0.1986(4) 0.5581(6) 0.3409(2) 0.086(2) Uani 1 1 d . . .
O13 O 0.2332(4) 0.7526(8) 0.42096(19) 0.092(2) Uani 1 1 d . . .
O14 O 0.3353(6) 0.6439(11) 0.4191(3) 0.137(4) Uani 1 1 d . . .
O15 O 0.9574(8) 1.5975(19) 0.3588(7) 0.260(9) Uani 1 1 d . . .
O16 O 0.8414(4) 1.5382(7) 0.3768(2) 0.0810(18) Uani 1 1 d . . .
O1W O 0.507(3) 0.712(6) 0.3518(19) 0.19(2) Uani 0.25 1 d PU . .
O2W O 0.231(3) 0.241(6) 0.4045(18) 0.31(2) Uani 0.50 1 d PU . .

loop_
_atom_site_aniso_label
_atom_site_aniso_U_11
_atom_site_aniso_U_22
_atom_site_aniso_U_33
_atom_site_aniso_U_23
_atom_site_aniso_U_13
_atom_site_aniso_U_12
C1 0.059(4) 0.035(3) 0.041(3) -0.001(3) 0.001(3) 0.002(3)
C2 0.040(4) 0.056(4) 0.043(4) -0.004(3) 0.000(3) -0.008(3)
C3 0.033(3) 0.071(5) 0.046(4) 0.001(3) 0.009(3) -0.011(3)
C4 0.042(4) 0.067(4) 0.041(3) -0.001(3) 0.000(3) -0.020(3)
C5 0.034(3) 0.047(4) 0.047(4) 0.005(3) -0.004(3) 0.008(3)
C6 0.053(4) 0.038(4) 0.069(5) -0.005(3) 0.008(4) -0.005(3)
C7 0.033(3) 0.068(5) 0.049(4) 0.003(3) 0.003(3) 0.016(3)
C8 0.035(3) 0.064(4) 0.047(4) 0.005(3) -0.002(3) 0.016(3)
C12 0.058(4) 0.031(3) 0.044(4) 0.002(3) -0.004(3) -0.001(3)
C14 0.072(5) 0.035(3) 0.035(3) 0.002(3) -0.007(3) 0.004(3)
C15 0.033(3) 0.057(4) 0.050(4) 0.007(3) 0.006(3) 0.005(3)
C17 0.034(3) 0.055(4) 0.047(4) 0.006(3) 0.003(3) -0.005(3)
C20 0.072(5) 0.044(4) 0.056(4) 0.000(3) 0.021(4) -0.010(3)
C21 0.054(4) 0.092(6) 0.037(4) 0.006(4) -0.003(3) -0.027(4)
C22 0.050(4) 0.103(7) 0.045(4) -0.008(4) -0.006(3) 0.025(4)
C23 0.063(6) 0.171(11) 0.046(5) 0.020(6) 0.011(4) 0.045(6)
C24 0.064(5) 0.031(3) 0.063(4) -0.004(3) 0.012(4) -0.007(3)
C25 0.047(4) 0.103(6) 0.051(4) -0.016(4) -0.002(3) 0.030(4)
C26 0.051(4) 0.049(4) 0.059(4) -0.010(3) 0.008(3) -0.008(3)
C29 0.049(4) 0.096(6) 0.037(4) 0.012(4) -0.001(3) -0.022(4)
C31 0.064(5) 0.128(8) 0.035(4) 0.021(4) -0.006(3) -0.052(5)
C32 0.049(4) 0.108(7) 0.044(4) -0.012(4) -0.002(3) 0.033(4)
C34 0.079(6) 0.132(7) 0.067(5) 0.032(5) -0.005(4) 0.024(5)
C35 0.084(6) 0.137(7) 0.060(5) 0.014(5) 0.001(4) 0.031(5)
C37 0.053(5) 0.117(7) 0.039(4) -0.008(4) -0.018(3) 0.031(5)
C38 0.066(5) 0.115(7) 0.035(4) 0.010(4) -0.010(3) -0.046(5)
C39 0.062(4) 0.044(4) 0.042(4) -0.006(3) 0.001(3) 0.002(3)
C43 0.077(6) 0.075(5) 0.042(4) 0.014(4) 0.000(4) 0.005(4)
C45 0.126(9) 0.082(6) 0.049(5) 0.008(5) 0.009(6) -0.011(6)
C49 0.099(6) 0.129(7) 0.074(5) 0.020(5) 0.012(5) 0.031(6)
C51 0.097(7) 0.117(7) 0.147(8) -0.015(7) -0.001(7) -0.035(6)
Co1 0.0309(5) 0.0446(5) 0.0277(4) -0.0023(3) 0.0010(3) 0.0015(3)
Co2 0.0318(5) 0.0425(5) 0.0297(4) 0.0041(3) 0.0014(3) 0.0010(3)
Co3 0.0257(4) 0.0336(5) 0.0306(4) -0.0040(3) 0.0021(3) -0.0009(3)
N1 0.059(4) 0.064(4) 0.031(3) 0.009(3) 0.000(3) 0.000(3)
N2 0.27(3) 0.068(12) 0.102(15) 0.016(10) 0.033(18) -0.002(15)
N3 0.081(15) 0.27(4) 0.21(3) 0.15(3) 0.103(17) 0.088(19)
N5 0.10(3) 0.17(4) 1.7(3) -0.19(9) 0.11(7) 0.03(3)
N4 0.60(9) 0.19(3) 0.047(12) -0.021(15) -0.03(3) 0.16(4)
O1 0.045(3) 0.048(3) 0.049(3) -0.003(2) -0.007(2) -0.011(2)
O2 0.044(3) 0.071(3) 0.045(3) 0.003(2) 0.003(2) -0.018(2)
O3 0.031(2) 0.069(3) 0.057(3) -0.003(2) 0.006(2) 0.007(2)
O4 0.051(3) 0.085(4) 0.036(2) 0.007(2) -0.001(2) -0.027(3)
O5 0.043(3) 0.043(2) 0.063(3) 0.004(2) -0.013(2) 0.008(2)
O6 0.035(2) 0.074(3) 0.046(3) 0.008(2) 0.004(2) -0.007(2)
O7 0.036(3) 0.076(3) 0.052(3) 0.010(2) 0.003(2) 0.018(2)
O8 0.049(3) 0.072(3) 0.045(3) -0.002(2) 0.001(2) 0.025(2)
O9 0.056(3) 0.039(2) 0.053(3) -0.006(2) -0.003(2) -0.001(2)
O10 0.060(3) 0.035(2) 0.037(2) -0.0020(18) -0.001(2) -0.003(2)
O11 0.100(4) 0.050(3) 0.058(3) -0.003(2) 0.031(3) -0.003(3)
O12 0.141(6) 0.053(3) 0.065(4) -0.014(3) 0.037(4) -0.008(4)
O13 0.122(6) 0.107(5) 0.048(3) 0.026(3) -0.019(4) -0.027(5)
O14 0.166(9) 0.171(9) 0.073(5) 0.018(5) 0.054(5) 0.046(7)
O15 0.130(11) 0.241(17) 0.41(3) -0.078(17) 0.032(13) -0.078(11)
O16 0.072(4) 0.090(4) 0.080(4) 0.003(3) 0.002(3) -0.030(4)
O1W 0.19(2) 0.19(2) 0.20(2) -0.001(10) 0.001(10) 0.001(10)
O2W 0.31(3) 0.31(3) 0.31(3) -0.001(10) -0.003(10) 0.000(10)

_geom_special_details            
;
All esds (except the esd in the dihedral angle between two l.s. planes)
are estimated using the full covariance matrix. The cell esds are taken
into account individually in the estimation of esds in distances, angles
and torsion angles; correlations between esds in cell parameters are only
used when they are defined by crystal symmetry. An approximate (isotropic)
treatment of cell esds is used for estimating esds involving l.s. planes.
;

loop_
_geom_bond_atom_site_label_1
_geom_bond_atom_site_label_2
_geom_bond_distance
_geom_bond_site_symmetry_2
_geom_bond_publ_flag
C1 C24 1.385(10) . ?
C1 C26 1.406(10) . ?
C1 C39 1.473(9) . ?
C2 O1 1.231(8) . ?
C2 O4 1.264(8) . ?
C2 C4 1.501(9) . ?
C3 C29 1.375(10) . ?
C3 C38 1.430(10) . ?
C3 C17 1.486(9) . ?
C4 C31 1.371(10) . ?
C4 C21 1.387(9) . ?
C5 O5 1.241(8) . ?
C5 O8 1.243(8) . ?
C5 C8 1.526(9) . ?
C6 C26 1.381(10) . ?
C6 C12 1.386(10) . ?
C6 H6A 0.9300 . ?
C7 C37 1.374(10) . ?
C7 C25 1.395(10) . ?
C7 C15 1.493(9) . ?
C8 C22 1.358(10) . ?
C8 C32 1.393(10) . ?
C12 C20 1.427(10) . ?
C12 C14 1.480(9) . ?
C14 O12 1.231(9) . ?
C14 O9 1.265(8) . ?
C15 O3 1.234(8) . ?
C15 O7 1.269(8) . ?
C17 O6 1.246(8) . ?
C17 O2 1.264(8) . ?
C20 C24 1.364(10) . ?
C20 H20A 0.9300 . ?
C21 C29 1.388(10) . ?
C21 H21A 0.9300 . ?
C22 C25 1.417(10) . ?
C22 H22A 0.9300 . ?
C23 N1 1.280(10) . ?
C23 C49 1.367(13) . ?
C23 H23A 0.9300 . ?
C24 H24A 0.9300 . ?
C25 H25A 0.9300 . ?
C26 H26A 0.9300 . ?
C29 H29A 0.9300 . ?
C31 C38 1.352(10) . ?
C31 H31A 0.9300 . ?
C32 C37 1.388(11) . ?
C32 H32A 0.9300 . ?
C34 C43 1.344(14) . ?
C34 C35 1.388(13) . ?
C34 H34A 0.9300 . ?
C35 N1 1.326(11) . ?
C35 H35A 0.9300 . ?
C37 H37A 0.9300 . ?
C38 H38A 0.9300 . ?
C39 O11 1.242(8) . ?
C39 O10 1.272(8) . ?
C43 C49 1.327(13) . ?
C43 C45 1.498(11) . ?
C45 O14 1.208(13) . ?
C45 O13 1.234(13) . ?
C49 H49A 0.9300 . ?
C51 O16 1.181(15) . ?
C51 O15 1.229(17) . ?
C51 H51A 0.9300 . ?
Co1 O13 1.970(6) . ?
Co1 O7 1.970(5) . ?
Co1 O4 1.988(5) . ?
Co1 O9 2.063(5) . ?
Co1 O12 2.370(6) . ?
Co2 O8 2.019(5) 1_655 ?
Co2 O2 2.023(5) . ?
Co2 N1 2.106(5) 3_676 ?
Co2 O10 2.113(4) 2_665 ?
Co2 O16 2.174(6) . ?
Co2 O11 2.281(6) 2_665 ?
Co3 O5 2.046(4) 2_545 ?
Co3 O6 2.052(5) 2_645 ?
Co3 O1 2.058(4) . ?
Co3 O3 2.072(5) . ?
Co3 O10 2.118(4) 1_565 ?
Co3 O9 2.185(5) . ?
N1 Co2 2.106(5) 3_676 ?
N4 O2W 0.88(5) . ?
O5 Co3 2.046(4) 2 ?
O6 Co3 2.052(5) 2_655 ?
O8 Co2 2.019(5) 1_455 ?
O10 Co2 2.113(4) 2_635 ?
O10 Co3 2.118(4) 1_545 ?
O11 Co2 2.281(6) 2_635 ?

loop_
_geom_angle_atom_site_label_1
_geom_angle_atom_site_label_2
_geom_angle_atom_site_label_3
_geom_angle
_geom_angle_site_symmetry_1
_geom_angle_site_symmetry_3
_geom_angle_publ_flag
C24 C1 C26 118.7(6) . . ?
C24 C1 C39 120.3(6) . . ?
C26 C1 C39 121.1(6) . . ?
O1 C2 O4 125.6(6) . . ?
O1 C2 C4 117.8(6) . . ?
O4 C2 C4 116.5(6) . . ?
C29 C3 C38 117.7(6) . . ?
C29 C3 C17 121.3(6) . . ?
C38 C3 C17 121.1(6) . . ?
C31 C4 C21 118.4(6) . . ?
C31 C4 C2 122.5(6) . . ?
C21 C4 C2 119.1(6) . . ?
O5 C