####################################################################### 
# 
# This file contains crystal structure data downloaded from the 
# Cambridge Structural Database (CSD) hosted by the Cambridge 
# Crystallographic Data Centre (CCDC).
# 
# Full information about CCDC data access policies and citation 
# guidelines are available at http://www.ccdc.cam.ac.uk/access/V1 
# 
# Audit and citation data items may have been added by the CCDC. 
# Please retain this information to preserve the provenance of 
# this file and to allow appropriate attribution of the data. 
# 
#######################################################################

data_xin1
_audit_block_doi                 10.5517/cc10ydfs
_database_code_depnum_ccdc_archive 'CCDC 951775'
loop_
_citation_id
_citation_doi
_citation_year
1 10.1007/s11426-013-4985-7 2014
_audit_update_record             
;
2013-07-23 deposited with the CCDC.	2024-07-12 downloaded from the CCDC.
;

_audit_creation_method           SHELXL-97
_chemical_name_systematic        
; 
 ? 
;
_chemical_name_common            ?
_chemical_melting_point          ?
_chemical_formula_moiety         ?
_chemical_formula_sum            'C12 H18 Cl2 Co N4 O2 S2'
_chemical_formula_weight         444.25

loop_
_atom_type_symbol
_atom_type_description
_atom_type_scat_dispersion_real
_atom_type_scat_dispersion_imag
_atom_type_scat_source
C C 0.0033 0.0016 'International Tables Vol C Tables 4.2.6.8 and 6.1.1.4'
N N 0.0061 0.0033 'International Tables Vol C Tables 4.2.6.8 and 6.1.1.4'
O O 0.0106 0.0060 'International Tables Vol C Tables 4.2.6.8 and 6.1.1.4'
Cl Cl 0.1484 0.1585 'International Tables Vol C Tables 4.2.6.8 and 6.1.1.4'
Co Co 0.3494 0.9721 'International Tables Vol C Tables 4.2.6.8 and 6.1.1.4'
S S 0.1246 0.1234 'International Tables Vol C Tables 4.2.6.8 and 6.1.1.4'
H H 0.0000 0.0000 'International Tables Vol C Tables 4.2.6.8 and 6.1.1.4'

_symmetry_cell_setting           Triclinic
_symmetry_space_group_name_H-M   P-1

loop_
_symmetry_equiv_pos_as_xyz
'x, y, z'
'-x, -y, -z'

_cell_length_a                   9.579(4)
_cell_length_b                   10.158(5)
_cell_length_c                   11.299(5)
_cell_angle_alpha                86.121(7)
_cell_angle_beta                 66.034(6)
_cell_angle_gamma                71.671(7)
_cell_volume                     951.3(8)
_cell_formula_units_Z            2
_cell_measurement_temperature    296(2)
_cell_measurement_reflns_used    ?
_cell_measurement_theta_min      ?
_cell_measurement_theta_max      ?

_exptl_crystal_description       ?
_exptl_crystal_colour            ?
_exptl_crystal_size_max          ?
_exptl_crystal_size_mid          ?
_exptl_crystal_size_min          ?
_exptl_crystal_density_meas      ?
_exptl_crystal_density_diffrn    1.551
_exptl_crystal_density_method    'not measured'
_exptl_crystal_F_000             454
_exptl_absorpt_coefficient_mu    1.413
_exptl_absorpt_correction_type   none
_exptl_absorpt_correction_T_min  ?
_exptl_absorpt_correction_T_max  ?
_exptl_absorpt_process_details   ?

_exptl_special_details           
; 
 ? 
;

_diffrn_ambient_temperature      296(2)
_diffrn_radiation_wavelength     0.71073
_diffrn_radiation_type           MoK\a
_diffrn_radiation_source         'fine-focus sealed tube'
_diffrn_radiation_monochromator  graphite
_diffrn_measurement_device_type  'Bruker P4'
_diffrn_measurement_method       '\w scans'
_diffrn_detector_area_resol_mean ?
_diffrn_standards_number         ?
_diffrn_standards_interval_count ?
_diffrn_standards_interval_time  ?
_diffrn_standards_decay_%        ?
_diffrn_reflns_number            4555
_diffrn_reflns_av_R_equivalents  0.0582
_diffrn_reflns_av_sigmaI/netI    0.1947
_diffrn_reflns_limit_h_min       -11
_diffrn_reflns_limit_h_max       11
_diffrn_reflns_limit_k_min       -8
_diffrn_reflns_limit_k_max       12
_diffrn_reflns_limit_l_min       -13
_diffrn_reflns_limit_l_max       10
_diffrn_reflns_theta_min         1.98
_diffrn_reflns_theta_max         25.35
_reflns_number_total             3389
_reflns_number_gt                1178
_reflns_threshold_expression     >2sigma(I)

_computing_data_collection       'Bruker XSCANS'
_computing_cell_refinement       'Bruker XSCANS'
_computing_data_reduction        'Bruker SHELXTL'
_computing_structure_solution    'SHELXS-97 (Sheldrick, 1990)'
_computing_structure_refinement  'SHELXL-97 (Sheldrick, 1997)'
_computing_molecular_graphics    'Bruker SHELXTL'
_computing_publication_material  'Bruker SHELXTL'

_refine_special_details          
; 
 Refinement of F^2^ against ALL reflections.  The weighted R-factor wR and 
 goodness of fit S are based on F^2^, conventional R-factors R are based 
 on F, with F set to zero for negative F^2^. The threshold expression of 
 F^2^ > 2sigma(F^2^) is used only for calculating R-factors(gt) etc. and is 
 not relevant to the choice of reflections for refinement.  R-factors based 
 on F^2^ are statistically about twice as large as those based on F, and R- 
 factors based on ALL data will be even larger. 
;

_refine_ls_structure_factor_coef Fsqd
_refine_ls_matrix_type           full
_refine_ls_weighting_scheme      calc
_refine_ls_weighting_details     
'calc w=1/[\s^2^(Fo^2^)+(0.1311P)^2^+0.0000P] where P=(Fo^2^+2Fc^2^)/3'
_atom_sites_solution_primary     direct
_atom_sites_solution_secondary   difmap
_atom_sites_solution_hydrogens   geom
_refine_ls_hydrogen_treatment    mixed
_refine_ls_extinction_method     none
_refine_ls_extinction_coef       ?
_refine_ls_number_reflns         3389
_refine_ls_number_parameters     208
_refine_ls_number_restraints     0
_refine_ls_R_factor_all          0.1731
_refine_ls_R_factor_gt           0.0782
_refine_ls_wR_factor_ref         0.2499
_refine_ls_wR_factor_gt          0.1943
_refine_ls_goodness_of_fit_ref   0.808
_refine_ls_restrained_S_all      0.808
_refine_ls_shift/su_max          0.107
_refine_ls_shift/su_mean         0.016

loop_
_atom_site_label
_atom_site_type_symbol
_atom_site_fract_x
_atom_site_fract_y
_atom_site_fract_z
_atom_site_U_iso_or_equiv
_atom_site_adp_type
_atom_site_occupancy
_atom_site_symmetry_multiplicity
_atom_site_calc_flag
_atom_site_refinement_flags
_atom_site_disorder_assembly
_atom_site_disorder_group
C1 C 0.0867(11) 0.7756(10) 0.5298(9) 0.063(3) Uani 1 1 d . . .
H1A H 0.1128 0.8539 0.5394 0.076 Uiso 1 1 calc R . .
C2 C 0.0419(10) 0.6172(9) 0.4473(9) 0.050(2) Uani 1 1 d . . .
C3 C 0.0126(10) 0.5899(11) 0.5783(9) 0.060(3) Uani 1 1 d . . .
C4 C -0.0271(10) 0.4704(10) 0.6323(9) 0.058(2) Uani 1 1 d . . .
H4A H -0.0427 0.4514 0.7176 0.087 Uiso 1 1 calc R . .
C5 C 0.2079(13) 0.7595(12) -0.0089(12) 0.084(3) Uani 1 1 d . . .
H5A H 0.1237 0.8347 -0.0117 0.101 Uiso 1 1 calc R . .
C6 C 0.4216(12) 0.5752(11) -0.0712(10) 0.067(3) Uani 1 1 d . . .
C7 C 0.3635(11) 0.6140(10) 0.0634(10) 0.061(3) Uani 1 1 d . . .
C8 C 0.4457(11) 0.5371(9) 0.1360(9) 0.056(2) Uani 1 1 d . . .
H8A H 0.4125 0.5606 0.2235 0.084 Uiso 1 1 calc R . .
C9 C 0.800(2) 0.656(2) 1.1147(16) 0.220(10) Uani 1 1 d . . .
H9A H 0.8513 0.5569 1.1028 0.330 Uiso 1 1 calc R . .
H9B H 0.6909 0.6760 1.1784 0.330 Uiso 1 1 calc R . .
H9C H 0.8572 0.6988 1.1438 0.330 Uiso 1 1 calc R . .
C10 C 0.692(3) 0.883(3) 1.028(3) 0.43(3) Uani 1 1 d . . .
H10A H 0.6812 0.9323 0.9551 0.649 Uiso 1 1 calc R . .
H10B H 0.7468 0.9234 1.0629 0.649 Uiso 1 1 calc R . .
H10C H 0.5872 0.8895 1.0936 0.649 Uiso 1 1 calc R . .
C11 C 0.4042(19) 0.2074(15) 0.3901(17) 0.172(7) Uani 1 1 d . . .
H11A H 0.3681 0.2419 0.3228 0.258 Uiso 1 1 calc R . .
H11B H 0.3269 0.1703 0.4545 0.258 Uiso 1 1 calc R . .
H11C H 0.5061 0.1356 0.3534 0.258 Uiso 1 1 calc R . .
C12 C 0.5684(12) 0.3705(11) 0.3699(8) 0.077(3) Uani 1 1 d . . .
H12A H 0.5836 0.4440 0.4075 0.115 Uiso 1 1 calc R . .
H12B H 0.5562 0.3987 0.2909 0.115 Uiso 1 1 calc R . .
H12C H 0.6601 0.2888 0.3514 0.115 Uiso 1 1 calc R . .
Cl1 Cl 0.2733(4) 0.9626(3) 0.2786(3) 0.0943(10) Uani 1 1 d . . .
Cl2 Cl -0.1185(4) 0.9754(3) 0.2605(3) 0.1025(11) Uani 1 1 d . . .
Co1 Co 0.11650(15) 0.84797(13) 0.26509(12) 0.0619(5) Uani 1 1 d . . .
N1 N 0.2322(9) 0.7279(8) 0.0968(7) 0.060(2) Uani 1 1 d . . .
N2 N 0.3166(9) 0.6727(8) -0.1134(8) 0.069(2) Uani 1 1 d . . .
H2B H 0.3199 0.6769 -0.1908 0.082 Uiso 1 1 calc R . .
N3 N 0.0881(8) 0.7341(7) 0.4209(7) 0.054(2) Uani 1 1 d . . .
N4 N 0.0434(9) 0.6922(8) 0.6237(8) 0.062(2) Uani 1 1 d . . .
H4D H 0.0361 0.7019 0.7013 0.075 Uiso 1 1 calc R . .
O1 O 0.9649(9) 0.6974(9) 0.8854(7) 0.110(3) Uani 1 1 d . . .
O2 O 0.489(3) 0.250(3) 0.558(3) 0.419(17) Uani 1 1 d . . .
S1 S 0.7989(6) 0.7148(7) 0.9800(5) 0.190(3) Uani 1 1 d . . .
S2 S 0.4247(4) 0.3404(4) 0.4605(4) 0.1217(14) Uani 1 1 d . . .

loop_
_atom_site_aniso_label
_atom_site_aniso_U_11
_atom_site_aniso_U_22
_atom_site_aniso_U_33
_atom_site_aniso_U_23
_atom_site_aniso_U_13
_atom_site_aniso_U_12
C1 0.078(7) 0.057(6) 0.047(6) -0.011(5) -0.012(5) -0.027(6)
C2 0.049(5) 0.047(6) 0.048(6) -0.005(5) -0.014(5) -0.013(5)
C3 0.054(6) 0.083(8) 0.047(6) 0.003(5) -0.018(5) -0.029(6)
C4 0.061(6) 0.076(7) 0.040(5) -0.001(5) -0.017(5) -0.027(5)
C5 0.066(7) 0.105(9) 0.071(8) -0.005(7) -0.021(7) -0.021(7)
C6 0.060(7) 0.076(8) 0.063(7) 0.002(6) -0.016(6) -0.029(6)
C7 0.041(6) 0.079(7) 0.055(7) 0.000(6) -0.009(5) -0.020(6)
C8 0.063(6) 0.058(6) 0.036(5) -0.016(4) -0.018(5) -0.004(5)
C9 0.28(3) 0.29(3) 0.098(14) -0.014(15) -0.051(15) -0.13(2)
C10 0.30(3) 0.31(3) 0.29(3) 0.21(3) 0.06(2) 0.16(3)
C11 0.149(15) 0.145(14) 0.22(2) -0.039(13) -0.061(14) -0.052(12)
C12 0.076(7) 0.128(9) 0.027(5) -0.010(5) -0.006(5) -0.050(7)
Cl1 0.116(2) 0.105(2) 0.084(2) 0.0197(16) -0.0381(18) -0.069(2)
Cl2 0.079(2) 0.105(2) 0.099(2) -0.0196(18) -0.0358(18) 0.0081(18)
Co1 0.0573(9) 0.0585(9) 0.0555(9) -0.0040(6) -0.0097(6) -0.0157(7)
N1 0.057(5) 0.066(5) 0.044(5) -0.011(4) -0.016(4) -0.005(4)
N2 0.054(5) 0.066(5) 0.057(5) -0.011(4) -0.021(4) 0.021(4)
N3 0.064(5) 0.049(5) 0.044(5) -0.011(4) -0.018(4) -0.014(4)
N4 0.069(5) 0.063(5) 0.057(5) -0.004(4) -0.022(4) -0.026(5)
O1 0.080(5) 0.170(8) 0.066(5) 0.005(5) -0.014(4) -0.039(6)
O2 0.41(3) 0.56(4) 0.51(4) 0.34(3) -0.37(3) -0.28(3)
S1 0.131(4) 0.322(8) 0.098(4) 0.043(4) -0.035(3) -0.066(5)
S2 0.090(3) 0.130(3) 0.125(3) -0.017(3) -0.047(2) 0.000(2)

_geom_special_details            
; 
 All esds (except the esd in the dihedral angle between two l.s. planes) 
 are estimated using the full covariance matrix.  The cell esds are taken 
 into account individually in the estimation of esds in distances, angles 
 and torsion angles; correlations between esds in cell parameters are only 
 used when they are defined by crystal symmetry.  An approximate (isotropic) 
 treatment of cell esds is used for estimating esds involving l.s. planes. 
;

loop_
_geom_bond_atom_site_label_1
_geom_bond_atom_site_label_2
_geom_bond_distance
_geom_bond_site_symmetry_2
_geom_bond_publ_flag
C1 N3 1.321(10) . ?
C1 N4 1.326(11) . ?
C2 N3 1.368(10) . ?
C2 C4 1.382(11) 2_566 ?
C2 C3 1.416(12) . ?
C3 N4 1.348(11) . ?
C3 C4 1.412(12) . ?
C4 C2 1.382(11) 2_566 ?
C5 N1 1.308(12) . ?
C5 N2 1.350(12) . ?
C6 C8 1.378(12) 2_665 ?
C6 N2 1.386(12) . ?
C6 C7 1.425(12) . ?
C7 N1 1.350(11) . ?
C7 C8 1.397(12) . ?
C8 C6 1.378(12) 2_665 ?
C9 S1 1.600(18) . ?
C10 S1 1.68(3) . ?
C11 S2 1.713(12) . ?
C12 S2 1.454(9) . ?
Cl1 Co1 2.224(3) . ?
Cl2 Co1 2.236(3) . ?
Co1 N3 2.011(7) . ?
Co1 N1 2.020(7) . ?
O1 S1 1.473(8) . ?
O2 S2 1.582(18) . ?

loop_
_geom_angle_atom_site_label_1
_geom_angle_atom_site_label_2
_geom_angle_atom_site_label_3
_geom_angle
_geom_angle_site_symmetry_1
_geom_angle_site_symmetry_3
_geom_angle_publ_flag
N3 C1 N4 111.8(8) . . ?
N3 C2 C4 130.5(9) . 2_566 ?
N3 C2 C3 108.4(8) . . ?
C4 C2 C3 121.1(8) 2_566 . ?
N4 C3 C4 133.3(9) . . ?
N4 C3 C2 104.7(9) . . ?
C4 C3 C2 121.8(9) . . ?
C2 C4 C3 117.1(9) 2_566 . ?
N1 C5 N2 113.6(10) . . ?
C8 C6 N2 131.4(10) 2_665 . ?
C8 C6 C7 124.0(10) 2_665 . ?
N2 C6 C7 104.6(9) . . ?
N1 C7 C8 131.2(9) . . ?
N1 C7 C6 109.4(9) . . ?
C8 C7 C6 119.4(9) . . ?
C6 C8 C7 116.6(9) 2_665 . ?
N3 Co1 N1 112.1(3) . . ?
N3 Co1 Cl1 102.2(2) . . ?
N1 Co1 Cl1 109.1(2) . . ?
N3 Co1 Cl2 112.4(2) . . ?
N1 Co1 Cl2 104.2(3) . . ?
Cl1 Co1 Cl2 116.99(14) . . ?
C5 N1 C7 106.1(8) . . ?
C5 N1 Co1 125.2(8) . . ?
C7 N1 Co1 127.9(7) . . ?
C5 N2 C6 106.2(9) . . ?
C1 N3 C2 105.9(7) . . ?
C1 N3 Co1 123.3(6) . . ?
C2 N3 Co1 130.0(6) . . ?
C1 N4 C3 109.1(8) . . ?
O1 S1 C9 110.0(9) . . ?
O1 S1 C10 112.1(12) . . ?
C9 S1 C10 100.4(12) . . ?
C12 S2 O2 101.4(10) . . ?
C12 S2 C11 107.7(7) . . ?
O2 S2 C11 96.5(11) . . ?

_diffrn_measured_fraction_theta_max 0.970
_diffrn_reflns_theta_full        25.35
_diffrn_measured_fraction_theta_full 0.970
_refine_diff_density_max         0.911
_refine_diff_density_min         -0.566
_refine_diff_density_rms         0.128
