####################################################################### 
# 
# This file contains crystal structure data downloaded from the 
# Cambridge Structural Database (CSD) hosted by the Cambridge 
# Crystallographic Data Centre (CCDC).
# 
# Full information about CCDC data access policies and citation 
# guidelines are available at http://www.ccdc.cam.ac.uk/access/V1 
# 
# Audit and citation data items may have been added by the CCDC. 
# Please retain this information to preserve the provenance of 
# this file and to allow appropriate attribution of the data. 
# 
#######################################################################

data_3-298K
_audit_block_doi                 10.5517/cc1379qc
_database_code_depnum_ccdc_archive 'CCDC 1019922'
loop_
_citation_id
_citation_doi
_citation_year
1 10.1007/s11426-013-5048-9 2014
_audit_update_record             
;
2014-08-19 deposited with the CCDC.	2024-07-12 downloaded from the CCDC.
;

_audit_creation_method           SHELXL-97
_chemical_name_systematic        
; 
 ? 
;
_chemical_name_common            ?
_chemical_melting_point          ?
_chemical_formula_moiety         ?
_chemical_formula_sum            'C31.50 H33.50 Mn N4.50 O6.50'
_chemical_formula_weight         634.07

loop_
_atom_type_symbol
_atom_type_description
_atom_type_scat_dispersion_real
_atom_type_scat_dispersion_imag
_atom_type_scat_source
C C 0.0181 0.0091 'International Tables Vol C Tables 4.2.6.8 and 6.1.1.4'
H H 0.0000 0.0000 'International Tables Vol C Tables 4.2.6.8 and 6.1.1.4'
N N 0.0311 0.0180 'International Tables Vol C Tables 4.2.6.8 and 6.1.1.4'
O O 0.0492 0.0322 'International Tables Vol C Tables 4.2.6.8 and 6.1.1.4'
Mn Mn -0.5299 2.8052 'International Tables Vol C Tables 4.2.6.8 and 6.1.1.4'

_symmetry_cell_setting           Monoclinic
_symmetry_space_group_name_H-M   P2(1)/c

loop_
_symmetry_equiv_pos_as_xyz
'x, y, z'
'-x, y+1/2, -z+1/2'
'-x, -y, -z'
'x, -y-1/2, z-1/2'

_cell_length_a                   9.8457(5)
_cell_length_b                   19.4937(10)
_cell_length_c                   16.7455(9)
_cell_angle_alpha                90.00
_cell_angle_beta                 94.348(4)
_cell_angle_gamma                90.00
_cell_volume                     3204.7(3)
_cell_formula_units_Z            4
_cell_measurement_temperature    298(2)
_cell_measurement_reflns_used    ?
_cell_measurement_theta_min      ?
_cell_measurement_theta_max      ?

_exptl_crystal_description       block
_exptl_crystal_colour            colourless
_exptl_crystal_size_max          0.22
_exptl_crystal_size_mid          0.18
_exptl_crystal_size_min          0.18
_exptl_crystal_density_meas      ?
_exptl_crystal_density_diffrn    1.314
_exptl_crystal_density_method    'not measured'
_exptl_crystal_F_000             1324
_exptl_absorpt_coefficient_mu    3.770
_exptl_absorpt_correction_type   multi-scan
_exptl_absorpt_correction_T_min  0.4909
_exptl_absorpt_correction_T_max  0.5501
_exptl_absorpt_process_details   ?

_exptl_special_details           
; 
 ? 
;

_diffrn_ambient_temperature      298(2)
_diffrn_radiation_wavelength     1.54178
_diffrn_radiation_type           CuK\a
_diffrn_radiation_source         'Enhance Ultra (Cu) X-ray Source'
_diffrn_radiation_monochromator  mirror
_diffrn_measurement_device_type  'Xcalibur, Sapphire3, Gemini ultra'
_diffrn_measurement_method       '\w scans'
_diffrn_detector_area_resol_mean ?
_diffrn_standards_number         ?
_diffrn_standards_interval_count ?
_diffrn_standards_interval_time  ?
_diffrn_standards_decay_%        ?
_diffrn_reflns_number            11032
_diffrn_reflns_av_R_equivalents  0.0418
_diffrn_reflns_av_sigmaI/netI    0.0493
_diffrn_reflns_limit_h_min       -10
_diffrn_reflns_limit_h_max       8
_diffrn_reflns_limit_k_min       -21
_diffrn_reflns_limit_k_max       15
_diffrn_reflns_limit_l_min       -18
_diffrn_reflns_limit_l_max       18
_diffrn_reflns_theta_min         3.49
_diffrn_reflns_theta_max         60.00
_reflns_number_total             4722
_reflns_number_gt                3599
_reflns_threshold_expression     >2sigma(I)

_computing_data_collection       ?
_computing_cell_refinement       ?
_computing_data_reduction        ?
_computing_structure_solution    'SHELXS-97 (Sheldrick, 1990)'
_computing_structure_refinement  'SHELXL-97 (Sheldrick, 1997)'
_computing_molecular_graphics    ?
_computing_publication_material  ?

_refine_special_details          
; 
 Refinement of F^2^ against ALL reflections.  The weighted R-factor wR and 
 goodness of fit S are based on F^2^, conventional R-factors R are based 
 on F, with F set to zero for negative F^2^. The threshold expression of 
 F^2^ > 2sigma(F^2^) is used only for calculating R-factors(gt) etc. and is 
 not relevant to the choice of reflections for refinement.  R-factors based 
 on F^2^ are statistically about twice as large as those based on F, and R- 
 factors based on ALL data will be even larger. 
;

_refine_ls_structure_factor_coef Fsqd
_refine_ls_matrix_type           full
_refine_ls_weighting_scheme      calc
_refine_ls_weighting_details     
'calc w=1/[\s^2^(Fo^2^)+(0.0724P)^2^+8.5751P] where P=(Fo^2^+2Fc^2^)/3'
_atom_sites_solution_primary     direct
_atom_sites_solution_secondary   difmap
_atom_sites_solution_hydrogens   geom
_refine_ls_hydrogen_treatment    constr
_refine_ls_extinction_method     none
_refine_ls_extinction_coef       ?
_refine_ls_number_reflns         4722
_refine_ls_number_parameters     363
_refine_ls_number_restraints     54
_refine_ls_R_factor_all          0.0852
_refine_ls_R_factor_gt           0.0695
_refine_ls_wR_factor_ref         0.1951
_refine_ls_wR_factor_gt          0.1826
_refine_ls_goodness_of_fit_ref   1.057
_refine_ls_restrained_S_all      1.100
_refine_ls_shift/su_max          0.000
_refine_ls_shift/su_mean         0.000

loop_
_atom_site_label
_atom_site_type_symbol
_atom_site_fract_x
_atom_site_fract_y
_atom_site_fract_z
_atom_site_U_iso_or_equiv
_atom_site_adp_type
_atom_site_occupancy
_atom_site_symmetry_multiplicity
_atom_site_calc_flag
_atom_site_refinement_flags
_atom_site_disorder_assembly
_atom_site_disorder_group
Mn1 Mn 0.5000 0.0000 0.5000 0.0237(3) Uani 1 2 d S . .
Mn2 Mn 1.0000 0.5000 1.0000 0.0248(3) Uani 1 2 d S . .
N1 N 0.4450(4) 0.08905(18) 0.4142(2) 0.0345(9) Uani 1 1 d . . .
N2 N 0.9454(4) 0.41340(19) 0.9122(2) 0.0377(9) Uani 1 1 d . . .
O1 O 0.1441(3) 0.42745(16) 0.0582(2) 0.0409(8) Uani 1 1 d . . .
O2 O 0.3523(3) 0.47094(16) 0.08453(19) 0.0366(8) Uani 1 1 d . . .
O3 O 0.6354(3) 0.07037(16) 0.56497(19) 0.0385(8) Uani 1 1 d . . .
O4 O 0.8498(3) 0.03341(16) 0.58026(19) 0.0390(8) Uani 1 1 d . . .
C1 C 0.2621(5) 0.4267(2) 0.0913(2) 0.0289(10) Uani 1 1 d . . .
C2 C 0.2968(4) 0.3667(2) 0.1462(3) 0.0314(10) Uani 1 1 d . . .
C3 C 0.2556(5) 0.3010(2) 0.1264(3) 0.0435(12) Uani 1 1 d . . .
H3A H 0.2056 0.2932 0.0779 0.052 Uiso 1 1 calc R . .
C4 C 0.2869(5) 0.2464(2) 0.1770(3) 0.0432(12) Uani 1 1 d . . .
H4A H 0.2609 0.2023 0.1611 0.052 Uiso 1 1 calc R . .
C5 C 0.3563(5) 0.2562(2) 0.2511(3) 0.0346(11) Uani 1 1 d . . .
C6 C 0.3966(6) 0.3231(3) 0.2716(3) 0.0507(14) Uani 1 1 d . . .
H6A H 0.4419 0.3315 0.3214 0.061 Uiso 1 1 calc R . .
C7 C 0.3702(6) 0.3766(2) 0.2193(3) 0.0472(13) Uani 1 1 d . . .
H7A H 0.4022 0.4203 0.2331 0.057 Uiso 1 1 calc R . .
C8 C 0.4267(6) 0.0794(2) 0.3354(3) 0.0435(12) Uani 1 1 d . . .
H8A H 0.4333 0.0349 0.3159 0.052 Uiso 1 1 calc R . .
C9 C 0.3984(6) 0.1316(2) 0.2813(3) 0.0448(12) Uani 1 1 d . . .
H9A H 0.3874 0.1219 0.2269 0.054 Uiso 1 1 calc R . .
C10 C 0.3862(5) 0.1984(2) 0.3076(3) 0.0342(10) Uani 1 1 d . . .
C11 C 0.4038(5) 0.2084(2) 0.3898(3) 0.0431(12) Uani 1 1 d . . .
H11A H 0.3954 0.2521 0.4111 0.052 Uiso 1 1 calc R . .
C12 C 0.4338(5) 0.1532(2) 0.4398(3) 0.0411(12) Uani 1 1 d . . .
H12A H 0.4470 0.1614 0.4945 0.049 Uiso 1 1 calc R . .
C13 C 0.7562(5) 0.0746(2) 0.5921(2) 0.0298(10) Uani 1 1 d . . .
C14 C 0.7910(5) 0.1356(2) 0.6459(3) 0.0364(11) Uani 1 1 d . . .
C15 C 0.6923(5) 0.1817(3) 0.6637(4) 0.0595(17) Uani 1 1 d . . .
H15A H 0.6035 0.1758 0.6417 0.071 Uiso 1 1 calc R . .
C16 C 0.7232(6) 0.2367(3) 0.7142(4) 0.0669(19) Uani 1 1 d . . .
H16A H 0.6549 0.2675 0.7253 0.080 Uiso 1 1 calc R . .
C17 C 0.8535(5) 0.2466(3) 0.7483(3) 0.0485(14) Uani 1 1 d . . .
C18 C 0.9529(5) 0.2017(3) 0.7276(4) 0.0582(17) Uani 1 1 d . . .
H18A H 1.0422 0.2085 0.7482 0.070 Uiso 1 1 calc R . .
C19 C 0.9231(5) 0.1466(3) 0.6767(4) 0.0537(15) Uani 1 1 d . . .
H19A H 0.9922 0.1172 0.6634 0.064 Uiso 1 1 calc R . .
C20 C 0.8187(5) 0.3922(3) 0.8945(3) 0.0446(13) Uani 1 1 d . . .
H20A H 0.7485 0.4145 0.9181 0.054 Uiso 1 1 calc R . .
C21 C 0.7861(5) 0.3388(3) 0.8429(3) 0.0492(14) Uani 1 1 d . . .
H21A H 0.6957 0.3253 0.8337 0.059 Uiso 1 1 calc R . .
C22 C 0.8859(5) 0.3049(3) 0.8046(3) 0.0450(13) Uani 1 1 d . . .
C23 C 1.0174(6) 0.3274(3) 0.8236(4) 0.072(2) Uani 1 1 d . . .
H23A H 1.0894 0.3065 0.8002 0.086 Uiso 1 1 calc R . .
C24 C 1.0428(6) 0.3806(3) 0.8771(4) 0.0671(19) Uani 1 1 d . . .
H24A H 1.1327 0.3940 0.8891 0.081 Uiso 1 1 calc R . .
N3 N 0.898(2) 0.3351(13) 0.4485(14) 0.519(13) Uiso 1 1 d DU . .
O5 O 0.674(2) 0.3207(16) 0.4792(19) 0.606(17) Uiso 1 1 d DU . .
C25 C 0.760(3) 0.3472(13) 0.4414(15) 0.532(14) Uiso 1 1 d DU . .
H25A H 0.7290 0.3793 0.4032 0.639 Uiso 1 1 calc R . .
C26 C 0.936(2) 0.2845(13) 0.5092(16) 0.401(16) Uiso 1 1 d DU . .
H26A H 0.8554 0.2688 0.5328 0.602 Uiso 1 1 calc R . .
H26B H 0.9971 0.3047 0.5499 0.602 Uiso 1 1 calc R . .
H26C H 0.9793 0.2465 0.4854 0.602 Uiso 1 1 calc R . .
C27 C 1.008(4) 0.3763(16) 0.415(2) 0.64(2) Uiso 1 1 d DU . .
H27A H 0.9685 0.4059 0.3736 0.955 Uiso 1 1 calc R . .
H27B H 1.0723 0.3461 0.3930 0.955 Uiso 1 1 calc R . .
H27C H 1.0529 0.4035 0.4567 0.955 Uiso 1 1 calc R . .
N4 N 0.961(2) 0.4751(11) 0.6698(13) 0.268(9) Uiso 0.75 1 d PDU A 1
O6 O 1.168(2) 0.4406(15) 0.6317(18) 0.432(15) Uiso 0.75 1 d PDU A 1
C28 C 1.100(3) 0.4692(12) 0.6808(14) 0.311(11) Uiso 0.75 1 d PDU A 1
H28A H 1.1450 0.4875 0.7269 0.373 Uiso 0.75 1 calc PR A 1
C29 C 0.894(3) 0.4637(14) 0.5910(16) 0.373(17) Uiso 0.75 1 d PDU A 1
H29A H 0.9570 0.4426 0.5574 0.559 Uiso 0.75 1 calc PR A 1
H29B H 0.8642 0.5068 0.5682 0.559 Uiso 0.75 1 calc PR A 1
H29C H 0.8171 0.4341 0.5952 0.559 Uiso 0.75 1 calc PR A 1
C30 C 0.888(3) 0.5205(12) 0.7165(13) 0.267(12) Uiso 0.75 1 d PDU A 1
H30A H 0.9481 0.5398 0.7582 0.401 Uiso 0.75 1 calc PR A 1
H30B H 0.8162 0.4958 0.7399 0.401 Uiso 0.75 1 calc PR A 1
H30C H 0.8488 0.5565 0.6831 0.401 Uiso 0.75 1 calc PR A 1
N4' N 0.574(5) 0.503(3) 0.619(4) 0.31(2) Uiso 0.25 1 d PDU B 2
O6' O 0.788(6) 0.459(3) 0.658(4) 0.31(2) Uiso 0.25 1 d PDU B 2
C30' C 0.428(6) 0.509(5) 0.625(6) 0.30(2) Uiso 0.25 1 d PDU B 2
H30D H 0.3889 0.4647 0.6295 0.452 Uiso 0.25 1 calc PR B 2
H30E H 0.3883 0.5318 0.5778 0.452 Uiso 0.25 1 calc PR B 2
H30F H 0.4116 0.5362 0.6713 0.452 Uiso 0.25 1 calc PR B 2
C28' C 0.666(7) 0.460(3) 0.661(3) 0.31(2) Uiso 0.25 1 d PDU B 2
H28B H 0.6295 0.4284 0.6954 0.369 Uiso 0.25 1 calc PR B 2
C29' C 0.629(7) 0.552(4) 0.565(5) 0.31(2) Uiso 0.25 1 d PDU B 2
H29D H 0.7255 0.5458 0.5644 0.468 Uiso 0.25 1 calc PR B 2
H29E H 0.6115 0.5981 0.5836 0.468 Uiso 0.25 1 calc PR B 2
H29F H 0.5863 0.5463 0.5123 0.468 Uiso 0.25 1 calc PR B 2
N5 N 0.437(4) 0.429(2) 0.556(2) 0.430(19) Uiso 0.50 1 d PDU C 3
O7 O 0.286(4) 0.358(2) 0.483(2) 0.45(2) Uiso 0.50 1 d PDU C 3
C31 C 0.315(4) 0.412(2) 0.516(3) 0.431(19) Uiso 0.50 1 d PDU C 3
H31A H 0.2465 0.4450 0.5148 0.517 Uiso 0.50 1 calc PR C 3
C32 C 0.542(4) 0.378(3) 0.560(4) 0.45(2) Uiso 0.50 1 d PDU C 3
H32A H 0.5134 0.3396 0.5260 0.670 Uiso 0.50 1 calc PR C 3
H32B H 0.5592 0.3621 0.6138 0.670 Uiso 0.50 1 calc PR C 3
H32C H 0.6241 0.3968 0.5413 0.670 Uiso 0.50 1 calc PR C 3
C33 C 0.467(6) 0.494(3) 0.596(4) 0.42(3) Uiso 0.50 1 d PDU C 3
H33A H 0.3874 0.5220 0.5928 0.623 Uiso 0.50 1 calc PR C 3
H33B H 0.5393 0.5164 0.5713 0.623 Uiso 0.50 1 calc PR C 3
H33C H 0.4951 0.4849 0.6515 0.623 Uiso 0.50 1 calc PR C 3

loop_
_atom_site_aniso_label
_atom_site_aniso_U_11
_atom_site_aniso_U_22
_atom_site_aniso_U_33
_atom_site_aniso_U_23
_atom_site_aniso_U_13
_atom_site_aniso_U_12
Mn1 0.0291(6) 0.0156(5) 0.0252(5) 0.0000(4) -0.0046(4) -0.0001(4)
Mn2 0.0317(6) 0.0162(5) 0.0252(5) 0.0002(4) -0.0057(4) -0.0014(4)
N1 0.041(2) 0.027(2) 0.035(2) 0.0043(16) 0.0001(17) 0.0044(17)
N2 0.036(2) 0.034(2) 0.043(2) -0.0153(18) -0.0023(18) -0.0025(18)
O1 0.0355(19) 0.0362(18) 0.049(2) 0.0171(15) -0.0088(15) 0.0012(14)
O2 0.0419(19) 0.0305(17) 0.0375(18) 0.0076(14) 0.0025(14) -0.0017(15)
O3 0.0361(19) 0.0336(17) 0.0442(19) -0.0125(14) -0.0069(15) -0.0028(14)
O4 0.0429(19) 0.0330(17) 0.0407(19) -0.0130(14) 0.0011(15) 0.0032(15)
C1 0.034(3) 0.025(2) 0.028(2) 0.0043(18) 0.0021(19) 0.003(2)
C2 0.027(2) 0.030(2) 0.036(3) 0.0100(19) -0.0005(19) 0.0038(19)
C3 0.054(3) 0.033(3) 0.041(3) 0.010(2) -0.011(2) 0.000(2)
C4 0.054(3) 0.028(2) 0.046(3) 0.011(2) -0.010(2) -0.002(2)
C5 0.034(2) 0.029(2) 0.040(3) 0.012(2) -0.002(2) 0.0041(19)
C6 0.068(4) 0.037(3) 0.044(3) 0.009(2) -0.016(3) 0.000(3)
C7 0.064(3) 0.027(2) 0.048(3) 0.010(2) -0.016(3) -0.004(2)
C8 0.066(3) 0.025(2) 0.039(3) 0.003(2) -0.005(2) 0.005(2)
C9 0.063(3) 0.036(3) 0.034(3) 0.006(2) -0.006(2) 0.007(2)
C10 0.033(2) 0.029(2) 0.039(3) 0.010(2) -0.004(2) 0.0034(19)
C11 0.061(3) 0.026(2) 0.041(3) 0.003(2) -0.003(2) 0.007(2)
C12 0.060(3) 0.031(3) 0.032(2) 0.006(2) 0.000(2) 0.005(2)
C13 0.034(3) 0.028(2) 0.026(2) -0.0060(18) -0.0014(19) -0.003(2)
C14 0.035(3) 0.035(2) 0.039(3) -0.015(2) 0.003(2) -0.005(2)
C15 0.033(3) 0.062(4) 0.082(4) -0.041(3) -0.008(3) 0.001(3)
C16 0.035(3) 0.068(4) 0.096(5) -0.056(4) -0.009(3) 0.006(3)
C17 0.035(3) 0.050(3) 0.060(3) -0.032(3) 0.002(2) -0.003(2)
C18 0.030(3) 0.063(4) 0.080(4) -0.046(3) -0.005(3) -0.004(3)
C19 0.033(3) 0.058(3) 0.068(4) -0.037(3) -0.004(3) 0.005(2)
C20 0.037(3) 0.043(3) 0.053(3) -0.020(2) -0.001(2) 0.005(2)
C21 0.031(3) 0.048(3) 0.068(4) -0.031(3) -0.002(2) -0.003(2)
C22 0.035(3) 0.047(3) 0.053(3) -0.026(2) -0.002(2) -0.004(2)
C23 0.034(3) 0.078(4) 0.103(5) -0.067(4) 0.005(3) -0.005(3)
C24 0.032(3) 0.074(4) 0.094(5) -0.054(4) 0.001(3) -0.008(3)

_geom_special_details            
; 
 All esds (except the esd in the dihedral angle between two l.s. planes) 
 are estimated using the full covariance matrix.  The cell esds are taken 
 into account individually in the estimation of esds in distances, angles 
 and torsion angles; correlations between esds in cell parameters are only 
 used when they are defined by crystal symmetry.  An approximate (isotropic) 
 treatment of cell esds is used for estimating esds involving l.s. planes. 
;

loop_
_geom_bond_atom_site_label_1
_geom_bond_atom_site_label_2
_geom_bond_distance
_geom_bond_site_symmetry_2
_geom_bond_publ_flag
Mn1 O3 2.150(3) 3_656 ?
Mn1 O3 2.150(3) . ?
Mn1 O2 2.180(3) 4_566 ?
Mn1 O2 2.180(3) 2_645 ?
Mn1 N1 2.292(4) . ?
Mn1 N1 2.292(4) 3_656 ?
Mn2 O4 2.172(3) 4_566 ?
Mn2 O4 2.172(3) 2_756 ?
Mn2 O1 2.180(3) 3_666 ?
Mn2 O1 2.180(3) 1_656 ?
Mn2 N2 2.277(4) . ?
Mn2 N2 2.276(4) 3_767 ?
N1 C12 1.329(6) . ?
N1 C8 1.332(6) . ?
N2 C20 1.326(6) . ?
N2 C24 1.327(7) . ?
O1 C1 1.249(5) . ?
O1 Mn2 2.180(3) 1_454 ?
O2 C1 1.249(5) . ?
O2 Mn1 2.180(3) 2_655 ?
O3 C13 1.243(5) . ?
O4 C13 1.249(5) . ?
O4 Mn2 2.172(3) 2_746 ?
C1 C2 1.511(6) . ?
C2 C3 1.376(7) . ?
C2 C7 1.387(7) . ?
C3 C4 1.381(7) . ?
C4 C5 1.383(7) . ?
C5 C6 1.399(7) . ?
C5 C10 1.486(6) . ?
C6 C7 1.375(7) . ?
C8 C9 1.377(7) . ?
C9 C10 1.384(7) . ?
C10 C11 1.387(7) . ?
C11 C12 1.381(7) . ?
C13 C14 1.516(6) . ?
C14 C15 1.372(7) . ?
C14 C19 1.380(7) . ?
C15 C16 1.386(7) . ?
C16 C17 1.377(8) . ?
C17 C18 1.377(7) . ?
C17 C22 1.495(7) . ?
C18 C19 1.389(7) . ?
C20 C21 1.375(7) . ?
C21 C22 1.381(7) . ?
C22 C23 1.381(7) . ?
C23 C24 1.381(7) . ?
N3 C25 1.378(11) . ?
N3 C26 1.443(10) . ?
N3 C27 1.490(10) . ?
O5 C25 1.211(11) . ?
N4 C28 1.376(10) . ?
N4 C30 1.414(10) . ?
N4 C29 1.446(10) . ?
O6 C28 1.231(10) . ?
N4' C28' 1.382(11) . ?
N4' C30' 1.453(11) . ?
N4' C29' 1.454(11) . ?
O6' C28' 1.206(11) . ?
N5 C31 1.371(11) . ?
N5 C32 1.444(11) . ?
N5 C33 1.446(11) . ?
O7 C31 1.203(11) . ?

loop_
_geom_angle_atom_site_label_1
_geom_angle_atom_site_label_2
_geom_angle_atom_site_label_3
_geom_angle
_geom_angle_site_symmetry_1
_geom_angle_site_symmetry_3
_geom_angle_publ_flag
O3 Mn1 O3 180.00(19) 3_656 . ?
O3 Mn1 O2 94.36(12) 3_656 4_566 ?
O3 Mn1 O2 85.64(12) . 4_566 ?
O3 Mn1 O2 85.64(12) 3_656 2_645 ?
O3 Mn1 O2 94.36(12) . 2_645 ?
O2 Mn1 O2 180.000(1) 4_566 2_645 ?
O3 Mn1 N1 93.33(13) 3_656 . ?
O3 Mn1 N1 86.67(13) . . ?
O2 Mn1 N1 94.16(13) 4_566 . ?
O2 Mn1 N1 85.84(13) 2_645 . ?
O3 Mn1 N1 86.67(13) 3_656 3_656 ?
O3 Mn1 N1 93.33(13) . 3_656 ?
O2 Mn1 N1 85.84(13) 4_566 3_656 ?
O2 Mn1 N1 94.16(13) 2_645 3_656 ?
N1 Mn1 N1 180.0 . 3_656 ?
O4 Mn2 O4 180.000(1) 4_566 2_756 ?
O4 Mn2 O1 91.16(12) 4_566 3_666 ?
O4 Mn2 O1 88.84(12) 2_756 3_666 ?
O4 Mn2 O1 88.84(12) 4_566 1_656 ?
O4 Mn2 O1 91.16(12) 2_756 1_656 ?
O1 Mn2 O1 180.00(16) 3_666 1_656 ?
O4 Mn2 N2 92.23(14) 4_566 . ?
O4 Mn2 N2 87.77(13) 2_756 . ?
O1 Mn2 N2 94.51(14) 3_666 . ?
O1 Mn2 N2 85.49(14) 1_656 . ?
O4 Mn2 N2 87.77(13) 4_566 3_767 ?
O4 Mn2 N2 92.23(14) 2_756 3_767 ?
O1 Mn2 N2 85.49(14) 3_666 3_767 ?
O1 Mn2 N2 94.51(14) 1_656 3_767 ?
N2 Mn2 N2 180.000(1) . 3_767 ?
C12 N1 C8 116.4(4) . . ?
C12 N1 Mn1 122.2(3) . . ?
C8 N1 Mn1 121.4(3) . . ?
C20 N2 C24 116.7(4) . . ?
C20 N2 Mn2 123.2(3) . . ?
C24 N2 Mn2 120.0(3) . . ?
C1 O1 Mn2 139.3(3) . 1_454 ?
C1 O2 Mn1 138.8(3) . 2_655 ?
C13 O3 Mn1 140.0(3) . . ?
C13 O4 Mn2 146.7(3) . 2_746 ?
O2 C1 O1 126.5(4) . . ?
O2 C1 C2 117.5(4) . . ?
O1 C1 C2 116.0(4) . . ?
C3 C2 C7 117.9(4) . . ?
C3 C2 C1 121.7(4) . . ?
C7 C2 C1 120.4(4) . . ?
C2 C3 C4 121.4(5) . . ?
C3 C4 C5 121.1(5) 