####################################################################### 
# 
# This file contains crystal structure data downloaded from the 
# Cambridge Structural Database (CSD) hosted by the Cambridge 
# Crystallographic Data Centre (CCDC).
# 
# Full information about CCDC data access policies and citation 
# guidelines are available at http://www.ccdc.cam.ac.uk/access/V1 
# 
# Audit and citation data items may have been added by the CCDC. 
# Please retain this information to preserve the provenance of 
# this file and to allow appropriate attribution of the data. 
# 
#######################################################################

data_TIF-2-sq
_audit_block_doi                 10.5517/ccrjhxn
_database_code_depnum_ccdc_archive 'CCDC 701062'
loop_
_citation_id
_citation_doi
_citation_year
1 10.1021/cm802400f 2008
_audit_update_record             
;
2008-09-03 deposited with the CCDC.	2024-07-12 downloaded from the CCDC.
;

_audit_creation_method           SHELXL-97
_chemical_name_systematic        
;
TIF-2
;
_chemical_name_common            TIF-2
_chemical_melting_point          ?
_chemical_formula_moiety         'C10.46 H15 N4 Zn'
_chemical_formula_sum            'C10.46 H15 N4 Zn'
_chemical_formula_weight         262.13

loop_
_atom_type_symbol
_atom_type_description
_atom_type_scat_dispersion_real
_atom_type_scat_dispersion_imag
_atom_type_scat_source
C C 0.0033 0.0016 'International Tables Vol C Tables 4.2.6.8 and 6.1.1.4'
H H 0.0000 0.0000 'International Tables Vol C Tables 4.2.6.8 and 6.1.1.4'
N N 0.0061 0.0033 'International Tables Vol C Tables 4.2.6.8 and 6.1.1.4'
Zn Zn 0.2839 1.4301 'International Tables Vol C Tables 4.2.6.8 and 6.1.1.4'

_symmetry_cell_setting           Orthorhombic
_symmetry_space_group_name_H-M   Pnma

loop_
_symmetry_equiv_pos_as_xyz
'x, y, z'
'-x+1/2, -y, z+1/2'
'-x, y+1/2, -z'
'x+1/2, -y+1/2, -z+1/2'
'-x, -y, -z'
'x-1/2, y, -z-1/2'
'x, -y-1/2, z'
'-x-1/2, y-1/2, z-1/2'

_cell_length_a                   17.6356(5)
_cell_length_b                   48.0644(13)
_cell_length_c                   24.5539(7)
_cell_angle_alpha                90.00
_cell_angle_beta                 90.00
_cell_angle_gamma                90.00
_cell_volume                     20813.0(10)
_cell_formula_units_Z            48
_cell_measurement_temperature    150(2)
_cell_measurement_reflns_used    ?
_cell_measurement_theta_min      ?
_cell_measurement_theta_max      ?

_exptl_crystal_description       Block
_exptl_crystal_colour            colorless
_exptl_crystal_size_max          ?
_exptl_crystal_size_mid          ?
_exptl_crystal_size_min          ?
_exptl_crystal_density_meas      ?
_exptl_crystal_density_diffrn    1.004
_exptl_crystal_density_method    'not measured'
_exptl_crystal_F_000             6516
_exptl_absorpt_coefficient_mu    1.399
_exptl_absorpt_correction_type   multi-scan
_exptl_absorpt_correction_T_min  ?
_exptl_absorpt_correction_T_max  ?
_exptl_absorpt_process_details   'Blessing, Acta Cryst. (1995) A51 33-58'

_exptl_special_details           
;
?
;

_diffrn_ambient_temperature      150(2)
_diffrn_radiation_wavelength     0.71073
_diffrn_radiation_type           MoK\a
_diffrn_radiation_source         'fine-focus sealed tube'
_diffrn_radiation_monochromator  graphite
_diffrn_measurement_device_type  ?
_diffrn_measurement_method       ?
_diffrn_detector_area_resol_mean ?
_diffrn_standards_number         ?
_diffrn_standards_interval_count ?
_diffrn_standards_interval_time  ?
_diffrn_standards_decay_%        ?
_diffrn_reflns_number            115032
_diffrn_reflns_av_R_equivalents  0.1384
_diffrn_reflns_av_sigmaI/netI    0.0644
_diffrn_reflns_limit_h_min       -14
_diffrn_reflns_limit_h_max       14
_diffrn_reflns_limit_k_min       -38
_diffrn_reflns_limit_k_max       38
_diffrn_reflns_limit_l_min       -19
_diffrn_reflns_limit_l_max       19
_diffrn_reflns_theta_min         0.85
_diffrn_reflns_theta_max         16.50
_reflns_number_total             5668
_reflns_number_gt                3716
_reflns_threshold_expression     >2sigma(I)

_computing_data_collection       BrukerAPEX2
_computing_cell_refinement       BrukerAPEX2
_computing_data_reduction        BrukerSAINT
_computing_structure_solution    'SHELXS-97 (Sheldrick, 1990)'
_computing_structure_refinement  'SHELXL-97 (Sheldrick, 1997)'
_computing_molecular_graphics    OLEX
_computing_publication_material  wingx

_refine_special_details          
;
Refinement of F^2^ against ALL reflections. The weighted R-factor wR and
goodness of fit S are based on F^2^, conventional R-factors R are based
on F, with F set to zero for negative F^2^. The threshold expression of
F^2^ > 2sigma(F^2^) is used only for calculating R-factors(gt) etc. and is
not relevant to the choice of reflections for refinement. R-factors based
on F^2^ are statistically about twice as large as those based on F, and R-
factors based on ALL data will be even larger.

Too few reflections were availabe to refine the whole structure
anisotropically. Therefore, the organic component of the
framework has been refined isotropically.

Solvent in the large pores could not be resolved into definite chemical
structures due to the high degree of statistical and positional disorder.
;

_refine_ls_structure_factor_coef Fsqd
_refine_ls_matrix_type           full
_refine_ls_weighting_scheme      calc
_refine_ls_weighting_details     
'calc w=1/[\s^2^(Fo^2^)+(0.1429P)^2^+166.8835P] where P=(Fo^2^+2Fc^2^)/3'
_atom_sites_solution_primary     direct
_atom_sites_solution_secondary   difmap
_atom_sites_solution_hydrogens   geom
_refine_ls_hydrogen_treatment    mixed
_refine_ls_extinction_method     SHELXL
_refine_ls_extinction_coef       0.000007(13)
_refine_ls_extinction_expression Fc^*^=kFc[1+0.001xFc^2^\l^3^/sin(2\q)]^-1/4^
_refine_ls_number_reflns         5668
_refine_ls_number_parameters     606
_refine_ls_number_restraints     17
_refine_ls_R_factor_all          0.1371
_refine_ls_R_factor_gt           0.0929
_refine_ls_wR_factor_ref         0.2669
_refine_ls_wR_factor_gt          0.2441
_refine_ls_goodness_of_fit_ref   1.063
_refine_ls_restrained_S_all      1.061
_refine_ls_shift/su_max          1.966
_refine_ls_shift/su_mean         0.052

loop_
_atom_site_label
_atom_site_type_symbol
_atom_site_fract_x
_atom_site_fract_y
_atom_site_fract_z
_atom_site_U_iso_or_equiv
_atom_site_adp_type
_atom_site_occupancy
_atom_site_symmetry_multiplicity
_atom_site_calc_flag
_atom_site_refinement_flags
_atom_site_disorder_assembly
_atom_site_disorder_group
Zn1 Zn 0.56856(15) 0.68932(5) 0.80934(11) 0.0686(11) Uani 1 1 d . . .
Zn2 Zn 0.62690(14) 0.58091(5) 0.90994(10) 0.0621(10) Uani 1 1 d . . .
Zn3 Zn 0.56878(15) 0.47284(5) 0.80403(10) 0.0633(10) Uani 1 1 d . . .
Zn4 Zn 0.25607(15) 0.47553(5) 0.89436(10) 0.0670(10) Uani 1 1 d . . .
Zn5 Zn 0.31165(16) 0.58316(5) 1.00062(10) 0.0714(11) Uani 1 1 d . . .
Zn6 Zn 0.25142(15) 0.68918(5) 0.89431(11) 0.0653(10) Uani 1 1 d . . .
N11 N 0.6286(9) 0.6588(4) 0.8426(7) 0.063(6) Uani 1 1 d . . .
N12 N 0.6538(10) 0.6173(4) 0.8765(7) 0.058(5) Uani 1 1 d . . .
N21 N 0.6557(10) 0.5466(4) 0.8711(7) 0.061(6) Uani 1 1 d . . .
N22 N 0.6324(11) 0.5048(4) 0.8316(7) 0.066(6) Uani 1 1 d . . .
N31 N 0.4601(11) 0.4851(5) 0.8115(10) 0.072(7) Uani 1 1 d . . .
N32 N 0.3441(11) 0.4872(5) 0.8443(8) 0.068(6) Uani 1 1 d . . .
N41 N 0.2298(13) 0.5061(4) 0.9474(9) 0.083(9) Uani 1 1 d . . .
N42 N 0.2583(13) 0.5472(5) 0.9841(9) 0.080(7) Uani 1 1 d . . .
N51 N 0.2615(13) 0.6193(4) 0.9871(10) 0.080(7) Uani 1 1 d . . .
N52 N 0.2333(14) 0.6612(5) 0.9504(10) 0.102(11) Uani 1 1 d . . .
N61 N 0.3412(14) 0.6780(5) 0.8492(8) 0.074(6) Uani 1 1 d . . .
N62 N 0.4611(11) 0.6786(5) 0.8172(9) 0.064(6) Uani 1 1 d . . .
N71 N 0.5126(9) 0.5809(3) 0.9124(7) 0.054(5) Uani 1 1 d . . .
N72 N 0.3985(11) 0.5832(3) 0.9451(7) 0.068(6) Uani 1 1 d . . .
N81 N 0.5801(10) 0.7266(4) 0.8405(7) 0.079(6) Uani 1 1 d . . .
N91 N 0.5923(10) 0.4410(4) 0.8554(7) 0.075(6) Uani 1 1 d . . .
N92 N 0.6425(10) 0.4201(3) 0.9273(6) 0.068(6) Uani 1 1 d . . .
N101 N 0.5952(11) 0.4637(4) 0.7255(7) 0.088(7) Uani 1 1 d . . .
N102 N 0.6687(10) 0.4658(4) 0.6545(7) 0.073(6) Uani 1 1 d . . .
N111 N 0.2862(9) 0.4441(4) 0.9393(7) 0.069(6) Uani 1 1 d . . .
N112 N 0.3311(10) 0.4223(4) 1.0147(6) 0.070(6) Uani 1 1 d . . .
N121 N 0.6643(12) 0.6925(3) 0.6540(7) 0.077(6) Uani 1 1 d . . .
N131 N 0.2735(10) 0.7265(3) 0.9248(7) 0.069(6) Uani 1 1 d . . .
N141 N 0.5945(13) 0.6924(4) 0.7314(7) 0.085(6) Uani 1 1 d . . .
C1 C 0.3701(10) 0.1103(3) 0.3041(9) 0.116(10) Uiso 1 1 d G . .
C2 C 0.3767(10) 0.1055(4) 0.3597(8) 0.137(11) Uiso 1 1 d G . .
C3 C 0.3785(10) 0.0784(5) 0.3794(5) 0.114(9) Uiso 1 1 d G . .
C4 C 0.3737(9) 0.0561(3) 0.3435(9) 0.106(9) Uiso 1 1 d G . .
C5 C 0.3672(10) 0.0609(4) 0.2879(8) 0.119(10) Uiso 1 1 d G . .
C6 C 0.3654(10) 0.0880(5) 0.2682(6) 0.148(12) Uiso 1 1 d G . .
C11 C 0.5986(16) 0.6355(6) 0.8614(9) 0.073(8) Uani 1 1 d . . .
C12 C 0.7060(12) 0.6564(5) 0.8479(7) 0.090(8) Uiso 1 1 d G . .
C13 C 0.7649(19) 0.6754(3) 0.8424(9) 0.184(14) Uiso 1 1 d G . .
C14 C 0.8378(15) 0.6682(7) 0.8588(12) 0.27(2) Uiso 1 1 d G . .
C15 C 0.8517(11) 0.6420(8) 0.8806(11) 0.26(2) Uiso 1 1 d GD . .
C16 C 0.7928(18) 0.6230(5) 0.8861(8) 0.206(16) Uiso 1 1 d G . .
C17 C 0.7199(14) 0.6302(4) 0.8697(8) 0.083(8) Uiso 1 1 d G . .
C18 C 0.9324(17) 0.6374(9) 0.9106(16) 0.239(19) Uiso 1 1 d D . .
C21 C 0.6014(14) 0.5294(6) 0.8526(7) 0.052(7) Uani 1 1 d . . .
C22 C 0.7216(11) 0.5332(3) 0.8638(6) 0.048(6) Uiso 1 1 d G . .
C23 C 0.7955(13) 0.5392(4) 0.8797(7) 0.178(14) Uiso 1 1 d G . .
C24 C 0.8528(9) 0.5198(6) 0.8712(9) 0.191(15) Uiso 1 1 d GD . .
C25 C 0.8363(12) 0.4945(5) 0.8467(9) 0.171(13) Uiso 1 1 d G . .
C26 C 0.7624(15) 0.4885(3) 0.8308(7) 0.173(14) Uiso 1 1 d G . .
C27 C 0.7051(9) 0.5078(4) 0.8393(6) 0.049(6) Uiso 1 1 d G . .
C28 C 0.9377(16) 0.5237(10) 0.8956(18) 0.29(2) Uiso 1 1 d D . .
C31 C 0.4112(18) 0.4712(5) 0.8474(9) 0.053(7) Uani 1 1 d . . .
C32 C 0.413(3) 0.5058(4) 0.7899(12) 0.101(18) Uani 1 1 d G . .
C33 C 0.445(2) 0.5252(8) 0.7547(14) 0.05(2) Uani 0.33 1 d PG . .
C34 C 0.405(3) 0.5490(7) 0.7404(17) 0.14(4) Uiso 0.33 1 d PG . .
C35 C 0.332(3) 0.5534(8) 0.7613(19) 0.12(3) Uiso 0.33 1 d PGD . .
C36 C 0.3004(19) 0.5340(12) 0.7964(17) 0.07(3) Uani 0.33 1 d PG . .
C37 C 0.341(3) 0.5102(9) 0.8107(12) 0.01(2) Uani 0.33 1 d PG . .
C38 C 0.284(5) 0.5811(11) 0.749(3) 0.23(5) Uiso 0.33 1 d PD . .
C41 C 0.2763(13) 0.5278(6) 0.9446(8) 0.048(8) Uani 1 1 d . . .
C42 C 0.187(3) 0.5390(7) 1.024(3) 0.29(4) Uani 1 1 d . . .
C43 C 0.1789(19) 0.5139(11) 0.9911(12) 0.18(2) Uani 1 1 d . . .
C51 C 0.2775(19) 0.6395(8) 0.9498(11) 0.092(12) Uani 1 1 d . . .
C52 C 0.201(3) 0.6294(7) 1.019(2) 0.22(3) Uani 1 1 d . . .
C53 C 0.1852(18) 0.6532(11) 0.9972(14) 0.18(2) Uani 1 1 d . . .
C61 C 0.414(2) 0.6918(6) 0.8521(12) 0.089(10) Uani 1 1 d . . .
C62 C 0.4263(16) 0.6561(5) 0.7921(11) 0.084(10) Uani 1 1 d G . .
C63 C 0.4512(15) 0.6349(7) 0.7580(13) 0.06(3) Uani 0.33 1 d PG . .
C64 C 0.402(2) 0.6136(6) 0.7433(15) 0.17(6) Uani 0.33 1 d PGD . .
C65 C 0.3280(19) 0.6135(6) 0.7626(15) 0.054(19) Uiso 0.33 1 d PG . .
C66 C 0.3031(14) 0.6347(6) 0.7967(12) 0.032(18) Uani 0.33 1 d PG . .
C67 C 0.3522(17) 0.6560(5) 0.8114(8) 0.067(8) Uani 1 1 d G . .
C68 C 0.424(2) 0.5862(7) 0.7079(12) 0.15(2) Uani 0.67 1 d PD . .
C71 C 0.4747(15) 0.5820(4) 0.9586(10) 0.061(7) Uiso 1 1 d . . .
C72 C 0.4638(9) 0.5819(3) 0.8701(8) 0.040(6) Uiso 1 1 d G . .
C73 C 0.4760(15) 0.5817(6) 0.8142(9) 0.07(2) Uiso 0.33 1 d PG . .
C74 C 0.415(2) 0.5832(8) 0.7786(6) 0.06(2) Uiso 0.33 1 d PG . .
C75 C 0.3414(18) 0.5847(7) 0.7990(11) 0.08(2) Uiso 0.33 1 d PGD . .
C76 C 0.3292(9) 0.5849(5) 0.8549(12) 0.023(14) Uiso 0.33 1 d PG . .
C77 C 0.3904(10) 0.5835(3) 0.8905(7) 0.048(6) Uiso 1 1 d G . .
C81 C 0.5790(17) 0.7500 0.8075(13) 0.062(10) Uiso 1 2 d S . .
C82 C 0.5880(17) 0.7346(5) 0.8892(14) 0.119(11) Uiso 1 1 d . . .
C83 C 0.608(6) 0.7214(19) 0.948(4) 0.24(4) Uiso 0.50 1 d P . .
C84 C 0.540(8) 0.722(2) 0.928(5) 0.31(6) Uiso 0.50 1 d P . .
C91 C 0.6343(12) 0.4440(5) 0.8995(10) 0.048(6) Uiso 1 1 d . . .
C92 C 0.6036(15) 0.4012(9) 0.8989(13) 0.180(16) Uiso 1 1 d GD . .
C93 C 0.588(3) 0.3739(10) 0.9135(17) 0.22(4) Uiso 0.50 1 d PGD . .
C94 C 0.536(3) 0.3584(6) 0.883(3) 0.33(6) Uiso 0.50 1 d PGD . .
C95 C 0.500(2) 0.3703(11) 0.839(2) 0.40(7) Uiso 0.50 1 d PGD . .
C96 C 0.516(2) 0.3976(11) 0.8243(13) 0.16(2) Uiso 0.50 1 d PGD . .
C97 C 0.567(2) 0.4131(6) 0.8543(15) 0.158(13) Uiso 1 1 d GD . .
C98 C 0.436(4) 0.359(2) 0.799(3) 0.34(6) Uiso 0.50 1 d PD . .
C101 C 0.6557(14) 0.4751(4) 0.7062(10) 0.059(7) Uiso 1 1 d . . .
C102 C 0.548(3) 0.4465(10) 0.686(2) 0.24(2) Uiso 1 1 d . . .
C103 C 0.607(2) 0.4472(8) 0.6459(15) 0.180(15) Uiso 1 1 d . . .
C111 C 0.3064(13) 0.4468(5) 0.9914(11) 0.067(7) Uiso 1 1 d . . .
C112 C 0.3257(15) 0.4037(7) 0.9749(10) 0.121(11) Uiso 1 1 d GD . .
C113 C 0.3597(19) 0.3776(7) 0.9714(18) 0.18(3) Uiso 0.50 1 d PGD . .
C114 C 0.366(2) 0.3644(6) 0.921(2) 0.30(5) Uiso 0.50 1 d PGD . .
C115 C 0.338(3) 0.3771(10) 0.8746(17) 0.41(7) Uiso 0.50 1 d PGD . .
C116 C 0.304(2) 0.4032(10) 0.8780(10) 0.15(2) Uiso 0.50 1 d PGD . .
C117 C 0.2979(13) 0.4164(5) 0.9281(14) 0.129(11) Uiso 1 1 d GD . .
C118 C 0.407(4) 0.3351(10) 0.916(6) 0.22(7) Uiso 0.25 1 d PD . .
C119 C 0.355(5) 0.358(2) 0.823(3) 0.18(6) Uiso 0.25 1 d PD . .
C121 C 0.6618(14) 0.6893(4) 0.7070(12) 0.063(7) Uiso 1 1 d . . .
C122 C 0.591(2) 0.6994(7) 0.6393(13) 0.139(12) Uiso 1 1 d . . .
C123 C 0.5507(18) 0.7012(7) 0.6891(15) 0.137(12) Uiso 1 1 d . . .
C131 C 0.2465(15) 0.7500 0.9027(11) 0.041(8) Uiso 1 2 d S . .
C132 C 0.3237(18) 0.7357(5) 0.9655(12) 0.133(12) Uiso 1 1 d . . .
C133 C 0.379(4) 0.7208(15) 0.998(3) 0.18(3) Uiso 0.50 1 d P . .
C134 C 0.435(5) 0.7377(17) 1.028(3) 0.24(4) Uiso 0.50 1 d P . .
C135 C 0.494(4) 0.7144(16) 1.057(3) 0.20(3) Uiso 0.50 1 d P . .

loop_
_atom_site_aniso_label
_atom_site_aniso_U_11
_atom_site_aniso_U_22
_atom_site_aniso_U_33
_atom_site_aniso_U_23
_atom_site_aniso_U_13
_atom_site_aniso_U_12
Zn1 0.072(2) 0.045(2) 0.089(2) 0.0109(16) 0.0122(18) 0.0110(16)
Zn2 0.069(2) 0.057(2) 0.060(2) 0.0160(16) -0.0060(16) 0.0062(16)
Zn3 0.074(2) 0.064(2) 0.052(2) 0.0087(15) 0.0099(16) 0.0084(17)
Zn4 0.063(2) 0.079(2) 0.059(2) 0.0193(17) -0.0113(17) -0.0001(17)
Zn5 0.085(2) 0.067(2) 0.062(2) 0.0231(16) 0.0120(17) 0.0130(19)
Zn6 0.073(2) 0.0455(19) 0.078(2) 0.0079(16) 0.0028(18) 0.0113(16)
N11 0.041(14) 0.063(15) 0.084(15) 0.022(12) 0.011(11) 0.027(13)
N12 0.036(13) 0.068(15) 0.071(14) 0.015(11) -0.008(11) -0.006(12)
N21 0.053(14) 0.052(14) 0.079(15) -0.022(11) -0.013(12) -0.020(12)
N22 0.069(15) 0.070(15) 0.060(13) -0.002(12) -0.018(12) -0.045(13)
N31 0.059(17) 0.086(19) 0.072(16) -0.014(14) 0.008(15) -0.040(16)
N32 0.025(15) 0.12(2) 0.056(15) -0.037(14) 0.009(12) 0.005(14)
N41 0.071(18) 0.028(13) 0.15(2) -0.009(14) -0.065(17) -0.031(13)
N42 0.086(18) 0.09(2) 0.069(17) 0.033(16) -0.033(14) -0.019(16)
N51 0.070(16) 0.055(18) 0.116(19) -0.034(17) 0.004(15) 0.027(15)
N52 0.11(2) 0.075(18) 0.13(2) 0.002(19) -0.046(19) 0.058(17)
N61 0.10(2) 0.062(17) 0.057(15) 0.000(13) -0.020(15) 0.051(16)
N62 0.038(18) 0.070(17) 0.083(17) -0.002(13) -0.031(14) -0.013(12)
N71 0.058(13) 0.067(13) 0.038(12) -0.002(10) -0.022(12) 0.003(10)
N72 0.100(17) 0.048(12) 0.057(14) 0.015(10) 0.033(12) -0.016(12)
N81 0.107(17) 0.089(17) 0.042(14) -0.003(12) -0.005(12) -0.014(13)
N91 0.080(15) 0.079(16) 0.066(14) 0.031(12) 0.002(12) 0.001(12)
N92 0.106(16) 0.039(12) 0.059(13) 0.014(11) 0.001(12) 0.039(12)
N101 0.059(14) 0.129(18) 0.075(16) 0.035(13) 0.054(12) -0.028(13)
N102 0.075(15) 0.083(15) 0.062(14) -0.020(11) 0.013(12) -0.014(12)
N111 0.079(14) 0.079(15) 0.050(14) 0.013(11) -0.031(11) -0.010(12)
N112 0.079(14) 0.096(16) 0.033(12) 0.016(12) -0.009(11) -0.002(13)
N121 0.13(2) 0.066(13) 0.040(14) 0.004(10) 0.012(13) 0.060(13)
N131 0.085(15) 0.035(13) 0.086(15) 0.022(11) 0.013(12) 0.012(11)
N141 0.114(19) 0.071(14) 0.069(16) 0.042(11) 0.024(15) 0.000(13)
C11 0.10(2) 0.06(2) 0.063(18) 0.032(16) -0.008(17) 0.03(2)
C21 0.08(2) 0.06(2) 0.008(14) -0.016(13) -0.005(13) 0.040(19)
C31 0.039(19) 0.070(18) 0.050(18) -0.006(15) -0.034(16) -0.008(19)
C32 0.23(6) 0.000(18) 0.07(2) 0.028(14) -0.11(3) -0.01(2)
C33 0.00(4) 0.06(5) 0.07(5) -0.06(5) -0.03(4) 0.02(4)
C36 0.12(7) 0.09(6) 0.00(4) 0.06(4) -0.07(4) -0.04(5)
C37 0.00(4) 0.04(5) 0.00(4) 0.05(4) 0.03(4) -0.04(4)
C41 0.05(2) 0.07(2) 0.020(15) -0.039(16) -0.033(14) 0.058(19)
C42 0.28(6) 0.06(3) 0.54(10) 0.04(4) -0.31(7) -0.01(4)
C43 0.11(3) 0.37(7) 0.07(2) 0.01(3) 0.08(2) 0.11(4)
C51 0.13(3) 0.08(3) 0.07(2) 0.03(2) 0.01(2) -0.07(3)
C52 0.23(5) 0.08(3) 0.35(6) 0.12(3) 0.02(5) 0.14(3)
C53 0.11(3) 0.34(6) 0.09(3) 0.00(3) 0.08(2) 0.06(4)
C61 0.09(3) 0.09(2) 0.09(2) 0.055(19) 0.02(2) 0.04(2)
C62 0.02(2) 0.12(3) 0.11(3) 0.05(2) 0.00(2) 0.00(3)
C63 0.07(7) 0.02(4) 0.10(7) -0.05(4) -0.05(5) -0.02(4)
C64 0.00(5) 0.47(18) 0.04(5) -0.04(8) 0.05(4) 0.19(8)
C66 0.00(4) 0.00(4) 0.09(5) 0.00(4) 0.06(4) 0.00(3)
C67 0.09(3) 0.03(2) 0.08(2) -0.004(17) -0.02(2) -0.001(19)
C68 0.08(3) 0.32(7) 0.05(3) 0.09(3) -0.02(3) 0.03(4)

_geom_special_details            
;
All esds (except the esd in the dihedral angle between two l.s. planes)
are estimated using the full covariance matrix. The cell esds are taken
into account individually in the estimation of esds in dist