####################################################################### 
# 
# This file contains crystal structure data downloaded from the 
# Cambridge Structural Database (CSD) hosted by the Cambridge 
# Crystallographic Data Centre (CCDC).
# 
# Full information about CCDC data access policies and citation 
# guidelines are available at http://www.ccdc.cam.ac.uk/access/V1 
# 
# Audit and citation data items may have been added by the CCDC. 
# Please retain this information to preserve the provenance of 
# this file and to allow appropriate attribution of the data. 
# 
#######################################################################

data_aa-sr
_audit_block_doi                 10.5517/cc144q55
_database_code_depnum_ccdc_archive 'CCDC 1047216'
loop_
_citation_id
_citation_doi
_citation_year
1 10.1016/j.inoche.2015.08.016 2015
_audit_update_record             
;
2015-02-04 deposited with the CCDC.	2024-07-12 downloaded from the CCDC.
;

_audit_creation_method           SHELXL-97
_chemical_name_systematic        
; 
 ? 
;
_chemical_name_common            ?
_chemical_melting_point          ?
_chemical_formula_moiety         ?
_chemical_formula_sum            'C9 H3 La O7'
_chemical_formula_weight         362.02

loop_
_atom_type_symbol
_atom_type_description
_atom_type_scat_dispersion_real
_atom_type_scat_dispersion_imag
_atom_type_scat_source
C C 0.0033 0.0016 'International Tables Vol C Tables 4.2.6.8 and 6.1.1.4'
H H 0.0000 0.0000 'International Tables Vol C Tables 4.2.6.8 and 6.1.1.4'
O O 0.0106 0.0060 'International Tables Vol C Tables 4.2.6.8 and 6.1.1.4'
La La -0.2871 2.4523 'International Tables Vol C Tables 4.2.6.8 and 6.1.1.4'

_symmetry_cell_setting           ?
_symmetry_space_group_name_H-M   P43
_symmetry_space_group_name_Hall  P4cw
loop_
_symmetry_equiv_pos_as_xyz
'x, y, z'
'-x, -y, z+1/2'
'-y, x, z+3/4'
'y, -x, z+1/4'

_cell_length_a                   10.4380(15)
_cell_length_b                   10.4380(15)
_cell_length_c                   13.853(3)
_cell_angle_alpha                90.00
_cell_angle_beta                 90.00
_cell_angle_gamma                90.00
_cell_volume                     1509.3(4)
_cell_formula_units_Z            4
_cell_measurement_temperature    223(2)
_cell_measurement_reflns_used    ?
_cell_measurement_theta_min      ?
_cell_measurement_theta_max      ?

_exptl_crystal_description       ?
_exptl_crystal_colour            ?
_exptl_crystal_size_max          0.15
_exptl_crystal_size_mid          0.04
_exptl_crystal_size_min          0.04
_exptl_crystal_density_meas      ?
_exptl_crystal_density_diffrn    1.593
_exptl_crystal_density_method    'not measured'
_exptl_crystal_F_000             680
_exptl_absorpt_coefficient_mu    2.845
_exptl_absorpt_correction_type   multi-scan
_exptl_absorpt_correction_T_min  0.6749
_exptl_absorpt_correction_T_max  0.8947
_exptl_absorpt_process_details   ?

_exptl_special_details           
; 
 ? 
;

_diffrn_ambient_temperature      223(2)
_diffrn_radiation_wavelength     0.71073
_diffrn_radiation_type           MoK\a
_diffrn_radiation_source         'fine-focus sealed tube'
_diffrn_radiation_monochromator  graphite
_diffrn_measurement_device_type  ?
_diffrn_measurement_method       ?
_diffrn_detector_area_resol_mean ?
_diffrn_standards_number         ?
_diffrn_standards_interval_count ?
_diffrn_standards_interval_time  ?
_diffrn_standards_decay_%        ?
_diffrn_reflns_number            10151
_diffrn_reflns_av_R_equivalents  0.0330
_diffrn_reflns_av_sigmaI/netI    0.0279
_diffrn_reflns_limit_h_min       -12
_diffrn_reflns_limit_h_max       12
_diffrn_reflns_limit_k_min       -12
_diffrn_reflns_limit_k_max       12
_diffrn_reflns_limit_l_min       -15
_diffrn_reflns_limit_l_max       16
_diffrn_reflns_theta_min         1.95
_diffrn_reflns_theta_max         25.00
_reflns_number_total             2656
_reflns_number_gt                2571
_reflns_threshold_expression     >2sigma(I)

_computing_data_collection       ?
_computing_cell_refinement       ?
_computing_data_reduction        ?
_computing_structure_solution    'SHELXS-97 (Sheldrick, 1990)'
_computing_structure_refinement  'SHELXL-97 (Sheldrick, 1997)'
_computing_molecular_graphics    ?
_computing_publication_material  ?

_refine_special_details          
; 
 Refinement of F^2^ against ALL reflections.  The weighted R-factor wR and 
 goodness of fit S are based on F^2^, conventional R-factors R are based 
 on F, with F set to zero for negative F^2^. The threshold expression of 
 F^2^ > 2sigma(F^2^) is used only for calculating R-factors(gt) etc. and is 
 not relevant to the choice of reflections for refinement.  R-factors based 
 on F^2^ are statistically about twice as large as those based on F, and R- 
 factors based on ALL data will be even larger. 
;

_refine_ls_structure_factor_coef Fsqd
_refine_ls_matrix_type           full
_refine_ls_weighting_scheme      calc
_refine_ls_weighting_details     
'calc w=1/[\s^2^(Fo^2^)+(0.0579P)^2^+0.5821P] where P=(Fo^2^+2Fc^2^)/3'
_atom_sites_solution_primary     direct
_atom_sites_solution_secondary   difmap
_atom_sites_solution_hydrogens   geom
_refine_ls_hydrogen_treatment    constor
_refine_ls_extinction_method     SHELXL
_refine_ls_extinction_coef       0.0010(4)
_refine_ls_extinction_expression Fc^*^=kFc[1+0.001xFc^2^\l^3^/sin(2\q)]^-1/4^
_refine_ls_abs_structure_details 'Flack H D (1983), Acta Cryst. A39, 876-881'
_refine_ls_abs_structure_Flack   0.00
_refine_ls_number_reflns         2656
_refine_ls_number_parameters     155
_refine_ls_number_restraints     1
_refine_ls_R_factor_all          0.0289
_refine_ls_R_factor_gt           0.0280
_refine_ls_wR_factor_ref         0.0836
_refine_ls_wR_factor_gt          0.0829
_refine_ls_goodness_of_fit_ref   1.108
_refine_ls_restrained_S_all      1.107
_refine_ls_shift/su_max          0.000
_refine_ls_shift/su_mean         0.000

loop_
_atom_site_label
_atom_site_type_symbol
_atom_site_fract_x
_atom_site_fract_y
_atom_site_fract_z
_atom_site_U_iso_or_equiv
_atom_site_adp_type
_atom_site_occupancy
_atom_site_symmetry_multiplicity
_atom_site_calc_flag
_atom_site_refinement_flags
_atom_site_disorder_assembly
_atom_site_disorder_group
C1 C 0.7079(6) 0.4723(6) 0.3821(4) 0.0251(13) Uani 1 1 d . . .
C2 C 0.7806(5) 0.5099(6) 0.4688(4) 0.0217(12) Uani 1 1 d . . .
C3 C 0.9128(5) 0.5242(5) 0.4618(4) 0.0243(13) Uani 1 1 d . . .
H3 H 0.9539 0.5088 0.4026 0.029 Uiso 1 1 calc R . .
C4 C 0.9843(6) 0.5612(6) 0.5416(5) 0.0255(13) Uani 1 1 d . . .
C5 C 0.9224(6) 0.5835(6) 0.6300(4) 0.0258(13) Uani 1 1 d . . .
H5 H 0.9699 0.6103 0.6840 0.031 Uiso 1 1 calc R . .
C6 C 0.7938(6) 0.5663(6) 0.6373(5) 0.0246(13) Uani 1 1 d . . .
C7 C 0.7222(5) 0.5254(6) 0.5584(4) 0.0228(13) Uani 1 1 d . . .
H7 H 0.6343 0.5083 0.5656 0.027 Uiso 1 1 calc R . .
C8 C 1.1293(6) 0.5689(6) 0.5359(5) 0.0270(14) Uani 1 1 d . . .
C9 C 0.7326(6) 0.5883(6) 0.7343(5) 0.0244(13) Uani 1 1 d . . .
La1 La 0.60683(3) 0.36681(3) 0.18913(5) 0.01747(12) Uani 1 1 d . . .
O1 O 0.7355(6) 0.2014(6) 0.2801(4) 0.0553(16) Uani 1 1 d . . .
O2 O 0.7565(5) 0.4922(6) 0.2994(4) 0.0409(14) Uani 1 1 d . . .
O3 O 0.5956(4) 0.4206(5) 0.3884(3) 0.0237(9) Uani 1 1 d . . .
O4 O 0.6126(4) 0.5575(4) 0.7468(3) 0.0203(9) Uani 1 1 d . . .
O5 O 0.7980(4) 0.6318(5) 0.8017(3) 0.0318(10) Uani 1 1 d . . .
O6 O 1.1888(5) 0.5961(6) 0.6104(3) 0.0413(13) Uani 1 1 d . . .
O7 O 1.1808(4) 0.5403(5) 0.4555(5) 0.0519(16) Uani 1 1 d . . .

loop_
_atom_site_aniso_label
_atom_site_aniso_U_11
_atom_site_aniso_U_22
_atom_site_aniso_U_33
_atom_site_aniso_U_23
_atom_site_aniso_U_13
_atom_site_aniso_U_12
C1 0.023(3) 0.034(3) 0.018(3) -0.007(3) 0.001(2) 0.004(2)
C2 0.018(3) 0.032(3) 0.015(3) 0.002(2) 0.004(2) 0.003(2)
C3 0.019(3) 0.030(3) 0.023(3) -0.008(2) 0.005(2) -0.001(2)
C4 0.020(3) 0.033(3) 0.024(3) 0.003(3) 0.000(2) 0.004(2)
C5 0.020(3) 0.040(4) 0.017(3) -0.003(3) 0.002(2) -0.002(3)
C6 0.023(3) 0.035(3) 0.015(3) 0.002(3) -0.007(2) -0.003(3)
C7 0.014(3) 0.035(3) 0.020(3) -0.008(3) 0.000(2) 0.001(2)
C8 0.017(3) 0.038(3) 0.026(3) -0.005(3) -0.001(3) 0.011(2)
C9 0.022(3) 0.032(3) 0.019(3) 0.004(3) -0.003(3) -0.001(2)
La1 0.02143(18) 0.01941(17) 0.01158(17) 0.00150(14) 0.00210(14) 0.00175(11)
O1 0.059(4) 0.065(4) 0.042(3) 0.015(3) 0.003(3) 0.031(3)
O2 0.034(3) 0.070(4) 0.019(2) -0.002(2) 0.001(2) -0.023(3)
O3 0.015(2) 0.033(3) 0.024(2) -0.007(2) -0.0008(16) -0.0022(17)
O4 0.020(2) 0.023(2) 0.018(2) 0.0046(18) 0.0032(16) 0.0001(16)
O5 0.026(2) 0.055(3) 0.015(2) 0.002(2) 0.0011(18) -0.007(2)
O6 0.024(2) 0.077(4) 0.023(2) 0.010(2) -0.009(2) -0.010(2)
O7 0.019(2) 0.069(4) 0.068(4) -0.032(3) 0.002(3) 0.011(2)

_geom_special_details            
; 
 All esds (except the esd in the dihedral angle between two l.s. planes) 
 are estimated using the full covariance matrix.  The cell esds are taken 
 into account individually in the estimation of esds in distances, angles 
 and torsion angles; correlations between esds in cell parameters are only 
 used when they are defined by crystal symmetry.  An approximate (isotropic) 
 treatment of cell esds is used for estimating esds involving l.s. planes. 
;

loop_
_geom_bond_atom_site_label_1
_geom_bond_atom_site_label_2
_geom_bond_distance
_geom_bond_site_symmetry_2
_geom_bond_publ_flag
C1 O2 1.270(8) . ?
C1 O3 1.293(8) . ?
C1 C2 1.474(8) . ?
C1 La1 3.078(6) . ?
C2 C3 1.391(8) . ?
C2 C7 1.392(8) . ?
C3 C4 1.388(9) . ?
C3 H3 0.9400 . ?
C4 C5 1.404(9) . ?
C4 C8 1.518(8) . ?
C5 C6 1.358(9) . ?
C5 H5 0.9400 . ?
C6 C7 1.392(9) . ?
C6 C9 1.505(9) . ?
C7 H7 0.9400 . ?
C8 O6 1.237(8) . ?
C8 O7 1.273(8) . ?
C9 O5 1.242(8) . ?
C9 O4 1.305(7) . ?
C9 La1 3.027(6) 3_655 ?
La1 O6 2.427(5) 2_764 ?
La1 O7 2.486(4) 3_644 ?
La1 O3 2.506(4) 3_654 ?
La1 O1 2.525(5) . ?
La1 O2 2.547(5) . ?
La1 O4 2.551(4) 2_664 ?
La1 O5 2.579(4) 4_564 ?
La1 O4 2.722(4) 4_564 ?
La1 O3 2.820(4) . ?
La1 C9 3.027(6) 4_564 ?
O3 La1 2.506(4) 4_565 ?
O4 La1 2.551(4) 2_665 ?
O4 La1 2.722(4) 3_655 ?
O5 La1 2.579(4) 3_655 ?
O6 La1 2.427(5) 2_765 ?
O7 La1 2.486(4) 4_665 ?

loop_
_geom_angle_atom_site_label_1
_geom_angle_atom_site_label_2
_geom_angle_atom_site_label_3
_geom_angle
_geom_angle_site_symmetry_1
_geom_angle_site_symmetry_3
_geom_angle_publ_flag
O2 C1 O3 119.4(5) . . ?
O2 C1 C2 119.1(6) . . ?
O3 C1 C2 121.5(5) . . ?
O2 C1 La1 54.0(3) . . ?
O3 C1 La1 66.3(3) . . ?
C2 C1 La1 168.4(4) . . ?
C3 C2 C7 119.0(5) . . ?
C3 C2 C1 118.8(5) . . ?
C7 C2 C1 122.2(5) . . ?
C4 C3 C2 120.5(5) . . ?
C4 C3 H3 119.7 . . ?
C2 C3 H3 119.7 . . ?
C3 C4 C5 119.5(5) . . ?
C3 C4 C8 120.7(5) . . ?
C5 C4 C8 119.7(5) . . ?
C6 C5 C4 119.9(6) . . ?
C6 C5 H5 120.1 . . ?
C4 C5 H5 120.1 . . ?
C5 C6 C7 120.8(6) . . ?
C5 C6 C9 117.8(5) . . ?
C7 C6 C9 121.3(5) . . ?
C6 C7 C2 120.0(5) . . ?
C6 C7 H7 120.0 . . ?
C2 C7 H7 120.0 . . ?
O6 C8 O7 124.9(6) . . ?
O6 C8 C4 118.0(5) . . ?
O7 C8 C4 117.0(5) . . ?
O5 C9 O4 121.2(6) . . ?
O5 C9 C6 119.6(5) . . ?
O4 C9 C6 119.2(5) . . ?
O5 C9 La1 57.4(3) . 3_655 ?
O4 C9 La1 64.0(3) . 3_655 ?
C6 C9 La1 172.7(4) . 3_655 ?
O6 La1 O7 135.11(18) 2_764 3_644 ?
O6 La1 O3 79.77(18) 2_764 3_654 ?
O7 La1 O3 134.36(18) 3_644 3_654 ?
O6 La1 O1 82.3(2) 2_764 . ?
O7 La1 O1 75.5(2) 3_644 . ?
O3 La1 O1 148.50(19) 3_654 . ?
O6 La1 O2 69.42(15) 2_764 . ?
O7 La1 O2 136.5(2) 3_644 . ?
O3 La1 O2 75.45(18) 3_654 . ?
O1 La1 O2 74.1(2) . . ?
O6 La1 O4 151.70(18) 2_764 2_664 ?
O7 La1 O4 70.04(16) 3_644 2_664 ?
O3 La1 O4 71.94(13) 3_654 2_664 ?
O1 La1 O4 122.20(17) . 2_664 ?
O2 La1 O4 101.76(16) . 2_664 ?
O6 La1 O5 71.69(16) 2_764 4_564 ?
O7 La1 O5 66.95(17) 3_644 4_564 ?
O3 La1 O5 116.12(14) 3_654 4_564 ?
O1 La1 O5 81.88(18) . 4_564 ?
O2 La1 O5 136.35(17) . 4_564 ?
O4 La1 O5 121.89(15) 2_664 4_564 ?
O6 La1 O4 73.35(14) 2_764 4_564 ?
O7 La1 O4 91.95(17) 3_644 4_564 ?
O3 La1 O4 68.20(13) 3_654 4_564 ?
O1 La1 O4 130.05(17) . 4_564 ?
O2 La1 O4 131.49(14) . 4_564 ?
O4 La1 O4 96.45(13) 2_664 4_564 ?
O5 La1 O4 49.41(13) 4_564 4_564 ?
O6 La1 O3 116.41(14) 2_764 . ?
O7 La1 O3 92.35(17) 3_644 . ?
O3 La1 O3 94.58(12) 3_654 . ?
O1 La1 O3 70.70(17) . . ?
O2 La1 O3 48.38(14) . . ?
O4 La1 O3 66.07(12) 2_664 . ?
O5 La1 O3 149.30(14) 4_564 . ?
O4 La1 O3 159.18(12) 4_564 . ?
O6 La1 C9 71.91(16) 2_764 4_564 ?
O7 La1 C9 77.17(19) 3_644 4_564 ?
O3 La1 C9 93.26(15) 3_654 4_564 ?
O1 La1 C9 105.51(19) . 4_564 ?
O2 La1 C9 141.03(16) . 4_564 ?
O4 La1 C9 110.02(15) 2_664 4_564 ?
O5 La1 C9 23.92(15) 4_564 4_564 ?
O4 La1 C9 25.54(14) 4_564 4_564 ?
O3 La1 C9 169.50(14) . 4_564 ?
O6 La1 C1 91.84(17) 2_764 . ?
O7 La1 C1 114.4(2) 3_644 . ?
O3 La1 C1 86.65(16) 3_654 . ?
O1 La1 C1 68.21(19) . . ?
O2 La1 C1 23.78(16) . . ?
O4 La1 C1 85.69(15) 2_664 . ?
O5 La1 C1 147.70(16) 4_564 . ?
O4 La1 C1 152.45(14) 4_564 . ?
O3 La1 C1 24.84(15) . . ?
C9 La1 C1 163.47(16) 4_564 . ?
C1 O2 La1 102.2(4) . . ?
C1 O3 La1 158.5(4) . 4_565 ?
C1 O3 La1 88.8(3) . . ?
La1 O3 La1 106.93(14) 4_565 . ?
C9 O4 La1 138.1(4) . 2_665 ?
C9 O4 La1 90.4(4) . 3_655 ?
La1 O4 La1 108.61(14) 2_665 3_655 ?
C9 O5 La1 98.7(4) . 3_655 ?
C8 O6 La1 148.5(4) . 2_765 ?
C8 O7 La1 123.6(5) . 4_665 ?

loop_
_geom_torsion_atom_site_label_1
_geom_torsion_atom_site_label_2
_geom_torsion_atom_site_label_3
_geom_torsion_atom_site_label_4
_geom_torsion
_geom_torsion_site_symmetry_1
_geom_torsion_site_symmetry_2
_geom_torsion_site_symmetry_3
_geom_torsion_site_symmetry_4
_geom_torsion_publ_flag
O2 C1 C2 C3 -21.7(9) . . . . ?
O3 C1 C2 C3 158.8(6) . . . . ?
La1 C1 C2 C3 29(2) . . . . ?
O2 C1 C2 C7 161.4(6) . . . . ?
O3 C1 C2 C7 -18.1(9) . . . . ?
La1 C1 C2 C7 -148.0(19) . . . . ?
C7 C2 C3 C4 -3.9(9) . . . . ?
C1 C2 C3 C4 179.1(6) . . . . ?
C2 C3 C4 C5 0.3(9) . . . . ?
C2 C3 C4 C8 176.2(6) . . . . ?
C3 C4 C5 C6 1.3(10) . . . . ?
C8 C4 C5 C6 -174.6(6) . . . . ?
C4 C5 C6 C7 0.7(10) . . . . ?
C4 C5 C6 C9 178.5(6) . . . . ?
C5 C6 C7 C2 -4.3(10) . . . . ?
C9 C6 C7 C2 178.0(6) . . . . ?
C3 C2 C7 C6 5.9(9) . . . . ?
C1 C2 C7 C6 -177.2(6) . . . . ?
C3 C4 C8 O6 -176.4(6) . . . . ?
C5 C4 C8 O6 -0.6(9) . . . . ?
C3 C4 C8 O7 0.1(9) . . . . ?
C5 C4 C8 O7 175.9(6) . . . . ?
C5 C6 C9 O5 6.3(9) . . . . ?
C7 C6 C9 O5 -175.9(6) . . . . ?
C5 C6 C9 O4 -171.6(6) . . . . ?
C7 C6 C9 O4 6.2(9) . . . . ?
C5 C6 C9 La1 -57(4) . . . 3_655 ?
C7 C6 C9 La1 121(3) . . . 3_655 ?
O2 C1 La1 O6 19.1(5) . . . 2_764 ?
O3 C1 La1 O6 -171.9(4) . . . 2_764 ?
C2 C1 La1 O6 -37(2) . . . 2_764 ?
O2 C1 La1 O7 161.5(4) . . . 3_644 ?
O3 C1 La1 O7 -29.5(4) . . . 3_644 ?
C2 C1 La1 O7 105(2) . . . 3_644 ?
O2 C1 La1 O3 -60.6(5) . . . 3_654 ?
O3 C1 La1 O3 108.5(4) . . . 3_654 ?
C2 C1 La1 O3 -117(2) . . . 3_654 ?
O2 C1 La1 O1 100.0(5) . . . . ?
O3 C1 La1 O1 -90.9(4) . . . . ?
C2 C1 La1 O1 44(2) . . . . ?
O3 C1 La1 O2 169.0(7) . . . . ?
C2 C1 La1 O2 -57(2) . . . . ?
O2 C1 La1 O4 -132.7(5) . . . 2_664 ?
O3 C1 La1 O4 36.3(4) . . . 2_664 ?
C2 C1 La1 O4 171(2) . . . 2_664 ?
O2 C1 La1 O5 76.6(5) . . . 4_564 ?
O3 C1 La1 O5 -114.4(4) . . . 4_564 ?
C2 C1 La1 O5 20(2) . . . 4_564 ?
O2 C1 La1 O4 -37.0(6) . . . 4_564 ?
O3 C1 La1 O4 132.0(3) . . . 4_564 ?
C2 C1 La1 O4 -94(2) . . . 4_564 ?
O2 C1 La1 O3 -169.0(7) . . . . ?
C2 C1 La1 O3 134(2) . . . . ?
O2 C1 La1 C9 29.6(8) . . . 4_564 ?
O3 C1 La1 C9 -161.4(5) . . . 4_564 ?
C2 C1 La1 C9 -27(3) . . . 4_564 ?
O3 C1 O2 La1 -11.6(7) . . . . ?
C2 C1 O2 La1 168.9(5) . . . . ?
O6 La1 O2 C1 -159.6(5) 2_764 . . . ?
O7 La1 O2 C1 -24.8(6) 3_644 . . . ?
O3 La1 O2 C1 116.1(5) 3_654 . . . ?
O1 La1 O2 C1 -72.0(4) . . . . ?
O4 La1 O2 C1 48.5(5) 2_664 . . . ?
O5 La1 O2 C1 -131.2(4) 4_564 . . . ?
O4 La1 O2 C1 158.2(4) 4_564 . . . ?
O3 La1 O2 C1 6.1(4) . . . . ?
C9 La1 O2 C1 -167.1(4) 4_564 . . . ?
O2 C1 O3 La1 -127.7(10) . . . 4_565 ?
C2 C1 O3 La1 51.8(15) . . . 4_565 ?
La1 C1 O3 La1 -137.9(12) . . . 4_565 ?
O2 C1 O3 La1 10.2(6) . . . . ?
C2 C1 O3 La1 -170.3(5) . . . . ?
O6 La1 O3 C1 9.0(4) 2_764 . . . ?
O7 La1 O3 C1 153.4(4) 3_644 . . . ?
O3 La1 O3 C1 -71.8(4) 3_654 . . . ?
O1 La1 O3 C1 79.6(4) . . . . ?
O2 La1 O3 C1 -5.9(4) . . . . ?
O4 La1 O3 C1 -139.7(4) 2_664 . . . ?
O5 La1 O3 C1 107.6(4) 4_564 . . . ?
O4 La1 O3 C1 -104.9(4) 4_564 . . . ?
C9 La1 O3 C1 150.1(8) 4_564 . . . ?
O6 La1 O3 La1 174.17(19) 2_764 . . 4_565 ?
O7 La1 O3 La1 -41.5(2) 3_644 . . 4_565 ?
O3 La1 O3 La1 93.33(4) 3_654 . . 4_565 ?
O1 La1 O3 La1 -115.2(2) . . . 4_565 ?
O2 La1 O3 La1 159.2(3) . . . 4_565 ?
O4 La1 O3 La1 25.40(14) 2_664 . . 4_565 ?
O5 La1 O3 La1 -87.2(3) 4_564 . . 4_565 ?
O4 La1 O3 La1 60.2(4) 4_564 . . 4_565 ?
C9 La1 O3 La1 -44.8(9) 4_564 . . 4_565 ?
C1 La1 O3 La1 165.1(5) . . . 4_565 ?
O5 C9 O4 La1 113.8(6) . . . 2_665 ?
C6 C9 O4 La1 -68.3(8) . . . 2_665 ?
La1 C9 O4 La1 119.1(5) 3_655 . . 2_665 ?
O5 C9 O4 La1 -5.3(6) . . . 3_655 ?
C6 C9 O4 La1 172.6(5) . . . 3_655 ?
O4 C9 O5 La1 5.7(6) . . . 3_655 ?
C6 C9 O5 La1 -172.2(5) . . . 3_655 ?
O7 C8 O6 La1 3.4(14) . . . 2_765 ?
C4 C8 O6 La1 179.6(6) . . . 2_765 ?
O6 C8 O7 La1 43.9(10) . . . 4_665 ?
C4 C8 O7 La1 -132.3(5) . . . 4_665 ?

_diffrn_measured_fraction_theta_max 0.995
_diffrn_reflns_theta_full        25.00
_diffrn_measured_fraction_theta_full 0.995
_refine_diff_density_max         0.862
_refine_diff_density_min         -0.509
_refine_diff_density_rms         0.127


loop_
_platon_squeeze_void_nr
_platon_squeeze_void_average_x
_platon_squeeze_void_average_y
_platon_squeeze_void_average_z
_platon_squeeze_void_volume
_platon_squeeze_void_count_electrons
_platon_squeeze_void_content
1 0.000 0.000 -0.015 573 455 ' '
_platon_squeeze_details          
;
;
