####################################################################### 
# 
# This file contains crystal structure data downloaded from the 
# Cambridge Structural Database (CSD) hosted by the Cambridge 
# Crystallographic Data Centre (CCDC).
# 
# Full information about CCDC data access policies and citation 
# guidelines are available at http://www.ccdc.cam.ac.uk/access/V1 
# 
# Audit and citation data items may have been added by the CCDC. 
# Please retain this information to preserve the provenance of 
# this file and to allow appropriate attribution of the data. 
# 
#######################################################################

data_complex2
_audit_block_doi                 10.5517/cc144xnv
_database_code_depnum_ccdc_archive 'CCDC 1047417'
loop_
_citation_id
_citation_doi
_citation_year
1 10.1021/ic501506s 2014
_audit_update_record             
;
2015-02-04 deposited with the CCDC.	2024-07-12 downloaded from the CCDC.
;

_audit_creation_method           SHELXL-97
_chemical_name_systematic        
;
 ?
;
_chemical_name_common            ?
_chemical_melting_point          ?
_chemical_formula_moiety         ?
_chemical_formula_sum            'C63 H72 Br2 Fe Mn N22 O4 W'
_chemical_formula_weight         1655.89

loop_
_atom_type_symbol
_atom_type_description
_atom_type_scat_dispersion_real
_atom_type_scat_dispersion_imag
_atom_type_scat_source
C C 0.0033 0.0016 'International Tables Vol C Tables 4.2.6.8 and 6.1.1.4'
H H 0.0000 0.0000 'International Tables Vol C Tables 4.2.6.8 and 6.1.1.4'
O O 0.0106 0.0060 'International Tables Vol C Tables 4.2.6.8 and 6.1.1.4'
Mn Mn 0.3368 0.7283 'International Tables Vol C Tables 4.2.6.8 and 6.1.1.4'
Fe Fe 0.3463 0.8444 'International Tables Vol C Tables 4.2.6.8 and 6.1.1.4'
W W -0.8490 6.8722 'International Tables Vol C Tables 4.2.6.8 and 6.1.1.4'
Br Br -0.2901 2.4595 'International Tables Vol C Tables 4.2.6.8 and 6.1.1.4'
N N 0.0061 0.0033 'International Tables Vol C Tables 4.2.6.8 and 6.1.1.4'

_symmetry_cell_setting           Triclinic
_symmetry_space_group_name_H-M   P-1

loop_
_symmetry_equiv_pos_as_xyz
'x, y, z'
'-x, -y, -z'

_cell_length_a                   10.7016(2)
_cell_length_b                   14.1793(3)
_cell_length_c                   24.4382(6)
_cell_angle_alpha                88.7940(10)
_cell_angle_beta                 87.2910(10)
_cell_angle_gamma                82.4590(10)
_cell_volume                     3671.69(14)
_cell_formula_units_Z            2
_cell_measurement_temperature    100(2)
_cell_measurement_reflns_used    9864
_cell_measurement_theta_min      2.363
_cell_measurement_theta_max      26.203

_exptl_crystal_description       blolck
_exptl_crystal_colour            red
_exptl_crystal_size_max          0.36
_exptl_crystal_size_mid          0.27
_exptl_crystal_size_min          0.16
_exptl_crystal_density_meas      ?
_exptl_crystal_density_diffrn    1.498
_exptl_crystal_density_method    'not measured'
_exptl_crystal_F_000             1662
_exptl_absorpt_coefficient_mu    3.074
_exptl_absorpt_correction_type   MULTI-SCAN
_exptl_absorpt_correction_T_min  0.4032
_exptl_absorpt_correction_T_max  0.6456
_exptl_absorpt_process_details   SADABS

_exptl_special_details           
;
 ?
;

_diffrn_ambient_temperature      100(2)
_diffrn_radiation_wavelength     0.71073
_diffrn_radiation_type           MoK\a
_diffrn_radiation_source         'fine-focus sealed tube'
_diffrn_radiation_monochromator  graphite
_diffrn_measurement_device_type  'CCD area detector'
_diffrn_measurement_method       'omega scan'
_diffrn_detector_area_resol_mean ?
_diffrn_standards_number         ?
_diffrn_standards_interval_count ?
_diffrn_standards_interval_time  ?
_diffrn_standards_decay_%        ?
_diffrn_reflns_number            43345
_diffrn_reflns_av_R_equivalents  0.0383
_diffrn_reflns_av_sigmaI/netI    0.0781
_diffrn_reflns_limit_h_min       -14
_diffrn_reflns_limit_h_max       14
_diffrn_reflns_limit_k_min       -18
_diffrn_reflns_limit_k_max       17
_diffrn_reflns_limit_l_min       -32
_diffrn_reflns_limit_l_max       32
_diffrn_reflns_theta_min         0.83
_diffrn_reflns_theta_max         28.33
_reflns_number_total             16791
_reflns_number_gt                11471
_reflns_threshold_expression     >2sigma(I)

_computing_data_collection       'Bruker SMART APEXll'
_computing_cell_refinement       'Bruker SMART APEXll'
_computing_data_reduction        'Bruker SAINT'
_computing_structure_solution    SHELXTL
_computing_structure_refinement  'SHELXL-97 (Sheldrick, 1997)'
_computing_molecular_graphics    WingX
_computing_publication_material  WingX

_refine_special_details          
;
 Refinement of F^2^ against ALL reflections.  The weighted R-factor wR and
 goodness of fit S are based on F^2^, conventional R-factors R are based
 on F, with F set to zero for negative F^2^. The threshold expression of
 F^2^ > 2sigma(F^2^) is used only for calculating R-factors(gt) etc. and is
 not relevant to the choice of reflections for refinement.  R-factors based
 on F^2^ are statistically about twice as large as those based on F, and R-
 factors based on ALL data will be even larger.
;

_refine_ls_structure_factor_coef Fsqd
_refine_ls_matrix_type           full
_refine_ls_weighting_scheme      calc
_refine_ls_weighting_details     
'calc w=1/[\s^2^(Fo^2^)+(0.0734P)^2^+10.4664P] where P=(Fo^2^+2Fc^2^)/3'
_atom_sites_solution_primary     direct
_atom_sites_solution_secondary   difmap
_atom_sites_solution_hydrogens   geom
_refine_ls_hydrogen_treatment    constr
_refine_ls_extinction_method     none
_refine_ls_extinction_coef       ?
_refine_ls_number_reflns         16791
_refine_ls_number_parameters     857
_refine_ls_number_restraints     0
_refine_ls_R_factor_all          0.0988
_refine_ls_R_factor_gt           0.0555
_refine_ls_wR_factor_ref         0.1603
_refine_ls_wR_factor_gt          0.1372
_refine_ls_goodness_of_fit_ref   1.057
_refine_ls_restrained_S_all      1.057
_refine_ls_shift/su_max          0.000
_refine_ls_shift/su_mean         0.000

loop_
_atom_site_label
_atom_site_type_symbol
_atom_site_fract_x
_atom_site_fract_y
_atom_site_fract_z
_atom_site_U_iso_or_equiv
_atom_site_adp_type
_atom_site_occupancy
_atom_site_symmetry_multiplicity
_atom_site_calc_flag
_atom_site_refinement_flags
_atom_site_disorder_assembly
_atom_site_disorder_group
W1 W 0.49492(2) 0.54719(2) 0.252212(11) 0.02645(9) Uani 1 1 d . . .
C1 C 0.6855(6) 0.5010(5) 0.2791(2) 0.0282(14) Uani 1 1 d . . .
N1 N 0.7864(5) 0.4805(4) 0.2927(2) 0.0349(14) Uani 1 1 d . . .
C2 C 0.5853(6) 0.6750(5) 0.2564(3) 0.0332(15) Uani 1 1 d . . .
N2 N 0.6374(6) 0.7388(5) 0.2599(3) 0.0481(17) Uani 1 1 d . . .
C3 C 0.4822(5) 0.5086(5) 0.3378(3) 0.0303(15) Uani 1 1 d . . .
N3 N 0.4766(6) 0.4847(5) 0.3829(2) 0.0415(15) Uani 1 1 d . . .
C4 C 0.6223(6) 0.5340(5) 0.1800(3) 0.0332(16) Uani 1 1 d . . .
N4 N 0.6890(5) 0.5273(5) 0.1422(2) 0.0405(15) Uani 1 1 d . . .
C5 C 0.5198(6) 0.3974(5) 0.2347(3) 0.0309(15) Uani 1 1 d . . .
N5 N 0.5315(6) 0.3163(5) 0.2264(3) 0.0414(15) Uani 1 1 d . . .
C6 C 0.3907(7) 0.6039(7) 0.1825(3) 0.055(2) Uani 1 1 d . . .
N6 N 0.3357(6) 0.6332(8) 0.1452(3) 0.091(4) Uani 1 1 d . . .
C7 C 0.3580(6) 0.6615(6) 0.2851(3) 0.0419(18) Uani 1 1 d . . .
N7 N 0.2862(6) 0.7224(5) 0.3010(3) 0.0546(19) Uani 1 1 d . . .
C8 C 0.3138(6) 0.4951(5) 0.2638(3) 0.0316(15) Uani 1 1 d . . .
N8 N 0.2169(5) 0.4697(4) 0.2709(2) 0.0354(14) Uani 1 1 d . . .
Mn1 Mn 1.00321(8) 0.46851(8) 0.29025(4) 0.0319(2) Uani 1 1 d . . .
O1 O 1.0129(4) 0.3343(4) 0.28686(19) 0.0374(12) Uani 1 1 d . . .
O2 O 1.0279(4) 0.4654(4) 0.36578(19) 0.0361(11) Uani 1 1 d . . .
N9 N 0.9876(5) 0.4847(5) 0.2094(2) 0.0366(14) Uani 1 1 d . . .
N10 N 0.9896(5) 0.6095(5) 0.2868(2) 0.0368(14) Uani 1 1 d . . .
C9 C 0.9776(6) 0.2851(6) 0.2474(3) 0.0379(17) Uani 1 1 d . . .
C10 C 0.9710(7) 0.1883(6) 0.2576(3) 0.0444(19) Uani 1 1 d . . .
H10 H 0.9868 0.1631 0.2933 0.053 Uiso 1 1 calc R . .
C11 C 0.9426(8) 0.1288(7) 0.2180(3) 0.053(2) Uani 1 1 d . . .
H11 H 0.9404 0.0631 0.2258 0.063 Uiso 1 1 calc R . .
C12 C 0.9167(8) 0.1672(7) 0.1652(3) 0.053(2) Uani 1 1 d . . .
C13 C 0.9167(7) 0.2624(7) 0.1535(3) 0.050(2) Uani 1 1 d . . .
H13 H 0.8954 0.2870 0.1182 0.060 Uiso 1 1 calc R . .
C14 C 0.9482(6) 0.3232(6) 0.1938(3) 0.0376(17) Uani 1 1 d . . .
C15 C 0.9605(6) 0.4204(6) 0.1778(3) 0.0352(17) Uani 1 1 d . . .
H15 H 0.9474 0.4379 0.1406 0.042 Uiso 1 1 calc R . .
C16 C 1.0161(7) 0.5771(6) 0.1894(3) 0.0447(19) Uani 1 1 d . . .
H16 H 1.1092 0.5781 0.1908 0.054 Uiso 1 1 calc R . .
C17 C 0.9763(7) 0.6078(7) 0.1327(3) 0.053(2) Uani 1 1 d . . .
H17A H 1.0208 0.5631 0.1054 0.063 Uiso 1 1 calc R . .
H17B H 0.8845 0.6063 0.1303 0.063 Uiso 1 1 calc R . .
C18 C 1.0066(8) 0.7069(7) 0.1199(4) 0.058(2) Uani 1 1 d . . .
H18A H 1.0989 0.7074 0.1207 0.070 Uiso 1 1 calc R . .
H18B H 0.9802 0.7261 0.0826 0.070 Uiso 1 1 calc R . .
C19 C 0.9416(9) 0.7762(7) 0.1601(4) 0.061(2) Uani 1 1 d . . .
H19A H 0.8492 0.7793 0.1570 0.073 Uiso 1 1 calc R . .
H19B H 0.9650 0.8401 0.1510 0.073 Uiso 1 1 calc R . .
C20 C 0.9752(8) 0.7497(6) 0.2195(3) 0.049(2) Uani 1 1 d . . .
H20A H 1.0653 0.7549 0.2245 0.059 Uiso 1 1 calc R . .
H20B H 0.9236 0.7936 0.2451 0.059 Uiso 1 1 calc R . .
C21 C 0.9495(7) 0.6487(6) 0.2311(3) 0.048(2) Uani 1 1 d . . .
H21 H 0.8566 0.6474 0.2295 0.058 Uiso 1 1 calc R . .
C22 C 1.0153(6) 0.6622(6) 0.3250(3) 0.0395(17) Uani 1 1 d . . .
H22 H 1.0090 0.7286 0.3175 0.047 Uiso 1 1 calc R . .
C23 C 1.0532(6) 0.6297(6) 0.3788(3) 0.0382(17) Uani 1 1 d . . .
C24 C 1.0801(7) 0.6989(6) 0.4159(3) 0.0467(19) Uani 1 1 d . . .
H24 H 1.0737 0.7640 0.4050 0.056 Uiso 1 1 calc R . .
C25 C 1.1150(9) 0.6720(7) 0.4669(4) 0.061(3) Uani 1 1 d . . .
C26 C 1.1307(9) 0.5766(7) 0.4842(4) 0.061(3) Uani 1 1 d . . .
H26 H 1.1584 0.5592 0.5198 0.073 Uiso 1 1 calc R . .
C27 C 1.1049(7) 0.5079(6) 0.4482(3) 0.0452(19) Uani 1 1 d . . .
H27 H 1.1165 0.4430 0.4595 0.054 Uiso 1 1 calc R . .
C28 C 1.0621(6) 0.5319(6) 0.3953(3) 0.0389(17) Uani 1 1 d . . .
Br1 Br 0.88526(9) 0.08193(8) 0.10960(4) 0.0644(3) Uani 1 1 d . . .
Br2 Br 1.14324(12) 0.76552(8) 0.51829(4) 0.0776(3) Uani 1 1 d . . .
Fe1 Fe 0.5000 0.0000 0.0000 0.0313(3) Uani 1 2 d S . .
N11 N 0.6233(5) 0.1106(4) 0.0114(2) 0.0370(14) Uani 1 1 d . . .
N12 N 0.5921(5) 0.1660(4) 0.0563(2) 0.0321(13) Uani 1 1 d . . .
N13 N 0.3514(5) 0.1035(5) 0.0360(2) 0.0359(14) Uani 1 1 d . . .
N14 N 0.5395(5) -0.0346(4) 0.0855(2) 0.0354(13) Uani 1 1 d . . .
N15 N 0.5466(5) 0.0417(4) 0.1187(2) 0.0322(13) Uani 1 1 d . . .
N16 N 0.3795(5) 0.1495(4) 0.0824(2) 0.0308(12) Uani 1 1 d . . .
C29 C 0.7558(9) 0.1218(7) -0.0733(4) 0.060(3) Uani 1 1 d . . .
H29A H 0.7345 0.0576 -0.0788 0.091 Uiso 1 1 calc R . .
H29B H 0.8477 0.1198 -0.0735 0.091 Uiso 1 1 calc R . .
H29C H 0.7223 0.1641 -0.1028 0.091 Uiso 1 1 calc R . .
C30 C 0.6996(8) 0.1579(6) -0.0199(3) 0.0458(19) Uani 1 1 d . . .
C31 C 0.7153(9) 0.2431(6) 0.0047(4) 0.059(2) Uani 1 1 d . . .
H31 H 0.7656 0.2892 -0.0095 0.070 Uiso 1 1 calc R . .
C32 C 0.6445(8) 0.2481(6) 0.0530(3) 0.048(2) Uani 1 1 d . . .
C33 C 0.6219(10) 0.3232(6) 0.0958(4) 0.062(3) Uani 1 1 d . . .
H33A H 0.5336 0.3522 0.0961 0.093 Uiso 1 1 calc R . .
H33B H 0.6770 0.3721 0.0876 0.093 Uiso 1 1 calc R . .
H33C H 0.6404 0.2943 0.1318 0.093 Uiso 1 1 calc R . .
C34 C 0.1617(7) 0.0943(7) -0.0158(3) 0.053(2) Uani 1 1 d . . .
H34A H 0.1362 0.1456 -0.0421 0.079 Uiso 1 1 calc R . .
H34B H 0.0867 0.0687 -0.0004 0.079 Uiso 1 1 calc R . .
H34C H 0.2178 0.0436 -0.0345 0.079 Uiso 1 1 calc R . .
C35 C 0.2297(6) 0.1326(7) 0.0294(3) 0.046(2) Uani 1 1 d . . .
C36 C 0.1803(7) 0.1953(7) 0.0699(4) 0.054(2) Uani 1 1 d . . .
H36 H 0.0960 0.2260 0.0737 0.065 Uiso 1 1 calc R . .
C37 C 0.2778(7) 0.2044(6) 0.1037(3) 0.0429(19) Uani 1 1 d . . .
C38 C 0.2805(8) 0.2639(7) 0.1539(3) 0.053(2) Uani 1 1 d . . .
H38A H 0.2852 0.2225 0.1866 0.079 Uiso 1 1 calc R . .
H38B H 0.2035 0.3097 0.1568 0.079 Uiso 1 1 calc R . .
H38C H 0.3543 0.2982 0.1511 0.079 Uiso 1 1 calc R . .
C39 C 0.5820(8) -0.2088(6) 0.0947(3) 0.053(2) Uani 1 1 d . . .
H39A H 0.5201 -0.2429 0.1150 0.079 Uiso 1 1 calc R . .
H39B H 0.6669 -0.2427 0.0992 0.079 Uiso 1 1 calc R . .
H39C H 0.5636 -0.2054 0.0558 0.079 Uiso 1 1 calc R . .
C40 C 0.5751(7) -0.1113(6) 0.1162(3) 0.0406(18) Uani 1 1 d . . .
C41 C 0.6037(7) -0.0839(6) 0.1691(3) 0.0448(19) Uani 1 1 d . . .
H41 H 0.6307 -0.1252 0.1986 0.054 Uiso 1 1 calc R . .
C42 C 0.5846(7) 0.0143(6) 0.1696(3) 0.0392(17) Uani 1 1 d . . .
C43 C 0.6022(8) 0.0809(7) 0.2138(3) 0.053(2) Uani 1 1 d . . .
H43A H 0.6663 0.1210 0.2016 0.080 Uiso 1 1 calc R . .
H43B H 0.6297 0.0445 0.2466 0.080 Uiso 1 1 calc R . .
H43C H 0.5222 0.1210 0.2223 0.080 Uiso 1 1 calc R . .
C44 C 0.5091(6) 0.1377(5) 0.0995(3) 0.0307(14) Uani 1 1 d . . .
H44 H 0.5129 0.1811 0.1310 0.037 Uiso 1 1 calc R . .
Fe2 Fe 0.5000 0.0000 0.5000 0.0288(3) Uani 1 2 d S . .
N17 N 0.6341(6) 0.0470(4) 0.4384(2) 0.0372(14) Uani 1 1 d . . .
N18 N 0.6092(5) 0.1402(4) 0.4199(2) 0.0307(12) Uani 1 1 d . . .
N19 N 0.3566(5) 0.0824(4) 0.4503(2) 0.0354(13) Uani 1 1 d . . .
N20 N 0.3854(5) 0.1678(4) 0.4299(2) 0.0300(12) Uani 1 1 d . . .
N21 N 0.4881(5) -0.1328(4) 0.4641(2) 0.0308(12) Uani 1 1 d . . .
N22 N 0.4804(9) -0.1661(6) 0.4141(3) 0.070(2) Uani 1 1 d . . .
C45 C 0.1777(8) -0.0096(7) 0.4438(4) 0.057(2) Uani 1 1 d . . .
H45A H 0.2267 -0.0526 0.4691 0.085 Uiso 1 1 calc R . .
H45B H 0.1697 -0.0427 0.4096 0.085 Uiso 1 1 calc R . .
H45C H 0.0936 0.0106 0.4605 0.085 Uiso 1 1 calc R . .
C46 C 0.2426(7) 0.0744(6) 0.4321(3) 0.0412(18) Uani 1 1 d . . .
C47 C 0.1981(7) 0.1564(6) 0.4011(3) 0.051(2) Uani 1 1 d . . .
H47 H 0.1190 0.1690 0.3845 0.061 Uiso 1 1 calc R . .
C48 C 0.2913(7) 0.2141(6) 0.3997(3) 0.0417(18) Uani 1 1 d . . .
C49 C 0.3005(8) 0.3063(7) 0.3699(4) 0.056(2) Uani 1 1 d . . .
H49A H 0.3228 0.3531 0.3955 0.084 Uiso 1 1 calc R . .
H49B H 0.2191 0.3297 0.3545 0.084 Uiso 1 1 calc R . .
H49C H 0.3657 0.2967 0.3403 0.084 Uiso 1 1 calc R . .
C50 C 0.7941(8) -0.0893(6) 0.4164(4) 0.055(2) Uani 1 1 d . . .
H50A H 0.7576 -0.1157 0.4499 0.083 Uiso 1 1 calc R . .
H50B H 0.8855 -0.0918 0.4193 0.083 Uiso 1 1 calc R . .
H50C H 0.7769 -0.1267 0.3849 0.083 Uiso 1 1 calc R . .
C51 C 0.7368(7) 0.0110(6) 0.4087(3) 0.0419(18) Uani 1 1 d . . .
C52 C 0.7755(7) 0.0794(6) 0.3723(3) 0.047(2) Uani 1 1 d . . .
H52 H 0.8459 0.0707 0.3470 0.057 Uiso 1 1 calc R . .
C53 C 0.6946(7) 0.1609(6) 0.3796(3) 0.0420(18) Uani 1 1 d . . .
C54 C 0.6879(8) 0.2555(6) 0.3517(3) 0.050(2) Uani 1 1 d . . .
H54A H 0.7586 0.2553 0.3246 0.075 Uiso 1 1 calc R . .
H54B H 0.6927 0.3046 0.3788 0.075 Uiso 1 1 calc R . .
H54C H 0.6081 0.2689 0.3332 0.075 Uiso 1 1 calc R . .
C55 C 0.5104(6) 0.2109(4) 0.5014(2) 0.0205(12) Uani 1 1 d . . .
C56 C 0.5195(11) 0.2899(6) 0.5297(3) 0.065(3) Uani 1 1 d . . .
C57 C 0.5210(17) 0.3831(8) 0.5026(4) 0.119(6) Uani 1 1 d . . .
H57A H 0.5936 0.3805 0.4764 0.179 Uiso 1 1 calc R . .
H57B H 0.5275 0.4313 0.5301 0.179 Uiso 1 1 calc R . .
H57C H 0.4430 0.3999 0.4832 0.179 Uiso 1 1 calc R . .
C58 C 0.5026(6) 0.2009(5) 0.4428(3) 0.0324(15) Uani 1 1 d . . .
H58 H 0.5033 0.2654 0.4256 0.039 Uiso 1 1 calc R . .
C59 C 0.4764(9) -0.1028(6) 0.3639(3) 0.051(2) Uani 1 1 d . . .
H59A H 0.3896 -0.0903 0.3520 0.076 Uiso 1 1 calc R . .
H59B H 0.5309 -0.1343 0.3346 0.076 Uiso 1 1 calc R . .
H59C H 0.5061 -0.0426 0.3725 0.076 Uiso 1 1 calc R . .
C60 C 0.4751(12) -0.2646(6) 0.4165(3) 0.080(4) Uani 1 1 d . . .
H60 H 0.4689 -0.3051 0.3866 0.096 Uiso 1 1 calc R . .
O3 O 0.1754(7) 0.9199(6) 0.2986(3) 0.081(2) Uani 1 1 d . . .
C61 C 0.237(2) 0.926(2) 0.2022(7) 0.205(11) Uani 1 1 d . . .
C62 C 0.2635(19) 0.9513(11) 0.2556(5) 0.129(6) Uani 1 1 d . . .
C63 C 0.2853(12) 1.0493(11) 0.2656(6) 0.106(5) Uani 1 1 d . . .
O4 O 0.798(2) 0.5117(17) 0.0221(9) 0.296(10) Uiso 1 1 d . . .

loop_
_atom_site_aniso_label
_atom_site_aniso_U_11
_atom_site_aniso_U_22
_atom_site_aniso_U_33
_atom_site_aniso_U_23
_atom_site_aniso_U_13
_atom_site_aniso_U_12
W1 0.01780(12) 0.03116(16) 0.03133(15) 0.00832(10) -0.00801(9) -0.00564(9)
C1 0.024(3) 0.035(4) 0.027(3) 0.009(3) -0.004(2) -0.007(3)
N1 0.024(3) 0.038(4) 0.042(3) 0.014(3) -0.007(2) -0.004(2)
C2 0.027(3) 0.029(4) 0.044(4) 0.011(3) -0.001(3) -0.006(3)
N2 0.034(3) 0.048(5) 0.064(4) 0.010(3) -0.003(3) -0.013(3)
C3 0.019(3) 0.043(4) 0.030(4) 0.006(3) -0.007(3) -0.009(3)
N3 0.040(3) 0.048(4) 0.037(4) 0.000(3) -0.007(3) -0.005(3)
C4 0.022(3) 0.048(5) 0.032(4) 0.009(3) -0.006(3) -0.010(3)
N4 0.033(3) 0.055(5) 0.037(3) 0.008(3) -0.008(3) -0.021(3)
C5 0.039(4) 0.029(4) 0.027(3) 0.011(3) -0.011(3) -0.013(3)
N5 0.044(3) 0.029(4) 0.050(4) -0.002(3) 0.001(3) 0.000(3)
C6 0.029(4) 0.089(8) 0.049(5) 0.024(5) -0.006(3) -0.015(4)
N6 0.031(4) 0.169(10) 0.070(5) 0.071(6) -0.015(4) -0.011(5)
C7 0.024(3) 0.041(5) 0.062(5) 0.001(4) -0.011(3) -0.007(3)
N7 0.031(3) 0.034(4) 0.099(6) 0.001(4) -0.001(3) -0.005(3)
C8 0.029(3) 0.030(4) 0.037(4) 0.006(3) -0.007(3) -0.003(3)
N8 0.020(3) 0.035(4) 0.051(4) 0.010(3) -0.010(2) -0.006(2)
Mn1 0.0183(4) 0.0387(7) 0.0395(6) 0.0111(5) -0.0086(4) -0.0064(4)
O1 0.022(2) 0.048(3) 0.045(3) 0.007(2) -0.008(2) -0.013(2)
O2 0.028(2) 0.043(3) 0.038(3) 0.012(2) -0.010(2) -0.008(2)
N9 0.028(3) 0.039(4) 0.043(3) 0.008(3) -0.004(2) -0.006(3)
N10 0.018(3) 0.048(4) 0.043(4) 0.011(3) -0.003(2) -0.005(2)
C9 0.018(3) 0.050(5) 0.047(4) -0.003(4) 0.002(3) -0.011(3)
C10 0.040(4) 0.047(5) 0.049(5) 0.004(4) -0.004(3) -0.014(4)
C11 0.054(5) 0.049(6) 0.059(5) 0.001(4) 0.002(4) -0.025(4)
C12 0.047(5) 0.068(7) 0.051(5) -0.010(4) -0.003(4) -0.030(4)
C13 0.040(4) 0.072(7) 0.043(5) -0.001(4) 0.008(3) -0.023(4)
C14 0.022(3) 0.051(5) 0.043(4) 0.002(3) 0.001(3) -0.015(3)
C15 0.016(3) 0.053(5) 0.037(4) 0.010(3) -0.003(3) -0.009(3)
C16 0.038(4) 0.047(6) 0.048(5) 0.011(4) -0.002(3) -0.004(3)
C17 0.038(4) 0.075(7) 0.046(5) 0.025(4) -0.003(3) -0.015(4)
C18 0.050(5) 0.064(7) 0.061(6) 0.025(5) -0.006(4) -0.013(4)
C19 0.057(5) 0.054(7) 0.070(6) 0.026(5) -0.008(5) 0.000(4)
C20 0.052(5) 0.039(5) 0.056(5) 0.020(4) -0.015(4) 0.000(4)
C21 0.043(4) 0.045(6) 0.059(5) 0.021(4) -0.021(4) -0.010(4)
C22 0.032(4) 0.032(5) 0.054(5) 0.0