####################################################################### 
# 
# This file contains crystal structure data downloaded from the 
# Cambridge Structural Database (CSD) hosted by the Cambridge 
# Crystallographic Data Centre (CCDC).
# 
# Full information about CCDC data access policies and citation 
# guidelines are available at http://www.ccdc.cam.ac.uk/access/V1 
# 
# Audit and citation data items may have been added by the CCDC. 
# Please retain this information to preserve the provenance of 
# this file and to allow appropriate attribution of the data. 
# 
#######################################################################

data_Compound-4
_audit_block_doi                 10.5517/cc11jfnn
_database_code_depnum_ccdc_archive 'CCDC 969111'
loop_
_citation_id
_citation_doi
_citation_year
1 10.1016/j.poly.2014.12.001 2015
_audit_update_record             
;
2014-10-08 deposited with the CCDC.	2024-07-12 downloaded from the CCDC.
;

_audit_creation_method           SHELXL-2014
_chemical_name_systematic        
;
 ?
;
_chemical_name_common            ?
_chemical_melting_point          ?
_chemical_formula_moiety         ?
_chemical_formula_sum            'C20 H22 Cu N10 O8'
_chemical_formula_weight         594.01

loop_
_atom_type_symbol
_atom_type_description
_atom_type_scat_dispersion_real
_atom_type_scat_dispersion_imag
_atom_type_scat_source
C C 0.0181 0.0091 'International Tables Vol C Tables 4.2.6.8 and 6.1.1.4'
H H 0.0000 0.0000 'International Tables Vol C Tables 4.2.6.8 and 6.1.1.4'
Cu Cu -1.9646 0.5888 'International Tables Vol C Tables 4.2.6.8 and 6.1.1.4'
N N 0.0311 0.0180 'International Tables Vol C Tables 4.2.6.8 and 6.1.1.4'
O O 0.0492 0.0322 'International Tables Vol C Tables 4.2.6.8 and 6.1.1.4'

_space_group_crystal_system      monoclinic
_space_group_IT_number           14
_space_group_name_H-M_alt        'P 21/c'
_space_group_name_Hall           '-P 2ybc'

_shelx_space_group_comment       
;
The symmetry employed for this shelxl refinement is uniquely defined
by the following loop, which should always be used as a source of
symmetry information in preference to the above space-group names.
They are only intended as comments.
;

loop_
_space_group_symop_operation_xyz
'x, y, z'
'-x, y+1/2, -z+1/2'
'-x, -y, -z'
'x, -y-1/2, z-1/2'

_cell_length_a                   9.5454(9)
_cell_length_b                   14.6719(10)
_cell_length_c                   9.4790(13)
_cell_angle_alpha                90
_cell_angle_beta                 110.419(13)
_cell_angle_gamma                90
_cell_volume                     1244.1(2)
_cell_formula_units_Z            2
_cell_measurement_temperature    173(2)
_cell_measurement_reflns_used    2452
_cell_measurement_theta_min      4.9330
_cell_measurement_theta_max      71.5670

_exptl_crystal_description       block
_exptl_crystal_colour            blue
_exptl_crystal_density_meas      ?
_exptl_crystal_density_method    ?
_exptl_crystal_density_diffrn    1.586
_exptl_crystal_F_000             610
_exptl_transmission_factor_min   ?
_exptl_transmission_factor_max   ?
_exptl_crystal_size_max          0.200
_exptl_crystal_size_mid          0.200
_exptl_crystal_size_min          0.100
_exptl_absorpt_coefficient_mu    1.840
_shelx_estimated_absorpt_T_min   0.710
_shelx_estimated_absorpt_T_max   0.837
_exptl_absorpt_correction_type   multi-scan
_exptl_absorpt_correction_T_min  0.52105
_exptl_absorpt_correction_T_max  1.00000
_exptl_absorpt_process_details   
;
CrysAlisPro, Agilent Technologies,
Version 1.171.36.28 (release 01-02-2013 CrysAlis171 .NET)
(compiled Feb  1 2013,16:14:44)
Empirical absorption correction using spherical harmonics,
 implemented in SCALE3 ABSPACK scaling algorithm.
;

_exptl_special_details           
;
 ?
;

_diffrn_ambient_temperature      173(2)
_diffrn_radiation_wavelength     1.54184
_diffrn_radiation_type           CuK\a
_diffrn_source                   'fine-focus sealed tube'
_diffrn_measurement_device_type  'SuperNova, Dual, Cu at zero, Atlas'
_diffrn_measurement_method       'phi and omega scans'
_diffrn_detector_area_resol_mean 10.5594
_diffrn_reflns_number            8375
_diffrn_reflns_av_unetI/netI     0.0290
_diffrn_reflns_av_R_equivalents  0.0404
_diffrn_reflns_limit_h_min       -11
_diffrn_reflns_limit_h_max       11
_diffrn_reflns_limit_k_min       -16
_diffrn_reflns_limit_k_max       17
_diffrn_reflns_limit_l_min       -10
_diffrn_reflns_limit_l_max       11
_diffrn_reflns_theta_min         5.793
_diffrn_reflns_theta_max         66.439
_diffrn_reflns_theta_full        67.684
_diffrn_measured_fraction_theta_max 0.993
_diffrn_measured_fraction_theta_full 0.973
_diffrn_reflns_Laue_measured_fraction_max 0.993
_diffrn_reflns_Laue_measured_fraction_full 0.973
_diffrn_reflns_point_group_measured_fraction_max 0.993
_diffrn_reflns_point_group_measured_fraction_full 0.973
_reflns_number_total             2184
_reflns_number_gt                1764
_reflns_threshold_expression     'I > 2\s(I)'
_reflns_Friedel_coverage         0.000
_reflns_Friedel_fraction_max     .
_reflns_Friedel_fraction_full    .

_reflns_special_details          
;
 Reflections were merged by SHELXL according to the crystal
 class for the calculation of statistics and refinement.
 
 _reflns_Friedel_fraction is defined as the number of unique
 Friedel pairs measured divided by the number that would be
 possible theoretically, ignoring centric projections and
 systematic absences.
;

_computing_data_collection       
;
CrysAlisPro, Agilent Technologies,
Version 1.171.36.28 (release 01-02-2013 CrysAlis171 .NET)
(compiled Feb  1 2013,16:14:44)
;
_computing_cell_refinement       
;
CrysAlisPro, Agilent Technologies,
Version 1.171.36.28 (release 01-02-2013 CrysAlis171 .NET)
(compiled Feb  1 2013,16:14:44)
;
_computing_data_reduction        
;
CrysAlisPro, Agilent Technologies,
Version 1.171.36.28 (release 01-02-2013 CrysAlis171 .NET)
(compiled Feb  1 2013,16:14:44)
;
_computing_structure_solution    'SHELXS-97 (Sheldrick, 1997)'
_computing_structure_refinement  'SHELXL-2014 (Sheldrick, 2014)'
_computing_molecular_graphics    ?
_computing_publication_material  ?

_refine_special_details          
;
 ?
;
_refine_ls_structure_factor_coef Fsqd
_refine_ls_matrix_type           full
_refine_ls_weighting_scheme      calc
_refine_ls_weighting_details     
'w=1/[\s^2^(Fo^2^)+(0.1502P)^2^+3.2764P] where P=(Fo^2^+2Fc^2^)/3'
_atom_sites_solution_primary     ?
_atom_sites_solution_secondary   ?
_atom_sites_solution_hydrogens   mixed
_refine_ls_hydrogen_treatment    constr
_refine_ls_extinction_method     none
_refine_ls_extinction_coef       .
_refine_ls_number_reflns         2184
_refine_ls_number_parameters     188
_refine_ls_number_restraints     8
_refine_ls_R_factor_all          0.1068
_refine_ls_R_factor_gt           0.0929
_refine_ls_wR_factor_ref         0.2642
_refine_ls_wR_factor_gt          0.2493
_refine_ls_goodness_of_fit_ref   1.052
_refine_ls_restrained_S_all      1.055
_refine_ls_shift/su_max          0.000
_refine_ls_shift/su_mean         0.000

loop_
_atom_site_label
_atom_site_type_symbol
_atom_site_fract_x
_atom_site_fract_y
_atom_site_fract_z
_atom_site_U_iso_or_equiv
_atom_site_adp_type
_atom_site_occupancy
_atom_site_site_symmetry_order
_atom_site_calc_flag
_atom_site_refinement_flags_posn
_atom_site_refinement_flags_adp
_atom_site_refinement_flags_occupancy
_atom_site_disorder_assembly
_atom_site_disorder_group
Cu1 Cu 1.0000 0.5000 0.5000 0.0535(5) Uani 1 2 d S . P . .
O1 O 0.7653(5) 0.8454(3) 0.4145(6) 0.0656(12) Uani 1 1 d . . . . .
O2 O 0.8817(4) 0.9364(3) 0.7394(5) 0.0641(12) Uani 1 1 d . . . . .
O3 O 0.7843(5) 1.0217(3) 0.8731(5) 0.0607(11) Uani 1 1 d . . . . .
O4 O 0.5142(5) 0.8130(4) 0.7691(6) 0.0775(15) Uani 1 1 d D . . . .
N1 N 0.9385(5) 0.6080(3) 0.5899(6) 0.0556(13) Uani 1 1 d . . . . .
N2 N 1.0305(6) 0.6554(4) 0.7100(7) 0.0691(16) Uani 1 1 d . . . . .
N3 N 0.8109(5) 0.7186(3) 0.6282(6) 0.0565(13) Uani 1 1 d . . . . .
N4 N 0.6985(5) 0.7830(3) 0.6022(6) 0.0546(12) Uani 1 1 d . . . . .
H4 H 0.6316 0.7807 0.6466 0.066 Uiso 1 1 calc R U . . .
N5 N 0.2944(7) 0.8896(6) 0.7062(8) 0.0631(19) Uani 0.7 1 d D . P A 1
C1 C 0.8081(7) 0.6453(4) 0.5430(7) 0.0566(15) Uani 1 1 d . . . . .
H1 H 0.7240 0.6243 0.4615 0.068 Uiso 1 1 calc R U . . .
C2 C 0.9517(7) 0.7240(5) 0.7303(8) 0.0671(18) Uani 1 1 d . . . . .
H2 H 0.9875 0.7701 0.8046 0.080 Uiso 1 1 calc R U . . .
C3 C 0.6987(7) 0.8503(4) 0.5026(7) 0.0532(14) Uani 1 1 d . . . . .
C4 C 0.5961(6) 0.9283(4) 0.5033(7) 0.0478(13) Uani 1 1 d . . . . .
C5 C 0.6333(6) 0.9907(4) 0.6247(7) 0.0481(13) Uani 1 1 d . . . . .
C6 C 0.5341(6) 1.0614(4) 0.6165(7) 0.0473(13) Uani 1 1 d . . . . .
H6 H 0.5574 1.1041 0.6968 0.057 Uiso 1 1 calc R U . . .
C7 C 0.7800(8) 0.9819(4) 0.7530(7) 0.0572(16) Uani 1 1 d . . . . .
C8 C 0.3467(16) 0.9417(11) 0.8421(14) 0.108(4) Uani 0.7 1 d D . P A 1
H8A H 0.3161 0.9108 0.9183 0.162 Uiso 0.7 1 d R U P A 1
H8B H 0.3041 1.0032 0.8252 0.162 Uiso 0.7 1 d R U P A 1
H8C H 0.4560 0.9457 0.8772 0.162 Uiso 0.7 1 d R U P A 1
C9 C 0.1535(7) 0.9151(6) 0.5981(10) 0.088(2) Uani 1 1 d D . . . .
H9A H 0.1203 0.8660 0.5238 0.133 Uiso 1 1 d R U . A .
H9B H 0.1624 0.9719 0.5474 0.133 Uiso 1 1 d R U . . .
H9C H 0.0804 0.9233 0.6484 0.133 Uiso 1 1 d R U . . .
C10 C 0.3860(9) 0.8316(7) 0.6769(11) 0.067(2) Uani 0.7 1 d D . P A 1
H10 H 0.3535 0.8000 0.5836 0.081 Uiso 0.7 1 d R U P A 1
N5' N 0.2783(16) 0.8524(12) 0.635(2) 0.0631(19) Uani 0.3 1 d D . P A 2
C8' C 0.286(4) 0.7688(18) 0.561(4) 0.108(4) Uani 0.3 1 d D . P A 2
H8'1 H 0.3792 0.7371 0.6169 0.162 Uiso 0.3 1 calc R U P A 2
H8'2 H 0.2832 0.7817 0.4585 0.162 Uiso 0.3 1 calc R U P A 2
H8'3 H 0.2006 0.7302 0.5564 0.162 Uiso 0.3 1 calc R U P A 2
C10' C 0.4029(16) 0.8599(15) 0.753(2) 0.067(2) Uani 0.3 1 d D . P A 2
H10' H 0.4066 0.9033 0.8287 0.081 Uiso 0.3 1 calc R U P A 2

loop_
_atom_site_aniso_label
_atom_site_aniso_U_11
_atom_site_aniso_U_22
_atom_site_aniso_U_33
_atom_site_aniso_U_23
_atom_site_aniso_U_13
_atom_site_aniso_U_12
Cu1 0.0359(7) 0.0473(7) 0.0614(9) -0.0057(5) -0.0033(5) 0.0109(4)
O1 0.060(3) 0.058(3) 0.080(3) 0.005(2) 0.025(2) 0.014(2)
O2 0.034(2) 0.066(3) 0.076(3) 0.002(2) -0.0001(19) 0.0075(19)
O3 0.047(2) 0.063(2) 0.059(3) 0.002(2) 0.0024(19) -0.0084(19)
O4 0.050(3) 0.076(3) 0.104(4) 0.019(3) 0.023(3) 0.014(2)
N1 0.041(2) 0.046(2) 0.065(3) -0.009(2) -0.002(2) 0.009(2)
N2 0.052(3) 0.056(3) 0.087(4) -0.008(3) 0.008(3) 0.014(2)
N3 0.046(3) 0.046(3) 0.071(3) 0.002(2) 0.014(2) 0.011(2)
N4 0.045(3) 0.046(3) 0.070(3) 0.007(2) 0.018(2) 0.016(2)
N5 0.044(4) 0.085(6) 0.057(5) -0.001(4) 0.014(4) 0.011(4)
C1 0.046(3) 0.044(3) 0.069(4) -0.002(3) 0.007(3) 0.009(2)
C2 0.051(3) 0.056(4) 0.083(5) -0.007(3) 0.008(3) 0.009(3)
C3 0.044(3) 0.049(3) 0.058(3) -0.002(3) 0.008(3) 0.005(2)
C4 0.037(3) 0.043(3) 0.059(3) 0.001(2) 0.011(2) 0.002(2)
C5 0.036(3) 0.046(3) 0.055(3) 0.006(2) 0.006(2) -0.001(2)
C6 0.039(3) 0.040(3) 0.056(3) -0.004(2) 0.007(2) -0.003(2)
C7 0.058(4) 0.049(3) 0.057(4) -0.002(3) 0.011(3) -0.016(3)
C8 0.089(8) 0.145(13) 0.090(8) -0.007(8) 0.031(7) 0.031(8)
C9 0.050(4) 0.092(6) 0.118(7) 0.021(5) 0.023(4) 0.009(4)
C10 0.061(6) 0.074(7) 0.069(7) -0.005(5) 0.026(6) 0.001(5)
N5' 0.044(4) 0.085(6) 0.057(5) -0.001(4) 0.014(4) 0.011(4)
C8' 0.089(8) 0.145(13) 0.090(8) -0.007(8) 0.031(7) 0.031(8)
C10' 0.061(6) 0.074(7) 0.069(7) -0.005(5) 0.026(6) 0.001(5)

_geom_special_details            
;
 All esds (except the esd in the dihedral angle between two l.s. planes)
 are estimated using the full covariance matrix.  The cell esds are taken
 into account individually in the estimation of esds in distances, angles
 and torsion angles; correlations between esds in cell parameters are only
 used when they are defined by crystal symmetry.  An approximate (isotropic)
 treatment of cell esds is used for estimating esds involving l.s. planes.
;

loop_
_geom_bond_atom_site_label_1
_geom_bond_atom_site_label_2
_geom_bond_distance
_geom_bond_site_symmetry_2
_geom_bond_publ_flag
Cu1 N1 1.983(5) 3_766 ?
Cu1 N1 1.983(5) . ?
Cu1 O3 2.015(4) 2_746 ?
Cu1 O3 2.015(4) 4_575 ?
O1 C3 1.215(8) . ?
O2 C7 1.221(8) . ?
O3 C7 1.268(8) . ?
O3 Cu1 2.015(4) 2_756 ?
O4 C10' 1.230(10) . ?
O4 C10 1.261(8) . ?
N1 C1 1.289(7) . ?
N1 N2 1.361(8) . ?
N2 C2 1.310(8) . ?
N3 C1 1.339(8) . ?
N3 C2 1.357(8) . ?
N3 N4 1.386(6) . ?
N4 C3 1.367(8) . ?
N4 H4 0.8800 . ?
N5 C10 1.317(8) . ?
N5 C9 1.427(8) . ?
N5 C8 1.430(9) . ?
C1 H1 0.9500 . ?
C2 H2 0.9500 . ?
C3 C4 1.508(8) . ?
C4 C6 1.368(8) 3_676 ?
C4 C5 1.415(8) . ?
C5 C6 1.389(8) . ?
C5 C7 1.506(9) . ?
C6 C4 1.368(8) 3_676 ?
C6 H6 0.9500 . ?
C8 H8A 0.9799 . ?
C8 H8B 0.9799 . ?
C8 H8C 0.9801 . ?
C9 N5' 1.448(9) . ?
C9 H9A 0.9799 . ?
C9 H9B 0.9800 . ?
C9 H9C 0.9801 . ?
C10 H10 0.9499 . ?
N5' C10' 1.323(10) . ?
N5' C8' 1.429(10) . ?
C8' H8'1 0.9800 . ?
C8' H8'2 0.9800 . ?
C8' H8'3 0.9800 . ?
C10' H10' 0.9500 . ?

loop_
_geom_angle_atom_site_label_1
_geom_angle_atom_site_label_2
_geom_angle_atom_site_label_3
_geom_angle
_geom_angle_site_symmetry_1
_geom_angle_site_symmetry_3
_geom_angle_publ_flag
N1 Cu1 N1 180.0(3) 3_766 . ?
N1 Cu1 O3 89.34(19) 3_766 2_746 ?
N1 Cu1 O3 90.66(19) . 2_746 ?
N1 Cu1 O3 90.66(19) 3_766 4_575 ?
N1 Cu1 O3 89.34(19) . 4_575 ?
O3 Cu1 O3 180.0 2_746 4_575 ?
C7 O3 Cu1 99.7(4) . 2_756 ?
C1 N1 N2 109.6(5) . . ?
C1 N1 Cu1 125.9(4) . . ?
N2 N1 Cu1 124.5(4) . . ?
C2 N2 N1 106.2(5) . . ?
C1 N3 C2 106.5(5) . . ?
C1 N3 N4 126.0(5) . . ?
C2 N3 N4 126.9(5) . . ?
C3 N4 N3 115.3(5) . . ?
C3 N4 H4 122.3 . . ?
N3 N4 H4 122.3 . . ?
C10 N5 C9 123.1(7) . . ?
C10 N5 C8 119.1(8) . . ?
C9 N5 C8 116.9(9) . . ?
N1 C1 N3 108.6(5) . . ?
N1 C1 H1 125.7 . . ?
N3 C1 H1 125.7 . . ?
N2 C2 N3 109.1(6) . . ?
N2 C2 H2 125.5 . . ?
N3 C2 H2 125.5 . . ?
O1 C3 N4 123.9(5) . . ?
O1 C3 C4 123.0(6) . . ?
N4 C3 C4 112.8(5) . . ?
C6 C4 C5 120.1(5) 3_676 . ?
C6 C4 C3 118.9(5) 3_676 . ?
C5 C4 C3 121.0(5) . . ?
C6 C5 C4 117.7(5) . . ?
C6 C5 C7 122.2(6) . . ?
C4 C5 C7 120.0(5) . . ?
C4 C6 C5 122.2(5) 3_676 . ?
C4 C6 H6 118.9 3_676 . ?
C5 C6 H6 118.9 . . ?
O2 C7 O3 124.7(6) . . ?
O2 C7 C5 120.7(6) . . ?
O3 C7 C5 114.5(6) . . ?
N5 C8 H8A 108.5 . . ?
N5 C8 H8B 110.5 . . ?
H8A C8 H8B 109.5 . . ?
N5 C8 H8C 109.5 . . ?
H8A C8 H8C 109.5 . . ?
H8B C8 H8C 109.5 . . ?
N5 C9 H9A 108.1 . . ?
N5' C9 H9A 74.9 . . ?
N5 C9 H9B 110.7 . . ?
N5' C9 H9B 116.9 . . ?
H9A C9 H9B 109.5 . . ?
N5 C9 H9C 109.6 . . ?
N5' C9 H9C 128.7 . . ?
H9A C9 H9C 109.5 . . ?
H9B C9 H9C 109.5 . . ?
O4 C10 N5 123.3(8) . . ?
O4 C10 H10 117.5 . . ?
N5 C10 H10 119.2 . . ?
C10' N5' C8' 107.6(17) . . ?
C10' N5' C9 124.9(12) . . ?
C8' N5' C9 127.3(18) . . ?
N5' C8' H8'1 109.5 . . ?
N5' C8' H8'2 109.5 . . ?
H8'1 C8' H8'2 109.5 . . ?
N5' C8' H8'3 109.5 . . ?
H8'1 C8' H8'3 109.5 . . ?
H8'2 C8' H8'3 109.5 . . ?
O4 C10' N5' 122.7(15) . . ?
O4 C10' H10' 118.6 . . ?
N5' C10' H10' 118.6 . . ?

_refine_diff_density_max         1.547
_refine_diff_density_min         -0.839
_refine_diff_density_rms         0.118

_shelxl_version_number           2014-3

_shelx_res_file                  
;
?
;
_shelx_res_checksum              ?

_shelx_hkl_file                  
;
   0   0   0    0.00    0.00   0
;
_shelx_hkl_checksum              ?

