####################################################################### 
# 
# This file contains crystal structure data downloaded from the 
# Cambridge Structural Database (CSD) hosted by the Cambridge 
# Crystallographic Data Centre (CCDC).
# 
# Full information about CCDC data access policies and citation 
# guidelines are available at http://www.ccdc.cam.ac.uk/access/V1 
# 
# Audit and citation data items may have been added by the CCDC. 
# Please retain this information to preserve the provenance of 
# this file and to allow appropriate attribution of the data. 
# 
#######################################################################

data_a
_audit_block_doi                 10.5517/cc11jfpp
_database_code_depnum_ccdc_archive 'CCDC 969112'
loop_
_citation_id
_citation_doi
_citation_year
1 10.1016/j.poly.2014.12.001 2015
_audit_update_record             
;
2013-10-29 deposited with the CCDC.	2024-07-12 downloaded from the CCDC.
;

_audit_creation_method           SHELXL-97
_chemical_name_systematic        
; 
 ? 
;
_chemical_name_common            ?
_chemical_melting_point          ?
_chemical_formula_moiety         ?
_chemical_formula_sum            'C40 H50 N20 O19 Zn2'
_chemical_formula_weight         1245.74

loop_
_atom_type_symbol
_atom_type_description
_atom_type_scat_dispersion_real
_atom_type_scat_dispersion_imag
_atom_type_scat_source
C C 0.0033 0.0016 'International Tables Vol C Tables 4.2.6.8 and 6.1.1.4'
H H 0.0000 0.0000 'International Tables Vol C Tables 4.2.6.8 and 6.1.1.4'
N N 0.0061 0.0033 'International Tables Vol C Tables 4.2.6.8 and 6.1.1.4'
O O 0.0106 0.0060 'International Tables Vol C Tables 4.2.6.8 and 6.1.1.4'
Zn Zn 0.2839 1.4301 'International Tables Vol C Tables 4.2.6.8 and 6.1.1.4'

_symmetry_cell_setting           Monoclinic
_symmetry_space_group_name_H-M   P2(1)/c

loop_
_symmetry_equiv_pos_as_xyz
'x, y, z'
'-x, y+1/2, -z+1/2'
'-x, -y, -z'
'x, -y-1/2, z-1/2'

_cell_length_a                   18.2477(3)
_cell_length_b                   14.1976(2)
_cell_length_c                   10.3265(2)
_cell_angle_alpha                90.00
_cell_angle_beta                 93.7590(10)
_cell_angle_gamma                90.00
_cell_volume                     2669.57(8)
_cell_formula_units_Z            2
_cell_measurement_temperature    173(2)
_cell_measurement_reflns_used    5081
_cell_measurement_theta_min      3.0890
_cell_measurement_theta_max      73.1610

_exptl_crystal_description       block
_exptl_crystal_colour            colorless
_exptl_crystal_size_max          0.4000
_exptl_crystal_size_mid          0.2000
_exptl_crystal_size_min          0.2000
_exptl_crystal_density_meas      ?
_exptl_crystal_density_diffrn    1.550
_exptl_crystal_density_method    'not measured'
_exptl_crystal_F_000             1284
_exptl_absorpt_coefficient_mu    0.990
_exptl_absorpt_correction_type   multi-scan
_exptl_absorpt_correction_T_min  0.96474
_exptl_absorpt_correction_T_max  1.00000
_exptl_absorpt_process_details   ?

_exptl_special_details           
; 
 ? 
;

_diffrn_ambient_temperature      173(2)
_diffrn_radiation_wavelength     0.71073
_diffrn_radiation_type           MoK\a
_diffrn_radiation_source         'fine-focus sealed tube'
_diffrn_radiation_monochromator  graphite
_diffrn_measurement_device_type  'SuperNova, Dual, Cu at zero, Atlas'
_diffrn_measurement_method       'phi and omega scans'
_diffrn_detector_area_resol_mean 10.5594
_diffrn_standards_number         ?
_diffrn_standards_interval_count ?
_diffrn_standards_interval_time  ?
_diffrn_standards_decay_%        ?
_diffrn_reflns_number            9900
_diffrn_reflns_av_R_equivalents  0.0209
_diffrn_reflns_av_sigmaI/netI    0.0283
_diffrn_reflns_limit_h_min       -13
_diffrn_reflns_limit_h_max       22
_diffrn_reflns_limit_k_min       -17
_diffrn_reflns_limit_k_max       12
_diffrn_reflns_limit_l_min       -9
_diffrn_reflns_limit_l_max       12
_diffrn_reflns_theta_min         1.82
_diffrn_reflns_theta_max         26.18
_reflns_number_total             5190
_reflns_number_gt                4535
_reflns_threshold_expression     >2sigma(I)

_computing_data_collection       ?
_computing_cell_refinement       ?
_computing_data_reduction        ?
_computing_structure_solution    'SHELXS-97 (Sheldrick, 1990)'
_computing_structure_refinement  'SHELXL-97 (Sheldrick, 1997)'
_computing_molecular_graphics    ?
_computing_publication_material  ?

_refine_special_details          
; 
 Refinement of F^2^ against ALL reflections.  The weighted R-factor wR and 
 goodness of fit S are based on F^2^, conventional R-factors R are based 
 on F, with F set to zero for negative F^2^. The threshold expression of 
 F^2^ > 2sigma(F^2^) is used only for calculating R-factors(gt) etc. and is 
 not relevant to the choice of reflections for refinement.  R-factors based 
 on F^2^ are statistically about twice as large as those based on F, and R- 
 factors based on ALL data will be even larger. 
;

_refine_ls_structure_factor_coef Fsqd
_refine_ls_matrix_type           full
_refine_ls_weighting_scheme      calc
_refine_ls_weighting_details     
'calc w=1/[\s^2^(Fo^2^)+(0.0780P)^2^+2.6666P] where P=(Fo^2^+2Fc^2^)/3'
_atom_sites_solution_primary     direct
_atom_sites_solution_secondary   difmap
_atom_sites_solution_hydrogens   geom
_refine_ls_hydrogen_treatment    mixed
_refine_ls_extinction_method     none
_refine_ls_extinction_coef       ?
_refine_ls_number_reflns         5190
_refine_ls_number_parameters     382
_refine_ls_number_restraints     1
_refine_ls_R_factor_all          0.0517
_refine_ls_R_factor_gt           0.0454
_refine_ls_wR_factor_ref         0.1326
_refine_ls_wR_factor_gt          0.1266
_refine_ls_goodness_of_fit_ref   1.039
_refine_ls_restrained_S_all      1.039
_refine_ls_shift/su_max          0.001
_refine_ls_shift/su_mean         0.000

loop_
_atom_site_label
_atom_site_type_symbol
_atom_site_fract_x
_atom_site_fract_y
_atom_site_fract_z
_atom_site_U_iso_or_equiv
_atom_site_adp_type
_atom_site_occupancy
_atom_site_symmetry_multiplicity
_atom_site_calc_flag
_atom_site_refinement_flags
_atom_site_disorder_assembly
_atom_site_disorder_group
Zn1 Zn 0.239270(18) 0.98943(2) 0.21948(3) 0.02996(13) Uani 1 1 d U . .
N3 N -0.20073(11) 0.58433(15) 0.4167(2) 0.0201(4) Uani 1 1 d . . .
O1 O 0.17313(10) 1.07394(14) 0.36763(18) 0.0261(4) Uani 1 1 d . . .
N1 N -0.08845(12) 0.76827(15) 0.5335(2) 0.0215(4) Uani 1 1 d . . .
H1A H -0.0512 0.7659 0.5920 0.026 Uiso 1 1 calc R . .
O3 O -0.14514(11) 0.84439(14) 0.36111(19) 0.0295(4) Uani 1 1 d . . .
O2 O 0.14459(10) 0.93372(15) 0.2873(2) 0.0299(4) Uani 1 1 d . . .
N2 N -0.13832(12) 0.69514(15) 0.5155(2) 0.0209(4) Uani 1 1 d . . .
O4 O 0.31025(12) 0.94316(19) 0.3862(3) 0.0489(6) Uani 1 1 d U . .
O6 O 0.35131(13) 0.88113(19) 0.6677(2) 0.0461(6) Uani 1 1 d . . .
N4 N -0.23607(12) 0.60737(17) 0.5280(2) 0.0247(5) Uani 1 1 d . . .
C3 C 0.01537(14) 0.92636(18) 0.4169(2) 0.0213(5) Uani 1 1 d . . .
H3 H 0.0258 0.8760 0.3605 0.026 Uiso 1 1 calc R . .
C2 C 0.06437(14) 1.00142(18) 0.4335(2) 0.0200(5) Uani 1 1 d . . .
N7 N 0.26870(14) 0.61978(18) 0.6067(2) 0.0307(5) Uani 1 1 d . . .
C6 C -0.14259(14) 0.63754(18) 0.4118(2) 0.0213(5) Uani 1 1 d . . .
H6 H -0.1088 0.6358 0.3457 0.026 Uiso 1 1 calc R . .
C5 C -0.10109(13) 0.84447(18) 0.4541(2) 0.0217(5) Uani 1 1 d . . .
C10 C 0.44531(15) 0.93988(19) 0.5344(3) 0.0280(6) Uani 1 1 d . . .
N6 N 0.33193(14) 0.72826(18) 0.5218(3) 0.0336(6) Uani 1 1 d . . .
C1 C 0.13221(14) 1.00324(19) 0.3589(3) 0.0231(5) Uani 1 1 d . . .
C4 C -0.04866(13) 0.92495(17) 0.4828(2) 0.0190(5) Uani 1 1 d . . .
C13 C 0.33471(17) 0.6565(2) 0.6055(3) 0.0332(6) Uani 1 1 d . . .
H13 H 0.3771 0.6355 0.6555 0.040 Uiso 1 1 calc R . .
O5 O 0.34601(13) 1.0556(2) 0.2658(3) 0.0506(6) Uani 1 1 d . . .
C7 C -0.19825(14) 0.6758(2) 0.5835(2) 0.0244(5) Uani 1 1 d . . .
H7 H -0.2105 0.7075 0.6601 0.029 Uiso 1 1 calc R . .
N5 N 0.38880(14) 0.79005(18) 0.5046(3) 0.0351(6) Uani 1 1 d . . .
H5A H 0.4230 0.7782 0.4506 0.042 Uiso 1 1 calc R . .
C11 C 0.51267(15) 0.9381(2) 0.6030(3) 0.0292(6) Uani 1 1 d . . .
H11 H 0.5210 0.8958 0.6736 0.035 Uiso 1 1 calc R . .
N8 N 0.22056(16) 0.6709(2) 0.5244(3) 0.0401(6) Uani 1 1 d . . .
C9 C 0.43151(16) 1.0016(2) 0.4310(3) 0.0293(6) Uani 1 1 d . . .
C14 C 0.2603(2) 0.7367(3) 0.4745(3) 0.0412(7) Uani 1 1 d . . .
H14 H 0.2423 0.7832 0.4144 0.049 Uiso 1 1 calc R . .
C12 C 0.38866(16) 0.8705(2) 0.5762(3) 0.0348(7) Uani 1 1 d . . .
C8 C 0.35763(19) 1.0005(2) 0.3563(4) 0.0406(8) Uani 1 1 d . . .
O8 O 0.00093(11) 0.80126(15) 0.75168(19) 0.0295(4) Uani 1 1 d . . .
O9 O 0.36869(15) 1.0005(2) 0.8850(3) 0.0537(7) Uani 1 1 d . . .
O7 O 0.47387(12) 0.79654(18) 0.2927(2) 0.0410(5) Uani 1 1 d . . .
N10 N 0.10381(13) 0.89308(18) 0.7629(2) 0.0315(5) Uani 1 1 d . . .
C18 C 0.06361(16) 0.8214(2) 0.7189(3) 0.0308(6) Uani 1 1 d . . .
H18A H 0.0842 0.7817 0.6568 0.037 Uiso 1 1 calc R . .
N9 N 0.59297(15) 0.7879(2) 0.3714(3) 0.0374(6) Uani 1 1 d . . .
C15 C 0.53824(17) 0.8227(2) 0.2951(3) 0.0353(7) Uani 1 1 d . . .
H15A H 0.5497 0.8719 0.2374 0.042 Uiso 1 1 calc R . .
C19 C 0.07734(19) 0.9561(3) 0.8600(3) 0.0420(8) Uani 1 1 d . . .
H19A H 0.0256 0.9423 0.8723 0.063 Uiso 1 1 calc R . .
H19B H 0.0821 1.0214 0.8311 0.063 Uiso 1 1 calc R . .
H19C H 0.1064 0.9471 0.9423 0.063 Uiso 1 1 calc R . .
C20 C 0.17608(17) 0.9138(3) 0.7162(4) 0.0416(8) Uani 1 1 d . . .
H20A H 0.1894 0.8644 0.6558 0.062 Uiso 1 1 calc R . .
H20B H 0.2127 0.9160 0.7900 0.062 Uiso 1 1 calc R . .
H20C H 0.1745 0.9747 0.6716 0.062 Uiso 1 1 calc R . .
C17 C 0.6679(2) 0.8223(3) 0.3666(4) 0.0548(10) Uani 1 1 d . . .
H17A H 0.6686 0.8757 0.3066 0.082 Uiso 1 1 calc R . .
H17B H 0.6992 0.7718 0.3366 0.082 Uiso 1 1 calc R . .
H17C H 0.6863 0.8426 0.4535 0.082 Uiso 1 1 calc R . .
C16 C 0.5822(2) 0.7118(3) 0.4604(4) 0.0611(12) Uani 1 1 d . . .
H16A H 0.5302 0.6941 0.4557 0.092 Uiso 1 1 calc R . .
H16B H 0.5973 0.7321 0.5489 0.092 Uiso 1 1 calc R . .
H16C H 0.6118 0.6575 0.4372 0.092 Uiso 1 1 calc R . .
O10 O 0.4800(3) 0.9614(6) 1.0616(7) 0.076(2) Uani 0.50 1 d P . .
H9A H 0.362(3) 0.952(4) 0.813(6) 0.095(19) Uiso 1 1 d . . .
H9B H 0.324(4) 1.022(4) 0.919(6) 0.10(2) Uiso 1 1 d . . .

loop_
_atom_site_aniso_label
_atom_site_aniso_U_11
_atom_site_aniso_U_22
_atom_site_aniso_U_33
_atom_site_aniso_U_23
_atom_site_aniso_U_13
_atom_site_aniso_U_12
Zn1 0.0257(2) 0.0326(2) 0.0316(2) 0.00432(13) 0.00206(14) 0.00656(13)
N3 0.0204(10) 0.0215(10) 0.0183(10) 0.0001(8) 0.0012(8) -0.0032(8)
O1 0.0226(9) 0.0289(10) 0.0270(9) 0.0057(8) 0.0039(7) -0.0024(8)
N1 0.0205(10) 0.0198(10) 0.0232(10) -0.0003(8) -0.0056(8) -0.0085(8)
O3 0.0305(10) 0.0298(10) 0.0269(10) 0.0052(8) -0.0075(8) -0.0099(8)
O2 0.0217(9) 0.0357(11) 0.0329(10) -0.0085(9) 0.0054(8) -0.0012(8)
N2 0.0210(10) 0.0208(10) 0.0207(10) 0.0014(8) 0.0000(8) -0.0049(8)
O4 0.0236(11) 0.0491(15) 0.0719(17) -0.0179(13) -0.0135(11) 0.0012(10)
O6 0.0401(12) 0.0510(14) 0.0495(14) -0.0239(12) 0.0204(11) -0.0150(11)
N4 0.0232(11) 0.0302(12) 0.0210(11) 0.0015(9) 0.0024(8) -0.0040(9)
C3 0.0216(12) 0.0215(12) 0.0203(12) -0.0005(9) -0.0012(9) -0.0004(9)
C2 0.0181(11) 0.0235(12) 0.0179(12) 0.0030(9) -0.0018(9) -0.0008(9)
N7 0.0326(12) 0.0326(13) 0.0270(12) -0.0040(10) 0.0034(9) -0.0158(10)
C6 0.0209(11) 0.0217(12) 0.0212(12) 0.0013(10) 0.0009(9) -0.0032(10)
C5 0.0219(12) 0.0210(12) 0.0219(12) -0.0008(10) -0.0003(9) -0.0048(10)
C10 0.0231(13) 0.0201(12) 0.0409(16) -0.0082(11) 0.0042(11) -0.0026(10)
N6 0.0355(13) 0.0300(13) 0.0366(13) -0.0091(10) 0.0123(11) -0.0153(10)
C1 0.0188(12) 0.0300(14) 0.0202(12) 0.0040(10) -0.0021(10) 0.0012(10)
C4 0.0187(11) 0.0186(11) 0.0190(11) 0.0028(9) -0.0031(9) -0.0034(9)
C13 0.0337(15) 0.0302(15) 0.0368(15) -0.0063(12) 0.0099(12) -0.0105(12)
O5 0.0360(13) 0.0552(16) 0.0588(16) 0.0050(13) -0.0100(11) 0.0031(11)
C7 0.0228(12) 0.0317(14) 0.0188(12) -0.0004(10) 0.0018(9) -0.0044(10)
N5 0.0348(13) 0.0284(13) 0.0443(15) -0.0112(11) 0.0197(11) -0.0150(10)
C11 0.0271(13) 0.0227(13) 0.0375(15) -0.0003(11) -0.0001(11) 0.0035(10)
N8 0.0406(14) 0.0431(15) 0.0362(14) 0.0026(12) -0.0015(11) -0.0204(12)
C9 0.0213(13) 0.0268(14) 0.0393(16) -0.0076(11) -0.0022(11) 0.0027(10)
C14 0.0477(19) 0.0403(17) 0.0353(16) 0.0022(14) -0.0002(13) -0.0178(15)
C12 0.0290(14) 0.0312(15) 0.0453(17) -0.0108(13) 0.0099(13) -0.0085(12)
C8 0.0346(17) 0.0382(17) 0.048(2) -0.0118(15) -0.0052(15) 0.0135(14)
O8 0.0260(9) 0.0358(11) 0.0259(9) 0.0012(8) -0.0048(7) -0.0077(8)
O9 0.0359(13) 0.0688(19) 0.0569(17) -0.0237(14) 0.0076(12) 0.0020(12)
O7 0.0343(12) 0.0507(14) 0.0390(12) -0.0065(10) 0.0101(9) 0.0020(10)
N10 0.0238(11) 0.0333(13) 0.0363(13) 0.0003(10) -0.0053(10) -0.0039(10)
C18 0.0321(14) 0.0329(15) 0.0264(13) 0.0024(11) -0.0044(11) -0.0033(12)
N9 0.0344(13) 0.0432(15) 0.0358(13) 0.0061(12) 0.0104(11) 0.0099(11)
C15 0.0376(16) 0.0387(16) 0.0307(15) 0.0001(12) 0.0122(12) 0.0059(13)
C19 0.0369(16) 0.0410(18) 0.0465(19) -0.0100(15) -0.0091(14) -0.0008(14)
C20 0.0261(14) 0.0465(19) 0.0516(19) 0.0087(16) -0.0026(13) -0.0077(13)
C17 0.0376(18) 0.070(3) 0.058(2) 0.010(2) 0.0088(16) 0.0042(18)
C16 0.057(2) 0.071(3) 0.058(2) 0.030(2) 0.0223(19) 0.024(2)
O10 0.044(3) 0.101(5) 0.082(5) 0.018(4) -0.004(3) 0.007(3)

_geom_special_details            
; 
 All esds (except the esd in the dihedral angle between two l.s. planes) 
 are estimated using the full covariance matrix.  The cell esds are taken 
 into account individually in the estimation of esds in distances, angles 
 and torsion angles; correlations between esds in cell parameters are only 
 used when they are defined by crystal symmetry.  An approximate (isotropic) 
 treatment of cell esds is used for estimating esds involving l.s. planes. 
;

loop_
_geom_bond_atom_site_label_1
_geom_bond_atom_site_label_2
_geom_bond_distance
_geom_bond_site_symmetry_2
_geom_bond_publ_flag
Zn1 N7 2.032(2) 4_575 ?
Zn1 N3 2.039(2) 2 ?
Zn1 O2 2.0639(19) . ?
Zn1 O4 2.186(3) . ?
Zn1 O5 2.187(3) . ?
Zn1 O1 2.3407(19) . ?
Zn1 C8 2.507(3) . ?
Zn1 C1 2.509(3) . ?
N3 C6 1.306(3) . ?
N3 N4 1.393(3) . ?
N3 Zn1 2.039(2) 2_545 ?
O1 C1 1.251(3) . ?
N1 C5 1.368(3) . ?
N1 N2 1.385(3) . ?
N1 H1A 0.8800 . ?
O3 C5 1.211(3) . ?
O2 C1 1.262(3) . ?
N2 C6 1.346(3) . ?
N2 C7 1.366(3) . ?
O4 C8 1.241(5) . ?
O6 C12 1.211(4) . ?
N4 C7 1.302(4) . ?
C3 C4 1.390(4) . ?
C3 C2 1.394(4) . ?
C3 H3 0.9500 . ?
C2 C4 1.398(4) 3_576 ?
C2 C1 1.500(4) . ?
N7 C13 1.313(4) . ?
N7 N8 1.387(4) . ?
N7 Zn1 2.032(2) 4_576 ?
C6 H6 0.9500 . ?
C5 C4 1.507(3) . ?
C10 C11 1.378(4) . ?
C10 C9 1.392(4) . ?
C10 C12 1.511(4) . ?
N6 C13 1.335(4) . ?
N6 C14 1.370(5) . ?
N6 N5 1.380(3) . ?
C4 C2 1.398(4) 3_576 ?
C13 H13 0.9500 . ?
O5 C8 1.227(5) . ?
C7 H7 0.9500 . ?
N5 C12 1.361(4) . ?
N5 H5A 0.8800 . ?
C11 C9 1.392(4) 3_676 ?
C11 H11 0.9500 . ?
N8 C14 1.309(4) . ?
C9 C11 1.392(4) 3_676 ?
C9 C8 1.509(4) . ?
C14 H14 0.9500 . ?
O8 C18 1.247(4) . ?
O9 H9A 1.02(6) . ?
O9 H9B 0.96(7) . ?
O7 C15 1.230(4) . ?
N10 C18 1.317(4) . ?
N10 C19 1.450(4) . ?
N10 C20 1.463(4) . ?
C18 H18A 0.9500 . ?
N9 C15 1.326(4) . ?
N9 C16 1.440(5) . ?
N9 C17 1.455(5) . ?
C15 H15A 0.9500 . ?
C19 H19A 0.9800 . ?
C19 H19B 0.9800 . ?
C19 H19C 0.9800 . ?
C20 H20A 0.9800 . ?
C20 H20B 0.9800 . ?
C20 H20C 0.9800 . ?
C17 H17A 0.9800 . ?
C17 H17B 0.9800 . ?
C17 H17C 0.9800 . ?
C16 H16A 0.9800 . ?
C16 H16B 0.9800 . ?
C16 H16C 0.9800 . ?

loop_
_geom_angle_atom_site_label_1
_geom_angle_atom_site_label_2
_geom_angle_atom_site_label_3
_geom_angle
_geom_angle_site_symmetry_1
_geom_angle_site_symmetry_3
_geom_angle_publ_flag
N7 Zn1 N3 101.61(9) 4_575 2 ?
N7 Zn1 O2 99.24(9) 4_575 . ?
N3 Zn1 O2 103.22(8) 2 . ?
N7 Zn1 O4 93.25(9) 4_575 . ?
N3 Zn1 O4 154.33(9) 2 . ?
O2 Zn1 O4 94.79(9) . . ?
N7 Zn1 O5 100.84(11) 4_575 . ?
N3 Zn1 O5 97.42(9) 2 . ?
O2 Zn1 O5 147.52(9) . . ?
O4 Zn1 O5 58.91(10) . . ?
N7 Zn1 O1 158.82(9) 4_575 . ?
N3 Zn1 O1 86.72(8) 2 . ?
O2 Zn1 O1 59.71(7) . . ?
O4 Zn1 O1 86.77(8) . . ?
O5 Zn1 O1 97.28(9) . . ?
N7 Zn1 C8 96.92(10) 4_575 . ?
N3 Zn1 C8 126.36(11) 2 . ?
O2 Zn1 C8 122.82(11) . . ?
O4 Zn1 C8 29.66(11) . . ?
O5 Zn1 C8 29.29(11) . . ?
O1 Zn1 C8 93.53(9) . . ?
N7 Zn1 C1 129.29(10) 4_575 . ?
N3 Zn1 C1 95.61(8) 2 . ?
O2 Zn1 C1 30.08(8) . . ?
O4 Zn1 C1 90.86(9) . . ?
O5 Zn1 C1 123.82(10) . . ?
O1 Zn1 C1 29.63(8) . . ?
C8 Zn1 C1 110.24(11) . . ?
C6 N3 N4 108.5(2) . . ?
C6 N3 Zn1 126.85(18) . 2_545 ?
N4 N3 Zn1 124.52(16) . 2_545 ?
C1 O1 Zn1 82.67(16) . . ?
C5 N1 N2 115.4(2) . . ?
C5 N1 H1A 122.3 . . ?
N2 N1 H1A 122.3 . . ?
C1 O2 Zn1 94.88(17) . . ?
C6 N2 C7 106.3(2) . . ?
C6 N2 N1 124.5(2) . . ?
C7 N2 N1 128.5(2) . . ?
C8 O4 Zn1 89.6(2) . . ?
C7 N4 N3 106.1(2) . . ?
C4 C3 C2 120.3(2) . . ?
C4 C3 H3 119.9 . . ?
C2 C3 H3 119.9 . . ?
C3 C2 C4 119.4(2) . 3_576 ?
C3 C2 C1 119.6(2) . . ?
C4 C2 C1 120.9(2) 3_576 . ?
C13 N7 N8 109.3(3) . . ?
C13 N7 Zn1 125.8(2) . 4_576 ?
N8 N7 Zn1 124.75(18) . 4_576 ?
N3 C6 N2 109.0(2) . . ?
N3 C6 H6 125.5 . . ?
N2 C6 H6 125.5 . . ?
O3 C5 N1 123.5(2) . . ?
O3 C5 C4 122.5(2) . . ?
N1 C5 C4 113.7(2) . . ?
C11 C10 C9 121.0(3) . . ?
C11 C10 C12 116.5(3) . . ?
C9 C10 C12 122.5(3) . . ?
C13 N6 C14 107.0(3) . . ?
C13 N6 N5 124.9(3) . . ?
C14 N6 N5 127.3(3) . . ?
O1 C1 O2 122.7(2) . . ?
O1 C1 C2 119.0(2) . . ?
O2 C1 C2 11