
#######################################################################
#
#                 Cambridge Crystallographic Data Centre
#                                CCDC
#
#######################################################################
#
# If this CIF has been generated from an entry in the Cambridge
# Structural Database, then it will include bibliographic, chemical,
# crystal, experimental, refinement or atomic coordinate data resulting
# from the CCDC's data processing and validation procedures.
#
#######################################################################

data_CSD_CIF_QQQBTP05
_audit_creation_date 2021-04-23
_audit_creation_method CSD-ConQuest-V1
_database_code_CSD QQQBTP05
_database_code_depnum_ccdc_archive 'CCDC 1943707'
_chemical_formula_sum 'C11 H12 N2 O2'
_chemical_formula_moiety
;
C11 H12 N2 O2
;
_journal_coden_Cambridge 1155
_journal_volume 14
_journal_year 2020
_journal_page_first 1694
_journal_name_full 'ACS Nano '
loop_
_publ_author_name
"S.Bera"
"Bin Xue"
"P.Rehak"
"Guy Jacoby"
"Wei Ji"
"L.J.W.Shimon"
"Roy Beck"
"Petr Kral"
"Yi Cao"
"Ehud Gazit"
_chemical_name_systematic
;
2-azaniumyl-3-(1H-indol-3-yl)propanoate
;
_chemical_name_common
;
DL-Tryptophan; Teaching Subset: Essential Nutrients
;
_cell_volume    990.406
_exptl_crystal_colour 'colorless'
_exptl_crystal_density_diffrn 1.37
_exptl_special_details
;
monoclinic polymorph

;
_exptl_crystal_description 'plate'
_diffrn_ambient_temperature 100
#These two values have been output from a single CSD field.
_refine_ls_R_factor_gt 0.0393
_refine_ls_wR_factor_gt 0.0393
_symmetry_cell_setting monoclinic
_symmetry_space_group_name_H-M 'P 21/c'
_symmetry_Int_Tables_number 14
loop_
_symmetry_equiv_pos_site_id
_symmetry_equiv_pos_as_xyz
1 x,y,z
2 -x,1/2+y,1/2-z
3 -x,-y,-z
4 x,-1/2-y,-1/2+z
_cell_length_a 18.8828(3)
_cell_length_b 5.7569(1)
_cell_length_c 9.3054(1)
_cell_angle_alpha 90
_cell_angle_beta 101.737(2)
_cell_angle_gamma 90
_cell_formula_units_Z 4
loop_
_atom_type_symbol
_atom_type_radius_bond
C 0.68
H 0.23
N 0.68
O 0.68
loop_
_atom_site_label
_atom_site_type_symbol
_atom_site_fract_x
_atom_site_fract_y
_atom_site_fract_z
O1 O 0.48012(4) 0.33718(15) 0.63137(9)
O2 O 0.37492(5) 0.19552(16) 0.50730(11)
N1 N 0.43833(5) 0.77790(17) 0.57993(11)
H1 H 0.46821 0.75087 0.51638
H2 H 0.46422 0.77173 0.67370
H3 H 0.41793 0.92098 0.56230
N2 N 0.17969(6) 0.2269(2) 0.65554(12)
H4 H 0.15830 0.10494 0.68474
C1 C 0.38040(6) 0.5979(2) 0.55931(13)
H5 H 0.34890 0.61887 0.45991
C2 C 0.41463(6) 0.3560(2) 0.56686(12)
C3 C 0.33373(6) 0.6303(2) 0.67575(13)
H6 H 0.36218 0.58202 0.77253
H7 H 0.32218 0.79729 0.68204
C4 C 0.26462(7) 0.4950(2) 0.64398(13)
C5 C 0.20210(7) 0.5446(2) 0.53115(13)
C6 C 0.18442(7) 0.7202(2) 0.42583(15)
H8 H 0.21854 0.83767 0.41654
C7 C 0.11645(8) 0.7200(3) 0.33552(15)
H9 H 0.10405 0.83852 0.26378
C8 C 0.06534(7) 0.5470(3) 0.34813(15)
H10 H 0.01905 0.55126 0.28478
C9 C 0.08117(7) 0.3707(3) 0.45103(15)
H11 H 0.04671 0.25388 0.45939
C10 C 0.14980(7) 0.3719(2) 0.54193(14)
C11 C 0.24820(7) 0.3025(2) 0.71622(14)
H12 H 0.27962 0.23114 0.79684
#END
