####################################################################### 
# 
# This file contains crystal structure data downloaded from the 
# Cambridge Structural Database (CSD) hosted by the Cambridge 
# Crystallographic Data Centre (CCDC).
# 
# Full information about CCDC data access policies and citation 
# guidelines are available at http://www.ccdc.cam.ac.uk/access/V1 
# 
# Audit and citation data items may have been added by the CCDC. 
# Please retain this information to preserve the provenance of 
# this file and to allow appropriate attribution of the data. 
# 
#######################################################################

data_1-L
_audit_block_doi                 10.5517/cc145kvq
_database_code_depnum_ccdc_archive 'CCDC 1048043'
loop_
_citation_id
_citation_doi
_citation_year
1 10.1002/chem.201500615 2015
_audit_update_record             
;
2015-02-06 deposited with the CCDC.	2024-07-12 downloaded from the CCDC.
;

_audit_creation_method           SHELXL-97
_chemical_name_systematic        
; 
 ? 
;
_chemical_name_common            1-L
_chemical_melting_point          ?
_chemical_formula_moiety         ?
_chemical_formula_sum            'C20 H22 Cd N3 O7'
_chemical_formula_weight         528.81
_chemical_absolute_configuration rm

loop_
_atom_type_symbol
_atom_type_description
_atom_type_scat_dispersion_real
_atom_type_scat_dispersion_imag
_atom_type_scat_source
C C 0.0181 0.0091 'International Tables Vol C Tables 4.2.6.8 and 6.1.1.4'
H H 0.0000 0.0000 'International Tables Vol C Tables 4.2.6.8 and 6.1.1.4'
N N 0.0311 0.0180 'International Tables Vol C Tables 4.2.6.8 and 6.1.1.4'
O O 0.0492 0.0322 'International Tables Vol C Tables 4.2.6.8 and 6.1.1.4'
Cd Cd 0.1185 4.6533 'International Tables Vol C Tables 4.2.6.8 and 6.1.1.4'

loop_
_platon_squeeze_void_nr
_platon_squeeze_void_average_x
_platon_squeeze_void_average_y
_platon_squeeze_void_average_z
_platon_squeeze_void_volume
_platon_squeeze_void_count_electrons
_platon_squeeze_void_content
1 -0.045 -0.008 0.550 2175 683 ' '
_platon_squeeze_details          ?


_symmetry_cell_setting           Orthorhombic
_symmetry_space_group_name_H-M   P2(1)2(1)2(1)

loop_
_symmetry_equiv_pos_as_xyz
'x, y, z'
'-x+1/2, -y, z+1/2'
'-x, y+1/2, -z+1/2'
'x+1/2, -y+1/2, -z'

_cell_length_a                   12.8564(10)
_cell_length_b                   13.0151(5)
_cell_length_c                   23.0858(8)
_cell_angle_alpha                90.00
_cell_angle_beta                 90.00
_cell_angle_gamma                90.00
_cell_volume                     3862.9(4)
_cell_formula_units_Z            4
_cell_measurement_temperature    293(2)
_cell_measurement_reflns_used    9156
_cell_measurement_theta_min      3.3680
_cell_measurement_theta_max      75.5620

_exptl_crystal_description       block
_exptl_crystal_colour            colourless
_exptl_crystal_size_max          0.2
_exptl_crystal_size_mid          0.13
_exptl_crystal_size_min          0.11
_exptl_crystal_density_meas      ?
_exptl_crystal_density_diffrn    0.909
_exptl_crystal_density_method    'not measured'
_exptl_crystal_F_000             1068
_exptl_absorpt_coefficient_mu    4.759
_exptl_absorpt_correction_T_min  0.60059
_exptl_absorpt_correction_T_max  1.00000
_exptl_absorpt_correction_type   multi-scan
_exptl_absorpt_process_details   
;
CrysAlisPro, Agilent Technologies,
Version 1.171.37.35 (release 13-08-2014 CrysAlis171 .NET)
(compiled Aug 13 2014,18:06:01)
Empirical absorption correction using spherical harmonics,
 implemented in SCALE3 ABSPACK scaling algorithm.
;

_exptl_special_details           
; 
 ? 
;

_diffrn_ambient_temperature      293(2)
_diffrn_radiation_wavelength     1.54178
_diffrn_radiation_type           CuK\a
_diffrn_radiation_source         'fine-focus sealed tube'
_diffrn_radiation_monochromator  graphite
_diffrn_measurement_device_type  'multiwire proportional'
_diffrn_measurement_method       'phi and omega scans'
_diffrn_detector_area_resol_mean none
_diffrn_standards_number         none
_diffrn_standards_interval_count none
_diffrn_standards_interval_time  none
_diffrn_standards_decay_%        none
_diffrn_reflns_number            26685
_diffrn_reflns_av_R_equivalents  0.0934
_diffrn_reflns_av_sigmaI/netI    0.0671
_diffrn_reflns_limit_h_min       -16
_diffrn_reflns_limit_h_max       16
_diffrn_reflns_limit_k_min       -10
_diffrn_reflns_limit_k_max       16
_diffrn_reflns_limit_l_min       -27
_diffrn_reflns_limit_l_max       28
_diffrn_reflns_theta_min         3.83
_diffrn_reflns_theta_max         77.06
_reflns_number_total             8036
_reflns_number_gt                6602
_reflns_threshold_expression     >2sigma(I)

_computing_data_collection       'Bruker FRAMBO'
_computing_cell_refinement       'Bruker FRAMBO'
_computing_data_reduction        'Bruker SAINT'
_computing_structure_solution    'SHELXS-97 (Sheldrick, 1990)'
_computing_structure_refinement  'SHELXL-97 (Sheldrick, 1997)'
_computing_molecular_graphics    'Bruker SHELXTL'
_computing_publication_material  'Bruker SHELXTL'

_refine_special_details          
; 
 Refinement of F^2^ against ALL reflections.  The weighted R-factor wR and 
 goodness of fit S are based on F^2^, conventional R-factors R are based 
 on F, with F set to zero for negative F^2^. The threshold expression of 
 F^2^ > 2sigma(F^2^) is used only for calculating R-factors(gt) etc. and is 
 not relevant to the choice of reflections for refinement.  R-factors based 
 on F^2^ are statistically about twice as large as those based on F, and R- 
 factors based on ALL data will be even larger. 
;

_refine_ls_structure_factor_coef Fsqd
_refine_ls_matrix_type           full
_refine_ls_weighting_scheme      calc
_refine_ls_weighting_details     
'calc w=1/[\s^2^(Fo^2^)+(0.1000P)^2^+0.0000P] where P=(Fo^2^+2Fc^2^)/3'
_atom_sites_solution_primary     direct
_atom_sites_solution_secondary   difmap
_atom_sites_solution_hydrogens   geom
_refine_ls_hydrogen_treatment    none
_refine_ls_extinction_method     none
_refine_ls_extinction_coef       ?
_refine_ls_abs_structure_details 'Flack H D (1983), Acta Cryst. A39, 876-881'
_refine_ls_abs_structure_Flack   -0.044(12)
_refine_ls_number_reflns         8036
_refine_ls_number_parameters     245
_refine_ls_number_restraints     0
_refine_ls_R_factor_all          0.0616
_refine_ls_R_factor_gt           0.0552
_refine_ls_wR_factor_ref         0.1589
_refine_ls_wR_factor_gt          0.1527
_refine_ls_goodness_of_fit_ref   0.976
_refine_ls_restrained_S_all      0.976
_refine_ls_shift/su_max          0.039
_refine_ls_shift/su_mean         0.002

loop_
_atom_site_label
_atom_site_type_symbol
_atom_site_fract_x
_atom_site_fract_y
_atom_site_fract_z
_atom_site_U_iso_or_equiv
_atom_site_adp_type
_atom_site_occupancy
_atom_site_symmetry_multiplicity
_atom_site_calc_flag
_atom_site_refinement_flags
_atom_site_disorder_assembly
_atom_site_disorder_group
Cd1 Cd 0.371778(13) 0.149508(12) 0.856790(5) 0.06262(3) Uani 1 1 d . . .
O3 O 0.35076(14) 0.15514(15) 0.66031(8) 0.0848(5) Uani 1 1 d . . .
C10 C 0.34832(18) -0.14899(19) 0.53131(8) 0.0662(6) Uani 1 1 d . . .
H10A H 0.3669 -0.2021 0.5065 0.079 Uiso 1 1 calc R . .
O6 O 0.49843(19) -0.29342(15) 0.56958(8) 0.0931(6) Uani 1 1 d . . .
O7 O 0.51300(16) -0.21780(15) 0.65295(7) 0.0884(5) Uani 1 1 d . . .
C14 C 0.4753(2) -0.22455(16) 0.60341(9) 0.0659(6) Uani 1 1 d . . .
N1 N 0.48268(16) 0.01978(15) 0.82265(7) 0.0647(5) Uani 1 1 d . . .
C11 C 0.39417(17) -0.14282(16) 0.58541(8) 0.0619(5) Uani 1 1 d . . .
O4 O 0.16464(17) -0.02105(15) 0.43784(7) 0.0918(6) Uani 1 1 d . . .
C12 C 0.3694(2) -0.06067(17) 0.62230(8) 0.0664(5) Uani 1 1 d . . .
H12A H 0.4011 -0.0552 0.6584 0.080 Uiso 1 1 calc R . .
C13 C 0.2251(2) -0.0877(2) 0.45523(9) 0.0706(6) Uani 1 1 d . . .
C9 C 0.27624(19) -0.07848(17) 0.51373(8) 0.0644(6) Uani 1 1 d . . .
C6 C 0.27652(19) 0.09890(18) 0.64699(9) 0.0666(6) Uani 1 1 d . . .
O5 O 0.24688(15) -0.17056(15) 0.42667(7) 0.0826(5) Uani 1 1 d . . .
O2 O 0.28186(16) 0.25051(17) 0.78375(7) 0.0857(6) Uani 1 1 d . . .
C8 C 0.2503(2) 0.00168(19) 0.55008(10) 0.0688(6) Uani 1 1 d . . .
H8A H 0.2008 0.0494 0.5383 0.083 Uiso 1 1 calc R . .
O1 O 0.24859(17) 0.09018(16) 0.78336(8) 0.0839(6) Uani 1 1 d . . .
C7 C 0.2975(2) 0.01240(17) 0.60470(8) 0.0650(6) Uani 1 1 d . . .
N2 N 0.1843(2) 0.1105(2) 0.66476(10) 0.0855(7) Uani 1 1 d . . .
N3 N 0.6015(2) -0.12046(17) 0.78407(10) 0.0968(7) Uani 1 1 d . . .
C1 C 0.23861(19) 0.1759(2) 0.76264(10) 0.0692(7) Uani 1 1 d . . .
C19 C 0.5343(2) 0.0574(2) 0.76744(10) 0.0783(7) Uani 1 1 d . . .
H19A H 0.5778 0.1165 0.7759 0.094 Uiso 1 1 calc R . .
H19B H 0.4817 0.0782 0.7397 0.094 Uiso 1 1 calc R . .
C17 C 0.4246(2) -0.0750(2) 0.81042(13) 0.0828(8) Uani 1 1 d . . .
H17A H 0.3716 -0.0609 0.7816 0.099 Uiso 1 1 calc R . .
H17B H 0.3901 -0.0979 0.8455 0.099 Uiso 1 1 calc R . .
C20 C 0.6013(3) -0.0300(2) 0.74166(12) 0.0938(9) Uani 1 1 d . . .
H20A H 0.5729 -0.0516 0.7047 0.113 Uiso 1 1 calc R . .
H20B H 0.6719 -0.0060 0.7354 0.113 Uiso 1 1 calc R . .
C18 C 0.4965(2) -0.1606(2) 0.78819(12) 0.0775(6) Uiso 1 1 d . . .
H18A H 0.4949 -0.2185 0.8146 0.093 Uiso 1 1 calc R . .
H18B H 0.4732 -0.1839 0.7504 0.093 Uiso 1 1 calc R . .
C16 C 0.6365(3) -0.0866(3) 0.84472(14) 0.0958(8) Uiso 1 1 d . . .
H16A H 0.6337 -0.1444 0.8712 0.115 Uiso 1 1 calc R . .
H16B H 0.7075 -0.0617 0.8433 0.115 Uiso 1 1 calc R . .
C15 C 0.5662(2) -0.0038(2) 0.86501(14) 0.0857(7) Uiso 1 1 d . . .
H15A H 0.6067 0.0578 0.8720 0.103 Uiso 1 1 calc R . .
H15B H 0.5348 -0.0244 0.9014 0.103 Uiso 1 1 calc R . .
C2 C 0.1695(2) 0.1967(3) 0.70903(14) 0.0886(8) Uiso 1 1 d . . .
H2A H 0.1796 0.2654 0.6926 0.106 Uiso 1 1 calc R . .
C5 C 0.0959(2) 0.0458(2) 0.65487(13) 0.0829(7) Uiso 1 1 d . . .
H5A H 0.1153 -0.0262 0.6543 0.099 Uiso 1 1 calc R . .
H5B H 0.0611 0.0630 0.6189 0.099 Uiso 1 1 calc R . .
C3 C 0.0519(2) 0.1738(2) 0.72631(13) 0.0759(6) Uiso 1 1 d . . .
H3A H 0.0430 0.1800 0.7679 0.091 Uiso 1 1 calc R . .
H3B H 0.0059 0.2227 0.7075 0.091 Uiso 1 1 calc R . .
C4 C 0.0275(3) 0.0714(3) 0.70794(16) 0.0981(9) Uiso 1 1 d . . .
H4A H -0.0455 0.0667 0.6977 0.118 Uiso 1 1 calc R . .
H4B H 0.0412 0.0232 0.7390 0.118 Uiso 1 1 calc R . .

loop_
_atom_site_aniso_label
_atom_site_aniso_U_11
_atom_site_aniso_U_22
_atom_site_aniso_U_33
_atom_site_aniso_U_23
_atom_site_aniso_U_13
_atom_site_aniso_U_12
Cd1 0.09651(7) 0.05532(5) 0.03603(4) -0.00193(5) 0.01090(6) -0.00424(7)
O3 0.0984(11) 0.0758(8) 0.0801(9) -0.0256(8) -0.0032(8) -0.0104(10)
C10 0.0912(13) 0.0632(9) 0.0440(8) -0.0070(8) -0.0104(8) -0.0064(12)
O6 0.1405(15) 0.0838(10) 0.0550(8) 0.0008(8) -0.0210(10) 0.0277(11)
O7 0.1279(12) 0.0855(10) 0.0517(7) -0.0064(7) -0.0275(8) 0.0387(9)
C14 0.1008(15) 0.0529(9) 0.0441(8) -0.0071(7) -0.0068(10) 0.0049(10)
N1 0.0863(11) 0.0666(9) 0.0411(7) -0.0065(7) 0.0000(7) 0.0047(9)
C11 0.0862(12) 0.0566(9) 0.0428(7) -0.0067(7) -0.0140(7) 0.0020(11)
O4 0.1405(14) 0.0750(10) 0.0600(8) 0.0096(7) -0.0417(8) -0.0042(10)
C12 0.0920(12) 0.0705(10) 0.0366(7) -0.0034(7) -0.0154(9) 0.0036(12)
C13 0.0892(13) 0.0797(13) 0.0429(8) -0.0072(9) -0.0184(9) -0.0104(12)
C9 0.0900(13) 0.0638(10) 0.0395(8) 0.0060(7) -0.0157(8) -0.0083(10)
C6 0.0849(12) 0.0667(10) 0.0483(9) 0.0001(9) -0.0113(10) 0.0028(10)
O5 0.1076(11) 0.0902(11) 0.0500(7) -0.0107(7) -0.0228(7) 0.0046(10)
O2 0.1095(12) 0.0924(11) 0.0551(8) -0.0093(8) -0.0003(9) -0.0244(10)
C8 0.0869(13) 0.0628(11) 0.0566(10) 0.0019(9) -0.0193(10) -0.0013(11)
O1 0.1080(12) 0.0765(10) 0.0673(9) -0.0040(8) -0.0111(9) -0.0011(10)
C7 0.0905(13) 0.0643(10) 0.0402(8) -0.0069(8) -0.0145(9) -0.0019(10)
N2 0.0918(13) 0.1022(15) 0.0626(10) -0.0119(10) -0.0134(10) 0.0025(12)
N3 0.1400(17) 0.0846(11) 0.0658(10) -0.0246(9) -0.0118(12) 0.0516(11)
C1 0.0699(11) 0.0782(14) 0.0595(11) -0.0059(9) 0.0088(9) 0.0017(10)
C19 0.1037(16) 0.0804(14) 0.0509(10) -0.0038(10) 0.0142(11) -0.0147(14)
C17 0.0972(16) 0.0671(12) 0.0842(15) -0.0218(11) 0.0097(13) -0.0145(12)
C20 0.123(2) 0.0842(16) 0.0741(13) -0.0027(12) 0.0334(14) 0.0036(16)

_geom_special_details            
; 
 All esds (except the esd in the dihedral angle between two l.s. planes) 
 are estimated using the full covariance matrix.  The cell esds are taken 
 into account individually in the estimation of esds in distances, angles 
 and torsion angles; correlations between esds in cell parameters are only 
 used when they are defined by crystal symmetry.  An approximate (isotropic) 
 treatment of cell esds is used for estimating esds involving l.s. planes. 
;

loop_
_geom_bond_atom_site_label_1
_geom_bond_atom_site_label_2
_geom_bond_distance
_geom_bond_site_symmetry_2
_geom_bond_publ_flag
Cd1 O5 2.2372(17) 2 ?
Cd1 O7 2.286(2) 3_656 ?
Cd1 N1 2.346(2) . ?
Cd1 O2 2.431(2) . ?
Cd1 O1 2.445(2) . ?
Cd1 O6 2.495(2) 3_656 ?
Cd1 O4 2.5526(18) 2 ?
Cd1 C13 2.713(2) 2 ?
Cd1 C14 2.719(2) 3_656 ?
O3 C6 1.241(3) . ?
C10 C9 1.366(3) . ?
C10 C11 1.383(3) . ?
C10 H10A 0.9300 . ?
O6 C14 1.225(3) . ?
O6 Cd1 2.495(2) 3_646 ?
O7 C14 1.245(3) . ?
O7 Cd1 2.286(2) 3_646 ?
C14 C11 1.547(3) . ?
C14 Cd1 2.719(2) 3_646 ?
N1 C17 1.469(3) . ?
N1 C15 1.485(4) . ?
N1 C19 1.518(3) . ?
C11 C12 1.403(3) . ?
O4 C13 1.232(3) . ?
O4 Cd1 2.5526(18) 2_554 ?
C12 C7 1.388(3) . ?
C12 H12A 0.9300 . ?
C13 O5 1.295(3) . ?
C13 C9 1.507(3) . ?
C13 Cd1 2.713(2) 2_554 ?
C9 C8 1.380(3) . ?
C6 N2 1.264(3) . ?
C6 C7 1.514(3) . ?
O5 Cd1 2.2372(17) 2_554 ?
O2 C1 1.221(3) . ?
C8 C7 1.406(3) . ?
C8 H8A 0.9300 . ?
O1 C1 1.220(3) . ?
N2 C5 1.433(4) . ?
N2 C2 1.530(4) . ?
N3 C18 1.451(4) . ?
N3 C20 1.531(4) . ?
N3 C16 1.535(4) . ?
C1 C2 1.548(4) . ?
C19 C20 1.547(4) . ?
C19 H19A 0.9700 . ?
C19 H19B 0.9700 . ?
C17 C18 1.535(4) . ?
C17 H17A 0.9700 . ?
C17 H17B 0.9700 . ?
C20 H20A 0.9700 . ?
C20 H20B 0.9700 . ?
C18 H18A 0.9700 . ?
C18 H18B 0.9700 . ?
C16 C15 1.482(5) . ?
C16 H16A 0.9700 . ?
C16 H16B 0.9700 . ?
C15 H15A 0.9700 . ?
C15 H15B 0.9700 . ?
C2 C3 1.592(4) . ?
C2 H2A 0.9800 . ?
C5 C4 1.545(5) . ?
C5 H5A 0.9700 . ?
C5 H5B 0.9700 . ?
C3 C4 1.434(5) . ?
C3 H3A 0.9700 . ?
C3 H3B 0.9700 . ?
C4 H4A 0.9700 . ?
C4 H4B 0.9700 . ?

loop_
_geom_angle_atom_site_label_1
_geom_angle_atom_site_label_2
_geom_angle_atom_site_label_3
_geom_angle
_geom_angle_site_symmetry_1
_geom_angle_site_symmetry_3
_geom_angle_publ_flag
O5 Cd1 O7 114.85(7) 2 3_656 ?
O5 Cd1 N1 138.14(7) 2 . ?
O7 Cd1 N1 96.71(7) 3_656 . ?
O5 Cd1 O2 96.30(7) 2 . ?
O7 Cd1 O2 80.29(7) 3_656 . ?
N1 Cd1 O2 116.44(6) . . ?
O5 Cd1 O1 95.56(7) 2 . ?
O7 Cd1 O1 126.16(6) 3_656 . ?
N1 Cd1 O1 86.19(7) . . ?
O2 Cd1 O1 51.81(7) . . ?
O5 Cd1 O6 85.89(7) 2 3_656 ?
O7 Cd1 O6 53.76(6) 3_656 3_656 ?
N1 Cd1 O6 92.10(7) . 3_656 ?
O2 Cd1 O6 129.03(7) . 3_656 ?
O1 Cd1 O6 178.27(7) . 3_656 ?
O5 Cd1 O4 55.01(7) 2 2 ?
O7 Cd1 O4 133.29(6) 3_656 2 ?
N1 Cd1 O4 83.47(6) . 2 ?
O2 Cd1 O4 140.85(7) . 2 ?
O1 Cd1 O4 100.52(7) . 2 ?
O6 Cd1 O4 79.53(6) 3_656 2 ?
O5 Cd1 C13 28.29(7) 2 2 ?
O7 Cd1 C13 127.14(7) 3_656 2 ?
N1 Cd1 C13 110.29(7) . 2 ?
O2 Cd1 C13 121.54(7) . 2 ?
O1 Cd1 C13 100.94(7) . 2 ?
O6 Cd1 C13 79.90(7) 3_656 2 ?
O4 Cd1 C13 26.83(7) 2 2 ?
O5 Cd1 C14 100.10(7) 2 3_656 ?
O7 Cd1 C14 27.07(6) 3_656 3_656 ?
N1 Cd1 C14 96.20(7) . 3_656 ?
O2 Cd1 C14 104.61(7) . 3_656 ?
O1 Cd1 C14 153.23(6) . 3_656 ?
O6 Cd1 C14 26.74(6) 3_656 3_656 ?
O4 Cd1 C14 106.24(6) 2 3_656 ?
C13 Cd1 C14 103.15(7) 2 3_656 ?
C9 C10 C11 121.2(2) . . ?
C9 C10 H10A 119.4 . . ?
C11 C10 H10A 119.4 . . ?
C14 O6 Cd1 86.88(15) . 3_646 ?
C14 O7 Cd1 96.22(15) . 3_646 ?
O6 C14 O7 122.9(2) . . ?
O6 C14 C11 119.7(2) . . ?
O7 C14 C11 117.43(19) . . ?
O6 C14 Cd1 66.38(14) . 3_646 ?
O7 C14 Cd1 56.70(13) . 3_646 ?
C11 C14 Cd1 173.14(15) . 3_646 ?
C17 N1 C15 108.7(2) . . ?
C17 N1 C19 109.37(19) . . ?
C15 N1 C19 107.7(2) . . ?
C17 N1 Cd1 111.11(16) . . ?
C15 N1 Cd1 111.54(15) . . ?
C19 N1 Cd1 108.39(15) . . ?
C10 C11 C12 119.7(2) . . ?
C10 C11 C14 119.34(18) . . ?
C12 C11 C14 120.91(17) . . ?
C13 O4 Cd1 83.89(14) . 2_554 ?
C7 C12 C11 119.70(18) . . ?
C7 C12 H12A 120.1 . . ?
C11 C12 H12A 120.1 . . ?
O4 C13 O5 123.9(2) . . ?
O4 C13 C9 120.8(2) . . ?
O5 C13 C9 115.3(2) . . ?
O4 C13 Cd1 69.28(13) . 2_554 ?
O5 C13 Cd1 54.96(11) . 2_554 ?
C9 C13 Cd1 167.02(17) . 2_554 ?
C10 C9 C8 119.44(19) . . ?
C10 C9 C13 120.6(2) . . ?
C8 C9 C13 120.0(2) . . ?
O3 C6 N2 124.8(2) . . ?
O3 C6 C7 117.5(2) . . ?
N2 C6 C7 117.7(2) . . ?
C13 O5 Cd1 96.75(14) . 2_554 ?
C1 O2 Cd1 93.62(17) . . ?
C9 C8 C7 121.1(2) . . ?
C9 C8 H8A 119.5 . . ?
C7 C8 H8A 119.5 . . ?
C1 O1 Cd1 92.94(16) . . ?
C12 C7 C8 118.8(2) . . ?
C12 C7 C6 116.06(18) . . ?
C8 C7 C6 125.1(2) . . ?
C6 N2 C5 128.5(3) . . ?
C6 N2 C2 114.9(2) . . ?
C5 N2 C2 116.1(2) . . ?
C18 N3 C20 108.5(2) . . ?
C18 N3 C16 108.4(2) . . ?
C20 N3 C16 111.3(2) . . ?
O1 C1 O2 121.5(2) . . ?
O1 C1 C2 122.3(2) . . ?
O2 C1 C2 116.2(2) . . ?
N1 C19 C20 109.2(2) . . ?
N1 C19 H19A 109.8 . . ?
C20 C19 H19A 109.8 . . ?
N1 C19 H19B 109.8 . . ?
C20 C19 H19B 109.8 . . ?
H19A C19 H19B 108.3 . . ?
N1 C17 C18 111.6(2) . . ?
N1 C17 H17A 109.3 . . ?
C18 C17 H17A 109.3 . . ?
N1 C17 H17B 109.3 . . ?
C18 C17 H17B 109.3 . . ?
H17A C17 H17B 108.0 . . ?
N3 C20 C19 108.7(2) . . ?
N3 C20 H20A 110.0 . . ?
C19 C20 H20A 109.9 . . ?
N3 C20 