####################################################################### 
# 
# This file contains crystal structure data downloaded from the 
# Cambridge Structural Database (CSD) hosted by the Cambridge 
# Crystallographic Data Centre (CCDC).
# 
# Full information about CCDC data access policies and citation 
# guidelines are available at http://www.ccdc.cam.ac.uk/access/V1 
# 
# Audit and citation data items may have been added by the CCDC. 
# Please retain this information to preserve the provenance of 
# this file and to allow appropriate attribution of the data. 
# 
#######################################################################

data_1-D
_audit_block_doi                 10.5517/cc145kwr
_database_code_depnum_ccdc_archive 'CCDC 1048044'
loop_
_citation_id
_citation_doi
_citation_year
1 10.1002/chem.201500615 2015
_audit_update_record             
;
2015-02-06 deposited with the CCDC.	2024-07-12 downloaded from the CCDC.
;

_audit_creation_method           SHELXL-97
_chemical_name_systematic        
; 
 ? 
;
_chemical_name_common            ?
_chemical_melting_point          ?
_chemical_formula_moiety         ?
_chemical_formula_sum            'C20 H22 Cd N3 O7'
_chemical_formula_weight         528.81
_chemical_absolute_configuration rm

loop_
_atom_type_symbol
_atom_type_description
_atom_type_scat_dispersion_real
_atom_type_scat_dispersion_imag
_atom_type_scat_source
C C 0.0033 0.0016 'International Tables Vol C Tables 4.2.6.8 and 6.1.1.4'
H H 0.0000 0.0000 'International Tables Vol C Tables 4.2.6.8 and 6.1.1.4'
N N 0.0061 0.0033 'International Tables Vol C Tables 4.2.6.8 and 6.1.1.4'
O O 0.0106 0.0060 'International Tables Vol C Tables 4.2.6.8 and 6.1.1.4'
Cd Cd -0.8075 1.2024 'International Tables Vol C Tables 4.2.6.8 and 6.1.1.4'
loop_
_platon_squeeze_void_nr
_platon_squeeze_void_average_x
_platon_squeeze_void_average_y
_platon_squeeze_void_average_z
_platon_squeeze_void_volume
_platon_squeeze_void_count_electrons
_platon_squeeze_void_content
1 0.154 0.028 0.544 2246 427 ' '
_platon_squeeze_details          ?

_symmetry_cell_setting           Orthorhombic
_symmetry_space_group_name_H-M   P2(1)2(1)2(1)

loop_
_symmetry_equiv_pos_as_xyz
'x, y, z'
'-x+1/2, -y, z+1/2'
'-x, y+1/2, -z+1/2'
'x+1/2, -y+1/2, -z'

_cell_length_a                   12.9705(10)
_cell_length_b                   12.9057(11)
_cell_length_c                   23.0960(12)
_cell_angle_alpha                90.00
_cell_angle_beta                 90.00
_cell_angle_gamma                90.00
_cell_volume                     3866.1(5)
_cell_formula_units_Z            4
_cell_measurement_temperature    293(2)
_cell_measurement_reflns_used    9663
_cell_measurement_theta_min      2.8050
_cell_measurement_theta_max      27.5110

_exptl_crystal_description       block
_exptl_crystal_colour            colpurless
_exptl_crystal_size_max          0.25
_exptl_crystal_size_mid          0.2
_exptl_crystal_size_min          0.20
_exptl_crystal_density_meas      ?
_exptl_crystal_density_diffrn    0.909
_exptl_crystal_density_method    'not measured'
_exptl_crystal_F_000             1068
_exptl_absorpt_coefficient_mu    0.591
_exptl_absorpt_correction_T_min  0.85802
_exptl_absorpt_correction_T_max  1.00000
_exptl_absorpt_correction_type   multi-scan
_exptl_absorpt_process_details   
;
CrysAlisPro, Agilent Technologies,
Version 1.171.36.28 (release 01-02-2013 CrysAlis171 .NET)
(compiled Feb  1 2013,16:14:44)
Empirical absorption correction using spherical harmonics,
 implemented in SCALE3 ABSPACK scaling algorithm.
;

_exptl_special_details           
; 
 ? 
;

_diffrn_ambient_temperature      293(2)
_diffrn_radiation_wavelength     0.71073
_diffrn_radiation_type           MoK\a
_diffrn_radiation_source         'fine-focus sealed tube'
_diffrn_radiation_monochromator  graphite
_diffrn_measurement_device_type  'Xcalibur, Eos'
_diffrn_measurement_method       none
_diffrn_detector_area_resol_mean none
_diffrn_standards_number         none
_diffrn_standards_interval_count none
_diffrn_standards_interval_time  none
_diffrn_standards_decay_%        none
_diffrn_reflns_number            25937
_diffrn_reflns_av_R_equivalents  0.0574
_diffrn_reflns_av_sigmaI/netI    0.0543
_diffrn_reflns_limit_h_min       -14
_diffrn_reflns_limit_h_max       15
_diffrn_reflns_limit_k_min       -15
_diffrn_reflns_limit_k_max       11
_diffrn_reflns_limit_l_min       -27
_diffrn_reflns_limit_l_max       27
_diffrn_reflns_theta_min         2.37
_diffrn_reflns_theta_max         24.99
_reflns_number_total             6801
_reflns_number_gt                5640
_reflns_threshold_expression     >2sigma(I)

_computing_data_collection       ?
_computing_cell_refinement       ?
_computing_data_reduction        ?
_computing_structure_solution    'SHELXS-97 (Sheldrick, 1990)'
_computing_structure_refinement  'SHELXL-97 (Sheldrick, 1997)'
_computing_molecular_graphics    ?
_computing_publication_material  ?

_refine_special_details          
; 
 Refinement of F^2^ against ALL reflections.  The weighted R-factor wR and 
 goodness of fit S are based on F^2^, conventional R-factors R are based 
 on F, with F set to zero for negative F^2^. The threshold expression of 
 F^2^ > 2sigma(F^2^) is used only for calculating R-factors(gt) etc. and is 
 not relevant to the choice of reflections for refinement.  R-factors based 
 on F^2^ are statistically about twice as large as those based on F, and R- 
 factors based on ALL data will be even larger. 
;

_refine_ls_structure_factor_coef Fsqd
_refine_ls_matrix_type           full
_refine_ls_weighting_scheme      calc
_refine_ls_weighting_details     
'calc w=1/[\s^2^(Fo^2^)+(0.1000P)^2^+0.0000P] where P=(Fo^2^+2Fc^2^)/3'
_atom_sites_solution_primary     direct
_atom_sites_solution_secondary   difmap
_atom_sites_solution_hydrogens   geom
_refine_ls_hydrogen_treatment    none
_refine_ls_extinction_method     none
_refine_ls_extinction_coef       ?
_refine_ls_abs_structure_details 'Flack H D (1983), Acta Cryst. A39, 876-881'
_refine_ls_abs_structure_Flack   -0.06(4)
_refine_ls_number_reflns         6801
_refine_ls_number_parameters     270
_refine_ls_number_restraints     0
_refine_ls_R_factor_all          0.0641
_refine_ls_R_factor_gt           0.0549
_refine_ls_wR_factor_ref         0.1686
_refine_ls_wR_factor_gt          0.1603
_refine_ls_goodness_of_fit_ref   1.087
_refine_ls_restrained_S_all      1.087
_refine_ls_shift/su_max          0.004
_refine_ls_shift/su_mean         0.001

loop_
_atom_site_label
_atom_site_type_symbol
_atom_site_fract_x
_atom_site_fract_y
_atom_site_fract_z
_atom_site_U_iso_or_equiv
_atom_site_adp_type
_atom_site_occupancy
_atom_site_symmetry_multiplicity
_atom_site_calc_flag
_atom_site_refinement_flags
_atom_site_disorder_assembly
_atom_site_disorder_group
Cd1 Cd 0.871561(13) 0.136779(14) 0.143404(6) 0.05587(4) Uani 1 1 d . . .
O3 O 0.85345(13) 0.13588(15) 0.33758(8) 0.0767(6) Uani 1 1 d . . .
O6 O 0.99838(16) -0.30910(16) 0.43115(8) 0.0895(7) Uani 1 1 d . . .
C12 C 0.86737(19) -0.07881(19) 0.37911(9) 0.0592(7) Uani 1 1 d . . .
H12A H 0.8992 -0.0755 0.3431 0.071 Uiso 1 1 calc R . .
O5 O 0.74473(13) -0.17528(18) 0.57294(7) 0.0821(7) Uani 1 1 d . . .
C14 C 0.97184(19) -0.2415(2) 0.39736(10) 0.0611(7) Uani 1 1 d . . .
O7 O 1.01132(14) -0.23248(16) 0.34848(7) 0.0774(6) Uani 1 1 d . . .
N1 N 0.97822(15) 0.00432(17) 0.17660(8) 0.0585(6) Uani 1 1 d . . .
O4 O 0.67875(15) -0.02282(16) 0.56403(7) 0.0841(6) Uani 1 1 d . . .
O2 O 0.74315(15) 0.07295(18) 0.21456(9) 0.0852(7) Uani 1 1 d . . .
C13 C 0.72981(17) -0.0940(2) 0.54510(10) 0.0591(7) Uani 1 1 d . . .
C6 C 0.77961(17) 0.0833(2) 0.35418(10) 0.0581(7) Uani 1 1 d . . .
C5 C 0.5923(2) 0.0469(3) 0.34918(16) 0.1175(15) Uani 1 1 d . . .
H5A H 0.5847 0.0412 0.3908 0.141 Uiso 1 1 calc R . .
H5B H 0.5893 -0.0217 0.3320 0.141 Uiso 1 1 calc R . .
C19 C 1.0285(2) 0.0362(3) 0.23378(11) 0.0745(9) Uani 1 1 d . . .
H19A H 1.0683 0.0990 0.2280 0.089 Uiso 1 1 calc R . .
H19B H 0.9754 0.0506 0.2622 0.089 Uiso 1 1 calc R . .
C7 C 0.79737(17) -0.0016(2) 0.39411(9) 0.0559(7) Uani 1 1 d . . .
N2 N 0.68592(15) 0.1003(2) 0.33359(9) 0.0771(8) Uani 1 1 d . . .
C11 C 0.89139(16) -0.15991(16) 0.41549(9) 0.0514(6) Uani 1 1 d . . .
O1 O 0.78823(13) 0.23341(15) 0.21752(7) 0.0694(6) Uani 1 1 d . . .
C8 C 0.75447(16) -0.0068(2) 0.45086(10) 0.0613(8) Uani 1 1 d . . .
H8A H 0.7108 0.0453 0.4640 0.074 Uiso 1 1 calc R . .
C1 C 0.73977(18) 0.1599(3) 0.23663(10) 0.0729(9) Uani 1 1 d . . .
C9 C 0.77847(18) -0.0903(2) 0.48627(9) 0.0605(7) Uani 1 1 d . . .
C10 C 0.84584(17) -0.1635(2) 0.46916(10) 0.0589(7) Uani 1 1 d . . .
H10A H 0.8619 -0.2176 0.4942 0.071 Uiso 1 1 calc R . .
C18 C 0.9866(2) -0.1801(2) 0.21114(13) 0.0797(9) Uani 1 1 d . . .
H18A H 0.9628 -0.2043 0.2486 0.096 Uiso 1 1 calc R . .
H18B H 0.9840 -0.2376 0.1841 0.096 Uiso 1 1 calc R . .
C16 C 1.1329(2) -0.1068(2) 0.15661(12) 0.0906(10) Uani 1 1 d . . .
H16A H 1.2038 -0.0832 0.1592 0.109 Uiso 1 1 calc R . .
H16B H 1.1299 -0.1645 0.1298 0.109 Uiso 1 1 calc R . .
N3 N 1.09416(18) -0.1398(2) 0.21581(9) 0.0851(7) Uani 1 1 d . . .
C20 C 1.0961(2) -0.0459(2) 0.25531(12) 0.0823(10) Uani 1 1 d . . .
H20A H 1.0741 -0.0661 0.2938 0.099 Uiso 1 1 calc R . .
H20B H 1.1660 -0.0198 0.2580 0.099 Uiso 1 1 calc R . .
C2 C 0.66901(19) 0.1807(3) 0.29004(12) 0.0774(9) Uani 1 1 d . . .
H2A H 0.6823 0.2496 0.3063 0.093 Uiso 1 1 calc R . .
C17 C 0.9166(2) -0.0895(2) 0.18926(13) 0.0709(8) Uani 1 1 d . . .
H17A H 0.8805 -0.1111 0.1545 0.085 Uiso 1 1 calc R . .
H17B H 0.8654 -0.0734 0.2185 0.085 Uiso 1 1 calc R . .
C3 C 0.5554(3) 0.1695(3) 0.27267(17) 0.1039(11) Uiso 1 1 d . . .
H3A H 0.5255 0.2366 0.2640 0.125 Uiso 1 1 calc R . .
H3B H 0.5485 0.1253 0.2389 0.125 Uiso 1 1 calc R . .
C15 C 1.0639(3) -0.0197(3) 0.13614(12) 0.1007(12) Uani 1 1 d . . .
H15A H 1.1053 0.0422 0.1308 0.121 Uiso 1 1 calc R . .
H15B H 1.0350 -0.0382 0.0988 0.121 Uiso 1 1 calc R . .
C4 C 0.5063(3) 0.1242(4) 0.3212(2) 0.1446(16) Uiso 1 1 d . . .
H4A H 0.4455 0.0858 0.3095 0.174 Uiso 1 1 calc R . .
H4B H 0.4860 0.1770 0.3489 0.174 Uiso 1 1 calc R . .

loop_
_atom_site_aniso_label
_atom_site_aniso_U_11
_atom_site_aniso_U_22
_atom_site_aniso_U_33
_atom_site_aniso_U_23
_atom_site_aniso_U_13
_atom_site_aniso_U_12
Cd1 0.08068(9) 0.05413(9) 0.03279(7) 0.00163(7) -0.01098(7) -0.00338(9)
O3 0.0791(9) 0.0707(11) 0.0801(10) 0.0189(10) -0.0082(8) 0.0009(10)
O6 0.1402(15) 0.0749(12) 0.0533(10) 0.0091(10) 0.0164(11) 0.0365(11)
C12 0.0773(13) 0.0645(14) 0.0359(9) 0.0031(10) 0.0127(11) 0.0018(13)
O5 0.0887(11) 0.1108(15) 0.0468(8) 0.0152(10) 0.0204(8) 0.0093(11)
C14 0.0845(14) 0.0537(14) 0.0452(12) -0.0024(12) 0.0061(12) 0.0048(13)
O7 0.0977(10) 0.0840(13) 0.0507(9) 0.0074(9) 0.0282(9) 0.0180(10)
N1 0.0778(11) 0.0601(12) 0.0376(9) 0.0151(9) -0.0032(9) -0.0027(10)
O4 0.1201(13) 0.0746(13) 0.0577(10) -0.0060(10) 0.0353(9) -0.0021(11)
O2 0.0983(12) 0.0901(14) 0.0673(11) -0.0030(11) 0.0047(10) -0.0073(11)
C13 0.0657(12) 0.0638(15) 0.0479(12) 0.0021(12) 0.0124(11) 0.0020(11)
C6 0.0635(11) 0.0623(14) 0.0486(11) -0.0012(12) 0.0196(11) 0.0001(11)
C5 0.0662(15) 0.149(3) 0.137(3) 0.045(3) 0.0150(18) -0.0058(19)
C19 0.0745(15) 0.088(2) 0.0613(15) -0.0051(15) -0.0045(13) 0.0005(14)
C7 0.0599(11) 0.0638(15) 0.0441(11) 0.0047(11) 0.0127(10) -0.0007(11)
N2 0.0627(11) 0.0987(18) 0.0698(12) 0.0245(13) 0.0208(10) -0.0002(11)
C11 0.0714(12) 0.0424(12) 0.0403(10) -0.0064(9) 0.0114(10) 0.0041(10)
O1 0.0779(9) 0.0822(12) 0.0480(9) 0.0040(9) 0.0007(8) -0.0164(9)
C8 0.0573(11) 0.0737(17) 0.0528(13) -0.0062(13) 0.0048(11) 0.0092(12)
C1 0.0600(12) 0.112(2) 0.0472(12) 0.0149(15) -0.0072(11) 0.0037(14)
C9 0.0737(13) 0.0707(16) 0.0373(11) 0.0034(12) 0.0094(10) -0.0070(12)
C10 0.0746(13) 0.0587(15) 0.0435(11) 0.0053(11) 0.0045(11) -0.0061(11)
C18 0.0823(15) 0.0783(18) 0.0784(17) 0.0226(16) 0.0115(15) 0.0012(14)
C16 0.118(2) 0.0763(18) 0.0781(16) 0.0304(14) 0.0320(16) 0.0208(17)
N3 0.0999(13) 0.0947(16) 0.0607(11) 0.0311(13) 0.0054(11) 0.0225(14)
C20 0.0989(18) 0.0761(18) 0.0719(16) 0.0209(15) -0.0216(15) -0.0133(15)
C2 0.0694(13) 0.0884(19) 0.0744(16) 0.0296(15) 0.0120(13) 0.0101(13)
C17 0.0769(14) 0.0518(14) 0.0839(17) 0.0074(15) -0.0040(14) -0.0051(13)
C15 0.150(2) 0.100(2) 0.0522(15) 0.0182(16) 0.0304(16) 0.040(2)

_geom_special_details            
; 
 All esds (except the esd in the dihedral angle between two l.s. planes) 
 are estimated using the full covariance matrix.  The cell esds are taken 
 into account individually in the estimation of esds in distances, angles 
 and torsion angles; correlations between esds in cell parameters are only 
 used when they are defined by crystal symmetry.  An approximate (isotropic) 
 treatment of cell esds is used for estimating esds involving l.s. planes. 
;

loop_
_geom_bond_atom_site_label_1
_geom_bond_atom_site_label_2
_geom_bond_distance
_geom_bond_site_symmetry_2
_geom_bond_publ_flag
Cd1 O5 2.2739(17) 2_654 ?
Cd1 O7 2.278(2) 3_755 ?
Cd1 N1 2.329(2) . ?
Cd1 O1 2.3777(18) . ?
Cd1 O4 2.4392(19) 2_654 ?
Cd1 O2 2.481(2) . ?
Cd1 O6 2.510(2) 3_755 ?
Cd1 C13 2.681(2) 2_654 ?
Cd1 C14 2.735(3) 3_755 ?
O3 C6 1.235(3) . ?
O6 C14 1.220(3) . ?
O6 Cd1 2.510(2) 3_745 ?
C12 C11 1.378(3) . ?
C12 C7 1.392(3) . ?
O5 C13 1.246(3) . ?
O5 Cd1 2.2739(17) 2_655 ?
C14 O7 1.245(3) . ?
C14 C11 1.541(3) . ?
C14 Cd1 2.735(2) 3_745 ?
O7 Cd1 2.278(2) 3_745 ?
N1 C17 1.480(3) . ?
N1 C15 1.484(4) . ?
N1 C19 1.529(3) . ?
O4 C13 1.213(3) . ?
O4 Cd1 2.4392(19) 2_655 ?
O2 C1 1.234(4) . ?
C13 C9 1.499(3) . ?
C13 Cd1 2.681(2) 2_655 ?
C6 N2 1.323(3) . ?
C6 C7 1.450(3) . ?
C5 N2 1.442(4) . ?
C5 C4 1.631(6) . ?
C19 C20 1.462(4) . ?
C7 C8 1.426(3) . ?
N2 C2 1.461(4) . ?
C11 C10 1.374(3) . ?
O1 C1 1.220(3) . ?
C8 C9 1.388(4) . ?
C1 C2 1.561(4) . ?
C9 C10 1.346(4) . ?
C18 N3 1.493(4) . ?
C18 C17 1.564(4) . ?
C16 C15 1.513(5) . ?
C16 N3 1.518(4) . ?
N3 C20 1.518(4) . ?
C2 C3 1.534(4) . ?
C3 C4 1.416(6) . ?

loop_
_geom_angle_atom_site_label_1
_geom_angle_atom_site_label_2
_geom_angle_atom_site_label_3
_geom_angle
_geom_angle_site_symmetry_1
_geom_angle_site_symmetry_3
_geom_angle_publ_flag
O5 Cd1 O7 109.84(7) 2_654 3_755 ?
O5 Cd1 N1 142.19(7) 2_654 . ?
O7 Cd1 N1 96.92(7) 3_755 . ?
O5 Cd1 O1 95.69(6) 2_654 . ?
O7 Cd1 O1 81.69(6) 3_755 . ?
N1 Cd1 O1 114.71(6) . . ?
O5 Cd1 O4 54.29(7) 2_654 2_654 ?
O7 Cd1 O4 133.38(6) 3_755 2_654 ?
N1 Cd1 O4 87.93(7) . 2_654 ?
O1 Cd1 O4 137.37(6) . 2_654 ?
O5 Cd1 O2 95.82(7) 2_654 . ?
O7 Cd1 O2 129.73(6) 3_755 . ?
N1 Cd1 O2 86.39(7) . . ?
O1 Cd1 O2 52.56(7) . . ?
O4 Cd1 O2 96.78(7) 2_654 . ?
O5 Cd1 O6 83.92(6) 2_654 3_755 ?
O7 Cd1 O6 53.28(6) 3_755 3_755 ?
N1 Cd1 O6 91.77(7) . 3_755 ?
O1 Cd1 O6 130.81(7) . 3_755 ?
O4 Cd1 O6 80.33(6) 2_654 3_755 ?
O2 Cd1 O6 176.63(7) . 3_755 ?
O5 Cd1 C13 27.59(8) 2_654 2_654 ?
O7 Cd1 C13 123.32(7) 3_755 2_654 ?
N1 Cd1 C13 114.76(7) . 2_654 ?
O1 Cd1 C13 119.66(7) . 2_654 ?
O4 Cd1 C13 26.89(7) 2_654 2_654 ?
O2 Cd1 C13 99.40(7) . 2_654 ?
O6 Cd1 C13 78.82(7) 3_755 2_654 ?
O5 Cd1 C14 96.94(7) 2_654 3_755 ?
O7 Cd1 C14 26.84(7) 3_755 3_755 ?
N1 Cd1 C14 95.37(7) . 3_755 ?
O1 Cd1 C14 106.52(7) . 3_755 ?
O4 Cd1 C14 106.63(7) 2_654 3_755 ?
O2 Cd1 C14 156.56(7) . 3_755 ?
O6 Cd1 C14 26.45(7) 3_755 3_755 ?
C13 Cd1 C14 101.02(7) 2_654 3_755 ?
C14 O6 Cd1 87.12(15) . 3_745 ?
C11 C12 C7 122.6(2) . . ?
C13 O5 Cd1 94.71(15) . 2_655 ?
O6 C14 O7 122.1(2) . . ?
O6 C14 C11 120.4(2) . . ?
O7 C14 C11 117.4(2) . . ?
O6 C14 Cd1 66.42(14) . 3_745 ?
O7 C14 Cd1 55.68(13) . 3_745 ?
C11 C14 Cd1 171.59(17) . 3_745 ?
C14 O7 Cd1 97.48(16) . 3_745 ?
C17 N1 C15 111.0(2) . . ?
C17 N1 C19 106.3(2) . . ?
C15 N1 C19 106.3(2) . . ?
C17 N1 Cd1 110.16(15) . . ?
C15 N1 Cd1 112.98(16) . . ?
C19 N1 Cd1 109.88(16) . . ?
C13 O4 Cd1 87.74(16) . 2_655 ?
C1 O2 Cd1 89.74(16) . . ?
O4 C13 O5 122.4(2) . . ?
O4 C13 C9 122.2(2) . . ?
O5 C13 C9 115.4(2) . . ?
O4 C13 Cd1 65.37(13) . 2_655 ?
O5 C13 Cd1 57.70(12) . 2_655 ?
C9 C13 Cd1 168.71(19) . 2_655 ?
O3 C6 N2 120.6(2) . . ?
O3 C6 C7 119.3(2) . . ?
N2 C6 C7 120.0(2) . . ?
N2 C5 C4 100.6(3) . . ?
C20 C19 N1 110.8(2) . . ?
C12 C7 C8 116.8(2) . . ?
C12 C7 C6 119.1(2) . . ?
C8 C7 C6 123.9(2) . . ?
C6 N2 C5 127.1(3) . . ?
C6 N2 C2 120.2(2) . . ?
C5 N2 C2 112.7(2) . . ?
C10 C11 C12 118.6(2) . . ?
C10 C11 C14 120.9(2) . . ?
C12 C11 C14 120.45(19) . . ?
C1 O1 Cd1 94.99(17) . . ?
C9 C8 C7 119.4(2) . . ?
O1 C1 O2 122.6(2) . . ?
O1 C1 C2 117.1(3) . . ?
O2 C1 C2 120.2(3) . . ?
C10 C9 C8 121.2(2) . . ?
C10 C9 C13 121.1(2) . . ?
C8 C9 C13 117.7(2) . . ?
C9 C10 C11 121.4(2) . . ?
N3 C18 C17 107.8(2) . . ?
C15 C16 N3 107.1(2) . . ?
C18 N3 C20 109.7(2) . . ?
C18 N3 C16 110.0(2) . . ?
C20 N3 C16 108.2(2) . . ?
C19 C20 N3 111.4(2) . . ?
N2 C2 C3 104.9(2) . . ?
N2 C2 C1 109.5(2) . . ?
C3 C2 C1 110.0(2) . . ?
N1 C17 C18 111.2(2) . . ?
C4 C3 C2 105.3(3) . . ?
N1 C15 C16 113.7(2) . . ?
C3 C4 C5 105.0(3) . . ?

_diffrn_measured_fraction_theta_max 0.999
_diffrn_reflns_theta_full        24.99
_diffrn_measured_fraction_theta_full 0.999
_refine_diff_density_max         0.717
_refine_diff_density_min         -0.470
_refine_diff_density_rms         0.080

#end
