
#######################################################################
#
#                 Cambridge Crystallographic Data Centre
#                                CCDC
#
#######################################################################
#
# If this CIF has been generated from an entry in the Cambridge
# Structural Database, then it will include bibliographic, chemical,
# crystal, experimental, refinement or atomic coordinate data resulting
# from the CCDC's data processing and validation procedures.
#
#######################################################################

data_CSD_CIF_QUIDON01
_audit_creation_date 1971-12-31
_audit_creation_method CSD-ConQuest-V1
_database_code_CSD QUIDON01
_database_code_depnum_ccdc_archive 'CCDC 1245605'
_chemical_formula_sum 'C12 H10 O4'
_chemical_formula_moiety
;
C6 H6 O2,C6 H4 O2
;
_journal_coeditor_code "IUCr A06086"
_journal_coden_Cambridge 107
_journal_volume 24
_journal_year 1968
_journal_page_first 403
_journal_name_full 'Acta Crystallogr.,Sect.B:Struct.Crystallogr.Cryst.Chem. '
loop_
_publ_author_name
"T.Sakurai"
_chemical_name_systematic
;
Quinhydrone
;
_chemical_name_common
;
Teaching Subset: Fundamental Chemistry, Symmetry
;
_cell_volume    499.881
_exptl_special_details
;
monoclinic alpha polymorph

;
_diffrn_ambient_temperature ?
_diffrn_special_details
;
The study was carried out at room temperature,in the range 283-303K

;
#These two values have been output from a single CSD field.
_refine_ls_R_factor_gt 0.094
_refine_ls_wR_factor_gt 0.094
_symmetry_cell_setting monoclinic
_symmetry_space_group_name_H-M 'P 21/c'
_symmetry_Int_Tables_number 14
loop_
_symmetry_equiv_pos_site_id
_symmetry_equiv_pos_as_xyz
1 x,y,z
2 -x,1/2+y,1/2-z
3 -x,-y,-z
4 x,-1/2-y,-1/2+z
_cell_length_a 7.647
_cell_length_b 6.001
_cell_length_c 11.59
_cell_angle_alpha 90
_cell_angle_beta 109.97
_cell_angle_gamma 90
_cell_formula_units_Z 2
loop_
_atom_type_symbol
_atom_type_radius_bond
C 0.68
H 0.20
O 0.68
loop_
_atom_site_label
_atom_site_type_symbol
_atom_site_fract_x
_atom_site_fract_y
_atom_site_fract_z
C1 C 0.12740 0.17060 0.04290
C2 C 0.11400 0.00560 0.12200
C3 C 0.01510 0.16640 -0.07970
H1 H 0.26900 0.41000 0.04800
H2 H 0.21400 0.01600 0.21400
H3 H 0.04600 0.28900 -0.13400
O1 O 0.25880 0.33360 0.09010
C4 C -0.37840 0.18690 0.03950
C5 C -0.38520 0.00960 0.12600
C6 C -0.49900 0.16290 -0.09030
H4 H -0.28500 0.03000 0.20900
H5 H -0.46000 0.28300 -0.14400
O2 O -0.27670 0.34780 0.07460
C3B C -0.01510 -0.16640 0.07970
C2B C -0.11400 -0.00560 -0.12200
C1B C -0.12740 -0.17060 -0.04290
H3B H -0.04600 -0.28900 0.13400
H2B H -0.21400 -0.01600 -0.21400
O1B O -0.25880 -0.33360 -0.09010
H1B H -0.26900 -0.41000 -0.04800
C6B C -0.50100 -0.16290 0.09030
C5B C -0.61480 -0.00960 -0.12600
C4B C -0.62160 -0.18690 -0.03950
H5B H -0.54000 -0.28300 0.14400
H4B H -0.71500 -0.03000 -0.20900
O2B O -0.72330 -0.34780 -0.07460
#END
