####################################################################### 
# 
# This file contains crystal structure data downloaded from the 
# Cambridge Structural Database (CSD) hosted by the Cambridge 
# Crystallographic Data Centre (CCDC).
# 
# Full information about CCDC data access policies and citation 
# guidelines are available at http://www.ccdc.cam.ac.uk/access/V1 
# 
# Audit and citation data items may have been added by the CCDC. 
# Please retain this information to preserve the provenance of 
# this file and to allow appropriate attribution of the data. 
# 
#######################################################################

data_1
_audit_block_doi                 10.5517/cc13q79c
_database_code_depnum_ccdc_archive 'CCDC 1034262'
loop_
_citation_id
_citation_doi
_citation_year
1 10.1021/acs.inorgchem.5b00561 2015
_audit_update_record             
;
2014-11-14 deposited with the CCDC.	2024-07-12 downloaded from the CCDC.
;
_audit_creation_date             2014-11-14
_audit_creation_method           
;
Olex2 1.2
(compiled 2014.09.19 svn.r3010 for OlexSys, GUI svn.r4874)
;
_chemical_name_common            ?
_chemical_name_systematic        
;
 ? 
;
_chemical_formula_moiety         'C36 H25 Cu3 N12 O9, N O3, 2(O)'
_chemical_formula_sum            'C38 H45 Cu3 N13 O20'
_chemical_formula_weight         1194.49
_chemical_melting_point          ?
_chemical_oxdiff_formula         'C Cu'
loop_
_atom_type_symbol
_atom_type_description
_atom_type_scat_dispersion_real
_atom_type_scat_dispersion_imag
_atom_type_scat_source
C C 0.0033 0.0016 'International Tables Vol C Tables 4.2.6.8 and 6.1.1.4'
H H 0.0000 0.0000 'International Tables Vol C Tables 4.2.6.8 and 6.1.1.4'
Cu Cu 0.3201 1.2651 'International Tables Vol C Tables 4.2.6.8 and 6.1.1.4'
N N 0.0061 0.0033 'International Tables Vol C Tables 4.2.6.8 and 6.1.1.4'
O O 0.0106 0.0060 'International Tables Vol C Tables 4.2.6.8 and 6.1.1.4'

_space_group_crystal_system      monoclinic
_space_group_IT_number           15
_space_group_name_H-M_alt        'C 1 2/c 1'
_space_group_name_Hall           '-C 2yc'
loop_
_space_group_symop_id
_space_group_symop_operation_xyz
1 'x, y, z'
2 '-x, y, -z+1/2'
3 'x+1/2, y+1/2, z'
4 '-x+1/2, y+1/2, -z+1/2'
5 '-x, -y, -z'
6 'x, -y, z-1/2'
7 '-x+1/2, -y+1/2, -z'
8 'x+1/2, -y+1/2, z-1/2'

_cell_length_a                   25.4902(4)
_cell_length_b                   14.7273(2)
_cell_length_c                   27.1139(5)
_cell_angle_alpha                90.00
_cell_angle_beta                 94.6592(17)
_cell_angle_gamma                90.00
_cell_volume                     10145.0(3)
_cell_formula_units_Z            8
_cell_measurement_reflns_used    20966
_cell_measurement_temperature    133(3)
_cell_measurement_theta_max      28.8850
_cell_measurement_theta_min      3.3490
_exptl_absorpt_coefficient_mu    1.333
_exptl_absorpt_correction_T_max  1.00000
_exptl_absorpt_correction_T_min  0.79512
_exptl_absorpt_correction_type   multi-scan
_exptl_absorpt_process_details   
'CrysAlisPro, Agilent Technologies, Version 1.171.36.28 (release 01-02-2013 CrysAlis171 .NET) (compiled Feb 1 2013,16:14:44) Empirical absorption correction using spherical harmonics, implemented in SCALE3 ABSPACK scaling algorithm.'
_exptl_crystal_colour            blue
_exptl_crystal_colour_primary    blue
_exptl_crystal_density_diffrn    1.564
_exptl_crystal_density_meas      ?
_exptl_crystal_density_method    'not measured'
_exptl_crystal_description       block
_exptl_crystal_F_000             4888
_exptl_crystal_size_max          0.2
_exptl_crystal_size_mid          0.2
_exptl_crystal_size_min          0.2
_exptl_special_details           
;
 ? 
;
_diffrn_reflns_av_R_equivalents  0.0297
_diffrn_reflns_av_unetI/netI     0.0234
_diffrn_reflns_limit_h_max       30
_diffrn_reflns_limit_h_min       -30
_diffrn_reflns_limit_k_max       17
_diffrn_reflns_limit_k_min       -17
_diffrn_reflns_limit_l_max       32
_diffrn_reflns_limit_l_min       -32
_diffrn_reflns_number            41077
_diffrn_reflns_theta_full        25.03
_diffrn_reflns_theta_max         25.03
_diffrn_reflns_theta_min         2.93
_diffrn_ambient_temperature      133(3)
_diffrn_detector_area_resol_mean 16.2116
_diffrn_measured_fraction_theta_full 0.998
_diffrn_measured_fraction_theta_max 0.998
_diffrn_measurement_details      
;
#__ type_ start__ end____ width___ exp.time_
  1 omega  -51.00  -14.00   1.0000   28.0000
omega____ theta____ kappa____ phi______ frames
    -       18.0372  -57.0000  150.0000 37

#__ type_ start__ end____ width___ exp.time_
  2 omega  -20.00   60.00   1.0000   28.0000
omega____ theta____ kappa____ phi______ frames
    -       18.0372  -99.0000   30.0000 80

#__ type_ start__ end____ width___ exp.time_
  3 omega    4.00   87.00   1.0000   28.0000
omega____ theta____ kappa____ phi______ frames
    -       18.0372   57.0000  -60.0000 83

#__ type_ start__ end____ width___ exp.time_
  4 omega    2.00   82.00   1.0000   28.0000
omega____ theta____ kappa____ phi______ frames
    -       18.0372   77.0000 -180.0000 80

#__ type_ start__ end____ width___ exp.time_
  5 omega  -59.00  -34.00   1.0000   28.0000
omega____ theta____ kappa____ phi______ frames
    -      -18.8185  178.0000  -60.0000 25

#__ type_ start__ end____ width___ exp.time_
  6 omega  -91.00  -40.00   1.0000   28.0000
omega____ theta____ kappa____ phi______ frames
    -      -18.8185  -19.0000    0.0000 51

#__ type_ start__ end____ width___ exp.time_
  7 omega  -48.00   20.00   1.0000   28.0000
omega____ theta____ kappa____ phi______ frames
    -      -18.8185   77.0000   90.0000 68

#__ type_ start__ end____ width___ exp.time_
  8 omega  -74.00  -47.00   1.0000   28.0000
omega____ theta____ kappa____ phi______ frames
    -      -18.8185  -57.0000  120.0000 27

#__ type_ start__ end____ width___ exp.time_
  9 omega  -16.00    9.00   1.0000   28.0000
omega____ theta____ kappa____ phi______ frames
    -      -18.8185  -77.0000  -90.0000 25
;
_diffrn_measurement_device_type  'SuperNova, Single source at offset, Eos'
_diffrn_measurement_method       '\w scans'
_diffrn_orient_matrix_UB_11      -0.0005420000
_diffrn_orient_matrix_UB_12      -0.0292668000
_diffrn_orient_matrix_UB_13      0.0207442000
_diffrn_orient_matrix_UB_21      -0.0010487500
_diffrn_orient_matrix_UB_22      -0.0381943500
_diffrn_orient_matrix_UB_23      -0.0159611000
_diffrn_orient_matrix_UB_31      0.0279042500
_diffrn_orient_matrix_UB_32      -0.0020016500
_diffrn_orient_matrix_UB_33      0.0019923000
_diffrn_radiation_monochromator  mirror
_diffrn_radiation_type           MoK\a
_diffrn_radiation_wavelength     0.71073
_diffrn_source                   'SuperNova (Mo) X-ray Source'
_diffrn_standards_decay_%        ?
_diffrn_standards_interval_count ?
_diffrn_standards_interval_time  ?
_diffrn_standards_number         ?
_reflns_number_gt                8229
_reflns_number_total             8971
_reflns_odcompleteness_completeness 99.81
_reflns_odcompleteness_iscentric 1
_reflns_odcompleteness_theta     26.32
_reflns_threshold_expression     >2sigma(I)
_computing_cell_refinement       
'CrysAlisPro, Agilent Technologies, Version 1.171.36.28 (release 01-02-2013 CrysAlis171 .NET) (compiled Feb 1 2013,16:14:44)'
_computing_data_collection       
'CrysAlisPro, Agilent Technologies, Version 1.171.36.28 (release 01-02-2013 CrysAlis171 .NET) (compiled Feb 1 2013,16:14:44)'
_computing_data_reduction        
'CrysAlisPro, Agilent Technologies, Version 1.171.36.28 (release 01-02-2013 CrysAlis171 .NET) (compiled Feb 1 2013,16:14:44)'
_computing_molecular_graphics    'Olex2 (Dolomanov et al., 2009)'
_computing_publication_material  'Olex2 (Dolomanov et al., 2009)'
_computing_structure_refinement  'XL (Sheldrick, 2008)'
_computing_structure_solution    'SHELXS-97 (Sheldrick, 1990)'
_refine_diff_density_max         2.234
_refine_diff_density_min         -1.230
_refine_diff_density_rms         0.140
_refine_ls_extinction_coef       ?
_refine_ls_extinction_method     none
_refine_ls_goodness_of_fit_ref   1.060
_refine_ls_hydrogen_treatment    mixed
_refine_ls_matrix_type           full
_refine_ls_number_parameters     672
_refine_ls_number_reflns         8971
_refine_ls_number_restraints     113
_refine_ls_R_factor_all          0.0612
_refine_ls_R_factor_gt           0.0576
_refine_ls_restrained_S_all      1.091
_refine_ls_shift/su_max          0.001
_refine_ls_shift/su_mean         0.000
_refine_ls_structure_factor_coef Fsqd
_refine_ls_weighting_details     
'calc w=1/[\s^2^(Fo^2^)+(0.0752P)^2^+144.6708P] where P=(Fo^2^+2Fc^2^)/3'
_refine_ls_weighting_scheme      calc
_refine_ls_wR_factor_gt          0.1587
_refine_ls_wR_factor_ref         0.1626
_refine_special_details          
;
 Refinement of F^2^ against ALL reflections.  The weighted R-factor wR and 
 goodness of fit S are based on F^2^, conventional R-factors R are based 
 on F, with F set to zero for negative F^2^. The threshold expression of 
 F^2^ > 2sigma(F^2^) is used only for calculating R-factors(gt) etc. and is 
 not relevant to the choice of reflections for refinement.  R-factors based 
 on F^2^ are statistically about twice as large as those based on F, and R- 
 factors based on ALL data will be even larger. 
;
_olex2_refinement_description    
;
1. Shared sites
{C34, H2AA}
{H5AA, C39}
2. Others
 Fixed Uiso: H32(0.019) H36(0.037) H40(0.027) H41(0.025) H49(0.038) H55(0.026)
 H59(0.035) H75(0.035) H13(0.034) H18(0.025) H14(0.038) H9(0.015) H2(0.021)
 H7(0.028) H3(0.039) H4(0.037) H20(0.028) H5(0.048) H15(0.044) H16(0.06)
 H2AA(0.024) H21(0.047) H29(0.054) H7AA(0.034) H8AA(0.032) H5AA(0.034)
 H3AA(0.042) H1AA(0.026)
 Fixed X: H32(0.1315) H36(0.2392) H40(0.0878) H41(0.0778) H49(0.2269)
 H55(0.2193) H59(0.2282) H75(0.0874) H13(-0.0459) H18(0.2675) H14(-0.0396) H9(-
 0.015) H2(0.0561) H7(-0.0736) H3(-0.034) H4(-0.1142) H20(-0.1538) H5(-0.1248)
 H15(-0.119) H16(0.3446) H2AA(0.1739) H21(0.1276) H29(0.1236) H7AA(0.1852)
 H8AA(0.1831) H5AA(0.1367) H3AA(0.1385) H1AA(0.1694)
 Fixed Y: H32(0.6446) H36(0.4745) H40(0.5576) H41(0.5443) H49(0.4553)
 H55(0.4218) H59(0.2492) H75(0.2428) H13(0.3035) H18(0.7853) H14(0.3468)
 H9(0.5673) H2(0.7654) H7(0.6977) H3(0.7719) H4(0.8485) H20(0.7731) H5(0.2225)
 H15(0.2668) H16(0.5543) H2AA(0.0764) H21(0.1294) H29(0.9755) H7AA(0.1052)
 H8AA(0.9463) H5AA(0.0917) H3AA(0.9321) H1AA(0.9226)
 Fixed Z: H32(0.2408) H36(0.3336) H40(0.3089) H41(0.3933) H49(0.4171)
 H55(0.2461) H59(0.1432) H75(0.0697) H13(0.0276) H18(0.1153) H14(0.1752)
 H9(0.0465) H2(0.1257) H7(0.0175) H3(0.1594) H4(0.1614) H20(0.0196) H5(0.0318)
 H15(0.1799) H16(0.1033) H2AA(0.063) H21(0.1975) H29(0.2131) H7AA(0.0299)
 H8AA(0.0256) H5AA(0.1693) H3AA(0.1625) H1AA(0.0793)
;
_atom_sites_solution_hydrogens   geom
_atom_sites_solution_primary     direct
_atom_sites_solution_secondary   difmap
loop_
_atom_site_label
_atom_site_type_symbol
_atom_site_fract_x
_atom_site_fract_y
_atom_site_fract_z
_atom_site_U_iso_or_equiv
_atom_site_adp_type
_atom_site_occupancy
_atom_site_calc_flag
_atom_site_disorder_assembly
_atom_site_disorder_group
_atom_site_refinement_flags_posn
_atom_site_refinement_flags_adp
Cu1 Cu 0.09909(2) 0.46394(3) 0.065922(19) 0.00748(15) Uani 1 d . . . .
Cu2 Cu 0.22680(2) 0.46340(4) 0.11553(2) 0.01004(15) Uani 1 d . . . .
Cu3 Cu 0.16273(2) 0.65149(3) 0.115463(19) 0.00723(15) Uani 1 d . . . .
N11 N 0.18530(15) 0.3490(3) 0.11104(15) 0.0141(8) Uani 1 d . . . .
N12 N 0.13637(16) 0.3474(3) 0.08560(15) 0.0145(8) Uani 1 d . . . .
N7 N 0.17205(17) 0.5291(3) 0.26280(14) 0.0167(9) Uani 1 d . . . .
C12 C 0.1515(2) 0.4993(4) 0.41382(18) 0.0185(10) Uani 1 d . . . .
N9 N 0.16891(16) 0.5838(3) 0.18769(14) 0.0136(8) Uani 1 d . . . .
C18 C 0.15314(19) 0.5959(3) 0.23174(17) 0.0157(10) Uani 1 d . . . .
H32 H 0.1315 0.6446 0.2408 0.019 Uiso 1 calc . . R .
N8 N 0.19950(17) 0.5055(3) 0.18926(15) 0.0163(9) Uani 1 d . . . .
C16 C 0.2062(2) 0.4881(5) 0.3458(2) 0.0308(14) Uani 1 d . . . .
H36 H 0.2392 0.4745 0.3336 0.037 Uiso 1 calc . . R .
C15 C 0.1646(2) 0.5187(4) 0.31418(18) 0.0192(10) Uani 1 d . . . .
C14 C 0.1164(2) 0.5384(4) 0.33109(19) 0.0224(11) Uani 1 d . . . .
H40 H 0.0878 0.5576 0.3089 0.027 Uiso 1 calc . . R .
C13 C 0.1106(2) 0.5294(4) 0.38108(19) 0.0207(11) Uani 1 d . . . .
H41 H 0.0778 0.5443 0.3933 0.025 Uiso 1 calc . . R .
N10 N 0.15659(19) 0.2107(3) 0.1101(2) 0.0399(14) Uani 1 d . . . U
C17 C 0.1988(2) 0.4778(5) 0.3953(2) 0.0316(14) Uani 1 d . . . .
H49 H 0.2269 0.4553 0.4171 0.038 Uiso 1 calc . . R .
C19 C 0.2009(2) 0.4747(4) 0.23449(18) 0.0215(11) Uani 1 d . . . .
H55 H 0.2193 0.4218 0.2461 0.026 Uiso 1 calc . . R .
C44 C 0.1965(2) 0.2672(4) 0.1250(2) 0.0293(14) Uani 1 d . . . .
H59 H 0.2282 0.2492 0.1432 0.035 Uiso 1 calc . . R .
C43 C 0.1200(2) 0.2636(4) 0.0851(2) 0.0289(13) Uani 1 d . . . .
H75 H 0.0874 0.2428 0.0697 0.035 Uiso 1 calc . . R .
O1 O 0.16546(12) 0.5297(2) 0.08384(11) 0.0082(6) Uani 1 d . . D .
N6 N 0.08511(15) 0.6511(3) 0.09936(15) 0.0125(8) Uani 1 d . . . .
O2 O 0.03219(12) 0.3967(2) 0.05700(12) 0.0138(7) Uani 1 d . . . .
N3 N 0.24116(15) 0.6573(3) 0.11395(16) 0.0162(9) Uani 1 d . . . .
O3 O 0.03811(15) 0.4140(3) 0.13851(14) 0.0319(10) Uani 1 d . . . .
N5 N 0.06061(15) 0.5819(3) 0.07215(14) 0.0109(8) Uani 1 d . . . .
C8 C -0.03539(19) 0.3321(3) 0.1014(2) 0.0183(10) Uani 1 d . . . .
C1 C 0.01501(19) 0.3853(3) 0.0995(2) 0.0185(10) Uani 1 d . . . .
C3 C -0.0606(2) 0.2957(4) 0.0584(2) 0.0282(13) Uani 1 d . . . .
H13 H -0.0459 0.3035 0.0276 0.034 Uiso 1 calc . . R .
N1 N 0.32365(18) 0.6879(3) 0.1087(2) 0.0350(13) Uani 1 d . . . U
N2 N 0.26775(17) 0.5767(3) 0.1102(2) 0.0297(12) Uani 1 d . . . .
C10 C 0.2754(2) 0.7225(3) 0.1131(2) 0.0208(11) Uani 1 d . . . .
H18 H 0.2675 0.7853 0.1153 0.025 Uiso 1 calc . . R .
C7 C -0.0570(2) 0.3214(4) 0.1462(2) 0.0315(13) Uani 1 d . . . .
H14 H -0.0396 0.3468 0.1752 0.038 Uiso 1 calc . . R .
O4 O 0.10543(13) 0.4755(2) -0.01492(12) 0.0147(7) Uani 1 d . . . .
N4 N 0.00228(15) 0.6834(3) 0.08672(16) 0.0162(9) Uani 1 d . . . .
C27 C 0.01103(18) 0.6028(3) 0.06463(17) 0.0125(9) Uani 1 d . . . .
H9 H -0.0150 0.5673 0.0465 0.015 Uiso 1 calc . . R .
C24 C -0.04677(18) 0.7301(3) 0.0883(2) 0.0180(10) Uani 1 d . . . .
C28 C 0.04976(19) 0.7106(3) 0.10765(19) 0.0179(10) Uani 1 d . . . .
H2 H 0.0561 0.7654 0.1257 0.021 Uiso 1 calc . . R .
C21 C -0.14194(18) 0.8179(3) 0.09044(19) 0.0169(10) Uani 1 d . . . .
C23 C -0.0820(2) 0.7287(4) 0.0466(2) 0.0235(11) Uani 1 d . . . .
H7 H -0.0736 0.6977 0.0175 0.028 Uiso 1 calc . . R .
C25 C -0.0583(2) 0.7730(5) 0.1310(2) 0.0322(14) Uani 1 d . . . .
H3 H -0.0340 0.7719 0.1594 0.039 Uiso 1 calc . . R .
C26 C -0.1059(2) 0.8178(4) 0.1322(2) 0.0310(14) Uani 1 d . . . .
H4 H -0.1142 0.8485 0.1614 0.037 Uiso 1 calc . . R .
C22 C -0.1294(2) 0.7732(4) 0.0480(2) 0.0236(12) Uani 1 d . . . .
H20 H -0.1538 0.7731 0.0196 0.028 Uiso 1 calc . . R .
C4 C -0.1073(2) 0.2479(5) 0.0608(3) 0.0398(17) Uani 1 d . . . .
H5 H -0.1248 0.2225 0.0318 0.048 Uiso 1 calc . . R .
C6 C -0.1038(2) 0.2741(4) 0.1493(3) 0.0363(15) Uani 1 d . . . .
H15 H -0.1190 0.2668 0.1799 0.044 Uiso 1 calc . . R .
C5 C -0.1275(2) 0.2382(4) 0.1057(3) 0.0308(14) Uani 1 d . . . .
C40 C 0.1507(4) 0.1133(8) 0.1292(4) 0.016(2) Uani 0.474(7) d . 2 D U
C9 C 0.3173(2) 0.5971(4) 0.1067(3) 0.050(2) Uani 1 d . . . .
H16 H 0.3446 0.5543 0.1033 0.060 Uiso 1 calc . . R .
O5 O 0.18218(17) 0.5495(3) -0.00633(13) 0.0369(11) Uani 1 d . . . .
C11 C 0.1456(2) 0.5097(3) -0.03182(18) 0.0188(11) Uani 1 d . . . .
O9 O 0.16074(13) 0.7815(2) 0.12831(14) 0.0186(8) Uani 1 d . . . .
O10 O 0.1282(4) 0.8035(5) 0.1961(3) 0.039(3) Uani 0.474(7) d . . . .
C36 C 0.1454(4) 0.8334(7) 0.1575(4) 0.018(2) Uani 0.474(7) d . 2 . .
O7 O -0.21847(14) 0.8839(3) 0.05038(14) 0.0248(8) Uani 1 d . . . .
C20 C -0.19274(18) 0.8684(3) 0.08993(19) 0.0158(10) Uani 1 d . . . .
O6 O -0.20755(13) 0.8948(2) 0.13202(13) 0.0174(7) Uani 1 d . . . .
C37 C 0.1462(6) 0.9361(9) 0.1476(4) 0.016(3) Uani 0.474(7) d . 2 D U
C41 C 0.1635(5) 0.0551(7) 0.0938(4) 0.020(3) Uani 0.474(7) d . 2 D U
H2AA H 0.1739 0.0764 0.0630 0.024 Uiso 0.474(7) calc . 2 R .
C39 C 0.1361(6) 0.0864(7) 0.1733(5) 0.039(3) Uani 0.474(7) d . 2 D U
H21 H 0.1276 0.1294 0.1975 0.047 Uiso 0.474(7) calc . 2 R .
C38 C 0.1339(7) 0.9965(6) 0.1822(5) 0.045(4) Uani 0.474(7) d . 2 D U
H29 H 0.1236 0.9755 0.2131 0.054 Uiso 0.474(7) calc . 2 R .
O8 O 0.1723(3) 0.7879(5) 0.0532(3) 0.0249(18) Uani 0.526(7) d . . D .
C33 C 0.1602(4) 0.1109(9) 0.0993(5) 0.020(2) Uani 0.526(7) d . 1 . .
C34 C 0.1750(5) 0.0700(7) 0.0569(4) 0.028(3) Uani 0.526(7) d . 1 . .
H7AA H 0.1852 0.1052 0.0299 0.034 Uiso 0.526(7) calc . 1 R .
C29 C 0.1652(3) 0.8242(7) 0.0924(3) 0.016(2) Uani 0.526(7) d . 1 . .
C35 C 0.1745(5) 0.9766(7) 0.0548(4) 0.027(2) Uani 0.526(7) d . 1 . .
H8AA H 0.1831 0.9463 0.0256 0.032 Uiso 0.526(7) calc . 1 R .
C32 C 0.1464(5) 0.0626(8) 0.1402(5) 0.028(3) Uani 0.526(7) d . 1 . U
H5AA H 0.1367 0.0917 0.1693 0.034 Uiso 0.526(7) calc . 1 R .
C30 C 0.1618(5) 0.9279(9) 0.0946(4) 0.016(3) Uani 0.526(7) d . 1 . U
C31 C 0.1478(8) 0.9685(11) 0.1356(7) 0.035(4) Uani 0.526(7) d . 1 . U
H3AA H 0.1385 0.9321 0.1625 0.042 Uiso 0.526(7) calc . 1 R .
C42 C 0.1608(6) 0.9654(8) 0.1036(5) 0.022(3) Uani 0.474(7) d . 2 D U
H1AA H 0.1694 0.9226 0.0793 0.026 Uiso 0.474(7) calc . 2 R .
H1A H 0.177(2) 0.537(4) 0.0559(11) 0.024(16) Uiso 1 d . . D .
O12 O 0.1798(5) 0.2714(9) 0.2448(6) 0.199(6) Uani 1 d . . D U
N13 N 0.2045(5) 0.2062(9) 0.2512(5) 0.164(6) Uani 1 d . . D U
O11 O 0.1882(7) 0.1450(10) 0.2762(7) 0.261(9) Uani 1 d . . D U
O13 O 0.2439(6) 0.1927(12) 0.2305(6) 0.237(8) Uani 1 d . . D U
O15 O 0.2030(4) 0.9089(7) -0.0026(4) 0.128(3) Uani 1 d . . D .
O14 O 0.2672(4) 0.7775(7) 0.0078(4) 0.147(4) Uani 1 d A -1 D .

loop_
_atom_site_aniso_label
_atom_site_aniso_U_11
_atom_site_aniso_U_22
_atom_site_aniso_U_33
_atom_site_aniso_U_23
_atom_site_aniso_U_13
_atom_site_aniso_U_12
Cu1 0.0050(3) 0.0053(3) 0.0121(3) -0.0004(2) 0.0005(2) -0.00086(19)
Cu2 0.0049(3) 0.0062(3) 0.0191(3) -0.0029(2) 0.0009(2) 0.0006(2)
Cu3 0.0065(3) 0.0043(3) 0.0108(3) -0.0002(2) 0.0007(2) -0.00032(19)
N11 0.0075(18) 0.0097(19) 0.025(2) 0.0013(16) -0.0003(16) 0.0024(15)
N12 0.013(2) 0.0073(19) 0.023(2) 0.0004(1