####################################################################### 
# 
# This file contains crystal structure data downloaded from the 
# Cambridge Structural Database (CSD) hosted by the Cambridge 
# Crystallographic Data Centre (CCDC).
# 
# Full information about CCDC data access policies and citation 
# guidelines are available at http://www.ccdc.cam.ac.uk/access/V1 
# 
# Audit and citation data items may have been added by the CCDC. 
# Please retain this information to preserve the provenance of 
# this file and to allow appropriate attribution of the data. 
# 
#######################################################################

data_1c
_audit_block_doi                 10.5517/cc13q7dg
_database_code_depnum_ccdc_archive 'CCDC 1034265'
loop_
_citation_id
_citation_doi
_citation_year
1 10.1021/acs.inorgchem.5b00561 2015
_audit_update_record             
;
2014-11-14 deposited with the CCDC.	2024-07-12 downloaded from the CCDC.
;
_audit_creation_date             2014-11-14
_audit_creation_method           
;
Olex2 1.2
(compiled 2014.09.19 svn.r3010 for OlexSys, GUI svn.r4874)
;
_chemical_name_common            ?
_chemical_name_systematic        
;
 ? 
;
_chemical_formula_moiety         'C36 H25 Cu3 N13 O12'
_chemical_formula_sum            'C36 H25 Cu3 N13 O12'
_chemical_formula_weight         1022.31
_chemical_melting_point          ?
_chemical_oxdiff_formula         'C Cu'
loop_
_atom_type_symbol
_atom_type_description
_atom_type_scat_dispersion_real
_atom_type_scat_dispersion_imag
_atom_type_scat_source
C C 0.0033 0.0016 'International Tables Vol C Tables 4.2.6.8 and 6.1.1.4'
H H 0.0000 0.0000 'International Tables Vol C Tables 4.2.6.8 and 6.1.1.4'
Cu Cu 0.3201 1.2651 'International Tables Vol C Tables 4.2.6.8 and 6.1.1.4'
N N 0.0061 0.0033 'International Tables Vol C Tables 4.2.6.8 and 6.1.1.4'
O O 0.0106 0.0060 'International Tables Vol C Tables 4.2.6.8 and 6.1.1.4'

_space_group_crystal_system      monoclinic
_space_group_IT_number           15
_space_group_name_H-M_alt        'C 1 2/c 1'
_space_group_name_Hall           '-C 2yc'
loop_
_space_group_symop_id
_space_group_symop_operation_xyz
1 'x, y, z'
2 '-x, y, -z+1/2'
3 'x+1/2, y+1/2, z'
4 '-x+1/2, y+1/2, -z+1/2'
5 '-x, -y, -z'
6 'x, -y, z-1/2'
7 '-x+1/2, -y+1/2, -z'
8 'x+1/2, -y+1/2, z-1/2'

_cell_length_a                   25.7877(6)
_cell_length_b                   14.8425(4)
_cell_length_c                   26.8476(12)
_cell_angle_alpha                90.00
_cell_angle_beta                 91.062(3)
_cell_angle_gamma                90.00
_cell_volume                     10274.3(6)
_cell_formula_units_Z            8
_cell_measurement_reflns_used    6224
_cell_measurement_temperature    293(2)
_cell_measurement_theta_max      28.4890
_cell_measurement_theta_min      3.4920
_exptl_absorpt_coefficient_mu    1.294
_exptl_absorpt_correction_T_max  1.00000
_exptl_absorpt_correction_T_min  0.60600
_exptl_absorpt_correction_type   multi-scan
_exptl_absorpt_process_details   
;
CrysAlisPro, Agilent Technologies,
Version 1.171.36.32 (release 02-08-2013 CrysAlis171 .NET)
(compiled Aug  2 2013,16:46:58)
Empirical absorption correction using spherical harmonics,
 implemented in SCALE3 ABSPACK scaling algorithm.
;
_exptl_crystal_colour            blue
_exptl_crystal_colour_primary    blue
_exptl_crystal_density_diffrn    1.322
_exptl_crystal_density_meas      ?
_exptl_crystal_density_method    'not measured'
_exptl_crystal_description       block
_exptl_crystal_F_000             4120
_exptl_crystal_size_max          0.1
_exptl_crystal_size_mid          0.1
_exptl_crystal_size_min          0.1
_exptl_special_details           
;
 ? 
;
_diffrn_reflns_av_R_equivalents  0.0417
_diffrn_reflns_av_unetI/netI     0.0672
_diffrn_reflns_limit_h_max       29
_diffrn_reflns_limit_h_min       -30
_diffrn_reflns_limit_k_max       17
_diffrn_reflns_limit_k_min       -11
_diffrn_reflns_limit_l_max       31
_diffrn_reflns_limit_l_min       -31
_diffrn_reflns_number            19046
_diffrn_reflns_theta_full        25.00
_diffrn_reflns_theta_max         25.00
_diffrn_reflns_theta_min         3.14
_diffrn_ambient_temperature      293(2)
_diffrn_detector_area_resol_mean 16.2116
_diffrn_measured_fraction_theta_full 0.998
_diffrn_measured_fraction_theta_max 0.998
_diffrn_measurement_details      
;
#__ type_ start__ end____ width___ exp.time_
  1 omega   42.00   94.00   1.0000   20.0000
omega____ theta____ kappa____ phi______ frames
    -       18.0372  178.0000 -180.0000 52

#__ type_ start__ end____ width___ exp.time_
  2 omega  -79.00  -53.00   1.0000   20.0000
omega____ theta____ kappa____ phi______ frames
    -      -18.8185 -178.0000  -90.0000 26

#__ type_ start__ end____ width___ exp.time_
  3 omega  -62.00   53.00   1.0000   20.0000
omega____ theta____ kappa____ phi______ frames
    -      -18.8185   19.0000 -120.0000 115

#__ type_ start__ end____ width___ exp.time_
  4 omega  -88.00  -59.00   1.0000   20.0000
omega____ theta____ kappa____ phi______ frames
    -      -18.8185  -57.0000  120.0000 29
;
_diffrn_measurement_device_type  'SuperNova, Single source at offset, Eos'
_diffrn_measurement_method       '\w scans'
_diffrn_orient_matrix_UB_11      -0.0207510000
_diffrn_orient_matrix_UB_12      -0.0278294000
_diffrn_orient_matrix_UB_13      -0.0083269000
_diffrn_orient_matrix_UB_21      -0.0035470000
_diffrn_orient_matrix_UB_22      -0.0152507000
_diffrn_orient_matrix_UB_23      0.0247660000
_diffrn_orient_matrix_UB_31      -0.0176978000
_diffrn_orient_matrix_UB_32      0.0357029000
_diffrn_orient_matrix_UB_33      0.0040612000
_diffrn_radiation_monochromator  mirror
_diffrn_radiation_type           MoK\a
_diffrn_radiation_wavelength     0.71073
_diffrn_source                   'SuperNova (Mo) X-ray Source'
_diffrn_standards_decay_%        ?
_diffrn_standards_interval_count ?
_diffrn_standards_interval_time  ?
_diffrn_standards_number         ?
_reflns_number_gt                7005
_reflns_number_total             9039
_reflns_odcompleteness_completeness 99.67
_reflns_odcompleteness_iscentric 1
_reflns_odcompleteness_theta     26.32
_reflns_threshold_expression     >2sigma(I)
_computing_cell_refinement       
;
CrysAlisPro, Agilent Technologies,
Version 1.171.36.32 (release 02-08-2013 CrysAlis171 .NET)
(compiled Aug  2 2013,16:46:58)
;
_computing_data_collection       
;
CrysAlisPro, Agilent Technologies,
Version 1.171.36.32 (release 02-08-2013 CrysAlis171 .NET)
(compiled Aug  2 2013,16:46:58)
;
_computing_data_reduction        
;
CrysAlisPro, Agilent Technologies,
Version 1.171.36.32 (release 02-08-2013 CrysAlis171 .NET)
(compiled Aug  2 2013,16:46:58)
;
_computing_molecular_graphics    'Olex2 (Dolomanov et al., 2009)'
_computing_publication_material  'Olex2 (Dolomanov et al., 2009)'
_computing_structure_refinement  'XL (Sheldrick, 2008)'
_computing_structure_solution    
;
Superflip (Palatinus & Chapuis, 2007;Palatinus & van der Lee, 2008;
Palatinus et al., 2012)
;
_refine_diff_density_max         1.471
_refine_diff_density_min         -0.586
_refine_diff_density_rms         0.097
_refine_ls_extinction_coef       ?
_refine_ls_extinction_method     none
_refine_ls_goodness_of_fit_ref   1.026
_refine_ls_hydrogen_treatment    mixed
_refine_ls_matrix_type           full
_refine_ls_number_parameters     544
_refine_ls_number_reflns         9039
_refine_ls_number_restraints     7
_refine_ls_R_factor_all          0.0616
_refine_ls_R_factor_gt           0.0494
_refine_ls_restrained_S_all      1.027
_refine_ls_shift/su_max          0.001
_refine_ls_shift/su_mean         0.000
_refine_ls_structure_factor_coef Fsqd
_refine_ls_weighting_details     
'calc w=1/[\s^2^(Fo^2^)+(0.0734P)^2^+0.0000P] where P=(Fo^2^+2Fc^2^)/3'
_refine_ls_weighting_scheme      calc
_refine_ls_wR_factor_gt          0.1318
_refine_ls_wR_factor_ref         0.1404
_refine_special_details          
;
 Refinement of F^2^ against ALL reflections.  The weighted R-factor wR and 
 goodness of fit S are based on F^2^, conventional R-factors R are based 
 on F, with F set to zero for negative F^2^. The threshold expression of 
 F^2^ > 2sigma(F^2^) is used only for calculating R-factors(gt) etc. and is 
 not relevant to the choice of reflections for refinement.  R-factors based 
 on F^2^ are statistically about twice as large as those based on F, and R- 
 factors based on ALL data will be even larger. 
;
_olex2_refinement_description    
;
1. Others
 Fixed Uiso: H1(0.017) H5(0.062) H6(0.068) H8(0.042) H9(0.042) H11(0.035)
 H14(0.027) H19(0.078) H20(0.068) H22(0.052) H23(0.056) H25(0.047) H28(0.045)
 H33(0.085) H34(0.083) H36(0.095) H37(0.085) H39(0.056) H42(0.041) H47(0.059)
 H48(0.052) H50(0.067) H51(0.073) H53(0.046) H56(0.042)
 Fixed X: H5(0.5266) H6(0.6028) H8(0.6513) H9(0.5753) H11(0.4404) H14(0.5148)
 H19(0.1367) H20(0.0575) H22(0.0282) H23(0.1058) H25(0.2323) H28(0.1563)
 H33(0.3172) H34(0.3255) H36(0.3533) H37(0.3534) H39(0.2647) H42(0.4091)
 H47(0.4067) H48(0.4171) H50(0.271) H51(0.2596) H53(0.2824) H56(0.3625)
 Fixed Y: H5(0.2254) H6(0.1466) H8(0.2213) H9(0.3003) H11(0.2287) H14(0.4373)
 H19(0.2221) H20(0.1459) H22(0.2082) H23(0.288) H25(0.2114) H28(0.441) H33(-
 0.0861) H34(0.0721) H36(0.0266) H37(-0.1268) H39(-0.2561) H42(-0.2468)
 H47(0.4288) H48(0.4445) H50(0.5323) H51(0.5121) H53(0.5683) H56(0.3437)
 Fixed Z: H5(0.664) H6(0.6769) H8(0.5423) H9(0.529) H11(0.6098) H14(0.5563)
 H19(0.6509) H20(0.6554) H22(0.5134) H23(0.5102) H25(0.5792) H28(0.577)
 H33(0.5219) H34(0.5371) H36(0.6798) H37(0.6646) H39(0.6022) H42(0.5609)
 H47(0.7918) H48(0.8761) H50(0.8853) H51(0.8012) H53(0.7138) H56(0.7161)
;
_atom_sites_solution_hydrogens   geom
_atom_sites_solution_primary     iterative
_atom_sites_solution_secondary   difmap
loop_
_atom_site_label
_atom_site_type_symbol
_atom_site_fract_x
_atom_site_fract_y
_atom_site_fract_z
_atom_site_U_iso_or_equiv
_atom_site_adp_type
_atom_site_occupancy
_atom_site_calc_flag
_atom_site_disorder_assembly
_atom_site_disorder_group
_atom_site_refinement_flags_posn
_atom_site_refinement_flags_adp
H1 H 0.3242(13) 0.459(3) 0.5275(5) 0.017 Uiso 1 d . . DR .
H5 H 0.5266 0.2254 0.6640 0.062 Uiso 1 calc . . R .
H6 H 0.6028 0.1466 0.6769 0.068 Uiso 1 calc . . R .
H8 H 0.6513 0.2213 0.5423 0.042 Uiso 1 calc . . R .
H9 H 0.5753 0.3003 0.5290 0.042 Uiso 1 calc . . R .
H11 H 0.4404 0.2287 0.6098 0.035 Uiso 1 calc . . R .
H14 H 0.5148 0.4373 0.5563 0.027 Uiso 1 calc . . R .
H19 H 0.1367 0.2221 0.6509 0.078 Uiso 1 calc . . R .
H20 H 0.0575 0.1459 0.6554 0.068 Uiso 1 calc . . R .
H22 H 0.0282 0.2082 0.5134 0.052 Uiso 1 calc . . R .
H23 H 0.1058 0.2880 0.5102 0.056 Uiso 1 calc . . R .
H25 H 0.2323 0.2114 0.5792 0.047 Uiso 1 calc . . R .
H28 H 0.1563 0.4410 0.5770 0.045 Uiso 1 calc . . R .
H33 H 0.3172 -0.0861 0.5219 0.085 Uiso 1 calc . . R .
H34 H 0.3255 0.0721 0.5371 0.083 Uiso 1 calc . . R .
H36 H 0.3533 0.0266 0.6798 0.095 Uiso 1 calc . . R .
H37 H 0.3534 -0.1268 0.6646 0.085 Uiso 1 calc . . R .
H39 H 0.2647 -0.2561 0.6022 0.056 Uiso 1 calc . . R .
H42 H 0.4091 -0.2468 0.5609 0.041 Uiso 1 calc . . R .
H47 H 0.4067 0.4288 0.7918 0.059 Uiso 1 calc . . R .
H48 H 0.4171 0.4445 0.8761 0.052 Uiso 1 calc . . R .
H50 H 0.2710 0.5323 0.8853 0.067 Uiso 1 calc . . R .
H51 H 0.2596 0.5121 0.8012 0.073 Uiso 1 calc . . R .
H53 H 0.2824 0.5683 0.7138 0.046 Uiso 1 calc . . R .
H56 H 0.3625 0.3437 0.7161 0.042 Uiso 1 calc . . R .
C1 C -0.01437(14) 0.1183(3) 0.58653(17) 0.0298(10) Uani 1 d . . . .
C2 C 0.03524(14) 0.1701(3) 0.58482(17) 0.0303(10) Uani 1 d . . . .
C3 C 0.06708(18) 0.1737(4) 0.6260(2) 0.0564(15) Uani 1 d . . . .
C4 C 0.11441(18) 0.2197(4) 0.6233(2) 0.0651(17) Uani 1 d . . . .
C5 C 0.12745(14) 0.2608(3) 0.58009(19) 0.0364(11) Uani 1 d . . . .
C6 C 0.09635(16) 0.2587(3) 0.53924(19) 0.0470(13) Uani 1 d . . . .
C7 C 0.04971(16) 0.2116(3) 0.54151(18) 0.0430(12) Uani 1 d . . . .
C8 C 0.18297(14) 0.3987(3) 0.57714(18) 0.0378(11) Uani 1 d . . . .
C9 C 0.22468(15) 0.2726(3) 0.57846(19) 0.0392(12) Uani 1 d . . . .
C10 C 0.34273(19) 0.1641(4) 0.6184(2) 0.0496(13) Uani 1 d . . . .
C11 C 0.34095(18) 0.0609(3) 0.6096(2) 0.0478(13) Uani 1 d . . . .
C12 C 0.3480(3) 0.0047(4) 0.6476(3) 0.079(2) Uani 1 d . . . .
C13 C 0.3473(2) -0.0867(4) 0.6385(3) 0.0711(18) Uani 1 d . . . .
C14 C 0.33738(16) -0.1193(3) 0.5906(2) 0.0382(11) Uani 1 d . . . U
C15 C 0.3267(3) -0.0643(4) 0.5532(2) 0.0712(18) Uani 1 d . . . .
C16 C 0.3304(2) 0.0311(4) 0.5630(2) 0.0690(19) Uani 1 d . . . .
C17 C 0.29727(16) -0.2729(3) 0.5911(2) 0.0468(14) Uani 1 d . . . .
C18 C 0.37621(15) -0.2676(3) 0.56872(18) 0.0342(11) Uani 1 d . . . .
C19 C 0.68243(15) 0.1178(3) 0.61817(19) 0.0378(11) Uani 1 d . . . .
C20 C 0.63414(14) 0.1733(3) 0.61029(17) 0.0328(10) Uani 1 d . . . .
C21 C 0.59696(17) 0.1767(4) 0.6469(2) 0.0566(16) Uani 1 d . . . .
C22 C 0.55169(16) 0.2240(4) 0.63961(18) 0.0516(15) Uani 1 d . . . .
C23 C 0.54417(13) 0.2698(3) 0.59502(17) 0.0293(10) Uani 1 d . . . .
C24 C 0.58087(14) 0.2690(3) 0.55865(17) 0.0348(11) Uani 1 d . . . .
C25 C 0.62600(15) 0.2213(3) 0.56652(17) 0.0352(11) Uani 1 d . . . .
C26 C 0.44777(13) 0.2848(3) 0.59621(16) 0.0291(10) Uani 1 d . . . .
C27 C 0.48853(12) 0.3994(3) 0.56687(14) 0.0226(9) Uani 1 d . . . .
C28 C 0.34479(16) 0.4906(3) 0.89019(16) 0.0350(11) Uani 1 d . . . .
C29 C 0.38545(17) 0.4589(4) 0.86098(16) 0.0436(13) Uani 1 d . . . .
C30 C 0.37926(18) 0.4490(4) 0.81082(17) 0.0489(14) Uani 1 d . . . .
C31 C 0.33200(16) 0.4691(3) 0.78812(16) 0.0384(11) Uani 1 d . . . .
C32 C 0.29150(18) 0.4994(4) 0.81628(18) 0.0610(17) Uani 1 d . . . .
C33 C 0.29834(17) 0.5106(4) 0.86663(17) 0.0558(16) Uani 1 d . . . .
C34 C 0.35144(16) 0.5056(3) 0.94510(15) 0.0324(10) Uani 1 d . . . .
C35 C 0.34299(16) 0.3930(3) 0.70546(16) 0.0350(10) Uani 1 d . . . .
C36 C 0.29926(16) 0.5159(3) 0.70408(16) 0.0380(11) Uani 1 d . . . .
N1 N 0.17627(11) 0.3083(2) 0.57868(15) 0.0366(9) Uani 1 d . . . .
N2 N 0.25873(12) 0.3369(2) 0.57699(14) 0.0316(9) Uani 1 d . . . .
N3 N 0.23217(11) 0.4177(2) 0.57592(13) 0.0279(8) Uani 1 d . . . .
N4 N 0.49596(11) 0.3162(2) 0.58659(13) 0.0262(8) Uani 1 d . . . .
N5 N 0.41328(11) 0.3453(2) 0.58361(12) 0.0226(7) Uani 1 d . . . .
N6 N 0.43925(10) 0.4183(2) 0.56498(12) 0.0201(7) Uani 1 d . . . .
N7 N 0.32556(13) 0.4584(2) 0.73585(13) 0.0351(9) Uani 1 d . . . .
N8 N 0.32921(12) 0.4074(2) 0.66012(12) 0.0290(8) Uani 1 d . . . .
N9 N 0.30141(12) 0.4868(2) 0.65888(13) 0.0297(8) Uani 1 d . . . .
N10 N 0.33732(12) -0.2155(2) 0.58444(15) 0.0355(9) Uani 1 d . . . .
N11 N 0.36133(11) -0.3521(2) 0.56601(14) 0.0277(8) Uani 1 d . . . .
N12 N 0.31083(12) -0.3553(2) 0.57994(15) 0.0331(9) Uani 1 d . . . .
O1 O -0.03657(9) 0.10131(18) 0.54451(10) 0.0269(6) Uani 1 d . . . .
O2 O -0.03153(12) 0.0918(3) 0.62669(13) 0.0580(10) Uani 1 d . . . .
O3 O 0.33636(10) 0.2106(2) 0.58228(16) 0.0513(10) Uani 1 d . . . .
O4 O 0.3531(2) 0.1916(3) 0.66135(19) 0.0990(17) Uani 1 d . . . .
O5 O 0.69372(15) 0.0902(4) 0.66045(15) 0.0962(18) Uani 1 d . . . .
O6 O 0.70851(9) 0.10135(19) 0.57988(11) 0.0322(7) Uani 1 d . . . .
O7 O 0.31540(11) 0.5481(3) 0.96563(11) 0.0524(10) Uani 1 d . . . .
O8 O 0.39109(10) 0.4753(2) 0.96696(10) 0.0321(7) Uani 1 d . . . .
O9 O 0.33411(8) 0.46578(16) 0.55794(9) 0.0140(5) Uani 1 d . . D .
Cu1 Cu -0.100534(14) 0.03225(3) 0.549421(17) 0.01712(14) Uani 1 d . . . .
Cu2 Cu 0.336290(14) 0.34171(3) 0.586166(17) 0.01759(14) Uani 1 d . . . .
Cu3 Cu 0.272168(15) 0.53085(3) 0.584178(18) 0.01917(14) Uani 1 d . . . .

loop_
_atom_site_aniso_label
_atom_site_aniso_U_11
_atom_site_aniso_U_22
_atom_site_aniso_U_33
_atom_site_aniso_U_23
_atom_site_aniso_U_13
_atom_site_aniso_U_12
C1 0.0176(18) 0.023(2) 0.049(3) -0.003(2) 0.0001(18) -0.0054(18)
C2 0.0157(18) 0.026(2) 0.049(3) -0.003(2) -0.0025(17) -0.0081(17)
C3 0.045(3) 0.067(4) 0.057(4) 0.019(3) -0.011(2) -0.030(3)
C4 0.039(3) 0.073(4) 0.083(4) 0.021(4) -0.026(3) -0.028(3)
C5 0.021(2) 0.025(2) 0.063(3) 0.004(2) -0.003(2) -0.0113(19)
C6 0.031(2) 0.056(3) 0.054(3) -0.004(3) 0.005(2) -0.025(2)
C7 0.032(2) 0.054(3) 0.042(3) -0.007(2) -0.001(2) -0.023(2)
C8 0.0113(18) 0.028(2) 0.074(3) -0.006(2) -0.0030(18) -0.0019(18)
C9 0.019(2) 0.022(2) 0.077(4) 0.003(2) -0.003(2) -0.0062(19)
C10 0.045(3) 0.046(3) 0.057(4) -0.005(3) 0.006(2) -0.008(3)
C11 0.042(3) 0.035(3) 0.066(4) -0.013(3) 0.018(2) -0.018(2)
C12 0.116(5) 0.025(3) 0.095(5) -0.009(3) -0.023(4) -0.005(3)
C13 0.099(5) 0.019(3) 0.095(5) -0.005(3) -0.020(4) 0.011(3)
C14 0.035(2) 0.006(2) 0.074(3) -0.003(2) 0.007(2) -0.0019(18)
C15 0.131(6) 0.025(3) 0.057(4) -0.001(3) 0.020(4) 0.010(3)
C16 0.099(5) 0.034(3) 0.074(5) 0.030(3) 0.014(4) 0.020(3)
C17 0.026(2) 0.017(2) 0.097(4) -0.010(3) 0.021(2) 0.000(2)
C18 0.025(2) 0.013(2) 0.065(3) -0.001(2) 0.007(2) -0.0038(18)
C19 0.020(2) 0.041(3) 0.052(3) 0.000(2) -0.006(2) 0.017(2)
C20 0.0201(19) 0.032(2) 0.046(3) 0.005(2) 0.0017(18) 0.0165(19)
C21 0.043(3) 0.082(4) 0.046(3) 0.030(3) 0.007(2) 0.038(3)
C22 0.036(2) 0.075(4) 0.045(3) 0.019(3) 0.016(2) 0.031(3)
C23 0.0147(17) 0.021(2) 0.052(3) 0.006(2) -0.0002(17) 0.0111(17)
C24 0.022(2) 0.032(2) 0.050(3) 0.015(2) 0.0060(18) 0.0113(19)
C25 0.023(2) 0.033(3) 0.049(3) 0.002(2) 0.0083(18) 0.012(2)
C26 0.0159(18) 0.020(2) 0.051(3) 0.007(2) 0.0025(17) 0.0092(17)
C27 0.0097(16) 0.025(2) 0.033(2) -0.0007(18) -0.0012(14) -0.0001(16)
C28 0.037(2) 0.046(3) 0.022(2) -0.004(2) 0.0007(18) 0.012(2)
C29 0.036(2) 0.071(4) 0.023(2) -0.007(2) -0.0053(18) 0.020(2)
C30 0.043(3) 0.077(4) 0.027(3) -0.008(3) 0.001(2) 0.024(3)
C31 0.041(2) 0.054(3) 0.019(2) -0.002(2) -0.0049(18) 0.017(2)
C32 0.040(3) 0.115(5) 0.028(3) -0.014(3) -0.008(2) 0.030(3)
C33 0.032(2) 0.108(5) 0.027(3) -0.015(3) -0.0032(19) 0.019(3)
C34 0.034(2) 0.046(3) 0.017(2) -0.002(2) -0.0002(17) 0.006(2)
C35 0.043(2) 0.033(3) 0.029(3) -0.002(2) -0.0063(18) 0.017(2)
C36 0.043(2) 0.041(3) 0.029(3) -0.005(2) -0.0049(19) 0.021(2)
N1 0.0124(15) 0.025(2) 0.073(3) -0.0050(19) -0.0018(16) -0.0060(15)
N2 0.0164(1