####################################################################### 
# 
# This file contains crystal structure data downloaded from the 
# Cambridge Structural Database (CSD) hosted by the Cambridge 
# Crystallographic Data Centre (CCDC).
# 
# Full information about CCDC data access policies and citation 
# guidelines are available at http://www.ccdc.cam.ac.uk/access/V1 
# 
# Audit and citation data items may have been added by the CCDC. 
# Please retain this information to preserve the provenance of 
# this file and to allow appropriate attribution of the data. 
# 
#######################################################################

data_PMOF3
_audit_block_doi                 10.5517/cc14pjzb
_database_code_depnum_ccdc_archive 'CCDC 1063392'
loop_
_citation_id
_citation_doi
_citation_year
1 10.1039/C5CE00886G 2015
_audit_update_record             
;
2015-05-06 deposited with the CCDC.	2024-07-12 downloaded from the CCDC.
;
#==============================================================================

# start Validation Reply Form
_vrf_THETM01_I                   
;
PROBLEM: The value of sine(theta_max)/wavelength is less than 0.550
RESPONSE: Crystals were extremely weakly-diffracting and only diffracted to 
low angle, despite the use of Cu radiation and long exposure times.  Despite 
the weak data, the structure of the complex can be determined unambiguously.
;
_vrf_PLAT023_I                   
;
PROBLEM: Resolution (too) Low [sin(theta)/Lambda < 0.6]..
RESPONSE: Crystals were extremely weakly-diffracting and only diffracted to 
low angle, despite the use of Cu radiation and long exposure times.  Despite 
the weak data, the structure of the complex can be determined unambiguously.
;
_vrf_PLAT027_I                   
;
PROBLEM: _diffrn_reflns_theta_full (too) Low ............
RESPONSE: Crystals were extremely weakly-diffracting and only diffracted to 
low angle, despite the use of Cu radiation and long exposure times.  Despite 
the weak data, the structure of the complex can be determined unambiguously.
;
# end Validation Reply Form


# SQUEEZE RESULTS (APPEND TO CIF)
# Note: Data are Listed for all Voids in the P1 Unit Cell
# i.e. Centre of Gravity, Solvent Accessible Volume,
# Recovered number of Electrons in the Void and
# Details about the Squeezed Material
loop_
_platon_squeeze_void_nr
_platon_squeeze_void_average_x
_platon_squeeze_void_average_y
_platon_squeeze_void_average_z
_platon_squeeze_void_volume
_platon_squeeze_void_count_electrons
_platon_squeeze_void_content
1 0.018 0.000 0.418 2327 331 ' '
2 0.470 0.427 0.046 8 0 ' '
3 0.530 0.573 0.954 8 0 ' '
_platon_squeeze_details          ?


_exptl_special_details           
; 
 The crystal was 
placed in the cold stream of an Oxford 
Cryosystems open-flow nitrogen cryostat (Cosier & 
Glazer, 1986) with a nominal stability of 0.1K. 
 
Cosier, J. & Glazer, A.M., 1986. J. Appl. Cryst. 105-107. 
;
_refine_special_details          SQUEEZE

_cell_length_a                   17.2471(19)
_cell_length_b                   18.932(3)
_cell_length_c                   21.340(2)
_cell_angle_alpha                88.588(10)
_cell_angle_beta                 73.431(7)
_cell_angle_gamma                66.759(8)
_cell_volume                     6105.9(14)

_symmetry_cell_setting           triclinic
_symmetry_space_group_name_H-M   'P -1 '
_symmetry_space_group_name_Hall  '-P 1'
loop_
_symmetry_equiv_pos_as_xyz
x,y,z
-x,-y,-z

loop_
_atom_type_symbol
_atom_type_scat_dispersion_real
_atom_type_scat_dispersion_imag
_atom_type_scat_Cromer_Mann_a1
_atom_type_scat_Cromer_Mann_b1
_atom_type_scat_Cromer_Mann_a2
_atom_type_scat_Cromer_Mann_b2
_atom_type_scat_Cromer_Mann_a3
_atom_type_scat_Cromer_Mann_b3
_atom_type_scat_Cromer_Mann_a4
_atom_type_scat_Cromer_Mann_b4
_atom_type_scat_Cromer_Mann_c
_atom_type_scat_source
C 0.0181 0.0091 2.3100 20.8439 1.0200 10.2075 1.5886 0.5687 0.8650 51.6512
0.2156 'International Tables Vol C 4.2.6.8 and 6.1.1.4'
H 0.0000 0.0000 0.4930 10.5109 0.3229 26.1257 0.1402 3.1424 0.0408 57.7998
0.0030 'International Tables Vol C 4.2.6.8 and 6.1.1.4'
O 0.0492 0.0322 3.0485 13.2771 2.2868 5.7011 1.5463 0.3239 0.8670 32.9089
0.2508 'International Tables Vol C 4.2.6.8 and 6.1.1.4'
Cu -1.9646 0.5888 13.3380 3.5828 7.1676 0.2470 5.6158 11.3966 1.6735 64.8126
1.1910 'International Tables Vol C 4.2.6.8 and 6.1.1.4'
N 0.0311 0.0180 12.2126 0.0057 3.1322 9.8933 2.0125 28.9975 1.1663 0.5826
-11.5290 'International Tables Vol C 4.2.6.8 and 6.1.1.4'
Zn -1.5491 0.6778 14.0743 3.2655 7.0318 0.2333 5.1652 10.3163 2.4100 58.7097
1.3041 'International Tables Vol C 4.2.6.8 and 6.1.1.4'

_cell_formula_units_Z            2

_chemical_formula_sum            'C117 H71 N4 O12 Zn2.50'
_chemical_formula_moiety         'C117 H71 N4 O12 Zn2.50'
_chemical_compound_source        synthesized
_chemical_formula_weight         1888.32

_cell_measurement_reflns_used    4999
_cell_measurement_theta_min      10.37
_cell_measurement_theta_max      50.74
_cell_measurement_temperature    90

_exptl_crystal_description       colourless
_exptl_crystal_colour            block
_exptl_crystal_size_min          0.10
_exptl_crystal_size_mid          0.20
_exptl_crystal_size_max          0.30

_exptl_crystal_density_diffrn    1.027
_exptl_crystal_density_meas      ?
_exptl_crystal_density_method    'not measured'
# Non-dispersive F(000): 
_exptl_crystal_F_000             1944
_exptl_absorpt_coefficient_mu    1.003

_exptl_absorpt_correction_type   multi-scan
_exptl_absorpt_process_details   'Apex2, (Bruker, 2007)'
_exptl_absorpt_correction_T_min  0.662
_exptl_absorpt_correction_T_max  1.00
_diffrn_measurement_device_type  'Bruker Apex Duo'
_diffrn_measurement_device       Serial
_diffrn_radiation_monochromator  graphite
_diffrn_radiation_type           'Cu K\a'
_diffrn_radiation_wavelength     1.54178
_diffrn_measurement_method       \w/2\q

_computing_data_collection       'Apex2, (Bruker, 2007)'
_computing_cell_refinement       'Apex2, (Bruker, 2007)'
_computing_data_reduction        'Apex2, (Bruker, 2007)'
_computing_structure_solution    'SHELXS 86 (Sheldrick, 1986)'
_computing_structure_refinement  'CRYSTALS (Betteridge et al., 2003)'
_computing_publication_material  'CRYSTALS (Betteridge et al., 2003)'

_diffrn_standards_interval_time  0
_diffrn_standards_interval_count 0
_diffrn_standards_number         0
_diffrn_standards_decay_%        0

_diffrn_ambient_temperature      90
_diffrn_reflns_number            12477
_reflns_number_total             8955
_diffrn_reflns_av_R_equivalents  0.080

_diffrn_reflns_theta_min         2.171
_diffrn_reflns_theta_max         51.110
_diffrn_measured_fraction_theta_max 0.933

_diffrn_reflns_theta_full        44.466
_diffrn_measured_fraction_theta_full 0.951

_diffrn_reflns_limit_h_min       -16
_diffrn_reflns_limit_h_max       17
_diffrn_reflns_limit_k_min       -19
_diffrn_reflns_limit_k_max       19
_diffrn_reflns_limit_l_min       0
_diffrn_reflns_limit_l_max       21
_reflns_limit_h_min              -16
_reflns_limit_h_max              17
_reflns_limit_k_min              -19
_reflns_limit_k_max              19
_reflns_limit_l_min              0
_reflns_limit_l_max              21

_oxford_diffrn_Wilson_B_factor   4.33
_oxford_diffrn_Wilson_scale      2.45

_atom_sites_solution_primary     direct
_atom_sites_solution_hydrogens   difmap

_refine_diff_density_min         -2.93
_refine_diff_density_max         1.12

# The values actually used during refinement 
_oxford_reflns_threshold_expression_ref I>-3.0\s(I)
_refine_ls_number_reflns         11397
_refine_ls_number_restraints     1627
_refine_ls_number_parameters     1222
_oxford_refine_ls_R_factor_ref   0.2095
_refine_ls_wR_factor_ref         0.3903
_refine_ls_goodness_of_fit_ref   0.9888
_refine_ls_shift/su_max          0.0004278
_refine_ls_shift/su_mean         0.0000115

# The values computed with all filters except I/sigma 
_oxford_reflns_number_all        11397
_refine_ls_R_factor_all          0.2095
_refine_ls_wR_factor_all         0.3903

# The values computed with a 2 sigma cutoff - a la SHELX 
_reflns_threshold_expression     I>2.0\s(I)
_reflns_number_gt                7346
_refine_ls_R_factor_gt           0.1673
_refine_ls_wR_factor_gt          0.3658

_chemical_absolute_configuration .

_refine_ls_structure_factor_coef Fsqd
_refine_ls_matrix_type           full
_refine_ls_hydrogen_treatment    constr
_refine_ls_weighting_scheme      calc
_refine_ls_weighting_details     
;
 Method, part 1, Chebychev polynomial, (Watkin, 1994, Prince, 1982) 
 [weight] = 1.0/[A~0~*T~0~(x)+A~1~*T~1~(x) ... +A~n-1~]*T~n-1~(x)] 
 where A~i~ are the Chebychev coefficients listed below and x= Fcalc/Fmax 
 Method = Robust Weighting (Prince, 1982) 
 W = [weight] * [1-(deltaF/6*sigmaF)^2^]^2^ 
 A~i~ are: 
 600. 890. 418. 101. 
;

# Uequiv = arithmetic mean of Ui i.e. Ueqiv = (U1+U2+U3)/3

# Replace last . with number of unfound hydrogen atoms attached to an atom.

# ..._refinement_flags_... 
# . no refinement constraints           S special position constraint on site
# G rigid group refinement of site      R riding atom
# D distance or angle restraint on site T thermal displacement constraints
# U Uiso or Uij restraint (rigid bond)  P partial occupancy constraint


loop_
_atom_site_label
_atom_site_type_symbol
_atom_site_fract_x
_atom_site_fract_y
_atom_site_fract_z
_atom_site_U_iso_or_equiv
_atom_site_occupancy
_atom_site_adp_type
_atom_site_refinement_flags_posn
_atom_site_refinement_flags_adp
_atom_site_refinement_flags_occupancy
_atom_site_disorder_assembly
_atom_site_disorder_group
_atom_site_attached_hydrogens
C101 C 1.7647(10) -1.5171(10) 0.6112(7) 0.0657 1.0000 Uani . U . . . .
C102 C 1.6833(9) -1.5305(8) 0.6084(7) 0.0688 1.0000 Uani D U . . . .
C103 C 1.6070(8) -1.4684(8) 0.6450(7) 0.0672 1.0000 Uani D U . . . .
C104 C 1.6200(11) -1.4118(9) 0.6794(8) 0.0654 1.0000 Uani . U . . . .
C105 C 1.6833(8) -1.4539(7) 0.7206(5) 0.0559 1.0000 Uani D U . . . .
C106 C 1.6653(8) -1.4403(8) 0.7885(5) 0.0576 1.0000 Uani D U . . . .
C107 C 1.7316(8) -1.4840(8) 0.8160(6) 0.0651 1.0000 Uani D U . . . .
C108 C 1.7265(11) -1.4740(11) 0.8871(7) 0.0727 1.0000 Uani . U . . . .
C109 C 1.7420(9) -1.5600(9) 0.9079(7) 0.0748 1.0000 Uani D U . . . .
C110 C 1.8196(9) -1.6183(8) 0.8686(7) 0.0654 1.0000 Uani D U . . . .
C111 C 1.8721(10) -1.5876(11) 0.8162(8) 0.0729 1.0000 Uani . U . . . .
C112 C 1.8100(8) -1.5430(9) 0.7773(6) 0.0657 1.0000 Uani D U . . . .
C113 C 1.8253(8) -1.5595(9) 0.7106(6) 0.0649 1.0000 Uani D U . . . .
C114 C 1.7599(8) -1.5144(8) 0.6826(6) 0.0649 1.0000 Uani D U . . . .
C115 C 1.6806(10) -1.5896(10) 0.5723(8) 0.0865 1.0000 Uani D U . . . .
C116 C 1.5989(9) -1.5901(10) 0.5739(9) 0.0924 1.0000 Uani D U . . . .
C117 C 1.5232(10) -1.5291(9) 0.6122(8) 0.0851 1.0000 Uani D U . . . .
C118 C 1.5251(10) -1.4689(10) 0.6472(8) 0.0777 1.0000 Uani D U . . . .
C119 C 1.6839(10) -1.5772(10) 0.9603(7) 0.0803 1.0000 Uani D U . . . .
C120 C 1.7061(12) -1.6541(9) 0.9729(8) 0.0997 1.0000 Uani D U . . . .
C121 C 1.7825(11) -1.7119(11) 0.9326(7) 0.0944 1.0000 Uani D U . . . .
C122 C 1.8405(12) -1.6955(9) 0.8794(7) 0.0888 1.0000 Uani D U . . . .
C123 C 1.7526(8) -1.4396(8) 0.5912(6) 0.0653 1.0000 Uani D U . . . .
C124 C 1.6747(9) -1.3792(7) 0.6269(7) 0.0645 1.0000 Uani D U . . . .
C125 C 1.6520(11) -1.3004(8) 0.6206(7) 0.0818 1.0000 Uani D U . . . .
C126 C 1.7116(10) -1.2797(10) 0.5724(7) 0.0796 1.0000 Uani D U . . . .
C127 C 1.7890(11) -1.3367(7) 0.5315(7) 0.0770 1.0000 Uani D U . . . .
C128 C 1.8058(10) -1.4142(8) 0.5422(6) 0.0613 1.0000 Uani D U . . . .
C129 C 1.8853(8) -1.5243(9) 0.8514(7) 0.0724 1.0000 Uani D U . . . .
C130 C 1.8075(10) -1.4636(8) 0.8884(8) 0.0769 1.0000 Uani D U . . . .
C131 C 1.8125(10) -1.4013(10) 0.9184(9) 0.0887 1.0000 Uani D U . . . .
C132 C 1.8942(9) -1.4000(11) 0.9148(10) 0.1039 1.0000 Uani D U . . . .
C133 C 1.9715(11) -1.4623(10) 0.8800(10) 0.1009 1.0000 Uani D U . . . .
C134 C 1.9672(9) -1.5225(10) 0.8466(7) 0.0762 1.0000 Uani D U . . . .
C135 C 1.5869(11) -1.3774(9) 0.8221(8) 0.0707 1.0000 Uani . U . . . .
C136 C 1.5146(10) -1.3225(9) 0.8507(8) 0.0689 1.0000 Uani . U . . . .
C137 C 1.4278(10) -1.2651(9) 0.8752(7) 0.0733 1.0000 Uani D U . . . .
C138 C 1.3963(8) -1.2267(9) 0.9383(7) 0.0768 1.0000 Uani D U . . . .
C139 C 1.3073(8) -1.1734(9) 0.9613(7) 0.0774 1.0000 Uani D U . . . .
C140 C 1.2528(8) -1.1609(9) 0.9210(7) 0.0769 1.0000 Uani D U . . . .
C141 C 1.2836(9) -1.2005(9) 0.8581(7) 0.0793 1.0000 Uani D U . . . .
C142 C 1.3720(8) -1.2532(9) 0.8362(8) 0.0777 1.0000 Uani D U . . . .
C143 C 1.1562(8) -1.1075(9) 0.9482(9) 0.0746 1.0000 Uani D U . . . .
C144 C 1.9053(10) -1.6210(9) 0.6711(8) 0.0682 1.0000 Uani . U . . . .
C145 C 1.9693(11) -1.6736(9) 0.6416(8) 0.0670 1.0000 Uani . U . . . .
C146 C 2.0504(8) -1.7324(9) 0.6065(6) 0.0636 1.0000 Uani D U . . . .
C147 C 2.1205(8) -1.7570(9) 0.6331(7) 0.0780 1.0000 Uani D U . . . .
C148 C 2.2044(9) -1.8125(8) 0.5986(7) 0.0758 1.0000 Uani D U . . . .
C149 C 2.2191(7) -1.8491(7) 0.5380(6) 0.0630 1.0000 Uani D U . . . .
C150 C 2.1480(7) -1.8262(8) 0.5121(7) 0.0714 1.0000 Uani D U . . . .
C151 C 2.0660(8) -1.7685(8) 0.5454(7) 0.0712 1.0000 Uani D U . . . .
C152 C 2.3104(7) -1.9056(8) 0.4989(8) 0.0626 1.0000 Uani D U . . . .
N201 N 0.9278(7) -1.0232(6) 0.8715(5) 0.0846 1.0000 Uani D U . . . .
C202 C 0.9290(8) -0.9766(7) 0.8204(5) 0.0934 1.0000 Uani D U . . . .
C203 C 0.8806(7) -0.9682(7) 0.7764(7) 0.1008 1.0000 Uani D U . . . .
C204 C 0.8284(8) -1.0106(4) 0.7854(7) 0.1016 1.0000 Uani D U . . . .
C205 C 0.8258(8) -1.0563(7) 0.8375(6) 0.0986 1.0000 Uani D U . . . .
C206 C 0.8771(7) -1.0662(7) 0.8808(7) 0.0929 1.0000 Uani D U . . . .
N211 N 0.6608(8) -0.9768(5) 0.6673(6) 0.0960 1.0000 Uani D U . . . .
C212 C 0.7470(8) -0.9832(5) 0.6383(8) 0.1035 1.0000 Uani D U . . . .
C213 C 0.8033(11) -0.9946(5) 0.6770(6) 0.1053 1.0000 Uani D U . . . .
C214 C 0.7740(8) -1.0006(5) 0.7436(6) 0.1040 1.0000 Uani D U . . . .
C215 C 0.6860(8) -0.9928(5) 0.7704(8) 0.1041 1.0000 Uani D U . . . .
C216 C 0.6275(11) -0.9826(5) 0.7340(6) 0.1031 1.0000 Uani D U . . . .
O301 O 1.5094(8) -0.1381(8) 0.3236(6) 0.0996 1.0000 Uani D U . . . .
C302 C 1.5137(12) -0.2026(9) 0.3338(8) 0.0970 1.0000 Uani D U . . . .
N303 N 1.5386(9) -0.2594(8) 0.2868(6) 0.0892 1.0000 Uani D U . . . .
C304 C 1.5667(13) -0.2446(11) 0.2179(6) 0.1006 1.0000 Uani D U . . . .
C305 C 1.5369(16) -0.3353(9) 0.3002(11) 0.1218 1.0000 Uani D U . . . .
C1 C 1.2440(11) -0.5261(9) 0.8882(7) 0.0665 1.0000 Uani . U . . . .
C2 C 1.3395(10) -0.5406(7) 0.8845(7) 0.0671 1.0000 Uani D U . . . .
C3 C 1.3593(9) -0.4789(8) 0.8578(8) 0.0697 1.0000 Uani D U . . . .
C4 C 1.2862(11) -0.4173(9) 0.8379(8) 0.0679 1.0000 Uani . U . . . .
C5 C 1.2697(11) -0.4599(9) 0.7884(6) 0.0723 1.0000 Uani D U . . . .
C6 C 1.2682(11) -0.4408(8) 0.7251(6) 0.0693 1.0000 Uani D U . . . .
C7 C 1.2432(9) -0.4841(7) 0.6882(6) 0.0600 1.0000 Uani D U . . . .
C8 C 1.2443(10) -0.4763(9) 0.6159(7) 0.0650 1.0000 Uani . U . . . .
C9 C 1.3078(8) -0.5576(8) 0.5813(6) 0.0605 1.0000 Uani D U . . . .
C10 C 1.2837(9) -0.6166(7) 0.6077(7) 0.0599 1.0000 Uani D U . . . .
C11 C 1.1997(10) -0.5875(9) 0.6658(7) 0.0640 1.0000 Uani . U . . . .
C12 C 1.2195(10) -0.5433(7) 0.7141(5) 0.0587 1.0000 Uani D U . . . .
C13 C 1.2184(8) -0.5612(8) 0.7781(5) 0.0523 1.0000 Uani D U . . . .
C14 C 1.2429(11) -0.5174(8) 0.8151(6) 0.0664 1.0000 Uani D U . . . .
C15 C 1.3958(9) -0.6019(8) 0.9092(8) 0.0740 1.0000 Uani D U . . . .
C16 C 1.4768(10) -0.6002(9) 0.9084(9) 0.0863 1.0000 Uani D U . . . .
C17 C 1.4980(12) -0.5412(9) 0.8775(9) 0.0941 1.0000 Uani D U . . . .
C18 C 1.4433(9) -0.4805(10) 0.8512(10) 0.0954 1.0000 Uani D U . . . .
C19 C 1.3835(8) -0.5759(8) 0.5270(6) 0.0620 1.0000 Uani D U . . . .
C20 C 1.4351(11) -0.6530(7) 0.5025(7) 0.0754 1.0000 Uani D U . . . .
C21 C 1.4100(9) -0.7118(9) 0.5272(7) 0.0752 1.0000 Uani D U . . . .
C22 C 1.3376(9) -0.6930(8) 0.5827(6) 0.0653 1.0000 Uani D U . . . .
C23 C 1.1843(9) -0.4504(8) 0.9241(7) 0.0692 1.0000 Uani D U . . . .
C24 C 1.2045(10) -0.3897(7) 0.8963(8) 0.0730 1.0000 Uani D U . . . .
C25 C 1.1552(10) -0.3146(9) 0.9264(8) 0.0910 1.0000 Uani D U . . . .
C26 C 1.0766(12) -0.2949(11) 0.9778(9) 0.1136 1.0000 Uani D U . . . .
C27 C 1.0573(13) -0.3572(9) 1.0022(9) 0.1034 1.0000 Uani D U . . . .
C28 C 1.1093(9) -0.4349(9) 0.9784(7) 0.0833 1.0000 Uani D U . . . .
C29 C 1.1332(10) -0.5279(9) 0.6407(9) 0.0797 1.0000 Uani D U . . . .
C30 C 1.1559(10) -0.4689(8) 0.6125(8) 0.0712 1.0000 Uani D U . . . .
C31 C 1.1003(9) -0.4074(10) 0.5869(9) 0.0894 1.0000 Uani D U . . . .
C32 C 1.0205(11) -0.4080(11) 0.5845(10) 0.0988 1.0000 Uani D U . . . .
C33 C 1.0008(11) -0.4682(10) 0.6134(9) 0.0936 1.0000 Uani D U . . . .
C34 C 1.0522(9) -0.5291(10) 0.6414(9) 0.0894 1.0000 Uani D U . . . .
C35 C 1.2843(10) -0.3800(9) 0.6984(8) 0.0631 1.0000 Uani . U . . . .
C36 C 1.2991(10) -0.3259(9) 0.6706(8) 0.0650 1.0000 Uani . U . . . .
C37 C 1.3206(10) -0.2687(9) 0.6363(6) 0.0667 1.0000 Uani D U . . . .
C38 C 1.2994(9) -0.2508(8) 0.5784(6) 0.0645 1.0000 Uani D U . . . .
C39 C 1.3186(9) -0.1976(8) 0.5377(7) 0.0668 1.0000 Uani D U . . . .
C40 C 1.3712(9) -0.1651(7) 0.5538(6) 0.0595 1.0000 Uani D U . . . .
C41 C 1.3997(10) -0.1839(8) 0.6088(6) 0.0668 1.0000 Uani D U . . . .
C42 C 1.3728(9) -0.2339(8) 0.6497(7) 0.0662 1.0000 Uani D U . . . .
C43 C 1.4015(9) -0.1127(8) 0.5078(7) 0.0587 1.0000 Uani D U . . . .
C44 C 1.2009(9) -0.6244(9) 0.8034(6) 0.0496 1.0000 Uani . U . . . .
C45 C 1.1845(9) -0.6786(9) 0.8258(8) 0.0636 1.0000 Uani . U . . . .
C46 C 1.1572(9) -0.7353(8) 0.8532(7) 0.0626 1.0000 Uani D U . . . .
C47 C 1.1143(11) -0.7662(9) 0.8216(8) 0.0790 1.0000 Uani D U . . . .
C48 C 1.0897(10) -0.8244(9) 0.8508(7) 0.0713 1.0000 Uani D U . . . .
C49 C 1.0991(10) -0.8494(9) 0.9107(7) 0.0724 1.0000 Uani D U . . . .
C50 C 1.1453(10) -0.8201(9) 0.9393(8) 0.0762 1.0000 Uani D U . . . .
C51 C 1.1773(10) -0.7667(9) 0.9093(7) 0.0709 1.0000 Uani D U . . . .
C52 C 1.0608(10) -0.9049(8) 0.9437(9) 0.06