####################################################################### 
# 
# This file contains crystal structure data downloaded from the 
# Cambridge Structural Database (CSD) hosted by the Cambridge 
# Crystallographic Data Centre (CCDC).
# 
# Full information about CCDC data access policies and citation 
# guidelines are available at http://www.ccdc.cam.ac.uk/access/V1 
# 
# Audit and citation data items may have been added by the CCDC. 
# Please retain this information to preserve the provenance of 
# this file and to allow appropriate attribution of the data. 
# 
#######################################################################

data_jkc14jc01
_audit_block_doi                 10.5517/cc141syx
_database_code_depnum_ccdc_archive 'CCDC 1044419'
loop_
_citation_id
_citation_doi
_citation_year
1 10.1007/s10847-015-0507-x 2015
_audit_update_record             
;
2015-01-20 deposited with the CCDC.	2024-07-12 downloaded from the CCDC.
;

_audit_creation_method           SHELXL-2014/6
_chemical_name_systematic        ?
_chemical_name_common            ?
_chemical_melting_point          ?
_chemical_formula_moiety         'C50 H56 N2 O10 V2, 8(C H Cl3)'
_chemical_formula_sum            'C58 H64 Cl24 N2 O10 V2'
_chemical_formula_weight         1901.79

loop_
_atom_type_symbol
_atom_type_description
_atom_type_scat_dispersion_real
_atom_type_scat_dispersion_imag
_atom_type_scat_source
C C 0.0033 0.0016 'International Tables Vol C Tables 4.2.6.8 and 6.1.1.4'
H H 0.0000 0.0000 'International Tables Vol C Tables 4.2.6.8 and 6.1.1.4'
N N 0.0061 0.0033 'International Tables Vol C Tables 4.2.6.8 and 6.1.1.4'
O O 0.0106 0.0060 'International Tables Vol C Tables 4.2.6.8 and 6.1.1.4'
V V 0.3005 0.5294 'International Tables Vol C Tables 4.2.6.8 and 6.1.1.4'
Cl Cl 0.1484 0.1585 'International Tables Vol C Tables 4.2.6.8 and 6.1.1.4'

_space_group_crystal_system      monoclinic
_space_group_IT_number           14
_space_group_name_H-M_alt        'P 21/c'
_space_group_name_Hall           '-P 2ybc'

_shelx_space_group_comment       
;
The symmetry employed for this shelxl refinement is uniquely defined
by the following loop, which should always be used as a source of
symmetry information in preference to the above space-group names.
They are only intended as comments.
;

loop_
_space_group_symop_operation_xyz
'x, y, z'
'-x, y+1/2, -z+1/2'
'-x, -y, -z'
'x, -y-1/2, z-1/2'

_cell_length_a                   13.8731(6)
_cell_length_b                   11.2492(7)
_cell_length_c                   27.8028(13)
_cell_angle_alpha                90
_cell_angle_beta                 101.984(5)
_cell_angle_gamma                90
_cell_volume                     4244.4(4)
_cell_formula_units_Z            2
_cell_measurement_temperature    190(2)
_cell_measurement_reflns_used    217
_cell_measurement_theta_min      3.4650
_cell_measurement_theta_max      20.1890

_exptl_crystal_description       needle
_exptl_crystal_colour            'pale brown'
_exptl_crystal_density_meas      ?
_exptl_crystal_density_method    ?
_exptl_crystal_density_diffrn    1.488
_exptl_crystal_F_000             1920
_exptl_transmission_factor_min   ?
_exptl_transmission_factor_max   ?
_exptl_crystal_size_max          0.3
_exptl_crystal_size_mid          0.1
_exptl_crystal_size_min          0.1
_exptl_absorpt_coefficient_mu    1.025
_shelx_estimated_absorpt_T_min   ?
_shelx_estimated_absorpt_T_max   ?
_exptl_absorpt_correction_type   multi-scan
_exptl_absorpt_correction_T_min  0.94689
_exptl_absorpt_correction_T_max  1.00000
_exptl_absorpt_process_details   
;
CrysAlisPro, Agilent Technologies,
Version 1.171.37.31 (release 14-01-2014 CrysAlis171 .NET)
(compiled Jan 14 2014,18:38:05)
Empirical absorption correction using spherical harmonics,
 implemented in SCALE3 ABSPACK scaling algorithm.
;
_exptl_absorpt_special_details   ?
_diffrn_ambient_temperature      190(2)
_diffrn_radiation_wavelength     0.71073
_diffrn_radiation_type           MoK\a
_diffrn_radiation_monochromator  graphite
_diffrn_measurement_device       'four-circle diffractometer'
_diffrn_measurement_method       '\w scans'
_diffrn_measurement_device_type  'Xcalibur, Sapphire3, Gemini ultra'
_diffrn_detector                 'CCD plate'
_diffrn_detector_type            Sapphire3
_diffrn_detector_area_resol_mean 16.0696
_diffrn_reflns_number            19690
_diffrn_reflns_av_unetI/netI     0.0671
_diffrn_reflns_av_R_equivalents  0.0579
_diffrn_reflns_limit_h_min       -15
_diffrn_reflns_limit_h_max       15
_diffrn_reflns_limit_k_min       -12
_diffrn_reflns_limit_k_max       12
_diffrn_reflns_limit_l_min       -30
_diffrn_reflns_limit_l_max       30
_diffrn_reflns_theta_min         2.996
_diffrn_reflns_theta_max         23.254
_diffrn_reflns_theta_full        25.000
_diffrn_measured_fraction_theta_max 0.998
_diffrn_measured_fraction_theta_full 0.815
_diffrn_reflns_Laue_measured_fraction_max 0.998
_diffrn_reflns_Laue_measured_fraction_full 0.815
_diffrn_reflns_point_group_measured_fraction_max 0.998
_diffrn_reflns_point_group_measured_fraction_full 0.815
_reflns_number_total             6091
_reflns_number_gt                4290
_reflns_threshold_expression     'I > 2\s(I)'
_reflns_Friedel_coverage         0.000
_reflns_Friedel_fraction_max     .
_reflns_Friedel_fraction_full    .

_reflns_special_details          
;
 Reflections were merged by SHELXL according to the crystal
 class for the calculation of statistics and refinement.

 _reflns_Friedel_fraction is defined as the number of unique
 Friedel pairs measured divided by the number that would be
 possible theoretically, ignoring centric projections and
 systematic absences.
;

_computing_data_collection       
;
CrysAlisPro, Agilent Technologies,
Version 1.171.37.31 (release 14-01-2014 CrysAlis171 .NET)
(compiled Jan 14 2014,18:38:05)
;
_computing_cell_refinement       
;
CrysAlisPro, Agilent Technologies,
Version 1.171.37.31 (release 14-01-2014 CrysAlis171 .NET)
(compiled Jan 14 2014,18:38:05)
;
_computing_data_reduction        
;
CrysAlisPro, Agilent Technologies,
Version 1.171.37.31 (release 14-01-2014 CrysAlis171 .NET)
(compiled Jan 14 2014,18:38:05)
;
_computing_structure_solution    'SIR-97 (Altomare et al., 1999)'
_computing_structure_refinement  'SHELXL-2014/6 (Sheldrick, 2014)'
_computing_molecular_graphics    
'ORTEP-3 (Farrugia, 1997), WINGX-32 (Farrugia, 1999)'
_computing_publication_material  'enCIFer 1.1 (CCDC, 2005)'
_refine_special_details          ?
_refine_ls_structure_factor_coef Fsqd
_refine_ls_matrix_type           full
_refine_ls_weighting_scheme      calc
_refine_ls_weighting_details     
'w=1/[\s^2^(Fo^2^)+(0.1355P)^2^+16.8044P] where P=(Fo^2^+2Fc^2^)/3'
_atom_sites_solution_primary     ?
_atom_sites_solution_secondary   ?
_atom_sites_solution_hydrogens   geom
_refine_ls_hydrogen_treatment    constr
_refine_ls_extinction_method     none
_refine_ls_extinction_coef       .
_refine_ls_number_reflns         6091
_refine_ls_number_parameters     440
_refine_ls_number_restraints     0
_refine_ls_R_factor_all          0.1211
_refine_ls_R_factor_gt           0.0879
_refine_ls_wR_factor_ref         0.2550
_refine_ls_wR_factor_gt          0.2288
_refine_ls_goodness_of_fit_ref   1.012
_refine_ls_restrained_S_all      1.012
_refine_ls_shift/su_max          0.000
_refine_ls_shift/su_mean         0.000

loop_
_atom_site_label
_atom_site_type_symbol
_atom_site_fract_x
_atom_site_fract_y
_atom_site_fract_z
_atom_site_U_iso_or_equiv
_atom_site_adp_type
_atom_site_occupancy
_atom_site_site_symmetry_order
_atom_site_calc_flag
_atom_site_refinement_flags_posn
_atom_site_refinement_flags_adp
_atom_site_refinement_flags_occupancy
_atom_site_disorder_assembly
_atom_site_disorder_group
C1 C 0.0723(8) 0.3839(9) 0.2166(4) 0.078(3) Uani 1 1 d . . . . .
H1A H 0.0784 0.4198 0.1852 0.116 Uiso 1 1 calc R U . . .
H1B H 0.0874 0.4436 0.2427 0.116 Uiso 1 1 calc R U . . .
H1C H 0.0048 0.3549 0.2141 0.116 Uiso 1 1 calc R U . . .
C2 C 0.2489(7) 0.3279(10) 0.2381(4) 0.080(3) Uani 1 1 d . . . . .
H2A H 0.2953 0.2659 0.2529 0.120 Uiso 1 1 calc R U . . .
H2B H 0.2539 0.3959 0.2605 0.120 Uiso 1 1 calc R U . . .
H2C H 0.2648 0.3536 0.2069 0.120 Uiso 1 1 calc R U . . .
C3 C 0.1274(8) 0.2110(10) 0.2736(3) 0.078(3) Uani 1 1 d . . . . .
H3A H 0.0584 0.1857 0.2680 0.117 Uiso 1 1 calc R U . . .
H3B H 0.1423 0.2627 0.3025 0.117 Uiso 1 1 calc R U . . .
H3C H 0.1703 0.1410 0.2790 0.117 Uiso 1 1 calc R U . . .
C4 C 0.1450(5) 0.2791(7) 0.2286(3) 0.0436(19) Uani 1 1 d . . . . .
C5 C 0.1287(5) 0.1937(6) 0.1850(2) 0.0330(16) Uani 1 1 d . . . . .
C6 C 0.0351(5) 0.1453(7) 0.1674(2) 0.0347(17) Uani 1 1 d . . . . .
H6 H -0.0153 0.1663 0.1844 0.042 Uiso 1 1 calc R U . . .
C7 C 0.0092(4) 0.0690(6) 0.1273(2) 0.0263(15) Uani 1 1 d . . . . .
C8 C -0.0934(4) 0.0231(6) 0.1119(2) 0.0260(15) Uani 1 1 d . . . . .
C9 C -0.1241(4) -0.0166(6) 0.0638(2) 0.0252(14) Uani 1 1 d . . . . .
H9 H -0.0795 -0.0143 0.0421 0.030 Uiso 1 1 calc R U . . .
C10 C -0.2187(4) -0.0594(6) 0.0470(2) 0.0268(15) Uani 1 1 d . . . . .
C11 C -0.2842(5) -0.0596(7) 0.0788(2) 0.0358(17) Uani 1 1 d . . . . .
H11 H -0.3496 -0.0879 0.0677 0.043 Uiso 1 1 calc R U . . .
C12 C -0.2543(5) -0.0187(7) 0.1265(3) 0.0410(19) Uani 1 1 d . . . . .
H12 H -0.2993 -0.0198 0.1480 0.049 Uiso 1 1 calc R U . . .
C13 C -0.1603(5) 0.0234(7) 0.1430(2) 0.0357(17) Uani 1 1 d . . . . .
H13 H -0.1409 0.0528 0.1756 0.043 Uiso 1 1 calc R U . . .
C14 C -0.2476(4) -0.0985(6) -0.0055(2) 0.0270(15) Uani 1 1 d . . . . .
C15 C -0.3219(4) -0.1824(6) -0.0190(2) 0.0304(16) Uani 1 1 d . . . . .
H15 H -0.3488 -0.2177 0.0064 0.036 Uiso 1 1 calc R U . . .
C16 C -0.3597(4) -0.2185(6) -0.0674(2) 0.0279(15) Uani 1 1 d . . . . .
C17 C -0.4485(5) -0.3003(6) -0.0804(3) 0.0353(17) Uani 1 1 d . . . . .
C18 C -0.4374(7) -0.3795(9) -0.1238(3) 0.066(3) Uani 1 1 d . . . . .
H18A H -0.3855 -0.4385 -0.1128 0.099 Uiso 1 1 calc R U . . .
H18B H -0.4197 -0.3304 -0.1498 0.099 Uiso 1 1 calc R U . . .
H18C H -0.4998 -0.4203 -0.1367 0.099 Uiso 1 1 calc R U . . .
C19 C -0.4634(6) -0.3758(8) -0.0379(3) 0.054(2) Uani 1 1 d . . . . .
H19A H -0.4058 -0.4271 -0.0273 0.081 Uiso 1 1 calc R U . . .
H19B H -0.5223 -0.4250 -0.0482 0.081 Uiso 1 1 calc R U . . .
H19C H -0.4717 -0.3244 -0.0106 0.081 Uiso 1 1 calc R U . . .
C20 C -0.5388(6) -0.2166(8) -0.0966(4) 0.070(3) Uani 1 1 d . . . . .
H20A H -0.5986 -0.2644 -0.1066 0.105 Uiso 1 1 calc R U . . .
H20B H -0.5289 -0.1675 -0.1243 0.105 Uiso 1 1 calc R U . . .
H20C H -0.5456 -0.1652 -0.0690 0.105 Uiso 1 1 calc R U . . .
C21 C 0.0455(5) 0.2401(6) 0.0288(2) 0.0296(15) Uani 1 1 d . . . . .
H21 H 0.0244 0.1614 0.0196 0.035 Uiso 1 1 calc R U . . .
C22 C -0.0028(5) 0.3326(6) 0.0023(3) 0.0355(17) Uani 1 1 d . . . . .
H22 H -0.0560 0.3169 -0.0245 0.043 Uiso 1 1 calc R U . . .
C23 C 0.0252(4) 0.4490(6) 0.0141(2) 0.0270(15) Uani 1 1 d . . . . .
C24 C 0.1031(5) 0.4634(6) 0.0543(3) 0.0377(18) Uani 1 1 d . . . . .
H24 H 0.1256 0.5409 0.0646 0.045 Uiso 1 1 calc R U . . .
C25 C 0.1471(5) 0.3661(6) 0.0790(2) 0.0337(17) Uani 1 1 d . . . . .
H25 H 0.1996 0.3790 0.1064 0.040 Uiso 1 1 calc R U . . .
C26 C 0.1762(8) 0.7524(10) 0.1796(4) 0.085(3) Uani 1 1 d . . . . .
H26 H 0.1983 0.8346 0.1735 0.102 Uiso 1 1 calc R U . A 1
C27 C 0.4364(6) 1.0429(8) 0.2158(3) 0.059(2) Uani 1 1 d . . . . .
H27 H 0.3891 1.0837 0.1888 0.071 Uiso 1 1 calc R U . . .
C29 C 0.3853(7) 0.7949(8) 0.0709(4) 0.070(3) Uani 1 1 d . . . . .
H29 H 0.3543 0.8308 0.0969 0.084 Uiso 1 1 calc R U . B 1
N1 N 0.1208(4) 0.2544(5) 0.06701(19) 0.0283(13) Uani 1 1 d . . . . .
O1 O 0.2022(3) 0.1726(4) 0.16555(15) 0.0295(11) Uani 1 1 d . . . . .
O2 O 0.0687(3) 0.0337(4) 0.10061(15) 0.0262(10) Uani 1 1 d . . . . .
O3 O -0.1993(3) -0.0489(4) -0.03438(15) 0.0244(10) Uani 1 1 d . . . . .
O4 O -0.3253(3) -0.1814(4) -0.10394(16) 0.0300(11) Uani 1 1 d . . . . .
O5 O 0.2612(3) -0.0384(4) 0.12815(16) 0.0325(11) Uani 1 1 d . . . . .
V1 V 0.20844(7) 0.08117(9) 0.10525(4) 0.0227(3) Uani 1 1 d . . . . .
Cl1 Cl 0.1825(4) 0.7324(5) 0.24316(14) 0.1052(16) Uani 0.75 1 d . . P C 1
Cl1A Cl 0.1326(17) 0.836(2) 0.2234(9) 0.174(8) Uiso 0.25 1 d . . P C 2
Cl2 Cl 0.0567(3) 0.7276(4) 0.14395(13) 0.1097(11) Uani 1 1 d . . . . .
Cl3 Cl 0.2562(2) 0.6481(3) 0.16176(13) 0.0996(10) Uani 1 1 d . . . . .
Cl4 Cl 0.3680(2) 0.9686(3) 0.25217(10) 0.1008(11) Uani 1 1 d . . . . .
Cl5 Cl 0.5034(2) 0.9398(3) 0.18870(13) 0.0963(10) Uani 1 1 d . . . . .
Cl6 Cl 0.5120(3) 1.1502(4) 0.24823(16) 0.1439(17) Uani 1 1 d . . . . .
C28 C 0.822(3) 0.506(3) 0.1189(14) 0.1275(12) Uani 0.5 1 d . . P D 1
H28 H 0.8750 0.5278 0.1478 0.153 Uiso 0.5 1 calc R U P D 1
Cl7 Cl 0.7232(8) 0.4791(9) 0.1445(4) 0.1275(12) Uani 0.5 1 d . . P D 1
Cl8 Cl 0.8650(7) 0.3760(9) 0.0973(4) 0.1275(12) Uani 0.5 1 d . . P D 1
Cl9 Cl 0.8292(7) 0.6159(9) 0.0773(4) 0.1275(12) Uani 0.5 1 d . . P D 1
C28A C 0.767(3) 0.475(3) 0.0901(14) 0.1275(12) Uani 0.5 1 d . . P E 2
H28A H 0.7100 0.4430 0.0652 0.153 Uiso 0.5 1 calc R U P E 2
Cl7A Cl 0.7018(8) 0.5276(9) 0.1300(4) 0.1275(12) Uani 0.5 1 d . . P E 2
Cl8A Cl 0.8309(7) 0.3423(9) 0.1037(4) 0.1275(12) Uani 0.5 1 d . . P E 2
Cl9A Cl 0.7973(7) 0.5682(9) 0.0595(4) 0.1275(12) Uani 0.5 1 d . . P E 2
Cl10 Cl 0.4839(3) 0.7028(3) 0.10024(13) 0.1209(14) Uani 1 1 d . . . . .
Cl11 Cl 0.288(2) 0.734(2) 0.0234(17) 0.112(6) Uani 0.5 1 d . . P F 1
Cl1B Cl 0.310(2) 0.698(2) 0.0341(17) 0.112(6) Uani 0.5 1 d . . P F 2
Cl12 Cl 0.43422(17) 0.9083(2) 0.04189(11) 0.0763(8) Uani 1 1 d . . . . .

loop_
_atom_site_aniso_label
_atom_site_aniso_U_11
_atom_site_aniso_U_22
_atom_site_aniso_U_33
_atom_site_aniso_U_23
_atom_site_aniso_U_13
_atom_site_aniso_U_12
C1 0.094(7) 0.065(7) 0.070(7) -0.028(5) 0.006(6) 0.004(6)
C2 0.070(6) 0.106(9) 0.064(6) -0.055(6) 0.013(5) -0.026(6)
C3 0.098(8) 0.105(9) 0.028(5) -0.013(5) 0.007(5) 0.001(7)
C4 0.042(4) 0.052(5) 0.036(4) -0.015(4) 0.007(3) -0.012(4)
C5 0.035(4) 0.035(4) 0.026(4) -0.004(3) 0.000(3) 0.002(3)
C6 0.029(4) 0.046(5) 0.030(4) -0.010(3) 0.011(3) 0.002(3)
C7 0.026(3) 0.034(4) 0.020(3) 0.004(3) 0.006(3) 0.004(3)
C8 0.020(3) 0.031(4) 0.027(4) 0.004(3) 0.005(3) 0.003(3)
C9 0.023(3) 0.032(4) 0.022(3) 0.000(3) 0.009(3) -0.004(3)
C10 0.026(3) 0.025(4) 0.029(3) 0.004(3) 0.005(3) 0.000(3)
C11 0.023(3) 0.055(5) 0.030(4) 0.002(3) 0.007(3) -0.008(3)
C12 0.029(4) 0.068(5) 0.030(4) 0.006(4) 0.015(3) -0.002(4)
C13 0.035(4) 0.049(5) 0.024(4) -0.005(3) 0.008(3) -0.002(3)
C14 0.023(3) 0.029(4) 0.027(3) 0.005(3) 0.000(3) 0.003(3)
C15 0.024(3) 0.035(4) 0.031(4) 0.000(3) 0.003(3) -0.005(3)
C16 0.024(3) 0.022(4) 0.035(4) 0.003(3) 0.002(3) 0.005(3)
C17 0.031(4) 0.030(4) 0.043(4) 0.000(3) 0.004(3) -0.014(3)
C18 0.081(6) 0.061(6) 0.058(6) -0.015(5) 0.020(5) -0.042(5)
C19 0.055(5) 0.053(5) 0.053(5) -0.004(4) 0.009(4) -0.029(4)
C20 0.030(4) 0.056(6) 0.114(8) 0.013(6) -0.012(5) -0.015(4)
C21 0.031(3) 0.025(4) 0.030(4) 0.001(3) -0.001(3) 0.001(3)
C22 0.029(3) 0.035(4) 0.035(4) 0.000(3) -0.010(3) -0.002(3)
C23 0.024(3) 0.026(4) 0.031(4) 0.003(3) 0.007(3) 0.004(3)
C24 0.041(4) 0.024(4) 0.039(4) -0.006(3) -0.014(3) 0.001(3)
C25 0.037(4) 0.036(4) 0.023(4) 0.000(3) -0.006(3) 0.000(3)
C26 0.106(8) 0.069(7) 0.098(8) 0.006(6) 0.065(7) -0.030(6)
C27 0.055(5) 0.053(5) 0.060(6) 0.008(5) -0.011(4) 0.003(4)
C29 0.078(6) 0.048(6) 0.095(7) -0.016(5) 0.043(6) -0.005(5)
N1 0.024(3) 0.027(3) 0.032(3) 0.003(3) 0.002(2) 0.006(2)
O1 0.024(2) 0.038(3) 0.025(2) -0.006(2) 0.003(2) -0.001(2)
O2 0.023(2) 0.031(3) 0.026(2) -0.002(2) 0.0079(19) -0.0047(19)
O3 0.021(2) 0.028(2) 0.025(2) 0.0032(19) 0.0066(19) -0.0008(18)
O4 0.023(2) 0.035(3) 0.030(3) 0.002(2) 0.002(2) -0.006(2)
O5 0.030(2) 0.035(3) 0.031(2) 0.008(2) 0.003(2) 0.002(2)
V1 0.0185(5) 0.0252(6) 0.0237(6) 0.0020(5) 0.0024(4) -0.0004(5)
Cl1 0.132(4) 0.132(4) 0.065(2) -0.007(2) 0.051(2) -0.054(3)
Cl2 0.102(2) 0.128(3) 0.108(2) 0.030(2) 0.0418(19) 0.018(2)
Cl3 0.088(2) 0.098(2) 0.111(2) -0.0041(19) 0.0154(18) -0.0003(17)
Cl4 0.095(2) 0.143(3) 0.0675(17) 0.0259(18) 0.0231(16) 0.001(2)
Cl5 0.0757(17) 0.100(2) 0.118(2) 0.0107(19) 0.0289(17) 0.0213(16)
Cl6 0.131(3) 0.126(3) 0.142(3) -0.032(3) -0.047(3) -0.045(3)
C28 0.125(3) 0.128(4) 0.142(3) 0.002(2) 0.057(2) -0.023(2)
Cl7 0.125(3) 0.128(4) 0.142(3) 0.002(2) 0.057(2) -0.023(2)
Cl8 0.125(3) 0.128(4) 0.142(3) 0.002(2) 0.057(2) -0.023(2)
Cl9 0.125(3) 0.128(4) 0.142(3) 0.002(2) 0.057(2) -0.023(2)
C28A 0.125(3) 0.128(4) 0.142(3) 0.002(2) 0.057(2) -0.023(2)
Cl7A 0.125(3) 0.128(4) 0.142(3) 0.002(2) 0.057(2) -0.023(2)
Cl8A 0.125(3) 0.128(4) 0.142(3) 0.002(2) 0.057(2) -0.023(2)
Cl9A 0.125(3) 0.128(4) 0.142(3) 0.002(2) 0.057(2) -0.023(2)
Cl10 0.193(4) 0.067(2) 0.112(3) 0.0234(18) 0.051(3) 0.050(2)
Cl11 0.090(12) 0.096(15) 0.158(16) -0.050(12) 0.046(11) -0.037(9)
Cl1B 0.090(12) 0.096(15) 0.158(16) -0.050(12) 0.046(11) -0.037(9)
Cl12 0.0513(13) 0.0596(15) 0.120(2) 0.0241(15) 0.0227(13) 0.0057(11)

_geom_special_details            
;
 All esds (except the esd in the dihedral angle between two l.s. planes)
 are estimated using the full covariance matrix.  The cell esds are taken
 into account individually in the estimation of esds in distances, angles
 and torsion angles; correlations between esds in cell parameters are only
 used when they are defined by crystal symmetry.  An approximate (isotropic)
 treatment of cell esds is used for estimating esds involving l.s. planes.
;

loop_
_geom_bond_atom_site_label_1
_geom_bond_atom_site_label_2
_geom_bond_distance
_geom_bond_site_symmetry_2
_geom_bond_publ_flag
C1 C4 1.542(13) . ?
C1 H1A 0.9800 . ?
C1 H1B 0.9800 . ?
C1 H1C 0.9800 . ?
C2 C4 1.514(11) . ?
C2 H2A 0.9800 . ?
C2 H2B 0.9800 . ?
C2 H2C 0.9800 . ?
C3 C4 1.530(12) . ?
C3 H3A 0.9800 . ?
C3 H3B 0.9800 . ?
C3 H3C 0.9800 . ?
C4 C5 1.526(10) . ?
C5 O1 1.271(8) . ?
C5 C6 1.399(9) . ?
C6 C7 1.394(9) . ?
C6 H6 0.9500 . ?
C7 O2 1.284(7) . ?
C7 C8 1.491(9) . ?
C8 C9 1.389(9) . ?
C8 C13 1.394(9) . ?
C9 C10 1.385(9) . ?
C9 H9 0.9500 . ?
C10 C11 1.393(9) . ?
C10 C14 1.496(9) . ?
C11 C12 1.383(10) . ?
C11 H11 0.9500 . ?
C12 C13 1.375(10) . ?
C12 H12 0.9500 . ?
C13 H13 0.9500 . ?
C14 O3 1.277(7) . ?
C14 C15 1.390(9) . ?
C15 C16 1.401(9) . ?
C15 H15 0.9500 . ?
C16 O4 1.277(8) . ?
C16 C17 1.520(9) . ?
C17 C19 1.503(10) . ?
C17 C18 1.534(11) . ?
C17 C20 1.557(11) . ?
C18 H18A 0.9800 . ?
C18 H18B 0.9800 . ?
C18 H18C 0.9800 . ?
C19 H19A 0.9800 . ?
C19 H19B 0.9800 . ?
C19 H19C 0.9800 . ?
C20 H20A 0.9800 . ?
C20 H20B 0.9800 . ?
C20 H20C 0.9800 . ?
C21 N1 1.335(8) . ?
C21 C