####################################################################### 
# 
# This file contains crystal structure data downloaded from the 
# Cambridge Structural Database (CSD) hosted by the Cambridge 
# Crystallographic Data Centre (CCDC).
# 
# Full information about CCDC data access policies and citation 
# guidelines are available at http://www.ccdc.cam.ac.uk/access/V1 
# 
# Audit and citation data items may have been added by the CCDC. 
# Please retain this information to preserve the provenance of 
# this file and to allow appropriate attribution of the data. 
# 
#######################################################################

data_4
_audit_block_doi                 10.5517/cc133zw2
_database_code_depnum_ccdc_archive 'CCDC 1016734'
loop_
_citation_id
_citation_doi
_citation_year
1 10.1080/10610278.2014.984714 2015
_audit_update_record             
;
2014-07-29 deposited with the CCDC.	2024-07-12 downloaded from the CCDC.
;

_audit_creation_method           SHELXL-97
_chemical_name_systematic        
;
 ?
;
_chemical_name_common            ?
_chemical_melting_point          ?
_chemical_formula_moiety         'C34 H26 N4 O8 Zn, 2(C4 H9 N O)'
_chemical_formula_sum            'C42 H44 N6 O10 Zn'
_chemical_formula_weight         858.20

loop_
_atom_type_symbol
_atom_type_description
_atom_type_scat_dispersion_real
_atom_type_scat_dispersion_imag
_atom_type_scat_source
C C 0.0033 0.0016 'International Tables Vol C Tables 4.2.6.8 and 6.1.1.4'
N N 0.0061 0.0033 'International Tables Vol C Tables 4.2.6.8 and 6.1.1.4'
O O 0.0106 0.0060 'International Tables Vol C Tables 4.2.6.8 and 6.1.1.4'
Zn Zn 0.2839 1.4301 'International Tables Vol C Tables 4.2.6.8 and 6.1.1.4'
H H 0.0000 0.0000 'International Tables Vol C Tables 4.2.6.8 and 6.1.1.4'

_symmetry_cell_setting           Monoclinic
_symmetry_space_group_name_H-M   P21/c
_symmetry_space_group_name_Hall  -P2ybc
loop_
_symmetry_equiv_pos_as_xyz
'x, y, z'
'-x, y+1/2, -z+1/2'
'-x, -y, -z'
'x, -y-1/2, z-1/2'

_cell_length_a                   10.476(2)
_cell_length_b                   19.880(4)
_cell_length_c                   12.182(5)
_cell_angle_alpha                90.00
_cell_angle_beta                 122.31(2)
_cell_angle_gamma                90.00
_cell_volume                     2144.2(11)
_cell_formula_units_Z            2
_cell_measurement_temperature    293(2)
_cell_measurement_reflns_used    25
_cell_measurement_theta_min      12
_cell_measurement_theta_max      18

_exptl_crystal_description       Block
_exptl_crystal_colour            Yellow
_exptl_crystal_size_max          0.49
_exptl_crystal_size_mid          0.40
_exptl_crystal_size_min          0.31
_exptl_crystal_density_meas      ?
_exptl_crystal_density_diffrn    1.329
_exptl_crystal_density_method    'not measured'
_exptl_crystal_F_000             896
_exptl_absorpt_coefficient_mu    0.635
_exptl_absorpt_correction_type   Multi-Scan
_exptl_absorpt_correction_T_min  0.25
_exptl_absorpt_correction_T_max  1.00
_exptl_absorpt_process_details   'ABSCOR; Higashi, 1995'

_exptl_special_details           
;
 ?
;

_diffrn_ambient_temperature      293(2)
_diffrn_radiation_wavelength     0.71073
_diffrn_radiation_type           MoK\a
_diffrn_radiation_source         'fine-focus sealed tube'
_diffrn_radiation_monochromator  graphite
_diffrn_measurement_device_type  'RIGAKU RAXIS-RAPID IP'
_diffrn_measurement_method       '\w scan'
_diffrn_detector_area_resol_mean ?
_diffrn_standards_number         none
_diffrn_standards_interval_count none
_diffrn_standards_interval_time  none
_diffrn_standards_decay_%        ?
_diffrn_reflns_number            20872
_diffrn_reflns_av_R_equivalents  0.0285
_diffrn_reflns_av_sigmaI/netI    0.0238
_diffrn_reflns_limit_h_min       -13
_diffrn_reflns_limit_h_max       13
_diffrn_reflns_limit_k_min       -23
_diffrn_reflns_limit_k_max       25
_diffrn_reflns_limit_l_min       -15
_diffrn_reflns_limit_l_max       15
_diffrn_reflns_theta_min         3.08
_diffrn_reflns_theta_max         27.47
_reflns_number_total             4895
_reflns_number_gt                3393
_reflns_threshold_expression     >2sigma(I)

_computing_data_collection       'RAPID-AUTO (Rigaku, 1998)'
_computing_cell_refinement       'RAPID-AUTO (Rigaku, 1998)'
_computing_data_reduction        'CrystalClear (Rigaku/MSC, 2002)'
_computing_structure_solution    'SHELXS-97 (Sheldrick, 1990)'
_computing_structure_refinement  'SHELXL-97 (Sheldrick, 1997)'
_computing_molecular_graphics    'ORTEX (P.McArdle, 1995)'
_computing_publication_material  'SHELXL-97/2 (Sheldrick,1997)'

_refine_special_details          
;
 Refinement of F^2^ against ALL reflections.  The weighted R-factor wR and
 goodness of fit S are based on F^2^, conventional R-factors R are based
 on F, with F set to zero for negative F^2^. The threshold expression of
 F^2^ > 2sigma(F^2^) is used only for calculating R-factors(gt) etc. and is
 not relevant to the choice of reflections for refinement.  R-factors based
 on F^2^ are statistically about twice as large as those based on F, and R-
 factors based on ALL data will be even larger.
;

_refine_ls_structure_factor_coef Fsqd
_refine_ls_matrix_type           full
_refine_ls_weighting_scheme      calc
_refine_ls_weighting_details     
'calc w=1/[\s^2^(Fo^2^)+(0.0539P)^2^+1.0140P] where P=(Fo^2^+2Fc^2^)/3'
_atom_sites_solution_primary     direct
_atom_sites_solution_secondary   difmap
_atom_sites_solution_hydrogens   geom
_refine_ls_hydrogen_treatment    constr
_refine_ls_extinction_method     none
_refine_ls_extinction_coef       ?
_refine_ls_number_reflns         4895
_refine_ls_number_parameters     273
_refine_ls_number_restraints     2
_refine_ls_R_factor_all          0.0616
_refine_ls_R_factor_gt           0.0403
_refine_ls_wR_factor_ref         0.1191
_refine_ls_wR_factor_gt          0.1084
_refine_ls_goodness_of_fit_ref   1.052
_refine_ls_restrained_S_all      1.076
_refine_ls_shift/su_max          0.000
_refine_ls_shift/su_mean         0.000

loop_
_atom_site_label
_atom_site_type_symbol
_atom_site_fract_x
_atom_site_fract_y
_atom_site_fract_z
_atom_site_U_iso_or_equiv
_atom_site_adp_type
_atom_site_occupancy
_atom_site_symmetry_multiplicity
_atom_site_calc_flag
_atom_site_refinement_flags
_atom_site_disorder_assembly
_atom_site_disorder_group
Zn1 Zn 1.0000 0.0000 0.5000 0.03131(12) Uani 1 2 d S . .
O1 O 0.8451(2) 0.32272(8) 0.57606(19) 0.0526(5) Uani 1 1 d . . .
O2 O 1.1589(2) 0.32338(8) 0.42552(18) 0.0513(4) Uani 1 1 d . . .
O3 O 0.78927(17) -0.00186(7) 0.33081(15) 0.0406(3) Uani 1 1 d . . .
O4 O 0.90200(17) 0.00806(7) 0.60613(15) 0.0401(4) Uani 1 1 d . . .
O5 O 0.2818(3) 0.13431(15) 0.2447(3) 0.1115(10) Uani 1 1 d . . .
N1 N 0.9957(2) 0.32349(8) 0.49400(17) 0.0344(4) Uani 1 1 d . . .
N2 N 0.9990(2) 0.11186(8) 0.49394(18) 0.0370(4) Uani 1 1 d . . .
N3 N 0.4462(5) 0.2007(3) 0.3921(5) 0.169(2) Uani 1 1 d D . .
C1 C 1.1666(2) 0.46516(10) 0.4191(2) 0.0336(4) Uani 1 1 d . . .
H1 H 1.2214 0.4420 0.3913 0.040 Uiso 1 1 calc R . .
C2 C 0.8345(2) 0.46433(10) 0.5810(2) 0.0346(5) Uani 1 1 d . . .
H2 H 0.7791 0.4409 0.6079 0.041 Uiso 1 1 calc R . .
C3 C 1.0868(2) 0.43025(9) 0.46039(19) 0.0300(4) Uani 1 1 d . . .
C4 C 1.0010(2) 0.46448(8) 0.50058(19) 0.0275(4) Uani 1 1 d . . .
C5 C 0.9166(2) 0.42972(9) 0.54171(19) 0.0299(4) Uani 1 1 d . . .
C6 C 0.9149(2) 0.35532(10) 0.5411(2) 0.0352(5) Uani 1 1 d . . .
C7 C 1.0877(2) 0.35574(10) 0.4583(2) 0.0349(5) Uani 1 1 d . . .
C8 C 0.9962(2) 0.25098(9) 0.4942(2) 0.0346(4) Uani 1 1 d . . .
C9 C 1.0606(3) 0.21604(10) 0.6091(2) 0.0438(6) Uani 1 1 d . . .
H9 H 1.1044 0.2385 0.6882 0.053 Uiso 1 1 calc R . .
C10 C 0.9335(3) 0.21623(10) 0.3794(2) 0.0418(5) Uani 1 1 d . . .
H10 H 0.8892 0.2388 0.3004 0.050 Uiso 1 1 calc R . .
C11 C 0.9382(3) 0.14657(10) 0.3846(2) 0.0416(5) Uani 1 1 d . . .
H11 H 0.8963 0.1229 0.3069 0.050 Uiso 1 1 calc R . .
C12 C 1.0585(3) 0.14662(10) 0.6041(2) 0.0444(6) Uani 1 1 d . . .
H12 H 1.1009 0.1229 0.6818 0.053 Uiso 1 1 calc R . .
C13 C 0.5304(4) 0.0196(2) 0.1895(3) 0.0991(14) Uani 1 1 d . . .
H13A H 0.5471 0.0499 0.1371 0.149 Uiso 1 1 calc R . .
H13B H 0.4469 0.0352 0.1944 0.149 Uiso 1 1 calc R . .
H13C H 0.5081 -0.0245 0.1512 0.149 Uiso 1 1 calc R . .
C14 C 0.6707(3) 0.01639(13) 0.3245(2) 0.0480(6) Uani 1 1 d . . .
C15 C 0.6569(3) 0.03285(16) 0.4287(3) 0.0571(7) Uani 1 1 d . . .
H15 H 0.5635 0.0492 0.4085 0.069 Uiso 1 1 calc R . .
C16 C 0.7684(3) 0.02746(13) 0.5604(2) 0.0443(5) Uani 1 1 d . . .
C17 C 0.7286(3) 0.0444(2) 0.6590(3) 0.0774(10) Uani 1 1 d . . .
H17A H 0.7588 0.0081 0.7200 0.116 Uiso 1 1 calc R . .
H17B H 0.6215 0.0510 0.6157 0.116 Uiso 1 1 calc R . .
H17C H 0.7801 0.0848 0.7041 0.116 Uiso 1 1 calc R . .
C18 C 0.5368(7) 0.2371(4) 0.5111(6) 0.183(3) Uani 1 1 d . . .
H18A H 0.5125 0.2841 0.4959 0.275 Uiso 1 1 calc R . .
H18B H 0.6417 0.2308 0.5423 0.275 Uiso 1 1 calc R . .
H18C H 0.5169 0.2208 0.5746 0.275 Uiso 1 1 calc R . .
C19 C 0.4973(7) 0.2122(4) 0.2840(6) 0.181(3) Uani 1 1 d D . .
H19A H 0.4305 0.1873 0.2063 0.271 Uiso 1 1 calc R . .
H19B H 0.5989 0.1966 0.3205 0.271 Uiso 1 1 calc R . .
H19C H 0.4915 0.2591 0.2636 0.271 Uiso 1 1 calc R . .
C20 C 0.3536(6) 0.1651(2) 0.3433(6) 0.137(2) Uani 1 1 d D . .
C21 C 0.3096(5) 0.1530(2) 0.4575(5) 0.1126(16) Uani 1 1 d D . .
H21A H 0.3963 0.1359 0.5355 0.169 Uiso 1 1 calc R . .
H21B H 0.2281 0.1214 0.4257 0.169 Uiso 1 1 calc R . .
H21C H 0.2796 0.1951 0.4758 0.169 Uiso 1 1 calc R . .

loop_
_atom_site_aniso_label
_atom_site_aniso_U_11
_atom_site_aniso_U_22
_atom_site_aniso_U_33
_atom_site_aniso_U_23
_atom_site_aniso_U_13
_atom_site_aniso_U_12
Zn1 0.02927(17) 0.02105(16) 0.0402(2) -0.00009(14) 0.01624(14) 0.00100(13)
O1 0.0747(12) 0.0254(8) 0.0821(13) 0.0025(8) 0.0582(11) -0.0052(7)
O2 0.0730(12) 0.0257(8) 0.0767(12) -0.0014(8) 0.0544(11) 0.0041(7)
O3 0.0337(7) 0.0422(8) 0.0402(8) -0.0043(7) 0.0160(7) 0.0008(7)
O4 0.0337(8) 0.0432(9) 0.0401(8) 0.0022(7) 0.0176(7) 0.0026(6)
O5 0.099(2) 0.105(2) 0.0773(18) -0.0070(16) 0.0114(16) -0.0085(17)
N1 0.0475(10) 0.0171(7) 0.0405(9) 0.0003(7) 0.0248(8) -0.0007(7)
N2 0.0457(10) 0.0209(8) 0.0444(10) -0.0015(8) 0.0241(9) -0.0013(7)
N3 0.095(3) 0.150(4) 0.167(5) -0.066(4) 0.006(3) 0.001(3)
C1 0.0404(11) 0.0256(11) 0.0377(12) 0.0000(8) 0.0228(10) 0.0032(8)
C2 0.0409(11) 0.0284(11) 0.0391(12) 0.0027(8) 0.0246(10) -0.0015(9)
C3 0.0360(11) 0.0209(9) 0.0310(10) 0.0016(7) 0.0165(9) -0.0001(8)
C4 0.0329(9) 0.0201(9) 0.0255(8) 0.0005(8) 0.0131(7) 0.0010(8)
C5 0.0370(11) 0.0216(9) 0.0307(10) 0.0018(8) 0.0178(9) -0.0010(8)
C6 0.0450(12) 0.0232(9) 0.0386(12) 0.0008(8) 0.0232(11) -0.0023(8)
C7 0.0443(12) 0.0226(9) 0.0384(12) 0.0000(8) 0.0226(11) 0.0011(8)
C8 0.0462(11) 0.0175(8) 0.0419(11) 0.0012(8) 0.0247(10) -0.0013(9)
C9 0.0648(16) 0.0240(10) 0.0363(13) -0.0017(9) 0.0227(12) -0.0023(10)
C10 0.0561(14) 0.0259(10) 0.0356(12) 0.0019(8) 0.0194(11) -0.0014(9)
C11 0.0575(14) 0.0252(10) 0.0377(13) -0.0061(9) 0.0224(12) -0.0050(10)
C12 0.0625(15) 0.0238(10) 0.0395(13) 0.0035(9) 0.0224(12) 0.0010(10)
C13 0.0403(16) 0.193(4) 0.0433(16) -0.011(2) 0.0085(13) 0.020(2)
C14 0.0312(11) 0.0619(16) 0.0409(13) -0.0032(11) 0.0126(10) 0.0000(10)
C15 0.0314(12) 0.087(2) 0.0470(15) 0.0002(14) 0.0171(12) 0.0133(12)
C16 0.0356(12) 0.0537(13) 0.0439(13) -0.0025(11) 0.0214(11) -0.0003(10)
C17 0.0466(16) 0.137(3) 0.0510(17) -0.0087(18) 0.0274(14) 0.0112(18)
C18 0.175(6) 0.234(8) 0.158(6) -0.102(5) 0.100(5) -0.133(6)
C19 0.202(7) 0.241(8) 0.176(6) 0.035(5) 0.152(6) -0.025(6)
C20 0.089(3) 0.072(3) 0.139(5) 0.000(3) -0.013(3) 0.022(2)
C21 0.128(4) 0.093(3) 0.175(5) 0.011(3) 0.120(4) 0.004(3)

_geom_special_details            
;
 All esds (except the esd in the dihedral angle between two l.s. planes)
 are estimated using the full covariance matrix.  The cell esds are taken
 into account individually in the estimation of esds in distances, angles
 and torsion angles; correlations between esds in cell parameters are only
 used when they are defined by crystal symmetry.  An approximate (isotropic)
 treatment of cell esds is used for estimating esds involving l.s. planes.
;

loop_
_geom_bond_atom_site_label_1
_geom_bond_atom_site_label_2
_geom_bond_distance
_geom_bond_site_symmetry_2
_geom_bond_publ_flag
Zn1 O4 2.0421(17) . ?
Zn1 O4 2.0421(17) 3_756 ?
Zn1 O3 2.0637(17) 3_756 ?
Zn1 O3 2.0637(17) . ?
Zn1 N2 2.2248(17) . ?
Zn1 N2 2.2248(17) 3_756 ?
O1 C6 1.212(3) . ?
O2 C7 1.203(3) . ?
O3 C14 1.257(3) . ?
O4 C16 1.259(3) . ?
O5 C20 1.190(6) . ?
N1 C6 1.402(3) . ?
N1 C7 1.407(3) . ?
N1 C8 1.441(2) . ?
N2 C11 1.323(3) . ?
N2 C12 1.332(3) . ?
N3 C20 1.086(6) . ?
N3 C18 1.434(6) . ?
N3 C19 1.680(7) . ?
C1 C3 1.372(3) . ?
C1 C2 1.402(3) 3_766 ?
C1 H1 0.9300 . ?
C2 C5 1.372(3) . ?
C2 C1 1.402(3) 3_766 ?
C2 H2 0.9300 . ?
C3 C4 1.407(3) . ?
C3 C7 1.481(3) . ?
C4 C5 1.409(3) . ?
C4 C4 1.412(3) 3_766 ?
C5 C6 1.479(3) . ?
C8 C10 1.372(3) . ?
C8 C9 1.374(3) . ?
C9 C12 1.381(3) . ?
C9 H9 0.9300 . ?
C10 C11 1.386(3) . ?
C10 H10 0.9300 . ?
C11 H11 0.9300 . ?
C12 H12 0.9300 . ?
C13 C14 1.512(4) . ?
C13 H13A 0.9600 . ?
C13 H13B 0.9600 . ?
C13 H13C 0.9600 . ?
C14 C15 1.391(4) . ?
C15 C16 1.395(3) . ?
C15 H15 0.9300 . ?
C16 C17 1.504(3) . ?
C17 H17A 0.9600 . ?
C17 H17B 0.9600 . ?
C17 H17C 0.9600 . ?
C18 H18A 0.9600 . ?
C18 H18B 0.9600 . ?
C18 H18C 0.9600 . ?
C19 H19A 0.9600 . ?
C19 H19B 0.9600 . ?
C19 H19C 0.9600 . ?
C20 C21 1.700(7) . ?
C21 H21A 0.9600 . ?
C21 H21B 0.9600 . ?
C21 H21C 0.9600 . ?

loop_
_geom_angle_atom_site_label_1
_geom_angle_atom_site_label_2
_geom_angle_atom_site_label_3
_geom_angle
_geom_angle_site_symmetry_1
_geom_angle_site_symmetry_3
_geom_angle_publ_flag
O4 Zn1 O4 180.0 . 3_756 ?
O4 Zn1 O3 89.87(7) . 3_756 ?
O4 Zn1 O3 90.13(7) 3_756 3_756 ?
O4 Zn1 O3 90.13(7) . . ?
O4 Zn1 O3 89.87(7) 3_756 . ?
O3 Zn1 O3 180.0 3_756 . ?
O4 Zn1 N2 86.98(6) . . ?
O4 Zn1 N2 93.02(6) 3_756 . ?
O3 Zn1 N2 89.94(6) 3_756 . ?
O3 Zn1 N2 90.06(6) . . ?
O4 Zn1 N2 93.02(6) . 3_756 ?
O4 Zn1 N2 86.98(6) 3_756 3_756 ?
O3 Zn1 N2 90.06(6) 3_756 3_756 ?
O3 Zn1 N2 89.94(6) . 3_756 ?
N2 Zn1 N2 180.00(11) . 3_756 ?
C14 O3 Zn1 123.42(15) . . ?
C16 O4 Zn1 124.08(15) . . ?
C6 N1 C7 125.77(16) . . ?
C6 N1 C8 116.95(16) . . ?
C7 N1 C8 116.99(16) . . ?
C11 N2 C12 117.29(18) . . ?
C11 N2 Zn1 123.10(14) . . ?
C12 N2 Zn1 119.60(14) . . ?
C20 N3 C18 142.9(8) . . ?
C20 N3 C19 103.0(6) . . ?
C18 N3 C19 114.0(5) . . ?
C3 C1 C2 120.04(18) . 3_766 ?
C3 C1 H1 120.0 . . ?
C2 C1 H1 120.0 3_766 . ?
C5 C2 C1 120.47(18) . 3_766 ?
C5 C2 H2 119.8 . . ?
C1 C2 H2 119.8 3_766 . ?
C1 C3 C4 120.66(17) . . ?
C1 C3 C7 119.25(18) . . ?
C4 C3 C7 120.07(17) . . ?
C3 C4 C5 121.70(17) . . ?
C3 C4 C4 119.3(2) . 3_766 ?
C5 C4 C4 119.0(2) . 3_766 ?
C2 C5 C4 120.52(17) . . ?
C2 C5 C6 119.70(18) . . ?
C4 C5 C6 119.78(17) . . ?
O1 C6 N1 120.82(18) . . ?
O1 C6 C5 122.71(19) . . ?
N1 C6 C5 116.45(17) . . ?
O2 C7 N1 120.51(18) . . ?
O2 C7 C3 123.48(19) . . ?
N1 C7 C3 115.99(17) . . ?
C10 C8 C9 119.40(19) . . ?
C10 C8 N1 120.16(19) . . ?
C9 C8 N1 120.44(19) . . ?
C8 C9 C12 118.2(2) . . ?
C8 C9 H9 120.9 . . ?
C12 C9 H9 120.9 . . ?
C8 C10 C11 118.1(2) . . ?
C8 C10 H10 121.0 . . ?
C11 C10 H10 121.0 . . ?
N2 C11 C10 123.6(2) . . ?
N2 C11 H11 118.2 . . ?
C10 C11 H11 118.2 . . ?
N2 C12 C9 123.4(2) . . ?
N2 C12 H12 118.3 . . ?
C9 C12 H12 118.3 . . ?
C14 C13 H13A 109.5 . . ?
C14 C13 H13B 109.5 . . ?
H13A C13 H13B 109.5 . . ?
C14 C13 H13C 109.5 . . ?
H13A C13 H13C 109.5 . . ?
H13B C13 H13C 109.5 . . ?
O3 C14 C15 126.4(2) . . ?
O3 C14 C13 115.6(2) . . ?
C15 C14 C13 118.0(2) . . ?
C14 C15 C16 126.9(2) . . ?
C14 C15 H15 116.6 . . ?
C16 C15 H15 116.6 . . ?
O4 C16 C15 125.6(2) . . ?
O4 C16 C17 115.6(2) . . ?
C15 C16 C17 118.8(2) . . ?
C16 C17 H17A 109.5 . . ?
C16 C17 H17B 109.5 . . ?
H17A C17 H17B 109.5 . . ?
C16 C17 H17C 109.5 . . ?
H17A C17 H17C 109.5 . . ?
H17B C17 H17C 109.5 . . ?
N3 C18 H18A 109.5 . . ?
N3 C18 H18B 109.5 . . ?
H18A C18 H18B 109.5 . . ?
N3 C18 H18C 109.5 . . ?
H18A C18 H18C 109.5 . . ?
H18B C18 H18C 109.5 . . ?
N3 C19 H19A 109.5 . . ?
N3 C19 H19B 109.5 . . ?
H19A C19 H19B 109.5 . . ?
N3 C19 H19C 109.5 . . ?
H19A C19 H19C 109.5 . . ?
H19B C19 H19C 109.5 . . ?
N3 C20 O5 141.7(8) . . ?
N3 C20 C21 101.4(6) . . ?
O5 C20 C21 116.9(5) . . ?
C20 C21 H21A 109.5 . . ?
C20 C21 H21B 109.5 . . ?
H21A C21 H21B 109.5 . . ?
C20 C21 H21C 109.5 . . ?
H21A C21 H21C 109.5 . . ?
H21B C21 H21C 109.5 . . ?

loop_
_geom_torsion_atom_site_label_1
_geom_torsion_atom_site_label_2
_geom_torsion_atom_site_label_3
_geom_torsion_atom_site_label_4
_geom_torsion
_geom_torsion_site_symmetry_1
_geom_torsion_site_symmetry_2
_geom_torsion_site_symmetry_3
_geom_torsion_site_symmetry_4
_geom_torsion_publ_flag
O4 Zn1 O3 C14 16.45(19) . . . . ?
O4 Zn1 O3 C14 -163.55(19) 3_756 . . . ?
O3 Zn1 O3 C14 99(100) 3_756 . . . ?
N2 Zn1 O3 C14 -70.53(19) . . . . ?
N2 Zn1 O3 C14 109.47(19) 3_756 . . . ?
O4 Zn1 O4 C16 -95(100) 3_756 . . . ?
O3 Zn1 O4 C16 160.46(18) 3_756 . . . ?
O3 Zn1 O4 C16 -19.54(18) . . . . ?
N2 Zn1 O4 C16 70.51(19) . . . . ?
N2 Zn1 O4 C16 -109.49(19) 3_756 . . . ?
O4 Zn1 N2 C11 -125.96(18) . . . . ?
O4 Zn1 N2 C11 54.04(18) 3_756 . . . ?
O3 Zn1 N2 C11 144.16(18) 3_756 . . . ?
O3 Zn1 N2 C11 -35.84(18) . . . . ?
N2 Zn1 N2 C11 -91(100) 3_756 . . . ?
O4 Zn1 N2 C12 52.40(18) . . . . ?
O4 Zn1 N2 C12 -127.60(18) 3_756 . . . ?
O3 Zn1 N2 C12 -37.47(18) 3_756 . . . ?
O3 Zn1 N2 C12 142.53(18) . . . . ?
N2 Zn1 N2 C12 88(100) 3_756 . . . ?
C2 C1 C3 C4 1.2(3) 3_766 . . . ?
C2 C1 C3 C7 179.24(19) 3_766 . . . ?
C1 C3 C4 C5 179.15(19) . . . . ?
C7 C3 C4 C5 1.1(3) . . . . ?
C1 C3 C4 C4 -0.7(3) . . . 3_766 ?
C7 C3 C4 C4 -178.7(2) . . . 3_766 ?
C1 C2 C5 C4 0.0(3) 3_766 . . . ?
C1 C2 C5 C6 -179.33(19) 3_766 . . . ?
C3 C4 C5 C2 179.70(19) . . . . ?
C4 C4 C5 C2 -0.5(3) 3_766 . . . ?
C3 C4 C5 C6 -1.0(3) . . . . ?
C4 C4 C5 C6 178.8(2) 3_766 . . . ?
C7 N1 C6 O1 -176.0(2) . . . . ?
C8 N1 C6 O1 -2.4(3) . . . . ?
C7 N1 C6 C5 5.8(3) . . . . ?
C8 N1 C6 C5 179.38(18) . . . . ?
C2 C5 C6 O1 -1.1(3) . . . . ?
C4 C5 C6 O1 179.