####################################################################### 
# 
# This file contains crystal structure data downloaded from the 
# Cambridge Structural Database (CSD) hosted by the Cambridge 
# Crystallographic Data Centre (CCDC).
# 
# Full information about CCDC data access policies and citation 
# guidelines are available at http://www.ccdc.cam.ac.uk/access/V1 
# 
# Audit and citation data items may have been added by the CCDC. 
# Please retain this information to preserve the provenance of 
# this file and to allow appropriate attribution of the data. 
# 
#######################################################################

data_5
_audit_block_doi                 10.5517/cc133zx3
_database_code_depnum_ccdc_archive 'CCDC 1016735'
loop_
_citation_id
_citation_doi
_citation_year
1 10.1080/10610278.2014.984714 2015
_audit_update_record             
;
2014-07-29 deposited with the CCDC.	2024-07-12 downloaded from the CCDC.
;

_audit_creation_method           SHELXL-97
_chemical_name_systematic        
;
 ?
;
_chemical_name_common            ?
_chemical_melting_point          ?
_chemical_formula_moiety         'C34 H26 N4 O8 Zn, 4(C4 H9 N O)'
_chemical_formula_sum            'C50 H62 N8 O12 Zn'
_chemical_formula_weight         1032.45

loop_
_atom_type_symbol
_atom_type_description
_atom_type_scat_dispersion_real
_atom_type_scat_dispersion_imag
_atom_type_scat_source
C C 0.0033 0.0016 'International Tables Vol C Tables 4.2.6.8 and 6.1.1.4'
N N 0.0061 0.0033 'International Tables Vol C Tables 4.2.6.8 and 6.1.1.4'
O O 0.0106 0.0060 'International Tables Vol C Tables 4.2.6.8 and 6.1.1.4'
Zn Zn 0.2839 1.4301 'International Tables Vol C Tables 4.2.6.8 and 6.1.1.4'
H H 0.0000 0.0000 'International Tables Vol C Tables 4.2.6.8 and 6.1.1.4'

_symmetry_cell_setting           Orthorhombic
_symmetry_space_group_name_H-M   Pbcn
_symmetry_space_group_name_Hall  -P2n2ab
loop_
_symmetry_equiv_pos_as_xyz
'x, y, z'
'-x+1/2, -y+1/2, z+1/2'
'x+1/2, -y+1/2, -z'
'-x, y, -z+1/2'
'-x, -y, -z'
'x-1/2, y-1/2, -z-1/2'
'-x-1/2, y-1/2, z'
'x, -y, z-1/2'

_cell_length_a                   17.822(4)
_cell_length_b                   20.068(4)
_cell_length_c                   14.445(3)
_cell_angle_alpha                90.00
_cell_angle_beta                 90.00
_cell_angle_gamma                90.00
_cell_volume                     5166.3(19)
_cell_formula_units_Z            4
_cell_measurement_temperature    293(2)
_cell_measurement_reflns_used    25
_cell_measurement_theta_min      12
_cell_measurement_theta_max      18

_exptl_crystal_description       Block
_exptl_crystal_colour            Red
_exptl_crystal_size_max          0.49
_exptl_crystal_size_mid          0.31
_exptl_crystal_size_min          0.30
_exptl_crystal_density_meas      ?
_exptl_crystal_density_diffrn    1.327
_exptl_crystal_density_method    'not measured'
_exptl_crystal_F_000             2176
_exptl_absorpt_coefficient_mu    0.544
_exptl_absorpt_correction_type   Multi-Scan
_exptl_absorpt_correction_T_min  0.25
_exptl_absorpt_correction_T_max  1.00
_exptl_absorpt_process_details   'ABSCOR; Higashi, 1995'

_exptl_special_details           
;
 ?
;

_diffrn_ambient_temperature      293(2)
_diffrn_radiation_wavelength     0.71073
_diffrn_radiation_type           MoK\a
_diffrn_radiation_source         'fine-focus sealed tube'
_diffrn_radiation_monochromator  graphite
_diffrn_measurement_device_type  'RIGAKU RAXIS-RAPID IP'
_diffrn_measurement_method       '\w scan'
_diffrn_detector_area_resol_mean ?
_diffrn_standards_number         none
_diffrn_standards_interval_count none
_diffrn_standards_interval_time  none
_diffrn_standards_decay_%        ?
_diffrn_reflns_number            46086
_diffrn_reflns_av_R_equivalents  0.1587
_diffrn_reflns_av_sigmaI/netI    0.1087
_diffrn_reflns_limit_h_min       -23
_diffrn_reflns_limit_h_max       23
_diffrn_reflns_limit_k_min       -25
_diffrn_reflns_limit_k_max       25
_diffrn_reflns_limit_l_min       -17
_diffrn_reflns_limit_l_max       18
_diffrn_reflns_theta_min         3.04
_diffrn_reflns_theta_max         27.48
_reflns_number_total             5860
_reflns_number_gt                2489
_reflns_threshold_expression     >2sigma(I)

_computing_data_collection       'RAPID-AUTO (Rigaku, 1998)'
_computing_cell_refinement       'RAPID-AUTO (Rigaku, 1998)'
_computing_data_reduction        'CrystalClear (Rigaku/MSC, 2002)'
_computing_structure_solution    'SHELXS-97 (Sheldrick, 1990)'
_computing_structure_refinement  'SHELXL-97 (Sheldrick, 1997)'
_computing_molecular_graphics    'ORTEX (P.McArdle, 1995)'
_computing_publication_material  'SHELXL-97/2 (Sheldrick,1997)'

_refine_special_details          
;
 Refinement of F^2^ against ALL reflections.  The weighted R-factor wR and
 goodness of fit S are based on F^2^, conventional R-factors R are based
 on F, with F set to zero for negative F^2^. The threshold expression of
 F^2^ > 2sigma(F^2^) is used only for calculating R-factors(gt) etc. and is
 not relevant to the choice of reflections for refinement.  R-factors based
 on F^2^ are statistically about twice as large as those based on F, and R-
 factors based on ALL data will be even larger.
;

_refine_ls_structure_factor_coef Fsqd
_refine_ls_matrix_type           full
_refine_ls_weighting_scheme      calc
_refine_ls_weighting_details     
'calc w=1/[\s^2^(Fo^2^)+(0.1110P)^2^+0.0000P] where P=(Fo^2^+2Fc^2^)/3'
_atom_sites_solution_primary     direct
_atom_sites_solution_secondary   difmap
_atom_sites_solution_hydrogens   geom
_refine_ls_hydrogen_treatment    constr
_refine_ls_extinction_method     none
_refine_ls_extinction_coef       ?
_refine_ls_number_reflns         5860
_refine_ls_number_parameters     333
_refine_ls_number_restraints     0
_refine_ls_R_factor_all          0.1823
_refine_ls_R_factor_gt           0.0766
_refine_ls_wR_factor_ref         0.2333
_refine_ls_wR_factor_gt          0.1844
_refine_ls_goodness_of_fit_ref   0.969
_refine_ls_restrained_S_all      0.969
_refine_ls_shift/su_max          0.001
_refine_ls_shift/su_mean         0.000

loop_
_atom_site_label
_atom_site_type_symbol
_atom_site_fract_x
_atom_site_fract_y
_atom_site_fract_z
_atom_site_U_iso_or_equiv
_atom_site_adp_type
_atom_site_occupancy
_atom_site_symmetry_multiplicity
_atom_site_calc_flag
_atom_site_refinement_flags
_atom_site_disorder_assembly
_atom_site_disorder_group
Zn1 Zn 0.5000 0.59533(3) 0.2500 0.0511(3) Uani 1 2 d S . .
O1 O 0.4474(3) -0.08063(14) 0.3916(3) 0.0846(13) Uani 1 1 d . . .
O2 O 0.4332(2) 0.27061(14) 0.3819(2) 0.0789(13) Uani 1 1 d . . .
O3 O 0.4299(2) 0.59492(14) 0.1402(2) 0.0591(9) Uani 1 1 d . . .
O4 O 0.5907(2) 0.59402(15) 0.1651(2) 0.0655(9) Uani 1 1 d . . .
O5 O 0.3535(3) 0.2484(2) 0.1245(4) 0.1152(17) Uani 1 1 d . . .
O6 O 0.1516(4) 0.4428(2) 0.1150(4) 0.134(2) Uani 1 1 d . . .
N1 N 0.5000 -0.2905(2) 0.2500 0.0512(13) Uani 1 2 d S . .
N2 N 0.5000 -0.0803(2) 0.2500 0.0498(13) Uani 1 2 d S . .
N3 N 0.5000 0.2709(2) 0.2500 0.0506(13) Uani 1 2 d S . .
N4 N 0.5000 0.4815(2) 0.2500 0.0486(13) Uani 1 2 d S . .
N5 N 0.2973(7) 0.2417(3) -0.0048(5) 0.151(4) Uani 1 1 d . . .
N6 N 0.1984(5) 0.5340(5) 0.1663(7) 0.165(4) Uani 1 1 d . . .
C1 C 0.4498(3) -0.2566(2) 0.2024(3) 0.0607(14) Uani 1 1 d . . .
H1 H 0.4143 -0.2800 0.1681 0.073 Uiso 1 1 calc R . .
C2 C 0.4476(3) -0.1867(2) 0.2011(3) 0.0617(14) Uani 1 1 d . . .
H2 H 0.4110 -0.1643 0.1674 0.074 Uiso 1 1 calc R . .
C3 C 0.5000 -0.1524(3) 0.2500 0.0527(16) Uani 1 2 d S . .
C4 C 0.4717(3) -0.0483(2) 0.3281(3) 0.0558(13) Uani 1 1 d . . .
C5 C 0.4706(3) 0.02536(19) 0.3274(3) 0.0495(12) Uani 1 1 d . . .
C6 C 0.5000 0.0596(2) 0.2500 0.0481(16) Uani 1 2 d S . .
C7 C 0.4419(3) 0.0602(2) 0.3994(3) 0.0645(15) Uani 1 1 d . . .
H7 H 0.4230 0.0375 0.4504 0.077 Uiso 1 1 calc R . .
C8 C 0.4402(3) 0.1302(2) 0.3981(3) 0.0651(16) Uani 1 1 d . . .
H8 H 0.4195 0.1531 0.4479 0.078 Uiso 1 1 calc R . .
C9 C 0.5000 0.1305(3) 0.2500 0.0467(15) Uani 1 2 d S . .
C10 C 0.4685(3) 0.1649(2) 0.3252(3) 0.0536(13) Uani 1 1 d . . .
C11 C 0.4647(3) 0.23892(19) 0.3229(3) 0.0533(13) Uani 1 1 d . . .
C12 C 0.5000 0.3432(3) 0.2500 0.0496(16) Uani 1 2 d S . .
C13 C 0.4364(3) 0.3778(2) 0.2252(3) 0.0553(13) Uani 1 1 d . . .
H13 H 0.3927 0.3557 0.2082 0.066 Uiso 1 1 calc R . .
C14 C 0.4399(3) 0.44684(19) 0.2267(3) 0.0535(13) Uani 1 1 d . . .
H14 H 0.3970 0.4703 0.2100 0.064 Uiso 1 1 calc R . .
C15 C 0.6633(4) 0.5871(3) 0.0286(4) 0.095(2) Uani 1 1 d . . .
H15A H 0.6957 0.6209 0.0533 0.142 Uiso 1 1 calc R . .
H15B H 0.6564 0.5943 -0.0365 0.142 Uiso 1 1 calc R . .
H15C H 0.6855 0.5441 0.0384 0.142 Uiso 1 1 calc R . .
C16 C 0.5881(4) 0.5901(2) 0.0770(4) 0.0676(15) Uani 1 1 d . . .
C17 C 0.5238(4) 0.5882(3) 0.0256(4) 0.0758(18) Uani 1 1 d . . .
H17 H 0.5302 0.5848 -0.0381 0.091 Uiso 1 1 calc R . .
C18 C 0.4501(3) 0.5906(2) 0.0567(3) 0.0625(14) Uani 1 1 d . . .
C19 C 0.3880(4) 0.5883(3) -0.0133(4) 0.0874(19) Uani 1 1 d . . .
H19A H 0.3439 0.5695 0.0146 0.131 Uiso 1 1 calc R . .
H19B H 0.4031 0.5612 -0.0649 0.131 Uiso 1 1 calc R . .
H19C H 0.3772 0.6326 -0.0345 0.131 Uiso 1 1 calc R . .
C20 C 0.2165(5) 0.2586(4) 0.0682(8) 0.167(4) Uani 1 1 d . . .
H20A H 0.1764 0.2288 0.0521 0.250 Uiso 1 1 calc R . .
H20B H 0.2005 0.3038 0.0592 0.250 Uiso 1 1 calc R . .
H20C H 0.2300 0.2521 0.1319 0.250 Uiso 1 1 calc R . .
C21 C 0.2715(5) 0.2369(4) -0.0976(6) 0.142(3) Uani 1 1 d . . .
H21A H 0.2182 0.2437 -0.0992 0.212 Uiso 1 1 calc R . .
H21B H 0.2831 0.1935 -0.1216 0.212 Uiso 1 1 calc R . .
H21C H 0.2958 0.2702 -0.1347 0.212 Uiso 1 1 calc R . .
C22 C 0.3355(10) 0.2444(4) 0.0468(11) 0.205(9) Uani 1 1 d . . .
C23 C 0.4114(4) 0.2335(3) -0.0313(6) 0.110(3) Uani 1 1 d . . .
H23A H 0.3923 0.2213 -0.0911 0.166 Uiso 1 1 calc R . .
H23B H 0.4439 0.1989 -0.0089 0.166 Uiso 1 1 calc R . .
H23C H 0.4390 0.2744 -0.0363 0.166 Uiso 1 1 calc R . .
C24 C 0.1619(5) 0.5673(3) 0.0766(5) 0.114(3) Uani 1 1 d . . .
H24A H 0.1253 0.5376 0.0507 0.171 Uiso 1 1 calc R . .
H24B H 0.2004 0.5760 0.0317 0.171 Uiso 1 1 calc R . .
H24C H 0.1381 0.6085 0.0936 0.171 Uiso 1 1 calc R . .
C25 C 0.2384(5) 0.5800(5) 0.2292(6) 0.157(4) Uani 1 1 d . . .
H25A H 0.2302 0.5665 0.2922 0.235 Uiso 1 1 calc R . .
H25B H 0.2197 0.6244 0.2206 0.235 Uiso 1 1 calc R . .
H25C H 0.2911 0.5789 0.2158 0.235 Uiso 1 1 calc R . .
C26 C 0.1881(7) 0.4801(6) 0.1691(10) 0.171(6) Uani 1 1 d . . .
C27 C 0.2243(5) 0.4436(6) 0.2605(7) 0.198(6) Uani 1 1 d . . .
H27A H 0.2558 0.4074 0.2411 0.297 Uiso 1 1 calc R . .
H27B H 0.1847 0.4268 0.2990 0.297 Uiso 1 1 calc R . .
H27C H 0.2537 0.4752 0.2948 0.297 Uiso 1 1 calc R . .

loop_
_atom_site_aniso_label
_atom_site_aniso_U_11
_atom_site_aniso_U_22
_atom_site_aniso_U_33
_atom_site_aniso_U_23
_atom_site_aniso_U_13
_atom_site_aniso_U_12
Zn1 0.0694(6) 0.0349(4) 0.0491(4) 0.000 0.0044(4) 0.000
O1 0.138(4) 0.0340(16) 0.082(2) 0.0059(17) 0.041(3) -0.0040(19)
O2 0.125(4) 0.0344(16) 0.077(2) -0.0037(16) 0.047(2) 0.0047(18)
O3 0.079(3) 0.0490(17) 0.0493(18) -0.0001(15) 0.0023(16) -0.0007(17)
O4 0.080(3) 0.0551(18) 0.061(2) 0.0025(17) 0.0106(18) 0.0041(18)
O5 0.132(5) 0.113(4) 0.101(4) -0.017(3) -0.009(3) -0.022(3)
O6 0.135(5) 0.081(3) 0.186(5) 0.010(3) -0.002(4) -0.034(3)
N1 0.057(4) 0.034(2) 0.063(3) 0.000 0.003(3) 0.000
N2 0.061(4) 0.029(2) 0.059(3) 0.000 0.001(3) 0.000
N3 0.065(4) 0.027(2) 0.060(3) 0.000 0.010(3) 0.000
N4 0.062(4) 0.032(2) 0.052(3) 0.000 0.004(3) 0.000
N5 0.290(13) 0.077(4) 0.087(5) -0.006(4) -0.024(6) -0.048(6)
N6 0.098(6) 0.164(8) 0.232(10) -0.065(8) 0.052(6) -0.034(6)
C1 0.069(4) 0.037(2) 0.076(3) -0.002(2) -0.019(3) -0.002(2)
C2 0.069(4) 0.032(2) 0.084(3) -0.001(2) -0.020(3) 0.006(2)
C3 0.065(5) 0.028(3) 0.065(4) 0.000 0.009(4) 0.000
C4 0.072(4) 0.030(2) 0.066(3) -0.001(2) 0.008(3) -0.002(2)
C5 0.064(3) 0.030(2) 0.055(3) 0.000(2) 0.007(2) -0.0029(19)
C6 0.058(5) 0.029(3) 0.057(4) 0.000 0.003(4) 0.000
C7 0.094(5) 0.034(2) 0.065(3) 0.002(2) 0.026(3) -0.005(2)
C8 0.095(5) 0.035(2) 0.065(3) 0.003(2) 0.033(3) -0.001(2)
C9 0.053(4) 0.035(3) 0.052(3) 0.000 0.011(3) 0.000
C10 0.074(4) 0.033(2) 0.053(3) -0.004(2) 0.014(2) -0.001(2)
C11 0.077(4) 0.027(2) 0.056(3) -0.001(2) 0.022(3) -0.001(2)
C12 0.071(5) 0.026(3) 0.051(3) 0.000 0.014(4) 0.000
C13 0.062(4) 0.037(2) 0.067(3) -0.004(2) 0.001(2) -0.003(2)
C14 0.064(4) 0.035(2) 0.061(3) 0.000(2) 0.000(2) 0.005(2)
C15 0.111(6) 0.079(4) 0.094(4) 0.001(3) 0.040(4) -0.010(4)
C16 0.088(5) 0.036(2) 0.079(4) 0.001(3) 0.023(3) -0.005(3)
C17 0.100(6) 0.078(4) 0.049(3) -0.003(3) 0.015(3) -0.011(3)
C18 0.095(5) 0.031(2) 0.061(3) 0.009(2) -0.003(3) -0.007(3)
C19 0.120(6) 0.077(4) 0.066(3) 0.007(3) -0.024(3) -0.020(4)
C20 0.094(7) 0.154(8) 0.253(12) -0.041(7) 0.066(8) 0.001(6)
C21 0.135(8) 0.153(7) 0.136(7) -0.045(6) -0.013(6) -0.024(6)
C22 0.35(2) 0.046(4) 0.216(14) -0.004(7) -0.173(16) -0.033(7)
C23 0.110(7) 0.085(4) 0.136(6) -0.005(4) 0.057(5) 0.029(4)
C24 0.121(7) 0.091(4) 0.130(6) 0.030(5) -0.044(5) -0.020(4)
C25 0.131(9) 0.170(8) 0.169(8) -0.043(6) -0.036(7) -0.054(7)
C26 0.113(9) 0.135(9) 0.266(15) -0.033(10) 0.099(9) -0.047(8)
C27 0.089(7) 0.283(13) 0.223(11) 0.164(10) 0.004(7) 0.019(8)

_geom_special_details            
;
 All esds (except the esd in the dihedral angle between two l.s. planes)
 are estimated using the full covariance matrix.  The cell esds are taken
 into account individually in the estimation of esds in distances, angles
 and torsion angles; correlations between esds in cell parameters are only
 used when they are defined by crystal symmetry.  An approximate (isotropic)
 treatment of cell esds is used for estimating esds involving l.s. planes.
;

loop_
_geom_bond_atom_site_label_1
_geom_bond_atom_site_label_2
_geom_bond_distance
_geom_bond_site_symmetry_2
_geom_bond_publ_flag
Zn1 O3 2.019(3) . ?
Zn1 O3 2.019(3) 4_655 ?
Zn1 O4 2.030(4) 4_655 ?
Zn1 O4 2.030(4) . ?
Zn1 N4 2.284(4) . ?
Zn1 N1 2.291(5) 1_565 ?
O1 C4 1.204(5) . ?
O2 C11 1.202(5) . ?
O3 C18 1.263(6) . ?
O4 C16 1.275(6) . ?
O5 C22 1.170(11) . ?
O6 C26 1.263(13) . ?
N1 C1 1.318(5) 4_655 ?
N1 C1 1.318(5) . ?
N1 Zn1 2.291(5) 1_545 ?
N2 C4 1.393(5) 4_655 ?
N2 C4 1.393(5) . ?
N2 C3 1.447(7) . ?
N3 C11 1.385(4) 4_655 ?
N3 C11 1.385(4) . ?
N3 C12 1.450(6) . ?
N4 C14 1.321(5) . ?
N4 C14 1.321(5) 4_655 ?
N5 C22 1.011(12) . ?
N5 C21 1.420(10) . ?
N5 C20 1.816(12) . ?
N6 C26 1.097(11) . ?
N6 C25 1.477(10) . ?
N6 C24 1.597(12) . ?
C1 C2 1.403(6) . ?
C1 H1 0.9300 . ?
C2 C3 1.358(5) . ?
C2 H2 0.9300 . ?
C3 C2 1.358(5) 4_655 ?
C4 C5 1.478(6) . ?
C5 C7 1.354(6) . ?
C5 C6 1.413(5) . ?
C6 C5 1.413(5) 4_655 ?
C6 C9 1.423(8) . ?
C7 C8 1.403(6) . ?
C7 H7 0.9300 . ?
C8 C10 1.360(6) . ?
C8 H8 0.9300 . ?
C9 C10 1.403(5) . ?
C9 C10 1.403(5) 4_655 ?
C10 C11 1.488(6) . ?
C12 C13 1.377(5) 4_655 ?
C12 C13 1.377(5) . ?
C13 C14 1.386(6) . ?
C13 H13 0.9300 . ?
C14 H14 0.9300 . ?
C15 C16 1.512(8) . ?
C15 H15A 0.9600 . ?
C15 H15B 0.9600 . ?
C15 H15C 0.9600 . ?
C16 C17 1.366(8) . ?
C17 C18 1.389(8) . ?
C17 H17 0.9300 . ?
C18 C19 1.500(7) . ?
C19 H19A 0.9600 . ?
C19 H19B 0.9600 . ?
C19 H19C 0.9600 . ?
C20 H20A 0.9600 . ?
C20 H20B 0.9600 . ?
C20 H20C 0.9600 . ?
C21 H21A 0.9600 . ?
C21 H21B 0.9600 . ?
C21 H21C 0.9600 . ?
C22 C23 1.774(19) . ?
C23 H23A 0.9600 . ?
C23 H23B 0.9600 . ?
C23 H23C 0.9600 . ?
C24 H24A 0.9600 . ?
C24 H24B 0.9600 . ?
C24 H24C 0.9600 . ?
C25 H25A 0.9600 . ?
C25 H25B 0.9600 . ?
C25 H25C 0.9600 . ?
C26 C27 1.643(16) . ?
C27 H27A 0.9600 . ?
C27 H27B 0.9600 . ?
C27 H27C 0.9600 . ?

loop_
_geom_angle_atom_site_label_1
_geom_angle_atom_site_label_2
_geom_angle_atom_site_label_3
_geom_angle
_geom_angle_site_symmetry_1
_geom_angle_site_symmetry_3
_geom_angle_publ_flag
O3 Zn1 O3 179.53(16) . 4_655 ?
O3 Zn1 O4 88.93(14) . 4_655 ?
O3 Zn1 O4 91.07(14) 4_655 4_655 ?
O3 Zn1 O4 91.07(14) . . ?
O3 Zn1 O4 88.93(14) 4_655 . ?
O4 Zn1 O4 178.51(17) 4_655 . ?
O3 Zn1 N4 89.76(8) . . ?
O3 Zn1 N4 89.76(8) 4_655 . ?
O4 Zn1 N4 89.25(8) 4_655 . ?
O4 Zn1 N4 89.25(8) . . ?
O3 Zn1 N1 90.24(8) . 1_565 ?
O3 Zn1 N1 90.24(8) 4_655 1_565 ?
O4 Zn1 N1 90.75(8) 4_655 1_565 ?
O4 Zn1 N1 90.75(8) . 1_565 ?
N4 Zn1 N1 180.000(1) . 1_565 ?
C18 O3 Zn1 125.0(4) . . ?
C16 O4 Zn1 125.0(4) . . ?
C1 N1 C1 117.9(5) 4_655 . ?
C1 N1 Zn1 121.1(3) 4_655 1_545 ?
C1 N1 Zn1 121.1(3) . 1_545 ?
C4 N2 C4 125.0(5) 4_655 . ?
C4 N2 C3 117.5(2) 4_655 . ?
C4 N2 C3 117.5(2) . . ?
C11 N3 C11 124.7(5) 4_655 . ?
C11 N3 C12 117.6(2) 4_655 . ?
C11 N3 C12 117.6(2) . . ?
C14 N4 C14 116.5(5) . 4_655 ?
C14 N4 Zn1 121.8(3) . . ?
C14 N4 Zn1 121.8(3) 4_655 . ?
C22 N5 C21 156.5(18) . . ?
C22 N5 C20 95.5(14) . . ?
C21 N5 C20 107.7(10) . . ?
C26 N6 C25 132.3(15) . . ?
C26 N6 C24 112.0(12) . . ?
C25 N6 C24 115.7(9) . . ?
N1 C1 C2 122.8(5) . . ?
N1 C1 H1 118.6 . . ?
C2 C1 H1 118.6 . . ?
C3 C2 C1 118.7(5) . . ?
C3 C2 H2 120.6 . . ?
C1 C2 H2 120.6 . . ?
C2 C3 C2 119.1(5) . 4_655 ?
C2 C3 N2 120.5(3) . . ?
C2 C3 N2 120.5(3) 4_655 . ?
O1 C4 N2 119.9(4) . . ?
O1 C4 C5 122.7(4) . . ?
N2 C4 C5 117.5(4) . . ?
C7 C5 C6 119.7(4) . . ?
C7 C5 C4 121.1(4) . . ?
C6 C5 C4 119.1(4) . . ?
C5 C6 C5 121.8(5) . 4_655 ?
C5 C6 C9 119.1(2) . . ?
C5 C6 C9 119.1(2) 4_655 . ?
C5 C7 C8 121.0(4) . . ?
C5 C7 H7 119.5 . . ?
C8 C7 H7 119.5 . . ?
C10 C8 C7 121.0(4) . . ?
C10 C8 H8 119.5 . . ?
C7 C8 H8 119.5 . . ?
C10 C9 C10 121.2(5) . 4_655 ?
C10 C9 C6 119.4(3) . . ?
C10 C9 C6 119.4(3) 4_655 . ?
C8 C10 C9 119.7(4) . . ?
C8 C10 C11 120.8(4) . . ?
C9 C10 C11 119.4(4) . . ?
O2 C11 N3 120.4(4) . . ?
O2 C11 C10 122.3(4) . . ?
N3 C11 C10 117.3(4) . . ?
C13 C12 C13 119.4(5) 4_655 . ?
C13 C12 N3 120.3(3) 4_655 . ?
C13 C12 N3 120.3(3) . . ?
C12 C13 C14 117.6(5) . . ?
C12 C13 H13 121.2 . . ?
C14 C13 H13 121.2 . . ?
N4 C14 C13 124.5(5) . . ?
N4 C14 H14 117.8 . . ?
C13 C14 H14 117.8 . . ?
C16 C15 H15A 109.5 . . ?
C16 C15 H15B 109.5 . . ?
H15A C15 H15B 109.5 . . ?
C16 C15 H15C 109.5 . . ?
H15A C15 H15C 109.5 . . ?
H15B C15 H15C 109.5 . . ?
O4 C16 C17 125.1(5) . . ?
O4 C16 C15 115.5(6) . . ?
C17 C16 C15 119.