####################################################################### 
# 
# This file contains crystal structure data downloaded from the 
# Cambridge Structural Database (CSD) hosted by the Cambridge 
# Crystallographic Data Centre (CCDC).
# 
# Full information about CCDC data access policies and citation 
# guidelines are available at http://www.ccdc.cam.ac.uk/access/V1 
# 
# Audit and citation data items may have been added by the CCDC. 
# Please retain this information to preserve the provenance of 
# this file and to allow appropriate attribution of the data. 
# 
#######################################################################

data_RRcdbpe
_audit_block_doi                 10.5517/ccvcqqm
_database_code_depnum_ccdc_archive 'CCDC 785841'
loop_
_citation_id
_citation_doi
_citation_year
1 10.1021/cg100568a 2010
_audit_update_record             
;
2010-07-26 deposited with the CCDC.	2024-07-12 downloaded from the CCDC.
;

_audit_creation_method           SHELXL-97
_chemical_name_systematic        
;
?
;
_chemical_name_common            ?
_chemical_melting_point          ?
_chemical_formula_moiety         ?
_chemical_formula_sum            'C32 H46 Cd N6 O8'
_chemical_formula_weight         755.16

loop_
_atom_type_symbol
_atom_type_description
_atom_type_scat_dispersion_real
_atom_type_scat_dispersion_imag
_atom_type_scat_source
C C 0.0181 0.0091 'International Tables Vol C Tables 4.2.6.8 and 6.1.1.4'
H H 0.0000 0.0000 'International Tables Vol C Tables 4.2.6.8 and 6.1.1.4'
O O 0.0492 0.0322 'International Tables Vol C Tables 4.2.6.8 and 6.1.1.4'
Cd Cd 0.1185 4.6533 'International Tables Vol C Tables 4.2.6.8 and 6.1.1.4'
N N 0.0311 0.0180 'International Tables Vol C Tables 4.2.6.8 and 6.1.1.4'

_symmetry_cell_setting           monoclinic
_symmetry_space_group_name_H-M   P2(1)/c

loop_
_symmetry_equiv_pos_as_xyz
'x, y, z'
'-x, y+1/2, -z+1/2'
'-x, -y, -z'
'x, -y-1/2, z-1/2'

_cell_length_a                   14.0082(7)
_cell_length_b                   12.4871(4)
_cell_length_c                   12.3464(6)
_cell_angle_alpha                90.00
_cell_angle_beta                 113.763(6)
_cell_angle_gamma                90.00
_cell_volume                     1976.56(18)
_cell_formula_units_Z            2
_cell_measurement_temperature    130(2)
_cell_measurement_reflns_used    5121
_cell_measurement_theta_min      3.4390
_cell_measurement_theta_max      73.0096

_exptl_crystal_description       block
_exptl_crystal_colour            orange
_exptl_crystal_size_max          0.16
_exptl_crystal_size_mid          0.13
_exptl_crystal_size_min          0.12
_exptl_crystal_density_meas      ?
_exptl_crystal_density_diffrn    1.252
_exptl_crystal_density_method    'not measured'
_exptl_crystal_F_000             764
_exptl_absorpt_coefficient_mu    4.844
_exptl_absorpt_correction_type   multi-scan
_exptl_absorpt_correction_T_min  0.2720
_exptl_absorpt_correction_T_max  1.0000
_exptl_absorpt_process_details   
;
CrysAlis RED, Oxford Diffraction Ltd.,
Version 1.171.33.31 (release 08-01-2009 CrysAlis171 .NET)
(compiled Jan 8 2009,16:24:04)
Empirical absorption correction using spherical harmonics,
implemented in SCALE3 ABSPACK scaling algorithm.
;
_exptl_special_details           
;
?
;

_diffrn_ambient_temperature      130(2)
_diffrn_radiation_wavelength     1.54184
_diffrn_radiation_type           CuK\a
_diffrn_radiation_source         'fine-focus sealed tube'
_diffrn_radiation_monochromator  graphite
_diffrn_measurement_device_type  'Goniometer KM4/Xcalibur, detector: Sapphire3'
_diffrn_measurement_method       '\w scans'
_diffrn_detector_area_resol_mean 16.0711
_diffrn_standards_number         ?
_diffrn_standards_interval_count ?
_diffrn_standards_interval_time  ?
_diffrn_standards_decay_%        ?
_diffrn_reflns_number            7269
_diffrn_reflns_av_R_equivalents  0.0370
_diffrn_reflns_av_sigmaI/netI    0.0356
_diffrn_reflns_limit_h_min       -17
_diffrn_reflns_limit_h_max       16
_diffrn_reflns_limit_k_min       -15
_diffrn_reflns_limit_k_max       15
_diffrn_reflns_limit_l_min       -15
_diffrn_reflns_limit_l_max       11
_diffrn_reflns_theta_min         3.45
_diffrn_reflns_theta_max         73.09
_reflns_number_total             3808
_reflns_number_gt                2918
_reflns_threshold_expression     >2sigma(I)

_computing_data_collection       
;
CrysAlisPro, Oxford Diffraction Ltd.,
Version 1.171.33.31 (release 08-01-2009 CrysAlis171 .NET)
(compiled Jan 8 2009,16:24:04)
;
_computing_cell_refinement       
;
CrysAlisPro, Oxford Diffraction Ltd.,
Version 1.171.33.31 (release 08-01-2009 CrysAlis171 .NET)
(compiled Jan 8 2009,16:24:04)
;
_computing_data_reduction        
;
CrysAlisPro, Oxford Diffraction Ltd.,
Version 1.171.33.31 (release 08-01-2009 CrysAlis171 .NET)
(compiled Jan 8 2009,16:24:04)
;
_computing_structure_solution    'SHELXS-97 (Sheldrick, 1997)'
_computing_structure_refinement  'SHELXL-97 (Sheldrick, 1997)'
_computing_molecular_graphics    ?
_computing_publication_material  ?

_refine_special_details          
;
Refinement of F^2^ against ALL reflections. The weighted R-factor wR and
goodness of fit S are based on F^2^, conventional R-factors R are based
on F, with F set to zero for negative F^2^. The threshold expression of
F^2^ > 2sigma(F^2^) is used only for calculating R-factors(gt) etc. and is
not relevant to the choice of reflections for refinement. R-factors based
on F^2^ are statistically about twice as large as those based on F, and R-
factors based on ALL data will be even larger.
;

_refine_ls_structure_factor_coef Fsqd
_refine_ls_matrix_type           full
_refine_ls_weighting_scheme      calc
_refine_ls_weighting_details     
'calc w=1/[\s^2^(Fo^2^)+(0.0425P)^2^+13.1444P] where P=(Fo^2^+2Fc^2^)/3'
_atom_sites_solution_primary     direct
_atom_sites_solution_secondary   difmap
_atom_sites_solution_hydrogens   geom
_refine_ls_hydrogen_treatment    mixed
_refine_ls_extinction_method     none
_refine_ls_extinction_coef       ?
_refine_ls_number_reflns         3808
_refine_ls_number_parameters     146
_refine_ls_number_restraints     0
_refine_ls_R_factor_all          0.0810
_refine_ls_R_factor_gt           0.0692
_refine_ls_wR_factor_ref         0.1595
_refine_ls_wR_factor_gt          0.1554
_refine_ls_goodness_of_fit_ref   1.083
_refine_ls_restrained_S_all      1.083
_refine_ls_shift/su_max          0.000
_refine_ls_shift/su_mean         0.000

loop_
_platon_squeeze_void_nr
_platon_squeeze_void_average_x
_platon_squeeze_void_average_y
_platon_squeeze_void_average_z
_platon_squeeze_void_volume
_platon_squeeze_void_count_electrons
_platon_squeeze_void_content
1 0.500 0.326 -0.092 1128 305 ' '
_platon_squeeze_details          
;
The unit cell contains 16 methanol molecules which have been treated as a
diffuse contribution to the overall scattering without specific atom
positions by SQUEEZE/PLATON.

;
loop_
_atom_site_label
_atom_site_type_symbol
_atom_site_fract_x
_atom_site_fract_y
_atom_site_fract_z
_atom_site_U_iso_or_equiv
_atom_site_adp_type
_atom_site_occupancy
_atom_site_symmetry_multiplicity
_atom_site_calc_flag
_atom_site_refinement_flags
_atom_site_disorder_assembly
_atom_site_disorder_group
H9 H 0.531(7) 0.997(7) 0.123(8) 0.07(3) Uiso 1 1 d . . .
Cd1 Cd 0.0000 1.0000 0.0000 0.02985(19) Uani 1 2 d S . .
N2 N 0.1693(4) 1.0042(5) 0.0113(5) 0.0454(13) Uani 1 1 d . . .
N3 N -0.0481(5) 0.8865(4) -0.1622(5) 0.0443(14) Uani 1 1 d . . .
C4 C -0.0235(5) 0.4744(5) 0.0952(6) 0.0386(14) Uani 1 1 d . . .
H4 H -0.0390 0.4563 0.1594 0.046 Uiso 1 1 calc R . .
C1 C 0.0225(5) 0.7705(4) 0.1480(6) 0.0365(14) Uani 1 1 d . . .
C12 C -0.0264(5) 0.8602(5) -0.2405(6) 0.0399(14) Uani 1 1 d . . .
C5 C 0.0225(5) 0.6040(5) -0.0171(6) 0.0430(16) Uani 1 1 d . . .
H5 H 0.0383 0.6742 -0.0288 0.052 Uiso 1 1 calc R . .
N1 N 0.0451(4) 0.8562(4) 0.1322(5) 0.0415(13) Uani 1 1 d . . .
C7 C 0.3518(7) 0.9873(9) 0.1276(8) 0.086(3) Uani 1 1 d . . .
H7 H 0.4051 0.9763 0.2018 0.103 Uiso 1 1 calc R . .
C8 C 0.3745(6) 1.0025(7) 0.0288(7) 0.061(2) Uani 1 1 d . . .
C6 C 0.2480(6) 0.9886(8) 0.1133(7) 0.072(3) Uani 1 1 d . . .
H6 H 0.2337 0.9779 0.1798 0.086 Uiso 1 1 calc R . .
C11 C 0.1921(6) 1.0200(6) -0.0817(7) 0.058(2) Uani 1 1 d . . .
H11 H 0.1377 1.0318 -0.1550 0.070 Uiso 1 1 calc R . .
C2 C -0.0022(5) 0.6650(5) 0.1631(6) 0.0404(15) Uani 1 1 d . . .
C10 C 0.2931(6) 1.0199(7) -0.0747(8) 0.065(2) Uani 1 1 d . . .
H10 H 0.3049 1.0321 -0.1426 0.078 Uiso 1 1 calc R . .
C3 C -0.0016(5) 0.5802(4) 0.0788(6) 0.0350(13) Uani 1 1 d . . .
C9 C 0.4847(7) 0.9977(8) 0.0428(8) 0.069(2) Uani 1 1 d . . .

loop_
_atom_site_aniso_label
_atom_site_aniso_U_11
_atom_site_aniso_U_22
_atom_site_aniso_U_33
_atom_site_aniso_U_23
_atom_site_aniso_U_13
_atom_site_aniso_U_12
Cd1 0.0390(3) 0.0190(3) 0.0515(3) 0.0010(3) 0.0391(3) 0.0011(2)
N2 0.051(3) 0.046(3) 0.060(3) -0.002(3) 0.043(3) 0.000(3)
N3 0.070(4) 0.024(2) 0.065(3) 0.000(2) 0.054(3) -0.001(2)
C4 0.055(4) 0.030(3) 0.047(3) 0.003(3) 0.036(3) -0.002(3)
C1 0.050(4) 0.024(3) 0.052(3) -0.002(3) 0.038(3) 0.005(3)
C12 0.051(4) 0.025(3) 0.059(4) -0.001(3) 0.038(3) -0.008(3)
C5 0.065(4) 0.022(3) 0.059(4) -0.009(3) 0.043(3) -0.017(3)
N1 0.064(4) 0.021(2) 0.061(3) 0.003(2) 0.047(3) 0.005(2)
C7 0.059(5) 0.145(10) 0.069(5) 0.013(6) 0.042(4) 0.002(6)
C8 0.052(4) 0.076(5) 0.075(5) 0.009(5) 0.047(4) 0.016(4)
C6 0.051(4) 0.117(8) 0.072(5) 0.010(6) 0.051(4) 0.001(5)
C11 0.056(4) 0.073(5) 0.067(4) 0.011(4) 0.047(4) 0.000(4)
C2 0.060(4) 0.029(3) 0.052(4) 0.010(3) 0.043(3) 0.006(3)
C10 0.060(5) 0.083(6) 0.079(5) 0.021(5) 0.056(4) 0.008(4)
C3 0.049(4) 0.018(2) 0.049(3) 0.005(2) 0.030(3) 0.005(2)
C9 0.054(4) 0.095(6) 0.077(5) -0.007(6) 0.046(4) -0.004(5)

_geom_special_details            
;
All esds (except the esd in the dihedral angle between two l.s. planes)
are estimated using the full covariance matrix. The cell esds are taken
into account individually in the estimation of esds in distances, angles
and torsion angles; correlations between esds in cell parameters are only
used when they are defined by crystal symmetry. An approximate (isotropic)
treatment of cell esds is used for estimating esds involving l.s. planes.
;

loop_
_geom_bond_atom_site_label_1
_geom_bond_atom_site_label_2
_geom_bond_distance
_geom_bond_site_symmetry_2
_geom_bond_publ_flag
Cd1 N2 2.319(5) 3_575 ?
Cd1 N2 2.319(5) . ?
Cd1 N3 2.321(5) 3_575 ?
Cd1 N3 2.321(5) . ?
Cd1 N1 2.336(5) . ?
Cd1 N1 2.336(5) 3_575 ?
N2 C6 1.312(10) . ?
N2 C11 1.325(8) . ?
N3 C12 1.171(7) . ?
C4 C5 1.379(8) 3_565 ?
C4 C3 1.389(8) . ?
C4 H4 0.9300 . ?
C1 N1 1.156(7) . ?
C1 C2 1.393(8) . ?
C12 C2 1.399(8) 4_575 ?
C5 C4 1.379(8) 3_565 ?
C5 C3 1.388(8) . ?
C5 H5 0.9300 . ?
C7 C8 1.392(10) . ?
C7 C6 1.392(10) . ?
C7 H7 0.9300 . ?
C8 C10 1.343(11) . ?
C8 C9 1.484(10) . ?
C6 H6 0.9300 . ?
C11 C10 1.383(10) . ?
C11 H11 0.9300 . ?
C2 C12 1.399(8) 4_576 ?
C2 C3 1.487(8) . ?
C10 H10 0.9300 . ?
C9 C9 1.293(15) 3_675 ?
C9 H9 0.94(8) . ?

loop_
_geom_angle_atom_site_label_1
_geom_angle_atom_site_label_2
_geom_angle_atom_site_label_3
_geom_angle
_geom_angle_site_symmetry_1
_geom_angle_site_symmetry_3
_geom_angle_publ_flag
N2 Cd1 N2 180.0 3_575 . ?
N2 Cd1 N3 90.02(19) 3_575 3_575 ?
N2 Cd1 N3 89.98(19) . 3_575 ?
N2 Cd1 N3 89.98(19) 3_575 . ?
N2 Cd1 N3 90.02(19) . . ?
N3 Cd1 N3 180.0 3_575 . ?
N2 Cd1 N1 90.41(19) 3_575 . ?
N2 Cd1 N1 89.59(19) . . ?
N3 Cd1 N1 87.92(19) 3_575 . ?
N3 Cd1 N1 92.08(19) . . ?
N2 Cd1 N1 89.59(19) 3_575 3_575 ?
N2 Cd1 N1 90.41(19) . 3_575 ?
N3 Cd1 N1 92.08(19) 3_575 3_575 ?
N3 Cd1 N1 87.92(19) . 3_575 ?
N1 Cd1 N1 180.00(15) . 3_575 ?
C6 N2 C11 116.8(6) . . ?
C6 N2 Cd1 119.9(4) . . ?
C11 N2 Cd1 123.3(5) . . ?
C12 N3 Cd1 143.3(5) . . ?
C5 C4 C3 120.5(5) 3_565 . ?
C5 C4 H4 119.7 3_565 . ?
C3 C4 H4 119.7 . . ?
N1 C1 C2 176.9(6) . . ?
N3 C12 C2 176.6(7) . 4_575 ?
C4 C5 C3 121.3(5) 3_565 . ?
C4 C5 H5 119.3 3_565 . ?
C3 C5 H5 119.3 . . ?
C1 N1 Cd1 144.5(6) . . ?
C8 C7 C6 118.9(8) . . ?
C8 C7 H7 120.6 . . ?
C6 C7 H7 120.6 . . ?
C10 C8 C7 116.7(7) . . ?
C10 C8 C9 124.2(7) . . ?
C7 C8 C9 119.1(8) . . ?
N2 C6 C7 123.7(7) . . ?
N2 C6 H6 118.2 . . ?
C7 C6 H6 118.2 . . ?
N2 C11 C10 122.9(8) . . ?
N2 C11 H11 118.5 . . ?
C10 C11 H11 118.5 . . ?
C1 C2 C12 119.0(5) . 4_576 ?
C1 C2 C3 120.5(5) . . ?
C12 C2 C3 120.4(5) 4_576 . ?
C8 C10 C11 120.9(7) . . ?
C8 C10 H10 119.5 . . ?
C11 C10 H10 119.5 . . ?
C5 C3 C4 118.1(5) . . ?
C5 C3 C2 121.1(5) . . ?
C4 C3 C2 120.8(5) . . ?
C9 C9 C8 125.1(11) 3_675 . ?
C9 C9 H9 123(5) 3_675 . ?
C8 C9 H9 111(5) . . ?

_diffrn_measured_fraction_theta_max 0.960
_diffrn_reflns_theta_full        73.09
_diffrn_measured_fraction_theta_full 0.960
_refine_diff_density_max         2.095
_refine_diff_density_min         -0.807
_refine_diff_density_rms         0.118
