####################################################################### 
# 
# This file contains crystal structure data downloaded from the 
# Cambridge Structural Database (CSD) hosted by the Cambridge 
# Crystallographic Data Centre (CCDC).
# 
# Full information about CCDC data access policies and citation 
# guidelines are available at http://www.ccdc.cam.ac.uk/access/V1 
# 
# Audit and citation data items may have been added by the CCDC. 
# Please retain this information to preserve the provenance of 
# this file and to allow appropriate attribution of the data. 
# 
#######################################################################

data_RRznbpe
_audit_block_doi                 10.5517/ccvcqrn
_database_code_depnum_ccdc_archive 'CCDC 785842'
loop_
_citation_id
_citation_doi
_citation_year
1 10.1021/cg100568a 2010
_audit_update_record             
;
2010-07-26 deposited with the CCDC.	2024-07-12 downloaded from the CCDC.
;

_audit_creation_method           SHELXL-97
_chemical_name_systematic        
;
?
;
_chemical_name_common            ?
_chemical_melting_point          ?
_chemical_formula_moiety         ?
_chemical_formula_sum            'C36 H42 N10 O4 Zn'
_chemical_formula_weight         744.17

loop_
_atom_type_symbol
_atom_type_description
_atom_type_scat_dispersion_real
_atom_type_scat_dispersion_imag
_atom_type_scat_source
C C 0.0181 0.0091 'International Tables Vol C Tables 4.2.6.8 and 6.1.1.4'
H H 0.0000 0.0000 'International Tables Vol C Tables 4.2.6.8 and 6.1.1.4'
N N 0.0311 0.0180 'International Tables Vol C Tables 4.2.6.8 and 6.1.1.4'
O O 0.0492 0.0322 'International Tables Vol C Tables 4.2.6.8 and 6.1.1.4'
Zn Zn -1.5491 0.6778 'International Tables Vol C Tables 4.2.6.8 and 6.1.1.4'

_symmetry_cell_setting           monoclinic
_symmetry_space_group_name_H-M   P2/m

loop_
_symmetry_equiv_pos_as_xyz
'x, y, z'
'-x, y, -z'
'-x, -y, -z'
'x, -y, z'

_cell_length_a                   10.9623(9)
_cell_length_b                   7.3937(6)
_cell_length_c                   12.6331(14)
_cell_angle_alpha                90.00
_cell_angle_beta                 109.510(11)
_cell_angle_gamma                90.00
_cell_volume                     965.15(15)
_cell_formula_units_Z            1
_cell_measurement_temperature    130(2)
_cell_measurement_reflns_used    1926
_cell_measurement_theta_min      3.7015
_cell_measurement_theta_max      72.7731

_exptl_crystal_description       rod
_exptl_crystal_colour            orange
_exptl_crystal_size_max          0.21
_exptl_crystal_size_mid          0.05
_exptl_crystal_size_min          0.03
_exptl_crystal_density_meas      ?
_exptl_crystal_density_diffrn    1.280
_exptl_crystal_density_method    'not measured'
_exptl_crystal_F_000             390
_exptl_absorpt_coefficient_mu    1.295
_exptl_absorpt_correction_type   multi-scan
_exptl_absorpt_correction_T_min  0.9519
_exptl_absorpt_correction_T_max  1.0000
_exptl_absorpt_process_details   
;
CrysAlisPro, Oxford Diffraction Ltd.,
Version 1.171.33.34d (release 27-02-2009 CrysAlis171 .NET)
(compiled Feb 27 2009,15:38:38)
Empirical absorption correction using spherical harmonics,
implemented in SCALE3 ABSPACK scaling algorithm.
;

_exptl_special_details           
;
?
;

_diffrn_ambient_temperature      130(2)
_diffrn_radiation_wavelength     1.54184
_diffrn_radiation_type           CuK\a
_diffrn_radiation_source         'fine-focus sealed tube'
_diffrn_radiation_monochromator  graphite
_diffrn_measurement_device_type  'Goniometer KM4/Xcalibur, detector: Sapphire3'
_diffrn_measurement_method       '\w scans'
_diffrn_detector_area_resol_mean 16.0711
_diffrn_standards_number         ?
_diffrn_standards_interval_count ?
_diffrn_standards_interval_time  ?
_diffrn_standards_decay_%        ?
_diffrn_reflns_number            3262
_diffrn_reflns_av_R_equivalents  0.0326
_diffrn_reflns_av_sigmaI/netI    0.0495
_diffrn_reflns_limit_h_min       -13
_diffrn_reflns_limit_h_max       10
_diffrn_reflns_limit_k_min       -9
_diffrn_reflns_limit_k_max       8
_diffrn_reflns_limit_l_min       -11
_diffrn_reflns_limit_l_max       15
_diffrn_reflns_theta_min         3.71
_diffrn_reflns_theta_max         72.88
_reflns_number_total             1968
_reflns_number_gt                1534
_reflns_threshold_expression     >2sigma(I)

_computing_data_collection       
;
CrysAlisPro, Oxford Diffraction Ltd.,
Version 1.171.33.34d (release 27-02-2009 CrysAlis171 .NET)
(compiled Feb 27 2009,15:38:38)
;
_computing_cell_refinement       
;
CrysAlisPro, Oxford Diffraction Ltd.,
Version 1.171.33.34d (release 27-02-2009 CrysAlis171 .NET)
(compiled Feb 27 2009,15:38:38)
;
_computing_data_reduction        
;
CrysAlisPro, Oxford Diffraction Ltd.,
Version 1.171.33.34d (release 27-02-2009 CrysAlis171 .NET)
(compiled Feb 27 2009,15:38:38)
;

_computing_structure_solution    'SHELXS-97 (Sheldrick, 1997)'
_computing_structure_refinement  'SHELXL-97 (Sheldrick, 1997)'
_computing_molecular_graphics    ?
_computing_publication_material  ?

_refine_special_details          
;
Refinement of F^2^ against ALL reflections. The weighted R-factor wR and
goodness of fit S are based on F^2^, conventional R-factors R are based
on F, with F set to zero for negative F^2^. The threshold expression of
F^2^ > 2sigma(F^2^) is used only for calculating R-factors(gt) etc. and is
not relevant to the choice of reflections for refinement. R-factors based
on F^2^ are statistically about twice as large as those based on F, and R-
factors based on ALL data will be even larger.
;

_refine_ls_structure_factor_coef Fsqd
_refine_ls_matrix_type           full
_refine_ls_weighting_scheme      calc
_refine_ls_weighting_details     
'calc w=1/[\s^2^(Fo^2^)+(0.0921P)^2^+0.0000P] where P=(Fo^2^+2Fc^2^)/3'
_atom_sites_solution_primary     direct
_atom_sites_solution_secondary   difmap
_atom_sites_solution_hydrogens   geom
_refine_ls_hydrogen_treatment    constr
_refine_ls_extinction_method     none
_refine_ls_extinction_coef       ?
_refine_ls_number_reflns         1968
_refine_ls_number_parameters     86
_refine_ls_number_restraints     0
_refine_ls_R_factor_all          0.0601
_refine_ls_R_factor_gt           0.0527
_refine_ls_wR_factor_ref         0.1367
_refine_ls_wR_factor_gt          0.1339
_refine_ls_goodness_of_fit_ref   0.949
_refine_ls_restrained_S_all      0.949
_refine_ls_shift/su_max          0.000
_refine_ls_shift/su_mean         0.000

loop_
_platon_squeeze_void_nr
_platon_squeeze_void_average_x
_platon_squeeze_void_average_y
_platon_squeeze_void_average_z
_platon_squeeze_void_volume
_platon_squeeze_void_count_electrons
_platon_squeeze_void_content
1 -0.005 -0.074 0.500 548 148 ' '
_platon_squeeze_details          
;
The unit cell contains 4 DMF molecules which have been treated as a
diffuse contribution to the overall scattering without specific atom
positions by SQUEEZE/PLATON.

;
loop_
_atom_site_label
_atom_site_type_symbol
_atom_site_fract_x
_atom_site_fract_y
_atom_site_fract_z
_atom_site_U_iso_or_equiv
_atom_site_adp_type
_atom_site_occupancy
_atom_site_symmetry_multiplicity
_atom_site_calc_flag
_atom_site_refinement_flags
_atom_site_disorder_assembly
_atom_site_disorder_group
C1 C 0.15469(19) -0.3405(3) -0.0543(2) 0.0407(6) Uani 1 1 d . . .
C2 C 0.2228(3) -0.5000 -0.0474(4) 0.0465(9) Uani 1 2 d S . .
C3 C 0.3644(3) -0.5000 -0.0247(4) 0.0511(10) Uani 1 2 d S . .
C4 C 0.4336(2) -0.3392(4) -0.0119(3) 0.0597(9) Uani 1 1 d . . .
H4 H 0.3898 -0.2297 -0.0195 0.072 Uiso 1 1 calc R . .
C5 C 0.1242(4) 0.0000 0.2555(4) 0.0585(11) Uani 1 2 d S . .
H5 H 0.0374 0.0000 0.2500 0.070 Uiso 1 2 calc SR . .
C6 C 0.2155(5) 0.0000 0.3609(4) 0.0739(14) Uani 1 2 d S . .
H6 H 0.1899 0.0000 0.4241 0.089 Uiso 1 2 calc SR . .
C7 C 0.3454(5) 0.0000 0.3731(4) 0.0713(15) Uani 1 2 d S . .
C8 C 0.4380(5) 0.0000 0.4892(5) 0.0849(18) Uani 1 2 d S . .
C9 C 0.3758(4) 0.0000 0.2741(5) 0.0706(15) Uani 1 2 d S . .
H9 H 0.4620 0.0000 0.2780 0.085 Uiso 1 2 calc SR . .
C10 C 0.2775(3) 0.0000 0.1688(4) 0.0562(11) Uani 1 2 d S . .
H10 H 0.2994 0.0000 0.1038 0.067 Uiso 1 2 calc SR . .
N1 N 0.09917(17) -0.2058(3) -0.0602(2) 0.0430(5) Uani 1 1 d . . .
N2 N 0.1520(3) 0.0000 0.1607(3) 0.0442(8) Uani 1 2 d S . .
Zn1 Zn 0.0000 0.0000 0.0000 0.0384(3) Uani 1 4 d S . .

loop_
_atom_site_aniso_label
_atom_site_aniso_U_11
_atom_site_aniso_U_22
_atom_site_aniso_U_33
_atom_site_aniso_U_23
_atom_site_aniso_U_13
_atom_site_aniso_U_12
C1 0.0194(9) 0.0406(14) 0.0594(16) -0.0009(11) 0.0097(10) -0.0066(10)
C2 0.0217(15) 0.0337(17) 0.082(3) 0.000 0.0146(16) 0.000
C3 0.0221(15) 0.0378(19) 0.092(3) 0.000 0.0177(17) 0.000
C4 0.0270(12) 0.0348(13) 0.117(3) 0.0007(14) 0.0239(14) 0.0037(11)
C5 0.044(2) 0.059(3) 0.060(3) 0.000 0.0012(19) 0.000
C6 0.063(3) 0.082(3) 0.060(3) 0.000 -0.002(2) 0.000
C7 0.066(3) 0.062(3) 0.059(3) 0.000 -0.014(2) 0.000
C8 0.061(3) 0.077(3) 0.092(4) 0.000 -0.009(3) 0.000
C9 0.0294(18) 0.059(3) 0.098(4) 0.000 -0.012(2) 0.000
C10 0.0242(16) 0.055(2) 0.074(3) 0.000 -0.0031(17) 0.000
N1 0.0223(8) 0.0297(10) 0.0744(15) -0.0025(9) 0.0126(9) 0.0010(8)
N2 0.0280(14) 0.0365(15) 0.055(2) 0.000 -0.0031(13) 0.000
Zn1 0.0159(3) 0.0330(4) 0.0586(5) 0.000 0.0021(3) 0.000

_geom_special_details            
;
All esds (except the esd in the dihedral angle between two l.s. planes)
are estimated using the full covariance matrix. The cell esds are taken
into account individually in the estimation of esds in distances, angles
and torsion angles; correlations between esds in cell parameters are only
used when they are defined by crystal symmetry. An approximate (isotropic)
treatment of cell esds is used for estimating esds involving l.s. planes.
;

loop_
_geom_bond_atom_site_label_1
_geom_bond_atom_site_label_2
_geom_bond_distance
_geom_bond_site_symmetry_2
_geom_bond_publ_flag
C1 N1 1.157(3) . ?
C1 C2 1.382(3) . ?
C2 C1 1.382(3) 4_545 ?
C2 C3 1.482(4) . ?
C3 C4 1.390(3) . ?
C3 C4 1.390(3) 4_545 ?
C4 C4 1.386(5) 2_655 ?
C4 H4 0.9300 . ?
C5 N2 1.331(6) . ?
C5 C6 1.373(6) . ?
C5 H5 0.9300 . ?
C6 C7 1.381(8) . ?
C6 H6 0.9300 . ?
C7 C9 1.397(8) . ?
C7 C8 1.478(7) . ?
C8 C8 1.295(11) 3_656 ?
C9 C10 1.405(6) . ?
C9 H9 0.9300 . ?
C10 N2 1.345(5) . ?
C10 H10 0.9300 . ?
N1 Zn1 2.151(2) . ?
N2 Zn1 2.154(3) . ?
Zn1 N1 2.151(2) 2 ?
Zn1 N1 2.151(2) 3 ?
Zn1 N1 2.151(2) 4 ?
Zn1 N2 2.154(3) 3 ?

loop_
_geom_angle_atom_site_label_1
_geom_angle_atom_site_label_2
_geom_angle_atom_site_label_3
_geom_angle
_geom_angle_site_symmetry_1
_geom_angle_site_symmetry_3
_geom_angle_publ_flag
N1 C1 C2 179.1(3) . . ?
C1 C2 C1 117.1(3) 4_545 . ?
C1 C2 C3 121.39(14) 4_545 . ?
C1 C2 C3 121.39(14) . . ?
C4 C3 C4 117.6(3) . 4_545 ?
C4 C3 C2 121.19(16) . . ?
C4 C3 C2 121.19(16) 4_545 . ?
C4 C4 C3 121.21(16) 2_655 . ?
C4 C4 H4 119.4 2_655 . ?
C3 C4 H4 119.4 . . ?
N2 C5 C6 124.1(5) . . ?
N2 C5 H5 118.0 . . ?
C6 C5 H5 118.0 . . ?
C5 C6 C7 119.9(5) . . ?
C5 C6 H6 120.0 . . ?
C7 C6 H6 120.0 . . ?
C6 C7 C9 116.5(4) . . ?
C6 C7 C8 116.8(6) . . ?
C9 C7 C8 126.7(5) . . ?
C8 C8 C7 122.3(9) 3_656 . ?
C7 C9 C10 120.7(4) . . ?
C7 C9 H9 119.6 . . ?
C10 C9 H9 119.6 . . ?
N2 C10 C9 120.9(5) . . ?
N2 C10 H10 119.6 . . ?
C9 C10 H10 119.6 . . ?
C1 N1 Zn1 154.7(2) . . ?
C5 N2 C10 117.9(3) . . ?
C5 N2 Zn1 120.7(3) . . ?
C10 N2 Zn1 121.4(3) . . ?
N1 Zn1 N1 90.04(11) 2 3 ?
N1 Zn1 N1 89.96(11) 2 . ?
N1 Zn1 N1 180.00(12) 3 . ?
N1 Zn1 N1 180.00(14) 2 4 ?
N1 Zn1 N1 89.96(11) 3 4 ?
N1 Zn1 N1 90.04(11) . 4 ?
N1 Zn1 N2 89.43(9) 2 . ?
N1 Zn1 N2 89.43(9) 3 . ?
N1 Zn1 N2 90.57(9) . . ?
N1 Zn1 N2 90.57(9) 4 . ?
N1 Zn1 N2 90.57(9) 2 3 ?
N1 Zn1 N2 90.57(9) 3 3 ?
N1 Zn1 N2 89.43(9) . 3 ?
N1 Zn1 N2 89.43(9) 4 3 ?
N2 Zn1 N2 180.00(19) . 3 ?

_diffrn_measured_fraction_theta_max 0.943
_diffrn_reflns_theta_full        67.50
_diffrn_measured_fraction_theta_full 0.971
_refine_diff_density_max         0.933
_refine_diff_density_min         -0.504
_refine_diff_density_rms         0.061
