####################################################################### 
# 
# This file contains crystal structure data downloaded from the 
# Cambridge Structural Database (CSD) hosted by the Cambridge 
# Crystallographic Data Centre (CCDC).
# 
# Full information about CCDC data access policies and citation 
# guidelines are available at http://www.ccdc.cam.ac.uk/access/V1 
# 
# Audit and citation data items may have been added by the CCDC. 
# Please retain this information to preserve the provenance of 
# this file and to allow appropriate attribution of the data. 
# 
#######################################################################

data_RRznquin
_audit_block_doi                 10.5517/ccvcqvr
_database_code_depnum_ccdc_archive 'CCDC 785845'
loop_
_citation_id
_citation_doi
_citation_year
1 10.1021/cg100568a 2010
_audit_update_record             
;
2010-07-26 deposited with the CCDC.	2024-07-12 downloaded from the CCDC.
;

_audit_creation_method           SHELXL-97
_chemical_name_systematic        
;
?
;
_chemical_name_common            ?
_chemical_melting_point          ?
_chemical_formula_moiety         ?
_chemical_formula_sum            'C33 H25 N7 O Zn'
_chemical_formula_weight         600.97

loop_
_atom_type_symbol
_atom_type_description
_atom_type_scat_dispersion_real
_atom_type_scat_dispersion_imag
_atom_type_scat_source
C C 0.0181 0.0091 'International Tables Vol C Tables 4.2.6.8 and 6.1.1.4'
H H 0.0000 0.0000 'International Tables Vol C Tables 4.2.6.8 and 6.1.1.4'
N N 0.0311 0.0180 'International Tables Vol C Tables 4.2.6.8 and 6.1.1.4'
O O 0.0492 0.0322 'International Tables Vol C Tables 4.2.6.8 and 6.1.1.4'
Zn Zn -1.5491 0.6778 'International Tables Vol C Tables 4.2.6.8 and 6.1.1.4'

_symmetry_cell_setting           monoclinic
_symmetry_space_group_name_H-M   C2/c

loop_
_symmetry_equiv_pos_as_xyz
'x, y, z'
'-x, y, -z+1/2'
'x+1/2, y+1/2, z'
'-x+1/2, y+1/2, -z+1/2'
'-x, -y, -z'
'x, -y, z-1/2'
'-x+1/2, -y+1/2, -z'
'x+1/2, -y+1/2, z-1/2'

_cell_length_a                   23.6373(14)
_cell_length_b                   15.9425(10)
_cell_length_c                   7.3340(4)
_cell_angle_alpha                90.00
_cell_angle_beta                 106.397(5)
_cell_angle_gamma                90.00
_cell_volume                     2651.3(3)
_cell_formula_units_Z            4
_cell_measurement_temperature    130(2)
_cell_measurement_reflns_used    2639
_cell_measurement_theta_min      3.3838
_cell_measurement_theta_max      73.6463

_exptl_crystal_description       rod
_exptl_crystal_colour            green
_exptl_crystal_size_max          0.20
_exptl_crystal_size_mid          0.06
_exptl_crystal_size_min          0.03
_exptl_crystal_density_meas      ?
_exptl_crystal_density_diffrn    1.506
_exptl_crystal_density_method    'not measured'
_exptl_crystal_F_000             1240
_exptl_absorpt_coefficient_mu    1.628
_exptl_absorpt_correction_type   multi-scan
_exptl_absorpt_correction_T_min  0.9480
_exptl_absorpt_correction_T_max  1.0000
_exptl_absorpt_process_details   
;
CrysAlisPro, Oxford Diffraction Ltd.,
Version 1.171.33.52 (release 06-11-2009 CrysAlis171 .NET)
(compiled Nov 6 2009,16:24:50)
Empirical absorption correction using spherical harmonics,
implemented in SCALE3 ABSPACK scaling algorithm.
;

_exptl_special_details           
;
?
;
loop_
_platon_squeeze_void_nr
_platon_squeeze_void_average_x
_platon_squeeze_void_average_y
_platon_squeeze_void_average_z
_platon_squeeze_void_volume
_platon_squeeze_void_count_electrons
_platon_squeeze_void_content
1 0.500 0.000 0.037 217 61 ' '
2 0.000 0.500 -0.091 217 61 ' '
_platon_squeeze_details          
;
The unit cell contains 4 DMF molecules which have been treated as a
diffuse contribution to the overall scattering without specific atom
positions by SQUEEZE/PLATON.
;

_diffrn_ambient_temperature      130(2)
_diffrn_radiation_wavelength     1.54184
_diffrn_radiation_type           CuK\a
_diffrn_radiation_source         'fine-focus sealed tube'
_diffrn_radiation_monochromator  graphite
_diffrn_measurement_device_type  'Xcalibur, Sapphire3'
_diffrn_measurement_method       '/p and /w scans'
_diffrn_detector_area_resol_mean 16.0711
_diffrn_standards_number         ?
_diffrn_standards_interval_count ?
_diffrn_standards_interval_time  ?
_diffrn_standards_decay_%        ?
_diffrn_reflns_number            4810
_diffrn_reflns_av_R_equivalents  0.0273
_diffrn_reflns_av_sigmaI/netI    0.0346
_diffrn_reflns_limit_h_min       -29
_diffrn_reflns_limit_h_max       23
_diffrn_reflns_limit_k_min       -19
_diffrn_reflns_limit_k_max       19
_diffrn_reflns_limit_l_min       -7
_diffrn_reflns_limit_l_max       9
_diffrn_reflns_theta_min         3.39
_diffrn_reflns_theta_max         74.11
_reflns_number_total             2423
_reflns_number_gt                1953
_reflns_threshold_expression     >2sigma(I)

_computing_data_collection       
;
CrysAlisPro, Oxford Diffraction Ltd.,
Version 1.171.33.52 (release 06-11-2009 CrysAlis171 .NET)
(compiled Nov 6 2009,16:24:50)
;
_computing_cell_refinement       
;
CrysAlisPro, Oxford Diffraction Ltd.,
Version 1.171.33.52 (release 06-11-2009 CrysAlis171 .NET)
(compiled Nov 6 2009,16:24:50)
;
_computing_data_reduction        
;
CrysAlisPro, Oxford Diffraction Ltd.,
Version 1.171.33.52 (release 06-11-2009 CrysAlis171 .NET)
(compiled Nov 6 2009,16:24:50)
;
_computing_structure_solution    'SHELXS-97 (Sheldrick, 1997)'
_computing_structure_refinement  'SHELXL-97 (Sheldrick, 1997)'
_computing_molecular_graphics    ?
_computing_publication_material  ?

_refine_special_details          
;
Refinement of F^2^ against ALL reflections. The weighted R-factor wR and
goodness of fit S are based on F^2^, conventional R-factors R are based
on F, with F set to zero for negative F^2^. The threshold expression of
F^2^ > 2sigma(F^2^) is used only for calculating R-factors(gt) etc. and is
not relevant to the choice of reflections for refinement. R-factors based
on F^2^ are statistically about twice as large as those based on F, and R-
factors based on ALL data will be even larger.
;

_refine_ls_structure_factor_coef Fsqd
_refine_ls_matrix_type           full
_refine_ls_weighting_scheme      calc
_refine_ls_weighting_details     
'calc w=1/[\s^2^(Fo^2^)+(0.0798P)^2^+7.3171P] where P=(Fo^2^+2Fc^2^)/3'
_atom_sites_solution_primary     direct
_atom_sites_solution_secondary   difmap
_atom_sites_solution_hydrogens   geom
_refine_ls_hydrogen_treatment    constr
_refine_ls_extinction_method     none
_refine_ls_extinction_coef       ?
_refine_ls_number_reflns         2423
_refine_ls_number_parameters     169
_refine_ls_number_restraints     0
_refine_ls_R_factor_all          0.0712
_refine_ls_R_factor_gt           0.0550
_refine_ls_wR_factor_ref         0.1522
_refine_ls_wR_factor_gt          0.1369
_refine_ls_goodness_of_fit_ref   1.103
_refine_ls_restrained_S_all      1.103
_refine_ls_shift/su_max          0.000
_refine_ls_shift/su_mean         0.000

loop_
_atom_site_label
_atom_site_type_symbol
_atom_site_fract_x
_atom_site_fract_y
_atom_site_fract_z
_atom_site_U_iso_or_equiv
_atom_site_adp_type
_atom_site_occupancy
_atom_site_symmetry_multiplicity
_atom_site_calc_flag
_atom_site_refinement_flags
_atom_site_disorder_assembly
_atom_site_disorder_group
Zn1 Zn 0.2500 0.2500 0.0000 0.0185(2) Uani 1 2 d S . .
N1 N 0.31831(14) 0.2224(2) 0.2512(4) 0.0254(7) Uani 1 1 d . . .
N3 N 0.27037(14) 0.3879(2) 0.0219(4) 0.0241(7) Uani 1 1 d . . .
C1 C 0.34354(15) 0.2198(2) 0.4116(5) 0.0204(7) Uani 1 1 d . . .
C4 C 0.43752(15) 0.2187(2) 0.6784(5) 0.0203(7) Uani 1 1 d . . .
C3. C 0.16371(15) 0.2774(3) 0.2745(5) 0.0235(8) Uani 1 1 d . . .
N2 N 0.19359(13) 0.2724(2) 0.1757(4) 0.0255(7) Uani 1 1 d . . .
C6 C 0.47327(17) 0.2184(3) 0.5571(5) 0.0295(9) Uani 1 1 d . . .
H6 H 0.4559 0.2183 0.4264 0.035 Uiso 1 1 calc R . .
C5 C 0.46594(16) 0.2184(3) 0.8735(5) 0.0288(9) Uani 1 1 d . . .
H5 H 0.4433 0.2183 0.9588 0.035 Uiso 1 1 calc R . .
C2 C 0.37287(15) 0.2181(3) 0.6053(5) 0.0208(7) Uani 1 1 d . . .
C15 C 0.32331(17) 0.4273(2) 0.0426(5) 0.0263(8) Uani 1 1 d . . .
C14 C 0.37501(19) 0.3798(3) 0.0653(6) 0.0329(9) Uani 1 1 d . . .
H14 H 0.3736 0.3216 0.0727 0.039 Uiso 1 1 calc R . .
C10 C 0.32740(19) 0.5149(3) 0.0423(5) 0.0317(9) Uani 1 1 d . . .
C9 C 0.2762(2) 0.5636(3) 0.0238(6) 0.0393(10) Uani 1 1 d . . .
H9 H 0.2779 0.6218 0.0239 0.047 Uiso 1 1 calc R . .
C11 C 0.3829(2) 0.5534(3) 0.0582(6) 0.0421(11) Uani 1 1 d . . .
H11 H 0.3857 0.6116 0.0579 0.051 Uiso 1 1 calc R . .
C7 C 0.2235(2) 0.4354(3) 0.0036(6) 0.0356(9) Uani 1 1 d . . .
H7 H 0.1874 0.4088 -0.0119 0.043 Uiso 1 1 calc R . .
C13 C 0.4277(2) 0.4194(3) 0.0764(7) 0.0418(11) Uani 1 1 d . . .
H13 H 0.4614 0.3877 0.0859 0.050 Uiso 1 1 calc R . .
C12 C 0.4309(2) 0.5066(3) 0.0736(7) 0.0469(12) Uani 1 1 d . . .
H12 H 0.4668 0.5326 0.0824 0.056 Uiso 1 1 calc R . .
C8 C 0.2243(2) 0.5229(3) 0.0060(7) 0.0446(11) Uani 1 1 d . . .
H8 H 0.1899 0.5530 -0.0046 0.054 Uiso 1 1 calc R . .

loop_
_atom_site_aniso_label
_atom_site_aniso_U_11
_atom_site_aniso_U_22
_atom_site_aniso_U_33
_atom_site_aniso_U_23
_atom_site_aniso_U_13
_atom_site_aniso_U_12
Zn1 0.0121(3) 0.0318(4) 0.0112(3) 0.0006(3) 0.0026(2) 0.0009(3)
N1 0.0157(14) 0.0441(19) 0.0154(13) 0.0020(12) 0.0026(12) -0.0007(13)
N3 0.0237(15) 0.0302(17) 0.0182(14) 0.0003(12) 0.0056(12) 0.0007(13)
C1 0.0113(15) 0.0302(17) 0.0216(17) 0.0012(14) 0.0076(14) 0.0021(13)
C4 0.0145(16) 0.0310(18) 0.0148(15) 0.0001(13) 0.0030(13) 0.0002(14)
C3. 0.0114(16) 0.040(2) 0.0150(15) 0.0008(14) -0.0027(14) 0.0005(14)
N2 0.0156(14) 0.045(2) 0.0162(13) -0.0003(12) 0.0057(12) 0.0004(13)
C6 0.0170(18) 0.058(2) 0.0114(14) 0.0013(15) 0.0003(13) -0.0007(17)
C5 0.0166(18) 0.057(2) 0.0143(16) 0.0004(15) 0.0070(14) 0.0019(17)
C2 0.0145(17) 0.0345(18) 0.0130(15) 0.0010(13) 0.0034(13) 0.0011(14)
C15 0.028(2) 0.036(2) 0.0146(15) 0.0002(14) 0.0067(15) -0.0006(16)
C14 0.033(2) 0.037(2) 0.029(2) -0.0019(16) 0.0097(17) -0.0048(17)
C10 0.038(2) 0.038(2) 0.0175(16) 0.0020(15) 0.0063(16) -0.0039(18)
C9 0.050(3) 0.032(2) 0.033(2) -0.0016(18) 0.008(2) 0.001(2)
C11 0.051(3) 0.043(3) 0.033(2) -0.0052(19) 0.012(2) -0.012(2)
C7 0.035(2) 0.036(2) 0.035(2) 0.0002(18) 0.0090(18) 0.0041(19)
C13 0.034(2) 0.052(3) 0.041(2) -0.007(2) 0.014(2) -0.006(2)
C12 0.043(3) 0.056(3) 0.044(3) -0.004(2) 0.016(2) -0.017(2)
C8 0.045(3) 0.042(3) 0.044(3) 0.004(2) 0.008(2) 0.011(2)

_geom_special_details            
;
All esds (except the esd in the dihedral angle between two l.s. planes)
are estimated using the full covariance matrix. The cell esds are taken
into account individually in the estimation of esds in distances, angles
and torsion angles; correlations between esds in cell parameters are only
used when they are defined by crystal symmetry. An approximate (isotropic)
treatment of cell esds is used for estimating esds involving l.s. planes.
;

loop_
_geom_bond_atom_site_label_1
_geom_bond_atom_site_label_2
_geom_bond_distance
_geom_bond_site_symmetry_2
_geom_bond_publ_flag
Zn1 N1 2.125(3) . ?
Zn1 N1 2.125(3) 7 ?
Zn1 N2 2.130(3) 7 ?
Zn1 N2 2.130(3) . ?
Zn1 N3 2.246(3) 7 ?
Zn1 N3 2.246(3) . ?
N1 C1 1.160(5) . ?
N3 C7 1.317(5) . ?
N3 C15 1.370(5) . ?
C1 C2 1.394(5) . ?
C4 C6 1.389(5) . ?
C4 C5 1.399(5) . ?
C4 C2 1.470(5) . ?
C3. N2 1.148(5) . ?
C3. C2 1.400(5) 7_556 ?
C6 C5 1.382(5) 2_656 ?
C6 H6 0.9300 . ?
C5 C6 1.382(5) 2_656 ?
C5 H5 0.9300 . ?
C2 C3. 1.400(5) 7_556 ?
C15 C10 1.400(6) . ?
C15 C14 1.407(6) . ?
C14 C13 1.378(6) . ?
C14 H14 0.9300 . ?
C10 C9 1.411(6) . ?
C10 C11 1.422(6) . ?
C9 C8 1.360(7) . ?
C9 H9 0.9300 . ?
C11 C12 1.335(7) . ?
C11 H11 0.9300 . ?
C7 C8 1.395(7) . ?
C7 H7 0.9300 . ?
C13 C12 1.393(7) . ?
C13 H13 0.9300 . ?
C12 H12 0.9300 . ?
C8 H8 0.9300 . ?

loop_
_geom_angle_atom_site_label_1
_geom_angle_atom_site_label_2
_geom_angle_atom_site_label_3
_geom_angle
_geom_angle_site_symmetry_1
_geom_angle_site_symmetry_3
_geom_angle_publ_flag
N1 Zn1 N1 180.00(15) . 7 ?
N1 Zn1 N2 92.16(12) . 7 ?
N1 Zn1 N2 87.84(12) 7 7 ?
N1 Zn1 N2 87.84(12) . . ?
N1 Zn1 N2 92.16(12) 7 . ?
N2 Zn1 N2 180.00(10) 7 . ?
N1 Zn1 N3 87.41(12) . 7 ?
N1 Zn1 N3 92.59(12) 7 7 ?
N2 Zn1 N3 87.18(12) 7 7 ?
N2 Zn1 N3 92.82(12) . 7 ?
N1 Zn1 N3 92.59(12) . . ?
N1 Zn1 N3 87.41(12) 7 . ?
N2 Zn1 N3 92.82(12) 7 . ?
N2 Zn1 N3 87.18(12) . . ?
N3 Zn1 N3 180.00(15) 7 . ?
C1 N1 Zn1 159.1(3) . . ?
C7 N3 C15 117.6(4) . . ?
C7 N3 Zn1 113.5(3) . . ?
C15 N3 Zn1 128.9(3) . . ?
N1 C1 C2 178.6(4) . . ?
C6 C4 C5 116.9(3) . . ?
C6 C4 C2 121.6(3) . . ?
C5 C4 C2 121.5(3) . . ?
N2 C3. C2 179.0(4) . 7_556 ?
C3. N2 Zn1 174.2(3) . . ?
C5 C6 C4 121.4(3) 2_656 . ?
C5 C6 H6 119.3 2_656 . ?
C4 C6 H6 119.3 . . ?
C6 C5 C4 121.7(3) 2_656 . ?
C6 C5 H5 119.1 2_656 . ?
C4 C5 H5 119.1 . . ?
C1 C2 C3. 115.0(3) . 7_556 ?
C1 C2 C4 122.5(3) . . ?
C3. C2 C4 122.3(3) 7_556 . ?
N3 C15 C10 121.2(4) . . ?
N3 C15 C14 120.1(4) . . ?
C10 C15 C14 118.6(4) . . ?
C13 C14 C15 120.0(4) . . ?
C13 C14 H14 120.0 . . ?
C15 C14 H14 120.0 . . ?
C15 C10 C9 119.4(4) . . ?
C15 C10 C11 119.6(4) . . ?
C9 C10 C11 121.0(4) . . ?
C8 C9 C10 118.2(4) . . ?
C8 C9 H9 120.9 . . ?
C10 C9 H9 120.9 . . ?
C12 C11 C10 120.5(5) . . ?
C12 C11 H11 119.8 . . ?
C10 C11 H11 119.8 . . ?
N3 C7 C8 124.5(5) . . ?
N3 C7 H7 117.8 . . ?
C8 C7 H7 117.8 . . ?
C14 C13 C12 120.6(5) . . ?
C14 C13 H13 119.7 . . ?
C12 C13 H13 119.7 . . ?
C11 C12 C13 120.7(5) . . ?
C11 C12 H12 119.7 . . ?
C13 C12 H12 119.7 . . ?
C9 C8 C7 119.1(5) . . ?
C9 C8 H8 120.4 . . ?
C7 C8 H8 120.4 . . ?

_diffrn_measured_fraction_theta_max 0.899
_diffrn_reflns_theta_full        67.50
_diffrn_measured_fraction_theta_full 0.919
_refine_diff_density_max         0.753
_refine_diff_density_min         -0.434
_refine_diff_density_rms         0.096
