####################################################################### 
# 
# This file contains crystal structure data downloaded from the 
# Cambridge Structural Database (CSD) hosted by the Cambridge 
# Crystallographic Data Centre (CCDC).
# 
# Full information about CCDC data access policies and citation 
# guidelines are available at http://www.ccdc.cam.ac.uk/access/V1 
# 
# Audit and citation data items may have been added by the CCDC. 
# Please retain this information to preserve the provenance of 
# this file and to allow appropriate attribution of the data. 
# 
#######################################################################

data_rwe76bccen
_audit_block_doi                 10.5517/ccvcqyv
_database_code_depnum_ccdc_archive 'CCDC 785848'
loop_
_citation_id
_citation_doi
_citation_year
1 10.1021/cg100568a 2010
_audit_update_record             
;
2010-07-26 deposited with the CCDC.	2024-07-12 downloaded from the CCDC.
;

_audit_creation_method           SHELXL-97
_chemical_name_systematic        
;
?
;
_chemical_name_common            ?
_chemical_melting_point          ?
_chemical_formula_moiety         ?
_chemical_formula_sum            'C24 H22 Mn N6 O2'
_chemical_formula_weight         481.42

loop_
_atom_type_symbol
_atom_type_description
_atom_type_scat_dispersion_real
_atom_type_scat_dispersion_imag
_atom_type_scat_source
C C 0.0181 0.0091 'International Tables Vol C Tables 4.2.6.8 and 6.1.1.4'
H H 0.0000 0.0000 'International Tables Vol C Tables 4.2.6.8 and 6.1.1.4'
N N 0.0311 0.0180 'International Tables Vol C Tables 4.2.6.8 and 6.1.1.4'
O O 0.0492 0.0322 'International Tables Vol C Tables 4.2.6.8 and 6.1.1.4'
Mn Mn -0.5299 2.8052 'International Tables Vol C Tables 4.2.6.8 and 6.1.1.4'

_symmetry_cell_setting           monoclinic
_symmetry_space_group_name_H-M   C2/m

loop_
_symmetry_equiv_pos_as_xyz
'x, y, z'
'-x, y, -z'
'x+1/2, y+1/2, z'
'-x+1/2, y+1/2, -z'
'-x, -y, -z'
'x, -y, z'
'-x+1/2, -y+1/2, -z'
'x+1/2, -y+1/2, z'

_cell_length_a                   15.725(3)
_cell_length_b                   7.4496(8)
_cell_length_c                   11.3104(16)
_cell_angle_alpha                90.00
_cell_angle_beta                 108.603(17)
_cell_angle_gamma                90.00
_cell_volume                     1255.7(3)
_cell_formula_units_Z            2
_cell_measurement_temperature    130(2)
_cell_measurement_reflns_used    776
_cell_measurement_theta_min      4.1179
_cell_measurement_theta_max      66.9763

_exptl_crystal_description       plate
_exptl_crystal_colour            purple
_exptl_crystal_size_max          0.11
_exptl_crystal_size_mid          0.10
_exptl_crystal_size_min          0.03
_exptl_crystal_density_meas      ?
_exptl_crystal_density_diffrn    1.273
_exptl_crystal_density_method    'not measured'
_exptl_crystal_F_000             498
_exptl_absorpt_coefficient_mu    4.526
_exptl_absorpt_correction_type   multi-scan
_exptl_absorpt_correction_T_min  0.9252
_exptl_absorpt_correction_T_max  1.0000
_exptl_absorpt_process_details   
;
CrysAlisPro, Oxford Diffraction Ltd.,
Version 1.171.33.52 (release 06-11-2009 CrysAlis171 .NET)
(compiled Nov 6 2009,16:24:50)
Empirical absorption correction using spherical harmonics,
implemented in SCALE3 ABSPACK scaling algorithm.
;


_exptl_special_details           
;
?
;

_diffrn_ambient_temperature      130(2)
_diffrn_radiation_wavelength     1.54184
_diffrn_radiation_type           CuK\a
_diffrn_radiation_source         'fine-focus sealed tube'
_diffrn_radiation_monochromator  graphite
_diffrn_measurement_device_type  'Xcalibur, Sapphire3'
_diffrn_measurement_method       '\w scans'
_diffrn_detector_area_resol_mean 16.0711
_diffrn_standards_number         ?
_diffrn_standards_interval_count ?
_diffrn_standards_interval_time  ?
_diffrn_standards_decay_%        ?
_diffrn_reflns_number            2037
_diffrn_reflns_av_R_equivalents  0.0401
_diffrn_reflns_av_sigmaI/netI    0.0884
_diffrn_reflns_limit_h_min       -18
_diffrn_reflns_limit_h_max       15
_diffrn_reflns_limit_k_min       -8
_diffrn_reflns_limit_k_max       8
_diffrn_reflns_limit_l_min       -12
_diffrn_reflns_limit_l_max       13
_diffrn_reflns_theta_min         4.12
_diffrn_reflns_theta_max         67.14
_reflns_number_total             1199
_reflns_number_gt                731
_reflns_threshold_expression     >2sigma(I)

_computing_data_collection       
;
CrysAlisPro, Oxford Diffraction Ltd.,
Version 1.171.33.52 (release 06-11-2009 CrysAlis171 .NET)
(compiled Nov 6 2009,16:24:50)
;
_computing_cell_refinement       
;
CrysAlisPro, Oxford Diffraction Ltd.,
Version 1.171.33.52 (release 06-11-2009 CrysAlis171 .NET)
(compiled Nov 6 2009,16:24:50)
;
_computing_data_reduction        
;
CrysAlisPro, Oxford Diffraction Ltd.,
Version 1.171.33.52 (release 06-11-2009 CrysAlis171 .NET)
(compiled Nov 6 2009,16:24:50)
;
_computing_structure_solution    'SHELXS-97 (Sheldrick, 1997)'
_computing_structure_refinement  'SHELXL-97 (Sheldrick, 1997)'
_computing_molecular_graphics    ?
_computing_publication_material  ?


_refine_special_details          
;
Refinement of F^2^ against ALL reflections. The weighted R-factor wR and
goodness of fit S are based on F^2^, conventional R-factors R are based
on F, with F set to zero for negative F^2^. The threshold expression of
F^2^ > 2sigma(F^2^) is used only for calculating R-factors(gt) etc. and is
not relevant to the choice of reflections for refinement. R-factors based
on F^2^ are statistically about twice as large as those based on F, and R-
factors based on ALL data will be even larger.
;
loop_
_platon_squeeze_void_nr
_platon_squeeze_void_average_x
_platon_squeeze_void_average_y
_platon_squeeze_void_average_z
_platon_squeeze_void_volume
_platon_squeeze_void_count_electrons
_platon_squeeze_void_content
1 0.250 -0.039 0.500 185 38 ' '
2 0.750 -0.043 0.500 185 38 ' '
_platon_squeeze_details          
;
The unit cell contains four methanol molecules which have been treated
as a diffuse contribution to the overall scattering without specific
atom position by SQUEEZE/PLATON.
;

_refine_ls_structure_factor_coef Fsqd
_refine_ls_matrix_type           full
_refine_ls_weighting_scheme      calc
_refine_ls_weighting_details     
'calc w=1/[\s^2^(Fo^2^)+(0.1107P)^2^+0.0000P] where P=(Fo^2^+2Fc^2^)/3'
_atom_sites_solution_primary     direct
_atom_sites_solution_secondary   difmap
_atom_sites_solution_hydrogens   geom
_refine_ls_hydrogen_treatment    constr
_refine_ls_extinction_method     none
_refine_ls_extinction_coef       ?
_refine_ls_number_reflns         1199
_refine_ls_number_parameters     80
_refine_ls_number_restraints     0
_refine_ls_R_factor_all          0.0922
_refine_ls_R_factor_gt           0.0688
_refine_ls_wR_factor_ref         0.1750
_refine_ls_wR_factor_gt          0.1651
_refine_ls_goodness_of_fit_ref   0.871
_refine_ls_restrained_S_all      0.871
_refine_ls_shift/su_max          0.000
_refine_ls_shift/su_mean         0.000

loop_
_atom_site_label
_atom_site_type_symbol
_atom_site_fract_x
_atom_site_fract_y
_atom_site_fract_z
_atom_site_U_iso_or_equiv
_atom_site_adp_type
_atom_site_occupancy
_atom_site_symmetry_multiplicity
_atom_site_calc_flag
_atom_site_refinement_flags
_atom_site_disorder_assembly
_atom_site_disorder_group
Mn1 Mn 0.0000 0.0000 0.0000 0.0368(5) Uani 1 4 d S . .
N2 N 0.1422(4) 0.0000 -0.0072(5) 0.0420(14) Uani 1 2 d S . .
N1 N -0.0381(3) -0.2096(5) -0.1450(3) 0.0466(11) Uani 1 1 d . . .
C3 C -0.0167(5) -0.5000 -0.3835(6) 0.0409(16) Uani 1 2 d S . .
C9 C 0.1615(5) 0.0000 -0.1123(7) 0.056(2) Uani 1 2 d S . .
H9 H 0.1151 0.0000 -0.1878 0.067 Uiso 1 2 calc SR . .
C2 C -0.0328(5) -0.5000 -0.2631(5) 0.0407(16) Uani 1 2 d S . .
C7 C 0.3172(6) 0.0000 -0.0056(8) 0.057(2) Uani 1 2 d S . .
H7 H 0.3764 0.0000 -0.0051 0.069 Uiso 1 2 calc SR . .
C4 C -0.0080(4) -0.3421(6) -0.4436(4) 0.0634(16) Uani 1 1 d . . .
H4 H -0.0133 -0.2329 -0.4067 0.076 Uiso 1 1 calc R . .
C8 C 0.2503(6) 0.0000 -0.1126(8) 0.067(2) Uani 1 2 d S . .
H8 H 0.2624 0.0000 -0.1879 0.081 Uiso 1 2 calc SR . .
C1 C -0.0367(3) -0.3425(6) -0.1992(4) 0.0382(11) Uani 1 1 d . . .
C6 C 0.2978(6) 0.0000 0.1046(9) 0.071(2) Uani 1 2 d S . .
H6 H 0.3433 0.0000 0.1811 0.086 Uiso 1 2 calc SR . .
C5 C 0.2085(5) 0.0000 0.0978(8) 0.065(2) Uani 1 2 d S . .
H5 H 0.1948 0.0000 0.1720 0.077 Uiso 1 2 calc SR . .

loop_
_atom_site_aniso_label
_atom_site_aniso_U_11
_atom_site_aniso_U_22
_atom_site_aniso_U_33
_atom_site_aniso_U_23
_atom_site_aniso_U_13
_atom_site_aniso_U_12
Mn1 0.0577(11) 0.0206(8) 0.0397(9) 0.000 0.0263(8) 0.000
N2 0.075(4) 0.016(2) 0.042(3) 0.000 0.028(3) 0.000
N1 0.080(3) 0.030(2) 0.041(2) -0.0007(17) 0.035(2) 0.0004(19)
C3 0.076(5) 0.018(3) 0.037(3) 0.000 0.029(3) 0.000
C9 0.063(5) 0.058(5) 0.058(4) 0.000 0.034(4) 0.000
C2 0.074(5) 0.021(3) 0.034(3) 0.000 0.028(3) 0.000
C7 0.069(6) 0.041(4) 0.072(5) 0.000 0.035(5) 0.000
C4 0.137(5) 0.019(2) 0.051(3) 0.000(2) 0.054(3) 0.000(3)
C8 0.065(6) 0.079(6) 0.073(6) 0.000 0.044(5) 0.000
C1 0.059(3) 0.030(2) 0.033(2) 0.0037(19) 0.025(2) -0.001(2)
C6 0.046(5) 0.083(7) 0.083(6) 0.000 0.018(4) 0.000
C5 0.048(5) 0.074(6) 0.068(5) 0.000 0.013(4) 0.000

_geom_special_details            
;
All esds (except the esd in the dihedral angle between two l.s. planes)
are estimated using the full covariance matrix. The cell esds are taken
into account individually in the estimation of esds in distances, angles
and torsion angles; correlations between esds in cell parameters are only
used when they are defined by crystal symmetry. An approximate (isotropic)
treatment of cell esds is used for estimating esds involving l.s. planes.
;

loop_
_geom_bond_atom_site_label_1
_geom_bond_atom_site_label_2
_geom_bond_distance
_geom_bond_site_symmetry_2
_geom_bond_publ_flag
Mn1 N1 2.204(4) . ?
Mn1 N1 2.204(4) 5 ?
Mn1 N1 2.204(4) 6 ?
Mn1 N1 2.204(4) 2 ?
Mn1 N2 2.263(6) . ?
Mn1 N2 2.263(6) 5 ?
N2 C5 1.306(9) . ?
N2 C9 1.317(8) . ?
N1 C1 1.168(5) . ?
C3 C4 1.387(5) 6_545 ?
C3 C4 1.387(5) . ?
C3 C2 1.462(8) . ?
C9 C8 1.397(10) . ?
C2 C1 1.390(5) . ?
C2 C1 1.390(5) 6_545 ?
C7 C8 1.327(11) . ?
C7 C6 1.374(11) . ?
C4 C4 1.377(8) 2_554 ?
C6 C5 1.382(11) . ?

loop_
_geom_angle_atom_site_label_1
_geom_angle_atom_site_label_2
_geom_angle_atom_site_label_3
_geom_angle
_geom_angle_site_symmetry_1
_geom_angle_site_symmetry_3
_geom_angle_publ_flag
N1 Mn1 N1 180.0(2) . 5 ?
N1 Mn1 N1 90.21(19) . 6 ?
N1 Mn1 N1 89.79(19) 5 6 ?
N1 Mn1 N1 89.79(19) . 2 ?
N1 Mn1 N1 90.21(19) 5 2 ?
N1 Mn1 N1 180.0(4) 6 2 ?
N1 Mn1 N2 90.59(14) . . ?
N1 Mn1 N2 89.41(14) 5 . ?
N1 Mn1 N2 90.59(14) 6 . ?
N1 Mn1 N2 89.41(14) 2 . ?
N1 Mn1 N2 89.41(14) . 5 ?
N1 Mn1 N2 90.59(14) 5 5 ?
N1 Mn1 N2 89.41(14) 6 5 ?
N1 Mn1 N2 90.59(14) 2 5 ?
N2 Mn1 N2 180.0(3) . 5 ?
C5 N2 C9 118.3(7) . . ?
C5 N2 Mn1 118.6(5) . . ?
C9 N2 Mn1 123.2(5) . . ?
C1 N1 Mn1 160.9(4) . . ?
C4 C3 C4 116.0(5) 6_545 . ?
C4 C3 C2 122.0(3) 6_545 . ?
C4 C3 C2 122.0(3) . . ?
N2 C9 C8 121.4(8) . . ?
C1 C2 C1 115.1(5) . 6_545 ?
C1 C2 C3 122.3(2) . . ?
C1 C2 C3 122.3(2) 6_545 . ?
C8 C7 C6 119.2(8) . . ?
C4 C4 C3 122.0(3) 2_554 . ?
C7 C8 C9 120.0(7) . . ?
N1 C1 C2 178.5(6) . . ?
C7 C6 C5 117.7(8) . . ?
N2 C5 C6 123.5(8) . . ?

_diffrn_measured_fraction_theta_max 0.981
_diffrn_reflns_theta_full        67.14
_diffrn_measured_fraction_theta_full 0.980
_refine_diff_density_max         1.077
_refine_diff_density_min         -0.435
_refine_diff_density_rms         0.120
