####################################################################### 
# 
# This file contains crystal structure data downloaded from the 
# Cambridge Structural Database (CSD) hosted by the Cambridge 
# Crystallographic Data Centre (CCDC).
# 
# Full information about CCDC data access policies and citation 
# guidelines are available at http://www.ccdc.cam.ac.uk/access/V1 
# 
# Audit and citation data items may have been added by the CCDC. 
# Please retain this information to preserve the provenance of 
# this file and to allow appropriate attribution of the data. 
# 
#######################################################################

data_RRznpyr
_audit_block_doi                 10.5517/ccvcqtq
_database_code_depnum_ccdc_archive 'CCDC 785844'
loop_
_citation_id
_citation_doi
_citation_year
1 10.1021/cg100568a 2010
_audit_update_record             
;
2010-07-26 deposited with the CCDC.	2024-07-12 downloaded from the CCDC.
;

_audit_creation_method           SHELXL-97
_chemical_name_systematic        
;
?
;
_chemical_name_common            ?
_chemical_melting_point          ?
_chemical_formula_moiety         ?
_chemical_formula_sum            'C22.50 H16 N6 O0.50 Zn'
_chemical_formula_weight         443.78

loop_
_atom_type_symbol
_atom_type_description
_atom_type_scat_dispersion_real
_atom_type_scat_dispersion_imag
_atom_type_scat_source
C C 0.0181 0.0091 'International Tables Vol C Tables 4.2.6.8 and 6.1.1.4'
H H 0.0000 0.0000 'International Tables Vol C Tables 4.2.6.8 and 6.1.1.4'
N N 0.0311 0.0180 'International Tables Vol C Tables 4.2.6.8 and 6.1.1.4'
O O 0.0492 0.0322 'International Tables Vol C Tables 4.2.6.8 and 6.1.1.4'
Zn Zn -1.5491 0.6778 'International Tables Vol C Tables 4.2.6.8 and 6.1.1.4'

_symmetry_cell_setting           monoclinic
_symmetry_space_group_name_H-M   C2/m

loop_
_symmetry_equiv_pos_as_xyz
'x, y, z'
'-x, y, -z'
'x+1/2, y+1/2, z'
'-x+1/2, y+1/2, -z'
'-x, -y, -z'
'x, -y, z'
'-x+1/2, -y+1/2, -z'
'x+1/2, -y+1/2, z'

_cell_length_a                   15.5974(12)
_cell_length_b                   7.3732(6)
_cell_length_c                   11.2273(16)
_cell_angle_alpha                90.00
_cell_angle_beta                 109.061(10)
_cell_angle_gamma                90.00
_cell_volume                     1220.4(2)
_cell_formula_units_Z            2
_cell_measurement_temperature    130(2)
_cell_measurement_reflns_used    1189
_cell_measurement_theta_min      3.0042
_cell_measurement_theta_max      72.8800

_exptl_crystal_description       plate
_exptl_crystal_colour            colourless
_exptl_crystal_size_max          0.07
_exptl_crystal_size_mid          0.03
_exptl_crystal_size_min          0.03
_exptl_crystal_density_meas      ?
_exptl_crystal_density_diffrn    1.208
_exptl_crystal_density_method    'not measured'
_exptl_crystal_F_000             454
_exptl_absorpt_coefficient_mu    1.559
_exptl_absorpt_correction_type   multi-scan
_exptl_absorpt_correction_T_min  0.8571
_exptl_absorpt_correction_T_max  1.0000
_exptl_absorpt_process_details   
;
CrysAlis RED, Oxford Diffraction Ltd.,
Version 1.171.32.15 (release 10-01-2008 CrysAlis171 .NET)
(compiled Jan 10 2008,16:37:18)
Empirical absorption correction using spherical harmonics,
implemented in SCALE3 ABSPACK scaling algorithm.
;

_exptl_special_details           
;
?
;

_diffrn_ambient_temperature      130(2)
_diffrn_radiation_wavelength     1.54184
_diffrn_radiation_type           CuK\a
_diffrn_radiation_source         'fine-focus sealed tube'
_diffrn_radiation_monochromator  graphite
_diffrn_measurement_device_type  'Xcalibur, Sapphire3'
_diffrn_measurement_method       '\w scans'
_diffrn_detector_area_resol_mean 16.0711
_diffrn_standards_number         ?
_diffrn_standards_interval_count ?
_diffrn_standards_interval_time  ?
_diffrn_standards_decay_%        ?
_diffrn_reflns_number            3715
_diffrn_reflns_av_R_equivalents  0.0000
_diffrn_reflns_av_sigmaI/netI    0.0498
_diffrn_reflns_limit_h_min       -19
_diffrn_reflns_limit_h_max       19
_diffrn_reflns_limit_k_min       -9
_diffrn_reflns_limit_k_max       9
_diffrn_reflns_limit_l_min       -13
_diffrn_reflns_limit_l_max       13
_diffrn_reflns_theta_min         4.17
_diffrn_reflns_theta_max         72.70
_reflns_number_total             3715
_reflns_number_gt                3249
_reflns_threshold_expression     >2sigma(I)

_computing_data_collection       
;
CrysAlisPro, Oxford Diffraction Ltd.,
Version 1.171.33.52 (release 06-11-2009 CrysAlis171 .NET)
(compiled Nov 6 2009,16:24:50)
;
_computing_cell_refinement       
;
CrysAlisPro, Oxford Diffraction Ltd.,
Version 1.171.33.52 (release 06-11-2009 CrysAlis171 .NET)
(compiled Nov 6 2009,16:24:50)
;
_computing_data_reduction        
;
CrysAlisPro, Oxford Diffraction Ltd.,
Version 1.171.33.52 (release 06-11-2009 CrysAlis171 .NET)
(compiled Nov 6 2009,16:24:50)
;
_computing_structure_solution    'SHELXS-97 (Sheldrick, 1997)'
_computing_structure_refinement  'SHELXL-97 (Sheldrick, 1997)'
_computing_molecular_graphics    ?
_computing_publication_material  ?

_refine_special_details          
;
Crystals of this compound exhibited twinning. Using the CrysAlis software,
a data set based upon the twin components was produced and used for the
refinement.
Refinement of F^2^ against ALL reflections. The weighted R-factor wR and
goodness of fit S are based on F^2^, conventional R-factors R are based
on F, with F set to zero for negative F^2^. The threshold expression of
F^2^ > 2sigma(F^2^) is used only for calculating R-factors(gt) etc. and is
not relevant to the choice of reflections for refinement. R-factors based
on F^2^ are statistically about twice as large as those based on F, and R-
factors based on ALL data will be even larger.
;

_refine_ls_structure_factor_coef Fsqd
_refine_ls_matrix_type           full
_refine_ls_weighting_scheme      calc
_refine_ls_weighting_details     
'calc w=1/[\s^2^(Fo^2^)+(0.1217P)^2^+0.0000P] where P=(Fo^2^+2Fc^2^)/3'
_atom_sites_solution_primary     direct
_atom_sites_solution_secondary   difmap
_atom_sites_solution_hydrogens   geom
_refine_ls_hydrogen_treatment    constr
_refine_ls_extinction_method     none
_refine_ls_extinction_coef       ?
_refine_ls_number_reflns         3715
_refine_ls_number_parameters     86
_refine_ls_number_restraints     0
_refine_ls_R_factor_all          0.0788
_refine_ls_R_factor_gt           0.0699
_refine_ls_wR_factor_ref         0.1879
_refine_ls_wR_factor_gt          0.1816
_refine_ls_goodness_of_fit_ref   1.105
_refine_ls_restrained_S_all      1.105
_refine_ls_shift/su_max          0.000
_refine_ls_shift/su_mean         0.000

loop_
_atom_site_label
_atom_site_type_symbol
_atom_site_fract_x
_atom_site_fract_y
_atom_site_fract_z
_atom_site_U_iso_or_equiv
_atom_site_adp_type
_atom_site_occupancy
_atom_site_symmetry_multiplicity
_atom_site_calc_flag
_atom_site_refinement_flags
_atom_site_disorder_assembly
_atom_site_disorder_group
C7 C 0.3136(4) 0.0000 0.9933(8) 0.0701(17) Uani 1 2 d S . .
H7 H 0.3728 0.0000 0.9917 0.084 Uiso 1 2 calc SR . .
O1 O 0.198(2) 0.0000 0.570(3) 0.146(10) Uiso 0.25 2 d SP . .
C10 C 0.230(2) 0.0000 0.479(4) 0.112(12) Uiso 0.25 2 d SP . .
Zn1 Zn 0.0000 0.0000 1.0000 0.0258(2) Uani 1 4 d S . .
N1 N 0.0392(2) 0.2065(3) 1.1445(2) 0.0432(6) Uani 1 1 d . . .
C1 C 0.0364(2) 0.3398(4) 1.1972(3) 0.0367(7) Uani 1 1 d . . .
C2 C 0.0326(3) 0.5000 1.2601(4) 0.0392(10) Uani 1 2 d S . .
C3 C 0.0168(3) 0.5000 1.3837(4) 0.0392(10) Uani 1 2 d S . .
C5 C 0.1535(4) 0.0000 0.8852(5) 0.0513(13) Uani 1 2 d S . .
H5 H 0.1054 0.0000 0.8098 0.062 Uiso 1 2 calc SR . .
N2 N 0.1352(3) 0.0000 0.9908(4) 0.0435(9) Uani 1 2 d S . .
C4 C 0.0071(3) 0.3387(4) 1.4434(3) 0.0601(11) Uani 1 1 d . . .
H4 H 0.0104 0.2286 1.4047 0.072 Uiso 1 1 calc R . .
C9 C 0.2056(4) 0.0000 1.0986(6) 0.0596(14) Uani 1 2 d S . .
H9 H 0.1930 0.0000 1.1741 0.071 Uiso 1 2 calc SR . .
C8 C 0.2976(5) 0.0000 1.1047(6) 0.0623(14) Uani 1 2 d S . .
H8 H 0.3446 0.0000 1.1812 0.075 Uiso 1 2 calc SR . .
C6 C 0.2404(5) 0.0000 0.8802(6) 0.0704(16) Uani 1 2 d S . .
H6 H 0.2506 0.0000 0.8031 0.084 Uiso 1 2 calc SR . .

loop_
_atom_site_aniso_label
_atom_site_aniso_U_11
_atom_site_aniso_U_22
_atom_site_aniso_U_33
_atom_site_aniso_U_23
_atom_site_aniso_U_13
_atom_site_aniso_U_12
C7 0.070(4) 0.055(3) 0.105(5) 0.000 0.056(4) 0.000
Zn1 0.0455(4) 0.0133(3) 0.0268(4) 0.000 0.0229(3) 0.000
N1 0.0745(18) 0.0260(11) 0.0401(14) -0.0025(10) 0.0336(13) -0.0036(13)
C1 0.0577(19) 0.0286(13) 0.0320(14) 0.0042(11) 0.0259(13) 0.0004(13)
C2 0.066(3) 0.0238(18) 0.034(2) 0.000 0.025(2) 0.000
C3 0.069(3) 0.0237(18) 0.032(2) 0.000 0.025(2) 0.000
C5 0.064(3) 0.045(3) 0.058(3) 0.000 0.036(3) 0.000
N2 0.061(2) 0.0274(16) 0.053(2) 0.000 0.034(2) 0.000
C4 0.128(3) 0.0208(14) 0.049(2) -0.0007(13) 0.053(2) 0.0040(18)
C9 0.075(4) 0.051(3) 0.062(4) 0.000 0.035(3) 0.000
C8 0.057(3) 0.063(3) 0.071(4) 0.000 0.027(3) 0.000
C6 0.082(4) 0.070(4) 0.079(4) 0.000 0.053(4) 0.000

_geom_special_details            
;
All esds (except the esd in the dihedral angle between two l.s. planes)
are estimated using the full covariance matrix. The cell esds are taken
into account individually in the estimation of esds in distances, angles
and torsion angles; correlations between esds in cell parameters are only
used when they are defined by crystal symmetry. An approximate (isotropic)
treatment of cell esds is used for estimating esds involving l.s. planes.
;

loop_
_geom_bond_atom_site_label_1
_geom_bond_atom_site_label_2
_geom_bond_distance
_geom_bond_site_symmetry_2
_geom_bond_publ_flag
C7 C8 1.353(9) . ?
C7 C6 1.403(10) . ?
C7 H7 0.9300 . ?
O1 C10 1.27(4) . ?
Zn1 N2 2.145(3) . ?
Zn1 N2 2.145(3) 5_557 ?
Zn1 N1 2.163(2) 5_557 ?
Zn1 N1 2.163(2) . ?
Zn1 N1 2.163(2) 2_557 ?
Zn1 N1 2.163(2) 6 ?
N1 C1 1.155(4) . ?
C1 C2 1.387(3) . ?
C2 C1 1.387(3) 6_565 ?
C2 C3 1.487(5) . ?
C3 C4 1.398(4) 6_565 ?
C3 C4 1.398(4) . ?
C5 N2 1.307(6) . ?
C5 C6 1.375(8) . ?
C5 H5 0.9300 . ?
N2 C9 1.343(8) . ?
C4 C4 1.359(6) 2_558 ?
C4 H4 0.9300 . ?
C9 C8 1.414(8) . ?
C9 H9 0.9300 . ?
C8 H8 0.9300 . ?
C6 H6 0.9300 . ?

loop_
_geom_angle_atom_site_label_1
_geom_angle_atom_site_label_2
_geom_angle_atom_site_label_3
_geom_angle
_geom_angle_site_symmetry_1
_geom_angle_site_symmetry_3
_geom_angle_publ_flag
C8 C7 C6 119.7(5) . . ?
C8 C7 H7 120.2 . . ?
C6 C7 H7 120.2 . . ?
N2 Zn1 N2 180.000(1) . 5_557 ?
N2 Zn1 N1 90.32(11) . 5_557 ?
N2 Zn1 N1 89.68(11) 5_557 5_557 ?
N2 Zn1 N1 89.68(11) . . ?
N2 Zn1 N1 90.32(11) 5_557 . ?
N1 Zn1 N1 180.0 5_557 . ?
N2 Zn1 N1 90.32(11) . 2_557 ?
N2 Zn1 N1 89.68(11) 5_557 2_557 ?
N1 Zn1 N1 89.49(13) 5_557 2_557 ?
N1 Zn1 N1 90.51(13) . 2_557 ?
N2 Zn1 N1 89.68(11) . 6 ?
N2 Zn1 N1 90.32(11) 5_557 6 ?
N1 Zn1 N1 90.51(13) 5_557 6 ?
N1 Zn1 N1 89.49(13) . 6 ?
N1 Zn1 N1 180.000(1) 2_557 6 ?
C1 N1 Zn1 159.1(3) . . ?
N1 C1 C2 179.7(5) . . ?
C1 C2 C1 116.7(3) . 6_565 ?
C1 C2 C3 121.53(17) . . ?
C1 C2 C3 121.53(17) 6_565 . ?
C4 C3 C4 116.7(4) 6_565 . ?
C4 C3 C2 121.65(18) 6_565 . ?
C4 C3 C2 121.65(18) . . ?
N2 C5 C6 123.2(6) . . ?
N2 C5 H5 118.4 . . ?
C6 C5 H5 118.4 . . ?
C5 N2 C9 117.5(4) . . ?
C5 N2 Zn1 123.6(4) . . ?
C9 N2 Zn1 118.9(3) . . ?
C4 C4 C3 121.64(19) 2_558 . ?
C4 C4 H4 119.2 2_558 . ?
C3 C4 H4 119.2 . . ?
N2 C9 C8 124.1(5) . . ?
N2 C9 H9 117.9 . . ?
C8 C9 H9 117.9 . . ?
C7 C8 C9 116.5(6) . . ?
C7 C8 H8 121.7 . . ?
C9 C8 H8 121.7 . . ?
C5 C6 C7 119.0(6) . . ?
C5 C6 H6 120.5 . . ?
C7 C6 H6 120.5 . . ?

_diffrn_measured_fraction_theta_max 0.989
_diffrn_reflns_theta_full        72.70
_diffrn_measured_fraction_theta_full 0.989
_refine_diff_density_max         0.922
_refine_diff_density_min         -0.567
_refine_diff_density_rms         0.140
