####################################################################### 
# 
# This file contains crystal structure data downloaded from the 
# Cambridge Structural Database (CSD) hosted by the Cambridge 
# Crystallographic Data Centre (CCDC).
# 
# Full information about CCDC data access policies and citation 
# guidelines are available at http://www.ccdc.cam.ac.uk/access/V1 
# 
# Audit and citation data items may have been added by the CCDC. 
# Please retain this information to preserve the provenance of 
# this file and to allow appropriate attribution of the data. 
# 
#######################################################################

data_rweznphenylpy
_audit_block_doi                 10.5517/ccvcqws
_database_code_depnum_ccdc_archive 'CCDC 785846'
loop_
_citation_id
_citation_doi
_citation_year
1 10.1021/cg100568a 2010
_audit_update_record             
;
2010-07-26 deposited with the CCDC.	2024-07-12 downloaded from the CCDC.
;

_audit_creation_method           SHELXL-97
_chemical_name_systematic        
;
?
;
_chemical_name_common            ?
_chemical_melting_point          ?
_chemical_formula_moiety         ?
_chemical_formula_sum            'C36 H30 N6 O2 Zn'
_chemical_formula_weight         644.03

loop_
_atom_type_symbol
_atom_type_description
_atom_type_scat_dispersion_real
_atom_type_scat_dispersion_imag
_atom_type_scat_source
C C 0.0181 0.0091 'International Tables Vol C Tables 4.2.6.8 and 6.1.1.4'
H H 0.0000 0.0000 'International Tables Vol C Tables 4.2.6.8 and 6.1.1.4'
N N 0.0311 0.0180 'International Tables Vol C Tables 4.2.6.8 and 6.1.1.4'
O O 0.0492 0.0322 'International Tables Vol C Tables 4.2.6.8 and 6.1.1.4'
Zn Zn -1.5491 0.6778 'International Tables Vol C Tables 4.2.6.8 and 6.1.1.4'

_symmetry_cell_setting           monoclinic
_symmetry_space_group_name_H-M   P2(1)/n

loop_
_symmetry_equiv_pos_as_xyz
'x, y, z'
'-x+1/2, y+1/2, -z+1/2'
'-x, -y, -z'
'x-1/2, -y-1/2, z-1/2'

_cell_length_a                   10.9343(3)
_cell_length_b                   7.3954(2)
_cell_length_c                   22.5187(6)
_cell_angle_alpha                90.00
_cell_angle_beta                 93.059(3)
_cell_angle_gamma                90.00
_cell_volume                     1818.35(9)
_cell_formula_units_Z            2
_cell_measurement_temperature    130(2)
_cell_measurement_reflns_used    4515
_cell_measurement_theta_min      3.9303
_cell_measurement_theta_max      72.791

_exptl_crystal_description       plate
_exptl_crystal_colour            pink
_exptl_crystal_size_max          0.20
_exptl_crystal_size_mid          0.10
_exptl_crystal_size_min          0.05
_exptl_crystal_density_meas      ?
_exptl_crystal_density_diffrn    1.176
_exptl_crystal_density_method    'not measured'
_exptl_crystal_F_000             668
_exptl_absorpt_coefficient_mu    1.231
_exptl_absorpt_correction_type   multi-scan
_exptl_absorpt_correction_T_min  0.7539
_exptl_absorpt_correction_T_max  1.0000
_exptl_absorpt_process_details   
;
CrysAlis RED, Oxford Diffraction Ltd.,
Version 1.171.32.15 (release 10-01-2008 CrysAlis171 .NET)
(compiled Jan 10 2008,16:37:18)
Empirical absorption correction using spherical harmonics,
implemented in SCALE3 ABSPACK scaling algorithm.
;

_exptl_special_details           
;
?
;

_diffrn_ambient_temperature      130(2)
_diffrn_radiation_wavelength     1.54184
_diffrn_radiation_type           CuK\a
_diffrn_radiation_source         'fine-focus sealed tube'
_diffrn_radiation_monochromator  graphite
_diffrn_measurement_device_type  'Xcalibur, Sapphire3'
_diffrn_measurement_method       '\w scans'
_diffrn_detector_area_resol_mean 16.0711
_diffrn_standards_number         ?
_diffrn_standards_interval_count ?
_diffrn_standards_interval_time  ?
_diffrn_standards_decay_%        ?
_diffrn_reflns_number            6871
_diffrn_reflns_av_R_equivalents  0.0268
_diffrn_reflns_av_sigmaI/netI    0.0275
_diffrn_reflns_limit_h_min       -13
_diffrn_reflns_limit_h_max       13
_diffrn_reflns_limit_k_min       -9
_diffrn_reflns_limit_k_max       8
_diffrn_reflns_limit_l_min       -24
_diffrn_reflns_limit_l_max       27
_diffrn_reflns_theta_min         3.93
_diffrn_reflns_theta_max         72.87
_reflns_number_total             3431
_reflns_number_gt                2691
_reflns_threshold_expression     >2sigma(I)

_computing_data_collection       
;
CrysAlis CCD, Oxford Diffraction Ltd.,
Version 1.171.32.15 (release 10-01-2008 CrysAlis171 .NET)
(compiled Jan 10 2008,16:37:18)
;
_computing_cell_refinement       
;
CrysAlis RED, Oxford Diffraction Ltd.,
Version 1.171.32.15 (release 10-01-2008 CrysAlis171 .NET)
(compiled Jan 10 2008,16:37:18)
;
_computing_data_reduction        
;
CrysAlis RED, Oxford Diffraction Ltd.,
Version 1.171.32.15 (release 10-01-2008 CrysAlis171 .NET)
(compiled Jan 10 2008,16:37:18)
;
_computing_structure_solution    'SHELXS-97 (Sheldrick, 1997)'
_computing_structure_refinement  'SHELXL-97 (Sheldrick, 1997)'
_computing_molecular_graphics    ?
_computing_publication_material  ?

_refine_special_details          
;
Refinement of F^2^ against ALL reflections. The weighted R-factor wR and
goodness of fit S are based on F^2^, conventional R-factors R are based
on F, with F set to zero for negative F^2^. The threshold expression of
F^2^ > 2sigma(F^2^) is used only for calculating R-factors(gt) etc. and is
not relevant to the choice of reflections for refinement. R-factors based
on F^2^ are statistically about twice as large as those based on F, and R-
factors based on ALL data will be even larger.
;

_refine_ls_structure_factor_coef Fsqd
_refine_ls_matrix_type           full
_refine_ls_weighting_scheme      calc
_refine_ls_weighting_details     
'calc w=1/[\s^2^(Fo^2^)+(0.2000P)^2^+0.0000P] where P=(Fo^2^+2Fc^2^)/3'
_atom_sites_solution_primary     direct
_atom_sites_solution_secondary   difmap
_atom_sites_solution_hydrogens   geom
_refine_ls_hydrogen_treatment    constr
_refine_ls_extinction_method     none
_refine_ls_extinction_coef       ?
_refine_ls_number_reflns         3431
_refine_ls_number_parameters     227
_refine_ls_number_restraints     0
_refine_ls_R_factor_all          0.0827
_refine_ls_R_factor_gt           0.0741
_refine_ls_wR_factor_ref         0.2752
_refine_ls_wR_factor_gt          0.2692
_refine_ls_goodness_of_fit_ref   1.174
_refine_ls_restrained_S_all      1.174
_refine_ls_shift/su_max          0.000
_refine_ls_shift/su_mean         0.000

loop_
_atom_site_label
_atom_site_type_symbol
_atom_site_fract_x
_atom_site_fract_y
_atom_site_fract_z
_atom_site_U_iso_or_equiv
_atom_site_adp_type
_atom_site_occupancy
_atom_site_symmetry_multiplicity
_atom_site_calc_flag
_atom_site_refinement_flags
_atom_site_disorder_assembly
_atom_site_disorder_group
Zn1 Zn 0.0000 0.0000 0.0000 0.0233(3) Uani 1 2 d S . .
N3 N 0.0956(3) 0.0114(3) 0.08482(17) 0.0255(7) Uani 1 1 d . . .
N1 N 0.1113(3) -0.2239(4) -0.02479(15) 0.0292(7) Uani 1 1 d . . .
N2 N -0.1273(3) -0.1852(4) 0.03746(15) 0.0304(7) Uani 1 1 d . . .
C2 C 0.2384(4) -0.5133(4) -0.0261(2) 0.0269(9) Uani 1 1 d . . .
C8 C 0.0902(4) 0.0497(6) 0.19083(18) 0.0322(8) Uani 1 1 d . . .
H8 H 0.0436 0.0765 0.2231 0.039 Uiso 1 1 calc R . .
C10 C 0.2775(4) -0.0261(5) 0.1495(2) 0.0321(9) Uani 1 1 d . . .
H10 H 0.3606 -0.0532 0.1529 0.038 Uiso 1 1 calc R . .
C9 C 0.2144(4) 0.0115(4) 0.2000(2) 0.0273(9) Uani 1 1 d . . .
C11 C 0.2163(4) -0.0231(5) 0.0937(2) 0.0297(9) Uani 1 1 d . . .
H11 H 0.2613 -0.0463 0.0606 0.036 Uiso 1 1 calc R . .
C5 C 0.4418(3) -0.6637(5) -0.00804(18) 0.0315(9) Uani 1 1 d . . .
H5 H 0.4034 -0.7754 -0.0130 0.038 Uiso 1 1 calc R . .
C13 C 0.2112(4) -0.0316(6) 0.3096(2) 0.0368(10) Uani 1 1 d . . .
H13 H 0.1289 -0.0624 0.3043 0.044 Uiso 1 1 calc R . .
C4 C 0.4335(3) -0.3423(5) -0.00433(19) 0.0326(9) Uani 1 1 d . . .
H4 H 0.3895 -0.2347 -0.0068 0.039 Uiso 1 1 calc R . .
C7 C 0.0356(3) 0.0479(5) 0.13396(18) 0.0306(8) Uani 1 1 d . . .
H7 H -0.0476 0.0736 0.1295 0.037 Uiso 1 1 calc R . .
C1 C 0.1677(3) -0.3578(5) -0.02639(17) 0.0266(8) Uani 1 1 d . . .
C17 C 0.3998(4) 0.0561(6) 0.26838(19) 0.0364(9) Uani 1 1 d . . .
H17 H 0.4446 0.0837 0.2356 0.044 Uiso 1 1 calc R . .
C12 C 0.2757(4) 0.0111(4) 0.2609(2) 0.0349(11) Uani 1 1 d . . .
C3 C 0.3715(4) -0.5059(4) -0.0133(2) 0.0267(9) Uani 1 1 d . . .
C6 C -0.1771(3) -0.3236(5) 0.03271(16) 0.0255(8) Uani 1 1 d . . .
C15 C 0.3872(5) 0.0146(5) 0.3724(2) 0.0430(12) Uani 1 1 d . . .
H15 H 0.4253 0.0147 0.4103 0.052 Uiso 1 1 calc R . .
C14 C 0.2667(5) -0.0298(6) 0.3668(2) 0.0440(11) Uani 1 1 d . . .
H14 H 0.2228 -0.0579 0.3999 0.053 Uiso 1 1 calc R . .
C16 C 0.4559(4) 0.0590(6) 0.3257(2) 0.0438(11) Uani 1 1 d . . .
H16 H 0.5379 0.0905 0.3318 0.053 Uiso 1 1 calc R . .
O1 O 0.8349(8) 0.0651(14) 0.2769(3) 0.071(2) Uani 0.50 1 d P . .
H1 H 0.8330 -0.0374 0.2907 0.106 Uiso 0.50 1 calc PR . .
C18 C 0.8672(10) 0.1897(19) 0.3230(5) 0.070(3) Uani 0.50 1 d P . .
H18A H 0.9082 0.1269 0.3556 0.105 Uiso 0.50 1 calc PR . .
H18B H 0.7945 0.2463 0.3363 0.105 Uiso 0.50 1 calc PR . .
H18C H 0.9207 0.2803 0.3083 0.105 Uiso 0.50 1 calc PR . .
O2 O 0.8401(8) 0.7160(14) 0.2927(3) 0.073(3) Uani 0.50 1 d P . .
H2 H 0.8090 0.8148 0.2852 0.109 Uiso 0.50 1 calc PR . .
C19 C 0.8415(14) 0.683(2) 0.3571(5) 0.093(5) Uani 0.50 1 d P . .
H19A H 0.9170 0.7273 0.3755 0.140 Uiso 0.50 1 calc PR . .
H19B H 0.8344 0.5561 0.3644 0.140 Uiso 0.50 1 calc PR . .
H19C H 0.7741 0.7456 0.3735 0.140 Uiso 0.50 1 calc PR . .

loop_
_atom_site_aniso_label
_atom_site_aniso_U_11
_atom_site_aniso_U_22
_atom_site_aniso_U_33
_atom_site_aniso_U_23
_atom_site_aniso_U_13
_atom_site_aniso_U_12
Zn1 0.0177(5) 0.0165(5) 0.0349(5) -0.0007(2) -0.0059(3) 0.00021(19)
N3 0.0210(17) 0.0190(16) 0.0361(18) -0.0003(11) -0.0013(14) 0.0015(9)
N1 0.0224(15) 0.0207(15) 0.0436(18) -0.0044(13) -0.0053(13) 0.0005(12)
N2 0.0226(15) 0.0208(15) 0.0469(19) 0.0015(14) -0.0056(13) -0.0013(12)
C2 0.0184(18) 0.0216(19) 0.041(2) -0.0002(13) -0.0014(15) 0.0011(11)
C8 0.029(2) 0.0322(19) 0.035(2) 0.0008(17) -0.0009(16) 0.0032(16)
C10 0.0228(19) 0.0314(19) 0.041(2) -0.0025(16) -0.0089(16) 0.0036(14)
C9 0.028(2) 0.0194(19) 0.034(2) -0.0030(13) -0.0079(17) 0.0003(12)
C11 0.0231(19) 0.0307(19) 0.035(2) -0.0025(15) -0.0062(16) 0.0017(14)
C5 0.0232(19) 0.0190(18) 0.052(2) -0.0033(16) -0.0022(16) -0.0030(13)
C13 0.043(2) 0.0312(19) 0.036(2) 0.0008(17) -0.0060(18) 0.0035(17)
C4 0.0228(19) 0.0195(18) 0.055(2) 0.0005(16) -0.0033(16) 0.0043(14)
C7 0.0248(18) 0.0300(18) 0.036(2) 0.0019(17) -0.0036(15) 0.0030(15)
C1 0.0174(16) 0.0237(18) 0.038(2) -0.0009(15) -0.0052(14) -0.0034(13)
C17 0.037(2) 0.036(2) 0.035(2) -0.0002(18) -0.0072(17) -0.0004(18)
C12 0.030(2) 0.0192(19) 0.054(3) -0.0048(14) -0.012(2) 0.0034(12)
C3 0.0195(18) 0.022(2) 0.038(2) -0.0016(13) -0.0019(15) 0.0008(11)
C6 0.0148(15) 0.0263(19) 0.0350(19) 0.0008(15) -0.0043(13) 0.0051(13)
C15 0.053(3) 0.034(2) 0.042(3) -0.0006(17) -0.003(2) 0.0132(17)
C14 0.058(3) 0.034(2) 0.038(3) -0.0014(18) -0.013(2) 0.008(2)
C16 0.042(2) 0.039(2) 0.048(3) -0.005(2) -0.018(2) 0.003(2)
O1 0.059(5) 0.100(6) 0.053(5) 0.001(5) 0.001(4) -0.015(5)
C18 0.061(7) 0.094(9) 0.058(7) -0.004(6) 0.016(5) -0.015(6)
O2 0.068(5) 0.117(8) 0.034(4) -0.026(4) 0.004(3) 0.020(5)
C19 0.123(12) 0.122(13) 0.037(6) -0.010(7) 0.021(6) 0.009(10)

_geom_special_details            
;
All esds (except the esd in the dihedral angle between two l.s. planes)
are estimated using the full covariance matrix. The cell esds are taken
into account individually in the estimation of esds in distances, angles
and torsion angles; correlations between esds in cell parameters are only
used when they are defined by crystal symmetry. An approximate (isotropic)
treatment of cell esds is used for estimating esds involving l.s. planes.
;

loop_
_geom_bond_atom_site_label_1
_geom_bond_atom_site_label_2
_geom_bond_distance
_geom_bond_site_symmetry_2
_geom_bond_publ_flag
Zn1 N3 2.129(4) . ?
Zn1 N3 2.129(4) 3 ?
Zn1 N1 2.146(3) 3 ?
Zn1 N1 2.146(3) . ?
Zn1 N2 2.156(3) . ?
Zn1 N2 2.156(3) 3 ?
N3 C7 1.344(5) . ?
N3 C11 1.349(5) . ?
N1 C1 1.168(5) . ?
N2 C6 1.162(5) . ?
C2 C6 1.385(5) 3_545 ?
C2 C1 1.386(5) . ?
C2 C3 1.469(5) . ?
C8 C7 1.384(6) . ?
C8 C9 1.392(6) . ?
C8 H8 0.9300 . ?
C10 C9 1.391(6) . ?
C10 C11 1.391(6) . ?
C10 H10 0.9300 . ?
C9 C12 1.494(6) . ?
C11 H11 0.9300 . ?
C5 C4 1.378(6) 3_645 ?
C5 C3 1.399(5) . ?
C5 H5 0.9300 . ?
C13 C12 1.372(7) . ?
C13 C14 1.395(6) . ?
C13 H13 0.9300 . ?
C4 C5 1.378(6) 3_645 ?
C4 C3 1.396(5) . ?
C4 H4 0.9300 . ?
C7 H7 0.9300 . ?
C17 C12 1.399(6) . ?
C17 C16 1.400(6) . ?
C17 H17 0.9300 . ?
C6 C2 1.385(5) 3_545 ?
C15 C14 1.358(8) . ?
C15 C16 1.364(8) . ?
C15 H15 0.9300 . ?
C14 H14 0.9300 . ?
C16 H16 0.9300 . ?
O1 C18 1.419(14) . ?
O1 H1 0.8200 . ?
C18 H18A 0.9600 . ?
C18 H18B 0.9600 . ?
C18 H18C 0.9600 . ?
O2 C19 1.470(12) . ?
O2 H2 0.8200 . ?
C19 H19A 0.9600 . ?
C19 H19B 0.9600 . ?
C19 H19C 0.9600 . ?

loop_
_geom_angle_atom_site_label_1
_geom_angle_atom_site_label_2
_geom_angle_atom_site_label_3
_geom_angle
_geom_angle_site_symmetry_1
_geom_angle_site_symmetry_3
_geom_angle_publ_flag
N3 Zn1 N3 180.0(2) . 3 ?
N3 Zn1 N1 89.66(11) . 3 ?
N3 Zn1 N1 90.34(11) 3 3 ?
N3 Zn1 N1 90.34(11) . . ?
N3 Zn1 N1 89.66(11) 3 . ?
N1 Zn1 N1 180.0(2) 3 . ?
N3 Zn1 N2 88.30(12) . . ?
N3 Zn1 N2 91.70(12) 3 . ?
N1 Zn1 N2 90.10(12) 3 . ?
N1 Zn1 N2 89.90(12) . . ?
N3 Zn1 N2 91.70(12) . 3 ?
N3 Zn1 N2 88.30(12) 3 3 ?
N1 Zn1 N2 89.90(12) 3 3 ?
N1 Zn1 N2 90.10(12) . 3 ?
N2 Zn1 N2 180.0(2) . 3 ?
C7 N3 C11 115.6(4) . . ?
C7 N3 Zn1 120.6(3) . . ?
C11 N3 Zn1 123.7(3) . . ?
C1 N1 Zn1 165.8(3) . . ?
C6 N2 Zn1 146.4(3) . . ?
C6 C2 C1 117.1(3) 3_545 . ?
C6 C2 C3 121.5(3) 3_545 . ?
C1 C2 C3 121.1(3) . . ?
C7 C8 C9 120.3(4) . . ?
C7 C8 H8 119.9 . . ?
C9 C8 H8 119.8 . . ?
C9 C10 C11 120.0(4) . . ?
C9 C10 H10 120.0 . . ?
C11 C10 H10 120.0 . . ?
C10 C9 C8 116.2(4) . . ?
C10 C9 C12 122.2(4) . . ?
C8 C9 C12 121.5(4) . . ?
N3 C11 C10 123.8(4) . . ?
N3 C11 H11 118.1 . . ?
C10 C11 H11 118.1 . . ?
C4 C5 C3 121.5(3) 3_645 . ?
C4 C5 H5 119.2 3_645 . ?
C3 C5 H5 119.2 . . ?
C12 C13 C14 121.3(5) . . ?
C12 C13 H13 119.3 . . ?
C14 C13 H13 119.3 . . ?
C5 C4 C3 121.7(3) 3_645 . ?
C5 C4 H4 119.2 3_645 . ?
C3 C4 H4 119.2 . . ?
N3 C7 C8 124.0(4) . . ?
N3 C7 H7 118.0 . . ?
C8 C7 H7 118.0 . . ?
N1 C1 C2 177.2(4) . . ?
C12 C17 C16 119.3(4) . . ?
C12 C17 H17 120.4 . . ?
C16 C17 H17 120.4 . . ?
C13 C12 C17 119.7(4) . . ?
C13 C12 C9 120.6(4) . . ?
C17 C12 C9 119.7(4) . . ?
C4 C3 C5 116.8(4) . . ?
C4 C3 C2 121.9(3) . . ?
C5 C3 C2 121.3(3) . . ?
N2 C6 C2 178.6(4) . 3_545 ?
C14 C15 C16 124.0(5) . . ?
C14 C15 H15 118.0 . . ?
C16 C15 H15 118.0 . . ?
C15 C14 C13 117.3(5) . . ?
C15 C14 H14 121.3 . . ?
C13 C14 H14 121.3 . . ?
C15 C16 C17 118.4(4) . . ?
C15 C16 H16 120.8 . . ?
C17 C16 H16 120.8 . . ?
C18 O1 H1 109.5 . . ?
O1 C18 H18A 109.5 . . ?
O1 C18 H18B 109.5 . . ?
H18A C18 H18B 109.5 . . ?
O1 C18 H18C 109.5 . . ?
H18A C18 H18C 109.5 . . ?
H18B C18 H18C 109.5 . . ?
C19 O2 H2 109.5 . . ?
O2 C19 H19A 109.5 . . ?
O2 C19 H19B 109.5 . . ?
H19A C19 H19B 109.5 . . ?
O2 C19 H19C 109.5 . . ?
H19A C19 H19C 109.5 . . ?
H19B C19 H19C 109.5 . . ?

_diffrn_measured_fraction_theta_max 0.945
_diffrn_reflns_theta_full        67.50
_diffrn_measured_fraction_theta_full 0.984
_refine_diff_density_max         1.803
_refine_diff_density_min         -0.534
_refine_diff_density_rms         0.165
