####################################################################### 
# 
# This file contains crystal structure data downloaded from the 
# Cambridge Structural Database (CSD) hosted by the Cambridge 
# Crystallographic Data Centre (CCDC).
# 
# Full information about CCDC data access policies and citation 
# guidelines are available at http://www.ccdc.cam.ac.uk/access/V1 
# 
# Audit and citation data items may have been added by the CCDC. 
# Please retain this information to preserve the provenance of 
# this file and to allow appropriate attribution of the data. 
# 
#######################################################################

data_kg486-d2-sq-end
_audit_block_doi                 10.5517/cct8sxr
_database_code_depnum_ccdc_archive 'CCDC 753235'
loop_
_citation_id
_citation_doi
_citation_year
1 10.1021/ic9022085 2010
_audit_update_record             
;
2009-11-03 deposited with the CCDC.	2024-07-12 downloaded from the CCDC.
;
#TrackingRef 'Zn4O(spiro)-LT-end.cif'


_audit_creation_method           SHELXL-97
_chemical_name_systematic        
;
?
;
_chemical_name_common            Zn4O(spiro)(DMF10)(H2O)3.5-L
_chemical_melting_point          ?
_chemical_formula_moiety         'C63 H56 N2 O15 Zn4'
_chemical_formula_sum            'C63 H56 N2 O15 Zn4'
_chemical_formula_weight         1342.58

loop_
_atom_type_symbol
_atom_type_description
_atom_type_scat_dispersion_real
_atom_type_scat_dispersion_imag
_atom_type_scat_source
C C 0.0033 0.0016 'International Tables Vol C Tables 4.2.6.8 and 6.1.1.4'
H H 0.0000 0.0000 'International Tables Vol C Tables 4.2.6.8 and 6.1.1.4'
O O 0.0106 0.0060 'International Tables Vol C Tables 4.2.6.8 and 6.1.1.4'
Zn Zn 0.2839 1.4301 'International Tables Vol C Tables 4.2.6.8 and 6.1.1.4'
N N 0.0061 0.0033 'International Tables Vol C Tables 4.2.6.8 and 6.1.1.4'

_symmetry_cell_setting           Hexagonal
_symmetry_space_group_name_H-M   'P 65 2 2'
_symmetry_space_group_name_Hall  'P 65 2 ( 0'

loop_
_symmetry_equiv_pos_as_xyz
'x, y, z'
'-y, x-y, z+2/3'
'-x+y, -x, z+1/3'
'-x, -y, z+1/2'
'y, -x+y, z+1/6'
'x-y, x, z+5/6'
'y, x, -z+2/3'
'x-y, -y, -z'
'-x, -x+y, -z+1/3'
'-y, -x, -z+1/6'
'-x+y, y, -z+1/2'
'x, x-y, -z+5/6'

_cell_length_a                   21.560(3)
_cell_length_b                   21.560(3)
_cell_length_c                   77.814(16)
_cell_angle_alpha                90.00
_cell_angle_beta                 90.00
_cell_angle_gamma                120.00
_cell_volume                     31325(9)
_cell_formula_units_Z            12
_cell_measurement_temperature    293(2)
_cell_measurement_reflns_used    ?
_cell_measurement_theta_min      ?
_cell_measurement_theta_max      ?

_exptl_crystal_description       block
_exptl_crystal_colour            colourless
_exptl_crystal_size_max          0.4
_exptl_crystal_size_mid          0.3
_exptl_crystal_size_min          0.2
_exptl_crystal_density_meas      ?
_exptl_crystal_density_diffrn    0.854
_exptl_crystal_density_method    'not measured'
_exptl_crystal_F_000             8256
_exptl_absorpt_coefficient_mu    0.947
_exptl_absorpt_correction_type   none
_exptl_absorpt_correction_T_min  ?
_exptl_absorpt_correction_T_max  ?
_exptl_absorpt_process_details   ?

_exptl_special_details           
;
?
;

_diffrn_ambient_temperature      100(2)
_diffrn_radiation_wavelength     0.88561
_diffrn_radiation_type           synchrotron
_diffrn_radiation_source         synchrotron
_diffrn_radiation_monochromator  'Si-111 crystal'
_diffrn_measurement_device_type  'MX-225 CCD'
_diffrn_measurement_method       \f
_diffrn_detector_area_resol_mean ?
_diffrn_standards_number         ?
_diffrn_standards_interval_count ?
_diffrn_standards_interval_time  ?
_diffrn_standards_decay_%        ?
_diffrn_reflns_number            109171
_diffrn_reflns_av_R_equivalents  0.1059
_diffrn_reflns_av_sigmaI/netI    0.0845
_diffrn_reflns_limit_h_min       -26
_diffrn_reflns_limit_h_max       26
_diffrn_reflns_limit_k_min       -27
_diffrn_reflns_limit_k_max       22
_diffrn_reflns_limit_l_min       -79
_diffrn_reflns_limit_l_max       93
_diffrn_reflns_theta_min         1.36
_diffrn_reflns_theta_max         36.23
_reflns_number_total             23119
_reflns_number_gt                13581
_reflns_threshold_expression     >2sigma(I)

_computing_data_collection       'marCCD 1994-2002'
_computing_cell_refinement       'XDS, V. DEC31, 2007'
_computing_data_reduction        'XDS, V. DEC31, 2007'
_computing_structure_solution    'SHELXS-97 (Sheldrick, 1997)'
_computing_structure_refinement  'SHELXL-97 (Sheldrick, 1997)'
_computing_molecular_graphics    'Diamond 3.1'
_computing_publication_material  WinGX

_refine_special_details          
;
Refinement of F^2^ against ALL reflections. The weighted R-factor wR and
goodness of fit S are based on F^2^, conventional R-factors R are based
on F, with F set to zero for negative F^2^. The threshold expression of
F^2^ > 2sigma(F^2^) is used only for calculating R-factors(gt) etc. and is
not relevant to the choice of reflections for refinement. R-factors based
on F^2^ are statistically about twice as large as those based on F, and R-
factors based on ALL data will be even larger.
For the DMF molecules, the following distance restraints were imposed:
O15-N2 and O14-N1 2.23(2) , L22-L23 and L12-L13 2.48(2).
The molecule was also restrained to be approximately planar,
and the atoms were restrained to vibrate in a nearly isotropic manner.
;

_refine_ls_structure_factor_coef Fsqd
_refine_ls_matrix_type           full
_refine_ls_weighting_scheme      calc
_refine_ls_weighting_details     
'calc w=1/[\s^2^(Fo^2^)+(0.0805P)^2^] where P=(Fo^2^+2Fc^2^)/3'
_atom_sites_solution_primary     patterson
_atom_sites_solution_secondary   difmap
_atom_sites_solution_hydrogens   geom
_refine_ls_hydrogen_treatment    constr
_refine_ls_extinction_method     none
_refine_ls_extinction_coef       ?
_refine_ls_abs_structure_details 'Flack H D (1983), Acta Cryst. A39, 876-881'
_refine_ls_abs_structure_Flack   -0.080(11)
_refine_ls_number_reflns         23119
_refine_ls_number_parameters     726
_refine_ls_number_restraints     496
_refine_ls_R_factor_all          0.0958
_refine_ls_R_factor_gt           0.0551
_refine_ls_wR_factor_ref         0.1443
_refine_ls_wR_factor_gt          0.1308
_refine_ls_goodness_of_fit_ref   0.900
_refine_ls_restrained_S_all      0.897
_refine_ls_shift/su_max          0.001
_refine_ls_shift/su_mean         0.000

loop_
_atom_site_label
_atom_site_type_symbol
_atom_site_fract_x
_atom_site_fract_y
_atom_site_fract_z
_atom_site_U_iso_or_equiv
_atom_site_adp_type
_atom_site_occupancy
_atom_site_symmetry_multiplicity
_atom_site_calc_flag
_atom_site_refinement_flags
_atom_site_disorder_assembly
_atom_site_disorder_group
Zn1 Zn 0.23016(2) 0.64154(2) 0.145530(5) 0.05635(12) Uani 1 1 d . . .
Zn2 Zn 0.32749(2) 0.65477(2) 0.114642(5) 0.05023(11) Uani 1 1 d . . .
Zn3 Zn 0.32795(3) 0.56960(3) 0.146892(6) 0.06510(14) Uani 1 1 d . . .
Zn4 Zn 0.40206(2) 0.74265(3) 0.148513(6) 0.06505(14) Uani 1 1 d D . .
O111 O 0.32169(13) 0.65075(13) 0.13924(4) 0.0643(7) Uiso 1 1 d . . .
O1 O 0.16678(13) 0.62292(14) 0.12517(3) 0.0587(6) Uani 1 1 d U . .
O2 O 0.25017(12) 0.66308(12) 0.10432(3) 0.0521(6) Uani 1 1 d U . .
O3 O 0.4073(2) 0.5896(2) 0.16157(4) 0.0996(10) Uani 1 1 d U . .
O4 O 0.47277(18) 0.7006(2) 0.15060(4) 0.0994(11) Uani 1 1 d U . .
O5 O 0.17585(15) 0.55553(18) 0.16022(3) 0.0801(9) Uani 1 1 d U . .
O6 O 0.2367(2) 0.49534(17) 0.15691(4) 0.1056(12) Uani 1 1 d U . .
O7 O 0.41473(14) 0.73026(15) 0.10470(3) 0.0648(7) Uani 1 1 d U . .
O8 O 0.44863(14) 0.80649(14) 0.12705(3) 0.0680(7) Uani 1 1 d U . .
O9 O 0.22338(18) 0.71538(19) 0.15863(4) 0.0891(10) Uani 1 1 d U . .
O10 O 0.3328(2) 0.78533(17) 0.15022(4) 0.0942(10) Uani 1 1 d U . .
O11 O 0.31823(14) 0.56578(15) 0.10575(3) 0.0627(7) Uani 1 1 d U . .
O12 O 0.34179(16) 0.51582(16) 0.12807(3) 0.0733(8) Uani 1 1 d U . .
C1 C 0.13703(18) 0.6415(2) 0.09718(4) 0.0515(9) Uani 1 1 d U . .
C2 C 0.15946(18) 0.66504(18) 0.08082(4) 0.0498(8) Uani 1 1 d U . .
H2 H 0.2062 0.6793 0.0776 0.060 Uiso 1 1 calc R . .
C3 C 0.1127(2) 0.6675(2) 0.06914(5) 0.0634(10) Uani 1 1 d U . .
C4 C 0.0413(2) 0.6430(3) 0.07321(5) 0.0772(13) Uani 1 1 d U . .
C5 C 0.0174(2) 0.6177(3) 0.08990(6) 0.0909(16) Uani 1 1 d U . .
H5 H -0.0302 0.6011 0.0928 0.109 Uiso 1 1 calc R . .
C6 C 0.0640(2) 0.6170(3) 0.10228(5) 0.0788(13) Uani 1 1 d U . .
H6 H 0.0485 0.6014 0.1134 0.095 Uiso 1 1 calc R . .
C7 C 0.6972(3) 0.5683(3) 0.21750(5) 0.0870(14) Uani 1 1 d U . .
H7A H 0.6832 0.5236 0.2116 0.104 Uiso 1 1 calc R . .
H7B H 0.7490 0.5975 0.2175 0.104 Uiso 1 1 calc R . .
C8 C 0.6616(3) 0.6092(3) 0.20908(6) 0.0855(14) Uani 1 1 d U . .
C9 C 0.6537(3) 0.6528(3) 0.22571(6) 0.1047(18) Uani 1 1 d U . .
H9A H 0.6968 0.6988 0.2274 0.126 Uiso 1 1 calc R . .
H9B H 0.6129 0.6598 0.2245 0.126 Uiso 1 1 calc R . .
C10 C 0.5913(2) 0.5643(2) 0.20131(6) 0.0783(12) Uani 1 1 d U . .
H10A H 0.5535 0.5480 0.2098 0.094 Uiso 1 1 calc R . .
H10B H 0.5888 0.5231 0.1956 0.094 Uiso 1 1 calc R . .
C11 C 0.5863(2) 0.6157(3) 0.18823(5) 0.0729(12) Uani 1 1 d U . .
C12 C 0.6503(3) 0.6698(3) 0.18481(6) 0.0978(17) Uani 1 1 d U . .
C13 C 0.7067(3) 0.6641(3) 0.19445(7) 0.1070(19) Uani 1 1 d U . .
H13A H 0.7419 0.7099 0.1992 0.128 Uiso 1 1 calc R . .
H13B H 0.7306 0.6457 0.1872 0.128 Uiso 1 1 calc R . .
C14 C 0.5230(3) 0.6054(3) 0.17999(5) 0.0840(14) Uani 1 1 d U . .
H14 H 0.4789 0.5651 0.1823 0.101 Uiso 1 1 calc R . .
C15 C 0.5285(2) 0.6558(3) 0.16878(5) 0.0881(15) Uani 1 1 d U . .
C16 C 0.5973(3) 0.7129(4) 0.16517(7) 0.117(2) Uani 1 1 d U . .
H16 H 0.6021 0.7465 0.1570 0.141 Uiso 1 1 calc R . .
C17 C 0.6592(3) 0.7217(3) 0.17339(6) 0.1013(18) Uani 1 1 d U . .
H17 H 0.7041 0.7610 0.1712 0.122 Uiso 1 1 calc R . .
C18 C 0.4648(3) 0.6475(3) 0.15949(6) 0.0836(14) Uani 1 1 d U . .
C19 C 0.18851(18) 0.64215(18) 0.11002(4) 0.0478(8) Uani 1 1 d U . .
C21 C 0.1336(3) 0.4437(2) 0.17343(5) 0.0801(14) Uani 1 1 d U . .
C22 C 0.0795(2) 0.4524(2) 0.18312(5) 0.0745(12) Uani 1 1 d U . .
H22 H 0.0785 0.4950 0.1828 0.089 Uiso 1 1 calc R . .
C23 C 0.0315(3) 0.3955(3) 0.19243(6) 0.0878(15) Uani 1 1 d U . .
C24 C 0.0276(3) 0.3297(3) 0.19153(8) 0.117(2) Uani 1 1 d U . .
C25 C 0.0769(4) 0.3198(3) 0.18263(9) 0.152(3) Uani 1 1 d U . .
H25 H 0.0761 0.2763 0.1828 0.182 Uiso 1 1 calc R . .
C26 C 0.1273(3) 0.3770(3) 0.17342(7) 0.120(2) Uani 1 1 d U . .
H26 H 0.1592 0.3703 0.1667 0.144 Uiso 1 1 calc R . .
C27 C -0.0289(3) 0.3906(2) 0.20419(6) 0.0816(13) Uani 1 1 d U . .
H27A H -0.0117 0.4324 0.2115 0.098 Uiso 1 1 calc R . .
H27B H -0.0694 0.3850 0.1975 0.098 Uiso 1 1 calc R . .
C28 C -0.0485(3) 0.3229(3) 0.21472(7) 0.0907(15) Uani 1 1 d U . .
C29 C -0.0416(3) 0.2726(3) 0.20192(8) 0.117(2) Uani 1 1 d U . .
H29A H -0.0833 0.2485 0.1946 0.140 Uiso 1 1 calc R . .
H29B H -0.0335 0.2374 0.2077 0.140 Uiso 1 1 calc R . .
C30 C -0.1272(3) 0.2895(3) 0.22104(6) 0.0847(14) Uani 1 1 d U . .
H30A H -0.1544 0.3040 0.2138 0.102 Uiso 1 1 calc R . .
H30B H -0.1509 0.2376 0.2213 0.102 Uiso 1 1 calc R . .
C31 C 0.5618(2) 0.8820(2) 0.07246(5) 0.0643(10) Uani 1 1 d U . .
C32 C 0.6024(2) 0.9513(3) 0.07797(6) 0.0821(14) Uani 1 1 d U . .
C33 C -0.0050(3) 0.3393(3) 0.23057(7) 0.1055(19) Uani 1 1 d U . .
H33A H 0.0408 0.3828 0.2291 0.127 Uiso 1 1 calc R . .
H33B H 0.0035 0.3004 0.2334 0.127 Uiso 1 1 calc R . .
C34 C 0.5115(2) 0.8308(2) 0.08354(5) 0.0595(9) Uani 1 1 d U . .
H34 H 0.4829 0.7839 0.0798 0.071 Uiso 1 1 calc R . .
C35 C 0.50377(18) 0.8495(2) 0.10029(4) 0.0523(9) Uani 1 1 d U . .
C36 C 0.5444(2) 0.9192(2) 0.10583(5) 0.0717(12) Uani 1 1 d U . .
H36 H 0.5382 0.9308 0.1170 0.086 Uiso 1 1 calc R . .
C37 C 0.5930(3) 0.9713(3) 0.09553(6) 0.0894(15) Uani 1 1 d U . .
H37 H 0.6198 1.0183 0.0994 0.107 Uiso 1 1 calc R . .
C38 C 0.45168(18) 0.7921(2) 0.11140(4) 0.0513(9) Uani 1 1 d U . .
C39 C 0.1837(3) 0.4991(3) 0.16304(6) 0.0859(15) Uani 1 1 d U . .
C41 C 0.2912(3) 0.8288(3) 0.17214(6) 0.0862(15) Uani 1 1 d U . .
C42 C 0.3577(3) 0.8818(2) 0.17619(6) 0.0858(14) Uani 1 1 d U . .
H42 H 0.3970 0.8844 0.1706 0.103 Uiso 1 1 calc R . .
C43 C 0.3685(2) 0.9319(3) 0.18839(6) 0.0900(16) Uani 1 1 d U . .
C44 C 0.3072(3) 0.9358(3) 0.19504(7) 0.114(2) Uani 1 1 d U . .
C45 C 0.2369(3) 0.8808(3) 0.19040(7) 0.115(2) Uani 1 1 d U . .
H45 H 0.1963 0.8804 0.1947 0.138 Uiso 1 1 calc R . .
C46 C 0.2315(3) 0.8289(3) 0.17944(7) 0.118(2) Uani 1 1 d U . .
H46 H 0.1860 0.7917 0.1766 0.142 Uiso 1 1 calc R . .
C47 C 0.4352(3) 0.9895(3) 0.19681(7) 0.1025(17) Uani 1 1 d U . .
H47A H 0.4671 0.9716 0.1997 0.123 Uiso 1 1 calc R . .
H47B H 0.4602 1.0302 0.1892 0.123 Uiso 1 1 calc R . .
C48 C 0.4117(3) 1.0105(3) 0.21242(7) 0.1017(18) Uani 1 1 d U . .
C49 C 0.3344(3) 0.9979(3) 0.20748(7) 0.1087(19) Uani 1 1 d U . .
H49A H 0.3037 0.9855 0.2175 0.130 Uiso 1 1 calc R . .
H49B H 0.3377 1.0399 0.2021 0.130 Uiso 1 1 calc R . .
C50 C 0.4599(3) 1.0868(2) 0.21861(6) 0.0921(16) Uani 1 1 d U . .
H50A H 0.5088 1.1044 0.2149 0.110 Uiso 1 1 calc R . .
H50B H 0.4436 1.1182 0.2141 0.110 Uiso 1 1 calc R . .
C51 C 0.3710(3) 0.4556(3) 0.07113(6) 0.0855(15) Uani 1 1 d U . .
C52 C 0.4031(4) 0.4199(3) 0.07576(7) 0.112(2) Uani 1 1 d U . .
C53 C 0.40350(18) 0.96717(16) 0.22800(4) 0.1087(19) Uani 1 1 d U . .
H53A H 0.3550 0.9271 0.2289 0.130 Uiso 1 1 calc R . .
H53B H 0.4365 0.9490 0.2277 0.130 Uiso 1 1 calc R . .
C54 C 0.34719(18) 0.48983(16) 0.08224(4) 0.0715(12) Uani 1 1 d RU . .
H54 H 0.3262 0.5156 0.0781 0.086 Uiso 1 1 calc R . .
C55 C 0.3562(2) 0.4839(2) 0.09995(5) 0.0701(11) Uani 1 1 d U . .
C56 C 0.3908(3) 0.4468(3) 0.10546(6) 0.0866(15) Uani 1 1 d U . .
H56 H 0.3980 0.4432 0.1171 0.104 Uiso 1 1 calc R . .
C57 C 0.4128(4) 0.4175(3) 0.09410(8) 0.127(2) Uani 1 1 d U . .
H57 H 0.4361 0.3937 0.0980 0.152 Uiso 1 1 calc R . .
C58 C 0.33609(19) 0.5240(2) 0.11223(5) 0.0576(9) Uani 1 1 d U . .
C59 C 0.2822(3) 0.7705(3) 0.15959(6) 0.0792(13) Uani 1 1 d U . .
O14 O 0.3565(2) 0.6965(2) 0.17411(5) 0.1164(13) Uani 1 1 d DU . .
L11 C 0.3886(6) 0.7379(6) 0.18597(11) 0.209(5) Uani 1 1 d DU . .
N1 N 0.3289(6) 0.7176(6) 0.19953(15) 0.335(5) Uani 1 1 d DU . .
L12 C 0.3383(7) 0.7663(7) 0.21541(16) 0.310(4) Uani 1 1 d DU . .
H12A H 0.2967 0.7428 0.2226 0.372 Uiso 1 1 calc R . .
H12B H 0.3442 0.8112 0.2115 0.372 Uiso 1 1 calc R . .
H12C H 0.3798 0.7747 0.2218 0.372 Uiso 1 1 calc R . .
L13 C 0.2538(6) 0.6516(7) 0.20010(16) 0.310(4) Uani 1 1 d DU . .
H131 H 0.2305 0.6518 0.2106 0.372 Uiso 1 1 calc R . .
H132 H 0.2575 0.6090 0.1996 0.372 Uiso 1 1 calc R . .
H133 H 0.2264 0.6525 0.1905 0.372 Uiso 1 1 calc R . .
O15 O 0.4818(2) 0.8345(3) 0.16224(5) 0.1368(17) Uani 1 1 d DU . .
L21 C 0.5434(6) 0.8530(8) 0.15526(18) 0.310(4) Uani 1 1 d DU . .
N2 N 0.5881(6) 0.9310(6) 0.15751(14) 0.335(5) Uani 1 1 d DU . .
L22 C 0.5701(7) 0.9826(8) 0.16661(14) 0.331(10) Uani 1 1 d DU . .
H22A H 0.6126 1.0287 0.1676 0.398 Uiso 1 1 calc R . .
H22B H 0.5516 0.9646 0.1779 0.398 Uiso 1 1 calc R . .
H22C H 0.5348 0.9872 0.1601 0.398 Uiso 1 1 calc R . .
L23 C 0.6666(6) 0.9717(8) 0.15054(16) 0.310(4) Uani 1 1 d DU . .
H23A H 0.6903 1.0203 0.1546 0.372 Uiso 1 1 calc R . .
H23B H 0.6659 0.9716 0.1382 0.372 Uiso 1 1 calc R . .
H23C H 0.6920 0.9484 0.1545 0.372 Uiso 1 1 calc R . .

loop_
_atom_site_aniso_label
_atom_site_aniso_U_11
_atom_site_aniso_U_22
_atom_site_aniso_U_33
_atom_site_aniso_U_23
_atom_site_aniso_U_13
_atom_site_aniso_U_12
Zn1 0.0575(2) 0.0628(3) 0.0409(2) -0.0102(2) 0.00233(19) 0.0241(2)
Zn2 0.0535(2) 0.0588(2) 0.0390(2) -0.00441(17) 0.00130(16) 0.02861(19)
Zn3 0.0667(3) 0.0775(3) 0.0507(3) 0.0070(2) 0.0032(2) 0.0357(2)
Zn4 0.0630(3) 0.0738(3) 0.0492(3) -0.0075(2) -0.0064(2) 0.0274(2)
O1 0.0557(14) 0.0686(16) 0.0410(14) -0.0017(12) 0.0097(11) 0.0230(13)
O2 0.0577(15) 0.0551(14) 0.0427(13) -0.0077(11) 0.0050(11) 0.0277(12)
O3 0.111(3) 0.092(2) 0.083(2) 0.0319(19) 0.007(2) 0.042(2)
O4 0.080(2) 0.132(3) 0.097(2) 0.049(2) 0.0120(17) 0.061(2)
O5 0.0685(18) 0.090(2) 0.0521(17) -0.0112(15) 0.0089(13) 0.0172(17)
O6 0.098(3) 0.075(2) 0.106(3) -0.0135(18) 0.047(2) 0.0146(19)
O7 0.0638(16) 0.0710(17) 0.0479(15) -0.0084(13) 0.0006(12) 0.0249(14)
O8 0.0732(18) 0.0730(17) 0.0456(16) 0.0016(13) 0.0087(13) 0.0272(14)
O9 0.077(2) 0.091(2) 0.091(2) -0.0422(19) -0.0121(18) 0.035(2)
O10 0.109(3) 0.090(2) 0.083(2) -0.0228(18) 0.009(2) 0.050(2)
O11 0.0697(17) 0.0840(18) 0.0501(15) -0.0054(13) -0.0053(12) 0.0503(16)
O12 0.094(2) 0.098(2) 0.0512(17) 0.0203(14) 0.0161(15) 0.0656(19)
C1 0.050(2) 0.062(2) 0.043(2) -0.0150(17) -0.0045(16) 0.0285(18)
C2 0.0423(18) 0.059(2) 0.041(2) -0.0144(17) -0.0026(15) 0.0200(16)
C3 0.068(3) 0.075(3) 0.041(2) -0.0043(19) -0.0027(18) 0.031(2)
C4 0.069(3) 0.105(4) 0.056(3) -0.018(2) -0.023(2) 0.043(3)
C5 0.055(3) 0.145(5) 0.077(3) -0.029(3) -0.005(2) 0.053(3)
C6 0.052(2) 0.125(4) 0.054(2) -0.019(2) -0.0090(19) 0.040(3)
C7 0.099(4) 0.113(4) 0.070(3) 0.028(3) 0.011(3) 0.069(3)
C8 0.089(3) 0.131(4) 0.064(3) 0.007(3) -0.018(2) 0.076(3)
C9 0.141(5) 0.113(4) 0.097(4) 0.011(3) -0.022(3) 0.090(4)
C10 0.078(3) 0.080(3) 0.084(3) 0.015(2) 0.001(2) 0.044(3)
C11 0.076(3) 0.101(3) 0.046(2) 0.025(2) 0.002(2) 0.047(3)
C12 0.070(3) 0.143(5) 0.072(3) 0.053(3) 0.006(2) 0.047(3)
C13 0.078(3) 0.143(5) 0.100(4) 0.052(4) -0.008(3) 0.056(3)
C14 0.084(3) 0.118(4) 0.054(3) 0.028(3) 0.015(2) 0.053(3)
C15 0.062(3) 0.