####################################################################### 
# 
# This file contains crystal structure data downloaded from the 
# Cambridge Structural Database (CSD) hosted by the Cambridge 
# Crystallographic Data Centre (CCDC).
# 
# Full information about CCDC data access policies and citation 
# guidelines are available at http://www.ccdc.cam.ac.uk/access/V1 
# 
# Audit and citation data items may have been added by the CCDC. 
# Please retain this information to preserve the provenance of 
# this file and to allow appropriate attribution of the data. 
# 
#######################################################################

data_c:\compound5
_audit_block_doi                 10.5517/cctnmnq
_database_code_depnum_ccdc_archive 'CCDC 764604'
loop_
_citation_id
_citation_doi
_citation_year
1 10.1039/b927242a 2010
_audit_update_record             
;
2010-02-03 deposited with the CCDC.	2024-07-12 downloaded from the CCDC.
;
#TrackingRef 'compound_5.CIF'


_audit_creation_method           SHELXL-97
_chemical_name_systematic        
;
?
;
_chemical_name_common            'ReMn TCNQ'
_chemical_melting_point          ?
_chemical_formula_moiety         ?
_chemical_formula_sum            
'C151.33 H120 Cl2.67 Li0 Mn2.67 N18.67 O0.67 P8 Re2.67'
_chemical_formula_weight         3196.00

loop_
_atom_type_symbol
_atom_type_description
_atom_type_scat_dispersion_real
_atom_type_scat_dispersion_imag
_atom_type_scat_source
C C 0.0033 0.0016 'International Tables Vol C Tables 4.2.6.8 and 6.1.1.4'
H H 0.0000 0.0000 'International Tables Vol C Tables 4.2.6.8 and 6.1.1.4'
N N 0.0061 0.0033 'International Tables Vol C Tables 4.2.6.8 and 6.1.1.4'
O O 0.0106 0.0060 'International Tables Vol C Tables 4.2.6.8 and 6.1.1.4'
P P 0.1023 0.0942 'International Tables Vol C Tables 4.2.6.8 and 6.1.1.4'
Mn Mn 0.3368 0.7283 'International Tables Vol C Tables 4.2.6.8 and 6.1.1.4'
Re Re -1.0185 7.2310 'International Tables Vol C Tables 4.2.6.8 and 6.1.1.4'
Cl Cl 0.1484 0.1585 'International Tables Vol C Tables 4.2.6.8 and 6.1.1.4'
Li Li -0.0003 0.0001 'International Tables Vol C Tables 4.2.6.8 and 6.1.1.4'

_symmetry_cell_setting           Triclinic
_symmetry_space_group_name_H-M   P-1

loop_
_symmetry_equiv_pos_as_xyz
'x, y, z'
'-x, -y, -z'

_cell_length_a                   17.514(3)
_cell_length_b                   18.087(3)
_cell_length_c                   38.106(7)
_cell_angle_alpha                90.764(5)
_cell_angle_beta                 97.408(5)
_cell_angle_gamma                102.736(5)
_cell_volume                     11665(3)
_cell_formula_units_Z            3
_cell_measurement_temperature    110(2)
_cell_measurement_reflns_used    ?
_cell_measurement_theta_min      ?
_cell_measurement_theta_max      ?

_exptl_crystal_description       plate
_exptl_crystal_colour            red
_exptl_crystal_size_max          .17
_exptl_crystal_size_mid          .11
_exptl_crystal_size_min          .06
_exptl_crystal_density_meas      ?
_exptl_crystal_density_diffrn    1.365
_exptl_crystal_density_method    'not measured'
_exptl_crystal_F_000             4788
_exptl_absorpt_coefficient_mu    2.459
_exptl_absorpt_correction_type   multi-scan
_exptl_absorpt_correction_T_min  ?
_exptl_absorpt_correction_T_max  ?
_exptl_absorpt_process_details   'SADABS v2.03 (Bruker, 2003)'

_exptl_special_details           
;
?
;

_diffrn_ambient_temperature      110(2)
_diffrn_radiation_wavelength     0.71073
_diffrn_radiation_type           MoK\a
_diffrn_radiation_source         'fine-focus sealed tube'
_diffrn_radiation_monochromator  graphite
_diffrn_measurement_device_type  ?
_diffrn_measurement_method       ?
_diffrn_detector_area_resol_mean ?
_diffrn_standards_number         ?
_diffrn_standards_interval_count ?
_diffrn_standards_interval_time  ?
_diffrn_standards_decay_%        ?
_diffrn_reflns_number            133941
_diffrn_reflns_av_R_equivalents  0.0945
_diffrn_reflns_av_sigmaI/netI    0.0785
_diffrn_reflns_limit_h_min       -19
_diffrn_reflns_limit_h_max       19
_diffrn_reflns_limit_k_min       -19
_diffrn_reflns_limit_k_max       19
_diffrn_reflns_limit_l_min       -41
_diffrn_reflns_limit_l_max       41
_diffrn_reflns_theta_min         1.20
_diffrn_reflns_theta_max         23.59
_reflns_number_total             32306
_reflns_number_gt                22590
_reflns_threshold_expression     >2sigma(I)

_computing_data_collection       'SMART V5.625 (Bruker, 2000)'
_computing_cell_refinement       'SMART V5.625 (Bruker, 2000)'
_computing_data_reduction        'SAINT V6.32 (Bruker, 2001)'
_computing_structure_solution    'SHELXS-97 (Sheldrick, 1997)'
_computing_structure_refinement  'SHELXL-97 (Sheldrick, 1997)'
_computing_molecular_graphics    'X-Seed (Barbour, 2001)'
_computing_publication_material  'SHELXL-97 (Sheldrick, 1997)'

_refine_special_details          
;
Refinement of F^2^ against ALL reflections. The weighted R-factor wR and
goodness of fit S are based on F^2^, conventional R-factors R are based
on F, with F set to zero for negative F^2^. The threshold expression of
F^2^ > 2sigma(F^2^) is used only for calculating R-factors(gt) etc. and is
not relevant to the choice of reflections for refinement. R-factors based
on F^2^ are statistically about twice as large as those based on F, and R-
factors based on ALL data will be even larger.
;

_refine_ls_structure_factor_coef Fsqd
_refine_ls_matrix_type           fullcycle
_refine_ls_weighting_scheme      calc
_refine_ls_weighting_details     
'calc w=1/[\s^2^(Fo^2^)+(0.1787P)^2^+611.2092P] where P=(Fo^2^+2Fc^2^)/3'
_atom_sites_solution_primary     direct
_atom_sites_solution_secondary   difmap
_atom_sites_solution_hydrogens   geom
_refine_ls_hydrogen_treatment    constrained
_refine_ls_extinction_method     none
_refine_ls_extinction_coef       ?
_refine_ls_number_reflns         32306
_refine_ls_number_parameters     2495
_refine_ls_number_restraints     0
_refine_ls_R_factor_all          0.1611
_refine_ls_R_factor_gt           0.1156
_refine_ls_wR_factor_ref         0.3566
_refine_ls_wR_factor_gt          0.3090
_refine_ls_goodness_of_fit_ref   1.049
_refine_ls_restrained_S_all      1.049
_refine_ls_shift/su_max          0.198
_refine_ls_shift/su_mean         0.036

loop_
_atom_site_label
_atom_site_type_symbol
_atom_site_fract_x
_atom_site_fract_y
_atom_site_fract_z
_atom_site_U_iso_or_equiv
_atom_site_adp_type
_atom_site_occupancy
_atom_site_symmetry_multiplicity
_atom_site_calc_flag
_atom_site_refinement_flags
_atom_site_disorder_assembly
_atom_site_disorder_group
Re4 Re 0.43527(5) 0.62879(5) 0.79438(2) 0.032 Uani 1 1 d . . .
Re3 Re 0.67996(5) 0.29511(5) 0.82036(2) 0.037 Uani 1 1 d . . .
Re2 Re 0.78142(5) 0.62333(5) 0.67434(2) 0.030 Uani 1 1 d . . .
Re1 Re 0.38879(5) 0.30754(5) 0.63968(2) 0.030 Uani 1 1 d . . .
Mn3 Mn 0.39915(18) 0.33501(17) 0.77675(8) 0.032 Uani 1 1 d . . .
Mn2 Mn 0.47830(18) 0.60098(17) 0.66233(8) 0.032 Uani 1 1 d . . .
Mn1 Mn 0.68857(19) 0.32925(19) 0.68392(8) 0.038 Uani 1 1 d . . .
Mn4 Mn 0.71340(19) 0.57942(19) 0.80200(8) 0.038 Uani 1 1 d . . .
P2 P 0.2482(3) 0.2963(3) 0.62379(13) 0.034 Uani 1 1 d . . .
P8 P 0.6727(4) 0.2877(4) 0.88328(16) 0.047 Uani 1 1 d . . .
P10 P 0.4552(4) 0.7651(3) 0.80007(15) 0.041 Uani 1 1 d . . .
P7 P 0.8145(3) 0.2819(4) 0.83380(16) 0.041 Uani 1 1 d . . .
P4 P 0.8048(3) 0.6310(3) 0.61337(13) 0.031 Uani 1 1 d . . .
P11 P 0.4120(3) 0.6342(3) 0.85519(14) 0.037 Uani 1 1 d . . .
P6 P 0.9180(3) 0.6187(3) 0.68946(13) 0.034 Uani 1 1 d . . .
P9 P 0.6423(3) 0.1582(3) 0.81705(15) 0.040 Uani 1 1 d . . .
P3 P 0.3943(3) 0.3050(3) 0.57643(13) 0.028 Uani 1 1 d . . .
P12 P 0.2962(3) 0.6238(3) 0.77690(14) 0.035 Uani 1 1 d . . .
P5 P 0.8234(3) 0.7599(3) 0.67591(14) 0.037 Uani 1 1 d . . .
C5 C 0.6609(11) 0.6211(10) 0.6617(5) 0.025 Uani 1 1 d . . .
P1 P 0.3606(4) 0.1706(3) 0.63635(14) 0.039 Uani 1 1 d . . .
N5 N 0.5975(10) 0.6155(9) 0.6573(4) 0.036 Uani 1 1 d . . .
C9 C 0.7170(12) 0.4158(12) 0.8219(5) 0.033 Uani 1 1 d . . .
C11 C 0.4094(10) 0.5099(10) 0.7882(5) 0.023 Uani 1 1 d . . .
C4 C 0.7504(10) 0.5030(10) 0.6759(4) 0.020 Uani 1 1 d . . .
N1 N 0.5751(10) 0.3247(10) 0.6603(5) 0.039 Uani 1 1 d . . .
C2 C 0.4136(10) 0.4268(10) 0.6467(4) 0.019 Uani 1 1 d . . .
N11 N 0.3977(11) 0.4479(11) 0.7825(5) 0.044 Uani 1 1 d . . .
N4 N 0.7367(10) 0.4431(10) 0.6821(4) 0.036 Uani 1 1 d . . .
C138 C 0.9541(11) 0.5385(11) 0.6729(5) 0.028 Uani 1 1 d . . .
C6 C 0.7601(10) 0.6215(9) 0.7264(4) 0.019 Uani 1 1 d . . .
N8 N 0.5066(11) 0.3223(11) 0.8024(5) 0.045 Uani 1 1 d . . .
N6 N 0.7448(11) 0.6205(11) 0.7546(5) 0.045 Uani 1 1 d . . .
N17 N 0.4198(11) 0.6641(11) 0.6255(5) 0.045 Uani 1 1 d . . .
N2 N 0.4255(10) 0.4876(9) 0.6528(4) 0.034 Uani 1 1 d . . .
N3 N 0.3953(10) 0.3105(10) 0.7246(5) 0.041 Uani 1 1 d . . .
C10 C 0.4573(10) 0.6306(10) 0.7421(4) 0.020 Uani 1 1 d . . .
C12 C 0.5531(11) 0.6209(10) 0.8076(5) 0.027 Uani 1 1 d . . .
C87 C 0.4607(13) 0.4545(12) 0.5674(6) 0.041 Uani 1 1 d . . .
H87 H 0.4924 0.4499 0.5885 0.049 Uiso 1 1 calc R . .
N21 N 0.3012(11) 0.2634(10) 0.7940(5) 0.041 Uani 1 1 d . . .
C45 C 0.2433(12) 0.2288(12) 0.8024(5) 0.035 Uani 1 1 d . . .
C75 C 0.2202(13) 0.3477(12) 0.6881(6) 0.039 Uani 1 1 d . . .
H75 H 0.2626 0.3872 0.6852 0.047 Uiso 1 1 calc R . .
C29 C 0.4569(12) 0.9363(11) 0.5384(5) 0.033 Uani 1 1 d . . .
C30 C 0.3743(13) 0.9143(12) 0.5345(6) 0.040 Uani 1 1 d . . .
H30 H 0.3444 0.9442 0.5218 0.048 Uiso 1 1 calc R . .
C214 C 0.2237(13) 0.5411(12) 0.7879(6) 0.040 Uani 1 1 d . . .
C109 C 0.7160(13) 0.4891(12) 0.5899(6) 0.039 Uani 1 1 d . . .
H109 H 0.6851 0.4968 0.6070 0.046 Uiso 1 1 calc R . .
C108 C 0.7817(12) 0.5427(12) 0.5850(5) 0.035 Uani 1 1 d . . .
C62 C 0.4449(13) 0.1251(13) 0.6455(6) 0.042 Uani 1 1 d . . .
C86 C 0.4047(11) 0.3945(11) 0.5532(5) 0.029 Uani 1 1 d . . .
C28 C 0.5002(12) 0.8936(11) 0.5584(5) 0.033 Uani 1 1 d . . .
H28 H 0.5551 0.9084 0.5616 0.039 Uiso 1 1 calc R . .
C74 C 0.1924(12) 0.2919(12) 0.6611(5) 0.034 Uani 1 1 d . . .
C44 C 0.1747(13) 0.1896(13) 0.8126(6) 0.044 Uani 1 1 d . . .
C208 C 0.3979(12) 0.5450(12) 0.8789(6) 0.038 Uani 1 1 d . . .
C63 C 0.4949(13) 0.1463(13) 0.6762(6) 0.042 Uani 1 1 d . . .
H63 H 0.4845 0.1826 0.6913 0.050 Uiso 1 1 calc R . .
N7 N 0.6774(11) 0.3053(10) 0.7360(5) 0.044 Uani 1 1 d . . .
C220 C 0.2646(12) 0.6242(12) 0.7288(5) 0.036 Uani 1 1 d . . .
C1 C 0.5103(11) 0.3151(11) 0.6525(5) 0.029 Uani 1 1 d . . .
C92 C 0.4735(11) 0.2721(11) 0.5595(5) 0.030 Uani 1 1 d . . .
C114 C 0.7493(13) 0.6908(12) 0.5842(6) 0.039 Uani 1 1 d . . .
C7 C 0.6827(12) 0.2977(12) 0.7653(6) 0.036 Uani 1 1 d . . .
C26 C 0.3819(13) 0.8051(12) 0.5697(6) 0.039 Uani 1 1 d . . .
C97 C 0.4908(12) 0.2843(12) 0.5251(5) 0.035 Uani 1 1 d . . .
H97 H 0.4588 0.3081 0.5099 0.043 Uiso 1 1 calc R . .
C133 C 0.9096(14) 0.5579(13) 0.7548(6) 0.046 Uani 1 1 d . . .
H133 H 0.8678 0.5226 0.7424 0.055 Uiso 1 1 calc R . .
N10 N 0.4710(10) 0.6283(10) 0.7145(5) 0.038 Uani 1 1 d . . .
C132 C 0.9522(12) 0.6166(12) 0.7375(6) 0.038 Uani 1 1 d . . .
C190 C 0.4408(13) 0.8218(13) 0.7607(6) 0.042 Uani 1 1 d . . .
C81 C 0.2571(14) 0.4338(12) 0.5900(6) 0.042 Uani 1 1 d . . .
H81 H 0.3113 0.4415 0.5966 0.051 Uiso 1 1 calc R . .
C98 C 0.3144(13) 0.1332(12) 0.5921(6) 0.040 Uani 1 1 d . . .
H98A H 0.3560 0.1320 0.5777 0.049 Uiso 1 1 calc R . .
H98B H 0.2862 0.0812 0.5940 0.049 Uiso 1 1 calc R . .
C210 C 0.4388(13) 0.4285(13) 0.8932(6) 0.041 Uani 1 1 d . . .
H210 H 0.4728 0.3963 0.8910 0.050 Uiso 1 1 calc R . .
C126 C 0.8687(14) 0.8155(14) 0.7164(7) 0.051 Uani 1 1 d . . .
C38 C 0.1545(13) 0.2058(13) 0.8467(6) 0.043 Uani 1 1 d . . .
C8 C 0.5660(12) 0.3102(11) 0.8089(5) 0.032 Uani 1 1 d . . .
C95 C 0.6014(13) 0.2293(12) 0.5336(6) 0.039 Uani 1 1 d . . .
H95 H 0.6440 0.2159 0.5250 0.047 Uiso 1 1 calc R . .
C91 C 0.3571(13) 0.4004(13) 0.5213(6) 0.042 Uani 1 1 d . . .
H91 H 0.3183 0.3592 0.5112 0.051 Uiso 1 1 calc R . .
C143 C 0.9055(14) 0.4820(13) 0.6501(6) 0.045 Uani 1 1 d . . .
H143 H 0.8547 0.4859 0.6410 0.053 Uiso 1 1 calc R . .
C31 C 0.3369(14) 0.8501(13) 0.5488(6) 0.045 Uani 1 1 d . . .
H31 H 0.2820 0.8354 0.5451 0.054 Uiso 1 1 calc R . .
C3 C 0.3870(11) 0.3079(11) 0.6942(5) 0.030 Uani 1 1 d . . .
C100 C 0.3024(12) 0.2441(12) 0.5526(6) 0.039 Uani 1 1 d . . .
H10A H 0.2665 0.2766 0.5453 0.047 Uiso 1 1 calc R . .
H10B H 0.3156 0.2234 0.5312 0.047 Uiso 1 1 calc R . .
C216 C 0.1843(13) 0.4244(13) 0.8179(6) 0.046 Uani 1 1 d . . .
H216 H 0.1979 0.3899 0.8341 0.055 Uiso 1 1 calc R . .
C141 C 1.0086(15) 0.4121(15) 0.6544(7) 0.055 Uani 1 1 d . . .
H141 H 1.0273 0.3702 0.6480 0.067 Uiso 1 1 calc R . .
C93 C 0.5249(12) 0.2354(11) 0.5818(5) 0.033 Uani 1 1 d . . .
H93 H 0.5163 0.2256 0.6050 0.040 Uiso 1 1 calc R . .
C150 C 0.8643(14) 0.3387(14) 0.7703(6) 0.052 Uani 1 1 d . . .
H150 H 0.8409 0.3783 0.7755 0.062 Uiso 1 1 calc R . .
C96 C 0.5531(12) 0.2627(12) 0.5127(6) 0.039 Uani 1 1 d . . .
H96 H 0.5619 0.2715 0.4895 0.047 Uiso 1 1 calc R . .
C94 C 0.5882(13) 0.2144(13) 0.5684(6) 0.044 Uani 1 1 d . . .
H94 H 0.6215 0.1903 0.5828 0.052 Uiso 1 1 calc R . .
C33 C 0.3830(12) 0.6953(12) 0.6071(6) 0.038 Uani 1 1 d . . .
C104 C 0.8988(14) 0.7915(13) 0.6467(6) 0.046 Uani 1 1 d . . .
H10C H 0.8723 0.8031 0.6241 0.056 Uiso 1 1 calc R . .
H10D H 0.9332 0.8384 0.6569 0.056 Uiso 1 1 calc R . .
C219 C 0.1443(14) 0.5295(14) 0.7710(7) 0.052 Uani 1 1 d . . .
H219 H 0.1309 0.5648 0.7552 0.062 Uiso 1 1 calc R . .
C27 C 0.4638(12) 0.8283(12) 0.5739(5) 0.036 Uani 1 1 d . . .
H27 H 0.4944 0.8000 0.5872 0.044 Uiso 1 1 calc R . .
N9 N 0.7327(11) 0.4754(11) 0.8192(5) 0.049 Uani 1 1 d . . .
C188 C 0.3084(15) 0.7344(14) 0.8323(7) 0.053 Uani 1 1 d . . .
C89 C 0.4258(15) 0.5307(15) 0.5201(7) 0.055 Uani 1 1 d . . .
H89 H 0.4325 0.5767 0.5090 0.066 Uiso 1 1 calc R . .
C105 C 0.9850(15) 0.7015(14) 0.6741(7) 0.053 Uani 1 1 d . . .
H10E H 0.9976 0.7413 0.6926 0.064 Uiso 1 1 calc R . .
H10F H 1.0339 0.6872 0.6707 0.064 Uiso 1 1 calc R . .
N25 N 0.8106(12) 0.6519(11) 0.8356(5) 0.050 Uani 1 1 d . . .
C142 C 0.9346(15) 0.4183(14) 0.6408(7) 0.053 Uani 1 1 d . . .
H142 H 0.9028 0.3804 0.6253 0.064 Uiso 1 1 calc R . .
C209 C 0.4422(13) 0.4948(12) 0.8730(6) 0.040 Uani 1 1 d . . .
H209 H 0.4754 0.5035 0.8556 0.048 Uiso 1 1 calc R . .
C39 C 0.2065(14) 0.2599(13) 0.8712(6) 0.048 Uani 1 1 d . . .
H39 H 0.2556 0.2833 0.8651 0.058 Uiso 1 1 calc R . .
C117 C 0.6637(14) 0.7776(13) 0.5463(6) 0.048 Uani 1 1 d . . .
H117 H 0.6342 0.8084 0.5341 0.058 Uiso 1 1 calc R . .
C68 C 0.2978(15) 0.1142(14) 0.6656(7) 0.054 Uani 1 1 d . . .
C149 C 0.8672(14) 0.2787(14) 0.7951(6) 0.049 Uani 1 1 d . . .
C187 C 0.2655(14) 0.7050(13) 0.7957(6) 0.046 Uani 1 1 d . . .
H18A H 0.2736 0.7461 0.7795 0.055 Uiso 1 1 calc R . .
H18B H 0.2093 0.6904 0.7971 0.055 Uiso 1 1 calc R . .
C79 C 0.1263(13) 0.2358(13) 0.6661(6) 0.043 Uani 1 1 d . . .
H79 H 0.1042 0.1996 0.6479 0.051 Uiso 1 1 calc R . .
C110 C 0.6965(14) 0.4232(14) 0.5689(6) 0.048 Uani 1 1 d . . .
H110 H 0.6523 0.3862 0.5724 0.058 Uiso 1 1 calc R . .
C83 C 0.1451(16) 0.4802(16) 0.5641(7) 0.064 Uani 1 1 d . . .
H83 H 0.1236 0.5181 0.5532 0.077 Uiso 1 1 calc R . .
C213 C 0.3431(15) 0.5274(14) 0.9042(7) 0.053 Uani 1 1 d . . .
H213 H 0.3106 0.5603 0.9079 0.064 Uiso 1 1 calc R . .
C112 C 0.8048(15) 0.4652(14) 0.5374(7) 0.054 Uani 1 1 d . . .
H112 H 0.8343 0.4586 0.5194 0.064 Uiso 1 1 calc R . .
C225 C 0.2285(14) 0.6778(14) 0.7122(7) 0.051 Uani 1 1 d . . .
H225 H 0.2180 0.7169 0.7256 0.061 Uiso 1 1 calc R . .
C113 C 0.8257(15) 0.5318(14) 0.5596(6) 0.053 Uani 1 1 d . . .
H113 H 0.8705 0.5686 0.5566 0.063 Uiso 1 1 calc R . .
C152 C 0.9290(17) 0.2826(17) 0.7316(8) 0.070 Uani 1 1 d . . .
H152 H 0.9479 0.2826 0.7099 0.084 Uiso 1 1 calc R . .
C106 C 0.9523(14) 0.7343(14) 0.6392(6) 0.048 Uani 1 1 d . . .
C88 C 0.4714(15) 0.5241(14) 0.5507(7) 0.052 Uani 1 1 d . . .
H88 H 0.5099 0.5655 0.5607 0.062 Uiso 1 1 calc R . .
C222 C 0.2571(14) 0.5596(14) 0.6717(6) 0.049 Uani 1 1 d . . .
H222 H 0.2654 0.5197 0.6581 0.059 Uiso 1 1 calc R . .
C99 C 0.2067(13) 0.2072(12) 0.5972(6) 0.042 Uani 1 1 d . . .
H99A H 0.1910 0.1678 0.6135 0.050 Uiso 1 1 calc R . .
H99B H 0.1587 0.2135 0.5829 0.050 Uiso 1 1 calc R . .
C111 C 0.7396(15) 0.4102(15) 0.5430(7) 0.056 Uani 1 1 d . . .
H111 H 0.7254 0.3651 0.5293 0.067 Uiso 1 1 calc R . .
C90 C 0.3697(14) 0.4693(13) 0.5054(7) 0.049 Uani 1 1 d . . .
H90 H 0.3391 0.4742 0.4840 0.059 Uiso 1 1 calc R . .
C115 C 0.7895(14) 0.7483(13) 0.5653(6) 0.044 Uani 1 1 d . . .
H115 H 0.8440 0.7573 0.5656 0.052 Uiso 1 1 calc R . .
C217 C 0.1077(15) 0.4130(14) 0.8013(6) 0.052 Uani 1 1 d . . .
H217 H 0.0698 0.3705 0.8055 0.062 Uiso 1 1 calc R . .
C69 C 0.2661(14) 0.1457(14) 0.6917(6) 0.048 Uani 1 1 d . . .
H69 H 0.2788 0.1982 0.6952 0.057 Uiso 1 1 calc R . .
C32 C 0.3433(14) 0.7362(14) 0.5856(6) 0.049 Uani 1 1 d . . .
C102 C 0.2044(15) 0.1243(14) 0.5449(7) 0.053 Uani 1 1 d . . .
H10G H 0.1690 0.0864 0.5560 0.079 Uiso 1 1 calc R . .
H10H H 0.2358 0.1003 0.5316 0.079 Uiso 1 1 calc R . .
H10I H 0.1744 0.1519 0.5293 0.079 Uiso 1 1 calc R . .
C46 C 0.1218(16) 0.1360(15) 0.7898(7) 0.057 Uani 1 1 d . . .
C221 C 0.2794(15) 0.5652(15) 0.7082(7) 0.056 Uani 1 1 d . . .
H221 H 0.3042 0.5294 0.7192 0.067 Uiso 1 1 calc R . .
C173 C 0.6784(15) 0.1030(14) 0.7841(7) 0.052 Uani 1 1 d . . .
C119 C 0.6691(12) 0.6766(12) 0.5831(6) 0.038 Uani 1 1 d . . .
H119 H 0.6430 0.6368 0.5953 0.046 Uiso 1 1 calc R . .
C185 C 0.3881(15) 0.7930(15) 0.8293(7) 0.060 Uani 1 1 d . . .
H18C H 0.4171 0.8042 0.8529 0.072 Uiso 1 1 calc R . .
H18D H 0.3752 0.8398 0.8209 0.072 Uiso 1 1 calc R . .
C80 C 0.2096(13) 0.3680(12) 0.5984(6) 0.040 Uani 1 1 d . . .
C154 C 0.9072(15) 0.2242(15) 0.7866(7) 0.058 Uani 1 1 d . . .
H154 H 0.9138 0.1873 0.8028 0.070 Uiso 1 1 calc R . .
C82 C 0.2277(14) 0.4896(13) 0.5722(6) 0.046 Uani 1 1 d . . .
H82 H 0.2618 0.5327 0.5656 0.055 Uiso 1 1 calc R . .
C76 C 0.1875(14) 0.3465(14) 0.7184