####################################################################### 
# 
# This file contains crystal structure data downloaded from the 
# Cambridge Structural Database (CSD) hosted by the Cambridge 
# Crystallographic Data Centre (CCDC).
# 
# Full information about CCDC data access policies and citation 
# guidelines are available at http://www.ccdc.cam.ac.uk/access/V1 
# 
# Audit and citation data items may have been added by the CCDC. 
# Please retain this information to preserve the provenance of 
# this file and to allow appropriate attribution of the data. 
# 
#######################################################################

data_compound4
_audit_block_doi                 10.5517/ccwcfj5
_database_code_depnum_ccdc_archive 'CCDC 815347'
loop_
_citation_id
_citation_doi
_citation_year
1 10.1016/j.poly.2011.09.005 2012
_audit_update_record             
;
2011-03-03 deposited with the CCDC.	2024-07-12 downloaded from the CCDC.
;
#TrackingRef '- crystal.cif'


_audit_creation_method           SHELXL-97
_chemical_name_systematic        
;
?
;
_chemical_name_common            ?
_chemical_melting_point          ?
_chemical_formula_moiety         '2(C52 H62 Cd3 N8 O8), 2(C H4 O), 12(H2 O)'
_chemical_formula_sum            'C106 H158 Cd6 N16 O29'
_chemical_formula_weight         2794.88

loop_
_atom_type_symbol
_atom_type_description
_atom_type_scat_dispersion_real
_atom_type_scat_dispersion_imag
_atom_type_scat_source
C C 0.0033 0.0016 'International Tables Vol C Tables 4.2.6.8 and 6.1.1.4'
H H 0.0000 0.0000 'International Tables Vol C Tables 4.2.6.8 and 6.1.1.4'
N N 0.0061 0.0033 'International Tables Vol C Tables 4.2.6.8 and 6.1.1.4'
O O 0.0106 0.0060 'International Tables Vol C Tables 4.2.6.8 and 6.1.1.4'
Cd Cd -0.8075 1.2024 'International Tables Vol C Tables 4.2.6.8 and 6.1.1.4'

_symmetry_cell_setting           orthorhombic
_symmetry_space_group_name_H-M   'P b c a '
_symmetry_space_group_name_Hall  '-P 2ac 2ab '

loop_
_symmetry_equiv_pos_as_xyz
'x, y, z'
'-x+1/2, -y, z+1/2'
'x+1/2, -y+1/2, -z'
'-x, y+1/2, -z+1/2'
'-x, -y, -z'
'x-1/2, y, -z-1/2'
'-x-1/2, y-1/2, z'
'x, -y-1/2, z-1/2'

_cell_length_a                   15.0797(8)
_cell_length_b                   23.6946(8)
_cell_length_c                   37.9955(12)
_cell_angle_alpha                90.00
_cell_angle_beta                 90.00
_cell_angle_gamma                90.00
_cell_volume                     13576.1(10)
_cell_formula_units_Z            4
_cell_measurement_temperature    293(2)
_cell_measurement_reflns_used    12256
_cell_measurement_theta_min      4.3
_cell_measurement_theta_max      25.6

_exptl_crystal_description       block
_exptl_crystal_colour            colorless
_exptl_crystal_size_max          0.26
_exptl_crystal_size_mid          0.22
_exptl_crystal_size_min          0.18
_exptl_crystal_density_meas      ?
_exptl_crystal_density_diffrn    1.367
_exptl_crystal_density_method    'not measured'
_exptl_crystal_F_000             5704
_exptl_absorpt_coefficient_mu    0.992
_exptl_absorpt_correction_type   multi-scan
_exptl_absorpt_correction_T_min  0.768
_exptl_absorpt_correction_T_max  0.831
_exptl_absorpt_process_details   
;
CrysAlis (Oxford Diffraction, 2006)
;


_exptl_special_details           
;
?
;

_diffrn_ambient_temperature      293(2)
_diffrn_radiation_wavelength     0.71073
_diffrn_radiation_type           MoK\a
_diffrn_radiation_source         'fine-focus sealed tube'
_diffrn_radiation_monochromator  graphite
_diffrn_measurement_device_type  'Oxford Diffraction Gemini R Ultra'
_diffrn_measurement_method       '\w scan'
_diffrn_detector_area_resol_mean 10.0
_diffrn_standards_number         ?
_diffrn_standards_interval_count ?
_diffrn_standards_interval_time  ?
_diffrn_standards_decay_%        ?
_diffrn_reflns_number            53215
_diffrn_reflns_av_R_equivalents  0.0664
_diffrn_reflns_av_sigmaI/netI    0.0680
_diffrn_reflns_limit_h_min       -15
_diffrn_reflns_limit_h_max       18
_diffrn_reflns_limit_k_min       -28
_diffrn_reflns_limit_k_max       19
_diffrn_reflns_limit_l_min       -34
_diffrn_reflns_limit_l_max       45
_diffrn_reflns_theta_min         4.34
_diffrn_reflns_theta_max         25.35
_reflns_number_total             12256
_reflns_number_gt                7396
_reflns_threshold_expression     >2sigma(I)

_computing_data_collection       'CrysAlis (Oxford Diffraction, 2006)'
_computing_cell_refinement       CrysAlis
_computing_data_reduction        CrysAlis
_computing_structure_solution    'SHELXS-97 (Sheldrick, 1997)'
_computing_structure_refinement  'SHELXL-97 (Sheldrick, 1997)'
_computing_molecular_graphics    ?
_computing_publication_material  ?

_refine_special_details          
;
Refinement of F^2^ against ALL reflections. The weighted R-factor wR and
goodness of fit S are based on F^2^, conventional R-factors R are based
on F, with F set to zero for negative F^2^. The threshold expression of
F^2^ > 2sigma(F^2^) is used only for calculating R-factors(gt) etc. and is
not relevant to the choice of reflections for refinement. R-factors based
on F^2^ are statistically about twice as large as those based on F, and R-
factors based on ALL data will be even larger.
;

_refine_ls_structure_factor_coef Fsqd
_refine_ls_matrix_type           full
_refine_ls_weighting_scheme      calc
_refine_ls_weighting_details     
'calc w=1/[\s^2^(Fo^2^)+(0.0982P)^2^+11.0762P] where P=(Fo^2^+2Fc^2^)/3'
_atom_sites_solution_primary     direct
_atom_sites_solution_secondary   difmap
_atom_sites_solution_hydrogens   geom
_refine_ls_hydrogen_treatment    mixed
_refine_ls_extinction_method     none
_refine_ls_extinction_coef       ?
_refine_ls_number_reflns         12256
_refine_ls_number_parameters     709
_refine_ls_number_restraints     0
_refine_ls_R_factor_all          0.1161
_refine_ls_R_factor_gt           0.0675
_refine_ls_wR_factor_ref         0.1832
_refine_ls_wR_factor_gt          0.1641
_refine_ls_goodness_of_fit_ref   1.021
_refine_ls_restrained_S_all      1.021
_refine_ls_shift/su_max          0.002
_refine_ls_shift/su_mean         0.000

loop_
_atom_site_label
_atom_site_type_symbol
_atom_site_fract_x
_atom_site_fract_y
_atom_site_fract_z
_atom_site_U_iso_or_equiv
_atom_site_adp_type
_atom_site_occupancy
_atom_site_symmetry_multiplicity
_atom_site_calc_flag
_atom_site_refinement_flags
_atom_site_disorder_assembly
_atom_site_disorder_group
Cd1 Cd 0.36028(4) 0.22770(2) 0.653172(15) 0.0615(2) Uani 1 1 d . . .
Cd2 Cd 0.58087(4) 0.14173(2) 0.606470(12) 0.04681(17) Uani 1 1 d . . .
Cd3 Cd 0.82002(4) 0.06161(2) 0.565641(13) 0.05271(18) Uani 1 1 d . . .
C1 C 0.8245(6) 0.1717(4) 0.3803(2) 0.070(2) Uani 1 1 d . . .
C2 C 0.8084(5) 0.1179(3) 0.4001(2) 0.0559(19) Uani 1 1 d . . .
C3 C 0.8149(5) 0.1170(3) 0.43628(19) 0.0508(17) Uani 1 1 d . . .
H3 H 0.8283 0.1499 0.4485 0.061 Uiso 1 1 calc R . .
C4 C 0.8015(5) 0.0671(3) 0.45442(19) 0.0533(19) Uani 1 1 d . . .
C5 C 0.7790(5) 0.0188(3) 0.43626(19) 0.0543(18) Uani 1 1 d . . .
H5 H 0.7689 -0.0149 0.4482 0.065 Uiso 1 1 calc R . .
C6 C 0.7717(5) 0.0213(4) 0.4001(2) 0.065(2) Uani 1 1 d . . .
H6 H 0.7574 -0.0113 0.3878 0.078 Uiso 1 1 calc R . .
C7 C 0.7848(5) 0.0698(4) 0.3820(2) 0.060(2) Uani 1 1 d . . .
H7 H 0.7778 0.0706 0.3577 0.072 Uiso 1 1 calc R . .
C8 C 0.8086(5) 0.0650(4) 0.4943(2) 0.061(2) Uani 1 1 d . . .
C9 C 0.9561(5) 0.0815(4) 0.6976(2) 0.061(2) Uani 1 1 d . . .
C10 C 1.0004(5) 0.0685(4) 0.6659(2) 0.063(2) Uani 1 1 d . . .
H10 H 1.0521 0.0471 0.6668 0.076 Uiso 1 1 calc R . .
C11 C 0.9689(5) 0.0867(3) 0.6329(2) 0.0550(19) Uani 1 1 d . . .
C12 C 0.8892(5) 0.1162(3) 0.6314(2) 0.0539(19) Uani 1 1 d . . .
C13 C 0.8446(5) 0.1300(3) 0.66330(19) 0.0520(18) Uani 1 1 d . . .
C14 C 0.8805(5) 0.1111(4) 0.6944(2) 0.059(2) Uani 1 1 d . . .
H14 H 0.8499 0.1195 0.7150 0.071 Uiso 1 1 calc R . .
C15 C 0.9922(6) 0.0612(5) 0.7324(2) 0.091(3) Uani 1 1 d . . .
H15A H 1.0473 0.0418 0.7286 0.136 Uiso 1 1 calc R . .
H15B H 0.9504 0.0359 0.7431 0.136 Uiso 1 1 calc R . .
H15C H 1.0020 0.0929 0.7476 0.136 Uiso 1 1 calc R . .
C16 C 1.0179(6) 0.0729(4) 0.5997(2) 0.073(2) Uani 1 1 d . . .
H16A H 1.0282 0.1074 0.5866 0.087 Uiso 1 1 calc R . .
H16B H 1.0751 0.0568 0.6057 0.087 Uiso 1 1 calc R . .
C17 C 0.7590(5) 0.1615(3) 0.6604(2) 0.060(2) Uani 1 1 d . . .
H17A H 0.7452 0.1792 0.6828 0.072 Uiso 1 1 calc R . .
H17B H 0.7644 0.1910 0.6429 0.072 Uiso 1 1 calc R . .
C18 C 0.6452(5) 0.0943(4) 0.68043(18) 0.062(2) Uani 1 1 d . . .
H18A H 0.6217 0.1227 0.6963 0.074 Uiso 1 1 calc R . .
H18B H 0.6902 0.0732 0.6931 0.074 Uiso 1 1 calc R . .
C19 C 0.5711(5) 0.0545(3) 0.6699(2) 0.058(2) Uani 1 1 d . . .
H19A H 0.5958 0.0220 0.6579 0.069 Uiso 1 1 calc R . .
H19B H 0.5406 0.0413 0.6908 0.069 Uiso 1 1 calc R . .
C20 C 0.4303(5) 0.0460(3) 0.63793(19) 0.0555(19) Uani 1 1 d . . .
H20A H 0.4081 0.0558 0.6148 0.067 Uiso 1 1 calc R . .
H20B H 0.4492 0.0069 0.6374 0.067 Uiso 1 1 calc R . .
C21 C 0.3578(5) 0.0530(3) 0.66461(19) 0.0489(17) Uani 1 1 d . . .
C22 C 0.3414(5) 0.0144(3) 0.6913(2) 0.060(2) Uani 1 1 d . . .
H22 H 0.3735 -0.0192 0.6917 0.071 Uiso 1 1 calc R . .
C23 C 0.2785(6) 0.0243(4) 0.7173(2) 0.065(2) Uani 1 1 d . . .
C24 C 0.2623(8) -0.0193(4) 0.7467(3) 0.098(3) Uani 1 1 d . . .
H24A H 0.2166 -0.0059 0.7622 0.146 Uiso 1 1 calc R . .
H24B H 0.3161 -0.0248 0.7598 0.146 Uiso 1 1 calc R . .
H24C H 0.2443 -0.0545 0.7365 0.146 Uiso 1 1 calc R . .
C25 C 0.2318(6) 0.0740(4) 0.7156(2) 0.066(2) Uani 1 1 d . . .
H25 H 0.1892 0.0811 0.7327 0.080 Uiso 1 1 calc R . .
C26 C 0.2454(5) 0.1143(4) 0.6894(2) 0.067(2) Uani 1 1 d . . .
C27 C 0.3109(5) 0.1037(3) 0.66331(19) 0.0516(18) Uani 1 1 d . . .
C28 C 0.1888(7) 0.1660(5) 0.6869(3) 0.097(3) Uani 1 1 d . . .
H28A H 0.1599 0.1664 0.6641 0.116 Uiso 1 1 calc R . .
H28B H 0.1428 0.1638 0.7047 0.116 Uiso 1 1 calc R . .
C29 C 0.2659(9) 0.2306(5) 0.7275(3) 0.111(4) Uani 1 1 d . . .
H29A H 0.2576 0.2703 0.7327 0.133 Uiso 1 1 calc R . .
H29B H 0.2287 0.2091 0.7435 0.133 Uiso 1 1 calc R . .
C30 C 0.3574(10) 0.2157(5) 0.7333(2) 0.107(4) Uani 1 1 d . . .
H30A H 0.3642 0.1753 0.7304 0.128 Uiso 1 1 calc R . .
H30B H 0.3731 0.2249 0.7574 0.128 Uiso 1 1 calc R . .
C31 C 0.5096(6) 0.2270(4) 0.7141(2) 0.074(3) Uani 1 1 d . . .
H31A H 0.5131 0.1865 0.7107 0.088 Uiso 1 1 calc R . .
H31B H 0.5277 0.2351 0.7380 0.088 Uiso 1 1 calc R . .
C32 C 0.5733(6) 0.2556(3) 0.68894(19) 0.059(2) Uani 1 1 d . . .
C33 C 0.5630(6) 0.2480(3) 0.6521(2) 0.055(2) Uani 1 1 d . . .
C34 C 0.6177(6) 0.2774(3) 0.6291(2) 0.057(2) Uani 1 1 d . . .
C35 C 0.6841(7) 0.3106(3) 0.6424(2) 0.072(2) Uani 1 1 d . . .
H35 H 0.7219 0.3285 0.6266 0.087 Uiso 1 1 calc R . .
C36 C 0.6981(7) 0.3190(3) 0.6776(3) 0.078(3) Uani 1 1 d . . .
C37 C 0.6392(7) 0.2923(4) 0.7001(2) 0.071(2) Uani 1 1 d . . .
H37 H 0.6441 0.2994 0.7240 0.086 Uiso 1 1 calc R . .
C38 C 0.7720(9) 0.3552(5) 0.6917(3) 0.122(5) Uani 1 1 d . . .
H38A H 0.8063 0.3697 0.6724 0.184 Uiso 1 1 calc R . .
H38B H 0.8094 0.3330 0.7067 0.184 Uiso 1 1 calc R . .
H38C H 0.7474 0.3860 0.7049 0.184 Uiso 1 1 calc R . .
C39 C 0.5993(6) 0.2727(3) 0.5902(2) 0.065(2) Uani 1 1 d . . .
H39A H 0.5359 0.2754 0.5861 0.078 Uiso 1 1 calc R . .
H39B H 0.6275 0.3039 0.5780 0.078 Uiso 1 1 calc R . .
C40 C 0.6042(8) 0.2096(4) 0.5392(2) 0.082(3) Uani 1 1 d . . .
H40A H 0.6442 0.1832 0.5279 0.099 Uiso 1 1 calc R . .
H40B H 0.6073 0.2450 0.5265 0.099 Uiso 1 1 calc R . .
C41 C 0.5099(7) 0.1867(4) 0.5373(2) 0.078(3) Uani 1 1 d . . .
H41A H 0.4696 0.2132 0.5483 0.094 Uiso 1 1 calc R . .
H41B H 0.4926 0.1828 0.5128 0.094 Uiso 1 1 calc R . .
C42 C 0.5328(6) 0.0839(3) 0.53340(18) 0.058(2) Uani 1 1 d . . .
H42A H 0.5880 0.0938 0.5218 0.069 Uiso 1 1 calc R . .
H42B H 0.4891 0.0765 0.5152 0.069 Uiso 1 1 calc R . .
C43 C 0.5468(5) 0.0308(3) 0.55448(17) 0.0479(17) Uani 1 1 d . . .
C44 C 0.4887(6) -0.0146(3) 0.5524(2) 0.058(2) Uani 1 1 d . . .
H44 H 0.4374 -0.0106 0.5391 0.069 Uiso 1 1 calc R . .
C45 C 0.5035(6) -0.0647(3) 0.5689(2) 0.061(2) Uani 1 1 d . . .
C46 C 0.5802(5) -0.0692(3) 0.5892(2) 0.0541(19) Uani 1 1 d . . .
H46 H 0.5907 -0.1028 0.6012 0.065 Uiso 1 1 calc R . .
C47 C 0.6418(5) -0.0256(3) 0.59230(18) 0.0485(17) Uani 1 1 d . . .
C48 C 0.6226(5) 0.0259(3) 0.57512(17) 0.0463(17) Uani 1 1 d . . .
C49 C 0.4385(6) -0.1137(4) 0.5670(3) 0.081(3) Uani 1 1 d . . .
H49A H 0.4613 -0.1450 0.5803 0.122 Uiso 1 1 calc R . .
H49B H 0.4305 -0.1248 0.5429 0.122 Uiso 1 1 calc R . .
H49C H 0.3825 -0.1022 0.5767 0.122 Uiso 1 1 calc R . .
C50 C 0.7255(5) -0.0322(3) 0.61392(19) 0.0506(18) Uani 1 1 d . . .
H50A H 0.7275 -0.0029 0.6318 0.061 Uiso 1 1 calc R . .
H50B H 0.7246 -0.0684 0.6258 0.061 Uiso 1 1 calc R . .
C51 C 0.8871(5) -0.0383(4) 0.6120(2) 0.064(2) Uani 1 1 d . . .
H51A H 0.8892 -0.0772 0.6199 0.077 Uiso 1 1 calc R . .
H51B H 0.8880 -0.0142 0.6327 0.077 Uiso 1 1 calc R . .
C52 C 0.9672(6) -0.0257(4) 0.5893(2) 0.071(2) Uani 1 1 d . . .
H52A H 1.0208 -0.0335 0.6025 0.085 Uiso 1 1 calc R . .
H52B H 0.9667 -0.0505 0.5689 0.085 Uiso 1 1 calc R . .
C53 C 0.9787(17) 0.0952(11) 0.3041(7) 0.218(9) Uiso 1 1 d . . .
N1 N 0.4185(5) 0.2447(4) 0.70945(18) 0.072(2) Uani 1 1 d . . .
N2 N 0.2381(6) 0.2196(3) 0.6915(2) 0.090(3) Uani 1 1 d . . .
N3 N 0.5084(4) 0.0831(2) 0.64683(15) 0.0485(14) Uani 1 1 d . . .
N4 N 0.6863(4) 0.1222(2) 0.65041(15) 0.0474(14) Uani 1 1 d . . .
N5 N 0.9684(5) 0.0327(4) 0.5775(2) 0.070(2) Uani 1 1 d . . .
N6 N 0.8047(4) -0.0284(3) 0.59190(17) 0.0534(16) Uani 1 1 d . . .
N7 N 0.5030(6) 0.1320(3) 0.55481(18) 0.0562(18) Uani 1 1 d . . .
N8 N 0.6327(6) 0.2187(3) 0.57561(17) 0.0598(17) Uani 1 1 d . . .
O1 O 0.8015(5) 0.0193(2) 0.50910(14) 0.0824(19) Uani 1 1 d . . .
O2 O 0.8209(5) 0.1088(3) 0.51110(14) 0.0797(18) Uani 1 1 d . . .
O1W O 0.3007(6) 0.1241(3) 0.5695(2) 0.115(3) Uani 1 1 d . . .
O3 O 0.8337(5) 0.2176(3) 0.39651(17) 0.086(2) Uani 1 1 d . . .
O2W O 0.9028(10) 0.1221(6) 0.2909(4) 0.196(5) Uiso 1 1 d . . .
O4 O 0.8248(6) 0.1705(3) 0.34761(18) 0.114(3) Uani 1 1 d . . .
O3W O 0.7469(11) 0.2645(7) 0.4543(4) 0.225(6) Uiso 1 1 d . . .
O5 O 0.8539(4) 0.1327(2) 0.60097(13) 0.0607(14) Uani 1 1 d . . .
O4W O 0.8518(11) 0.2377(7) 0.5806(5) 0.236(6) Uiso 1 1 d . . .
O6 O 0.6757(3) 0.07111(19) 0.57988(12) 0.0499(12) Uani 1 1 d . . .
O5W O 0.8648(14) 0.2182(9) 0.5086(6) 0.147(7) Uiso 0.50 1 d P . .
O7 O 0.5033(3) 0.2102(2) 0.64009(13) 0.0562(13) Uani 1 1 d . . .
O6W O 0.9558(13) -0.0466(8) 0.4960(5) 0.138(6) Uiso 0.50 1 d P . .
O8 O 0.3260(4) 0.1410(2) 0.63828(14) 0.0686(15) Uani 1 1 d . . .
O7W O 0.096(2) 0.3099(15) 0.6892(9) 0.246(13) Uiso 0.50 1 d P . .
O8W O 0.306(2) 0.0900(13) 0.4955(8) 0.204(10) Uiso 0.50 1 d P . .
O9W O 0.775(2) -0.1146(14) 0.5292(9) 0.227(12) Uiso 0.50 1 d P . .
H1N H 0.425(4) 0.277(2) 0.7111(14) 0.011(15) Uiso 1 1 d . . .
H3N H 0.482(4) 0.119(3) 0.6590(17) 0.048(18) Uiso 1 1 d . . .
H5N H 0.986(4) 0.033(3) 0.5621(17) 0.018(18) Uiso 1 1 d . . .
H6N H 0.807(4) -0.057(3) 0.5806(17) 0.028(17) Uiso 1 1 d . . .
H7N H 0.458(5) 0.128(3) 0.561(2) 0.03(2) Uiso 1 1 d . . .
H8N H 0.691(6) 0.222(3) 0.569(2) 0.06(3) Uiso 1 1 d . . .

loop_
_atom_site_aniso_label
_atom_site_aniso_U_11
_atom_site_aniso_U_22
_atom_site_aniso_U_33
_atom_site_aniso_U_23
_atom_site_aniso_U_13
_atom_site_aniso_U_12
Cd1 0.0731(4) 0.0595(4) 0.0518(3) 0.0126(3) 0.0134(3) 0.0191(3)
Cd2 0.0612(4) 0.0454(3) 0.0338(3) 0.0021(2) 0.0007(2) 0.0075(2)
Cd3 0.0609(4) 0.0584(3) 0.0389(3) 0.0034(2) 0.0083(2) 0.0038(3)
C1 0.072(6) 0.079(6) 0.058(5) 0.032(5) -0.003(5) 0.002(5)
C2 0.048(5) 0.062(5) 0.058(5) 0.014(4) 0.003(4) -0.002(4)
C3 0.051(5) 0.057(4) 0.045(4) 0.005(3) -0.001(3) -0.005(4)
C4 0.048(5) 0.063(5) 0.048(4) 0.009(4) 0.001(3) -0.003(4)
C5 0.056(5) 0.055(4) 0.052(4) 0.007(4) 0.000(4) -0.012(4)
C6 0.061(6) 0.076(6) 0.057(5) -0.005(4) -0.006(4) -0.004(4)
C7 0.058(5) 0.080(6) 0.041(4) 0.006(4) -0.007(4) -0.007(4)
C8 0.059(5) 0.070(5) 0.052(4) 0.004(4) 0.012(4) -0.007(4)
C9 0.041(5) 0.084(6) 0.057(5) -0.002(4) -0.013(4) -0.006(4)
C10 0.049(5) 0.076(5) 0.064(5) -0.007(4) -0.009(4) 0.004(4)
C11 0.040(5) 0.061(5) 0.064(5) -0.001(4) 0.007(4) -0.008(4)
C12 0.056(5) 0.053(4) 0.052(4) 0.004(4) 0.000(4) -0.012(4)
C13 0.053(5) 0.053(4) 0.050(4) -0.012(3) -0.005(4) 0.004(3)
C14 0.050(5) 0.080(5) 0.047(4) -0.014(4) -0.005(4) -0.011(4)
C15 0.066(6) 0.140(9) 0.065(6) 0.006(6) -0.018(5) 0.001(6)
C16 0.060(6) 0.088(6) 0.070(6) 0.002(5) 0.016(5) -0.004(5)
C17 0.066(5) 0.057(5) 0.057(5) -0.013(4) -0.005(4) 0.003(4)
C18 0.061(5) 0.094(6) 0.030(4) 0.004(4) 0.005(3) 0.021(5)
C19 0.054(5) 0.073(5) 0.046(4) 0.012(4) 0.008(4) 0.011(4)
C20 0.065(5) 0.060(5) 0.041(4) -0.006(3) 0.002(4) -0.006(4)
C21 0.049(4) 0.049(4) 0.048(4) -0.006(3) 0.004(3) -0.005(3)
C22 0.071(6) 0.049(4) 0.058(5) 0.005(4) -0.003(4) -0.010(4)
C23 0.063(5) 0.072(6) 0.062(5) 0.009(4) 0.006(4) -0.019(5)
C24 0.109(8) 0.094(7) 0.090(7) 0.026(6) 0.021(6) -0.024(6)
C25 0.054(5) 0.084(6) 0.061(5) 0.007(4) 0.017(4) -0.009(5)
C26 0.055(5) 0.067(5) 0.079(6) 0.001(4) 0.008(5) 0.002(4)
C27 0.048(5) 0.060(5) 0.047(4) 0.004(4) 0.006(3) -0.004(4)
C28 0.072(7) 0.104(8) 0.114(9) 0.011(6) 0.024(6) 0.023(6)
C29 0.127(11) 0.106(9) 0.100(9) -0.007(7) 0.071(8) 0.011(7)
C30 0.168(13) 0.108(8) 0.045(5) 0.002(5) 0.033(7) 0.010(8)
C31 0.094(7) 0.084(6) 0.043(4) 0.004(4) 0.000(4) 0.033(5)
C32 0.085(6) 0.048(4) 0.044(4) 0.005(3) 0.000(4) 0.023(4)
C33 0.069(5) 0.038(4) 0.059(5) -0.006(3) 0.000(4) 0.009(4)
C34 0.081(6) 0.036(4) 0.054(4) 0.003(3) -0.002(4) 0.010(4)
C35 0.105(7) 0.045(4) 0.067(6) 0.001(4) 0.002(5) 0.007(5)
C36 0.108(8) 0.051(5) 0.074(6) 0.000(4) -0.019(6) 0.002(5)
C37 0.108(7) 0.059(5) 0.047(5) -0.009(4) -0.015(5) 0.003(5)
C38 0.156(12) 0.094(8) 0.118(9) -0.006(7) -0.057(