
#######################################################################
#
#                 Cambridge Crystallographic Data Centre
#                                CCDC
#
#######################################################################
#
# If this CIF has been generated from an entry in the Cambridge
# Structural Database, then it will include bibliographic, chemical,
# crystal, experimental, refinement or atomic coordinate data resulting
# from the CCDC's data processing and validation procedures.
#
#######################################################################

data_CSD_CIF_RATQUY
_audit_creation_date 1997-07-29
_audit_creation_method CSD-ConQuest-V1
_database_code_CSD RATQUY
_database_code_depnum_ccdc_archive 'CCDC 1246949'
_chemical_formula_sum 'C12 H16 Mo1'
_chemical_formula_moiety
;
C12 H16 Mo1
;
_journal_coden_Cambridge 4
_journal_volume 119
_journal_year 1997
_journal_page_first 4453
_journal_name_full 'J.Am.Chem.Soc. '
loop_
_publ_author_name
"Li-Sheng Wang"
"J.C.Fettinger"
"R.Poli"
_chemical_name_systematic
;
(\h^3^-Allyl)-(\h^4^-butadiene)-(\h^5^-cyclopentadienyl)-molybdenum(ii)
;
_chemical_name_common
;
Teaching Subset: Fundamental Chemistry, Symmetry
;
_cell_volume   1018.476
_exptl_crystal_colour 'brown-orange'
_exptl_crystal_density_diffrn 1.671
_exptl_special_details
;
Air-sensitive

;
_diffrn_ambient_temperature 153
#These two values have been output from a single CSD field.
_refine_ls_R_factor_gt 0.0163
_refine_ls_wR_factor_gt 0.0163
loop_
_citation_database_id_CSD
_citation_special_details
RATREJ "is a stereoisomer of this entry"
_symmetry_cell_setting monoclinic
_symmetry_space_group_name_H-M 'P 21/c'
_symmetry_Int_Tables_number 14
loop_
_symmetry_equiv_pos_site_id
_symmetry_equiv_pos_as_xyz
1 x,y,z
2 -x,1/2+y,1/2-z
3 -x,-y,-z
4 x,-1/2-y,-1/2+z
_cell_length_a 12.4437(5)
_cell_length_b 7.3498(4)
_cell_length_c 12.0043(5)
_cell_angle_alpha 90
_cell_angle_beta 111.927(3)
_cell_angle_gamma 90
_cell_formula_units_Z 4
loop_
_atom_type_symbol
_atom_type_radius_bond
C 0.68
H 0.23
Mo 1.47
loop_
_atom_site_label
_atom_site_type_symbol
_atom_site_fract_x
_atom_site_fract_y
_atom_site_fract_z
Mo1 Mo 0.751218(11) 0.15053(2) 0.249695(13)
C1 C 0.6413(2) 0.2818(3) 0.3469(2)
H1 H 0.6495(20) 0.2523(39) 0.4235(24)
C2 C 0.5655(2) 0.1966(3) 0.2408(2)
H2 H 0.5161(21) 0.0971(33) 0.2368(22)
C3 C 0.5761(2) 0.2919(3) 0.1430(2)
H3 H 0.5388(18) 0.2668(33) 0.0658(21)
C4 C 0.6566(2) 0.4289(3) 0.1882(2)
H4 H 0.6792(21) 0.5103(35) 0.1397(22)
C5 C 0.6967(2) 0.4235(3) 0.3128(2)
H5 H 0.7517(21) 0.5028(35) 0.3641(22)
C6 C 0.9394(2) 0.2142(3) 0.3700(2)
H6 H 0.9508(18) 0.2833(35) 0.4397(21)
H7 H 0.9833(20) 0.1128(34) 0.3786(21)
C7 C 0.9060(2) 0.3074(3) 0.2591(2)
H8 H 0.8947(19) 0.4394(32) 0.2601(20)
C8 C 0.8709(2) 0.2160(3) 0.1482(2)
H9 H 0.9151(18) 0.1048(30) 0.1393(19)
H10 H 0.8421(17) 0.2839(33) 0.0766(21)
C9 C 0.6696(2) -0.0781(3) 0.1188(2)
H11 H 0.6122(22) -0.1147(31) 0.1456(23)
H12 H 0.6466(18) -0.0610(31) 0.0347(21)
C10 C 0.7834(2) -0.1368(3) 0.1862(2)
H13 H 0.8337(20) -0.1595(28) 0.1462(21)
C11 C 0.8246(2) -0.1396(3) 0.3100(2)
H14 H 0.9014(21) -0.1636(28) 0.3510(21)
C12 C 0.7534(2) -0.0842(3) 0.3723(2)
H15 H 0.7881(19) -0.0715(31) 0.4549(21)
H16 H 0.6767(20) -0.1261(27) 0.3441(20)
#END
