####################################################################### 
# 
# This file contains crystal structure data downloaded from the 
# Cambridge Structural Database (CSD) hosted by the Cambridge 
# Crystallographic Data Centre (CCDC).
# 
# Full information about CCDC data access policies and citation 
# guidelines are available at http://www.ccdc.cam.ac.uk/access/V1 
# 
# Audit and citation data items may have been added by the CCDC. 
# Please retain this information to preserve the provenance of 
# this file and to allow appropriate attribution of the data. 
# 
#######################################################################

data_capiv
_audit_block_doi                 10.5517/cc7v1cg
_database_code_depnum_ccdc_archive 'CCDC 233565'
_audit_update_record             
;
2004-03-11 deposited with the CCDC.	2024-07-12 downloaded from the CCDC.
;

_audit_creation_method           SHELXL-97
_chemical_name_systematic        
;
?
;
_chemical_name_common            ?
_chemical_melting_point          ?
_chemical_formula_moiety         'Ca [(CH3)3COO]2 (H2O)5'
_chemical_formula_sum            'C10 H28 Ca O9'
_chemical_formula_weight         332.40

loop_
_atom_type_symbol
_atom_type_description
_atom_type_scat_dispersion_real
_atom_type_scat_dispersion_imag
_atom_type_scat_source
C C 0.0033 0.0016 'International Tables Vol C Tables 4.2.6.8 and 6.1.1.4'
H H 0.0000 0.0000 'International Tables Vol C Tables 4.2.6.8 and 6.1.1.4'
O O 0.0106 0.0060 'International Tables Vol C Tables 4.2.6.8 and 6.1.1.4'
Ca Ca 0.2262 0.3064 'International Tables Vol C Tables 4.2.6.8 and 6.1.1.4'

_symmetry_cell_setting           Monoclinic
_symmetry_space_group_name_H-M   P2(1)/c

loop_
_symmetry_equiv_pos_as_xyz
'x, y, z'
'-x, y+1/2, -z+1/2'
'-x, -y, -z'
'x, -y-1/2, z-1/2'

_cell_length_a                   11.448(3)
_cell_length_b                   24.185(6)
_cell_length_c                   6.5370(10)
_cell_angle_alpha                90.00
_cell_angle_beta                 106.41(3)
_cell_angle_gamma                90.00
_cell_volume                     1736.2(7)
_cell_formula_units_Z            4
_cell_measurement_temperature    180(2)
_cell_measurement_reflns_used    872
_cell_measurement_theta_min      5
_cell_measurement_theta_max      22

_exptl_crystal_description       ?
_exptl_crystal_colour            ?
_exptl_crystal_size_max          0.50
_exptl_crystal_size_mid          0.10
_exptl_crystal_size_min          0.05
_exptl_crystal_density_meas      ?
_exptl_crystal_density_diffrn    1.272
_exptl_crystal_density_method    'not measured'
_exptl_crystal_F_000             720
_exptl_absorpt_coefficient_mu    0.395
_exptl_absorpt_correction_type   none
_exptl_absorpt_correction_T_min  ?
_exptl_absorpt_correction_T_max  ?
_exptl_absorpt_process_details   ?

_exptl_special_details           
;
?
;

_diffrn_ambient_temperature      180(2)
_diffrn_radiation_wavelength     0.71073
_diffrn_radiation_type           MoK\a
_diffrn_radiation_source         'fine-focus sealed tube'
_diffrn_radiation_monochromator  graphite
_diffrn_measurement_device_type  IPDS(Stoe)
_diffrn_measurement_method       ?
_diffrn_detector_area_resol_mean ?
_diffrn_standards_number         ?
_diffrn_standards_interval_count ?
_diffrn_standards_interval_time  ?
_diffrn_standards_decay_%        ?
_diffrn_reflns_number            4139
_diffrn_reflns_av_R_equivalents  0.0517
_diffrn_reflns_av_sigmaI/netI    0.0690
_diffrn_reflns_limit_h_min       -13
_diffrn_reflns_limit_h_max       10
_diffrn_reflns_limit_k_min       -25
_diffrn_reflns_limit_k_max       28
_diffrn_reflns_limit_l_min       -7
_diffrn_reflns_limit_l_max       5
_diffrn_reflns_theta_min         3.13
_diffrn_reflns_theta_max         25.03
_reflns_number_total             2754
_reflns_number_gt                2170
_reflns_threshold_expression     >2sigma(I)

_computing_data_collection       ?
_computing_cell_refinement       ?
_computing_data_reduction        ?
_computing_structure_solution    'SHELXS-97 (Sheldrick, 1990)'
_computing_structure_refinement  'SHELXL-97 (Sheldrick, 1997)'
_computing_molecular_graphics    ?
_computing_publication_material  ?

_refine_special_details          
;
Refinement of F^2^ against ALL reflections.  The weighted R-factor wR and
goodness of fit S are based on F^2^, conventional R-factors R are based
on F, with F set to zero for negative F^2^. The threshold expression of
F^2^ > 2sigma(F^2^) is used only for calculating R-factors(gt) etc. and is
not relevant to the choice of reflections for refinement.  R-factors based
on F^2^ are statistically about twice as large as those based on F, and R-
factors based on ALL data will be even larger.
;

_refine_ls_structure_factor_coef Fsqd
_refine_ls_matrix_type           full
_refine_ls_weighting_scheme      calc
_refine_ls_weighting_details     
'calc w=1/[\s^2^(Fo^2^)+(0.0850P)^2^+0.0000P] where P=(Fo^2^+2Fc^2^)/3'
_atom_sites_solution_primary     direct
_atom_sites_solution_secondary   difmap
_atom_sites_solution_hydrogens   geom
_refine_ls_hydrogen_treatment    mixed
_refine_ls_extinction_method     none
_refine_ls_extinction_coef       ?
_refine_ls_number_reflns         2754
_refine_ls_number_parameters     218
_refine_ls_number_restraints     3
_refine_ls_R_factor_all          0.0689
_refine_ls_R_factor_gt           0.0514
_refine_ls_wR_factor_ref         0.1312
_refine_ls_wR_factor_gt          0.1254
_refine_ls_goodness_of_fit_ref   0.977
_refine_ls_restrained_S_all      0.978
_refine_ls_shift/su_max          0.012
_refine_ls_shift/su_mean         0.001

loop_
_atom_site_label
_atom_site_type_symbol
_atom_site_fract_x
_atom_site_fract_y
_atom_site_fract_z
_atom_site_U_iso_or_equiv
_atom_site_adp_type
_atom_site_occupancy
_atom_site_symmetry_multiplicity
_atom_site_calc_flag
_atom_site_refinement_flags
_atom_site_disorder_assembly
_atom_site_disorder_group
Ca Ca 0.75006(8) 0.21852(3) 0.82775(17) 0.0142(2) Uani 1 1 d . . .
O1 O 0.8054(3) 0.31224(12) 1.0232(6) 0.0216(8) Uani 1 1 d . . .
O2 O 0.7989(3) 0.30970(13) 0.6856(5) 0.0236(8) Uani 1 1 d . . .
O3 O 0.5907(2) 0.25119(15) 0.9974(6) 0.0173(6) Uani 1 1 d . . .
H3A H 0.571(6) 0.274(2) 0.961(10) 0.021 Uiso 1 1 d . . .
H3B H 0.548(5) 0.221(2) 1.044(9) 0.021 Uiso 1 1 d . . .
O4 O 0.6182(3) 0.13766(12) 0.7688(7) 0.0225(7) Uani 1 1 d . . .
H4A H 0.564(5) 0.1396(18) 0.839(11) 0.027 Uiso 1 1 d . . .
H4B H 0.588(6) 0.135(2) 0.662(11) 0.027 Uiso 1 1 d . . .
O5 O 0.9690(3) 0.21138(19) 0.9417(12) 0.0519(12) Uani 1 1 d . . .
H5A H 1.012(8) 0.218(3) 1.038(18) 0.062 Uiso 1 1 d . . .
H5B H 0.992(9) 0.227(3) 0.867(17) 0.062 Uiso 1 1 d . . .
O6 O 0.4569(3) 0.34320(13) 0.8571(6) 0.0286(8) Uani 1 1 d . . .
O7 O 0.4583(3) 0.34002(14) 0.5195(6) 0.0288(8) Uani 1 1 d . . .
O8 O 0.3043(4) 0.3137(2) 1.1126(10) 0.0544(11) Uani 1 1 d . . .
H81 H 0.343(10) 0.318(3) 1.016(16) 0.082 Uiso 1 1 d . . .
H82 H 0.341(9) 0.326(3) 1.213(18) 0.082 Uiso 1 1 d . . .
O9 O 1.1493(4) 0.2493(3) 1.2816(13) 0.0863(17) Uani 1 1 d D . .
H91 H 1.189(8) 0.2836(18) 1.280(19) 0.129 Uiso 1 1 d D . .
H92 H 1.211(6) 0.223(3) 1.331(19) 0.129 Uiso 1 1 d D . .
C1 C 0.8206(3) 0.33532(15) 0.8614(9) 0.0158(8) Uani 1 1 d . . .
C2 C 0.8689(4) 0.39466(15) 0.8779(9) 0.0228(9) Uani 1 1 d . . .
C3 C 0.9938(5) 0.3949(2) 1.0400(14) 0.0544(16) Uani 1 1 d . . .
H3C H 0.9864 0.3823 1.1784 0.082 Uiso 1 1 calc R . .
H3D H 1.0271 0.4324 1.0541 0.082 Uiso 1 1 calc R . .
H3E H 1.0483 0.3700 0.9921 0.082 Uiso 1 1 calc R . .
C4 C 0.8797(6) 0.41685(19) 0.6659(9) 0.0328(13) Uani 1 1 d . . .
H4A H 0.9072 0.4554 0.6837 0.049 Uiso 1 1 calc R . .
H4B H 0.8001 0.4149 0.5591 0.049 Uiso 1 1 calc R . .
H4C H 0.9387 0.3945 0.6186 0.049 Uiso 1 1 calc R . .
C5 C 0.7836(6) 0.43131(19) 0.9612(13) 0.0535(18) Uani 1 1 d . . .
H5B H 0.7852 0.4195 1.1054 0.080 Uiso 1 1 calc R . .
H5C H 0.7005 0.4281 0.8668 0.080 Uiso 1 1 calc R . .
H5D H 0.8104 0.4699 0.9649 0.080 Uiso 1 1 calc R . .
C6 C 0.4289(3) 0.36301(15) 0.6726(9) 0.0175(8) Uani 1 1 d . . .
C7 C 0.3520(4) 0.41649(15) 0.6272(10) 0.0240(9) Uani 1 1 d . . .
C8 C 0.4002(7) 0.4565(2) 0.8135(11) 0.0509(18) Uani 1 1 d . . .
H8A H 0.3901 0.4401 0.9445 0.076 Uiso 1 1 calc R . .
H8B H 0.3547 0.4913 0.7838 0.076 Uiso 1 1 calc R . .
H8C H 0.4868 0.4638 0.8315 0.076 Uiso 1 1 calc R . .
C9 C 0.2203(4) 0.4000(2) 0.6113(12) 0.052(2) Uani 1 1 d . . .
H9A H 0.1937 0.3711 0.5030 0.078 Uiso 1 1 calc R . .
H9B H 0.1673 0.4324 0.5710 0.078 Uiso 1 1 calc R . .
H9C H 0.2158 0.3861 0.7496 0.078 Uiso 1 1 calc R . .
C10 C 0.3577(7) 0.4432(3) 0.4209(11) 0.0522(19) Uani 1 1 d . . .
H10A H 0.3243 0.4178 0.3020 0.078 Uiso 1 1 calc R . .
H10B H 0.4426 0.4517 0.4289 0.078 Uiso 1 1 calc R . .
H10C H 0.3099 0.4774 0.3981 0.078 Uiso 1 1 calc R . .

loop_
_atom_site_aniso_label
_atom_site_aniso_U_11
_atom_site_aniso_U_22
_atom_site_aniso_U_33
_atom_site_aniso_U_23
_atom_site_aniso_U_13
_atom_site_aniso_U_12
Ca 0.0140(3) 0.0187(3) 0.0098(4) -0.0005(4) 0.0032(4) -0.0016(3)
O1 0.0224(17) 0.0254(15) 0.018(2) 0.0000(14) 0.0075(16) -0.0051(13)
O2 0.035(2) 0.0256(17) 0.008(2) -0.0027(13) 0.0018(16) -0.0067(13)
O3 0.0149(14) 0.0188(14) 0.0146(16) 0.0021(12) -0.0014(16) 0.0004(16)
O4 0.0216(16) 0.0279(14) 0.0187(17) -0.0038(16) 0.0068(19) -0.0042(11)
O5 0.0159(17) 0.069(3) 0.061(3) -0.012(3) -0.006(2) 0.0000(17)
O6 0.031(2) 0.0367(18) 0.016(2) 0.0032(16) 0.0024(18) 0.0107(15)
O7 0.034(2) 0.0343(18) 0.020(2) 0.0008(15) 0.0099(18) 0.0108(15)
O8 0.038(2) 0.085(3) 0.040(3) -0.008(3) 0.011(3) -0.0245(19)
O9 0.049(3) 0.091(3) 0.109(5) 0.001(3) 0.004(4) -0.004(4)
C1 0.0095(19) 0.0226(17) 0.017(2) 0.000(2) 0.006(2) -0.0013(14)
C2 0.024(2) 0.0241(18) 0.015(2) -0.001(2) -0.003(3) -0.0046(16)
C3 0.043(3) 0.048(3) 0.054(4) 0.012(3) -0.015(4) -0.024(2)
C4 0.052(3) 0.026(2) 0.025(3) 0.0033(19) 0.017(3) -0.012(2)
C5 0.077(4) 0.022(2) 0.080(5) -0.001(3) 0.052(4) 0.003(2)
C6 0.0108(18) 0.0258(18) 0.015(2) 0.001(2) 0.002(2) 0.0006(14)
C7 0.024(2) 0.0215(18) 0.027(3) 0.001(2) 0.007(3) 0.0080(15)
C8 0.064(4) 0.036(3) 0.044(4) -0.016(3) 0.002(4) 0.015(3)
C9 0.024(3) 0.058(3) 0.071(6) 0.014(3) 0.010(3) 0.015(2)
C10 0.080(5) 0.039(3) 0.044(4) 0.023(3) 0.027(4) 0.025(3)

_geom_special_details            
;
All esds (except the esd in the dihedral angle between two l.s. planes)
are estimated using the full covariance matrix.  The cell esds are taken
into account individually in the estimation of esds in distances, angles
and torsion angles; correlations between esds in cell parameters are only
used when they are defined by crystal symmetry.  An approximate (isotropic)
treatment of cell esds is used for estimating esds involving l.s. planes.
;

loop_
_geom_bond_atom_site_label_1
_geom_bond_atom_site_label_2
_geom_bond_distance
_geom_bond_site_symmetry_2
_geom_bond_publ_flag
Ca O2 2.347(3) 4_566 ?
Ca O1 2.373(4) 4_565 ?
Ca O5 2.410(4) . ?
Ca O4 2.434(3) . ?
Ca O3 2.510(3) 4_565 ?
Ca O3 2.515(3) . ?
Ca O2 2.516(3) . ?
Ca O1 2.591(3) . ?
Ca C1 2.929(4) . ?
Ca Ca 3.6058(7) 4_566 ?
Ca Ca 3.6058(7) 4_565 ?
O1 C1 1.251(6) . ?
O1 Ca 2.373(4) 4_566 ?
O2 C1 1.267(6) . ?
O2 Ca 2.347(3) 4_565 ?
O3 Ca 2.510(3) 4_566 ?
O6 C6 1.252(6) . ?
O7 C6 1.271(7) . ?
C1 C2 1.531(5) . ?
C2 C4 1.523(8) . ?
C2 C3 1.520(7) . ?
C2 C5 1.528(7) . ?
C6 C7 1.545(5) . ?
C7 C10 1.514(9) . ?
C7 C8 1.532(8) . ?
C7 C9 1.535(7) . ?

loop_
_geom_angle_atom_site_label_1
_geom_angle_atom_site_label_2
_geom_angle_atom_site_label_3
_geom_angle
_geom_angle_site_symmetry_1
_geom_angle_site_symmetry_3
_geom_angle_publ_flag
O2 Ca O1 134.43(10) 4_566 4_565 ?
O2 Ca O5 74.8(2) 4_566 . ?
O1 Ca O5 74.7(2) 4_565 . ?
O2 Ca O4 83.49(14) 4_566 . ?
O1 Ca O4 85.18(14) 4_565 . ?
O5 Ca O4 122.39(13) . . ?
O2 Ca O3 148.48(12) 4_566 4_565 ?
O1 Ca O3 70.80(12) 4_565 4_565 ?
O5 Ca O3 136.6(2) . 4_565 ?
O4 Ca O3 80.25(13) . 4_565 ?
O2 Ca O3 69.52(12) 4_566 . ?
O1 Ca O3 150.14(12) 4_565 . ?
O5 Ca O3 134.95(18) . . ?
O4 Ca O3 80.06(13) . . ?
O3 Ca O3 81.15(8) 4_565 . ?
O2 Ca O2 127.42(12) 4_566 . ?
O1 Ca O2 79.93(11) 4_565 . ?
O5 Ca O2 81.78(16) . . ?
O4 Ca O2 146.94(13) . . ?
O3 Ca O2 67.03(11) 4_565 . ?
O3 Ca O2 98.74(12) . . ?
O2 Ca O1 78.87(11) 4_566 . ?
O1 Ca O1 127.01(13) 4_565 . ?
O5 Ca O1 79.76(14) . . ?
O4 Ca O1 146.64(14) . . ?
O3 Ca O1 100.71(12) 4_565 . ?
O3 Ca O1 67.32(11) . . ?
O2 Ca O1 50.70(9) . . ?
O2 Ca C1 102.86(15) 4_566 . ?
O1 Ca C1 103.42(13) 4_565 . ?
O5 Ca C1 78.78(13) . . ?
O4 Ca C1 158.79(11) . . ?
O3 Ca C1 84.33(13) 4_565 . ?
O3 Ca C1 83.27(12) . . ?
O2 Ca C1 25.49(14) . . ?
O1 Ca C1 25.25(14) . . ?
O2 Ca Ca 43.99(8) 4_566 4_566 ?
O1 Ca Ca 164.00(9) 4_565 4_566 ?
O5 Ca Ca 90.93(17) . 4_566 ?
O4 Ca Ca 108.91(11) . 4_566 ?
O3 Ca Ca 118.06(9) 4_565 4_566 ?
O3 Ca Ca 44.10(8) . 4_566 ?
O2 Ca Ca 91.24(8) . 4_566 ?
O1 Ca Ca 41.09(8) . 4_566 ?
C1 Ca Ca 66.12(12) . 4_566 ?
O2 Ca Ca 164.80(9) 4_566 4_565 ?
O1 Ca Ca 45.85(8) 4_565 4_565 ?
O5 Ca Ca 92.54(18) . 4_565 ?
O4 Ca Ca 110.77(11) . 4_565 ?
O3 Ca Ca 44.21(8) 4_565 4_565 ?
O3 Ca Ca 116.92(9) . 4_565 ?
O2 Ca Ca 40.38(8) . 4_565 ?
O1 Ca Ca 90.85(9) . 4_565 ?
C1 Ca Ca 65.81(12) . 4_565 ?
Ca Ca Ca 130.04(4) 4_566 4_565 ?
C1 O1 Ca 169.5(3) . 4_566 ?
C1 O1 Ca 92.7(3) . . ?
Ca O1 Ca 93.06(10) 4_566 . ?
C1 O2 Ca 167.6(3) . 4_565 ?
C1 O2 Ca 95.8(3) . . ?
Ca O2 Ca 95.63(11) 4_565 . ?
Ca O3 Ca 91.69(9) 4_566 . ?
O1 C1 O2 120.7(3) . . ?
O1 C1 C2 119.5(5) . . ?
O2 C1 C2 119.8(5) . . ?
O1 C1 Ca 62.08(19) . . ?
O2 C1 Ca 58.7(2) . . ?
C2 C1 Ca 174.8(3) . . ?
C4 C2 C3 109.3(5) . . ?
C4 C2 C5 110.1(4) . . ?
C3 C2 C5 108.6(6) . . ?
C4 C2 C1 112.7(4) . . ?
C3 C2 C1 107.6(4) . . ?
C5 C2 C1 108.3(4) . . ?
O6 C6 O7 122.6(3) . . ?
O6 C6 C7 118.8(4) . . ?
O7 C6 C7 118.6(5) . . ?
C10 C7 C8 110.0(5) . . ?
C10 C7 C9 109.8(5) . . ?
C8 C7 C9 110.2(5) . . ?
C10 C7 C6 111.3(5) . . ?
C8 C7 C6 108.6(4) . . ?
C9 C7 C6 106.9(3) . . ?

_diffrn_measured_fraction_theta_max 0.896
_diffrn_reflns_theta_full        25.03
_diffrn_measured_fraction_theta_full 0.896
_refine_diff_density_max         0.619
_refine_diff_density_min         -0.486
_refine_diff_density_rms         0.083
