####################################################################### 
# 
# This file contains crystal structure data downloaded from the 
# Cambridge Structural Database (CSD) hosted by the Cambridge 
# Crystallographic Data Centre (CCDC).
# 
# Full information about CCDC data access policies and citation 
# guidelines are available at http://www.ccdc.cam.ac.uk/access/V1 
# 
# Audit and citation data items may have been added by the CCDC. 
# Please retain this information to preserve the provenance of 
# this file and to allow appropriate attribution of the data. 
# 
#######################################################################

data_rc342
_audit_block_doi                 10.5517/cc90bn8
_database_code_depnum_ccdc_archive 'CCDC 268449'
loop_
_citation_id
_citation_doi
_citation_year
1 10.1016/j.ica.2005.07.014 2005
_audit_update_record             
;
2005-04-10 deposited with the CCDC.	2024-07-12 downloaded from the CCDC.
;

_audit_creation_method           SHELXL-97
_chemical_name_systematic        
;
diaquo-squarate-(1,2-(4-pyridyl)-ethylene)-iron(II)
;
_chemical_name_common            ?
_chemical_melting_point          ?
_chemical_formula_moiety         ?
_chemical_formula_sum            'C16 H14 Fe N2 O6'
_chemical_formula_weight         386.14

loop_
_atom_type_symbol
_atom_type_description
_atom_type_scat_dispersion_real
_atom_type_scat_dispersion_imag
_atom_type_scat_source
C C 0.0033 0.0016 'International Tables Vol C Tables 4.2.6.8 and 6.1.1.4'
H H 0.0000 0.0000 'International Tables Vol C Tables 4.2.6.8 and 6.1.1.4'
O O 0.0106 0.0060 'International Tables Vol C Tables 4.2.6.8 and 6.1.1.4'
Fe Fe 0.3463 0.8444 'International Tables Vol C Tables 4.2.6.8 and 6.1.1.4'
N N 0.0061 0.0033 'International Tables Vol C Tables 4.2.6.8 and 6.1.1.4'

_symmetry_cell_setting           monoclinic
_symmetry_space_group_name_H-M   C2/c

loop_
_symmetry_equiv_pos_as_xyz
'x, y, z'
'-x, y, -z+1/2'
'x+1/2, y+1/2, z'
'-x+1/2, y+1/2, -z+1/2'
'-x, -y, -z'
'x, -y, z-1/2'
'-x+1/2, -y+1/2, -z'
'x+1/2, -y+1/2, z-1/2'

_cell_length_a                   22.751(4)
_cell_length_b                   11.680(3)
_cell_length_c                   7.978(3)
_cell_angle_alpha                90.00
_cell_angle_beta                 101.48(2)
_cell_angle_gamma                90.00
_cell_volume                     2077.6(10)
_cell_formula_units_Z            4
_cell_measurement_temperature    293(2)
_cell_measurement_reflns_used    ?
_cell_measurement_theta_min      ?
_cell_measurement_theta_max      ?

_exptl_crystal_description       ?
_exptl_crystal_colour            brown
_exptl_crystal_size_max          ?
_exptl_crystal_size_mid          ?
_exptl_crystal_size_min          ?
_exptl_crystal_density_meas      ?
_exptl_crystal_density_diffrn    1.234
_exptl_crystal_density_method    'not measured'
_exptl_crystal_F_000             792
_exptl_absorpt_coefficient_mu    0.754
_exptl_absorpt_correction_type   ?
_exptl_absorpt_correction_T_min  ?
_exptl_absorpt_correction_T_max  ?
_exptl_absorpt_process_details   ?

_exptl_special_details           
;
?
;

_diffrn_ambient_temperature      293(2)
_diffrn_radiation_wavelength     0.71073
_diffrn_radiation_type           Mok\a
_diffrn_radiation_source         'fine-focus sealed tube'
_diffrn_radiation_monochromator  graphite
_diffrn_measurement_device_type  'image plate dip1030'
_diffrn_measurement_method       'laser scanner'
_diffrn_detector_area_resol_mean ?
_diffrn_standards_number         ?
_diffrn_standards_interval_count ?
_diffrn_standards_interval_time  ?
_diffrn_standards_decay_%        ?
_diffrn_reflns_number            4458
_diffrn_reflns_av_R_equivalents  0.0486
_diffrn_reflns_av_sigmaI/netI    0.0954
_diffrn_reflns_limit_h_min       -31
_diffrn_reflns_limit_h_max       31
_diffrn_reflns_limit_k_min       -15
_diffrn_reflns_limit_k_max       14
_diffrn_reflns_limit_l_min       -9
_diffrn_reflns_limit_l_max       10
_diffrn_reflns_theta_min         3.12
_diffrn_reflns_theta_max         29.56
_reflns_number_total             2418
_reflns_number_gt                1252
_reflns_threshold_expression     >2sigma(I)

_computing_data_collection       'Nonius Xpress'
_computing_cell_refinement       'Denzo-Scalepack (Macromol. Crystall., 1997)'
_computing_data_reduction        'Denzo-Scalepack (Macromol. Crystall., 1997)'
_computing_structure_solution    'SHELX97 (Sheldrick, 1998)'
_computing_structure_refinement  'SHELX97 (Sheldrick, 1998)'
_computing_molecular_graphics    'Ortep3/windows (Farrugia,1997)'
_computing_publication_material  'Wingx 1.64.05 (Farrugia, 1999)'

_refine_special_details          
;
Refinement of F^2^ against ALL reflections. The weighted R-factor wR and
goodness of fit S are based on F^2^, conventional R-factors R are based
on F, with F set to zero for negative F^2^. The threshold expression of
F^2^ > 2sigma(F^2^) is used only for calculating R-factors(gt) etc. and is
not relevant to the choice of reflections for refinement. R-factors based
on F^2^ are statistically about twice as large as those based on F, and R-
factors based on ALL data will be even larger.
;

_refine_ls_structure_factor_coef Fsqd
_refine_ls_matrix_type           full
_refine_ls_weighting_scheme      calc
_refine_ls_weighting_details     
'calc w=1/[\s^2^(Fo^2^)+(0.0718P)^2^] where P=(Fo^2^+2Fc^2^)/3'
_atom_sites_solution_primary     direct
_atom_sites_solution_secondary   difmap
_atom_sites_solution_hydrogens   geom
_refine_ls_hydrogen_treatment    mixed
_refine_ls_extinction_method     none
_refine_ls_extinction_coef       ?
_refine_ls_number_reflns         2418
_refine_ls_number_parameters     121
_refine_ls_number_restraints     3
_refine_ls_R_factor_all          0.0934
_refine_ls_R_factor_gt           0.0503
_refine_ls_wR_factor_ref         0.1356
_refine_ls_wR_factor_gt          0.1218
_refine_ls_goodness_of_fit_ref   0.822
_refine_ls_restrained_S_all      0.822
_refine_ls_shift/su_max          0.000
_refine_ls_shift/su_mean         0.000

loop_
_atom_site_label
_atom_site_type_symbol
_atom_site_fract_x
_atom_site_fract_y
_atom_site_fract_z
_atom_site_U_iso_or_equiv
_atom_site_adp_type
_atom_site_occupancy
_atom_site_symmetry_multiplicity
_atom_site_calc_flag
_atom_site_refinement_flags
_atom_site_disorder_assembly
_atom_site_disorder_group
Fe Fe 0.2500 0.7500 0.0000 0.0376(2) Uani 1 2 d S . .
O1W O 0.19497(11) 0.8896(2) 0.0422(3) 0.0475(6) Uani 1 1 d D . .
H10 H 0.1994(17) 0.903(3) 0.158(2) 0.071 Uiso 1 1 d D . .
H11 H 0.1959(18) 0.958(2) -0.015(4) 0.071 Uiso 1 1 d D . .
O1 O 0.24411(11) 0.6701(2) 0.2349(2) 0.0488(6) Uani 1 1 d . . .
O2 O 0.20216(14) 0.9104(2) 0.3777(3) 0.0627(8) Uani 1 1 d . . .
N1 N 0.33112(13) 0.8367(3) 0.1413(3) 0.0500(8) Uani 1 1 d . . .
C1 C 0.3751(2) 0.7784(4) 0.2391(6) 0.0725(13) Uani 1 1 d . . .
H1 H 0.3731 0.6989 0.2384 0.087 Uiso 1 1 calc R . .
C2 C 0.4246(2) 0.8321(6) 0.3441(6) 0.0887(16) Uani 1 1 d . . .
H2 H 0.4545 0.7883 0.4109 0.106 Uiso 1 1 calc R . .
C3 C 0.4285(2) 0.9510(5) 0.3472(5) 0.0749(14) Uani 1 1 d . . .
C4 C 0.3832(2) 1.0090(5) 0.2478(6) 0.0784(14) Uani 1 1 d . . .
H4 H 0.3836 1.0886 0.2471 0.094 Uiso 1 1 calc R . .
C5 C 0.33616(19) 0.9503(4) 0.1466(5) 0.0630(11) Uani 1 1 d . . .
H5 H 0.3062 0.9931 0.0780 0.076 Uiso 1 1 calc R . .
C6 C 0.24723(16) 0.7149(3) 0.3803(4) 0.0416(8) Uani 1 1 d . . .
C7 C 0.22849(17) 0.8226(3) 0.4461(4) 0.0440(8) Uani 1 1 d . . .
C8 C 0.4783(2) 1.0149(7) 0.4535(6) 0.105(2) Uani 1 1 d . . .
H8 H 0.4743 1.0940 0.4445 0.126 Uiso 1 1 calc R . .

loop_
_atom_site_aniso_label
_atom_site_aniso_U_11
_atom_site_aniso_U_22
_atom_site_aniso_U_33
_atom_site_aniso_U_23
_atom_site_aniso_U_13
_atom_site_aniso_U_12
Fe 0.0406(4) 0.0402(4) 0.0292(3) -0.0020(3) 0.0000(2) -0.0060(4)
O1W 0.0595(16) 0.0444(15) 0.0372(11) 0.0013(10) 0.0066(10) 0.0000(12)
O1 0.0746(18) 0.0407(14) 0.0314(11) -0.0032(9) 0.0110(10) -0.0043(12)
O2 0.101(2) 0.0464(16) 0.0376(12) 0.0015(10) 0.0056(12) 0.0166(15)
N1 0.0433(18) 0.056(2) 0.0455(15) -0.0085(13) -0.0025(13) -0.0130(15)
C1 0.056(3) 0.073(3) 0.074(3) -0.004(2) -0.021(2) -0.013(2)
C2 0.056(3) 0.125(5) 0.074(3) 0.013(3) -0.015(2) -0.008(3)
C3 0.058(3) 0.109(4) 0.059(2) -0.029(2) 0.013(2) -0.033(3)
C4 0.062(3) 0.077(3) 0.093(3) -0.033(3) 0.009(3) -0.027(3)
C5 0.053(3) 0.058(3) 0.073(3) -0.011(2) 0.0018(19) -0.014(2)
C6 0.054(2) 0.0384(19) 0.0313(15) -0.0012(11) 0.0045(13) -0.0074(15)
C7 0.059(2) 0.039(2) 0.0345(14) -0.0006(14) 0.0084(14) -0.0063(17)
C8 0.062(3) 0.179(6) 0.074(3) -0.040(4) 0.012(2) -0.043(4)

_geom_special_details            
;
All esds (except the esd in the dihedral angle between two l.s. planes)
are estimated using the full covariance matrix. The cell esds are taken
into account individually in the estimation of esds in distances, angles
and torsion angles; correlations between esds in cell parameters are only
used when they are defined by crystal symmetry. An approximate (isotropic)
treatment of cell esds is used for estimating esds involving l.s. planes.
;

loop_
_geom_bond_atom_site_label_1
_geom_bond_atom_site_label_2
_geom_bond_distance
_geom_bond_site_symmetry_2
_geom_bond_publ_flag
Fe O1 2.121(2) 7_565 ?
Fe O1 2.121(2) . ?
Fe O1W 2.123(2) 7_565 ?
Fe O1W 2.123(2) . ?
Fe N1 2.208(3) 7_565 ?
Fe N1 2.208(3) . ?
O1 C6 1.262(3) . ?
O2 C7 1.256(4) . ?
N1 C1 1.328(5) . ?
N1 C5 1.333(5) . ?
C1 C2 1.410(6) . ?
C2 C3 1.391(7) . ?
C3 C4 1.350(7) . ?
C3 C8 1.476(6) . ?
C4 C5 1.387(6) . ?
C6 C7 1.453(4) 7_566 ?
C6 C7 1.460(5) . ?
C7 C6 1.453(4) 7_566 ?
C8 C8 1.163(11) 5_676 ?

loop_
_geom_angle_atom_site_label_1
_geom_angle_atom_site_label_2
_geom_angle_atom_site_label_3
_geom_angle
_geom_angle_site_symmetry_1
_geom_angle_site_symmetry_3
_geom_angle_publ_flag
O1 Fe O1 180.0 7_565 . ?
O1 Fe O1W 93.16(9) 7_565 7_565 ?
O1 Fe O1W 86.84(9) . 7_565 ?
O1 Fe O1W 86.84(9) 7_565 . ?
O1 Fe O1W 93.16(9) . . ?
O1W Fe O1W 180.00(14) 7_565 . ?
O1 Fe N1 86.79(10) 7_565 7_565 ?
O1 Fe N1 93.21(10) . 7_565 ?
O1W Fe N1 91.50(11) 7_565 7_565 ?
O1W Fe N1 88.50(11) . 7_565 ?
O1 Fe N1 93.21(10) 7_565 . ?
O1 Fe N1 86.79(10) . . ?
O1W Fe N1 88.50(11) 7_565 . ?
O1W Fe N1 91.50(11) . . ?
N1 Fe N1 180.000(1) 7_565 . ?
C6 O1 Fe 128.9(2) . . ?
C1 N1 C5 116.2(3) . . ?
C1 N1 Fe 121.4(3) . . ?
C5 N1 Fe 122.1(3) . . ?
N1 C1 C2 122.7(5) . . ?
C3 C2 C1 119.6(5) . . ?
C4 C3 C2 116.9(4) . . ?
C4 C3 C8 119.5(6) . . ?
C2 C3 C8 123.6(5) . . ?
C3 C4 C5 120.3(5) . . ?
N1 C5 C4 124.2(4) . . ?
O1 C6 C7 133.8(3) . 7_566 ?
O1 C6 C7 136.2(3) . . ?
C7 C6 C7 90.0(3) 7_566 . ?
O2 C7 C6 135.9(3) . 7_566 ?
O2 C7 C6 134.1(3) . . ?
C6 C7 C6 90.0(3) 7_566 . ?
C8 C8 C3 132.3(10) 5_676 . ?

loop_
_geom_hbond_atom_site_label_D
_geom_hbond_atom_site_label_H
_geom_hbond_atom_site_label_A
_geom_hbond_distance_DH
_geom_hbond_distance_HA
_geom_hbond_distance_DA
_geom_hbond_angle_DHA
_geom_hbond_site_symmetry_A
O1W H10 O2 0.922(17) 1.745(17) 2.660(3) 172(3) .
O1W H11 O2 0.923(18) 1.777(18) 2.699(3) 177(4) 6_575

_diffrn_measured_fraction_theta_max 0.831
_diffrn_reflns_theta_full        29.56
_diffrn_measured_fraction_theta_full 0.831
_refine_diff_density_max         0.535
_refine_diff_density_min         -0.451
_refine_diff_density_rms         0.073
