
#######################################################################
#
#                 Cambridge Crystallographic Data Centre
#                                CCDC
#
#######################################################################
#
# If this CIF has been generated from an entry in the Cambridge
# Structural Database, then it will include bibliographic, chemical,
# crystal, experimental, refinement or atomic coordinate data resulting
# from the CCDC's data processing and validation procedures.
#
#######################################################################

data_CSD_CIF_RAYCID01
_audit_creation_date 1998-09-03
_audit_creation_method CSD-ConQuest-V1
_database_code_CSD RAYCID01
_database_code_depnum_ccdc_archive 'CCDC 116918'
_database_code_depnum_ccdc_journal 182/877
_chemical_formula_sum 'C12 H8 I1 N1 O2'
_chemical_formula_moiety
;
C12 H8 I1 N1 O2
;
_journal_coden_Cambridge 182
_journal_year 1998
_journal_page_first 1347
_journal_name_full 'Chem.Commun. '
loop_
_publ_author_name
"N.Masciocchi"
"M.Bergamo"
"A.Sironi"
_chemical_name_systematic
;
4-Iodo-4'-nitrobiphenyl
;
_chemical_name_common
;
Teaching Subset: Fundamental Chemistry, Symmetry
;
_cell_volume   2227.854
_exptl_crystal_colour 'light yellow'
_exptl_crystal_density_diffrn 1.938
_exptl_special_details
;
polymorph I

;
_exptl_crystal_preparation 'nitromethane'
_diffrn_ambient_temperature ?
_diffrn_special_details
;
The study was carried out at room temperature,in the range 283-303K

;
#These two values have been output from a single CSD field.
_refine_ls_R_factor_gt 0.046
_refine_ls_wR_factor_gt 0.046
_symmetry_cell_setting orthorhombic
_symmetry_space_group_name_H-M 'F d d 2'
_symmetry_Int_Tables_number 43
loop_
_symmetry_equiv_pos_site_id
_symmetry_equiv_pos_as_xyz
1 x,y,z
2 -x,-y,z
3 1/4-x,1/4+y,1/4+z
4 3/4+x,3/4-y,1/4+z
5 x,1/2+y,1/2+z
6 -x,1/2-y,1/2+z
7 1/4-x,3/4+y,3/4+z
8 3/4+x,1/4-y,3/4+z
9 1/2+x,y,1/2+z
10 1/2-x,-y,1/2+z
11 3/4-x,1/4+y,3/4+z
12 1/4+x,3/4-y,3/4+z
13 1/2+x,1/2+y,z
14 1/2-x,1/2-y,z
15 3/4-x,3/4+y,1/4+z
16 1/4+x,1/4-y,1/4+z
_cell_length_a 8.200(3)
_cell_length_b 18.887(4)
_cell_length_c 14.385(15)
_cell_angle_alpha 90
_cell_angle_beta 90
_cell_angle_gamma 90
_cell_formula_units_Z 8
loop_
_atom_type_symbol
_atom_type_radius_bond
C 0.68
H 0.23
I 1.40
N 0.68
O 0.68
loop_
_atom_site_label
_atom_site_type_symbol
_atom_site_fract_x
_atom_site_fract_y
_atom_site_fract_z
I1 I 0.25000 0.25000 0.00000
C1 C 0.25000 0.25000 -0.1462(4)
C2 C 0.1564(4) 0.2014(2) -0.1935(3)
C3 C 0.1565(4) 0.2013(2) -0.2899(3)
C4 C 0.25000 0.25000 -0.3410(8)
C5 C 0.25000 0.25000 -0.4438(4)
C6 C 0.2344(3) 0.1869(2) -0.4922(8)
C7 C 0.2355(4) 0.1863(2) -0.5895(3)
C8 C 0.25000 0.25000 -0.6354(9)
N1 N 0.25000 0.25000 -0.7387(4)
O1 O 0.2337(4) 0.1939(2) -0.7774(3)
H1 H 0.090(4) 0.171(2) -0.158(2)
H2 H 0.101(4) 0.163(2) -0.318(2)
H3 H 0.218(4) 0.144(2) -0.460(3)
H4 H 0.225(5) 0.144(2) -0.624(3)
O1M O 0.2663(4) 0.3061(2) -0.7774(3)
C6M C 0.2656(3) 0.3131(2) -0.4922(8)
C7M C 0.2645(4) 0.3137(2) -0.5895(3)
H4M H 0.275(5) 0.356(2) -0.624(3)
H3M H 0.282(4) 0.356(2) -0.460(3)
C2M C 0.3436(4) 0.2986(2) -0.1935(3)
C3M C 0.3435(4) 0.2987(2) -0.2899(3)
H2M H 0.399(4) 0.337(2) -0.318(2)
H1M H 0.410(4) 0.329(2) -0.158(2)
#END
