####################################################################### 
# 
# This file contains crystal structure data downloaded from the 
# Cambridge Structural Database (CSD) hosted by the Cambridge 
# Crystallographic Data Centre (CCDC).
# 
# Full information about CCDC data access policies and citation 
# guidelines are available at http://www.ccdc.cam.ac.uk/access/V1 
# 
# Audit and citation data items may have been added by the CCDC. 
# Please retain this information to preserve the provenance of 
# this file and to allow appropriate attribution of the data. 
# 
#######################################################################

data_a
_audit_block_doi                 10.5517/cc88gjh
_database_code_depnum_ccdc_archive 'CCDC 246466'
loop_
_citation_id
_citation_doi
_citation_year
1 10.1080/00958970500238742 2005
_audit_update_record             
;
2004-07-31 deposited with the CCDC.	2024-07-12 downloaded from the CCDC.
;

_audit_creation_method           SHELXL-97
_chemical_name_systematic        
;
?
;
_chemical_name_common            ?
_chemical_melting_point          ?
_chemical_formula_moiety         ?
_chemical_formula_sum            'C30 H34 F2 Mn N8 O10'
_chemical_formula_weight         759.59

loop_
_atom_type_symbol
_atom_type_description
_atom_type_scat_dispersion_real
_atom_type_scat_dispersion_imag
_atom_type_scat_source
C C 0.0033 0.0016 'International Tables Vol C Tables 4.2.6.8 and 6.1.1.4'
H H 0.0000 0.0000 'International Tables Vol C Tables 4.2.6.8 and 6.1.1.4'
N N 0.0061 0.0033 'International Tables Vol C Tables 4.2.6.8 and 6.1.1.4'
O O 0.0106 0.0060 'International Tables Vol C Tables 4.2.6.8 and 6.1.1.4'
F F 0.0171 0.0103 'International Tables Vol C Tables 4.2.6.8 and 6.1.1.4'
Mn Mn 0.3368 0.7283 'International Tables Vol C Tables 4.2.6.8 and 6.1.1.4'

_symmetry_cell_setting           monoclinic
_symmetry_space_group_name_H-M   P2(1)/c

loop_
_symmetry_equiv_pos_as_xyz
'x, y, z'
'-x, y+1/2, -z+1/2'
'-x, -y, -z'
'x, -y-1/2, z-1/2'

_cell_length_a                   5.8519(2)
_cell_length_b                   21.6843(7)
_cell_length_c                   13.3438(3)
_cell_angle_alpha                90.00
_cell_angle_beta                 99.3890(18)
_cell_angle_gamma                90.00
_cell_volume                     1670.57(9)
_cell_formula_units_Z            2
_cell_measurement_temperature    293(2)
_cell_measurement_reflns_used    ?
_cell_measurement_theta_min      ?
_cell_measurement_theta_max      ?

_exptl_crystal_description       ?
_exptl_crystal_colour            ?
_exptl_crystal_size_max          0.51
_exptl_crystal_size_mid          0.28
_exptl_crystal_size_min          0.21
_exptl_crystal_density_meas      ?
_exptl_crystal_density_diffrn    1.510
_exptl_crystal_density_method    'not measured'
_exptl_crystal_F_000             786
_exptl_absorpt_coefficient_mu    0.475
_exptl_absorpt_correction_type   Empirical
_exptl_absorpt_correction_T_min  0.7949
_exptl_absorpt_correction_T_max  0.9084
_exptl_absorpt_process_details   Abscor

_exptl_special_details           
;
?
;

_diffrn_ambient_temperature      293(2)
_diffrn_radiation_wavelength     0.71073
_diffrn_radiation_type           MoK\a
_diffrn_radiation_source         'rotating anode'
_diffrn_radiation_monochromator  graphite
_diffrn_measurement_device_type  'Rigaku R-axis RAPID IP'
_diffrn_measurement_method       Oscillation
_diffrn_detector_area_resol_mean ?
_diffrn_standards_number         ?
_diffrn_standards_interval_count ?
_diffrn_standards_interval_time  ?
_diffrn_standards_decay_%        ?
_diffrn_reflns_number            3487
_diffrn_reflns_av_R_equivalents  0.0000
_diffrn_reflns_av_sigmaI/netI    0.0403
_diffrn_reflns_limit_h_min       0
_diffrn_reflns_limit_h_max       7
_diffrn_reflns_limit_k_min       0
_diffrn_reflns_limit_k_max       28
_diffrn_reflns_limit_l_min       -17
_diffrn_reflns_limit_l_max       17
_diffrn_reflns_theta_min         2.43
_diffrn_reflns_theta_max         27.48
_reflns_number_total             3487
_reflns_number_gt                2649
_reflns_threshold_expression     >2sigma(I)

_computing_data_collection       'RAPID AUTO (Rigaku, 2001)'
_computing_cell_refinement       'RAPID AUTO (Rigaku, 2001)'
_computing_data_reduction        'RAPID AUTO (Rigaku, 2001)'
_computing_structure_solution    'SHELXS-97 (Sheldrick, 1990)'
_computing_structure_refinement  'SHELXL-97 (Sheldrick, 1997)'
_computing_molecular_graphics    ?
_computing_publication_material  ?

_refine_special_details          
;
Refinement of F^2^ against ALL reflections. The weighted R-factor wR and
goodness of fit S are based on F^2^, conventional R-factors R are based
on F, with F set to zero for negative F^2^. The threshold expression of
F^2^ > 2sigma(F^2^) is used only for calculating R-factors(gt) etc. and is
not relevant to the choice of reflections for refinement. R-factors based
on F^2^ are statistically about twice as large as those based on F, and R-
factors based on ALL data will be even larger.
;

_refine_ls_structure_factor_coef Fsqd
_refine_ls_matrix_type           full
_refine_ls_weighting_scheme      calc
_refine_ls_weighting_details     
'calc w=1/[\s^2^(Fo^2^)+(0.0792P)^2^+0.1482P] where P=(Fo^2^+2Fc^2^)/3'
_atom_sites_solution_primary     direct
_atom_sites_solution_secondary   difmap
_atom_sites_solution_hydrogens   geom
_refine_ls_hydrogen_treatment    mixed
_refine_ls_extinction_method     none
_refine_ls_extinction_coef       ?
_refine_ls_number_reflns         3487
_refine_ls_number_parameters     232
_refine_ls_number_restraints     0
_refine_ls_R_factor_all          0.0604
_refine_ls_R_factor_gt           0.0451
_refine_ls_wR_factor_ref         0.1310
_refine_ls_wR_factor_gt          0.1251
_refine_ls_goodness_of_fit_ref   1.048
_refine_ls_restrained_S_all      1.048
_refine_ls_shift/su_max          0.004
_refine_ls_shift/su_mean         0.000

loop_
_atom_site_label
_atom_site_type_symbol
_atom_site_fract_x
_atom_site_fract_y
_atom_site_fract_z
_atom_site_U_iso_or_equiv
_atom_site_adp_type
_atom_site_occupancy
_atom_site_symmetry_multiplicity
_atom_site_calc_flag
_atom_site_refinement_flags
_atom_site_disorder_assembly
_atom_site_disorder_group
Mn Mn 0.0000 0.5000 0.5000 0.02452(5) Uani 1 2 d S . .
F F 0.69612(11) 0.75407(3) 0.65266(5) 0.05977(18) Uani 1 1 d . . .
O1 O -0.22315(11) 0.49995(3) 0.61076(5) 0.03101(17) Uani 1 1 d . . .
O2 O 0.15276(11) 0.57821(3) 0.58448(4) 0.03289(17) Uani 1 1 d . . .
O3 O -0.36111(15) 0.51349(4) 0.75282(6) 0.0628(2) Uani 1 1 d . . .
O1W O -0.5657(6) 0.5455(2) 0.9215(2) 0.395(2) Uani 1 1 d . . .
O2W O 0.1669(8) 0.51125(15) 1.0418(2) 0.400(3) Uani 1 1 d . . .
N1 N 0.26807(13) 0.43794(3) 0.60568(5) 0.0284(2) Uani 1 1 d . . .
N2 N -0.00208(15) 0.66977(3) 0.83404(5) 0.0363(2) Uani 1 1 d . . .
N3 N 0.26861(14) 0.74560(3) 0.81696(5) 0.0323(2) Uani 1 1 d . . .
N4 N 0.53217(14) 0.82357(3) 0.80707(5) 0.0342(2) Uani 1 1 d . . .
C1 C 0.36455(19) 0.39096(4) 0.54691(7) 0.0429(3) Uani 1 1 d . . .
H1A H 0.4254 0.4109 0.4917 0.064 Uiso 1 1 calc R . .
H1B H 0.2407 0.3636 0.5170 0.064 Uiso 1 1 calc R . .
C2 C 0.19658(19) 0.40858(4) 0.69496(7) 0.0405(3) Uani 1 1 d . . .
H2A H 0.0644 0.3822 0.6724 0.061 Uiso 1 1 calc R . .
H2B H 0.1472 0.4404 0.7379 0.061 Uiso 1 1 calc R . .
C3 C -0.23044(17) 0.52822(4) 0.69232(6) 0.0307(2) Uani 1 1 d . . .
C4 C -0.07572(17) 0.58363(4) 0.71870(6) 0.0295(2) Uani 1 1 d . . .
C5 C 0.09984(16) 0.60336(4) 0.66269(6) 0.0259(2) Uani 1 1 d . . .
C6 C 0.22359(16) 0.65877(4) 0.70146(6) 0.0279(2) Uani 1 1 d . . .
C7 C 0.16880(16) 0.69205(4) 0.78382(6) 0.0294(2) Uani 1 1 d . . .
C8 C -0.11461(18) 0.61770(4) 0.80060(7) 0.0353(3) Uani 1 1 d . . .
H8A H -0.2285 0.6037 0.8362 0.042 Uiso 1 1 calc R . .
C9 C -0.05795(19) 0.70069(5) 0.92626(7) 0.0480(3) Uani 1 1 d . . .
H9A H -0.0423 0.7450 0.9194 0.058 Uiso 1 1 calc R . .
H9B H -0.2174 0.6919 0.9328 0.058 Uiso 1 1 calc R . .
C10 C 0.0966(3) 0.67952(9) 1.01835(9) 0.0884(6) Uani 1 1 d . . .
H10A H 0.0568 0.7002 1.0767 0.133 Uiso 1 1 calc R . .
H10B H 0.2543 0.6887 1.0124 0.133 Uiso 1 1 calc R . .
H10C H 0.0792 0.6358 1.0259 0.133 Uiso 1 1 calc R . .
C11 C 0.40667(17) 0.68215(4) 0.65758(7) 0.0331(2) Uani 1 1 d . . .
H11A H 0.4561 0.6612 0.6042 0.040 Uiso 1 1 calc R . .
C12 C 0.51090(17) 0.73465(4) 0.69235(7) 0.0335(2) Uani 1 1 d . . .
C13 C 0.43380(16) 0.76935(4) 0.77154(6) 0.0298(2) Uani 1 1 d . . .
C14 C 0.44570(19) 0.85284(5) 0.89277(8) 0.0512(3) Uani 1 1 d . . .
H14A H 0.3949 0.8214 0.9360 0.077 Uiso 1 1 calc R . .
H14B H 0.3142 0.8790 0.8677 0.077 Uiso 1 1 calc R . .
C15 C 0.6149(2) 0.87055(4) 0.74245(7) 0.0429(3) Uani 1 1 d . . .
H15A H 0.4875 0.8971 0.7138 0.064 Uiso 1 1 calc R . .
H15B H 0.6752 0.8508 0.6870 0.064 Uiso 1 1 calc R . .

loop_
_atom_site_aniso_label
_atom_site_aniso_U_11
_atom_site_aniso_U_22
_atom_site_aniso_U_33
_atom_site_aniso_U_23
_atom_site_aniso_U_13
_atom_site_aniso_U_12
Mn 0.03154(10) 0.01506(7) 0.02539(7) -0.00293(6) -0.00005(7) 0.00157(7)
F 0.0576(3) 0.0482(3) 0.0843(4) -0.0261(3) 0.0438(3) -0.0256(3)
O1 0.0366(3) 0.0214(3) 0.0342(3) -0.0050(2) 0.0032(3) -0.0048(3)
O2 0.0391(4) 0.0261(3) 0.0349(3) -0.0117(2) 0.0103(3) -0.0071(3)
O3 0.0810(5) 0.0623(4) 0.0529(4) -0.0245(3) 0.0341(3) -0.0463(4)
O1W 0.412(4) 0.607(6) 0.2015(19) 0.008(4) 0.153(2) 0.121(5)
O2W 0.685(7) 0.341(3) 0.148(2) 0.0773(18) -0.004(3) -0.189(4)
N1 0.0306(4) 0.0203(3) 0.0333(3) 0.0025(3) 0.0020(3) 0.0058(3)
N2 0.0453(5) 0.0321(4) 0.0342(3) -0.0118(3) 0.0148(3) -0.0130(3)
N3 0.0384(4) 0.0264(3) 0.0329(3) -0.0106(3) 0.0077(3) -0.0096(3)
N4 0.0438(5) 0.0263(3) 0.0345(3) -0.0102(3) 0.0120(3) -0.0146(3)
C1 0.0615(6) 0.0349(4) 0.0339(4) 0.0100(4) 0.0127(4) 0.0247(4)
C2 0.0486(6) 0.0356(4) 0.0399(4) 0.0079(4) 0.0146(4) 0.0203(4)
C3 0.0341(5) 0.0261(4) 0.0311(4) -0.0024(3) 0.0028(4) -0.0078(4)
C4 0.0339(5) 0.0230(4) 0.0304(4) -0.0046(3) 0.0020(3) -0.0076(3)
C5 0.0292(5) 0.0196(3) 0.0271(4) -0.0035(3) -0.0003(3) -0.0023(3)
C6 0.0321(5) 0.0216(3) 0.0292(4) -0.0046(3) 0.0028(3) -0.0040(3)
C7 0.0345(5) 0.0256(4) 0.0283(4) -0.0065(3) 0.0057(3) -0.0056(4)
C8 0.0419(5) 0.0310(4) 0.0347(4) -0.0063(3) 0.0114(4) -0.0109(4)
C9 0.0534(6) 0.0478(5) 0.0489(5) -0.0235(4) 0.0259(4) -0.0178(5)
C10 0.0915(11) 0.1311(13) 0.0430(6) -0.0266(7) 0.0120(6) -0.0035(11)
C11 0.0387(5) 0.0278(4) 0.0341(4) -0.0089(3) 0.0099(4) -0.0037(4)
C12 0.0345(5) 0.0294(4) 0.0393(4) -0.0075(3) 0.0134(4) -0.0063(4)
C13 0.0341(5) 0.0232(4) 0.0307(4) -0.0051(3) 0.0014(4) -0.0053(4)
C14 0.0571(6) 0.0482(5) 0.0542(5) -0.0292(4) 0.0264(4) -0.0302(5)
C15 0.0640(7) 0.0299(4) 0.0335(4) -0.0040(4) 0.0041(4) -0.0165(4)

_geom_special_details            
;
All esds (except the esd in the dihedral angle between two l.s. planes)
are estimated using the full covariance matrix. The cell esds are taken
into account individually in the estimation of esds in distances, angles
and torsion angles; correlations between esds in cell parameters are only
used when they are defined by crystal symmetry. An approximate (isotropic)
treatment of cell esds is used for estimating esds involving l.s. planes.
;

loop_
_geom_bond_atom_site_label_1
_geom_bond_atom_site_label_2
_geom_bond_distance
_geom_bond_site_symmetry_2
_geom_bond_publ_flag
Mn O1 2.1259(7) . ?
Mn O1 2.1259(7) 3_566 ?
Mn O2 2.1488(6) . ?
Mn O2 2.1488(6) 3_566 ?
Mn N1 2.3534(7) 3_566 ?
Mn N1 2.3534(7) . ?
F C12 1.3491(12) . ?
O1 C3 1.2558(11) . ?
O2 C5 1.2601(10) . ?
O3 C3 1.2410(13) . ?
N1 C1 1.4548(12) . ?
N1 C2 1.4705(12) . ?
N2 C8 1.3460(12) . ?
N2 C7 1.3789(13) . ?
N2 C9 1.4840(13) . ?
N3 C13 1.3259(13) . ?
N3 C7 1.3419(11) . ?
N4 C13 1.3600(11) . ?
N4 C15 1.4669(13) . ?
N4 C14 1.4682(13) . ?
C1 C14 1.5075(14) 2_646 ?
C2 C15 1.5147(14) 2_646 ?
C3 C4 1.5111(12) . ?
C4 C8 1.3686(13) . ?
C4 C5 1.4309(13) . ?
C5 C6 1.4539(11) . ?
C6 C7 1.3951(12) . ?
C6 C11 1.3972(14) . ?
C9 C10 1.4751(17) . ?
C11 C12 1.3383(12) . ?
C12 C13 1.4289(13) . ?
C14 C1 1.5075(14) 2_656 ?
C15 C2 1.5147(14) 2_656 ?

loop_
_geom_angle_atom_site_label_1
_geom_angle_atom_site_label_2
_geom_angle_atom_site_label_3
_geom_angle
_geom_angle_site_symmetry_1
_geom_angle_site_symmetry_3
_geom_angle_publ_flag
O1 Mn O1 180.0 . 3_566 ?
O1 Mn O2 83.44(2) . . ?
O1 Mn O2 96.56(2) 3_566 . ?
O1 Mn O2 96.56(2) . 3_566 ?
O1 Mn O2 83.44(2) 3_566 3_566 ?
O2 Mn O2 180.000(19) . 3_566 ?
O1 Mn N1 89.53(2) . 3_566 ?
O1 Mn N1 90.47(2) 3_566 3_566 ?
O2 Mn N1 92.45(2) . 3_566 ?
O2 Mn N1 87.55(2) 3_566 3_566 ?
O1 Mn N1 90.47(2) . . ?
O1 Mn N1 89.53(2) 3_566 . ?
O2 Mn N1 87.55(2) . . ?
O2 Mn N1 92.45(2) 3_566 . ?
N1 Mn N1 180.0 3_566 . ?
C3 O1 Mn 135.54(6) . . ?
C5 O2 Mn 129.69(6) . . ?
C1 N1 C2 108.68(7) . . ?
C1 N1 Mn 110.90(5) . . ?
C2 N1 Mn 118.89(6) . . ?
C8 N2 C7 119.16(8) . . ?
C8 N2 C9 119.46(9) . . ?
C7 N2 C9 121.33(8) . . ?
C13 N3 C7 119.74(8) . . ?
C13 N4 C15 123.85(7) . . ?
C13 N4 C14 117.72(8) . . ?
C15 N4 C14 110.27(7) . . ?
N1 C1 C14 114.39(8) . 2_646 ?
N1 C2 C15 113.86(9) . 2_646 ?
O3 C3 O1 123.35(8) . . ?
O3 C3 C4 117.55(8) . . ?
O1 C3 C4 119.09(8) . . ?
C8 C4 C5 118.87(8) . . ?
C8 C4 C3 116.35(9) . . ?
C5 C4 C3 124.75(8) . . ?
O2 C5 C4 126.70(8) . . ?
O2 C5 C6 118.49(8) . . ?
C4 C5 C6 114.81(7) . . ?
C7 C6 C11 115.65(8) . . ?
C7 C6 C5 122.87(9) . . ?
C11 C6 C5 121.48(8) . . ?
N3 C7 N2 117.02(8) . . ?
N3 C7 C6 124.31(9) . . ?
N2 C7 C6 118.66(8) . . ?
N2 C8 C4 125.55(9) . . ?
C10 C9 N2 111.23(10) . . ?
C12 C11 C6 120.04(9) . . ?
C11 C12 F 118.65(9) . . ?
C11 C12 C13 121.56(9) . . ?
F C12 C13 119.78(8) . . ?
N3 C13 N4 118.37(8) . . ?
N3 C13 C12 118.37(8) . . ?
N4 C13 C12 123.12(9) . . ?
N4 C14 C1 109.60(9) . 2_656 ?
N4 C15 C2 109.54(7) . 2_656 ?

_diffrn_measured_fraction_theta_max 0.908
_diffrn_reflns_theta_full        27.48
_diffrn_measured_fraction_theta_full 0.908
_refine_diff_density_max         0.627
_refine_diff_density_min         -0.403
_refine_diff_density_rms         0.068



