
#######################################################################
#
#                 Cambridge Crystallographic Data Centre
#                                CCDC
#
#######################################################################
#
# If this CIF has been generated from an entry in the Cambridge
# Structural Database, then it will include bibliographic, chemical,
# crystal, experimental, refinement or atomic coordinate data resulting
# from the CCDC's data processing and validation procedures.
#
#######################################################################

data_CSD_CIF_RBFLAV10
_audit_creation_date 1971-12-31
_audit_creation_method CSD-ConQuest-V1
_database_code_CSD RBFLAV10
_database_code_depnum_ccdc_archive 'CCDC 1247416'
_chemical_formula_sum 'C17 H23 Br1 N4 O7'
_chemical_formula_moiety
;
C17 H21 N4 O6 1+,Br1 1-,H2 O1
;
_journal_coden_Cambridge 7
_journal_volume 42
_journal_year 1969
_journal_page_first 1546
_journal_name_full 'Bull.Chem.Soc.Jpn. '
loop_
_publ_author_name
"N.Tanaka"
"T.Ashida"
"Y.Sasada"
"M.Kakudo"
_chemical_name_systematic
;
Riboflavin hydrobromide monohydrate
;
_chemical_name_common
;
Vitamin B!2$ hydrobromide monohydrate; Teaching Subset: Essential Nutrients
;
_cell_volume   1887.269
_exptl_crystal_density_diffrn 1.67
_exptl_special_details
;
Riboflavin is a member of the vitamin B group required for the FAD and FMN 
cofactors in flavoprotein enzyme reactions.
H21 REMOVED..COORDINATES ARE IN ERROR
;
_diffrn_ambient_temperature ?
_diffrn_special_details
;
The study was carried out at room temperature,in the range 283-303K

;
#These two values have been output from a single CSD field.
_refine_ls_R_factor_gt 0.07
_refine_ls_wR_factor_gt 0.07
_symmetry_cell_setting orthorhombic
_symmetry_space_group_name_H-M 'P 21 21 21'
_symmetry_Int_Tables_number 19
loop_
_symmetry_equiv_pos_site_id
_symmetry_equiv_pos_as_xyz
1 x,y,z
2 1/2+x,1/2-y,-z
3 -x,1/2+y,1/2-z
4 1/2-x,-y,1/2+z
_cell_length_a 18.28(4)
_cell_length_b 6.99(2)
_cell_length_c 14.77(3)
_cell_angle_alpha 90
_cell_angle_beta 90
_cell_angle_gamma 90
_cell_formula_units_Z 4
loop_
_atom_type_symbol
_atom_type_radius_bond
C 0.68
H 0.30
Br 1.09
N 0.68
O 0.68
loop_
_atom_site_label
_atom_site_type_symbol
_atom_site_fract_x
_atom_site_fract_y
_atom_site_fract_z
Br1 Br 0.20620 0.23670 0.11730
C1 C 0.15730 0.25850 0.68380
C2 C 0.35920 0.29110 0.62870
C3 C 0.16420 0.24140 0.39880
C4 C 0.14390 0.05540 0.71790
C5 C 0.07750 0.04420 0.77740
C6 C 0.29530 0.31060 0.39450
C7 C 0.29660 0.29160 0.49500
C8 C 0.08440 0.16290 0.86070
C9 C 0.42610 0.29660 0.67460
C10 C 0.02420 0.11300 0.93050
C11 C 0.42940 0.29040 0.76640
C12 C 0.50090 0.30120 0.81820
C13 C 0.36170 0.27700 0.81580
C14 C 0.36320 0.26970 0.92000
C15 C 0.29640 0.27140 0.77400
C16 C 0.29370 0.27810 0.67950
C17 C 0.22870 0.26510 0.54000
H1 H 0.21730 0.24800 0.27910
H2 H 0.53240 0.32910 0.78260
H3 H 0.11400 0.30970 0.65520
H4 H 0.16720 0.32180 0.74950
H5 H 0.18860 0.00010 0.75000
H6 H 0.18400 -0.12500 0.62000
H7 H 0.08580 -0.05810 0.78550
H8 H -0.02160 0.10030 0.75560
H9 H 0.08080 0.27410 0.85080
H10 H 0.14750 0.16940 0.98460
H11 H 0.04390 0.14470 0.99670
H12 H 0.11580 0.18010 0.52040
H13 H 0.04960 -0.00770 0.96290
H14 H 0.24220 0.28270 0.80040
H15 H 0.47290 0.32140 0.63630
H16 H 0.30130 0.26750 0.96220
H17 H 0.37520 0.36260 0.96100
H18 H 0.39920 0.12860 0.94100
H19 H 0.51450 0.14500 0.85510
H20 H 0.50690 0.43660 0.85480
N1 N 0.16590 0.23700 0.49210
N2 N 0.35840 0.30280 0.53600
N3 N 0.22810 0.27440 0.35330
N4 N 0.22780 0.26630 0.63050
O1 O 0.10810 0.21180 0.35820
O2 O 0.13470 -0.06640 0.63970
O3 O 0.01680 0.10020 0.72580
O4 O 0.34800 0.35880 0.34980
O5 O 0.15450 0.12790 0.90280
O6 O -0.04620 0.11370 0.89160
H21 H -0.02850 0.07070 -0.47270
H22 H 0.02580 0.07740 -0.41320
O7 O 0.01490 0.11110 -0.46300
#END
