
#######################################################################
#
#                 Cambridge Crystallographic Data Centre
#                                CCDC
#
#######################################################################
#
# If this CIF has been generated from an entry in the Cambridge
# Structural Database, then it will include bibliographic, chemical,
# crystal, experimental, refinement or atomic coordinate data resulting
# from the CCDC's data processing and validation procedures.
#
#######################################################################

data_CSD_CIF_RBOXPH02
_audit_creation_date 1980-10-28
_audit_creation_method CSD-ConQuest-V1
_database_code_CSD RBOXPH02
_database_code_depnum_ccdc_archive 'CCDC 1247460'
_chemical_formula_sum 'C2 D2 O6 Rb2'
_chemical_formula_moiety
;
C2 O4 2-,2(Rb1 1+),D2 O2
;
_journal_coeditor_code "IUCr A18813"
_journal_coden_Cambridge 107
_journal_volume 36
_journal_year 1980
_journal_page_first 1096
_journal_name_full 'Acta Crystallogr.,Sect.B:Struct.Crystallogr.Cryst.Chem. '
loop_
_publ_author_name
"J.M.Adams"
"V.Ramdas"
"A.W.Hewat"
_chemical_name_systematic
;
Rubidium oxalate dideutero-perhydrate
;
_chemical_name_common
;
Teaching Subset: Fundamental Chemistry, Symmetry
;
_cell_volume    651.131
_diffrn_ambient_temperature 5
_diffrn_radiation_probe 'neutron radiation'
#These two values have been output from a single CSD field.
_refine_ls_R_factor_gt 0.063
_refine_ls_wR_factor_gt 0.063
_symmetry_cell_setting monoclinic
_symmetry_space_group_name_H-M 'C 2/c'
_symmetry_Int_Tables_number 15
loop_
_symmetry_equiv_pos_site_id
_symmetry_equiv_pos_as_xyz
1 x,y,z
2 1/2+x,1/2+y,z
3 -x,y,1/2-z
4 1/2-x,1/2+y,1/2-z
5 -x,-y,-z
6 -1/2-x,-1/2-y,-z
7 x,-y,-1/2+z
8 -1/2+x,-1/2-y,-1/2+z
_cell_length_a 9.1499(2)
_cell_length_b 6.7475(2)
_cell_length_c 11.0648(3)
_cell_angle_alpha 90
_cell_angle_beta 107.606(1)
_cell_angle_gamma 90
_cell_formula_units_Z 4
loop_
_atom_type_symbol
_atom_type_radius_bond
C 0.68
D 0.23
O 0.68
Rb 1.47
loop_
_atom_site_label
_atom_site_type_symbol
_atom_site_fract_x
_atom_site_fract_y
_atom_site_fract_z
Rb1 Rb 0.35960 0.33940 0.36310
O1 O 0.30490 0.47390 0.08830
O2 O 0.11750 0.25450 0.08560
C1 C 0.22840 0.31940 0.05160
O3 O 0.45710 -0.00960 0.18120
D1 D 0.51920 -0.09780 0.14750
C1E C 0.27160 0.18060 -0.05160
O1E O 0.19510 0.02610 -0.08830
O2E O 0.38250 0.24550 -0.08560
O3B O 0.54290 -0.00960 0.31880
D1B D 0.48080 -0.09780 0.35250
#END
