
#######################################################################
#
#                 Cambridge Crystallographic Data Centre
#                                CCDC
#
#######################################################################
#
# If this CIF has been generated from an entry in the Cambridge
# Structural Database, then it will include bibliographic, chemical,
# crystal, experimental, refinement or atomic coordinate data resulting
# from the CCDC's data processing and validation procedures.
#
#######################################################################

data_CSD_CIF_REBFUZ
_audit_creation_date 2001-11-22
_audit_creation_method CSD-ConQuest-V1
_database_code_CSD REBFUZ
_database_code_depnum_ccdc_archive 'CCDC 1247511'
_database_code_depnum_ccdc_journal 1326/8
_chemical_formula_sum 'C54 H48 O5 P2'
_chemical_formula_moiety
;
2(C18 H15 O1 P1),3(C6 H6 O1)
;
_journal_coden_Cambridge 1326
_journal_volume 2
_journal_year 2000
_journal_page_first 3511
_journal_name_full 'Phys.Chem.Chem.Phys.(PCCP) '
loop_
_publ_author_name
"D.C.Apperley"
"P.A.Chaloner"
"L.A.Crowe"
"R.K.Harris"
"R.M.Harrison"
"P.B.Hitchcock"
"C.M.Lagier"
_chemical_name_systematic
;
bis(Triphenylphosphine oxide) tris(phenol)
;
_chemical_name_common
;
Teaching Subset: Fundamental Chemistry
;
_cell_volume   1107.365
_exptl_crystal_density_diffrn 1.26
_diffrn_ambient_temperature 173
_refine_special_details
;
One of the phenol molecules is disordered about an inversion centre.

;
#These two values have been output from a single CSD field.
_refine_ls_R_factor_gt 0.038
_refine_ls_wR_factor_gt 0.038
_symmetry_cell_setting triclinic
_symmetry_space_group_name_H-M 'P -1'
_symmetry_Int_Tables_number 2
loop_
_symmetry_equiv_pos_site_id
_symmetry_equiv_pos_as_xyz
1 x,y,z
2 -x,-y,-z
_cell_length_a 8.393(1)
_cell_length_b 9.753(1)
_cell_length_c 14.756(2)
_cell_angle_alpha 104.47(1)
_cell_angle_beta 101.31(1)
_cell_angle_gamma 101.42(1)
_cell_formula_units_Z 1
loop_
_atom_type_symbol
_atom_type_radius_bond
C 0.68
H 0.23
O 0.68
P 1.05
loop_
_atom_site_label
_atom_site_type_symbol
_atom_site_fract_x
_atom_site_fract_y
_atom_site_fract_z
P1 P 0.47347(5) 0.11254(5) 0.73031(3)
O1 O 0.55153(15) 0.24996(12) 0.70992(8)
C1 C 0.62365(20) 0.00799(18) 0.75178(11)
C2 C 0.78331(25) 0.08484(21) 0.81061(15)
C3 C 0.90421(25) 0.01123(22) 0.82899(16)
C4 C 0.86847(23) -0.1383(2) 0.78980(14)
C5 C 0.71166(26) -0.21467(21) 0.73172(15)
C6 C 0.58861(23) -0.14218(20) 0.71214(14)
C7 C 0.40006(20) 0.15468(18) 0.83828(11)
C8 C 0.37074(23) 0.29244(19) 0.87026(13)
C9 C 0.32356(24) 0.33198(20) 0.95560(14)
C10 C 0.30349(23) 0.23569(21) 1.00899(13)
C11 C 0.32968(22) 0.09785(20) 0.97753(12)
C12 C 0.37874(21) 0.05738(18) 0.89266(12)
C13 C 0.30122(21) -0.00405(18) 0.63034(12)
C14 C 0.30347(23) 0.00506(21) 0.53781(13)
C15 C 0.17653(26) -0.08530(24) 0.45872(14)
C16 C 0.04636(25) -0.18326(23) 0.47063(15)
C17 C 0.04253(25) -0.19299(24) 0.56199(16)
C18 C 0.16963(24) -0.10392(22) 0.64140(14)
H1 H 0.813(3) 0.190(2) 0.837(1)
H2 H 1.011(3) 0.063(2) 0.867(2)
H3 H 0.950(2) -0.191(2) 0.801(1)
H4 H 0.691(3) -0.310(2) 0.705(1)
H5 H 0.486(2) -0.199(2) 0.671(1)
H6 H 0.387(2) 0.363(2) 0.836(1)
H7 H 0.304(2) 0.420(2) 0.974(1)
H8 H 0.273(2) 0.265(2) 1.068(1)
H9 H 0.318(2) 0.028(2) 1.014(1)
H10 H 0.399(2) -0.040(2) 0.872(1)
H11 H 0.394(3) 0.079(2) 0.530(1)
H12 H 0.181(3) -0.078(2) 0.396(1)
H13 H -0.041(3) -0.241(2) 0.414(1)
H14 H -0.047(3) -0.262(2) 0.572(2)
H15 H 0.169(2) -0.113(2) 0.706(1)
O2 O 0.77580(16) 0.46900(14) 0.85740(9)
C19 C 0.92922(22) 0.52098(18) 0.84335(13)
C20 C 0.96290(24) 0.48575(21) 0.75402(14)
C21 C 1.12210(27) 0.54322(23) 0.74557(15)
C22 C 1.24620(25) 0.63467(22) 0.82534(16)
C23 C 1.21160(25) 0.66948(21) 0.91425(15)
C24 C 1.05318(24) 0.61401(20) 0.92394(13)
H16 H 0.707(3) 0.408(2) 0.810(2)
H17 H 0.877(2) 0.420(2) 0.699(1)
H18 H 1.142(3) 0.515(2) 0.684(1)
H19 H 1.352(3) 0.672(2) 0.819(1)
H20 H 1.287(3) 0.738(2) 0.969(2)
H21 H 1.029(2) 0.637(2) 0.987(1)
O3? O 0.35740(31) 0.39006(27) 0.61553(18)
C25? C 0.42453(26) 0.43776(21) 0.56077(14)
C26? C 0.56891(26) 0.40398(20) 0.53989(14)
C27? C 0.64416(25) 0.46661(22) 0.48027(14)
H22? H 0.384(3) 0.354(3) 0.629(2)
H23? H 0.613(2) 0.337(2) 0.564(1)
H24? H 0.748(2) 0.445(2) 0.469(1)
#END
