####################################################################### 
# 
# This file contains crystal structure data downloaded from the 
# Cambridge Structural Database (CSD) hosted by the Cambridge 
# Crystallographic Data Centre (CCDC).
# 
# Full information about CCDC data access policies and citation 
# guidelines are available at http://www.ccdc.cam.ac.uk/access/V1 
# 
# Audit and citation data items may have been added by the CCDC. 
# Please retain this information to preserve the provenance of 
# this file and to allow appropriate attribution of the data. 
# 
#######################################################################

data_REBTIB
#This CIF has been generated from an entry in the Cambridge Structural Database
_database_code_depnum_ccdc_archive 'CCDC 1247566'
_database_code_CSD               REBTIB
loop_
_citation_id
_citation_doi
_citation_year
1 10.1021/cm990612m 2000
_audit_creation_method           'Created from the CSD'
_audit_update_record             
;
2024-07-12 downloaded from the CCDC.
;
_database_code_NBS               766049
_chemical_formula_moiety         '(C10 H12 Mn1 N6 O8)n,2n(C2 H6 O1)'
_chemical_name_systematic        
"catena-((\m~2~-4,4'-Azopyridine-N,N')-diaqua-bis(nitrato-O)-manganese(ii) ethanol solvate)"
_chemical_absolute_configuration unk
_diffrn_ambient_temperature      295
_exptl_crystal_density_diffrn    1.471
#These two values have been output from a single CSD field.
_refine_ls_R_factor_gt           0.037
_refine_ls_wR_factor_gt          0.037
_diffrn_radiation_probe          x-ray
_symmetry_cell_setting           monoclinic
_symmetry_space_group_name_H-M   'C 2/c'
_symmetry_Int_Tables_number      15
_space_group_name_Hall           '-C 2yc'
loop_
_symmetry_equiv_pos_site_id
_symmetry_equiv_pos_as_xyz
1 x,y,z
2 -x,y,1/2-z
3 1/2+x,1/2+y,z
4 1/2-x,1/2+y,1/2-z
5 -x,-y,-z
6 x,-y,1/2+z
7 1/2-x,1/2-y,-z
8 1/2+x,1/2-y,1/2+z
_cell_length_a                   24.488(4)
_cell_length_b                   11.868(3)
_cell_length_c                   7.636(4)
_cell_angle_alpha                90
_cell_angle_beta                 91.39(3)
_cell_angle_gamma                90
_cell_volume                     2218.55
_exptl_crystal_colour            orange
_exptl_crystal_description       column
_cell_formula_units_Z            4
loop_
_atom_site_label
_atom_site_type_symbol
_atom_site_fract_x
_atom_site_fract_y
_atom_site_fract_z
Mn1 Mn 0.2500 0.2500 0.5000
O1 O 0.22228(8) 0.1364(2) 0.2870(2)
O2 O 0.19740(8) 0.2642(2) 0.0980(3)
O3 O 0.20351(8) 0.0895(2) 0.0197(2)
O4 O 0.21134(8) 0.1243(2) 0.6578(3)
N1 N 0.16963(8) 0.3488(2) 0.5028(3)
N2 N 0.02092(8) 0.5273(2) 0.5095(4)
N3 N 0.20772(8) 0.1658(2) 0.1334(3)
C1 C 0.1667(1) 0.4589(2) 0.5308(4)
C2 C 0.1185(1) 0.5180(2) 0.5329(5)
C3 C 0.0703(1) 0.4605(2) 0.5045(4)
C4 C 0.0719(1) 0.3469(2) 0.4741(4)
C5 C 0.1222(1) 0.2945(2) 0.4750(4)
H1 H 0.199(1) 0.493(2) 0.539(4)
H2 H 0.118(1) 0.588(2) 0.548(4)
H3 H 0.041(1) 0.308(2) 0.450(4)
H4 H 0.123(1) 0.219(2) 0.449(3)
H5 H 0.210(1) 0.048(3) 0.616(5)
H6 H 0.210(1) 0.119(3) 0.765(5)
N2D N -0.02092(8) 0.4727(2) 0.4905(4)
C3D C -0.0703(1) 0.5395(2) 0.4955(4)
C2D C -0.1185(1) 0.4820(2) 0.4671(5)
C1D C -0.1667(1) 0.5411(2) 0.4692(4)
N1D N -0.16963(8) 0.6512(2) 0.4972(3)
C5D C -0.1222(1) 0.7055(2) 0.5250(4)
C4D C -0.0719(1) 0.6531(2) 0.5259(4)
H3D H -0.041(1) 0.692(2) 0.550(4)
H4D H -0.123(1) 0.781(2) 0.551(3)
H1D H -0.199(1) 0.507(2) 0.461(4)
H2D H -0.118(1) 0.412(2) 0.452(4)
O1F O 0.27772(8) 0.3636(2) 0.7130(2)
O2F O 0.30260(8) 0.2358(2) 0.9020(3)
O3F O 0.29649(8) 0.4105(2) 0.9803(2)
N3F N 0.29228(8) 0.3342(2) 0.8666(3)
O4F O 0.28866(8) 0.3757(2) 0.3422(3)
H5F H 0.290(1) 0.452(3) 0.384(5)
H6F H 0.290(1) 0.381(3) 0.235(5)
N1F N 0.33037(8) 0.1512(2) 0.4972(3)
Mn1B Mn -0.2500 0.7500 0.5000
O5 O 0.48989(10) 0.3997(2) -0.0791(3)
C6 C 0.4361(2) 0.3614(4) -0.0444(6)
C7 C 0.4265(2) 0.3370(5) 0.1335(6)
H7 H 0.4099 0.4184 -0.0799
H8 H 0.4277 0.2950 -0.1132
H9 H 0.4345 0.4005 0.2058
H10 H 0.4522 0.2770 0.1724
H11 H 0.3911 0.3106 0.1539

#END
