####################################################################### 
# 
# This file contains crystal structure data downloaded from the 
# Cambridge Structural Database (CSD) hosted by the Cambridge 
# Crystallographic Data Centre (CCDC).
# 
# Full information about CCDC data access policies and citation 
# guidelines are available at http://www.ccdc.cam.ac.uk/access/V1 
# 
# Audit and citation data items may have been added by the CCDC. 
# Please retain this information to preserve the provenance of 
# this file and to allow appropriate attribution of the data. 
# 
#######################################################################

data_2
_audit_block_doi                 10.5517/ccyg97x
_database_code_depnum_ccdc_archive 'CCDC 877679'
loop_
_citation_id
_citation_doi
_citation_year
1 10.1002/chem.201202297 2012
_audit_update_record             
;
2012-04-20 deposited with the CCDC.	2024-07-12 downloaded from the CCDC.
;
#TrackingRef '2.CIF'


_audit_creation_method           SHELXL-97
_chemical_name_systematic        
;
?
;
_chemical_name_common            ?
_chemical_melting_point          ?
_chemical_formula_moiety         ?
_chemical_formula_sum            'C160 H344 Cl Mn26 N8 O104 P20'
_chemical_formula_weight         6127.72

loop_
_atom_type_symbol
_atom_type_description
_atom_type_scat_dispersion_real
_atom_type_scat_dispersion_imag
_atom_type_scat_source
C C 0.0033 0.0016 'International Tables Vol C Tables 4.2.6.8 and 6.1.1.4'
H H 0.0000 0.0000 'International Tables Vol C Tables 4.2.6.8 and 6.1.1.4'
Mn Mn 0.3368 0.7283 'International Tables Vol C Tables 4.2.6.8 and 6.1.1.4'
N N 0.0061 0.0033 'International Tables Vol C Tables 4.2.6.8 and 6.1.1.4'
O O 0.0106 0.0060 'International Tables Vol C Tables 4.2.6.8 and 6.1.1.4'
P P 0.1023 0.0942 'International Tables Vol C Tables 4.2.6.8 and 6.1.1.4'
Cl Cl 0.1484 0.1585 'International Tables Vol C Tables 4.2.6.8 and 6.1.1.4'

_symmetry_cell_setting           ?
_symmetry_space_group_name_H-M   'C 2/c'

loop_
_symmetry_equiv_pos_as_xyz
'x, y, z'
'-x, y, -z+1/2'
'x+1/2, y+1/2, z'
'-x+1/2, y+1/2, -z+1/2'
'-x, -y, -z'
'x, -y, z-1/2'
'-x+1/2, -y+1/2, -z'
'x+1/2, -y+1/2, z-1/2'

_cell_length_a                   27.120(5)
_cell_length_b                   15.323(3)
_cell_length_c                   37.921(8)
_cell_angle_alpha                90.00
_cell_angle_beta                 90.00(3)
_cell_angle_gamma                90.00
_cell_volume                     15758(5)
_cell_formula_units_Z            2
_cell_measurement_temperature    150(2)
_cell_measurement_reflns_used    ?
_cell_measurement_theta_min      ?
_cell_measurement_theta_max      ?

_exptl_crystal_description       block
_exptl_crystal_colour            red
_exptl_crystal_size_max          0.18
_exptl_crystal_size_mid          0.16
_exptl_crystal_size_min          0.08
_exptl_crystal_density_meas      ?
_exptl_crystal_density_diffrn    1.291
_exptl_crystal_density_method    'not measured'
_exptl_crystal_F_000             6318
_exptl_absorpt_coefficient_mu    1.180
_exptl_absorpt_correction_type   multi-scan
_exptl_absorpt_correction_T_min  0.809
_exptl_absorpt_correction_T_max  0.910
_exptl_absorpt_process_details   ?

_exptl_special_details           
;
?
;

_diffrn_ambient_temperature      150(2)
_diffrn_radiation_wavelength     0.71073
_diffrn_radiation_type           MoK\a
_diffrn_radiation_source         'fine-focus sealed tube'
_diffrn_radiation_monochromator  graphite
_diffrn_measurement_device_type  ?
_diffrn_measurement_method       ?
_diffrn_detector_area_resol_mean ?
_diffrn_standards_number         ?
_diffrn_standards_interval_count ?
_diffrn_standards_interval_time  ?
_diffrn_standards_decay_%        ?
_diffrn_reflns_number            45041
_diffrn_reflns_av_R_equivalents  0.0378
_diffrn_reflns_av_sigmaI/netI    0.0364
_diffrn_reflns_limit_h_min       -28
_diffrn_reflns_limit_h_max       32
_diffrn_reflns_limit_k_min       -18
_diffrn_reflns_limit_k_max       17
_diffrn_reflns_limit_l_min       -45
_diffrn_reflns_limit_l_max       45
_diffrn_reflns_theta_min         1.50
_diffrn_reflns_theta_max         25.00
_reflns_number_total             13883
_reflns_number_gt                12163
_reflns_threshold_expression     >2sigma(I)

_computing_data_collection       ?
_computing_cell_refinement       ?
_computing_data_reduction        ?
_computing_structure_solution    'SHELXS-97 (Sheldrick, 1990)'
_computing_structure_refinement  'SHELXL-97 (Sheldrick, 1997)'
_computing_molecular_graphics    ?
_computing_publication_material  ?

_refine_special_details          
;
Refinement of F^2^ against ALL reflections. The weighted R-factor wR and
goodness of fit S are based on F^2^, conventional R-factors R are based
on F, with F set to zero for negative F^2^. The threshold expression of
F^2^ > 2sigma(F^2^) is used only for calculating R-factors(gt) etc. and is
not relevant to the choice of reflections for refinement. R-factors based
on F^2^ are statistically about twice as large as those based on F, and R-
factors based on ALL data will be even larger.
;

_refine_ls_structure_factor_coef Fsqd
_refine_ls_matrix_type           full
_refine_ls_weighting_scheme      calc
_refine_ls_weighting_details     
'calc w=1/[\s^2^(Fo^2^)+(0.0810P)^2^+88.5743P] where P=(Fo^2^+2Fc^2^)/3'
_atom_sites_solution_primary     direct
_atom_sites_solution_secondary   difmap
_atom_sites_solution_hydrogens   geom
_refine_ls_hydrogen_treatment    constr
_refine_ls_extinction_method     none
_refine_ls_extinction_coef       ?
_refine_ls_number_reflns         13883
_refine_ls_number_parameters     682
_refine_ls_number_restraints     0
_refine_ls_R_factor_all          0.0556
_refine_ls_R_factor_gt           0.0497
_refine_ls_wR_factor_ref         0.1459
_refine_ls_wR_factor_gt          0.1416
_refine_ls_goodness_of_fit_ref   1.013
_refine_ls_restrained_S_all      1.013
_refine_ls_shift/su_max          0.001
_refine_ls_shift/su_mean         0.000

loop_
_atom_site_label
_atom_site_type_symbol
_atom_site_fract_x
_atom_site_fract_y
_atom_site_fract_z
_atom_site_U_iso_or_equiv
_atom_site_adp_type
_atom_site_occupancy
_atom_site_symmetry_multiplicity
_atom_site_calc_flag
_atom_site_refinement_flags
_atom_site_disorder_assembly
_atom_site_disorder_group
Mn1 Mn 0.5000 0.0000 0.0000 0.01560(17) Uani 1 2 d S . .
Mn2 Mn 0.47795(2) 0.19273(3) 0.019417(15) 0.01805(13) Uani 1 1 d . . .
Mn3 Mn 0.39672(2) 0.06476(4) 0.008782(15) 0.01906(14) Uani 1 1 d . . .
Mn4 Mn 0.416472(19) -0.12379(3) -0.010682(15) 0.01799(13) Uani 1 1 d . . .
Mn6 Mn 0.42770(2) -0.09861(4) 0.087285(15) 0.01956(14) Uani 1 1 d . . .
Mn7 Mn 0.44657(2) 0.17677(4) -0.074347(15) 0.02024(14) Uani 1 1 d . . .
Mn5 Mn 0.45560(2) -0.17027(4) -0.082185(15) 0.02031(14) Uani 1 1 d . . .
P1 P 0.38353(3) 0.25138(6) -0.01535(3) 0.0212(2) Uani 1 1 d . . .
P2 P 0.43605(4) 0.11114(6) 0.09624(3) 0.0209(2) Uani 1 1 d . . .
P3 P 0.38694(4) -0.00185(6) -0.07998(3) 0.0206(2) Uani 1 1 d . . .
P4 P 0.54199(3) 0.26854(6) -0.04940(3) 0.0183(2) Uani 1 1 d . . .
P5 P 0.33538(3) -0.08049(6) 0.04148(3) 0.0188(2) Uani 1 1 d . . .
O1 O 0.43807(9) -0.03512(16) 0.02198(6) 0.0180(5) Uani 1 1 d . . .
Cl1 Cl 0.2828(3) -0.4308(6) 0.2224(2) 0.095(2) Uiso 0.25 1 d P . .
O2 O 0.52264(9) 0.10200(17) 0.03377(7) 0.0235(6) Uani 1 1 d . . .
O3 O 0.54367(9) 0.23433(16) -0.01168(7) 0.0197(5) Uani 1 1 d . . .
O4 O 0.45460(10) 0.10962(17) -0.01381(7) 0.0241(6) Uani 1 1 d . . .
O5 O 0.33834(9) 0.01363(16) 0.02816(7) 0.0208(5) Uani 1 1 d . . .
O6 O 0.43274(10) 0.01391(17) 0.10498(7) 0.0252(6) Uani 1 1 d . . .
O7 O 0.40016(9) -0.19499(17) -0.05203(7) 0.0218(6) Uani 1 1 d . . .
O8 O 0.35986(9) 0.16817(16) -0.00085(7) 0.0232(6) Uani 1 1 d . . .
O9 O 0.42980(9) 0.27720(16) 0.00598(7) 0.0222(6) Uani 1 1 d . . .
O10 O 0.50778(10) 0.26013(16) 0.05741(7) 0.0231(6) Uani 1 1 d . . .
O11 O 0.35951(9) -0.08900(17) 0.07776(7) 0.0217(6) Uani 1 1 d . . .
O12 O 0.49866(9) -0.10597(17) 0.09026(7) 0.0243(6) Uani 1 1 d . . .
O13 O 0.48674(10) 0.14417(18) 0.10873(7) 0.0258(6) Uani 1 1 d . . .
O14 O 0.40317(10) 0.09048(17) -0.09044(7) 0.0247(6) Uani 1 1 d . . .
O15 O 0.39431(9) 0.24261(17) -0.05483(7) 0.0236(6) Uani 1 1 d . . .
O16 O 0.38558(9) -0.01431(16) -0.04015(7) 0.0200(5) Uani 1 1 d . . .
O17 O 0.48926(9) 0.26898(16) -0.06305(7) 0.0224(6) Uani 1 1 d . . .
O18 O 0.42115(11) -0.06715(18) -0.09869(7) 0.0290(6) Uani 1 1 d . . .
O19 O 0.35662(9) -0.14480(16) 0.01427(7) 0.0201(5) Uani 1 1 d . . .
O20 O 0.42933(12) -0.2515(2) -0.12481(8) 0.0378(7) Uani 1 1 d . . .
O21 O 0.42613(9) 0.13125(16) 0.05767(7) 0.0215(5) Uani 1 1 d . . .
O22 O 0.57596(9) 0.21592(16) -0.07353(7) 0.0215(5) Uani 1 1 d . . .
O23 O 0.4393(4) -0.0528(7) 0.3148(3) 0.191(4) Uiso 1 1 d . . .
O24 O 0.3788(5) -0.3943(9) -0.1319(4) 0.239(5) Uiso 1 1 d . . .
O25 O 0.5146(7) -0.5561(12) 0.3256(5) 0.303(8) Uiso 1 1 d . . .
O26 O 0.3339(6) -0.5000(9) 0.1398(4) 0.261(6) Uiso 1 1 d . . .
C1 C 0.3906(2) 0.2617(3) 0.11851(17) 0.0560(15) Uani 1 1 d . . .
H1A H 0.3655 0.2881 0.1328 0.084 Uiso 1 1 calc R . .
H1B H 0.3850 0.2760 0.0942 0.084 Uiso 1 1 calc R . .
H1C H 0.4224 0.2831 0.1256 0.084 Uiso 1 1 calc R . .
C2 C 0.3974(2) 0.1400(4) 0.16187(12) 0.0511(14) Uani 1 1 d . . .
H2A H 0.3724 0.1672 0.1760 0.077 Uiso 1 1 calc R . .
H2B H 0.4293 0.1607 0.1691 0.077 Uiso 1 1 calc R . .
H2C H 0.3958 0.0779 0.1649 0.077 Uiso 1 1 calc R . .
C3 C 0.4097(3) -0.3972(4) 0.28000(13) 0.0635(18) Uani 1 1 d . . .
H3A H 0.3759 -0.4175 0.2798 0.076 Uiso 1 1 calc R . .
H3B H 0.4311 -0.4480 0.2801 0.076 Uiso 1 1 calc R . .
C4 C 0.4194(3) -0.3446(4) 0.24687(13) 0.0551(15) Uani 1 1 d . . .
H4A H 0.4149 -0.3819 0.2265 0.066 Uiso 1 1 calc R . .
H4B H 0.4535 -0.3251 0.2470 0.066 Uiso 1 1 calc R . .
C5 C 0.33896(18) 0.1283(4) 0.11076(16) 0.0536(15) Uani 1 1 d . . .
H5A H 0.3132 0.1545 0.1245 0.080 Uiso 1 1 calc R . .
H5B H 0.3379 0.0661 0.1136 0.080 Uiso 1 1 calc R . .
H5C H 0.3343 0.1428 0.0863 0.080 Uiso 1 1 calc R . .
C6 C 0.3934(2) -0.2208(3) 0.20839(12) 0.0435(12) Uani 1 1 d . . .
C7 C 0.3804(2) -0.3106(3) 0.33259(12) 0.0436(12) Uani 1 1 d . . .
H7A H 0.3480 -0.3204 0.3256 0.052 Uiso 1 1 calc R . .
C8 C 0.55268(17) 0.4165(3) -0.08855(12) 0.0354(10) Uani 1 1 d . . .
H8A H 0.5640 0.4758 -0.0899 0.053 Uiso 1 1 calc R . .
H8B H 0.5178 0.4147 -0.0930 0.053 Uiso 1 1 calc R . .
H8C H 0.5696 0.3819 -0.1059 0.053 Uiso 1 1 calc R . .
C9 C 0.3716(2) -0.2531(4) 0.17814(12) 0.0458(12) Uani 1 1 d . . .
H9A H 0.3505 -0.3008 0.1795 0.055 Uiso 1 1 calc R . .
C10 C 0.4236(2) -0.1486(3) 0.20400(13) 0.0482(13) Uani 1 1 d . . .
H10A H 0.4390 -0.1236 0.2235 0.058 Uiso 1 1 calc R . .
C11 C 0.32430(19) 0.0029(3) -0.13652(13) 0.0434(12) Uani 1 1 d . . .
H11A H 0.2913 -0.0028 -0.1453 0.065 Uiso 1 1 calc R . .
H11B H 0.3451 -0.0393 -0.1478 0.065 Uiso 1 1 calc R . .
H11C H 0.3363 0.0605 -0.1414 0.065 Uiso 1 1 calc R . .
C12 C 0.43081(19) -0.1141(3) 0.17128(12) 0.0383(11) Uani 1 1 d . . .
H12A H 0.4510 -0.0653 0.1693 0.046 Uiso 1 1 calc R . .
C13 C 0.32681(17) 0.3526(3) 0.02760(13) 0.0404(11) Uani 1 1 d . . .
H13A H 0.3034 0.3993 0.0298 0.061 Uiso 1 1 calc R . .
H13B H 0.3563 0.3670 0.0404 0.061 Uiso 1 1 calc R . .
H13C H 0.3128 0.3000 0.0370 0.061 Uiso 1 1 calc R . .
C14 C 0.4657(2) -0.3265(3) 0.32478(12) 0.0424(12) Uani 1 1 d . . .
H14A H 0.4928 -0.3474 0.3124 0.051 Uiso 1 1 calc R . .
C15 C 0.3859(2) -0.2655(4) 0.24331(13) 0.0507(13) Uani 1 1 d . . .
H15A H 0.3518 -0.2838 0.2454 0.061 Uiso 1 1 calc R . .
H15B H 0.3928 -0.2247 0.2622 0.061 Uiso 1 1 calc R . .
C16 C 0.26857(15) -0.2043(3) 0.06036(14) 0.0361(11) Uani 1 1 d . . .
H16A H 0.2347 -0.2203 0.0637 0.054 Uiso 1 1 calc R . .
H16B H 0.2860 -0.2101 0.0823 0.054 Uiso 1 1 calc R . .
H16C H 0.2832 -0.2419 0.0430 0.054 Uiso 1 1 calc R . .
C17 C 0.29260(16) 0.0555(3) -0.07766(14) 0.0428(12) Uani 1 1 d . . .
H17A H 0.2592 0.0512 -0.0859 0.064 Uiso 1 1 calc R . .
H17B H 0.3051 0.1129 -0.0825 0.064 Uiso 1 1 calc R . .
H17C H 0.2936 0.0450 -0.0527 0.064 Uiso 1 1 calc R . .
C18 C 0.4186(2) -0.3448(3) 0.31325(12) 0.0450(13) Uani 1 1 d . . .
C19 C 0.38106(17) -0.2150(3) 0.14609(12) 0.0378(11) Uani 1 1 d . . .
H19A H 0.3661 -0.2382 0.1261 0.045 Uiso 1 1 calc R . .
C20 C 0.30524(18) -0.1053(3) -0.08846(14) 0.0436(12) Uani 1 1 d . . .
H20A H 0.2721 -0.1112 -0.0971 0.065 Uiso 1 1 calc R . .
H20B H 0.3056 -0.1148 -0.0634 0.065 Uiso 1 1 calc R . .
H20C H 0.3260 -0.1477 -0.0997 0.065 Uiso 1 1 calc R . .
C21 C 0.38993(17) -0.2621(3) 0.36225(12) 0.0366(10) Uani 1 1 d . . .
H21A H 0.3634 -0.2401 0.3750 0.044 Uiso 1 1 calc R . .
C22 C 0.37902(16) -0.2786(3) -0.04852(12) 0.0315(9) Uani 1 1 d . . .
H22A H 0.3738 -0.3033 -0.0715 0.047 Uiso 1 1 calc R . .
H22B H 0.3480 -0.2740 -0.0364 0.047 Uiso 1 1 calc R . .
H22C H 0.4008 -0.3155 -0.0353 0.047 Uiso 1 1 calc R . .
C23 C 0.36252(16) 0.4218(3) -0.02686(14) 0.0382(11) Uani 1 1 d . . .
H23A H 0.3397 0.4695 -0.0248 0.057 Uiso 1 1 calc R . .
H23B H 0.3701 0.4122 -0.0513 0.057 Uiso 1 1 calc R . .
H23C H 0.3922 0.4357 -0.0143 0.057 Uiso 1 1 calc R . .
C24 C 0.56321(14) 0.3804(2) -0.05188(11) 0.0230(8) Uani 1 1 d . . .
C25 C 0.24857(15) -0.0486(3) 0.07569(12) 0.0349(10) Uani 1 1 d . . .
H25A H 0.2146 -0.0640 0.0792 0.052 Uiso 1 1 calc R . .
H25B H 0.2507 0.0108 0.0678 0.052 Uiso 1 1 calc R . .
H25C H 0.2661 -0.0549 0.0975 0.052 Uiso 1 1 calc R . .
C26 C 0.27152(14) -0.1094(2) 0.04770(11) 0.0237(8) Uani 1 1 d . . .
C27 C 0.29286(15) 0.3143(3) -0.03230(14) 0.0373(11) Uani 1 1 d . . .
H27A H 0.2689 0.3603 -0.0304 0.056 Uiso 1 1 calc R . .
H27B H 0.2793 0.2613 -0.0230 0.056 Uiso 1 1 calc R . .
H27C H 0.3014 0.3061 -0.0566 0.056 Uiso 1 1 calc R . .
C28 C 0.47245(18) -0.2771(3) 0.35490(11) 0.0348(10) Uani 1 1 d . . .
H28A H 0.5044 -0.2658 0.3625 0.042 Uiso 1 1 calc R . .
C29 C 0.53538(16) 0.4336(3) -0.02414(13) 0.0341(10) Uani 1 1 d . . .
H29A H 0.5462 0.4932 -0.0250 0.051 Uiso 1 1 calc R . .
H29B H 0.5418 0.4100 -0.0012 0.051 Uiso 1 1 calc R . .
H29C H 0.5006 0.4311 -0.0289 0.051 Uiso 1 1 calc R . .
C30 C 0.61913(15) 0.3833(3) -0.04471(13) 0.0325(10) Uani 1 1 d . . .
H30A H 0.6305 0.4426 -0.0460 0.049 Uiso 1 1 calc R . .
H30B H 0.6360 0.3488 -0.0620 0.049 Uiso 1 1 calc R . .
H30C H 0.6257 0.3605 -0.0216 0.049 Uiso 1 1 calc R . .
C31 C 0.33937(14) 0.3391(3) -0.01122(12) 0.0288(9) Uani 1 1 d . . .
C32 C 0.24465(15) -0.0981(3) 0.01246(12) 0.0333(10) Uani 1 1 d . . .
H32A H 0.2106 -0.1135 0.0153 0.050 Uiso 1 1 calc R . .
H32B H 0.2595 -0.1353 -0.0049 0.050 Uiso 1 1 calc R . .
H32C H 0.2471 -0.0384 0.0050 0.050 Uiso 1 1 calc R . .
C33 C 0.32455(15) -0.0126(3) -0.09663(12) 0.0301(9) Uani 1 1 d . . .
C34 C 0.49318(18) 0.3421(3) 0.07025(13) 0.0370(10) Uani 1 1 d . . .
H34A H 0.5146 0.3593 0.0891 0.056 Uiso 1 1 calc R . .
H34B H 0.4599 0.3387 0.0788 0.056 Uiso 1 1 calc R . .
H34C H 0.4950 0.3844 0.0516 0.056 Uiso 1 1 calc R . .
C35 C 0.38897(16) 0.1627(3) 0.12314(11) 0.0315(9) Uani 1 1 d . . .
C36 C 0.4308(3) -0.2227(5) -0.16016(14) 0.073(2) Uani 1 1 d . . .
H36A H 0.4177 -0.2673 -0.1753 0.110 Uiso 1 1 calc R . .
H36B H 0.4643 -0.2106 -0.1667 0.110 Uiso 1 1 calc R . .
H36C H 0.4114 -0.1706 -0.1625 0.110 Uiso 1 1 calc R . .
C37 C 0.4705(6) 0.0019(10) 0.3404(5) 0.179(6) Uiso 1 1 d . . .
C38 C 0.3976(5) -0.4824(10) -0.1178(4) 0.155(5) Uiso 1 1 d . . .
C39 C 0.5413(8) -0.5293(14) 0.3029(6) 0.222(8) Uiso 1 1 d . . .
C40 C 0.3543(7) -0.4949(12) 0.1757(5) 0.202(7) Uiso 1 1 d . . .
N1 N 0.41075(13) -0.1461(2) 0.14230(9) 0.0281(7) Uani 1 1 d . . .
N2 N 0.43514(13) -0.2453(2) 0.37343(9) 0.0288(8) Uani 1 1 d . . .

loop_
_atom_site_aniso_label
_atom_site_aniso_U_11
_atom_site_aniso_U_22
_atom_site_aniso_U_33
_atom_site_aniso_U_23
_atom_site_aniso_U_13
_atom_site_aniso_U_12
Mn1 0.0128(4) 0.0130(4) 0.0210(4) -0.0013(3) -0.0011(3) -0.0010(3)
Mn2 0.0163(3) 0.0134(3) 0.0244(3) -0.0019(2) -0.0006(2) 0.0000(2)
Mn3 0.0149(3) 0.0170(3) 0.0253(3) -0.0004(2) 0.0003(2) -0.0024(2)
Mn4 0.0145(3) 0.0172(3) 0.0223(3) 0.0005(2) -0.0003(2) -0.0001(2)
Mn6 0.0184(3) 0.0179(3) 0.0223(3) -0.0012(2) -0.0012(2) -0.0007(2)
Mn7 0.0178(3) 0.0172(3) 0.0258(3) 0.0019(2) -0.0043(2) -0.0015(2)
Mn5 0.0200(3) 0.0191(3) 0.0218(3) -0.0012(2) -0.0010(2) -0.0008(2)
P1 0.0155(5) 0.0176(5) 0.0305(5) 0.0016(4) -0.0020(4) 0.0000(4)
P2 0.0205(5) 0.0193(5) 0.0230(5) -0.0037(4) 0.0019(4) -0.0016(4)
P3 0.0190(5) 0.0194(5) 0.0233(5) 0.0011(4) -0.0041(4) -0.0021(4)
P4 0.0176(5) 0.0138(4) 0.0235(5) 0.0015(4) -0.0013(4) -0.0014(3)
P5 0.0133(4) 0.0170(4) 0.0260(5) 0.0009(4) 0.0004(4) -0.0010(3)
O1 0.0136(12) 0.0177(12) 0.0227(13) -0.0006(10) -0.0003(10) 0.0000(10)
O2 0.0164(13) 0.0232(13) 0.0310(15) 0.0072(11) 0.0051(11) 0.0078(11)
O3 0.0170(13) 0.0162(12) 0.0260(14) 0.0014(10) -0.0014(10) 0.0009(10)
O4 0.0246(14) 0.0226(13) 0.0250(14) -0.0060(11) 0.0053(11) -0.0112(11)
O5 0.0150(12) 0.0179(13) 0.0294(14) 0.0028(11) 0.0025(10) -0.0016(10)
O6 0.0291(15) 0.0215(13) 0.0250(14) -0.0026(11) -0.0007(11) -0.0022(11)
O7 0.0185(13) 0.0215(13) 0.0255(14) 0.0003(11) -0.0005(11) -0.0027(10)
O8 0.0190(13) 0.0186(13) 0.0320(15) 0.0027(11) -0.0014(11) 0.0004(10)
O9 0.0197(13) 0.0166(12) 0.0303(14) 0.0009(11) -0.0038(11) 0.0009(10)
O10 0.0233(14) 0.0184(13) 0.0276(14) -0.0050(11) -0.0036(11) -0.0003(11)
O11 0.0186(13) 0.0222(13) 0.0242(14) -0.0026(11) 0.0013(11) 0.0011(10)
O12 0.0186(13) 0.0212(13) 0.0331(15) -0.0041(11) -0.0038(11) -0.0001(11)
O13 0.0245(14) 0.0308(15) 0.0221(14) -0.0040(12) 0.0005(11) -0.0063(12)
O14 0.0236(14) 0.0220(14) 0.0286(15) 0.0031(11) -0.0068(11) -0.0057(11)
O15 0.0183(13) 0.0211(13) 0.0314(15) 0.0046(11) -0.0054(11) 0.0005(10)
O16 0.0175(13) 0.0187(12) 0.0238(14) 0.0007(10) -0.0038(10) 0.0000(10)
O17 0.0197(13) 0.0169(13) 0.0305(15) 0.0028(11) -0.0040(11) -0.0014(10)
O18 0.0358(16) 0.0247(14) 0.0265(15) 0.0029(12) 0.0006(12) 0.0046(12)
O19 0.0155(12) 0.0175(12) 0.0272(14) 0.0000(11) 0.0024(10) -0.0012(10)
O20 0.0437(19) 0.0399(17) 0.0299(16) -0.0042(14) -0.0018(14) -0.0091(14)
O21 0.0190(13) 0.0209(13) 0.0245(14) -0.0026(11) 0.0019(10) -0.0033(10)
O22 0.0220(13) 0.0174(12) 0.0252(14) 0.0007(11) 0.000