####################################################################### 
# 
# This file contains crystal structure data downloaded from the 
# Cambridge Structural Database (CSD) hosted by the Cambridge 
# Crystallographic Data Centre (CCDC).
# 
# Full information about CCDC data access policies and citation 
# guidelines are available at http://www.ccdc.cam.ac.uk/access/V1 
# 
# Audit and citation data items may have been added by the CCDC. 
# Please retain this information to preserve the provenance of 
# this file and to allow appropriate attribution of the data. 
# 
#######################################################################

data_1
_audit_block_doi                 10.5517/ccs5vxp
_database_code_depnum_ccdc_archive 'CCDC 720623'
loop_
_citation_id
_citation_doi
_citation_year
1 10.1016/j.inoche.2012.07.039 2012
_audit_update_record             
;
2009-02-16 deposited with the CCDC.	2024-07-12 downloaded from the CCDC.
;
#TrackingRef '1.cif'


_audit_creation_method           SHELXL-97
_chemical_name_systematic        
;
?
;
_chemical_name_common            'C50 H62 Cl2 Co N14 O8'
_chemical_melting_point          ?
_chemical_formula_moiety         'C38 H34 Cl2 Co N10 O4, C12 H28 N4 O4'
_chemical_formula_sum            'C50 H62 Cl2 Co N14 O8'
_chemical_formula_weight         1116.97

loop_
_atom_type_symbol
_atom_type_description
_atom_type_scat_dispersion_real
_atom_type_scat_dispersion_imag
_atom_type_scat_source
C C 0.0033 0.0016 'International Tables Vol C Tables 4.2.6.8 and 6.1.1.4'
H H 0.0000 0.0000 'International Tables Vol C Tables 4.2.6.8 and 6.1.1.4'
Cl Cl 0.1484 0.1585 'International Tables Vol C Tables 4.2.6.8 and 6.1.1.4'
Co Co 0.3494 0.9721 'International Tables Vol C Tables 4.2.6.8 and 6.1.1.4'
N N 0.0061 0.0033 'International Tables Vol C Tables 4.2.6.8 and 6.1.1.4'
O O 0.0106 0.0060 'International Tables Vol C Tables 4.2.6.8 and 6.1.1.4'

_symmetry_cell_setting           monoclinic
_symmetry_space_group_name_H-M   'P 21/c'
_symmetry_space_group_name_Hall  '-p 2ybc'

loop_
_symmetry_equiv_pos_as_xyz
'x, y, z'
'-x, y+1/2, -z+1/2'
'-x, -y, -z'
'x, -y-1/2, z-1/2'

_cell_length_a                   7.7120(15)
_cell_length_b                   19.169(4)
_cell_length_c                   19.292(5)
_cell_angle_alpha                90.00
_cell_angle_beta                 107.74(3)
_cell_angle_gamma                90.00
_cell_volume                     2716.3(10)
_cell_formula_units_Z            2
_cell_measurement_temperature    293(2)
_cell_measurement_reflns_used    2552
_cell_measurement_theta_min      2.79
_cell_measurement_theta_max      22.60

_exptl_crystal_description       block
_exptl_crystal_colour            red
_exptl_crystal_size_max          0.39
_exptl_crystal_size_mid          0.28
_exptl_crystal_size_min          0.25
_exptl_crystal_density_meas      ?
_exptl_crystal_density_diffrn    1.366
_exptl_crystal_density_method    'not measured'
_exptl_crystal_F_000             1170
_exptl_absorpt_coefficient_mu    0.480
_exptl_absorpt_correction_type   none
_exptl_absorpt_correction_T_min  ?
_exptl_absorpt_correction_T_max  ?
_exptl_absorpt_process_details   ?

_exptl_special_details           
;
?
;

_diffrn_ambient_temperature      293(2)
_diffrn_radiation_wavelength     0.71073
_diffrn_radiation_type           MoK\a
_diffrn_radiation_source         'fine-focus sealed tube'
_diffrn_radiation_monochromator  graphite
_diffrn_measurement_device_type  'Siemens SMART CCD'
_diffrn_measurement_method       '\w scan'
_diffrn_detector_area_resol_mean ?
_diffrn_standards_number         ?
_diffrn_standards_interval_count ?
_diffrn_standards_interval_time  ?
_diffrn_standards_decay_%        ?
_diffrn_reflns_number            15496
_diffrn_reflns_av_R_equivalents  0.0431
_diffrn_reflns_av_sigmaI/netI    0.0493
_diffrn_reflns_limit_h_min       -9
_diffrn_reflns_limit_h_max       9
_diffrn_reflns_limit_k_min       -23
_diffrn_reflns_limit_k_max       18
_diffrn_reflns_limit_l_min       -23
_diffrn_reflns_limit_l_max       23
_diffrn_reflns_theta_min         2.40
_diffrn_reflns_theta_max         25.49
_reflns_number_total             5047
_reflns_number_gt                3491
_reflns_threshold_expression     >2sigma(I)

_computing_data_collection       'SMART (Siemens, 1996)'
_computing_cell_refinement       'SAINT (Siemens, 1994)'
_computing_data_reduction        SAINT
_computing_structure_solution    'SHELXS-97 (Sheldrick, 2008)'
_computing_structure_refinement  'SHELXL-97 (Sheldrick, 2008)'
_computing_molecular_graphics    'SHELXTL (Siemens, 1994)'
_computing_publication_material  SHELXL-97

_refine_special_details          
;
Refinement of F^2^ against ALL reflections. The weighted R-factor wR and
goodness of fit S are based on F^2^, conventional R-factors R are based
on F, with F set to zero for negative F^2^. The threshold expression of
F^2^ > 2sigma(F^2^) is used only for calculating R-factors(gt) etc. and is
not relevant to the choice of reflections for refinement. R-factors based
on F^2^ are statistically about twice as large as those based on F, and R-
factors based on ALL data will be even larger.
;

_refine_ls_structure_factor_coef Fsqd
_refine_ls_matrix_type           full
_refine_ls_weighting_scheme      calc
_refine_ls_weighting_details     
'calc w=1/[\s^2^(Fo^2^)+(0.0531P)^2^+0.1298P] where P=(Fo^2^+2Fc^2^)/3'
_atom_sites_solution_primary     direct
_atom_sites_solution_secondary   difmap
_atom_sites_solution_hydrogens   geom
_refine_ls_hydrogen_treatment    mixed
_refine_ls_extinction_method     none
_refine_ls_extinction_coef       ?
_refine_ls_number_reflns         5047
_refine_ls_number_parameters     344
_refine_ls_number_restraints     0
_refine_ls_R_factor_all          0.0703
_refine_ls_R_factor_gt           0.0423
_refine_ls_wR_factor_ref         0.1140
_refine_ls_wR_factor_gt          0.0999
_refine_ls_goodness_of_fit_ref   1.055
_refine_ls_restrained_S_all      1.055
_refine_ls_shift/su_max          0.001
_refine_ls_shift/su_mean         0.000

loop_
_atom_site_label
_atom_site_type_symbol
_atom_site_fract_x
_atom_site_fract_y
_atom_site_fract_z
_atom_site_U_iso_or_equiv
_atom_site_adp_type
_atom_site_occupancy
_atom_site_symmetry_multiplicity
_atom_site_calc_flag
_atom_site_refinement_flags
_atom_site_disorder_assembly
_atom_site_disorder_group
Co1 Co 1.0000 1.0000 0.0000 0.03200(16) Uani 1 2 d S . .
Cl1 Cl 0.70532(8) 1.05762(3) -0.05540(3) 0.03967(19) Uani 1 1 d . . .
O1 O 0.5747(3) 1.13225(11) 0.31519(10) 0.0560(6) Uani 1 1 d . . .
O2 O 0.9073(3) 0.87365(11) 0.58208(9) 0.0600(6) Uani 1 1 d . . .
O3 O 0.2611(4) 0.77957(14) 0.36064(13) 0.0865(8) Uani 1 1 d . . .
O4 O 0.8144(4) 0.88593(12) 0.30198(13) 0.0869(8) Uani 1 1 d . . .
N1 N 0.7409(3) 0.98632(11) 0.42946(11) 0.0339(5) Uani 1 1 d . . .
N2 N 0.6573(3) 1.02492(12) 0.28808(10) 0.0376(5) Uani 1 1 d . . .
H2A H 0.6901 0.9827 0.3048 0.045 Uiso 1 1 d R . .
N3 N 0.8878(3) 0.85789(11) 0.46384(11) 0.0416(5) Uani 1 1 d . . .
H3A H 0.8444 0.8740 0.4192 0.050 Uiso 1 1 d R . .
N4 N 0.9813(3) 1.02572(11) 0.10922(11) 0.0346(5) Uani 1 1 d . . .
N5 N 0.8524(3) 0.60346(11) 0.49181(11) 0.0352(5) Uani 1 1 d . . .
N6 N 0.2425(4) 0.80955(15) 0.24467(14) 0.0643(7) Uani 1 1 d . . .
N7 N 0.7441(4) 0.79212(16) 0.22777(14) 0.0683(8) Uani 1 1 d . . .
C1 C 0.6298(3) 1.07286(15) 0.33378(14) 0.0374(6) Uani 1 1 d . . .
C2 C 0.6712(3) 1.05027(14) 0.41202(13) 0.0341(6) Uani 1 1 d . . .
C3 C 0.6391(3) 1.09567(15) 0.46306(14) 0.0422(7) Uani 1 1 d . . .
H3 H 0.5867 1.1402 0.4486 0.051 Uiso 1 1 calc R . .
C4 C 0.6841(4) 1.07529(16) 0.53475(15) 0.0506(7) Uani 1 1 d . . .
H4 H 0.6649 1.1057 0.5706 0.061 Uiso 1 1 calc R . .
C5 C 0.7579(4) 1.00962(15) 0.55353(14) 0.0470(7) Uani 1 1 d . . .
H5 H 0.7905 0.9942 0.6026 0.056 Uiso 1 1 calc R . .
C6 C 0.7834(3) 0.96667(14) 0.49961(13) 0.0358(6) Uani 1 1 d . . .
C7 C 0.8651(3) 0.89513(14) 0.51904(14) 0.0396(6) Uani 1 1 d . . .
C8 C 0.6356(3) 1.03926(15) 0.21202(13) 0.0404(7) Uani 1 1 d . . .
H8A H 0.5705 1.0841 0.1984 0.048 Uiso 1 1 calc R . .
H8B H 0.5597 1.0022 0.1817 0.048 Uiso 1 1 calc R . .
C9 C 0.8155(3) 1.04303(13) 0.19570(12) 0.0329(6) Uani 1 1 d . . .
C10 C 0.9742(3) 1.06545(15) 0.24744(14) 0.0408(7) Uani 1 1 d . . .
H10 H 0.9727 1.0787 0.2947 0.049 Uiso 1 1 calc R . .
C11 C 1.1341(4) 1.06814(15) 0.22916(14) 0.0445(7) Uani 1 1 d . . .
H11 H 1.2437 1.0838 0.2635 0.053 Uiso 1 1 calc R . .
C12 C 1.1320(3) 1.04764(14) 0.16020(13) 0.0406(7) Uani 1 1 d . . .
H12 H 1.2428 1.0492 0.1483 0.049 Uiso 1 1 calc R . .
C13 C 0.8266(3) 1.02373(13) 0.12775(13) 0.0339(6) Uani 1 1 d . . .
H13 H 0.7187 1.0082 0.0923 0.041 Uiso 1 1 calc R . .
C14 C 0.9828(4) 0.79106(14) 0.47607(15) 0.0439(7) Uani 1 1 d . . .
H14A H 1.0808 0.7931 0.5232 0.053 Uiso 1 1 calc R . .
H14B H 1.0411 0.7840 0.4374 0.053 Uiso 1 1 calc R . .
C15 C 0.8630(3) 0.72866(13) 0.47693(13) 0.0352(6) Uani 1 1 d . . .
C16 C 0.6769(4) 0.73262(15) 0.46625(14) 0.0441(7) Uani 1 1 d . . .
H16 H 0.6160 0.7763 0.4572 0.053 Uiso 1 1 calc R . .
C17 C 0.5810(4) 0.67193(15) 0.46895(15) 0.0470(7) Uani 1 1 d . . .
H17 H 0.4534 0.6736 0.4615 0.056 Uiso 1 1 calc R . .
C18 C 0.6726(3) 0.60924(14) 0.48260(13) 0.0401(6) Uani 1 1 d . . .
H18 H 0.6060 0.5683 0.4857 0.048 Uiso 1 1 calc R . .
C19 C 0.9421(3) 0.66317(14) 0.48861(13) 0.0369(6) Uani 1 1 d . . .
H19 H 1.0689 0.6601 0.4948 0.044 Uiso 1 1 calc R . .
C20 C 0.2370(5) 0.76594(19) 0.2961(2) 0.0690(9) Uani 1 1 d . . .
H20 H 0.2115 0.7186 0.2821 0.083 Uiso 1 1 calc R . .
C21 C 0.2812(7) 0.8828(2) 0.2621(2) 0.1125(16) Uani 1 1 d . . .
H21A H 0.3853 0.8868 0.3063 0.169 Uiso 1 1 calc R . .
H21B H 0.1745 0.9050 0.2702 0.169 Uiso 1 1 calc R . .
H21C H 0.3098 0.9060 0.2217 0.169 Uiso 1 1 calc R . .
C22 C 0.2098(7) 0.7886(2) 0.1694(2) 0.1098(16) Uani 1 1 d . . .
H22A H 0.1953 0.7378 0.1654 0.165 Uiso 1 1 calc R . .
H22B H 0.3133 0.8026 0.1531 0.165 Uiso 1 1 calc R . .
H22C H 0.0988 0.8111 0.1388 0.165 Uiso 1 1 calc R . .
C23 C 0.7857(6) 0.8571(2) 0.2422(2) 0.0886(13) Uani 1 1 d . . .
H23 H 0.7951 0.8854 0.2031 0.106 Uiso 1 1 calc R . .
C24 C 0.7264(6) 0.7473(2) 0.2866(2) 0.0913(12) Uani 1 1 d . . .
H24A H 0.6872 0.7753 0.3216 0.137 Uiso 1 1 calc R . .
H24B H 0.8442 0.7256 0.3113 0.137 Uiso 1 1 calc R . .
H24C H 0.6360 0.7108 0.2664 0.137 Uiso 1 1 calc R . .
C25 C 0.7180(8) 0.7599(3) 0.1574(2) 0.1279(19) Uani 1 1 d . . .
H25A H 0.7378 0.7946 0.1233 0.192 Uiso 1 1 calc R . .
H25B H 0.5936 0.7417 0.1389 0.192 Uiso 1 1 calc R . .
H25C H 0.8050 0.7215 0.1623 0.192 Uiso 1 1 calc R . .

loop_
_atom_site_aniso_label
_atom_site_aniso_U_11
_atom_site_aniso_U_22
_atom_site_aniso_U_33
_atom_site_aniso_U_23
_atom_site_aniso_U_13
_atom_site_aniso_U_12
Co1 0.0336(3) 0.0313(3) 0.0324(3) -0.0028(2) 0.0120(2) 0.0004(2)
Cl1 0.0377(4) 0.0370(4) 0.0433(4) -0.0016(3) 0.0110(3) 0.0019(3)
O1 0.0783(15) 0.0438(13) 0.0462(11) 0.0087(10) 0.0195(10) 0.0223(11)
O2 0.0944(17) 0.0498(14) 0.0331(11) 0.0095(10) 0.0154(10) 0.0048(11)
O3 0.106(2) 0.096(2) 0.0577(15) 0.0094(14) 0.0257(14) 0.0185(16)
O4 0.150(2) 0.0538(16) 0.0572(14) -0.0113(12) 0.0326(15) 0.0152(15)
N1 0.0370(11) 0.0347(14) 0.0319(11) -0.0008(10) 0.0131(9) -0.0026(10)
N2 0.0484(13) 0.0367(14) 0.0312(12) 0.0018(10) 0.0173(10) 0.0016(10)
N3 0.0582(14) 0.0301(13) 0.0351(12) 0.0043(10) 0.0121(10) 0.0010(11)
N4 0.0340(11) 0.0364(13) 0.0334(11) -0.0044(10) 0.0102(9) 0.0011(10)
N5 0.0366(12) 0.0326(13) 0.0375(12) 0.0053(10) 0.0129(9) 0.0023(10)
N6 0.091(2) 0.0514(19) 0.0495(16) 0.0004(14) 0.0206(14) 0.0025(15)
N7 0.104(2) 0.0487(19) 0.0552(17) -0.0121(14) 0.0297(16) -0.0054(16)
C1 0.0354(14) 0.0413(18) 0.0374(14) 0.0005(13) 0.0138(11) 0.0007(12)
C2 0.0355(14) 0.0326(16) 0.0361(14) -0.0023(12) 0.0138(11) -0.0038(12)
C3 0.0500(16) 0.0356(17) 0.0433(16) -0.0038(13) 0.0175(13) 0.0009(13)
C4 0.068(2) 0.045(2) 0.0433(17) -0.0099(14) 0.0238(14) 0.0020(15)
C5 0.0625(18) 0.048(2) 0.0314(15) -0.0019(13) 0.0157(13) -0.0033(15)
C6 0.0414(14) 0.0337(16) 0.0336(14) -0.0033(12) 0.0136(11) -0.0092(12)
C7 0.0491(16) 0.0331(17) 0.0355(15) 0.0021(13) 0.0113(12) -0.0053(13)
C8 0.0407(14) 0.0523(19) 0.0292(13) -0.0011(13) 0.0120(11) 0.0013(13)
C9 0.0383(14) 0.0320(16) 0.0281(13) 0.0019(11) 0.0098(10) -0.0006(11)
C10 0.0456(16) 0.0457(18) 0.0303(13) -0.0041(12) 0.0104(12) 0.0011(13)
C11 0.0391(15) 0.0529(19) 0.0352(15) -0.0061(13) 0.0021(12) -0.0059(13)
C12 0.0313(14) 0.0505(19) 0.0404(15) -0.0039(13) 0.0113(11) -0.0024(12)
C13 0.0326(13) 0.0372(16) 0.0303(13) -0.0012(11) 0.0071(10) -0.0025(11)
C14 0.0501(16) 0.0316(17) 0.0477(16) 0.0075(13) 0.0114(13) 0.0033(13)
C15 0.0441(15) 0.0300(15) 0.0319(13) 0.0030(11) 0.0122(11) 0.0016(12)
C16 0.0479(17) 0.0301(16) 0.0548(17) 0.0075(13) 0.0164(13) 0.0091(13)
C17 0.0404(15) 0.0423(19) 0.0609(18) 0.0049(15) 0.0191(13) 0.0065(14)
C18 0.0458(16) 0.0330(17) 0.0445(16) 0.0037(13) 0.0183(12) -0.0012(13)
C19 0.0397(14) 0.0360(17) 0.0361(14) 0.0047(12) 0.0133(11) 0.0008(12)
C20 0.081(2) 0.051(2) 0.070(2) 0.001(2) 0.0171(19) 0.0082(18)
C21 0.178(5) 0.063(3) 0.102(3) -0.001(2) 0.052(3) -0.019(3)
C22 0.170(5) 0.102(4) 0.057(2) -0.011(2) 0.033(3) -0.001(3)
C23 0.142(4) 0.063(3) 0.071(3) 0.004(2) 0.047(3) 0.004(3)
C24 0.126(3) 0.067(3) 0.074(3) 0.001(2) 0.021(2) -0.018(3)
C25 0.201(5) 0.117(4) 0.085(3) -0.052(3) 0.071(3) -0.053(4)

_geom_special_details            
;
All esds (except the esd in the dihedral angle between two l.s. planes)
are estimated using the full covariance matrix. The cell esds are taken
into account individually in the estimation of esds in distances, angles
and torsion angles; correlations between esds in cell parameters are only
used when they are defined by crystal symmetry. An approximate (isotropic)
treatment of cell esds is used for estimating esds involving l.s. planes.
;

loop_
_geom_bond_atom_site_label_1
_geom_bond_atom_site_label_2
_geom_bond_distance
_geom_bond_site_symmetry_2
_geom_bond_publ_flag
Co1 N4 2.211(2) 3_775 ?
Co1 N4 2.211(2) . ?
Co1 N5 2.268(2) 4_575 ?
Co1 N5 2.268(2) 2_755 ?
Co1 Cl1 2.4591(9) 3_775 ?
Co1 Cl1 2.4591(9) . ?
O1 C1 1.230(3) . ?
O2 C7 1.230(3) . ?
O3 C20 1.229(4) . ?
O4 C23 1.236(4) . ?
N1 C2 1.339(3) . ?
N1 C6 1.346(3) . ?
N2 C1 1.334(3) . ?
N2 C8 1.452(3) . ?
N2 H2A 0.8803 . ?
N3 C7 1.337(3) . ?
N3 C14 1.459(3) . ?
N3 H3A 0.8799 . ?
N4 C12 1.341(3) . ?
N4 C13 1.346(3) . ?
N5 C18 1.348(3) . ?
N5 C19 1.348(3) . ?
N5 Co1 2.268(2) 2_745 ?
N6 C20 1.309(4) . ?
N6 C22 1.454(4) . ?
N6 C21 1.454(5) . ?
N7 C23 1.296(5) . ?
N7 C25 1.450(4) . ?
N7 C24 1.463(4) . ?
C1 C2 1.508(3) . ?
C2 C3 1.392(3) . ?
C3 C4 1.376(4) . ?
C3 H3 0.9500 . ?
C4 C5 1.383(4) . ?
C4 H4 0.9500 . ?
C5 C6 1.387(3) . ?
C5 H5 0.9500 . ?
C6 C7 1.508(4) . ?
C8 C9 1.515(3) . ?
C8 H8A 0.9900 . ?
C8 H8B 0.9900 . ?
C9 C13 1.389(3) . ?
C9 C10 1.391(3) . ?
C10 C11 1.383(3) . ?
C10 H10 0.9500 . ?
C11 C12 1.382(3) . ?
C11 H11 0.9500 . ?
C12 H12 0.9500 . ?
C13 H13 0.9500 . ?
C14 C15 1.515(4) . ?
C14 H14A 0.9900 . ?
C14 H14B 0.9900 . ?
C15 C19 1.384(3) . ?
C15 C16 1.388(3) . ?
C16 C17 1.388(4) . ?
C16 H16 0.9500 . ?
C17 C18 1.378(4) . ?
C17 H17 0.9500 . ?
C18 H18 0.9500 . ?
C19 H19 0.9500 . ?
C20 H20 0.9500 . ?
C21 H21A 0.9800 . ?
C21 H21B 0.9800 . ?
C21 H21C 0.9800 . ?
C22 H22A 0.9800 . ?
C22 H22B 0.9800 . ?
C22 H22C 0.9800 . ?
C23 H23 0.9500 . ?
C24 H24A 0.9800 . ?
C24 H24B 0.9800 . ?
C24 H24C 0.9800 . ?
C25 H25A 0.9800 . ?
C25 H25B 0.9800 . ?
C25 H25C 0.9800 . ?

loop_
_geom_angle_atom_site_label_1
_geom_angle_atom_site_label_2
_geom_angle_atom_site_label_3
_geom_angle
_geom_angle_site_symmetry_1
_geom_angle_site_symmetry_3
_geom_angle_publ_flag
N4 Co1 N4 180.00(11) 3_775 . ?
N4 Co1 N5 85.17(7) 3_775 4_575 ?
N4 Co1 N5 94.83(7) . 4_575 ?
N4 Co1 N5 94.83(7) 3_775 2_755 ?
N4 Co1 N5 85.17(7) . 2_755 ?
N5 Co1 N5 180.00(10) 4_575 2_755 ?
N4 Co1 Cl1 89.66(6) 3_775 3_775 ?
N4 Co1 Cl1 90.34(6) . 3_775 ?
N5 Co1 Cl1 90.87(6) 4_575 3_775 ?
N5 Co1 Cl1 89.13(6) 2_755 3_775 ?
N4 Co1 Cl1 90.34(6) 3_775 . ?
N4 Co1 Cl1 89.66(6) . . ?
N5 Co1 Cl1 89.13(6) 4_575 . ?
N5 Co1 Cl1 90.87(6) 2_755 . ?
Cl1 Co1 Cl1 180.0 3_775 . ?
C2 N1 C6 117.7(2) . . ?
C1 N2 C8 123.0(2) . . ?
C1 N2 H2A 118.5 . . ?
C8 N2 H2A 118.5 . . ?
C7 N3 C14 121.4(2) . . ?
C7 N3 H3A 119.3 . . ?
C14 N3 H3A 119.3 . . ?
C12 N4 C13 117.0(2) . . ?
C12 N4 Co1 118.37(16) . . ?
C13 N4 Co1 124.56(16) . . ?
C18 N5 C19 116.5(2) . . ?
C18 N5 Co1 123.74(17) . 2_745 ?
C19 N5 Co1 119.46(16) . 2_745 ?
C20 N6 C22 123.1(3) . . ?
C20 N6 C21 119.5(3) . . ?
C22 N6 C21 117.4(3) . . ?
C23 N7 C25 124.5(3) . . ?
C23 N7 C24 118.3(3) . . ?
C25 N7 C24 117.2(3) . . ?
O1 C1 N2 123.7(2) . . ?
O1 C1 C2 120.5(2) . . ?
N2 C1 C2 115.8(2) . . ?
N1 C2 C3 122.6(2) . . ?
N1 C2 C1 117.4(2) . . ?
C3 C2 C1 120.0(2) . . ?
C4 C3 C2 119.3(3) . . ?
C4 C3 H3 120.4 . . ?
C2 C3 H3 120.4 . . ?
C3 C4 C5 118.6(3) . . ?
C3 C4 H4 120.7 . . ?
C5 C4 H4 120.7 . . ?
C4 C5 C6 119.0(2) . . ?
C4 C5 H5 120.5 . . ?
C6 C5 H5 120.5 . . ?
N1 C6 C5 122.8(3) . . ?
N1 C6 C7 117.4(2) . . ?
C5 C6 C7 119.8(2) . . ?
O2 C7 N3 123.3(3) . . ?
O2 C7 C6 121.0(2) . . ?
N3 C7 C6 115.7(2) . . ?
N2 C8 C9 112.8(2) . . ?
N2 C8 H8A 109.0 . . ?
C9 C8 H8A 109.0 . . ?
N2 C8 H8B 109.0 . . ?
C9 C8 H8B 109.0 . . ?
H8A C8 H8B 107.8 . . ?
C13 C9 C10 117.8(2) . . ?
C13 C9 C8 120.5(2) . . ?
C10 C9 C8 121.8(2) . . ?
C11 C10 C9 119.1(2) . . ?
C11 C10 H10 120.5 . . ?
C9 C10 H10 120.5 . . ?
C12 C11 C10 119.0(2) . . ?
C12 C11 H11 120.5 . . ?
C10 C11 H11 120.5 . . ?
N4 C12 C11 123.3(2) . . ?
N4 C12 H12 118.4 . . ?
C11 C12 H12 118.4 . . ?
N4 C13 C9 123.9(2) . . ?
N4 C13 H13 118.1 . . ?
C