####################################################################### 
# 
# This file contains crystal structure data downloaded from the 
# Cambridge Structural Database (CSD) hosted by the Cambridge 
# Crystallographic Data Centre (CCDC).
# 
# Full information about CCDC data access policies and citation 
# guidelines are available at http://www.ccdc.cam.ac.uk/access/V1 
# 
# Audit and citation data items may have been added by the CCDC. 
# Please retain this information to preserve the provenance of 
# this file and to allow appropriate attribution of the data. 
# 
#######################################################################

data_2
_audit_block_doi                 10.5517/cc9jlgv
_database_code_depnum_ccdc_archive 'CCDC 284067'
loop_
_citation_id
_citation_doi
_citation_year
1 10.1002/ejic.200500822 2006
_audit_update_record             
;
2005-09-15 deposited with the CCDC.	2024-07-12 downloaded from the CCDC.
;

_audit_creation_method           SHELXL-97
_chemical_name_systematic        
;
?
;
_chemical_name_common            ?
_chemical_melting_point          ?
_chemical_formula_moiety         ?
_chemical_formula_sum            'C64 H60 Cu2 N16 O28'
_chemical_formula_weight         1628.36

loop_
_atom_type_symbol
_atom_type_description
_atom_type_scat_dispersion_real
_atom_type_scat_dispersion_imag
_atom_type_scat_source
C C 0.0033 0.0016 'International Tables Vol C Tables 4.2.6.8 and 6.1.1.4'
H H 0.0000 0.0000 'International Tables Vol C Tables 4.2.6.8 and 6.1.1.4'
N N 0.0061 0.0033 'International Tables Vol C Tables 4.2.6.8 and 6.1.1.4'
O O 0.0106 0.0060 'International Tables Vol C Tables 4.2.6.8 and 6.1.1.4'
Cu Cu 0.3201 1.2651 'International Tables Vol C Tables 4.2.6.8 and 6.1.1.4'

_symmetry_cell_setting           Monoclinic
_symmetry_space_group_name_H-M   P2(1)/c

loop_
_symmetry_equiv_pos_as_xyz
'x, y, z'
'-x, y+1/2, -z+1/2'
'-x, -y, -z'
'x, -y-1/2, z-1/2'

_cell_length_a                   12.576(4)
_cell_length_b                   32.497(11)
_cell_length_c                   9.226(3)
_cell_angle_alpha                90.00
_cell_angle_beta                 107.843(6)
_cell_angle_gamma                90.00
_cell_volume                     3589(2)
_cell_formula_units_Z            2
_cell_measurement_temperature    293(2)
_cell_measurement_reflns_used    794
_cell_measurement_theta_min      2.54
_cell_measurement_theta_max      22.26

_exptl_crystal_description       Block
_exptl_crystal_colour            Blue
_exptl_crystal_size_max          0.24
_exptl_crystal_size_mid          0.20
_exptl_crystal_size_min          0.12
_exptl_crystal_density_meas      None
_exptl_crystal_density_diffrn    1.507
_exptl_crystal_density_method    'not measured'
_exptl_crystal_F_000             1676
_exptl_absorpt_coefficient_mu    0.689
_exptl_absorpt_correction_type   Multi-Scan
_exptl_absorpt_correction_T_min  0.872514
_exptl_absorpt_correction_T_max  1.000000
_exptl_absorpt_process_details   SADABS

_exptl_special_details           
;
?
;

_diffrn_ambient_temperature      293(2)
_diffrn_radiation_wavelength     0.71073
_diffrn_radiation_type           MoK\a
_diffrn_radiation_source         'fine-focus sealed tube'
_diffrn_radiation_monochromator  graphite
_diffrn_measurement_device_type  'Apex II CCD area detector'
_diffrn_measurement_method       'phi and omega scans'
_diffrn_detector_area_resol_mean ?
_diffrn_standards_number         ?
_diffrn_standards_interval_count ?
_diffrn_standards_interval_time  ?
_diffrn_standards_decay_%        ?
_diffrn_reflns_number            18445
_diffrn_reflns_av_R_equivalents  0.0673
_diffrn_reflns_av_sigmaI/netI    0.0770
_diffrn_reflns_limit_h_min       -14
_diffrn_reflns_limit_h_max       14
_diffrn_reflns_limit_k_min       -37
_diffrn_reflns_limit_k_max       38
_diffrn_reflns_limit_l_min       -8
_diffrn_reflns_limit_l_max       10
_diffrn_reflns_theta_min         1.25
_diffrn_reflns_theta_max         25.01
_reflns_number_total             6309
_reflns_number_gt                4072
_reflns_threshold_expression     >2sigma(I)

_computing_data_collection       'Bruker SMART APEX II'
_computing_cell_refinement       'Bruker SMART APEX II'
_computing_data_reduction        'Bruker SAINT'
_computing_structure_solution    'SHELXS-97 (Sheldrick, 1990)'
_computing_structure_refinement  'SHELXL-97 (Sheldrick, 1997)'
_computing_molecular_graphics    'Bruker SHELXTL'
_computing_publication_material  'Bruker SHELXTL'

_refine_special_details          
;
Refinement of F^2^ against ALL reflections. The weighted R-factor wR and
goodness of fit S are based on F^2^, conventional R-factors R are based
on F, with F set to zero for negative F^2^. The threshold expression of
F^2^ > 2sigma(F^2^) is used only for calculating R-factors(gt) etc. and is
not relevant to the choice of reflections for refinement. R-factors based
on F^2^ are statistically about twice as large as those based on F, and R-
factors based on ALL data will be even larger.
;

_refine_ls_structure_factor_coef Fsqd
_refine_ls_matrix_type           full
_refine_ls_weighting_scheme      calc
_refine_ls_weighting_details     
'calc w=1/[\s^2^(Fo^2^)+(0.0742P)^2^+0.0000P] where P=(Fo^2^+2Fc^2^)/3'
_atom_sites_solution_primary     direct
_atom_sites_solution_secondary   difmap
_atom_sites_solution_hydrogens   geom
_refine_ls_hydrogen_treatment    constr
_refine_ls_extinction_method     none
_refine_ls_extinction_coef       ?
_refine_ls_number_reflns         6309
_refine_ls_number_parameters     498
_refine_ls_number_restraints     0
_refine_ls_R_factor_all          0.1083
_refine_ls_R_factor_gt           0.0575
_refine_ls_wR_factor_ref         0.1599
_refine_ls_wR_factor_gt          0.1272
_refine_ls_goodness_of_fit_ref   1.108
_refine_ls_restrained_S_all      1.108
_refine_ls_shift/su_max          0.000
_refine_ls_shift/su_mean         0.000

loop_
_atom_site_label
_atom_site_type_symbol
_atom_site_fract_x
_atom_site_fract_y
_atom_site_fract_z
_atom_site_U_iso_or_equiv
_atom_site_adp_type
_atom_site_occupancy
_atom_site_symmetry_multiplicity
_atom_site_calc_flag
_atom_site_refinement_flags
_atom_site_disorder_assembly
_atom_site_disorder_group
Cu1 Cu -0.02544(5) 0.628526(16) 0.51075(6) 0.03133(19) Uani 1 1 d . . .
N1 N 0.0540(3) 0.62008(10) 0.7377(4) 0.0321(9) Uani 1 1 d . . .
N2 N 0.1681(4) 0.51867(13) 1.1389(5) 0.0574(13) Uani 1 1 d . . .
N3 N 0.1692(4) 0.47568(12) 1.1344(5) 0.0571(14) Uani 1 1 d . . .
N4 N 0.0731(3) 0.37879(10) 0.7192(4) 0.0326(9) Uani 1 1 d . . .
N5 N 0.4139(4) 0.85223(12) 0.3267(5) 0.0478(11) Uani 1 1 d . . .
N6 N 0.3437(4) 0.97754(13) 0.3897(5) 0.0457(11) Uani 1 1 d . . .
N7 N 0.3441(3) 1.02071(13) 0.3865(5) 0.0438(11) Uani 1 1 d . . .
N8 N 0.4169(4) 1.14459(13) 0.2945(5) 0.0538(12) Uani 1 1 d . . .
O1 O 0.1080(2) 0.49905(9) 0.9014(3) 0.0301(7) Uani 1 1 d . . .
O2 O 0.4663(3) 0.99756(9) 0.2784(4) 0.0377(8) Uani 1 1 d . . .
O3 O -0.1091(3) 0.57872(9) 0.5137(3) 0.0322(7) Uani 1 1 d . . .
O4 O -0.2601(3) 0.60150(10) 0.5662(4) 0.0491(9) Uani 1 1 d . . .
O5 O -0.1496(3) 0.42936(10) 0.5062(5) 0.0493(10) Uani 1 1 d . . .
H5 H -0.1693 0.4063 0.5232 0.074 Uiso 1 1 calc R . .
O6 O -0.3165(3) 0.44729(9) 0.5214(4) 0.0421(9) Uani 1 1 d . . .
O7 O 0.0656(3) 0.67702(9) 0.5009(4) 0.0367(8) Uani 1 1 d . . .
O8 O 0.2020(4) 0.64403(11) 0.4434(6) 0.0834(15) Uani 1 1 d . . .
O9 O 0.3061(3) 0.78964(11) 0.3954(6) 0.0751(14) Uani 1 1 d . . .
H9 H 0.3440 0.8091 0.3832 0.113 Uiso 1 1 calc R . .
O10 O 0.4533(4) 0.75385(12) 0.3852(7) 0.1010(19) Uani 1 1 d . . .
C1 C 0.0708(4) 0.58162(14) 0.7933(5) 0.0319(11) Uani 1 1 d . . .
H1 H 0.0507 0.5597 0.7253 0.038 Uiso 1 1 calc R . .
C2 C 0.1167(4) 0.57295(13) 0.9467(5) 0.0295(11) Uani 1 1 d . . .
C3 C 0.1469(4) 0.60595(15) 1.0473(5) 0.0395(12) Uani 1 1 d . . .
H3 H 0.1780 0.6014 1.1512 0.047 Uiso 1 1 calc R . .
C4 C 0.1303(4) 0.64535(15) 0.9912(6) 0.0442(13) Uani 1 1 d . . .
H4 H 0.1500 0.6678 1.0566 0.053 Uiso 1 1 calc R . .
C5 C 0.0843(4) 0.65128(14) 0.8372(6) 0.0392(12) Uani 1 1 d . . .
H5A H 0.0736 0.6781 0.8003 0.047 Uiso 1 1 calc R . .
C6 C 0.1332(4) 0.53095(14) 1.0016(5) 0.0320(11) Uani 1 1 d . . .
C7 C 0.1345(4) 0.46559(14) 0.9938(5) 0.0321(11) Uani 1 1 d . . .
C8 C 0.0812(4) 0.41670(13) 0.7788(5) 0.0305(11) Uani 1 1 d . . .
H8 H 0.0576 0.4390 0.7135 0.037 Uiso 1 1 calc R . .
C9 C 0.1230(4) 0.42400(13) 0.9323(5) 0.0307(11) Uani 1 1 d . . .
C10 C 0.1577(4) 0.39091(15) 1.0322(5) 0.0386(12) Uani 1 1 d . . .
H10 H 0.1863 0.3950 1.1367 0.046 Uiso 1 1 calc R . .
C11 C 0.1481(4) 0.35200(15) 0.9702(6) 0.0457(13) Uani 1 1 d . . .
H11 H 0.1696 0.3291 1.0327 0.055 Uiso 1 1 calc R . .
C12 C 0.1063(4) 0.34742(14) 0.8145(6) 0.0427(13) Uani 1 1 d . . .
H12 H 0.1010 0.3210 0.7742 0.051 Uiso 1 1 calc R . .
C13 C 0.3910(4) 0.89128(16) 0.3432(6) 0.0473(14) Uani 1 1 d . . .
H13 H 0.3334 0.8974 0.3833 0.057 Uiso 1 1 calc R . .
C14 C 0.4482(4) 0.92339(14) 0.3039(5) 0.0354(12) Uani 1 1 d . . .
C15 C 0.5317(4) 0.91408(16) 0.2413(6) 0.0473(14) Uani 1 1 d . . .
H15 H 0.5708 0.9349 0.2108 0.057 Uiso 1 1 calc R . .
C16 C 0.5562(4) 0.87363(16) 0.2246(6) 0.0501(14) Uani 1 1 d . . .
H16 H 0.6130 0.8667 0.1839 0.060 Uiso 1 1 calc R . .
C17 C 0.4969(5) 0.84373(16) 0.2681(6) 0.0524(15) Uani 1 1 d . . .
H17 H 0.5144 0.8164 0.2568 0.063 Uiso 1 1 calc R . .
C18 C 0.4163(4) 0.96560(14) 0.3263(5) 0.0346(11) Uani 1 1 d . . .
C19 C 0.4171(4) 1.03121(14) 0.3199(5) 0.0352(11) Uani 1 1 d . . .
C20 C 0.3942(4) 1.10613(16) 0.3208(6) 0.0461(13) Uani 1 1 d . . .
H20 H 0.3379 1.1016 0.3648 0.055 Uiso 1 1 calc R . .
C21 C 0.4491(4) 1.07195(14) 0.2869(5) 0.0364(12) Uani 1 1 d . . .
C22 C 0.5326(4) 1.07870(15) 0.2211(6) 0.0441(13) Uani 1 1 d . . .
H22 H 0.5721 1.0568 0.1977 0.053 Uiso 1 1 calc R . .
C23 C 0.5559(5) 1.11852(16) 0.1909(7) 0.0542(15) Uani 1 1 d . . .
H23 H 0.6110 1.1240 0.1456 0.065 Uiso 1 1 calc R . .
C24 C 0.4970(5) 1.14994(16) 0.2286(7) 0.0578(16) Uani 1 1 d . . .
H24 H 0.5136 1.1767 0.2070 0.069 Uiso 1 1 calc R . .
C25 C -0.2023(4) 0.57408(13) 0.5367(5) 0.0268(10) Uani 1 1 d . . .
C26 C -0.2430(4) 0.53082(13) 0.5282(5) 0.0282(10) Uani 1 1 d . . .
H26 H -0.3126 0.5262 0.5410 0.034 Uiso 1 1 calc R . .
C27 C -0.1874(4) 0.49880(13) 0.5040(5) 0.0305(11) Uani 1 1 d . . .
H27 H -0.1209 0.5030 0.4819 0.037 Uiso 1 1 calc R . .
C28 C -0.2268(4) 0.45623(13) 0.5105(5) 0.0290(11) Uani 1 1 d . . .
C29 C 0.1551(5) 0.67560(14) 0.4660(6) 0.0438(13) Uani 1 1 d . . .
C30 C 0.2060(4) 0.71583(14) 0.4451(6) 0.0463(14) Uani 1 1 d . . .
H30 H 0.1664 0.7399 0.4458 0.056 Uiso 1 1 calc R . .
C31 C 0.3039(5) 0.71812(15) 0.4260(8) 0.0642(18) Uani 1 1 d . . .
H31 H 0.3414 0.6934 0.4279 0.077 Uiso 1 1 calc R . .
C32 C 0.3621(5) 0.75565(15) 0.4018(8) 0.0609(17) Uani 1 1 d . . .
O11 O -0.1607(3) 0.67116(10) 0.5211(4) 0.0584(11) Uani 1 1 d . . .
H11A H -0.2017 0.6525 0.5404 0.088 Uiso 1 1 d R . .
H11B H -0.1624 0.6927 0.5725 0.088 Uiso 1 1 d R . .
O12 O 0.6640(4) 0.78054(16) 0.6139(8) 0.140(3) Uani 1 1 d . . .
H12A H 0.6404 0.8037 0.6338 0.210 Uiso 1 1 d R . .
H12B H 0.6121 0.7671 0.5510 0.210 Uiso 1 1 d R . .
O13 O 0.8541(4) 0.73675(14) 0.7225(6) 0.0982(16) Uani 1 1 d . . .
H13A H 0.7843 0.7399 0.7065 0.147 Uiso 1 1 d R . .
H13B H 0.8895 0.7394 0.8166 0.147 Uiso 1 1 d R . .
O14 O 0.9815(4) 0.75748(13) 0.5298(5) 0.0913(16) Uani 1 1 d . . .
H14A H 0.9963 0.7335 0.5043 0.137 Uiso 1 1 d R . .
H14B H 0.9270 0.7567 0.5661 0.137 Uiso 1 1 d R . .

loop_
_atom_site_aniso_label
_atom_site_aniso_U_11
_atom_site_aniso_U_22
_atom_site_aniso_U_33
_atom_site_aniso_U_23
_atom_site_aniso_U_13
_atom_site_aniso_U_12
Cu1 0.0391(4) 0.0207(3) 0.0359(4) -0.0013(3) 0.0140(3) -0.0063(3)
N1 0.039(2) 0.022(2) 0.036(2) -0.0011(17) 0.0139(18) -0.0056(16)
N2 0.105(4) 0.035(3) 0.028(3) -0.003(2) 0.013(3) 0.005(3)
N3 0.110(4) 0.028(3) 0.029(3) 0.0018(19) 0.016(3) 0.005(2)
N4 0.042(2) 0.021(2) 0.035(2) 0.0008(17) 0.0128(19) -0.0024(16)
N5 0.050(3) 0.033(3) 0.067(3) 0.002(2) 0.026(2) -0.010(2)
N6 0.046(3) 0.042(3) 0.056(3) 0.005(2) 0.025(2) -0.004(2)
N7 0.046(3) 0.040(3) 0.050(3) 0.003(2) 0.022(2) -0.001(2)
N8 0.057(3) 0.036(3) 0.073(3) 0.000(2) 0.027(3) 0.004(2)
O1 0.0352(19) 0.0284(17) 0.0261(18) -0.0025(14) 0.0084(14) -0.0019(13)
O2 0.036(2) 0.0330(19) 0.046(2) 0.0041(15) 0.0153(16) -0.0049(15)
O3 0.0361(19) 0.0220(16) 0.041(2) -0.0035(14) 0.0158(16) -0.0068(14)
O4 0.053(2) 0.0283(19) 0.077(3) -0.0039(18) 0.036(2) 0.0019(17)
O5 0.049(2) 0.0253(18) 0.084(3) 0.0053(19) 0.036(2) -0.0012(16)
O6 0.037(2) 0.0281(18) 0.064(2) -0.0036(16) 0.0204(18) -0.0124(15)
O7 0.044(2) 0.0232(17) 0.045(2) -0.0020(14) 0.0170(17) -0.0112(15)
O8 0.082(3) 0.021(2) 0.172(5) 0.005(2) 0.075(3) 0.001(2)
O9 0.066(3) 0.026(2) 0.158(4) 0.009(2) 0.070(3) -0.0008(19)
O10 0.063(3) 0.038(2) 0.228(6) 0.008(3) 0.083(4) -0.003(2)
C1 0.034(3) 0.028(3) 0.035(3) -0.007(2) 0.012(2) -0.003(2)
C2 0.030(3) 0.030(3) 0.031(3) -0.004(2) 0.013(2) -0.002(2)
C3 0.046(3) 0.041(3) 0.030(3) -0.004(2) 0.010(2) -0.004(2)
C4 0.060(4) 0.027(3) 0.046(4) -0.012(2) 0.017(3) -0.011(2)
C5 0.052(3) 0.024(3) 0.042(3) -0.004(2) 0.016(3) -0.010(2)
C6 0.037(3) 0.032(3) 0.030(3) -0.007(2) 0.014(2) -0.002(2)
C7 0.038(3) 0.032(3) 0.028(3) 0.008(2) 0.013(2) 0.005(2)
C8 0.033(3) 0.025(2) 0.033(3) 0.000(2) 0.010(2) -0.003(2)
C9 0.037(3) 0.024(2) 0.034(3) 0.000(2) 0.015(2) -0.003(2)
C10 0.049(3) 0.036(3) 0.029(3) 0.004(2) 0.010(2) 0.002(2)
C11 0.059(4) 0.034(3) 0.039(3) 0.013(2) 0.008(3) 0.005(3)
C12 0.053(3) 0.023(3) 0.051(4) 0.003(2) 0.014(3) 0.001(2)
C13 0.045(3) 0.040(3) 0.064(4) 0.003(3) 0.027(3) -0.007(3)
C14 0.033(3) 0.033(3) 0.039(3) 0.005(2) 0.008(2) -0.008(2)
C15 0.046(3) 0.042(3) 0.057(4) 0.009(3) 0.021(3) -0.009(3)
C16 0.045(3) 0.047(3) 0.066(4) 0.002(3) 0.028(3) -0.001(3)
C17 0.054(4) 0.035(3) 0.075(4) 0.002(3) 0.028(3) 0.000(3)
C18 0.031(3) 0.034(3) 0.037(3) 0.007(2) 0.008(2) -0.009(2)
C19 0.034(3) 0.037(3) 0.033(3) -0.001(2) 0.008(2) 0.000(2)
C20 0.044(3) 0.041(3) 0.056(4) 0.004(3) 0.020(3) 0.000(3)
C21 0.036(3) 0.035(3) 0.035(3) -0.003(2) 0.007(2) -0.004(2)
C22 0.048(3) 0.036(3) 0.053(3) 0.002(2) 0.022(3) 0.003(2)
C23 0.057(4) 0.044(3) 0.072(4) 0.004(3) 0.035(3) -0.007(3)
C24 0.065(4) 0.030(3) 0.082(5) 0.008(3) 0.028(4) -0.002(3)
C25 0.039(3) 0.021(2) 0.020(3) 0.0018(18) 0.008(2) -0.002(2)
C26 0.028(3) 0.030(3) 0.027(3) 0.003(2) 0.009(2) -0.005(2)
C27 0.032(3) 0.030(3) 0.033(3) 0.000(2) 0.014(2) -0.008(2)
C28 0.036(3) 0.025(2) 0.026(3) -0.0015(19) 0.009(2) -0.004(2)
C29 0.051(3) 0.019(3) 0.063(4) -0.001(2) 0.020(3) -0.007(2)
C30 0.046(3) 0.017(3) 0.084(4) 0.007(2) 0.032(3) 0.001(2)
C31 0.060(4) 0.020(3) 0.128(6) 0.001(3) 0.052(4) -0.004(2)
C32 0.051(4) 0.024(3) 0.120(5) 0.002(3) 0.045(4) -0.004(3)
O11 0.056(2) 0.029(2) 0.097(3) -0.0103(19) 0.034(2) -0.0029(17)
O12 0.090(4) 0.081(4) 0.233(7) -0.059(4) 0.025(4) 0.019(3)
O13 0.104(4) 0.079(4) 0.121(4) -0.027(3) 0.049(3) 0.002(3)
O14 0.113(4) 0.047(3) 0.133(4) -0.002(3) 0.065(4) 0.009(3)

_geom_special_details            
;
All esds (except the esd in the dihedral angle between two l.s. planes)
are estimated using the full covariance matrix. The cell esds are taken
into account individually in the estimation of esds in distances, angles
and torsion angles; correlations between esds in cell parameters are only
used when they are defined by crystal symmetry. An approximate (isotropic)
treatment of cell esds is used for estimating esds involving l.s. planes.
;

loop_
_geom_bond_atom_site_label_1
_geom_bond_atom_site_label_2
_geom_bond_distance
_geom_bond_site_symmetry_2
_geom_bond_publ_flag
Cu1 O3 1.935(3) . ?
Cu1 O7 1.966(3) . ?
Cu1 N4 2.034(4) 3_566 ?
Cu1 N1 2.043(4) . ?
Cu1 O11 2.219(3) . ?
N1 C5 1.342(6) . ?
N1 C1 1.343(5) . ?
N2 C6 1.271(6) . ?
N2 N3 1.398(6) . ?
N3 C7 1.278(6) . ?
N4 C12 1.327(6) . ?
N4 C8 1.340(5) . ?
N4 Cu1 2.034(4) 3_566 ?
N5 C13 1.321(6) . ?
N5 C17 1.343(6) . ?
N6 C18 1.285(6) . ?
N6 N7 1.404(5) . ?
N7 C19 1.297(6) . ?
N8 C20 1.321(6) . ?
N8 C24 1.338(7) . ?
O1 C7 1.359(5) . ?
O1 C6 1.361(5) . ?
O2 C18 1.357(5) . ?
O2 C19 1.368(5) . ?
O3 C25 1.263(5) . ?
O4 C25 1.231(5) . ?
O5 C28 1.315(5) . ?
O5 H5 0.8200 . ?
O6 C28 1.198(5) . ?
O7 C29 1.263(6) . ?
O8 C29 1.233(6) . ?
O9 C32 1.301(6) . ?
O9 H9 0.8200 . ?
O10 C32 1.204(6) . ?
C1 C2 1.384(6) . ?
C1 H1 0.9300 . ?
C2 C3 1.393(6) . ?
C2 C6 1.448(6) . ?
C3 C4 1.373(7) . ?
C3 H3 0.9300 . ?
C4 C5 1.373(7) . ?
C4 H4 0.9300 . ?
C5 H5A 0.9300 . ?
C7 C9 1.456(6) . ?
C8 C9 1.372(6) . ?
C8 H8 0.9300 . ?
C9 C10 1.396(6) . ?
C10 C11 1.378(7) . ?
C10 H10 0.9300 . ?
C11 C12 1.378(7) . ?
C11 H11 0.9300 . ?
C12 H12 0.9300 . ?
C13 C14 1.377(6) . ?
C13 H13 0.9300 . ?
C14 C15 1.379(7) . ?
C14 C18 1.462(6) . ?
C15 C16 1.369(7) . ?
C15 H15 0.9300 . ?
C16 C17 1.358(7) . ?
C16 H16 0.9300 . ?
C17 H17 0.9300 . ?
C19 C21 1.443(6) . ?
C20 C21 1.393(7) . ?
C20 H20 0.9300 . ?
C21 C22 1.383(7) . ?
C22 C23 1.374(7) . ?
C22 H22 0.9300 . ?
C23 C24 1.367(7) . ?
C23 H23 0.9300 . ?
C24 H24 0.9300 . ?
C25 C26 1.490(6) . ?
C26 C27 1.310(6) . ?
C26 H26 0.9300 . ?
C27 C28 1.477(6) . ?
C27 H27 0.9300 . ?
C29 C30 1.494(6) . ?
C30 C31 1.298(7) . ?
C30 H30 0.9300 . ?
C31 C32 1.474(7) . ?
C31 H31 0.9300 . ?
O11 H11A 0.8501 . ?
O11 H11B 0.8499 . ?
O12 H12A 0.8502 . ?
O12 H12B 0.8498 . ?
O13 H13A 0.8501 . ?
O13 H13B 0.8501 . ?
O14 H14A 0.8503 . ?
O14 H14B 0.8503 . ?

loop_
_geom_angle_atom_site_label_1
_geom_angle_atom_site_label_2
_geom_angle_atom_site_label_3
_geom_angle
_geom_angle_site_symmetry_