####################################################################### 
# 
# This file contains crystal structure data downloaded from the 
# Cambridge Structural Database (CSD) hosted by the Cambridge 
# Crystallographic Data Centre (CCDC).
# 
# Full information about CCDC data access policies and citation 
# guidelines are available at http://www.ccdc.cam.ac.uk/access/V1 
# 
# Audit and citation data items may have been added by the CCDC. 
# Please retain this information to preserve the provenance of 
# this file and to allow appropriate attribution of the data. 
# 
#######################################################################

data_3
_audit_block_doi                 10.5517/cc9jlhw
_database_code_depnum_ccdc_archive 'CCDC 284068'
loop_
_citation_id
_citation_doi
_citation_year
1 10.1002/ejic.200500822 2006
_audit_update_record             
;
2005-09-15 deposited with the CCDC.	2024-07-12 downloaded from the CCDC.
;

_audit_creation_method           SHELXL-97
_chemical_name_systematic        
;
?
;
_chemical_name_common            ?
_chemical_melting_point          ?
_chemical_formula_moiety         ?
_chemical_formula_sum            'C16 H26 N4 Ni O12'
_chemical_formula_weight         525.12

loop_
_atom_type_symbol
_atom_type_description
_atom_type_scat_dispersion_real
_atom_type_scat_dispersion_imag
_atom_type_scat_source
C C 0.0033 0.0016 'International Tables Vol C Tables 4.2.6.8 and 6.1.1.4'
H H 0.0000 0.0000 'International Tables Vol C Tables 4.2.6.8 and 6.1.1.4'
N N 0.0061 0.0033 'International Tables Vol C Tables 4.2.6.8 and 6.1.1.4'
O O 0.0106 0.0060 'International Tables Vol C Tables 4.2.6.8 and 6.1.1.4'
Ni Ni 0.3393 1.1124 'International Tables Vol C Tables 4.2.6.8 and 6.1.1.4'

_symmetry_cell_setting           Orthorhombic
_symmetry_space_group_name_H-M   Pnma

loop_
_symmetry_equiv_pos_as_xyz
'x, y, z'
'-x+1/2, -y, z+1/2'
'-x, y+1/2, -z'
'x+1/2, -y+1/2, -z+1/2'
'-x, -y, -z'
'x-1/2, y, -z-1/2'
'x, -y-1/2, z'
'-x-1/2, y-1/2, z-1/2'

_cell_length_a                   8.9342(9)
_cell_length_b                   27.512(3)
_cell_length_c                   11.7133(12)
_cell_angle_alpha                90.00
_cell_angle_beta                 90.00
_cell_angle_gamma                90.00
_cell_volume                     2879.1(5)
_cell_formula_units_Z            4
_cell_measurement_temperature    293(2)
_cell_measurement_reflns_used    3891
_cell_measurement_theta_min      2.82
_cell_measurement_theta_max      25.60

_exptl_crystal_description       Lamellar
_exptl_crystal_colour            Green
_exptl_crystal_size_max          0.49
_exptl_crystal_size_mid          0.30
_exptl_crystal_size_min          0.08
_exptl_crystal_density_meas      NONE
_exptl_crystal_density_diffrn    1.211
_exptl_crystal_density_method    'not measured'
_exptl_crystal_F_000             1096
_exptl_absorpt_coefficient_mu    0.728
_exptl_absorpt_correction_type   MULTI-SCAN
_exptl_absorpt_correction_T_min  0.774965
_exptl_absorpt_correction_T_max  1.000000
_exptl_absorpt_process_details   SADABS

_exptl_special_details           
;
?
;

_diffrn_ambient_temperature      293(2)
_diffrn_radiation_wavelength     0.71073
_diffrn_radiation_type           MoK\a
_diffrn_radiation_source         'fine-focus sealed tube'
_diffrn_radiation_monochromator  graphite
_diffrn_measurement_device_type  'APEX II CCD area detector'
_diffrn_measurement_method       'phi and omega scans'
_diffrn_detector_area_resol_mean ?
_diffrn_standards_number         ?
_diffrn_standards_interval_count ?
_diffrn_standards_interval_time  ?
_diffrn_standards_decay_%        ?
_diffrn_reflns_number            14632
_diffrn_reflns_av_R_equivalents  0.0251
_diffrn_reflns_av_sigmaI/netI    0.0204
_diffrn_reflns_limit_h_min       -10
_diffrn_reflns_limit_h_max       10
_diffrn_reflns_limit_k_min       -32
_diffrn_reflns_limit_k_max       32
_diffrn_reflns_limit_l_min       -9
_diffrn_reflns_limit_l_max       13
_diffrn_reflns_theta_min         1.89
_diffrn_reflns_theta_max         25.03
_reflns_number_total             2601
_reflns_number_gt                2029
_reflns_threshold_expression     >2sigma(I)

_computing_data_collection       'Bruker APEX II'
_computing_cell_refinement       'Bruker APEX II'
_computing_data_reduction        'Bruker SAINT'
_computing_structure_solution    'SHELXS-97 (Sheldrick, 1990)'
_computing_structure_refinement  'SHELXL-97 (Sheldrick, 1997)'
_computing_molecular_graphics    'Bruker SHELXTL'
_computing_publication_material  'Bruker SHELXTL'

_refine_special_details          
;
Refinement of F^2^ against ALL reflections. The weighted R-factor wR and
goodness of fit S are based on F^2^, conventional R-factors R are based
on F, with F set to zero for negative F^2^. The threshold expression of
F^2^ > 2sigma(F^2^) is used only for calculating R-factors(gt) etc. and is
not relevant to the choice of reflections for refinement. R-factors based
on F^2^ are statistically about twice as large as those based on F, and R-
factors based on ALL data will be even larger.
;

_refine_ls_structure_factor_coef Fsqd
_refine_ls_matrix_type           full
_refine_ls_weighting_scheme      calc
_refine_ls_weighting_details     
'calc w=1/[\s^2^(Fo^2^)+(0.1387P)^2^+1.5889P] where P=(Fo^2^+2Fc^2^)/3'
_atom_sites_solution_primary     direct
_atom_sites_solution_secondary   difmap
_atom_sites_solution_hydrogens   geom
_refine_ls_hydrogen_treatment    constr
_refine_ls_extinction_method     none
_refine_ls_extinction_coef       ?
_refine_ls_number_reflns         2601
_refine_ls_number_parameters     204
_refine_ls_number_restraints     51
_refine_ls_R_factor_all          0.0639
_refine_ls_R_factor_gt           0.0530
_refine_ls_wR_factor_ref         0.2005
_refine_ls_wR_factor_gt          0.1840
_refine_ls_goodness_of_fit_ref   1.080
_refine_ls_restrained_S_all      1.078
_refine_ls_shift/su_max          0.000
_refine_ls_shift/su_mean         0.000

loop_
_atom_site_label
_atom_site_type_symbol
_atom_site_fract_x
_atom_site_fract_y
_atom_site_fract_z
_atom_site_U_iso_or_equiv
_atom_site_adp_type
_atom_site_occupancy
_atom_site_symmetry_multiplicity
_atom_site_calc_flag
_atom_site_refinement_flags
_atom_site_disorder_assembly
_atom_site_disorder_group
Ni1 Ni 0.0000 0.5000 0.5000 0.0213(4) Uani 1 2 d S . .
O1 O 0.0508(5) 0.7500 0.3598(3) 0.0434(10) Uani 1 2 d S . .
O2 O 0.2258(4) 0.49487(10) 0.5079(2) 0.0313(8) Uani 1 1 d . . .
O3 O 0.2775(3) 0.51761(13) 0.6849(2) 0.0492(9) Uani 1 1 d . . .
O4 O 0.0118(3) 0.46371(10) 0.3456(2) 0.0305(7) Uani 1 1 d D . .
H4A H 0.0832 0.4715 0.3013 0.034(11) Uiso 1 1 d RD . .
H4B H -0.0760 0.4670 0.3187 0.036(11) Uiso 1 1 d RD . .
N1 N 0.0251(3) 0.56881(11) 0.4234(3) 0.0313(7) Uani 1 1 d . . .
C5 C 0.0804(5) 0.66238(14) 0.3451(4) 0.0422(10) Uani 1 1 d . . .
C7 C 0.3146(4) 0.50494(13) 0.5869(3) 0.0303(9) Uani 1 1 d . . .
C1 C 0.1634(6) 0.62381(15) 0.3072(4) 0.0533(13) Uani 1 1 d . . .
H1 H 0.2399 0.6287 0.2546 0.064 Uiso 1 1 calc R . .
C2 C 0.1332(5) 0.57782(15) 0.3473(3) 0.0435(11) Uani 1 1 d . . .
H2 H 0.1902 0.5520 0.3204 0.052 Uiso 1 1 calc R . .
C3 C -0.0577(5) 0.60654(14) 0.4583(4) 0.0400(10) Uani 1 1 d . . .
H3 H -0.1354 0.6006 0.5093 0.048 Uiso 1 1 calc R . .
C4 C -0.0346(5) 0.65330(15) 0.4232(4) 0.0446(10) Uani 1 1 d . . .
H4 H -0.0940 0.6785 0.4506 0.054 Uiso 1 1 calc R . .
C6 C 0.1169(6) 0.71171(15) 0.3081(4) 0.0523(13) Uani 1 1 d . . .
C8 C 0.4802(5) 0.50017(18) 0.5615(5) 0.0476(17) Uani 1 1 d . . .
H8A H 0.5324 0.5269 0.5979 0.057 Uiso 1 1 calc R . .
H8B H 0.5163 0.4703 0.5958 0.057 Uiso 1 1 calc R . .
N2 N 0.2152(7) 0.72461(16) 0.2349(5) 0.094(2) Uani 1 1 d . . .
O5 O 0.955(2) 0.6888(7) 0.7260(11) 0.162(6) Uani 0.50 1 d PU . .
O6 O 0.800(3) 0.6382(9) 0.902(3) 0.163(17) Uani 0.25 1 d PU A 1
O6' O 0.896(7) 0.6463(18) 0.885(5) 0.17(2) Uani 0.25 1 d PU A 1
O7 O 0.794(2) 0.7101(7) 0.9174(15) 0.249(9) Uani 0.50 1 d PU . .
O8 O 1.037(2) 0.6464(10) 1.007(2) 0.114(14) Uani 0.25 1 d PU A 1
O8' O 0.963(4) 0.6583(16) 0.996(2) 0.16(2) Uani 0.25 1 d PU A 1
O9 O 0.970(5) 0.6422(8) 0.802(2) 0.22(2) Uani 0.25 1 d PU B 2
O9' O 1.121(2) 0.6369(11) 0.835(2) 0.175(15) Uani 0.25 1 d PU B 2

loop_
_atom_site_aniso_label
_atom_site_aniso_U_11
_atom_site_aniso_U_22
_atom_site_aniso_U_33
_atom_site_aniso_U_23
_atom_site_aniso_U_13
_atom_site_aniso_U_12
Ni1 0.0146(5) 0.0282(6) 0.0211(6) 0.0011(2) 0.0002(2) -0.0003(2)
O1 0.054(3) 0.027(2) 0.049(3) 0.000 0.008(2) 0.000
O2 0.0146(18) 0.049(2) 0.0304(18) -0.0016(10) -0.0001(10) 0.0003(11)
O3 0.0211(14) 0.099(3) 0.0281(15) -0.0107(16) -0.0015(11) 0.0050(15)
O4 0.0197(14) 0.0453(16) 0.0264(14) -0.0019(12) 0.0022(10) -0.0008(10)
N1 0.0298(16) 0.0311(17) 0.0330(17) 0.0022(14) 0.0034(13) 0.0010(13)
C5 0.054(3) 0.029(2) 0.044(2) 0.0017(17) 0.011(2) -0.0011(18)
C7 0.0181(19) 0.048(2) 0.025(2) 0.0016(15) 0.0004(15) 0.0000(14)
C1 0.072(3) 0.031(2) 0.057(3) 0.0036(19) 0.037(2) -0.004(2)
C2 0.053(3) 0.032(2) 0.045(2) 0.0015(17) 0.022(2) 0.0021(19)
C3 0.037(2) 0.037(2) 0.046(2) 0.0060(19) 0.012(2) 0.0042(18)
C4 0.048(2) 0.033(2) 0.053(3) 0.0019(19) 0.010(2) 0.0084(19)
C6 0.074(3) 0.029(2) 0.053(3) -0.0028(19) 0.024(2) 0.003(2)
C8 0.020(2) 0.101(5) 0.022(3) -0.0007(18) 0.0006(17) 0.0032(19)
N2 0.146(5) 0.028(2) 0.107(4) 0.002(2) 0.081(4) 0.005(3)
O5 0.265(15) 0.151(11) 0.097(8) -0.008(7) 0.033(8) 0.036(11)
O6 0.207(17) 0.201(16) 0.25(2) 0.026(14) 0.153(18) -0.053(13)
O6' 0.54(7) 0.35(4) 0.27(4) -0.01(3) 0.22(5) -0.03(5)
O7 0.267(19) 0.29(2) 0.187(13) 0.041(13) 0.123(14) 0.028(15)
O8 0.089(10) 0.24(2) 0.24(2) -0.011(15) -0.062(12) 0.043(14)
O8' 0.24(3) 0.39(4) 0.18(2) 0.07(2) 0.10(2) 0.17(3)
O9 0.53(5) 0.153(16) 0.23(2) -0.128(18) -0.13(3) 0.10(2)
O9' 0.25(2) 0.29(3) 0.35(4) 0.01(2) -0.17(3) -0.086(19)

_geom_special_details            
;
All esds (except the esd in the dihedral angle between two l.s. planes)
are estimated using the full covariance matrix. The cell esds are taken
into account individually in the estimation of esds in distances, angles
and torsion angles; correlations between esds in cell parameters are only
used when they are defined by crystal symmetry. An approximate (isotropic)
treatment of cell esds is used for estimating esds involving l.s. planes.
;

loop_
_geom_bond_atom_site_label_1
_geom_bond_atom_site_label_2
_geom_bond_distance
_geom_bond_site_symmetry_2
_geom_bond_publ_flag
Ni1 O2 2.024(4) . ?
Ni1 O2 2.024(4) 5_566 ?
Ni1 O4 2.068(3) 5_566 ?
Ni1 O4 2.068(3) . ?
Ni1 N1 2.107(3) 5_566 ?
Ni1 N1 2.107(3) . ?
O1 C6 1.351(5) . ?
O1 C6 1.351(5) 7_575 ?
O2 C7 1.250(5) . ?
O3 C7 1.244(5) . ?
O4 H4A 0.8500 . ?
O4 H4B 0.8500 . ?
N1 C2 1.337(5) . ?
N1 C3 1.339(5) . ?
C5 C1 1.369(6) . ?
C5 C4 1.398(6) . ?
C5 C6 1.462(6) . ?
C7 C8 1.514(6) . ?
C1 C2 1.377(6) . ?
C1 H1 0.9300 . ?
C2 H2 0.9300 . ?
C3 C4 1.366(6) . ?
C3 H3 0.9300 . ?
C4 H4 0.9300 . ?
C6 N2 1.278(6) . ?
C8 C8 1.483(11) 5_666 ?
C8 H8A 0.9700 . ?
C8 H8B 0.9700 . ?
N2 N2 1.397(9) 7_575 ?
O5 O9 1.57(4) . ?
O6' O8' 1.47(6) . ?
O8 O8' 0.75(4) . ?
O9 O9' 1.41(5) . ?

loop_
_geom_angle_atom_site_label_1
_geom_angle_atom_site_label_2
_geom_angle_atom_site_label_3
_geom_angle
_geom_angle_site_symmetry_1
_geom_angle_site_symmetry_3
_geom_angle_publ_flag
O2 Ni1 O2 180.0 . 5_566 ?
O2 Ni1 O4 92.52(9) . 5_566 ?
O2 Ni1 O4 87.48(9) 5_566 5_566 ?
O2 Ni1 O4 87.48(9) . . ?
O2 Ni1 O4 92.52(9) 5_566 . ?
O4 Ni1 O4 180.00(14) 5_566 . ?
O2 Ni1 N1 91.37(12) . 5_566 ?
O2 Ni1 N1 88.63(12) 5_566 5_566 ?
O4 Ni1 N1 93.22(12) 5_566 5_566 ?
O4 Ni1 N1 86.78(12) . 5_566 ?
O2 Ni1 N1 88.63(12) . . ?
O2 Ni1 N1 91.37(12) 5_566 . ?
O4 Ni1 N1 86.78(12) 5_566 . ?
O4 Ni1 N1 93.22(12) . . ?
N1 Ni1 N1 180.00(8) 5_566 . ?
C6 O1 C6 102.5(5) . 7_575 ?
C7 O2 Ni1 130.7(3) . . ?
Ni1 O4 H4A 116.7 . . ?
Ni1 O4 H4B 103.0 . . ?
H4A O4 H4B 116.1 . . ?
C2 N1 C3 117.3(3) . . ?
C2 N1 Ni1 121.8(3) . . ?
C3 N1 Ni1 120.5(3) . . ?
C1 C5 C4 118.2(4) . . ?
C1 C5 C6 120.2(4) . . ?
C4 C5 C6 121.6(4) . . ?
O3 C7 O2 125.1(4) . . ?
O3 C7 C8 117.8(4) . . ?
O2 C7 C8 117.1(4) . . ?
C2 C1 C5 119.7(4) . . ?
C2 C1 H1 120.2 . . ?
C5 C1 H1 120.2 . . ?
N1 C2 C1 122.7(4) . . ?
N1 C2 H2 118.7 . . ?
C1 C2 H2 118.7 . . ?
N1 C3 C4 123.7(4) . . ?
N1 C3 H3 118.2 . . ?
C4 C3 H3 118.1 . . ?
C3 C4 C5 118.4(4) . . ?
C3 C4 H4 120.8 . . ?
C5 C4 H4 120.8 . . ?
N2 C6 O1 112.6(4) . . ?
N2 C6 C5 127.6(4) . . ?
O1 C6 C5 119.6(4) . . ?
C8 C8 C7 115.1(5) 5_666 . ?
C8 C8 H8A 108.5 5_666 . ?
C7 C8 H8A 108.5 . . ?
C8 C8 H8B 108.5 5_666 . ?
C7 C8 H8B 108.5 . . ?
H8A C8 H8B 107.5 . . ?
C6 N2 N2 106.1(3) . 7_575 ?
O8 O8' O6' 113(7) . . ?
O9' O9 O5 108(4) . . ?

loop_
_geom_torsion_atom_site_label_1
_geom_torsion_atom_site_label_2
_geom_torsion_atom_site_label_3
_geom_torsion_atom_site_label_4
_geom_torsion
_geom_torsion_site_symmetry_1
_geom_torsion_site_symmetry_2
_geom_torsion_site_symmetry_3
_geom_torsion_site_symmetry_4
_geom_torsion_publ_flag
O4 Ni1 O2 C7 8.1(3) 5_566 . . . ?
O4 Ni1 O2 C7 -171.9(3) . . . . ?
N1 Ni1 O2 C7 -85.2(3) 5_566 . . . ?
N1 Ni1 O2 C7 94.8(3) . . . . ?
O2 Ni1 N1 C2 38.7(3) . . . . ?
O2 Ni1 N1 C2 -141.3(3) 5_566 . . . ?
O4 Ni1 N1 C2 131.3(3) 5_566 . . . ?
O4 Ni1 N1 C2 -48.7(3) . . . . ?
O2 Ni1 N1 C3 -134.5(3) . . . . ?
O2 Ni1 N1 C3 45.5(3) 5_566 . . . ?
O4 Ni1 N1 C3 -41.9(3) 5_566 . . . ?
O4 Ni1 N1 C3 138.1(3) . . . . ?
Ni1 O2 C7 O3 5.8(6) . . . . ?
Ni1 O2 C7 C8 -175.7(3) . . . . ?
C4 C5 C1 C2 -0.8(8) . . . . ?
C6 C5 C1 C2 176.6(5) . . . . ?
C3 N1 C2 C1 1.8(7) . . . . ?
Ni1 N1 C2 C1 -171.6(4) . . . . ?
C5 C1 C2 N1 -0.4(8) . . . . ?
C2 N1 C3 C4 -2.1(7) . . . . ?
Ni1 N1 C3 C4 171.3(4) . . . . ?
N1 C3 C4 C5 1.0(7) . . . . ?
C1 C5 C4 C3 0.5(7) . . . . ?
C6 C5 C4 C3 -176.8(5) . . . . ?
C6 O1 C6 N2 1.5(8) 7_575 . . . ?
C6 O1 C6 C5 176.9(3) 7_575 . . . ?
C1 C5 C6 N2 5.4(9) . . . . ?
C4 C5 C6 N2 -177.4(6) . . . . ?
C1 C5 C6 O1 -169.3(5) . . . . ?
C4 C5 C6 O1 8.0(8) . . . . ?
O3 C7 C8 C8 -162.3(5) . . . 5_666 ?
O2 C7 C8 C8 19.1(7) . . . 5_666 ?
O1 C6 N2 N2 -1.0(5) . . . 7_575 ?
C5 C6 N2 N2 -175.9(5) . . . 7_575 ?


_diffrn_measured_fraction_theta_max 1.000
_diffrn_reflns_theta_full        25.03
_diffrn_measured_fraction_theta_full 1.000
_refine_diff_density_max         0.761
_refine_diff_density_min         -0.430
_refine_diff_density_rms         0.131
