####################################################################### 
# 
# This file contains crystal structure data downloaded from the 
# Cambridge Structural Database (CSD) hosted by the Cambridge 
# Crystallographic Data Centre (CCDC).
# 
# Full information about CCDC data access policies and citation 
# guidelines are available at http://www.ccdc.cam.ac.uk/access/V1 
# 
# Audit and citation data items may have been added by the CCDC. 
# Please retain this information to preserve the provenance of 
# this file and to allow appropriate attribution of the data. 
# 
#######################################################################

data_1
_audit_block_doi                 10.5517/ccy5205
_database_code_depnum_ccdc_archive 'CCDC 868806'
loop_
_citation_id
_citation_doi
_citation_year
1 10.1039/c2ce26290h 2012
_audit_update_record             
;
2012-02-23 deposited with the CCDC.	2024-07-12 downloaded from the CCDC.
;
#TrackingRef 'check cif 1-4-revised.cif'


_audit_creation_method           SHELXL-97
_chemical_name_systematic        
;
?
;
_chemical_name_common            ?
_chemical_melting_point          ?
_chemical_formula_moiety         'C15 H6 N0 O11 Zn3, C9 H18 N6 O3'
_chemical_formula_sum            'C24 H24 N6 O14 Zn3'
_chemical_formula_weight         816.657

loop_
_atom_type_symbol
_atom_type_description
_atom_type_scat_dispersion_real
_atom_type_scat_dispersion_imag
_atom_type_scat_source
C C 0.0033 0.0016 'International Tables Vol C Tables 4.2.6.8 and 6.1.1.4'
H H 0.0000 0.0000 'International Tables Vol C Tables 4.2.6.8 and 6.1.1.4'
N N 0.0061 0.0033 'International Tables Vol C Tables 4.2.6.8 and 6.1.1.4'
O O 0.0106 0.0060 'International Tables Vol C Tables 4.2.6.8 and 6.1.1.4'
Zn Zn 0.2839 1.4301 'International Tables Vol C Tables 4.2.6.8 and 6.1.1.4'

_symmetry_cell_setting           Hexagonal
_symmetry_space_group_name_H-M   P6(3)cm

loop_
_symmetry_equiv_pos_as_xyz
'x, y, z'
'-y, x-y, z'
'-x+y, -x, z'
'-x, -y, z+1/2'
'y, -x+y, z+1/2'
'x-y, x, z+1/2'
'-y, -x, z+1/2'
'-x+y, y, z+1/2'
'x, x-y, z+1/2'
'y, x, z'
'x-y, -y, z'
'-x, -x+y, z'

_cell_length_a                   18.5924(8)
_cell_length_b                   18.5924(8)
_cell_length_c                   17.9643(9)
_cell_angle_alpha                90.00
_cell_angle_beta                 90.00
_cell_angle_gamma                120.00
_cell_volume                     5377.9(4)
_cell_formula_units_Z            6
_cell_measurement_temperature    293(2)
_cell_measurement_reflns_used    1790
_cell_measurement_theta_min      2.4619
_cell_measurement_theta_max      29.1146

_exptl_crystal_description       block
_exptl_crystal_colour            colorless
_exptl_crystal_size_max          0.35
_exptl_crystal_size_mid          0.30
_exptl_crystal_size_min          0.28
_exptl_crystal_density_meas      ?
_exptl_crystal_density_diffrn    1.477
_exptl_crystal_density_method    'not measured'
_exptl_crystal_F_000             2358
_exptl_absorpt_coefficient_mu    2.056
_exptl_absorpt_correction_type   Multi-scan
_exptl_absorpt_correction_T_min  0.5330
_exptl_absorpt_correction_T_max  0.5967
_exptl_absorpt_process_details   ?

_exptl_special_details           
;
?
;

_diffrn_ambient_temperature      293(2)
_diffrn_radiation_wavelength     0.71073
_diffrn_radiation_type           MoK\a
_diffrn_radiation_source         'fine-focus sealed tube'
_diffrn_radiation_monochromator  graphite
_diffrn_measurement_device_type  'Bruker P4'
_diffrn_measurement_method       '\w scans'
_diffrn_detector_area_resol_mean none
_diffrn_standards_number         none
_diffrn_standards_interval_count none
_diffrn_standards_interval_time  none
_diffrn_standards_decay_%        none
_diffrn_reflns_number            10873
_diffrn_reflns_av_R_equivalents  0.0554
_diffrn_reflns_av_sigmaI/netI    0.0557
_diffrn_reflns_limit_h_min       -19
_diffrn_reflns_limit_h_max       20
_diffrn_reflns_limit_k_min       -22
_diffrn_reflns_limit_k_max       18
_diffrn_reflns_limit_l_min       -21
_diffrn_reflns_limit_l_max       20
_diffrn_reflns_theta_min         2.47
_diffrn_reflns_theta_max         24.99
_reflns_number_total             3141
_reflns_number_gt                2492
_reflns_threshold_expression     >2sigma(I)

_computing_data_collection       'Bruker XSCANS'
_computing_cell_refinement       'Bruker XSCANS'
_computing_data_reduction        'Bruker SHELXTL'
_computing_structure_solution    'SHELXS-97 (Sheldrick, 1990)'
_computing_structure_refinement  'SHELXL-97 (Sheldrick, 1997)'
_computing_molecular_graphics    'Bruker SHELXTL'
_computing_publication_material  'Bruker SHELXTL'

_refine_special_details          
;
Refinement of F^2^ against ALL reflections. The weighted R-factor wR and
goodness of fit S are based on F^2^, conventional R-factors R are based
on F, with F set to zero for negative F^2^. The threshold expression of
F^2^ > 2sigma(F^2^) is used only for calculating R-factors(gt) etc. and is
not relevant to the choice of reflections for refinement. R-factors based
on F^2^ are statistically about twice as large as those based on F, and R-
factors based on ALL data will be even larger.
;

_refine_ls_structure_factor_coef Fsqd
_refine_ls_matrix_type           full
_refine_ls_weighting_scheme      calc
_refine_ls_weighting_details     
'calc w=1/[\s^2^(Fo^2^)+(0.1137P)^2^+0.0000P] where P=(Fo^2^+2Fc^2^)/3'
_atom_sites_solution_primary     direct
_atom_sites_solution_secondary   difmap
_atom_sites_solution_hydrogens   geom
_refine_ls_hydrogen_treatment    constr
_refine_ls_extinction_method     none
_refine_ls_extinction_coef       ?
_refine_ls_abs_structure_details 'Flack H D (1983), Acta Cryst. A39, 876-881'
_refine_ls_abs_structure_Flack   -0.04(3)
_refine_ls_number_reflns         3141
_refine_ls_number_parameters     229
_refine_ls_number_restraints     1
_refine_ls_R_factor_all          0.0807
_refine_ls_R_factor_gt           0.0658
_refine_ls_wR_factor_ref         0.1750
_refine_ls_wR_factor_gt          0.1644
_refine_ls_goodness_of_fit_ref   1.016
_refine_ls_restrained_S_all      1.016
_refine_ls_shift/su_max          0.010
_refine_ls_shift/su_mean         0.001

loop_
_atom_site_label
_atom_site_type_symbol
_atom_site_fract_x
_atom_site_fract_y
_atom_site_fract_z
_atom_site_U_iso_or_equiv
_atom_site_adp_type
_atom_site_occupancy
_atom_site_symmetry_multiplicity
_atom_site_calc_flag
_atom_site_refinement_flags
_atom_site_disorder_assembly
_atom_site_disorder_group
Zn1 Zn 0.90074(5) 0.24295(6) 0.38067(5) 0.0353(3) Uani 1 1 d . . .
Zn2 Zn 0.65585(7) 0.0000 0.72346(8) 0.0450(4) Uani 1 2 d S . .
O1 O 0.7926(4) 0.2362(4) 0.3909(5) 0.0593(18) Uani 1 1 d . . .
O2 O 0.8759(5) 0.3620(6) 0.4249(5) 0.077(2) Uani 1 1 d . . .
O3 O 0.7796(5) 0.0900(6) 0.7104(4) 0.075(3) Uani 1 1 d . . .
O4 O 0.8488(4) 0.1225(4) 0.8155(3) 0.0507(17) Uani 1 1 d . . .
O5 O 0.9317(4) 0.2182(4) 0.4789(3) 0.0474(16) Uani 1 1 d . . .
O6 O 1.0000 0.3396(4) 0.3380(4) 0.0311(19) Uani 1 2 d S . .
O7 O 0.6324(8) 0.0000 0.6129(7) 0.090(4) Uani 1 2 d S . .
O8 O 0.6217(7) 0.0912(7) 0.7385(5) 0.102(3) Uani 1 1 d . . .
C1 C 0.8081(6) 0.3069(6) 0.4117(5) 0.046(2) Uani 1 1 d . . .
C2 C 0.7331(7) 0.3201(6) 0.4129(6) 0.054(3) Uani 1 1 d . . .
C3 C 0.7451(6) 0.4002(6) 0.4147(6) 0.046(2) Uani 1 1 d . . .
H3A H 0.7988 0.4454 0.4172 0.055 Uiso 1 1 calc R . .
C4 C 0.8446(5) 0.1220(6) 0.7458(4) 0.037(2) Uani 1 1 d . . .
C5 C 0.9260(5) 0.1686(5) 0.7048(4) 0.036(2) Uani 1 1 d . . .
C6 C 0.9261(5) 0.1857(5) 0.6279(4) 0.0344(19) Uani 1 1 d . . .
H6A H 0.8764 0.1693 0.6029 0.041 Uiso 1 1 calc R . .
C7 C 1.0000 0.2267(6) 0.5911(6) 0.032(2) Uani 1 2 d S . .
C8 C 1.0000 0.2472(6) 0.5082(6) 0.031(2) Uani 1 2 d S . .
C9 C 1.0000 0.2014(6) 0.7425(6) 0.038(3) Uani 1 2 d S . .
H9A H 1.0000 0.1957 0.7939 0.045 Uiso 1 2 calc SR . .
C10 C 0.6773(11) 0.0000 0.5557(8) 0.077(6) Uani 1 2 d S . .
C11 C 0.7089(11) 0.0000 0.4272(14) 0.110(8) Uani 1 2 d S . .
C12 C 0.7747(18) 0.0000 0.4777(12) 0.123(10) Uani 1 2 d S . .
C13 C 0.5771(11) 0.1136(11) 0.7095(9) 0.111(6) Uani 1 1 d . . .
C14 C 0.522(3) 0.168(3) 0.621(2) 0.28(2) Uani 1 1 d . . .
C15 C 0.485(2) 0.163(3) 0.697(3) 0.234(18) Uani 1 1 d . . .
N1 N 0.6448(15) 0.0000 0.4873(12) 0.162(12) Uani 1 2 d S . .
N2 N 0.7495(8) 0.0000 0.5568(8) 0.083(4) Uani 1 2 d S . .
N3 N 0.551(3) 0.102(2) 0.6453(13) 0.37(2) Uani 1 1 d . . .
N4 N 0.5258(18) 0.139(2) 0.7392(15) 0.289(17) Uani 1 1 d . . .

loop_
_atom_site_aniso_label
_atom_site_aniso_U_11
_atom_site_aniso_U_22
_atom_site_aniso_U_33
_atom_site_aniso_U_23
_atom_site_aniso_U_13
_atom_site_aniso_U_12
Zn1 0.0398(5) 0.0481(5) 0.0199(4) -0.0028(5) -0.0033(5) 0.0234(4)
Zn2 0.0452(6) 0.0749(11) 0.0248(7) 0.000 -0.0031(6) 0.0375(5)
O1 0.061(4) 0.060(4) 0.073(5) 0.001(4) 0.003(4) 0.043(3)
O2 0.048(5) 0.086(6) 0.096(6) -0.027(5) -0.003(4) 0.033(5)
O3 0.047(4) 0.123(7) 0.028(4) 0.006(4) 0.001(3) 0.023(4)
O4 0.060(4) 0.085(5) 0.023(3) 0.010(3) 0.013(3) 0.047(4)
O5 0.044(4) 0.065(4) 0.022(3) 0.005(3) -0.004(3) 0.019(3)
O6 0.048(5) 0.033(3) 0.017(4) 0.003(3) 0.000 0.024(2)
O7 0.106(7) 0.107(10) 0.056(8) 0.000 -0.023(7) 0.054(5)
O8 0.141(8) 0.148(9) 0.074(6) 0.016(6) 0.010(6) 0.115(8)
C1 0.043(6) 0.055(6) 0.044(5) -0.006(5) 0.000(4) 0.028(5)
C2 0.054(6) 0.058(6) 0.060(6) -0.005(5) 0.000(5) 0.036(6)
C3 0.038(5) 0.047(6) 0.053(5) -0.006(5) -0.002(4) 0.021(5)
C4 0.042(5) 0.052(5) 0.024(4) -0.003(4) -0.002(4) 0.029(4)
C5 0.044(5) 0.046(5) 0.014(4) 0.006(3) 0.005(3) 0.019(4)
C6 0.032(4) 0.052(5) 0.022(4) -0.002(4) -0.001(3) 0.022(4)
C7 0.040(6) 0.037(5) 0.018(5) 0.000(4) 0.000 0.020(3)
C8 0.037(7) 0.038(5) 0.018(5) -0.001(4) 0.000 0.018(3)
C9 0.062(8) 0.039(4) 0.020(6) 0.008(4) 0.000 0.031(4)
C10 0.095(10) 0.121(16) 0.023(8) 0.000 -0.002(7) 0.061(8)
C11 0.081(9) 0.17(2) 0.107(17) 0.000 0.016(10) 0.085(12)
C12 0.18(2) 0.106(18) 0.062(12) 0.000 0.053(14) 0.053(9)
C13 0.153(15) 0.166(16) 0.081(10) -0.029(11) -0.027(11) 0.129(15)
C14 0.42(6) 0.41(6) 0.14(3) -0.05(3) -0.11(4) 0.30(5)
C15 0.23(3) 0.34(5) 0.25(4) 0.00(4) -0.04(3) 0.24(4)
N1 0.184(16) 0.27(4) 0.059(13) 0.000 -0.010(11) 0.137(19)
N2 0.079(7) 0.101(11) 0.077(10) 0.000 0.014(7) 0.050(6)
N3 0.68(6) 0.67(6) 0.14(2) -0.13(2) -0.18(3) 0.63(6)
N4 0.34(3) 0.51(5) 0.23(3) -0.11(3) -0.06(2) 0.37(4)

_geom_special_details            
;
All esds (except the esd in the dihedral angle between two l.s. planes)
are estimated using the full covariance matrix. The cell esds are taken
into account individually in the estimation of esds in distances, angles
and torsion angles; correlations between esds in cell parameters are only
used when they are defined by crystal symmetry. An approximate (isotropic)
treatment of cell esds is used for estimating esds involving l.s. planes.
;

loop_
_geom_bond_atom_site_label_1
_geom_bond_atom_site_label_2
_geom_bond_distance
_geom_bond_site_symmetry_2
_geom_bond_publ_flag
Zn1 O4 1.932(6) 7_664 ?
Zn1 O1 1.960(6) . ?
Zn1 O6 1.976(4) . ?
Zn1 O5 1.980(6) . ?
Zn2 O7 2.033(12) . ?
Zn2 O6 2.059(8) 6_545 ?
Zn2 O3 2.074(7) 11 ?
Zn2 O3 2.074(7) . ?
Zn2 O8 2.105(9) 11 ?
Zn2 O8 2.105(9) . ?
O1 C1 1.254(11) . ?
O2 C1 1.185(12) . ?
O3 C4 1.223(11) . ?
O4 C4 1.254(9) . ?
O4 Zn1 1.932(6) 7_665 ?
O5 C8 1.223(7) . ?
O6 Zn1 1.976(4) 12_765 ?
O6 Zn2 2.059(8) 5_664 ?
O7 C10 1.32(2) . ?
O8 C13 1.215(16) . ?
C1 C2 1.533(14) . ?
C2 C3 1.348(13) 3_665 ?
C2 C3 1.390(13) . ?
C3 C2 1.348(13) 2_655 ?
C3 H3A 0.9300 . ?
C4 C5 1.508(12) . ?
C5 C9 1.372(10) . ?
C5 C6 1.418(10) . ?
C6 C7 1.363(9) . ?
C6 H6A 0.9300 . ?
C7 C6 1.363(9) 12_765 ?
C7 C8 1.537(14) . ?
C8 O5 1.223(7) 12_765 ?
C9 C5 1.372(10) 12_765 ?
C9 H9A 0.9300 . ?
C10 N2 1.34(2) . ?
C10 N1 1.37(3) . ?
C11 C12 1.52(4) . ?
C11 N1 1.61(3) . ?
C12 N2 1.50(2) . ?
C13 N3 1.23(2) . ?
C13 N4 1.37(2) . ?
C14 C15 1.50(5) . ?
C14 N3 1.63(4) . ?
C15 N4 1.30(3) . ?

loop_
_geom_angle_atom_site_label_1
_geom_angle_atom_site_label_2
_geom_angle_atom_site_label_3
_geom_angle
_geom_angle_site_symmetry_1
_geom_angle_site_symmetry_3
_geom_angle_publ_flag
O4 Zn1 O1 103.4(3) 7_664 . ?
O4 Zn1 O6 105.2(3) 7_664 . ?
O1 Zn1 O6 123.8(3) . . ?
O4 Zn1 O5 107.3(3) 7_664 . ?
O1 Zn1 O5 108.1(3) . . ?
O6 Zn1 O5 108.0(3) . . ?
O7 Zn2 O6 170.0(5) . 6_545 ?
O7 Zn2 O3 92.4(4) . 11 ?
O6 Zn2 O3 94.8(3) 6_545 11 ?
O7 Zn2 O3 92.4(4) . . ?
O6 Zn2 O3 94.8(3) 6_545 . ?
O3 Zn2 O3 88.7(5) 11 . ?
O7 Zn2 O8 88.5(4) . 11 ?
O6 Zn2 O8 84.3(3) 6_545 11 ?
O3 Zn2 O8 91.4(4) 11 11 ?
O3 Zn2 O8 179.1(3) . 11 ?
O7 Zn2 O8 88.5(4) . . ?
O6 Zn2 O8 84.3(3) 6_545 . ?
O3 Zn2 O8 179.1(3) 11 . ?
O3 Zn2 O8 91.4(4) . . ?
O8 Zn2 O8 88.5(7) 11 . ?
C1 O1 Zn1 105.6(6) . . ?
C4 O3 Zn2 139.5(6) . . ?
C4 O4 Zn1 124.0(6) . 7_665 ?
C8 O5 Zn1 129.8(6) . . ?
Zn1 O6 Zn1 107.9(3) 12_765 . ?
Zn1 O6 Zn2 113.9(2) 12_765 5_664 ?
Zn1 O6 Zn2 113.9(2) . 5_664 ?
C10 O7 Zn2 128.5(11) . . ?
C13 O8 Zn2 138.9(11) . . ?
O2 C1 O1 123.6(9) . . ?
O2 C1 C2 121.3(10) . . ?
O1 C1 C2 114.9(8) . . ?
C3 C2 C3 119.2(10) 3_665 . ?
C3 C2 C1 120.9(9) 3_665 . ?
C3 C2 C1 119.9(9) . . ?
C2 C3 C2 120.7(10) 2_655 . ?
C2 C3 H3A 119.6 2_655 . ?
C2 C3 H3A 119.6 . . ?
O3 C4 O4 124.4(8) . . ?
O3 C4 C5 119.3(7) . . ?
O4 C4 C5 116.2(7) . . ?
C9 C5 C6 119.6(8) . . ?
C9 C5 C4 120.6(7) . . ?
C6 C5 C4 119.5(7) . . ?
C7 C6 C5 119.0(8) . . ?
C7 C6 H6A 120.5 . . ?
C5 C6 H6A 120.5 . . ?
C6 C7 C6 121.6(10) 12_765 . ?
C6 C7 C8 118.9(5) 12_765 . ?
C6 C7 C8 118.9(5) . . ?
O5 C8 O5 128.1(10) . 12_765 ?
O5 C8 C7 115.9(5) . . ?
O5 C8 C7 115.9(5) 12_765 . ?
C5 C9 C5 120.4(10) . 12_765 ?
C5 C9 H9A 119.8 . . ?
C5 C9 H9A 119.8 12_765 . ?
N2 C10 O7 128.2(15) . . ?
N2 C10 N1 117.1(19) . . ?
O7 C10 N1 114.7(19) . . ?
C12 C11 N1 101(2) . . ?
C11 C12 N2 108(2) . . ?
O8 C13 N3 127.9(17) . . ?
O8 C13 N4 131.8(18) . . ?
N3 C13 N4 98.6(19) . . ?
C15 C14 N3 92(3) . . ?
N4 C15 C14 103(3) . . ?
C10 N1 C11 106(2) . . ?
C10 N2 C12 107.3(19) . . ?
C13 N3 C14 111(2) . . ?
C15 N4 C13 121(3) . . ?

loop_
_platon_squeeze_void_nr
_platon_squeeze_void_average_x
_platon_squeeze_void_average_y
_platon_squeeze_void_average_z
_platon_squeeze_void_volume
_platon_squeeze_void_count_electrons
1 0.000 0.000 0.001 470.3 81.2
2 0.000 0.569 0.057 26.4 10.3
3 0.569 0.000 0.057 26.4 10.5
4 0.431 0.431 0.057 26.7 11.1
5 0.182 0.452 0.046 16.6 3.0
6 0.270 0.818 0.046 16.6 3.1
7 0.452 0.182 0.046 16.5 3.0
8 0.548 0.730 0.046 16.5 3.1
9 0.730 0.548 0.046 16.5 3.3
10 0.818 0.270 0.046 16.5 3.0
11 0.333 0.667 0.065 7.4 -0.3
12 0.667 0.333 0.065 7.4 -0.4
13 0.333 0.667 0.229 21.2 1.0
14 0.667 0.333 0.229 21.2 0.8
15 0.000 0.585 0.322 46.3 35.7
16 0.415 0.415 0.322 45.8 36.6
17 0.585 0.000 0.322 46.3 36.2
18 0.000 0.430 0.558 26.4 11.0
19 0.430 0.000 0.558 26.3 10.6
20 0.570 0.570 0.558 26.2 10.1
21 0.182 0.730 0.546 16.6 3.4
22 0.270 0.452 0.546 16.5 3.3
23 0.452 0.270 0.546 16.5 3.4
24 0.547 0.818 0.546 16.5 3.4
25 0.730 0.182 0.546 16.5 3.3
26 0.818 0.548 0.546 16.5 3.6
27 0.333 0.667 0.565 7.4 -0.7
28 0.667 0.333 0.565 7.4 -0.7
29 0.333 0.667 0.729 21.2 -0.3
30 0.667 0.333 0.729 21.2 -0.4
31 0.000 0.414 0.821 45.8 38.4
32 0.414 0.000 0.821 45.9 37.8
33 0.586 0.586 0.821 45.9 37.5

_diffrn_measured_fraction_theta_max 0.998
_diffrn_reflns_theta_full        24.99
_diffrn_measured_fraction_theta_full 0.998
_refine_diff_density_max         1.357
_refine_diff_density_min         -0.899
_refine_diff_density_rms         0.198
