####################################################################### 
# 
# This file contains crystal structure data downloaded from the 
# Cambridge Structural Database (CSD) hosted by the Cambridge 
# Crystallographic Data Centre (CCDC).
# 
# Full information about CCDC data access policies and citation 
# guidelines are available at http://www.ccdc.cam.ac.uk/access/V1 
# 
# Audit and citation data items may have been added by the CCDC. 
# Please retain this information to preserve the provenance of 
# this file and to allow appropriate attribution of the data. 
# 
#######################################################################

data_4
_audit_block_doi                 10.5517/ccyr13t
_database_code_depnum_ccdc_archive 'CCDC 886076'
loop_
_citation_id
_citation_doi
_citation_year
1 10.1039/c2ce26290h 2012
_audit_update_record             
;
2012-06-07 deposited with the CCDC.	2024-07-12 downloaded from the CCDC.
;
#TrackingRef 'check cif 1-4-revised.cif'


_audit_creation_method           SHELXL-97
_chemical_name_systematic        
;
?
;
_chemical_name_common            ?
_chemical_melting_point          ?
_chemical_formula_moiety         'C18 H6 N0 O12 Zn3, C15 H30 N6 O3'
_chemical_formula_sum            'C33 H36 N6 O15 Zn3'
_chemical_formula_weight         952.85

loop_
_atom_type_symbol
_atom_type_description
_atom_type_scat_dispersion_real
_atom_type_scat_dispersion_imag
_atom_type_scat_source
C C 0.0033 0.0016 'International Tables Vol C Tables 4.2.6.8 and 6.1.1.4'
H H 0.0000 0.0000 'International Tables Vol C Tables 4.2.6.8 and 6.1.1.4'
N N 0.0061 0.0033 'International Tables Vol C Tables 4.2.6.8 and 6.1.1.4'
O O 0.0106 0.0060 'International Tables Vol C Tables 4.2.6.8 and 6.1.1.4'
Zn Zn 0.2839 1.4301 'International Tables Vol C Tables 4.2.6.8 and 6.1.1.4'

_symmetry_cell_setting           Monoclinic
_symmetry_space_group_name_H-M   C2/c

loop_
_symmetry_equiv_pos_as_xyz
'x, y, z'
'-x, y, -z+1/2'
'x+1/2, y+1/2, z'
'-x+1/2, y+1/2, -z+1/2'
'-x, -y, -z'
'x, -y, z-1/2'
'-x+1/2, -y+1/2, -z'
'x+1/2, -y+1/2, z-1/2'

_cell_length_a                   31.171(12)
_cell_length_b                   12.186(4)
_cell_length_c                   27.629(11)
_cell_angle_alpha                90.00
_cell_angle_beta                 108.264(4)
_cell_angle_gamma                90.00
_cell_volume                     9966(6)
_cell_formula_units_Z            8
_cell_measurement_temperature    293(2)
_cell_measurement_reflns_used    16541
_cell_measurement_theta_min      2.0502
_cell_measurement_theta_max      27.4006

_exptl_crystal_description       colorless
_exptl_crystal_colour            prism
_exptl_crystal_size_max          0.20
_exptl_crystal_size_mid          0.18
_exptl_crystal_size_min          0.15
_exptl_crystal_density_meas      ?
_exptl_crystal_density_diffrn    1.112
_exptl_crystal_density_method    'not measured'
_exptl_crystal_F_000             3295
_exptl_absorpt_coefficient_mu    1.483
_exptl_absorpt_correction_type   Multi-scan
_exptl_absorpt_correction_T_min  0.7558
_exptl_absorpt_correction_T_max  0.8082
_exptl_absorpt_process_details   ?

_exptl_special_details           
;
?
;

_diffrn_ambient_temperature      293(2)
_diffrn_radiation_wavelength     0.71073
_diffrn_radiation_type           MoK\a
_diffrn_radiation_source         'fine-focus sealed tube'
_diffrn_radiation_monochromator  graphite
_diffrn_measurement_device_type  'Bruker P4'
_diffrn_measurement_method       '\w scans'
_diffrn_detector_area_resol_mean none
_diffrn_standards_number         none
_diffrn_standards_interval_count none
_diffrn_standards_interval_time  none
_diffrn_standards_decay_%        none
_diffrn_reflns_number            41899
_diffrn_reflns_av_R_equivalents  0.0677
_diffrn_reflns_av_sigmaI/netI    0.0943
_diffrn_reflns_limit_h_min       -40
_diffrn_reflns_limit_h_max       40
_diffrn_reflns_limit_k_min       -15
_diffrn_reflns_limit_k_max       11
_diffrn_reflns_limit_l_min       -35
_diffrn_reflns_limit_l_max       35
_diffrn_reflns_theta_min         2.05
_diffrn_reflns_theta_max         27.39
_reflns_number_total             11234
_reflns_number_gt                7965
_reflns_threshold_expression     >2sigma(I)

_computing_data_collection       'Bruker XSCANS'
_computing_cell_refinement       'Bruker XSCANS'
_computing_data_reduction        'Bruker SHELXTL'
_computing_structure_solution    'SHELXS-97 (Sheldrick, 1990)'
_computing_structure_refinement  'SHELXL-97 (Sheldrick, 1997)'
_computing_molecular_graphics    'Bruker SHELXTL'
_computing_publication_material  'Bruker SHELXTL'

_refine_special_details          
;
Refinement of F^2^ against ALL reflections. The weighted R-factor wR and
goodness of fit S are based on F^2^, conventional R-factors R are based
on F, with F set to zero for negative F^2^. The threshold expression of
F^2^ > 2sigma(F^2^) is used only for calculating R-factors(gt) etc. and is
not relevant to the choice of reflections for refinement. R-factors based
on F^2^ are statistically about twice as large as those based on F, and R-
factors based on ALL data will be even larger.
;

_refine_ls_structure_factor_coef Fsqd
_refine_ls_matrix_type           full
_refine_ls_weighting_scheme      calc
_refine_ls_weighting_details     
'calc w=1/[\s^2^(Fo^2^)+(0.2000P)^2^+0.0000P] where P=(Fo^2^+2Fc^2^)/3'
_atom_sites_solution_primary     direct
_atom_sites_solution_secondary   difmap
_atom_sites_solution_hydrogens   geom
_refine_ls_hydrogen_treatment    constr
_refine_ls_extinction_method     none
_refine_ls_extinction_coef       ?
_refine_ls_number_reflns         11234
_refine_ls_number_parameters     451
_refine_ls_number_restraints     58
_refine_ls_R_factor_all          0.1000
_refine_ls_R_factor_gt           0.0803
_refine_ls_wR_factor_ref         0.2704
_refine_ls_wR_factor_gt          0.2454
_refine_ls_goodness_of_fit_ref   0.912
_refine_ls_restrained_S_all      0.911
_refine_ls_shift/su_max          0.002
_refine_ls_shift/su_mean         0.000

loop_
_atom_site_label
_atom_site_type_symbol
_atom_site_fract_x
_atom_site_fract_y
_atom_site_fract_z
_atom_site_U_iso_or_equiv
_atom_site_adp_type
_atom_site_occupancy
_atom_site_symmetry_multiplicity
_atom_site_calc_flag
_atom_site_refinement_flags
_atom_site_disorder_assembly
_atom_site_disorder_group
Zn1 Zn -0.260514(18) -0.10200(4) -0.121129(19) 0.02571(18) Uani 1 1 d . . .
Zn2 Zn -0.179591(19) 0.08830(5) -0.12460(2) 0.02820(18) Uani 1 1 d . . .
Zn3 Zn -0.525287(19) 0.24044(5) -0.32039(2) 0.03448(19) Uani 1 1 d . . .
O1 O -0.21829(14) -0.0685(4) -0.05266(14) 0.0464(10) Uani 1 1 d . . .
O2 O -0.16574(15) 0.0583(3) -0.05090(13) 0.0423(9) Uani 1 1 d . . .
O3 O -0.06604(14) 0.1811(4) 0.11915(15) 0.0499(11) Uani 1 1 d . . .
O4 O -0.05584(19) 0.0746(5) 0.18693(17) 0.0683(15) Uani 1 1 d . . .
O5 O -0.1595(2) -0.2475(5) 0.17182(18) 0.085(2) Uani 1 1 d . . .
O6 O -0.20477(15) -0.2963(3) 0.09542(15) 0.0440(9) Uani 1 1 d . . .
O7 O -0.29179(13) 0.0300(3) -0.15675(14) 0.0390(8) Uani 1 1 d . . .
O8 O -0.23604(12) 0.0898(3) -0.18508(14) 0.0366(8) Uani 1 1 d . . .
O9 O -0.26967(13) 0.3306(4) -0.33384(14) 0.0426(9) Uani 1 1 d . . .
O10 O -0.33460(14) 0.4294(3) -0.35697(15) 0.0409(9) Uani 1 1 d . . .
O11 O -0.46117(12) 0.2836(3) -0.29943(16) 0.0440(9) Uani 1 1 d . . .
O12 O -0.44276(13) 0.1887(3) -0.22591(16) 0.0452(10) Uani 1 1 d . . .
O13 O -0.1969(2) 0.2478(3) -0.11179(19) 0.0583(13) Uani 1 1 d . . .
O14 O -0.12326(15) 0.1398(4) -0.1361(2) 0.0583(12) Uani 1 1 d . . .
O15 O -0.5148(2) 0.0957(4) -0.3472(3) 0.082(2) Uani 1 1 d . . .
C1 C -0.16214(16) -0.0334(4) 0.02597(17) 0.0289(9) Uani 1 1 d . . .
C2 C -0.12846(17) 0.0344(4) 0.05460(18) 0.0327(10) Uani 1 1 d . . .
H2A H -0.1186 0.0923 0.0389 0.039 Uiso 1 1 calc R . .
C3 C -0.10863(17) 0.0172(4) 0.10750(18) 0.0326(10) Uani 1 1 d . . .
C4 C -0.12258(18) -0.0752(4) 0.12982(18) 0.0321(10) Uani 1 1 d . . .
H4A H -0.1088 -0.0903 0.1642 0.039 Uiso 1 1 calc R . .
C5 C -0.15679(17) -0.1439(4) 0.10085(18) 0.0316(10) Uani 1 1 d . . .
C6 C -0.17670(18) -0.1219(4) 0.04818(18) 0.0331(10) Uani 1 1 d . . .
H6A H -0.1996 -0.1670 0.0285 0.040 Uiso 1 1 calc R . .
C7 C -0.18345(18) -0.0133(4) -0.03048(17) 0.0307(10) Uani 1 1 d . . .
C8 C -0.07495(18) 0.0940(5) 0.1390(2) 0.0383(12) Uani 1 1 d . . .
C9 C -0.1743(2) -0.2371(5) 0.1262(2) 0.0421(13) Uani 1 1 d . . .
C10 C -0.30950(15) 0.1561(4) -0.22540(17) 0.0290(10) Uani 1 1 d . . .
C11 C -0.29465(17) 0.2178(4) -0.26089(18) 0.0307(10) Uani 1 1 d . . .
H11A H -0.2648 0.2130 -0.2608 0.037 Uiso 1 1 calc R . .
C12 C -0.32508(16) 0.2849(4) -0.29557(19) 0.0299(10) Uani 1 1 d . . .
C13 C -0.36998(16) 0.2919(4) -0.29661(19) 0.0321(10) Uani 1 1 d . . .
H13A H -0.3901 0.3376 -0.3200 0.038 Uiso 1 1 calc R . .
C14 C -0.38460(16) 0.2296(4) -0.26210(18) 0.0316(10) Uani 1 1 d . . .
C15 C -0.35449(15) 0.1645(4) -0.22637(17) 0.0294(10) Uani 1 1 d . . .
H15A H -0.3642 0.1258 -0.2027 0.035 Uiso 1 1 calc R . .
C16 C -0.27655(17) 0.0868(4) -0.18628(18) 0.0284(10) Uani 1 1 d . . .
C17 C -0.30875(16) 0.3532(4) -0.33164(17) 0.0306(10) Uani 1 1 d . . .
C18 C -0.43302(17) 0.2365(4) -0.2619(2) 0.0320(10) Uani 1 1 d . . .
C19 C -0.2247(2) 0.3181(5) -0.1348(3) 0.0499(15) Uani 1 1 d . . .
C20 C -0.2814(5) 0.2890(10) -0.0906(6) 0.127(5) Uani 1 1 d . . .
C21 C -0.2896(4) 0.4279(8) -0.1633(4) 0.088(3) Uani 1 1 d . . .
C22 C -0.2562(4) 0.4637(6) -0.1895(4) 0.089(3) Uani 1 1 d . . .
C23 C -0.1819(4) 0.3847(9) -0.1921(5) 0.101(4) Uani 1 1 d . . .
C24 C -0.5160(3) -0.0048(7) -0.3395(4) 0.076(2) Uani 1 1 d U . .
C25 C -0.6005(5) -0.0189(15) -0.3705(6) 0.150(5) Uani 1 1 d U . .
C26 C -0.5475(7) -0.1700(11) -0.3391(7) 0.159(6) Uani 1 1 d U . .
C27 C -0.4907(7) -0.1771(12) -0.3291(8) 0.191(8) Uani 1 1 d U . .
C28 C -0.4354(5) -0.0242(18) -0.3164(13) 0.285(16) Uani 1 1 d U . .
N1 N -0.2636(3) 0.3492(7) -0.1258(3) 0.084(2) Uani 1 1 d . . .
N2 N -0.2199(3) 0.3838(6) -0.1742(3) 0.0724(19) Uani 1 1 d . . .
N3 N -0.5538(4) -0.0631(7) -0.3439(4) 0.106(3) Uani 1 1 d U . .
N4 N -0.4817(4) -0.0695(8) -0.3226(6) 0.166(6) Uani 1 1 d U . .

loop_
_atom_site_aniso_label
_atom_site_aniso_U_11
_atom_site_aniso_U_22
_atom_site_aniso_U_33
_atom_site_aniso_U_23
_atom_site_aniso_U_13
_atom_site_aniso_U_12
Zn1 0.0243(3) 0.0329(3) 0.0203(3) 0.00265(19) 0.0075(2) 0.00043(19)
Zn2 0.0243(3) 0.0366(3) 0.0234(3) 0.0032(2) 0.0072(2) 0.0008(2)
Zn3 0.0217(3) 0.0463(4) 0.0338(3) 0.0022(2) 0.0064(2) 0.0084(2)
O1 0.041(2) 0.069(3) 0.0235(17) -0.0001(17) 0.0028(16) -0.0178(19)
O2 0.059(3) 0.041(2) 0.0242(17) 0.0035(15) 0.0089(17) -0.0160(18)
O3 0.042(2) 0.065(3) 0.038(2) -0.0023(19) 0.0056(18) -0.023(2)
O4 0.060(3) 0.091(4) 0.036(2) 0.007(2) -0.011(2) -0.026(3)
O5 0.101(5) 0.109(5) 0.034(2) 0.028(3) 0.005(3) -0.044(4)
O6 0.050(2) 0.045(2) 0.039(2) 0.0032(17) 0.0172(18) -0.0156(18)
O7 0.032(2) 0.049(2) 0.0389(19) 0.0187(17) 0.0162(16) 0.0105(16)
O8 0.0220(18) 0.052(2) 0.0330(18) 0.0089(15) 0.0051(14) 0.0071(14)
O9 0.034(2) 0.061(3) 0.038(2) 0.0108(18) 0.0187(16) 0.0020(17)
O10 0.033(2) 0.042(2) 0.042(2) 0.0108(17) 0.0053(17) -0.0063(15)
O11 0.0187(17) 0.058(2) 0.053(2) 0.0178(19) 0.0085(16) 0.0045(15)
O12 0.030(2) 0.058(3) 0.055(2) 0.023(2) 0.0231(18) 0.0079(17)
O13 0.075(4) 0.039(2) 0.054(3) 0.0033(18) 0.011(2) 0.011(2)
O14 0.036(2) 0.067(3) 0.081(3) 0.013(3) 0.032(2) 0.000(2)
O15 0.104(5) 0.058(3) 0.113(5) -0.016(3) 0.076(4) 0.001(3)
C1 0.028(2) 0.032(2) 0.022(2) 0.0013(18) 0.0021(17) -0.0027(18)
C2 0.031(3) 0.040(3) 0.027(2) 0.0007(19) 0.0092(19) -0.003(2)
C3 0.029(2) 0.043(3) 0.024(2) -0.0038(19) 0.0064(18) -0.006(2)
C4 0.031(3) 0.040(3) 0.023(2) 0.0024(19) 0.0065(19) -0.0023(19)
C5 0.031(2) 0.039(3) 0.026(2) 0.0033(19) 0.0103(19) -0.003(2)
C6 0.030(3) 0.043(3) 0.026(2) -0.001(2) 0.0077(19) -0.003(2)
C7 0.039(3) 0.033(2) 0.021(2) -0.0020(18) 0.0097(19) -0.0011(19)
C8 0.022(2) 0.057(3) 0.033(3) -0.009(2) 0.004(2) -0.010(2)
C9 0.050(3) 0.048(3) 0.032(3) 0.003(2) 0.017(2) -0.015(2)
C10 0.021(2) 0.036(2) 0.029(2) 0.0119(19) 0.0059(17) 0.0041(17)
C11 0.023(2) 0.038(3) 0.031(2) 0.003(2) 0.0083(18) -0.0018(18)
C12 0.023(2) 0.036(3) 0.032(2) 0.0068(19) 0.0096(18) -0.0019(18)
C13 0.020(2) 0.040(3) 0.035(2) 0.009(2) 0.0063(19) 0.0022(18)
C14 0.021(2) 0.045(3) 0.029(2) 0.012(2) 0.0077(18) 0.0022(19)
C15 0.021(2) 0.039(3) 0.029(2) 0.0120(19) 0.0080(18) 0.0029(18)
C16 0.026(2) 0.031(2) 0.026(2) 0.0015(17) 0.0048(18) 0.0018(17)
C17 0.026(2) 0.043(3) 0.022(2) 0.0042(19) 0.0059(17) -0.0046(19)
C18 0.023(2) 0.039(3) 0.034(2) 0.011(2) 0.0085(19) 0.0028(18)
C19 0.054(4) 0.032(3) 0.064(4) -0.005(3) 0.020(3) 0.006(3)
C20 0.165(13) 0.118(9) 0.155(11) -0.045(8) 0.133(11) -0.049(8)
C21 0.079(7) 0.071(5) 0.113(8) 0.008(5) 0.031(6) 0.033(5)
C22 0.086(7) 0.044(4) 0.121(8) 0.019(4) 0.007(6) 0.023(4)
C23 0.078(7) 0.107(8) 0.124(9) 0.049(7) 0.039(6) 0.007(6)
C24 0.063(4) 0.064(5) 0.101(6) -0.030(4) 0.025(4) 0.007(3)
C25 0.073(6) 0.207(13) 0.167(13) -0.071(11) 0.036(8) -0.011(7)
C26 0.208(11) 0.081(6) 0.195(16) -0.011(9) 0.071(14) -0.037(7)
C27 0.194(11) 0.094(7) 0.240(19) -0.055(11) 0.000(15) 0.054(7)
C28 0.072(7) 0.218(16) 0.52(4) -0.23(2) 0.027(15) 0.020(8)
N1 0.071(5) 0.106(6) 0.085(5) 0.009(4) 0.038(4) 0.023(4)
N2 0.070(5) 0.068(4) 0.080(5) 0.027(3) 0.025(4) 0.021(3)
N3 0.095(5) 0.078(5) 0.151(9) -0.023(6) 0.046(6) -0.013(4)
N4 0.098(6) 0.082(6) 0.264(15) -0.042(8) -0.022(9) 0.031(5)

_geom_special_details            
;
All esds (except the esd in the dihedral angle between two l.s. planes)
are estimated using the full covariance matrix. The cell esds are taken
into account individually in the estimation of esds in distances, angles
and torsion angles; correlations between esds in cell parameters are only
used when they are defined by crystal symmetry. An approximate (isotropic)
treatment of cell esds is used for estimating esds involving l.s. planes.
;

loop_
_geom_bond_atom_site_label_1
_geom_bond_atom_site_label_2
_geom_bond_distance
_geom_bond_site_symmetry_2
_geom_bond_publ_flag
Zn1 O6 1.922(4) 7_445 ?
Zn1 O9 1.960(4) 4_444 ?
Zn1 O7 1.976(4) . ?
Zn1 O1 1.979(4) . ?
Zn2 O2 1.979(4) . ?
Zn2 O14 1.981(4) . ?
Zn2 O8 2.011(4) . ?
Zn2 O13 2.078(4) . ?
Zn2 O10 2.085(4) 4_444 ?
Zn3 O12 1.956(4) 2_454 ?
Zn3 O11 1.970(4) . ?
Zn3 O15 1.980(5) . ?
Zn3 O3 1.997(4) 8_455 ?
Zn3 O4 2.479(5) 8_455 ?
Zn3 C8 2.576(5) 8_455 ?
O1 C7 1.261(6) . ?
O2 C7 1.256(6) . ?
O3 C8 1.265(7) . ?
O3 Zn3 1.997(4) 8_556 ?
O4 C8 1.292(7) . ?
O4 Zn3 2.479(5) 8_556 ?
O5 C9 1.207(7) . ?
O6 C9 1.280(7) . ?
O6 Zn1 1.922(4) 7_445 ?
O7 C16 1.270(6) . ?
O8 C16 1.253(6) . ?
O9 C17 1.268(6) . ?
O9 Zn1 1.960(4) 4_454 ?
O10 C17 1.284(6) . ?
O10 Zn2 2.085(4) 4_454 ?
O11 C18 1.266(6) . ?
O12 C18 1.269(6) . ?
O12 Zn3 1.956(4) 2_454 ?
O13 C19 1.242(8) . ?
O15 C24 1.245(10) . ?
C1 C2 1.375(7) . ?
C1 C6 1.386(7) . ?
C1 C7 1.512(6) . ?
C2 C3 1.413(7) . ?
C2 H2A 0.9300 . ?
C3 C4 1.417(7) . ?
C3 C8 1.471(7) . ?
C4 C5 1.394(7) . ?
C4 H4A 0.9300 . ?
C5 C6 1.417(7) . ?
C5 C9 1.521(7) . ?
C6 H6A 0.9300 . ?
C8 Zn3 2.576(5) 8_556 ?
C10 C15 1.398(6) . ?
C10 C11 1.423(6) . ?
C10 C16 1.497(6) . ?
C11 C12 1.385(7) . ?
C11 H11A 0.9300 . ?
C12 C13 1.393(7) . ?
C12 C17 1.505(6) . ?
C13 C14 1.402(7) . ?
C13 H13A 0.9300 . ?
C14 C15 1.380(6) . ?
C14 C18 1.513(7) . ?
C15 H15A 0.9300 . ?
C19 N1 1.363(9) . ?
C19 N2 1.398(9) . ?
C20 N1 1.460(12) . ?
C21 N1 1.457(12) . ?
C21 C22 1.507(15) . ?
C22 N2 1.453(10) . ?
C23 N2 1.418(13) . ?
C24 N4 1.293(12) . ?
C24 N3 1.349(13) . ?
C25 N3 1.508(17) . ?
C26 N3 1.318(16) . ?
C26 C27 1.71(3) . ?
C27 N4 1.341(17) . ?
C28 N4 1.50(2) . ?

loop_
_geom_angle_atom_site_label_1
_geom_angle_atom_site_label_2
_geom_angle_atom_site_label_3
_geom_angle
_geom_angle_site_symmetry_1
_geom_angle_site_symmetry_3
_geom_angle_publ_flag
O6 Zn1 O9 113.71(18) 7_445 4_444 ?
O6 Zn1 O7 117.52(18) 7_445 . ?
O9 Zn1 O7 106.56(17) 4_444 . ?
O6 Zn1 O1 93.58(17) 7_445 . ?
O9 Zn1 O1 112.67(18) 4_444 . ?
O7 Zn1 O1 112.63(18) . . ?
O2 Zn2 O14 107.7(2) . . ?
O2 Zn2 O8 135.10(17) . . ?
O14 Zn2 O8 116.93(19) . . ?
O2 Zn2 O13 88.99(18) . . ?
O14 Zn2 O13 91.2(2) . . ?
O8 Zn2 O13 85.81(18) . . ?
O2 Zn2 O10 94.87(17) . 4_444 ?
O14 Zn2 O10 89.34(19) . 4_444 ?
O8 Zn2 O10 90.15(15) . 4_444 ?
O13 Zn2 O10 175.72(18) . 4_444 ?
O12 Zn3 O11 124.85(17) 2_454 . ?
O12 Zn3 O15 97.8(2) 2_454 . ?
O11 Zn3 O15 94.4(2) . . ?
O12 Zn3 O3 112.37(19) 2_454 8_455 ?
O11 Zn3 O3 116.03(18) . 8_455 ?
O15 Zn3 O3 104.5(3) . 8_455 ?
O12 Zn3 O4 87.26(19) 2_454 8_455 ?
O11 Zn3 O4 96.52(19) . 8_455 ?
O15 Zn3 O4 162.4(3) . 8_455 ?
O3 Zn3 O4 58.20(16) 8_455 8_455 ?
O12 Zn3 C8 100.21(18) 2_454 8_455 ?
O11 Zn3 C8 109.57(17) . 8_455 ?
O15 Zn3 C8 133.0(3) . 8_455 ?
O3 Zn3 C8 28.71(17) 8_455 8_455 ?
O4 Zn3 C8 29.53(16) 8_455 8_455 ?
C7 O1 Zn1 142.0(3) . . ?
C7 O2 Zn2 127.3(3) . . ?
C8 O3 Zn3 101.9(3) . 8_556 ?
C8 O4 Zn3 79.4(3) . 8_556 ?
C9 O6 Zn1 120.3(3) . 7_445 ?
C16 O7 Zn1 122.5(3) . . ?
C16 O8 Zn2 129.3(3) . . ?
C17 O9 Zn1 126.8(3) . 4_454 ?
C17 O10 Zn2 131.3(3) . 4_454 ?
C18 O11 Zn3 119.9(3) . . ?
C18 O12 Zn3 131.4(4) . 2_454 ?
C19 O13 Zn2 137.3(5) . . ?
C24 O15 Zn3 142.6(6) . . ?
C2 C1 C6 120.7(4) . . ?
C2 C1 C7 120.4(4) . . ?
C6 C1 C7 119.0(4) . . ?
C1 C2 C3 120.9(5) . . ?
C1 C2 H2A 119.5 . . ?
C3 C2 H2A 119.5 . . ?
C4 C3 C2 118.3(5) . . ?
C4 C3 C8 120.5(5) . . ?
C2 C3 C8 121.2(5) . . ?
C5 C