####################################################################### 
# 
# This file contains crystal structure data downloaded from the 
# Cambridge Structural Database (CSD) hosted by the Cambridge 
# Crystallographic Data Centre (CCDC).
# 
# Full information about CCDC data access policies and citation 
# guidelines are available at http://www.ccdc.cam.ac.uk/access/V1 
# 
# Audit and citation data items may have been added by the CCDC. 
# Please retain this information to preserve the provenance of 
# this file and to allow appropriate attribution of the data. 
# 
#######################################################################

data_3
_audit_block_doi                 10.5517/ccy5249
_database_code_depnum_ccdc_archive 'CCDC 868810'
loop_
_citation_id
_citation_doi
_citation_year
1 10.1039/c2ce26290h 2012
_audit_update_record             
;
2012-02-23 deposited with the CCDC.	2024-07-12 downloaded from the CCDC.
;
#TrackingRef 'check cif 1-4-revised.cif'


_audit_creation_method           SHELXL-97
_chemical_name_systematic        
;
?
;
_chemical_name_common            ?
_chemical_melting_point          ?
_chemical_formula_moiety         'C18 H6 N0 O12 Zn3,C15 H27 O3 N3'
_chemical_formula_sum            'C33 H33 N3 O15 Zn3'
_chemical_formula_weight         907.806

loop_
_atom_type_symbol
_atom_type_description
_atom_type_scat_dispersion_real
_atom_type_scat_dispersion_imag
_atom_type_scat_source
C C 0.0033 0.0016 'International Tables Vol C Tables 4.2.6.8 and 6.1.1.4'
H H 0.0000 0.0000 'International Tables Vol C Tables 4.2.6.8 and 6.1.1.4'
N N 0.0061 0.0033 'International Tables Vol C Tables 4.2.6.8 and 6.1.1.4'
O O 0.0106 0.0060 'International Tables Vol C Tables 4.2.6.8 and 6.1.1.4'
Zn Zn 0.2839 1.4301 'International Tables Vol C Tables 4.2.6.8 and 6.1.1.4'

_symmetry_cell_setting           monoclinic
_symmetry_space_group_name_H-M   P2(1)/n

loop_
_symmetry_equiv_pos_as_xyz
'x, y, z'
'-x+1/2, y+1/2, -z+1/2'
'-x, -y, -z'
'x-1/2, -y-1/2, z-1/2'

_cell_length_a                   12.906(4)
_cell_length_b                   12.606(4)
_cell_length_c                   27.737(9)
_cell_angle_alpha                90.00
_cell_angle_beta                 92.970(7)
_cell_angle_gamma                90.00
_cell_volume                     4507(2)
_cell_formula_units_Z            4
_cell_measurement_temperature    293(2)
_cell_measurement_reflns_used    ?
_cell_measurement_theta_min      ?
_cell_measurement_theta_max      ?

_exptl_crystal_description       block
_exptl_crystal_colour            colorless
_exptl_crystal_size_max          0.30
_exptl_crystal_size_mid          0.20
_exptl_crystal_size_min          0.20
_exptl_crystal_density_meas      ?
_exptl_crystal_density_diffrn    0.970
_exptl_crystal_density_method    'not measured'
_exptl_crystal_F_000             1296
_exptl_absorpt_coefficient_mu    1.622
_exptl_absorpt_correction_type   Multi-scan
_exptl_absorpt_correction_T_min  0.6418
_exptl_absorpt_correction_T_max  0.7373
_exptl_absorpt_process_details   ?

_exptl_special_details           
;
?
;

_diffrn_ambient_temperature      293(2)
_diffrn_radiation_wavelength     0.71073
_diffrn_radiation_type           MoK\a
_diffrn_radiation_source         'fine-focus sealed tube'
_diffrn_radiation_monochromator  graphite
_diffrn_measurement_device_type  'Bruker P4'
_diffrn_measurement_method       '\w scans'
_diffrn_detector_area_resol_mean none
_diffrn_standards_number         none
_diffrn_standards_interval_count none
_diffrn_standards_interval_time  none
_diffrn_standards_decay_%        none
_diffrn_reflns_number            34228
_diffrn_reflns_av_R_equivalents  0.0530
_diffrn_reflns_av_sigmaI/netI    0.0542
_diffrn_reflns_limit_h_min       -16
_diffrn_reflns_limit_h_max       16
_diffrn_reflns_limit_k_min       -16
_diffrn_reflns_limit_k_max       16
_diffrn_reflns_limit_l_min       -35
_diffrn_reflns_limit_l_max       35
_diffrn_reflns_theta_min         2.18
_diffrn_reflns_theta_max         27.49
_reflns_number_total             10172
_reflns_number_gt                7516
_reflns_threshold_expression     >2sigma(I)

_computing_data_collection       'Bruker XSCANS'
_computing_cell_refinement       'Bruker XSCANS'
_computing_data_reduction        'Bruker SHELXTL'
_computing_structure_solution    'SHELXS-97 (Sheldrick, 1990)'
_computing_structure_refinement  'SHELXL-97 (Sheldrick, 1997)'
_computing_molecular_graphics    'Bruker SHELXTL'
_computing_publication_material  'Bruker SHELXTL'

_refine_special_details          
;
Refinement of F^2^ against ALL reflections. The weighted R-factor wR and
goodness of fit S are based on F^2^, conventional R-factors R are based
on F, with F set to zero for negative F^2^. The threshold expression of
F^2^ > 2sigma(F^2^) is used only for calculating R-factors(gt) etc. and is
not relevant to the choice of reflections for refinement. R-factors based
on F^2^ are statistically about twice as large as those based on F, and R-
factors based on ALL data will be even larger.
;

_refine_ls_structure_factor_coef Fsqd
_refine_ls_matrix_type           full
_refine_ls_weighting_scheme      calc
_refine_ls_weighting_details     
'calc w=1/[\s^2^(Fo^2^)+(0.1697P)^2^+0.0000P] where P=(Fo^2^+2Fc^2^)/3'
_atom_sites_solution_primary     direct
_atom_sites_solution_secondary   difmap
_atom_sites_solution_hydrogens   geom
_refine_ls_hydrogen_treatment    constr
_refine_ls_extinction_method     none
_refine_ls_extinction_coef       ?
_refine_ls_number_reflns         10172
_refine_ls_number_parameters     310
_refine_ls_number_restraints     0
_refine_ls_R_factor_all          0.0938
_refine_ls_R_factor_gt           0.0787
_refine_ls_wR_factor_ref         0.2415
_refine_ls_wR_factor_gt          0.2287
_refine_ls_goodness_of_fit_ref   1.032
_refine_ls_restrained_S_all      1.032
_refine_ls_shift/su_max          0.001
_refine_ls_shift/su_mean         0.000

loop_
_atom_site_label
_atom_site_type_symbol
_atom_site_fract_x
_atom_site_fract_y
_atom_site_fract_z
_atom_site_U_iso_or_equiv
_atom_site_adp_type
_atom_site_occupancy
_atom_site_symmetry_multiplicity
_atom_site_calc_flag
_atom_site_refinement_flags
_atom_site_disorder_assembly
_atom_site_disorder_group
Zn1 Zn 0.10238(4) 1.04485(4) 0.134329(18) 0.02872(17) Uani 1 1 d . . .
Zn2 Zn -0.04182(4) 1.20078(4) 0.209813(19) 0.03170(18) Uani 1 1 d . . .
Zn3 Zn -0.42814(4) 1.57721(4) 0.026081(18) 0.02665(17) Uani 1 1 d . . .
O1 O 0.3930(3) 0.7597(4) 0.29946(16) 0.0527(11) Uani 1 1 d . . .
O2 O 0.3223(3) 0.6785(3) 0.36155(14) 0.0503(10) Uani 1 1 d . . .
O3 O -0.0112(3) 1.0210(3) 0.41357(13) 0.0444(9) Uani 1 1 d . . .
O4 O 0.0930(3) 0.9059(3) 0.45382(13) 0.0432(9) Uani 1 1 d . . .
O5 O 0.1284(3) 0.9828(3) 0.20056(13) 0.0450(9) Uani 1 1 d . . .
O6 O 0.0268(3) 1.0809(3) 0.24485(14) 0.0504(11) Uani 1 1 d . . .
O7 O -0.1165(5) 0.9559(4) -0.04607(19) 0.0753(16) Uani 1 1 d . . .
O8 O -0.1678(4) 1.0742(4) -0.09865(15) 0.0561(11) Uani 1 1 d . . .
O9 O -0.1016(3) 1.2337(3) 0.14459(13) 0.0443(9) Uani 1 1 d . . .
O10 O -0.0463(3) 1.0749(3) 0.12241(15) 0.0435(9) Uani 1 1 d . . .
O11 O -0.4407(3) 1.3286(3) -0.01726(15) 0.0488(10) Uani 1 1 d . . .
O12 O -0.3398(3) 1.4408(3) 0.02601(15) 0.0449(9) Uani 1 1 d . . .
O13 O -0.0641(5) 1.3270(5) 0.2504(2) 0.0914(18) Uiso 1 1 d . . .
O14 O -0.3229(3) 1.6794(3) 0.05280(14) 0.0410(8) Uiso 1 1 d . . .
O15 O -0.1800(4) 1.1303(5) 0.2292(2) 0.0784(15) Uiso 1 1 d . . .
C1 C 0.2370(4) 0.8261(4) 0.32764(16) 0.0291(9) Uani 1 1 d . . .
C2 C 0.1853(4) 0.8466(4) 0.36982(17) 0.0322(10) Uani 1 1 d . . .
H2A H 0.2035 0.8084 0.3985 0.039 Uiso 1 1 calc R . .
C3 C 0.1077(4) 0.9227(4) 0.36986(16) 0.0293(9) Uani 1 1 d . . .
C4 C 0.0787(4) 0.9756(4) 0.32712(17) 0.0337(10) Uani 1 1 d . . .
H4A H 0.0258 1.0280 0.3270 0.040 Uiso 1 1 calc R . .
C5 C 0.1264(4) 0.9522(4) 0.28483(17) 0.0319(10) Uani 1 1 d . . .
C6 C 0.2080(4) 0.8799(4) 0.28575(16) 0.0318(10) Uani 1 1 d . . .
H6A H 0.2441 0.8676 0.2573 0.038 Uiso 1 1 calc R . .
C7 C 0.3246(4) 0.7497(4) 0.32903(18) 0.0367(11) Uani 1 1 d . . .
C8 C 0.0593(4) 0.9511(4) 0.41593(17) 0.0298(10) Uani 1 1 d . . .
C9 C 0.0906(4) 1.0094(4) 0.23947(16) 0.0321(10) Uani 1 1 d . . .
C10 C -0.1848(4) 1.1180(4) -0.01644(18) 0.0349(11) Uani 1 1 d . . .
C11 C -0.1348(4) 1.1054(4) 0.02833(18) 0.0332(10) Uani 1 1 d . . .
H11A H -0.0873 1.0485 0.0336 0.040 Uiso 1 1 calc R . .
C12 C -0.1531(4) 1.1751(4) 0.06582(17) 0.0315(10) Uani 1 1 d . . .
C13 C -0.2232(4) 1.2582(4) 0.05821(17) 0.0312(10) Uani 1 1 d . . .
H13A H -0.2333 1.3081 0.0832 0.037 Uiso 1 1 calc R . .
C14 C -0.2789(4) 1.2683(4) 0.01362(17) 0.0338(10) Uani 1 1 d . . .
C15 C -0.2588(4) 1.1963(4) -0.02342(17) 0.0321(10) Uani 1 1 d . . .
H15A H -0.2966 1.2016 -0.0536 0.038 Uiso 1 1 calc R . .
C16 C -0.1569(4) 1.0449(5) -0.0563(2) 0.0403(12) Uani 1 1 d . . .
C17 C -0.0957(4) 1.1609(4) 0.11437(17) 0.0321(10) Uani 1 1 d . . .
C18 C -0.3602(4) 1.3545(4) 0.00695(17) 0.0344(11) Uani 1 1 d . . .

loop_
_atom_site_aniso_label
_atom_site_aniso_U_11
_atom_site_aniso_U_22
_atom_site_aniso_U_33
_atom_site_aniso_U_23
_atom_site_aniso_U_13
_atom_site_aniso_U_12
Zn1 0.0333(3) 0.0290(3) 0.0238(3) -0.0022(2) 0.0012(2) 0.0016(2)
Zn2 0.0344(3) 0.0350(3) 0.0254(3) 0.0007(2) -0.0007(2) 0.0039(2)
Zn3 0.0297(3) 0.0272(3) 0.0231(3) -0.0008(2) 0.0019(2) -0.00087(19)
O1 0.046(2) 0.057(3) 0.056(2) 0.016(2) 0.0179(19) 0.0174(19)
O2 0.056(2) 0.053(2) 0.043(2) 0.0134(18) 0.0128(19) 0.0251(19)
O3 0.053(2) 0.052(2) 0.0286(18) -0.0059(17) 0.0090(16) 0.0109(18)
O4 0.057(2) 0.048(2) 0.0251(18) 0.0026(16) 0.0079(16) 0.0082(18)
O5 0.049(2) 0.060(2) 0.0258(18) 0.0064(17) 0.0030(16) 0.0145(18)
O6 0.053(2) 0.060(3) 0.039(2) 0.0181(19) 0.0068(18) 0.0249(19)
O7 0.088(4) 0.066(3) 0.070(3) -0.023(3) -0.015(3) 0.040(3)
O8 0.080(3) 0.055(3) 0.034(2) -0.0136(19) 0.006(2) 0.012(2)
O9 0.058(2) 0.043(2) 0.0311(19) -0.0024(16) -0.0080(17) 0.0027(17)
O10 0.0326(19) 0.041(2) 0.055(2) 0.0101(18) -0.0114(17) 0.0033(15)
O11 0.042(2) 0.056(2) 0.048(2) -0.0069(19) -0.0040(18) 0.0214(18)
O12 0.047(2) 0.035(2) 0.052(2) -0.0001(17) -0.0054(18) 0.0101(16)
C1 0.035(2) 0.031(2) 0.022(2) 0.0004(18) 0.0059(18) 0.0026(18)
C2 0.042(3) 0.030(2) 0.024(2) 0.0019(18) -0.0008(19) 0.0083(19)
C3 0.031(2) 0.036(2) 0.021(2) 0.0014(18) 0.0019(18) 0.0009(18)
C4 0.035(3) 0.037(3) 0.030(2) 0.003(2) 0.004(2) 0.0095(19)
C5 0.035(3) 0.034(2) 0.026(2) 0.0037(19) 0.0010(19) 0.0029(19)
C6 0.034(2) 0.039(3) 0.023(2) 0.0009(19) 0.0073(18) 0.0023(19)
C7 0.042(3) 0.035(3) 0.033(3) 0.000(2) 0.002(2) 0.006(2)
C8 0.029(2) 0.033(2) 0.027(2) 0.0001(18) 0.0025(18) -0.0012(18)
C9 0.036(3) 0.039(3) 0.022(2) 0.0065(19) -0.0010(18) -0.001(2)
C10 0.038(3) 0.035(3) 0.032(2) -0.011(2) 0.003(2) -0.002(2)
C11 0.033(2) 0.030(2) 0.037(3) -0.005(2) -0.0025(19) 0.0075(18)
C12 0.031(2) 0.037(3) 0.025(2) -0.0024(19) -0.0041(18) 0.0055(19)
C13 0.034(2) 0.028(2) 0.032(2) -0.0054(19) -0.0040(19) 0.0070(18)
C14 0.040(3) 0.035(2) 0.027(2) 0.001(2) 0.0018(19) 0.008(2)
C15 0.034(2) 0.041(3) 0.021(2) -0.0007(19) -0.0006(18) 0.0054(19)
C16 0.031(3) 0.049(3) 0.040(3) -0.016(2) -0.003(2) -0.004(2)
C17 0.035(2) 0.037(3) 0.023(2) 0.0047(19) -0.0042(18) -0.0020(19)
C18 0.035(3) 0.041(3) 0.026(2) 0.000(2) -0.0014(19) 0.011(2)

_geom_special_details            
;
All esds (except the esd in the dihedral angle between two l.s. planes)
are estimated using the full covariance matrix. The cell esds are taken
into account individually in the estimation of esds in distances, angles
and torsion angles; correlations between esds in cell parameters are only
used when they are defined by crystal symmetry. An approximate (isotropic)
treatment of cell esds is used for estimating esds involving l.s. planes.
;

loop_
_geom_bond_atom_site_label_1
_geom_bond_atom_site_label_2
_geom_bond_distance
_geom_bond_site_symmetry_2
_geom_bond_publ_flag
Zn1 O2 1.945(4) 2 ?
Zn1 O10 1.967(4) . ?
Zn1 O8 2.008(4) 3_575 ?
Zn1 O5 2.009(4) . ?
Zn1 O7 2.464(6) 3_575 ?
Zn1 C16 2.572(5) 3_575 ?
Zn2 O9 1.974(4) . ?
Zn2 O13 1.979(7) . ?
Zn2 O6 1.981(4) . ?
Zn2 O1 2.088(4) 2 ?
Zn2 O15 2.088(6) . ?
Zn3 O14 1.987(4) . ?
Zn3 O3 2.013(3) 2_455 ?
Zn3 O4 2.048(4) 4_585 ?
Zn3 O12 2.063(4) . ?
Zn3 O11 2.072(4) 3_485 ?
Zn3 Zn3 3.0075(12) 3_485 ?
O1 C7 1.242(6) . ?
O1 Zn2 2.088(4) 2_545 ?
O2 C7 1.274(6) . ?
O2 Zn1 1.945(4) 2_545 ?
O3 C8 1.265(6) . ?
O3 Zn3 2.013(3) 2_445 ?
O4 C8 1.254(6) . ?
O4 Zn3 2.048(4) 4_686 ?
O5 C9 1.253(6) . ?
O6 C9 1.235(6) . ?
O7 C16 1.264(7) . ?
O7 Zn1 2.464(6) 3_575 ?
O8 C16 1.231(7) . ?
O8 Zn1 2.008(4) 3_575 ?
O9 C17 1.248(6) . ?
O10 C17 1.272(6) . ?
O11 C18 1.251(7) . ?
O11 Zn3 2.072(4) 3_485 ?
O12 C18 1.232(7) . ?
C1 C6 1.380(7) . ?
C1 C2 1.401(6) . ?
C1 C7 1.485(7) . ?
C2 C3 1.387(6) . ?
C2 H2A 0.9500 . ?
C3 C4 1.394(6) . ?
C3 C8 1.494(6) . ?
C4 C5 1.385(6) . ?
C4 H4A 0.9500 . ?
C5 C6 1.392(7) . ?
C5 C9 1.502(7) . ?
C6 H6A 0.9500 . ?
C10 C11 1.379(7) . ?
C10 C15 1.380(7) . ?
C10 C16 1.498(7) . ?
C11 C12 1.391(7) . ?
C11 H11A 0.9500 . ?
C12 C13 1.393(6) . ?
C12 C17 1.513(6) . ?
C13 C14 1.404(7) . ?
C13 H13A 0.9500 . ?
C14 C15 1.405(7) . ?
C14 C18 1.514(7) . ?
C15 H15A 0.9500 . ?
C16 Zn1 2.572(5) 3_575 ?

loop_
_geom_angle_atom_site_label_1
_geom_angle_atom_site_label_2
_geom_angle_atom_site_label_3
_geom_angle
_geom_angle_site_symmetry_1
_geom_angle_site_symmetry_3
_geom_angle_publ_flag
O2 Zn1 O10 108.87(18) 2 . ?
O2 Zn1 O8 117.03(19) 2 3_575 ?
O10 Zn1 O8 119.52(19) . 3_575 ?
O2 Zn1 O5 102.95(18) 2 . ?
O10 Zn1 O5 110.13(17) . . ?
O8 Zn1 O5 96.01(17) 3_575 . ?
O2 Zn1 O7 89.97(19) 2 3_575 ?
O10 Zn1 O7 87.43(18) . 3_575 ?
O8 Zn1 O7 56.84(16) 3_575 3_575 ?
O5 Zn1 O7 152.81(16) . 3_575 ?
O2 Zn1 C16 105.82(17) 2 3_575 ?
O10 Zn1 C16 104.52(18) . 3_575 ?
O8 Zn1 C16 27.88(18) 3_575 3_575 ?
O5 Zn1 C16 123.89(18) . 3_575 ?
O7 Zn1 C16 28.98(17) 3_575 3_575 ?
O9 Zn2 O13 106.9(2) . . ?
O9 Zn2 O6 138.93(17) . . ?
O13 Zn2 O6 114.1(2) . . ?
O9 Zn2 O1 97.51(18) . 2 ?
O13 Zn2 O1 86.9(2) . 2 ?
O6 Zn2 O1 86.62(19) . 2 ?
O9 Zn2 O15 91.6(2) . . ?
O13 Zn2 O15 92.5(3) . . ?
O6 Zn2 O15 85.1(2) . . ?
O1 Zn2 O15 170.7(2) 2 . ?
O14 Zn3 O3 101.88(16) . 2_455 ?
O14 Zn3 O4 100.06(16) . 4_585 ?
O3 Zn3 O4 158.06(16) 2_455 4_585 ?
O14 Zn3 O12 100.01(16) . . ?
O3 Zn3 O12 86.90(17) 2_455 . ?
O4 Zn3 O12 89.09(17) 4_585 . ?
O14 Zn3 O11 102.19(17) . 3_485 ?
O3 Zn3 O11 87.10(18) 2_455 3_485 ?
O4 Zn3 O11 88.53(17) 4_585 3_485 ?
O12 Zn3 O11 157.76(18) . 3_485 ?
O14 Zn3 Zn3 172.55(11) . 3_485 ?
O3 Zn3 Zn3 85.15(12) 2_455 3_485 ?
O4 Zn3 Zn3 72.93(11) 4_585 3_485 ?
O12 Zn3 Zn3 77.70(12) . 3_485 ?
O11 Zn3 Zn3 80.46(13) 3_485 3_485 ?
C7 O1 Zn2 137.3(4) . 2_545 ?
C7 O2 Zn1 128.4(3) . 2_545 ?
C8 O3 Zn3 120.8(3) . 2_445 ?
C8 O4 Zn3 135.7(3) . 4_686 ?
C9 O5 Zn1 129.0(3) . . ?
C9 O6 Zn2 141.4(3) . . ?
C16 O7 Zn1 80.2(4) . 3_575 ?
C16 O8 Zn1 102.4(4) . 3_575 ?
C17 O9 Zn2 115.2(3) . . ?
C17 O10 Zn1 132.1(3) . . ?
C18 O11 Zn3 124.4(3) . 3_485 ?
C18 O12 Zn3 129.1(4) . . ?
C6 C1 C2 119.5(4) . . ?
C6 C1 C7 120.9(4) . . ?
C2 C1 C7 119.6(4) . . ?
C3 C2 C1 120.3(4) . . ?
C3 C2 H2A 119.9 . . ?
C1 C2 H2A 119.9 . . ?
C2 C3 C4 119.5(4) . . ?
C2 C3 C8 120.0(4) . . ?
C4 C3 C8 120.4(4) . . ?
C5 C4 C3 120.4(4) . . ?
C5 C4 H4A 119.8 . . ?
C3 C4 H4A 119.8 . . ?
C4 C5 C6 119.6(4) . . ?
C4 C5 C9 118.4(4) . . ?
C6 C5 C9 122.0(4) . . ?
C1 C6 C5 120.6(4) . . ?
C1 C6 H6A 119.7 . . ?
C5 C6 H6A 119.7 . . ?
O1 C7 O2 125.7(5) . . ?
O1 C7 C1 118.9(5) . . ?
O2 C7 C1 115.4(4) . . ?
O4 C8 O3 125.2(4) . . ?
O4 C8 C3 117.8(4) . . ?
O3 C8 C3 117.0(4) . . ?
O6 C9 O5 126.3(5) . . ?
O6 C9 C5 115.3(4) . . ?
O5 C9 C5 118.4(4) . . ?
C11 C10 C15 119.8(4) . . ?
C11 C10 C16 118.4(5) . . ?
C15 C10 C16 121.8(5) . . ?
C10 C11 C12 120.7(4) . . ?
C10 C11 H11A 119.7 . . ?
C12 C11 H11A 119.7 . . ?
C11 C12 C13 119.7(4) . . ?
C11 C12 C17 119.8(4) . . ?
C13 C12 C17 120.5(4) . . ?
C12 C13 C14 120.1(4) . . ?
C12 C13 H13A 120.0 . . ?
C14 C13 H13A 120.0 . . ?
C13 C14 C15 118.7(4) . . ?
C13 C14 C18 119.5(4) . . ?
C15 C14 C18 121.8(4) . . ?
C10 C15 C14 120.8(4) . . ?
C10 C15 H15A 119.6 . . ?
C14 C15 H15A 119.6 . . ?
O8 C16 O7 120.4(5) . . ?
O8 C16 C10 120.0(5) . . ?
O7 C16 C10 119.4(5) . . ?
O8 C16 Zn1 49.7(3) . 3_575 ?
O7 C16 Zn1 70.8(3) . 3_575 ?
C10 C16 Zn1 168.2(4) . 3_575 ?
O9 C17 O10 123.8(5) . . ?
O9 C17 C12 117.8(4) . . ?
O10 C17 C12 118.3(4) . . ?
O12 C18 O11 127.8(5) . . ?
O12 C18 C14 116.8(5) . . ?
O11 C18 C14 115.4(5) . . ?

loop_
_platon_squeeze_void_nr
_platon_squeeze_void_average_x
_platon_squeeze_void_average_y
_platon_squeeze_void_average_z
_platon_squeeze_void_volume
_platon_squeeze_void_count_electrons
1 0.432 0.017 -0.005 2814.9 484.8

_diffrn_measured_fraction_theta_max 0.982
_diffrn_reflns_theta_full        27.49
_diffrn_measured_fraction_theta_full 0.982
_refine_diff_density_max         5.538
_refine_diff_density_min         -1.141
_refine_diff_density_rms         0.173
