####################################################################### 
# 
# This file contains crystal structure data downloaded from the 
# Cambridge Structural Database (CSD) hosted by the Cambridge 
# Crystallographic Data Centre (CCDC).
# 
# Full information about CCDC data access policies and citation 
# guidelines are available at http://www.ccdc.cam.ac.uk/access/V1 
# 
# Audit and citation data items may have been added by the CCDC. 
# Please retain this information to preserve the provenance of 
# this file and to allow appropriate attribution of the data. 
# 
#######################################################################

data_UCY-3-CHCl3
_audit_block_doi                 10.5517/ccypvhy
_database_code_depnum_ccdc_archive 'CCDC 884941'
loop_
_citation_id
_citation_doi
_citation_year
1 10.1039/c2ce25913c 2012
_audit_update_record             
;
2012-06-01 deposited with the CCDC.	2024-07-12 downloaded from the CCDC.
;
#TrackingRef 'UCY-3-CHCl3.cif'


_audit_creation_method           SHELXL-97
_chemical_name_systematic        
;
?
;
_chemical_name_common            ?
_chemical_melting_point          ?
_chemical_formula_moiety         
'C41 H34 Cd3 N5 O15, 2(C0.5 H0.5 Cl1.5), 6.5(H2 O)'
_chemical_formula_sum            'C42 H48 Cd3 Cl3 N5 O21.50'
_chemical_formula_weight         1410.40

loop_
_atom_type_symbol
_atom_type_description
_atom_type_scat_dispersion_real
_atom_type_scat_dispersion_imag
_atom_type_scat_source
C C 0.0033 0.0016 'International Tables Vol C Tables 4.2.6.8 and 6.1.1.4'
H H 0.0000 0.0000 'International Tables Vol C Tables 4.2.6.8 and 6.1.1.4'
N N 0.0061 0.0033 'International Tables Vol C Tables 4.2.6.8 and 6.1.1.4'
O O 0.0106 0.0060 'International Tables Vol C Tables 4.2.6.8 and 6.1.1.4'
Cd Cd -0.8075 1.2024 'International Tables Vol C Tables 4.2.6.8 and 6.1.1.4'
Cl Cl 0.1484 0.1585 'International Tables Vol C Tables 4.2.6.8 and 6.1.1.4'

_symmetry_cell_setting           Monoclinic
_symmetry_space_group_name_H-M   'C 2/c'

loop_
_symmetry_equiv_pos_as_xyz
'x, y, z'
'-x, y, -z+1/2'
'x+1/2, y+1/2, z'
'-x+1/2, y+1/2, -z+1/2'
'-x, -y, -z'
'x, -y, z-1/2'
'-x+1/2, -y+1/2, -z'
'x+1/2, -y+1/2, z-1/2'

_cell_length_a                   34.628(2)
_cell_length_b                   18.2216(6)
_cell_length_c                   23.1357(18)
_cell_angle_alpha                90.00
_cell_angle_beta                 118.404(9)
_cell_angle_gamma                90.00
_cell_volume                     12840.7(17)
_cell_formula_units_Z            8
_cell_measurement_temperature    100(2)
_cell_measurement_reflns_used    7978
_cell_measurement_theta_min      2.9969
_cell_measurement_theta_max      28.7554

_exptl_crystal_description       polyhedral
_exptl_crystal_colour            colorless
_exptl_crystal_size_max          0.15
_exptl_crystal_size_mid          0.12
_exptl_crystal_size_min          0.11
_exptl_crystal_density_meas      ?
_exptl_crystal_density_diffrn    1.459
_exptl_crystal_density_method    'not measured'
_exptl_crystal_F_000             5616
_exptl_absorpt_coefficient_mu    1.176
_exptl_absorpt_correction_type   multi-scan
_exptl_absorpt_correction_T_min  0.52286
_exptl_absorpt_correction_T_max  1.00000
_exptl_absorpt_process_details   
'Empirical absorption correction (CrysAlis RED, Oxford Diffraction)'

_exptl_special_details           
;
?
;

_diffrn_ambient_temperature      100(2)
_diffrn_radiation_wavelength     0.71073
_diffrn_radiation_type           MoK\a
_diffrn_radiation_source         'SuperNova (Mo) X-ray Source'
_diffrn_radiation_monochromator  mirror
_diffrn_measurement_device_type  'SuperNova, Dual, Cu at zero, Atlas'
_diffrn_measurement_method       '\w scans'
_diffrn_detector_area_resol_mean 10.4223
_diffrn_standards_number         ?
_diffrn_standards_interval_count ?
_diffrn_standards_interval_time  ?
_diffrn_standards_decay_%        ?
_diffrn_reflns_number            25299
_diffrn_reflns_av_R_equivalents  0.0385
_diffrn_reflns_av_sigmaI/netI    0.0473
_diffrn_reflns_limit_h_min       -41
_diffrn_reflns_limit_h_max       38
_diffrn_reflns_limit_k_min       -21
_diffrn_reflns_limit_k_max       18
_diffrn_reflns_limit_l_min       -27
_diffrn_reflns_limit_l_max       27
_diffrn_reflns_theta_min         3.20
_diffrn_reflns_theta_max         25.00
_reflns_number_total             11087
_reflns_number_gt                7397
_reflns_threshold_expression     >2sigma(I)

_computing_data_collection       'CrysAlis CCD'
_computing_cell_refinement       'CrysAlis RED'
_computing_data_reduction        'CrysAlis RED'
_computing_structure_solution    'SHELXL-97 (Sheldrick, 1997)'
_computing_structure_refinement  'SHELXL-97 (Sheldrick, 1997)'
_computing_molecular_graphics    
;
DIAMOND (Brandenburg, 2006)
MERCURY (Bruno et al. 2002)
;

_computing_publication_material  'WINGX (Farrugia, 1999)'

_refine_special_details          
;
Refinement of F^2^ against ALL reflections. The weighted R-factor wR and
goodness of fit S are based on F^2^, conventional R-factors R are based
on F, with F set to zero for negative F^2^. The threshold expression of
F^2^ > 2sigma(F^2^) is used only for calculating R-factors(gt) etc. and is
not relevant to the choice of reflections for refinement. R-factors based
on F^2^ are statistically about twice as large as those based on F, and R-
factors based on ALL data will be even larger.
We have applied several restraints to limit the disorder of the
CIP ligands and solvent molecules.
;

_refine_ls_structure_factor_coef Fsqd
_refine_ls_matrix_type           full
_refine_ls_weighting_scheme      calc
_refine_ls_weighting_details     
'calc w=1/[\s^2^(Fo^2^)+(0.2000P)^2^+0.0000P] where P=(Fo^2^+2Fc^2^)/3'
_atom_sites_solution_primary     direct
_atom_sites_solution_secondary   difmap
_atom_sites_solution_hydrogens   geom
_refine_ls_hydrogen_treatment    constr
_refine_ls_extinction_method     none
_refine_ls_extinction_coef       ?
_refine_ls_number_reflns         11087
_refine_ls_number_parameters     739
_refine_ls_number_restraints     734
_refine_ls_R_factor_all          0.1183
_refine_ls_R_factor_gt           0.0920
_refine_ls_wR_factor_ref         0.3136
_refine_ls_wR_factor_gt          0.2796
_refine_ls_goodness_of_fit_ref   1.188
_refine_ls_restrained_S_all      1.170
_refine_ls_shift/su_max          0.001
_refine_ls_shift/su_mean         0.000

loop_
_atom_site_label
_atom_site_type_symbol
_atom_site_fract_x
_atom_site_fract_y
_atom_site_fract_z
_atom_site_U_iso_or_equiv
_atom_site_adp_type
_atom_site_occupancy
_atom_site_symmetry_multiplicity
_atom_site_calc_flag
_atom_site_refinement_flags
_atom_site_disorder_assembly
_atom_site_disorder_group
Cd1 Cd 0.209997(18) 0.39419(3) 0.30913(3) 0.0567(3) Uani 1 1 d U A .
Cd2 Cd 0.32140(2) 0.38197(4) 0.32400(4) 0.0636(3) Uani 1 1 d U A .
Cd3 Cd 0.32262(2) 0.44934(4) 0.46342(4) 0.0653(3) Uani 1 1 d U A .
C1 C 0.1211(6) 0.3909(10) 0.2459(8) 0.112(5) Uani 1 1 d DU . .
C2 C 0.0713(7) 0.3954(12) 0.2178(10) 0.065(5) Uani 0.50 1 d PDU A 1
C2A C 0.0739(8) 0.3680(14) 0.1918(11) 0.060(5) Uani 0.50 1 d PU A 2
C3 C 0.0506(7) 0.3385(13) 0.1811(11) 0.085(8) Uani 0.50 1 d PDU A 1
H3 H 0.0678 0.2995 0.1807 0.102 Uiso 0.50 1 calc PR A 1
C3A C 0.0578(8) 0.3488(16) 0.1186(19) 0.130(13) Uani 0.50 1 d PU A 2
H3A H 0.0765 0.3406 0.1010 0.156 Uiso 0.50 1 calc PR A 2
C4 C 0.0066(8) 0.3316(16) 0.1439(12) 0.092(11) Uani 0.50 1 d PDU A 1
H4 H -0.0063 0.2899 0.1189 0.110 Uiso 0.50 1 calc PR A 1
C4A C 0.0124(6) 0.3451(15) 0.0823(14) 0.097(9) Uani 0.50 1 d PU A 2
H4A H -0.0008 0.3428 0.0367 0.117 Uiso 0.50 1 calc PR A 2
C5 C -0.0190(6) 0.3936(10) 0.1458(9) 0.067(6) Uani 0.50 1 d PDU A 1
C5A C -0.0155(7) 0.3447(12) 0.1152(12) 0.064(6) Uani 0.50 1 d PU A 2
C6 C 0.0014(6) 0.4494(11) 0.1820(9) 0.092(8) Uani 0.50 1 d PDU A 1
H6 H -0.0147 0.4895 0.1836 0.110 Uiso 0.50 1 calc PR A 1
C6A C -0.0003(9) 0.359(2) 0.1747(13) 0.103(12) Uani 0.50 1 d PU A 2
H6A H -0.0195 0.3631 0.1922 0.124 Uiso 0.50 1 calc PR A 2
C7 C 0.0464(6) 0.4509(14) 0.2181(10) 0.081(7) Uani 0.50 1 d PDU A 1
H7 H 0.0599 0.4920 0.2436 0.097 Uiso 0.50 1 calc PR A 1
C7A C 0.0476(8) 0.370(2) 0.2190(13) 0.112(12) Uani 0.50 1 d PU A 2
H7A H 0.0586 0.3774 0.2638 0.135 Uiso 0.50 1 calc PR A 2
C8 C -0.0670(6) 0.3874(10) 0.1116(10) 0.065(5) Uani 0.50 1 d PDU A 1
C8A C -0.0641(7) 0.3311(13) 0.0746(10) 0.075(6) Uani 0.50 1 d PU A 2
C9 C 0.2854(2) 0.2910(4) 0.4104(4) 0.055(2) Uani 1 1 d U A .
C10 C 0.3028(2) 0.2311(4) 0.4610(4) 0.0489(19) Uani 1 1 d U . .
C11 C 0.3478(2) 0.2202(4) 0.4991(4) 0.0502(19) Uani 1 1 d U . .
H11 H 0.3669 0.2493 0.4911 0.060 Uiso 1 1 calc R . .
C12 C -0.1348(3) 0.3312(5) 0.0477(5) 0.061(2) Uani 1 1 d U . .
C13 C -0.1642(3) 0.3724(4) 0.0612(4) 0.052(2) Uani 1 1 d U . .
H13 H -0.1535 0.4058 0.0958 0.062 Uiso 1 1 calc R . .
C14 C 0.2090(3) 0.3627(4) 0.4773(4) 0.0518(19) Uani 1 1 d U . .
C15 C 0.2744(2) 0.1879(4) 0.4734(4) 0.049(2) Uani 1 1 d U . .
H15 H 0.2441 0.1935 0.4482 0.059 Uiso 1 1 calc R . .
C16 C 0.2395(3) 0.4080(5) 0.4607(6) 0.063(2) Uani 1 1 d U A .
C17 C 0.4041(4) 0.4125(9) 0.4362(9) 0.111(5) Uani 1 1 d U A .
C18 C 0.4520(4) 0.4025(6) 0.4850(6) 0.089(4) Uani 1 1 d U . .
C19 C 0.4770(5) 0.3447(10) 0.4754(9) 0.158(8) Uani 1 1 d U . .
H19 H 0.4638 0.3151 0.4383 0.190 Uiso 1 1 calc R . .
C20 C 0.5185(5) 0.3336(10) 0.5191(13) 0.198(12) Uani 1 1 d U . .
H20 H 0.5339 0.2941 0.5146 0.237 Uiso 1 1 calc R . .
C21 C 0.0383(3) 0.1198(5) 0.0702(6) 0.080(3) Uani 1 1 d U . .
C22 C 0.5151(4) 0.4363(8) 0.5784(7) 0.099(4) Uani 1 1 d U . .
H22 H 0.5285 0.4674 0.6144 0.119 Uiso 1 1 calc R . .
C23 C 0.4731(4) 0.4459(7) 0.5343(8) 0.108(5) Uani 1 1 d U . .
H23 H 0.4583 0.4859 0.5393 0.129 Uiso 1 1 calc R . .
C24 C 0.0857(3) 0.1243(6) 0.1131(8) 0.112(6) Uani 1 1 d U . .
C25 C 0.2575(3) 0.5206(4) 0.3140(4) 0.055(2) Uani 1 1 d U A .
C26 C 0.2795(3) 0.5922(5) 0.3142(4) 0.053(2) Uani 1 1 d U . .
C27 C 0.2527(3) 0.6533(4) 0.2842(4) 0.057(2) Uani 1 1 d U . .
H27 H 0.2223 0.6486 0.2622 0.068 Uiso 1 1 calc R . .
C28 C 0.2276(3) 0.2216(4) 0.2121(5) 0.062(2) Uani 1 1 d U . .
C29 C 0.1816(3) 0.2279(5) 0.1807(5) 0.071(3) Uani 1 1 d U . .
H29 H 0.1686 0.2731 0.1792 0.085 Uiso 1 1 calc R . .
C30 C 0.1557(3) 0.1678(5) 0.1521(5) 0.076(3) Uani 1 1 d U . .
C31 C 0.3241(3) 0.5996(5) 0.3442(5) 0.074(3) Uani 1 1 d U . .
H31 H 0.3416 0.5586 0.3627 0.089 Uiso 1 1 calc R . .
C32 C 0.2563(3) 0.2874(4) 0.2444(5) 0.061(2) Uani 1 1 d U A .
C33 C 0.2779(4) 0.4734(11) 0.2031(11) 0.197(11) Uani 1 1 d DU A .
C34 C 0.2128(6) 0.5562(15) 0.1306(10) 0.193(9) Uani 1 1 d DU . .
H34A H 0.2084 0.6038 0.1106 0.289 Uiso 1 1 calc R . .
H34B H 0.2004 0.5553 0.1598 0.289 Uiso 1 1 calc R . .
H34C H 0.1988 0.5197 0.0970 0.289 Uiso 1 1 calc R . .
C35 C 0.2958(7) 0.5838(14) 0.1707(11) 0.194(10) Uani 1 1 d DU . .
H35A H 0.2849 0.6288 0.1469 0.290 Uiso 1 1 calc R . .
H35B H 0.3107 0.5564 0.1518 0.290 Uiso 1 1 calc R . .
H35C H 0.3160 0.5947 0.2159 0.290 Uiso 1 1 calc R . .
C36 C 0.3684(4) 0.3648(7) 0.5916(5) 0.110(4) Uani 1 1 d DU A .
C37 C 0.4466(3) 0.3426(14) 0.6766(9) 0.173(8) Uani 1 1 d DU . .
H37A H 0.4630 0.3154 0.7165 0.260 Uiso 1 1 calc R . .
H37B H 0.4533 0.3939 0.6850 0.260 Uiso 1 1 calc R . .
H37C H 0.4545 0.3262 0.6441 0.260 Uiso 1 1 calc R . .
C38 C 0.3866(5) 0.2815(8) 0.6887(7) 0.127(5) Uani 1 1 d DU . .
H38A H 0.4121 0.2637 0.7269 0.190 Uiso 1 1 calc R . .
H38B H 0.3709 0.2409 0.6611 0.190 Uiso 1 1 calc R . .
H38C H 0.3679 0.3071 0.7020 0.190 Uiso 1 1 calc R . .
C39 C 0.3646(4) 0.5983(7) 0.5181(11) 0.155(7) Uani 1 1 d DU A .
C40 C 0.3243(9) 0.7129(16) 0.4899(18) 0.299(18) Uani 1 1 d DU . .
H40A H 0.3279 0.7650 0.4966 0.448 Uiso 1 1 calc R . .
H40B H 0.3062 0.6947 0.5078 0.448 Uiso 1 1 calc R . .
H40C H 0.3107 0.7024 0.4438 0.448 Uiso 1 1 calc R . .
C41 C 0.4086(10) 0.706(2) 0.5734(19) 0.37(2) Uani 1 1 d DU . .
H41A H 0.4068 0.7587 0.5753 0.551 Uiso 1 1 calc R . .
H41B H 0.4316 0.6933 0.5633 0.551 Uiso 1 1 calc R . .
H41C H 0.4149 0.6856 0.6151 0.551 Uiso 1 1 calc R . .
C42 C 0.4104(5) 0.4092(8) 0.2578(7) 0.154(9) Uani 0.50 1 d PDU . .
H42 H 0.3989 0.4280 0.2862 0.185 Uiso 0.50 1 calc PR . .
C43 C 0.1682(5) 0.5768(7) 0.3575(7) 0.153(8) Uani 0.50 1 d PDU . .
H43 H 0.1720 0.5308 0.3389 0.184 Uiso 0.50 1 calc PR . .
Cl1 Cl 0.3990(5) 0.4680(7) 0.1890(7) 0.184(5) Uani 0.50 1 d PDU . .
Cl2 Cl 0.4688(5) 0.3949(8) 0.3001(7) 0.183(4) Uani 0.50 1 d PDU . .
Cl3 Cl 0.3853(7) 0.3246(8) 0.2173(9) 0.243(8) Uani 0.50 1 d PDU . .
Cl4 Cl 0.2143(5) 0.6356(7) 0.4057(7) 0.203(5) Uani 0.50 1 d PDU . .
Cl5 Cl 0.1527(6) 0.6603(7) 0.3100(10) 0.232(6) Uani 0.50 1 d PDU . .
Cl6 Cl 0.1430(5) 0.5783(4) 0.4099(7) 0.184(5) Uani 0.50 1 d PDU . .
N1 N -0.0894(3) 0.3396(5) 0.0879(4) 0.076(2) Uani 1 1 d U . .
N2 N 0.1111(4) 0.1754(6) 0.1116(7) 0.067(4) Uani 0.70 1 d PU . .
N2A N 0.1049(10) 0.1624(18) 0.1393(14) 0.053(8) Uani 0.30 1 d PU . .
N3 N 0.2595(6) 0.5409(9) 0.1672(10) 0.185(7) Uani 1 1 d DU . .
N4 N 0.4001(3) 0.3312(6) 0.6526(5) 0.117(4) Uani 1 1 d DU . .
N5 N 0.3671(7) 0.6776(7) 0.5228(10) 0.190(8) Uani 1 1 d DU . .
O1 O 0.1461(6) 0.3871(10) 0.2020(10) 0.107(6) Uani 0.50 1 d PU A .
O1A O 0.1416(5) 0.3458(10) 0.2459(9) 0.068(4) Uani 0.50 1 d PU A .
O2 O 0.1352(5) 0.4564(9) 0.2822(8) 0.102(4) Uani 0.60 1 d PU A .
O2A O 0.1426(7) 0.3493(13) 0.2765(11) 0.076(6) Uani 0.40 1 d PU A .
O3 O 0.24502(17) 0.2933(3) 0.3736(3) 0.0611(16) Uani 1 1 d U . .
O4 O 0.31396(19) 0.3358(3) 0.4110(3) 0.0643(17) Uani 1 1 d U . .
O5 O 0.2250(2) 0.4444(3) 0.4085(3) 0.0639(16) Uani 1 1 d U . .
O6 O 0.27931(19) 0.4046(3) 0.5023(4) 0.0702(18) Uani 1 1 d U . .
O7 O 0.3808(2) 0.4559(4) 0.4408(5) 0.092(3) Uani 1 1 d U . .
O8 O 0.3899(3) 0.3749(7) 0.3803(6) 0.127(4) Uani 1 1 d U . .
O9 O 0.21806(17) 0.5122(3) 0.2794(3) 0.0646(17) Uani 1 1 d U . .
O10 O 0.28253(17) 0.4689(3) 0.3499(3) 0.0562(15) Uani 1 1 d U . .
O11 O 0.2393(2) 0.3467(3) 0.2444(3) 0.0663(17) Uani 1 1 d U . .
O12 O 0.2971(2) 0.2776(3) 0.2719(4) 0.0727(19) Uani 1 1 d U . .
O13 O 0.3159(3) 0.4573(5) 0.2463(5) 0.109(3) Uani 1 1 d DU . .
O14 O 0.3791(3) 0.4095(5) 0.5606(5) 0.115(3) Uani 1 1 d DU . .
O15 O 0.3283(3) 0.5668(4) 0.4884(5) 0.100(3) Uani 1 1 d DU . .

loop_
_atom_site_aniso_label
_atom_site_aniso_U_11
_atom_site_aniso_U_22
_atom_site_aniso_U_33
_atom_site_aniso_U_23
_atom_site_aniso_U_13
_atom_site_aniso_U_12
Cd1 0.0224(4) 0.0390(4) 0.0789(5) 0.0063(3) -0.0002(3) -0.0020(2)
Cd2 0.0400(4) 0.0405(4) 0.0898(6) -0.0079(3) 0.0143(4) -0.0098(3)
Cd3 0.0430(4) 0.0444(4) 0.0836(5) -0.0046(3) 0.0100(4) -0.0124(3)
C1 0.104(6) 0.107(6) 0.121(6) 0.021(4) 0.051(4) -0.009(4)
C2 0.042(12) 0.072(14) 0.070(13) -0.013(11) 0.018(11) -0.019(10)
C2A 0.055(7) 0.059(7) 0.060(7) 0.004(4) 0.022(5) -0.003(5)
C3 0.040(13) 0.070(15) 0.100(19) 0.035(13) -0.002(13) 0.007(11)
C3A 0.045(13) 0.10(2) 0.20(3) -0.09(2) 0.021(17) -0.018(12)
C4 0.031(13) 0.14(3) 0.079(19) 0.020(18) 0.008(13) -0.045(15)
C4A 0.034(10) 0.11(2) 0.13(2) -0.068(17) 0.027(12) -0.020(11)
C5 0.044(11) 0.048(11) 0.079(14) 0.031(10) 0.005(10) 0.020(8)
C5A 0.036(12) 0.057(12) 0.086(15) -0.037(11) 0.017(11) -0.006(9)
C6 0.038(10) 0.064(14) 0.126(18) -0.033(12) 0.001(12) -0.023(9)
C6A 0.057(15) 0.20(4) 0.067(17) 0.009(19) 0.042(14) -0.038(18)
C7 0.023(9) 0.093(17) 0.102(16) 0.014(12) 0.009(10) 0.010(9)
C7A 0.035(13) 0.20(4) 0.064(14) -0.044(19) -0.008(12) -0.027(18)
C8 0.046(11) 0.047(10) 0.086(13) -0.021(9) 0.020(10) -0.007(8)
C8A 0.038(11) 0.087(15) 0.072(12) -0.042(11) 0.003(10) -0.002(10)
C9 0.030(4) 0.032(4) 0.073(5) 0.001(4) 0.001(4) 0.007(3)
C10 0.031(4) 0.039(4) 0.054(4) -0.001(3) 0.002(4) 0.000(3)
C11 0.033(4) 0.043(4) 0.059(5) 0.002(3) 0.009(4) 0.003(3)
C12 0.026(4) 0.046(5) 0.083(6) -0.009(4) 0.004(4) -0.010(3)
C13 0.035(4) 0.034(4) 0.062(5) -0.007(3) 0.003(4) -0.006(3)
C14 0.043(5) 0.032(4) 0.072(5) -0.001(4) 0.021(4) 0.003(3)
C15 0.024(4) 0.031(4) 0.066(5) -0.009(3) 0.000(3) 0.001(3)
C16 0.052(6) 0.033(4) 0.107(8) -0.011(5) 0.040(6) -0.003(4)
C17 0.046(7) 0.092(10) 0.154(13) 0.050(9) 0.014(8) -0.013(7)
C18 0.048(6) 0.060(6) 0.094(7) 0.004(5) -0.019(6) 0.006(5)
C19 0.078(10) 0.117(13) 0.154(13) -0.018(11) -0.046(10) 0.016(9)
C20 0.044(7) 0.109(13) 0.32(3) -0.055(16) -0.007(12) 0.024(8)
C21 0.040(5) 0.036(5) 0.135(9) -0.011(5) 0.017(6) 0.004(4)
C22 0.048(6) 0.111(11) 0.110(9) -0.013(8) 0.015(7) -0.018(7)
C23 0.061(8) 0.075(8) 0.155(12) 0.001(8) 0.025(8) 0.004(6)
C24 0.037(5) 0.054(6) 0.190(14) -0.045(8) 0.009(7) -0.004(5)
C25 0.037(4) 0.031(4) 0.077(5) 0.000(4) 0.012(4) -0.005(3)
C26 0.029(4) 0.039(4) 0.071(5) 0.005(4) 0.007(4) -0.002(3)
C27 0.027(4) 0.035(4) 0.078(5) 0.008(4) 0.000(4) 0.005(3)
C28 0.036(4) 0.026(4) 0.091(6) -0.011(4) 0.003(4) -0.008(3)
C29 0.040(5) 0.033(4) 0.100(7) -0.014(4) 0.001(5) 0.010(3)
C30 0.027(4) 0.045(5) 0.107(7) -0.022(5) -0.007(5) -0.002(4)
C31 0.047(5) 0.032(4) 0.101(7) 0.007(4) 0.000(5) 0.006(4)
C32 0.055(6) 0.030(4) 0.078(6) -0.012(4) 0.014(5) -0.011(4)
C33 0.152(14) 0.183(17) 0.175(17) 0.076(15) 0.011(13) -0.041(12)
C34 0.229(14) 0.22(2) 0.