####################################################################### 
# 
# This file contains crystal structure data downloaded from the 
# Cambridge Structural Database (CSD) hosted by the Cambridge 
# Crystallographic Data Centre (CCDC).
# 
# Full information about CCDC data access policies and citation 
# guidelines are available at http://www.ccdc.cam.ac.uk/access/V1 
# 
# Audit and citation data items may have been added by the CCDC. 
# Please retain this information to preserve the provenance of 
# this file and to allow appropriate attribution of the data. 
# 
#######################################################################

data_UCY-3-toluene
_audit_block_doi                 10.5517/ccypvk0
_database_code_depnum_ccdc_archive 'CCDC 884943'
loop_
_citation_id
_citation_doi
_citation_year
1 10.1039/c2ce25913c 2012
_audit_update_record             
;
2012-06-01 deposited with the CCDC.	2024-07-12 downloaded from the CCDC.
;
#TrackingRef 'UCY-3-toluene.cif'


_audit_creation_method           SHELXL-97
_chemical_name_systematic        
;
?
;
_chemical_name_common            ?
_chemical_melting_point          ?
_chemical_formula_moiety         'C41 H34 Cd3 N5 O15, C7 H8, 8(H2 O)'
_chemical_formula_sum            'C48 H58 Cd3 N5 O23'
_chemical_formula_weight         1410.19

loop_
_atom_type_symbol
_atom_type_description
_atom_type_scat_dispersion_real
_atom_type_scat_dispersion_imag
_atom_type_scat_source
C C 0.0181 0.0091 'International Tables Vol C Tables 4.2.6.8 and 6.1.1.4'
H H 0.0000 0.0000 'International Tables Vol C Tables 4.2.6.8 and 6.1.1.4'
N N 0.0311 0.0180 'International Tables Vol C Tables 4.2.6.8 and 6.1.1.4'
O O 0.0492 0.0322 'International Tables Vol C Tables 4.2.6.8 and 6.1.1.4'
Cd Cd 0.1185 4.6533 'International Tables Vol C Tables 4.2.6.8 and 6.1.1.4'

_symmetry_cell_setting           Monoclinic
_symmetry_space_group_name_H-M   'C 2/c'

loop_
_symmetry_equiv_pos_as_xyz
'x, y, z'
'-x, y, -z+1/2'
'x+1/2, y+1/2, z'
'-x+1/2, y+1/2, -z+1/2'
'-x, -y, -z'
'x, -y, z-1/2'
'-x+1/2, -y+1/2, -z'
'x+1/2, -y+1/2, z-1/2'

_cell_length_a                   34.799(2)
_cell_length_b                   18.4666(11)
_cell_length_c                   23.031(2)
_cell_angle_alpha                90.0
_cell_angle_beta                 118.787(10)
_cell_angle_gamma                90.0
_cell_volume                     12971(2)
_cell_formula_units_Z            8
_cell_measurement_temperature    100(2)
_cell_measurement_reflns_used    7267
_cell_measurement_theta_min      3.9571
_cell_measurement_theta_max      66.9973

_exptl_crystal_description       polyhedral
_exptl_crystal_colour            'light brown'
_exptl_crystal_size_max          0.12
_exptl_crystal_size_mid          0.08
_exptl_crystal_size_min          0.06
_exptl_crystal_density_meas      ?
_exptl_crystal_density_diffrn    1.448
_exptl_crystal_density_method    'not measured'
_exptl_crystal_F_000             5672
_exptl_absorpt_coefficient_mu    8.453
_exptl_absorpt_correction_type   multi-scan
_exptl_absorpt_correction_T_min  0.57263
_exptl_absorpt_correction_T_max  1.00000
_exptl_absorpt_process_details   
'Empirical absorption correction (CrysAlis RED, Oxford Diffraction)'

_exptl_special_details           
;
?
;

_diffrn_ambient_temperature      100(2)
_diffrn_radiation_wavelength     1.54184
_diffrn_radiation_type           CuK\a
_diffrn_radiation_source         'SuperNova (Cu) X-ray Source'
_diffrn_radiation_monochromator  mirror
_diffrn_measurement_device_type  'SuperNova, Dual, Cu at zero, Atlas'
_diffrn_measurement_method       '\w scans'
_diffrn_detector_area_resol_mean 10.4223
_diffrn_standards_number         ?
_diffrn_standards_interval_count ?
_diffrn_standards_interval_time  ?
_diffrn_standards_decay_%        ?
_diffrn_reflns_number            24341
_diffrn_reflns_av_R_equivalents  0.0287
_diffrn_reflns_av_sigmaI/netI    0.0365
_diffrn_reflns_limit_h_min       -41
_diffrn_reflns_limit_h_max       41
_diffrn_reflns_limit_k_min       -22
_diffrn_reflns_limit_k_max       21
_diffrn_reflns_limit_l_min       -26
_diffrn_reflns_limit_l_max       27
_diffrn_reflns_theta_min         3.96
_diffrn_reflns_theta_max         66.99
_reflns_number_total             11504
_reflns_number_gt                9591
_reflns_threshold_expression     >2sigma(I)

_computing_data_collection       'CrysAlis CCD'
_computing_cell_refinement       'CrysAlis RED'
_computing_data_reduction        'CrysAlis RED'
_computing_structure_solution    'SHELXL-97 (Sheldrick, 1997)'
_computing_structure_refinement  'SHELXL-97 (Sheldrick, 1997)'
_computing_molecular_graphics    
;
DIAMOND (Brandenburg, 2006)
MERCURY (Bruno et al. 2002)
;

_computing_publication_material  'WINGX (Farrugia, 1999)'

_refine_special_details          
;
Refinement of F^2^ against ALL reflections. The weighted R-factor wR and
goodness of fit S are based on F^2^, conventional R-factors R are based
on F, with F set to zero for negative F^2^. The threshold expression of
F^2^ > 2sigma(F^2^) is used only for calculating R-factors(gt) etc. and is
not relevant to the choice of reflections for refinement. R-factors based
on F^2^ are statistically about twice as large as those based on F, and R-
factors based on ALL data will be even larger.
We have applied several restraints to limit the disorder of the
CIP ligands and solvent molecules.
;
_refine_ls_structure_factor_coef Fsqd
_refine_ls_matrix_type           full
_refine_ls_weighting_scheme      calc
_refine_ls_weighting_details     
'calc w=1/[\s^2^(Fo^2^)+(0.1712P)^2^+0.0000P] where P=(Fo^2^+2Fc^2^)/3'
_atom_sites_solution_primary     direct
_atom_sites_solution_secondary   difmap
_atom_sites_solution_hydrogens   geom
_refine_ls_hydrogen_treatment    constr
_refine_ls_extinction_method     none
_refine_ls_extinction_coef       ?
_refine_ls_number_reflns         11504
_refine_ls_number_parameters     658
_refine_ls_number_restraints     217
_refine_ls_R_factor_all          0.0783
_refine_ls_R_factor_gt           0.0724
_refine_ls_wR_factor_ref         0.2207
_refine_ls_wR_factor_gt          0.2118
_refine_ls_goodness_of_fit_ref   1.069
_refine_ls_restrained_S_all      1.086
_refine_ls_shift/su_max          0.002
_refine_ls_shift/su_mean         0.000

loop_
_atom_site_label
_atom_site_type_symbol
_atom_site_fract_x
_atom_site_fract_y
_atom_site_fract_z
_atom_site_U_iso_or_equiv
_atom_site_adp_type
_atom_site_occupancy
_atom_site_symmetry_multiplicity
_atom_site_calc_flag
_atom_site_refinement_flags
_atom_site_disorder_assembly
_atom_site_disorder_group
Cd1 Cd 0.789832(11) 0.11058(2) 0.69427(2) 0.04269(17) Uani 1 1 d . . .
Cd2 Cd 0.676409(12) 0.05463(2) 0.53547(2) 0.04704(17) Uani 1 1 d . . .
Cd3 Cd 0.679179(12) 0.12196(2) 0.67781(2) 0.04670(17) Uani 1 1 d . . .
O1A O 0.85405(18) 0.1165(3) 0.8082(3) 0.0529(13) Uani 0.80 1 d PU . .
O1B O 0.8544(13) 0.158(2) 0.7599(18) 0.088(9) Uani 0.20 1 d PU . .
O2A O 0.86042(19) 0.1280(4) 0.7190(3) 0.0605(15) Uani 0.80 1 d PU . .
O2B O 0.8634(14) 0.064(2) 0.7156(19) 0.091(10) Uani 0.20 1 d PU . .
O3 O 0.71991(14) 0.0972(3) 0.4978(2) 0.0513(10) Uani 1 1 d . . .
O4 O 0.77523(15) 0.0591(2) 0.5943(2) 0.0516(10) Uani 1 1 d . . .
O5 O 0.68647(13) 0.1667(2) 0.5894(2) 0.0490(10) Uani 1 1 d . . .
O6 O 0.75518(13) 0.2088(2) 0.6281(2) 0.0470(9) Uani 1 1 d . . .
O7 O 0.60887(17) 0.1305(4) 0.6137(3) 0.0716(15) Uani 1 1 d . . .
O8 O 0.61825(14) 0.0439(3) 0.5565(3) 0.0618(13) Uani 1 1 d . . .
O9 O 0.71723(12) 0.0351(2) 0.6517(2) 0.0450(9) Uani 1 1 d . . .
O10 O 0.78295(14) -0.0075(2) 0.7211(2) 0.0544(11) Uani 1 1 d . . .
O11 O 0.69959(14) 0.2330(2) 0.7242(3) 0.0584(12) Uani 1 1 d . . .
O12 O 0.75667(14) 0.1607(2) 0.7524(2) 0.0489(10) Uani 1 1 d . . .
O13 O 0.62089(15) 0.0983(3) 0.4379(2) 0.0615(12) Uani 1 1 d DU . .
O14 O 0.6719(2) -0.0619(3) 0.5097(3) 0.0758(15) Uani 1 1 d DU . .
O15 O 0.68525(17) 0.0464(3) 0.7575(3) 0.0686(13) Uani 1 1 d DU . .
N1 N 1.08977(16) 0.1538(3) 0.9108(3) 0.0523(13) Uani 1 1 d . . .
N2 N 0.61227(16) -0.1700(3) 0.6196(3) 0.0562(14) Uani 1 1 d . . .
N3 N 0.5990(2) 0.1745(4) 0.3474(3) 0.0762(18) Uani 1 1 d DU . .
N4 N 0.6393(4) -0.1769(6) 0.4879(6) 0.120(3) Uani 1 1 d DU . .
N5 N 0.7341(2) -0.0391(4) 0.8330(4) 0.0777(18) Uani 1 1 d DU . .
C1 C 0.8768(2) 0.1234(4) 0.7786(5) 0.067(2) Uani 1 1 d . . .
C2 C 0.9260(2) 0.1313(4) 0.8218(4) 0.0612(18) Uani 1 1 d . . .
C3 C 0.9448(3) 0.1444(5) 0.8885(5) 0.073(2) Uani 1 1 d . . .
H3 H 0.9271 0.1484 0.9084 0.087 Uiso 1 1 calc R . .
C4 C 0.9904(3) 0.1520(5) 0.9273(4) 0.071(2) Uani 1 1 d . . .
H4 H 1.0031 0.1594 0.9729 0.085 Uiso 1 1 calc R . .
C5 C 1.0164(2) 0.1481(4) 0.8962(4) 0.0589(16) Uani 1 1 d . . .
C6 C 0.9971(2) 0.1308(5) 0.8290(4) 0.0633(18) Uani 1 1 d . . .
H6 H 1.0146 0.1236 0.8091 0.076 Uiso 1 1 calc R . .
C7 C 0.9523(2) 0.1244(5) 0.7921(4) 0.0632(18) Uani 1 1 d . . .
H7 H 0.9395 0.1153 0.7467 0.076 Uiso 1 1 calc R . .
C8 C 1.0642(2) 0.1567(4) 0.9370(4) 0.0590(17) Uani 1 1 d . . .
C9 C 0.76076(19) 0.0945(3) 0.5412(3) 0.0477(14) Uani 1 1 d . . .
C10 C 0.79099(18) 0.1375(3) 0.5257(3) 0.0412(12) Uani 1 1 d . . .
C11 C 0.77470(16) 0.1886(3) 0.4751(3) 0.0409(12) Uani 1 1 d . . .
H11 H 0.7446 0.1956 0.4501 0.049 Uiso 1 1 calc R . .
C12 C 0.80301(17) 0.2295(3) 0.4617(3) 0.0420(12) Uani 1 1 d . . .
C13 C 0.84831(19) 0.2182(3) 0.4983(3) 0.0448(12) Uani 1 1 d . . .
H13 H 0.8673 0.2453 0.4893 0.054 Uiso 1 1 calc R . .
C14 C 0.86470(18) 0.1668(3) 0.5479(3) 0.0466(13) Uani 1 1 d . . .
C15 C 0.83647(19) 0.1277(3) 0.5634(3) 0.0447(12) Uani 1 1 d . . .
H15 H 0.8478 0.0952 0.5987 0.054 Uiso 1 1 calc R . .
C16 C 0.71469(17) 0.2114(3) 0.5897(3) 0.0425(12) Uani 1 1 d . . .
C17 C 0.5946(2) 0.0912(4) 0.5631(4) 0.0594(17) Uani 1 1 d . . .
C18 C 0.5480(2) 0.1006(4) 0.5110(4) 0.0540(16) Uani 1 1 d . . .
C19 C 0.5278(3) 0.0512(5) 0.4621(5) 0.069(2) Uani 1 1 d . . .
H19 H 0.5436 0.0121 0.4589 0.083 Uiso 1 1 calc R . .
C20 C 0.4835(2) 0.0586(5) 0.4167(4) 0.067(2) Uani 1 1 d . . .
H20 H 0.4699 0.0245 0.3831 0.080 Uiso 1 1 calc R . .
C21 C 0.4596(2) 0.1158(4) 0.4209(4) 0.0590(18) Uani 1 1 d . . .
C22 C 0.4806(3) 0.1666(4) 0.4694(6) 0.084(3) Uani 1 1 d . . .
H22 H 0.4653 0.2064 0.4722 0.101 Uiso 1 1 calc R . .
C23 C 0.5241(3) 0.1588(5) 0.5136(6) 0.090(3) Uani 1 1 d . . .
H23 H 0.5379 0.1937 0.5463 0.108 Uiso 1 1 calc R . .
C24 C 0.5885(2) -0.1183(4) 0.6237(4) 0.0574(17) Uani 1 1 d . . .
C25 C 0.74322(19) -0.0169(3) 0.6862(3) 0.0479(14) Uani 1 1 d . . .
C26 C 0.72245(19) -0.0877(3) 0.6858(3) 0.0458(13) Uani 1 1 d . . .
C27 C 0.74938(17) -0.1478(3) 0.7164(3) 0.0434(12) Uani 1 1 d . . .
H27 H 0.7797 -0.1432 0.7371 0.052 Uiso 1 1 calc R . .
C28 C 0.73005(18) -0.2148(3) 0.7154(3) 0.0436(12) Uani 1 1 d . . .
C29 C 0.68462(19) -0.2226(3) 0.6839(3) 0.0466(13) Uani 1 1 d . . .
H29 H 0.6719 -0.2673 0.6827 0.056 Uiso 1 1 calc R . .
C30 C 0.65820(19) -0.1613(3) 0.6539(3) 0.0491(14) Uani 1 1 d . . .
C31 C 0.67749(19) -0.0951(3) 0.6551(3) 0.0486(14) Uani 1 1 d . . .
H31 H 0.6598 -0.0551 0.6349 0.058 Uiso 1 1 calc R . .
C32 C 0.74017(18) 0.2220(3) 0.7514(3) 0.0441(12) Uani 1 1 d . . .
C33 C 0.6311(2) 0.1404(4) 0.4057(3) 0.0645(17) Uani 1 1 d DU . .
C34 C 0.5527(3) 0.1653(7) 0.3250(6) 0.104(3) Uani 1 1 d DU . .
H34A H 0.5361 0.1929 0.2851 0.157 Uiso 1 1 calc R . .
H34B H 0.5461 0.1819 0.3587 0.157 Uiso 1 1 calc R . .
H34C H 0.5452 0.1150 0.3161 0.157 Uiso 1 1 calc R . .
C35 C 0.6129(4) 0.2250(6) 0.3131(5) 0.092(3) Uani 1 1 d DU . .
H35A H 0.5876 0.2443 0.2752 0.139 Uiso 1 1 calc R . .
H35B H 0.6312 0.2005 0.2987 0.139 Uiso 1 1 calc R . .
H35C H 0.6291 0.2638 0.3425 0.139 Uiso 1 1 calc R . .
C36 C 0.6379(3) -0.0989(6) 0.4927(7) 0.113(3) Uani 1 1 d DU . .
C37 C 0.5986(5) -0.2147(11) 0.4695(10) 0.154(5) Uani 1 1 d DU . .
H37A H 0.6029 -0.2658 0.4673 0.231 Uiso 1 1 calc R . .
H37B H 0.5764 -0.1979 0.4270 0.231 Uiso 1 1 calc R . .
H37C H 0.5894 -0.2056 0.5022 0.231 Uiso 1 1 calc R . .
C38 C 0.6828(5) -0.2080(12) 0.5132(10) 0.165(5) Uani 1 1 d DU . .
H38A H 0.7034 -0.1704 0.5190 0.248 Uiso 1 1 calc R . .
H38B H 0.6825 -0.2432 0.4823 0.248 Uiso 1 1 calc R . .
H38C H 0.6912 -0.2310 0.5551 0.248 Uiso 1 1 calc R . .
C39 C 0.7236(2) 0.0260(4) 0.7945(4) 0.075(2) Uani 1 1 d DU . .
C40 C 0.6990(3) -0.0817(6) 0.8317(6) 0.095(3) Uani 1 1 d DU . .
H40A H 0.7110 -0.1228 0.8604 0.143 Uiso 1 1 calc R . .
H40B H 0.6801 -0.0980 0.7872 0.143 Uiso 1 1 calc R . .
H40C H 0.6824 -0.0527 0.8465 0.143 Uiso 1 1 calc R . .
C41 C 0.7802(3) -0.0581(6) 0.8708(5) 0.088(3) Uani 1 1 d DU . .
H41A H 0.7833 -0.1019 0.8952 0.132 Uiso 1 1 calc R . .
H41B H 0.7959 -0.0197 0.9012 0.132 Uiso 1 1 calc R . .
H41C H 0.7920 -0.0653 0.8411 0.132 Uiso 1 1 calc R . .
C42 C 0.9513(5) 0.9410(8) 0.9052(6) 0.131(4) Uani 1 1 d DU . .
H42 H 0.9412 0.9851 0.9124 0.157 Uiso 1 1 calc R . .
C43 C 0.9948(5) 0.9369(9) 0.9193(6) 0.143(4) Uani 1 1 d DU . .
H43 H 1.0133 0.9769 0.9353 0.171 Uiso 1 1 calc R . .
C44 C 1.0101(6) 0.8712(8) 0.9087(6) 0.139(4) Uani 1 1 d DU . .
H44 H 1.0389 0.8652 0.9173 0.167 Uiso 1 1 calc R . .
C45 C 0.9797(5) 0.8151(10) 0.8846(6) 0.144(4) Uani 1 1 d DU . .
H45 H 0.9897 0.7711 0.8773 0.173 Uiso 1 1 calc R . .
C46 C 0.9361(5) 0.8178(8) 0.8703(6) 0.127(4) Uani 1 1 d DU . .
H46 H 0.9176 0.7779 0.8543 0.152 Uiso 1 1 calc R . .
C47 C 0.9218(5) 0.8839(7) 0.8812(6) 0.124(4) Uani 1 1 d DU . .
C48 C 0.8752(5) 0.8897(11) 0.8672(9) 0.144(5) Uani 1 1 d DU . .
H48A H 0.8696 0.9380 0.8767 0.217 Uiso 1 1 calc R . .
H48B H 0.8701 0.8560 0.8946 0.217 Uiso 1 1 calc R . .
H48C H 0.8559 0.8789 0.8213 0.217 Uiso 1 1 calc R . .

loop_
_atom_site_aniso_label
_atom_site_aniso_U_11
_atom_site_aniso_U_22
_atom_site_aniso_U_33
_atom_site_aniso_U_23
_atom_site_aniso_U_13
_atom_site_aniso_U_12
Cd1 0.0157(2) 0.0286(2) 0.0625(3) 0.00391(15) 0.00175(18) -0.00157(12)
Cd2 0.0222(2) 0.0329(3) 0.0657(3) 0.00248(16) 0.00490(19) -0.00449(14)
Cd3 0.0216(2) 0.0315(2) 0.0672(3) -0.00120(16) 0.00561(19) -0.00485(13)
O1A 0.028(2) 0.051(3) 0.074(3) -0.011(2) 0.020(2) -0.006(2)
O1B 0.082(10) 0.086(10) 0.088(10) -0.003(5) 0.037(6) 0.000(5)
O2A 0.030(2) 0.069(3) 0.069(3) 0.005(3) 0.013(2) -0.008(2)
O2B 0.089(11) 0.093(11) 0.092(10) -0.002(5) 0.043(6) 0.001(5)
O3 0.023(2) 0.047(2) 0.069(3) 0.001(2) 0.0095(18) -0.0063(17)
O4 0.041(2) 0.036(2) 0.068(3) 0.0065(19) 0.018(2) -0.0011(17)
O5 0.0215(18) 0.0325(19) 0.066(2) 0.0071(18) -0.0002(16) -0.0014(15)
O6 0.0221(18) 0.034(2) 0.063(2) 0.0053(17) 0.0029(16) -0.0004(15)
O7 0.031(2) 0.082(4) 0.083(3) 0.000(3) 0.013(2) -0.001(2)
O8 0.024(2) 0.055(3) 0.092(3) 0.023(3) 0.017(2) 0.0067(19)
O9 0.0211(17) 0.0266(18) 0.070(2) 0.0033(17) 0.0080(16) 0.0017(14)
O10 0.024(2) 0.032(2) 0.079(3) 0.0083(19) 0.0028(18) -0.0047(16)
O11 0.028(2) 0.036(2) 0.087(3) -0.011(2) 0.008(2) -0.0044(17)
O12 0.031(2) 0.032(2) 0.063(2) -0.0027(17) 0.0058(17) -0.0026(16)
O13 0.033(2) 0.058(3) 0.069(2) 0.005(2) 0.0054(18) -0.0008(19)
O14 0.079(3) 0.051(3) 0.083(3) -0.007(2) 0.028(3) -0.006(2)
O15 0.061(3) 0.061(3) 0.077(3) 0.005(2) 0.028(2) -0.006(2)
N1 0.021(2) 0.049(3) 0.067(3) -0.005(2) 0.006(2) -0.005(2)
N2 0.019(2) 0.032(3) 0.087(4) 0.010(2) 0.002(2) -0.0040(19)
N3 0.066(3) 0.065(3) 0.071(3) 0.012(3) 0.012(3) 0.009(3)
N4 0.127(5) 0.110(5) 0.123(5) -0.006(4) 0.058(4) -0.019(4)
N5 0.077(4) 0.069(3) 0.082(3) 0.008(3) 0.034(3) -0.003(3)
C1 0.032(4) 0.036(3) 0.099(6) 0.003(3) 0.002(4) -0.003(3)
C2 0.029(3) 0.044(3) 0.093(5) -0.005(3) 0.015(3) -0.003(3)
C3 0.036(4) 0.075(5) 0.094(5) -0.022(4) 0.021(4) -0.012(4)
C4 0.045(4) 0.084(6) 0.075(4) -0.014(4) 0.022(3) -0.015(4)
C5 0.031(3) 0.053(4) 0.074(4) -0.013(3) 0.011(3) -0.004(3)
C6 0.029(3) 0.078(5) 0.071(4) -0.005(4) 0.015(3) -0.009(3)
C7 0.028(3) 0.074(5) 0.066(4) -0.001(3) 0.006(3) -0.011(3)
C8 0.029(3) 0.057(4) 0.073(4) -0.014(3) 0.009(3) -0.004(3)
C9 0.023(3) 0.033(3) 0.070(4) -0.002(3) 0.009(2) 0.000(2)
C10 0.024(3) 0.029(3) 0.056(3) 0.000(2) 0.008(2) 0.002(2)
C11 0.015(2) 0.026(2) 0.059(3) -0.005(2) 0.000(2) -0.0006(19)
C12 0.021(2) 0.025(2) 0.060(3) -0.003(2) 0.003(2) -0.0027(19)
C13 0.026(3) 0.035(3) 0.062(3) -0.001(2) 0.012(2) -0.001(2)
C14 0.018(3) 0.037(3) 0.064(3) 0.003(3) 0.003(2) 0.004(2)
C15 0.026(3) 0.035(3) 0.057(3) 0.003(2) 0.007(2) 0.003(2)
C16 0.018(2) 0.030(3) 0.062(3) 0.000(2) 0.006(2) 0.003(2)
C17 0.025(3) 0.058(4) 0.075(4) 0.014(4) 0.007(3) -0.001(3)
C18 0.020(3) 0.047(3) 0.076(4) 0.012(3) 0.009(3) 0.001(2)
C19 0.037(4) 0.068(5) 0.090(5) 0.011(4) 0.021(4) 0.014(3)
C20 0.028(3) 0.077(5) 0.077(4) -0.011(4) 0.010(3) 0.004(3)
C21 0.021(3) 0.041(3) 0.090(5) 0.010(3) 0.006(3) -0.002(2)
C22 0.034(4) 0.042(4) 0.139(8) -0.014(4) 0.010(4) 0.007(3)
C23 0.035(4) 0.062(5) 0.123(7) -0.031(5) -0.002(4) -0.009(4)
C24 0.024(3) 0.047(4) 0.081(4) 0.012(3) 0.009(3) 0.000(2)
C25 0.024(3) 0.033(3) 0.065(3) 0.006(2) 0.003(2) -0.003(2)
C26 0.022(3) 0.030(3) 0.064(3) 0.003(2) 0.003(2) 0.000(2)
C27 0.016(2) 0.032(3) 0.062(3) 0.004(2) 0.002(2) 0.000(2)
C28 0.022(3) 0.029(3) 0.060(3) 0.003(2) 0.004(2) 0.003(2)
C29 0.024(3) 0.032(3) 0.065(3) 0.000(2) 0.007(2) 0.000(2)
C30 0.025(3) 0.035(3) 0.065(3) 0.008(3) 0.004(2) -0.002(2)
C31 0.021(3) 0.034(3) 0.065(3) 0.004(3) 0.000(2) 0.002(2)
C32 0.025(3) 0.032(3) 0.062(3) -0.003(2) 0.011(2) -0.002(2)
C33 0.055(3) 0.055(3) 0.069(3) -0.002(3) 0.018(3) 0.003(3)
C34 0.084(4) 0.098(5) 0.107(5) 0.008(4) 0.026(4) 0.001(4)
C35 0.097(5) 0.086(5) 0.085(4) 0.007(3) 0.036(4) 0.006(4)
C36 0.108(5) 0.112(5) 0.118(5) -0.007(4) 0.054(4) -0.015(4)
C37 0.155(6) 0.145(7) 0.156(7) 0.00