####################################################################### 
# 
# This file contains crystal structure data downloaded from the 
# Cambridge Structural Database (CSD) hosted by the Cambridge 
# Crystallographic Data Centre (CCDC).
# 
# Full information about CCDC data access policies and citation 
# guidelines are available at http://www.ccdc.cam.ac.uk/access/V1 
# 
# Audit and citation data items may have been added by the CCDC. 
# Please retain this information to preserve the provenance of 
# this file and to allow appropriate attribution of the data. 
# 
#######################################################################

data_c:'complex2'
_audit_block_doi                 10.5517/cczl11m
_database_code_depnum_ccdc_archive 'CCDC 911060'
loop_
_citation_id
_citation_doi
_citation_year
1 10.1021/ic300940k 2012
_audit_update_record             
;
2012-11-15 deposited with the CCDC.	2024-07-12 downloaded from the CCDC.
;

_audit_creation_method           SHELXL-97
_chemical_name_systematic        
;
bis{2,7,12-trimethoxy-3,8,13-tris(4-N-oxide-pyridyloxy)
-10,15-dihydro-5H-tribenzo[a,d,g]cyclononatriene}
zinc(II) tetrafluoroborate N-methylpyrrolidone
clathrate
;
_chemical_name_common            ?
_chemical_melting_point          ?
_chemical_formula_moiety         ?
_chemical_formula_sum            'C84 H66 B F4 N6 O24 Zn'
_chemical_formula_weight         1695.61

loop_
_atom_type_symbol
_atom_type_description
_atom_type_scat_dispersion_real
_atom_type_scat_dispersion_imag
_atom_type_scat_source
C C 0.0033 0.0016 'International Tables Vol C Tables 4.2.6.8 and 6.1.1.4'
H H 0.0000 0.0000 'International Tables Vol C Tables 4.2.6.8 and 6.1.1.4'
B B 0.0013 0.0007 'International Tables Vol C Tables 4.2.6.8 and 6.1.1.4'
F F 0.0171 0.0103 'International Tables Vol C Tables 4.2.6.8 and 6.1.1.4'
N N 0.0061 0.0033 'International Tables Vol C Tables 4.2.6.8 and 6.1.1.4'
O O 0.0106 0.0060 'International Tables Vol C Tables 4.2.6.8 and 6.1.1.4'
Zn Zn 0.2839 1.4301 'International Tables Vol C Tables 4.2.6.8 and 6.1.1.4'

_symmetry_cell_setting           Triclinic
_symmetry_space_group_name_H-M   P-1

loop_
_symmetry_equiv_pos_as_xyz
'x, y, z'
'-x, -y, -z'

_cell_length_a                   17.44(3)
_cell_length_b                   17.54(4)
_cell_length_c                   18.13(3)
_cell_angle_alpha                100.28(8)
_cell_angle_beta                 101.91(6)
_cell_angle_gamma                118.80(6)
_cell_volume                     4499(15)
_cell_formula_units_Z            1
_cell_measurement_temperature    150(2)
_cell_measurement_reflns_used    ?
_cell_measurement_theta_min      ?
_cell_measurement_theta_max      ?

_exptl_crystal_description       plate
_exptl_crystal_colour            colourless
_exptl_crystal_size_max          0.10
_exptl_crystal_size_mid          0.10
_exptl_crystal_size_min          0.05
_exptl_crystal_density_meas      ?
_exptl_crystal_density_diffrn    0.626
_exptl_crystal_density_method    'not measured'
_exptl_crystal_F_000             875
_exptl_absorpt_coefficient_mu    0.177
_exptl_absorpt_correction_type   multi-scan
_exptl_absorpt_correction_T_min  0.9825
_exptl_absorpt_correction_T_max  0.9912
_exptl_absorpt_process_details   ?

_exptl_special_details           
;
?
;

_diffrn_ambient_temperature      150(2)
_diffrn_radiation_wavelength     0.68890
_diffrn_radiation_type           synchrotron
_diffrn_radiation_source         'Diamond Light Source'
_diffrn_radiation_monochromator  'Silicon 111'
_diffrn_measurement_device_type  'Rigaku Saturn CCD'
_diffrn_measurement_method       \w-scans
_diffrn_detector_area_resol_mean ?
_diffrn_standards_number         ?
_diffrn_standards_interval_count ?
_diffrn_standards_interval_time  ?
_diffrn_standards_decay_%        ?
_diffrn_reflns_number            30886
_diffrn_reflns_av_R_equivalents  0.0728
_diffrn_reflns_av_sigmaI/netI    0.0998
_diffrn_reflns_limit_h_min       -19
_diffrn_reflns_limit_h_max       15
_diffrn_reflns_limit_k_min       -19
_diffrn_reflns_limit_k_max       19
_diffrn_reflns_limit_l_min       -20
_diffrn_reflns_limit_l_max       20
_diffrn_reflns_theta_min         1.31
_diffrn_reflns_theta_max         22.69
_reflns_number_total             12825
_reflns_number_gt                4800
_reflns_threshold_expression     >2sigma(I)

_computing_data_collection       'CrystalClear-SM Expert(Rigaku, 2009)'
_computing_cell_refinement       'CrystalClear-SM Expert (Rigaku, 2009)'
_computing_data_reduction        'CrystalClear-SM Expert(Rigaku, 2009)'
_computing_structure_solution    'SHELXS-97 (Sheldrick, 1990)'
_computing_structure_refinement  'SHELXL-97 (Sheldrick, 1997)'
_computing_molecular_graphics    'X-Seed (Barbour)'
_computing_publication_material  ?

_refine_special_details          
;
Refinement of F^2^ against ALL reflections. The weighted R-factor wR and
goodness of fit S are based on F^2^, conventional R-factors R are based
on F, with F set to zero for negative F^2^. The threshold expression of
F^2^ > 2sigma(F^2^) is used only for calculating R-factors(gt) etc. and is
not relevant to the choice of reflections for refinement. R-factors based
on F^2^ are statistically about twice as large as those based on F, and R-
factors based on ALL data will be even larger.
;

_refine_ls_structure_factor_coef Fsqd
_refine_ls_matrix_type           full
_refine_ls_weighting_scheme      calc
_refine_ls_weighting_details     
'calc w=1/[\s^2^(Fo^2^)+(0.0902P)^2^+0.0000P] where P=(Fo^2^+2Fc^2^)/3'
_atom_sites_solution_primary     direct
_atom_sites_solution_secondary   difmap
_atom_sites_solution_hydrogens   geom
_refine_ls_hydrogen_treatment    noref
_refine_ls_extinction_method     none
_refine_ls_extinction_coef       ?
_refine_ls_number_reflns         12825
_refine_ls_number_parameters     523
_refine_ls_number_restraints     0
_refine_ls_R_factor_all          0.1260
_refine_ls_R_factor_gt           0.0729
_refine_ls_wR_factor_ref         0.1992
_refine_ls_wR_factor_gt          0.1747
_refine_ls_goodness_of_fit_ref   0.805
_refine_ls_restrained_S_all      0.805
_refine_ls_shift/su_max          0.000
_refine_ls_shift/su_mean         0.000

loop_
_atom_site_label
_atom_site_type_symbol
_atom_site_fract_x
_atom_site_fract_y
_atom_site_fract_z
_atom_site_U_iso_or_equiv
_atom_site_adp_type
_atom_site_occupancy
_atom_site_symmetry_multiplicity
_atom_site_calc_flag
_atom_site_refinement_flags
_atom_site_disorder_assembly
_atom_site_disorder_group
Zn1 Zn 0.5000 1.5000 0.5000 0.1080(3) Uani 1 2 d S . .
O1 O 0.2888(2) 1.0275(2) 0.2345(2) 0.1406(11) Uani 1 1 d . . .
N1 N 0.4978(3) 1.3542(3) 0.3778(3) 0.1222(13) Uani 1 1 d . . .
C1 C 0.0900(3) 0.8072(3) 0.0863(3) 0.1093(12) Uani 1 1 d . . .
O2 O 0.3668(3) 0.9295(2) 0.2269(3) 0.1777(16) Uani 1 1 d . . .
N2 N 0.3063(2) 0.4100(2) 0.3808(2) 0.1116(11) Uani 1 1 d . . .
C2 C 0.1477(4) 0.9001(3) 0.1353(3) 0.1142(14) Uani 1 1 d . . .
H2 H 0.1233 0.9383 0.1374 0.137 Uiso 1 1 calc R . .
O3 O 0.12296(19) 0.50850(18) 0.23396(16) 0.1187(9) Uani 1 1 d . . .
N3 N -0.4494(4) 0.5989(2) 0.3773(3) 0.1191(14) Uani 1 1 d . . .
C3 C 0.2347(4) 0.9347(3) 0.1782(3) 0.1212(15) Uani 1 1 d . . .
O4 O -0.0523(3) 0.4280(2) 0.2305(2) 0.1457(11) Uani 1 1 d . . .
C4 C 0.2746(3) 0.8869(3) 0.1799(3) 0.1251(15) Uani 1 1 d . . .
O5 O -0.2266(3) 0.6775(2) 0.2362(2) 0.1378(15) Uani 1 1 d . . .
C5 C 0.2209(3) 0.7922(3) 0.1297(3) 0.1195(14) Uani 1 1 d . . .
H5 H 0.2484 0.7568 0.1280 0.143 Uiso 1 1 calc R . .
O6 O -0.1353(2) 0.8502(3) 0.2367(3) 0.1687(14) Uani 1 1 d . . .
C6 C 0.1291(3) 0.7534(3) 0.0841(2) 0.0999(12) Uani 1 1 d . . .
O7 O 0.3359(5) 1.0766(3) 0.1341(3) 0.305(5) Uani 1 1 d . . .
C7 C 0.0769(3) 0.6536(3) 0.0374(3) 0.1091(12) Uani 1 1 d . . .
H7A H 0.1201 0.6395 0.0199 0.131 Uiso 1 1 calc R . .
H7B H 0.0279 0.6404 -0.0109 0.131 Uiso 1 1 calc R . .
O8 O 0.54974(17) 1.43772(17) 0.43053(16) 0.1077(8) Uani 1 1 d . . .
C8 C 0.0312(4) 0.5895(2) 0.0851(2) 0.0926(12) Uani 1 1 d . . .
O9 O 0.0758(3) 0.3745(2) 0.14296(19) 0.1432(12) Uani 1 1 d . . .
C9 C 0.0896(3) 0.5728(2) 0.1302(2) 0.0951(11) Uani 1 1 d . . .
H9 H 0.1511 0.5979 0.1289 0.114 Uiso 1 1 calc R . .
O10 O 0.36187(16) 0.39666(15) 0.43308(16) 0.1052(8) Uani 1 1 d . . .
C10 C 0.0609(4) 0.5200(3) 0.1777(3) 0.1112(13) Uani 1 1 d . . .
O11 O -0.3509(3) 0.6682(4) 0.1481(3) 0.230(3) Uani 1 1 d . . .
C11 C -0.0294(5) 0.4791(3) 0.1762(3) 0.1188(14) Uani 1 1 d . . .
O12 O -0.49711(19) 0.58154(17) 0.4275(2) 0.1149(9) Uani 1 1 d . . .
C12 C -0.0871(3) 0.4964(3) 0.1301(3) 0.1022(12) Uani 1 1 d . . .
H12 H -0.1496 0.4695 0.1288 0.123 Uiso 1 1 calc R . .
C13 C -0.0553(4) 0.5525(3) 0.0853(3) 0.1005(12) Uani 1 1 d . . .
C14 C -0.1238(3) 0.5713(2) 0.0378(2) 0.1035(12) Uani 1 1 d . . .
H14A H -0.1072 0.5850 -0.0094 0.124 Uiso 1 1 calc R . .
H14B H -0.1870 0.5151 0.0183 0.124 Uiso 1 1 calc R . .
C15 C -0.1252(3) 0.6483(3) 0.0842(3) 0.0936(11) Uani 1 1 d . . .
C16 C -0.1770(3) 0.6293(3) 0.1342(3) 0.1140(15) Uani 1 1 d . . .
H16 H -0.2115 0.5687 0.1364 0.137 Uiso 1 1 calc R . .
C17 C -0.1777(3) 0.6968(4) 0.1789(3) 0.1194(16) Uani 1 1 d . . .
C18 C -0.1247(4) 0.7883(3) 0.1802(4) 0.1411(19) Uani 1 1 d . . .
C19 C -0.0691(4) 0.8083(4) 0.1361(4) 0.1340(18) Uani 1 1 d . . .
H19 H -0.0279 0.8702 0.1400 0.161 Uiso 1 1 calc R . .
C20 C -0.0729(3) 0.7381(3) 0.0858(3) 0.1053(13) Uani 1 1 d . . .
C21 C -0.0097(3) 0.7689(3) 0.0378(3) 0.1098(13) Uani 1 1 d . . .
H21A H -0.0135 0.8167 0.0184 0.132 Uiso 1 1 calc R . .
H21B H -0.0307 0.7161 -0.0091 0.132 Uiso 1 1 calc R . .
C22 C 0.3396(4) 1.0896(4) 0.1991(5) 0.170(3) Uani 1 1 d . . .
C23 C 0.3937(3) 1.1873(3) 0.2721(4) 0.1178(15) Uani 1 1 d . . .
C24 C 0.3869(3) 1.1938(3) 0.3446(4) 0.1287(16) Uani 1 1 d . . .
H24 H 0.3477 1.1413 0.3574 0.154 Uiso 1 1 calc R . .
C25 C 0.4433(4) 1.2865(4) 0.4038(4) 0.1437(18) Uani 1 1 d . . .
H25 H 0.4416 1.2981 0.4564 0.172 Uiso 1 1 calc R . .
C26 C 0.5004(4) 1.3456(4) 0.3052(4) 0.1418(19) Uani 1 1 d . . .
H26 H 0.5364 1.3976 0.2905 0.170 Uiso 1 1 calc R . .
C27 C 0.4497(4) 1.2597(4) 0.2523(3) 0.163(2) Uani 1 1 d . . .
H27 H 0.4536 1.2503 0.2003 0.196 Uiso 1 1 calc R . .
C28 C 0.4076(4) 0.8752(4) 0.2248(5) 0.261(4) Uani 1 1 d . . .
H28A H 0.3844 0.8330 0.2551 0.392 Uiso 1 1 calc R . .
H28B H 0.4754 0.9158 0.2485 0.392 Uiso 1 1 calc R . .
H28C H 0.3907 0.8397 0.1695 0.392 Uiso 1 1 calc R . .
C29 C 0.1247(3) 0.4303(3) 0.2067(3) 0.1078(13) Uani 1 1 d . . .
C30 C 0.1902(3) 0.4264(3) 0.2728(3) 0.0985(12) Uani 1 1 d . . .
C31 C 0.2378(3) 0.4920(3) 0.3439(2) 0.0981(11) Uani 1 1 d . . .
H31 H 0.2304 0.5425 0.3564 0.118 Uiso 1 1 calc R . .
C32 C 0.2986(3) 0.4827(3) 0.3987(3) 0.1152(14) Uani 1 1 d . . .
H32 H 0.3351 0.5287 0.4495 0.138 Uiso 1 1 calc R . .
C33 C 0.2553(3) 0.3456(3) 0.3103(3) 0.1209(14) Uani 1 1 d . . .
H33 H 0.2614 0.2943 0.2981 0.145 Uiso 1 1 calc R . .
C34 C 0.1952(3) 0.3512(3) 0.2558(2) 0.1120(13) Uani 1 1 d . . .
H34 H 0.1569 0.3032 0.2062 0.134 Uiso 1 1 calc R . .
C35 C -0.1556(5) 0.3767(5) 0.2173(5) 0.237(4) Uani 1 1 d . . .
H35A H -0.1705 0.4185 0.2449 0.356 Uiso 1 1 calc R . .
H35B H -0.1727 0.3251 0.2383 0.356 Uiso 1 1 calc R . .
H35C H -0.1906 0.3532 0.1601 0.356 Uiso 1 1 calc R . .
C36 C -0.3104(7) 0.6620(4) 0.2089(5) 0.170(3) Uani 1 1 d . . .
C37 C -0.3608(4) 0.6395(3) 0.2697(4) 0.136(2) Uani 1 1 d . . .
C38 C -0.3152(4) 0.6391(3) 0.3424(4) 0.1281(17) Uani 1 1 d . . .
H38 H -0.2542 0.6507 0.3532 0.154 Uiso 1 1 calc R . .
C39 C -0.3581(4) 0.6218(3) 0.3991(4) 0.1308(19) Uani 1 1 d . . .
H39 H -0.3265 0.6255 0.4503 0.157 Uiso 1 1 calc R . .
C40 C -0.4924(4) 0.5997(4) 0.3106(4) 0.157(2) Uani 1 1 d . . .
H40 H -0.5545 0.5849 0.2998 0.188 Uiso 1 1 calc R . .
C41 C -0.4493(5) 0.6218(4) 0.2546(4) 0.164(2) Uani 1 1 d . . .
H41 H -0.4804 0.6247 0.2065 0.197 Uiso 1 1 calc R . .
C42 C -0.0810(5) 0.9441(4) 0.2414(5) 0.236(4) Uani 1 1 d . . .
H42A H -0.0965 0.9496 0.1883 0.354 Uiso 1 1 calc R . .
H42B H -0.0148 0.9663 0.2616 0.354 Uiso 1 1 calc R . .
H42C H -0.0944 0.9811 0.2775 0.354 Uiso 1 1 calc R . .

loop_
_atom_site_aniso_label
_atom_site_aniso_U_11
_atom_site_aniso_U_22
_atom_site_aniso_U_33
_atom_site_aniso_U_23
_atom_site_aniso_U_13
_atom_site_aniso_U_12
Zn1 0.1068(5) 0.0702(4) 0.1123(6) 0.0144(4) 0.0063(4) 0.0399(4)
O1 0.134(2) 0.0673(19) 0.163(3) 0.0171(19) 0.021(2) 0.0316(18)
N1 0.116(3) 0.073(3) 0.137(4) 0.003(3) 0.005(3) 0.047(2)
C1 0.119(4) 0.091(3) 0.111(3) 0.030(3) 0.045(3) 0.051(3)
O2 0.123(3) 0.087(2) 0.250(4) 0.003(2) -0.009(3) 0.050(2)
N2 0.107(3) 0.074(2) 0.100(3) 0.010(2) -0.008(2) 0.033(2)
C2 0.127(4) 0.073(3) 0.128(4) 0.016(3) 0.044(3) 0.049(3)
O3 0.124(2) 0.0942(19) 0.111(2) 0.0132(16) -0.0053(17) 0.0636(17)
N3 0.155(5) 0.087(2) 0.098(3) 0.037(2) 0.034(3) 0.054(3)
C3 0.135(4) 0.067(3) 0.142(4) 0.013(3) 0.033(3) 0.052(3)
O4 0.167(3) 0.126(3) 0.155(3) 0.061(2) 0.044(2) 0.085(2)
C4 0.094(4) 0.097(4) 0.157(4) 0.032(3) 0.017(3) 0.045(3)
O5 0.100(2) 0.117(2) 0.180(4) 0.036(2) 0.020(3) 0.061(2)
C5 0.121(4) 0.088(3) 0.155(4) 0.033(3) 0.039(3) 0.065(3)
O6 0.176(3) 0.120(3) 0.224(4) 0.059(3) 0.103(3) 0.075(3)
C6 0.110(3) 0.073(3) 0.101(3) 0.016(2) 0.015(2) 0.051(2)
O7 0.439(10) 0.121(4) 0.151(4) 0.001(3) 0.100(5) 0.020(4)
C7 0.111(3) 0.084(3) 0.127(3) 0.033(3) 0.027(3) 0.054(2)
O8 0.1078(19) 0.0827(18) 0.113(2) 0.0047(16) 0.0103(16) 0.0563(16)
C8 0.115(4) 0.067(2) 0.077(3) 0.0072(19) -0.001(2) 0.054(3)
O9 0.198(3) 0.114(2) 0.098(2) 0.0020(19) -0.004(2) 0.101(2)
C9 0.093(3) 0.065(2) 0.093(3) 0.000(2) 0.027(2) 0.028(2)
O10 0.0844(16) 0.0641(15) 0.112(2) 0.0072(13) -0.0136(14) 0.0259(13)
C10 0.113(4) 0.104(3) 0.120(4) 0.028(3) 0.032(3) 0.065(3)
O11 0.177(4) 0.453(9) 0.139(3) 0.137(5) 0.065(3) 0.207(5)
C11 0.158(5) 0.095(3) 0.118(4) 0.044(3) 0.061(4) 0.070(3)
O12 0.102(2) 0.0889(19) 0.127(3) 0.0393(18) 0.0036(19) 0.0453(16)
C12 0.104(3) 0.101(3) 0.108(3) 0.037(3) 0.026(3) 0.063(3)
C13 0.099(3) 0.070(3) 0.113(4) 0.011(2) 0.024(3) 0.042(3)
C14 0.100(3) 0.074(2) 0.110(3) 0.022(2) 0.012(2) 0.040(2)
C15 0.084(3) 0.098(3) 0.094(3) 0.019(2) 0.019(2) 0.055(3)
C16 0.127(4) 0.083(3) 0.114(4) 0.009(3) 0.011(3) 0.063(3)
C17 0.108(4) 0.150(5) 0.123(4) 0.067(4) 0.076(3) 0.064(3)
C18 0.133(4) 0.071(3) 0.184(6) 0.012(3) 0.026(4) 0.050(3)
C19 0.137(4) 0.117(4) 0.171(5) 0.074(4) 0.081(4) 0.064(3)
C20 0.113(3) 0.068(3) 0.130(4) 0.027(3) 0.024(3) 0.053(3)
C21 0.115(4) 0.085(3) 0.139(4) 0.033(3) 0.033(3) 0.065(3)
C22 0.123(4) 0.066(3) 0.236(8) 0.022(5) -0.013(5) 0.029(3)
C23 0.099(3) 0.074(3) 0.149(5) 0.017(3) 0.040(3) 0.032(3)
C24 0.132(4) 0.094(4) 0.143(5) 0.035(3) 0.045(4) 0.050(3)
C25 0.134(4) 0.100(4) 0.185(5) 0.029(4) 0.044(4) 0.065(3)
C26 0.175(5) 0.103(4) 0.098(4) -0.002(3) 0.011(4) 0.065(4)
C27 0.179(5) 0.119(5) 0.119(4) 0.004(4) 0.024(4) 0.051(4)
C28 0.121(5) 0.144(5) 0.392(12) 0.002(6) -0.055(5) 0.064(4)
C29 0.112(3) 0.091(3) 0.123(4) 0.027(3) 0.032(3) 0.062(3)
C30 0.103(3) 0.068(2) 0.105(3) 0.020(2) 0.007(2) 0.046(2)
C31 0.119(3) 0.079(3) 0.089(3) 0.014(2) 0.011(2) 0.062(2)
C32 0.122(3) 0.062(2) 0.123(4) 0.001(2) 0.009(3) 0.044(2)
C33 0.145(4) 0.085(3) 0.111(4) 0.013(3) 0.003(3) 0.069(3)
C34 0.131(3) 0.097(3) 0.086(3) 0.005(2) 0.001(2) 0.068(3)
C35 0.203(7) 0.315(10) 0.358(11) 0.252(9) 0.158(7) 0.184(7)
C36 0.194(8) 0.143(5) 0.157(6) 0.059(5) 0.105(7) 0.058(5)
C37 0.096(4) 0.120(4) 0.164(5) 0.042(3) -0.010(4) 0.060(3)
C38 0.112(4) 0.099(3) 0.161(5) 0.030(3) 0.052(4) 0.051(3)
C39 0.068(3) 0.128(4) 0.169(5) 0.034(3) -0.003(3) 0.054(3)
C40 0.152(5) 0.178(5) 0.153(5) 0.085(5) 0.045(5) 0.089(4)
C41 0.145(5) 0.211(6) 0.166(6) 0.092(5) 0.043(5) 0.110(5)
C42 0.333(9) 0.108(4) 0.323(9) 0.061(5) 0.210(8) 0.124(5)

_geom_special_details            
;
All esds (except the esd in the dihedral angle between two l.s. planes)
are estimated using the full covariance matrix. The cell esds are taken
into account individually in the estimation of esds in distances, angles
and torsion angles; correlations between esds in cell parameters are only
used when they are defined by crystal symmetry. An approximate (isotropic)
treatment of cell esds is used for estimating esds involving l.s. planes.
;

loop_
_geom_bond_atom_site_label_1
_geom_bond_atom_site_label_2
_geom_bond_distance
_geom_bond_site_symmetry_2
_geom_bond_publ_flag
Zn1 O10 2.089(4) 2_676 ?
Zn1 O10 2.089(4) 1_565 ?
Zn1 O8 2.099(4) 2_686 ?
Zn1 O8 2.099(4) . ?
Zn1 O12 2.099(4) 2_576 ?
Zn1 O12 2.099(4) 1_665 ?
O1 C22 1.392(8) . ?
O1 C3 1.453(6) . ?
N1 C26 1.311(6) . ?
N1 O8 1.320(5) . ?
N1 C25 1.353(6) . ?
C1 C6 1.406(6) . ?
C1 C2 1.411(6) . ?
C1 C21 1.510(6) . ?
O2 C4 1.386(6) . ?
O2 C28 1.436(6) . ?
N2 C33 1.322(5) . ?
N2 C32 1.338(5) . ?
N2 O10 1.345(4) . ?
C2 C3 1.315(6) . ?
C2 H2 0.9500 . ?
O3 C29 1.390(5) . ?
O3 C10 1.443(5) . ?
N3 C40 1.291(6) . ?
N3 O12 1.334(5) . ?
N3 C39 1.385(6) . ?
C3 C4 1.324(6) . ?
O4 C11 1.436(5) . ?
O4 C35 1.516(7) . ?
C4 C5 1.440(7) . ?
O5 C36 1.314(9) . ?
O5 C17 1.462(5) . ?
C5 C6 1.383(6) . ?
C5 H5 0.9500 . ?
O6 C42 1.425(7) . ?
O6 C18 1.461(7) . ?
C6 C7 1.492(6) . ?
O7 C22 1.142(9) . ?
C7 C8 1.554(6) . ?
C7 H7A 0.9900 . ?
C7 H7