####################################################################### 
# 
# This file contains crystal structure data downloaded from the 
# Cambridge Structural Database (CSD) hosted by the Cambridge 
# Crystallographic Data Centre (CCDC).
# 
# Full information about CCDC data access policies and citation 
# guidelines are available at http://www.ccdc.cam.ac.uk/access/V1 
# 
# Audit and citation data items may have been added by the CCDC. 
# Please retain this information to preserve the provenance of 
# this file and to allow appropriate attribution of the data. 
# 
#######################################################################

data_m:'complex5'
_audit_block_doi                 10.5517/cczl14q
_database_code_depnum_ccdc_archive 'CCDC 911063'
loop_
_citation_id
_citation_doi
_citation_year
1 10.1021/ic300940k 2012
_audit_update_record             
;
2012-11-15 deposited with the CCDC.	2024-07-12 downloaded from the CCDC.
;

_audit_creation_method           SHELXL-97
_chemical_name_systematic        
;
dinitro{2,7,12-Trimethoxy-3,8,13-tris(2-N-oxide-pyridylmethoxy)-
10,15-dihydro-5H-tribenzo[a,d,g]cyclononatriene}cadmium(II)
dimtheylformamide clathrate
;
_chemical_name_common            ?
_chemical_melting_point          ?
_chemical_formula_moiety         ?
_chemical_formula_sum            'C48 H53 Cd N7 O17'
_chemical_formula_weight         1112.37

loop_
_atom_type_symbol
_atom_type_description
_atom_type_scat_dispersion_real
_atom_type_scat_dispersion_imag
_atom_type_scat_source
C C 0.0033 0.0016 'International Tables Vol C Tables 4.2.6.8 and 6.1.1.4'
H H 0.0000 0.0000 'International Tables Vol C Tables 4.2.6.8 and 6.1.1.4'
N N 0.0061 0.0033 'International Tables Vol C Tables 4.2.6.8 and 6.1.1.4'
O O 0.0106 0.0060 'International Tables Vol C Tables 4.2.6.8 and 6.1.1.4'
Cd Cd -0.8075 1.2024 'International Tables Vol C Tables 4.2.6.8 and 6.1.1.4'

_symmetry_cell_setting           Monoclinic
_symmetry_space_group_name_H-M   P2(1)

loop_
_symmetry_equiv_pos_as_xyz
'x, y, z'
'-x, y+1/2, -z'

_cell_length_a                   8.0052(7)
_cell_length_b                   24.325(2)
_cell_length_c                   14.2675(12)
_cell_angle_alpha                90.00
_cell_angle_beta                 100.117(3)
_cell_angle_gamma                90.00
_cell_volume                     2735.0(4)
_cell_formula_units_Z            2
_cell_measurement_temperature    150(2)
_cell_measurement_reflns_used    ?
_cell_measurement_theta_min      ?
_cell_measurement_theta_max      ?

_exptl_crystal_description       Needle
_exptl_crystal_colour            Cream
_exptl_crystal_size_max          0.08
_exptl_crystal_size_mid          0.03
_exptl_crystal_size_min          0.03
_exptl_crystal_density_meas      ?
_exptl_crystal_density_diffrn    1.351
_exptl_crystal_density_method    'not measured'
_exptl_crystal_F_000             1148
_exptl_absorpt_coefficient_mu    0.472
_exptl_absorpt_correction_type   multi-scan
_exptl_absorpt_correction_T_min  0.9632
_exptl_absorpt_correction_T_max  0.9860
_exptl_absorpt_process_details   SADABS

_exptl_special_details           
;
?
;

_diffrn_ambient_temperature      150(2)
_diffrn_radiation_wavelength     0.71073
_diffrn_radiation_type           MoK\a
_diffrn_radiation_source         'rotating anode'
_diffrn_radiation_monochromator  graphite
_diffrn_measurement_device_type  'BRUKER X8 CCD area detector'
_diffrn_measurement_method       '\w, \p- scans'
_diffrn_detector_area_resol_mean ?
_diffrn_standards_number         ?
_diffrn_standards_interval_count ?
_diffrn_standards_interval_time  ?
_diffrn_standards_decay_%        ?
_diffrn_reflns_number            20183
_diffrn_reflns_av_R_equivalents  0.0279
_diffrn_reflns_av_sigmaI/netI    0.0609
_diffrn_reflns_limit_h_min       -10
_diffrn_reflns_limit_h_max       11
_diffrn_reflns_limit_k_min       -31
_diffrn_reflns_limit_k_max       32
_diffrn_reflns_limit_l_min       -18
_diffrn_reflns_limit_l_max       19
_diffrn_reflns_theta_min         1.67
_diffrn_reflns_theta_max         29.36
_reflns_number_total             12571
_reflns_number_gt                10482
_reflns_threshold_expression     >2sigma(I)

_computing_data_collection       'Bruker SMART'
_computing_cell_refinement       'Bruker SMART'
_computing_data_reduction        'Bruker SAINT'
_computing_structure_solution    'SHELXS-97 (Sheldrick, 1990)'
_computing_structure_refinement  'SHELXL-97 (Sheldrick, 1997)'
_computing_molecular_graphics    'X-Seed (Barbour)'
_computing_publication_material  ?

_refine_special_details          
;
Refinement of F^2^ against ALL reflections. The weighted R-factor wR and
goodness of fit S are based on F^2^, conventional R-factors R are based
on F, with F set to zero for negative F^2^. The threshold expression of
F^2^ > 2sigma(F^2^) is used only for calculating R-factors(gt) etc. and is
not relevant to the choice of reflections for refinement. R-factors based
on F^2^ are statistically about twice as large as those based on F, and R-
factors based on ALL data will be even larger.
;

_refine_ls_structure_factor_coef Fsqd
_refine_ls_matrix_type           full
_refine_ls_weighting_scheme      calc
_refine_ls_weighting_details     
'calc w=1/[\s^2^(Fo^2^)+(0.1162P)^2^+0.0000P] where P=(Fo^2^+2Fc^2^)/3'
_atom_sites_solution_primary     direct
_atom_sites_solution_secondary   difmap
_atom_sites_solution_hydrogens   geom
_refine_ls_hydrogen_treatment    noref
_refine_ls_extinction_method     none
_refine_ls_extinction_coef       ?
_refine_ls_abs_structure_details 'Flack H D (1983), Acta Cryst. A39, 876-881'
_refine_ls_abs_structure_Flack   0.00(2)
_refine_ls_number_reflns         12571
_refine_ls_number_parameters     654
_refine_ls_number_restraints     1
_refine_ls_R_factor_all          0.0729
_refine_ls_R_factor_gt           0.0583
_refine_ls_wR_factor_ref         0.1705
_refine_ls_wR_factor_gt          0.1602
_refine_ls_goodness_of_fit_ref   1.036
_refine_ls_restrained_S_all      1.036
_refine_ls_shift/su_max          0.001
_refine_ls_shift/su_mean         0.000

loop_
_atom_site_label
_atom_site_type_symbol
_atom_site_fract_x
_atom_site_fract_y
_atom_site_fract_z
_atom_site_U_iso_or_equiv
_atom_site_adp_type
_atom_site_occupancy
_atom_site_symmetry_multiplicity
_atom_site_calc_flag
_atom_site_refinement_flags
_atom_site_disorder_assembly
_atom_site_disorder_group
Cd1 Cd 0.29641(4) 0.270330(16) 0.24458(2) 0.02931(10) Uani 1 1 d . . .
O1 O 0.1839(4) 0.06714(15) 0.3753(3) 0.0307(8) Uani 1 1 d . . .
N1 N 0.0668(5) 0.17135(19) 0.1901(3) 0.0295(9) Uani 1 1 d . . .
C1 C 0.6253(6) 0.0279(2) 0.3489(3) 0.0276(10) Uani 1 1 d . . .
C46A C 1.028(2) 0.1193(8) 0.7545(12) 0.057(4) Uiso 0.50 1 d P A 1
H46A H 1.0541 0.1564 0.7718 0.068 Uiso 0.50 1 calc PR A 1
C47B C 1.051(3) 0.0914(12) 0.5707(18) 0.096(6) Uiso 0.50 1 d P A 2
H47A H 1.0846 0.0528 0.5669 0.144 Uiso 0.50 1 calc PR A 2
H47B H 1.1411 0.1151 0.5547 0.144 Uiso 0.50 1 calc PR A 2
H47C H 0.9458 0.0981 0.5258 0.144 Uiso 0.50 1 calc PR A 2
C48B C 1.019(3) 0.1634(10) 0.6829(17) 0.087(6) Uiso 0.50 1 d P A 2
H48A H 0.9229 0.1796 0.6395 0.130 Uiso 0.50 1 calc PR A 2
H48B H 1.1246 0.1806 0.6722 0.130 Uiso 0.50 1 calc PR A 2
H48C H 1.0045 0.1697 0.7489 0.130 Uiso 0.50 1 calc PR A 2
C46B C 1.0047(19) 0.0675(8) 0.7353(12) 0.059(4) Uiso 0.50 1 d P A 2
H46B H 0.9967 0.0292 0.7227 0.071 Uiso 0.50 1 calc PR A 2
O2 O 0.2206(5) -0.01973(17) 0.4838(3) 0.0354(8) Uani 1 1 d . . .
N2 N 0.4229(5) -0.25225(19) 0.5735(3) 0.0332(9) Uani 1 1 d . . .
C2 C 0.4706(6) 0.0568(2) 0.3375(4) 0.0291(10) Uani 1 1 d . . .
H2 H 0.4565 0.0885 0.2978 0.035 Uiso 1 1 calc R . .
O3 O 0.6413(6) -0.24921(17) 0.3683(3) 0.0412(9) Uani 1 1 d . . .
N3 N 0.9511(6) -0.1440(2) -0.1248(3) 0.0309(10) Uani 1 1 d . . .
C3 C 0.3386(6) 0.0407(2) 0.3822(3) 0.0264(9) Uani 1 1 d . . .
O4 O 0.7374(7) -0.24826(19) 0.2030(3) 0.0525(12) Uani 1 1 d . . .
N4 N 0.5687(8) 0.0920(3) 0.6696(5) 0.0579(15) Uani 1 1 d . . .
C4 C 0.3575(6) -0.0070(2) 0.4403(3) 0.0283(10) Uani 1 1 d . . .
O5 O 0.6531(5) -0.03448(18) -0.0859(3) 0.0386(9) Uani 1 1 d . . .
N5 N 0.2613(10) 0.3709(2) 0.3363(4) 0.0532(15) Uani 1 1 d . . .
C5 C 0.5095(6) -0.0355(2) 0.4527(4) 0.0292(10) Uani 1 1 d . . .
H5 H 0.5232 -0.0671 0.4926 0.035 Uiso 1 1 calc R . .
O6 O 0.5046(6) 0.05666(18) -0.0485(3) 0.0436(10) Uani 1 1 d . . .
N6 N 0.5327(6) 0.2342(3) 0.1324(4) 0.0502(14) Uani 1 1 d . . .
C6 C 0.6449(6) -0.0188(2) 0.4072(4) 0.0289(10) Uani 1 1 d . . .
O7 O 0.0718(4) 0.21488(15) 0.2482(3) 0.0313(8) Uani 1 1 d . . .
N7 N 1.0259(8) 0.1033(3) 0.6648(4) 0.0546(14) Uiso 1 1 d . . .
C7 C 0.8090(6) -0.0528(2) 0.4296(4) 0.0311(10) Uani 1 1 d . . .
H7A H 0.9057 -0.0298 0.4186 0.037 Uiso 1 1 calc R . .
H7B H 0.8289 -0.0633 0.4977 0.037 Uiso 1 1 calc R . .
O8 O 0.5452(5) -0.27678(17) 0.6359(3) 0.0362(8) Uani 1 1 d . . .
C8 C 0.8027(6) -0.1050(2) 0.3687(4) 0.0311(10) Uani 1 1 d . . .
O9 O 0.8507(5) -0.18653(16) -0.1135(3) 0.0335(8) Uani 1 1 d . . .
C9 C 0.7275(6) -0.1527(2) 0.3980(4) 0.0315(11) Uani 1 1 d . . .
H9 H 0.6869 -0.1524 0.4567 0.038 Uiso 1 1 calc R . .
O10 O 0.6327(10) 0.1422(3) 0.5481(4) 0.085(2) Uani 1 1 d . . .
C10 C 0.7110(7) -0.2003(3) 0.3438(4) 0.0344(11) Uani 1 1 d . . .
O11 O 0.4037(8) 0.3575(2) 0.3163(4) 0.0593(13) Uani 1 1 d . . .
C11 C 0.7649(8) -0.2007(3) 0.2547(4) 0.0373(12) Uani 1 1 d . . .
O12 O 0.1504(7) 0.3340(2) 0.3364(4) 0.0594(13) Uani 1 1 d . . .
C12 C 0.8449(7) -0.1540(2) 0.2271(4) 0.0337(11) Uani 1 1 d . . .
H12 H 0.8871 -0.1547 0.1689 0.040 Uiso 1 1 calc R . .
O13 O 0.2304(12) 0.4198(3) 0.3512(4) 0.090(2) Uani 1 1 d . . .
C13 C 0.8648(6) -0.1061(2) 0.2829(4) 0.0297(10) Uani 1 1 d . . .
O14 O 0.4021(5) 0.2045(2) 0.1382(4) 0.0527(12) Uani 1 1 d . . .
C14 C 0.9480(6) -0.0571(3) 0.2454(4) 0.0306(11) Uani 1 1 d . . .
H14A H 1.0426 -0.0701 0.2149 0.037 Uiso 1 1 calc R . .
H14B H 0.9970 -0.0334 0.2998 0.037 Uiso 1 1 calc R . .
O15 O 0.5450(5) 0.2800(2) 0.1745(3) 0.0492(13) Uani 1 1 d . . .
C15 C 0.8280(6) -0.0224(2) 0.1735(4) 0.0305(10) Uani 1 1 d . . .
O16 O 0.6431(7) 0.2190(3) 0.0896(5) 0.090(2) Uani 1 1 d . . .
C16 C 0.8008(6) -0.0427(2) 0.0796(4) 0.0317(11) Uani 1 1 d . . .
H16 H 0.8589 -0.0748 0.0655 0.038 Uiso 1 1 calc R . .
O17 O 0.9956(8) 0.0854(3) 0.8176(5) 0.0761(16) Uiso 1 1 d . . .
C17 C 0.6896(6) -0.0162(2) 0.0066(4) 0.0307(10) Uani 1 1 d . . .
C18 C 0.6074(7) 0.0328(2) 0.0270(4) 0.0331(11) Uani 1 1 d . . .
C19 C 0.6381(6) 0.0535(2) 0.1200(4) 0.0314(10) Uani 1 1 d . . .
H19 H 0.5869 0.0872 0.1334 0.038 Uiso 1 1 calc R . .
C20 C 0.7448(6) 0.0250(2) 0.1950(4) 0.0324(11) Uani 1 1 d . . .
C21 C 0.7613(6) 0.0485(2) 0.2947(4) 0.0300(10) Uani 1 1 d . . .
H21A H 0.7548 0.0891 0.2904 0.036 Uiso 1 1 calc R . .
H21B H 0.8743 0.0387 0.3311 0.036 Uiso 1 1 calc R . .
C22 C 0.1695(6) 0.1222(2) 0.3377(4) 0.0294(11) Uani 1 1 d . . .
H22A H 0.2799 0.1413 0.3550 0.035 Uiso 1 1 calc R . .
H22B H 0.0842 0.1428 0.3662 0.035 Uiso 1 1 calc R . .
C23 C 0.1170(6) 0.1214(2) 0.2299(4) 0.0278(10) Uani 1 1 d . . .
C24 C 0.1125(7) 0.0760(2) 0.1701(4) 0.0338(11) Uani 1 1 d . . .
H24 H 0.1460 0.0410 0.1963 0.041 Uiso 1 1 calc R . .
C25 C 0.0599(7) 0.0814(3) 0.0734(4) 0.0389(13) Uani 1 1 d . . .
H25 H 0.0604 0.0505 0.0327 0.047 Uiso 1 1 calc R . .
C26 C 0.0059(8) 0.1324(3) 0.0358(4) 0.0423(13) Uani 1 1 d . . .
H26 H -0.0335 0.1364 -0.0307 0.051 Uiso 1 1 calc R . .
C27 C 0.0099(7) 0.1767(3) 0.0950(4) 0.0365(13) Uani 1 1 d . . .
H27 H -0.0274 0.2116 0.0696 0.044 Uiso 1 1 calc R . .
C28 C 0.2409(8) -0.0674(3) 0.5452(5) 0.0459(15) Uani 1 1 d . . .
H28A H 0.2796 -0.0986 0.5112 0.069 Uiso 1 1 calc R . .
H28B H 0.1320 -0.0764 0.5638 0.069 Uiso 1 1 calc R . .
H28C H 0.3250 -0.0594 0.6022 0.069 Uiso 1 1 calc R . .
C29 C 0.6252(7) -0.2577(3) 0.4665(4) 0.0355(12) Uani 1 1 d . . .
H29A H 0.7149 -0.2368 0.5083 0.043 Uiso 1 1 calc R . .
H29B H 0.6414 -0.2972 0.4825 0.043 Uiso 1 1 calc R . .
C30 C 0.4539(6) -0.2396(3) 0.4847(4) 0.0367(14) Uani 1 1 d . . .
C31 C 0.3260(7) -0.2165(2) 0.4197(4) 0.0409(15) Uani 1 1 d . . .
H31 H 0.3443 -0.2087 0.3570 0.049 Uiso 1 1 calc R . .
C32 C 0.1703(8) -0.2045(3) 0.4450(5) 0.0508(16) Uani 1 1 d . . .
H32 H 0.0833 -0.1875 0.4006 0.061 Uiso 1 1 calc R . .
C33 C 0.1436(7) -0.2171(3) 0.5334(5) 0.051(2) Uani 1 1 d . . .
H33 H 0.0368 -0.2091 0.5506 0.062 Uiso 1 1 calc R . .
C34 C 0.2717(7) -0.2420(3) 0.6004(5) 0.0445(17) Uani 1 1 d . . .
H34 H 0.2527 -0.2512 0.6624 0.053 Uiso 1 1 calc R . .
C35 C 0.7545(13) -0.2457(3) 0.1050(6) 0.069(2) Uani 1 1 d . . .
H35A H 0.6652 -0.2222 0.0703 0.104 Uiso 1 1 calc R . .
H35B H 0.7439 -0.2828 0.0777 0.104 Uiso 1 1 calc R . .
H35C H 0.8659 -0.2305 0.0999 0.104 Uiso 1 1 calc R . .
C36 C 0.7049(7) -0.0890(2) -0.1033(4) 0.0332(11) Uani 1 1 d . . .
H36A H 0.6309 -0.1036 -0.1608 0.040 Uiso 1 1 calc R . .
H36B H 0.6909 -0.1127 -0.0488 0.040 Uiso 1 1 calc R . .
C37 C 0.8877(6) -0.0912(2) -0.1173(4) 0.0294(10) Uani 1 1 d . . .
C38 C 0.9916(8) -0.0467(3) -0.1272(4) 0.0398(12) Uani 1 1 d . . .
H38 H 0.9495 -0.0104 -0.1226 0.048 Uiso 1 1 calc R . .
C39 C 1.1542(8) -0.0540(3) -0.1436(5) 0.0524(17) Uani 1 1 d . . .
H39 H 1.2265 -0.0234 -0.1471 0.063 Uiso 1 1 calc R . .
C40 C 1.2105(8) -0.1074(3) -0.1550(6) 0.0546(18) Uani 1 1 d . . .
H40 H 1.3206 -0.1131 -0.1696 0.066 Uiso 1 1 calc R . .
C41 C 1.1076(7) -0.1525(3) -0.1453(5) 0.0444(14) Uani 1 1 d . . .
H41 H 1.1470 -0.1888 -0.1529 0.053 Uiso 1 1 calc R . .
C42 C 0.4328(10) 0.1086(3) -0.0340(5) 0.0507(17) Uani 1 1 d . . .
H42A H 0.3634 0.1055 0.0159 0.076 Uiso 1 1 calc R . .
H42B H 0.3618 0.1209 -0.0933 0.076 Uiso 1 1 calc R . .
H42C H 0.5238 0.1354 -0.0145 0.076 Uiso 1 1 calc R . .
C43 C 0.6088(9) 0.0984(3) 0.5835(5) 0.0506(16) Uani 1 1 d . . .
H43 H 0.6192 0.0662 0.5473 0.061 Uiso 1 1 calc R . .
C44 C 0.560(2) 0.1358(5) 0.7330(7) 0.110(5) Uani 1 1 d . . .
H44A H 0.6042 0.1693 0.7079 0.165 Uiso 1 1 calc R . .
H44B H 0.6288 0.1269 0.7951 0.165 Uiso 1 1 calc R . .
H44C H 0.4421 0.1416 0.7403 0.165 Uiso 1 1 calc R . .
C45 C 0.5415(19) 0.0378(6) 0.7065(8) 0.113(5) Uani 1 1 d . . .
H45A H 0.5682 0.0098 0.6620 0.169 Uiso 1 1 calc R . .
H45B H 0.4227 0.0341 0.7141 0.169 Uiso 1 1 calc R . .
H45C H 0.6154 0.0328 0.7684 0.169 Uiso 1 1 calc R . .
C47A C 1.000(2) 0.0434(7) 0.6410(12) 0.062(4) Uiso 0.50 1 d P A 1
H47D H 1.1047 0.0278 0.6262 0.094 Uiso 0.50 1 calc PR A 1
H47E H 0.9085 0.0394 0.5857 0.094 Uiso 0.50 1 calc PR A 1
H47F H 0.9682 0.0240 0.6955 0.094 Uiso 0.50 1 calc PR A 1
C48A C 1.071(3) 0.1417(10) 0.5901(15) 0.080(5) Uiso 0.50 1 d P A 1
H48D H 1.1088 0.1770 0.6196 0.120 Uiso 0.50 1 calc PR A 1
H48E H 0.9717 0.1475 0.5404 0.120 Uiso 0.50 1 calc PR A 1
H48F H 1.1631 0.1255 0.5619 0.120 Uiso 0.50 1 calc PR A 1

loop_
_atom_site_aniso_label
_atom_site_aniso_U_11
_atom_site_aniso_U_22
_atom_site_aniso_U_33
_atom_site_aniso_U_23
_atom_site_aniso_U_13
_atom_site_aniso_U_12
Cd1 0.03021(14) 0.02746(18) 0.02990(15) 0.00109(19) 0.00430(10) -0.00391(17)
O1 0.0286(15) 0.027(2) 0.0369(19) 0.0068(15) 0.0080(14) 0.0024(13)
N1 0.0270(18) 0.028(2) 0.034(2) -0.0023(18) 0.0054(16) -0.0039(16)
C1 0.027(2) 0.031(3) 0.025(2) -0.0059(19) 0.0054(17) -0.0027(18)
O2 0.0344(17) 0.034(2) 0.039(2) 0.0079(17) 0.0117(15) 0.0018(15)
N2 0.0271(19) 0.028(2) 0.042(2) -0.0073(19) -0.0008(17) 0.0042(16)
C2 0.033(2) 0.026(3) 0.028(2) 0.002(2) 0.0054(18) -0.0016(19)
O3 0.049(2) 0.034(2) 0.040(2) 0.0007(17) 0.0074(18) -0.0031(17)
N3 0.032(2) 0.032(3) 0.028(2) -0.005(2) 0.0031(18) -0.0014(18)
C3 0.029(2) 0.025(3) 0.025(2) -0.0024(19) 0.0049(17) 0.0005(18)
O4 0.087(3) 0.033(3) 0.040(2) -0.0062(18) 0.017(2) -0.007(2)
N4 0.056(3) 0.059(4) 0.054(4) 0.006(3) -0.005(3) 0.002(3)
C4 0.030(2) 0.030(3) 0.025(2) -0.006(2) 0.0045(17) -0.0028(18)
O5 0.047(2) 0.038(2) 0.0297(19) -0.0070(17) 0.0031(16) 0.0149(17)
N5 0.100(5) 0.032(3) 0.023(2) 0.000(2) -0.002(3) -0.001(3)
C5 0.033(2) 0.028(3) 0.026(2) 0.001(2) 0.0038(18) -0.0001(19)
O6 0.058(2) 0.039(3) 0.032(2) 0.0012(18) 0.0037(17) 0.022(2)
N6 0.033(2) 0.069(4) 0.050(3) -0.022(3) 0.010(2) -0.011(2)
C6 0.028(2) 0.030(3) 0.029(2) -0.005(2) 0.0048(17) 0.0011(18)
O7 0.0354(17) 0.0228(19) 0.0373(19) -0.0020(15) 0.0109(14) -0.0009(14)
C7 0.031(2) 0.033(3) 0.029(2) -0.004(2) 0.0035(18) 0.003(2)
O8 0.0352(18) 0.033(2) 0.037(2) 0.0014(17) -0.0036(15) 0.0057(15)
C8 0.024(2) 0.036(3) 0.031(2) 0.000(2) -0.0004(17) 0.0052(19)
O9 0.0372(18) 0.029(2) 0.0347(19) -0.0042(16) 0.0070(15) -0.0034(15)
C9 0.030(2) 0.036(3) 0.029(2) 0.000(2) 0.0046(18) 0.005(2)
O10 0.122(6) 0.074(5) 0.059(4) 0.009(3) 0.019(4) 0.031(4)
C10 0.030(2) 0.036(3) 0.037(3) 0.000(2) 0.002(2) 0.001(2)
O11 0.073(3) 0.049(3) 0.051(3) 0.004(2) -0.004(2) -0.012(3)
C11 0.042(3) 0.038(4) 0.030(3) -0.004(2) 0.003(2) 0.006(2)
O12 0.080(4) 0.053(3) 0.047(3) -0.007(2) 0.016(2) 0.005(3)
C12 0.037(2) 0.032(3) 0.031(2) 0.002(2) 0.003(2) 0.007(2)
O13 0.178(8) 0.044(4) 0.046(3) -0.011(3) 0.013(4) 0.019(4)
C13 0.026(2) 0.031(3) 0.031(2) -0.001(2) 0.0001(18) 0.0051(18)
O14 0.040(2) 0.060(3) 0.060(3) -0.023(2) 0.016(2) -0.011(2)
C14 0.025(2) 0.037(3) 0.031(3) 0.004(2) 0.0060(18) 0.004(2)
O15 0.0404(19) 0.059(4) 0.050(2) -0.003(2) 0.0121(16) -0.014(2)
C15 0.029(2) 0.031(3) 0.033(3) 0.000(2) 0.0097(18) -0.0002(19)
O16 0.046(3) 0.123(6) 0.112(5) -0.054(5) 0.041(3) -0.013(3)
C16 0.032(2) 0.028(3) 0.038(3) 0.001(2) 0.012(2) 0.0054(19)
C17 0.035(2) 0.030(3) 0.027(2) 0.001(2) 0.0056(18) 0.003(2)
C18 0.036(2) 0.031(3) 0.034(3) 0.001(2) 0.011(2) 0.007(2)
C19 0.036(2) 0.026(3) 0.035(3) 0.003(2) 0.012(2) 0.005(2)
C20 0.029(2) 0.035(3) 0.036(3) -0.005(2) 0.0114(19) -0.005(2)
C21 0.031(2) 0.030(3) 0.029(2) -0.003(2) 0.0076(19) -0.0040(