
#######################################################################
#
#                 Cambridge Crystallographic Data Centre
#                                CCDC
#
#######################################################################
#
# If this CIF has been generated from an entry in the Cambridge
# Structural Database, then it will include bibliographic, chemical,
# crystal, experimental, refinement or atomic coordinate data resulting
# from the CCDC's data processing and validation procedures.
#
#######################################################################

data_CSD_CIF_REJXAG
_audit_creation_date 2006-10-20
_audit_creation_method CSD-ConQuest-V1
_database_code_CSD REJXAG
_database_code_depnum_ccdc_archive 'CCDC 617211'
_chemical_formula_sum 'C128 H56 N5 Ni1 Sc3'
_chemical_formula_moiety
;
C80 N1 Sc3,C36 H44 N4 Ni1,2(C6 H6)
;
_journal_coden_Cambridge 4
_journal_volume 128
_journal_year 2006
_journal_page_first 8581
_journal_name_full 'J.Am.Chem.Soc. '
loop_
_publ_author_name
"Ting Cai"
"Liaosa Xu"
"M.R.Anderson"
"Zhongxin Ge"
"Tianming Zuo"
"Xuelei Wang"
"M.M.Olmstead"
"A.L.Balch"
"H.W.Gibson"
"H.C.Dorn"
_chemical_name_systematic
;
(\m~3~-\h^2^,\h^2^,\h^2^-C80fullerene)-(\m~3~-nitrido)-tri-scandium 
(2,3,7,8,12,13,17,18-octaethylporphyrinato)-nickel benzene solvate
;
_chemical_name_common
;
Teaching Subset: Fundamental Chemistry, Symmetry
;
_cell_volume   3733.661
_exptl_crystal_colour 'black'
_exptl_crystal_density_diffrn 1.652
_exptl_crystal_description 'parallelepiped'
_diffrn_ambient_temperature 90
#These two values have been output from a single CSD field.
_refine_ls_R_factor_gt 0.0524
_refine_ls_wR_factor_gt 0.0524
_symmetry_cell_setting triclinic
_symmetry_space_group_name_H-M 'P -1'
_symmetry_Int_Tables_number 2
loop_
_symmetry_equiv_pos_site_id
_symmetry_equiv_pos_as_xyz
1 x,y,z
2 -x,-y,-z
_cell_length_a 14.505(3)
_cell_length_b 14.878(3)
_cell_length_c 19.855(4)
_cell_angle_alpha 85.052(3)
_cell_angle_beta 86.758(3)
_cell_angle_gamma 61.016(3)
_cell_formula_units_Z 2
loop_
_atom_type_symbol
_atom_type_radius_bond
C 0.68
H 0.23
N 0.68
Ni 1.50
Sc 1.28
loop_
_atom_site_label
_atom_site_type_symbol
_atom_site_fract_x
_atom_site_fract_y
_atom_site_fract_z
Sc1 Sc 0.23645(5) 0.41373(4) 0.25084(3)
Sc2 Sc 0.21720(4) 0.25366(4) 0.13794(3)
Sc3 Sc 0.46312(4) 0.22046(5) 0.21056(3)
N1 N 0.30489(17) 0.29099(16) 0.19419(10)
C1 C 0.4099(3) 0.2414(3) -0.00696(15)
C2 C 0.5026(2) 0.2319(2) 0.02317(14)
C3 C 0.4839(2) 0.3333(3) 0.03388(15)
C4 C 0.3819(2) 0.4045(2) 0.01073(14)
C5 C 0.3352(2) 0.3489(2) -0.01461(13)
C6 C 0.2252(3) 0.3848(3) -0.00687(14)
C7 C 0.1924(2) 0.3081(2) 0.00490(14)
C8 C 0.2679(3) 0.1993(3) 0.01220(14)
C9 C 0.3783(3) 0.1660(2) 0.00825(14)
C10 C 0.4435(3) 0.0761(2) 0.04933(16)
C11 C 0.5359(2) 0.0664(2) 0.07845(15)
C12 C 0.5635(2) 0.1460(3) 0.06847(16)
C13 C 0.6112(2) 0.1615(3) 0.12277(16)
C14 C 0.5911(2) 0.2649(2) 0.13426(16)
C15 C 0.5252(2) 0.3531(3) 0.09180(15)
C16 C 0.4662(2) 0.4466(2) 0.12104(16)
C17 C 0.3623(2) 0.5197(2) 0.09711(15)
C18 C 0.3172(2) 0.4979(2) 0.04428(14)
C19 C 0.2085(2) 0.5350(2) 0.04622(14)
C20 C 0.1621(2) 0.4786(2) 0.02061(14)
C21 C 0.0705(2) 0.4949(2) 0.06364(15)
C22 C 0.0420(2) 0.4168(2) 0.07964(15)
C23 C 0.0997(3) 0.3232(3) 0.04347(15)
C24 C 0.1142(3) 0.2246(3) 0.07081(16)
C25 C 0.2202(3) 0.1481(2) 0.05437(15)
C26 C 0.2871(3) 0.0648(2) 0.10346(16)
C27 C 0.3981(3) 0.0277(2) 0.09555(16)
C28 C 0.4660(3) -0.0152(2) 0.15326(17)
C29 C 0.5477(3) 0.0110(2) 0.14516(17)
C30 C 0.5903(2) 0.0308(2) 0.20154(16)
C31 C 0.6339(2) 0.1002(2) 0.18785(16)
C32 C 0.6300(2) 0.1664(2) 0.23778(16)
C33 C 0.5988(2) 0.2686(2) 0.20519(16)
C34 C 0.5278(2) 0.3627(3) 0.23593(15)
C35 C 0.4676(2) 0.4524(2) 0.19324(16)
C36 C 0.3666(3) 0.5315(2) 0.21200(16)
C37 C 0.2993(3) 0.5712(2) 0.15477(16)
C38 C 0.1896(2) 0.6009(2) 0.16088(15)
C39 C 0.1445(2) 0.5878(2) 0.10370(15)
C40 C 0.0594(2) 0.5644(2) 0.11132(15)
C41 C 0.0194(2) 0.5583(2) 0.17545(15)
C42 C 0.0591(2) 0.5759(2) 0.23458(17)
C43 C 0.1433(3) 0.5985(2) 0.22963(16)
C44 C 0.2108(2) 0.5648(2) 0.28867(15)
C45 C 0.3224(3) 0.5258(2) 0.27481(16)
C46 C 0.3802(2) 0.4358(2) 0.32049(14)
C47 C 0.4810(2) 0.3551(2) 0.30206(15)
C48 C 0.5095(2) 0.2566(2) 0.33410(15)
C49 C 0.5812(2) 0.1630(2) 0.30143(16)
C50 C 0.5420(2) 0.0921(2) 0.31703(15)
C51 C 0.5443(2) 0.0256(2) 0.26915(16)
C52 C 0.4629(2) -0.0037(2) 0.27511(16)
C53 C 0.4247(3) -0.0225(2) 0.21729(16)
C54 C 0.3139(3) 0.0121(2) 0.22578(16)
C55 C 0.2450(3) 0.0582(2) 0.17031(17)
C56 C 0.1384(2) 0.1361(2) 0.18525(16)
C57 C 0.0743(2) 0.2196(3) 0.13837(15)
C58 C 0.0174(2) 0.3102(2) 0.17439(16)
C59 C -0.0002(2) 0.4100(2) 0.14735(15)
C60 C -0.0133(2) 0.4819(2) 0.19341(15)
C61 C 0.0038(2) 0.4538(2) 0.26459(15)
C62 C 0.0483(2) 0.5112(2) 0.29128(15)
C63 C 0.1195(2) 0.4689(2) 0.34581(15)
C64 C 0.2017(3) 0.4989(2) 0.34563(15)
C65 C 0.3041(3) 0.4215(2) 0.36267(14)
C66 C 0.3315(2) 0.3169(2) 0.38899(13)
C67 C 0.4344(2) 0.2383(2) 0.37597(13)
C68 C 0.4545(2) 0.1367(2) 0.36516(14)
C69 C 0.3699(2) 0.1139(2) 0.36751(14)
C70 C 0.3769(2) 0.0409(2) 0.32344(15)
C71 C 0.2842(2) 0.0504(2) 0.29327(16)
C72 C 0.1833(2) 0.1339(2) 0.30673(15)
C73 C 0.1102(2) 0.1740(2) 0.25352(16)
C74 C 0.0346(2) 0.2823(3) 0.24578(16)
C75 C 0.0309(2) 0.3524(2) 0.29126(15)
C76 C 0.0992(2) 0.3114(3) 0.34717(15)
C77 C 0.1440(2) 0.3682(2) 0.37174(14)
C78 C 0.2499(2) 0.2926(2) 0.39556(13)
C79 C 0.2678(3) 0.1926(2) 0.38526(13)
C80 C 0.1744(2) 0.2030(2) 0.35516(14)
Ni1 Ni 0.48533(3) 0.47920(2) 0.416967(16)
N2 N 0.35171(16) 0.60980(15) 0.4112(1)
N3 N 0.54317(16) 0.52969(15) 0.3407(1)
N4 N 0.61584(16) 0.34666(16) 0.42052(10)
N5 N 0.42477(16) 0.42630(15) 0.49012(10)
C81 C 0.2604(2) 0.6365(2) 0.44873(13)
C82 C 0.1775(2) 0.73713(19) 0.42680(13)
C83 C 0.2186(2) 0.77383(19) 0.37494(13)
C84 C 0.3267(2) 0.69433(19) 0.36657(13)
C85 C 0.3952(2) 0.7025(2) 0.31778(12)
H1 H 0.37180 0.76620 0.29180
C86 C 0.4947(2) 0.62446(19) 0.30479(12)
C87 C 0.5607(2) 0.6300(2) 0.24918(12)
C88 C 0.6503(2) 0.5393(2) 0.25163(12)
C89 C 0.6402(2) 0.4773(2) 0.30886(12)
C90 C 0.7166(2) 0.37936(19) 0.32787(13)
H2 H 0.78160 0.35250 0.30330
C91 C 0.7063(2) 0.3169(2) 0.37979(13)
C92 C 0.7857(2) 0.2131(2) 0.39712(13)
C93 C 0.7441(2) 0.17689(19) 0.44909(13)
C94 C 0.6398(2) 0.25997(19) 0.46241(13)
C95 C 0.5710(2) 0.2520(2) 0.51047(12)
H3 H 0.59520 0.18910 0.53740
C96 C 0.4706(2) 0.32830(19) 0.52197(12)
C97 C 0.3971(2) 0.3165(2) 0.56977(12)
C98 C 0.3069(2) 0.4073(2) 0.56726(12)
C99 C 0.3240(2) 0.47558(19) 0.51776(12)
C100 C 0.2487(2) 0.57346(19) 0.49930(12)
H4 H 0.18310 0.60010 0.52320
C101 C 0.0670(2) 0.7861(2) 0.45500(14)
H5 H 0.03130 0.86060 0.44110
H6 H 0.06950 0.77870 0.50500
C102 C 0.0025(2) 0.7382(2) 0.43118(15)
H7 H -0.06860 0.77250 0.45110
H8 H 0.03690 0.66460 0.44550
H9 H -0.00180 0.74680 0.38180
C103 C 0.1660(2) 0.8715(2) 0.33115(13)
H10 H 0.21370 0.90180 0.32460
H11 H 0.10120 0.92120 0.35450
C104 C 0.1369(2) 0.8556(2) 0.26183(14)
H12 H 0.10270 0.92180 0.23530
H13 H 0.08840 0.82700 0.26780
H14 H 0.20090 0.80780 0.23800
C105 C 0.5272(2) 0.7202(2) 0.19814(13)
H15 H 0.59010 0.71420 0.17230
H16 H 0.49700 0.78430 0.22220
C106 C 0.4459(2) 0.7284(2) 0.14863(13)
H17 H 0.42730 0.78840 0.11670
H18 H 0.38260 0.73620 0.17370
H19 H 0.47570 0.66590 0.12380
C107 C 0.7424(2) 0.5012(2) 0.20305(13)
H20 H 0.80820 0.46030 0.22880
H21 H 0.74560 0.56110 0.17950
C108 C 0.7367(2) 0.4354(2) 0.15066(13)
H22 H 0.79880 0.41240 0.12060
H23 H 0.67280 0.47600 0.12410
H24 H 0.73470 0.37520 0.17360
C109 C 0.8907(2) 0.1581(2) 0.36237(14)
H25 H 0.93920 0.09940 0.39260
H26 H 0.92040 0.20570 0.35410
C110 C 0.8853(2) 0.1183(2) 0.29537(14)
H27 H 0.95600 0.08350 0.27480
H28 H 0.83840 0.17620 0.26490
H29 H 0.85800 0.06950 0.30330
C111 C 0.7906(2) 0.0717(2) 0.48522(14)
H30 H 0.77400 0.07920 0.53410
H31 H 0.86820 0.03740 0.47950
C112 C 0.7497(2) 0.0031(2) 0.45957(16)
H32 H 0.78330 -0.06450 0.48450
H33 H 0.76660 -0.00540 0.41130
H34 H 0.67320 0.03540 0.46660
C113 C 0.4192(2) 0.21716(19) 0.60837(13)
H35 H 0.37250 0.23210 0.64890
H36 H 0.49310 0.18160 0.62380
C114 C 0.4020(2) 0.1462(2) 0.56553(14)
H37 H 0.41730 0.08230 0.59240
H38 H 0.44910 0.13020 0.52580
H39 H 0.32870 0.18060 0.55090
C115 C 0.2028(2) 0.4349(2) 0.60227(13)
H40 H 0.17060 0.50660 0.61580
H41 H 0.21480 0.38910 0.64380
C116 C 0.1269(2) 0.4249(2) 0.55705(14)
H42 H 0.06000 0.44400 0.58150
H43 H 0.15770 0.35360 0.54450
H44 H 0.11410 0.47080 0.51610
C117 C 0.7804(3) 0.1943(3) -0.0187(2)
H45 H 0.73880 0.24200 -0.05390
C118 C 0.9018(4) 0.0622(4) 0.0809(3)
H46 H 0.94430 0.01510 0.11600
C119 C 0.8734(5) 0.0262(4) 0.0288(3)
H47 H 0.89690 -0.04540 0.02760
C120 C 0.8110(3) 0.0944(3) -0.0214(2)
H48 H 0.78980 0.07090 -0.05740
C121 C 0.8083(3) 0.2288(3) 0.03373(18)
H49 H 0.78350 0.30050 0.03560
C122 C 0.8705(3) 0.1626(3) 0.08309(19)
H50 H 0.89180 0.18670 0.11880
C123 C 0.8036(2) -0.2038(2) 0.28016(15)
H51 H 0.79070 -0.21180 0.32720
C124 C 0.7649(2) -0.2409(2) 0.23446(14)
H52 H 0.72590 -0.27480 0.25010
C125 C 0.7825(2) -0.2293(2) 0.16572(14)
H53 H 0.75540 -0.25450 0.13400
C126 C 0.8399(3) -0.1807(3) 0.14423(16)
H54 H 0.85280 -0.17250 0.09730
C127 C 0.8785(3) -0.1441(3) 0.18992(18)
H55 H 0.91800 -0.11050 0.17430
C128 C 0.8609(3) -0.1552(2) 0.25811(17)
H56 H 0.88790 -0.12970 0.28960
#END
