####################################################################### 
# 
# This file contains crystal structure data downloaded from the 
# Cambridge Structural Database (CSD) hosted by the Cambridge 
# Crystallographic Data Centre (CCDC).
# 
# Full information about CCDC data access policies and citation 
# guidelines are available at http://www.ccdc.cam.ac.uk/access/V1 
# 
# Audit and citation data items may have been added by the CCDC. 
# Please retain this information to preserve the provenance of 
# this file and to allow appropriate attribution of the data. 
# 
#######################################################################

data_C3(II)
_audit_block_doi                 10.5517/cczl37w
_database_code_depnum_ccdc_archive 'CCDC 911128'
loop_
_citation_id
_citation_doi
_citation_year
1 10.1021/ic301286w 2012
_audit_update_record             
;
2012-11-16 deposited with the CCDC.	2024-07-12 downloaded from the CCDC.
;

_audit_creation_method           SHELXL-97
_chemical_name_systematic        
;
?
;
_chemical_name_common            ?
_chemical_melting_point          ?
_chemical_formula_moiety         'C40 H36 CU N4 , P F6'
_chemical_formula_sum            'C40 H36 Cu F6 N4 P'
_chemical_formula_weight         781.24

loop_
_atom_type_symbol
_atom_type_description
_atom_type_scat_dispersion_real
_atom_type_scat_dispersion_imag
_atom_type_scat_source
C C 0.0033 0.0016 'International Tables Vol C Tables 4.2.6.8 and 6.1.1.4'
H H 0.0000 0.0000 'International Tables Vol C Tables 4.2.6.8 and 6.1.1.4'
N N 0.0061 0.0033 'International Tables Vol C Tables 4.2.6.8 and 6.1.1.4'
F F 0.0171 0.0103 'International Tables Vol C Tables 4.2.6.8 and 6.1.1.4'
P P 0.1023 0.0942 'International Tables Vol C Tables 4.2.6.8 and 6.1.1.4'
Cu Cu 0.3201 1.2651 'International Tables Vol C Tables 4.2.6.8 and 6.1.1.4'

_symmetry_cell_setting           monoclinic
_symmetry_space_group_name_H-M   'P 21/n'

loop_
_symmetry_equiv_pos_as_xyz
'x, y, z'
'x+1/2, -y+1/2, z+1/2'
'-x, -y, -z'
'-x-1/2, y-1/2, -z-1/2'

_cell_length_a                   14.5479(7)
_cell_length_b                   36.7355(17)
_cell_length_c                   16.9674(8)
_cell_angle_alpha                90.00
_cell_angle_beta                 95.5470(10)
_cell_angle_gamma                90.00
_cell_volume                     9025.3(7)
_cell_formula_units_Z            8
_cell_measurement_temperature    172(2)
_cell_measurement_reflns_used    8192
_cell_measurement_theta_min      3
_cell_measurement_theta_max      23

_exptl_crystal_description       block
_exptl_crystal_colour            red
_exptl_crystal_size_max          0.80
_exptl_crystal_size_mid          0.80
_exptl_crystal_size_min          0.50
_exptl_crystal_density_meas      ?
_exptl_crystal_density_diffrn    1.150
_exptl_crystal_density_method    'not measured'
_exptl_crystal_F_000             3216
_exptl_absorpt_coefficient_mu    0.573
_exptl_absorpt_correction_type   multi-scan
_exptl_absorpt_correction_T_min  0.600
_exptl_absorpt_correction_T_max  0.751
_exptl_absorpt_process_details   'SADABS (Sheldrick, 2000)'

_exptl_special_details           
;
?
;

_diffrn_ambient_temperature      172(2)
_diffrn_radiation_wavelength     0.71073
_diffrn_radiation_type           MoK\a
_diffrn_radiation_source         'normal-focus sealed tube'
_diffrn_radiation_monochromator  graphite
_diffrn_measurement_device_type  SIEMENS_SMART_CCD
_diffrn_measurement_method       \w
_diffrn_detector_area_resol_mean ?
_diffrn_standards_number         665
_diffrn_standards_interval_count ?
_diffrn_standards_interval_time  1600
_diffrn_standards_decay_%        0.0
_diffrn_reflns_number            73883
_diffrn_reflns_av_R_equivalents  0.1854
_diffrn_reflns_av_sigmaI/netI    0.3223
_diffrn_reflns_limit_h_min       -17
_diffrn_reflns_limit_h_max       17
_diffrn_reflns_limit_k_min       -44
_diffrn_reflns_limit_k_max       43
_diffrn_reflns_limit_l_min       -20
_diffrn_reflns_limit_l_max       20
_diffrn_reflns_theta_min         1.33
_diffrn_reflns_theta_max         25.35
_reflns_number_total             15740
_reflns_number_gt                5230
_reflns_threshold_expression     I>2sigma(I)

_computing_data_collection       'SMART (Siemens, 1995)'
_computing_cell_refinement       'SAINT (Siemens, 1995)'
_computing_data_reduction        'SAINT (Siemens, 1995)'
_computing_structure_solution    'SHELXS-97 (Sheldrick, 1997)'
_computing_structure_refinement  'SHELXL-97 (Sheldrick, 1997)'
_computing_molecular_graphics    ?
_computing_publication_material  'SHELXL-97 (Sheldrick, 1997)'

_refine_special_details          
;
Refinement of F^2^ against ALL reflections. The weighted R-factor wR and
goodness of fit S are based on F^2^, conventional R-factors R are based
on F, with F set to zero for negative F^2^. The threshold expression of
F^2^ > 2sigma(F^2^) is used only for calculating R-factors(gt) etc. and is
not relevant to the choice of reflections for refinement. R-factors based
on F^2^ are statistically about twice as large as those based on F, and R-
factors based on ALL data will be even larger.
;

_refine_ls_structure_factor_coef Fsqd
_refine_ls_matrix_type           full
_refine_ls_weighting_scheme      calc
_refine_ls_weighting_details     
'calc w=1/[\s^2^(Fo^2^)+(0.10P)^2^] where P=(Fo^2^+2Fc^2^)/3'
_atom_sites_solution_primary     direct
_atom_sites_solution_secondary   difmap
_atom_sites_solution_hydrogens   geom
_refine_ls_hydrogen_treatment    constr
_refine_ls_extinction_method     none
_refine_ls_extinction_coef       ?
_refine_ls_number_reflns         15740
_refine_ls_number_parameters     886
_refine_ls_number_restraints     0
_refine_ls_R_factor_all          0.2568
_refine_ls_R_factor_gt           0.1281
_refine_ls_wR_factor_ref         0.3082
_refine_ls_wR_factor_gt          0.2833
_refine_ls_goodness_of_fit_ref   1.093
_refine_ls_restrained_S_all      1.093
_refine_ls_shift/su_max          0.001
_refine_ls_shift/su_mean         0.000

loop_
_atom_site_label
_atom_site_type_symbol
_atom_site_fract_x
_atom_site_fract_y
_atom_site_fract_z
_atom_site_U_iso_or_equiv
_atom_site_adp_type
_atom_site_occupancy
_atom_site_symmetry_multiplicity
_atom_site_calc_flag
_atom_site_refinement_flags
_atom_site_disorder_assembly
_atom_site_disorder_group
Cu1 Cu 0.78474(8) 0.11167(3) 0.73421(7) 0.0486(4) Uani 1 1 d . . .
Cu2 Cu 0.31270(9) 0.08452(3) 0.19575(7) 0.0517(4) Uani 1 1 d . . .
P1 P -0.7930(3) -0.01787(12) -0.2972(3) 0.0844(12) Uani 1 1 d . . .
C45 C 0.1169(9) 0.1088(5) 0.3906(10) 0.122(6) Uani 1 1 d . . .
H45A H 0.0972 0.1329 0.4005 0.147 Uiso 1 1 calc R . .
N7 N 0.2743(5) 0.3289(2) 0.2310(5) 0.039(2) Uani 1 1 d . . .
N8 N 0.2875(7) 0.1417(3) 0.1956(6) 0.070(3) Uani 1 1 d . . .
C22 C 0.6185(6) 0.0969(3) 0.8516(5) 0.028(2) Uani 1 1 d . . .
C10 C 0.7118(7) 0.1007(2) 0.8967(6) 0.040(3) Uani 1 1 d . . .
N4 N 0.3304(6) 0.0677(2) 0.0869(5) 0.038(2) Uani 1 1 d . . .
N5 N 0.7005(5) 0.0972(2) 0.6451(5) 0.036(2) Uani 1 1 d . . .
C7 C 0.8841(7) 0.0979(2) 0.9758(6) 0.040(3) Uani 1 1 d . . .
C63 C 0.5774(8) 0.0865(3) 0.5123(6) 0.056(3) Uani 1 1 d . . .
C41 C 0.2601(8) 0.0456(3) 0.0571(6) 0.044(3) Uani 1 1 d . . .
C12 C 0.9459(6) 0.0998(2) 0.8427(5) 0.023(2) Uani 1 1 d . . .
C43 C 0.1446(7) 0.0585(4) 0.3079(8) 0.063(4) Uani 1 1 d . . .
C11 C 0.8695(7) 0.0993(2) 0.8892(6) 0.042(3) Uani 1 1 d . . .
C62 C 0.5486(9) 0.1020(4) 0.5757(8) 0.095(5) Uani 1 1 d . . .
H62A H 0.4865 0.1098 0.5768 0.114 Uiso 1 1 calc R . .
C9 C 0.7254(7) 0.0995(3) 0.9808(6) 0.050(3) Uani 1 1 d . . .
H9A H 0.6742 0.0990 1.0116 0.059 Uiso 1 1 calc R . .
N1 N 0.9245(5) 0.1034(2) 0.7650(5) 0.042(2) Uani 1 1 d . . .
N2 N 0.7828(5) 0.10068(18) 0.8536(5) 0.037(2) Uani 1 1 d . . .
C35 C 0.1320(9) -0.0052(3) 0.0007(8) 0.060(3) Uani 1 1 d . . .
H35A H 0.0933 -0.0253 -0.0146 0.072 Uiso 1 1 calc R . .
C75 C 0.2329(8) 0.3122(3) 0.1642(7) 0.067(3) Uani 1 1 d . . .
H75A H 0.2005 0.3263 0.1236 0.080 Uiso 1 1 calc R . .
C79 C 0.2163(8) 0.1944(3) 0.1665(7) 0.065(3) Uani 1 1 d . . .
H79A H 0.1641 0.2067 0.1411 0.078 Uiso 1 1 calc R . .
C38 C 0.3257(11) 0.0439(4) -0.0716(9) 0.091(4) Uani 1 1 d . . .
H38A H 0.3231 0.0367 -0.1255 0.109 Uiso 1 1 calc R . .
F1 F -0.6910(4) -0.0073(2) -0.2583(4) 0.107(3) Uani 1 1 d . . .
C65 C 0.7295(8) 0.0880(4) 0.5785(8) 0.099(5) Uani 1 1 d . . .
H65A H 0.7940 0.0853 0.5756 0.118 Uiso 1 1 calc R . .
C8 C 0.8118(7) 0.0989(3) 1.0154(6) 0.050(3) Uani 1 1 d . . .
H8A H 0.8209 0.0994 1.0715 0.059 Uiso 1 1 calc R . .
C61 C 0.6141(10) 0.1063(4) 0.6415(7) 0.088(4) Uani 1 1 d . . .
H61A H 0.5931 0.1169 0.6875 0.106 Uiso 1 1 calc R . .
C4 C 1.0401(7) 0.0962(3) 0.8790(7) 0.049(3) Uani 1 1 d . . .
C13 C 0.9663(7) 0.1118(4) 0.6284(7) 0.052(3) Uani 1 1 d . . .
C78 C 0.2854(8) 0.2144(3) 0.2078(7) 0.067(4) Uani 1 1 d . . .
C44 C 0.1004(9) 0.0930(5) 0.3137(8) 0.088(5) Uani 1 1 d . . .
C66 C 0.3688(7) 0.0932(3) 0.3589(7) 0.060(3) Uani 1 1 d . . .
H66A H 0.3092 0.1040 0.3563 0.072 Uiso 1 1 calc R . .
C31 C 0.1403(9) 0.0413(4) 0.2320(9) 0.078(4) Uani 1 1 d . . .
C5 C 1.0525(8) 0.0949(3) 0.9615(7) 0.061(3) Uani 1 1 d . . .
H5A H 1.1135 0.0931 0.9868 0.073 Uiso 1 1 calc R . .
C47 C 0.1999(10) 0.0589(6) 0.4407(13) 0.117(7) Uani 1 1 d . . .
H47A H 0.2379 0.0503 0.4856 0.140 Uiso 1 1 calc R . .
C42 C 0.1966(7) 0.0354(2) 0.1048(7) 0.039(3) Uani 1 1 d . . .
C16 C 0.9079(8) 0.1240(5) 0.4750(7) 0.080(4) Uani 1 1 d . . .
C74 C 0.2386(9) 0.2753(4) 0.1565(9) 0.094(5) Uani 1 1 d . . .
H74A H 0.2166 0.2640 0.1079 0.113 Uiso 1 1 calc R . .
C72 C 0.3165(8) 0.2712(3) 0.2858(6) 0.052(3) Uani 1 1 d . . .
H72A H 0.3485 0.2586 0.3292 0.062 Uiso 1 1 calc R . .
F2 F -0.8941(5) -0.0297(2) -0.3307(5) 0.134(3) Uani 1 1 d . . .
C80 C 0.2214(9) 0.1569(3) 0.1614(7) 0.071(4) Uani 1 1 d . . .
H80A H 0.1741 0.1434 0.1319 0.086 Uiso 1 1 calc R . .
C25 C 0.4479(7) 0.0948(4) 0.7729(7) 0.062(3) Uani 1 1 d . . .
F3 F -0.8010(6) -0.0399(3) -0.2208(6) 0.148(3) Uani 1 1 d . . .
C54 C 0.5444(11) 0.1576(5) 0.1070(9) 0.108(5) Uani 1 1 d . . .
H54A H 0.5462 0.1833 0.1024 0.130 Uiso 1 1 calc R . .
C73 C 0.2766(7) 0.2541(3) 0.2194(6) 0.046(3) Uani 1 1 d . . .
C40 C 0.3913(7) 0.0773(3) 0.0393(7) 0.051(3) Uani 1 1 d . . .
C14 C 0.9547(7) 0.1478(4) 0.6097(7) 0.062(3) Uani 1 1 d . . .
C26 C 0.4960(7) 0.0637(3) 0.7818(6) 0.051(3) Uani 1 1 d . . .
H26A H 0.4709 0.0411 0.7629 0.061 Uiso 1 1 calc R . .
C76 C 0.3673(9) 0.1613(4) 0.2333(8) 0.081(4) Uani 1 1 d . . .
H76A H 0.4233 0.1488 0.2486 0.097 Uiso 1 1 calc R . .
C67 C 0.4257(8) 0.0967(3) 0.4290(6) 0.064(3) Uani 1 1 d . . .
H67A H 0.4036 0.1088 0.4730 0.077 Uiso 1 1 calc R . .
C69 C 0.5379(7) 0.0640(3) 0.3726(7) 0.056(3) Uani 1 1 d . . .
H69A H 0.5970 0.0529 0.3745 0.067 Uiso 1 1 calc R . .
C37 C 0.2635(8) 0.0314(3) -0.0278(8) 0.066(4) Uani 1 1 d . . .
C27 C 0.5851(7) 0.0663(3) 0.8203(6) 0.040(3) Uani 1 1 d . . .
C68 C 0.5121(7) 0.0831(3) 0.4352(6) 0.050(3) Uani 1 1 d . . .
F5 F -0.7542(5) -0.0546(2) -0.3331(5) 0.117(3) Uani 1 1 d . . .
C39 C 0.3936(8) 0.0669(4) -0.0428(8) 0.081(4) Uani 1 1 d . . .
H39A H 0.4396 0.0755 -0.0743 0.097 Uiso 1 1 calc R . .
C49 C 0.0449(8) 0.1092(4) 0.2516(7) 0.086(4) Uani 1 1 d . . .
H49A H -0.0040 0.0922 0.2319 0.128 Uiso 1 1 calc R . .
H49B H 0.0827 0.1153 0.2087 0.128 Uiso 1 1 calc R . .
H49C H 0.0171 0.1314 0.2707 0.128 Uiso 1 1 calc R . .
C56 C 0.6238(9) 0.1030(5) 0.1560(7) 0.086(4) Uani 1 1 d . . .
H56A H 0.6756 0.0919 0.1847 0.104 Uiso 1 1 calc R . .
C6 C 0.9829(8) 0.0961(3) 1.0058(6) 0.054(3) Uani 1 1 d . . .
H6A H 0.9975 0.0959 1.0616 0.065 Uiso 1 1 calc R . .
C23 C 0.5654(7) 0.1288(3) 0.8455(6) 0.049(3) Uani 1 1 d . . .
C53 C 0.4701(9) 0.1399(3) 0.0685(8) 0.064(3) Uani 1 1 d . . .
N3 N 0.2003(6) 0.0495(2) 0.1795(6) 0.046(2) Uani 1 1 d . . .
C29 C 0.3473(8) 0.0937(4) 0.7277(8) 0.101(5) Uani 1 1 d . . .
H29A H 0.3505 0.0843 0.6739 0.152 Uiso 1 1 calc R . .
H29B H 0.3214 0.1184 0.7249 0.152 Uiso 1 1 calc R . .
H29C H 0.3078 0.0778 0.7562 0.152 Uiso 1 1 calc R . .
C21 C 0.9752(8) 0.0464(4) 0.6006(7) 0.086(4) Uani 1 1 d . . .
H21A H 0.9625 0.0435 0.6560 0.130 Uiso 1 1 calc R . .
H21B H 1.0397 0.0401 0.5953 0.130 Uiso 1 1 calc R . .
H21C H 0.9346 0.0303 0.5670 0.130 Uiso 1 1 calc R . .
C19 C 0.9836(10) 0.1824(4) 0.6622(9) 0.121(6) Uani 1 1 d . . .
H19A H 0.9755 0.1772 0.7178 0.182 Uiso 1 1 calc R . .
H19B H 0.9446 0.2031 0.6442 0.182 Uiso 1 1 calc R . .
H19C H 1.0484 0.1884 0.6572 0.182 Uiso 1 1 calc R . .
C18 C 0.9581(8) 0.0845(5) 0.5760(8) 0.074(4) Uani 1 1 d . . .
C52 C 0.4759(6) 0.1000(3) 0.0741(5) 0.035(2) Uani 1 1 d . . .
F4 F -0.7797(8) -0.0011(4) -0.3714(7) 0.193(5) Uani 1 1 d . . .
C2 C 1.0850(10) 0.1021(4) 0.7494(10) 0.103(5) Uani 1 1 d . . .
H2A H 1.1334 0.1027 0.7157 0.123 Uiso 1 1 calc R . .
C28 C 0.5949(8) 0.1644(4) 0.8809(7) 0.082(4) Uani 1 1 d . . .
H28A H 0.5425 0.1813 0.8765 0.123 Uiso 1 1 calc R . .
H28B H 0.6449 0.1745 0.8526 0.123 Uiso 1 1 calc R . .
H28C H 0.6170 0.1610 0.9368 0.123 Uiso 1 1 calc R . .
C60 C 0.5582(9) 0.0375(4) 0.1145(8) 0.096(5) Uani 1 1 d . . .
H60A H 0.4967 0.0264 0.1113 0.144 Uiso 1 1 calc R . .
H60B H 0.5941 0.0296 0.1634 0.144 Uiso 1 1 calc R . .
H60C H 0.5898 0.0298 0.0688 0.144 Uiso 1 1 calc R . .
C36 C 0.1821(9) 0.0068(3) -0.0528(8) 0.077(4) Uani 1 1 d . . .
H36A H 0.1680 0.0004 -0.1068 0.092 Uiso 1 1 calc R . .
C32 C 0.0682(8) 0.0123(3) 0.2018(9) 0.076(4) Uani 1 1 d . . .
H32A H 0.0232 0.0039 0.2346 0.091 Uiso 1 1 calc R . .
C34 C 0.1276(7) 0.0071(3) 0.0751(9) 0.063(4) Uani 1 1 d . . .
C48 C 0.2016(11) 0.0353(6) 0.3799(11) 0.109(6) Uani 1 1 d . . .
F6 F -0.8361(6) 0.0139(2) -0.2537(5) 0.135(3) Uani 1 1 d . . .
C24 C 0.4782(8) 0.1284(4) 0.8047(7) 0.065(3) Uani 1 1 d . . .
H24A H 0.4411 0.1497 0.7987 0.077 Uiso 1 1 calc R . .
C3 C 1.1049(8) 0.0975(3) 0.8301(8) 0.068(4) Uani 1 1 d . . .
H3A H 1.1676 0.0952 0.8509 0.082 Uiso 1 1 calc R . .
C57 C 0.5486(9) 0.0811(4) 0.1145(8) 0.075(4) Uani 1 1 d . . .
C77 C 0.3609(10) 0.1966(4) 0.2461(9) 0.087(4) Uani 1 1 d . . .
H77A H 0.4061 0.2093 0.2799 0.104 Uiso 1 1 calc R . .
C58 C 0.3958(8) 0.1583(3) 0.0197(7) 0.071(4) Uani 1 1 d . . .
H58A H 0.4007 0.1846 0.0282 0.107 Uiso 1 1 calc R . .
H58B H 0.3360 0.1497 0.0345 0.107 Uiso 1 1 calc R . .
H58C H 0.4009 0.1528 -0.0362 0.107 Uiso 1 1 calc R . .
N6 N 0.3923(6) 0.0757(2) 0.2947(5) 0.055(3) Uani 1 1 d . . .
C20 C 0.8692(10) 0.1342(5) 0.3864(8) 0.156(8) Uani 1 1 d . . .
H20A H 0.8125 0.1204 0.3714 0.234 Uiso 1 1 calc R . .
H20B H 0.9156 0.1281 0.3503 0.234 Uiso 1 1 calc R . .
H20C H 0.8559 0.1603 0.3831 0.234 Uiso 1 1 calc R . .
C70 C 0.4732(7) 0.0612(2) 0.3034(6) 0.036(2) Uani 1 1 d . . .
H70A H 0.4918 0.0475 0.2602 0.043 Uiso 1 1 calc R . .
C71 C 0.3051(9) 0.3091(4) 0.2833(9) 0.084(4) Uani 1 1 d . . .
H71A H 0.3254 0.3212 0.3313 0.101 Uiso 1 1 calc R . .
C55 C 0.6148(11) 0.1413(5) 0.1507(8) 0.095(5) Uani 1 1 d . . .
C50 C 0.1812(12) 0.1093(6) 0.5395(11) 0.172(8) Uani 1 1 d . . .
H50A H 0.2067 0.0929 0.5816 0.258 Uiso 1 1 calc R . .
H50B H 0.1218 0.1189 0.5528 0.258 Uiso 1 1 calc R . .
H50C H 0.2242 0.1295 0.5340 0.258 Uiso 1 1 calc R . .
C17 C 0.9292(9) 0.0871(4) 0.4956(8) 0.084(4) Uani 1 1 d . . .
H17A H 0.9244 0.0672 0.4597 0.101 Uiso 1 1 calc R . .
C1 C 0.9906(8) 0.1061(3) 0.7168(6) 0.049(3) Uani 1 1 d . . .
C51 C 0.2433(12) -0.0003(5) 0.3595(10) 0.148(7) Uani 1 1 d . . .
H51A H 0.2483 -0.0162 0.4061 0.223 Uiso 1 1 calc R . .
H51B H 0.3048 0.0039 0.3424 0.223 Uiso 1 1 calc R . .
H51C H 0.2040 -0.0119 0.3165 0.223 Uiso 1 1 calc R . .
C30 C 0.6435(8) 0.0319(3) 0.8301(7) 0.078(4) Uani 1 1 d . . .
H30A H 0.6713 0.0301 0.8849 0.117 Uiso 1 1 calc R . .
H30B H 0.6923 0.0328 0.7942 0.117 Uiso 1 1 calc R . .
H30C H 0.6043 0.0106 0.8175 0.117 Uiso 1 1 calc R . .
C15 C 0.9254(8) 0.1577(4) 0.5262(8) 0.083(4) Uani 1 1 d . . .
H15A H 0.9185 0.1820 0.5072 0.099 Uiso 1 1 calc R . .
C64 C 0.6688(9) 0.0820(5) 0.5098(8) 0.138(7) Uani 1 1 d . . .
H64A H 0.6923 0.0746 0.4620 0.166 Uiso 1 1 calc R . .
C46 C 0.1659(11) 0.0866(6) 0.4549(9) 0.097(6) Uani 1 1 d . . .
C33 C 0.0708(10) -0.0005(4) 0.1298(9) 0.081(4) Uani 1 1 d . . .
H33A H 0.0246 -0.0181 0.1143 0.097 Uiso 1 1 calc R . .
C59 C 0.6927(14) 0.1659(6) 0.1965(11) 0.216(12) Uani 1 1 d . . .
H59A H 0.6719 0.1913 0.1964 0.323 Uiso 1 1 calc R . .
H59B H 0.7495 0.1642 0.1700 0.323 Uiso 1 1 calc R . .
H59C H 0.7047 0.1574 0.2512 0.323 Uiso 1 1 calc R . .

loop_
_atom_site_aniso_label
_atom_site_aniso_U_11
_atom_site_aniso_U_22
_atom_site_aniso_U_33
_atom_site_aniso_U_23
_atom_site_aniso_U_13
_atom_site_aniso_U_12
Cu1 0.0406(8) 0.0686(9) 0.0341(8) -0.0004(7) -0.0086(6) -0.0038(7)
Cu2 0.0536(9) 0.0631(9) 0.0358(8) -0.0057(7) -0.0086(6) -0.0179(7)
P1 0.080(3) 0.096(3) 0.074(3) -0.024(3) -0.013(2) 0.014(2)
C45 0.048(9) 0.24(2) 0.084(13) 0.004(14) 0.026(9) 0.008(11)
N7 0.032(5) 0.053(6) 0.027(5) -0.003(5) -0.016(4) -0.005(4)
N8 0.075(8) 0.072(7) 0.065(7) -0.017(6) 0.007(6) -0.014(6)
C22 0.027(6) 0.036(6) 0.021(5) -0.017(5) 0.004(4) 0.019(5)
C10 0.036(6) 0.042(6) 0.043(7) -0.026(5) 0.018(6) -0.019(5)
N4 0.027(5) 0.039(5) 0.047(6) 0.002(4) -0.005(5) 0.004(4)
N5 0.006(4) 0.052(5) 0.051(6) -0.012(5) 0.002(4) 0.004(4)
C7 0.034(7) 0.050(7) 0.038(7) -0.011(5) 0.010(6) -0.009(5)
C63 0.052(8) 0.084(9) 0.031(7) -0.032(6) 0.007(6) 0.003(6)
C41 0.061(8) 0.036(7) 0.032(7) 0.000(6) -0.011(6) 0.021(6)
C12 0.013(5) 0.030(5) 0.027(6) -0.003(4) 0.003(5) -0.005(4)
C43 0.024(6) 0.091(10) 0.073(10) 0.038(9) 0.005(7) 0.008(6)
C11 0.046(7) 0.033(6) 0.045(7) -0.019(5) -0.001(6) -0.010(5)
C62 0.056(9) 0.170(15) 0.054(9) 0.004(9) -0.017(7) 0.026(9)
C9 0.027(6) 0.079(8) 0.042(7) -0.016(6) -0.003(5) -0.007(5)
N1 0.023(5) 0.053(6) 0.051(6) -0.011(5) 0.007(5) -0.010(4)
N2 0.028(5) 0.028(5) 0.052(6) -0.005(4) -0.008(5) -0.010(4)
C35 0.088(10) 0.033(7) 0.052(9) -0.009(7) -0.028(8) -0.009(6)
C75 0.084(9) 0.035(8) 0.078(10) 0.005(7) -0.007(8) 0.008(6)
C79 0.071(9) 0.061(9) 0.062(9) 0.013(7) 0.003(7) 0.010(7)
C38 0.098(12) 0.095(11) 0.075(11) -0.028(9) -0.024(9) -0.012(9)