####################################################################### 
# 
# This file contains crystal structure data downloaded from the 
# Cambridge Structural Database (CSD) hosted by the Cambridge 
# Crystallographic Data Centre (CCDC).
# 
# Full information about CCDC data access policies and citation 
# guidelines are available at http://www.ccdc.cam.ac.uk/access/V1 
# 
# Audit and citation data items may have been added by the CCDC. 
# Please retain this information to preserve the provenance of 
# this file and to allow appropriate attribution of the data. 
# 
#######################################################################

data_b
_audit_block_doi                 10.5517/ccn7yc5
_database_code_depnum_ccdc_archive 'CCDC 603457'
loop_
_citation_id
_citation_doi
_citation_year
1 10.1002/anie.200601668 2006
_audit_update_record             
;
2006-04-03 deposited with the CCDC.	2024-07-12 downloaded from the CCDC.
;
_audit_creation_method           shelxl-97
_chemical_name_systematic        
;
?
;
_chemical_name_common            ?
_chemical_melting_point          'not measured'
_chemical_formula_moiety         'C132 H78 Cd11 N0 O48'
_chemical_formula_sum            'C132 H78 Cd11 N0 O48'
_chemical_formula_weight         3668.34
loop_
_atom_type_symbol
_atom_type_description
_atom_type_scat_dispersion_real
_atom_type_scat_dispersion_imag
_atom_type_scat_source
c c 0.0033 0.0016 'international tables vol c tables 4.2.6.8 and 6.1.1.4'
h h 0.0000 0.0000 'international tables vol c tables 4.2.6.8 and 6.1.1.4'
n n 0.0061 0.0033 'international tables vol c tables 4.2.6.8 and 6.1.1.4'
o o 0.0106 0.0060 'international tables vol c tables 4.2.6.8 and 6.1.1.4'
cd cd -0.8075 1.2024 'international tables vol c tables 4.2.6.8 and 6.1.1.4'
_symmetry_cell_setting           trigonal
_symmetry_space_group_name_h-m   r3c
loop_
_symmetry_equiv_pos_as_xyz
'x, y, z'
'-y, x-y, z'
'-x+y, -x, z'
'-y, -x, z+1/2'
'-x+y, y, z+1/2'
'x, x-y, z+1/2'
'x+2/3, y+1/3, z+1/3'
'-y+2/3, x-y+1/3, z+1/3'
'-x+y+2/3, -x+1/3, z+1/3'
'-y+2/3, -x+1/3, z+5/6'
'-x+y+2/3, y+1/3, z+5/6'
'x+2/3, x-y+1/3, z+5/6'
'x+1/3, y+2/3, z+2/3'
'-y+1/3, x-y+2/3, z+2/3'
'-x+y+1/3, -x+2/3, z+2/3'
'-y+1/3, -x+2/3, z+7/6'
'-x+y+1/3, y+2/3, z+7/6'
'x+1/3, x-y+2/3, z+7/6'
_cell_length_a                   31.936(5)
_cell_length_b                   31.936(5)
_cell_length_c                   42.607(9)
_cell_angle_alpha                90.00
_cell_angle_beta                 90.00
_cell_angle_gamma                120.00
_cell_volume                     37634(11)
_cell_formula_units_z            6
_cell_measurement_temperature    298(2)
_cell_measurement_reflns_used    ?
_cell_measurement_theta_min      ?
_cell_measurement_theta_max      ?
_exptl_crystal_description       block
_exptl_crystal_colour            colorless
_exptl_crystal_size_max          0.40
_exptl_crystal_size_mid          0.40
_exptl_crystal_size_min          0.38
_exptl_crystal_density_meas      ?
_exptl_crystal_density_diffrn    0.971
_exptl_crystal_density_method    'not measured'
_exptl_crystal_f_000             10692
_exptl_absorpt_coefficient_mu    0.958
_exptl_absorpt_correction_type   none
_exptl_absorpt_correction_t_min  ?
_exptl_absorpt_correction_t_max  ?
_exptl_absorpt_process_details   ?
_exptl_special_details           
;
?
;
_diffrn_ambient_temperature      298(2)
_diffrn_radiation_wavelength     0.71073
_diffrn_radiation_type           mok\a
_diffrn_radiation_source         'fine-focus sealed tube'
_diffrn_radiation_monochromator  graphite
_diffrn_measurement_device_type  'ccd area detector'
_diffrn_measurement_method       'phi and omega scans'
_diffrn_detector_area_resol_mean 6.00cm
_diffrn_standards_number         none
_diffrn_standards_interval_count none
_diffrn_standards_interval_time  none
_diffrn_standards_decay_%        none
_diffrn_reflns_number            65660
_diffrn_reflns_av_r_equivalents  0.0519
_diffrn_reflns_av_sigmai/neti    0.0387
_diffrn_reflns_limit_h_min       -35
_diffrn_reflns_limit_h_max       37
_diffrn_reflns_limit_k_min       -37
_diffrn_reflns_limit_k_max       36
_diffrn_reflns_limit_l_min       -30
_diffrn_reflns_limit_l_max       50
_diffrn_reflns_theta_min         0.88
_diffrn_reflns_theta_max         25.00
_reflns_number_total             12567
_reflns_number_gt                11332
_reflns_threshold_expression     >2sigma(i)
_computing_data_collection       'bruker smart'
_computing_cell_refinement       'Bruker SMART'
_computing_data_reduction        'Bruker SAINT'
_computing_structure_solution    'SHELXS-97 (Sheldrick, 1990)'
_computing_structure_refinement  'SHELXL-97 (Sheldrick, 1997)'
_computing_molecular_graphics    SHELXP-97
_computing_publication_material  SHELXTL

_refine_special_details          
;
Refinement of F^2^ against ALL reflections. The weighted R-factor wR and
goodness of fit S are based on F^2^, conventional R-factors R are based
on F, with F set to zero for negative F^2^. The threshold expression of
F^2^ > 2sigma(F^2^) is used only for calculating R-factors(gt) etc. and is
not relevant to the choice of reflections for refinement. R-factors based
on F^2^ are statistically about twice as large as those based on F, and R-
factors based on ALL data will be even larger.
;

_refine_ls_structure_factor_coef Fsqd
_refine_ls_matrix_type           full
_refine_ls_weighting_scheme      calc
_refine_ls_weighting_details     
'calc w=1/[\s^2^(Fo^2^)+(0.1320P)^2^+0.0000P] where P=(Fo^2^+2Fc^2^)/3'
_atom_sites_solution_primary     direct
_atom_sites_solution_secondary   difmap
_atom_sites_solution_hydrogens   geom
_refine_ls_hydrogen_treatment    constr
_refine_ls_extinction_method     none
_refine_ls_extinction_coef       ?
_refine_ls_abs_structure_details 'Flack H D (1983), Acta Cryst. A39, 876-881'
_refine_ls_abs_structure_Flack   0.0(2)
_refine_ls_number_reflns         12567
_refine_ls_number_parameters     503
_refine_ls_number_restraints     25
_refine_ls_R_factor_all          0.0706
_refine_ls_R_factor_gt           0.0642
_refine_ls_wR_factor_ref         0.1840
_refine_ls_wR_factor_gt          0.1770
_refine_ls_goodness_of_fit_ref   1.084
_refine_ls_restrained_S_all      1.088
_refine_ls_shift/su_max          0.007
_refine_ls_shift/su_mean         0.001

loop_
_atom_site_label
_atom_site_type_symbol
_atom_site_fract_x
_atom_site_fract_y
_atom_site_fract_z
_atom_site_U_iso_or_equiv
_atom_site_adp_type
_atom_site_occupancy
_atom_site_symmetry_multiplicity
_atom_site_calc_flag
_atom_site_refinement_flags
_atom_site_disorder_assembly
_atom_site_disorder_group
Cd1 Cd 0.132035(7) -0.002956(10) 0.922647(9) 0.03274(7) Uani 1 1 d . . .
Cd2 Cd 0.122139(9) 0.050567(10) 0.994539(6) 0.03451(8) Uani 1 1 d . . .
Cd3 Cd 0.067416(9) -0.057663(9) 0.851868(6) 0.03179(7) Uani 1 1 d . . .
Cd4 Cd 0.0000 0.0000 1.016618(17) 0.05639(19) Uani 1 3 d S . .
Cd5 Cd 0.0000 0.0000 0.825030(13) 0.03771(14) Uani 1 3 d S . .
O1 O 0.18640(10) 0.01210(12) 0.88683(7) 0.0559(11) Uani 1 1 d . . .
O2 O 0.14579(11) -0.02606(12) 0.84211(9) 0.0639(12) Uani 1 1 d . . .
O3 O 0.50941(11) 0.25401(10) 0.73868(8) 0.0492(10) Uani 1 1 d . . .
O4 O 0.48618(12) 0.19837(12) 0.70269(8) 0.0637(12) Uani 1 1 d . . .
O5 O 0.15283(10) 0.07348(10) 0.93958(7) 0.0462(10) Uani 1 1 d . . .
O6 O 0.18242(11) 0.12468(12) 0.97852(7) 0.0581(11) Uani 1 1 d . . .
O7 O 0.47555(11) 0.31524(13) 0.79185(10) 0.0687(12) Uani 1 1 d . . .
O8 O 0.51660(11) 0.34757(14) 0.83519(8) 0.0706(14) Uani 1 1 d . . .
O9 O 0.13827(15) 0.07073(13) 1.04771(9) 0.0749(15) Uani 1 1 d . . .
O10 O 0.06863(11) 0.00745(13) 1.03884(7) 0.0615(11) Uani 1 1 d . . .
O11 O 0.08710(13) -0.04842(13) 1.30367(8) 0.0663(12) Uani 1 1 d . . .
O12 O 0.01588(13) -0.05324(11) 1.30058(8) 0.0626(12) Uani 1 1 d . . .
O13 O 0.07449(9) -0.01735(10) 0.96053(7) 0.0426(9) Uani 1 1 d . . .
O14 O 0.08852(9) 0.01095(9) 0.88295(7) 0.0407(8) Uani 1 1 d . . .
O15 O 0.06231(9) 0.05470(8) 0.85813(6) 0.0358(7) Uani 1 1 d . . .
O16 O 0.00441(9) -0.05779(9) 0.98653(7) 0.0424(9) Uani 1 1 d . . .
C1 C 0.18330(14) 0.00192(16) 0.85738(13) 0.0553(14) Uani 1 1 d . . .
C2 C 0.23051(7) 0.02828(9) 0.83837(6) 0.0504(15) Uani 1 1 d G . .
C3 C 0.27159(9) 0.06371(10) 0.85349(7) 0.084(2) Uani 1 1 d G . .
H3A H 0.2705 0.0696 0.8748 0.100 Uiso 1 1 calc R . .
C4 C 0.31438(8) 0.09030(12) 0.83682(9) 0.086(3) Uani 1 1 d G . .
H4A H 0.3419 0.1140 0.8469 0.104 Uiso 1 1 calc R . .
C5 C 0.31607(10) 0.08146(14) 0.80503(9) 0.0568(15) Uani 1 1 d G . .
C6 C 0.27499(13) 0.04603(14) 0.78991(7) 0.076(2) Uani 1 1 d G . .
H6A H 0.2761 0.0401 0.7686 0.091 Uiso 1 1 calc R . .
C7 C 0.23220(10) 0.01944(11) 0.80658(6) 0.073(2) Uani 1 1 d G . .
H7A H 0.2047 -0.0043 0.7965 0.088 Uiso 1 1 calc R . .
C8 C 0.36130(8) 0.11420(8) 0.78708(6) 0.0548(16) Uani 1 1 d G . .
C9 C 0.38965(10) 0.16242(8) 0.79570(6) 0.092(2) Uani 1 1 d G . .
H9A H 0.3822 0.1739 0.8137 0.111 Uiso 1 1 calc R . .
C10 C 0.42920(11) 0.19355(9) 0.77745(8) 0.078(2) Uani 1 1 d G . .
H10A H 0.4482 0.2258 0.7832 0.093 Uiso 1 1 calc R . .
C11 C 0.44039(11) 0.17646(12) 0.75058(8) 0.0431(13) Uani 1 1 d G . .
C12 C 0.41204(12) 0.12823(12) 0.74196(7) 0.0785(19) Uani 1 1 d G . .
H12A H 0.4195 0.1168 0.7240 0.094 Uiso 1 1 calc R . .
C13 C 0.37250(10) 0.09711(9) 0.76020(6) 0.083(2) Uani 1 1 d G . .
H13A H 0.3535 0.0648 0.7544 0.100 Uiso 1 1 calc R . .
C14 C 0.48136(13) 0.21191(14) 0.72997(10) 0.0409(12) Uani 1 1 d . . .
C15 C 0.18511(13) 0.11476(14) 0.95093(10) 0.0392(12) Uani 1 1 d . . .
C16 C 0.22499(8) 0.14856(8) 0.93057(6) 0.0565(16) Uani 1 1 d G . .
C17 C 0.26122(10) 0.19193(9) 0.94294(6) 0.077(2) Uani 1 1 d GU . .
H17A H 0.2591 0.2003 0.9635 0.093 Uiso 1 1 calc R . .
C18 C 0.30061(10) 0.22282(10) 0.92449(9) 0.086(2) Uani 1 1 d GU . .
H18A H 0.3249 0.2518 0.9328 0.103 Uiso 1 1 calc R . .
C19 C 0.30375(12) 0.21034(13) 0.89368(9) 0.0553(16) Uani 1 1 d G . .
C20 C 0.26752(13) 0.16698(13) 0.88132(7) 0.076(2) Uani 1 1 d G . .
H20A H 0.2696 0.1586 0.8607 0.091 Uiso 1 1 calc R . .
C21 C 0.22813(11) 0.13609(10) 0.89976(6) 0.067(2) Uani 1 1 d G . .
H21A H 0.2039 0.1071 0.8915 0.081 Uiso 1 1 calc R . .
C22 C 0.34959(8) 0.24044(9) 0.87388(6) 0.0538(16) Uani 1 1 d G . .
C23 C 0.39399(9) 0.26794(12) 0.88863(7) 0.098(2) Uani 1 1 d GU . .
H23A H 0.3960 0.2681 0.9104 0.117 Uiso 1 1 calc R . .
C24 C 0.43544(8) 0.29514(15) 0.87083(10) 0.101(2) Uani 1 1 d GU . .
H24A H 0.4652 0.3135 0.8807 0.121 Uiso 1 1 calc R . .
C25 C 0.43248(11) 0.29485(16) 0.83828(9) 0.0527(15) Uani 1 1 d G . .
C26 C 0.38808(13) 0.26736(15) 0.82352(7) 0.069(2) Uani 1 1 d G . .
H26A H 0.3861 0.2672 0.8017 0.083 Uiso 1 1 calc R . .
C27 C 0.34663(10) 0.24015(12) 0.84132(6) 0.072(2) Uani 1 1 d G . .
H27A H 0.3169 0.2218 0.8315 0.087 Uiso 1 1 calc R . .
C28 C 0.47921(15) 0.32151(17) 0.82098(11) 0.0488(14) Uani 1 1 d . . .
C29 C 0.10154(15) 0.03451(18) 1.05690(12) 0.0556(14) Uani 1 1 d . . .
C30 C 0.09577(8) 0.01992(9) 1.09167(5) 0.0496(13) Uani 1 1 d G . .
C31 C 0.13115(9) 0.04878(11) 1.11327(6) 0.071(2) Uani 1 1 d G . .
H31A H 0.1585 0.0769 1.1067 0.086 Uiso 1 1 calc R . .
C32 C 0.12567(12) 0.03555(14) 1.14474(6) 0.0619(18) Uani 1 1 d G . .
H32A H 0.1493 0.0549 1.1592 0.074 Uiso 1 1 calc R . .
C33 C 0.08481(14) -0.00654(14) 1.15459(5) 0.0571(15) Uani 1 1 d G . .
C34 C 0.04943(13) -0.03540(12) 1.13299(7) 0.069(2) Uani 1 1 d G . .
H34A H 0.0221 -0.0636 1.1396 0.082 Uiso 1 1 calc R . .
C35 C 0.05491(10) -0.02217(10) 1.10153(6) 0.0655(19) Uani 1 1 d G . .
H35A H 0.0312 -0.0415 1.0871 0.079 Uiso 1 1 calc R . .
C36 C 0.07730(8) -0.01896(8) 1.18948(5) 0.0579(16) Uani 1 1 d G . .
C37 C 0.11656(8) -0.00672(13) 1.20908(6) 0.0699(17) Uani 1 1 d G . .
H37A H 0.1477 0.0081 1.2008 0.084 Uiso 1 1 calc R . .
C38 C 0.10930(12) -0.01663(15) 1.24102(6) 0.0640(18) Uani 1 1 d G . .
H38A H 0.1356 -0.0084 1.2541 0.077 Uiso 1 1 calc R . .
C39 C 0.06279(14) -0.03878(14) 1.25335(5) 0.0504(14) Uani 1 1 d G . .
C40 C 0.02353(11) -0.05102(14) 1.23374(7) 0.0587(17) Uani 1 1 d G . .
H40A H -0.0076 -0.0658 1.2420 0.070 Uiso 1 1 calc R . .
C41 C 0.03079(8) -0.04112(12) 1.20180(6) 0.0612(16) Uani 1 1 d G . .
H41A H 0.0045 -0.0493 1.1887 0.073 Uiso 1 1 calc R . .
C42 C 0.05439(18) -0.04683(17) 1.28835(11) 0.0530(15) Uani 1 1 d . . .
C43 C 0.08514(13) 0.04845(14) 0.87935(10) 0.0391(12) Uani 1 1 d . . .
H43A H 0.1011 0.0733 0.8938 0.047 Uiso 1 1 calc R . .
C44 C 0.03457(15) -0.05259(14) 0.96557(12) 0.0440(13) Uani 1 1 d . . .
H44A H 0.0253 -0.0788 0.9522 0.053 Uiso 1 1 calc R . .

loop_
_atom_site_aniso_label
_atom_site_aniso_U_11
_atom_site_aniso_U_22
_atom_site_aniso_U_33
_atom_site_aniso_U_23
_atom_site_aniso_U_13
_atom_site_aniso_U_12
Cd1 0.03472(9) 0.04623(11) 0.01877(12) 0.00648(10) 0.00332(13) 0.02135(8)
Cd2 0.03978(10) 0.04845(11) 0.01992(15) 0.00634(11) 0.00226(10) 0.02553(8)
Cd3 0.03636(10) 0.04358(11) 0.01908(15) 0.00346(10) -0.00009(10) 0.02272(8)
Cd4 0.0602(2) 0.0602(2) 0.0488(4) 0.000 0.000 0.03009(11)
Cd5 0.04082(16) 0.04082(16) 0.0315(3) 0.000 0.000 0.02041(8)
O1 0.0438(13) 0.0924(19) 0.0224(16) 0.0166(14) 0.0183(12) 0.0271(12)
O2 0.0437(14) 0.0691(18) 0.058(2) -0.0087(16) 0.0146(15) 0.0128(13)
O3 0.0469(14) 0.0446(14) 0.0402(19) 0.0000(12) 0.0104(13) 0.0110(11)
O4 0.0753(17) 0.0607(17) 0.0385(18) -0.0030(14) 0.0256(15) 0.0216(14)
O5 0.0434(13) 0.0484(14) 0.0373(19) 0.0124(12) 0.0063(13) 0.0159(10)
O6 0.0575(15) 0.0647(17) 0.0350(18) 0.0015(14) 0.0178(14) 0.0177(13)
O7 0.0463(13) 0.0794(18) 0.081(3) 0.0108(17) 0.0277(15) 0.0316(12)
O8 0.0475(15) 0.097(2) 0.048(2) -0.0036(17) 0.0201(15) 0.0215(15)
O9 0.090(2) 0.091(2) 0.0219(19) 0.0052(15) 0.0053(17) 0.0290(18)
O10 0.0763(15) 0.0959(18) 0.0247(17) 0.0030(14) -0.0059(13) 0.0523(12)
O11 0.0933(18) 0.0891(18) 0.0283(18) 0.0130(14) 0.0113(15) 0.0545(13)
O12 0.088(2) 0.0535(15) 0.038(2) -0.0106(14) 0.0056(16) 0.0287(13)
O13 0.0380(12) 0.0455(13) 0.0331(16) -0.0033(12) 0.0076(12) 0.0124(10)
O14 0.0465(11) 0.0447(12) 0.0340(17) -0.0007(11) -0.0120(11) 0.0251(9)
O15 0.0458(11) 0.0334(10) 0.0320(15) -0.0012(10) -0.0075(11) 0.0227(8)
O16 0.0436(12) 0.0452(12) 0.0326(16) -0.0018(11) 0.0150(12) 0.0177(9)
C1 0.0408(16) 0.069(2) 0.065(3) 0.029(2) 0.0255(19) 0.0338(14)
C2 0.0441(18) 0.067(2) 0.035(3) 0.002(2) 0.0081(18) 0.0245(16)
C3 0.037(2) 0.124(5) 0.059(4) -0.009(3) 0.003(2) 0.017(3)
C4 0.058(3) 0.103(4) 0.038(3) 0.002(3) 0.004(3) -0.004(3)
C5 0.0583(19) 0.062(2) 0.057(3) 0.013(2) 0.026(2) 0.0346(15)
C6 0.057(3) 0.092(3) 0.043(3) -0.021(3) 0.016(2) 0.010(2)
C7 0.045(2) 0.103(4) 0.048(3) -0.007(3) 0.024(2) 0.020(2)
C8 0.0444(19) 0.063(2) 0.049(3) 0.005(2) 0.016(2) 0.0206(16)
C9 0.092(4) 0.080(3) 0.060(3) -0.019(3) 0.038(3) 0.009(3)
C10 0.081(3) 0.047(2) 0.055(3) -0.014(2) 0.036(3) -0.005(2)
C11 0.0288(16) 0.053(2) 0.028(2) -0.0008(18) 0.0058(16) 0.0059(15)
C12 0.074(3) 0.041(2) 0.090(4) -0.004(2) 0.056(2) 0.006(2)
C13 0.078(3) 0.061(3) 0.078(4) -0.014(3) 0.038(3) 0.010(2)
C14 0.0416(16) 0.0442(17) 0.034(2) 0.0079(17) 0.0060(17) 0.0190(13)
C15 0.0382(15) 0.0475(17) 0.033(2) 0.0146(16) 0.0115(16) 0.0223(13)
C16 0.066(2) 0.0425(19) 0.060(3) 0.002(2) 0.010(2) 0.0259(16)
C17 0.076(3) 0.062(3) 0.060(3) -0.013(2) 0.018(2) 0.009(2)
C18 0.073(3) 0.077(3) 0.064(3) -0.019(2) 0.026(2) 0.006(2)
C19 0.048(2) 0.067(2) 0.040(3) 0.002(2) 0.0189(19) 0.0203(18)
C20 0.072(3) 0.064(3) 0.043(3) 0.003(2) 0.033(2) -0.002(3)
C21 0.050(2) 0.090(3) 0.033(3) -0.004(3) 0.015(2) 0.012(2)
C22 0.040(2) 0.056(2) 0.038(3) 0.004(2) 0.0153(19) 0.0035(18)
C23 0.080(3) 0.107(4) 0.069(3) -0.002(3) 0.026(3) 0.018(3)
C24 0.071(3) 0.120(4) 0.074(4) 0.000(3) 0.023(3) 0.019(3)
C25 0.0419(18) 0.069(2) 0.039(3) 0.000(2) 0.0198(18) 0.0219(16)
C26 0.062(3) 0.093(3) 0.029(3) 0.016(2) 0.017(2) 0.021(2)
C27 0.044(2) 0.095(3) 0.066(4) 0.002(3) 0.012(2) 0.026(2)
C28 0.055(2) 0.064(2) 0.028(2) -0.0045(19) 0.0078(19) 0.0302(16)
C29 0.0610(18) 0.086(2) 0.037(3) 0.011(2) -0.0039(19) 0.0493(15)
C30 0.0656(19) 0.074(2) 0.019(2) -0.0035(18) -0.0049(18) 0.0419(16)
C31 0.066(3) 0.082(3) 0.038(3) 0.018(3) 0.006(2) 0.016(3)
C32 0.062(2) 0.078(3) 0.030(3) -0.003(2) 0.001(2) 0.022(2)
C33 0.0576(19) 0.094(3) 0.025(2) 0.011(2) 0.0068(18) 0.0419(17)
C34 0.066(3) 0.087(3) 0.030(3) 0.013(2) 0.003(2) 0.021(2)
C35 0.061(2) 0.088(3) 0.037(3) 0.003(2) -0.008(2) 0.030(2)
C36 0.074(2) 0.077(2) 0.027(3) 0.013(2) 0.001(2) 0.0402(18)
C37 0.074(2) 0.123(3) 0.029(3) 0.003(2) 0.000(2) 0.062(2)
C38 0.051(2) 0.104(3) 0.031(3) 0.004(2) -0.002(2) 0.035(2)
C39 0.072(2) 0.062(2) 0.026(2) 0.0008(18) 0.004(2) 0.0403(16)
C40 0.060(2) 0.062(2) 0.046(3) 0.000(2) 0.008(2) 0.0245(19)
C41 0.073(2) 0.096(3) 0.033(3) 0.013(2) 0.011(2) 0.0558(17)
C42 0.082(2) 0.064(2) 0.020(2) -0.0002(19) 0.004(2) 0.0409(17)
C43 0.0519(16) 0.0558(17) 0.021(2) -0.0078(15) -0.0106(16) 0.0352(12)
C44 0.0525(19) 0.0377(16) 0.045(3) 0.0036(17) 0.0032(19) 0.0251(13)

_geom_special_details            
;
All esds (except the esd in the dihedral angle between two l.s. planes)
are estimated using the full covariance matrix. The cell esds are taken
into account individually in the estimation of esds in distances, angles
and torsion angles; correlations between esds in cell parameters are only
used when they are defined by crystal symmetry. An approximate (isotropic)
treatment of cell esds is used for estimating esds involving l.s. planes.
;

loop_
_geom_bond_atom_site_label_1
_geom_bond_atom_site_label_2
_geom_bond_distance
_geom_bond_site_symmetry_2
_geom_bond_publ_flag
Cd1 O1 2.177(3) . ?
Cd1 O7 2.217(4) 17_544 ?
Cd1 O3 2.294(3) 17_544 ?
Cd1 O5 2.302(3) . ?
Cd1 O13 2.313(3) . ?
Cd1 O14 2.368(3) . ?
Cd2 O8 2.195(3) 17_544 ?
Cd2 O16 2.289(2) 2 ?
Cd2 O6 2.284(3) . ?
Cd2 O9 2.341(4) . ?
Cd2 O13 2.412(3) . ?
Cd2 O10 2.455(3) . ?
Cd2 O5 2.502(3) . ?
Cd2 C15 2.753(4) . ?
Cd3 O2 2.220(3) . ?
Cd3 O11 2.213(3) 4_554 ?
Cd3 O4 2.326(3) 17_544 ?
Cd3 O14 2.352(3) . ?
Cd3 O15 2.340(3) 3 ?
Cd3 O3 2.453(3) 17_544 ?
Cd3 C14 2.751(4) 17_544 ?
Cd4 O10 2.288(4) 3 ?
Cd4 O10 2.288(4) . ?
Cd4 O10 2.288(4) 2 ?
Cd4 O16 2.309(3) . ?
Cd4 O16 2.309(3) 3 ?
Cd4 O16 2.309(3) 2 ?
Cd5 O12 2.257(4) 4_554 ?
Cd5 O12 2.257(4) 5_554 ?
Cd5 O12 2.257(4) 6_554 ?
Cd5 O15 2.350(2) 2 ?
Cd5 O15 2.350(2) 3 ?
Cd5 O15 2.350(2) . ?
O1 C1 1.288(6) . ?
O2 C1 1.259(5) . ?
O3 C14 1.242(4) . ?
O3 Cd1 2.294(3) 11_554 ?
O3 Cd3 2.452(3) 11_554 ?
O4 C14 1.276(6) . ?
O4 Cd3 2.326(3) 11_554 ?
O5 C15 1.294(4) . ?
O6 C15 1.232(5) . ?
O7 C28 1.253(6) . ?
O7 Cd1 2.217(4) 11_554 ?
O8 C28 1.221(5) . ?
O8 Cd2 2.195(3) 11_554 ?
O9 C29 1.229(5) . ?
O10 C29 1.239(5) . ?
O11 C42 1.254(7) . ?
O11 Cd3 2.213(3) 4 ?
O12 C42 1.255(7) . ?
O12 Cd5 2.257(4) 4 ?
O13 C44 1.226(4) . ?
O14 C43 1.264(6) . ?
O15 C43 1.239(5) . ?
O15 Cd3 2.341(3) 2 ?
O16 C44 1.262(6) . ?
O16 Cd2 2.289(2) 3 ?
C1 C2 1.539(5) . ?
C2 C3 1.3900 . ?
C2 C7 1.3900 . ?
C3 C4 1.3900 . ?
C4 C5 1.3900 . ?
C5 C6 1.3900 . ?
C5 C8 1.502(3) . ?
C6 C7 1.3900 . ?
C8 C9 1.3900 . ?
C8 C13 1.3900 . ?
C9 C10 1.3900 . ?
C10 C11 1.3900 . ?
C11 C12 1.3900 . ?
C11 C14 1.511(4) . ?
C12 C13 1.3900 . ?
C14 Cd3 2.751(4) 11_554 ?
C15 C16 1.471(4) . ?
C16 C17 1.3900 . ?
C16 C21 1.3900 . ?
C17 C18 1.3900 . ?
C18 C19 1.3900 . ?
C19 C20 1.3900 . ?
C19 C22 1.540(3) . ?
C20 C21 1.3900 . ?
C22 C23 1.3900 . ?
C22 C27 1.3900 . ?
C23 C24 1.3900 . ?
C24 C25 1.3900 . ?
C25 C26 1.3900 . ?
C25 C28 1.492(5) . ?
C26 C27 1.3900 . ?
C29 C30 1.536(6) . ?
C30 C31 1.3900 . ?
C30 C35 1.3900 . ?
C31 C32 1.3900 . ?
C32 C33 1.3900 . ?
C33 C34 1.3900 . ?
C33 C36 1.526(3) . ?
C34 C35 1.3900 . ?
C36 C37 1.3900 . ?
C36 C41 1.3900 . ?
C37 C38 1.3900 . ?
C38 C39 1.3900 . ?
C39 C40 1.3900 . ?
C39 C42 1.514(5) . ?
C40 C41 1.3900 . ?

loop_
_geom_angle_atom_site_label_1
_geom_angle_atom_site_label_2
_geom_angle_atom_site_label_3
_geom_angle
_geom_angle_site_symmetry_1
_geom_angle_site_symmetry_3
_geom_angle_publ_flag
O1 Cd1 O7 92.21(14) . 17_544 ?
O1 Cd1 O3 95.92(12) . 17_544 ?
O7 Cd1 O3 101.69(12) 17_544 17_544 ?
O1 Cd1 O5 102.13(12) . . ?
O7 Cd1 O5 97.26(12) 17_544 . ?
O3 Cd1 O5 153.21(11) 17_544 . ?
O1 Cd1 O13 178.80(13) . . ?
O7 Cd1 O13 88.44(14) 17_544 . ?
O3 Cd1 O13 84.93(11) 17_544 . ?
O5 Cd1 O13 76.78(10) . . ?
O1 Cd1 O14 86.34(12) . . ?
O7 Cd1 O14 177.66(12) 17_544 . ?
O3 Cd1 O14 76.65(10) 17_544 . ?
O5 Cd1 O14 84.85(11) . . ?
O13 Cd1 O14 93.05(10) . . ?
O8 Cd2 O16 160.83(15) 17_544 2 ?
O8 Cd2 O6 99.68(17) 17_544 . ?
O16 Cd2 O6 98.46(14) 2 . ?
O8 Cd2 O9 84.22(16) 17_544 . ?
O16 Cd2 O9 101.04(15) 2 . ?
O6 Cd2 O9 92.78(12) . . ?
O8 Cd2 O13 83.56(14) 17_544 . ?
O16 Cd2 O13 80.94(12) 2 . ?
O6 Cd2 O13 125.32(11) . . ?
O9 Cd2 O13 141.42(11) . . ?
O8 Cd2 O10 91.91(15) 17_544 . ?
O16 Cd2 O10 77.06(12) 2 . ?
O6 Cd2 O10 143.19(12) . . ?
O9 Cd2 O10 53.55(11) . . ?
O13 Cd2 O10 90.47(10) . . ?
O8 Cd2 O5 91.90(13) 17_544 . ?
O16 Cd2 O5 93.74(11) 2 . ?
O6 Cd2 O5 54.09(10) . . ?
O9 Cd2 O5 145.58(10) . . ?
O13 Cd2 O5 71.31(9) . . ?
O10 Cd2 O5 160.83(9) . . ?
O8 Cd2 C15 94.40(15) 17_544 . ?
O16 Cd2 C15 99.17(13) 2 . ?
O6 Cd2 C15 26.26(12) . . ?
O9 Cd2 C15 118.04(12) . . ?
O13 Cd2 C15 99.30(11) . . ?
O10 Cd2 C15 168.89(13) . . ?
O5 Cd2 C15 28.00(10) . . ?
O2 Cd3 O11 91.53(13) . 4_554 ?
O2 Cd3 O4 102.39(15) . 17_544 ?
O11 Cd3 O4 88.46(13) 4_554 17_544 ?
O2 Cd3 O14 87.09(12) . . ?
O11 Cd3 O14 143.92(13) 4_554 . ?
O4 Cd3 O14 127.04(11) 17_544 . ?
O2 Cd3 O15 159.34(12) . 3 ?
O11 Cd3 O15 91.39(13) 4_554 3 ?
O4 Cd3 O15 98.12(12) 17_544 3 ?
O14 Cd3 O15 78.60(9) . 3 ?
O2 Cd3 O3 91.14(13) . 17_544 ?
O11 Cd3 O3 142.11(12) 4_554 17_544 ?
O4 Cd3 O3 54.13(10) 17_544 17_544 ?
O14 Cd3 O3 73.97(10) . 17_544 ?
O15 Cd3 O3 99.00(11) 3 17_544 ?
O2 Cd3 C14 94.93(15) . 17_544 ?
O11 Cd3 C14 115.33(14) 4_554 17_544 ?
O4 Cd3 C14 27.52(12) 17_544 17_544 ?
O14 Cd3 C14 100.70(11) . 17_544 ?
O15 Cd3 C14 102.25(12) 3 17_544 ?
O3 Cd3 C14 26.84(10) 17_544 17_544 ?
O10 Cd4 O10 104.07(10) 3 . ?
O10 Cd4 O10 104.07(10) 3 2 ?
O10 Cd4 O10 104.07(10) . 2 ?
O10 Cd4 O16 80.11(10) 3 . ?
O10 Cd4 O16 82.80(12) . . ?
O10 Cd4 O16 170.55(12) 2 . ?
O10 Cd4 O16 82.81(12) 3 3 ?
O10 Cd4 O16 170.54(12) . 3 ?
O10 Cd4 O16 80.11(10) 2 3 ?
O16 Cd4 O16 92.15(11) . 3 ?
O10 Cd4 O16 170.55(12) 3 2 ?
O10 Cd4 O16 80.11(10) . 2 ?
O10 Cd4 O16 82.81(12) 2 2 ?
O16 Cd4 O16 92.15(11) . 2 ?
O16 Cd4 O16 92.15(11) 3 2 ?
O12 Cd5 O12 100.40(12) 4_554 5_554 ?
O12 Cd5 O12 100.40(12) 4_554 6_554 ?
O12 Cd5 O12 100.40(12) 5_554 6_554 ?
O12 Cd5 O15 169.23(12) 4_554 2 ?
O12 Cd5 O15 81.79(12) 5_554 2 ?
O12 Cd5 O15 89.48(11) 6_554 2 ?
O12 Cd5 O15 81.79(12) 4_554 3 ?
O12 Cd5 O15 89.49(11) 5_554 3 ?
O12 Cd5 O15 169.23(12) 6_554 3 ?
O15 Cd5 O15 87.71(9) 2 3 ?
O12 Cd5 O15 89.49(11) 4_554 . ?
O12 Cd5 O15 169.23(12) 5_554 . ?
O12 Cd5 O15 81.80(12) 6_554 . ?
O15 Cd5 O15 87.70(9) 2 . ?
O15 Cd5 O15 87.70(9) 3 . ?
C1 O1 Cd1 132.5(3) . . ?
C1 O2 Cd3 133.0(3) . . ?
C14 O3 Cd1 156.8(3) . 11_554 ?
C14 O3 Cd3 90.1(3) . 11_554 ?
Cd1 O3 Cd3 97.78(10) 11_554 11_554 ?
C14 O4 Cd3 95.1(2) . 11_554 ?
C15 O5 Cd1 149.1(3) . . ?
C15 O5 Cd2 86.8(2) . . ?
Cd1 O5 Cd2 96.90(10) . . ?
C15 O6 Cd2 98.6(2) . . ?
C28 O7 Cd1 130.3(3) . 11_554 ?
C28 O8 Cd2 139.4(3) . 11_554 ?
C29 O9 Cd2 94.3(3) . . ?
C29 O10 Cd4 139.8(4) . . ?
C29 O10 Cd2 88.7(3) . . ?
Cd4 O10 Cd2 95.86(12) . . ?
C42 O11 Cd3 104.2(3) . 4 ?
C42 O12 Cd5 129.8(3) . 4 ?
C44 O13 Cd1 131.5(3) . . ?
C44 O13 Cd2 128.3(3) . . ?
Cd1 O13 Cd2 99.16(9) . . ?
C43 O14 Cd3 133.9(3) . . ?
C43 O14 Cd1 126.9(2) . . ?
Cd3 O14 Cd1 98.57(12) . . ?
C43 O15 Cd3 124.3(2) . 2 ?
C43 O15 Cd5 131.8(2) . . ?
Cd3 O15 Cd5 102.05(11) 2 . ?
C44 O16 Cd2 128.3(2) . 3 ?
C44 O16 Cd4 129.4(2) . . ?
Cd2 O16 Cd4 100.01(11) 3 . ?
O1 C1 O2 127.5(4) . . ?
O1 C1 C2 116.4(3) . . ?
O2 C1 C2 116.1(4) . . ?
C3 C2 C7 120.0 . . ?
C3 C2 C1 118.0(2) . . ?
C7 C2 C1 121.9(2) . . ?
C2 C3 C4 120.0 . . ?
C5 C4 C3 120.0 . . ?
C4 C5 C6 120.0 . . ?
C4 C5 C8 118.5(3) . . ?
C6 C5 C8 121.2(3) . . ?
C7 C6 C5 120.0 . . ?
C6 C7 C2 120.0 . . ?
C9 C8 C13 120.0 . . ?
C9 C8 C5 120.2(2) . . ?
C13 C8 C5 119.5(2) . . ?
C10 C9 C8 120.0 . . ?
C9 C10 C11 120.0 . . ?
C12 C11 C10 120.0 . . ?
C12 C11 C14 121.1(3) . . ?
C10 C11 C14 118.7(3) . . ?
C11 C12 C13 120.0 . . ?
C12 C13 C8 120.0 . . ?
O3 C14 O4 119.6(4) . . ?
O3 C14 C11 121.5(4) . . ?
O4 C14 C11 118.8(3) . . ?
O3 C14 Cd3 63.1(2) . 11_554 ?
O4 C14 Cd3 57.4(2) . 11_554 ?
C11 C14 Cd3 168.7(3) . 11_554 ?
O6 C15 O5 119.7(3) . . ?
O6 C15 C16 121.3(3) . . ?
O5 C15 C16 118.9(4) . . ?
O6 C15 Cd2 55.13(19) . . ?
O5 C15 Cd2 65.2(2) . . ?
C16 C15 Cd2 170.5(3) . . ?
C17 C16 C21 120.0 . . ?
C17 C16 C15 119.5(2) . . ?
C21 C16 C15 120.4(2) . . ?
C18 C17 C16 120.0 . . ?
C17 C18 C19 120.0 . . ?
C20 C19 C18 120.0 . . ?
C20 C19 C22 118.2(2) . . ?
C18 C19 C22 121.4(2) . . ?
C21 C20 C19 120.0 . . ?
C20 C21 C16 120.0 . . ?
C23 C22 C27 120.0 . . ?
C23 C22 C19 119.8(2) . . ?
C27 C22 C19 120.2(2) . . ?
C24 C23 C22 120.0 . . ?
C23 C24 C25 120.0 . . ?
C24 C25 C26 120.0 . . ?
C24 C25 C28 116.4(3) . . ?
C26 C25 C28 123.4(3) . . ?
C27 C26 C25 120.0 . . ?
C26 C27 C22 120.0 . . ?
O8 C28 O7 125.5(4) . . ?
O8 C28 C25 120.1(4) . . ?
O7 C28 C25 114.3(4) . . ?
O9 C29 O10 122.4(5) . . ?
O9 C29 C30 120.4(4) . . ?
O10 C29 C30 117.1(3) . . ?
C31 C30 C35 120.0 . . ?
C31 C30 C29 120.19(19) . . ?
C35 C30 C29 119.80(19) . . ?
C30 C31 C32 120.0 . . ?
C33 C32 C31 120.0 . . ?
C34 C33 C32 120.0 . . ?
C34 C33 C36 120.2(2) . . ?
C32 C33 C36 119.7(2) . . ?
C33 C34 C35 120.0 . . ?
C34 C35 C30 120.0 . . ?
C37 C36 C41 120.0 . . ?
C37 C36 C33 120.66(19) . . ?
C41 C36 C33 119.30(19) . . ?
C36 C37 C38 120.0 . . ?
C37 C38 C39 120.0 . . ?
C40 C39 C38 120.0 . . ?
C40 C39 C42 119.1(3) . . ?
C38 C39 C42 120.8(3) . . ?
C39 C40 C41 120.0 . . ?
C40 C41 C36 120.0 . . ?
O11 C42 O12 123.1(5) . . ?
O11 C42 C39 116.0(5) . . ?
O12 C42 C39 120.8(5) . . ?
O15 C43 O14 125.2(4) . . ?
O13 C44 O16 128.3(4) . . ?

_diffrn_measured_fraction_theta_max 0.991
_diffrn_reflns_theta_full        25.00
_diffrn_measured_fraction_theta_full 0.991
_refine_diff_density_max         1.383
_refine_diff_density_min         -1.151
_refine_diff_density_rms         0.152


