
#######################################################################
#
#                 Cambridge Crystallographic Data Centre
#                                CCDC
#
#######################################################################
#
# If this CIF has been generated from an entry in the Cambridge
# Structural Database, then it will include bibliographic, chemical,
# crystal, experimental, refinement or atomic coordinate data resulting
# from the CCDC's data processing and validation procedures.
#
#######################################################################

data_CSD_CIF_REPETD10
_audit_creation_date 1971-12-31
_audit_creation_method CSD-ConQuest-V1
_database_code_CSD REPETD10
_database_code_depnum_ccdc_archive 'CCDC 1248468'
_chemical_formula_sum 'C42 H30 Re1 S6'
_chemical_formula_moiety
;
C42 H30 Re1 S6
;
_journal_coden_Cambridge 9
_journal_volume 5
_journal_year 1966
_journal_page_first 411
_journal_name_full 'Inorg.Chem. '
loop_
_publ_author_name
"R.Eisenberg"
"J.A.Ibers"
_chemical_name_systematic
;
tris(cis-1,2-Diphenylethylene-1,2-dithiolato-S,S')-rhenium(vii)
;
_chemical_name_common
;
Teaching Subset: Fundamental Chemistry
;
_cell_volume   1921.890
_diffrn_ambient_temperature ?
_diffrn_special_details
;
The study was carried out at room temperature,in the range 283-303K

;
#These two values have been output from a single CSD field.
_refine_ls_R_factor_gt 0.064
_refine_ls_wR_factor_gt 0.064
_symmetry_cell_setting triclinic
_symmetry_space_group_name_H-M 'P -1'
_symmetry_Int_Tables_number 2
loop_
_symmetry_equiv_pos_site_id
_symmetry_equiv_pos_as_xyz
1 x,y,z
2 -x,-y,-z
_cell_length_a 19.73
_cell_length_b 11.94
_cell_length_c 9.87
_cell_angle_alpha 120.1
_cell_angle_beta 73.6
_cell_angle_gamma 102.5
_cell_formula_units_Z 2
loop_
_atom_type_symbol
_atom_type_radius_bond
C 0.68
Re 1.28
S 0.99
loop_
_atom_site_label
_atom_site_type_symbol
_atom_site_fract_x
_atom_site_fract_y
_atom_site_fract_z
C1 C 0.25600 0.31700 0.32900
C2 C 0.25100 0.58800 0.82500
C3 C 0.29800 0.49200 0.74300
C4 C 0.30000 0.40500 0.58200
C5 C 0.02200 -0.19300 0.10100
C6 C -0.01700 -0.11300 0.25000
C7 C -0.08100 -0.16200 0.31400
C8 C -0.10600 -0.29100 0.23000
C9 C -0.06700 -0.37200 0.08000
C10 C -0.00300 -0.32300 0.01600
C11 C 0.44200 -0.20300 -0.06000
C12 C 0.09000 -0.13700 0.02600
C13 C 0.51500 -0.18200 -0.11100
C14 C 0.56300 -0.24000 -0.08900
C15 C 0.53700 -0.32000 -0.01700
C16 C 0.46400 -0.34100 0.03400
C17 C 0.41700 -0.28300 0.01300
C18 C 0.44900 -0.17900 -0.35800
C19 C 0.45100 -0.31300 -0.44900
C20 C 0.50500 -0.36500 -0.58500
C21 C 0.55600 -0.28200 -0.62900
C22 C 0.55400 -0.14800 -0.53800
C23 C 0.38500 -0.14500 -0.07700
C24 C 0.50100 -0.09600 -0.40200
C25 C 0.05000 -0.18800 -0.21800
C26 C 0.07700 -0.25400 -0.38200
C27 C 0.03200 -0.30400 -0.48900
C28 C -0.04000 -0.28900 -0.43300
C29 C -0.06700 -0.22300 -0.26900
C30 C -0.02200 -0.17200 -0.16100
C31 C 0.26100 0.47700 0.23300
C32 C 0.20800 0.51100 0.19300
C33 C 0.20600 0.64000 0.23400
C34 C 0.39100 -0.13000 -0.20600
C35 C 0.25500 0.73600 0.31500
C36 C 0.30800 0.70200 0.35500
C37 C 0.31000 0.57300 0.31300
C38 C 0.10500 -0.13100 -0.11000
C39 C 0.25600 0.33900 0.20800
C40 C 0.25500 0.41300 0.50200
C41 C 0.20800 0.50900 0.58300
C42 C 0.20600 0.59700 0.74400
Re1 Re 0.24860 0.01690 0.02390
S1 S 0.24770 0.15610 0.29390
S2 S 0.15450 -0.08310 0.13630
S3 S 0.31970 -0.08520 0.07400
S4 S 0.33540 -0.04060 -0.20900
S5 S 0.17650 -0.05260 -0.15990
S6 S 0.25770 0.21330 0.01990
#END
