
#######################################################################
#
#                 Cambridge Crystallographic Data Centre
#                                CCDC
#
#######################################################################
#
# If this CIF has been generated from an entry in the Cambridge
# Structural Database, then it will include bibliographic, chemical,
# crystal, experimental, refinement or atomic coordinate data resulting
# from the CCDC's data processing and validation procedures.
#
#######################################################################

data_CSD_CIF_RESHAY
_audit_creation_date 1997-10-02
_audit_creation_method CSD-ConQuest-V1
_database_code_CSD RESHAY
_database_code_depnum_ccdc_archive 'CCDC 128933'
_chemical_formula_sum 'C6 H10 S2'
_chemical_formula_moiety
;
C6 H10 S2
;
_journal_coeditor_code "IUCr AV1003"
_journal_coden_Cambridge 591
_journal_volume 53
_journal_year 1997
_journal_page_first 1064
_journal_name_full 'Acta Crystallogr.,Sect.C:Cryst.Struct.Commun. '
loop_
_publ_author_name
"B.Bartkowska"
"C.Kruger"
_chemical_name_systematic
;
bis(2-Propenyl)disulfide
;
_chemical_name_common
;
Diallyldisulfide; Teaching Subset: Fundamental Chemistry
;
_chemical_melting_point 220
_cell_volume    803.468
_exptl_crystal_colour 'colorless'
_exptl_crystal_density_diffrn 1.209
_diffrn_ambient_temperature 143
#These two values have been output from a single CSD field.
_refine_ls_R_factor_gt 0.0498
_refine_ls_wR_factor_gt 0.0498
_symmetry_cell_setting monoclinic
_symmetry_space_group_name_H-M 'P 21/n'
_symmetry_Int_Tables_number 14
loop_
_symmetry_equiv_pos_site_id
_symmetry_equiv_pos_as_xyz
1 x,y,z
2 1/2-x,1/2+y,1/2-z
3 -x,-y,-z
4 -1/2+x,-1/2-y,-1/2+z
_cell_length_a 5.3456(12)
_cell_length_b 13.940(3)
_cell_length_c 10.8447(10)
_cell_angle_alpha 90
_cell_angle_beta 96.152(13)
_cell_angle_gamma 90
_cell_formula_units_Z 4
loop_
_atom_type_symbol
_atom_type_radius_bond
C 0.68
H 0.23
S 1.02
loop_
_atom_site_label
_atom_site_type_symbol
_atom_site_fract_x
_atom_site_fract_y
_atom_site_fract_z
C1 C 0.5820(4) 0.83649(14) 0.9424(2)
C2 C 0.5490(5) 0.8573(2) 1.0738(2)
C3 C 0.3679(7) 0.9086(2) 1.1091(3)
C4 C 0.1651(4) 0.6497(2) 1.0875(2)
C5 C 0.3244(4) 0.56510(14) 1.1197(2)
C6 C 0.5286(5) 0.5670(2) 1.1986(2)
H1 H 0.7496(59) 0.8492(21) 0.9289(25)
H2 H 0.4731(56) 0.8748(20) 0.8860(26)
H3 H 0.6695(64) 0.8255(24) 1.1381(32)
H4 H 0.2589(53) 0.9314(18) 1.0541(25)
H5 H 0.3570(59) 0.9224(21) 1.1962(33)
H6 H -0.0103(62) 0.6377(22) 1.0914(27)
H7 H 0.2108(57) 0.7038(18) 1.1419(27)
H8 H 0.2735(65) 0.5101(26) 1.0749(31)
H9 H 0.6345(54) 0.5129(21) 1.2176(27)
H10 H 0.5788(60) 0.6243(25) 1.2408(29)
S1 S 0.53204(8) 0.71000(3) 0.90186(4)
S2 S 0.16519(8) 0.68598(4) 0.92458(4)
#END
