
#######################################################################
#
#                 Cambridge Crystallographic Data Centre
#                                CCDC
#
#######################################################################
#
# If this CIF has been generated from an entry in the Cambridge
# Structural Database, then it will include bibliographic, chemical,
# crystal, experimental, refinement or atomic coordinate data resulting
# from the CCDC's data processing and validation procedures.
#
#######################################################################

data_CSD_CIF_RESORA03
_audit_creation_date 2001-11-02
_audit_creation_method CSD-ConQuest-V1
_database_code_CSD RESORA03
_database_code_depnum_ccdc_archive 'CCDC 168981'
_chemical_formula_sum 'C6 H6 O2'
_chemical_formula_moiety
;
C6 H6 O2
;
_journal_coden_Cambridge 1078
_journal_year 2001
_journal_name_full 'CSD Communication(Private Communication) '
loop_
_publ_author_name
"F.R.Fronczek"
_chemical_name_systematic
;
1,3-Benzenediol
;
_chemical_name_common
;
Resorcinol; PDB Chemical Component code: RCO; Teaching Subset: Symmetry; 
DrugBank: DB11085
;
_chemical_melting_point 383
_cell_volume    557.953
_exptl_crystal_colour 'colorless'
_exptl_crystal_density_diffrn 1.311
_exptl_special_details
;
alpha polymorph
contribution from Department of Chemistry, Louisiana State University, Baton 
Rouge, LA 70803-1804, USA
;
_exptl_crystal_preparation 'methanol'
_diffrn_ambient_temperature 120
#These two values have been output from a single CSD field.
_refine_ls_R_factor_gt 0.028
_refine_ls_wR_factor_gt 0.028
_symmetry_cell_setting orthorhombic
_symmetry_space_group_name_H-M 'P n a 21'
_symmetry_Int_Tables_number 33
loop_
_symmetry_equiv_pos_site_id
_symmetry_equiv_pos_as_xyz
1 x,y,z
2 -x,-y,1/2+z
3 1/2-x,1/2+y,1/2+z
4 1/2+x,1/2-y,z
_cell_length_a 10.4696(4)
_cell_length_b 9.4062(3)
_cell_length_c 5.6657(2)
_cell_angle_alpha 90
_cell_angle_beta 90
_cell_angle_gamma 90
_cell_formula_units_Z 4
loop_
_atom_type_symbol
_atom_type_radius_bond
C 0.68
H 0.23
O 0.68
loop_
_atom_site_label
_atom_site_type_symbol
_atom_site_fract_x
_atom_site_fract_y
_atom_site_fract_z
O1 O 0.53272(9) 0.83909(10) 0.1942(2)
H1 H 0.4699(19) 0.886(2) 0.249(5)
O2 O 0.84462(9) 0.49394(10) 0.3632(2)
H2 H 0.8708(18) 0.434(2) 0.470(4)
C1 C 0.51563(13) 0.71028(14) 0.5628(3)
H3 H 0.4371(17) 0.7604(17) 0.605(4)
C2 C 0.56623(13) 0.60741(15) 0.7114(3)
H4 H 0.5239(16) 0.5903(18) 0.863(4)
C3 C 0.67671(14) 0.53286(15) 0.6518(3)
H5 H 0.7112(16) 0.4585(18) 0.758(4)
C4 C 0.73526(12) 0.56283(14) 0.4369(3)
C5 C 0.68676(13) 0.66535(14) 0.2853(3)
H6 H 0.7275(16) 0.6829(18) 0.137(4)
C6 C 0.57722(13) 0.73875(13) 0.3501(3)
#END
