
#######################################################################
#
#                 Cambridge Crystallographic Data Centre
#                                CCDC
#
#######################################################################
#
# If this CIF has been generated from an entry in the Cambridge
# Structural Database, then it will include bibliographic, chemical,
# crystal, experimental, refinement or atomic coordinate data resulting
# from the CCDC's data processing and validation procedures.
#
#######################################################################

data_CSD_CIF_RESSAJ
_audit_creation_date 1997-10-02
_audit_creation_method CSD-ConQuest-V1
_database_code_CSD RESSAJ
_database_code_depnum_ccdc_archive 'CCDC 128999'
_chemical_formula_sum 'C16 H24'
_chemical_formula_moiety
;
C16 H24
;
_journal_coeditor_code "IUCr SK1013"
_journal_coden_Cambridge 591
_journal_volume 53
_journal_year 1997
_journal_page_first 1145
_journal_name_full 'Acta Crystallogr.,Sect.C:Cryst.Struct.Commun. '
loop_
_publ_author_name
"H.Irngartinger"
"S.Strack"
"R.Gleiter"
"S.Brand"
_chemical_name_systematic
;
1,2,3,4,5,6,7,8-Octamethylpentacyclo(4.2.0.0^2,5^.0^3,8^.0^4,7^)octane
;
_chemical_name_common
;
Octamethylcubane; Teaching Subset: Fundamental Chemistry, Symmetry
;
_cell_volume   1068.668
_exptl_crystal_colour 'colorless'
_exptl_crystal_density_diffrn 1.01
_diffrn_ambient_temperature 238
#These two values have been output from a single CSD field.
_refine_ls_R_factor_gt 0.037
_refine_ls_wR_factor_gt 0.037
_symmetry_cell_setting rhombohedral
_symmetry_space_group_name_H-M 'R -3 m'
_symmetry_Int_Tables_number 166
loop_
_symmetry_equiv_pos_site_id
_symmetry_equiv_pos_as_xyz
1 x,y,z
2 -y,x-y,z
3 y,x,-z
4 -x+y,-x,z
5 -x,-x+y,-z
6 x-y,-y,-z
7 1/3+x,2/3+y,2/3+z
8 1/3-y,2/3+x-y,2/3+z
9 1/3+y,2/3+x,2/3-z
10 1/3-x+y,2/3-x,2/3+z
11 1/3-x,2/3-x+y,2/3-z
12 1/3+x-y,2/3-y,2/3-z
13 2/3+x,1/3+y,1/3+z
14 2/3-y,1/3+x-y,1/3+z
15 2/3+y,1/3+x,1/3-z
16 2/3-x+y,1/3-x,1/3+z
17 2/3-x,1/3-x+y,1/3-z
18 2/3+x-y,1/3-y,1/3-z
19 -x,-y,-z
20 y,-x+y,-z
21 -y,-x,z
22 x-y,x,-z
23 x,x-y,z
24 -x+y,y,z
25 -1/3-x,-2/3-y,-2/3-z
26 -1/3+y,-2/3-x+y,-2/3-z
27 -1/3-y,-2/3-x,-2/3+z
28 -1/3+x-y,-2/3+x,-2/3-z
29 -1/3+x,-2/3+x-y,-2/3+z
30 -1/3-x+y,-2/3+y,-2/3+z
31 -2/3-x,-1/3-y,-1/3-z
32 -2/3+y,-1/3-x+y,-1/3-z
33 -2/3-y,-1/3-x,-1/3+z
34 -2/3+x-y,-1/3+x,-1/3-z
35 -2/3+x,-1/3+x-y,-1/3+z
36 -2/3-x+y,-1/3+y,-1/3+z
_cell_length_a 8.562(1)
_cell_length_b 8.562(1)
_cell_length_c 16.833(1)
_cell_angle_alpha 90
_cell_angle_beta 90
_cell_angle_gamma 120
_cell_formula_units_Z 3
loop_
_atom_type_symbol
_atom_type_radius_bond
C 0.68
H 0.23
loop_
_atom_site_label
_atom_site_type_symbol
_atom_site_fract_x
_atom_site_fract_y
_atom_site_fract_z
C1 C 0.3639(4) 0.1820(2) 0.4437(2)
C2 C 0.1716(3) 0.0858(2) 0.47317(13)
C3 C 0.00000 0.00000 0.4191(2)
C4 C 0.00000 0.00000 0.3298(3)
H1 H 0.0633(23) 0.1266(47) 0.3075(16)
H2 H 0.3897(43) 0.0939(48) 0.4117(16)
H3 H 0.4564(56) 0.2282(28) 0.4906(23)
C2B C 0.0858(3) 0.1716(2) 0.52683(13)
C1B C 0.1820(4) 0.3639(2) 0.5563(2)
H2B H 0.0939(43) 0.3897(48) 0.5883(16)
H2U H 0.2958(43) 0.3897(48) 0.5883(16)
H3B H 0.2282(56) 0.4564(28) 0.5094(23)
C2A C -0.0858(3) 0.0858(2) 0.47317(13)
C1A C -0.1820(4) 0.1819(2) 0.4437(2)
H2A H -0.0939(43) 0.2958(48) 0.4117(16)
H2W H -0.2958(43) 0.0939(48) 0.4117(16)
H3A H -0.2282(56) 0.2282(28) 0.4906(23)
C2D C -0.1716(3) -0.0858(2) 0.52683(13)
C1D C -0.3639(4) -0.1819(2) 0.5563(2)
H2D H -0.3897(43) -0.2958(48) 0.5883(16)
H2R H -0.3897(43) -0.0939(48) 0.5883(16)
H3D H -0.4564(56) -0.2282(28) 0.5094(23)
C2C C -0.0858(3) -0.1716(2) 0.47317(13)
C1C C -0.1819(4) -0.3639(2) 0.4437(2)
H2C H -0.2958(43) -0.3897(48) 0.4117(16)
H2T H -0.0939(43) -0.3897(48) 0.4117(16)
H3C H -0.2282(56) -0.4564(28) 0.4906(23)
C2E C 0.0858(3) -0.0858(2) 0.52683(13)
C1E C 0.1819(4) -0.1820(2) 0.5563(2)
H2E H 0.2958(43) -0.0939(48) 0.5883(16)
H2S H 0.0939(43) -0.2958(48) 0.5883(16)
H3E H 0.2282(56) -0.2282(28) 0.5094(23)
H1A H -0.1266(23) -0.0633(47) 0.3075(16)
H1C H 0.0633(23) -0.0633(47) 0.3075(16)
C3B C 0.00000 0.00000 0.5809(2)
C4B C 0.00000 0.00000 0.6702(3)
H1E H -0.0633(23) -0.1266(47) 0.6925(16)
H1D H -0.0633(23) 0.0633(47) 0.6925(16)
H1B H 0.1266(23) 0.0633(47) 0.6925(16)
H2V H 0.3897(43) 0.2958(48) 0.4117(16)
#END
