####################################################################### 
# 
# This file contains crystal structure data downloaded from the 
# Cambridge Structural Database (CSD) hosted by the Cambridge 
# Crystallographic Data Centre (CCDC).
# 
# Full information about CCDC data access policies and citation 
# guidelines are available at http://www.ccdc.cam.ac.uk/access/V1 
# 
# Audit and citation data items may have been added by the CCDC. 
# Please retain this information to preserve the provenance of 
# this file and to allow appropriate attribution of the data. 
# 
#######################################################################

data_zhao25r-sr
_audit_block_doi                 10.5517/ccz1415
_database_code_depnum_ccdc_archive 'CCDC 894816'
loop_
_citation_id
_citation_doi
_citation_year
1 10.1038/srep01149 2013
_audit_update_record             
;
2012-08-04 deposited with the CCDC.	2024-07-12 downloaded from the CCDC.
;
#TrackingRef 'web_deposit_cif_file_0_WangXiao-Jun_1344058806.zhao25r-sr.cif'


_audit_creation_method           SHELXL-97
_chemical_name_systematic        
;
?
;
_chemical_name_common            ?
_chemical_melting_point          ?
_chemical_formula_moiety         ?
_chemical_formula_sum            'C36 H21 Cu3 N9 O15'
_chemical_formula_weight         1010.27

loop_
_atom_type_symbol
_atom_type_description
_atom_type_scat_dispersion_real
_atom_type_scat_dispersion_imag
_atom_type_scat_source
C C 0.0033 0.0016 'International Tables Vol C Tables 4.2.6.8 and 6.1.1.4'
H H 0.0000 0.0000 'International Tables Vol C Tables 4.2.6.8 and 6.1.1.4'
Cu Cu 0.3201 1.2651 'International Tables Vol C Tables 4.2.6.8 and 6.1.1.4'
N N 0.0061 0.0033 'International Tables Vol C Tables 4.2.6.8 and 6.1.1.4'
O O 0.0106 0.0060 'International Tables Vol C Tables 4.2.6.8 and 6.1.1.4'

_symmetry_cell_setting           Tetragonal
_symmetry_space_group_name_H-M   I4/m

loop_
_symmetry_equiv_pos_as_xyz
'x, y, z'
'-x, -y, z'
'-y, x, z'
'y, -x, z'
'x+1/2, y+1/2, z+1/2'
'-x+1/2, -y+1/2, z+1/2'
'-y+1/2, x+1/2, z+1/2'
'y+1/2, -x+1/2, z+1/2'
'-x, -y, -z'
'x, y, -z'
'y, -x, -z'
'-y, x, -z'
'-x+1/2, -y+1/2, -z+1/2'
'x+1/2, y+1/2, -z+1/2'
'y+1/2, -x+1/2, -z+1/2'
'-y+1/2, x+1/2, -z+1/2'

_cell_length_a                   30.7992(11)
_cell_length_b                   30.7992(11)
_cell_length_c                   44.8105(19)
_cell_angle_alpha                90.00
_cell_angle_beta                 90.00
_cell_angle_gamma                90.00
_cell_volume                     42507(3)
_cell_formula_units_Z            16
_cell_measurement_temperature    103(2)
_cell_measurement_reflns_used    7526
_cell_measurement_theta_min      2.41
_cell_measurement_theta_max      22.43

_exptl_crystal_description       block
_exptl_crystal_colour            blue
_exptl_crystal_size_max          0.20
_exptl_crystal_size_mid          0.18
_exptl_crystal_size_min          0.18
_exptl_crystal_density_meas      ?
_exptl_crystal_density_diffrn    0.632
_exptl_crystal_density_method    'not measured'
_exptl_crystal_F_000             22496
_exptl_absorpt_coefficient_mu    0.626
_exptl_absorpt_correction_type   none
_exptl_absorpt_correction_T_min  0.8723
_exptl_absorpt_correction_T_max  0.8840
_exptl_absorpt_process_details   ?

_exptl_special_details           
;
?
;

_diffrn_ambient_temperature      103(2)
_diffrn_radiation_wavelength     0.71073
_diffrn_radiation_type           MoK\a
_diffrn_radiation_source         'fine-focus sealed tube'
_diffrn_radiation_monochromator  graphite
_diffrn_measurement_device_type  'Bruker APEX-II CCD'
_diffrn_measurement_method       '\f and \w scans'
_diffrn_detector_area_resol_mean ?
_diffrn_reflns_number            198017
_diffrn_reflns_av_R_equivalents  0.1494
_diffrn_reflns_av_sigmaI/netI    0.1571
_diffrn_reflns_limit_h_min       -41
_diffrn_reflns_limit_h_max       38
_diffrn_reflns_limit_k_min       -41
_diffrn_reflns_limit_k_max       30
_diffrn_reflns_limit_l_min       -59
_diffrn_reflns_limit_l_max       59
_diffrn_reflns_theta_min         1.52
_diffrn_reflns_theta_max         28.30
_reflns_number_total             26725
_reflns_number_gt                11309
_reflns_threshold_expression     >2sigma(I)

_computing_data_collection       'Bruker APEX2'
_computing_cell_refinement       'Bruker SAINT'
_computing_data_reduction        'Bruker SAINT'
_computing_structure_solution    'SHELXS-97 (Sheldrick, 2008)'
_computing_structure_refinement  'SHELXL-97 (Sheldrick, 2008)'
_computing_molecular_graphics    'Bruker SHELXTL'
_computing_publication_material  'Bruker SHELXTL'

_refine_special_details          
;
loop_
_platon_squeeze_void_nr
_platon_squeeze_void_average_x
_platon_squeeze_void_average_y
_platon_squeeze_void_average_z
_platon_squeeze_void_volume
_platon_squeeze_void_count_electrons
_platon_squeeze_void_content
1 -0.002 -0.015 -0.004 31187 14449 ' '
_platon_squeeze_details

The unit cell contains 360 DMF molecules, which have been treated as a
diffuse contribution to the overall scattering without specific atom
positions by SQUEEZE/PLATON.

Refinement of F^2^ against ALL reflections. The weighted R-factor wR and
goodness of fit S are based on F^2^, conventional R-factors R are based
on F, with F set to zero for negative F^2^. The threshold expression of
F^2^ > 2sigma(F^2^) is used only for calculating R-factors(gt) etc. and is
not relevant to the choice of reflections for refinement. R-factors based
on F^2^ are statistically about twice as large as those based on F, and R-
factors based on ALL data will be even larger.
;

_refine_ls_structure_factor_coef Fsqd
_refine_ls_matrix_type           full
_refine_ls_weighting_scheme      calc
_refine_ls_weighting_details     
'calc w=1/[\s^2^(Fo^2^)+(0.0643P)^2^+0.0000P] where P=(Fo^2^+2Fc^2^)/3'
_atom_sites_solution_primary     direct
_atom_sites_solution_secondary   difmap
_atom_sites_solution_hydrogens   geom
_refine_ls_hydrogen_treatment    mixed
_refine_ls_extinction_method     none
_refine_ls_extinction_coef       ?
_refine_ls_number_reflns         26725
_refine_ls_number_parameters     583
_refine_ls_number_restraints     761
_refine_ls_R_factor_all          0.1328
_refine_ls_R_factor_gt           0.0513
_refine_ls_wR_factor_ref         0.1570
_refine_ls_wR_factor_gt          0.1432
_refine_ls_goodness_of_fit_ref   0.894
_refine_ls_restrained_S_all      0.959
_refine_ls_shift/su_max          0.001
_refine_ls_shift/su_mean         0.000

loop_
_atom_site_label
_atom_site_type_symbol
_atom_site_fract_x
_atom_site_fract_y
_atom_site_fract_z
_atom_site_U_iso_or_equiv
_atom_site_adp_type
_atom_site_occupancy
_atom_site_symmetry_multiplicity
_atom_site_calc_flag
_atom_site_refinement_flags
_atom_site_disorder_assembly
_atom_site_disorder_group
Cu1 Cu 0.349434(14) 0.400846(14) 0.128230(10) 0.03120(12) Uani 1 1 d D . .
Cu2 Cu 0.297549(14) 0.365994(14) 0.169326(10) 0.03317(12) Uani 1 1 d D . .
Cu3 Cu 0.45119(2) 0.250588(18) 0.0000 0.03023(15) Uani 1 2 d SD . .
Cu4 Cu 0.43513(2) 0.165540(19) 0.0000 0.03193(16) Uani 1 2 d SD . .
C1 C 0.35851(13) 0.22663(12) 0.06651(9) 0.0425(10) Uani 1 1 d U . .
C2 C 0.33905(14) 0.18990(13) 0.07806(10) 0.0567(12) Uani 1 1 d U . .
H2 H 0.3420 0.1626 0.0684 0.068 Uiso 1 1 calc R . .
C3 C 0.31457(15) 0.19396(14) 0.10461(11) 0.0648(13) Uani 1 1 d U . .
C4 C 0.30822(14) 0.23329(13) 0.11799(10) 0.0591(12) Uani 1 1 d U . .
H4A H 0.2913 0.2356 0.1357 0.071 Uiso 1 1 calc R . .
C5 C 0.32702(13) 0.26992(12) 0.10516(9) 0.0465(10) Uani 1 1 d U . .
C6 C 0.35210(12) 0.26683(12) 0.07971(8) 0.0379(9) Uani 1 1 d U . .
H6 H 0.3649 0.2921 0.0713 0.045 Uiso 1 1 calc R . .
C7 C 0.32365(12) 0.31284(12) 0.12079(9) 0.0389(9) Uani 1 1 d U . .
C8 C 0.38917(12) 0.22080(13) 0.04048(8) 0.0392(9) Uani 1 1 d U . .
C9 C 0.31447(18) 0.11537(15) 0.11473(12) 0.0881(16) Uani 1 1 d U . .
H9A H 0.3387 0.1063 0.1032 0.106 Uiso 1 1 calc R . .
C10 C 0.2888(2) 0.09054(16) 0.13203(14) 0.1037(18) Uani 1 1 d U . .
C11 C 0.2913(2) 0.04306(16) 0.13905(13) 0.1052(18) Uani 1 1 d U . .
C12 C 0.3192(2) 0.01778(17) 0.12190(14) 0.1102(19) Uani 1 1 d U . .
H12 H 0.3332 0.0296 0.1048 0.132 Uiso 1 1 calc R . .
C13 C 0.3266(2) -0.02641(16) 0.13056(14) 0.1074(18) Uani 1 1 d U . .
C14 C 0.3031(2) -0.04310(16) 0.15365(13) 0.1049(19) Uani 1 1 d U . .
H14 H 0.3057 -0.0732 0.1580 0.126 Uiso 1 1 calc R . .
C15 C 0.2754(2) -0.01797(16) 0.17104(13) 0.1008(17) Uani 1 1 d U . .
C16 C 0.2671(2) 0.02572(16) 0.16315(13) 0.1040(18) Uani 1 1 d U . .
H16 H 0.2463 0.0427 0.1736 0.125 Uiso 1 1 calc R . .
C17 C 0.3559(2) -0.05320(17) 0.11379(14) 0.1158(19) Uani 1 1 d U . .
C18 C 0.36803(19) -0.09461(16) 0.11758(12) 0.0959(18) Uani 1 1 d U . .
H18 H 0.3564 -0.1141 0.1319 0.115 Uiso 1 1 calc R . .
C19 C 0.42028(17) -0.14486(14) 0.09230(11) 0.0737(14) Uani 1 1 d U . .
C20 C 0.40519(15) -0.18059(13) 0.10823(10) 0.0598(12) Uani 1 1 d U . .
H20 H 0.3834 -0.1775 0.1231 0.072 Uiso 1 1 calc R . .
C21 C 0.42307(13) -0.22105(12) 0.10168(9) 0.0439(10) Uani 1 1 d U . .
C22 C 0.45313(12) -0.22547(12) 0.07916(8) 0.0412(10) Uani 1 1 d U . .
H22 H 0.4641 -0.2534 0.0742 0.049 Uiso 1 1 calc R . .
C23 C 0.46741(14) -0.18917(13) 0.06377(9) 0.0481(10) Uani 1 1 d U . .
C24 C 0.45084(16) -0.14844(14) 0.07014(10) 0.0659(13) Uani 1 1 d U . .
H24 H 0.4604 -0.1236 0.0594 0.079 Uiso 1 1 calc R . .
C25 C 0.40883(12) -0.25855(12) 0.11946(9) 0.0385(9) Uani 1 1 d U . .
C26 C 0.50026(13) -0.19473(13) 0.03936(8) 0.0424(10) Uani 1 1 d U . .
C27 C 0.2528(2) -0.03540(17) 0.19651(13) 0.1018(17) Uani 1 1 d U . .
C28 C 0.23258(18) -0.01409(16) 0.21963(12) 0.0932(17) Uani 1 1 d U . .
H28 H 0.2286 0.0163 0.2217 0.112 Uiso 1 1 calc R . .
C29 C 0.20032(16) -0.04053(14) 0.26690(10) 0.0682(13) Uani 1 1 d U . .
C30 C 0.19807(14) -0.00027(13) 0.28039(10) 0.0557(12) Uani 1 1 d U . .
H30 H 0.2110 0.0244 0.2713 0.067 Uiso 1 1 calc R . .
C31 C 0.17690(12) 0.00338(12) 0.30703(9) 0.0423(10) Uani 1 1 d U . .
C32 C 0.15847(12) -0.03310(12) 0.32088(9) 0.0428(10) Uani 1 1 d U . .
H32 H 0.1436 -0.0302 0.3394 0.051 Uiso 1 1 calc R . .
C33 C 0.16204(13) -0.07262(12) 0.30759(9) 0.0466(10) Uani 1 1 d U . .
C34 C 0.18227(15) -0.07732(14) 0.28019(10) 0.0622(13) Uani 1 1 d U . .
H34 H 0.1838 -0.1049 0.2707 0.075 Uiso 1 1 calc R . .
C35 C 0.17542(12) 0.04638(12) 0.32296(9) 0.0393(9) Uani 1 1 d U . .
C36 C 0.14390(13) -0.11136(12) 0.32324(9) 0.0425(10) Uani 1 1 d U . .
N1 N 0.29846(14) 0.15571(12) 0.11735(10) 0.0874(13) Uani 1 1 d U . .
N2 N 0.26212(17) 0.15675(14) 0.13483(12) 0.1144(17) Uani 1 1 d U . .
N3 N 0.25623(18) 0.11610(15) 0.14405(13) 0.1265(18) Uani 1 1 d U . .
N4 N 0.3805(2) -0.03774(18) 0.09053(14) 0.166(2) Uani 1 1 d U . .
N5 N 0.4095(2) -0.06856(18) 0.08250(14) 0.161(2) Uani 1 1 d U . .
N6 N 0.39843(16) -0.10367(13) 0.09825(10) 0.0988(15) Uani 1 1 d U . .
N7 N 0.2270(2) -0.08580(15) 0.22654(12) 0.1345(19) Uani 1 1 d U . .
N8 N 0.21966(16) -0.04518(13) 0.23853(10) 0.1014(15) Uani 1 1 d U . .
N9 N 0.2495(2) -0.07955(16) 0.20116(13) 0.1401(19) Uani 1 1 d U . .
O1 O 0.34101(9) 0.34451(8) 0.10818(6) 0.0460(7) Uani 1 1 d U . .
O2 O 0.30375(8) 0.31355(8) 0.14535(6) 0.0439(7) Uani 1 1 d U . .
O3 O 0.39104(11) 0.42666(13) 0.09500(8) 0.0871(12) Uani 1 1 d DU . .
H4O H 0.4111(12) 0.4070(9) 0.0896(10) 0.131 Uiso 1 1 d D . .
H3O H 0.4039(13) 0.4497(9) 0.1006(8) 0.131 Uiso 1 1 d D . .
O4 O 0.25447(10) 0.33910(11) 0.20122(7) 0.0929(12) Uani 1 1 d DU . .
H5O H 0.2401 0.3167 0.1931 0.139 Uiso 1 1 d RD . .
H6O H 0.2680 0.3300 0.2167 0.139 Uiso 1 1 d RD . .
O5 O 0.40624(8) 0.25504(8) 0.03068(5) 0.0420(7) Uani 1 1 d U . .
O6 O 0.39403(8) 0.18292(8) 0.03078(6) 0.0417(7) Uani 1 1 d U . .
O7 O 0.46763(17) 0.31762(13) 0.0000 0.0812(16) Uani 1 2 d SDU . .
H2O H 0.4642(17) 0.3283(8) -0.0179(6) 0.122 Uiso 1 1 d D . .
O8 O 0.48063(8) 0.16104(8) -0.03028(6) 0.0429(7) Uani 1 1 d U . .
O9 O 0.41787(15) 0.09877(12) 0.0000 0.0791(15) Uani 1 2 d SDU . .
H1O H 0.4069 0.0924 0.0184 0.119 Uiso 1 1 d RD . .
O10 O 0.50751(9) -0.23302(8) 0.03101(6) 0.0463(7) Uani 1 1 d U . .
O11 O 0.42160(8) -0.29541(8) 0.11044(6) 0.0459(7) Uani 1 1 d U . .
O12 O 0.38574(8) -0.25179(8) 0.14183(6) 0.0434(7) Uani 1 1 d U . .
O13 O 0.14888(9) -0.14799(9) 0.31048(6) 0.0548(8) Uani 1 1 d U . .
O14 O 0.12514(9) -0.10440(8) 0.34733(6) 0.0501(7) Uani 1 1 d U . .
O15 O 0.19982(8) 0.07582(8) 0.31319(6) 0.0442(7) Uani 1 1 d U . .
O16 O 0.15094(8) 0.04899(8) 0.34513(6) 0.0463(7) Uani 1 1 d U . .

loop_
_atom_site_aniso_label
_atom_site_aniso_U_11
_atom_site_aniso_U_22
_atom_site_aniso_U_33
_atom_site_aniso_U_23
_atom_site_aniso_U_13
_atom_site_aniso_U_12
Cu1 0.0315(3) 0.0311(3) 0.0311(2) 0.0115(2) 0.0087(2) 0.00519(19)
Cu2 0.0335(3) 0.0343(3) 0.0317(3) 0.0120(2) 0.0095(2) 0.0043(2)
Cu3 0.0478(4) 0.0208(3) 0.0221(3) 0.000 0.000 -0.0021(3)
Cu4 0.0519(4) 0.0207(3) 0.0232(3) 0.000 0.000 -0.0034(3)
C1 0.053(2) 0.034(2) 0.041(2) 0.0071(18) 0.0129(19) -0.0025(18)
C2 0.067(3) 0.039(2) 0.065(3) -0.004(2) 0.021(2) 0.000(2)
C3 0.081(3) 0.039(2) 0.074(3) 0.010(2) 0.047(2) -0.002(2)
C4 0.074(3) 0.040(2) 0.063(3) 0.008(2) 0.036(2) 0.010(2)
C5 0.057(2) 0.035(2) 0.048(2) 0.0141(19) 0.011(2) 0.0054(19)
C6 0.051(2) 0.031(2) 0.032(2) 0.0071(17) 0.0085(18) -0.0004(18)
C7 0.044(2) 0.031(2) 0.042(2) 0.0137(18) 0.0090(18) 0.0043(17)
C8 0.050(2) 0.040(2) 0.027(2) 0.0033(18) 0.0053(17) -0.0019(19)
C9 0.126(4) 0.045(3) 0.093(3) 0.010(3) 0.076(3) 0.010(3)
C10 0.142(4) 0.048(3) 0.121(4) 0.008(3) 0.095(3) 0.013(3)
C11 0.150(4) 0.052(3) 0.114(4) 0.016(3) 0.091(3) 0.014(3)
C12 0.157(4) 0.062(3) 0.112(4) 0.020(3) 0.089(3) 0.023(3)
C13 0.155(4) 0.051(3) 0.116(4) 0.015(3) 0.095(3) 0.024(3)
C14 0.154(4) 0.052(3) 0.108(4) 0.009(3) 0.091(3) 0.020(3)
C15 0.153(4) 0.045(3) 0.104(3) 0.009(3) 0.084(3) 0.006(3)
C16 0.152(4) 0.052(3) 0.108(4) 0.001(3) 0.079(3) -0.001(3)
C17 0.175(4) 0.058(3) 0.115(4) 0.022(3) 0.106(3) 0.026(3)
C18 0.146(4) 0.051(3) 0.091(4) 0.007(3) 0.080(3) 0.016(3)
C19 0.106(3) 0.041(2) 0.075(3) 0.003(2) 0.046(3) 0.014(2)
C20 0.080(3) 0.040(2) 0.059(3) 0.002(2) 0.041(2) 0.003(2)
C21 0.052(2) 0.034(2) 0.045(2) 0.0019(18) 0.0171(19) -0.0014(18)
C22 0.050(2) 0.031(2) 0.042(2) -0.0001(18) 0.0112(19) 0.0029(18)
C23 0.064(3) 0.041(2) 0.039(2) 0.0050(19) 0.018(2) 0.004(2)
C24 0.095(3) 0.042(2) 0.061(3) 0.006(2) 0.042(3) 0.009(2)
C25 0.039(2) 0.030(2) 0.047(2) 0.0013(18) 0.0142(18) -0.0049(17)
C26 0.059(3) 0.041(2) 0.028(2) 0.0035(18) 0.0107(18) 0.006(2)
C27 0.155(4) 0.054(3) 0.097(3) 0.010(3) 0.082(3) -0.001(3)
C28 0.134(4) 0.053(3) 0.093(4) 0.005(3) 0.078(3) 0.002(3)
C29 0.099(3) 0.041(2) 0.064(3) 0.005(2) 0.058(2) 0.004(2)
C30 0.073(3) 0.032(2) 0.062(3) 0.003(2) 0.037(2) 0.000(2)
C31 0.046(2) 0.034(2) 0.047(2) -0.0002(18) 0.0194(19) -0.0016(18)
C32 0.044(2) 0.039(2) 0.045(2) -0.0037(19) 0.0137(18) 0.0009(19)
C33 0.057(2) 0.035(2) 0.048(2) 0.0042(19) 0.029(2) -0.0036(19)
C34 0.088(3) 0.038(2) 0.061(3) 0.001(2) 0.032(2) -0.008(2)
C35 0.038(2) 0.037(2) 0.043(2) 0.0086(18) 0.0134(18) 0.0028(18)
C36 0.056(2) 0.031(2) 0.040(2) -0.0016(18) 0.0194(19) -0.0059(18)
N1 0.116(3) 0.042(2) 0.104(3) 0.014(2) 0.077(3) 0.013(2)
N2 0.145(4) 0.051(3) 0.147(4) 0.019(3) 0.103(3) 0.009(3)
N3 0.155(4) 0.063(3) 0.162(4) 0.016(3) 0.111(3) 0.010(3)
N4 0.227(5) 0.093(4) 0.177(4) 0.031(3) 0.141(4) 0.044(3)
N5 0.220(5) 0.088(3) 0.176(4) 0.029(3) 0.142(4) 0.046(3)
N6 0.149(3) 0.046(2) 0.102(3) 0.014(2) 0.085(3) 0.018(2)
N7 0.213(4) 0.070(3) 0.120(4) -0.003(3) 0.117(3) -0.001(3)
N8 0.157(4) 0.050(2) 0.098(3) 0.001(2) 0.091(3) 0.002(2)
N9 0.217(5) 0.078(3) 0.125(4) 0.009(3) 0.105(4) -0.002(3)
O1 0.0632(18) 0.0322(15) 0.0426(16) 0.0033(13) 0.0144(14) 0.0018(13)
O2 0.0526(17) 0.0350(15) 0.0442(17) 0.0112(13) 0.0158(14) 0.0058(12)
O3 0.074(2) 0.131(3) 0.057(2) 0.020(2) 0.0157(18) -0.045(2)
O4 0.083(2) 0.111(3) 0.085(3) 0.055(2) 0.040(2) -0.016(2)
O5 0.0605(18) 0.0287(15) 0.0367(15) 0.0050(12) 0.0156(13) -0.0057(13)
O6 0.0586(18) 0.0244(14) 0.0420(16) 0.0025(12) 0.0181(13) -0.0065(12)
O7 0.070(3) 0.028(2) 0.145(5) 0.000 0.000 -0.011(2)
O8 0.0582(18) 0.0337(15) 0.0368(16) -0.0001(12) 0.0144(13) 0.0020(13)
O9 0.125(4) 0.036(2) 0.076(3) 0.000 0.000 -0.019(2)
O10 0.0684(19) 0.0343(16) 0.0362(16) -0.0017(12) 0.0202(14) 0.0016(14)
O11 0.0473(17) 0.0386(16) 0.0517(18) 0.0070(13) 0.0232(14) 0.0000(13)
O12 0.0470(17) 0.0334(15) 0.0499(17) -0.0020(13) 0.0159(14) -0.0028(12)
O13 0.0619(19) 0.0531(19) 0.0495(18) -0.0016(15) 0.0234(15) -0.0073(15)
O14 0.0591(18) 0.0477(17) 0.0433(17) -0.0106(13) 0.0292(14) -0.0110(14)
O15 0.0483(17) 0.0364(16) 0.0480(17) 0.0066(13) 0.0136(13) 0.0053(13)
O16 0.0515(17) 0.0411(16) 0.0464(17) -0.0017(13) 0.0178(14) -0.0008(13)

_geom_special_details            
;
All esds (except the esd in the dihedral angle between two l.s. planes)
are estimated using the full covariance matrix. The cell esds are taken
into account individually in the estimation of esds in distances, angles
and torsion angles; correlations between esds in cell parameters are only
used when they are defined by crystal symmetry. An approximate (isotropic)
treatment of cell esds is used for estimating esds involving l.s. planes.
;

loop_
_geom_bond_atom_site_label_1
_geom_bond_atom_site_label_2
_geom_bond_distance
_geom_bond_site_symmetry_2
_geom_bond_publ