####################################################################### 
# 
# This file contains crystal structure data downloaded from the 
# Cambridge Structural Database (CSD) hosted by the Cambridge 
# Crystallographic Data Centre (CCDC).
# 
# Full information about CCDC data access policies and citation 
# guidelines are available at http://www.ccdc.cam.ac.uk/access/V1 
# 
# Audit and citation data items may have been added by the CCDC. 
# Please retain this information to preserve the provenance of 
# this file and to allow appropriate attribution of the data. 
# 
#######################################################################

data_n1596
_audit_block_doi                 10.5517/cczkq4c
_database_code_depnum_ccdc_archive 'CCDC 910753'
loop_
_citation_id
_citation_doi
_citation_year
1 10.1039/c3ee24506c 2013
_audit_update_record             
;
2012-11-14 deposited with the CCDC.	2024-07-12 downloaded from the CCDC.
;
#TrackingRef 'web_deposit_cif_file_0_OmarKFarha_1352860810.n1596.cif'

_audit_creation_date             2012-02-06
_audit_creation_method           
;
Olex2 1.1
(compiled Nov 1 2011 20:42:30, GUI svn.r3906)
;
_chemical_name_common            ?
_chemical_name_systematic        
;
?
;
_chemical_formula_moiety         'C36 H21 Cu3 N9 O15'
_chemical_formula_sum            'C36 H21 Cu3 N9 O15'
_chemical_formula_weight         1010.24
_chemical_melting_point          ?
loop_
_atom_type_symbol
_atom_type_description
_atom_type_scat_dispersion_real
_atom_type_scat_dispersion_imag
_atom_type_scat_source
C C 0.0181 0.0091 'International Tables Vol C Tables 4.2.6.8 and 6.1.1.4'
H H 0.0000 0.0000 'International Tables Vol C Tables 4.2.6.8 and 6.1.1.4'
Cu Cu -1.9646 0.5888 'International Tables Vol C Tables 4.2.6.8 and 6.1.1.4'
N N 0.0311 0.0180 'International Tables Vol C Tables 4.2.6.8 and 6.1.1.4'
O O 0.0492 0.0322 'International Tables Vol C Tables 4.2.6.8 and 6.1.1.4'

_space_group_crystal_system      tetragonal
_space_group_IT_number           87
_space_group_name_H-M_alt        'I 4/m'
_space_group_name_Hall           '-I 4'
loop_
_space_group_symop_id
_space_group_symop_operation_xyz
1 'x, y, z'
2 '-y, x, z'
3 '-x, -y, z'
4 'y, -x, z'
5 'x+1/2, y+1/2, z+1/2'
6 '-y+1/2, x+1/2, z+1/2'
7 '-x+1/2, -y+1/2, z+1/2'
8 'y+1/2, -x+1/2, z+1/2'
9 '-x, -y, -z'
10 'y, -x, -z'
11 'x, y, -z'
12 '-y, x, -z'
13 '-x+1/2, -y+1/2, -z+1/2'
14 'y+1/2, -x+1/2, -z+1/2'
15 'x+1/2, y+1/2, -z+1/2'
16 '-y+1/2, x+1/2, -z+1/2'

_cell_length_a                   31.3109(11)
_cell_length_b                   31.3109(11)
_cell_length_c                   44.807(3)
_cell_angle_alpha                90.00
_cell_angle_beta                 90.00
_cell_angle_gamma                90.00
_cell_volume                     43928(4)
_cell_formula_units_Z            16
_cell_measurement_reflns_used    8868
_cell_measurement_temperature    225(2)
_cell_measurement_theta_max      55.29
_cell_measurement_theta_min      3.44
_exptl_absorpt_coefficient_mu    0.939
_exptl_absorpt_correction_T_max  0.7515
_exptl_absorpt_correction_T_min  0.5835
_exptl_absorpt_correction_type   multi-scan
_exptl_absorpt_process_details   
;
SADABS-2008/1 (Bruker,2008) was used for absorption correction.
R(int) was 0.1118 before and 0.0916 after correction.
The Ratio of minimum to maximum transmission is 0.7764.
The \l/2 correction factor is 0.0015.
;
_exptl_crystal_colour            blue
_exptl_crystal_colour_primary    blue
_exptl_crystal_density_diffrn    0.611
_exptl_crystal_density_meas      ?
_exptl_crystal_density_method    'not measured'
_exptl_crystal_description       prism
_exptl_crystal_F_000             8112
_exptl_crystal_size_max          0.10
_exptl_crystal_size_mid          0.07
_exptl_crystal_size_min          0.05
_exptl_special_details           
;
?
;
_diffrn_reflns_av_R_equivalents  0.1767
_diffrn_reflns_av_unetI/netI     0.1705
_diffrn_reflns_limit_h_max       34
_diffrn_reflns_limit_h_min       -30
_diffrn_reflns_limit_k_max       34
_diffrn_reflns_limit_k_min       -34
_diffrn_reflns_limit_l_max       27
_diffrn_reflns_limit_l_min       -49
_diffrn_reflns_number            57534
_diffrn_reflns_theta_full        59.12
_diffrn_reflns_theta_max         59.12
_diffrn_reflns_theta_min         2.82
_diffrn_ambient_temperature      225.0
_diffrn_detector_area_resol_mean 8
_diffrn_measured_fraction_theta_full 0.979
_diffrn_measured_fraction_theta_max 0.979
_diffrn_measurement_device_type  'Bruker Kappa APEX CCD area detector'
_diffrn_measurement_method       '\w and \f scans'
_diffrn_radiation_monochromator  'MX optics'
_diffrn_radiation_type           CuK\a
_diffrn_radiation_wavelength     1.54184
_diffrn_source                   microsource
_diffrn_source_current           0.65
_diffrn_source_power             0.02925
_diffrn_source_voltage           45.0
_reflns_number_gt                6899
_reflns_number_total             15789
_reflns_threshold_expression     >2sigma(I)
_computing_cell_refinement       'Bruker SAINT'
_computing_data_collection       'Bruker APEX2'
_computing_data_reduction        'Bruker SAINT'
_computing_molecular_graphics    
;
O. V. Dolomanov, L. J. Bourhis, R. J. Gildea, J. A. K. Howard and H. Puschmann,
OLEX2: a complete structure solution, refinement and analysis program.
J. Appl. Cryst. (2009). 42, 339-341.
;
_computing_publication_material  
;
O. V. Dolomanov, L. J. Bourhis, R. J. Gildea, J. A. K. Howard and H. Puschmann,
OLEX2: a complete structure solution, refinement and analysis program.
J. Appl. Cryst. (2009). 42, 339-341.
;
_computing_structure_refinement  
;
XL, G.M. Sheldrick, Acta Cryst.
(2008). A64, 112-122
;
_computing_structure_solution    
;
XM, G.M. Sheldrick, Acta Cryst.
(2008). A64, 112-122
;
_refine_diff_density_max         0.717
_refine_diff_density_min         -0.746
_refine_diff_density_rms         0.099
_refine_ls_extinction_coef       ?
_refine_ls_extinction_method     none
_refine_ls_goodness_of_fit_ref   0.941
_refine_ls_hydrogen_treatment    constr
_refine_ls_matrix_type           full
_refine_ls_number_parameters     576
_refine_ls_number_reflns         15789
_refine_ls_number_restraints     543
_refine_ls_R_factor_all          0.1631
_refine_ls_R_factor_gt           0.1158
_refine_ls_restrained_S_all      0.944
_refine_ls_shift/su_max          0.000
_refine_ls_shift/su_mean         0.000
_refine_ls_structure_factor_coef Fsqd
_refine_ls_weighting_details     
'calc w=1/[\s^2^(Fo^2^)+(0.1707P)^2^+0.0000P] where P=(Fo^2^+2Fc^2^)/3'
_refine_ls_weighting_scheme      calc
_refine_ls_wR_factor_gt          0.2993
_refine_ls_wR_factor_ref         0.3191
_refine_special_details          
;
Refinement of F^2^ against ALL reflections. The weighted R-factor wR and
goodness of fit S are based on F^2^, conventional R-factors R are based
on F, with F set to zero for negative F^2^. The threshold expression of
F^2^ > 2sigma(F^2^) is used only for calculating R-factors(gt) etc. and is
not relevant to the choice of reflections for refinement. R-factors based
on F^2^ are statistically about twice as large as those based on F, and R-
factors based on ALL data will be even larger.

Global rigid bond and similarity restraints were employed to keep displacement
parameters reasonable. An ISOR restraint was applied to C12.
;
_atom_sites_solution_hydrogens   geom
_atom_sites_solution_primary     direct
_atom_sites_solution_secondary   difmap
loop_
_atom_site_label
_atom_site_type_symbol
_atom_site_fract_x
_atom_site_fract_y
_atom_site_fract_z
_atom_site_U_iso_or_equiv
_atom_site_adp_type
_atom_site_occupancy
_atom_site_symmetry_multiplicity
_atom_site_calc_flag
_atom_site_refinement_flags
_atom_site_disorder_assembly
_atom_site_disorder_group
Cu1 Cu 0.64495(4) 0.39505(4) 0.12720(3) 0.0519(4) Uani 1 1 d U . .
Cu2 Cu 0.69391(4) 0.35868(4) 0.16816(3) 0.0517(4) Uani 1 1 d U . .
Cu3 Cu 0.53852(5) 0.25052(5) 0.0000 0.0486(4) Uani 1 2 d SDU . .
Cu4 Cu 0.55021(5) 0.16650(5) 0.0000 0.0485(4) Uani 1 2 d SDU . .
O1 O 0.59874(17) 0.3734(2) 0.15158(15) 0.0672(16) Uani 1 1 d U . .
O2 O 0.63928(18) 0.3482(2) 0.18780(12) 0.0627(15) Uani 1 1 d U . .
O3 O 0.64814(18) 0.33936(18) 0.10668(14) 0.0613(15) Uani 1 1 d U . .
O4 O 0.6871(2) 0.30753(18) 0.14342(14) 0.0706(16) Uani 1 1 d U . .
O5 O 0.69668(19) 0.41068(19) 0.10981(14) 0.0664(16) Uani 1 1 d U . .
O6 O 0.74009(19) 0.3751(2) 0.14197(15) 0.0758(17) Uani 1 1 d U . .
O7 O 0.64956(17) 0.44410(17) 0.15235(14) 0.0587(15) Uani 1 1 d U . .
O8 O 0.6942(2) 0.41524(19) 0.18747(14) 0.0707(17) Uani 1 1 d U . .
O9 O 0.6048(3) 0.4251(3) 0.09514(16) 0.123(3) Uani 1 1 d U . .
H9A H 0.6199 0.4400 0.0793 0.184 Uiso 1 1 d R . .
H9B H 0.5855 0.4064 0.0842 0.184 Uiso 1 1 d R . .
O10 O 0.7321(3) 0.3235(2) 0.2011(2) 0.116(3) Uani 1 1 d U . .
H10A H 0.7166 0.3038 0.2093 0.174 Uiso 1 1 d R . .
H10B H 0.7538 0.3116 0.1924 0.174 Uiso 1 1 d R . .
O11 O 0.5836(2) 0.25202(18) 0.03033(14) 0.0696(16) Uani 1 1 d U . .
O12 O 0.5925(2) 0.1790(2) 0.03090(14) 0.0705(17) Uani 1 1 d U . .
O13 O 0.49665(19) 0.2377(2) 0.03027(14) 0.0684(17) Uani 1 1 d U . .
O14 O 0.50532(18) 0.16577(18) -0.02982(14) 0.0627(15) Uani 1 1 d U . .
O15 O 0.5282(3) 0.3213(3) 0.0000 0.108(4) Uani 1 2 d SU . .
H15 H 0.5328 0.3309 0.0170 0.162 Uiso 1 1 calc RD . .
O16 O 0.5614(3) 0.0983(3) 0.0000 0.120(4) Uani 1 2 d SU . .
H16 H 0.5495 0.0874 -0.0147 0.179 Uiso 1 1 calc RD . .
N1 N 0.5354(3) 0.2744(4) 0.2590(2) 0.144(5) Uani 1 1 d U . .
N2 N 0.5762(3) 0.2534(6) 0.2631(3) 0.201(7) Uani 1 1 d U . .
N3 N 0.5660(3) 0.2422(6) 0.2923(3) 0.210(7) Uani 1 1 d U . .
N4 N 0.3686(6) 0.0485(4) 0.0886(3) 0.218(7) Uani 1 1 d U . .
N5 N 0.3849(6) 0.0831(4) 0.0762(3) 0.198(7) Uani 1 1 d U . .
N6 N 0.3876(4) 0.1121(3) 0.0985(3) 0.138(4) Uani 1 1 d U . .
N7 N 0.6894(4) 0.1514(3) 0.1160(3) 0.152(5) Uani 1 1 d U . .
N8 N 0.7209(5) 0.1563(4) 0.1368(3) 0.173(6) Uani 1 1 d U . .
N9 N 0.7282(5) 0.1137(3) 0.1443(3) 0.157(5) Uani 1 1 d U . .
C1 C 0.6030(3) 0.3548(3) 0.1743(2) 0.0549(19) Uani 1 1 d U . .
C2 C 0.5639(3) 0.3342(4) 0.1916(2) 0.088(3) Uani 1 1 d U . .
C3 C 0.5689(3) 0.3160(3) 0.2170(2) 0.069(3) Uani 1 1 d U . .
H3 H 0.5960 0.3142 0.2260 0.082 Uiso 1 1 calc R . .
C4 C 0.5342(4) 0.2994(5) 0.2304(3) 0.111(4) Uani 1 1 d U . .
C5 C 0.5079(3) 0.2626(4) 0.2763(2) 0.103(4) Uani 1 1 d U . .
H5 H 0.4782 0.2668 0.2749 0.123 Uiso 1 1 calc R . .
C6 C 0.5315(3) 0.2404(5) 0.2999(3) 0.132(5) Uani 1 1 d U . .
C7 C 0.5143(4) 0.2237(6) 0.3272(3) 0.152(6) Uani 1 1 d U . .
C8 C 0.4696(4) 0.2180(5) 0.3322(3) 0.163(7) Uani 1 1 d U . .
H8 H 0.4502 0.2252 0.3170 0.195 Uiso 1 1 calc R . .
C9 C 0.4559(4) 0.2037(7) 0.3560(4) 0.189(9) Uani 1 1 d U . .
C10 C 0.3293(7) -0.0127(4) 0.1276(3) 0.175(8) Uani 1 1 d U . .
H10 H 0.3466 -0.0240 0.1124 0.210 Uiso 1 1 calc R . .
C11 C 0.3335(7) 0.0275(4) 0.1341(3) 0.160(7) Uani 1 1 d U . .
C12 C 0.5431(3) 0.1972(4) 0.3435(3) 0.127(5) Uani 1 1 d U . .
H12 H 0.5726 0.1993 0.3398 0.152 Uiso 1 1 calc R . .
C13 C 0.3557(5) 0.0535(4) 0.1155(4) 0.154(6) Uani 1 1 d U . .
C14 C 0.3632(5) 0.1026(4) 0.1205(3) 0.131(5) Uani 1 1 d U . .
H14 H 0.3525 0.1203 0.1357 0.158 Uiso 1 1 calc R . .
C15 C 0.4070(4) 0.1493(3) 0.0900(3) 0.104(4) Uani 1 1 d U . .
C16 C 0.3927(3) 0.1881(3) 0.1081(3) 0.090(3) Uani 1 1 d U . .
H16A H 0.3718 0.1856 0.1230 0.108 Uiso 1 1 calc R . .
C17 C 0.4123(3) 0.2286(3) 0.1015(2) 0.064(2) Uani 1 1 d U . .
C18 C 0.4384(3) 0.2293(3) 0.0790(2) 0.075(3) Uani 1 1 d U . .
H18 H 0.4446 0.2566 0.0715 0.090 Uiso 1 1 calc R . .
C19 C 0.4588(4) 0.1953(3) 0.0643(2) 0.078(3) Uani 1 1 d U . .
C20 C 0.4350(4) 0.1558(3) 0.0687(3) 0.095(4) Uani 1 1 d U . .
H20 H 0.4400 0.1333 0.0553 0.114 Uiso 1 1 calc R . .
C21 C 0.4898(3) 0.1999(3) 0.0407(2) 0.063(2) Uani 1 1 d U . .
C22 C 0.6611(4) 0.3076(3) 0.1196(2) 0.079(3) Uani 1 1 d U . .
C23 C 0.6596(3) 0.2651(3) 0.1050(2) 0.066(2) Uani 1 1 d U . .
C24 C 0.6359(3) 0.2616(3) 0.0802(2) 0.058(2) Uani 1 1 d U . .
H24 H 0.6245 0.2863 0.0713 0.069 Uiso 1 1 calc R . .
C25 C 0.6277(3) 0.2205(3) 0.0670(2) 0.067(3) Uani 1 1 d U . .
C26 C 0.6471(3) 0.1874(3) 0.0790(3) 0.087(3) Uani 1 1 d U . .
H26 H 0.6466 0.1614 0.0684 0.104 Uiso 1 1 calc R . .
C27 C 0.6680(5) 0.1884(3) 0.1060(3) 0.121(5) Uani 1 1 d U . .
C28 C 0.6781(5) 0.2303(3) 0.1169(3) 0.114(5) Uani 1 1 d U . .
H28 H 0.6978 0.2335 0.1326 0.137 Uiso 1 1 calc R . .
C29 C 0.6025(3) 0.2155(3) 0.0417(2) 0.072(2) Uani 1 1 d U . .
C30 C 0.6718(6) 0.1112(3) 0.1162(3) 0.169(7) Uani 1 1 d U . .
H30 H 0.6466 0.1006 0.1075 0.203 Uiso 1 1 calc R . .
C030 C 0.7373(3) 0.3999(3) 0.1181(2) 0.074(2) Uani 1 1 d U . .
C31 C 0.7040(6) 0.0903(4) 0.1339(4) 0.172(7) Uani 1 1 d U . .
C32 C 0.6569(4) 0.5228(3) 0.1790(3) 0.106(4) Uani 1 1 d U . .
H32 H 0.6377 0.5196 0.1631 0.127 Uiso 1 1 calc R . .
C33 C 0.6771(3) 0.4889(3) 0.1909(2) 0.071(3) Uani 1 1 d U . .
C34 C 0.6978(4) 0.4916(4) 0.2178(3) 0.099(4) Uani 1 1 d U . .
H34 H 0.7094 0.4676 0.2274 0.119 Uiso 1 1 calc R . .
C35 C 0.6726(3) 0.4482(3) 0.1759(2) 0.072(2) Uani 1 1 d U . .

loop_
_atom_site_aniso_label
_atom_site_aniso_U_11
_atom_site_aniso_U_22
_atom_site_aniso_U_33
_atom_site_aniso_U_23
_atom_site_aniso_U_13
_atom_site_aniso_U_12
Cu1 0.0514(7) 0.0464(7) 0.0580(7) 0.0078(6) -0.0120(6) -0.0023(5)
Cu2 0.0521(7) 0.0430(7) 0.0599(7) 0.0102(6) -0.0106(6) -0.0043(5)
Cu3 0.0561(10) 0.0384(9) 0.0514(9) 0.000 0.000 0.0002(7)
Cu4 0.0559(10) 0.0380(9) 0.0516(9) 0.000 0.000 -0.0003(7)
O1 0.039(3) 0.076(4) 0.086(4) 0.021(3) -0.013(3) 0.005(3)
O2 0.048(3) 0.084(4) 0.055(3) 0.016(3) -0.010(3) -0.001(3)
O3 0.060(4) 0.046(3) 0.079(4) -0.002(3) -0.024(3) -0.001(3)
O4 0.093(5) 0.053(3) 0.066(4) -0.001(3) -0.023(3) 0.005(3)
O5 0.057(3) 0.066(4) 0.075(4) 0.026(3) -0.006(3) 0.000(3)
O6 0.050(3) 0.103(5) 0.074(4) 0.005(3) -0.009(3) 0.008(3)
O7 0.048(3) 0.044(3) 0.084(4) -0.008(3) -0.026(3) 0.012(2)
O8 0.074(4) 0.054(3) 0.084(4) -0.004(3) -0.026(3) 0.012(3)
O9 0.103(6) 0.195(9) 0.069(4) 0.010(5) -0.038(4) 0.077(6)
O10 0.121(6) 0.093(5) 0.134(7) 0.013(5) -0.079(5) 0.022(5)
O11 0.079(4) 0.056(3) 0.074(4) 0.018(3) -0.013(3) -0.001(3)
O12 0.078(4) 0.063(4) 0.070(4) -0.017(3) -0.019(3) 0.018(3)
O13 0.076(4) 0.062(4) 0.067(4) -0.018(3) 0.028(3) 0.003(3)
O14 0.064(4) 0.053(4) 0.072(4) -0.007(3) -0.002(3) 0.005(3)
O15 0.099(8) 0.055(5) 0.169(11) 0.000 0.000 0.020(5)
O16 0.099(8) 0.034(4) 0.226(14) 0.000 0.000 -0.018(4)
N1 0.066(5) 0.252(12) 0.113(7) 0.128(8) -0.018(5) -0.008(6)
N2 0.040(5) 0.368(17) 0.194(10) 0.198(12) -0.006(6) -0.013(7)
N3 0.059(5) 0.367(17) 0.204(11) 0.224(12) 0.002(7) 0.002(9)
N4 0.367(18) 0.111(8) 0.178(11) -0.037(7) 0.170(13) -0.100(11)
N5 0.325(16) 0.094(8) 0.176(10) -0.041(7) 0.169(12) -0.069(9)
N6 0.205(11) 0.051(5) 0.158(9) -0.007(5) 0.112(8) -0.025(6)
N7 0.213(11) 0.046(4) 0.196(10) 0.027(6) -0.165(9) -0.022(5)
N8 0.210(12) 0.090(6) 0.218(12) 0.041(8) -0.160(10) -0.021(7)
N9 0.263(13) 0.054(5) 0.153(9) 0.002(6) -0.164(9) 0.002(7)
C1 0.061(4) 0.039(5) 0.065(5) 0.002(4) -0.002(4) 0.000(4)
C2 0.044(5) 0.136(9) 0.083(7) 0.055(6) 0.005(5) 0.001(5)
C3 0.038(5) 0.092(7) 0.076(6) 0.031(5) -0.007(4) 0.002(4)
C4 0.092(8) 0.157(11) 0.085(7) 0.073(7) -0.003(6) -0.006(7)
C5 0.048(5) 0.167(11) 0.093(7) 0.079(7) -0.011(5) -0.056(6)
C6 0.035(5) 0.199(12) 0.162(10) 0.125(9) 0.004(6) 0.001(7)
C7 0.056(6) 0.240(13) 0.160(10) 0.154(10) -0.018(6) -0.025(8)
C8 0.052(5) 0.258(15) 0.179(11) 0.173(12) -0.043(7) -0.057(8)
C9 0.065(8) 0.33(2) 0.171(13) 0.200(15) -0.023(8) -0.045(10)
C10 0.35(2) 0.069(7) 0.111(11) 0.033(8) 0.020(13) -0.069(11)
C11 0.318(18) 0.042(5) 0.120(10) 0.009(6) 0.125(11) 0.013(8)
C12 0.061(6) 0.137(10) 0.182(12) 0.124(9) 0.032(7) -0.016(6)
C13 0.210(13) 0.065(6) 0.186(11) -0.052(7) 0.162(10) -0.040(8)
C14 0.193(13) 0.062(6) 0.140(10) -0.005(6) 0.113(10) -0.010(7)
C15 0.132(9) 0.050(5) 0.131(9) 0.011(5) 0.067(7) 0.007(5)
C16 0.083(7) 0.066(5) 0.120(9) -0.033(6) 0.049(6) -0.009(5)
C17 0.078(6) 0.037(4) 0.076(6) 0.009(4) 0.024(5) 0.010(4)
C18 0.075(7) 0.056(5) 0.094(7) 0.001(5) 0.009(5) 0.002(4)
C19 0.119(8) 0.048(5) 0.068(6) -0.006(4) 0.035(5) -0.008(5)
C20 0.146(10) 0.042(5) 0.097(8) -0.001(5) 0.062(7) 0.019(5)
C21 0.063(6) 0.071(6) 0.056(5) -0.011(4) -0.003(4) -0.010(5)
C22 0.101(8) 0.056(4) 0.079(6) 0.011(4) -0.023(5) -0.020(5)
C23 0.088(7) 0.044(4) 0.066(5) 0.010(4) -0.022(5) -0.008(4)
C24 0.043(5) 0.052(4) 0.078(6) 0.013(4) -0.012(4) 0.002(4)
C25 0.093(7) 0.037(4) 0.072(6) 0.019(4) -0.035(5) -0.002(4)
C26 0.103(8) 0.046(5) 0.111(8) -0.007(5) -0.065(6) 0.000(5)
C27 0.172(11) 0.039(4) 0.151(10) -0.004(6) -0.115(9) 0.005(6)
C28 0.191(12) 0.041(4) 0.110(8) 0.010(5) -0.101(8) -0.020(6)
C29 0.063(6) 0.082(6) 0.072(6) -0.006(5) -0.015(4) 0.013(5)
C30 0.311(15) 0.020(4) 0.177(11) -0.017(6) -0.202(11) 0.023(6)
C030 0.076(5) 0.082(7) 0.063(6) -0.002(5) 0.000(5) 0.012(5)
C31 0.298(16) 0.051(6) 0.168(11) -0.005(7) -0.196(12) 0.012(8)
C32 0.133(10) 0.069(6) 0.115(9) 0.001(6) -0.050(8) 0.026(6)
C33 0.078(6) 0.056(5) 0.077(6) -0.002(4) -0.021(5) 0.017(4)
C34 0.102(9) 0.091(8) 0.104(8) -0.005(6) -0.046(7) -0.033(6)
C35 0.075(6) 0.066(5) 0.075(6) -0.004(4) -0.011(5) -0.005(4)

_geom_special_details            
;
All esds (except the esd