####################################################################### 
# 
# This file contains crystal structure data downloaded from the 
# Cambridge Structural Database (CSD) hosted by the Cambridge 
# Crystallographic Data Centre (CCDC).
# 
# Full information about CCDC data access policies and citation 
# guidelines are available at http://www.ccdc.cam.ac.uk/access/V1 
# 
# Audit and citation data items may have been added by the CCDC. 
# Please retain this information to preserve the provenance of 
# this file and to allow appropriate attribution of the data. 
# 
#######################################################################

data_cc
_audit_block_doi                 10.5517/cczkbhb
_database_code_depnum_ccdc_archive 'CCDC 910392'
loop_
_citation_id
_citation_doi
_citation_year
1 10.1038/nature11990 2013
_audit_update_record             
;
2012-11-10 deposited with the CCDC.	2024-07-12 downloaded from the CCDC.
;

_audit_creation_method           SHELXL-97
_chemical_name_systematic        
;
?
;
_chemical_name_common            ?
_chemical_melting_point          ?
_chemical_formula_moiety         'C72 H48 I12 N24 Zn6 0.5(C22 H24 O9)'
_chemical_formula_sum            'C83 H60 I12 N24 O4.50 Zn6'
_chemical_formula_weight         3380.57

loop_
_atom_type_symbol
_atom_type_description
_atom_type_scat_dispersion_real
_atom_type_scat_dispersion_imag
_atom_type_scat_source
C C 0.0033 0.0016 'International Tables Vol C Tables 4.2.6.8 and 6.1.1.4'
H H 0.0000 0.0000 'International Tables Vol C Tables 4.2.6.8 and 6.1.1.4'
N N 0.0061 0.0033 'International Tables Vol C Tables 4.2.6.8 and 6.1.1.4'
Zn Zn 0.2839 1.4301 'International Tables Vol C Tables 4.2.6.8 and 6.1.1.4'
I I -0.4742 1.8119 'International Tables Vol C Tables 4.2.6.8 and 6.1.1.4'
O O 0.0106 0.0060 'International Tables Vol C Tables 4.2.6.8 and 6.1.1.4'

_symmetry_cell_setting           Monoclinic
_symmetry_space_group_name_H-M   Cc

loop_
_symmetry_equiv_pos_as_xyz
'x, y, z'
'x, -y, z+1/2'
'x+1/2, y+1/2, z'
'x+1/2, -y+1/2, z+1/2'

_cell_length_a                   34.534(6)
_cell_length_b                   15.028(3)
_cell_length_c                   31.197(6)
_cell_angle_alpha                90.00
_cell_angle_beta                 101.215(3)
_cell_angle_gamma                90.00
_cell_volume                     15881(5)
_cell_formula_units_Z            4
_cell_measurement_temperature    90(2)
_cell_measurement_reflns_used    9237
_cell_measurement_theta_min      2.26
_cell_measurement_theta_max      21.54

_exptl_crystal_description       rod
_exptl_crystal_colour            'pale yellow'
_exptl_crystal_size_max          0.08
_exptl_crystal_size_mid          0.05
_exptl_crystal_size_min          0.04
_exptl_crystal_density_meas      'not measured'
_exptl_crystal_density_diffrn    1.414
_exptl_crystal_density_method    'not measured'
_exptl_crystal_F_000             6312
_exptl_absorpt_coefficient_mu    3.262
_exptl_absorpt_correction_type   empirical
_exptl_absorpt_correction_T_min  0.1800
_exptl_absorpt_correction_T_max  0.8806
_exptl_absorpt_process_details   SADABS

_exptl_special_details           
;
?
;

_diffrn_ambient_temperature      90(2)
_diffrn_radiation_wavelength     0.71073
_diffrn_radiation_type           MoK\a
_diffrn_radiation_source         'fine-focus sealed tube'
_diffrn_radiation_monochromator  graphite
_diffrn_measurement_device_type  'Bruker APEX-II CCD'
_diffrn_measurement_method       '\f and \w scans'
_diffrn_detector_area_resol_mean ?
_diffrn_standards_number         0
_diffrn_standards_interval_count ?
_diffrn_standards_interval_time  ?
_diffrn_standards_decay_%        ?
_diffrn_reflns_number            81053
_diffrn_reflns_av_R_equivalents  0.0730
_diffrn_reflns_av_sigmaI/netI    0.1409
_diffrn_reflns_limit_h_min       -42
_diffrn_reflns_limit_h_max       42
_diffrn_reflns_limit_k_min       -18
_diffrn_reflns_limit_k_max       18
_diffrn_reflns_limit_l_min       -38
_diffrn_reflns_limit_l_max       38
_diffrn_reflns_theta_min         1.20
_diffrn_reflns_theta_max         26.00
_reflns_number_total             31029
_reflns_number_gt                10274
_reflns_threshold_expression     >2sigma(I)

_computing_data_collection       'Bruker APEX2'
_computing_cell_refinement       'Bruker SAINT'
_computing_data_reduction        'Bruker SAINT'
_computing_structure_solution    'SHELXS-97 (Sheldrick, 1990)'
_computing_structure_refinement  'SHELXL-97 (Sheldrick, 1997)'
_computing_molecular_graphics    'Bruker SHELXTL'
_computing_publication_material  'Bruker SHELXTL'

_refine_special_details          
;
Refinement of F^2^ against ALL reflections. The weighted R-factor wR and
goodness of fit S are based on F^2^, conventional R-factors R are based
on F, with F set to zero for negative F^2^. The threshold expression of
F^2^ > 2sigma(F^2^) is used only for calculating R-factors(gt) etc. and is
not relevant to the choice of reflections for refinement. R-factors based
on F^2^ are statistically about twice as large as those based on F, and R-
factors based on ALL data will be even larger.
;

_refine_ls_structure_factor_coef Fsqd
_refine_ls_matrix_type           full
_refine_ls_weighting_scheme      calc
_refine_ls_weighting_details     
'calc w=1/[\s^2^(Fo^2^)+(0.1000P)^2^+0.0000P] where P=(Fo^2^+2Fc^2^)/3'
_atom_sites_solution_primary     direct
_atom_sites_solution_secondary   difmap
_atom_sites_solution_hydrogens   geom
_refine_ls_hydrogen_treatment    constr
_refine_ls_extinction_method     none
_refine_ls_extinction_coef       ?
_refine_ls_abs_structure_details 'Flack H D (1983), Acta Cryst. A39, 876-881'
_refine_ls_abs_structure_Flack   0.45(3)
_refine_ls_number_reflns         31029
_refine_ls_number_parameters     1151
_refine_ls_number_restraints     944
_refine_ls_R_factor_all          0.1864
_refine_ls_R_factor_gt           0.0730
_refine_ls_wR_factor_ref         0.2184
_refine_ls_wR_factor_gt          0.1868
_refine_ls_goodness_of_fit_ref   0.888
_refine_ls_restrained_S_all      0.893
_refine_ls_shift/su_max          0.000
_refine_ls_shift/su_mean         0.000

loop_
_atom_site_label
_atom_site_type_symbol
_atom_site_fract_x
_atom_site_fract_y
_atom_site_fract_z
_atom_site_U_iso_or_equiv
_atom_site_adp_type
_atom_site_occupancy
_atom_site_symmetry_multiplicity
_atom_site_calc_flag
_atom_site_refinement_flags
_atom_site_disorder_assembly
_atom_site_disorder_group
Zn1 Zn 0.53540(10) -0.09102(16) 0.73576(11) 0.0926(11) Uani 1 1 d . . .
I1 I 0.55218(7) -0.23351(11) 0.69861(8) 0.1484(11) Uani 1 1 d . . .
I2 I 0.51225(7) -0.08099(16) 0.80721(7) 0.1389(10) Uani 1 1 d . . .
N1 N 0.4931(4) -0.0244(8) 0.6891(5) 0.076(4) Uani 1 1 d DU . .
C1 C 0.4809(5) 0.0595(9) 0.6936(6) 0.077(4) Uani 1 1 d DU . .
H1 H 0.4945 0.0908 0.7185 0.092 Uiso 1 1 calc R . .
C2 C 0.4512(5) 0.1060(11) 0.6667(5) 0.078(4) Uani 1 1 d DU . .
H2 H 0.4422 0.1629 0.6737 0.093 Uiso 1 1 calc R . .
C3 C 0.4361(5) 0.0620(9) 0.6289(5) 0.063(3) Uani 1 1 d DU . .
C4 C 0.4437(6) -0.0283(10) 0.6281(7) 0.077(4) Uani 1 1 d DU . .
H3 H 0.4258 -0.0640 0.6083 0.092 Uiso 1 1 calc R . .
C5 C 0.4754(5) -0.0698(10) 0.6537(5) 0.074(4) Uani 1 1 d DU . .
H4 H 0.4841 -0.1271 0.6469 0.088 Uiso 1 1 calc R . .
C6 C 0.4032(5) 0.1081(8) 0.5976(5) 0.055(3) Uani 1 1 d DU . .
N2 N 0.3971(4) 0.1954(8) 0.6015(5) 0.069(3) Uani 1 1 d DU . .
C7 C 0.3701(5) 0.2295(8) 0.5688(5) 0.067(3) Uani 1 1 d DU . .
N3 N 0.3451(4) 0.1849(7) 0.5376(4) 0.057(3) Uani 1 1 d DU . .
C8 C 0.3532(5) 0.0978(8) 0.5399(5) 0.053(3) Uani 1 1 d DU . .
N4 N 0.3843(4) 0.0579(7) 0.5649(4) 0.049(3) Uani 1 1 d DU . .
N5 N 0.3466(5) 0.5075(7) 0.5677(5) 0.071(4) Uani 1 1 d DU . .
C9 C 0.3240(5) 0.4561(9) 0.5440(5) 0.068(4) Uani 1 1 d DU . .
H5 H 0.3011 0.4808 0.5261 0.082 Uiso 1 1 calc R . .
C10 C 0.3298(5) 0.3620(10) 0.5415(6) 0.077(4) Uani 1 1 d DU . .
H6 H 0.3123 0.3248 0.5221 0.092 Uiso 1 1 calc R . .
C11 C 0.3634(6) 0.3288(7) 0.5699(6) 0.072(4) Uani 1 1 d DU . .
C12 C 0.3854(5) 0.3818(9) 0.5979(7) 0.083(4) Uani 1 1 d DU . .
H7 H 0.4063 0.3593 0.6195 0.100 Uiso 1 1 calc R . .
C13 C 0.3770(5) 0.4722(8) 0.5947(6) 0.076(4) Uani 1 1 d DU . .
H8 H 0.3943 0.5114 0.6132 0.091 Uiso 1 1 calc R . .
Zn2 Zn 0.33725(11) 0.64316(17) 0.56345(11) 0.0995(11) Uani 1 1 d . . .
I3 I 0.39892(7) 0.73589(11) 0.58756(7) 0.1199(7) Uani 1 1 d . . .
I4 I 0.29114(8) 0.67040(12) 0.48913(7) 0.1367(9) Uani 1 1 d . . .
N6 N 0.2901(4) -0.0545(6) 0.4310(4) 0.067(3) Uani 1 1 d DU . .
C14 C 0.3177(5) -0.0957(8) 0.4605(5) 0.069(4) Uani 1 1 d DU . .
H9 H 0.3253 -0.1556 0.4569 0.083 Uiso 1 1 calc R . .
C15 C 0.3342(5) -0.0455(10) 0.4960(5) 0.069(4) Uani 1 1 d DU . .
H10 H 0.3503 -0.0773 0.5191 0.083 Uiso 1 1 calc R . .
C16 C 0.3309(5) 0.0411(9) 0.5027(4) 0.058(3) Uani 1 1 d DU . .
C17 C 0.3035(5) 0.0814(9) 0.4708(5) 0.072(4) Uani 1 1 d DU . .
H11 H 0.2978 0.1429 0.4731 0.087 Uiso 1 1 calc R . .
C18 C 0.2841(5) 0.0330(7) 0.4354(5) 0.068(4) Uani 1 1 d DU . .
H12 H 0.2658 0.0628 0.4133 0.082 Uiso 1 1 calc R . .
Zn3 Zn 0.24793(11) -0.12043(15) 0.38594(10) 0.1114(14) Uani 1 1 d . . .
I5 I 0.18918(7) -0.15292(14) 0.41879(7) 0.1463(11) Uani 1 1 d . . .
I6 I 0.28681(8) -0.23123(11) 0.34843(8) 0.1663(13) Uani 1 1 d . . .
N7 N 0.2329(5) -0.0208(10) 0.3377(5) 0.104(5) Uani 1 1 d DU . .
C19 C 0.2020(5) 0.0311(9) 0.3394(6) 0.097(5) Uani 1 1 d DU . .
H13 H 0.1847 0.0149 0.3584 0.116 Uiso 1 1 calc R . .
C20 C 0.1939(5) 0.1074(10) 0.3147(6) 0.084(5) Uani 1 1 d DU . .
H14 H 0.1700 0.1394 0.3132 0.101 Uiso 1 1 calc R . .
C21 C 0.2224(5) 0.1350(9) 0.2921(5) 0.078(4) Uani 1 1 d DU . .
C22 C 0.2532(5) 0.0806(11) 0.2881(6) 0.103(5) Uani 1 1 d DU . .
H15 H 0.2706 0.0951 0.2690 0.123 Uiso 1 1 calc R . .
C23 C 0.2579(6) 0.0042(11) 0.3127(6) 0.109(5) Uani 1 1 d DU . .
H16 H 0.2801 -0.0325 0.3118 0.131 Uiso 1 1 calc R . .
C24 C 0.2150(5) 0.2129(9) 0.2608(5) 0.062(4) Uani 1 1 d DU . .
N8 N 0.1885(4) 0.2730(8) 0.2678(5) 0.065(3) Uani 1 1 d DU . .
C25 C 0.1823(5) 0.3392(9) 0.2391(5) 0.067(4) Uani 1 1 d DU . .
N9 N 0.2050(4) 0.3588(8) 0.2106(5) 0.069(4) Uani 1 1 d DU . .
C26 C 0.2327(5) 0.2983(9) 0.2086(6) 0.074(4) Uani 1 1 d DU . .
N10 N 0.2393(4) 0.2257(8) 0.2334(5) 0.068(4) Uani 1 1 d DU . .
N11 N 0.0849(4) 0.5132(10) 0.2407(6) 0.092(4) Uani 1 1 d DU . .
C27 C 0.1079(4) 0.5235(10) 0.2118(5) 0.094(4) Uani 1 1 d DU . .
H17 H 0.1009 0.5681 0.1901 0.113 Uiso 1 1 calc R . .
C28 C 0.1414(4) 0.4743(9) 0.2109(5) 0.081(4) Uani 1 1 d DU . .
H18 H 0.1582 0.4873 0.1910 0.097 Uiso 1 1 calc R . .
C29 C 0.1494(4) 0.4042(10) 0.2408(6) 0.069(4) Uani 1 1 d DU . .
C30 C 0.1282(5) 0.3979(10) 0.2728(6) 0.083(4) Uani 1 1 d DU . .
H19 H 0.1357 0.3585 0.2968 0.100 Uiso 1 1 calc R . .
C31 C 0.0949(4) 0.4513(11) 0.2691(6) 0.082(4) Uani 1 1 d DU . .
H20 H 0.0781 0.4412 0.2894 0.099 Uiso 1 1 calc R . .
N12 N 0.3054(5) 0.3365(8) 0.1126(6) 0.106(4) Uani 1 1 d DU . .
C32 C 0.3085(7) 0.2682(10) 0.1400(7) 0.110(5) Uani 1 1 d DU . .
H21 H 0.3282 0.2253 0.1377 0.132 Uiso 1 1 calc R . .
C33 C 0.2865(5) 0.2529(9) 0.1711(8) 0.098(4) Uani 1 1 d DU . .
H22 H 0.2927 0.2053 0.1913 0.117 Uiso 1 1 calc R . .
C34 C 0.2554(5) 0.3079(10) 0.1723(7) 0.093(4) Uani 1 1 d DU . .
C35 C 0.2474(7) 0.3724(12) 0.1412(7) 0.109(5) Uani 1 1 d DU . .
H23 H 0.2242 0.4076 0.1384 0.131 Uiso 1 1 calc R . .
C36 C 0.2737(6) 0.3853(11) 0.1140(8) 0.110(5) Uani 1 1 d DU . .
H24 H 0.2687 0.4339 0.0942 0.132 Uiso 1 1 calc R . .
Zn4 Zn -0.01008(11) 0.64471(15) 0.51684(13) 0.1184(13) Uani 1 1 d . . .
I7 I 0.03265(9) 0.67455(12) 0.59046(8) 0.1843(13) Uani 1 1 d . . .
I8 I -0.07413(8) 0.72877(12) 0.48762(10) 0.2009(15) Uani 1 1 d . . .
N13 N 0.0232(4) 0.6489(10) 0.4698(5) 0.092(4) Uani 1 1 d DU . .
C37 C 0.0141(6) 0.7100(11) 0.4396(6) 0.097(4) Uani 1 1 d DU . .
H49 H -0.0077 0.7479 0.4404 0.117 Uiso 1 1 calc R . .
C38 C 0.0350(5) 0.7212(12) 0.4069(7) 0.099(4) Uani 1 1 d DU . .
H50 H 0.0243 0.7585 0.3829 0.119 Uiso 1 1 calc R . .
C39 C 0.0703(5) 0.6811(11) 0.4076(5) 0.083(4) Uani 1 1 d DU . .
C40 C 0.0746(6) 0.6092(12) 0.4354(6) 0.094(4) Uani 1 1 d DU . .
H51 H 0.0926 0.5639 0.4311 0.113 Uiso 1 1 calc R . .
C41 C 0.0546(5) 0.5990(12) 0.4686(7) 0.096(4) Uani 1 1 d DU . .
H52 H 0.0631 0.5561 0.4908 0.116 Uiso 1 1 calc R . .
C42 C 0.0969(5) 0.7013(10) 0.3778(5) 0.065(3) Uani 1 1 d DU . .
N14 N 0.0897(5) 0.7717(9) 0.3516(4) 0.061(3) Uani 1 1 d DU . .
C43 C 0.1123(5) 0.7829(9) 0.3219(5) 0.060(3) Uani 1 1 d DU . .
N15 N 0.1429(4) 0.7306(8) 0.3187(4) 0.060(3) Uani 1 1 d DU . .
C44 C 0.1473(4) 0.6598(9) 0.3452(5) 0.060(3) Uani 1 1 d DU . .
N16 N 0.1272(4) 0.6481(9) 0.3769(4) 0.057(3) Uani 1 1 d DU . .
N17 N 0.0949(4) 1.0115(8) 0.2410(4) 0.060(4) Uani 1 1 d DU . .
C45 C 0.1271(4) 0.9637(9) 0.2447(5) 0.070(4) Uani 1 1 d DU . .
H29 H 0.1478 0.9812 0.2303 0.083 Uiso 1 1 calc R . .
C46 C 0.1306(5) 0.8878(10) 0.2697(5) 0.070(4) Uani 1 1 d DU . .
H30 H 0.1511 0.8471 0.2673 0.084 Uiso 1 1 calc R . .
C47 C 0.1062(5) 0.8676(9) 0.2979(4) 0.058(3) Uani 1 1 d DU . .
C48 C 0.0722(5) 0.9163(10) 0.2892(5) 0.077(4) Uani 1 1 d DU . .
H31 H 0.0510 0.8985 0.3026 0.092 Uiso 1 1 calc R . .
C49 C 0.0667(5) 0.9894(10) 0.2623(5) 0.074(4) Uani 1 1 d DU . .
H32 H 0.0431 1.0234 0.2590 0.089 Uiso 1 1 calc R . .
Zn5 Zn 0.08032(9) 1.12144(15) 0.19922(10) 0.0894(11) Uani 1 1 d . . .
I9 I 0.04188(8) 1.23069(11) 0.23533(8) 0.1480(10) Uani 1 1 d . . .
I10 I 0.14087(8) 1.15478(13) 0.16467(7) 0.1506(11) Uani 1 1 d . . .
N18 N 0.2498(4) 0.4982(8) 0.3451(4) 0.077(4) Uani 1 1 d DU . .
C50 C 0.2370(5) 0.5233(10) 0.3814(5) 0.088(4) Uani 1 1 d DU . .
H33 H 0.2522 0.5017 0.4080 0.105 Uiso 1 1 calc R . .
C51 C 0.2049(4) 0.5759(9) 0.3857(4) 0.083(4) Uani 1 1 d DU . .
H34 H 0.1983 0.5889 0.4133 0.100 Uiso 1 1 calc R . .
C52 C 0.1833(4) 0.6078(10) 0.3469(4) 0.064(4) Uani 1 1 d DU . .
C53 C 0.2007(4) 0.5945(9) 0.3119(5) 0.072(4) Uani 1 1 d DU . .
H35 H 0.1901 0.6275 0.2863 0.087 Uiso 1 1 calc R . .
C54 C 0.2319(4) 0.5387(9) 0.3091(4) 0.070(4) Uani 1 1 d DU . .
H36 H 0.2402 0.5297 0.2821 0.084 Uiso 1 1 calc R . .
Zn6 Zn 0.29457(9) 0.40754(17) 0.34964(10) 0.0881(11) Uani 1 1 d . . .
I11 I 0.27721(7) 0.26462(10) 0.38550(8) 0.1423(10) Uani 1 1 d . . .
I12 I 0.31740(7) 0.41891(17) 0.27671(8) 0.1461(10) Uani 1 1 d . . .
N19 N 0.3351(5) 0.4711(8) 0.3942(6) 0.081(4) Uani 1 1 d DU . .
C55 C 0.3392(5) 0.5587(9) 0.3914(6) 0.082(4) Uani 1 1 d DU . .
H37 H 0.3225 0.5893 0.3682 0.098 Uiso 1 1 calc R . .
C56 C 0.3663(5) 0.6075(10) 0.4202(6) 0.071(4) Uani 1 1 d DU . .
H38 H 0.3663 0.6707 0.4196 0.086 Uiso 1 1 calc R . .
C57 C 0.3956(5) 0.5573(9) 0.4524(6) 0.065(3) Uani 1 1 d DU . .
C58 C 0.3869(6) 0.4683(10) 0.4582(7) 0.072(4) Uani 1 1 d U . .
H39 H 0.3984 0.4368 0.4839 0.086 Uiso 1 1 calc R . .
C59 C 0.3607(5) 0.4281(11) 0.4247(6) 0.079(4) Uani 1 1 d DU . .
H40 H 0.3609 0.3649 0.4233 0.095 Uiso 1 1 calc R . .
C60 C 0.4243(5) 0.6017(9) 0.4866(6) 0.061(3) Uani 1 1 d DU . .
N20 N 0.4300(4) 0.6908(7) 0.4805(5) 0.056(3) Uani 1 1 d DU . .
C61 C 0.4605(5) 0.7273(7) 0.5069(5) 0.056(3) Uani 1 1 d DU . .
N21 N 0.4823(4) 0.6798(8) 0.5395(5) 0.065(3) Uani 1 1 d DU . .
C62 C 0.4727(5) 0.5944(9) 0.5468(6) 0.064(3) Uani 1 1 d DU . .
N22 N 0.4468(5) 0.5523(9) 0.5166(5) 0.072(4) Uani 1 1 d DU . .
N23 N 0.4757(5) 1.0105(9) 0.5158(6) 0.086(4) Uani 1 1 d DU . .
C63 C 0.4937(6) 0.9561(9) 0.5462(6) 0.092(4) Uani 1 1 d DU . .
H41 H 0.5099 0.9815 0.5713 0.111 Uiso 1 1 calc R . .
C64 C 0.4906(6) 0.8656(9) 0.5442(6) 0.083(4) Uani 1 1 d DU . .
H42 H 0.5047 0.8310 0.5676 0.100 Uiso 1 1 calc R . .
C65 C 0.4680(6) 0.8239(8) 0.5095(6) 0.074(4) Uani 1 1 d DU . .
C66 C 0.4446(6) 0.8831(9) 0.4806(7) 0.087(4) Uani 1 1 d DU . .
H43 H 0.4248 0.8587 0.4583 0.104 Uiso 1 1 calc R . .
C67 C 0.4486(7) 0.9741(9) 0.4825(7) 0.091(4) Uani 1 1 d DU . .
H44 H 0.4329 1.0110 0.4612 0.109 Uiso 1 1 calc R . .
N24 N 0.5467(4) 0.4566(9) 0.6462(5) 0.094(4) Uani 1 1 d DU . .
C68 C 0.5137(4) 0.4210(10) 0.6235(5) 0.091(4) Uani 1 1 d DU . .
H45 H 0.5084 0.3618 0.6314 0.110 Uiso 1 1 calc R . .
C69 C 0.4858(5) 0.4573(9) 0.5901(5) 0.075(4) Uani 1 1 d DU . .
H46 H 0.4630 0.4281 0.5745 0.090 Uiso 1 1 calc R . .
C70 C 0.4979(6) 0.5479(10) 0.5830(6) 0.071(4) Uani 1 1 d DU . .
C71 C 0.5326(6) 0.5868(11) 0.6046(6) 0.088(4) Uani 1 1 d DU . .
H47 H 0.5396 0.6451 0.5972 0.105 Uiso 1 1 calc R . .
C72 C 0.5574(5) 0.5387(9) 0.6376(6) 0.094(5) Uani 1 1 d DU . .
H48 H 0.5811 0.5641 0.6533 0.113 Uiso 1 1 calc R . .
C115 C 0.1534(7) 0.1158(11) 0.6157(7) 0.114(8) Uiso 0.50 1 d PDU . .
H53 H 0.1434 0.0693 0.5960 0.137 Uiso 0.50 1 calc PR . .
C101 C 0.1108(5) 0.2208(11) 0.5657(5) 0.150(7) Uiso 0.50 1 d PDU . .
O1 O 0.0961(5) 0.1445(12) 0.5448(5) 0.171(8) Uiso 0.50 1 d PDU . .
C105 C 0.0349(8) 0.2249(14) 0.4452(7) 0.196(8) Uiso 0.50 1 d PDU . .
C110 C 0.1387(6) 0.2024(12) 0.6077(5) 0.132(7) Uiso 0.50 1 d PDU . .
C104 C 0.0599(7) 0.2272(12) 0.4863(7) 0.171(8) Uiso 0.50 1 d PDU . .
C109 C 0.0724(7) 0.1458(11) 0.5052(6) 0.179(8) Uiso 0.50 1 d PDU . .
C113 C 0.1959(7) 0.1646(14) 0.6816(6) 0.132(7) Uiso 0.50 1 d PDU . .
C102 C 0.1009(5) 0.3007(12) 0.5468(5) 0.164(8) Uiso 0.50 1 d PDU . .
C112 C 0.1827(5) 0.2518(14) 0.6731(5) 0.138(7) Uiso 0.50 1 d PDU . .
C114 C 0.1825(7) 0.0969(14) 0.6520(7) 0.117(8) Uiso 0.50 1 d PDU . .
H54 H 0.1930 0.0385 0.6567 0.141 Uiso 0.50 1 calc PR . .
C111 C 0.1538(6) 0.2696(11) 0.6362(6) 0.134(8) Uiso 0.50 1 d PDU . .
H55 H 0.1444 0.3287 0.6307 0.160 Uiso 0.50 1 calc PR . .
C106 C 0.0212(8) 0.1456(16) 0.4248(7) 0.215(9) Uiso 0.50 1 d PDU . .
O2 O 0.1173(8) 0.3767(12) 0.5650(9) 0.185(9) Uiso 0.50 1 d PDU . .
C107 C 0.0330(8) 0.0665(13) 0.4467(8) 0.207(9) Uiso 0.50 1 d PDU . .
C108 C 0.0584(8) 0.0645(12) 0.4872(7) 0.198(8) Uiso 0.50 1 d PDU . .
C103 C 0.0743(7) 0.3090(11) 0.5060(6) 0.158(8) Uiso 0.50 1 d PDU . .
O9 O 0.2240(6) 0.1509(16) 0.7178(6) 0.132(7) Uiso 0.50 1 d PDU . .
O7 O 0.0710(8) -0.0103(14) 0.5097(10) 0.207(10) Uiso 0.50 1 d PDU . .
C119 C -0.0187(9) -0.043(