####################################################################### 
# 
# This file contains crystal structure data downloaded from the 
# Cambridge Structural Database (CSD) hosted by the Cambridge 
# Crystallographic Data Centre (CCDC).
# 
# Full information about CCDC data access policies and citation 
# guidelines are available at http://www.ccdc.cam.ac.uk/access/V1 
# 
# Audit and citation data items may have been added by the CCDC. 
# Please retain this information to preserve the provenance of 
# this file and to allow appropriate attribution of the data. 
# 
#######################################################################

data_c2c9
_audit_block_doi                 10.5517/cczkbc6
_database_code_depnum_ccdc_archive 'CCDC 910388'
loop_
_citation_id
_citation_doi
_citation_year
1 10.1038/nature11990 2013
_audit_update_record             
;
2012-11-10 deposited with the CCDC.	2024-07-12 downloaded from the CCDC.
;

_audit_creation_method           SHELXL-97
_chemical_name_systematic        
;
?
;
_chemical_name_common            ?
_chemical_melting_point          ?
_chemical_formula_moiety         'C36 H24 I6 N12 Zn3, 0.68(C14 H9 Br)'
_chemical_formula_sum            'C45.51 H30.11 Br0.68 I6 N12 Zn3'
_chemical_formula_weight         1756.82

loop_
_atom_type_symbol
_atom_type_description
_atom_type_scat_dispersion_real
_atom_type_scat_dispersion_imag
_atom_type_scat_source
C C 0.0033 0.0016 'International Tables Vol C Tables 4.2.6.8 and 6.1.1.4'
H H 0.0000 0.0000 'International Tables Vol C Tables 4.2.6.8 and 6.1.1.4'
N N 0.0061 0.0033 'International Tables Vol C Tables 4.2.6.8 and 6.1.1.4'
Zn Zn 0.2839 1.4301 'International Tables Vol C Tables 4.2.6.8 and 6.1.1.4'
I I -0.4742 1.8119 'International Tables Vol C Tables 4.2.6.8 and 6.1.1.4'
Br Br -0.2901 2.4595 'International Tables Vol C Tables 4.2.6.8 and 6.1.1.4'

_symmetry_cell_setting           Monoclinic
_symmetry_space_group_name_H-M   C2/c

loop_
_symmetry_equiv_pos_as_xyz
'x, y, z'
'-x, y, -z+1/2'
'x+1/2, y+1/2, z'
'-x+1/2, y+1/2, -z+1/2'
'-x, -y, -z'
'x, -y, z-1/2'
'-x+1/2, -y+1/2, -z'
'x+1/2, -y+1/2, z-1/2'

_cell_length_a                   35.862(5)
_cell_length_b                   14.902(2)
_cell_length_c                   31.358(5)
_cell_angle_alpha                90.00
_cell_angle_beta                 102.694(2)
_cell_angle_gamma                90.00
_cell_volume                     16349(4)
_cell_formula_units_Z            8
_cell_measurement_temperature    90(2)
_cell_measurement_reflns_used    9791
_cell_measurement_theta_min      2.21
_cell_measurement_theta_max      23.95

_exptl_crystal_description       rod
_exptl_crystal_colour            'pale yellow'
_exptl_crystal_size_max          0.07
_exptl_crystal_size_mid          0.07
_exptl_crystal_size_min          0.05
_exptl_crystal_density_meas      'not measured'
_exptl_crystal_density_diffrn    1.408
_exptl_crystal_density_method    'not measured'
_exptl_crystal_F_000             6455
_exptl_absorpt_coefficient_mu    3.453
_exptl_absorpt_correction_type   empirical
_exptl_absorpt_correction_T_min  0.7941
_exptl_absorpt_correction_T_max  0.8463
_exptl_absorpt_process_details   SADABS

_exptl_special_details           
;
?
;

_diffrn_ambient_temperature      90(2)
_diffrn_radiation_wavelength     0.71073
_diffrn_radiation_type           MoK\a
_diffrn_radiation_source         'fine-focus sealed tube'
_diffrn_radiation_monochromator  graphite
_diffrn_measurement_device_type  'CCD area detector'
_diffrn_measurement_method       'phi and omega scans'
_diffrn_detector_area_resol_mean ?
_diffrn_standards_number         ?
_diffrn_standards_interval_count ?
_diffrn_standards_interval_time  ?
_diffrn_standards_decay_%        ?
_diffrn_reflns_number            74432
_diffrn_reflns_av_R_equivalents  0.0705
_diffrn_reflns_av_sigmaI/netI    0.0555
_diffrn_reflns_limit_h_min       -42
_diffrn_reflns_limit_h_max       42
_diffrn_reflns_limit_k_min       -17
_diffrn_reflns_limit_k_max       17
_diffrn_reflns_limit_l_min       -37
_diffrn_reflns_limit_l_max       37
_diffrn_reflns_theta_min         1.33
_diffrn_reflns_theta_max         25.00
_reflns_number_total             14400
_reflns_number_gt                9795
_reflns_threshold_expression     >2sigma(I)

_computing_data_collection       'Bruker SMART'
_computing_cell_refinement       'Bruker SMART'
_computing_data_reduction        'Bruker SAINT'
_computing_structure_solution    'SHELXS-97 (Sheldrick, 1990)'
_computing_structure_refinement  'SHELXL-97 (Sheldrick, 1997)'
_computing_molecular_graphics    'Bruker SHELXTL'
_computing_publication_material  'Bruker SHELXTL'

_refine_special_details          
;
Refinement of F^2^ against ALL reflections. The weighted R-factor wR and
goodness of fit S are based on F^2^, conventional R-factors R are based
on F, with F set to zero for negative F^2^. The threshold expression of
F^2^ > 2sigma(F^2^) is used only for calculating R-factors(gt) etc. and is
not relevant to the choice of reflections for refinement. R-factors based
on F^2^ are statistically about twice as large as those based on F, and R-
factors based on ALL data will be even larger.
;

_refine_ls_structure_factor_coef Fsqd
_refine_ls_matrix_type           full
_refine_ls_weighting_scheme      calc
_refine_ls_weighting_details     
'calc w=1/[\s^2^(Fo^2^)+(0.2000P)^2^+0.0000P] where P=(Fo^2^+2Fc^2^)/3'
_atom_sites_solution_primary     direct
_atom_sites_solution_secondary   difmap
_atom_sites_solution_hydrogens   geom
_refine_ls_hydrogen_treatment    constr
_refine_ls_extinction_method     none
_refine_ls_extinction_coef       ?
_refine_ls_number_reflns         14400
_refine_ls_number_parameters     650
_refine_ls_number_restraints     213
_refine_ls_R_factor_all          0.1383
_refine_ls_R_factor_gt           0.1162
_refine_ls_wR_factor_ref         0.3753
_refine_ls_wR_factor_gt          0.3543
_refine_ls_goodness_of_fit_ref   1.447
_refine_ls_restrained_S_all      1.448
_refine_ls_shift/su_max          0.000
_refine_ls_shift/su_mean         0.000

loop_
_atom_site_label
_atom_site_type_symbol
_atom_site_fract_x
_atom_site_fract_y
_atom_site_fract_z
_atom_site_U_iso_or_equiv
_atom_site_adp_type
_atom_site_occupancy
_atom_site_symmetry_multiplicity
_atom_site_calc_flag
_atom_site_refinement_flags
_atom_site_disorder_assembly
_atom_site_disorder_group
Zn1 Zn 0.32502(6) -0.14543(9) 0.71740(6) 0.0756(6) Uani 1 1 d . . .
I1 I 0.36945(5) -0.17382(8) 0.79177(4) 0.1154(6) Uani 1 1 d . . .
I2 I 0.26287(4) -0.23067(6) 0.69162(5) 0.1090(6) Uani 1 1 d . . .
N1 N 0.3128(3) -0.0072(6) 0.7141(3) 0.057(3) Uani 1 1 d D . .
C1 C 0.2800(3) 0.0263(6) 0.6910(5) 0.068(3) Uani 1 1 d DU . .
H1 H 0.2614 -0.0122 0.6741 0.082 Uiso 1 1 calc R . .
C2 C 0.2735(4) 0.1172(6) 0.6918(4) 0.060(3) Uani 1 1 d DU . .
H2 H 0.2508 0.1407 0.6739 0.071 Uiso 1 1 calc R . .
C3 C 0.2985(3) 0.1753(6) 0.7175(3) 0.045(2) Uani 1 1 d D . .
C4 C 0.3314(3) 0.1391(8) 0.7419(4) 0.060(3) Uani 1 1 d D . .
H3 H 0.3498 0.1760 0.7603 0.072 Uiso 1 1 calc R . .
C5 C 0.3376(4) 0.0468(7) 0.7391(4) 0.062(3) Uani 1 1 d D . .
H4 H 0.3606 0.0220 0.7559 0.074 Uiso 1 1 calc R . .
C6 C 0.2902(3) 0.2726(6) 0.7207(3) 0.039(2) Uani 1 1 d D . .
N2 N 0.2593(2) 0.3096(5) 0.6936(3) 0.046(2) Uani 1 1 d D . .
C7 C 0.2542(3) 0.3955(7) 0.7014(3) 0.043(2) Uani 1 1 d D . .
N3 N 0.2764(2) 0.4462(5) 0.7305(2) 0.0341(17) Uani 1 1 d D . .
C8 C 0.3068(3) 0.4039(6) 0.7541(3) 0.041(2) Uani 1 1 d . . .
N4 N 0.3160(2) 0.3177(5) 0.7504(2) 0.0357(18) Uani 1 1 d D . .
N5 N 0.1630(3) 0.5332(5) 0.6154(3) 0.055(2) Uani 1 1 d DU . .
C9 C 0.1857(3) 0.5749(7) 0.6492(3) 0.053(3) Uani 1 1 d D . .
H5 H 0.1808 0.6364 0.6539 0.064 Uiso 1 1 calc R . .
C10 C 0.2151(3) 0.5348(7) 0.6771(4) 0.061(4) Uani 1 1 d . . .
H6 H 0.2314 0.5686 0.6993 0.073 Uiso 1 1 calc R . .
C11 C 0.2212(3) 0.4430(7) 0.6726(3) 0.045(2) Uani 1 1 d D . .
C12 C 0.1970(3) 0.3995(7) 0.6387(4) 0.064(3) Uani 1 1 d DU . .
H7 H 0.2000 0.3371 0.6344 0.077 Uiso 1 1 calc R . .
C13 C 0.1687(3) 0.4461(6) 0.6112(4) 0.066(3) Uani 1 1 d DU . .
H8 H 0.1524 0.4146 0.5880 0.080 Uiso 1 1 calc R . .
N6 N 0.3866(3) 0.5511(5) 0.8508(3) 0.053(3) Uani 1 1 d D . .
C14 C 0.3923(4) 0.4652(7) 0.8434(5) 0.075(4) Uani 1 1 d D . .
H9 H 0.4143 0.4359 0.8600 0.090 Uiso 1 1 calc R . .
C15 C 0.3666(4) 0.4166(7) 0.8117(5) 0.081(5) Uani 1 1 d D . .
H10 H 0.3721 0.3561 0.8057 0.097 Uiso 1 1 calc R . .
C16 C 0.3334(3) 0.4566(6) 0.7891(3) 0.045(3) Uani 1 1 d D . .
C17 C 0.3275(4) 0.5476(7) 0.7973(3) 0.057(3) Uani 1 1 d D . .
H11 H 0.3059 0.5787 0.7811 0.068 Uiso 1 1 calc R . .
C18 C 0.3541(4) 0.5909(8) 0.8295(3) 0.059(3) Uani 1 1 d D . .
H12 H 0.3492 0.6510 0.8369 0.071 Uiso 1 1 calc R . .
Zn2 Zn 0.12204(4) 0.59980(10) 0.57029(6) 0.0669(5) Uani 1 1 d . . .
I3 I 0.14467(3) 0.59917(10) 0.49929(4) 0.1019(5) Uani 1 1 d . . .
I4 I 0.10416(4) 0.73903(8) 0.60754(5) 0.1222(6) Uani 1 1 d . . .
N7 N 0.0764(3) 0.5120(7) 0.5645(3) 0.058(3) Uani 1 1 d D . .
C19 C 0.0617(4) 0.4657(7) 0.5286(4) 0.064(3) Uani 1 1 d D . .
H13 H 0.0738 0.4710 0.5047 0.076 Uiso 1 1 calc R . .
C20 C 0.0306(3) 0.4110(7) 0.5236(3) 0.052(3) Uani 1 1 d D . .
H14 H 0.0204 0.3818 0.4966 0.062 Uiso 1 1 calc R . .
C21 C 0.0150(3) 0.4005(8) 0.5589(4) 0.061(3) Uani 1 1 d DU . .
C22 C 0.0302(4) 0.4405(10) 0.5985(4) 0.078(3) Uani 1 1 d DU . .
H15 H 0.0192 0.4322 0.6232 0.094 Uiso 1 1 calc R . .
C23 C 0.0622(4) 0.4931(12) 0.6005(5) 0.093(4) Uani 1 1 d DU . .
H16 H 0.0748 0.5171 0.6279 0.112 Uiso 1 1 calc R . .
C24 C -0.0183(3) 0.3377(6) 0.5568(3) 0.044(3) Uani 1 1 d D . .
N8 N -0.0231(3) 0.2730(5) 0.5266(2) 0.042(2) Uani 1 1 d D . .
C25 C -0.0508(3) 0.2113(7) 0.5282(3) 0.040(2) Uani 1 1 d . . .
N9 N -0.0750(3) 0.2231(6) 0.5555(3) 0.052(2) Uani 1 1 d . . .
C26 C -0.0682(3) 0.2937(7) 0.5835(3) 0.043(2) Uani 1 1 d D . .
N10 N -0.0395(2) 0.3505(6) 0.5860(3) 0.045(2) Uani 1 1 d D . .
N11 N -0.0616(3) -0.0145(6) 0.4435(3) 0.051(2) Uani 1 1 d D . .
C27 C -0.0868(4) 0.0029(8) 0.4682(4) 0.074(4) Uani 1 1 d D . .
H17 H -0.1067 -0.0393 0.4681 0.089 Uiso 1 1 calc R . .
C28 C -0.0855(4) 0.0785(8) 0.4938(4) 0.064(4) Uani 1 1 d D . .
H18 H -0.1062 0.0918 0.5073 0.077 Uiso 1 1 calc R . .
C29 C -0.0550(3) 0.1336(8) 0.4997(4) 0.056(3) Uani 1 1 d . . .
C30 C -0.0274(3) 0.1170(7) 0.4751(3) 0.046(3) Uani 1 1 d D . .
H19 H -0.0066 0.1566 0.4758 0.055 Uiso 1 1 calc R . .
C31 C -0.0320(3) 0.0409(6) 0.4501(4) 0.063(3) Uani 1 1 d D . .
H20 H -0.0119 0.0263 0.4360 0.076 Uiso 1 1 calc R . .
N12 N -0.1428(3) 0.3389(7) 0.6706(4) 0.072(3) Uani 1 1 d DU . .
C32 C -0.1066(4) 0.3668(11) 0.6799(5) 0.084(3) Uani 1 1 d DU . .
H21 H -0.0976 0.3980 0.7066 0.101 Uiso 1 1 calc R . .
C33 C -0.0817(4) 0.3533(11) 0.6531(4) 0.086(4) Uani 1 1 d DU . .
H22 H -0.0562 0.3754 0.6611 0.104 Uiso 1 1 calc R . .
C34 C -0.0937(3) 0.3078(7) 0.6151(3) 0.058(3) Uani 1 1 d D . .
C35 C -0.1302(3) 0.2732(8) 0.6075(4) 0.062(3) Uani 1 1 d D . .
H23 H -0.1392 0.2385 0.5819 0.075 Uiso 1 1 calc R . .
C36 C -0.1538(4) 0.2871(9) 0.6357(4) 0.073(4) Uani 1 1 d D . .
H24 H -0.1783 0.2595 0.6302 0.088 Uiso 1 1 calc R . .
Zn3 Zn -0.07292(5) -0.11689(9) 0.39855(4) 0.0620(5) Uani 1 1 d . . .
I5 I -0.01538(4) -0.14181(8) 0.36506(4) 0.0940(4) Uani 1 1 d . . .
I6 I -0.10555(4) -0.23809(6) 0.43158(3) 0.0860(4) Uani 1 1 d . . .
C108 C 0.0302(5) 0.1468(13) 0.3712(5) 0.116(5) Uani 0.679(9) 1 d PDU A 1
C113 C 0.0451(6) 0.3933(11) 0.4033(5) 0.097(5) Uani 0.679(9) 1 d PDU A 1
H25 H 0.0334 0.4504 0.3969 0.117 Uiso 0.679(9) 1 calc PR A 1
C104 C 0.1575(5) 0.0498(13) 0.4634(5) 0.088(5) Uani 0.679(9) 1 d PDU A 1
H26 H 0.1814 0.0430 0.4835 0.105 Uiso 0.679(9) 1 calc PR A 1
C101 C 0.0878(5) 0.0700(11) 0.4052(5) 0.106(4) Uani 0.679(9) 1 d PDU A 1
C102 C 0.1017(5) 0.1474(11) 0.4281(5) 0.104(4) Uani 0.679(9) 1 d PDU A 1
C103 C 0.1367(5) 0.1300(12) 0.4563(5) 0.096(5) Uani 0.679(9) 1 d PDU A 1
H27 H 0.1482 0.1797 0.4731 0.115 Uiso 0.679(9) 1 calc PR A 1
C107 C 0.0522(5) 0.0698(13) 0.3769(5) 0.118(5) Uani 0.679(9) 1 d PDU A 1
H28 H 0.0429 0.0167 0.3614 0.142 Uiso 0.679(9) 1 calc PR A 1
C106 C 0.1037(6) -0.0160(11) 0.4071(5) 0.106(5) Uani 0.679(9) 1 d PDU A 1
H29 H 0.0922 -0.0657 0.3902 0.127 Uiso 0.679(9) 1 calc PR A 1
C110 C 0.0794(5) 0.2254(10) 0.4223(5) 0.116(5) Uani 0.679(9) 1 d PDU A 1
C105 C 0.1386(5) -0.0185(12) 0.4371(5) 0.105(5) Uani 0.679(9) 1 d PDU A 1
H30 H 0.1512 -0.0749 0.4402 0.127 Uiso 0.679(9) 1 calc PR A 1
C112 C 0.0809(6) 0.3794(14) 0.4305(5) 0.118(5) Uani 0.679(9) 1 d PDU A 1
H31 H 0.0938 0.4320 0.4429 0.141 Uiso 0.679(9) 1 calc PR A 1
C111 C 0.1002(6) 0.2993(15) 0.4421(5) 0.122(5) Uani 0.679(9) 1 d PDU A 1
H32 H 0.1247 0.2952 0.4612 0.146 Uiso 0.679(9) 1 calc PR A 1
C114 C 0.0286(6) 0.3121(12) 0.3867(5) 0.116(5) Uani 0.679(9) 1 d PDU A 1
H33 H 0.0041 0.3164 0.3678 0.140 Uiso 0.679(9) 1 calc PR A 1
C109 C 0.0435(6) 0.2251(11) 0.3942(6) 0.120(5) Uani 0.679(9) 1 d PDU A 1
Br1 Br -0.0148(2) 0.1449(7) 0.3307(3) 0.252(4) Uani 0.679(9) 1 d PU A 1

loop_
_atom_site_aniso_label
_atom_site_aniso_U_11
_atom_site_aniso_U_22
_atom_site_aniso_U_33
_atom_site_aniso_U_23
_atom_site_aniso_U_13
_atom_site_aniso_U_12
Zn1 0.1201(14) 0.0241(7) 0.0993(13) -0.0042(7) 0.0605(11) 0.0003(7)
I1 0.1957(15) 0.0629(7) 0.0984(9) 0.0303(6) 0.0557(9) 0.0368(8)
I2 0.1502(11) 0.0421(6) 0.1689(13) -0.0455(6) 0.1095(10) -0.0396(6)
N1 0.073(7) 0.030(5) 0.078(7) 0.014(5) 0.039(6) 0.015(5)
C1 0.077(7) 0.028(5) 0.094(8) -0.017(5) 0.005(6) -0.020(5)
C2 0.071(7) 0.020(5) 0.085(7) -0.011(5) 0.010(6) -0.007(4)
C3 0.068(7) 0.019(5) 0.050(6) -0.003(4) 0.020(5) -0.005(4)
C4 0.086(9) 0.034(6) 0.064(8) 0.002(5) 0.023(7) 0.006(6)
C5 0.083(9) 0.027(6) 0.077(8) -0.008(6) 0.019(7) -0.008(6)
C6 0.055(6) 0.022(5) 0.042(5) -0.006(4) 0.011(5) 0.002(4)
N2 0.061(6) 0.018(4) 0.054(5) 0.000(4) 0.005(4) -0.019(4)
C7 0.063(7) 0.035(5) 0.032(5) 0.000(4) 0.015(5) 0.004(5)
N3 0.050(5) 0.020(4) 0.029(4) 0.000(3) 0.003(3) -0.012(3)
C8 0.065(7) 0.019(4) 0.035(5) -0.009(4) -0.001(5) -0.010(4)
N4 0.053(5) 0.011(3) 0.043(4) -0.005(3) 0.011(4) -0.004(3)
N5 0.052(5) 0.025(4) 0.078(6) 0.004(4) -0.008(4) -0.011(4)
C9 0.053(7) 0.036(6) 0.068(7) 0.002(5) 0.009(6) -0.015(5)
C10 0.059(7) 0.029(6) 0.074(8) 0.007(5) -0.031(6) -0.019(5)
C11 0.061(7) 0.029(5) 0.043(6) -0.014(4) 0.005(5) 0.005(4)
C12 0.072(7) 0.030(5) 0.078(7) -0.014(5) -0.012(6) -0.007(5)
C13 0.073(6) 0.030(5) 0.082(6) -0.012(5) -0.015(5) -0.016(4)
N6 0.088(7) 0.017(4) 0.038(5) -0.005(3) -0.018(5) -0.006(4)
C14 0.087(9) 0.043(7) 0.077(9) -0.014(6) -0.020(7) 0.022(6)
C15 0.112(11) 0.027(6) 0.076(9) -0.027(6) -0.042(8) 0.020(6)
C16 0.065(7) 0.021(5) 0.040(5) -0.013(4) -0.010(5) -0.003(4)
C17 0.102(9) 0.027(5) 0.031(5) 0.003(4) -0.010(5) 0.003(5)
C18 0.092(9) 0.035(6) 0.042(6) -0.010(5) -0.002(6) -0.018(6)
Zn2 0.0591(9) 0.0435(8) 0.0842(11) 0.0039(7) -0.0143(7) -0.0072(6)
I3 0.0900(8) 0.1158(10) 0.0948(8) 0.0443(7) 0.0091(6) -0.0007(7)
I4 0.1347(11) 0.0583(7) 0.1390(12) -0.0232(7) -0.0453(9) 0.0285(6)
N7 0.056(6) 0.057(6) 0.054(6) -0.005(5) -0.002(5) -0.021(5)
C19 0.086(9) 0.037(6) 0.059(7) 0.002(5) -0.003(6) -0.014(6)
C20 0.063(7) 0.041(6) 0.044(6) -0.004(5) -0.007(5) -0.007(5)
C21 0.048(6) 0.051(6) 0.072(7) -0.016(5) -0.008(5) -0.006(5)
C22 0.072(6) 0.078(7) 0.083(7) -0.027(6) 0.013(6) -0.027(6)
C23 0.086(8) 0.097(9) 0.094(8) -0.039(7) 0.013(7) -0.035(7)
C24 0.045(6) 0.033(5) 0.046(6) -0.002(4) -0.008(5) 0.003(4)
N8 0.060(5) 0.029(4) 0.032(4) -0.013(3) 0.002(4) 0.007(4)
C25 0.050(6) 0.030(5) 0.033(5) 0.000(4) -0.004(4) 0.003(4)
N9 0.052(5) 0.040(5) 0.054(6) -0.006(4) -0.013(5) -0.007(4)
C26 0.058(6) 0.034(5) 0.033(5) -0.003(4) 0.003(4) 0.018(5)
N10 0.041(5) 0.041(5) 0.046(5) -0.009(4) -0.009(4) 0.004(4)
N11 0.064(6) 0.035(5) 0.043(5) 0.000(4) -0.013(5) 0.009(4)
C27 0.080(9) 0.060(8) 0.081(9) -0.011(7) 0.015(8) -0.026(7)
C28 0.072(8) 0.052(7) 0.058(7) -0.028(6) -0.012(6) -0.002(6)
C29 0.063(7) 0.038(6) 0.051(6) 0.008(5) -0.024(6) -0.006(5)
C30 0.054(6) 0.046(6) 0.036(5) -0.011(4) 0.003(5) 0.003(5)
C31 0.092(9) 0.041(7) 0.044(6) -0.008(5) -0.009(6) 0.019(6)
N12 0.102(7) 0.041(5) 0.088(7) -0.021(5) 0.051(6) -0.005(5)
C32 0.113(8) 0.063(6) 0.086(7) -0.024(6) 0.043(6) -0.013(6)
C33 0.102(9) 0.080(8) 0.085(8) -0.026(7) 0.039(7) -0.015(7)
C34 0.096(9) 0.020(5) 0.054(7) -0.002(5) 0.007(6) 0.006(5)
C35 0.051(7) 0.042(7) 0.096(10) 0.002(6) 0.022(7) -0.013(5)
C36 0.072(9) 0.047(7) 0.103(11) -0.013(7) 0.026(8) -0.003(6)
Zn3 0.0973(11) 0.0333(7) 0.0404(7) -0.0036(5) -0.0173(7) 0.0133(7)
I5 0.1085(9) 0.0893(8) 0.0734(7) -0.0058(5) -0.0034(6) 0.0387(6)
I6 0.1365(10) 0.0376(5) 0.0691(6) 0.0046(4) -0.0094(6) -0.0051(5)
C108 0.174(12) 0.117(10) 0.070(8) 0.021(8) 0.055(8) -0.016(10)
C113 0.184(13) 0.093(10) 0.032(7) 0.007(7) 0.063(8) 0.013(10)
C104 0.126(11) 0.099(10) 0.056(8) 0.010(7) 0.060(8) 0.014(9)
C101 0.157(10) 0.112(9) 0.066(7) 0.007(7) 0.062(7) -0.005(8)
C102 0.156(10) 0.111(8) 0.067(7) 0.009(7) 0.071(7) -0.013(8)
C103 0.143(11) 0.104(9) 0.061(8) 0.005(8) 0.067(7) -0.005(9)
C107 0.166(12) 0.122(10) 0.078(8) 0.009(9) 0.050(8) -0.013(10)
C106 0.153(11) 0.113(10) 0.066(8) 0.017(8) 0.056(8) 0.004(9)
C110 0.175(11) 0.117(9) 0.074(7) 0.007(7) 0.066(7) -0.010(8)
C105 0.143(11) 0.113(10) 0.074(9) 0.012(8) 0.054(8) 0.015(9)
C112 0.196(13) 0.114(10) 0.059(8) -0.002(8) 0.062(8) 0.001(10)
C111 0.193(12) 0.120(10) 0.070(8) 0.000(8) 0.069(8) -0.002(10)
C114 0.189(12) 0.111(10) 0.059(8) 0.014(8) 0.050(8) 0.002(10)
C109 0.185(11) 0.117(9) 0.069(7) 0.012(7) 0.053(8) -0.007(9)
Br1 0.213(6) 0.280(8) 0.264(7) 0.056(6) 0.0