####################################################################### 
# 
# This file contains crystal structure data downloaded from the 
# Cambridge Structural Database (CSD) hosted by the Cambridge 
# Crystallographic Data Centre (CCDC).
# 
# Full information about CCDC data access policies and citation 
# guidelines are available at http://www.ccdc.cam.ac.uk/access/V1 
# 
# Audit and citation data items may have been added by the CCDC. 
# Please retain this information to preserve the provenance of 
# this file and to allow appropriate attribution of the data. 
# 
#######################################################################

data_p21
_audit_block_doi                 10.5517/cczkbf8
_database_code_depnum_ccdc_archive 'CCDC 910390'
loop_
_citation_id
_citation_doi
_citation_year
1 10.1038/nature11990 2013
_audit_update_record             
;
2012-11-10 deposited with the CCDC.	2024-07-12 downloaded from the CCDC.
;

_audit_creation_method           SHELXL-97
_chemical_name_systematic        
;
?
;
_chemical_name_common            ?

_chemical_melting_point          ?
_chemical_absolute_configuration rmad
_chemical_formula_moiety         
'C144 H96 I24 N48 Zn12, 5(C15 H18 O3), 6(C6 H12)'
_chemical_formula_sum            'C255 H258 I24 N48 O15 Zn12'
_chemical_formula_weight         8065.13

loop_
_atom_type_symbol
_atom_type_description
_atom_type_scat_dispersion_real
_atom_type_scat_dispersion_imag
_atom_type_scat_source
C C 0.0033 0.0016 'International Tables Vol C Tables 4.2.6.8 and 6.1.1.4'
H H 0.0000 0.0000 'International Tables Vol C Tables 4.2.6.8 and 6.1.1.4'
N N 0.0061 0.0033 'International Tables Vol C Tables 4.2.6.8 and 6.1.1.4'
O O 0.0106 0.0060 'International Tables Vol C Tables 4.2.6.8 and 6.1.1.4'
Zn Zn 0.2839 1.4301 'International Tables Vol C Tables 4.2.6.8 and 6.1.1.4'
I I -0.4742 1.8119 'International Tables Vol C Tables 4.2.6.8 and 6.1.1.4'

_symmetry_cell_setting           Monoclinic
_symmetry_space_group_name_H-M   P2(1)

loop_
_symmetry_equiv_pos_as_xyz
'x, y, z'
'-x, y+1/2, -z'

_cell_length_a                   32.866(5)
_cell_length_b                   14.853(2)
_cell_length_c                   34.850(6)
_cell_angle_alpha                90.00
_cell_angle_beta                 105.848(2)
_cell_angle_gamma                90.00
_cell_volume                     16366(5)
_cell_formula_units_Z            2
_cell_measurement_temperature    90(2)
_cell_measurement_reflns_used    9069
_cell_measurement_theta_min      2.41
_cell_measurement_theta_max      26.06

_exptl_crystal_description       rod
_exptl_crystal_colour            colourless
_exptl_crystal_size_max          0.15
_exptl_crystal_size_mid          0.05
_exptl_crystal_size_min          0.04
_exptl_crystal_density_meas      'not measured'
_exptl_crystal_density_diffrn    1.637
_exptl_crystal_density_method    'not measured'
_exptl_crystal_F_000             7752
_exptl_absorpt_coefficient_mu    3.182
_exptl_absorpt_correction_type   empirical
_exptl_absorpt_correction_T_min  0.6468
_exptl_absorpt_correction_T_max  0.8833
_exptl_absorpt_process_details   SADABS

_exptl_special_details           
;
?
;

_diffrn_ambient_temperature      90(2)
_diffrn_radiation_wavelength     0.71073
_diffrn_radiation_type           MoK\a
_diffrn_radiation_source         'fine-focus sealed tube'
_diffrn_radiation_monochromator  graphite
_diffrn_measurement_device_type  'CCD area detector'
_diffrn_measurement_method       'phi and omega scans'
_diffrn_detector_area_resol_mean ?
_diffrn_standards_number         ?
_diffrn_standards_interval_count ?
_diffrn_standards_interval_time  ?
_diffrn_standards_decay_%        ?
_diffrn_reflns_number            162673
_diffrn_reflns_av_R_equivalents  0.0511
_diffrn_reflns_av_sigmaI/netI    0.0818
_diffrn_reflns_limit_h_min       -39
_diffrn_reflns_limit_h_max       39
_diffrn_reflns_limit_k_min       -17
_diffrn_reflns_limit_k_max       17
_diffrn_reflns_limit_l_min       -42
_diffrn_reflns_limit_l_max       42
_diffrn_reflns_theta_min         0.75
_diffrn_reflns_theta_max         25.50
_reflns_number_total             60731
_reflns_number_gt                48049
_reflns_threshold_expression     >2sigma(I)

_computing_data_collection       'Bruker SMART'
_computing_cell_refinement       'Bruker SMART'
_computing_data_reduction        'Bruker SAINT'
_computing_structure_solution    'SHELXS-97 (Sheldrick, 1990)'
_computing_structure_refinement  'SHELXL-97 (Sheldrick, 1997)'
_computing_molecular_graphics    'Bruker SHELXTL'
_computing_publication_material  'Bruker SHELXTL'

_refine_special_details          
;
Refinement of F^2^ against ALL reflections. The weighted R-factor wR and
goodness of fit S are based on F^2^, conventional R-factors R are based
on F, with F set to zero for negative F^2^. The threshold expression of
F^2^ > 2sigma(F^2^) is used only for calculating R-factors(gt) etc. and is
not relevant to the choice of reflections for refinement. R-factors based
on F^2^ are statistically about twice as large as those based on F, and R-
factors based on ALL data will be even larger.
;

_refine_ls_structure_factor_coef Fsqd
_refine_ls_matrix_type           full
_refine_ls_weighting_scheme      calc
_refine_ls_weighting_details     
'calc w=1/[\s^2^(Fo^2^)+(0.0691P)^2^+174.2895P] where P=(Fo^2^+2Fc^2^)/3'
_atom_sites_solution_primary     direct
_atom_sites_solution_secondary   difmap
_atom_sites_solution_hydrogens   geom
_refine_ls_hydrogen_treatment    constr
_refine_ls_extinction_method     none
_refine_ls_extinction_coef       ?
_refine_ls_abs_structure_details 'Flack H D (1983), Acta Cryst. A39, 876-881'
_refine_ls_abs_structure_Flack   0.092(18)
_refine_ls_number_reflns         60731
_refine_ls_number_parameters     3187
_refine_ls_number_restraints     2227
_refine_ls_R_factor_all          0.1046
_refine_ls_R_factor_gt           0.0827
_refine_ls_wR_factor_ref         0.1813
_refine_ls_wR_factor_gt          0.1726
_refine_ls_goodness_of_fit_ref   1.115
_refine_ls_restrained_S_all      1.101
_refine_ls_shift/su_max          0.002
_refine_ls_shift/su_mean         0.000

loop_
_atom_site_label
_atom_site_type_symbol
_atom_site_fract_x
_atom_site_fract_y
_atom_site_fract_z
_atom_site_U_iso_or_equiv
_atom_site_adp_type
_atom_site_occupancy
_atom_site_symmetry_multiplicity
_atom_site_calc_flag
_atom_site_refinement_flags
_atom_site_disorder_assembly
_atom_site_disorder_group
I1 I 0.66090(4) 1.41370(8) 0.14429(4) 0.0468(3) Uani 1 1 d . . .
Zn1 Zn 0.69395(5) 1.26728(12) 0.13076(5) 0.0250(4) Uani 1 1 d . . .
I2 I 0.76281(3) 1.25194(9) 0.11194(3) 0.0408(3) Uani 1 1 d . . .
N1 N 0.6482(4) 1.2046(8) 0.0876(4) 0.026(2) Uani 1 1 d U . .
C1 C 0.6480(5) 1.1208(11) 0.0818(4) 0.030(3) Uani 1 1 d U . .
H1 H 0.6689 1.0859 0.1000 0.036 Uiso 1 1 calc R . .
C2 C 0.6189(5) 1.0742(11) 0.0502(4) 0.028(3) Uani 1 1 d U . .
H2 H 0.6213 1.0111 0.0470 0.034 Uiso 1 1 calc R . .
C3 C 0.5880(4) 1.1219(11) 0.0251(4) 0.027(3) Uani 1 1 d U . .
C4 C 0.5847(5) 1.2116(11) 0.0304(5) 0.036(3) Uani 1 1 d U . .
H4 H 0.5614 1.2451 0.0150 0.043 Uiso 1 1 calc R . .
C5 C 0.6187(5) 1.2550(12) 0.0611(5) 0.038(3) Uani 1 1 d U . .
H5 H 0.6202 1.3189 0.0624 0.046 Uiso 1 1 calc R . .
C6 C 0.5563(5) 1.0792(11) -0.0071(4) 0.028(3) Uani 1 1 d U . .
N2 N 0.5595(4) 0.9908(9) -0.0135(4) 0.031(3) Uani 1 1 d U . .
C7 C 0.5274(5) 0.9581(11) -0.0447(5) 0.031(3) Uani 1 1 d U . .
N3 N 0.4940(4) 1.0043(8) -0.0664(4) 0.026(2) Uani 1 1 d U . .
C8 C 0.4931(4) 1.0895(10) -0.0552(4) 0.024(2) Uani 1 1 d U . .
N4 N 0.5229(4) 1.1325(9) -0.0263(4) 0.027(2) Uani 1 1 d U . .
N5 N 0.5181(4) 0.6767(10) -0.0688(4) 0.037(3) Uani 1 1 d U . .
C9 C 0.4908(6) 0.7364(12) -0.0861(6) 0.047(3) Uani 1 1 d U . .
H9 H 0.4672 0.7151 -0.1065 0.056 Uiso 1 1 calc R . .
C10 C 0.4918(6) 0.8251(12) -0.0788(5) 0.045(3) Uani 1 1 d U . .
H10 H 0.4687 0.8624 -0.0920 0.054 Uiso 1 1 calc R . .
C11 C 0.5256(5) 0.8607(12) -0.0527(5) 0.034(3) Uani 1 1 d U . .
C12 C 0.5540(5) 0.8025(12) -0.0305(6) 0.044(3) Uani 1 1 d U . .
H12 H 0.5769 0.8225 -0.0091 0.052 Uiso 1 1 calc R . .
C13 C 0.5479(6) 0.7068(13) -0.0410(6) 0.048(4) Uani 1 1 d U . .
H13 H 0.5678 0.6649 -0.0259 0.057 Uiso 1 1 calc R . .
N6 N 0.3805(4) 1.2306(10) -0.1134(4) 0.043(3) Uani 1 1 d U . .
C14 C 0.4126(5) 1.2780(11) -0.0928(5) 0.031(3) Uani 1 1 d U . .
H14 H 0.4102 1.3415 -0.0908 0.038 Uiso 1 1 calc R . .
C15 C 0.4521(5) 1.2324(11) -0.0728(5) 0.033(3) Uani 1 1 d U . .
H15 H 0.4762 1.2665 -0.0591 0.040 Uiso 1 1 calc R . .
C16 C 0.4543(5) 1.1448(11) -0.0739(5) 0.031(3) Uani 1 1 d U . .
C17 C 0.4193(5) 1.0948(12) -0.0964(6) 0.050(4) Uani 1 1 d U . .
H17 H 0.4204 1.0311 -0.0981 0.060 Uiso 1 1 calc R . .
C18 C 0.3838(6) 1.1421(13) -0.1155(6) 0.056(4) Uani 1 1 d U . .
H18 H 0.3602 1.1096 -0.1312 0.068 Uiso 1 1 calc R . .
I3 I 0.35764(5) 1.32542(11) -0.20970(4) 0.0699(5) Uani 1 1 d . . .
Zn2 Zn 0.32853(6) 1.29399(12) -0.15099(7) 0.0385(5) Uani 1 1 d . . .
I4 I 0.29307(4) 1.39939(9) -0.11302(5) 0.0658(4) Uani 1 1 d . . .
N7 N 0.2877(4) 1.1825(8) -0.1653(4) 0.026(2) Uani 1 1 d U . .
C19 C 0.2674(4) 1.1549(10) -0.1393(5) 0.028(3) Uani 1 1 d U . .
H19 H 0.2714 1.1863 -0.1148 0.034 Uiso 1 1 calc R . .
C20 C 0.2410(4) 1.0826(10) -0.1470(5) 0.029(3) Uani 1 1 d U . .
H20 H 0.2270 1.0632 -0.1279 0.034 Uiso 1 1 calc R . .
C21 C 0.2350(4) 1.0384(10) -0.1822(4) 0.021(2) Uani 1 1 d U . .
C22 C 0.2561(4) 1.0641(9) -0.2100(4) 0.025(3) Uani 1 1 d U . .
H22 H 0.2521 1.0329 -0.2345 0.030 Uiso 1 1 calc R . .
C23 C 0.2831(4) 1.1372(10) -0.2004(4) 0.025(3) Uani 1 1 d U . .
H23 H 0.2986 1.1559 -0.2183 0.030 Uiso 1 1 calc R . .
C24 C 0.2065(4) 0.9563(9) -0.1900(4) 0.019(2) Uani 1 1 d U . .
N8 N 0.1756(4) 0.9528(7) -0.1715(3) 0.020(2) Uani 1 1 d U . .
C25 C 0.1521(4) 0.8807(9) -0.1792(4) 0.021(2) Uani 1 1 d U . .
N9 N 0.1532(4) 0.8159(8) -0.2059(3) 0.023(2) Uani 1 1 d U . .
C26 C 0.1849(4) 0.8260(9) -0.2225(4) 0.019(2) Uani 1 1 d U . .
N10 N 0.2128(3) 0.8946(7) -0.2162(3) 0.020(2) Uani 1 1 d U . .
N11 N 0.0602(4) 0.8371(8) -0.1139(4) 0.025(2) Uani 1 1 d U . .
C27 C 0.0769(5) 0.7658(11) -0.1307(5) 0.031(3) Uani 1 1 d U . .
H27 H 0.0695 0.7054 -0.1267 0.037 Uiso 1 1 calc R . .
C28 C 0.1044(5) 0.7839(11) -0.1530(5) 0.034(3) Uani 1 1 d U . .
H28 H 0.1135 0.7350 -0.1662 0.041 Uiso 1 1 calc R . .
C29 C 0.1192(5) 0.8667(9) -0.1575(4) 0.023(2) Uani 1 1 d U . .
C30 C 0.1038(5) 0.9409(10) -0.1398(4) 0.027(3) Uani 1 1 d U . .
H30 H 0.1129 1.0008 -0.1422 0.032 Uiso 1 1 calc R . .
C31 C 0.0749(5) 0.9209(10) -0.1188(4) 0.028(3) Uani 1 1 d U . .
H31 H 0.0644 0.9698 -0.1068 0.033 Uiso 1 1 calc R . .
N12 N 0.1866(4) 0.6380(8) -0.3158(4) 0.023(2) Uani 1 1 d U . .
C32 C 0.2139(4) 0.7048(9) -0.3078(4) 0.020(2) Uani 1 1 d U . .
H32 H 0.2332 0.7105 -0.3235 0.024 Uiso 1 1 calc R . .
C33 C 0.2162(4) 0.7691(9) -0.2772(4) 0.017(2) Uani 1 1 d U . .
H33 H 0.2365 0.8162 -0.2723 0.021 Uiso 1 1 calc R . .
C34 C 0.1870(4) 0.7601(9) -0.2543(4) 0.020(2) Uani 1 1 d U . .
C35 C 0.1572(5) 0.6878(10) -0.2631(4) 0.027(3) Uani 1 1 d U . .
H35 H 0.1373 0.6789 -0.2482 0.033 Uiso 1 1 calc R . .
C36 C 0.1587(5) 0.6328(11) -0.2935(5) 0.030(3) Uani 1 1 d U . .
H36 H 0.1383 0.5859 -0.2998 0.036 Uiso 1 1 calc R . .
I5 I 0.04369(4) 0.90588(7) -0.01768(3) 0.0327(2) Uani 1 1 d . . .
Zn3 Zn 0.01882(5) 0.81420(11) -0.08118(5) 0.0229(4) Uani 1 1 d . . .
I6 I -0.05593(3) 0.82839(7) -0.12678(3) 0.0326(2) Uani 1 1 d . . .
N13 N 0.0270(4) 0.6779(8) -0.0675(3) 0.021(2) Uani 1 1 d U . .
C37 C 0.0525(4) 0.6461(9) -0.0348(4) 0.020(2) Uani 1 1 d U . .
H37 H 0.0699 0.6870 -0.0165 0.024 Uiso 1 1 calc R . .
C38 C 0.0551(4) 0.5545(10) -0.0255(4) 0.022(2) Uani 1 1 d U . .
H38 H 0.0735 0.5339 -0.0010 0.026 Uiso 1 1 calc R . .
C39 C 0.0310(4) 0.4948(9) -0.0521(4) 0.017(2) Uani 1 1 d U . .
C40 C 0.0054(5) 0.5244(10) -0.0866(4) 0.030(3) Uani 1 1 d U . .
H40 H -0.0124 0.4850 -0.1053 0.036 Uiso 1 1 calc R . .
C41 C 0.0067(5) 0.6200(10) -0.0932(5) 0.032(3) Uani 1 1 d U . .
H41 H -0.0087 0.6422 -0.1186 0.039 Uiso 1 1 calc R . .
C42 C 0.0312(4) 0.3966(9) -0.0416(4) 0.0180(18) Uani 1 1 d U . .
N14 N 0.0606(3) 0.3636(7) -0.0120(3) 0.0176(19) Uani 1 1 d U . .
C43 C 0.0549(4) 0.2763(9) -0.0037(4) 0.021(2) Uani 1 1 d U . .
N15 N 0.0235(4) 0.2250(8) -0.0235(3) 0.021(2) Uani 1 1 d U . .
C44 C -0.0052(4) 0.2655(9) -0.0516(4) 0.018(2) Uani 1 1 d U . .
N16 N -0.0026(4) 0.3534(8) -0.0638(3) 0.021(2) Uani 1 1 d U . .
N17 N 0.1515(3) 0.1456(8) 0.0877(3) 0.019(2) Uani 1 1 d U . .
C45 C 0.1181(4) 0.1018(10) 0.0654(4) 0.022(3) Uani 1 1 d U . .
H45 H 0.1167 0.0387 0.0695 0.027 Uiso 1 1 calc R . .
C46 C 0.0863(5) 0.1397(10) 0.0375(4) 0.026(3) Uani 1 1 d U . .
H46 H 0.0625 0.1046 0.0241 0.031 Uiso 1 1 calc R . .
C47 C 0.0882(4) 0.2313(9) 0.0283(4) 0.019(2) Uani 1 1 d U . .
C48 C 0.1235(4) 0.2777(10) 0.0521(4) 0.024(3) Uani 1 1 d U . .
H48 H 0.1265 0.3405 0.0486 0.028 Uiso 1 1 calc R . .
C49 C 0.1519(4) 0.2344(10) 0.0791(4) 0.021(2) Uani 1 1 d U . .
H49 H 0.1753 0.2683 0.0942 0.025 Uiso 1 1 calc R . .
N18 N -0.1174(3) 0.1236(7) -0.1063(3) 0.016(2) Uani 1 1 d U . .
C50 C -0.1175(5) 0.2123(9) -0.1055(4) 0.023(3) Uani 1 1 d U . .
H50 H -0.1435 0.2435 -0.1157 0.027 Uiso 1 1 calc R . .
C51 C -0.0806(4) 0.2611(10) -0.0903(4) 0.024(3) Uani 1 1 d U . .
H51 H -0.0809 0.3250 -0.0913 0.029 Uiso 1 1 calc R . .
C52 C -0.0432(4) 0.2142(9) -0.0734(4) 0.018(2) Uani 1 1 d U . .
C53 C -0.0439(5) 0.1194(10) -0.0749(4) 0.024(3) Uani 1 1 d U . .
H53 H -0.0192 0.0845 -0.0641 0.028 Uiso 1 1 calc R . .
C54 C -0.0818(4) 0.0806(10) -0.0927(4) 0.023(3) Uani 1 1 d U . .
H54 H -0.0823 0.0170 -0.0954 0.028 Uiso 1 1 calc R . .
I7 I -0.18027(4) 0.01719(9) -0.04949(4) 0.0483(3) Uani 1 1 d . . .
Zn4 Zn -0.17484(5) 0.05396(12) -0.11958(5) 0.0254(4) Uani 1 1 d . . .
I8 I -0.17869(4) -0.06467(8) -0.17026(4) 0.0530(3) Uani 1 1 d . . .
N19 N -0.2182(4) 0.1544(8) -0.1437(3) 0.024(2) Uani 1 1 d U . .
C55 C -0.2422(5) 0.1888(11) -0.1213(5) 0.030(3) Uani 1 1 d U . .
H55 H -0.2399 0.1637 -0.0957 0.036 Uiso 1 1 calc R . .
C56 C -0.2701(4) 0.2595(11) -0.1345(4) 0.025(3) Uani 1 1 d U . .
H56 H -0.2875 0.2811 -0.1188 0.030 Uiso 1 1 calc R . .
C57 C -0.2720(4) 0.2971(10) -0.1704(4) 0.021(2) Uani 1 1 d U . .
C58 C -0.2486(4) 0.2611(10) -0.1938(4) 0.022(3) Uani 1 1 d U . .
H58 H -0.2504 0.2857 -0.2194 0.027 Uiso 1 1 calc R . .
C59 C -0.2213(5) 0.1858(10) -0.1791(4) 0.022(3) Uani 1 1 d U . .
H59 H -0.2055 0.1592 -0.1953 0.027 Uiso 1 1 calc R . .
C60 C -0.3005(4) 0.3763(10) -0.1844(4) 0.022(2) Uani 1 1 d U . .
N20 N -0.3291(4) 0.3916(8) -0.1645(3) 0.025(2) Uani 1 1 d U . .
C61 C -0.3551(5) 0.4614(10) -0.1773(5) 0.027(3) Uani 1 1 d U . .
N21 N -0.3520(4) 0.5140(8) -0.2067(4) 0.024(2) Uani 1 1 d U . .
C62 C -0.3211(4) 0.4953(9) -0.2240(4) 0.019(2) Uani 1 1 d U . .
N22 N -0.2941(3) 0.4284(8) -0.2134(3) 0.022(2) Uani 1 1 d U . .
N23 N -0.4460(4) 0.5189(10) -0.1149(4) 0.035(3) Uani 1 1 d U . .
C63 C -0.4400(5) 0.5727(12) -0.1432(5) 0.041(3) Uani 1 1 d U . .
H63 H -0.4581 0.6233 -0.1508 0.049 Uiso 1 1 calc R . .
C64 C -0.4093(5) 0.5599(11) -0.1621(5) 0.039(3) Uani 1 1 d U . .
H64 H -0.4042 0.6038 -0.1801 0.047 Uiso 1 1 calc R . .
C65 C -0.3856(5) 0.4809(11) -0.1546(5) 0.031(3) Uani 1 1 d U . .
C66 C -0.3938(5) 0.4261(13) -0.1267(5) 0.041(3) Uani 1 1 d U . .
H66 H -0.3790 0.3706 -0.1212 0.050 Uiso 1 1 calc R . .
C67 C -0.4207(5) 0.4453(12) -0.1070(5) 0.040(3) Uani 1 1 d U . .
H67 H -0.4228 0.4062 -0.0860 0.048 Uiso 1 1 calc R . .
N24 N -0.3081(3) 0.6622(8) -0.3200(3) 0.019(2) Uani 1 1 d U . .
C68 C -0.2769(4) 0.6095(9) -0.2983(4) 0.022(3) Uani 1 1 d U . .
H68 H -0.2514 0.6075 -0.3060 0.026 Uiso 1 1 calc R . .
C69 C -0.2787(5) 0.5596(10) -0.2669(4) 0.027(3) Uani 1 1 d U . .
H69 H -0.2546 0.5274 -0.2519 0.032 Uiso 1 1 calc R . .
C70 C -0.3162(4) 0.5562(10) -0.2571(4) 0.023(2) Uani 1 1 d U . .
C71 C -0.3514(5) 0.6066(10) -0.2784(4) 0.028(3) Uani 1 1 d U . .
H71 H -0.3769 0.6082 -0.2706 0.033 Uiso 1 1 calc R . .
C72 C -0.3468(5) 0.6533(11) -0.3110(5) 0.031(3) Uani 1 1 d U . .
H72 H -0.3711 0.6807 -0.3282 0.038 Uiso 1 1 calc R . .
I9 I -0.56262(4) 0.52160(10) -0.13259(4) 0.0585(4) Uani 1 1 d . . .
Zn5 Zn -0.49034(6) 0.54039(13) -0.08398(6) 0.0369(5) Uani 1 1 d . . .
I10 I -0.46401(5) 0.44716(9) -0.02081(4) 0.0559(4) Uani 1 1 d . . .
I11 I -0.34107(4) 0.88738(7) -0.35544(3) 0.0391(3) Uani 1 1 d . . .
Zn6 Zn -0.30770(5) 0.74022(11) -0.36809(5) 0.0226(4) Uani 1 1 d . . .
I12 I -0.23797(3) 0.73038(7) -0.38498(3) 0.0308(2) Uani 1 1 d . . .
I13 I 0.26967(3) 0.10946(8) 0.11566(3) 0.0381(3) Uani 1 1 d . . .
Zn7 Zn 0.19891(5) 0.08424(12) 0.12953(5) 0.0241(4) Uani 1 1 d . . .
I14 I 0.17115(4) -0.06703(7) 0.14200(4) 0.0449(3) Uani 1 1 d . . .
N25 N 0.1961(4) 0.1613(9) 0.1792(3) 0.025(2) Uani 1 1 d U . .
C73 C 0.2284(4) 0.2083(10) 0.1989(4) 0.020(3) Uani 1 1 d U . .
H73 H 0.2541 0.2067 0.1915 0.024 Uiso 1 1 calc R . .
C74 C 0.2250(4) 0.2618(10) 0.2313(4) 0.022(3) Uani 1 1 d U . .
H74 H 0.2484 0.2972 0.2456 0.026 Uiso 1 1 calc R . .
C75 C 0.1881(4) 0.2626(10) 0.2422(4) 0.020(2) Uani 1 1 d U . .
C76 C 0.1558(4) 0.2087(10) 0.2218(4) 0.025(3) Uani 1 1 d U . .
H76 H 0.1298 0.2080 0.2287 0.030 Uiso 1 1 calc R . .
C77 C 0.1611(5) 0.1545(12) 0.1907(5) 0.035(3) Uani 1 1 d U . .
H77 H 0.1397 0.1130 0.1779 0.042 Uiso 1 1 calc R . .
C78 C 0.1841(4) 0.3189(9) 0.2765(4) 0.020(2) Uani 1 1 d U . .
