####################################################################### 
# 
# This file contains crystal structure data downloaded from the 
# Cambridge Structural Database (CSD) hosted by the Cambridge 
# Crystallographic Data Centre (CCDC).
# 
# Full information about CCDC data access policies and citation 
# guidelines are available at http://www.ccdc.cam.ac.uk/access/V1 
# 
# Audit and citation data items may have been added by the CCDC. 
# Please retain this information to preserve the provenance of 
# this file and to allow appropriate attribution of the data. 
# 
#######################################################################

data_c2c7
_audit_block_doi                 10.5517/cczkb94
_database_code_depnum_ccdc_archive 'CCDC 910386'
loop_
_citation_id
_citation_doi
_citation_year
1 10.1038/nature11990 2013
_audit_update_record             
;
2012-11-10 deposited with the CCDC.	2024-07-12 downloaded from the CCDC.
;

_audit_creation_method           SHELXL-97
_chemical_name_systematic        
;
?
;
_chemical_name_common            ?
_chemical_melting_point          ?
_chemical_formula_moiety         'C36 H24 I6 N12 Zn3 0.5(C9 H8 O)'
_chemical_formula_sum            'C40.50 H28 I6 N12 O0.50 Zn3'
_chemical_formula_weight         1648.26

loop_
_atom_type_symbol
_atom_type_description
_atom_type_scat_dispersion_real
_atom_type_scat_dispersion_imag
_atom_type_scat_source
C C 0.0033 0.0016 'International Tables Vol C Tables 4.2.6.8 and 6.1.1.4'
H H 0.0000 0.0000 'International Tables Vol C Tables 4.2.6.8 and 6.1.1.4'
N N 0.0061 0.0033 'International Tables Vol C Tables 4.2.6.8 and 6.1.1.4'
Zn Zn 0.2839 1.4301 'International Tables Vol C Tables 4.2.6.8 and 6.1.1.4'
I I -0.4742 1.8119 'International Tables Vol C Tables 4.2.6.8 and 6.1.1.4'
O O 0.0106 0.0060 'International Tables Vol C Tables 4.2.6.8 and 6.1.1.4'

_symmetry_cell_setting           Monoclinic
_symmetry_space_group_name_H-M   C2/c

loop_
_symmetry_equiv_pos_as_xyz
'x, y, z'
'-x, y, -z+1/2'
'x+1/2, y+1/2, z'
'-x+1/2, y+1/2, -z+1/2'
'-x, -y, -z'
'x, -y, z-1/2'
'-x+1/2, -y+1/2, -z'
'x+1/2, -y+1/2, z-1/2'

_cell_length_a                   34.847(4)
_cell_length_b                   14.7560(16)
_cell_length_c                   30.740(4)
_cell_angle_alpha                90.00
_cell_angle_beta                 102.007(2)
_cell_angle_gamma                90.00
_cell_volume                     15461(3)
_cell_formula_units_Z            8
_cell_measurement_temperature    90(2)
_cell_measurement_reflns_used    7585
_cell_measurement_theta_min      2.25
_cell_measurement_theta_max      26.19

_exptl_crystal_description       rod
_exptl_crystal_colour            colourless
_exptl_crystal_size_max          0.17
_exptl_crystal_size_mid          0.07
_exptl_crystal_size_min          0.05
_exptl_crystal_density_meas      'not measured'
_exptl_crystal_density_diffrn    1.416
_exptl_crystal_density_method    'not measured'
_exptl_crystal_F_000             6136
_exptl_absorpt_coefficient_mu    3.347
_exptl_absorpt_correction_type   empirical
_exptl_absorpt_correction_T_min  0.5999
_exptl_absorpt_correction_T_max  0.8505
_exptl_absorpt_process_details   SADABS

_exptl_special_details           
;
?
;

_diffrn_ambient_temperature      90(2)
_diffrn_radiation_wavelength     0.71073
_diffrn_radiation_type           MoK\a
_diffrn_radiation_source         'fine-focus sealed tube'
_diffrn_radiation_monochromator  graphite
_diffrn_measurement_device_type  'CCD area detector'
_diffrn_measurement_method       'phi and omega scans'
_diffrn_detector_area_resol_mean ?
_diffrn_standards_number         ?
_diffrn_standards_interval_count ?
_diffrn_standards_interval_time  ?
_diffrn_standards_decay_%        ?
_diffrn_reflns_number            79064
_diffrn_reflns_av_R_equivalents  0.0558
_diffrn_reflns_av_sigmaI/netI    0.0402
_diffrn_reflns_limit_h_min       -42
_diffrn_reflns_limit_h_max       42
_diffrn_reflns_limit_k_min       -18
_diffrn_reflns_limit_k_max       18
_diffrn_reflns_limit_l_min       -37
_diffrn_reflns_limit_l_max       37
_diffrn_reflns_theta_min         1.19
_diffrn_reflns_theta_max         26.00
_reflns_number_total             15196
_reflns_number_gt                10901
_reflns_threshold_expression     >2sigma(I)

_computing_data_collection       'Bruker SMART'
_computing_cell_refinement       'Bruker SMART'
_computing_data_reduction        'Bruker SAINT'
_computing_structure_solution    'SHELXS-97 (Sheldrick, 1990)'
_computing_structure_refinement  'SHELXL-97 (Sheldrick, 1997)'
_computing_molecular_graphics    'Bruker SHELXTL'
_computing_publication_material  'Bruker SHELXTL'

_refine_special_details          
;
Refinement of F^2^ against ALL reflections. The weighted R-factor wR and
goodness of fit S are based on F^2^, conventional R-factors R are based
on F, with F set to zero for negative F^2^. The threshold expression of
F^2^ > 2sigma(F^2^) is used only for calculating R-factors(gt) etc. and is
not relevant to the choice of reflections for refinement. R-factors based
on F^2^ are statistically about twice as large as those based on F, and R-
factors based on ALL data will be even larger.
;

_refine_ls_structure_factor_coef Fsqd
_refine_ls_matrix_type           full
_refine_ls_weighting_scheme      calc
_refine_ls_weighting_details     
'calc w=1/[\s^2^(Fo^2^)+(0.1688P)^2^+4.7490P] where P=(Fo^2^+2Fc^2^)/3'
_atom_sites_solution_primary     direct
_atom_sites_solution_secondary   difmap
_atom_sites_solution_hydrogens   geom
_refine_ls_hydrogen_treatment    constr
_refine_ls_extinction_method     none
_refine_ls_extinction_coef       ?
_refine_ls_number_reflns         15196
_refine_ls_number_parameters     604
_refine_ls_number_restraints     45
_refine_ls_R_factor_all          0.0919
_refine_ls_R_factor_gt           0.0750
_refine_ls_wR_factor_ref         0.2631
_refine_ls_wR_factor_gt          0.2439
_refine_ls_goodness_of_fit_ref   1.172
_refine_ls_restrained_S_all      1.173
_refine_ls_shift/su_max          0.001
_refine_ls_shift/su_mean         0.000

loop_
_atom_site_label
_atom_site_type_symbol
_atom_site_fract_x
_atom_site_fract_y
_atom_site_fract_z
_atom_site_U_iso_or_equiv
_atom_site_adp_type
_atom_site_occupancy
_atom_site_symmetry_multiplicity
_atom_site_calc_flag
_atom_site_refinement_flags
_atom_site_disorder_assembly
_atom_site_disorder_group
Zn1 Zn 0.41515(3) 0.12667(5) 0.40891(3) 0.0547(3) Uani 1 1 d . . .
I1 I 0.47282(2) 0.15121(5) 0.37122(3) 0.0899(3) Uani 1 1 d . . .
I2 I 0.37774(3) 0.23866(4) 0.44523(2) 0.0926(3) Uani 1 1 d . . .
Zn2 Zn 0.12338(3) 0.10169(6) 0.05980(3) 0.0611(3) Uani 1 1 d . . .
I3 I 0.14348(2) 0.09463(6) -0.01347(3) 0.0967(3) Uani 1 1 d . . .
I4 I 0.10733(3) 0.24371(4) 0.09798(4) 0.1110(4) Uani 1 1 d . . .
Zn3 Zn 0.32673(3) -0.64182(5) 0.23091(3) 0.0516(3) Uani 1 1 d . . .
I5 I 0.264636(19) -0.73225(3) 0.20532(2) 0.0684(2) Uani 1 1 d . . .
I6 I 0.36990(2) -0.65908(4) 0.307868(19) 0.0680(2) Uani 1 1 d . . .
N1 N 0.37733(19) 0.0590(4) 0.3592(2) 0.0538(16) Uani 1 1 d . . .
C1 C 0.3453(2) 0.0966(4) 0.3336(2) 0.0474(17) Uani 1 1 d . . .
H1 H 0.3382 0.1565 0.3401 0.057 Uiso 1 1 calc R . .
C2 C 0.3228(2) 0.0526(4) 0.2989(2) 0.0478(17) Uani 1 1 d . . .
H2 H 0.3006 0.0819 0.2814 0.057 Uiso 1 1 calc R . .
C3 C 0.3323(2) -0.0363(4) 0.2888(2) 0.0505(18) Uani 1 1 d . . .
C4 C 0.3640(3) -0.0755(5) 0.3155(3) 0.076(3) Uani 1 1 d . . .
H4 H 0.3709 -0.1365 0.3110 0.091 Uiso 1 1 calc R . .
C5 C 0.3858(3) -0.0249(5) 0.3492(4) 0.090(4) Uani 1 1 d . . .
H5 H 0.4086 -0.0520 0.3666 0.109 Uiso 1 1 calc R . .
N2 N 0.16729(18) 0.0370(4) 0.1038(2) 0.0537(16) Uani 1 1 d . . .
C6 C 0.1778(2) -0.0476(5) 0.0959(3) 0.060(2) Uani 1 1 d . . .
H6 H 0.1642 -0.0767 0.0696 0.072 Uiso 1 1 calc R . .
C7 C 0.2066(2) -0.0944(4) 0.1230(2) 0.0520(19) Uani 1 1 d . . .
H7 H 0.2124 -0.1550 0.1163 0.062 Uiso 1 1 calc R . .
C8 C 0.2273(2) -0.0519(4) 0.1610(2) 0.0426(15) Uani 1 1 d . . .
C9 C 0.2157(2) 0.0363(5) 0.1693(3) 0.059(2) Uani 1 1 d . . .
H9 H 0.2285 0.0671 0.1954 0.071 Uiso 1 1 calc R . .
C10 C 0.1870(3) 0.0770(5) 0.1410(3) 0.064(2) Uani 1 1 d . . .
H10 H 0.1801 0.1372 0.1473 0.077 Uiso 1 1 calc R . .
N3 N 0.31523(19) -0.5038(4) 0.2218(2) 0.0498(15) Uani 1 1 d . . .
C11 C 0.3398(3) -0.4464(5) 0.2473(3) 0.061(2) Uani 1 1 d . . .
H11 H 0.3619 -0.4703 0.2674 0.074 Uiso 1 1 calc R . .
C12 C 0.3344(3) -0.3551(5) 0.2456(4) 0.075(3) Uani 1 1 d . . .
H12 H 0.3520 -0.3165 0.2649 0.090 Uiso 1 1 calc R . .
C13 C 0.3028(2) -0.3189(4) 0.2156(2) 0.0453(16) Uani 1 1 d . . .
C14 C 0.2788(2) -0.3780(4) 0.1891(3) 0.0462(16) Uani 1 1 d . . .
H14 H 0.2574 -0.3560 0.1673 0.055 Uiso 1 1 calc R . .
C15 C 0.2854(2) -0.4707(4) 0.1940(3) 0.0526(18) Uani 1 1 d . . .
H15 H 0.2674 -0.5112 0.1764 0.063 Uiso 1 1 calc R . .
C16 C 0.3086(2) -0.0879(4) 0.2523(2) 0.0448(16) Uani 1 1 d . . .
N4 N 0.27860(17) -0.0452(3) 0.22585(19) 0.0452(14) Uani 1 1 d . . .
C17 C 0.2589(2) -0.0965(4) 0.1928(2) 0.0425(15) Uani 1 1 d . . .
N5 N 0.26623(17) -0.1857(3) 0.18570(19) 0.0431(13) Uani 1 1 d . . .
C18 C 0.2953(2) -0.2206(4) 0.2163(2) 0.0443(16) Uani 1 1 d . . .
N6 N 0.31920(17) -0.1740(3) 0.24849(19) 0.0442(14) Uani 1 1 d . . .
N7 N 0.36043(19) -0.6624(4) 0.1850(2) 0.0481(14) Uani 1 1 d . . .
C19 C 0.3492(3) -0.7176(6) 0.1500(3) 0.066(2) Uani 1 1 d . . .
H19 H 0.3241 -0.7453 0.1458 0.080 Uiso 1 1 calc R . .
C20 C 0.3723(3) -0.7358(5) 0.1200(3) 0.062(2) Uani 1 1 d . . .
H20 H 0.3638 -0.7773 0.0964 0.075 Uiso 1 1 calc R . .
C21 C 0.4086(2) -0.6920(4) 0.1250(2) 0.0452(16) Uani 1 1 d . . .
C22 C 0.4194(3) -0.6303(7) 0.1595(3) 0.081(3) Uani 1 1 d . . .
H22 H 0.4434 -0.5978 0.1639 0.097 Uiso 1 1 calc R . .
C23 C 0.3930(3) -0.6192(8) 0.1870(4) 0.083(3) Uani 1 1 d . . .
H23 H 0.3995 -0.5750 0.2098 0.100 Uiso 1 1 calc R . .
N8 N 0.4285(2) -1.0200(4) -0.0472(2) 0.0548(16) Uani 1 1 d . . .
C24 C 0.4607(2) -0.9670(5) -0.0452(2) 0.0489(17) Uani 1 1 d . . .
H24 H 0.4791 -0.9820 -0.0630 0.059 Uiso 1 1 calc R . .
C25 C 0.4672(2) -0.8934(5) -0.0184(2) 0.0460(16) Uani 1 1 d . . .
H25 H 0.4903 -0.8584 -0.0172 0.055 Uiso 1 1 calc R . .
C26 C 0.4410(2) -0.8685(5) 0.0070(2) 0.0501(18) Uani 1 1 d . . .
C27 C 0.4083(3) -0.9224(7) 0.0055(3) 0.077(3) Uani 1 1 d . . .
H27 H 0.3893 -0.9077 0.0225 0.093 Uiso 1 1 calc R . .
C28 C 0.4040(3) -0.9979(6) -0.0212(4) 0.080(3) Uani 1 1 d . . .
H28 H 0.3823 -1.0366 -0.0210 0.095 Uiso 1 1 calc R . .
N9 N 0.57706(19) -0.4839(4) 0.0569(2) 0.0582(17) Uani 1 1 d . . .
C29 C 0.5596(4) -0.4881(9) 0.0908(4) 0.107(5) Uani 1 1 d . . .
H29 H 0.5691 -0.4490 0.1152 0.128 Uiso 1 1 calc R . .
C30 C 0.5284(4) -0.5450(9) 0.0940(4) 0.106(5) Uani 1 1 d . . .
H30 H 0.5173 -0.5467 0.1198 0.128 Uiso 1 1 calc R . .
C31 C 0.5147(2) -0.5982(5) 0.0578(2) 0.0480(17) Uani 1 1 d . . .
C32 C 0.5326(3) -0.5972(5) 0.0220(3) 0.059(2) Uani 1 1 d . . .
H32 H 0.5240 -0.6359 -0.0028 0.071 Uiso 1 1 calc R . .
C33 C 0.5632(2) -0.5383(6) 0.0233(3) 0.059(2) Uani 1 1 d . . .
H33 H 0.5752 -0.5366 -0.0018 0.071 Uiso 1 1 calc R . .
C34 C 0.4331(2) -0.7055(5) 0.0916(2) 0.0469(16) Uani 1 1 d . . .
N10 N 0.42524(18) -0.7799(4) 0.0662(2) 0.0483(14) Uani 1 1 d . . .
C35 C 0.4482(2) -0.7869(5) 0.0355(2) 0.0467(17) Uani 1 1 d . . .
N11 N 0.47487(18) -0.7294(4) 0.02966(18) 0.0440(13) Uani 1 1 d . . .
C36 C 0.4810(2) -0.6604(5) 0.0601(3) 0.0510(18) Uani 1 1 d . . .
N12 N 0.46141(18) -0.6471(4) 0.0915(2) 0.0458(14) Uani 1 1 d . . .
C37 C 0.2413(6) 0.3338(14) 0.0702(6) 0.090(6) Uani 0.50 1 d PDU . .
C38 C 0.2659(6) 0.4053(16) 0.0665(7) 0.124(9) Uani 0.50 1 d PDU . .
H38 H 0.2910 0.3967 0.0597 0.149 Uiso 0.50 1 calc PR . .
C39 C 0.2516(7) 0.4904(18) 0.0734(8) 0.156(13) Uani 0.50 1 d PDU . .
H39 H 0.2682 0.5405 0.0711 0.187 Uiso 0.50 1 calc PR . .
C40 C 0.2154(7) 0.5098(17) 0.0833(6) 0.120(12) Uani 0.50 1 d PD . .
H40 H 0.2063 0.5693 0.0874 0.144 Uiso 0.50 1 calc PR . .
C41 C 0.1941(7) 0.432(2) 0.0863(8) 0.131(12) Uani 0.50 1 d PD . .
H41 H 0.1694 0.4406 0.0941 0.157 Uiso 0.50 1 calc PR . .
C42 C 0.2044(7) 0.3431(19) 0.0794(10) 0.178(17) Uani 0.50 1 d PDU . .
H42 H 0.1875 0.2931 0.0808 0.214 Uiso 0.50 1 calc PR . .
C43 C 0.2479(8) 0.2364(16) 0.0668(9) 0.105(8) Uani 0.50 1 d PDU . .
H43 H 0.2285 0.1970 0.0738 0.126 Uiso 0.50 1 calc PR . .
C44 C 0.2777(8) 0.199(2) 0.0551(8) 0.123(10) Uani 0.50 1 d PD . .
H44 H 0.2969 0.2389 0.0477 0.147 Uiso 0.50 1 calc PR . .
C45 C 0.2852(8) 0.096(3) 0.0521(8) 0.122(11) Uani 0.50 1 d PD . .
H45 H 0.2651 0.0553 0.0557 0.146 Uiso 0.50 1 calc PR . .
O1 O 0.3154(8) 0.0667(19) 0.0452(8) 0.152(8) Uani 0.50 1 d PD . .

loop_
_atom_site_aniso_label
_atom_site_aniso_U_11
_atom_site_aniso_U_22
_atom_site_aniso_U_33
_atom_site_aniso_U_23
_atom_site_aniso_U_13
_atom_site_aniso_U_12
Zn1 0.0709(6) 0.0357(4) 0.0445(5) 0.0044(3) -0.0179(4) -0.0062(4)
I1 0.0911(5) 0.0848(5) 0.0805(5) 0.0168(3) -0.0128(4) -0.0281(4)
I2 0.1436(7) 0.0495(3) 0.0696(4) -0.0030(3) -0.0127(4) 0.0287(4)
Zn2 0.0481(5) 0.0478(5) 0.0739(6) 0.0192(4) -0.0182(4) -0.0085(4)
I3 0.0731(5) 0.1274(6) 0.0843(5) 0.0558(4) 0.0041(4) -0.0023(4)
I4 0.1076(6) 0.0480(4) 0.1464(8) 0.0017(4) -0.0448(6) 0.0117(3)
Zn3 0.0683(6) 0.0294(4) 0.0591(5) -0.0016(3) 0.0177(4) 0.0031(3)
I5 0.0793(4) 0.0413(3) 0.0905(5) -0.0140(2) 0.0310(3) -0.0127(2)
I6 0.0919(5) 0.0518(3) 0.0600(4) 0.0105(2) 0.0153(3) 0.0139(3)
N1 0.056(4) 0.035(3) 0.059(4) 0.005(3) -0.014(3) -0.003(3)
C1 0.056(4) 0.025(3) 0.056(4) 0.005(3) -0.002(3) 0.003(3)
C2 0.055(4) 0.032(3) 0.044(4) 0.005(3) -0.017(3) 0.003(3)
C3 0.059(4) 0.032(3) 0.051(4) 0.000(3) -0.012(3) -0.001(3)
C4 0.078(6) 0.038(4) 0.089(6) -0.008(4) -0.036(5) 0.016(4)
C5 0.095(7) 0.041(4) 0.099(7) -0.014(4) -0.062(6) 0.020(4)
N2 0.046(3) 0.042(3) 0.064(4) 0.015(3) -0.011(3) -0.012(3)
C6 0.062(5) 0.038(4) 0.064(5) 0.006(3) -0.024(4) -0.012(3)
C7 0.064(5) 0.032(3) 0.049(4) 0.002(3) -0.012(4) -0.006(3)
C8 0.049(4) 0.029(3) 0.043(4) 0.008(2) -0.005(3) -0.006(3)
C9 0.062(5) 0.033(3) 0.068(5) -0.001(3) -0.019(4) -0.010(3)
C10 0.067(5) 0.034(3) 0.078(6) 0.006(3) -0.014(4) -0.013(3)
N3 0.065(4) 0.026(2) 0.058(4) -0.001(2) 0.013(3) 0.003(3)
C11 0.062(5) 0.031(3) 0.079(5) -0.009(3) -0.013(4) 0.010(3)
C12 0.082(6) 0.032(4) 0.093(7) -0.008(4) -0.023(5) 0.002(4)
C13 0.054(4) 0.029(3) 0.049(4) 0.001(3) 0.002(3) 0.001(3)
C14 0.049(4) 0.030(3) 0.057(4) -0.005(3) 0.004(3) 0.006(3)
C15 0.062(5) 0.031(3) 0.060(5) -0.007(3) 0.002(4) -0.007(3)
C16 0.052(4) 0.027(3) 0.047(4) 0.003(3) -0.010(3) -0.005(3)
N4 0.046(3) 0.029(2) 0.053(3) 0.001(2) -0.008(3) -0.005(2)
C17 0.049(4) 0.031(3) 0.043(4) 0.005(3) -0.002(3) -0.006(3)
N5 0.048(3) 0.025(2) 0.050(3) -0.001(2) -0.003(3) -0.008(2)
C18 0.054(4) 0.030(3) 0.047(4) 0.002(3) 0.005(3) -0.007(3)
N6 0.045(3) 0.029(2) 0.049(3) 0.003(2) -0.013(3) -0.005(2)
N7 0.059(4) 0.037(3) 0.051(3) -0.002(2) 0.015(3) 0.005(3)
C19 0.069(6) 0.058(5) 0.072(6) -0.009(4) 0.013(5) -0.009(4)
C20 0.070(6) 0.055(4) 0.063(5) -0.016(4) 0.014(4) -0.016(4)
C21 0.056(4) 0.039(3) 0.039(4) -0.003(3) 0.005(3) -0.001(3)
C22 0.081(7) 0.096(7) 0.069(6) -0.042(5) 0.020(5) -0.040(6)
C23 0.081(7) 0.096(7) 0.078(6) -0.053(6) 0.030(5) -0.028(6)
N8 0.068(4) 0.044(3) 0.044(3) -0.004(3) -0.007(3) -0.002(3)
C24 0.049(4) 0.052(4) 0.038(4) -0.002(3) -0.008(3) 0.005(3)
C25 0.043(4) 0.043(3) 0.043(4) -0.004(3) -0.012(3) 0.007(3)
C26 0.055(5) 0.041(3) 0.047(4) -0.003(3) -0.007(3) -0.008(3)
C27 0.095(7) 0.078(6) 0.067(6) -0.030(5) 0.037(5) -0.034(5)
C28 0.095(7) 0.059(5) 0.088(7) -0.031(5) 0.027(6) -0.040(5)
N9 0.049(4) 0.055(4) 0.060(4) -0.008(3) -0.012(3) -0.009(3)
C29 0.106(9) 0.140(11) 0.075(7) -0.049(7) 0.020(6) -0.085(8)
C30 0.109(9) 0.153(11) 0.070(6) -0.063(7) 0.047(6) -0.077(8)
C31 0.043(4) 0.046(4) 0.049(4) -0.008(3) -0.004(3) -0.008(3)
C32 0.060(5) 0.055(4) 0.058(5) -0.016(4) 0.004(4) -0.012(4)
C33 0.060(5) 0.056(4) 0.063(5) -0.008(4) 0.016(4) -0.009(4)
C34 0.044(4) 0.046(4) 0.045(4) -0.008(3) -0.002(3) 0.006(3)
N10 0.052(4) 0.037(3) 0.049(3) -0.004(2) -0.006(3) 0.001(2)
C35 0.054(4) 0.045(4) 0.034(3) -0.001(3) -0.009(3) -0.002(3)
N11 0.052(4) 0.043(3) 0.034(3) -0.006(2) 0.000(2) -0.001(3)
C36 0.047(4) 0.046(4) 0.050(4) 0.003(3) -0.011(3) -0.003(3)
N12 0.047(3) 0.045(3) 0.043(3) -0.007(2) 0.004(3) -0.003(3)
C37 0.069(11) 0.138(15) 0.063(10) -0.014(10) 0.014(9) -0.003(11)
C38 0.066(12) 0.170(19) 0.141(17) 0.003(15) 0.029(12) -0.013(13)
C39 0.16(2) 0.16(2) 0.140(19) 0.016(16) 0.008(16) 0.005(16)
C40 0.055(13) 0.25(4) 0.046(11) -0.015(16) -0.004(9) 0.025(18)
C41 0.09(2) 0.20(4) 0.11(2) 0.01(2) 0.034(17) 0.04(2)
C42 0.17(2) 0.21(2) 0.16(2) 0.000(17) 0.044(17) -0.014(17)
C43 0.076(13) 0.146(17) 0.088(13) 0.020(12) 0.006(11) -0.022(12)
C44 0.11(2) 0.16(3) 0.077(16) -0.008(17) -0.040(16) -0.02(2)
C45 0.10(2) 0.19(3) 0.068(15) 0.019(17) -0.004(13) 0.05(2)
O1 0.15(2) 0.17(2) 0.140(19) 0.017(16) 0.030(16) 0.029(18)

_geom_special_details            
;
All esds (except the esd in the dihedral angle between two l.s. planes)
are estimated using the full covariance matrix. The cell esds are taken
into account individually in the estimation of esds in distances, angles
and torsion angles; correlations between esds in cell parameters are only
used when they are defined by crystal symmetry. An approximate (isotropic)
treatment of cell esds is used for estimating esds involving l.s. planes.
;

loop_
_geom_bond_atom_site_label_1
_geom_bond_atom_site_label_2
_geom_bond_distance
_geom_bond_site_symmetry_2
_geom_bond_publ