####################################################################### 
# 
# This file contains crystal structure data downloaded from the 
# Cambridge Structural Database (CSD) hosted by the Cambridge 
# Crystallographic Data Centre (CCDC).
# 
# Full information about CCDC data access policies and citation 
# guidelines are available at http://www.ccdc.cam.ac.uk/access/V1 
# 
# Audit and citation data items may have been added by the CCDC. 
# Please retain this information to preserve the provenance of 
# this file and to allow appropriate attribution of the data. 
# 
#######################################################################

data_p12
_audit_block_doi                 10.5517/cczkbd7
_database_code_depnum_ccdc_archive 'CCDC 910389'
loop_
_citation_id
_citation_doi
_citation_year
1 10.1038/nature11990 2013
_audit_update_record             
;
2012-11-10 deposited with the CCDC.	2024-07-12 downloaded from the CCDC.
;

_audit_creation_method           SHELXL-97
_chemical_name_systematic        
;
?
;
_chemical_name_common            ?
_chemical_melting_point          ?
_chemical_formula_moiety         'C76.20 H52.20 I12 N24 O1.40 Zn6'
_chemical_formula_sum            'C76.20 H52.20 I12 N24 O1.40 Zn6'
_chemical_formula_weight         3241.44

loop_
_atom_type_symbol
_atom_type_description
_atom_type_scat_dispersion_real
_atom_type_scat_dispersion_imag
_atom_type_scat_source
C C 0.0033 0.0016 'International Tables Vol C Tables 4.2.6.8 and 6.1.1.4'
H H 0.0000 0.0000 'International Tables Vol C Tables 4.2.6.8 and 6.1.1.4'
N N 0.0061 0.0033 'International Tables Vol C Tables 4.2.6.8 and 6.1.1.4'
Zn Zn 0.2839 1.4301 'International Tables Vol C Tables 4.2.6.8 and 6.1.1.4'
I I -0.4742 1.8119 'International Tables Vol C Tables 4.2.6.8 and 6.1.1.4'
O O 0.0106 0.0060 'International Tables Vol C Tables 4.2.6.8 and 6.1.1.4'

_symmetry_cell_setting           Triclinic
_symmetry_space_group_name_H-M   P-1

loop_
_symmetry_equiv_pos_as_xyz
'x, y, z'
'-x, -y, -z'

_cell_length_a                   14.952(9)
_cell_length_b                   18.584(11)
_cell_length_c                   32.756(19)
_cell_angle_alpha                104.933(8)
_cell_angle_beta                 102.349(7)
_cell_angle_gamma                111.615(8)
_cell_volume                     7678(8)
_cell_formula_units_Z            2
_cell_measurement_temperature    90(2)
_cell_measurement_reflns_used    5167
_cell_measurement_theta_min      0.00
_cell_measurement_theta_max      0.00

_exptl_crystal_description       rod
_exptl_crystal_colour            colourless
_exptl_crystal_size_max          0.14
_exptl_crystal_size_mid          0.04
_exptl_crystal_size_min          0.04
_exptl_crystal_density_meas      'not measured'
_exptl_crystal_density_diffrn    1.402
_exptl_crystal_density_method    'not measured'
_exptl_crystal_F_000             3009
_exptl_absorpt_coefficient_mu    3.369
_exptl_absorpt_correction_type   empirical
_exptl_absorpt_correction_T_min  0.6498
_exptl_absorpt_correction_T_max  0.8770
_exptl_absorpt_process_details   SADABS

_exptl_special_details           
;
?
;

_diffrn_ambient_temperature      90(2)
_diffrn_radiation_wavelength     0.71073
_diffrn_radiation_type           MoK\a
_diffrn_radiation_source         'fine-focus sealed tube'
_diffrn_radiation_monochromator  graphite
_diffrn_measurement_device_type  'CCD area detector'
_diffrn_measurement_method       'phi and omega scans'
_diffrn_detector_area_resol_mean ?
_diffrn_standards_number         ?
_diffrn_standards_interval_count ?
_diffrn_standards_interval_time  ?
_diffrn_standards_decay_%        ?
_diffrn_reflns_number            71793
_diffrn_reflns_av_R_equivalents  0.1216
_diffrn_reflns_av_sigmaI/netI    0.1897
_diffrn_reflns_limit_h_min       -17
_diffrn_reflns_limit_h_max       17
_diffrn_reflns_limit_k_min       -22
_diffrn_reflns_limit_k_max       22
_diffrn_reflns_limit_l_min       -38
_diffrn_reflns_limit_l_max       38
_diffrn_reflns_theta_min         0.69
_diffrn_reflns_theta_max         25.00
_reflns_number_total             26911
_reflns_number_gt                8761
_reflns_threshold_expression     >2sigma(I)

_computing_data_collection       'Bruker SMART'
_computing_cell_refinement       'Bruker SMART'
_computing_data_reduction        'Bruker SAINT'
_computing_structure_solution    'SHELXS-97 (Sheldrick, 1990)'
_computing_structure_refinement  'SHELXL-97 (Sheldrick, 1997)'
_computing_molecular_graphics    'Bruker SHELXTL'
_computing_publication_material  'Bruker SHELXTL'

_refine_special_details          
;
Refinement of F^2^ against ALL reflections. The weighted R-factor wR and
goodness of fit S are based on F^2^, conventional R-factors R are based
on F, with F set to zero for negative F^2^. The threshold expression of
F^2^ > 2sigma(F^2^) is used only for calculating R-factors(gt) etc. and is
not relevant to the choice of reflections for refinement. R-factors based
on F^2^ are statistically about twice as large as those based on F, and R-
factors based on ALL data will be even larger.
;

_refine_ls_structure_factor_coef Fsqd
_refine_ls_matrix_type           full
_refine_ls_weighting_scheme      calc
_refine_ls_weighting_details     
'calc w=1/[\s^2^(Fo^2^)+(0.1952P)^2^+0.0000P] where P=(Fo^2^+2Fc^2^)/3'
_atom_sites_solution_primary     direct
_atom_sites_solution_secondary   difmap
_atom_sites_solution_hydrogens   geom
_refine_ls_hydrogen_treatment    constr
_refine_ls_extinction_method     none
_refine_ls_extinction_coef       ?
_refine_ls_number_reflns         26911
_refine_ls_number_parameters     1099
_refine_ls_number_restraints     295
_refine_ls_R_factor_all          0.2419
_refine_ls_R_factor_gt           0.1345
_refine_ls_wR_factor_ref         0.3775
_refine_ls_wR_factor_gt          0.3371
_refine_ls_goodness_of_fit_ref   0.939
_refine_ls_restrained_S_all      0.940
_refine_ls_shift/su_max          0.001
_refine_ls_shift/su_mean         0.000

loop_
_atom_site_label
_atom_site_type_symbol
_atom_site_fract_x
_atom_site_fract_y
_atom_site_fract_z
_atom_site_U_iso_or_equiv
_atom_site_adp_type
_atom_site_occupancy
_atom_site_symmetry_multiplicity
_atom_site_calc_flag
_atom_site_refinement_flags
_atom_site_disorder_assembly
_atom_site_disorder_group
Zn1 Zn -0.25000(17) -0.4590(2) 1.21501(10) 0.0924(9) Uani 1 1 d . . .
I1 I -0.24258(13) -0.46490(16) 1.29261(7) 0.1325(8) Uani 1 1 d . . .
I2 I -0.29961(12) -0.35982(13) 1.18541(8) 0.1271(8) Uani 1 1 d . . .
N1 N -0.1068(10) -0.4454(11) 1.2106(6) 0.081(5) Uani 1 1 d D . .
C1 C -0.0501(12) -0.4668(16) 1.2378(7) 0.104(9) Uani 1 1 d D . .
H1 H -0.0768 -0.4906 1.2575 0.124 Uiso 1 1 calc R . .
C2 C 0.0461(13) -0.4554(16) 1.2378(7) 0.103(9) Uani 1 1 d D . .
H2 H 0.0864 -0.4711 1.2569 0.124 Uiso 1 1 calc R . .
C3 C 0.0810(12) -0.4202(13) 1.2088(5) 0.068(6) Uani 1 1 d D . .
C4 C 0.0194(10) -0.4050(14) 1.1787(6) 0.079(7) Uani 1 1 d D . .
H3 H 0.0421 -0.3864 1.1567 0.095 Uiso 1 1 calc R . .
C5 C -0.0756(11) -0.4166(14) 1.1803(8) 0.081(7) Uani 1 1 d D . .
H4 H -0.1185 -0.4045 1.1601 0.098 Uiso 1 1 calc R . .
C6 C 0.1885(13) -0.4010(15) 1.2083(7) 0.084(8) Uani 1 1 d D . .
N2 N 0.2480(9) -0.4108(11) 1.2409(5) 0.077(6) Uani 1 1 d D . .
C7 C 0.3453(10) -0.3911(14) 1.2438(6) 0.076(7) Uani 1 1 d D . .
N3 N 0.3850(9) -0.3620(11) 1.2153(5) 0.076(6) Uani 1 1 d D . .
C8 C 0.3149(11) -0.3629(12) 1.1820(5) 0.058(5) Uani 1 1 d D . .
N4 N 0.2218(9) -0.3771(10) 1.1775(4) 0.059(4) Uani 1 1 d D . .
N5 N 0.5341(10) -0.4062(14) 1.3553(5) 0.113(8) Uani 1 1 d D . .
C9 C 0.5679(14) -0.3886(16) 1.3232(6) 0.092(8) Uani 1 1 d D . .
H5 H 0.6336 -0.3844 1.3241 0.111 Uiso 1 1 calc R . .
C10 C 0.5132(12) -0.3759(15) 1.2887(7) 0.091(8) Uani 1 1 d D . .
H6 H 0.5454 -0.3534 1.2698 0.110 Uiso 1 1 calc R . .
C11 C 0.4123(16) -0.3958(16) 1.2817(8) 0.091(5) Uani 1 1 d U . .
C12 C 0.3705(14) -0.4248(16) 1.3102(7) 0.096(5) Uani 1 1 d DU . .
H7 H 0.3006 -0.4396 1.3069 0.116 Uiso 1 1 calc R . .
C13 C 0.4339(10) -0.4318(16) 1.3442(7) 0.101(5) Uani 1 1 d DU . .
H8 H 0.4022 -0.4583 1.3620 0.121 Uiso 1 1 calc R . .
N6 N 0.4286(11) -0.2882(12) 1.0814(6) 0.092(6) Uani 1 1 d D . .
C14 C 0.3381(13) -0.2929(15) 1.0825(7) 0.090(5) Uani 1 1 d DU . .
H9 H 0.2964 -0.2840 1.0600 0.108 Uiso 1 1 calc R . .
C15 C 0.3055(14) -0.3107(15) 1.1165(6) 0.085(5) Uani 1 1 d DU . .
H10 H 0.2415 -0.3123 1.1171 0.102 Uiso 1 1 calc R . .
C16 C 0.3600(12) -0.3263(14) 1.1497(6) 0.077(5) Uani 1 1 d DU . .
C17 C 0.4559(12) -0.3168(17) 1.1512(7) 0.115(10) Uani 1 1 d D . .
H11 H 0.5011 -0.3213 1.1746 0.138 Uiso 1 1 calc R . .
C18 C 0.4804(13) -0.3001(15) 1.1153(6) 0.094(8) Uani 1 1 d D . .
H12 H 0.5451 -0.2965 1.1148 0.113 Uiso 1 1 calc R . .
Zn2 Zn 0.4713(3) -0.2690(3) 1.02771(14) 0.1402(17) Uani 1 1 d . . .
I3 I 0.3359(3) -0.3929(2) 0.95937(10) 0.2094(16) Uani 1 1 d . . .
I4 I 0.6679(2) -0.2124(2) 1.05817(12) 0.2232(18) Uani 1 1 d . . .
N7 N 0.4530(13) -0.1662(13) 1.0302(6) 0.091(6) Uani 1 1 d DU . .
C19 C 0.3864(15) -0.1608(14) 0.9986(7) 0.089(8) Uani 1 1 d D . .
H13 H 0.3505 -0.2098 0.9722 0.107 Uiso 1 1 calc R . .
C20 C 0.3586(15) -0.0990(13) 0.9962(8) 0.080(7) Uani 1 1 d D . .
H14 H 0.3054 -0.1059 0.9714 0.096 Uiso 1 1 calc R . .
C21 C 0.4145(12) -0.0267(14) 1.0329(7) 0.064(6) Uani 1 1 d D . .
C22 C 0.4863(14) -0.0253(14) 1.0673(7) 0.087(6) Uani 1 1 d DU . .
H15 H 0.5268 0.0246 1.0930 0.104 Uiso 1 1 calc R . .
C23 C 0.5009(18) -0.0943(12) 1.0652(8) 0.097(6) Uani 1 1 d DU . .
H16 H 0.5489 -0.0907 1.0909 0.116 Uiso 1 1 calc R . .
C24 C 0.3917(11) 0.0506(14) 1.0395(6) 0.064(5) Uani 1 1 d DU . .
N8 N 0.2980(9) 0.0297(9) 1.0125(4) 0.047(3) Uani 1 1 d DU . .
C25 C 0.2854(13) 0.0989(13) 1.0220(6) 0.041(4) Uani 1 1 d U . .
N9 N 0.3495(9) 0.1749(11) 1.0509(5) 0.056(4) Uani 1 1 d D . .
C26 C 0.4391(11) 0.1841(15) 1.0750(6) 0.074(7) Uani 1 1 d D . .
N10 N 0.4630(11) 0.1209(11) 1.0692(5) 0.060(5) Uani 1 1 d D . .
N11 N -0.0110(10) 0.0670(9) 0.9489(5) 0.051(4) Uani 1 1 d DU . .
C27 C 0.0574(10) 0.1401(11) 0.9806(5) 0.062(6) Uani 1 1 d D . .
H17 H 0.0376 0.1835 0.9879 0.075 Uiso 1 1 calc R . .
C28 C 0.1557(10) 0.1561(13) 1.0034(7) 0.082(7) Uani 1 1 d D . .
H18 H 0.2067 0.2110 1.0221 0.098 Uiso 1 1 calc R . .
C29 C 0.1761(14) 0.0882(14) 0.9976(7) 0.073(7) Uani 1 1 d D . .
C30 C 0.1009(12) 0.0058(17) 0.9671(8) 0.092(9) Uani 1 1 d D . .
H19 H 0.1138 -0.0415 0.9624 0.111 Uiso 1 1 calc R . .
C31 C 0.0090(11) 0.0019(11) 0.9456(6) 0.062(6) Uani 1 1 d D . .
H20 H -0.0450 -0.0517 0.9267 0.074 Uiso 1 1 calc R . .
N12 N 0.6542(9) 0.4283(12) 1.1692(5) 0.072(5) Uani 1 1 d D . .
C32 C 0.6675(17) 0.3619(17) 1.1644(9) 0.120(11) Uani 1 1 d D . .
H21 H 0.7291 0.3703 1.1850 0.145 Uiso 1 1 calc R . .
C33 C 0.6070(13) 0.2814(16) 1.1343(8) 0.092(8) Uani 1 1 d D . .
H22 H 0.6301 0.2399 1.1332 0.110 Uiso 1 1 calc R . .
C34 C 0.5118(12) 0.2620(15) 1.1056(7) 0.075(7) Uani 1 1 d D . .
C35 C 0.4977(18) 0.3323(12) 1.1105(7) 0.089(7) Uani 1 1 d DU . .
H23 H 0.4351 0.3253 1.0914 0.107 Uiso 1 1 calc R . .
C36 C 0.5648(11) 0.4115(13) 1.1403(6) 0.077(7) Uani 1 1 d D . .
H24 H 0.5473 0.4557 1.1403 0.093 Uiso 1 1 calc R . .
Zn3 Zn -0.14092(15) 0.06439(17) 0.90797(8) 0.0716(8) Uani 1 1 d . . .
I5 I -0.17206(10) 0.18183(11) 0.95147(5) 0.0905(6) Uani 1 1 d . . .
I6 I -0.26773(11) -0.08835(12) 0.86703(6) 0.0984(6) Uani 1 1 d . . .
N13 N -0.0757(12) 0.1028(12) 0.8628(6) 0.081(4) Uani 1 1 d U . .
C37 C -0.0092(16) 0.0737(15) 0.8519(7) 0.087(4) Uani 1 1 d U . .
H25 H 0.0066 0.0397 0.8666 0.104 Uiso 1 1 calc R . .
C38 C 0.0371(15) 0.0908(14) 0.8206(7) 0.084(4) Uani 1 1 d U . .
H26 H 0.0854 0.0720 0.8142 0.101 Uiso 1 1 calc R . .
C39 C 0.0058(14) 0.1383(13) 0.7994(7) 0.078(4) Uani 1 1 d DU . .
C40 C -0.0608(12) 0.1692(12) 0.8101(6) 0.063(4) Uani 1 1 d DU . .
H27 H -0.0790 0.2034 0.7963 0.075 Uiso 1 1 calc R . .
C41 C -0.0991(12) 0.1474(13) 0.8420(6) 0.067(6) Uani 1 1 d D . .
H28 H -0.1465 0.1666 0.8494 0.081 Uiso 1 1 calc R . .
C42 C 0.0533(13) 0.1556(12) 0.7637(6) 0.058(5) Uani 1 1 d U . .
N14 N 0.1306(10) 0.1363(10) 0.7626(5) 0.066(5) Uani 1 1 d . . .
C43 C 0.1682(13) 0.1568(15) 0.7314(7) 0.079(7) Uani 1 1 d . . .
N15 N 0.1356(9) 0.1857(9) 0.7022(5) 0.060(4) Uani 1 1 d DU . .
C44 C 0.0569(11) 0.2014(12) 0.7072(5) 0.061(6) Uani 1 1 d D . .
N16 N 0.0109(10) 0.1913(11) 0.7371(5) 0.075(5) Uani 1 1 d D . .
N17 N 0.4409(13) 0.1251(13) 0.7363(7) 0.109(8) Uani 1 1 d D . .
C45 C 0.3981(16) 0.1442(17) 0.7035(7) 0.107(9) Uani 1 1 d D . .
H29 H 0.4281 0.1512 0.6811 0.129 Uiso 1 1 calc R . .
C46 C 0.3103(14) 0.1542(17) 0.7014(7) 0.113(10) Uani 1 1 d D . .
H30 H 0.2812 0.1680 0.6776 0.135 Uiso 1 1 calc R . .
C47 C 0.2644(13) 0.1446(12) 0.7329(5) 0.067(5) Uani 1 1 d DU . .
C48 C 0.3040(15) 0.1177(15) 0.7642(7) 0.095(7) Uani 1 1 d DU . .
H31 H 0.2703 0.1029 0.7844 0.114 Uiso 1 1 calc R . .
C49 C 0.3934(16) 0.1128(16) 0.7655(7) 0.109(8) Uani 1 1 d DU . .
H32 H 0.4239 0.0994 0.7892 0.131 Uiso 1 1 calc R . .
Zn4 Zn 0.56300(19) 0.0969(2) 0.73952(11) 0.1040(11) Uani 1 1 d . . .
I7 I 0.61067(15) 0.07418(16) 0.81328(8) 0.1405(9) Uani 1 1 d . . .
I8 I 0.68997(14) 0.19223(13) 0.71392(9) 0.1454(10) Uani 1 1 d . . .
N18 N -0.0813(10) 0.2850(11) 0.6126(5) 0.086(6) Uani 1 1 d D . .
C50 C -0.1120(15) 0.2787(17) 0.6476(6) 0.113(10) Uani 1 1 d D . .
H33 H -0.1661 0.2921 0.6511 0.135 Uiso 1 1 calc R . .
C51 C -0.0668(13) 0.2533(14) 0.6786(7) 0.082(7) Uani 1 1 d D . .
H34 H -0.0917 0.2491 0.7027 0.099 Uiso 1 1 calc R . .
C52 C 0.0123(12) 0.2337(13) 0.6763(7) 0.078(7) Uani 1 1 d D . .
C53 C 0.0445(13) 0.2404(12) 0.6398(6) 0.066(4) Uani 1 1 d U . .
H35 H 0.1003 0.2295 0.6365 0.080 Uiso 1 1 calc R . .
C54 C -0.0072(13) 0.2638(12) 0.6079(7) 0.073(5) Uani 1 1 d DU . .
H36 H 0.0120 0.2644 0.5821 0.088 Uiso 1 1 calc R . .
Zn5 Zn -0.14812(18) 0.3225(2) 0.56625(10) 0.0984(11) Uani 1 1 d . . .
I9 I -0.23617(15) 0.40038(18) 0.60323(8) 0.1605(11) Uani 1 1 d . . .
I10 I -0.23393(15) 0.19715(15) 0.49228(8) 0.1463(9) Uani 1 1 d . . .
N19 N -0.0249(13) 0.4119(13) 0.5620(6) 0.074(6) Uani 1 1 d D . .
C55 C 0.0044(14) 0.3987(12) 0.5227(7) 0.077(7) Uani 1 1 d D . .
H37 H -0.0318 0.3471 0.4979 0.093 Uiso 1 1 calc R . .
C56 C 0.0863(15) 0.4634(13) 0.5224(8) 0.086(7) Uani 1 1 d D . .
H38 H 0.1029 0.4561 0.4957 0.103 Uiso 1 1 calc R . .
C57 C 0.1461(15) 0.5380(16) 0.5578(6) 0.085(8) Uani 1 1 d D . .
C58 C 0.1207(16) 0.5449(14) 0.5960(6) 0.100(7) Uani 1 1 d DU . .
H39 H 0.1637 0.5925 0.6227 0.119 Uiso 1 1 calc R . .
C59 C 0.0342(17) 0.4839(14) 0.5962(9) 0.105(9) Uani 1 1 d D . .
H40 H 0.0156 0.4939 0.6223 0.126 Uiso 1 1 calc R . .
C60 C 0.2344(17) 0.6013(19) 0.5560(8) 0.082(8) Uani 1 1 d . . .
N20 N 0.2796(11) 0.5793(11) 0.5269(6) 0.086(6) Uani 1 1 d D . .
C61 C 0.3706(12) 0.6381(13) 0.5330(7) 0.066(6) Uani 1 1 d D . .
N21 N 0.4102(12) 0.7173(13) 0.5611(6) 0.083(6) Uani 1 1 d D . .
C62 C 0.3639(16) 0.7355(16) 0.5901(9) 0.087(8) Uani 1 1 d . . .
N22 N 0.2706(12) 0.6798(13) 0.5880(6) 0.068(5) Uani 1 1 d . . .
N23 N 0.5344(13) 0.5843(12) 0.4484(7) 0.107(6) Uani 1 1 d DU . .
C63 C 0.552(2) 0.6609(15) 0.4732(8) 0.124(7) Uani 1 1 d DU . .
H41 H 0.6047 0.7045 0.4699 0.149 Uiso 1 1 calc R . .
C64 C 0.5072(16) 0.6882(13) 0.5029(8) 0.117(7) Uani 1 1 d DU . .
H42 H 0.5293 0.7450 0.5205 0.140 Uiso 1 1 calc R . .
C65 C 0.4268(13) 0.6226(14) 0.5036(6) 0.061(6) Uani 1 1 d D . .
C66 C 0.3972(14) 0.5388(17) 0.4758(7) 0.073(7) Uani 1 1 d D . .
H43 H 0.3393 0.4942 0.4756 0.088 Uiso 1 1 calc R . .
C67 C 0.4535(14) 0.5235(13) 0.4494(7) 0.094(8) Uani 1 1 d D . .
H44 H 0.4339 0.4675 0.4313 0.112 Uiso 1 1 calc R . .
N24 N 0.4840(13) 0.9847(11) 0.6849(7) 0.096(7) Uani 1 1 d D . .
C68 C 0.421(2) 0.9215(14) 0.6920(12) 0.151(16) Uani 1 1 d D . .
H45 H 0.4108 0.9289 0.7201 0.181 Uiso 1 1 calc R . .
C69 C 0.371(2) 0.8469(19) 0.6586(10) 0.125(12) Uani 1 1 d D . .
H46 H 0.3082 0.8078 0.6583 0.150 Uiso 1 1 calc R . .
C70 C 0.4072(16) 0.8247(14) 0.6251(8) 0.100(9) Uani 1 1 d D . .
C71 C 0.4822(16) 0.8891(15) 0.6204(9) 0.109(9) Uani 1 1 d D . .
H47 H 0.5059 0.8791 0.5958 0.131 Uiso 1 1 calc R . .
C72 C 0.5225(19) 0.9688(18) 0.6521(8) 0.096(8) Uani 1 1 d D . .
H48 H 0.5782 1.0129 0.6506 0.116 Uiso 1 1 calc R . .
Zn6 Zn 0.61102(19) 0.5623(2) 0.40367(10) 0.1083(12) Uani 1 1 d . . .
I11 I 0.79295(12) 0.67506(16) 0.44045(7) 0.1404(9) Uani 1 1 d . . .
I12 I 0.55025(16) 0.40779(16) 0.36782(7) 0.1321(9) Uani 1 1 d . . .
O101 O -0.0019(16) 0.3473(13) 0.9029(7) 0.089(6) Uani 0.70 1 d PDU A .
O102 O 0.1211(17) 0.3786(15) 0.9649(8) 0.109(8) Uani 0.70 1 d PDU A .
C105 C 0.0404(19) 0.3847(16) 0.9427(7) 0.077(9) Uani 0.70 1 d PDU . .
C101 C 0.0203(16) 0.4444(12) 0.9752(7) 0.067(8) Uani 0.70 1 d PDU A 1
C103 C -0.0368(18) 0.4923(16) 0.9588(8) 0.073(8) Uani 0.70 1 d PDU . 1
H49 H -0.0638 0.4846 0.9264 0.088 Uiso 0.70 1 calc PR . 1
C102 C -0.044(2) 0.4289(17) 1.0066(9) 0.097(10) Uani 0.70 1 d PDU . .
H50 H -0.0760 0.3752 1.0111 0.116 Uiso 0.70 1 calc PR A 1
C106 C 0.147(3) 0.323(2) 0.9366(12) 0.120(13) Uani 0.70 1 d PDU . .
H51 H 0.2042 0.3185 0.9548 0.180 Uiso 0.70 1 calc PR A .
H52 H 0.1664 0.3447 0.9139 0.180 Uiso 0.70 1 calc PR . .
H53 H 0.0874 0.2682 0.9217 0.180 Uiso 0.70 1 calc PR . .
C104 C 0.1033(14) 0.5266(17) 1.0137(9) 0.118(1