####################################################################### 
# 
# This file contains crystal structure data downloaded from the 
# Cambridge Structural Database (CSD) hosted by the Cambridge 
# Crystallographic Data Centre (CCDC).
# 
# Full information about CCDC data access policies and citation 
# guidelines are available at http://www.ccdc.cam.ac.uk/access/V1 
# 
# Audit and citation data items may have been added by the CCDC. 
# Please retain this information to preserve the provenance of 
# this file and to allow appropriate attribution of the data. 
# 
#######################################################################

data_p1
_audit_block_doi                 10.5517/cczkbb5
_database_code_depnum_ccdc_archive 'CCDC 910387'
loop_
_citation_id
_citation_doi
_citation_year
1 10.1038/nature11990 2013
_audit_update_record             
;
2012-11-10 deposited with the CCDC.	2024-07-12 downloaded from the CCDC.
;

_audit_creation_method           SHELXL-97
_chemical_name_systematic        
;
?
;
_chemical_name_common            ?
_chemical_melting_point          ?
_chemical_formula_moiety         'C72 H48 I12 N24 Zn6, 2(C8 H8 O3)'
_chemical_formula_sum            'C88 H64 I12 N24 O6 Zn6'
_chemical_formula_weight         3468.65

loop_
_atom_type_symbol
_atom_type_description
_atom_type_scat_dispersion_real
_atom_type_scat_dispersion_imag
_atom_type_scat_source
C C 0.0033 0.0016 'International Tables Vol C Tables 4.2.6.8 and 6.1.1.4'
H H 0.0000 0.0000 'International Tables Vol C Tables 4.2.6.8 and 6.1.1.4'
N N 0.0061 0.0033 'International Tables Vol C Tables 4.2.6.8 and 6.1.1.4'
O O 0.0106 0.0060 'International Tables Vol C Tables 4.2.6.8 and 6.1.1.4'
Zn Zn 0.2839 1.4301 'International Tables Vol C Tables 4.2.6.8 and 6.1.1.4'
I I -0.4742 1.8119 'International Tables Vol C Tables 4.2.6.8 and 6.1.1.4'

_symmetry_cell_setting           Triclinic
_symmetry_space_group_name_H-M   P-1

loop_
_symmetry_equiv_pos_as_xyz
'x, y, z'
'-x, -y, -z'

_cell_length_a                   14.907(5)
_cell_length_b                   18.608(6)
_cell_length_c                   32.920(11)
_cell_angle_alpha                103.269(4)
_cell_angle_beta                 93.089(4)
_cell_angle_gamma                108.970(4)
_cell_volume                     8323(5)
_cell_formula_units_Z            2
_cell_measurement_temperature    90(2)
_cell_measurement_reflns_used    9921
_cell_measurement_theta_min      2.31
_cell_measurement_theta_max      24.03

_exptl_crystal_description       rod
_exptl_crystal_colour            yellow
_exptl_crystal_size_max          0.10
_exptl_crystal_size_mid          0.08
_exptl_crystal_size_min          0.05
_exptl_crystal_density_meas      'not measured'
_exptl_crystal_density_diffrn    1.384
_exptl_crystal_density_method    'not measured'
_exptl_crystal_F_000             3248
_exptl_absorpt_coefficient_mu    3.115
_exptl_absorpt_correction_type   empirical
_exptl_absorpt_correction_T_min  0.7458
_exptl_absorpt_correction_T_max  0.8598
_exptl_absorpt_process_details   SADABS

_exptl_special_details           
;
?
;

_diffrn_ambient_temperature      90(2)
_diffrn_radiation_wavelength     0.71073
_diffrn_radiation_type           MoK\a
_diffrn_radiation_source         'fine-focus sealed tube'
_diffrn_radiation_monochromator  graphite
_diffrn_measurement_device_type  'Bruker APEX-II CCD'
_diffrn_measurement_method       '\f and \w scans'
_diffrn_detector_area_resol_mean ?
_diffrn_standards_number         0
_diffrn_standards_interval_count ?
_diffrn_standards_interval_time  ?
_diffrn_standards_decay_%        ?
_diffrn_reflns_number            73799
_diffrn_reflns_av_R_equivalents  0.0555
_diffrn_reflns_av_sigmaI/netI    0.0895
_diffrn_reflns_limit_h_min       -17
_diffrn_reflns_limit_h_max       17
_diffrn_reflns_limit_k_min       -22
_diffrn_reflns_limit_k_max       22
_diffrn_reflns_limit_l_min       -39
_diffrn_reflns_limit_l_max       39
_diffrn_reflns_theta_min         0.64
_diffrn_reflns_theta_max         25.00
_reflns_number_total             28540
_reflns_number_gt                16584
_reflns_threshold_expression     >2sigma(I)

_computing_data_collection       'Bruker APEX2'
_computing_cell_refinement       'Bruker SAINT'
_computing_data_reduction        'Bruker SAINT'
_computing_structure_solution    'SHELXS-97 (Sheldrick, 1990)'
_computing_structure_refinement  'SHELXL-97 (Sheldrick, 1997)'
_computing_molecular_graphics    'Bruker SHELXTL'
_computing_publication_material  'Bruker SHELXTL'

_refine_special_details          
;
Refinement of F^2^ against ALL reflections. The weighted R-factor wR and
goodness of fit S are based on F^2^, conventional R-factors R are based
on F, with F set to zero for negative F^2^. The threshold expression of
F^2^ > 2sigma(F^2^) is used only for calculating R-factors(gt) etc. and is
not relevant to the choice of reflections for refinement. R-factors based
on F^2^ are statistically about twice as large as those based on F, and R-
factors based on ALL data will be even larger.
;

_refine_ls_structure_factor_coef Fsqd
_refine_ls_matrix_type           full
_refine_ls_weighting_scheme      calc
_refine_ls_weighting_details     
'calc w=1/[\s^2^(Fo^2^)+(0.2000P)^2^+0.0000P] where P=(Fo^2^+2Fc^2^)/3'
_atom_sites_solution_primary     direct
_atom_sites_solution_secondary   difmap
_atom_sites_solution_hydrogens   geom
_refine_ls_hydrogen_treatment    constr
_refine_ls_extinction_method     none
_refine_ls_extinction_coef       ?
_refine_ls_number_reflns         28540
_refine_ls_number_parameters     1227
_refine_ls_number_restraints     171
_refine_ls_R_factor_all          0.1455
_refine_ls_R_factor_gt           0.1103
_refine_ls_wR_factor_ref         0.3402
_refine_ls_wR_factor_gt          0.3184
_refine_ls_goodness_of_fit_ref   1.159
_refine_ls_restrained_S_all      1.158
_refine_ls_shift/su_max          0.001
_refine_ls_shift/su_mean         0.000

loop_
_atom_site_label
_atom_site_type_symbol
_atom_site_fract_x
_atom_site_fract_y
_atom_site_fract_z
_atom_site_U_iso_or_equiv
_atom_site_adp_type
_atom_site_occupancy
_atom_site_symmetry_multiplicity
_atom_site_calc_flag
_atom_site_refinement_flags
_atom_site_disorder_assembly
_atom_site_disorder_group
Zn1 Zn -0.20144(14) 1.26495(11) -0.06710(8) 0.0670(7) Uani 1 1 d . . .
I1 I -0.32843(11) 1.29850(10) -0.10322(7) 0.1186(8) Uani 1 1 d . . .
I2 I -0.21229(14) 1.24288(9) 0.00615(6) 0.1123(7) Uani 1 1 d . . .
N1 N -0.1874(8) 1.1681(8) -0.1085(5) 0.059(4) Uani 1 1 d D . .
C1 C -0.2570(10) 1.1147(9) -0.1361(5) 0.054(5) Uani 1 1 d . . .
H1 H -0.3185 1.1195 -0.1361 0.065 Uiso 1 1 calc R . .
C2 C -0.2484(10) 1.0533(9) -0.1645(5) 0.044(4) Uani 1 1 d . . .
H2 H -0.3019 1.0178 -0.1843 0.052 Uiso 1 1 calc R . .
C3 C -0.1626(10) 1.0430(8) -0.1644(4) 0.033(3) Uani 1 1 d . . .
C4 C -0.0890(11) 1.0956(9) -0.1337(5) 0.061(5) Uani 1 1 d D . .
H3 H -0.0277 1.0905 -0.1322 0.073 Uiso 1 1 calc R . .
C5 C -0.1053(9) 1.1549(9) -0.1054(5) 0.064(5) Uani 1 1 d D . .
H4 H -0.0562 1.1878 -0.0828 0.076 Uiso 1 1 calc R . .
C6 C -0.1488(10) 0.9789(9) -0.1954(5) 0.048(4) Uani 1 1 d D . .
N2 N -0.2189(8) 0.9410(7) -0.2277(3) 0.036(3) Uani 1 1 d D . .
C7 C -0.2023(10) 0.8857(7) -0.2565(4) 0.034(3) Uani 1 1 d D . .
N3 N -0.1267(8) 0.8627(6) -0.2551(3) 0.033(3) Uani 1 1 d D . .
C8 C -0.0612(8) 0.9064(7) -0.2218(3) 0.033(3) Uani 1 1 d D . .
N4 N -0.0680(8) 0.9632(6) -0.1907(3) 0.032(3) Uani 1 1 d D . .
N5 N -0.3963(8) 0.7948(6) -0.3722(3) 0.035(3) Uani 1 1 d D . .
C9 C -0.3020(10) 0.7992(9) -0.3704(4) 0.049(4) Uani 1 1 d D . .
H5 H -0.2789 0.7826 -0.3959 0.058 Uiso 1 1 calc R . .
C10 C -0.2399(10) 0.8260(9) -0.3336(3) 0.044(4) Uani 1 1 d D . .
H6 H -0.1756 0.8277 -0.3340 0.053 Uiso 1 1 calc R . .
C11 C -0.2714(8) 0.8505(7) -0.2963(4) 0.029(3) Uani 1 1 d D . .
C12 C -0.3652(8) 0.8473(8) -0.2975(4) 0.042(4) Uani 1 1 d D . .
H7 H -0.3883 0.8653 -0.2722 0.050 Uiso 1 1 calc R . .
C13 C -0.4263(9) 0.8175(8) -0.3358(4) 0.037(3) Uani 1 1 d D . .
H8 H -0.4915 0.8134 -0.3357 0.045 Uiso 1 1 calc R . .
N6 N 0.2039(9) 0.8580(7) -0.2207(3) 0.040(3) Uani 1 1 d D . .
C14 C 0.1928(9) 0.9159(9) -0.1913(5) 0.055(5) Uani 1 1 d D . .
H9 H 0.2443 0.9468 -0.1694 0.066 Uiso 1 1 calc R . .
C15 C 0.1095(10) 0.9322(11) -0.1917(5) 0.063(5) Uani 1 1 d D . .
H10 H 0.1077 0.9772 -0.1716 0.076 Uiso 1 1 calc R . .
C16 C 0.0295(11) 0.8871(8) -0.2194(4) 0.039(4) Uani 1 1 d . . .
C17 C 0.0370(12) 0.8237(10) -0.2499(5) 0.059(5) Uani 1 1 d . . .
H11 H -0.0159 0.7887 -0.2702 0.070 Uiso 1 1 calc R . .
C18 C 0.1275(11) 0.8144(11) -0.2487(6) 0.071(6) Uani 1 1 d D . .
H12 H 0.1341 0.7730 -0.2700 0.085 Uiso 1 1 calc R . .
Zn2 Zn 0.32803(14) 0.83567(13) -0.22129(7) 0.0566(6) Uani 1 1 d . . .
I3 I 0.46983(10) 0.96108(10) -0.18940(7) 0.0999(6) Uani 1 1 d . . .
I4 I 0.32157(11) 0.74965(10) -0.29478(5) 0.0806(5) Uani 1 1 d . . .
N7 N 0.3187(10) 0.7690(8) -0.1769(5) 0.058(3) Uani 1 1 d DU . .
C19 C 0.2455(12) 0.7030(9) -0.1842(5) 0.061(4) Uani 1 1 d DU . .
H13 H 0.2008 0.6883 -0.2090 0.073 Uiso 1 1 calc R . .
C20 C 0.2307(13) 0.6543(10) -0.1578(5) 0.069(5) Uani 1 1 d DU . .
H14 H 0.1762 0.6075 -0.1640 0.083 Uiso 1 1 calc R . .
C21 C 0.2958(10) 0.6739(9) -0.1222(4) 0.044(4) Uani 1 1 d D . .
C22 C 0.3684(14) 0.7412(10) -0.1173(6) 0.065(4) Uani 1 1 d DU . .
H15 H 0.4168 0.7573 -0.0938 0.078 Uiso 1 1 calc R . .
C23 C 0.3772(14) 0.7880(10) -0.1442(5) 0.059(4) Uani 1 1 d DU . .
H16 H 0.4292 0.8366 -0.1380 0.071 Uiso 1 1 calc R . .
C24 C 0.2847(12) 0.6282(9) -0.0902(4) 0.040(4) Uani 1 1 d . . .
N8 N 0.1959(10) 0.5720(7) -0.0933(4) 0.046(3) Uani 1 1 d . . .
C25 C 0.1923(9) 0.5354(8) -0.0638(4) 0.036(4) Uani 1 1 d D . .
N9 N 0.2616(7) 0.5450(6) -0.0334(3) 0.033(3) Uani 1 1 d D . .
C26 C 0.3432(8) 0.6012(7) -0.0361(4) 0.034(3) Uani 1 1 d D . .
N10 N 0.3576(8) 0.6447(7) -0.0629(4) 0.034(3) Uani 1 1 d . . .
N11 N -0.0703(9) 0.3504(7) -0.0656(4) 0.052(4) Uani 1 1 d D . .
C27 C -0.0130(9) 0.3904(7) -0.0294(4) 0.035(3) Uani 1 1 d D . .
H17 H -0.0321 0.3788 -0.0039 0.042 Uiso 1 1 calc R . .
C28 C 0.0732(11) 0.4479(9) -0.0283(5) 0.042(4) Uani 1 1 d . . .
H18 H 0.1153 0.4729 -0.0025 0.051 Uiso 1 1 calc R . .
C29 C 0.0993(9) 0.4699(8) -0.0651(4) 0.029(3) Uani 1 1 d . . .
C30 C 0.0405(12) 0.4289(10) -0.1020(5) 0.053(4) Uani 1 1 d . . .
H19 H 0.0577 0.4396 -0.1279 0.064 Uiso 1 1 calc R . .
C31 C -0.0463(12) 0.3704(10) -0.1008(5) 0.058(5) Uani 1 1 d . . .
H20 H -0.0896 0.3441 -0.1261 0.070 Uiso 1 1 calc R . .
N12 N 0.5844(8) 0.6419(7) 0.0560(4) 0.036(3) Uani 1 1 d . . .
C32 C 0.5845(11) 0.6917(11) 0.0314(5) 0.069(6) Uani 1 1 d D . .
H21 H 0.6413 0.7354 0.0336 0.083 Uiso 1 1 calc R . .
C33 C 0.5071(9) 0.6821(9) 0.0036(5) 0.052(4) Uani 1 1 d DU . .
H22 H 0.5088 0.7212 -0.0108 0.062 Uiso 1 1 calc R . .
C34 C 0.4272(8) 0.6158(7) -0.0033(4) 0.032(3) Uani 1 1 d DU . .
C35 C 0.4241(10) 0.5631(8) 0.0213(4) 0.032(3) Uani 1 1 d . . .
H23 H 0.3691 0.5174 0.0179 0.038 Uiso 1 1 calc R . .
C36 C 0.5034(10) 0.5789(8) 0.0510(4) 0.034(3) Uani 1 1 d . . .
H24 H 0.5003 0.5439 0.0683 0.041 Uiso 1 1 calc R . .
Zn3 Zn 0.70009(12) 0.66988(10) 0.10112(5) 0.0397(4) Uani 1 1 d . . .
I5 I 0.84419(8) 0.72703(7) 0.06743(4) 0.0615(4) Uani 1 1 d . . .
I6 I 0.67241(9) 0.55828(7) 0.13679(4) 0.0595(3) Uani 1 1 d . . .
N13 N 0.6769(9) 0.7585(8) 0.1446(4) 0.057(4) Uani 1 1 d U . .
C37 C 0.5863(11) 0.7503(10) 0.1493(5) 0.070(4) Uani 1 1 d DU . .
H25 H 0.5375 0.7093 0.1293 0.084 Uiso 1 1 calc R . .
C38 C 0.5585(11) 0.7969(10) 0.1809(5) 0.066(4) Uani 1 1 d DU . .
H26 H 0.4926 0.7882 0.1830 0.080 Uiso 1 1 calc R . .
C39 C 0.6300(11) 0.8575(10) 0.2099(5) 0.055(4) Uani 1 1 d U . .
C40 C 0.7235(11) 0.8697(9) 0.2054(5) 0.045(4) Uani 1 1 d . . .
H27 H 0.7735 0.9125 0.2240 0.054 Uiso 1 1 calc R . .
C41 C 0.7437(10) 0.8171(8) 0.1726(4) 0.040(4) Uani 1 1 d . . .
H28 H 0.8089 0.8237 0.1702 0.048 Uiso 1 1 calc R . .
C42 C 0.6018(9) 0.9094(8) 0.2446(4) 0.033(3) Uani 1 1 d . . .
N14 N 0.5063(8) 0.8912(6) 0.2451(3) 0.035(3) Uani 1 1 d D . .
C43 C 0.4838(9) 0.9386(7) 0.2765(4) 0.029(3) Uani 1 1 d D . .
N15 N 0.5453(8) 0.9972(6) 0.3072(3) 0.029(3) Uani 1 1 d . . .
C44 C 0.6362(10) 1.0097(8) 0.3036(4) 0.034(3) Uani 1 1 d . . .
N16 N 0.6710(8) 0.9654(6) 0.2723(3) 0.030(3) Uani 1 1 d . . .
N17 N 0.1820(8) 0.8858(7) 0.2757(4) 0.034(3) Uani 1 1 d . . .
C45 C 0.2430(7) 0.9455(8) 0.3066(4) 0.031(3) Uani 1 1 d D . .
H29 H 0.2187 0.9759 0.3274 0.038 Uiso 1 1 calc R . .
C46 C 0.3406(7) 0.9626(7) 0.3080(5) 0.031(3) Uani 1 1 d D . .
H30 H 0.3827 1.0041 0.3302 0.037 Uiso 1 1 calc R . .
C47 C 0.3788(8) 0.9199(7) 0.2770(4) 0.029(3) Uani 1 1 d D . .
C48 C 0.3139(9) 0.8615(8) 0.2452(4) 0.048(4) Uani 1 1 d D . .
H31 H 0.3364 0.8328 0.2228 0.058 Uiso 1 1 calc R . .
C49 C 0.2192(11) 0.8447(10) 0.2453(5) 0.050(4) Uani 1 1 d . . .
H32 H 0.1764 0.8027 0.2235 0.060 Uiso 1 1 calc R . .
N18 N 0.8525(8) 1.1774(7) 0.4007(3) 0.039(3) Uani 1 1 d D . .
C50 C 0.8729(11) 1.1355(9) 0.3658(4) 0.055(5) Uani 1 1 d D . .
H33 H 0.9386 1.1446 0.3633 0.066 Uiso 1 1 calc R . .
C51 C 0.8079(11) 1.0813(11) 0.3336(6) 0.060(5) Uani 1 1 d . . .
H34 H 0.8274 1.0536 0.3098 0.072 Uiso 1 1 calc R . .
C52 C 0.7109(9) 1.0679(7) 0.3370(4) 0.026(3) Uani 1 1 d D . .
C53 C 0.6858(9) 1.1118(7) 0.3709(4) 0.037(3) Uani 1 1 d D . .
H35 H 0.6204 1.1046 0.3733 0.045 Uiso 1 1 calc R . .
C54 C 0.7602(8) 1.1686(8) 0.4024(4) 0.037(3) Uani 1 1 d D . .
H36 H 0.7438 1.2012 0.4253 0.045 Uiso 1 1 calc R . .
Zn4 Zn 0.03533(11) 0.85522(9) 0.27104(5) 0.0323(4) Uani 1 1 d . . .
I7 I -0.03527(8) 0.75887(8) 0.19833(3) 0.0636(4) Uani 1 1 d . . .
I8 I -0.01394(7) 0.97655(6) 0.29053(3) 0.0441(3) Uani 1 1 d . . .
N19 N -0.0091(9) 0.7952(7) 0.3162(4) 0.037(2) Uani 1 1 d DU . .
C55 C -0.0677(11) 0.8146(8) 0.3420(5) 0.038(3) Uani 1 1 d U . .
H37 H -0.0828 0.8604 0.3419 0.046 Uiso 1 1 calc R . .
C56 C -0.1065(12) 0.7705(8) 0.3685(5) 0.044(3) Uani 1 1 d U . .
H38 H -0.1501 0.7851 0.3858 0.052 Uiso 1 1 calc R . .
C57 C -0.0837(10) 0.7037(8) 0.3710(4) 0.036(3) Uani 1 1 d . . .
C58 C -0.0234(12) 0.6822(9) 0.3433(5) 0.051(4) Uani 1 1 d U . .
H39 H -0.0060 0.6373 0.3432 0.061 Uiso 1 1 calc R . .
C59 C 0.0118(11) 0.7306(8) 0.3148(5) 0.048(3) Uani 1 1 d DU . .
H40 H 0.0504 0.7158 0.2948 0.057 Uiso 1 1 calc R . .
C60 C -0.1255(10) 0.6586(7) 0.3998(4) 0.028(3) Uani 1 1 d . . .
N20 N -0.1871(8) 0.6832(6) 0.4227(4) 0.032(3) Uani 1 1 d . . .
C61 C -0.2232(10) 0.6413(7) 0.4499(4) 0.026(3) Uani 1 1 d . . .
N21 N -0.2004(8) 0.5795(6) 0.4564(3) 0.027(2) Uani 1 1 d . . .
C62 C -0.1405(9) 0.5592(7) 0.4308(3) 0.025(3) Uani 1 1 d D . .
N22 N -0.1030(8) 0.5956(6) 0.4023(3) 0.033(3) Uani 1 1 d D . .
N23 N -0.4048(8) 0.7247(6) 0.5292(4) 0.036(3) Uani 1 1 d D . .
C63 C -0.4072(11) 0.6497(9) 0.5225(4) 0.039(4) Uani 1 1 d . . .
H41 H -0.4500 0.6161 0.5363 0.047 Uiso 1 1 calc R . .
C64 C -0.3540(14) 0.6207(10) 0.4983(6) 0.054(5) Uani 1 1 d . . .
H42 H -0.3586 0.5674 0.4948 0.065 Uiso 1 1 calc R . .
C65 C -0.2884(9) 0.6699(8) 0.4770(4) 0.029(3) Uani 1 1 d . . .
C66 C -0.2889(9) 0.7425(7) 0.4831(4) 0.031(3) Uani 1 1 d D . .
H43 H -0.2470 0.7769 0.4695 0.037 Uiso 1 1 calc R . .
C67 C -0.3470(10) 0.7702(8) 0.5081(4) 0.042(4) Uani 1 1 d D . .
H44 H -0.3466 0.8222 0.5106 0.050 Uiso 1 1 calc R . .
Zn5 Zn -0.48076(11) 0.77063(10) 0.57185(5) 0.0358(4) Uani 1 1 d . . .
I9 I -0.63914(8) 0.66974(8) 0.57479(4) 0.0678(4) Uani 1 1 d . . .
I10 I -0.46911(9) 0.90774(7) 0.56358(4) 0.0557(3) Uani 1 1 d . . .
N24 N -0.0701(8) 0.3627(6) 0.4449(3) 0.030(3) Uani 1 1 d . . .
C68 C -0.0557(16) 0.3898(9) 0.4108(6) 0.069(6) Uani 1 1 d D . .
H45 H -0.0317 0.3619 0.3887 0.083 Uiso 1 1 calc R . .
C69 C -0.0733(16) 0.4552(11) 0.4054(5) 0.074(6) Uani 1 1 d D . .
H46 H -0.0585 0.4738 0.3811 0.089 Uiso 1 1 calc R . .
C70 C -0.1128(10) 0.4926(7) 0.4363(4) 0.034(3) Uani 1 1 d D . .
C71 C -0.1262(10) 0.4678(8) 0.4734(5) 0.036(3) Uani 1 1 d . . .
H47 H -0.1500 0.4944 0.4961 0.044 Uiso 1 1 calc R . .
C72 C -0.1020(11) 0.4006(8) 0.4751(5) 0.039(3) Uani 1 1 d . . .
H48 H -0.1098 0.3827 0.4999 0.046 Uiso 1 1 calc R . .
Zn6 Zn -0.04417(11) 0.26074(8) 0.44713(5) 0.0304(4) Uani 1 1 d . . .
I11 I 0.11730(7) 0.27343(6) 0.42252(3) 0.0486(3) Uani 1 1 d . . .
I12 I -0.07970(8) 0.23247(6) 0.51759(3) 0.0448(3) Uani 1 1 d . . .
O102 O 0.2590(10) 0.0060(7) 0.5442(4) 0.062(3) Uani 1 1 d . . .
O103 O 0.1516(11) 0.0747(7) 0.5872(3) 0.068(4) Uani 1 1 d . . .
H63 H 0.1931 0.0570 0.5947 0.102 Uiso 1 1 calc R . .
C103 C 0.2006(11) 0.0302(9) 0.5219(4) 0.056(5) Uani 1 1 d D . .
C105 C 0.0805(10) 0.0934(8) 0.5270(4) 0.047(4) Uani 1 1 d D . .
H49 H 0.0424 0.1174 0.5435 0.056 Uiso 1 1 calc R . .
C106 C 0.0739(10) 0.0843(8) 0.4837(4) 0.056(5) Uani 1 1 d D . .
H50 H 0.0308 0.1029 0.4707 0.067 Uiso 1 1 calc R . .
C101 C 0.1281(10) 0.0490(9) 0.4590(4) 0.053(4) Uani 1 1 d D . .
C102 C 0.1889(11) 0.0203(9) 0.4786(4) 0.058(5) Uani 1 1 d D . .
H51 H 0.2235 -0.0070 0.4618 0.070 Uiso 1 1 calc R . .
C108 C 0.3146(14) -0.0330(12) 0.5205(6) 0.064(5) Uani 1 1 d . . .
H52 H 0.3558 -0.0461 0.5397 0.097 Uiso 1 1 calc R . .
H53 H 0.3544 0.0016 0.5051 0.097 Uiso 1 1 calc R . .
H54 H 0.2718 -0.0814 0.5005 0.097 Uiso 1 1 calc R . .
C104 C 0.1448(11) 0.0662(9) 0.5454(4) 0.060(5) Uani 1 1 d D . .
O101 O 0.1661(15) 0.0107(14) 0.3899(5) 0.127(7) Uani 1 1 d . . .
C107 C 0.1179(16) 0.0373(12) 0.4143(7) 0.076(6) Uani 1 1 d . . .
H55 H 0.0690 0.0516 0.4022 0.092 