####################################################################### 
# 
# This file contains crystal structure data downloaded from the 
# Cambridge Structural Database (CSD) hosted by the Cambridge 
# Crystallographic Data Centre (CCDC).
# 
# Full information about CCDC data access policies and citation 
# guidelines are available at http://www.ccdc.cam.ac.uk/access/V1 
# 
# Audit and citation data items may have been added by the CCDC. 
# Please retain this information to preserve the provenance of 
# this file and to allow appropriate attribution of the data. 
# 
#######################################################################

data_f2plus
_audit_block_doi                 10.5517/cczkb61
_database_code_depnum_ccdc_archive 'CCDC 910383'
loop_
_citation_id
_citation_doi
_citation_year
1 10.1038/nature11990 2013
_audit_update_record             
;
2012-11-10 deposited with the CCDC.	2024-07-12 downloaded from the CCDC.
;


_audit_creation_method           SHELXL-97
_chemical_name_systematic        
;
?
;
_chemical_name_common            ?
_chemical_melting_point          ?
_chemical_formula_moiety         'C72 H48 I12 N24 Zn6 0.8(C15 H18)'
_chemical_formula_sum            'C84 H62.40 I12 N24 Zn6'
_chemical_formula_weight         3323.00

loop_
_atom_type_symbol
_atom_type_description
_atom_type_scat_dispersion_real
_atom_type_scat_dispersion_imag
_atom_type_scat_source
C C 0.0181 0.0091 'International Tables Vol C Tables 4.2.6.8 and 6.1.1.4'
H H 0.0000 0.0000 'International Tables Vol C Tables 4.2.6.8 and 6.1.1.4'
N N 0.0311 0.0180 'International Tables Vol C Tables 4.2.6.8 and 6.1.1.4'
Zn Zn -1.5491 0.6778 'International Tables Vol C Tables 4.2.6.8 and 6.1.1.4'
I I -0.3257 6.8362 'International Tables Vol C Tables 4.2.6.8 and 6.1.1.4'

_symmetry_cell_setting           Monoclinic
_symmetry_space_group_name_H-M   Cc

loop_
_symmetry_equiv_pos_as_xyz
'x, y, z'
'x, -y, z+1/2'
'x+1/2, y+1/2, z'
'x+1/2, -y+1/2, z+1/2'

_cell_length_a                   34.576
_cell_length_b                   14.884
_cell_length_c                   30.646
_cell_angle_alpha                90.00
_cell_angle_beta                 101.17
_cell_angle_gamma                90.00
_cell_volume                     15472.5
_cell_formula_units_Z            4
_cell_measurement_temperature    90(2)
_cell_measurement_reflns_used    ?
_cell_measurement_theta_min      2.98
_cell_measurement_theta_max      68.22

_exptl_crystal_description       cubic
_exptl_crystal_colour            'dark blue'
_exptl_crystal_size_max          0.08
_exptl_crystal_size_mid          0.08
_exptl_crystal_size_min          0.08
_exptl_crystal_density_meas      'not measured'
_exptl_crystal_density_diffrn    1.427
_exptl_crystal_density_method    'not measured'
_exptl_crystal_F_000             6202
_exptl_absorpt_coefficient_mu    20.110
_exptl_absorpt_correction_type   multi-scan
_exptl_absorpt_correction_T_min  0.2961
_exptl_absorpt_correction_T_max  0.2961
_exptl_absorpt_process_details   'ABSCOR (Rigaku, 1995)'

_exptl_special_details           
;
?
;

_diffrn_ambient_temperature      90(2)
_diffrn_radiation_wavelength     1.54187
_diffrn_radiation_type           CuK\a
_diffrn_radiation_source         'fine-focus sealed tube'
_diffrn_radiation_monochromator  graphite
_diffrn_measurement_device_type  'Rigaku R-AXIS RAPID'
_diffrn_measurement_method       \w
_diffrn_detector_area_resol_mean ?
_diffrn_standards_number         ?
_diffrn_standards_interval_count ?
_diffrn_standards_interval_time  ?
_diffrn_standards_decay_%        ?
_diffrn_reflns_number            89370
_diffrn_reflns_av_R_equivalents  0.0822
_diffrn_reflns_av_sigmaI/netI    0.1047
_diffrn_reflns_limit_h_min       -39
_diffrn_reflns_limit_h_max       39
_diffrn_reflns_limit_k_min       -17
_diffrn_reflns_limit_k_max       17
_diffrn_reflns_limit_l_min       -36
_diffrn_reflns_limit_l_max       35
_diffrn_reflns_theta_min         2.61
_diffrn_reflns_theta_max         68.05
_reflns_number_total             25857
_reflns_number_gt                9613
_reflns_threshold_expression     >2sigma(I)

_computing_data_collection       'RAPID AUTO'
_computing_cell_refinement       'RAPID AUTO'
_computing_data_reduction        'RAPID AUTO'
_computing_structure_solution    'SHELXS-97 (Sheldrick, 1990)'
_computing_structure_refinement  'SHELXL-97 (Sheldrick, 1997)'
_computing_molecular_graphics    ?
_computing_publication_material  ?

_refine_special_details          
;
Refinement of F^2^ against ALL reflections. The weighted R-factor wR and
goodness of fit S are based on F^2^, conventional R-factors R are based
on F, with F set to zero for negative F^2^. The threshold expression of
F^2^ > 2sigma(F^2^) is used only for calculating R-factors(gt) etc. and is
not relevant to the choice of reflections for refinement. R-factors based
on F^2^ are statistically about twice as large as those based on F, and R-
factors based on ALL data will be even larger.
;

_refine_ls_structure_factor_coef Fsqd
_refine_ls_matrix_type           full
_refine_ls_weighting_scheme      calc
_refine_ls_weighting_details     
'calc w=1/[\s^2^(Fo^2^)+(0.1825P)^2^+0.0000P] where P=(Fo^2^+2Fc^2^)/3'
_atom_sites_solution_primary     direct
_atom_sites_solution_secondary   difmap
_atom_sites_solution_hydrogens   geom
_refine_ls_hydrogen_treatment    constr
_refine_ls_extinction_method     none
_refine_ls_extinction_coef       ?
_refine_ls_abs_structure_details 'Flack H D (1983), Acta Cryst. A39, 876-881'
_refine_ls_abs_structure_Flack   0.330(9)
_refine_ls_number_reflns         25857
_refine_ls_number_parameters     1088
_refine_ls_number_restraints     510
_refine_ls_R_factor_all          0.1588
_refine_ls_R_factor_gt           0.0993
_refine_ls_wR_factor_ref         0.3190
_refine_ls_wR_factor_gt          0.2789
_refine_ls_goodness_of_fit_ref   0.886
_refine_ls_restrained_S_all      0.890
_refine_ls_shift/su_max          0.003
_refine_ls_shift/su_mean         0.000

loop_
_atom_site_label
_atom_site_type_symbol
_atom_site_fract_x
_atom_site_fract_y
_atom_site_fract_z
_atom_site_U_iso_or_equiv
_atom_site_adp_type
_atom_site_occupancy
_atom_site_symmetry_multiplicity
_atom_site_calc_flag
_atom_site_refinement_flags
_atom_site_disorder_assembly
_atom_site_disorder_group
Zn1 Zn 0.52026(9) -0.1242(2) 0.76849(10) 0.0990(10) Uani 1 1 d . . .
I1 I 0.48284(6) -0.23848(11) 0.80448(6) 0.1292(7) Uani 1 1 d . . .
I2 I 0.57782(6) -0.15409(13) 0.72859(6) 0.1289(7) Uani 1 1 d . . .
N1 N 0.4821(5) -0.0569(14) 0.7184(5) 0.090(5) Uani 1 1 d . . .
C1 C 0.4828(6) 0.0340(15) 0.7129(7) 0.116(8) Uani 1 1 d D . .
H1 H 0.5055 0.0637 0.7288 0.139 Uiso 1 1 calc R . .
C2 C 0.4538(6) 0.0911(13) 0.6864(6) 0.109(6) Uani 1 1 d DU . .
H2 H 0.4480 0.1520 0.6919 0.131 Uiso 1 1 calc R . .
C3 C 0.4356(6) 0.0358(10) 0.6497(6) 0.096(5) Uani 1 1 d DU . .
C4 C 0.4242(5) -0.0544(11) 0.6588(6) 0.092(5) Uani 1 1 d DU . .
H3 H 0.3999 -0.0814 0.6455 0.110 Uiso 1 1 calc R . .
C5 C 0.4545(5) -0.0984(14) 0.6907(5) 0.087(6) Uani 1 1 d D . .
H4 H 0.4544 -0.1622 0.6916 0.105 Uiso 1 1 calc R . .
C6 C 0.4113(5) 0.0891(9) 0.6141(6) 0.088(5) Uani 1 1 d DU . .
N2 N 0.4173(4) 0.1764(8) 0.6092(5) 0.087(4) Uani 1 1 d DU . .
C7 C 0.3930(6) 0.2194(9) 0.5771(6) 0.104(7) Uani 1 1 d D . .
N3 N 0.3640(4) 0.1811(7) 0.5476(6) 0.096(6) Uani 1 1 d D . .
C8 C 0.3643(5) 0.0929(8) 0.5552(6) 0.092(6) Uani 1 1 d D . .
N4 N 0.3824(4) 0.0433(11) 0.5896(4) 0.094(5) Uani 1 1 d D . .
N5 N 0.4139(7) 0.5088(12) 0.5809(8) 0.128(7) Uani 1 1 d U . .
C9 C 0.3842(7) 0.4666(16) 0.5501(9) 0.130(8) Uani 1 1 d DU . .
H5 H 0.3663 0.5029 0.5301 0.156 Uiso 1 1 calc R . .
C10 C 0.3794(6) 0.3679(12) 0.5475(8) 0.122(6) Uani 1 1 d DU . .
H6 H 0.3586 0.3428 0.5263 0.146 Uiso 1 1 calc R . .
C11 C 0.4028(7) 0.3156(10) 0.5734(10) 0.117(6) Uani 1 1 d DU . .
C12 C 0.4344(7) 0.3582(14) 0.6024(9) 0.127(7) Uani 1 1 d DU . .
H7 H 0.4543 0.3242 0.6210 0.153 Uiso 1 1 calc R . .
C13 C 0.4353(8) 0.4601(17) 0.6027(9) 0.149(10) Uani 1 1 d D . .
H8 H 0.4560 0.4871 0.6234 0.179 Uiso 1 1 calc R . .
N6 N 0.2675(5) -0.0374(12) 0.4647(6) 0.105(4) Uani 1 1 d U . .
C14 C 0.2878(5) -0.0853(12) 0.4993(7) 0.092(4) Uani 1 1 d DU . .
H9 H 0.2811 -0.1456 0.5047 0.110 Uiso 1 1 calc R . .
C15 C 0.3203(5) -0.0401(9) 0.5277(6) 0.086(4) Uani 1 1 d DU . .
H10 H 0.3361 -0.0746 0.5504 0.103 Uiso 1 1 calc R . .
C16 C 0.3305(5) 0.0526(9) 0.5242(6) 0.090(4) Uani 1 1 d DU . .
C17 C 0.3059(5) 0.0972(12) 0.4874(6) 0.099(5) Uani 1 1 d DU . .
H11 H 0.3074 0.1604 0.4837 0.119 Uiso 1 1 calc R . .
C18 C 0.2789(6) 0.0432(12) 0.4563(7) 0.108(5) Uani 1 1 d DU . .
H12 H 0.2689 0.0681 0.4279 0.129 Uiso 1 1 calc R . .
Zn2 Zn 0.42749(13) 0.6394(2) 0.59042(16) 0.1419(14) Uani 1 1 d . . .
I3 I 0.46876(12) 0.66253(16) 0.66320(10) 0.2386(17) Uani 1 1 d . . .
I4 I 0.36177(10) 0.72501(15) 0.55821(14) 0.263(2) Uani 1 1 d . . .
N7 N 0.4637(6) 0.6567(12) 0.5453(7) 0.108(6) Uani 1 1 d . . .
C19 C 0.4942(8) 0.6091(16) 0.5442(7) 0.108(6) Uani 1 1 d U . .
H13 H 0.4980 0.5572 0.5626 0.130 Uiso 1 1 calc R . .
C20 C 0.5234(8) 0.6270(15) 0.5176(7) 0.112(5) Uani 1 1 d U . .
H14 H 0.5490 0.6011 0.5224 0.134 Uiso 1 1 calc R . .
C21 C 0.5086(8) 0.6886(15) 0.4833(7) 0.107(5) Uani 1 1 d U . .
C22 C 0.4673(7) 0.7268(14) 0.4782(7) 0.109(5) Uani 1 1 d U . .
H15 H 0.4552 0.7638 0.4541 0.131 Uiso 1 1 calc R . .
C23 C 0.4498(7) 0.7018(14) 0.5119(7) 0.106(6) Uani 1 1 d U . .
H16 H 0.4234 0.7212 0.5099 0.128 Uiso 1 1 calc R . .
C24 C 0.5352(6) 0.6968(11) 0.4488(7) 0.105(8) Uani 1 1 d D . .
N8 N 0.5632(5) 0.6360(10) 0.4481(5) 0.073(4) Uani 1 1 d D . .
C25 C 0.5861(6) 0.6580(12) 0.4196(5) 0.090(5) Uani 1 1 d DU . .
N9 N 0.5789(5) 0.7292(11) 0.3928(5) 0.092(4) Uani 1 1 d DU . .
N10 N 0.5280(6) 0.7714(11) 0.4245(5) 0.092(5) Uani 1 1 d D . .
N11 N 0.6795(6) 0.4811(13) 0.4093(6) 0.113(5) Uani 1 1 d U . .
C26 C 0.6679(5) 0.5346(14) 0.3788(5) 0.070(5) Uani 1 1 d D . .
H17 H 0.6794 0.5330 0.3530 0.084 Uiso 1 1 calc R . .
C27 C 0.6415(8) 0.5907(15) 0.3809(7) 0.104(8) Uani 1 1 d D . .
H18 H 0.6373 0.6354 0.3583 0.125 Uiso 1 1 calc R . .
C28 C 0.6154(7) 0.5961(14) 0.4150(8) 0.093(5) Uani 1 1 d U . .
Zn3 Zn 0.72880(10) 0.3971(2) 0.41734(12) 0.1235(13) Uani 1 1 d U . .
I5 I 0.75225(8) 0.4093(2) 0.34666(8) 0.1830(12) Uani 1 1 d . . .
I6 I 0.71156(9) 0.25867(14) 0.45375(10) 0.2069(14) Uani 1 1 d . . .
Zn4 Zn 0.97448(10) -0.1021(2) 0.80581(11) 0.1162(12) Uani 1 1 d . . .
I7 I 0.99087(8) -0.24238(14) 0.76978(10) 0.2024(14) Uani 1 1 d . . .
I8 I 0.95028(7) -0.0900(2) 0.87749(8) 0.1853(12) Uani 1 1 d . . .
N12 N 0.9328(5) -0.0414(12) 0.7594(6) 0.097(5) Uani 1 1 d . . .
C30 C 0.9088(6) -0.0773(17) 0.7222(8) 0.135(10) Uani 1 1 d . . .
H19 H 0.9111 -0.1398 0.7169 0.162 Uiso 1 1 calc R . .
C31 C 0.8834(8) -0.0325(19) 0.6944(9) 0.157(11) Uani 1 1 d . . .
H20 H 0.8705 -0.0605 0.6676 0.188 Uiso 1 1 calc R . .
C32 C 0.8749(6) 0.0534(13) 0.7024(6) 0.099(7) Uani 1 1 d D . .
C33 C 0.8938(10) 0.0994(19) 0.7396(8) 0.151(11) Uani 1 1 d . . .
H21 H 0.8852 0.1572 0.7468 0.181 Uiso 1 1 calc R . .
C34 C 0.9244(7) 0.0597(15) 0.7647(8) 0.109(7) Uani 1 1 d . . .
H22 H 0.9416 0.0938 0.7865 0.131 Uiso 1 1 calc R . .
C35 C 0.8435(5) 0.1003(8) 0.6700(5) 0.087(4) Uani 1 1 d DU . .
N13 N 0.8234(4) 0.0494(8) 0.6371(4) 0.083(4) Uani 1 1 d DU . .
C36 C 0.7927(4) 0.0905(8) 0.6101(5) 0.083(4) Uani 1 1 d DU . .
N14 N 0.7790(4) 0.1750(8) 0.6129(5) 0.079(4) Uani 1 1 d DU . .
C37 C 0.8057(5) 0.2200(10) 0.6431(6) 0.091(4) Uani 1 1 d DU . .
N15 N 0.8342(4) 0.1876(8) 0.6757(5) 0.092(4) Uani 1 1 d DU . .
N16 N 0.7226(5) -0.0538(10) 0.5005(6) 0.093(4) Uani 1 1 d U . .
C38 C 0.7156(7) 0.0287(15) 0.5051(8) 0.114(6) Uani 1 1 d U . .
H23 H 0.6954 0.0580 0.4846 0.137 Uiso 1 1 calc R . .
C39 C 0.7386(5) 0.0784(10) 0.5418(5) 0.070(4) Uani 1 1 d U . .
H24 H 0.7324 0.1396 0.5457 0.084 Uiso 1 1 calc R . .
C40 C 0.7706(5) 0.0375(10) 0.5726(5) 0.076(4) Uani 1 1 d DU . .
C41 C 0.7706(5) -0.0512(12) 0.5666(7) 0.081(5) Uani 1 1 d U . .
H25 H 0.7850 -0.0865 0.5901 0.098 Uiso 1 1 calc R . .
C42 C 0.7517(6) -0.0962(12) 0.5291(7) 0.094(5) Uani 1 1 d U . .
H26 H 0.7590 -0.1560 0.5234 0.113 Uiso 1 1 calc R . .
Zn5 Zn 0.68158(10) -0.12702(19) 0.45700(9) 0.0967(10) Uani 1 1 d . . .
I9 I 0.71929(6) -0.23918(11) 0.41888(6) 0.1324(7) Uani 1 1 d . . .
I10 I 0.62518(6) -0.15430(14) 0.49514(6) 0.1358(7) Uani 1 1 d . . .
N17 N 0.7843(6) 0.5004(12) 0.6379(6) 0.121(5) Uani 1 1 d U . .
C43 C 0.8151(7) 0.4759(16) 0.6661(8) 0.122(5) Uani 1 1 d U . .
H27 H 0.8304 0.5185 0.6852 0.146 Uiso 1 1 calc R . .
C44 C 0.8259(7) 0.3817(14) 0.6680(8) 0.114(5) Uani 1 1 d U . .
H28 H 0.8505 0.3629 0.6849 0.137 Uiso 1 1 calc R . .
C45 C 0.7996(7) 0.3183(11) 0.6445(8) 0.115(5) Uani 1 1 d DU . .
C46 C 0.7707(7) 0.3509(15) 0.6187(9) 0.126(5) Uani 1 1 d U . .
H29 H 0.7560 0.3099 0.5982 0.151 Uiso 1 1 calc R . .
C47 C 0.7572(8) 0.4382(15) 0.6157(8) 0.124(5) Uani 1 1 d U . .
H30 H 0.7317 0.4546 0.6000 0.148 Uiso 1 1 calc R . .
Zn6 Zn 0.77674(14) 0.6397(2) 0.63549(15) 0.1457(15) Uani 1 1 d U . .
I11 I 0.83484(7) 0.73173(13) 0.65480(8) 0.1545(8) Uani 1 1 d . . .
I12 I 0.72868(8) 0.65688(14) 0.55608(8) 0.1616(9) Uani 1 1 d . . .
N18 N 0.7451(7) 0.6693(15) 0.6858(8) 0.125(5) Uani 1 1 d U . .
C48 C 0.7138(10) 0.6361(16) 0.6816(8) 0.125(7) Uani 1 1 d DU . .
H31 H 0.7059 0.6021 0.6551 0.150 Uiso 1 1 calc R . .
C49 C 0.6872(6) 0.6389(14) 0.7086(10) 0.117(6) Uani 1 1 d DU . .
H32 H 0.6640 0.6032 0.7030 0.140 Uiso 1 1 calc R . .
C50 C 0.6954(8) 0.6962(16) 0.7449(10) 0.120(6) Uani 1 1 d U . .
C51 C 0.7263(7) 0.7431(14) 0.7526(8) 0.126(6) Uani 1 1 d DU . .
H33 H 0.7308 0.7874 0.7753 0.151 Uiso 1 1 calc R . .
C52 C 0.7568(6) 0.7237(13) 0.7222(7) 0.115(6) Uani 1 1 d DU . .
H34 H 0.7826 0.7486 0.7287 0.138 Uiso 1 1 calc R . .
C53 C 0.6693(6) 0.7047(14) 0.7785(7) 0.091(4) Uani 1 1 d U . .
N19 N 0.6366(5) 0.6507(12) 0.7792(6) 0.100(4) Uani 1 1 d DU . .
C54 C 0.6178(6) 0.6571(12) 0.8125(6) 0.085(4) Uani 1 1 d DU . .
N20 N 0.6212(4) 0.7260(9) 0.8397(4) 0.074(3) Uani 1 1 d DU . .
C55 C 0.6496(5) 0.7837(14) 0.8317(5) 0.073(4) Uani 1 1 d DU . .
N21 N 0.6739(5) 0.7798(11) 0.8035(5) 0.088(4) Uani 1 1 d DU . .
N22 N 0.5207(6) 0.4875(14) 0.8055(6) 0.104(5) Uani 1 1 d U . .
C56 C 0.5326(7) 0.5372(15) 0.8385(8) 0.106(6) Uani 1 1 d U . .
H35 H 0.5177 0.5364 0.8616 0.127 Uiso 1 1 calc R . .
C57 C 0.5665(7) 0.5953(13) 0.8448(9) 0.094(6) Uani 1 1 d U . .
H36 H 0.5757 0.6295 0.8709 0.113 Uiso 1 1 calc R . .
C58 C 0.5827(6) 0.5948(12) 0.8103(8) 0.078(6) Uani 1 1 d . . .
C73 C 0.5740(7) 0.5185(17) 0.7790(7) 0.113(6) Uani 1 1 d U . .
H37 H 0.5901 0.5055 0.7579 0.135 Uiso 1 1 calc R . .
C59 C 0.5449(7) 0.4728(18) 0.7815(7) 0.114(5) Uani 1 1 d U . .
H38 H 0.5406 0.4208 0.7633 0.136 Uiso 1 1 calc R . .
N23 N 0.6700(6) 1.0171(11) 0.9111(6) 0.109(5) Uani 1 1 d DU . .
C60 C 0.6913(7) 1.0031(17) 0.8775(8) 0.115(5) Uani 1 1 d U . .
H39 H 0.7099 1.0478 0.8733 0.139 Uiso 1 1 calc R . .
C61 C 0.6878(8) 0.9353(16) 0.8524(8) 0.114(6) Uani 1 1 d U . .
H40 H 0.7040 0.9266 0.8310 0.137 Uiso 1 1 calc R . .
C62 C 0.6566(8) 0.8694(12) 0.8582(7) 0.097(7) Uani 1 1 d D . .
C63 C 0.6326(8) 0.883(2) 0.8872(9) 0.134(10) Uani 1 1 d . . .
H41 H 0.6117 0.8429 0.8891 0.161 Uiso 1 1 calc R . .
C64 C 0.6397(7) 0.9606(15) 0.9150(8) 0.111(6) Uani 1 1 d U . .
H42 H 0.6234 0.9728 0.9361 0.133 Uiso 1 1 calc R . .
C72 C 0.5513(5) 0.7907(15) 0.3956(7) 0.095(5) Uani 1 1 d DU . .
C71 C 0.6370(6) 0.5641(14) 0.4509(6) 0.116(5) Uani 1 1 d DU . .
H43 H 0.6311 0.5853 0.4781 0.139 Uiso 1 1 calc R . .
C70 C 0.6692(7) 0.4997(14) 0.4549(7) 0.128(5) Uani 1 1 d DU . .
H44 H 0.6821 0.4730 0.4820 0.154 Uiso 1 1 calc R . .
C102 C 0.6491(6) 0.457(2) 0.5649(7) 0.191(9) Uiso 0.80 1 d PDU . .
H49 H 0.6685 0.4642 0.5470 0.230 Uiso 0.80 1 calc PR . .
C104 C 0.6054(7) 0.4938(14) 0.6062(9) 0.182(8) Uiso 0.80 1 d PDU . .
C107 C 0.5413(8) 0.4283(19) 0.6633(10) 0.226(11) Uiso 0.80 1 d PDU . .
H50 H 0.5213 0.4233 0.6804 0.271 Uiso 0.80 1 calc PR . .
C108 C 0.5575(9) 0.3484(16) 0.6505(11) 0.233(11) Uiso 0.80 1 d PDU . .
C103 C 0.6305(7) 0.5285(17) 0.5814(8) 0.179(8) Uiso 0.80 1 d PDU . .
H51 H 0.6345 0.5904 0.5763 0.215 Uiso 0.80 1 calc PR . .
C109 C 0.5859(10) 0.3379(17) 0.6241(11) 0.235(13) Uiso 0.80 1 d PDU . .
H52 H 0.5918 0.2764 0.6204 0.283 Uiso 0.80 1 calc PR . .
C110 C 0.6077(8) 0.3932(14) 0.6021(9) 0.199(9) Uiso 0.80 1 d PDU . .
C112 C 0.5873(11) 0.6397(16) 0.6263(13) 0.186(13) Uiso 0.80 1 d PDU . .
H53 H 0.6063 0.6519 0.6071 0.279 Uiso 0.80 1 calc PR . .
H54 H 0.5976 0.6627 0.6563 0.279 Uiso 0.80 1 calc PR . .
H55 H 0.5623 0.6695 0.6142 0.279 Uiso 0.80 1 calc PR . .
C113 C 0.5453(9) 0.2541(17) 0.6572(11) 0.233(11) Uiso 0.80 1 d PDU . .
H56 H 0.5216 0.2564 0.6714 0.279 Uiso 0.80 1 calc PR . .
C105 C 0.5808(8) 0.5410(14) 0.6284(9) 0.153(8) Uiso 0.80 1 d PDU . .
C106 C 0.5525(8) 0.5156(17) 0.6528(10) 0.217(12) Uiso 0.80 1 d PDU . .
H57 H 0.5389 0.5635 0.6639 0.260 Uiso 0.80 1 calc PR . .
C101 C 0.6364(8) 0.3737(17) 0.5773(9) 0.199(9) Uiso 0.80 1 d PDU . .
C114 C 0.5768(13) 0.204(2) 0.6878(13) 0.250(