####################################################################### 
# 
# This file contains crystal structure data downloaded from the 
# Cambridge Structural Database (CSD) hosted by the Cambridge 
# Crystallographic Data Centre (CCDC).
# 
# Full information about CCDC data access policies and citation 
# guidelines are available at http://www.ccdc.cam.ac.uk/access/V1 
# 
# Audit and citation data items may have been added by the CCDC. 
# Please retain this information to preserve the provenance of 
# this file and to allow appropriate attribution of the data. 
# 
#######################################################################

data_c2c
_audit_block_doi                 10.5517/cczkb4z
_database_code_depnum_ccdc_archive 'CCDC 910381'
loop_
_citation_id
_citation_doi
_citation_year
1 10.1038/nature11990 2013
_audit_update_record             
;
2012-11-10 deposited with the CCDC.	2024-07-12 downloaded from the CCDC.
;
#TrackingRef 'data_2.cif'

_audit_creation_method           SHELXL-97
_chemical_name_systematic        
;
?
;
_chemical_name_common            ?
_chemical_melting_point          ?
_chemical_formula_moiety         'C36 H24 I6 N12 Zn3, 0.6(C5 H8)'
_chemical_formula_sum            'C39 H28.80 I6 N12 Zn3'
_chemical_formula_weight         1623.05

loop_
_atom_type_symbol
_atom_type_description
_atom_type_scat_dispersion_real
_atom_type_scat_dispersion_imag
_atom_type_scat_source
C C 0.0033 0.0016 'International Tables Vol C Tables 4.2.6.8 and 6.1.1.4'
H H 0.0000 0.0000 'International Tables Vol C Tables 4.2.6.8 and 6.1.1.4'
N N 0.0061 0.0033 'International Tables Vol C Tables 4.2.6.8 and 6.1.1.4'
Zn Zn 0.2839 1.4301 'International Tables Vol C Tables 4.2.6.8 and 6.1.1.4'
I I -0.4742 1.8119 'International Tables Vol C Tables 4.2.6.8 and 6.1.1.4'

_symmetry_cell_setting           Monoclinic
_symmetry_space_group_name_H-M   C2/c

loop_
_symmetry_equiv_pos_as_xyz
'x, y, z'
'-x, y, -z+1/2'
'x+1/2, y+1/2, z'
'-x+1/2, y+1/2, -z+1/2'
'-x, -y, -z'
'x, -y, z-1/2'
'-x+1/2, -y+1/2, -z'
'x+1/2, -y+1/2, z-1/2'

_cell_length_a                   35.060(4)
_cell_length_b                   14.7672(16)
_cell_length_c                   30.527(3)
_cell_angle_alpha                90.00
_cell_angle_beta                 101.0880(10)
_cell_angle_gamma                90.00
_cell_volume                     15510(3)
_cell_formula_units_Z            8
_cell_measurement_temperature    90(2)
_cell_measurement_reflns_used    7530
_cell_measurement_theta_min      2.37
_cell_measurement_theta_max      26.36

_exptl_crystal_description       rod
_exptl_crystal_colour            colourless
_exptl_crystal_size_max          0.08
_exptl_crystal_size_mid          0.05
_exptl_crystal_size_min          0.05
_exptl_crystal_density_meas      'not measured'
_exptl_crystal_density_diffrn    1.390
_exptl_crystal_density_method    'not measured'
_exptl_crystal_F_000             6038
_exptl_absorpt_coefficient_mu    3.335
_exptl_absorpt_correction_type   empirical
_exptl_absorpt_correction_T_min  0.7762
_exptl_absorpt_correction_T_max  0.8510
_exptl_absorpt_process_details   SADABS

_exptl_special_details           
;
?
;

_diffrn_ambient_temperature      90(2)
_diffrn_radiation_wavelength     0.71073
_diffrn_radiation_type           MoK\a
_diffrn_radiation_source         'fine-focus sealed tube'
_diffrn_radiation_monochromator  graphite
_diffrn_measurement_device_type  'CCD area detector'
_diffrn_measurement_method       'phi and omega scans'
_diffrn_detector_area_resol_mean ?
_diffrn_standards_number         ?
_diffrn_standards_interval_count ?
_diffrn_standards_interval_time  ?
_diffrn_standards_decay_%        ?
_diffrn_reflns_number            79798
_diffrn_reflns_av_R_equivalents  0.0402
_diffrn_reflns_av_sigmaI/netI    0.0373
_diffrn_reflns_limit_h_min       -43
_diffrn_reflns_limit_h_max       43
_diffrn_reflns_limit_k_min       -18
_diffrn_reflns_limit_k_max       18
_diffrn_reflns_limit_l_min       -38
_diffrn_reflns_limit_l_max       38
_diffrn_reflns_theta_min         1.36
_diffrn_reflns_theta_max         26.53
_reflns_number_total             16083
_reflns_number_gt                10907
_reflns_threshold_expression     >2sigma(I)

_computing_data_collection       'Bruker SMART'
_computing_cell_refinement       'Bruker SMART'
_computing_data_reduction        'Bruker SAINT'
_computing_structure_solution    'SHELXS-97 (Sheldrick, 1990)'
_computing_structure_refinement  'SHELXL-97 (Sheldrick, 1997)'
_computing_molecular_graphics    'Bruker SHELXTL'
_computing_publication_material  'Bruker SHELXTL'

_refine_special_details          
;
Refinement of F^2^ against ALL reflections. The weighted R-factor wR and
goodness of fit S are based on F^2^, conventional R-factors R are based
on F, with F set to zero for negative F^2^. The threshold expression of
F^2^ > 2sigma(F^2^) is used only for calculating R-factors(gt) etc. and is
not relevant to the choice of reflections for refinement. R-factors based
on F^2^ are statistically about twice as large as those based on F, and R-
factors based on ALL data will be even larger.
;

_refine_ls_structure_factor_coef Fsqd
_refine_ls_matrix_type           full
_refine_ls_weighting_scheme      calc
_refine_ls_weighting_details     
'calc w=1/[\s^2^(Fo^2^)+(0.0963P)^2^+0.0000P] where P=(Fo^2^+2Fc^2^)/3'
_atom_sites_solution_primary     direct
_atom_sites_solution_secondary   difmap
_atom_sites_solution_hydrogens   geom
_refine_ls_hydrogen_treatment    constr
_refine_ls_extinction_method     none
_refine_ls_extinction_coef       ?
_refine_ls_number_reflns         16083
_refine_ls_number_parameters     561
_refine_ls_number_restraints     12
_refine_ls_R_factor_all          0.0757
_refine_ls_R_factor_gt           0.0532
_refine_ls_wR_factor_ref         0.1664
_refine_ls_wR_factor_gt          0.1570
_refine_ls_goodness_of_fit_ref   1.123
_refine_ls_restrained_S_all      1.123
_refine_ls_shift/su_max          0.001
_refine_ls_shift/su_mean         0.000

loop_
_atom_site_label
_atom_site_type_symbol
_atom_site_fract_x
_atom_site_fract_y
_atom_site_fract_z
_atom_site_U_iso_or_equiv
_atom_site_adp_type
_atom_site_occupancy
_atom_site_symmetry_multiplicity
_atom_site_calc_flag
_atom_site_refinement_flags
_atom_site_disorder_assembly
_atom_site_disorder_group
Zn1 Zn 0.17258(2) -0.35319(4) -0.22779(2) 0.04233(18) Uani 1 1 d . . .
I1 I 0.126643(17) -0.33623(3) -0.303049(15) 0.06273(16) Uani 1 1 d . . .
I2 I 0.235349(15) -0.26573(3) -0.204293(19) 0.06186(16) Uani 1 1 d . . .
N1 N 0.14005(15) -0.3334(3) -0.17955(16) 0.0409(12) Uani 1 1 d . . .
C1 C 0.10471(19) -0.3704(4) -0.1851(2) 0.0500(16) Uani 1 1 d . . .
H1 H 0.0959 -0.4054 -0.2112 0.060 Uiso 1 1 calc R . .
C2 C 0.0806(2) -0.3605(4) -0.1552(2) 0.0508(16) Uani 1 1 d . . .
H2 H 0.0561 -0.3900 -0.1601 0.061 Uiso 1 1 calc R . .
C3 C 0.09243(16) -0.3059(4) -0.11695(18) 0.0359(13) Uani 1 1 d . . .
C4 C 0.12903(18) -0.2667(4) -0.1119(2) 0.0419(14) Uani 1 1 d . . .
H3 H 0.1382 -0.2291 -0.0868 0.050 Uiso 1 1 calc R . .
C5 C 0.15237(18) -0.2818(4) -0.1430(2) 0.0414(14) Uani 1 1 d . . .
H4 H 0.1775 -0.2553 -0.1386 0.050 Uiso 1 1 calc R . .
C6 C 0.06733(16) -0.2935(4) -0.08454(18) 0.0346(13) Uani 1 1 d . . .
N2 N 0.03920(13) -0.3528(3) -0.08440(15) 0.0355(11) Uani 1 1 d . . .
C7 C 0.01671(15) -0.3392(3) -0.05376(18) 0.0329(12) Uani 1 1 d . . .
N3 N 0.02152(13) -0.2707(3) -0.02470(14) 0.0344(11) Uani 1 1 d . . .
C8 C 0.05004(16) -0.2130(3) -0.02870(19) 0.0350(13) Uani 1 1 d . . .
N4 N 0.07404(13) -0.2213(3) -0.05700(15) 0.0360(11) Uani 1 1 d . . .
N5 N -0.07857(14) -0.5169(3) -0.05804(18) 0.0433(12) Uani 1 1 d . . .
C9 C -0.06464(18) -0.4710(4) -0.0204(2) 0.0448(15) Uani 1 1 d . . .
H5 H -0.0764 -0.4783 0.0049 0.054 Uiso 1 1 calc R . .
C10 C -0.03336(17) -0.4133(4) -0.0182(2) 0.0405(14) Uani 1 1 d . . .
H6 H -0.0237 -0.3815 0.0087 0.049 Uiso 1 1 calc R . .
C11 C -0.01603(16) -0.4011(3) -0.05433(19) 0.0351(13) Uani 1 1 d . . .
C12 C -0.0315(2) -0.4475(5) -0.0926(2) 0.0592(19) Uani 1 1 d . . .
H7 H -0.0211 -0.4394 -0.1189 0.071 Uiso 1 1 calc R . .
C13 C -0.0622(2) -0.5060(6) -0.0926(3) 0.071(2) Uani 1 1 d . . .
H8 H -0.0719 -0.5398 -0.1189 0.085 Uiso 1 1 calc R . .
N6 N 0.06377(14) 0.0205(3) 0.05492(16) 0.0404(12) Uani 1 1 d . . .
C14 C 0.0898(2) 0.0002(5) 0.0302(2) 0.0571(18) Uani 1 1 d . . .
H9 H 0.1117 0.0388 0.0314 0.069 Uiso 1 1 calc R . .
C15 C 0.0863(2) -0.0755(5) 0.0026(2) 0.0574(19) Uani 1 1 d . . .
H10 H 0.1056 -0.0887 -0.0145 0.069 Uiso 1 1 calc R . .
C16 C 0.05445(16) -0.1312(4) 0.00027(18) 0.0363(13) Uani 1 1 d . . .
C18 C 0.03332(16) -0.0326(4) 0.0530(2) 0.0386(14) Uani 1 1 d . . .
H11 H 0.0145 -0.0179 0.0706 0.046 Uiso 1 1 calc R . .
C17 C 0.02768(17) -0.1098(4) 0.02603(19) 0.0399(14) Uani 1 1 d . . .
H12 H 0.0055 -0.1471 0.0255 0.048 Uiso 1 1 calc R . .
Zn2 Zn 0.07576(2) 0.12847(4) 0.09988(2) 0.03981(18) Uani 1 1 d . . .
I3 I 0.017019(14) 0.15305(3) 0.135706(15) 0.05751(15) Uani 1 1 d . . .
I4 I 0.111631(15) 0.24252(3) 0.061038(16) 0.05882(15) Uani 1 1 d . . .
N7 N 0.11495(13) 0.0607(3) 0.14853(16) 0.0377(11) Uani 1 1 d . . .
C19 C 0.10465(18) -0.0214(4) 0.1603(2) 0.057(2) Uani 1 1 d . . .
H13 H 0.0805 -0.0459 0.1456 0.069 Uiso 1 1 calc R . .
C20 C 0.12789(18) -0.0723(4) 0.1933(2) 0.0503(17) Uani 1 1 d . . .
H14 H 0.1200 -0.1309 0.2008 0.060 Uiso 1 1 calc R . .
C21 C 0.16258(15) -0.0363(3) 0.21477(18) 0.0341(13) Uani 1 1 d . . .
C22 C 0.17318(16) 0.0496(3) 0.20364(19) 0.0375(14) Uani 1 1 d . . .
H15 H 0.1966 0.0768 0.2187 0.045 Uiso 1 1 calc R . .
C23 C 0.14845(17) 0.0949(4) 0.1697(2) 0.0403(14) Uani 1 1 d . . .
H16 H 0.1559 0.1533 0.1612 0.048 Uiso 1 1 calc R . .
C24 C 0.18828(15) -0.0895(3) 0.24972(19) 0.0333(12) Uani 1 1 d . . .
N8 N 0.17813(13) -0.1776(3) 0.25432(15) 0.0344(11) Uani 1 1 d . . .
C25 C 0.20322(15) -0.2236(3) 0.28472(17) 0.0309(12) Uani 1 1 d . . .
N9 N 0.23351(13) -0.1895(3) 0.31240(15) 0.0333(10) Uani 1 1 d . . .
C26 C 0.24027(15) -0.0997(3) 0.30588(19) 0.0334(13) Uani 1 1 d . . .
N10 N 0.21948(13) -0.0496(3) 0.27348(15) 0.0338(10) Uani 1 1 d . . .
N11 N 0.18435(15) -0.5084(3) 0.27916(17) 0.0419(12) Uani 1 1 d . . .
C27 C 0.21519(18) -0.4744(4) 0.3060(2) 0.0461(15) Uani 1 1 d . . .
H17 H 0.2332 -0.5147 0.3232 0.055 Uiso 1 1 calc R . .
C28 C 0.22211(16) -0.3815(4) 0.3098(2) 0.0399(14) Uani 1 1 d . . .
H18 H 0.2445 -0.3592 0.3294 0.048 Uiso 1 1 calc R . .
C29 C 0.19611(15) -0.3222(3) 0.28500(18) 0.0310(12) Uani 1 1 d . . .
C30 C 0.16316(18) -0.3583(4) 0.2590(2) 0.0498(17) Uani 1 1 d . . .
H19 H 0.1437 -0.3195 0.2431 0.060 Uiso 1 1 calc R . .
C31 C 0.15847(19) -0.4506(4) 0.2563(2) 0.0524(17) Uani 1 1 d . . .
H20 H 0.1360 -0.4744 0.2374 0.063 Uiso 1 1 calc R . .
N12 N 0.33335(13) 0.0340(3) 0.39077(16) 0.0394(12) Uani 1 1 d . . .
C32 C 0.31237(17) 0.0750(4) 0.3546(2) 0.0492(17) Uani 1 1 d . . .
H21 H 0.3185 0.1357 0.3485 0.059 Uiso 1 1 calc R . .
C33 C 0.28279(17) 0.0332(4) 0.3266(2) 0.0466(16) Uani 1 1 d . . .
H22 H 0.2687 0.0644 0.3014 0.056 Uiso 1 1 calc R . .
C34 C 0.27342(15) -0.0561(3) 0.33535(18) 0.0305(12) Uani 1 1 d . . .
C35 C 0.29520(18) -0.0987(4) 0.3718(2) 0.0478(16) Uani 1 1 d . . .
H23 H 0.2900 -0.1596 0.3787 0.057 Uiso 1 1 calc R . .
C36 C 0.3250(2) -0.0505(4) 0.3981(2) 0.0566(19) Uani 1 1 d . . .
H24 H 0.3402 -0.0804 0.4230 0.068 Uiso 1 1 calc R . .
I5 I -0.107826(19) -0.74286(3) -0.10483(3) 0.1030(3) Uani 1 1 d . . .
Zn3 Zn -0.12549(2) -0.60386(5) -0.06439(3) 0.0527(2) Uani 1 1 d . . .
I6 I -0.150139(16) -0.60236(6) 0.00814(2) 0.1091(3) Uani 1 1 d . . .
C102 C 0.1239(3) 0.0608(7) 0.3263(4) 0.074(4) Uani 0.60 1 d PDU . .
C103 C 0.1068(4) 0.1119(7) 0.2857(4) 0.076(4) Uani 0.60 1 d PD . .
H25 H 0.1245 0.1361 0.2688 0.091 Uiso 0.60 1 calc PR . .
C101 C 0.1614(4) 0.0482(9) 0.3371(5) 0.096(5) Uani 0.60 1 d PDU . .
H26 H 0.1780 0.0721 0.3187 0.115 Uiso 0.60 1 calc PR . .
H27 H 0.1720 0.0152 0.3633 0.115 Uiso 0.60 1 calc PR . .
C105 C 0.0972(4) 0.0292(10) 0.3562(5) 0.085(5) Uani 0.60 1 d PD . .
H28 H 0.0702 0.0423 0.3421 0.127 Uiso 0.60 1 calc PR . .
H29 H 0.1035 0.0609 0.3849 0.127 Uiso 0.60 1 calc PR . .
H30 H 0.1003 -0.0362 0.3611 0.127 Uiso 0.60 1 calc PR . .
C104 C 0.0702(5) 0.1272(12) 0.2707(6) 0.119(7) Uani 0.60 1 d PD . .
H31 H 0.0513 0.1045 0.2864 0.143 Uiso 0.60 1 calc PR . .
H32 H 0.0623 0.1612 0.2441 0.143 Uiso 0.60 1 calc PR . .

loop_
_atom_site_aniso_label
_atom_site_aniso_U_11
_atom_site_aniso_U_22
_atom_site_aniso_U_33
_atom_site_aniso_U_23
_atom_site_aniso_U_13
_atom_site_aniso_U_12
Zn1 0.0616(5) 0.0188(3) 0.0476(4) -0.0018(3) 0.0132(3) 0.0014(3)
I1 0.0998(4) 0.0388(2) 0.0471(3) 0.00834(19) 0.0081(2) 0.0109(2)
I2 0.0734(3) 0.0326(2) 0.0872(4) -0.0198(2) 0.0345(3) -0.0168(2)
N1 0.054(3) 0.025(2) 0.043(3) 0.000(2) 0.007(2) 0.005(2)
C1 0.053(4) 0.047(4) 0.048(4) -0.017(3) 0.005(3) -0.012(3)
C2 0.056(4) 0.052(4) 0.041(4) -0.003(3) -0.001(3) -0.010(3)
C3 0.043(3) 0.027(3) 0.033(3) 0.000(2) -0.006(2) 0.002(2)
C4 0.049(4) 0.033(3) 0.039(3) 0.001(2) -0.003(3) -0.004(3)
C5 0.044(3) 0.030(3) 0.046(4) -0.002(3) -0.003(3) -0.008(2)
C6 0.039(3) 0.028(3) 0.032(3) 0.005(2) -0.006(2) 0.005(2)
N2 0.036(3) 0.028(2) 0.036(3) -0.0026(19) -0.010(2) 0.0011(19)
C7 0.031(3) 0.028(3) 0.033(3) 0.002(2) -0.012(2) 0.005(2)
N3 0.040(3) 0.032(2) 0.025(2) -0.0005(19) -0.0109(19) 0.000(2)
C8 0.039(3) 0.024(3) 0.036(3) 0.000(2) -0.008(3) 0.002(2)
N4 0.037(3) 0.031(2) 0.033(3) -0.0014(19) -0.012(2) 0.000(2)
N5 0.044(3) 0.032(3) 0.047(3) 0.006(2) -0.008(2) -0.003(2)
C9 0.045(3) 0.037(3) 0.051(4) 0.009(3) 0.006(3) 0.004(3)
C10 0.045(3) 0.033(3) 0.039(3) -0.003(2) -0.004(3) -0.004(3)
C11 0.037(3) 0.024(3) 0.038(3) 0.001(2) -0.010(2) -0.002(2)
C12 0.056(4) 0.081(5) 0.039(4) -0.009(3) 0.006(3) -0.030(4)
C13 0.070(5) 0.088(6) 0.050(5) -0.027(4) 0.001(4) -0.047(4)
N6 0.042(3) 0.034(3) 0.039(3) -0.005(2) -0.007(2) 0.005(2)
C14 0.059(4) 0.048(4) 0.065(5) -0.021(3) 0.013(4) -0.021(3)
C15 0.063(4) 0.047(4) 0.066(5) -0.024(3) 0.023(4) -0.020(3)
C16 0.042(3) 0.029(3) 0.031(3) -0.003(2) -0.012(2) 0.004(2)
C18 0.034(3) 0.029(3) 0.048(4) 0.004(2) -0.005(3) 0.009(2)
C17 0.040(3) 0.034(3) 0.040(3) 0.003(3) -0.006(3) 0.000(2)
Zn2 0.0482(4) 0.0256(3) 0.0377(4) -0.0014(3) -0.0116(3) 0.0078(3)
I3 0.0589(3) 0.0576(3) 0.0496(3) 0.0026(2) -0.0057(2) 0.0246(2)
I4 0.0782(3) 0.0317(2) 0.0590(3) 0.00127(18) -0.0055(2) -0.0040(2)
N7 0.045(3) 0.023(2) 0.037(3) -0.0046(19) -0.011(2) 0.004(2)
C19 0.045(4) 0.041(4) 0.071(5) 0.019(3) -0.030(3) -0.006(3)
C20 0.051(4) 0.028(3) 0.059(4) 0.010(3) -0.021(3) -0.005(3)
C21 0.036(3) 0.020(2) 0.039(3) -0.004(2) -0.011(2) 0.007(2)
C22 0.041(3) 0.022(3) 0.040(3) -0.004(2) -0.015(3) -0.002(2)
C23 0.046(3) 0.021(3) 0.047(4) -0.004(2) -0.009(3) 0.007(2)
C24 0.037(3) 0.015(2) 0.043(3) -0.002(2) -0.005(2) 0.004(2)
N8 0.036(2) 0.017(2) 0.041(3) -0.0010(18) -0.014(2) 0.0023(18)
C25 0.036(3) 0.021(2) 0.031(3) 0.002(2) -0.006(2) 0.005(2)
N9 0.038(2) 0.018(2) 0.039(3) -0.0049(18) -0.008(2) 0.0027(18)
C26 0.035(3) 0.017(2) 0.042(3) -0.003(2) -0.009(2) 0.004(2)
N10 0.038(2) 0.020(2) 0.038(3) -0.0050(18) -0.008(2) 0.0026(18)
N11 0.052(3) 0.022(2) 0.048(3) 0.004(2) 0.000(2) 0.000(2)
C27 0.050(4) 0.026(3) 0.057(4) 0.009(3) -0.002(3) 0.006(3)
C28 0.036(3) 0.025(3) 0.050(4) 0.004(2) -0.016(3) 0.001(2)
C29 0.035(3) 0.018(2) 0.035(3) -0.002(2) -0.005(2) 0.001(2)
C30 0.043(3) 0.027(3) 0.069(4) 0.004(3) -0.015(3) 0.003(2)
C31 0.056(4) 0.029(3) 0.061(4) -0.002(3) -0.015(3) -0.008(3)
N12 0.037(3) 0.027(2) 0.047(3) -0.009(2) -0.010(2) 0.0034(19)
C32 0.046(4) 0.028(3) 0.063(4) -0.009(3) -0.015(3) 0.004(3)
C33 0.043(3) 0.027(3) 0.058(4) -0.003(3) -0.020(3) 0.000(2)
C34 0.033(3) 0.019(2) 0.035(3) -0.009(2) -0.005(2) 0.005(2)
C35 0.056(4) 0.025(3) 0.051(4) 0.000(3) -0.019(3) -0.003(3)
C36 0.063(4) 0.030(3) 0.064(4) -0.005(3) -0.021(3) 0.006(3)
I5 0.0888(4) 0.0370(3) 0.1522(6) -0.0084(3) -0.0545(4) 0.0154(3)
Zn3 0.0377(4) 0.0394(4) 0.0700(5) 0.0232(4) -0.0174(4) -0.0054(3)
I6 0.0547(3) 0.1737(7) 0.0938(5) 0.0875(5) 0.0011(3) 0.0060(4)
C102 0.085(9) 0.039(6) 0.110(11) -0.034(7) 0.048(8) 0.008(6)
C103 0.134(14) 0.026(6) 0.081(10) -0.013(6) 0.054(10) 0.000(7)
C101 0.118(11) 0.048(7) 0.140(12) -0.044(8) 0.075(10) 0.003(8)
C105 0.090(10) 0.057(8) 0.115(13) 0.016(8) 0.042(9) -0.016(7)
C104 0.17(2) 0.094(14) 0.089(13) 0.004(10) 0.004(14) -0.022(14)

_geom_special_details            
;
All esds (except the esd in the dihedral angle between two l.s. planes)
are estimated using the full covariance matrix. The cell esds are taken
into account individually in the estimation of esds in distances, angles
and torsion angles; correlations between esds in cell parameters are only
used when they are defined by crystal symmetry. An approximate (isotropic)
treatment of cell esds is used for estimating esds involving l.s. planes.
;

loop_
_geom_bond_atom_site_label_1
_geom_bond_atom_site_label_2
_geom_bond_distance
_geom_bond_site_symmetry_2
_geom_bond_publ_flag
Zn1 N1 2.050(5) . ?
Zn1 N11 2.088(5) 6_545 ?
Zn1 I2 2.5334(9) . ?
Zn1 I1 2.5518(9) . ?
N1 C1 1.335(8) . ?
N1 C5 1.352(7) . ?
C1 C2 1.366(9) . ?
C1 H1 0.9500 . ?
C2 C3 1.413(8) . ?
C2 H2 0.9500 . ?
C3 C4 1.389(8) . ?
C3 C6 1.457(8) . ?
C4 C5 1.387(9) . ?
C4 H3 0.9500 . ?
C5 H4 0.9500 . ?
C6 N2 1.320(7) . ?
C6 N4 1.350(7) . ?
N2 C7 1.349(7) . ?
C7 N3 1.334(7) . ?
C7 C11 1.465(8) . ?
N3 C8 1.337(7) . ?
C8 N4 1.323(8) . ?
C8 C16 