####################################################################### 
# 
# This file contains crystal structure data downloaded from the 
# Cambridge Structural Database (CSD) hosted by the Cambridge 
# Crystallographic Data Centre (CCDC).
# 
# Full information about CCDC data access policies and citation 
# guidelines are available at http://www.ccdc.cam.ac.uk/access/V1 
# 
# Audit and citation data items may have been added by the CCDC. 
# Please retain this information to preserve the provenance of 
# this file and to allow appropriate attribution of the data. 
# 
#######################################################################

data_c2c5
_audit_block_doi                 10.5517/cczkb72
_database_code_depnum_ccdc_archive 'CCDC 910384'
loop_
_citation_id
_citation_doi
_citation_year
1 10.1038/nature11990 2013
_audit_update_record             
;
2012-11-10 deposited with the CCDC.	2024-07-12 downloaded from the CCDC.
;

_audit_creation_method           SHELXL-97
_chemical_name_systematic        
;
?
;
_chemical_name_common            ?
_chemical_melting_point          ?
_chemical_formula_moiety         
'C36 H24 I6 N12 Zn3 0.5(C7 H5 N O3) 0.5(C7 H5 N O3)'
_chemical_formula_sum            'C43 H29 I6 N13 O3 Zn3'
_chemical_formula_weight         1733.30

loop_
_atom_type_symbol
_atom_type_description
_atom_type_scat_dispersion_real
_atom_type_scat_dispersion_imag
_atom_type_scat_source
C C 0.0033 0.0016 'International Tables Vol C Tables 4.2.6.8 and 6.1.1.4'
H H 0.0000 0.0000 'International Tables Vol C Tables 4.2.6.8 and 6.1.1.4'
N N 0.0061 0.0033 'International Tables Vol C Tables 4.2.6.8 and 6.1.1.4'
Zn Zn 0.2839 1.4301 'International Tables Vol C Tables 4.2.6.8 and 6.1.1.4'
I I -0.4742 1.8119 'International Tables Vol C Tables 4.2.6.8 and 6.1.1.4'
O O 0.0106 0.0060 'International Tables Vol C Tables 4.2.6.8 and 6.1.1.4'

_symmetry_cell_setting           Monoclinic
_symmetry_space_group_name_H-M   C2/c

loop_
_symmetry_equiv_pos_as_xyz
'x, y, z'
'-x, y, -z+1/2'
'x+1/2, y+1/2, z'
'-x+1/2, y+1/2, -z+1/2'
'-x, -y, -z'
'x, -y, z-1/2'
'-x+1/2, -y+1/2, -z'
'x+1/2, -y+1/2, z-1/2'

_cell_length_a                   35.602(11)
_cell_length_b                   14.879(5)
_cell_length_c                   30.538(10)
_cell_angle_alpha                90.00
_cell_angle_beta                 103.153(4)
_cell_angle_gamma                90.00
_cell_volume                     15752(9)
_cell_formula_units_Z            8
_cell_measurement_temperature    90(2)
_cell_measurement_reflns_used    7443
_cell_measurement_theta_min      2.21
_cell_measurement_theta_max      23.25

_exptl_crystal_description       rod
_exptl_crystal_colour            colourless
_exptl_crystal_size_max          0.07
_exptl_crystal_size_mid          0.06
_exptl_crystal_size_min          0.05
_exptl_crystal_density_meas      'not measured'
_exptl_crystal_density_diffrn    1.462
_exptl_crystal_density_method    'not measured'
_exptl_crystal_F_000             6480
_exptl_absorpt_coefficient_mu    3.292
_exptl_absorpt_correction_type   empirical
_exptl_absorpt_correction_T_min  0.8023
_exptl_absorpt_correction_T_max  0.8527
_exptl_absorpt_process_details   SADABS

_exptl_special_details           
;
?
;

_diffrn_ambient_temperature      90(2)
_diffrn_radiation_wavelength     0.71073
_diffrn_radiation_type           MoK\a
_diffrn_radiation_source         'fine-focus sealed tube'
_diffrn_radiation_monochromator  graphite
_diffrn_measurement_device_type  'CCD area detector'
_diffrn_measurement_method       'phi and omega scans'
_diffrn_detector_area_resol_mean ?
_diffrn_standards_number         ?
_diffrn_standards_interval_count ?
_diffrn_standards_interval_time  ?
_diffrn_standards_decay_%        ?
_diffrn_reflns_number            71408
_diffrn_reflns_av_R_equivalents  0.0700
_diffrn_reflns_av_sigmaI/netI    0.0604
_diffrn_reflns_limit_h_min       -42
_diffrn_reflns_limit_h_max       42
_diffrn_reflns_limit_k_min       -17
_diffrn_reflns_limit_k_max       17
_diffrn_reflns_limit_l_min       -36
_diffrn_reflns_limit_l_max       36
_diffrn_reflns_theta_min         1.37
_diffrn_reflns_theta_max         25.00
_reflns_number_total             13831
_reflns_number_gt                8514
_reflns_threshold_expression     >2sigma(I)

_computing_data_collection       'Bruker SMART'
_computing_cell_refinement       'Bruker SMART'
_computing_data_reduction        'Bruker SAINT'
_computing_structure_solution    'SHELXS-97 (Sheldrick, 1990)'
_computing_structure_refinement  'SHELXL-97 (Sheldrick, 1997)'
_computing_molecular_graphics    'Bruker SHELXTL'
_computing_publication_material  'Bruker SHELXTL'

_refine_special_details          
;
Refinement of F^2^ against ALL reflections. The weighted R-factor wR and
goodness of fit S are based on F^2^, conventional R-factors R are based
on F, with F set to zero for negative F^2^. The threshold expression of
F^2^ > 2sigma(F^2^) is used only for calculating R-factors(gt) etc. and is
not relevant to the choice of reflections for refinement. R-factors based
on F^2^ are statistically about twice as large as those based on F, and R-
factors based on ALL data will be even larger.
;

_refine_ls_structure_factor_coef Fsqd
_refine_ls_matrix_type           full
_refine_ls_weighting_scheme      calc
_refine_ls_weighting_details     
'calc w=1/[\s^2^(Fo^2^)+(0.2000P)^2^+0.0000P] where P=(Fo^2^+2Fc^2^)/3'
_atom_sites_solution_primary     direct
_atom_sites_solution_secondary   difmap
_atom_sites_solution_hydrogens   geom
_refine_ls_hydrogen_treatment    constr
_refine_ls_extinction_method     none
_refine_ls_extinction_coef       ?
_refine_ls_number_reflns         13831
_refine_ls_number_parameters     713
_refine_ls_number_restraints     104
_refine_ls_R_factor_all          0.1423
_refine_ls_R_factor_gt           0.1130
_refine_ls_wR_factor_ref         0.3380
_refine_ls_wR_factor_gt          0.3212
_refine_ls_goodness_of_fit_ref   1.220
_refine_ls_restrained_S_all      1.217
_refine_ls_shift/su_max          0.000
_refine_ls_shift/su_mean         0.000

loop_
_atom_site_label
_atom_site_type_symbol
_atom_site_fract_x
_atom_site_fract_y
_atom_site_fract_z
_atom_site_U_iso_or_equiv
_atom_site_adp_type
_atom_site_occupancy
_atom_site_symmetry_multiplicity
_atom_site_calc_flag
_atom_site_refinement_flags
_atom_site_disorder_assembly
_atom_site_disorder_group
Zn1 Zn 0.58502(5) 0.12687(11) 0.58828(6) 0.0588(5) Uani 1 1 d . . .
I1 I 0.61502(5) 0.24472(8) 0.54887(5) 0.0915(5) Uani 1 1 d . . .
I2 I 0.53027(4) 0.14633(9) 0.62771(4) 0.0840(5) Uani 1 1 d . . .
N1 N 0.5709(4) 0.0186(8) 0.5434(4) 0.051(3) Uani 1 1 d . . .
C1 C 0.5951(5) -0.0037(11) 0.5175(6) 0.065(4) Uani 1 1 d . . .
H1 H 0.6174 0.0324 0.5192 0.078 Uiso 1 1 calc R . .
C2 C 0.5896(4) -0.0749(10) 0.4887(6) 0.061(4) Uani 1 1 d D . .
H2 H 0.6062 -0.0856 0.4689 0.074 Uiso 1 1 calc R . .
C3 C 0.5590(3) -0.1307(8) 0.4897(4) 0.040(3) Uani 1 1 d D . .
C4 C 0.5344(4) -0.1097(10) 0.5160(4) 0.047(3) Uani 1 1 d . . .
H3 H 0.5128 -0.1469 0.5164 0.056 Uiso 1 1 calc R . .
C5 C 0.5411(4) -0.0345(9) 0.5420(5) 0.046(3) Uani 1 1 d . . .
H4 H 0.5234 -0.0196 0.5599 0.055 Uiso 1 1 calc R . .
C6 C 0.5518(4) -0.2117(8) 0.4587(4) 0.050(4) Uani 1 1 d D . .
N2 N 0.5730(3) -0.2182(6) 0.4284(3) 0.043(3) Uani 1 1 d D . .
C7 C 0.5652(4) -0.2912(8) 0.4023(4) 0.047(3) Uani 1 1 d D . .
N3 N 0.5379(3) -0.3518(7) 0.4039(4) 0.047(3) Uani 1 1 d D . .
C8 C 0.5192(3) -0.3376(8) 0.4365(3) 0.037(3) Uani 1 1 d D . .
N4 N 0.5261(3) -0.2706(6) 0.4665(4) 0.046(3) Uani 1 1 d D . .
N5 N 0.6379(3) -0.3440(7) 0.3133(4) 0.050(3) Uani 1 1 d D . .
C9 C 0.6126(5) -0.4046(10) 0.3197(6) 0.074(5) Uani 1 1 d D . .
H5 H 0.6109 -0.4603 0.3041 0.089 Uiso 1 1 calc R . .
C10 C 0.5886(5) -0.3889(13) 0.3484(6) 0.074(5) Uani 1 1 d D . .
H6 H 0.5708 -0.4343 0.3521 0.089 Uiso 1 1 calc R . .
C11 C 0.5893(4) -0.3125(11) 0.3712(5) 0.052(4) Uani 1 1 d . . .
C12 C 0.6146(6) -0.2458(11) 0.3623(8) 0.082(6) Uani 1 1 d . . .
H7 H 0.6147 -0.1878 0.3753 0.099 Uiso 1 1 calc R . .
C13 C 0.6390(6) -0.2649(14) 0.3349(9) 0.093(8) Uani 1 1 d . . .
H8 H 0.6573 -0.2209 0.3309 0.112 Uiso 1 1 calc R . .
N6 N 0.4254(3) -0.5127(7) 0.4426(4) 0.050(3) Uani 1 1 d D . .
C14 C 0.4427(4) -0.4613(8) 0.4773(4) 0.048(3) Uani 1 1 d D . .
H9 H 0.4336 -0.4653 0.5042 0.058 Uiso 1 1 calc R . .
C15 C 0.4725(3) -0.4037(9) 0.4771(4) 0.047(3) Uani 1 1 d D . .
H10 H 0.4829 -0.3681 0.5028 0.057 Uiso 1 1 calc R . .
C16 C 0.4873(4) -0.3974(10) 0.4396(4) 0.043(3) Uani 1 1 d D . .
C17 C 0.4693(5) -0.4494(13) 0.4016(6) 0.080(6) Uani 1 1 d D . .
H11 H 0.4771 -0.4443 0.3739 0.096 Uiso 1 1 calc R . .
C18 C 0.4404(5) -0.5067(14) 0.4060(6) 0.080(6) Uani 1 1 d D . .
H12 H 0.4301 -0.5452 0.3814 0.096 Uiso 1 1 calc R . .
Zn2 Zn 0.38024(4) -0.59530(11) 0.44225(6) 0.0488(4) Uani 1 1 d . . .
I3 I 0.39446(3) -0.74104(7) 0.40552(4) 0.0724(4) Uani 1 1 d . . .
I4 I 0.36454(3) -0.58364(9) 0.51859(4) 0.0696(4) Uani 1 1 d . . .
N7 N 0.3359(3) -0.5355(8) 0.3973(4) 0.049(3) Uani 1 1 d . . .
C19 C 0.3147(4) -0.5784(8) 0.3605(5) 0.053(4) Uani 1 1 d D . .
H13 H 0.3211 -0.6384 0.3545 0.063 Uiso 1 1 calc R . .
C20 C 0.2841(3) -0.5368(7) 0.3317(5) 0.052(4) Uani 1 1 d D . .
H14 H 0.2695 -0.5691 0.3067 0.062 Uiso 1 1 calc R . .
C21 C 0.2745(3) -0.4490(7) 0.3387(4) 0.041(3) Uani 1 1 d D . .
C22 C 0.2959(5) -0.4033(9) 0.3754(5) 0.068(5) Uani 1 1 d D . .
H15 H 0.2909 -0.3418 0.3802 0.082 Uiso 1 1 calc R . .
C23 C 0.3257(4) -0.4508(9) 0.4058(5) 0.054(4) Uani 1 1 d . . .
H16 H 0.3388 -0.4221 0.4327 0.064 Uiso 1 1 calc R . .
C24 C 0.2427(4) -0.4058(8) 0.3072(5) 0.042(3) Uani 1 1 d . . .
N8 N 0.2232(3) -0.4563(7) 0.2730(3) 0.038(2) Uani 1 1 d . . .
C25 C 0.1935(4) -0.4169(9) 0.2464(5) 0.047(3) Uani 1 1 d . . .
N9 N 0.1840(3) -0.3301(7) 0.2474(4) 0.044(3) Uani 1 1 d . . .
C26 C 0.2078(4) -0.2830(8) 0.2821(4) 0.035(3) Uani 1 1 d . . .
N10 N 0.2362(3) -0.3158(6) 0.3129(4) 0.039(2) Uani 1 1 d . . .
N11 N 0.1264(4) -0.5624(9) 0.1372(4) 0.059(3) Uani 1 1 d . . .
C27 C 0.1199(7) -0.4729(13) 0.1429(8) 0.126(11) Uani 1 1 d . . .
H17 H 0.0999 -0.4436 0.1218 0.151 Uiso 1 1 calc R . .
C28 C 0.1418(6) -0.4228(10) 0.1790(7) 0.118(10) Uani 1 1 d D . .
H18 H 0.1369 -0.3609 0.1828 0.142 Uiso 1 1 calc R . .
C29 C 0.1705(4) -0.4674(7) 0.2081(4) 0.053(4) Uani 1 1 d D . .
C30 C 0.1775(4) -0.5566(6) 0.2008(4) 0.041(3) Uani 1 1 d D . .
H19 H 0.1977 -0.5880 0.2206 0.050 Uiso 1 1 calc R . .
C31 C 0.1542(4) -0.6003(9) 0.1638(5) 0.049(3) Uani 1 1 d . . .
H20 H 0.1597 -0.6613 0.1584 0.059 Uiso 1 1 calc R . .
N12 N 0.1845(3) -0.0017(7) 0.2765(4) 0.048(3) Uani 1 1 d . . .
C32 C 0.2160(4) -0.0352(9) 0.3054(5) 0.049(3) Uani 1 1 d . . .
H21 H 0.2341 0.0049 0.3230 0.059 Uiso 1 1 calc R . .
C33 C 0.2222(4) -0.1269(8) 0.3096(4) 0.047(3) Uani 1 1 d D . .
H22 H 0.2430 -0.1490 0.3322 0.056 Uiso 1 1 calc R . .
C34 C 0.1988(3) -0.1870(7) 0.2815(4) 0.035(3) Uani 1 1 d D . .
C35 C 0.1678(4) -0.1500(9) 0.2521(5) 0.060(4) Uani 1 1 d D . .
H23 H 0.1507 -0.1881 0.2318 0.072 Uiso 1 1 calc R . .
C36 C 0.1608(4) -0.0595(10) 0.2512(5) 0.053(4) Uani 1 1 d . . .
H24 H 0.1380 -0.0373 0.2316 0.063 Uiso 1 1 calc R . .
Zn3 Zn 0.17270(5) 0.13454(10) 0.26847(6) 0.0490(4) Uani 1 1 d . . .
I5 I 0.23324(3) 0.22745(7) 0.29751(4) 0.0611(3) Uani 1 1 d . . .
I6 I 0.12939(4) 0.15513(7) 0.19041(4) 0.0674(4) Uani 1 1 d . . .
O201 O 0.2212(10) -0.5224(17) 0.5999(11) 0.108(10) Uani 0.50 1 d PD . .
O202 O 0.2747(9) -0.974(2) 0.5293(13) 0.132(15) Uani 0.50 1 d PD . .
C202 C 0.2133(6) -0.7559(14) 0.5632(11) 0.068(7) Uani 0.50 1 d PDU . .
H30 H 0.1866 -0.7600 0.5630 0.081 Uiso 0.50 1 calc PR . .
C207 C 0.2111(8) -0.5962(14) 0.5856(9) 0.093(14) Uani 0.50 1 d PD . .
H31 H 0.1843 -0.6074 0.5827 0.111 Uiso 0.50 1 calc PR . .
C205 C 0.2904(6) -0.7428(16) 0.5602(11) 0.070(7) Uani 0.50 1 d PDU . .
H32 H 0.3167 -0.7381 0.5587 0.084 Uiso 0.50 1 calc PR . .
C204 C 0.2717(5) -0.8251(14) 0.5507(10) 0.070(6) Uani 0.50 1 d PDU . .
O203 O 0.3246(7) -0.909(3) 0.5397(14) 0.129(14) Uani 0.50 1 d PD . .
C201 C 0.2327(6) -0.6745(14) 0.5716(9) 0.082(14) Uani 0.50 1 d PD . .
C206 C 0.2717(6) -0.6669(15) 0.5720(9) 0.10(2) Uani 0.50 1 d PD . .
H33 H 0.2852 -0.6121 0.5799 0.124 Uiso 0.50 1 calc PR . .
C203 C 0.2337(5) -0.8309(14) 0.5550(11) 0.071(6) Uani 0.50 1 d PDU . .
H34 H 0.2214 -0.8879 0.5524 0.086 Uiso 0.50 1 calc PR . .
O101 O 0.2678(10) -0.206(2) 0.4138(10) 0.107(11) Uani 0.50 1 d P . .
C103 C 0.3000(10) -0.376(2) 0.5293(9) 0.081(8) Uani 0.50 1 d PDU . .
H25 H 0.2923 -0.4377 0.5286 0.097 Uiso 0.50 1 calc PR . .
C102 C 0.2886(12) -0.327(2) 0.4901(9) 0.119(14) Uani 0.50 1 d PDU . .
H26 H 0.2750 -0.3526 0.4626 0.142 Uiso 0.50 1 calc PR . .
C104 C 0.3219(10) -0.3432(18) 0.5696(8) 0.082(7) Uani 0.50 1 d PDU . .
C107 C 0.2858(10) -0.182(2) 0.4514(9) 0.079(12) Uani 0.50 1 d PD . .
H27 H 0.2926 -0.1201 0.4538 0.095 Uiso 0.50 1 calc PR . .
O102 O 0.3230(11) -0.471(3) 0.6085(10) 0.139(12) Uani 0.50 1 d PDU . .
C101 C 0.2985(12) -0.236(2) 0.4939(9) 0.122(14) Uani 0.50 1 d PDU . .
C105 C 0.3285(11) -0.2511(18) 0.5704(10) 0.079(7) Uani 0.50 1 d PDU . .
H28 H 0.3401 -0.2244 0.5985 0.094 Uiso 0.50 1 calc PR . .
C106 C 0.3194(12) -0.195(2) 0.5329(11) 0.123(14) Uani 0.50 1 d PDU . .
H29 H 0.3270 -0.1339 0.5339 0.148 Uiso 0.50 1 calc PR . .
N201 N 0.2910(8) -0.9041(16) 0.5397(14) 0.097(13) Uani 0.50 1 d PD . .
O103 O 0.3545(11) -0.365(3) 0.6427(10) 0.136(12) Uani 0.50 1 d PDU . .
N101 N 0.3353(12) -0.396(3) 0.6091(10) 0.129(12) Uani 0.50 1 d PDU . .

loop_
_atom_site_aniso_label
_atom_site_aniso_U_11
_atom_site_aniso_U_22
_atom_site_aniso_U_33
_atom_site_aniso_U_23
_atom_site_aniso_U_13
_atom_site_aniso_U_12
Zn1 0.0796(12) 0.0259(8) 0.0494(10) -0.0036(7) -0.0300(9) 0.0070(8)
I1 0.1332(12) 0.0379(6) 0.0828(9) 0.0014(6) -0.0186(8) -0.0168(7)
I2 0.0972(9) 0.0709(8) 0.0663(8) -0.0129(6) -0.0180(6) 0.0271(7)
N1 0.066(8) 0.039(7) 0.034(6) -0.001(5) -0.019(6) 0.007(6)
C1 0.075(11) 0.045(9) 0.072(11) -0.011(8) 0.009(9) -0.026(8)
C2 0.075(11) 0.040(9) 0.069(11) -0.012(8) 0.017(9) -0.014(8)
C3 0.042(7) 0.024(6) 0.044(7) 0.002(5) -0.013(6) 0.008(5)
C4 0.049(8) 0.042(8) 0.038(7) 0.003(6) -0.012(6) 0.006(6)
C5 0.048(8) 0.035(7) 0.040(7) 0.000(6) -0.021(6) 0.020(6)
C6 0.058(9) 0.035(8) 0.047(8) -0.005(6) -0.012(7) -0.006(7)
N2 0.052(7) 0.026(6) 0.046(7) 0.002(5) 0.000(6) 0.005(5)
C7 0.044(8) 0.048(9) 0.047(8) 0.002(7) 0.004(6) -0.008(6)
N3 0.044(6) 0.033(6) 0.060(8) -0.003(5) 0.004(6) -0.002(5)
C8 0.036(7) 0.040(7) 0.031(7) 0.007(5) 0.000(5) 0.001(5)
N4 0.039(6) 0.040(6) 0.051(7) -0.001(5) -0.004(5) 0.003(5)
N5 0.055(7) 0.036(6) 0.058(7) -0.015(6) 0.007(6) 0.000(5)
C9 0.098(14) 0.047(10) 0.090(14) -0.002(9) 0.047(12) -0.006(9)
C10 0.081(12) 0.068(12) 0.082(13) -0.004(10) 0.037(11) -0.017(10)
C11 0.040(8) 0.052(9) 0.062(9) -0.007(8) 0.005(7) 0.003(7)
C12 0.109(15) 0.035(9) 0.114(17) -0.033(10) 0.047(14) -0.022(9)
C13 0.092(14) 0.070(13) 0.14(2) -0.053(13) 0.072(15) -0.038(11)
N6 0.047(7) 0.036(6) 0.055(8) -0.002(5) -0.016(6) 0.001(5)
C14 0.061(9) 0.048(8) 0.031(7) 0.009(6) 0.002(6) -0.002(7)
C15 0.042(7) 0.050(8) 0.039(8) -0.015(6) -0.013(6) 0.000(6)
C16 0.038(7) 0.050(8) 0.039(8) 0.001(6) 0.006(6) 0.006(6)
C17 0.096(14) 0.091(14) 0.051(10) -0.033(10) 0.011(9) -0.031(12)
C18 0.076(12) 0.118(17) 0.052(10) -0.038(10) 0.026(9) -0.053(12)
Zn2 0.0434(9) 0.0411(9) 0.0511(10) 0.0062(7) -0.0116(7) -0.0027(7)
I3 0.0747(8) 0.0415(6) 0.0843(8) -0.0001(5) -0.0169(6) 0.0072(5)
I4 0.0628(7) 0.0787(8) 0.0612(7) 0.0191(6) 0.0012(5) -0.0014(6)
N7 0.045(6) 0.034(6) 0.058(7) 0.012(5) -0.014(5) -0.008(5)
C19 0.072(10) 0.019(6) 0.052(8) -0.006(6) -0.018(7) -0.007(6)
C20 0.042(7) 0.028(7) 0.069(10) 0.003(7) -0.024(7) 0.001(6)
C21 0.039(7) 0.034(7) 0.042(7) -0.002(6) -0.007(6) -0.008(5)
C22 0.085(11) 0.020(7) 0.073(11) -0.005(7) -0.037(9) 0.002(7)
C23 0.068(9) 0.029(7) 0.047(8) -0.006(6) -0.022(7) 0.000(6)
C24 0.052(8) 0.018(6) 0.051(8) -0.011(5) 0.004(6) 0.005(5)
N8 0.048(6) 0.024(5) 0.030(5) -0.004(4) -0.015(5) -0.006(4)
C25 0.062(9) 0.028(7) 0.041(7) 0.012(6) -0.009(6) -0.008(6)
N9 0.046(6) 0.021(5) 0.048(6) 0.004(5) -0.027(5) -0.004(4)
C26 0.053(8) 0.023(6) 0.023(6) 0.005(5) -0.002(5) -0.010(5)
N10 0.040(6) 0.017(5) 0.051(6) 0.001(4) -0.009(5) -0.011(4)
N11 0.067(8) 0.042(7) 0.055(8) 0.006(6) -0.014(6) 0.002(6)
C27 0.141(18) 0.042(10) 0.126(18) -0.023(11) -0.112(15) 0.010(11)
C28 0.150(19) 0.024(8) 0.117(17) -0.025(9) -0.103(15) 0.022(10)
C29 0.070(9) 0.027(7) 0.046(8) 0.006(6) -0.020(7) -0.006(6)
C30 0.059(8) 0.011(5) 0.043(7) 0.003(5) -0.010(6) -0.004(5)
C31 0.062(9) 0.022(6) 0.055(9) 0.001(6) -0.003(7) 0.009(6)
N12 0.051(7) 0.033(6) 0.052(7) -0.002(5) -0.007(6) -0.005(5)
C32 0.060(9) 0.035(7) 0.040(7) -0.008(6) -0.015(6) -0.005(6)
C33 0.061(9) 0.025(7) 0.049(8) -0.007(6) 0.001(7) 0.001(6)
C34 0.041(7) 0.026(6) 0.029(6) -0.008(5) -0.010(5) -0.009(5)
C35 0.068(10) 0.028(7) 0.068(10) 0.003(7) -0.019(8) -0.006(7)
C36 0.052(8) 0.043(8) 0.051(9) 0.011(7) -0.014(7) 0.007(6)
Zn3 0.0635(11) 0.0281(8) 0.0544(10) -0.0011(7) 0.0116(8) 0.0020(7)
I5 0.0720(7) 0.0390(6) 0.0749(8) -0.0101(5) 0.0224(6) -0.0119(5)
I6 0.0881(8) 0.0465(6) 0.0614(7) 0.0117(5) 0.0041(6) 0.0106(5)
O201 0.13(2) 0.070(19) 0.12(3) 0.002(18) 0.01(2) -0.044(18)
O202 0.11(3) 0.15(4) 0.14(3) 0.04(3) 0.03(2) 0.08(3)
C202 0.037(11) 0.107(18) 0.056(12) 0.023(13) 0.005(10) -0.020(11)
C207 0.15(4) 0.10(3) 0.016(15) 0.027(18) -0.003(19) -0.02(3)