####################################################################### 
# 
# This file contains crystal structure data downloaded from the 
# Cambridge Structural Database (CSD) hosted by the Cambridge 
# Crystallographic Data Centre (CCDC).
# 
# Full information about CCDC data access policies and citation 
# guidelines are available at http://www.ccdc.cam.ac.uk/access/V1 
# 
# Audit and citation data items may have been added by the CCDC. 
# Please retain this information to preserve the provenance of 
# this file and to allow appropriate attribution of the data. 
# 
#######################################################################

data_c2c3
_audit_block_doi                 10.5517/cczkb50
_database_code_depnum_ccdc_archive 'CCDC 910382'
loop_
_citation_id
_citation_doi
_citation_year
1 10.1038/nature11990 2013
_audit_update_record             
;
2012-11-10 deposited with the CCDC.	2024-07-12 downloaded from the CCDC.
;

_audit_creation_method           SHELXL-97
_chemical_name_systematic        
;
?
;
_chemical_name_common            ?
_chemical_melting_point          ?
_chemical_formula_moiety         'C36 H24 I6 N12 Zn3, 0.6(C15 H18)'
_chemical_formula_sum            'C45 H34.80 I6 N12 Zn3'
_chemical_formula_weight         1701.16

loop_
_atom_type_symbol
_atom_type_description
_atom_type_scat_dispersion_real
_atom_type_scat_dispersion_imag
_atom_type_scat_source
C C 0.0033 0.0016 'International Tables Vol C Tables 4.2.6.8 and 6.1.1.4'
H H 0.0000 0.0000 'International Tables Vol C Tables 4.2.6.8 and 6.1.1.4'
N N 0.0061 0.0033 'International Tables Vol C Tables 4.2.6.8 and 6.1.1.4'
Zn Zn 0.2839 1.4301 'International Tables Vol C Tables 4.2.6.8 and 6.1.1.4'
I I -0.4742 1.8119 'International Tables Vol C Tables 4.2.6.8 and 6.1.1.4'

_symmetry_cell_setting           Monoclinic
_symmetry_space_group_name_H-M   C2/c

loop_
_symmetry_equiv_pos_as_xyz
'x, y, z'
'-x, y, -z+1/2'
'x+1/2, y+1/2, z'
'-x+1/2, y+1/2, -z+1/2'
'-x, -y, -z'
'x, -y, z-1/2'
'-x+1/2, -y+1/2, -z'
'x+1/2, -y+1/2, z-1/2'

_cell_length_a                   34.644(6)
_cell_length_b                   14.879(3)
_cell_length_c                   30.836(6)
_cell_angle_alpha                90.00
_cell_angle_beta                 101.787(2)
_cell_angle_gamma                90.00
_cell_volume                     15560(5)
_cell_formula_units_Z            8
_cell_measurement_temperature    90(2)
_cell_measurement_reflns_used    9923
_cell_measurement_theta_min      2.25
_cell_measurement_theta_max      23.47

_exptl_crystal_description       rod
_exptl_crystal_colour            'dark blue'
_exptl_crystal_size_max          0.07
_exptl_crystal_size_mid          0.06
_exptl_crystal_size_min          0.06
_exptl_crystal_density_meas      'not measured'
_exptl_crystal_density_diffrn    1.452
_exptl_crystal_density_method    'not measured'
_exptl_crystal_F_000             6374
_exptl_absorpt_coefficient_mu    3.328
_exptl_absorpt_correction_type   empirical
_exptl_absorpt_correction_T_min  0.8004
_exptl_absorpt_correction_T_max  0.8253
_exptl_absorpt_process_details   SADABS

_exptl_special_details           
;
?
;

_diffrn_ambient_temperature      90(2)
_diffrn_radiation_wavelength     0.71073
_diffrn_radiation_type           MoK\a
_diffrn_radiation_source         'fine-focus sealed tube'
_diffrn_radiation_monochromator  graphite
_diffrn_measurement_device_type  'Bruker APEX-II CCD'
_diffrn_measurement_method       '\f and \w scans'
_diffrn_detector_area_resol_mean ?
_diffrn_standards_number         0
_diffrn_standards_interval_count ?
_diffrn_standards_interval_time  ?
_diffrn_standards_decay_%        ?
_diffrn_reflns_number            78799
_diffrn_reflns_av_R_equivalents  0.0424
_diffrn_reflns_av_sigmaI/netI    0.0482
_diffrn_reflns_limit_h_min       -43
_diffrn_reflns_limit_h_max       42
_diffrn_reflns_limit_k_min       -18
_diffrn_reflns_limit_k_max       18
_diffrn_reflns_limit_l_min       -38
_diffrn_reflns_limit_l_max       38
_diffrn_reflns_theta_min         1.20
_diffrn_reflns_theta_max         26.39
_reflns_number_total             15819
_reflns_number_gt                7948
_reflns_threshold_expression     >2sigma(I)

_computing_data_collection       'Bruker APEX2'
_computing_cell_refinement       'Bruker SAINT'
_computing_data_reduction        'Bruker SAINT'
_computing_structure_solution    'SHELXS-97 (Sheldrick, 1990)'
_computing_structure_refinement  'SHELXL-97 (Sheldrick, 1997)'
_computing_molecular_graphics    'Bruker SHELXTL'
_computing_publication_material  'Bruker SHELXTL'

_refine_special_details          
;
Refinement of F^2^ against ALL reflections. The weighted R-factor wR and
goodness of fit S are based on F^2^, conventional R-factors R are based
on F, with F set to zero for negative F^2^. The threshold expression of
F^2^ > 2sigma(F^2^) is used only for calculating R-factors(gt) etc. and is
not relevant to the choice of reflections for refinement. R-factors based
on F^2^ are statistically about twice as large as those based on F, and R-
factors based on ALL data will be even larger.
;

_refine_ls_structure_factor_coef Fsqd
_refine_ls_matrix_type           full
_refine_ls_weighting_scheme      calc
_refine_ls_weighting_details     
'calc w=1/[\s^2^(Fo^2^)+(0.1734P)^2^+0.0000P] where P=(Fo^2^+2Fc^2^)/3'
_atom_sites_solution_primary     direct
_atom_sites_solution_secondary   difmap
_atom_sites_solution_hydrogens   geom
_refine_ls_hydrogen_treatment    constr
_refine_ls_extinction_method     none
_refine_ls_extinction_coef       ?
_refine_ls_number_reflns         15819
_refine_ls_number_parameters     649
_refine_ls_number_restraints     75
_refine_ls_R_factor_all          0.1369
_refine_ls_R_factor_gt           0.0859
_refine_ls_wR_factor_ref         0.3021
_refine_ls_wR_factor_gt          0.2751
_refine_ls_goodness_of_fit_ref   1.097
_refine_ls_restrained_S_all      1.097
_refine_ls_shift/su_max          0.003
_refine_ls_shift/su_mean         0.000

loop_
_atom_site_label
_atom_site_type_symbol
_atom_site_fract_x
_atom_site_fract_y
_atom_site_fract_z
_atom_site_U_iso_or_equiv
_atom_site_adp_type
_atom_site_occupancy
_atom_site_symmetry_multiplicity
_atom_site_calc_flag
_atom_site_refinement_flags
_atom_site_disorder_assembly
_atom_site_disorder_group
Zn1 Zn 0.37396(4) 0.89436(10) 0.44168(5) 0.1143(7) Uani 1 1 d . . .
I1 I 0.34772(3) 0.90860(11) 0.51195(4) 0.1713(7) Uani 1 1 d . . .
I2 I 0.38888(4) 0.75416(7) 0.40549(5) 0.1825(8) Uani 1 1 d . . .
N1 N 0.3341(3) 0.9632(5) 0.3941(3) 0.086(3) Uani 1 1 d . . .
C1 C 0.3250(4) 1.0499(7) 0.4009(4) 0.117(6) Uani 1 1 d . . .
H1 H 0.3383 1.0787 0.4273 0.140 Uiso 1 1 calc R . .
C2 C 0.2973(4) 1.0984(7) 0.3714(4) 0.123(6) Uani 1 1 d . . .
H2 H 0.2934 1.1607 0.3756 0.148 Uiso 1 1 calc R . .
C3 C 0.2749(3) 1.0519(6) 0.3346(3) 0.066(3) Uani 1 1 d . . .
C4 C 0.2831(3) 0.9637(6) 0.3290(4) 0.091(4) Uani 1 1 d . . .
H3 H 0.2687 0.9315 0.3043 0.110 Uiso 1 1 calc R . .
C5 C 0.3120(3) 0.9212(7) 0.3589(4) 0.095(4) Uani 1 1 d . . .
H4 H 0.3167 0.8593 0.3546 0.114 Uiso 1 1 calc R . .
C6 C 0.2417(3) 1.0977(6) 0.3054(3) 0.063(3) Uani 1 1 d . . .
N2 N 0.2361(2) 1.1849(4) 0.3120(3) 0.063(2) Uani 1 1 d . . .
C7 C 0.2067(3) 1.2219(5) 0.2834(3) 0.052(2) Uani 1 1 d . . .
N3 N 0.1814(2) 1.1751(4) 0.2520(2) 0.0575(19) Uani 1 1 d . . .
C8 C 0.1914(2) 1.0916(5) 0.2489(3) 0.048(2) Uani 1 1 d . . .
N4 N 0.2214(2) 1.0496(4) 0.2735(2) 0.0539(19) Uani 1 1 d . . .
N5 N 0.1873(3) 1.5049(5) 0.2816(3) 0.079(3) Uani 1 1 d . . .
C9 C 0.1624(4) 1.4478(7) 0.2579(4) 0.091(4) Uani 1 1 d . . .
H5 H 0.1395 1.4723 0.2395 0.110 Uiso 1 1 calc R . .
C10 C 0.1667(4) 1.3566(6) 0.2575(5) 0.096(4) Uani 1 1 d . . .
H6 H 0.1481 1.3193 0.2388 0.115 Uiso 1 1 calc R . .
C11 C 0.1991(3) 1.3216(5) 0.2854(3) 0.065(3) Uani 1 1 d . . .
C12 C 0.2240(3) 1.3777(6) 0.3109(4) 0.072(3) Uani 1 1 d . . .
H7 H 0.2467 1.3536 0.3300 0.086 Uiso 1 1 calc R . .
C13 C 0.2182(4) 1.4683(7) 0.3105(5) 0.098(4) Uani 1 1 d . . .
H8 H 0.2357 1.5057 0.3303 0.117 Uiso 1 1 calc R . .
N6 N 0.1171(2) 0.9462(5) 0.1427(2) 0.066(2) Uani 1 1 d . . .
C14 C 0.1484(3) 0.9067(6) 0.1690(3) 0.067(3) Uani 1 1 d . . .
H9 H 0.1535 0.8452 0.1640 0.081 Uiso 1 1 calc R . .
C15 C 0.1732(3) 0.9505(5) 0.2026(3) 0.063(3) Uani 1 1 d . . .
H10 H 0.1954 0.9200 0.2194 0.075 Uiso 1 1 calc R . .
C16 C 0.1661(2) 1.0385(5) 0.2120(3) 0.048(2) Uani 1 1 d . . .
C17 C 0.1354(4) 1.0788(7) 0.1835(4) 0.124(6) Uani 1 1 d . . .
H11 H 0.1307 1.1413 0.1862 0.149 Uiso 1 1 calc R . .
C18 C 0.1116(4) 1.0306(7) 0.1517(4) 0.130(7) Uani 1 1 d . . .
H12 H 0.0892 1.0601 0.1347 0.155 Uiso 1 1 calc R . .
Zn2 Zn 0.07699(4) 0.87674(7) 0.09669(4) 0.0751(4) Uani 1 1 d . . .
I3 I 0.01897(3) 0.85289(6) 0.13383(3) 0.1089(4) Uani 1 1 d . . .
I4 I 0.11319(4) 0.75975(5) 0.06072(3) 0.1239(5) Uani 1 1 d . . .
N7 N 0.0634(3) 0.9807(5) 0.0517(3) 0.061(2) Uani 1 1 d D . .
C19 C 0.0341(3) 1.0369(6) 0.0490(3) 0.063(2) Uani 1 1 d . . .
H13 H 0.0151 1.0233 0.0663 0.075 Uiso 1 1 calc R . .
C20 C 0.0279(3) 1.1124(6) 0.0242(3) 0.059(2) Uani 1 1 d . . .
H14 H 0.0063 1.1508 0.0254 0.071 Uiso 1 1 calc R . .
C21 C 0.0533(2) 1.1318(5) -0.0022(3) 0.051(2) Uani 1 1 d . . .
C22 C 0.0837(3) 1.0716(7) -0.0034(3) 0.074(3) Uani 1 1 d . . .
H15 H 0.1011 1.0799 -0.0232 0.089 Uiso 1 1 calc R . .
C23 C 0.0876(3) 0.9989(7) 0.0253(4) 0.089(4) Uani 1 1 d D . .
H16 H 0.1093 0.9595 0.0258 0.107 Uiso 1 1 calc R . .
C24 C 0.0485(3) 1.2133(5) -0.0307(3) 0.050(2) Uani 1 1 d . . .
N8 N 0.0211(2) 1.2732(5) -0.0260(2) 0.0532(18) Uani 1 1 d . . .
C25 C 0.0173(2) 1.3432(6) -0.0545(3) 0.053(2) Uani 1 1 d D . .
N9 N 0.0392(2) 1.3577(4) -0.0840(2) 0.059(2) Uani 1 1 d D . .
C26 C 0.0673(3) 1.2973(6) -0.0849(3) 0.056(2) Uani 1 1 d . . .
N10 N 0.0739(2) 1.2228(4) -0.0585(2) 0.0522(18) Uani 1 1 d . . .
N11 N -0.0777(3) 1.5230(7) -0.0518(3) 0.099(4) Uani 1 1 d D . .
C27 C -0.0568(4) 1.5253(11) -0.0840(7) 0.146(7) Uani 1 1 d D . .
H17 H -0.0627 1.5700 -0.1063 0.175 Uiso 1 1 calc R . .
C28 C -0.0273(4) 1.4652(12) -0.0853(4) 0.134(7) Uani 1 1 d D . .
H18 H -0.0153 1.4639 -0.1104 0.160 Uiso 1 1 calc R . .
C29 C -0.0151(3) 1.4074(6) -0.0515(4) 0.070(3) Uani 1 1 d . . .
C30 C -0.0351(3) 1.4081(6) -0.0186(3) 0.062(3) Uani 1 1 d . . .
H19 H -0.0282 1.3673 0.0055 0.075 Uiso 1 1 calc R . .
C31 C -0.0645(3) 1.4655(7) -0.0197(3) 0.077(3) Uani 1 1 d D . .
H20 H -0.0772 1.4654 0.0049 0.093 Uiso 1 1 calc R . .
N12 N 0.1422(3) 1.3398(5) -0.1767(3) 0.074(2) Uani 1 1 d . . .
C32 C 0.1527(4) 1.2837(7) -0.1416(4) 0.081(3) Uani 1 1 d . . .
H21 H 0.1776 1.2548 -0.1373 0.098 Uiso 1 1 calc R . .
C33 C 0.1289(3) 1.2668(6) -0.1122(3) 0.066(3) Uani 1 1 d . . .
H22 H 0.1370 1.2257 -0.0885 0.079 Uiso 1 1 calc R . .
C34 C 0.0929(3) 1.3101(6) -0.1173(3) 0.067(3) Uani 1 1 d . . .
C35 C 0.0833(4) 1.3697(7) -0.1524(4) 0.074(3) Uani 1 1 d . . .
H23 H 0.0594 1.4030 -0.1562 0.089 Uiso 1 1 calc R . .
C36 C 0.1081(4) 1.3808(8) -0.1817(4) 0.087(3) Uani 1 1 d . . .
H24 H 0.1002 1.4196 -0.2064 0.105 Uiso 1 1 calc R . .
Zn3 Zn 0.17588(5) 1.35720(8) -0.22369(6) 0.1014(6) Uani 1 1 d . . .
I5 I 0.23902(4) 1.27213(6) -0.19774(5) 0.1509(6) Uani 1 1 d . . .
I6 I 0.13024(5) 1.33218(7) -0.29935(4) 0.1453(5) Uani 1 1 d . . .
C108 C 0.3877(6) 1.5436(10) 0.6896(5) 0.083(6) Uani 0.60 1 d PD . .
C107 C 0.3496(5) 1.5760(13) 0.6839(6) 0.080(6) Uani 0.60 1 d PD . .
H25 H 0.3451 1.6114 0.7081 0.096 Uiso 0.60 1 calc PR . .
C104 C 0.3388(6) 1.4773(13) 0.5923(6) 0.106(4) Uani 0.60 1 d PDU . .
C113 C 0.4177(7) 1.5671(12) 0.7303(6) 0.116(9) Uani 0.60 1 d PD . .
H42 H 0.4020 1.5885 0.7521 0.139 Uiso 0.60 1 calc PR . .
C109 C 0.3999(6) 1.4979(12) 0.6551(5) 0.113(9) Uani 0.60 1 d PD . .
H26 H 0.4272 1.4836 0.6617 0.136 Uiso 0.60 1 calc PR . .
C106 C 0.3166(7) 1.5674(13) 0.6500(6) 0.119(9) Uani 0.60 1 d PD . .
H27 H 0.2937 1.5966 0.6557 0.142 Uiso 0.60 1 calc PR . .
C110 C 0.3810(6) 1.4686(13) 0.6133(6) 0.100(4) Uani 0.60 1 d PDU . .
C105 C 0.3107(7) 1.5239(13) 0.6093(7) 0.109(5) Uani 0.60 1 d PDU . .
C114 C 0.4405(8) 1.6462(14) 0.7213(7) 0.118(9) Uani 0.60 1 d PD . .
H28 H 0.4224 1.6925 0.7065 0.177 Uiso 0.60 1 calc PR . .
H29 H 0.4586 1.6286 0.7022 0.177 Uiso 0.60 1 calc PR . .
H30 H 0.4557 1.6699 0.7493 0.177 Uiso 0.60 1 calc PR . .
C102 C 0.3670(6) 1.4010(16) 0.5486(8) 0.118(5) Uani 0.60 1 d PDU . .
H31 H 0.3712 1.3696 0.5232 0.142 Uiso 0.60 1 calc PR . .
C103 C 0.3306(7) 1.4367(15) 0.5508(7) 0.115(5) Uani 0.60 1 d PDU . .
H32 H 0.3064 1.4341 0.5296 0.138 Uiso 0.60 1 calc PR . .
C115 C 0.4397(10) 1.4871(18) 0.7514(12) 0.21(2) Uani 0.60 1 d PD . .
H33 H 0.4210 1.4388 0.7538 0.316 Uiso 0.60 1 calc PR . .
H34 H 0.4544 1.5032 0.7810 0.316 Uiso 0.60 1 calc PR . .
H35 H 0.4581 1.4667 0.7332 0.316 Uiso 0.60 1 calc PR . .
C111 C 0.4393(7) 1.385(2) 0.5960(11) 0.153(8) Uani 0.60 1 d PDU . .
H36 H 0.4447 1.3460 0.5722 0.229 Uiso 0.60 1 calc PR . .
H37 H 0.4446 1.3513 0.6240 0.229 Uiso 0.60 1 calc PR . .
H38 H 0.4563 1.4378 0.5986 0.229 Uiso 0.60 1 calc PR . .
C101 C 0.3971(7) 1.4133(15) 0.5855(7) 0.120(5) Uani 0.60 1 d PDU . .
C112 C 0.2724(9) 1.535(3) 0.5769(11) 0.183(14) Uani 0.60 1 d PD . .
H39 H 0.2542 1.5702 0.5905 0.275 Uiso 0.60 1 calc PR . .
H40 H 0.2609 1.4755 0.5686 0.275 Uiso 0.60 1 calc PR . .
H41 H 0.2770 1.5658 0.5504 0.275 Uiso 0.60 1 calc PR . .

loop_
_atom_site_aniso_label
_atom_site_aniso_U_11
_atom_site_aniso_U_22
_atom_site_aniso_U_33
_atom_site_aniso_U_23
_atom_site_aniso_U_13
_atom_site_aniso_U_12
Zn1 0.0913(9) 0.0867(9) 0.1229(12) 0.0600(9) -0.0764(9) -0.0506(8)
I1 0.1073(8) 0.2203(14) 0.1522(10) 0.1240(10) -0.0533(7) -0.0673(8)
I2 0.1664(11) 0.0722(6) 0.2384(15) 0.0498(7) -0.1239(11) -0.0176(6)
N1 0.077(5) 0.057(5) 0.093(6) 0.022(4) -0.054(5) -0.031(4)
C1 0.145(11) 0.052(6) 0.108(9) 0.039(6) -0.081(8) -0.036(7)
C2 0.173(13) 0.056(6) 0.091(8) 0.033(6) -0.088(9) -0.057(7)
C3 0.061(5) 0.041(5) 0.072(6) 0.016(4) -0.042(5) -0.027(4)
C4 0.078(7) 0.049(5) 0.109(8) -0.003(5) -0.070(6) -0.004(5)
C5 0.088(8) 0.046(5) 0.120(10) 0.008(6) -0.055(7) -0.025(5)
C6 0.083(6) 0.040(5) 0.055(5) 0.014(4) -0.015(5) -0.012(4)
N2 0.072(5) 0.029(3) 0.073(5) -0.002(3) -0.019(4) -0.013(3)
C7 0.060(5) 0.036(4) 0.054(5) 0.006(4) 0.003(4) -0.008(4)
N3 0.068(5) 0.033(3) 0.056(4) -0.002(3) -0.024(4) -0.006(3)
C8 0.057(5) 0.036(4) 0.046(5) 0.004(3) 0.003(4) -0.015(4)
N4 0.066(4) 0.024(3) 0.055(4) 0.008(3) -0.028(3) -0.015(3)
N5 0.091(6) 0.040(4) 0.106(7) -0.018(4) 0.022(6) -0.010(4)
C9 0.107(9) 0.042(5) 0.113(9) -0.009(6) -0.008(7) 0.016(6)
C10 0.112(9) 0.033(5) 0.124(10) -0.006(6) -0.018(8) -0.006(5)
C11 0.077(6) 0.030(4) 0.076(6) -0.001(4) -0.010(5) -0.003(4)
C12 0.070(6) 0.044(5) 0.096(8) -0.009(5) 0.002(6) -0.016(4)
C13 0.096(9) 0.052(6) 0.134(11) -0.025(7) -0.003(8) -0.012(6)
N6 0.084(5) 0.048(4) 0.048(4) -0.004(3) -0.030(4) -0.002(4)
C14 0.088(7) 0.033(4) 0.070(6) -0.004(4) -0.010(5) -0.003(4)
C15 0.078(6) 0.029(4) 0.061(5) 0.007(4) -0.033(5) -0.006(4)
C16 0.047(5) 0.034(4) 0.050(5) -0.005(3) -0.018(4) -0.006(3)
C17 0.162(12) 0.046(6) 0.107(9) -0.013(6) -0.110(9) 0.037(6)
C18 0.167(12) 0.040(5) 0.127(10) -0.034(6) -0.098(10) 0.050(7)
Zn2 0.1062(9) 0.0441(6) 0.0524(6) -0.0026(5) -0.0370(6) -0.0129(6)
I3 0.1364(8) 0.1100(7) 0.0607(5) 0.0007(4) -0.0255(5) -0.0570(6)
I4 0.2074(11) 0.0427(4) 0.0937(6) -0.0069(4) -0.0351(7) 0.0260(5)
N7 0.069(5) 0.052(4) 0.053(5) -0.005(4) -0.010(4) -0.006(4)
C19 0.072(6) 0.053(5) 0.049(5) 0.000(4) -0.019(4) 0.003(5)
C20 0.051(5) 0.066(6) 0.054(6) -0.007(5) -0.004(5) -0.001(4)
C21 0.046(5) 0.053(5) 0.039(5) -0.014(4) -0.026(4) 0.002(4)
C22 0.099(8) 0.064(6) 0.056(6) 0.005(5) 0.008(5) 0.034(6)
C23 0.104(9) 0.067(7) 0.076(8) 0.003(6) -0.029(7) 0.039(7)
C24 0.048(5) 0.043(4) 0.044(5) -0.008(4) -0.026(4) 0.011(4)
N8 0.059(4) 0.055(4) 0.034(4) -0.005(3) -0.019(3) 0.014(3)
C25 0.048(5) 0.048(5) 0.049(5) -0.010(4) -0.020(4) 0.010(4)
N9 0.073(5) 0.035(4) 0.050(4) -0.007(3) -0.028(4) 0.013(3)
C26 0.074(6) 0.045(5) 0.036(5) -0.007(4) -0.021(4) -0.001(4)
N10 0.055(4) 0.042(4) 0.045(4) -0.007(3) -0.024(4) 0.000(3)
N11 0.096(7) 0.116(8) 0.068(6) -0.025(6) -0.025(5) 0.063(6)
C27 0.095(11) 0.144(14) 0.165(17) 0.008(12) -0.050(11) 0.078(10)
C28 0.129(11) 0.203(17) 0.061(7) 0.006(9) 0.001(7) 0.121(12)
C29 0.075(7) 0.051(5) 0.065(7) -0.007(5) -0.032(6) 0.012(5)
C30 0.063(6) 0.055(5) 0.052(6) -0.017(4) -0.027(5) 0.010(4)
C31 0.065(6) 0.092(8) 0.063(6) -0.022(6) -0.015(5) 0.019(6)
N12 0.119(8) 0.032(4) 0.073(6) 0.004(4) 0.022(5) -0.003(4)
C32 0.091(8) 0.060(6) 0.096(9) -0.004(6) 0.025(7) 0.026(6)
C33 0.088(7) 0.062(6) 0.043(5) 0.007(4) 0.004(5) 0.015(5)
C34 0.096(7) 0.040(5) 0.054(6) -0.005(4) -0.007(5) 0.010(5)
C35 0.087(8) 0.061(6) 0.064(6) 0.014(5) -0.012(6) 0.015(5)
C36 0.112(10) 0.062(7) 0.080(8) 0.002(6) -0.001(8) -0.001(7)
Zn3 0.1516(14) 0.0323(6) 0.1344(13) 0.0054(7) 0.0627(11) -0.0017(7)
I5 0.1803(11) 0.0576(5) 0.2495(15) 0.0630(7) 0.1253(11) 0.0478(6)
I6 0.2506(15) 0.0711(6) 0.1253(9) -0.0313(6) 0.0645(9) -0.0385(7)
C108 0.17(2) 0.041(9) 0.052(11) 0.004(8) 0.053(13) 0.003(11)
C107 0.125(17) 0.073(12) 0.045(10) 0.018(9) 0.022(11) -0.018(12)
C104 0.162(10) 0.070(7) 0.092(8) -0.003(6) 0.038(8) -0.020(8)
C113 0.23(3) 0.062(12) 0.046(10) 0.022(9) -0.001(14) -0.012(15)
C109 0.128(18) 0.083(14) 0.112(18) 0.048(14) -0.017(15) -0.053(13)
C106 0.17(3) 0.055(12) 0.14(2) 0.031(13) 0.05(2) 0.008(14)
C110 0.153(10) 0.064(7) 0.09