####################################################################### 
# 
# This file contains crystal structure data downloaded from the 
# Cambridge Structural Database (CSD) hosted by the Cambridge 
# Crystallographic Data Centre (CCDC).
# 
# Full information about CCDC data access policies and citation 
# guidelines are available at http://www.ccdc.cam.ac.uk/access/V1 
# 
# Audit and citation data items may have been added by the CCDC. 
# Please retain this information to preserve the provenance of 
# this file and to allow appropriate attribution of the data. 
# 
#######################################################################

data_c2c6
_audit_block_doi                 10.5517/cczkb83
_database_code_depnum_ccdc_archive 'CCDC 910385'
loop_
_citation_id
_citation_doi
_citation_year
1 10.1038/nature11990 2013
_audit_update_record             
;
2012-11-10 deposited with the CCDC.	2024-07-12 downloaded from the CCDC.
;

_audit_creation_method           SHELXL-97
_chemical_name_systematic        
;
?
;
_chemical_name_common            ?
_chemical_melting_point          ?
_chemical_formula_moiety         'C36 H24 I6 N12 Zn3, 0.76(C12 H19 N)'
_chemical_formula_sum            'C45.07 H38.36 I6 N12.76 Zn3'
_chemical_formula_weight         1716.27

loop_
_atom_type_symbol
_atom_type_description
_atom_type_scat_dispersion_real
_atom_type_scat_dispersion_imag
_atom_type_scat_source
C C 0.0033 0.0016 'International Tables Vol C Tables 4.2.6.8 and 6.1.1.4'
H H 0.0000 0.0000 'International Tables Vol C Tables 4.2.6.8 and 6.1.1.4'
N N 0.0061 0.0033 'International Tables Vol C Tables 4.2.6.8 and 6.1.1.4'
Zn Zn 0.2839 1.4301 'International Tables Vol C Tables 4.2.6.8 and 6.1.1.4'
I I -0.4742 1.8119 'International Tables Vol C Tables 4.2.6.8 and 6.1.1.4'

_symmetry_cell_setting           Monoclinic
_symmetry_space_group_name_H-M   C2/c

loop_
_symmetry_equiv_pos_as_xyz
'x, y, z'
'-x, y, -z+1/2'
'x+1/2, y+1/2, z'
'-x+1/2, y+1/2, -z+1/2'
'-x, -y, -z'
'x, -y, z-1/2'
'-x+1/2, -y+1/2, -z'
'x+1/2, -y+1/2, z-1/2'

_cell_length_a                   35.752(9)
_cell_length_b                   14.774(4)
_cell_length_c                   30.594(7)
_cell_angle_alpha                90.00
_cell_angle_beta                 101.647(4)
_cell_angle_gamma                90.00
_cell_volume                     15828(7)
_cell_formula_units_Z            8
_cell_measurement_temperature    90(2)
_cell_measurement_reflns_used    9896
_cell_measurement_theta_min      2.22
_cell_measurement_theta_max      26.37

_exptl_crystal_description       rod
_exptl_crystal_colour            brown
_exptl_crystal_size_max          0.06
_exptl_crystal_size_mid          0.05
_exptl_crystal_size_min          0.04
_exptl_crystal_density_meas      'not measured'
_exptl_crystal_density_diffrn    1.441
_exptl_crystal_density_method    'not measured'
_exptl_crystal_F_000             6452
_exptl_absorpt_coefficient_mu    3.273
_exptl_absorpt_correction_type   empirical
_exptl_absorpt_correction_T_min  0.8278
_exptl_absorpt_correction_T_max  0.8802
_exptl_absorpt_process_details   SADABS

_exptl_special_details           
;
?
;

_diffrn_ambient_temperature      90(2)
_diffrn_radiation_wavelength     0.71073
_diffrn_radiation_type           MoK\a
_diffrn_radiation_source         'fine-focus sealed tube'
_diffrn_radiation_monochromator  graphite
_diffrn_measurement_device_type  'Bruker APEX-II CCD'
_diffrn_measurement_method       '\f and \w scans'
_diffrn_detector_area_resol_mean ?
_diffrn_standards_number         0
_diffrn_standards_interval_count ?
_diffrn_standards_interval_time  ?
_diffrn_standards_decay_%        ?
_diffrn_reflns_number            73230
_diffrn_reflns_av_R_equivalents  0.0459
_diffrn_reflns_av_sigmaI/netI    0.0424
_diffrn_reflns_limit_h_min       -44
_diffrn_reflns_limit_h_max       44
_diffrn_reflns_limit_k_min       -18
_diffrn_reflns_limit_k_max       18
_diffrn_reflns_limit_l_min       -38
_diffrn_reflns_limit_l_max       38
_diffrn_reflns_theta_min         1.16
_diffrn_reflns_theta_max         26.62
_reflns_number_total             16106
_reflns_number_gt                11927
_reflns_threshold_expression     >2sigma(I)

_computing_data_collection       'Bruker APEX2'
_computing_cell_refinement       'Bruker SAINT'
_computing_data_reduction        'Bruker SAINT'
_computing_structure_solution    'SHELXS-97 (Sheldrick, 1990)'
_computing_structure_refinement  'SHELXL-97 (Sheldrick, 1997)'
_computing_molecular_graphics    'Bruker SHELXTL'
_computing_publication_material  'Bruker SHELXTL'

_refine_special_details          
;
Refinement of F^2^ against ALL reflections. The weighted R-factor wR and
goodness of fit S are based on F^2^, conventional R-factors R are based
on F, with F set to zero for negative F^2^. The threshold expression of
F^2^ > 2sigma(F^2^) is used only for calculating R-factors(gt) etc. and is
not relevant to the choice of reflections for refinement. R-factors based
on F^2^ are statistically about twice as large as those based on F, and R-
factors based on ALL data will be even larger.
;

_refine_ls_structure_factor_coef Fsqd
_refine_ls_matrix_type           full
_refine_ls_weighting_scheme      calc
_refine_ls_weighting_details     
'calc w=1/[\s^2^(Fo^2^)+(0.2000P)^2^+0.0000P] where P=(Fo^2^+2Fc^2^)/3'
_atom_sites_solution_primary     direct
_atom_sites_solution_secondary   difmap
_atom_sites_solution_hydrogens   geom
_refine_ls_hydrogen_treatment    constr
_refine_ls_extinction_method     none
_refine_ls_extinction_coef       ?
_refine_ls_number_reflns         16106
_refine_ls_number_parameters     632
_refine_ls_number_restraints     182
_refine_ls_R_factor_all          0.1353
_refine_ls_R_factor_gt           0.1182
_refine_ls_wR_factor_ref         0.3520
_refine_ls_wR_factor_gt          0.3431
_refine_ls_goodness_of_fit_ref   1.415
_refine_ls_restrained_S_all      1.410
_refine_ls_shift/su_max          0.001
_refine_ls_shift/su_mean         0.000

loop_
_atom_site_label
_atom_site_type_symbol
_atom_site_fract_x
_atom_site_fract_y
_atom_site_fract_z
_atom_site_U_iso_or_equiv
_atom_site_adp_type
_atom_site_occupancy
_atom_site_symmetry_multiplicity
_atom_site_calc_flag
_atom_site_refinement_flags
_atom_site_disorder_assembly
_atom_site_disorder_group
Zn1 Zn 0.16637(4) 0.35698(9) 0.27546(5) 0.0325(4) Uani 1 1 d . . .
I1 I 0.22655(3) 0.26034(6) 0.29400(3) 0.0435(3) Uani 1 1 d . . .
I2 I 0.11781(3) 0.33581(7) 0.20235(3) 0.0486(3) Uani 1 1 d . . .
N1 N 0.1361(3) 0.3420(7) 0.3259(4) 0.034(2) Uani 1 1 d U . .
C1 C 0.1116(4) 0.4014(9) 0.3321(5) 0.045(3) Uani 1 1 d D . .
H1 H 0.1089 0.4545 0.3142 0.054 Uiso 1 1 calc R . .
C2 C 0.0892(4) 0.3925(9) 0.3629(4) 0.045(3) Uani 1 1 d D . .
H2 H 0.0714 0.4387 0.3660 0.053 Uiso 1 1 calc R . .
C3 C 0.0922(3) 0.3171(6) 0.3895(4) 0.029(2) Uani 1 1 d D . .
C4 C 0.1202(3) 0.2556(8) 0.3858(4) 0.036(3) Uani 1 1 d DU . .
H3 H 0.1242 0.2039 0.4047 0.043 Uiso 1 1 calc R . .
C5 C 0.1425(4) 0.2695(8) 0.3545(4) 0.036(2) Uani 1 1 d DU . .
H4 H 0.1626 0.2284 0.3527 0.044 Uiso 1 1 calc R . .
C6 C 0.0651(3) 0.3004(7) 0.4206(3) 0.030(3) Uani 1 1 d D . .
N2 N 0.0377(3) 0.3613(6) 0.4207(3) 0.028(2) Uani 1 1 d U . .
C7 C 0.0157(3) 0.3437(6) 0.4503(4) 0.029(2) Uani 1 1 d DU . .
N3 N 0.0202(3) 0.2754(6) 0.4794(3) 0.029(2) Uani 1 1 d DU . .
C8 C 0.0485(3) 0.2189(7) 0.4767(4) 0.028(2) Uani 1 1 d D . .
N4 N 0.0722(3) 0.2290(6) 0.4480(3) 0.035(2) Uani 1 1 d D . .
N5 N -0.0808(3) 0.5122(7) 0.4411(3) 0.037(2) Uani 1 1 d D . .
C9 C -0.0650(3) 0.4741(7) 0.4800(3) 0.030(3) Uani 1 1 d D . .
H5 H -0.0757 0.4869 0.5053 0.036 Uiso 1 1 calc R . .
C10 C -0.0340(3) 0.4171(7) 0.4851(4) 0.029(2) Uani 1 1 d D . .
H6 H -0.0236 0.3885 0.5127 0.035 Uiso 1 1 calc R . .
C11 C -0.0187(3) 0.4041(7) 0.4468(3) 0.027(2) Uani 1 1 d D . .
C12 C -0.0349(3) 0.4400(8) 0.4064(4) 0.038(3) Uani 1 1 d D . .
H7 H -0.0247 0.4293 0.3805 0.045 Uiso 1 1 calc R . .
C13 C -0.0664(3) 0.4921(11) 0.4053(3) 0.048(4) Uani 1 1 d D . .
H8 H -0.0791 0.5156 0.3773 0.057 Uiso 1 1 calc R . .
Zn2 Zn -0.12545(4) 0.60510(10) 0.43032(5) 0.0312(3) Uani 1 1 d . . .
I3 I -0.10284(3) 0.73414(6) 0.38619(4) 0.0488(3) Uani 1 1 d . . .
I4 I -0.15259(3) 0.62474(9) 0.49908(4) 0.0600(3) Uani 1 1 d . . .
N6 N 0.0631(3) -0.0183(7) 0.5580(4) 0.033(2) Uani 1 1 d . . .
C14 C 0.0890(4) 0.0088(10) 0.5354(5) 0.046(4) Uani 1 1 d . . .
H9 H 0.1108 -0.0286 0.5367 0.055 Uiso 1 1 calc R . .
C15 C 0.0870(3) 0.0873(9) 0.5100(4) 0.037(3) Uani 1 1 d D . .
H10 H 0.1075 0.1055 0.4966 0.044 Uiso 1 1 calc R . .
C16 C 0.0540(3) 0.1378(7) 0.5051(4) 0.030(3) Uani 1 1 d D . .
C17 C 0.0262(3) 0.1137(9) 0.5280(4) 0.036(3) Uani 1 1 d D . .
H11 H 0.0041 0.1501 0.5273 0.043 Uiso 1 1 calc R . .
C18 C 0.0320(3) 0.0320(8) 0.5529(4) 0.033(3) Uani 1 1 d . . .
H12 H 0.0120 0.0119 0.5668 0.040 Uiso 1 1 calc R . .
Zn3 Zn 0.07443(4) -0.13116(9) 0.59999(5) 0.0296(3) Uani 1 1 d . . .
I5 I 0.10832(3) -0.24180(6) 0.55794(3) 0.0408(3) Uani 1 1 d . . .
I6 I 0.01634(3) -0.15541(6) 0.63386(3) 0.0405(3) Uani 1 1 d . . .
N7 N 0.1148(3) -0.0644(6) 0.6489(3) 0.032(2) Uani 1 1 d DU . .
C19 C 0.1047(3) 0.0168(6) 0.6613(4) 0.034(2) Uani 1 1 d DU . .
H13 H 0.0802 0.0399 0.6484 0.041 Uiso 1 1 calc R . .
C20 C 0.1289(3) 0.0684(8) 0.6925(4) 0.037(2) Uani 1 1 d DU . .
H14 H 0.1210 0.1263 0.7007 0.044 Uiso 1 1 calc R . .
C21 C 0.1640(4) 0.0356(8) 0.7112(4) 0.033(2) Uani 1 1 d U . .
C22 C 0.1740(3) -0.0528(8) 0.6993(4) 0.033(2) Uani 1 1 d DU . .
H15 H 0.1978 -0.0790 0.7129 0.040 Uiso 1 1 calc R . .
C23 C 0.1484(3) -0.0994(7) 0.6676(4) 0.030(2) Uani 1 1 d DU . .
H16 H 0.1549 -0.1581 0.6590 0.036 Uiso 1 1 calc R . .
C24 C 0.1912(3) 0.0908(6) 0.7441(4) 0.031(3) Uani 1 1 d D . .
N8 N 0.1805(3) 0.1760(6) 0.7489(3) 0.032(2) Uani 1 1 d D . .
C25 C 0.2051(3) 0.2207(7) 0.7802(3) 0.025(2) Uani 1 1 d D . .
N9 N 0.2360(3) 0.1892(6) 0.8076(3) 0.034(2) Uani 1 1 d D . .
C26 C 0.2428(3) 0.1025(7) 0.7995(4) 0.031(3) Uani 1 1 d D . .
N10 N 0.2227(3) 0.0495(6) 0.7668(3) 0.029(2) Uani 1 1 d . . .
N11 N 0.1801(3) 0.5056(7) 0.7793(3) 0.038(2) Uani 1 1 d D . .
C27 C 0.2118(3) 0.4740(7) 0.8055(4) 0.035(3) Uani 1 1 d D . .
H17 H 0.2292 0.5150 0.8229 0.042 Uiso 1 1 calc R . .
C28 C 0.2195(3) 0.3833(6) 0.8079(4) 0.031(3) Uani 1 1 d D . .
H18 H 0.2416 0.3623 0.8279 0.037 Uiso 1 1 calc R . .
C29 C 0.1960(3) 0.3215(7) 0.7820(4) 0.031(2) Uani 1 1 d DU . .
C30 C 0.1639(3) 0.3562(7) 0.7543(4) 0.040(3) Uani 1 1 d DU . .
H19 H 0.1468 0.3167 0.7355 0.048 Uiso 1 1 calc R . .
C31 C 0.1566(4) 0.4477(6) 0.7538(5) 0.042(3) Uani 1 1 d DU . .
H20 H 0.1342 0.4703 0.7348 0.050 Uiso 1 1 calc R . .
N12 N 0.3336(3) -0.0351(5) 0.8843(3) 0.033(2) Uani 1 1 d DU . .
C32 C 0.3130(3) -0.0770(7) 0.8490(4) 0.041(3) Uani 1 1 d D . .
H21 H 0.3191 -0.1374 0.8424 0.049 Uiso 1 1 calc R . .
C33 C 0.2831(3) -0.0339(6) 0.8221(4) 0.039(3) Uani 1 1 d D . .
H22 H 0.2672 -0.0657 0.7984 0.047 Uiso 1 1 calc R . .
C34 C 0.2762(3) 0.0558(6) 0.8295(3) 0.025(2) Uani 1 1 d D . .
C35 C 0.2988(3) 0.0999(8) 0.8645(4) 0.038(3) Uani 1 1 d DU . .
H23 H 0.2946 0.1620 0.8699 0.045 Uiso 1 1 calc R . .
C36 C 0.3276(3) 0.0529(6) 0.8919(4) 0.038(2) Uani 1 1 d DU . .
H24 H 0.3435 0.0829 0.9162 0.045 Uiso 1 1 calc R . .
C101 C 0.1463(4) 0.0292(12) 0.3484(4) 0.042(4) Uani 0.756(16) 1 d PDU A 1
C102 C 0.1648(4) 0.0113(12) 0.3922(4) 0.046(4) Uani 0.756(16) 1 d PDU A 1
C103 C 0.1421(4) -0.0128(13) 0.4224(4) 0.048(4) Uani 0.756(16) 1 d PDU A 1
H34 H 0.1540 -0.0221 0.4528 0.058 Uiso 0.756(16) 1 calc PR A 1
C104 C 0.1028(4) -0.024(2) 0.4099(5) 0.076(8) Uani 0.756(16) 1 d PD A 1
H35 H 0.0882 -0.0469 0.4301 0.091 Uiso 0.756(16) 1 calc PR A 1
C105 C 0.0858(4) 0.000(2) 0.3666(5) 0.084(9) Uani 0.756(16) 1 d PD A 1
H36 H 0.0587 0.0019 0.3586 0.101 Uiso 0.756(16) 1 calc PR A 1
C107 C 0.2078(6) 0.0146(12) 0.4067(6) 0.051(5) Uani 0.756(16) 1 d PDU A 1
H51 H 0.2187 -0.0109 0.3816 0.062 Uiso 0.756(16) 1 calc PR A 1
C108 C 0.2232(7) 0.1105(15) 0.4147(9) 0.076(8) Uani 0.756(16) 1 d PD A 1
H37 H 0.2511 0.1088 0.4235 0.114 Uiso 0.756(16) 1 calc PR A 1
H38 H 0.2126 0.1386 0.4386 0.114 Uiso 0.756(16) 1 calc PR A 1
H39 H 0.2157 0.1460 0.3873 0.114 Uiso 0.756(16) 1 calc PR A 1
C109 C 0.2252(8) -0.0432(17) 0.4501(8) 0.075(6) Uani 0.756(16) 1 d PDU A 1
H40 H 0.2532 -0.0383 0.4563 0.113 Uiso 0.756(16) 1 calc PR A 1
H41 H 0.2178 -0.1067 0.4451 0.113 Uiso 0.756(16) 1 calc PR A 1
H42 H 0.2155 -0.0199 0.4756 0.113 Uiso 0.756(16) 1 calc PR A 1
C110 C 0.0852(6) 0.0461(14) 0.2872(8) 0.068(6) Uani 0.756(16) 1 d PDU A 1
H52 H 0.1044 0.0420 0.2675 0.082 Uiso 0.756(16) 1 calc PR A 1
C111 C 0.0661(11) 0.1400(14) 0.2780(13) 0.123(17) Uani 0.756(16) 1 d PD A 1
H43 H 0.0534 0.1440 0.2466 0.185 Uiso 0.756(16) 1 calc PR A 1
H44 H 0.0856 0.1874 0.2847 0.185 Uiso 0.756(16) 1 calc PR A 1
H45 H 0.0473 0.1481 0.2969 0.185 Uiso 0.756(16) 1 calc PR A 1
C106 C 0.1068(4) 0.0224(16) 0.3344(4) 0.062(6) Uani 0.756(16) 1 d PD A 1
C112 C 0.0535(8) -0.0212(17) 0.2681(9) 0.096(8) Uani 0.756(16) 1 d PDU A 1
H46 H 0.0408 -0.0018 0.2382 0.144 Uiso 0.756(16) 1 calc PR A 1
H47 H 0.0348 -0.0234 0.2876 0.144 Uiso 0.756(16) 1 calc PR A 1
H48 H 0.0646 -0.0815 0.2665 0.144 Uiso 0.756(16) 1 calc PR A 1
N101 N 0.1684(5) 0.0494(14) 0.3180(5) 0.059(5) Uani 0.756(16) 1 d PDU A 1
H49 H 0.1577 0.0580 0.2898 0.071 Uiso 0.756(16) 1 calc PR A 1
H50 H 0.1934 0.0538 0.3266 0.071 Uiso 0.756(16) 1 calc PR A 1

loop_
_atom_site_aniso_label
_atom_site_aniso_U_11
_atom_site_aniso_U_22
_atom_site_aniso_U_33
_atom_site_aniso_U_23
_atom_site_aniso_U_13
_atom_site_aniso_U_12
Zn1 0.0420(8) 0.0182(7) 0.0373(8) 0.0040(5) 0.0079(6) -0.0009(6)
I1 0.0495(6) 0.0305(5) 0.0541(6) 0.0131(4) 0.0187(4) 0.0102(4)
I2 0.0639(7) 0.0375(5) 0.0394(5) -0.0049(4) -0.0014(4) -0.0040(4)
N1 0.038(5) 0.022(5) 0.034(5) 0.007(4) -0.007(4) -0.001(4)
C1 0.052(8) 0.026(7) 0.058(9) 0.020(6) 0.012(7) 0.008(6)
C2 0.044(8) 0.045(8) 0.038(7) 0.004(6) -0.008(6) -0.002(6)
C3 0.031(6) 0.020(6) 0.032(6) -0.003(5) -0.001(5) -0.008(5)
C4 0.048(6) 0.026(5) 0.035(6) 0.011(5) 0.011(5) 0.007(5)
C5 0.044(6) 0.022(5) 0.042(5) 0.007(4) 0.006(5) 0.003(4)
C6 0.033(6) 0.029(6) 0.022(5) 0.009(5) -0.008(5) 0.009(5)
N2 0.033(5) 0.010(4) 0.037(5) 0.003(3) -0.002(4) 0.000(4)
C7 0.033(5) 0.013(4) 0.036(5) -0.001(4) -0.005(4) -0.002(4)
N3 0.031(5) 0.019(4) 0.033(5) 0.004(4) -0.004(4) 0.002(4)
C8 0.025(6) 0.016(5) 0.039(6) 0.004(5) -0.005(5) 0.006(4)
N4 0.047(6) 0.012(5) 0.044(6) 0.002(4) 0.007(5) 0.000(4)
N5 0.046(6) 0.022(5) 0.040(6) 0.009(4) 0.003(5) 0.004(4)
C9 0.035(6) 0.018(5) 0.032(6) 0.004(5) -0.005(5) 0.009(5)
C10 0.035(6) 0.024(6) 0.025(5) -0.001(4) -0.001(5) -0.007(5)
C11 0.019(5) 0.023(6) 0.035(6) -0.010(5) -0.002(5) -0.004(4)
C12 0.045(7) 0.025(6) 0.042(7) 0.009(5) 0.007(6) 0.012(5)
C13 0.038(7) 0.067(10) 0.026(6) -0.005(6) -0.024(6) 0.025(7)
Zn2 0.0275(7) 0.0282(7) 0.0340(7) -0.0058(6) -0.0028(6) -0.0007(5)
I3 0.0490(6) 0.0327(5) 0.0620(6) 0.0048(4) 0.0050(5) -0.0049(4)
I4 0.0516(6) 0.0847(8) 0.0444(6) -0.0199(5) 0.0111(5) -0.0104(5)
N6 0.034(6) 0.023(5) 0.037(6) -0.001(4) -0.004(4) -0.007(4)
C14 0.035(7) 0.040(8) 0.056(9) 0.027(7) -0.006(6) -0.001(6)
C15 0.027(6) 0.044(8) 0.036(7) 0.013(6) -0.003(5) 0.003(5)
C16 0.032(6) 0.021(6) 0.030(6) -0.004(5) -0.006(5) -0.005(5)
C17 0.040(7) 0.029(6) 0.033(6) 0.009(5) -0.002(5) 0.003(5)
C18 0.023(6) 0.028(6) 0.044(7) 0.017(5) -0.008(5) -0.004(5)
Zn3 0.0334(8) 0.0201(7) 0.0297(7) 0.0004(5) -0.0070(6) -0.0031(5)
I5 0.0480(5) 0.0257(4) 0.0459(5) -0.0033(3) 0.0027(4) -0.0001(3)
I6 0.0438(5) 0.0388(5) 0.0361(5) 0.0017(3) 0.0015(4) -0.0100(4)
N7 0.038(5) 0.018(4) 0.033(4) -0.002(3) -0.011(4) -0.007(4)
C19 0.033(5) 0.017(4) 0.044(5) -0.003(4) -0.016(4) 0.002(4)
C20 0.034(5) 0.017(5) 0.050(6) -0.002(4) -0.013(5) -0.001(4)
C21 0.036(5) 0.020(5) 0.036(5) 0.008(4) -0.011(4) -0.005(4)
C22 0.041(5) 0.019(5) 0.034(5) -0.005(4) -0.006(4) -0.004(4)
C23 0.038(5) 0.012(4) 0.035(5) -0.001(4) -0.004(4) -0.005(4)
C24 0.038(7) 0.022(6) 0.030(6) 0.001(5) 0.000(5) -0.005(5)
N8 0.029(5) 0.031(5) 0.031(5) -0.011(4) -0.004(4) -0.003(4)
C25 0.028(6) 0.016(5) 0.033(6) 0.002(4) 0.008(5) -0.005(4)
N9 0.041(6) 0.022(5) 0.035(5) 0.003(4) 0.001(5) -0.005(4)
C26 0.028(6) 0.030(6) 0.029(6) -0.011(5) -0.008(5) 0.001(5)
N10 0.027(5) 0.015(4) 0.038(5) 0.004(4) -0.009(4) -0.002(4)
N11 0.039(6) 0.039(6) 0.037(6) -0.004(5) 0.006(5) 0.009(5)
C27 0.029(6) 0.037(7) 0.036(7) -0.004(5) 0.003(5) 0.002(5)
C28 0.032(6) 0.026(6) 0.029(6) 0.008(5) -0.004(5) -0.002(5)
C29 0.034(6) 0.015(5) 0.041(6) -0.001(4) -0.003(5) 0.003(4)
C30 0.044(6) 0.019(5) 0.049(6) -0.003(4) -0.010(5) 0.002(4)
C31 0.045(6) 0.022(5) 0.049(6) -0.013(5) -0.012(5) 0.001(5)
N12 0.038(5) 0.016(4) 0.042(5) -0.003(4) -0.004(4) -0.001(4)
C32 0.041(7) 0.018(6) 0.061(9) 0.007(6) 0.004(6) 0.005(5)
C33 0.038(7) 0.025(6) 0.047(8) 0.000(5) -0.011(6) -0.010(5)
C34 0.029(6) 0.010(5) 0.032(6) 0.001(4) -0.003(5) -0.005(4)
C35 0.040(6) 0.028(6) 0.036(6) 0.004(5) -0.011(5) 0.001(5)
C36 0.042(5) 0.023(5) 0.040(5) -0.004(4) -0.008(5) 0.002(4)
C101 0.050(8) 0.036(7) 0.050(7) -0.007(6) 0.032(6) 0.003(6)
C102 0.054(8) 0.036(7) 0.057(7) -0.003(6) 0.030(7) 0.006(6)
C103 0.059(9) 0.040(8) 0.050(8) 0.000(7) 0.024(8) 0.002(7)
C104 0.085(18) 0.09(2) 0.059(14) 0.012(14) 0.038(14) -0.008(15)
C105 0.064(16) 0.13(3) 0.062(16) -0.015(16) 0.014(13) 0.008(16)
C107 0.058(11) 0.044(10) 0.049(10) 0.001(8) 0.004(8) 0.014(8)
C108 0.045(13) 0.11(2) 0.084(18) 0.031(16) 0.032(12) -0.001(13)
C109 0.083(13) 0.053(11) 0.082(13) 0.014(10) -0.001(11) 0.002(10)
C110 0.071(14) 0.076(15) 0.063(12) -0.021(11) 0.029(11) -0.036(12)
C111 0.17(4) 0.043(16) 0.12(3) 0.007(16) -0.07(3) -0.015(18)
C106 0.074(15) 0.078(16) 0.046(12) -0.011(11) 0.043(11) -0.011(12)
C112 0.100(17) 0.102(18) 0.076(15) -0.022(14) -0.005(13) -0.034(15)
N101 0.049(9) 0.089(12) 0.041(8) -0.009(8) 0.013(7) -0.025(9)

_geom_special_details            
;
All esds (except the esd in the dihedral angle between two l.s. planes