####################################################################### 
# 
# This file contains crystal structure data downloaded from the 
# Cambridge Structural Database (CSD) hosted by the Cambridge 
# Crystallographic Data Centre (CCDC).
# 
# Full information about CCDC data access policies and citation 
# guidelines are available at http://www.ccdc.cam.ac.uk/access/V1 
# 
# Audit and citation data items may have been added by the CCDC. 
# Please retain this information to preserve the provenance of 
# this file and to allow appropriate attribution of the data. 
# 
#######################################################################

data_c2c-sr
_audit_block_doi                 10.5517/cczkb3y
_database_code_depnum_ccdc_archive 'CCDC 910380'
loop_
_citation_id
_citation_doi
_citation_year
1 10.1038/nature11990 2013
_audit_update_record             
;
2012-11-10 deposited with the CCDC.	2024-07-12 downloaded from the CCDC.
;

_audit_creation_method           SHELXL-97
_chemical_name_systematic        
;
?
;
_chemical_name_common            ?
_chemical_melting_point          ?
_chemical_formula_moiety         
'C39 H24 Co1.5 N15 S3 0.5(C6 H10 O) 0.5(C6 H10 O)'
_chemical_formula_sum            'C45 H34 Co1.50 N15 O S3'
_chemical_formula_weight         985.45

loop_
_atom_type_symbol
_atom_type_description
_atom_type_scat_dispersion_real
_atom_type_scat_dispersion_imag
_atom_type_scat_source
C C 0.0033 0.0016 'International Tables Vol C Tables 4.2.6.8 and 6.1.1.4'
H H 0.0000 0.0000 'International Tables Vol C Tables 4.2.6.8 and 6.1.1.4'
N N 0.0061 0.0033 'International Tables Vol C Tables 4.2.6.8 and 6.1.1.4'
S S 0.1246 0.1234 'International Tables Vol C Tables 4.2.6.8 and 6.1.1.4'
Co Co 0.3494 0.9721 'International Tables Vol C Tables 4.2.6.8 and 6.1.1.4'
O O 0.0106 0.0060 'International Tables Vol C Tables 4.2.6.8 and 6.1.1.4'

_symmetry_cell_setting           Monoclinic
_symmetry_space_group_name_H-M   'C2/m '

loop_
_symmetry_equiv_pos_as_xyz
'x, y, z'
'-x, y, -z'
'x+1/2, y+1/2, z'
'-x+1/2, y+1/2, -z'
'-x, -y, -z'
'x, -y, z'
'-x+1/2, -y+1/2, -z'
'x+1/2, -y+1/2, z'

_cell_length_a                   37.318(6)
_cell_length_b                   37.293(6)
_cell_length_c                   26.388(5)
_cell_angle_alpha                90.00
_cell_angle_beta                 134.988(2)
_cell_angle_gamma                90.00
_cell_volume                     25974(8)
_cell_formula_units_Z            8
_cell_measurement_temperature    93(2)
_cell_measurement_reflns_used    7610
_cell_measurement_theta_min      2.38
_cell_measurement_theta_max      24.87

_exptl_crystal_description       cubic
_exptl_crystal_colour            orange
_exptl_crystal_size_max          0.28
_exptl_crystal_size_mid          0.28
_exptl_crystal_size_min          0.20
_exptl_crystal_density_meas      ?
_exptl_crystal_density_diffrn    0.504
_exptl_crystal_density_method    'not measured'
_exptl_crystal_F_000             4044
_exptl_absorpt_coefficient_mu    0.261
_exptl_absorpt_correction_type   empirical
_exptl_absorpt_correction_T_min  0.9305
_exptl_absorpt_correction_T_max  0.9496
_exptl_absorpt_process_details   SADABS

_exptl_special_details           
;
?
;

_diffrn_ambient_temperature      93(2)
_diffrn_radiation_wavelength     0.71073
_diffrn_radiation_type           MoK\a
_diffrn_radiation_source         'fine-focus sealed tube'
_diffrn_radiation_monochromator  graphite
_diffrn_measurement_device_type  'CCD area detector'
_diffrn_measurement_method       'phi and omega scans'
_diffrn_detector_area_resol_mean ?
_diffrn_standards_number         ?
_diffrn_standards_interval_count ?
_diffrn_standards_interval_time  ?
_diffrn_standards_decay_%        ?
_diffrn_reflns_number            121811
_diffrn_reflns_av_R_equivalents  0.0718
_diffrn_reflns_av_sigmaI/netI    0.0738
_diffrn_reflns_limit_h_min       -44
_diffrn_reflns_limit_h_max       44
_diffrn_reflns_limit_k_min       -44
_diffrn_reflns_limit_k_max       44
_diffrn_reflns_limit_l_min       -31
_diffrn_reflns_limit_l_max       31
_diffrn_reflns_theta_min         0.95
_diffrn_reflns_theta_max         25.00
_reflns_number_total             23220
_reflns_number_gt                11134
_reflns_threshold_expression     >2sigma(I)

_computing_data_collection       'Bruker APEX2'
_computing_cell_refinement       'Bruker APEX2'
_computing_data_reduction        'Bruker SAINT'
_computing_structure_solution    'SHELXS-97 (Sheldrick, 1990)'
_computing_structure_refinement  'SHELXL-97 (Sheldrick, 1997)'
_computing_molecular_graphics    'Bruker SHELXTL'
_computing_publication_material  'Bruker SHELXTL'

_refine_special_details          
;
Refinement of F^2^ against ALL reflections. The weighted R-factor wR and
goodness of fit S are based on F^2^, conventional R-factors R are based
on F, with F set to zero for negative F^2^. The threshold expression of
F^2^ > 2sigma(F^2^) is used only for calculating R-factors(gt) etc. and is
not relevant to the choice of reflections for refinement. R-factors based
on F^2^ are statistically about twice as large as those based on F, and R-
factors based on ALL data will be even larger.
;

_refine_ls_structure_factor_coef Fsqd
_refine_ls_matrix_type           full
_refine_ls_weighting_scheme      calc
_refine_ls_weighting_details     
'calc w=1/[\s^2^(Fo^2^)+(0.1506P)^2^+0.0000P] where P=(Fo^2^+2Fc^2^)/3'
_atom_sites_solution_primary     direct
_atom_sites_solution_secondary   difmap
_atom_sites_solution_hydrogens   geom
_refine_ls_hydrogen_treatment    constr
_refine_ls_extinction_method     none
_refine_ls_extinction_coef       ?
_refine_ls_number_reflns         23220
_refine_ls_number_parameters     908
_refine_ls_number_restraints     80
_refine_ls_R_factor_all          0.1341
_refine_ls_R_factor_gt           0.0822
_refine_ls_wR_factor_ref         0.2430
_refine_ls_wR_factor_gt          0.2184
_refine_ls_goodness_of_fit_ref   0.917
_refine_ls_restrained_S_all      0.922
_refine_ls_shift/su_max          0.000
_refine_ls_shift/su_mean         0.000

loop_
_atom_site_label
_atom_site_type_symbol
_atom_site_fract_x
_atom_site_fract_y
_atom_site_fract_z
_atom_site_U_iso_or_equiv
_atom_site_adp_type
_atom_site_occupancy
_atom_site_symmetry_multiplicity
_atom_site_calc_flag
_atom_site_refinement_flags
_atom_site_disorder_assembly
_atom_site_disorder_group
Co1 Co 0.5000 0.5000 0.5000 0.0463(2) Uani 1 4 d S . .
N1 N 0.50014(15) 0.5000 0.42102(19) 0.0511(10) Uani 1 2 d S . .
C1 C 0.5002(2) 0.5000 0.3794(3) 0.0868(18) Uani 1 2 d S . .
Co2 Co 0.2500 0.2500 0.0000 0.04653(18) Uani 1 2 d S . .
N2 N 0.21001(9) 0.21014(8) 0.00008(12) 0.0502(7) Uani 1 1 d . E .
C2 C 0.18871(18) 0.18888(12) -0.0001(3) 0.0951(14) Uani 1 1 d . . .
Co3 Co 0.2500 0.2500 0.5000 0.04601(18) Uani 1 2 d S . .
N3 N 0.21007(10) 0.21001(8) 0.42034(15) 0.0523(7) Uani 1 1 d . D .
C3 C 0.18891(17) 0.18878(12) 0.3780(2) 0.0900(13) Uani 1 1 d . . .
Co4 Co 0.0000 0.5000 0.5000 0.0465(2) Uani 1 4 d S . .
N4 N -0.07919(14) 0.5000 0.4209(2) 0.0511(10) Uani 1 2 d S . .
C4 C -0.1207(3) 0.5000 0.3796(3) 0.0894(19) Uani 1 2 d S . .
S4 S -0.18064(9) 0.51688(10) 0.3197(2) 0.203(2) Uani 0.50 1 d P . .
N5 N 0.44394(12) 0.45951(8) 0.44394(15) 0.0647(8) Uani 1 1 d . . .
C5A C 0.4125(3) 0.4530(2) 0.3731(4) 0.069(3) Uani 0.50 1 d P A 1
H5A H 0.4141 0.4682 0.3459 0.083 Uiso 0.50 1 calc PR A 1
C6A C 0.3780(4) 0.4251(2) 0.3387(4) 0.069(3) Uani 0.50 1 d P A 1
H6A H 0.3563 0.4217 0.2887 0.083 Uiso 0.50 1 calc PR A 1
C5B C 0.4425(4) 0.4352(2) 0.4041(5) 0.072(3) Uani 0.50 1 d P A 2
H5B H 0.4670 0.4371 0.4024 0.087 Uiso 0.50 1 calc PR A 2
C6B C 0.4080(4) 0.4085(3) 0.3667(6) 0.080(3) Uani 0.50 1 d P A 2
H6B H 0.4059 0.3938 0.3353 0.096 Uiso 0.50 1 calc PR A 2
C7 C 0.37524(15) 0.40308(10) 0.37518(18) 0.0677(11) Uani 1 1 d . . .
C8A C 0.4076(4) 0.4081(3) 0.4481(6) 0.089(4) Uani 0.50 1 d P A 1
H8A H 0.4055 0.3928 0.4748 0.107 Uiso 0.50 1 calc PR A 1
C9A C 0.4433(4) 0.4356(3) 0.4822(5) 0.076(3) Uani 0.50 1 d P A 1
H9A H 0.4675 0.4377 0.5329 0.091 Uiso 0.50 1 calc PR A 1
C8B C 0.3781(4) 0.4249(2) 0.4172(5) 0.069(3) Uani 0.50 1 d P A 2
H8B H 0.3562 0.4214 0.4236 0.083 Uiso 0.50 1 calc PR A 2
C9B C 0.4126(4) 0.4526(2) 0.4519(5) 0.071(3) Uani 0.50 1 d P A 2
H9B H 0.4145 0.4676 0.4829 0.085 Uiso 0.50 1 calc PR A 2
C10 C 0.33965(15) 0.37250(9) 0.33962(18) 0.0687(11) Uani 1 1 d . A .
N6 N 0.32659(12) 0.35904(8) 0.28227(15) 0.0734(9) Uani 1 1 d . . .
C11 C 0.29701(15) 0.33050(10) 0.25460(19) 0.0703(11) Uani 1 1 d . A .
N7 N 0.28237(12) 0.31437(8) 0.28251(15) 0.0741(9) Uani 1 1 d . . .
C12 C 0.29737(14) 0.33024(10) 0.33970(19) 0.0687(11) Uani 1 1 d . A .
N8 N 0.32679(12) 0.35875(8) 0.37148(15) 0.0731(9) Uani 1 1 d . . .
N9 N 0.26300(11) 0.27789(8) 0.08191(14) 0.0646(8) Uani 1 1 d . . .
C13A C 0.2683(4) 0.2583(3) 0.1305(5) 0.085(3) Uani 0.50 1 d P A 1
H13A H 0.2667 0.2329 0.1277 0.102 Uiso 0.50 1 calc PR A 1
C14A C 0.2761(4) 0.2759(3) 0.1848(5) 0.081(3) Uani 0.50 1 d P A 1
H14A H 0.2756 0.2627 0.2151 0.098 Uiso 0.50 1 calc PR A 1
C13B C 0.2347(3) 0.2738(2) 0.0946(5) 0.070(3) Uani 0.50 1 d P A 2
H13B H 0.2063 0.2583 0.0644 0.083 Uiso 0.50 1 calc PR A 2
C14B C 0.2445(3) 0.2911(3) 0.1496(5) 0.068(2) Uani 0.50 1 d P A 2
H14B H 0.2227 0.2875 0.1560 0.082 Uiso 0.50 1 calc PR A 2
C15 C 0.28452(15) 0.31274(10) 0.19394(18) 0.0667(11) Uani 1 1 d . . .
C16A C 0.2838(4) 0.3301(2) 0.1499(4) 0.066(2) Uani 0.50 1 d P A 1
H16A H 0.2912 0.3550 0.1569 0.079 Uiso 0.50 1 calc PR A 1
C17A C 0.2729(4) 0.3133(2) 0.0940(5) 0.070(3) Uani 0.50 1 d P A 1
H17A H 0.2723 0.3270 0.0630 0.084 Uiso 0.50 1 calc PR A 1
C16B C 0.3162(3) 0.3173(3) 0.1842(5) 0.084(3) Uani 0.50 1 d P A 2
H16B H 0.3445 0.3330 0.2140 0.100 Uiso 0.50 1 calc PR A 2
C17B C 0.3054(4) 0.2981(3) 0.1296(4) 0.081(3) Uani 0.50 1 d P A 2
H17B H 0.3287 0.2991 0.1256 0.097 Uiso 0.50 1 calc PR A 2
N10 N 0.26276(11) 0.27805(8) 0.44402(15) 0.0652(8) Uani 1 1 d . . .
C18A C 0.2733(4) 0.3135(2) 0.4532(5) 0.072(3) Uani 0.50 1 d P A 1
H18A H 0.2739 0.3270 0.4844 0.086 Uiso 0.50 1 calc PR A 1
C19A C 0.2834(4) 0.3307(2) 0.4168(5) 0.071(3) Uani 0.50 1 d P A 1
H19A H 0.2892 0.3558 0.4222 0.086 Uiso 0.50 1 calc PR A 1
C18B C 0.3056(4) 0.2982(3) 0.4823(5) 0.078(3) Uani 0.50 1 d P A 2
H18B H 0.3286 0.2997 0.5329 0.093 Uiso 0.50 1 calc PR A 2
C19B C 0.3163(3) 0.3166(3) 0.4480(5) 0.087(3) Uani 0.50 1 d P A 2
H19B H 0.3450 0.3319 0.4746 0.104 Uiso 0.50 1 calc PR A 2
C20 C 0.28480(15) 0.31252(10) 0.37549(19) 0.0697(11) Uani 1 1 d . . .
C21A C 0.2752(4) 0.2752(2) 0.3667(6) 0.079(3) Uani 0.50 1 d P A 1
H21A H 0.2743 0.2619 0.3351 0.095 Uiso 0.50 1 calc PR A 1
C22A C 0.2673(4) 0.2583(3) 0.4044(6) 0.077(3) Uani 0.50 1 d P A 1
H22A H 0.2649 0.2329 0.4033 0.092 Uiso 0.50 1 calc PR A 1
C21B C 0.2443(3) 0.2912(3) 0.3385(4) 0.068(2) Uani 0.50 1 d P A 2
H21B H 0.2223 0.2882 0.2884 0.081 Uiso 0.50 1 calc PR A 2
C22B C 0.2347(3) 0.2733(3) 0.3749(4) 0.070(3) Uani 0.50 1 d P A 2
H22B H 0.2070 0.2571 0.3488 0.085 Uiso 0.50 1 calc PR A 2
N11 N 0.18124(10) 0.27818(8) 0.44384(15) 0.0635(8) Uani 1 1 d . . .
C23A C 0.1411(3) 0.2745(3) 0.3741(4) 0.075(3) Uani 0.50 1 d P A 1
H23A H 0.1438 0.2600 0.3473 0.090 Uiso 0.50 1 calc PR A 1
C24A C 0.0940(3) 0.2915(3) 0.3378(4) 0.070(3) Uani 0.50 1 d P A 1
H24A H 0.0656 0.2879 0.2879 0.083 Uiso 0.50 1 calc PR A 1
C23B C 0.1374(3) 0.2593(3) 0.4036(5) 0.081(3) Uani 0.50 1 d P A 2
H23B H 0.1383 0.2340 0.4008 0.097 Uiso 0.50 1 calc PR A 2
C24B C 0.0913(4) 0.2760(2) 0.3664(6) 0.082(3) Uani 0.50 1 d P A 2
H24B H 0.0607 0.2625 0.3357 0.098 Uiso 0.50 1 calc PR A 2
C25 C 0.09043(12) 0.31257(10) 0.37488(19) 0.0689(11) Uani 1 1 d . . .
C26A C 0.1322(4) 0.3169(3) 0.4480(5) 0.086(3) Uani 0.50 1 d P A 1
H26A H 0.1303 0.3325 0.4745 0.103 Uiso 0.50 1 calc PR A 1
C27A C 0.1775(3) 0.2982(3) 0.4829(6) 0.081(3) Uani 0.50 1 d P A 1
H27A H 0.2053 0.2997 0.5335 0.098 Uiso 0.50 1 calc PR A 1
C26B C 0.1333(3) 0.3311(2) 0.4159(5) 0.070(2) Uani 0.50 1 d P A 2
H26B H 0.1328 0.3563 0.4207 0.084 Uiso 0.50 1 calc PR A 2
C27B C 0.1799(3) 0.3135(2) 0.4527(5) 0.070(3) Uani 0.50 1 d P A 2
H27B H 0.2106 0.3268 0.4841 0.084 Uiso 0.50 1 calc PR A 2
C28 C 0.04230(12) 0.33048(10) 0.33936(19) 0.0697(11) Uani 1 1 d . A .
N12 N -0.00010(10) 0.31445(8) 0.28214(15) 0.0740(9) Uani 1 1 d . . .
C29 C -0.04213(13) 0.33052(10) 0.25518(19) 0.0709(11) Uani 1 1 d . A .
N13 N -0.04439(10) 0.35902(8) 0.28230(15) 0.0756(9) Uani 1 1 d . . .
C30 C -0.00007(12) 0.37278(10) 0.33925(19) 0.0706(11) Uani 1 1 d . A .
N14 N 0.04416(10) 0.35892(8) 0.37069(16) 0.0749(9) Uani 1 1 d . . .
C31A C -0.1757(3) 0.2975(3) 0.1304(4) 0.076(3) Uani 0.50 1 d P A 1
H31A H -0.2026 0.2978 0.1276 0.091 Uiso 0.50 1 calc PR A 1
C32A C -0.1307(3) 0.3175(3) 0.1856(4) 0.090(3) Uani 0.50 1 d P A 1
H32A H -0.1287 0.3336 0.2154 0.108 Uiso 0.50 1 calc PR A 1
C31B C -0.1790(3) 0.3127(2) 0.0936(4) 0.068(2) Uani 0.50 1 d P A 2
H31B H -0.2096 0.3261 0.0619 0.082 Uiso 0.50 1 calc PR A 2
C32B C -0.1351(3) 0.3303(2) 0.1490(4) 0.069(3) Uani 0.50 1 d P A 2
H32B H -0.1360 0.3551 0.1560 0.083 Uiso 0.50 1 calc PR A 2
C33 C -0.09057(12) 0.31261(10) 0.19375(18) 0.0660(10) Uani 1 1 d . . .
C34A C -0.0954(3) 0.2909(3) 0.1483(4) 0.073(3) Uani 0.50 1 d P A 1
H34A H -0.0674 0.2875 0.1541 0.087 Uiso 0.50 1 calc PR A 1
C35A C -0.1400(3) 0.2739(3) 0.0941(4) 0.067(2) Uani 0.50 1 d P A 1
H35A H -0.1419 0.2585 0.0636 0.081 Uiso 0.50 1 calc PR A 1
C34B C -0.0909(3) 0.2768(3) 0.1838(4) 0.078(3) Uani 0.50 1 d P A 2
H34B H -0.0600 0.2638 0.2133 0.093 Uiso 0.50 1 calc PR A 2
C35B C -0.1369(3) 0.2592(3) 0.1301(5) 0.079(3) Uani 0.50 1 d P A 2
H35B H -0.1375 0.2338 0.1271 0.094 Uiso 0.50 1 calc PR A 2
N15 N -0.18110(10) 0.27795(8) 0.08182(14) 0.0627(8) Uani 1 1 d . . .
C36A C 0.0392(3) 0.4539(2) 0.4515(5) 0.071(3) Uani 0.50 1 d P A 1
H36A H 0.0679 0.4692 0.4822 0.085 Uiso 0.50 1 calc PR A 1
C37A C 0.0387(3) 0.4255(3) 0.4150(5) 0.070(3) Uani 0.50 1 d P A 1
H37A H 0.0661 0.4228 0.4194 0.084 Uiso 0.50 1 calc PR A 1
C36B C 0.0390(3) 0.4356(2) 0.4818(5) 0.070(2) Uani 0.50 1 d P A 2
H36B H 0.0654 0.4374 0.5325 0.084 Uiso 0.50 1 calc PR A 2
C37B C 0.0404(3) 0.4091(3) 0.4475(5) 0.086(3) Uani 0.50 1 d P A 2
H37B H 0.0698 0.3946 0.4741 0.103 Uiso 0.50 1 calc PR A 2
C38 C -0.00011(12) 0.40304(10) 0.37480(18) 0.0669(10) Uani 1 1 d . . .
C39A C -0.0407(3) 0.4081(2) 0.3676(6) 0.079(3) Uani 0.50 1 d P A 1
H39A H -0.0695 0.3929 0.3374 0.095 Uiso 0.50 1 calc PR A 1
C40A C -0.0385(3) 0.4354(2) 0.4047(5) 0.072(2) Uani 0.50 1 d P A 1
H40A H -0.0646 0.4375 0.4031 0.087 Uiso 0.50 1 calc PR A 1
C39B C -0.0397(3) 0.4249(2) 0.3385(4) 0.071(3) Uani 0.50 1 d P A 2
H39B H -0.0683 0.4214 0.2886 0.085 Uiso 0.50 1 calc PR A 2
C40B C -0.0391(3) 0.4529(2) 0.3739(4) 0.069(3) Uani 0.50 1 d P A 2
H40B H -0.0679 0.4681 0.3472 0.082 Uiso 0.50 1 calc PR A 2
N16 N -0.00012(10) 0.45935(8) 0.44328(15) 0.0632(8) Uani 1 1 d . . .
O1 O 0.5793(5) 0.3144(3) 0.5298(7) 0.235(4) Uani 0.50 1 d PU B 1
O2 O 0.4470(5) 0.1871(3) 0.5257(8) 0.237(5) Uani 0.50 1 d PU C 1
C41 C 0.5447(6) 0.3149(4) 0.4593(8) 0.149(4) Uani 0.50 1 d PU B 1
C42 C 0.4995(5) 0.3380(3) 0.4199(6) 0.138(3) Uani 0.50 1 d PDU B 1
H41 H 0.4980 0.3559 0.3908 0.166 Uiso 0.50 1 calc PR B 1
H42 H 0.5007 0.3509 0.4538 0.166 Uiso 0.50 1 calc PR B 1
C43 C 0.4531(5) 0.3135(3) 0.3715(6) 0.159(4) Uani 0.50 1 d PDU B 1
H43 H 0.4224 0.3287 0.3404 0.190 Uiso 0.50 1 calc PR B 1
H44 H 0.4522 0.2990 0.4020 0.190 Uiso 0.50 1 calc PR B 1
C44 C 0.4510(5) 0.2879(3) 0.3238(7) 0.150(4) Uani 0.50 1 d PDU B 1
H45 H 0.4467 0.3019 0.2878 0.180 Uiso 0.50 1 calc PR B 1
H46 H 0.4217 0.2716 0.2980 0.180 Uiso 0.50 1 calc PR B 1
C45 C 0.5004(4) 0.2661(4) 0.3707(6) 0.148(4) Uani 0.50 1 d PDU B 1
H47 H 0.5012 0.2491 0.4002 0.178 Uiso 0.50 1 calc PR B 1
H48 H 0.5006 0.2519 0.3392 0.178 Uiso 0.50 1 calc PR B 1
C46 C 0.5481(5) 0.2894(3) 0.4201(6) 0.140(4) Uani 0.50 1 d PDU B 1
H49 H 0.5783 0.2740 0.4545 0.168 Uiso 0.50 1 calc PR B 1
H50 H 0.5516 0.3028 0.3914 0.168 Uiso 0.50 1 calc PR B 1
C47 C 0.4151(6) 0.1834(4) 0.4586(8) 0.152(4) Uani 0.50 1 d PU C 1
C48 C 0.3732(5) 0.2101(3) 0.4213(6) 0.136(3) Uani 0.50 1 d PDU C 1
H51 H 0.3796 0.2262 0.4568 0.163 Uiso 0.50 1 calc PR C 1
H52 H 0.3406 0.1976 0.3944 0.163 Uiso 0.50 1 calc PR C 1
C49 C 0.3707(5) 0.2320(3) 0.3696(6) 0.158(4) Uani 0.50 1 d PDU C 1
H53 H 0.3387 0.2459 0.3377 0.189 Uiso 0.50 1 calc PR C 1
H54 H 0.3990 0.2495 0.3981 0.189 Uiso 0.50 1 calc PR C 1
C50 C 0.3733(4) 0.2110(3) 0.3231(6) 0.137(3) Uani 0.50 1 d PDU C 1
H55 H 0.3775 0.2275 0.2982 0.164 Uiso 0.50 1 calc PR C 1
H56 H 0.3417 0.1971 0.2865 0.164 Uiso 0.50 1 calc PR C 1
C51 C 0.4186(4) 0.1855(3) 0.3714(6) 0.151(4) Uani 0.50 1 d PDU C 1
H57 H 0.4178 0.1695 0.3407 0.182 Uiso 0.50 1 calc PR C 1
H58 H 0.4500 0.1999 0.4008 0.182 Uiso 0.50 1 calc PR C 1
C52 C 0.4210(5) 0.1625(3) 0.4212(6) 0.139(4) Uani 0.50 1 d PDU C 1
H59 H 0.3940 0.1441 0.3929 0.166 Uiso 0.50 1 calc PR C 1
H60 H 0.4541 0.1500 0.4556 0.166 Uiso 0.50 1 calc PR C 1
S5 S 0.1753(2) 0.15967(16) 0.3190(3) 0.213(3) Uani 0.50 1 d P D 3
S6 S 0.1429(2) 0.15988(16) 0.3190(3) 0.216(3) Uani 0.50 1 d P D 4
S7 S 0.1431(2) 0.15956(15) -0.0331(3) 0.211(2) Uani 0.50 1 d P E 5
S8 S 0.1756(2) 0.15991(15) 0.0327(3) 0.211(2) Uani 0.50 1 d P E 6
S1 S 0.49968(18) 0.5000 0.31813(19) 0.391(4) Uani 1 2 d S . .

loop_
_atom_site_aniso_label
_atom_site_aniso_U_11
_atom_site_aniso_U_22
_atom_site_aniso_U_33
_atom_site_aniso_U_23
_atom_site_aniso_U_13
_atom_site_aniso_U_12
Co1 0.0667(6) 0.0349(5) 0.0510(5) 0.000 0.0464(5) 0.000
N1 0.087(3) 0.041(2) 0.053(2) 0.000 0.059(2) 0.000
C1 0.082(4) 0.114(5) 0.072(4) 0.000 0.057(4) 0.000
Co2 0.0415(3) 0.0611(4) 0.0259(3) 0.0003(3) 0.0199(3) -0.0083(3)
N2 0.0431(15) 0.0671(18) 0.0246(13) 0.0000(12) 0.0183(12) -0.0119(14)
C2 0.107(4) 0.077(3) 0.141(4) 0.003(3) 0.102(4) -0.008(3)
Co3 0.0401(3) 0.0597(4) 0.0517(3) -0.0121(3) 0.0373(3) -0.0080(3)
N3 0.0479(16) 0.0669(19) 0.0622(17) -0.0186(15) 0.0460(15) -0.0129(14)
C3 0.101(3) 0.078(3) 0.070(3) -0.018(2) 0.053(3) -0.012(3)
Co4 0.0416(5) 0.0341(5) 0.0533(5) 0.000 0.0299(4) 0.000
N4 0.034(2) 0.038(2) 0.059(2) 0.000 0.026(2) 0.000
C4 0.070(4) 0.121(5) 0.076(4) 0.000 0.052(4) 0.000
S4 0.0354(12) 0.219(5) 0.197(3) 0.022(3) 0.02