####################################################################### 
# 
# This file contains crystal structure data downloaded from the 
# Cambridge Structural Database (CSD) hosted by the Cambridge 
# Crystallographic Data Centre (CCDC).
# 
# Full information about CCDC data access policies and citation 
# guidelines are available at http://www.ccdc.cam.ac.uk/access/V1 
# 
# Audit and citation data items may have been added by the CCDC. 
# Please retain this information to preserve the provenance of 
# this file and to allow appropriate attribution of the data. 
# 
#######################################################################

data_compound10
_audit_block_doi                 10.5517/cc9yjlb
_database_code_depnum_ccdc_archive 'CCDC 296502'
loop_
_citation_id
_citation_doi
_citation_year
1 10.1039/b616016f 2007
_audit_update_record             
;
2006-01-26 deposited with the CCDC.	2024-07-12 downloaded from the CCDC.
;
_audit_creation_method           SHELXL-97

_chemical_name_common            
;
Catena-(trans-biscyano-di-agua-bis-(3,4,7,8-tetramethyl-1,10-
phenanthroline)-tetracyano-iron(iii)-samarium(iii) hydrate
;
_chemical_formula_moiety         '[Sm(tmphen)2(H2O)2Fe(CN)6]MeOH13H2O'
_chemical_formula_sum            'C39 H66 Fe N10 O16 Sm'
_chemical_formula_weight         1137.22

loop_
_atom_type_symbol
_atom_type_description
_atom_type_scat_dispersion_real
_atom_type_scat_dispersion_imag
_atom_type_scat_source
C C 0.0033 0.0016 'International Tables Vol C Tables 4.2.6.8 and 6.1.1.4'
H H 0.0000 0.0000 'International Tables Vol C Tables 4.2.6.8 and 6.1.1.4'
N N 0.0061 0.0033 'International Tables Vol C Tables 4.2.6.8 and 6.1.1.4'
O O 0.0106 0.0060 'International Tables Vol C Tables 4.2.6.8 and 6.1.1.4'
Fe Fe 0.3463 0.8444 'International Tables Vol C Tables 4.2.6.8 and 6.1.1.4'
Sm Sm -0.1638 3.4418 'International Tables Vol C Tables 4.2.6.8 and 6.1.1.4'

_symmetry_cell_setting           ?
_symmetry_space_group_name_H-M   ?

loop_
_symmetry_equiv_pos_as_xyz
'x, y, z'
'-x, y+1/2, -z+1/2'
'-x, -y, -z'
'x, -y-1/2, z-1/2'

_cell_length_a                   20.322(4)
_cell_length_b                   19.728(4)
_cell_length_c                   13.473(3)
_cell_angle_alpha                90.00
_cell_angle_beta                 106.48(3)
_cell_angle_gamma                90.00
_cell_volume                     5179.6(18)
_cell_formula_units_Z            4
_cell_measurement_temperature    110(2)
_cell_measurement_reflns_used    ?
_cell_measurement_theta_min      ?
_cell_measurement_theta_max      ?

_exptl_crystal_description       prism
_exptl_crystal_colour            yellow
_exptl_crystal_size_max          0.12
_exptl_crystal_size_mid          0.08
_exptl_crystal_size_min          0.08
_exptl_crystal_density_meas      ?
_exptl_crystal_density_diffrn    1.458
_exptl_crystal_density_method    'not measured'
_exptl_crystal_F_000             2344
_exptl_absorpt_coefficient_mu    1.475
_exptl_absorpt_correction_type   ?
_exptl_absorpt_correction_T_min  ?
_exptl_absorpt_correction_T_max  ?
_exptl_absorpt_process_details   ?

_exptl_special_details           
;
?
;

_diffrn_ambient_temperature      110(2)
_diffrn_radiation_wavelength     0.71073
_diffrn_radiation_type           MoK\a
_diffrn_radiation_source         'fine-focus sealed tube'
_diffrn_radiation_monochromator  graphite
_diffrn_measurement_device_type  ?
_diffrn_measurement_method       ?
_diffrn_detector_area_resol_mean ?
_diffrn_standards_number         ?
_diffrn_standards_interval_count ?
_diffrn_standards_interval_time  ?
_diffrn_standards_decay_%        ?
_diffrn_reflns_number            22489
_diffrn_reflns_av_R_equivalents  0.0520
_diffrn_reflns_av_sigmaI/netI    0.0573
_diffrn_reflns_limit_h_min       -22
_diffrn_reflns_limit_h_max       13
_diffrn_reflns_limit_k_min       -21
_diffrn_reflns_limit_k_max       20
_diffrn_reflns_limit_l_min       -14
_diffrn_reflns_limit_l_max       14
_diffrn_reflns_theta_min         1.88
_diffrn_reflns_theta_max         23.32
_reflns_number_total             7431
_reflns_number_gt                5854
_reflns_threshold_expression     >2sigma(I)

_computing_data_collection       ?
_computing_cell_refinement       ?
_computing_data_reduction        ?
_computing_structure_solution    'SHELXS-97 (Sheldrick, 1990)'
_computing_structure_refinement  'SHELXL-97 (Sheldrick, 1997)'
_computing_molecular_graphics    ?
_computing_publication_material  ?

_refine_special_details          
;
Refinement of F^2^ against ALL reflections. The weighted R-factor wR and
goodness of fit S are based on F^2^, conventional R-factors R are based
on F, with F set to zero for negative F^2^. The threshold expression of
F^2^ > 2sigma(F^2^) is used only for calculating R-factors(gt) etc. and is
not relevant to the choice of reflections for refinement. R-factors based
on F^2^ are statistically about twice as large as those based on F, and R-
factors based on ALL data will be even larger.
;

_refine_ls_structure_factor_coef Fsqd
_refine_ls_matrix_type           full
_refine_ls_weighting_scheme      calc
_refine_ls_weighting_details     
'calc w=1/[\s^2^(Fo^2^)+(0.0394P)^2^+20.3326P] where P=(Fo^2^+2Fc^2^)/3'
_atom_sites_solution_primary     direct
_atom_sites_solution_secondary   difmap
_atom_sites_solution_hydrogens   geom
_refine_ls_hydrogen_treatment    mixed
_refine_ls_extinction_method     none
_refine_ls_extinction_coef       ?
_refine_ls_number_reflns         7431
_refine_ls_number_parameters     636
_refine_ls_number_restraints     7
_refine_ls_R_factor_all          0.0677
_refine_ls_R_factor_gt           0.0476
_refine_ls_wR_factor_ref         0.1100
_refine_ls_wR_factor_gt          0.1028
_refine_ls_goodness_of_fit_ref   1.070
_refine_ls_restrained_S_all      1.069
_refine_ls_shift/su_max          0.017
_refine_ls_shift/su_mean         0.000

loop_
_atom_site_label
_atom_site_type_symbol
_atom_site_fract_x
_atom_site_fract_y
_atom_site_fract_z
_atom_site_U_iso_or_equiv
_atom_site_adp_type
_atom_site_occupancy
_atom_site_symmetry_multiplicity
_atom_site_calc_flag
_atom_site_refinement_flags
_atom_site_disorder_assembly
_atom_site_disorder_group
Sm1 Sm 0.252831(15) 0.602579(14) 0.51167(2) 0.01207(9) Uani 1 1 d . . .
Fe1 Fe 0.5000 0.5000 0.5000 0.0127(3) Uani 1 2 d S . .
Fe2 Fe 0.0000 0.5000 0.5000 0.0126(3) Uani 1 2 d S . .
N8 N 0.2094(2) 0.7044(2) 0.5958(3) 0.0158(11) Uani 1 1 d . . .
N9 N 0.2983(2) 0.7097(2) 0.4483(3) 0.0136(11) Uani 1 1 d . . .
C18 C 0.3270(3) 0.7196(3) 0.6933(4) 0.0154(13) Uani 1 1 d . . .
C34 C 0.2519(3) 0.7578(3) 0.4011(4) 0.0146(13) Uani 1 1 d . . .
N10 N 0.1687(2) 0.6684(2) 0.3620(3) 0.0154(11) Uani 1 1 d . . .
O1 O 0.2877(2) 0.50521(19) 0.6204(3) 0.0199(10) Uani 1 1 d D . .
N4 N 0.4241(3) 0.3658(3) 0.4208(4) 0.0283(14) Uani 1 1 d . . .
C11 C 0.3682(3) 0.8314(3) 0.7559(4) 0.0189(14) Uani 1 1 d . . .
H11 H 0.4043 0.8603 0.7927 0.023 Uiso 1 1 calc R . .
C24 C 0.3846(3) 0.7976(3) 0.4978(4) 0.0169(13) Uani 1 1 d . . .
C17 C 0.2597(3) 0.7472(3) 0.6478(4) 0.0168(14) Uani 1 1 d . . .
N7 N 0.3357(2) 0.6524(2) 0.6767(3) 0.0158(11) Uani 1 1 d . . .
C23 C 0.3626(3) 0.7302(3) 0.4915(4) 0.0168(14) Uani 1 1 d . . .
H23 H 0.3959 0.6965 0.5201 0.020 Uiso 1 1 calc R . .
N6 N 0.0654(3) 0.3576(3) 0.5441(4) 0.0269(14) Uani 1 1 d . . .
C16 C 0.1468(3) 0.7306(3) 0.5569(4) 0.0204(15) Uani 1 1 d . . .
H16 H 0.1107 0.7004 0.5248 0.025 Uiso 1 1 calc R . .
C13 C 0.2489(3) 0.8169(3) 0.6557(4) 0.0186(14) Uani 1 1 d . . .
C26 C 0.2689(3) 0.8269(3) 0.4003(4) 0.0170(14) Uani 1 1 d . . .
C31 C 0.0499(3) 0.6912(3) 0.2668(4) 0.0167(14) Uani 1 1 d . . .
N1 N 0.3621(3) 0.5691(2) 0.4819(3) 0.0187(12) Uani 1 1 d . . .
C15 C 0.1305(3) 0.7989(3) 0.5599(4) 0.0227(15) Uani 1 1 d . . .
C8 C 0.4553(3) 0.6625(3) 0.7771(4) 0.0157(13) Uani 1 1 d . . .
O2 O 0.2272(2) 0.5199(2) 0.3737(3) 0.0248(10) Uani 1 1 d D . .
C33 C 0.1829(3) 0.7349(3) 0.3522(4) 0.0139(13) Uani 1 1 d . . .
C35 C 0.4573(3) 0.8140(3) 0.5566(4) 0.0225(15) Uani 1 1 d . . .
H35A H 0.4798 0.8370 0.5106 0.034 Uiso 1 1 calc R . .
H35B H 0.4819 0.7720 0.5824 0.034 Uiso 1 1 calc R . .
H35C H 0.4577 0.8437 0.6150 0.034 Uiso 1 1 calc R . .
C7 C 0.3982(3) 0.6259(3) 0.7193(4) 0.0146(13) Uani 1 1 d . . .
H7 H 0.4041 0.5789 0.7095 0.017 Uiso 1 1 calc R . .
C25 C 0.3362(3) 0.8471(3) 0.4543(4) 0.0206(14) Uani 1 1 d . . .
C10 C 0.3815(3) 0.7607(3) 0.7487(4) 0.0163(14) Uani 1 1 d . . .
C29 C 0.1322(3) 0.7827(3) 0.3016(4) 0.0159(13) Uani 1 1 d . . .
C14 C 0.1824(3) 0.8439(3) 0.6073(4) 0.0239(15) Uani 1 1 d . . .
C4 C 0.4539(3) 0.4157(3) 0.4493(4) 0.0195(15) Uani 1 1 d . . .
C30 C 0.0631(3) 0.7591(3) 0.2583(4) 0.0171(14) Uani 1 1 d . . .
C6 C 0.0406(3) 0.4109(3) 0.5277(4) 0.0164(14) Uani 1 1 d . . .
C38 C -0.0218(3) 0.6633(3) 0.2261(4) 0.0223(15) Uani 1 1 d . . .
H38A H -0.0514 0.6837 0.2641 0.033 Uiso 1 1 calc R . .
H38B H -0.0208 0.6140 0.2353 0.033 Uiso 1 1 calc R . .
H38C H -0.0398 0.6741 0.1523 0.033 Uiso 1 1 calc R . .
N2 N 0.1423(3) 0.5619(3) 0.5280(4) 0.0203(12) Uani 1 1 d . . .
C9 C 0.4477(3) 0.7310(3) 0.7910(4) 0.0177(14) Uani 1 1 d . . .
C28 C 0.1521(3) 0.8514(3) 0.2989(4) 0.0199(14) Uani 1 1 d . . .
H28 H 0.1191 0.8835 0.2627 0.024 Uiso 1 1 calc R . .
C20 C 0.5075(3) 0.7740(3) 0.8492(5) 0.0273(16) Uani 1 1 d . . .
H20A H 0.4970 0.7950 0.9087 0.041 Uiso 1 1 calc R . .
H20B H 0.5160 0.8093 0.8033 0.041 Uiso 1 1 calc R . .
H20C H 0.5484 0.7455 0.8733 0.041 Uiso 1 1 calc R . .
C22 C 0.0573(3) 0.8221(3) 0.5066(5) 0.0293(16) Uani 1 1 d . . .
H22A H 0.0395 0.8477 0.5557 0.044 Uiso 1 1 calc R . .
H22B H 0.0282 0.7824 0.4824 0.044 Uiso 1 1 calc R . .
H22C H 0.0573 0.8510 0.4474 0.044 Uiso 1 1 calc R . .
C12 C 0.3055(3) 0.8583(3) 0.7118(4) 0.0221(15) Uani 1 1 d . . .
H12 H 0.2986 0.9056 0.7180 0.027 Uiso 1 1 calc R . .
N3 N 0.4998(3) 0.4575(3) 0.7219(4) 0.0278(13) Uani 1 1 d . . .
C27 C 0.2163(3) 0.8725(3) 0.3461(4) 0.0218(15) Uani 1 1 d . . .
H27 H 0.2270 0.9192 0.3432 0.026 Uiso 1 1 calc R . .
C32 C 0.1037(3) 0.6482(3) 0.3180(4) 0.0167(14) Uani 1 1 d . . .
H32 H 0.0935 0.6014 0.3219 0.020 Uiso 1 1 calc R . .
C37 C 0.0075(3) 0.8067(3) 0.2056(5) 0.0339(18) Uani 1 1 d . . .
H37A H -0.0128 0.7919 0.1340 0.051 Uiso 1 1 calc R . .
H37B H 0.0266 0.8523 0.2059 0.051 Uiso 1 1 calc R . .
H37C H -0.0279 0.8072 0.2422 0.051 Uiso 1 1 calc R . .
C19 C 0.5231(3) 0.6265(3) 0.8175(4) 0.0251(16) Uani 1 1 d . . .
H19A H 0.5569 0.6468 0.7871 0.038 Uiso 1 1 calc R . .
H19B H 0.5174 0.5784 0.7987 0.038 Uiso 1 1 calc R . .
H19C H 0.5390 0.6308 0.8930 0.038 Uiso 1 1 calc R . .
C21 C 0.1686(4) 0.9189(3) 0.6051(5) 0.0317(17) Uani 1 1 d . . .
H21A H 0.1789 0.9391 0.5447 0.048 Uiso 1 1 calc R . .
H21B H 0.1977 0.9398 0.6684 0.048 Uiso 1 1 calc R . .
H21C H 0.1202 0.9267 0.6007 0.048 Uiso 1 1 calc R . .
C36 C 0.3556(3) 0.9213(3) 0.4652(5) 0.0299(17) Uani 1 1 d . . .
H36A H 0.3985 0.9268 0.5207 0.045 Uiso 1 1 calc R . .
H36B H 0.3191 0.9472 0.4820 0.045 Uiso 1 1 calc R . .
H36C H 0.3619 0.9379 0.3999 0.045 Uiso 1 1 calc R . .
C3 C 0.5007(3) 0.4737(3) 0.6398(4) 0.0181(14) Uani 1 1 d . . .
C1 C 0.4139(3) 0.5430(3) 0.4855(4) 0.0155(14) Uani 1 1 d . . .
C2 C 0.0889(3) 0.5385(3) 0.5198(4) 0.0160(14) Uani 1 1 d . . .
O12 O 0.3464(2) 0.3890(2) -0.0756(3) 0.0318(11) Uani 1 1 d . . .
O13 O 0.1423(2) 0.3905(2) 0.0736(3) 0.0375(12) Uani 1 1 d . . .
O3 O 0.2504(2) 0.4637(2) 0.7855(3) 0.0287(11) Uani 1 1 d D . .
O7 O 0.3117(3) 0.3804(2) 0.5381(4) 0.0396(13) Uani 1 1 d . . .
O6 O 0.4593(2) 0.4657(2) 0.9129(3) 0.0302(11) Uani 1 1 d . . .
O8 O 0.3433(3) 0.2447(2) 0.3539(4) 0.0464(15) Uani 1 1 d . . .
O9 O 0.2922(3) 0.2420(2) 0.1401(4) 0.0428(13) Uani 1 1 d . . .
O4 O 0.1507(3) 0.2454(3) 0.6287(5) 0.0604(17) Uani 1 1 d . . .
N5 N 0.0100(3) 0.5166(3) 0.7319(4) 0.0239(13) Uani 1 1 d . . .
O14 O 0.1243(3) 0.4409(3) 0.2565(4) 0.0460(14) Uani 1 1 d . . .
O10 O 0.3129(3) 0.4671(3) 0.2651(4) 0.0437(14) Uani 1 1 d . . .
O15 O -0.0411(3) 0.5289(3) 0.0522(4) 0.0508(15) Uani 1 1 d . . .
O5 O 0.1717(3) 0.3618(3) 0.4257(5) 0.0721(19) Uani 1 1 d . . .
O11 O 0.2007(4) 0.2565(4) -0.1564(5) 0.087(2) Uani 1 1 d . . .
C5 C 0.0072(3) 0.5109(3) 0.6453(4) 0.0161(14) Uani 1 1 d . . .
C39 C 0.1854(4) 0.4349(4) 0.7722(7) 0.061(3) Uani 1 1 d . . .
H39A H 0.1683 0.4472 0.8308 0.092 Uiso 1 1 calc R . .
H39B H 0.1888 0.3854 0.7686 0.092 Uiso 1 1 calc R . .
H39C H 0.1538 0.4518 0.7079 0.092 Uiso 1 1 calc R . .
O16 O 0.2850(3) 0.3815(2) 0.0881(3) 0.0385(12) Uani 1 1 d . . .
H1A H 0.2694(15) 0.491(2) 0.676(2) 0.05(2) Uiso 1 1 d D . .
H1B H 0.308(2) 0.4667(15) 0.596(4) 0.06(2) Uiso 1 1 d D . .
H2A H 0.2617(12) 0.505(3) 0.341(3) 0.13(4) Uiso 1 1 d D . .
H2B H 0.1906(16) 0.4869(19) 0.360(5) 0.10(4) Uiso 1 1 d D . .
H3 H 0.284(3) 0.438(3) 0.837(5) 0.09(3) Uiso 1 1 d D . .

loop_
_atom_site_aniso_label
_atom_site_aniso_U_11
_atom_site_aniso_U_22
_atom_site_aniso_U_33
_atom_site_aniso_U_23
_atom_site_aniso_U_13
_atom_site_aniso_U_12
Sm1 0.00923(15) 0.01057(15) 0.01506(15) 0.00045(13) 0.00127(11) 0.00080(15)
Fe1 0.0112(6) 0.0123(6) 0.0140(6) 0.0004(4) 0.0028(5) 0.0023(5)
Fe2 0.0099(6) 0.0114(6) 0.0150(6) 0.0007(4) 0.0013(5) -0.0010(5)
N8 0.016(3) 0.019(3) 0.016(2) 0.001(2) 0.009(2) 0.001(2)
N9 0.017(3) 0.011(2) 0.012(2) -0.0011(19) 0.003(2) -0.001(2)
C18 0.022(3) 0.013(3) 0.010(3) 0.001(2) 0.002(2) 0.001(3)
C34 0.014(3) 0.020(3) 0.012(3) 0.000(2) 0.009(2) 0.003(3)
N10 0.013(3) 0.017(3) 0.015(2) 0.0010(19) 0.002(2) -0.004(2)
O1 0.024(2) 0.012(2) 0.022(2) 0.0032(17) 0.0030(19) 0.0008(19)
N4 0.035(4) 0.022(3) 0.025(3) -0.003(2) 0.005(3) -0.006(3)
C11 0.029(4) 0.013(3) 0.017(3) -0.005(2) 0.010(3) -0.005(3)
C24 0.018(3) 0.019(3) 0.016(3) -0.001(2) 0.007(2) -0.008(3)
C17 0.025(4) 0.018(3) 0.009(3) -0.001(2) 0.008(3) 0.004(3)
N7 0.019(3) 0.013(3) 0.016(2) 0.0026(19) 0.005(2) 0.002(2)
C23 0.015(3) 0.020(3) 0.015(3) -0.001(2) 0.003(2) 0.001(3)
N6 0.032(3) 0.023(3) 0.020(3) -0.002(2) -0.001(2) 0.007(3)
C16 0.023(4) 0.023(4) 0.019(3) 0.001(2) 0.012(3) 0.006(3)
C13 0.028(4) 0.017(3) 0.013(3) 0.003(2) 0.010(3) 0.002(3)
C26 0.021(3) 0.014(3) 0.019(3) 0.003(2) 0.011(3) -0.003(3)
C31 0.018(3) 0.016(3) 0.014(3) 0.001(2) 0.001(2) 0.002(3)
N1 0.021(3) 0.013(3) 0.021(3) 0.001(2) 0.003(2) 0.005(2)
C15 0.025(4) 0.031(4) 0.014(3) 0.005(3) 0.010(3) 0.016(3)
C8 0.014(3) 0.016(3) 0.014(3) 0.000(2) 0.000(2) 0.002(3)
O2 0.023(3) 0.019(2) 0.029(2) -0.0055(18) 0.002(2) 0.000(2)
C33 0.014(3) 0.017(3) 0.012(3) -0.001(2) 0.005(2) -0.006(3)
C35 0.022(4) 0.021(3) 0.026(3) 0.000(3) 0.010(3) -0.005(3)
C7 0.016(3) 0.010(3) 0.017(3) 0.001(2) 0.003(2) 0.000(3)
C25 0.028(4) 0.014(3) 0.019(3) -0.002(2) 0.008(3) -0.011(3)
C10 0.028(4) 0.011(3) 0.012(3) -0.002(2) 0.008(3) -0.001(3)
C29 0.018(3) 0.014(3) 0.016(3) 0.001(2) 0.005(2) 0.005(3)
C14 0.037(4) 0.018(3) 0.018(3) 0.006(3) 0.011(3) 0.013(3)
C4 0.024(4) 0.021(4) 0.015(3) 0.002(2) 0.007(3) 0.007(3)
C30 0.018(3) 0.017(3) 0.014(3) 0.003(2) 0.001(2) 0.006(3)
C6 0.018(3) 0.015(4) 0.014(3) -0.002(2) 0.001(2) -0.001(3)
C38 0.023(4) 0.021(3) 0.021(3) 0.006(3) 0.003(3) 0.001(3)
N2 0.020(3) 0.020(3) 0.021(3) 0.003(2) 0.007(2) -0.004(3)
C9 0.019(3) 0.023(4) 0.011(3) -0.001(2) 0.003(2) -0.008(3)
C28 0.029(4) 0.013(3) 0.017(3) 0.006(2) 0.005(3) 0.001(3)
C20 0.021(4) 0.024(4) 0.030(3) -0.004(3) -0.004(3) -0.006(3)
C22 0.025(4) 0.033(4) 0.030(4) 0.002(3) 0.007(3) 0.012(3)
C12 0.032(4) 0.012(3) 0.023(3) 0.001(3) 0.009(3) 0.002(3)
N3 0.041(4) 0.018(3) 0.025(3) 0.004(2) 0.010(3) 0.007(3)
C27 0.029(4) 0.008(3) 0.028(3) 0.002(2) 0.009(3) -0.003(3)
C32 0.022(4) 0.011(3) 0.018(3) 0.000(2) 0.008(3) -0.001(3)
C37 0.026(4) 0.026(4) 0.042(4) 0.006(3) -0.002(3) 0.004(3)
C19 0.022(4) 0.028(4) 0.019(3) -0.006(3) -0.003(3) 0.001(3)
C21 0.038(4) 0.021(4) 0.033(4) 0.000(3) 0.005(3) 0.017(3)
C36 0.027(4) 0.016(3) 0.040(4) -0.001(3) -0.002(3) -0.004(3)
C3 0.023(4) 0.014(3) 0.016(3) -0.003(2) 0.004(3) 0.005(3)
C1 0.021(4) 0.015(3) 0.011(3) 0.001(2) 0.005(2) -0.001(3)
C2 0.018(4) 0.012(3) 0.018(3) 0.004(2) 0.005(3) 0.002(3)
O12 0.030(3) 0.031(3) 0.030(2) 0.006(2) 0.002(2) 0.006(2)
O13 0.037(3) 0.033(3) 0.042(3) -0.002(2) 0.010(2) 0.001(2)
O3 0.027(3) 0.031(3) 0.028(2) 0.007(2) 0.007(2) 0.002(2)
O7 0.047(3) 0.025(3) 0.055(3) 0.000(2) 0.028(2) 0.002(2)
O6 0.031(3) 0.031(3) 0.033(2) -0.001(2) 0.014(2) 0.004(2)
O8 0.057(4) 0.032(3) 0.041(3) -0.003(2) 0.001(3) -0.018(3)
O9 0.048(3) 0.034(3) 0.047(3) -0.012(2) 0.013(2) -0.005(3)
O4 0.053(4) 0.044(4) 0.080(4) 0.009(3) 0.012(3) 0.013(3)
N5 0.029(3) 0.020(3) 0.023(3) -0.003(2) 0.008(2) -0.006(2)
O14 0.035(3) 0.056(3) 0.047(3) -0.009(3) 0.011(2) -0.014(3)
O10 0.036(3) 0.045(3) 0.044(3) -0.010(2) 0.001(2) 0.014(3)
O15 0.060(4) 0.057(4) 0.031(3) 0.007(2) 0.006(3) 0.006(3)
O5 0.056(4) 0.089(5) 0.067(4) 0.010(3) 0.011(3) -0.014(4)
O11 0.082(5) 0.095(5) 0.081(5) 0.002(4) 0.018(4) 0.012(4)
C5 0.015(3) 0.011(3) 0.021(3) 0.003(2) 0.002(3) -0.008(3)
C39 0.042(5) 0.054(6) 0.072(6) 0.014(5) -0.007(4) -0.010(5)
O16 0.041(3) 0.035(3) 0.039(3) -0.006(2) 0.011(2) -0.006(2)

_geom_special_details            
;
All esds (except the esd in the dihedral angle between two l.s. planes)
are estimated using the full covariance matrix. The cell esds are taken
into account individually in the estimation of esds in distances, angles
and torsion angles; correlations between esds in cell parameters are only
used when they are defined by crystal symmetry. An approximate (isotropic)
treatment of cell esds is used for estimating esds involving l.s. planes.
;

loop_
_geom_bond_atom_site_label_1
_geom_bond_atom_site_label_2
_geom_bond_distance
_geom_bond_site_symmetry_2
_geom_bond_publ_flag
Sm1 O1 2.398(4) . ?
Sm1 O2 2.416(4) . ?
Sm1 N2 2.453(5) . ?
Sm1 N1 2.457(5) . ?
Sm1 N9 2.549(5) . ?
Sm1 N7 2.573(4) . ?
Sm1 N8 2.582(5) . ?
Sm1 N10 2.593(4) . ?
Fe1 C1 1.904(6) . ?
Fe1 C1 1.904(6) 3_666 ?
Fe1 C4 1.935(6) . ?
Fe1 C4 1.935(6) 3_666 ?
Fe1 C3 1.950(6) 3_666 ?
Fe1 C3 1.950(6) . ?
Fe2 C2 1.908(6) . ?
Fe2 C2 1.908(6) 3_566 ?
Fe2 C6 1.932(6) . ?
Fe2 C6 1.932(6) 3_566 ?
Fe2 C5 1.933(6) 3_566 ?
Fe2 C5 1.933(6) . ?
N8 C16 1.336(7) . ?
N8 C17 1.357(7) . ?
N9 C23 1.333(7) . ?
N9 C34 1.362(7) . ?
C18 N7 1.364(7) . ?
C18 C10 1.405(