####################################################################### 
# 
# This file contains crystal structure data downloaded from the 
# Cambridge Structural Database (CSD) hosted by the Cambridge 
# Crystallographic Data Centre (CCDC).
# 
# Full information about CCDC data access policies and citation 
# guidelines are available at http://www.ccdc.cam.ac.uk/access/V1 
# 
# Audit and citation data items may have been added by the CCDC. 
# Please retain this information to preserve the provenance of 
# this file and to allow appropriate attribution of the data. 
# 
#######################################################################

data_1a
_audit_block_doi                 10.5517/ccnzg35
_database_code_depnum_ccdc_archive 'CCDC 625087'
loop_
_citation_id
_citation_doi
_citation_year
1 10.1002/ejic.200600867 2007
_audit_update_record             
;
2006-10-23 deposited with the CCDC.	2024-07-12 downloaded from the CCDC.
;

_audit_creation_method           SHELXL-97
_chemical_name_systematic        
;
1,3,5-thiopyridine mesitylene+mercuric chloride+DMSO complex
;
_chemical_name_common            'thiopyridine mesitylene+mercury complex'
_chemical_melting_point          ?
_chemical_formula_moiety         'C27 H27 N3 S3,2(C2 H6 S1 O1),HgCl2'
_chemical_formula_sum            'C31 H39 Cl2 Hg N3 O2 S5'
_chemical_formula_weight         917.44

loop_
_atom_type_symbol
_atom_type_description
_atom_type_scat_dispersion_real
_atom_type_scat_dispersion_imag
_atom_type_scat_source
C C 0.0033 0.0016 'International Tables Vol C Tables 4.2.6.8 and 6.1.1.4'
H H 0.0000 0.0000 'International Tables Vol C Tables 4.2.6.8 and 6.1.1.4'
N N 0.0061 0.0033 'International Tables Vol C Tables 4.2.6.8 and 6.1.1.4'
O O 0.0106 0.0060 'International Tables Vol C Tables 4.2.6.8 and 6.1.1.4'
S S 0.1246 0.1234 'International Tables Vol C Tables 4.2.6.8 and 6.1.1.4'
Cl Cl 0.1484 0.1585 'International Tables Vol C Tables 4.2.6.8 and 6.1.1.4'
Hg Hg -2.3894 9.2266 'International Tables Vol C Tables 4.2.6.8 and 6.1.1.4'

_symmetry_cell_setting           triclinic
_symmetry_space_group_name_H-M   P-1

loop_
_symmetry_equiv_pos_as_xyz
'x, y, z'
'-x, -y, -z'

_cell_length_a                   9.049(2)
_cell_length_b                   13.646(4)
_cell_length_c                   16.298(4)
_cell_angle_alpha                111.990(1)
_cell_angle_beta                 90.430(1)
_cell_angle_gamma                101.570(1)
_cell_volume                     1820.6(8)
_cell_formula_units_Z            2
_cell_measurement_temperature    133(2)
_cell_measurement_reflns_used    ?
_cell_measurement_theta_min      ?
_cell_measurement_theta_max      ?

_exptl_crystal_description       blocks
_exptl_crystal_colour            colorless
_exptl_crystal_size_max          0.35
_exptl_crystal_size_mid          0.25
_exptl_crystal_size_min          0.20
_exptl_crystal_density_meas      ?
_exptl_crystal_density_diffrn    1.674
_exptl_crystal_density_method    'not measured'
_exptl_crystal_F_000             912
_exptl_absorpt_coefficient_mu    4.693
_exptl_absorpt_correction_type   ?
_exptl_absorpt_correction_T_min  ?
_exptl_absorpt_correction_T_max  ?
_exptl_absorpt_process_details   ?

_exptl_special_details           
;
?
;

_diffrn_ambient_temperature      133(2)
_diffrn_radiation_wavelength     0.71073
_diffrn_radiation_type           MoK\a
_diffrn_radiation_source         'fine-focus sealed tube'
_diffrn_radiation_monochromator  graphite
_diffrn_measurement_device_type  'Bruker,APEX CCD Area detector'
_diffrn_measurement_method       ?
_diffrn_detector_area_resol_mean ?
_diffrn_standards_number         ?
_diffrn_standards_interval_count ?
_diffrn_standards_interval_time  ?
_diffrn_standards_decay_%        ?
_diffrn_reflns_number            15091
_diffrn_reflns_av_R_equivalents  0.0469
_diffrn_reflns_av_sigmaI/netI    0.0373
_diffrn_reflns_limit_h_min       -10
_diffrn_reflns_limit_h_max       10
_diffrn_reflns_limit_k_min       -15
_diffrn_reflns_limit_k_max       15
_diffrn_reflns_limit_l_min       -18
_diffrn_reflns_limit_l_max       18
_diffrn_reflns_theta_min         1.35
_diffrn_reflns_theta_max         23.27
_reflns_number_total             5225
_reflns_number_gt                4931
_reflns_threshold_expression     >2sigma(I)

_computing_data_collection       SMART
_computing_cell_refinement       SMART
_computing_data_reduction        SAINTPLUS
_computing_structure_solution    WINGX,SIR-92
_computing_structure_refinement  'SHELXTL (Sheldrick, 1997)'
_computing_molecular_graphics    ?
_computing_publication_material  ?

_refine_special_details          
;
Refinement of F^2^ against ALL reflections. The weighted R-factor wR and
goodness of fit S are based on F^2^, conventional R-factors R are based
on F, with F set to zero for negative F^2^. The threshold expression of
F^2^ > 2sigma(F^2^) is used only for calculating R-factors(gt) etc. and is
not relevant to the choice of reflections for refinement. R-factors based
on F^2^ are statistically about twice as large as those based on F, and R-
factors based on ALL data will be even larger.
;

_refine_ls_structure_factor_coef Fsqd
_refine_ls_matrix_type           full
_refine_ls_weighting_scheme      calc
_refine_ls_weighting_details     
'calc w=1/[\s^2^(Fo^2^)+(0.0674P)^2^+6.4197P] where P=(Fo^2^+2Fc^2^)/3'
_atom_sites_solution_primary     direct
_atom_sites_solution_secondary   difmap
_atom_sites_solution_hydrogens   geom
_refine_ls_hydrogen_treatment    mixed
_refine_ls_extinction_method     none
_refine_ls_extinction_coef       ?
_refine_ls_number_reflns         5225
_refine_ls_number_parameters     423
_refine_ls_number_restraints     0
_refine_ls_R_factor_all          0.0479
_refine_ls_R_factor_gt           0.0461
_refine_ls_wR_factor_ref         0.1303
_refine_ls_wR_factor_gt          0.1293
_refine_ls_goodness_of_fit_ref   1.315
_refine_ls_restrained_S_all      1.315
_refine_ls_shift/su_max          0.019
_refine_ls_shift/su_mean         0.001

loop_
_atom_site_label
_atom_site_type_symbol
_atom_site_fract_x
_atom_site_fract_y
_atom_site_fract_z
_atom_site_U_iso_or_equiv
_atom_site_adp_type
_atom_site_occupancy
_atom_site_symmetry_multiplicity
_atom_site_calc_flag
_atom_site_refinement_flags
_atom_site_disorder_assembly
_atom_site_disorder_group
Hg Hg -1.57706(3) -0.98219(2) 0.387272(18) 0.02104(15) Uani 1 1 d . . .
Cl2 Cl -1.7507(2) -0.86572(17) 0.38485(14) 0.0301(5) Uani 1 1 d . . .
Cl1 Cl -1.3957(2) -1.08326(16) 0.41623(13) 0.0259(4) Uani 1 1 d . . .
S1 S -2.1816(2) -1.38884(18) 0.39506(18) 0.0383(6) Uani 1 1 d . . .
S2 S -2.9790(3) -1.6005(2) 0.3349(2) 0.0543(8) Uani 1 1 d . . .
S3 S -2.4297(5) -1.7601(3) 0.07217(17) 0.0785(11) Uani 1 1 d . . .
S41 S -2.0283(9) -1.0356(5) 0.1129(4) 0.065(3) Uani 0.69(2) 1 d P . .
N2 N -1.7900(7) -1.1272(5) 0.3857(4) 0.0243(15) Uani 1 1 d . . .
N3 N -3.3653(8) -1.8444(5) 0.3732(4) 0.0249(15) Uani 1 1 d . . .
S31 S -1.8031(6) -1.4436(5) 0.1174(4) 0.1150(17) Uani 1 1 d . . .
C2 C -1.5106(13) -1.2164(8) 0.1018(6) 0.048(3) Uani 1 1 d . . .
H2A H -1.4672 -1.2766 0.0814 0.058 Uiso 1 1 calc R . .
N1 N -1.5824(8) -1.0773(6) 0.2256(5) 0.0334(17) Uani 1 1 d . . .
C5 C -1.6387(12) -1.0436(9) 0.1689(6) 0.045(2) Uani 1 1 d . . .
H5A H -1.6835 -0.9843 0.1912 0.054 Uiso 1 1 calc R . .
C8 C -2.0338(9) -1.2858(7) 0.3922(6) 0.0267(18) Uani 1 1 d . . .
C9 C -2.0503(9) -1.1810(7) 0.4085(6) 0.0270(19) Uani 1 1 d . . .
H9A H -2.1426 -1.1617 0.4223 0.032 Uiso 1 1 calc R . .
C25 C -3.2221(9) -1.8384(7) 0.3988(5) 0.0265(18) Uani 1 1 d . . .
H25A H -3.2042 -1.8862 0.4242 0.032 Uiso 1 1 calc R . .
C24 C -3.1003(9) -1.7668(7) 0.3902(6) 0.0291(19) Uani 1 1 d . . .
H24A H -3.0030 -1.7662 0.4095 0.035 Uiso 1 1 calc R . .
C10 C -1.9256(9) -1.1061(7) 0.4035(5) 0.0257(18) Uani 1 1 d . . .
H10A H -1.9380 -1.0366 0.4132 0.031 Uiso 1 1 calc R . .
C15 C -2.6655(11) -1.6472(7) 0.2281(6) 0.040(2) Uani 1 1 d . . .
C13 C -2.5861(8) -1.4887(6) 0.3630(5) 0.0220(17) Uani 1 1 d . . .
C6 C -1.7747(9) -1.2273(7) 0.3732(6) 0.0299(19) Uani 1 1 d . . .
H6A H -1.6797 -1.2432 0.3626 0.036 Uiso 1 1 calc R . .
C27 C -3.2721(9) -1.7000(7) 0.3243(6) 0.0291(19) Uani 1 1 d . . .
H27A H -3.2925 -1.6536 0.2981 0.035 Uiso 1 1 calc R . .
C23 C -3.1233(10) -1.6957(7) 0.3524(6) 0.031(2) Uani 1 1 d . . .
C18 C -2.3283(15) -1.4577(12) 0.1855(9) 0.076(4) Uani 1 1 d . . .
H18A H -2.3339 -1.5054 0.1243 0.113 Uiso 1 1 calc R . .
H18B H -2.2318 -1.4505 0.2146 0.113 Uiso 1 1 calc R . .
H18C H -2.3400 -1.3879 0.1891 0.113 Uiso 1 1 calc R . .
C26 C -3.3873(9) -1.7747(7) 0.3366(5) 0.0272(18) Uani 1 1 d . . .
H26A H -3.4861 -1.7769 0.3185 0.033 Uiso 1 1 calc R . .
C12 C -2.4678(9) -1.4495(6) 0.3202(5) 0.0251(18) Uani 1 1 d . . .
O41 O -2.097(4) -1.1344(16) 0.0328(12) 0.109(12) Uani 0.63(6) 1 d P . .
C14 C -2.6809(9) -1.5889(7) 0.3167(6) 0.0285(19) Uani 1 1 d . . .
C11 C -2.3509(9) -1.3475(7) 0.3717(6) 0.031(2) Uani 1 1 d . . .
H11A H -2.3883 -1.3059 0.4266 0.037 Uiso 1 1 calc R . .
H11B H -2.3284 -1.3030 0.3369 0.037 Uiso 1 1 calc R . .
C22 C -2.8072(10) -1.6363(8) 0.3602(8) 0.041(2) Uani 1 1 d . . .
H22A H -2.7826 -1.6076 0.4240 0.049 Uiso 1 1 calc R . .
H22B H -2.8208 -1.7145 0.3378 0.049 Uiso 1 1 calc R . .
C42 C -2.1560(19) -0.9492(16) 0.1260(12) 0.089(5) Uani 1 1 d . . .
H42A H -2.1840 -0.9257 0.1859 0.16(9) Uiso 1 1 calc R . .
H42B H -2.2449 -0.9878 0.0855 0.4(2) Uiso 1 1 calc R . .
H42C H -2.1083 -0.8874 0.1137 0.23(14) Uiso 1 1 calc R . .
C7 C -1.8909(9) -1.3072(7) 0.3750(6) 0.034(2) Uani 1 1 d . . .
H7A H -1.8745 -1.3758 0.3648 0.040 Uiso 1 1 calc R . .
C32 C -1.928(2) -1.3381(15) 0.1283(11) 0.118(7) Uani 1 1 d . . .
H32A H -1.8639 -1.2700 0.1345 0.178 Uiso 1 1 calc R . .
H32B H -1.9836 -1.3286 0.1796 0.178 Uiso 1 1 calc R . .
H32C H -1.9974 -1.3640 0.0761 0.178 Uiso 1 1 calc R . .
C16 C -2.5561(12) -1.6029(8) 0.1835(6) 0.045(2) Uani 1 1 d . . .
C4 C -1.6351(14) -1.0907(10) 0.0791(7) 0.057(3) Uani 1 1 d . . .
H4A H -1.6774 -1.0640 0.0420 0.069 Uiso 1 1 calc R . .
C1 C -1.5189(12) -1.1627(8) 0.1919(6) 0.043(2) Uani 1 1 d . . .
H1A H -1.4781 -1.1875 0.2310 0.052 Uiso 1 1 calc R . .
C17 C -2.4544(11) -1.5044(8) 0.2311(6) 0.041(2) Uani 1 1 d . . .
C19 C -2.6032(10) -1.4214(7) 0.4589(6) 0.033(2) Uani 1 1 d . . .
H19A H -2.6881 -1.4582 0.4790 0.050 Uiso 1 1 calc R . .
H19B H -2.6197 -1.3523 0.4634 0.050 Uiso 1 1 calc R . .
H19C H -2.5128 -1.4109 0.4951 0.050 Uiso 1 1 calc R . .
C3 C -1.5670(13) -1.1799(9) 0.0431(6) 0.052(3) Uani 1 1 d . . .
C41 C -2.084(3) -1.0697(15) 0.2084(10) 0.103(6) Uani 1 1 d . . .
H41A H -2.1409 -1.0196 0.2443 0.27(17) Uiso 1 1 calc R . .
H41B H -1.9952 -1.0656 0.2430 0.17(10) Uiso 1 1 calc R . .
H41C H -2.1455 -1.1419 0.1878 0.13(7) Uiso 1 1 calc R . .
C21 C -2.5450(18) -1.6616(11) 0.0863(7) 0.071(4) Uani 1 1 d . . .
H21A H -2.4997 -1.6105 0.0605 0.085 Uiso 1 1 calc R . .
H21B H -2.6454 -1.6979 0.0563 0.085 Uiso 1 1 calc R . .
C20 C -2.7696(14) -1.7577(8) 0.1786(9) 0.065(4) Uani 1 1 d . . .
H20A H -2.8383 -1.7753 0.2182 0.097 Uiso 1 1 calc R . .
H20B H -2.7100 -1.8115 0.1573 0.097 Uiso 1 1 calc R . .
H20C H -2.8260 -1.7559 0.1293 0.097 Uiso 1 1 calc R . .
C31 C -1.970(3) -1.571(3) 0.107(2) 0.220(18) Uani 1 1 d . . .
H31A H -1.9276 -1.6327 0.0997 0.330 Uiso 1 1 calc R . .
H31B H -2.0402 -1.5882 0.0566 0.330 Uiso 1 1 calc R . .
H31C H -2.0225 -1.5536 0.1600 0.330 Uiso 1 1 calc R . .
O31 O -1.7724(14) -1.4797(12) 0.0200(8) 0.117(4) Uani 1 1 d . . .
S41A S -2.135(2) -1.0706(10) 0.0969(7) 0.059(6) Uani 0.31(2) 1 d P . .
O41A O -1.976(8) -1.087(7) 0.065(5) 0.16(4) Uani 0.37(6) 1 d P . .

loop_
_atom_site_aniso_label
_atom_site_aniso_U_11
_atom_site_aniso_U_22
_atom_site_aniso_U_33
_atom_site_aniso_U_23
_atom_site_aniso_U_13
_atom_site_aniso_U_12
Hg 0.0171(2) 0.0202(2) 0.0289(2) 0.01214(14) 0.00421(13) 0.00549(14)
Cl2 0.0237(10) 0.0307(11) 0.0472(12) 0.0244(10) 0.0115(9) 0.0120(9)
Cl1 0.0211(10) 0.0250(10) 0.0339(11) 0.0118(9) 0.0038(8) 0.0089(8)
S1 0.0181(11) 0.0270(12) 0.0761(17) 0.0281(12) 0.0048(11) 0.0027(9)
S2 0.0183(12) 0.0442(15) 0.124(3) 0.0599(17) 0.0041(13) 0.0044(11)
S3 0.119(3) 0.094(3) 0.0238(13) 0.0031(15) 0.0031(15) 0.063(2)
S41 0.048(6) 0.080(4) 0.063(3) 0.029(3) -0.008(3) 0.004(3)
N2 0.020(4) 0.021(4) 0.033(4) 0.012(3) 0.003(3) 0.004(3)
N3 0.023(4) 0.020(4) 0.031(4) 0.010(3) 0.001(3) 0.004(3)
S31 0.084(3) 0.173(5) 0.105(3) 0.071(4) 0.013(3) 0.030(3)
C2 0.073(7) 0.041(6) 0.031(5) 0.006(4) 0.009(5) 0.029(5)
N1 0.033(4) 0.032(4) 0.034(4) 0.009(3) 0.005(3) 0.009(3)
C5 0.052(6) 0.050(6) 0.035(5) 0.010(5) 0.007(5) 0.027(5)
C8 0.020(4) 0.025(4) 0.037(5) 0.014(4) 0.000(3) 0.004(3)
C9 0.017(4) 0.026(5) 0.041(5) 0.017(4) 0.003(4) 0.005(3)
C25 0.025(5) 0.027(4) 0.030(4) 0.012(4) 0.002(3) 0.008(4)
C24 0.018(4) 0.026(4) 0.046(5) 0.017(4) 0.000(4) 0.006(4)
C10 0.021(4) 0.023(4) 0.033(4) 0.010(4) 0.005(3) 0.005(3)
C15 0.034(5) 0.030(5) 0.045(6) 0.003(4) -0.021(4) 0.007(4)
C13 0.019(4) 0.021(4) 0.026(4) 0.009(3) 0.000(3) 0.005(3)
C6 0.018(4) 0.030(5) 0.044(5) 0.014(4) 0.009(4) 0.009(4)
C27 0.021(4) 0.025(4) 0.047(5) 0.020(4) 0.003(4) 0.003(4)
C23 0.025(5) 0.023(4) 0.050(5) 0.019(4) 0.008(4) 0.004(4)
C18 0.075(9) 0.098(10) 0.068(8) 0.045(8) 0.047(7) 0.021(8)
C26 0.018(4) 0.028(5) 0.034(5) 0.009(4) -0.002(3) 0.008(4)
C12 0.021(4) 0.024(4) 0.032(4) 0.013(4) 0.004(3) 0.005(3)
O41 0.13(3) 0.097(15) 0.067(13) -0.018(11) -0.017(12) 0.041(13)
C14 0.015(4) 0.031(5) 0.045(5) 0.019(4) 0.000(4) 0.008(4)
C11 0.019(4) 0.021(4) 0.052(5) 0.013(4) 0.003(4) 0.005(3)
C22 0.020(5) 0.034(5) 0.084(7) 0.039(5) 0.007(5) 0.005(4)
C42 0.079(10) 0.111(13) 0.090(12) 0.046(10) 0.002(9) 0.036(10)
C7 0.025(5) 0.021(4) 0.058(6) 0.018(4) 0.004(4) 0.005(4)
C32 0.105(13) 0.116(14) 0.089(12) 0.001(10) 0.048(10) 0.002(11)
C16 0.060(7) 0.037(6) 0.028(5) -0.001(4) -0.001(5) 0.014(5)
C4 0.065(7) 0.079(8) 0.033(6) 0.016(6) 0.005(5) 0.035(7)
C1 0.058(6) 0.037(5) 0.036(5) 0.012(4) 0.010(5) 0.016(5)
C17 0.036(5) 0.055(6) 0.039(5) 0.023(5) 0.015(4) 0.016(5)
C19 0.034(5) 0.038(5) 0.032(5) 0.016(4) 0.011(4) 0.013(4)
C3 0.064(7) 0.055(7) 0.030(5) 0.002(5) 0.004(5) 0.025(6)
C41 0.173(19) 0.076(11) 0.061(9) 0.032(8) -0.004(11) 0.019(12)
C21 0.113(11) 0.069(8) 0.026(5) -0.003(5) 0.002(6) 0.050(8)
C20 0.064(7) 0.021(5) 0.089(9) 0.006(5) -0.037(7) -0.006(5)
C31 0.16(2) 0.43(5) 0.29(3) 0.33(4) 0.14(2) 0.16(3)
O31 0.122(10) 0.170(12) 0.095(8) 0.075(8) 0.056(7) 0.061(9)
S41A 0.053(12) 0.065(8) 0.043(7) 0.003(6) 0.013(6) 0.008(7)
O41A 0.12(5) 0.30(7) 0.22(6) 0.21(6) 0.15(5) 0.17(5)

_geom_special_details            
;
All esds (except the esd in the dihedral angle between two l.s. planes)
are estimated using the full covariance matrix. The cell esds are taken
into account individually in the estimation of esds in distances, angles
and torsion angles; correlations between esds in cell parameters are only
used when they are defined by crystal symmetry. An approximate (isotropic)
treatment of cell esds is used for estimating esds involving l.s. planes.
;

loop_
_geom_bond_atom_site_label_1
_geom_bond_atom_site_label_2
_geom_bond_distance
_geom_bond_site_symmetry_2
_geom_bond_publ_flag
Hg N1 2.457(7) . ?
Hg Cl2 2.458(2) . ?
Hg N2 2.462(6) . ?
Hg N3 2.479(6) 1_765 ?
Hg Cl1 2.491(2) . ?
S1 C8 1.750(8) . ?
S1 C11 1.819(9) . ?
S2 C23 1.754(8) . ?
S2 C22 1.809(9) . ?
S3 C3 1.744(10) 2_125 ?
S3 C21 1.811(13) . ?
S41 S41A 0.974(14) . ?
S41 O41A 1.03(6) . ?
S41 O41 1.50(2) . ?
S41 C42 1.770(17) . ?
S41 C41 1.830(16) . ?
N2 C10 1.326(11) . ?
N2 C6 1.339(11) . ?
N3 C25 1.336(11) . ?
N3 C26 1.342(11) . ?
N3 Hg 2.479(6) 1_345 ?
S31 O31 1.521(12) . ?
S31 C32 1.96(2) . ?
S31 C31 2.02(3) . ?
C2 C3 1.370(15) . ?
C2 C1 1.384(13) . ?
N1 C5 1.317(12) . ?
N1 C1 1.336(12) . ?
C5 C4 1.363(14) . ?
C8 C7 1.390(12) . ?
C8 C9 1.393(12) . ?
C9 C10 1.387(12) . ?
C25 C24 1.365(12) . ?
C24 C23 1.375(12) . ?
C15 C14 1.388(13) . ?
C15 C16 1.405(15) . ?
C15 C20 1.522(13) . ?
C13 C14 1.386(12) . ?
C13 C12 1.408(11) . ?
C13 C19 1.516(11) . ?
C6 C7 1.364(12) . ?
C27 C26 1.377(12) . ?
C27 C23 1.402(12) . ?
C18 C17 1.528(14) . ?
C12 C17 1.382(13) . ?
C12 C11 1.510(11) . ?
O41 O41A 1.16(7) . ?
O41 S41A 1.19(3) . ?
C14 C22 1.512(12) . ?
C16 C17 1.402(14) . ?
C16 C21 1.499(13) . ?
C4 C3 1.406(16) . ?
C3 S3 1.744(10) 2_125 ?
S41A O41A 1.57(4) . ?

loop_
_geom_angle_atom_site_label_1
_geom_angle_atom_site_label_2
_geom_angle_atom_site_label_3
_geom_angle
_geom_angle_site_symmetry_1
_geom_angle_site_symmetry_3
_geom_angle_publ_flag
N1 Hg Cl2 97.23(18) . . ?
N1 Hg N2 88.1(2) . . ?
Cl2 Hg N2 91.33(16) . . ?
N1 Hg N3 86.5(2) . 1_765 ?
Cl2 Hg N3 88.76(16) . 1_765 ?
N2 Hg N3 174.5(2) . 1_765 ?
N1 Hg Cl1 92.02(18) . . ?
Cl2 Hg Cl1 170.71(7) . . ?
N2 Hg Cl1 89.85(16) . . ?
N3 Hg Cl1 90.93(16) 1_765 . ?
C8 S1 C11 103.5(4) . . ?
C23 S2 C22 103.6(4) . . ?
C3 S3 C21 102.2(5) 2_125 . ?
S41A S41 O41A 103(6) . . ?
S41A S41 O41 52.6(17) . . ?
O41A S41 O41 51(4) . . ?
S41A S41 C42 63.5(10) . . ?
O41A S41 C42 142(3) . . ?
O41 S41 C42 104.1(14) . . ?
S41A S41 C41 76.8(10) . . ?
O41A S41 C41 118(2) . . ?
O41 S41 C41 105.4(13) . . ?
C42 S41 C41 94.6(10) . . ?
C10 N2 C6 1