####################################################################### 
# 
# This file contains crystal structure data downloaded from the 
# Cambridge Structural Database (CSD) hosted by the Cambridge 
# Crystallographic Data Centre (CCDC).
# 
# Full information about CCDC data access policies and citation 
# guidelines are available at http://www.ccdc.cam.ac.uk/access/V1 
# 
# Audit and citation data items may have been added by the CCDC. 
# Please retain this information to preserve the provenance of 
# this file and to allow appropriate attribution of the data. 
# 
#######################################################################

data_1c
_audit_block_doi                 10.5517/ccnzg57
_database_code_depnum_ccdc_archive 'CCDC 625089'
loop_
_citation_id
_citation_doi
_citation_year
1 10.1002/ejic.200600867 2007
_audit_update_record             
;
2006-10-23 deposited with the CCDC.	2024-07-12 downloaded from the CCDC.
;

_audit_creation_method           SHELXL-97
_chemical_name_systematic        
;
1,3,5-thiopyridine mesitylene+mercuric iodide complex
;
_chemical_name_common            'thiopyridinemesitylene and mercury complex'
_chemical_melting_point          ?
_chemical_formula_moiety         '2(C27 H27 N3 S3), 3(HgI2)'
_chemical_formula_sum            'C54 H54 Hg3 I6 N6 S6'
_chemical_formula_weight         2342.56

loop_
_atom_type_symbol
_atom_type_description
_atom_type_scat_dispersion_real
_atom_type_scat_dispersion_imag
_atom_type_scat_source
C C 0.0033 0.0016 'International Tables Vol C Tables 4.2.6.8 and 6.1.1.4'
H H 0.0000 0.0000 'International Tables Vol C Tables 4.2.6.8 and 6.1.1.4'
N N 0.0061 0.0033 'International Tables Vol C Tables 4.2.6.8 and 6.1.1.4'
S S 0.1246 0.1234 'International Tables Vol C Tables 4.2.6.8 and 6.1.1.4'
I I -0.4742 1.8119 'International Tables Vol C Tables 4.2.6.8 and 6.1.1.4'
Hg Hg -2.3894 9.2266 'International Tables Vol C Tables 4.2.6.8 and 6.1.1.4'

_symmetry_cell_setting           monoclinic
_symmetry_space_group_name_H-M   C2/c

loop_
_symmetry_equiv_pos_as_xyz
'x, y, z'
'-x, y, -z+1/2'
'x+1/2, y+1/2, z'
'-x+1/2, y+1/2, -z+1/2'
'-x, -y, -z'
'x, -y, z-1/2'
'-x+1/2, -y+1/2, -z'
'x+1/2, -y+1/2, z-1/2'

_cell_length_a                   27.661(7)
_cell_length_b                   18.821(4)
_cell_length_c                   15.786(4)
_cell_angle_alpha                90
_cell_angle_beta                 113.13(1)
_cell_angle_gamma                90
_cell_volume                     7558(3)
_cell_formula_units_Z            4
_cell_measurement_temperature    133(2)
_cell_measurement_reflns_used    ?
_cell_measurement_theta_min      ?
_cell_measurement_theta_max      ?

_exptl_crystal_description       blocks
_exptl_crystal_colour            colorless
_exptl_crystal_size_max          0.35
_exptl_crystal_size_mid          0.25
_exptl_crystal_size_min          0.20
_exptl_crystal_density_meas      ?
_exptl_crystal_density_diffrn    2.059
_exptl_crystal_density_method    'not measured'
_exptl_crystal_F_000             4296
_exptl_absorpt_coefficient_mu    8.730
_exptl_absorpt_correction_type   ?
_exptl_absorpt_correction_T_min  ?
_exptl_absorpt_correction_T_max  ?
_exptl_absorpt_process_details   ?

_exptl_special_details           
;
?
;

_diffrn_ambient_temperature      133(2)
_diffrn_radiation_wavelength     0.71073
_diffrn_radiation_type           MoK\a
_diffrn_radiation_source         'fine-focus sealed tube'
_diffrn_radiation_monochromator  graphite
_diffrn_measurement_device_type  'Bruker, Apex CCD Area detector'
_diffrn_measurement_method       ?
_diffrn_detector_area_resol_mean ?
_diffrn_standards_number         ?
_diffrn_standards_interval_count ?
_diffrn_standards_interval_time  ?
_diffrn_standards_decay_%        ?
_diffrn_reflns_number            15672
_diffrn_reflns_av_R_equivalents  0.1232
_diffrn_reflns_av_sigmaI/netI    0.1397
_diffrn_reflns_limit_h_min       -30
_diffrn_reflns_limit_h_max       24
_diffrn_reflns_limit_k_min       -20
_diffrn_reflns_limit_k_max       19
_diffrn_reflns_limit_l_min       -17
_diffrn_reflns_limit_l_max       17
_diffrn_reflns_theta_min         1.35
_diffrn_reflns_theta_max         23.33
_reflns_number_total             5451
_reflns_number_gt                2929
_reflns_threshold_expression     >2sigma(I)

_computing_data_collection       SMART
_computing_cell_refinement       SMART
_computing_data_reduction        SAINTPLUS
_computing_structure_solution    WINGX,SIR-92
_computing_structure_refinement  'SHELXTL (Sheldrick, 1997)'
_computing_molecular_graphics    ?
_computing_publication_material  ?

_refine_special_details          
;
Refinement of F^2^ against ALL reflections. The weighted R-factor wR and
goodness of fit S are based on F^2^, conventional R-factors R are based
on F, with F set to zero for negative F^2^. The threshold expression of
F^2^ > 2sigma(F^2^) is used only for calculating R-factors(gt) etc. and is
not relevant to the choice of reflections for refinement. R-factors based
on F^2^ are statistically about twice as large as those based on F, and R-
factors based on ALL data will be even larger.
;

_refine_ls_structure_factor_coef Fsqd
_refine_ls_matrix_type           full
_refine_ls_weighting_scheme      calc
_refine_ls_weighting_details     
'calc w=1/[\s^2^(Fo^2^)+(0.0714P)^2^+0.0000P] where P=(Fo^2^+2Fc^2^)/3'
_atom_sites_solution_primary     direct
_atom_sites_solution_secondary   difmap
_atom_sites_solution_hydrogens   geom
_refine_ls_hydrogen_treatment    mixed
_refine_ls_extinction_method     none
_refine_ls_extinction_coef       ?
_refine_ls_number_reflns         5451
_refine_ls_number_parameters     339
_refine_ls_number_restraints     0
_refine_ls_R_factor_all          0.1153
_refine_ls_R_factor_gt           0.0570
_refine_ls_wR_factor_ref         0.1797
_refine_ls_wR_factor_gt          0.1374
_refine_ls_goodness_of_fit_ref   0.927
_refine_ls_restrained_S_all      0.927
_refine_ls_shift/su_max          0.000
_refine_ls_shift/su_mean         0.000

loop_
_atom_site_label
_atom_site_type_symbol
_atom_site_fract_x
_atom_site_fract_y
_atom_site_fract_z
_atom_site_U_iso_or_equiv
_atom_site_adp_type
_atom_site_occupancy
_atom_site_symmetry_multiplicity
_atom_site_calc_flag
_atom_site_refinement_flags
_atom_site_disorder_assembly
_atom_site_disorder_group
Hg1 Hg 1.0000 0.54825(6) 0.7500 0.0550(4) Uani 1 2 d S . .
Hg2 Hg 0.34380(3) 0.38241(5) 0.53027(6) 0.0580(3) Uani 1 1 d . . .
I3 I 0.36933(6) 0.40450(8) 0.70868(10) 0.0666(5) Uani 1 1 d . . .
I1 I 1.03437(6) 0.59610(9) 0.92036(11) 0.0772(5) Uani 1 1 d . . .
I2 I 0.30030(8) 0.44067(12) 0.36668(12) 0.1071(7) Uani 1 1 d . . .
S1 S 0.8350(3) 0.2694(3) 0.7370(4) 0.0733(19) Uani 1 1 d . . .
S2 S 0.7032(3) -0.0204(3) 0.4983(4) 0.0715(17) Uani 1 1 d . . .
S3 S 0.5691(2) 0.2353(4) 0.5074(4) 0.083(2) Uani 1 1 d . . .
C25 C 0.3018(8) 0.1150(10) 0.5011(15) 0.050(5) Uani 1 1 d . . .
N1 N 0.9427(6) 0.4547(8) 0.7458(12) 0.048(4) Uani 1 1 d . . .
C11 C 0.7165(8) 0.0888(10) 0.6147(12) 0.050(5) Uani 1 1 d . . .
C12 C 0.7578(8) 0.1329(9) 0.6159(13) 0.041(5) Uani 1 1 d . . .
N3 N 0.3172(6) 0.2598(9) 0.5163(12) 0.056(5) Uani 1 1 d . . .
C6 C 0.7926(8) 0.2524(11) 0.6170(13) 0.059(6) Uani 1 1 d . . .
H6B H 0.7774 0.2965 0.5863 0.070 Uiso 1 1 calc R . .
H6A H 0.8128 0.2312 0.5851 0.070 Uiso 1 1 calc R . .
C8 C 0.7043(8) 0.2346(10) 0.6175(13) 0.053(5) Uani 1 1 d . . .
C5 C 0.9421(8) 0.4244(11) 0.8206(14) 0.055(6) Uani 1 1 d . . .
H5A H 0.9648 0.4418 0.8775 0.066 Uiso 1 1 calc R . .
N2 N 0.4266(7) 0.3378(9) 0.5303(13) 0.062(5) Uani 1 1 d . . .
C10 C 0.6682(8) 0.1128(12) 0.6166(13) 0.056(6) Uani 1 1 d . . .
C9 C 0.6641(8) 0.1909(12) 0.6212(13) 0.053(5) Uani 1 1 d . . .
C26 C 0.3233(9) 0.1480(13) 0.5880(14) 0.072(7) Uani 1 1 d . . .
H26A H 0.3333 0.1218 0.6422 0.086 Uiso 1 1 calc R . .
C7 C 0.7513(7) 0.2037(10) 0.6164(12) 0.042(5) Uani 1 1 d . . .
C24 C 0.2906(8) 0.1577(12) 0.4256(15) 0.058(6) Uani 1 1 d . . .
H24A H 0.2784 0.1378 0.3670 0.070 Uiso 1 1 calc R . .
C27 C 0.3286(9) 0.2199(12) 0.5890(17) 0.075(7) Uani 1 1 d . . .
H27A H 0.3414 0.2423 0.6461 0.090 Uiso 1 1 calc R . .
C4 C 0.9106(9) 0.3699(13) 0.8196(13) 0.067(7) Uani 1 1 d . . .
H4A H 0.9113 0.3514 0.8747 0.081 Uiso 1 1 calc R . .
C2 C 0.8797(10) 0.3699(13) 0.6564(14) 0.074(7) Uani 1 1 d . . .
H2A H 0.8588 0.3524 0.5985 0.089 Uiso 1 1 calc R . .
C23 C 0.2972(8) 0.2293(10) 0.4360(16) 0.055(6) Uani 1 1 d . . .
H23A H 0.2870 0.2576 0.3836 0.066 Uiso 1 1 calc R . .
C21 C 0.4681(8) 0.3246(12) 0.6049(17) 0.073(7) Uani 1 1 d . . .
H21A H 0.4679 0.3377 0.6616 0.088 Uiso 1 1 calc R . .
C1 C 0.9148(10) 0.4259(12) 0.6685(17) 0.077(8) Uani 1 1 d . . .
H1A H 0.9182 0.4437 0.6162 0.093 Uiso 1 1 calc R . .
C19 C 0.4742(8) 0.2904(13) 0.4415(14) 0.072(7) Uani 1 1 d . . .
H19A H 0.4736 0.2783 0.3839 0.087 Uiso 1 1 calc R . .
C18 C 0.5145(7) 0.2774(12) 0.5169(16) 0.062(6) Uani 1 1 d . . .
C17 C 0.6128(8) 0.2201(11) 0.6225(15) 0.066(6) Uani 1 1 d . . .
H17B H 0.6195 0.2642 0.6572 0.079 Uiso 1 1 calc R . .
H17A H 0.5977 0.1863 0.6515 0.079 Uiso 1 1 calc R . .
C15 C 0.6222(8) 0.0650(11) 0.6125(17) 0.077(7) Uani 1 1 d . . .
H15C H 0.6314 0.0161 0.6095 0.115 Uiso 1 1 calc R . .
H15B H 0.5916 0.0767 0.5589 0.115 Uiso 1 1 calc R . .
H15A H 0.6151 0.0725 0.6667 0.115 Uiso 1 1 calc R . .
C3 C 0.8778(8) 0.3415(12) 0.7382(16) 0.065(6) Uani 1 1 d . . .
C14 C 0.6971(9) 0.3135(10) 0.6217(16) 0.071(7) Uani 1 1 d . . .
H14A H 0.6629 0.3232 0.6214 0.106 Uiso 1 1 calc R . .
H14C H 0.7002 0.3357 0.5694 0.106 Uiso 1 1 calc R . .
H14B H 0.7236 0.3320 0.6772 0.106 Uiso 1 1 calc R . .
C13 C 0.8066(8) 0.0988(10) 0.6162(16) 0.066(6) Uani 1 1 d . . .
H13A H 0.8313 0.1349 0.6172 0.098 Uiso 1 1 calc R . .
H13B H 0.7980 0.0703 0.5617 0.098 Uiso 1 1 calc R . .
H13C H 0.8217 0.0692 0.6697 0.098 Uiso 1 1 calc R . .
C20 C 0.4337(10) 0.3222(13) 0.4513(18) 0.084(8) Uani 1 1 d . . .
H20A H 0.4064 0.3356 0.3968 0.101 Uiso 1 1 calc R . .
C22 C 0.5119(8) 0.2922(12) 0.6025(16) 0.071(7) Uani 1 1 d . . .
H22A H 0.5397 0.2799 0.6571 0.085 Uiso 1 1 calc R . .
C16 C 0.7249(8) 0.0046(9) 0.6198(13) 0.050(5) Uani 1 1 d . . .
H16A H 0.7036 -0.0183 0.6483 0.060 Uiso 1 1 calc R . .
H16B H 0.7615 -0.0076 0.6540 0.060 Uiso 1 1 calc R . .

loop_
_atom_site_aniso_label
_atom_site_aniso_U_11
_atom_site_aniso_U_22
_atom_site_aniso_U_33
_atom_site_aniso_U_23
_atom_site_aniso_U_13
_atom_site_aniso_U_12
Hg1 0.0550(8) 0.0549(8) 0.0552(8) 0.000 0.0218(6) 0.000
Hg2 0.0601(6) 0.0570(6) 0.0587(6) -0.0003(5) 0.0255(5) 0.0042(5)
I3 0.0814(11) 0.0612(10) 0.0571(9) 0.0001(7) 0.0270(8) 0.0105(8)
I1 0.0822(12) 0.0821(12) 0.0639(10) -0.0185(9) 0.0250(9) 0.0041(9)
I2 0.1094(15) 0.1459(18) 0.0711(12) 0.0373(12) 0.0410(11) 0.0426(14)
S1 0.098(5) 0.073(4) 0.043(3) 0.003(3) 0.020(3) -0.038(4)
S2 0.101(5) 0.049(4) 0.066(4) -0.010(3) 0.034(4) -0.001(3)
S3 0.065(4) 0.112(5) 0.071(4) -0.012(4) 0.026(3) 0.026(4)
C25 0.048(13) 0.040(12) 0.066(15) 0.002(12) 0.027(11) -0.003(10)
N1 0.042(10) 0.046(10) 0.051(11) -0.009(9) 0.014(9) -0.012(8)
C11 0.070(15) 0.042(12) 0.038(12) -0.008(9) 0.021(11) 0.018(11)
C12 0.052(13) 0.030(12) 0.052(12) 0.000(9) 0.034(11) -0.007(10)
N3 0.063(12) 0.052(11) 0.056(12) -0.003(10) 0.026(10) -0.008(9)
C6 0.075(15) 0.067(15) 0.046(13) -0.006(11) 0.036(12) -0.008(13)
C8 0.064(15) 0.045(13) 0.049(13) 0.003(10) 0.021(11) -0.014(12)
C5 0.064(15) 0.061(15) 0.042(13) -0.001(11) 0.025(11) -0.024(12)
N2 0.054(12) 0.071(13) 0.062(12) -0.021(10) 0.026(11) -0.001(10)
C10 0.063(15) 0.075(16) 0.041(12) -0.007(11) 0.032(11) 0.017(13)
C9 0.052(13) 0.066(15) 0.046(12) -0.017(11) 0.023(10) 0.000(12)
C26 0.090(18) 0.071(17) 0.037(13) -0.012(12) 0.007(12) -0.002(14)
C7 0.042(12) 0.046(13) 0.039(11) 0.002(9) 0.017(10) -0.002(10)
C24 0.064(15) 0.062(16) 0.057(14) 0.005(12) 0.033(12) 0.009(12)
C27 0.11(2) 0.041(15) 0.067(17) 0.013(13) 0.029(15) 0.001(14)
C4 0.070(16) 0.11(2) 0.021(11) 0.000(12) 0.011(11) -0.012(15)
C2 0.101(19) 0.098(19) 0.038(13) 0.009(13) 0.043(13) 0.005(16)
C23 0.066(15) 0.033(13) 0.069(16) -0.003(11) 0.030(13) 0.008(11)
C21 0.027(13) 0.092(19) 0.085(18) -0.019(15) 0.005(13) 0.007(12)
C1 0.10(2) 0.068(17) 0.079(19) 0.021(14) 0.048(16) -0.038(15)
C19 0.047(14) 0.13(2) 0.039(13) -0.005(13) 0.013(12) 0.026(15)
C18 0.025(12) 0.086(17) 0.072(16) -0.018(14) 0.014(12) -0.007(11)
C17 0.065(15) 0.057(14) 0.088(17) 0.010(13) 0.043(14) 0.016(12)
C15 0.055(15) 0.061(15) 0.11(2) 0.005(14) 0.033(15) -0.017(13)
C3 0.058(15) 0.072(16) 0.073(17) 0.004(13) 0.035(14) -0.008(13)
C14 0.087(18) 0.034(13) 0.100(19) -0.014(12) 0.047(15) -0.017(12)
C13 0.061(15) 0.053(14) 0.094(18) 0.005(13) 0.043(14) 0.012(12)
C20 0.069(18) 0.10(2) 0.073(19) -0.003(15) 0.012(15) 0.003(16)
C22 0.050(14) 0.102(19) 0.061(15) -0.013(14) 0.022(12) 0.014(14)
C16 0.054(13) 0.048(13) 0.056(13) -0.008(10) 0.031(11) 0.006(10)

_geom_special_details            
;
All esds (except the esd in the dihedral angle between two l.s. planes)
are estimated using the full covariance matrix. The cell esds are taken
into account individually in the estimation of esds in distances, angles
and torsion angles; correlations between esds in cell parameters are only
used when they are defined by crystal symmetry. An approximate (isotropic)
treatment of cell esds is used for estimating esds involving l.s. planes.
;

loop_
_geom_bond_atom_site_label_1
_geom_bond_atom_site_label_2
_geom_bond_distance
_geom_bond_site_symmetry_2
_geom_bond_publ_flag
Hg1 N1 2.353(15) 2_756 ?
Hg1 N1 2.353(15) . ?
Hg1 I1 2.6341(17) 2_756 ?
Hg1 I1 2.6342(17) . ?
Hg2 N3 2.406(16) . ?
Hg2 N2 2.440(17) . ?
Hg2 I2 2.623(2) . ?
Hg2 I3 2.6535(18) . ?
S1 C3 1.80(2) . ?
S1 C6 1.82(2) . ?
S2 C25 1.785(19) 5_656 ?
S2 C16 1.832(18) . ?
S3 C18 1.76(2) . ?
S3 C17 1.77(2) . ?
C25 C24 1.37(3) . ?
C25 C26 1.41(3) . ?
C25 S2 1.785(19) 5_656 ?
N1 C1 1.28(3) . ?
N1 C5 1.32(2) . ?
C11 C12 1.41(2) . ?
C11 C10 1.42(3) . ?
C11 C16 1.60(2) . ?
C12 C7 1.35(2) . ?
C12 C13 1.49(2) . ?
N3 C23 1.30(2) . ?
N3 C27 1.30(2) . ?
C6 C7 1.46(2) . ?
C8 C9 1.40(2) . ?
C8 C7 1.43(2) . ?
C8 C14 1.50(3) . ?
C5 C4 1.34(3) . ?
N2 C21 1.30(3) . ?
N2 C20 1.37(3) . ?
C10 C9 1.48(3) . ?
C10 C15 1.54(3) . ?
C9 C17 1.53(2) . ?
C26 C27 1.36(3) . ?
C24 C23 1.36(3) . ?
C4 C3 1.36(3) . ?
C2 C1 1.39(3) . ?
C2 C3 1.42(3) . ?
C21 C22 1.37(3) . ?
C19 C18 1.30(3) . ?
C19 C20 1.33(3) . ?
C18 C22 1.41(3) . ?

loop_
_geom_angle_atom_site_label_1
_geom_angle_atom_site_label_2
_geom_angle_atom_site_label_3
_geom_angle
_geom_angle_site_symmetry_1
_geom_angle_site_symmetry_3
_geom_angle_publ_flag
N1 Hg1 N1 83.0(7) 2_756 . ?
N1 Hg1 I1 104.7(4) 2_756 2_756 ?
N1 Hg1 I1 105.0(4) . 2_756 ?
N1 Hg1 I1 105.0(4) 2_756 . ?
N1 Hg1 I1 104.7(4) . . ?
I1 Hg1 I1 140.01(9) 2_756 . ?
N3 Hg2 N2 85.6(6) . . ?
N3 Hg2 I2 107.8(4) . . ?
N2 Hg2 I2 102.2(4) . . ?
N3 Hg2 I3 101.1(4) . . ?
N2 Hg2 I3 101.3(4) . . ?
I2 Hg2 I3 143.85(7) . . ?
C3 S1 C6 107.1(10) . . ?
C25 S2 C16 104.2(9) 5_656 . ?
C18 S3 C17 104.4(10) . . ?
C24 C25 C26 117.0(19) . . ?
C24 C25 S2 126.8(17) . 5_656 ?
C26 C25 S2 116.0(17) . 5_656 ?
C1 N1 C5 117.1(17) . . ?
C1 N1 Hg1 119.5(14) . . ?
C5 N1 Hg1 123.0(14) . . ?
C12 C11 C10 125.4(17) . . ?
C12 C11 C16 118.9(17) . . ?
C10 C11 C16 115.5(18) . . ?
C7 C12 C11 118.3(17) . . ?
C7 C12 C13 123.3(17) . . ?
C11 C12 C13 118.4(16) . . ?
C23 N3 C27 117.9(19) . . ?
C23 N3 Hg2 120.7(14) . . ?
C27 N3 Hg2 120.9(15) . . ?
C7 C6 S1 107.4(13) . . ?
C9 C8 C7 120.1(18) . . ?
C9 C8 C14 117.3(19) . . ?
C7 C8 C14 122.5(18) . . ?
N1 C5 C4 123.8(19) . . ?
C21 N2 C20 113(2) . . ?
C21 N2 Hg2 123.9(15) . . ?
C20 N2 Hg2 123.0(16) . . ?
C11 C10 C9 114.0(19) . . ?
C11 C10 C15 125.6(19) . . ?
C9 C10 C15 120.3(17) . . ?
C8 C9 C10 120.3(18) . . ?
C8 C9 C17 122.9(19) . . ?
C10 C9 C17 116.6(18) . . ?
C27 C26 C25 117(2) . . ?
C12 C7 C8 121.8(17) . . ?
C12 C7 C6 120.9(18) . . ?
C8 C7 C6 117.3(17) . . ?
C23 C24 C25 120(2) . . ?
N3 C27 C26 125(2) . . ?
C5 C4 C3 120.1(19) . . ?
C1 C2 C3 116(2) . . ?
N3 C23 C24 123(2) . . ?
N2 C21 C22 122(2) . . ?
N1 C1 C2 125(2) . . ?
C18 C19 C20 116(2) . . ?
C19 C18 C22 120(2) . . ?
C19 C18 S3 117.6(18) . . ?
C22 C18 S3 122.6(17) . . ?
C9 C17 S3 107.9(14) . . ?
C4 C3 C2 118(2) . . ?
C4 C3 S1 120.0(17) . . ?
C2 C3 S1 122.4(19) . . ?
C19 C20 N2 129(2) . . ?
C21 C22 C18 120(2) . . ?
C11 C16 S2 102.7(12) . . ?

_diffrn_measured_fraction_theta_max 0.996
_diffrn_reflns_theta_full        23.33
_diffrn_measured_fraction_theta_full 0.996
_refine_diff_density_max         1.798
_refine_diff_density_min         -0.790
_refine_diff_density_rms         0.237
