####################################################################### 
# 
# This file contains crystal structure data downloaded from the 
# Cambridge Structural Database (CSD) hosted by the Cambridge 
# Crystallographic Data Centre (CCDC).
# 
# Full information about CCDC data access policies and citation 
# guidelines are available at http://www.ccdc.cam.ac.uk/access/V1 
# 
# Audit and citation data items may have been added by the CCDC. 
# Please retain this information to preserve the provenance of 
# this file and to allow appropriate attribution of the data. 
# 
#######################################################################

data_1
_audit_block_doi                 10.5517/ccnxlpt
_database_code_depnum_ccdc_archive 'CCDC 623307'
loop_
_citation_id
_citation_doi
_citation_year
1 10.1002/anie.200604284 2007
_audit_update_record             
;
2006-10-07 deposited with the CCDC.	2024-07-12 downloaded from the CCDC.
;

_audit_creation_method           SHELXL-97
_chemical_name_systematic        
;
?
;
_chemical_name_common            ?
_chemical_melting_point          ?
_chemical_formula_moiety         ?
_chemical_formula_sum            'C14 H8 Co3 N6 O6'
_chemical_formula_weight         533.05

loop_
_atom_type_symbol
_atom_type_description
_atom_type_scat_dispersion_real
_atom_type_scat_dispersion_imag
_atom_type_scat_source
C C 0.0033 0.0016 'International Tables Vol C Tables 4.2.6.8 and 6.1.1.4'
H H 0.0000 0.0000 'International Tables Vol C Tables 4.2.6.8 and 6.1.1.4'
N N 0.0061 0.0033 'International Tables Vol C Tables 4.2.6.8 and 6.1.1.4'
O O 0.0106 0.0060 'International Tables Vol C Tables 4.2.6.8 and 6.1.1.4'
Co Co 0.3494 0.9721 'International Tables Vol C Tables 4.2.6.8 and 6.1.1.4'

_symmetry_cell_setting           monoclinic
_symmetry_space_group_name_H-M   C2/c

loop_
_symmetry_equiv_pos_as_xyz
'x, y, z'
'-x, y, -z+1/2'
'x+1/2, y+1/2, z'
'-x+1/2, y+1/2, -z+1/2'
'-x, -y, -z'
'x, -y, z-1/2'
'-x+1/2, -y+1/2, -z'
'x+1/2, -y+1/2, z-1/2'

_cell_length_a                   18.157(11)
_cell_length_b                   12.116(7)
_cell_length_c                   11.046(7)
_cell_angle_alpha                90.00
_cell_angle_beta                 94.983(10)
_cell_angle_gamma                90.00
_cell_volume                     2421(3)
_cell_formula_units_Z            4
_cell_measurement_temperature    298(2)
_cell_measurement_reflns_used    ?
_cell_measurement_theta_min      ?
_cell_measurement_theta_max      ?

_exptl_crystal_description       block
_exptl_crystal_colour            red
_exptl_crystal_size_max          0.25
_exptl_crystal_size_mid          0.08
_exptl_crystal_size_min          0.08
_exptl_crystal_density_meas      ?
_exptl_crystal_density_diffrn    1.463
_exptl_crystal_density_method    'not measured'
_exptl_crystal_F_000             1052
_exptl_absorpt_coefficient_mu    2.067
_exptl_absorpt_correction_type   Empirical
_exptl_absorpt_correction_T_min  0.6261
_exptl_absorpt_correction_T_max  0.8521
_exptl_absorpt_process_details   'SADABS, Sheldrick 1997'

_exptl_special_details           
;
The contribution of the solvent to the diffraction pattern
was subtracted from the observed data by the SQUEEZE method
implemented in PLATON.
;

_diffrn_ambient_temperature      298(2)
_diffrn_radiation_wavelength     0.71073
_diffrn_radiation_type           MoK\a
_diffrn_radiation_source         'fine-focus sealed tube'
_diffrn_radiation_monochromator  graphite
_diffrn_measurement_device_type  'Bruker Apex CCD Diffractometer'
_diffrn_measurement_method       '\f and \w scan'
_diffrn_detector_area_resol_mean ?
_diffrn_standards_number         0
_diffrn_standards_interval_count 0
_diffrn_standards_interval_time  ?
_diffrn_standards_decay_%        0
_diffrn_reflns_number            6181
_diffrn_reflns_av_R_equivalents  0.0649
_diffrn_reflns_av_sigmaI/netI    0.0944
_diffrn_reflns_limit_h_min       -20
_diffrn_reflns_limit_h_max       22
_diffrn_reflns_limit_k_min       -12
_diffrn_reflns_limit_k_max       14
_diffrn_reflns_limit_l_min       -13
_diffrn_reflns_limit_l_max       13
_diffrn_reflns_theta_min         2.02
_diffrn_reflns_theta_max         25.99
_reflns_number_total             2363
_reflns_number_gt                1554
_reflns_threshold_expression     >2sigma(I)

_computing_data_collection       'SMART (Bruker, 2001)'
_computing_cell_refinement       'SMART (Bruker, 2001)'
_computing_data_reduction        'SAINT (Bruker, 2001)'
_computing_structure_solution    'SHELXS-97 (Sheldrick, 1990)'
_computing_structure_refinement  'SHELXL-97 (Sheldrick, 1997)'
_computing_molecular_graphics    'ORTEP-II (Johnson, 1976)'
_computing_publication_material  'SHELXL-97 (Sheldrick, 1997)'

_refine_special_details          
;
Refinement of F^2^ against ALL reflections. The weighted R-factor wR and
goodness of fit S are based on F^2^, conventional R-factors R are based
on F, with F set to zero for negative F^2^. The threshold expression of
F^2^ > 2sigma(F^2^) is used only for calculating R-factors(gt) etc. and is
not relevant to the choice of reflections for refinement. R-factors based
on F^2^ are statistically about twice as large as those based on F, and R-
factors based on ALL data will be even larger.
;

_refine_ls_structure_factor_coef Fsqd
_refine_ls_matrix_type           full
_refine_ls_weighting_scheme      calc
_refine_ls_weighting_details     
'calc w=1/[\s^2^(Fo^2^)+(0.0641P)^2^+0.0000P] where P=(Fo^2^+2Fc^2^)/3'
_atom_sites_solution_primary     direct
_atom_sites_solution_secondary   difmap
_atom_sites_solution_hydrogens   geom
_refine_ls_hydrogen_treatment    mixed
_refine_ls_extinction_method     none
_refine_ls_extinction_coef       ?
_refine_ls_number_reflns         2363
_refine_ls_number_parameters     132
_refine_ls_number_restraints     0
_refine_ls_R_factor_all          0.0801
_refine_ls_R_factor_gt           0.0505
_refine_ls_wR_factor_ref         0.1212
_refine_ls_wR_factor_gt          0.1128
_refine_ls_goodness_of_fit_ref   0.871
_refine_ls_restrained_S_all      0.871
_refine_ls_shift/su_max          0.001
_refine_ls_shift/su_mean         0.000

loop_
_atom_site_label
_atom_site_type_symbol
_atom_site_fract_x
_atom_site_fract_y
_atom_site_fract_z
_atom_site_U_iso_or_equiv
_atom_site_adp_type
_atom_site_occupancy
_atom_site_symmetry_multiplicity
_atom_site_calc_flag
_atom_site_refinement_flags
_atom_site_disorder_assembly
_atom_site_disorder_group
Co1 Co 0.5000 0.10142(8) 0.2500 0.0196(3) Uani 1 2 d S . .
Co2 Co 0.57530(4) 0.06919(6) -0.00762(6) 0.0240(2) Uani 1 1 d . . .
O1 O 0.47895(16) 0.0831(3) 0.0678(3) 0.0226(8) Uani 1 1 d . . .
H1A H 0.4544 0.1394 0.0375 0.027 Uiso 1 1 d . . .
N1 N 0.8713(2) 0.4417(4) 0.1652(4) 0.0301(11) Uani 1 1 d . . .
O2 O 0.6310(2) 0.2062(3) 0.0593(3) 0.0379(10) Uani 1 1 d . . .
O3 O 0.57840(19) 0.2257(3) 0.2337(3) 0.0397(10) Uani 1 1 d . . .
N2 N 0.9094(2) 0.4897(4) 0.2587(3) 0.0276(11) Uani 1 1 d . . .
C4 C 0.8094(3) 0.3965(5) 0.2078(4) 0.0302(13) Uani 1 1 d . . .
N3 N 0.8761(2) 0.4802(4) 0.3606(3) 0.0283(10) Uani 1 1 d . . .
C3 C 0.7498(3) 0.3381(5) 0.1505(5) 0.0354(14) Uani 1 1 d . . .
H3A H 0.7472 0.3226 0.0678 0.043 Uiso 1 1 calc R . .
C1 C 0.6302(3) 0.2416(5) 0.1685(5) 0.0332(13) Uani 1 1 d . . .
C5 C 0.8127(3) 0.4216(5) 0.3323(4) 0.0295(13) Uani 1 1 d . . .
C2 C 0.6952(3) 0.3044(5) 0.2209(5) 0.0349(14) Uani 1 1 d . . .
C6 C 0.7580(3) 0.3864(5) 0.4044(5) 0.0476(18) Uani 1 1 d . . .
H6A H 0.7604 0.4020 0.4870 0.057 Uiso 1 1 calc R . .
C7 C 0.7010(3) 0.3283(5) 0.3481(5) 0.0457(17) Uani 1 1 d . . .
H7B H 0.6641 0.3029 0.3944 0.055 Uiso 1 1 calc R . .

loop_
_atom_site_aniso_label
_atom_site_aniso_U_11
_atom_site_aniso_U_22
_atom_site_aniso_U_33
_atom_site_aniso_U_23
_atom_site_aniso_U_13
_atom_site_aniso_U_12
Co1 0.0139(5) 0.0310(6) 0.0146(5) 0.000 0.0048(4) 0.000
Co2 0.0179(4) 0.0398(5) 0.0153(4) -0.0014(3) 0.0070(3) -0.0060(3)
O1 0.0140(17) 0.035(2) 0.0189(18) -0.0008(15) 0.0005(14) 0.0010(15)
N1 0.022(2) 0.054(3) 0.015(2) -0.001(2) 0.0042(19) -0.016(2)
O2 0.033(2) 0.056(3) 0.027(2) -0.0110(18) 0.0121(18) -0.0229(19)
O3 0.031(2) 0.054(3) 0.037(2) -0.0113(19) 0.0185(18) -0.0219(19)
N2 0.023(2) 0.051(3) 0.009(2) 0.000(2) 0.0016(18) -0.008(2)
C4 0.021(3) 0.054(4) 0.016(3) -0.001(2) 0.001(2) -0.015(3)
N3 0.024(2) 0.048(3) 0.013(2) 0.002(2) 0.0012(18) -0.009(2)
C3 0.028(3) 0.058(4) 0.021(3) -0.007(3) 0.005(2) -0.017(3)
C1 0.025(3) 0.049(4) 0.027(3) -0.006(3) 0.009(2) -0.016(3)
C5 0.025(3) 0.049(4) 0.014(3) -0.001(2) 0.001(2) -0.013(3)
C2 0.028(3) 0.057(4) 0.019(3) -0.002(3) 0.002(2) -0.016(3)
C6 0.041(4) 0.080(5) 0.024(3) -0.004(3) 0.019(3) -0.034(3)
C7 0.046(4) 0.069(4) 0.026(3) -0.011(3) 0.020(3) -0.037(3)

_geom_special_details            
;
All esds (except the esd in the dihedral angle between two l.s. planes)
are estimated using the full covariance matrix. The cell esds are taken
into account individually in the estimation of esds in distances, angles
and torsion angles; correlations between esds in cell parameters are only
used when they are defined by crystal symmetry. An approximate (isotropic)
treatment of cell esds is used for estimating esds involving l.s. planes.
;

loop_
_geom_bond_atom_site_label_1
_geom_bond_atom_site_label_2
_geom_bond_distance
_geom_bond_site_symmetry_2
_geom_bond_publ_flag
Co1 O1 2.028(3) 2_655 ?
Co1 O1 2.028(3) . ?
Co1 O3 2.091(3) . ?
Co1 O3 2.091(3) 2_655 ?
Co1 N2 2.139(4) 3_445 ?
Co1 N2 2.139(4) 4_645 ?
Co2 O1 2.009(3) . ?
Co2 O2 2.048(4) . ?
Co2 N1 2.069(4) 7_655 ?
Co2 N3 2.080(4) 4_645 ?
Co2 O1 2.168(3) 5_655 ?
O1 Co2 2.168(3) 5_655 ?
N1 N2 1.326(5) . ?
N1 C4 1.371(6) . ?
N1 Co2 2.069(4) 7_655 ?
O2 C1 1.281(6) . ?
O3 C1 1.248(5) . ?
N2 N3 1.327(5) . ?
N2 Co1 2.139(4) 3 ?
C4 C3 1.398(7) . ?
C4 C5 1.404(7) . ?
N3 C5 1.365(6) . ?
N3 Co2 2.080(4) 4_655 ?
C3 C2 1.374(7) . ?
C1 C2 1.479(7) . ?
C5 C6 1.394(7) . ?
C2 C7 1.429(7) . ?
C6 C7 1.357(8) . ?

loop_
_geom_angle_atom_site_label_1
_geom_angle_atom_site_label_2
_geom_angle_atom_site_label_3
_geom_angle
_geom_angle_site_symmetry_1
_geom_angle_site_symmetry_3
_geom_angle_publ_flag
O1 Co1 O1 167.39(19) 2_655 . ?
O1 Co1 O3 95.37(13) 2_655 . ?
O1 Co1 O3 93.70(13) . . ?
O1 Co1 O3 93.70(13) 2_655 2_655 ?
O1 Co1 O3 95.37(13) . 2_655 ?
O3 Co1 O3 87.8(2) . 2_655 ?
O1 Co1 N2 88.00(13) 2_655 3_445 ?
O1 Co1 N2 84.03(13) . 3_445 ?
O3 Co1 N2 172.63(16) . 3_445 ?
O3 Co1 N2 85.40(16) 2_655 3_445 ?
O1 Co1 N2 84.03(13) 2_655 4_645 ?
O1 Co1 N2 88.00(13) . 4_645 ?
O3 Co1 N2 85.40(16) . 4_645 ?
O3 Co1 N2 172.63(16) 2_655 4_645 ?
N2 Co1 N2 101.5(2) 3_445 4_645 ?
O1 Co2 O2 101.71(14) . . ?
O1 Co2 N1 147.43(16) . 7_655 ?
O2 Co2 N1 95.91(15) . 7_655 ?
O1 Co2 N3 92.58(15) . 4_645 ?
O2 Co2 N3 88.59(17) . 4_645 ?
N1 Co2 N3 115.20(17) 7_655 4_645 ?
O1 Co2 O1 79.02(14) . 5_655 ?
O2 Co2 O1 175.64(14) . 5_655 ?
N1 Co2 O1 85.47(15) 7_655 5_655 ?
N3 Co2 O1 87.08(15) 4_645 5_655 ?
Co2 O1 Co1 108.96(15) . . ?
Co2 O1 Co2 100.98(14) . 5_655 ?
Co1 O1 Co2 116.05(15) . 5_655 ?
N2 N1 C4 107.2(4) . . ?
N2 N1 Co2 115.7(3) . 7_655 ?
C4 N1 Co2 136.2(4) . 7_655 ?
C1 O2 Co2 124.5(3) . . ?
C1 O3 Co1 135.5(4) . . ?
N1 N2 N3 112.2(4) . . ?
N1 N2 Co1 126.4(3) . 3 ?
N3 N2 Co1 120.1(3) . 3 ?
N1 C4 C3 132.3(5) . . ?
N1 C4 C5 106.4(4) . . ?
C3 C4 C5 121.3(5) . . ?
N2 N3 C5 106.7(4) . . ?
N2 N3 Co2 115.1(3) . 4_655 ?
C5 N3 Co2 137.8(3) . 4_655 ?
C2 C3 C4 117.5(5) . . ?
O3 C1 O2 124.2(5) . . ?
O3 C1 C2 118.0(5) . . ?
O2 C1 C2 117.9(4) . . ?
N3 C5 C6 131.1(5) . . ?
N3 C5 C4 107.5(4) . . ?
C6 C5 C4 121.4(5) . . ?
C3 C2 C7 120.1(5) . . ?
C3 C2 C1 121.4(5) . . ?
C7 C2 C1 118.5(4) . . ?
C7 C6 C5 116.8(5) . . ?
C6 C7 C2 122.9(5) . . ?

_diffrn_measured_fraction_theta_max 0.993
_diffrn_reflns_theta_full        25.99
_diffrn_measured_fraction_theta_full 0.993
_refine_diff_density_max         0.789
_refine_diff_density_min         -0.559
_refine_diff_density_rms         0.113
