####################################################################### 
# 
# This file contains crystal structure data downloaded from the 
# Cambridge Structural Database (CSD) hosted by the Cambridge 
# Crystallographic Data Centre (CCDC).
# 
# Full information about CCDC data access policies and citation 
# guidelines are available at http://www.ccdc.cam.ac.uk/access/V1 
# 
# Audit and citation data items may have been added by the CCDC. 
# Please retain this information to preserve the provenance of 
# this file and to allow appropriate attribution of the data. 
# 
#######################################################################

data_mm5
_audit_block_doi                 10.5517/cczxr4r
_database_code_depnum_ccdc_archive 'CCDC 921355'
loop_
_citation_id
_citation_doi
_citation_year
1 10.1002/chem.201301536 2013
_audit_update_record             
;
2013-01-23 deposited with the CCDC.	2024-07-12 downloaded from the CCDC.
;
#TrackingRef '921355.cif'


_audit_creation_method           SHELXL-97
_chemical_name_systematic        
;
?
;
_chemical_name_common            ?
_chemical_melting_point          ?
_chemical_formula_moiety         ?
_chemical_formula_sum            'C66 H52 N10 Ni O11.50 Tb'
_chemical_formula_weight         1386.81

loop_
_atom_type_symbol
_atom_type_description
_atom_type_scat_dispersion_real
_atom_type_scat_dispersion_imag
_atom_type_scat_source
C C 0.0033 0.0016 'International Tables Vol C Tables 4.2.6.8 and 6.1.1.4'
H H 0.0000 0.0000 'International Tables Vol C Tables 4.2.6.8 and 6.1.1.4'
N N 0.0061 0.0033 'International Tables Vol C Tables 4.2.6.8 and 6.1.1.4'
O O 0.0106 0.0060 'International Tables Vol C Tables 4.2.6.8 and 6.1.1.4'
Ni Ni 0.3393 1.1124 'International Tables Vol C Tables 4.2.6.8 and 6.1.1.4'
Tb Tb -0.1723 4.1537 'International Tables Vol C Tables 4.2.6.8 and 6.1.1.4'

_symmetry_cell_setting           ?
_symmetry_space_group_name_H-M   ?

loop_
_symmetry_equiv_pos_as_xyz
'x, y, z'
'-x+1/2, -y, z'
'x, -y+1/2, -z+1/2'
'-x+1/2, y+1/2, -z+1/2'
'-x, -y, -z'
'x-1/2, y, -z'
'-x, y-1/2, z-1/2'
'x-1/2, -y-1/2, z-1/2'

_cell_length_a                   33.523
_cell_length_b                   21.280
_cell_length_c                   30.021
_cell_angle_alpha                90.00
_cell_angle_beta                 90.00
_cell_angle_gamma                90.00
_cell_volume                     21416.1
_cell_formula_units_Z            8
_cell_measurement_temperature    293(2)
_cell_measurement_reflns_used    ?
_cell_measurement_theta_min      ?
_cell_measurement_theta_max      ?

_exptl_crystal_description       ?
_exptl_crystal_colour            ?
_exptl_crystal_size_max          ?
_exptl_crystal_size_mid          ?
_exptl_crystal_size_min          ?
_exptl_crystal_density_meas      ?
_exptl_crystal_density_diffrn    0.860
_exptl_crystal_density_method    'not measured'
_exptl_crystal_F_000             5624
_exptl_absorpt_coefficient_mu    0.872
_exptl_absorpt_correction_type   none
_exptl_absorpt_correction_T_min  ?
_exptl_absorpt_correction_T_max  ?
_exptl_absorpt_process_details   ?

_exptl_special_details           
;
?
;

_diffrn_ambient_temperature      293(2)
_diffrn_radiation_wavelength     0.71073
_diffrn_radiation_type           MoK\a
_diffrn_radiation_source         'fine-focus sealed tube'
_diffrn_radiation_monochromator  graphite
_diffrn_measurement_device_type  ?
_diffrn_measurement_method       ?
_diffrn_detector_area_resol_mean ?
_diffrn_standards_number         ?
_diffrn_standards_interval_count ?
_diffrn_standards_interval_time  ?
_diffrn_standards_decay_%        ?
_diffrn_reflns_number            70961
_diffrn_reflns_av_R_equivalents  0.1793
_diffrn_reflns_av_sigmaI/netI    0.1720
_diffrn_reflns_limit_h_min       -33
_diffrn_reflns_limit_h_max       25
_diffrn_reflns_limit_k_min       -20
_diffrn_reflns_limit_k_max       21
_diffrn_reflns_limit_l_min       -26
_diffrn_reflns_limit_l_max       30
_diffrn_reflns_theta_min         1.17
_diffrn_reflns_theta_max         20.86
_reflns_number_total             11267
_reflns_number_gt                4891
_reflns_threshold_expression     >2sigma(I)

_computing_data_collection       ?
_computing_cell_refinement       ?
_computing_data_reduction        ?
_computing_structure_solution    ?
_computing_structure_refinement  'SHELXL-97 (Sheldrick, 1997)'
_computing_molecular_graphics    ?
_computing_publication_material  ?

_refine_special_details          
;
Refinement of F^2^ against ALL reflections. The weighted R-factor wR and
goodness of fit S are based on F^2^, conventional R-factors R are based
on F, with F set to zero for negative F^2^. The threshold expression of
F^2^ > 2sigma(F^2^) is used only for calculating R-factors(gt) etc. and is
not relevant to the choice of reflections for refinement. R-factors based
on F^2^ are statistically about twice as large as those based on F, and R-
factors based on ALL data will be even larger.
;

_refine_ls_structure_factor_coef Fsqd
_refine_ls_matrix_type           full
_refine_ls_weighting_scheme      calc
_refine_ls_weighting_details     
'calc w=1/[\s^2^(Fo^2^)+(0.0001P)^2^+0.0000P] where P=(Fo^2^+2Fc^2^)/3'
_atom_sites_solution_primary     direct
_atom_sites_solution_secondary   difmap
_atom_sites_solution_hydrogens   geom
_refine_ls_hydrogen_treatment    mixed
_refine_ls_extinction_method     none
_refine_ls_extinction_coef       ?
_refine_ls_number_reflns         11267
_refine_ls_number_parameters     758
_refine_ls_number_restraints     60
_refine_ls_R_factor_all          0.0897
_refine_ls_R_factor_gt           0.0429
_refine_ls_wR_factor_ref         0.0755
_refine_ls_wR_factor_gt          0.0711
_refine_ls_goodness_of_fit_ref   0.714
_refine_ls_restrained_S_all      0.720
_refine_ls_shift/su_max          0.000
_refine_ls_shift/su_mean         0.000

loop_
_atom_site_label
_atom_site_type_symbol
_atom_site_fract_x
_atom_site_fract_y
_atom_site_fract_z
_atom_site_U_iso_or_equiv
_atom_site_adp_type
_atom_site_occupancy
_atom_site_symmetry_multiplicity
_atom_site_calc_flag
_atom_site_refinement_flags
_atom_site_disorder_assembly
_atom_site_disorder_group
Ni2 Ni 0.37013(3) 0.27868(5) -0.04766(3) 0.0823(3) Uani 1 1 d . . .
Tb1 Tb 0.613432(10) 0.177916(15) 0.200322(10) 0.05879(12) Uani 1 1 d . . .
C1 C 0.5742(3) 0.1527(4) 0.1214(3) 0.066(3) Uani 1 1 d . . .
C2 C 0.5515(3) 0.1409(4) 0.0766(3) 0.084(3) Uani 1 1 d . . .
C3 C 0.5158(3) 0.1040(4) 0.0780(4) 0.125(4) Uani 1 1 d . . .
H3 H 0.5057 0.0875 0.1043 0.150 Uiso 1 1 calc R . .
C4 C 0.4967(3) 0.0943(5) 0.0351(5) 0.135(5) Uani 1 1 d . . .
H4 H 0.4735 0.0704 0.0346 0.162 Uiso 1 1 calc R . .
C5 C 0.5098(4) 0.1169(6) -0.0032(4) 0.120(5) Uani 1 1 d . . .
C6 C 0.5419(4) 0.1505(5) -0.0005(4) 0.124(5) Uani 1 1 d . . .
H6 H 0.5509 0.1679 -0.0271 0.149 Uiso 1 1 calc R . .
C7 C 0.5651(3) 0.1641(4) 0.0374(4) 0.123(4) Uani 1 1 d . . .
H7 H 0.5884 0.1876 0.0357 0.148 Uiso 1 1 calc R . .
C65 C 0.4859(3) 0.1039(4) -0.0422(3) 0.159(5) Uani 1 1 d . . .
H65A H 0.4876 0.0593 -0.0485 0.191 Uiso 1 1 calc R . .
H65B H 0.4975 0.1260 -0.0673 0.191 Uiso 1 1 calc R . .
C8 C 0.4304(3) 0.1790(7) -0.0417(3) 0.107(3) Uani 1 1 d . . .
C9 C 0.3760(3) 0.1225(3) -0.0379(2) 0.153(5) Uani 1 1 d GD . .
C10 C 0.4099(2) 0.0848(5) -0.0379(3) 0.176(6) Uani 1 1 d GD . .
C11 C 0.4061(3) 0.0198(5) -0.0371(3) 0.211(6) Uani 1 1 d GDU . .
H11 H 0.4287 -0.0055 -0.0371 0.254 Uiso 1 1 calc R . .
C12 C 0.3684(4) -0.0076(3) -0.0362(3) 0.273(8) Uani 1 1 d GDU . .
H12 H 0.3659 -0.0511 -0.0357 0.328 Uiso 1 1 calc R . .
C13 C 0.3346(3) 0.0301(5) -0.0362(3) 0.264(8) Uani 1 1 d GDU . .
H13 H 0.3094 0.0118 -0.0357 0.316 Uiso 1 1 calc R . .
C14 C 0.3384(2) 0.0952(5) -0.0370(2) 0.211(6) Uani 1 1 d GD . .
H14 H 0.3157 0.1204 -0.0370 0.253 Uiso 1 1 calc R . .
C15 C 0.3136(3) 0.2268(4) -0.1056(5) 0.096(4) Uani 1 1 d . . .
C16 C 0.2727(4) 0.2409(4) -0.0505(4) 0.088(3) Uani 1 1 d . . .
C17 C 0.2515(4) 0.2122(4) -0.0860(5) 0.097(4) Uani 1 1 d . . .
C18 C 0.2536(4) 0.2629(4) -0.0118(4) 0.119(4) Uani 1 1 d . . .
H18 H 0.2671 0.2868 0.0093 0.143 Uiso 1 1 calc R . .
C19 C 0.2142(4) 0.2474(6) -0.0067(4) 0.161(5) Uani 1 1 d . . .
H19 H 0.2011 0.2568 0.0198 0.193 Uiso 1 1 calc R . .
C20 C 0.1938(5) 0.2179(7) -0.0408(5) 0.174(7) Uani 1 1 d . . .
H20 H 0.1668 0.2103 -0.0366 0.209 Uiso 1 1 calc R . .
C21 C 0.2103(5) 0.1989(5) -0.0801(5) 0.139(5) Uani 1 1 d . . .
H21 H 0.1955 0.1784 -0.1018 0.167 Uiso 1 1 calc R . .
C22 C 0.3083(2) 0.4523(3) -0.1547(2) 0.093(3) Uani 1 1 d . . .
H22A H 0.3281 0.4455 -0.1778 0.111 Uiso 1 1 calc R . .
H22B H 0.3011 0.4964 -0.1550 0.111 Uiso 1 1 calc R . .
C23 C 0.2716(2) 0.4131(3) -0.1649(3) 0.064(2) Uani 1 1 d . . .
C24 C 0.2546(2) 0.3721(4) -0.1344(2) 0.056(2) Uani 1 1 d . . .
H24 H 0.2642 0.3702 -0.1054 0.068 Uiso 1 1 calc R . .
C25 C 0.2237(2) 0.3344(3) -0.1474(2) 0.059(2) Uani 1 1 d . . .
H25 H 0.2141 0.3037 -0.1281 0.071 Uiso 1 1 calc R . .
C26 C 0.2065(2) 0.3415(3) -0.1888(3) 0.056(2) Uani 1 1 d . . .
C27 C 0.2232(2) 0.3840(3) -0.2187(2) 0.056(2) Uani 1 1 d . . .
H27 H 0.2124 0.3879 -0.2471 0.068 Uiso 1 1 calc R . .
C28 C 0.2556(2) 0.4207(3) -0.2069(2) 0.067(2) Uani 1 1 d . . .
H28 H 0.2663 0.4497 -0.2268 0.080 Uiso 1 1 calc R . .
C29 C 0.3469(2) 0.3827(5) -0.1031(3) 0.070(2) Uani 1 1 d . . .
C30 C 0.3365(2) 0.4231(4) -0.0380(4) 0.079(3) Uani 1 1 d . . .
C31 C 0.3192(3) 0.4639(5) -0.0686(4) 0.089(3) Uani 1 1 d . . .
C32 C 0.3016(3) 0.5207(5) -0.0570(5) 0.128(4) Uani 1 1 d . . .
H32 H 0.2900 0.5481 -0.0774 0.154 Uiso 1 1 calc R . .
C33 C 0.3035(3) 0.5321(5) -0.0105(5) 0.143(5) Uani 1 1 d . . .
H33 H 0.2940 0.5706 -0.0003 0.171 Uiso 1 1 calc R . .
C34 C 0.3175(4) 0.4929(6) 0.0194(4) 0.160(5) Uani 1 1 d . . .
H34 H 0.3140 0.5020 0.0495 0.191 Uiso 1 1 calc R . .
C35 C 0.3369(3) 0.4392(5) 0.0076(3) 0.118(4) Uani 1 1 d . . .
H35 H 0.3499 0.4143 0.0286 0.142 Uiso 1 1 calc R . .
C36 C 0.4145(3) 0.3393(4) 0.0205(4) 0.090(3) Uani 1 1 d . . .
C37 C 0.3642(5) 0.2959(7) 0.0627(4) 0.130(6) Uani 1 1 d D . .
C38 C 0.3865(5) 0.3349(7) 0.0893(6) 0.132(4) Uani 1 1 d D . .
C39 C 0.3803(5) 0.3490(6) 0.1327(6) 0.173(6) Uani 1 1 d D . .
H39 H 0.3946 0.3778 0.1497 0.207 Uiso 1 1 calc R . .
C40 C 0.3488(6) 0.3124(8) 0.1467(5) 0.231(8) Uani 1 1 d D . .
H40 H 0.3447 0.3125 0.1774 0.278 Uiso 1 1 calc R . .
C41 C 0.3220(4) 0.2755(9) 0.1229(6) 0.273(11) Uani 1 1 d D . .
H41 H 0.2985 0.2607 0.1354 0.328 Uiso 1 1 calc R . .
C42 C 0.3324(4) 0.2624(6) 0.0798(6) 0.169(6) Uani 1 1 d D . .
H42 H 0.3188 0.2326 0.0630 0.203 Uiso 1 1 calc R . .
C43 C 0.4470(3) 0.4102(4) 0.0773(3) 0.138(4) Uani 1 1 d . . .
H43A H 0.4330 0.4460 0.0899 0.165 Uiso 1 1 calc R . .
H43B H 0.4615 0.4246 0.0513 0.165 Uiso 1 1 calc R . .
C44 C 0.4768(3) 0.3835(5) 0.1122(3) 0.105(3) Uani 1 1 d . . .
C45 C 0.4838(3) 0.4179(4) 0.1488(4) 0.112(3) Uani 1 1 d . . .
H45 H 0.4712 0.4566 0.1523 0.134 Uiso 1 1 calc R . .
C46 C 0.5102(3) 0.3956(5) 0.1825(3) 0.125(4) Uani 1 1 d . . .
H46 H 0.5148 0.4191 0.2081 0.150 Uiso 1 1 calc R . .
C47 C 0.5290(3) 0.3381(5) 0.1763(3) 0.083(3) Uani 1 1 d . . .
C48 C 0.5228(2) 0.3058(4) 0.1380(3) 0.114(4) Uani 1 1 d . . .
H48 H 0.5366 0.2687 0.1328 0.136 Uiso 1 1 calc R . .
C49 C 0.4959(3) 0.3280(5) 0.1066(3) 0.130(4) Uani 1 1 d . . .
H49 H 0.4909 0.3042 0.0812 0.155 Uiso 1 1 calc R . .
C50 C 0.5601(2) 0.3150(4) 0.2078(3) 0.070(2) Uani 1 1 d . . .
C51 C 0.4556(3) 0.2376(5) -0.0384(3) 0.116(4) Uani 1 1 d . . .
H51A H 0.4789 0.2326 -0.0572 0.139 Uiso 1 1 calc R . .
H51B H 0.4648 0.2421 -0.0079 0.139 Uiso 1 1 calc R . .
C52 C 0.4398(2) 0.3503(4) -0.0195(3) 0.104(3) Uani 1 1 d . . .
H52A H 0.4325 0.3899 -0.0334 0.125 Uiso 1 1 calc R . .
H52B H 0.4676 0.3525 -0.0109 0.125 Uiso 1 1 calc R . .
C53 C 0.4411(2) 0.3167(5) -0.1004(3) 0.125(3) Uani 1 1 d . . .
H53A H 0.4311 0.3588 -0.1056 0.150 Uiso 1 1 calc R . .
H53B H 0.4694 0.3161 -0.1069 0.150 Uiso 1 1 calc R . .
C54 C 0.4191(3) 0.2694(5) -0.1299(3) 0.128(4) Uani 1 1 d . . .
H54A H 0.4241 0.2781 -0.1611 0.153 Uiso 1 1 calc R . .
H54B H 0.4278 0.2269 -0.1233 0.153 Uiso 1 1 calc R . .
C55 C 0.3590(2) 0.3353(4) -0.1374(2) 0.086(3) Uani 1 1 d . . .
H55A H 0.3358 0.3248 -0.1553 0.103 Uiso 1 1 calc R . .
H55B H 0.3785 0.3545 -0.1570 0.103 Uiso 1 1 calc R . .
C56 C 0.3509(3) 0.2230(4) -0.1338(3) 0.122(4) Uani 1 1 d . . .
H56A H 0.3648 0.1836 -0.1288 0.146 Uiso 1 1 calc R . .
H56B H 0.3444 0.2264 -0.1652 0.146 Uiso 1 1 calc R . .
C57 C 0.6526(3) 0.0603(4) 0.1898(3) 0.067(3) Uani 1 1 d . . .
C58 C 0.6718(3) 0.0011(5) 0.1815(3) 0.073(3) Uani 1 1 d . . .
C59 C 0.6655(3) -0.0450(6) 0.2099(3) 0.111(4) Uani 1 1 d U . .
H59 H 0.6483 -0.0386 0.2337 0.133 Uiso 1 1 calc R . .
C60 C 0.6842(4) -0.1037(6) 0.2052(3) 0.142(5) Uani 1 1 d U . .
H60 H 0.6792 -0.1360 0.2253 0.171 Uiso 1 1 calc R . .
C61 C 0.7095(3) -0.1120(4) 0.1709(4) 0.084(3) Uani 1 1 d U . .
C62 C 0.7154(3) -0.0648(6) 0.1413(4) 0.195(6) Uani 1 1 d . . .
H62 H 0.7320 -0.0707 0.1168 0.234 Uiso 1 1 calc R . .
C63 C 0.6965(3) -0.0073(4) 0.1481(4) 0.152(5) Uani 1 1 d . . .
H63 H 0.7015 0.0257 0.1286 0.183 Uiso 1 1 calc R . .
C64 C 0.6713(2) 0.3021(3) 0.2042(3) 0.062(2) Uani 1 1 d . . .
N1 N 0.3918(2) 0.1875(3) -0.0408(2) 0.106(3) Uani 1 1 d . . .
N2 N 0.4438(3) 0.1210(5) -0.0392(3) 0.153(5) Uani 1 1 d . . .
N3 N 0.3121(3) 0.2490(3) -0.0644(3) 0.079(2) Uani 1 1 d . . .
N4 N 0.2781(4) 0.2027(3) -0.1200(3) 0.094(3) Uani 1 1 d . . .
N5 N 0.3260(2) 0.4365(4) -0.1109(3) 0.076(2) Uani 1 1 d . . .
N6 N 0.35346(18) 0.3724(3) -0.0590(3) 0.079(2) Uani 1 1 d . . .
N7 N 0.3821(3) 0.2998(3) 0.0203(3) 0.088(2) Uani 1 1 d . . .
N8 N 0.4178(3) 0.3618(4) 0.0640(4) 0.105(3) Uani 1 1 d . . .
N9 N 0.43367(19) 0.2974(3) -0.0520(3) 0.089(2) Uani 1 1 d . . .
N10 N 0.3759(2) 0.2770(4) -0.11939(19) 0.090(2) Uani 1 1 d . . .
O1 O 0.56164(16) 0.1287(3) 0.15622(17) 0.096(2) Uani 1 1 d . . .
O2 O 0.60335(15) 0.1878(3) 0.11836(15) 0.0863(18) Uani 1 1 d . . .
O3 O 0.66542(13) 0.1094(2) 0.16926(13) 0.0635(14) Uani 1 1 d . . .
O4 O 0.62353(17) 0.0648(2) 0.21389(16) 0.0902(19) Uani 1 1 d . . .
O5 O 0.65327(13) 0.1823(2) 0.26133(13) 0.0684(15) Uani 1 1 d . . .
O6 O 0.56515(14) 0.1525(2) 0.25752(15) 0.0716(16) Uani 1 1 d . . .
O7 O 0.66272(13) 0.2548(2) 0.18043(13) 0.0554(14) Uani 1 1 d . . .
O8 O 0.57457(13) 0.2651(2) 0.19995(17) 0.0735(16) Uani 1 1 d . . .
C66 C 0.7320(2) -0.1760(4) 0.1623(3) 0.112(3) Uiso 1 1 d . . .
H66A H 0.7606 -0.1688 0.1634 0.135 Uiso 1 1 calc R . .
H66B H 0.7252 -0.2056 0.1856 0.135 Uiso 1 1 calc R . .

loop_
_atom_site_aniso_label
_atom_site_aniso_U_11
_atom_site_aniso_U_22
_atom_site_aniso_U_33
_atom_site_aniso_U_23
_atom_site_aniso_U_13
_atom_site_aniso_U_12
Ni2 0.0737(8) 0.0769(8) 0.0963(8) -0.0182(6) -0.0292(6) 0.0138(7)
Tb1 0.0500(2) 0.0666(2) 0.0598(2) -0.0078(2) -0.0024(2) -0.0011(3)
C1 0.060(7) 0.081(8) 0.057(7) -0.022(5) -0.004(6) 0.000(5)
C2 0.082(8) 0.086(7) 0.084(8) -0.035(6) -0.019(7) 0.019(6)
C3 0.097(9) 0.123(9) 0.155(11) -0.002(7) -0.033(8) -0.017(7)
C4 0.097(10) 0.161(11) 0.147(11) -0.064(10) -0.090(10) 0.030(8)
C5 0.120(13) 0.163(13) 0.076(9) -0.043(9) -0.061(10) 0.054(10)
C6 0.118(11) 0.183(13) 0.071(8) -0.033(7) -0.037(8) 0.063(9)
C7 0.123(9) 0.179(10) 0.068(7) -0.002(8) -0.014(8) 0.019(8)
C65 0.174(12) 0.131(9) 0.173(10) -0.074(7) -0.107(10) 0.067(9)
C8 0.083(9) 0.115(10) 0.122(7) -0.040(8) -0.054(7) -0.004(10)
C9 0.138(12) 0.054(7) 0.267(11) -0.022(7) -0.125(10) 0.034(9)
C10 0.110(11) 0.169(16) 0.250(12) -0.112(12) -0.122(10) 0.071(11)
C11 0.166(13) 0.065(8) 0.402(16) -0.039(10) -0.132(11) 0.034(8)
C12 0.180(14) 0.130(10) 0.51(2) -0.071(11) -0.116(16) 0.005(13)
C13 0.212(15) 0.073(9) 0.51(2) 0.039(13) -0.056(14) -0.055(11)
C14 0.130(11) 0.147(13) 0.356(15) 0.059(11) -0.146(11) -0.076(9)
C15 0.064(9) 0.074(7) 0.150(13) -0.022(7) -0.058(9) 0.028(7)
C16 0.052(8) 0.074(7) 0.139(11) 0.020(7) -0.021(9) 0.012(6)
C17 0.108(12) 0.056(6) 0.129(11) 0.004(7) -0.078(10) -0.012(7)
C18 0.109(12) 0.138(9) 0.111(9) -0.002(7) -0.004(8) 0.010(9)
C19 0.064(10) 0.241(15) 0.178(14) 0.039(11) -0.001(9) -0.017(9)
C20 0.108(13) 0.231(16) 0.183(16) 0.068(13) -0.067(12) -0.057(11)
C21 0.111(13) 0.121(11) 0.186(14) 0.067(10) -0.083(11) -0.057(9)
C22 0.097(7) 0.087(7) 0.094(7) 0.014(5) -0.038(6) -0.018(6)
C23 0.070(7) 0.048(6) 0.073(7) 0.002(5) -0.026(6) -0.010(5)
C24 0.050(6) 0.059(6) 0.060(6) 0.006(5) -0.018(5) 0.009(5)
C25 0.066(6) 0.065(6) 0.048(5) 0.011(5) -0.012(4) 0.022(6)
C26 0.050(5) 0.035(6) 0.083(7) 0.000(5) -0.002(5) 0.003(4)
C27 0.070(6) 0.063(6) 0.036(5) 0.012(5) 0.002(5) 0.007(5)
C28 0.077(6) 0.063(5) 0.061(7) 0.011(5) -0.016(5) -0.014(5)
C29 0.063(6) 0.073(8) 0.074(8) -0.005(6) -0.014(6) -0.007(6)
C30 0.085(7) 0.039(6) 0.112(9) 0.002(7) -0.045(7) 0.025(5)
C31 0.096(8) 0.059(8) 0.111(9) -0.023(7) -0.035(7) -0.004(6)
C32 0.121(9) 0.045(7) 0.218(14) -0.004(8) -0.065(9) 0.018(6)
C33 0.160(11) 0.101(10) 0.167(12) -0.075(10) -0.017(10) 0.030(8)
C34 0.216(14) 0.137(12) 0.126(10) -0.020(9) -0.081(9) 0.086(10)
C35 0.144(9) 0.100(9) 0.111(9) -0.036(7) -0.050(7) 0.046(7)
C36 0.081(9) 0.065(8) 0.123(11) 0.006(7) -0.066(8) 0.015(6)
C37 0.164(16) 0.166(14) 0.060(9) 0.015(9) -0.022(11) 0.068(11)
C38 0.117(11) 0.169(12) 0.111(12) 0.030(11) -0.003(12) -0.005(11)
C39 0.123(13) 0.255(16) 0.140(14) -0.020(11) -0.055(12) -0.015(12)
C40 0.180(19) 0.42(3) 0.096(11) 0.055(14) -0.055(12) 0.001(17)
C41 0.134(14) 0.60(3) 0.087(11) 0.084(15) -0.007(10) 0.012(17)
C42 0.134(12) 0.234(14) 0.139(14) 0.064(11) -0.006(9) -0.061(10)
C43 0.166(11) 0.094(8) 0.152(9) -0.010(7) -0.095(8) 0.023(8)
C44 0.114(9) 0.079(8) 0.121(9) -0.049(7) -0.066(7) 0.041(7)
C45 0.108(9) 0.065(7) 0.163(10) -0.051(7) -0.042(7) 0.043(6)
C46 0.106(9) 0.110(9) 0.160(10) -0.050(7) -0.071(7) 0.043(7)
C47 0.062(7) 0.106(9) 0.080(7) -0.023(6) -0.012(6) 0.001(6)
C48 0.108(8) 0.142(9) 0.092(7) -0.032(7) -0.061(6) 0.030(7)
C49 0.165(10) 0.124(9) 0.099(7) -0.064(7) -0.056(7) 0.047(8)
C50 0.069(6) 0.070(6) 0.071(7) -0.036(6) -0.014(6) -0.004(6)
C51 0.089(9) 0.163(11) 0.096(7) -0.031(7) -0.036(6) 0.065(9)
C52 0.071(7) 0.122(9) 0.120(8) 0.020(8) -0.020(7) 0.003(6)
C53 0.073(7) 0.220(11) 0.083(7) 0.003(8) -0.016(6) 0.027(8)
C54 0.048(7) 0.209(11) 0.126(8) -0.029(8) -0.020(6) 0.026(7)
C55 0.089(7) 0.097(8) 0.071(6) -0.015(6) -0.005(5) 0.000(6)
C56 0.137(11) 0.106(8) 0.123(8) -0.066(6) -0.074(8) 0.031(8)
C57 0.059(7) 0.067(7) 0.075(8) 0.004(6) 0.005(5) -0.019(6)
C58 0.074(8) 0.049(8) 0.095(8) -0.008(7) -0.017(6) -0.010(7)
C59 0.167(10) 0.091(8) 0.074(8) -0.040(7) -0.014(7) 0.028(8)
C60 0.208(13) 0.164(12) 0.054(7) -0.033(7) 0.000(7) 0.043(10)
C61 0.060(7) 0.044(6) 0.147(9) -0.019(6) -0.051(6) -0.011(5)
C62 0.104(10) 0.071(9) 0.410(19) 0.019(11) 0.118(10) -0.014(8)
C63 0.150(11) 0.023(7) 0.284(14) 0.012(8) 0.080(10) 0.028(7)
C64 0.078(7) 0.043(6) 0.064(6) -0.006(5) 0.006(6) 0.019(5)
N1 0.087(6) 0.087(6) 0.145(6) -0.034(4) -0.073(6) 0.023(6)
N2 0.131(10) 0.114(8) 0.215(9) -0.080(7) -0.111(8) 0.094(8)
N3 0.090(8) 0.068(5) 0.078(6) -0.006(4) -0.039(6) 0.011(5)
N4 0.109(8) 0.069(6) 0.105(7) -0.015(5) -0.029(7) 0.030(5)
N5 0.074(6) 0.049(5) 0.104(7) 0.026(5) -0.032(5) -0.008(4)
N6 0.090(6) 0.074(6) 0.073(5) -0.027(4) -0.020(4) 0.016(4)
N7 0.088(6) 0.077(5) 0.097(6) -0.017(4) -0.043(6) 0.016(5)
N8 0.113(8) 0.089(6) 0.113(7) -0.034(6) -0.083(7) 0.009(6)
N9 0.067(5) 0.087(6) 0.113(7) -0.041(5) -0.032(5) 0.005(4)
N10 0.110(8) 0.086(6) 0.073(5) -0.029(4) -0.019(5) 0.017(6)
O1 0.088(5) 0.140(5) 0.058(4) -0.003(4) -0.016(3) -0.025(4)
O2 0.068(4) 0.116(5) 0.075(3) -0.013(3) -0.018(3) 0.003(4)
O3 0.055(4) 0.074(4) 0.062(3) -0.013(3) 0.014(3) 0.010(3)
O4 0.093(5) 0.082(4) 0.096(4) -0.017(3) 0.010(4) -0.011(4)
O5 0.070(4) 0.077(4) 0.058(3) -0.015(3) -0.014(3) -0.007(3)
O6 0.079(4) 0.079(4) 0.057(3) -0.008(3) 0.004(3) -0.019(3)
O7 0.055(3) 0.052(3) 0.059(3) 0.007(3) -0.006(3) -0.006(3)
O8 0.071(4) 0.062(3) 0.087(4) -0.020(4) -0.006(3) 0.017(3)

_geom_special_details            
;
All esds (except the esd in the dihedral angle between two l.s. planes)
are estimated using the full covariance matrix. The cell esds are taken
into account individually in the estimation of esds in distances, angles
and torsion angles; correlations between esds in cell parameters are only
used when they are defined by crystal symmetry. An approximate (isotropic)
treatment of cell esds is used for estimating esds involving l.s. planes.
;

loop_
_geom_bond_atom_site_label_1
_geom_bond_atom_site_label_2
_geom_bond_distance
_geom_bond_site_symmetry_2
_geom_bond_publ_flag
Ni2 N1 2.082(7) . ?
Ni2 N3 2.106(7) . ?
Ni2 N6 2.098(6) . ?
Ni2 N7 2.127(6) . ?
Ni2 N10 2.163(6) . ?
Ni2 N9 2.171(6) . ?
Tb1 O8 2.268(5) . ?
Tb1 O5 2.269(4) . ?
Tb1 O7 2.401(4) . ?
Tb1 O6 2.421(4) . ?
Tb1 O1 2.421(5) . ?
Tb1 O3 2.456(4) . ?
Tb1 O4 2.464(5) . ?
Tb1 O2 2.493(5) . ?
Tb1 C1 2.763(9) . ?
Tb1 C57 2.845(10) . ?
C1 O1 1.236(8) . ?
C1 O2 1.234(8) . ?
C1 C2 1.564(10) . ?
C2 C7 1.355(9) . ?
C2 C3 1.432(10) . ?
C3 C4 1.451(11) . ?
C3 H3 0.9300 . ?
C4 C5 1.322(13) . ?
C4 H4 0.9300 . ?
C5 C6 1.294(14) . ?
C5 C65 1.446(12) . ?
C6 C7 1.409(11) . ?
C6 H6 0.9300 . ?
C7 H7 0.9300 . ?
C65 N2 1.461(11) . ?
C65 H65A 0.9700 . ?
C65 H65B 0.9700 . ?
C8 N1 1.306(10) . ?
C8 N2 1.316(12) . ?
C8 C51 1.509(11) . ?
C9 C10 1.3900 . ?
C9 C14 1.3900 . ?
C9 N1 1.484(9) . ?
C10 N2 1.374(11) . ?
C10 C11 1.3900 . ?
C11 C12 1.3900 . ?
C11 H11 0.9300 . ?
C12 C13 1.3900 . ?
C12 H12 0.9300 . ?
C13 C14 1.3900 . ?
C13 H13 0.9300 . ?
C14 H14 0.9300 . ?
C15 N3 1.326(10) . ?
C15 N4 1.365(10) . ?
C15 C56 1.514(11) . ?
C16 N3 1.396(10) . ?
C16 C18 1.405(10) . ?
C16 C17 1.419(11) . ?
C17 N4 1.371(11) . ?
C17 C21 1.419(13) . ?
C18 C19 1.371(11) . ?
C18 H18 0.9300 . ?
C19 C20 1.380(13) . ?
C19 H19 0.9300 . ?
C20 C21 1.364(14) . ?
C20 H20 0.9300 . ?
C21 H21 0.9300 . ?
C22 N5 1.482(7) . ?
C22 C23 1.517(8) . ?
C22 H22A 0.9700 . ?
C22 H22B 0.9700 . ?
C23 C24 1.387(8) . ?
C23 C28 1.379(8) . ?
C24 C25 1.368(8) . ?
C24 H24 0.9300 . ?
C25 C26 1.378(7) . ?
C25 H25 0.9300 . ?
C26 C27 1.393(7) . ?
C26 C64 1.518(9) 6 ?
C27 C28 1.384(7) . ?
C27 H27 0.9300 . ?
C28 H28 0.9300 . ?
C29 N5 1.361(8) . ?
C29 N6 1.361(8) . ?
C29 C55 1.497(8) . ?
C30 N6 1.374(9) . ?
C30 C31 1.392(10) . ?
C30 C35 1.411(9) . ?
C31 N5 1.416(9) . ?
C31 C32 1.390(10) . ?
C32 C33 1.420(11) . ?
C32 H32 0.9300 . ?
C33 C34 1.312(11) . ?
C33 H33 0.9300 . ?
C34 C35 1.364(10) . ?
C34 H34 0.9300 . ?
C35 H35 0.9300 . ?
C36 N7 1.373(9) . ?
C36 N8 1.394(10) . ?
C36 C52 1.489(10) . ?
C37 C42 1.380(8) . ?
C37 C38 1.373(8) . ?
C37 N7 1.412(11) . ?
C38 C39 1.353(8) . ?
C38 N8 1.416(11) . ?
C39 C40 1.380(8) . ?
C39 H39 0.9300 . ?
C40 C41 1.390(9) . ?
C40 H40 0.9300 . ?
C41 C42 1.369(8) . ?
C41 H41 0.9300 . ?
C42 H42 0.9300 . ?
C43 N8 1.475(9) . ?
C43 C44 1.554(9) . ?
C43 H43A 0.9700 . ?
C43 H43B 0.9700 . ?
C44 C45 1.341(9) . ?
C44 C49 1.355(9) . ?
C45 C46 1.427(9) . ?
C45 H45 0.9300 . ?
C46 C47 1.387(9) . ?
C46 H46 0.9300 . ?
C47 C48 1.354(9) . ?
C47 C50 1.491(10) . ?
C48 C49 1.389(9) . ?
C48 H48 0.9300 . ?
C49 H49 0.9300 . ?
C50 O8 1.189(8) . ?
C50 O6 1.263(7) 3 ?
C51 N9 1.525(8) . ?
C51 H51A 0.9700 . ?
C51 H51B 0.9700 . ?
C52 N9 1.503(8) . ?
C52 H52A 0.9700 . ?
C52 H52B 0.9700 . ?
C53 C54 1.529(10) . ?
C53 N9 1.531(8) . ?
C53 H53A 0.9700 . ?
C53 H53B 0.9700 . ?
C54 N10 1.491(9) . ?
C54 H54A 0.9700 . ?
C54 H54B 0.9700 . ?
C55 N10 1.468(8) . ?
C55 H55A 0.9700 . ?
C55 H55B 0.9700 . ?
C56 N10 1.485(9) . ?
C56 H56A 0.9700 . ?
C56 H56B 0.9700 . ?
C57 O4 1.219(8) . ?
C57 O3 1.287(8) . ?
C57 C58 1.435(11) . ?
C58 C59 1.318(10) . ?
C58 C63 1.314(10) . ?
C59 C60 1.403(10) . ?
C59 H59 0.9300 . ?
C60 C61 1.345(10) . ?
C60 H60 0.9300 . ?
C61 C62 1.356(11) . ?
C61 C66 1.580(10) . ?
C62 C63 1.392(11) . ?
C62 H62 0.9300 . ?
C63 H63 0.9300 . ?
C64 O5 1.244(7) 3 ?
C64 O7 1.266(7) . ?
C64 C26 1.518(9) 6_655 ?
N4 C66 1.431(9) 5_655 ?
O5 C64 1.244(7) 3 ?
O6 C50 1.263(7) 3 ?
C66 N4 1.431(9) 5_655 ?
C66 H66A 0.9700 . ?
C66 H66B 0.9700 . ?

loop_
_geom_angle_atom_site_label_1
_geom_angle_atom_site_label_2
_geom_angle_atom_site_label_3
_geom_angle
_geom_angle_site_symmetry_1
_geom_angle_site_symmetry_3
_geom_angle_publ_flag
N1 Ni2 N3 93.8(3) . . ?
N1 Ni2 N6 173.9(3) . . ?
N3 Ni2 N6 90.0(2) . . ?
N1 Ni2 N7 92.1(2) . . ?
N3 Ni2 N7 117.8(4) . . ?
N6 Ni2 N7 90.3(3) . . ?
N1 Ni2 N10 92.9(3) . . ?
N3 Ni2 N10 80.8(3) . . ?
N6 Ni2 N10 83.0(3) . . ?
N7 Ni2 N10 160.3(4) . . ?
N1 Ni2 N9 80.4(3) . . ?
N3 Ni2 N9 161.3(3) . . ?
N6 Ni2 N9 94.5(3) . . ?
N7 Ni2 N9 80.4(3) . . ?
N10 Ni2 N9 81.7(3) . . ?
O8 Tb1 O5 107.98(17) . . ?
O8 Tb1 O7 80.57(15) . . ?
O5 Tb1 O7 76.58(14) . . ?
O8 Tb1 O6 78.58(16) . . ?
O5 Tb1 O6 80.22(14) . . ?
O7 Tb1 O6 142.06(16) . . ?
O8 Tb1 O1 86.51(17) . . ?
O5 Tb1 O1 151.78(17) . . ?
O7 Tb1 O1 130.70(16) . . ?
O6 Tb1 O1 79.16(17) . . ?
O8 Tb1 O3 153.09(17) . . ?
O5 Tb1 O3 85.01(14) . . ?
O7 Tb1 O3 79.74(16) . . ?
O6 Tb1 O3 127.68(16) . . ?
O1 Tb1 O3 92.56(16) . . ?
O8 Tb1 O4 151.52(18) . . ?
O5 Tb1 O4 79.95(16) . . ?
O7 Tb1 O4 127.76(17) . . ?
O6 Tb1 O4 75.91(17) . . ?
O1 Tb1 O4 76.51(17) . . ?
O3 Tb1 O4 52.09(16) . . ?
O8 Tb1 O2 81.29(17) . . ?
O5 Tb1 O2 150.85(16) . . ?
O7 Tb1 O2 77.91(16) . . ?
O6 Tb1 O2 128.93(16) . . ?
O1 Tb1 O2 53.09(16) . . ?
O3 Tb1 O2 76.78(15) . . ?
O4 Tb1 O2 105.30(16) . . ?
O8 Tb1 C1 83.17(19) . . ?
O5 Tb1 C1 168.72(19) . . ?
O7 Tb1 C1 104.3(2) . . ?
O6 Tb1 C1 104.3(2) . . ?
O1 Tb1 C1 26.56(17) . . ?
O3 Tb1 C1 84.11(19) . . ?
O4 Tb1 C1 91.0(2) . . ?
O2 Tb1 C1 26.52(17) . . ?
O8 Tb1 C57 170.05(19) . . ?
O5 Tb1 C57 81.61(18) . . ?
O7 Tb1 C57 104.7(2) . . ?
O6 Tb1 C57 101.0(2) . . ?
O1 Tb1 C57 83.7(2) . . ?
O3 Tb1 C57 26.84(16) . . ?
O4 Tb1 C57 25.26(16) . . ?
O2 Tb1 C57 91.5(2) . . ?
C1 Tb1 C57 87.3(2) . . ?
O1 C1 O2 125.6(9) . . ?
O1 C1 C2 119.7(9) . . ?
O2 C1 C2 114.7(9) . . ?
O1 C1 Tb1 61.1(5) . . ?
O2 C1 Tb1 64.4(5) . . ?
C2 C1 Tb1 178.0(6) . . ?
C7 C2 C3 120.3(9) . . ?
C7 C2 C1 121.7(11) . . ?
C3 C2 C1 118.0(11) . . ?
C2 C3 C4 114.9(10) . . ?
C2 C3 H3 122.5 . . ?
C4 C3 H3 122.5 . . ?
C5 C4 C3 125.0(13) . . ?
C5 C4 H4 117.5 . . ?
C3 C4 H4 117.5 . . ?
C6 C5 C4 115.0(13) . . ?
C6 C5 C65 128.2(15) . . ?
C4 C5 C65 116.7(14) . . ?
C5 C6 C7 128.4(13) . . ?
C5 C6 H6 115.8 . . ?
C7 C6 H6 115.8 . . ?
C2 C7 C6 116.3(10) . . ?
C2 C7 H7 121.9 . . ?
C6 C7 H7 121.9 . . ?
C5 C65 N2 116.1(9) . . ?
C5 C65 H65A 108.3 . . ?
N2 C65 H65A 108.3 . . ?
C5 C65 H65B 108.3 . . ?
N2 C65 H65B 108.3 . . ?
H65A C65 H65B 107.4 . . ?
N1 C8 N2 117.7(12) . . ?
N1 C8 C51 116.1(12) . . ?
N2 C8 C51 125.5(11) . . ?
C10 C9 C14 120.0 . . ?
C10 C9 N1 104.2(8) . . ?
C14 C9 N1 135.7(8) . . ?
N2 C10 C9 110.6(9) . . ?
N2 C10 C11 129.4(9) . . ?
C9 C10 C11 120.0 . . ?
C10 C11 C12 120.0 . . ?
C10 C11 H11 120.0 . . ?
C12 C11 H11 120.0 . . ?
C13 C12 C11 120.0 . . ?
C13 C12 H12 120.0 . . ?
C11 C12 H12 120.0 . . ?
C12 C13 C14 120.0 . . ?
C12 C13 H13 120.0 . . ?
C14 C13 H13 120.0 . . ?
C13 C14 C9 120.0 . . ?
C13 C14 H14 120.0 . . ?
C9 C14 H14 120.0 . . ?
N3 C15 N4 113.3(10) . . ?
N3 C15 C56 124.9(11) . . ?
N4 C15 C56 121.6(13) . . ?
N3 C16 C18 129.5(12) . . ?
N3 C16 C17 107.6(12) . . ?
C18 C16 C17 122.4(12) . . ?
N4 C17 C16 107.3(12) . . ?
N4 C17 C21 134.1(13) . . ?
C16 C17 C21 118.6(14) . . ?
C19 C18 C16 116.8(12) . . ?
C19 C18 H18 121.6 . . ?
C16 C18 H18 121.6 . . ?
C18 C19 C20 120.2(14) . . ?
C18 C19 H19 119.9 . . ?
C20 C19 H19 119.9 . . ?
C21 C20 C19 125.1(17) . . ?
C21 C20 H20 117.4 . . ?
C19 C20 H20 117.4 . . ?
C20 C21 C17 116.3(15) . . ?
C20 C21 H21 121.9 . . ?
C17 C21 H21 121.9 . . ?
N5 C22 C23 112.4(6) . . ?
N5 C22 H22A 109.1 . . ?
C23 C22 H22A 109.1 . . ?
N5 C22 H22B 109.1 . . ?
C23 C22 H22B 109.1 . . ?
H22A C22 H22B 107.9 . . ?
C24 C23 C28 121.2(7) . . ?
C24 C23 C22 122.9(8) . . ?
C28 C23 C22 115.9(8) . . ?
C25 C24 C23 119.4(7) . . ?
C25 C24 H24 120.3 . . ?
C23 C24 H24 120.3 . . ?
C24 C25 C26 120.8(7) . . ?
C24 C25 H25 119.6 . . ?
C26 C25 H25 119.6 . . ?
C25 C26 C27 118.9(7) . . ?
C25 C26 C64 122.7(8) . 6 ?
C27 C26 C64 118.4(8) . 6 ?
C28 C27 C26 121.1(6) . . ?
C28 C27 H27 119.4 . . ?
C26 C27 H27 119.4 . . ?
C27 C28 C23 118.3(7) . . ?
C27 C28 H28 120.9 . . ?
C23 C28 H28 120.9 . . ?
N5 C29 N6 112.7(8) . . ?
N5 C29 C55 125.9(10) . . ?
N6 C29 C55 121.1(9) . . ?
N6 C30 C31 111.1(10) . . ?
N6 C30 C35 129.2(9) . . ?
C31 C30 C35 119.6(10) . . ?
C30 C31 N5 105.5(10) . . ?
C30 C31 C32 123.7(10) . . ?
N5 C31 C32 130.7(12) . . ?
C31 C32 C33 112.1(10) . . ?
C31 C32 H32 123.9 . . ?
C33 C32 H32 123.9 . . ?
C34 C33 C32 125.5(12) . . ?
C34 C33 H33 117.3 . . ?
C32 C33 H33 117.3 . . ?
C33 C34 C35 121.8(12) . . ?
C33 C34 H34 119.1 . . ?
C35 C34 H34 119.1 . . ?
C34 C35 C30 116.8(9) . . ?
C34 C35 H35 121.6 . . ?
C30 C35 H35 121.6 . . ?
N7 C36 N8 106.2(10) . . ?
N7 C36 C52 122.8(11) . . ?
N8 C36 C52 131.1(12) . . ?
C42 C37 C38 121.1(14) . . ?
C42 C37 N7 134.0(18) . . ?
C38 C37 N7 104.8(15) . . ?
C39 C38 C37 127.6(15) . . ?
C39 C38 N8 122.7(19) . . ?
C37 C38 N8 109.7(16) . . ?
C38 C39 C40 106.7(15) . . ?
C38 C39 H39 126.7 . . ?
C40 C39 H39 126.7 . . ?
C39 C40 C41 131.0(17) . . ?
C39 C40 H40 114.5 . . ?
C41 C40 H40 114.5 . . ?
C42 C41 C40 116.0(15) . . ?
C42 C41 H41 122.0 . . ?
C40 C41 H41 122.0 . . ?
C41 C42 C37 116.2(13) . . ?
C41 C42 H42 121.9 . . ?
C37 C42 H42 121.9 . . ?
N8 C43 C44 110.7(7) . . ?
N8 C43 H43A 109.5 . . ?
C44 C43 H43A 109.5 . . ?
N8 C43 H43B 109.5 . . ?
C44 C43 H43B 109.5 . . ?
H43A C43 H43B 108.1 . . ?
C45 C44 C49 119.7(9) . . ?
C45 C44 C43 117.7(10) . . ?
C49 C44 C43 122.6(9) . . ?
C44 C45 C46 120.5(8) . . ?
C44 C45 H45 119.7 . . ?
C46 C45 H45 119.7 . . ?
C47 C46 C45 118.7(9) . . ?
C47 C46 H46 120.6 . . ?
C45 C46 H46 120.6 . . ?
C48 C47 C46 119.4(9) . . ?
C48 C47 C50 118.5(10) . . ?
C46 C47 C50 121.5(9) . . ?
C47 C48 C49 120.3(9) . . ?
C47 C48 H48 119.9 . . ?
C49 C48 H48 119.9 . . ?
C44 C49 C48 121.3(8) . . ?
C44 C49 H49 119.4 . . ?
C48 C49 H49 119.4 . . ?
O8 C50 O6 126.6(9) . 3 ?
O8 C50 C47 117.1(8) . . ?
O6 C50 C47 115.9(8) 3 . ?
C8 C51 N9 113.6(8) . . ?
C8 C51 H51A 108.8 . . ?
N9 C51 H51A 108.8 . . ?
C8 C51 H51B 108.8 . . ?
N9 C51 H51B 108.8 . . ?
H51A C51 H51B 107.7 . . ?
N9 C52 C36 109.2(8) . . ?
N9 C52 H52A 109.8 . . ?
C36 C52 H52A 109.8 . . ?
N9 C52 H52B 109.8 . . ?
C36 C52 H52B 109.8 . . ?
H52A C52 H52B 108.3 . . ?
C54 C53 N9 107.1(8) . . ?
C54 C53 H53A 110.3 . . ?
N9 C53 H53A 110.3 . . ?
C54 C53 H53B 110.3 . . ?
N9 C53 H53B 110.3 . . ?
H53A C53 H53B 108.5 . . ?
N10 C54 C53 106.0(7) . . ?
N10 C54 H54A 110.5 . . ?
C53 C54 H54A 110.5 . . ?
N10 C54 H54B 110.5 . . ?
C53 C54 H54B 110.5 . . ?
H54A C54 H54B 108.7 . . ?
N10 C55 C29 114.8(7) . . ?
N10 C55 H55A 108.6 . . ?
C29 C55 H55A 108.6 . . ?
N10 C55 H55B 108.6 . . ?
C29 C55 H55B 108.6 . . ?
H55A C55 H55B 107.5 . . ?
N10 C56 C15 105.2(8) . . ?
N10 C56 H56A 110.7 . . ?
C15 C56 H56A 110.7 . . ?
N10 C56 H56B 110.7 . . ?
C15 C56 H56B 110.7 . . ?
H56A C56 H56B 108.8 . . ?
O4 C57 O3 119.1(9) . . ?
O4 C57 C58 122.1(9) . . ?
O3 C57 C58 118.7(9) . . ?
O4 C57 Tb1 59.6(5) . . ?
O3 C57 Tb1 59.5(4) . . ?
C58 C57 Tb1 176.4(6) . . ?
C59 C58 C63 119.5(11) . . ?
C59 C58 C57 118.1(11) . . ?
C63 C58 C57 122.3(10) . . ?
C58 C59 C60 121.7(10) . . ?
C58 C59 H59 119.1 . . ?
C60 C59 H59 119.1 . . ?
C61 C60 C59 118.4(11) . . ?
C61 C60 H60 120.8 . . ?
C59 C60 H60 120.8 . . ?
C62 C61 C60 119.8(10) . . ?
C62 C61 C66 117.5(11) . . ?
C60 C61 C66 122.7(11) . . ?
C61 C62 C63 119.2(11) . . ?
C61 C62 H62 120.4 . . ?
C63 C62 H62 120.4 . . ?
C58 C63 C62 121.3(11) . . ?
C58 C63 H63 119.4 . . ?
C62 C63 H63 119.4 . . ?
O5 C64 O7 124.8(8) 3 . ?
O5 C64 C26 118.8(7) 3 6_655 ?
O7 C64 C26 116.3(7) . 6_655 ?
C8 N1 C9 103.1(9) . . ?
C8 N1 Ni2 118.2(9) . . ?
C9 N1 Ni2 138.6(6) . . ?
C8 N2 C10 104.3(9) . . ?
C8 N2 C65 124.0(12) . . ?
C10 N2 C65 131.4(9) . . ?
C15 N3 C16 105.7(9) . . ?
C15 N3 Ni2 107.1(8) . . ?
C16 N3 Ni2 147.1(8) . . ?
C15 N4 C17 106.0(10) . . ?
C15 N4 C66 129.5(12) . 5_655 ?
C17 N4 C66 124.4(11) . 5_655 ?
C29 N5 C31 106.0(8) . . ?
C29 N5 C22 123.3(9) . . ?
C31 N5 C22 129.6(9) . . ?
C29 N6 C30 104.6(7) . . ?
C29 N6 Ni2 110.8(6) . . ?
C30 N6 Ni2 141.5(6) . . ?
C36 N7 C37 111.6(10) . . ?
C36 N7 Ni2 106.5(8) . . ?
C37 N7 Ni2 140.5(10) . . ?
C36 N8 C38 107.7(11) . . ?
C36 N8 C43 123.1(12) . . ?
C38 N8 C43 128.9(13) . . ?
C52 N9 C51 112.7(7) . . ?
C52 N9 C53 113.0(8) . . ?
C51 N9 C53 113.6(7) . . ?
C52 N9 Ni2 103.4(5) . . ?
C51 N9 Ni2 107.7(5) . . ?
C53 N9 Ni2 105.4(4) . . ?
C55 N10 C54 112.9(7) . . ?
C55 N10 C56 109.2(7) . . ?
C54 N10 C56 113.7(8) . . ?
C55 N10 Ni2 108.6(4) . . ?
C54 N10 Ni2 107.4(5) . . ?
C56 N10 Ni2 104.7(5) . . ?
C1 O1 Tb1 92.3(5) . . ?
C1 O2 Tb1 89.0(5) . . ?
C57 O3 Tb1 93.7(5) . . ?
C57 O4 Tb1 95.1(6) . . ?
C64 O5 Tb1 165.6(5) 3 . ?
C50 O6 Tb1 123.6(5) 3 . ?
C64 O7 Tb1 123.9(5) . . ?
C50 O8 Tb1 164.4(6) . . ?
N4 C66 C61 112.0(7) 5_655 . ?
N4 C66 H66A 109.2 5_655 . ?
C61 C66 H66A 109.2 . . ?
N4 C66 H66B 109.2 5_655 . ?
C61 C66 H66B 109.2 . . ?
H66A C66 H66B 107.9 . . ?

loop_
_geom_torsion_atom_site_label_1
_geom_torsion_atom_site_label_2
_geom_torsion_atom_site_label_3
_geom_torsion_atom_site_label_4
_geom_torsion
_geom_torsion_site_symmetry_1
_geom_torsion_site_symmetry_2
_geom_torsion_site_symmetry_3
_geom_torsion_site_symmetry_4
_geom_torsion_publ_flag
O8 Tb1 C1 O1 -95.9(5) . . . . ?
O5 Tb1 C1 O1 92.6(12) . . . . ?
O7 Tb1 C1 O1 -174.3(5) . . . . ?
O6 Tb1 C1 O1 -19.6(5) . . . . ?
O3 Tb1 C1 O1 107.9(5) . . . . ?
O4 Tb1 C1 O1 56.2(5) . . . . ?
O2 Tb1 C1 O1 179.9(8) . . . . ?
C57 Tb1 C1 O1 81.2(5) . . . . ?
O8 Tb1 C1 O2 84.2(5) . . . . ?
O5 Tb1 C1 O2 -87.3(12) . . . . ?
O7 Tb1 C1 O2 5.8(5) . . . . ?
O6 Tb1 C1 O2 160.5(4) . . . . ?
O1 Tb1 C1 O2 -179.9(8) . . . . ?
O3 Tb1 C1 O2 -72.1(5) . . . . ?
O4 Tb1 C1 O2 -123.8(5) . . . . ?
C57 Tb1 C1 O2 -98.8(5) . . . . ?
O8 Tb1 C1 C2 19(21) . . . . ?
O5 Tb1 C1 C2 -152(20) . . . . ?
O7 Tb1 C1 C2 -59(21) . . . . ?
O6 Tb1 C1 C2 95(21) . . . . ?
O1 Tb1 C1 C2 115(21) . . . . ?
O3 Tb1 C1 C2 -137(21) . . . . ?
O4 Tb1 C1 C2 171(100) . . . . ?
O2 Tb1 C1 C2 -65(21) . . . . ?
C57 Tb1 C1 C2 -164(21) . . . . ?
O1 C1 C2 C7 -177.3(8) . . . . ?
O2 C1 C2 C7 4.5(11) . . . . ?
Tb1 C1 C2 C7 69(21) . . . . ?
O1 C1 C2 C3 2.2(11) . . . . ?
O2 C1 C2 C3 -176.0(7) . . . . ?
Tb1 C1 C2 C3 -112(21) . . . . ?
C7 C2 C3 C4 0.2(12) . . . . ?
C1 C2 C3 C4 -179.3(7) . . . . ?
C2 C3 C4 C5 -0.3(16) . . . . ?
C3 C4 C5 C6 -1(2) . . . . ?
C3 C4 C5 C65 -178.0(8) . . . . ?
C4 C5 C6 C7 2(2) . . . . ?
C65 C5 C6 C7 179.0(9) . . . . ?
C3 C2 C7 C6 0.9(13) . . . . ?
C1 C2 C7 C6 -179.7(7) . . . . ?
C5 C6 C7 C2 -2.4(18) . . . . ?
C6 C5 C65 N2 -123.5(15) . . . . ?
C4 C5 C65 N2 53.1(16) . . . . ?
C14 C9 C10 N2 179.5(8) . . . . ?
N1 C9 C10 N2 1.8(7) . . . . ?
C14 C9 C10 C11 0.0 . . . . ?
N1 C9 C10 C11 -177.7(6) . . . . ?
N2 C10 C11 C12 -179.4(10) . . . . ?
C9 C10 C11 C12 0.0 . . . . ?
C10 C11 C12 C13 0.0 . . . . ?
C11 C12 C13 C14 0.0 . . . . ?
C12 C13 C14 C9 0.0 . . . . ?
C10 C9 C14 C13 0.0 . . . . ?
N1 C9 C14 C13 176.8(8) . . . . ?
N3 C16 C17 N4 0.8(10) . . . . ?
C18 C16 C17 N4 173.6(8) . . . . ?
N3 C16 C17 C21 180.0(8) . . . . ?
C18 C16 C17 C21 -7.2(13) . . . . ?
N3 C16 C18 C19 -179.7(9) . . . . ?
C17 C16 C18 C19 9.1(14) . . . . ?
C16 C18 C19 C20 -7.1(17) . . . . ?
C18 C19 C20 C21 3(2) . . . . ?
C19 C20 C21 C17 -1(2) . . . . ?
N4 C17 C21 C20 -178.1(12) . . . . ?
C16 C17 C21 C20 3.0(16) . . . . ?
N5 C22 C23 C24 6.2(10) . . . . ?
N5 C22 C23 C28 -174.0(7) . . . . ?
C28 C23 C24 C25 5.8(10) . . . . ?
C22 C23 C24 C25 -174.4(6) . . . . ?
C23 C24 C25 C26 -6.9(10) . . . . ?
C24 C25 C26 C27 5.3(10) . . . . ?
C24 C25 C26 C64 -178.2(6) . . . 6 ?
C25 C26 C27 C28 -2.5(9) . . . . ?
C64 C26 C27 C28 -179.2(6) 6 . . . ?
C26 C27 C28 C23 1.4(10) . . . . ?
C24 C23 C28 C27 -3.0(10) . . . . ?
C22 C23 C28 C27 177.1(6) . . . . ?
N6 C30 C31 N5 0.0(9) . . . . ?
C35 C30 C31 N5 176.0(7) . . . . ?
N6 C30 C31 C32 -176.5(8) . . . . ?
C35 C30 C31 C32 -0.5(13) . . . . ?
C30 C31 C32 C33 0.1(14) . . . . ?
N5 C31 C32 C33 -175.4(9) . . . . ?
C31 C32 C33 C34 -4.4(17) . . . . ?
C32 C33 C34 C35 9(2) . . . . ?
C33 C34 C35 C30 -8.7(18) . . . . ?
N6 C30 C35 C34 179.8(9) . . . . ?
C31 C30 C35 C34 4.6(14) . . . . ?
C42 C37 C38 C39 -4(2) . . . . ?
N7 C37 C38 C39 177.2(12) . . . . ?
C42 C37 C38 N8 178.1(9) . . . . ?
N7 C37 C38 N8 -0.5(12) . . . . ?
C37 C38 C39 C40 5(2) . . . . ?
N8 C38 C39 C40 -177.5(12) . . . . ?
C38 C39 C40 C41 -11(3) . . . . ?
C39 C40 C41 C42 15(3) . . . . ?
C40 C41 C42 C37 -11(2) . . . . ?
C38 C37 C42 C41 7.0(18) . . . . ?
N7 C37 C42 C41 -174.9(11) . . . . ?
N8 C43 C44 C45 -132.1(10) . . . . ?
N8 C43 C44 C49 48.7(13) . . . . ?
C49 C44 C45 C46 -1.8(15) . . . . ?
C43 C44 C45 C46 178.9(9) . . . . ?
C44 C45 C46 C47 0.9(15) . . . . ?
C45 C46 C47 C48 2.2(14) . . . . ?
C45 C46 C47 C50 173.7(8) . . . . ?
C46 C47 C48 C49 -4.2(14) . . . . ?
C50 C47 C48 C49 -176.0(8) . . . . ?
C45 C44 C49 C48 -0.2(16) . . . . ?
C43 C44 C49 C48 179.0(9) . . . . ?
C47 C48 C49 C44 3.3(15) . . . . ?
C48 C47 C50 O8 -8.6(12) . . . . ?
C46 C47 C50 O8 179.9(8) . . . . ?
C48 C47 C50 O6 178.7(7) . . . 3 ?
C46 C47 C50 O6 7.2(12) . . . 3 ?
N1 C8 C51 N9 -21.9(12) . . . . ?
N2 C8 C51 N9 168.0(9) . . . . ?
N7 C36 C52 N9 -19.8(10) . . . . ?
N8 C36 C52 N9 157.7(7) . . . . ?
N9 C53 C54 N10 63.5(8) . . . . ?
N5 C29 C55 N10 -171.2(7) . . . . ?
N6 C29 C55 N10 3.4(10) . . . . ?
N3 C15 C56 N10 -31.3(12) . . . . ?
N4 C15 C56 N10 153.6(7) . . . . ?
O8 Tb1 C57 O4 -80.8(14) . . . . ?
O5 Tb1 C57 O4 84.2(5) . . . . ?
O7 Tb1 C57 O4 157.9(4) . . . . ?
O6 Tb1 C57 O4 6.0(5) . . . . ?
O1 Tb1 C57 O4 -71.6(5) . . . . ?
O3 Tb1 C57 O4 179.7(8) . . . . ?
O2 Tb1 C57 O4 -124.2(5) . . . . ?
C1 Tb1 C57 O4 -98.0(5) . . . . ?
O8 Tb1 C57 O3 99.5(13) . . . . ?
O5 Tb1 C57 O3 -95.5(4) . . . . ?
O7 Tb1 C57 O3 -21.9(4) . . . . ?
O6 Tb1 C57 O3 -173.8(4) . . . . ?
O1 Tb1 C57 O3 108.6(4) . . . . ?
O4 Tb1 C57 O3 -179.7(8) . . . . ?
O2 Tb1 C57 O3 56.0(4) . . . . ?
C1 Tb1 C57 O3 82.2(4) . . . . ?
O8 Tb1 C57 C58 38(11) . . . . ?
O5 Tb1 C57 C58 -157(11) . . . . ?
O7 Tb1 C57 C58 -83(11) . . . . ?
O6 Tb1 C57 C58 125(11) . . . . ?
O1 Tb1 C57 C58 47(11) . . . . ?
O3 Tb1 C57 C58 -61(10) . . . . ?
O4 Tb1 C57 C58 119(11) . . . . ?
O2 Tb1 C57 C58 -5(11) . . . . ?
C1 Tb1 C57 C58 21(11) . . . . ?
O4 C57 C58 C59 -19.9(13) . . . . ?
O3 C57 C58 C59 163.5(8) . . . . ?
Tb1 C57 C58 C59 -137(10) . . . . ?
O4 C57 C58 C63 163.3(9) . . . . ?
O3 C57 C58 C63 -13.2(13) . . . . ?
Tb1 C57 C58 C63 46(11) . . . . ?
C63 C58 C59 C60 -0.9(16) . . . . ?
C57 C58 C59 C60 -177.7(8) . . . . ?
C58 C59 C60 C61 0.8(15) . . . . ?
C59 C60 C61 C62 -1.8(14) . . . . ?
C59 C60 C61 C66 -179.8(8) . . . . ?
C60 C61 C62 C63 2.8(16) . . . . ?
C66 C61 C62 C63 -179.2(9) . . . . ?
C59 C58 C63 C62 1.9(17) . . . . ?
C57 C58 C63 C62 178.6(9) . . . . ?
C61 C62 C63 C58 -2.9(18) . . . . ?
N2 C8 N1 C9 -1.1(11) . . . . ?
C51 C8 N1 C9 -172.0(7) . . . . ?
N2 C8 N1 Ni2 -177.3(6) . . . . ?
C51 C8 N1 Ni2 11.8(11) . . . . ?
C10 C9 N1 C8 -0.5(7) . . . . ?
C14 C9 N1 C8 -177.6(7) . . . . ?
C10 C9 N1 Ni2 174.4(6) . . . . ?
C14 C9 N1 Ni2 -2.7(12) . . . . ?
N3 Ni2 N1 C8 162.2(7) . . . . ?
N6 Ni2 N1 C8 33(3) . . . . ?
N7 Ni2 N1 C8 -79.8(7) . . . . ?
N10 Ni2 N1 C8 81.2(7) . . . . ?
N9 Ni2 N1 C8 0.1(7) . . . . ?
N3 Ni2 N1 C9 -12.2(8) . . . . ?
N6 Ni2 N1 C9 -141(2) . . . . ?
N7 Ni2 N1 C9 105.8(8) . . . . ?
N10 Ni2 N1 C9 -93.2(8) . . . . ?
N9 Ni2 N1 C9 -174.3(8) . . . . ?
N1 C8 N2 C10 2.2(12) . . . . ?
C51 C8 N2 C10 172.2(9) . . . . ?
N1 C8 N2 C65 176.5(9) . . . . ?
C51 C8 N2 C65 -13.5(15) . . . . ?
C9 C10 N2 C8 -2.4(10) . . . . ?
C11 C10 N2 C8 177.0(6) . . . . ?
C9 C10 N2 C65 -176.1(9) . . . . ?
C11 C10 N2 C65 3.3(16) . . . . ?
C5 C65 N2 C8 75.2(15) . . . . ?
C5 C65 N2 C10 -112.1(13) . . . . ?
N4 C15 N3 C16 -1.8(10) . . . . ?
C56 C15 N3 C16 -177.3(8) . . . . ?
N4 C15 N3 Ni2 176.8(6) . . . . ?
C56 C15 N3 Ni2 1.3(11) . . . . ?
C18 C16 N3 C15 -171.6(9) . . . . ?
C17 C16 N3 C15 0.6(9) . . . . ?
C18 C16 N3 Ni2 10.9(17) . . . . ?
C17 C16 N3 Ni2 -176.9(7) . . . . ?
N1 Ni2 N3 C15 -73.4(6) . . . . ?
N6 Ni2 N3 C15 101.9(6) . . . . ?
N7 Ni2 N3 C15 -167.8(5) . . . . ?
N10 Ni2 N3 C15 19.0(5) . . . . ?
N9 Ni2 N3 C15 -2.3(11) . . . . ?
N1 Ni2 N3 C16 104.0(10) . . . . ?
N6 Ni2 N3 C16 -80.7(10) . . . . ?
N7 Ni2 N3 C16 9.7(11) . . . . ?
N10 Ni2 N3 C16 -163.6(10) . . . . ?
N9 Ni2 N3 C16 175.2(10) . . . . ?
N3 C15 N4 C17 2.3(10) . . . . ?
C56 C15 N4 C17 178.0(8) . . . . ?
N3 C15 N4 C66 178.6(7) . . . 5_655 ?
C56 C15 N4 C66 -5.7(14) . . . 5_655 ?
C16 C17 N4 C15 -1.8(10) . . . . ?
C21 C17 N4 C15 179.2(10) . . . . ?
C16 C17 N4 C66 -178.4(7) . . . 5_655 ?
C21 C17 N4 C66 2.6(16) . . . 5_655 ?
N6 C29 N5 C31 1.1(9) . . . . ?
C55 C29 N5 C31 176.1(7) . . . . ?
N6 C29 N5 C22 -167.8(6) . . . . ?
C55 C29 N5 C22 7.1(11) . . . . ?
C30 C31 N5 C29 -0.6(9) . . . . ?
C32 C31 N5 C29 175.5(9) . . . . ?
C30 C31 N5 C22 167.4(7) . . . . ?
C32 C31 N5 C22 -16.5(14) . . . . ?
C23 C22 N5 C29 73.5(9) . . . . ?
C23 C22 N5 C31 -92.7(9) . . . . ?
N5 C29 N6 C30 -1.1(9) . . . . ?
C55 C29 N6 C30 -176.4(7) . . . . ?
N5 C29 N6 Ni2 163.4(5) . . . . ?
C55 C29 N6 Ni2 -11.8(8) . . . . ?
C31 C30 N6 C29 0.7(9) . . . . ?
C35 C30 N6 C29 -174.9(9) . . . . ?
C31 C30 N6 Ni2 -155.7(7) . . . . ?
C35 C30 N6 Ni2 28.7(14) . . . . ?
N1 Ni2 N6 C29 60(3) . . . . ?
N3 Ni2 N6 C29 -69.1(6) . . . . ?
N7 Ni2 N6 C29 173.1(6) . . . . ?
N10 Ni2 N6 C29 11.7(5) . . . . ?
N9 Ni2 N6 C29 92.7(5) . . . . ?
N1 Ni2 N6 C30 -144(2) . . . . ?
N3 Ni2 N6 C30 86.4(9) . . . . ?
N7 Ni2 N6 C30 -31.4(9) . . . . ?
N10 Ni2 N6 C30 167.2(9) . . . . ?
N9 Ni2 N6 C30 -111.7(9) . . . . ?
N8 C36 N7 C37 -0.1(8) . . . . ?
C52 C36 N7 C37 178.0(7) . . . . ?
N8 C36 N7 Ni2 169.6(4) . . . . ?
C52 C36 N7 Ni2 -12.3(8) . . . . ?
C42 C37 N7 C36 -178.0(12) . . . . ?
C38 C37 N7 C36 0.4(11) . . . . ?
C42 C37 N7 Ni2 17.6(19) . . . . ?
C38 C37 N7 Ni2 -164.0(7) . . . . ?
N1 Ni2 N7 C36 107.2(5) . . . . ?
N3 Ni2 N7 C36 -157.4(5) . . . . ?
N6 Ni2 N7 C36 -67.2(5) . . . . ?
N10 Ni2 N7 C36 2.4(10) . . . . ?
N9 Ni2 N7 C36 27.3(5) . . . . ?
N1 Ni2 N7 C37 -87.9(10) . . . . ?
N3 Ni2 N7 C37 7.5(10) . . . . ?
N6 Ni2 N7 C37 97.7(10) . . . . ?
N10 Ni2 N7 C37 167.3(10) . . . . ?
N9 Ni2 N7 C37 -167.9(10) . . . . ?
N7 C36 N8 C38 -0.2(9) . . . . ?
C52 C36 N8 C38 -178.0(9) . . . . ?
N7 C36 N8 C43 -174.4(7) . . . . ?
C52 C36 N8 C43 7.7(12) . . . . ?
C39 C38 N8 C36 -177.4(11) . . . . ?
C37 C38 N8 C36 0.4(12) . . . . ?
C39 C38 N8 C43 -3.6(18) . . . . ?
C37 C38 N8 C43 174.2(8) . . . . ?
C44 C43 N8 C36 -117.5(8) . . . . ?
C44 C43 N8 C38 69.5(12) . . . . ?
C36 C52 N9 C51 -76.7(9) . . . . ?
C36 C52 N9 C53 152.8(6) . . . . ?
C36 C52 N9 Ni2 39.3(7) . . . . ?
C8 C51 N9 C52 133.6(8) . . . . ?
C8 C51 N9 C53 -96.2(9) . . . . ?
C8 C51 N9 Ni2 20.2(9) . . . . ?
C54 C53 N9 C52 -158.5(7) . . . . ?
C54 C53 N9 C51 71.4(8) . . . . ?
C54 C53 N9 Ni2 -46.3(7) . . . . ?
N1 Ni2 N9 C52 -130.7(5) . . . . ?
N3 Ni2 N9 C52 156.0(7) . . . . ?
N6 Ni2 N9 C52 52.6(5) . . . . ?
N7 Ni2 N9 C52 -36.9(5) . . . . ?
N10 Ni2 N9 C52 134.8(6) . . . . ?
N1 Ni2 N9 C51 -11.2(5) . . . . ?
N3 Ni2 N9 C51 -84.4(10) . . . . ?
N6 Ni2 N9 C51 172.1(5) . . . . ?
N7 Ni2 N9 C51 82.6(5) . . . . ?
N10 Ni2 N9 C51 -105.6(6) . . . . ?
N1 Ni2 N9 C53 110.4(5) . . . . ?
N3 Ni2 N9 C53 37.2(11) . . . . ?
N6 Ni2 N9 C53 -66.3(6) . . . . ?
N7 Ni2 N9 C53 -155.8(6) . . . . ?
N10 Ni2 N9 C53 16.0(5) . . . . ?
C29 C55 N10 C54 -112.3(7) . . . . ?
C29 C55 N10 C56 120.1(7) . . . . ?
C29 C55 N10 Ni2 6.6(8) . . . . ?
C53 C54 N10 C55 72.7(8) . . . . ?
C53 C54 N10 C56 -162.2(7) . . . . ?
C53 C54 N10 Ni2 -47.0(8) . . . . ?
C15 C56 N10 C55 -74.5(8) . . . . ?
C15 C56 N10 C54 158.4(7) . . . . ?
C15 C56 N10 Ni2 41.6(8) . . . . ?
N1 Ni2 N10 C55 174.8(6) . . . . ?
N3 Ni2 N10 C55 81.4(5) . . . . ?
N6 Ni2 N10 C55 -9.8(5) . . . . ?
N7 Ni2 N10 C55 -80.6(9) . . . . ?
N9 Ni2 N10 C55 -105.4(6) . . . . ?
N1 Ni2 N10 C54 -62.9(6) . . . . ?
N3 Ni2 N10 C54 -156.2(6) . . . . ?
N6 Ni2 N10 C54 112.6(6) . . . . ?
N7 Ni2 N10 C54 41.7(11) . . . . ?
N9 Ni2 N10 C54 17.0(6) . . . . ?
N1 Ni2 N10 C56 58.3(6) . . . . ?
N3 Ni2 N10 C56 -35.1(5) . . . . ?
N6 Ni2 N10 C56 -126.3(6) . . . . ?
N7 Ni2 N10 C56 162.9(6) . . . . ?
N9 Ni2 N10 C56 138.2(6) . . . . ?
O2 C1 O1 Tb1 0.1(9) . . . . ?
C2 C1 O1 Tb1 -177.9(6) . . . . ?
O8 Tb1 O1 C1 81.7(5) . . . . ?
O5 Tb1 O1 C1 -155.6(4) . . . . ?
O7 Tb1 O1 C1 7.3(6) . . . . ?
O6 Tb1 O1 C1 160.7(5) . . . . ?
O3 Tb1 O1 C1 -71.4(5) . . . . ?
O4 Tb1 O1 C1 -121.3(5) . . . . ?
O2 Tb1 O1 C1 0.0(5) . . . . ?
C57 Tb1 O1 C1 -96.7(5) . . . . ?
O1 C1 O2 Tb1 -0.1(9) . . . . ?
C2 C1 O2 Tb1 178.0(6) . . . . ?
O8 Tb1 O2 C1 -92.2(5) . . . . ?
O5 Tb1 O2 C1 156.3(4) . . . . ?
O7 Tb1 O2 C1 -174.3(5) . . . . ?
O6 Tb1 O2 C1 -24.6(5) . . . . ?
O1 Tb1 O2 C1 0.0(5) . . . . ?
O3 Tb1 O2 C1 103.6(5) . . . . ?
O4 Tb1 O2 C1 59.5(5) . . . . ?
C57 Tb1 O2 C1 80.9(5) . . . . ?
O4 C57 O3 Tb1 -0.2(8) . . . . ?
C58 C57 O3 Tb1 176.4(6) . . . . ?
O8 Tb1 O3 C57 -157.9(4) . . . . ?
O5 Tb1 O3 C57 81.3(4) . . . . ?
O7 Tb1 O3 C57 158.5(4) . . . . ?
O6 Tb1 O3 C57 7.7(5) . . . . ?
O1 Tb1 O3 C57 -70.5(4) . . . . ?
O4 Tb1 O3 C57 0.1(4) . . . . ?
O2 Tb1 O3 C57 -121.6(4) . . . . ?
C1 Tb1 O3 C57 -95.8(5) . . . . ?
O3 C57 O4 Tb1 0.2(8) . . . . ?
C58 C57 O4 Tb1 -176.3(7) . . . . ?
O8 Tb1 O4 C57 159.0(5) . . . . ?
O5 Tb1 O4 C57 -91.6(5) . . . . ?
O7 Tb1 O4 C57 -27.4(5) . . . . ?
O6 Tb1 O4 C57 -174.0(5) . . . . ?
O1 Tb1 O4 C57 104.0(5) . . . . ?
O3 Tb1 O4 C57 -0.1(4) . . . . ?
O2 Tb1 O4 C57 59.0(5) . . . . ?
C1 Tb1 O4 C57 81.6(5) . . . . ?
O8 Tb1 O5 C64 -5.8(19) . . . 3 ?
O7 Tb1 O5 C64 69.5(19) . . . 3 ?
O6 Tb1 O5 C64 -80.3(19) . . . 3 ?
O1 Tb1 O5 C64 -123.8(18) . . . 3 ?
O3 Tb1 O5 C64 150.1(19) . . . 3 ?
O4 Tb1 O5 C64 -157.5(19) . . . 3 ?
O2 Tb1 O5 C64 99.0(19) . . . 3 ?
C1 Tb1 O5 C64 165.4(19) . . . 3 ?
C57 Tb1 O5 C64 176.9(19) . . . 3 ?
O8 Tb1 O6 C50 -59.7(6) . . . 3 ?
O5 Tb1 O6 C50 51.1(5) . . . 3 ?
O7 Tb1 O6 C50 -1.8(6) . . . 3 ?
O1 Tb1 O6 C50 -148.3(6) . . . 3 ?
O3 Tb1 O6 C50 126.9(5) . . . 3 ?
O4 Tb1 O6 C50 133.1(6) . . . 3 ?
O2 Tb1 O6 C50 -128.5(5) . . . 3 ?
C1 Tb1 O6 C50 -139.5(6) . . . 3 ?
C57 Tb1 O6 C50 130.4(6) . . . 3 ?
O5 C64 O7 Tb1 -6.3(10) 3 . . . ?
C26 C64 O7 Tb1 173.2(4) 6_655 . . . ?
O8 Tb1 O7 C64 58.7(5) . . . . ?
O5 Tb1 O7 C64 -52.5(5) . . . . ?
O6 Tb1 O7 C64 1.3(6) . . . . ?
O1 Tb1 O7 C64 135.7(5) . . . . ?
O3 Tb1 O7 C64 -139.8(5) . . . . ?
O4 Tb1 O7 C64 -118.2(5) . . . . ?
O2 Tb1 O7 C64 141.7(5) . . . . ?
C1 Tb1 O7 C64 139.1(5) . . . . ?
C57 Tb1 O7 C64 -129.9(5) . . . . ?
O6 C50 O8 Tb1 -17(3) 3 . . . ?
C47 C50 O8 Tb1 171.5(16) . . . . ?
O5 Tb1 O8 C50 9(2) . . . . ?
O7 Tb1 O8 C50 -63(2) . . . . ?
O6 Tb1 O8 C50 85(2) . . . . ?
O1 Tb1 O8 C50 165(2) . . . . ?
O3 Tb1 O8 C50 -106(2) . . . . ?
O4 Tb1 O8 C50 112(2) . . . . ?
O2 Tb1 O8 C50 -142(2) . . . . ?
C1 Tb1 O8 C50 -169(2) . . . . ?
C57 Tb1 O8 C50 174(2) . . . . ?
C62 C61 C66 N4 -58.9(11) . . . 5_655 ?
C60 C61 C66 N4 119.1(10) . . . 5_655 ?

_diffrn_measured_fraction_theta_max 0.997
_diffrn_reflns_theta_full        20.86
_diffrn_measured_fraction_theta_full 0.997
_refine_diff_density_max         0.432
_refine_diff_density_min         -0.354
_refine_diff_density_rms         0.049

# SQUEEZE RESULTS (APPEND TO CIF)
# Note: Data are Listed for all Voids in the P1 Unit Cell
# i.e. Centre of Gravity, Solvent Accessible Volume,
# Recovered number of Electrons in the Void and
# Details about the Squeezed Material
loop_
_platon_squeeze_void_nr
_platon_squeeze_void_average_x
_platon_squeeze_void_average_y
_platon_squeeze_void_average_z
_platon_squeeze_void_volume
_platon_squeeze_void_count_electrons
_platon_squeeze_void_content
1 -0.001 0.496 -0.001 11734 1314 ' '
_platon_squeeze_details          
;
;



