####################################################################### 
# 
# This file contains crystal structure data downloaded from the 
# Cambridge Structural Database (CSD) hosted by the Cambridge 
# Crystallographic Data Centre (CCDC).
# 
# Full information about CCDC data access policies and citation 
# guidelines are available at http://www.ccdc.cam.ac.uk/access/V1 
# 
# Audit and citation data items may have been added by the CCDC. 
# Please retain this information to preserve the provenance of 
# this file and to allow appropriate attribution of the data. 
# 
#######################################################################

data_mm1
_audit_block_doi                 10.5517/cczxr0m
_database_code_depnum_ccdc_archive 'CCDC 921351'
loop_
_citation_id
_citation_doi
_citation_year
1 10.1002/chem.201301536 2013
_audit_update_record             
;
2013-01-23 deposited with the CCDC.	2024-07-12 downloaded from the CCDC.
;
#TrackingRef '921351.cif'


_audit_creation_method           SHELXL-97
_chemical_name_systematic        
;
?
;
_chemical_name_common            ?
_chemical_melting_point          ?
_chemical_formula_moiety         ?
_chemical_formula_sum            'C66 H52 Eu N11 Ni O11'
_chemical_formula_weight         1385.86

loop_
_atom_type_symbol
_atom_type_description
_atom_type_scat_dispersion_real
_atom_type_scat_dispersion_imag
_atom_type_scat_source
C C 0.0033 0.0016 'International Tables Vol C Tables 4.2.6.8 and 6.1.1.4'
H H 0.0000 0.0000 'International Tables Vol C Tables 4.2.6.8 and 6.1.1.4'
N N 0.0061 0.0033 'International Tables Vol C Tables 4.2.6.8 and 6.1.1.4'
O O 0.0106 0.0060 'International Tables Vol C Tables 4.2.6.8 and 6.1.1.4'
Ni Ni 0.3393 1.1124 'International Tables Vol C Tables 4.2.6.8 and 6.1.1.4'
Eu Eu -0.1578 3.6682 'International Tables Vol C Tables 4.2.6.8 and 6.1.1.4'

_symmetry_cell_setting           ?
_symmetry_space_group_name_H-M   ?

loop_
_symmetry_equiv_pos_as_xyz
'x, y, z'
'-x+1/2, -y, z'
'x, -y+1/2, -z+1/2'
'-x+1/2, y+1/2, -z+1/2'
'-x, -y, -z'
'x-1/2, y, -z'
'-x, y-1/2, z-1/2'
'x-1/2, -y-1/2, z-1/2'

_cell_length_a                   33.621(3)
_cell_length_b                   21.4450(19)
_cell_length_c                   30.163(3)
_cell_angle_alpha                90.00
_cell_angle_beta                 90.00
_cell_angle_gamma                90.00
_cell_volume                     21748(3)
_cell_formula_units_Z            8
_cell_measurement_temperature    293(2)
_cell_measurement_reflns_used    ?
_cell_measurement_theta_min      ?
_cell_measurement_theta_max      ?

_exptl_crystal_description       ?
_exptl_crystal_colour            ?
_exptl_crystal_size_max          ?
_exptl_crystal_size_mid          ?
_exptl_crystal_size_min          ?
_exptl_crystal_density_meas      ?
_exptl_crystal_density_diffrn    0.847
_exptl_crystal_density_method    'not measured'
_exptl_crystal_F_000             5632
_exptl_absorpt_coefficient_mu    0.785
_exptl_absorpt_correction_type   none
_exptl_absorpt_correction_T_min  ?
_exptl_absorpt_correction_T_max  ?
_exptl_absorpt_process_details   ?

_exptl_special_details           
;
?
;

_diffrn_ambient_temperature      293(2)
_diffrn_radiation_wavelength     0.71069
_diffrn_radiation_type           MoK\a
_diffrn_radiation_source         'fine-focus sealed tube'
_diffrn_radiation_monochromator  graphite
_diffrn_measurement_device_type  ?
_diffrn_measurement_method       ?
_diffrn_detector_area_resol_mean ?
_diffrn_standards_number         ?
_diffrn_standards_interval_count ?
_diffrn_standards_interval_time  ?
_diffrn_standards_decay_%        ?
_diffrn_reflns_number            107073
_diffrn_reflns_av_R_equivalents  0.1298
_diffrn_reflns_av_sigmaI/netI    0.1109
_diffrn_reflns_limit_h_min       -36
_diffrn_reflns_limit_h_max       40
_diffrn_reflns_limit_k_min       -23
_diffrn_reflns_limit_k_max       25
_diffrn_reflns_limit_l_min       -36
_diffrn_reflns_limit_l_max       20
_diffrn_reflns_theta_min         1.16
_diffrn_reflns_theta_max         25.14
_reflns_number_total             19417
_reflns_number_gt                9326
_reflns_threshold_expression     >2sigma(I)

_computing_data_collection       ?
_computing_cell_refinement       ?
_computing_data_reduction        ?
_computing_structure_solution    ?
_computing_structure_refinement  'SHELXL-97 (Sheldrick, 1997)'
_computing_molecular_graphics    ?
_computing_publication_material  ?

_refine_special_details          
;
Refinement of F^2^ against ALL reflections. The weighted R-factor wR and
goodness of fit S are based on F^2^, conventional R-factors R are based
on F, with F set to zero for negative F^2^. The threshold expression of
F^2^ > 2sigma(F^2^) is used only for calculating R-factors(gt) etc. and is
not relevant to the choice of reflections for refinement. R-factors based
on F^2^ are statistically about twice as large as those based on F, and R-
factors based on ALL data will be even larger.
;

_refine_ls_structure_factor_coef Fsqd
_refine_ls_matrix_type           full
_refine_ls_weighting_scheme      calc
_refine_ls_weighting_details     
'calc w=1/[\s^2^(Fo^2^)+(0.0400P)^2^+0.0000P] where P=(Fo^2^+2Fc^2^)/3'
_atom_sites_solution_primary     direct
_atom_sites_solution_secondary   difmap
_atom_sites_solution_hydrogens   geom
_refine_ls_hydrogen_treatment    mixed
_refine_ls_extinction_method     none
_refine_ls_extinction_coef       ?
_refine_ls_number_reflns         19417
_refine_ls_number_parameters     703
_refine_ls_number_restraints     61
_refine_ls_R_factor_all          0.0949
_refine_ls_R_factor_gt           0.0550
_refine_ls_wR_factor_ref         0.1233
_refine_ls_wR_factor_gt          0.1180
_refine_ls_goodness_of_fit_ref   0.909
_refine_ls_restrained_S_all      0.930
_refine_ls_shift/su_max          0.001
_refine_ls_shift/su_mean         0.000

loop_
_atom_site_label
_atom_site_type_symbol
_atom_site_fract_x
_atom_site_fract_y
_atom_site_fract_z
_atom_site_U_iso_or_equiv
_atom_site_adp_type
_atom_site_occupancy
_atom_site_symmetry_multiplicity
_atom_site_calc_flag
_atom_site_refinement_flags
_atom_site_disorder_assembly
_atom_site_disorder_group
C18 C 0.31433(18) 0.7266(3) 0.3938(3) 0.092(2) Uani 1 1 d . . .
C33 C 0.42607(19) 0.3454(3) 0.3795(2) 0.0773(17) Uani 1 1 d . . .
C19 C 0.25364(15) 0.71248(19) 0.41310(15) 0.114(3) Uani 1 1 d G . .
C20 C 0.27562(11) 0.74243(19) 0.44581(18) 0.0847(18) Uani 1 1 d G . .
C21 C 0.25738(17) 0.76059(19) 0.48510(16) 0.137(3) Uani 1 1 d G . .
H21 H 0.2721 0.7806 0.5070 0.165 Uiso 1 1 calc R . .
C22 C 0.21716(18) 0.7488(2) 0.49168(17) 0.156(3) Uani 1 1 d G . .
H22 H 0.2050 0.7609 0.5180 0.187 Uiso 1 1 calc R . .
C23 C 0.19518(11) 0.7188(2) 0.4590(2) 0.191(5) Uani 1 1 d GU . .
H23 H 0.1683 0.7110 0.4634 0.229 Uiso 1 1 calc R . .
C24 C 0.21341(15) 0.70069(19) 0.41969(19) 0.141(3) Uani 1 1 d GU . .
H24 H 0.1987 0.6807 0.3978 0.169 Uiso 1 1 calc R . .
C32 C 0.34626(15) 0.4370(2) 0.31163(18) 0.0650(14) Uani 1 1 d . . .
C15 C 0.34760(16) 0.8808(3) 0.3956(2) 0.0777(16) Uani 1 1 d . . .
C9 C 0.32046(12) 0.9620(2) 0.42795(12) 0.0850(17) Uani 1 1 d G . .
C10 C 0.33710(11) 0.92307(15) 0.45980(14) 0.0848(17) Uani 1 1 d G . .
C11 C 0.33552(13) 0.93953(19) 0.50434(13) 0.112(2) Uani 1 1 d G . .
H11 H 0.3467 0.9135 0.5256 0.135 Uiso 1 1 calc R . .
C12 C 0.31729(15) 0.9949(2) 0.51703(14) 0.164(4) Uani 1 1 d G . .
H12 H 0.3162 1.0059 0.5468 0.196 Uiso 1 1 calc R . .
C13 C 0.30065(13) 1.03382(17) 0.4852(2) 0.148(3) Uani 1 1 d G . .
H13 H 0.2885 1.0709 0.4937 0.177 Uiso 1 1 calc R . .
C14 C 0.30223(12) 1.01735(19) 0.44064(18) 0.125(3) Uani 1 1 d G . .
H14 H 0.2911 1.0434 0.4193 0.150 Uiso 1 1 calc R . .
C52 C 0.41549(18) 0.8381(2) 0.5195(2) 0.0782(16) Uani 1 1 d . . .
C53 C 0.36887(15) 0.7957(2) 0.55901(14) 0.118(2) Uani 1 1 d GU . .
C54 C 0.39030(13) 0.8355(2) 0.5864(2) 0.109(2) Uani 1 1 d GU . .
C55 C 0.37923(19) 0.8428(3) 0.63054(18) 0.174(4) Uani 1 1 d G . .
H55 H 0.3936 0.8694 0.6489 0.208 Uiso 1 1 calc R . .
C56 C 0.3467(2) 0.8103(3) 0.64719(14) 0.234(5) Uani 1 1 d GU . .
H56 H 0.3393 0.8152 0.6767 0.280 Uiso 1 1 calc R . .
C57 C 0.32529(15) 0.7705(3) 0.6198(2) 0.201(4) Uani 1 1 d GU . .
H57 H 0.3035 0.7488 0.6309 0.242 Uiso 1 1 calc R . .
C58 C 0.33636(15) 0.7632(2) 0.5757(2) 0.149(3) Uani 1 1 d GU . .
H58 H 0.3220 0.7366 0.5573 0.179 Uiso 1 1 calc R . .
C37 C 0.4313(2) 0.6859(4) 0.4588(2) 0.126(3) Uani 1 1 d . . .
C66 C 0.55930(15) 0.8163(3) 0.70937(19) 0.0766(15) Uani 1 1 d . . .
C36 C 0.45685(18) 0.7418(3) 0.4616(2) 0.118(2) Uani 1 1 d . . .
H36A H 0.4796 0.7368 0.4422 0.141 Uiso 1 1 calc R . .
H36B H 0.4666 0.7464 0.4917 0.141 Uiso 1 1 calc R . .
C34 C 0.44147(18) 0.8170(3) 0.4002(2) 0.121(2) Uani 1 1 d . . .
H34A H 0.4331 0.8597 0.3949 0.145 Uiso 1 1 calc R . .
H34B H 0.4697 0.8142 0.3940 0.145 Uiso 1 1 calc R . .
C35 C 0.41907(17) 0.7738(4) 0.3701(2) 0.138(3) Uani 1 1 d . . .
H35A H 0.4281 0.7313 0.3747 0.165 Uiso 1 1 calc R . .
H35B H 0.4241 0.7849 0.3394 0.165 Uiso 1 1 calc R . .
C17 C 0.3496(2) 0.7228(3) 0.3670(2) 0.136(3) Uani 1 1 d . . .
H17A H 0.3428 0.7245 0.3358 0.163 Uiso 1 1 calc R . .
H17B H 0.3636 0.6841 0.3728 0.163 Uiso 1 1 calc R . .
C16 C 0.35849(19) 0.8372(3) 0.36154(19) 0.0950(18) Uani 1 1 d . . .
H16A H 0.3780 0.8564 0.3422 0.114 Uiso 1 1 calc R . .
H16B H 0.3352 0.8275 0.3439 0.114 Uiso 1 1 calc R . .
C51 C 0.44039(18) 0.8517(3) 0.4811(2) 0.1002(19) Uani 1 1 d . . .
H51A H 0.4682 0.8534 0.4897 0.120 Uiso 1 1 calc R . .
H51B H 0.4330 0.8915 0.4682 0.120 Uiso 1 1 calc R . .
C44 C 0.4875(2) 0.6093(3) 0.4566(3) 0.160(3) Uani 1 1 d U . .
H44A H 0.4996 0.6344 0.4335 0.192 Uiso 1 1 calc R . .
H44B H 0.4901 0.5659 0.4479 0.192 Uiso 1 1 calc R . .
C45 C 0.51058(14) 0.6195(2) 0.49991(14) 0.135(3) Uani 1 1 d GU . .
C46 C 0.49709(12) 0.5946(2) 0.53971(18) 0.167(3) Uani 1 1 d GU . .
H46 H 0.4741 0.5706 0.5403 0.201 Uiso 1 1 calc R . .
C47 C 0.51803(14) 0.6056(2) 0.57868(14) 0.137(3) Uani 1 1 d G . .
H47 H 0.5090 0.5890 0.6053 0.164 Uiso 1 1 calc R . .
C48 C 0.55245(12) 0.6415(2) 0.57783(13) 0.0860(18) Uani 1 1 d G . .
C49 C 0.56594(11) 0.6664(2) 0.53802(17) 0.134(3) Uani 1 1 d G . .
H49 H 0.5890 0.6904 0.5374 0.160 Uiso 1 1 calc R . .
C50 C 0.54501(16) 0.6554(2) 0.49906(13) 0.143(3) Uani 1 1 d G . .
H50 H 0.5540 0.6720 0.4724 0.172 Uiso 1 1 calc R . .
C8 C 0.30929(17) 0.9518(3) 0.3458(2) 0.106(2) Uani 1 1 d . . .
H8A H 0.3286 0.9471 0.3222 0.127 Uiso 1 1 calc R . .
H8B H 0.3019 0.9955 0.3473 0.127 Uiso 1 1 calc R . .
C5 C 0.27243(14) 0.9129(2) 0.33487(17) 0.0676(14) Uani 1 1 d . . .
C6 C 0.25552(14) 0.8714(2) 0.36557(15) 0.0614(13) Uani 1 1 d . . .
H6 H 0.2659 0.8679 0.3941 0.074 Uiso 1 1 calc R . .
C7 C 0.22327(14) 0.83603(18) 0.35269(15) 0.0542(12) Uani 1 1 d . . .
H7 H 0.2122 0.8081 0.3728 0.065 Uiso 1 1 calc R . .
C2 C 0.20694(13) 0.84067(19) 0.31119(17) 0.0571(13) Uani 1 1 d . . .
C3 C 0.22313(14) 0.8828(2) 0.28120(15) 0.0629(13) Uani 1 1 d . . .
H3 H 0.2120 0.8870 0.2531 0.076 Uiso 1 1 calc R . .
C4 C 0.25598(16) 0.9190(2) 0.29296(16) 0.0740(15) Uani 1 1 d . . .
H4 H 0.2668 0.9470 0.2728 0.089 Uiso 1 1 calc R . .
C60 C 0.47758(17) 0.8844(2) 0.6097(2) 0.0847(17) Uani 1 1 d . . .
C65 C 0.4970(2) 0.8289(3) 0.6054(2) 0.119(2) Uani 1 1 d . . .
H65 H 0.4923 0.8052 0.5801 0.142 Uiso 1 1 calc R . .
C64 C 0.5229(2) 0.8065(3) 0.6363(2) 0.116(2) Uani 1 1 d . . .
H64 H 0.5363 0.7692 0.6311 0.139 Uiso 1 1 calc R . .
C63 C 0.52975(15) 0.8399(3) 0.6766(2) 0.0807(16) Uani 1 1 d . . .
C62 C 0.50863(18) 0.8963(3) 0.6806(2) 0.102(2) Uani 1 1 d . . .
H62 H 0.5128 0.9210 0.7056 0.122 Uiso 1 1 calc R . .
C61 C 0.48272(19) 0.9158(3) 0.6497(2) 0.118(3) Uani 1 1 d . . .
H61 H 0.4677 0.9513 0.6552 0.142 Uiso 1 1 calc R . .
C59 C 0.4479(2) 0.9067(3) 0.5766(2) 0.127(3) Uani 1 1 d . . .
H59A H 0.4335 0.9416 0.5893 0.153 Uiso 1 1 calc R . .
H59B H 0.4621 0.9221 0.5508 0.153 Uiso 1 1 calc R . .
C25 C 0.26876(19) 0.6754(2) 0.3380(3) 0.126(3) Uani 1 1 d . . .
H25A H 0.2743 0.7046 0.3142 0.151 Uiso 1 1 calc R . .
H25B H 0.2404 0.6672 0.3380 0.151 Uiso 1 1 calc R . .
C26 C 0.29112(13) 0.61417(15) 0.32895(18) 0.114(3) Uani 1 1 d G . .
C27 C 0.28272(12) 0.5659(2) 0.35827(17) 0.158(3) Uani 1 1 d GU . .
H27 H 0.2648 0.5722 0.3813 0.189 Uiso 1 1 calc R . .
C28 C 0.30108(14) 0.50831(17) 0.35311(16) 0.156(3) Uani 1 1 d GU . .
H28 H 0.2955 0.4760 0.3727 0.187 Uiso 1 1 calc R . .
C29 C 0.32785(12) 0.49894(15) 0.31862(16) 0.0866(17) Uani 1 1 d G . .
C30 C 0.33625(14) 0.5472(2) 0.28930(13) 0.133(3) Uani 1 1 d G . .
H30 H 0.3542 0.5409 0.2662 0.159 Uiso 1 1 calc R . .
C31 C 0.31788(16) 0.60479(19) 0.29446(15) 0.156(3) Uani 1 1 d GU . .
H31 H 0.3235 0.6371 0.2748 0.188 Uiso 1 1 calc R . .
C38 C 0.3803(2) 0.62845(19) 0.4600(2) 0.156(4) Uani 1 1 d G . .
C39 C 0.41281(15) 0.5884(3) 0.4589(2) 0.213(5) Uani 1 1 d GU . .
C40 C 0.4070(2) 0.5243(3) 0.4607(2) 0.209(4) Uani 1 1 d GU . .
H40 H 0.4288 0.4975 0.4600 0.251 Uiso 1 1 calc R . .
C41 C 0.3687(3) 0.5002(2) 0.4636(3) 0.329(8) Uani 1 1 d GU . .
H41 H 0.3649 0.4573 0.4648 0.394 Uiso 1 1 calc R . .
C42 C 0.33623(18) 0.5402(3) 0.4647(3) 0.277(6) Uani 1 1 d GU . .
H42 H 0.3106 0.5241 0.4666 0.332 Uiso 1 1 calc R . .
C43 C 0.34201(17) 0.6043(3) 0.4629(3) 0.280(8) Uani 1 1 d G . .
H43 H 0.3203 0.6311 0.4636 0.336 Uiso 1 1 calc R . .
N1 N 0.35382(12) 0.87151(19) 0.43964(15) 0.0791(13) Uani 1 1 d . . .
N2 N 0.38376(15) 0.7987(2) 0.51630(16) 0.0908(14) Uani 1 1 d . . .
N3 N 0.43364(13) 0.7998(2) 0.44843(19) 0.0958(15) Uani 1 1 d . . .
N4 N 0.39316(17) 0.6903(2) 0.4584(2) 0.122(2) Uani 1 1 d . . .
N5 N 0.37525(13) 0.7783(3) 0.37968(15) 0.0975(16) Uani 1 1 d . . .
N6 N 0.31454(14) 0.74936(19) 0.43465(18) 0.0831(14) Uani 1 1 d . . .
N7 N 0.41925(14) 0.8603(2) 0.56203(17) 0.0864(14) Uani 1 1 d . . .
N8 N 0.27966(17) 0.7036(2) 0.3797(2) 0.0985(19) Uani 1 1 d . . .
N9 N 0.32721(14) 0.9336(2) 0.38724(15) 0.0849(14) Uani 1 1 d . . .
N10 N 0.44516(19) 0.6248(3) 0.4594(2) 0.157(3) Uani 1 1 d U . .
O01 O 0.33313(10) 0.39040(15) 0.33051(12) 0.0775(10) Uani 1 1 d . . .
O1 O 0.42488(10) 0.23441(16) 0.29938(12) 0.0832(10) Uani 1 1 d . . .
O02 O 0.37564(12) 0.43409(15) 0.28603(13) 0.0916(12) Uani 1 1 d . . .
O2 O 0.43427(10) 0.34883(15) 0.24348(12) 0.0772(10) Uani 1 1 d . . .
O6 O 0.39492(12) 0.31338(17) 0.38126(11) 0.0886(11) Uani 1 1 d . . .
O7 O 0.43819(12) 0.3714(2) 0.34574(15) 0.1066(14) Uani 1 1 d . . .
Ni1 Ni 0.37114(2) 0.77937(3) 0.45139(3) 0.0806(2) Uani 1 1 d . . .
Eu1 Eu 0.385747(7) 0.321916(11) 0.299671(8) 0.05814(9) Uani 1 1 d . . .
O9 O 0.34581(9) 0.31748(15) 0.23816(11) 0.0718(9) Uani 1 1 d . . .
O10 O 0.33609(9) 0.24575(15) 0.31992(11) 0.0715(9) Uani 1 1 d . . .
C1 C 0.17249(14) 0.8013(2) 0.29612(19) 0.0598(13) Uani 1 1 d . . .

loop_
_atom_site_aniso_label
_atom_site_aniso_U_11
_atom_site_aniso_U_22
_atom_site_aniso_U_33
_atom_site_aniso_U_23
_atom_site_aniso_U_13
_atom_site_aniso_U_12
C18 0.062(4) 0.063(4) 0.151(7) -0.005(4) -0.013(5) 0.031(3)
C33 0.072(4) 0.080(4) 0.080(5) -0.018(4) -0.024(4) 0.014(3)
C19 0.090(5) 0.058(4) 0.193(9) 0.027(5) -0.078(6) -0.012(4)
C20 0.089(5) 0.078(4) 0.088(5) 0.020(4) -0.002(4) 0.016(4)
C21 0.104(6) 0.132(6) 0.176(9) 0.041(6) -0.048(6) -0.034(5)
C22 0.090(6) 0.213(9) 0.165(8) 0.072(7) -0.016(5) -0.024(6)
C23 0.119(7) 0.254(11) 0.199(8) 0.131(8) -0.040(6) -0.050(6)
C24 0.110(6) 0.114(5) 0.199(8) 0.097(5) -0.080(5) -0.045(4)
C32 0.060(3) 0.057(3) 0.077(4) -0.011(3) 0.003(3) -0.002(3)
C15 0.079(4) 0.060(3) 0.094(5) -0.018(4) -0.018(4) -0.003(3)
C9 0.100(4) 0.060(4) 0.094(5) 0.003(4) -0.035(4) -0.011(3)
C10 0.119(5) 0.066(4) 0.070(4) -0.026(3) -0.030(4) 0.005(3)
C11 0.135(6) 0.097(5) 0.104(5) -0.025(4) -0.039(4) 0.036(4)
C12 0.235(9) 0.149(7) 0.107(6) -0.069(5) -0.056(6) 0.114(6)
C13 0.185(8) 0.069(5) 0.190(9) -0.046(6) -0.046(7) 0.035(5)
C14 0.148(6) 0.059(4) 0.168(8) -0.007(5) -0.055(6) 0.016(4)
C52 0.088(4) 0.064(4) 0.083(5) 0.002(3) -0.031(4) 0.010(3)
C53 0.104(5) 0.118(6) 0.132(6) -0.012(4) -0.020(4) 0.007(3)
C54 0.118(5) 0.106(5) 0.103(5) 0.002(4) -0.023(4) 0.011(3)
C55 0.158(8) 0.275(11) 0.088(6) -0.007(7) -0.023(6) -0.007(7)
C56 0.232(12) 0.379(16) 0.090(5) -0.010(6) 0.037(7) -0.021(10)
C57 0.195(7) 0.260(8) 0.149(5) 0.045(6) 0.010(5) -0.005(6)
C58 0.132(6) 0.168(7) 0.148(5) 0.000(6) -0.018(5) -0.026(4)
C37 0.119(6) 0.132(6) 0.127(6) -0.067(5) -0.076(5) 0.028(5)
C66 0.058(3) 0.101(4) 0.071(4) -0.006(4) 0.002(3) 0.009(3)
C36 0.079(4) 0.156(6) 0.117(6) -0.037(5) -0.047(4) 0.041(5)
C34 0.081(4) 0.189(7) 0.093(5) -0.007(5) -0.007(4) -0.015(5)
C35 0.071(4) 0.236(8) 0.107(5) -0.070(6) -0.026(4) 0.048(5)
C17 0.130(6) 0.122(5) 0.155(7) -0.071(5) -0.084(6) 0.028(5)
C16 0.107(5) 0.108(5) 0.071(4) -0.003(4) -0.013(4) -0.004(4)
C51 0.106(5) 0.108(5) 0.086(5) -0.006(4) -0.021(4) -0.011(4)
C44 0.173(6) 0.158(6) 0.149(6) -0.046(5) -0.049(5) 0.073(5)
C45 0.121(6) 0.155(7) 0.129(5) -0.098(5) -0.083(5) 0.086(5)
C46 0.151(7) 0.210(9) 0.141(6) -0.099(6) -0.076(6) 0.021(6)
C47 0.103(5) 0.188(7) 0.119(6) -0.076(5) -0.047(5) 0.006(5)
C48 0.068(4) 0.118(5) 0.072(4) -0.037(4) -0.023(3) 0.030(3)
C49 0.112(5) 0.211(8) 0.078(5) -0.043(6) -0.031(4) 0.016(5)
C50 0.121(6) 0.222(9) 0.087(5) -0.041(6) -0.034(5) 0.037(6)
C8 0.118(5) 0.105(4) 0.095(5) 0.028(4) -0.047(4) -0.044(4)
C5 0.075(3) 0.060(3) 0.067(4) 0.000(3) -0.017(3) -0.013(3)
C6 0.079(3) 0.059(3) 0.046(3) 0.0