####################################################################### 
# 
# This file contains crystal structure data downloaded from the 
# Cambridge Structural Database (CSD) hosted by the Cambridge 
# Crystallographic Data Centre (CCDC).
# 
# Full information about CCDC data access policies and citation 
# guidelines are available at http://www.ccdc.cam.ac.uk/access/V1 
# 
# Audit and citation data items may have been added by the CCDC. 
# Please retain this information to preserve the provenance of 
# this file and to allow appropriate attribution of the data. 
# 
#######################################################################

data_Co3(H2O)(OH)(trans-1,4dach)0.5(HPO4)(PO4).(3+x)H2O
_audit_block_doi                 10.5517/ccpslkl
_database_code_depnum_ccdc_archive 'CCDC 649250'
loop_
_citation_id
_citation_doi
_citation_year
1 10.1016/j.jssc.2007.03.015 2007
_audit_update_record             
;
2007-06-01 deposited with the CCDC.	2024-07-12 downloaded from the CCDC.
;

_audit_creation_method           shelxl-97
_chemical_formula_sum            'C3 H16 Co3 N O13 P2'
_chemical_formula_weight         512.90

loop_
_atom_type_symbol
_atom_type_description
_atom_type_scat_dispersion_real
_atom_type_scat_dispersion_imag
_atom_type_scat_source
c c 0.0033 0.0016 'international tables vol c tables 4.2.6.8 and 6.1.1.4'
n n 0.0061 0.0033 'international tables vol c tables 4.2.6.8 and 6.1.1.4'
o o 0.0106 0.0060 'international tables vol c tables 4.2.6.8 and 6.1.1.4'
p p 0.1023 0.0942 'international tables vol c tables 4.2.6.8 and 6.1.1.4'
co co 0.3494 0.9721 'international tables vol c tables 4.2.6.8 and 6.1.1.4'
h h 0.0000 0.0000 'international tables vol c tables 4.2.6.8 and 6.1.1.4'

_symmetry_cell_setting           Monoclinic
_symmetry_space_group_name_h-m   C2/c

loop_
_symmetry_equiv_pos_as_xyz
'x, y, z'
'-x, y, -z+1/2'
'x+1/2, y+1/2, z'
'-x+1/2, y+1/2, -z+1/2'
'-x, -y, -z'
'x, -y, z-1/2'
'-x+1/2, -y+1/2, -z'
'x+1/2, -y+1/2, z-1/2'

_cell_length_a                   28.653(10)
_cell_length_b                   12.874(4)
_cell_length_c                   8.266(3)
_cell_angle_alpha                90.00
_cell_angle_beta                 97.257(7)
_cell_angle_gamma                90.00
_cell_volume                     3024.9(18)
_cell_formula_units_z            8
_cell_measurement_temperature    295(2)
_cell_measurement_reflns_used    600
_cell_measurement_theta_min      1.43
_cell_measurement_theta_max      28.36

_exptl_crystal_description       tabular
_exptl_crystal_colour            blue
_exptl_crystal_size_max          0.30
_exptl_crystal_size_mid          0.20
_exptl_crystal_size_min          0.05
_exptl_crystal_density_meas      'not measured'
_exptl_crystal_density_diffrn    2.332
_exptl_crystal_density_method    'not measured'
_exptl_crystal_f_000             2128
_exptl_absorpt_coefficient_mu    3.536
_exptl_absorpt_correction_type   Empirical
_exptl_absorpt_correction_t_min  0.752
_exptl_absorpt_correction_t_max  0.912
_exptl_absorpt_process_details   none

_exptl_special_details           
;
?
;

_diffrn_ambient_temperature      295(2)
_diffrn_radiation_wavelength     0.71073
_diffrn_radiation_type           mok\a
_diffrn_radiation_source         'fine-focus sealed tube'
_diffrn_radiation_monochromator  graphite
_diffrn_measurement_device_type  'CCD area detector'
_diffrn_measurement_method       'phi and omega scans'
_diffrn_reflns_number            10828
_diffrn_reflns_av_r_equivalents  0.1447
_diffrn_reflns_av_sigmai/neti    0.1908
_diffrn_reflns_limit_h_min       -37
_diffrn_reflns_limit_h_max       37
_diffrn_reflns_limit_k_min       -16
_diffrn_reflns_limit_k_max       17
_diffrn_reflns_limit_l_min       -11
_diffrn_reflns_limit_l_max       8
_diffrn_reflns_theta_min         1.43
_diffrn_reflns_theta_max         28.36
_reflns_number_total             3755
_reflns_number_gt                1698
_reflns_threshold_expression     >2sigma(i)

_computing_data_collection       ?
_computing_cell_refinement       'Bruker XSCANS'
_computing_data_reduction        'Bruker SHELXTL'
_computing_structure_solution    'SHELXS-97 (Sheldrick, 1990)'
_computing_structure_refinement  'SHELXL-97 (Sheldrick, 1997)'
_computing_molecular_graphics    'Bruker SHELXTL'
_computing_publication_material  'Bruker SHELXTL'

_refine_special_details          
;
Refinement of F^2^ against ALL reflections. The weighted R-factor wR and
goodness of fit S are based on F^2^, conventional R-factors R are based
on F, with F set to zero for negative F^2^. The threshold expression of
F^2^ > 2sigma(F^2^) is used only for calculating R-factors(gt) etc. and is
not relevant to the choice of reflections for refinement. R-factors based
on F^2^ are statistically about twice as large as those based on F, and R-
factors based on ALL data will be even larger.
;

_refine_ls_structure_factor_coef Fsqd
_refine_ls_matrix_type           full
_refine_ls_weighting_scheme      calc
_refine_ls_weighting_details     
'calc w=1/[\s^2^(Fo^2^)+(0.0752P)^2^+0.0000P] where P=(Fo^2^+2Fc^2^)/3'
_atom_sites_solution_primary     direct
_atom_sites_solution_secondary   difmap
_atom_sites_solution_hydrogens   geom
_refine_ls_hydrogen_treatment    mixed
_refine_ls_extinction_method     none
_refine_ls_extinction_coef       ?
_refine_ls_number_reflns         3755
_refine_ls_number_parameters     200
_refine_ls_number_restraints     0
_refine_ls_R_factor_all          0.1504
_refine_ls_R_factor_gt           0.0590
_refine_ls_wR_factor_ref         0.1638
_refine_ls_wR_factor_gt          0.1369
_refine_ls_goodness_of_fit_ref   0.819
_refine_ls_restrained_S_all      0.819
_refine_ls_shift/su_max          0.092
_refine_ls_shift/su_mean         0.006

loop_
_atom_site_label
_atom_site_type_symbol
_atom_site_fract_x
_atom_site_fract_y
_atom_site_fract_z
_atom_site_U_iso_or_equiv
_atom_site_adp_type
_atom_site_occupancy
_atom_site_symmetry_multiplicity
_atom_site_calc_flag
_atom_site_refinement_flags
_atom_site_disorder_assembly
_atom_site_disorder_group
Co1 Co 0.25258(4) 0.63537(8) 0.06661(12) 0.0174(3) Uani 1 1 d . . .
Co2 Co 0.25407(4) 0.63491(8) 0.45639(12) 0.0179(3) Uani 1 1 d . . .
Co3 Co 0.36391(5) 0.38223(9) 0.64381(15) 0.0303(3) Uani 1 1 d . . .
P1 P 0.31485(8) 0.19562(15) 0.7762(2) 0.0166(5) Uani 1 1 d . . .
P2 P 0.31374(8) 0.53996(15) 0.7948(3) 0.0166(5) Uani 1 1 d . . .
O1 O 0.28965(19) 0.7756(4) 0.4217(6) 0.0185(12) Uani 1 1 d . . .
O2 O 0.28340(19) 0.7798(4) 0.1176(6) 0.0181(13) Uani 1 1 d . . .
O3 O 0.3592(2) 0.2605(4) 0.7795(7) 0.0288(15) Uani 1 1 d . . .
O4 O 0.3274(2) 0.0814(4) 0.7813(7) 0.0210(13) Uani 1 1 d . . .
H4 H 0.3098 0.0501 0.8353 0.032 Uiso 1 1 calc R . .
O5 O 0.31199(19) 0.5886(4) -0.0365(7) 0.0190(12) Uani 1 1 d . . .
O6 O 0.2836(2) 0.5588(4) 0.2783(6) 0.0188(12) Uani 1 1 d . . .
O7 O 0.2969(2) 0.6187(4) 0.6670(7) 0.0243(13) Uani 1 1 d . . .
O8 O 0.3644(2) 0.5102(4) 0.7764(8) 0.0304(15) Uani 1 1 d . . .
O9 O 0.20485(19) 0.6813(4) 0.2375(6) 0.0195(13) Uani 1 1 d . . .
O10 O 0.2133(2) 0.5021(4) -0.0084(6) 0.0192(13) Uani 1 1 d . . .
N1 N 0.4185(3) 0.3568(7) 0.5172(10) 0.049(2) Uani 1 1 d . . .
H1 H 0.4137 0.3462 0.4137 0.059 Uiso 1 1 calc R . .
C1 C 0.4667(4) 0.3563(8) 0.6036(13) 0.047(3) Uani 1 1 d . . .
H1A H 0.4887 0.3572 0.5221 0.056 Uiso 1 1 calc R . .
C2 C 0.4754(4) 0.2579(8) 0.7050(14) 0.046(3) Uani 1 1 d . . .
H2A H 0.4528 0.2536 0.7826 0.056 Uiso 1 1 calc R . .
H2B H 0.4712 0.1976 0.6342 0.056 Uiso 1 1 calc R . .
C3 C 0.4751(4) 0.4540(8) 0.7088(16) 0.055(3) Uani 1 1 d . . .
H3A H 0.4695 0.5154 0.6411 0.066 Uiso 1 1 calc R . .
H3B H 0.4534 0.4552 0.7901 0.066 Uiso 1 1 calc R . .
OW1 O 0.4041(3) 0.3239(7) 1.0808(9) 0.064(2) Uani 1 1 d . . .
OW2 O 0.1125(4) 0.6556(12) 0.1946(15) 0.135(5) Uani 1 1 d . . .
OW3 O 0.0814(8) 0.4730(14) 0.172(4) 0.316(15) Uani 1 1 d . . .

loop_
_atom_site_aniso_label
_atom_site_aniso_U_11
_atom_site_aniso_U_22
_atom_site_aniso_U_33
_atom_site_aniso_U_23
_atom_site_aniso_U_13
_atom_site_aniso_U_12
Co1 0.0305(7) 0.0143(5) 0.0071(5) -0.0001(5) 0.0012(4) -0.0006(5)
Co2 0.0311(7) 0.0141(5) 0.0086(5) -0.0008(5) 0.0035(4) -0.0004(5)
Co3 0.0404(8) 0.0302(7) 0.0202(7) 0.0009(6) 0.0031(5) 0.0008(6)
P1 0.0270(13) 0.0149(9) 0.0075(11) 0.0001(8) 0.0015(9) -0.0007(9)
P2 0.0279(13) 0.0144(9) 0.0076(10) -0.0004(8) 0.0027(9) -0.0002(9)
O1 0.034(4) 0.014(3) 0.008(3) -0.003(2) 0.005(2) 0.001(2)
O2 0.033(4) 0.014(3) 0.006(3) -0.001(2) -0.001(2) 0.001(2)
O3 0.037(4) 0.031(3) 0.018(3) 0.005(3) 0.001(3) 0.002(3)
O4 0.034(4) 0.019(3) 0.012(3) 0.000(2) 0.009(2) 0.002(3)
O5 0.023(3) 0.019(3) 0.014(3) -0.005(2) 0.003(2) -0.003(2)
O6 0.030(3) 0.023(3) 0.004(3) -0.001(2) 0.003(2) 0.001(2)
O7 0.044(4) 0.017(3) 0.010(3) 0.003(2) -0.005(2) -0.002(3)
O8 0.037(4) 0.028(3) 0.026(3) -0.007(3) 0.004(3) -0.004(3)
O9 0.030(3) 0.020(3) 0.010(3) -0.003(2) 0.006(2) 0.005(2)
O10 0.030(4) 0.017(3) 0.011(3) -0.002(2) 0.005(2) -0.002(2)
N1 0.037(5) 0.083(7) 0.027(5) 0.008(5) 0.000(4) 0.010(5)
C1 0.048(7) 0.062(7) 0.030(6) 0.005(6) -0.001(5) -0.004(6)
C2 0.049(7) 0.046(6) 0.043(7) 0.008(6) -0.001(6) 0.000(5)
C3 0.050(8) 0.048(6) 0.066(9) 0.010(6) -0.001(6) 0.004(5)
OW1 0.057(5) 0.095(6) 0.040(5) -0.017(5) 0.004(4) 0.006(5)
OW2 0.059(7) 0.236(15) 0.109(10) 0.049(10) 0.005(6) -0.044(8)
OW3 0.26(3) 0.141(15) 0.57(5) 0.01(2) 0.12(3) 0.025(16)

_geom_special_details            
;
All esds (except the esd in the dihedral angle between two l.s. planes)
are estimated using the full covariance matrix. The cell esds are taken
into account individually in the estimation of esds in distances, angles
and torsion angles; correlations between esds in cell parameters are only
used when they are defined by crystal symmetry. An approximate (isotropic)
treatment of cell esds is used for estimating esds involving l.s. planes.
;

loop_
_geom_bond_atom_site_label_1
_geom_bond_atom_site_label_2
_geom_bond_distance
_geom_bond_site_symmetry_2
_geom_bond_publ_flag
Co1 O2 2.044(5) 7_565 ?
Co1 O2 2.078(5) . ?
Co1 O5 2.087(6) . ?
Co1 O6 2.105(5) . ?
Co1 O10 2.102(5) . ?
Co1 O9 2.169(6) . ?
Co2 O7 2.011(5) . ?
Co2 O6 2.039(5) . ?
Co2 O1 2.057(5) 7_566 ?
Co2 O1 2.116(5) . ?
Co2 O10 2.155(5) 6_566 ?
Co2 O9 2.230(5) . ?
Co3 O3 1.942(6) . ?
Co3 O8 1.978(6) . ?
Co3 O5 2.004(5) 6_566 ?
Co3 N1 2.016(9) . ?
P1 O3 1.518(7) . ?
P1 O4 1.513(5) . ?
P1 O1 1.524(6) 6_566 ?
P1 O2 1.527(5) 6_566 ?
P2 O7 1.499(5) . ?
P2 O8 1.526(7) . ?
P2 O6 1.533(6) 6_566 ?
P2 O5 1.535(6) 1_556 ?
O1 P1 1.524(6) 6_565 ?
O1 Co2 2.057(5) 7_566 ?
O2 P1 1.527(5) 6_565 ?
O2 Co1 2.044(5) 7_565 ?
O5 P2 1.535(6) 1_554 ?
O5 Co3 2.004(5) 6_565 ?
O6 P2 1.533(6) 6_565 ?
O10 Co2 2.155(5) 6_565 ?
N1 C1 1.471(12) . ?
C1 C3 1.530(15) . ?
C1 C2 1.523(13) . ?
C2 C2 1.51(2) 2_656 ?
C3 C3 1.50(2) 2_656 ?

loop_
_geom_angle_atom_site_label_1
_geom_angle_atom_site_label_2
_geom_angle_atom_site_label_3
_geom_angle
_geom_angle_site_symmetry_1
_geom_angle_site_symmetry_3
_geom_angle_publ_flag
O2 Co1 O2 80.5(2) 7_565 . ?
O2 Co1 O5 102.2(2) 7_565 . ?
O2 Co1 O5 89.6(2) . . ?
O2 Co1 O6 171.8(2) 7_565 . ?
O2 Co1 O6 97.3(2) . . ?
O5 Co1 O6 85.6(2) . . ?
O2 Co1 O10 90.9(2) 7_565 . ?
O2 Co1 O10 171.1(2) . . ?
O5 Co1 O10 94.5(2) . . ?
O6 Co1 O10 91.0(2) . . ?
O2 Co1 O9 92.3(2) 7_565 . ?
O2 Co1 O9 84.9(2) . . ?
O5 Co1 O9 163.5(2) . . ?
O6 Co1 O9 79.7(2) . . ?
O10 Co1 O9 93.2(2) . . ?
O7 Co2 O6 108.1(2) . . ?
O7 Co2 O1 88.7(2) . 7_566 ?
O6 Co2 O1 163.1(2) . 7_566 ?
O7 Co2 O1 87.4(2) . . ?
O6 Co2 O1 93.6(2) . . ?
O1 Co2 O1 85.4(2) 7_566 . ?
O7 Co2 O10 94.6(2) . 6_566 ?
O6 Co2 O10 89.2(2) . 6_566 ?
O1 Co2 O10 91.0(2) 7_566 6_566 ?
O1 Co2 O10 175.9(2) . 6_566 ?
O7 Co2 O9 170.0(2) . . ?
O6 Co2 O9 79.7(2) . . ?
O1 Co2 O9 83.4(2) 7_566 . ?
O1 Co2 O9 85.8(2) . . ?
O10 Co2 O9 91.8(2) 6_566 . ?
O3 Co3 O8 110.4(3) . . ?
O3 Co3 O5 118.8(2) . 6_566 ?
O8 Co3 O5 102.0(2) . 6_566 ?
O3 Co3 N1 106.5(3) . . ?
O8 Co3 N1 118.2(3) . . ?
O5 Co3 N1 101.3(3) 6_566 . ?
O3 P1 O4 109.8(3) . . ?
O3 P1 O1 109.3(3) . 6_566 ?
O4 P1 O1 110.4(3) . 6_566 ?
O3 P1 O2 107.6(3) . 6_566 ?
O4 P1 O2 109.7(3) . 6_566 ?
O1 P1 O2 109.9(3) 6_566 6_566 ?
O7 P2 O8 108.9(4) . . ?
O7 P2 O6 111.8(3) . 6_566 ?
O8 P2 O6 108.3(3) . 6_566 ?
O7 P2 O5 108.7(3) . 1_556 ?
O8 P2 O5 109.5(3) . 1_556 ?
O6 P2 O5 109.7(3) 6_566 1_556 ?
P1 O1 Co2 129.0(3) 6_565 7_566 ?
P1 O1 Co2 126.8(3) 6_565 . ?
Co2 O1 Co2 94.6(2) 7_566 . ?
P1 O2 Co1 135.7(3) 6_565 7_565 ?
P1 O2 Co1 123.3(3) 6_565 . ?
Co1 O2 Co1 99.5(2) 7_565 . ?
P1 O3 Co3 123.6(4) . . ?
P2 O5 Co3 130.2(3) 1_554 6_565 ?
P2 O5 Co1 127.6(3) 1_554 . ?
Co3 O5 Co1 102.1(2) 6_565 . ?
P2 O6 Co2 127.9(3) 6_565 . ?
P2 O6 Co1 129.5(3) 6_565 . ?
Co2 O6 Co1 101.8(2) . . ?
P2 O7 Co2 141.9(3) . . ?
P2 O8 Co3 109.0(3) . . ?
Co1 O9 Co2 94.0(2) . . ?
Co1 O10 Co2 115.4(3) . 6_565 ?
C1 N1 Co3 119.4(7) . . ?
N1 C1 C3 110.1(9) . . ?
N1 C1 C2 110.4(8) . . ?
C3 C1 C2 111.6(9) . . ?
C2 C2 C1 110.5(7) 2_656 . ?
C3 C3 C1 109.2(8) 2_656 . ?

_diffrn_measured_fraction_theta_max 0.992
_diffrn_reflns_theta_full        28.36
_diffrn_measured_fraction_theta_full 0.992
_refine_diff_density_max         1.161
_refine_diff_density_min         -1.141
_refine_diff_density_rms         0.233


