####################################################################### 
# 
# This file contains crystal structure data downloaded from the 
# Cambridge Structural Database (CSD) hosted by the Cambridge 
# Crystallographic Data Centre (CCDC).
# 
# Full information about CCDC data access policies and citation 
# guidelines are available at http://www.ccdc.cam.ac.uk/access/V1 
# 
# Audit and citation data items may have been added by the CCDC. 
# Please retain this information to preserve the provenance of 
# this file and to allow appropriate attribution of the data. 
# 
#######################################################################

data_c2c-sr
_audit_block_doi                 10.5517/cczw555
_database_code_depnum_ccdc_archive 'CCDC 919837'
loop_
_citation_id
_citation_doi
_citation_year
1 10.1002/asia.201300758 2013
_audit_update_record             
;
2013-01-15 deposited with the CCDC.	2024-07-12 downloaded from the CCDC.
;
_audit_creation_method           SHELXL-97
_chemical_name_systematic        
;
?
;
_chemical_name_common            Capsule
_chemical_melting_point          'not measured'
_chemical_formula_moiety         '2(C120 H156 N48 Ru6),1.14(C4 H8 O), 15(Cl)'
_chemical_formula_sum            'C244.58 H321.15 Cl15 N96 O1.14 Ru12'
_chemical_formula_weight         6368.95

loop_
_atom_type_symbol
_atom_type_description
_atom_type_scat_dispersion_real
_atom_type_scat_dispersion_imag
_atom_type_scat_source
C C 0.0033 0.0016 'International Tables Vol C Tables 4.2.6.8 and 6.1.1.4'
H H 0.0000 0.0000 'International Tables Vol C Tables 4.2.6.8 and 6.1.1.4'
N N 0.0061 0.0033 'International Tables Vol C Tables 4.2.6.8 and 6.1.1.4'
Cl Cl 0.1484 0.1585 'International Tables Vol C Tables 4.2.6.8 and 6.1.1.4'
Ru Ru -1.2594 0.8363 'International Tables Vol C Tables 4.2.6.8 and 6.1.1.4'
O O 0.0106 0.0060 'International Tables Vol C Tables 4.2.6.8 and 6.1.1.4'

_symmetry_cell_setting           Monoclinic
_symmetry_space_group_name_H-M   C2/c
_symmetry_space_group_name_Hall  -C2yc

loop_
_symmetry_equiv_pos_as_xyz
'x, y, z'
'-x, y, -z+1/2'
'x+1/2, y+1/2, z'
'-x+1/2, y+1/2, -z+1/2'
'-x, -y, -z'
'x, -y, z-1/2'
'-x+1/2, -y+1/2, -z'
'x+1/2, -y+1/2, z-1/2'

_cell_length_a                   47.189(9)
_cell_length_b                   27.418(5)
_cell_length_c                   40.663(8)
_cell_angle_alpha                90.00
_cell_angle_beta                 110.347(2)
_cell_angle_gamma                90.00
_cell_volume                     49328(16)
_cell_formula_units_Z            4
_cell_measurement_temperature    90(2)
_cell_measurement_reflns_used    9938
_cell_measurement_theta_min      2.23
_cell_measurement_theta_max      26.57

_exptl_crystal_description       capsule
_exptl_crystal_colour            red
_exptl_crystal_size_max          0.38
_exptl_crystal_size_mid          0.30
_exptl_crystal_size_min          0.13
_exptl_crystal_density_meas      'not measured'
_exptl_crystal_density_diffrn    0.858
_exptl_crystal_density_method    'not measured'
_exptl_crystal_F_000             13011.2
_exptl_absorpt_coefficient_mu    0.477
_exptl_absorpt_correction_type   empirical
_exptl_absorpt_correction_T_min  0.842
_exptl_absorpt_correction_T_max  0.940
_exptl_absorpt_process_details   SADABS

_exptl_special_details           
;
?
;

_diffrn_ambient_temperature      90(2)
_diffrn_radiation_wavelength     0.71073
_diffrn_radiation_type           MoK\a
_diffrn_radiation_source         'fine-focus sealed tube'
_diffrn_radiation_monochromator  graphite
_diffrn_measurement_device_type  'CCD area detector'
_diffrn_measurement_method       'phi and omega scans'
_diffrn_detector_area_resol_mean ?
_diffrn_standards_number         ?
_diffrn_standards_interval_count ?
_diffrn_standards_interval_time  ?
_diffrn_standards_decay_%        ?
_diffrn_reflns_number            260830
_diffrn_reflns_av_R_equivalents  0.0382
_diffrn_reflns_av_sigmaI/netI    0.0342
_diffrn_reflns_limit_h_min       -59
_diffrn_reflns_limit_h_max       59
_diffrn_reflns_limit_k_min       -34
_diffrn_reflns_limit_k_max       34
_diffrn_reflns_limit_l_min       -50
_diffrn_reflns_limit_l_max       51
_diffrn_reflns_theta_min         1.25
_diffrn_reflns_theta_max         26.66
_reflns_number_total             51992
_reflns_number_gt                37209
_reflns_threshold_expression     >2sigma(I)

_computing_data_collection       'Bruker SMART'
_computing_cell_refinement       'Bruker SMART'
_computing_data_reduction        'Bruker SAINT'
_computing_structure_solution    'SHELXS-97 (Sheldrick, 1990)'
_computing_structure_refinement  'SHELXL-97 (Sheldrick, 1997)'
_computing_molecular_graphics    'Bruker SHELXTL'
_computing_publication_material  'Bruker SHELXTL'

_refine_special_details          
;
Refinement of F^2^ against ALL reflections. The weighted R-factor wR and
goodness of fit S are based on F^2^, conventional R-factors R are based
on F, with F set to zero for negative F^2^. The threshold expression of
F^2^ > 2sigma(F^2^) is used only for calculating R-factors(gt) etc. and is
not relevant to the choice of reflections for refinement. R-factors based
on F^2^ are statistically about twice as large as those based on F, and R-
factors based on ALL data will be even larger.
;

_refine_ls_structure_factor_coef Fsqd
_refine_ls_matrix_type           full
_refine_ls_weighting_scheme      calc
_refine_ls_weighting_details     
'calc w=1/[\s^2^(Fo^2^)+(0.1200P)^2^+0.0000P] where P=(Fo^2^+2Fc^2^)/3'
_atom_sites_solution_primary     direct
_atom_sites_solution_secondary   difmap
_atom_sites_solution_hydrogens   geom
_refine_ls_hydrogen_treatment    constr
_refine_ls_extinction_method     none
_refine_ls_extinction_coef       ?
_refine_ls_number_reflns         51992
_refine_ls_number_parameters     1651
_refine_ls_number_restraints     1105
_refine_ls_R_factor_all          0.0744
_refine_ls_R_factor_gt           0.0565
_refine_ls_wR_factor_ref         0.1908
_refine_ls_wR_factor_gt          0.1791
_refine_ls_goodness_of_fit_ref   1.129
_refine_ls_restrained_S_all      1.126
_refine_ls_shift/su_max          0.002
_refine_ls_shift/su_mean         0.000

loop_
_atom_site_label
_atom_site_type_symbol
_atom_site_fract_x
_atom_site_fract_y
_atom_site_fract_z
_atom_site_U_iso_or_equiv
_atom_site_adp_type
_atom_site_occupancy
_atom_site_symmetry_multiplicity
_atom_site_calc_flag
_atom_site_refinement_flags
_atom_site_disorder_assembly
_atom_site_disorder_group
Ru1 Ru 0.210001(7) 0.513592(10) 0.301234(7) 0.03592(8) Uani 1 1 d . . .
Ru2 Ru 0.208989(7) 0.723883(11) 0.060496(7) 0.03745(8) Uani 1 1 d . . .
Ru3 Ru 0.418672(7) 0.712085(11) 0.297624(8) 0.03968(8) Uani 1 1 d . . .
Ru4 Ru 0.412210(6) 0.299804(10) 0.294596(7) 0.03479(8) Uani 1 1 d . . .
Ru5 Ru 0.413253(7) 0.503141(11) 0.057301(8) 0.03953(8) Uani 1 1 d . . .
Ru6 Ru 0.198390(7) 0.315046(11) 0.058278(8) 0.03911(8) Uani 1 1 d . . .
C1 C 0.44164(8) 0.61307(14) 0.28177(10) 0.0450(9) Uani 1 1 d . . .
H1A H 0.4582 0.6316 0.2804 0.054 Uiso 1 1 calc R . .
C2 C 0.44084(9) 0.56330(14) 0.27520(11) 0.0496(10) Uani 1 1 d . . .
H2A H 0.4567 0.5482 0.2695 0.060 Uiso 1 1 calc R . .
C3 C 0.41707(8) 0.53600(14) 0.27693(10) 0.0430(8) Uani 1 1 d . . .
H3A H 0.4163 0.5018 0.2728 0.052 Uiso 1 1 calc R . .
C4 C 0.39404(8) 0.55921(12) 0.28487(9) 0.0364(7) Uani 1 1 d . . .
C5 C 0.39632(7) 0.60899(12) 0.29104(9) 0.0354(7) Uani 1 1 d . . .
H5A H 0.3805 0.6248 0.2962 0.043 Uiso 1 1 calc R . .
C6 C 0.36718(8) 0.53242(12) 0.28569(9) 0.0347(7) Uani 1 1 d . . .
C7 C 0.34316(7) 0.46091(12) 0.28519(8) 0.0319(7) Uani 1 1 d . . .
C8 C 0.32005(7) 0.53260(12) 0.28743(8) 0.0332(7) Uani 1 1 d . . .
C9 C 0.24156(8) 0.60540(12) 0.28679(10) 0.0396(8) Uani 1 1 d . . .
H9A H 0.2236 0.6216 0.2863 0.047 Uiso 1 1 calc R . .
C10 C 0.26344(9) 0.63204(13) 0.28036(11) 0.0465(9) Uani 1 1 d . . .
H10A H 0.2605 0.6659 0.2755 0.056 Uiso 1 1 calc R . .
C11 C 0.29020(8) 0.60956(13) 0.28091(10) 0.0413(8) Uani 1 1 d . . .
H11A H 0.3059 0.6276 0.2770 0.050 Uiso 1 1 calc R . .
C12 C 0.29290(8) 0.55960(12) 0.28744(9) 0.0336(7) Uani 1 1 d . . .
C13 C 0.26931(7) 0.53516(12) 0.29344(8) 0.0313(7) Uani 1 1 d . . .
H13A H 0.2712 0.5010 0.2975 0.038 Uiso 1 1 calc R . .
C14 C 0.36908(7) 0.38136(11) 0.29022(8) 0.0317(7) Uani 1 1 d . . .
H14A H 0.3875 0.3991 0.2970 0.038 Uiso 1 1 calc R . .
C15 C 0.34226(7) 0.40740(12) 0.28301(9) 0.0335(7) Uani 1 1 d . . .
C16 C 0.31545(8) 0.38184(13) 0.27418(10) 0.0400(8) Uani 1 1 d . . .
H16A H 0.2968 0.3985 0.2696 0.048 Uiso 1 1 calc R . .
C17 C 0.31628(8) 0.33133(13) 0.27212(10) 0.0429(8) Uani 1 1 d . . .
H17A H 0.2981 0.3128 0.2659 0.051 Uiso 1 1 calc R . .
C18 C 0.34374(8) 0.30839(13) 0.27926(9) 0.0389(8) Uani 1 1 d . . .
H18A H 0.3441 0.2738 0.2779 0.047 Uiso 1 1 calc R . .
C19 C 0.43769(8) 0.38068(14) 0.26016(9) 0.0418(8) Uani 1 1 d . . .
H19A H 0.4546 0.3795 0.2813 0.050 Uiso 1 1 calc R . .
C20 C 0.43815(9) 0.41417(16) 0.23519(10) 0.0488(9) Uani 1 1 d . . .
H20A H 0.4552 0.4347 0.2389 0.059 Uiso 1 1 calc R . .
C21 C 0.41331(8) 0.41751(14) 0.20452(10) 0.0439(9) Uani 1 1 d . . .
H21A H 0.4129 0.4408 0.1870 0.053 Uiso 1 1 calc R . .
C22 C 0.38930(8) 0.38648(13) 0.19988(9) 0.0371(7) Uani 1 1 d . . .
C23 C 0.39080(8) 0.35326(12) 0.22630(9) 0.0342(7) Uani 1 1 d . . .
H23A H 0.3741 0.3320 0.2230 0.041 Uiso 1 1 calc R . .
C24 C 0.36197(8) 0.38731(12) 0.16820(9) 0.0353(7) Uani 1 1 d . . .
C25 C 0.33847(7) 0.41325(12) 0.11295(9) 0.0333(7) Uani 1 1 d . . .
C26 C 0.31260(8) 0.36905(12) 0.13997(8) 0.0338(7) Uani 1 1 d . . .
C27 C 0.26046(8) 0.33956(12) 0.10894(9) 0.0337(7) Uani 1 1 d . . .
H27A H 0.2626 0.3510 0.0879 0.040 Uiso 1 1 calc R . .
C28 C 0.28460(8) 0.34519(12) 0.14003(9) 0.0348(7) Uani 1 1 d . . .
C29 C 0.28224(8) 0.32816(13) 0.17108(9) 0.0404(8) Uani 1 1 d . . .
H29A H 0.2985 0.3308 0.1928 0.048 Uiso 1 1 calc R . .
C30 C 0.25457(9) 0.30678(15) 0.16877(10) 0.0468(9) Uani 1 1 d . . .
H30A H 0.2516 0.2951 0.1893 0.056 Uiso 1 1 calc R . .
C31 C 0.23237(9) 0.30284(14) 0.13765(10) 0.0431(9) Uani 1 1 d . . .
H31A H 0.2141 0.2878 0.1371 0.052 Uiso 1 1 calc R . .
C32 C 0.34455(9) 0.48842(14) 0.02549(10) 0.0444(9) Uani 1 1 d . . .
H32A H 0.3462 0.5045 0.0055 0.053 Uiso 1 1 calc R . .
C33 C 0.31601(9) 0.47654(15) 0.02569(10) 0.0505(10) Uani 1 1 d . . .
H33A H 0.2986 0.4859 0.0066 0.061 Uiso 1 1 calc R . .
C34 C 0.31300(8) 0.45127(13) 0.05343(10) 0.0426(8) Uani 1 1 d . . .
H34A H 0.2936 0.4419 0.0535 0.051 Uiso 1 1 calc R . .
C35 C 0.33907(8) 0.43970(12) 0.08139(9) 0.0349(7) Uani 1 1 d . . .
C36 C 0.36675(8) 0.45329(12) 0.07977(9) 0.0339(7) Uani 1 1 d . . .
H36A H 0.3845 0.4448 0.0988 0.041 Uiso 1 1 calc R . .
C37 C 0.43719(8) 0.52032(13) 0.13668(10) 0.0431(8) Uani 1 1 d . . .
H37A H 0.4537 0.5012 0.1358 0.052 Uiso 1 1 calc R . .
C38 C 0.43735(9) 0.53498(15) 0.16881(11) 0.0506(10) Uani 1 1 d . . .
H38A H 0.4535 0.5261 0.1895 0.061 Uiso 1 1 calc R . .
C39 C 0.41334(8) 0.56324(14) 0.17060(10) 0.0454(9) Uani 1 1 d . . .
H39A H 0.4129 0.5742 0.1926 0.054 Uiso 1 1 calc R . .
C40 C 0.39029(7) 0.57499(12) 0.14003(9) 0.0353(7) Uani 1 1 d . . .
C41 C 0.39198(7) 0.55846(12) 0.10788(9) 0.0345(7) Uani 1 1 d . . .
H41A H 0.3762 0.5668 0.0867 0.041 Uiso 1 1 calc R . .
C42 C 0.36455(8) 0.60444(12) 0.14022(9) 0.0345(7) Uani 1 1 d . . .
C43 C 0.31692(8) 0.63219(13) 0.11368(9) 0.0364(7) Uani 1 1 d . . .
C44 C 0.34339(7) 0.65588(12) 0.16879(9) 0.0348(7) Uani 1 1 d . . .
C45 C 0.35038(9) 0.72834(14) 0.26201(10) 0.0471(9) Uani 1 1 d . . .
H45A H 0.3520 0.7448 0.2831 0.057 Uiso 1 1 calc R . .
C46 C 0.32228(10) 0.72432(17) 0.23679(11) 0.0586(11) Uani 1 1 d . . .
H46A H 0.3051 0.7372 0.2408 0.070 Uiso 1 1 calc R . .
C47 C 0.31922(9) 0.70139(16) 0.20555(10) 0.0504(10) Uani 1 1 d . . .
H47A H 0.3000 0.6986 0.1875 0.060 Uiso 1 1 calc R . .
C48 C 0.34508(8) 0.68245(13) 0.20122(9) 0.0386(8) Uani 1 1 d . . .
C49 C 0.37233(8) 0.68754(12) 0.22802(9) 0.0361(7) Uani 1 1 d . . .
H49A H 0.3898 0.6743 0.2249 0.043 Uiso 1 1 calc R . .
C50 C 0.26681(8) 0.66937(13) 0.08123(9) 0.0375(4) Uani 1 1 d U . .
H50A H 0.2711 0.6921 0.1000 0.045 Uiso 1 1 calc R . .
C51 C 0.28867(8) 0.63401(12) 0.08283(9) 0.0357(7) Uani 1 1 d U . .
C52 C 0.28271(8) 0.60070(13) 0.05491(9) 0.0394(8) Uani 1 1 d U . .
H52A H 0.2971 0.5765 0.0547 0.047 Uiso 1 1 calc R . .
C53 C 0.25525(8) 0.60441(14) 0.02768(9) 0.0403(8) Uani 1 1 d U . .
H53A H 0.2504 0.5823 0.0085 0.048 Uiso 1 1 calc R . .
C54 C 0.23504(8) 0.63997(13) 0.02837(9) 0.0375(4) Uani 1 1 d U . .
H54A H 0.2164 0.6418 0.0094 0.045 Uiso 1 1 calc R . .
C55 C 0.22621(9) 0.71714(13) 0.14064(10) 0.0415(8) Uani 1 1 d . . .
H55A H 0.2289 0.7514 0.1398 0.050 Uiso 1 1 calc R . .
C56 C 0.23213(10) 0.69598(13) 0.17279(10) 0.0467(9) Uani 1 1 d . . .
H56A H 0.2381 0.7154 0.1934 0.056 Uiso 1 1 calc R . .
C57 C 0.22923(9) 0.64570(13) 0.17489(9) 0.0397(8) Uani 1 1 d . . .
H57A H 0.2332 0.6300 0.1969 0.048 Uiso 1 1 calc R . .
C58 C 0.22033(8) 0.61902(12) 0.14380(9) 0.0337(7) Uani 1 1 d . . .
C59 C 0.21445(8) 0.64357(12) 0.11247(9) 0.0350(7) Uani 1 1 d . . .
H59A H 0.2084 0.6251 0.0914 0.042 Uiso 1 1 calc R . .
C60 C 0.21824(8) 0.56546(12) 0.14368(9) 0.0342(7) Uani 1 1 d . . .
C61 C 0.21513(8) 0.49455(12) 0.11534(9) 0.0359(7) Uani 1 1 d . . .
C62 C 0.21759(8) 0.49466(12) 0.17170(9) 0.0358(7) Uani 1 1 d . . .
C63 C 0.20681(8) 0.41800(12) 0.08122(8) 0.0355(7) Uani 1 1 d . . .
H63A H 0.2029 0.4033 0.1004 0.043 Uiso 1 1 calc R . .
C64 C 0.21357(8) 0.46708(13) 0.08325(9) 0.0378(8) Uani 1 1 d . . .
C65 C 0.21936(12) 0.48878(15) 0.05532(11) 0.0575(11) Uani 1 1 d . . .
H65A H 0.2243 0.5225 0.0560 0.069 Uiso 1 1 calc R . .
C66 C 0.21791(13) 0.46096(16) 0.02681(12) 0.0695(14) Uani 1 1 d . . .
H66A H 0.2214 0.4750 0.0072 0.083 Uiso 1 1 calc R . .
C67 C 0.21116(10) 0.41124(15) 0.02739(10) 0.0523(10) Uani 1 1 d . . .
H67A H 0.2107 0.3918 0.0079 0.063 Uiso 1 1 calc R . .
C68 C 0.21348(8) 0.49195(12) 0.23058(9) 0.0354(7) Uani 1 1 d . . .
H68A H 0.2097 0.5260 0.2281 0.042 Uiso 1 1 calc R . .
C69 C 0.21822(8) 0.46733(12) 0.20336(8) 0.0344(7) Uani 1 1 d . . .
C70 C 0.22305(9) 0.41745(13) 0.20604(9) 0.0453(9) Uani 1 1 d . . .
H70A H 0.2261 0.3996 0.1875 0.054 Uiso 1 1 calc R . .
C71 C 0.22334(11) 0.39417(13) 0.23659(10) 0.0541(11) Uani 1 1 d . . .
H71A H 0.2266 0.3600 0.2393 0.065 Uiso 1 1 calc R . .
C72 C 0.21888(9) 0.42135(13) 0.26258(10) 0.0451(9) Uani 1 1 d . . .
H72A H 0.2193 0.4051 0.2834 0.054 Uiso 1 1 calc R . .
C1A C 0.16525(9) 0.59343(16) 0.29147(11) 0.0523(10) Uani 1 1 d DU . .
H1AA H 0.1736 0.6236 0.2849 0.063 Uiso 1 1 calc R . .
H1AB H 0.1433 0.5983 0.2859 0.063 Uiso 1 1 calc R . .
C2A C 0.17985(11) 0.58528(17) 0.32984(12) 0.0633(11) Uani 1 1 d DU . .
H2AA H 0.1714 0.5964 0.3466 0.076 Uiso 1 1 calc R . .
C3A C 0.22307(11) 0.54430(17) 0.37407(11) 0.0594(11) Uani 1 1 d U . .
H3AA H 0.2095 0.5252 0.3831 0.071 Uiso 1 1 calc R . .
H3AB H 0.2303 0.5730 0.3895 0.071 Uiso 1 1 calc R . .
C4A C 0.24929(10) 0.51375(16) 0.37460(10) 0.0532(10) Uani 1 1 d U . .
H4AA H 0.2579 0.4972 0.3976 0.064 Uiso 1 1 calc R . .
H4AB H 0.2652 0.5347 0.3714 0.064 Uiso 1 1 calc R . .
C5A C 0.22241(11) 0.43380(16) 0.35434(11) 0.0569(10) Uani 1 1 d U . .
H5AA H 0.2277 0.4033 0.3448 0.068 Uiso 1 1 calc R . .
H5AB H 0.2288 0.4303 0.3801 0.068 Uiso 1 1 calc R . .
C6A C 0.18870(12) 0.44124(18) 0.33935(14) 0.0695(12) Uani 1 1 d U . .
H6AA H 0.1788 0.4089 0.3343 0.083 Uiso 1 1 calc R . .
H6AB H 0.1821 0.4572 0.3573 0.083 Uiso 1 1 calc R . .
C7A C 0.14866(11) 0.48190(18) 0.29198(14) 0.0646(12) Uani 1 1 d DU . .
H7AA H 0.1410 0.4993 0.3085 0.077 Uiso 1 1 calc R . .
H7AB H 0.1364 0.4520 0.2840 0.077 Uiso 1 1 calc R . .
C8A C 0.14550(10) 0.51396(17) 0.26111(12) 0.0561(10) Uani 1 1 d U . .
H8AA H 0.1461 0.4937 0.2412 0.067 Uiso 1 1 calc R . .
H8AB H 0.1257 0.5307 0.2538 0.067 Uiso 1 1 calc R . .
C1B C 0.22306(10) 0.82601(14) 0.08561(11) 0.0494(9) Uani 1 1 d U . .
H1BA H 0.2283 0.8247 0.1114 0.059 Uiso 1 1 calc R . .
H1BB H 0.2302 0.8576 0.0797 0.059 Uiso 1 1 calc R . .
C2B C 0.18942(10) 0.82329(14) 0.06841(11) 0.0542(10) Uani 1 1 d U . .
H2BA H 0.1797 0.8450 0.0808 0.065 Uiso 1 1 calc R . .
H2BB H 0.1835 0.8345 0.0438 0.065 Uiso 1 1 calc R . .
C3B C 0.14818(9) 0.76092(17) 0.04841(13) 0.0601(11) Uani 1 1 d U . .
H3BA H 0.1429 0.7754 0.0247 0.072 Uiso 1 1 calc R . .
H3BB H 0.1343 0.7744 0.0596 0.072 Uiso 1 1 calc R . .
C4B C 0.14475(10) 0.70689(18) 0.04548(13) 0.0598(11) Uani 1 1 d U . .
H4BA H 0.1243 0.6987 0.0290 0.072 Uiso 1 1 calc R . .
H4BB H 0.1469 0.6930 0.0687 0.072 Uiso 1 1 calc R . .
C5B C 0.16162(11) 0.69287(18) -0.00578(11) 0.0627(12) Uani 1 1 d U . .
H5BA H 0.1664 0.6627 -0.0162 0.075 Uiso 1 1 calc R . .
H5BB H 0.1398 0.6994 -0.0173 0.075 Uiso 1 1 calc R . .
C6B C 0.17892(13) 0.73385(19) -0.01310(12) 0.0703(13) Uani 1 1 d U . .
H6BA H 0.1737 0.7470 -0.0360 0.084 Uiso 1 1 calc R . .
C7B C 0.21962(11) 0.79136(16) 0.00966(12) 0.0601(11) Uani 1 1 d U . .
H7BA H 0.2074 0.8216 0.0049 0.072 Uiso 1 1 calc R . .
H7BB H 0.2266 0.7857 -0.0104 0.072 Uiso 1 1 calc R . .
C8B C 0.24656(11) 0.79777(16) 0.04254(12) 0.0597(11) Uani 1 1 d U . .
H8BA H 0.2632 0.7766 0.0415 0.072 Uiso 1 1 calc R . .
H8BB H 0.2536 0.8320 0.0442 0.072 Uiso 1 1 calc R . .
C1C C 0.47500(10) 0.73332(17) 0.28378(13) 0.0621(11) Uani 1 1 d DU . .
H1CA H 0.4853 0.7611 0.2772 0.075 Uiso 1 1 calc R . .
H1CB H 0.4826 0.7029 0.2766 0.075 Uiso 1 1 calc R . .
C2C C 0.48300(11) 0.7330(2) 0.32242(13) 0.0677(8) Uani 1 1 d DU . .
H2CA H 0.5024 0.7154 0.3330 0.081 Uiso 1 1 calc R . .
H2CB H 0.4862 0.7670 0.3311 0.081 Uiso 1 1 calc R . .
C3C C 0.46202(11) 0.7109(2) 0.36932(13) 0.0708(12) Uani 1 1 d U . .
H3CA H 0.4638 0.7448 0.3783 0.085 Uiso 1 1 calc R . .
H3CB H 0.4799 0.6923 0.3841 0.085 Uiso 1 1 calc R . .
C4C C 0.43401(11) 0.68824(17) 0.37113(12) 0.0623(11) Uani 1 1 d U . .
H4CA H 0.4348 0.6525 0.3679 0.075 Uiso 1 1 calc R . .
H4