
#######################################################################
#
#                 Cambridge Crystallographic Data Centre
#                                CCDC
#
#######################################################################
#
# If this CIF has been generated from an entry in the Cambridge
# Structural Database, then it will include bibliographic, chemical,
# crystal, experimental, refinement or atomic coordinate data resulting
# from the CCDC's data processing and validation procedures.
#
#######################################################################

data_CSD_CIF_RIGDES
_audit_creation_date 2013-07-17
_audit_creation_method CSD-ConQuest-V1
_database_code_CSD RIGDES
_database_code_depnum_ccdc_archive 'CCDC 915144'
_chemical_formula_sum 'C13 H19 N5 O7'
_chemical_formula_moiety
;
C8 H11 N5 O3,C5 H8 O4
;
_journal_coden_Cambridge 1350
_journal_volume 15
_journal_year 2013
_journal_page_first 6457
_journal_name_full 'CrystEngComm '
loop_
_publ_author_name
"Yan Yan"
"Jia-Mei Chen"
"Tong-Bu Lu"
_chemical_name_systematic
;
2-Amino-9-((2-hydroxyethoxy)methyl)-1,9-dihydro-6H-purin-6-one pentanedioic 
acid
;
_chemical_name_common
;
Acyclovir glutaric acid; PDB Chemical Component code: AC2; Teaching Subset: 
Drug Molecules, 'Bound' Drugs
;
_cell_volume    784.393
_exptl_crystal_colour 'colorless'
_exptl_crystal_density_diffrn 1.513
_exptl_special_details
;
Acyclovir is an antiviral drug

;
_exptl_crystal_description 'sheet'
_diffrn_ambient_temperature 150
#These two values have been output from a single CSD field.
_refine_ls_R_factor_gt 0.0366
_refine_ls_wR_factor_gt 0.0366
_symmetry_cell_setting triclinic
_symmetry_space_group_name_H-M 'P -1'
_symmetry_Int_Tables_number 2
loop_
_symmetry_equiv_pos_site_id
_symmetry_equiv_pos_as_xyz
1 x,y,z
2 -x,-y,-z
_cell_length_a 8.1849(10)
_cell_length_b 8.8476(9)
_cell_length_c 11.6567(12)
_cell_angle_alpha 70.210(9)
_cell_angle_beta 86.985(9)
_cell_angle_gamma 80.948(9)
_cell_formula_units_Z 2
loop_
_atom_type_symbol
_atom_type_radius_bond
C 0.68
H 0.23
N 0.68
O 0.68
loop_
_atom_site_label
_atom_site_type_symbol
_atom_site_fract_x
_atom_site_fract_y
_atom_site_fract_z
O1 O 0.22387(15) 0.84145(15) 0.84944(11)
O2 O 0.05616(15) 0.70797(15) 0.45269(11)
O3 O 0.47574(15) 0.71931(16) 0.91984(11)
O4 O 0.25613(18) 0.54245(19) 0.40034(14)
C1 C 0.3508(2) 0.7521(2) 0.84398(15)
C2 C 0.3130(2) 0.6170(2) 0.56581(16)
C3 C 0.2510(2) 0.7010(2) 0.65676(15)
C4 C 0.1936(2) 0.6284(2) 0.46841(15)
C5 C 0.3847(2) 0.6655(2) 0.75230(16)
H1 H 0.148(3) 0.660(3) 0.695(2)
H2 H 0.412(3) 0.656(3) 0.525(2)
H3 H 0.486(3) 0.691(2) 0.7135(19)
H4 H 0.351(3) 0.500(3) 0.607(2)
H5 H 0.227(3) 0.822(3) 0.613(2)
H6 H 0.402(3) 0.549(3) 0.800(2)
H7 H 0.453(3) 0.769(3) 0.978(2)
H8 H 0.185(4) 0.552(4) 0.336(3)
O5 O 0.17378(14) 1.22188(14) 1.2547(1)
O6 O 0.78692(16) 0.71979(16) 1.14770(11)
N1 N 0.74302(18) 0.79878(17) 1.31607(12)
N2 N 0.49153(17) 0.94121(16) 1.36345(12)
C6 C 0.5214(2) 0.8501(2) 1.18497(14)
N3 N 0.41748(18) 0.85544(18) 1.09258(13)
O7 O 0.08353(17) 1.55827(17) 1.22058(12)
C7 C 0.4370(2) 0.92469(19) 1.26133(15)
N4 N 0.7176(2) 0.87069(19) 1.49020(13)
N5 N 0.27915(17) 0.97837(17) 1.21516(13)
C8 C 0.6475(2) 0.87146(19) 1.38938(14)
C9 C 0.1751(2) 1.4991(2) 1.13311(17)
C10 C 0.1343(2) 1.3383(2) 1.13577(15)
C11 C 0.6903(2) 0.7847(2) 1.20884(15)
C12 C 0.1436(2) 1.0653(2) 1.26664(17)
C13 C 0.2756(2) 0.9326(2) 1.11402(16)
H9 H 0.138(2) 1.005(2) 1.3576(18)
H10 H 0.040(3) 1.066(2) 1.2246(17)
H11 H 0.202(3) 1.307(2) 1.0695(19)
H12 H 0.010(3) 1.347(2) 1.1190(19)
H13 H 0.174(3) 0.956(2) 1.0638(19)
H14 H 0.293(3) 1.486(2) 1.1523(19)
H15 H 0.813(3) 0.813(3) 1.514(2)
H16 H 0.154(3) 1.582(3) 1.047(2)
H17 H 0.852(3) 0.762(2) 1.3374(19)
H18 H 0.654(3) 0.914(3) 1.538(2)
H19 H -0.013(4) 1.616(3) 1.195(3)
#END
