####################################################################### 
# 
# This file contains crystal structure data downloaded from the 
# Cambridge Structural Database (CSD) hosted by the Cambridge 
# Crystallographic Data Centre (CCDC).
# 
# Full information about CCDC data access policies and citation 
# guidelines are available at http://www.ccdc.cam.ac.uk/access/V1 
# 
# Audit and citation data items may have been added by the CCDC. 
# Please retain this information to preserve the provenance of 
# this file and to allow appropriate attribution of the data. 
# 
#######################################################################

data_1b
_audit_block_doi                 10.5517/ccnzg46
_database_code_depnum_ccdc_archive 'CCDC 625088'
loop_
_citation_id
_citation_doi
_citation_year
1 10.1002/ejic.200600867 2007
_audit_update_record             
;
2006-10-23 deposited with the CCDC.	2024-07-12 downloaded from the CCDC.
;

_audit_creation_method           SHELXL-97
_chemical_name_systematic        
;
1,3,5-thiopyridine mesitylene+mercuric chloride+DMF complex
;
_chemical_name_common            'thiopyridine mesitylene+mercury complex'
_chemical_melting_point          ?
_chemical_formula_moiety         'C27 H27 N3 S3,2(C3 H6 N1 O1),HgCl2'
_chemical_formula_sum            'C33 H39 Cl2 Hg N5 O2 S3'
_chemical_formula_weight         905.36

loop_
_atom_type_symbol
_atom_type_description
_atom_type_scat_dispersion_real
_atom_type_scat_dispersion_imag
_atom_type_scat_source
C C 0.0033 0.0016 'International Tables Vol C Tables 4.2.6.8 and 6.1.1.4'
H H 0.0000 0.0000 'International Tables Vol C Tables 4.2.6.8 and 6.1.1.4'
N N 0.0061 0.0033 'International Tables Vol C Tables 4.2.6.8 and 6.1.1.4'
O O 0.0106 0.0060 'International Tables Vol C Tables 4.2.6.8 and 6.1.1.4'
S S 0.1246 0.1234 'International Tables Vol C Tables 4.2.6.8 and 6.1.1.4'
Cl Cl 0.1484 0.1585 'International Tables Vol C Tables 4.2.6.8 and 6.1.1.4'
Hg Hg -2.3894 9.2266 'International Tables Vol C Tables 4.2.6.8 and 6.1.1.4'

_symmetry_cell_setting           triclinic
_symmetry_space_group_name_H-M   P-1

loop_
_symmetry_equiv_pos_as_xyz
'x, y, z'
'-x, -y, -z'

_cell_length_a                   8.979(3)
_cell_length_b                   13.611(5)
_cell_length_c                   16.355(5)
_cell_angle_alpha                111.57(1)
_cell_angle_beta                 92.37(1)
_cell_angle_gamma                101.07(1)
_cell_volume                     1810.5(11)
_cell_formula_units_Z            2
_cell_measurement_temperature    133(2)
_cell_measurement_reflns_used    ?
_cell_measurement_theta_min      ?
_cell_measurement_theta_max      ?

_exptl_crystal_description       blocks
_exptl_crystal_colour            colorless
_exptl_crystal_size_max          0.35
_exptl_crystal_size_mid          0.25
_exptl_crystal_size_min          0.20
_exptl_crystal_density_meas      ?
_exptl_crystal_density_diffrn    1.661
_exptl_crystal_density_method    'not measured'
_exptl_crystal_F_000             900
_exptl_absorpt_coefficient_mu    4.609
_exptl_absorpt_correction_type   ?
_exptl_absorpt_correction_T_min  ?
_exptl_absorpt_correction_T_max  ?
_exptl_absorpt_process_details   ?

_exptl_special_details           
;
low temperature
;

_diffrn_ambient_temperature      133(2)
_diffrn_radiation_wavelength     0.71073
_diffrn_radiation_type           MoK\a
_diffrn_radiation_source         'fine-focus sealed tube'
_diffrn_radiation_monochromator  graphite
_diffrn_measurement_device_type  'Bruker,CCD Area detector'
_diffrn_measurement_method       ?
_diffrn_detector_area_resol_mean ?
_diffrn_standards_number         ?
_diffrn_standards_interval_count ?
_diffrn_standards_interval_time  ?
_diffrn_standards_decay_%        ?
_diffrn_reflns_number            18822
_diffrn_reflns_av_R_equivalents  0.0468
_diffrn_reflns_av_sigmaI/netI    0.0454
_diffrn_reflns_limit_h_min       -11
_diffrn_reflns_limit_h_max       11
_diffrn_reflns_limit_k_min       -16
_diffrn_reflns_limit_k_max       16
_diffrn_reflns_limit_l_min       -20
_diffrn_reflns_limit_l_max       20
_diffrn_reflns_theta_min         1.35
_diffrn_reflns_theta_max         26.06
_reflns_number_total             7103
_reflns_number_gt                6481
_reflns_threshold_expression     >2sigma(I)

_computing_data_collection       SMART
_computing_cell_refinement       SMART
_computing_data_reduction        SAINTPLUS
_computing_structure_solution    WINGX,SIR-92
_computing_structure_refinement  'SHELXTL (Sheldrick, 1997)'
_computing_molecular_graphics    ?
_computing_publication_material  ?

_refine_special_details          
;
Refinement of F^2^ against ALL reflections. The weighted R-factor wR and
goodness of fit S are based on F^2^, conventional R-factors R are based
on F, with F set to zero for negative F^2^. The threshold expression of
F^2^ > 2sigma(F^2^) is used only for calculating R-factors(gt) etc. and is
not relevant to the choice of reflections for refinement. R-factors based
on F^2^ are statistically about twice as large as those based on F, and R-
factors based on ALL data will be even larger.
;

_refine_ls_structure_factor_coef Fsqd
_refine_ls_matrix_type           full
_refine_ls_weighting_scheme      calc
_refine_ls_weighting_details     
'calc w=1/[\s^2^(Fo^2^)+(0.1000P)^2^+0.0000P] where P=(Fo^2^+2Fc^2^)/3'
_atom_sites_solution_primary     direct
_atom_sites_solution_secondary   difmap
_atom_sites_solution_hydrogens   geom
_refine_ls_hydrogen_treatment    mixed
_refine_ls_extinction_method     none
_refine_ls_extinction_coef       ?
_refine_ls_number_reflns         7103
_refine_ls_number_parameters     425
_refine_ls_number_restraints     0
_refine_ls_R_factor_all          0.0385
_refine_ls_R_factor_gt           0.0354
_refine_ls_wR_factor_ref         0.0951
_refine_ls_wR_factor_gt          0.0928
_refine_ls_goodness_of_fit_ref   0.747
_refine_ls_restrained_S_all      0.747
_refine_ls_shift/su_max          0.004
_refine_ls_shift/su_mean         0.000

loop_
_atom_site_label
_atom_site_type_symbol
_atom_site_fract_x
_atom_site_fract_y
_atom_site_fract_z
_atom_site_U_iso_or_equiv
_atom_site_adp_type
_atom_site_occupancy
_atom_site_symmetry_multiplicity
_atom_site_calc_flag
_atom_site_refinement_flags
_atom_site_disorder_assembly
_atom_site_disorder_group
Hg Hg 1.082490(16) 0.484487(11) 0.118425(10) 0.02018(8) Uani 1 1 d . . .
Cl2 Cl 0.89857(12) 0.58163(8) 0.08700(7) 0.0253(2) Uani 1 1 d . . .
Cl1 Cl 1.25467(12) 0.36604(9) 0.11609(8) 0.0293(2) Uani 1 1 d . . .
S3 S 0.51455(13) 0.89857(10) 0.83024(9) 0.0308(3) Uani 1 1 d . . .
S2 S 1.31592(12) 1.11455(9) 0.89990(8) 0.0264(2) Uani 1 1 d . . .
S1 S 1.0764(2) 0.73947(14) 0.57701(9) 0.0543(4) Uani 1 1 d . . .
C12 C 0.9426(5) 0.8937(4) 0.6849(3) 0.0289(10) Uani 1 1 d . . .
C8 C 1.0791(6) 0.6816(4) 0.4626(3) 0.0395(12) Uani 1 1 d . . .
C19 C 0.7280(7) 0.7394(4) 0.6753(4) 0.0435(13) Uani 1 1 d . . .
H19A H 0.7556 0.7110 0.6164 0.065 Uiso 1 1 calc R . .
H19B H 0.6234 0.7456 0.6724 0.065 Uiso 1 1 calc R . .
H19C H 0.7401 0.6913 0.7046 0.065 Uiso 1 1 calc R . .
N3 N 0.1302(4) 0.6608(3) 0.8738(3) 0.0243(8) Uani 1 1 d . . .
C13 C 0.8296(5) 0.8490(4) 0.7261(3) 0.0275(10) Uani 1 1 d . . .
N1 N 1.2955(4) 0.6263(3) 0.1144(2) 0.0232(8) Uani 1 1 d . . .
N2 N 1.0946(5) 0.5813(3) 0.2818(3) 0.0310(9) Uani 1 1 d . . .
C26 C 0.2749(5) 0.6665(4) 0.9006(3) 0.0260(9) Uani 1 1 d . . .
H26A H 0.2944 0.6194 0.9268 0.031 Uiso 1 1 calc R . .
C15 C 0.9095(4) 1.0100(3) 0.8620(3) 0.0198(8) Uani 1 1 d . . .
C14 C 0.8127(5) 0.9085(3) 0.8144(3) 0.0210(9) Uani 1 1 d . . .
C25 C 0.1043(5) 0.7301(4) 0.8368(3) 0.0254(9) Uani 1 1 d . . .
H25A H 0.0037 0.7279 0.8188 0.030 Uiso 1 1 calc R . .
C16 C 1.0272(5) 1.0496(3) 0.8205(3) 0.0216(9) Uani 1 1 d . . .
C20 C 0.8919(5) 1.0764(4) 0.9565(3) 0.0291(10) Uani 1 1 d . . .
H20A H 0.8072 1.0384 0.9751 0.044 Uiso 1 1 calc R . .
H20B H 0.8736 1.1450 0.9604 0.044 Uiso 1 1 calc R . .
H20C H 0.9837 1.0878 0.9942 0.044 Uiso 1 1 calc R . .
C3 C 1.5381(5) 0.7822(3) 0.1038(3) 0.0228(9) Uani 1 1 d . . .
C21 C 1.1434(5) 1.1536(4) 0.8730(3) 0.0276(10) Uani 1 1 d . . .
H21A H 1.1052 1.1949 0.9267 0.033 Uiso 1 1 calc R . .
H21B H 1.1644 1.1978 0.8381 0.033 Uiso 1 1 calc R . .
C24 C 0.2188(5) 0.8038(4) 0.8242(3) 0.0259(9) Uani 1 1 d . . .
H24A H 0.1959 0.8499 0.7978 0.031 Uiso 1 1 calc R . .
C7 C 1.0078(6) 0.7112(4) 0.4014(3) 0.0393(12) Uani 1 1 d . . .
H7A H 0.9528 0.7653 0.4200 0.047 Uiso 1 1 calc R . .
C11 C 0.9518(6) 0.8337(4) 0.5876(3) 0.0372(12) Uani 1 1 d . . .
H11A H 0.9925 0.8848 0.5611 0.045 Uiso 1 1 calc R . .
H11B H 0.8506 0.7944 0.5571 0.045 Uiso 1 1 calc R . .
C23 C 0.3705(5) 0.8085(3) 0.8518(3) 0.0222(9) Uani 1 1 d . . .
C22 C 0.6889(5) 0.8610(4) 0.8565(3) 0.0255(9) Uani 1 1 d . . .
H22A H 0.7161 0.8890 0.9202 0.031 Uiso 1 1 calc R . .
H22B H 0.6741 0.7827 0.8336 0.031 Uiso 1 1 calc R . .
C17 C 1.0419(5) 0.9931(4) 0.7327(3) 0.0270(10) Uani 1 1 d . . .
C4 C 1.3963(5) 0.8054(4) 0.1231(3) 0.0289(10) Uani 1 1 d . . .
H4A H 1.3804 0.8743 0.1335 0.035 Uiso 1 1 calc R . .
C2 C 1.5540(5) 0.6785(4) 0.0886(3) 0.0258(9) Uani 1 1 d . . .
H2A H 1.6461 0.6589 0.0743 0.031 Uiso 1 1 calc R . .
C5 C 1.2810(5) 0.7263(4) 0.1267(3) 0.0287(10) Uani 1 1 d . . .
H5A H 1.1864 0.7431 0.1383 0.034 Uiso 1 1 calc R . .
C6 C 1.0190(6) 0.6602(4) 0.3134(3) 0.0366(11) Uani 1 1 d . . .
H6A H 0.9713 0.6816 0.2732 0.044 Uiso 1 1 calc R . .
C18 C 1.1656(6) 1.0385(5) 0.6874(4) 0.0431(13) Uani 1 1 d . . .
H18A H 1.2249 1.1067 0.7288 0.065 Uiso 1 1 calc R . .
H18B H 1.1191 1.0489 0.6381 0.065 Uiso 1 1 calc R . .
H18C H 1.2311 0.9887 0.6666 0.065 Uiso 1 1 calc R . .
C1 C 1.4320(5) 0.6044(4) 0.0948(3) 0.0264(10) Uani 1 1 d . . .
H1A H 1.4449 0.5349 0.0848 0.032 Uiso 1 1 calc R . .
C27 C 0.3961(5) 0.7380(4) 0.8915(3) 0.0251(9) Uani 1 1 d . . .
H27A H 0.4950 0.7395 0.9119 0.030 Uiso 1 1 calc R . .
C9 C 1.1578(10) 0.6007(7) 0.4297(4) 0.068(2) Uani 1 1 d . . .
H9A H 1.2063 0.5773 0.4682 0.081 Uiso 1 1 calc R . .
C10 C 1.1650(8) 0.5548(5) 0.3409(4) 0.0556(17) Uani 1 1 d . . .
H10A H 1.2222 0.5022 0.3208 0.067 Uiso 1 1 calc R . .
N31 N 0.6231(7) 0.5389(5) 0.3521(4) 0.0638(16) Uani 1 1 d . . .
N41 N 0.6372(9) 0.9716(7) 0.5784(5) 0.079(2) Uani 1 1 d . . .
C33 C 0.6023(10) 0.5657(8) 0.2779(6) 0.091(3) Uani 1 1 d . . .
H33A H 0.5595 0.6287 0.2941 0.136 Uiso 1 1 calc R . .
H33B H 0.5341 0.5061 0.2319 0.136 Uiso 1 1 calc R . .
H33C H 0.6991 0.5805 0.2570 0.136 Uiso 1 1 calc R . .
C32 C 0.6838(15) 0.4456(8) 0.3415(7) 0.108(4) Uani 1 1 d . . .
H32A H 0.6906 0.4364 0.3969 0.161 Uiso 1 1 calc R . .
H32B H 0.7838 0.4554 0.3230 0.161 Uiso 1 1 calc R . .
H32C H 0.6178 0.3825 0.2976 0.161 Uiso 1 1 calc R . .
C43 C 0.4937(13) 0.8966(11) 0.5702(9) 0.120(4) Uani 1 1 d . . .
H43A H 0.4775 0.8378 0.5134 0.180 Uiso 1 1 calc R . .
H43B H 0.4115 0.9336 0.5757 0.180 Uiso 1 1 calc R . .
H43C H 0.4971 0.8687 0.6161 0.180 Uiso 1 1 calc R . .
C42 C 0.679(2) 1.0661(12) 0.6604(9) 0.159(7) Uani 1 1 d . . .
H42A H 0.7761 1.1093 0.6587 0.239 Uiso 1 1 calc R . .
H42B H 0.6864 1.0435 0.7092 0.239 Uiso 1 1 calc R . .
H42C H 0.6027 1.1082 0.6677 0.239 Uiso 1 1 calc R . .
O31 O 0.6078(14) 0.7003(11) 0.4503(8) 0.080(5) Uani 0.430(16) 1 d P . .
C31 C 0.5976(17) 0.5997(11) 0.4296(8) 0.127(4) Uani 1 1 d . . .
O31A O 0.562(2) 0.5528(15) 0.4872(13) 0.166(8) Uiso 0.570(16) 1 d P . .
O41 O 0.8629(13) 1.0134(9) 0.5255(7) 0.075(4) Uani 0.525(15) 1 d P . .
C41 C 0.7264(13) 0.9517(11) 0.5151(7) 0.102(3) Uani 1 1 d . . .
O41A O 0.660(2) 0.8414(17) 0.4362(14) 0.138(8) Uiso 0.475(15) 1 d P . .

loop_
_atom_site_aniso_label
_atom_site_aniso_U_11
_atom_site_aniso_U_22
_atom_site_aniso_U_33
_atom_site_aniso_U_23
_atom_site_aniso_U_13
_atom_site_aniso_U_12
Hg 0.01837(11) 0.01805(11) 0.02548(11) 0.00949(7) 0.00413(7) 0.00455(7)
Cl2 0.0233(5) 0.0233(5) 0.0304(6) 0.0102(4) 0.0026(4) 0.0083(4)
Cl1 0.0252(5) 0.0283(6) 0.0436(7) 0.0209(5) 0.0108(5) 0.0115(4)
S3 0.0213(5) 0.0276(6) 0.0530(8) 0.0254(6) 0.0080(5) 0.0064(4)
S2 0.0205(5) 0.0214(5) 0.0385(7) 0.0146(5) 0.0016(4) 0.0017(4)
S1 0.0749(11) 0.0708(10) 0.0204(7) 0.0068(7) 0.0077(6) 0.0445(9)
C12 0.027(2) 0.032(2) 0.024(2) 0.005(2) 0.0064(18) 0.0106(19)
C8 0.048(3) 0.048(3) 0.021(2) 0.007(2) 0.006(2) 0.018(3)
C19 0.051(3) 0.025(3) 0.037(3) -0.001(2) 0.001(2) -0.001(2)
N3 0.0222(19) 0.0252(19) 0.025(2) 0.0090(16) 0.0033(15) 0.0042(15)
C13 0.025(2) 0.023(2) 0.030(2) 0.0057(19) -0.0005(18) 0.0038(18)
N1 0.0209(18) 0.0229(19) 0.026(2) 0.0096(16) 0.0028(15) 0.0036(15)
N2 0.037(2) 0.030(2) 0.022(2) 0.0038(17) 0.0038(16) 0.0102(17)
C26 0.026(2) 0.029(2) 0.026(2) 0.0136(19) 0.0034(18) 0.0051(18)
C15 0.021(2) 0.020(2) 0.019(2) 0.0077(17) 0.0018(16) 0.0063(17)
C14 0.017(2) 0.021(2) 0.026(2) 0.0110(18) 0.0023(16) 0.0039(16)
C25 0.023(2) 0.024(2) 0.030(2) 0.0101(19) 0.0031(18) 0.0075(18)
C16 0.016(2) 0.022(2) 0.027(2) 0.0106(18) -0.0011(16) 0.0033(16)
C20 0.030(2) 0.029(2) 0.025(2) 0.006(2) 0.0050(19) 0.0066(19)
C3 0.020(2) 0.021(2) 0.025(2) 0.0085(18) -0.0019(17) -0.0005(17)
C21 0.024(2) 0.021(2) 0.037(3) 0.010(2) 0.0019(19) 0.0047(18)
C24 0.026(2) 0.022(2) 0.034(3) 0.0138(19) 0.0062(19) 0.0081(18)
C7 0.050(3) 0.040(3) 0.029(3) 0.008(2) 0.007(2) 0.022(2)
C11 0.040(3) 0.044(3) 0.023(3) 0.007(2) 0.003(2) 0.012(2)
C23 0.021(2) 0.020(2) 0.024(2) 0.0056(18) 0.0064(17) 0.0050(17)
C22 0.020(2) 0.027(2) 0.033(3) 0.016(2) 0.0023(18) 0.0051(18)
C17 0.022(2) 0.034(2) 0.029(2) 0.015(2) 0.0069(18) 0.0060(18)
C4 0.026(2) 0.021(2) 0.041(3) 0.012(2) 0.006(2) 0.0085(18)
C2 0.022(2) 0.022(2) 0.032(2) 0.0077(19) 0.0040(18) 0.0065(17)
C5 0.023(2) 0.025(2) 0.037(3) 0.010(2) 0.0057(19) 0.0070(18)
C6 0.048(3) 0.038(3) 0.028(3) 0.012(2) 0.006(2) 0.020(2)
C18 0.034(3) 0.059(4) 0.035(3) 0.021(3) 0.012(2) -0.002(2)
C1 0.024(2) 0.024(2) 0.033(3) 0.012(2) 0.0058(19) 0.0088(18)
C27 0.017(2) 0.028(2) 0.031(2) 0.013(2) 0.0022(17) 0.0030(17)
C9 0.100(6) 0.087(5) 0.029(3) 0.014(3) 0.010(3) 0.066(5)
C10 0.080(5) 0.064(4) 0.030(3) 0.011(3) 0.013(3) 0.046(4)
N31 0.066(4) 0.056(4) 0.043(3) -0.001(3) 0.006(3) -0.008(3)
N41 0.088(5) 0.115(6) 0.071(5) 0.062(5) 0.035(4) 0.047(4)
C33 0.080(6) 0.099(7) 0.076(6) 0.024(5) -0.015(5) 0.005(5)
C32 0.174(11) 0.074(6) 0.067(6) 0.017(5) 0.034(7) 0.027(7)
C43 0.098(8) 0.171(12) 0.143(11) 0.102(10) 0.044(8) 0.063(8)
C42 0.27(2) 0.126(12) 0.090(10) 0.033(9) 0.033(11) 0.088(13)
O31 0.075(9) 0.077(10) 0.063(8) -0.005(7) -0.011(6) 0.032(7)
C31 0.186(13) 0.104(9) 0.079(8) 0.017(7) 0.002(8) 0.045(9)
O41 0.083(8) 0.099(8) 0.060(7) 0.055(6) 0.007(5) 0.011(6)
C41 0.099(8) 0.160(11) 0.100(8) 0.089(8) 0.050(6) 0.064(8)

_geom_special_details            
;
All esds (except the esd in the dihedral angle between two l.s. planes)
are estimated using the full covariance matrix. The cell esds are taken
into account individually in the estimation of esds in distances, angles
and torsion angles; correlations between esds in cell parameters are only
used when they are defined by crystal symmetry. An approximate (isotropic)
treatment of cell esds is used for estimating esds involving l.s. planes.
;

loop_
_geom_bond_atom_site_label_1
_geom_bond_atom_site_label_2
_geom_bond_distance
_geom_bond_site_symmetry_2
_geom_bond_publ_flag
Hg Cl1 2.4305(12) . ?
Hg Cl2 2.4510(12) . ?
Hg N1 2.464(4) . ?
Hg N2 2.493(4) . ?
Hg N3 2.515(4) 2_666 ?
S3 C23 1.746(4) . ?
S3 C22 1.819(4) . ?
S2 C3 1.749(4) 2_876 ?
S2 C21 1.819(5) . ?
S1 C8 1.746(5) . ?
S1 C11 1.825(5) . ?
C12 C17 1.392(7) . ?
C12 C13 1.405(7) . ?
C12 C11 1.512(7) . ?
C8 C9 1.377(8) . ?
C8 C7 1.385(7) . ?
C19 C13 1.501(7) . ?
N3 C26 1.332(6) . ?
N3 C25 1.342(6) . ?
N3 Hg 2.515(4) 2_666 ?
C13 C14 1.404(7) . ?
N1 C5 1.335(6) . ?
N1 C1 1.340(6) . ?
N2 C10 1.326(7) . ?
N2 C6 1.334(6) . ?
C26 C27 1.366(6) . ?
C15 C14 1.401(6) . ?
C15 C16 1.405(6) . ?
C15 C20 1.510(6) . ?
C14 C22 1.498(6) . ?
C25 C24 1.371(6) . ?
C16 C17 1.384(7) . ?
C16 C21 1.514(6) . ?
C3 C2 1.378(6) . ?
C3 C4 1.390(6) . ?
C3 S2 1.749(4) 2_876 ?
C24 C23 1.400(6) . ?
C7 C6 1.367(7) . ?
C23 C27 1.387(6) . ?
C17 C18 1.519(6) . ?
C4 C5 1.363(7) . ?
C2 C1 1.374(7) . ?
C9 C10 1.365(8) . ?
N31 C31 1.292(12) . ?
N31 C33 1.404(10) . ?
N31 C32 1.433(12) . ?
N41 C41 1.316(10) . ?
N41 C42 1.449(14) . ?
N41 C43 1.449(14) . ?
O31 C31 1.267(16) . ?
C31 O31A 1.335(19) . ?
O41 C41 1.311(15) . ?
C41 O41A 1.56(2) . ?

loop_
_geom_angle_atom_site_label_1
_geom_angle_atom_site_label_2
_geom_angle_atom_site_label_3
_geom_angle
_geom_angle_site_symmetry_1
_geom_angle_site_symmetry_3
_geom_angle_publ_flag
Cl1 Hg Cl2 167.88(4) . . ?
Cl1 Hg N1 91.31(9) . . ?
Cl2 Hg N1 90.14(9) . . ?
Cl1 Hg N2 99.36(10) . . ?
Cl2 Hg N2 92.67(10) . . ?
N1 Hg N2 90.20(13) . . ?
Cl1 Hg N3 87.53(9) . 2_666 ?
Cl2 Hg N3 91.27(9) . 2_666 ?
N1 Hg N3 178.27(10) . 2_666 ?
N2 Hg N3 88.72(13) . 2_666 ?
C23 S3 C22 103.5(2) . . ?
C3 S2 C21 103.0(2) 2_876 . ?
C8 S1 C11 102.5(2) . . ?
C17 C12 C13 120.2(4) . . ?
C17 C12 C11 120.7(4) . . ?
C13 C12 C11 119.0(4) . . ?
C9 C8 C7 116.7(5) . . ?
C9 C8 S1 118.5(4) . . ?
C7 C8 S1 124.8(4) . . ?
C26 N3 C25 117.4(4) . . ?
C26 N3 Hg 120.8(3) . 2_666 ?
C25 N3 Hg 121.7(3) . 2_666 ?
C14 C13 C12 119.2(4) . . ?
C14 C13 C19 120.9(4) . . ?
C12 C13 C19 119.9(5) . . ?
C5 N1 C1 116.1(4) . . ?
C5 N1 Hg 122.9(3) . . ?
C1 N1 Hg 120.9(3) . . ?
C10 N2 C6 116.7(4) . . ?
C10 N2 Hg 123.7(3) . . ?
C6 N2 Hg 119.5(3) . . ?
N3 C26 C27 123.4(4) . . ?
C14 C1