####################################################################### 
# 
# This file contains crystal structure data downloaded from the 
# Cambridge Structural Database (CSD) hosted by the Cambridge 
# Crystallographic Data Centre (CCDC).
# 
# Full information about CCDC data access policies and citation 
# guidelines are available at http://www.ccdc.cam.ac.uk/access/V1 
# 
# Audit and citation data items may have been added by the CCDC. 
# Please retain this information to preserve the provenance of 
# this file and to allow appropriate attribution of the data. 
# 
#######################################################################

data_2
_audit_block_doi                 10.5517/ccnysn0
_database_code_depnum_ccdc_archive 'CCDC 624453'
loop_
_citation_id
_citation_doi
_citation_year
1 10.1002/anie.200604284 2007
_audit_update_record             
;
2006-10-18 deposited with the CCDC.	2024-07-12 downloaded from the CCDC.
;

_audit_creation_method           SHELXL-97
_chemical_name_systematic        
;
?
;
_chemical_name_common            ?
_chemical_melting_point          ?
_chemical_formula_moiety         ?
_chemical_formula_sum            'C14 H8 Co3 N6 O6'
_chemical_formula_weight         533.05

loop_
_atom_type_symbol
_atom_type_description
_atom_type_scat_dispersion_real
_atom_type_scat_dispersion_imag
_atom_type_scat_source
C C 0.0033 0.0016 'International Tables Vol C Tables 4.2.6.8 and 6.1.1.4'
H H 0.0000 0.0000 'International Tables Vol C Tables 4.2.6.8 and 6.1.1.4'
N N 0.0061 0.0033 'International Tables Vol C Tables 4.2.6.8 and 6.1.1.4'
O O 0.0106 0.0060 'International Tables Vol C Tables 4.2.6.8 and 6.1.1.4'
Co Co 0.3494 0.9721 'International Tables Vol C Tables 4.2.6.8 and 6.1.1.4'

_symmetry_cell_setting           monoclinic
_symmetry_space_group_name_H-M   C2/c

loop_
_symmetry_equiv_pos_as_xyz
'x, y, z'
'-x, y, -z+1/2'
'x+1/2, y+1/2, z'
'-x+1/2, y+1/2, -z+1/2'
'-x, -y, -z'
'x, -y, z-1/2'
'-x+1/2, -y+1/2, -z'
'x+1/2, -y+1/2, z-1/2'

_cell_length_a                   18.138(5)
_cell_length_b                   12.127(3)
_cell_length_c                   11.040(3)
_cell_angle_alpha                90.00
_cell_angle_beta                 95.189(4)
_cell_angle_gamma                90.00
_cell_volume                     2418.5(11)
_cell_formula_units_Z            4
_cell_measurement_temperature    298(2)
_cell_measurement_reflns_used    ?
_cell_measurement_theta_min      ?
_cell_measurement_theta_max      ?

_exptl_crystal_description       block
_exptl_crystal_colour            red
_exptl_crystal_size_max          0.17
_exptl_crystal_size_mid          0.08
_exptl_crystal_size_min          0.04
_exptl_crystal_density_meas      ?
_exptl_crystal_density_diffrn    1.464
_exptl_crystal_density_method    'not measured'
_exptl_crystal_F_000             1052
_exptl_absorpt_coefficient_mu    2.069
_exptl_absorpt_correction_type   Empirical
_exptl_absorpt_correction_T_min  0.7199
_exptl_absorpt_correction_T_max  0.9218
_exptl_absorpt_process_details   'SADABS, Sheldrick 1997'

_exptl_special_details           
;
?
;

_diffrn_ambient_temperature      298(2)
_diffrn_radiation_wavelength     0.71073
_diffrn_radiation_type           MoK\a
_diffrn_radiation_source         'fine-focus sealed tube'
_diffrn_radiation_monochromator  graphite
_diffrn_measurement_device_type  'Bruker Apex CCD Diffractometer'
_diffrn_measurement_method       '\f and \w scan'
_diffrn_detector_area_resol_mean ?
_diffrn_standards_number         0
_diffrn_standards_interval_count 0
_diffrn_standards_interval_time  ?
_diffrn_standards_decay_%        0
_diffrn_reflns_number            5942
_diffrn_reflns_av_R_equivalents  0.0661
_diffrn_reflns_av_sigmaI/netI    0.0954
_diffrn_reflns_limit_h_min       -12
_diffrn_reflns_limit_h_max       22
_diffrn_reflns_limit_k_min       -13
_diffrn_reflns_limit_k_max       14
_diffrn_reflns_limit_l_min       -12
_diffrn_reflns_limit_l_max       13
_diffrn_reflns_theta_min         2.02
_diffrn_reflns_theta_max         26.00
_reflns_number_total             2349
_reflns_number_gt                1856
_reflns_threshold_expression     >2sigma(I)

_computing_data_collection       'SMART (Bruker, 2001)'
_computing_cell_refinement       'SMART (Bruker, 2001)'
_computing_data_reduction        'SAINT (Bruker, 2001)'
_computing_structure_solution    'SHELXS-97 (Sheldrick, 1990)'
_computing_structure_refinement  'SHELXL-97 (Sheldrick, 1997)'
_computing_molecular_graphics    'ORTEP-II (Johnson, 1976)'
_computing_publication_material  'SHELXL-97 (Sheldrick, 1997)'

_refine_special_details          
;
Refinement of F^2^ against ALL reflections. The weighted R-factor wR and
goodness of fit S are based on F^2^, conventional R-factors R are based
on F, with F set to zero for negative F^2^. The threshold expression of
F^2^ > 2sigma(F^2^) is used only for calculating R-factors(gt) etc. and is
not relevant to the choice of reflections for refinement. R-factors based
on F^2^ are statistically about twice as large as those based on F, and R-
factors based on ALL data will be even larger.
;

_refine_ls_structure_factor_coef Fsqd
_refine_ls_matrix_type           full
_refine_ls_weighting_scheme      calc
_refine_ls_weighting_details     
'calc w=1/[\s^2^(Fo^2^)+(0.1263P)^2^+34.9919P] where P=(Fo^2^+2Fc^2^)/3'
_atom_sites_solution_primary     direct
_atom_sites_solution_secondary   difmap
_atom_sites_solution_hydrogens   geom
_refine_ls_hydrogen_treatment    mixed
_refine_ls_extinction_method     none
_refine_ls_extinction_coef       ?
_refine_ls_number_reflns         2349
_refine_ls_number_parameters     132
_refine_ls_number_restraints     0
_refine_ls_R_factor_all          0.1252
_refine_ls_R_factor_gt           0.1007
_refine_ls_wR_factor_ref         0.2433
_refine_ls_wR_factor_gt          0.2318
_refine_ls_goodness_of_fit_ref   1.129
_refine_ls_restrained_S_all      1.129
_refine_ls_shift/su_max          1.772
_refine_ls_shift/su_mean         0.028

loop_
_atom_site_label
_atom_site_type_symbol
_atom_site_fract_x
_atom_site_fract_y
_atom_site_fract_z
_atom_site_U_iso_or_equiv
_atom_site_adp_type
_atom_site_occupancy
_atom_site_symmetry_multiplicity
_atom_site_calc_flag
_atom_site_refinement_flags
_atom_site_disorder_assembly
_atom_site_disorder_group
Co1 Co 0.5000 0.10153(13) 0.2500 0.0034(4) Uani 1 2 d S . .
Co2 Co 0.57532(7) 0.06965(10) -0.00751(10) 0.0081(4) Uani 1 1 d . . .
O1 O 0.4786(3) 0.0824(5) 0.0680(6) 0.0137(14) Uani 1 1 d . . .
H1A H 0.4544 0.1394 0.0375 0.016 Uiso 1 1 d . . .
N1 N 0.8712(5) 0.4413(8) 0.1653(7) 0.021(2) Uani 1 1 d . . .
O2 O 0.6315(4) 0.2059(7) 0.0599(7) 0.029(2) Uani 1 1 d . . .
O3 O 0.5784(4) 0.2245(6) 0.2360(7) 0.0280(18) Uani 1 1 d . . .
N2 N 0.9096(4) 0.4901(7) 0.2579(6) 0.0150(18) Uani 1 1 d . . .
C4 C 0.8123(6) 0.3946(9) 0.2103(8) 0.019(2) Uani 1 1 d . . .
N3 N 0.8767(5) 0.4802(8) 0.3624(7) 0.020(2) Uani 1 1 d . . .
C3 C 0.7499(6) 0.3399(9) 0.1482(8) 0.023(2) Uani 1 1 d . . .
H3A H 0.7461 0.3276 0.0647 0.028 Uiso 1 1 calc R . .
C1 C 0.6301(6) 0.2407(9) 0.1659(8) 0.018(2) Uani 1 1 d . . .
C5 C 0.8138(6) 0.4205(9) 0.3307(9) 0.023(2) Uani 1 1 d . . .
C2 C 0.6959(6) 0.3066(10) 0.2203(9) 0.027(3) Uani 1 1 d . . .
C6 C 0.7580(6) 0.3863(10) 0.4058(9) 0.029(3) Uani 1 1 d . . .
H6A H 0.7610 0.4025 0.4884 0.035 Uiso 1 1 calc R . .
C7 C 0.6997(6) 0.3284(11) 0.3496(9) 0.033(3) Uani 1 1 d . . .
H7B H 0.6624 0.3030 0.3948 0.040 Uiso 1 1 calc R . .

loop_
_atom_site_aniso_label
_atom_site_aniso_U_11
_atom_site_aniso_U_22
_atom_site_aniso_U_33
_atom_site_aniso_U_23
_atom_site_aniso_U_13
_atom_site_aniso_U_12
Co1 0.0000(8) 0.0082(8) 0.0022(8) 0.000 0.0012(6) 0.000
Co2 0.0005(6) 0.0222(7) 0.0021(6) -0.0009(4) 0.0031(5) -0.0044(5)
O1 0.000(3) 0.019(3) 0.021(4) 0.001(3) -0.004(3) -0.001(3)
N1 0.008(4) 0.042(5) 0.013(4) 0.004(4) -0.003(4) -0.009(4)
O2 0.013(4) 0.054(5) 0.022(4) -0.009(3) 0.008(3) -0.027(4)
O3 0.021(4) 0.040(5) 0.025(4) -0.012(3) 0.017(3) -0.013(4)
N2 0.011(4) 0.033(5) 0.001(3) -0.001(3) 0.003(3) -0.008(4)
C4 0.016(6) 0.040(6) 0.000(4) 0.000(4) -0.002(4) -0.019(5)
N3 0.011(4) 0.049(6) 0.000(4) -0.005(3) 0.005(3) -0.017(4)
C3 0.018(6) 0.048(7) 0.003(4) -0.007(4) -0.003(4) -0.013(5)
C1 0.013(5) 0.030(5) 0.013(5) -0.010(4) 0.005(4) -0.012(4)
C5 0.015(5) 0.044(7) 0.009(5) 0.000(4) -0.006(4) -0.018(5)
C2 0.026(6) 0.046(7) 0.011(5) -0.016(4) 0.007(5) -0.011(5)
C6 0.013(6) 0.063(8) 0.016(5) -0.019(5) 0.019(5) -0.034(6)
C7 0.016(6) 0.083(9) 0.003(4) -0.012(5) 0.015(4) -0.040(6)

_geom_special_details            
;
All esds (except the esd in the dihedral angle between two l.s. planes)
are estimated using the full covariance matrix. The cell esds are taken
into account individually in the estimation of esds in distances, angles
and torsion angles; correlations between esds in cell parameters are only
used when they are defined by crystal symmetry. An approximate (isotropic)
treatment of cell esds is used for estimating esds involving l.s. planes.
;

loop_
_geom_bond_atom_site_label_1
_geom_bond_atom_site_label_2
_geom_bond_distance
_geom_bond_site_symmetry_2
_geom_bond_publ_flag
Co1 O1 2.025(7) . ?
Co1 O1 2.025(7) 2_655 ?
Co1 O3 2.076(7) 2_655 ?
Co1 O3 2.076(7) . ?
Co1 N2 2.132(8) 3_445 ?
Co1 N2 2.132(8) 4_645 ?
Co2 O1 2.016(7) . ?
Co2 O2 2.046(7) . ?
Co2 N3 2.061(8) 4_645 ?
Co2 N1 2.073(9) 7_655 ?
Co2 O1 2.165(6) 5_655 ?
O1 Co2 2.165(6) 5_655 ?
N1 N2 1.323(11) . ?
N1 C4 1.344(13) . ?
N1 Co2 2.073(9) 7_655 ?
O2 C1 1.245(11) . ?
O3 C1 1.283(12) . ?
N2 N3 1.352(10) . ?
N2 Co1 2.132(8) 3 ?
C4 C5 1.364(13) . ?
C4 C3 1.431(13) . ?
N3 C5 1.370(12) . ?
N3 Co2 2.061(8) 4_655 ?
C3 C2 1.377(15) . ?
C1 C2 1.515(14) . ?
C5 C6 1.427(14) . ?
C2 C7 1.448(13) . ?
C6 C7 1.369(14) . ?

loop_
_geom_angle_atom_site_label_1
_geom_angle_atom_site_label_2
_geom_angle_atom_site_label_3
_geom_angle
_geom_angle_site_symmetry_1
_geom_angle_site_symmetry_3
_geom_angle_publ_flag
O1 Co1 O1 166.9(4) . 2_655 ?
O1 Co1 O3 94.9(3) . 2_655 ?
O1 Co1 O3 94.5(3) 2_655 2_655 ?
O1 Co1 O3 94.5(3) . . ?
O1 Co1 O3 94.9(3) 2_655 . ?
O3 Co1 O3 88.2(4) 2_655 . ?
O1 Co1 N2 83.6(3) . 3_445 ?
O1 Co1 N2 88.1(3) 2_655 3_445 ?
O3 Co1 N2 85.3(3) 2_655 3_445 ?
O3 Co1 N2 173.0(3) . 3_445 ?
O1 Co1 N2 88.1(3) . 4_645 ?
O1 Co1 N2 83.6(3) 2_655 4_645 ?
O3 Co1 N2 173.0(3) 2_655 4_645 ?
O3 Co1 N2 85.3(3) . 4_645 ?
N2 Co1 N2 101.3(5) 3_445 4_645 ?
O1 Co2 O2 102.2(3) . . ?
O1 Co2 N3 92.4(3) . 4_645 ?
O2 Co2 N3 88.9(4) . 4_645 ?
O1 Co2 N1 147.5(3) . 7_655 ?
O2 Co2 N1 95.9(3) . 7_655 ?
N3 Co2 N1 115.0(3) 4_645 7_655 ?
O1 Co2 O1 78.9(3) . 5_655 ?
O2 Co2 O1 175.3(3) . 5_655 ?
N3 Co2 O1 86.5(3) 4_645 5_655 ?
N1 Co2 O1 85.3(3) 7_655 5_655 ?
Co2 O1 Co1 108.9(3) . . ?
Co2 O1 Co2 101.1(3) . 5_655 ?
Co1 O1 Co2 116.4(3) . 5_655 ?
N2 N1 C4 106.5(8) . . ?
N2 N1 Co2 115.1(6) . 7_655 ?
C4 N1 Co2 137.0(7) . 7_655 ?
C1 O2 Co2 124.3(6) . . ?
C1 O3 Co1 134.2(6) . . ?
N1 N2 N3 112.2(7) . . ?
N1 N2 Co1 127.2(6) . 3 ?
N3 N2 Co1 119.4(6) . 3 ?
N1 C4 C5 108.4(9) . . ?
N1 C4 C3 129.7(9) . . ?
C5 C4 C3 121.3(9) . . ?
N2 N3 C5 104.5(7) . . ?
N2 N3 Co2 115.4(6) . 4_655 ?
C5 N3 Co2 139.5(7) . 4_655 ?
C2 C3 C4 115.6(9) . . ?
O2 C1 O3 126.3(9) . . ?
O2 C1 C2 118.0(9) . . ?
O3 C1 C2 115.7(8) . . ?
C4 C5 N3 108.3(9) . . ?
C4 C5 C6 123.1(9) . . ?
N3 C5 C6 128.6(9) . . ?
C3 C2 C7 122.9(10) . . ?
C3 C2 C1 120.1(9) . . ?
C7 C2 C1 116.9(9) . . ?
C7 C6 C5 116.4(9) . . ?
C6 C7 C2 120.4(9) . . ?

_diffrn_measured_fraction_theta_max 0.989
_diffrn_reflns_theta_full        26.00
_diffrn_measured_fraction_theta_full 0.989
_refine_diff_density_max         1.540
_refine_diff_density_min         -3.259
_refine_diff_density_rms         0.267

#_eof
#End of Crystallographic Information File

