####################################################################### 
# 
# This file contains crystal structure data downloaded from the 
# Cambridge Structural Database (CSD) hosted by the Cambridge 
# Crystallographic Data Centre (CCDC).
# 
# Full information about CCDC data access policies and citation 
# guidelines are available at http://www.ccdc.cam.ac.uk/access/V1 
# 
# Audit and citation data items may have been added by the CCDC. 
# Please retain this information to preserve the provenance of 
# this file and to allow appropriate attribution of the data. 
# 
#######################################################################

data_z
_audit_block_doi                 10.5517/cczbn64
_database_code_depnum_ccdc_archive 'CCDC 903966'
loop_
_citation_id
_citation_doi
_citation_year
1 10.1021/cg301502u 2013
_audit_update_record             
;
2013-07-17 deposited with the CCDC.	2024-07-12 downloaded from the CCDC.
;

_audit_creation_method           SHELXL-97
_chemical_name_systematic        
; 
 ? 
;
_chemical_name_common            ?
_chemical_melting_point          ?
_chemical_formula_moiety         'C34 H21 Fe N5 O8'
_chemical_formula_sum            'C34 H21 Fe N5 O8'
_chemical_formula_weight         683.41

loop_
_atom_type_symbol
_atom_type_description
_atom_type_scat_dispersion_real
_atom_type_scat_dispersion_imag
_atom_type_scat_source
C C 0.0033 0.0016 'International Tables Vol C Tables 4.2.6.8 and 6.1.1.4'
Fe Fe 0.3463 0.8444 'International Tables Vol C Tables 4.2.6.8 and 6.1.1.4'
O O 0.0106 0.0060 'International Tables Vol C Tables 4.2.6.8 and 6.1.1.4'
N N 0.0061 0.0033 'International Tables Vol C Tables 4.2.6.8 and 6.1.1.4'
H H 0.0000 0.0000 'International Tables Vol C Tables 4.2.6.8 and 6.1.1.4'

_symmetry_cell_setting           Monoclinic
_symmetry_space_group_name_H-M   P2/c
_symmetry_space_group_name_Hall  '-P 2yc'

loop_
_symmetry_equiv_pos_as_xyz
'x, y, z'
'-x, y, -z+1/2'
'-x, -y, -z'
'x, -y, z-1/2'

_cell_length_a                   19.282(9)
_cell_length_b                   8.542(4)
_cell_length_c                   27.116(13)
_cell_angle_alpha                90.00
_cell_angle_beta                 108.450(10)
_cell_angle_gamma                90.00
_cell_volume                     4237(3)
_cell_formula_units_Z            4
_cell_measurement_temperature    293(2)
_cell_measurement_reflns_used    658
_cell_measurement_theta_min      2.21
_cell_measurement_theta_max      17.12

_exptl_crystal_description       block
_exptl_crystal_colour            yellow
_exptl_crystal_size_max          0.60
_exptl_crystal_size_mid          0.35
_exptl_crystal_size_min          0.28
_exptl_crystal_density_meas      0
_exptl_crystal_density_diffrn    1.071
_exptl_crystal_density_method    'not measured'
_exptl_crystal_F_000             1400
_exptl_absorpt_coefficient_mu    0.401
_exptl_absorpt_correction_type   multi-scan
_exptl_absorpt_correction_T_min  0.7947
_exptl_absorpt_correction_T_max  0.8959
_exptl_absorpt_process_details   '(SADABS; Bruker, 2001)'

_exptl_special_details           
; 
 ? 
;

_diffrn_ambient_temperature      293(2)
_diffrn_radiation_wavelength     0.71073
_diffrn_radiation_type           MoK\a
_diffrn_radiation_source         'fine-focus sealed tube'
_diffrn_radiation_monochromator  graphite
_diffrn_measurement_device_type  'CCD area detector'
_diffrn_measurement_method       'phi and omega scans'
_diffrn_detector_area_resol_mean ?
_diffrn_standards_number         0
_diffrn_standards_interval_count .
_diffrn_standards_interval_time  .
_diffrn_standards_decay_%        ?
_diffrn_reflns_number            19679
_diffrn_reflns_av_R_equivalents  0.0749
_diffrn_reflns_av_sigmaI/netI    0.0933
_diffrn_reflns_limit_h_min       -22
_diffrn_reflns_limit_h_max       15
_diffrn_reflns_limit_k_min       -10
_diffrn_reflns_limit_k_max       10
_diffrn_reflns_limit_l_min       -31
_diffrn_reflns_limit_l_max       32
_diffrn_reflns_theta_min         2.23
_diffrn_reflns_theta_max         25.00
_reflns_number_total             7272
_reflns_number_gt                5143
_reflns_threshold_expression     >2sigma(I)

_computing_data_collection       'Bruker SMART'
_computing_cell_refinement       'Bruker SMART'
_computing_data_reduction        'Bruker SAINT'
_computing_structure_solution    'SHELXS-97 (Sheldrick, 1990)'
_computing_structure_refinement  'SHELXL-97 (Sheldrick, 1997)'
_computing_molecular_graphics    'Bruker SHELXTL'
_computing_publication_material  'Bruker SHELXTL'

_refine_special_details          
; 
 Refinement of F^2^ against ALL reflections.  The weighted R-factor wR and 
 goodness of fit S are based on F^2^, conventional R-factors R are based 
 on F, with F set to zero for negative F^2^. The threshold expression of 
 F^2^ > 2sigma(F^2^) is used only for calculating R-factors(gt) etc. and is 
 not relevant to the choice of reflections for refinement.  R-factors based 
 on F^2^ are statistically about twice as large as those based on F, and R- 
 factors based on ALL data will be even larger. 
;

_refine_ls_structure_factor_coef Fsqd
_refine_ls_matrix_type           full
_refine_ls_weighting_scheme      calc
_refine_ls_weighting_details     
'calc w=1/[\s^2^(Fo^2^)+(0.2300P)^2^+15.5446P] where P=(Fo^2^+2Fc^2^)/3'
_atom_sites_solution_primary     direct
_atom_sites_solution_secondary   difmap
_atom_sites_solution_hydrogens   geom
_refine_ls_hydrogen_treatment    none
_refine_ls_extinction_method     SHELXL
_refine_ls_extinction_coef       0.013(2)
_refine_ls_extinction_expression Fc^*^=kFc[1+0.001xFc^2^\l^3^/sin(2\q)]^-1/4^
_refine_ls_number_reflns         7272
_refine_ls_number_parameters     436
_refine_ls_number_restraints     0
_refine_ls_R_factor_all          0.0650
_refine_ls_R_factor_gt           0.0445
_refine_ls_wR_factor_ref         0.1198
_refine_ls_wR_factor_gt          0.1091
_refine_ls_goodness_of_fit_ref   0.999
_refine_ls_restrained_S_all      0.999
_refine_ls_shift/su_max          0.007
_refine_ls_shift/su_mean         0.000

loop_
_atom_site_label
_atom_site_type_symbol
_atom_site_fract_x
_atom_site_fract_y
_atom_site_fract_z
_atom_site_U_iso_or_equiv
_atom_site_adp_type
_atom_site_occupancy
_atom_site_symmetry_multiplicity
_atom_site_calc_flag
_atom_site_refinement_flags
_atom_site_disorder_assembly
_atom_site_disorder_group
C1 C 0.4514(5) 0.3946(9) 0.6652(4) 0.062(3) Uani 1 1 d . . .
H1 H 0.4329 0.4958 0.6592 0.075 Uiso 1 1 calc R . .
C2 C 0.5247(5) 0.3754(12) 0.6914(4) 0.073(3) Uani 1 1 d . . .
H2 H 0.5549 0.4619 0.7023 0.087 Uiso 1 1 calc R . .
C3 C 0.5520(6) 0.2281(12) 0.7010(5) 0.088(4) Uani 1 1 d . . .
H3 H 0.6017 0.2125 0.7178 0.106 Uiso 1 1 calc R . .
C4 C 0.5053(5) 0.1009(10) 0.6856(4) 0.065(3) Uani 1 1 d . . .
H4 H 0.5227 -0.0007 0.6931 0.077 Uiso 1 1 calc R . .
C5 C 0.4333(4) 0.1280(8) 0.6592(3) 0.0403(17) Uani 1 1 d . . .
C6 C 0.3782(4) 0.0050(7) 0.6398(3) 0.0342(15) Uani 1 1 d . . .
C7 C 0.2762(4) -0.1007(7) 0.6015(3) 0.0311(15) Uani 1 1 d . . .
C8 C 0.2002(4) -0.1385(8) 0.5714(3) 0.0365(16) Uani 1 1 d . . .
C9 C 0.1641(5) -0.2568(11) 0.5878(4) 0.066(3) Uani 1 1 d . . .
H9 H 0.1875 -0.3115 0.6182 0.079 Uiso 1 1 calc R . .
C10 C 0.0934(5) -0.2937(10) 0.5593(4) 0.069(3) Uani 1 1 d . . .
H10 H 0.0696 -0.3732 0.5710 0.083 Uiso 1 1 calc R . .
C11 C 0.0568(4) -0.2177(8) 0.5142(3) 0.0409(17) Uani 1 1 d . . .
C12 C 0.0957(4) -0.1059(9) 0.4959(3) 0.0468(19) Uani 1 1 d . . .
H12 H 0.0734 -0.0573 0.4641 0.056 Uiso 1 1 calc R . .
C13 C 0.1669(4) -0.0662(10) 0.5243(3) 0.0458(18) Uani 1 1 d . . .
H13 H 0.1920 0.0086 0.5117 0.055 Uiso 1 1 calc R . .
C14 C -0.0218(4) -0.2537(9) 0.4847(3) 0.0430(18) Uani 1 1 d . . .
C15 C -0.0663(5) -0.3156(11) 0.5095(4) 0.061(2) Uani 1 1 d . . .
H15 H -0.0480 -0.3443 0.5443 0.073 Uiso 1 1 calc R . .
C16 C -0.1408(5) -0.3355(11) 0.4816(4) 0.060(2) Uani 1 1 d . . .
H16 H -0.1701 -0.3821 0.4988 0.073 Uiso 1 1 calc R . .
C17 C -0.1261(5) -0.2361(11) 0.4092(3) 0.054(2) Uani 1 1 d . . .
H17 H -0.1458 -0.2087 0.3744 0.064 Uiso 1 1 calc R . .
C18 C -0.0519(4) -0.2147(11) 0.4322(3) 0.054(2) Uani 1 1 d . . .
H18 H -0.0229 -0.1758 0.4134 0.065 Uiso 1 1 calc R . .
C19 C 0.3098(4) 0.4344(7) 0.5267(2) 0.0307(14) Uani 1 1 d . . .
C20 C 0.3095(4) 0.5295(7) 0.4809(2) 0.0298(14) Uani 1 1 d . . .
C21 C 0.3124(5) 0.6900(8) 0.4861(3) 0.0433(18) Uani 1 1 d . . .
H21 H 0.3198 0.7348 0.5186 0.052 Uiso 1 1 calc R . .
C22 C 0.3045(5) 0.7852(8) 0.4435(3) 0.047(2) Uani 1 1 d . . .
C23 C 0.2966(6) 0.7176(8) 0.3954(3) 0.053(2) Uani 1 1 d . . .
H23 H 0.2915 0.7816 0.3668 0.064 Uiso 1 1 calc R . .
C24 C 0.2959(4) 0.5556(8) 0.3894(3) 0.0390(17) Uani 1 1 d . . .
C25 C 0.3025(4) 0.4636(7) 0.4323(2) 0.0311(15) Uani 1 1 d . . .
H25 H 0.3024 0.3553 0.4290 0.037 Uiso 1 1 calc R . .
C26 C 0.3022(6) 0.9611(9) 0.4492(3) 0.059(3) Uani 1 1 d . . .
C27 C 0.2907(5) 0.4834(7) 0.3379(3) 0.0399(18) Uani 1 1 d . . .
C28 C 0.2943(7) 0.3226(9) 0.3320(3) 0.071(3) Uani 1 1 d . . .
H28 H 0.3004 0.2575 0.3606 0.085 Uiso 1 1 calc R . .
C29 C 0.2890(7) 0.2568(9) 0.2835(3) 0.073(3) Uani 1 1 d . . .
C30 C 0.2818(5) 0.3518(8) 0.2416(3) 0.0426(19) Uani 1 1 d . . .
H30 H 0.2789 0.3085 0.2095 0.051 Uiso 1 1 calc R . .
C31 C 0.2789(4) 0.5117(7) 0.2469(2) 0.0314(15) Uani 1 1 d . . .
C32 C 0.2822(4) 0.5770(7) 0.2943(2) 0.0314(15) Uani 1 1 d . . .
H32 H 0.2788 0.6850 0.2971 0.038 Uiso 1 1 calc R . .
C33 C 0.2757(4) 0.6100(7) 0.2002(2) 0.0332(15) Uani 1 1 d . . .
C34 C 0.2903(10) 0.0841(9) 0.2775(4) 0.111(6) Uani 1 1 d . . .
N1 N 0.4054(3) 0.2741(7) 0.6479(2) 0.0399(14) Uani 1 1 d . . .
N2 N 0.3078(3) 0.0392(6) 0.61246(19) 0.0289(12) Uani 1 1 d . . .
N3 N 0.3262(4) -0.2100(6) 0.6225(3) 0.0472(17) Uani 1 1 d . . .
N4 N 0.3910(4) -0.1448(7) 0.6462(3) 0.056(2) Uani 1 1 d . . .
H4A H 0.4317 -0.1907 0.6619 0.068 Uiso 1 1 calc R . .
N5 N -0.1721(3) -0.2928(7) 0.4329(3) 0.0424(15) Uani 1 1 d . . .
O1 O 0.3081(3) 0.5024(5) 0.56703(17) 0.0365(11) Uani 1 1 d . . .
O2 O 0.3067(3) 0.2868(5) 0.52509(17) 0.0381(12) Uani 1 1 d . . .
O3 O 0.3289(4) 1.0044(6) 0.4967(2) 0.0549(16) Uani 1 1 d . . .
H3B H 0.3432 1.0951 0.4978 0.082 Uiso 1 1 calc R . .
O4 O 0.2731(6) 1.0480(7) 0.4133(3) 0.113(4) Uani 1 1 d . . .
O5 O 0.2688(4) 0.7552(6) 0.2015(2) 0.0630(19) Uani 1 1 d . . .
O6 O 0.2795(3) 0.5425(6) 0.16023(18) 0.0425(12) Uani 1 1 d . . .
O7 O 0.2751(7) 0.0404(7) 0.2299(3) 0.123(4) Uani 1 1 d . . .
H7 H 0.2635 -0.0524 0.2274 0.185 Uiso 1 1 calc R . .
O8 O 0.3149(9) -0.0059(9) 0.3125(3) 0.170(6) Uani 1 1 d . . .
Fe1 Fe 0.28871(5) 0.29342(10) 0.60611(3) 0.0277(4) Uani 1 1 d . . .

loop_
_atom_site_aniso_label
_atom_site_aniso_U_11
_atom_site_aniso_U_22
_atom_site_aniso_U_33
_atom_site_aniso_U_23
_atom_site_aniso_U_13
_atom_site_aniso_U_12
C1 0.058(5) 0.025(4) 0.087(7) -0.003(4) -0.002(5) -0.011(4)
C2 0.057(6) 0.051(6) 0.098(8) -0.009(5) 0.006(5) -0.024(5)
C3 0.053(6) 0.058(7) 0.124(10) -0.002(6) -0.013(6) -0.014(5)
C4 0.058(5) 0.037(5) 0.081(7) 0.001(4) -0.003(5) 0.005(4)
C5 0.039(4) 0.026(4) 0.049(4) -0.005(3) 0.004(3) -0.005(3)
C6 0.039(4) 0.021(3) 0.038(4) 0.001(3) 0.006(3) 0.001(3)
C7 0.039(4) 0.018(3) 0.032(3) -0.004(3) 0.007(3) 0.001(3)
C8 0.039(4) 0.018(3) 0.047(4) -0.003(3) 0.005(3) 0.000(3)
C9 0.062(6) 0.042(5) 0.072(6) 0.022(5) -0.011(5) -0.008(4)
C10 0.068(6) 0.041(5) 0.080(7) 0.020(4) -0.002(5) -0.018(4)
C11 0.043(4) 0.027(4) 0.047(4) -0.002(3) 0.007(3) 0.000(3)
C12 0.049(4) 0.047(5) 0.038(4) 0.010(3) 0.006(3) -0.003(4)
C13 0.052(4) 0.047(5) 0.034(4) 0.002(3) 0.007(3) -0.010(4)
C14 0.044(4) 0.029(4) 0.050(5) 0.000(3) 0.007(3) -0.004(3)
C15 0.055(5) 0.061(6) 0.055(5) 0.020(4) 0.000(4) -0.010(4)
C16 0.055(5) 0.060(6) 0.060(6) 0.017(4) 0.010(4) -0.009(4)
C17 0.052(5) 0.068(6) 0.035(4) -0.008(4) 0.007(4) -0.013(4)
C18 0.046(4) 0.071(6) 0.043(4) -0.008(4) 0.012(4) -0.014(4)
C19 0.052(4) 0.019(3) 0.023(3) -0.001(2) 0.015(3) -0.003(3)
C20 0.054(4) 0.018(3) 0.021(3) 0.003(2) 0.017(3) -0.003(3)
C21 0.083(6) 0.025(4) 0.026(3) -0.004(3) 0.022(4) -0.008(3)
C22 0.104(7) 0.017(4) 0.024(3) -0.002(3) 0.027(4) -0.005(4)
C23 0.119(8) 0.018(4) 0.032(4) 0.007(3) 0.038(4) 0.000(4)
C24 0.076(5) 0.020(3) 0.026(3) -0.002(3) 0.024(3) -0.002(3)
C25 0.060(4) 0.013(3) 0.023(3) -0.002(2) 0.018(3) -0.002(3)
C26 0.135(8) 0.018(4) 0.030(4) 0.000(3) 0.037(5) -0.004(4)
C27 0.087(6) 0.016(3) 0.023(3) 0.000(3) 0.027(3) 0.000(3)
C28 0.169(11) 0.020(4) 0.030(4) 0.002(3) 0.041(5) 0.003(5)
C29 0.184(11) 0.019(4) 0.024(4) -0.001(3) 0.044(5) 0.002(5)
C30 0.088(6) 0.020(3) 0.025(3) -0.003(3) 0.026(4) 0.001(3)
C31 0.052(4) 0.019(3) 0.022(3) 0.000(2) 0.011(3) -0.002(3)
C32 0.059(4) 0.015(3) 0.024(3) -0.004(2) 0.018(3) 0.000(3)
C33 0.055(4) 0.023(3) 0.021(3) -0.003(3) 0.011(3) -0.007(3)
C34 0.295(19) 0.014(4) 0.041(5) 0.001(4) 0.079(8) 0.010(6)
N1 0.053(4) 0.022(3) 0.041(3) -0.004(2) 0.010(3) -0.009(3)
N2 0.046(3) 0.019(3) 0.020(3) -0.004(2) 0.010(2) 0.001(2)
N3 0.050(4) 0.017(3) 0.059(4) -0.005(3) -0.006(3) 0.009(3)
N4 0.040(4) 0.021(3) 0.088(5) -0.003(3) -0.008(3) 0.003(3)
N5 0.051(4) 0.030(3) 0.045(4) -0.001(3) 0.012(3) -0.003(3)
O1 0.069(3) 0.021(2) 0.022(2) -0.0020(18) 0.018(2) -0.003(2)
O2 0.077(3) 0.012(2) 0.028(2) -0.0002(17) 0.020(2) -0.006(2)
O3 0.109(5) 0.017(2) 0.044(3) -0.009(2) 0.032(3) -0.001(3)
O4 0.262(12) 0.025(3) 0.044(4) 0.004(3) 0.039(5) -0.006(5)
O5 0.139(6) 0.017(2) 0.028(3) 0.000(2) 0.019(3) -0.003(3)
O6 0.072(3) 0.034(3) 0.027(3) -0.002(2) 0.022(2) -0.008(2)
O7 0.301(13) 0.015(3) 0.048(4) -0.008(3) 0.048(6) 0.000(5)
O8 0.44(2) 0.029(4) 0.062(5) 0.006(3) 0.103(8) 0.019(7)
Fe1 0.0468(6) 0.0136(5) 0.0228(6) -0.0003(3) 0.0110(4) -0.0010(4)

_geom_special_details            
; 
 All esds (except the esd in the dihedral angle between two l.s. planes) 
 are estimated using the full covariance matrix.  The cell esds are taken 
 into account individually in the estimation of esds in distances, angles 
 and torsion angles; correlations between esds in cell parameters are only 
 used when they are defined by crystal symmetry.  An approximate (isotropic) 
 treatment of cell esds is used for estimating esds involving l.s. planes. 
;

loop_
_geom_bond_atom_site_label_1
_geom_bond_atom_site_label_2
_geom_bond_distance
_geom_bond_site_symmetry_2
_geom_bond_publ_flag
C1 N1 1.343(9) . ?
C1 C2 1.375(13) . ?
C1 H1 0.9300 . ?
C2 C3 1.358(14) . ?
C2 H2 0.9300 . ?
C3 C4 1.389(13) . ?
C3 H3 0.9300 . ?
C4 C5 1.365(11) . ?
C4 H4 0.9300 . ?
C5 N1 1.355(9) . ?
C5 C6 1.468(9) . ?
C6 N4 1.304(9) . ?
C6 N2 1.358(8) . ?
C7 N3 1.333(9) . ?
C7 N2 1.332(8) . ?
C7 C8 1.470(9) . ?
C8 C9 1.379(12) . ?
C8 C13 1.380(10) . ?
C9 C10 1.375(12) . ?
C9 H9 0.9300 . ?
C10 C11 1.366(11) . ?
C10 H10 0.9300 . ?
C11 C12 1.398(11) . ?
C11 C14 1.504(10) . ?
C12 C13 1.387(11) . ?
C12 H12 0.9300 . ?
C13 H13 0.9300 . ?
C14 C15 1.354(12) . ?
C14 C18 1.397(11) . ?
C15 C16 1.405(12) . ?
C15 H15 0.9300 . ?
C16 N5 1.320(11) . ?
C16 H16 0.9300 . ?
C17 N5 1.338(11) . ?
C17 C18 1.380(11) . ?
C17 H17 0.9300 . ?
C18 H18 0.9300 . ?
C19 O1 1.248(8) . ?
C19 O2 1.262(7) . ?
C19 C20 1.482(8) . ?
C20 C21 1.378(9) . ?
C20 C25 1.399(9) . ?
C21 C22 1.382(10) . ?
C21 H21 0.9300 . ?
C22 C23 1.388(10) . ?
C22 C26 1.513(10) . ?
C23 C24 1.393(9) . ?
C23 H23 0.9300 . ?
C24 C25 1.377(9) . ?
C24 C27 1.501(9) . ?
C25 H25 0.9300 . ?
C26 O4 1.211(10) . ?
C26 O3 1.280(9) . ?
C27 C28 1.387(10) . ?
C27 C32 1.393(9) . ?
C28 C29 1.404(11) . ?
C28 H28 0.9300 . ?
C29 C30 1.367(10) . ?
C29 C34 1.486(11) . ?
C30 C31 1.376(9) . ?
C30 H30 0.9300 . ?
C31 C32 1.383(9) . ?
C31 C33 1.503(9) . ?
C32 H32 0.9300 . ?
C33 O5 1.249(8) . ?
C33 O6 1.252(8) . ?
C34 O8 1.197(12) . ?
C34 O7 1.286(11) . ?
N1 Fe1 2.182(6) . ?
N2 Fe1 2.200(5) . ?
N3 N4 1.333(9) . ?
N4 H4A 0.8600 . ?
N5 Fe1 2.161(6) 3_556 ?
O1 Fe1 2.168(4) . ?
O2 Fe1 2.331(5) . ?
O3 H3B 0.8200 . ?
O6 Fe1 2.078(5) 4_565 ?
O7 H7 0.8200 . ?
Fe1 O6 2.078(5) 4_566 ?
Fe1 N5 2.161(6) 3_556 ?

loop_
_geom_angle_atom_site_label_1
_geom_angle_atom_site_label_2
_geom_angle_atom_site_label_3
_geom_angle
_geom_angle_site_symmetry_1
_geom_angle_site_symmetry_3
_geom_angle_publ_flag
N1 C1 C2 123.1(8) . . ?
N1 C1 H1 118.5 . . ?
C2 C1 H1 118.5 . . ?
C3 C2 C1 118.9(8) . . ?
C3 C2 H2 120.5 . . ?
C1 C2 H2 120.5 . . ?
C2 C3 C4 119.4(9) . . ?
C2 C3 H3 120.3 . . ?
C4 C3 H3 120.3 . . ?
C5 C4 C3 118.7(8) . . ?
C5 C4 H4 120.6 . . ?
C3 C4 H4 120.6 . . ?
N1 C5 C4 122.6(7) . . ?
N1 C5 C6 112.9(6) . . ?
C4 C5 C6 124.5(7) . . ?
N4 C6 N2 113.4(6) . . ?
N4 C6 C5 124.8(6) . . ?
N2 C6 C5 121.8(6) . . ?
N3 C7 N2 108.4(6) . . ?
N3 C7 C8 122.8(6) . . ?
N2 C7 C8 128.8(6) . . ?
C9 C8 C13 119.5(7) . . ?
C9 C8 C7 119.8(7) . . ?
C13 C8 C7 120.4(6) . . ?
C10 C9 C8 119.9(8) . . ?
C10 C9 H9 120.1 . . ?
C8 C9 H9 120.1 . . ?
C11 C10 C9 122.3(8) . . ?
C11 C10 H10 118.9 . . ?
C9 C10 H10 118.9 . . ?
C10 C11 C12 117.3(7) . . ?
C10 C11 C14 121.7(7) . . ?
C12 C11 C14 120.9(7) . . ?
C13 C12 C11 121.2(7) . . ?
C13 C12 H12 119.4 . . ?
C11 C12 H12 119.4 . . ?
C8 C13 C12 119.5(7) . . ?
C8 C13 H13 120.2 . . ?
C12 C13 H13 120.2 . . ?
C15 C14 C18 118.3(7) . . ?
C15 C14 C11 120.4(7) . . ?
C18 C14 C11 121.1(7) . . ?
C14 C15 C16 118.7(8) . . ?
C14 C15 H15 120.6 . . ?
C16 C15 H15 120.6 . . ?
N5 C16 C15 124.8(8) . . ?
N5 C16 H16 117.6 . . ?
C15 C16 H16 117.6 . . ?
N5 C17 C18 125.5(8) . . ?
N5 C17 H17 117.2 . . ?
C18 C17 H17 117.2 . . ?
C17 C18 C14 117.8(8) . . ?
C17 C18 H18 121.1 . . ?
C14 C18 H18 121.1 . . ?
O1 C19 O2 118.7(6) . . ?
O1 C19 C20 119.0(5) . . ?
O2 C19 C20 122.1(5) . . ?
C21 C20 C25 119.0(6) . . ?
C21 C20 C19 118.1(6) . . ?
C25 C20 C19 122.8(6) . . ?
C20 C21 C2