####################################################################### 
# 
# This file contains crystal structure data downloaded from the 
# Cambridge Structural Database (CSD) hosted by the Cambridge 
# Crystallographic Data Centre (CCDC).
# 
# Full information about CCDC data access policies and citation 
# guidelines are available at http://www.ccdc.cam.ac.uk/access/V1 
# 
# Audit and citation data items may have been added by the CCDC. 
# Please retain this information to preserve the provenance of 
# this file and to allow appropriate attribution of the data. 
# 
#######################################################################

data_z
_audit_block_doi                 10.5517/cczbn75
_database_code_depnum_ccdc_archive 'CCDC 903967'
loop_
_citation_id
_citation_doi
_citation_year
1 10.1021/cg301502u 2013
_audit_update_record             
;
2013-07-17 deposited with the CCDC.	2024-07-12 downloaded from the CCDC.
;

_audit_creation_method           SHELXL-97
_chemical_name_systematic        
; 
 ? 
;
_chemical_name_common            ?
_chemical_melting_point          ?
_chemical_formula_moiety         'C34 H21 Co N5 O8'
_chemical_formula_sum            'C34 H21 Co N5 O8'
_chemical_formula_weight         686.49

loop_
_atom_type_symbol
_atom_type_description
_atom_type_scat_dispersion_real
_atom_type_scat_dispersion_imag
_atom_type_scat_source
C C 0.0033 0.0016 'International Tables Vol C Tables 4.2.6.8 and 6.1.1.4'
H H 0.0000 0.0000 'International Tables Vol C Tables 4.2.6.8 and 6.1.1.4'
N N 0.0061 0.0033 'International Tables Vol C Tables 4.2.6.8 and 6.1.1.4'
O O 0.0106 0.0060 'International Tables Vol C Tables 4.2.6.8 and 6.1.1.4'
Co Co 0.3494 0.9721 'International Tables Vol C Tables 4.2.6.8 and 6.1.1.4'

_symmetry_cell_setting           monoclinic
_symmetry_space_group_name_H-M   'P 2/c'
_symmetry_space_group_name_Hall  '-P 2yc'

loop_
_symmetry_equiv_pos_as_xyz
'x, y, z'
'-x, y, -z+1/2'
'-x, -y, -z'
'x, -y, z-1/2'

_cell_length_a                   19.002
_cell_length_b                   8.390
_cell_length_c                   26.833
_cell_angle_alpha                90.00
_cell_angle_beta                 108.73
_cell_angle_gamma                90.00
_cell_volume                     4051.4
_cell_formula_units_Z            4
_cell_measurement_temperature    293(2)
_cell_measurement_reflns_used    6694
_cell_measurement_theta_min      2.56
_cell_measurement_theta_max      25.00

_exptl_crystal_description       block
_exptl_crystal_colour            red
_exptl_crystal_size_max          0.43
_exptl_crystal_size_mid          0.21
_exptl_crystal_size_min          0.16
_exptl_crystal_density_meas      ?
_exptl_crystal_density_diffrn    1.125
_exptl_crystal_density_method    'not measured'
_exptl_crystal_F_000             1404
_exptl_absorpt_coefficient_mu    0.471
_exptl_absorpt_correction_type   multi-scan
_exptl_absorpt_correction_T_min  0.8231
_exptl_absorpt_correction_T_max  0.9284
_exptl_absorpt_process_details   '(SADABS; Bruker, 2001)'

_exptl_special_details           
; 
 ? 
;

_diffrn_ambient_temperature      293(2)
_diffrn_radiation_wavelength     0.71073
_diffrn_radiation_type           MoK\a
_diffrn_radiation_source         'fine-focus sealed tube'
_diffrn_radiation_monochromator  graphite
_diffrn_measurement_device_type  'Bruker APEXII CCD'
_diffrn_measurement_method       '\f and \w scans'
_diffrn_detector_area_resol_mean ?
_diffrn_standards_number         0
_diffrn_standards_interval_count .
_diffrn_standards_interval_time  .
_diffrn_standards_decay_%        ?
_diffrn_reflns_number            18226
_diffrn_reflns_av_R_equivalents  0.0645
_diffrn_reflns_av_sigmaI/netI    0.0335
_diffrn_reflns_limit_h_min       -22
_diffrn_reflns_limit_h_max       22
_diffrn_reflns_limit_k_min       -9
_diffrn_reflns_limit_k_max       9
_diffrn_reflns_limit_l_min       -26
_diffrn_reflns_limit_l_max       31
_diffrn_reflns_theta_min         2.56
_diffrn_reflns_theta_max         25.00
_reflns_number_total             6694
_reflns_number_gt                4527
_reflns_threshold_expression     I>2\s(I)

_computing_data_collection       'APEX2 (Bruker, 2004)'
_computing_cell_refinement       'SAINT-Plus (Bruker, 2001)'
_computing_data_reduction        SAINT-Plus
_computing_structure_solution    'SHELXS97 (Sheldrick, 2008)'
_computing_structure_refinement  'SHELXL97 (Sheldrick, 2008)'
_computing_molecular_graphics    'SHELXTL (Sheldrick, 2008)'
_computing_publication_material  SHELXTL

_refine_special_details          
; 
 Refinement of F^2^ against ALL reflections.  The weighted R-factor wR and 
 goodness of fit S are based on F^2^, conventional R-factors R are based 
 on F, with F set to zero for negative F^2^. The threshold expression of 
 F^2^ > 2sigma(F^2^) is used only for calculating R-factors(gt) etc. and is 
 not relevant to the choice of reflections for refinement.  R-factors based 
 on F^2^ are statistically about twice as large as those based on F, and R- 
 factors based on ALL data will be even larger. 
;

_refine_ls_structure_factor_coef Fsqd
_refine_ls_matrix_type           full
_refine_ls_weighting_scheme      calc
_refine_ls_weighting_details     
'calc w=1/[\s^2^(Fo^2^)+(0.0000P)^2^+0.0000P] where P=(Fo^2^+2Fc^2^)/3'
_atom_sites_solution_primary     direct
_atom_sites_solution_secondary   difmap
_atom_sites_solution_hydrogens   geom
_refine_ls_hydrogen_treatment    none
_refine_ls_extinction_method     SHELXL
_refine_ls_extinction_coef       0.0118(4)
_refine_ls_extinction_expression Fc^*^=kFc[1+0.001xFc^2^\l^3^/sin(2\q)]^-1/4^
_refine_ls_number_reflns         6694
_refine_ls_number_parameters     436
_refine_ls_number_restraints     0
_refine_ls_R_factor_all          0.1124
_refine_ls_R_factor_gt           0.0673
_refine_ls_wR_factor_ref         0.1043
_refine_ls_wR_factor_gt          0.0940
_refine_ls_goodness_of_fit_ref   0.895
_refine_ls_restrained_S_all      0.895
_refine_ls_shift/su_max          0.001
_refine_ls_shift/su_mean         0.000

loop_
_atom_site_label
_atom_site_type_symbol
_atom_site_fract_x
_atom_site_fract_y
_atom_site_fract_z
_atom_site_U_iso_or_equiv
_atom_site_adp_type
_atom_site_occupancy
_atom_site_symmetry_multiplicity
_atom_site_calc_flag
_atom_site_refinement_flags
_atom_site_disorder_assembly
_atom_site_disorder_group
C1 C 0.3100(3) 0.5668(5) 0.52538(16) 0.0539(15) Uani 1 1 d . . .
C2 C 0.3099(3) 0.4714(5) 0.47891(16) 0.0484(14) Uani 1 1 d . . .
C3 C 0.3129(3) 0.3078(5) 0.48430(17) 0.0616(16) Uani 1 1 d . . .
H3 H 0.3210 0.2620 0.5172 0.074 Uiso 1 1 calc R . .
C4 C 0.3042(3) 0.2155(6) 0.44255(17) 0.0702(18) Uani 1 1 d . . .
C5 C 0.2950(4) 0.2827(5) 0.39344(17) 0.080(2) Uani 1 1 d . . .
H5 H 0.2895 0.2173 0.3644 0.096 Uiso 1 1 calc R . .
C6 C 0.2942(3) 0.4456(5) 0.38775(17) 0.0646(17) Uani 1 1 d . . .
C7 C 0.3003(3) 0.5372(5) 0.43080(16) 0.0566(16) Uani 1 1 d . . .
H7 H 0.2980 0.6475 0.4273 0.068 Uiso 1 1 calc R . .
C8 C 0.2892(3) 0.5166(5) 0.33540(16) 0.0594(16) Uani 1 1 d . . .
C9 C 0.2799(3) 0.4238(5) 0.29214(16) 0.0496(14) Uani 1 1 d . . .
H9 H 0.2760 0.3139 0.2950 0.059 Uiso 1 1 calc R . .
C10 C 0.2761(3) 0.4890(5) 0.24441(16) 0.0480(14) Uani 1 1 d . . .
C11 C 0.2786(4) 0.6485(5) 0.23898(17) 0.0704(19) Uani 1 1 d . . .
H11 H 0.2761 0.6927 0.2067 0.084 Uiso 1 1 calc R . .
C12 C 0.2849(4) 0.7448(5) 0.28150(18) 0.077(2) Uani 1 1 d . . .
C13 C 0.2917(4) 0.6787(6) 0.32917(18) 0.091(2) Uani 1 1 d . . .
H13 H 0.2981 0.7448 0.3581 0.110 Uiso 1 1 calc R . .
C14 C 0.2870(5) 0.9174(6) 0.2747(3) 0.107(3) Uani 1 1 d . . .
C15 C 0.2736(3) 0.3907(6) 0.19846(16) 0.0535(15) Uani 1 1 d . . .
C16 C 0.3051(5) 0.0403(7) 0.4481(2) 0.099(3) Uani 1 1 d . . .
C17 C 0.4509(3) 0.5982(6) 0.6634(2) 0.0676(17) Uani 1 1 d . . .
H17 H 0.4320 0.4955 0.6561 0.081 Uiso 1 1 calc R . .
C18 C 0.5239(4) 0.6133(7) 0.6902(2) 0.090(2) Uani 1 1 d . . .
H18 H 0.5540 0.5239 0.7007 0.109 Uiso 1 1 calc R . .
C19 C 0.5528(4) 0.7645(7) 0.7017(2) 0.098(2) Uani 1 1 d . . .
H19 H 0.6029 0.7797 0.7200 0.118 Uiso 1 1 calc R . .
C20 C 0.5061(3) 0.8913(6) 0.6856(2) 0.0762(19) Uani 1 1 d . . .
H20 H 0.5236 0.9948 0.6934 0.091 Uiso 1 1 calc R . .
C21 C 0.4324(3) 0.8634(6) 0.65756(18) 0.0572(16) Uani 1 1 d . . .
C22 C 0.3782(3) 0.9898(5) 0.63823(17) 0.0480(13) Uani 1 1 d . . .
C23 C 0.2756(3) 1.0930(5) 0.59939(16) 0.0467(13) Uani 1 1 d . . .
C24 C 0.2003(3) 1.1308(5) 0.57026(18) 0.0495(14) Uani 1 1 d . . .
C25 C 0.1651(4) 1.2453(8) 0.5864(2) 0.109(3) Uani 1 1 d . . .
H25 H 0.1896 1.2993 0.6174 0.131 Uiso 1 1 calc R . .
C26 C 0.0924(4) 1.2870(8) 0.5582(3) 0.106(2) Uani 1 1 d . . .
H26 H 0.0687 1.3665 0.5710 0.128 Uiso 1 1 calc R . .
C27 C 0.0564(3) 1.2158(6) 0.51341(19) 0.0595(16) Uani 1 1 d . . .
C28 C 0.0922(4) 1.1109(8) 0.4949(2) 0.083(2) Uani 1 1 d . . .
H28 H 0.0682 1.0653 0.4623 0.099 Uiso 1 1 calc R . .
C29 C 0.1648(4) 1.0640(7) 0.5218(2) 0.0772(18) Uani 1 1 d . . .
H29 H 0.1888 0.9892 0.5074 0.093 Uiso 1 1 calc R . .
C30 C -0.0238(3) 1.2500(6) 0.4862(2) 0.0647(16) Uani 1 1 d . . .
C31 C -0.0670(4) 1.3139(8) 0.5095(2) 0.090(2) Uani 1 1 d . . .
H31 H -0.0472 1.3472 0.5442 0.108 Uiso 1 1 calc R . .
C32 C -0.1435(4) 1.3338(8) 0.4830(3) 0.110(3) Uani 1 1 d . . .
H32 H -0.1724 1.3776 0.5018 0.132 Uiso 1 1 calc R . .
C33 C -0.0540(3) 1.2189(7) 0.4327(2) 0.0804(18) Uani 1 1 d . . .
H33 H -0.0248 1.1829 0.4131 0.096 Uiso 1 1 calc R . .
C34 C -0.1302(4) 1.2440(7) 0.4097(2) 0.084(2) Uani 1 1 d . . .
H34 H -0.1510 1.2230 0.3739 0.100 Uiso 1 1 calc R . .
Co1 Co 0.28969(4) 0.70426(6) 0.60430(2) 0.0462(3) Uani 1 1 d . . .
N1 N 0.4039(2) 0.7183(4) 0.64650(12) 0.0547(12) Uani 1 1 d . . .
N2 N 0.3064(3) 0.9520(4) 0.61094(13) 0.0502(11) Uani 1 1 d . . .
N3 N 0.3910(3) 1.1375(5) 0.64342(17) 0.0738(15) Uani 1 1 d . . .
H3F H 0.4325 1.1839 0.6592 0.089 Uiso 1 1 calc R . .
N4 N 0.3251(2) 1.2060(5) 0.61861(15) 0.0614(12) Uani 1 1 d . . .
N5 N -0.1757(3) 1.2960(5) 0.43540(16) 0.0609(13) Uani 1 1 d . . .
O1 O 0.3075(2) 0.7132(3) 0.52374(10) 0.0606(10) Uani 1 1 d . . .
O2 O 0.3103(2) 0.4979(3) 0.56659(11) 0.0542(10) Uani 1 1 d . . .
O3 O 0.3285(3) -0.0056(4) 0.49502(14) 0.0798(13) Uani 1 1 d . . .
H3A H 0.3369 -0.1016 0.4959 0.120 Uiso 1 1 calc R . .
O4 O 0.2759(4) -0.0487(5) 0.41253(16) 0.188(4) Uani 1 1 d . . .
O5 O 0.2673(2) 0.2444(3) 0.20043(11) 0.0848(15) Uani 1 1 d . . .
O6 O 0.27859(19) 0.4550(3) 0.15890(11) 0.0563(10) Uani 1 1 d . . .
O7 O 0.2749(3) 0.9611(4) 0.22775(14) 0.120(2) Uani 1 1 d . . .
H7A H 0.2754 1.0587 0.2264 0.180 Uiso 1 1 calc R . .
O8 O 0.3056(5) 1.0079(5) 0.30908(17) 0.203(4) Uani 1 1 d . . .

loop_
_atom_site_aniso_label
_atom_site_aniso_U_11
_atom_site_aniso_U_22
_atom_site_aniso_U_33
_atom_site_aniso_U_23
_atom_site_aniso_U_13
_atom_site_aniso_U_12
C1 0.100(5) 0.037(3) 0.023(2) 0.002(2) 0.018(3) 0.005(3)
C2 0.083(4) 0.032(3) 0.034(3) 0.001(2) 0.025(2) 0.008(3)
C3 0.116(5) 0.033(3) 0.042(3) 0.004(2) 0.033(3) 0.005(3)
C4 0.139(6) 0.035(3) 0.045(3) 0.004(2) 0.041(3) 0.012(3)
C5 0.170(7) 0.034(3) 0.042(3) 0.002(2) 0.042(3) 0.008(4)
C6 0.127(5) 0.030(3) 0.042(3) 0.001(2) 0.036(3) 0.006(3)
C7 0.103(5) 0.028(2) 0.034(3) -0.001(2) 0.015(3) 0.005(3)
C8 0.121(5) 0.026(2) 0.032(3) 0.0036(19) 0.025(3) 0.005(3)
C9 0.084(4) 0.023(2) 0.040(3) 0.002(2) 0.018(3) 0.003(3)
C10 0.084(4) 0.028(2) 0.028(2) -0.0036(19) 0.013(2) -0.003(3)
C11 0.150(6) 0.035(3) 0.027(2) -0.001(2) 0.029(3) -0.013(3)
C12 0.155(6) 0.035(3) 0.038(3) 0.007(2) 0.029(3) -0.003(3)
C13 0.204(7) 0.038(3) 0.037(3) -0.007(2) 0.045(3) -0.015(4)
C14 0.237(9) 0.035(3) 0.055(4) -0.012(3) 0.056(5) -0.021(4)
C15 0.086(4) 0.043(3) 0.025(3) 0.004(2) 0.008(2) 0.017(3)
C16 0.216(8) 0.041(3) 0.052(4) -0.008(3) 0.060(4) -0.005(4)
C17 0.072(4) 0.040(3) 0.073(4) -0.002(3) -0.002(3) 0.000(3)
C18 0.115(6) 0.048(4) 0.092(4) 0.007(3) 0.010(4) 0.014(4)
C19 0.076(5) 0.061(4) 0.123(5) 0.006(4) -0.017(4) 0.006(4)
C20 0.059(4) 0.048(4) 0.098(4) -0.008(3) -0.007(3) 0.004(3)
C21 0.078(4) 0.032(3) 0.052(3) 0.002(2) 0.009(3) 0.008(3)
C22 0.062(4) 0.037(3) 0.042(3) 0.000(2) 0.014(3) -0.003(3)
C23 0.063(4) 0.030(3) 0.036(2) 0.004(2) 0.000(2) -0.003(3)
C24 0.077(4) 0.020(2) 0.045(3) -0.002(2) 0.011(3) 0.002(3)
C25 0.112(6) 0.102(6) 0.080(4) -0.023(4) -0.015(4) 0.023(5)
C26 0.098(6) 0.087(5) 0.112(5) -0.034(4) 0.003(5) 0.034(4)
C27 0.066(4) 0.036(3) 0.057(3) -0.008(2) -0.006(3) 0.008(3)
C28 0.079(5) 0.087(5) 0.060(4) 0.001(3) -0.009(3) 0.012(4)
C29 0.087(5) 0.083(4) 0.056(3) 0.001(3) 0.014(3) 0.016(4)
C30 0.065(4) 0.034(3) 0.080(4) -0.005(2) 0.002(4) -0.002(3)
C31 0.072(5) 0.106(5) 0.077(4) -0.039(4) 0.002(4) 0.014(4)
C32 0.104(6) 0.116(6) 0.088(5) -0.035(4) -0.002(4) 0.028(5)
C33 0.071(5) 0.097(5) 0.065(4) 0.017(3) 0.010(3) 0.013(4)
C34 0.094(6) 0.094(5) 0.046(3) 0.014(3) 0.001(4) 0.005(4)
Co1 0.0773(6) 0.0257(3) 0.0325(3) -0.0007(3) 0.0133(3) 0.0014(4)
N1 0.088(3) 0.027(2) 0.044(2) 0.0044(17) 0.014(2) 0.014(2)
N2 0.080(3) 0.033(2) 0.035(2) 0.0030(16) 0.015(2) 0.005(2)
N3 0.078(4) 0.034(3) 0.086(3) 0.000(2) -0.005(3) -0.011(3)
N4 0.056(3) 0.038(2) 0.073(3) 0.006(2) -0.003(2) 0.006(2)
N5 0.086(4) 0.038(2) 0.049(3) -0.010(2) 0.008(3) -0.001(3)
O1 0.122(3) 0.0227(16) 0.0402(16) 0.0008(13) 0.0299(17) 0.0108(19)
O2 0.100(3) 0.0298(16) 0.0356(17) 0.0029(13) 0.0253(17) 0.0061(17)
O3 0.143(4) 0.036(2) 0.066(2) 0.0144(17) 0.042(2) 0.013(2)
O4 0.463(11) 0.037(2) 0.061(3) 0.003(2) 0.080(4) 0.022(4)
O5 0.176(4) 0.0248(19) 0.0404(18) -0.0052(14) 0.016(2) 0.005(2)
O6 0.091(3) 0.051(2) 0.0299(17) 0.0047(15) 0.0239(17) 0.0150(18)
O7 0.264(6) 0.035(2) 0.054(2) 0.0091(18) 0.040(3) -0.009(3)
O8 0.508(12) 0.046(3) 0.074(3) -0.001(2) 0.121(5) -0.004(4)

_geom_special_details            
; 
 All esds (except the esd in the dihedral angle between two l.s. planes) 
 are estimated using the full covariance matrix.  The cell esds are taken 
 into account individually in the estimation of esds in distances, angles 
 and torsion angles; correlations between esds in cell parameters are only 
 used when they are defined by crystal symmetry.  An approximate (isotropic) 
 treatment of cell esds is used for estimating esds involving l.s. planes. 
;

loop_
_geom_bond_atom_site_label_1
_geom_bond_atom_site_label_2
_geom_bond_distance
_geom_bond_site_symmetry_2
_geom_bond_publ_flag
C1 O1 1.229(5) . ?
C1 O2 1.247(5) . ?
C1 C2 1.481(6) . ?
C2 C7 1.361(6) . ?
C2 C3 1.379(6) . ?
C3 C4 1.328(6) . ?
C3 H3 0.9300 . ?
C4 C5 1.392(6) . ?
C4 C16 1.477(7) . ?
C5 C6 1.375(6) . ?
C5 H5 0.9300 . ?
C6 C7 1.361(6) . ?
C6 C8 1.501(6) . ?
C7 H7 0.9300 . ?
C8 C9 1.361(6) . ?
C8 C13 1.372(6) . ?
C9 C10 1.373(6) . ?
C9 H9 0.9300 . ?
C10 C11 1.349(5) . ?
C10 C15 1.472(6) . ?
C11 C12 1.372(6) . ?
C11 H11 0.9300 . ?
C12 C13 1.362(6) . ?
C12 C14 1.462(6) . ?
C13 H13 0.9300 . ?
C14 O8 1.159(6) . ?
C14 O7 1.260(6) . ?
C15 O6 1.221(5) . ?
C15 O5 1.236(5) . ?
C16 O4 1.199(6) . ?
C16 O3 1.253(6) . ?
C17 N1 1.326(6) . ?
C17 C18 1.348(7) . ?
C17 H17 0.9300 . ?
C18 C19 1.377(7) . ?
C18 H18 0.9300 . ?
C19 C20 1.364(7) . ?
C19 H19 0.9300 . ?
C20 C21 1.380(7) . ?
C20 H20 0.9300 . ?
C21 N1 1.327(6) . ?
C21 C22 1.453(6) . ?
C22 N3 1.262(5) . ?
C22 N2 1.362(6) . ?
C23 N2 1.313(5) . ?
C23 N4 1.318(5) . ?
C23 C24 1.429(6) . ?
C24 C25 1.320(8) . ?
C24 C29 1.377(6) . ?
C25 C26 1.392(8) . ?
C25 H25 0.9300 . ?
C26 C27 1.319(7) . ?
C26 H26 0.9300 . ?
C27 C28 1.305(7) . ?
C27 C30 1.490(7) . ?
C28 C29 1.393(7) . ?
C28 H28 0.9300 . ?
C29 H29 0.9300 . ?
C30 C31 1.297(7) . ?
C30 C33 1.390(7) . ?
C31 C32 1.408(8) . ?
C31 H31 0.9300 . ?
C32 N5 1.267(6) . ?
C32 H32 0.9300 . ?
C33 C34 1.396(8) . ?
C33 H33 0.9300 . ?
C34 N5 1.341(7) . ?
C34 H34 0.9300 . ?
Co1 O6 2.043(3) 4_566 ?
Co1 N5 2.084(5) 3_576 ?
Co1 N2 2.102(4) . ?
Co1 N1 2.104(4) . ?
Co1 O2 2.105(3) . ?
Co1 O1 2.294(3) . ?
N3 N4 1.345(5) . ?
N3 H3F 0.8600 . ?
N5 Co1 2.084(5) 3_576 ?
O3 H3A 0.8200 . ?
O6 Co1 2.043(3) 4_565 ?
O7 H7A 0.8200 . ?

loop_
_geom_angle_atom_site_label_1
_geom_angle_atom_site_label_2
_geom_angle_atom_site_label_3
_geom_angle
_geom_angle_site_symmetry_1
_geom_angle_site_symmetry_3
_geom_angle_publ_flag
O1 C1 O2 119.0(4) . . ?
O1 C1 C2 121.4(4) . . ?
O2 C1 C2 119.6(4) . . ?
C7 C2 C3 119.4(4) . . ?
C7 C2 C1 122.9(4) . . ?
C3 C2 C1 117.4(4) . . ?
C4 C3 C2 120.1(4) . . ?
C4 C3 H3 119.9 . . ?
C2 C3 H3 119.9 . . ?
C3 C4 C5 120.5(4) . . ?
C3 C4 C16 120.0(4) . . ?
C5 C4 C16 119.5(4) . . ?
C6 C5 C4 120.1(4) . . ?
C6 C5 H5 120.0 . . ?
C4 C5 H5 120.0 . . ?
C7 C6 C5 118.2(4) . . ?
C7 C6 C8 122.2(4) . . ?
C5 C6 C8 119.6(4) . . ?
C6 C7 C2 121.7(4) . . ?
C6 C7 H7 119.2 . . ?
C2 C7 H7 119.2 . . ?
C9 C8 C13 117.6(4) . . ?
C9 C8 C6 121.5(4) . . ?
C13 C8 C6 120.9(4) . . ?
C8 C9 C10 121.4(4) . . ?
C8 C9 H9 119.3 . . ?
C10 C9 H9 119.3 . . ?
C11 C10 C9 120.2(4) . . ?
C11 C10 C15 117.3(4) . . ?
C9 C10 C15 122.4(4) . . ?
C10 C11 C12 119.4(4) . . ?
C10 C11 H11 120.3 . . ?
C12 C11 H11 120.3 . . ?
C13 C12 C11 119.9(4) . . ?
C13 C12 C14 121.5(5) . . ?
C11 C12 C14 118.6(4) . . ?
C12 C13 C8 121.4(4) . . ?
C12 C13 H13 119.3 . . ?
C8 C13 H13 119.3 . . ?
O8 C14 O7 121.1(5) . . ?
O8 C14 C12 124.3(6) . . ?
O7 C14 C12 114.1(5) . . ?
O6 C15 O5 120.8(4) . . ?
O6 C15 C10 119.4(4) . . ?
O5 C15 C10 119.8(4) . . ?
O4 C16 O3 122.2(5) . . ?
O4 C16 C4 123.5(5) . . ?
O3 C16 C4 113.4(5) . . ?
N1 C17 C18 125.2(5) . . ?
N1 C17 H17 117.4 . . ?
C18 C17 H17 117.4 . . ?
C17 C18 C19 118.3(6) . . ?
C17 C18 H18 120.8 . . ?
C19 C18 H18 120.8 . . ?
C20 C19 C18 118.4(6) . . ?
C20 C19 H19 120.8 . . ?
C18 C19 H19 120.8 . . ?
C19 C20 C21 118.9(5) . . ?
C19 C20 H20 120.5 . . ?
C21 C20 H20 120.5 . . ?
N1 C