
#######################################################################
#
#                 Cambridge Crystallographic Data Centre
#                                CCDC
#
#######################################################################
#
# If this CIF has been generated from an entry in the Cambridge
# Structural Database, then it will include bibliographic, chemical,
# crystal, experimental, refinement or atomic coordinate data resulting
# from the CCDC's data processing and validation procedures.
#
#######################################################################

data_CSD_CIF_RIKTAG
_audit_creation_date 1997-11-11
_audit_creation_method CSD-ConQuest-V1
_database_code_CSD RIKTAG
_database_code_depnum_ccdc_archive 'CCDC 103504'
_database_code_depnum_ccdc_fiz 'CSD 407168'
_chemical_formula_sum 'C20 H40 I5 La1 O5'
_chemical_formula_moiety
;
C20 H40 I2 La1 O5 1+,I3 1-
;
_journal_coden_Cambridge 29
_journal_volume 623
_journal_year 1997
_journal_page_first 1425
_journal_name_full 'Z.Anorg.Allg.Chem. '
loop_
_publ_author_name
"S.Anfang"
"M.Karl"
"N.Faza"
"W.Massa"
"J.Magull"
"K.Dehnicke"
_chemical_name_systematic
;
Di-iodo-pentakis(tetrahydrofuran)-lanthanum tri-iodide
;
_chemical_name_common
;
Teaching Subset: Fundamental Chemistry, Symmetry
;
_cell_volume   3365.498
_exptl_crystal_colour 'red'
_exptl_crystal_density_diffrn 2.238
_diffrn_ambient_temperature 190
#These two values have been output from a single CSD field.
_refine_ls_R_factor_gt 0.0306
_refine_ls_wR_factor_gt 0.0306
_symmetry_cell_setting orthorhombic
_symmetry_space_group_name_H-M 'P b c n'
_symmetry_Int_Tables_number 60
loop_
_symmetry_equiv_pos_site_id
_symmetry_equiv_pos_as_xyz
1 x,y,z
2 1/2-x,1/2-y,1/2+z
3 1/2+x,1/2-y,-z
4 -x,y,1/2-z
5 -x,-y,-z
6 -1/2+x,-1/2+y,-1/2-z
7 -1/2-x,-1/2+y,z
8 x,-y,-1/2+z
_cell_length_a 12.649(5)
_cell_length_b 22.189(5)
_cell_length_c 11.991(3)
_cell_angle_alpha 90
_cell_angle_beta 90
_cell_angle_gamma 90
_cell_formula_units_Z 4
loop_
_atom_type_symbol
_atom_type_radius_bond
C 0.68
H 0.23
I 1.40
La 1.87
O 0.68
loop_
_atom_site_label
_atom_site_type_symbol
_atom_site_fract_x
_atom_site_fract_y
_atom_site_fract_z
La1 La 0.00000 -0.298061(18) 0.25000
I1 I 0.01066(4) -0.298591(18) 0.51075(4)
O1 O 0.00000 -0.4121(2) 0.25000
O2 O -0.1162(4) -0.20520(16) 0.2566(4)
C1 C -0.0270(8) -0.4508(3) 0.3442(7)
H1 H -0.09490 -0.43860 0.37660
H2 H 0.02750 -0.44810 0.40220
C2 C -0.0338(8) -0.5135(3) 0.3004(7)
H3 H -0.10690 -0.52390 0.28130
H4 H -0.00750 -0.54250 0.35550
C3 C -0.1990(7) -0.1908(3) 0.1777(6)
H5 H -0.23120 -0.22770 0.14840
H6 H -0.17060 -0.16740 0.11530
C4 C -0.2790(7) -0.1544(3) 0.2421(7)
H7 H -0.33040 -0.18030 0.28000
H8 H -0.31650 -0.12590 0.19380
C5 C -0.2086(9) -0.1223(4) 0.3243(8)
H9 H -0.18730 -0.08290 0.29450
H10 H -0.24630 -0.11580 0.39470
C6 C -0.1176(9) -0.1592(3) 0.3424(8)
H11 H -0.12100 -0.17790 0.41640
H12 H -0.05320 -0.13470 0.33830
O3 O -0.1885(4) -0.33267(15) 0.2654(4)
C7 C -0.2414(8) -0.3732(3) 0.1889(7)
H13 H -0.23370 -0.35840 0.11230
H14 H -0.20940 -0.41340 0.19330
C8 C -0.3476(9) -0.3765(5) 0.2169(10)
H15 H -0.36700 -0.41850 0.23190
H16 H -0.39070 -0.36210 0.15450
C9 C -0.3679(8) -0.3399(4) 0.3152(8)
H17 H -0.40420 -0.36370 0.37250
H18 H -0.41200 -0.30510 0.29610
C10 C -0.2625(7) -0.3199(3) 0.3557(6)
H19 H -0.26330 -0.27670 0.37260
H20 H -0.24260 -0.34200 0.42330
I2 I 0.00000 0.00000 0.50000
I3 I -0.22534(5) 0.021961(19) 0.53382(5)
I1C I -0.01066(4) -0.298591(18) -0.01075(4)
C2C C 0.0338(8) -0.5135(3) 0.1996(7)
C1C C 0.0270(8) -0.4508(3) 0.1558(7)
H1C H 0.09490 -0.43860 0.12340
H2C H -0.02750 -0.44810 0.09780
H3C H 0.10690 -0.52390 0.21870
H4C H 0.00750 -0.54250 0.14450
O2C O 0.1162(4) -0.20520(16) 0.2434(4)
C3C C 0.1990(7) -0.1908(3) 0.3223(6)
H5C H 0.23120 -0.22770 0.35160
H6C H 0.17060 -0.16740 0.38470
C4C C 0.2790(7) -0.1544(3) 0.2579(7)
H7C H 0.33040 -0.18030 0.22000
H8C H 0.31650 -0.12590 0.30620
C5C C 0.2086(9) -0.1223(4) 0.1757(8)
H9C H 0.18730 -0.08290 0.20550
H10C H 0.24630 -0.11580 0.10530
C6C C 0.1176(9) -0.1592(3) 0.1576(8)
H11C H 0.12100 -0.17790 0.08360
H12C H 0.05320 -0.13470 0.16170
O3C O 0.1885(4) -0.33267(15) 0.2346(4)
C7C C 0.2414(8) -0.3732(3) 0.3111(7)
H13C H 0.23370 -0.35840 0.38770
H14C H 0.20940 -0.41340 0.30670
C8C C 0.3476(9) -0.3765(5) 0.2831(10)
H15C H 0.36700 -0.41850 0.26810
H16C H 0.39070 -0.36210 0.34550
C9C C 0.3679(8) -0.3399(4) 0.1848(8)
H17C H 0.40420 -0.36370 0.12750
H18C H 0.41200 -0.30510 0.20390
C10C C 0.2625(7) -0.3199(3) 0.1443(6)
H19C H 0.26330 -0.27670 0.12740
H20C H 0.24260 -0.34200 0.07670
I3D I 0.22534(5) -0.021961(19) 0.46618(5)
#END
