
#######################################################################
#
#                 Cambridge Crystallographic Data Centre
#                                CCDC
#
#######################################################################
#
# If this CIF has been generated from an entry in the Cambridge
# Structural Database, then it will include bibliographic, chemical,
# crystal, experimental, refinement or atomic coordinate data resulting
# from the CCDC's data processing and validation procedures.
#
#######################################################################

data_CSD_CIF_RIKTIO
_audit_creation_date 1997-11-11
_audit_creation_method CSD-ConQuest-V1
_database_code_CSD RIKTIO
_database_code_depnum_ccdc_archive 'CCDC 103507'
_database_code_depnum_ccdc_fiz 'CSD 407170'
_chemical_formula_sum 'C28 H56 Cl6 Er2 O7'
_chemical_formula_moiety
;
C20 H40 Cl2 Er1 O5 1+,C8 H16 Cl4 Er1 O2 1-
;
_journal_coden_Cambridge 29
_journal_volume 623
_journal_year 1997
_journal_page_first 1425
_journal_name_full 'Z.Anorg.Allg.Chem. '
loop_
_publ_author_name
"S.Anfang"
"M.Karl"
"N.Faza"
"W.Massa"
"J.Magull"
"K.Dehnicke"
_chemical_name_systematic
;
Dichloro-pentakis(tetrahydrofuran)-erbium 
tetrachloro-bis(tetrahydrofuran)-erbium
;
_chemical_name_common
;
Teaching Subset: Fundamental Chemistry, Symmetry
;
_cell_volume   3891.262
_exptl_crystal_colour 'pale pink'
_exptl_crystal_density_diffrn 1.782
_diffrn_ambient_temperature 223
#These two values have been output from a single CSD field.
_refine_ls_R_factor_gt 0.0356
_refine_ls_wR_factor_gt 0.0356
_symmetry_cell_setting monoclinic
_symmetry_space_group_name_H-M 'C 2/c'
_symmetry_Int_Tables_number 15
loop_
_symmetry_equiv_pos_site_id
_symmetry_equiv_pos_as_xyz
1 x,y,z
2 -x,y,1/2-z
3 1/2+x,1/2+y,z
4 1/2-x,1/2+y,1/2-z
5 -x,-y,-z
6 x,-y,-1/2+z
7 -1/2-x,-1/2-y,-z
8 -1/2+x,-1/2-y,-1/2+z
_cell_length_a 12.4628(6)
_cell_length_b 11.4567(10)
_cell_length_c 27.260(2)
_cell_angle_alpha 90
_cell_angle_beta 91.293(5)
_cell_angle_gamma 90
_cell_formula_units_Z 4
loop_
_atom_type_symbol
_atom_type_radius_bond
C 0.68
H 0.23
Cl 0.99
Er 1.73
O 0.68
loop_
_atom_site_label
_atom_site_type_symbol
_atom_site_fract_x
_atom_site_fract_y
_atom_site_fract_z
Er1 Er 0.00000 0.57177(3) 0.25000
Cl1 Cl -0.19085(10) 0.57180(15) 0.21380(6)
O1 O 0.00000 0.3638(6) 0.25000
C1 C 0.0626(7) 0.2872(8) 0.2821(4)
H1 H 0.13920 0.29620 0.27570
H2 H 0.05060 0.30740 0.31650
C2 C 0.0297(10) 0.1688(7) 0.2728(4)
H3 H -0.01520 0.14050 0.29930
H4 H 0.09260 0.11790 0.27070
O2 O -0.0784(3) 0.5074(4) 0.32284(13)
C3 C -0.0271(7) 0.5130(13) 0.3715(2)
H5 H -0.03300 0.59190 0.38500
H6 H 0.04910 0.49290 0.36960
C4 C -0.0823(6) 0.4296(7) 0.4023(3)
H7 H -0.03890 0.35900 0.40700
H8 H -0.09610 0.46380 0.43450
C5 C -0.1809(6) 0.4025(10) 0.3773(3)
H9 H -0.24120 0.43410 0.39560
H10 H -0.18950 0.31770 0.37510
C6 C -0.1808(5) 0.4519(7) 0.3292(3)
H11 H -0.23880 0.50920 0.32550
H12 H -0.19190 0.39070 0.30450
O3 O -0.0268(3) 0.7383(4) 0.29964(14)
C7 C -0.1272(5) 0.7787(8) 0.3183(3)
H13 H -0.15980 0.71790 0.33850
H14 H -0.17700 0.79770 0.29120
C8 C -0.1047(5) 0.8836(7) 0.3483(2)
H15 H -0.14380 0.88050 0.37900
H16 H -0.12610 0.95440 0.33040
C9 C 0.0134(5) 0.8828(7) 0.3582(2)
H17 H 0.04210 0.96220 0.36070
H18 H 0.03160 0.83980 0.38830
C10 C 0.0531(5) 0.8227(7) 0.3147(3)
H19 H 0.06500 0.87890 0.28830
H20 H 0.12130 0.78360 0.32260
Er2 Er -0.25000 0.75000 0.50000
Cl2 Cl -0.05537(10) 0.71601(17) 0.47235(5)
Cl3 Cl -0.17263(11) 0.79607(18) 0.58717(5)
O4 O -0.2644(3) 0.5559(4) 0.51938(16)
C11 C -0.3555(5) 0.4819(7) 0.5096(3)
H21 H -0.35550 0.45430 0.47560
H22 H -0.42240 0.52450 0.51500
C12 C -0.3456(7) 0.3811(9) 0.5443(3)
H23 H -0.36380 0.30790 0.52750
H24 H -0.39400 0.39130 0.57190
C13 C -0.2325(5) 0.3796(8) 0.5619(3)
H25 H -0.22870 0.37520 0.59780
H26 H -0.19490 0.31200 0.54850
C14 C -0.1840(5) 0.4879(8) 0.5450(3)
H27 H -0.15500 0.53200 0.57310
H28 H -0.12490 0.47020 0.52310
Cl1A Cl 0.19085(10) 0.57180(15) 0.28620(6)
C2A C -0.0297(10) 0.1688(7) 0.2272(4)
C1A C -0.0626(7) 0.2872(8) 0.2179(4)
H1A H -0.13920 0.29620 0.22430
H2A H -0.05060 0.30740 0.18350
H3A H 0.01520 0.14050 0.20070
H4A H -0.09260 0.11790 0.22930
O2A O 0.0784(3) 0.5074(4) 0.17716(13)
C3A C 0.0271(7) 0.5130(13) 0.1285(2)
H5A H 0.03300 0.59190 0.11500
H6A H -0.04910 0.49290 0.13040
C4A C 0.0823(6) 0.4296(7) 0.0977(3)
H7A H 0.03890 0.35900 0.09300
H8A H 0.09610 0.46380 0.06550
C5A C 0.1809(6) 0.4025(10) 0.1227(3)
H9A H 0.24120 0.43410 0.10440
H10A H 0.18950 0.31770 0.12490
C6A C 0.1808(5) 0.4519(7) 0.1708(3)
H11A H 0.23880 0.50920 0.17450
H12A H 0.19190 0.39070 0.19550
O3A O 0.0268(3) 0.7383(4) 0.20036(14)
C7A C 0.1272(5) 0.7787(8) 0.1817(3)
H13A H 0.15980 0.71790 0.16150
H14A H 0.17700 0.79770 0.20880
C8A C 0.1047(5) 0.8836(7) 0.1517(2)
H15A H 0.14380 0.88050 0.12100
H16A H 0.12610 0.95440 0.16960
C9A C -0.0134(5) 0.8828(7) 0.1418(2)
H17A H -0.04210 0.96220 0.13930
H18A H -0.03160 0.83980 0.11170
C10A C -0.0531(5) 0.8227(7) 0.1853(3)
H19A H -0.06500 0.87890 0.21170
H20A H -0.12130 0.78360 0.17740
Cl2F Cl -0.44463(10) 0.78399(17) 0.52765(5)
Cl3F Cl -0.32737(11) 0.70393(18) 0.41283(5)
O4F O -0.2356(3) 0.9441(4) 0.48062(16)
C11F C -0.1445(5) 1.0181(7) 0.4904(3)
H21F H -0.14450 1.04570 0.52440
H22F H -0.07760 0.97550 0.48500
C12F C -0.1544(7) 1.1189(9) 0.4557(3)
H23F H -0.13620 1.19210 0.47250
H24F H -0.10600 1.10870 0.42810
C13F C -0.2675(5) 1.1204(8) 0.4381(3)
H25F H -0.27130 1.12480 0.40220
H26F H -0.30510 1.18800 0.45150
C14F C -0.3160(5) 1.0121(8) 0.4550(3)
H27F H -0.34500 0.96800 0.42690
H28F H -0.37510 1.02980 0.47690
#END
