
#######################################################################
#
#                 Cambridge Crystallographic Data Centre
#                                CCDC
#
#######################################################################
#
# If this CIF has been generated from an entry in the Cambridge
# Structural Database, then it will include bibliographic, chemical,
# crystal, experimental, refinement or atomic coordinate data resulting
# from the CCDC's data processing and validation procedures.
#
#######################################################################

data_CSD_CIF_RIPKUX
_audit_creation_date 2008-03-06
_audit_creation_method CSD-ConQuest-V1
_database_code_CSD RIPKUX
_database_code_depnum_ccdc_archive 'CCDC 643862'
_chemical_formula_sum 'C36 H110 Cl2 N24 O48'
_chemical_formula_moiety
;
2(H3 O1 1+),2(Cl1 1-),C36 H36 N24 O12,34(H2 O1)
;
_journal_coden_Cambridge 1350
_journal_volume 9
_journal_year 2007
_journal_page_first 973
_journal_name_full 'CrystEngComm '
loop_
_publ_author_name
"D.Bardelang"
"K.A.Udachin"
"D.M.Leek"
"J.A.Ripmeester"
_chemical_name_systematic
;
bis(oxonium) dichloride cucurbit[6]uril hydrate
;
_chemical_name_common
;
Teaching Subset: Symmetry
;
_cell_volume   1901.493
_exptl_crystal_density_diffrn 1.501
_diffrn_ambient_temperature 100
_refine_special_details
;
Some of the water molecules are disordered.

;
#These two values have been output from a single CSD field.
_refine_ls_R_factor_gt 0.1471
_refine_ls_wR_factor_gt 0.1471
_symmetry_cell_setting hexagonal
_symmetry_space_group_name_H-M 'P 6/m m m'
_symmetry_Int_Tables_number 191
loop_
_symmetry_equiv_pos_site_id
_symmetry_equiv_pos_as_xyz
1 x,y,z
2 -y,x-y,z
3 -x+y,-x,z
4 y,-x+y,z
5 x-y,x,z
6 y,x,-z
7 -x+y,y,-z
8 x,x-y,-z
9 -x,-y,z
10 x-y,-y,-z
11 -x,-x+y,-z
12 -y,-x,-z
13 -x,-y,-z
14 y,-x+y,-z
15 x-y,x,-z
16 -y,x-y,-z
17 -x+y,-x,-z
18 -y,-x,z
19 x-y,-y,z
20 -x,-x+y,z
21 x,y,-z
22 -x+y,y,z
23 x,x-y,z
24 y,x,z
_cell_length_a 14.4486(3)
_cell_length_b 14.4486(3)
_cell_length_c 10.5175(5)
_cell_angle_alpha 90
_cell_angle_beta 90
_cell_angle_gamma 120
_cell_formula_units_Z 1
loop_
_atom_type_symbol
_atom_type_radius_bond
C 0.68
H 0.23
Cl 0.99
N 0.68
O 0.68
loop_
_atom_site_label
_atom_site_type_symbol
_atom_site_fract_x
_atom_site_fract_y
_atom_site_fract_z
Cl1 Cl 0.66670 0.33330 0.00000
O1 O 0.00000 0.24040(15) 0.28958(17)
N1 N -0.08765(14) 0.25543(13) 0.11525(14)
C1 C 0.00000 0.27538(18) 0.1835(2)
C2 C -0.19565(11) 0.19565(11) 0.1648(2)
H1 H -0.23420 0.23420 0.14360
H2 H -0.19240 0.19240 0.25860
C3 C -0.0622(2) 0.3169(2) 0.00000
H3 H -0.09200 0.36630 0.00000
O2 O -0.1330(3) 0.1330(3) 0.50000
O3 O -0.3245(5) 0.0973(9) 0.50000
O4 O 0.00000 0.00000 -1.242(11)
O5 O -0.33330 0.33330 0.2764(17)
O6 O 0.00000 0.00000 0.00000
O7 O 0.00000 0.00000 -0.50000
O8 O -0.33330 0.33330 0.50000
O9? O -0.04671(16) 0.4715(3) 0.26703(16)
O10? O 0.00000 0.402(12) 0.50000
O11? O 0.00000 0.00000 0.2959(17)
O12? O -0.2109(10) 0.3152(11) 0.4048(13)
O1D O -0.24040 0.00000(15) 0.28958(17)
O1A O -0.24040 -0.24040(15) 0.28958(17)
O1V O 0.00000 -0.24040(15) 0.28958(17)
O1B O 0.24040 0.00000(15) 0.28958(17)
O1C O 0.24040 0.24040(15) 0.28958(17)
O1T O 0.00000 0.24040(15) -0.28958(17)
O1N O -0.24040 0.00000(15) -0.28958(17)
O1O O -0.24040 -0.24040(15) -0.28958(17)
O1G O 0.00000 -0.24040(15) -0.28958(17)
O1E O 0.24040 0.00000(15) -0.28958(17)
O1F O 0.24040 0.24040(15) -0.28958(17)
N1Q N -0.25543(14) 0.08765(13) 0.11525(14)
N1D N -0.34308(14) -0.08765(13) 0.11525(14)
N1R N -0.34308(14) -0.25543(13) 0.11525(14)
N1A N -0.25543(14) -0.34308(13) 0.11525(14)
N1V N -0.08765(14) -0.34308(13) 0.11525(14)
N1H N 0.08765(14) -0.25543(13) 0.11525(14)
N1W N 0.25543(14) -0.08765(13) 0.11525(14)
N1B N 0.34308(14) 0.08765(13) 0.11525(14)
N1U N 0.34308(14) 0.25543(13) 0.11525(14)
N1C N 0.25543(14) 0.34308(13) 0.11525(14)
N1S N 0.08765(14) 0.34308(13) 0.11525(14)
N1J N 0.08765(14) 0.34308(13) -0.11525(14)
N1T N -0.08765(14) 0.25543(13) -0.11525(14)
N1K N -0.25543(14) 0.08765(13) -0.11525(14)
N1N N -0.34308(14) -0.08765(13) -0.11525(14)
N1I N -0.34308(14) -0.25543(13) -0.11525(14)
N1O N -0.25543(14) -0.34308(13) -0.11525(14)
N1G N -0.08765(14) -0.34308(13) -0.11525(14)
N1L N 0.08765(14) -0.25543(13) -0.11525(14)
N1E N 0.25543(14) -0.08765(13) -0.11525(14)
N1P N 0.34308(14) 0.08765(13) -0.11525(14)
N1F N 0.34308(14) 0.25543(13) -0.11525(14)
N1M N 0.25543(14) 0.34308(13) -0.11525(14)
C1D C -0.27538 0.00000(18) 0.1835(2)
C1A C -0.27538 -0.27538(18) 0.1835(2)
C1V C 0.00000 -0.27538(18) 0.1835(2)
C1B C 0.27538 0.00000(18) 0.1835(2)
C1C C 0.27538 0.27538(18) 0.1835(2)
C1T C 0.00000 0.27538(18) -0.1835(2)
C1N C -0.27538 0.00000(18) -0.1835(2)
C1O C -0.27538 -0.27538(18) -0.1835(2)
C1G C 0.00000 -0.27538(18) -0.1835(2)
C1E C 0.27538 0.00000(18) -0.1835(2)
C1F C 0.27538 0.27538(18) -0.1835(2)
C2D C -0.39130(11) -0.19565(11) 0.1648(2)
C2A C -0.19565(11) -0.39130(11) 0.1648(2)
C2W C 0.19565(11) -0.19565(11) 0.1648(2)
C2B C 0.39130(11) 0.19565(11) 0.1648(2)
C2C C 0.19565(11) 0.39130(11) 0.1648(2)
C2T C -0.19565(11) 0.19565(11) -0.1648(2)
C2N C -0.39130(11) -0.19565(11) -0.1648(2)
C2G C -0.19565(11) -0.39130(11) -0.1648(2)
C2E C 0.19565(11) -0.19565(11) -0.1648(2)
C2F C 0.39130(11) 0.19565(11) -0.1648(2)
C2M C 0.19565(11) 0.39130(11) -0.1648(2)
H1M H 0.23420 0.46840 -0.14360
H1F H 0.46840 0.23420 -0.14360
H1E H 0.23420 -0.23420 -0.14360
H1G H -0.23420 -0.46840 -0.14360
H1N H -0.46840 -0.23420 -0.14360
H1T H -0.23420 0.23420 -0.14360
H1C H 0.23420 0.46840 0.14360
H1B H 0.46840 0.23420 0.14360
H1W H 0.23420 -0.23420 0.14360
H1A H -0.23420 -0.46840 0.14360
H1D H -0.46840 -0.23420 0.14360
H2M H 0.19240 0.38480 -0.25860
H2F H 0.38480 0.19240 -0.25860
H2E H 0.19240 -0.19240 -0.25860
H2G H -0.19240 -0.38480 -0.25860
H2N H -0.38480 -0.19240 -0.25860
H2T H -0.19240 0.19240 -0.25860
H2C H 0.19240 0.38480 0.25860
H2B H 0.38480 0.19240 0.25860
H2W H 0.19240 -0.19240 0.25860
H2A H -0.19240 -0.38480 0.25860
H2D H -0.38480 -0.19240 0.25860
C3S C 0.0622(2) 0.3791(2) 0.00000
C3C C 0.3169(2) 0.3791(2) 0.00000
C3F C 0.3791(2) 0.3169(2) 0.00000
C3B C 0.3791(2) 0.0622(2) 0.00000
C3E C 0.3169(2) -0.0622(2) 0.00000
C3L C 0.0622(2) -0.3169(2) 0.00000
C3G C -0.0622(2) -0.3791(2) 0.00000
C3A C -0.3169(2) -0.3791(2) 0.00000
C3R C -0.3791(2) -0.3169(2) 0.00000
C3D C -0.3791(2) -0.0622(2) 0.00000
C3Q C -0.3169(2) 0.0622(2) 0.00000
H3F H 0.45830 0.36630 0.00000
H3C H 0.36630 0.45830 0.00000
H3E H 0.36630 -0.09200 0.00000
H3B H 0.45830 0.09200 0.00000
H3G H -0.09200 -0.45830 0.00000
H3L H 0.09200 -0.36630 0.00000
H3R H -0.45830 -0.36630 0.00000
H3A H -0.36630 -0.45830 0.00000
H3Q H -0.36630 0.09200 0.00000
H3D H -0.45830 -0.09200 0.00000
H3S H 0.09200 0.45830 0.00000
#END
