####################################################################### 
# 
# This file contains crystal structure data downloaded from the 
# Cambridge Structural Database (CSD) hosted by the Cambridge 
# Crystallographic Data Centre (CCDC).
# 
# Full information about CCDC data access policies and citation 
# guidelines are available at http://www.ccdc.cam.ac.uk/access/V1 
# 
# Audit and citation data items may have been added by the CCDC. 
# Please retain this information to preserve the provenance of 
# this file and to allow appropriate attribution of the data. 
# 
#######################################################################

data_Co-Eu
_audit_block_doi                 10.5517/cc10rp7p
_database_code_depnum_ccdc_archive 'CCDC 946282'
loop_
_citation_id
_citation_doi
_citation_year
1 10.1002/ejic.201301312 2014
_audit_update_record             
;
2013-06-21 deposited with the CCDC.	2024-07-12 downloaded from the CCDC.
;

_audit_creation_method           SHELXL-97
_chemical_name_systematic        
; 
 ? 
;
_chemical_name_common            ?
_chemical_melting_point          ?
_chemical_formula_moiety         ?
_chemical_formula_sum            'C15 H3 Co3 Eu N9 O15'
_chemical_formula_weight         878.02

loop_
_atom_type_symbol
_atom_type_description
_atom_type_scat_dispersion_real
_atom_type_scat_dispersion_imag
_atom_type_scat_source
C C 0.0033 0.0016 'International Tables Vol C Tables 4.2.6.8 and 6.1.1.4'
H H 0.0000 0.0000 'International Tables Vol C Tables 4.2.6.8 and 6.1.1.4'
Co Co 0.3494 0.9721 'International Tables Vol C Tables 4.2.6.8 and 6.1.1.4'
Eu Eu -0.1578 3.6682 'International Tables Vol C Tables 4.2.6.8 and 6.1.1.4'
N N 0.0061 0.0033 'International Tables Vol C Tables 4.2.6.8 and 6.1.1.4'
O O 0.0106 0.0060 'International Tables Vol C Tables 4.2.6.8 and 6.1.1.4'

_symmetry_cell_setting           hexagonal
_symmetry_space_group_name_H-M   P-62c

loop_
_symmetry_equiv_pos_as_xyz
'x, y, z'
'-x+y, -x, -z+1/2'
'-y, x-y, z'
'x, y, -z+1/2'
'-x+y, -x, z'
'-y, x-y, -z+1/2'
'y, x, z+1/2'
'x-y, -y, -z'
'-x, -x+y, z+1/2'
'y, x, -z'
'x-y, -y, z+1/2'
'-x, -x+y, -z'

_cell_length_a                   14.3460(10)
_cell_length_b                   14.3460(10)
_cell_length_c                   12.5958(9)
_cell_angle_alpha                90.00
_cell_angle_beta                 90.00
_cell_angle_gamma                120.00
_cell_volume                     2245.0(3)
_cell_formula_units_Z            2
_cell_measurement_temperature    123.30(10)
_cell_measurement_reflns_used    1674
_cell_measurement_theta_min      2.8340
_cell_measurement_theta_max      28.9848

_exptl_crystal_description       block
_exptl_crystal_colour            red
_exptl_crystal_size_max          0.16
_exptl_crystal_size_mid          0.14
_exptl_crystal_size_min          0.14
_exptl_crystal_density_meas      ?
_exptl_crystal_density_diffrn    1.299
_exptl_crystal_density_method    'not measured'
_exptl_crystal_F_000             840
_exptl_absorpt_coefficient_mu    2.518
_exptl_absorpt_correction_type   Multi-scan
_exptl_absorpt_correction_T_min  0.75799
_exptl_absorpt_correction_T_max  1.00000
_exptl_absorpt_process_details   CRYSALISPRO

_exptl_special_details           
; 
 ? 
;

_diffrn_ambient_temperature      123.30(10)
_diffrn_radiation_wavelength     0.71073
_diffrn_radiation_type           MoK\a
_diffrn_radiation_source         'SuperNova (Mo) X-ray Source'
_diffrn_radiation_monochromator  graphite
_diffrn_measurement_device_type  'SuperNova, Single source at offset), Eos'
_diffrn_measurement_method       '\w scans'
_diffrn_detector_area_resol_mean 16.2116
_diffrn_standards_number         ?
_diffrn_standards_interval_count ?
_diffrn_standards_interval_time  ?
_diffrn_standards_decay_%        ?
_diffrn_reflns_number            1367
_diffrn_reflns_av_R_equivalents  0.0445
_diffrn_reflns_av_sigmaI/netI    0.0455
_diffrn_reflns_limit_h_min       -8
_diffrn_reflns_limit_h_max       8
_diffrn_reflns_limit_k_min       0
_diffrn_reflns_limit_k_max       17
_diffrn_reflns_limit_l_min       0
_diffrn_reflns_limit_l_max       14
_diffrn_reflns_theta_min         2.84
_diffrn_reflns_theta_max         25.00
_reflns_number_total             1367
_reflns_number_gt                1179
_reflns_threshold_expression     >2sigma(I)

_computing_data_collection       CRYSALISPRO
_computing_cell_refinement       CRYSALISPRO
_computing_data_reduction        CRYSALISPRO
_computing_structure_solution    'SHELXS-97 (Sheldrick, 1990)'
_computing_structure_refinement  'SHELXL-97 (Sheldrick, 1997)'
_computing_molecular_graphics    'Bruker SHELXTL'
_computing_publication_material  'Bruker SHELXTL'

_refine_special_details          
; 
 Refinement of F^2^ against ALL reflections.  The weighted R-factor wR and 
 goodness of fit S are based on F^2^, conventional R-factors R are based 
 on F, with F set to zero for negative F^2^. The threshold expression of 
 F^2^ > 2sigma(F^2^) is used only for calculating R-factors(gt) etc. and is 
 not relevant to the choice of reflections for refinement.  R-factors based 
 on F^2^ are statistically about twice as large as those based on F, and R- 
 factors based on ALL data will be even larger. 
;

_refine_ls_structure_factor_coef Fsqd
_refine_ls_matrix_type           full
_refine_ls_weighting_scheme      calc
_refine_ls_weighting_details     
'calc w=1/[\s^2^(Fo^2^)+(0.0784P)^2^+0.0000P] where P=(Fo^2^+2Fc^2^)/3'
_atom_sites_solution_primary     direct
_atom_sites_solution_secondary   difmap
_atom_sites_solution_hydrogens   geom
_refine_ls_hydrogen_treatment    mixed
_refine_ls_extinction_method     none
_refine_ls_extinction_coef       ?
_refine_ls_abs_structure_details 'Flack H D (1983), Acta Cryst. A39, 876-881'
_refine_ls_abs_structure_Flack   0.0(6)
_refine_ls_number_reflns         1367
_refine_ls_number_parameters     74
_refine_ls_number_restraints     18
_refine_ls_R_factor_all          0.0563
_refine_ls_R_factor_gt           0.0494
_refine_ls_wR_factor_ref         0.1248
_refine_ls_wR_factor_gt          0.1220
_refine_ls_goodness_of_fit_ref   1.059
_refine_ls_restrained_S_all      1.089
_refine_ls_shift/su_max          0.000
_refine_ls_shift/su_mean         0.000

loop_
_atom_site_label
_atom_site_type_symbol
_atom_site_fract_x
_atom_site_fract_y
_atom_site_fract_z
_atom_site_U_iso_or_equiv
_atom_site_adp_type
_atom_site_occupancy
_atom_site_symmetry_multiplicity
_atom_site_calc_flag
_atom_site_refinement_flags
_atom_site_disorder_assembly
_atom_site_disorder_group
Eu1 Eu 0.3333 0.6667 0.2500 0.0352(3) Uani 1 6 d S . .
Co1 Co 0.75337(10) 0.75337(10) 0.5000 0.0312(4) Uani 1 2 d S . .
O3 O 0.9146(10) 0.7847(11) 0.4990(8) 0.053(4) Uani 0.50 1 d PU . .
O1 O 0.5878(5) 0.7089(6) 0.4860(4) 0.0459(15) Uani 1 1 d . . .
O2 O 0.4618(6) 0.6821(6) 0.3718(6) 0.0639(19) Uani 1 1 d U . .
N1 N 0.7313(5) 0.7410(5) 0.3348(4) 0.0304(13) Uani 1 1 d . . .
N2 N 0.7886(8) 0.7516(8) 0.2500 0.036(2) Uani 1 2 d S . .
C2 C 0.5556(7) 0.7028(7) 0.3909(6) 0.0357(18) Uani 1 1 d . . .
C3 C 1.0000 0.8559(7) 0.5000 0.025(2) Uani 1 2 d SU . .
H3 H 1.0000 0.9207 0.5000 0.030 Uiso 1 2 calc SR . .
C1 C 0.6321(6) 0.7174(7) 0.3055(6) 0.0313(18) Uani 1 1 d . . .

loop_
_atom_site_aniso_label
_atom_site_aniso_U_11
_atom_site_aniso_U_22
_atom_site_aniso_U_33
_atom_site_aniso_U_23
_atom_site_aniso_U_13
_atom_site_aniso_U_12
Eu1 0.0427(4) 0.0427(4) 0.0201(4) 0.000 0.000 0.02136(18)
Co1 0.0361(6) 0.0361(6) 0.0140(6) 0.0006(3) -0.0006(3) 0.0126(7)
O3 0.043(5) 0.066(5) 0.040(5) 0.004(4) -0.004(4) 0.019(4)
O1 0.053(4) 0.071(4) 0.019(3) 0.008(3) 0.009(3) 0.036(4)
O2 0.051(3) 0.098(4) 0.045(3) 0.004(3) -0.002(3) 0.038(3)
N1 0.030(3) 0.041(4) 0.020(3) 0.002(3) 0.001(3) 0.017(3)
N2 0.063(6) 0.046(6) 0.010(4) 0.000 0.000 0.036(5)
C2 0.038(4) 0.062(5) 0.013(4) 0.007(4) 0.003(3) 0.029(4)
C3 0.035(4) 0.021(3) 0.024(4) 0.0011(16) 0.002(3) 0.018(2)
C1 0.025(4) 0.042(4) 0.030(4) -0.003(4) -0.004(3) 0.018(4)

_geom_special_details            
; 
 All esds (except the esd in the dihedral angle between two l.s. planes) 
 are estimated using the full covariance matrix.  The cell esds are taken 
 into account individually in the estimation of esds in distances, angles 
 and torsion angles; correlations between esds in cell parameters are only 
 used when they are defined by crystal symmetry.  An approximate (isotropic) 
 treatment of cell esds is used for estimating esds involving l.s. planes. 
;

loop_
_geom_bond_atom_site_label_1
_geom_bond_atom_site_label_2
_geom_bond_distance
_geom_bond_site_symmetry_2
_geom_bond_publ_flag
Eu1 O2 2.322(7) 3_665 ?
Eu1 O2 2.322(7) 6_665 ?
Eu1 O2 2.322(7) . ?
Eu1 O2 2.322(7) 2_565 ?
Eu1 O2 2.322(7) 5_565 ?
Eu1 O2 2.322(7) 4 ?
Co1 N1 2.099(6) 10_556 ?
Co1 N1 2.099(6) . ?
Co1 O3 2.124(13) . ?
Co1 O3 2.124(13) 10_556 ?
Co1 O1 2.137(6) 10_556 ?
Co1 O1 2.137(6) . ?
O3 C3 1.137(13) . ?
O1 C2 1.270(9) . ?
O2 C2 1.248(10) . ?
N1 N2 1.310(8) . ?
N1 C1 1.341(9) . ?
N2 N1 1.310(8) 4 ?
C2 C1 1.475(10) . ?
C3 O3 1.137(13) 12_766 ?
C3 H3 0.9300 . ?
C1 C1 1.398(16) 4 ?

loop_
_geom_angle_atom_site_label_1
_geom_angle_atom_site_label_2
_geom_angle_atom_site_label_3
_geom_angle
_geom_angle_site_symmetry_1
_geom_angle_site_symmetry_3
_geom_angle_publ_flag
O2 Eu1 O2 82.7(4) 3_665 6_665 ?
O2 Eu1 O2 81.1(3) 3_665 . ?
O2 Eu1 O2 135.91(14) 6_665 . ?
O2 Eu1 O2 135.91(14) 3_665 2_565 ?
O2 Eu1 O2 81.1(3) 6_665 2_565 ?
O2 Eu1 O2 135.91(14) . 2_565 ?
O2 Eu1 O2 81.1(3) 3_665 5_565 ?
O2 Eu1 O2 135.91(14) 6_665 5_565 ?
O2 Eu1 O2 81.1(3) . 5_565 ?
O2 Eu1 O2 82.7(4) 2_565 5_565 ?
O2 Eu1 O2 135.91(14) 3_665 4 ?
O2 Eu1 O2 81.1(3) 6_665 4 ?
O2 Eu1 O2 82.7(4) . 4 ?
O2 Eu1 O2 81.1(3) 2_565 4 ?
O2 Eu1 O2 135.92(13) 5_565 4 ?
N1 Co1 N1 166.5(4) 10_556 . ?
N1 Co1 O3 92.2(3) 10_556 . ?
N1 Co1 O3 96.6(3) . . ?
N1 Co1 O3 96.6(3) 10_556 10_556 ?
N1 Co1 O3 92.2(3) . 10_556 ?
O3 Co1 O3 98.9(8) . 10_556 ?
N1 Co1 O1 78.2(2) 10_556 10_556 ?
N1 Co1 O1 92.3(2) . 10_556 ?
O3 Co1 O1 85.6(4) . 10_556 ?
O3 Co1 O1 173.2(4) 10_556 10_556 ?
N1 Co1 O1 92.3(2) 10_556 . ?
N1 Co1 O1 78.2(2) . . ?
O3 Co1 O1 173.2(4) . . ?
O3 Co1 O1 85.6(4) 10_556 . ?
O1 Co1 O1 90.4(4) 10_556 . ?
C3 O3 Co1 139.4(11) . . ?
C2 O1 Co1 114.2(5) . . ?
C2 O2 Eu1 149.3(6) . . ?
N2 N1 C1 109.3(6) . . ?
N2 N1 Co1 137.7(5) . . ?
C1 N1 Co1 113.0(5) . . ?
N1 N2 N1 109.3(9) 4 . ?
O2 C2 O1 120.6(7) . . ?
O2 C2 C1 122.0(7) . . ?
O1 C2 C1 117.3(7) . . ?
O3 C3 O3 137.8(16) . 12_766 ?
O3 C3 H3 111.1 . . ?
O3 C3 H3 111.1 12_766 . ?
N1 C1 C1 106.0(4) . 4 ?
N1 C1 C2 117.1(7) . . ?
C1 C1 C2 136.9(4) 4 . ?

loop_
_geom_torsion_atom_site_label_1
_geom_torsion_atom_site_label_2
_geom_torsion_atom_site_label_3
_geom_torsion_atom_site_label_4
_geom_torsion
_geom_torsion_site_symmetry_1
_geom_torsion_site_symmetry_2
_geom_torsion_site_symmetry_3
_geom_torsion_site_symmetry_4
_geom_torsion_publ_flag
N1 Co1 O3 C3 -95.9(11) 10_556 . . . ?
N1 Co1 O3 C3 94.3(11) . . . . ?
O3 Co1 O3 C3 1.1(8) 10_556 . . . ?
O1 Co1 O3 C3 -173.9(11) 10_556 . . . ?
O1 Co1 O3 C3 133(3) . . . . ?
N1 Co1 O1 C2 -174.6(7) 10_556 . . . ?
N1 Co1 O1 C2 -4.2(7) . . . . ?
O3 Co1 O1 C2 -43(3) . . . . ?
O3 Co1 O1 C2 89.0(7) 10_556 . . . ?
O1 Co1 O1 C2 -96.4(7) 10_556 . . . ?
O2 Eu1 O2 C2 -127.5(15) 3_665 . . . ?
O2 Eu1 O2 C2 -57.8(14) 6_665 . . . ?
O2 Eu1 O2 C2 80.4(15) 2_565 . . . ?
O2 Eu1 O2 C2 150.2(14) 5_565 . . . ?
O2 Eu1 O2 C2 11.3(14) 4 . . . ?
N1 Co1 N1 N2 -133.3(9) 10_556 . . . ?
O3 Co1 N1 N2 -3.1(10) . . . . ?
O3 Co1 N1 N2 96.1(10) 10_556 . . . ?
O1 Co1 N1 N2 -88.9(9) 10_556 . . . ?
O1 Co1 N1 N2 -178.8(9) . . . . ?
N1 Co1 N1 C1 48.0(5) 10_556 . . . ?
O3 Co1 N1 C1 178.2(7) . . . . ?
O3 Co1 N1 C1 -82.6(7) 10_556 . . . ?
O1 Co1 N1 C1 92.3(6) 10_556 . . . ?
O1 Co1 N1 C1 2.4(6) . . . . ?
C1 N1 N2 N1 3.3(12) . . . 4 ?
Co1 N1 N2 N1 -175.5(2) . . . 4 ?
Eu1 O2 C2 O1 172.1(8) . . . . ?
Eu1 O2 C2 C1 -10.1(19) . . . . ?
Co1 O1 C2 O2 -176.9(7) . . . . ?
Co1 O1 C2 C1 5.1(11) . . . . ?
Co1 O3 C3 O3 178.5(12) . . . 12_766 ?
N2 N1 C1 C1 -2.0(7) . . . 4 ?
Co1 N1 C1 C1 177.1(2) . . . 4 ?
N2 N1 C1 C2 -179.8(8) . . . . ?
Co1 N1 C1 C2 -0.7(9) . . . . ?
O2 C2 C1 N1 179.0(9) . . . . ?
O1 C2 C1 N1 -3.0(12) . . . . ?
O2 C2 C1 C1 2.1(13) . . . 4 ?
O1 C2 C1 C1 180.0(5) . . . 4 ?

_diffrn_measured_fraction_theta_max 0.985
_diffrn_reflns_theta_full        25.00
_diffrn_measured_fraction_theta_full 0.985
_refine_diff_density_max         1.206
_refine_diff_density_min         -0.831
_refine_diff_density_rms         0.138

# SQUEEZE RESULTS (APPEND TO CIF)
# Note: Data are Listed for all Voids in the P1 Unit Cell
# i.e. Centre of Gravity, Solvent Accessible Volume,
# Recovered number of Electrons in the Void and
# Details about the Squeezed Material
loop_
_platon_squeeze_void_nr
_platon_squeeze_void_average_x
_platon_squeeze_void_average_y
_platon_squeeze_void_average_z
_platon_squeeze_void_volume
_platon_squeeze_void_count_electrons
_platon_squeeze_void_content
1 0.017 0.541 -0.009 1152 119 ' '
_platon_squeeze_details          
;
;
