####################################################################### 
# 
# This file contains crystal structure data downloaded from the 
# Cambridge Structural Database (CSD) hosted by the Cambridge 
# Crystallographic Data Centre (CCDC).
# 
# Full information about CCDC data access policies and citation 
# guidelines are available at http://www.ccdc.cam.ac.uk/access/V1 
# 
# Audit and citation data items may have been added by the CCDC. 
# Please retain this information to preserve the provenance of 
# this file and to allow appropriate attribution of the data. 
# 
#######################################################################

data_Co-Gd
_audit_block_doi                 10.5517/cc10rp8q
_database_code_depnum_ccdc_archive 'CCDC 946283'
loop_
_citation_id
_citation_doi
_citation_year
1 10.1002/ejic.201301312 2014
_audit_update_record             
;
2013-06-21 deposited with the CCDC.	2024-07-12 downloaded from the CCDC.
;

_audit_creation_method           SHELXL-97
_chemical_name_systematic        
; 
 ? 
;
_chemical_name_common            ?
_chemical_melting_point          ?
_chemical_formula_moiety         ?
_chemical_formula_sum            'C15 H3 Co3 Gd N9 O15'
_chemical_formula_weight         883.30

loop_
_atom_type_symbol
_atom_type_description
_atom_type_scat_dispersion_real
_atom_type_scat_dispersion_imag
_atom_type_scat_source
C C 0.0033 0.0016 'International Tables Vol C Tables 4.2.6.8 and 6.1.1.4'
H H 0.0000 0.0000 'International Tables Vol C Tables 4.2.6.8 and 6.1.1.4'
Co Co 0.3494 0.9721 'International Tables Vol C Tables 4.2.6.8 and 6.1.1.4'
Gd Gd -0.1892 4.4098 'International Tables Vol C Tables 4.2.6.8 and 6.1.1.4'
N N 0.0061 0.0033 'International Tables Vol C Tables 4.2.6.8 and 6.1.1.4'
O O 0.0106 0.0060 'International Tables Vol C Tables 4.2.6.8 and 6.1.1.4'

_symmetry_cell_setting           hexagonal
_symmetry_space_group_name_H-M   P-62c

loop_
_symmetry_equiv_pos_as_xyz
'x, y, z'
'-x+y, -x, -z+1/2'
'-y, x-y, z'
'x, y, -z+1/2'
'-x+y, -x, z'
'-y, x-y, -z+1/2'
'y, x, z+1/2'
'x-y, -y, -z'
'-x, -x+y, z+1/2'
'y, x, -z'
'x-y, -y, z+1/2'
'-x, -x+y, -z'

_cell_length_a                   14.3327(10)
_cell_length_b                   14.3327(10)
_cell_length_c                   12.5871(9)
_cell_angle_alpha                90.00
_cell_angle_beta                 90.00
_cell_angle_gamma                120.00
_cell_volume                     2239.3(3)
_cell_formula_units_Z            2
_cell_measurement_temperature    125.05(10)
_cell_measurement_reflns_used    2091
_cell_measurement_theta_min      2.8366
_cell_measurement_theta_max      29.0735

_exptl_crystal_description       block
_exptl_crystal_colour            red
_exptl_crystal_size_max          0.16
_exptl_crystal_size_mid          0.13
_exptl_crystal_size_min          0.13
_exptl_crystal_density_meas      ?
_exptl_crystal_density_diffrn    1.318
_exptl_crystal_density_method    'not measured'
_exptl_crystal_F_000             846
_exptl_absorpt_coefficient_mu    2.605
_exptl_absorpt_correction_type   Multi-scan
_exptl_absorpt_correction_T_min  0.67088
_exptl_absorpt_correction_T_max  1.00000
_exptl_absorpt_process_details   CRYSALISPRO

_exptl_special_details           
; 
 ? 
;

_diffrn_ambient_temperature      125.05(10)
_diffrn_radiation_wavelength     0.71073
_diffrn_radiation_type           MoK\a
_diffrn_radiation_source         'SuperNova (Mo) X-ray Source'
_diffrn_radiation_monochromator  graphite
_diffrn_measurement_device_type  'SuperNova, Single source at offset), Eos'
_diffrn_measurement_method       '\w scans'
_diffrn_detector_area_resol_mean 16.2116
_diffrn_standards_number         ?
_diffrn_standards_interval_count ?
_diffrn_standards_interval_time  ?
_diffrn_standards_decay_%        ?
_diffrn_reflns_number            1105
_diffrn_reflns_av_R_equivalents  0.0551
_diffrn_reflns_av_sigmaI/netI    0.0442
_diffrn_reflns_limit_h_min       -6
_diffrn_reflns_limit_h_max       8
_diffrn_reflns_limit_k_min       0
_diffrn_reflns_limit_k_max       16
_diffrn_reflns_limit_l_min       0
_diffrn_reflns_limit_l_max       14
_diffrn_reflns_theta_min         2.84
_diffrn_reflns_theta_max         25.01
_reflns_number_total             1105
_reflns_number_gt                980
_reflns_threshold_expression     >2sigma(I)

_computing_data_collection       CRYSALISPRO
_computing_cell_refinement       CRYSALISPRO
_computing_data_reduction        CRYSALISPRO
_computing_structure_solution    'SHELXS-97 (Sheldrick, 1990)'
_computing_structure_refinement  'SHELXL-97 (Sheldrick, 1997)'
_computing_molecular_graphics    'Bruker SHELXTL'
_computing_publication_material  'Bruker SHELXTL'

_refine_special_details          
; 
 Refinement of F^2^ against ALL reflections.  The weighted R-factor wR and 
 goodness of fit S are based on F^2^, conventional R-factors R are based 
 on F, with F set to zero for negative F^2^. The threshold expression of 
 F^2^ > 2sigma(F^2^) is used only for calculating R-factors(gt) etc. and is 
 not relevant to the choice of reflections for refinement.  R-factors based 
 on F^2^ are statistically about twice as large as those based on F, and R- 
 factors based on ALL data will be even larger. 
;

_refine_ls_structure_factor_coef Fsqd
_refine_ls_matrix_type           full
_refine_ls_weighting_scheme      calc
_refine_ls_weighting_details     
'calc w=1/[\s^2^(Fo^2^)+(0.0858P)^2^+0.0000P] where P=(Fo^2^+2Fc^2^)/3'
_atom_sites_solution_primary     direct
_atom_sites_solution_secondary   difmap
_atom_sites_solution_hydrogens   geom
_refine_ls_hydrogen_treatment    mixed
_refine_ls_extinction_method     none
_refine_ls_extinction_coef       ?
_refine_ls_abs_structure_details 'Flack H D (1983), Acta Cryst. A39, 876-881'
_refine_ls_abs_structure_Flack   0.00(11)
_refine_ls_number_reflns         1105
_refine_ls_number_parameters     74
_refine_ls_number_restraints     36
_refine_ls_R_factor_all          0.0545
_refine_ls_R_factor_gt           0.0501
_refine_ls_wR_factor_ref         0.1286
_refine_ls_wR_factor_gt          0.1265
_refine_ls_goodness_of_fit_ref   1.080
_refine_ls_restrained_S_all      1.111
_refine_ls_shift/su_max          0.000
_refine_ls_shift/su_mean         0.000

loop_
_atom_site_label
_atom_site_type_symbol
_atom_site_fract_x
_atom_site_fract_y
_atom_site_fract_z
_atom_site_U_iso_or_equiv
_atom_site_adp_type
_atom_site_occupancy
_atom_site_symmetry_multiplicity
_atom_site_calc_flag
_atom_site_refinement_flags
_atom_site_disorder_assembly
_atom_site_disorder_group
Gd1 Gd 0.3333 0.6667 0.2500 0.0315(3) Uani 1 6 d S . .
Co1 Co 0.75309(12) 0.75309(12) 0.5000 0.0233(4) Uani 1 2 d S . .
O3 O 0.9162(11) 0.7830(12) 0.5000(6) 0.036(3) Uani 0.50 1 d PU . .
O1 O 0.5894(6) 0.7097(6) 0.4854(4) 0.0390(16) Uani 1 1 d . . .
O2 O 0.4575(6) 0.6771(6) 0.3714(5) 0.058(2) Uani 1 1 d U . .
N1 N 0.7303(6) 0.7418(6) 0.3352(4) 0.0227(15) Uani 1 1 d . . .
N2 N 0.7890(8) 0.7517(8) 0.2500 0.023(2) Uani 1 2 d SU . .
C2 C 0.5548(7) 0.7007(8) 0.3913(5) 0.0254(18) Uani 1 1 d U . .
C3 C 1.0000 0.8542(8) 0.5000 0.014(2) Uani 1 2 d SU . .
H3 H 1.0000 0.9191 0.5000 0.017 Uiso 1 2 calc SR . .
C1 C 0.6328(7) 0.7164(8) 0.3077(6) 0.0248(18) Uani 1 1 d U . .

loop_
_atom_site_aniso_label
_atom_site_aniso_U_11
_atom_site_aniso_U_22
_atom_site_aniso_U_33
_atom_site_aniso_U_23
_atom_site_aniso_U_13
_atom_site_aniso_U_12
Gd1 0.0396(4) 0.0396(4) 0.0153(4) 0.000 0.000 0.0198(2)
Co1 0.0287(7) 0.0287(7) 0.0062(6) 0.0006(3) -0.0006(3) 0.0096(8)
O3 0.028(5) 0.048(5) 0.028(4) 0.003(3) -0.005(3) 0.016(4)
O1 0.051(4) 0.063(5) 0.008(2) 0.006(3) 0.004(2) 0.032(4)
O2 0.044(4) 0.118(7) 0.019(3) 0.006(3) 0.003(3) 0.047(4)
N1 0.020(4) 0.032(4) 0.011(3) 0.000(2) -0.001(2) 0.009(4)
N2 0.031(4) 0.022(4) 0.011(3) 0.000 0.000 0.009(3)
C2 0.027(4) 0.038(4) 0.011(3) 0.003(3) -0.003(3) 0.015(3)
C3 0.022(4) 0.012(3) 0.011(3) -0.0008(14) -0.002(3) 0.011(2)
C1 0.028(4) 0.032(4) 0.013(3) -0.001(3) -0.004(3) 0.014(3)

_geom_special_details            
; 
 All esds (except the esd in the dihedral angle between two l.s. planes) 
 are estimated using the full covariance matrix.  The cell esds are taken 
 into account individually in the estimation of esds in distances, angles 
 and torsion angles; correlations between esds in cell parameters are only 
 used when they are defined by crystal symmetry.  An approximate (isotropic) 
 treatment of cell esds is used for estimating esds involving l.s. planes. 
;

loop_
_geom_bond_atom_site_label_1
_geom_bond_atom_site_label_2
_geom_bond_distance
_geom_bond_site_symmetry_2
_geom_bond_publ_flag
Gd1 O2 2.293(7) 3_665 ?
Gd1 O2 2.293(7) 6_665 ?
Gd1 O2 2.293(7) 2_565 ?
Gd1 O2 2.293(7) 5_565 ?
Gd1 O2 2.293(7) . ?
Gd1 O2 2.293(7) 4 ?
Co1 N1 2.094(5) . ?
Co1 N1 2.094(5) 10_556 ?
Co1 O1 2.112(7) 10_556 ?
Co1 O1 2.112(7) . ?
Co1 O3 2.156(13) . ?
Co1 O3 2.156(13) 10_556 ?
O3 C3 1.122(14) . ?
O1 C2 1.265(9) . ?
O2 C2 1.284(11) . ?
N1 C1 1.302(11) . ?
N1 N2 1.326(9) . ?
N2 N1 1.326(9) 4 ?
C2 C1 1.469(11) . ?
C3 O3 1.122(14) 12_766 ?
C3 H3 0.9300 . ?
C1 C1 1.452(15) 4 ?

loop_
_geom_angle_atom_site_label_1
_geom_angle_atom_site_label_2
_geom_angle_atom_site_label_3
_geom_angle
_geom_angle_site_symmetry_1
_geom_angle_site_symmetry_3
_geom_angle_publ_flag
O2 Gd1 O2 83.6(4) 3_665 6_665 ?
O2 Gd1 O2 136.21(13) 3_665 2_565 ?
O2 Gd1 O2 80.5(3) 6_665 2_565 ?
O2 Gd1 O2 80.5(3) 3_665 5_565 ?
O2 Gd1 O2 136.21(13) 6_665 5_565 ?
O2 Gd1 O2 83.6(4) 2_565 5_565 ?
O2 Gd1 O2 80.5(3) 3_665 . ?
O2 Gd1 O2 136.21(13) 6_665 . ?
O2 Gd1 O2 136.22(13) 2_565 . ?
O2 Gd1 O2 80.5(3) 5_565 . ?
O2 Gd1 O2 136.21(13) 3_665 4 ?
O2 Gd1 O2 80.5(3) 6_665 4 ?
O2 Gd1 O2 80.5(3) 2_565 4 ?
O2 Gd1 O2 136.21(13) 5_565 4 ?
O2 Gd1 O2 83.6(4) . 4 ?
N1 Co1 N1 166.6(4) . 10_556 ?
N1 Co1 O1 93.0(2) . 10_556 ?
N1 Co1 O1 77.5(2) 10_556 10_556 ?
N1 Co1 O1 77.5(2) . . ?
N1 Co1 O1 93.0(2) 10_556 . ?
O1 Co1 O1 90.8(4) 10_556 . ?
N1 Co1 O3 97.3(3) . . ?
N1 Co1 O3 91.3(3) 10_556 . ?
O1 Co1 O3 84.8(4) 10_556 . ?
O1 Co1 O3 173.0(4) . . ?
N1 Co1 O3 91.3(3) . 10_556 ?
N1 Co1 O3 97.3(3) 10_556 10_556 ?
O1 Co1 O3 173.0(4) 10_556 10_556 ?
O1 Co1 O3 84.8(4) . 10_556 ?
O3 Co1 O3 100.2(8) . 10_556 ?
C3 O3 Co1 137.9(12) . . ?
C2 O1 Co1 115.7(5) . . ?
C2 O2 Gd1 148.5(5) . . ?
C1 N1 N2 110.5(6) . . ?
C1 N1 Co1 112.9(5) . . ?
N2 N1 Co1 136.6(6) . . ?
N1 N2 N1 107.9(9) . 4 ?
O1 C2 O2 121.9(7) . . ?
O1 C2 C1 115.2(8) . . ?
O2 C2 C1 122.9(7) . . ?
O3 C3 O3 135.9(18) 12_766 . ?
O3 C3 H3 112.0 12_766 . ?
O3 C3 H3 112.0 . . ?
N1 C1 C1 105.4(4) . 4 ?
N1 C1 C2 118.7(6) . . ?
C1 C1 C2 135.8(4) 4 . ?

loop_
_geom_torsion_atom_site_label_1
_geom_torsion_atom_site_label_2
_geom_torsion_atom_site_label_3
_geom_torsion_atom_site_label_4
_geom_torsion
_geom_torsion_site_symmetry_1
_geom_torsion_site_symmetry_2
_geom_torsion_site_symmetry_3
_geom_torsion_site_symmetry_4
_geom_torsion_publ_flag
N1 Co1 O3 C3 92.7(9) . . . . ?
N1 Co1 O3 C3 -97.6(9) 10_556 . . . ?
O1 Co1 O3 C3 -174.9(9) 10_556 . . . ?
O1 Co1 O3 C3 134(3) . . . . ?
O3 Co1 O3 C3 0.0(7) 10_556 . . . ?
N1 Co1 O1 C2 -2.2(7) . . . . ?
N1 Co1 O1 C2 -172.6(7) 10_556 . . . ?
O1 Co1 O1 C2 -95.1(8) 10_556 . . . ?
O3 Co1 O1 C2 -45(3) . . . . ?
O3 Co1 O1 C2 90.3(7) 10_556 . . . ?
O2 Gd1 O2 C2 -121.9(16) 3_665 . . . ?
O2 Gd1 O2 C2 -51.8(16) 6_665 . . . ?
O2 Gd1 O2 C2 86.2(16) 2_565 . . . ?
O2 Gd1 O2 C2 156.3(16) 5_565 . . . ?
O2 Gd1 O2 C2 17.2(16) 4 . . . ?
N1 Co1 N1 C1 46.5(6) 10_556 . . . ?
O1 Co1 N1 C1 90.9(7) 10_556 . . . ?
O1 Co1 N1 C1 0.8(7) . . . . ?
O3 Co1 N1 C1 176.0(8) . . . . ?
O3 Co1 N1 C1 -83.6(7) 10_556 . . . ?
N1 Co1 N1 N2 -131.9(10) 10_556 . . . ?
O1 Co1 N1 N2 -87.5(10) 10_556 . . . ?
O1 Co1 N1 N2 -177.6(10) . . . . ?
O3 Co1 N1 N2 -2.4(10) . . . . ?
O3 Co1 N1 N2 98.0(11) 10_556 . . . ?
C1 N1 N2 N1 5.6(13) . . . 4 ?
Co1 N1 N2 N1 -176.0(2) . . . 4 ?
Co1 O1 C2 O2 -178.4(8) . . . . ?
Co1 O1 C2 C1 3.1(11) . . . . ?
Gd1 O2 C2 O1 166.6(9) . . . . ?
Gd1 O2 C2 C1 -15(2) . . . . ?
Co1 O3 C3 O3 179.9(9) . . . 12_766 ?
N2 N1 C1 C1 -3.4(8) . . . 4 ?
Co1 N1 C1 C1 177.8(3) . . . 4 ?
N2 N1 C1 C2 179.4(9) . . . . ?
Co1 N1 C1 C2 0.6(11) . . . . ?
O1 C2 C1 N1 -2.5(13) . . . . ?
O2 C2 C1 N1 179.0(10) . . . . ?
O1 C2 C1 C1 -178.7(5) . . . 4 ?
O2 C2 C1 C1 2.9(14) . . . 4 ?

_diffrn_measured_fraction_theta_max 0.981
_diffrn_reflns_theta_full        25.01
_diffrn_measured_fraction_theta_full 0.981
_refine_diff_density_max         1.563
_refine_diff_density_min         -0.715
_refine_diff_density_rms         0.157

# SQUEEZE RESULTS (APPEND TO CIF)
# Note: Data are Listed for all Voids in the P1 Unit Cell
# i.e. Centre of Gravity, Solvent Accessible Volume,
# Recovered number of Electrons in the Void and
# Details about the Squeezed Material
loop_
_platon_squeeze_void_nr
_platon_squeeze_void_average_x
_platon_squeeze_void_average_y
_platon_squeeze_void_average_z
_platon_squeeze_void_volume
_platon_squeeze_void_count_electrons
_platon_squeeze_void_content
1 0.018 0.541 -0.009 1158 148 ' '
_platon_squeeze_details          
;
;
