####################################################################### 
# 
# This file contains crystal structure data downloaded from the 
# Cambridge Structural Database (CSD) hosted by the Cambridge 
# Crystallographic Data Centre (CCDC).
# 
# Full information about CCDC data access policies and citation 
# guidelines are available at http://www.ccdc.cam.ac.uk/access/V1 
# 
# Audit and citation data items may have been added by the CCDC. 
# Please retain this information to preserve the provenance of 
# this file and to allow appropriate attribution of the data. 
# 
#######################################################################

data_Co-Tb
_audit_block_doi                 10.5517/cc10rp9r
_database_code_depnum_ccdc_archive 'CCDC 946284'
loop_
_citation_id
_citation_doi
_citation_year
1 10.1002/ejic.201301312 2014
_audit_update_record             
;
2013-06-21 deposited with the CCDC.	2024-07-12 downloaded from the CCDC.
;

_audit_creation_method           SHELXL-97
_chemical_name_systematic        
; 
 ? 
;
_chemical_name_common            ?
_chemical_melting_point          ?
_chemical_formula_moiety         ?
_chemical_formula_sum            'C15 H3 Co3 N9 O15 Tb'
_chemical_formula_weight         884.98

loop_
_atom_type_symbol
_atom_type_description
_atom_type_scat_dispersion_real
_atom_type_scat_dispersion_imag
_atom_type_scat_source
C C 0.0033 0.0016 'International Tables Vol C Tables 4.2.6.8 and 6.1.1.4'
H H 0.0000 0.0000 'International Tables Vol C Tables 4.2.6.8 and 6.1.1.4'
Co Co 0.3494 0.9721 'International Tables Vol C Tables 4.2.6.8 and 6.1.1.4'
N N 0.0061 0.0033 'International Tables Vol C Tables 4.2.6.8 and 6.1.1.4'
O O 0.0106 0.0060 'International Tables Vol C Tables 4.2.6.8 and 6.1.1.4'
Tb Tb -0.1892 4.4098 'International Tables Vol C Tables 4.2.6.8 and 6.1.1.4'

_symmetry_cell_setting           hexagonal
_symmetry_space_group_name_H-M   P-62c

loop_
_symmetry_equiv_pos_as_xyz
'x, y, z'
'-x+y, -x, -z+1/2'
'-y, x-y, z'
'x, y, -z+1/2'
'-x+y, -x, z'
'-y, x-y, -z+1/2'
'y, x, z+1/2'
'x-y, -y, -z'
'-x, -x+y, z+1/2'
'y, x, -z'
'x-y, -y, z+1/2'
'-x, -x+y, -z'

_cell_length_a                   14.2981(10)
_cell_length_b                   14.2981(10)
_cell_length_c                   12.5872(9)
_cell_angle_alpha                90.00
_cell_angle_beta                 90.00
_cell_angle_gamma                120.00
_cell_volume                     2228.5(3)
_cell_formula_units_Z            2
_cell_measurement_temperature    125.35(10)
_cell_measurement_reflns_used    1665
_cell_measurement_theta_min      2.8435
_cell_measurement_theta_max      29.1888

_exptl_crystal_description       block
_exptl_crystal_colour            red
_exptl_crystal_size_max          0.16
_exptl_crystal_size_mid          0.14
_exptl_crystal_size_min          0.14
_exptl_crystal_density_meas      ?
_exptl_crystal_density_diffrn    1.324
_exptl_crystal_density_method    'not measured'
_exptl_crystal_F_000             846
_exptl_absorpt_coefficient_mu    2.806
_exptl_absorpt_correction_type   Multi-scan
_exptl_absorpt_correction_T_min  0.52801
_exptl_absorpt_correction_T_max  1.00000
_exptl_absorpt_process_details   CRYSALISPRO

_exptl_special_details           
; 
 ? 
;

_diffrn_ambient_temperature      125.35(10)
_diffrn_radiation_wavelength     0.71073
_diffrn_radiation_type           MoK\a
_diffrn_radiation_source         'SuperNova (Mo) X-ray Source'
_diffrn_radiation_monochromator  graphite
_diffrn_measurement_device_type  'SuperNova, Single source at offset), Eos'
_diffrn_measurement_method       'SuperNova, Single source at offset), Eos'
_diffrn_detector_area_resol_mean 16.2116
_diffrn_standards_number         ?
_diffrn_standards_interval_count ?
_diffrn_standards_interval_time  ?
_diffrn_standards_decay_%        ?
_diffrn_reflns_number            1354
_diffrn_reflns_av_R_equivalents  0.0452
_diffrn_reflns_av_sigmaI/netI    0.0457
_diffrn_reflns_limit_h_min       -8
_diffrn_reflns_limit_h_max       8
_diffrn_reflns_limit_k_min       0
_diffrn_reflns_limit_k_max       17
_diffrn_reflns_limit_l_min       0
_diffrn_reflns_limit_l_max       14
_diffrn_reflns_theta_min         2.85
_diffrn_reflns_theta_max         25.01
_reflns_number_total             1354
_reflns_number_gt                1187
_reflns_threshold_expression     >2sigma(I)

_computing_data_collection       CRYSALISPRO
_computing_cell_refinement       CRYSALISPRO
_computing_data_reduction        CRYSALISPRO
_computing_structure_solution    'SHELXS-97 (Sheldrick, 1990)'
_computing_structure_refinement  'SHELXL-97 (Sheldrick, 1997)'
_computing_molecular_graphics    'Bruker SHELXTL'
_computing_publication_material  'Bruker SHELXTL'

_refine_special_details          
; 
 Refinement of F^2^ against ALL reflections.  The weighted R-factor wR and 
 goodness of fit S are based on F^2^, conventional R-factors R are based 
 on F, with F set to zero for negative F^2^. The threshold expression of 
 F^2^ > 2sigma(F^2^) is used only for calculating R-factors(gt) etc. and is 
 not relevant to the choice of reflections for refinement.  R-factors based 
 on F^2^ are statistically about twice as large as those based on F, and R- 
 factors based on ALL data will be even larger. 
;

_refine_ls_structure_factor_coef Fsqd
_refine_ls_matrix_type           full
_refine_ls_weighting_scheme      calc
_refine_ls_weighting_details     
'calc w=1/[\s^2^(Fo^2^)+(0.0886P)^2^+0.0000P] where P=(Fo^2^+2Fc^2^)/3'
_atom_sites_solution_primary     direct
_atom_sites_solution_secondary   difmap
_atom_sites_solution_hydrogens   geom
_refine_ls_hydrogen_treatment    mixed
_refine_ls_extinction_method     none
_refine_ls_extinction_coef       ?
_refine_ls_abs_structure_details 'Flack H D (1983), Acta Cryst. A39, 876-881'
_refine_ls_abs_structure_Flack   0.00(12)
_refine_ls_number_reflns         1354
_refine_ls_number_parameters     74
_refine_ls_number_restraints     12
_refine_ls_R_factor_all          0.0566
_refine_ls_R_factor_gt           0.0502
_refine_ls_wR_factor_ref         0.1313
_refine_ls_wR_factor_gt          0.1280
_refine_ls_goodness_of_fit_ref   1.051
_refine_ls_restrained_S_all      1.056
_refine_ls_shift/su_max          0.000
_refine_ls_shift/su_mean         0.000

loop_
_atom_site_label
_atom_site_type_symbol
_atom_site_fract_x
_atom_site_fract_y
_atom_site_fract_z
_atom_site_U_iso_or_equiv
_atom_site_adp_type
_atom_site_occupancy
_atom_site_symmetry_multiplicity
_atom_site_calc_flag
_atom_site_refinement_flags
_atom_site_disorder_assembly
_atom_site_disorder_group
Tb1 Tb 0.3333 0.6667 0.2500 0.0309(3) Uani 1 6 d S . .
Co1 Co 0.75249(11) 0.75249(11) 0.5000 0.0260(4) Uani 1 2 d S . .
O3 O 0.9115(8) 0.7761(9) 0.4987(6) 0.025(2) Uani 0.50 1 d PU . .
O1 O 0.5862(5) 0.7075(6) 0.4835(4) 0.0361(14) Uani 1 1 d . . .
O2 O 0.4610(6) 0.6815(6) 0.3702(5) 0.059(2) Uani 1 1 d U . .
N1 N 0.7310(5) 0.7403(6) 0.3350(4) 0.0282(14) Uani 1 1 d . . .
N2 N 0.7862(9) 0.7526(8) 0.2500 0.035(2) Uani 1 2 d S . .
C2 C 0.5547(6) 0.6998(7) 0.3915(6) 0.0302(18) Uani 1 1 d . . .
C3 C 1.0000 0.8547(7) 0.5000 0.028(3) Uani 1 2 d S . .
H3 H 1.0000 0.9198 0.5000 0.034 Uiso 1 2 calc SR . .
C1 C 0.6324(7) 0.7181(7) 0.3064(6) 0.0280(17) Uani 1 1 d . . .

loop_
_atom_site_aniso_label
_atom_site_aniso_U_11
_atom_site_aniso_U_22
_atom_site_aniso_U_33
_atom_site_aniso_U_23
_atom_site_aniso_U_13
_atom_site_aniso_U_12
Tb1 0.0376(4) 0.0376(4) 0.0174(4) 0.000 0.000 0.01882(18)
Co1 0.0310(6) 0.0310(6) 0.0115(6) 0.0009(3) -0.0009(3) 0.0123(7)
O3 0.015(4) 0.034(4) 0.018(4) 0.003(3) -0.002(3) 0.005(3)
O1 0.045(4) 0.059(4) 0.012(3) 0.002(3) 0.004(2) 0.031(3)
O2 0.049(4) 0.117(6) 0.021(3) 0.002(3) -0.001(3) 0.049(4)
N1 0.030(4) 0.036(4) 0.014(3) 0.002(3) -0.001(3) 0.014(3)
N2 0.048(6) 0.035(6) 0.014(4) 0.000 0.000 0.014(5)
C2 0.030(4) 0.049(5) 0.015(4) -0.001(4) -0.003(3) 0.022(4)
C3 0.059(8) 0.020(4) 0.017(5) 0.000(2) 0.000(5) 0.030(4)
C1 0.031(4) 0.035(5) 0.018(4) -0.001(4) -0.003(3) 0.017(4)

_geom_special_details            
; 
 All esds (except the esd in the dihedral angle between two l.s. planes) 
 are estimated using the full covariance matrix.  The cell esds are taken 
 into account individually in the estimation of esds in distances, angles 
 and torsion angles; correlations between esds in cell parameters are only 
 used when they are defined by crystal symmetry.  An approximate (isotropic) 
 treatment of cell esds is used for estimating esds involving l.s. planes. 
;

loop_
_geom_bond_atom_site_label_1
_geom_bond_atom_site_label_2
_geom_bond_distance
_geom_bond_site_symmetry_2
_geom_bond_publ_flag
Tb1 O2 2.298(7) 3_665 ?
Tb1 O2 2.298(7) 6_665 ?
Tb1 O2 2.298(7) 2_565 ?
Tb1 O2 2.298(7) 5_565 ?
Tb1 O2 2.298(7) 4 ?
Tb1 O2 2.298(7) . ?
Co1 N1 2.094(6) . ?
Co1 N1 2.094(6) 10_556 ?
Co1 O3 2.125(10) 10_556 ?
Co1 O3 2.125(10) . ?
Co1 O1 2.140(6) 10_556 ?
Co1 O1 2.140(6) . ?
O3 C3 1.201(11) . ?
O1 C2 1.227(9) . ?
O2 C2 1.258(10) . ?
N1 N2 1.289(9) . ?
N1 C1 1.331(10) . ?
N2 N1 1.289(9) 4 ?
C2 C1 1.470(11) . ?
C3 O3 1.201(11) 12_766 ?
C3 H3 0.9300 . ?
C1 C1 1.419(15) 4 ?

loop_
_geom_angle_atom_site_label_1
_geom_angle_atom_site_label_2
_geom_angle_atom_site_label_3
_geom_angle
_geom_angle_site_symmetry_1
_geom_angle_site_symmetry_3
_geom_angle_publ_flag
O2 Tb1 O2 82.4(3) 3_665 6_665 ?
O2 Tb1 O2 135.79(12) 3_665 2_565 ?
O2 Tb1 O2 81.4(3) 6_665 2_565 ?
O2 Tb1 O2 81.4(3) 3_665 5_565 ?
O2 Tb1 O2 135.79(12) 6_665 5_565 ?
O2 Tb1 O2 82.4(3) 2_565 5_565 ?
O2 Tb1 O2 135.79(13) 3_665 4 ?
O2 Tb1 O2 81.4(3) 6_665 4 ?
O2 Tb1 O2 81.4(3) 2_565 4 ?
O2 Tb1 O2 135.79(12) 5_565 4 ?
O2 Tb1 O2 81.4(3) 3_665 . ?
O2 Tb1 O2 135.79(13) 6_665 . ?
O2 Tb1 O2 135.79(12) 2_565 . ?
O2 Tb1 O2 81.4(3) 5_565 . ?
O2 Tb1 O2 82.4(3) 4 . ?
N1 Co1 N1 166.8(4) . 10_556 ?
N1 Co1 O3 92.0(3) . 10_556 ?
N1 Co1 O3 96.1(3) 10_556 10_556 ?
N1 Co1 O3 96.1(3) . . ?
N1 Co1 O3 92.0(3) 10_556 . ?
O3 Co1 O3 104.2(6) 10_556 . ?
N1 Co1 O1 93.1(2) . 10_556 ?
N1 Co1 O1 77.5(2) 10_556 10_556 ?
O3 Co1 O1 170.6(3) 10_556 10_556 ?
O3 Co1 O1 83.2(3) . 10_556 ?
N1 Co1 O1 77.5(2) . . ?
N1 Co1 O1 93.1(2) 10_556 . ?
O3 Co1 O1 83.2(3) 10_556 . ?
O3 Co1 O1 170.6(3) . . ?
O1 Co1 O1 90.2(4) 10_556 . ?
C3 O3 Co1 133.8(9) . . ?
C2 O1 Co1 114.9(5) . . ?
C2 O2 Tb1 150.9(6) . . ?
N2 N1 C1 108.1(7) . . ?
N2 N1 Co1 139.3(6) . . ?
C1 N1 Co1 112.5(5) . . ?
N1 N2 N1 112.3(10) 4 . ?
O1 C2 O2 121.7(7) . . ?
O1 C2 C1 117.4(7) . . ?
O2 C2 C1 120.8(7) . . ?
O3 C3 O3 131.8(13) . 12_766 ?
O3 C3 H3 114.1 . . ?
O3 C3 H3 114.1 12_766 . ?
N1 C1 C1 105.7(4) . 4 ?
N1 C1 C2 117.4(6) . . ?
C1 C1 C2 136.8(4) 4 . ?

loop_
_geom_torsion_atom_site_label_1
_geom_torsion_atom_site_label_2
_geom_torsion_atom_site_label_3
_geom_torsion_atom_site_label_4
_geom_torsion
_geom_torsion_site_symmetry_1
_geom_torsion_site_symmetry_2
_geom_torsion_site_symmetry_3
_geom_torsion_site_symmetry_4
_geom_torsion_publ_flag
N1 Co1 O3 C3 94.8(8) . . . . ?
N1 Co1 O3 C3 -95.6(8) 10_556 . . . ?
O3 Co1 O3 C3 1.2(6) 10_556 . . . ?
O1 Co1 O3 C3 -172.8(8) 10_556 . . . ?
O1 Co1 O3 C3 141.7(16) . . . . ?
N1 Co1 O1 C2 -3.0(7) . . . . ?
N1 Co1 O1 C2 -173.7(7) 10_556 . . . ?
O3 Co1 O1 C2 90.6(7) 10_556 . . . ?
O3 Co1 O1 C2 -51(2) . . . . ?
O1 Co1 O1 C2 -96.2(7) 10_556 . . . ?
O2 Tb1 O2 C2 -129.8(16) 3_665 . . . ?
O2 Tb1 O2 C2 -60.2(16) 6_665 . . . ?
O2 Tb1 O2 C2 78.2(16) 2_565 . . . ?
O2 Tb1 O2 C2 147.7(15) 5_565 . . . ?
O2 Tb1 O2 C2 9.0(16) 4 . . . ?
N1 Co1 N1 N2 -135.4(10) 10_556 . . . ?
O3 Co1 N1 N2 96.7(11) 10_556 . . . ?
O3 Co1 N1 N2 -7.8(10) . . . . ?
O1 Co1 N1 N2 -91.2(10) 10_556 . . . ?
O1 Co1 N1 N2 179.2(10) . . . . ?
N1 Co1 N1 C1 48.7(6) 10_556 . . . ?
O3 Co1 N1 C1 -79.2(6) 10_556 . . . ?
O3 Co1 N1 C1 176.3(7) . . . . ?
O1 Co1 N1 C1 92.9(6) 10_556 . . . ?
O1 Co1 N1 C1 3.3(6) . . . . ?
C1 N1 N2 N1 0.2(13) . . . 4 ?
Co1 N1 N2 N1 -175.8(2) . . . 4 ?
Co1 O1 C2 O2 -174.8(7) . . . . ?
Co1 O1 C2 C1 2.2(11) . . . . ?
Tb1 O2 C2 O1 171.9(9) . . . . ?
Tb1 O2 C2 C1 -5(2) . . . . ?
Co1 O3 C3 O3 178.2(8) . . . 12_766 ?
N2 N1 C1 C1 -0.1(7) . . . 4 ?
Co1 N1 C1 C1 177.0(3) . . . 4 ?
N2 N1 C1 C2 179.4(8) . . . . ?
Co1 N1 C1 C2 -3.4(10) . . . . ?
O1 C2 C1 N1 0.9(13) . . . . ?
O2 C2 C1 N1 177.9(9) . . . . ?
O1 C2 C1 C1 -179.8(5) . . . 4 ?
O2 C2 C1 C1 -2.8(13) . . . 4 ?

_diffrn_measured_fraction_theta_max 0.986
_diffrn_reflns_theta_full        25.01
_diffrn_measured_fraction_theta_full 0.986
_refine_diff_density_max         1.281
_refine_diff_density_min         -0.750
_refine_diff_density_rms         0.143

# SQUEEZE RESULTS (APPEND TO CIF)
# Note: Data are Listed for all Voids in the P1 Unit Cell
# i.e. Centre of Gravity, Solvent Accessible Volume,
# Recovered number of Electrons in the Void and
# Details about the Squeezed Material
loop_
_platon_squeeze_void_nr
_platon_squeeze_void_average_x
_platon_squeeze_void_average_y
_platon_squeeze_void_average_z
_platon_squeeze_void_volume
_platon_squeeze_void_count_electrons
_platon_squeeze_void_content
1 0.017 0.539 -0.009 1151 303 ' '
_platon_squeeze_details          
;
;
