####################################################################### 
# 
# This file contains crystal structure data downloaded from the 
# Cambridge Structural Database (CSD) hosted by the Cambridge 
# Crystallographic Data Centre (CCDC).
# 
# Full information about CCDC data access policies and citation 
# guidelines are available at http://www.ccdc.cam.ac.uk/access/V1 
# 
# Audit and citation data items may have been added by the CCDC. 
# Please retain this information to preserve the provenance of 
# this file and to allow appropriate attribution of the data. 
# 
#######################################################################

data_Co-Dy
_audit_block_doi                 10.5517/cc10rpbs
_database_code_depnum_ccdc_archive 'CCDC 946285'
loop_
_citation_id
_citation_doi
_citation_year
1 10.1002/ejic.201301312 2014
_audit_update_record             
;
2013-06-21 deposited with the CCDC.	2024-07-12 downloaded from the CCDC.
;

_audit_creation_method           SHELXL-97
_chemical_name_systematic        
; 
 ? 
;
_chemical_name_common            ?
_chemical_melting_point          ?
_chemical_formula_moiety         ?
_chemical_formula_sum            'C15 H3 Co3 Dy N9 O15'
_chemical_formula_weight         888.56

loop_
_atom_type_symbol
_atom_type_description
_atom_type_scat_dispersion_real
_atom_type_scat_dispersion_imag
_atom_type_scat_source
C C 0.0033 0.0016 'International Tables Vol C Tables 4.2.6.8 and 6.1.1.4'
H H 0.0000 0.0000 'International Tables Vol C Tables 4.2.6.8 and 6.1.1.4'
Co Co 0.3494 0.9721 'International Tables Vol C Tables 4.2.6.8 and 6.1.1.4'
Dy Dy -0.1892 4.4098 'International Tables Vol C Tables 4.2.6.8 and 6.1.1.4'
N N 0.0061 0.0033 'International Tables Vol C Tables 4.2.6.8 and 6.1.1.4'
O O 0.0106 0.0060 'International Tables Vol C Tables 4.2.6.8 and 6.1.1.4'

_symmetry_cell_setting           hexagonal
_symmetry_space_group_name_H-M   P-62c

loop_
_symmetry_equiv_pos_as_xyz
'x, y, z'
'-x+y, -x, -z+1/2'
'-y, x-y, z'
'x, y, -z+1/2'
'-x+y, -x, z'
'-y, x-y, -z+1/2'
'y, x, z+1/2'
'x-y, -y, -z'
'-x, -x+y, z+1/2'
'y, x, -z'
'x-y, -y, z+1/2'
'-x, -x+y, -z'

_cell_length_a                   14.2705(10)
_cell_length_b                   14.2705(10)
_cell_length_c                   12.5942(9)
_cell_angle_alpha                90.00
_cell_angle_beta                 90.00
_cell_angle_gamma                120.00
_cell_volume                     2221.2(3)
_cell_formula_units_Z            2
_cell_measurement_temperature    123.30(10)
_cell_measurement_reflns_used    1151
_cell_measurement_theta_min      2.8597
_cell_measurement_theta_max      29.1482

_exptl_crystal_description       block
_exptl_crystal_colour            red
_exptl_crystal_size_max          0.16
_exptl_crystal_size_mid          0.14
_exptl_crystal_size_min          0.14
_exptl_crystal_density_meas      ?
_exptl_crystal_density_diffrn    1.329
_exptl_crystal_density_method    'not measured'
_exptl_crystal_F_000             846
_exptl_absorpt_coefficient_mu    2.816
_exptl_absorpt_correction_type   Multi-scan
_exptl_absorpt_correction_T_min  0.45395
_exptl_absorpt_correction_T_max  1.00000
_exptl_absorpt_process_details   CRYSALISPRO

_exptl_special_details           
; 
 ? 
;

_diffrn_ambient_temperature      123.30(10)
_diffrn_radiation_wavelength     0.71073
_diffrn_radiation_type           MoK\a
_diffrn_radiation_source         'SuperNova (Mo) X-ray Source'
_diffrn_radiation_monochromator  graphite
_diffrn_measurement_device_type  'SuperNova, Single source at offset), Eos'
_diffrn_measurement_method       '\w scans'
_diffrn_detector_area_resol_mean 16.2116
_diffrn_standards_number         ?
_diffrn_standards_interval_count ?
_diffrn_standards_interval_time  ?
_diffrn_standards_decay_%        ?
_diffrn_reflns_number            1346
_diffrn_reflns_av_R_equivalents  0.0608
_diffrn_reflns_av_sigmaI/netI    0.0628
_diffrn_reflns_limit_h_min       -8
_diffrn_reflns_limit_h_max       8
_diffrn_reflns_limit_k_min       0
_diffrn_reflns_limit_k_max       16
_diffrn_reflns_limit_l_min       0
_diffrn_reflns_limit_l_max       14
_diffrn_reflns_theta_min         2.85
_diffrn_reflns_theta_max         24.98
_reflns_number_total             1346
_reflns_number_gt                1036
_reflns_threshold_expression     >2sigma(I)

_computing_data_collection       CRYSALISPRO
_computing_cell_refinement       CRYSALISPRO
_computing_data_reduction        CRYSALISPRO
_computing_structure_solution    'SHELXS-97 (Sheldrick, 1990)'
_computing_structure_refinement  'SHELXL-97 (Sheldrick, 1997)'
_computing_molecular_graphics    'Bruker SHELXTL'
_computing_publication_material  'Bruker SHELXTL'

_refine_special_details          
; 
 Refinement of F^2^ against ALL reflections.  The weighted R-factor wR and 
 goodness of fit S are based on F^2^, conventional R-factors R are based 
 on F, with F set to zero for negative F^2^. The threshold expression of 
 F^2^ > 2sigma(F^2^) is used only for calculating R-factors(gt) etc. and is 
 not relevant to the choice of reflections for refinement.  R-factors based 
 on F^2^ are statistically about twice as large as those based on F, and R- 
 factors based on ALL data will be even larger. 
;

_refine_ls_structure_factor_coef Fsqd
_refine_ls_matrix_type           full
_refine_ls_weighting_scheme      calc
_refine_ls_weighting_details     
'calc w=1/[\s^2^(Fo^2^)+(0.1211P)^2^+0.0000P] where P=(Fo^2^+2Fc^2^)/3'
_atom_sites_solution_primary     direct
_atom_sites_solution_secondary   difmap
_atom_sites_solution_hydrogens   geom
_refine_ls_hydrogen_treatment    mixed
_refine_ls_extinction_method     none
_refine_ls_extinction_coef       ?
_refine_ls_abs_structure_details 'Flack H D (1983), Acta Cryst. A39, 876-881'
_refine_ls_abs_structure_Flack   0.00(13)
_refine_ls_number_reflns         1346
_refine_ls_number_parameters     74
_refine_ls_number_restraints     6
_refine_ls_R_factor_all          0.0808
_refine_ls_R_factor_gt           0.0659
_refine_ls_wR_factor_ref         0.1795
_refine_ls_wR_factor_gt          0.1716
_refine_ls_goodness_of_fit_ref   0.986
_refine_ls_restrained_S_all      0.997
_refine_ls_shift/su_max          0.000
_refine_ls_shift/su_mean         0.000

loop_
_atom_site_label
_atom_site_type_symbol
_atom_site_fract_x
_atom_site_fract_y
_atom_site_fract_z
_atom_site_U_iso_or_equiv
_atom_site_adp_type
_atom_site_occupancy
_atom_site_symmetry_multiplicity
_atom_site_calc_flag
_atom_site_refinement_flags
_atom_site_disorder_assembly
_atom_site_disorder_group
Dy1 Dy 0.3333 0.6667 0.2500 0.0452(4) Uani 1 6 d S . .
Co1 Co 0.75166(17) 0.75166(17) 0.5000 0.0425(6) Uani 1 2 d S . .
O3 O 0.9149(16) 0.7849(19) 0.4983(10) 0.066(6) Uani 0.50 1 d P . .
O1 O 0.5833(7) 0.7034(9) 0.4845(6) 0.058(3) Uani 1 1 d . . .
O2 O 0.4581(8) 0.6779(9) 0.3666(7) 0.071(3) Uani 1 1 d U . .
N1 N 0.7280(8) 0.7383(8) 0.3323(6) 0.042(2) Uani 1 1 d . . .
N2 N 0.7875(13) 0.7477(11) 0.2500 0.047(4) Uani 1 2 d S . .
C2 C 0.5534(11) 0.6993(11) 0.3886(9) 0.047(3) Uani 1 1 d . . .
C3 C 1.0000 0.8518(13) 0.5000 0.049(5) Uani 1 2 d S . .
H3 H 1.0000 0.9170 0.5000 0.059 Uiso 1 2 calc SR . .
C1 C 0.6295(10) 0.7159(11) 0.3034(8) 0.037(3) Uani 1 1 d . . .

loop_
_atom_site_aniso_label
_atom_site_aniso_U_11
_atom_site_aniso_U_22
_atom_site_aniso_U_33
_atom_site_aniso_U_23
_atom_site_aniso_U_13
_atom_site_aniso_U_12
Dy1 0.0540(6) 0.0540(6) 0.0276(6) 0.000 0.000 0.0270(3)
Co1 0.0507(10) 0.0507(10) 0.0209(9) 0.0007(5) -0.0007(5) 0.0214(12)
O3 0.043(11) 0.111(15) 0.010(7) -0.001(8) 0.003(7) 0.014(12)
O1 0.060(6) 0.090(7) 0.030(5) 0.002(4) 0.004(4) 0.041(6)
O2 0.061(5) 0.120(7) 0.038(4) 0.004(4) 0.003(4) 0.049(5)
N1 0.047(6) 0.054(7) 0.022(4) 0.001(4) 0.005(4) 0.023(5)
N2 0.073(10) 0.029(7) 0.022(6) 0.000 0.000 0.012(7)
C2 0.058(8) 0.069(9) 0.022(6) 0.001(5) 0.001(6) 0.038(7)
C3 0.061(14) 0.050(8) 0.038(10) -0.005(5) -0.011(10) 0.031(7)
C1 0.045(7) 0.048(7) 0.021(5) 0.003(5) 0.001(5) 0.025(6)

_geom_special_details            
; 
 All esds (except the esd in the dihedral angle between two l.s. planes) 
 are estimated using the full covariance matrix.  The cell esds are taken 
 into account individually in the estimation of esds in distances, angles 
 and torsion angles; correlations between esds in cell parameters are only 
 used when they are defined by crystal symmetry.  An approximate (isotropic) 
 treatment of cell esds is used for estimating esds involving l.s. planes. 
;

loop_
_geom_bond_atom_site_label_1
_geom_bond_atom_site_label_2
_geom_bond_distance
_geom_bond_site_symmetry_2
_geom_bond_publ_flag
Dy1 O2 2.250(10) 3_665 ?
Dy1 O2 2.250(10) 6_665 ?
Dy1 O2 2.250(10) 2_565 ?
Dy1 O2 2.250(10) 5_565 ?
Dy1 O2 2.250(10) . ?
Dy1 O2 2.250(10) 4 ?
Co1 N1 2.132(8) . ?
Co1 N1 2.132(8) 10_556 ?
Co1 O3 2.13(2) 10_556 ?
Co1 O3 2.13(2) . ?
Co1 O1 2.151(9) 10_556 ?
Co1 O1 2.151(9) . ?
O3 C3 1.11(2) . ?
O1 C2 1.272(14) . ?
O2 C2 1.267(15) . ?
N1 N2 1.304(13) . ?
N1 C1 1.326(15) . ?
N2 N1 1.304(13) 4 ?
C2 C1 1.460(16) . ?
C3 O3 1.11(2) 12_766 ?
C3 H3 0.9300 . ?
C1 C1 1.34(2) 4 ?

loop_
_geom_angle_atom_site_label_1
_geom_angle_atom_site_label_2
_geom_angle_atom_site_label_3
_geom_angle
_geom_angle_site_symmetry_1
_geom_angle_site_symmetry_3
_geom_angle_publ_flag
O2 Dy1 O2 81.4(5) 3_665 6_665 ?
O2 Dy1 O2 135.46(18) 3_665 2_565 ?
O2 Dy1 O2 82.0(4) 6_665 2_565 ?
O2 Dy1 O2 82.0(4) 3_665 5_565 ?
O2 Dy1 O2 135.46(18) 6_665 5_565 ?
O2 Dy1 O2 81.4(5) 2_565 5_565 ?
O2 Dy1 O2 82.0(4) 3_665 . ?
O2 Dy1 O2 135.46(18) 6_665 . ?
O2 Dy1 O2 135.46(17) 2_565 . ?
O2 Dy1 O2 82.0(4) 5_565 . ?
O2 Dy1 O2 135.46(18) 3_665 4 ?
O2 Dy1 O2 82.0(4) 6_665 4 ?
O2 Dy1 O2 82.0(4) 2_565 4 ?
O2 Dy1 O2 135.46(17) 5_565 4 ?
O2 Dy1 O2 81.4(5) . 4 ?
N1 Co1 N1 165.8(6) . 10_556 ?
N1 Co1 O3 92.7(5) . 10_556 ?
N1 Co1 O3 96.7(4) 10_556 10_556 ?
N1 Co1 O3 96.7(4) . . ?
N1 Co1 O3 92.7(5) 10_556 . ?
O3 Co1 O3 97.8(13) 10_556 . ?
N1 Co1 O1 92.4(4) . 10_556 ?
N1 Co1 O1 77.3(3) 10_556 10_556 ?
O3 Co1 O1 172.3(6) 10_556 10_556 ?
O3 Co1 O1 87.3(7) . 10_556 ?
N1 Co1 O1 77.3(3) . . ?
N1 Co1 O1 92.4(4) 10_556 . ?
O3 Co1 O1 87.3(7) 10_556 . ?
O3 Co1 O1 172.3(6) . . ?
O1 Co1 O1 88.2(6) 10_556 . ?
C3 O3 Co1 143(2) . . ?
C2 O1 Co1 113.3(8) . . ?
C2 O2 Dy1 151.1(8) . . ?
N2 N1 C1 111.3(9) . . ?
N2 N1 Co1 135.4(9) . . ?
C1 N1 Co1 113.3(7) . . ?
N1 N2 N1 105.3(14) 4 . ?
O2 C2 O1 120.9(11) . . ?
O2 C2 C1 120.0(10) . . ?
O1 C2 C1 119.0(11) . . ?
O3 C3 O3 143(3) . 12_766 ?
O3 C3 H3 108.3 . . ?
O3 C3 H3 108.3 12_766 . ?
N1 C1 C1 106.0(6) . 4 ?
N1 C1 C2 116.7(9) . . ?
C1 C1 C2 137.3(6) 4 . ?

loop_
_geom_torsion_atom_site_label_1
_geom_torsion_atom_site_label_2
_geom_torsion_atom_site_label_3
_geom_torsion_atom_site_label_4
_geom_torsion
_geom_torsion_site_symmetry_1
_geom_torsion_site_symmetry_2
_geom_torsion_site_symmetry_3
_geom_torsion_site_symmetry_4
_geom_torsion_publ_flag
N1 Co1 O3 C3 95.7(16) . . . . ?
N1 Co1 O3 C3 -95.0(16) 10_556 . . . ?
O3 Co1 O3 C3 2.1(13) 10_556 . . . ?
O1 Co1 O3 C3 -172.1(16) 10_556 . . . ?
O1 Co1 O3 C3 134(4) . . . . ?
N1 Co1 O1 C2 -5.5(10) . . . . ?
N1 Co1 O1 C2 -175.6(10) 10_556 . . . ?
O3 Co1 O1 C2 87.8(11) 10_556 . . . ?
O3 Co1 O1 C2 -44(5) . . . . ?
O1 Co1 O1 C2 -98.4(11) 10_556 . . . ?
O2 Dy1 O2 C2 -123(2) 3_665 . . . ?
O2 Dy1 O2 C2 -54(2) 6_665 . . . ?
O2 Dy1 O2 C2 85(2) 2_565 . . . ?
O2 Dy1 O2 C2 154(2) 5_565 . . . ?
O2 Dy1 O2 C2 16(2) 4 . . . ?
N1 Co1 N1 N2 -131.9(13) 10_556 . . . ?
O3 Co1 N1 N2 97.0(14) 10_556 . . . ?
O3 Co1 N1 N2 -1.2(14) . . . . ?
O1 Co1 N1 N2 -88.8(13) 10_556 . . . ?
O1 Co1 N1 N2 -176.4(13) . . . . ?
N1 Co1 N1 C1 48.8(8) 10_556 . . . ?
O3 Co1 N1 C1 -82.3(10) 10_556 . . . ?
O3 Co1 N1 C1 179.5(11) . . . . ?
O1 Co1 N1 C1 91.9(9) 10_556 . . . ?
O1 Co1 N1 C1 4.3(9) . . . . ?
C1 N1 N2 N1 4.2(17) . . . 4 ?
Co1 N1 N2 N1 -175.1(3) . . . 4 ?
Dy1 O2 C2 O1 169.8(13) . . . . ?
Dy1 O2 C2 C1 -12(3) . . . . ?
Co1 O1 C2 O2 -176.1(11) . . . . ?
Co1 O1 C2 C1 6.0(17) . . . . ?
Co1 O3 C3 O3 177.2(17) . . . 12_766 ?
N2 N1 C1 C1 -2.7(11) . . . 4 ?
Co1 N1 C1 C1 176.8(4) . . . 4 ?
N2 N1 C1 C2 177.7(12) . . . . ?
Co1 N1 C1 C2 -2.8(14) . . . . ?
O2 C2 C1 N1 179.8(13) . . . . ?
O1 C2 C1 N1 -2.3(19) . . . . ?
O2 C2 C1 C1 0(2) . . . 4 ?
O1 C2 C1 C1 178.3(8) . . . 4 ?

_diffrn_measured_fraction_theta_max 0.997
_diffrn_reflns_theta_full        24.98
_diffrn_measured_fraction_theta_full 0.997
_refine_diff_density_max         1.677
_refine_diff_density_min         -0.826
_refine_diff_density_rms         0.193

# SQUEEZE RESULTS (APPEND TO CIF)
# Note: Data are Listed for all Voids in the P1 Unit Cell
# i.e. Centre of Gravity, Solvent Accessible Volume,
# Recovered number of Electrons in the Void and
# Details about the Squeezed Material
loop_
_platon_squeeze_void_nr
_platon_squeeze_void_average_x
_platon_squeeze_void_average_y
_platon_squeeze_void_average_z
_platon_squeeze_void_volume
_platon_squeeze_void_count_electrons
_platon_squeeze_void_content
1 0.014 0.543 -0.008 1146 300 ' '
_platon_squeeze_details          
;
;

