####################################################################### 
# 
# This file contains crystal structure data downloaded from the 
# Cambridge Structural Database (CSD) hosted by the Cambridge 
# Crystallographic Data Centre (CCDC).
# 
# Full information about CCDC data access policies and citation 
# guidelines are available at http://www.ccdc.cam.ac.uk/access/V1 
# 
# Audit and citation data items may have been added by the CCDC. 
# Please retain this information to preserve the provenance of 
# this file and to allow appropriate attribution of the data. 
# 
#######################################################################

data_trancu
_audit_block_doi                 10.5517/ccpqd0s
_database_code_depnum_ccdc_archive 'CCDC 647125'
loop_
_citation_id
_citation_doi
_citation_year
1 10.1016/j.ica.2007.06.005 2008
_audit_update_record             
;
2007-05-14 deposited with the CCDC.	2024-07-12 downloaded from the CCDC.
;

_audit_creation_date             2006-02-02T12:04:09-00:00
_audit_creation_method           'WinGX routine CIF_UPDATE'

#----------------------------------------------------------------------------#
# CHEMICAL INFORMATION #
#----------------------------------------------------------------------------#

_chemical_name_systematic        
;
?
;
_chemical_formula_moiety         'C36 H42 Cu2 N2 O13 P4'
_chemical_formula_sum            'C36 H42 Cu2 N2 O13 P4'
_chemical_formula_weight         961.68
_chemical_compound_source        'synthesis as described'

#----------------------------------------------------------------------------#
# UNIT CELL INFORMATION #
#----------------------------------------------------------------------------#

_symmetry_cell_setting           tetragonal
_symmetry_space_group_name_H-M   'I 41/a'
_symmetry_space_group_name_Hall  '-I 4ad'
_symmetry_Int_Tables_number      88
loop_
_symmetry_equiv_pos_as_xyz
'x, y, z'
'-x, -y+1/2, z'
'-y+3/4, x+1/4, z+1/4'
'y+1/4, -x+1/4, z+1/4'
'x+1/2, y+1/2, z+1/2'
'-x+1/2, -y+1, z+1/2'
'-y+5/4, x+3/4, z+3/4'
'y+3/4, -x+3/4, z+3/4'
'-x, -y, -z'
'x, y-1/2, -z'
'y-3/4, -x-1/4, -z-1/4'
'-y-1/4, x-1/4, -z-1/4'
'-x+1/2, -y+1/2, -z+1/2'
'x+1/2, y, -z+1/2'
'y-1/4, -x+1/4, -z+1/4'
'-y+1/4, x+1/4, -z+1/4'

_cell_length_a                   42.260(10)
_cell_length_b                   42.260(10)
_cell_length_c                   9.636(9)
_cell_angle_alpha                90
_cell_angle_beta                 90
_cell_angle_gamma                90
_cell_volume                     17209(17)
_cell_formula_units_Z            16
_cell_measurement_temperature    293(2)
_cell_measurement_reflns_used    0
_cell_measurement_theta_min      0
_cell_measurement_theta_max      0
_cell_measurement_wavelength     0.71073

#----------------------------------------------------------------------------#
# CRYSTAL INFORMATION #
#----------------------------------------------------------------------------#

_exptl_crystal_description       prism
_exptl_crystal_colour            'pale turquoise'
_exptl_crystal_size_max          0.4
_exptl_crystal_size_mid          0.15
_exptl_crystal_size_min          0.05
_exptl_crystal_density_diffrn    1.485
_exptl_crystal_density_method    'not measured'
_exptl_crystal_F_000             7904
_exptl_special_details           
;
?
;

#----------------------------------------------------------------------------#
# ABSORPTION CORRECTION #
#----------------------------------------------------------------------------#

_exptl_absorpt_coefficient_mu    1.2
_exptl_absorpt_factor_muR        0.068
_exptl_absorpt_correction_type   refdelf
_exptl_absorpt_process_details   
;
Parkin S,Moezzi B & Hope H, (1995) J. Appl. Cryst. 28, 53-56
Cubic fit to sin(theta)/lambda - 24 parameters
;
_exptl_absorpt_correction_T_min  0.8318
_exptl_absorpt_correction_T_max  1.2138
_exptl_absorpt_correction_T_ave  0.9414

#----------------------------------------------------------------------------#
# DATA COLLECTION #
#----------------------------------------------------------------------------#

_diffrn_source                   'Enraf Nonius FR590'
_diffrn_ambient_temperature      293(2)
_diffrn_radiation_wavelength     0.71069
_diffrn_radiation_type           MoK\a
_diffrn_radiation_monochromator  graphite
_diffrn_radiation_probe          x-ray
_diffrn_detector                 'scintillation LiI'
_diffrn_detector_dtime           1.195
_diffrn_orient_matrix_type       
;
x-axis points to radiation source
the matrix is specified in reciprocal space
;
_diffrn_orient_matrix_ub_11      0.017434
_diffrn_orient_matrix_ub_12      -0.015996
_diffrn_orient_matrix_ub_13      0.00127
_diffrn_orient_matrix_ub_21      -0.01601
_diffrn_orient_matrix_ub_22      -0.017436
_diffrn_orient_matrix_ub_23      0.001389
_diffrn_orient_matrix_ub_31      0.000104
_diffrn_orient_matrix_ub_32      -0.000333
_diffrn_orient_matrix_ub_33      -0.103927
_diffrn_measurement_device       '\k-geometry diffractometer'
_diffrn_measurement_device_type  'Enraf Nonius CAD4'
_diffrn_measurement_method       'non-profiled omega scans'
_diffrn_standards_number         3
_diffrn_standards_interval_time  120
_diffrn_standards_decay_%        16
_diffrn_standards_decay_corr_max 1.224
_diffrn_standards_decay_corr_min 0.994
loop_
_diffrn_standard_refln_index_h
_diffrn_standard_refln_index_k
_diffrn_standard_refln_index_l
3 -10 -1
-2 -9 -1
-9 2 -1

_diffrn_reflns_av_unetI/netI     0.1204
_diffrn_reflns_number            6394
_diffrn_reflns_limit_h_min       -28
_diffrn_reflns_limit_h_max       28
_diffrn_reflns_limit_k_min       0
_diffrn_reflns_limit_k_max       40
_diffrn_reflns_limit_l_min       0
_diffrn_reflns_limit_l_max       9
_diffrn_reflns_theta_min         2.16
_diffrn_reflns_theta_max         20
_diffrn_reflns_theta_full        20
_diffrn_measured_fraction_theta_full 0.999
_diffrn_measured_fraction_theta_max 0.999
_reflns_number_total             4017
_reflns_number_gt                2368
_reflns_threshold_expression     >2sigma(I)

#----------------------------------------------------------------------------#
# COMPUTER PROGRAMS USED #
#----------------------------------------------------------------------------#

_computing_data_collection       'CAD4 Express (Enraf Nonius, 1994)'
_computing_cell_refinement       'CAD4 Express (Enraf Nonius, 1994)'
_computing_data_reduction        'XCAD4 (Harms & Wocadlo, 1995)'
_computing_structure_solution    'SHELXS-97 (Sheldrick, 1997)'
_computing_structure_refinement  'SHELXL-97 (Sheldrick, 1997)'
_computing_molecular_graphics    'Ortep-3 for Windows (Farrugia, 1997)'
_computing_publication_material  'WinGX publication routines (Farrugia, 1999)'

#----------------------------------------------------------------------------#
# REFINEMENT INFORMATION #
#----------------------------------------------------------------------------#

_refine_special_details          
;
Refinement of F^2^ against ALL reflections. The weighted R-factor wR and
goodness of fit S are based on F^2^, conventional R-factors R are based
on F, with F set to zero for negative F^2^. The threshold expression of
F^2^ > 2sigma(F^2^) is used only for calculating R-factors(gt) etc. and is
not relevant to the choice of reflections for refinement. R-factors based
on F^2^ are statistically about twice as large as those based on F, and R-
factors based on ALL data will be even larger.
;
_refine_ls_structure_factor_coef Fsqd
_refine_ls_matrix_type           full
_refine_ls_weighting_scheme      calc
_refine_ls_weighting_details     
'calc w=1/[\s^2^(Fo^2^)+(0.0837P)^2^+0.0000P] where P=(Fo^2^+2Fc^2^)/3'
_atom_sites_solution_primary     direct
_atom_sites_solution_secondary   difmap
_atom_sites_solution_hydrogens   geom
_refine_ls_hydrogen_treatment    mixed
_refine_ls_extinction_method     none
_refine_ls_number_reflns         4017
_refine_ls_number_parameters     299
_refine_ls_number_restraints     0
_refine_ls_R_factor_all          0.1163
_refine_ls_R_factor_gt           0.0584
_refine_ls_wR_factor_ref         0.1453
_refine_ls_wR_factor_gt          0.1291
_refine_ls_goodness_of_fit_ref   0.9
_refine_ls_restrained_S_all      0.9
_refine_ls_shift/su_max          0.871
_refine_ls_shift/su_mean         0.056
_refine_diff_density_max         0.41
_refine_diff_density_min         -0.375
_refine_diff_density_rms         0.087

#----------------------------------------------------------------------------#
# ATOMIC TYPES, COORDINATES AND THERMAL PARAMETERS #
#----------------------------------------------------------------------------#

loop_
_atom_type_symbol
_atom_type_description
_atom_type_scat_dispersion_real
_atom_type_scat_dispersion_imag
_atom_type_scat_source
C C 0.0033 0.0016 'International Tables Vol C Tables 4.2.6.8 and 6.1.1.4'
H H 0 0 'International Tables Vol C Tables 4.2.6.8 and 6.1.1.4'
N N 0.0061 0.0033 'International Tables Vol C Tables 4.2.6.8 and 6.1.1.4'
O O 0.0106 0.006 'International Tables Vol C Tables 4.2.6.8 and 6.1.1.4'
P P 0.1023 0.0942 'International Tables Vol C Tables 4.2.6.8 and 6.1.1.4'
Cu Cu 0.3201 1.2651 'International Tables Vol C Tables 4.2.6.8 and 6.1.1.4'

loop_
_atom_site_label
_atom_site_type_symbol
_atom_site_fract_x
_atom_site_fract_y
_atom_site_fract_z
_atom_site_U_iso_or_equiv
_atom_site_adp_type
_atom_site_occupancy
_atom_site_symmetry_multiplicity
_atom_site_calc_flag
_atom_site_refinement_flags
_atom_site_disorder_assembly
_atom_site_disorder_group
Cu1 Cu 0.84979(3) 0.16993(3) -0.30593(12) 0.0329(4) Uani 1 1 d . . .
Cu2 Cu 0.86574(3) 0.14007(3) 0.19129(12) 0.0351(4) Uani 1 1 d . . .
P1 P 0.81878(6) 0.12433(6) -0.0685(3) 0.0299(7) Uani 1 1 d . . .
P2 P 0.83025(6) 0.19090(6) -0.0044(2) 0.0294(7) Uani 1 1 d . . .
P3 P 0.81224(6) 0.13977(6) 0.4328(3) 0.0287(7) Uani 1 1 d . . .
P4 P 0.87514(6) 0.11419(6) 0.4966(3) 0.0285(7) Uani 1 1 d . . .
O1 O 0.83634(13) 0.13235(12) -0.2034(6) 0.0309(16) Uani 1 1 d . . .
O2 O 0.83832(13) 0.11037(12) 0.0468(6) 0.0285(16) Uani 1 1 d . . .
O3 O 0.83827(15) 0.19877(13) -0.1518(6) 0.0438(18) Uani 1 1 d . . .
O4 O 0.85783(14) 0.18039(13) 0.0814(7) 0.0400(18) Uani 1 1 d . . .
O5 O 0.82752(12) 0.14980(14) 0.2993(6) 0.0359(17) Uani 1 1 d . . .
O6 O 0.81135(13) 0.16369(13) 0.5472(6) 0.0332(16) Uani 1 1 d . . .
O7 O 0.88595(15) 0.11820(16) 0.3481(7) 0.0493(19) Uani 1 1 d . . .
O8 O 0.88054(14) 0.14236(13) 0.5899(6) 0.0376(17) Uani 1 1 d . . .
N1 N 0.86513(16) 0.20803(18) -0.4106(8) 0.033(2) Uiso 1 1 d . . .
N2 N 0.90588(18) 0.13525(17) 0.0863(8) 0.039(2) Uiso 1 1 d . . .
C1 C 0.80027(19) 0.16038(19) -0.0070(9) 0.028(2) Uiso 1 1 d . . .
H1A H 0.7831 0.1664 -0.0683 0.033 Uiso 1 1 calc R . .
H1B H 0.7918 0.1572 0.0854 0.033 Uiso 1 1 calc R . .
C2 C 0.83431(18) 0.10578(19) 0.4925(9) 0.027(2) Uiso 1 1 d . . .
H2A H 0.8272 0.0999 0.5847 0.033 Uiso 1 1 calc R . .
H2B H 0.8305 0.088 0.431 0.033 Uiso 1 1 calc R . .
C3 C 0.8619(3) 0.2367(4) -0.3708(17) 0.104(5) Uiso 1 1 d . . .
H3 H 0.8563 0.2399 -0.2785 0.125 Uiso 1 1 calc R . .
C4 C 0.8658(3) 0.2632(4) -0.4509(16) 0.109(5) Uiso 1 1 d . . .
H4 H 0.8614 0.283 -0.4132 0.131 Uiso 1 1 calc R . .
C5 C 0.8761(2) 0.2612(2) -0.5844(9) 0.030(2) Uiso 1 1 d . . .
C6 C 0.8813(3) 0.2314(3) -0.6283(14) 0.071(4) Uiso 1 1 d . . .
H6 H 0.888 0.2276 -0.7188 0.085 Uiso 1 1 calc R . .
C7 C 0.8768(3) 0.2070(3) -0.5387(13) 0.074(4) Uiso 1 1 d . . .
H7 H 0.8825 0.1871 -0.571 0.089 Uiso 1 1 calc R . .
C8 C 0.9337(3) 0.1353(3) 0.1443(14) 0.084(4) Uiso 1 1 d . . .
H8 H 0.9352 0.1364 0.2405 0.1 Uiso 1 1 calc R . .
C9 C 0.9622(3) 0.1337(3) 0.0635(13) 0.070(4) Uiso 1 1 d . . .
H9 H 0.9817 0.1352 0.1071 0.084 Uiso 1 1 calc R . .
C10 C 0.9607(2) 0.1298(2) -0.0797(10) 0.034(2) Uiso 1 1 d . . .
C110 C 0.9314(3) 0.1293(3) -0.1352(13) 0.069(4) Uiso 1 1 d . . .
H110 H 0.9291 0.1275 -0.2308 0.082 Uiso 1 1 calc R . .
C120 C 0.9048(3) 0.1315(3) -0.0527(13) 0.067(3) Uiso 1 1 d . . .
H120 H 0.8851 0.1303 -0.0952 0.08 Uiso 1 1 calc R . .
C11 C 0.7867(2) 0.0979(2) -0.1107(9) 0.030(2) Uiso 1 1 d . . .
C12 C 0.7675(2) 0.1038(2) -0.2258(10) 0.045(3) Uiso 1 1 d . . .
H12 H 0.7713 0.1216 -0.2804 0.054 Uiso 1 1 calc R . .
C13 C 0.7429(3) 0.0835(3) -0.2594(12) 0.065(3) Uiso 1 1 d . . .
H13 H 0.7303 0.0876 -0.3366 0.078 Uiso 1 1 calc R . .
C14 C 0.7371(3) 0.0576(3) -0.1792(13) 0.072(4) Uiso 1 1 d . . .
H14 H 0.7195 0.045 -0.1975 0.087 Uiso 1 1 calc R . .
C15 C 0.7571(3) 0.0497(3) -0.0709(13) 0.070(4) Uiso 1 1 d . . .
H15 H 0.7543 0.0308 -0.0232 0.084 Uiso 1 1 calc R . .
C16 C 0.7818(2) 0.0704(2) -0.0332(11) 0.046(3) Uiso 1 1 d . . .
H16 H 0.7946 0.0658 0.0425 0.056 Uiso 1 1 calc R . .
C21 C 0.8137(2) 0.2255(2) 0.0710(10) 0.034(2) Uiso 1 1 d . . .
C22 C 0.8047(3) 0.2499(3) -0.0045(14) 0.078(4) Uiso 1 1 d . . .
H22 H 0.8074 0.2495 -0.1003 0.093 Uiso 1 1 calc R . .
C23 C 0.7907(3) 0.2773(3) 0.0622(15) 0.096(5) Uiso 1 1 d . . .
H23 H 0.7844 0.2947 0.0101 0.115 Uiso 1 1 calc R . .
C24 C 0.7870(3) 0.2770(3) 0.1974(13) 0.064(3) Uiso 1 1 d . . .
H24 H 0.7792 0.295 0.2406 0.077 Uiso 1 1 calc R . .
C25 C 0.7939(3) 0.2525(3) 0.2734(13) 0.067(3) Uiso 1 1 d . . .
H25 H 0.7898 0.2528 0.3682 0.081 Uiso 1 1 calc R . .
C26 C 0.8072(2) 0.2263(3) 0.2130(11) 0.056(3) Uiso 1 1 d . . .
H26 H 0.8119 0.2088 0.2675 0.067 Uiso 1 1 calc R . .
C31 C 0.7718(2) 0.1279(2) 0.3967(10) 0.038(3) Uiso 1 1 d . . .
C32 C 0.7671(3) 0.1063(3) 0.2907(12) 0.067(4) Uiso 1 1 d . . .
H32 H 0.7839 0.0988 0.2379 0.08 Uiso 1 1 calc R . .
C33 C 0.7358(3) 0.0959(3) 0.2655(14) 0.089(4) Uiso 1 1 d . . .
H33 H 0.7321 0.0794 0.2039 0.107 Uiso 1 1 calc R . .
C34 C 0.7114(3) 0.1100(2) 0.3311(11) 0.054(3) Uiso 1 1 d . . .
H34 H 0.6909 0.1037 0.3111 0.065 Uiso 1 1 calc R . .
C35 C 0.7161(2) 0.1326(2) 0.4227(10) 0.047(3) Uiso 1 1 d . . .
H35 H 0.6989 0.1422 0.4661 0.056 Uiso 1 1 calc R . .
C36 C 0.7471(2) 0.1425(2) 0.4553(11) 0.048(3) Uiso 1 1 d . . .
H36 H 0.7504 0.159 0.5172 0.058 Uiso 1 1 calc R . .
C41 C 0.8963(2) 0.0814(2) 0.5672(10) 0.029(2) Uiso 1 1 d . . .
C42 C 0.8883(3) 0.0672(3) 0.6878(14) 0.081(4) Uiso 1 1 d . . .
H42 H 0.8697 0.0737 0.7316 0.097 Uiso 1 1 calc R . .
C43 C 0.9059(3) 0.0438(3) 0.7493(14) 0.078(4) Uiso 1 1 d . . .
H43 H 0.8995 0.035 0.8331 0.093 Uiso 1 1 calc R . .
C44 C 0.9325(2) 0.0339(2) 0.6872(11) 0.054(3) Uiso 1 1 d . . .
H44 H 0.945 0.0187 0.7302 0.065 Uiso 1 1 calc R . .
C45 C 0.9412(3) 0.0455(3) 0.5647(13) 0.066(3) Uiso 1 1 d . . .
H45 H 0.9592 0.0378 0.5208 0.08 Uiso 1 1 calc R . .
C46 C 0.9229(3) 0.0695(3) 0.5016(13) 0.066(3) Uiso 1 1 d . . .
H46 H 0.9289 0.0773 0.4152 0.079 Uiso 1 1 calc R . .
O1W O 0.9124(3) 0.2159(3) 0.0088(14) 0.169(5) Uiso 1 1 d . . .
O2W O 0.9572(6) 0.2240(6) 0.198(3) 0.376(13) Uiso 1 1 d . . .
O3W O 0.9434(6) 0.1730(6) 0.537(3) 0.359(12) Uiso 1 1 d . . .
O4W O 0.9574(6) 0.2148(6) 0.745(3) 0.400(14) Uiso 1 1 d . . .
O5W O 0.7800(4) 0.2177(4) 0.6417(18) 0.247(8) Uiso 1 1 d . . .

loop_
_atom_site_aniso_label
_atom_site_aniso_U_11
_atom_site_aniso_U_22
_atom_site_aniso_U_33
_atom_site_aniso_U_23
_atom_site_aniso_U_13
_atom_site_aniso_U_12
Cu1 0.0475(8) 0.0288(7) 0.0225(7) 0.0029(6) 0.0063(6) -0.0054(6)
Cu2 0.0280(7) 0.0533(9) 0.0239(7) 0.0073(7) 0.0057(6) 0.0079(6)
P1 0.0370(16) 0.0278(15) 0.0248(16) 0.0028(13) 0.0077(15) 0.0006(13)
P2 0.0444(17) 0.0272(15) 0.0167(15) 0.0044(13) 0.0088(14) 0.0012(13)
P3 0.0257(15) 0.0392(16) 0.0211(15) 0.0061(14) 0.0005(13) -0.0001(12)
P4 0.0332(15) 0.0369(16) 0.0155(15) 0.0068(13) 0.0048(13) 0.0069(13)
O1 0.047(4) 0.017(3) 0.029(4) -0.010(3) 0.006(3) 0.008(3)
O2 0.033(4) 0.023(3) 0.030(4) 0.011(3) -0.006(3) -0.004(3)
O3 0.068(5) 0.020(4) 0.043(5) 0.005(3) 0.004(4) -0.002(3)
O4 0.044(4) 0.022(4) 0.054(5) 0.008(3) 0.008(4) 0.012(3)
O5 0.014(3) 0.062(5) 0.033(4) 0.014(4) 0.004(3) 0.012(3)
O6 0.027(4) 0.040(4) 0.032(4) -0.007(4) 0.001(3) 0.003(3)
O7 0.048(5) 0.063(5) 0.037(5) -0.001(4) -0.002(4) 0.007(4)
O8 0.048(4) 0.027(4) 0.037(4) 0.000(3) 0.009(4) 0.007(3)


#----------------------------------------------------------------------------#
# MOLECULAR GEOMETRY #
#----------------------------------------------------------------------------#

_geom_special_details            
;
All esds (except the esd in the dihedral angle between two l.s. planes)
are estimated using the full covariance matrix. The cell esds are taken
into account individually in the estimation of esds in distances, angles
and torsion angles; correlations between esds in cell parameters are only
used when they are defined by crystal symmetry. An approximate (isotropic)
treatment of cell esds is used for estimating esds involving l.s. planes.
;
loop_
_geom_bond_atom_site_label_1
_geom_bond_atom_site_label_2
_geom_bond_distance
_geom_bond_site_symmetry_2
_geom_bond_publ_flag
Cu1 O1 1.955(6) . ?
Cu1 O3 1.982(6) . ?
Cu1 N1 2.007(7) . ?
Cu1 O8 2.013(6) 1_554 ?
Cu1 O6 2.171(6) 1_554 ?
Cu2 O7 1.966(6) . ?
Cu2 O5 1.965(6) . ?
Cu2 N2 1.986(8) . ?
Cu2 O4 2.034(6) . ?
Cu2 O2 2.204(6) . ?
P1 O2 1.505(6) . ?
P1 O1 1.535(6) . ?
P1 C11 1.803(9) . ?
P1 C1 1.812(8) . ?
P2 O4 1.496(6) . ?
P2 O3 1.497(7) . ?
P2 C21 1.777(9) . ?
P2 C1 1.808(8) . ?
P3 O6 1.496(6) . ?
P3 O5 1.501(6) . ?
P3 C2 1.806(8) . ?
P3 C31 1.813(10) . ?
P4 O8 1.509(6) . ?
P4 O7 1.511(7) . ?
P4 C2 1.762(8) . ?
P4 C41 1.783(9) . ?
O6 Cu1 2.171(6) 1_556 ?
O8 Cu1 2.013(6) 1_556 ?
N1 C3 1.278(14) . ?
N1 C7 1.329(13) . ?
N2 C8 1.302(13) . ?
N2 C120 1.350(13) . ?
C3 C4 1.370(18) . ?
C4 C5 1.361(16) . ?
C5 C6 1.346(13) . ?
C5 C10 1.457(12) 15_664 ?
C6 C7 1.359(15) . ?
C8 C9 1.434(15) . ?
C9 C10 1.391(14) . ?
C10 C110 1.347(13) . ?
C10 C5 1.457(12) 16_644 ?
C110 C120 1.379(14) . ?
C11 C16 1.397(12) . ?
C11 C12 1.397(12) . ?
C12 C13 1.390(13) . ?
C13 C14 1.363(14) . ?
C14 C15 1.384(15) . ?
C15 C16 1.408(13) . ?
C21 C22 1.316(13) . ?
C21 C26 1.396(13) . ?
C22 C23 1.450(16) . ?
C23 C24 1.312(16) . ?
C24 C25 1.298(14) . ?
C25 C26 1.374(14) . ?
C31 C36 1.338(12) . ?
C31 C32 1.384(13) . ?
C32 C33 1.413(15) . ?
C33 C34 1.349(15) . ?
C34 C35 1.316(13) . ?
C35 C36 1.410(12) . ?
C41 C42 1.351(14) . ?
C41 C46 1.387(13) . ?
C42 C43 1.373(15) . ?
C43 C44 1.340(14) . ?
C44 C45 1.329(14) . ?
C45 C46 1.410(14) . ?

loop_
_geom_angle_atom_site_label_1
_geom_angle_atom_site_label_2
_geom_angle_atom_site_label_3
_geom_angle
_geom_angle_site_symmetry_1
_geom_angle_site_symmetry_3
_geom_angle_publ_flag
O1 Cu1 O3 92.8(2) . . ?
O1 Cu1 N1 178.1(3) . . ?
O3 Cu1 N1 87.8(3) . . ?
O1 Cu1 O8 88.3(2) . 1_554 ?
O3 Cu1 O8 152.6(3) . 1_554 ?
N1 Cu1 O8 90.3(3) . 1_554 ?
O1 Cu1 O6 90.8(2) . 1_554 ?
O3 Cu1 O6 112.3(2) . 1_554 ?
N1 Cu1 O6 90.7(3) . 1_554 ?
O8 Cu1 O6 95.0(2) 1_554 1_554 ?
O7 Cu2 O5 