####################################################################### 
# 
# This file contains crystal structure data downloaded from the 
# Cambridge Structural Database (CSD) hosted by the Cambridge 
# Crystallographic Data Centre (CCDC).
# 
# Full information about CCDC data access policies and citation 
# guidelines are available at http://www.ccdc.cam.ac.uk/access/V1 
# 
# Audit and citation data items may have been added by the CCDC. 
# Please retain this information to preserve the provenance of 
# this file and to allow appropriate attribution of the data. 
# 
#######################################################################

data_y1443
_audit_block_doi                 10.5517/cc8rxws
_database_code_depnum_ccdc_archive 'CCDC 261326'
loop_
_citation_id
_citation_doi
_citation_year
1 10.1007/s10904-007-9147-y 2007
_audit_update_record             
;
2005-01-20 deposited with the CCDC.	2024-07-12 downloaded from the CCDC.
;

_audit_creation_method           SHELXL-97
_chemical_name_systematic        
;
?
;
_chemical_name_common            ?
_chemical_melting_point          ?
_chemical_formula_moiety         ?
_chemical_formula_sum            'C19 H16 Cu N4 O3.25'
_chemical_formula_weight         415.90

loop_
_atom_type_symbol
_atom_type_description
_atom_type_scat_dispersion_real
_atom_type_scat_dispersion_imag
_atom_type_scat_source
C C 0.0033 0.0016 'International Tables Vol C Tables 4.2.6.8 and 6.1.1.4'
H H 0.0000 0.0000 'International Tables Vol C Tables 4.2.6.8 and 6.1.1.4'
N N 0.0061 0.0033 'International Tables Vol C Tables 4.2.6.8 and 6.1.1.4'
O O 0.0106 0.0060 'International Tables Vol C Tables 4.2.6.8 and 6.1.1.4'
Cu Cu 0.3201 1.2651 'International Tables Vol C Tables 4.2.6.8 and 6.1.1.4'

_symmetry_cell_setting           Tetragonal
_symmetry_space_group_name_H-M   I4(1)/a

loop_
_symmetry_equiv_pos_as_xyz
'x, y, z'
'-x+1/2, -y, z+1/2'
'-y+3/4, x+1/4, z+1/4'
'y+3/4, -x+3/4, z+3/4'
'x+1/2, y+1/2, z+1/2'
'-x+1, -y+1/2, z+1'
'-y+5/4, x+3/4, z+3/4'
'y+5/4, -x+5/4, z+5/4'
'-x, -y, -z'
'x-1/2, y, -z-1/2'
'y-3/4, -x-1/4, -z-1/4'
'-y-3/4, x-3/4, -z-3/4'
'-x+1/2, -y+1/2, -z+1/2'
'x, y+1/2, -z'
'y-1/4, -x+1/4, -z+1/4'
'-y-1/4, x-1/4, -z-1/4'

_cell_length_a                   27.047(5)
_cell_length_b                   27.047(5)
_cell_length_c                   14.103(3)
_cell_angle_alpha                90.00
_cell_angle_beta                 90.00
_cell_angle_gamma                90.00
_cell_volume                     10317(4)
_cell_formula_units_Z            16
_cell_measurement_temperature    288(2)
_cell_measurement_reflns_used    33
_cell_measurement_theta_min      3.25
_cell_measurement_theta_max      11.89

_exptl_crystal_description       ?
_exptl_crystal_colour            ?
_exptl_crystal_size_max          0.48
_exptl_crystal_size_mid          0.46
_exptl_crystal_size_min          0.28
_exptl_crystal_density_meas      ?
_exptl_crystal_density_diffrn    1.071
_exptl_crystal_density_method    'not measured'
_exptl_crystal_F_000             3408
_exptl_absorpt_coefficient_mu    0.867
_exptl_absorpt_correction_type   empirical
_exptl_absorpt_correction_T_min  0.8388
_exptl_absorpt_correction_T_max  0.9977
_exptl_absorpt_process_details   ?

_exptl_special_details           
;
?
;

_diffrn_ambient_temperature      288(2)
_diffrn_radiation_wavelength     0.71073
_diffrn_radiation_type           MoK\a
_diffrn_radiation_source         'normal-focus sealed tube'
_diffrn_radiation_monochromator  graphite
_diffrn_measurement_device_type  'Siemens P4'
_diffrn_measurement_method       '\w scans'
_diffrn_detector_area_resol_mean ?
_diffrn_standards_number         3
_diffrn_standards_interval_count 97
_diffrn_standards_interval_time  ?
_diffrn_standards_decay_%        4.33
_diffrn_reflns_number            5511
_diffrn_reflns_av_R_equivalents  0.0290
_diffrn_reflns_av_sigmaI/netI    0.1822
_diffrn_reflns_limit_h_min       0
_diffrn_reflns_limit_h_max       32
_diffrn_reflns_limit_k_min       0
_diffrn_reflns_limit_k_max       32
_diffrn_reflns_limit_l_min       -1
_diffrn_reflns_limit_l_max       16
_diffrn_reflns_theta_min         1.51
_diffrn_reflns_theta_max         24.99
_reflns_number_total             4547
_reflns_number_gt                1862
_reflns_threshold_expression     >2sigma(I)

_computing_data_collection       'Siemens XSCANS'
_computing_cell_refinement       'Siemens XSCANS'
_computing_data_reduction        'Siemens SHELXTL'
_computing_structure_solution    'SHELXS-97 (Sheldrick, 1990)'
_computing_structure_refinement  'SHELXL-97 (Sheldrick, 1997)'
_computing_molecular_graphics    'Siemens SHELXTL'
_computing_publication_material  'Siemens SHELXTL'

_refine_special_details          
;
Refinement of F^2^ against ALL reflections.  The weighted R-factor wR and
goodness of fit S are based on F^2^, conventional R-factors R are based
on F, with F set to zero for negative F^2^. The threshold expression of
F^2^ > 2sigma(F^2^) is used only for calculating R-factors(gt) etc. and is
not relevant to the choice of reflections for refinement.  R-factors based
on F^2^ are statistically about twice as large as those based on F, and R-
factors based on ALL data will be even larger.
;

_refine_ls_structure_factor_coef Fsqd
_refine_ls_matrix_type           full
_refine_ls_weighting_scheme      calc
_refine_ls_weighting_details     
'calc w=1/[\s^2^(Fo^2^)+(0.0786P)^2^+0.0000P] where P=(Fo^2^+2Fc^2^)/3'
_atom_sites_solution_primary     direct
_atom_sites_solution_secondary   difmap
_atom_sites_solution_hydrogens   geom
_refine_ls_hydrogen_treatment    constr
_refine_ls_extinction_method     SHELXL
_refine_ls_extinction_coef       0.00057(6)
_refine_ls_extinction_expression Fc^*^=kFc[1+0.001xFc^2^\l^3^/sin(2\q)]^-1/4^
_refine_ls_number_reflns         4547
_refine_ls_number_parameters     257
_refine_ls_number_restraints     0
_refine_ls_R_factor_all          0.1395
_refine_ls_R_factor_gt           0.0571
_refine_ls_wR_factor_ref         0.1766
_refine_ls_wR_factor_gt          0.1612
_refine_ls_goodness_of_fit_ref   0.849
_refine_ls_restrained_S_all      0.849
_refine_ls_shift/su_max          0.000
_refine_ls_shift/su_mean         0.000

loop_
_atom_site_label
_atom_site_type_symbol
_atom_site_fract_x
_atom_site_fract_y
_atom_site_fract_z
_atom_site_U_iso_or_equiv
_atom_site_adp_type
_atom_site_occupancy
_atom_site_symmetry_multiplicity
_atom_site_calc_flag
_atom_site_refinement_flags
_atom_site_disorder_assembly
_atom_site_disorder_group
Cu Cu 0.25023(3) 0.34391(3) 0.59824(7) 0.0432(3) Uani 1 1 d . . .
O1 O 0.27600(15) 0.40650(14) 0.6377(4) 0.0421(13) Uani 1 1 d . . .
O2 O 0.22875(17) 0.27916(15) 0.5585(4) 0.0601(16) Uani 1 1 d . . .
O3 O 0.29960(19) 0.16161(16) 0.6961(5) 0.0666(17) Uani 1 1 d . . .
H3O H 0.3009 0.1911 0.7094 0.080 Uiso 1 1 calc R . .
N1 N 0.33352(17) 0.45243(17) 0.7198(4) 0.0375(15) Uani 1 1 d . . .
N2 N 0.37479(17) 0.44528(17) 0.7766(4) 0.0392(16) Uani 1 1 d . . .
N3 N 0.29963(18) 0.30517(17) 0.6641(4) 0.0402(15) Uani 1 1 d . . .
N4 N 0.29265(19) 0.25389(17) 0.6537(5) 0.0433(16) Uani 1 1 d . . .
C1 C 0.2782(2) 0.5217(2) 0.6922(6) 0.054(2) Uani 1 1 d . . .
H1 H 0.2528 0.5041 0.7212 0.065 Uiso 1 1 calc R . .
C2 C 0.2698(3) 0.5688(3) 0.6587(7) 0.076(3) Uani 1 1 d . . .
H2 H 0.2387 0.5831 0.6644 0.091 Uiso 1 1 calc R . .
C3 C 0.3071(4) 0.5939(3) 0.6174(9) 0.098(4) Uani 1 1 d . . .
H3 H 0.3015 0.6257 0.5947 0.117 Uiso 1 1 calc R . .
C4 C 0.3533(4) 0.5733(4) 0.6086(9) 0.108(4) Uani 1 1 d . . .
H4 H 0.3788 0.5910 0.5805 0.129 Uiso 1 1 calc R . .
C5 C 0.3614(3) 0.5263(3) 0.6416(7) 0.074(3) Uani 1 1 d . . .
H5 H 0.3925 0.5119 0.6357 0.089 Uiso 1 1 calc R . .
C6 C 0.3240(2) 0.5009(2) 0.6829(6) 0.042(2) Uani 1 1 d . . .
C7 C 0.3151(2) 0.4081(2) 0.6892(5) 0.0360(18) Uani 1 1 d . . .
C8 C 0.3454(2) 0.3708(2) 0.7273(5) 0.0362(18) Uani 1 1 d . . .
C9 C 0.3813(2) 0.3965(2) 0.7814(5) 0.0414(19) Uani 1 1 d . . .
C10 C 0.4220(2) 0.3771(3) 0.8441(6) 0.062(2) Uani 1 1 d . . .
H10A H 0.4363 0.4039 0.8790 0.075 Uiso 1 1 calc R . .
H10B H 0.4469 0.3617 0.8057 0.075 Uiso 1 1 calc R . .
H10C H 0.4086 0.3533 0.8875 0.075 Uiso 1 1 calc R . .
C11 C 0.3379(2) 0.3191(2) 0.7136(6) 0.0409(19) Uani 1 1 d . . .
C12 C 0.3729(3) 0.2818(2) 0.7539(7) 0.068(3) Uani 1 1 d . . .
H12A H 0.3739 0.2533 0.7135 0.081 Uiso 1 1 calc R . .
H12B H 0.3620 0.2723 0.8160 0.081 Uiso 1 1 calc R . .
H12C H 0.4053 0.2961 0.7581 0.081 Uiso 1 1 calc R . .
C13 C 0.2546(2) 0.2455(2) 0.5989(6) 0.0411(19) Uani 1 1 d . . .
C14 C 0.2406(2) 0.1930(2) 0.5835(6) 0.044(2) Uani 1 1 d . . .
C15 C 0.2025(3) 0.1813(2) 0.5225(6) 0.056(2) Uani 1 1 d . . .
H15 H 0.1870 0.2068 0.4896 0.067 Uiso 1 1 calc R . .
C16 C 0.1868(3) 0.1338(3) 0.5083(6) 0.056(2) Uani 1 1 d . . .
H16 H 0.1615 0.1273 0.4654 0.067 Uiso 1 1 calc R . .
C17 C 0.2082(3) 0.0961(3) 0.5571(7) 0.058(2) Uani 1 1 d . . .
H17 H 0.1969 0.0639 0.5491 0.070 Uiso 1 1 calc R . .
C18 C 0.2466(3) 0.1057(2) 0.6185(6) 0.055(2) Uani 1 1 d . . .
H18 H 0.2617 0.0800 0.6513 0.067 Uiso 1 1 calc R . .
C19 C 0.2625(2) 0.1538(2) 0.6311(6) 0.046(2) Uani 1 1 d . . .
O4 O 0.2630(7) 0.2689(5) 0.4084(16) 0.057(6) Uani 0.25 1 d P . .

loop_
_atom_site_aniso_label
_atom_site_aniso_U_11
_atom_site_aniso_U_22
_atom_site_aniso_U_33
_atom_site_aniso_U_23
_atom_site_aniso_U_13
_atom_site_aniso_U_12
Cu 0.0367(5) 0.0253(4) 0.0676(7) 0.0006(5) -0.0167(5) 0.0009(4)
O1 0.036(2) 0.029(2) 0.062(4) 0.001(2) -0.015(3) -0.0011(19)
O2 0.057(3) 0.028(3) 0.095(5) -0.005(3) -0.036(3) 0.002(2)
O3 0.069(3) 0.029(3) 0.102(5) 0.001(3) -0.028(4) 0.007(3)
N1 0.029(3) 0.025(3) 0.058(5) -0.007(3) -0.007(3) 0.005(2)
N2 0.025(3) 0.029(3) 0.064(5) -0.007(3) -0.005(3) 0.003(2)
N3 0.034(3) 0.025(3) 0.061(5) -0.004(3) -0.009(3) -0.001(2)
N4 0.042(3) 0.019(3) 0.069(5) -0.002(3) -0.014(3) -0.003(2)
C1 0.041(4) 0.036(4) 0.085(7) 0.001(4) -0.009(4) 0.008(3)
C2 0.076(6) 0.041(5) 0.109(9) 0.003(6) -0.024(6) 0.020(4)
C3 0.122(9) 0.045(5) 0.127(11) 0.016(6) -0.045(9) -0.008(6)
C4 0.094(8) 0.082(7) 0.148(12) 0.047(8) -0.019(8) -0.035(6)
C5 0.062(5) 0.051(5) 0.109(9) 0.018(6) 0.005(6) -0.004(4)
C6 0.039(4) 0.025(3) 0.062(6) -0.006(4) -0.013(4) -0.008(3)
C7 0.026(3) 0.027(3) 0.055(5) -0.006(4) -0.001(4) -0.001(3)
C8 0.029(4) 0.023(3) 0.057(6) -0.010(3) -0.007(4) 0.004(3)
C9 0.026(3) 0.042(4) 0.056(6) -0.009(4) -0.008(4) 0.007(3)
C10 0.045(4) 0.051(4) 0.090(7) 0.000(5) -0.028(5) 0.003(4)
C11 0.031(4) 0.032(4) 0.060(6) 0.000(4) -0.004(4) 0.008(3)
C12 0.058(5) 0.032(4) 0.112(8) -0.002(5) -0.033(5) 0.009(4)
C13 0.037(4) 0.026(3) 0.061(6) -0.004(4) -0.006(4) -0.001(3)
C14 0.041(4) 0.023(3) 0.069(6) -0.008(4) -0.005(4) 0.000(3)
C15 0.047(4) 0.036(4) 0.085(7) -0.004(4) -0.015(5) 0.001(3)
C16 0.048(4) 0.042(4) 0.078(7) -0.014(5) -0.004(5) -0.008(4)
C17 0.056(5) 0.033(4) 0.086(7) -0.015(5) 0.017(5) -0.012(4)
C18 0.066(5) 0.029(4) 0.071(7) -0.006(4) 0.013(5) -0.003(4)
C19 0.042(4) 0.036(4) 0.061(6) -0.007(4) -0.001(4) 0.004(3)
O4 0.072(13) 0.018(8) 0.082(18) 0.007(11) -0.018(13) -0.017(9)

_geom_special_details            
;
All esds (except the esd in the dihedral angle between two l.s. planes)
are estimated using the full covariance matrix.  The cell esds are taken
into account individually in the estimation of esds in distances, angles
and torsion angles; correlations between esds in cell parameters are only
used when they are defined by crystal symmetry.  An approximate (isotropic)
treatment of cell esds is used for estimating esds involving l.s. planes.
;

loop_
_geom_bond_atom_site_label_1
_geom_bond_atom_site_label_2
_geom_bond_distance
_geom_bond_site_symmetry_2
_geom_bond_publ_flag
Cu O1 1.913(4) . ?
Cu O2 1.928(4) . ?
Cu N3 1.936(5) . ?
Cu N2 1.987(5) 4_454 ?
O1 C7 1.285(7) . ?
O2 C13 1.283(7) . ?
O3 C19 1.374(8) . ?
O3 H3O 0.8200 . ?
N1 C7 1.369(7) . ?
N1 N2 1.388(7) . ?
N1 C6 1.435(7) . ?
N2 C9 1.332(7) . ?
N2 Cu 1.987(5) 3 ?
N3 C11 1.303(8) . ?
N3 N4 1.407(6) . ?
N4 C13 1.307(8) . ?
C1 C6 1.366(8) . ?
C1 C2 1.377(9) . ?
C1 H1 0.9300 . ?
C2 C3 1.349(13) . ?
C2 H2 0.9300 . ?
C3 C4 1.374(12) . ?
C3 H3 0.9300 . ?
C4 C5 1.371(11) . ?
C4 H4 0.9300 . ?
C5 C6 1.355(10) . ?
C5 H5 0.9300 . ?
C7 C8 1.405(8) . ?
C8 C9 1.416(8) . ?
C8 C11 1.428(8) . ?
C9 C10 1.506(9) . ?
C10 H10A 0.9600 . ?
C10 H10B 0.9600 . ?
C10 H10C 0.9600 . ?
C11 C12 1.495(8) . ?
C12 H12A 0.9600 . ?
C12 H12B 0.9600 . ?
C12 H12C 0.9600 . ?
C13 C14 1.483(8) . ?
C14 C15 1.378(9) . ?
C14 C19 1.389(9) . ?
C15 C16 1.370(9) . ?
C15 H15 0.9300 . ?
C16 C17 1.359(10) . ?
C16 H16 0.9300 . ?
C17 C18 1.377(10) . ?
C17 H17 0.9300 . ?
C18 C19 1.382(9) . ?
C18 H18 0.9300 . ?

loop_
_geom_angle_atom_site_label_1
_geom_angle_atom_site_label_2
_geom_angle_atom_site_label_3
_geom_angle
_geom_angle_site_symmetry_1
_geom_angle_site_symmetry_3
_geom_angle_publ_flag
O1 Cu O2 176.16(18) . . ?
O1 Cu N3 95.05(19) . . ?
O2 Cu N3 81.7(2) . . ?
O1 Cu N2 92.49(19) . 4_454 ?
O2 Cu N2 90.8(2) . 4_454 ?
N3 Cu N2 172.4(2) . 4_454 ?
C7 O1 Cu 119.6(4) . . ?
C13 O2 Cu 110.6(4) . . ?
C19 O3 H3O 109.5 . . ?
C7 N1 N2 110.6(5) . . ?
C7 N1 C6 128.5(6) . . ?
N2 N1 C6 118.8(5) . . ?
C9 N2 N1 105.9(5) . . ?
C9 N2 Cu 131.2(5) . 3 ?
N1 N2 Cu 122.2(4) . 3 ?
C11 N3 N4 116.5(5) . . ?
C11 N3 Cu 130.5(4) . . ?
N4 N3 Cu 113.0(4) . . ?
C13 N4 N3 109.9(5) . . ?
C6 C1 C2 119.7(7) . . ?
C6 C1 H1 120.2 . . ?
C2 C1 H1 120.2 . . ?
C3 C2 C1 119.5(8) . . ?
C3 C2 H2 120.3 . . ?
C1 C2 H2 120.3 . . ?
C2 C3 C4 120.9(9) . . ?
C2 C3 H3 119.5 . . ?
C4 C3 H3 119.5 . . ?
C5 C4 C3 119.5(9) . . ?
C5 C4 H4 120.3 . . ?
C3 C4 H4 120.3 . . ?
C6 C5 C4 119.7(8) . . ?
C6 C5 H5 120.2 . . ?
C4 C5 H5 120.2 . . ?
C5 C6 C1 120.8(7) . . ?
C5 C6 N1 118.9(6) . . ?
C1 C6 N1 120.3(6) . . ?
O1 C7 N1 120.4(6) . . ?
O1 C7 C8 132.3(6) . . ?
N1 C7 C8 107.2(6) . . ?
C7 C8 C9 104.7(5) . . ?
C7 C8 C11 124.6(6) . . ?
C9 C8 C11 130.7(6) . . ?
N2 C9 C8 111.6(6) . . ?
N2 C9 C10 118.2(6) . . ?
C8 C9 C10 130.2(6) . . ?
C9 C10 H10A 109.5 . . ?
C9 C10 H10B 109.5 . . ?
H10A C10 H10B 109.5 . . ?
C9 C10 H10C 109.5 . . ?
H10A C10 H10C 109.5 . . ?
H10B C10 H10C 109.5 . . ?
N3 C11 C8 118.0(5) . . ?
N3 C11 C12 120.8(6) . . ?
C8 C11 C12 121.2(6) . . ?
C11 C12 H12A 109.5 . . ?
C11 C12 H12B 109.5 . . ?
H12A C12 H12B 109.5 . . ?
C11 C12 H12C 109.5 . . ?
H12A C12 H12C 109.5 . . ?
H12B C12 H12C 109.5 . . ?
O2 C13 N4 124.6(6) . . ?
O2 C13 C14 118.3(6) . . ?
N4 C13 C14 117.0(6) . . ?
C15 C14 C19 116.5(6) . . ?
C15 C14 C13 120.1(6) . . ?
C19 C14 C13 123.4(7) . . ?
C16 C15 C14 122.6(7) . . ?
C16 C15 H15 118.7 . . ?
C14 C15 H15 118.7 . . ?
C17 C16 C15 119.8(7) . . ?
C17 C16 H16 120.1 . . ?
C15 C16 H16 120.1 . . ?
C16 C17 C18 120.0(7) . . ?
C16 C17 H17 120.0 . . ?
C18 C17 H17 120.0 . . ?
C17 C18 C19 119.6(7) . . ?
C17 C18 H18 120.2 . . ?
C19 C18 H18 120.2 . . ?
O3 C19 C18 117.2(7) . . ?
O3 C19 C14 121.2(6) . . ?
C18 C19 C14 121.6(7) . . ?

loop_
_geom_torsion_atom_site_label_1
_geom_torsion_atom_site_label_2
_geom_torsion_atom_site_label_3
_geom_torsion_atom_site_label_4
_geom_torsion
_geom_torsion_site_symmetry_1
_geom_torsion_site_symmetry_2
_geom_torsion_site_symmetry_3
_geom_torsion_site_symmetry_4
_geom_torsion_publ_flag
O2 Cu O1 C7 -31(4) . . . . ?
N3 Cu O1 C7 1.6(5) . . . . ?
N2 Cu O1 C7 -179.2(5) 4_454 . . . ?
O1 Cu O2 C13 37(4) . . . . ?
N3 Cu O2 C13 4.1(5) . . . . ?
N2 Cu O2 C13 -174.8(5) 4_454 . . . ?
C7 N1 N2 C9 -0.6(8) . . . . ?
C6 N1 N2 C9 -165.4(6) . . . . ?
C7 N1 N2 Cu -171.5(4) . . . 3 ?
C6 N1 N2 Cu 23.7(8) . . . 3 ?
O1 Cu N3 C11 -2.8(7) . . . . ?
O2 Cu N3 C11 175.1(7) . . . . ?
N2 Cu N3 C11 -176.8(17) 4_454 . . . ?
O1 Cu N3 N4 178.8(4) . . . . ?
O2 Cu N3 N4 -3.2(5) . . . . ?
N2 Cu N3 N4 5(2) 4_454 . . . ?
C11 N3 N4 C13 -176.9(7) . . . . ?
Cu N3 N4 C13 1.7(7) . . . . ?
C6 C1 C2 C3 -0.4(14) . . . . ?
C1 C2 C3 C4 -0.1(17) . . . . ?
C2 C3 C4 C5 0.5(18) . . . . ?
C3 C4 C5 C6 -0.3(16) . . . . ?
C4 C5 C6 C1 -0.2(14) . . . . ?
C4 C5 C6 N1 -178.0(9) . . . . ?
C2 C1 C6 C5 0.6(13) . . . . ?
C2 C1 C6 N1 178.3(7) . . . . ?
C7 N1 C6 C5 -114.1(8) . . . . ?
N2 N1 C6 C5 47.7(10) . . . . ?
C7 N1 C6 C1 68.1(10) . . . . ?
N2 N1 C6 C1 -130.1(7) . . . . ?
Cu O1 C7 N1 -178.6(5) . . . . ?
Cu O1 C7 C8 -1.1(11) . . . . ?
N2 N1 C7 O1 178.1(6) . . . . ?
C6 N1 C7 O1 -19.0(11) . . . . ?
N2 N1 C7 C8 0.0(8) . . . . ?
C6 N1 C7 C8 162.9(7) . . . . ?
O1 C7 C8 C9 -177.2(8) . . . . ?
N1 C7 C8 C9 0.6(8) . . . . ?
O1 C7 C8 C11 0.8(13) . . . . ?
N1 C7 C8 C11 178.6(7) . . . . ?
N1 N2 C9 C8 1.0(8) . . . . ?
Cu N2 C9 C8 170.7(5) 3 . . . ?
N1 N2 C9 C10 -176.2(6) . . . . ?
Cu N2 C9 C10 -6.5(10) 3 . . . ?
C7 C8 C9 N2 -1.1(8) . . . . ?
C11 C8 C9 N2 -178.8(7) . . . . ?
C7 C8 C9 C10 175.8(7) . . . . ?
C11 C8 C9 C10 -2.0(13) . . . . ?
N4 N3 C11 C8 -178.7(6) . . . . ?
Cu N3 C11 C8 3.0(10) . . . . ?
N4 N3 C11 C12 1.9(10) . . . . ?
Cu N3 C11 C12 -176.5(6) . . . . ?
C7 C8 C11 N3 -1.6(11) . . . . ?
C9 C8 C11 N3 175.8(7) . . . . ?
C7 C8 C11 C12 177.8(7) . . . . ?
C9 C8 C11 C12 -4.8(12) . . . . ?
Cu O2 C13 N4 -4.8(10) . . . . ?
Cu O2 C13 C14 174.7(5) . . . . ?
N3 N4 C13 O2 2.1(10) . . . . ?
N3 N4 C13 C14 -177.5(6) . . . . ?
O2 C13 C14 C15 3.9(11) . . . . ?
N4 C13 C14 C15 -176.5(7) . . . . ?
O2 C13 C14 C19 -173.1(7) . . . . ?
N4 C13 C14 C19 6.5(11) . . . . ?
C19 C14 C15 C16 -0.2(12) . . . . ?
C13 C14 C15 C16 -177.4(7) . . . . ?
C14 C15 C16 C17 1.5(12) . . . . ?
C15 C16 C17 C18 -1.9(12) . . . . ?
C16 C17 C18 C19 1.1(12) . . . . ?
C17 C18 C19 O3 177.4(7) . . . . ?
C17 C18 C19 C14 0.2(12) . . . . ?
C15 C14 C19 O3 -177.7(7) . . . . ?
C13 C14 C19 O3 -0.6(11) . . . . ?
C15 C14 C19 C18 -0.6(11) . . . . ?
C13 C14 C19 C18 176.5(7) . . . . ?

loop_
_geom_hbond_atom_site_label_D
_geom_hbond_atom_site_label_H
_geom_hbond_atom_site_label_A
_geom_hbond_distance_DH
_geom_hbond_distance_HA
_geom_hbond_distance_DA
_geom_hbond_angle_DHA
_geom_hbond_site_symmetry_A
O3 H3O N4 0.82 1.89 2.574(6) 140.8 .

_diffrn_measured_fraction_theta_max 1.000
_diffrn_reflns_theta_full        24.99
_diffrn_measured_fraction_theta_full 1.000
_refine_diff_density_max         0.566
_refine_diff_density_min         -0.308
_refine_diff_density_rms         0.090

