####################################################################### 
# 
# This file contains crystal structure data downloaded from the 
# Cambridge Structural Database (CSD) hosted by the Cambridge 
# Crystallographic Data Centre (CCDC).
# 
# Full information about CCDC data access policies and citation 
# guidelines are available at http://www.ccdc.cam.ac.uk/access/V1 
# 
# Audit and citation data items may have been added by the CCDC. 
# Please retain this information to preserve the provenance of 
# this file and to allow appropriate attribution of the data. 
# 
#######################################################################

data_a
_audit_block_doi                 10.5517/ccp79v1
_database_code_depnum_ccdc_archive 'CCDC 632643'
loop_
_citation_id
_citation_doi
_citation_year
1 10.1021/cg700797v 2008
_audit_update_record             
;
2007-01-05 deposited with the CCDC.	2024-07-12 downloaded from the CCDC.
;

_audit_creation_method           SHELXL-97
_chemical_name_systematic        
;
?
;
_chemical_name_common            ?
_chemical_melting_point          ?
_chemical_formula_moiety         ?
_chemical_formula_sum            'C19 H23 Mn N3 O10 S'
_chemical_formula_weight         540.40

loop_
_atom_type_symbol
_atom_type_description
_atom_type_scat_dispersion_real
_atom_type_scat_dispersion_imag
_atom_type_scat_source
C C 0.0033 0.0016 'International Tables Vol C Tables 4.2.6.8 and 6.1.1.4'
H H 0.0000 0.0000 'International Tables Vol C Tables 4.2.6.8 and 6.1.1.4'
N N 0.0061 0.0033 'International Tables Vol C Tables 4.2.6.8 and 6.1.1.4'
O O 0.0106 0.0060 'International Tables Vol C Tables 4.2.6.8 and 6.1.1.4'
S S 0.1246 0.1234 'International Tables Vol C Tables 4.2.6.8 and 6.1.1.4'
Mn Mn 0.3368 0.7283 'International Tables Vol C Tables 4.2.6.8 and 6.1.1.4'

_symmetry_cell_setting           Monoclinic
_symmetry_space_group_name_H-M   P2(1)/n

loop_
_symmetry_equiv_pos_as_xyz
'x, y, z'
'-x+1/2, y+1/2, -z+1/2'
'-x, -y, -z'
'x-1/2, -y-1/2, z-1/2'

_cell_length_a                   11.663(3)
_cell_length_b                   8.708(2)
_cell_length_c                   27.218(7)
_cell_angle_alpha                90.00
_cell_angle_beta                 101.485(4)
_cell_angle_gamma                90.00
_cell_volume                     2708.9(11)
_cell_formula_units_Z            4
_cell_measurement_temperature    291(2)
_cell_measurement_reflns_used    2296
_cell_measurement_theta_min      2.46
_cell_measurement_theta_max      22.64

_exptl_crystal_description       ?
_exptl_crystal_colour            ?
_exptl_crystal_size_max          ?
_exptl_crystal_size_mid          ?
_exptl_crystal_size_min          ?
_exptl_crystal_density_meas      0
_exptl_crystal_density_diffrn    1.325
_exptl_crystal_density_method    'not measured'
_exptl_crystal_F_000             1116
_exptl_absorpt_coefficient_mu    0.616
_exptl_absorpt_correction_type   none
_exptl_absorpt_correction_T_min  ?
_exptl_absorpt_correction_T_max  ?
_exptl_absorpt_process_details   ?

_exptl_special_details           
;
?
;

_diffrn_ambient_temperature      291(2)
_diffrn_radiation_wavelength     0.71073
_diffrn_radiation_type           MoK\a
_diffrn_radiation_source         'fine-focus sealed tube'
_diffrn_radiation_monochromator  graphite
_diffrn_measurement_device_type  'CCD area detector'
_diffrn_measurement_method       'phi and omega scans'
_diffrn_detector_area_resol_mean ?
_diffrn_standards_number         ?
_diffrn_standards_interval_count ?
_diffrn_standards_interval_time  ?
_diffrn_standards_decay_%        ?
_diffrn_reflns_number            15776
_diffrn_reflns_av_R_equivalents  0.0857
_diffrn_reflns_av_sigmaI/netI    0.1132
_diffrn_reflns_limit_h_min       -15
_diffrn_reflns_limit_h_max       13
_diffrn_reflns_limit_k_min       -11
_diffrn_reflns_limit_k_max       11
_diffrn_reflns_limit_l_min       -35
_diffrn_reflns_limit_l_max       35
_diffrn_reflns_theta_min         2.46
_diffrn_reflns_theta_max         27.50
_reflns_number_total             5997
_reflns_number_gt                3148
_reflns_threshold_expression     >2sigma(I)

_computing_data_collection       'Bruker SMART'
_computing_cell_refinement       'Bruker SMART'
_computing_data_reduction        'Bruker SAINT'
_computing_structure_solution    'SHELXS-97 (Sheldrick, 1990)'
_computing_structure_refinement  'SHELXL-97 (Sheldrick, 1997)'
_computing_molecular_graphics    'Bruker SHELXTL'
_computing_publication_material  'Bruker SHELXTL'

_refine_special_details          
;
Refinement of F^2^ against ALL reflections. The weighted R-factor wR and
goodness of fit S are based on F^2^, conventional R-factors R are based
on F, with F set to zero for negative F^2^. The threshold expression of
F^2^ > 2sigma(F^2^) is used only for calculating R-factors(gt) etc. and is
not relevant to the choice of reflections for refinement. R-factors based
on F^2^ are statistically about twice as large as those based on F, and R-
factors based on ALL data will be even larger.
;

_refine_ls_structure_factor_coef Fsqd
_refine_ls_matrix_type           full
_refine_ls_weighting_scheme      calc
_refine_ls_weighting_details     
'calc w=1/[\s^2^(Fo^2^)+(0.1452P)^2^+0.1153P] where P=(Fo^2^+2Fc^2^)/3'
_atom_sites_solution_primary     direct
_atom_sites_solution_secondary   difmap
_atom_sites_solution_hydrogens   geom
_refine_ls_hydrogen_treatment    mixed
_refine_ls_extinction_method     none
_refine_ls_extinction_coef       ?
_refine_ls_number_reflns         5997
_refine_ls_number_parameters     307
_refine_ls_number_restraints     18
_refine_ls_R_factor_all          0.1469
_refine_ls_R_factor_gt           0.0756
_refine_ls_wR_factor_ref         0.2673
_refine_ls_wR_factor_gt          0.2138
_refine_ls_goodness_of_fit_ref   1.038
_refine_ls_restrained_S_all      1.039
_refine_ls_shift/su_max          0.000
_refine_ls_shift/su_mean         0.000

loop_
_atom_site_label
_atom_site_type_symbol
_atom_site_fract_x
_atom_site_fract_y
_atom_site_fract_z
_atom_site_U_iso_or_equiv
_atom_site_adp_type
_atom_site_occupancy
_atom_site_symmetry_multiplicity
_atom_site_calc_flag
_atom_site_refinement_flags
_atom_site_disorder_assembly
_atom_site_disorder_group
Mn1 Mn 1.25385(7) 0.63387(9) 0.19667(3) 0.0261(3) Uani 1 1 d . . .
S1 S 1.05436(17) 0.8399(2) -0.11159(6) 0.0529(5) Uani 1 1 d . . .
O1 O 0.7436(3) 0.6091(4) -0.21093(14) 0.0354(9) Uani 1 1 d . . .
O2 O 0.8011(3) 0.8469(4) -0.22120(13) 0.0318(9) Uani 1 1 d . . .
O3 O 1.0777(5) 0.7690(7) -0.15590(17) 0.0789(18) Uani 1 1 d . . .
O4 O 1.1063(5) 0.9845(6) -0.09498(19) 0.0773(18) Uani 1 1 d . . .
O5 O 1.1918(6) 0.8583(5) 0.08516(17) 0.0688(16) Uani 1 1 d . . .
O6 O 1.2081(4) 0.6185(4) 0.11403(14) 0.0386(9) Uani 1 1 d . . .
O7 O 1.2648(4) 0.8785(4) 0.18322(14) 0.0394(10) Uani 1 1 d . . .
H1W H 1.2447 0.8863 0.1520 0.059 Uiso 1 1 d R . .
H2W H 1.2411 0.9552 0.1967 0.059 Uiso 1 1 d R . .
O8 O 0.2940(16) 0.1086(19) 0.0389(6) 0.317(8) Uani 1 1 d U . .
H3W H 0.3237 0.0299 0.0534 0.476 Uiso 1 1 d R . .
H4W H 0.2515 0.1539 0.0544 0.476 Uiso 1 1 d R . .
O9 O 0.329(2) 0.111(3) 0.9517(8) 0.417(13) Uani 1 1 d U . .
H5W H 0.4000 0.1105 0.9494 0.625 Uiso 1 1 d R . .
H6W H 0.3188 0.1838 0.9706 0.625 Uiso 1 1 d R . .
O10 O 0.408(3) 0.834(3) 0.8642(10) 0.493(17) Uani 1 1 d U . .
H7W H 0.4333 0.9016 0.8855 0.740 Uiso 1 1 d R . .
H8W H 0.4646 0.7863 0.8563 0.740 Uiso 1 1 d R . .
N1 N 0.9156(5) 0.8641(6) -0.11946(19) 0.0473(13) Uani 1 1 d . . .
H1 H 0.8884 0.9515 -0.1125 0.057 Uiso 1 1 calc R . .
N2 N 1.0586(4) 0.6362(5) 0.19994(17) 0.0336(11) Uani 1 1 d . . .
N3 N 0.4487(4) 0.6231(6) 0.19503(18) 0.0361(11) Uani 1 1 d . . .
C1 C 0.7911(5) 0.7325(6) -0.19468(19) 0.0284(11) Uani 1 1 d . . .
C2 C 0.8355(6) 0.7405(7) -0.1381(2) 0.0438(15) Uani 1 1 d . . .
H2A H 0.7682 0.7490 -0.1223 0.053 Uiso 1 1 calc R . .
H2B H 0.8739 0.6440 -0.1273 0.053 Uiso 1 1 calc R . .
C3 C 1.0967(6) 0.7069(7) -0.0619(2) 0.0439(15) Uani 1 1 d . . .
C4 C 1.1205(5) 0.7596(7) -0.0129(2) 0.0378(13) Uani 1 1 d . . .
H4 H 1.1126 0.8634 -0.0063 0.045 Uiso 1 1 calc R . .
C5 C 1.1562(5) 0.6573(6) 0.0261(2) 0.0343(13) Uani 1 1 d . . .
C6 C 1.1666(6) 0.5026(7) 0.0153(2) 0.0471(16) Uani 1 1 d . . .
H6 H 1.1902 0.4335 0.0414 0.056 Uiso 1 1 calc R . .
C7 C 1.1425(7) 0.4499(8) -0.0333(2) 0.061(2) Uani 1 1 d . . .
H7A H 1.1495 0.3459 -0.0401 0.074 Uiso 1 1 calc R . .
C8 C 1.1073(7) 0.5544(8) -0.0728(2) 0.061(2) Uani 1 1 d . . .
H8 H 1.0913 0.5206 -0.1058 0.074 Uiso 1 1 calc R . .
C9 C 1.1859(5) 0.7145(6) 0.0795(2) 0.0351(13) Uani 1 1 d . . .
C10 C 1.0107(5) 0.5353(8) 0.2265(2) 0.0456(16) Uani 1 1 d . . .
H10 H 1.0595 0.4634 0.2455 0.055 Uiso 1 1 calc R . .
C11 C 0.8941(5) 0.5310(7) 0.2276(2) 0.0482(17) Uani 1 1 d . . .
H11 H 0.8654 0.4583 0.2470 0.058 Uiso 1 1 calc R . .
C12 C 0.8191(5) 0.6354(6) 0.1995(2) 0.0339(12) Uani 1 1 d . . .
C13 C 0.8679(5) 0.7397(7) 0.1715(2) 0.0411(15) Uani 1 1 d . . .
H13 H 0.8210 0.8115 0.1516 0.049 Uiso 1 1 calc R . .
C14 C 0.9871(5) 0.7363(7) 0.1734(2) 0.0378(14) Uani 1 1 d . . .
H14 H 1.0188 0.8089 0.1548 0.045 Uiso 1 1 calc R . .
C15 C 0.6912(5) 0.6319(6) 0.1979(2) 0.0340(12) Uani 1 1 d . . .
C16 C 0.6445(6) 0.5762(9) 0.2377(2) 0.0531(18) Uani 1 1 d . . .
H16 H 0.6937 0.5399 0.2665 0.064 Uiso 1 1 calc R . .
C17 C 0.5250(5) 0.5752(8) 0.2342(2) 0.0503(17) Uani 1 1 d . . .
H17 H 0.4964 0.5379 0.2614 0.060 Uiso 1 1 calc R . .
C18 C 0.4934(6) 0.6795(10) 0.1574(3) 0.063(2) Uani 1 1 d . . .
H18 H 0.4418 0.7166 0.1294 0.075 Uiso 1 1 calc R . .
C19 C 0.6111(6) 0.6861(9) 0.1576(3) 0.060(2) Uani 1 1 d . . .
H19 H 0.6369 0.7275 0.1302 0.072 Uiso 1 1 calc R . .

loop_
_atom_site_aniso_label
_atom_site_aniso_U_11
_atom_site_aniso_U_22
_atom_site_aniso_U_33
_atom_site_aniso_U_23
_atom_site_aniso_U_13
_atom_site_aniso_U_12
Mn1 0.0191(4) 0.0306(4) 0.0284(5) 0.0017(3) 0.0039(3) -0.0002(4)
S1 0.0590(12) 0.0578(11) 0.0368(9) 0.0127(7) -0.0030(8) -0.0073(9)
O1 0.034(2) 0.030(2) 0.039(2) -0.0004(16) 0.0017(18) -0.0028(18)
O2 0.036(2) 0.0281(19) 0.031(2) 0.0029(15) 0.0047(17) -0.0016(17)
O3 0.084(4) 0.122(5) 0.030(3) 0.015(3) 0.011(3) 0.014(4)
O4 0.086(4) 0.061(3) 0.071(4) 0.025(3) -0.017(3) -0.035(3)
O5 0.124(5) 0.042(3) 0.035(2) 0.000(2) 0.001(3) 0.005(3)
O6 0.044(3) 0.039(2) 0.031(2) 0.0043(17) 0.0043(18) 0.002(2)
O7 0.047(3) 0.037(2) 0.035(2) -0.0055(17) 0.0086(19) -0.0001(19)
O8 0.332(12) 0.318(12) 0.314(11) 0.008(9) 0.094(9) -0.003(9)
O9 0.415(16) 0.413(15) 0.418(16) 0.017(9) 0.075(10) 0.015(9)
O10 0.501(19) 0.498(19) 0.482(19) 0.025(10) 0.102(10) -0.023(10)
N1 0.056(4) 0.034(3) 0.044(3) -0.001(2) -0.009(3) 0.006(3)
N2 0.021(2) 0.041(3) 0.039(3) 0.006(2) 0.007(2) 0.002(2)
N3 0.019(2) 0.048(3) 0.041(3) 0.009(2) 0.005(2) 0.003(2)
C1 0.021(3) 0.030(3) 0.035(3) 0.001(2) 0.006(2) 0.002(2)
C2 0.053(4) 0.043(3) 0.033(3) 0.009(3) 0.001(3) -0.002(3)
C3 0.051(4) 0.046(3) 0.031(3) 0.006(3) 0.001(3) 0.002(3)
C4 0.041(4) 0.038(3) 0.031(3) 0.000(2) 0.000(3) 0.002(3)
C5 0.035(3) 0.040(3) 0.027(3) 0.004(2) 0.003(2) 0.003(3)
C6 0.057(4) 0.043(3) 0.039(4) 0.006(3) 0.004(3) 0.009(3)
C7 0.096(6) 0.044(4) 0.042(4) -0.002(3) 0.008(4) 0.020(4)
C8 0.086(6) 0.059(4) 0.035(4) -0.009(3) 0.003(4) 0.009(4)
C9 0.038(3) 0.036(3) 0.029(3) -0.001(2) 0.003(2) -0.004(3)
C10 0.022(3) 0.059(4) 0.058(4) 0.023(3) 0.013(3) 0.008(3)
C11 0.028(3) 0.056(4) 0.063(4) 0.031(3) 0.015(3) 0.010(3)
C12 0.023(3) 0.040(3) 0.039(3) 0.002(2) 0.007(2) 0.007(3)
C13 0.025(3) 0.039(3) 0.061(4) 0.012(3) 0.013(3) 0.010(3)
C14 0.020(3) 0.040(3) 0.054(4) 0.005(3) 0.009(3) 0.001(3)
C15 0.022(3) 0.041(3) 0.040(3) 0.002(3) 0.008(2) 0.003(3)
C16 0.029(3) 0.078(5) 0.051(4) 0.023(4) 0.004(3) 0.009(4)
C17 0.023(3) 0.079(5) 0.052(4) 0.019(3) 0.016(3) 0.003(3)
C18 0.027(3) 0.108(6) 0.053(4) 0.039(4) 0.006(3) 0.007(4)
C19 0.026(3) 0.106(6) 0.052(4) 0.031(4) 0.017(3) 0.008(4)

_geom_special_details            
;
All esds (except the esd in the dihedral angle between two l.s. planes)
are estimated using the full covariance matrix. The cell esds are taken
into account individually in the estimation of esds in distances, angles
and torsion angles; correlations between esds in cell parameters are only
used when they are defined by crystal symmetry. An approximate (isotropic)
treatment of cell esds is used for estimating esds involving l.s. planes.
;

loop_
_geom_bond_atom_site_label_1
_geom_bond_atom_site_label_2
_geom_bond_distance
_geom_bond_site_symmetry_2
_geom_bond_publ_flag
Mn1 O1 2.150(4) 3_765 ?
Mn1 O7 2.170(4) . ?
Mn1 O2 2.200(4) 4_676 ?
Mn1 O6 2.210(4) . ?
Mn1 N3 2.283(4) 1_655 ?
Mn1 N2 2.296(5) . ?
S1 O3 1.428(5) . ?
S1 O4 1.431(5) . ?
S1 N1 1.604(6) . ?
S1 C3 1.774(6) . ?
O1 C1 1.248(6) . ?
O1 Mn1 2.150(4) 3_765 ?
O2 C1 1.249(6) . ?
O2 Mn1 2.200(4) 4_575 ?
O5 C9 1.261(7) . ?
O6 C9 1.247(6) . ?
O7 H1W 0.8378 . ?
O7 H2W 0.8356 . ?
O8 H3W 0.8312 . ?
O8 H4W 0.8138 . ?
O9 H5W 0.8400 . ?
O9 H6W 0.8432 . ?
O10 H7W 0.8359 . ?
O10 H8W 0.8405 . ?
N1 C2 1.449(8) . ?
N1 H1 0.8600 . ?
N2 C14 1.318(7) . ?
N2 C10 1.329(7) . ?
N3 C17 1.313(8) . ?
N3 C18 1.332(7) . ?
N3 Mn1 2.283(4) 1_455 ?
C1 C2 1.526(8) . ?
C2 H2A 0.9700 . ?
C2 H2B 0.9700 . ?
C3 C8 1.371(9) . ?
C3 C4 1.385(8) . ?
C4 C5 1.385(7) . ?
C4 H4 0.9300 . ?
C5 C6 1.389(8) . ?
C5 C9 1.511(8) . ?
C6 C7 1.377(9) . ?
C6 H6 0.9300 . ?
C7 C8 1.405(9) . ?
C7 H7A 0.9300 . ?
C8 H8 0.9300 . ?
C10 C11 1.367(8) . ?
C10 H10 0.9300 . ?
C11 C12 1.382(8) . ?
C11 H11 0.9300 . ?
C12 C13 1.378(7) . ?
C12 C15 1.484(7) . ?
C13 C14 1.382(8) . ?
C13 H13 0.9300 . ?
C14 H14 0.9300 . ?
C15 C19 1.375(9) . ?
C15 C16 1.393(8) . ?
C16 C17 1.378(8) . ?
C16 H16 0.9300 . ?
C17 H17 0.9300 . ?
C18 C19 1.373(9) . ?
C18 H18 0.9300 . ?
C19 H19 0.9300 . ?

loop_
_geom_angle_atom_site_label_1
_geom_angle_atom_site_label_2
_geom_angle_atom_site_label_3
_geom_angle
_geom_angle_site_symmetry_1
_geom_angle_site_symmetry_3
_geom_angle_publ_flag
O1 Mn1 O7 175.90(16) 3_765 . ?
O1 Mn1 O2 84.25(14) 3_765 4_676 ?
O7 Mn1 O2 94.90(14) . 4_676 ?
O1 Mn1 O6 96.65(14) 3_765 . ?
O7 Mn1 O6 84.16(14) . . ?
O2 Mn1 O6 178.96(14) 4_676 . ?
O1 Mn1 N3 89.13(16) 3_765 1_655 ?
O7 Mn1 N3 86.83(16) . 1_655 ?
O2 Mn1 N3 88.51(16) 4_676 1_655 ?
O6 Mn1 N3 90.99(16) . 1_655 ?
O1 Mn1 N2 88.85(16) 3_765 . ?
O7 Mn1 N2 95.18(16) . . ?
O2 Mn1 N2 90.56(15) 4_676 . ?
O6 Mn1 N2 89.97(16) . . ?
N3 Mn1 N2 177.86(17) 1_655 . ?
O3 S1 O4 120.5(4) . . ?
O3 S1 N1 107.5(3) . . ?
O4 S1 N1 106.2(3) . . ?
O3 S1 C3 106.9(3) . . ?
O4 S1 C3 107.3(3) . . ?
N1 S1 C3 107.9(3) . . ?
C1 O1 Mn1 142.5(4) . 3_765 ?
C1 O2 Mn1 127.9(3) . 4_575 ?
C9 O6 Mn1 134.3(4) . . ?
Mn1 O7 H1W 103.7 . . ?
Mn1 O7 H2W 132.4 . . ?
H1W O7 H2W 109.3 . . ?
H3W O8 H4W 113.1 . . ?
H5W O9 H6W 108.1 . . ?
H7W O10 H8W 110.1 . . ?
C2 N1 S1 120.8(4) . . ?
C2 N1 H1 119.6 . . ?
S1 N1 H1 119.6 . . ?
C14 N2 C10 116.6(5) . . ?
C14 N2 Mn1 120.5(3) . . ?
C10 N2 Mn1 122.9(4) . . ?
C17 N3 C18 115.8(5) . . ?
C17 N3 Mn1 120.9(4) . 1_455 ?
C18 N3 Mn1 122.9(4) . 1_455 ?
O1 C1 O2 124.6(5) . . ?
O1 C1 C2 115.7(5) . . ?
O2 C1 C2 119.6(5) . . ?
N1 C2 C1 116.9(5) . . ?
N1 C2 H2A 108.1 . . ?
C1 C2 H2A 108.1 . . ?
N1 C2 H2B 108.1 . . ?
C1 C2 H2B 108.1 . . ?
H2A C2 H2B 107.3 . . ?
C8 C3 C4 121.2(6) . . ?
C8 C3 S1 119.5(5) . . ?
C4 C3 S1 119.3(5) . . ?
C5 C4 C3 119.8(5) . . ?
C5 C4 H4 120.1 . . ?
C3 C4 H4 120.1 . . ?
C4 C5 C6 119.2(5) . . ?
C4 C5 C9 120.1(5) . . ?
C6 C5 C9 120.7(5) . . ?
C7 C6 C5 121.1(6) . . ?
C7 C6 H6 119.5 . . ?
C5 C6 H6 119.5 . . ?
C6 C7 C8 119.4(6) . . ?
C6 C7 H7A 120.3 . . ?
C8 C7 H7A 120.3 . . ?
C3 C8 C7 119.3(6) . . ?
C3 C8 H8 120.4 . . ?
C7 C8 H8 120.4 . . ?
O6 C9 O5 125.1(5) . . ?
O6 C9 C5 118.5(5) . . ?
O5 C9 C5 116.2(5) . . ?
N2 C10 C11 123.9(6) . . ?
N2 C10 H10 118.1 . . ?
C11 C10 H10 118.1 . . ?
C10 C11 C12 119.5(5) . . ?
C10 C11 H11 120.2 . . ?
C12 C11 H11 120.2 . . ?
C13 C12 C11 117.0(5) . . ?
C13 C12 C15 121.4(5) . . ?
C11 C12 C15 121.6(5) . . ?
C12 C13 C14 119.3(5) . . ?
C12 C13 H13 120.4 . . ?
C14 C13 H13 120.4 . . ?
N2 C14 C13 123.8(5) . . ?
N2 C14 H14 118.1 . . ?
C13 C14 H14 118.1 . . ?
C19 C15 C16 115.5(5) . . ?
C19 C15 C12 122.4(5) . . ?
C16 C15 C12 122.1(5) . . ?
C17 C16 C15 119.7(6) . . ?
C17 C16 H16 120.2 . . ?
C15 C16 H16 120.2 . . ?
N3 C17 C16 124.5(5) . . ?
N3 C17 H17 117.7 . . ?
C16 C17 H17 117.7 . . ?
N3 C18 C19 123.8(6) . . ?
N3 C18 H18 118.1 . . ?
C19 C18 H18 118.1 . . ?
C18 C19 C15 120.6(6) . . ?
C18 C19 H19 119.7 . . ?
C15 C19 H19 119.7 . . ?

loop_
_geom_torsion_atom_site_label_1
_geom_torsion_atom_site_label_2
_geom_torsion_atom_site_label_3
_geom_torsion_atom_site_label_4
_geom_torsion
_geom_torsion_site_symmetry_1
_geom_torsion_site_symmetry_2
_geom_torsion_site_symmetry_3
_geom_torsion_site_symmetry_4
_geom_torsion_publ_flag
O1 Mn1 O6 C9 176.0(5) 3_765 . . . ?
O7 Mn1 O6 C9 -8.0(5) . . . . ?
O2 Mn1 O6 C9 -33(8) 4_676 . . . ?
N3 Mn1 O6 C9 -94.7(5) 1_655 . . . ?
N2 Mn1 O6 C9 87.2(5) . . . . ?
O3 S1 N1 C2 47.6(5) . . . . ?
O4 S1 N1 C2 177.8(4) . . . . ?
C3 S1 N1 C2 -67.4(5) . . . . ?
O1 Mn1 N2 C14 -149.8(4) 3_765 . . . ?
O7 Mn1 N2 C14 30.9(4) . . . . ?
O2 Mn1 N2 C14 125.9(4) 4_676 . . . ?
O6 Mn1 N2 C14 -53.2(4) . . . . ?
N3 Mn1 N2 C14 -170(5) 1_655 . . . ?
O1 Mn1 N2 C10 27.5(5) 3_765 . . . ?
O7 Mn1 N2 C10 -151.7(5) . . . . ?
O2 Mn1 N2 C10 -56.8(5) 4_676 . . . ?
O6 Mn1 N2 C10 124.1(5) . . . . ?
N3 Mn1 N2 C10 8(5) 1_655 . . . ?
Mn1 O1 C1 O2 151.2(4) 3_765 . . . ?
Mn1 O1 C1 C2 -30.6(8) 3_765 . . . ?
Mn1 O2 C1 O1 -5.2(8) 4_575 . . . ?
Mn1 O2 C1 C2 176.7(4) 4_575 . . . ?
S1 N1 C2 C1 -92.0(6) . . . . ?
O1 C1 C2 N1 165.0(5) . . . . ?
O2 C1 C2 N1 -16.7(8) . . . . ?
O3 S1 C3 C8 -19.9(7) . . . . ?
O4 S1 C3 C8 -150.5(6) . . . . ?
N1 S1 C3 C8 95.5(6) . . . . ?
O3 S1 C3 C4 158.9(5) . . . . ?
O4 S1 C3 C4 28.3(6) . . . . ?
N1 S1 C3 C4 -85.7(6) . . . . ?
C8 C3 C4 C5 0.3(10) . . . . ?
S1 C3 C4 C5 -178.