####################################################################### 
# 
# This file contains crystal structure data downloaded from the 
# Cambridge Structural Database (CSD) hosted by the Cambridge 
# Crystallographic Data Centre (CCDC).
# 
# Full information about CCDC data access policies and citation 
# guidelines are available at http://www.ccdc.cam.ac.uk/access/V1 
# 
# Audit and citation data items may have been added by the CCDC. 
# Please retain this information to preserve the provenance of 
# this file and to allow appropriate attribution of the data. 
# 
#######################################################################

data_h
_audit_block_doi                 10.5517/ccp79t0
_database_code_depnum_ccdc_archive 'CCDC 632642'
loop_
_citation_id
_citation_doi
_citation_year
1 10.1021/cg700797v 2008
_audit_update_record             
;
2007-01-05 deposited with the CCDC.	2024-07-12 downloaded from the CCDC.
;

_audit_creation_method           SHELXL-97
_chemical_name_systematic        
;
?
;
_chemical_name_common            ?
_chemical_melting_point          ?
_chemical_formula_moiety         ?
_chemical_formula_sum            'C24 H29 Mn N4 O11 S'
_chemical_formula_weight         636.51

loop_
_atom_type_symbol
_atom_type_description
_atom_type_scat_dispersion_real
_atom_type_scat_dispersion_imag
_atom_type_scat_source
C C 0.0033 0.0016 'International Tables Vol C Tables 4.2.6.8 and 6.1.1.4'
H H 0.0000 0.0000 'International Tables Vol C Tables 4.2.6.8 and 6.1.1.4'
N N 0.0061 0.0033 'International Tables Vol C Tables 4.2.6.8 and 6.1.1.4'
O O 0.0106 0.0060 'International Tables Vol C Tables 4.2.6.8 and 6.1.1.4'
S S 0.1246 0.1234 'International Tables Vol C Tables 4.2.6.8 and 6.1.1.4'
Mn Mn 0.3368 0.7283 'International Tables Vol C Tables 4.2.6.8 and 6.1.1.4'

_symmetry_cell_setting           Monoclinic
_symmetry_space_group_name_H-M   C2/c

loop_
_symmetry_equiv_pos_as_xyz
'x, y, z'
'-x, y, -z+1/2'
'x+1/2, y+1/2, z'
'-x+1/2, y+1/2, -z+1/2'
'-x, -y, -z'
'x, -y, z-1/2'
'-x+1/2, -y+1/2, -z'
'x+1/2, -y+1/2, z-1/2'

_cell_length_a                   25.2321(16)
_cell_length_b                   8.6715(5)
_cell_length_c                   27.4412(17)
_cell_angle_alpha                90.00
_cell_angle_beta                 94.0970(10)
_cell_angle_gamma                90.00
_cell_volume                     5988.8(6)
_cell_formula_units_Z            8
_cell_measurement_temperature    291(2)
_cell_measurement_reflns_used    4909
_cell_measurement_theta_min      2.58
_cell_measurement_theta_max      27.27

_exptl_crystal_description       BLOCK
_exptl_crystal_colour            clear
_exptl_crystal_size_max          0.38
_exptl_crystal_size_mid          0.19
_exptl_crystal_size_min          0.11
_exptl_crystal_density_meas      0
_exptl_crystal_density_diffrn    1.412
_exptl_crystal_density_method    'not measured'
_exptl_crystal_F_000             2640
_exptl_absorpt_coefficient_mu    0.572
_exptl_absorpt_correction_type   none
_exptl_absorpt_correction_T_min  0.8120
_exptl_absorpt_correction_T_max  0.9398
_exptl_absorpt_process_details   ?

_exptl_special_details           
;
?
;

_diffrn_ambient_temperature      291(2)
_diffrn_radiation_wavelength     0.71073
_diffrn_radiation_type           MoK\a
_diffrn_radiation_source         'fine-focus sealed tube'
_diffrn_radiation_monochromator  graphite
_diffrn_measurement_device_type  'CCD area detector'
_diffrn_measurement_method       'phi and omega scans'
_diffrn_detector_area_resol_mean ?
_diffrn_standards_number         ?
_diffrn_standards_interval_count ?
_diffrn_standards_interval_time  ?
_diffrn_standards_decay_%        ?
_diffrn_reflns_number            17610
_diffrn_reflns_av_R_equivalents  0.0250
_diffrn_reflns_av_sigmaI/netI    0.0328
_diffrn_reflns_limit_h_min       -32
_diffrn_reflns_limit_h_max       32
_diffrn_reflns_limit_k_min       -10
_diffrn_reflns_limit_k_max       11
_diffrn_reflns_limit_l_min       -26
_diffrn_reflns_limit_l_max       35
_diffrn_reflns_theta_min         2.58
_diffrn_reflns_theta_max         27.50
_reflns_number_total             6865
_reflns_number_gt                5098
_reflns_threshold_expression     >2sigma(I)

_computing_data_collection       'Bruker SMART'
_computing_cell_refinement       'Bruker SMART'
_computing_data_reduction        'Bruker SAINT'
_computing_structure_solution    'SHELXS-97 (Sheldrick, 1990)'
_computing_structure_refinement  'SHELXL-97 (Sheldrick, 1997)'
_computing_molecular_graphics    'Bruker SHELXTL'
_computing_publication_material  'Bruker SHELXTL'

_refine_special_details          
;
Refinement of F^2^ against ALL reflections. The weighted R-factor wR and
goodness of fit S are based on F^2^, conventional R-factors R are based
on F, with F set to zero for negative F^2^. The threshold expression of
F^2^ > 2sigma(F^2^) is used only for calculating R-factors(gt) etc. and is
not relevant to the choice of reflections for refinement. R-factors based
on F^2^ are statistically about twice as large as those based on F, and R-
factors based on ALL data will be even larger.
;

_refine_ls_structure_factor_coef Fsqd
_refine_ls_matrix_type           full
_refine_ls_weighting_scheme      calc
_refine_ls_weighting_details     
'calc w=1/[\s^2^(Fo^2^)+(0.1462P)^2^+13.8173P] where P=(Fo^2^+2Fc^2^)/3'
_atom_sites_solution_primary     direct
_atom_sites_solution_secondary   difmap
_atom_sites_solution_hydrogens   geom
_refine_ls_hydrogen_treatment    mixed
_refine_ls_extinction_method     none
_refine_ls_extinction_coef       ?
_refine_ls_number_reflns         6865
_refine_ls_number_parameters     370
_refine_ls_number_restraints     24
_refine_ls_R_factor_all          0.0904
_refine_ls_R_factor_gt           0.0708
_refine_ls_wR_factor_ref         0.2440
_refine_ls_wR_factor_gt          0.2235
_refine_ls_goodness_of_fit_ref   1.074
_refine_ls_restrained_S_all      1.085
_refine_ls_shift/su_max          0.001
_refine_ls_shift/su_mean         0.000

loop_
_atom_site_label
_atom_site_type_symbol
_atom_site_fract_x
_atom_site_fract_y
_atom_site_fract_z
_atom_site_U_iso_or_equiv
_atom_site_adp_type
_atom_site_occupancy
_atom_site_symmetry_multiplicity
_atom_site_calc_flag
_atom_site_refinement_flags
_atom_site_disorder_assembly
_atom_site_disorder_group
Mn1 Mn 0.72904(2) 0.60654(6) 0.797475(18) 0.0275(2) Uani 1 1 d . . 1
S1 S 0.67291(5) 0.57852(15) 0.59117(4) 0.0489(3) Uani 1 1 d . . 1
O1 O 0.76479(12) 0.3482(3) 0.71527(10) 0.0394(6) Uani 1 1 d . . 1
O2 O 0.73911(11) 0.5917(3) 0.71896(9) 0.0317(5) Uani 1 1 d . . 1
O3 O 0.64375(15) 0.4977(5) 0.62647(13) 0.0729(12) Uani 1 1 d . . 1
O4 O 0.65346(17) 0.7217(5) 0.57062(13) 0.0773(13) Uani 1 1 d . . 1
O5 O 0.70735(19) 0.6132(3) 0.40411(12) 0.0668(11) Uani 1 1 d . . 1
O6 O 0.71625(12) 0.3746(3) 0.37595(9) 0.0403(7) Uani 1 1 d . . 1
O7 O 0.71450(13) 0.3633(3) 0.80842(10) 0.0423(7) Uani 1 1 d . A 1
H1W H 0.7085 0.3446 0.8371 0.063 Uiso 1 1 d R A 1
H2W H 0.7315 0.2914 0.7967 0.063 Uiso 1 1 d R A 1
O8 O 0.9572(4) 0.5038(16) 0.9880(4) 0.255(6) Uani 1 1 d U B 1
H3W H 0.9489 0.5843 0.9751 0.382 Uiso 1 1 d R B 1
H4W H 0.9425 0.4292 0.9982 0.382 Uiso 1 1 d R B 1
O9 O 0.0142(5) 0.7117(18) 0.9727(5) 0.277(6) Uani 1 1 d U C 1
H5W H 0.0098 0.6260 0.9870 0.416 Uiso 1 1 d R C 1
H6W H -0.0171 0.7443 0.9653 0.416 Uiso 1 1 d R C 1
O10 O 0.5095(9) 0.510(3) 0.9303(9) 0.476(15) Uani 1 1 d U D 1
H7W H 0.5411 0.4934 0.9272 0.714 Uiso 1 1 d R D 1
H8W H 0.4871 0.4979 0.9069 0.714 Uiso 1 1 d R D 1
O11 O 0.678(4) 0.933(13) 0.455(3) 1.56(10) Uani 1 1 d U E 1
H9W H 0.6558 0.8659 0.4462 2.339 Uiso 1 1 d R E 1
H10W H 0.6910 0.9733 0.4314 2.339 Uiso 1 1 d R E 1
N1 N 0.73137(15) 0.6117(4) 0.61591(12) 0.0419(8) Uani 1 1 d . . 1
H1N H 0.7449 0.7023 0.6140 0.050 Uiso 1 1 calc R . 1
N2 N 0.81972(14) 0.5929(4) 0.81361(13) 0.0449(8) Uani 1 1 d . F 1
N3 N 1.0993(3) 0.5343(14) 0.8638(4) 0.155(4) Uani 1 1 d . F 1
N4 N 0.63889(13) 0.6208(4) 0.77916(13) 0.0397(8) Uani 1 1 d . G 1
C1 C 0.75364(13) 0.4749(4) 0.69614(12) 0.0278(7) Uani 1 1 d . . 1
C2 C 0.76194(16) 0.4896(4) 0.64165(13) 0.0365(8) Uani 1 1 d . . 1
H2A H 0.7994 0.5079 0.6380 0.044 Uiso 1 1 calc R . 1
H2B H 0.7528 0.3920 0.6260 0.044 Uiso 1 1 calc R . 1
C3 C 0.67956(16) 0.4476(5) 0.54224(14) 0.0381(8) Uani 1 1 d . . 1
C4 C 0.67339(18) 0.2909(6) 0.54944(15) 0.0470(10) Uani 1 1 d . . 1
H4 H 0.6667 0.2528 0.5801 0.056 Uiso 1 1 calc R . 1
C5 C 0.67726(18) 0.1916(5) 0.51032(15) 0.0459(10) Uani 1 1 d . . 1
H5 H 0.6727 0.0861 0.5146 0.055 Uiso 1 1 calc R . 1
C6 C 0.68789(16) 0.2484(5) 0.46500(14) 0.0382(8) Uani 1 1 d . . 1
H6 H 0.6904 0.1808 0.4390 0.046 Uiso 1 1 calc R . 1
C7 C 0.69487(15) 0.4063(4) 0.45791(13) 0.0330(8) Uani 1 1 d . . 1
C8 C 0.69088(16) 0.5070(5) 0.49690(13) 0.0367(8) Uani 1 1 d . . 1
H8 H 0.6957 0.6124 0.4928 0.044 Uiso 1 1 calc R . 1
C9 C 0.70719(16) 0.4692(4) 0.40895(13) 0.0355(8) Uani 1 1 d . . 1
C10 C 0.85350(19) 0.6840(9) 0.7919(2) 0.080(2) Uani 1 1 d . F 1
H10 H 0.8396 0.7599 0.7707 0.096 Uiso 1 1 calc R F 1
C11 C 0.9080(2) 0.6716(11) 0.7994(3) 0.102(3) Uani 1 1 d . F 1
H11 H 0.9297 0.7347 0.7819 0.122 Uiso 1 1 calc R F 1
C12 C 0.9306(2) 0.5671(9) 0.8323(2) 0.0745(17) Uani 1 1 d . F 1
C13 C 0.8957(2) 0.4789(7) 0.8571(3) 0.0747(17) Uani 1 1 d . F 1
H13 H 0.9086 0.4087 0.8807 0.090 Uiso 1 1 calc R F 1
C14 C 0.84124(19) 0.4957(6) 0.8466(2) 0.0599(13) Uani 1 1 d . F 1
H14 H 0.8186 0.4349 0.8638 0.072 Uiso 1 1 calc R F 1
C15 C 0.9891(2) 0.5555(11) 0.8423(3) 0.095(2) Uani 1 1 d . F 1
C16 C 1.0233(3) 0.6632(19) 0.8270(5) 0.183(7) Uani 1 1 d . F 1
H16 H 1.0105 0.7485 0.8093 0.219 Uiso 1 1 calc R F 1
C17 C 1.0771(4) 0.645(2) 0.8381(6) 0.218(9) Uani 1 1 d . F 1
H17 H 1.0994 0.7182 0.8259 0.262 Uiso 1 1 calc R F 1
C18 C 1.0653(3) 0.4211(15) 0.8803(5) 0.161(5) Uani 1 1 d . F 1
H18 H 1.0796 0.3378 0.8981 0.193 Uiso 1 1 calc R F 1
C19 C 1.0108(3) 0.4308(13) 0.8707(4) 0.133(4) Uani 1 1 d . F 1
H19 H 0.9886 0.3563 0.8826 0.160 Uiso 1 1 calc R F 1
C20 C 0.6186(2) 0.6454(10) 0.7356(2) 0.089(2) Uani 1 1 d . G 1
H20 H 0.6416 0.6669 0.7114 0.107 Uiso 1 1 calc R G 1
C21 C 0.5645(2) 0.6419(11) 0.7224(2) 0.101(3) Uani 1 1 d . G 1
H21 H 0.5526 0.6564 0.6899 0.121 Uiso 1 1 calc R G 1
C22 C 0.52898(16) 0.6175(5) 0.75622(16) 0.0429(9) Uani 1 1 d . . 1
C23 C 0.5501(2) 0.5846(12) 0.8016(2) 0.105(3) Uani 1 1 d . G 1
H23 H 0.5282 0.5604 0.8263 0.126 Uiso 1 1 calc R G 1
C24 C 0.6048(2) 0.5872(12) 0.8109(2) 0.112(4) Uani 1 1 d . G 1
H24 H 0.6182 0.5630 0.8425 0.135 Uiso 1 1 calc R G 1

loop_
_atom_site_aniso_label
_atom_site_aniso_U_11
_atom_site_aniso_U_22
_atom_site_aniso_U_33
_atom_site_aniso_U_23
_atom_site_aniso_U_13
_atom_site_aniso_U_12
Mn1 0.0336(3) 0.0271(3) 0.0220(3) 0.00128(18) 0.0033(2) -0.0010(2)
S1 0.0571(7) 0.0641(7) 0.0255(5) -0.0104(4) 0.0027(4) 0.0137(5)
O1 0.0615(17) 0.0263(12) 0.0310(13) 0.0013(10) 0.0062(12) 0.0058(12)
O2 0.0456(14) 0.0273(12) 0.0226(12) -0.0021(9) 0.0045(10) 0.0008(10)
O3 0.063(2) 0.122(4) 0.0370(18) -0.020(2) 0.0215(16) -0.014(2)
O4 0.105(3) 0.083(3) 0.0409(18) -0.0162(17) -0.0138(19) 0.054(2)
O5 0.132(4) 0.0345(16) 0.0372(17) -0.0016(13) 0.032(2) -0.0045(18)
O6 0.0624(18) 0.0369(14) 0.0221(13) -0.0014(10) 0.0060(12) 0.0056(12)
O7 0.0672(19) 0.0299(13) 0.0315(14) 0.0006(11) 0.0151(13) 0.0041(12)
O8 0.218(8) 0.305(10) 0.244(9) -0.043(8) 0.035(7) -0.002(8)
O9 0.302(10) 0.309(10) 0.220(8) -0.066(8) 0.019(7) 0.011(8)
O10 0.499(17) 0.470(17) 0.465(17) -0.020(10) 0.071(10) 0.003(10)
O11 1.56(10) 1.56(10) 1.56(10) 0.000(10) 0.111(13) 0.001(10)
N1 0.064(2) 0.0349(17) 0.0259(16) 0.0019(12) -0.0039(15) 0.0012(15)
N2 0.0389(18) 0.056(2) 0.0392(19) 0.0104(16) -0.0009(14) 0.0006(15)
N3 0.055(4) 0.230(11) 0.174(9) -0.016(8) -0.020(5) 0.019(6)
N4 0.0328(16) 0.0457(19) 0.0406(19) 0.0022(14) 0.0030(14) 0.0018(13)
C1 0.0313(16) 0.0295(17) 0.0227(16) -0.0028(12) 0.0025(12) -0.0018(13)
C2 0.051(2) 0.0345(19) 0.0247(17) -0.0038(14) 0.0046(15) 0.0062(16)
C3 0.041(2) 0.048(2) 0.0259(17) -0.0039(16) 0.0052(15) 0.0027(17)
C4 0.051(2) 0.061(3) 0.0294(19) 0.0046(18) 0.0088(17) -0.004(2)
C5 0.060(3) 0.040(2) 0.038(2) 0.0025(17) 0.0092(19) -0.0087(19)
C6 0.046(2) 0.040(2) 0.0287(18) -0.0064(15) 0.0028(16) -0.0034(17)
C7 0.0363(18) 0.0387(19) 0.0242(17) -0.0032(14) 0.0025(14) 0.0007(15)
C8 0.045(2) 0.0370(19) 0.0280(18) -0.0034(15) 0.0026(15) 0.0005(16)
C9 0.045(2) 0.0373(19) 0.0246(17) -0.0031(14) 0.0065(15) 0.0004(16)
C10 0.038(2) 0.121(5) 0.081(4) 0.051(4) 0.002(2) -0.004(3)
C11 0.039(3) 0.165(7) 0.101(5) 0.072(5) 0.001(3) -0.012(4)
C12 0.040(2) 0.113(5) 0.071(4) 0.024(3) 0.001(2) 0.008(3)
C13 0.048(3) 0.080(4) 0.094(4) 0.034(3) -0.010(3) 0.001(3)
C14 0.044(2) 0.065(3) 0.070(3) 0.022(3) 0.000(2) -0.001(2)
C15 0.040(3) 0.146(7) 0.098(5) 0.022(5) -0.006(3) 0.002(4)
C16 0.043(4) 0.320(17) 0.183(11) 0.137(12) 0.000(5) -0.016(6)
C17 0.046(4) 0.37(2) 0.236(16) 0.152(16) -0.012(6) -0.028(8)
C18 0.046(4) 0.175(11) 0.256(16) 0.013(10) -0.028(6) 0.019(5)
C19 0.060(4) 0.162(9) 0.172(10) 0.038(7) -0.031(5) 0.019(5)
C20 0.037(2) 0.177(7) 0.053(3) 0.034(4) 0.006(2) -0.001(3)
C21 0.042(3) 0.213(9) 0.047(3) 0.039(4) -0.002(2) 0.004(4)
C22 0.033(2) 0.052(2) 0.044(2) 0.0001(18) 0.0017(17) -0.0011(17)
C23 0.037(3) 0.228(10) 0.051(3) 0.033(5) 0.003(2) -0.009(4)
C24 0.038(3) 0.253(11) 0.046(3) 0.034(5) 0.002(2) 0.000(4)

_geom_special_details            
;
All esds (except the esd in the dihedral angle between two l.s. planes)
are estimated using the full covariance matrix. The cell esds are taken
into account individually in the estimation of esds in distances, angles
and torsion angles; correlations between esds in cell parameters are only
used when they are defined by crystal symmetry. An approximate (isotropic)
treatment of cell esds is used for estimating esds involving l.s. planes.
;

loop_
_geom_bond_atom_site_label_1
_geom_bond_atom_site_label_2
_geom_bond_distance
_geom_bond_site_symmetry_2
_geom_bond_publ_flag
Mn1 O1 2.132(3) 4_656 ?
Mn1 O7 2.165(3) . ?
Mn1 O2 2.191(2) . ?
Mn1 O6 2.206(3) 6_566 ?
Mn1 N4 2.298(3) . ?
Mn1 N2 2.302(4) . ?
S1 O4 1.436(4) . ?
S1 O3 1.440(4) . ?
S1 N1 1.605(4) . ?
S1 C3 1.776(4) . ?
O1 C1 1.241(4) . ?
O1 Mn1 2.133(3) 4_646 ?
O2 C1 1.259(4) . ?
O5 C9 1.256(5) . ?
O6 C9 1.255(4) . ?
O6 Mn1 2.206(3) 6_565 ?
O7 H1W 0.8282 . ?
O7 H2W 0.8346 . ?
O8 H3W 0.8036 . ?
O8 H4W 0.8051 . ?
O9 H5W 0.8512 . ?
O9 H6W 0.8486 . ?
O10 H7W 0.8189 . ?
O10 H8W 0.8306 . ?
O11 H9W 0.8308 . ?
O11 H10W 0.8302 . ?
N1 C2 1.462(5) . ?
N1 H1N 0.8600 . ?
N2 C14 1.324(6) . ?
N2 C10 1.333(6) . ?
N3 C17 1.292(16) . ?
N3 C18 1.400(15) . ?
N4 C20 1.284(6) . ?
N4 C24 1.301(7) . ?
C1 C2 1.530(5) . ?
C2 H2A 0.9700 . ?
C2 H2B 0.9700 . ?
C3 C4 1.383(6) . ?
C3 C8 1.395(5) . ?
C4 C5 1.385(6) . ?
C4 H4 0.9300 . ?
C5 C6 1.382(6) . ?
C5 H5 0.9300 . ?
C6 C7 1.396(5) . ?
C6 H6 0.9300 . ?
C7 C8 1.390(5) . ?
C7 C9 1.503(5) . ?
C8 H8 0.9300 . ?
C10 C11 1.381(7) . ?
C10 H10 0.9300 . ?
C11 C12 1.375(9) . ?
C11 H11 0.9300 . ?
C12 C13 1.381(8) . ?
C12 C15 1.486(7) . ?
C13 C14 1.392(7) . ?
C13 H13 0.9300 . ?
C14 H14 0.9300 . ?
C15 C16 1.358(13) . ?
C15 C19 1.418(12) . ?
C16 C17 1.379(12) . ?
C16 H16 0.9300 . ?
C17 H17 0.9300 . ?
C18 C19 1.384(10) . ?
C18 H18 0.9300 . ?
C19 H19 0.9300 . ?
C20 C21 1.387(7) . ?
C20 H20 0.9300 . ?
C21 C22 1.353(7) . ?
C21 H21 0.9300 . ?
C22 C23 1.349(7) . ?
C22 C22 1.478(8) 2_656 ?
C23 C24 1.385(7) . ?
C23 H23 0.9300 . ?
C24 H24 0.9300 . ?

loop_
_geom_angle_atom_site_label_1
_geom_angle_atom_site_label_2
_geom_angle_atom_site_label_3
_geom_angle
_geom_angle_site_symmetry_1
_geom_angle_site_symmetry_3
_geom_angle_publ_flag
O1 Mn1 O7 174.37(12) 4_656 . ?
O1 Mn1 O2 83.19(10) 4_656 . ?
O7 Mn1 O2 96.43(10) . . ?
O1 Mn1 O6 96.01(10) 4_656 6_566 ?
O7 Mn1 O6 84.19(10) . 6_566 ?
O2 Mn1 O6 178.04(10) . 6_566 ?
O1 Mn1 N4 89.65(12) 4_656 . ?
O7 Mn1 N4 84.72(12) . . ?
O2 Mn1 N4 88.32(11) . . ?
O6 Mn1 N4 89.89(12) 6_566 . ?
O1 Mn1 N2 89.94(12) 4_656 . ?
O7 Mn1 N2 95.68(13) . . ?
O2 Mn1 N2 90.14(12) . . ?
O6 Mn1 N2 91.65(12) 6_566 . ?
N4 Mn1 N2 178.45(12) . . ?
O4 S1 O3 120.6(3) . . ?
O4 S1 N1 106.8(2) . . ?
O3 S1 N1 107.5(2) . . ?
O4 S1 C3 107.7(2) . . ?
O3 S1 C3 106.1(2) . . ?
N1 S1 C3 107.49(19) . . ?
C1 O1 Mn1 144.9(2) . 4_646 ?
C1 O2 Mn1 126.5(2) . . ?
C9 O6 Mn1 134.7(3) . 6_565 ?
Mn1 O7 H1W 111.5 . . ?
Mn1 O7 H2W 125.3 . . ?
H1W O7 H2W 110.8 . . ?
H3W O8 H4W 137.7 . . ?
H5W O9 H6W 104.6 . . ?
H7W O10 H8W 120.8 . . ?
H9W O11 H10W 111.0 . . ?
C2 N1 S1 120.8(3) . . ?
C2 N1 H1N 119.6 . . ?
S1 N1 H1N 119.6 . . ?
C14 N2 C10 116.0(4) . . ?
C14 N2 Mn1 121.2(3) . . ?
C10 N2 Mn1 122.8(3) . . ?
C17 N3 C18 116.3(8) . . ?
C20 N4 C24 115.0(4) . . ?
C20 N4 Mn1 122.3(3) . . ?
C24 N4 Mn1 122.2(3) . . ?
O1 C1 O2 124.5(3) . . ?
O1 C1 C2 116.4(3) . . ?
O2 C1 C2 119.0(3) . . ?
