####################################################################### 
# 
# This file contains crystal structure data downloaded from the 
# Cambridge Structural Database (CSD) hosted by the Cambridge 
# Crystallographic Data Centre (CCDC).
# 
# Full information about CCDC data access policies and citation 
# guidelines are available at http://www.ccdc.cam.ac.uk/access/V1 
# 
# Audit and citation data items may have been added by the CCDC. 
# Please retain this information to preserve the provenance of 
# this file and to allow appropriate attribution of the data. 
# 
#######################################################################

data_5@1
_audit_block_doi                 10.5517/cc11gmvz
_database_code_depnum_ccdc_archive 'CCDC 967381'
loop_
_citation_id
_citation_doi
_citation_year
1 10.1021/ja502996h 2014
_audit_update_record             
;
2014-05-14 deposited with the CCDC.	2024-07-12 downloaded from the CCDC.
;

_audit_creation_method           SHELXL-2012
_chemical_name_systematic        
;
 ?
;
_chemical_name_common            ?
_chemical_melting_point          ?
_chemical_formula_moiety         ?
_chemical_formula_sum            'C52.15 H33.50 Br I6 N12.95 Zn3'
_chemical_formula_weight         1878.94

loop_
_atom_type_symbol
_atom_type_description
_atom_type_scat_dispersion_real
_atom_type_scat_dispersion_imag
_atom_type_scat_source
C C 0.0033 0.0016 'International Tables Vol C Tables 4.2.6.8 and 6.1.1.4'
H H 0.0000 0.0000 'International Tables Vol C Tables 4.2.6.8 and 6.1.1.4'
Br Br -0.2901 2.4595 'International Tables Vol C Tables 4.2.6.8 and 6.1.1.4'
I I -0.4742 1.8119 'International Tables Vol C Tables 4.2.6.8 and 6.1.1.4'
N N 0.0061 0.0033 'International Tables Vol C Tables 4.2.6.8 and 6.1.1.4'
Zn Zn 0.2839 1.4301 'International Tables Vol C Tables 4.2.6.8 and 6.1.1.4'

_space_group_crystal_system      orthorhombic
_space_group_IT_number           61
_space_group_name_H-M_alt        'P b c a'
_space_group_name_Hall           '-P 2ac 2ab'

_shelx_space_group_comment       
;
The symmetry employed for this shelxl refinement is uniquely defined
by the following loop, which should always be used as a source of
symmetry information in preference to the above space-group names.
They are only intended as comments.
;

loop_
_space_group_symop_operation_xyz
'x, y, z'
'-x+1/2, -y, z+1/2'
'x+1/2, -y+1/2, -z'
'-x, y+1/2, -z+1/2'
'-x, -y, -z'
'x-1/2, y, -z-1/2'
'-x-1/2, y-1/2, z'
'x, -y-1/2, z-1/2'

_cell_length_a                   27.5504(3)
_cell_length_b                   13.83530(19)
_cell_length_c                   44.5398(6)
_cell_angle_alpha                90
_cell_angle_beta                 90
_cell_angle_gamma                90
_cell_volume                     16977.2(4)
_cell_formula_units_Z            8
_cell_measurement_temperature    90.0(1)
_cell_measurement_reflns_used    ?
_cell_measurement_theta_min      ?
_cell_measurement_theta_max      ?

_exptl_crystal_description       prism
_exptl_crystal_colour            yellow
_exptl_crystal_density_meas      'not measured'
_exptl_crystal_density_method    'not measured'
_exptl_crystal_size_max          0.150
_exptl_crystal_size_mid          0.140
_exptl_crystal_size_min          0.140
_exptl_crystal_density_diffrn    1.470
_exptl_crystal_F_000             7040
_exptl_transmission_factor_min   ?
_exptl_transmission_factor_max   ?
_exptl_absorpt_coefficient_mu    3.526
_shelx_estimated_absorpt_T_min   ?
_shelx_estimated_absorpt_T_max   ?
_exptl_absorpt_correction_T_min  0.67962
_exptl_absorpt_correction_T_max  1.00000
_exptl_absorpt_correction_type   multi-scan
_exptl_absorpt_process_details   
;
CrysAlisPro, Agilent Technologies,
Version 1.171.36.28 (release 01-02-2013 CrysAlis171 .NET)
(compiled Feb  1 2013,16:14:44)
Empirical absorption correction using spherical harmonics,
implemented in SCALE3 ABSPACK scaling algorithm.
;

_exptl_special_details           
;
 ?
;

_diffrn_ambient_temperature      90.0(1)
_diffrn_radiation_wavelength     0.71073
_diffrn_radiation_type           MoK\a
_diffrn_source                   ?
_diffrn_measurement_device_type  ?
_diffrn_measurement_method       ?
_diffrn_detector_area_resol_mean ?
_diffrn_reflns_number            ?
_diffrn_reflns_av_unetI/netI     0.0118
_diffrn_reflns_av_R_equivalents  0.0357
_diffrn_reflns_limit_h_min       ?
_diffrn_reflns_limit_h_max       ?
_diffrn_reflns_limit_k_min       ?
_diffrn_reflns_limit_k_max       ?
_diffrn_reflns_limit_l_min       ?
_diffrn_reflns_limit_l_max       ?
_diffrn_reflns_theta_min         1.709
_diffrn_reflns_theta_max         25.000
_diffrn_reflns_theta_full        25.000
_diffrn_measured_fraction_theta_max 1.000
_diffrn_measured_fraction_theta_full 1.000
_diffrn_reflns_Laue_measured_fraction_max 1.000
_diffrn_reflns_Laue_measured_fraction_full 1.000
_diffrn_reflns_point_group_measured_fraction_max 1.000
_diffrn_reflns_point_group_measured_fraction_full 1.000
_reflns_number_total             14965
_reflns_number_gt                12615
_reflns_threshold_expression     'I > 2\s(I)'
_reflns_Friedel_coverage         0.000
_reflns_Friedel_fraction_max     .
_reflns_Friedel_fraction_full    .

_reflns_special_details          
;
 Data were apparently pre-merged, so _diffrn_reflns_number
 etc. will have to be added later.
 
 Reflections were merged by SHELXL according to the crystal
 class for the calculation of statistics and refinement.
 
 _reflns_Friedel_fraction is defined as the number of unique
 Friedel pairs measured divided by the number that would be
 possible theoretically, ignoring centric projections and
 systematic absences.
;

_computing_data_collection       ?
_computing_cell_refinement       ?
_computing_data_reduction        ?
_computing_structure_solution    ?
_computing_molecular_graphics    
;
O. V. Dolomanov, L. J. Bourhis, R. J. Gildea, J. A. K. Howard and H. Puschmann,
OLEX2: a complete structure solution, refinement and analysis program.
J. Appl. Cryst. (2009). 42, 339-341.
;
_computing_publication_material  
;
O. V. Dolomanov, L. J. Bourhis, R. J. Gildea, J. A. K. Howard and H. Puschmann,
OLEX2: a complete structure solution, refinement and analysis program.
J. Appl. Cryst. (2009). 42, 339-341.
;
_computing_structure_refinement  
;
SHELXL, G.M. Sheldrick, Acta Cryst.
(2008). A64, 112-122
;

_refine_special_details          
;
 ?
;
_refine_ls_structure_factor_coef Fsqd
_refine_ls_matrix_type           full
_refine_ls_weighting_scheme      calc
_refine_ls_weighting_details     
;
 w=1/[\s^2^(Fo^2^)+(0.1938P)^2^+92.4826P]
 where P=(Fo^2^+2Fc^2^)/3
;
_atom_sites_solution_primary     ?
_atom_sites_solution_secondary   ?
_atom_sites_solution_hydrogens   geom
_refine_ls_hydrogen_treatment    constr
_refine_ls_extinction_method     none
_refine_ls_extinction_coef       .
_refine_ls_number_reflns         14965
_refine_ls_number_parameters     683
_refine_ls_number_restraints     0
_refine_ls_R_factor_all          0.0894
_refine_ls_R_factor_gt           0.0825
_refine_ls_wR_factor_ref         0.2791
_refine_ls_wR_factor_gt          0.2713
_refine_ls_goodness_of_fit_ref   1.050
_refine_ls_restrained_S_all      1.050
_refine_ls_shift/su_max          0.001
_refine_ls_shift/su_mean         0.000

loop_
_atom_site_label
_atom_site_type_symbol
_atom_site_fract_x
_atom_site_fract_y
_atom_site_fract_z
_atom_site_U_iso_or_equiv
_atom_site_adp_type
_atom_site_occupancy
_atom_site_site_symmetry_order
_atom_site_calc_flag
_atom_site_refinement_flags_posn
_atom_site_refinement_flags_adp
_atom_site_refinement_flags_occupancy
_atom_site_disorder_assembly
_atom_site_disorder_group
I6 I 0.05983(3) -0.32864(6) 0.42218(2) 0.0811(3) Uani 1 1 d . . . . .
I16 I 0.82513(4) 0.67590(9) 0.33574(2) 0.0992(4) Uani 1 1 d . . . . .
I24 I 0.50240(3) -0.20040(6) 0.46291(2) 0.0738(3) Uani 1 1 d . . . . .
I29 I 0.69774(4) 0.83015(6) 0.31549(2) 0.0819(3) Uani 1 1 d . . . . .
I39 I 0.57231(3) -0.20010(7) 0.37754(3) 0.0886(3) Uani 1 1 d . . . . .
Br46 Br 0.67000(3) 0.32881(7) 0.56122(2) 0.0485(3) Uani 0.95 1 d . . P A 1
I53 I -0.01620(3) -0.08091(14) 0.38706(3) 0.1273(6) Uani 1 1 d . . . . .
Zn2 Zn 0.73991(4) 0.67407(7) 0.32121(2) 0.0420(3) Uani 1 1 d . . . . .
Zn12 Zn 0.52228(3) -0.12455(6) 0.41523(2) 0.0406(3) Uani 1 1 d . . . . .
Zn13 Zn 0.04602(3) -0.15556(8) 0.41566(2) 0.0412(3) Uani 1 1 d . . . . .
N11 N 0.2375(2) -0.0202(4) 0.32179(13) 0.0285(12) Uani 1 1 d . . . . .
N20 N 0.4581(2) -0.0900(4) 0.39428(16) 0.0383(14) Uani 1 1 d . . . . .
N34 N 0.2837(2) -0.0594(4) 0.36541(12) 0.0280(12) Uani 1 1 d . . . . .
N47 N 0.7532(4) 0.3352(5) 0.6060(2) 0.054(2) Uani 0.95 1 d . . P A 1
N56 N 0.3236(2) -0.0201(4) 0.31991(12) 0.0277(12) Uani 1 1 d . . . . .
N59 N 0.5528(2) 0.0074(5) 0.42481(16) 0.0381(14) Uani 1 1 d . . . . .
N76 N 0.6124(2) 0.4876(4) 0.44343(14) 0.0342(13) Uani 1 1 d . . . . .
N81 N 0.6236(2) 0.3399(4) 0.41670(15) 0.0360(14) Uani 1 1 d . . . . .
N85 N 0.7005(3) 0.5929(5) 0.35059(14) 0.0416(15) Uani 1 1 d . . . . .
N88 N 0.5795(2) 0.3426(4) 0.46259(14) 0.0338(13) Uani 1 1 d . . . . .
C108 C 0.4161(3) -0.0917(6) 0.40877(19) 0.0402(17) Uani 1 1 d . . . . .
H108 H 0.4164 -0.1032 0.4298 0.048 Uiso 1 1 calc R U . . .
C110 C 0.1955(3) -0.0914(5) 0.39753(15) 0.0318(15) Uani 1 1 d . . . . .
H110 H 0.2250 -0.0970 0.4084 0.038 Uiso 1 1 calc R U . . .
C119 C 0.2415(2) -0.0469(4) 0.35078(14) 0.0243(13) Uani 1 1 d . . . . .
N122 N 0.1093(2) -0.1046(4) 0.39683(13) 0.0334(13) Uani 1 1 d . . . . .
C128 C 0.7298(4) 0.3105(5) 0.6318(2) 0.046(2) Uani 0.95 1 d . . P A 1
Br13 Br 0.4444(5) 0.6594(10) 0.3309(3) 0.034(3) Uiso 0.05 1 d . . P B 2
C146 C 0.7560(4) 0.2879(6) 0.6591(3) 0.055(3) Uani 0.95 1 d . . P A 1
C18 C 0.6800(7) 0.2189(8) 0.7392(3) 0.075(4) Uani 0.95 1 d . . P A 1
H18 H 0.6636 0.2032 0.7573 0.090 Uiso 0.95 1 calc R U P A 1
C24 C 0.6531(6) 0.2476(8) 0.7136(3) 0.074(3) Uani 0.95 1 d . . P A 1
H24 H 0.6187 0.2517 0.7142 0.088 Uiso 0.95 1 calc R U P A 1
C32 C 0.4141(3) -0.0542(6) 0.34957(19) 0.0446(19) Uani 1 1 d . . . . .
H32 H 0.4147 -0.0387 0.3288 0.053 Uiso 1 1 calc R U . . .
C42 C 0.2801(2) -0.0086(4) 0.30786(15) 0.0273(14) Uani 1 1 d . . . . .
C55 C 0.1961(3) -0.0627(5) 0.36726(15) 0.0274(14) Uani 1 1 d . . . . .
C59 C 0.3702(3) -0.0594(5) 0.36445(17) 0.0329(15) Uani 1 1 d . . . . .
C83 C 0.1514(3) -0.0540(5) 0.35314(16) 0.0309(14) Uani 1 1 d . . . . .
H83 H 0.1498 -0.0343 0.3327 0.037 Uiso 1 1 calc R U . . .
C93 C 0.6760(4) 0.3093(6) 0.6330(2) 0.050(2) Uani 0.95 1 d . . P A 1
C100 C 0.2759(3) 0.0241(5) 0.27626(15) 0.0297(14) Uani 1 1 d . . . . .
C101 C 0.7288(4) 0.2621(6) 0.6866(2) 0.048(2) Uani 0.95 1 d . . P A 1
C115 C 0.5972(3) 0.2974(5) 0.43859(17) 0.0342(16) Uani 1 1 d . . . . .
C117 C 0.8292(4) 0.3186(7) 0.6315(3) 0.057(3) Uani 0.95 1 d . . P A 1
H117 H 0.8636 0.3216 0.6301 0.069 Uiso 0.95 1 calc R U P A 1
C130 C 0.5891(3) 0.4372(5) 0.46433(15) 0.0312(15) Uani 1 1 d . . . . .
C135 C 0.6478(4) 0.3243(6) 0.6058(3) 0.056(3) Uani 0.95 1 d . . P A 1
C149 C 0.7027(3) 0.4976(6) 0.35131(19) 0.046(2) Uani 1 1 d . . . . .
H149 H 0.7208 0.4650 0.3362 0.055 Uiso 1 1 calc R U . . .
C160 C 0.1097(3) -0.0737(5) 0.36841(16) 0.0347(16) Uani 1 1 d . . . . .
H160 H 0.0796 -0.0651 0.3584 0.042 Uiso 1 1 calc R U . . .
C167 C 0.6796(4) 0.2706(6) 0.6864(2) 0.047(2) Uani 0.95 1 d . . P A 1
C174 C 0.5450(3) 0.4923(6) 0.54175(17) 0.0367(16) Uani 1 1 d . . . . .
H174 H 0.5328 0.4584 0.5587 0.044 Uiso 1 1 calc R U . . .
C176 C 0.3232(3) -0.0453(5) 0.34881(16) 0.0308(15) Uani 1 1 d . . . . .
C204 C 0.5574(3) 0.4405(5) 0.51646(16) 0.0329(15) Uani 1 1 d . . . . .
H204 H 0.5550 0.3720 0.5163 0.039 Uiso 1 1 calc R U . . .
C212 C 0.5976(4) 0.3303(7) 0.6085(3) 0.066(3) Uani 0.95 1 d . . P A 1
H212 H 0.5786 0.3373 0.5908 0.079 Uiso 0.95 1 calc R U P A 1
C216 C 0.6532(4) 0.2956(6) 0.6593(2) 0.050(2) Uani 0.95 1 d . . P A 1
C232 C 0.3715(3) -0.0774(5) 0.39453(18) 0.0360(16) Uani 1 1 d . . . . .
H232 H 0.3422 -0.0802 0.4058 0.043 Uiso 1 1 calc R U . . .
C238 C 0.7530(5) 0.2333(6) 0.7133(3) 0.067(3) Uani 0.95 1 d . . P A 1
H238 H 0.7874 0.2284 0.7131 0.080 Uiso 0.95 1 calc R U P A 1
C241 C 0.5631(3) 0.6357(6) 0.51849(18) 0.0416(18) Uani 1 1 d . . . . .
H241 H 0.5641 0.7043 0.5188 0.050 Uiso 1 1 calc R U . . .
C248 C 0.6288(3) 0.4357(5) 0.41999(17) 0.0342(16) Uani 1 1 d . . . . .
C249 C 0.5849(3) 0.1936(5) 0.43457(17) 0.0331(15) Uani 1 1 d . . . . .
C259 C 0.4563(3) -0.0710(6) 0.3643(2) 0.0447(19) Uani 1 1 d . . . . .
H259 H 0.4859 -0.0695 0.3532 0.054 Uiso 1 1 calc R U . . .
C282 C 0.5456(3) 0.0525(6) 0.4510(2) 0.0428(18) Uani 1 1 d . . . . .
H282 H 0.5292 0.0185 0.4666 0.051 Uiso 1 1 calc R U . . .
C284 C 0.1532(3) -0.1107(6) 0.41089(17) 0.0374(16) Uani 1 1 d . . . . .
H284 H 0.1536 -0.1299 0.4314 0.045 Uiso 1 1 calc R U . . .
C296 C 0.5765(3) 0.0560(6) 0.4033(2) 0.048(2) Uani 1 1 d . . . . .
H296 H 0.5818 0.0255 0.3845 0.058 Uiso 1 1 calc R U . . .
C304 C 0.5605(3) 0.1442(6) 0.4566(2) 0.047(2) Uani 1 1 d . . . . .
H304 H 0.5541 0.1738 0.4754 0.056 Uiso 1 1 calc R U . . .
C314 C 0.6534(3) 0.4894(6) 0.39556(17) 0.0378(16) Uani 1 1 d . . . . .
C316 C 0.8017(4) 0.3386(6) 0.6074(3) 0.057(2) Uani 0.95 1 d . . P A 1
H316 H 0.8183 0.3569 0.5896 0.069 Uiso 0.95 1 calc R U P A 1
C327 C 0.5935(3) 0.1487(5) 0.40756(19) 0.0410(18) Uani 1 1 d . . . . .
H327 H 0.6108 0.1810 0.3921 0.049 Uiso 1 1 calc R U . . .
C333 C 0.6512(4) 0.5879(6) 0.3947(2) 0.052(2) Uani 1 1 d . . . . .
H333 H 0.6344 0.6218 0.4100 0.063 Uiso 1 1 calc R U . . .
C345 C 0.5753(3) 0.5901(6) 0.4928(2) 0.0453(19) Uani 1 1 d . . . . .
H345 H 0.5853 0.6266 0.4758 0.054 Uiso 1 1 calc R U . . .
C350 C 0.5735(2) 0.4896(5) 0.49114(17) 0.0317(15) Uani 1 1 d . . . . .
C361 C 0.8084(4) 0.2948(7) 0.6573(3) 0.066(3) Uani 0.95 1 d . . P A 1
H361 H 0.8277 0.2823 0.6745 0.079 Uiso 0.95 1 calc R U P A 1
C365 C 0.6790(3) 0.4420(6) 0.3739(2) 0.0455(19) Uani 1 1 d . . . . .
H365 H 0.6810 0.3735 0.3739 0.055 Uiso 1 1 calc R U . . .
C372 C 0.6728(4) 0.6381(7) 0.3719(2) 0.057(3) Uani 1 1 d . . . . .
H372 H 0.6686 0.7062 0.3709 0.068 Uiso 1 1 calc R U . . .
C378 C 0.7301(8) 0.2136(7) 0.7378(3) 0.086(5) Uani 0.95 1 d . . P A 1
H378 H 0.7479 0.1952 0.7551 0.103 Uiso 0.95 1 calc R U P A 1
C394 C 0.6019(6) 0.3060(8) 0.6604(3) 0.076(4) Uani 0.95 1 d . . P A 1
H394 H 0.5870 0.2974 0.6794 0.092 Uiso 0.95 1 calc R U P A 1
N7 N 0.5495(2) 0.5899(5) 0.54337(14) 0.0356(14) Uani 1 1 d . . . . .
C2 C 0.3170(3) 0.0573(6) 0.26017(17) 0.0362(16) Uani 1 1 d . . . . .
H2 H 0.3483 0.0540 0.2690 0.043 Uiso 1 1 calc R U . . .
C3 C 0.2320(3) 0.0262(5) 0.26169(16) 0.0326(15) Uani 1 1 d . . . . .
H3 H 0.2037 0.0024 0.2714 0.039 Uiso 1 1 calc R U . . .
C1 C 0.2290(3) 0.0630(5) 0.23272(16) 0.0329(15) Uani 1 1 d . . . . .
H1 H 0.1982 0.0638 0.2230 0.039 Uiso 1 1 calc R U . . .
C4 C 0.3115(3) 0.0936(6) 0.23212(18) 0.0424(18) Uani 1 1 d . . . . .
H4 H 0.3392 0.1176 0.2218 0.051 Uiso 1 1 calc R U . . .
N1 N 0.2671(2) 0.0968(5) 0.21808(14) 0.0371(14) Uani 1 1 d . . . . .
C5 C 0.5729(4) 0.3263(6) 0.6378(3) 0.057(2) Uani 0.95 1 d . . P A 1
H5 H 0.5391 0.3373 0.6401 0.069 Uiso 0.95 1 calc R U P A 1

loop_
_atom_site_aniso_label
_atom_site_aniso_U_11
_atom_site_aniso_U_22
_atom_site_aniso_U_33
_atom_site_aniso_U_23
_atom_site_aniso_U_13
_atom_site_aniso_U_12
I6 0.0867(6) 0.0618(5) 0.0947(6) -0.0222(4) 0.0286(5) -0.0259(4)
I16 0.0809(6) 0.1357(9) 0.0809(6) -0.0389(6) -0.0204(5) -0.0040(5)
I24 0.0868(6) 0.0595(5) 0.0752(5) 0.0291(4) -0.0101(4) -0.0121(4)
I29 0.1174(7) 0.0589(5) 0.0694(5) -0.0051(3) 0.0187(5) -0.0301(4)
I39 0.0736(5) 0.0740(6) 0.1184(8) -0.0255(5) -0.0001(5) 0.0166(4)
Br46 0.0518(5) 0.0588(6) 0.0348(5) -0.0014(4) -0.0128(4) -0.0013(4)
I53 0.0579(5) 0.2389(17) 0.0850(7) 0.0432(8) 0.0057(4) 0.0086(7)
Zn2 0.0516(6) 0.0426(5) 0.0316(5) -0.0058(4) 0.0074(4) -0.0118(4)
Zn12 0.0363(5) 0.0287(5) 0.0569(6) 0.0012(4) -0.0083(4) 0.0010(4)
Zn13 0.0332(5) 0.0578(6) 0.0325(5) -0.0059(4) 0.0044(3) -0.0056(4)
N11 0.041(3) 0.017(3) 0.028(3) -0.007(2) -0.002(2) 0.005(2)
N20 0.037(3) 0.025(3) 0.052(4) -0.005(3) -0.005(3) -0.004(3)
N34 0.036(3) 0.020(3) 0.028(3) -0.005(2) 0.001(2) 0.001(2)
N47 0.076(6) 0.029(4) 0.056(5) -0.010(3) 0.006(4) 0.000(4)
N56 0.036(3) 0.020(3) 0.027(3) -0.005(2) 0.000(2) -0.002(2)
N59 0.034(3) 0.032(3) 0.048(4) 0.002(3) -0.003(3) 0.001(3)
N76 0.042(3) 0.028(3) 0.033(3) 0.002(2) -0.002(3) -0.003(3)
N81 0.041(3) 0.029(3) 0.038(3) 0.005(3) 0.003(3) 0.001(3)
N85 0.056(4) 0.041(4) 0.028(3) -0.003(3) 0.008(3) -0.002(3)
N88 0.040(3) 0.031(3) 0.030(3) 0.005(2) -0.006(3) -0.002(3)
C108 0.047(4) 0.033(4) 0.041(4) 0.002(3) -0.004(3) 0.002(3)
C110 0.040(4) 0.029(4) 0.026(3) -0.004(3) 0.000(3) 0.005(3)
C119 0.036(4) 0.013(3) 0.024(3) -0.004(2) -0.002(3) 0.001(2)
N122 0.039(3) 0.032(3) 0.029(3) -0.008(2) 0.000(3) 0.004(3)
C128 0.078(6) 0.007(3) 0.054(5) -0.008(3) -0.010(5) -0.004(3)
C146 0.070(6) 0.015(4) 0.079(7) -0.016(4) -0.017(5) 0.0