####################################################################### 
# 
# This file contains crystal structure data downloaded from the 
# Cambridge Structural Database (CSD) hosted by the Cambridge 
# Crystallographic Data Centre (CCDC).
# 
# Full information about CCDC data access policies and citation 
# guidelines are available at http://www.ccdc.cam.ac.uk/access/V1 
# 
# Audit and citation data items may have been added by the CCDC. 
# Please retain this information to preserve the provenance of 
# this file and to allow appropriate attribution of the data. 
# 
#######################################################################

data_4@1
_audit_block_doi                 10.5517/cc11gmty
_database_code_depnum_ccdc_archive 'CCDC 967380'
loop_
_citation_id
_citation_doi
_citation_year
1 10.1021/ja502996h 2014
_audit_update_record             
;
2014-05-14 deposited with the CCDC.	2024-07-12 downloaded from the CCDC.
;

_audit_creation_method           SHELXL-2012
_chemical_name_systematic        
;
 ?
;
_chemical_name_common            ?
_chemical_melting_point          ?
_chemical_formula_moiety         ?
_chemical_formula_sum            'C53.20 H37.40 Br I6 N14.60 Pd Zn3'
_chemical_formula_weight         2024.99

loop_
_atom_type_symbol
_atom_type_description
_atom_type_scat_dispersion_real
_atom_type_scat_dispersion_imag
_atom_type_scat_source
C C 0.0033 0.0016 'International Tables Vol C Tables 4.2.6.8 and 6.1.1.4'
H H 0.0000 0.0000 'International Tables Vol C Tables 4.2.6.8 and 6.1.1.4'
Br Br -0.2901 2.4595 'International Tables Vol C Tables 4.2.6.8 and 6.1.1.4'
I I -0.4742 1.8119 'International Tables Vol C Tables 4.2.6.8 and 6.1.1.4'
N N 0.0061 0.0033 'International Tables Vol C Tables 4.2.6.8 and 6.1.1.4'
Pd Pd -0.9988 1.0072 'International Tables Vol C Tables 4.2.6.8 and 6.1.1.4'
Zn Zn 0.2839 1.4301 'International Tables Vol C Tables 4.2.6.8 and 6.1.1.4'

_space_group_crystal_system      orthorhombic
_space_group_IT_number           61
_space_group_name_H-M_alt        'P b c a'
_space_group_name_Hall           '-P 2ac 2ab'

_shelx_space_group_comment       
;
The symmetry employed for this shelxl refinement is uniquely defined
by the following loop, which should always be used as a source of
symmetry information in preference to the above space-group names.
They are only intended as comments.
;

loop_
_space_group_symop_operation_xyz
'x, y, z'
'-x+1/2, -y, z+1/2'
'x+1/2, -y+1/2, -z'
'-x, y+1/2, -z+1/2'
'-x, -y, -z'
'x-1/2, y, -z-1/2'
'-x-1/2, y-1/2, z'
'x, -y-1/2, z-1/2'

_cell_length_a                   27.6775(9)
_cell_length_b                   13.7981(3)
_cell_length_c                   44.3415(11)
_cell_angle_alpha                90
_cell_angle_beta                 90
_cell_angle_gamma                90
_cell_volume                     16933.9(8)
_cell_formula_units_Z            8
_cell_measurement_reflns_used    34576
_cell_measurement_temperature    90.0(1)
_cell_measurement_theta_max      28.6593
_cell_measurement_theta_min      1.5424
_exptl_absorpt_coefficient_mu    3.743
_exptl_absorpt_correction_T_max  1.00000
_exptl_absorpt_correction_T_min  0.73515
_exptl_absorpt_correction_type   multi-scan
_exptl_absorpt_process_details   
;
CrysAlisPro, Agilent Technologies,
Version 1.171.36.21 (release 14-08-2012 CrysAlis171 .NET)
(compiled Sep 14 2012,17:21:16)
Empirical absorption correction using spherical harmonics,
 implemented in SCALE3 ABSPACK scaling algorithm.
;
_exptl_crystal_colour            yellow
_exptl_crystal_density_diffrn    1.583
_exptl_crystal_density_meas      ?
_exptl_crystal_density_method    ?
_exptl_crystal_description       block
_exptl_crystal_F_000             7554
_exptl_crystal_size_max          0.08
_exptl_crystal_size_mid          0.06
_exptl_crystal_size_min          0.06

_exptl_special_details           
;
 ?
;



_diffrn_reflns_theta_min         1.712
_diffrn_reflns_theta_max         25.049
_diffrn_reflns_theta_full        25.242
_diffrn_measured_fraction_theta_max 0.999
_diffrn_measured_fraction_theta_full 0.979
_diffrn_reflns_point_group_measured_fraction_max 0.999
_diffrn_reflns_point_group_measured_fraction_full 0.979
_reflns_number_total             14996
_reflns_number_gt                7541
_reflns_Friedel_coverage         0.000
_diffrn_ambient_temperature      90.0(1)
_diffrn_radiation_wavelength     0.71073
_diffrn_radiation_type           MoK\a
_diffrn_source                   ?
_diffrn_measurement_device_type  'Bruker APEX-II CCD'
_diffrn_measurement_method       '\f and \w scans'
_diffrn_reflns_av_R_equivalents  0.1949
_diffrn_reflns_av_unetI/netI     0.1376
_diffrn_reflns_Laue_measured_fraction_full 0.979
_diffrn_reflns_Laue_measured_fraction_max 0.999
_diffrn_reflns_limit_h_max       35
_diffrn_reflns_limit_h_min       -36
_diffrn_reflns_limit_k_max       18
_diffrn_reflns_limit_k_min       -18
_diffrn_reflns_limit_l_max       56
_diffrn_reflns_limit_l_min       -58
_diffrn_reflns_number            195702



_reflns_Friedel_fraction_max     .
_reflns_Friedel_fraction_full    .

_reflns_special_details          
;
 Data were apparently pre-merged, so _diffrn_reflns_number
 etc. will have to be added later.
 
 Reflections were merged by SHELXL according to the crystal
 class for the calculation of statistics and refinement.
 
 _reflns_Friedel_fraction is defined as the number of unique
 Friedel pairs measured divided by the number that would be
 possible theoretically, ignoring centric projections and
 systematic absences.
;
_reflns_threshold_expression     'I > 2\s(I)'
_computing_cell_refinement       
;
CrysAlisPro, Agilent Technologies,
Version 1.171.36.21 (release 14-08-2012 CrysAlis171 .NET)
(compiled Sep 14 2012,17:21:16)
;
_computing_data_collection       
;
CrysAlisPro, Agilent Technologies,
Version 1.171.36.21 (release 14-08-2012 CrysAlis171 .NET)
(compiled Sep 14 2012,17:21:16)
;
_computing_data_reduction        
;
CrysAlisPro, Agilent Technologies,
Version 1.171.36.21 (release 14-08-2012 CrysAlis171 .NET)
(compiled Sep 14 2012,17:21:16)
;
_computing_molecular_graphics    
;
O. V. Dolomanov, L. J. Bourhis, R. J. Gildea, J. A. K. Howard and H. Puschmann,
OLEX2: a complete structure solution, refinement and analysis program.
J. Appl. Cryst. (2009). 42, 339-341.
;
_computing_publication_material  
;
O. V. Dolomanov, L. J. Bourhis, R. J. Gildea, J. A. K. Howard and H. Puschmann,
OLEX2: a complete structure solution, refinement and analysis program.
J. Appl. Cryst. (2009). 42, 339-341.
;
_computing_structure_refinement  
;
SHELXL, G.M. Sheldrick, Acta Cryst.
(2008). A64, 112-122
;

_refine_special_details          
;
 ?
;
_refine_ls_structure_factor_coef Fsqd
_refine_ls_matrix_type           full
_refine_ls_weighting_scheme      calc
_refine_ls_weighting_details     
;
 w=1/[\s^2^(Fo^2^)+(0.2000P)^2^]
 where P=(Fo^2^+2Fc^2^)/3
;
_atom_sites_solution_primary     ?
_atom_sites_solution_secondary   ?
_atom_sites_solution_hydrogens   geom
_refine_ls_hydrogen_treatment    constr
_refine_ls_extinction_method     none
_refine_ls_extinction_coef       .
_refine_ls_number_reflns         14996
_refine_ls_number_parameters     510
_refine_ls_number_restraints     3
_refine_ls_R_factor_all          0.1865
_refine_ls_R_factor_gt           0.1278
_refine_ls_wR_factor_ref         0.3870
_refine_ls_wR_factor_gt          0.3569
_refine_ls_goodness_of_fit_ref   1.249
_refine_ls_restrained_S_all      1.249
_refine_ls_shift/su_max          0.001
_refine_ls_shift/su_mean         0.000

loop_
_atom_site_label
_atom_site_type_symbol
_atom_site_fract_x
_atom_site_fract_y
_atom_site_fract_z
_atom_site_U_iso_or_equiv
_atom_site_adp_type
_atom_site_occupancy
_atom_site_site_symmetry_order
_atom_site_calc_flag
_atom_site_refinement_flags_posn
_atom_site_refinement_flags_adp
_atom_site_refinement_flags_occupancy
_atom_site_disorder_assembly
_atom_site_disorder_group
Zn1 Zn -0.02085(6) 0.37000(11) 0.41705(4) 0.0355(4) Uani 1 1 d . . . . .
I2 I -0.00019(6) 0.30389(11) 0.46460(4) 0.0890(6) Uani 1 1 d . . . . .
Zn3 Zn 0.45366(6) 0.34308(12) 0.41672(4) 0.0351(4) Uani 1 1 d . . . . .
Zn4 Zn 0.25208(9) 0.34259(15) 0.67914(4) 0.0617(7) Uani 1 1 d . . . . .
I5 I 0.44488(7) 0.17534(11) 0.42345(4) 0.0978(6) Uani 1 1 d . . . . .
I6 I 0.51433(6) 0.41798(15) 0.38781(4) 0.1012(6) Uani 1 1 d . . . . .
Pd1 Pd 0.15970(9) 0.72835(13) 0.31373(5) 0.0761(7) Uani 0.8 1 d . . P A 1
I1 I 0.17150(10) 0.3611(2) 0.66325(5) 0.1716(13) Uani 1 1 d . . . . .
I3 I -0.06936(8) 0.28995(15) 0.38150(6) 0.1309(8) Uani 1 1 d . . . . .
I4 I 0.28399(13) 0.18561(14) 0.68503(4) 0.1702(14) Uani 1 1 d . . . . .
Br1 Br 0.1252(2) 0.7859(4) 0.26707(10) 0.172(2) Uani 0.8 1 d . . P A 1
Pd2 Pd 0.3364(3) 0.6766(5) 0.36806(19) 0.0681(13) Uani 0.2 1 d . . P B 2
N2 N 0.0426(4) 0.4068(8) 0.3951(3) 0.032(3) Uani 1 1 d . . . . .
N3 N 0.1764(4) 0.4725(7) 0.3201(2) 0.0244(11) Uani 1 1 d . . . . .
N4 N 0.4480(4) 0.9988(7) 0.5748(2) 0.029(3) Uani 1 1 d . . . . .
N5 N 0.4501(4) 0.4094(7) 0.4582(2) 0.024(2) Uani 1 1 d . . . . .
N6 N 0.2151(4) 0.4333(7) 0.3659(2) 0.0244(11) Uani 1 1 d . . . . .
N7 N 0.3881(4) 0.3879(7) 0.3978(2) 0.0263(12) Uani 1 1 d . . . . .
N8 N 0.4201(4) 0.6601(8) 0.5387(2) 0.027(3) Uani 1 1 d . . . . .
C9 C 0.4112(4) 0.5658(8) 0.5377(3) 0.021(3) Uani 1 1 d . . . . .
N10 N 0.2635(4) 0.4707(7) 0.3225(2) 0.0244(11) Uani 1 1 d . . . . .
N12 N 0.2952(5) 0.4174(9) 0.6496(3) 0.050(4) Uani 1 1 d . . . . .
N13 N 0.3778(4) 0.6638(7) 0.5848(3) 0.030(3) Uani 1 1 d . . . . .
C14 C 0.2579(5) 0.4447(8) 0.3518(3) 0.0244(11) Uani 1 1 d . . . . .
C15 C 0.1767(5) 0.4481(8) 0.3495(3) 0.0244(11) Uani 1 1 d . . . . .
C16 C 0.2212(5) 0.4803(8) 0.3079(3) 0.0244(11) Uani 1 1 d . . . . .
C17 C 0.3477(5) 0.4387(8) 0.3536(3) 0.0263(12) Uani 1 1 d . . . . .
H17 H 0.3495 0.4598 0.3333 0.032 Uiso 1 1 calc R U . . .
C18 C 0.3038(5) 0.4014(9) 0.3992(3) 0.0263(12) Uani 1 1 d . . . . .
H18 H 0.2751 0.3970 0.4109 0.032 Uiso 1 1 calc R U . . .
C20 C 0.4283(4) 0.5116(10) 0.5097(3) 0.025(3) Uani 1 1 d . . . . .
C21 C 0.4030(4) 0.7022(8) 0.5629(3) 0.022(3) Uani 1 1 d . . . . .
N23 N 0.3877(4) 0.5170(7) 0.5578(2) 0.026(2) Uani 1 1 d . . . . .
N24 N 0.1893(8) 0.6896(12) 0.3523(4) 0.0681(13) Uani 0.8 1 d . . P A 1
C25 C 0.3024(5) 0.4289(9) 0.3683(3) 0.0263(12) Uani 1 1 d . . . . .
C26 C 0.4220(5) 0.4090(9) 0.5088(3) 0.024(2) Uani 1 1 d . . . . .
H26 H 0.4096 0.3729 0.5254 0.029 Uiso 1 1 calc R U . . .
C27 C 0.4542(5) 0.9535(9) 0.5489(3) 0.034(2) Uani 1 1 d . . . . .
H27 H 0.4689 0.9890 0.5330 0.041 Uiso 1 1 calc R U . . .
C28 C 0.0863(5) 0.4051(10) 0.4094(3) 0.029(3) Uani 1 1 d . . . . .
H28 H 0.0863 0.3945 0.4305 0.035 Uiso 1 1 calc R U . . .
C29 C 0.1276(5) 0.4167(9) 0.3963(3) 0.029(3) Uani 1 1 d . . . . .
H29 H 0.1565 0.4122 0.4078 0.034 Uiso 1 1 calc R U . . .
C30 C 0.4351(5) 0.3672(9) 0.4823(3) 0.028(3) Uani 1 1 d . . . . .
H30 H 0.4330 0.2986 0.4815 0.034 Uiso 1 1 calc R U . . .
C31 C 0.4569(4) 0.5058(9) 0.4596(3) 0.027(3) Uani 1 1 d . . . . .
H31 H 0.4703 0.5384 0.4426 0.033 Uiso 1 1 calc R U . . .
C32 C 0.3884(5) 0.4175(8) 0.3692(3) 0.0263(12) Uani 1 1 d . . . . .
H32 H 0.4187 0.4239 0.3593 0.032 Uiso 1 1 calc R U . . .
C33 C 0.1301(5) 0.4363(9) 0.3645(3) 0.028(3) Uani 1 1 d . . . . .
C34 C 0.3462(5) 0.5165(9) 0.6055(3) 0.031(3) Uani 1 1 d . . . . .
C37 C 0.3487(5) 0.3813(8) 0.4115(3) 0.0263(12) Uani 1 1 d . . . . .
H37 H 0.3496 0.3607 0.4319 0.032 Uiso 1 1 calc R U . . .
C38 C 0.4406(5) 0.8550(10) 0.5427(3) 0.039(4) Uani 1 1 d . . . . .
H38 H 0.4464 0.8245 0.5239 0.046 Uiso 1 1 calc R U . . .
C39 C 0.3724(4) 0.5679(9) 0.5815(3) 0.026(3) Uani 1 1 d . . . . .
C41 C 0.1977(10) 0.6459(14) 0.4039(6) 0.0681(13) Uani 0.8 1 d . . P A 1
H41 H 0.1824 0.6288 0.4223 0.082 Uiso 0.8 1 calc R U P A 1
C42 C 0.3192(7) 0.5655(12) 0.6271(4) 0.069(6) Uani 1 1 d . . . . .
H42 H 0.3164 0.6340 0.6265 0.083 Uiso 1 1 calc R U . . .
C45 C 0.3263(6) 0.3711(12) 0.6308(3) 0.046(4) Uani 1 1 d . . . . .
H45 H 0.3321 0.3037 0.6332 0.056 Uiso 1 1 calc R U . . .
C46 C 0.4180(5) 0.8073(9) 0.5671(3) 0.027(3) Uani 1 1 d . . . . .
C47 C 0.4447(5) 0.5587(9) 0.4853(3) 0.024(2) Uani 1 1 d . . . . .
H47 H 0.4480 0.6272 0.4855 0.029 Uiso 1 1 calc R U . . .
C48 C 0.3102(6) 0.7198(10) 0.3213(3) 0.0681(13) Uani 0.8 1 d G . P A 1
C57 C 0.2602(6) 0.7184(10) 0.3235(3) 0.0681(13) Uani 0.8 1 d G . P A 1
C40 C 0.2383(5) 0.6962(10) 0.3509(4) 0.0681(13) Uani 0.8 1 d G . P A 1
C49 C 0.2666(7) 0.6754(10) 0.3760(3) 0.0681(13) Uani 0.8 1 d G . P A 1
C74 C 0.3166(6) 0.6768(11) 0.3737(3) 0.0681(13) Uani 0.8 1 d G . P A 1
C3 C 0.3385(5) 0.6990(11) 0.3464(4) 0.0681(13) Uani 0.8 1 d G . P A 1
C50 C 0.3483(7) 0.4192(11) 0.6092(3) 0.050(4) Uani 1 1 d . . . . .
H50 H 0.3671 0.3831 0.5952 0.060 Uiso 1 1 calc R U . . .
C51 C 0.2302(10) 0.7415(14) 0.2990(6) 0.0681(13) Uani 0.8 1 d . . P A 1
C53 C 0.4083(4) 0.8557(10) 0.5933(3) 0.031(3) Uani 1 1 d . . . . .
H53 H 0.3905 0.8250 0.6090 0.037 Uiso 1 1 calc R U . . .
C54 C 0.4253(5) 0.9533(9) 0.5969(3) 0.034(2) Uani 1 1 d . . . . .
H54 H 0.4201 0.9858 0.6155 0.041 Uiso 1 1 calc R U . . .
C56 C 0.1694(11) 0.6652(14) 0.3794(6) 0.0681(13) Uani 0.8 1 d . . P A 1
H56 H 0.1352 0.6615 0.3812 0.082 Uiso 0.8 1 calc R U P A 1
C2 C 0.2959(8) 0.5115(12) 0.6498(5) 0.079(7) Uani 1 1 d . . . . .
H2 H 0.2803 0.5450 0.6658 0.095 Uiso 1 1 calc R U . . .
C4 C 0.2534(11) 0.7666(14) 0.2737(6) 0.0681(13) Uani 0.8 1 d . . P A 1
H4 H 0.2339 0.7872 0.2573 0.082 Uiso 0.8 1 calc R U P A 1
C5 C 0.3959(10) 0.6926(14) 0.3446(6) 0.0681(13) Uani 0.8 1 d . . P A 1
H5 H 0.4106 0.7064 0.3257 0.082 Uiso 0.8 1 calc R U P A 1
C6 C 0.4227(11) 0.6712(14) 0.3657(6) 0.0681(13) Uani 0.8 1 d . . P A 1
H6 H 0.4564 0.6631 0.3624 0.082 Uiso 0.8 1 calc R U P A 1
C1 C 0.2461(10) 0.6499(14) 0.4033(6) 0.0681(13) Uani 0.8 1 d . . P A 1
H1 H 0.2651 0.6360 0.4206 0.082 Uiso 0.8 1 calc R U P A 1
C7 C 0.3303(10) 0.7459(14) 0.2894(6) 0.0681(13) Uani 0.8 1 d . . P A 1
H7 H 0.3639 0.7469 0.2851 0.082 Uiso 0.8 1 calc R U P A 1
C8 C 0.2983(10) 0.7660(14) 0.2694(6) 0.0681(13) Uani 0.8 1 d . . P A 1
H8 H 0.3095 0.7816 0.2498 0.082 Uiso 0.8 1 calc R U P A 1
C12 C 0.3480(10) 0.6590(14) 0.3969(6) 0.0681(13) Uani 0.8 1 d . . P A 1
H12 H 0.3349 0.6456 0.4163 0.082 Uiso 0.8 1 calc R U P A 1
N16 N 0.0901(9) 0.7079(12) 0.3308(4) 0.0681(13) Uani 0.8 1 d . . P A 1
C24 C 0.4039(10) 0.6593(14) 0.3934(6) 0.0681(13) Uani 0.8 1 d . . P A 1
H24 H 0.4243 0.6514 0.4104 0.082 Uiso 0.8 1 calc R U P A 1
C10 C 0.0546(11) 0.6937(15) 0.3385(6) 0.0681(13) Uani 0.8 1 d . . P A 1
C11 C 0.2251(6) 0.5149(9) 0.2759(3) 0.0366(14) Uani 1 1 d . . . . .
C13 C 0.2707(6) 0.5147(9) 0.2621(3) 0.0366(14) Uani 1 1 d . . . . .
H13 H 0.2982 0.4920 0.2728 0.044 Uiso 1 1 calc R U . . .
C19 C 0.0424(6) 0.4255(9) 0.3652(4) 0.044(4) Uani 1 1 d . . . . .
H19 H 0.0125 0.4289 0.3548 0.053 Uiso 1 1 calc R U . . .
C1A C 0.1858(6) 0.5443(9) 0.2596(3) 0.0366(14) Uani 1 1 d . . . . .
H1A H 0.1543 0.5415 0.2680 0.044 Uiso 1 1 calc R U . . .
C1B C 0.0853(6) 0.4398(11) 0.3495(4) 0.044(4) Uani 1 1 d . . . . .
H1B H 0.0843 0.4520 0.3284 0.052 Uiso 1 1 calc R U . . .
C1C C 0.1930(6) 0.5783(9) 0.2306(3) 0.0366(14) Uani 1 1 d . . . . .
H1C H 0.1662 0.6009 0.2192 0.044 Uiso 1 1 calc R U . . .
C1D C 0.2750(6) 0.5467(9) 0.2339(3) 0.0366(14) Uani 1 1 d . . . . .
H1D H 0.3058 0.5459 0.2245 0.044 Uiso 1 1 calc R U . . .
N9 N 0.2367(5) 0.5801(8) 0.2183(2) 0.0366(14) Uani 1 1 d . . . . .
Br12 Br 0.3641(4) 0.6430(6) 0.4189(2) 0.0681(13) Uani 0.2 1 d . . P B 2
C1E C -0.0006(9) 0.6818(14) 0.3437(6) 0.0681(13) Uani 0.8 1 d . . P A 1
H1EA H -0.0182 0.7290 0.3313 0.102 Uiso 0.8 1 calc R U P A 1
H1EB H -0.0081 0.6930 0.3650 0.102 Uiso 0.8 1 calc R U P A 1
H1EC H -0.0105 0.6161 0.3380 0.102 Uiso 0.8 1 calc R U P A 1
N1 N 0.3172(6) 0.5465(15) 0.4686(4) 0.087(4) Uani 1 1 d D . . . .
C1I C 0.3029(8) 0.4967(17) 0.4857(5) 0.087(4) Uani 1 1 d D . . . .
C1J C 0.2857(7) 0.4368(16) 0.5113(5) 0.087(4) Uani 1 1 d D . . . .
H1JA H 0.2637 0.3867 0.5038 0.131 Uiso 1 1 calc R U . . .
H1JB H 0.2687 0.4781 0.5258 0.131 Uiso 1 1 calc R U . . .
H1JC H 0.3134 0.4061 0.5212 0.131 Uiso 1 1 calc R U . . .

loop_
_atom_site_aniso_label
_atom_site_aniso_U_11
_atom_site_aniso_U_22
_atom_site_aniso_U_33
_atom_site_aniso_U_23
_atom_site_aniso_U_13
_atom_site_aniso_U_12
Zn1 0.0376(10) 0.0169(8) 0.0520(11) 0.0049(7) -0.0001(8) -0.0020(7)
I2 0.0995(12) 0.0643(9) 0.1032(12) 0.0338(8) 0.0102(9) 0.0059(8)
Zn3 0.0380(10) 0.0347(9) 0.0326(9) -0.0053(7) -0.0056(8) 0.0062(7)
Zn4 0.1175(19) 0.0503(12) 0.0172(8) -0.0084(8) 0.0164(10) -0.0492(12)
I5 0.1186(14) 0.0632(10) 0.1116(13) -0.0144(9) -0.0261(10) 0.0168(9)
I6 0.0821(11) 0.1407(17) 0.0808(11) 0.0122(10) 0.0035(8) 0.0015(10)
Pd1 0.1226(19) 0.0383(10) 0.0676(13) -0.0162(9) -0.0168(12) 0.0103(10)
I1 0.174(2) 0.258(3) 0.0821(14) -0.0233(16) -0.0136(14) -0.114(2)
I3 0.1227(16) 0.0923(14) 0.178(2) -0.0371(13) -0.0320(15) -0.0294(12)
I4 0.371(4) 0.0605(11) 0.0793(13) -0.0049(9) 0.0237(18) -0.0550(16)
Br1 0.212(5) 0.193(5) 0.110(3) 0.033(3) -0.023(3) 0.068(4)
Pd2 0.113(4) 0.0220(16) 0.069(3) -0.0115(18) -0.013(3) -0.004(2)
N2 0.036(7) 0.023(6) 0.037(7) -0.006(5) 0.012(6) -0.008(5)
N3 0.047(3) 0.006(2) 0.021(2) -0.0042(18) -0.002(2) -0.001(2)
N4 0.035(7) 0.018(6) 0.035(6) 0.005(5) 0.0