
#######################################################################
#
#                 Cambridge Crystallographic Data Centre
#                                CCDC
#
#######################################################################
#
# If this CIF has been generated from an entry in the Cambridge
# Structural Database, then it will include bibliographic, chemical,
# crystal, experimental, refinement or atomic coordinate data resulting
# from the CCDC's data processing and validation procedures.
#
#######################################################################

data_CSD_CIF_RIZMIW
_audit_creation_date 1997-12-19
_audit_creation_method CSD-ConQuest-V1
_database_code_CSD RIZMIW
_database_code_depnum_ccdc_archive 'CCDC 1250990'
_database_code_depnum_ccdc_journal 186/377
_chemical_formula_sum 'C2 H6 Br2 Se1'
_chemical_formula_moiety
;
C2 H6 Br2 Se1
;
_journal_coden_Cambridge 186
_journal_year 1997
_journal_page_first 1031
_journal_name_full 'J.Chem.Soc.,Dalton Trans. '
loop_
_publ_author_name
"S.M.Godfrey"
"C.A.McAuliffe"
"R.G.Pritchard"
"S.Sarwar"
_chemical_name_systematic
;
Di-bromodimethylselenium
;
_chemical_name_common
;
Teaching Subset: Fundamental Chemistry, Symmetry
;
_cell_volume    671.137
_exptl_crystal_colour 'yellow'
_exptl_crystal_density_diffrn 2.661
_diffrn_ambient_temperature ?
_diffrn_special_details
;
The study was carried out at room temperature,in the range 283-303K

;
#These two values have been output from a single CSD field.
_refine_ls_R_factor_gt 0.045
_refine_ls_wR_factor_gt 0.045
_symmetry_cell_setting monoclinic
_symmetry_space_group_name_H-M 'P 21/n'
_symmetry_Int_Tables_number 14
loop_
_symmetry_equiv_pos_site_id
_symmetry_equiv_pos_as_xyz
1 x,y,z
2 1/2-x,1/2+y,1/2-z
3 -x,-y,-z
4 -1/2+x,-1/2-y,-1/2+z
_cell_length_a 8.574(3)
_cell_length_b 8.124(5)
_cell_length_c 9.640(4)
_cell_angle_alpha 90
_cell_angle_beta 91.82(3)
_cell_angle_gamma 90
_cell_formula_units_Z 4
loop_
_atom_type_symbol
_atom_type_radius_bond
C 0.68
H 0.23
Br 1.21
Se 1.22
loop_
_atom_site_label
_atom_site_type_symbol
_atom_site_fract_x
_atom_site_fract_y
_atom_site_fract_z
Br1 Br 1.1981(3) 0.0271(4) 0.6617(3)
Br2 Br 0.6302(3) 0.2037(4) 0.6953(3)
Se1 Se 0.9162(3) 0.1214(3) 0.6789(3)
C1 C 0.959(3) 0.320(2) 0.580(2)
C2 C 0.955(3) 0.204(4) 0.865(3)
H1 H 1.06280 0.35450 0.60140
H2 H 0.94730 0.30030 0.48290
H3 H 0.88810 0.40330 0.60620
H4 H 0.94070 0.11780 0.92960
H5 H 1.05900 0.24380 0.87330
H6 H 0.88430 0.29100 0.88240
#END
