
#######################################################################
#
#                 Cambridge Crystallographic Data Centre
#                                CCDC
#
#######################################################################
#
# If this CIF has been generated from an entry in the Cambridge
# Structural Database, then it will include bibliographic, chemical,
# crystal, experimental, refinement or atomic coordinate data resulting
# from the CCDC's data processing and validation procedures.
#
#######################################################################

data_CSD_CIF_ROCYAJ
_audit_creation_date 1997-12-19
_audit_creation_method CSD-ConQuest-V1
_database_code_CSD ROCYAJ
_database_code_depnum_ccdc_archive 'CCDC 100382'
_chemical_formula_sum 'C30 H32 Co2 N10 O16'
_chemical_formula_moiety
;
(C30 H24 Co2 N10 O12)n,4n(H2 O1)
;
_journal_coden_Cambridge 179
_journal_volume 36
_journal_year 1997
_journal_page_first 1725
_journal_name_full 'Angew.Chem.,Int.Ed. '
loop_
_publ_author_name
"M.Kondo"
"T.Yoshitomi"
"K.Seki"
"H.Matsuzaka"
"S.Kitagawa"
_chemical_name_systematic
;
catena(tris(\m~2~-4,4'-Bipyridine)-tetranitrato-di-cobalt tetrahydrate)
;
_chemical_name_common
;
Teaching Subset: MOFs
;
_cell_volume   4063.607
_exptl_crystal_colour 'pink'
_exptl_crystal_density_diffrn 1.482
_exptl_special_details
;
Isostructural with the carbon disulfide analogue

;
_diffrn_ambient_temperature ?
_diffrn_special_details
;
The study was carried out at room temperature,in the range 283-303K

;
_refine_special_details
;
Water molecules appear to be disordered.

;
#These two values have been output from a single CSD field.
_refine_ls_R_factor_gt 0.0863
_refine_ls_wR_factor_gt 0.0863
_symmetry_cell_setting orthorhombic
_symmetry_space_group_name_H-M 'C c c a'
_symmetry_Int_Tables_number 68
loop_
_symmetry_equiv_pos_site_id
_symmetry_equiv_pos_as_xyz
1 x,y,z
2 -x,1/2-y,z
3 1/2+x,-y,1/2-z
4 1/2-x,1/2+y,1/2-z
5 1/2+x,1/2+y,z
6 1/2-x,-y,z
7 x,1/2-y,1/2-z
8 -x,y,1/2-z
9 -x,-y,-z
10 x,-1/2+y,-z
11 -1/2-x,y,-1/2+z
12 -1/2+x,-1/2-y,-1/2+z
13 -1/2-x,-1/2-y,-z
14 -1/2+x,y,-z
15 -x,-1/2+y,-1/2+z
16 x,-y,-1/2+z
_cell_length_a 12.267(7)
_cell_length_b 19.025(7)
_cell_length_c 17.412(4)
_cell_angle_alpha 90
_cell_angle_beta 90
_cell_angle_gamma 90
_cell_formula_units_Z 4
loop_
_atom_type_symbol
_atom_type_radius_bond
C 0.68
H 0.23
Co 1.33
N 0.68
O 0.67
loop_
_atom_site_label
_atom_site_type_symbol
_atom_site_fract_x
_atom_site_fract_y
_atom_site_fract_z
Co1 Co 1.00000 0.25000 0.5752(2)
O1 O 1.590(1) -0.2042(7) 0.6743(8)
O2 O 1.655(1) -0.1804(7) 0.5661(9)
O3 O 1.728(1) -0.1331(8) 0.6615(9)
N1 N 1.088(1) 0.1538(6) 0.5771(8)
N2 N 1.50000 -0.25000 0.4526(9)
N3 N 1.659(2) -0.1737(10) 0.637(1)
C1 C 1.096(2) 0.1125(9) 0.5204(9)
C2 C 1.161(2) 0.0515(8) 0.5190(9)
C3 C 1.219(1) 0.0329(7) 0.5844(9)
C4 C 1.211(1) 0.0761(8) 0.6466(9)
C5 C 1.144(1) 0.1350(8) 0.6418(9)
C6 C 1.413(1) -0.2658(7) 0.4116(8)
C7 C 1.414(2) -0.2654(8) 0.3329(8)
C8 C 1.50000 -0.25000 0.2897(9)
H1 H 1.05330 0.12350 0.47690
H2 H 1.16670 0.02400 0.47360
H3 H 1.25060 0.06650 0.69260
H4 H 1.13660 0.16370 0.68620
H5 H 1.65260 -0.22140 0.43740
H6 H 1.65190 -0.22320 0.30730
O4 O 0.972(2) 0.036(1) 0.204(1)
C3E C 1.281(1) -0.0329(7) 0.5844(9)
C2E C 1.339(2) -0.0515(8) 0.5190(9)
C1E C 1.404(2) -0.1125(9) 0.5204(9)
N1E N 1.412(1) -0.1538(6) 0.5771(8)
Co1E Co 1.50000 -0.25000 0.5752(2)
O1A O 1.410(1) -0.2958(7) 0.6743(8)
N3A N 1.341(2) -0.3263(10) 0.637(1)
O2A O 1.345(1) -0.3196(7) 0.5661(9)
O3A O 1.272(1) -0.3669(8) 0.6615(9)
N1D N 1.588(1) -0.3462(6) 0.5771(8)
C7A C 1.586(2) -0.2346(8) 0.3329(8)
C6A C 1.587(1) -0.2342(7) 0.4116(8)
C8F C 1.50000 -0.25000 0.2103(9)
C7F C 1.414(2) -0.2346(8) 0.1671(8)
C6F C 1.413(1) -0.2342(7) 0.0884(8)
N2F N 1.50000 -0.25000 0.0474(9)
Co1C Co 1.50000 -0.25000 -0.0752(2)
O1F O 1.590(1) -0.2958(7) -0.1743(8)
N3F N 1.659(2) -0.3263(10) -0.137(1)
O2F O 1.655(1) -0.3196(7) -0.0661(9)
O1G O 1.410(1) -0.2042(7) -0.1743(8)
N3G N 1.341(2) -0.1737(10) -0.137(1)
O2G O 1.345(1) -0.1804(7) -0.0661(9)
N1C N 1.412(1) -0.3462(6) -0.0771(8)
C1C C 1.404(2) -0.3875(9) -0.0204(9)
C2C C 1.339(2) -0.4485(8) -0.0190(9)
C3C C 1.281(1) -0.4671(7) -0.0844(9)
C3F C 1.219(1) -0.5329(7) -0.0844(9)
C2F C 1.161(2) -0.5515(8) -0.0190(9)
C1F C 1.096(2) -0.6125(9) -0.0204(9)
N1F N 1.088(1) -0.6538(6) -0.0771(8)
Co1F Co 1.00000 -0.75000 -0.0752(2)
C5F C 1.144(1) -0.6350(8) -0.1418(9)
C4F C 1.211(1) -0.5761(8) -0.1466(9)
H3F H 1.25060 -0.56650 -0.19260
H4F H 1.13660 -0.66370 -0.18620
H1F H 1.05330 -0.62350 0.02310
H2F H 1.16670 -0.52400 0.02640
C4C C 1.289(1) -0.4239(8) -0.1466(9)
C5C C 1.356(1) -0.3650(8) -0.1418(9)
H4C H 1.36340 -0.33630 -0.18620
H3C H 1.24940 -0.43350 -0.19260
H2C H 1.33330 -0.47600 0.02640
H1C H 1.44670 -0.37650 0.02310
N1B N 1.588(1) -0.1538(6) -0.0771(8)
O3G O 1.272(1) -0.1331(8) -0.1615(9)
O3F O 1.728(1) -0.3669(8) -0.1615(9)
C6G C 1.587(1) -0.2658(7) 0.0884(8)
C7G C 1.586(2) -0.2654(8) 0.1671(8)
H6F H 1.65190 -0.27680 0.19270
H5F H 1.65260 -0.27860 0.06260
H5G H 1.34740 -0.22140 0.06260
H6G H 1.34810 -0.22320 0.19270
H6A H 1.34810 -0.27680 0.30730
H5A H 1.34740 -0.27860 0.43740
C5E C 1.356(1) -0.1350(8) 0.6418(9)
C4E C 1.289(1) -0.0761(8) 0.6466(9)
H3E H 1.24940 -0.06650 0.69260
H4E H 1.36340 -0.16370 0.68620
H1E H 1.44670 -0.12350 0.47690
H2E H 1.33330 -0.02400 0.47360
#END
