####################################################################### 
# 
# This file contains crystal structure data downloaded from the 
# Cambridge Structural Database (CSD) hosted by the Cambridge 
# Crystallographic Data Centre (CCDC).
# 
# Full information about CCDC data access policies and citation 
# guidelines are available at http://www.ccdc.cam.ac.uk/access/V1 
# 
# Audit and citation data items may have been added by the CCDC. 
# Please retain this information to preserve the provenance of 
# this file and to allow appropriate attribution of the data. 
# 
#######################################################################

data_ROFPEH
#This CIF has been generated from an entry in the Cambridge Structural Database
_database_code_depnum_ccdc_archive 'CCDC 1251341'
_database_code_CSD               ROFPEH
loop_
_citation_id
_citation_doi
_citation_year
1 10.1246/bcsj.69.3483 1996
_audit_creation_method           'Created from the CSD'
_audit_update_record             
;
2024-07-12 downloaded from the CCDC.
;
_database_code_NBS               680811
_chemical_formula_moiety         '(C14 H4 F12 O10 Rh2)n,3n(C6 H6)'
_chemical_name_systematic        
'catena-((\m~2~-1,4-Benzoquinone)-tetrakis(\m~2~-trifluoroacetato)-di-rhodium(ii) benzene solvate)'
_chemical_absolute_configuration unk
_diffrn_ambient_temperature      295
_exptl_crystal_density_diffrn    1.744
#These two values have been output from a single CSD field.
_refine_ls_R_factor_gt           0.056
_refine_ls_wR_factor_gt          0.056
_diffrn_radiation_probe          x-ray
_symmetry_cell_setting           monoclinic
_symmetry_space_group_name_H-M   'C 2/c'
_symmetry_Int_Tables_number      15
_space_group_name_Hall           '-C 2yc'
loop_
_symmetry_equiv_pos_site_id
_symmetry_equiv_pos_as_xyz
1 x,y,z
2 -x,y,1/2-z
3 1/2+x,1/2+y,z
4 1/2-x,1/2+y,1/2-z
5 -x,-y,-z
6 x,-y,1/2+z
7 1/2-x,1/2-y,-z
8 1/2+x,1/2-y,1/2+z
_cell_length_a                   9.137(3)
_cell_length_b                   20.768(2)
_cell_length_c                   20.207(6)
_cell_angle_alpha                90
_cell_angle_beta                 96.38(1)
_cell_angle_gamma                90
_cell_volume                     3810.68
_cell_formula_units_Z            4
loop_
_atom_site_label
_atom_site_type_symbol
_atom_site_fract_x
_atom_site_fract_y
_atom_site_fract_z
F1 F 0.0226(9) 0.5134(5) 0.5739(6)
F2 F 0.0836(9) 0.6018(4) 0.5753(6)
F3 F 0.156(1) 0.5456(8) 0.6474(4)
F4 F 0.8275(9) 0.5584(5) 0.6899(4)
F5 F 0.782(1) 0.4707(5) 0.7101(4)
F6 F 0.640(1) 0.5385(8) 0.7250(4)
O1 O 0.2922(6) 0.4708(2) 0.5509(3)
O2 O 0.3331(6) 0.5761(2) 0.5306(3)
O3 O 0.5946(6) 0.4561(2) 0.6022(3)
O4 O 0.3651(6) 0.4385(2) 0.4186(3)
O5 O 0.4515(6) 0.3393(2) 0.5349(3)
C1 C 0.2643(9) 0.5297(4) 0.5525(4)
C2 C 0.134(1) 0.5487(4) 0.5879(5)
C3 C 0.6424(9) 0.5111(4) 0.6164(5)
C4 C 0.720(1) 0.5192(5) 0.6868(5)
C5 C 0.3567(8) 0.2983(3) 0.5179(4)
C6 C 0.384(1) 0.2307(4) 0.5359(5)
C7 C 0.215(1) 0.3145(4) 0.4815(5)
Rh1 Rh 0.47833(6) 0.44404(2) 0.51099(3)
H1 H 0.478 0.219 0.560
H2 H 0.195 0.359 0.469
Rh1D Rh 0.52167(6) 0.55596(2) 0.48901(3)
C3D C 0.3576(9) 0.4889(4) 0.3836(5)
O4D O 0.6349(6) 0.5615(2) 0.5814(3)
C7F C 0.285(1) 0.1855(4) 0.5185(5)
C6F C 0.116(1) 0.2693(4) 0.4641(5)
O2D O 0.6669(6) 0.4239(2) 0.4694(3)
O3D O 0.4054(6) 0.5439(2) 0.3978(3)
C4D C 0.280(1) 0.4808(5) 0.3132(5)
C5F C 0.1433(8) 0.2017(3) 0.4821(4)
H2F H 0.305 0.141 0.531
H1F H 0.022 0.281 0.440
C1D C 0.7357(9) 0.4703(4) 0.4475(4)
F4D F 0.1725(9) 0.4416(5) 0.3101(4)
F5D F 0.218(1) 0.5293(5) 0.2899(4)
F6D F 0.360(1) 0.4615(8) 0.2750(4)
O5F O 0.0485(6) 0.1607(2) 0.4651(3)
O1D O 0.7078(6) 0.5292(2) 0.4491(3)
C2D C 0.866(1) 0.4513(4) 0.4121(5)
Rh1F Rh 0.02167(6) 0.05596(2) 0.48901(3)
F1D F 0.9774(9) 0.4866(5) 0.4261(6)
F2D F 0.9164(9) 0.3982(4) 0.4247(6)
F3D F 0.844(1) 0.4544(8) 0.3526(4)
O5D O 0.5485(6) 0.6607(2) 0.4651(3)
C8 C 0.50000 0.337(1) 0.75000
C9 C 0.580(2) 0.3052(8) 0.7095(7)
C10 C 0.585(2) 0.2403(8) 0.7095(7)
C11 C 0.50000 0.2076(9) 0.75000
H3 H 0.500 0.379 0.750
H4 H 0.635 0.329 0.679
H5 H 0.646 0.217 0.681
H6 H 0.500 0.168 0.750
C9A C 0.420(2) 0.3052(8) 0.7905(7)
C10A C 0.415(2) 0.2403(8) 0.7905(7)
H4A H 0.365 0.329 0.821
H5A H 0.354 0.217 0.819
C12 C 0.049(2) 0.6536(7) 0.3883(9)
C13 C 0.140(2) 0.6970(8) 0.4163(8)
C14 C 0.108(2) 0.7606(7) 0.4062(7)
C15 C -0.005(2) 0.7778(8) 0.3664(8)
C16 C -0.099(2) 0.735(1) 0.337(1)
C17 C -0.071(2) 0.6703(9) 0.350(1)
H7 H 0.076 0.608 0.396
H8 H 0.229 0.684 0.444
H9 H 0.172 0.793 0.429
H10 H -0.023 0.823 0.357
H11 H -0.183 0.747 0.306
H12 H -0.139 0.635 0.335

#END
