####################################################################### 
# 
# This file contains crystal structure data downloaded from the 
# Cambridge Structural Database (CSD) hosted by the Cambridge 
# Crystallographic Data Centre (CCDC).
# 
# Full information about CCDC data access policies and citation 
# guidelines are available at http://www.ccdc.cam.ac.uk/access/V1 
# 
# Audit and citation data items may have been added by the CCDC. 
# Please retain this information to preserve the provenance of 
# this file and to allow appropriate attribution of the data. 
# 
#######################################################################

data_[Zn2(BPnDC)2(dabco)]-hexane(2hexane)
_audit_block_doi                 10.5517/ccr4p8t
_database_code_depnum_ccdc_archive 'CCDC 689696'
loop_
_citation_id
_citation_doi
_citation_year
1 10.1002/chem.200801064 2008
_audit_update_record             
;
2008-05-29 deposited with the CCDC.	2024-07-12 downloaded from the CCDC.
;
#=============================================================================
_audit_creation_date             2008-05-28T20:04:15-00:00
_audit_creation_method           'WinGX routine CIF_UPDATE'

#----------------------------------------------------------------------------#
# CHEMICAL INFORMATION #
#----------------------------------------------------------------------------#

_chemical_name_systematic        
;
?
;
_chemical_formula_moiety         'C36 H28 N2 O10 Zn2'
_chemical_formula_sum            'C36 H28 N2 O10 Zn2'
_chemical_formula_weight         779.4
_chemical_compound_source        'synthesis as described'

#----------------------------------------------------------------------------#
# UNIT CELL INFORMATION #
#----------------------------------------------------------------------------#

_symmetry_cell_setting           tetragonal
_symmetry_space_group_name_H-M   'I 41/a'
_symmetry_space_group_name_Hall  '-I 4ad'
_symmetry_Int_Tables_number      88
loop_
_symmetry_equiv_pos_as_xyz
'x, y, z'
'-x+1/2, -y, z+1/2'
'-y+3/4, x+1/4, z+1/4'
'y+3/4, -x+3/4, z+3/4'
'x+1/2, y+1/2, z+1/2'
'-x+1, -y+1/2, z+1'
'-y+5/4, x+3/4, z+3/4'
'y+5/4, -x+5/4, z+5/4'
'-x, -y, -z'
'x-1/2, y, -z-1/2'
'y-3/4, -x-1/4, -z-1/4'
'-y-3/4, x-3/4, -z-3/4'
'-x+1/2, -y+1/2, -z+1/2'
'x, y+1/2, -z'
'y-1/4, -x+1/4, -z+1/4'
'-y-1/4, x-1/4, -z-1/4'

_cell_length_a                   19.4506(7)
_cell_length_b                   19.4506(7)
_cell_length_c                   50.9176(12)
_cell_angle_alpha                90
_cell_angle_beta                 90
_cell_angle_gamma                90
_cell_volume                     19263.4(11)
_cell_formula_units_Z            8
_cell_measurement_temperature    293(2)
_cell_measurement_reflns_used    40997
_cell_measurement_theta_min      0.998
_cell_measurement_theta_max      27.485
_cell_measurement_wavelength     0.71073

#----------------------------------------------------------------------------#
# CRYSTAL INFORMATION #
#----------------------------------------------------------------------------#

_exptl_crystal_description       octahedral
_exptl_crystal_colour            colorless
_exptl_crystal_size_max          ?
_exptl_crystal_size_mid          ?
_exptl_crystal_size_min          ?
_exptl_crystal_density_diffrn    0.537
_exptl_crystal_density_method    'not measured'
_exptl_crystal_F_000             3183
_exptl_special_details           
;
?
;

#----------------------------------------------------------------------------#
# ABSORPTION CORRECTION #
#----------------------------------------------------------------------------#

_exptl_absorpt_coefficient_mu    0.52
_exptl_absorpt_correction_type   none

#----------------------------------------------------------------------------#
# DATA COLLECTION #
#----------------------------------------------------------------------------#

_diffrn_ambient_temperature      293(2)
_diffrn_radiation_wavelength     0.71073
_diffrn_radiation_type           MoK\a
_diffrn_radiation_monochromator  graphite
_diffrn_radiation_probe          x-ray
_diffrn_reflns_av_R_equivalents  0.0481
_diffrn_reflns_av_unetI/netI     0.1271
_diffrn_reflns_number            15962
_diffrn_reflns_limit_h_min       -25
_diffrn_reflns_limit_h_max       25
_diffrn_reflns_limit_k_min       -17
_diffrn_reflns_limit_k_max       17
_diffrn_reflns_limit_l_min       -65
_diffrn_reflns_limit_l_max       40
_diffrn_reflns_theta_min         1.59
_diffrn_reflns_theta_max         27.48
_diffrn_reflns_theta_full        27.48
_diffrn_measured_fraction_theta_full 0.96
_diffrn_measured_fraction_theta_max 0.96
_reflns_number_total             10610
_reflns_number_gt                4270
_reflns_threshold_expression     >2sigma(I)

#----------------------------------------------------------------------------#
# COMPUTER PROGRAMS USED #
#----------------------------------------------------------------------------#

_computing_data_collection       'Collect (Bruker AXS BV, 1997-2004)'
_computing_cell_refinement       'HKL Scalepack (Otwinowski & Minor 1997)'
_computing_data_reduction        
'HKL Denzo and Scalepack (Otwinowski & Minor 1997)'
_computing_structure_solution    'SHELXS-86 (Sheldrick, 1986)'
_computing_structure_refinement  'SHELXL-97 (Sheldrick, 1997)'
_computing_molecular_graphics    'Ortep-3 for Windows (Farrugia, 1997)'
_computing_publication_material  'WinGX publication routines (Farrugia, 1999)'

#----------------------------------------------------------------------------#
# REFINEMENT INFORMATION #
#----------------------------------------------------------------------------#

_refine_special_details          
;
Refinement of F^2^ against ALL reflections. The weighted R-factor wR and
goodness of fit S are based on F^2^, conventional R-factors R are based
on F, with F set to zero for negative F^2^. The threshold expression of
F^2^ > 2sigma(F^2^) is used only for calculating R-factors(gt) etc. and is
not relevant to the choice of reflections for refinement. R-factors based
on F^2^ are statistically about twice as large as those based on F, and R-
factors based on ALL data will be even larger.

Due to the large void space in the structure, solvent molecules are
highly disordered. Complete assignment of all residual electron density
was therfore impossible.
The disordered solvent region was treated with SQUEEZE subroutine
in PLATON software package: Spek, A.L. (1990), Acta Crystallogr.A46, C-34.
;
_refine_ls_structure_factor_coef Fsqd
_refine_ls_matrix_type           full
_refine_ls_weighting_scheme      calc
_refine_ls_weighting_details     
'calc w=1/[\s^2^(Fo^2^)+(0.1579P)^2^+0.0000P] where P=(Fo^2^+2Fc^2^)/3'
_atom_sites_solution_primary     direct
_atom_sites_solution_secondary   difmap
_atom_sites_solution_hydrogens   geom
_refine_ls_hydrogen_treatment    constr
_refine_ls_extinction_method     SHELXL
_refine_ls_extinction_expression Fc^*^=kFc[1+0.001xFc^2^\l^3^/sin(2\q)]^-1/4^
_refine_ls_number_reflns         10610
_refine_ls_number_parameters     225
_refine_ls_number_restraints     5
_refine_ls_R_factor_all          0.1527
_refine_ls_R_factor_gt           0.0955
_refine_ls_wR_factor_ref         0.2733
_refine_ls_wR_factor_gt          0.2479
_refine_ls_goodness_of_fit_ref   0.886
_refine_ls_restrained_S_all      0.915
_refine_ls_shift/su_max          0.007
_refine_ls_shift/su_mean         0.001
_refine_diff_density_max         0.597
_refine_diff_density_min         -0.888
_refine_diff_density_rms         0.104

#----------------------------------------------------------------------------#
# ATOMIC TYPES, COORDINATES AND THERMAL PARAMETERS #
#----------------------------------------------------------------------------#

loop_
_atom_type_symbol
_atom_type_description
_atom_type_scat_dispersion_real
_atom_type_scat_dispersion_imag
_atom_type_scat_source
C C 0.003 0.002 'International Tables Vol C Tables 4.2.6.8 and 6.1.1.4'
H H 0 0 'International Tables Vol C Tables 4.2.6.8 and 6.1.1.4'
N N 0.006 0.003 'International Tables Vol C Tables 4.2.6.8 and 6.1.1.4'
O O 0.011 0.006 'International Tables Vol C Tables 4.2.6.8 and 6.1.1.4'
Zn Zn 0.284 1.43 'International Tables Vol C Tables 4.2.6.8 and 6.1.1.4'

loop_
_atom_site_label
_atom_site_type_symbol
_atom_site_fract_x
_atom_site_fract_y
_atom_site_fract_z
_atom_site_U_iso_or_equiv
_atom_site_adp_type
_atom_site_occupancy
_atom_site_symmetry_multiplicity
_atom_site_calc_flag
_atom_site_refinement_flags
_atom_site_disorder_assembly
_atom_site_disorder_group
C3 C 0.6866(4) -0.0577(4) 0.93890(13) 0.119(2) Uani 1 1 d . . .
H3 H 0.6758 -0.0996 0.9467 0.143 Uiso 1 1 calc R . .
C4 C 0.7390(5) -0.0534(5) 0.91875(14) 0.140(3) Uani 1 1 d . . .
H4 H 0.7658 -0.0918 0.9149 0.169 Uiso 1 1 calc R . .
C5 C 0.7492(4) 0.0061(5) 0.90552(13) 0.116(2) Uani 1 1 d . . .
C6 C 0.7077(4) 0.0609(5) 0.91147(13) 0.126(3) Uani 1 1 d . . .
H6 H 0.7107 0.1 0.901 0.151 Uiso 1 1 calc R . .
C7 C 0.6636(3) 0.0613(3) 0.93122(11) 0.0936(19) Uani 1 1 d . . .
H7 H 0.6393 0.1011 0.9352 0.112 Uiso 1 1 calc R . .
C9 C 0.7653(3) 0.1261(3) 0.81390(10) 0.0817(16) Uani 1 1 d . . .
C10 C 0.8320(4) 0.1120(4) 0.82370(11) 0.107(2) Uani 1 1 d . . .
H10 H 0.8701 0.1274 0.8144 0.128 Uiso 1 1 calc R . .
C11 C 0.8413(4) 0.0778(5) 0.84567(14) 0.140(2) Uani 1 1 d . . .
H11 H 0.8858 0.0734 0.8522 0.168 Uiso 1 1 calc R . .
C12 C 0.7903(4) 0.0493(4) 0.85901(14) 0.111(2) Uani 1 1 d . . .
C13 C 0.7238(6) 0.0573(5) 0.84927(15) 0.151(3) Uani 1 1 d . . .
H13 H 0.6868 0.0347 0.8569 0.181 Uiso 1 1 calc R . .
C14 C 0.7146(3) 0.1011(4) 0.82718(12) 0.101(2) Uani 1 1 d . . .
H14 H 0.67 0.1123 0.8221 0.121 Uiso 1 1 calc R . .
C15 C 0.8039(6) 0.0129(5) 0.88548(19) 0.144(3) Uani 1 1 d . . .
O5 O 0.8522(4) -0.0262(5) 0.88562(12) 0.193(3) Uani 1 1 d . . .
C16 C 0.5030(9) 0.2092(5) 0.97287(19) 0.277(9) Uani 1 1 d D . .
H16A H 0.4669 0.1901 0.9619 0.333 Uiso 1 1 calc R . .
H16B H 0.5468 0.196 0.9653 0.333 Uiso 1 1 calc R . .
C17 C 0.5580(10) 0.2087(7) 1.0102(4) 0.356(16) Uani 1 1 d D . .
H17A H 0.5597 0.191 1.028 0.428 Uiso 1 1 calc R . .
H17B H 0.5994 0.1944 1.0011 0.428 Uiso 1 1 calc R . .
C18 C 0.4468(9) 0.2209(11) 1.0105(4) 0.357(12) Uani 1 1 d D . .
H18A H 0.4029 0.2037 1.0043 0.428 Uiso 1 1 calc R . .
H18B H 0.4505 0.2076 1.0288 0.428 Uiso 1 1 calc R . .
C1 C 0.5998(3) -0.0007(4) 0.96729(11) 0.0845(17) Uani 1 1 d . . .
C2 C 0.6534(3) 0.0013(3) 0.94621(10) 0.0773(15) Uani 1 1 d . . .
C8 C 0.7539(3) 0.1712(3) 0.79022(9) 0.0721(15) Uani 1 1 d . . .
N1 N 0.49804(18) 0.18290(15) 0.99682(6) 0.0443(8) Uani 1 1 d D . .
O1 O 0.5735(2) 0.0549(2) 0.97270(6) 0.0821(11) Uani 1 1 d . . .
O2 O 0.5840(2) -0.0594(2) 0.97714(6) 0.0892(12) Uani 1 1 d . . .
O3 O 0.69515(19) 0.1791(2) 0.78238(6) 0.0778(10) Uani 1 1 d . . .
O4 O 0.8089(2) 0.1910(2) 0.77937(6) 0.0856(11) Uani 1 1 d . . .
Zn1 Zn 0.49520(3) 0.07564(3) 0.997816(8) 0.0560(2) Uani 1 1 d . . .

loop_
_atom_site_aniso_label
_atom_site_aniso_U_11
_atom_site_aniso_U_22
_atom_site_aniso_U_33
_atom_site_aniso_U_23
_atom_site_aniso_U_13
_atom_site_aniso_U_12
C3 0.146(7) 0.096(6) 0.115(5) 0.029(4) 0.005(5) 0.001(5)
C4 0.181(9) 0.132(7) 0.109(5) 0.026(5) 0.047(5) 0.043(6)
C5 0.106(6) 0.147(8) 0.095(5) 0.029(5) 0.017(4) 0.019(6)
C6 0.139(7) 0.137(7) 0.100(5) 0.045(4) 0.020(5) 0.016(6)
C7 0.096(5) 0.098(5) 0.087(4) 0.015(3) 0.018(3) 0.010(4)
C9 0.072(4) 0.101(5) 0.073(3) 0.009(3) 0.010(3) 0.006(3)
C10 0.091(5) 0.146(7) 0.084(4) 0.025(4) 0.006(3) 0.016(4)
C11 0.115(7) 0.2 0.104(5) 0.047(5) 0.009(4) 0.026(6)
C12 0.102(6) 0.134(7) 0.098(5) 0.028(4) 0.017(4) 0.035(5)
C13 0.176(10) 0.175(9) 0.102(6) 0.033(5) 0.033(6) 0.025(7)
C14 0.085(5) 0.118(6) 0.100(4) 0.011(4) 0.012(4) 0.008(4)
C15 0.117(8) 0.152(9) 0.163(8) 0.020(6) -0.002(6) 0.043(6)
O5 0.174(7) 0.254(9) 0.151(5) 0.052(5) 0.026(5) 0.033(6)
C16 0.55(3) 0.113(8) 0.170(10) -0.016(7) -0.001(14) -0.042(13)
C17 0.54(4) 0.071(8) 0.45(3) -0.009(11) -0.29(3) -0.019(14)
C18 0.262(19) 0.30(3) 0.51(3) -0.11(2) 0.20(2) 0.057(17)
C1 0.100(5) 0.078(5) 0.075(3) 0.008(3) 0.017(3) 0.007(4)
C2 0.088(4) 0.073(4) 0.072(3) 0.008(3) 0.008(3) 0.017(3)
C8 0.078(4) 0.077(4) 0.061(3) 0.008(2) 0.013(3) 0.004(3)
N1 0.063(2) 0.0284(18) 0.0417(17) 0.0019(13) 0.0014(14) 0.0109(17)
O1 0.107(3) 0.070(3) 0.069(2) 0.0125(18) 0.0078(19) 0.000(2)
O2 0.121(3) 0.076(3) 0.070(2) 0.0034(18) 0.023(2) 0.000(2)
O3 0.059(2) 0.099(3) 0.075(2) 0.0059(19) 0.0024(17) 0.003(2)
O4 0.076(3) 0.116(3) 0.065(2) 0.013(2) 0.0021(18) 0.004(2)
Zn1 0.0782(5) 0.0428(3) 0.0471(3) 0.0025(2) 0.0009(2) -0.0003(3)


#----------------------------------------------------------------------------#
# MOLECULAR GEOMETRY #
#----------------------------------------------------------------------------#

_geom_special_details            
;
All esds (except the esd in the dihedral angle between two l.s. planes)
are estimated using the full covariance matrix. The cell esds are taken
into account individually in the estimation of esds in distances, angles
and torsion angles; correlations between esds in cell parameters are only
used when they are defined by crystal symmetry. An approximate (isotropic)
treatment of cell esds is used for estimating esds involving l.s. planes.
;
loop_
_geom_bond_atom_site_label_1
_geom_bond_atom_site_label_2
_geom_bond_distance
_geom_bond_site_symmetry_2
_geom_bond_publ_flag
C3 C2 1.369(8) . ?
C3 C4 1.448(9) . ?
C4 C5 1.354(10) . ?
C5 C6 1.372(10) . ?
C5 C15 1.480(12) . ?
C6 C7 1.322(8) . ?
C7 C2 1.408(8) . ?
C9 C14 1.292(8) . ?
C9 C10 1.416(8) . ?
C9 C8 1.508(7) . ?
C10 C11 1.314(8) . ?
C11 C12 1.324(10) . ?
C12 C13 1.393(11) . ?
C12 C15 1.545(11) . ?
C13 C14 1.423(9) . ?
C15 O5 1.208(8) . ?
C16 N1 1.326(10) . ?
C16 C16 1.59(2) 6_554 ?
C17 C18 1.37(2) 6_554 ?
C17 N1 1.441(12) . ?
C18 C17 1.37(2) 6_554 ?
C18 N1 1.422(11) . ?
C1 O1 1.228(6) . ?
C1 O2 1.284(7) . ?
C1 C2 1.497(7) . ?
C8 O3 1.221(6) . ?
C8 O4 1.263(6) . ?
N1 Zn1 2.088(3) . ?
O1 Zn1 2.029(4) . ?
O2 Zn1 2.025(4) 9_657 ?
O3 Zn1 2.044(4) 16_657 ?
O4 Zn1 2.056(4) 4_554 ?
Zn1 O2 2.025(4) 9_657 ?
Zn1 O3 2.044(4) 11_667 ?
Zn1 O4 2.056(4) 3_545 ?
Zn1 Zn1 2.9570(10) 9_657 ?

loop_
_geom_angle_atom_site_label_1
_geom_angle_atom_site_label_2
_geom_angle_atom_site_label_3
_geom_angle
_geom_angle_site_symmetry_1
_geom_angle_site_symmetry_3
_geom_angle_publ_flag
C2 C3 C4 118.5(6) . . ?
C5 C4 C3 120.3(8) . . ?
C4 C5 C6 117.9(7) . . ?
C4 C5 C15 121.7(8) . . ?
C6 C5 C15 120.4(8) . . ?
C7 C6 C5 123.7(7) . . ?
C6 C7 C2 119.9(7) . . ?
C14 C9 C10 116.2(6) . . ?
C14 C9 C8 121.7(6) . . ?
C10 C9 C8 122.0(5) . . ?
C11 C10 C9 121.6(7) . . ?
C10 C11 C12 123.1(8) . . ?
C11 C12 C13 117.8(7) . . ?
C11 C12 C15 120.7(8) . . ?
C13 C12 C15 121.4(8) . . ?
C12 C13 C14 117.7(8) . . ?
C9 C14 C13 122.9(7) . . ?
O5 C15 C5 119.8(9) . . ?
O5 C15 C12 115.3(9) . . ?
C5 C15 C12 121.3(8) . . ?
N1 C16 C16 112.3(5) . 6_554 ?
C18 C17 N1 107.3(13) 6_554 . ?
C17 C18 N1 124.2(16) 6_554 . ?
O1 C1 O2 126.5(5) . . ?
O1 C1 C2 115.4(5) . . ?
O2 C1 C2 118.0(6) . . ?
C3 C2 C7 118.7(6) . . ?
C3 C2 C1 120.2(6) . . ?
C7 C2 C1 120.5(6) . . ?
O3 C8 O4 127.7(5) . . ?
O3 C8 C9 118.2(5) . . ?
O4 C8 C9 113.7(5) . . ?
C16 N1 C18 107.5(10) . . ?
C16 N1 C17 104.0(10) . . ?
C18 N1 C17 98.9(8) . . ?
C16 N1 Zn1 114.2(5) . . ?
C18 N1 Zn1 119.3(10) . . ?
C17 N1 Zn1 111.0(6) . . ?
C1 O1 Zn1 129.0(4) . . ?
C1 O2 Zn1 124.5(4) . 9_657 ?
C8 O3 Zn1 120.7(3) . 16_657 ?
C8 O4 Zn1 131.3(4) . 4_554 ?
O2 Zn1 O1 159.52(16) 9_657 . ?
O2 Zn1 O3 87.94(16) 9_657 11_667 ?
O1 Zn1 O3 87.61(15) . 11_667 ?
O2 Zn1 O4 86.70(15) 9_657 3_545 ?
O1 Zn1 O4 90.48(16) . 3_545 ?
O3 Zn1 O4 159.35(15) 11_667 3_545 ?
O2 Zn1 N1 101.05(14) 9_657 . ?
O1 Zn1 N1 99.42(14) . . ?
O3 Zn1 N1 101.31(14) 11_667 . ?
O4 Zn1 N1 99.29(14) 3_545 . ?
O2 Zn1 Zn1 81.08(12) 9_657 9_657 ?
O1 Zn1 Zn1 78.58(11) . 9_657 ?
O3 Zn1 Zn1 84.23(11) 11_667 9_657 ?
O4 Zn1 Zn1 75.24(11) 3_545 9_657 ?
N1 Zn1 Zn1 174.08(10) . 9_657 ?

#=============================================================================#
# End of CIF
#=============================================================================#


