####################################################################### 
# 
# This file contains crystal structure data downloaded from the 
# Cambridge Structural Database (CSD) hosted by the Cambridge 
# Crystallographic Data Centre (CCDC).
# 
# Full information about CCDC data access policies and citation 
# guidelines are available at http://www.ccdc.cam.ac.uk/access/V1 
# 
# Audit and citation data items may have been added by the CCDC. 
# Please retain this information to preserve the provenance of 
# this file and to allow appropriate attribution of the data. 
# 
#######################################################################

data_complex6
_audit_block_doi                 10.5517/ccqszl1
_database_code_depnum_ccdc_archive 'CCDC 679414'
loop_
_citation_id
_citation_doi
_citation_year
1 10.1002/chem.200800430 2008
_audit_update_record             
;
2008-02-26 deposited with the CCDC.	2024-07-12 downloaded from the CCDC.
;

_audit_creation_method           SHELXL-97
_chemical_name_systematic        
;
?
;
_chemical_name_common            ?
_chemical_melting_point          ?
_chemical_formula_moiety         ?
_chemical_formula_sum            'C32 H44 Cd2 N4 O22'
_chemical_formula_weight         1061.51

loop_
_atom_type_symbol
_atom_type_description
_atom_type_scat_dispersion_real
_atom_type_scat_dispersion_imag
_atom_type_scat_source
C C 0.0033 0.0016 'International Tables Vol C Tables 4.2.6.8 and 6.1.1.4'
H H 0.0000 0.0000 'International Tables Vol C Tables 4.2.6.8 and 6.1.1.4'
N N 0.0061 0.0033 'International Tables Vol C Tables 4.2.6.8 and 6.1.1.4'
O O 0.0106 0.0060 'International Tables Vol C Tables 4.2.6.8 and 6.1.1.4'
Cd Cd -0.8075 1.2024 'International Tables Vol C Tables 4.2.6.8 and 6.1.1.4'

_symmetry_cell_setting           orthorhombic
_symmetry_space_group_name_H-M   Fdd2

loop_
_symmetry_equiv_pos_as_xyz
'x, y, z'
'-x, -y, z'
'x+1/4, -y+1/4, z+1/4'
'-x+1/4, y+1/4, z+1/4'
'x, y+1/2, z+1/2'
'-x, -y+1/2, z+1/2'
'x+1/4, -y+3/4, z+3/4'
'-x+1/4, y+3/4, z+3/4'
'x+1/2, y, z+1/2'
'-x+1/2, -y, z+1/2'
'x+3/4, -y+1/4, z+3/4'
'-x+3/4, y+1/4, z+3/4'
'x+1/2, y+1/2, z'
'-x+1/2, -y+1/2, z'
'x+3/4, -y+3/4, z+1/4'
'-x+3/4, y+3/4, z+1/4'

_cell_length_a                   15.918(2)
_cell_length_b                   50.471(7)
_cell_length_c                   10.1138(12)
_cell_angle_alpha                90.00
_cell_angle_beta                 90.00
_cell_angle_gamma                90.00
_cell_volume                     8125.4(19)
_cell_formula_units_Z            8
_cell_measurement_temperature    293(2)
_cell_measurement_reflns_used    ?
_cell_measurement_theta_min      ?
_cell_measurement_theta_max      ?

_exptl_crystal_description       ?
_exptl_crystal_colour            ?
_exptl_crystal_size_max          0.10
_exptl_crystal_size_mid          0.08
_exptl_crystal_size_min          0.04
_exptl_crystal_density_meas      ?
_exptl_crystal_density_diffrn    1.735
_exptl_crystal_density_method    'not measured'
_exptl_crystal_F_000             4288
_exptl_absorpt_coefficient_mu    1.137
_exptl_absorpt_correction_type   multi-scan
_exptl_absorpt_correction_T_min  0.8987
_exptl_absorpt_correction_T_max  0.9602
_exptl_absorpt_process_details   'SADABS (Bruker, 2002)'

_diffrn_ambient_temperature      293(2)
_diffrn_radiation_wavelength     0.71073
_diffrn_radiation_type           MoK\a
_diffrn_radiation_source         'fine-focus sealed tube'
_diffrn_radiation_monochromator  graphite
_diffrn_measurement_device_type  'CCD area detector'
_diffrn_measurement_method       'phi and omega scans'
_diffrn_detector_area_resol_mean ?
_diffrn_standards_number         ?
_diffrn_standards_interval_count ?
_diffrn_standards_interval_time  ?
_diffrn_standards_decay_%        ?
_diffrn_reflns_number            5857
_diffrn_reflns_av_R_equivalents  0.0444
_diffrn_reflns_av_sigmaI/netI    0.0792
_diffrn_reflns_limit_h_min       -19
_diffrn_reflns_limit_h_max       19
_diffrn_reflns_limit_k_min       -15
_diffrn_reflns_limit_k_max       62
_diffrn_reflns_limit_l_min       -11
_diffrn_reflns_limit_l_max       8
_diffrn_reflns_theta_min         2.42
_diffrn_reflns_theta_max         26.00
_reflns_number_total             3271
_reflns_number_gt                2928
_reflns_threshold_expression     >2sigma(I)

_computing_data_collection       'SMART, 1998.'
_computing_cell_refinement       'SAINT-PLUS, Ver. 6.0, 1997'
_computing_data_reduction        'SAINT-PLUS, Ver. 6.0, 1997'
_computing_structure_solution    'SHELXS-97 (Sheldrick, 1990)'
_computing_structure_refinement  'SHELXL-97 (Sheldrick, 1997)'
_computing_molecular_graphics    'XP, Ver. 6.10, Bruker AXS Inc., 2000'
_computing_publication_material  'SHELXTL-Bruker AXS Inc., 1998'

_refine_special_details          
;
Refinement of F^2^ against ALL reflections. The weighted R-factor wR and
goodness of fit S are based on F^2^, conventional R-factors R are based
on F, with F set to zero for negative F^2^. The threshold expression of
F^2^ > 2sigma(F^2^) is used only for calculating R-factors(gt) etc. and is
not relevant to the choice of reflections for refinement. R-factors based
on F^2^ are statistically about twice as large as those based on F, and R-
factors based on ALL data will be even larger.
;

_refine_ls_structure_factor_coef Fsqd
_refine_ls_matrix_type           full
_refine_ls_weighting_scheme      calc
_refine_ls_weighting_details     
'calc w=1/[\s^2^(Fo^2^)+(0.0276P)^2^+0.0000P] where P=(Fo^2^+2Fc^2^)/3'
_atom_sites_solution_primary     direct
_atom_sites_solution_secondary   difmap
_atom_sites_solution_hydrogens   geom
_refine_ls_hydrogen_treatment    mixed
_refine_ls_extinction_method     none
_refine_ls_extinction_coef       ?
_refine_ls_abs_structure_details 'Flack H D (1983), Acta Cryst. A39, 876-881'
_refine_ls_abs_structure_Flack   0.00
_refine_ls_number_reflns         3271
_refine_ls_number_parameters     271
_refine_ls_number_restraints     14
_refine_ls_R_factor_all          0.0543
_refine_ls_R_factor_gt           0.0458
_refine_ls_wR_factor_ref         0.0937
_refine_ls_wR_factor_gt          0.0903
_refine_ls_goodness_of_fit_ref   1.039
_refine_ls_restrained_S_all      1.041
_refine_ls_shift/su_max          0.001
_refine_ls_shift/su_mean         0.000

loop_
_atom_site_label
_atom_site_type_symbol
_atom_site_fract_x
_atom_site_fract_y
_atom_site_fract_z
_atom_site_U_iso_or_equiv
_atom_site_adp_type
_atom_site_occupancy
_atom_site_symmetry_multiplicity
_atom_site_calc_flag
_atom_site_refinement_flags
_atom_site_disorder_assembly
_atom_site_disorder_group
Cd1 Cd 0.10256(3) 0.233587(9) 0.75475(9) 0.02315(14) Uani 1 1 d . . .
O1 O 0.1631(4) 0.25918(11) 0.9098(6) 0.0397(16) Uani 1 1 d . . .
O2 O 0.1271(3) 0.22226(11) 1.0120(11) 0.0405(14) Uani 1 1 d . . .
O3 O 0.0511(3) 0.27961(10) 1.2260(7) 0.0490(18) Uani 1 1 d . . .
O4 O 0.0126(3) 0.24131(11) 1.2930(7) 0.053(2) Uani 1 1 d . . .
O5 O 0.1317(4) 0.22590(11) 1.5207(11) 0.0488(19) Uani 1 1 d . . .
O6 O 0.1560(5) 0.26557(12) 1.6020(6) 0.0454(17) Uani 1 1 d . . .
N1 N 0.1438(3) 0.19040(10) 0.7529(8) 0.0313(14) Uani 1 1 d . . .
N2 N 0.2543(5) 0.05773(13) 0.6547(8) 0.049(2) Uani 1 1 d D . .
H2N H 0.2671 0.0416 0.6371 0.059 Uiso 1 1 calc RD . .
C1 C 0.2039(5) 0.25496(15) 1.1353(8) 0.0221(18) Uani 1 1 d . . .
H1 H 0.2046 0.2744 1.1310 0.027 Uiso 1 1 calc R . .
C2 C 0.1585(3) 0.24672(12) 1.2630(9) 0.0204(14) Uani 1 1 d . . .
H2 H 0.1565 0.2273 1.2657 0.025 Uiso 1 1 calc R . .
C3 C 0.2057(4) 0.25617(14) 1.3841(7) 0.0175(16) Uani 1 1 d . . .
H3 H 0.2113 0.2755 1.3794 0.021 Uiso 1 1 calc R . .
C4 C 0.1610(4) 0.24471(13) 1.0129(15) 0.0267(19) Uani 1 1 d . . .
C5 C 0.0687(4) 0.25690(13) 1.2592(10) 0.0252(15) Uani 1 1 d . . .
C6 C 0.1608(4) 0.24903(13) 1.5123(15) 0.0238(18) Uani 1 1 d . . .
C7 C 0.2404(5) 0.15772(14) 0.6768(9) 0.041(2) Uani 1 1 d . . .
H7 H 0.2913 0.1539 0.6357 0.050 Uiso 1 1 calc R . .
C8 C 0.2152(5) 0.18358(15) 0.6918(9) 0.041(2) Uani 1 1 d . . .
H8 H 0.2492 0.1969 0.6579 0.049 Uiso 1 1 calc R . .
C9 C 0.0965(5) 0.17104(15) 0.7994(8) 0.042(2) Uani 1 1 d . . .
H9 H 0.0466 0.1755 0.8420 0.050 Uiso 1 1 calc R . .
C10 C 0.1173(5) 0.14440(15) 0.7881(9) 0.041(3) Uani 1 1 d . . .
H10 H 0.0826 0.1315 0.8242 0.049 Uiso 1 1 calc R . .
C11 C 0.1896(5) 0.13739(14) 0.7233(8) 0.035(2) Uani 1 1 d . . .
C12 C 0.2138(5) 0.10897(14) 0.7028(8) 0.033(2) Uani 1 1 d . . .
C13 C 0.1519(5) 0.08983(17) 0.6914(9) 0.044(2) Uani 1 1 d . . .
H13 H 0.0956 0.0945 0.6993 0.053 Uiso 1 1 calc R . .
C14 C 0.1736(6) 0.06417(16) 0.6686(10) 0.048(2) Uani 1 1 d . . .
H14 H 0.1323 0.0512 0.6627 0.057 Uiso 1 1 calc R . .
C15 C 0.3159(6) 0.07539(17) 0.6671(10) 0.049(2) Uani 1 1 d . . .
H15 H 0.3716 0.0700 0.6604 0.059 Uiso 1 1 calc R . .
C16 C 0.2970(5) 0.10158(15) 0.6898(9) 0.042(2) Uani 1 1 d . . .
H16 H 0.3395 0.1141 0.6964 0.050 Uiso 1 1 calc R . .
O1W O 0.1344(5) 0.12429(13) 0.1305(7) 0.071(2) Uani 1 1 d D . .
H1WA H 0.1640 0.1129 0.0898 0.085 Uiso 1 1 d RD . .
H1WB H 0.1270 0.1199 0.2108 0.085 Uiso 1 1 d RD . .
O2W O -0.0289(4) 0.19528(13) 0.0681(7) 0.076(3) Uani 1 1 d . . .
H2WA H -0.0700 0.2025 0.1081 0.091 Uiso 1 1 d R . .
H2WB H 0.0201 0.2016 0.0792 0.091 Uiso 1 1 d R . .
O3W O -0.0349(4) 0.14175(12) 0.1116(6) 0.062(2) Uani 1 1 d D . .
H3WA H -0.0383 0.1319 0.0435 0.074 Uiso 1 1 d RD . .
H3WB H -0.0099 0.1561 0.0922 0.074 Uiso 1 1 d RD . .
O4W O -0.1518(4) 0.17375(14) 0.7636(10) 0.102(3) Uani 1 1 d D . .
H4WA H -0.1226 0.1878 0.7577 0.123 Uiso 1 1 d RD . .
H4WB H -0.1919 0.1742 0.7081 0.123 Uiso 1 1 d RD . .
O5W O -0.2900(5) 0.17490(15) 0.5999(9) 0.107(3) Uani 1 1 d D . .
H5WA H -0.3151 0.1890 0.5757 0.128 Uiso 1 1 d RD . .
H5WB H -0.3072 0.1596 0.5773 0.128 Uiso 1 1 d RD . .

loop_
_atom_site_aniso_label
_atom_site_aniso_U_11
_atom_site_aniso_U_22
_atom_site_aniso_U_33
_atom_site_aniso_U_23
_atom_site_aniso_U_13
_atom_site_aniso_U_12
Cd1 0.0219(2) 0.0252(2) 0.0224(3) -0.0011(3) 0.0011(3) 0.0044(2)
O1 0.056(5) 0.040(3) 0.023(4) 0.000(3) -0.014(3) 0.005(3)
O2 0.046(3) 0.043(3) 0.033(4) -0.014(4) -0.004(5) -0.014(3)
O3 0.027(3) 0.038(3) 0.083(6) 0.013(3) 0.000(3) 0.006(2)
O4 0.020(2) 0.051(4) 0.088(7) 0.027(3) 0.003(3) 0.000(2)
O5 0.056(4) 0.041(3) 0.050(6) -0.005(4) 0.013(5) -0.015(3)
O6 0.047(4) 0.060(4) 0.029(4) -0.014(3) 0.013(3) -0.009(3)
N1 0.032(3) 0.028(3) 0.034(4) 0.003(3) 0.003(4) 0.001(2)
N2 0.067(5) 0.023(4) 0.057(6) -0.003(3) -0.004(5) 0.011(4)
C1 0.024(4) 0.027(4) 0.015(5) -0.001(3) -0.005(4) 0.002(3)
C2 0.018(3) 0.025(3) 0.018(4) -0.007(4) 0.002(4) 0.002(2)
C3 0.018(4) 0.024(4) 0.011(5) -0.001(3) -0.005(3) -0.002(3)
C4 0.017(4) 0.039(4) 0.024(6) 0.007(5) 0.011(6) 0.009(3)
C5 0.016(3) 0.036(4) 0.024(5) 0.004(4) -0.005(4) -0.003(3)
C6 0.015(3) 0.035(4) 0.021(5) 0.006(6) 0.005(5) 0.005(3)
C7 0.032(4) 0.025(4) 0.067(7) -0.001(4) 0.011(4) 0.005(3)
C8 0.037(4) 0.025(4) 0.060(7) 0.006(4) 0.005(4) 0.000(3)
C9 0.046(5) 0.034(4) 0.045(7) 0.000(4) 0.008(4) 0.007(4)
C10 0.048(5) 0.028(4) 0.047(8) 0.003(4) 0.010(4) -0.002(3)
C11 0.037(4) 0.028(4) 0.042(7) -0.007(3) -0.001(4) 0.006(3)
C12 0.041(4) 0.024(4) 0.033(6) -0.002(3) -0.002(4) 0.000(3)
C13 0.039(5) 0.037(5) 0.057(7) 0.000(4) 0.008(4) 0.000(4)
C14 0.060(6) 0.025(4) 0.059(7) -0.008(4) 0.000(5) -0.011(4)
C15 0.049(5) 0.036(5) 0.063(7) 0.004(4) 0.000(5) 0.012(4)
C16 0.044(5) 0.025(4) 0.056(7) 0.003(4) -0.008(4) -0.001(4)
O1W 0.092(5) 0.053(4) 0.068(6) 0.004(4) -0.010(4) 0.007(4)
O2W 0.053(4) 0.055(4) 0.119(8) -0.013(4) 0.009(4) -0.001(3)
O3W 0.072(4) 0.054(4) 0.060(5) -0.002(4) -0.001(4) -0.018(4)
O4W 0.110(6) 0.066(5) 0.131(8) 0.031(6) -0.052(8) -0.025(4)
O5W 0.090(6) 0.059(5) 0.171(9) 0.031(5) -0.062(6) -0.008(4)

_geom_special_details            
;
All esds (except the esd in the dihedral angle between two l.s. planes)
are estimated using the full covariance matrix. The cell esds are taken
into account individually in the estimation of esds in distances, angles
and torsion angles; correlations between esds in cell parameters are only
used when they are defined by crystal symmetry. An approximate (isotropic)
treatment of cell esds is used for estimating esds involving l.s. planes.
;

loop_
_geom_bond_atom_site_label_1
_geom_bond_atom_site_label_2
_geom_bond_distance
_geom_bond_site_symmetry_2
_geom_bond_publ_flag
Cd1 O1 2.248(6) . ?
Cd1 O4 2.262(5) 6_554 ?
Cd1 N1 2.277(5) . ?
Cd1 O6 2.391(6) 1_554 ?
Cd1 O5 2.443(11) 1_554 ?
Cd1 O3 2.551(5) 6_554 ?
Cd1 C6 2.735(14) 1_554 ?
O1 C4 1.274(14) . ?
O2 C4 1.255(9) . ?
O3 C5 1.227(8) . ?
O3 Cd1 2.551(5) 6 ?
O4 C5 1.238(8) . ?
O4 Cd1 2.262(5) 6 ?
O5 C6 1.260(8) . ?
O5 Cd1 2.443(11) 1_556 ?
O6 C6 1.235(13) . ?
O6 Cd1 2.391(6) 1_556 ?
N1 C9 1.320(9) . ?
N1 C8 1.338(9) . ?
N2 C15 1.330(11) . ?
N2 C14 1.333(11) . ?
N2 H2N 0.8600 . ?
C1 C4 1.505(16) . ?
C1 C2 1.538(11) . ?
C1 C1 1.550(15) 14 ?
C1 H1 0.9800 . ?
C2 C3 1.514(10) . ?
C2 C5 1.519(7) . ?
C2 H2 0.9800 . ?
C3 C6 1.523(16) . ?
C3 C3 1.541(14) 14 ?
C3 H3 0.9800 . ?
C6 Cd1 2.735(14) 1_556 ?
C7 C8 1.374(10) . ?
C7 C11 1.390(10) . ?
C7 H7 0.9300 . ?
C8 H8 0.9300 . ?
C9 C10 1.389(10) . ?
C9 H9 0.9300 . ?
C10 C11 1.370(11) . ?
C10 H10 0.9300 . ?
C11 C12 1.500(10) . ?
C12 C16 1.382(11) . ?
C12 C13 1.385(11) . ?
C13 C14 1.360(11) . ?
C13 H13 0.9300 . ?
C14 H14 0.9300 . ?
C15 C16 1.375(11) . ?
C15 H15 0.9300 . ?
C16 H16 0.9300 . ?
O1W H1WA 0.8502 . ?
O1W H1WB 0.8501 . ?
O2W H2WA 0.8501 . ?
O2W H2WB 0.8500 . ?
O3W H3WA 0.8502 . ?
O3W H3WB 0.8500 . ?
O4W H4WA 0.8499 . ?
O4W H4WB 0.8501 . ?
O5W H5WA 0.8500 . ?
O5W H5WB 0.8500 . ?

loop_
_geom_angle_atom_site_label_1
_geom_angle_atom_site_label_2
_geom_angle_atom_site_label_3
_geom_angle
_geom_angle_site_symmetry_1
_geom_angle_site_symmetry_3
_geom_angle_publ_flag
O1 Cd1 O4 84.6(2) . 6_554 ?
O1 Cd1 N1 115.6(2) . . ?
O4 Cd1 N1 140.49(19) 6_554 . ?
O1 Cd1 O6 84.9(2) . 1_554 ?
O4 Cd1 O6 91.2(2) 6_554 1_554 ?
N1 Cd1 O6 122.6(2) . 1_554 ?
O1 Cd1 O5 133.3(2) . 1_554 ?
O4 Cd1 O5 114.1(3) 6_554 1_554 ?
N1 Cd1 O5 77.6(2) . 1_554 ?
O6 Cd1 O5 54.10(19) 1_554 1_554 ?
O1 Cd1 O3 129.8(2) . 6_554 ?
O4 Cd1 O3 52.32(18) 6_554 6_554 ?
N1 Cd1 O3 91.47(18) . 6_554 ?
O6 Cd1 O3 116.3(2) 1_554 6_554 ?
O5 Cd1 O3 91.7(2) 1_554 6_554 ?
O1 Cd1 C6 108.4(3) . 1_554 ?
O4 Cd1 C6 105.6(2) 6_554 1_554 ?
N1 Cd1 C6 99.7(2) . 1_554 ?
O6 Cd1 C6 26.8(2) 1_554 1_554 ?
O5 Cd1 C6 27.4(2) 1_554 1_554 ?
O3 Cd1 C6 107.3(2) 6_554 1_554 ?
C4 O1 Cd1 103.3(6) . . ?
C5 O3 Cd1 86.8(4) . 6 ?
C5 O4 Cd1 100.5(4) . 6 ?
C6 O5 Cd1 89.3(9) . 1_556 ?
C6 O6 Cd1 92.3(6) . 1_556 ?
C9 N1 C8 117.3(6) . . ?
C9 N1 Cd1 122.8(5) . . ?
C8 N1 Cd1 119.7(5) . . ?
C15 N2 C14 122.4(7) . . ?
C15 N2 H2N 118.8 . . ?
C14 N2 H2N 118.8 . . ?
C4 C1 C2 112.6(7) . . ?
C4 C1 C1 108.6(5) . 14 ?
C2 C1 C1 111.0(4) . 14 ?
C4 C1 H1 108.2 . . ?
C2 C1 H1 108.2 . . ?
C1 C1 H1 108.2 14 . ?
C3 C2 C5 112.4(6) . . ?
C3 C2 C1 111.1(5) . . ?
C5 C2 C1 109.3(6) . . ?
C3 C2 H2 108.0 . . ?
C5 C2 H2 108.0 . . ?
C1 C2 H2 108.0 . . ?
C2 C3 C6 112.4(6) . . ?
C2 C3 C3 109.1(5) . 14 ?
C6 C3 C3 109.5(5) . 14 ?
C2 C3 H3 108.6 . . ?
C6 C3 H3 108.6 . . ?
C3 C3 H3 108.6 14 . ?
O2 C4 O1 121.5(13) . . ?
O2 C4 C1 120.8(12) . . ?
O1 C4 C1 117.7(7) . . ?
O3 C5 O4 120.3(6) . . ?
O3 C5 C2 122.6(5) . . ?
O4 C5 C2 117.2(6) . . ?
O6 C6 O5 123.6(13) . . ?
O6 C6 C3 119.7(7) . . ?
O5 C6 C3 116.7(11) . . ?
O6 C6 Cd1 60.8(7) . 1_556 ?
O5 C6 Cd1 63.3(8) . 1_556 ?
C3 C6 Cd1 171.6(5) . 1_556 ?
C8 C7 C11 119.5(7) . . ?
C8 C7 H7 120.2 . . ?
C11 C7 H7 120.2 . . ?
N1 C8 C7 122.9(7) . . ?
N1 C8 H8 118.5 . . ?
C7 C8 H8 118.5 . . ?
N1 C9 C10 123.4(7) . . ?
N1 C9 H9 118.3 . . ?
C10 C9 H9 118.3 . . ?
C11 C10 C9 119.3(7) . . ?
C11 C10 H10 120.3 . . ?
C9 C10 H10 120.3 . . ?
C10 C11 C7 117.4(7) . . ?
C10 C11 C12 122.0(7) . . ?
C7 C11 C12 120.6(7) . . ?
C16 C12 C13 119.1(7) . . ?
C16 C12 C11 121.2(7) . . ?
C13 C12 C11 119.7(7) . . ?
C14 C13 C12 119.8(8) . . ?
C14 C13 H13 120.1 . . ?
C12 C13 H13 120.1 . . ?
N2 C14 C13 119.7(8) . . ?
N2 C14 H14 120.2 . . ?
C13 C14 H14 120.2 . . ?
N2 C15 C16 119.9(8) . . ?
N2 C15 H15 120.0 . . ?
C16 C15 H15 120.0 . . ?
C15 C16 C12 119.0(8) . . ?
C15 C16 H16 120.5 . . ?
C12 C16 H16 120.5 . . ?
H1WA O1W H1WB 111.2 . . ?
H2WA O2W H2WB 118.8 . . ?
H3WA O3W H3WB 109.8 . . ?
H4WA O4W H4WB 110.2 . . ?
H5WA O5W H5WB 121.9 . . ?

loop_
_geom_hbond_atom_site_label_D
_geom_hbond_atom_site_label_H
_geom_hbond_atom_site_label_A
_geom_hbond_distance_DH
_geom_hbond_distance_HA
_geom_hbond_distance_DA
_geom_hbond_angle_DHA
_geom_hbond_site_symmetry_A
N2 H2N O4 0.86 1.91 2.724(9) 156.5 3_554
O1W H1WA O4W 0.85 2.26 2.759(10) 117.4 3_554
O1W H1WB O3W 0.85 2.15 2.787(9) 131.2 3
O2W H2WA O6 0.85 2.12 2.848(10) 144.0 6_553
O2W H2WB O2 0.85 2.11 2.888(9) 152.2 1_554
O3W H3WA O1W 0.85 2.08 2.787(9) 140.0 11_454
O3W H3WB O2W 0.85 2.02 2.739(9) 142.5 .
O4W H4WA O3 0.85 2.03 2.874(9) 174.6 6_554
O4W H4WB O5W 0.85 1.91 2.753(11) 173.7 .
O5W H5WA O2 0.85 2.02 2.871(10) 178.0 9_454
O5W H5WB O1W 0.85 2.08 2.841(10) 148.4 9_455

_diffrn_measured_fraction_theta_max 0.940
_diffrn_reflns_theta_full        26.00
_diffrn_measured_fraction_theta_full 0.940
_refine_diff_density_max         1.054
_refine_diff_density_min         -0.522
_refine_diff_density_rms         0.114
