####################################################################### 
# 
# This file contains crystal structure data downloaded from the 
# Cambridge Structural Database (CSD) hosted by the Cambridge 
# Crystallographic Data Centre (CCDC).
# 
# Full information about CCDC data access policies and citation 
# guidelines are available at http://www.ccdc.cam.ac.uk/access/V1 
# 
# Audit and citation data items may have been added by the CCDC. 
# Please retain this information to preserve the provenance of 
# this file and to allow appropriate attribution of the data. 
# 
#######################################################################

data_complex4
_audit_block_doi                 10.5517/ccqszjz
_database_code_depnum_ccdc_archive 'CCDC 679412'
loop_
_citation_id
_citation_doi
_citation_year
1 10.1002/chem.200800430 2008
_audit_update_record             
;
2008-02-26 deposited with the CCDC.	2024-07-12 downloaded from the CCDC.
;

_audit_creation_method           SHELXL-97
_chemical_name_systematic        
;
?
;
_chemical_name_common            ?
_chemical_melting_point          ?
_chemical_formula_moiety         ?
_chemical_formula_sum            'C42 H43 Cd3 N6 O18.50'
_chemical_formula_weight         1265.02

loop_
_atom_type_symbol
_atom_type_description
_atom_type_scat_dispersion_real
_atom_type_scat_dispersion_imag
_atom_type_scat_source
C C 0.0033 0.0016 'International Tables Vol C Tables 4.2.6.8 and 6.1.1.4'
H H 0.0000 0.0000 'International Tables Vol C Tables 4.2.6.8 and 6.1.1.4'
N N 0.0061 0.0033 'International Tables Vol C Tables 4.2.6.8 and 6.1.1.4'
O O 0.0106 0.0060 'International Tables Vol C Tables 4.2.6.8 and 6.1.1.4'
Cd Cd -0.8075 1.2024 'International Tables Vol C Tables 4.2.6.8 and 6.1.1.4'

_symmetry_cell_setting           Triclinic
_symmetry_space_group_name_H-M   P-1

loop_
_symmetry_equiv_pos_as_xyz
'x, y, z'
'-x, -y, -z'

_cell_length_a                   11.6554(13)
_cell_length_b                   13.7508(15)
_cell_length_c                   16.8522(19)
_cell_angle_alpha                73.634(2)
_cell_angle_beta                 76.216(3)
_cell_angle_gamma                85.141(3)
_cell_volume                     2516.4(5)
_cell_formula_units_Z            2
_cell_measurement_temperature    293(2)
_cell_measurement_reflns_used    ?
_cell_measurement_theta_min      ?
_cell_measurement_theta_max      ?

_exptl_crystal_description       ?
_exptl_crystal_colour            ?
_exptl_crystal_size_max          0.05
_exptl_crystal_size_mid          0.05
_exptl_crystal_size_min          0.04
_exptl_crystal_density_meas      ?
_exptl_crystal_density_diffrn    1.670
_exptl_crystal_density_method    'not measured'
_exptl_crystal_F_000             1258
_exptl_absorpt_coefficient_mu    1.333
_exptl_absorpt_correction_type   multi-scan
_exptl_absorpt_correction_T_min  0.9339
_exptl_absorpt_correction_T_max  0.9499
_exptl_absorpt_process_details   'SADABS (Bruker, 2002)'

_diffrn_ambient_temperature      293(2)
_diffrn_radiation_wavelength     0.71073
_diffrn_radiation_type           MoK\a
_diffrn_radiation_source         'fine-focus sealed tube'
_diffrn_radiation_monochromator  graphite
_diffrn_measurement_device_type  'CCD area detector'
_diffrn_measurement_method       'phi and omega scans'
_diffrn_detector_area_resol_mean ?
_diffrn_standards_number         ?
_diffrn_standards_interval_count ?
_diffrn_standards_interval_time  ?
_diffrn_standards_decay_%        ?
_diffrn_reflns_number            12187
_diffrn_reflns_av_R_equivalents  0.0579
_diffrn_reflns_av_sigmaI/netI    0.1954
_diffrn_reflns_limit_h_min       -14
_diffrn_reflns_limit_h_max       9
_diffrn_reflns_limit_k_min       -16
_diffrn_reflns_limit_k_max       15
_diffrn_reflns_limit_l_min       -20
_diffrn_reflns_limit_l_max       17
_diffrn_reflns_theta_min         1.97
_diffrn_reflns_theta_max         26.00
_reflns_number_total             9270
_reflns_number_gt                4258
_reflns_threshold_expression     >2sigma(I)

_computing_data_collection       'SMART, 1998'
_computing_cell_refinement       'SAINT-PLUS, Ver. 6.0, 1997'
_computing_data_reduction        'SAINT-PLUS, Ver. 6.0, 1997'
_computing_structure_solution    'SHELXS-97 (Sheldrick, 1990)'
_computing_structure_refinement  'SHELXL-97 (Sheldrick, 1997)'
_computing_molecular_graphics    'XP, Ver. 6.10, Bruker AXS Inc., 2000'
_computing_publication_material  'SHELXTL-Bruker AXS Inc., 1998'

_refine_special_details          
;
Refinement of F^2^ against ALL reflections. The weighted R-factor wR and
goodness of fit S are based on F^2^, conventional R-factors R are based
on F, with F set to zero for negative F^2^. The threshold expression of
F^2^ > 2sigma(F^2^) is used only for calculating R-factors(gt) etc. and is
not relevant to the choice of reflections for refinement. R-factors based
on F^2^ are statistically about twice as large as those based on F, and R-
factors based on ALL data will be even larger.
;

_refine_ls_structure_factor_coef Fsqd
_refine_ls_matrix_type           full
_refine_ls_weighting_scheme      calc
_refine_ls_weighting_details     
'calc w=1/[\s^2^(Fo^2^)+(0.1004P)^2^+0.0000P] where P=(Fo^2^+2Fc^2^)/3'
_atom_sites_solution_primary     direct
_atom_sites_solution_secondary   difmap
_atom_sites_solution_hydrogens   geom
_refine_ls_hydrogen_treatment    constr
_refine_ls_extinction_method     none
_refine_ls_extinction_coef       ?
_refine_ls_number_reflns         9270
_refine_ls_number_parameters     571
_refine_ls_number_restraints     61
_refine_ls_R_factor_all          0.1891
_refine_ls_R_factor_gt           0.0854
_refine_ls_wR_factor_ref         0.2384
_refine_ls_wR_factor_gt          0.1859
_refine_ls_goodness_of_fit_ref   0.970
_refine_ls_restrained_S_all      0.969
_refine_ls_shift/su_max          0.000
_refine_ls_shift/su_mean         0.000

loop_
_atom_site_label
_atom_site_type_symbol
_atom_site_fract_x
_atom_site_fract_y
_atom_site_fract_z
_atom_site_U_iso_or_equiv
_atom_site_adp_type
_atom_site_occupancy
_atom_site_symmetry_multiplicity
_atom_site_calc_flag
_atom_site_refinement_flags
_atom_site_disorder_assembly
_atom_site_disorder_group
Cd1 Cd 1.20984(9) 0.01991(8) -0.05468(6) 0.0382(3) Uani 1 1 d . . .
Cd2 Cd 0.78107(10) 0.46181(9) -0.44910(7) 0.0483(4) Uani 1 1 d D . .
Cd3 Cd 0.81171(9) 0.42559(8) 0.08899(6) 0.0356(3) Uani 1 1 d D . .
O1W O 1.1071(10) 0.1297(8) 0.0252(7) 0.073(3) Uani 1 1 d D . .
H1WA H 1.0362 0.1359 0.0193 0.087 Uiso 1 1 d RD . .
H1WB H 1.1060 0.1053 0.0777 0.087 Uiso 1 1 d RD . .
O2W O 0.8780(2) 0.60319(17) -0.44145(13) 0.067(3) Uani 1 1 d D . .
H2WA H 0.8383 0.6579 -0.4463 0.081 Uiso 1 1 d RD . .
H2WB H 0.9117 0.5919 -0.4004 0.081 Uiso 1 1 d RD . .
O3W O 0.8255(2) 0.58115(17) -0.01409(13) 0.048(3) Uani 1 1 d RD . .
H3WA H 0.8491 0.6320 -0.0032 0.058 Uiso 1 1 d RD . .
H3WB H 0.8552 0.5823 -0.0655 0.058 Uiso 1 1 d RD . .
O1 O 1.0837(2) 0.08644(17) -0.13264(13) 0.053(3) Uani 1 1 d R . .
O2 O 1.1836(2) 0.14607(17) -0.26365(13) 0.078(4) Uani 1 1 d R . .
O3 O 0.8286(2) 0.38578(17) -0.30884(13) 0.057(3) Uani 1 1 d R . .
O4 O 0.9344(2) 0.35263(17) -0.42333(13) 0.056(3) Uani 1 1 d R . .
O5 O 1.1851(2) 0.45186(17) -0.41868(13) 0.056(3) Uani 1 1 d R . .
O6 O 1.0642(2) 0.55545(17) -0.35570(13) 0.061(3) Uani 1 1 d R . .
O7 O 1.0206(2) 0.55446(17) -0.15040(13) 0.053(3) Uani 1 1 d R . .
O8 O 1.1797(2) 0.46396(17) -0.17330(13) 0.050(3) Uani 1 1 d R . .
O9 O 0.9594(2) 0.35403(17) 0.00663(13) 0.039(2) Uani 1 1 d R . .
O10 O 0.7982(2) 0.36629(17) -0.04073(13) 0.042(2) Uani 1 1 d R . .
O11 O 0.8842(2) 0.13516(17) -0.00358(13) 0.036(2) Uani 1 1 d R . .
O12 O 0.8089(2) 0.08190(17) -0.09169(13) 0.044(3) Uani 1 1 d R . .
N1 N 1.3916(2) -0.06626(17) -0.07670(13) 0.042(3) Uani 1 1 d R . .
N2 N 1.3613(2) 0.13515(17) -0.11087(13) 0.046(3) Uani 1 1 d R . .
N3 N 0.6334(2) 0.34430(17) -0.40699(13) 0.052(3) Uani 1 1 d R . .
N4 N 0.5995(2) 0.54268(17) -0.42370(13) 0.049(3) Uani 1 1 d R . .
N5 N 0.7418(2) 0.27324(17) 0.18270(13) 0.047(3) Uani 1 1 d R . .
N6 N 0.6026(2) 0.42824(17) 0.12431(13) 0.038(3) Uani 1 1 d R . .
C1 C 0.9845(2) 0.20857(17) -0.22658(13) 0.032(3) Uani 1 1 d R . .
H1 H 0.9346 0.1662 -0.2420 0.039 Uiso 1 1 calc R . .
C2 C 1.0190(12) 0.3002(10) -0.3040(7) 0.032(3) Uani 1 1 d . . .
H2 H 1.0793 0.2764 -0.3462 0.038 Uiso 1 1 calc R . .
C3 C 1.0783(12) 0.3830(9) -0.2784(8) 0.036(3) Uani 1 1 d . . .
H3 H 1.1525 0.3528 -0.2643 0.043 Uiso 1 1 calc R . .
C4 C 1.0055(12) 0.4110(9) -0.1999(8) 0.030(3) Uani 1 1 d . . .
H4 H 0.9326 0.4461 -0.2127 0.036 Uiso 1 1 calc R . .
C5 C 0.9739(11) 0.3164(9) -0.1257(7) 0.031(3) Uani 1 1 d . . .
H5 H 1.0483 0.2842 -0.1133 0.037 Uiso 1 1 calc R . .
C6 C 0.9103(11) 0.2397(9) -0.1500(7) 0.029(3) Uani 1 1 d . . .
H6 H 0.8396 0.2746 -0.1671 0.035 Uiso 1 1 calc R . .
C7 C 1.0932(12) 0.1415(12) -0.2042(9) 0.043(4) Uani 1 1 d . . .
C8 C 0.9220(13) 0.3483(10) -0.3462(8) 0.039(4) Uani 1 1 d . . .
C9 C 1.1119(13) 0.4711(11) -0.3584(8) 0.040(4) Uani 1 1 d . . .
C10 C 1.0752(13) 0.4805(10) -0.1746(8) 0.035(3) Uani 1 1 d . . .
C11 C 0.9058(11) 0.3459(9) -0.0474(8) 0.030(3) Uani 1 1 d . . .
C12 C 0.8677(11) 0.1458(10) -0.0778(8) 0.036(3) Uani 1 1 d . . .
C13 C 1.4020(13) -0.1663(12) -0.0526(8) 0.047(4) Uani 1 1 d . . .
H13 H 1.3343 -0.2051 -0.0323 0.056 Uiso 1 1 calc R . .
C14 C 1.5111(14) -0.2138(11) -0.0569(9) 0.044(4) Uani 1 1 d . . .
H14 H 1.5160 -0.2842 -0.0391 0.053 Uiso 1 1 calc R . .
C15 C 1.6099(15) -0.1603(15) -0.0862(10) 0.066(5) Uani 1 1 d . . .
H15 H 1.6840 -0.1921 -0.0916 0.079 Uiso 1 1 calc R . .
C16 C 1.5978(13) -0.0558(11) -0.1082(9) 0.048(4) Uani 1 1 d . . .
H16 H 1.6648 -0.0161 -0.1268 0.058 Uiso 1 1 calc R . .
C17 C 1.4891(12) -0.0106(10) -0.1028(8) 0.033(3) Uani 1 1 d . . .
C18 C 1.4734(12) 0.1005(10) -0.1256(8) 0.031(3) Uani 1 1 d . . .
C19 C 1.5646(13) 0.1679(11) -0.1602(9) 0.044(4) Uani 1 1 d . . .
H19 H 1.6420 0.1432 -0.1698 0.053 Uiso 1 1 calc R . .
C20 C 1.5434(14) 0.2709(12) -0.1810(9) 0.053(4) Uani 1 1 d . . .
H20 H 1.6054 0.3161 -0.2022 0.063 Uiso 1 1 calc R . .
C21 C 1.4310(15) 0.3042(11) -0.1697(9) 0.050(4) Uani 1 1 d . . .
H21 H 1.4136 0.3731 -0.1869 0.060 Uiso 1 1 calc R . .
C22 C 1.3412(13) 0.2355(11) -0.1323(9) 0.048(4) Uani 1 1 d . . .
H22 H 1.2638 0.2598 -0.1216 0.057 Uiso 1 1 calc R . .
C23 C 0.6539(17) 0.2471(12) -0.3999(11) 0.069(5) Uani 1 1 d . . .
H23 H 0.7318 0.2244 -0.4132 0.082 Uiso 1 1 calc R . .
C24 C 0.565(2) 0.1771(15) -0.3735(12) 0.088(7) Uani 1 1 d . . .
H24 H 0.5836 0.1089 -0.3690 0.106 Uiso 1 1 calc R . .
C25 C 0.450(2) 0.2088(17) -0.3540(12) 0.089(6) Uani 1 1 d U . .
H25 H 0.3884 0.1632 -0.3360 0.107 Uiso 1 1 calc R . .
C26 C 0.4288(15) 0.3100(14) -0.3620(10) 0.067(5) Uani 1 1 d . . .
H26 H 0.3516 0.3348 -0.3513 0.080 Uiso 1 1 calc R . .
C27 C 0.5241(14) 0.3767(15) -0.3865(9) 0.058(5) Uani 1 1 d . . .
C28 C 0.5051(16) 0.4829(13) -0.3909(9) 0.055(4) Uani 1 1 d . . .
C29 C 0.3971(17) 0.5257(14) -0.3636(11) 0.068(5) Uani 1 1 d U . .
H29 H 0.3318 0.4849 -0.3367 0.082 Uiso 1 1 calc R . .
C30 C 0.3864(19) 0.6250(16) -0.3757(12) 0.081(6) Uani 1 1 d U . .
H30 H 0.3124 0.6538 -0.3594 0.097 Uiso 1 1 calc R . .
C31 C 0.477(2) 0.6828(16) -0.4096(11) 0.079(6) Uani 1 1 d U . .
H31 H 0.4680 0.7526 -0.4185 0.095 Uiso 1 1 calc R . .
C32 C 0.5859(19) 0.6401(15) -0.4325(11) 0.079(6) Uani 1 1 d . . .
H32 H 0.6516 0.6813 -0.4548 0.095 Uiso 1 1 calc R . .
C33 C 0.8134(19) 0.1954(12) 0.1958(11) 0.081(6) Uani 1 1 d . . .
H33 H 0.8936 0.2044 0.1717 0.097 Uiso 1 1 calc R . .
C34 C 0.775(2) 0.0983(18) 0.2447(14) 0.108(8) Uani 1 1 d U . .
H34 H 0.8268 0.0433 0.2537 0.129 Uiso 1 1 calc R . .
C35 C 0.658(2) 0.0892(17) 0.2777(14) 0.101(7) Uani 1 1 d U . .
H35 H 0.6301 0.0273 0.3140 0.121 Uiso 1 1 calc R . .
C36 C 0.5752(18) 0.1705(13) 0.2596(11) 0.074(5) Uani 1 1 d U . .
H36 H 0.4941 0.1620 0.2789 0.088 Uiso 1 1 calc R . .
C37 C 0.6246(15) 0.2636(12) 0.2108(10) 0.054(4) Uani 1 1 d . . .
C38 C 0.5487(13) 0.3489(12) 0.1839(9) 0.043(4) Uani 1 1 d . . .
C39 C 0.4309(17) 0.3529(14) 0.2132(11) 0.073(6) Uani 1 1 d . . .
H39 H 0.3943 0.3002 0.2578 0.088 Uiso 1 1 calc R . .
C40 C 0.3629(17) 0.4340(16) 0.1780(12) 0.072(5) Uani 1 1 d U . .
H40 H 0.2810 0.4343 0.1960 0.087 Uiso 1 1 calc R . .
C41 C 0.4190(17) 0.5125(15) 0.1170(12) 0.075(6) Uani 1 1 d . . .
H41 H 0.3771 0.5689 0.0922 0.090 Uiso 1 1 calc R . .
C42 C 0.5393(16) 0.5061(12) 0.0929(10) 0.057(5) Uani 1 1 d . . .
H42 H 0.5785 0.5606 0.0517 0.069 Uiso 1 1 calc R . .
O4W O 1.097(2) 0.0741(16) 0.2013(13) 0.067(6) Uiso 0.50 1 d P . .
O5W O 0.922(3) 0.725(2) -0.2464(17) 0.098(9) Uiso 0.50 1 d P . .
O6W O 1.211(2) 0.1329(18) -0.4303(15) 0.078(7) Uiso 0.50 1 d P . .
O7W O 1.113(3) 0.761(2) -0.4070(17) 0.100(9) Uiso 0.50 1 d P . .
O8W O 0.782(3) 0.782(3) -0.361(2) 0.152(13) Uiso 0.50 1 d P . .
O9W O 0.208(5) 0.997(4) 0.326(3) 0.096(17) Uiso 0.25 1 d P . .
O9W' O 0.293(7) 1.068(6) 0.365(5) 0.16(3) Uiso 0.25 1 d P . .
O10W O 0.014(5) 0.868(4) 0.451(3) 0.084(15) Uiso 0.25 1 d P . .
O11W O 1.410(5) 0.034(4) -0.513(3) 0.101(18) Uiso 0.25 1 d P . .

loop_
_atom_site_aniso_label
_atom_site_aniso_U_11
_atom_site_aniso_U_22
_atom_site_aniso_U_33
_atom_site_aniso_U_23
_atom_site_aniso_U_13
_atom_site_aniso_U_12
Cd1 0.0288(6) 0.0350(6) 0.0415(6) 0.0028(5) -0.0046(5) -0.0052(5)
Cd2 0.0405(7) 0.0555(8) 0.0392(6) 0.0008(6) -0.0051(5) -0.0056(6)
Cd3 0.0316(6) 0.0353(6) 0.0378(6) -0.0096(5) -0.0020(4) -0.0065(5)
O1W 0.050(8) 0.096(9) 0.082(8) -0.038(7) -0.024(6) 0.022(7)
O2W 0.047(7) 0.084(9) 0.077(8) -0.024(7) -0.021(6) -0.007(6)
O3W 0.053(7) 0.048(6) 0.042(6) -0.012(5) -0.007(5) -0.002(5)
O1 0.049(7) 0.071(8) 0.025(5) 0.010(5) -0.009(5) 0.005(6)
O2 0.077(10) 0.051(8) 0.075(8) 0.021(6) -0.008(7) 0.010(7)
O3 0.050(7) 0.070(8) 0.057(7) -0.025(6) -0.021(6) 0.015(6)
O4 0.050(7) 0.080(8) 0.033(6) -0.011(5) -0.007(5) 0.001(6)
O5 0.050(7) 0.075(8) 0.028(6) 0.004(5) 0.002(5) -0.005(6)
O6 0.082(9) 0.039(7) 0.047(7) 0.009(5) -0.011(6) -0.004(6)
O7 0.067(8) 0.040(6) 0.046(6) -0.013(5) 0.005(5) -0.012(6)
O8 0.050(7) 0.052(7) 0.050(6) -0.014(5) -0.009(5) -0.017(6)
O9 0.040(6) 0.044(6) 0.038(5) -0.018(5) -0.001(4) -0.016(5)
O10 0.032(6) 0.041(6) 0.049(6) -0.007(5) -0.008(5) 0.002(5)
O11 0.039(6) 0.033(5) 0.028(5) 0.011(4) -0.011(4) -0.008(4)
O12 0.049(7) 0.027(5) 0.048(6) 0.005(5) -0.009(5) -0.020(5)
N1 0.037(8) 0.043(8) 0.040(7) -0.002(6) -0.010(6) 0.010(6)
N2 0.046(9) 0.033(7) 0.053(8) -0.003(6) -0.011(6) -0.004(6)
N3 0.054(9) 0.055(9) 0.044(8) 0.000(7) -0.017(7) -0.015(7)
N4 0.059(9) 0.045(9) 0.037(7) -0.004(6) -0.007(6) -0.007(7)
N5 0.053(9) 0.033(7) 0.043(7) 0.000(6) -0.002(6) 0.008(7)
N6 0.035(7) 0.034(7) 0.041(7) -0.010(6) -0.002(6) -0.007(6)
C1 0.042(9) 0.028(8) 0.026(7) -0.003(6) -0.011(6) -0.007(7)
C2 0.033(8) 0.037(8) 0.024(7) -0.003(6) -0.008(6) -0.005(6)
C3 0.035(8) 0.029(8) 0.037(8) 0.004(6) -0.010(6) 0.001(7)
C4 0.035(8) 0.017(7) 0.036(8) -0.010(6) -0.004(6) -0.002(6)
C5 0.029(8) 0.025(7) 0.028(7) 0.007(6) 0.001(6) -0.010(6)
C6 0.021(7) 0.029(8) 0.033(7) -0.002(6) 0.000(6) -0.009(6)
C7 0.023(8) 0.062(11) 0.045(9) -0.023(8) 0.004(7) -0.009(7)
C8 0.049(10) 0.041(9) 0.022(7) 0.003(7) -0.008(7) -0.010(8)
C9 0.040(9) 0.048(10) 0.031(8) 0.005(7) -0.018(7) -0.020(8)
C10 0.043(9) 0.029(8) 0.026(7) 0.002(6) 0.001(6) -0.016(7)
C11 0.028(8) 0.019(7) 0.039(8) -0.002(6) -0.008(6) -0.006(6)
C12 0.022(8) 0.033(8) 0.044(9) 0.003(7) -0.006(6) -0.008(6)
C13 0.039(10) 0.058(11) 0.035(8) 0.004(7) -0.012(7) 0.000(8)
C14 0.057(11) 0.031(9) 0.048(9) -0.009(7) -0.020(8) 0.002(8)
C15 0.038(11) 0.090(15) 0.074(12) -0.023(11) -0.021(9) 0.006(10)
C16 0.037(10) 0.035(9) 0.067(11) -0.010(8) -0.003(8) -0.008(8)
C17 0.030(8) 0.036(9) 0.032(7) -0.008(7) -0.008(6) -0.005(7)
C18 0.037(9) 0.031(8) 0.031(7) -0.017(6) -0.009(6) -0.001(7)
C19 0.040(9) 0.050(10) 0.048(9) -0.016(8) -0.014(7) -0.012(8)
C20 0.041(10) 0.047(11) 0.061(11) 0.009(8) -0.014(8) -0.028(8)
C21 0.064(12) 0.029(9) 0.056(10) 0.005(7) -0.020(8) -0.028(8)
C22 0.038(9) 0.050(10) 0.052(9) -0.001(8) -0.019(7) 0.001(8)
C23 0.069(13) 0.043(11) 0.081(13) -0.007(10) 0.000(10) -0.015(10)
C24 0.11(2) 0.059(13) 0.092(15) -0.018(11) -0.012(13) -0.019(13)
C25 0.084(10) 0.099(10) 0.085(10) -0.023(8) -0.020(8) -0.008(8)
C26 0.042(11) 0.078(14) 0.064(11) -0.010(10) 0.009(8) 0.001(10)
C27 0.031(10) 0.106(16) 0.040(9) -0.027(10) -0.003(7) -0.009(10)
C28 0.069(13) 0.055(12) 0.045(10) -0.013(9) -0.023(9) 0.008(10)
C29 0.062(9) 0.074(9) 0.067(8) -0.023(7) -0.010(7) 0.003(7)
C30 0.075(10) 0.096(10) 0.080(9) -0.035(8) -0.022(7) 0.006(8)
C31 0.090(10) 0.077(9) 0.073(9) -0.023(7) -0.020(8) 0.000(8)
C32 0.081(16) 0.083(15) 0.062(12) -0.004(11) -0.013(11) -0.001(13)
C33 0.091(16) 0.036(11) 0.088(14) 0.007(10) 0.005(12) -0.008(10)
C34 0.113(11) 0.096(11) 0.110(11) -0.022(8) -0.031(8) 0.013(9)
C35 0.099(11) 0.089(10) 0.102(10) -0.007(8) -0.019(8) -0.013(8)
C36 0.071(9) 0.063(9) 0.081(9) -0.020(7) -0.001(7) -0.017(7)
C37 0.054(12) 0.046(10) 0.056(10) -0.019(8) 0.012(8) -0.015(9)
C38 0.030(9) 0.055(10) 0.038(8) -0.016(8) 0.005(7) -0.001(8)
C39 0.079(15) 0.069(13) 0.058(11) -0.008(10) 0.009(10) -0.026(12)
C40 0.057(9) 0.088(9) 0.079(9) -0.032(8) -0.015(7) -0.002(8)
C41 0.060(14) 0.076(14) 0.097(15) -0.029(12) -0.037(12) 0.031(11)
C42 0.069(13) 0.055(11) 0.056(10) -0.027(9) -0.023(9) 0.026(10)

_geom_special_details            
;
All esds (except the esd in the dihedral angle between two l.s. planes)
are estimated using the full covariance matrix. The cell esds are taken
into account individu