####################################################################### 
# 
# This file contains crystal structure data downloaded from the 
# Cambridge Structural Database (CSD) hosted by the Cambridge 
# Crystallographic Data Centre (CCDC).
# 
# Full information about CCDC data access policies and citation 
# guidelines are available at http://www.ccdc.cam.ac.uk/access/V1 
# 
# Audit and citation data items may have been added by the CCDC. 
# Please retain this information to preserve the provenance of 
# this file and to allow appropriate attribution of the data. 
# 
#######################################################################

data_complex11
_audit_block_doi                 10.5517/ccqszn3
_database_code_depnum_ccdc_archive 'CCDC 679416'
loop_
_citation_id
_citation_doi
_citation_year
1 10.1002/chem.200800430 2008
_audit_update_record             
;
2008-02-26 deposited with the CCDC.	2024-07-12 downloaded from the CCDC.
;

_audit_creation_method           SHELXL-97
_chemical_name_systematic        
;
?
;
_chemical_name_common            ?
_chemical_melting_point          ?
_chemical_formula_moiety         ?
_chemical_formula_sum            'C22 H32 N2 Ni4 O22'
_chemical_formula_weight         911.34

loop_
_atom_type_symbol
_atom_type_description
_atom_type_scat_dispersion_real
_atom_type_scat_dispersion_imag
_atom_type_scat_source
C C 0.0033 0.0016 'International Tables Vol C Tables 4.2.6.8 and 6.1.1.4'
H H 0.0000 0.0000 'International Tables Vol C Tables 4.2.6.8 and 6.1.1.4'
N N 0.0061 0.0033 'International Tables Vol C Tables 4.2.6.8 and 6.1.1.4'
O O 0.0106 0.0060 'International Tables Vol C Tables 4.2.6.8 and 6.1.1.4'
Ni Ni 0.3393 1.1124 'International Tables Vol C Tables 4.2.6.8 and 6.1.1.4'

_symmetry_cell_setting           Monoclinic
_symmetry_space_group_name_H-M   P2(1)/c

loop_
_symmetry_equiv_pos_as_xyz
'x, y, z'
'-x, y+1/2, -z+1/2'
'-x, -y, -z'
'x, -y-1/2, z-1/2'

_cell_length_a                   14.8156(14)
_cell_length_b                   11.0770(11)
_cell_length_c                   13.4336(13)
_cell_angle_alpha                90.00
_cell_angle_beta                 99.046(2)
_cell_angle_gamma                90.00
_cell_volume                     2177.2(4)
_cell_formula_units_Z            2
_cell_measurement_temperature    293(2)
_cell_measurement_reflns_used    ?
_cell_measurement_theta_min      ?
_cell_measurement_theta_max      ?

_exptl_crystal_description       ?
_exptl_crystal_colour            ?
_exptl_crystal_size_max          0.21
_exptl_crystal_size_mid          0.13
_exptl_crystal_size_min          0.09
_exptl_crystal_density_meas      ?
_exptl_crystal_density_diffrn    1.390
_exptl_crystal_density_method    'not measured'
_exptl_crystal_F_000             932
_exptl_absorpt_coefficient_mu    1.774
_exptl_absorpt_correction_type   multi-scan
_exptl_absorpt_correction_T_min  0.7071
_exptl_absorpt_correction_T_max  0.8567
_exptl_absorpt_process_details   'SADABS (Bruker, 2002)'


_diffrn_ambient_temperature      293(2)
_diffrn_radiation_wavelength     0.71073
_diffrn_radiation_type           MoK\a
_diffrn_radiation_source         'fine-focus sealed tube'
_diffrn_radiation_monochromator  graphite
_diffrn_measurement_device_type  'CCD area detector'
_diffrn_measurement_method       'phi and omega scans'
_diffrn_detector_area_resol_mean ?
_diffrn_standards_number         ?
_diffrn_standards_interval_count ?
_diffrn_standards_interval_time  ?
_diffrn_standards_decay_%        ?
_diffrn_reflns_number            11578
_diffrn_reflns_av_R_equivalents  0.0533
_diffrn_reflns_av_sigmaI/netI    0.0686
_diffrn_reflns_limit_h_min       -15
_diffrn_reflns_limit_h_max       18
_diffrn_reflns_limit_k_min       -13
_diffrn_reflns_limit_k_max       9
_diffrn_reflns_limit_l_min       -16
_diffrn_reflns_limit_l_max       16
_diffrn_reflns_theta_min         2.31
_diffrn_reflns_theta_max         26.00
_reflns_number_total             4284
_reflns_number_gt                3330
_reflns_threshold_expression     >2sigma(I)

_computing_data_collection       'SMART, 1998.'
_computing_cell_refinement       'SAINT-PLUS, Ver. 6.0, 1997'
_computing_data_reduction        'SAINT-PLUS, Ver. 6.0, 1997'
_computing_structure_solution    'SHELXS-97 (Sheldrick, 1990)'
_computing_structure_refinement  'SHELXL-97 (Sheldrick, 1997)'
_computing_molecular_graphics    'XP, Ver. 6.10, Bruker AXS Inc., 2000'
_computing_publication_material  'SHELXTL-Bruker AXS Inc., 1998'


_refine_special_details          
;
Refinement of F^2^ against ALL reflections. The weighted R-factor wR and
goodness of fit S are based on F^2^, conventional R-factors R are based
on F, with F set to zero for negative F^2^. The threshold expression of
F^2^ > 2sigma(F^2^) is used only for calculating R-factors(gt) etc. and is
not relevant to the choice of reflections for refinement. R-factors based
on F^2^ are statistically about twice as large as those based on F, and R-
factors based on ALL data will be even larger.
;

_refine_ls_structure_factor_coef Fsqd
_refine_ls_matrix_type           full
_refine_ls_weighting_scheme      calc
_refine_ls_weighting_details     
'calc w=1/[\s^2^(Fo^2^)+(0.1094P)^2^+9.8291P] where P=(Fo^2^+2Fc^2^)/3'
_atom_sites_solution_primary     direct
_atom_sites_solution_secondary   difmap
_atom_sites_solution_hydrogens   geom
_refine_ls_hydrogen_treatment    mixed
_refine_ls_extinction_method     none
_refine_ls_extinction_coef       ?
_refine_ls_number_reflns         4284
_refine_ls_number_parameters     256
_refine_ls_number_restraints     58
_refine_ls_R_factor_all          0.0898
_refine_ls_R_factor_gt           0.0684
_refine_ls_wR_factor_ref         0.2037
_refine_ls_wR_factor_gt          0.1885
_refine_ls_goodness_of_fit_ref   1.051
_refine_ls_restrained_S_all      1.073
_refine_ls_shift/su_max          0.013
_refine_ls_shift/su_mean         0.001

loop_
_atom_site_label
_atom_site_type_symbol
_atom_site_fract_x
_atom_site_fract_y
_atom_site_fract_z
_atom_site_U_iso_or_equiv
_atom_site_adp_type
_atom_site_occupancy
_atom_site_symmetry_multiplicity
_atom_site_calc_flag
_atom_site_refinement_flags
_atom_site_disorder_assembly
_atom_site_disorder_group
Ni1 Ni 1.04347(5) 0.00137(7) 0.11175(6) 0.0140(2) Uani 1 1 d D . .
Ni2 Ni 0.86488(5) 0.14819(7) 0.09248(6) 0.0144(2) Uani 1 1 d D . .
O1W O 1.1757(3) 0.0442(5) 0.1823(4) 0.0292(12) Uani 1 1 d D . .
H1WA H 1.1826(19) 0.113(3) 0.157(4) 0.035 Uiso 1 1 d D . .
H1WB H 1.1671(14) 0.052(6) 0.2429(10) 0.035 Uiso 1 1 d D . .
O2W O 0.8290(3) 0.3003(5) 0.1720(4) 0.0272(11) Uani 1 1 d D . .
H2WA H 0.876(2) 0.307(3) 0.216(3) 0.033 Uiso 1 1 d D . .
H2WB H 0.827(4) 0.3535(14) 0.1267(16) 0.033 Uiso 1 1 d D . .
O1 O 1.0411(3) -0.1857(4) 0.1268(3) 0.0241(11) Uani 1 1 d . . .
O2 O 1.1446(3) -0.2560(4) 0.0378(3) 0.0188(10) Uani 1 1 d . . .
O3 O 0.9935(3) -0.1865(4) -0.1130(3) 0.0156(9) Uani 1 1 d . . .
O4 O 0.8612(3) -0.2820(5) -0.1410(5) 0.0380(14) Uani 1 1 d . . .
O5 O 0.8728(3) -0.5741(4) -0.2655(3) 0.0224(11) Uani 1 1 d . . .
O6 O 1.0105(3) -0.4906(4) -0.2483(3) 0.0224(11) Uani 1 1 d . . .
O7 O 0.9150(3) 0.0016(4) 0.0275(3) 0.0170(9) Uani 1 1 d . . .
H7O H 0.8857 -0.0621 0.0375 0.020 Uiso 1 1 d R . .
N1 N 0.7297(4) 0.0972(6) 0.0586(4) 0.0228(13) Uani 1 1 d . . .
C1 C 1.0115(4) -0.3782(5) 0.0490(4) 0.0138(12) Uani 1 1 d . . .
H1 H 0.9529 -0.3660 0.0726 0.017 Uiso 1 1 calc R . .
C2 C 0.9937(4) -0.3938(5) -0.0667(4) 0.0136(12) Uani 1 1 d . . .
H2 H 1.0531 -0.3975 -0.0900 0.016 Uiso 1 1 calc R . .
C3 C 0.9410(4) -0.5085(5) -0.1019(4) 0.0127(12) Uani 1 1 d . . .
H3 H 0.8781 -0.5027 -0.0882 0.015 Uiso 1 1 calc R . .
C4 C 1.0710(4) -0.2644(6) 0.0739(4) 0.0147(13) Uani 1 1 d . . .
C5 C 0.9444(4) -0.2808(6) -0.1113(4) 0.0173(13) Uani 1 1 d . . .
C6 C 0.9409(4) -0.5245(5) -0.2150(4) 0.0146(13) Uani 1 1 d . . .
C7 C 0.6760(7) 0.0876(13) 0.1264(8) 0.072(3) Uani 1 1 d U . .
H7 H 0.7005 0.1043 0.1931 0.087 Uiso 1 1 calc R . .
C8 C 0.5864(8) 0.0546(15) 0.1061(9) 0.087(4) Uani 1 1 d U . .
H8 H 0.5510 0.0555 0.1574 0.104 Uiso 1 1 calc R . .
C9 C 0.5483(5) 0.0205(8) 0.0118(6) 0.0354(19) Uani 1 1 d . . .
C10 C 0.6037(7) 0.0289(12) -0.0571(8) 0.069(3) Uani 1 1 d U . .
H10 H 0.5820 0.0087 -0.1237 0.082 Uiso 1 1 calc R . .
C11 C 0.6932(7) 0.0673(12) -0.0309(7) 0.061(3) Uani 1 1 d U . .
H11 H 0.7292 0.0717 -0.0816 0.073 Uiso 1 1 calc R . .
O3W O 1.1598(7) 0.2940(9) 0.3700(7) 0.093(3) Uani 1 1 d U . .
O4W O 1.3100(12) -0.3726(19) 0.1003(15) 0.095(6) Uani 0.50 1 d PU . .
O5W O 1.2340(12) 0.0373(17) 0.3958(12) 0.079(5) Uani 0.50 1 d PU . .
O6W O 1.298(2) -0.607(3) 0.153(2) 0.170(12) Uani 0.50 1 d PU . .

loop_
_atom_site_aniso_label
_atom_site_aniso_U_11
_atom_site_aniso_U_22
_atom_site_aniso_U_33
_atom_site_aniso_U_23
_atom_site_aniso_U_13
_atom_site_aniso_U_12
Ni1 0.0212(5) 0.0098(4) 0.0108(4) -0.0003(3) 0.0018(3) 0.0005(3)
Ni2 0.0153(4) 0.0137(4) 0.0137(4) 0.0014(3) 0.0012(3) -0.0009(3)
O1W 0.028(3) 0.030(3) 0.028(3) 0.004(2) -0.001(2) 0.003(2)
O2W 0.035(3) 0.023(3) 0.023(3) -0.002(2) 0.002(2) 0.003(2)
O1 0.040(3) 0.011(2) 0.023(2) -0.0045(19) 0.011(2) -0.001(2)
O2 0.022(2) 0.016(2) 0.018(2) 0.0046(19) 0.0025(19) -0.0005(18)
O3 0.020(2) 0.008(2) 0.019(2) 0.0029(18) 0.0004(18) -0.0013(17)
O4 0.023(3) 0.019(3) 0.066(4) 0.015(3) -0.011(3) -0.004(2)
O5 0.027(3) 0.028(3) 0.012(2) -0.008(2) 0.0012(19) -0.008(2)
O6 0.032(3) 0.024(3) 0.012(2) -0.0018(19) 0.0063(19) -0.011(2)
O7 0.022(2) 0.012(2) 0.016(2) -0.0012(18) 0.0001(18) -0.0031(18)
N1 0.013(3) 0.030(3) 0.024(3) 0.001(3) -0.001(2) -0.003(2)
C1 0.023(3) 0.009(3) 0.009(3) -0.001(2) 0.002(2) -0.001(2)
C2 0.023(3) 0.007(3) 0.010(3) 0.002(2) 0.001(2) -0.001(2)
C3 0.017(3) 0.007(3) 0.014(3) 0.001(2) 0.004(2) -0.002(2)
C4 0.023(3) 0.013(3) 0.007(3) 0.005(2) 0.001(2) 0.002(3)
C5 0.025(4) 0.014(3) 0.012(3) 0.000(3) 0.000(3) 0.001(3)
C6 0.024(3) 0.008(3) 0.010(3) 0.003(2) -0.003(2) 0.002(2)
C7 0.043(5) 0.126(8) 0.047(5) -0.007(6) 0.006(4) -0.031(5)
C8 0.059(6) 0.138(9) 0.068(6) -0.009(6) 0.026(5) -0.038(6)
C9 0.020(4) 0.048(5) 0.036(4) -0.003(4) -0.002(3) -0.010(4)
C10 0.049(5) 0.107(8) 0.049(5) -0.024(5) 0.007(4) -0.021(5)
C11 0.039(5) 0.099(7) 0.046(5) -0.014(5) 0.011(4) -0.016(5)
O3W 0.117(6) 0.078(6) 0.091(6) 0.005(5) 0.036(5) 0.026(5)
O4W 0.067(8) 0.100(9) 0.117(10) 0.035(8) 0.008(7) 0.021(7)
O5W 0.093(9) 0.080(8) 0.056(7) 0.010(7) -0.014(7) -0.020(7)
O6W 0.154(14) 0.161(14) 0.192(14) 0.012(10) 0.018(9) -0.013(9)

_geom_special_details            
;
All esds (except the esd in the dihedral angle between two l.s. planes)
are estimated using the full covariance matrix. The cell esds are taken
into account individually in the estimation of esds in distances, angles
and torsion angles; correlations between esds in cell parameters are only
used when they are defined by crystal symmetry. An approximate (isotropic)
treatment of cell esds is used for estimating esds involving l.s. planes.
;

loop_
_geom_bond_atom_site_label_1
_geom_bond_atom_site_label_2
_geom_bond_distance
_geom_bond_site_symmetry_2
_geom_bond_publ_flag
Ni1 O6 2.019(4) 4_556 ?
Ni1 O7 2.056(4) . ?
Ni1 O7 2.059(4) 3_755 ?
Ni1 O1 2.083(5) . ?
Ni1 O1W 2.092(5) . ?
Ni1 O3 2.123(4) 3_755 ?
Ni2 O7 2.038(4) . ?
Ni2 N1 2.061(5) . ?
Ni2 O5 2.063(4) 4_556 ?
Ni2 O2 2.105(4) 3_755 ?
Ni2 O2W 2.108(5) . ?
Ni2 O3 2.116(4) 3_755 ?
O1W H1WA 0.850(10) . ?
O1W H1WB 0.847(10) . ?
O2W H2WA 0.843(10) . ?
O2W H2WB 0.844(10) . ?
O1 C4 1.249(8) . ?
O2 C4 1.264(7) . ?
O2 Ni2 2.105(4) 3_755 ?
O3 C5 1.276(8) . ?
O3 Ni2 2.116(4) 3_755 ?
O3 Ni1 2.123(4) 3_755 ?
O4 C5 1.234(8) . ?
O5 C6 1.251(8) . ?
O5 Ni2 2.063(4) 4 ?
O6 C6 1.246(8) . ?
O6 Ni1 2.019(4) 4 ?
O7 Ni1 2.059(4) 3_755 ?
O7 H7O 0.8500 . ?
N1 C11 1.282(11) . ?
N1 C7 1.305(12) . ?
C1 C4 1.545(9) . ?
C1 C2 1.544(8) . ?
C1 C3 1.556(8) 3_745 ?
C1 H1 0.9800 . ?
C2 C5 1.524(8) . ?
C2 C3 1.527(8) . ?
C2 H2 0.9800 . ?
C3 C6 1.529(8) . ?
C3 C1 1.556(8) 3_745 ?
C3 H3 0.9800 . ?
C7 C8 1.362(14) . ?
C7 H7 0.9300 . ?
C8 C9 1.357(14) . ?
C8 H8 0.9300 . ?
C9 C10 1.333(13) . ?
C9 C9 1.489(14) 3_655 ?
C10 C11 1.384(14) . ?
C10 H10 0.9300 . ?
C11 H11 0.9300 . ?

loop_
_geom_angle_atom_site_label_1
_geom_angle_atom_site_label_2
_geom_angle_atom_site_label_3
_geom_angle
_geom_angle_site_symmetry_1
_geom_angle_site_symmetry_3
_geom_angle_publ_flag
O6 Ni1 O7 100.05(19) 4_556 . ?
O6 Ni1 O7 174.55(18) 4_556 3_755 ?
O7 Ni1 O7 83.27(19) . 3_755 ?
O6 Ni1 O1 80.81(19) 4_556 . ?
O7 Ni1 O1 91.52(18) . . ?
O7 Ni1 O1 94.83(18) 3_755 . ?
O6 Ni1 O1W 86.4(2) 4_556 . ?
O7 Ni1 O1W 165.70(19) . . ?
O7 Ni1 O1W 91.32(19) 3_755 . ?
O1 Ni1 O1W 102.1(2) . . ?
O6 Ni1 O3 87.09(18) 4_556 3_755 ?
O7 Ni1 O3 77.61(16) . 3_755 ?
O7 Ni1 O3 97.89(17) 3_755 3_755 ?
O1 Ni1 O3 162.13(18) . 3_755 ?
O1W Ni1 O3 90.10(19) . 3_755 ?
O7 Ni2 N1 95.4(2) . . ?
O7 Ni2 O5 96.19(18) . 4_556 ?
N1 Ni2 O5 90.4(2) . 4_556 ?
O7 Ni2 O2 94.40(18) . 3_755 ?
N1 Ni2 O2 92.1(2) . 3_755 ?
O5 Ni2 O2 168.84(19) 4_556 3_755 ?
O7 Ni2 O2W 172.76(19) . . ?
N1 Ni2 O2W 91.0(2) . . ?
O5 Ni2 O2W 80.31(19) 4_556 . ?
O2 Ni2 O2W 88.77(19) 3_755 . ?
O7 Ni2 O3 78.17(17) . 3_755 ?
N1 Ni2 O3 173.1(2) . 3_755 ?
O5 Ni2 O3 92.75(17) 4_556 3_755 ?
O2 Ni2 O3 85.98(17) 3_755 3_755 ?
O2W Ni2 O3 95.60(18) . 3_755 ?
Ni1 O1W H1WA 100.6(10) . . ?
Ni1 O1W H1WB 100.8(10) . . ?
H1WA O1W H1WB 110.1(18) . . ?
Ni2 O2W H2WA 100.0(10) . . ?
Ni2 O2W H2WB 100.0(10) . . ?
H2WA O2W H2WB 111.5(19) . . ?
C4 O1 Ni1 128.7(4) . . ?
C4 O2 Ni2 114.3(4) . 3_755 ?
C5 O3 Ni2 135.9(4) . 3_755 ?
C5 O3 Ni1 130.0(4) . 3_755 ?
Ni2 O3 Ni1 93.28(17) 3_755 3_755 ?
C6 O5 Ni2 126.9(4) . 4 ?
C6 O6 Ni1 130.7(4) . 4 ?
Ni2 O7 Ni1 97.65(18) . . ?
Ni2 O7 Ni1 125.7(2) . 3_755 ?
Ni1 O7 Ni1 96.73(19) . 3_755 ?
Ni2 O7 H7O 111.4 . . ?
Ni1 O7 H7O 111.3 . . ?
Ni1 O7 H7O 111.3 3_755 . ?
C11 N1 C7 114.8(8) . . ?
C11 N1 Ni2 122.0(6) . . ?
C7 N1 Ni2 123.1(6) . . ?
C4 C1 C2 108.1(5) . . ?
C4 C1 C3 110.9(5) . 3_745 ?
C2 C1 C3 111.3(5) . 3_745 ?
C4 C1 H1 108.8 . . ?
C2 C1 H1 108.8 . . ?
C3 C1 H1 108.8 3_745 . ?
C5 C2 C3 111.8(5) . . ?
C5 C2 C1 107.4(5) . . ?
C3 C2 C1 113.8(5) . . ?
C5 C2 H2 107.9 . . ?
C3 C2 H2 107.9 . . ?
C1 C2 H2 107.9 . . ?
C2 C3 C6 109.0(5) . . ?
C2 C3 C1 110.9(5) . 3_745 ?
C6 C3 C1 106.9(5) . 3_745 ?
C2 C3 H3 110.0 . . ?
C6 C3 H3 110.0 . . ?
C1 C3 H3 110.0 3_745 . ?
O1 C4 O2 124.9(6) . . ?
O1 C4 C1 116.8(5) . . ?
O2 C4 C1 118.3(5) . . ?
O4 C5 O3 123.1(6) . . ?
O4 C5 C2 120.7(6) . . ?
O3 C5 C2 116.1(5) . . ?
O6 C6 O5 125.5(6) . . ?
O6 C6 C3 116.8(5) . . ?
O5 C6 C3 117.7(6) . . ?
N1 C7 C8 124.3(10) . . ?
N1 C7 H7 117.8 . . ?
C8 C7 H7 117.8 . . ?
C9 C8 C7 120.7(10) . . ?
C9 C8 H8 119.6 . . ?
C7 C8 H8 119.6 . . ?
C10 C9 C8 114.7(8) . . ?
C10 C9 C9 123.4(10) . 3_655 ?
C8 C9 C9 121.9(10) . 3_655 ?
C9 C10 C11 121.0(9) . . ?
C9 C10 H10 119.5 . . ?
C11 C10 H10 119.5 . . ?
N1 C11 C10 124.3(9) . . ?
N1 C11 H11 117.8 . . ?
C10 C11 H11 117.8 . . ?

loop_
_geom_hbond_atom_site_label_D
_geom_hbond_atom_site_label_H
_geom_hbond_atom_site_label_A
_geom_hbond_distance_DH
_geom_hbond_distance_HA
_geom_hbond_distance_DA
_geom_hbond_angle_DHA
_geom_hbond_site_symmetry_A
O1W H1WA O4 0.850(10) 1.98(4) 2.729(7) 146(5) 3_755
O1W H1WB O5W 0.847(10) 2.14(2) 2.864(16) 143(3) .
O2W H2WA O1 0.843(10) 2.27(2) 3.065(7) 157(5) 2_755
O2W H2WB O5W 0.844(10) 2.23(2) 2.885(19) 134(2) 2_755
O7 H7O O3W 0.85 2.19 2.982(10) 154.6 2_745

_diffrn_measured_fraction_theta_max 0.999
_diffrn_reflns_theta_full        26.00
_diffrn_measured_fraction_theta_full 0.999
_refine_diff_density_max         1.306
_refine_diff_density_min         -0.837
_refine_diff_density_rms         0.183
