####################################################################### 
# 
# This file contains crystal structure data downloaded from the 
# Cambridge Structural Database (CSD) hosted by the Cambridge 
# Crystallographic Data Centre (CCDC).
# 
# Full information about CCDC data access policies and citation 
# guidelines are available at http://www.ccdc.cam.ac.uk/access/V1 
# 
# Audit and citation data items may have been added by the CCDC. 
# Please retain this information to preserve the provenance of 
# this file and to allow appropriate attribution of the data. 
# 
#######################################################################

data_2-Co
_audit_block_doi                 10.5517/cc12xr4w
_database_code_depnum_ccdc_archive 'CCDC 1010728'
loop_
_citation_id
_citation_doi
_citation_year
1 10.1021/cg500978s 2014

_audit_update_record             
;
2014-06-26 deposited with the CCDC.	2024-07-12 downloaded from the CCDC.
;


_audit_creation_method           SHELXL-97
_chemical_name_systematic        
"catena{[2,2'-dihydroxy-4,4'-dicarboxylato-bis(dimethylformamido)-cobalt(II)] DMF-solvate}"
_chemical_name_common            ?
_chemical_melting_point          ?
_chemical_formula_moiety         'C20 H22 Co N2 O8'
_chemical_formula_sum            'C20 H22 Co N2 O8'
_chemical_formula_weight         477.33


loop_
_atom_type_symbol
_atom_type_description
_atom_type_scat_dispersion_real
_atom_type_scat_dispersion_imag
_atom_type_scat_source
C C 0.0033 0.0016 'International Tables Vol C Tables 4.2.6.8 and 6.1.1.4'
H H 0.0000 0.0000 'International Tables Vol C Tables 4.2.6.8 and 6.1.1.4'
N N 0.0061 0.0033 'International Tables Vol C Tables 4.2.6.8 and 6.1.1.4'
O O 0.0106 0.0060 'International Tables Vol C Tables 4.2.6.8 and 6.1.1.4'
Co Co 0.3494 0.9721 'International Tables Vol C Tables 4.2.6.8 and 6.1.1.4'

_symmetry_cell_setting           hexagonal
_symmetry_space_group_name_H-M   'P 32 2 1'

loop_
_symmetry_equiv_pos_as_xyz
'x, y, z'
'-y, x-y, z+2/3'
'-x+y, -x, z+1/3'
'x-y, -y, -z+1/3'
'-x, -x+y, -z+2/3'
'y, x, -z'

_cell_length_a                   17.3720(4)
_cell_length_b                   17.3720(4)
_cell_length_c                   8.6547(6)
_cell_angle_alpha                90.00
_cell_angle_beta                 90.00
_cell_angle_gamma                120.00
_cell_volume                     2261.95(17)
_cell_formula_units_Z            3
_cell_measurement_temperature    150(2)
_cell_measurement_reflns_used    2742
_cell_measurement_theta_min      2.7023
_cell_measurement_theta_max      29.1375

_exptl_crystal_description       'hexagonal block'
_exptl_crystal_colour            purple
_exptl_crystal_size_max          0.41
_exptl_crystal_size_mid          0.25
_exptl_crystal_size_min          0.19
_exptl_crystal_density_meas      ?
_exptl_crystal_density_diffrn    1.051
_exptl_crystal_density_method    'not measured'
_exptl_crystal_F_000             741
_exptl_absorpt_coefficient_mu    0.604
_exptl_absorpt_correction_type   multi-scan
_exptl_absorpt_correction_T_min  0.7899
_exptl_absorpt_correction_T_max  0.8939
_exptl_absorpt_process_details   
;
CrysAlisPro, Agilent Technologies,
Version 1.171.35.21 (release 20-01-2012 CrysAlis171 .NET)
(compiled Jan 23 2012,18:06:46)
Empirical absorption correction using spherical harmonics,
 implemented in SCALE3 ABSPACK scaling algorithm.
;

_exptl_special_details           ?


_diffrn_ambient_temperature      150(2)
_diffrn_radiation_wavelength     0.71073
_diffrn_radiation_type           MoK\a
_diffrn_radiation_source         'fine-focus sealed tube'
_diffrn_radiation_monochromator  graphite
_diffrn_measurement_device_type  'Xcalibur, Eos'
_diffrn_measurement_method       '\w scans'
_diffrn_detector_area_resol_mean 16.1695
_diffrn_standards_number         ?
_diffrn_standards_interval_count ?
_diffrn_standards_interval_time  ?
_diffrn_standards_decay_%        ?
_diffrn_reflns_number            10564
_diffrn_reflns_av_R_equivalents  0.0420
_diffrn_reflns_av_sigmaI/netI    0.0588
_diffrn_reflns_limit_h_min       -22
_diffrn_reflns_limit_h_max       23
_diffrn_reflns_limit_k_min       -19
_diffrn_reflns_limit_k_max       18
_diffrn_reflns_limit_l_min       -9
_diffrn_reflns_limit_l_max       11
_diffrn_reflns_theta_min         2.71
_diffrn_reflns_theta_max         29.20
_reflns_number_total             3534
_reflns_number_gt                2637
_reflns_threshold_expression     >2sigma(I)

_computing_data_collection       
;
CrysAlisPro, Agilent Technologies,
Version 1.171.35.21 (release 20-01-2012 CrysAlis171 .NET)
(compiled Jan 23 2012,18:06:46)
;
_computing_cell_refinement       
;
CrysAlisPro, Agilent Technologies,
Version 1.171.35.21 (release 20-01-2012 CrysAlis171 .NET)
(compiled Jan 23 2012,18:06:46)
;
_computing_data_reduction        
;
CrysAlisPro, Agilent Technologies,
Version 1.171.35.21 (release 20-01-2012 CrysAlis171 .NET)
(compiled Jan 23 2012,18:06:46)
;

_computing_structure_solution    'SHELXS-97 (Sheldrick, 1990)'
_computing_structure_refinement  'SHELXL-97 (Sheldrick, 1997)'
_computing_molecular_graphics    CrystalMaker
_computing_publication_material  ?


_refine_special_details          
; 
 Refinement of F^2^ against ALL reflections.  The weighted R-factor wR and 
 goodness of fit S are based on F^2^, conventional R-factors R are based 
 on F, with F set to zero for negative F^2^. The threshold expression of 
 F^2^ > 2sigma(F^2^) is used only for calculating R-factors(gt) etc. and is 
 not relevant to the choice of reflections for refinement.  R-factors based 
 on F^2^ are statistically about twice as large as those based on F, and R- 
 factors based on ALL data will be even larger. 
;

_refine_ls_structure_factor_coef Fsqd
_refine_ls_matrix_type           full
_refine_ls_weighting_scheme      calc
_refine_ls_weighting_details     
'calc w=1/[\s^2^(Fo^2^)+(0.0658P)^2^+0.0000P] where P=(Fo^2^+2Fc^2^)/3'
_atom_sites_solution_primary     direct
_atom_sites_solution_secondary   difmap
_atom_sites_solution_hydrogens   geom
_refine_ls_hydrogen_treatment    constr
_refine_ls_extinction_method     none
_refine_ls_extinction_coef       ?
_refine_ls_abs_structure_details 'Flack H D (1983), Acta Cryst. A39, 876-881'
_refine_ls_abs_structure_Flack   -0.03(2)
_refine_ls_number_reflns         3534
_refine_ls_number_parameters     143
_refine_ls_number_restraints     0
_refine_ls_R_factor_all          0.0640
_refine_ls_R_factor_gt           0.0449
_refine_ls_wR_factor_ref         0.1189
_refine_ls_wR_factor_gt          0.1108
_refine_ls_goodness_of_fit_ref   0.993
_refine_ls_restrained_S_all      0.993
_refine_ls_shift/su_max          0.000
_refine_ls_shift/su_mean         0.000

loop_
_atom_site_label
_atom_site_type_symbol
_atom_site_fract_x
_atom_site_fract_y
_atom_site_fract_z
_atom_site_U_iso_or_equiv
_atom_site_adp_type
_atom_site_occupancy
_atom_site_symmetry_multiplicity
_atom_site_calc_flag
_atom_site_refinement_flags
_atom_site_disorder_assembly
_atom_site_disorder_group
Co1 Co 0.46969(3) 0.46969(3) 0.0000 0.03312(17) Uani 1 2 d S . .
O1 O 0.57181(13) 0.91800(13) -0.2409(3) 0.0455(7) Uani 1 1 d . . .
O2 O 0.51970(12) 0.59706(12) 0.1026(2) 0.0289(5) Uani 1 1 d . . .
O4 O 0.44321(13) 0.81329(12) -0.1381(3) 0.0364(5) Uani 1 1 d . . .
H4 H 0.4249 0.8465 -0.1724 0.044 Uiso 1 1 calc R . .
C5 C 0.57093(19) 0.79672(18) -0.1187(4) 0.0343(7) Uani 1 1 d . . .
C6 C 0.65440(19) 0.70142(19) -0.0256(4) 0.0343(8) Uani 1 1 d . . .
O7 O 0.43408(15) 0.51589(16) -0.2008(3) 0.0476(6) Uani 1 1 d . . .
C8 C 0.52474(18) 0.71945(18) -0.0314(4) 0.0292(7) Uani 1 1 d . . .
H8 H 0.4647 0.6990 -0.0036 0.035 Uiso 1 1 calc R . .
C9 C 0.56511(19) 0.67215(16) 0.0154(4) 0.0307(6) Uani 1 1 d . . .
C10 C 0.65925(19) 0.82721(19) -0.1576(5) 0.0473(9) Uani 1 1 d . . .
H10 H 0.6919 0.8804 -0.2154 0.057 Uiso 1 1 calc R . .
C11 C 0.52634(18) 0.84698(18) -0.1711(4) 0.0327(7) Uani 1 1 d . . .
N12 N 0.4669(2) 0.6167(2) -0.3948(4) 0.0567(9) Uani 1 1 d . . .
C13 C 0.4879(3) 0.5721(3) -0.2968(5) 0.0496(9) Uani 1 1 d . . .
H13 H 0.5471 0.5829 -0.2981 0.060 Uiso 1 1 calc R . .
C14 C 0.6987(2) 0.7793(2) -0.1112(5) 0.0483(10) Uani 1 1 d . . .
H14 H 0.7589 0.8004 -0.1391 0.058 Uiso 1 1 calc R . .
C15 C 0.3807(3) 0.6085(3) -0.3927(6) 0.0745(14) Uani 1 1 d . . .
H15A H 0.3466 0.5712 -0.3052 0.112 Uiso 1 1 calc R . .
H15B H 0.3496 0.5811 -0.4893 0.112 Uiso 1 1 calc R . .
H15C H 0.3870 0.6675 -0.3821 0.112 Uiso 1 1 calc R . .
C16 C 0.5327(3) 0.6825(3) -0.4958(5) 0.0673(12) Uani 1 1 d . . .
H16A H 0.5904 0.6869 -0.4766 0.101 Uiso 1 1 calc R . .
H16B H 0.5374 0.7402 -0.4761 0.101 Uiso 1 1 calc R . .
H16C H 0.5153 0.6652 -0.6035 0.101 Uiso 1 1 calc R . .

loop_
_atom_site_aniso_label
_atom_site_aniso_U_11
_atom_site_aniso_U_22
_atom_site_aniso_U_33
_atom_site_aniso_U_23
_atom_site_aniso_U_13
_atom_site_aniso_U_12
Co1 0.0194(2) 0.0194(2) 0.0598(4) -0.00405(14) 0.00405(14) 0.0090(2)
O1 0.0256(11) 0.0278(11) 0.085(2) 0.0227(11) 0.0115(11) 0.0150(10)
O2 0.0245(10) 0.0187(9) 0.0434(12) 0.0031(8) -0.0003(9) 0.0108(8)
O4 0.0232(10) 0.0268(10) 0.0621(15) 0.0093(10) 0.0027(10) 0.0147(9)
C5 0.0256(14) 0.0164(13) 0.059(2) 0.0013(13) -0.0034(14) 0.0090(11)
C6 0.0216(14) 0.0194(13) 0.061(2) 0.0007(14) -0.0029(14) 0.0098(12)
O7 0.0338(13) 0.0497(15) 0.0653(17) -0.0064(14) -0.0085(13) 0.0254(11)
C8 0.0192(13) 0.0178(13) 0.048(2) -0.0053(12) -0.0026(13) 0.0071(11)
C9 0.0222(14) 0.0149(11) 0.0515(18) -0.0043(11) -0.0046(14) 0.0067(12)
C10 0.0196(15) 0.0238(14) 0.096(3) 0.0215(16) 0.0078(15) 0.0091(12)
C11 0.0210(14) 0.0219(14) 0.053(2) 0.0005(13) -0.0049(13) 0.0090(12)
N12 0.064(2) 0.071(2) 0.052(2) -0.0138(17) -0.0154(17) 0.047(2)
C13 0.048(2) 0.055(2) 0.057(3) -0.009(2) -0.0128(19) 0.033(2)
C14 0.0183(14) 0.0298(16) 0.096(3) 0.0134(17) 0.0100(16) 0.0117(13)
C15 0.078(3) 0.100(4) 0.074(3) -0.006(3) -0.022(2) 0.066(3)
C16 0.083(3) 0.074(3) 0.052(3) 0.002(2) -0.002(2) 0.045(3)

_geom_special_details            
; 
 All esds (except the esd in the dihedral angle between two l.s. planes) 
 are estimated using the full covariance matrix.  The cell esds are taken 
 into account individually in the estimation of esds in distances, angles 
 and torsion angles; correlations between esds in cell parameters are only 
 used when they are defined by crystal symmetry.  An approximate (isotropic) 
 treatment of cell esds is used for estimating esds involving l.s. planes. 
;

loop_
_geom_bond_atom_site_label_1
_geom_bond_atom_site_label_2
_geom_bond_distance
_geom_bond_site_symmetry_2
_geom_bond_publ_flag
Co1 O1 2.053(2) 5_654 ?
Co1 O1 2.053(2) 3_565 ?
Co1 O2 2.1252(18) 6 ?
Co1 O2 2.1253(18) . ?
Co1 O7 2.132(3) 6 ?
Co1 O7 2.132(3) . ?
O1 C11 1.240(3) . ?
O1 Co1 2.053(2) 2_664 ?
O2 C9 1.365(3) . ?
O4 C11 1.290(4) . ?
C5 C10 1.391(4) . ?
C5 C8 1.393(4) . ?
C5 C11 1.498(4) . ?
C6 C14 1.389(4) . ?
C6 C9 1.415(4) . ?
C6 C6 1.483(6) 6 ?
O7 C13 1.267(4) . ?
C8 C9 1.381(4) . ?
C10 C14 1.376(4) . ?
N12 C13 1.317(5) . ?
N12 C15 1.431(5) . ?
N12 C16 1.439(6) . ?

loop_
_geom_angle_atom_site_label_1
_geom_angle_atom_site_label_2
_geom_angle_atom_site_label_3
_geom_angle
_geom_angle_site_symmetry_1
_geom_angle_site_symmetry_3
_geom_angle_publ_flag
O1 Co1 O1 91.47(11) 5_654 3_565 ?
O1 Co1 O2 90.82(7) 5_654 6 ?
O1 Co1 O2 176.22(8) 3_565 6 ?
O1 Co1 O2 176.22(8) 5_654 . ?
O1 Co1 O2 90.81(7) 3_565 . ?
O2 Co1 O2 87.07(10) 6 . ?
O1 Co1 O7 90.06(9) 5_654 6 ?
O1 Co1 O7 93.40(10) 3_565 6 ?
O2 Co1 O7 89.61(8) 6 6 ?
O2 Co1 O7 86.80(8) . 6 ?
O1 Co1 O7 93.40(10) 5_654 . ?
O1 Co1 O7 90.05(9) 3_565 . ?
O2 Co1 O7 86.80(8) 6 . ?
O2 Co1 O7 89.61(8) . . ?
O7 Co1 O7 175.06(13) 6 . ?
C11 O1 Co1 127.62(19) . 2_664 ?
C9 O2 Co1 120.25(17) . . ?
C10 C5 C8 119.5(3) . . ?
C10 C5 C11 119.9(3) . . ?
C8 C5 C11 120.6(3) . . ?
C14 C6 C9 117.2(3) . . ?
C14 C6 C6 120.4(2) . 6 ?
C9 C6 C6 122.3(2) . 6 ?
C13 O7 Co1 125.7(2) . . ?
C9 C8 C5 120.9(3) . . ?
O2 C9 C8 120.5(3) . . ?
O2 C9 C6 119.2(3) . . ?
C8 C9 C6 120.3(3) . . ?
C14 C10 C5 119.1(3) . . ?
O1 C11 O4 124.8(3) . . ?
O1 C11 C5 118.0(2) . . ?
O4 C11 C5 117.2(2) . . ?
C13 N12 C15 121.1(4) . . ?
C13 N12 C16 121.0(3) . . ?
C15 N12 C16 117.6(4) . . ?
O7 C13 N12 124.1(4) . . ?
C10 C14 C6 123.0(3) . . ?

_diffrn_measured_fraction_theta_max 0.894
_diffrn_reflns_theta_full        26.00
_diffrn_measured_fraction_theta_full 0.999
_refine_diff_density_max         0.533
_refine_diff_density_min         -0.327
_refine_diff_density_rms         0.059

loop_
_platon_squeeze_void_nr
_platon_squeeze_void_average_x
_platon_squeeze_void_average_y
_platon_squeeze_void_average_z
_platon_squeeze_void_volume
_platon_squeeze_void_count_electrons
_platon_squeeze_void_content
1 0.000 0.000 -0.033 852 128 ' '
_platon_squeeze_details          
;
;

######END

