####################################################################### 
# 
# This file contains crystal structure data downloaded from the 
# Cambridge Structural Database (CSD) hosted by the Cambridge 
# Crystallographic Data Centre (CCDC).
# 
# Full information about CCDC data access policies and citation 
# guidelines are available at http://www.ccdc.cam.ac.uk/access/V1 
# 
# Audit and citation data items may have been added by the CCDC. 
# Please retain this information to preserve the provenance of 
# this file and to allow appropriate attribution of the data. 
# 
#######################################################################

data_CPM-33b-Ni
_audit_block_doi                 10.5517/cc14c56w
_database_code_depnum_ccdc_archive 'CCDC 1053417'
loop_
_citation_id
_citation_doi
_citation_year
1 10.1021/ja512137t 2015
_audit_update_record             
;
2015-03-11 deposited with the CCDC.	2024-07-12 downloaded from the CCDC.
;

_audit_creation_method           SHELXL-97
_chemical_name_systematic        
; 
 ? 
;
_chemical_name_common            ?
_chemical_melting_point          ?
_chemical_formula_moiety         'C42 H18 N6 Ni3 O19'
_chemical_formula_sum            'C42 H18 N6 Ni3 O19'
_chemical_formula_weight         1086.75

loop_
_atom_type_symbol
_atom_type_description
_atom_type_scat_dispersion_real
_atom_type_scat_dispersion_imag
_atom_type_scat_source
C C 0.0033 0.0016 'International Tables Vol C Tables 4.2.6.8 and 6.1.1.4'
H H 0.0000 0.0000 'International Tables Vol C Tables 4.2.6.8 and 6.1.1.4'
N N 0.0061 0.0033 'International Tables Vol C Tables 4.2.6.8 and 6.1.1.4'
O O 0.0106 0.0060 'International Tables Vol C Tables 4.2.6.8 and 6.1.1.4'
Ni Ni 0.3393 1.1124 'International Tables Vol C Tables 4.2.6.8 and 6.1.1.4'

_symmetry_cell_setting           Hexagonal
_symmetry_space_group_name_H-M   'P 63/m m c'
_symmetry_space_group_name_Hall  '-P 6C 2C'

loop_
_symmetry_equiv_pos_as_xyz
'x, y, z'
'-y, x-y, z'
'-x+y, -x, z'
'-x, -y, z+1/2'
'y, -x+y, z+1/2'
'x-y, x, z+1/2'
'y, x, -z'
'x-y, -y, -z'
'-x, -x+y, -z'
'-y, -x, -z+1/2'
'-x+y, y, -z+1/2'
'x, x-y, -z+1/2'
'-x, -y, -z'
'y, -x+y, -z'
'x-y, x, -z'
'x, y, -z-1/2'
'-y, x-y, -z-1/2'
'-x+y, -x, -z-1/2'
'-y, -x, z'
'-x+y, y, z'
'x, x-y, z'
'y, x, z-1/2'
'x-y, -y, z-1/2'
'-x, -x+y, z-1/2'

_cell_length_a                   16.7427(4)
_cell_length_b                   16.7427(4)
_cell_length_c                   15.3279(8)
_cell_angle_alpha                90.00
_cell_angle_beta                 90.00
_cell_angle_gamma                120.00
_cell_volume                     3721.0(2)
_cell_formula_units_Z            2
_cell_measurement_temperature    296(2)
_cell_measurement_reflns_used    ?
_cell_measurement_theta_min      ?
_cell_measurement_theta_max      ?

_exptl_crystal_description       needle
_exptl_crystal_colour            green
_exptl_crystal_size_max          0.031
_exptl_crystal_size_mid          0.028
_exptl_crystal_size_min          0.025
_exptl_crystal_density_meas      ?
_exptl_crystal_density_diffrn    0.970
_exptl_crystal_density_method    'not measured'
_exptl_crystal_F_000             1096
_exptl_absorpt_coefficient_mu    0.803
_exptl_absorpt_correction_type   multi-scan
_exptl_absorpt_correction_T_min  0.6431
_exptl_absorpt_correction_T_max  0.7452
_exptl_absorpt_process_details   'SADABS 2012/1'

_exptl_special_details           
; 
 ? 
;

_diffrn_ambient_temperature      296(2)
_diffrn_radiation_wavelength     0.71073
_diffrn_radiation_type           MoK\a
_diffrn_radiation_source         'fine-focus sealed tube'
_diffrn_radiation_monochromator  graphite
_diffrn_measurement_device_type  ?
_diffrn_measurement_method       ?
_diffrn_detector_area_resol_mean ?
_diffrn_standards_number         ?
_diffrn_standards_interval_count ?
_diffrn_standards_interval_time  ?
_diffrn_standards_decay_%        ?
_diffrn_reflns_number            13549
_diffrn_reflns_av_R_equivalents  0.1182
_diffrn_reflns_av_sigmaI/netI    0.0579
_diffrn_reflns_limit_h_min       -18
_diffrn_reflns_limit_h_max       18
_diffrn_reflns_limit_k_min       -10
_diffrn_reflns_limit_k_max       19
_diffrn_reflns_limit_l_min       -17
_diffrn_reflns_limit_l_max       18
_diffrn_reflns_theta_min         1.40
_diffrn_reflns_theta_max         25.00
_reflns_number_total             1265
_reflns_number_gt                969
_reflns_threshold_expression     >2sigma(I)

_computing_data_collection       ?
_computing_cell_refinement       ?
_computing_data_reduction        ?
_computing_structure_solution    'SHELXS-97 (Sheldrick, 1990)'
_computing_structure_refinement  'SHELXL-97 (Sheldrick, 1997)'
_computing_molecular_graphics    ?
_computing_publication_material  ?

_refine_special_details          
; 
 Refinement of F^2^ against ALL reflections.  The weighted R-factor wR and 
 goodness of fit S are based on F^2^, conventional R-factors R are based 
 on F, with F set to zero for negative F^2^. The threshold expression of 
 F^2^ > 2sigma(F^2^) is used only for calculating R-factors(gt) etc. and is 
 not relevant to the choice of reflections for refinement.  R-factors based 
 on F^2^ are statistically about twice as large as those based on F, and R- 
 factors based on ALL data will be even larger. 
;

_refine_ls_structure_factor_coef Fsqd
_refine_ls_matrix_type           full
_refine_ls_weighting_scheme      calc
_refine_ls_weighting_details     
'calc w=1/[\s^2^(Fo^2^)+(0.0940P)^2^+0.0000P] where P=(Fo^2^+2Fc^2^)/3'
_atom_sites_solution_primary     direct
_atom_sites_solution_secondary   difmap
_atom_sites_solution_hydrogens   geom
_refine_ls_hydrogen_treatment    constr
_refine_ls_extinction_method     SHELXL
_refine_ls_extinction_coef       0.0002(4)
_refine_ls_extinction_expression Fc^*^=kFc[1+0.001xFc^2^\l^3^/sin(2\q)]^-1/4^
_refine_ls_number_reflns         1265
_refine_ls_number_parameters     75
_refine_ls_number_restraints     93
_refine_ls_R_factor_all          0.0747
_refine_ls_R_factor_gt           0.0520
_refine_ls_wR_factor_ref         0.1514
_refine_ls_wR_factor_gt          0.1429
_refine_ls_goodness_of_fit_ref   1.042
_refine_ls_restrained_S_all      1.142
_refine_ls_shift/su_max          0.002
_refine_ls_shift/su_mean         0.000

loop_
_atom_site_label
_atom_site_type_symbol
_atom_site_fract_x
_atom_site_fract_y
_atom_site_fract_z
_atom_site_U_iso_or_equiv
_atom_site_adp_type
_atom_site_occupancy
_atom_site_symmetry_multiplicity
_atom_site_calc_flag
_atom_site_refinement_flags
_atom_site_disorder_assembly
_atom_site_disorder_group
Ni1 Ni 0.73533(3) 0.47067(7) 0.7500 0.0153(4) Uani 1 4 d SU . .
N1 N 0.8080(2) 0.6159(5) 0.7500 0.0276(16) Uani 1 4 d SU . .
O1 O 0.6667 0.3333 0.7500 0.035(3) Uani 1 12 d SU . .
O2 O 0.6539(2) 0.4788(2) 0.6544(2) 0.0452(10) Uani 1 1 d U . .
C5 C 0.5733(2) 0.4267(2) 0.6297(4) 0.0255(13) Uani 1 2 d SU . .
C2 C 0.9497(5) 0.7586(5) 0.7500 0.054(2) Uani 1 2 d SU . .
H2A H 1.0138 0.7891 0.7500 0.065 Uiso 1 2 calc SR . .
C3 C 0.9039(3) 0.8077(7) 0.7500 0.047(3) Uani 1 4 d SU . .
N2 N 0.9057(6) 0.9529(3) 0.7500 0.057(3) Uani 1 4 d SU . .
C1 C 0.8996(5) 0.6641(5) 0.7500 0.0443(18) Uani 1 2 d SU . .
H1A H 0.9315 0.6319 0.7500 0.053 Uiso 1 2 calc SR . .
C4 C 0.9555(3) 0.9111(7) 0.7500 0.053(3) Uani 1 4 d SU . .
C6 C 0.5363(2) 0.4637(2) 0.5609(4) 0.0336(16) Uani 1 2 d SDU . .
C7 C 0.4492(3) 0.4113(3) 0.5281(2) 0.0626(18) Uani 1 1 d DU . .
O3 O 0.3923(5) 0.3213(5) 0.5493(5) 0.102(3) Uani 0.50 1 d PDU . .
H3A H 0.4171 0.3055 0.5862 0.153 Uiso 0.50 1 calc PR . .

loop_
_atom_site_aniso_label
_atom_site_aniso_U_11
_atom_site_aniso_U_22
_atom_site_aniso_U_33
_atom_site_aniso_U_23
_atom_site_aniso_U_13
_atom_site_aniso_U_12
Ni1 0.0145(5) 0.0138(6) 0.0174(5) 0.000 0.000 0.0069(3)
N1 0.019(3) 0.015(3) 0.047(4) 0.000 0.000 0.0076(17)
O1 0.013(3) 0.013(3) 0.078(8) 0.000 0.000 0.0065(15)
O2 0.036(2) 0.031(2) 0.055(2) 0.0156(16) -0.0240(16) 0.0069(16)
C5 0.025(2) 0.025(2) 0.025(3) 0.0028(12) -0.0028(12) 0.010(3)
C2 0.019(4) 0.024(4) 0.116(6) 0.000 0.000 0.008(3)
C3 0.024(4) 0.024(5) 0.092(7) 0.000 0.000 0.012(2)
N2 0.028(5) 0.021(3) 0.125(8) 0.000 0.000 0.014(2)
C1 0.023(4) 0.025(3) 0.086(5) 0.000 0.000 0.012(3)
C4 0.014(3) 0.022(5) 0.125(9) 0.000 0.000 0.011(2)
C6 0.032(3) 0.032(3) 0.032(3) 0.0099(14) -0.0099(14) 0.012(3)
C7 0.039(3) 0.041(3) 0.085(4) 0.036(3) -0.021(3) 0.003(3)
O3 0.071(5) 0.055(5) 0.134(6) 0.050(5) -0.067(5) -0.004(4)

_geom_special_details            
; 
 All esds (except the esd in the dihedral angle between two l.s. planes) 
 are estimated using the full covariance matrix.  The cell esds are taken 
 into account individually in the estimation of esds in distances, angles 
 and torsion angles; correlations between esds in cell parameters are only 
 used when they are defined by crystal symmetry.  An approximate (isotropic) 
 treatment of cell esds is used for estimating esds involving l.s. planes. 
;

loop_
_geom_bond_atom_site_label_1
_geom_bond_atom_site_label_2
_geom_bond_distance
_geom_bond_site_symmetry_2
_geom_bond_publ_flag
Ni1 O1 1.9913(9) . ?
Ni1 O2 2.052(3) . ?
Ni1 O2 2.052(3) 11_656 ?
Ni1 O2 2.052(3) 16_557 ?
Ni1 O2 2.052(3) 20_655 ?
Ni1 N1 2.106(7) . ?
N1 C1 1.329(8) . ?
N1 C1 1.329(8) 20_655 ?
O1 Ni1 1.9913(9) 3_665 ?
O1 Ni1 1.9913(10) 2_655 ?
O2 C5 1.245(4) . ?
C5 O2 1.245(4) 19_665 ?
C5 C6 1.504(8) . ?
C2 C1 1.371(10) . ?
C2 C3 1.378(9) . ?
C3 C2 1.378(9) 20_655 ?
C3 C4 1.498(14) . ?
N2 C4 1.330(6) 3_675 ?
N2 C4 1.330(6) . ?
C4 N2 1.330(6) 2_765 ?
C6 C7 1.366(6) . ?
C6 C7 1.366(6) 19_665 ?
C7 O3 1.360(7) . ?
C7 C7 1.398(9) 7_556 ?

loop_
_geom_angle_atom_site_label_1
_geom_angle_atom_site_label_2
_geom_angle_atom_site_label_3
_geom_angle
_geom_angle_site_symmetry_1
_geom_angle_site_symmetry_3
_geom_angle_publ_flag
O1 Ni1 O2 93.30(9) . . ?
O1 Ni1 O2 93.30(9) . 11_656 ?
O2 Ni1 O2 173.39(19) . 11_656 ?
O1 Ni1 O2 93.30(9) . 16_557 ?
O2 Ni1 O2 91.1(2) . 16_557 ?
O2 Ni1 O2 88.5(2) 11_656 16_557 ?
O1 Ni1 O2 93.30(9) . 20_655 ?
O2 Ni1 O2 88.5(2) . 20_655 ?
O2 Ni1 O2 91.1(2) 11_656 20_655 ?
O2 Ni1 O2 173.39(19) 16_557 20_655 ?
O1 Ni1 N1 180.000(1) . . ?
O2 Ni1 N1 86.70(9) . . ?
O2 Ni1 N1 86.70(9) 11_656 . ?
O2 Ni1 N1 86.70(9) 16_557 . ?
O2 Ni1 N1 86.70(9) 20_655 . ?
C1 N1 C1 116.6(8) . 20_655 ?
C1 N1 Ni1 121.7(4) . . ?
C1 N1 Ni1 121.7(4) 20_655 . ?
Ni1 O1 Ni1 120.0 3_665 2_655 ?
Ni1 O1 Ni1 120.0 3_665 . ?
Ni1 O1 Ni1 120.0 2_655 . ?
C5 O2 Ni1 134.0(3) . . ?
O2 C5 O2 126.4(5) . 19_665 ?
O2 C5 C6 116.8(3) . . ?
O2 C5 C6 116.8(3) 19_665 . ?
C1 C2 C3 119.1(7) . . ?
C2 C3 C2 117.7(9) 20_655 . ?
C2 C3 C4 121.2(5) 20_655 . ?
C2 C3 C4 121.2(5) . . ?
C4 N2 C4 114.2(11) 3_675 . ?
N1 C1 C2 123.7(7) . . ?
N2 C4 N2 125.8(11) 2_765 . ?
N2 C4 C3 117.1(5) 2_765 . ?
N2 C4 C3 117.1(5) . . ?
C7 C6 C7 117.3(6) . 19_665 ?
C7 C6 C5 121.3(3) . . ?
C7 C6 C5 121.3(3) 19_665 . ?
O3 C7 C6 123.8(5) . . ?
O3 C7 C7 115.1(4) . 7_556 ?
C6 C7 C7 121.1(3) . 7_556 ?

_diffrn_measured_fraction_theta_max 0.999
_diffrn_reflns_theta_full        25.00
_diffrn_measured_fraction_theta_full 0.999
_refine_diff_density_max         0.916
_refine_diff_density_min         -0.525
_refine_diff_density_rms         0.072
